 "x_c",  "y_c",  "u_c",  "v_c",  "exx",  "eyy",  "exy",  "e1",  "e2",  "gamma",  "e_vonmises",  "sigma",  "x",  "y",  "u",  "v"
-700,715,0,0,0,0,0,0,0,0,0,-1,524,309,0,0
-693,715,0,0,0,0,0,0,0,0,0,-1,531,309,0,0
-686,715,0,0,0,0,0,0,0,0,0,-1,538,309,0,0
-679,715,0,0,0,0,0,0,0,0,0,-1,545,309,0,0
-672,715,0,0,0,0,0,0,0,0,0,-1,552,309,0,0
-665,715,0,0,0,0,0,0,0,0,0,-1,559,309,0,0
-658,715,0,0,0,0,0,0,0,0,0,-1,566,309,0,0
-651,715,0,0,0,0,0,0,0,0,0,-1,573,309,0,0
-644,715,0,0,0,0,0,0,0,0,0,-1,580,309,0,0
-637,715,0,0,0,0,0,0,0,0,0,-1,587,309,0,0
-630,715,0,0,0,0,0,0,0,0,0,-1,594,309,0,0
-623,715,0,0,0,0,0,0,0,0,0,-1,601,309,0,0
-616,715,0,0,0,0,0,0,0,0,0,-1,608,309,0,0
-609,715,0,0,0,0,0,0,0,0,0,-1,615,309,0,0
-602,715,0,0,0,0,0,0,0,0,0,-1,622,309,0,0
-595,715,0,0,0,0,0,0,0,0,0,-1,629,309,0,0
-588,715,0,0,0,0,0,0,0,0,0,-1,636,309,0,0
-581,715,0,0,0,0,0,0,0,0,0,-1,643,309,0,0
-574,715,0,0,0,0,0,0,0,0,0,-1,650,309,0,0
-567,715,0,0,0,0,0,0,0,0,0,-1,657,309,0,0
-560,715,0,0,0,0,0,0,0,0,0,-1,664,309,0,0
-553,715,0,0,0,0,0,0,0,0,0,-1,671,309,0,0
-546,715,0,0,0,0,0,0,0,0,0,-1,678,309,0,0
-539,715,0,0,0,0,0,0,0,0,0,-1,685,309,0,0
-532,715,0,0,0,0,0,0,0,0,0,-1,692,309,0,0
-525,715,0,0,0,0,0,0,0,0,0,-1,699,309,0,0
-518,715,0,0,0,0,0,0,0,0,0,-1,706,309,0,0
-511,715,0,0,0,0,0,0,0,0,0,-1,713,309,0,0
-504,715,0,0,0,0,0,0,0,0,0,-1,720,309,0,0
-497,715,0,0,0,0,0,0,0,0,0,-1,727,309,0,0
-490,715,0,0,0,0,0,0,0,0,0,-1,734,309,0,0
-483,715,0,0,0,0,0,0,0,0,0,-1,741,309,0,0
-476,715,0,0,0,0,0,0,0,0,0,-1,748,309,0,0
-469,715,0,0,0,0,0,0,0,0,0,-1,755,309,0,0
-462,715,0,0,0,0,0,0,0,0,0,-1,762,309,0,0
-455,715,0,0,0,0,0,0,0,0,0,-1,769,309,0,0
-448,715,0,0,0,0,0,0,0,0,0,-1,776,309,0,0
-441,715,0,0,0,0,0,0,0,0,0,-1,783,309,0,0
-434,715,0,0,0,0,0,0,0,0,0,-1,790,309,0,0
-427,715,0,0,0,0,0,0,0,0,0,-1,797,309,0,0
-420,715,0,0,0,0,0,0,0,0,0,-1,804,309,0,0
-413,715,0,0,0,0,0,0,0,0,0,-1,811,309,0,0
-406,715,0,0,0,0,0,0,0,0,0,-1,818,309,0,0
-399,715,0,0,0,0,0,0,0,0,0,-1,825,309,0,0
-392,715,0,0,0,0,0,0,0,0,0,-1,832,309,0,0
-385,715,0,0,0,0,0,0,0,0,0,-1,839,309,0,0
-378,715,0,0,0,0,0,0,0,0,0,-1,846,309,0,0
-371,715,0,0,0,0,0,0,0,0,0,-1,853,309,0,0
-364,715,0,0,0,0,0,0,0,0,0,-1,860,309,0,0
-357,715,0,0,0,0,0,0,0,0,0,-1,867,309,0,0
-350,715,0,0,0,0,0,0,0,0,0,-1,874,309,0,0
-343,715,0,0,0,0,0,0,0,0,0,-1,881,309,0,0
-336,715,0,0,0,0,0,0,0,0,0,-1,888,309,0,0
-329,715,0,0,0,0,0,0,0,0,0,-1,895,309,0,0
-322,715,0,0,0,0,0,0,0,0,0,-1,902,309,0,0
-315,715,0,0,0,0,0,0,0,0,0,-1,909,309,0,0
-308,715,0,0,0,0,0,0,0,0,0,-1,916,309,0,0
-301,715,0,0,0,0,0,0,0,0,0,-1,923,309,0,0
-294,715,0,0,0,0,0,0,0,0,0,-1,930,309,0,0
-287,715,0,0,0,0,0,0,0,0,0,-1,937,309,0,0
-280,715,0,0,0,0,0,0,0,0,0,-1,944,309,0,0
-273,715,0,0,0,0,0,0,0,0,0,-1,951,309,0,0
-266,715,0,0,0,0,0,0,0,0,0,-1,958,309,0,0
-259,715,0,0,0,0,0,0,0,0,0,-1,965,309,0,0
-252,715,0,0,0,0,0,0,0,0,0,-1,972,309,0,0
-245,715,0,0,0,0,0,0,0,0,0,-1,979,309,0,0
-238,715,0,0,0,0,0,0,0,0,0,-1,986,309,0,0
-231,715,0,0,0,0,0,0,0,0,0,-1,993,309,0,0
-224,715,0,0,0,0,0,0,0,0,0,-1,1000,309,0,0
-217,715,0,0,0,0,0,0,0,0,0,-1,1007,309,0,0
-210,715,0,0,0,0,0,0,0,0,0,-1,1014,309,0,0
-203,715,0,0,0,0,0,0,0,0,0,-1,1021,309,0,0
-196,715,0,0,0,0,0,0,0,0,0,-1,1028,309,0,0
-189,715,0,0,0,0,0,0,0,0,0,-1,1035,309,0,0
-182,715,0,0,0,0,0,0,0,0,0,-1,1042,309,0,0
-175,715,0,0,0,0,0,0,0,0,0,-1,1049,309,0,0
-168,715,0,0,0,0,0,0,0,0,0,-1,1056,309,0,0
-161,715,0,0,0,0,0,0,0,0,0,-1,1063,309,0,0
-154,715,0,0,0,0,0,0,0,0,0,-1,1070,309,0,0
-147,715,0,0,0,0,0,0,0,0,0,-1,1077,309,0,0
-140,715,0,0,0,0,0,0,0,0,0,-1,1084,309,0,0
-133,715,0,0,0,0,0,0,0,0,0,-1,1091,309,0,0
-126,715,0,0,0,0,0,0,0,0,0,-1,1098,309,0,0
-119,715,0,0,0,0,0,0,0,0,0,-1,1105,309,0,0
-112,715,0,0,0,0,0,0,0,0,0,-1,1112,309,0,0
-105,715,0,0,0,0,0,0,0,0,0,-1,1119,309,0,0
-98,715,0,0,0,0,0,0,0,0,0,-1,1126,309,0,0
-91,715,0,0,0,0,0,0,0,0,0,-1,1133,309,0,0
-84,715,0,0,0,0,0,0,0,0,0,-1,1140,309,0,0
-77,715,0,0,0,0,0,0,0,0,0,-1,1147,309,0,0
-70,715,0,0,0,0,0,0,0,0,0,-1,1154,309,0,0
-63,715,0,0,0,0,0,0,0,0,0,-1,1161,309,0,0
-56,715,0,0,0,0,0,0,0,0,0,-1,1168,309,0,0
-49,715,0,0,0,0,0,0,0,0,0,-1,1175,309,0,0
-42,715,0,0,0,0,0,0,0,0,0,-1,1182,309,0,0
-35,715,0,0,0,0,0,0,0,0,0,-1,1189,309,0,0
-28,715,0,0,0,0,0,0,0,0,0,-1,1196,309,0,0
-21,715,0,0,0,0,0,0,0,0,0,-1,1203,309,0,0
-14,715,0,0,0,0,0,0,0,0,0,-1,1210,309,0,0
-7,715,0,0,0,0,0,0,0,0,0,-1,1217,309,0,0
0,715,0,0,0,0,0,0,0,0,0,-1,1224,309,0,0
7,715,0,0,0,0,0,0,0,0,0,-1,1231,309,0,0
14,715,0,0,0,0,0,0,0,0,0,-1,1238,309,0,0
21,715,0,0,0,0,0,0,0,0,0,-1,1245,309,0,0
28,715,0,0,0,0,0,0,0,0,0,-1,1252,309,0,0
35,715,0,0,0,0,0,0,0,0,0,-1,1259,309,0,0
42,715,0,0,0,0,0,0,0,0,0,-1,1266,309,0,0
49,715,0,0,0,0,0,0,0,0,0,-1,1273,309,0,0
56,715,0,0,0,0,0,0,0,0,0,-1,1280,309,0,0
63,715,6.16992,-39.7348,0.0228209,0.112835,-0.0372912,0.126277,0.00937914,-1.22484,0.0812391,0.0443012,1287,309,6.16996,39.7348
70,715,5.74255,-39.8725,0.0274695,0.10836,-0.0349771,0.121387,0.0144432,-1.21429,0.0765655,0.043272,1294,309,5.7426,39.8725
77,715,0,0,0,0,0,0,0,0,0,-1,1301,309,0,0
84,715,0,0,0,0,0,0,0,0,0,-1,1308,309,0,0
91,715,0,0,0,0,0,0,0,0,0,-1,1315,309,0,0
98,715,0,0,0,0,0,0,0,0,0,-1,1322,309,0,0
105,715,0,0,0,0,0,0,0,0,0,-1,1329,309,0,0
112,715,0,0,0,0,0,0,0,0,0,-1,1336,309,0,0
119,715,0,0,0,0,0,0,0,0,0,-1,1343,309,0,0
126,715,0,0,0,0,0,0,0,0,0,-1,1350,309,0,0
133,715,0,0,0,0,0,0,0,0,0,-1,1357,309,0,0
140,715,0,0,0,0,0,0,0,0,0,-1,1364,309,0,0
147,715,0,0,0,0,0,0,0,0,0,-1,1371,309,0,0
154,715,0,0,0,0,0,0,0,0,0,-1,1378,309,0,0
161,715,0,0,0,0,0,0,0,0,0,-1,1385,309,0,0
168,715,0,0,0,0,0,0,0,0,0,-1,1392,309,0,0
175,715,0,0,0,0,0,0,0,0,0,-1,1399,309,0,0
182,715,0,0,0,0,0,0,0,0,0,-1,1406,309,0,0
189,715,0,0,0,0,0,0,0,0,0,-1,1413,309,0,0
196,715,0,0,0,0,0,0,0,0,0,-1,1420,309,0,0
203,715,0,0,0,0,0,0,0,0,0,-1,1427,309,0,0
210,715,0,0,0,0,0,0,0,0,0,-1,1434,309,0,0
217,715,0,0,0,0,0,0,0,0,0,-1,1441,309,0,0
224,715,0,0,0,0,0,0,0,0,0,-1,1448,309,0,0
231,715,0,0,0,0,0,0,0,0,0,-1,1455,309,0,0
238,715,0,0,0,0,0,0,0,0,0,-1,1462,309,0,0
245,715,0,0,0,0,0,0,0,0,0,-1,1469,309,0,0
252,715,0,0,0,0,0,0,0,0,0,-1,1476,309,0,0
259,715,0,0,0,0,0,0,0,0,0,-1,1483,309,0,0
266,715,0,0,0,0,0,0,0,0,0,-1,1490,309,0,0
273,715,0,0,0,0,0,0,0,0,0,-1,1497,309,0,0
280,715,0,0,0,0,0,0,0,0,0,-1,1504,309,0,0
287,715,0,0,0,0,0,0,0,0,0,-1,1511,309,0,0
294,715,0,0,0,0,0,0,0,0,0,-1,1518,309,0,0
301,715,0,0,0,0,0,0,0,0,0,-1,1525,309,0,0
308,715,0,0,0,0,0,0,0,0,0,-1,1532,309,0,0
315,715,0,0,0,0,0,0,0,0,0,-1,1539,309,0,0
322,715,0,0,0,0,0,0,0,0,0,-1,1546,309,0,0
329,715,0,0,0,0,0,0,0,0,0,-1,1553,309,0,0
336,715,0,0,0,0,0,0,0,0,0,-1,1560,309,0,0
343,715,0,0,0,0,0,0,0,0,0,-1,1567,309,0,0
350,715,0,0,0,0,0,0,0,0,0,-1,1574,309,0,0
357,715,0,0,0,0,0,0,0,0,0,-1,1581,309,0,0
364,715,0,0,0,0,0,0,0,0,0,-1,1588,309,0,0
371,715,0,0,0,0,0,0,0,0,0,-1,1595,309,0,0
378,715,0,0,0,0,0,0,0,0,0,-1,1602,309,0,0
385,715,0,0,0,0,0,0,0,0,0,-1,1609,309,0,0
392,715,0,0,0,0,0,0,0,0,0,-1,1616,309,0,0
399,715,0,0,0,0,0,0,0,0,0,-1,1623,309,0,0
406,715,0,0,0,0,0,0,0,0,0,-1,1630,309,0,0
413,715,0,0,0,0,0,0,0,0,0,-1,1637,309,0,0
420,715,0,0,0,0,0,0,0,0,0,-1,1644,309,0,0
427,715,0,0,0,0,0,0,0,0,0,-1,1651,309,0,0
434,715,0,0,0,0,0,0,0,0,0,-1,1658,309,0,0
441,715,0,0,0,0,0,0,0,0,0,-1,1665,309,0,0
448,715,0,0,0,0,0,0,0,0,0,-1,1672,309,0,0
455,715,0,0,0,0,0,0,0,0,0,-1,1679,309,0,0
462,715,0,0,0,0,0,0,0,0,0,-1,1686,309,0,0
469,715,0,0,0,0,0,0,0,0,0,-1,1693,309,0,0
476,715,0,0,0,0,0,0,0,0,0,-1,1700,309,0,0
483,715,0,0,0,0,0,0,0,0,0,-1,1707,309,0,0
490,715,0,0,0,0,0,0,0,0,0,-1,1714,309,0,0
497,715,0,0,0,0,0,0,0,0,0,-1,1721,309,0,0
504,715,0,0,0,0,0,0,0,0,0,-1,1728,309,0,0
511,715,0,0,0,0,0,0,0,0,0,-1,1735,309,0,0
518,715,0,0,0,0,0,0,0,0,0,-1,1742,309,0,0
525,715,0,0,0,0,0,0,0,0,0,-1,1749,309,0,0
532,715,0,0,0,0,0,0,0,0,0,-1,1756,309,0,0
539,715,0,0,0,0,0,0,0,0,0,-1,1763,309,0,0
546,715,0,0,0,0,0,0,0,0,0,-1,1770,309,0,0
553,715,0,0,0,0,0,0,0,0,0,-1,1777,309,0,0
560,715,0,0,0,0,0,0,0,0,0,-1,1784,309,0,0
567,715,0,0,0,0,0,0,0,0,0,-1,1791,309,0,0
574,715,0,0,0,0,0,0,0,0,0,-1,1798,309,0,0
581,715,0,0,0,0,0,0,0,0,0,-1,1805,309,0,0
588,715,0,0,0,0,0,0,0,0,0,-1,1812,309,0,0
595,715,0,0,0,0,0,0,0,0,0,-1,1819,309,0,0
602,715,0,0,0,0,0,0,0,0,0,-1,1826,309,0,0
609,715,0,0,0,0,0,0,0,0,0,-1,1833,309,0,0
616,715,0,0,0,0,0,0,0,0,0,-1,1840,309,0,0
623,715,0,0,0,0,0,0,0,0,0,-1,1847,309,0,0
630,715,0,0,0,0,0,0,0,0,0,-1,1854,309,0,0
637,715,0,0,0,0,0,0,0,0,0,-1,1861,309,0,0
644,715,0,0,0,0,0,0,0,0,0,-1,1868,309,0,0
651,715,0,0,0,0,0,0,0,0,0,-1,1875,309,0,0
658,715,0,0,0,0,0,0,0,0,0,-1,1882,309,0,0
665,715,0,0,0,0,0,0,0,0,0,-1,1889,309,0,0
672,715,0,0,0,0,0,0,0,0,0,-1,1896,309,0,0
679,715,0,0,0,0,0,0,0,0,0,-1,1903,309,0,0
686,715,0,0,0,0,0,0,0,0,0,-1,1910,309,0,0
693,715,0,0,0,0,0,0,0,0,0,-1,1917,309,0,0
700,715,0,0,0,0,0,0,0,0,0,-1,1924,309,0,0
707,715,0,0,0,0,0,0,0,0,0,-1,1931,309,0,0
714,715,0,0,0,0,0,0,0,0,0,-1,1938,309,0,0
721,715,0,0,0,0,0,0,0,0,0,-1,1945,309,0,0
728,715,0,0,0,0,0,0,0,0,0,-1,1952,309,0,0
735,715,0,0,0,0,0,0,0,0,0,-1,1959,309,0,0
742,715,0,0,0,0,0,0,0,0,0,-1,1966,309,0,0
749,715,0,0,0,0,0,0,0,0,0,-1,1973,309,0,0
756,715,0,0,0,0,0,0,0,0,0,-1,1980,309,0,0
763,715,0,0,0,0,0,0,0,0,0,-1,1987,309,0,0
770,715,0,0,0,0,0,0,0,0,0,-1,1994,309,0,0
777,715,0,0,0,0,0,0,0,0,0,-1,2001,309,0,0
784,715,0,0,0,0,0,0,0,0,0,-1,2008,309,0,0
791,715,0,0,0,0,0,0,0,0,0,-1,2015,309,0,0
798,715,0,0,0,0,0,0,0,0,0,-1,2022,309,0,0
805,715,0,0,0,0,0,0,0,0,0,-1,2029,309,0,0
812,715,0,0,0,0,0,0,0,0,0,-1,2036,309,0,0
-700,708,0,0,0,0,0,0,0,0,0,-1,524,316,0,0
-693,708,0,0,0,0,0,0,0,0,0,-1,531,316,0,0
-686,708,0,0,0,0,0,0,0,0,0,-1,538,316,0,0
-679,708,0,0,0,0,0,0,0,0,0,-1,545,316,0,0
-672,708,0,0,0,0,0,0,0,0,0,-1,552,316,0,0
-665,708,0,0,0,0,0,0,0,0,0,-1,559,316,0,0
-658,708,0,0,0,0,0,0,0,0,0,-1,566,316,0,0
-651,708,0,0,0,0,0,0,0,0,0,-1,573,316,0,0
-644,708,0,0,0,0,0,0,0,0,0,-1,580,316,0,0
-637,708,0,0,0,0,0,0,0,0,0,-1,587,316,0,0
-630,708,0,0,0,0,0,0,0,0,0,-1,594,316,0,0
-623,708,0,0,0,0,0,0,0,0,0,-1,601,316,0,0
-616,708,0,0,0,0,0,0,0,0,0,-1,608,316,0,0
-609,708,0,0,0,0,0,0,0,0,0,-1,615,316,0,0
-602,708,0,0,0,0,0,0,0,0,0,-1,622,316,0,0
-595,708,0,0,0,0,0,0,0,0,0,-1,629,316,0,0
-588,708,0,0,0,0,0,0,0,0,0,-1,636,316,0,0
-581,708,0,0,0,0,0,0,0,0,0,-1,643,316,0,0
-574,708,0,0,0,0,0,0,0,0,0,-1,650,316,0,0
-567,708,0,0,0,0,0,0,0,0,0,-1,657,316,0,0
-560,708,0,0,0,0,0,0,0,0,0,-1,664,316,0,0
-553,708,0,0,0,0,0,0,0,0,0,-1,671,316,0,0
-546,708,0,0,0,0,0,0,0,0,0,-1,678,316,0,0
-539,708,0,0,0,0,0,0,0,0,0,-1,685,316,0,0
-532,708,0,0,0,0,0,0,0,0,0,-1,692,316,0,0
-525,708,0,0,0,0,0,0,0,0,0,-1,699,316,0,0
-518,708,0,0,0,0,0,0,0,0,0,-1,706,316,0,0
-511,708,0,0,0,0,0,0,0,0,0,-1,713,316,0,0
-504,708,0,0,0,0,0,0,0,0,0,-1,720,316,0,0
-497,708,0,0,0,0,0,0,0,0,0,-1,727,316,0,0
-490,708,0,0,0,0,0,0,0,0,0,-1,734,316,0,0
-483,708,0,0,0,0,0,0,0,0,0,-1,741,316,0,0
-476,708,0,0,0,0,0,0,0,0,0,-1,748,316,0,0
-469,708,0,0,0,0,0,0,0,0,0,-1,755,316,0,0
-462,708,0,0,0,0,0,0,0,0,0,-1,762,316,0,0
-455,708,0,0,0,0,0,0,0,0,0,-1,769,316,0,0
-448,708,0,0,0,0,0,0,0,0,0,-1,776,316,0,0
-441,708,0,0,0,0,0,0,0,0,0,-1,783,316,0,0
-434,708,0,0,0,0,0,0,0,0,0,-1,790,316,0,0
-427,708,0,0,0,0,0,0,0,0,0,-1,797,316,0,0
-420,708,0,0,0,0,0,0,0,0,0,-1,804,316,0,0
-413,708,0,0,0,0,0,0,0,0,0,-1,811,316,0,0
-406,708,0,0,0,0,0,0,0,0,0,-1,818,316,0,0
-399,708,0,0,0,0,0,0,0,0,0,-1,825,316,0,0
-392,708,0,0,0,0,0,0,0,0,0,-1,832,316,0,0
-385,708,0,0,0,0,0,0,0,0,0,-1,839,316,0,0
-378,708,0,0,0,0,0,0,0,0,0,-1,846,316,0,0
-371,708,0,0,0,0,0,0,0,0,0,-1,853,316,0,0
-364,708,0,0,0,0,0,0,0,0,0,-1,860,316,0,0
-357,708,0,0,0,0,0,0,0,0,0,-1,867,316,0,0
-350,708,0,0,0,0,0,0,0,0,0,-1,874,316,0,0
-343,708,0,0,0,0,0,0,0,0,0,-1,881,316,0,0
-336,708,0,0,0,0,0,0,0,0,0,-1,888,316,0,0
-329,708,0,0,0,0,0,0,0,0,0,-1,895,316,0,0
-322,708,0,0,0,0,0,0,0,0,0,-1,902,316,0,0
-315,708,0,0,0,0,0,0,0,0,0,-1,909,316,0,0
-308,708,0,0,0,0,0,0,0,0,0,-1,916,316,0,0
-301,708,0,0,0,0,0,0,0,0,0,-1,923,316,0,0
-294,708,0,0,0,0,0,0,0,0,0,-1,930,316,0,0
-287,708,0,0,0,0,0,0,0,0,0,-1,937,316,0,0
-280,708,0,0,0,0,0,0,0,0,0,-1,944,316,0,0
-273,708,0,0,0,0,0,0,0,0,0,-1,951,316,0,0
-266,708,0,0,0,0,0,0,0,0,0,-1,958,316,0,0
-259,708,0,0,0,0,0,0,0,0,0,-1,965,316,0,0
-252,708,0,0,0,0,0,0,0,0,0,-1,972,316,0,0
-245,708,0,0,0,0,0,0,0,0,0,-1,979,316,0,0
-238,708,0,0,0,0,0,0,0,0,0,-1,986,316,0,0
-231,708,0,0,0,0,0,0,0,0,0,-1,993,316,0,0
-224,708,0,0,0,0,0,0,0,0,0,-1,1000,316,0,0
-217,708,0,0,0,0,0,0,0,0,0,-1,1007,316,0,0
-210,708,0,0,0,0,0,0,0,0,0,-1,1014,316,0,0
-203,708,0,0,0,0,0,0,0,0,0,-1,1021,316,0,0
-196,708,0,0,0,0,0,0,0,0,0,-1,1028,316,0,0
-189,708,0,0,0,0,0,0,0,0,0,-1,1035,316,0,0
-182,708,0,0,0,0,0,0,0,0,0,-1,1042,316,0,0
-175,708,0,0,0,0,0,0,0,0,0,-1,1049,316,0,0
-168,708,0,0,0,0,0,0,0,0,0,-1,1056,316,0,0
-161,708,0,0,0,0,0,0,0,0,0,-1,1063,316,0,0
-154,708,0,0,0,0,0,0,0,0,0,-1,1070,316,0,0
-147,708,0,0,0,0,0,0,0,0,0,-1,1077,316,0,0
-140,708,0,0,0,0,0,0,0,0,0,-1,1084,316,0,0
-133,708,0,0,0,0,0,0,0,0,0,-1,1091,316,0,0
-126,708,0,0,0,0,0,0,0,0,0,-1,1098,316,0,0
-119,708,0,0,0,0,0,0,0,0,0,-1,1105,316,0,0
-112,708,0,0,0,0,0,0,0,0,0,-1,1112,316,0,0
-105,708,0,0,0,0,0,0,0,0,0,-1,1119,316,0,0
-98,708,0,0,0,0,0,0,0,0,0,-1,1126,316,0,0
-91,708,0,0,0,0,0,0,0,0,0,-1,1133,316,0,0
-84,708,0,0,0,0,0,0,0,0,0,-1,1140,316,0,0
-77,708,0,0,0,0,0,0,0,0,0,-1,1147,316,0,0
-70,708,0,0,0,0,0,0,0,0,0,-1,1154,316,0,0
-63,708,0,0,0,0,0,0,0,0,0,-1,1161,316,0,0
-56,708,0,0,0,0,0,0,0,0,0,-1,1168,316,0,0
-49,708,0,0,0,0,0,0,0,0,0,-1,1175,316,0,0
-42,708,0,0,0,0,0,0,0,0,0,-1,1182,316,0,0
-35,708,-2.71204,-6.31558,0,0,0,0,0,0,0,-1,1189,316,-2.712,6.3156
-28,708,-2.92371,-5.53253,0,0,0,0,0,0,0,-1,1196,316,-2.92375,5.53254
-21,708,-0.417969,-24.5911,0,0,0,0,0,0,0,-1,1203,316,-0.418022,24.5911
-14,708,4.94763,-42.726,0,0,0,0,0,0,0,-1,1210,316,4.94759,42.726
-7,708,5.81567,-43.7405,0,0,0,0,0,0,0,-1,1217,316,5.81571,43.7405
0,708,8.4071,-44.7695,0,0,0,0,0,0,0,-1,1224,316,8.4071,44.7695
7,708,7.42175,-44.492,-0.0266619,-0.0495647,-0.0323701,-0.00377736,-0.0724492,-0.615386,0.0470909,0.0445855,1231,316,7.42179,44.492
14,708,6.38647,-44.3095,-0.0268514,-0.0343607,-0.0269511,-0.00339468,-0.0578175,-0.716187,0.0374647,0.0449515,1238,316,6.38652,44.3095
21,708,5.64209,-44.2006,-0.0230714,-0.00500763,-0.0253071,0.012831,-0.04091,-0.956799,0.0324084,0.0445585,1245,316,5.64213,44.2006
28,708,5.22864,-43.6825,0,0,0,0,0,0,0,-1,1252,316,5.22869,43.6825
35,708,5.16125,-42.4608,-0.0112306,0.0381245,-0.0213219,0.0460599,-0.019166,-1.21451,0.0387105,0.0430822,1259,316,5.16125,42.4608
42,708,4.82825,-42.2148,-0.00561953,0.0562163,-0.0207287,0.0625219,-0.0119252,-1.27549,0.0461726,0.0418924,1266,316,4.82823,42.2148
49,708,4.91479,-42.0928,0.00277956,0.0722929,-0.022582,0.0789847,-0.00391223,-1.28271,0.0540078,0.0413343,1273,316,4.9148,42.0928
56,708,5.42981,-41.7559,0,0,0,0,0,0,0,-1,1280,316,5.4298,41.7559
63,708,5.98572,-40.4922,0.0171606,0.0887284,-0.0235988,0.0958093,0.0100797,-1.27929,0.0607921,0.0438811,1287,316,5.98572,40.4923
70,708,7.65747,-43.9606,0.0206159,0.0838366,-0.0210523,0.0902054,0.0142471,-1.27703,0.0559953,0.0474099,1294,316,7.65747,43.9606
77,708,6.7417,-43.9108,0.021014,0.0683171,-0.0178975,0.0743256,0.0150056,-1.2469,0.0453831,0.0465127,1301,316,6.74169,43.9108
84,708,5.90173,-43.6131,0,0,0,0,0,0,0,-1,1308,316,5.90177,43.6131
91,708,5.90161,-43.707,0.0119953,0.0238089,-0.00808383,0.027914,0.0078902,-1.10091,0.0166159,0.0455168,1315,316,5.90157,43.707
98,708,5.68323,-43.8542,0.00454359,-0.000421267,-0.000465543,0.00458686,-0.000464543,-0.0926911,0.00322393,0.0450356,1322,316,5.68319,43.8542
105,708,6.25879,-44.1815,-0.00296777,-0.0254143,0.00795119,-0.000436643,-0.0279454,0.308189,0.0184864,0.0481014,1329,316,6.25883,44.1816
112,708,6.78479,-43.9972,-0.0110451,-0.0500641,0.0165029,-0.00500134,-0.0561079,0.351052,0.0358546,0.0444439,1336,316,6.78481,43.9972
119,708,6.79138,-44.131,-0.0222224,-0.0740837,0.0268628,-0.0108166,-0.0854895,0.401527,0.0537515,0.0438884,1343,316,6.79136,44.131
126,708,6.70117,-44.2843,-0.0302828,-0.100703,0.0360695,-0.0150868,-0.115898,0.398729,0.07276,0.0468908,1350,316,6.70112,44.2843
133,708,6.58875,-44.3919,0,0,0,0,0,0,0,-1,1357,316,6.58869,44.3919
140,708,5.50879,-44.0181,-0.0465273,-0.109323,0.0432323,-0.0244944,-0.131356,0.47133,0.0806556,0.0495624,1364,316,5.5088,44.0181
147,708,5.04834,-43.9585,-0.0558098,-0.108517,0.0481875,-0.0272402,-0.137086,0.53517,0.0837999,0.0458964,1371,316,5.04838,43.9585
154,708,0,0,0,0,0,0,0,0,0,-1,1378,316,0,0
161,708,0,0,0,0,0,0,0,0,0,-1,1385,316,0,0
168,708,0,0,0,0,0,0,0,0,0,-1,1392,316,0,0
175,708,0,0,0,0,0,0,0,0,0,-1,1399,316,0,0
182,708,0,0,0,0,0,0,0,0,0,-1,1406,316,0,0
189,708,0,0,0,0,0,0,0,0,0,-1,1413,316,0,0
196,708,0,0,0,0,0,0,0,0,0,-1,1420,316,0,0
203,708,0,0,0,0,0,0,0,0,0,-1,1427,316,0,0
210,708,0,0,0,0,0,0,0,0,0,-1,1434,316,0,0
217,708,0,0,0,0,0,0,0,0,0,-1,1441,316,0,0
224,708,0,0,0,0,0,0,0,0,0,-1,1448,316,0,0
231,708,0,0,0,0,0,0,0,0,0,-1,1455,316,0,0
238,708,0,0,0,0,0,0,0,0,0,-1,1462,316,0,0
245,708,0,0,0,0,0,0,0,0,0,-1,1469,316,0,0
252,708,0,0,0,0,0,0,0,0,0,-1,1476,316,0,0
259,708,0,0,0,0,0,0,0,0,0,-1,1483,316,0,0
266,708,0,0,0,0,0,0,0,0,0,-1,1490,316,0,0
273,708,0,0,0,0,0,0,0,0,0,-1,1497,316,0,0
280,708,0,0,0,0,0,0,0,0,0,-1,1504,316,0,0
287,708,0,0,0,0,0,0,0,0,0,-1,1511,316,0,0
294,708,0,0,0,0,0,0,0,0,0,-1,1518,316,0,0
301,708,0,0,0,0,0,0,0,0,0,-1,1525,316,0,0
308,708,0,0,0,0,0,0,0,0,0,-1,1532,316,0,0
315,708,0,0,0,0,0,0,0,0,0,-1,1539,316,0,0
322,708,0,0,0,0,0,0,0,0,0,-1,1546,316,0,0
329,708,0,0,0,0,0,0,0,0,0,-1,1553,316,0,0
336,708,0,0,0,0,0,0,0,0,0,-1,1560,316,0,0
343,708,0,0,0,0,0,0,0,0,0,-1,1567,316,0,0
350,708,0,0,0,0,0,0,0,0,0,-1,1574,316,0,0
357,708,0,0,0,0,0,0,0,0,0,-1,1581,316,0,0
364,708,0,0,0,0,0,0,0,0,0,-1,1588,316,0,0
371,708,0,0,0,0,0,0,0,0,0,-1,1595,316,0,0
378,708,0,0,0,0,0,0,0,0,0,-1,1602,316,0,0
385,708,0,0,0,0,0,0,0,0,0,-1,1609,316,0,0
392,708,0,0,0,0,0,0,0,0,0,-1,1616,316,0,0
399,708,0,0,0,0,0,0,0,0,0,-1,1623,316,0,0
406,708,0,0,0,0,0,0,0,0,0,-1,1630,316,0,0
413,708,0,0,0,0,0,0,0,0,0,-1,1637,316,0,0
420,708,0,0,0,0,0,0,0,0,0,-1,1644,316,0,0
427,708,0,0,0,0,0,0,0,0,0,-1,1651,316,0,0
434,708,0,0,0,0,0,0,0,0,0,-1,1658,316,0,0
441,708,0,0,0,0,0,0,0,0,0,-1,1665,316,0,0
448,708,0,0,0,0,0,0,0,0,0,-1,1672,316,0,0
455,708,0,0,0,0,0,0,0,0,0,-1,1679,316,0,0
462,708,0,0,0,0,0,0,0,0,0,-1,1686,316,0,0
469,708,0,0,0,0,0,0,0,0,0,-1,1693,316,0,0
476,708,0,0,0,0,0,0,0,0,0,-1,1700,316,0,0
483,708,0,0,0,0,0,0,0,0,0,-1,1707,316,0,0
490,708,0,0,0,0,0,0,0,0,0,-1,1714,316,0,0
497,708,0,0,0,0,0,0,0,0,0,-1,1721,316,0,0
504,708,0,0,0,0,0,0,0,0,0,-1,1728,316,0,0
511,708,0,0,0,0,0,0,0,0,0,-1,1735,316,0,0
518,708,0,0,0,0,0,0,0,0,0,-1,1742,316,0,0
525,708,0,0,0,0,0,0,0,0,0,-1,1749,316,0,0
532,708,0,0,0,0,0,0,0,0,0,-1,1756,316,0,0
539,708,0,0,0,0,0,0,0,0,0,-1,1763,316,0,0
546,708,0,0,0,0,0,0,0,0,0,-1,1770,316,0,0
553,708,0,0,0,0,0,0,0,0,0,-1,1777,316,0,0
560,708,0,0,0,0,0,0,0,0,0,-1,1784,316,0,0
567,708,0,0,0,0,0,0,0,0,0,-1,1791,316,0,0
574,708,0,0,0,0,0,0,0,0,0,-1,1798,316,0,0
581,708,0,0,0,0,0,0,0,0,0,-1,1805,316,0,0
588,708,0,0,0,0,0,0,0,0,0,-1,1812,316,0,0
595,708,0,0,0,0,0,0,0,0,0,-1,1819,316,0,0
602,708,0,0,0,0,0,0,0,0,0,-1,1826,316,0,0
609,708,0,0,0,0,0,0,0,0,0,-1,1833,316,0,0
616,708,0,0,0,0,0,0,0,0,0,-1,1840,316,0,0
623,708,0,0,0,0,0,0,0,0,0,-1,1847,316,0,0
630,708,0,0,0,0,0,0,0,0,0,-1,1854,316,0,0
637,708,0,0,0,0,0,0,0,0,0,-1,1861,316,0,0
644,708,0,0,0,0,0,0,0,0,0,-1,1868,316,0,0
651,708,0,0,0,0,0,0,0,0,0,-1,1875,316,0,0
658,708,0,0,0,0,0,0,0,0,0,-1,1882,316,0,0
665,708,0,0,0,0,0,0,0,0,0,-1,1889,316,0,0
672,708,0,0,0,0,0,0,0,0,0,-1,1896,316,0,0
679,708,0,0,0,0,0,0,0,0,0,-1,1903,316,0,0
686,708,0,0,0,0,0,0,0,0,0,-1,1910,316,0,0
693,708,0,0,0,0,0,0,0,0,0,-1,1917,316,0,0
700,708,0,0,0,0,0,0,0,0,0,-1,1924,316,0,0
707,708,0,0,0,0,0,0,0,0,0,-1,1931,316,0,0
714,708,0,0,0,0,0,0,0,0,0,-1,1938,316,0,0
721,708,0,0,0,0,0,0,0,0,0,-1,1945,316,0,0
728,708,0,0,0,0,0,0,0,0,0,-1,1952,316,0,0
735,708,0,0,0,0,0,0,0,0,0,-1,1959,316,0,0
742,708,0,0,0,0,0,0,0,0,0,-1,1966,316,0,0
749,708,0,0,0,0,0,0,0,0,0,-1,1973,316,0,0
756,708,0,0,0,0,0,0,0,0,0,-1,1980,316,0,0
763,708,0,0,0,0,0,0,0,0,0,-1,1987,316,0,0
770,708,0,0,0,0,0,0,0,0,0,-1,1994,316,0,0
777,708,0,0,0,0,0,0,0,0,0,-1,2001,316,0,0
784,708,0,0,0,0,0,0,0,0,0,-1,2008,316,0,0
791,708,0,0,0,0,0,0,0,0,0,-1,2015,316,0,0
798,708,0,0,0,0,0,0,0,0,0,-1,2022,316,0,0
805,708,0,0,0,0,0,0,0,0,0,-1,2029,316,0,0
812,708,0,0,0,0,0,0,0,0,0,-1,2036,316,0,0
-700,701,0,0,0,0,0,0,0,0,0,-1,524,323,0,0
-693,701,0,0,0,0,0,0,0,0,0,-1,531,323,0,0
-686,701,0,0,0,0,0,0,0,0,0,-1,538,323,0,0
-679,701,0,0,0,0,0,0,0,0,0,-1,545,323,0,0
-672,701,0,0,0,0,0,0,0,0,0,-1,552,323,0,0
-665,701,0,0,0,0,0,0,0,0,0,-1,559,323,0,0
-658,701,0,0,0,0,0,0,0,0,0,-1,566,323,0,0
-651,701,0,0,0,0,0,0,0,0,0,-1,573,323,0,0
-644,701,0,0,0,0,0,0,0,0,0,-1,580,323,0,0
-637,701,0,0,0,0,0,0,0,0,0,-1,587,323,0,0
-630,701,0,0,0,0,0,0,0,0,0,-1,594,323,0,0
-623,701,0,0,0,0,0,0,0,0,0,-1,601,323,0,0
-616,701,0,0,0,0,0,0,0,0,0,-1,608,323,0,0
-609,701,0,0,0,0,0,0,0,0,0,-1,615,323,0,0
-602,701,0,0,0,0,0,0,0,0,0,-1,622,323,0,0
-595,701,0,0,0,0,0,0,0,0,0,-1,629,323,0,0
-588,701,0,0,0,0,0,0,0,0,0,-1,636,323,0,0
-581,701,0,0,0,0,0,0,0,0,0,-1,643,323,0,0
-574,701,0,0,0,0,0,0,0,0,0,-1,650,323,0,0
-567,701,0,0,0,0,0,0,0,0,0,-1,657,323,0,0
-560,701,0,0,0,0,0,0,0,0,0,-1,664,323,0,0
-553,701,0,0,0,0,0,0,0,0,0,-1,671,323,0,0
-546,701,0,0,0,0,0,0,0,0,0,-1,678,323,0,0
-539,701,0,0,0,0,0,0,0,0,0,-1,685,323,0,0
-532,701,0,0,0,0,0,0,0,0,0,-1,692,323,0,0
-525,701,0,0,0,0,0,0,0,0,0,-1,699,323,0,0
-518,701,0,0,0,0,0,0,0,0,0,-1,706,323,0,0
-511,701,0,0,0,0,0,0,0,0,0,-1,713,323,0,0
-504,701,0,0,0,0,0,0,0,0,0,-1,720,323,0,0
-497,701,0,0,0,0,0,0,0,0,0,-1,727,323,0,0
-490,701,0,0,0,0,0,0,0,0,0,-1,734,323,0,0
-483,701,0,0,0,0,0,0,0,0,0,-1,741,323,0,0
-476,701,0,0,0,0,0,0,0,0,0,-1,748,323,0,0
-469,701,0,0,0,0,0,0,0,0,0,-1,755,323,0,0
-462,701,0,0,0,0,0,0,0,0,0,-1,762,323,0,0
-455,701,0,0,0,0,0,0,0,0,0,-1,769,323,0,0
-448,701,0,0,0,0,0,0,0,0,0,-1,776,323,0,0
-441,701,0,0,0,0,0,0,0,0,0,-1,783,323,0,0
-434,701,0,0,0,0,0,0,0,0,0,-1,790,323,0,0
-427,701,0,0,0,0,0,0,0,0,0,-1,797,323,0,0
-420,701,0,0,0,0,0,0,0,0,0,-1,804,323,0,0
-413,701,0,0,0,0,0,0,0,0,0,-1,811,323,0,0
-406,701,0,0,0,0,0,0,0,0,0,-1,818,323,0,0
-399,701,0,0,0,0,0,0,0,0,0,-1,825,323,0,0
-392,701,0,0,0,0,0,0,0,0,0,-1,832,323,0,0
-385,701,0,0,0,0,0,0,0,0,0,-1,839,323,0,0
-378,701,0,0,0,0,0,0,0,0,0,-1,846,323,0,0
-371,701,0,0,0,0,0,0,0,0,0,-1,853,323,0,0
-364,701,0,0,0,0,0,0,0,0,0,-1,860,323,0,0
-357,701,0,0,0,0,0,0,0,0,0,-1,867,323,0,0
-350,701,0,0,0,0,0,0,0,0,0,-1,874,323,0,0
-343,701,0,0,0,0,0,0,0,0,0,-1,881,323,0,0
-336,701,0,0,0,0,0,0,0,0,0,-1,888,323,0,0
-329,701,0,0,0,0,0,0,0,0,0,-1,895,323,0,0
-322,701,0,0,0,0,0,0,0,0,0,-1,902,323,0,0
-315,701,0,0,0,0,0,0,0,0,0,-1,909,323,0,0
-308,701,0,0,0,0,0,0,0,0,0,-1,916,323,0,0
-301,701,0,0,0,0,0,0,0,0,0,-1,923,323,0,0
-294,701,0,0,0,0,0,0,0,0,0,-1,930,323,0,0
-287,701,0,0,0,0,0,0,0,0,0,-1,937,323,0,0
-280,701,0,0,0,0,0,0,0,0,0,-1,944,323,0,0
-273,701,0,0,0,0,0,0,0,0,0,-1,951,323,0,0
-266,701,0,0,0,0,0,0,0,0,0,-1,958,323,0,0
-259,701,0,0,0,0,0,0,0,0,0,-1,965,323,0,0
-252,701,0,0,0,0,0,0,0,0,0,-1,972,323,0,0
-245,701,0,0,0,0,0,0,0,0,0,-1,979,323,0,0
-238,701,0,0,0,0,0,0,0,0,0,-1,986,323,0,0
-231,701,0,0,0,0,0,0,0,0,0,-1,993,323,0,0
-224,701,0,0,0,0,0,0,0,0,0,-1,1000,323,0,0
-217,701,0,0,0,0,0,0,0,0,0,-1,1007,323,0,0
-210,701,0,0,0,0,0,0,0,0,0,-1,1014,323,0,0
-203,701,0,0,0,0,0,0,0,0,0,-1,1021,323,0,0
-196,701,0,0,0,0,0,0,0,0,0,-1,1028,323,0,0
-189,701,0,0,0,0,0,0,0,0,0,-1,1035,323,0,0
-182,701,0,0,0,0,0,0,0,0,0,-1,1042,323,0,0
-175,701,0,0,0,0,0,0,0,0,0,-1,1049,323,0,0
-168,701,0,0,0,0,0,0,0,0,0,-1,1056,323,0,0
-161,701,0,0,0,0,0,0,0,0,0,-1,1063,323,0,0
-154,701,0,0,0,0,0,0,0,0,0,-1,1070,323,0,0
-147,701,0,0,0,0,0,0,0,0,0,-1,1077,323,0,0
-140,701,0,0,0,0,0,0,0,0,0,-1,1084,323,0,0
-133,701,0,0,0,0,0,0,0,0,0,-1,1091,323,0,0
-126,701,0,0,0,0,0,0,0,0,0,-1,1098,323,0,0
-119,701,0,0,0,0,0,0,0,0,0,-1,1105,323,0,0
-112,701,0,0,0,0,0,0,0,0,0,-1,1112,323,0,0
-105,701,0,0,0,0,0,0,0,0,0,-1,1119,323,0,0
-98,701,0,0,0,0,0,0,0,0,0,-1,1126,323,0,0
-91,701,0,0,0,0,0,0,0,0,0,-1,1133,323,0,0
-84,701,0,0,0,0,0,0,0,0,0,-1,1140,323,0,0
-77,701,0,0,0,0,0,0,0,0,0,-1,1147,323,0,0
-70,701,-12.7566,-30.413,0,0,0,0,0,0,0,-1,1154,323,-12.7566,30.413
-63,701,-18.3169,-21.2322,0,0,0,0,0,0,0,-1,1161,323,-18.3169,21.2322
-56,701,-0.420166,-0.101776,0,0,0,0,0,0,0,-1,1168,323,-0.420119,0.101777
-49,701,-1.09021,-0.155762,0,0,0,0,0,0,0,-1,1175,323,-1.09024,0.155768
-42,701,-0.210327,-0.299133,0,0,0,0,0,0,0,-1,1182,323,-0.210379,0.29914
-35,701,-2.9635,-7.98676,0,0,0,0,0,0,0,-1,1189,323,-2.9635,7.98676
-28,701,-6.64417,-5.4917,0,0,0,0,0,0,0,-1,1196,323,-6.64411,5.4917
-21,701,4.52136,-41.9305,0,0,0,0,0,0,0,-1,1203,323,4.52137,41.9305
-14,701,5.20898,-42.8371,0.0300031,-0.0331701,-0.046531,0.0546557,-0.0578227,-0.487211,0.064948,0.0484818,1210,323,5.20905,42.8371
-7,701,5.94263,-43.8004,0,0,0,0,0,0,0,-1,1217,323,5.94263,43.8004
0,701,6.71094,-44.7715,0,0,0,0,0,0,0,-1,1224,323,6.71088,44.7714
7,701,8.05823,-41.5536,-0.015066,-0.025722,-0.024735,0.00490827,-0.0456963,-0.679318,0.0322251,0.0448466,1231,323,8.05819,41.5537
14,701,6.50684,-44.4822,-0.016352,-0.0147757,-0.0205232,0.00497448,-0.0361021,-0.80459,0.025886,0.0461755,1238,323,6.50687,44.4822
21,701,5.74731,-44.3005,-0.0147424,0.00554965,-0.0186696,0.016652,-0.0258448,-1.0343,0.0247262,0.0457245,1245,323,5.74728,44.3005
28,701,5.2384,-43.7503,-0.0126577,0.0200289,-0.0158101,0.0264246,-0.0190534,-1.18639,0.0263714,0.0432635,1252,323,5.23844,43.7503
35,701,4.88672,-43.0392,-0.00799149,0.0359865,-0.014601,0.0403927,-0.0123977,-1.27771,0.0318751,0.0433262,1259,323,4.88675,43.0392
42,701,4.84253,-42.5749,-0.00469945,0.0488467,-0.0133233,0.0519786,-0.00783134,-1.33992,0.0375361,0.0460686,1266,323,4.84248,42.5748
49,701,5.1698,-42.4167,0.00116177,0.0605727,-0.0143092,0.0638395,-0.00210499,-1.34635,0.0432784,0.0448403,1273,323,5.16983,42.4167
56,701,5.44226,-41.9561,0.00637716,0.0671915,-0.0154475,0.0708903,0.00267832,-1.33577,0.0463932,0.0433668,1280,323,5.44227,41.9561
63,701,5.77063,-41.4581,0.0119562,0.0729542,-0.0146313,0.0762822,0.00862822,-1.34715,0.0482366,0.0448372,1287,323,5.77068,41.4581
70,701,7.31201,-43.7693,0.0145569,0.0684796,-0.0122566,0.0711347,0.0119018,-1.35746,0.0439958,0.0484703,1294,323,7.31207,43.7693
77,701,6.30078,-43.6223,0.0144914,0.0553149,-0.00956961,0.0574468,0.0123595,-1.3516,0.034915,0.0471229,1301,323,6.30077,43.6223
84,701,5.87061,-43.5907,0,0,0,0,0,0,0,-1,1308,323,5.87062,43.5907
91,701,5.73535,-43.7053,0.00658304,0.0204507,-0.00224851,0.0208061,0.00622757,-1.41401,0.0123307,0.0403652,1315,323,5.73531,43.7053
98,701,5.73792,-43.8405,0.000492435,0.00262546,0.00345488,0.0051747,-0.0020568,0.935107,0.00430252,0.0427013,1322,323,5.73787,43.8405
105,701,6.00781,-43.7827,-0.00509269,-0.0149725,0.00958596,0.00075133,-0.0208166,0.54748,0.0141348,0.043891,1329,323,6.00787,43.7827
112,701,6.39331,-43.5595,-0.0111748,-0.0326315,0.0156367,-0.00293993,-0.0408664,0.48473,0.0263191,0.0435785,1336,323,6.39336,43.5595
119,701,6.29565,-43.2721,-0.0195995,-0.0499803,0.0232391,-0.00702653,-0.0625532,0.495927,0.0395685,0.0429161,1343,323,6.29571,43.2721
126,701,5.99927,-43.1914,-0.0255136,-0.068295,0.0298841,-0.0101535,-0.0836551,0.474776,0.0527125,0.0486562,1350,323,5.99932,43.1914
133,701,5.58264,-43.193,-0.0295889,-0.0716632,0.0325146,-0.0118993,-0.0893528,0.498264,0.0560249,0.0489209,1357,323,5.5826,43.193
140,701,5.05725,-43.1877,-0.0355805,-0.0729149,0.035124,-0.0144713,-0.094024,0.541147,0.058459,0.0485576,1364,323,5.05731,43.1877
147,701,4.54492,-43.1523,-0.040962,-0.0722785,0.0385563,-0.0150057,-0.0982348,0.592515,0.0611052,0.0472854,1371,323,4.54497,43.1523
154,701,4.07434,-43.0215,0,0,0,0,0,0,0,-1,1378,323,4.07435,43.0215
161,701,4.09717,-35.8294,0,0,0,0,0,0,0,-1,1385,323,4.09715,35.8294
168,701,30.7272,1.76184,0,0,0,0,0,0,0,-1,1392,323,30.7272,-1.76184
175,701,31.5035,2.25711,0,0,0,0,0,0,0,-1,1399,323,31.5036,-2.25712
182,701,8.80652,5.42807,0,0,0,0,0,0,0,-1,1406,323,8.8065,-5.42808
189,701,8.58081,4.24493,0,0,0,0,0,0,0,-1,1413,323,8.58082,-4.24494
196,701,0,0,0,0,0,0,0,0,0,-1,1420,323,0,0
203,701,0,0,0,0,0,0,0,0,0,-1,1427,323,0,0
210,701,0,0,0,0,0,0,0,0,0,-1,1434,323,0,0
217,701,0,0,0,0,0,0,0,0,0,-1,1441,323,0,0
224,701,0,0,0,0,0,0,0,0,0,-1,1448,323,0,0
231,701,0,0,0,0,0,0,0,0,0,-1,1455,323,0,0
238,701,0,0,0,0,0,0,0,0,0,-1,1462,323,0,0
245,701,0,0,0,0,0,0,0,0,0,-1,1469,323,0,0
252,701,0,0,0,0,0,0,0,0,0,-1,1476,323,0,0
259,701,0,0,0,0,0,0,0,0,0,-1,1483,323,0,0
266,701,0,0,0,0,0,0,0,0,0,-1,1490,323,0,0
273,701,0,0,0,0,0,0,0,0,0,-1,1497,323,0,0
280,701,0,0,0,0,0,0,0,0,0,-1,1504,323,0,0
287,701,0,0,0,0,0,0,0,0,0,-1,1511,323,0,0
294,701,0,0,0,0,0,0,0,0,0,-1,1518,323,0,0
301,701,0,0,0,0,0,0,0,0,0,-1,1525,323,0,0
308,701,0,0,0,0,0,0,0,0,0,-1,1532,323,0,0
315,701,0,0,0,0,0,0,0,0,0,-1,1539,323,0,0
322,701,0,0,0,0,0,0,0,0,0,-1,1546,323,0,0
329,701,0,0,0,0,0,0,0,0,0,-1,1553,323,0,0
336,701,0,0,0,0,0,0,0,0,0,-1,1560,323,0,0
343,701,0,0,0,0,0,0,0,0,0,-1,1567,323,0,0
350,701,0,0,0,0,0,0,0,0,0,-1,1574,323,0,0
357,701,0,0,0,0,0,0,0,0,0,-1,1581,323,0,0
364,701,0,0,0,0,0,0,0,0,0,-1,1588,323,0,0
371,701,0,0,0,0,0,0,0,0,0,-1,1595,323,0,0
378,701,0,0,0,0,0,0,0,0,0,-1,1602,323,0,0
385,701,0,0,0,0,0,0,0,0,0,-1,1609,323,0,0
392,701,0,0,0,0,0,0,0,0,0,-1,1616,323,0,0
399,701,0,0,0,0,0,0,0,0,0,-1,1623,323,0,0
406,701,0,0,0,0,0,0,0,0,0,-1,1630,323,0,0
413,701,0,0,0,0,0,0,0,0,0,-1,1637,323,0,0
420,701,0,0,0,0,0,0,0,0,0,-1,1644,323,0,0
427,701,0,0,0,0,0,0,0,0,0,-1,1651,323,0,0
434,701,0,0,0,0,0,0,0,0,0,-1,1658,323,0,0
441,701,0,0,0,0,0,0,0,0,0,-1,1665,323,0,0
448,701,0,0,0,0,0,0,0,0,0,-1,1672,323,0,0
455,701,0,0,0,0,0,0,0,0,0,-1,1679,323,0,0
462,701,0,0,0,0,0,0,0,0,0,-1,1686,323,0,0
469,701,0,0,0,0,0,0,0,0,0,-1,1693,323,0,0
476,701,0,0,0,0,0,0,0,0,0,-1,1700,323,0,0
483,701,0,0,0,0,0,0,0,0,0,-1,1707,323,0,0
490,701,0,0,0,0,0,0,0,0,0,-1,1714,323,0,0
497,701,0,0,0,0,0,0,0,0,0,-1,1721,323,0,0
504,701,0,0,0,0,0,0,0,0,0,-1,1728,323,0,0
511,701,0,0,0,0,0,0,0,0,0,-1,1735,323,0,0
518,701,0,0,0,0,0,0,0,0,0,-1,1742,323,0,0
525,701,0,0,0,0,0,0,0,0,0,-1,1749,323,0,0
532,701,0,0,0,0,0,0,0,0,0,-1,1756,323,0,0
539,701,0,0,0,0,0,0,0,0,0,-1,1763,323,0,0
546,701,0,0,0,0,0,0,0,0,0,-1,1770,323,0,0
553,701,0,0,0,0,0,0,0,0,0,-1,1777,323,0,0
560,701,0,0,0,0,0,0,0,0,0,-1,1784,323,0,0
567,701,0,0,0,0,0,0,0,0,0,-1,1791,323,0,0
574,701,0,0,0,0,0,0,0,0,0,-1,1798,323,0,0
581,701,0,0,0,0,0,0,0,0,0,-1,1805,323,0,0
588,701,0,0,0,0,0,0,0,0,0,-1,1812,323,0,0
595,701,0,0,0,0,0,0,0,0,0,-1,1819,323,0,0
602,701,0,0,0,0,0,0,0,0,0,-1,1826,323,0,0
609,701,0,0,0,0,0,0,0,0,0,-1,1833,323,0,0
616,701,0,0,0,0,0,0,0,0,0,-1,1840,323,0,0
623,701,0,0,0,0,0,0,0,0,0,-1,1847,323,0,0
630,701,0,0,0,0,0,0,0,0,0,-1,1854,323,0,0
637,701,0,0,0,0,0,0,0,0,0,-1,1861,323,0,0
644,701,0,0,0,0,0,0,0,0,0,-1,1868,323,0,0
651,701,0,0,0,0,0,0,0,0,0,-1,1875,323,0,0
658,701,0,0,0,0,0,0,0,0,0,-1,1882,323,0,0
665,701,0,0,0,0,0,0,0,0,0,-1,1889,323,0,0
672,701,0,0,0,0,0,0,0,0,0,-1,1896,323,0,0
679,701,0,0,0,0,0,0,0,0,0,-1,1903,323,0,0
686,701,0,0,0,0,0,0,0,0,0,-1,1910,323,0,0
693,701,0,0,0,0,0,0,0,0,0,-1,1917,323,0,0
700,701,0,0,0,0,0,0,0,0,0,-1,1924,323,0,0
707,701,0,0,0,0,0,0,0,0,0,-1,1931,323,0,0
714,701,0,0,0,0,0,0,0,0,0,-1,1938,323,0,0
721,701,0,0,0,0,0,0,0,0,0,-1,1945,323,0,0
728,701,0,0,0,0,0,0,0,0,0,-1,1952,323,0,0
735,701,0,0,0,0,0,0,0,0,0,-1,1959,323,0,0
742,701,0,0,0,0,0,0,0,0,0,-1,1966,323,0,0
749,701,0,0,0,0,0,0,0,0,0,-1,1973,323,0,0
756,701,0,0,0,0,0,0,0,0,0,-1,1980,323,0,0
763,701,0,0,0,0,0,0,0,0,0,-1,1987,323,0,0
770,701,0,0,0,0,0,0,0,0,0,-1,1994,323,0,0
777,701,0,0,0,0,0,0,0,0,0,-1,2001,323,0,0
784,701,0,0,0,0,0,0,0,0,0,-1,2008,323,0,0
791,701,0,0,0,0,0,0,0,0,0,-1,2015,323,0,0
798,701,0,0,0,0,0,0,0,0,0,-1,2022,323,0,0
805,701,0,0,0,0,0,0,0,0,0,-1,2029,323,0,0
812,701,0,0,0,0,0,0,0,0,0,-1,2036,323,0,0
-700,694,0,0,0,0,0,0,0,0,0,-1,524,330,0,0
-693,694,0,0,0,0,0,0,0,0,0,-1,531,330,0,0
-686,694,0,0,0,0,0,0,0,0,0,-1,538,330,0,0
-679,694,0,0,0,0,0,0,0,0,0,-1,545,330,0,0
-672,694,0,0,0,0,0,0,0,0,0,-1,552,330,0,0
-665,694,0,0,0,0,0,0,0,0,0,-1,559,330,0,0
-658,694,0,0,0,0,0,0,0,0,0,-1,566,330,0,0
-651,694,0,0,0,0,0,0,0,0,0,-1,573,330,0,0
-644,694,0,0,0,0,0,0,0,0,0,-1,580,330,0,0
-637,694,0,0,0,0,0,0,0,0,0,-1,587,330,0,0
-630,694,0,0,0,0,0,0,0,0,0,-1,594,330,0,0
-623,694,0,0,0,0,0,0,0,0,0,-1,601,330,0,0
-616,694,0,0,0,0,0,0,0,0,0,-1,608,330,0,0
-609,694,0,0,0,0,0,0,0,0,0,-1,615,330,0,0
-602,694,0,0,0,0,0,0,0,0,0,-1,622,330,0,0
-595,694,0,0,0,0,0,0,0,0,0,-1,629,330,0,0
-588,694,0,0,0,0,0,0,0,0,0,-1,636,330,0,0
-581,694,0,0,0,0,0,0,0,0,0,-1,643,330,0,0
-574,694,0,0,0,0,0,0,0,0,0,-1,650,330,0,0
-567,694,0,0,0,0,0,0,0,0,0,-1,657,330,0,0
-560,694,0,0,0,0,0,0,0,0,0,-1,664,330,0,0
-553,694,0,0,0,0,0,0,0,0,0,-1,671,330,0,0
-546,694,0,0,0,0,0,0,0,0,0,-1,678,330,0,0
-539,694,0,0,0,0,0,0,0,0,0,-1,685,330,0,0
-532,694,0,0,0,0,0,0,0,0,0,-1,692,330,0,0
-525,694,0,0,0,0,0,0,0,0,0,-1,699,330,0,0
-518,694,0,0,0,0,0,0,0,0,0,-1,706,330,0,0
-511,694,0,0,0,0,0,0,0,0,0,-1,713,330,0,0
-504,694,0,0,0,0,0,0,0,0,0,-1,720,330,0,0
-497,694,0,0,0,0,0,0,0,0,0,-1,727,330,0,0
-490,694,0,0,0,0,0,0,0,0,0,-1,734,330,0,0
-483,694,0,0,0,0,0,0,0,0,0,-1,741,330,0,0
-476,694,0,0,0,0,0,0,0,0,0,-1,748,330,0,0
-469,694,0,0,0,0,0,0,0,0,0,-1,755,330,0,0
-462,694,0,0,0,0,0,0,0,0,0,-1,762,330,0,0
-455,694,0,0,0,0,0,0,0,0,0,-1,769,330,0,0
-448,694,0,0,0,0,0,0,0,0,0,-1,776,330,0,0
-441,694,0,0,0,0,0,0,0,0,0,-1,783,330,0,0
-434,694,0,0,0,0,0,0,0,0,0,-1,790,330,0,0
-427,694,0,0,0,0,0,0,0,0,0,-1,797,330,0,0
-420,694,0,0,0,0,0,0,0,0,0,-1,804,330,0,0
-413,694,0,0,0,0,0,0,0,0,0,-1,811,330,0,0
-406,694,0,0,0,0,0,0,0,0,0,-1,818,330,0,0
-399,694,0,0,0,0,0,0,0,0,0,-1,825,330,0,0
-392,694,0,0,0,0,0,0,0,0,0,-1,832,330,0,0
-385,694,0,0,0,0,0,0,0,0,0,-1,839,330,0,0
-378,694,0,0,0,0,0,0,0,0,0,-1,846,330,0,0
-371,694,0,0,0,0,0,0,0,0,0,-1,853,330,0,0
-364,694,0,0,0,0,0,0,0,0,0,-1,860,330,0,0
-357,694,0,0,0,0,0,0,0,0,0,-1,867,330,0,0
-350,694,0,0,0,0,0,0,0,0,0,-1,874,330,0,0
-343,694,0,0,0,0,0,0,0,0,0,-1,881,330,0,0
-336,694,0,0,0,0,0,0,0,0,0,-1,888,330,0,0
-329,694,0,0,0,0,0,0,0,0,0,-1,895,330,0,0
-322,694,0,0,0,0,0,0,0,0,0,-1,902,330,0,0
-315,694,0,0,0,0,0,0,0,0,0,-1,909,330,0,0
-308,694,0,0,0,0,0,0,0,0,0,-1,916,330,0,0
-301,694,0,0,0,0,0,0,0,0,0,-1,923,330,0,0
-294,694,0,0,0,0,0,0,0,0,0,-1,930,330,0,0
-287,694,0,0,0,0,0,0,0,0,0,-1,937,330,0,0
-280,694,0,0,0,0,0,0,0,0,0,-1,944,330,0,0
-273,694,0,0,0,0,0,0,0,0,0,-1,951,330,0,0
-266,694,0,0,0,0,0,0,0,0,0,-1,958,330,0,0
-259,694,0,0,0,0,0,0,0,0,0,-1,965,330,0,0
-252,694,0,0,0,0,0,0,0,0,0,-1,972,330,0,0
-245,694,0,0,0,0,0,0,0,0,0,-1,979,330,0,0
-238,694,0,0,0,0,0,0,0,0,0,-1,986,330,0,0
-231,694,0,0,0,0,0,0,0,0,0,-1,993,330,0,0
-224,694,0,0,0,0,0,0,0,0,0,-1,1000,330,0,0
-217,694,0,0,0,0,0,0,0,0,0,-1,1007,330,0,0
-210,694,0,0,0,0,0,0,0,0,0,-1,1014,330,0,0
-203,694,0,0,0,0,0,0,0,0,0,-1,1021,330,0,0
-196,694,0,0,0,0,0,0,0,0,0,-1,1028,330,0,0
-189,694,0,0,0,0,0,0,0,0,0,-1,1035,330,0,0
-182,694,0,0,0,0,0,0,0,0,0,-1,1042,330,0,0
-175,694,0,0,0,0,0,0,0,0,0,-1,1049,330,0,0
-168,694,0,0,0,0,0,0,0,0,0,-1,1056,330,0,0
-161,694,0,0,0,0,0,0,0,0,0,-1,1063,330,0,0
-154,694,0,0,0,0,0,0,0,0,0,-1,1070,330,0,0
-147,694,0,0,0,0,0,0,0,0,0,-1,1077,330,0,0
-140,694,0,0,0,0,0,0,0,0,0,-1,1084,330,0,0
-133,694,0,0,0,0,0,0,0,0,0,-1,1091,330,0,0
-126,694,0,0,0,0,0,0,0,0,0,-1,1098,330,0,0
-119,694,0,0,0,0,0,0,0,0,0,-1,1105,330,0,0
-112,694,0,0,0,0,0,0,0,0,0,-1,1112,330,0,0
-105,694,2.5188,-19.3963,0,0,0,0,0,0,0,-1,1119,330,2.51882,19.3963
-98,694,1.34875,-10.1051,0,0,0,0,0,0,0,-1,1126,330,1.34874,10.1051
-91,694,6.62366,-46.8039,0,0,0,0,0,0,0,-1,1133,330,6.62363,46.8039
-84,694,0.0577393,-40.8823,0,0,0,0,0,0,0,-1,1140,330,0.0577026,40.8823
-77,694,-5.51379,-31.2714,0,0,0,0,0,0,0,-1,1147,330,-5.51383,31.2714
-70,694,-11.9945,-25.5143,0,0,0,0,0,0,0,-1,1154,330,-11.9945,25.5143
-63,694,-18.4752,-19.7572,0,0,0,0,0,0,0,-1,1161,330,-18.4752,19.7572
-56,694,-6.50623,-0.649139,0,0,0,0,0,0,0,-1,1168,330,-6.5062,0.649126
-49,694,-1.11426,0.0341797,0,0,0,0,0,0,0,-1,1175,330,-1.11424,-0.0341846
-42,694,-0.346313,-0.709595,0,0,0,0,0,0,0,-1,1182,330,-0.346298,0.709581
-35,694,-0.459106,-1.24713,0,0,0,0,0,0,0,-1,1189,330,-0.459142,1.24714
-28,694,-6.48413,-3.95972,0,0,0,0,0,0,0,-1,1196,330,-6.48414,3.9597
-21,694,5.03564,-42.0074,0,0,0,0,0,0,0,-1,1203,330,5.03559,42.0074
-14,694,5.54956,-42.8918,0,0,0,0,0,0,0,-1,1210,330,5.54956,42.8918
-7,694,6.76343,-42.1756,0,0,0,0,0,0,0,-1,1217,330,6.76339,42.1756
0,694,7.1084,-42.3858,-0.00103498,-0.0132594,-0.0239784,0.017598,-0.0318923,-0.660603,0.0289678,0.046114,1224,330,7.10838,42.3858
7,694,7.90466,-41.8324,-0.00853986,-0.00944466,-0.0186648,0.00967801,-0.0276625,-0.773281,0.0223766,0.0438226,1231,330,7.90468,41.8324
14,694,8.8623,-40.8408,-0.0100633,-0.00140054,-0.0154523,0.0103159,-0.0217798,-0.922046,0.0189204,0.0451983,1238,330,8.86234,40.8408
21,694,6.01025,-44.3368,-0.00962395,0.0129105,-0.0136941,0.0193768,-0.0160903,-1.12964,0.0205062,0.0442357,1245,330,6.01021,44.3368
28,694,5.20862,-43.7733,-0.00884431,0.0231557,-0.0112086,0.0266912,-0.0123797,-1.26525,0.0230565,0.0424675,1252,330,5.20859,43.7733
35,694,4.76233,-43.2534,-0.00606238,0.0344552,-0.00993803,0.0367615,-0.00836867,-1.34277,0.0277215,0.0427811,1259,330,4.76237,43.2534
42,694,4.82568,-42.7415,-0.004265,0.0436456,-0.00838995,0.0450724,-0.00569173,-1.40236,0.0321141,0.0491778,1266,330,4.82573,42.7415
49,694,5.25732,-42.5114,-0.000306237,0.0521178,-0.00882341,0.053563,-0.00175145,-1.40844,0.0363066,0.0484764,1273,330,5.25735,42.5114
56,694,5.72913,-42.3694,0.00328581,0.0570595,-0.00949172,0.0586857,0.00165959,-1.40111,0.0385825,0.0450341,1280,330,5.72914,42.3694
63,694,5.81799,-42.3161,0.00755543,0.0613782,-0.00869797,0.0627489,0.00618471,-1.41449,0.039931,0.0458303,1287,330,5.818,42.3161
70,694,5.18506,-42.201,0.00952037,0.0576235,-0.00663379,0.0585216,0.00862229,-1.43623,0.0364815,0.0427873,1294,330,5.18509,42.201
77,694,6.06116,-43.343,0.00928951,0.0469802,-0.00447741,0.0475048,0.00876493,-1.45417,0.0291902,0.0493834,1301,330,6.06112,43.343
84,694,5.70239,-43.5323,0.00672859,0.0342469,-0.00230914,0.0344393,0.00653617,-1.48766,0.0211207,0.0454159,1308,330,5.70239,43.5323
91,694,5.40747,-43.674,0.00276062,0.0201218,0.000798105,0.0201584,0.00272401,1.52495,0.0126293,0.044807,1315,330,5.40742,43.674
98,694,5.06543,-43.6267,0,0,0,0,0,0,0,-1,1322,330,5.06542,43.6267
105,694,6.67358,-40.5433,0,0,0,0,0,0,0,-1,1329,330,6.67362,40.5433
112,694,6.62732,-40.4515,0,0,0,0,0,0,0,-1,1336,330,6.62731,40.4515
119,694,5.82642,-42.4999,-0.0169489,-0.0309527,0.0194517,-0.00327721,-0.0446243,0.612636,0.0287195,0.0420499,1343,330,5.82639,42.4999
126,694,5.39185,-42.4604,-0.0212273,-0.0437896,0.0243026,-0.00571514,-0.0593017,0.5681,0.0377738,0.0448155,1350,330,5.39179,42.4604
133,694,4.89856,-42.328,-0.0236935,-0.0457043,0.0262534,-0.00623213,-0.0631657,0.586925,0.0401945,0.0470355,1357,330,4.89862,42.328
140,694,4.24561,-42.443,-0.0272485,-0.0459026,0.0281505,-0.00692014,-0.066231,0.625426,0.0420376,0.0477539,1364,330,4.24566,42.443
147,694,3.61719,-42.6724,-0.0303476,-0.0454128,0.0305085,-0.00645555,-0.0693048,0.664368,0.0442087,0.0491106,1371,330,3.61721,42.6724
154,694,3.08154,-42.8539,0,0,0,0,0,0,0,-1,1378,330,3.08154,42.8539
161,694,4.76746,-36.9827,0,0,0,0,0,0,0,-1,1385,330,4.76745,36.9827
168,694,30.451,0.196686,0,0,0,0,0,0,0,-1,1392,330,30.4511,-0.196674
175,694,31.0701,0.869873,0,0,0,0,0,0,0,-1,1399,330,31.07,-0.869874
182,694,8.29028,5.75238,0,0,0,0,0,0,0,-1,1406,330,8.29034,-5.75237
189,694,7.9801,4.46118,0,0,0,0,0,0,0,-1,1413,330,7.9801,-4.46118
196,694,7.39331,3.32632,0,0,0,0,0,0,0,-1,1420,330,7.39329,-3.32633
203,694,7.04492,2.20529,0,0,0,0,0,0,0,-1,1427,330,7.04496,-2.20529
210,694,6.44714,0.646912,0,0,0,0,0,0,0,-1,1434,330,6.44717,-0.646903
217,694,7.12061,-0.644958,0,0,0,0,0,0,0,-1,1441,330,7.12059,0.644961
224,694,6.74011,-1.70544,0,0,0,0,0,0,0,-1,1448,330,6.74013,1.70546
231,694,0,0,0,0,0,0,0,0,0,-1,1455,330,0,0
238,694,0,0,0,0,0,0,0,0,0,-1,1462,330,0,0
245,694,0,0,0,0,0,0,0,0,0,-1,1469,330,0,0
252,694,0,0,0,0,0,0,0,0,0,-1,1476,330,0,0
259,694,0,0,0,0,0,0,0,0,0,-1,1483,330,0,0
266,694,0,0,0,0,0,0,0,0,0,-1,1490,330,0,0
273,694,0,0,0,0,0,0,0,0,0,-1,1497,330,0,0
280,694,0,0,0,0,0,0,0,0,0,-1,1504,330,0,0
287,694,0,0,0,0,0,0,0,0,0,-1,1511,330,0,0
294,694,0,0,0,0,0,0,0,0,0,-1,1518,330,0,0
301,694,0,0,0,0,0,0,0,0,0,-1,1525,330,0,0
308,694,0,0,0,0,0,0,0,0,0,-1,1532,330,0,0
315,694,0,0,0,0,0,0,0,0,0,-1,1539,330,0,0
322,694,0,0,0,0,0,0,0,0,0,-1,1546,330,0,0
329,694,0,0,0,0,0,0,0,0,0,-1,1553,330,0,0
336,694,0,0,0,0,0,0,0,0,0,-1,1560,330,0,0
343,694,0,0,0,0,0,0,0,0,0,-1,1567,330,0,0
350,694,0,0,0,0,0,0,0,0,0,-1,1574,330,0,0
357,694,0,0,0,0,0,0,0,0,0,-1,1581,330,0,0
364,694,0,0,0,0,0,0,0,0,0,-1,1588,330,0,0
371,694,0,0,0,0,0,0,0,0,0,-1,1595,330,0,0
378,694,0,0,0,0,0,0,0,0,0,-1,1602,330,0,0
385,694,0,0,0,0,0,0,0,0,0,-1,1609,330,0,0
392,694,0,0,0,0,0,0,0,0,0,-1,1616,330,0,0
399,694,0,0,0,0,0,0,0,0,0,-1,1623,330,0,0
406,694,0,0,0,0,0,0,0,0,0,-1,1630,330,0,0
413,694,0,0,0,0,0,0,0,0,0,-1,1637,330,0,0
420,694,0,0,0,0,0,0,0,0,0,-1,1644,330,0,0
427,694,0,0,0,0,0,0,0,0,0,-1,1651,330,0,0
434,694,0,0,0,0,0,0,0,0,0,-1,1658,330,0,0
441,694,0,0,0,0,0,0,0,0,0,-1,1665,330,0,0
448,694,0,0,0,0,0,0,0,0,0,-1,1672,330,0,0
455,694,0,0,0,0,0,0,0,0,0,-1,1679,330,0,0
462,694,0,0,0,0,0,0,0,0,0,-1,1686,330,0,0
469,694,0,0,0,0,0,0,0,0,0,-1,1693,330,0,0
476,694,0,0,0,0,0,0,0,0,0,-1,1700,330,0,0
483,694,0,0,0,0,0,0,0,0,0,-1,1707,330,0,0
490,694,0,0,0,0,0,0,0,0,0,-1,1714,330,0,0
497,694,0,0,0,0,0,0,0,0,0,-1,1721,330,0,0
504,694,0,0,0,0,0,0,0,0,0,-1,1728,330,0,0
511,694,0,0,0,0,0,0,0,0,0,-1,1735,330,0,0
518,694,0,0,0,0,0,0,0,0,0,-1,1742,330,0,0
525,694,0,0,0,0,0,0,0,0,0,-1,1749,330,0,0
532,694,0,0,0,0,0,0,0,0,0,-1,1756,330,0,0
539,694,0,0,0,0,0,0,0,0,0,-1,1763,330,0,0
546,694,0,0,0,0,0,0,0,0,0,-1,1770,330,0,0
553,694,0,0,0,0,0,0,0,0,0,-1,1777,330,0,0
560,694,0,0,0,0,0,0,0,0,0,-1,1784,330,0,0
567,694,0,0,0,0,0,0,0,0,0,-1,1791,330,0,0
574,694,0,0,0,0,0,0,0,0,0,-1,1798,330,0,0
581,694,0,0,0,0,0,0,0,0,0,-1,1805,330,0,0
588,694,0,0,0,0,0,0,0,0,0,-1,1812,330,0,0
595,694,0,0,0,0,0,0,0,0,0,-1,1819,330,0,0
602,694,0,0,0,0,0,0,0,0,0,-1,1826,330,0,0
609,694,0,0,0,0,0,0,0,0,0,-1,1833,330,0,0
616,694,0,0,0,0,0,0,0,0,0,-1,1840,330,0,0
623,694,0,0,0,0,0,0,0,0,0,-1,1847,330,0,0
630,694,0,0,0,0,0,0,0,0,0,-1,1854,330,0,0
637,694,0,0,0,0,0,0,0,0,0,-1,1861,330,0,0
644,694,0,0,0,0,0,0,0,0,0,-1,1868,330,0,0
651,694,0,0,0,0,0,0,0,0,0,-1,1875,330,0,0
658,694,0,0,0,0,0,0,0,0,0,-1,1882,330,0,0
665,694,0,0,0,0,0,0,0,0,0,-1,1889,330,0,0
672,694,0,0,0,0,0,0,0,0,0,-1,1896,330,0,0
679,694,0,0,0,0,0,0,0,0,0,-1,1903,330,0,0
686,694,0,0,0,0,0,0,0,0,0,-1,1910,330,0,0
693,694,0,0,0,0,0,0,0,0,0,-1,1917,330,0,0
700,694,0,0,0,0,0,0,0,0,0,-1,1924,330,0,0
707,694,0,0,0,0,0,0,0,0,0,-1,1931,330,0,0
714,694,0,0,0,0,0,0,0,0,0,-1,1938,330,0,0
721,694,0,0,0,0,0,0,0,0,0,-1,1945,330,0,0
728,694,0,0,0,0,0,0,0,0,0,-1,1952,330,0,0
735,694,0,0,0,0,0,0,0,0,0,-1,1959,330,0,0
742,694,0,0,0,0,0,0,0,0,0,-1,1966,330,0,0
749,694,0,0,0,0,0,0,0,0,0,-1,1973,330,0,0
756,694,0,0,0,0,0,0,0,0,0,-1,1980,330,0,0
763,694,0,0,0,0,0,0,0,0,0,-1,1987,330,0,0
770,694,0,0,0,0,0,0,0,0,0,-1,1994,330,0,0
777,694,0,0,0,0,0,0,0,0,0,-1,2001,330,0,0
784,694,0,0,0,0,0,0,0,0,0,-1,2008,330,0,0
791,694,0,0,0,0,0,0,0,0,0,-1,2015,330,0,0
798,694,0,0,0,0,0,0,0,0,0,-1,2022,330,0,0
805,694,0,0,0,0,0,0,0,0,0,-1,2029,330,0,0
812,694,0,0,0,0,0,0,0,0,0,-1,2036,330,0,0
-700,687,0,0,0,0,0,0,0,0,0,-1,524,337,0,0
-693,687,0,0,0,0,0,0,0,0,0,-1,531,337,0,0
-686,687,0,0,0,0,0,0,0,0,0,-1,538,337,0,0
-679,687,0,0,0,0,0,0,0,0,0,-1,545,337,0,0
-672,687,0,0,0,0,0,0,0,0,0,-1,552,337,0,0
-665,687,0,0,0,0,0,0,0,0,0,-1,559,337,0,0
-658,687,0,0,0,0,0,0,0,0,0,-1,566,337,0,0
-651,687,0,0,0,0,0,0,0,0,0,-1,573,337,0,0
-644,687,0,0,0,0,0,0,0,0,0,-1,580,337,0,0
-637,687,0,0,0,0,0,0,0,0,0,-1,587,337,0,0
-630,687,0,0,0,0,0,0,0,0,0,-1,594,337,0,0
-623,687,0,0,0,0,0,0,0,0,0,-1,601,337,0,0
-616,687,0,0,0,0,0,0,0,0,0,-1,608,337,0,0
-609,687,0,0,0,0,0,0,0,0,0,-1,615,337,0,0
-602,687,0,0,0,0,0,0,0,0,0,-1,622,337,0,0
-595,687,0,0,0,0,0,0,0,0,0,-1,629,337,0,0
-588,687,0,0,0,0,0,0,0,0,0,-1,636,337,0,0
-581,687,0,0,0,0,0,0,0,0,0,-1,643,337,0,0
-574,687,0,0,0,0,0,0,0,0,0,-1,650,337,0,0
-567,687,0,0,0,0,0,0,0,0,0,-1,657,337,0,0
-560,687,0,0,0,0,0,0,0,0,0,-1,664,337,0,0
-553,687,0,0,0,0,0,0,0,0,0,-1,671,337,0,0
-546,687,0,0,0,0,0,0,0,0,0,-1,678,337,0,0
-539,687,0,0,0,0,0,0,0,0,0,-1,685,337,0,0
-532,687,0,0,0,0,0,0,0,0,0,-1,692,337,0,0
-525,687,0,0,0,0,0,0,0,0,0,-1,699,337,0,0
-518,687,0,0,0,0,0,0,0,0,0,-1,706,337,0,0
-511,687,0,0,0,0,0,0,0,0,0,-1,713,337,0,0
-504,687,0,0,0,0,0,0,0,0,0,-1,720,337,0,0
-497,687,0,0,0,0,0,0,0,0,0,-1,727,337,0,0
-490,687,0,0,0,0,0,0,0,0,0,-1,734,337,0,0
-483,687,0,0,0,0,0,0,0,0,0,-1,741,337,0,0
-476,687,0,0,0,0,0,0,0,0,0,-1,748,337,0,0
-469,687,0,0,0,0,0,0,0,0,0,-1,755,337,0,0
-462,687,0,0,0,0,0,0,0,0,0,-1,762,337,0,0
-455,687,0,0,0,0,0,0,0,0,0,-1,769,337,0,0
-448,687,0,0,0,0,0,0,0,0,0,-1,776,337,0,0
-441,687,0,0,0,0,0,0,0,0,0,-1,783,337,0,0
-434,687,0,0,0,0,0,0,0,0,0,-1,790,337,0,0
-427,687,0,0,0,0,0,0,0,0,0,-1,797,337,0,0
-420,687,0,0,0,0,0,0,0,0,0,-1,804,337,0,0
-413,687,0,0,0,0,0,0,0,0,0,-1,811,337,0,0
-406,687,0,0,0,0,0,0,0,0,0,-1,818,337,0,0
-399,687,0,0,0,0,0,0,0,0,0,-1,825,337,0,0
-392,687,0,0,0,0,0,0,0,0,0,-1,832,337,0,0
-385,687,0,0,0,0,0,0,0,0,0,-1,839,337,0,0
-378,687,0,0,0,0,0,0,0,0,0,-1,846,337,0,0
-371,687,0,0,0,0,0,0,0,0,0,-1,853,337,0,0
-364,687,0,0,0,0,0,0,0,0,0,-1,860,337,0,0
-357,687,0,0,0,0,0,0,0,0,0,-1,867,337,0,0
-350,687,0,0,0,0,0,0,0,0,0,-1,874,337,0,0
-343,687,0,0,0,0,0,0,0,0,0,-1,881,337,0,0
-336,687,0,0,0,0,0,0,0,0,0,-1,888,337,0,0
-329,687,0,0,0,0,0,0,0,0,0,-1,895,337,0,0
-322,687,0,0,0,0,0,0,0,0,0,-1,902,337,0,0
-315,687,0,0,0,0,0,0,0,0,0,-1,909,337,0,0
-308,687,0,0,0,0,0,0,0,0,0,-1,916,337,0,0
-301,687,0,0,0,0,0,0,0,0,0,-1,923,337,0,0
-294,687,0,0,0,0,0,0,0,0,0,-1,930,337,0,0
-287,687,0,0,0,0,0,0,0,0,0,-1,937,337,0,0
-280,687,0,0,0,0,0,0,0,0,0,-1,944,337,0,0
-273,687,0,0,0,0,0,0,0,0,0,-1,951,337,0,0
-266,687,0,0,0,0,0,0,0,0,0,-1,958,337,0,0
-259,687,0,0,0,0,0,0,0,0,0,-1,965,337,0,0
-252,687,0,0,0,0,0,0,0,0,0,-1,972,337,0,0
-245,687,0,0,0,0,0,0,0,0,0,-1,979,337,0,0
-238,687,0,0,0,0,0,0,0,0,0,-1,986,337,0,0
-231,687,0,0,0,0,0,0,0,0,0,-1,993,337,0,0
-224,687,0,0,0,0,0,0,0,0,0,-1,1000,337,0,0
-217,687,0,0,0,0,0,0,0,0,0,-1,1007,337,0,0
-210,687,0,0,0,0,0,0,0,0,0,-1,1014,337,0,0
-203,687,0,0,0,0,0,0,0,0,0,-1,1021,337,0,0
-196,687,0,0,0,0,0,0,0,0,0,-1,1028,337,0,0
-189,687,0,0,0,0,0,0,0,0,0,-1,1035,337,0,0
-182,687,0,0,0,0,0,0,0,0,0,-1,1042,337,0,0
-175,687,0,0,0,0,0,0,0,0,0,-1,1049,337,0,0
-168,687,0,0,0,0,0,0,0,0,0,-1,1056,337,0,0
-161,687,0,0,0,0,0,0,0,0,0,-1,1063,337,0,0
-154,687,0,0,0,0,0,0,0,0,0,-1,1070,337,0,0
-147,687,0,0,0,0,0,0,0,0,0,-1,1077,337,0,0
-140,687,0,0,0,0,0,0,0,0,0,-1,1084,337,0,0
-133,687,7.93958,-37.548,0,0,0,0,0,0,0,-1,1091,337,7.93957,37.548
-126,687,7.81189,-35.631,0,0,0,0,0,0,0,-1,1098,337,7.81194,35.631
-119,687,7.70825,-33.9236,0,0,0,0,0,0,0,-1,1105,337,7.70826,33.9236
-112,687,7.99866,-32.2983,0,0,0,0,0,0,0,-1,1112,337,7.99866,32.2983
-105,687,1.3208,-29.8313,0,0,0,0,0,0,0,-1,1119,337,1.3208,29.8313
-98,687,13.7111,-47.5645,0,0,0,0,0,0,0,-1,1126,337,13.711,47.5645
-91,687,7.22083,-41.1667,0,0,0,0,0,0,0,-1,1133,337,7.22079,41.1666
-84,687,0.745117,-35.0345,0,0,0,0,0,0,0,-1,1140,337,0.745155,35.0345
-77,687,-5.74353,-28.9553,0,0,0,0,0,0,0,-1,1147,337,-5.74357,28.9553
-70,687,-11.6842,-19.8473,0,0,0,0,0,0,0,-1,1154,337,-11.6842,19.8473
-63,687,-17.6757,-14.8966,0,0,0,0,0,0,0,-1,1161,337,-17.6756,14.8966
-56,687,-18.104,7.81931,0,0,0,0,0,0,0,-1,1168,337,-18.104,-7.81931
-49,687,-15.6449,-9.94391,0,0,0,0,0,0,0,-1,1175,337,-15.6449,9.94392
-42,687,-4.2019,-0.405609,0,0,0,0,0,0,0,-1,1182,337,-4.20192,0.405614
-35,687,-4.42273,-0.688171,0,0,0,0,0,0,0,-1,1189,337,-4.42276,0.688178
-28,687,-1.14038,-1.39072,0,0,0,0,0,0,0,-1,1196,337,-1.14035,1.3907
-21,687,5.39917,-42.0351,0,0,0,0,0,0,0,-1,1203,337,5.39921,42.0351
-14,687,5.74792,-42.8291,0.0169144,-0.00220198,-0.0252064,0.034314,-0.0196016,-0.604176,0.0315121,0.0469606,1210,337,5.74797,42.8291
-7,687,6.51233,-42.6721,0.00802781,-0.00223962,-0.0215885,0.0250846,-0.0192964,-0.668667,0.0256959,0.0480263,1217,337,6.51238,42.6721
0,687,6.95093,-42.7556,0.000663842,-0.00123973,-0.0177764,0.0175139,-0.0180898,-0.758653,0.0205567,0.0497576,1224,337,6.95093,42.7556
7,687,7.39636,-42.8529,0,0,0,0,0,0,0,-1,1231,337,7.39632,42.8529
14,687,8.6283,-41.1721,0,0,0,0,0,0,0,-1,1238,337,8.6283,41.1721
21,687,6.7959,-43.2839,0,0,0,0,0,0,0,-1,1245,337,6.79587,43.2839
28,687,4.56372,-44.0825,-0.00643326,0.0248375,-0.00781068,0.0266799,-0.00827563,-1.33915,0.0210934,0.0429471,1252,337,4.56372,44.0825
35,687,4.46912,-43.4282,-0.00487292,0.0327948,-0.00663426,0.0339291,-0.00600723,-1.40146,0.0248649,0.0440546,1259,337,4.46913,43.4282
42,687,5.56116,-43.3545,0,0,0,0,0,0,0,-1,1266,337,5.56114,43.3545
49,687,5.49097,-43.559,0,0,0,0,0,0,0,-1,1273,337,5.49095,43.559
56,687,5.95618,-43.1621,0.000904166,0.0489924,-0.00550673,0.049615,0.000281632,-1.45822,0.0329832,0.0467853,1280,337,5.95613,43.1621
63,687,5.80115,-43.0509,0.00406186,0.0521772,-0.00477858,0.0526472,0.00359187,-1.47276,0.0339642,0.0443815,1287,337,5.80115,43.0509
70,687,5.45837,-43.0321,0.00553503,0.0492068,-0.00305402,0.0494193,0.0053225,-1.50132,0.0313232,0.0423707,1294,337,5.45841,43.0321
77,687,5.28821,-42.9553,0.00528483,0.0409531,-0.001385,0.0410068,0.00523113,-1.53204,0.0257717,0.0473304,1301,337,5.28822,42.9553
84,687,5.45508,-43.447,0.00328347,0.0313301,7.30127e-05,0.0313303,0.00328328,1.56819,0.019883,0.044458,1308,337,5.45505,43.447
91,687,5.20984,-43.2945,0.000129268,0.0206975,0.00227041,0.0209452,-0.000118368,1.46215,0.0140031,0.045974,1315,337,5.20978,43.2945
98,687,6.20703,-41.3825,0,0,0,0,0,0,0,-1,1322,337,6.20705,41.3825
105,687,6.32458,-41.6001,0,0,0,0,0,0,0,-1,1329,337,6.32461,41.6001
112,687,6.27551,-41.5097,0,0,0,0,0,0,0,-1,1336,337,6.27546,41.5097
119,687,5.33423,-41.1548,0,0,0,0,0,0,0,-1,1343,337,5.33419,41.1548
126,687,5.13721,-40.526,0,0,0,0,0,0,0,-1,1350,337,5.13718,40.526
133,687,3.63208,-41.9238,0,0,0,0,0,0,0,-1,1357,337,3.6321,41.9238
140,687,3.5968,-41.4375,0,0,0,0,0,0,0,-1,1364,337,3.59676,41.4375
147,687,2.64014,-42.0514,0,0,0,0,0,0,0,-1,1371,337,2.64013,42.0514
154,687,5.20752,-40.6951,0,0,0,0,0,0,0,-1,1378,337,5.20758,40.6951
161,687,29.3895,-1.90628,0,0,0,0,0,0,0,-1,1385,337,29.3895,1.90628
168,687,29.8564,-1.19434,0,0,0,0,0,0,0,-1,1392,337,29.8564,1.19434
175,687,30.3419,-0.453583,0,0,0,0,0,0,0,-1,1399,337,30.3419,0.45357
182,687,6.67249,0.289917,0,0,0,0,0,0,0,-1,1406,337,6.67247,-0.289916
189,687,7.76062,4.53635,0,0,0,0,0,0,0,-1,1413,337,7.76064,-4.53636
196,687,6.99048,3.2966,0,0,0,0,0,0,0,-1,1420,337,6.99046,-3.2966
203,687,6.36499,2.1445,0,0,0,0,0,0,0,-1,1427,337,6.36499,-2.14451
210,687,6.68066,0.674652,0,0,0,0,0,0,0,-1,1434,337,6.68062,-0.674655
217,687,5.99683,-0.630493,0,0,0,0,0,0,0,-1,1441,337,5.99684,0.630497
224,687,5.52917,0.524902,0,0,0,0,0,0,0,-1,1448,337,5.5292,-0.524915
231,687,5.85583,-1.73651,0,0,0,0,0,0,0,-1,1455,337,5.85577,1.73651
238,687,5.96582,-2.96774,0,0,0,0,0,0,0,-1,1462,337,5.96577,2.96773
245,687,1.28259,2.32211,0,0,0,0,0,0,0,-1,1469,337,1.28258,-2.32211
252,687,1.97278,3.88422,0,0,0,0,0,0,0,-1,1476,337,1.97281,-3.88421
259,687,0,0,0,0,0,0,0,0,0,-1,1483,337,0,0
266,687,0,0,0,0,0,0,0,0,0,-1,1490,337,0,0
273,687,0,0,0,0,0,0,0,0,0,-1,1497,337,0,0
280,687,0,0,0,0,0,0,0,0,0,-1,1504,337,0,0
287,687,0,0,0,0,0,0,0,0,0,-1,1511,337,0,0
294,687,0,0,0,0,0,0,0,0,0,-1,1518,337,0,0
301,687,0,0,0,0,0,0,0,0,0,-1,1525,337,0,0
308,687,0,0,0,0,0,0,0,0,0,-1,1532,337,0,0
315,687,0,0,0,0,0,0,0,0,0,-1,1539,337,0,0
322,687,0,0,0,0,0,0,0,0,0,-1,1546,337,0,0
329,687,0,0,0,0,0,0,0,0,0,-1,1553,337,0,0
336,687,0,0,0,0,0,0,0,0,0,-1,1560,337,0,0
343,687,0,0,0,0,0,0,0,0,0,-1,1567,337,0,0
350,687,0,0,0,0,0,0,0,0,0,-1,1574,337,0,0
357,687,0,0,0,0,0,0,0,0,0,-1,1581,337,0,0
364,687,0,0,0,0,0,0,0,0,0,-1,1588,337,0,0
371,687,0,0,0,0,0,0,0,0,0,-1,1595,337,0,0
378,687,0,0,0,0,0,0,0,0,0,-1,1602,337,0,0
385,687,0,0,0,0,0,0,0,0,0,-1,1609,337,0,0
392,687,0,0,0,0,0,0,0,0,0,-1,1616,337,0,0
399,687,0,0,0,0,0,0,0,0,0,-1,1623,337,0,0
406,687,0,0,0,0,0,0,0,0,0,-1,1630,337,0,0
413,687,0,0,0,0,0,0,0,0,0,-1,1637,337,0,0
420,687,0,0,0,0,0,0,0,0,0,-1,1644,337,0,0
427,687,0,0,0,0,0,0,0,0,0,-1,1651,337,0,0
434,687,0,0,0,0,0,0,0,0,0,-1,1658,337,0,0
441,687,0,0,0,0,0,0,0,0,0,-1,1665,337,0,0
448,687,0,0,0,0,0,0,0,0,0,-1,1672,337,0,0
455,687,0,0,0,0,0,0,0,0,0,-1,1679,337,0,0
462,687,0,0,0,0,0,0,0,0,0,-1,1686,337,0,0
469,687,0,0,0,0,0,0,0,0,0,-1,1693,337,0,0
476,687,0,0,0,0,0,0,0,0,0,-1,1700,337,0,0
483,687,0,0,0,0,0,0,0,0,0,-1,1707,337,0,0
490,687,0,0,0,0,0,0,0,0,0,-1,1714,337,0,0
497,687,0,0,0,0,0,0,0,0,0,-1,1721,337,0,0
504,687,0,0,0,0,0,0,0,0,0,-1,1728,337,0,0
511,687,0,0,0,0,0,0,0,0,0,-1,1735,337,0,0
518,687,0,0,0,0,0,0,0,0,0,-1,1742,337,0,0
525,687,0,0,0,0,0,0,0,0,0,-1,1749,337,0,0
532,687,0,0,0,0,0,0,0,0,0,-1,1756,337,0,0
539,687,0,0,0,0,0,0,0,0,0,-1,1763,337,0,0
546,687,0,0,0,0,0,0,0,0,0,-1,1770,337,0,0
553,687,0,0,0,0,0,0,0,0,0,-1,1777,337,0,0
560,687,0,0,0,0,0,0,0,0,0,-1,1784,337,0,0
567,687,0,0,0,0,0,0,0,0,0,-1,1791,337,0,0
574,687,0,0,0,0,0,0,0,0,0,-1,1798,337,0,0
581,687,0,0,0,0,0,0,0,0,0,-1,1805,337,0,0
588,687,0,0,0,0,0,0,0,0,0,-1,1812,337,0,0
595,687,0,0,0,0,0,0,0,0,0,-1,1819,337,0,0
602,687,0,0,0,0,0,0,0,0,0,-1,1826,337,0,0
609,687,0,0,0,0,0,0,0,0,0,-1,1833,337,0,0
616,687,0,0,0,0,0,0,0,0,0,-1,1840,337,0,0
623,687,0,0,0,0,0,0,0,0,0,-1,1847,337,0,0
630,687,0,0,0,0,0,0,0,0,0,-1,1854,337,0,0
637,687,0,0,0,0,0,0,0,0,0,-1,1861,337,0,0
644,687,0,0,0,0,0,0,0,0,0,-1,1868,337,0,0
651,687,0,0,0,0,0,0,0,0,0,-1,1875,337,0,0
658,687,0,0,0,0,0,0,0,0,0,-1,1882,337,0,0
665,687,0,0,0,0,0,0,0,0,0,-1,1889,337,0,0
672,687,0,0,0,0,0,0,0,0,0,-1,1896,337,0,0
679,687,0,0,0,0,0,0,0,0,0,-1,1903,337,0,0
686,687,0,0,0,0,0,0,0,0,0,-1,1910,337,0,0
693,687,0,0,0,0,0,0,0,0,0,-1,1917,337,0,0
700,687,0,0,0,0,0,0,0,0,0,-1,1924,337,0,0
707,687,0,0,0,0,0,0,0,0,0,-1,1931,337,0,0
714,687,0,0,0,0,0,0,0,0,0,-1,1938,337,0,0
721,687,0,0,0,0,0,0,0,0,0,-1,1945,337,0,0
728,687,0,0,0,0,0,0,0,0,0,-1,1952,337,0,0
735,687,0,0,0,0,0,0,0,0,0,-1,1959,337,0,0
742,687,0,0,0,0,0,0,0,0,0,-1,1966,337,0,0
749,687,0,0,0,0,0,0,0,0,0,-1,1973,337,0,0
756,687,0,0,0,0,0,0,0,0,0,-1,1980,337,0,0
763,687,0,0,0,0,0,0,0,0,0,-1,1987,337,0,0
770,687,0,0,0,0,0,0,0,0,0,-1,1994,337,0,0
777,687,0,0,0,0,0,0,0,0,0,-1,2001,337,0,0
784,687,0,0,0,0,0,0,0,0,0,-1,2008,337,0,0
791,687,0,0,0,0,0,0,0,0,0,-1,2015,337,0,0
798,687,0,0,0,0,0,0,0,0,0,-1,2022,337,0,0
805,687,0,0,0,0,0,0,0,0,0,-1,2029,337,0,0
812,687,0,0,0,0,0,0,0,0,0,-1,2036,337,0,0
-700,680,0,0,0,0,0,0,0,0,0,-1,524,344,0,0
-693,680,0,0,0,0,0,0,0,0,0,-1,531,344,0,0
-686,680,0,0,0,0,0,0,0,0,0,-1,538,344,0,0
-679,680,0,0,0,0,0,0,0,0,0,-1,545,344,0,0
-672,680,0,0,0,0,0,0,0,0,0,-1,552,344,0,0
-665,680,0,0,0,0,0,0,0,0,0,-1,559,344,0,0
-658,680,0,0,0,0,0,0,0,0,0,-1,566,344,0,0
-651,680,0,0,0,0,0,0,0,0,0,-1,573,344,0,0
-644,680,0,0,0,0,0,0,0,0,0,-1,580,344,0,0
-637,680,0,0,0,0,0,0,0,0,0,-1,587,344,0,0
-630,680,0,0,0,0,0,0,0,0,0,-1,594,344,0,0
-623,680,0,0,0,0,0,0,0,0,0,-1,601,344,0,0
-616,680,0,0,0,0,0,0,0,0,0,-1,608,344,0,0
-609,680,0,0,0,0,0,0,0,0,0,-1,615,344,0,0
-602,680,0,0,0,0,0,0,0,0,0,-1,622,344,0,0
-595,680,0,0,0,0,0,0,0,0,0,-1,629,344,0,0
-588,680,0,0,0,0,0,0,0,0,0,-1,636,344,0,0
-581,680,0,0,0,0,0,0,0,0,0,-1,643,344,0,0
-574,680,0,0,0,0,0,0,0,0,0,-1,650,344,0,0
-567,680,0,0,0,0,0,0,0,0,0,-1,657,344,0,0
-560,680,0,0,0,0,0,0,0,0,0,-1,664,344,0,0
-553,680,0,0,0,0,0,0,0,0,0,-1,671,344,0,0
-546,680,0,0,0,0,0,0,0,0,0,-1,678,344,0,0
-539,680,0,0,0,0,0,0,0,0,0,-1,685,344,0,0
-532,680,0,0,0,0,0,0,0,0,0,-1,692,344,0,0
-525,680,0,0,0,0,0,0,0,0,0,-1,699,344,0,0
-518,680,0,0,0,0,0,0,0,0,0,-1,706,344,0,0
-511,680,0,0,0,0,0,0,0,0,0,-1,713,344,0,0
-504,680,0,0,0,0,0,0,0,0,0,-1,720,344,0,0
-497,680,0,0,0,0,0,0,0,0,0,-1,727,344,0,0
-490,680,0,0,0,0,0,0,0,0,0,-1,734,344,0,0
-483,680,0,0,0,0,0,0,0,0,0,-1,741,344,0,0
-476,680,0,0,0,0,0,0,0,0,0,-1,748,344,0,0
-469,680,0,0,0,0,0,0,0,0,0,-1,755,344,0,0
-462,680,0,0,0,0,0,0,0,0,0,-1,762,344,0,0
-455,680,0,0,0,0,0,0,0,0,0,-1,769,344,0,0
-448,680,0,0,0,0,0,0,0,0,0,-1,776,344,0,0
-441,680,0,0,0,0,0,0,0,0,0,-1,783,344,0,0
-434,680,0,0,0,0,0,0,0,0,0,-1,790,344,0,0
-427,680,0,0,0,0,0,0,0,0,0,-1,797,344,0,0
-420,680,0,0,0,0,0,0,0,0,0,-1,804,344,0,0
-413,680,0,0,0,0,0,0,0,0,0,-1,811,344,0,0
-406,680,0,0,0,0,0,0,0,0,0,-1,818,344,0,0
-399,680,0,0,0,0,0,0,0,0,0,-1,825,344,0,0
-392,680,0,0,0,0,0,0,0,0,0,-1,832,344,0,0
-385,680,0,0,0,0,0,0,0,0,0,-1,839,344,0,0
-378,680,0,0,0,0,0,0,0,0,0,-1,846,344,0,0
-371,680,0,0,0,0,0,0,0,0,0,-1,853,344,0,0
-364,680,0,0,0,0,0,0,0,0,0,-1,860,344,0,0
-357,680,0,0,0,0,0,0,0,0,0,-1,867,344,0,0
-350,680,0,0,0,0,0,0,0,0,0,-1,874,344,0,0
-343,680,0,0,0,0,0,0,0,0,0,-1,881,344,0,0
-336,680,0,0,0,0,0,0,0,0,0,-1,888,344,0,0
-329,680,0,0,0,0,0,0,0,0,0,-1,895,344,0,0
-322,680,0,0,0,0,0,0,0,0,0,-1,902,344,0,0
-315,680,0,0,0,0,0,0,0,0,0,-1,909,344,0,0
-308,680,0,0,0,0,0,0,0,0,0,-1,916,344,0,0
-301,680,0,0,0,0,0,0,0,0,0,-1,923,344,0,0
-294,680,0,0,0,0,0,0,0,0,0,-1,930,344,0,0
-287,680,0,0,0,0,0,0,0,0,0,-1,937,344,0,0
-280,680,0,0,0,0,0,0,0,0,0,-1,944,344,0,0
-273,680,0,0,0,0,0,0,0,0,0,-1,951,344,0,0
-266,680,0,0,0,0,0,0,0,0,0,-1,958,344,0,0
-259,680,0,0,0,0,0,0,0,0,0,-1,965,344,0,0
-252,680,0,0,0,0,0,0,0,0,0,-1,972,344,0,0
-245,680,0,0,0,0,0,0,0,0,0,-1,979,344,0,0
-238,680,0,0,0,0,0,0,0,0,0,-1,986,344,0,0
-231,680,0,0,0,0,0,0,0,0,0,-1,993,344,0,0
-224,680,0,0,0,0,0,0,0,0,0,-1,1000,344,0,0
-217,680,0,0,0,0,0,0,0,0,0,-1,1007,344,0,0
-210,680,0,0,0,0,0,0,0,0,0,-1,1014,344,0,0
-203,680,0,0,0,0,0,0,0,0,0,-1,1021,344,0,0
-196,680,0,0,0,0,0,0,0,0,0,-1,1028,344,0,0
-189,680,0,0,0,0,0,0,0,0,0,-1,1035,344,0,0
-182,680,0,0,0,0,0,0,0,0,0,-1,1042,344,0,0
-175,680,0,0,0,0,0,0,0,0,0,-1,1049,344,0,0
-168,680,0,0,0,0,0,0,0,0,0,-1,1056,344,0,0
-161,680,0,0,0,0,0,0,0,0,0,-1,1063,344,0,0
-154,680,2.25244,-29.1442,0,0,0,0,0,0,0,-1,1070,344,2.25241,29.1442
-147,680,9.29614,-33.0369,0,0,0,0,0,0,0,-1,1077,344,9.29612,33.0369
-140,680,6.98022,-36.6899,0,0,0,0,0,0,0,-1,1084,344,6.98023,36.6899
-133,680,5.89795,-35.7619,0,0,0,0,0,0,0,-1,1091,344,5.89789,35.7619
-126,680,7.58716,-35.439,0,0,0,0,0,0,0,-1,1098,344,7.58714,35.439
-119,680,7.4646,-34.0222,0,0,0,0,0,0,0,-1,1105,344,7.46462,34.0222
-112,680,7.7467,-32.4407,0,0,0,0,0,0,0,-1,1112,344,7.74668,32.4407
-105,680,20.6371,-48.461,0,0,0,0,0,0,0,-1,1119,344,20.6371,48.461
-98,680,14.2684,-41.9997,0,0,0,0,0,0,0,-1,1126,344,14.2685,41.9997
-91,680,7.89648,-35.5147,0,0,0,0,0,0,0,-1,1133,344,7.8965,35.5147
-84,680,1.47168,-29.471,0,0,0,0,0,0,0,-1,1140,344,1.47163,29.471
-77,680,-4.95337,-23.3355,0,0,0,0,0,0,0,-1,1147,344,-4.9534,23.3356
-70,680,-11.5099,-17.4337,0,0,0,0,0,0,0,-1,1154,344,-11.5098,17.4338
-63,680,-17.2391,-1.43134,0,0,0,0,0,0,0,-1,1161,344,-17.2392,1.43133
-56,680,-6.96912,-8.83356,0,0,0,0,0,0,0,-1,1168,344,-6.96907,8.83354
-49,680,-6.7677,-2.24063,0,0,0,0,0,0,0,-1,1175,344,-6.76772,2.24063
-42,680,-1.02368,0.618805,0,0,0,0,0,0,0,-1,1182,344,-1.0237,-0.618797
-35,680,-0.947876,-0.942719,0,0,0,0,0,0,0,-1,1189,344,-0.947842,0.942731
-28,680,-1.46118,-1.10574,0,0,0,0,0,0,0,-1,1196,344,-1.4612,1.10575
-21,680,6.01514,-42.2262,0,0,0,0,0,0,0,-1,1203,344,6.01517,42.2262
-14,680,5.89001,-42.8573,0.011974,0.00596636,-0.0182161,0.0274322,-0.00949191,-0.703684,0.022141,0.0467547,1210,344,5.89002,42.8573
-7,680,6.24854,-43.1986,0.00609187,0.00596666,-0.015655,0.0216844,-0.00962583,-0.783399,0.0185184,0.0451773,1217,344,6.24855,43.1986
0,680,6.68689,-43.3486,0.00106855,0.00651385,-0.0129547,0.0170289,-0.00944647,-0.888975,0.0154931,0.0493914,1224,344,6.68687,43.3486
7,680,7.07544,-43.5346,0,0,0,0,0,0,0,-1,1231,344,7.07542,43.5346
14,680,6.54419,-43.1151,0,0,0,0,0,0,0,-1,1238,344,6.54416,43.1151
21,680,6.49976,-43.6413,0,0,0,0,0,0,0,-1,1245,344,6.49975,43.6413
28,680,6.58301,-43.9636,0,0,0,0,0,0,0,-1,1252,344,6.58307,43.9636
35,680,5.72107,-43.7512,0,0,0,0,0,0,0,-1,1259,344,5.72105,43.7512
42,680,5.65491,-43.8528,-0.00380157,0.0352452,-0.00284111,0.0354508,-0.00400721,-1.49854,0.0250766,0.0448913,1266,344,5.65492,43.8528
49,680,5.60095,-43.9892,-0.0022373,0.0394408,-0.00275207,0.0396217,-0.00241824,-1.50514,0.0272563,0.0432545,1273,344,5.60092,43.9892
56,680,5.72595,-43.9669,-0.000769429,0.0420585,-0.0028893,0.0422526,-0.00096347,-1.50374,0.028495,0.0420499,1280,344,5.726,43.9669
63,680,5.72827,-43.7675,0.00147453,0.0443579,-0.00225493,0.0444762,0.00135629,-1.51841,0.0292092,0.0388245,1287,344,5.72824,43.7676
70,680,5.55505,-43.5929,0.00255291,0.0421321,-0.000850549,0.0421504,0.00253464,-1.54932,0.0272946,0.0371584,1294,344,5.55501,43.5929
77,680,5.3833,-43.6698,0.002339,0.0360067,0.000412656,0.0360118,0.00233394,1.55854,0.0232689,0.0414196,1301,344,5.38325,43.6698
84,680,5.23022,-43.7789,0.000837481,0.028961,0.00133694,0.0290244,0.000774068,1.5234,0.0190968,0.0450326,1308,344,5.2302,43.7789
91,680,5.052,-43.8415,-0.00157988,0.0211731,0.00282764,0.0215193,-0.00192602,1.44899,0.0150294,0.0465237,1315,344,5.05204,43.8415
98,680,4.87927,-43.8749,0,0,0,0,0,0,0,-1,1322,344,4.87927,43.8749
105,680,6.0365,-42.5575,-0.00636363,0.00820107,0.00749217,0.0113669,-0.0095295,1.171,0.0120801,0.0461597,1329,344,6.03652,42.5575
112,680,5.87634,-42.3647,0,0,0,0,0,0,0,-1,1336,344,5.87635,42.3647
119,680,5.56873,-42.109,0,0,0,0,0,0,0,-1,1343,344,5.56877,42.109
126,680,4.41284,-42.7639,0,0,0,0,0,0,0,-1,1350,344,4.41289,42.7639
133,680,4.05188,-42.4765,-0.0147513,-0.0110173,0.0160165,0.00324067,-0.0290092,0.84342,0.0205052,0.0475862,1357,344,4.05193,42.4765
140,680,4.15222,-42.1528,-0.0157542,-0.0102281,0.0169988,0.00423071,-0.030213,0.865966,0.0216902,0.0495435,1364,344,4.15228,42.1528
147,680,4.2605,-41.8344,-0.0166446,-0.00926459,0.0179434,0.00536429,-0.0312734,0.886807,0.0228479,0.0495136,1371,344,4.26053,41.8344
154,680,4.98303,-41.9608,-0.0172086,-0.00883868,0.0193455,0.00676935,-0.0328166,0.89192,0.0244486,0.049412,1378,344,4.98298,41.9608
161,680,5.56567,-42.0981,0,0,0,0,0,0,0,-1,1385,344,5.56563,42.0981
168,680,29.4142,-2.51651,0,0,0,0,0,0,0,-1,1392,344,29.4142,2.51652
175,680,6.66541,0.942078,0,0,0,0,0,0,0,-1,1399,344,6.66538,-0.942088
182,680,6.52917,0.532379,0,0,0,0,0,0,0,-1,1406,344,6.52922,-0.532385
189,680,7.55884,4.77695,0,0,0,0,0,0,0,-1,1413,344,7.55886,-4.77694
196,680,6.55627,3.35254,0,0,0,0,0,0,0,-1,1420,344,6.55622,-3.35255
203,680,5.7334,1.90753,0,0,0,0,0,0,0,-1,1427,344,5.73341,-1.90754
210,680,5.27515,0.493622,0,0,0,0,0,0,0,-1,1434,344,5.27514,-0.493632
217,680,6.56384,-0.374176,0,0,0,0,0,0,0,-1,1441,344,6.56379,0.374176
224,680,3.9491,-0.640228,0,0,0,0,0,0,0,-1,1448,344,3.94908,0.64024
231,680,4.24866,-1.96881,0,0,0,0,0,0,0,-1,1455,344,4.2486,1.96882
238,680,4.29333,-3.23984,0,0,0,0,0,0,0,-1,1462,344,4.29332,3.23984
245,680,2.44397,0.985382,0,0,0,0,0,0,0,-1,1469,344,2.44402,-0.985394
252,680,3.07349,2.18951,0,0,0,0,0,0,0,-1,1476,344,3.0735,-2.18952
259,680,2.82971,1.30682,0,0,0,0,0,0,0,-1,1483,344,2.82972,-1.30684
266,680,2.67554,1.44067,0,0,0,0,0,0,0,-1,1490,344,2.67551,-1.44066
273,680,2.46411,1.54666,0,0,0,0,0,0,0,-1,1497,344,2.46407,-1.54666
280,680,0,0,0,0,0,0,0,0,0,-1,1504,344,0,0
287,680,0,0,0,0,0,0,0,0,0,-1,1511,344,0,0
294,680,0,0,0,0,0,0,0,0,0,-1,1518,344,0,0
301,680,0,0,0,0,0,0,0,0,0,-1,1525,344,0,0
308,680,0,0,0,0,0,0,0,0,0,-1,1532,344,0,0
315,680,0,0,0,0,0,0,0,0,0,-1,1539,344,0,0
322,680,0,0,0,0,0,0,0,0,0,-1,1546,344,0,0
329,680,0,0,0,0,0,0,0,0,0,-1,1553,344,0,0
336,680,0,0,0,0,0,0,0,0,0,-1,1560,344,0,0
343,680,0,0,0,0,0,0,0,0,0,-1,1567,344,0,0
350,680,0,0,0,0,0,0,0,0,0,-1,1574,344,0,0
357,680,0,0,0,0,0,0,0,0,0,-1,1581,344,0,0
364,680,0,0,0,0,0,0,0,0,0,-1,1588,344,0,0
371,680,0,0,0,0,0,0,0,0,0,-1,1595,344,0,0
378,680,0,0,0,0,0,0,0,0,0,-1,1602,344,0,0
385,680,0,0,0,0,0,0,0,0,0,-1,1609,344,0,0
392,680,0,0,0,0,0,0,0,0,0,-1,1616,344,0,0
399,680,0,0,0,0,0,0,0,0,0,-1,1623,344,0,0
406,680,0,0,0,0,0,0,0,0,0,-1,1630,344,0,0
413,680,0,0,0,0,0,0,0,0,0,-1,1637,344,0,0
420,680,0,0,0,0,0,0,0,0,0,-1,1644,344,0,0
427,680,0,0,0,0,0,0,0,0,0,-1,1651,344,0,0
434,680,0,0,0,0,0,0,0,0,0,-1,1658,344,0,0
441,680,0,0,0,0,0,0,0,0,0,-1,1665,344,0,0
448,680,0,0,0,0,0,0,0,0,0,-1,1672,344,0,0
455,680,0,0,0,0,0,0,0,0,0,-1,1679,344,0,0
462,680,0,0,0,0,0,0,0,0,0,-1,1686,344,0,0
469,680,0,0,0,0,0,0,0,0,0,-1,1693,344,0,0
476,680,0,0,0,0,0,0,0,0,0,-1,1700,344,0,0
483,680,0,0,0,0,0,0,0,0,0,-1,1707,344,0,0
490,680,0,0,0,0,0,0,0,0,0,-1,1714,344,0,0
497,680,0,0,0,0,0,0,0,0,0,-1,1721,344,0,0
504,680,0,0,0,0,0,0,0,0,0,-1,1728,344,0,0
511,680,0,0,0,0,0,0,0,0,0,-1,1735,344,0,0
518,680,0,0,0,0,0,0,0,0,0,-1,1742,344,0,0
525,680,0,0,0,0,0,0,0,0,0,-1,1749,344,0,0
532,680,0,0,0,0,0,0,0,0,0,-1,1756,344,0,0
539,680,0,0,0,0,0,0,0,0,0,-1,1763,344,0,0
546,680,0,0,0,0,0,0,0,0,0,-1,1770,344,0,0
553,680,0,0,0,0,0,0,0,0,0,-1,1777,344,0,0
560,680,0,0,0,0,0,0,0,0,0,-1,1784,344,0,0
567,680,0,0,0,0,0,0,0,0,0,-1,1791,344,0,0
574,680,0,0,0,0,0,0,0,0,0,-1,1798,344,0,0
581,680,0,0,0,0,0,0,0,0,0,-1,1805,344,0,0
588,680,0,0,0,0,0,0,0,0,0,-1,1812,344,0,0
595,680,0,0,0,0,0,0,0,0,0,-1,1819,344,0,0
602,680,0,0,0,0,0,0,0,0,0,-1,1826,344,0,0
609,680,0,0,0,0,0,0,0,0,0,-1,1833,344,0,0
616,680,0,0,0,0,0,0,0,0,0,-1,1840,344,0,0
623,680,0,0,0,0,0,0,0,0,0,-1,1847,344,0,0
630,680,0,0,0,0,0,0,0,0,0,-1,1854,344,0,0
637,680,0,0,0,0,0,0,0,0,0,-1,1861,344,0,0
644,680,0,0,0,0,0,0,0,0,0,-1,1868,344,0,0
651,680,0,0,0,0,0,0,0,0,0,-1,1875,344,0,0
658,680,0,0,0,0,0,0,0,0,0,-1,1882,344,0,0
665,680,0,0,0,0,0,0,0,0,0,-1,1889,344,0,0
672,680,0,0,0,0,0,0,0,0,0,-1,1896,344,0,0
679,680,0,0,0,0,0,0,0,0,0,-1,1903,344,0,0
686,680,0,0,0,0,0,0,0,0,0,-1,1910,344,0,0
693,680,0,0,0,0,0,0,0,0,0,-1,1917,344,0,0
700,680,0,0,0,0,0,0,0,0,0,-1,1924,344,0,0
707,680,0,0,0,0,0,0,0,0,0,-1,1931,344,0,0
714,680,0,0,0,0,0,0,0,0,0,-1,1938,344,0,0
721,680,0,0,0,0,0,0,0,0,0,-1,1945,344,0,0
728,680,0,0,0,0,0,0,0,0,0,-1,1952,344,0,0
735,680,0,0,0,0,0,0,0,0,0,-1,1959,344,0,0
742,680,0,0,0,0,0,0,0,0,0,-1,1966,344,0,0
749,680,0,0,0,0,0,0,0,0,0,-1,1973,344,0,0
756,680,0,0,0,0,0,0,0,0,0,-1,1980,344,0,0
763,680,0,0,0,0,0,0,0,0,0,-1,1987,344,0,0
770,680,0,0,0,0,0,0,0,0,0,-1,1994,344,0,0
777,680,0,0,0,0,0,0,0,0,0,-1,2001,344,0,0
784,680,0,0,0,0,0,0,0,0,0,-1,2008,344,0,0
791,680,0,0,0,0,0,0,0,0,0,-1,2015,344,0,0
798,680,0,0,0,0,0,0,0,0,0,-1,2022,344,0,0
805,680,0,0,0,0,0,0,0,0,0,-1,2029,344,0,0
812,680,0,0,0,0,0,0,0,0,0,-1,2036,344,0,0
-700,673,0,0,0,0,0,0,0,0,0,-1,524,351,0,0
-693,673,0,0,0,0,0,0,0,0,0,-1,531,351,0,0
-686,673,0,0,0,0,0,0,0,0,0,-1,538,351,0,0
-679,673,0,0,0,0,0,0,0,0,0,-1,545,351,0,0
-672,673,0,0,0,0,0,0,0,0,0,-1,552,351,0,0
-665,673,0,0,0,0,0,0,0,0,0,-1,559,351,0,0
-658,673,0,0,0,0,0,0,0,0,0,-1,566,351,0,0
-651,673,0,0,0,0,0,0,0,0,0,-1,573,351,0,0
-644,673,0,0,0,0,0,0,0,0,0,-1,580,351,0,0
-637,673,0,0,0,0,0,0,0,0,0,-1,587,351,0,0
-630,673,0,0,0,0,0,0,0,0,0,-1,594,351,0,0
-623,673,0,0,0,0,0,0,0,0,0,-1,601,351,0,0
-616,673,0,0,0,0,0,0,0,0,0,-1,608,351,0,0
-609,673,0,0,0,0,0,0,0,0,0,-1,615,351,0,0
-602,673,0,0,0,0,0,0,0,0,0,-1,622,351,0,0
-595,673,0,0,0,0,0,0,0,0,0,-1,629,351,0,0
-588,673,0,0,0,0,0,0,0,0,0,-1,636,351,0,0
-581,673,0,0,0,0,0,0,0,0,0,-1,643,351,0,0
-574,673,0,0,0,0,0,0,0,0,0,-1,650,351,0,0
-567,673,0,0,0,0,0,0,0,0,0,-1,657,351,0,0
-560,673,0,0,0,0,0,0,0,0,0,-1,664,351,0,0
-553,673,0,0,0,0,0,0,0,0,0,-1,671,351,0,0
-546,673,0,0,0,0,0,0,0,0,0,-1,678,351,0,0
-539,673,0,0,0,0,0,0,0,0,0,-1,685,351,0,0
-532,673,0,0,0,0,0,0,0,0,0,-1,692,351,0,0
-525,673,0,0,0,0,0,0,0,0,0,-1,699,351,0,0
-518,673,0,0,0,0,0,0,0,0,0,-1,706,351,0,0
-511,673,0,0,0,0,0,0,0,0,0,-1,713,351,0,0
-504,673,0,0,0,0,0,0,0,0,0,-1,720,351,0,0
-497,673,0,0,0,0,0,0,0,0,0,-1,727,351,0,0
-490,673,0,0,0,0,0,0,0,0,0,-1,734,351,0,0
-483,673,0,0,0,0,0,0,0,0,0,-1,741,351,0,0
-476,673,0,0,0,0,0,0,0,0,0,-1,748,351,0,0
-469,673,0,0,0,0,0,0,0,0,0,-1,755,351,0,0
-462,673,0,0,0,0,0,0,0,0,0,-1,762,351,0,0
-455,673,0,0,0,0,0,0,0,0,0,-1,769,351,0,0
-448,673,0,0,0,0,0,0,0,0,0,-1,776,351,0,0
-441,673,0,0,0,0,0,0,0,0,0,-1,783,351,0,0
-434,673,0,0,0,0,0,0,0,0,0,-1,790,351,0,0
-427,673,0,0,0,0,0,0,0,0,0,-1,797,351,0,0
-420,673,0,0,0,0,0,0,0,0,0,-1,804,351,0,0
-413,673,0,0,0,0,0,0,0,0,0,-1,811,351,0,0
-406,673,0,0,0,0,0,0,0,0,0,-1,818,351,0,0
-399,673,0,0,0,0,0,0,0,0,0,-1,825,351,0,0
-392,673,0,0,0,0,0,0,0,0,0,-1,832,351,0,0
-385,673,0,0,0,0,0,0,0,0,0,-1,839,351,0,0
-378,673,0,0,0,0,0,0,0,0,0,-1,846,351,0,0
-371,673,0,0,0,0,0,0,0,0,0,-1,853,351,0,0
-364,673,0,0,0,0,0,0,0,0,0,-1,860,351,0,0
-357,673,0,0,0,0,0,0,0,0,0,-1,867,351,0,0
-350,673,0,0,0,0,0,0,0,0,0,-1,874,351,0,0
-343,673,0,0,0,0,0,0,0,0,0,-1,881,351,0,0
-336,673,0,0,0,0,0,0,0,0,0,-1,888,351,0,0
-329,673,0,0,0,0,0,0,0,0,0,-1,895,351,0,0
-322,673,0,0,0,0,0,0,0,0,0,-1,902,351,0,0
-315,673,0,0,0,0,0,0,0,0,0,-1,909,351,0,0
-308,673,0,0,0,0,0,0,0,0,0,-1,916,351,0,0
-301,673,0,0,0,0,0,0,0,0,0,-1,923,351,0,0
-294,673,0,0,0,0,0,0,0,0,0,-1,930,351,0,0
-287,673,0,0,0,0,0,0,0,0,0,-1,937,351,0,0
-280,673,0,0,0,0,0,0,0,0,0,-1,944,351,0,0
-273,673,0,0,0,0,0,0,0,0,0,-1,951,351,0,0
-266,673,0,0,0,0,0,0,0,0,0,-1,958,351,0,0
-259,673,0,0,0,0,0,0,0,0,0,-1,965,351,0,0
-252,673,0,0,0,0,0,0,0,0,0,-1,972,351,0,0
-245,673,0,0,0,0,0,0,0,0,0,-1,979,351,0,0
-238,673,0,0,0,0,0,0,0,0,0,-1,986,351,0,0
-231,673,0,0,0,0,0,0,0,0,0,-1,993,351,0,0
-224,673,0,0,0,0,0,0,0,0,0,-1,1000,351,0,0
-217,673,0,0,0,0,0,0,0,0,0,-1,1007,351,0,0
-210,673,0,0,0,0,0,0,0,0,0,-1,1014,351,0,0
-203,673,0,0,0,0,0,0,0,0,0,-1,1021,351,0,0
-196,673,0,0,0,0,0,0,0,0,0,-1,1028,351,0,0
-189,673,0,0,0,0,0,0,0,0,0,-1,1035,351,0,0
-182,673,0,0,0,0,0,0,0,0,0,-1,1042,351,0,0
-175,673,7.10449,-31.8279,0,0,0,0,0,0,0,-1,1049,351,7.10448,31.8279
-168,673,7.33081,-32.7122,0,0,0,0,0,0,0,-1,1056,351,7.33085,32.7122
-161,673,7.8938,-33.5352,0,0,0,0,0,0,0,-1,1063,351,7.89385,33.5352
-154,673,8.80566,-35.3518,0,0,0,0,0,0,0,-1,1070,351,8.80563,35.3518
-147,673,2.89221,-37.7351,0,0,0,0,0,0,0,-1,1077,351,2.89224,37.7351
-140,673,3.35046,-37.7151,0,0,0,0,0,0,0,-1,1084,351,3.35046,37.715
-133,673,3.68542,-37.6983,0,0,0,0,0,0,0,-1,1091,351,3.68546,37.6983
-126,673,5.52368,-35.5155,0,0,0,0,0,0,0,-1,1098,351,5.52364,35.5155
-119,673,6.98071,-34.0173,0,0,0,0,0,0,0,-1,1105,351,6.98074,34.0173
-112,673,7.27234,-32.5801,0,0,0,0,0,0,0,-1,1112,351,7.27231,32.5801
-105,673,21.1144,-43.3143,0,0,0,0,0,0,0,-1,1119,351,21.1143,43.3143
-98,673,14.8014,-36.7519,0,0,0,0,0,0,0,-1,1126,351,14.8014,36.7519
-91,673,8.54944,-29.9639,0,0,0,0,0,0,0,-1,1133,351,8.54949,29.9639
-84,673,2.17102,-24.3204,0,0,0,0,0,0,0,-1,1140,351,2.17107,24.3204
-77,673,-4.25378,-18.8346,0,0,0,0,0,0,0,-1,1147,351,-4.25381,18.8346
-70,673,-10.7933,-13.6681,0,0,0,0,0,0,0,-1,1154,351,-10.7934,13.6681
-63,673,-17.3896,-8.24469,0,0,0,0,0,0,0,-1,1161,351,-17.3896,8.2447
-56,673,-18.0282,2.79053,0,0,0,0,0,0,0,-1,1168,351,-18.0283,-2.79052
-49,673,-0.926758,-0.115448,0,0,0,0,0,0,0,-1,1175,351,-0.926732,0.115444
-42,673,-1.15015,0.289917,0,0,0,0,0,0,0,-1,1182,351,-1.15017,-0.289932
-35,673,-0.919556,-1.00711,0,0,0,0,0,0,0,-1,1189,351,-0.919514,1.00711
-28,673,5.28918,-39.2331,0,0,0,0,0,0,0,-1,1196,351,5.28924,39.2331
-21,673,6.62317,-43.0385,0,0,0,0,0,0,0,-1,1203,351,6.62315,43.0385
-14,673,6.28503,-43.3252,0.00794309,0.0106753,-0.0128679,0.0222494,-0.00363106,-0.838282,0.0161797,0.0438006,1210,351,6.28502,43.3252
-7,673,6.15491,-43.7086,0.00416195,0.0106706,-0.0111084,0.0189916,-0.00415904,-0.927891,0.0142512,0.0441574,1217,351,6.15488,43.7087
0,673,6.30786,-43.7899,0,0,0,0,0,0,0,-1,1224,351,6.3079,43.7899
7,673,6.13525,-43.8264,0,0,0,0,0,0,0,-1,1231,351,6.1353,43.8264
14,673,6.2998,-43.6537,-0.00283222,0.0156214,-0.0058176,0.0173023,-0.00451314,-1.28952,0.013297,0.0453762,1238,351,6.29976,43.6537
21,673,6.21582,-44.0029,-0.00337761,0.0205153,-0.00475442,0.0214266,-0.00428893,-1.38142,0.0159079,0.0317683,1245,351,6.21586,44.0029
28,673,6.16614,-44.1501,-0.00382214,0.0240316,-0.00346945,0.0244573,-0.00424778,-1.44872,0.0178897,0.0340105,1252,351,6.16617,44.1501
35,673,6.04663,-44.1236,0,0,0,0,0,0,0,-1,1259,351,6.04665,44.1236
42,673,5.77344,-44.1842,-0.00349285,0.031048,-0.00140703,0.0311052,-0.00355007,-1.53015,0.0220158,0.035662,1266,351,5.77349,44.1842
49,673,5.7301,-44.32,-0.00260711,0.0339046,-0.00122744,0.0339458,-0.00264832,-1.53723,0.023563,0.0221831,1273,351,5.73012,44.32
56,673,5.71985,-44.3223,-0.00176779,0.0357518,-0.00124129,0.0357928,-0.00180881,-1.53776,0.0244871,0.0174291,1280,351,5.71984,44.3223
63,673,5.76038,-44.114,-0.000246928,0.0373649,-0.000714858,0.0373784,-0.00026051,-1.5518,0.0250062,0.0207731,1287,351,5.76036,44.114
70,673,5.70361,-44.0117,0.000506584,0.0357759,0.000401376,0.0357805,0.000502016,1.55942,0.0236881,0.0325436,1294,351,5.70357,44.0117
77,673,5.64038,-43.8593,0.000336281,0.0314373,0.00134053,0.0314949,0.000278609,1.5278,0.0209044,0.0390216,1301,351,5.64034,43.8593
84,673,5.70398,-43.868,-0.000752157,0.0264729,0.0018827,0.0266025,-0.000881734,1.50208,0.0180361,0.0455561,1308,351,5.704,43.868
91,673,5.5481,-44.3818,0,0,0,0,0,0,0,-1,1315,351,5.54805,44.3818
98,673,5.3324,-44.3456,0,0,0,0,0,0,0,-1,1322,351,5.33241,44.3456
105,673,5.67065,-43.4906,0,0,0,0,0,0,0,-1,1329,351,5.67071,43.4906
112,673,5.61621,-43.2982,0,0,0,0,0,0,0,-1,1336,351,5.6162,43.2982
119,673,4.85437,-43.3056,0,0,0,0,0,0,0,-1,1343,351,4.8544,43.3056
126,673,4.69348,-43.1836,-0.0110584,-0.000539917,0.0112906,0.0066563,-0.0182546,1.00336,0.0148929,0.0483556,1350,351,4.6935,43.1836
133,673,4.49097,-42.9883,-0.0113493,-0.000254691,0.0119806,0.00740054,-0.0190046,1.00221,0.015728,0.0461348,1357,351,4.49098,42.9883
140,673,4.56738,-42.7567,-0.0117599,0.00071855,0.0126713,0.00860337,-0.0196447,1.01417,0.0167192,0.0444901,1364,351,4.56741,42.7567
147,673,4.45679,-42.7132,-0.0121285,0.00191032,0.0131939,0.00983583,-0.020054,1.02987,0.0175898,0.0447707,1371,351,4.45673,42.7132
154,673,4.53479,-42.4357,-0.01223,0.00281923,0.0141405,0.0113125,-0.0207233,1.02991,0.01876,0.0436239,1378,351,4.53482,42.4357
161,673,4.52112,-42.0245,0,0,0,0,0,0,0,-1,1385,351,4.5211,42.0245
168,673,6.87061,1.83954,0,0,0,0,0,0,0,-1,1392,351,6.87063,-1.83953
175,673,6.6228,1.1459,0,0,0,0,0,0,0,-1,1399,351,6.62276,-1.14591
182,673,6.37244,0.796112,0,0,0,0,0,0,0,-1,1406,351,6.3724,-0.796102
189,673,6.12097,0.265472,0,0,0,0,0,0,0,-1,1413,351,6.121,-0.265482
196,673,6.02173,3.12717,0,0,0,0,0,0,0,-1,1420,351,6.02176,-3.12717
203,673,5.04456,1.6351,0,0,0,0,0,0,0,-1,1427,351,5.04455,-1.63509
210,673,4.79224,0.447479,0,0,0,0,0,0,0,-1,1434,351,4.79229,-0.447469
217,673,2.01648,0.972687,0,0,0,0,0,0,0,-1,1441,351,2.01644,-0.972691
224,673,2.3689,-1.80539,0,0,0,0,0,0,0,-1,1448,351,2.36896,1.80539
231,673,2.65857,-2.18497,0,0,0,0,0,0,0,-1,1455,351,2.65852,2.18496
238,673,3.77844,-2.06088,0,0,0,0,0,0,0,-1,1462,351,3.77839,2.06088
245,673,3.5376,-0.190399,0,0,0,0,0,0,0,-1,1469,351,3.53759,0.1904
252,673,3.80518,0.55603,0,0,0,0,0,0,0,-1,1476,351,3.80519,-0.556022
259,673,3.88562,1.29617,0,0,0,0,0,0,0,-1,1483,351,3.88562,-1.29618
266,673,4.22424,2.04834,0,0,0,0,0,0,0,-1,1490,351,4.22429,-2.04834
273,673,6.07886,0.385895,0,0,0,0,0,0,0,-1,1497,351,6.0789,-0.385906
280,673,6.97534,-0.0820007,0,0,0,0,0,0,0,-1,1504,351,6.97536,0.0820122
287,673,7.66968,-0.348541,0,0,0,0,0,0,0,-1,1511,351,7.66969,0.348534
294,673,8.20996,0.28537,0,0,0,0,0,0,0,-1,1518,351,8.20993,-0.28536
301,673,0,0,0,0,0,0,0,0,0,-1,1525,351,0,0
308,673,0,0,0,0,0,0,0,0,0,-1,1532,351,0,0
315,673,0,0,0,0,0,0,0,0,0,-1,1539,351,0,0
322,673,0,0,0,0,0,0,0,0,0,-1,1546,351,0,0
329,673,0,0,0,0,0,0,0,0,0,-1,1553,351,0,0
336,673,0,0,0,0,0,0,0,0,0,-1,1560,351,0,0
343,673,0,0,0,0,0,0,0,0,0,-1,1567,351,0,0
350,673,0,0,0,0,0,0,0,0,0,-1,1574,351,0,0
357,673,0,0,0,0,0,0,0,0,0,-1,1581,351,0,0
364,673,0,0,0,0,0,0,0,0,0,-1,1588,351,0,0
371,673,0,0,0,0,0,0,0,0,0,-1,1595,351,0,0
378,673,0,0,0,0,0,0,0,0,0,-1,1602,351,0,0
385,673,0,0,0,0,0,0,0,0,0,-1,1609,351,0,0
392,673,0,0,0,0,0,0,0,0,0,-1,1616,351,0,0
399,673,0,0,0,0,0,0,0,0,0,-1,1623,351,0,0
406,673,0,0,0,0,0,0,0,0,0,-1,1630,351,0,0
413,673,0,0,0,0,0,0,0,0,0,-1,1637,351,0,0
420,673,0,0,0,0,0,0,0,0,0,-1,1644,351,0,0
427,673,0,0,0,0,0,0,0,0,0,-1,1651,351,0,0
434,673,0,0,0,0,0,0,0,0,0,-1,1658,351,0,0
441,673,0,0,0,0,0,0,0,0,0,-1,1665,351,0,0
448,673,0,0,0,0,0,0,0,0,0,-1,1672,351,0,0
455,673,0,0,0,0,0,0,0,0,0,-1,1679,351,0,0
462,673,0,0,0,0,0,0,0,0,0,-1,1686,351,0,0
469,673,0,0,0,0,0,0,0,0,0,-1,1693,351,0,0
476,673,0,0,0,0,0,0,0,0,0,-1,1700,351,0,0
483,673,0,0,0,0,0,0,0,0,0,-1,1707,351,0,0
490,673,0,0,0,0,0,0,0,0,0,-1,1714,351,0,0
497,673,0,0,0,0,0,0,0,0,0,-1,1721,351,0,0
504,673,0,0,0,0,0,0,0,0,0,-1,1728,351,0,0
511,673,0,0,0,0,0,0,0,0,0,-1,1735,351,0,0
518,673,0,0,0,0,0,0,0,0,0,-1,1742,351,0,0
525,673,0,0,0,0,0,0,0,0,0,-1,1749,351,0,0
532,673,0,0,0,0,0,0,0,0,0,-1,1756,351,0,0
539,673,0,0,0,0,0,0,0,0,0,-1,1763,351,0,0
546,673,0,0,0,0,0,0,0,0,0,-1,1770,351,0,0
553,673,0,0,0,0,0,0,0,0,0,-1,1777,351,0,0
560,673,0,0,0,0,0,0,0,0,0,-1,1784,351,0,0
567,673,0,0,0,0,0,0,0,0,0,-1,1791,351,0,0
574,673,0,0,0,0,0,0,0,0,0,-1,1798,351,0,0
581,673,0,0,0,0,0,0,0,0,0,-1,1805,351,0,0
588,673,0,0,0,0,0,0,0,0,0,-1,1812,351,0,0
595,673,0,0,0,0,0,0,0,0,0,-1,1819,351,0,0
602,673,0,0,0,0,0,0,0,0,0,-1,1826,351,0,0
609,673,0,0,0,0,0,0,0,0,0,-1,1833,351,0,0
616,673,0,0,0,0,0,0,0,0,0,-1,1840,351,0,0
623,673,0,0,0,0,0,0,0,0,0,-1,1847,351,0,0
630,673,0,0,0,0,0,0,0,0,0,-1,1854,351,0,0
637,673,0,0,0,0,0,0,0,0,0,-1,1861,351,0,0
644,673,0,0,0,0,0,0,0,0,0,-1,1868,351,0,0
651,673,0,0,0,0,0,0,0,0,0,-1,1875,351,0,0
658,673,0,0,0,0,0,0,0,0,0,-1,1882,351,0,0
665,673,0,0,0,0,0,0,0,0,0,-1,1889,351,0,0
672,673,0,0,0,0,0,0,0,0,0,-1,1896,351,0,0
679,673,0,0,0,0,0,0,0,0,0,-1,1903,351,0,0
686,673,0,0,0,0,0,0,0,0,0,-1,1910,351,0,0
693,673,0,0,0,0,0,0,0,0,0,-1,1917,351,0,0
700,673,0,0,0,0,0,0,0,0,0,-1,1924,351,0,0
707,673,0,0,0,0,0,0,0,0,0,-1,1931,351,0,0
714,673,0,0,0,0,0,0,0,0,0,-1,1938,351,0,0
721,673,0,0,0,0,0,0,0,0,0,-1,1945,351,0,0
728,673,0,0,0,0,0,0,0,0,0,-1,1952,351,0,0
735,673,0,0,0,0,0,0,0,0,0,-1,1959,351,0,0
742,673,0,0,0,0,0,0,0,0,0,-1,1966,351,0,0
749,673,0,0,0,0,0,0,0,0,0,-1,1973,351,0,0
756,673,0,0,0,0,0,0,0,0,0,-1,1980,351,0,0
763,673,0,0,0,0,0,0,0,0,0,-1,1987,351,0,0
770,673,0,0,0,0,0,0,0,0,0,-1,1994,351,0,0
777,673,0,0,0,0,0,0,0,0,0,-1,2001,351,0,0
784,673,0,0,0,0,0,0,0,0,0,-1,2008,351,0,0
791,673,0,0,0,0,0,0,0,0,0,-1,2015,351,0,0
798,673,0,0,0,0,0,0,0,0,0,-1,2022,351,0,0
805,673,0,0,0,0,0,0,0,0,0,-1,2029,351,0,0
812,673,0,0,0,0,0,0,0,0,0,-1,2036,351,0,0
-700,666,0,0,0,0,0,0,0,0,0,-1,524,358,0,0
-693,666,0,0,0,0,0,0,0,0,0,-1,531,358,0,0
-686,666,0,0,0,0,0,0,0,0,0,-1,538,358,0,0
-679,666,0,0,0,0,0,0,0,0,0,-1,545,358,0,0
-672,666,0,0,0,0,0,0,0,0,0,-1,552,358,0,0
-665,666,0,0,0,0,0,0,0,0,0,-1,559,358,0,0
-658,666,0,0,0,0,0,0,0,0,0,-1,566,358,0,0
-651,666,0,0,0,0,0,0,0,0,0,-1,573,358,0,0
-644,666,0,0,0,0,0,0,0,0,0,-1,580,358,0,0
-637,666,0,0,0,0,0,0,0,0,0,-1,587,358,0,0
-630,666,0,0,0,0,0,0,0,0,0,-1,594,358,0,0
-623,666,0,0,0,0,0,0,0,0,0,-1,601,358,0,0
-616,666,0,0,0,0,0,0,0,0,0,-1,608,358,0,0
-609,666,0,0,0,0,0,0,0,0,0,-1,615,358,0,0
-602,666,0,0,0,0,0,0,0,0,0,-1,622,358,0,0
-595,666,0,0,0,0,0,0,0,0,0,-1,629,358,0,0
-588,666,0,0,0,0,0,0,0,0,0,-1,636,358,0,0
-581,666,0,0,0,0,0,0,0,0,0,-1,643,358,0,0
-574,666,0,0,0,0,0,0,0,0,0,-1,650,358,0,0
-567,666,0,0,0,0,0,0,0,0,0,-1,657,358,0,0
-560,666,0,0,0,0,0,0,0,0,0,-1,664,358,0,0
-553,666,0,0,0,0,0,0,0,0,0,-1,671,358,0,0
-546,666,0,0,0,0,0,0,0,0,0,-1,678,358,0,0
-539,666,0,0,0,0,0,0,0,0,0,-1,685,358,0,0
-532,666,0,0,0,0,0,0,0,0,0,-1,692,358,0,0
-525,666,0,0,0,0,0,0,0,0,0,-1,699,358,0,0
-518,666,0,0,0,0,0,0,0,0,0,-1,706,358,0,0
-511,666,0,0,0,0,0,0,0,0,0,-1,713,358,0,0
-504,666,0,0,0,0,0,0,0,0,0,-1,720,358,0,0
-497,666,0,0,0,0,0,0,0,0,0,-1,727,358,0,0
-490,666,0,0,0,0,0,0,0,0,0,-1,734,358,0,0
-483,666,0,0,0,0,0,0,0,0,0,-1,741,358,0,0
-476,666,0,0,0,0,0,0,0,0,0,-1,748,358,0,0
-469,666,0,0,0,0,0,0,0,0,0,-1,755,358,0,0
-462,666,0,0,0,0,0,0,0,0,0,-1,762,358,0,0
-455,666,0,0,0,0,0,0,0,0,0,-1,769,358,0,0
-448,666,0,0,0,0,0,0,0,0,0,-1,776,358,0,0
-441,666,0,0,0,0,0,0,0,0,0,-1,783,358,0,0
-434,666,0,0,0,0,0,0,0,0,0,-1,790,358,0,0
-427,666,0,0,0,0,0,0,0,0,0,-1,797,358,0,0
-420,666,0,0,0,0,0,0,0,0,0,-1,804,358,0,0
-413,666,0,0,0,0,0,0,0,0,0,-1,811,358,0,0
-406,666,0,0,0,0,0,0,0,0,0,-1,818,358,0,0
-399,666,0,0,0,0,0,0,0,0,0,-1,825,358,0,0
-392,666,0,0,0,0,0,0,0,0,0,-1,832,358,0,0
-385,666,0,0,0,0,0,0,0,0,0,-1,839,358,0,0
-378,666,0,0,0,0,0,0,0,0,0,-1,846,358,0,0
-371,666,0,0,0,0,0,0,0,0,0,-1,853,358,0,0
-364,666,0,0,0,0,0,0,0,0,0,-1,860,358,0,0
-357,666,0,0,0,0,0,0,0,0,0,-1,867,358,0,0
-350,666,0,0,0,0,0,0,0,0,0,-1,874,358,0,0
-343,666,0,0,0,0,0,0,0,0,0,-1,881,358,0,0
-336,666,0,0,0,0,0,0,0,0,0,-1,888,358,0,0
-329,666,0,0,0,0,0,0,0,0,0,-1,895,358,0,0
-322,666,0,0,0,0,0,0,0,0,0,-1,902,358,0,0
-315,666,0,0,0,0,0,0,0,0,0,-1,909,358,0,0
-308,666,0,0,0,0,0,0,0,0,0,-1,916,358,0,0
-301,666,0,0,0,0,0,0,0,0,0,-1,923,358,0,0
-294,666,0,0,0,0,0,0,0,0,0,-1,930,358,0,0
-287,666,0,0,0,0,0,0,0,0,0,-1,937,358,0,0
-280,666,0,0,0,0,0,0,0,0,0,-1,944,358,0,0
-273,666,0,0,0,0,0,0,0,0,0,-1,951,358,0,0
-266,666,0,0,0,0,0,0,0,0,0,-1,958,358,0,0
-259,666,0,0,0,0,0,0,0,0,0,-1,965,358,0,0
-252,666,0,0,0,0,0,0,0,0,0,-1,972,358,0,0
-245,666,0,0,0,0,0,0,0,0,0,-1,979,358,0,0
-238,666,0,0,0,0,0,0,0,0,0,-1,986,358,0,0
-231,666,0,0,0,0,0,0,0,0,0,-1,993,358,0,0
-224,666,0,0,0,0,0,0,0,0,0,-1,1000,358,0,0
-217,666,0,0,0,0,0,0,0,0,0,-1,1007,358,0,0
-210,666,0,0,0,0,0,0,0,0,0,-1,1014,358,0,0
-203,666,0,0,0,0,0,0,0,0,0,-1,1021,358,0,0
-196,666,4.03418,-28.8724,0,0,0,0,0,0,0,-1,1028,358,4.03422,28.8724
-189,666,5.00366,-29.597,0,0,0,0,0,0,0,-1,1035,358,5.00363,29.597
-182,666,6.83252,-30.9843,0,0,0,0,0,0,0,-1,1042,358,6.83247,30.9844
-175,666,7.01611,-31.8763,0,0,0,0,0,0,0,-1,1049,358,7.01617,31.8762
-168,666,7.21545,-32.7414,0,0,0,0,0,0,0,-1,1056,358,7.2154,32.7414
-161,666,7.69116,-33.6269,0,0,0,0,0,0,0,-1,1063,358,7.69121,33.6269
-154,666,3.79041,-37.9204,0,0,0,0,0,0,0,-1,1070,358,3.79034,37.9204
-147,666,4.17908,-37.7466,0,0,0,0,0,0,0,-1,1077,358,4.17912,37.7466
-140,666,4.54309,-37.735,0,0,0,0,0,0,0,-1,1084,358,4.54304,37.735
-133,666,4.80005,-37.8,0,0,0,0,0,0,0,-1,1091,358,4.80003,37.8
-126,666,5.04883,-37.8635,0,0,0,0,0,0,0,-1,1098,358,5.04885,37.8635
-119,666,6.49768,-34.9021,0,0,0,0,0,0,0,-1,1105,358,6.49767,34.9021
-112,666,6.77014,-32.8165,0,0,0,0,0,0,0,-1,1112,358,6.77013,32.8165
-105,666,6.30908,-29.0855,0,0,0,0,0,0,0,-1,1119,358,6.30905,29.0855
-98,666,15.4427,-31.5168,0,0,0,0,0,0,0,-1,1126,358,15.4428,31.5168
-91,666,9.5127,-25.1347,0,0,0,0,0,0,0,-1,1133,358,9.51269,25.1347
-84,666,2.91589,-19.4071,0,0,0,0,0,0,0,-1,1140,358,2.91592,19.4071
-77,666,-3.48083,-14.0782,0,0,0,0,0,0,0,-1,1147,358,-3.48081,14.0782
-70,666,-9.99438,-8.90146,0,0,0,0,0,0,0,-1,1154,358,-9.99433,8.90146
-63,666,-11.7778,-0.975189,0,0,0,0,0,0,0,-1,1161,358,-11.7778,0.97519
-56,666,0.424683,-2.04132,0,0,0,0,0,0,0,-1,1168,358,0.424665,2.04132
-49,666,0.754395,-2.23169,0,0,0,0,0,0,0,-1,1175,358,0.754383,2.23169
-42,666,1.34473,-3.53897,0,0,0,0,0,0,0,-1,1182,358,1.34476,3.53896
-35,666,6.26843,-43.4658,0,0,0,0,0,0,0,-1,1189,358,6.26839,43.4658
-28,666,6.43726,-43.4753,0,0,0,0,0,0,0,-1,1196,358,6.43726,43.4753
-21,666,6.40759,-43.428,0.00713479,0.0126377,-0.0100928,0.0203473,-0.000574836,-0.918473,0.0137605,0.0390498,1203,358,6.40761,43.428
-14,666,6.23376,-43.661,0.00480837,0.0126358,-0.00882959,0.0183802,-0.000936022,-0.994011,0.0125771,0.033741,1210,358,6.23371,43.661
-7,666,6.19336,-43.8463,0.00250925,0.0126495,-0.00767437,0.0167773,-0.00161857,-1.07731,0.0117616,0.0209974,1217,358,6.19341,43.8463
0,666,6.19543,-44.0298,0.000453863,0.0127842,-0.00642185,0.0155213,-0.00228319,-1.1679,0.0111865,0.0141745,1224,358,6.19541,44.0298
7,666,6.08618,-44.1098,-0.00129682,0.0139261,-0.0049985,0.0154206,-0.00279137,-1.28026,0.0113261,0.0202784,1231,358,6.08614,44.1098
14,666,6.0509,-44.1324,-0.00203556,0.0161202,-0.0039939,0.01696,-0.0028753,-1.36356,0.0123769,0.0206474,1238,358,6.05086,44.1324
21,666,5.99097,-44.3448,-0.00254312,0.0194347,-0.00315826,0.0198795,-0.00298796,-1.43087,0.0143531,0.0154624,1245,358,5.99094,44.3448
28,666,5.95435,-44.4667,-0.00296994,0.0218375,-0.00220042,0.0220311,-0.00316361,-1.48301,0.0158476,0.0224215,1252,358,5.95434,44.4667
35,666,5.92786,-44.458,-0.00284398,0.0244109,-0.00157604,0.0245017,-0.00293481,-1.51323,0.0173955,0.0213337,1259,358,5.9278,44.458
42,666,5.8335,-44.5365,-0.0030139,0.0265837,-0.000554057,0.026594,-0.00302427,-1.55209,0.0188186,0.0162547,1266,358,5.83349,44.5365
49,666,5.74402,-44.5743,-0.00256437,0.0284712,-0.000343496,0.028475,-0.00256817,-1.55973,0.0198947,0.0145163,1273,358,5.74398,44.5743
56,666,5.69421,-44.6016,-0.00213841,0.0297373,-0.000291664,0.02974,-0.00214108,-1.56165,0.0205775,0.0155883,1280,358,5.69427,44.6016
63,666,5.6311,-44.6641,-0.00116071,0.030827,0.000125877,0.0308275,-0.00116121,1.56686,0.0209495,0.0174576,1287,358,5.63107,44.6641
70,666,5.61365,-44.6118,-0.000670328,0.029741,0.000991258,0.0297733,-0.000702605,1.53825,0.0200872,0.0171323,1294,358,5.61365,44.6118
77,666,5.55652,-44.4954,-0.000812565,0.0268198,0.001679,0.0269214,-0.000914212,1.51033,0.01826,0.0220069,1301,358,5.55652,44.4953
84,666,5.51941,-44.532,-0.00158129,0.0234823,0.00196176,0.0236349,-0.00173391,1.49316,0.0163652,0.0303975,1308,358,5.51944,44.532
91,666,5.48083,-44.5638,-0.0028715,0.0197866,0.00253411,0.0200666,-0.00315146,1.46077,0.0145425,0.0277285,1315,358,5.48077,44.5637
98,666,5.3468,-44.4767,-0.00428375,0.016545,0.0036265,0.0171583,-0.0048971,1.40325,0.0133735,0.0235268,1322,358,5.34674,44.4767
105,666,5.23425,-44.3344,-0.0051434,0.014017,0.00484036,0.0151704,-0.00629675,1.33688,0.0127421,0.0254075,1329,358,5.23429,44.3344
112,666,5.20898,-44.1954,0,0,0,0,0,0,0,-1,1336,358,5.20897,44.1954
119,666,5.12634,-44.02,0,0,0,0,0,0,0,-1,1343,358,5.1263,44.02
126,666,4.96985,-43.6334,-0.00842173,0.00617949,0.00816695,0.00983324,-0.0120755,1.15012,0.0126711,0.0345685,1350,358,4.96985,43.6333
133,666,4.91821,-43.5026,-0.00847468,0.00675342,0.00861851,0.0106395,-0.0123607,1.1472,0.0132916,0.0297208,1357,358,4.9182,43.5026
140,666,4.82886,-43.4903,-0.00855907,0.00776699,0.00910046,0.0118291,-0.0126212,1.15097,0.0141188,0.0295031,1364,358,4.82885,43.4903
147,666,4.70142,-43.3319,-0.00863561,0.00902676,0.00936025,0.0130643,-0.0126731,1.16356,0.0148601,0.0267418,1371,358,4.70145,43.332
154,666,4.745,-42.9205,-0.0085028,0.0101059,0.00997897,0.0144452,-0.0128422,1.16061,0.0157634,0.0244393,1378,358,4.74496,42.9205
161,666,4.77344,-42.6474,-0.00849992,0.0110038,0.0105902,0.0156482,-0.0131443,1.1575,0.0166443,0.0322675,1385,358,4.77341,42.6474
168,666,4.7395,-42.3879,0,0,0,0,0,0,0,-1,1392,358,4.73949,42.3879
175,666,4.8158,-42.567,0,0,0,0,0,0,0,-1,1399,358,4.81585,42.567
182,666,2.60876,-5.17068,0,0,0,0,0,0,0,-1,1406,358,2.6088,5.17068
189,666,2.46973,-5.49979,0,0,0,0,0,0,0,-1,1413,358,2.46975,5.49979
196,666,2.32458,-5.23651,0,0,0,0,0,0,0,-1,1420,358,2.32461,5.23653
203,666,2.28064,-3.88004,0,0,0,0,0,0,0,-1,1427,358,2.28059,3.88003
210,666,3.02576,-5.83548,0,0,0,0,0,0,0,-1,1434,358,3.02581,5.83547
217,666,2.30444,-5.36011,0,0,0,0,0,0,0,-1,1441,358,2.30447,5.3601
224,666,1.82324,-6.03101,0,0,0,0,0,0,0,-1,1448,358,1.82322,6.031
231,666,2.29797,-10.1093,0,0,0,0,0,0,0,-1,1455,358,2.29801,10.1093
238,666,2.52429,-6.10568,0,0,0,0,0,0,0,-1,1462,358,2.52423,6.10567
245,666,4.53345,-1.38205,0,0,0,0,0,0,0,-1,1469,358,4.53349,1.38204
252,666,4.77405,-0.246979,0,0,0,0,0,0,0,-1,1476,358,4.77405,0.246993
259,666,4.83655,1.14087,0,0,0,0,0,0,0,-1,1483,358,4.83652,-1.14087
266,666,6.14148,0.749512,0,0,0,0,0,0,0,-1,1490,358,6.14144,-0.749519
273,666,3.17737,-33.7881,0,0,0,0,0,0,0,-1,1497,358,3.17735,33.7881
280,666,3.37268,-35.2123,0,0,0,0,0,0,0,-1,1504,358,3.37266,35.2123
287,666,-7.06934,-20.3464,0,0,0,0,0,0,0,-1,1511,358,-7.06933,20.3464
294,666,-5.74683,-22.5017,0,0,0,0,0,0,0,-1,1518,358,-5.74685,22.5017
301,666,-6.6886,-23.5144,0,0,0,0,0,0,0,-1,1525,358,-6.68864,23.5144
308,666,-7.45471,-24.766,0,0,0,0,0,0,0,-1,1532,358,-7.45475,24.766
315,666,1.76294,-0.284027,0,0,0,0,0,0,0,-1,1539,358,1.76291,0.284016
322,666,0,0,0,0,0,0,0,0,0,-1,1546,358,0,0
329,666,0,0,0,0,0,0,0,0,0,-1,1553,358,0,0
336,666,0,0,0,0,0,0,0,0,0,-1,1560,358,0,0
343,666,0,0,0,0,0,0,0,0,0,-1,1567,358,0,0
350,666,0,0,0,0,0,0,0,0,0,-1,1574,358,0,0
357,666,0,0,0,0,0,0,0,0,0,-1,1581,358,0,0
364,666,0,0,0,0,0,0,0,0,0,-1,1588,358,0,0
371,666,0,0,0,0,0,0,0,0,0,-1,1595,358,0,0
378,666,0,0,0,0,0,0,0,0,0,-1,1602,358,0,0
385,666,0,0,0,0,0,0,0,0,0,-1,1609,358,0,0
392,666,0,0,0,0,0,0,0,0,0,-1,1616,358,0,0
399,666,0,0,0,0,0,0,0,0,0,-1,1623,358,0,0
406,666,0,0,0,0,0,0,0,0,0,-1,1630,358,0,0
413,666,0,0,0,0,0,0,0,0,0,-1,1637,358,0,0
420,666,0,0,0,0,0,0,0,0,0,-1,1644,358,0,0
427,666,0,0,0,0,0,0,0,0,0,-1,1651,358,0,0
434,666,0,0,0,0,0,0,0,0,0,-1,1658,358,0,0
441,666,0,0,0,0,0,0,0,0,0,-1,1665,358,0,0
448,666,0,0,0,0,0,0,0,0,0,-1,1672,358,0,0
455,666,0,0,0,0,0,0,0,0,0,-1,1679,358,0,0
462,666,0,0,0,0,0,0,0,0,0,-1,1686,358,0,0
469,666,0,0,0,0,0,0,0,0,0,-1,1693,358,0,0
476,666,0,0,0,0,0,0,0,0,0,-1,1700,358,0,0
483,666,0,0,0,0,0,0,0,0,0,-1,1707,358,0,0
490,666,0,0,0,0,0,0,0,0,0,-1,1714,358,0,0
497,666,0,0,0,0,0,0,0,0,0,-1,1721,358,0,0
504,666,0,0,0,0,0,0,0,0,0,-1,1728,358,0,0
511,666,0,0,0,0,0,0,0,0,0,-1,1735,358,0,0
518,666,0,0,0,0,0,0,0,0,0,-1,1742,358,0,0
525,666,0,0,0,0,0,0,0,0,0,-1,1749,358,0,0
532,666,0,0,0,0,0,0,0,0,0,-1,1756,358,0,0
539,666,0,0,0,0,0,0,0,0,0,-1,1763,358,0,0
546,666,0,0,0,0,0,0,0,0,0,-1,1770,358,0,0
553,666,0,0,0,0,0,0,0,0,0,-1,1777,358,0,0
560,666,0,0,0,0,0,0,0,0,0,-1,1784,358,0,0
567,666,0,0,0,0,0,0,0,0,0,-1,1791,358,0,0
574,666,0,0,0,0,0,0,0,0,0,-1,1798,358,0,0
581,666,0,0,0,0,0,0,0,0,0,-1,1805,358,0,0
588,666,0,0,0,0,0,0,0,0,0,-1,1812,358,0,0
595,666,0,0,0,0,0,0,0,0,0,-1,1819,358,0,0
602,666,0,0,0,0,0,0,0,0,0,-1,1826,358,0,0
609,666,0,0,0,0,0,0,0,0,0,-1,1833,358,0,0
616,666,0,0,0,0,0,0,0,0,0,-1,1840,358,0,0
623,666,0,0,0,0,0,0,0,0,0,-1,1847,358,0,0
630,666,0,0,0,0,0,0,0,0,0,-1,1854,358,0,0
637,666,0,0,0,0,0,0,0,0,0,-1,1861,358,0,0
644,666,0,0,0,0,0,0,0,0,0,-1,1868,358,0,0
651,666,0,0,0,0,0,0,0,0,0,-1,1875,358,0,0
658,666,0,0,0,0,0,0,0,0,0,-1,1882,358,0,0
665,666,0,0,0,0,0,0,0,0,0,-1,1889,358,0,0
672,666,0,0,0,0,0,0,0,0,0,-1,1896,358,0,0
679,666,0,0,0,0,0,0,0,0,0,-1,1903,358,0,0
686,666,0,0,0,0,0,0,0,0,0,-1,1910,358,0,0
693,666,0,0,0,0,0,0,0,0,0,-1,1917,358,0,0
700,666,0,0,0,0,0,0,0,0,0,-1,1924,358,0,0
707,666,0,0,0,0,0,0,0,0,0,-1,1931,358,0,0
714,666,0,0,0,0,0,0,0,0,0,-1,1938,358,0,0
721,666,0,0,0,0,0,0,0,0,0,-1,1945,358,0,0
728,666,0,0,0,0,0,0,0,0,0,-1,1952,358,0,0
735,666,0,0,0,0,0,0,0,0,0,-1,1959,358,0,0
742,666,0,0,0,0,0,0,0,0,0,-1,1966,358,0,0
749,666,0,0,0,0,0,0,0,0,0,-1,1973,358,0,0
756,666,0,0,0,0,0,0,0,0,0,-1,1980,358,0,0
763,666,0,0,0,0,0,0,0,0,0,-1,1987,358,0,0
770,666,0,0,0,0,0,0,0,0,0,-1,1994,358,0,0
777,666,0,0,0,0,0,0,0,0,0,-1,2001,358,0,0
784,666,0,0,0,0,0,0,0,0,0,-1,2008,358,0,0
791,666,0,0,0,0,0,0,0,0,0,-1,2015,358,0,0
798,666,0,0,0,0,0,0,0,0,0,-1,2022,358,0,0
805,666,0,0,0,0,0,0,0,0,0,-1,2029,358,0,0
812,666,0,0,0,0,0,0,0,0,0,-1,2036,358,0,0
-700,659,0,0,0,0,0,0,0,0,0,-1,524,365,0,0
-693,659,0,0,0,0,0,0,0,0,0,-1,531,365,0,0
-686,659,0,0,0,0,0,0,0,0,0,-1,538,365,0,0
-679,659,0,0,0,0,0,0,0,0,0,-1,545,365,0,0
-672,659,0,0,0,0,0,0,0,0,0,-1,552,365,0,0
-665,659,0,0,0,0,0,0,0,0,0,-1,559,365,0,0
-658,659,0,0,0,0,0,0,0,0,0,-1,566,365,0,0
-651,659,0,0,0,0,0,0,0,0,0,-1,573,365,0,0
-644,659,0,0,0,0,0,0,0,0,0,-1,580,365,0,0
-637,659,0,0,0,0,0,0,0,0,0,-1,587,365,0,0
-630,659,0,0,0,0,0,0,0,0,0,-1,594,365,0,0
-623,659,0,0,0,0,0,0,0,0,0,-1,601,365,0,0
-616,659,0,0,0,0,0,0,0,0,0,-1,608,365,0,0
-609,659,0,0,0,0,0,0,0,0,0,-1,615,365,0,0
-602,659,0,0,0,0,0,0,0,0,0,-1,622,365,0,0
-595,659,0,0,0,0,0,0,0,0,0,-1,629,365,0,0
-588,659,0,0,0,0,0,0,0,0,0,-1,636,365,0,0
-581,659,0,0,0,0,0,0,0,0,0,-1,643,365,0,0
-574,659,0,0,0,0,0,0,0,0,0,-1,650,365,0,0
-567,659,0,0,0,0,0,0,0,0,0,-1,657,365,0,0
-560,659,0,0,0,0,0,0,0,0,0,-1,664,365,0,0
-553,659,0,0,0,0,0,0,0,0,0,-1,671,365,0,0
-546,659,0,0,0,0,0,0,0,0,0,-1,678,365,0,0
-539,659,0,0,0,0,0,0,0,0,0,-1,685,365,0,0
-532,659,0,0,0,0,0,0,0,0,0,-1,692,365,0,0
-525,659,0,0,0,0,0,0,0,0,0,-1,699,365,0,0
-518,659,0,0,0,0,0,0,0,0,0,-1,706,365,0,0
-511,659,0,0,0,0,0,0,0,0,0,-1,713,365,0,0
-504,659,0,0,0,0,0,0,0,0,0,-1,720,365,0,0
-497,659,0,0,0,0,0,0,0,0,0,-1,727,365,0,0
-490,659,0,0,0,0,0,0,0,0,0,-1,734,365,0,0
-483,659,0,0,0,0,0,0,0,0,0,-1,741,365,0,0
-476,659,0,0,0,0,0,0,0,0,0,-1,748,365,0,0
-469,659,0,0,0,0,0,0,0,0,0,-1,755,365,0,0
-462,659,0,0,0,0,0,0,0,0,0,-1,762,365,0,0
-455,659,0,0,0,0,0,0,0,0,0,-1,769,365,0,0
-448,659,0,0,0,0,0,0,0,0,0,-1,776,365,0,0
-441,659,0,0,0,0,0,0,0,0,0,-1,783,365,0,0
-434,659,0,0,0,0,0,0,0,0,0,-1,790,365,0,0
-427,659,0,0,0,0,0,0,0,0,0,-1,797,365,0,0
-420,659,0,0,0,0,0,0,0,0,0,-1,804,365,0,0
-413,659,0,0,0,0,0,0,0,0,0,-1,811,365,0,0
-406,659,0,0,0,0,0,0,0,0,0,-1,818,365,0,0
-399,659,0,0,0,0,0,0,0,0,0,-1,825,365,0,0
-392,659,0,0,0,0,0,0,0,0,0,-1,832,365,0,0
-385,659,0,0,0,0,0,0,0,0,0,-1,839,365,0,0
-378,659,0,0,0,0,0,0,0,0,0,-1,846,365,0,0
-371,659,0,0,0,0,0,0,0,0,0,-1,853,365,0,0
-364,659,0,0,0,0,0,0,0,0,0,-1,860,365,0,0
-357,659,0,0,0,0,0,0,0,0,0,-1,867,365,0,0
-350,659,0,0,0,0,0,0,0,0,0,-1,874,365,0,0
-343,659,0,0,0,0,0,0,0,0,0,-1,881,365,0,0
-336,659,0,0,0,0,0,0,0,0,0,-1,888,365,0,0
-329,659,0,0,0,0,0,0,0,0,0,-1,895,365,0,0
-322,659,0,0,0,0,0,0,0,0,0,-1,902,365,0,0
-315,659,0,0,0,0,0,0,0,0,0,-1,909,365,0,0
-308,659,0,0,0,0,0,0,0,0,0,-1,916,365,0,0
-301,659,0,0,0,0,0,0,0,0,0,-1,923,365,0,0
-294,659,0,0,0,0,0,0,0,0,0,-1,930,365,0,0
-287,659,0,0,0,0,0,0,0,0,0,-1,937,365,0,0
-280,659,0,0,0,0,0,0,0,0,0,-1,944,365,0,0
-273,659,0,0,0,0,0,0,0,0,0,-1,951,365,0,0
-266,659,0,0,0,0,0,0,0,0,0,-1,958,365,0,0
-259,659,0,0,0,0,0,0,0,0,0,-1,965,365,0,0
-252,659,0,0,0,0,0,0,0,0,0,-1,972,365,0,0
-245,659,0,0,0,0,0,0,0,0,0,-1,979,365,0,0
-238,659,0,0,0,0,0,0,0,0,0,-1,986,365,0,0
-231,659,0,0,0,0,0,0,0,0,0,-1,993,365,0,0
-224,659,0,0,0,0,0,0,0,0,0,-1,1000,365,0,0
-217,659,10.1305,-25.2622,0,0,0,0,0,0,0,-1,1007,365,10.1305,25.2622
-210,659,9.65643,-25.515,0,0,0,0,0,0,0,-1,1014,365,9.65642,25.515
-203,659,8.58911,-25.7432,0,0,0,0,0,0,0,-1,1021,365,8.58916,25.7432
-196,659,2.68323,-27.8121,0,0,0,0,0,0,0,-1,1028,365,2.6832,27.8121
-189,659,6.88049,-28.9412,0,0,0,0,0,0,0,-1,1035,365,6.88045,28.9412
-182,659,6.94189,-30.6316,0,0,0,0,0,0,0,-1,1042,365,6.94189,30.6316
-175,659,6.948,-32.0092,0,0,0,0,0,0,0,-1,1049,365,6.94798,32.0093
-168,659,7.1416,-32.7405,0,0,0,0,0,0,0,-1,1056,365,7.14157,32.7405
-161,659,7.57361,-33.7099,0,0,0,0,0,0,0,-1,1063,365,7.57355,33.7099
-154,659,7.71448,-34.8995,0,0,0,0,0,0,0,-1,1070,365,7.7145,34.8995
-147,659,5.46606,-37.758,0,0,0,0,0,0,0,-1,1077,365,5.46601,37.758
-140,659,5.7356,-37.755,0,0,0,0,0,0,0,-1,1084,365,5.73562,37.755
-133,659,5.91455,-37.9017,0,0,0,0,0,0,0,-1,1091,365,5.9146,37.9017
-126,659,5.68677,-36.3677,0,0,0,0,0,0,0,-1,1098,365,5.68679,36.3677
-119,659,6.26941,-35.0837,0,0,0,0,0,0,0,-1,1105,365,6.26943,35.0837
-112,659,6.24353,-35.0562,0,0,0,0,0,0,0,-1,1112,365,6.24349,35.0562
-105,659,5.38696,-30.5854,0,0,0,0,0,0,0,-1,1119,365,5.387,30.5854
-98,659,4.68042,-26.2438,0,0,0,0,0,0,0,-1,1126,365,4.68041,26.2438
-91,659,4.20776,-20.8654,0,0,0,0,0,0,0,-1,1133,365,4.20777,20.8654
-84,659,2.8584,-17.8303,0,0,0,0,0,0,0,-1,1140,365,2.85836,17.8303
-77,659,2.80139,-15.3457,0,0,0,0,0,0,0,-1,1147,365,2.80139,15.3457
-70,659,2.9353,-12.7028,0,0,0,0,0,0,0,-1,1154,365,2.93533,12.7028
-63,659,2.11267,-9.7796,0,0,0,0,0,0,0,-1,1161,365,2.11266,9.7796
-56,659,2.11182,-9.91541,0,0,0,0,0,0,0,-1,1168,365,2.11178,9.91541
-49,659,6.40857,-42.8806,0,0,0,0,0,0,0,-1,1175,365,6.40859,42.8806
-42,659,6.12085,-43.355,0,0,0,0,0,0,0,-1,1182,365,6.1208,43.355
-35,659,6.29077,-43.3595,0.00594798,0.0125723,-0.00698789,0.0169932,0.00152702,-1.00671,0.0108557,0.0424299,1189,365,6.29083,43.3595
-28,659,6.29761,-43.4796,0.00472864,0.0125981,-0.00734759,0.0169982,0.000328566,-1.03123,0.0112242,0.0163845,1196,365,6.2976,43.4796
-21,659,6.2301,-43.7018,0.00379855,0.0126311,-0.00674289,0.0162752,0.000154425,-1.07532,0.0107991,0.0142787,1203,365,6.23016,43.7018
-14,659,6.14795,-43.9164,0.00258582,0.0125909,-0.00587363,0.0153036,-0.000126889,-1.13814,0.0102449,0.0116403,1210,365,6.14793,43.9164
-7,659,6.10437,-44.0606,0.00133026,0.0125473,-0.00513779,0.0145448,-0.000667302,-1.19998,0.00992646,0.0108185,1217,365,6.10438,44.0606
0,659,6.07349,-44.1997,0.000169166,0.0125196,-0.00432567,0.0138839,-0.00119516,-1.26527,0.00967896,0.0089434,1224,365,6.0735,44.1997
7,659,6.02563,-44.3088,-0.00087276,0.0132539,-0.0033703,0.0140168,-0.00163564,-1.34819,0.0099347,0.00904386,1231,365,6.02565,44.3088
14,659,5.9502,-44.3806,-0.00133954,0.0146187,-0.0026561,0.0150491,-0.00177001,-1.41012,0.0106718,0.0125499,1238,365,5.95016,44.3806
21,659,5.91064,-44.4871,-0.00170171,0.0162574,-0.00193146,0.0164628,-0.00190709,-1.46486,0.011663,0.0128344,1245,365,5.91067,44.4871
28,659,5.86499,-44.5883,-0.00201131,0.0176453,-0.00121172,0.0177197,-0.00208572,-1.50946,0.0125662,0.0120074,1252,365,5.86494,44.5883
35,659,5.84192,-44.6547,-0.00195242,0.0191253,-0.000720151,0.0191499,-0.001977,-1.53668,0.013474,0.0133709,1259,365,5.84195,44.6547
42,659,5.81384,-44.7182,-0.0021276,0.0203491,0.000117868,0.0203497,-0.00212822,1.56555,0.0143287,0.0141236,1266,365,5.81382,44.7182
49,659,5.73438,-44.7553,-0.00190174,0.021355,0.00036213,0.0213607,-0.00190737,1.55523,0.0149169,0.0135789,1273,365,5.73439,44.7553
56,659,5.65515,-44.7743,-0.00169664,0.0220414,0.00047246,0.0220508,-0.00170604,1.5509,0.015301,0.0172187,1280,365,5.65517,44.7743
63,659,5.63708,-44.801,-0.00108008,0.0226371,0.000811885,0.0226649,-0.00110784,1.53662,0.0154924,0.0178823,1287,365,5.63707,44.801
70,659,5.57727,-44.7788,-0.000781559,0.0218714,0.00147902,0.0219675,-0.000877716,1.50587,0.0149462,0.0177078,1294,365,5.57723,44.7789
77,659,5.49683,-44.7161,-0.000910441,0.0200492,0.00196851,0.0202325,-0.00109372,1.47796,0.0138673,0.0173292,1301,365,5.49681,44.7161
84,659,5.47729,-44.7227,-0.00146786,0.0180291,0.00205517,0.0182434,-0.00168214,1.46691,0.01276,0.0131356,1308,365,5.4773,44.7227
91,659,5.42383,-44.6881,-0.00241794,0.0158659,0.00231756,0.016155,-0.00270713,1.44666,0.0117766,0.0119423,1315,365,5.4238,44.6881
98,659,5.37866,-44.5922,-0.00342992,0.0140431,0.00299484,0.0145422,-0.00392897,1.40568,0.0112358,0.00884598,1322,365,5.37869,44.5922
105,659,5.35254,-44.4415,-0.0039961,0.0127967,0.00377712,0.0136072,-0.00480655,1.35943,0.0110285,0.0100685,1329,365,5.3526,44.4415
112,659,5.30615,-44.3151,-0.0047215,0.0113312,0.00433441,0.0124268,-0.00581707,1.32322,0.010761,0.0149368,1336,365,5.30616,44.3151
119,659,5.24194,-44.1803,-0.00563689,0.00999316,0.0050855,0.0115021,-0.00714586,1.28235,0.0108639,0.0171422,1343,365,5.242,44.1803
126,659,5.16736,-44.0109,-0.00606435,0.00957466,0.0055846,0.0113641,-0.00785382,1.2607,0.011157,0.0147956,1350,365,5.16731,44.0109
133,659,5.10864,-43.8394,-0.00601219,0.0102764,0.00587277,0.0121729,-0.00790876,1.25843,0.011681,0.0131341,1357,365,5.10865,43.8393
140,659,5.06299,-43.6975,-0.00594957,0.0112367,0.00621484,0.0132485,-0.00796145,1.25772,0.0123718,0.0107265,1364,365,5.06295,43.6975
147,659,5.01782,-43.5207,-0.00589137,0.0124345,0.00634101,0.0144146,-0.0078715,1.26812,0.0130504,0.00941216,1371,365,5.01777,43.5207
154,659,4.95203,-43.2735,-0.00569067,0.0134867,0.00675219,0.0156256,-0.00782951,1.26403,0.0137889,0.0110585,1378,365,4.95197,43.2735
161,659,4.90039,-43.0453,-0.00558476,0.0143846,0.00715691,0.0166847,-0.00788484,1.25984,0.0144853,0.0130404,1385,365,4.90039,43.0453
168,659,4.8772,-42.7983,-0.005539,0.0149706,0.00749422,0.0174172,-0.00798555,1.25525,0.0149995,0.0194342,1392,365,4.87716,42.7983
175,659,4.86218,-42.542,-0.00530036,0.0162439,0.00773871,0.0187355,-0.00779195,1.25931,0.0157441,0.0416742,1399,365,4.86219,42.542
182,659,4.7511,-42.2417,0,0,0,0,0,0,0,-1,1406,365,4.75108,42.2417
189,659,4.76099,-41.8777,0,0,0,0,0,0,0,-1,1413,365,4.76095,41.8777
196,659,2.41248,-13.4371,0,0,0,0,0,0,0,-1,1420,365,2.41243,13.4371
203,659,2.38623,-12.2163,0,0,0,0,0,0,0,-1,1427,365,2.38617,12.2163
210,659,2.20789,-13.9792,0,0,0,0,0,0,0,-1,1434,365,2.20794,13.9792
217,659,2.24121,-13.487,0,0,0,0,0,0,0,-1,1441,365,2.24116,13.487
224,659,2.3479,-15.2926,0,0,0,0,0,0,0,-1,1448,365,2.34793,15.2926
231,659,2.47974,-17.8629,0,0,0,0,0,0,0,-1,1455,365,2.47976,17.8628
238,659,3.57886,-21.1258,0,0,0,0,0,0,0,-1,1462,365,3.57889,21.1258
245,659,3.29883,-25.0283,0,0,0,0,0,0,0,-1,1469,365,3.29889,25.0283
252,659,2.81909,-24.1604,0,0,0,0,0,0,0,-1,1476,365,2.81905,24.1604
259,659,2.33069,-3.36703,0,0,0,0,0,0,0,-1,1483,365,2.33073,3.36702
266,659,3.40918,-35.2544,0,0,0,0,0,0,0,-1,1490,365,3.40913,35.2544
273,659,4.1322,-37.331,0,0,0,0,0,0,0,-1,1497,365,4.13224,37.331
280,659,3.91772,-35.9675,0,0,0,0,0,0,0,-1,1504,365,3.91774,35.9675
287,659,4.36707,-36.4146,0,0,0,0,0,0,0,-1,1511,365,4.36704,36.4146
294,659,3.82178,-38.0821,0,0,0,0,0,0,0,-1,1518,365,3.8218,38.0821
301,659,-4.51111,-22.7441,0,0,0,0,0,0,0,-1,1525,365,-4.51114,22.7441
308,659,-5.40295,-24.1075,0,0,0,0,0,0,0,-1,1532,365,-5.4029,24.1075
315,659,-6.55835,-24.4516,0,0,0,0,0,0,0,-1,1539,365,-6.55841,24.4516
322,659,-7.44983,-23.6558,0,0,0,0,0,0,0,-1,1546,365,-7.44988,23.6558
329,659,-7.67749,-23.0449,0,0,0,0,0,0,0,-1,1553,365,-7.67745,23.0449
336,659,-7.71436,-22.4188,0,0,0,0,0,0,0,-1,1560,365,-7.71432,22.4188
343,659,0,0,0,0,0,0,0,0,0,-1,1567,365,0,0
350,659,0,0,0,0,0,0,0,0,0,-1,1574,365,0,0
357,659,0,0,0,0,0,0,0,0,0,-1,1581,365,0,0
364,659,0,0,0,0,0,0,0,0,0,-1,1588,365,0,0
371,659,0,0,0,0,0,0,0,0,0,-1,1595,365,0,0
378,659,0,0,0,0,0,0,0,0,0,-1,1602,365,0,0
385,659,0,0,0,0,0,0,0,0,0,-1,1609,365,0,0
392,659,0,0,0,0,0,0,0,0,0,-1,1616,365,0,0
399,659,0,0,0,0,0,0,0,0,0,-1,1623,365,0,0
406,659,0,0,0,0,0,0,0,0,0,-1,1630,365,0,0
413,659,0,0,0,0,0,0,0,0,0,-1,1637,365,0,0
420,659,0,0,0,0,0,0,0,0,0,-1,1644,365,0,0
427,659,0,0,0,0,0,0,0,0,0,-1,1651,365,0,0
434,659,0,0,0,0,0,0,0,0,0,-1,1658,365,0,0
441,659,0,0,0,0,0,0,0,0,0,-1,1665,365,0,0
448,659,0,0,0,0,0,0,0,0,0,-1,1672,365,0,0
455,659,0,0,0,0,0,0,0,0,0,-1,1679,365,0,0
462,659,0,0,0,0,0,0,0,0,0,-1,1686,365,0,0
469,659,0,0,0,0,0,0,0,0,0,-1,1693,365,0,0
476,659,0,0,0,0,0,0,0,0,0,-1,1700,365,0,0
483,659,0,0,0,0,0,0,0,0,0,-1,1707,365,0,0
490,659,0,0,0,0,0,0,0,0,0,-1,1714,365,0,0
497,659,0,0,0,0,0,0,0,0,0,-1,1721,365,0,0
504,659,0,0,0,0,0,0,0,0,0,-1,1728,365,0,0
511,659,0,0,0,0,0,0,0,0,0,-1,1735,365,0,0
518,659,0,0,0,0,0,0,0,0,0,-1,1742,365,0,0
525,659,0,0,0,0,0,0,0,0,0,-1,1749,365,0,0
532,659,0,0,0,0,0,0,0,0,0,-1,1756,365,0,0
539,659,0,0,0,0,0,0,0,0,0,-1,1763,365,0,0
546,659,0,0,0,0,0,0,0,0,0,-1,1770,365,0,0
553,659,0,0,0,0,0,0,0,0,0,-1,1777,365,0,0
560,659,0,0,0,0,0,0,0,0,0,-1,1784,365,0,0
567,659,0,0,0,0,0,0,0,0,0,-1,1791,365,0,0
574,659,0,0,0,0,0,0,0,0,0,-1,1798,365,0,0
581,659,0,0,0,0,0,0,0,0,0,-1,1805,365,0,0
588,659,0,0,0,0,0,0,0,0,0,-1,1812,365,0,0
595,659,0,0,0,0,0,0,0,0,0,-1,1819,365,0,0
602,659,0,0,0,0,0,0,0,0,0,-1,1826,365,0,0
609,659,0,0,0,0,0,0,0,0,0,-1,1833,365,0,0
616,659,0,0,0,0,0,0,0,0,0,-1,1840,365,0,0
623,659,0,0,0,0,0,0,0,0,0,-1,1847,365,0,0
630,659,0,0,0,0,0,0,0,0,0,-1,1854,365,0,0
637,659,0,0,0,0,0,0,0,0,0,-1,1861,365,0,0
644,659,0,0,0,0,0,0,0,0,0,-1,1868,365,0,0
651,659,0,0,0,0,0,0,0,0,0,-1,1875,365,0,0
658,659,0,0,0,0,0,0,0,0,0,-1,1882,365,0,0
665,659,0,0,0,0,0,0,0,0,0,-1,1889,365,0,0
672,659,0,0,0,0,0,0,0,0,0,-1,1896,365,0,0
679,659,0,0,0,0,0,0,0,0,0,-1,1903,365,0,0
686,659,0,0,0,0,0,0,0,0,0,-1,1910,365,0,0
693,659,0,0,0,0,0,0,0,0,0,-1,1917,365,0,0
700,659,0,0,0,0,0,0,0,0,0,-1,1924,365,0,0
707,659,0,0,0,0,0,0,0,0,0,-1,1931,365,0,0
714,659,0,0,0,0,0,0,0,0,0,-1,1938,365,0,0
721,659,0,0,0,0,0,0,0,0,0,-1,1945,365,0,0
728,659,0,0,0,0,0,0,0,0,0,-1,1952,365,0,0
735,659,0,0,0,0,0,0,0,0,0,-1,1959,365,0,0
742,659,0,0,0,0,0,0,0,0,0,-1,1966,365,0,0
749,659,0,0,0,0,0,0,0,0,0,-1,1973,365,0,0
756,659,0,0,0,0,0,0,0,0,0,-1,1980,365,0,0
763,659,0,0,0,0,0,0,0,0,0,-1,1987,365,0,0
770,659,0,0,0,0,0,0,0,0,0,-1,1994,365,0,0
777,659,0,0,0,0,0,0,0,0,0,-1,2001,365,0,0
784,659,0,0,0,0,0,0,0,0,0,-1,2008,365,0,0
791,659,0,0,0,0,0,0,0,0,0,-1,2015,365,0,0
798,659,0,0,0,0,0,0,0,0,0,-1,2022,365,0,0
805,659,0,0,0,0,0,0,0,0,0,-1,2029,365,0,0
812,659,0,0,0,0,0,0,0,0,0,-1,2036,365,0,0
-700,652,0,0,0,0,0,0,0,0,0,-1,524,372,0,0
-693,652,0,0,0,0,0,0,0,0,0,-1,531,372,0,0
-686,652,0,0,0,0,0,0,0,0,0,-1,538,372,0,0
-679,652,0,0,0,0,0,0,0,0,0,-1,545,372,0,0
-672,652,0,0,0,0,0,0,0,0,0,-1,552,372,0,0
-665,652,0,0,0,0,0,0,0,0,0,-1,559,372,0,0
-658,652,0,0,0,0,0,0,0,0,0,-1,566,372,0,0
-651,652,0,0,0,0,0,0,0,0,0,-1,573,372,0,0
-644,652,0,0,0,0,0,0,0,0,0,-1,580,372,0,0
-637,652,0,0,0,0,0,0,0,0,0,-1,587,372,0,0
-630,652,0,0,0,0,0,0,0,0,0,-1,594,372,0,0
-623,652,0,0,0,0,0,0,0,0,0,-1,601,372,0,0
-616,652,0,0,0,0,0,0,0,0,0,-1,608,372,0,0
-609,652,0,0,0,0,0,0,0,0,0,-1,615,372,0,0
-602,652,0,0,0,0,0,0,0,0,0,-1,622,372,0,0
-595,652,0,0,0,0,0,0,0,0,0,-1,629,372,0,0
-588,652,0,0,0,0,0,0,0,0,0,-1,636,372,0,0
-581,652,0,0,0,0,0,0,0,0,0,-1,643,372,0,0
-574,652,0,0,0,0,0,0,0,0,0,-1,650,372,0,0
-567,652,0,0,0,0,0,0,0,0,0,-1,657,372,0,0
-560,652,0,0,0,0,0,0,0,0,0,-1,664,372,0,0
-553,652,0,0,0,0,0,0,0,0,0,-1,671,372,0,0
-546,652,0,0,0,0,0,0,0,0,0,-1,678,372,0,0
-539,652,0,0,0,0,0,0,0,0,0,-1,685,372,0,0
-532,652,0,0,0,0,0,0,0,0,0,-1,692,372,0,0
-525,652,0,0,0,0,0,0,0,0,0,-1,699,372,0,0
-518,652,0,0,0,0,0,0,0,0,0,-1,706,372,0,0
-511,652,0,0,0,0,0,0,0,0,0,-1,713,372,0,0
-504,652,0,0,0,0,0,0,0,0,0,-1,720,372,0,0
-497,652,0,0,0,0,0,0,0,0,0,-1,727,372,0,0
-490,652,0,0,0,0,0,0,0,0,0,-1,734,372,0,0
-483,652,0,0,0,0,0,0,0,0,0,-1,741,372,0,0
-476,652,0,0,0,0,0,0,0,0,0,-1,748,372,0,0
-469,652,0,0,0,0,0,0,0,0,0,-1,755,372,0,0
-462,652,0,0,0,0,0,0,0,0,0,-1,762,372,0,0
-455,652,0,0,0,0,0,0,0,0,0,-1,769,372,0,0
-448,652,0,0,0,0,0,0,0,0,0,-1,776,372,0,0
-441,652,0,0,0,0,0,0,0,0,0,-1,783,372,0,0
-434,652,0,0,0,0,0,0,0,0,0,-1,790,372,0,0
-427,652,0,0,0,0,0,0,0,0,0,-1,797,372,0,0
-420,652,0,0,0,0,0,0,0,0,0,-1,804,372,0,0
-413,652,0,0,0,0,0,0,0,0,0,-1,811,372,0,0
-406,652,0,0,0,0,0,0,0,0,0,-1,818,372,0,0
-399,652,0,0,0,0,0,0,0,0,0,-1,825,372,0,0
-392,652,0,0,0,0,0,0,0,0,0,-1,832,372,0,0
-385,652,0,0,0,0,0,0,0,0,0,-1,839,372,0,0
-378,652,0,0,0,0,0,0,0,0,0,-1,846,372,0,0
-371,652,0,0,0,0,0,0,0,0,0,-1,853,372,0,0
-364,652,0,0,0,0,0,0,0,0,0,-1,860,372,0,0
-357,652,0,0,0,0,0,0,0,0,0,-1,867,372,0,0
-350,652,0,0,0,0,0,0,0,0,0,-1,874,372,0,0
-343,652,0,0,0,0,0,0,0,0,0,-1,881,372,0,0
-336,652,0,0,0,0,0,0,0,0,0,-1,888,372,0,0
-329,652,0,0,0,0,0,0,0,0,0,-1,895,372,0,0
-322,652,0,0,0,0,0,0,0,0,0,-1,902,372,0,0
-315,652,0,0,0,0,0,0,0,0,0,-1,909,372,0,0
-308,652,0,0,0,0,0,0,0,0,0,-1,916,372,0,0
-301,652,0,0,0,0,0,0,0,0,0,-1,923,372,0,0
-294,652,0,0,0,0,0,0,0,0,0,-1,930,372,0,0
-287,652,0,0,0,0,0,0,0,0,0,-1,937,372,0,0
-280,652,0,0,0,0,0,0,0,0,0,-1,944,372,0,0
-273,652,0,0,0,0,0,0,0,0,0,-1,951,372,0,0
-266,652,0,0,0,0,0,0,0,0,0,-1,958,372,0,0
-259,652,0,0,0,0,0,0,0,0,0,-1,965,372,0,0
-252,652,0,0,0,0,0,0,0,0,0,-1,972,372,0,0
-245,652,0,0,0,0,0,0,0,0,0,-1,979,372,0,0
-238,652,0,0,0,0,0,0,0,0,0,-1,986,372,0,0
-231,652,8.79358,-27.1656,0,0,0,0,0,0,0,-1,993,372,8.79357,27.1656
-224,652,8.84552,-27.675,0,0,0,0,0,0,0,-1,1000,372,8.84555,27.675
-217,652,9.03113,-27.7474,0,0,0,0,0,0,0,-1,1007,372,9.0311,27.7474
-210,652,9.72803,-30.4624,0,0,0,0,0,0,0,-1,1014,372,9.72805,30.4624
-203,652,7.2677,-26.0732,0,0,0,0,0,0,0,-1,1021,372,7.26775,26.0732
-196,652,5.90686,-26.957,0,0,0,0,0,0,0,-1,1028,372,5.9068,26.957
-189,652,6.21326,-28.3035,0,0,0,0,0,0,0,-1,1035,372,6.21331,28.3035
-182,652,6.45068,-29.9377,0,0,0,0,0,0,0,-1,1042,372,6.45074,29.9377
-175,652,6.72559,-31.6948,0,0,0,0,0,0,0,-1,1049,372,6.72563,31.6948
-168,652,7.08533,-32.8669,0,0,0,0,0,0,0,-1,1056,372,7.08532,32.8669
-161,652,7.31372,-36.9454,0,0,0,0,0,0,0,-1,1063,372,7.3137,36.9454
-154,652,7.30725,-37.3769,0,0,0,0,0,0,0,-1,1070,372,7.30724,37.3769
-147,652,7.16309,-37.5448,0,0,0,0,0,0,0,-1,1077,372,7.16309,37.5448
-140,652,5.6842,-33.9781,0,0,0,0,0,0,0,-1,1084,372,5.68421,33.9781
-133,652,6.3009,-35.2887,0,0,0,0,0,0,0,-1,1091,372,6.30093,35.2887
-126,652,5.86841,-37.0981,0,0,0,0,0,0,0,-1,1098,372,5.86845,37.0981
-119,652,6.76636,-39.2388,0,0,0,0,0,0,0,-1,1105,372,6.7664,39.2388
-112,652,6.64941,-39.6625,0,0,0,0,0,0,0,-1,1112,372,6.64944,39.6625
-105,652,6.65503,-39.8137,0,0,0,0,0,0,0,-1,1119,372,6.655,39.8137
-98,652,5.84302,-35.2455,0,0,0,0,0,0,0,-1,1126,372,5.84307,35.2455
-91,652,5.66296,-32.9003,0,0,0,0,0,0,0,-1,1133,372,5.66297,32.9003
-84,652,5.46057,-34.9186,0,0,0,0,0,0,0,-1,1140,372,5.46057,34.9186
-77,652,6.40222,-41.5624,0,0,0,0,0,0,0,-1,1147,372,6.40224,41.5624
-70,652,6.36926,-42.0091,0,0,0,0,0,0,0,-1,1154,372,6.36924,42.0091
-63,652,6.33899,-42.293,0,0,0,0,0,0,0,-1,1161,372,6.33893,42.293
-56,652,6.21899,-42.5886,0,0,0,0,0,0,0,-1,1168,372,6.21899,42.5886
-49,652,6.24487,-42.8951,0.00157294,0.0120848,-0.00335958,0.0130667,0.000590947,-1.28642,0.00852101,0.0374574,1175,372,6.24482,42.895
-42,652,6.17419,-43.0757,0.00277085,0.0124906,-0.00366234,0.013716,0.0015454,-1.2479,0.00867488,0.0127314,1182,372,6.17415,43.0756
-35,652,6.14771,-43.2908,0.00305697,0.011872,-0.00452058,0.0137781,0.00115085,-1.17177,0.00882682,0.0100125,1189,372,6.14766,43.2908
-28,652,6.09802,-43.5096,0.0028952,0.0121131,-0.0047733,0.0141394,0.000868881,-1.16934,0.00915042,0.00792345,1196,372,6.09797,43.5096
-21,652,6.04407,-43.7433,0.00271412,0.0122314,-0.00433929,0.0139128,0.00103273,-1.20113,0.00895086,0.0084188,1203,372,6.04404,43.7433
-14,652,6.00659,-43.9319,0.00236834,0.0121128,-0.0037857,0.0134106,0.00107047,-1.24052,0.00860582,0.0106186,1210,372,6.00658,43.9319
-7,652,5.96619,-44.1154,0.00188276,0.0119165,-0.00334415,0.0129289,0.000870338,-1.27683,0.00834431,0.0134457,1217,372,5.96618,44.1155
0,652,5.92896,-44.2593,0.0013399,0.0116306,-0.00284052,0.0123626,0.000607904,-1.31858,0.00804673,0.0133769,1224,372,5.92895,44.2593
7,652,5.91431,-44.3126,0.000762953,0.0118822,-0.00221771,0.0123082,0.000336956,-1.38102,0.00809546,0.0138689,1231,372,5.91428,44.3126
14,652,5.87207,-44.4163,0.000156828,0.0124771,-0.00155827,0.0126711,-3.72059e-05,-1.44691,0.00845984,0.0121037,1238,372,5.87204,44.4163
21,652,5.82385,-44.5678,-0.000393659,0.0131142,-0.000854945,0.0131681,-0.000447555,-1.50784,0.00893167,0.0119148,1245,372,5.82382,44.5678
28,652,5.80237,-44.6712,-0.000820203,0.0137834,-0.000269146,0.0137884,-0.000825162,-1.55237,0.0094793,0.0113397,1252,372,5.80234,44.6712
35,652,5.76135,-44.7112,-0.0010671,0.0145157,0.000178718,0.0145178,-0.00106915,1.55933,0.0100539,0.0112002,1259,372,5.7613,44.7112
42,652,5.71912,-44.7612,-0.00148669,0.0151625,0.000922249,0.0152135,-0.00153762,1.51563,0.0106918,0.0125051,1266,372,5.71913,44.7612
49,652,5.71704,-44.8139,-0.00166835,0.0157135,0.00123992,0.0158015,-0.00175636,1.49994,0.0111659,0.0139069,1273,372,5.71698,44.8139
56,652,5.69324,-44.8088,-0.00185211,0.0161995,0.00140865,0.0163087,-0.00196137,1.49339,0.0115818,0.0159936,1280,372,5.69321,44.8088
63,652,5.6405,-44.8525,-0.00174438,0.0165769,0.00165385,0.016725,-0.00189248,1.48149,0.0118314,0.0216818,1287,372,5.64053,44.8525
70,652,5.58582,-44.8124,-0.00174261,0.0163693,0.00212407,0.0166151,-0.00198838,1.4556,0.0117955,0.0186904,1294,372,5.58581,44.8124
77,652,5.5022,-44.7704,-0.00191802,0.01565,0.00239649,0.015971,-0.00223906,1.43762,0.0114668,0.0163057,1301,372,5.50219,44.7705
84,652,5.51172,-44.7842,-0.00226501,0.0147496,0.0022814,0.0150502,-0.0025656,1.43979,0.010989,0.0142308,1308,372,5.51167,44.7842
91,652,5.474,-44.793,-0.00285213,0.0138788,0.00222312,0.0141691,-0.00314249,1.44092,0.0106493,0.0176238,1315,372,5.47405,44.793
98,652,5.48352,-44.6494,-0.00342638,0.0131972,0.00247506,0.0135579,-0.00378706,1.42609,0.0105304,0.0147917,1322,372,5.48349,44.6495
105,652,5.45313,-44.4951,-0.00362723,0.0128696,0.00282472,0.0133399,-0.0040975,1.40583,0.0105283,0.0123857,1329,372,5.45309,44.4951
112,652,5.39673,-44.3826,-0.00395204,0.0123777,0.00300064,0.0129116,-0.00448596,1.3947,0.0104297,0.0105317,1336,372,5.39676,44.3826
119,652,5.36243,-44.2533,-0.00414847,0.0119714,0.00317329,0.0125736,-0.00475066,1.38326,0.0103365,0.0112794,1343,372,5.36245,44.2533
126,652,5.29895,-44.0989,-0.0041877,0.0123053,0.00326114,0.0129267,-0.00480911,1.3825,0.0105912,0.0125986,1350,372,5.29896,44.0989
133,652,5.25562,-43.9258,-0.00407804,0.0130714,0.00343927,0.0137354,-0.00474207,1.38007,0.0110812,0.0130811,1357,372,5.25557,43.9258
140,652,5.23572,-43.7615,-0.00385422,0.0139746,0.0036806,0.0147046,-0.00458416,1.37502,0.0116361,0.00996667,1364,372,5.23572,43.7615
147,652,5.21558,-43.5792,-0.00364602,0.0150472,0.00372928,0.0157637,-0.00436254,1.38098,0.0122256,0.0090624,1371,372,5.21554,43.5792
154,652,5.17993,-43.3482,-0.00332309,0.0159229,0.00401371,0.0167264,-0.0041266,1.37322,0.012751,0.00974315,1378,372,5.17999,43.3482
161,652,5.1178,-43.1222,-0.00306925,0.0166173,0.00434423,0.0175333,-0.00398527,1.36298,0.0132191,0.0117365,1385,372,5.11781,43.1222
168,652,5.07288,-42.8751,-0.00297556,0.0169999,0.00469367,0.0180479,-0.00402346,1.35114,0.0135733,0.0125373,1392,372,5.07282,42.8751
175,652,5.04541,-42.5858,-0.00286582,0.0176326,0.00498488,0.0187806,-0.00401377,1.34446,0.0140507,0.0125238,1399,372,5.04537,42.5858
182,652,4.99731,-42.3193,-0.00267253,0.017999,0.0052462,0.0192542,-0.00392774,1.33595,0.014326,0.0180277,1406,372,4.99731,42.3193
189,652,4.995,-42.029,-0.00247472,0.0179839,0.00557519,0.0194045,-0.00389537,1.32129,0.0144114,0.0306883,1413,372,4.99495,42.029
196,652,4.96692,-41.7132,0,0,0,0,0,0,0,-1,1420,372,4.96689,41.7132
203,652,4.8656,-41.367,0,0,0,0,0,0,0,-1,1427,372,4.86556,41.367
210,652,4.91858,-40.9328,0,0,0,0,0,0,0,-1,1434,372,4.91858,40.9328
217,652,4.80688,-40.6632,0,0,0,0,0,0,0,-1,1441,372,4.80691,40.6632
224,652,3.63794,-31.2791,0,0,0,0,0,0,0,-1,1448,372,3.63799,31.2791
231,652,3.83936,-30.4812,0,0,0,0,0,0,0,-1,1455,372,3.8393,30.4812
238,652,4.42358,-36.4103,0,0,0,0,0,0,0,-1,1462,372,4.4236,36.4103
245,652,4.39355,-39.1892,0,0,0,0,0,0,0,-1,1469,372,4.39351,39.1892
252,652,4.59814,-38.5891,0,0,0,0,0,0,0,-1,1476,372,4.59811,38.5891
259,652,3.44922,-31.2655,0,0,0,0,0,0,0,-1,1483,372,3.44921,31.2655
266,652,4.05664,-37.5899,0,0,0,0,0,0,0,-1,1490,372,4.0566,37.5899
273,652,4.45972,-37.2225,0.0155051,0.030918,0.0166087,0.041521,0.00490206,1.00262,0.0262,0.0461932,1497,372,4.45978,37.2225
280,652,4.56018,-36.6754,0.0176285,0.0342882,0.0187766,0.0464997,0.00541697,0.99417,0.0293612,0.0477,1504,372,4.56017,36.6755
287,652,4.68225,-36.5328,0,0,0,0,0,0,0,-1,1511,372,4.68222,36.5328
294,652,3.79028,-37.098,0,0,0,0,0,0,0,-1,1518,372,3.79024,37.098
301,652,5.02332,-39.2824,0,0,0,0,0,0,0,-1,1525,372,5.02336,39.2824
308,652,-3.18225,-22.5736,0,0,0,0,0,0,0,-1,1532,372,-3.1823,22.5736
315,652,-3.1134,-23.446,0,0,0,0,0,0,0,-1,1539,372,-3.11341,23.4459
322,652,-3.39624,-23.2068,0,0,0,0,0,0,0,-1,1546,372,-3.39618,23.2068
329,652,-3.54065,-22.8907,0,0,0,0,0,0,0,-1,1553,372,-3.54059,22.8907
336,652,-3.56519,-22.3688,0,0,0,0,0,0,0,-1,1560,372,-3.56517,22.3688
343,652,-3.58069,-21.9185,0,0,0,0,0,0,0,-1,1567,372,-3.58069,21.9185
350,652,5.28394,-25.6715,0,0,0,0,0,0,0,-1,1574,372,5.28393,25.6715
357,652,0,0,0,0,0,0,0,0,0,-1,1581,372,0,0
364,652,0,0,0,0,0,0,0,0,0,-1,1588,372,0,0
371,652,0,0,0,0,0,0,0,0,0,-1,1595,372,0,0
378,652,0,0,0,0,0,0,0,0,0,-1,1602,372,0,0
385,652,0,0,0,0,0,0,0,0,0,-1,1609,372,0,0
392,652,0,0,0,0,0,0,0,0,0,-1,1616,372,0,0
399,652,0,0,0,0,0,0,0,0,0,-1,1623,372,0,0
406,652,0,0,0,0,0,0,0,0,0,-1,1630,372,0,0
413,652,0,0,0,0,0,0,0,0,0,-1,1637,372,0,0
420,652,0,0,0,0,0,0,0,0,0,-1,1644,372,0,0
427,652,0,0,0,0,0,0,0,0,0,-1,1651,372,0,0
434,652,0,0,0,0,0,0,0,0,0,-1,1658,372,0,0
441,652,0,0,0,0,0,0,0,0,0,-1,1665,372,0,0
448,652,0,0,0,0,0,0,0,0,0,-1,1672,372,0,0
455,652,0,0,0,0,0,0,0,0,0,-1,1679,372,0,0
462,652,0,0,0,0,0,0,0,0,0,-1,1686,372,0,0
469,652,0,0,0,0,0,0,0,0,0,-1,1693,372,0,0
476,652,0,0,0,0,0,0,0,0,0,-1,1700,372,0,0
483,652,0,0,0,0,0,0,0,0,0,-1,1707,372,0,0
490,652,0,0,0,0,0,0,0,0,0,-1,1714,372,0,0
497,652,0,0,0,0,0,0,0,0,0,-1,1721,372,0,0
504,652,0,0,0,0,0,0,0,0,0,-1,1728,372,0,0
511,652,0,0,0,0,0,0,0,0,0,-1,1735,372,0,0
518,652,0,0,0,0,0,0,0,0,0,-1,1742,372,0,0
525,652,0,0,0,0,0,0,0,0,0,-1,1749,372,0,0
532,652,0,0,0,0,0,0,0,0,0,-1,1756,372,0,0
539,652,0,0,0,0,0,0,0,0,0,-1,1763,372,0,0
546,652,0,0,0,0,0,0,0,0,0,-1,1770,372,0,0
553,652,0,0,0,0,0,0,0,0,0,-1,1777,372,0,0
560,652,0,0,0,0,0,0,0,0,0,-1,1784,372,0,0
567,652,0,0,0,0,0,0,0,0,0,-1,1791,372,0,0
574,652,0,0,0,0,0,0,0,0,0,-1,1798,372,0,0
581,652,0,0,0,0,0,0,0,0,0,-1,1805,372,0,0
588,652,0,0,0,0,0,0,0,0,0,-1,1812,372,0,0
595,652,0,0,0,0,0,0,0,0,0,-1,1819,372,0,0
602,652,0,0,0,0,0,0,0,0,0,-1,1826,372,0,0
609,652,0,0,0,0,0,0,0,0,0,-1,1833,372,0,0
616,652,0,0,0,0,0,0,0,0,0,-1,1840,372,0,0
623,652,0,0,0,0,0,0,0,0,0,-1,1847,372,0,0
630,652,0,0,0,0,0,0,0,0,0,-1,1854,372,0,0
637,652,0,0,0,0,0,0,0,0,0,-1,1861,372,0,0
644,652,0,0,0,0,0,0,0,0,0,-1,1868,372,0,0
651,652,0,0,0,0,0,0,0,0,0,-1,1875,372,0,0
658,652,0,0,0,0,0,0,0,0,0,-1,1882,372,0,0
665,652,0,0,0,0,0,0,0,0,0,-1,1889,372,0,0
672,652,0,0,0,0,0,0,0,0,0,-1,1896,372,0,0
679,652,0,0,0,0,0,0,0,0,0,-1,1903,372,0,0
686,652,0,0,0,0,0,0,0,0,0,-1,1910,372,0,0
693,652,0,0,0,0,0,0,0,0,0,-1,1917,372,0,0
700,652,0,0,0,0,0,0,0,0,0,-1,1924,372,0,0
707,652,0,0,0,0,0,0,0,0,0,-1,1931,372,0,0
714,652,0,0,0,0,0,0,0,0,0,-1,1938,372,0,0
721,652,0,0,0,0,0,0,0,0,0,-1,1945,372,0,0
728,652,0,0,0,0,0,0,0,0,0,-1,1952,372,0,0
735,652,0,0,0,0,0,0,0,0,0,-1,1959,372,0,0
742,652,0,0,0,0,0,0,0,0,0,-1,1966,372,0,0
749,652,0,0,0,0,0,0,0,0,0,-1,1973,372,0,0
756,652,0,0,0,0,0,0,0,0,0,-1,1980,372,0,0
763,652,0,0,0,0,0,0,0,0,0,-1,1987,372,0,0
770,652,0,0,0,0,0,0,0,0,0,-1,1994,372,0,0
777,652,0,0,0,0,0,0,0,0,0,-1,2001,372,0,0
784,652,0,0,0,0,0,0,0,0,0,-1,2008,372,0,0
791,652,0,0,0,0,0,0,0,0,0,-1,2015,372,0,0
798,652,0,0,0,0,0,0,0,0,0,-1,2022,372,0,0
805,652,0,0,0,0,0,0,0,0,0,-1,2029,372,0,0
812,652,0,0,0,0,0,0,0,0,0,-1,2036,372,0,0
-700,645,0,0,0,0,0,0,0,0,0,-1,524,379,0,0
-693,645,0,0,0,0,0,0,0,0,0,-1,531,379,0,0
-686,645,0,0,0,0,0,0,0,0,0,-1,538,379,0,0
-679,645,0,0,0,0,0,0,0,0,0,-1,545,379,0,0
-672,645,0,0,0,0,0,0,0,0,0,-1,552,379,0,0
-665,645,0,0,0,0,0,0,0,0,0,-1,559,379,0,0
-658,645,0,0,0,0,0,0,0,0,0,-1,566,379,0,0
-651,645,0,0,0,0,0,0,0,0,0,-1,573,379,0,0
-644,645,0,0,0,0,0,0,0,0,0,-1,580,379,0,0
-637,645,0,0,0,0,0,0,0,0,0,-1,587,379,0,0
-630,645,0,0,0,0,0,0,0,0,0,-1,594,379,0,0
-623,645,0,0,0,0,0,0,0,0,0,-1,601,379,0,0
-616,645,0,0,0,0,0,0,0,0,0,-1,608,379,0,0
-609,645,0,0,0,0,0,0,0,0,0,-1,615,379,0,0
-602,645,0,0,0,0,0,0,0,0,0,-1,622,379,0,0
-595,645,0,0,0,0,0,0,0,0,0,-1,629,379,0,0
-588,645,0,0,0,0,0,0,0,0,0,-1,636,379,0,0
-581,645,0,0,0,0,0,0,0,0,0,-1,643,379,0,0
-574,645,0,0,0,0,0,0,0,0,0,-1,650,379,0,0
-567,645,0,0,0,0,0,0,0,0,0,-1,657,379,0,0
-560,645,0,0,0,0,0,0,0,0,0,-1,664,379,0,0
-553,645,0,0,0,0,0,0,0,0,0,-1,671,379,0,0
-546,645,0,0,0,0,0,0,0,0,0,-1,678,379,0,0
-539,645,0,0,0,0,0,0,0,0,0,-1,685,379,0,0
-532,645,0,0,0,0,0,0,0,0,0,-1,692,379,0,0
-525,645,0,0,0,0,0,0,0,0,0,-1,699,379,0,0
-518,645,0,0,0,0,0,0,0,0,0,-1,706,379,0,0
-511,645,0,0,0,0,0,0,0,0,0,-1,713,379,0,0
-504,645,0,0,0,0,0,0,0,0,0,-1,720,379,0,0
-497,645,0,0,0,0,0,0,0,0,0,-1,727,379,0,0
-490,645,0,0,0,0,0,0,0,0,0,-1,734,379,0,0
-483,645,0,0,0,0,0,0,0,0,0,-1,741,379,0,0
-476,645,0,0,0,0,0,0,0,0,0,-1,748,379,0,0
-469,645,0,0,0,0,0,0,0,0,0,-1,755,379,0,0
-462,645,0,0,0,0,0,0,0,0,0,-1,762,379,0,0
-455,645,0,0,0,0,0,0,0,0,0,-1,769,379,0,0
-448,645,0,0,0,0,0,0,0,0,0,-1,776,379,0,0
-441,645,0,0,0,0,0,0,0,0,0,-1,783,379,0,0
-434,645,0,0,0,0,0,0,0,0,0,-1,790,379,0,0
-427,645,0,0,0,0,0,0,0,0,0,-1,797,379,0,0
-420,645,0,0,0,0,0,0,0,0,0,-1,804,379,0,0
-413,645,0,0,0,0,0,0,0,0,0,-1,811,379,0,0
-406,645,0,0,0,0,0,0,0,0,0,-1,818,379,0,0
-399,645,0,0,0,0,0,0,0,0,0,-1,825,379,0,0
-392,645,0,0,0,0,0,0,0,0,0,-1,832,379,0,0
-385,645,0,0,0,0,0,0,0,0,0,-1,839,379,0,0
-378,645,0,0,0,0,0,0,0,0,0,-1,846,379,0,0
-371,645,0,0,0,0,0,0,0,0,0,-1,853,379,0,0
-364,645,0,0,0,0,0,0,0,0,0,-1,860,379,0,0
-357,645,0,0,0,0,0,0,0,0,0,-1,867,379,0,0
-350,645,0,0,0,0,0,0,0,0,0,-1,874,379,0,0
-343,645,0,0,0,0,0,0,0,0,0,-1,881,379,0,0
-336,645,0,0,0,0,0,0,0,0,0,-1,888,379,0,0
-329,645,0,0,0,0,0,0,0,0,0,-1,895,379,0,0
-322,645,0,0,0,0,0,0,0,0,0,-1,902,379,0,0
-315,645,0,0,0,0,0,0,0,0,0,-1,909,379,0,0
-308,645,0,0,0,0,0,0,0,0,0,-1,916,379,0,0
-301,645,0,0,0,0,0,0,0,0,0,-1,923,379,0,0
-294,645,0,0,0,0,0,0,0,0,0,-1,930,379,0,0
-287,645,0,0,0,0,0,0,0,0,0,-1,937,379,0,0
-280,645,0,0,0,0,0,0,0,0,0,-1,944,379,0,0
-273,645,0,0,0,0,0,0,0,0,0,-1,951,379,0,0
-266,645,0,0,0,0,0,0,0,0,0,-1,958,379,0,0
-259,645,0,0,0,0,0,0,0,0,0,-1,965,379,0,0
-252,645,2.95691,-26.9133,0,0,0,0,0,0,0,-1,972,379,2.9569,26.9133
-245,645,2.73169,-27.0215,0,0,0,0,0,0,0,-1,979,379,2.73172,27.0215
-238,645,2.6665,-26.9464,0,0,0,0,0,0,0,-1,986,379,2.66649,26.9464
-231,645,7.26807,-29.1054,0,0,0,0,0,0,0,-1,993,379,7.26806,29.1054
-224,645,7.69073,-29.5737,0,0,0,0,0,0,0,-1,1000,379,7.69071,29.5737
-217,645,8.65485,-33.4136,0,0,0,0,0,0,0,-1,1007,379,8.65487,33.4136
-210,645,9.21594,-32.5157,0,0,0,0,0,0,0,-1,1014,379,9.21591,32.5156
-203,645,9.77698,-31.6176,0,0,0,0,0,0,0,-1,1021,379,9.77696,31.6177
-196,645,10.2664,-29.7741,0,0,0,0,0,0,0,-1,1028,379,10.2664,29.7741
-189,645,5.88062,-28.2191,0,0,0,0,0,0,0,-1,1035,379,5.88062,28.2191
-182,645,6.34167,-29.2525,0,0,0,0,0,0,0,-1,1042,379,6.3417,29.2525
-175,645,6.36462,-35.5586,0,0,0,0,0,0,0,-1,1049,379,6.3646,35.5586
-168,645,6.90625,-36.9944,0,0,0,0,0,0,0,-1,1056,379,6.90623,36.9944
-161,645,6.83044,-36.9563,0,0,0,0,0,0,0,-1,1063,379,6.83048,36.9563
-154,645,6.8009,-37.3182,0,0,0,0,0,0,0,-1,1070,379,6.80086,37.3182
-147,645,6.73914,-37.6818,0,0,0,0,0,0,0,-1,1077,379,6.73917,37.6818
-140,645,6.48962,-38.0493,0,0,0,0,0,0,0,-1,1084,379,6.48957,38.0493
-133,645,6.52344,-38.7495,0,0,0,0,0,0,0,-1,1091,379,6.52341,38.7495
-126,645,6.54431,-39.137,0,0,0,0,0,0,0,-1,1098,379,6.54428,39.137
-119,645,6.40002,-39.4785,-0.00644967,0.0166737,-0.00435998,0.0174685,-0.00724444,-1.39049,0.0146694,0.0272244,1105,379,6.40005,39.4785
-112,645,6.31116,-39.8636,-0.0061683,0.0154692,-0.00367223,0.0160754,-0.00677455,-1.40718,0.0135518,0.0207382,1112,379,6.31111,39.8636
-105,645,6.30408,-40.1436,-0.00598906,0.0142593,-0.00309173,0.0147209,-0.00645061,-1.4226,0.0125304,0.046222,1119,379,6.30414,40.1436
-98,645,6.2179,-40.7464,0,0,0,0,0,0,0,-1,1126,379,6.21795,40.7464
-91,645,6.12097,-41.1089,0,0,0,0,0,0,0,-1,1133,379,6.12098,41.1089
-84,645,6.12585,-41.464,0,0,0,0,0,0,0,-1,1140,379,6.12582,41.464
-77,645,6.18176,-41.7797,-0.00545916,0.00723237,-0.00109782,0.00732663,-0.00555342,-1.48514,0.00745976,0.0409809,1147,379,6.18182,41.7797
-70,645,6.09192,-42.0581,-0.00546916,0.00680002,-0.00107805,0.00689403,-0.00556317,-1.48382,0.00720583,0.0152546,1154,379,6.09196,42.0581
-63,645,6.05798,-42.3279,-0.00380115,0.00708627,-0.0018899,0.00740499,-0.00411988,-1.40372,0.00674339,0.0117169,1161,379,6.05798,42.3279
-56,645,6.02271,-42.5653,-0.00240099,0.00798093,-0.00206137,0.00837525,-0.00279531,-1.38179,0.00671217,0.0132274,1168,379,6.02267,42.5653
-49,645,5.99939,-42.835,-0.000787702,0.00859784,-0.00180197,0.00893192,-0.00112178,-1.38748,0.00636159,0.0115827,1175,379,5.99939,42.835
-42,645,5.9646,-43.0867,0.00030294,0.00923035,-0.00157279,0.00949934,3.39588e-05,-1.40141,0.0063216,0.0109535,1182,379,5.96466,43.0867
-35,645,5.9292,-43.3448,0.000879031,0.00928732,-0.00176317,0.00964208,0.000524272,-1.37224,0.00626062,0.0103677,1189,379,5.92921,43.3448
-28,645,5.87292,-43.5915,0.00117404,0.0095284,-0.00183598,0.00991407,0.000788359,-1.36374,0.0063629,0.00851158,1196,379,5.87298,43.5915
-21,645,5.8313,-43.7903,0.00145162,0.00964583,-0.00154328,0.00992685,0.0011706,-1.39068,0.00626426,0.0100637,1203,379,5.83132,43.7902
-14,645,5.82959,-43.9746,0.00162026,0.00950747,-0.00120276,0.00968681,0.00144092,-1.42278,0.00603518,0.0103904,1210,379,5.82957,43.9746
-7,645,5.83337,-44.1607,0.00165098,0.00929517,-0.000988397,0.0094209,0.00152525,-1.44427,0.00583897,0.0143485,1217,379,5.83334,44.1607
0,645,5.83167,-44.2837,0.00157281,0.00898412,-0.000773367,0.00906396,0.00149297,-1.46792,0.00561158,0.0276231,1224,379,5.83166,44.2837
7,645,5.77234,-44.3861,0.00137704,0.00898755,-0.000511626,0.00902179,0.0013428,-1.50397,0.00562065,0.017631,1231,379,5.77238,44.3861
14,645,5.74841,-44.4526,0.000964556,0.00912588,-0.000199369,0.00913075,0.000959688,-1.54639,0.00579383,0.0163353,1238,379,5.74839,44.4526
21,645,5.71338,-44.5956,0.00051096,0.00941468,9.75624e-05,0.00941575,0.000509891,1.55984,0.00611429,0.0119582,1245,379,5.71337,44.5956
28,645,5.71155,-44.7039,0.000206476,0.00971635,0.000299635,0.00972578,0.000197045,1.53933,0.00641918,0.0105191,1252,379,5.71156,44.7039
35,645,5.68726,-44.7502,-6.25403e-05,0.0100503,0.000432211,0.0100688,-8.09785e-05,1.52816,0.00673966,0.00961395,1259,379,5.68726,44.7503
42,645,5.67029,-44.825,-0.000442271,0.0103871,0.000776519,0.0104425,-0.000497668,1.49958,0.00713336,0.0099614,1266,379,5.67024,44.825
49,645,5.6958,-44.8873,-0.000748329,0.0107454,0.000906024,0.0108164,-0.000819311,1.49261,0.00749895,0.013083,1273,379,5.69577,44.8873
56,645,5.69275,-44.8661,-0.00103407,0.011231,0.000948745,0.0113039,-0.00110703,1.49405,0.00793076,0.0132358,1280,379,5.69271,44.8661
63,645,5.64539,-44.8784,-0.00113934,0.0116103,0.0009495,0.0116806,-0.00120967,1.49687,0.00822002,0.0135669,1287,379,5.64535,44.8784
70,645,5.58093,-44.8768,-0.00126,0.0117566,0.0011581,0.0118588,-0.00136223,1.48275,0.00839686,0.0167837,1294,379,5.58089,44.8768
77,645,5.53711,-44.8525,-0.00139774,0.0117978,0.00131009,0.0119266,-0.00152655,1.47279,0.0085057,0.0189433,1301,379,5.53708,44.8525
84,645,5.59192,-44.8071,-0.00156476,0.0117347,0.00114704,0.0118329,-0.00166297,1.48539,0.00849736,0.0144225,1308,379,5.59192,44.8071
91,645,5.55334,-44.7897,-0.00187214,0.0117249,0.000983726,0.0117957,-0.00194295,1.49895,0.00858503,0.0164448,1315,379,5.55339,44.7897
98,645,5.55737,-44.6612,-0.00212706,0.0117753,0.00103149,0.0118514,-0.00220317,1.49714,0.00872851,0.0149328,1322,379,5.55732,44.6612
105,645,5.54797,-44.5262,-0.00208466,0.0119766,0.00116739,0.0120728,-0.00218092,1.48852,0.00886539,0.0113649,1329,379,5.54792,44.5262
112,645,5.5105,-44.4179,-0.00211077,0.0121028,0.00116385,0.0121975,-0.00220544,1.48963,0.00895778,0.00947094,1336,379,5.51051,44.4179
119,645,5.4856,-44.2779,-0.00197642,0.0122338,0.00112917,0.012323,-0.00206559,1.49199,0.00898335,0.00932624,1343,379,5.4856,44.2779
126,645,5.44348,-44.126,-0.00180695,0.0126187,0.00111457,0.0127043,-0.00189255,1.49414,0.00916574,0.0116976,1350,379,5.44346,44.126
133,645,5.42603,-43.9634,-0.00171251,0.0132477,0.00120459,0.013344,-0.00180888,1.49096,0.00955622,0.0129544,1357,379,5.42609,43.9634
140,645,5.422,-43.8071,-0.00147609,0.013897,0.00138105,0.0140201,-0.00159918,1.48191,0.00992285,0.0125965,1364,379,5.42202,43.8071
147,645,5.38818,-43.6301,-0.00126402,0.0145604,0.00144088,0.0146905,-0.00139414,1.48073,0.0102899,0.0136387,1371,379,5.38814,43.6301
154,645,5.37805,-43.398,-0.0010239,0.0149885,0.00169381,0.0151657,-0.00120112,1.46655,0.0105337,0.0130237,1378,379,5.37806,43.398
161,645,5.34985,-43.1527,-0.000851284,0.0151648,0.00200824,0.0154128,-0.00109926,1.44794,0.0106605,0.0158445,1385,379,5.34985,43.1527
168,645,5.32104,-42.9187,-0.000881553,0.01521,0.00242637,0.0155679,-0.00123945,1.42435,0.0108155,0.0171934,1392,379,5.32099,42.9187
175,645,5.30847,-42.6525,-0.000998299,0.0153123,0.00281078,0.0157831,-0.00146909,1.40484,0.0110444,0.0147151,1399,379,5.30848,42.6525
182,645,5.25781,-42.3714,-0.00112676,0.015114,0.00320561,0.0157238,-0.00173659,1.38281,0.0111067,0.0115019,1406,379,5.25778,42.3714
189,645,5.23328,-42.0616,-0.00134269,0.014546,0.00368575,0.0153593,-0.00215605,1.3536,0.0110287,0.0124037,1413,379,5.23333,42.0617
196,645,5.17786,-41.7605,-0.00137596,0.013473,0.00423155,0.0145942,-0.00249718,1.31178,0.0106598,0.0122448,1420,379,5.1778,41.7605
203,645,5.11182,-41.4178,-0.00160001,0.0122796,0.00476638,0.0137587,-0.00307919,1.26988,0.0103527,0.0118693,1427,379,5.11185,41.4178
210,645,5.13635,-41.0007,-0.0027272,0.0109784,0.0047751,0.012478,-0.00422679,1.26651,0.010029,0.0218353,1434,379,5.1363,41.0007
217,645,5.12378,-40.7311,-0.00211326,0.0112024,0.00477812,0.0127395,-0.00365038,1.25955,0.00993589,0.0484344,1441,379,5.12379,40.7311
224,645,4.90186,-40.5769,0,0,0,0,0,0,0,-1,1448,379,4.9018,40.5769
231,645,4.91077,-39.9466,0,0,0,0,0,0,0,-1,1455,379,4.91078,39.9466
238,645,4.79504,-39.5094,0,0,0,0,0,0,0,-1,1462,379,4.79506,39.5094
245,645,4.8551,-39.1964,0.00399007,0.0168442,0.00815869,0.0208033,3.10214e-05,1.11901,0.0138585,0.0344224,1469,379,4.85504,39.1964
252,645,4.90808,-38.6068,0.00567039,0.0184938,0.00916659,0.0232685,0.000895652,1.09058,0.0152226,0.0370346,1476,379,4.90806,38.6068
259,645,4.78711,-38.2716,0,0,0,0,0,0,0,-1,1483,379,4.78712,38.2716
266,645,4.57605,-37.7461,0.0090843,0.0225857,0.0119026,0.0295187,0.00215132,1.04336,0.0190026,0.041467,1490,379,4.5761,37.7461
273,645,4.7428,-37.3376,0.0106585,0.0250798,0.0135094,0.0331825,0.0025558,1.03054,0.0213208,0.0256002,1497,379,4.7428,37.3376
280,645,4.86365,-36.946,0.0121486,0.0277663,0.0152362,0.0370782,0.0028367,1.0222,0.0238296,0.0443817,1504,379,4.86365,36.946
287,645,5.02527,-36.5227,0,0,0,0,0,0,0,-1,1511,379,5.02524,36.5227
294,645,4.25464,-35.5385,0,0,0,0,0,0,0,-1,1518,379,4.25469,35.5385
301,645,-0.0267334,-21.0521,0,0,0,0,0,0,0,-1,1525,379,-0.0267066,21.0521
308,645,-0.351807,-21.8966,0,0,0,0,0,0,0,-1,1532,379,-0.351807,21.8966
315,645,-0.00427246,-22.7372,0,0,0,0,0,0,0,-1,1539,379,-0.00424457,22.7372
322,645,0.717163,-22.771,0,0,0,0,0,0,0,-1,1546,379,0.717186,22.771
329,645,3.37659,-32.6284,0,0,0,0,0,0,0,-1,1553,379,3.37655,32.6284
336,645,3.36401,-31.6129,0,0,0,0,0,0,0,-1,1560,379,3.36405,31.6129
343,645,4.77185,-23.7191,0,0,0,0,0,0,0,-1,1567,379,4.77184,23.7191
350,645,4.76404,-22.1987,0,0,0,0,0,0,0,-1,1574,379,4.76399,22.1987
357,645,4.61316,-21.967,0,0,0,0,0,0,0,-1,1581,379,4.61316,21.967
364,645,-0.0794678,-3.22021,0,0,0,0,0,0,0,-1,1588,379,-0.0794987,3.22021
371,645,0,0,0,0,0,0,0,0,0,-1,1595,379,0,0
378,645,0,0,0,0,0,0,0,0,0,-1,1602,379,0,0
385,645,0,0,0,0,0,0,0,0,0,-1,1609,379,0,0
392,645,0,0,0,0,0,0,0,0,0,-1,1616,379,0,0
399,645,0,0,0,0,0,0,0,0,0,-1,1623,379,0,0
406,645,0,0,0,0,0,0,0,0,0,-1,1630,379,0,0
413,645,0,0,0,0,0,0,0,0,0,-1,1637,379,0,0
420,645,0,0,0,0,0,0,0,0,0,-1,1644,379,0,0
427,645,0,0,0,0,0,0,0,0,0,-1,1651,379,0,0
434,645,0,0,0,0,0,0,0,0,0,-1,1658,379,0,0
441,645,0,0,0,0,0,0,0,0,0,-1,1665,379,0,0
448,645,0,0,0,0,0,0,0,0,0,-1,1672,379,0,0
455,645,0,0,0,0,0,0,0,0,0,-1,1679,379,0,0
462,645,0,0,0,0,0,0,0,0,0,-1,1686,379,0,0
469,645,0,0,0,0,0,0,0,0,0,-1,1693,379,0,0
476,645,0,0,0,0,0,0,0,0,0,-1,1700,379,0,0
483,645,0,0,0,0,0,0,0,0,0,-1,1707,379,0,0
490,645,0,0,0,0,0,0,0,0,0,-1,1714,379,0,0
497,645,0,0,0,0,0,0,0,0,0,-1,1721,379,0,0
504,645,0,0,0,0,0,0,0,0,0,-1,1728,379,0,0
511,645,0,0,0,0,0,0,0,0,0,-1,1735,379,0,0
518,645,0,0,0,0,0,0,0,0,0,-1,1742,379,0,0
525,645,0,0,0,0,0,0,0,0,0,-1,1749,379,0,0
532,645,0,0,0,0,0,0,0,0,0,-1,1756,379,0,0
539,645,0,0,0,0,0,0,0,0,0,-1,1763,379,0,0
546,645,0,0,0,0,0,0,0,0,0,-1,1770,379,0,0
553,645,0,0,0,0,0,0,0,0,0,-1,1777,379,0,0
560,645,0,0,0,0,0,0,0,0,0,-1,1784,379,0,0
567,645,0,0,0,0,0,0,0,0,0,-1,1791,379,0,0
574,645,0,0,0,0,0,0,0,0,0,-1,1798,379,0,0
581,645,0,0,0,0,0,0,0,0,0,-1,1805,379,0,0
588,645,0,0,0,0,0,0,0,0,0,-1,1812,379,0,0
595,645,0,0,0,0,0,0,0,0,0,-1,1819,379,0,0
602,645,0,0,0,0,0,0,0,0,0,-1,1826,379,0,0
609,645,0,0,0,0,0,0,0,0,0,-1,1833,379,0,0
616,645,0,0,0,0,0,0,0,0,0,-1,1840,379,0,0
623,645,0,0,0,0,0,0,0,0,0,-1,1847,379,0,0
630,645,0,0,0,0,0,0,0,0,0,-1,1854,379,0,0
637,645,0,0,0,0,0,0,0,0,0,-1,1861,379,0,0
644,645,0,0,0,0,0,0,0,0,0,-1,1868,379,0,0
651,645,0,0,0,0,0,0,0,0,0,-1,1875,379,0,0
658,645,0,0,0,0,0,0,0,0,0,-1,1882,379,0,0
665,645,0,0,0,0,0,0,0,0,0,-1,1889,379,0,0
672,645,0,0,0,0,0,0,0,0,0,-1,1896,379,0,0
679,645,0,0,0,0,0,0,0,0,0,-1,1903,379,0,0
686,645,0,0,0,0,0,0,0,0,0,-1,1910,379,0,0
693,645,0,0,0,0,0,0,0,0,0,-1,1917,379,0,0
700,645,0,0,0,0,0,0,0,0,0,-1,1924,379,0,0
707,645,0,0,0,0,0,0,0,0,0,-1,1931,379,0,0
714,645,0,0,0,0,0,0,0,0,0,-1,1938,379,0,0
721,645,0,0,0,0,0,0,0,0,0,-1,1945,379,0,0
728,645,0,0,0,0,0,0,0,0,0,-1,1952,379,0,0
735,645,0,0,0,0,0,0,0,0,0,-1,1959,379,0,0
742,645,0,0,0,0,0,0,0,0,0,-1,1966,379,0,0
749,645,0,0,0,0,0,0,0,0,0,-1,1973,379,0,0
756,645,0,0,0,0,0,0,0,0,0,-1,1980,379,0,0
763,645,0,0,0,0,0,0,0,0,0,-1,1987,379,0,0
770,645,0,0,0,0,0,0,0,0,0,-1,1994,379,0,0
777,645,0,0,0,0,0,0,0,0,0,-1,2001,379,0,0
784,645,0,0,0,0,0,0,0,0,0,-1,2008,379,0,0
791,645,0,0,0,0,0,0,0,0,0,-1,2015,379,0,0
798,645,0,0,0,0,0,0,0,0,0,-1,2022,379,0,0
805,645,0,0,0,0,0,0,0,0,0,-1,2029,379,0,0
812,645,0,0,0,0,0,0,0,0,0,-1,2036,379,0,0
-700,638,0,0,0,0,0,0,0,0,0,-1,524,386,0,0
-693,638,0,0,0,0,0,0,0,0,0,-1,531,386,0,0
-686,638,0,0,0,0,0,0,0,0,0,-1,538,386,0,0
-679,638,0,0,0,0,0,0,0,0,0,-1,545,386,0,0
-672,638,0,0,0,0,0,0,0,0,0,-1,552,386,0,0
-665,638,0,0,0,0,0,0,0,0,0,-1,559,386,0,0
-658,638,0,0,0,0,0,0,0,0,0,-1,566,386,0,0
-651,638,0,0,0,0,0,0,0,0,0,-1,573,386,0,0
-644,638,0,0,0,0,0,0,0,0,0,-1,580,386,0,0
-637,638,0,0,0,0,0,0,0,0,0,-1,587,386,0,0
-630,638,0,0,0,0,0,0,0,0,0,-1,594,386,0,0
-623,638,0,0,0,0,0,0,0,0,0,-1,601,386,0,0
-616,638,0,0,0,0,0,0,0,0,0,-1,608,386,0,0
-609,638,0,0,0,0,0,0,0,0,0,-1,615,386,0,0
-602,638,0,0,0,0,0,0,0,0,0,-1,622,386,0,0
-595,638,0,0,0,0,0,0,0,0,0,-1,629,386,0,0
-588,638,0,0,0,0,0,0,0,0,0,-1,636,386,0,0
-581,638,0,0,0,0,0,0,0,0,0,-1,643,386,0,0
-574,638,0,0,0,0,0,0,0,0,0,-1,650,386,0,0
-567,638,0,0,0,0,0,0,0,0,0,-1,657,386,0,0
-560,638,0,0,0,0,0,0,0,0,0,-1,664,386,0,0
-553,638,0,0,0,0,0,0,0,0,0,-1,671,386,0,0
-546,638,0,0,0,0,0,0,0,0,0,-1,678,386,0,0
-539,638,0,0,0,0,0,0,0,0,0,-1,685,386,0,0
-532,638,0,0,0,0,0,0,0,0,0,-1,692,386,0,0
-525,638,0,0,0,0,0,0,0,0,0,-1,699,386,0,0
-518,638,0,0,0,0,0,0,0,0,0,-1,706,386,0,0
-511,638,0,0,0,0,0,0,0,0,0,-1,713,386,0,0
-504,638,0,0,0,0,0,0,0,0,0,-1,720,386,0,0
-497,638,0,0,0,0,0,0,0,0,0,-1,727,386,0,0
-490,638,0,0,0,0,0,0,0,0,0,-1,734,386,0,0
-483,638,0,0,0,0,0,0,0,0,0,-1,741,386,0,0
-476,638,0,0,0,0,0,0,0,0,0,-1,748,386,0,0
-469,638,0,0,0,0,0,0,0,0,0,-1,755,386,0,0
-462,638,0,0,0,0,0,0,0,0,0,-1,762,386,0,0
-455,638,0,0,0,0,0,0,0,0,0,-1,769,386,0,0
-448,638,0,0,0,0,0,0,0,0,0,-1,776,386,0,0
-441,638,0,0,0,0,0,0,0,0,0,-1,783,386,0,0
-434,638,0,0,0,0,0,0,0,0,0,-1,790,386,0,0
-427,638,0,0,0,0,0,0,0,0,0,-1,797,386,0,0
-420,638,0,0,0,0,0,0,0,0,0,-1,804,386,0,0
-413,638,0,0,0,0,0,0,0,0,0,-1,811,386,0,0
-406,638,0,0,0,0,0,0,0,0,0,-1,818,386,0,0
-399,638,0,0,0,0,0,0,0,0,0,-1,825,386,0,0
-392,638,0,0,0,0,0,0,0,0,0,-1,832,386,0,0
-385,638,0,0,0,0,0,0,0,0,0,-1,839,386,0,0
-378,638,0,0,0,0,0,0,0,0,0,-1,846,386,0,0
-371,638,0,0,0,0,0,0,0,0,0,-1,853,386,0,0
-364,638,0,0,0,0,0,0,0,0,0,-1,860,386,0,0
-357,638,0,0,0,0,0,0,0,0,0,-1,867,386,0,0
-350,638,0,0,0,0,0,0,0,0,0,-1,874,386,0,0
-343,638,0,0,0,0,0,0,0,0,0,-1,881,386,0,0
-336,638,0,0,0,0,0,0,0,0,0,-1,888,386,0,0
-329,638,0,0,0,0,0,0,0,0,0,-1,895,386,0,0
-322,638,0,0,0,0,0,0,0,0,0,-1,902,386,0,0
-315,638,0,0,0,0,0,0,0,0,0,-1,909,386,0,0
-308,638,0,0,0,0,0,0,0,0,0,-1,916,386,0,0
-301,638,0,0,0,0,0,0,0,0,0,-1,923,386,0,0
-294,638,0,0,0,0,0,0,0,0,0,-1,930,386,0,0
-287,638,0,0,0,0,0,0,0,0,0,-1,937,386,0,0
-280,638,0,0,0,0,0,0,0,0,0,-1,944,386,0,0
-273,638,0,0,0,0,0,0,0,0,0,-1,951,386,0,0
-266,638,7.44678,-36.2188,0,0,0,0,0,0,0,-1,958,386,7.44679,36.2188
-259,638,7.53906,-36.2733,0,0,0,0,0,0,0,-1,965,386,7.53904,36.2733
-252,638,10.8915,-29.4076,0,0,0,0,0,0,0,-1,972,386,10.8916,29.4076
-245,638,3.35309,-26.4681,0,0,0,0,0,0,0,-1,979,386,3.35311,26.4681
-238,638,2.93518,-26.3649,0,0,0,0,0,0,0,-1,986,386,2.93516,26.3649
-231,638,2.36829,-26.0088,0,0,0,0,0,0,0,-1,993,386,2.3683,26.0088
-224,638,6.3465,-30.9124,0,0,0,0,0,0,0,-1,1000,386,6.34648,30.9124
-217,638,7.41205,-32.7263,0,0,0,0,0,0,0,-1,1007,386,7.41204,32.7262
-210,638,8.7038,-34.5688,0,0,0,0,0,0,0,-1,1014,386,8.70378,34.5689
-203,638,4.32593,-27.5803,0,0,0,0,0,0,0,-1,1021,386,4.32594,27.5803
-196,638,6.0614,-28.4651,0,0,0,0,0,0,0,-1,1028,386,6.06143,28.4651
-189,638,11.4561,-30.1556,0,0,0,0,0,0,0,-1,1035,386,11.456,30.1556
-182,638,6.45471,-33.4271,0,0,0,0,0,0,0,-1,1042,386,6.45473,33.427
-175,638,6.36292,-36.0251,0,0,0,0,0,0,0,-1,1049,386,6.36287,36.0251
-168,638,6.36462,-36.7206,0,0,0,0,0,0,0,-1,1056,386,6.36467,36.7206
-161,638,6.48706,-37.1761,0,0,0,0,0,0,0,-1,1063,386,6.48707,37.1761
-154,638,6.30164,-37.5197,0,0,0,0,0,0,0,-1,1070,386,6.30158,37.5196
-147,638,6.21594,-38.0925,0,0,0,0,0,0,0,-1,1077,386,6.21597,38.0925
-140,638,6.20215,-38.222,-0.00532873,0.0154361,-0.00550187,0.0168038,-0.00669643,-1.32715,0.0139799,0.0340467,1084,386,6.20209,38.222
-133,638,6.15308,-38.8622,-0.00510704,0.0145259,-0.00483347,0.0156514,-0.00623249,-1.34203,0.0130189,0.0306787,1091,386,6.15305,38.8622
-126,638,6.11377,-39.2453,-0.0050714,0.013238,-0.0040409,0.0140902,-0.00592357,-1.36296,0.0118713,0.021432,1098,386,6.11372,39.2453
-119,638,6.05261,-39.6565,-0.00485995,0.0124183,-0.00349517,0.0130986,-0.00554019,-1.37857,0.0110521,0.0178315,1105,386,6.05264,39.6565
-112,638,6.01025,-40.0432,-0.00453425,0.0115104,-0.00297383,0.0120438,-0.0050677,-1.3933,0.0101493,0.0158955,1112,386,6.01019,40.0432
-105,638,6.00354,-40.4159,-0.00431004,0.0106157,-0.0025431,0.0110371,-0.00473144,-1.40658,0.00934345,0.0167145,1119,386,6.00348,40.4159
-98,638,5.94946,-40.7813,-0.00421011,0.00937984,-0.00210381,0.00969807,-0.00452834,-1.42067,0.00839245,0.0158687,1126,386,5.94951,40.7813
-91,638,5.8606,-41.1172,-0.00408305,0.00817727,-0.00171533,0.00841274,-0.00431852,-1.43438,0.00747602,0.0128961,1133,386,5.86064,41.1172
-84,638,5.83826,-41.455,-0.00383727,0.00648923,-0.0012839,0.00664646,-0.0039945,-1.44894,0.00620684,0.0148544,1140,386,5.83821,41.455
-77,638,5.81213,-41.7841,-0.00360813,0.00555417,-0.00104082,0.00567091,-0.00372488,-1.45909,0.00546331,0.0122475,1147,386,5.81208,41.7841
-70,638,5.7998,-42.0797,-0.00350157,0.00510549,-0.000969254,0.00521328,-0.00360937,-1.46003,0.00512174,0.0115087,1154,386,5.79976,42.0797
-63,638,5.78333,-42.364,-0.00256766,0.00499268,-0.0012985,0.00520948,-0.00278446,-1.40536,0.00468556,0.011881,1161,386,5.78328,42.364
-56,638,5.77966,-42.6277,-0.00174418,0.0052466,-0.00132936,0.00549086,-0.00198843,-1.38908,0.00447321,0.015237,1168,386,5.77962,42.6276
-49,638,5.75916,-42.8811,-0.0010044,0.00528984,-0.00122003,0.00551805,-0.0012326,-1.38588,0.00415102,0.0134936,1175,386,5.7592,42.8811
-42,638,5.72974,-43.141,-0.000474212,0.00547064,-0.0011385,0.00568121,-0.000684789,-1.3879,0.00403515,0.0123229,1182,386,5.72971,43.141
-35,638,5.71167,-43.3765,-4.14679e-05,0.0057311,-0.00102015,0.00590608,-0.000216449,-1.40092,0.00401148,0.0111877,1189,386,5.71169,43.3765
-28,638,5.69373,-43.5982,0.000338043,0.00579168,-0.000898527,0.0059359,0.000193818,-1.41164,0.00389427,0.0104735,1196,386,5.69377,43.5982
-21,638,5.64709,-43.7954,0.000708211,0.005735,-0.000672832,0.0058235,0.000619711,-1.44001,0.00369314,0.0114821,1203,386,5.6471,43.7954
-14,638,5.64148,-43.9991,0.00102961,0.00547411,-0.000373288,0.00550524,0.000998479,-1.48758,0.00338676,0.0116099,1210,386,5.64145,43.9991
-7,638,5.6698,-44.1813,0.00126619,0.00516719,-0.000151851,0.00517309,0.00126029,-1.53195,0.00311481,0.0184121,1217,386,5.66983,44.1813
0,638,5.69214,-44.2777,0.00140853,0.00479091,7.58697e-05,0.00479261,0.00140683,1.54838,0.00284456,0.0355758,1224,386,5.69211,44.2777
7,638,5.64136,-44.3948,0.00137873,0.00460897,0.000367988,0.00465036,0.00133734,1.45879,0.00276447,0.0253367,1231,386,5.64138,44.3948
14,638,5.60461,-44.506,0.00115933,0.00450181,0.0006941,0.00464021,0.00102092,1.37397,0.00281556,0.0130662,1238,386,5.60459,44.506
21,638,5.62158,-44.6305,0.000869005,0.00452365,0.000950793,0.00475621,0.000636445,1.33091,0.00298139,0.0116916,1245,386,5.62161,44.6305
28,638,5.63342,-44.7256,0.000632776,0.00461112,0.00112575,0.00490758,0.000336313,1.3133,0.00316558,0.00939947,1252,386,5.63337,44.7256
35,638,5.63538,-44.7727,0.000406406,0.00477658,0.00121634,0.00509231,9.06754e-05,1.31683,0.00336505,0.0110069,1259,386,5.63534,44.7727
42,638,5.65234,-44.8474,7.72901e-05,0.00497711,0.00142948,0.00536365,-0.000309255,1.3067,0.00368318,0.0106901,1266,386,5.65237,44.8474
49,638,5.66455,-44.8891,-0.000277331,0.00538373,0.00149499,0.00575427,-0.000647878,1.32783,0.00406937,0.00928041,1273,386,5.6646,44.8891
56,638,5.64307,-44.8796,-0.00059489,0.00605266,0.00149933,0.00637518,-0.000917412,1.35891,0.00458661,0.0121272,1280,386,5.64302,44.8796
63,638,5.62524,-44.8988,-0.00074882,0.00655373,0.00135747,0.0067979,-0.000992997,1.39282,0.00489661,0.0149225,1287,386,5.6253,44.8988
70,638,5.58069,-44.9133,-0.000911184,0.00696369,0.00129446,0.00717101,-0.00111851,1.41198,0.00519381,0.0195761,1294,386,5.58067,44.9133
77,638,5.58716,-44.8694,-0.000993012,0.00749226,0.00121457,0.00766269,-0.00116344,1.43139,0.00553717,0.0192825,1301,386,5.58717,44.8694
84,638,5.66614,-44.7961,-0.00097489,0.00788413,0.000936619,0.00798207,-0.00107283,1.46661,0.00571267,0.0140377,1308,386,5.66612,44.7961
91,638,5.6532,-44.7396,-0.00102688,0.00824725,0.000610529,0.00828727,-0.0010669,1.50534,0.00591265,0.0150477,1315,386,5.65326,44.7396
98,638,5.6261,-44.6591,-0.000988112,0.00848603,0.000476854,0.00850997,-0.00101205,1.52063,0.006039,0.0138155,1322,386,5.62614,44.6591
105,638,5.63843,-44.5572,-0.000714988,0.00872884,0.000401069,0.00874585,-0.00073199,1.52843,0.00608924,0.0106663,1329,386,5.63847,44.5572
112,638,5.63208,-44.4374,-0.000393677,0.0089223,0.000176399,0.00892564,-0.000397016,1.55187,0.00608708,0.0103891,1336,386,5.63206,44.4374
119,638,5.62292,-44.2984,-3.85587e-05,0.00907719,-2.46762e-05,0.00907726,-3.86257e-05,-1.56809,0.00606442,0.0119264,1343,386,5.62293,44.2984
126,638,5.60767,-44.1319,0.000249726,0.00935432,-0.000133004,0.00935626,0.000247783,-1.55619,0.00615658,0.0159221,1350,386,5.60771,44.1319
133,638,5.58887,-43.9601,0.000433096,0.00972238,-0.000158972,0.0097251,0.000430377,-1.55369,0.00634481,0.0165773,1357,386,5.58891,43.9601
140,638,5.57886,-43.8242,0.000603963,0.010071,-7.04843e-05,0.0100715,0.000603439,-1.56335,0.0065225,0.0174049,1364,386,5.57886,43.8242
147,638,5.56677,-43.6644,0.000732886,0.0104196,-1.65963e-05,0.0104196,0.000732857,-1.56908,0.00671546,0.0188268,1371,386,5.56675,43.6644
154,638,5.57263,-43.4418,0.000857987,0.0106316,0.000169015,0.0106345,0.000855064,1.55351,0.00682255,0.0168714,1378,386,5.57261,43.4418
161,638,5.58899,-43.1624,0.000880215,0.0107849,0.000448839,0.0108052,0.000859917,1.5256,0.00693463,0.0199978,1385,386,5.58901,43.1625
168,638,5.58105,-42.8797,0.000693538,0.0108992,0.000859391,0.0109711,0.000621676,1.48737,0.00711589,0.0248161,1392,386,5.58111,42.8797
175,638,5.56079,-42.6615,0.00038578,0.0108887,0.00127134,0.0110404,0.00023408,1.45203,0.0072835,0.0203674,1399,386,5.5608,42.6615
182,638,5.51196,-42.4023,4.15201e-05,0.0107041,0.00169705,0.0109677,-0.000222063,1.41671,0.00738695,0.0143576,1406,386,5.51201,42.4023
189,638,5.49646,-42.1111,-0.000390528,0.0102745,0.0022084,0.0107137,-0.000829733,1.37448,0.0074345,0.0125032,1413,386,5.49647,42.1111
196,638,5.44495,-41.8026,-0.000683537,0.00954036,0.00277186,0.0102435,-0.00138667,1.32237,0.00733504,0.0142848,1420,386,5.4449,41.8026
203,638,5.39038,-41.5033,-0.00106817,0.00889294,0.00331962,0.00989785,-0.00207308,1.27685,0.0073872,0.0202788,1427,386,5.39032,41.5033
210,638,5.38525,-41.1725,-0.00174578,0.00834407,0.00347744,0.00942645,-0.00282816,1.26904,0.00740918,0.0163289,1434,386,5.38524,41.1725
217,638,5.38025,-40.8028,-0.00138826,0.00869854,0.00357391,0.00983646,-0.00252618,1.26255,0.00754206,0.0126825,1441,386,5.38023,40.8028
224,638,5.34204,-40.4132,-0.000559769,0.00946658,0.00401285,0.0108748,-0.00196803,1.23329,0.00798714,0.0116838,1448,386,5.34201,40.4132
231,638,5.26929,-40.0206,0.000609338,0.0105048,0.00464939,0.0123465,-0.0012324,1.19363,0.00867106,0.0119211,1455,386,5.26924,40.0206
238,638,5.23926,-39.6492,0.00177436,0.0118753,0.00569949,0.01444,-0.000790382,1.14795,0.00990067,0.0127774,1462,386,5.23927,39.6492
245,638,5.2157,-39.2162,0.00272048,0.0131294,0.00644901,0.0162121,-0.000362162,1.1249,0.0109308,0.0152347,1469,386,5.21568,39.2161
252,638,5.24231,-38.7902,0.00387921,0.0145215,0.00729213,0.0182275,0.000173181,1.10059,0.0120944,0.0221965,1476,386,5.24232,38.7902
259,638,5.18823,-38.4179,0.00510519,0.0162212,0.00836691,0.0207079,0.000618473,1.07857,0.0136038,0.022822,1483,386,5.18819,38.4179
266,638,5.07654,-37.965,0.00627159,0.0180084,0.00961392,0.0234035,0.000876538,1.05942,0.0153185,0.0135584,1490,386,5.07656,37.965
273,638,5.06714,-37.5424,0.0073327,0.0200228,0.0109058,0.0262951,0.00106043,1.04886,0.0171875,0.0114228,1497,386,5.06712,37.5424
280,638,5.14441,-37.0168,0.00834594,0.0221578,0.0122783,0.0293391,0.0011647,1.04157,0.0191829,0.0245761,1504,386,5.14442,37.0168
287,638,5.42114,-36.2061,0.00930896,0.0245193,0.0137686,0.0326435,0.00118476,1.03772,0.0213783,0.0435079,1511,386,5.4211,36.206
294,638,4.92627,-35.8764,0,0,0,0,0,0,0,-1,1518,386,4.92632,35.8764
301,638,4.70959,-35.316,0,0,0,0,0,0,0,-1,1525,386,4.70961,35.316
308,638,5.29956,-34.4669,0,0,0,0,0,0,0,-1,1532,386,5.2996,34.4669
315,638,5.57202,-34.167,0,0,0,0,0,0,0,-1,1539,386,5.57206,34.167
322,638,3.68872,-32.7613,0,0,0,0,0,0,0,-1,1546,386,3.68878,32.7613
329,638,3.68176,-32.2479,0,0,0,0,0,0,0,-1,1553,386,3.6818,32.2479
336,638,3.91968,-31.5413,0,0,0,0,0,0,0,-1,1560,386,3.91968,31.5413
343,638,4.3252,-31.0667,0,0,0,0,0,0,0,-1,1567,386,4.3252,31.0667
350,638,5.91162,-19.0222,0,0,0,0,0,0,0,-1,1574,386,5.91165,19.0222
357,638,0.387329,-3.01077,0,0,0,0,0,0,0,-1,1581,386,0.387332,3.01077
364,638,3.78149,-6.45215,0,0,0,0,0,0,0,-1,1588,386,3.78155,6.45216
371,638,4.18604,-6.71164,0,0,0,0,0,0,0,-1,1595,386,4.18598,6.71164
378,638,4.59045,-6.97113,0,0,0,0,0,0,0,-1,1602,386,4.5904,6.97112
385,638,0,0,0,0,0,0,0,0,0,-1,1609,386,0,0
392,638,0,0,0,0,0,0,0,0,0,-1,1616,386,0,0
399,638,0,0,0,0,0,0,0,0,0,-1,1623,386,0,0
406,638,0,0,0,0,0,0,0,0,0,-1,1630,386,0,0
413,638,0,0,0,0,0,0,0,0,0,-1,1637,386,0,0
420,638,0,0,0,0,0,0,0,0,0,-1,1644,386,0,0
427,638,0,0,0,0,0,0,0,0,0,-1,1651,386,0,0
434,638,0,0,0,0,0,0,0,0,0,-1,1658,386,0,0
441,638,0,0,0,0,0,0,0,0,0,-1,1665,386,0,0
448,638,0,0,0,0,0,0,0,0,0,-1,1672,386,0,0
455,638,0,0,0,0,0,0,0,0,0,-1,1679,386,0,0
462,638,0,0,0,0,0,0,0,0,0,-1,1686,386,0,0
469,638,0,0,0,0,0,0,0,0,0,-1,1693,386,0,0
476,638,0,0,0,0,0,0,0,0,0,-1,1700,386,0,0
483,638,0,0,0,0,0,0,0,0,0,-1,1707,386,0,0
490,638,0,0,0,0,0,0,0,0,0,-1,1714,386,0,0
497,638,0,0,0,0,0,0,0,0,0,-1,1721,386,0,0
504,638,0,0,0,0,0,0,0,0,0,-1,1728,386,0,0
511,638,0,0,0,0,0,0,0,0,0,-1,1735,386,0,0
518,638,0,0,0,0,0,0,0,0,0,-1,1742,386,0,0
525,638,0,0,0,0,0,0,0,0,0,-1,1749,386,0,0
532,638,0,0,0,0,0,0,0,0,0,-1,1756,386,0,0
539,638,0,0,0,0,0,0,0,0,0,-1,1763,386,0,0
546,638,0,0,0,0,0,0,0,0,0,-1,1770,386,0,0
553,638,0,0,0,0,0,0,0,0,0,-1,1777,386,0,0
560,638,0,0,0,0,0,0,0,0,0,-1,1784,386,0,0
567,638,0,0,0,0,0,0,0,0,0,-1,1791,386,0,0
574,638,0,0,0,0,0,0,0,0,0,-1,1798,386,0,0
581,638,0,0,0,0,0,0,0,0,0,-1,1805,386,0,0
588,638,0,0,0,0,0,0,0,0,0,-1,1812,386,0,0
595,638,0,0,0,0,0,0,0,0,0,-1,1819,386,0,0
602,638,0,0,0,0,0,0,0,0,0,-1,1826,386,0,0
609,638,0,0,0,0,0,0,0,0,0,-1,1833,386,0,0
616,638,0,0,0,0,0,0,0,0,0,-1,1840,386,0,0
623,638,0,0,0,0,0,0,0,0,0,-1,1847,386,0,0
630,638,0,0,0,0,0,0,0,0,0,-1,1854,386,0,0
637,638,0,0,0,0,0,0,0,0,0,-1,1861,386,0,0
644,638,0,0,0,0,0,0,0,0,0,-1,1868,386,0,0
651,638,0,0,0,0,0,0,0,0,0,-1,1875,386,0,0
658,638,0,0,0,0,0,0,0,0,0,-1,1882,386,0,0
665,638,0,0,0,0,0,0,0,0,0,-1,1889,386,0,0
672,638,0,0,0,0,0,0,0,0,0,-1,1896,386,0,0
679,638,0,0,0,0,0,0,0,0,0,-1,1903,386,0,0
686,638,0,0,0,0,0,0,0,0,0,-1,1910,386,0,0
693,638,0,0,0,0,0,0,0,0,0,-1,1917,386,0,0
700,638,0,0,0,0,0,0,0,0,0,-1,1924,386,0,0
707,638,0,0,0,0,0,0,0,0,0,-1,1931,386,0,0
714,638,0,0,0,0,0,0,0,0,0,-1,1938,386,0,0
721,638,0,0,0,0,0,0,0,0,0,-1,1945,386,0,0
728,638,0,0,0,0,0,0,0,0,0,-1,1952,386,0,0
735,638,0,0,0,0,0,0,0,0,0,-1,1959,386,0,0
742,638,0,0,0,0,0,0,0,0,0,-1,1966,386,0,0
749,638,0,0,0,0,0,0,0,0,0,-1,1973,386,0,0
756,638,0,0,0,0,0,0,0,0,0,-1,1980,386,0,0
763,638,0,0,0,0,0,0,0,0,0,-1,1987,386,0,0
770,638,0,0,0,0,0,0,0,0,0,-1,1994,386,0,0
777,638,0,0,0,0,0,0,0,0,0,-1,2001,386,0,0
784,638,0,0,0,0,0,0,0,0,0,-1,2008,386,0,0
791,638,0,0,0,0,0,0,0,0,0,-1,2015,386,0,0
798,638,0,0,0,0,0,0,0,0,0,-1,2022,386,0,0
805,638,0,0,0,0,0,0,0,0,0,-1,2029,386,0,0
812,638,0,0,0,0,0,0,0,0,0,-1,2036,386,0,0
-700,631,0,0,0,0,0,0,0,0,0,-1,524,393,0,0
-693,631,0,0,0,0,0,0,0,0,0,-1,531,393,0,0
-686,631,0,0,0,0,0,0,0,0,0,-1,538,393,0,0
-679,631,0,0,0,0,0,0,0,0,0,-1,545,393,0,0
-672,631,0,0,0,0,0,0,0,0,0,-1,552,393,0,0
-665,631,0,0,0,0,0,0,0,0,0,-1,559,393,0,0
-658,631,0,0,0,0,0,0,0,0,0,-1,566,393,0,0
-651,631,0,0,0,0,0,0,0,0,0,-1,573,393,0,0
-644,631,0,0,0,0,0,0,0,0,0,-1,580,393,0,0
-637,631,0,0,0,0,0,0,0,0,0,-1,587,393,0,0
-630,631,0,0,0,0,0,0,0,0,0,-1,594,393,0,0
-623,631,0,0,0,0,0,0,0,0,0,-1,601,393,0,0
-616,631,0,0,0,0,0,0,0,0,0,-1,608,393,0,0
-609,631,0,0,0,0,0,0,0,0,0,-1,615,393,0,0
-602,631,0,0,0,0,0,0,0,0,0,-1,622,393,0,0
-595,631,0,0,0,0,0,0,0,0,0,-1,629,393,0,0
-588,631,0,0,0,0,0,0,0,0,0,-1,636,393,0,0
-581,631,0,0,0,0,0,0,0,0,0,-1,643,393,0,0
-574,631,0,0,0,0,0,0,0,0,0,-1,650,393,0,0
-567,631,0,0,0,0,0,0,0,0,0,-1,657,393,0,0
-560,631,0,0,0,0,0,0,0,0,0,-1,664,393,0,0
-553,631,0,0,0,0,0,0,0,0,0,-1,671,393,0,0
-546,631,0,0,0,0,0,0,0,0,0,-1,678,393,0,0
-539,631,0,0,0,0,0,0,0,0,0,-1,685,393,0,0
-532,631,0,0,0,0,0,0,0,0,0,-1,692,393,0,0
-525,631,0,0,0,0,0,0,0,0,0,-1,699,393,0,0
-518,631,0,0,0,0,0,0,0,0,0,-1,706,393,0,0
-511,631,0,0,0,0,0,0,0,0,0,-1,713,393,0,0
-504,631,0,0,0,0,0,0,0,0,0,-1,720,393,0,0
-497,631,0,0,0,0,0,0,0,0,0,-1,727,393,0,0
-490,631,0,0,0,0,0,0,0,0,0,-1,734,393,0,0
-483,631,0,0,0,0,0,0,0,0,0,-1,741,393,0,0
-476,631,0,0,0,0,0,0,0,0,0,-1,748,393,0,0
-469,631,0,0,0,0,0,0,0,0,0,-1,755,393,0,0
-462,631,0,0,0,0,0,0,0,0,0,-1,762,393,0,0
-455,631,0,0,0,0,0,0,0,0,0,-1,769,393,0,0
-448,631,0,0,0,0,0,0,0,0,0,-1,776,393,0,0
-441,631,0,0,0,0,0,0,0,0,0,-1,783,393,0,0
-434,631,0,0,0,0,0,0,0,0,0,-1,790,393,0,0
-427,631,0,0,0,0,0,0,0,0,0,-1,797,393,0,0
-420,631,0,0,0,0,0,0,0,0,0,-1,804,393,0,0
-413,631,0,0,0,0,0,0,0,0,0,-1,811,393,0,0
-406,631,0,0,0,0,0,0,0,0,0,-1,818,393,0,0
-399,631,0,0,0,0,0,0,0,0,0,-1,825,393,0,0
-392,631,0,0,0,0,0,0,0,0,0,-1,832,393,0,0
-385,631,0,0,0,0,0,0,0,0,0,-1,839,393,0,0
-378,631,0,0,0,0,0,0,0,0,0,-1,846,393,0,0
-371,631,0,0,0,0,0,0,0,0,0,-1,853,393,0,0
-364,631,0,0,0,0,0,0,0,0,0,-1,860,393,0,0
-357,631,0,0,0,0,0,0,0,0,0,-1,867,393,0,0
-350,631,0,0,0,0,0,0,0,0,0,-1,874,393,0,0
-343,631,0,0,0,0,0,0,0,0,0,-1,881,393,0,0
-336,631,0,0,0,0,0,0,0,0,0,-1,888,393,0,0
-329,631,0,0,0,0,0,0,0,0,0,-1,895,393,0,0
-322,631,0,0,0,0,0,0,0,0,0,-1,902,393,0,0
-315,631,0,0,0,0,0,0,0,0,0,-1,909,393,0,0
-308,631,0,0,0,0,0,0,0,0,0,-1,916,393,0,0
-301,631,0,0,0,0,0,0,0,0,0,-1,923,393,0,0
-294,631,0,0,0,0,0,0,0,0,0,-1,930,393,0,0
-287,631,0,0,0,0,0,0,0,0,0,-1,937,393,0,0
-280,631,8.24011,-35.1626,-0.0647328,-0.221924,0.0445149,-0.0530021,-0.233655,0.257665,0.141452,0.0452082,944,393,8.2401,35.1626
-273,631,7.17096,-34.8844,-0.0571831,-0.209455,0.042588,-0.0460813,-0.220557,0.255004,0.134338,0.0432592,951,393,7.17095,34.8844
-266,631,7.1272,-35.1649,-0.0508152,-0.193772,0.0399308,-0.0404179,-0.204169,0.254727,0.12484,0.0423486,958,393,7.12718,35.1649
-259,631,7.18658,-35.2574,0,0,0,0,0,0,0,-1,965,393,7.18656,35.2574
-252,631,6.58398,-33.2064,0,0,0,0,0,0,0,-1,972,393,6.58397,33.2064
-245,631,6.05621,-32.6085,0,0,0,0,0,0,0,-1,979,393,6.05623,32.6085
-238,631,3.82007,-31.4595,0,0,0,0,0,0,0,-1,986,393,3.82005,31.4595
-231,631,2.14966,-25.2306,0,0,0,0,0,0,0,-1,993,393,2.14968,25.2306
-224,631,6.83575,-19.7909,0,0,0,0,0,0,0,-1,1000,393,6.83575,19.7909
-217,631,5.05188,-18.3867,0,0,0,0,0,0,0,-1,1007,393,5.0519,18.3866
-210,631,3.37842,-26.3769,0,0,0,0,0,0,0,-1,1014,393,3.37839,26.3769
-203,631,5.05298,-26.4169,0,0,0,0,0,0,0,-1,1021,393,5.05302,26.4169
-196,631,6.37903,-32.8375,0,0,0,0,0,0,0,-1,1028,393,6.37901,32.8375
-189,631,6.27942,-33.0928,0,0,0,0,0,0,0,-1,1035,393,6.27939,33.0928
-182,631,6.12732,-34.9639,0,0,0,0,0,0,0,-1,1042,393,6.12726,34.9639
-175,631,6.24756,-36.0339,0,0,0,0,0,0,0,-1,1049,393,6.24754,36.0339
-168,631,6.02429,-36.6568,-0.00484352,0.0168421,-0.00720167,0.0190158,-0.00701726,-1.27765,0.0155533,0.025611,1056,393,6.02431,36.6568
-161,631,5.91907,-37.2028,-0.00457571,0.0155217,-0.00646421,0.0174213,-0.00647533,-1.28498,0.0142711,0.0147046,1063,393,5.91912,37.2028
-154,631,5.87671,-37.6682,-0.00425184,0.0144312,-0.00571316,0.0160398,-0.0058604,-1.29635,0.0130914,0.0142764,1070,393,5.87676,37.6682
-147,631,5.84253,-38.0811,-0.00402534,0.0132997,-0.00503692,0.0146576,-0.00538329,-1.30746,0.0119765,0.0137006,1077,393,5.8425,38.0811
-140,631,5.80835,-38.5037,-0.00376696,0.0122663,-0.00444769,0.0134174,-0.00491812,-1.31753,0.0109586,0.011286,1084,393,5.8084,38.5037
-133,631,5.76172,-38.9145,-0.00351471,0.0113626,-0.00390941,0.0123273,-0.00447946,-1.32886,0.0100498,0.00898347,1091,393,5.76176,38.9145
-126,631,5.73364,-39.3108,-0.00340967,0.0101907,-0.00328523,0.0109427,-0.00416165,-1.34578,0.00900869,0.0132032,1098,393,5.7336,39.3108
-119,631,5.70972,-39.693,-0.00315474,0.00944992,-0.00285138,0.0100649,-0.00376975,-1.35836,0.0082585,0.0158183,1105,393,5.70976,39.693
-112,631,5.68359,-40.0783,-0.00280922,0.00867725,-0.00244612,0.00917647,-0.00330844,-1.36947,0.00746885,0.0150617,1112,393,5.68362,40.0783
-105,631,5.70764,-40.4431,-0.00255614,0.00793585,-0.00212216,0.00834884,-0.00296912,-1.37859,0.00677602,0.020608,1119,393,5.70762,40.443
-98,631,5.63855,-40.8103,-0.00240521,0.00697246,-0.0018053,0.00730799,-0.00274074,-1.38703,0.00599806,0.0173629,1126,393,5.63855,40.8103
-91,631,5.59131,-41.131,-0.00223468,0.00603896,-0.00151304,0.00630698,-0.0025027,-1.39548,0.00524196,0.01867,1133,393,5.59136,41.131
-84,631,5.56042,-41.4657,-0.00198706,0.00477871,-0.00116934,0.00497511,-0.00218346,-1.40439,0.00423646,0.0183751,1140,393,5.56048,41.4657
-77,631,5.52307,-41.8091,-0.00174299,0.00402123,-0.000946098,0.00417254,-0.0018943,-1.4122,0.00358407,0.0126337,1147,393,5.52307,41.8091
-70,631,5.51257,-42.0832,-0.00155298,0.00354204,-0.000815478,0.00366938,-0.00168032,-1.4159,0.00315901,0.0132488,1154,393,5.5126,42.0832
-63,631,5.50879,-42.376,-0.00117829,0.00324992,-0.000874346,0.00341631,-0.00134467,-1.38275,0.00283417,0.0137784,1161,393,5.50874,42.376
-56,631,5.4989,-42.6888,-0.000828072,0.00302162,-0.000843141,0.00319818,-0.00100463,-1.36437,0.00253427,0.0147764,1168,393,5.49892,42.6888
-49,631,5.50232,-42.9229,-0.000496775,0.00262075,-0.000700976,0.00277111,-0.000647137,-1.35949,0.00209668,0.0121397,1175,393,5.50234,42.923
-42,631,5.49207,-43.1366,-0.000139757,0.00241028,-0.000504579,0.00250649,-0.000235969,-1.38238,0.00175494,0.0100328,1182,393,5.49209,43.1366
-35,631,5.4834,-43.3669,0.000190014,0.00219802,-0.000359539,0.00226045,0.000127579,-1.39886,0.00146629,0.011081,1189,393,5.48344,43.3669
-28,631,5.49255,-43.5804,0.000444317,0.0018225,-0.000164708,0.00184191,0.000424906,-1.45349,0.00111366,0.0142151,1196,393,5.49251,43.5804
-21,631,5.46802,-43.7876,0.000734548,0.00132033,6.18066e-05,0.00132678,0.000728098,1.46681,0.000767233,0.0115661,1203,393,5.46805,43.7876
-14,631,5.45532,-43.9802,0.000998316,0.00066507,0.000372029,0.00123933,0.000424055,0.574855,0.000727315,0.0126153,1210,393,5.45536,43.9802
-7,631,5.45935,-44.1827,0.00115933,7.25098e-05,0.000622344,0.00144212,-0.00021028,0.426503,0.00103863,0.021655,1217,393,5.45934,44.1827
0,631,5.44531,-44.3535,0.00121288,-0.000512204,0.000867441,0.00157363,-0.000872949,0.394115,0.00143171,0.0268687,1224,393,5.44533,44.3535
7,631,5.46301,-44.4261,0.00101988,-0.000881394,0.00120881,0.00160708,-0.00146859,0.452195,0.00177634,0.0202479,1231,393,5.46307,44.4261
14,631,5.5061,-44.5325,0.000597004,-0.00109323,0.0015854,0.00154847,-0.00204469,0.540525,0.0020811,0.0109631,1238,393,5.50611,44.5325
21,631,5.53845,-44.6511,0.000190984,-0.00121674,0.00188682,0.00150096,-0.00252671,0.606873,0.00235038,0.0134748,1245,393,5.53841,44.6511
28,631,5.56201,-44.7393,-0.000221489,-0.0011485,0.00210818,0.00147354,-0.00284353,0.677189,0.00253395,0.0153427,1252,393,5.56207,44.7393
35,631,5.5813,-44.7712,-0.000360145,-0.000598902,0.00193964,0.00146379,-0.00242283,0.754663,0.0022666,0.0147408,1259,393,5.58131,44.7712
42,631,5.60266,-44.8324,-0.000564838,-0.000115061,0.00189187,0.00156524,-0.00224514,0.844556,0.00221157,0.0128423,1266,393,5.60264,44.8324
49,631,5.60925,-44.8817,-0.000882134,0.000835447,0.00174822,0.00192442,-0.00197111,1.01371,0.00224914,0.0114127,1273,393,5.60923,44.8816
56,631,5.63269,-44.9208,-0.00115502,0.00224416,0.0014783,0.00279712,-0.00170798,1.21286,0.00262624,0.0129053,1280,393,5.63266,44.9208
63,631,5.63745,-44.9579,-0.00112366,0.00329102,0.000962604,0.00349178,-0.00132442,1.36518,0.00287295,0.0161531,1287,393,5.63748,44.9579
70,631,5.64478,-44.9174,-0.00110668,0.00430153,0.000492872,0.00434608,-0.00115123,1.48065,0.00334778,0.0169407,1294,393,5.64476,44.9174
77,631,5.66589,-44.8662,-0.0010141,0.00541976,1.62617e-06,0.00541976,-0.0010141,1.57054,0.00399435,0.0164894,1301,393,5.66593,44.8663
84,631,5.70239,-44.8186,-0.000805669,0.00615494,-0.000524481,0.00619423,-0.000844967,-1.49601,0.00443804,0.0136803,1308,393,5.70242,44.8186
91,631,5.70972,-44.749,-0.000715615,0.00662897,-0.00102793,0.00677013,-0.000856769,-1.43433,0.00482443,0.0166689,1315,393,5.70971,44.749
98,631,5.71558,-44.6734,-0.000584095,0.00663284,-0.00121923,0.00683325,-0.000784508,-1.40788,0.00483825,0.0144215,1322,393,5.71554,44.6734
105,631,5.72009,-44.5842,-0.000338427,0.00649798,-0.0012984,0.00673627,-0.000576718,-1.38929,0.00469491,0.0119164,1329,393,5.72005,44.5842
112,631,5.74316,-44.4619,-1.46235e-06,0.00619876,-0.00151236,0.00654798,-0.000350688,-1.34386,0.00448679,0.0126181,1336,393,5.7432,44.4619
119,631,5.73267,-44.3359,0.000337766,0.00572045,-0.00161244,0.00616651,-0.000108292,-1.30091,0.00414757,0.0128484,1343,393,5.73267,44.3359
126,631,5.72217,-44.1501,0.000466115,0.00539204,-0.00155621,0.00584249,1.56655e-05,-1.28904,0.00388978,0.019073,1350,393,5.72214,44.1501
133,631,5.75073,-43.9815,0.000593553,0.00507904,-0.00143788,0.0055004,0.000172202,-1.28574,0.0036109,0.0206209,1357,393,5.75077,43.9815
140,631,5.74683,-43.8587,0.000552501,0.00458408,-0.00104458,0.00483865,0.000297925,-1.33175,0.00313119,0.0210304,1364,393,5.74684,43.8587
147,631,5.73425,-43.6743,0.000769443,0.004483,-0.000917158,0.00469717,0.000555279,-1.3414,0.00296374,0.0229439,1371,393,5.7343,43.6743
154,631,5.75879,-43.4274,0.00115339,0.00436202,-0.000818944,0.00455895,0.000956458,-1.3348,0.00277596,0.0214702,1378,393,5.75881,43.4274
161,631,5.81641,-43.1665,0.00138719,0.00440939,-0.00061068,0.00452813,0.00126846,-1.37877,0.00269726,0.0243973,1385,393,5.8164,43.1665
168,631,5.82983,-42.8799,0.0012674,0.0048564,-0.000217149,0.00486949,0.00125431,-1.51058,0.00291946,0.0299594,1392,393,5.82981,42.8799
175,631,5.80945,-42.693,0.0010682,0.00521115,0.000180539,0.005219,0.00106035,1.52733,0.00318527,0.0234405,1399,393,5.80946,42.693
182,631,5.78076,-42.4314,0.000754836,0.00549669,0.000546452,0.00555885,0.000692677,1.45753,0.00349794,0.0122271,1406,393,5.7808,42.4314
189,631,5.76648,-42.1237,0.000345216,0.00573818,0.00098108,0.00591111,0.000172285,1.39632,0.00388459,0.011241,1413,393,5.76647,42.1237
196,631,5.74536,-41.8174,9.17256e-05,0.00578005,0.00147431,0.00613946,-0.000267682,1.33168,0.00418505,0.0117856,1420,393,5.74541,41.8174
203,631,5.74768,-41.5103,-0.000198757,0.00587811,0.00194681,0.0064483,-0.000768942,1.28588,0.00457676,0.0136502,1427,393,5.74773,41.5103
210,631,5.73608,-41.1941,-0.000661373,0.00587357,0.00220925,0.00655035,-0.00133816,1.27353,0.00487457,0.0148934,1434,393,5.7361,41.1941
217,631,5.71094,-40.8418,-0.000541431,0.00631837,0.00239953,0.00707439,-0.00129746,1.26557,0.00520296,0.016376,1441,393,5.71092,40.8418
224,631,5.67163,-40.47,-9.5734e-05,0.00696498,0.00280032,0.00794075,-0.00107151,1.2355,0.00568477,0.0139612,1448,393,5.6716,40.47
231,631,5.64319,-40.1044,0.000607275,0.00776938,0.00335652,0.00909651,-0.000719846,1.19427,0.00631797,0.0111284,1455,393,5.64313,40.1044
238,631,5.59656,-39.6703,0.00135295,0.0088581,0.00422347,0.0107553,-0.000544207,1.14861,0.00735829,0.0169822,1462,393,5.59652,39.6703
245,631,5.57544,-39.2646,0.00195231,0.00987466,0.00485461,0.0121791,-0.000352141,1.1276,0.0082393,0.0186336,1469,393,5.57547,39.2646
252,631,5.54785,-38.8769,0.00271516,0.0110483,0.00555376,0.0138247,-6.12196e-05,1.10722,0.00923694,0.0175684,1476,393,5.5478,38.8769
259,631,5.51453,-38.4595,0.00353664,0.0124762,0.0064555,0.0158583,0.000154526,1.0882,0.0105211,0.0129822,1483,393,5.5145,38.4595
266,631,5.51501,-38.0356,0.00432114,0.0139523,0.00748855,0.01804,0.000233448,1.07114,0.0119496,0.0115783,1490,393,5.51507,38.0356
273,631,5.50098,-37.5763,0.0050166,0.0155581,0.00851899,0.020305,0.000269668,1.06243,0.0134477,0.0143163,1497,393,5.50092,37.5763
280,631,5.47412,-37.0839,0.00568553,0.0172337,0.0096028,0.0226647,0.000254536,1.05608,0.0150257,0.0143533,1504,393,5.47413,37.0839
287,631,5.42981,-36.6063,0.00630581,0.0190493,0.0107654,0.0251873,0.000167812,1.05261,0.0167359,0.0168692,1511,393,5.42983,36.6063
294,631,5.32178,-36.0439,0.0067607,0.0207808,0.0118421,0.0275322,9.32533e-06,1.05264,0.0183517,0.0211789,1518,393,5.32182,36.0439
301,631,5.22363,-35.4643,0.00699824,0.0223564,0.0127665,0.0295753,-0.000220705,1.05616,0.0197909,0.0320863,1525,393,5.22365,35.4643
308,631,5.51404,-34.7972,0.00718286,0.0238898,0.013708,0.0315891,-0.000516379,1.05904,0.0212336,0.0380875,1532,393,5.51399,34.7972
315,631,5.65991,-34.3798,0.00715975,0.0253382,0.0145847,0.0334341,-0.0009361,1.06405,0.0226079,0.0467333,1539,393,5.65991,34.3798
322,631,5.24792,-34.1372,0,0,0,0,0,0,0,-1,1546,393,5.24787,34.1372
329,631,4.07495,-32.0003,0,0,0,0,0,0,0,-1,1553,393,4.07495,32.0003
336,631,4.63904,-32.6302,0,0,0,0,0,0,0,-1,1560,393,4.63908,32.6303
343,631,4.92224,-31.0858,0,0,0,0,0,0,0,-1,1567,393,4.92227,31.0858
350,631,2.1344,-9.23401,0,0,0,0,0,0,0,-1,1574,393,2.13439,9.23401
357,631,2.6449,-9.60303,0,0,0,0,0,0,0,-1,1581,393,2.64491,9.60304
364,631,3.39136,-5.7594,0,0,0,0,0,0,0,-1,1588,393,3.39137,5.75939
371,631,3.72839,-6.0574,0,0,0,0,0,0,0,-1,1595,393,3.72845,6.05742
378,631,4.06555,-6.35544,0,0,0,0,0,0,0,-1,1602,393,4.06553,6.35544
385,631,3.90442,-3.58298,0,0,0,0,0,0,0,-1,1609,393,3.90437,3.58299
392,631,0.352295,-2.21301,0,0,0,0,0,0,0,-1,1616,393,0.352345,2.213
399,631,0,0,0,0,0,0,0,0,0,-1,1623,393,0,0
406,631,0,0,0,0,0,0,0,0,0,-1,1630,393,0,0
413,631,0,0,0,0,0,0,0,0,0,-1,1637,393,0,0
420,631,0,0,0,0,0,0,0,0,0,-1,1644,393,0,0
427,631,0,0,0,0,0,0,0,0,0,-1,1651,393,0,0
434,631,0,0,0,0,0,0,0,0,0,-1,1658,393,0,0
441,631,0,0,0,0,0,0,0,0,0,-1,1665,393,0,0
448,631,0,0,0,0,0,0,0,0,0,-1,1672,393,0,0
455,631,0,0,0,0,0,0,0,0,0,-1,1679,393,0,0
462,631,0,0,0,0,0,0,0,0,0,-1,1686,393,0,0
469,631,0,0,0,0,0,0,0,0,0,-1,1693,393,0,0
476,631,0,0,0,0,0,0,0,0,0,-1,1700,393,0,0
483,631,0,0,0,0,0,0,0,0,0,-1,1707,393,0,0
490,631,0,0,0,0,0,0,0,0,0,-1,1714,393,0,0
497,631,0,0,0,0,0,0,0,0,0,-1,1721,393,0,0
504,631,0,0,0,0,0,0,0,0,0,-1,1728,393,0,0
511,631,0,0,0,0,0,0,0,0,0,-1,1735,393,0,0
518,631,0,0,0,0,0,0,0,0,0,-1,1742,393,0,0
525,631,0,0,0,0,0,0,0,0,0,-1,1749,393,0,0
532,631,0,0,0,0,0,0,0,0,0,-1,1756,393,0,0
539,631,0,0,0,0,0,0,0,0,0,-1,1763,393,0,0
546,631,0,0,0,0,0,0,0,0,0,-1,1770,393,0,0
553,631,0,0,0,0,0,0,0,0,0,-1,1777,393,0,0
560,631,0,0,0,0,0,0,0,0,0,-1,1784,393,0,0
567,631,0,0,0,0,0,0,0,0,0,-1,1791,393,0,0
574,631,0,0,0,0,0,0,0,0,0,-1,1798,393,0,0
581,631,0,0,0,0,0,0,0,0,0,-1,1805,393,0,0
588,631,0,0,0,0,0,0,0,0,0,-1,1812,393,0,0
595,631,0,0,0,0,0,0,0,0,0,-1,1819,393,0,0
602,631,0,0,0,0,0,0,0,0,0,-1,1826,393,0,0
609,631,0,0,0,0,0,0,0,0,0,-1,1833,393,0,0
616,631,0,0,0,0,0,0,0,0,0,-1,1840,393,0,0
623,631,0,0,0,0,0,0,0,0,0,-1,1847,393,0,0
630,631,0,0,0,0,0,0,0,0,0,-1,1854,393,0,0
637,631,0,0,0,0,0,0,0,0,0,-1,1861,393,0,0
644,631,0,0,0,0,0,0,0,0,0,-1,1868,393,0,0
651,631,0,0,0,0,0,0,0,0,0,-1,1875,393,0,0
658,631,0,0,0,0,0,0,0,0,0,-1,1882,393,0,0
665,631,0,0,0,0,0,0,0,0,0,-1,1889,393,0,0
672,631,0,0,0,0,0,0,0,0,0,-1,1896,393,0,0
679,631,0,0,0,0,0,0,0,0,0,-1,1903,393,0,0
686,631,0,0,0,0,0,0,0,0,0,-1,1910,393,0,0
693,631,0,0,0,0,0,0,0,0,0,-1,1917,393,0,0
700,631,0,0,0,0,0,0,0,0,0,-1,1924,393,0,0
707,631,0,0,0,0,0,0,0,0,0,-1,1931,393,0,0
714,631,0,0,0,0,0,0,0,0,0,-1,1938,393,0,0
721,631,0,0,0,0,0,0,0,0,0,-1,1945,393,0,0
728,631,0,0,0,0,0,0,0,0,0,-1,1952,393,0,0
735,631,0,0,0,0,0,0,0,0,0,-1,1959,393,0,0
742,631,0,0,0,0,0,0,0,0,0,-1,1966,393,0,0
749,631,0,0,0,0,0,0,0,0,0,-1,1973,393,0,0
756,631,0,0,0,0,0,0,0,0,0,-1,1980,393,0,0
763,631,0,0,0,0,0,0,0,0,0,-1,1987,393,0,0
770,631,0,0,0,0,0,0,0,0,0,-1,1994,393,0,0
777,631,0,0,0,0,0,0,0,0,0,-1,2001,393,0,0
784,631,0,0,0,0,0,0,0,0,0,-1,2008,393,0,0
791,631,0,0,0,0,0,0,0,0,0,-1,2015,393,0,0
798,631,0,0,0,0,0,0,0,0,0,-1,2022,393,0,0
805,631,0,0,0,0,0,0,0,0,0,-1,2029,393,0,0
812,631,0,0,0,0,0,0,0,0,0,-1,2036,393,0,0
-700,624,0,0,0,0,0,0,0,0,0,-1,524,400,0,0
-693,624,0,0,0,0,0,0,0,0,0,-1,531,400,0,0
-686,624,0,0,0,0,0,0,0,0,0,-1,538,400,0,0
-679,624,0,0,0,0,0,0,0,0,0,-1,545,400,0,0
-672,624,0,0,0,0,0,0,0,0,0,-1,552,400,0,0
-665,624,0,0,0,0,0,0,0,0,0,-1,559,400,0,0
-658,624,0,0,0,0,0,0,0,0,0,-1,566,400,0,0
-651,624,0,0,0,0,0,0,0,0,0,-1,573,400,0,0
-644,624,0,0,0,0,0,0,0,0,0,-1,580,400,0,0
-637,624,0,0,0,0,0,0,0,0,0,-1,587,400,0,0
-630,624,0,0,0,0,0,0,0,0,0,-1,594,400,0,0
-623,624,0,0,0,0,0,0,0,0,0,-1,601,400,0,0
-616,624,0,0,0,0,0,0,0,0,0,-1,608,400,0,0
-609,624,0,0,0,0,0,0,0,0,0,-1,615,400,0,0
-602,624,0,0,0,0,0,0,0,0,0,-1,622,400,0,0
-595,624,0,0,0,0,0,0,0,0,0,-1,629,400,0,0
-588,624,0,0,0,0,0,0,0,0,0,-1,636,400,0,0
-581,624,0,0,0,0,0,0,0,0,0,-1,643,400,0,0
-574,624,0,0,0,0,0,0,0,0,0,-1,650,400,0,0
-567,624,0,0,0,0,0,0,0,0,0,-1,657,400,0,0
-560,624,0,0,0,0,0,0,0,0,0,-1,664,400,0,0
-553,624,0,0,0,0,0,0,0,0,0,-1,671,400,0,0
-546,624,0,0,0,0,0,0,0,0,0,-1,678,400,0,0
-539,624,0,0,0,0,0,0,0,0,0,-1,685,400,0,0
-532,624,0,0,0,0,0,0,0,0,0,-1,692,400,0,0
-525,624,0,0,0,0,0,0,0,0,0,-1,699,400,0,0
-518,624,0,0,0,0,0,0,0,0,0,-1,706,400,0,0
-511,624,0,0,0,0,0,0,0,0,0,-1,713,400,0,0
-504,624,0,0,0,0,0,0,0,0,0,-1,720,400,0,0
-497,624,0,0,0,0,0,0,0,0,0,-1,727,400,0,0
-490,624,0,0,0,0,0,0,0,0,0,-1,734,400,0,0
-483,624,0,0,0,0,0,0,0,0,0,-1,741,400,0,0
-476,624,0,0,0,0,0,0,0,0,0,-1,748,400,0,0
-469,624,0,0,0,0,0,0,0,0,0,-1,755,400,0,0
-462,624,0,0,0,0,0,0,0,0,0,-1,762,400,0,0
-455,624,0,0,0,0,0,0,0,0,0,-1,769,400,0,0
-448,624,0,0,0,0,0,0,0,0,0,-1,776,400,0,0
-441,624,0,0,0,0,0,0,0,0,0,-1,783,400,0,0
-434,624,0,0,0,0,0,0,0,0,0,-1,790,400,0,0
-427,624,0,0,0,0,0,0,0,0,0,-1,797,400,0,0
-420,624,0,0,0,0,0,0,0,0,0,-1,804,400,0,0
-413,624,0,0,0,0,0,0,0,0,0,-1,811,400,0,0
-406,624,0,0,0,0,0,0,0,0,0,-1,818,400,0,0
-399,624,0,0,0,0,0,0,0,0,0,-1,825,400,0,0
-392,624,0,0,0,0,0,0,0,0,0,-1,832,400,0,0
-385,624,0,0,0,0,0,0,0,0,0,-1,839,400,0,0
-378,624,0,0,0,0,0,0,0,0,0,-1,846,400,0,0
-371,624,0,0,0,0,0,0,0,0,0,-1,853,400,0,0
-364,624,0,0,0,0,0,0,0,0,0,-1,860,400,0,0
-357,624,0,0,0,0,0,0,0,0,0,-1,867,400,0,0
-350,624,0,0,0,0,0,0,0,0,0,-1,874,400,0,0
-343,624,0,0,0,0,0,0,0,0,0,-1,881,400,0,0
-336,624,0,0,0,0,0,0,0,0,0,-1,888,400,0,0
-329,624,0,0,0,0,0,0,0,0,0,-1,895,400,0,0
-322,624,0,0,0,0,0,0,0,0,0,-1,902,400,0,0
-315,624,0,0,0,0,0,0,0,0,0,-1,909,400,0,0
-308,624,0,0,0,0,0,0,0,0,0,-1,916,400,0,0
-301,624,0,0,0,0,0,0,0,0,0,-1,923,400,0,0
-294,624,5.08527,-28.5311,0,0,0,0,0,0,0,-1,930,400,5.08525,28.5311
-287,624,7.73975,-33.4982,0,0,0,0,0,0,0,-1,937,400,7.73974,33.4982
-280,624,7.50964,-33.7081,-0.0503007,-0.18567,0.0372683,-0.0407187,-0.195252,0.251658,0.118942,0.0438142,944,400,7.50965,33.7081
-273,624,7.10254,-33.8493,-0.0458513,-0.174178,0.0360101,-0.036437,-0.183592,0.255711,0.112238,0.0434818,951,400,7.10253,33.8493
-266,624,6.69147,-33.7732,-0.0412475,-0.159952,0.0338984,-0.0322493,-0.16895,0.259464,0.103571,0.0438834,958,400,6.69149,33.7732
-259,624,6.60864,-33.7825,-0.0364693,-0.143349,0.0307123,-0.0282727,-0.151546,0.260807,0.0930492,0.0428993,965,400,6.60865,33.7825
-252,624,6.64709,-33.8389,0,0,0,0,0,0,0,-1,972,400,6.64711,33.8389
-245,624,5.64722,-31.5637,0,0,0,0,0,0,0,-1,979,400,5.64719,31.5637
-238,624,5.21826,-30.8126,0,0,0,0,0,0,0,-1,986,400,5.21827,30.8126
-231,624,3.86121,-29.6032,0,0,0,0,0,0,0,-1,993,400,3.86122,29.6032
-224,624,4.59351,-27.4048,0,0,0,0,0,0,0,-1,1000,400,4.59353,27.4048
-217,624,5.90167,-32.048,0,0,0,0,0,0,0,-1,1007,400,5.90167,32.048
-210,624,5.88165,-33.648,0,0,0,0,0,0,0,-1,1014,400,5.88163,33.648
-203,624,5.71252,-34.1006,0,0,0,0,0,0,0,-1,1021,400,5.71247,34.1006
-196,624,5.70215,-34.5209,0,0,0,0,0,0,0,-1,1028,400,5.70219,34.5209
-189,624,5.5802,-34.5961,0,0,0,0,0,0,0,-1,1035,400,5.58024,34.5961
-182,624,5.67126,-35.4344,-0.00380212,0.0173676,-0.0073454,0.0196666,-0.00610113,-1.26747,0.015549,0.0405808,1042,400,5.67124,35.4344
-175,624,5.70093,-36.1908,-0.0036906,0.014837,-0.00638142,0.0168222,-0.00567582,-1.26919,0.0135102,0.028515,1049,400,5.70093,36.1908
-168,624,5.60315,-36.7443,-0.00353817,0.013428,-0.00567138,0.0151492,-0.00525936,-1.27614,0.0122354,0.0160389,1056,400,5.60315,36.7443
-161,624,5.50708,-37.2358,-0.00328459,0.0121964,-0.005074,0.0137112,-0.0047994,-1.28068,0.0110923,0.0118096,1063,400,5.50703,37.2358
-154,624,5.4801,-37.6581,-0.00297833,0.0111512,-0.00446938,0.0124463,-0.00427336,-1.28876,0.0100301,0.0109463,1070,400,5.4801,37.6581
-147,624,5.47375,-38.0846,-0.00275278,0.0100452,-0.0039003,0.0111401,-0.00384775,-1.2971,0.00898819,0.0115925,1077,400,5.47377,38.0846
-140,624,5.43396,-38.5075,-0.00249221,0.00897814,-0.00339405,0.00990718,-0.00342126,-1.30361,0.00799311,0.0100582,1084,400,5.43392,38.5075
-133,624,5.38184,-38.9268,-0.00223233,0.00802512,-0.00293665,0.00880637,-0.00301357,-1.31079,0.00709217,0.0111627,1091,400,5.38186,38.9268
-126,624,5.3479,-39.3205,-0.00208073,0.00691989,-0.00243327,0.0075356,-0.00269643,-1.32296,0.00612373,0.0135754,1098,400,5.34791,39.3205
-119,624,5.31384,-39.7163,-0.00180009,0.00620515,-0.00207659,0.00671177,-0.0023067,-1.33151,0.0054099,0.0153142,1105,400,5.31388,39.7163
-112,624,5.31836,-40.0817,-0.00144523,0.00552729,-0.00176296,0.00594769,-0.00186564,-1.3367,0.00471178,0.0175449,1112,400,5.31832,40.0817
-105,624,5.34033,-40.4384,-0.00115791,0.00491759,-0.00153093,0.00528156,-0.00152188,-1.33739,0.00412304,0.0143662,1119,400,5.3403,40.4384
-98,624,5.28101,-40.802,-0.000937875,0.0041925,-0.00131719,0.00451092,-0.00125629,-1.33361,0.00350198,0.0148751,1126,400,5.28103,40.802
-91,624,5.27417,-41.1385,-0.000691289,0.00353426,-0.00112135,0.0038134,-0.000970426,-1.32683,0.00292,0.021259,1133,400,5.27413,41.1385
-84,624,5.28394,-41.4752,-0.000384522,0.00272423,-0.000876549,0.00295435,-0.000614641,-1.31406,0.00220321,0.0204576,1140,400,5.28394,41.4752
-77,624,5.27698,-41.8047,-6.56734e-05,0.00222236,-0.000695197,0.00241703,-0.00026034,-1.29777,0.00170477,0.0151379,1147,400,5.27702,41.8046
-70,624,5.26782,-42.063,0.000273684,0.00187982,-0.00055308,0.00205185,0.000101655,-1.26924,0.00133531,0.01581,1154,400,5.26785,42.0631
-63,624,5.26184,-42.3534,0.000602883,0.00169647,-0.000507052,0.00189539,0.000403966,-1.19694,0.00115278,0.0168313,1161,400,5.26186,42.3534
-56,624,5.24365,-42.6662,0.000816993,0.00124853,-0.000446319,0.0015285,0.000537024,-1.01056,0.000895389,0.0133973,1168,400,5.24363,42.6662
-49,624,5.26001,-42.9402,0.00100396,0.000545821,-0.000262307,0.00112314,0.000426642,-0.426468,0.000654656,0.0110447,1175,400,5.26002,42.9403
-42,624,5.2572,-43.156,0.00129352,3.13317e-06,6.19902e-05,0.00129649,1.6205e-07,0.0478932,0.000864271,0.0104178,1182,400,5.25719,43.156
-35,624,5.25635,-43.3769,0.00158564,-0.000636512,0.000239687,0.0016112,-0.000662071,0.106235,0.00135006,0.0159321,1189,400,5.25632,43.3769
-28,624,5.25525,-43.6257,0.00171989,-0.00142455,0.000644633,0.00184692,-0.00155157,0.194555,0.00196459,0.0214478,1196,400,5.25522,43.6257
-21,624,5.27661,-43.7972,0.00187619,-0.00235717,0.00108483,0.00213799,-0.00261898,0.236804,0.00275111,0.0148317,1203,400,5.27664,43.7972
-14,624,5.30029,-43.9704,0.00192317,-0.00331797,0.00162563,0.00238644,-0.00378124,0.277619,0.00359113,0.0147164,1210,400,5.30032,43.9704
-7,624,5.27612,-44.1126,0.00175219,-0.00409598,0.00207907,0.00241597,-0.00475976,0.309041,0.00421594,0.0201561,1217,400,5.27612,44.1126
0,624,5.30884,-44.2798,0.00141986,-0.00474616,0.00249312,0.00230178,-0.00562807,0.340001,0.00471065,0.0216639,1224,400,5.30879,44.2799
7,624,5.33398,-44.4067,0.000722379,-0.0050775,0.0030149,0.00200565,-0.00636077,0.402416,0.00504379,0.0152051,1231,400,5.33398,44.4067
14,624,5.41333,-44.5619,-0.000263058,-0.00515402,0.00353342,0.0015886,-0.00700567,0.482696,0.00528025,0.0126438,1238,400,5.41338,44.5619
21,624,5.44299,-44.6646,-0.00117286,-0.00506844,0.00390682,0.00124479,-0.00748609,0.55415,0.00545322,0.0140028,1245,400,5.44298,44.6646
28,624,5.46277,-44.7429,-0.00213182,-0.00465075,0.00414632,0.0009421,-0.00772467,0.637949,0.00549082,0.0135852,1252,400,5.46279,44.7429
35,624,5.48816,-44.77,-0.00263307,-0.00338565,0.0036902,0.000699974,-0.00671869,0.734589,0.00472975,0.0163569,1259,400,5.48812,44.77
42,624,5.53906,-44.8225,-0.00315825,-0.00234498,0.00340333,0.000675922,-0.00617915,0.844857,0.00436223,0.016764,1266,400,5.53905,44.8225
49,624,5.58521,-44.8679,-0.00381201,-0.000660249,0.00298835,0.00114228,-0.00561454,1.02804,0.00417619,0.0177437,1273,400,5.58524,44.8679
56,624,5.62024,-44.9182,-0.00427645,0.00151101,0.00231286,0.00232174,-0.00508718,1.23365,0.00437574,0.0184606,1280,400,5.62025,44.9182
63,624,5.68005,-44.9263,-0.00415686,0.00306511,0.00117022,0.00325,-0.00434174,1.4141,0.00439817,0.0156808,1287,400,5.68006,44.9263
70,624,5.68787,-44.9273,-0.00389272,0.00453847,0.000189179,0.00454271,-0.00389696,1.54837,0.0048774,0.014125,1294,400,5.68788,44.9273
77,624,5.71533,-44.8724,-0.00368412,0.00610041,-0.000923139,0.00618675,-0.00377046,-1.47755,0.00580494,0.0145856,1301,400,5.71531,44.8724
84,624,5.74597,-44.8237,-0.00317886,0.00703452,-0.00193316,0.00738817,-0.00353251,-1.38985,0.00643472,0.0131168,1308,400,5.74595,44.8237
91,624,5.77222,-44.7548,-0.00269949,0.00743645,-0.00285612,0.00818584,-0.00344888,-1.3142,0.0069004,0.0135666,1315,400,5.77226,44.7548
98,624,5.79395,-44.6914,-0.00213224,0.0071037,-0.00334104,0.00818557,-0.00321411,-1.25764,0.00678703,0.0135173,1322,400,5.79393,44.6914
105,624,5.82764,-44.6295,-0.00154739,0.00648861,-0.00361718,0.00787693,-0.00293571,-1.20432,0.00645631,0.0141562,1329,400,5.82766,44.6296
112,624,5.86279,-44.5052,-0.000852328,0.00562161,-0.00398056,0.00751522,-0.00274594,-1.12677,0.00613388,0.0146122,1336,400,5.86276,44.5052
119,624,5.84534,-44.3721,-0.00021053,0.00445696,-0.00410711,0.00684706,-0.00260063,-1.04376,0.00563529,0.0146899,1343,400,5.84528,44.3721
126,624,5.86035,-44.2089,6.50825e-05,0.0033591,-0.00393455,0.00597746,-0.00255328,-0.983617,0.00505575,0.0193566,1350,400,5.8603,44.2089
133,624,5.93591,-44.007,0.000360179,0.00227374,-0.00366902,0.00510867,-0.00247476,-0.912944,0.00446546,0.0199736,1357,400,5.93589,44.007
140,624,5.93799,-43.8643,0.000315006,0.000832712,-0.0029009,0.00348628,-0.00233856,-0.829896,0.00338467,0.0186574,1364,400,5.93796,43.8643
147,624,5.91357,-43.6609,0.000672394,0.000227448,-0.00266093,0.00312014,-0.00222029,-0.743692,0.00309785,0.0218206,1371,400,5.91353,43.6609
154,624,5.97656,-43.4235,0.00143873,-0.000432132,-0.00251486,0.0031865,-0.0021799,-0.607346,0.0031164,0.0244282,1378,400,5.97652,43.4235
161,624,6.01489,-43.2011,0.00201537,-0.000800208,-0.00222784,0.00324294,-0.00202778,-0.503622,0.00306989,0.0236865,1385,400,6.01485,43.2011
168,624,6.04712,-42.9588,0.00188796,-0.000164151,-0.00156017,0.00272924,-0.00100543,-0.49453,0.00223146,0.0239616,1392,400,6.04706,42.9588
175,624,6.07935,-42.7237,0.00182379,0.00029903,-0.00110434,0.00240335,-0.00028053,-0.48329,0.00170346,0.0191229,1399,400,6.07929,42.7237
182,624,6.06982,-42.4384,0.00174367,0.000814353,-0.000686034,0.00210759,0.000450428,-0.48773,0.00128158,0.0113196,1406,400,6.06981,42.4384
189,624,6.04578,-42.135,0.00131911,0.00166449,-0.000300218,0.00183814,0.00114546,-1.0464,0.00107193,0.0104449,1413,400,6.04583,42.135
196,624,6.0354,-41.817,0.00108036,0.00238137,0.000162604,0.00240138,0.00106034,1.44832,0.00138959,0.011198,1420,400,6.03544,41.817
203,624,6.06445,-41.4927,0.000831019,0.00311522,0.000606873,0.00326644,0.000679795,1.32658,0.00199012,0.0145442,1427,400,6.06446,41.4927
210,624,6.07251,-41.1818,0.000470553,0.0035727,0.000974666,0.00385351,0.000189742,1.29028,0.00250816,0.0176504,1434,400,6.07256,41.1818
217,624,6.04553,-40.8157,0.000340701,0.00414423,0.00127254,0.00453071,-4.57789e-05,1.27594,0.00303585,0.0209024,1441,400,6.04553,40.8157
224,624,6.03186,-40.4564,0.00044813,0.00480189,0.00168163,0.00537578,-0.000125754,1.24192,0.00362649,0.0177251,1448,400,6.03182,40.4564
231,624,6.01953,-40.1165,0.000750095,0.00550531,0.00219757,0.00636535,-0.000109941,1.19776,0.00428068,0.0122496,1455,400,6.0195,40.1165
238,624,5.99048,-39.736,0.00115519,0.00641287,0.0029136,0.0077083,-0.00014024,1.15243,0.00518624,0.0175984,1462,400,5.99049,39.7359
245,624,5.96509,-39.343,0.00150862,0.00728334,0.00345537,0.00889891,-0.00010695,1.13344,0.00596858,0.0188796,1469,400,5.96507,39.343
252,624,5.92065,-38.9145,0.00198273,0.00828914,0.00404068,0.0102613,1.05281e-05,1.11672,0.00683739,0.0137035,1476,400,5.9207,38.9145
259,624,5.91821,-38.4997,0.00249926,0.00947358,0.00479253,0.0119134,5.94808e-05,1.09991,0.00792249,0.00985351,1483,400,5.91818,38.4997
266,624,5.93823,-38.0552,0.00300672,0.0106786,0.00564292,0.0136659,1.93869e-05,1.08391,0.00910415,0.0134467,1490,400,5.93828,38.0552
273,624,5.91357,-37.5877,0.00345097,0.0119626,0.00647303,0.0154535,-3.9971e-05,1.0762,0.0103157,0.0160153,1497,400,5.91357,37.5878
280,624,5.85974,-37.1389,0.00387794,0.0132859,0.00734002,0.0172999,-0.000136068,1.07036,0.0115789,0.0144954,1504,400,5.85978,37.1389
287,624,5.79578,-36.7157,0.00426448,0.0146917,0.00826066,0.0192465,-0.00029023,1.0669,0.0129288,0.0112775,1511,400,5.79575,36.7157
294,624,5.74976,-36.2436,0.00450387,0.0159839,0.00908861,0.0209934,-0.000505548,1.06705,0.0141671,0.00980489,1518,400,5.74979,36.2436
301,624,5.71973,-35.6898,0.00455379,0.0170997,0.00976983,0.022437,-0.000783588,1.07079,0.0152259,0.0118569,1525,400,5.71978,35.6898
308,624,5.71533,-35.1543,0.00454629,0.0181475,0.0104395,0.0238061,-0.00111234,1.07409,0.0162542,0.0156798,1532,400,5.71535,35.1543
315,624,5.72839,-34.6416,0.00434852,0.0191502,0.0110417,0.0250419,-0.00154315,1.08064,0.017232,0.0202796,1539,400,5.72839,34.6416
322,624,5.67371,-34.1508,0.00372517,0.0198872,0.0114943,0.0258569,-0.00224447,1.09178,0.0180327,0.0380356,1546,400,5.67369,34.1509
329,624,5.59753,-33.6289,0,0,0,0,0,0,0,-1,1553,400,5.59748,33.6289
336,624,5.44031,-32.7724,0,0,0,0,0,0,0,-1,1560,400,5.44036,32.7724
343,624,5.56299,-32.3856,0,0,0,0,0,0,0,-1,1567,400,5.563,32.3856
350,624,1.99194,-7.29742,0,0,0,0,0,0,0,-1,1574,400,1.99198,7.29741
357,624,2.64075,-3.13092,0,0,0,0,0,0,0,-1,1581,400,2.64076,3.13091
364,624,3.16565,-4.9458,0,0,0,0,0,0,0,-1,1588,400,3.16564,4.94579
371,624,3.37561,-5.23529,0,0,0,0,0,0,0,-1,1595,400,3.37563,5.23529
378,624,1.50439,-5.22165,0,0,0,0,0,0,0,-1,1602,400,1.50438,5.22164
385,624,1.2301,-10.5866,0,0,0,0,0,0,0,-1,1609,400,1.2301,10.5866
392,624,4.26819,-5.14236,0,0,0,0,0,0,0,-1,1616,400,4.26818,5.14236
399,624,2.22168,-9.19293,0,0,0,0,0,0,0,-1,1623,400,2.22173,9.19294
406,624,2.68213,-9.91171,0,0,0,0,0,0,0,-1,1630,400,2.68213,9.91171
413,624,0,0,0,0,0,0,0,0,0,-1,1637,400,0,0
420,624,0,0,0,0,0,0,0,0,0,-1,1644,400,0,0
427,624,0,0,0,0,0,0,0,0,0,-1,1651,400,0,0
434,624,0,0,0,0,0,0,0,0,0,-1,1658,400,0,0
441,624,0,0,0,0,0,0,0,0,0,-1,1665,400,0,0
448,624,0,0,0,0,0,0,0,0,0,-1,1672,400,0,0
455,624,0,0,0,0,0,0,0,0,0,-1,1679,400,0,0
462,624,0,0,0,0,0,0,0,0,0,-1,1686,400,0,0
469,624,0,0,0,0,0,0,0,0,0,-1,1693,400,0,0
476,624,0,0,0,0,0,0,0,0,0,-1,1700,400,0,0
483,624,0,0,0,0,0,0,0,0,0,-1,1707,400,0,0
490,624,0,0,0,0,0,0,0,0,0,-1,1714,400,0,0
497,624,0,0,0,0,0,0,0,0,0,-1,1721,400,0,0
504,624,0,0,0,0,0,0,0,0,0,-1,1728,400,0,0
511,624,0,0,0,0,0,0,0,0,0,-1,1735,400,0,0
518,624,0,0,0,0,0,0,0,0,0,-1,1742,400,0,0
525,624,0,0,0,0,0,0,0,0,0,-1,1749,400,0,0
532,624,0,0,0,0,0,0,0,0,0,-1,1756,400,0,0
539,624,0,0,0,0,0,0,0,0,0,-1,1763,400,0,0
546,624,0,0,0,0,0,0,0,0,0,-1,1770,400,0,0
553,624,0,0,0,0,0,0,0,0,0,-1,1777,400,0,0
560,624,0,0,0,0,0,0,0,0,0,-1,1784,400,0,0
567,624,0,0,0,0,0,0,0,0,0,-1,1791,400,0,0
574,624,0,0,0,0,0,0,0,0,0,-1,1798,400,0,0
581,624,0,0,0,0,0,0,0,0,0,-1,1805,400,0,0
588,624,0,0,0,0,0,0,0,0,0,-1,1812,400,0,0
595,624,0,0,0,0,0,0,0,0,0,-1,1819,400,0,0
602,624,0,0,0,0,0,0,0,0,0,-1,1826,400,0,0
609,624,0,0,0,0,0,0,0,0,0,-1,1833,400,0,0
616,624,0,0,0,0,0,0,0,0,0,-1,1840,400,0,0
623,624,0,0,0,0,0,0,0,0,0,-1,1847,400,0,0
630,624,0,0,0,0,0,0,0,0,0,-1,1854,400,0,0
637,624,0,0,0,0,0,0,0,0,0,-1,1861,400,0,0
644,624,0,0,0,0,0,0,0,0,0,-1,1868,400,0,0
651,624,0,0,0,0,0,0,0,0,0,-1,1875,400,0,0
658,624,0,0,0,0,0,0,0,0,0,-1,1882,400,0,0
665,624,0,0,0,0,0,0,0,0,0,-1,1889,400,0,0
672,624,0,0,0,0,0,0,0,0,0,-1,1896,400,0,0
679,624,0,0,0,0,0,0,0,0,0,-1,1903,400,0,0
686,624,0,0,0,0,0,0,0,0,0,-1,1910,400,0,0
693,624,0,0,0,0,0,0,0,0,0,-1,1917,400,0,0
700,624,0,0,0,0,0,0,0,0,0,-1,1924,400,0,0
707,624,0,0,0,0,0,0,0,0,0,-1,1931,400,0,0
714,624,0,0,0,0,0,0,0,0,0,-1,1938,400,0,0
721,624,0,0,0,0,0,0,0,0,0,-1,1945,400,0,0
728,624,0,0,0,0,0,0,0,0,0,-1,1952,400,0,0
735,624,0,0,0,0,0,0,0,0,0,-1,1959,400,0,0
742,624,0,0,0,0,0,0,0,0,0,-1,1966,400,0,0
749,624,0,0,0,0,0,0,0,0,0,-1,1973,400,0,0
756,624,0,0,0,0,0,0,0,0,0,-1,1980,400,0,0
763,624,0,0,0,0,0,0,0,0,0,-1,1987,400,0,0
770,624,0,0,0,0,0,0,0,0,0,-1,1994,400,0,0
777,624,0,0,0,0,0,0,0,0,0,-1,2001,400,0,0
784,624,0,0,0,0,0,0,0,0,0,-1,2008,400,0,0
791,624,0,0,0,0,0,0,0,0,0,-1,2015,400,0,0
798,624,0,0,0,0,0,0,0,0,0,-1,2022,400,0,0
805,624,0,0,0,0,0,0,0,0,0,-1,2029,400,0,0
812,624,0,0,0,0,0,0,0,0,0,-1,2036,400,0,0
-700,617,0,0,0,0,0,0,0,0,0,-1,524,407,0,0
-693,617,0,0,0,0,0,0,0,0,0,-1,531,407,0,0
-686,617,0,0,0,0,0,0,0,0,0,-1,538,407,0,0
-679,617,0,0,0,0,0,0,0,0,0,-1,545,407,0,0
-672,617,0,0,0,0,0,0,0,0,0,-1,552,407,0,0
-665,617,0,0,0,0,0,0,0,0,0,-1,559,407,0,0
-658,617,0,0,0,0,0,0,0,0,0,-1,566,407,0,0
-651,617,0,0,0,0,0,0,0,0,0,-1,573,407,0,0
-644,617,0,0,0,0,0,0,0,0,0,-1,580,407,0,0
-637,617,0,0,0,0,0,0,0,0,0,-1,587,407,0,0
-630,617,0,0,0,0,0,0,0,0,0,-1,594,407,0,0
-623,617,0,0,0,0,0,0,0,0,0,-1,601,407,0,0
-616,617,0,0,0,0,0,0,0,0,0,-1,608,407,0,0
-609,617,0,0,0,0,0,0,0,0,0,-1,615,407,0,0
-602,617,0,0,0,0,0,0,0,0,0,-1,622,407,0,0
-595,617,0,0,0,0,0,0,0,0,0,-1,629,407,0,0
-588,617,0,0,0,0,0,0,0,0,0,-1,636,407,0,0
-581,617,0,0,0,0,0,0,0,0,0,-1,643,407,0,0
-574,617,0,0,0,0,0,0,0,0,0,-1,650,407,0,0
-567,617,0,0,0,0,0,0,0,0,0,-1,657,407,0,0
-560,617,0,0,0,0,0,0,0,0,0,-1,664,407,0,0
-553,617,0,0,0,0,0,0,0,0,0,-1,671,407,0,0
-546,617,0,0,0,0,0,0,0,0,0,-1,678,407,0,0
-539,617,0,0,0,0,0,0,0,0,0,-1,685,407,0,0
-532,617,0,0,0,0,0,0,0,0,0,-1,692,407,0,0
-525,617,0,0,0,0,0,0,0,0,0,-1,699,407,0,0
-518,617,0,0,0,0,0,0,0,0,0,-1,706,407,0,0
-511,617,0,0,0,0,0,0,0,0,0,-1,713,407,0,0
-504,617,0,0,0,0,0,0,0,0,0,-1,720,407,0,0
-497,617,0,0,0,0,0,0,0,0,0,-1,727,407,0,0
-490,617,0,0,0,0,0,0,0,0,0,-1,734,407,0,0
-483,617,0,0,0,0,0,0,0,0,0,-1,741,407,0,0
-476,617,0,0,0,0,0,0,0,0,0,-1,748,407,0,0
-469,617,0,0,0,0,0,0,0,0,0,-1,755,407,0,0
-462,617,0,0,0,0,0,0,0,0,0,-1,762,407,0,0
-455,617,0,0,0,0,0,0,0,0,0,-1,769,407,0,0
-448,617,0,0,0,0,0,0,0,0,0,-1,776,407,0,0
-441,617,0,0,0,0,0,0,0,0,0,-1,783,407,0,0
-434,617,0,0,0,0,0,0,0,0,0,-1,790,407,0,0
-427,617,0,0,0,0,0,0,0,0,0,-1,797,407,0,0
-420,617,0,0,0,0,0,0,0,0,0,-1,804,407,0,0
-413,617,0,0,0,0,0,0,0,0,0,-1,811,407,0,0
-406,617,0,0,0,0,0,0,0,0,0,-1,818,407,0,0
-399,617,0,0,0,0,0,0,0,0,0,-1,825,407,0,0
-392,617,0,0,0,0,0,0,0,0,0,-1,832,407,0,0
-385,617,0,0,0,0,0,0,0,0,0,-1,839,407,0,0
-378,617,0,0,0,0,0,0,0,0,0,-1,846,407,0,0
-371,617,0,0,0,0,0,0,0,0,0,-1,853,407,0,0
-364,617,0,0,0,0,0,0,0,0,0,-1,860,407,0,0
-357,617,0,0,0,0,0,0,0,0,0,-1,867,407,0,0
-350,617,0,0,0,0,0,0,0,0,0,-1,874,407,0,0
-343,617,0,0,0,0,0,0,0,0,0,-1,881,407,0,0
-336,617,0,0,0,0,0,0,0,0,0,-1,888,407,0,0
-329,617,0,0,0,0,0,0,0,0,0,-1,895,407,0,0
-322,617,0,0,0,0,0,0,0,0,0,-1,902,407,0,0
-315,617,0,0,0,0,0,0,0,0,0,-1,909,407,0,0
-308,617,0,0,0,0,0,0,0,0,0,-1,916,407,0,0
-301,617,6.81897,-24.525,0,0,0,0,0,0,0,-1,923,407,6.81899,24.525
-294,617,6.19263,-26.917,0,0,0,0,0,0,0,-1,930,407,6.19261,26.917
-287,617,7.00409,-31.9773,0,0,0,0,0,0,0,-1,937,407,7.00406,31.9773
-280,617,6.75012,-32.2918,-0.0387169,-0.150372,0.029906,-0.0312113,-0.157878,0.245893,0.0965448,0.0429436,944,407,6.75011,32.2918
-273,617,6.56073,-32.6277,-0.0354814,-0.139881,0.0288759,-0.0280269,-0.147335,0.252642,0.0903421,0.0412903,951,407,6.56076,32.6277
-266,617,6.18488,-32.306,-0.0319312,-0.127192,0.0271116,-0.0247556,-0.134367,0.258735,0.0825727,0.0404871,958,407,6.18487,32.306
-259,617,5.99567,-32.3325,-0.0281818,-0.112345,0.0245045,-0.0215671,-0.11896,0.263656,0.0731844,0.0416318,965,407,5.99565,32.3325
-252,617,6.37415,-31.5705,0,0,0,0,0,0,0,-1,972,407,6.37413,31.5705
-245,617,6.24384,-31.1266,0,0,0,0,0,0,0,-1,979,407,6.24384,31.1266
-238,617,4.99158,-31.0628,0,0,0,0,0,0,0,-1,986,407,4.99159,31.0628
-231,617,5.40289,-31.3114,0,0,0,0,0,0,0,-1,993,407,5.40288,31.3114
-224,617,5.34344,-32.2809,0,0,0,0,0,0,0,-1,1000,407,5.34344,32.2809
-217,617,5.45715,-33.1467,0,0,0,0,0,0,0,-1,1007,407,5.45718,33.1467
-210,617,5.40271,-33.7995,-0.00412614,0.00995643,-0.00299454,0.0105667,-0.00473646,-1.36974,0.00904652,0.0352035,1014,407,5.40273,33.7995
-203,617,5.30615,-34.3471,-0.00363095,0.0190502,-0.0054415,0.0202881,-0.00486887,-1.34711,0.015407,0.0237761,1021,407,5.3062,34.3471
-196,617,5.2439,-34.8051,-0.0033534,0.0173728,-0.00628975,0.0191322,-0.00511279,-1.29804,0.0147573,0.0205461,1028,407,5.2439,34.8052
-189,617,5.16406,-35.2738,-0.00296268,0.0155604,-0.00641433,0.0175648,-0.004967,-1.26793,0.0136697,0.0200322,1035,407,5.16402,35.2738
-182,617,5.18262,-35.7979,-0.00282563,0.0134718,-0.00567579,0.0152537,-0.00460748,-1.2666,0.0120034,0.0219328,1042,407,5.18256,35.7979
-175,617,5.17346,-36.2632,-0.00265424,0.0112344,-0.00483487,0.0127517,-0.00417158,-1.2667,0.0101807,0.0185552,1049,407,5.17343,36.2632
-168,617,5.13391,-36.7767,-0.00248486,0.00980792,-0.00420386,0.011108,-0.00378498,-1.27086,0.00893827,0.0134609,1056,407,5.13397,36.7767
-161,617,5.08008,-37.2609,-0.00224262,0.00856186,-0.00367029,0.00969071,-0.00337148,-1.27241,0.00783011,0.0123572,1063,407,5.08007,37.2609
-154,617,5.04883,-37.6878,-0.00194408,0.00749357,-0.00315166,0.00844927,-0.00289979,-1.27637,0.00680849,0.0119699,1070,407,5.04878,37.6878
-147,617,5.04541,-38.1088,-0.00171036,0.00636749,-0.00265658,0.00716285,-0.00250573,-1.2799,0.00579399,0.0159349,1077,407,5.0454,38.1088
-140,617,5.04749,-38.5476,-0.00144481,0.00526554,-0.00221837,0.0059326,-0.00211187,-1.2787,0.00481593,0.0119179,1084,407,5.04754,38.5476
-133,617,4.99902,-38.9421,-0.00117896,0.00428779,-0.00183635,0.00484737,-0.00173853,-1.27501,0.00394105,0.0135371,1091,407,4.99898,38.9421
-126,617,4.96631,-39.3127,-0.00098772,0.00327582,-0.00144611,0.00372003,-0.00143193,-1.27277,0.00307071,0.0138196,1098,407,4.96634,39.3127
-119,617,4.93823,-39.7099,-0.000688846,0.00261499,-0.00117202,0.00298852,-0.00106238,-1.26226,0.00242532,0.0141689,1105,407,4.93827,39.7099
-112,617,4.94971,-40.0642,-0.000330875,0.0020578,-0.000958639,0.00239494,-0.000668017,-1.23262,0.00185973,0.0154832,1112,407,4.94972,40.0642
-105,617,4.95618,-40.4189,-1.28741e-05,0.00161539,-0.000823645,0.00195936,-0.000356845,-1.17519,0.00144,0.016343,1119,407,4.95623,40.419
-98,617,4.94348,-40.7853,0.000277203,0.00113381,-0.000707983,0.00153297,-0.000121949,-1.05743,0.00106496,0.0138184,1126,407,4.94346,40.7853
-91,617,4.92432,-41.1365,0.000605511,0.000786216,-0.000620476,0.00132288,6.88431e-05,-0.857699,0.000859894,0.0197882,1133,407,4.92434,41.1365
-84,617,4.95276,-41.4757,0.000986474,0.000472204,-0.000471761,0.00126663,0.000192053,-0.535879,0.000788237,0.0200071,1140,407,4.95272,41.4757
-77,617,4.97717,-41.7888,0.00142973,0.000287532,-0.000326608,0.00151653,0.000200736,-0.259748,0.000951195,0.0157425,1147,407,4.9772,41.7888
-70,617,5.00183,-42.0755,0.0020124,0.000164048,-0.000202342,0.00203429,0.000142156,-0.107771,0.00131138,0.0174201,1154,407,5.0018,42.0755
-63,617,5.01416,-42.3778,0.00242774,0.000378062,-0.000256111,0.00245926,0.000346545,-0.122444,0.00153707,0.0192016,1161,407,5.01413,42.3778
-56,617,4.99329,-42.6645,0.00259078,-8.63679e-05,-0.000289889,0.00262181,-0.000117398,-0.106636,0.00178829,0.0138559,1168,407,4.99331,42.6645
-49,617,5.00439,-42.9309,0.00271008,-0.000981783,-9.60811e-05,0.00271258,-0.000984282,-0.0260017,0.00221076,0.0111508,1175,407,5.00443,42.9309
-42,617,5.03101,-43.1816,0.0029503,-0.0017891,0.000363987,0.0029781,-0.00181689,0.0762046,0.00279531,0.0123863,1182,407,5.031,43.1816
-35,617,5.07007,-43.3825,0.00323334,-0.0027705,0.000576359,0.00328817,-0.00282533,0.0948442,0.003533,0.0175637,1189,407,5.07008,43.3825
-28,617,5.06409,-43.5928,0.00327152,-0.003959,0.00128729,0.00349387,-0.00418134,0.171036,0.00443721,0.0207598,1196,407,5.06408,43.5928
-21,617,5.10815,-43.7737,0.00332968,-0.00536168,0.00203978,0.00378459,-0.00581659,0.219427,0.00558447,0.0146471,1203,407,5.10819,43.7737
-14,617,5.13965,-43.9383,0.00317876,-0.00671344,0.00291445,0.00397356,-0.00750824,0.266236,0.00673291,0.015402,1210,407,5.1397,43.9383
-7,617,5.13391,-44.0638,0.00264906,-0.00776777,0.00363426,0.00379166,-0.00891037,0.304613,0.0075294,0.0188276,1217,407,5.13391,44.0638
0,617,5.19617,-44.2106,0.00176151,-0.0084038,0.00424039,0.00329809,-0.00994038,0.34765,0.00795747,0.0172536,1224,407,5.19614,44.2106
7,617,5.25085,-44.4089,0.000348963,-0.00856489,0.00500267,0.00259211,-0.010808,0.421513,0.00820699,0.0117606,1231,407,5.25079,44.4089
14,617,5.29688,-44.5435,-0.00144585,-0.00833015,0.00570004,0.00177074,-0.0115467,0.513764,0.00835089,0.0142103,1238,407,5.29685,44.5435
21,617,5.34998,-44.6443,-0.00312732,-0.00786781,0.00613012,0.00107484,-0.01207,0.600923,0.0084278,0.0137125,1245,407,5.35,44.6443
28,617,5.39722,-44.7511,-0.0049282,-0.00686415,0.00635349,0.000530632,-0.012323,0.709803,0.00839779,0.0122329,1252,407,5.3972,44.7511
35,617,5.40283,-44.8269,-0.00603035,-0.00469486,0.00557695,0.000254178,-0.0109794,0.844981,0.00740577,0.0145811,1259,407,5.4028,44.8269
42,617,5.52649,-44.8312,-0.00711537,-0.00288081,0.00507379,0.000499746,-0.0104959,0.983063,0.00716967,0.0202164,1266,407,5.52648,44.8312
49,617,5.58289,-44.8502,-0.00822511,-0.000341149,0.00438775,0.00161531,-0.0101816,1.15137,0.00738526,0.0199447,1273,407,5.58292,44.8502
56,617,5.60425,-44.8862,-0.00870674,0.00259536,0.00335305,0.00351525,-0.00962664,1.30304,0.00785618,0.0147331,1280,407,5.60426,44.8862
63,617,5.6615,-44.9004,-0.00831586,0.00463342,0.00151967,0.00480937,-0.00849181,1.45553,0.00777692,0.0113633,1287,407,5.6615,44.9004
70,617,5.69458,-44.9109,-0.00777811,0.00657839,-9.02866e-06,0.0065784,-0.00777812,-1.57017,0.00829838,0.0161169,1294,407,5.69452,44.9109
77,617,5.76636,-44.8667,-0.00731683,0.00855541,-0.00174776,0.00874558,-0.00750701,-1.46241,0.00939252,0.0145921,1301,407,5.76634,44.8667
84,617,5.8219,-44.817,-0.00637057,0.00967136,-0.00329184,0.0103206,-0.00701978,-1.37607,0.0100717,0.0112419,1308,407,5.8219,44.8169
91,617,5.8418,-44.7508,-0.00536621,0.0100311,-0.0047286,0.0113673,-0.00670243,-1.29539,0.0105478,0.0103512,1315,407,5.84174,44.7508
98,617,5.89038,-44.6813,-0.00423317,0.00945313,-0.00566181,0.0114917,-0.00627173,-1.22519,0.0104023,0.0120381,1322,407,5.89043,44.6813
105,617,5.95593,-44.5964,-0.0031105,0.00842658,-0.00634441,0.0112329,-0.00591678,-1.15434,0.0100587,0.0133996,1329,407,5.95592,44.5964
112,617,6.00525,-44.5071,-0.00196088,0.00714162,-0.00709565,0.0110202,-0.00583946,-1.07056,0.00988593,0.0160093,1336,407,6.0052,44.5071
119,617,6.0094,-44.3611,-0.000952933,0.00548734,-0.00747561,0.0104069,-0.00587245,-0.988765,0.00951962,0.0190094,1343,407,6.00939,44.3612
126,617,6.0293,-44.1887,-0.000459543,0.00383934,-0.00734877,0.00934657,-0.00596677,-0.927674,0.00891265,0.0218492,1350,407,6.0293,44.1887
133,617,6.09033,-43.9939,5.58641e-05,0.00212674,-0.00704925,0.00821619,-0.00603359,-0.85832,0.00825922,0.0192801,1357,407,6.09028,43.9939
140,617,6.15503,-43.8216,1.40339e-05,-0.000126174,-0.00597777,0.00592211,-0.00603425,-0.779535,0.00690311,0.0164947,1364,407,6.15508,43.8216
147,617,6.15442,-43.6106,0.000502953,-0.00125859,-0.00561857,0.00530937,-0.006065,-0.70765,0.00657182,0.0195004,1371,407,6.15442,43.6106
154,617,6.21228,-43.435,0.00167507,-0.00262331,-0.00535416,0.00529529,-0.00624352,-0.594539,0.00666943,0.0227215,1378,407,6.21229,43.435
161,617,6.2804,-43.2604,0.00248468,-0.00373342,-0.00487798,0.00516017,-0.0064089,-0.501678,0.00669236,0.0232062,1385,407,6.28044,43.2604
168,617,6.30347,-43.027,0.00231251,-0.00317955,-0.00341074,0.00394528,-0.00481232,-0.446473,0.00506445,0.0211935,1392,407,6.30347,43.027
175,617,6.32434,-42.7402,0.00276385,-0.00318353,-0.00270009,0.00380679,-0.00422647,-0.368607,0.00464011,0.0180396,1399,407,6.32432,42.7402
182,617,6.34766,-42.4478,0.00332312,-0.00300497,-0.00203435,0.00392069,-0.00360254,-0.285705,0.00434483,0.0124635,1406,407,6.34762,42.4478
189,617,6.34326,-42.1537,0.00281512,-0.00169099,-0.00165032,0.00335488,-0.00223075,-0.316097,0.00324656,0.0116109,1413,407,6.34327,42.1537
196,617,6.32397,-41.8511,0.00251287,-0.000500041,-0.0011648,0.00291067,-0.000897835,-0.329094,0.00229893,0.0148483,1420,407,6.32397,41.8511
203,617,6.33435,-41.542,0.00215072,0.000631539,-0.00069331,0.00241956,0.000362705,-0.369905,0.00150676,0.0164592,1427,407,6.33435,41.542
210,617,6.38196,-41.1895,0.00164052,0.00140317,-0.000242874,0.00179216,0.00125153,-0.558144,0.00106149,0.015721,1434,407,6.38193,41.1895
217,617,6.3988,-40.8166,0.00126609,0.00212639,0.00016769,0.00215792,0.00123456,1.38494,0.00125019,0.0203559,1441,407,6.39875,40.8166
224,617,6.39758,-40.4775,0.00108939,0.00288683,0.000615523,0.00307741,0.000898816,1.27054,0.00182724,0.0206299,1448,407,6.39756,40.4775
231,617,6.40955,-40.1326,0.00105592,0.00356635,0.00111751,0.00399173,0.000630544,1.20708,0.00247786,0.0149763,1455,407,6.40954,40.1326
238,617,6.40186,-39.7712,0.0011845,0.00435765,0.00170617,0.00510093,0.000441221,1.15994,0.00326351,0.0154848,1462,407,6.40186,39.7712
245,617,6.3855,-39.3862,0.00136726,0.00512672,0.00217933,0.00612499,0.000368992,1.14126,0.00396606,0.0138969,1469,407,6.38554,39.3862
252,617,6.34668,-38.9526,0.00162653,0.00599268,0.00267571,0.0072629,0.000356311,1.12758,0.00472764,0.0148456,1476,407,6.34673,38.9526
259,617,6.33118,-38.5083,0.00190603,0.00694846,0.00329716,0.00857788,0.000276603,1.11181,0.00562865,0.0127012,1483,407,6.33113,38.5083
266,617,6.34241,-38.0599,0.00220758,0.00791113,0.00398907,0.00996296,0.000155758,1.09573,0.00659066,0.0144704,1490,407,6.34245,38.0599
273,617,6.31738,-37.5913,0.00248488,0.00894218,0.00466515,0.011387,4.00972e-05,1.08809,0.00757798,0.0145717,1497,407,6.31733,37.5913
280,617,6.26526,-37.1504,0.00275491,0.0100041,0.00537374,0.0128614,-0.000102373,1.0821,0.00860858,0.0129347,1504,407,6.2652,37.1504
287,617,6.22327,-36.6871,0.00299975,0.011121,0.0061255,0.0144095,-0.000288806,1.07809,0.00970406,0.0122981,1511,407,6.22328,36.6871
294,617,6.20154,-36.2161,0.00312287,0.0121377,0.0067958,0.015785,-0.000524449,1.07822,0.0107025,0.0105668,1518,407,6.20151,36.2161
301,617,6.17065,-35.7526,0.00308453,0.0129906,0.0073368,0.0168897,-0.000814619,1.08231,0.011541,0.00848271,1525,407,6.17061,35.7526
308,617,6.14001,-35.2624,0.00299332,0.0137781,0.007856,0.0179143,-0.00114292,1.08617,0.0123415,0.00864003,1532,407,6.14006,35.2624
315,617,6.12268,-34.7806,0.00272195,0.0145551,0.00830704,0.0188372,-0.00156015,1.09484,0.0131091,0.0101286,1539,407,6.12265,34.7806
322,617,6.07922,-34.2408,0.00208618,0.0151099,0.00858733,0.0193752,-0.0021791,1.1098,0.013701,0.0153901,1546,407,6.07919,34.2408
329,617,6.04138,-33.6837,0.00136861,0.0156068,0.00873656,0.0197575,-0.00278212,1.12727,0.0141903,0.0187977,1553,407,6.04137,33.6837
336,617,6.09558,-33.0516,0.000320997,0.0157427,0.00865282,0.0196218,-0.00355817,1.14935,0.0144144,0.0350298,1560,407,6.09556,33.0516
343,617,6.14966,-32.5489,0,0,0,0,0,0,0,-1,1567,407,6.14972,32.5489
350,617,5.79761,-32.153,0,0,0,0,0,0,0,-1,1574,407,5.79758,32.1529
357,617,2.1748,-7.16504,0,0,0,0,0,0,0,-1,1581,407,2.1748,7.16505
364,617,2.30127,-7.60257,0,0,0,0,0,0,0,-1,1588,407,2.30125,7.60258
371,617,2.60266,-6.20667,0,0,0,0,0,0,0,-1,1595,407,2.60261,6.20668
378,617,1.56921,-10.3601,0,0,0,0,0,0,0,-1,1602,407,1.56918,10.3601
385,617,1.74146,-10.3561,0,0,0,0,0,0,0,-1,1609,407,1.7414,10.3561
392,617,1.96936,-5.10449,0,0,0,0,0,0,0,-1,1616,407,1.96931,5.10451
399,617,2.48889,-5.81256,0,0,0,0,0,0,0,-1,1623,407,2.48888,5.81255
406,617,3.01465,-6.51642,0,0,0,0,0,0,0,-1,1630,407,3.01461,6.51643
413,617,3.6427,-7.2074,0,0,0,0,0,0,0,-1,1637,407,3.64274,7.20739
420,617,3.42737,-4.47391,0,0,0,0,0,0,0,-1,1644,407,3.42737,4.47391
427,617,0,0,0,0,0,0,0,0,0,-1,1651,407,0,0
434,617,0,0,0,0,0,0,0,0,0,-1,1658,407,0,0
441,617,0,0,0,0,0,0,0,0,0,-1,1665,407,0,0
448,617,0,0,0,0,0,0,0,0,0,-1,1672,407,0,0
455,617,0,0,0,0,0,0,0,0,0,-1,1679,407,0,0
462,617,0,0,0,0,0,0,0,0,0,-1,1686,407,0,0
469,617,0,0,0,0,0,0,0,0,0,-1,1693,407,0,0
476,617,0,0,0,0,0,0,0,0,0,-1,1700,407,0,0
483,617,0,0,0,0,0,0,0,0,0,-1,1707,407,0,0
490,617,0,0,0,0,0,0,0,0,0,-1,1714,407,0,0
497,617,0,0,0,0,0,0,0,0,0,-1,1721,407,0,0
504,617,0,0,0,0,0,0,0,0,0,-1,1728,407,0,0
511,617,0,0,0,0,0,0,0,0,0,-1,1735,407,0,0
518,617,0,0,0,0,0,0,0,0,0,-1,1742,407,0,0
525,617,0,0,0,0,0,0,0,0,0,-1,1749,407,0,0
532,617,0,0,0,0,0,0,0,0,0,-1,1756,407,0,0
539,617,0,0,0,0,0,0,0,0,0,-1,1763,407,0,0
546,617,0,0,0,0,0,0,0,0,0,-1,1770,407,0,0
553,617,0,0,0,0,0,0,0,0,0,-1,1777,407,0,0
560,617,0,0,0,0,0,0,0,0,0,-1,1784,407,0,0
567,617,0,0,0,0,0,0,0,0,0,-1,1791,407,0,0
574,617,0,0,0,0,0,0,0,0,0,-1,1798,407,0,0
581,617,0,0,0,0,0,0,0,0,0,-1,1805,407,0,0
588,617,0,0,0,0,0,0,0,0,0,-1,1812,407,0,0
595,617,0,0,0,0,0,0,0,0,0,-1,1819,407,0,0
602,617,0,0,0,0,0,0,0,0,0,-1,1826,407,0,0
609,617,0,0,0,0,0,0,0,0,0,-1,1833,407,0,0
616,617,0,0,0,0,0,0,0,0,0,-1,1840,407,0,0
623,617,0,0,0,0,0,0,0,0,0,-1,1847,407,0,0
630,617,0,0,0,0,0,0,0,0,0,-1,1854,407,0,0
637,617,0,0,0,0,0,0,0,0,0,-1,1861,407,0,0
644,617,0,0,0,0,0,0,0,0,0,-1,1868,407,0,0
651,617,0,0,0,0,0,0,0,0,0,-1,1875,407,0,0
658,617,0,0,0,0,0,0,0,0,0,-1,1882,407,0,0
665,617,0,0,0,0,0,0,0,0,0,-1,1889,407,0,0
672,617,0,0,0,0,0,0,0,0,0,-1,1896,407,0,0
679,617,0,0,0,0,0,0,0,0,0,-1,1903,407,0,0
686,617,0,0,0,0,0,0,0,0,0,-1,1910,407,0,0
693,617,0,0,0,0,0,0,0,0,0,-1,1917,407,0,0
700,617,0,0,0,0,0,0,0,0,0,-1,1924,407,0,0
707,617,0,0,0,0,0,0,0,0,0,-1,1931,407,0,0
714,617,0,0,0,0,0,0,0,0,0,-1,1938,407,0,0
721,617,0,0,0,0,0,0,0,0,0,-1,1945,407,0,0
728,617,0,0,0,0,0,0,0,0,0,-1,1952,407,0,0
735,617,0,0,0,0,0,0,0,0,0,-1,1959,407,0,0
742,617,0,0,0,0,0,0,0,0,0,-1,1966,407,0,0
749,617,0,0,0,0,0,0,0,0,0,-1,1973,407,0,0
756,617,0,0,0,0,0,0,0,0,0,-1,1980,407,0,0
763,617,0,0,0,0,0,0,0,0,0,-1,1987,407,0,0
770,617,0,0,0,0,0,0,0,0,0,-1,1994,407,0,0
777,617,0,0,0,0,0,0,0,0,0,-1,2001,407,0,0
784,617,0,0,0,0,0,0,0,0,0,-1,2008,407,0,0
791,617,0,0,0,0,0,0,0,0,0,-1,2015,407,0,0
798,617,0,0,0,0,0,0,0,0,0,-1,2022,407,0,0
805,617,0,0,0,0,0,0,0,0,0,-1,2029,407,0,0
812,617,0,0,0,0,0,0,0,0,0,-1,2036,407,0,0
-700,610,0,0,0,0,0,0,0,0,0,-1,524,414,0,0
-693,610,0,0,0,0,0,0,0,0,0,-1,531,414,0,0
-686,610,0,0,0,0,0,0,0,0,0,-1,538,414,0,0
-679,610,0,0,0,0,0,0,0,0,0,-1,545,414,0,0
-672,610,0,0,0,0,0,0,0,0,0,-1,552,414,0,0
-665,610,0,0,0,0,0,0,0,0,0,-1,559,414,0,0
-658,610,0,0,0,0,0,0,0,0,0,-1,566,414,0,0
-651,610,0,0,0,0,0,0,0,0,0,-1,573,414,0,0
-644,610,0,0,0,0,0,0,0,0,0,-1,580,414,0,0
-637,610,0,0,0,0,0,0,0,0,0,-1,587,414,0,0
-630,610,0,0,0,0,0,0,0,0,0,-1,594,414,0,0
-623,610,0,0,0,0,0,0,0,0,0,-1,601,414,0,0
-616,610,0,0,0,0,0,0,0,0,0,-1,608,414,0,0
-609,610,0,0,0,0,0,0,0,0,0,-1,615,414,0,0
-602,610,0,0,0,0,0,0,0,0,0,-1,622,414,0,0
-595,610,0,0,0,0,0,0,0,0,0,-1,629,414,0,0
-588,610,0,0,0,0,0,0,0,0,0,-1,636,414,0,0
-581,610,0,0,0,0,0,0,0,0,0,-1,643,414,0,0
-574,610,0,0,0,0,0,0,0,0,0,-1,650,414,0,0
-567,610,0,0,0,0,0,0,0,0,0,-1,657,414,0,0
-560,610,0,0,0,0,0,0,0,0,0,-1,664,414,0,0
-553,610,0,0,0,0,0,0,0,0,0,-1,671,414,0,0
-546,610,0,0,0,0,0,0,0,0,0,-1,678,414,0,0
-539,610,0,0,0,0,0,0,0,0,0,-1,685,414,0,0
-532,610,0,0,0,0,0,0,0,0,0,-1,692,414,0,0
-525,610,0,0,0,0,0,0,0,0,0,-1,699,414,0,0
-518,610,0,0,0,0,0,0,0,0,0,-1,706,414,0,0
-511,610,0,0,0,0,0,0,0,0,0,-1,713,414,0,0
-504,610,0,0,0,0,0,0,0,0,0,-1,720,414,0,0
-497,610,0,0,0,0,0,0,0,0,0,-1,727,414,0,0
-490,610,0,0,0,0,0,0,0,0,0,-1,734,414,0,0
-483,610,0,0,0,0,0,0,0,0,0,-1,741,414,0,0
-476,610,0,0,0,0,0,0,0,0,0,-1,748,414,0,0
-469,610,0,0,0,0,0,0,0,0,0,-1,755,414,0,0
-462,610,0,0,0,0,0,0,0,0,0,-1,762,414,0,0
-455,610,0,0,0,0,0,0,0,0,0,-1,769,414,0,0
-448,610,0,0,0,0,0,0,0,0,0,-1,776,414,0,0
-441,610,0,0,0,0,0,0,0,0,0,-1,783,414,0,0
-434,610,0,0,0,0,0,0,0,0,0,-1,790,414,0,0
-427,610,0,0,0,0,0,0,0,0,0,-1,797,414,0,0
-420,610,0,0,0,0,0,0,0,0,0,-1,804,414,0,0
-413,610,0,0,0,0,0,0,0,0,0,-1,811,414,0,0
-406,610,0,0,0,0,0,0,0,0,0,-1,818,414,0,0
-399,610,0,0,0,0,0,0,0,0,0,-1,825,414,0,0
-392,610,0,0,0,0,0,0,0,0,0,-1,832,414,0,0
-385,610,0,0,0,0,0,0,0,0,0,-1,839,414,0,0
-378,610,0,0,0,0,0,0,0,0,0,-1,846,414,0,0
-371,610,0,0,0,0,0,0,0,0,0,-1,853,414,0,0
-364,610,0,0,0,0,0,0,0,0,0,-1,860,414,0,0
-357,610,0,0,0,0,0,0,0,0,0,-1,867,414,0,0
-350,610,0,0,0,0,0,0,0,0,0,-1,874,414,0,0
-343,610,0,0,0,0,0,0,0,0,0,-1,881,414,0,0
-336,610,0,0,0,0,0,0,0,0,0,-1,888,414,0,0
-329,610,0,0,0,0,0,0,0,0,0,-1,895,414,0,0
-322,610,0,0,0,0,0,0,0,0,0,-1,902,414,0,0
-315,610,7.68475,-21.5402,0,0,0,0,0,0,0,-1,909,414,7.68475,21.5402
-308,610,3.97211,-23.4133,0,0,0,0,0,0,0,-1,916,414,3.9721,23.4133
-301,610,7.38513,-22.4166,0,0,0,0,0,0,0,-1,923,414,7.38516,22.4166
-294,610,6.77832,-24.1945,0,0,0,0,0,0,0,-1,930,414,6.77829,24.1946
-287,610,3.39276,-28.5804,0,0,0,0,0,0,0,-1,937,414,3.39276,28.5803
-280,610,5.99969,-30.7691,0,0,0,0,0,0,0,-1,944,414,5.99967,30.7691
-273,610,5.82672,-30.7154,-0.0265314,-0.108032,0.0220888,-0.0209298,-0.113634,0.248359,0.0698329,0.0424341,951,414,5.82671,30.7154
-266,610,5.55579,-30.7211,-0.0239758,-0.0972982,0.0205499,-0.0186092,-0.102665,0.255447,0.0631607,0.0419816,958,414,5.5558,30.7211
-259,610,5.57623,-30.6933,-0.0211947,-0.0846421,0.0185458,-0.0161714,-0.0896653,0.264511,0.055182,0.0420647,965,414,5.57623,30.6933
-252,610,5.65973,-30.8584,-0.0182112,-0.0711993,0.0157802,-0.0138678,-0.0755427,0.268594,0.0464347,0.0463354,972,414,5.65973,30.8584
-245,610,5.43384,-31.0472,-0.015275,-0.0571423,0.0128167,-0.0116631,-0.0607543,0.27469,0.0372292,0.0494558,979,414,5.43381,31.0472
-238,610,4.98505,-31.1445,0,0,0,0,0,0,0,-1,986,414,4.98505,31.1445
-231,610,4.93402,-31.7753,-0.00988514,-0.0293558,0.00643628,-0.0079499,-0.031291,0.292078,0.0187802,0.0429925,993,414,4.934,31.7753
-224,610,4.92139,-32.577,-0.00645206,-0.0152103,0.00291437,-0.00557093,-0.0160914,0.293602,0.00943575,0.0298573,1000,414,4.92139,32.577
-217,610,4.94421,-33.2819,-0.00390778,-0.00184367,-0.000106141,-0.00183822,-0.00391323,-1.51955,0.00226068,0.0197417,1007,414,4.94421,33.2819
-210,610,4.90186,-33.896,-0.00281002,0.009139,-0.00276735,0.00974879,-0.0034198,-1.35391,0.00789016,0.0139306,1014,414,4.90185,33.896
-203,610,4.86951,-34.4233,-0.00242119,0.0146957,-0.00430126,0.0157158,-0.00344125,-1.33794,0.0117928,0.0161041,1021,414,4.86956,34.4233
-196,610,4.82849,-34.9217,-0.00215203,0.0132677,-0.00484182,0.0146619,-0.0035463,-1.29042,0.0111464,0.0144515,1028,414,4.82855,34.9217
-189,610,4.78699,-35.3969,-0.00181808,0.0116105,-0.00485569,0.0131823,-0.00338989,-1.25774,0.0101094,0.0120026,1035,414,4.78702,35.3968
-182,610,4.76147,-35.8632,-0.00168076,0.00975559,-0.00420736,0.0111367,-0.00306184,-1.25363,0.00862809,0.0132174,1042,414,4.76151,35.8631
-175,610,4.74036,-36.3106,-0.00152682,0.00772869,-0.00346571,0.00888256,-0.0026807,-1.2494,0.0069888,0.014497,1049,414,4.74039,36.3106
-168,610,4.68665,-36.7775,-0.00139306,0.00624842,-0.00288368,0.0072145,-0.00235914,-1.24753,0.00575942,0.0132186,1056,414,4.68669,36.7775
-161,610,4.65845,-37.292,-0.00120867,0.00495629,-0.00238635,0.00577207,-0.00202444,-1.2414,0.00467144,0.0118473,1063,414,4.6584,37.292
-154,610,4.64563,-37.7278,-0.000956969,0.00384408,-0.00192345,0.00451963,-0.00163251,-1.23304,0.00368,0.0144181,1070,414,4.64564,37.7279
-147,610,4.6499,-38.1028,-0.000747837,0.00267469,-0.00147693,0.0032239,-0.00129705,-1.21478,0.00268803,0.0167495,1077,414,4.64993,38.1029
-140,610,4.64355,-38.5322,-0.000506813,0.00152355,-0.00108372,0.00199331,-0.000976568,-1.16178,0.00174783,0.0130927,1084,414,4.64355,38.5322
-133,610,4.61755,-38.9248,-0.000262463,0.000507549,-0.000751034,0.000966511,-0.000721425,-1.02225,0.000977949,0.0145785,1091,414,4.6176,38.9248
-126,610,4.58521,-39.298,-4.95266e-05,-0.000433401,-0.000444682,0.000242872,-0.0007258,-0.581663,0.00058197,0.0131415,1098,414,4.58524,39.298
-119,610,4.60083,-39.6971,0.000263612,-0.00106743,-0.000237404,0.000304687,-0.00110851,-0.171323,0.000858778,0.0111446,1105,414,4.60088,39.6971
-112,610,4.59399,-40.0595,0.000622854,-0.00154395,-0.000115998,0.000629046,-0.00155014,-0.0533312,0.00129508,0.0189066,1112,414,4.59393,40.0595
-105,610,4.56909,-40.4079,0.000957635,-0.00182861,-6.34293e-05,0.000959078,-0.00183005,-0.0227494,0.00163627,0.0179173,1119,414,4.56905,40.4079
-98,610,4.60901,-40.7657,0.00130878,-0.00209383,-2.53727e-05,0.00130896,-0.00209402,-0.00745631,0.00198206,0.0134298,1126,414,4.60897,40.7657
-91,610,4.60083,-41.1105,0.00171587,-0.00214486,-3.47863e-05,0.00171619,-0.00214518,-0.0090093,0.00223394,0.0157197,1133,414,4.60082,41.1105
-84,610,4.62158,-41.4485,0.00217078,-0.00198739,4.00879e-05,0.00217117,-0.00198778,0.00963955,0.00240194,0.0168765,1140,414,4.62157,41.4485
-77,610,4.64111,-41.7837,0.00275322,-0.00185087,0.00016255,0.00275895,-0.0018566,0.0352471,0.00268171,0.0137179,1147,414,4.64109,41.7837
-70,610,4.69177,-42.1084,0.0036192,-0.00166243,0.000247278,0.00363075,-0.00167398,0.0466824,0.00313137,0.0164698,1154,414,4.69182,42.1084
-63,610,4.72229,-42.4089,0.00412607,-0.000689249,-5.86266e-05,0.00412678,-0.000689963,-0.0121726,0.00300767,0.0160001,1161,414,4.72231,42.4089
-56,610,4.74512,-42.6734,0.00420266,-0.0010102,-0.000307686,0.00422075,-0.0010283,-0.0587525,0.00321195,0.0135149,1168,414,4.7451,42.6734
-49,610,4.75269,-42.9143,0.00420617,-0.00204049,-0.000135363,0.0042091,-0.00204342,-0.0216561,0.00368137,0.0133712,1175,414,4.75273,42.9143
-42,610,4.78394,-43.1545,0.00392039,-0.00252942,0.000674281,0.00399013,-0.00259916,0.103058,0.00383248,0.0168165,1182,414,4.78396,43.1545
-35,610,4.8302,-43.3545,0.00366194,-0.00311747,0.00110893,0.00383872,-0.00329425,0.158086,0.00412222,0.0169782,1189,414,4.83015,43.3545
-28,610,4.86853,-43.5628,0.00309734,-0.00411067,0.00232617,0.00378285,-0.00479618,0.286581,0.00496461,0.014307,1196,414,4.86859,43.5628
-21,610,4.91101,-43.7422,0.00279567,-0.00558982,0.00351391,0.00407346,-0.0068676,0.34877,0.00638512,0.0114616,1203,414,4.91097,43.7422
-14,610,4.95129,-43.9029,0.00199599,-0.00676943,0.00485463,0.00415359,-0.00892702,0.418221,0.00771789,0.0123207,1210,414,4.9513,43.9029
-7,610,5.01355,-44.0345,0.000676177,-0.00756747,0.00596392,0.00380403,-0.0106953,0.483025,0.00868065,0.0147834,1217,414,5.01359,44.0345
0,610,5.0647,-44.2164,-0.000895646,-0.0080193,0.0068365,0.00325125,-0.0121662,0.545245,0.0093842,0.0120371,1224,414,5.06472,44.2164
7,610,5.10669,-44.3779,-0.00303247,-0.00795597,0.00783602,0.00271939,-0.0137078,0.633201,0.010167,0.0126045,1231,414,5.10674,44.3779
14,610,5.24402,-44.453,-0.00554172,-0.00751217,0.00870154,0.0022302,-0.0152841,0.729026,0.0110083,0.0169323,1238,414,5.24401,44.453
21,610,5.32581,-44.5285,-0.0078966,-0.00686817,0.00920813,0.00184009,-0.0166049,0.813291,0.0117315,0.0171569,1245,414,5.32585,44.5285
28,610,5.3103,-44.6615,-0.0103089,-0.00565137,0.00942013,0.00172358,-0.0176838,0.906574,0.0124037,0.0176316,1252,414,5.31026,44.6615
35,610,5.45374,-44.7392,-0.0117446,-0.00306334,0.00832424,0.00198401,-0.0167919,1.02573,0.0119112,0.0204671,1259,414,5.45372,44.7392
42,610,5.49841,-44.7724,-0.0131034,-0.000944413,0.00758041,0.00269323,-0.0167411,1.12338,0.0121583,0.0185574,1266,414,5.49842,44.7724
49,610,5.55347,-44.8419,-0.0143636,0.0019586,0.00656885,0.00427382,-0.0166788,1.23194,0.0127842,0.0175241,1273,414,5.55347,44.8419
56,610,5.62061,-44.8536,-0.0146642,0.0052698,0.00507543,0.00648766,-0.0158821,1.3353,0.0132894,0.0167844,1280,414,5.62056,44.8536
63,610,5.62476,-44.7886,-0.0138267,0.00745071,0.00252681,0.00774667,-0.0141227,1.4542,0.0128039,0.0238721,1287,414,5.62475,44.7886
70,610,5.69043,-44.7141,-0.0128595,0.00968016,0.000275186,0.00968352,-0.0128628,1.55859,0.0130602,0.0331534,1294,414,5.69045,44.7141
77,610,5.79395,-44.7266,-0.0121398,0.0121154,-0.00227407,0.0123267,-0.0123512,-1.47812,0.0142478,0.0395896,1301,414,5.79396,44.7266
84,610,5.90369,-44.7705,-0.010814,0.0135743,-0.00450023,0.0143782,-0.0116179,-1.39403,0.0150371,0.0363453,1308,414,5.90364,44.7705
91,610,5.97705,-44.715,-0.00933381,0.0141295,-0.0066659,0.015891,-0.0110953,-1.31244,0.0156624,0.0280634,1315,414,5.977,44.715
98,610,6.07825,-44.6539,-0.00770232,0.0136098,-0.00826807,0.0164412,-0.0105338,-1.24086,0.015698,0.0261844,1322,414,6.07831,44.6539
105,610,6.1073,-44.5386,-0.00625606,0.0125752,-0.00949334,0.0165303,-0.0102112,-1.17604,0.0155823,0.0207818,1329,414,6.10735,44.5386
112,610,6.13477,-44.4473,-0.00482884,0.0112462,-0.0108327,0.0166975,-0.0102802,-1.10457,0.0157218,0.0139371,1336,414,6.13477,44.4473
119,610,6.15918,-44.3266,-0.00359302,0.00947368,-0.0116887,0.016331,-0.0104504,-1.04024,0.015586,0.0213138,1343,414,6.15919,44.3266
126,610,6.23254,-44.1703,-0.00295622,0.00760244,-0.0118246,0.0152727,-0.0106265,-0.995356,0.0150329,0.0312274,1350,414,6.23252,44.1703
133,610,6.36194,-43.9926,-0.00234039,0.0055136,-0.0115824,0.0138166,-0.0106434,-0.948841,0.0141615,0.0233024,1357,414,6.36194,43.9926
140,610,6.42834,-43.8134,-0.00244487,0.0025984,-0.0102476,0.01063,-0.0104765,-0.906037,0.012186,0.0182325,1364,414,6.42837,43.8134
147,610,6.39343,-43.5918,-0.00175179,0.00105212,-0.00983969,0.00958923,-0.0102889,-0.856161,0.011479,0.0197129,1371,414,6.39343,43.5918
154,610,6.42798,-43.3947,3.9783e-05,-0.00107116,-0.00951268,0.00901319,-0.0100446,-0.756235,0.0110084,0.0242739,1378,414,6.42792,43.3947
161,610,6.49951,-43.1935,0.00141625,-0.00324754,-0.00882102,0.0082084,-0.0100397,-0.656176,0.0105532,0.0268822,1385,414,6.49955,43.1934
168,610,6.55042,-42.9554,0.00139498,-0.00319373,-0.00628503,0.00579134,-0.0075901,-0.610388,0.00774901,0.0254396,1392,414,6.55046,42.9553
175,610,6.58838,-42.7058,0.00294465,-0.00472524,-0.00492752,0.00535368,-0.00713427,-0.454723,0.00723431,0.0210927,1399,414,6.58837,42.7058
182,610,6.63257,-42.4384,0.00500353,-0.00618263,-0.0035285,0.00602353,-0.00720263,-0.281404,0.00764624,0.0157371,1406,414,6.63256,42.4384
189,610,6.64807,-42.1417,0.00440298,-0.00453388,-0.00308798,0.00536617,-0.00549707,-0.302353,0.00627205,0.0143199,1413,414,6.64804,42.1417
196,610,6.64905,-41.8515,0.004037,-0.00302005,-0.00252556,0.00484771,-0.00383076,-0.310611,0.00502197,0.0140169,1420,414,6.64903,41.8515
203,610,6.65247,-41.5424,0.00353439,-0.00158991,-0.0019845,0.00421306,-0.00226858,-0.329513,0.00379789,0.0145055,1427,414,6.65244,41.5425
210,610,6.68811,-41.2116,0.00282296,-0.00059621,-0.0014467,0.00335293,-0.00112619,-0.351151,0.00269043,0.0110394,1434,414,6.68812,41.2116
217,610,6.73975,-40.8382,0.00220169,0.00029141,-0.000923981,0.00257547,-8.23723e-05,-0.384409,0.00174508,0.0168477,1441,414,6.73969,40.8382
224,610,6.75964,-40.4654,0.00178949,0.00123879,-0.000410613,0.00200853,0.00101975,-0.490042,0.00115967,0.0211894,1448,414,6.75966,40.4654
231,610,6.76257,-40.1126,0.00148048,0.00195069,0.000102947,0.00197224,0.00145893,1.36443,0.0011815,0.016858,1455,414,6.76259,40.1126
238,610,6.76038,-39.7429,0.00139015,0.00267361,0.000591272,0.00290447,0.00115928,1.19855,0.00168823,0.0116128,1462,414,6.76034,39.7429
245,610,6.77576,-39.3371,0.00145817,0.00336723,0.00101421,0.00380544,0.00101995,1.16295,0.00227453,0.0128251,1469,414,6.77577,39.3371
252,610,6.75806,-38.9219,0.00155438,0.00410673,0.00144084,0.0047553,0.000905816,1.14783,0.00291555,0.01441,1476,414,6.75807,38.9219
259,610,6.75256,-38.478,0.00164723,0.0048226,0.00194078,0.00574238,0.000727452,1.12823,0.00361028,0.0124865,1483,414,6.75258,38.478
266,610,6.75354,-38.0458,0.00178738,0.00554226,0.0024846,0.00677898,0.000550659,1.10895,0.00434741,0.0126657,1490,414,6.75348,38.0458
273,610,6.72424,-37.599,0.00194412,0.00633016,0.00303569,0.00788211,0.000392174,1.0982,0.00512901,0.0104595,1497,414,6.72426,37.599
280,610,6.69727,-37.1371,0.00210313,0.00714741,0.00362061,0.00903776,0.000212783,1.08962,0.00595551,0.0100144,1504,414,6.69731,37.1371
287,610,6.66125,-36.6581,0.00225113,0.00800218,0.00424464,0.0102536,-2.94764e-07,1.08311,0.00683583,0.0132959,1511,414,6.66129,36.6581
294,610,6.66345,-36.2,0.00230458,0.00879648,0.00481023,0.0113535,-0.000252442,1.0822,0.00765454,0.0119818,1518,414,6.66349,36.2
301,610,6.66089,-35.7899,0.00222841,0.0094659,0.00527443,0.0122436,-0.000549325,1.08606,0.00835156,0.0108696,1525,414,6.66088,35.7899
308,610,6.61914,-35.2939,0.00211347,0.0100875,0.00571652,0.0130701,-0.000869086,1.08991,0.00901704,0.0124628,1532,414,6.61919,35.2939
315,610,6.57239,-34.8062,0.00183213,0.010753,0.00609587,0.013846,-0.00126093,1.10125,0.00967842,0.0137255,1539,414,6.57238,34.8061
322,610,6.54565,-34.2696,0.00124213,0.0112605,0.00631309,0.0143103,-0.00180766,1.12077,0.0101963,0.0124999,1546,414,6.54561,34.2696
329,610,6.51111,-33.732,0.000604917,0.0116689,0.00643901,0.014626,-0.00235213,1.14029,0.0106218,0.0112596,1553,414,6.51108,33.732
336,610,6.49109,-33.2295,-0.000228498,0.011853,0.00640928,0.0146196,-0.00299511,1.1633,0.010883,0.0117996,1560,414,6.49108,33.2295
343,610,6.45935,-32.6878,-0.00114611,0.0120178,0.00614754,0.0144422,-0.00357051,1.19515,0.0110129,0.0169246,1567,414,6.45937,32.6878
350,610,6.36597,-32.174,-0.00181499,0.01291,0.00638547,0.0152933,-0.0041983,1.21357,0.0118456,0.0397294,1574,414,6.36595,32.174
357,610,6.32385,-31.3462,0,0,0,0,0,0,0,-1,1581,414,6.32386,31.3462
364,610,6.58911,-30.8468,0,0,0,0,0,0,0,-1,1588,414,6.58916,30.8468
371,610,6.14502,-30.2501,0,0,0,0,0,0,0,-1,1595,414,6.14501,30.2501
378,610,3.5752,-12.1958,0,0,0,0,0,0,0,-1,1602,414,3.57517,12.1958
385,610,2.57104,-10.3878,0,0,0,0,0,0,0,-1,1609,414,2.57109,10.3878
392,610,1.99744,-1.83582,0,0,0,0,0,0,0,-1,1616,414,1.99741,1.8358
399,610,2.77136,-2.60333,0,0,0,0,0,0,0,-1,1623,414,2.77133,2.60332
406,610,3.54529,-3.37085,0,0,0,0,0,0,0,-1,1630,414,3.54525,3.37084
413,610,3.01929,-3.20306,0,0,0,0,0,0,0,-1,1637,414,3.01929,3.20306
420,610,4.78149,-3.64041,0,0,0,0,0,0,0,-1,1644,414,4.78152,3.64042
427,610,8.85168,-23.3853,0,0,0,0,0,0,0,-1,1651,414,8.85174,23.3853
434,610,8.73706,-22.6227,0,0,0,0,0,0,0,-1,1658,414,8.73703,22.6227
441,610,0,0,0,0,0,0,0,0,0,-1,1665,414,0,0
448,610,0,0,0,0,0,0,0,0,0,-1,1672,414,0,0
455,610,0,0,0,0,0,0,0,0,0,-1,1679,414,0,0
462,610,0,0,0,0,0,0,0,0,0,-1,1686,414,0,0
469,610,0,0,0,0,0,0,0,0,0,-1,1693,414,0,0
476,610,0,0,0,0,0,0,0,0,0,-1,1700,414,0,0
483,610,0,0,0,0,0,0,0,0,0,-1,1707,414,0,0
490,610,0,0,0,0,0,0,0,0,0,-1,1714,414,0,0
497,610,0,0,0,0,0,0,0,0,0,-1,1721,414,0,0
504,610,0,0,0,0,0,0,0,0,0,-1,1728,414,0,0
511,610,0,0,0,0,0,0,0,0,0,-1,1735,414,0,0
518,610,0,0,0,0,0,0,0,0,0,-1,1742,414,0,0
525,610,0,0,0,0,0,0,0,0,0,-1,1749,414,0,0
532,610,0,0,0,0,0,0,0,0,0,-1,1756,414,0,0
539,610,0,0,0,0,0,0,0,0,0,-1,1763,414,0,0
546,610,0,0,0,0,0,0,0,0,0,-1,1770,414,0,0
553,610,0,0,0,0,0,0,0,0,0,-1,1777,414,0,0
560,610,0,0,0,0,0,0,0,0,0,-1,1784,414,0,0
567,610,0,0,0,0,0,0,0,0,0,-1,1791,414,0,0
574,610,0,0,0,0,0,0,0,0,0,-1,1798,414,0,0
581,610,0,0,0,0,0,0,0,0,0,-1,1805,414,0,0
588,610,0,0,0,0,0,0,0,0,0,-1,1812,414,0,0
595,610,0,0,0,0,0,0,0,0,0,-1,1819,414,0,0
602,610,0,0,0,0,0,0,0,0,0,-1,1826,414,0,0
609,610,0,0,0,0,0,0,0,0,0,-1,1833,414,0,0
616,610,0,0,0,0,0,0,0,0,0,-1,1840,414,0,0
623,610,0,0,0,0,0,0,0,0,0,-1,1847,414,0,0
630,610,0,0,0,0,0,0,0,0,0,-1,1854,414,0,0
637,610,0,0,0,0,0,0,0,0,0,-1,1861,414,0,0
644,610,0,0,0,0,0,0,0,0,0,-1,1868,414,0,0
651,610,0,0,0,0,0,0,0,0,0,-1,1875,414,0,0
658,610,0,0,0,0,0,0,0,0,0,-1,1882,414,0,0
665,610,0,0,0,0,0,0,0,0,0,-1,1889,414,0,0
672,610,0,0,0,0,0,0,0,0,0,-1,1896,414,0,0
679,610,0,0,0,0,0,0,0,0,0,-1,1903,414,0,0
686,610,0,0,0,0,0,0,0,0,0,-1,1910,414,0,0
693,610,0,0,0,0,0,0,0,0,0,-1,1917,414,0,0
700,610,0,0,0,0,0,0,0,0,0,-1,1924,414,0,0
707,610,0,0,0,0,0,0,0,0,0,-1,1931,414,0,0
714,610,0,0,0,0,0,0,0,0,0,-1,1938,414,0,0
721,610,0,0,0,0,0,0,0,0,0,-1,1945,414,0,0
728,610,0,0,0,0,0,0,0,0,0,-1,1952,414,0,0
735,610,0,0,0,0,0,0,0,0,0,-1,1959,414,0,0
742,610,0,0,0,0,0,0,0,0,0,-1,1966,414,0,0
749,610,0,0,0,0,0,0,0,0,0,-1,1973,414,0,0
756,610,0,0,0,0,0,0,0,0,0,-1,1980,414,0,0
763,610,0,0,0,0,0,0,0,0,0,-1,1987,414,0,0
770,610,0,0,0,0,0,0,0,0,0,-1,1994,414,0,0
777,610,0,0,0,0,0,0,0,0,0,-1,2001,414,0,0
784,610,0,0,0,0,0,0,0,0,0,-1,2008,414,0,0
791,610,0,0,0,0,0,0,0,0,0,-1,2015,414,0,0
798,610,0,0,0,0,0,0,0,0,0,-1,2022,414,0,0
805,610,0,0,0,0,0,0,0,0,0,-1,2029,414,0,0
812,610,0,0,0,0,0,0,0,0,0,-1,2036,414,0,0
-700,603,0,0,0,0,0,0,0,0,0,-1,524,421,0,0
-693,603,0,0,0,0,0,0,0,0,0,-1,531,421,0,0
-686,603,0,0,0,0,0,0,0,0,0,-1,538,421,0,0
-679,603,0,0,0,0,0,0,0,0,0,-1,545,421,0,0
-672,603,0,0,0,0,0,0,0,0,0,-1,552,421,0,0
-665,603,0,0,0,0,0,0,0,0,0,-1,559,421,0,0
-658,603,0,0,0,0,0,0,0,0,0,-1,566,421,0,0
-651,603,0,0,0,0,0,0,0,0,0,-1,573,421,0,0
-644,603,0,0,0,0,0,0,0,0,0,-1,580,421,0,0
-637,603,0,0,0,0,0,0,0,0,0,-1,587,421,0,0
-630,603,0,0,0,0,0,0,0,0,0,-1,594,421,0,0
-623,603,0,0,0,0,0,0,0,0,0,-1,601,421,0,0
-616,603,0,0,0,0,0,0,0,0,0,-1,608,421,0,0
-609,603,0,0,0,0,0,0,0,0,0,-1,615,421,0,0
-602,603,0,0,0,0,0,0,0,0,0,-1,622,421,0,0
-595,603,0,0,0,0,0,0,0,0,0,-1,629,421,0,0
-588,603,0,0,0,0,0,0,0,0,0,-1,636,421,0,0
-581,603,0,0,0,0,0,0,0,0,0,-1,643,421,0,0
-574,603,0,0,0,0,0,0,0,0,0,-1,650,421,0,0
-567,603,0,0,0,0,0,0,0,0,0,-1,657,421,0,0
-560,603,0,0,0,0,0,0,0,0,0,-1,664,421,0,0
-553,603,0,0,0,0,0,0,0,0,0,-1,671,421,0,0
-546,603,0,0,0,0,0,0,0,0,0,-1,678,421,0,0
-539,603,0,0,0,0,0,0,0,0,0,-1,685,421,0,0
-532,603,0,0,0,0,0,0,0,0,0,-1,692,421,0,0
-525,603,0,0,0,0,0,0,0,0,0,-1,699,421,0,0
-518,603,0,0,0,0,0,0,0,0,0,-1,706,421,0,0
-511,603,0,0,0,0,0,0,0,0,0,-1,713,421,0,0
-504,603,0,0,0,0,0,0,0,0,0,-1,720,421,0,0
-497,603,0,0,0,0,0,0,0,0,0,-1,727,421,0,0
-490,603,0,0,0,0,0,0,0,0,0,-1,734,421,0,0
-483,603,0,0,0,0,0,0,0,0,0,-1,741,421,0,0
-476,603,0,0,0,0,0,0,0,0,0,-1,748,421,0,0
-469,603,0,0,0,0,0,0,0,0,0,-1,755,421,0,0
-462,603,0,0,0,0,0,0,0,0,0,-1,762,421,0,0
-455,603,0,0,0,0,0,0,0,0,0,-1,769,421,0,0
-448,603,0,0,0,0,0,0,0,0,0,-1,776,421,0,0
-441,603,0,0,0,0,0,0,0,0,0,-1,783,421,0,0
-434,603,0,0,0,0,0,0,0,0,0,-1,790,421,0,0
-427,603,0,0,0,0,0,0,0,0,0,-1,797,421,0,0
-420,603,0,0,0,0,0,0,0,0,0,-1,804,421,0,0
-413,603,0,0,0,0,0,0,0,0,0,-1,811,421,0,0
-406,603,0,0,0,0,0,0,0,0,0,-1,818,421,0,0
-399,603,0,0,0,0,0,0,0,0,0,-1,825,421,0,0
-392,603,0,0,0,0,0,0,0,0,0,-1,832,421,0,0
-385,603,0,0,0,0,0,0,0,0,0,-1,839,421,0,0
-378,603,0,0,0,0,0,0,0,0,0,-1,846,421,0,0
-371,603,0,0,0,0,0,0,0,0,0,-1,853,421,0,0
-364,603,0,0,0,0,0,0,0,0,0,-1,860,421,0,0
-357,603,0,0,0,0,0,0,0,0,0,-1,867,421,0,0
-350,603,0,0,0,0,0,0,0,0,0,-1,874,421,0,0
-343,603,0,0,0,0,0,0,0,0,0,-1,881,421,0,0
-336,603,0,0,0,0,0,0,0,0,0,-1,888,421,0,0
-329,603,4.09686,-17.9702,0,0,0,0,0,0,0,-1,895,421,4.09687,17.9702
-322,603,5.98431,-20.9071,0,0,0,0,0,0,0,-1,902,421,5.98431,20.9071
-315,603,5.99744,-20.4501,0,0,0,0,0,0,0,-1,909,421,5.99745,20.4501
-308,603,5.92249,-20.778,0,0,0,0,0,0,0,-1,916,421,5.92248,20.778
-301,603,2.72424,-20.9059,0,0,0,0,0,0,0,-1,923,421,2.72424,20.9059
-294,603,2.41553,-20.6767,0,0,0,0,0,0,0,-1,930,421,2.41554,20.6767
-287,603,1.91766,-21.2242,0,0,0,0,0,0,0,-1,937,421,1.91767,21.2242
-280,603,2.36121,-27.3314,0,0,0,0,0,0,0,-1,944,421,2.36119,27.3314
-273,603,4.38184,-29.4527,0,0,0,0,0,0,0,-1,951,421,4.38181,29.4527
-266,603,5.06067,-28.8105,0,0,0,0,0,0,0,-1,958,421,5.06066,28.8105
-259,603,5.13654,-30.0065,0,0,0,0,0,0,0,-1,965,421,5.13655,30.0065
-252,603,4.69043,-30.7339,-0.013233,-0.050294,0.0110368,-0.0101952,-0.0533318,0.26859,0.0326904,0.0434253,972,421,4.69041,30.7339
-245,603,4.65314,-31.0983,-0.0109343,-0.0393956,0.00873404,-0.00846782,-0.0418621,0.275234,0.0255574,0.0349915,979,421,4.65312,31.0983
-238,603,4.5658,-31.6489,-0.0088025,-0.0287079,0.00641976,-0.00691165,-0.0305987,0.286436,0.01853,0.0251103,986,421,4.5658,31.6489
-231,603,4.50018,-32.2707,-0.00681797,-0.0185191,0.00402346,-0.00556802,-0.0197691,0.301212,0.0117709,0.0157441,993,421,4.50019,32.2707
-224,603,4.45398,-32.8487,-0.00444799,-0.00842579,0.00153464,-0.00392475,-0.00894903,0.328592,0.00517971,0.0142341,1000,421,4.45398,32.8487
-217,603,4.4306,-33.3651,-0.00266614,0.000771989,-0.000575172,0.000865659,-0.00275981,-1.40936,0.00218632,0.012859,1007,421,4.43061,33.3651
-210,603,4.41705,-33.8957,-0.00187156,0.00763749,-0.00229027,0.00816036,-0.00239442,-1.34634,0.00638972,0.011554,1014,421,4.41707,33.8957
-203,603,4.39844,-34.4458,-0.00156031,0.010804,-0.00318636,0.0115769,-0.00233315,-1.33285,0.00860175,0.0175474,1021,421,4.39839,34.4458
-196,603,4.39355,-34.9836,-0.00128341,0.00944535,-0.00346969,0.0104697,-0.00230771,-1.28373,0.00786272,0.0191249,1028,421,4.3936,34.9836
-189,603,4.35864,-35.4012,-0.000961856,0.00781848,-0.00338072,0.00896933,-0.0021127,-1.24269,0.00679418,0.0167315,1035,421,4.35862,35.4012
-182,603,4.32104,-35.8525,-0.000778855,0.0060578,-0.00280191,0.00705939,-0.00178045,-1.22749,0.00539851,0.0120532,1042,421,4.32106,35.8525
-175,603,4.30176,-36.3133,-0.000598845,0.00415437,-0.00214309,0.00497793,-0.00142241,-1.20391,0.00388065,0.0118945,1049,421,4.30179,36.3133
-168,603,4.25391,-36.7712,-0.000460782,0.00257631,-0.00159856,0.00326262,-0.00114709,-1.16527,0.0026418,0.0146094,1056,421,4.2539,36.7712
-161,603,4.22412,-37.2605,-0.000295754,0.00121264,-0.00112916,0.00181631,-0.000899429,-1.07984,0.00159744,0.0142788,1063,421,4.22408,37.2605
-154,603,4.22607,-37.7147,-6.18042e-05,4.79705e-05,-0.000713823,0.000709013,-0.000722847,-0.823769,0.000826698,0.0131474,1070,421,4.22605,37.7147
-147,603,4.23181,-38.1131,0.000133635,-0.00116676,-0.000308353,0.000203047,-0.00123618,-0.221415,0.000899472,0.0153538,1077,421,4.23178,38.1131
-140,603,4.25391,-38.4933,0.000338753,-0.00236113,4.98567e-05,0.000339674,-0.00236205,0.0184579,0.00169928,0.0136678,1084,421,4.25395,38.4933
-133,603,4.22302,-38.8931,0.000539478,-0.0034337,0.000351442,0.000570324,-0.00346454,0.0875478,0.0025214,0.013567,1091,421,4.22303,38.8931
-126,603,4.20898,-39.2581,0.000753726,-0.00433479,0.000593571,0.000822049,-0.00440312,0.114599,0.00324433,0.012015,1098,421,4.20903,39.2581
-119,603,4.23645,-39.6497,0.00105835,-0.00497416,0.00074453,0.00114888,-0.00506469,0.121001,0.00381749,0.0115753,1105,421,4.23645,39.6497
-112,603,4.26563,-40.0512,0.00139666,-0.00539702,0.000782181,0.00148556,-0.00548591,0.113161,0.00424011,0.0168204,1112,421,4.26565,40.0512
-105,603,4.27087,-40.4315,0.00172748,-0.00553438,0.000761368,0.00180645,-0.00561335,0.103347,0.00446782,0.0167006,1119,421,4.27092,40.4314
-98,603,4.26599,-40.7639,0.00212315,-0.00560711,0.000737715,0.00219292,-0.00567688,0.094298,0.0046897,0.0136208,1126,421,4.26605,40.7638
-91,603,4.27112,-41.1008,0.00259543,-0.00537531,0.000640472,0.00264657,-0.00542644,0.0796717,0.00475217,0.0106587,1133,421,4.27116,41.1008
-84,603,4.30457,-41.4476,0.00310491,-0.00477363,0.000670908,0.00316163,-0.00483035,0.0843471,0.00464758,0.0123876,1140,421,4.3045,41.4476
-77,603,4.35425,-41.8175,0.00383781,-0.00433052,0.000803216,0.00391604,-0.00440875,0.0970939,0.00480913,0.0189205,1147,421,4.35428,41.8175
-70,603,4.3938,-42.1783,0,0,0,0,0,0,0,-1,1154,421,4.39385,42.1782
-63,603,4.41406,-42.3856,0,0,0,0,0,0,0,-1,1161,421,4.41401,42.3856
-56,603,4.47827,-42.6733,0,0,0,0,0,0,0,-1,1168,421,4.47825,42.6733
-49,603,4.51074,-42.9077,0,0,0,0,0,0,0,-1,1175,421,4.51077,42.9077
-42,603,4.54797,-43.1004,0,0,0,0,0,0,0,-1,1182,421,4.54795,43.1004
-35,603,4.53381,-43.2675,0.00289878,-0.00152945,0.00199722,0.00366648,-0.00229715,0.366971,0.00347322,0.0428296,1189,421,4.53381,43.2675
-28,603,4.5625,-43.4312,0.00143488,-0.00178521,0.00394922,0.00408964,-0.00443998,0.591841,0.00492596,0.0290223,1196,421,4.56255,43.4312
-21,603,4.64807,-43.6314,0.000695773,-0.00301833,0.00561321,0.00475114,-0.0070737,0.625647,0.00687083,0.0239747,1203,421,4.64801,43.6315
-14,603,4.78601,-43.8016,-0.00088036,-0.00370014,0.00742126,0.00526375,-0.00984424,0.691527,0.00885523,0.0223192,1210,421,4.78599,43.8016
-7,603,4.88013,-43.951,-0.00299448,-0.00410966,0.00892994,0.00539526,-0.0124994,0.754218,0.0105994,0.0265662,1217,421,4.88014,43.951
0,603,4.89844,-44.1307,-0.00515395,-0.00441066,0.0100818,0.00530636,-0.014871,0.803822,0.0120778,0.0331894,1224,421,4.89838,44.1307
7,603,4.89673,-44.1252,-0.0078637,-0.00434774,0.0112526,0.00528334,-0.0174948,0.862886,0.0137665,0.0422684,1231,421,4.89674,44.1252
14,603,5.17358,-43.9867,-0.0108888,-0.00402643,0.0122254,0.0052402,-0.0201554,0.922208,0.0154822,0.0432471,1238,421,5.17354,43.9867
21,603,5.20398,-44.1111,-0.0137398,-0.00351661,0.0127414,0.0051003,-0.0223567,0.976159,0.0168636,0.0353253,1245,421,5.20404,44.1111
28,603,5.27222,-44.1588,-0.0166742,-0.00235961,0.0128949,0.00523118,-0.0242649,1.03875,0.0181731,0.0391281,1252,421,5.27223,44.1588
35,603,5.36401,-44.0758,-0.0184029,0.000333536,0.0114712,0.00577587,-0.0238453,1.12781,0.0181314,0.0485724,1259,421,5.36399,44.0758
42,603,5.44604,-44.4183,-0.0199801,0.00249581,0.0104424,0.00659852,-0.0240828,1.19644,0.018648,0.0448479,1266,421,5.44604,44.4183
49,603,5.53662,-44.6742,-0.0213263,0.00552054,0.00905218,0.00828756,-0.0240933,1.27414,0.0194233,0.0229276,1273,421,5.53659,44.6742
56,603,5.51953,-44.5501,-0.0213849,0.00900986,0.00703937,0.010561,-0.0229361,1.35391,0.0197746,0.0465955,1280,421,5.5195,44.5501
63,603,5.55432,-44.58,0,0,0,0,0,0,0,-1,1287,421,5.55432,44.58
70,603,5.63684,-44.4786,0,0,0,0,0,0,0,-1,1294,421,5.63678,44.4786
77,603,5.82031,-44.5744,0,0,0,0,0,0,0,-1,1301,421,5.82025,44.5744
84,603,5.97791,-44.7171,0,0,0,0,0,0,0,-1,1308,421,5.97785,44.7171
91,603,6.10962,-44.6744,0,0,0,0,0,0,0,-1,1315,421,6.10957,44.6744
98,603,6.28528,-44.6512,0,0,0,0,0,0,0,-1,1322,421,6.28529,44.6512
105,603,6.26416,-44.4388,0,0,0,0,0,0,0,-1,1329,421,6.26416,44.4388
112,603,6.43762,-44.1088,-0.00859063,0.0187909,-0.0166794,0.0266788,-0.0164785,-1.12905,0.0251478,0.0439004,1336,421,6.4376,44.1088
119,603,6.53552,-44.0377,-0.00726802,0.0178955,-0.0185569,0.0277338,-0.0171064,-1.0833,0.0261297,0.0497769,1343,421,6.53549,44.0377
126,603,6.47253,-44.1022,0,0,0,0,0,0,0,-1,1350,421,6.47252,44.1022
133,603,6.63379,-43.6162,-0.00592849,0.0155487,-0.0199855,0.0274979,-0.0178777,-1.03193,0.0263932,0.0475452,1357,421,6.63383,43.6162
140,603,6.74695,-43.4177,-0.00598926,0.0133954,-0.0192005,0.0252112,-0.0178051,-1.01914,0.0249579,0.034211,1364,421,6.74697,43.4177
147,603,6.62,-43.3394,-0.00513057,0.0126043,-0.0193239,0.0249982,-0.0175245,-1.00051,0.0246766,0.0274682,1371,421,6.62003,43.3394
154,603,6.60217,-43.2942,-0.00301794,0.0109424,-0.0193825,0.0245633,-0.0166389,-0.958232,0.0239343,0.0337705,1378,421,6.60213,43.2942
161,603,6.77014,-43.1152,-0.00132469,0.00869917,-0.0188097,0.0231533,-0.0157788,-0.9156,0.0226114,0.0326214,1385,421,6.77017,43.1152
168,603,6.86511,-42.8616,-0.000890556,0.00778678,-0.0152803,0.0193324,-0.0124362,-0.923727,0.0184851,0.0350066,1392,421,6.86509,42.8616
175,603,7.05347,-42.6227,0.0019852,0.00419422,-0.0131057,0.0162419,-0.0100625,-0.827437,0.0153259,0.0395599,1399,421,7.05341,42.6228
182,603,7.12073,-42.382,0.00629391,-0.000616182,-0.0101178,0.0135303,-0.00785255,-0.620864,0.0124896,0.0448653,1406,421,7.1207,42.382
189,603,7.0863,-42.0595,0.00605245,-0.00128165,-0.00808198,0.0112604,-0.0064896,-0.572422,0.0103706,0.0386318,1413,421,7.0863,42.0595
196,603,7.00537,-41.7152,0.00564164,-0.0014143,-0.00622198,0.00926626,-0.00503892,-0.527491,0.00837845,0.0290631,1420,421,7.00534,41.7152
203,603,7.0127,-41.4792,0.00497012,-0.000921824,-0.00482787,0.00767986,-0.00363157,-0.511455,0.00666862,0.0171557,1427,421,7.01275,41.4792
210,603,7.04761,-41.2346,0.00398339,-0.00241337,-0.00264274,0.00493395,-0.00336393,-0.345279,0.00481928,0.0128124,1434,421,7.04766,41.2346
217,603,7.06042,-40.8514,0.00311639,-0.00132612,-0.00201191,0.00389209,-0.00210182,-0.367993,0.00351166,0.013476,1441,421,7.06043,40.8514
224,603,7.09998,-40.4597,0.00251388,-0.000106695,-0.00141128,0.00312935,-0.000722167,-0.411244,0.00236402,0.0177232,1448,421,7.09995,40.4597
231,603,7.10449,-40.0876,0.00198658,0.00068141,-0.0008629,0.00241587,0.000252116,-0.461647,0.00153347,0.0157921,1455,421,7.10446,40.0876
238,603,7.13025,-39.7217,0.00173389,0.00138188,-0.000443548,0.00203508,0.00108069,-0.596523,0.00117571,0.0110094,1462,421,7.1302,39.7218
245,603,7.14954,-39.3296,0.0017382,0.00201791,-5.03744e-05,0.00202671,0.0017294,-1.39794,0.00126375,0.0120456,1469,421,7.14949,39.3296
252,603,7.16797,-38.9038,0.00171856,0.00264056,0.000326858,0.00274467,0.00161445,1.26242,0.00159284,0.010909,1476,421,7.16796,38.9039
259,603,7.16602,-38.4781,0.00166688,0.00311357,0.000721326,0.00341176,0.00136869,1.1788,0.00198257,0.0105631,1483,421,7.16602,38.4781
266,603,7.14832,-38.0526,0.0016808,0.00358972,0.00113324,0.00411689,0.00115363,1.13539,0.00245223,0.0123753,1490,421,7.14833,38.0526
273,603,7.16553,-37.6036,0.00177393,0.00411278,0.00159154,0.00491834,0.000968371,1.10224,0.00300851,0.0112062,1497,421,7.16548,37.6037
280,603,7.172,-37.1517,0.00187024,0.00466967,0.0020773,0.00577482,0.000765085,1.08187,0.00362189,0.01201,1504,421,7.172,37.1517
287,603,7.13953,-36.6885,0.001957,0.005261,0.0025976,0.00668741,0.000530586,1.06862,0.00429236,0.0117572,1511,421,7.13952,36.6885
294,603,7.11194,-36.2264,0.00197276,0.0058545,0.00308334,0.00755697,0.000270289,1.0663,0.00495034,0.010454,1518,421,7.11194,36.2264
301,603,7.09448,-35.7619,0.00188491,0.00637425,0.00349795,0.00828581,-2.66442e-05,1.07066,0.00553277,0.0115255,1525,421,7.09453,35.7619
308,603,7.08069,-35.2801,0.00176734,0.00686672,0.00389163,0.00896952,-0.000335462,1.0754,0.00609458,0.0158582,1532,421,7.08068,35.2801
315,603,7.0603,-34.7836,0.00148836,0.00746475,0.00423183,0.00965706,-0.000703958,1.09281,0.00668506,0.0149943,1539,421,7.06027,34.7836
322,603,7.04297,-34.267,0.000939327,0.00796918,0.00444361,0.01012,-0.00121147,1.12001,0.0071846,0.0146332,1546,421,7.04293,34.267
329,603,7.00952,-33.7437,0.000347272,0.00837195,0.00459492,0.0104598,-0.00174056,1.14431,0.00761993,0.010691,1553,421,7.00954,33.7437
336,603,6.97656,-33.2404,-0.000358482,0.00866245,0.00465439,0.0106333,-0.00232934,1.17025,0.00797947,0.00904184,1560,421,6.97656,33.2404
343,603,6.96912,-32.6898,-0.00111759,0.00901559,0.00459182,0.0107868,-0.00288877,1.20266,0.00832293,0.0107409,1567,421,6.96912,32.6898
350,603,6.93555,-32.1231,-0.00171632,0.00996237,0.00488935,0.011739,-0.00349299,1.22226,0.00921376,0.0190027,1574,421,6.93556,32.1231
357,603,6.90857,-31.5227,-0.00248873,0.0107958,0.00520544,0.0125925,-0.00428544,1.23844,0.0101303,0.0258747,1581,421,6.90853,31.5227
364,603,6.88501,-30.9196,-0.00337495,0.0115437,0.00533139,0.0132531,-0.00508434,1.26053,0.0109317,0.031872,1588,421,6.88497,30.9196
371,603,6.69592,-30.4128,-0.00413003,0.0128255,0.0055069,0.0144571,-0.0057616,1.28276,0.0120277,0.0492391,1595,421,6.69594,30.4127
378,603,6.67383,-30.116,0,0,0,0,0,0,0,-1,1602,421,6.67387,30.116
385,603,6.58716,-29.33,0,0,0,0,0,0,0,-1,1609,421,6.58719,29.33
392,603,4.90527,-19.605,0,0,0,0,0,0,0,-1,1616,421,4.90526,19.605
399,603,2.94299,0.638214,0,0,0,0,0,0,0,-1,1623,421,2.94293,-0.638215
406,603,3.01917,-2.37219,0,0,0,0,0,0,0,-1,1630,421,3.01915,2.37219
413,603,2.38928,-2.41275,0,0,0,0,0,0,0,-1,1637,421,2.38926,2.41274
420,603,8.22217,-23.7068,0,0,0,0,0,0,0,-1,1644,421,8.22215,23.7068
427,603,8.20386,-23.1278,0,0,0,0,0,0,0,-1,1651,421,8.2039,23.1278
434,603,8.01489,-22.5655,0,0,0,0,0,0,0,-1,1658,421,8.01493,22.5655
441,603,8.00122,-22.3072,0,0,0,0,0,0,0,-1,1665,421,8.00116,22.3071
448,603,1.14355,-4.59842,0,0,0,0,0,0,0,-1,1672,421,1.14355,4.59841
455,603,0,0,0,0,0,0,0,0,0,-1,1679,421,0,0
462,603,0,0,0,0,0,0,0,0,0,-1,1686,421,0,0
469,603,0,0,0,0,0,0,0,0,0,-1,1693,421,0,0
476,603,0,0,0,0,0,0,0,0,0,-1,1700,421,0,0
483,603,0,0,0,0,0,0,0,0,0,-1,1707,421,0,0
490,603,0,0,0,0,0,0,0,0,0,-1,1714,421,0,0
497,603,0,0,0,0,0,0,0,0,0,-1,1721,421,0,0
504,603,0,0,0,0,0,0,0,0,0,-1,1728,421,0,0
511,603,0,0,0,0,0,0,0,0,0,-1,1735,421,0,0
518,603,0,0,0,0,0,0,0,0,0,-1,1742,421,0,0
525,603,0,0,0,0,0,0,0,0,0,-1,1749,421,0,0
532,603,0,0,0,0,0,0,0,0,0,-1,1756,421,0,0
539,603,0,0,0,0,0,0,0,0,0,-1,1763,421,0,0
546,603,0,0,0,0,0,0,0,0,0,-1,1770,421,0,0
553,603,0,0,0,0,0,0,0,0,0,-1,1777,421,0,0
560,603,0,0,0,0,0,0,0,0,0,-1,1784,421,0,0
567,603,0,0,0,0,0,0,0,0,0,-1,1791,421,0,0
574,603,0,0,0,0,0,0,0,0,0,-1,1798,421,0,0
581,603,0,0,0,0,0,0,0,0,0,-1,1805,421,0,0
588,603,0,0,0,0,0,0,0,0,0,-1,1812,421,0,0
595,603,0,0,0,0,0,0,0,0,0,-1,1819,421,0,0
602,603,0,0,0,0,0,0,0,0,0,-1,1826,421,0,0
609,603,0,0,0,0,0,0,0,0,0,-1,1833,421,0,0
616,603,0,0,0,0,0,0,0,0,0,-1,1840,421,0,0
623,603,0,0,0,0,0,0,0,0,0,-1,1847,421,0,0
630,603,0,0,0,0,0,0,0,0,0,-1,1854,421,0,0
637,603,0,0,0,0,0,0,0,0,0,-1,1861,421,0,0
644,603,0,0,0,0,0,0,0,0,0,-1,1868,421,0,0
651,603,0,0,0,0,0,0,0,0,0,-1,1875,421,0,0
658,603,0,0,0,0,0,0,0,0,0,-1,1882,421,0,0
665,603,0,0,0,0,0,0,0,0,0,-1,1889,421,0,0
672,603,0,0,0,0,0,0,0,0,0,-1,1896,421,0,0
679,603,0,0,0,0,0,0,0,0,0,-1,1903,421,0,0
686,603,0,0,0,0,0,0,0,0,0,-1,1910,421,0,0
693,603,0,0,0,0,0,0,0,0,0,-1,1917,421,0,0
700,603,0,0,0,0,0,0,0,0,0,-1,1924,421,0,0
707,603,0,0,0,0,0,0,0,0,0,-1,1931,421,0,0
714,603,0,0,0,0,0,0,0,0,0,-1,1938,421,0,0
721,603,0,0,0,0,0,0,0,0,0,-1,1945,421,0,0
728,603,0,0,0,0,0,0,0,0,0,-1,1952,421,0,0
735,603,0,0,0,0,0,0,0,0,0,-1,1959,421,0,0
742,603,0,0,0,0,0,0,0,0,0,-1,1966,421,0,0
749,603,0,0,0,0,0,0,0,0,0,-1,1973,421,0,0
756,603,0,0,0,0,0,0,0,0,0,-1,1980,421,0,0
763,603,0,0,0,0,0,0,0,0,0,-1,1987,421,0,0
770,603,0,0,0,0,0,0,0,0,0,-1,1994,421,0,0
777,603,0,0,0,0,0,0,0,0,0,-1,2001,421,0,0
784,603,0,0,0,0,0,0,0,0,0,-1,2008,421,0,0
791,603,0,0,0,0,0,0,0,0,0,-1,2015,421,0,0
798,603,0,0,0,0,0,0,0,0,0,-1,2022,421,0,0
805,603,0,0,0,0,0,0,0,0,0,-1,2029,421,0,0
812,603,0,0,0,0,0,0,0,0,0,-1,2036,421,0,0
-700,596,0,0,0,0,0,0,0,0,0,-1,524,428,0,0
-693,596,0,0,0,0,0,0,0,0,0,-1,531,428,0,0
-686,596,0,0,0,0,0,0,0,0,0,-1,538,428,0,0
-679,596,0,0,0,0,0,0,0,0,0,-1,545,428,0,0
-672,596,0,0,0,0,0,0,0,0,0,-1,552,428,0,0
-665,596,0,0,0,0,0,0,0,0,0,-1,559,428,0,0
-658,596,0,0,0,0,0,0,0,0,0,-1,566,428,0,0
-651,596,0,0,0,0,0,0,0,0,0,-1,573,428,0,0
-644,596,0,0,0,0,0,0,0,0,0,-1,580,428,0,0
-637,596,0,0,0,0,0,0,0,0,0,-1,587,428,0,0
-630,596,0,0,0,0,0,0,0,0,0,-1,594,428,0,0
-623,596,0,0,0,0,0,0,0,0,0,-1,601,428,0,0
-616,596,0,0,0,0,0,0,0,0,0,-1,608,428,0,0
-609,596,0,0,0,0,0,0,0,0,0,-1,615,428,0,0
-602,596,0,0,0,0,0,0,0,0,0,-1,622,428,0,0
-595,596,0,0,0,0,0,0,0,0,0,-1,629,428,0,0
-588,596,0,0,0,0,0,0,0,0,0,-1,636,428,0,0
-581,596,0,0,0,0,0,0,0,0,0,-1,643,428,0,0
-574,596,0,0,0,0,0,0,0,0,0,-1,650,428,0,0
-567,596,0,0,0,0,0,0,0,0,0,-1,657,428,0,0
-560,596,0,0,0,0,0,0,0,0,0,-1,664,428,0,0
-553,596,0,0,0,0,0,0,0,0,0,-1,671,428,0,0
-546,596,0,0,0,0,0,0,0,0,0,-1,678,428,0,0
-539,596,0,0,0,0,0,0,0,0,0,-1,685,428,0,0
-532,596,0,0,0,0,0,0,0,0,0,-1,692,428,0,0
-525,596,0,0,0,0,0,0,0,0,0,-1,699,428,0,0
-518,596,0,0,0,0,0,0,0,0,0,-1,706,428,0,0
-511,596,0,0,0,0,0,0,0,0,0,-1,713,428,0,0
-504,596,0,0,0,0,0,0,0,0,0,-1,720,428,0,0
-497,596,0,0,0,0,0,0,0,0,0,-1,727,428,0,0
-490,596,0,0,0,0,0,0,0,0,0,-1,734,428,0,0
-483,596,0,0,0,0,0,0,0,0,0,-1,741,428,0,0
-476,596,0,0,0,0,0,0,0,0,0,-1,748,428,0,0
-469,596,0,0,0,0,0,0,0,0,0,-1,755,428,0,0
-462,596,0,0,0,0,0,0,0,0,0,-1,762,428,0,0
-455,596,0,0,0,0,0,0,0,0,0,-1,769,428,0,0
-448,596,0,0,0,0,0,0,0,0,0,-1,776,428,0,0
-441,596,0,0,0,0,0,0,0,0,0,-1,783,428,0,0
-434,596,0,0,0,0,0,0,0,0,0,-1,790,428,0,0
-427,596,0,0,0,0,0,0,0,0,0,-1,797,428,0,0
-420,596,0,0,0,0,0,0,0,0,0,-1,804,428,0,0
-413,596,0,0,0,0,0,0,0,0,0,-1,811,428,0,0
-406,596,0,0,0,0,0,0,0,0,0,-1,818,428,0,0
-399,596,0,0,0,0,0,0,0,0,0,-1,825,428,0,0
-392,596,0,0,0,0,0,0,0,0,0,-1,832,428,0,0
-385,596,0,0,0,0,0,0,0,0,0,-1,839,428,0,0
-378,596,0,0,0,0,0,0,0,0,0,-1,846,428,0,0
-371,596,0,0,0,0,0,0,0,0,0,-1,853,428,0,0
-364,596,0,0,0,0,0,0,0,0,0,-1,860,428,0,0
-357,596,0,0,0,0,0,0,0,0,0,-1,867,428,0,0
-350,596,0,0,0,0,0,0,0,0,0,-1,874,428,0,0
-343,596,0,0,0,0,0,0,0,0,0,-1,881,428,0,0
-336,596,-0.98291,-20.0836,0,0,0,0,0,0,0,-1,888,428,-0.982933,20.0836
-329,596,4.43048,-20.1666,0,0,0,0,0,0,0,-1,895,428,4.43045,20.1666
-322,596,4.29657,-19.996,0,0,0,0,0,0,0,-1,902,428,4.29655,19.996
-315,596,4.20044,-19.8317,0,0,0,0,0,0,0,-1,909,428,4.20045,19.8317
-308,596,0.254761,-20.841,0,0,0,0,0,0,0,-1,916,428,0.254731,20.841
-301,596,3.43213,-26.756,0,0,0,0,0,0,0,-1,923,428,3.43214,26.756
-294,596,3.50983,-25.2827,0,0,0,0,0,0,0,-1,930,428,3.50982,25.2827
-287,596,4.08893,-27.5157,0,0,0,0,0,0,0,-1,937,428,4.08892,27.5157
-280,596,4.29633,-28.4252,0,0,0,0,0,0,0,-1,944,428,4.29633,28.4252
-273,596,4.02509,-29.2152,-0.0129353,-0.0552679,0.0105048,-0.0104719,-0.0577313,0.230341,0.0355153,0.0491945,951,428,4.02506,29.2152
-266,596,3.88226,-29.3247,-0.0119029,-0.0489889,0.00962954,-0.00955166,-0.0513402,0.239488,0.0315289,0.0432201,958,428,3.88224,29.3247
-259,596,4.08026,-29.7223,-0.0107414,-0.041406,0.00880504,-0.00839298,-0.0437545,0.260646,0.0268135,0.0402436,965,428,4.08025,29.7223
-252,596,4.06055,-30.6064,-0.00927294,-0.0337055,0.00717736,-0.00732052,-0.0356579,0.265598,0.0217464,0.021375,972,428,4.06058,30.6064
-245,596,4.07251,-31.2635,-0.00754215,-0.0259158,0.0055373,-0.0060024,-0.0274555,0.271218,0.0166671,0.0152797,979,428,4.07253,31.2635
-238,596,4.06799,-31.8217,-0.0059003,-0.018353,0.00396831,-0.00474322,-0.01951,0.283713,0.0117492,0.0131047,986,428,4.068,31.8217
-231,596,3.98126,-32.381,-0.00445808,-0.0114189,0.00234563,-0.00374144,-0.0121355,0.296515,0.00717605,0.013815,993,428,3.98127,32.381
-224,596,3.93854,-32.9117,-0.00283462,-0.00469624,0.000702794,-0.0025991,-0.00493176,0.323358,0.00284874,0.0136607,1000,428,3.93851,32.9117
-217,596,3.91986,-33.4194,-0.00158455,0.00125724,-0.000663833,0.00140466,-0.00173197,-1.35227,0.00181422,0.0134154,1007,428,3.91985,33.4194
-210,596,3.93201,-33.9302,-0.000992425,0.00518435,-0.00167441,0.00560905,-0.00141712,-1.32239,0.00429047,0.0125057,1014,428,3.93202,33.9302
-203,596,3.92664,-34.4241,-0.000718348,0.00663792,-0.00209973,0.00719505,-0.00127548,-1.31143,0.00527353,0.0165909,1021,428,3.92665,34.4241
-196,596,3.91809,-34.9235,-0.000432431,0.00525604,-0.00213936,0.00597081,-0.0011472,-1.24835,0.00441293,0.0167598,1028,428,3.91813,34.9234
-189,596,3.87695,-35.3908,-0.000120008,0.00363416,-0.00193244,0.0044511,-0.000936947,-1.17083,0.00332403,0.0136616,1035,428,3.87694,35.3908
-182,596,3.84985,-35.8428,9.84849e-05,0.00195164,-0.00139406,0.00269897,-0.000648841,-1.0787,0.00205011,0.0124817,1042,428,3.84987,35.8428
-175,596,3.8446,-36.3241,0.000290622,0.000191713,-0.000798852,0.00104155,-0.000559214,-0.754484,0.000938081,0.0141302,1049,428,3.8446,36.3241
-168,596,3.81799,-36.7892,0.00041969,-0.00144422,-0.000283077,0.000461733,-0.00148627,-0.147444,0.00117539,0.0163797,1056,428,3.818,36.7892
-161,596,3.81104,-37.2447,0.000558524,-0.00282939,0.000157776,0.000565856,-0.00283673,0.0464362,0.00210527,0.0153597,1063,428,3.811,37.2447
-154,596,3.80261,-37.6831,0.000763701,-0.00400129,0.000521011,0.000820003,-0.0040576,0.107647,0.00301579,0.0130757,1070,428,3.80263,37.6831
-147,596,3.83887,-38.0729,0.000928631,-0.00522733,0.000877529,0.00105128,-0.00534998,0.138865,0.00396382,0.0147166,1077,428,3.83884,38.0729
-140,596,3.84509,-38.476,0.0010792,-0.0064172,0.0011982,0.00126606,-0.00660406,0.154703,0.00487979,0.0165947,1084,428,3.8451,38.476
-133,596,3.82422,-38.8982,0.00121148,-0.00759334,0.00148332,0.00145465,-0.00783652,0.162493,0.00577067,0.0162225,1091,428,3.82416,38.8982
-126,596,3.83728,-39.2535,0.00139904,-0.0085112,0.00168067,0.00167631,-0.00878847,0.163501,0.00649031,0.0123794,1098,428,3.83732,39.2535
-119,596,3.85474,-39.6522,0.0016707,-0.00920076,0.00178507,0.00195631,-0.00948636,0.15865,0.00706718,0.0146627,1105,428,3.8547,39.6522
-112,596,3.85242,-40.0571,0.00196471,-0.00961334,0.00174561,0.00222217,-0.0098708,0.146434,0.00743282,0.0163393,1112,428,3.85245,40.0571
-105,596,3.9071,-40.4402,0.00226437,-0.00961854,0.00166063,0.00249208,-0.00984625,0.136272,0.00753354,0.0191467,1119,428,3.90714,40.4403
-98,596,3.93884,-40.7804,0.00268579,-0.00951408,0.00158753,0.00288899,-0.00971728,0.127302,0.00762583,0.0207494,1126,428,3.93882,40.7804
-91,596,3.87012,-41.1883,0,0,0,0,0,0,0,-1,1133,428,3.87016,41.1883
-84,596,3.97217,-41.4596,0,0,0,0,0,0,0,-1,1140,428,3.97216,41.4596
-77,596,4.09424,-41.9098,0,0,0,0,0,0,0,-1,1147,428,4.09418,41.9098
-70,596,3.50696,-32.137,0,0,0,0,0,0,0,-1,1154,428,3.50696,32.137
-63,596,1.95569,-12.2758,0,0,0,0,0,0,0,-1,1161,428,1.95563,12.2759
-56,596,1.60107,-10.5827,0,0,0,0,0,0,0,-1,1168,428,1.60108,10.5827
-49,596,1.59473,-10.0393,0,0,0,0,0,0,0,-1,1175,428,1.59472,10.0393
-42,596,1.99585,-6.6246,0,0,0,0,0,0,0,-1,1182,428,1.99586,6.62459
-35,596,4.07703,-43.029,0,0,0,0,0,0,0,-1,1189,428,4.07699,43.029
-28,596,4.2561,-43.2463,0,0,0,0,0,0,0,-1,1196,428,4.25615,43.2463
-21,596,4.35474,-43.4595,0,0,0,0,0,0,0,-1,1203,428,4.35468,43.4595
-14,596,4.61719,-43.6625,0,0,0,0,0,0,0,-1,1210,428,4.61724,43.6625
-7,596,4.73865,-43.8151,0,0,0,0,0,0,0,-1,1217,428,4.73861,43.8151
0,596,4.7218,-44.028,0,0,0,0,0,0,0,-1,1224,428,4.72178,44.028
7,596,4.61206,-43.6826,0,0,0,0,0,0,0,-1,1231,428,4.61207,43.6826
14,596,5.12732,-43.4204,0,0,0,0,0,0,0,-1,1238,428,5.12737,43.4204
21,596,5.08496,-43.4746,0,0,0,0,0,0,0,-1,1245,428,5.085,43.4746
28,596,5.17468,-43.4788,0,0,0,0,0,0,0,-1,1252,428,5.17472,43.4788
35,596,5.18713,-43.3757,0,0,0,0,0,0,0,-1,1259,428,5.18714,43.3757
42,596,5.35303,-44.142,0,0,0,0,0,0,0,-1,1266,428,5.353,44.142
49,596,5.37463,-44.5464,0,0,0,0,0,0,0,-1,1273,428,5.37463,44.5464
56,596,5.44055,-44.3222,0,0,0,0,0,0,0,-1,1280,428,5.44054,44.3222
63,596,2.35986,-41.1028,0,0,0,0,0,0,0,-1,1287,428,2.35992,41.1028
70,596,1.56042,-41.3236,0,0,0,0,0,0,0,-1,1294,428,1.56045,41.3236
77,596,0.719971,-41.2665,0,0,0,0,0,0,0,-1,1301,428,0.719923,41.2665
84,596,-0.171753,-41.1282,0,0,0,0,0,0,0,-1,1308,428,-0.171762,41.1282
91,596,7.29541,-45.2383,0,0,0,0,0,0,0,-1,1315,428,7.29543,45.2383
98,596,0.268799,-43.2001,0,0,0,0,0,0,0,-1,1322,428,0.268775,43.2001
105,596,-0.464111,-43.4383,0,0,0,0,0,0,0,-1,1329,428,-0.464086,43.4383
112,596,6.76697,-43.7108,0,0,0,0,0,0,0,-1,1336,428,6.76699,43.7108
119,596,7.03564,-43.5062,0,0,0,0,0,0,0,-1,1343,428,7.03564,43.5062
126,596,6.45776,-44.6136,0,0,0,0,0,0,0,-1,1350,428,6.45776,44.6136
133,596,6.88049,-43.0805,0,0,0,0,0,0,0,-1,1357,428,6.88051,43.0805
140,596,7.08618,-42.7792,0,0,0,0,0,0,0,-1,1364,428,7.08621,42.7792
147,596,6.81323,-42.7259,0,0,0,0,0,0,0,-1,1371,428,6.81329,42.7258
154,596,6.66394,-42.9836,0,0,0,0,0,0,0,-1,1378,428,6.66397,42.9837
161,596,7.16418,-42.8895,0,0,0,0,0,0,0,-1,1385,428,7.16415,42.8895
168,596,7.28772,-42.4743,0,0,0,0,0,0,0,-1,1392,428,7.28776,42.4743
175,596,7.41797,-42.2318,0,0,0,0,0,0,0,-1,1399,428,7.41799,42.2318
182,596,7.53577,-42.2456,0,0,0,0,0,0,0,-1,1406,428,7.53582,42.2456
189,596,7.44666,-41.9907,0,0,0,0,0,0,0,-1,1413,428,7.44666,41.9907
196,596,7.41113,-41.4826,0,0,0,0,0,0,0,-1,1420,428,7.41114,41.4826
203,596,7.35376,-41.4194,0,0,0,0,0,0,0,-1,1427,428,7.35381,41.4194
210,596,7.39307,-41.2637,0,0,0,0,0,0,0,-1,1434,428,7.39312,41.2637
217,596,7.40051,-40.8554,0,0,0,0,0,0,0,-1,1441,428,7.4005,40.8554
224,596,7.47998,-40.5669,0,0,0,0,0,0,0,-1,1448,428,7.48002,40.5669
231,596,7.52429,-40.1228,0.00264359,-0.000140398,-0.00173851,0.00347872,-0.000975526,-0.44782,0.00270364,0.0237743,1455,428,7.52433,40.1228
238,596,7.54016,-39.7014,0.00228531,0.000585992,-0.00135223,0.00303266,-0.000161363,-0.5049,0.00207765,0.0149757,1462,428,7.54018,39.7014
245,596,7.5636,-39.3155,0.00226895,0.00117357,-0.00096908,0.0028344,0.000608119,-0.528193,0.00172304,0.0137997,1469,428,7.56358,39.3155
252,596,7.57898,-38.8905,0.00216027,0.00167244,-0.000628811,0.00259082,0.0012419,-0.600383,0.00149624,0.0107116,1476,428,7.57895,38.8905
259,596,7.57813,-38.458,0.00198145,0.00186609,-0.000340564,0.00226918,0.00157836,-0.701511,0.0013431,0.00935137,1483,428,7.57811,38.458
266,596,7.5675,-38.0403,0.00187585,0.00206778,-6.16596e-05,0.00208588,0.00185775,-1.28525,0.00132113,0.010954,1490,428,7.56753,38.0404
273,596,7.59741,-37.6024,0.00190496,0.00229939,0.000311532,0.00247088,0.00173347,1.06758,0.00146469,0.012414,1497,428,7.59745,37.6024
280,596,7.62354,-37.1727,0.00193892,0.00257556,0.000709081,0.00303449,0.00147998,0.996374,0.00175214,0.0128515,1504,428,7.62351,37.1727
287,596,7.5957,-36.7148,0.00196358,0.00288936,0.00113771,0.00365474,0.0011982,0.978602,0.00215135,0.0117284,1511,428,7.5957,36.7149
294,596,7.56738,-36.2357,0.00193184,0.00330145,0.00155898,0.0043194,0.000913891,0.992344,0.00262847,0.00928876,1518,428,7.56733,36.2357
301,596,7.55469,-35.7629,0.00182999,0.00369248,0.00194404,0.00491681,0.000605663,1.00876,0.0030958,0.0103366,1525,428,7.55466,35.7629
308,596,7.54956,-35.2609,0.00172231,0.00405391,0.00230975,0.00547539,0.000300828,1.01911,0.00355423,0.0153211,1532,428,7.54955,35.2609
315,596,7.52209,-34.7484,0.00147277,0.00458579,0.00263648,0.00609094,-3.23816e-05,1.05205,0.00407147,0.0152355,1539,428,7.5221,34.7484
322,596,7.52881,-34.2352,0.00100206,0.0050784,0.00288157,0.00656976,-0.000489302,1.09321,0.00455171,0.0138222,1546,428,7.52876,34.2352
329,596,7.50586,-33.7438,0.000500976,0.00548193,0.00308269,0.00695447,-0.000971559,1.12516,0.00499178,0.0104347,1553,428,7.50585,33.7438
336,596,7.45581,-33.2586,-5.2039e-05,0.00588857,0.0032324,0.00730815,-0.00147162,1.15698,0.00542953,0.00887183,1560,428,7.45583,33.2586
343,596,7.45117,-32.7193,-0.000659214,0.00636473,0.0033033,0.00767414,-0.00196862,1.1934,0.00588314,0.0117861,1567,428,7.45113,32.7193
350,596,7.44055,-32.1354,-0.00116603,0.00733562,0.00363248,0.00867625,-0.00250667,1.21724,0.00677608,0.0123785,1574,428,7.44051,32.1354
357,596,7.3927,-31.5877,-0.0017542,0.00823943,0.00399217,0.00963836,-0.00315313,1.23375,0.00769506,0.00993216,1581,428,7.39265,31.5877
364,596,7.35303,-31.0261,-0.00238134,0.00911027,0.00424359,0.0105075,-0.00377853,1.25273,0.00854755,0.0113262,1588,428,7.35299,31.0261
371,596,7.32715,-30.4862,-0.00290574,0.0103538,0.00455696,0.0117688,-0.00432083,1.2697,0.00961542,0.0146759,1595,428,7.3272,30.4862
378,596,7.26086,-29.9617,-0.00309065,0.0118108,0.00514854,0.0134166,-0.00469646,1.26846,0.010854,0.0202647,1602,428,7.26087,29.9617
385,596,7.20862,-29.3204,-0.00307062,0.0138175,0.00569279,0.0155573,-0.00481037,1.2742,0.0122928,0.0424651,1609,428,7.20859,29.3204
392,596,7.21716,-28.2935,0,0,0,0,0,0,0,-1,1616,428,7.21716,28.2935
399,596,7.11682,-27.4229,0,0,0,0,0,0,0,-1,1623,428,7.11688,27.4229
406,596,3.60034,-10.1525,0,0,0,0,0,0,0,-1,1630,428,3.60028,10.1525
413,596,3.39124,-2.63528,0,0,0,0,0,0,0,-1,1637,428,3.39122,2.6353
420,596,2.6344,-3.06308,0,0,0,0,0,0,0,-1,1644,428,2.63439,3.06308
427,596,7.61975,-22.7222,0,0,0,0,0,0,0,-1,1651,428,7.61974,22.7222
434,596,5.09753,-22.5213,0,0,0,0,0,0,0,-1,1658,428,5.09755,22.5213
441,596,7.19043,-22.087,0,0,0,0,0,0,0,-1,1665,428,7.19046,22.087
448,596,1.0769,0.0083313,0,0,0,0,0,0,0,-1,1672,428,1.07684,-0.00832231
455,596,2.00769,-1.43329,0,0,0,0,0,0,0,-1,1679,428,2.00765,1.4333
462,596,0,0,0,0,0,0,0,0,0,-1,1686,428,0,0
469,596,0,0,0,0,0,0,0,0,0,-1,1693,428,0,0
476,596,0,0,0,0,0,0,0,0,0,-1,1700,428,0,0
483,596,0,0,0,0,0,0,0,0,0,-1,1707,428,0,0
490,596,0,0,0,0,0,0,0,0,0,-1,1714,428,0,0
497,596,0,0,0,0,0,0,0,0,0,-1,1721,428,0,0
504,596,0,0,0,0,0,0,0,0,0,-1,1728,428,0,0
511,596,0,0,0,0,0,0,0,0,0,-1,1735,428,0,0
518,596,0,0,0,0,0,0,0,0,0,-1,1742,428,0,0
525,596,0,0,0,0,0,0,0,0,0,-1,1749,428,0,0
532,596,0,0,0,0,0,0,0,0,0,-1,1756,428,0,0
539,596,0,0,0,0,0,0,0,0,0,-1,1763,428,0,0
546,596,0,0,0,0,0,0,0,0,0,-1,1770,428,0,0
553,596,0,0,0,0,0,0,0,0,0,-1,1777,428,0,0
560,596,0,0,0,0,0,0,0,0,0,-1,1784,428,0,0
567,596,0,0,0,0,0,0,0,0,0,-1,1791,428,0,0
574,596,0,0,0,0,0,0,0,0,0,-1,1798,428,0,0
581,596,0,0,0,0,0,0,0,0,0,-1,1805,428,0,0
588,596,0,0,0,0,0,0,0,0,0,-1,1812,428,0,0
595,596,0,0,0,0,0,0,0,0,0,-1,1819,428,0,0
602,596,0,0,0,0,0,0,0,0,0,-1,1826,428,0,0
609,596,0,0,0,0,0,0,0,0,0,-1,1833,428,0,0
616,596,0,0,0,0,0,0,0,0,0,-1,1840,428,0,0
623,596,0,0,0,0,0,0,0,0,0,-1,1847,428,0,0
630,596,0,0,0,0,0,0,0,0,0,-1,1854,428,0,0
637,596,0,0,0,0,0,0,0,0,0,-1,1861,428,0,0
644,596,0,0,0,0,0,0,0,0,0,-1,1868,428,0,0
651,596,0,0,0,0,0,0,0,0,0,-1,1875,428,0,0
658,596,0,0,0,0,0,0,0,0,0,-1,1882,428,0,0
665,596,0,0,0,0,0,0,0,0,0,-1,1889,428,0,0
672,596,0,0,0,0,0,0,0,0,0,-1,1896,428,0,0
679,596,0,0,0,0,0,0,0,0,0,-1,1903,428,0,0
686,596,0,0,0,0,0,0,0,0,0,-1,1910,428,0,0
693,596,0,0,0,0,0,0,0,0,0,-1,1917,428,0,0
700,596,0,0,0,0,0,0,0,0,0,-1,1924,428,0,0
707,596,0,0,0,0,0,0,0,0,0,-1,1931,428,0,0
714,596,0,0,0,0,0,0,0,0,0,-1,1938,428,0,0
721,596,0,0,0,0,0,0,0,0,0,-1,1945,428,0,0
728,596,0,0,0,0,0,0,0,0,0,-1,1952,428,0,0
735,596,0,0,0,0,0,0,0,0,0,-1,1959,428,0,0
742,596,0,0,0,0,0,0,0,0,0,-1,1966,428,0,0
749,596,0,0,0,0,0,0,0,0,0,-1,1973,428,0,0
756,596,0,0,0,0,0,0,0,0,0,-1,1980,428,0,0
763,596,0,0,0,0,0,0,0,0,0,-1,1987,428,0,0
770,596,0,0,0,0,0,0,0,0,0,-1,1994,428,0,0
777,596,0,0,0,0,0,0,0,0,0,-1,2001,428,0,0
784,596,0,0,0,0,0,0,0,0,0,-1,2008,428,0,0
791,596,0,0,0,0,0,0,0,0,0,-1,2015,428,0,0
798,596,0,0,0,0,0,0,0,0,0,-1,2022,428,0,0
805,596,0,0,0,0,0,0,0,0,0,-1,2029,428,0,0
812,596,0,0,0,0,0,0,0,0,0,-1,2036,428,0,0
-700,589,0,0,0,0,0,0,0,0,0,-1,524,435,0,0
-693,589,0,0,0,0,0,0,0,0,0,-1,531,435,0,0
-686,589,0,0,0,0,0,0,0,0,0,-1,538,435,0,0
-679,589,0,0,0,0,0,0,0,0,0,-1,545,435,0,0
-672,589,0,0,0,0,0,0,0,0,0,-1,552,435,0,0
-665,589,0,0,0,0,0,0,0,0,0,-1,559,435,0,0
-658,589,0,0,0,0,0,0,0,0,0,-1,566,435,0,0
-651,589,0,0,0,0,0,0,0,0,0,-1,573,435,0,0
-644,589,0,0,0,0,0,0,0,0,0,-1,580,435,0,0
-637,589,0,0,0,0,0,0,0,0,0,-1,587,435,0,0
-630,589,0,0,0,0,0,0,0,0,0,-1,594,435,0,0
-623,589,0,0,0,0,0,0,0,0,0,-1,601,435,0,0
-616,589,0,0,0,0,0,0,0,0,0,-1,608,435,0,0
-609,589,0,0,0,0,0,0,0,0,0,-1,615,435,0,0
-602,589,0,0,0,0,0,0,0,0,0,-1,622,435,0,0
-595,589,0,0,0,0,0,0,0,0,0,-1,629,435,0,0
-588,589,0,0,0,0,0,0,0,0,0,-1,636,435,0,0
-581,589,0,0,0,0,0,0,0,0,0,-1,643,435,0,0
-574,589,0,0,0,0,0,0,0,0,0,-1,650,435,0,0
-567,589,0,0,0,0,0,0,0,0,0,-1,657,435,0,0
-560,589,0,0,0,0,0,0,0,0,0,-1,664,435,0,0
-553,589,0,0,0,0,0,0,0,0,0,-1,671,435,0,0
-546,589,0,0,0,0,0,0,0,0,0,-1,678,435,0,0
-539,589,0,0,0,0,0,0,0,0,0,-1,685,435,0,0
-532,589,0,0,0,0,0,0,0,0,0,-1,692,435,0,0
-525,589,0,0,0,0,0,0,0,0,0,-1,699,435,0,0
-518,589,0,0,0,0,0,0,0,0,0,-1,706,435,0,0
-511,589,0,0,0,0,0,0,0,0,0,-1,713,435,0,0
-504,589,0,0,0,0,0,0,0,0,0,-1,720,435,0,0
-497,589,0,0,0,0,0,0,0,0,0,-1,727,435,0,0
-490,589,0,0,0,0,0,0,0,0,0,-1,734,435,0,0
-483,589,0,0,0,0,0,0,0,0,0,-1,741,435,0,0
-476,589,0,0,0,0,0,0,0,0,0,-1,748,435,0,0
-469,589,0,0,0,0,0,0,0,0,0,-1,755,435,0,0
-462,589,0,0,0,0,0,0,0,0,0,-1,762,435,0,0
-455,589,0,0,0,0,0,0,0,0,0,-1,769,435,0,0
-448,589,0,0,0,0,0,0,0,0,0,-1,776,435,0,0
-441,589,0,0,0,0,0,0,0,0,0,-1,783,435,0,0
-434,589,0,0,0,0,0,0,0,0,0,-1,790,435,0,0
-427,589,0,0,0,0,0,0,0,0,0,-1,797,435,0,0
-420,589,0,0,0,0,0,0,0,0,0,-1,804,435,0,0
-413,589,0,0,0,0,0,0,0,0,0,-1,811,435,0,0
-406,589,0,0,0,0,0,0,0,0,0,-1,818,435,0,0
-399,589,0,0,0,0,0,0,0,0,0,-1,825,435,0,0
-392,589,0,0,0,0,0,0,0,0,0,-1,832,435,0,0
-385,589,0,0,0,0,0,0,0,0,0,-1,839,435,0,0
-378,589,0,0,0,0,0,0,0,0,0,-1,846,435,0,0
-371,589,0,0,0,0,0,0,0,0,0,-1,853,435,0,0
-364,589,0,0,0,0,0,0,0,0,0,-1,860,435,0,0
-357,589,0,0,0,0,0,0,0,0,0,-1,867,435,0,0
-350,589,-0.799927,-20.664,0,0,0,0,0,0,0,-1,874,435,-0.799952,20.664
-343,589,-0.370911,-19.1543,0,0,0,0,0,0,0,-1,881,435,-0.370922,19.1543
-336,589,-0.836914,-18.9103,0,0,0,0,0,0,0,-1,888,435,-0.836925,18.9103
-329,589,2.58252,-16.902,0,0,0,0,0,0,0,-1,895,435,2.58251,16.902
-322,589,5.25903,-22.0762,0,0,0,0,0,0,0,-1,902,435,5.25906,22.0762
-315,589,4.17072,-24.5494,0,0,0,0,0,0,0,-1,909,435,4.17071,24.5494
-308,589,4.30084,-25.8085,0,0,0,0,0,0,0,-1,916,435,4.30082,25.8085
-301,589,4.31152,-26.1006,0,0,0,0,0,0,0,-1,923,435,4.31153,26.1006
-294,589,3.52075,-27.1979,0,0,0,0,0,0,0,-1,930,435,3.52078,27.1979
-287,589,3.7785,-27.5861,0,0,0,0,0,0,0,-1,937,435,3.77848,27.5861
-280,589,3.7533,-28.3179,-0.00834604,-0.0393703,0.00635705,-0.00709397,-0.0406223,0.194468,0.0250539,0.0406571,944,435,3.75328,28.3179
-273,589,3.6853,-28.9834,-0.0081986,-0.0357379,0.00613908,-0.00689206,-0.0370444,0.209695,0.0227496,0.0227902,951,435,3.6853,28.9834
-266,589,3.62225,-29.5521,-0.00770719,-0.0316139,0.00563088,-0.00644732,-0.0328738,0.220119,0.0201142,0.021817,958,435,3.62226,29.5521
-259,589,3.58459,-30.1475,-0.00712172,-0.0264662,0.00534252,-0.00574431,-0.0278436,0.252325,0.0169748,0.0196349,965,435,3.58461,30.1475
-252,589,3.58362,-30.7915,-0.00620063,-0.0214042,0.00429076,-0.00507328,-0.0225315,0.256932,0.0136479,0.0115477,972,435,3.58362,30.7915
-245,589,3.58759,-31.3454,-0.00492734,-0.0164299,0.00327153,-0.00406197,-0.0172953,0.258594,0.0104429,0.0103683,979,435,3.58759,31.3454
-238,589,3.55652,-31.8734,-0.00366198,-0.0115775,0.00235184,-0.00301594,-0.0122236,0.268085,0.00735288,0.0133446,986,435,3.5565,31.8735
-231,589,3.50006,-32.3866,-0.00260422,-0.0073279,0.00138349,-0.00222885,-0.00770327,0.264944,0.00457717,0.0152604,993,435,3.50008,32.3866
-224,589,3.45178,-32.906,-0.00148541,-0.00331424,0.000432066,-0.00138848,-0.00341118,0.220706,0.00198076,0.0149171,1000,435,3.4518,32.906
-217,589,3.43188,-33.4274,-0.000601113,0.00011715,-0.000322245,0.000240529,-0.000724492,-1.20514,0.00058004,0.0147527,1007,435,3.43189,33.4274
-210,589,3.43445,-33.9323,-0.000136514,0.0019063,-0.000796248,0.00217999,-0.000410207,-1.23972,0.0016076,0.0146313,1014,435,3.43447,33.9323
-203,589,3.4364,-34.4097,0.000131986,0.0021216,-0.000877099,0.00245304,-0.000199459,-1.2095,0.00170574,0.0115763,1021,435,3.43635,34.4097
-196,589,3.41296,-34.8916,0.000433431,0.000698225,-0.000717526,0.00129547,-0.000163811,-0.876632,0.000923106,0.013973,1028,435,3.41296,34.8916
-189,589,3.38342,-35.3975,0.000745376,-0.000896411,-0.000420717,0.000846908,-0.000997943,-0.236803,0.00106631,0.0174537,1035,435,3.38348,35.3975
-182,589,3.38672,-35.8312,0.000990638,-0.00247907,6.87295e-05,0.000991999,-0.00248043,0.0197981,0.00206529,0.0129101,1042,435,3.38673,35.8312
-175,589,3.39294,-36.3036,0.00117867,-0.00405577,0.000594274,0.00124529,-0.0041224,0.111639,0.00324404,0.015906,1049,435,3.39299,36.3036
-168,589,3.39526,-36.7877,0.00128635,-0.00572521,0.00106293,0.00144395,-0.0058828,0.147192,0.00448141,0.0134805,1056,435,3.39525,36.7877
-161,589,3.39954,-37.2126,0.00137326,-0.00710064,0.00145935,0.00161755,-0.00734492,0.165854,0.00551544,0.0125801,1063,435,3.39958,37.2126
-154,589,3.38013,-37.6234,0.00152108,-0.00825971,0.00176892,0.00183117,-0.0085698,0.173535,0.00641136,0.0126577,1070,435,3.38013,37.6234
-147,589,3.41589,-38.0407,0.00163793,-0.00949447,0.00206808,0.0020097,-0.00986624,0.177868,0.00733969,0.0131556,1077,435,3.41588,38.0407
-140,589,3.42334,-38.4635,0.00170998,-0.0107118,0.00236272,0.00214421,-0.011146,0.181755,0.00823894,0.0149766,1084,435,3.42332,38.4635
-133,589,3.41626,-38.868,0.00173845,-0.0120313,0.00265075,0.0022311,-0.012524,0.183758,0.00918382,0.0150461,1091,435,3.41628,38.868
-126,589,3.44873,-39.2617,0.00186229,-0.0130133,0.00282721,0.00238151,-0.0135325,0.181624,0.00991134,0.0122349,1098,435,3.44875,39.2617
-119,589,3.42126,-39.637,0.00206142,-0.0137819,0.00290178,0.00257617,-0.0142966,0.175565,0.0104957,0.0181563,1105,435,3.42125,39.637
-112,589,3.42871,-40.0212,0.00226139,-0.0141942,0.0028043,0.00272616,-0.014659,0.164242,0.0107967,0.0198241,1112,435,3.42869,40.0212
-105,589,3.50488,-40.5671,0.00246396,-0.0140237,0.00268597,0.00289049,-0.0144502,0.157485,0.0107276,0.0441293,1119,435,3.50486,40.5671
-98,589,3.55811,-40.9038,0,0,0,0,0,0,0,-1,1126,435,3.55814,40.9038
-91,589,3.39563,-37.8231,0,0,0,0,0,0,0,-1,1133,435,3.39565,37.8231
-84,589,2.76538,-22.6013,0,0,0,0,0,0,0,-1,1140,435,2.76539,22.6014
-77,589,2.18152,-14.8023,0,0,0,0,0,0,0,-1,1147,435,2.18155,14.8023
-70,589,1.48267,-9.90961,0,0,0,0,0,0,0,-1,1154,435,1.48264,9.9096
-63,589,0.880127,-5.50586,0,0,0,0,0,0,0,-1,1161,435,0.880186,5.50587
-56,589,-2.78052,-7.28082,0,0,0,0,0,0,0,-1,1168,435,-2.78053,7.28082
-49,589,-0.525757,-2.76703,0,0,0,0,0,0,0,-1,1175,435,-0.525771,2.76702
-42,589,-2.7738,-2.87921,0,0,0,0,0,0,0,-1,1182,435,-2.77383,2.87922
-35,589,-2.55225,-3.27551,0,0,0,0,0,0,0,-1,1189,435,-2.55223,3.27552
-28,589,-0.0632324,-3.42938,0,0,0,0,0,0,0,-1,1196,435,-0.063241,3.42938
-21,589,4.36865,-42.9444,0,0,0,0,0,0,0,-1,1203,435,4.36869,42.9444
-14,589,4.50696,-43.2805,-0.00993501,0.00753865,0.0128976,0.01438,-0.0167763,1.0831,0.0180058,0.0463985,1210,435,4.50692,43.2805
-7,589,4.53088,-43.4926,-0.0131486,0.00735815,0.0153116,0.0155324,-0.0213228,1.08043,0.0213657,0.0499549,1217,435,4.53084,43.4926
0,589,4.45093,-43.715,0,0,0,0,0,0,0,-1,1224,435,4.4509,43.715
7,589,4.46814,-43.4617,-0.0200506,0.00675992,0.0188725,0.0165036,-0.0297942,1.0942,0.0270947,0.0466019,1231,435,4.4681,43.4617
14,589,4.41199,-43.1451,0,0,0,0,0,0,0,-1,1238,435,4.41195,43.1451
21,589,4.14844,-42.7171,-0.0280913,0.00672681,0.0207222,0.0163822,-0.0377467,1.13476,0.0320525,0.0430288,1245,435,4.14846,42.7171
28,589,4.08313,-42.3286,-0.0322984,0.00773782,0.0207476,0.01655,-0.0411106,1.16915,0.0342823,0.0451347,1252,435,4.08315,42.3286
35,589,4.20874,-41.7867,-0.0348861,0.010649,0.0186258,0.0172971,-0.0415342,1.22796,0.0349139,0.0467483,1259,435,4.20873,41.7867
42,589,5.19531,-44.1781,0,0,0,0,0,0,0,-1,1266,435,5.1953,44.1781
49,589,2.50159,-40.802,0,0,0,0,0,0,0,-1,1273,435,2.50164,40.802
56,589,2.12537,-41.1305,-0.0379853,0.0200629,0.0112651,0.0221724,-0.0400948,1.38568,0.036443,0.0466796,1280,435,2.12533,41.1305
63,589,1.34216,-41.3765,-0.0353547,0.0224717,0.00560606,0.0230102,-0.0358932,1.47504,0.0342779,0.0450467,1287,435,1.34222,41.3765
70,589,0.518433,-41.3853,0,0,0,0,0,0,0,-1,1294,435,0.518399,41.3853
77,589,-0.309204,-41.2864,0,0,0,0,0,0,0,-1,1301,435,-0.309202,41.2864
84,589,-1.20898,-41.1961,0,0,0,0,0,0,0,-1,1308,435,-1.20893,41.1961
91,589,-2.07556,-41.148,0,0,0,0,0,0,0,-1,1315,435,-2.07553,41.148
98,589,-0.376099,-43.569,-0.0225066,0.0345016,-0.0207478,0.0412531,-0.0292581,-1.2562,0.0409055,0.0438635,1322,435,-0.376101,43.569
105,589,-0.902222,-43.8207,-0.0201472,0.0354979,-0.0251784,0.0451993,-0.0298486,-1.20302,0.04363,0.0472585,1329,435,-0.902199,43.8207
112,589,-1.42627,-44.4215,0,0,0,0,0,0,0,-1,1336,435,-1.42624,44.4215
119,589,-1.8822,-44.9837,0,0,0,0,0,0,0,-1,1343,435,-1.88218,44.9837
126,589,-2.35852,-45.4876,0,0,0,0,0,0,0,-1,1350,435,-2.35854,45.4876
133,589,7.32532,-42.3791,0,0,0,0,0,0,0,-1,1357,435,7.32526,42.3791
140,589,6.90515,-42.1267,0,0,0,0,0,0,0,-1,1364,435,6.90512,42.1267
147,589,6.50549,-41.8563,0,0,0,0,0,0,0,-1,1371,435,6.50547,41.8563
154,589,4.18628,-40.8095,0,0,0,0,0,0,0,-1,1378,435,4.1863,40.8095
161,589,2.00488,-40.5194,0,0,0,0,0,0,0,-1,1385,435,2.00483,40.5194
168,589,0.89917,-39.7728,0,0,0,0,0,0,0,-1,1392,435,0.899149,39.7728
175,589,8.66992,-7.65527,0,0,0,0,0,0,0,-1,1399,435,8.66994,7.65528
182,589,3.8136,-2.45389,0,0,0,0,0,0,0,-1,1406,435,3.81363,2.4539
189,589,3.69983,-3.68149,0,0,0,0,0,0,0,-1,1413,435,3.69987,3.68147
196,589,3.31055,-5.31677,0,0,0,0,0,0,0,-1,1420,435,3.31059,5.31678
203,589,2.72559,-8.84338,0,0,0,0,0,0,0,-1,1427,435,2.72558,8.84338
210,589,3.62378,-14.4032,0,0,0,0,0,0,0,-1,1434,435,3.62378,14.4032
217,589,4.65601,-22.3745,0,0,0,0,0,0,0,-1,1441,435,4.65607,22.3745
224,589,6.79028,-33.9412,0,0,0,0,0,0,0,-1,1448,435,6.79028,33.9412
231,589,7.96045,-40.181,0,0,0,0,0,0,0,-1,1455,435,7.96047,40.181
238,589,7.95068,-39.6951,0,0,0,0,0,0,0,-1,1462,435,7.95063,39.6951
245,589,7.98828,-39.2883,0,0,0,0,0,0,0,-1,1469,435,7.98829,39.2883
252,589,7.99377,-38.846,0.00312125,0.00142522,-0.00149969,0.00399609,0.000550384,-0.528081,0.00250087,0.0160601,1476,435,7.99377,38.846
259,589,7.99963,-38.4498,0.00276701,0.00122234,-0.00131633,0.00352086,0.000468494,-0.520096,0.00220771,0.0101892,1483,435,7.99963,38.4498
266,589,8.00122,-38.0179,0.00249483,0.00106567,-0.00115437,0.00313789,0.000422602,-0.508254,0.00196626,0.0103487,1490,435,8.00128,38.0178
273,589,8.03064,-37.6042,0.00243404,0.000917082,-0.000828471,0.0027988,0.000552327,-0.414737,0.00171172,0.012456,1497,435,8.03067,37.6042
280,589,8.05298,-37.1689,0.00239078,0.000846745,-0.000486053,0.00253104,0.00070648,-0.280946,0.00150807,0.0133813,1504,435,8.05296,37.1689
287,589,8.05066,-36.7101,0.00233828,0.000842617,-0.000121153,0.00234803,0.000832867,-0.0803051,0.00137458,0.0119934,1511,435,8.05067,36.7102
294,589,8.04932,-36.2157,0.00224606,0.00105429,0.000256557,0.00229895,0.00100141,0.203279,0.00133096,0.0106342,1518,435,8.04931,36.2157
301,589,8.04419,-35.7442,0.00212038,0.00130413,0.000626708,0.00246014,0.000964373,0.496782,0.00143136,0.0111184,1525,435,8.04414,35.7442
308,589,8.03735,-35.2528,0.00199252,0.00150453,0.000958381,0.00273748,0.000759573,0.660752,0.00163183,0.0109793,1532,435,8.03732,35.2528
315,589,8.01587,-34.7469,0.00174261,0.00196428,0.00126677,0.00312505,0.000581841,0.829033,0.00191905,0.0102909,1539,435,8.01585,34.7468
322,589,8.0343,-34.244,0.00132896,0.00245423,0.001545,0.00353585,0.000247338,0.960016,0.00227927,0.0112858,1546,435,8.03425,34.244
329,589,8.01721,-33.7519,0.000869891,0.00289143,0.00178683,0.00393357,-0.000172242,1.0428,0.00268164,0.0101172,1553,435,8.01719,33.7519
336,589,7.97961,-33.2653,0.000400128,0.00342535,0.00201054,0.00442874,-0.000603263,1.1079,0.00317276,0.00964421,1560,435,7.97963,33.2653
343,589,7.9668,-32.7418,-0.000117045,0.00402704,0.00218441,0.00496581,-0.00105582,1.1649,0.00371286,0.0115008,1567,435,7.96679,32.7418
350,589,7.94519,-32.1805,-0.000571303,0.00504228,0.00254606,0.00602502,-0.00155404,1.20243,0.0046226,0.0173482,1574,435,7.94522,32.1804
357,589,7.92102,-31.6037,-0.00104463,0.00602925,0.00295099,0.00709864,-0.00211402,1.22313,0.00557241,0.0142374,1581,435,7.92102,31.6037
364,589,7.90723,-31.0679,-0.00151545,0.00700755,0.00330317,0.00813784,-0.00264573,1.2411,0.00648947,0.0113284,1588,435,7.90724,31.0679
371,589,7.86963,-30.5086,-0.00190377,0.00822053,0.0037076,0.00943307,-0.0031163,1.25472,0.00754514,0.0116678,1595,435,7.86968,30.5086
378,589,7.82727,-29.9202,-0.00207892,0.00952427,0.00425277,0.010916,-0.00347069,1.25452,0.00866902,0.0128775,1602,435,7.82731,29.9202
385,589,7.80554,-29.304,-0.00206236,0.0112066,0.00473514,0.0127231,-0.00357882,1.26086,0.00989318,0.0195756,1609,435,7.80559,29.304
392,589,7.76587,-28.5712,-0.0017349,0.0124644,0.00506854,0.014088,-0.00335851,1.26079,0.0106888,0.0262269,1616,435,7.76582,28.5712
399,589,7.76245,-27.8065,-0.00107994,0.0139916,0.00574193,0.0159299,-0.00301822,1.24524,0.0117559,0.0387167,1623,435,7.7625,27.8066
406,589,7.79504,-27.1964,0,0,0,0,0,0,0,-1,1630,435,7.79508,27.1964
413,589,5.61377,-19.0606,0,0,0,0,0,0,0,-1,1637,435,5.61372,19.0606
420,589,2.79724,-5.79956,0,0,0,0,0,0,0,-1,1644,435,2.7973,5.79955
427,589,7.12793,-25.8375,0,0,0,0,0,0,0,-1,1651,435,7.12789,25.8375
434,589,7.21216,-24.6968,0,0,0,0,0,0,0,-1,1658,435,7.21216,24.6968
441,589,7.03076,-23.7162,0,0,0,0,0,0,0,-1,1665,435,7.03082,23.7162
448,589,0.453735,-3.2868,0,0,0,0,0,0,0,-1,1672,435,0.453701,3.28681
455,589,0.664307,-3.46848,0,0,0,0,0,0,0,-1,1679,435,0.66425,3.46846
462,589,3.46716,-4.41891,0,0,0,0,0,0,0,-1,1686,435,3.4672,4.41891
469,589,0.0238037,-3.81497,0,0,0,0,0,0,0,-1,1693,435,0.0237965,3.81498
476,589,0,0,0,0,0,0,0,0,0,-1,1700,435,0,0
483,589,0,0,0,0,0,0,0,0,0,-1,1707,435,0,0
490,589,0,0,0,0,0,0,0,0,0,-1,1714,435,0,0
497,589,0,0,0,0,0,0,0,0,0,-1,1721,435,0,0
504,589,0,0,0,0,0,0,0,0,0,-1,1728,435,0,0
511,589,0,0,0,0,0,0,0,0,0,-1,1735,435,0,0
518,589,0,0,0,0,0,0,0,0,0,-1,1742,435,0,0
525,589,0,0,0,0,0,0,0,0,0,-1,1749,435,0,0
532,589,0,0,0,0,0,0,0,0,0,-1,1756,435,0,0
539,589,0,0,0,0,0,0,0,0,0,-1,1763,435,0,0
546,589,0,0,0,0,0,0,0,0,0,-1,1770,435,0,0
553,589,0,0,0,0,0,0,0,0,0,-1,1777,435,0,0
560,589,0,0,0,0,0,0,0,0,0,-1,1784,435,0,0
567,589,0,0,0,0,0,0,0,0,0,-1,1791,435,0,0
574,589,0,0,0,0,0,0,0,0,0,-1,1798,435,0,0
581,589,0,0,0,0,0,0,0,0,0,-1,1805,435,0,0
588,589,0,0,0,0,0,0,0,0,0,-1,1812,435,0,0
595,589,0,0,0,0,0,0,0,0,0,-1,1819,435,0,0
602,589,0,0,0,0,0,0,0,0,0,-1,1826,435,0,0
609,589,0,0,0,0,0,0,0,0,0,-1,1833,435,0,0
616,589,0,0,0,0,0,0,0,0,0,-1,1840,435,0,0
623,589,0,0,0,0,0,0,0,0,0,-1,1847,435,0,0
630,589,0,0,0,0,0,0,0,0,0,-1,1854,435,0,0
637,589,0,0,0,0,0,0,0,0,0,-1,1861,435,0,0
644,589,0,0,0,0,0,0,0,0,0,-1,1868,435,0,0
651,589,0,0,0,0,0,0,0,0,0,-1,1875,435,0,0
658,589,0,0,0,0,0,0,0,0,0,-1,1882,435,0,0
665,589,0,0,0,0,0,0,0,0,0,-1,1889,435,0,0
672,589,0,0,0,0,0,0,0,0,0,-1,1896,435,0,0
679,589,0,0,0,0,0,0,0,0,0,-1,1903,435,0,0
686,589,0,0,0,0,0,0,0,0,0,-1,1910,435,0,0
693,589,0,0,0,0,0,0,0,0,0,-1,1917,435,0,0
700,589,0,0,0,0,0,0,0,0,0,-1,1924,435,0,0
707,589,0,0,0,0,0,0,0,0,0,-1,1931,435,0,0
714,589,0,0,0,0,0,0,0,0,0,-1,1938,435,0,0
721,589,0,0,0,0,0,0,0,0,0,-1,1945,435,0,0
728,589,0,0,0,0,0,0,0,0,0,-1,1952,435,0,0
735,589,0,0,0,0,0,0,0,0,0,-1,1959,435,0,0
742,589,0,0,0,0,0,0,0,0,0,-1,1966,435,0,0
749,589,0,0,0,0,0,0,0,0,0,-1,1973,435,0,0
756,589,0,0,0,0,0,0,0,0,0,-1,1980,435,0,0
763,589,0,0,0,0,0,0,0,0,0,-1,1987,435,0,0
770,589,0,0,0,0,0,0,0,0,0,-1,1994,435,0,0
777,589,0,0,0,0,0,0,0,0,0,-1,2001,435,0,0
784,589,0,0,0,0,0,0,0,0,0,-1,2008,435,0,0
791,589,0,0,0,0,0,0,0,0,0,-1,2015,435,0,0
798,589,0,0,0,0,0,0,0,0,0,-1,2022,435,0,0
805,589,0,0,0,0,0,0,0,0,0,-1,2029,435,0,0
812,589,0,0,0,0,0,0,0,0,0,-1,2036,435,0,0
-700,582,0,0,0,0,0,0,0,0,0,-1,524,442,0,0
-693,582,0,0,0,0,0,0,0,0,0,-1,531,442,0,0
-686,582,0,0,0,0,0,0,0,0,0,-1,538,442,0,0
-679,582,0,0,0,0,0,0,0,0,0,-1,545,442,0,0
-672,582,0,0,0,0,0,0,0,0,0,-1,552,442,0,0
-665,582,0,0,0,0,0,0,0,0,0,-1,559,442,0,0
-658,582,0,0,0,0,0,0,0,0,0,-1,566,442,0,0
-651,582,0,0,0,0,0,0,0,0,0,-1,573,442,0,0
-644,582,0,0,0,0,0,0,0,0,0,-1,580,442,0,0
-637,582,0,0,0,0,0,0,0,0,0,-1,587,442,0,0
-630,582,0,0,0,0,0,0,0,0,0,-1,594,442,0,0
-623,582,0,0,0,0,0,0,0,0,0,-1,601,442,0,0
-616,582,0,0,0,0,0,0,0,0,0,-1,608,442,0,0
-609,582,0,0,0,0,0,0,0,0,0,-1,615,442,0,0
-602,582,0,0,0,0,0,0,0,0,0,-1,622,442,0,0
-595,582,0,0,0,0,0,0,0,0,0,-1,629,442,0,0
-588,582,0,0,0,0,0,0,0,0,0,-1,636,442,0,0
-581,582,0,0,0,0,0,0,0,0,0,-1,643,442,0,0
-574,582,0,0,0,0,0,0,0,0,0,-1,650,442,0,0
-567,582,0,0,0,0,0,0,0,0,0,-1,657,442,0,0
-560,582,0,0,0,0,0,0,0,0,0,-1,664,442,0,0
-553,582,0,0,0,0,0,0,0,0,0,-1,671,442,0,0
-546,582,0,0,0,0,0,0,0,0,0,-1,678,442,0,0
-539,582,0,0,0,0,0,0,0,0,0,-1,685,442,0,0
-532,582,0,0,0,0,0,0,0,0,0,-1,692,442,0,0
-525,582,0,0,0,0,0,0,0,0,0,-1,699,442,0,0
-518,582,0,0,0,0,0,0,0,0,0,-1,706,442,0,0
-511,582,0,0,0,0,0,0,0,0,0,-1,713,442,0,0
-504,582,0,0,0,0,0,0,0,0,0,-1,720,442,0,0
-497,582,0,0,0,0,0,0,0,0,0,-1,727,442,0,0
-490,582,0,0,0,0,0,0,0,0,0,-1,734,442,0,0
-483,582,0,0,0,0,0,0,0,0,0,-1,741,442,0,0
-476,582,0,0,0,0,0,0,0,0,0,-1,748,442,0,0
-469,582,0,0,0,0,0,0,0,0,0,-1,755,442,0,0
-462,582,0,0,0,0,0,0,0,0,0,-1,762,442,0,0
-455,582,0,0,0,0,0,0,0,0,0,-1,769,442,0,0
-448,582,0,0,0,0,0,0,0,0,0,-1,776,442,0,0
-441,582,0,0,0,0,0,0,0,0,0,-1,783,442,0,0
-434,582,0,0,0,0,0,0,0,0,0,-1,790,442,0,0
-427,582,0,0,0,0,0,0,0,0,0,-1,797,442,0,0
-420,582,0,0,0,0,0,0,0,0,0,-1,804,442,0,0
-413,582,0,0,0,0,0,0,0,0,0,-1,811,442,0,0
-406,582,0,0,0,0,0,0,0,0,0,-1,818,442,0,0
-399,582,0,0,0,0,0,0,0,0,0,-1,825,442,0,0
-392,582,0,0,0,0,0,0,0,0,0,-1,832,442,0,0
-385,582,0,0,0,0,0,0,0,0,0,-1,839,442,0,0
-378,582,0,0,0,0,0,0,0,0,0,-1,846,442,0,0
-371,582,0,0,0,0,0,0,0,0,0,-1,853,442,0,0
-364,582,0,0,0,0,0,0,0,0,0,-1,860,442,0,0
-357,582,-1.4903,-21.5295,0,0,0,0,0,0,0,-1,867,442,-1.49031,21.5295
-350,582,-0.880859,-19.7966,0,0,0,0,0,0,0,-1,874,442,-0.880885,19.7966
-343,582,-0.208557,-18.0078,0,0,0,0,0,0,0,-1,881,442,-0.208576,18.0078
-336,582,-0.167114,-18.7637,0,0,0,0,0,0,0,-1,888,442,-0.167108,18.7637
-329,582,4.35913,-21.6647,0,0,0,0,0,0,0,-1,895,442,4.35915,21.6647
-322,582,5.75549,-23.4596,0,0,0,0,0,0,0,-1,902,442,5.7555,23.4596
-315,582,3.07159,-25.8352,0,0,0,0,0,0,0,-1,909,442,3.07157,25.8352
-308,582,3.448,-26.0603,0.00163979,-0.0213272,-0.000655253,0.00165847,-0.0213458,-0.0284993,0.0148144,0.0496013,916,442,3.448,26.0603
-301,582,3.61438,-26.3543,-0.000820233,-0.0237472,0.0007899,-0.000793052,-0.0237744,0.0343985,0.015592,0.045048,923,442,3.61438,26.3543
-294,582,3.15289,-27.2307,-0.00278855,-0.0246939,0.00188498,-0.00262753,-0.024855,0.085216,0.0157673,0.0449838,930,442,3.15291,27.2307
-287,582,3.18597,-27.7523,-0.00408059,-0.0246422,0.00258528,-0.00376052,-0.0249623,0.123179,0.0155404,0.0410916,937,442,3.18598,27.7523
-280,582,3.22766,-28.36,-0.0046166,-0.0232604,0.002837,-0.00419446,-0.0236826,0.147715,0.0145926,0.0206677,944,442,3.22768,28.3599
-273,582,3.19556,-29.0086,-0.0047585,-0.0212512,0.00291877,-0.00425719,-0.0217525,0.170093,0.0133115,0.0116506,951,442,3.19555,29.0086
-266,582,3.14789,-29.6265,-0.00460397,-0.0189566,0.00275596,-0.00409297,-0.0194676,0.183335,0.011852,0.0109154,958,442,3.14786,29.6265
-259,582,3.10815,-30.214,-0.00437921,-0.0158456,0.00289915,-0.00368788,-0.016537,0.234089,0.0100241,0.00920623,965,442,3.10814,30.214
-252,582,3.07916,-30.7888,-0.00381708,-0.0129167,0.00234612,-0.0032478,-0.0134859,0.238046,0.0081273,0.00828433,972,442,3.07914,30.7888
-245,582,3.07043,-31.3087,-0.00286438,-0.0101855,0.00183586,-0.00242981,-0.0106201,0.232434,0.00642512,0.0117895,979,442,3.07041,31.3088
-238,582,3.05243,-31.8271,-0.0018622,-0.00749716,0.00142942,-0.00152034,-0.00783902,0.23475,0.00480017,0.0165245,986,442,3.05245,31.8271
-231,582,3.01318,-32.3553,-0.00105722,-0.00535488,0.000978504,-0.000844922,-0.00556718,0.213654,0.00346433,0.0135431,993,442,3.01321,32.3554
-224,582,2.97455,-32.8834,-0.000268693,-0.00347174,0.000572584,-0.000169414,-0.00357102,0.171681,0.00232626,0.0107372,1000,442,2.97454,32.8834
-217,582,2.93524,-33.4104,0.000361274,-0.00201894,0.000313833,0.000401957,-0.00205962,0.128916,0.00152483,0.0122901,1007,442,2.93525,33.4104
-210,582,2.94537,-33.9015,0.000740831,-0.00183815,0.000250544,0.000764945,-0.00186226,0.0959529,0.0015603,0.0127598,1014,442,2.94535,33.9015
-203,582,2.95978,-34.3857,0.00100941,-0.0025695,0.000427115,0.00105968,-0.00261977,0.11715,0.00218706,0.0103116,1021,442,2.95977,34.3856
-196,582,2.94812,-34.9069,0.00131804,-0.00409619,0.000754259,0.00142116,-0.0041993,0.135865,0.00337452,0.0151925,1028,442,2.94812,34.9069
-189,582,2.90063,-35.3846,0.00161815,-0.00571646,0.00112451,0.00178668,-0.00588499,0.148765,0.00463513,0.0222738,1035,442,2.90058,35.3846
-182,582,2.92725,-35.8329,0.00186115,-0.00722911,0.00156238,0.00212219,-0.00749014,0.165547,0.00583101,0.0162091,1042,442,2.92728,35.8329
-175,582,2.93323,-36.2747,0.00201784,-0.00861062,0.00201482,0.00238697,-0.00897975,0.181196,0.00692076,0.0136299,1049,442,2.93325,36.2747
-168,582,2.9425,-36.7416,0.00208566,-0.0103086,0.00243823,0.00254807,-0.010771,0.187422,0.00816365,0.0115436,1056,442,2.94256,36.7416
-161,582,2.95081,-37.1618,0.00211289,-0.0116577,0.00278815,0.00265599,-0.0122008,0.19238,0.00914866,0.0128804,1063,442,2.95086,37.1618
-154,582,2.9436,-37.5804,0.00219476,-0.0127823,0.00304165,0.0027889,-0.0133765,0.192909,0.00997805,0.0125755,1070,442,2.94358,37.5804
-147,582,2.96887,-38.0174,0.00224567,-0.0140025,0.0032731,0.00288023,-0.0146371,0.191497,0.0108464,0.0123294,1077,442,2.96889,38.0174
-140,582,2.9657,-38.4189,0.00220718,-0.0152095,0.003531,0.00289581,-0.0158981,0.192608,0.0116842,0.01297,1084,442,2.96569,38.4189
-133,582,3.01294,-38.8143,0.00208354,-0.0167326,0.00382712,0.00283218,-0.0174812,0.193173,0.0127039,0.0160471,1091,442,3.01298,38.8143
-126,582,3.03894,-39.1369,0.00208471,-0.017888,0.00399005,0.00285232,-0.0186556,0.190059,0.0134887,0.0158705,1098,442,3.03893,39.1369
-119,582,2.98279,-39.3754,0.00214131,-0.0188744,0.00402141,0.00288453,-0.0196177,0.182754,0.0141384,0.0203617,1105,442,2.98277,39.3754
-112,582,2.87109,-39.8217,0.00214941,-0.0194674,0.00383604,0.00280995,-0.0201279,0.170522,0.0144467,0.034951,1112,442,2.87112,39.8217
-105,582,2.85535,-40.3065,0,0,0,0,0,0,0,-1,1119,442,2.85535,40.3065
-98,582,2.61938,-32.8673,0,0,0,0,0,0,0,-1,1126,442,2.61944,32.8673
-91,582,2.16492,-24.1119,0,0,0,0,0,0,0,-1,1133,442,2.16496,24.1119
-84,582,2.10278,-16.7533,0,0,0,0,0,0,0,-1,1140,442,2.10279,16.7533
-77,582,2.30212,-11.4907,0,0,0,0,0,0,0,-1,1147,442,2.30207,11.4907
-70,582,1.49255,-6.36548,0,0,0,0,0,0,0,-1,1154,442,1.49251,6.36549
-63,582,-4.62915,-4.0347,0,0,0,0,0,0,0,-1,1161,442,-4.6292,4.03471
-56,582,-5.81714,-5.24149,0,0,0,0,0,0,0,-1,1168,442,-5.81718,5.24149
-49,582,-3.88672,-10.1064,0,0,0,0,0,0,0,-1,1175,442,-3.88678,10.1064
-42,582,-0.948975,1.13968,0,0,0,0,0,0,0,-1,1182,442,-0.949003,-1.13969
-35,582,-2.58435,-3.86911,0,0,0,0,0,0,0,-1,1189,442,-2.58437,3.86912
-28,582,-0.825317,-3.45941,0,0,0,0,0,0,0,-1,1196,442,-0.825377,3.45942
-21,582,4.35815,-43.0687,0,0,0,0,0,0,0,-1,1203,442,4.35818,43.0687
-14,582,4.52808,-43.4341,-0.0172052,0.0183722,0.0157519,0.024344,-0.023177,1.20842,0.027439,0.0451343,1210,442,4.52803,43.4341
-7,582,4.47864,-43.5069,-0.0205448,0.0179379,0.0186608,0.0255005,-0.0281075,1.18576,0.0309628,0.0499001,1217,442,4.47861,43.5069
0,582,4.12195,-43.4928,0,0,0,0,0,0,0,-1,1224,442,4.1219,43.4928
7,582,4.09741,-43.399,0,0,0,0,0,0,0,-1,1231,442,4.09744,43.399
14,582,4.073,-43.3052,0,0,0,0,0,0,0,-1,1238,442,4.07298,43.3052
21,582,3.88855,-42.3094,-0.0368968,0.0153415,0.0251025,0.0254487,-0.047004,1.18802,0.0424432,0.0418528,1245,442,3.88861,42.3094
28,582,3.86646,-41.872,-0.0416787,0.0159325,0.0250479,0.0252996,-0.0510459,1.21293,0.0449058,0.0426934,1252,442,3.8665,41.872
35,582,3.77136,-41.2532,-0.0448127,0.0184525,0.0227063,0.0257583,-0.0521185,1.25951,0.0458127,0.0461453,1259,442,3.77139,41.2532
42,582,2.77307,-41.2132,-0.0473244,0.0204038,0.0207124,0.0262358,-0.0531565,1.29633,0.0467073,0.0470197,1266,442,2.77303,41.2132
49,582,1.54565,-41.2859,-0.0489412,0.0234389,0.0178672,0.0276092,-0.0531115,1.3415,0.0473731,0.0444165,1273,442,1.54562,41.2859
56,582,0.873901,-41.3379,-0.0478595,0.0270283,0.0137802,0.0294835,-0.0503148,1.39448,0.0465919,0.0431347,1280,442,0.873914,41.3379
63,582,0.074585,-41.5923,-0.0444514,0.0291533,0.0069194,0.0297981,-0.0450962,1.47787,0.0435399,0.04355,1287,442,0.0746294,41.5923
70,582,0.0693359,-41.2034,0,0,0,0,0,0,0,-1,1294,442,0.0693004,41.2034
77,582,-1.33838,-41.3063,0,0,0,0,0,0,0,-1,1301,442,-1.33833,41.3063
84,582,-2.24548,-41.2283,-0.0359958,0.0395983,-0.0131047,0.0418056,-0.0382031,-1.40392,0.0462087,0.0473418,1308,442,-2.24543,41.2283
91,582,-0.755859,-43.6495,-0.0323188,0.0416184,-0.0196378,0.0465105,-0.0372109,-1.32665,0.0484359,0.0427221,1315,442,-0.755845,43.6495
98,582,-1.23621,-44.1777,-0.0287104,0.0428981,-0.025656,0.0511413,-0.0369536,-1.25992,0.051081,0.0433451,1322,442,-1.23615,44.1777
105,582,-2.10535,-44.658,-0.0259003,0.0447637,-0.0314175,0.0567118,-0.0378484,-1.20739,0.0549553,0.0440802,1329,442,-2.10533,44.658
112,582,-2.79382,-45.383,0,0,0,0,0,0,0,-1,1336,442,-2.79377,45.383
119,582,-1.85327,-45.1843,-0.0231658,0.0475246,-0.0415985,0.0667662,-0.0424074,-1.13755,0.0635522,0.0452788,1343,442,-1.85325,45.1843
126,582,-2.40894,-45.6637,-0.0231048,0.0487829,-0.0449493,0.0703925,-0.0447144,-1.12266,0.067006,0.04912,1350,442,-2.40898,45.6637
133,582,-3.0116,-46.1609,0,0,0,0,0,0,0,-1,1357,442,-3.01156,46.1609
140,582,-3.99146,-46.4327,0,0,0,0,0,0,0,-1,1364,442,-3.99148,46.4327
147,582,4.34924,-41.3736,0,0,0,0,0,0,0,-1,1371,442,4.34926,41.3736
154,582,2.81335,-41.0284,0,0,0,0,0,0,0,-1,1378,442,2.81334,41.0284
161,582,1.51648,-40.8437,0,0,0,0,0,0,0,-1,1385,442,1.51649,40.8437
168,582,0.081665,-40.4535,0,0,0,0,0,0,0,-1,1392,442,0.0816215,40.4535
175,582,6.50549,-2.00424,0,0,0,0,0,0,0,-1,1399,442,6.50546,2.00425
182,582,5.18958,-2.18652,0,0,0,0,0,0,0,-1,1406,442,5.1896,2.18652
189,582,6.19751,-0.880951,0,0,0,0,0,0,0,-1,1413,442,6.19754,0.88096
196,582,4.87354,-2.22327,0,0,0,0,0,0,0,-1,1420,442,4.87348,2.22325
203,582,3.11401,-4.48257,0,0,0,0,0,0,0,-1,1427,442,3.11404,4.48259
210,582,2.93115,-11.0731,0,0,0,0,0,0,0,-1,1434,442,2.93113,11.0731
217,582,4.94092,-16.5476,0,0,0,0,0,0,0,-1,1441,442,4.94087,16.5476
224,582,5.21008,-20.9908,0,0,0,0,0,0,0,-1,1448,442,5.21006,20.9908
231,582,5.70032,-25.622,0,0,0,0,0,0,0,-1,1455,442,5.70026,25.6221
238,582,6.44189,-30.7028,0,0,0,0,0,0,0,-1,1462,442,6.44195,30.7028
245,582,8.64429,-39.5484,0,0,0,0,0,0,0,-1,1469,442,8.64427,39.5484
252,582,8.52454,-38.982,0.00433766,0.00216247,-0.00183587,0.00538391,0.00111622,-0.517986,0.00328111,0.0400616,1476,442,8.52448,38.982
259,582,8.44409,-38.4662,0.00392767,0.00137861,-0.00178996,0.00485049,0.000455782,-0.476016,0.00309295,0.0222606,1483,442,8.44406,38.4663
266,582,8.43274,-38.032,0.00354956,0.000727193,-0.00180385,0.00442864,-0.000151887,-0.453465,0.00300433,0.0144352,1490,442,8.43276,38.032
273,582,8.48083,-37.6103,0.00344118,4.95886e-05,-0.00157151,0.00405739,-0.00056662,-0.373689,0.00291223,0.0126866,1497,442,8.48083,37.6103
280,582,8.51514,-37.1767,0.00332865,-0.000484752,-0.00134749,0.00375673,-0.000912839,-0.307608,0.00285779,0.0122508,1504,442,8.51513,37.1767
287,582,8.52869,-36.695,0.00317445,-0.000887758,-0.00110794,0.00345699,-0.00117029,-0.249685,0.00277817,0.0116839,1511,442,8.52869,36.695
294,582,8.53442,-36.1971,0.00297277,-0.000913817,-0.000829822,0.00314253,-0.00108358,-0.20179,0.00253463,0.00950811,1518,442,8.53441,36.1971
301,582,8.53308,-35.7137,0.00276689,-0.000826819,-0.000517972,0.00284006,-0.000899987,-0.140329,0.00225407,0.0104524,1525,442,8.53312,35.7137
308,582,8.52979,-35.2297,0.00256655,-0.000814957,-0.000253609,0.00258547,-0.000833872,-0.0744437,0.00205869,0.0136079,1532,442,8.52984,35.2297
315,582,8.51575,-34.739,0.00227177,-0.000444021,2.28509e-05,0.00227196,-0.000444214,0.00841329,0.00168237,0.0130869,1539,442,8.51577,34.739
322,582,8.51538,-34.2227,0.00185654,2.20771e-05,0.000338488,0.00191701,-3.83862e-05,0.176764,0.00129099,0.0100013,1546,442,8.51539,34.2227
329,582,8.49927,-33.7477,0.00140463,0.000492301,0.000621346,0.00171928,0.000177649,0.468758,0.0010918,0.00986785,1553,442,8.49931,33.7476
336,582,8.48804,-33.2442,0.000979937,0.00114335,0.000913334,0.00197863,0.000144664,0.83001,0.00127361,0.0106973,1560,442,8.48805,33.2442
343,582,8.48389,-32.6952,0.000524928,0.00185691,0.00117429,0.00254092,-0.000159082,1.04335,0.00174938,0.0138367,1567,442,8.48394,32.6952
350,582,8.47046,-32.1563,7.93897e-05,0.00287339,0.0015421,0.00355718,-0.000604399,1.15343,0.00259647,0.0174475,1574,442,8.47043,32.1563
357,582,8.46497,-31.5891,-0.000350005,0.00388155,0.00196092,0.00465051,-0.00111897,1.19708,0.0035329,0.0149272,1581,442,8.46495,31.5891
364,582,8.44312,-31.0529,-0.000762864,0.00488765,0.00236465,0.00574664,-0.00162185,1.22236,0.00447087,0.011372,1588,442,8.44317,31.0529
371,582,8.40588,-30.5075,-0.0011125,0.00601669,0.00280481,0.00698787,-0.00208368,1.23746,0.00548665,0.0148471,1595,442,8.40584,30.5075
378,582,8.35608,-29.9412,-0.00133648,0.00718527,0.00329859,0.00831288,-0.00246409,1.2414,0.00652038,0.0154748,1602,442,8.35604,29.9412
385,582,8.32043,-29.355,-0.00137843,0.00861088,0.00373742,0.00985441,-0.00262195,1.2496,0.00759595,0.0114943,1609,442,8.32048,29.355
392,582,8.29688,-28.7645,-0.00112321,0.00965338,0.00405609,0.0110094,-0.00247922,1.24816,0.00829049,0.0108033,1616,442,8.29689,28.7645
399,582,8.26709,-28.2048,-0.000604447,0.010784,0.00463965,0.0124349,-0.00225532,1.22895,0.009135,0.0206808,1623,442,8.26705,28.2048
406,582,8.23303,-27.4484,-0.000147851,0.0120767,0.00520741,0.0139942,-0.00206534,1.21798,0.0100886,0.039166,1630,442,8.23309,27.4484
413,582,8.08655,-26.9852,0,0,0,0,0,0,0,-1,1637,442,8.08652,26.9852
420,582,8.08411,-26.331,0,0,0,0,0,0,0,-1,1644,442,8.08416,26.331
427,582,7.91309,-25.7017,0.00142142,0.013634,0.00589307,0.0160138,-0.000958463,1.18698,0.0110093,0.0449996,1651,442,7.91309,25.7017
434,582,7.86377,-24.9212,0.00195399,0.0138301,0.00589717,0.0162608,-0.00047678,1.17982,0.0110029,0.0474578,1658,442,7.86371,24.9212
441,582,7.70569,-24.7023,0,0,0,0,0,0,0,-1,1665,442,7.70568,24.7023
448,582,8.16016,-22.9398,0,0,0,0,0,0,0,-1,1672,442,8.16014,22.9398
455,582,6.4585,-19.4734,0,0,0,0,0,0,0,-1,1679,442,6.45854,19.4734
462,582,5.35022,-19.2616,0,0,0,0,0,0,0,-1,1686,442,5.35025,19.2616
469,582,6.28601,-21.5695,0,0,0,0,0,0,0,-1,1693,442,6.28597,21.5695
476,582,1.93579,-8.53891,0,0,0,0,0,0,0,-1,1700,442,1.93579,8.53892
483,582,0,0,0,0,0,0,0,0,0,-1,1707,442,0,0
490,582,0,0,0,0,0,0,0,0,0,-1,1714,442,0,0
497,582,0,0,0,0,0,0,0,0,0,-1,1721,442,0,0
504,582,0,0,0,0,0,0,0,0,0,-1,1728,442,0,0
511,582,0,0,0,0,0,0,0,0,0,-1,1735,442,0,0
518,582,0,0,0,0,0,0,0,0,0,-1,1742,442,0,0
525,582,0,0,0,0,0,0,0,0,0,-1,1749,442,0,0
532,582,0,0,0,0,0,0,0,0,0,-1,1756,442,0,0
539,582,0,0,0,0,0,0,0,0,0,-1,1763,442,0,0
546,582,0,0,0,0,0,0,0,0,0,-1,1770,442,0,0
553,582,0,0,0,0,0,0,0,0,0,-1,1777,442,0,0
560,582,0,0,0,0,0,0,0,0,0,-1,1784,442,0,0
567,582,0,0,0,0,0,0,0,0,0,-1,1791,442,0,0
574,582,0,0,0,0,0,0,0,0,0,-1,1798,442,0,0
581,582,0,0,0,0,0,0,0,0,0,-1,1805,442,0,0
588,582,0,0,0,0,0,0,0,0,0,-1,1812,442,0,0
595,582,0,0,0,0,0,0,0,0,0,-1,1819,442,0,0
602,582,0,0,0,0,0,0,0,0,0,-1,1826,442,0,0
609,582,0,0,0,0,0,0,0,0,0,-1,1833,442,0,0
616,582,0,0,0,0,0,0,0,0,0,-1,1840,442,0,0
623,582,0,0,0,0,0,0,0,0,0,-1,1847,442,0,0
630,582,0,0,0,0,0,0,0,0,0,-1,1854,442,0,0
637,582,0,0,0,0,0,0,0,0,0,-1,1861,442,0,0
644,582,0,0,0,0,0,0,0,0,0,-1,1868,442,0,0
651,582,0,0,0,0,0,0,0,0,0,-1,1875,442,0,0
658,582,0,0,0,0,0,0,0,0,0,-1,1882,442,0,0
665,582,0,0,0,0,0,0,0,0,0,-1,1889,442,0,0
672,582,0,0,0,0,0,0,0,0,0,-1,1896,442,0,0
679,582,0,0,0,0,0,0,0,0,0,-1,1903,442,0,0
686,582,0,0,0,0,0,0,0,0,0,-1,1910,442,0,0
693,582,0,0,0,0,0,0,0,0,0,-1,1917,442,0,0
700,582,0,0,0,0,0,0,0,0,0,-1,1924,442,0,0
707,582,0,0,0,0,0,0,0,0,0,-1,1931,442,0,0
714,582,0,0,0,0,0,0,0,0,0,-1,1938,442,0,0
721,582,0,0,0,0,0,0,0,0,0,-1,1945,442,0,0
728,582,0,0,0,0,0,0,0,0,0,-1,1952,442,0,0
735,582,0,0,0,0,0,0,0,0,0,-1,1959,442,0,0
742,582,0,0,0,0,0,0,0,0,0,-1,1966,442,0,0
749,582,0,0,0,0,0,0,0,0,0,-1,1973,442,0,0
756,582,0,0,0,0,0,0,0,0,0,-1,1980,442,0,0
763,582,0,0,0,0,0,0,0,0,0,-1,1987,442,0,0
770,582,0,0,0,0,0,0,0,0,0,-1,1994,442,0,0
777,582,0,0,0,0,0,0,0,0,0,-1,2001,442,0,0
784,582,0,0,0,0,0,0,0,0,0,-1,2008,442,0,0
791,582,0,0,0,0,0,0,0,0,0,-1,2015,442,0,0
798,582,0,0,0,0,0,0,0,0,0,-1,2022,442,0,0
805,582,0,0,0,0,0,0,0,0,0,-1,2029,442,0,0
812,582,0,0,0,0,0,0,0,0,0,-1,2036,442,0,0
-700,575,0,0,0,0,0,0,0,0,0,-1,524,449,0,0
-693,575,0,0,0,0,0,0,0,0,0,-1,531,449,0,0
-686,575,0,0,0,0,0,0,0,0,0,-1,538,449,0,0
-679,575,0,0,0,0,0,0,0,0,0,-1,545,449,0,0
-672,575,0,0,0,0,0,0,0,0,0,-1,552,449,0,0
-665,575,0,0,0,0,0,0,0,0,0,-1,559,449,0,0
-658,575,0,0,0,0,0,0,0,0,0,-1,566,449,0,0
-651,575,0,0,0,0,0,0,0,0,0,-1,573,449,0,0
-644,575,0,0,0,0,0,0,0,0,0,-1,580,449,0,0
-637,575,0,0,0,0,0,0,0,0,0,-1,587,449,0,0
-630,575,0,0,0,0,0,0,0,0,0,-1,594,449,0,0
-623,575,0,0,0,0,0,0,0,0,0,-1,601,449,0,0
-616,575,0,0,0,0,0,0,0,0,0,-1,608,449,0,0
-609,575,0,0,0,0,0,0,0,0,0,-1,615,449,0,0
-602,575,0,0,0,0,0,0,0,0,0,-1,622,449,0,0
-595,575,0,0,0,0,0,0,0,0,0,-1,629,449,0,0
-588,575,0,0,0,0,0,0,0,0,0,-1,636,449,0,0
-581,575,0,0,0,0,0,0,0,0,0,-1,643,449,0,0
-574,575,0,0,0,0,0,0,0,0,0,-1,650,449,0,0
-567,575,0,0,0,0,0,0,0,0,0,-1,657,449,0,0
-560,575,0,0,0,0,0,0,0,0,0,-1,664,449,0,0
-553,575,0,0,0,0,0,0,0,0,0,-1,671,449,0,0
-546,575,0,0,0,0,0,0,0,0,0,-1,678,449,0,0
-539,575,0,0,0,0,0,0,0,0,0,-1,685,449,0,0
-532,575,0,0,0,0,0,0,0,0,0,-1,692,449,0,0
-525,575,0,0,0,0,0,0,0,0,0,-1,699,449,0,0
-518,575,0,0,0,0,0,0,0,0,0,-1,706,449,0,0
-511,575,0,0,0,0,0,0,0,0,0,-1,713,449,0,0
-504,575,0,0,0,0,0,0,0,0,0,-1,720,449,0,0
-497,575,0,0,0,0,0,0,0,0,0,-1,727,449,0,0
-490,575,0,0,0,0,0,0,0,0,0,-1,734,449,0,0
-483,575,0,0,0,0,0,0,0,0,0,-1,741,449,0,0
-476,575,0,0,0,0,0,0,0,0,0,-1,748,449,0,0
-469,575,0,0,0,0,0,0,0,0,0,-1,755,449,0,0
-462,575,0,0,0,0,0,0,0,0,0,-1,762,449,0,0
-455,575,0,0,0,0,0,0,0,0,0,-1,769,449,0,0
-448,575,0,0,0,0,0,0,0,0,0,-1,776,449,0,0
-441,575,0,0,0,0,0,0,0,0,0,-1,783,449,0,0
-434,575,0,0,0,0,0,0,0,0,0,-1,790,449,0,0
-427,575,0,0,0,0,0,0,0,0,0,-1,797,449,0,0
-420,575,0,0,0,0,0,0,0,0,0,-1,804,449,0,0
-413,575,0,0,0,0,0,0,0,0,0,-1,811,449,0,0
-406,575,0,0,0,0,0,0,0,0,0,-1,818,449,0,0
-399,575,0,0,0,0,0,0,0,0,0,-1,825,449,0,0
-392,575,0,0,0,0,0,0,0,0,0,-1,832,449,0,0
-385,575,0,0,0,0,0,0,0,0,0,-1,839,449,0,0
-378,575,0,0,0,0,0,0,0,0,0,-1,846,449,0,0
-371,575,0.56897,-3.52304,0,0,0,0,0,0,0,-1,853,449,0.568955,3.52306
-364,575,1.49805,-4.67191,0,0,0,0,0,0,0,-1,860,449,1.49803,4.6719
-357,575,3.15521,-8.29892,0,0,0,0,0,0,0,-1,867,449,3.15521,8.29891
-350,575,-0.825928,-18.5347,0,0,0,0,0,0,0,-1,874,449,-0.825948,18.5347
-343,575,0.465393,-16.3569,0,0,0,0,0,0,0,-1,881,449,0.465397,16.3569
-336,575,3.1994,-17.5725,0,0,0,0,0,0,0,-1,888,449,3.19941,17.5725
-329,575,3.02057,-23.8701,0,0,0,0,0,0,0,-1,895,449,3.02054,23.8701
-322,575,2.91351,-24.442,0,0,0,0,0,0,0,-1,902,449,2.91352,24.442
-315,575,1.86304,-25.4865,0.00740616,-0.00144309,-0.00535761,0.00993001,-0.00396694,-0.440243,0.00826596,0.0470971,909,449,1.86306,25.4865
-308,575,2.50952,-26.201,0.00470685,-0.00611658,-0.00361748,0.00580458,-0.0072143,-0.294619,0.00753113,0.0470689,916,449,2.50951,26.201
-301,575,2.89612,-26.6184,0.00261876,-0.00886702,-0.00216501,0.0030133,-0.00926156,-0.180257,0.0073866,0.0338591,923,449,2.8961,26.6185
-294,575,2.78381,-27.2433,0.000835689,-0.0104053,-0.000977807,0.00092011,-0.0104897,-0.0861238,0.00731916,0.0255917,930,449,2.78384,27.2433
-287,575,2.70605,-27.8694,-0.000476536,-0.0111081,-0.000150298,-0.000474412,-0.0111102,-0.0141332,0.00725386,0.0202348,937,449,2.70605,27.8694
-280,575,2.69427,-28.4347,-0.00120744,-0.0108123,0.000296846,-0.00119828,-0.0108214,0.0308666,0.00684989,0.0161896,944,449,2.69427,28.4347
-273,575,2.67432,-29.0587,-0.00161842,-0.010053,0.000615697,-0.00157372,-0.0100977,0.0724848,0.00627336,0.0121126,951,449,2.67431,29.0588
-266,575,2.63843,-29.6461,-0.00176943,-0.00918074,0.000726254,-0.00169894,-0.00925124,0.0967663,0.00568642,0.0133329,958,449,2.63841,29.6461
-259,575,2.59723,-30.1979,-0.00185562,-0.00771198,0.00118456,-0.00162509,-0.00794251,0.192206,0.00484502,0.0131518,965,449,2.59721,30.1979
-252,575,2.53326,-30.7473,-0.00160767,-0.00653339,0.0010427,-0.00139604,-0.00674502,0.200245,0.00411112,0.011908,972,449,2.53323,30.7473
-245,575,2.50378,-31.2931,-0.000959408,-0.00569834,0.000954021,-0.00077456,-0.00588319,0.191386,0.00369113,0.0159287,979,449,2.50378,31.2931
-238,575,2.5224,-31.8203,-0.000211416,-0.00488789,0.000967379,-1.92027e-05,-0.0050801,0.19614,0.00338035,0.0163057,986,449,2.52241,31.8203
-231,575,2.51318,-32.3336,0.000373923,-0.00457961,0.000948197,0.000549222,-0.0047549,0.182812,0.00336797,0.0137081,993,449,2.51316,32.3336
-224,575,2.46832,-32.8371,0.000874359,-0.00459067,0.00101426,0.00105652,-0.00477284,0.177709,0.00358632,0.0120371,1000,449,2.46835,32.8371
-217,575,2.45654,-33.362,0.00130616,-0.00486458,0.00117918,0.00152382,-0.00508223,0.182528,0.00399419,0.0103595,1007,449,2.45652,33.362
-210,575,2.48596,-33.8824,0.00163427,-0.00603096,0.0014547,0.00190106,-0.00629775,0.18138,0.00495527,0.00937162,1014,449,2.48599,33.8824
-203,575,2.48499,-34.3804,0.00190611,-0.00752682,0.00183684,0.00225117,-0.00787188,0.185691,0.0061375,0.0124038,1021,449,2.48497,34.3804
-196,575,2.46399,-34.8866,0.00221834,-0.00921092,0.00230824,0.0026669,-0.00965949,0.19194,0.00748863,0.0158805,1028,449,2.46404,34.8866
-189,575,2.45386,-35.3518,0.00250914,-0.0108953,0.00273281,0.00304487,-0.011431,0.193584,0.00881275,0.0173972,1035,449,2.45381,35.3518
-182,575,2.44373,-35.8006,0.00273695,-0.0123909,0.00311911,0.00335482,-0.0130088,0.195561,0.00998055,0.0158631,1042,449,2.44372,35.8006
-175,575,2.46057,-36.2538,0.0028357,-0.0136247,0.00350431,0.00355069,-0.0143397,0.201268,0.0109372,0.0125056,1049,449,2.46059,36.2538
-168,575,2.45837,-36.6938,0.00283923,-0.0153872,0.00387563,0.00362911,-0.0161771,0.201052,0.0121761,0.0108384,1056,449,2.45837,36.6938
-161,575,2.47546,-37.1268,0.00277602,-0.0167334,0.00416886,0.00362951,-0.0175869,0.201938,0.0131031,0.0160755,1063,449,2.47542,37.1268
-154,575,2.49292,-37.5558,0.00274845,-0.0178519,0.00436422,0.00363488,-0.0187383,0.200386,0.0138636,0.0185026,1070,449,2.49291,37.5558
-147,575,2.53723,-37.9445,0.00268715,-0.0190814,0.00451694,0.00358719,-0.0199814,0.196684,0.0146637,0.0162359,1077,449,2.53723,37.9444
-140,575,2.55884,-38.2479,0.00247469,-0.0202931,0.0047493,0.00342566,-0.021244,0.197621,0.0154318,0.0211689,1084,449,2.55885,38.2479
-133,575,2.59424,-38.4686,0.0021143,-0.0222097,0.00510364,0.00314174,-0.0232372,0.19866,0.0166379,0.0299647,1091,449,2.59427,38.4686
-126,575,2.60193,-38.5209,0.00191164,-0.0237938,0.00531536,0.00296739,-0.0248495,0.19607,0.0176389,0.0348145,1098,449,2.60193,38.5209
-119,575,2.48462,-38.7614,0.00172907,-0.0253067,0.00535951,0.00275277,-0.0263304,0.188732,0.0185395,0.0396504,1105,449,2.48459,38.7614
-112,575,2.47668,-39.1091,0,0,0,0,0,0,0,-1,1112,449,2.47664,39.1091
-105,575,2.18347,-36.5414,0,0,0,0,0,0,0,-1,1119,449,2.18351,36.5414
-98,575,1.521,-25.6961,0,0,0,0,0,0,0,-1,1126,449,1.52105,25.6961
-91,575,1.60803,-16.4247,0,0,0,0,0,0,0,-1,1133,449,1.60802,16.4247
-84,575,1.16553,-11.9056,0,0,0,0,0,0,0,-1,1140,449,1.16558,11.9056
-77,575,0.205078,-11.2584,0,0,0,0,0,0,0,-1,1147,449,0.205117,11.2584
-70,575,-4.2467,-1.78738,0,0,0,0,0,0,0,-1,1154,449,-4.24674,1.78739
-63,575,-4.52209,-3.48798,0,0,0,0,0,0,0,-1,1161,449,-4.5221,3.48796
-56,575,-5.5968,-5.4928,0,0,0,0,0,0,0,-1,1168,449,-5.59683,5.49281
-49,575,-5.96863,-7.17612,0,0,0,0,0,0,0,-1,1175,449,-5.96868,7.1761
-42,575,-0.830322,0.773499,0,0,0,0,0,0,0,-1,1182,449,-0.83038,-0.77351
-35,575,-0.62085,0.205139,0,0,0,0,0,0,0,-1,1189,449,-0.620855,-0.205126
-28,575,0.49292,-3.87988,0,0,0,0,0,0,0,-1,1196,449,0.492941,3.87989
-21,575,4.30615,-43.2384,0,0,0,0,0,0,0,-1,1203,449,4.30612,43.2384
-14,575,4.4292,-43.2873,-0.0261509,0.0332075,0.0182444,0.0383667,-0.0313101,1.29521,0.0402966,0.0461112,1210,449,4.42921,43.2873
-7,575,4.50806,-43.398,-0.0292042,0.0321334,0.0217822,0.0390817,-0.0361524,1.26201,0.0434474,0.0455471,1217,449,4.50806,43.398
0,575,4.54797,-43.4818,0,0,0,0,0,0,0,-1,1224,449,4.54797,43.4818
7,575,3.78564,-43.2256,0,0,0,0,0,0,0,-1,1231,449,3.7856,43.2256
14,575,3.29712,-42.8654,0,0,0,0,0,0,0,-1,1238,449,3.29716,42.8654
21,575,3.36926,-42.2493,-0.0465768,0.0266332,0.0296118,0.0371109,-0.0570545,1.23071,0.0547714,0.0414891,1245,449,3.36932,42.2493
28,575,3.42358,-41.7404,-0.05187,0.026547,0.0294636,0.0363835,-0.0617065,1.24858,0.0572579,0.041765,1252,449,3.42364,41.7404
35,575,3.18469,-41.6431,-0.0556478,0.0282377,0.0270508,0.0362042,-0.0636144,1.28439,0.0583501,0.0423791,1259,449,3.18464,41.6431
42,575,2.36316,-41.4879,-0.0585357,0.0295489,0.0247766,0.0360399,-0.0650266,1.31458,0.0591453,0.0454179,1266,449,2.36319,41.4879
49,575,1.51416,-41.3797,-0.0601799,0.0319175,0.0214114,0.0366519,-0.0649144,1.35318,0.0593913,0.0460689,1273,449,1.51421,41.3797
56,575,0.817749,-41.513,-0.0586111,0.0348029,0.0166048,0.0376667,-0.0614749,1.40001,0.057787,0.04629,1280,449,0.817697,41.513
63,575,0.141724,-41.5916,-0.0544243,0.0363289,0.00852692,0.0371231,-0.0552185,1.47792,0.0536536,0.0466894,1287,449,0.141752,41.5916
70,575,-0.331177,-41.6444,-0.0507088,0.0392661,0.000869843,0.0392745,-0.0507172,1.56113,0.0520965,0.0437942,1294,449,-0.331209,41.6444
77,575,-0.786133,-42.1619,-0.0484368,0.0435284,-0.00736311,0.0441142,-0.0490226,-1.49141,0.0537974,0.0471272,1301,449,-0.786079,42.1619
84,575,-1.28833,-42.851,-0.0444593,0.047464,-0.0155674,0.0500288,-0.0470241,-1.40751,0.0560425,0.0468402,1308,449,-1.28834,42.851
91,575,-1.61829,-43.7044,-0.0400987,0.0499428,-0.0234651,0.0556909,-0.0458468,-1.33056,0.0587146,0.0453585,1315,449,-1.61825,43.7044
98,575,-2.14697,-44.32,-0.0358657,0.0520252,-0.0309967,0.061857,-0.0456975,-1.26364,0.0623298,0.0447859,1322,449,-2.14694,44.32
105,575,-2.66907,-45.2828,-0.0325258,0.0550714,-0.0382867,0.0694466,-0.046901,-1.21162,0.0675924,0.0419503,1329,449,-2.66908,45.2828
112,575,-3.00549,-45.9791,-0.0304873,0.0576509,-0.0451892,0.076702,-0.0495383,-1.17182,0.0734452,0.0433548,1336,449,-3.0055,45.9791
119,575,-1.74194,-45.4457,-0.0296363,0.0600542,-0.0510456,0.0831556,-0.0527377,-1.14581,0.0791105,0.0445706,1343,449,-1.74196,45.4457
126,575,-2.3269,-45.9953,-0.0297152,0.0623673,-0.0553672,0.0883352,-0.0556832,-1.13224,0.0838584,0.0487023,1350,449,-2.3269,45.9953
133,575,-3.10559,-46.6925,0,0,0,0,0,0,0,-1,1357,449,-3.1056,46.6925
140,575,-3.64111,-47.6594,0,0,0,0,0,0,0,-1,1364,449,-3.64116,47.6594
147,575,-4.09229,-48.6374,0,0,0,0,0,0,0,-1,1371,449,-4.09231,48.6374
154,575,-6.15588,-47.4272,0,0,0,0,0,0,0,-1,1378,449,-6.15585,47.4272
161,575,1.02246,-40.6799,0,0,0,0,0,0,0,-1,1385,449,1.02251,40.6799
168,575,7.5509,-35.3165,0,0,0,0,0,0,0,-1,1392,449,7.5509,35.3165
175,575,4.32617,1.93634,0,0,0,0,0,0,0,-1,1399,449,4.32612,-1.93634
182,575,6.3147,-2.88345,0,0,0,0,0,0,0,-1,1406,449,6.31466,2.88346
189,575,6.10449,-1.30817,0,0,0,0,0,0,0,-1,1413,449,6.10455,1.30817
196,575,5.79895,0.818359,0,0,0,0,0,0,0,-1,1420,449,5.79895,-0.81837
203,575,3.29724,-1.46378,0,0,0,0,0,0,0,-1,1427,449,3.29722,1.46377
210,575,2.32739,-7.74503,0,0,0,0,0,0,0,-1,1434,449,2.32741,7.74502
217,575,3.33618,-11.5521,0,0,0,0,0,0,0,-1,1441,449,3.3362,11.5521
224,575,5.51709,-16.3903,0,0,0,0,0,0,0,-1,1448,449,5.51713,16.3903
231,575,5.48572,-20.4595,0,0,0,0,0,0,0,-1,1455,449,5.48571,20.4595
238,575,5.33484,-22.3575,0,0,0,0,0,0,0,-1,1462,449,5.33478,22.3575
245,575,5.59741,-23.513,0,0,0,0,0,0,0,-1,1469,449,5.5974,23.513
252,575,9.06287,-39.3042,0,0,0,0,0,0,0,-1,1476,449,9.06287,39.3042
259,575,8.93848,-38.5604,0,0,0,0,0,0,0,-1,1483,449,8.93845,38.5604
266,575,8.90369,-38.0473,0.0046712,0.00153238,-0.00221769,0.00581863,0.000384957,-0.477468,0.00375735,0.047811,1490,449,8.90373,38.0473
273,575,8.92944,-37.7244,0.00467931,0.000105036,-0.00201525,0.00544049,-0.000656146,-0.361144,0.00386432,0.0425088,1497,449,8.92946,37.7244
280,575,9.04419,-37.0934,0.00462436,-0.00107838,-0.00187512,0.00518567,-0.00163968,-0.290857,0.00411407,0.0384935,1504,449,9.04425,37.0934
287,575,8.94373,-36.7469,0.00443857,-0.00202908,-0.0017473,0.00488043,-0.00247095,-0.24769,0.00431964,0.0271426,1511,449,8.94371,36.7469
294,575,9.00378,-36.2326,0.00414077,-0.00237822,-0.00157413,0.00450097,-0.00273842,-0.224953,0.00422076,0.013026,1518,449,9.00375,36.2326
301,575,9.02673,-35.7095,0.00383524,-0.00254085,-0.00133757,0.00410447,-0.00281008,-0.198626,0.00401536,0.00994151,1525,449,9.02673,35.7095
308,575,9.03601,-35.2146,0.00350725,-0.00283011,-0.00118302,0.00372089,-0.00304375,-0.178661,0.00391208,0.0109701,1532,449,9.03599,35.2146
315,575,9.02258,-34.7306,0.00310277,-0.00262754,-0.000978503,0.00326525,-0.00279002,-0.16455,0.0034996,0.0114077,1539,449,9.02256,34.7306
322,575,9.01526,-34.2298,0.00261832,-0.00225409,-0.000663345,0.00270702,-0.00234279,-0.132921,0.00291803,0.010368,1546,449,9.01526,34.2298
329,575,9.01855,-33.7509,0.00209529,-0.00179948,-0.000387458,0.00213346,-0.00183765,-0.0981992,0.00229484,0.0107511,1553,449,9.01854,33.7509
336,575,9.02417,-33.2312,0.00162765,-0.00106254,-8.20949e-05,0.00163015,-0.00106505,-0.0304786,0.00156743,0.0126701,1560,449,9.02411,33.2312
343,575,9.02625,-32.6547,0.00112855,-0.000278681,0.00019411,0.00115483,-0.000304965,0.13459,0.00088915,0.0137091,1567,449,9.02619,32.6547
350,575,9.01233,-32.118,0.000655643,0.000732909,0.000558001,0.00125361,0.000134939,0.81996,0.000794591,0.0131401,1574,449,9.01235,32.118
357,575,8.99951,-31.5705,0.00025341,0.00176762,0.000986138,0.00225376,-0.000232738,1.11278,0.00158579,0.0124376,1581,449,8.99955,31.5705
364,575,8.96716,-31.0401,-0.00010661,0.00281961,0.00143813,0.00340807,-0.000695065,1.1824,0.00253569,0.011583,1588,449,8.9672,31.0401
371,575,8.91479,-30.5105,-0.000407436,0.00389696,0.00191216,0.0046237,-0.00113418,1.20759,0.00352194,0.019374,1595,449,8.91482,30.5105
378,575,8.89294,-29.9349,-0.0006553,0.00498697,0.00236726,0.00584859,-0.00151692,1.22173,0.00449093,0.0177694,1602,449,8.8929,29.9349
385,575,8.86731,-29.3535,-0.000727249,0.00623127,0.00278852,0.00721083,-0.00170681,1.23298,0.00546572,0.0113436,1609,449,8.86726,29.3535
392,575,8.84949,-28.7972,-0.00051954,0.00713769,0.00311571,0.00824526,-0.00162711,1.22925,0.00611184,0.00981878,1616,449,8.84951,28.7972
399,575,8.82324,-28.2534,-8.88898e-05,0.00802048,0.00365212,0.00942276,-0.00149117,1.20419,0.00683334,0.010654,1623,449,8.82328,28.2533
406,575,8.78455,-27.617,0.000250533,0.00904725,0.00416758,0.0107081,-0.00141034,1.19156,0.00765231,0.0129855,1630,449,8.78455,27.617
413,575,8.74829,-26.9841,0.000490273,0.00988217,0.00444503,0.0116523,-0.00127986,1.19182,0.00822807,0.0170945,1637,449,8.7483,26.9841
420,575,8.69495,-26.3587,0.000780918,0.0104881,0.00465409,0.0123589,-0.00108992,1.18859,0.00862558,0.0171399,1644,449,8.69493,26.3587
427,575,8.62927,-25.6689,0.0011395,0.0104318,0.00495158,0.0125757,-0.00100441,1.16219,0.00873787,0.0186244,1651,449,8.62926,25.6688
434,575,8.53394,-25.1052,0.00140428,0.0106491,0.00510707,0.012915,-0.000861624,1.15321,0.00891109,0.0277711,1658,449,8.53399,25.1052
441,575,8.64978,-24.58,0.00137158,0.0105819,0.00514204,0.0128795,-0.00092602,1.15058,0.00891104,0.0490335,1665,449,8.6498,24.58
448,575,8.89551,-23.9155,0,0,0,0,0,0,0,-1,1672,449,8.89551,23.9155
455,575,9.54468,-22.5141,0,0,0,0,0,0,0,-1,1679,449,9.54471,22.5141
462,575,7.12781,-21.7179,0,0,0,0,0,0,0,-1,1686,449,7.12778,21.7178
469,575,8.21106,-21.4783,0,0,0,0,0,0,0,-1,1693,449,8.21105,21.4783
476,575,7.36438,-21.2879,0,0,0,0,0,0,0,-1,1700,449,7.36441,21.2879
483,575,6.98096,-19.6604,0,0,0,0,0,0,0,-1,1707,449,6.98097,19.6604
490,575,6.78235,-18.917,0,0,0,0,0,0,0,-1,1714,449,6.7824,18.917
497,575,0,0,0,0,0,0,0,0,0,-1,1721,449,0,0
504,575,0,0,0,0,0,0,0,0,0,-1,1728,449,0,0
511,575,0,0,0,0,0,0,0,0,0,-1,1735,449,0,0
518,575,0,0,0,0,0,0,0,0,0,-1,1742,449,0,0
525,575,0,0,0,0,0,0,0,0,0,-1,1749,449,0,0
532,575,0,0,0,0,0,0,0,0,0,-1,1756,449,0,0
539,575,0,0,0,0,0,0,0,0,0,-1,1763,449,0,0
546,575,0,0,0,0,0,0,0,0,0,-1,1770,449,0,0
553,575,0,0,0,0,0,0,0,0,0,-1,1777,449,0,0
560,575,0,0,0,0,0,0,0,0,0,-1,1784,449,0,0
567,575,0,0,0,0,0,0,0,0,0,-1,1791,449,0,0
574,575,0,0,0,0,0,0,0,0,0,-1,1798,449,0,0
581,575,0,0,0,0,0,0,0,0,0,-1,1805,449,0,0
588,575,0,0,0,0,0,0,0,0,0,-1,1812,449,0,0
595,575,0,0,0,0,0,0,0,0,0,-1,1819,449,0,0
602,575,0,0,0,0,0,0,0,0,0,-1,1826,449,0,0
609,575,0,0,0,0,0,0,0,0,0,-1,1833,449,0,0
616,575,0,0,0,0,0,0,0,0,0,-1,1840,449,0,0
623,575,0,0,0,0,0,0,0,0,0,-1,1847,449,0,0
630,575,0,0,0,0,0,0,0,0,0,-1,1854,449,0,0
637,575,0,0,0,0,0,0,0,0,0,-1,1861,449,0,0
644,575,0,0,0,0,0,0,0,0,0,-1,1868,449,0,0
651,575,0,0,0,0,0,0,0,0,0,-1,1875,449,0,0
658,575,0,0,0,0,0,0,0,0,0,-1,1882,449,0,0
665,575,0,0,0,0,0,0,0,0,0,-1,1889,449,0,0
672,575,0,0,0,0,0,0,0,0,0,-1,1896,449,0,0
679,575,0,0,0,0,0,0,0,0,0,-1,1903,449,0,0
686,575,0,0,0,0,0,0,0,0,0,-1,1910,449,0,0
693,575,0,0,0,0,0,0,0,0,0,-1,1917,449,0,0
700,575,0,0,0,0,0,0,0,0,0,-1,1924,449,0,0
707,575,0,0,0,0,0,0,0,0,0,-1,1931,449,0,0
714,575,0,0,0,0,0,0,0,0,0,-1,1938,449,0,0
721,575,0,0,0,0,0,0,0,0,0,-1,1945,449,0,0
728,575,0,0,0,0,0,0,0,0,0,-1,1952,449,0,0
735,575,0,0,0,0,0,0,0,0,0,-1,1959,449,0,0
742,575,0,0,0,0,0,0,0,0,0,-1,1966,449,0,0
749,575,0,0,0,0,0,0,0,0,0,-1,1973,449,0,0
756,575,0,0,0,0,0,0,0,0,0,-1,1980,449,0,0
763,575,0,0,0,0,0,0,0,0,0,-1,1987,449,0,0
770,575,0,0,0,0,0,0,0,0,0,-1,1994,449,0,0
777,575,0,0,0,0,0,0,0,0,0,-1,2001,449,0,0
784,575,0,0,0,0,0,0,0,0,0,-1,2008,449,0,0
791,575,0,0,0,0,0,0,0,0,0,-1,2015,449,0,0
798,575,0,0,0,0,0,0,0,0,0,-1,2022,449,0,0
805,575,0,0,0,0,0,0,0,0,0,-1,2029,449,0,0
812,575,0,0,0,0,0,0,0,0,0,-1,2036,449,0,0
-700,568,0,0,0,0,0,0,0,0,0,-1,524,456,0,0
-693,568,0,0,0,0,0,0,0,0,0,-1,531,456,0,0
-686,568,0,0,0,0,0,0,0,0,0,-1,538,456,0,0
-679,568,0,0,0,0,0,0,0,0,0,-1,545,456,0,0
-672,568,0,0,0,0,0,0,0,0,0,-1,552,456,0,0
-665,568,0,0,0,0,0,0,0,0,0,-1,559,456,0,0
-658,568,0,0,0,0,0,0,0,0,0,-1,566,456,0,0
-651,568,0,0,0,0,0,0,0,0,0,-1,573,456,0,0
-644,568,0,0,0,0,0,0,0,0,0,-1,580,456,0,0
-637,568,0,0,0,0,0,0,0,0,0,-1,587,456,0,0
-630,568,0,0,0,0,0,0,0,0,0,-1,594,456,0,0
-623,568,0,0,0,0,0,0,0,0,0,-1,601,456,0,0
-616,568,0,0,0,0,0,0,0,0,0,-1,608,456,0,0
-609,568,0,0,0,0,0,0,0,0,0,-1,615,456,0,0
-602,568,0,0,0,0,0,0,0,0,0,-1,622,456,0,0
-595,568,0,0,0,0,0,0,0,0,0,-1,629,456,0,0
-588,568,0,0,0,0,0,0,0,0,0,-1,636,456,0,0
-581,568,0,0,0,0,0,0,0,0,0,-1,643,456,0,0
-574,568,0,0,0,0,0,0,0,0,0,-1,650,456,0,0
-567,568,0,0,0,0,0,0,0,0,0,-1,657,456,0,0
-560,568,0,0,0,0,0,0,0,0,0,-1,664,456,0,0
-553,568,0,0,0,0,0,0,0,0,0,-1,671,456,0,0
-546,568,0,0,0,0,0,0,0,0,0,-1,678,456,0,0
-539,568,0,0,0,0,0,0,0,0,0,-1,685,456,0,0
-532,568,0,0,0,0,0,0,0,0,0,-1,692,456,0,0
-525,568,0,0,0,0,0,0,0,0,0,-1,699,456,0,0
-518,568,0,0,0,0,0,0,0,0,0,-1,706,456,0,0
-511,568,0,0,0,0,0,0,0,0,0,-1,713,456,0,0
-504,568,0,0,0,0,0,0,0,0,0,-1,720,456,0,0
-497,568,0,0,0,0,0,0,0,0,0,-1,727,456,0,0
-490,568,0,0,0,0,0,0,0,0,0,-1,734,456,0,0
-483,568,0,0,0,0,0,0,0,0,0,-1,741,456,0,0
-476,568,0,0,0,0,0,0,0,0,0,-1,748,456,0,0
-469,568,0,0,0,0,0,0,0,0,0,-1,755,456,0,0
-462,568,0,0,0,0,0,0,0,0,0,-1,762,456,0,0
-455,568,0,0,0,0,0,0,0,0,0,-1,769,456,0,0
-448,568,0,0,0,0,0,0,0,0,0,-1,776,456,0,0
-441,568,0,0,0,0,0,0,0,0,0,-1,783,456,0,0
-434,568,0,0,0,0,0,0,0,0,0,-1,790,456,0,0
-427,568,0,0,0,0,0,0,0,0,0,-1,797,456,0,0
-420,568,0,0,0,0,0,0,0,0,0,-1,804,456,0,0
-413,568,0,0,0,0,0,0,0,0,0,-1,811,456,0,0
-406,568,0,0,0,0,0,0,0,0,0,-1,818,456,0,0
-399,568,0,0,0,0,0,0,0,0,0,-1,825,456,0,0
-392,568,0,0,0,0,0,0,0,0,0,-1,832,456,0,0
-385,568,0,0,0,0,0,0,0,0,0,-1,839,456,0,0
-378,568,0.321777,-7.29929,0,0,0,0,0,0,0,-1,846,456,0.321806,7.29927
-371,568,1.09595,-7.46707,0,0,0,0,0,0,0,-1,853,456,1.09597,7.46707
-364,568,1.87787,-7.61115,0,0,0,0,0,0,0,-1,860,456,1.87784,7.61116
-357,568,2.14166,-7.67645,0,0,0,0,0,0,0,-1,867,456,2.14167,7.67646
-350,568,2.7467,-11.2507,0,0,0,0,0,0,0,-1,874,456,2.7467,11.2507
-343,568,2.16516,-11.3762,0,0,0,0,0,0,0,-1,881,456,2.16514,11.3762
-336,568,2.32373,-23.0159,0,0,0,0,0,0,0,-1,888,456,2.32373,23.0159
-329,568,2.48584,-23.8608,0,0,0,0,0,0,0,-1,895,456,2.48582,23.8608
-322,568,2.44183,-24.5428,0.0088862,0.0103727,-0.00808189,0.0177455,0.00151347,-0.831253,0.0113595,0.0444598,902,456,2.44184,24.5428
-315,568,2.4245,-25.116,0.00681089,0.00612235,-0.00632775,0.0128037,0.000129511,-0.758222,0.00849298,0.0394507,909,456,2.42451,25.116
-308,568,2.33118,-26.0305,0.00495964,0.00285272,-0.0049771,0.00899355,-0.00118119,-0.681107,0.00642572,0.0341416,916,456,2.33118,26.0305
-301,568,2.28552,-26.7141,0.00345665,0.00035311,-0.00373591,0.00595025,-0.00214049,-0.588557,0.00484073,0.0204492,923,456,2.28553,26.7141
-294,568,2.22925,-27.2855,0.00212537,-0.00122672,-0.00265372,0.00358801,-0.00268937,-0.503739,0.0036366,0.0143515,930,456,2.22925,27.2855
-287,568,2.18732,-27.8818,0.00108311,-0.00217162,-0.00184906,0.00191894,-0.00300745,-0.424541,0.00286731,0.0123234,937,456,2.1873,27.8818
-280,568,2.17065,-28.4955,0.00044607,-0.00251156,-0.00132479,0.000952694,-0.00301818,-0.365258,0.00239374,0.0125451,944,456,2.17064,28.4954
-273,568,2.15326,-29.0984,3.54011e-05,-0.00258151,-0.000862985,0.000294364,-0.00284047,-0.291528,0.00199901,0.0133915,951,456,2.15328,29.0984
-266,568,2.10693,-29.6484,-0.000160696,-0.00272186,-0.000550792,-4.72683e-05,-0.00283529,-0.203096,0.00187463,0.0126308,958,456,2.10694,29.6484
-259,568,2.06561,-30.1841,-0.000292356,-0.00252548,0.000116288,-0.000286317,-0.00253152,0.0518871,0.0016008,0.0127804,965,456,2.06564,30.184
-252,568,2.00745,-30.7159,-0.000129904,-0.00272752,0.000330216,-8.85839e-05,-0.00276884,0.124485,0.00181708,0.0128029,972,456,2.00747,30.7159
-245,568,1.98901,-31.2419,0.000391004,-0.00342086,0.000604089,0.000484447,-0.0035143,0.153468,0.00251992,0.0157991,979,456,1.98904,31.2419
-238,568,2.01385,-31.7914,0.00103015,-0.00414665,0.000966724,0.00120479,-0.00432129,0.17872,0.00335534,0.0148838,986,456,2.01384,31.7913
-231,568,1.98932,-32.3038,0.00152791,-0.00535546,0.00132074,0.00177262,-0.00560018,0.183209,0.00444378,0.0127258,993,456,1.9893,32.3038
-224,568,1.9397,-32.8003,0.00193249,-0.00686984,0.00176487,0.00227316,-0.00721052,0.190685,0.0057174,0.0134241,1000,456,1.9397,32.8003
-217,568,1.95563,-33.318,0.0022562,-0.00853746,0.00229887,0.00272542,-0.00900668,0.201344,0.00708975,0.0116805,1007,456,1.95561,33.318
-210,568,1.98291,-33.8451,0.00255268,-0.0107341,0.0028457,0.0031365,-0.0113179,0.202353,0.00877956,0.0124135,1014,456,1.98289,33.8451
-203,568,1.98285,-34.3539,0.00283307,-0.0128872,0.00339126,0.00353345,-0.0135876,0.203661,0.0104375,0.0111637,1021,456,1.98286,34.3538
-196,568,1.99878,-34.8173,0.00314878,-0.0148284,0.00398957,0.00399438,-0.015674,0.208863,0.0120044,0.014955,1028,456,1.99876,34.8173
-189,568,1.97961,-35.2684,0.00343515,-0.0166584,0.00445925,0.0043803,-0.0176036,0.208863,0.013436,0.0151036,1035,456,1.97963,35.2684
-182,568,1.99316,-35.7627,0.00363748,-0.0182033,0.00479442,0.00464358,-0.0192094,0.206849,0.0146023,0.0159652,1042,456,1.99317,35.7627
-175,568,2.00989,-36.2054,0.00366001,-0.0193134,0.00510926,0.00474506,-0.0203985,0.209259,0.0154259,0.0165883,1049,456,2.00991,36.2055
-168,568,1.98987,-36.541,0.00358728,-0.0211688,0.00540924,0.0047176,-0.0222991,0.205996,0.0166627,0.0220835,1056,456,1.98989,36.5411
-161,568,1.97522,-36.9349,0.0034056,-0.0225215,0.00561988,0.00457134,-0.0236873,0.20453,0.0175153,0.0344387,1063,456,1.97522,36.9349
-154,568,2.07666,-37.498,0.00321455,-0.0236431,0.00574103,0.00439027,-0.0248189,0.202,0.0181868,0.0396538,1070,456,2.07672,37.498
-147,568,2.14917,-37.7641,0.00297951,-0.0248618,0.00577673,0.00413053,-0.0260128,0.196675,0.01887,0.0402839,1077,456,2.14911,37.7641
-140,568,2.34216,-37.9413,0.00250793,-0.0260094,0.00598033,0.00371127,-0.0272128,0.198566,0.019497,0.0395676,1084,456,2.34215,37.9413
-133,568,2.44006,-38.265,0.00179565,-0.0285226,0.00644453,0.00310866,-0.0298357,0.200988,0.0210035,0.0413776,1091,456,2.44006,38.265
-126,568,2.33191,-38.4992,0.00124995,-0.0309333,0.00682269,0.00263658,-0.0323199,0.200507,0.0224771,0.0446247,1098,456,2.33191,38.4992
-119,568,1.92419,-38.0221,0,0,0,0,0,0,0,-1,1105,456,1.92419,38.0221
-112,568,1.98242,-35.0942,0,0,0,0,0,0,0,-1,1112,456,1.98247,35.0942
-105,568,2.02454,-25.038,0,0,0,0,0,0,0,-1,1119,456,2.02459,25.038
-98,568,1.58618,-14.7874,0,0,0,0,0,0,0,-1,1126,456,1.58617,14.7874
-91,568,1.11621,-11.1853,0,0,0,0,0,0,0,-1,1133,456,1.11626,11.1853
-84,568,0.461792,-9.7959,0,0,0,0,0,0,0,-1,1140,456,0.461793,9.7959
-77,568,-1.13806,-8.57822,0,0,0,0,0,0,0,-1,1147,456,-1.13807,8.57821
-70,568,-4.09766,-1.42911,0,0,0,0,0,0,0,-1,1154,456,-4.09767,1.4291
-63,568,-5.92273,-3.70752,0,0,0,0,0,0,0,-1,1161,456,-5.92272,3.70751
-56,568,-5.24158,-6.01385,0,0,0,0,0,0,0,-1,1168,456,-5.24161,6.01386
-49,568,-5.24365,-8.33557,0,0,0,0,0,0,0,-1,1175,456,-5.24371,8.33557
-42,568,-0.664795,0.521973,0,0,0,0,0,0,0,-1,1182,456,-0.664829,-0.521984
-35,568,-0.153076,-1.67731,0,0,0,0,0,0,0,-1,1189,456,-0.153068,1.67731
-28,568,1.25439,-4.48798,0,0,0,0,0,0,0,-1,1196,456,1.2544,4.48797
-21,568,4.33582,-43.5517,0,0,0,0,0,0,0,-1,1203,456,4.33579,43.5517
-14,568,4.3866,-43.3093,0,0,0,0,0,0,0,-1,1210,456,4.38655,43.3093
-7,568,4.41785,-43.2885,0,0,0,0,0,0,0,-1,1217,456,4.41786,43.2885
0,568,6.10913,-42.8881,0,0,0,0,0,0,0,-1,1224,456,6.10917,42.8881
7,568,5.49609,-42.7836,0,0,0,0,0,0,0,-1,1231,456,5.49606,42.7836
14,568,2.71741,-43.0969,0,0,0,0,0,0,0,-1,1238,456,2.71744,43.0969
21,568,2.90991,-42.5195,0,0,0,0,0,0,0,-1,1245,456,2.90986,42.5195
28,568,3.07007,-42.0863,0,0,0,0,0,0,0,-1,1252,456,3.07003,42.0863
35,568,2.75867,-42.1427,0,0,0,0,0,0,0,-1,1259,456,2.75865,42.1427
42,568,2.07495,-42.0369,0,0,0,0,0,0,0,-1,1266,456,2.07497,42.0369
49,568,1.35449,-42.1226,-0.072,0.0416916,0.0251675,0.0470137,-0.0773221,1.3624,0.0724927,0.0466161,1273,456,1.35454,42.1226
56,568,0.653564,-42.2113,-0.0699075,0.0432081,0.0197542,0.0465587,-0.0732581,1.40278,0.0697464,0.0464963,1280,456,0.653603,42.2113
63,568,-0.0174561,-42.0254,-0.0650377,0.0436868,0.0105401,0.0446991,-0.0660501,1.47504,0.0643359,0.0457792,1287,456,-0.0174149,42.0254
70,568,-0.617676,-42.0949,-0.0610067,0.0462838,0.00156887,0.0463067,-0.0610297,1.55618,0.0621647,0.0436348,1294,456,-0.617692,42.0949
77,568,-1.39539,-42.6319,-0.0585735,0.050754,-0.00806839,0.0513462,-0.0591657,-1.49753,0.0638573,0.0460395,1301,456,-1.39538,42.6319
84,568,-2.07227,-43.0515,-0.0540312,0.0554238,-0.0180055,0.0583096,-0.0569171,-1.41187,0.0665278,0.0483424,1308,456,-2.07221,43.0515
91,568,-2.74304,-43.3985,-0.049079,0.0585644,-0.0273805,0.0651287,-0.0556433,-1.33549,0.0697994,0.0444926,1315,456,-2.74303,43.3985
98,568,-2.86768,-44.3628,-0.0442607,0.0618365,-0.0366208,0.0732491,-0.0556732,-1.26869,0.0746635,0.0452259,1322,456,-2.86773,44.3628
105,568,-2.79382,-45.0708,-0.0402949,0.0664888,-0.0456211,0.0833249,-0.0571311,-1.21726,0.081561,0.0455772,1329,456,-2.79376,45.0708
112,568,-0.891602,-45.3748,-0.0379131,0.0705449,-0.0540541,0.0928837,-0.060252,-1.1789,0.0890795,0.0496738,1336,456,-0.891645,45.3748
119,568,-1.54944,-45.8051,-0.0369492,0.0743031,-0.0612972,0.101451,-0.0640976,-1.15386,0.0963874,0.0471696,1343,456,-1.54943,45.805
126,568,-2.16736,-46.2495,-0.0370385,0.0777446,-0.0666964,0.108343,-0.0676367,-1.14067,0.102504,0.0499733,1350,456,-2.16739,46.2495
133,568,-2.78784,-47.9023,0,0,0,0,0,0,0,-1,1357,456,-2.78787,47.9023
140,568,-3.29089,-48.8861,0,0,0,0,0,0,0,-1,1364,456,-3.29084,48.8861
147,568,-4.40186,-48.1766,0,0,0,0,0,0,0,-1,1371,456,-4.40183,48.1766
154,568,-4.63867,-49.0306,0,0,0,0,0,0,0,-1,1378,456,-4.63864,49.0306
161,568,-4.87195,-49.8695,0,0,0,0,0,0,0,-1,1385,456,-4.87189,49.8695
168,568,-1.74231,-39.2641,0,0,0,0,0,0,0,-1,1392,456,-1.74226,39.2641
175,568,10.5151,0.747498,0,0,0,0,0,0,0,-1,1399,456,10.5152,-0.747501
182,568,6.35095,-3.63361,0,0,0,0,0,0,0,-1,1406,456,6.35093,3.63359
189,568,6.17493,-1.70911,0,0,0,0,0,0,0,-1,1413,456,6.17497,1.70911
196,568,6.04724,0.200836,0,0,0,0,0,0,0,-1,1420,456,6.04724,-0.200835
203,568,5.9281,2.08649,0,0,0,0,0,0,0,-1,1427,456,5.92812,-2.08648
210,568,1.46216,-2.50446,0,0,0,0,0,0,0,-1,1434,456,1.46219,2.50446
217,568,2.62366,-7.86703,0,0,0,0,0,0,0,-1,1441,456,2.62365,7.86704
224,568,3.43494,-12.1555,0,0,0,0,0,0,0,-1,1448,456,3.43492,12.1555
231,568,4.38245,-9.3205,0,0,0,0,0,0,0,-1,1455,456,4.38244,9.32048
238,568,5.88879,-20.7448,0,0,0,0,0,0,0,-1,1462,456,5.88876,20.7449
245,568,3.34387,-10.6774,0,0,0,0,0,0,0,-1,1469,456,3.34389,10.6774
252,568,3.56946,-9.28928,0,0,0,0,0,0,0,-1,1476,456,3.56948,9.28928
259,568,3.38843,-8.73068,0,0,0,0,0,0,0,-1,1483,456,3.38842,8.73068
266,568,9.35352,-38.1258,0,0,0,0,0,0,0,-1,1490,456,9.35358,38.1258
273,568,9.21301,-37.988,0,0,0,0,0,0,0,-1,1497,456,9.21298,37.988
280,568,9.2843,-37.5676,0,0,0,0,0,0,0,-1,1504,456,9.28431,37.5676
287,568,9.39539,-36.9664,0,0,0,0,0,0,0,-1,1511,456,9.3954,36.9664
294,568,9.48767,-36.1273,0.00530679,-0.00379428,-0.00221678,0.00581803,-0.00430551,-0.226657,0.00586653,0.0436352,1518,456,9.48767,36.1273
301,568,9.49316,-35.6454,0.00495005,-0.00414517,-0.00201989,0.00537845,-0.00457357,-0.208996,0.00575206,0.021868,1525,456,9.4932,35.6453
308,568,9.53003,-35.1714,0.00451579,-0.00472624,-0.00197325,0.00491947,-0.00512991,-0.201789,0.00580243,0.0145599,1532,456,9.52998,35.1714
315,568,9.53796,-34.7237,0.00402949,-0.00466195,-0.0018295,0.00439889,-0.00503135,-0.199235,0.00544863,0.00915306,1539,456,9.53797,34.7237
322,568,9.52869,-34.2277,0.00350073,-0.00435797,-0.00151072,0.00378114,-0.00463838,-0.183524,0.0048694,0.0105447,1546,456,9.52865,34.2277
329,568,9.54285,-33.7186,0.00292651,-0.00390009,-0.00124588,0.00314678,-0.00412036,-0.174991,0.00420822,0.0111908,1553,456,9.5429,33.7186
336,568,9.5592,-33.1962,0.00241108,-0.0030821,-0.000945996,0.00256943,-0.00324045,-0.16585,0.00336178,0.0125769,1560,456,9.55918,33.1962
343,568,9.57202,-32.6469,0.00185105,-0.00226003,-0.00068482,0.00196212,-0.00237111,-0.160797,0.0025055,0.0132749,1567,456,9.57205,32.6469
350,568,9.56348,-32.119,0.00130404,-0.00130646,-0.000366383,0.00135449,-0.00135691,-0.136828,0.00156543,0.0118814,1574,456,9.56351,32.119
357,568,9.53992,-31.5617,0.00086407,-0.000275726,4.26582e-05,0.000865665,-0.00027732,0.0373565,0.000688427,0.0103756,1581,456,9.53989,31.5617
364,568,9.52344,-31.0406,0.000483402,0.000795303,0.00050517,0.00116805,0.000110659,0.935112,0.000744557,0.0124979,1588,456,9.52347,31.0406
371,568,9.47595,-30.4807,0.000171301,0.00183346,0.000983237,0.0022898,-0.000285039,1.13626,0.00162988,0.0214482,1595,456,9.47598,30.4807
378,568,9.44312,-29.9051,-0.000122034,0.00290682,0.00140902,0.00346093,-0.00067614,1.19612,0.00256258,0.0187838,1602,456,9.44315,29.9051
385,568,9.43469,-29.3443,-0.000247246,0.00404338,0.00183531,0.00472131,-0.000925179,1.21696,0.00349697,0.00955187,1609,456,9.43468,29.3443
392,568,9.39905,-28.8045,-0.000117468,0.00489122,0.00219433,0.00571656,-0.000942814,1.21104,0.00416107,0.0112836,1616,456,9.39901,28.8045
399,568,9.33691,-28.2815,0.000209671,0.00564611,0.00271607,0.00677052,-0.000914736,1.17829,0.00484744,0.0186922,1623,456,9.33697,28.2815
406,568,9.35352,-27.6535,0.000441611,0.00653583,0.00322149,0.00792301,-0.000945567,1.16419,0.00562375,0.0163684,1630,456,9.35346,27.6535
413,568,9.33289,-26.9973,0.000578008,0.00734473,0.00356137,0.00887365,-0.000950912,1.16528,0.00625687,0.0129823,1637,456,9.33284,26.9974
420,568,9.29419,-26.3821,0.00071907,0.00792682,0.00383628,0.0095865,-0.000940602,1.16248,0.00672649,0.0116111,1644,456,9.29418,26.3821
427,568,9.24219,-25.7505,0.0008734,0.00796684,0.00416814,0.00989302,-0.00105278,1.13791,0.00697282,0.013854,1651,456,9.24221,25.7505
434,568,9.24146,-25.0798,0.000984651,0.00824379,0.00443792,0.0103474,-0.00111892,1.12816,0.00729985,0.0196235,1658,456,9.24148,25.0798
441,568,9.25452,-24.526,0.00084612,0.00834296,0.00464342,0.0105621,-0.00137304,1.12497,0.00754088,0.0277604,1665,456,9.25457,24.526
448,568,9.46814,-23.9039,0.000345919,0.00804437,0.00474931,0.0103084,-0.00191816,1.12595,0.00759288,0.0401557,1672,456,9.46818,23.9039
455,568,9.47156,-22.8,0,0,0,0,0,0,0,-1,1679,456,9.47151,22.8
462,568,9.02258,-21.9893,0,0,0,0,0,0,0,-1,1686,456,9.02261,21.9893
469,568,8.85327,-21.7173,0,0,0,0,0,0,0,-1,1693,456,8.8533,21.7173
476,568,8.88086,-21.2391,0,0,0,0,0,0,0,-1,1700,456,8.88091,21.2391
483,568,8.11011,-20.1512,0,0,0,0,0,0,0,-1,1707,456,8.11007,20.1511
490,568,8.17419,-19.508,0,0,0,0,0,0,0,-1,1714,456,8.17419,19.508
497,568,7.45508,-18.4313,0,0,0,0,0,0,0,-1,1721,456,7.45512,18.4313
504,568,0,0,0,0,0,0,0,0,0,-1,1728,456,0,0
511,568,0,0,0,0,0,0,0,0,0,-1,1735,456,0,0
518,568,0,0,0,0,0,0,0,0,0,-1,1742,456,0,0
525,568,0,0,0,0,0,0,0,0,0,-1,1749,456,0,0
532,568,0,0,0,0,0,0,0,0,0,-1,1756,456,0,0
539,568,0,0,0,0,0,0,0,0,0,-1,1763,456,0,0
546,568,0,0,0,0,0,0,0,0,0,-1,1770,456,0,0
553,568,0,0,0,0,0,0,0,0,0,-1,1777,456,0,0
560,568,0,0,0,0,0,0,0,0,0,-1,1784,456,0,0
567,568,0,0,0,0,0,0,0,0,0,-1,1791,456,0,0
574,568,0,0,0,0,0,0,0,0,0,-1,1798,456,0,0
581,568,0,0,0,0,0,0,0,0,0,-1,1805,456,0,0
588,568,0,0,0,0,0,0,0,0,0,-1,1812,456,0,0
595,568,0,0,0,0,0,0,0,0,0,-1,1819,456,0,0
602,568,0,0,0,0,0,0,0,0,0,-1,1826,456,0,0
609,568,0,0,0,0,0,0,0,0,0,-1,1833,456,0,0
616,568,0,0,0,0,0,0,0,0,0,-1,1840,456,0,0
623,568,0,0,0,0,0,0,0,0,0,-1,1847,456,0,0
630,568,0,0,0,0,0,0,0,0,0,-1,1854,456,0,0
637,568,0,0,0,0,0,0,0,0,0,-1,1861,456,0,0
644,568,0,0,0,0,0,0,0,0,0,-1,1868,456,0,0
651,568,0,0,0,0,0,0,0,0,0,-1,1875,456,0,0
658,568,0,0,0,0,0,0,0,0,0,-1,1882,456,0,0
665,568,0,0,0,0,0,0,0,0,0,-1,1889,456,0,0
672,568,0,0,0,0,0,0,0,0,0,-1,1896,456,0,0
679,568,0,0,0,0,0,0,0,0,0,-1,1903,456,0,0
686,568,0,0,0,0,0,0,0,0,0,-1,1910,456,0,0
693,568,0,0,0,0,0,0,0,0,0,-1,1917,456,0,0
700,568,0,0,0,0,0,0,0,0,0,-1,1924,456,0,0
707,568,0,0,0,0,0,0,0,0,0,-1,1931,456,0,0
714,568,0,0,0,0,0,0,0,0,0,-1,1938,456,0,0
721,568,0,0,0,0,0,0,0,0,0,-1,1945,456,0,0
728,568,0,0,0,0,0,0,0,0,0,-1,1952,456,0,0
735,568,0,0,0,0,0,0,0,0,0,-1,1959,456,0,0
742,568,0,0,0,0,0,0,0,0,0,-1,1966,456,0,0
749,568,0,0,0,0,0,0,0,0,0,-1,1973,456,0,0
756,568,0,0,0,0,0,0,0,0,0,-1,1980,456,0,0
763,568,0,0,0,0,0,0,0,0,0,-1,1987,456,0,0
770,568,0,0,0,0,0,0,0,0,0,-1,1994,456,0,0
777,568,0,0,0,0,0,0,0,0,0,-1,2001,456,0,0
784,568,0,0,0,0,0,0,0,0,0,-1,2008,456,0,0
791,568,0,0,0,0,0,0,0,0,0,-1,2015,456,0,0
798,568,0,0,0,0,0,0,0,0,0,-1,2022,456,0,0
805,568,0,0,0,0,0,0,0,0,0,-1,2029,456,0,0
812,568,0,0,0,0,0,0,0,0,0,-1,2036,456,0,0
-700,561,0,0,0,0,0,0,0,0,0,-1,524,463,0,0
-693,561,0,0,0,0,0,0,0,0,0,-1,531,463,0,0
-686,561,0,0,0,0,0,0,0,0,0,-1,538,463,0,0
-679,561,0,0,0,0,0,0,0,0,0,-1,545,463,0,0
-672,561,0,0,0,0,0,0,0,0,0,-1,552,463,0,0
-665,561,0,0,0,0,0,0,0,0,0,-1,559,463,0,0
-658,561,0,0,0,0,0,0,0,0,0,-1,566,463,0,0
-651,561,0,0,0,0,0,0,0,0,0,-1,573,463,0,0
-644,561,0,0,0,0,0,0,0,0,0,-1,580,463,0,0
-637,561,0,0,0,0,0,0,0,0,0,-1,587,463,0,0
-630,561,0,0,0,0,0,0,0,0,0,-1,594,463,0,0
-623,561,0,0,0,0,0,0,0,0,0,-1,601,463,0,0
-616,561,0,0,0,0,0,0,0,0,0,-1,608,463,0,0
-609,561,0,0,0,0,0,0,0,0,0,-1,615,463,0,0
-602,561,0,0,0,0,0,0,0,0,0,-1,622,463,0,0
-595,561,0,0,0,0,0,0,0,0,0,-1,629,463,0,0
-588,561,0,0,0,0,0,0,0,0,0,-1,636,463,0,0
-581,561,0,0,0,0,0,0,0,0,0,-1,643,463,0,0
-574,561,0,0,0,0,0,0,0,0,0,-1,650,463,0,0
-567,561,0,0,0,0,0,0,0,0,0,-1,657,463,0,0
-560,561,0,0,0,0,0,0,0,0,0,-1,664,463,0,0
-553,561,0,0,0,0,0,0,0,0,0,-1,671,463,0,0
-546,561,0,0,0,0,0,0,0,0,0,-1,678,463,0,0
-539,561,0,0,0,0,0,0,0,0,0,-1,685,463,0,0
-532,561,0,0,0,0,0,0,0,0,0,-1,692,463,0,0
-525,561,0,0,0,0,0,0,0,0,0,-1,699,463,0,0
-518,561,0,0,0,0,0,0,0,0,0,-1,706,463,0,0
-511,561,0,0,0,0,0,0,0,0,0,-1,713,463,0,0
-504,561,0,0,0,0,0,0,0,0,0,-1,720,463,0,0
-497,561,0,0,0,0,0,0,0,0,0,-1,727,463,0,0
-490,561,0,0,0,0,0,0,0,0,0,-1,734,463,0,0
-483,561,0,0,0,0,0,0,0,0,0,-1,741,463,0,0
-476,561,0,0,0,0,0,0,0,0,0,-1,748,463,0,0
-469,561,0,0,0,0,0,0,0,0,0,-1,755,463,0,0
-462,561,0,0,0,0,0,0,0,0,0,-1,762,463,0,0
-455,561,0,0,0,0,0,0,0,0,0,-1,769,463,0,0
-448,561,0,0,0,0,0,0,0,0,0,-1,776,463,0,0
-441,561,0,0,0,0,0,0,0,0,0,-1,783,463,0,0
-434,561,0,0,0,0,0,0,0,0,0,-1,790,463,0,0
-427,561,0,0,0,0,0,0,0,0,0,-1,797,463,0,0
-420,561,0,0,0,0,0,0,0,0,0,-1,804,463,0,0
-413,561,0,0,0,0,0,0,0,0,0,-1,811,463,0,0
-406,561,0,0,0,0,0,0,0,0,0,-1,818,463,0,0
-399,561,0,0,0,0,0,0,0,0,0,-1,825,463,0,0
-392,561,4.92407,-2.54578,0,0,0,0,0,0,0,-1,832,463,4.92408,2.54576
-385,561,5.55634,-1.02338,0,0,0,0,0,0,0,-1,839,463,5.55634,1.02338
-378,561,0.160522,-4.51785,0,0,0,0,0,0,0,-1,846,463,0.160542,4.51785
-371,561,1.06299,-7.56818,0,0,0,0,0,0,0,-1,853,463,1.06297,7.56817
-364,561,1.45264,-7.57684,0,0,0,0,0,0,0,-1,860,463,1.45264,7.57684
-357,561,0.948242,-12.2803,0,0,0,0,0,0,0,-1,867,463,0.948262,12.2803
-350,561,1.33124,-11.9406,0,0,0,0,0,0,0,-1,874,463,1.33127,11.9406
-343,561,1.13214,-14.1837,0,0,0,0,0,0,0,-1,881,463,1.13217,14.1837
-336,561,2.06903,-23.6491,0,0,0,0,0,0,0,-1,888,463,2.06903,23.6491
-329,561,1.95111,-23.8516,0,0,0,0,0,0,0,-1,895,463,1.9511,23.8516
-322,561,1.6485,-24.8289,0.00652717,0.011915,-0.00750962,0.0171993,0.0012429,-0.957614,0.0110752,0.0375806,902,463,1.64848,24.829
-315,561,1.82721,-25.2141,0.00533969,0.00909695,-0.00619335,0.0136903,0.000746313,-0.932653,0.00888856,0.0243792,909,463,1.82723,25.2141
-308,561,1.79181,-25.9489,0.00416888,0.00694644,-0.00514682,0.0108886,0.000226756,-0.917176,0.00718465,0.0216115,916,463,1.79182,25.9489
-301,561,1.69995,-26.743,0.00318269,0.00486517,-0.00414375,0.00825221,-0.00020435,-0.885544,0.00557084,0.0154794,923,463,1.69993,26.7429
-294,561,1.66034,-27.333,0.00230558,0.00347628,-0.0032209,0.00616459,-0.00038273,-0.875285,0.00424306,0.0125953,930,463,1.66031,27.333
-287,561,1.63129,-27.8933,0.00159693,0.0025306,-0.00249336,0.00460045,-0.000472927,-0.877942,0.00323615,0.0109364,937,463,1.63131,27.8933
-280,561,1.59778,-28.4751,0.00115496,0.00183328,-0.0019541,0.00347743,-0.000489198,-0.871324,0.00249738,0.013692,944,463,1.59777,28.4751
-273,561,1.5575,-29.0544,0.000857824,0.00122614,-0.00140807,0.00246204,-0.000378076,-0.850423,0.00178081,0.0157131,951,463,1.55747,29.0543
-266,561,1.53998,-29.612,0.000747169,0.000386788,-0.000943961,0.00152798,-0.000394027,-0.691089,0.00117228,0.0101077,958,463,1.53998,29.612
-259,561,1.5285,-30.1604,0.0007255,-0.000388581,-0.000161577,0.000748461,-0.000411541,-0.141158,0.000679079,0.0103933,965,463,1.52852,30.1604
-252,561,1.50989,-30.6914,0.000940293,-0.0016463,0.000347913,0.000986272,-0.00169228,0.131396,0.00156427,0.0146725,972,463,1.50988,30.6914
-245,561,1.49548,-31.2229,0.00143789,-0.00351659,0.00091441,0.00160127,-0.00367997,0.176805,0.00312686,0.017715,979,463,1.49546,31.2229
-238,561,1.4975,-31.7714,0.00205733,-0.00541678,0.00153949,0.002362,-0.00572146,0.195384,0.00479946,0.0145548,986,463,1.49749,31.7714
-231,561,1.44849,-32.298,0.00256938,-0.00775445,0.00216389,0.00300459,-0.00818966,0.198475,0.00669012,0.0126257,993,463,1.44848,32.298
-224,561,1.42621,-32.8051,0.00296559,-0.0103538,0.0028787,0.00356113,-0.0109494,0.204,0.00873212,0.0124329,1000,463,1.42619,32.8051
-217,561,1.45239,-33.3013,0.0032458,-0.0130654,0.00369225,0.00404266,-0.0138623,0.212559,0.0108433,0.0123641,1007,463,1.45238,33.3013
-210,561,1.46136,-33.8073,0.00354473,-0.016037,0.00443704,0.0045032,-0.0169955,0.212748,0.0130921,0.0135412,1014,463,1.46139,33.8073
-203,561,1.47083,-34.2997,0.00383921,-0.0187136,0.00511165,0.00494369,-0.0198181,0.212799,0.0151316,0.0153637,1021,463,1.47081,34.2997
-196,561,1.40515,-34.7319,0.00414687,-0.021079,0.00585435,0.00543931,-0.0223715,0.217281,0.0170196,0.0172273,1028,463,1.40511,34.7319
-189,561,1.47302,-35.1623,0.0044147,-0.0232301,0.00640147,0.00582508,-0.0246405,0.216856,0.018674,0.020983,1035,463,1.47304,35.1623
-182,561,1.59851,-35.5901,0.00455832,-0.0249715,0.00672503,0.00601773,-0.0264309,0.213698,0.0199316,0.0246516,1042,463,1.59853,35.5901
-175,561,1.42188,-36.0213,0.00445802,-0.0260301,0.00700292,0.00598961,-0.0275617,0.215316,0.0206624,0.0392824,1049,463,1.42185,36.0213
-168,561,1.27222,-36.5278,0.00427744,-0.0280671,0.00723849,0.00582346,-0.0296131,0.210423,0.0219424,0.0498967,1056,463,1.27223,36.5278
-161,561,1.33301,-36.8644,0,0,0,0,0,0,0,-1,1063,463,1.33295,36.8644
-154,561,1.69885,-37.4952,0,0,0,0,0,0,0,-1,1070,463,1.69882,37.4952
-147,561,1.86243,-38.0645,0,0,0,0,0,0,0,-1,1077,463,1.86241,38.0645
-140,561,2.12378,-37.6402,0,0,0,0,0,0,0,-1,1084,463,2.12377,37.6402
-133,561,2.36072,-38.0191,0,0,0,0,0,0,0,-1,1091,463,2.36072,38.0191
-126,561,2.23193,-38.2523,0,0,0,0,0,0,0,-1,1098,463,2.23189,38.2523
-119,561,-0.336304,-35.422,0,0,0,0,0,0,0,-1,1105,463,-0.336245,35.422
-112,561,1.24365,-29.1982,0,0,0,0,0,0,0,-1,1112,463,1.2437,29.1981
-105,561,0.530518,-13.5379,0,0,0,0,0,0,0,-1,1119,463,0.530477,13.5379
-98,561,1.5387,-7.54352,0,0,0,0,0,0,0,-1,1126,463,1.53871,7.54351
-91,561,1.29553,-6.57968,0,0,0,0,0,0,0,-1,1133,463,1.29549,6.5797
-84,561,1.23364,-5.84555,0,0,0,0,0,0,0,-1,1140,463,1.23363,5.84556
-77,561,-2.36023,1.00204,0,0,0,0,0,0,0,-1,1147,463,-2.3602,-1.00205
-70,561,-3.90015,-1.41541,0,0,0,0,0,0,0,-1,1154,463,-3.90009,1.4154
-63,561,-6.95691,-4.02756,0,0,0,0,0,0,0,-1,1161,463,-6.95696,4.02756
-56,561,-5.37988,-6.66855,0,0,0,0,0,0,0,-1,1168,463,-5.37988,6.66854
-49,561,-5.7439,-9.11029,0,0,0,0,0,0,0,-1,1175,463,-5.74387,9.1103
-42,561,-1.72644,-5.63065,0,0,0,0,0,0,0,-1,1182,463,-1.72648,5.63064
-35,561,-1.65674,-4.87994,0,0,0,0,0,0,0,-1,1189,463,-1.6567,4.87993
-28,561,-1.91418,-3.86896,0,0,0,0,0,0,0,-1,1196,463,-1.91414,3.86895
-21,561,4.33728,-43.7935,0,0,0,0,0,0,0,-1,1203,463,4.33724,43.7935
-14,561,4.32056,-43.5293,0,0,0,0,0,0,0,-1,1210,463,4.32061,43.5293
-7,561,4.28394,-43.2385,0,0,0,0,0,0,0,-1,1217,463,4.28399,43.2385
0,561,5.78967,-43.3197,0,0,0,0,0,0,0,-1,1224,463,5.7897,43.3197
7,561,5.07495,-43.1289,-0.0575773,0.0661675,0.0354821,0.0756195,-0.0670293,1.31045,0.0824081,0.0462949,1231,463,5.075,43.1289
14,561,4.39612,-42.8915,-0.0626216,0.0627455,0.0374792,0.0730956,-0.0729717,1.30136,0.0843321,0.0417752,1238,463,4.39613,42.8915
21,561,3.72339,-42.626,-0.0678787,0.0593194,0.0381549,0.0698866,-0.0784459,1.30061,0.0856874,0.0434293,1245,463,3.72334,42.626
28,561,3.04553,-42.5322,0,0,0,0,0,0,0,-1,1252,463,3.04557,42.5322
35,561,2.32788,-42.438,-0.0786821,0.0549893,0.0358068,0.0639767,-0.0876694,1.32488,0.0879084,0.0428472,1259,463,2.32788,42.438
42,561,1.63,-42.2874,-0.0822138,0.0534972,0.0331465,0.0611603,-0.0898769,1.3436,0.0877251,0.0456197,1266,463,1.63001,42.2874
49,561,0.91687,-42.1773,0,0,0,0,0,0,0,-1,1273,463,0.916875,42.1773
56,561,0.253052,-42.6406,-0.0808035,0.0514382,0.0231549,0.0553753,-0.0847406,1.40237,0.081486,0.0427503,1280,463,0.253081,42.6406
63,561,-0.218506,-42.6147,-0.0754846,0.050107,0.0130896,0.0514567,-0.0768343,1.46804,0.0745504,0.045384,1287,463,-0.218495,42.6147
70,561,-0.966064,-42.1631,-0.0716699,0.0519321,0.00284866,0.0519978,-0.0717355,1.54777,0.0717397,0.0474422,1294,463,-0.966097,42.1632
77,561,-2.0448,-43.2206,0,0,0,0,0,0,0,-1,1301,463,-2.04484,43.2206
84,561,-2.7323,-43.6458,0,0,0,0,0,0,0,-1,1308,463,-2.73231,43.6458
91,561,-3.68701,-43.6088,0,0,0,0,0,0,0,-1,1315,463,-3.68705,43.6088
98,561,-3.98743,-44.3903,0,0,0,0,0,0,0,-1,1322,463,-3.98741,44.3903
105,561,-3.05432,-44.803,0,0,0,0,0,0,0,-1,1329,463,-3.05428,44.803
112,561,-2.72498,-45.4083,0,0,0,0,0,0,0,-1,1336,463,-2.72498,45.4083
119,561,-1.09119,-46.5739,-0.0453297,0.0903543,-0.0720593,0.121482,-0.0764578,-1.16303,0.115262,0.0448033,1343,463,-1.09116,46.5739
126,561,-1.79895,-47.2056,-0.0451217,0.095077,-0.0787432,0.130403,-0.0804472,-1.14909,0.122868,0.0448209,1350,463,-1.79891,47.2056
133,561,-2.52441,-47.9003,0,0,0,0,0,0,0,-1,1357,463,-2.52437,47.9003
140,561,-3.06689,-48.4443,0,0,0,0,0,0,0,-1,1364,463,-3.06691,48.4443
147,561,-3.10938,-49.5504,0,0,0,0,0,0,0,-1,1371,463,-3.10933,49.5504
154,561,-2.97351,-50.816,0,0,0,0,0,0,0,-1,1378,463,-2.97346,50.816
161,561,-3.02112,-51.7487,0,0,0,0,0,0,0,-1,1385,463,-3.02106,51.7487
168,561,-1.06763,-38.7777,0,0,0,0,0,0,0,-1,1392,463,-1.06757,38.7777
175,561,10.4185,0.276398,0,0,0,0,0,0,0,-1,1399,463,10.4185,-0.276394
182,561,6.45703,-4.02127,0,0,0,0,0,0,0,-1,1406,463,6.45704,4.02127
189,561,6.50854,-2.08685,0,0,0,0,0,0,0,-1,1413,463,6.50851,2.08686
196,561,6.44775,-0.27182,0,0,0,0,0,0,0,-1,1420,463,6.44773,0.271814
203,561,6.18591,1.1301,0,0,0,0,0,0,0,-1,1427,463,6.18592,-1.13009
210,561,5.68713,2.68427,0,0,0,0,0,0,0,-1,1434,463,5.6871,-2.68425
217,561,3.61743,-7.33582,0,0,0,0,0,0,0,-1,1441,463,3.61738,7.33581
224,561,4.27466,-8.59171,0,0,0,0,0,0,0,-1,1448,463,4.27466,8.59171
231,561,4.93188,-9.8476,0,0,0,0,0,0,0,-1,1455,463,4.93193,9.84761
238,561,2.18018,-5.18359,0,0,0,0,0,0,0,-1,1462,463,2.18023,5.18359
245,561,3.07568,-3.50238,0,0,0,0,0,0,0,-1,1469,463,3.0757,3.50238
252,561,3.47412,-3.71109,0,0,0,0,0,0,0,-1,1476,463,3.47413,3.71109
259,561,3.42212,-3.2334,0,0,0,0,0,0,0,-1,1483,463,3.42214,3.2334
266,561,4.44373,-5.90027,0,0,0,0,0,0,0,-1,1490,463,4.44372,5.90026
273,561,2.59485,-3.65268,0,0,0,0,0,0,0,-1,1497,463,2.5948,3.65268
280,561,3.10767,-6.38235,0,0,0,0,0,0,0,-1,1504,463,3.10766,6.38235
287,561,4.91809,-14.429,0,0,0,0,0,0,0,-1,1511,463,4.9181,14.429
294,561,9.87952,-35.9416,0,0,0,0,0,0,0,-1,1518,463,9.87952,35.9416
301,561,10.0289,-35.4568,0,0,0,0,0,0,0,-1,1525,463,10.0289,35.4568
308,561,10.0387,-35.0285,0.00569775,-0.00692622,-0.00273154,0.00626345,-0.00749191,-0.20421,0.00795221,0.0336145,1532,463,10.0388,35.0285
315,561,10.0782,-34.6518,0.00507754,-0.00688742,-0.00262487,0.00562806,-0.00743794,-0.206734,0.00756774,0.0186702,1539,463,10.0782,34.6518
322,561,10.0433,-34.193,0.00446673,-0.00655555,-0.00228769,0.00492268,-0.0070115,-0.196729,0.00692529,0.0156233,1546,463,10.0433,34.193
329,561,10.0571,-33.6829,0.00381666,-0.00601592,-0.00202746,0.00421831,-0.00641757,-0.195574,0.00618423,0.0126466,1553,463,10.0571,33.6829
336,561,10.0852,-33.1447,0.00322013,-0.00507936,-0.00174331,0.00357144,-0.00543067,-0.198857,0.00523419,0.011739,1560,463,10.0852,33.1448
343,561,10.0977,-32.637,0.00255508,-0.00419179,-0.00151289,0.00287879,-0.00451551,-0.210792,0.00430382,0.0111236,1567,463,10.0977,32.637
350,561,10.0704,-32.0973,0.00190491,-0.00329799,-0.00125518,0.00219189,-0.00358497,-0.224772,0.00336744,0.0107098,1574,463,10.0704,32.0973
357,561,10.0645,-31.5399,0.00140435,-0.00227752,-0.000878206,0.00160309,-0.00247626,-0.222557,0.00237313,0.0106133,1581,463,10.0645,31.5399
364,561,10.0747,-31.0293,0.00098456,-0.00119105,-0.000421236,0.00106327,-0.00126976,-0.184727,0.00134873,0.00974299,1588,463,10.0747,31.0293
371,561,10.0399,-30.4668,0.000647562,-0.000159408,5.05062e-05,0.000650711,-0.000162557,0.0622636,0.000496936,0.0159256,1595,463,10.0399,30.4668
378,561,9.99963,-29.9083,0.000299815,0.000951729,0.000455294,0.00118572,6.58244e-05,1.09607,0.000769477,0.0121509,1602,463,9.99959,29.9083
385,561,9.98279,-29.3277,0.000111575,0.00204062,0.000898773,0.00239446,-0.000242273,1.19573,0.00168289,0.0104755,1609,463,9.98275,29.3277
392,561,9.93311,-28.7549,0.000152522,0.00289552,0.00129497,0.00341028,-0.000362233,1.19244,0.00240338,0.0145438,1616,463,9.93307,28.7549
399,561,9.92676,-28.1877,0.000366909,0.00360344,0.00179699,0.00440343,-0.000433076,1.15196,0.00309011,0.0213292,1623,463,9.92676,28.1877
406,561,9.94116,-27.6075,0.000503877,0.00443318,0.00228568,0.00548253,-0.000545469,1.1404,0.00384974,0.0182206,1630,463,9.94112,27.6075
413,561,9.92126,-26.9947,0.000566855,0.00525981,0.00266959,0.00646758,-0.000640911,1.14593,0.00454046,0.0169331,1637,463,9.92132,26.9947
420,561,9.88379,-26.3765,0.000613281,0.00584779,0.00298616,0.00720132,-0.000740253,1.14523,0.00506569,0.0138912,1644,463,9.88382,26.3765
427,561,9.84998,-25.7522,0.000654866,0.00599783,0.00334245,0.00760522,-0.000952525,1.12254,0.00541565,0.0110935,1651,463,9.84997,25.7522
434,561,9.82495,-25.0977,0.000691254,0.00632772,0.00368104,0.00814549,-0.00112651,1.11211,0.00584215,0.0127574,1658,463,9.82495,25.0977
441,561,9.82617,-24.4775,0.000533801,0.00654602,0.00399054,0.00853602,-0.0014562,1.10821,0.00623304,0.0150373,1665,463,9.82623,24.4775
448,561,9.81201,-23.8381,0.000136546,0.0064785,0.00422868,0.00859305,-0.00197801,1.10711,0.00648932,0.0231142,1672,463,9.81196,23.8381
455,561,9.85535,-23.0732,-0.000470468,0.00601013,0.00440875,0.00824127,-0.00270161,1.1023,0.00658219,0.0433006,1679,463,9.85531,23.0732
462,561,9.61548,-22.4125,-0.00121072,0.00569462,0.00468067,0.00805827,-0.00357437,1.10317,0.00688041,0.0457379,1686,463,9.61552,22.4125
469,561,9.48401,-21.9547,-0.00211745,0.00527779,0.00500323,0.00780148,-0.00464114,1.10363,0.00726058,0.0271407,1693,463,9.48396,21.9547
476,561,9.28882,-21.483,-0.00314952,0.00454969,0.00553458,0.00744183,-0.00604166,1.08927,0.00779867,0.0400707,1700,463,9.28878,21.483
483,561,9.22266,-20.692,0,0,0,0,0,0,0,-1,1707,463,9.22263,20.6919
490,561,9.30847,-20.0476,0,0,0,0,0,0,0,-1,1714,463,9.30845,20.0476
497,561,9.35583,-19.4599,0,0,0,0,0,0,0,-1,1721,463,9.35588,19.4599
504,561,10.0769,-0.811401,0,0,0,0,0,0,0,-1,1728,463,10.0769,0.8114
511,561,0,0,0,0,0,0,0,0,0,-1,1735,463,0,0
518,561,0,0,0,0,0,0,0,0,0,-1,1742,463,0,0
525,561,0,0,0,0,0,0,0,0,0,-1,1749,463,0,0
532,561,0,0,0,0,0,0,0,0,0,-1,1756,463,0,0
539,561,0,0,0,0,0,0,0,0,0,-1,1763,463,0,0
546,561,0,0,0,0,0,0,0,0,0,-1,1770,463,0,0
553,561,0,0,0,0,0,0,0,0,0,-1,1777,463,0,0
560,561,0,0,0,0,0,0,0,0,0,-1,1784,463,0,0
567,561,0,0,0,0,0,0,0,0,0,-1,1791,463,0,0
574,561,0,0,0,0,0,0,0,0,0,-1,1798,463,0,0
581,561,0,0,0,0,0,0,0,0,0,-1,1805,463,0,0
588,561,0,0,0,0,0,0,0,0,0,-1,1812,463,0,0
595,561,0,0,0,0,0,0,0,0,0,-1,1819,463,0,0
602,561,0,0,0,0,0,0,0,0,0,-1,1826,463,0,0
609,561,0,0,0,0,0,0,0,0,0,-1,1833,463,0,0
616,561,0,0,0,0,0,0,0,0,0,-1,1840,463,0,0
623,561,0,0,0,0,0,0,0,0,0,-1,1847,463,0,0
630,561,0,0,0,0,0,0,0,0,0,-1,1854,463,0,0
637,561,0,0,0,0,0,0,0,0,0,-1,1861,463,0,0
644,561,0,0,0,0,0,0,0,0,0,-1,1868,463,0,0
651,561,0,0,0,0,0,0,0,0,0,-1,1875,463,0,0
658,561,0,0,0,0,0,0,0,0,0,-1,1882,463,0,0
665,561,0,0,0,0,0,0,0,0,0,-1,1889,463,0,0
672,561,0,0,0,0,0,0,0,0,0,-1,1896,463,0,0
679,561,0,0,0,0,0,0,0,0,0,-1,1903,463,0,0
686,561,0,0,0,0,0,0,0,0,0,-1,1910,463,0,0
693,561,0,0,0,0,0,0,0,0,0,-1,1917,463,0,0
700,561,0,0,0,0,0,0,0,0,0,-1,1924,463,0,0
707,561,0,0,0,0,0,0,0,0,0,-1,1931,463,0,0
714,561,0,0,0,0,0,0,0,0,0,-1,1938,463,0,0
721,561,0,0,0,0,0,0,0,0,0,-1,1945,463,0,0
728,561,0,0,0,0,0,0,0,0,0,-1,1952,463,0,0
735,561,0,0,0,0,0,0,0,0,0,-1,1959,463,0,0
742,561,0,0,0,0,0,0,0,0,0,-1,1966,463,0,0
749,561,0,0,0,0,0,0,0,0,0,-1,1973,463,0,0
756,561,0,0,0,0,0,0,0,0,0,-1,1980,463,0,0
763,561,0,0,0,0,0,0,0,0,0,-1,1987,463,0,0
770,561,0,0,0,0,0,0,0,0,0,-1,1994,463,0,0
777,561,0,0,0,0,0,0,0,0,0,-1,2001,463,0,0
784,561,0,0,0,0,0,0,0,0,0,-1,2008,463,0,0
791,561,0,0,0,0,0,0,0,0,0,-1,2015,463,0,0
798,561,0,0,0,0,0,0,0,0,0,-1,2022,463,0,0
805,561,0,0,0,0,0,0,0,0,0,-1,2029,463,0,0
812,561,0,0,0,0,0,0,0,0,0,-1,2036,463,0,0
-700,554,0,0,0,0,0,0,0,0,0,-1,524,470,0,0
-693,554,0,0,0,0,0,0,0,0,0,-1,531,470,0,0
-686,554,0,0,0,0,0,0,0,0,0,-1,538,470,0,0
-679,554,0,0,0,0,0,0,0,0,0,-1,545,470,0,0
-672,554,0,0,0,0,0,0,0,0,0,-1,552,470,0,0
-665,554,0,0,0,0,0,0,0,0,0,-1,559,470,0,0
-658,554,0,0,0,0,0,0,0,0,0,-1,566,470,0,0
-651,554,0,0,0,0,0,0,0,0,0,-1,573,470,0,0
-644,554,0,0,0,0,0,0,0,0,0,-1,580,470,0,0
-637,554,0,0,0,0,0,0,0,0,0,-1,587,470,0,0
-630,554,0,0,0,0,0,0,0,0,0,-1,594,470,0,0
-623,554,0,0,0,0,0,0,0,0,0,-1,601,470,0,0
-616,554,0,0,0,0,0,0,0,0,0,-1,608,470,0,0
-609,554,0,0,0,0,0,0,0,0,0,-1,615,470,0,0
-602,554,0,0,0,0,0,0,0,0,0,-1,622,470,0,0
-595,554,0,0,0,0,0,0,0,0,0,-1,629,470,0,0
-588,554,0,0,0,0,0,0,0,0,0,-1,636,470,0,0
-581,554,0,0,0,0,0,0,0,0,0,-1,643,470,0,0
-574,554,0,0,0,0,0,0,0,0,0,-1,650,470,0,0
-567,554,0,0,0,0,0,0,0,0,0,-1,657,470,0,0
-560,554,0,0,0,0,0,0,0,0,0,-1,664,470,0,0
-553,554,0,0,0,0,0,0,0,0,0,-1,671,470,0,0
-546,554,0,0,0,0,0,0,0,0,0,-1,678,470,0,0
-539,554,0,0,0,0,0,0,0,0,0,-1,685,470,0,0
-532,554,0,0,0,0,0,0,0,0,0,-1,692,470,0,0
-525,554,0,0,0,0,0,0,0,0,0,-1,699,470,0,0
-518,554,0,0,0,0,0,0,0,0,0,-1,706,470,0,0
-511,554,0,0,0,0,0,0,0,0,0,-1,713,470,0,0
-504,554,0,0,0,0,0,0,0,0,0,-1,720,470,0,0
-497,554,0,0,0,0,0,0,0,0,0,-1,727,470,0,0
-490,554,0,0,0,0,0,0,0,0,0,-1,734,470,0,0
-483,554,0,0,0,0,0,0,0,0,0,-1,741,470,0,0
-476,554,0,0,0,0,0,0,0,0,0,-1,748,470,0,0
-469,554,0,0,0,0,0,0,0,0,0,-1,755,470,0,0
-462,554,0,0,0,0,0,0,0,0,0,-1,762,470,0,0
-455,554,0,0,0,0,0,0,0,0,0,-1,769,470,0,0
-448,554,0,0,0,0,0,0,0,0,0,-1,776,470,0,0
-441,554,0,0,0,0,0,0,0,0,0,-1,783,470,0,0
-434,554,0,0,0,0,0,0,0,0,0,-1,790,470,0,0
-427,554,0,0,0,0,0,0,0,0,0,-1,797,470,0,0
-420,554,0,0,0,0,0,0,0,0,0,-1,804,470,0,0
-413,554,0,0,0,0,0,0,0,0,0,-1,811,470,0,0
-406,554,0,0,0,0,0,0,0,0,0,-1,818,470,0,0
-399,554,-1.32275,-3.95142,0,0,0,0,0,0,0,-1,825,470,-1.32275,3.95141
-392,554,-1.35632,-3.7406,0,0,0,0,0,0,0,-1,832,470,-1.35632,3.7406
-385,554,-0.849243,-4.14447,0,0,0,0,0,0,0,-1,839,470,-0.849262,4.14446
-378,554,-0.982666,-4.55084,0,0,0,0,0,0,0,-1,846,470,-0.982671,4.55084
-371,554,-1.74542,-4.63467,0,0,0,0,0,0,0,-1,853,470,-1.74541,4.63468
-364,554,1.04883,-7.68756,0,0,0,0,0,0,0,-1,860,470,1.0488,7.68757
-357,554,1.22089,-19.961,0,0,0,0,0,0,0,-1,867,470,1.22088,19.961
-350,554,1.17157,-18.1341,0,0,0,0,0,0,0,-1,874,470,1.17156,18.1341
-343,554,1.59656,-23.1836,0,0,0,0,0,0,0,-1,881,470,1.59655,23.1836
-336,554,1.45789,-23.6819,0.00578261,0.0168845,-0.00931551,0.0221775,0.00048958,-1.05409,0.0146246,0.0428648,888,470,1.4579,23.6818
-329,554,1.28741,-24.319,0.00518027,0.0137263,-0.00781758,0.0183625,0.000544129,-1.03551,0.0120644,0.0225391,895,470,1.28743,24.319
-322,554,1.19153,-24.9138,0.00439658,0.0108669,-0.0064082,0.0148102,0.000453199,-1.01916,0.00972595,0.0140707,902,470,1.19155,24.9139
-315,554,1.18835,-25.4972,0.00370531,0.0088239,-0.00528916,0.0121404,0.000388785,-1.01073,0.00796718,0.0134868,909,470,1.18836,25.4972
-308,554,1.15259,-26.1091,0.00295765,0.00732227,-0.00439656,0.0100483,0.000231575,-1.01577,0.00662305,0.0144522,916,470,1.15257,26.1091
-301,554,1.13873,-26.7352,0.00237299,0.00561633,-0.00361232,0.00795429,3.5034e-05,-0.996379,0.00529122,0.01429,923,470,1.13873,26.7352
-294,554,1.09656,-27.3176,0.00190038,0.00446057,-0.00286727,0.00632052,4.0431e-05,-0.995347,0.00420026,0.0126332,930,470,1.09655,27.3176
-287,554,1.06311,-27.8894,0.00151437,0.00361354,-0.00224071,0.00503831,8.96028e-05,-1.00443,0.00332941,0.0126319,937,470,1.06311,27.8894
-280,554,1.03088,-28.453,0.00129366,0.0027151,-0.00172189,0.00386718,0.000141583,-0.981125,0.00253224,0.012684,944,470,1.03086,28.453
-273,554,0.982483,-29.0262,0.00115844,0.00179907,-0.00113793,0.00266091,0.0002966,-0.922592,0.00168381,0.0151678,951,470,0.982511,29.0263
-266,554,0.96405,-29.5938,0.00121065,0.000533252,-0.000561024,0.00152729,0.000216616,-0.513824,0.000954217,0.0125398,958,470,0.964045,29.5938
-259,554,0.965698,-30.1153,0.00139465,-0.000913405,0.000259609,0.00142349,-0.000942246,0.110638,0.00137525,0.0127872,965,470,0.965696,30.1153
-252,554,0.935791,-30.646,0.00174619,-0.00291348,0.00100898,0.00195528,-0.00312258,0.204343,0.00295741,0.0151849,972,470,0.935807,30.646
-245,554,0.933777,-31.187,0.00229022,-0.00562086,0.00181247,0.0026857,-0.00601634,0.21483,0.00514533,0.0168358,979,470,0.933754,31.1869
-238,554,0.948975,-31.7469,0.0029557,-0.00833446,0.00262585,0.00353654,-0.00891529,0.217693,0.00740927,0.0126198,986,470,0.948976,31.7469
-231,554,0.923828,-32.2937,0.00354805,-0.0114893,0.0034743,0.00431196,-0.0122532,0.216431,0.00992347,0.0116451,993,470,0.92385,32.2937
-224,554,0.927673,-32.7815,0.00400585,-0.0149323,0.00441843,0.00498598,-0.0159124,0.218293,0.0126034,0.0114264,1000,470,0.927648,32.7815
-217,554,0.942749,-33.2642,0.00431894,-0.018448,0.00545457,0.00555829,-0.0196873,0.223421,0.0153176,0.0108389,1007,470,0.942725,33.2642
-210,554,0.949768,-33.7476,0.00466822,-0.0220576,0.00636197,0.00610538,-0.0234948,0.222169,0.0180459,0.0144808,1014,470,0.949752,33.7476
-203,554,0.926758,-34.1526,0.00498801,-0.0252198,0.00715389,0.00659656,-0.0268284,0.221171,0.0204423,0.0239439,1021,470,0.926765,34.1527
-196,554,0.931763,-34.5102,0.00532081,-0.0281968,0.00796952,0.00711924,-0.0299952,0.221945,0.0227444,0.0302635,1028,470,0.931815,34.5102
-189,554,1.10364,-34.8641,0.00563416,-0.0308942,0.00852501,0.00752578,-0.0327859,0.218352,0.0247502,0.0354242,1035,470,1.10361,34.8641
-182,554,1.11279,-35.3119,0.00569267,-0.0330884,0.0088593,0.00762067,-0.0350164,0.214284,0.0262558,0.0489513,1042,470,1.11284,35.3119
-175,554,1.06946,-35.5682,0,0,0,0,0,0,0,-1,1049,470,1.06942,35.5682
-168,554,0.554565,-36.4168,0,0,0,0,0,0,0,-1,1056,470,0.554507,36.4168
-161,554,0.740112,-35.4375,0,0,0,0,0,0,0,-1,1063,470,0.740111,35.4375
-154,554,1.27625,-37.374,0,0,0,0,0,0,0,-1,1070,470,1.27628,37.374
-147,554,1.34558,-35.0622,0,0,0,0,0,0,0,-1,1077,470,1.3456,35.0622
-140,554,1.27051,-35.4022,0,0,0,0,0,0,0,-1,1084,470,1.27055,35.4022
-133,554,2.67163,-32.8187,0,0,0,0,0,0,0,-1,1091,470,2.67161,32.8187
-126,554,0.851929,-33.5393,0,0,0,0,0,0,0,-1,1098,470,0.851942,33.5393
-119,554,-1.03479,-32.1628,0,0,0,0,0,0,0,-1,1105,470,-1.03476,32.1628
-112,554,1.03162,-24.5784,0,0,0,0,0,0,0,-1,1112,470,1.03156,24.5784
-105,554,0.608765,-21.0475,0,0,0,0,0,0,0,-1,1119,470,0.608728,21.0475
-98,554,1.51929,-7.3624,0,0,0,0,0,0,0,-1,1126,470,1.51928,7.36241
-91,554,1.41089,-6.5864,0,0,0,0,0,0,0,-1,1133,470,1.41093,6.58638
-84,554,1.62305,-5.87186,0,0,0,0,0,0,0,-1,1140,470,1.62299,5.87186
-77,554,-2.56958,1.33258,0,0,0,0,0,0,0,-1,1147,470,-2.56959,-1.33257
-70,554,-3.68164,-1.18332,0,0,0,0,0,0,0,-1,1154,470,-3.68158,1.18331
-63,554,-4.86853,-3.88708,0,0,0,0,0,0,0,-1,1161,470,-4.86853,3.88708
-56,554,-5.69958,-6.45422,0,0,0,0,0,0,0,-1,1168,470,-5.69955,6.45422
-49,554,-6.23645,-8.8569,0,0,0,0,0,0,0,-1,1175,470,-6.23643,8.85689
-42,554,-6.62524,-11.5382,0,0,0,0,0,0,0,-1,1182,470,-6.62522,11.5382
-35,554,-2.40173,-4.59482,0,0,0,0,0,0,0,-1,1189,470,-2.40169,4.59481
-28,554,-0.760132,-1.65555,0,0,0,0,0,0,0,-1,1196,470,-0.760095,1.65556
-21,554,1.69373,-43.5319,0,0,0,0,0,0,0,-1,1203,470,1.69367,43.5319
-14,554,4.2771,-43.7551,0,0,0,0,0,0,0,-1,1210,470,4.27706,43.7551
-7,554,5.33875,-43.6021,0,0,0,0,0,0,0,-1,1217,470,5.33872,43.6021
0,554,4.9845,-43.923,0,0,0,0,0,0,0,-1,1224,470,4.98447,43.923
7,554,4.48828,-43.79,-0.0689916,0.0903342,0.0386075,0.0991966,-0.0778539,1.34516,0.102467,0.0493832,1231,470,4.48828,43.79
14,554,4.02844,-43.6104,-0.0736996,0.085496,0.040585,0.0952455,-0.0834491,1.33504,0.103244,0.0442783,1238,470,4.02846,43.6104
21,554,3.5155,-43.0909,-0.0783391,0.0803792,0.0409693,0.0903305,-0.0882904,1.33251,0.103129,0.0431389,1245,470,3.51551,43.0909
28,554,2.61987,-42.9263,0,0,0,0,0,0,0,-1,1252,470,2.61988,42.9263
35,554,1.91101,-42.8517,-0.0884782,0.0703437,0.0390912,0.0794439,-0.0975783,1.34208,0.102382,0.0429236,1259,470,1.91105,42.8517
42,554,1.19958,-42.7396,-0.0917385,0.0658472,0.0363773,0.0738392,-0.0997306,1.35453,0.100582,0.0474875,1266,470,1.1996,42.7395
49,554,0.484985,-42.6566,0,0,0,0,0,0,0,-1,1273,470,0.484966,42.6566
56,554,0.03125,-42.5223,-0.0881415,0.0545567,0.0266057,0.0593559,-0.0929407,1.39233,0.0886382,0.0438789,1280,470,0.0312125,42.5224
63,554,-0.519409,-42.4362,-0.0828393,0.0499503,0.0164429,0.0519561,-0.0848451,1.44941,0.0797394,0.0448984,1287,470,-0.519369,42.4362
70,554,-0.891235,-42.0453,-0.080535,0.0503069,0.00522295,0.050515,-0.0807432,1.53096,0.0764489,0.0447497,1294,470,-0.891217,42.0453
77,554,-1.53516,-41.4419,0,0,0,0,0,0,0,-1,1301,470,-1.53511,41.4419
84,554,3.47522,-41.6134,0,0,0,0,0,0,0,-1,1308,470,3.47523,41.6134
91,554,-4.59485,-43.8993,0,0,0,0,0,0,0,-1,1315,470,-4.59488,43.8993
98,554,12.634,-44.4564,0,0,0,0,0,0,0,-1,1322,470,12.634,44.4564
105,554,-3.44312,-44.5446,0,0,0,0,0,0,0,-1,1329,470,-3.44316,44.5445
112,554,0.120605,-46.8563,-0.0577163,0.098725,-0.0715148,0.126489,-0.0854807,-1.20047,0.123142,0.0453948,1336,470,0.120587,46.8563
119,554,-0.519653,-47.4611,-0.0553144,0.107154,-0.0824247,0.141647,-0.0898076,-1.17446,0.134743,0.040329,1343,470,-0.519699,47.4611
126,554,-1.14648,-48.3165,-0.0541545,0.113991,-0.0909421,0.153768,-0.0939312,-1.15848,0.144393,0.0414383,1350,470,-1.14649,48.3165
133,554,-1.7478,-49.1286,-0.0532817,0.11993,-0.0969691,0.163338,-0.0966896,-1.1499,0.151762,0.0443567,1357,470,-1.74777,49.1286
140,554,-1.79199,-50.2947,-0.0477606,0.130997,-0.105474,0.179869,-0.0966326,-1.13689,0.162032,0.0480291,1364,470,-1.79193,50.2947
147,554,-1.6864,-51.3583,0,0,0,0,0,0,0,-1,1371,470,-1.68639,51.3583
154,554,-1.64905,-52.4073,-0.0358019,0.150484,-0.111154,0.202361,-0.0876786,-1.13413,0.171762,0.0453039,1378,470,-1.64909,52.4073
161,554,-1.57007,-53.5159,0,0,0,0,0,0,0,-1,1385,470,-1.57012,53.5159
168,554,-1.45239,-54.5974,0,0,0,0,0,0,0,-1,1392,470,-1.45239,54.5974
175,554,10.663,0.286957,0,0,0,0,0,0,0,-1,1399,470,10.663,-0.286966
182,554,6.71106,-4.50217,0,0,0,0,0,0,0,-1,1406,470,6.71107,4.50215
189,554,6.90479,-2.50348,0,0,0,0,0,0,0,-1,1413,470,6.90477,2.50348
196,554,6.96216,-0.740906,0,0,0,0,0,0,0,-1,1420,470,6.96214,0.740912
203,554,6.43518,0.414154,0,0,0,0,0,0,0,-1,1427,470,6.43523,-0.414141
210,554,6.21167,1.96707,0,0,0,0,0,0,0,-1,1434,470,6.21165,-1.96706
217,554,5.64551,3.4989,0,0,0,0,0,0,0,-1,1441,470,5.64555,-3.49891
224,554,4.85144,-8.85172,0,0,0,0,0,0,0,-1,1448,470,4.85146,8.85173
231,554,3.25073,-5.29642,0,0,0,0,0,0,0,-1,1455,470,3.25078,5.29642
238,554,4.28625,-3.25253,0,0,0,0,0,0,0,-1,1462,470,4.28622,3.25252
245,554,4.0752,-2.90033,0,0,0,0,0,0,0,-1,1469,470,4.07515,2.90032
252,554,3.52112,-0.934998,0,0,0,0,0,0,0,-1,1476,470,3.52113,0.934996
259,554,3.96448,-2.16425,0,0,0,0,0,0,0,-1,1483,470,3.96446,2.16424
266,554,3.0592,-2.71716,0,0,0,0,0,0,0,-1,1490,470,3.05923,2.71718
273,554,2.58521,-3.06876,0,0,0,0,0,0,0,-1,1497,470,2.58524,3.06874
280,554,2.83301,-0.991699,0,0,0,0,0,0,0,-1,1504,470,2.83303,0.991704
287,554,3.54126,-4.12277,0,0,0,0,0,0,0,-1,1511,470,3.54123,4.12277
294,554,3.62036,-8.50146,0,0,0,0,0,0,0,-1,1518,470,3.62031,8.50145
301,554,9.31323,-32.2134,0,0,0,0,0,0,0,-1,1525,470,9.31327,32.2134
308,554,10.5415,-34.8613,0,0,0,0,0,0,0,-1,1532,470,10.5416,34.8613
315,554,10.312,-34.2076,0,0,0,0,0,0,0,-1,1539,470,10.312,34.2077
322,554,10.4185,-33.951,0.00523366,-0.0093221,-0.00329394,0.00594437,-0.0100328,-0.212505,0.00932456,0.0480681,1546,470,10.4185,33.9511
329,554,10.5764,-33.486,0.00454663,-0.00854131,-0.00297495,0.00519112,-0.00918579,-0.21334,0.00840664,0.0324398,1553,470,10.5765,33.486
336,554,10.6017,-33.0781,0.00389861,-0.00735924,-0.00265841,0.00449479,-0.00795542,-0.220612,0.00728011,0.0208905,1560,470,10.6017,33.0781
343,554,10.6104,-32.613,0.00313594,-0.00628446,-0.00241872,0.00372066,-0.00686918,-0.237197,0.00620347,0.0130816,1567,470,10.6104,32.613
350,554,10.6149,-32.0681,0.00238627,-0.00538834,-0.00219751,0.00296441,-0.00596648,-0.257258,0.00525245,0.0103937,1574,470,10.6149,32.0681
357,554,10.6194,-31.5346,0.00183868,-0.00431239,-0.00182519,0.00233949,-0.0048132,-0.267796,0.00421112,0.0115146,1581,470,10.6194,31.5346
364,554,10.6073,-31.0196,0.00139205,-0.00315034,-0.00135545,0.00176577,-0.00352406,-0.269031,0.00310981,0.00918917,1588,470,10.6073,31.0196
371,554,10.5889,-30.4639,0.00103843,-0.00206968,-0.000877449,0.00126903,-0.00230029,-0.256998,0.00208922,0.00874377,1595,470,10.5888,30.4639
378,554,10.5652,-29.8727,0.000637883,-0.000840785,-0.000468801,0.000773986,-0.000976888,-0.282553,0.00101313,0.0111013,1602,470,10.5652,29.8727
385,554,10.5553,-29.2912,0.00038534,0.000265281,1.84829e-05,0.000388121,0.0002625,0.149343,0.00022868,0.0109347,1609,470,10.5552,29.2912
392,554,10.5353,-28.718,0.000328371,0.00117515,0.000458696,0.00137599,0.000127534,1.1581,0.00087791,0.0136561,1616,470,10.5353,28.718
399,554,10.5024,-28.119,0.000434601,0.00190175,0.000951073,0.00236929,-3.29369e-05,1.1139,0.00159062,0.0179886,1623,470,10.5024,28.119
406,554,10.5054,-27.5415,0.000494221,0.00272136,0.00142813,0.00341875,-0.000203173,1.11653,0.00234982,0.0161957,1630,470,10.5054,27.5415
413,554,10.5061,-26.9623,0.000514108,0.00359682,0.00185763,0.0044693,-0.000358368,1.13171,0.00310589,0.0159362,1637,470,10.5061,26.9624
420,554,10.4783,-26.3606,0.000503135,0.00421023,0.00220877,0.00524013,-0.000526772,1.13449,0.0036816,0.0170601,1644,470,10.4783,26.3606
427,554,10.4468,-25.7469,0.000483709,0.00447609,0.0025816,0.00574324,-0.000783449,1.1145,0.00411492,0.011513,1651,470,10.4468,25.7469
434,554,10.41,-25.1345,0.000483971,0.00485066,0.00295537,0.00634171,-0.00100708,1.10354,0.00460039,0.0100564,1658,470,10.4101,25.1345
441,554,10.395,-24.5055,0.000347378,0.00514914,0.00332011,0.0068455,-0.00134898,1.09844,0.00507346,0.0115196,1665,470,10.3951,24.5055
448,554,10.3561,-23.8354,6.41311e-05,0.00521154,0.00362567,0.00708412,-0.00180845,1.09405,0.00542695,0.0184956,1672,470,10.3561,23.8354
455,554,10.2863,-23.238,-0.000347877,0.00499966,0.00391174,0.00706412,-0.00241233,1.08519,0.00568671,0.0211431,1679,470,10.2862,23.238
462,554,10.1924,-22.6273,-0.000832686,0.00485304,0.00425155,0.00712462,-0.00310427,1.08009,0.0060558,0.0229967,1686,470,10.1924,22.6273
469,554,10.1287,-22.0431,-0.00140803,0.00464525,0.00464515,0.00716279,-0.00392557,1.07414,0.00649218,0.0249328,1693,470,10.1287,22.0431
476,554,10.0092,-21.1296,-0.00205278,0.00430734,0.0053167,0.00732245,-0.00506789,1.05492,0.00719293,0.0429671,1700,470,10.0092,21.1296
483,554,9.85461,-20.1962,0,0,0,0,0,0,0,-1,1707,470,9.85464,20.1962
490,554,10.4478,-20.5666,0,0,0,0,0,0,0,-1,1714,470,10.4478,20.5666
497,554,10.9613,1.60983,0,0,0,0,0,0,0,-1,1721,470,10.9613,-1.60982
504,554,2.13257,-3.81628,0,0,0,0,0,0,0,-1,1728,470,2.1326,3.8163
511,554,1.31396,-4.02713,0,0,0,0,0,0,0,-1,1735,470,1.31398,4.02712
518,554,5.04236,-5.9472,0,0,0,0,0,0,0,-1,1742,470,5.04231,5.94721
525,554,0,0,0,0,0,0,0,0,0,-1,1749,470,0,0
532,554,0,0,0,0,0,0,0,0,0,-1,1756,470,0,0
539,554,0,0,0,0,0,0,0,0,0,-1,1763,470,0,0
546,554,0,0,0,0,0,0,0,0,0,-1,1770,470,0,0
553,554,0,0,0,0,0,0,0,0,0,-1,1777,470,0,0
560,554,0,0,0,0,0,0,0,0,0,-1,1784,470,0,0
567,554,0,0,0,0,0,0,0,0,0,-1,1791,470,0,0
574,554,0,0,0,0,0,0,0,0,0,-1,1798,470,0,0
581,554,0,0,0,0,0,0,0,0,0,-1,1805,470,0,0
588,554,0,0,0,0,0,0,0,0,0,-1,1812,470,0,0
595,554,0,0,0,0,0,0,0,0,0,-1,1819,470,0,0
602,554,0,0,0,0,0,0,0,0,0,-1,1826,470,0,0
609,554,0,0,0,0,0,0,0,0,0,-1,1833,470,0,0
616,554,0,0,0,0,0,0,0,0,0,-1,1840,470,0,0
623,554,0,0,0,0,0,0,0,0,0,-1,1847,470,0,0
630,554,0,0,0,0,0,0,0,0,0,-1,1854,470,0,0
637,554,0,0,0,0,0,0,0,0,0,-1,1861,470,0,0
644,554,0,0,0,0,0,0,0,0,0,-1,1868,470,0,0
651,554,0,0,0,0,0,0,0,0,0,-1,1875,470,0,0
658,554,0,0,0,0,0,0,0,0,0,-1,1882,470,0,0
665,554,0,0,0,0,0,0,0,0,0,-1,1889,470,0,0
672,554,0,0,0,0,0,0,0,0,0,-1,1896,470,0,0
679,554,0,0,0,0,0,0,0,0,0,-1,1903,470,0,0
686,554,0,0,0,0,0,0,0,0,0,-1,1910,470,0,0
693,554,0,0,0,0,0,0,0,0,0,-1,1917,470,0,0
700,554,0,0,0,0,0,0,0,0,0,-1,1924,470,0,0
707,554,0,0,0,0,0,0,0,0,0,-1,1931,470,0,0
714,554,0,0,0,0,0,0,0,0,0,-1,1938,470,0,0
721,554,0,0,0,0,0,0,0,0,0,-1,1945,470,0,0
728,554,0,0,0,0,0,0,0,0,0,-1,1952,470,0,0
735,554,0,0,0,0,0,0,0,0,0,-1,1959,470,0,0
742,554,0,0,0,0,0,0,0,0,0,-1,1966,470,0,0
749,554,0,0,0,0,0,0,0,0,0,-1,1973,470,0,0
756,554,0,0,0,0,0,0,0,0,0,-1,1980,470,0,0
763,554,0,0,0,0,0,0,0,0,0,-1,1987,470,0,0
770,554,0,0,0,0,0,0,0,0,0,-1,1994,470,0,0
777,554,0,0,0,0,0,0,0,0,0,-1,2001,470,0,0
784,554,0,0,0,0,0,0,0,0,0,-1,2008,470,0,0
791,554,0,0,0,0,0,0,0,0,0,-1,2015,470,0,0
798,554,0,0,0,0,0,0,0,0,0,-1,2022,470,0,0
805,554,0,0,0,0,0,0,0,0,0,-1,2029,470,0,0
812,554,0,0,0,0,0,0,0,0,0,-1,2036,470,0,0
-700,547,0,0,0,0,0,0,0,0,0,-1,524,477,0,0
-693,547,0,0,0,0,0,0,0,0,0,-1,531,477,0,0
-686,547,0,0,0,0,0,0,0,0,0,-1,538,477,0,0
-679,547,0,0,0,0,0,0,0,0,0,-1,545,477,0,0
-672,547,0,0,0,0,0,0,0,0,0,-1,552,477,0,0
-665,547,0,0,0,0,0,0,0,0,0,-1,559,477,0,0
-658,547,0,0,0,0,0,0,0,0,0,-1,566,477,0,0
-651,547,0,0,0,0,0,0,0,0,0,-1,573,477,0,0
-644,547,0,0,0,0,0,0,0,0,0,-1,580,477,0,0
-637,547,0,0,0,0,0,0,0,0,0,-1,587,477,0,0
-630,547,0,0,0,0,0,0,0,0,0,-1,594,477,0,0
-623,547,0,0,0,0,0,0,0,0,0,-1,601,477,0,0
-616,547,0,0,0,0,0,0,0,0,0,-1,608,477,0,0
-609,547,0,0,0,0,0,0,0,0,0,-1,615,477,0,0
-602,547,0,0,0,0,0,0,0,0,0,-1,622,477,0,0
-595,547,0,0,0,0,0,0,0,0,0,-1,629,477,0,0
-588,547,0,0,0,0,0,0,0,0,0,-1,636,477,0,0
-581,547,0,0,0,0,0,0,0,0,0,-1,643,477,0,0
-574,547,0,0,0,0,0,0,0,0,0,-1,650,477,0,0
-567,547,0,0,0,0,0,0,0,0,0,-1,657,477,0,0
-560,547,0,0,0,0,0,0,0,0,0,-1,664,477,0,0
-553,547,0,0,0,0,0,0,0,0,0,-1,671,477,0,0
-546,547,0,0,0,0,0,0,0,0,0,-1,678,477,0,0
-539,547,0,0,0,0,0,0,0,0,0,-1,685,477,0,0
-532,547,0,0,0,0,0,0,0,0,0,-1,692,477,0,0
-525,547,0,0,0,0,0,0,0,0,0,-1,699,477,0,0
-518,547,0,0,0,0,0,0,0,0,0,-1,706,477,0,0
-511,547,0,0,0,0,0,0,0,0,0,-1,713,477,0,0
-504,547,0,0,0,0,0,0,0,0,0,-1,720,477,0,0
-497,547,0,0,0,0,0,0,0,0,0,-1,727,477,0,0
-490,547,0,0,0,0,0,0,0,0,0,-1,734,477,0,0
-483,547,0,0,0,0,0,0,0,0,0,-1,741,477,0,0
-476,547,0,0,0,0,0,0,0,0,0,-1,748,477,0,0
-469,547,0,0,0,0,0,0,0,0,0,-1,755,477,0,0
-462,547,0,0,0,0,0,0,0,0,0,-1,762,477,0,0
-455,547,0,0,0,0,0,0,0,0,0,-1,769,477,0,0
-448,547,0,0,0,0,0,0,0,0,0,-1,776,477,0,0
-441,547,0,0,0,0,0,0,0,0,0,-1,783,477,0,0
-434,547,0,0,0,0,0,0,0,0,0,-1,790,477,0,0
-427,547,0,0,0,0,0,0,0,0,0,-1,797,477,0,0
-420,547,0,0,0,0,0,0,0,0,0,-1,804,477,0,0
-413,547,0,0,0,0,0,0,0,0,0,-1,811,477,0,0
-406,547,0.144592,-11.0292,0,0,0,0,0,0,0,-1,818,477,0.144583,11.0292
-399,547,0.775513,-10.0294,0,0,0,0,0,0,0,-1,825,477,0.775482,10.0295
-392,547,-1.52271,-4.41675,0,0,0,0,0,0,0,-1,832,477,-1.52273,4.41674
-385,547,-1.73743,-4.6431,0,0,0,0,0,0,0,-1,839,477,-1.73743,4.64308
-378,547,-2.41339,-4.60071,0,0,0,0,0,0,0,-1,846,477,-2.41337,4.60071
-371,547,1.64569,-11.1445,0,0,0,0,0,0,0,-1,853,477,1.64569,11.1445
-364,547,0.834106,-19.5423,0,0,0,0,0,0,0,-1,860,477,0.834088,19.5423
-357,547,0.860291,-20.4131,0,0,0,0,0,0,0,-1,867,477,0.860302,20.4131
-350,547,0.843262,-21.6028,0,0,0,0,0,0,0,-1,874,477,0.843269,21.6029
-343,547,0.906616,-23.0477,0,0,0,0,0,0,0,-1,881,477,0.906615,23.0477
-336,547,0.793335,-23.6682,0.00368781,0.0142111,-0.00775829,0.0183237,-0.000424763,-1.08337,0.0123598,0.0196215,888,477,0.793365,23.6682
-329,547,0.685608,-24.2953,0.00328688,0.0114242,-0.00639435,0.0149346,-0.000223493,-1.06874,0.0100317,0.011377,895,477,0.68559,24.2953
-322,547,0.631042,-24.908,0.00278249,0.00888946,-0.00510313,0.0117829,-0.000110927,-1.055,0.00789249,0.0113099,902,477,0.631028,24.908
-315,547,0.59314,-25.5388,0.00236807,0.00699578,-0.00404781,0.00934441,1.94474e-05,-1.04505,0.00622313,0.0109036,909,477,0.593129,25.5388
-308,547,0.585876,-26.1253,0.00190917,0.00555987,-0.00320853,0.00742594,4.3099e-05,-1.04402,0.00493632,0.0124162,916,477,0.58586,26.1253
-301,547,0.581177,-26.7226,0.0015979,0.00398474,-0.00251954,0.00557921,3.4261e-06,-1.00658,0.00371833,0.0115421,923,477,0.581157,26.7226
-294,547,0.530273,-27.2953,0.00140352,0.0028907,-0.00185097,0.00414185,0.000152363,-0.976397,0.00271187,0.0102176,930,477,0.530243,27.2953
-287,547,0.489624,-27.85,0.00128422,0.0020543,-0.0012745,0.00300065,0.000337868,-0.932095,0.00189786,0.0120771,937,477,0.489637,27.85
-280,547,0.477295,-28.432,0.00126459,0.00105703,-0.000775577,0.0019433,0.00037832,-0.71889,0.00118965,0.0146448,944,477,0.4773,28.432
-273,547,0.448059,-29.0007,0.00129916,7.70079e-05,-0.000189847,0.00132797,4.81966e-05,-0.150611,0.000869695,0.0132833,951,477,0.448029,29.0007
-266,547,0.423462,-29.5699,0.00154992,-0.0012715,0.000453282,0.00162095,-0.00134254,0.155447,0.00171349,0.0121661,958,477,0.423466,29.5699
-259,547,0.400818,-30.097,0.00199242,-0.00298739,0.00123142,0.00228029,-0.00327526,0.229644,0.0032246,0.0115036,965,477,0.400809,30.097
-252,547,0.409241,-30.6313,0.00252403,-0.00533179,0.00214505,0.00307158,-0.00587934,0.249924,0.00525188,0.0116312,972,477,0.409265,30.6313
-245,547,0.421326,-31.174,0.0031413,-0.00848502,0.00312249,0.00392683,-0.00927055,0.246459,0.00782495,0.0123354,979,477,0.421313,31.174
-238,547,0.427612,-31.7273,0.00389746,-0.0116621,0.00405324,0.00489001,-0.0126546,0.240152,0.0104548,0.00893503,986,477,0.427603,31.7273
-231,547,0.414246,-32.265,0.00462667,-0.0154163,0.00507997,0.00584068,-0.0166303,0.234579,0.0134629,0.00893476,993,477,0.41423,32.265
-224,547,0.400146,-32.7363,0.00519228,-0.0196445,0.00624171,0.00667264,-0.0211248,0.23287,0.0167563,0.0112758,1000,477,0.400154,32.7363
-217,547,0.401245,-33.1789,0.00557027,-0.0241299,0.00753787,0.00737385,-0.0259335,0.234853,0.0202007,0.0174041,1007,477,0.401274,33.1789
-210,547,0.400696,-33.5163,0.00598734,-0.0287128,0.00868576,0.00804004,-0.0307655,0.232071,0.0236503,0.0286658,1014,477,0.400698,33.5163
-203,547,0.507507,-33.5557,0.00634855,-0.032859,0.00970957,0.00862134,-0.0351317,0.229937,0.0267619,0.040847,1021,477,0.507538,33.5557
-196,547,0.556641,-33.6743,0.0067107,-0.0367694,0.0106429,0.00917606,-0.0392347,0.227628,0.0296916,0.0493004,1028,477,0.556623,33.6743
-189,547,0.621094,-33.7057,0,0,0,0,0,0,0,-1,1035,477,0.621124,33.7057
-182,547,0.615112,-34.9597,0,0,0,0,0,0,0,-1,1042,477,0.615133,34.9597
-175,547,-0.350098,-12.3584,0,0,0,0,0,0,0,-1,1049,477,-0.350098,12.3584
-168,547,0.761719,-32.9387,0,0,0,0,0,0,0,-1,1056,477,0.761738,32.9387
-161,547,0.0430908,-34.6016,0,0,0,0,0,0,0,-1,1063,477,0.0431231,34.6016
-154,547,-0.284424,-31.1176,0,0,0,0,0,0,0,-1,1070,477,-0.284395,31.1176
-147,547,3.69434,-26.413,0,0,0,0,0,0,0,-1,1077,477,3.69437,26.413
-140,547,1.55676,-22.5229,0,0,0,0,0,0,0,-1,1084,477,1.5568,22.5229
-133,547,2.31665,-17.9421,0,0,0,0,0,0,0,-1,1091,477,2.31667,17.9421
-126,547,-1.15271,-30.6984,0,0,0,0,0,0,0,-1,1098,477,-1.15267,30.6984
-119,547,0.967651,-24.9351,0,0,0,0,0,0,0,-1,1105,477,0.967657,24.9351
-112,547,1.15674,-22.2276,0,0,0,0,0,0,0,-1,1112,477,1.15677,22.2276
-105,547,0.966797,-20.5777,0,0,0,0,0,0,0,-1,1119,477,0.966804,20.5777
-98,547,0.70166,-18.9755,0,0,0,0,0,0,0,-1,1126,477,0.701713,18.9755
-91,547,1.37805,-7.12024,0,0,0,0,0,0,0,-1,1133,477,1.37804,7.12025
-84,547,1.94202,-6.66241,0,0,0,0,0,0,0,-1,1140,477,1.94201,6.66241
-77,547,-2.28357,1.8588,0,0,0,0,0,0,0,-1,1147,477,-2.28356,-1.85879
-70,547,-3.70178,-0.874908,0,0,0,0,0,0,0,-1,1154,477,-3.70182,0.874918
-63,547,-5.12012,-3.60861,0,0,0,0,0,0,0,-1,1161,477,-5.12009,3.60862
-56,547,-6.01917,-6.2399,0,0,0,0,0,0,0,-1,1168,477,-6.01921,6.23991
-49,547,-6.729,-8.60349,0,0,0,0,0,0,0,-1,1175,477,-6.72899,8.60348
-42,547,-2.41736,-5.53012,0,0,0,0,0,0,0,-1,1182,477,-2.41734,5.53011
-35,547,-2.96838,-4.45734,0,0,0,0,0,0,0,-1,1189,477,-2.96839,4.45734
-28,547,-0.869141,-1.29901,0,0,0,0,0,0,0,-1,1196,477,-0.869135,1.29901
-21,547,-7.68262,-30.8089,0,0,0,0,0,0,0,-1,1203,477,-7.68256,30.8089
-14,547,5.0061,-44.1091,0,0,0,0,0,0,0,-1,1210,477,5.00615,44.1091
-7,547,4.74805,-44.2591,0,0,0,0,0,0,0,-1,1217,477,4.74802,44.2591
0,547,4.5,-44.3237,0,0,0,0,0,0,0,-1,1224,477,4.49994,44.3237
7,547,4.23474,-44.5227,0,0,0,0,0,0,0,-1,1231,477,4.2348,44.5227
14,547,0,0,0,0,0,0,0,0,0,-1,1238,477,0,0
21,547,0,0,0,0,0,0,0,0,0,-1,1245,477,0,0
28,547,0,0,0,0,0,0,0,0,0,-1,1252,477,0,0
35,547,0,0,0,0,0,0,0,0,0,-1,1259,477,0,0
42,547,0,0,0,0,0,0,0,0,0,-1,1266,477,0,0
49,547,0,0,0,0,0,0,0,0,0,-1,1273,477,0,0
56,547,0,0,0,0,0,0,0,0,0,-1,1280,477,0,0
63,547,0,0,0,0,0,0,0,0,0,-1,1287,477,0,0
70,547,0,0,0,0,0,0,0,0,0,-1,1294,477,0,0
77,547,0,0,0,0,0,0,0,0,0,-1,1301,477,0,0
84,547,0,0,0,0,0,0,0,0,0,-1,1308,477,0,0
91,547,0,0,0,0,0,0,0,0,0,-1,1315,477,0,0
98,547,0,0,0,0,0,0,0,0,0,-1,1322,477,0,0
105,547,0.747925,-46.6979,0,0,0,0,0,0,0,-1,1329,477,0.747905,46.698
112,547,0.598877,-47.7523,-0.0718424,0.103161,-0.0736689,0.130043,-0.0987245,-1.22091,0.132491,0.044087,1336,477,0.598846,47.7523
119,547,0.0249023,-48.3464,-0.0678141,0.114734,-0.0865514,0.149246,-0.102326,-1.19137,0.146085,0.0415675,1343,477,0.0249018,48.3464
126,547,-0.632813,-49.0702,-0.0644797,0.125648,-0.0980681,0.167166,-0.105997,-1.17032,0.159023,0.0438934,1350,477,-0.632756,49.0702
133,547,-1.25867,-49.8746,-0.062509,0.134817,-0.106823,0.181569,-0.109261,-1.15825,0.169632,0.0468505,1357,477,-1.25867,49.8746
140,547,-1.84229,-50.6754,-0.0548507,0.153117,-0.120609,0.208378,-0.110112,-1.14115,0.186775,0.0482795,1364,477,-1.84225,50.6754
147,547,-2.49268,-51.4578,0,0,0,0,0,0,0,-1,1371,477,-2.49273,51.4578
154,547,-0.2323,-54.2055,0,0,0,0,0,0,0,-1,1378,477,-0.232345,54.2055
161,547,-0.155762,-55.2928,0,0,0,0,0,0,0,-1,1385,477,-0.155733,55.2929
168,547,13.4181,-26.3557,0,0,0,0,0,0,0,-1,1392,477,13.4181,26.3557
175,547,3.35034,-0.26532,0,0,0,0,0,0,0,-1,1399,477,3.3503,0.265306
182,547,4.26038,3.72672,0,0,0,0,0,0,0,-1,1406,477,4.26039,-3.7267
189,547,3.40454,1.28671,0,0,0,0,0,0,0,-1,1413,477,3.40457,-1.28673
196,547,3.53931,1.87793,0,0,0,0,0,0,0,-1,1420,477,3.53928,-1.87794
203,547,6.49414,-0.425842,0,0,0,0,0,0,0,-1,1427,477,6.4941,0.425844
210,547,4.82092,0.53595,0,0,0,0,0,0,0,-1,1434,477,4.82096,-0.535942
217,547,4.68579,0.480072,0,0,0,0,0,0,0,-1,1441,477,4.68577,-0.480069
224,547,4.55615,0.739807,0,0,0,0,0,0,0,-1,1448,477,4.55613,-0.73981
231,547,5.90869,-3.57721,0,0,0,0,0,0,0,-1,1455,477,5.90871,3.57722
238,547,5.50049,-3.15356,0,0,0,0,0,0,0,-1,1462,477,5.50045,3.15356
245,547,5.13708,-2.65213,0,0,0,0,0,0,0,-1,1469,477,5.13708,2.65212
252,547,3.73511,-0.645233,0,0,0,0,0,0,0,-1,1476,477,3.73515,0.645237
259,547,5.86816,-3.20816,0,0,0,0,0,0,0,-1,1483,477,5.86815,3.20816
266,547,5.40222,-2.45731,0,0,0,0,0,0,0,-1,1490,477,5.40221,2.45732
273,547,3.05737,0.495789,0,0,0,0,0,0,0,-1,1497,477,3.05742,-0.49578
280,547,2.0885,1.47797,0,0,0,0,0,0,0,-1,1504,477,2.08848,-1.47795
287,547,2.31177,-2.21716,0,0,0,0,0,0,0,-1,1511,477,2.31174,2.21717
294,547,2.4823,-3.03659,0,0,0,0,0,0,0,-1,1518,477,2.48229,3.0366
301,547,4.72119,-3.93454,0,0,0,0,0,0,0,-1,1525,477,4.72119,3.93453
308,547,4.07471,-5.42175,0,0,0,0,0,0,0,-1,1532,477,4.07468,5.42174
315,547,3.58496,-6.62112,0,0,0,0,0,0,0,-1,1539,477,3.58497,6.62113
322,547,10.7148,-33.7665,0,0,0,0,0,0,0,-1,1546,477,10.7149,33.7665
329,547,10.9922,-33.4136,0,0,0,0,0,0,0,-1,1553,477,10.9921,33.4136
336,547,11.2307,-33.2084,0,0,0,0,0,0,0,-1,1560,477,11.2307,33.2084
343,547,11.2719,-32.66,0.00347502,-0.0085328,-0.00340048,0.00437112,-0.0094289,-0.257665,0.00814387,0.0430138,1567,477,11.2718,32.66
350,547,11.1938,-32.0718,0.00258711,-0.00759434,-0.00323464,0.00352783,-0.00853506,-0.283021,0.00716172,0.0278223,1574,477,11.1939,32.0718
357,547,11.1735,-31.5366,0.0019986,-0.00639874,-0.0028594,0.00287979,-0.00727993,-0.298939,0.00604631,0.0153841,1581,477,11.1734,31.5366
364,547,11.1543,-30.9867,0.00155371,-0.0051032,-0.00236734,0.00230973,-0.00585922,-0.309116,0.00486249,0.0103341,1588,477,11.1543,30.9867
371,547,11.1566,-30.4153,0.00121847,-0.00391094,-0.00186642,0.00182571,-0.00451818,-0.314548,0.003771,0.00984251,1595,477,11.1566,30.4153
378,547,11.1593,-29.8369,0.000808172,-0.00252276,-0.00143134,0.00133873,-0.00305332,-0.35497,0.00259936,0.0117768,1602,477,11.1593,29.8369
385,547,11.1526,-29.2651,0.000566581,-0.00134868,-0.000854066,0.000892104,-0.0016742,-0.364148,0.00150442,0.0119854,1609,477,11.1525,29.2651
392,547,11.1412,-28.6909,0.00046921,-0.000367347,-0.000346098,0.000593832,-0.000491969,-0.345624,0.000627807,0.011412,1616,477,11.1412,28.6909
399,547,11.1089,-28.1086,0.000509923,0.00042901,0.000158855,0.000633393,0.000305541,0.660711,0.000365765,0.0136598,1623,477,11.1089,28.1086
406,547,11.1016,-27.5278,0.000538303,0.00128127,0.000645658,0.00165469,0.000164889,1.04645,0.00105248,0.0135123,1630,477,11.1016,27.5278
413,547,11.1085,-26.9501,0.000549077,0.00222508,0.00113236,0.0027958,-2.16421e-05,1.10395,0.00187112,0.0136915,1637,477,11.1085,26.9501
420,547,11.0851,-26.3635,0.000504158,0.00288402,0.00152279,0.00362666,-0.000238483,1.11705,0.00250106,0.0159811,1644,477,11.085,26.3635
427,547,11.0575,-25.7407,0.000439137,0.00327479,0.0019072,0.00423344,-0.000519516,1.10503,0.00301044,0.0149594,1651,477,11.0575,25.7407
434,547,10.9921,-25.1464,0.000411153,0.0036991,0.00230178,0.0048837,-0.000773453,1.0955,0.00354188,0.0102979,1658,477,10.9921,25.1464
441,547,10.9553,-24.5543,0.000292867,0.00406839,0.00269832,0.00547374,-0.00111248,1.09063,0.00407097,0.0106151,1665,477,10.9553,24.5543
448,547,10.9187,-23.8997,9.11544e-05,0.00422534,0.00304032,0.00583472,-0.00151822,1.08395,0.00448243,0.0112293,1672,477,10.9187,23.8997
455,547,10.9065,-23.2566,-0.000191294,0.00420246,0.00338562,0.0060415,-0.00203034,1.07319,0.00484829,0.0119355,1679,477,10.9065,23.2566
462,547,10.8414,-22.6395,-0.000517549,0.00418346,0.00375378,0.00626192,-0.00259602,1.06512,0.00525809,0.0120623,1686,477,10.8415,22.6395
469,547,10.776,-22.0055,-0.000905296,0.00412571,0.004178,0.00648703,-0.00326662,1.05637,0.00573268,0.0197306,1693,477,10.776,22.0055
476,547,10.73,-21.1815,-0.00134856,0.00404186,0.00489396,0.00693369,-0.00424039,1.0371,0.00651352,0.0354915,1700,477,10.73,21.1814
483,547,10.7843,-20.5546,0,0,0,0,0,0,0,-1,1707,477,10.7843,20.5546
490,547,3.65271,-3.71707,0,0,0,0,0,0,0,-1,1714,477,3.65277,3.71708
497,547,2.55481,-3.81421,0,0,0,0,0,0,0,-1,1721,477,2.55476,3.8142
504,547,4.01953,-2.22714,0,0,0,0,0,0,0,-1,1728,477,4.0195,2.22713
511,547,5.2146,-6.9552,0,0,0,0,0,0,0,-1,1735,477,5.21464,6.95521
518,547,5.24243,-6.56122,0,0,0,0,0,0,0,-1,1742,477,5.24241,6.56121
525,547,5.89368,-5.49866,0,0,0,0,0,0,0,-1,1749,477,5.89372,5.49866
532,547,0,0,0,0,0,0,0,0,0,-1,1756,477,0,0
539,547,0,0,0,0,0,0,0,0,0,-1,1763,477,0,0
546,547,0,0,0,0,0,0,0,0,0,-1,1770,477,0,0
553,547,0,0,0,0,0,0,0,0,0,-1,1777,477,0,0
560,547,0,0,0,0,0,0,0,0,0,-1,1784,477,0,0
567,547,0,0,0,0,0,0,0,0,0,-1,1791,477,0,0
574,547,0,0,0,0,0,0,0,0,0,-1,1798,477,0,0
581,547,0,0,0,0,0,0,0,0,0,-1,1805,477,0,0
588,547,0,0,0,0,0,0,0,0,0,-1,1812,477,0,0
595,547,0,0,0,0,0,0,0,0,0,-1,1819,477,0,0
602,547,0,0,0,0,0,0,0,0,0,-1,1826,477,0,0
609,547,0,0,0,0,0,0,0,0,0,-1,1833,477,0,0
616,547,0,0,0,0,0,0,0,0,0,-1,1840,477,0,0
623,547,0,0,0,0,0,0,0,0,0,-1,1847,477,0,0
630,547,0,0,0,0,0,0,0,0,0,-1,1854,477,0,0
637,547,0,0,0,0,0,0,0,0,0,-1,1861,477,0,0
644,547,0,0,0,0,0,0,0,0,0,-1,1868,477,0,0
651,547,0,0,0,0,0,0,0,0,0,-1,1875,477,0,0
658,547,0,0,0,0,0,0,0,0,0,-1,1882,477,0,0
665,547,0,0,0,0,0,0,0,0,0,-1,1889,477,0,0
672,547,0,0,0,0,0,0,0,0,0,-1,1896,477,0,0
679,547,0,0,0,0,0,0,0,0,0,-1,1903,477,0,0
686,547,0,0,0,0,0,0,0,0,0,-1,1910,477,0,0
693,547,0,0,0,0,0,0,0,0,0,-1,1917,477,0,0
700,547,0,0,0,0,0,0,0,0,0,-1,1924,477,0,0
707,547,0,0,0,0,0,0,0,0,0,-1,1931,477,0,0
714,547,0,0,0,0,0,0,0,0,0,-1,1938,477,0,0
721,547,0,0,0,0,0,0,0,0,0,-1,1945,477,0,0
728,547,0,0,0,0,0,0,0,0,0,-1,1952,477,0,0
735,547,0,0,0,0,0,0,0,0,0,-1,1959,477,0,0
742,547,0,0,0,0,0,0,0,0,0,-1,1966,477,0,0
749,547,0,0,0,0,0,0,0,0,0,-1,1973,477,0,0
756,547,0,0,0,0,0,0,0,0,0,-1,1980,477,0,0
763,547,0,0,0,0,0,0,0,0,0,-1,1987,477,0,0
770,547,0,0,0,0,0,0,0,0,0,-1,1994,477,0,0
777,547,0,0,0,0,0,0,0,0,0,-1,2001,477,0,0
784,547,0,0,0,0,0,0,0,0,0,-1,2008,477,0,0
791,547,0,0,0,0,0,0,0,0,0,-1,2015,477,0,0
798,547,0,0,0,0,0,0,0,0,0,-1,2022,477,0,0
805,547,0,0,0,0,0,0,0,0,0,-1,2029,477,0,0
812,547,0,0,0,0,0,0,0,0,0,-1,2036,477,0,0
-700,540,0,0,0,0,0,0,0,0,0,-1,524,484,0,0
-693,540,0,0,0,0,0,0,0,0,0,-1,531,484,0,0
-686,540,0,0,0,0,0,0,0,0,0,-1,538,484,0,0
-679,540,0,0,0,0,0,0,0,0,0,-1,545,484,0,0
-672,540,0,0,0,0,0,0,0,0,0,-1,552,484,0,0
-665,540,0,0,0,0,0,0,0,0,0,-1,559,484,0,0
-658,540,0,0,0,0,0,0,0,0,0,-1,566,484,0,0
-651,540,0,0,0,0,0,0,0,0,0,-1,573,484,0,0
-644,540,0,0,0,0,0,0,0,0,0,-1,580,484,0,0
-637,540,0,0,0,0,0,0,0,0,0,-1,587,484,0,0
-630,540,0,0,0,0,0,0,0,0,0,-1,594,484,0,0
-623,540,0,0,0,0,0,0,0,0,0,-1,601,484,0,0
-616,540,0,0,0,0,0,0,0,0,0,-1,608,484,0,0
-609,540,0,0,0,0,0,0,0,0,0,-1,615,484,0,0
-602,540,0,0,0,0,0,0,0,0,0,-1,622,484,0,0
-595,540,0,0,0,0,0,0,0,0,0,-1,629,484,0,0
-588,540,0,0,0,0,0,0,0,0,0,-1,636,484,0,0
-581,540,0,0,0,0,0,0,0,0,0,-1,643,484,0,0
-574,540,0,0,0,0,0,0,0,0,0,-1,650,484,0,0
-567,540,0,0,0,0,0,0,0,0,0,-1,657,484,0,0
-560,540,0,0,0,0,0,0,0,0,0,-1,664,484,0,0
-553,540,0,0,0,0,0,0,0,0,0,-1,671,484,0,0
-546,540,0,0,0,0,0,0,0,0,0,-1,678,484,0,0
-539,540,0,0,0,0,0,0,0,0,0,-1,685,484,0,0
-532,540,0,0,0,0,0,0,0,0,0,-1,692,484,0,0
-525,540,0,0,0,0,0,0,0,0,0,-1,699,484,0,0
-518,540,0,0,0,0,0,0,0,0,0,-1,706,484,0,0
-511,540,0,0,0,0,0,0,0,0,0,-1,713,484,0,0
-504,540,0,0,0,0,0,0,0,0,0,-1,720,484,0,0
-497,540,0,0,0,0,0,0,0,0,0,-1,727,484,0,0
-490,540,0,0,0,0,0,0,0,0,0,-1,734,484,0,0
-483,540,0,0,0,0,0,0,0,0,0,-1,741,484,0,0
-476,540,0,0,0,0,0,0,0,0,0,-1,748,484,0,0
-469,540,0,0,0,0,0,0,0,0,0,-1,755,484,0,0
-462,540,0,0,0,0,0,0,0,0,0,-1,762,484,0,0
-455,540,0,0,0,0,0,0,0,0,0,-1,769,484,0,0
-448,540,0,0,0,0,0,0,0,0,0,-1,776,484,0,0
-441,540,0,0,0,0,0,0,0,0,0,-1,783,484,0,0
-434,540,0,0,0,0,0,0,0,0,0,-1,790,484,0,0
-427,540,0,0,0,0,0,0,0,0,0,-1,797,484,0,0
-420,540,0.227051,-10.0402,0,0,0,0,0,0,0,-1,804,484,0.227063,10.0402
-413,540,-0.0393677,-10.3862,0,0,0,0,0,0,0,-1,811,484,-0.0393683,10.3862
-406,540,-0.518372,-11.5288,0,0,0,0,0,0,0,-1,818,484,-0.518402,11.5288
-399,540,0.0863037,-11.3801,0,0,0,0,0,0,0,-1,825,484,0.0863201,11.3801
-392,540,-0.517395,-10.6735,0,0,0,0,0,0,0,-1,832,484,-0.517377,10.6735
-385,540,-2.29407,-5.03418,0,0,0,0,0,0,0,-1,839,484,-2.29408,5.03418
-378,540,1.06445,-10.5824,0,0,0,0,0,0,0,-1,846,484,1.06446,10.5824
-371,540,1.14825,-10.7452,0,0,0,0,0,0,0,-1,853,484,1.14827,10.7452
-364,540,0.0821533,-20.9576,0,0,0,0,0,0,0,-1,860,484,0.0821687,20.9576
-357,540,0.338379,-21.1549,0.00434793,0.0211228,-0.0118308,0.0272377,-0.00176695,-1.09375,0.0187752,0.0468456,867,484,0.338404,21.1549
-350,540,0.213806,-22.0118,0.00349827,0.0175684,-0.00957723,0.0224167,-0.00135008,-1.10217,0.0154142,0.0378173,874,484,0.213789,22.0118
-343,540,0.163208,-22.9516,0.00285449,0.0143419,-0.00787409,0.0183445,-0.00114817,-1.1005,0.0126298,0.0213734,881,484,0.163213,22.9516
-336,540,0.104126,-23.743,0.00247703,0.011641,-0.00637332,0.0149084,-0.00079044,-1.09706,0.0102126,0.0136749,888,484,0.104153,23.7431
-329,540,0.06427,-24.3223,0.00214551,0.00917727,-0.00510534,0.0118603,-0.000537473,-1.08694,0.00809194,0.0101875,895,484,0.0642734,24.3223
-322,540,0.0205078,-24.9212,0.00179141,0.00695295,-0.00391563,0.0090618,-0.000317441,-1.07677,0.00614975,0.0143483,902,484,0.0204778,24.9212
-315,540,-0.00305176,-25.5304,0.00152475,0.00519794,-0.00291289,0.00680489,-8.22078e-05,-1.06667,0.00456424,0.0139734,909,484,-0.00307051,25.5304
-308,540,-0.000183105,-26.1134,0.0012363,0.00381339,-0.00211149,0.00499845,5.12395e-05,-1.05936,0.00331535,0.0138529,916,484,-0.000200483,26.1134
-301,540,-0.0315552,-26.6742,0.00108056,0.0023691,-0.00145429,0.00331544,0.000134218,-0.993911,0.00216694,0.0132589,923,484,-0.0315798,26.6742
-294,540,-0.0533447,-27.2482,0.00105512,0.00134216,-0.000811477,0.00202271,0.00037457,-0.872925,0.00124258,0.0115952,930,484,-0.0533501,27.2482
-287,540,-0.0536499,-27.8393,0.00112035,0.000515367,-0.00024877,0.00120951,0.000426212,-0.344125,0.000708382,0.00891709,937,484,-0.0536416,27.8393
-280,540,-0.0881958,-28.4001,0.00124904,-0.000559395,0.000266375,0.00128746,-0.000597814,0.143243,0.00111248,0.0104227,944,484,-0.0882242,28.4001
-273,540,-0.0987549,-28.987,0.00142245,-0.00156824,0.000882582,0.00166348,-0.00180928,0.266598,0.00200559,0.0124389,951,484,-0.0987849,28.987
-266,540,-0.103088,-29.5574,0.00187329,-0.00295235,0.00160985,0.00236104,-0.0034401,0.294188,0.00336855,0.0133465,958,484,-0.103105,29.5574
-259,540,-0.132385,-30.0967,0.00260966,-0.00488137,0.00234543,0.00328342,-0.00555512,0.27973,0.00515881,0.0126174,965,484,-0.132401,30.0967
-252,540,-0.11792,-30.6062,0.00337832,-0.00755279,0.0034082,0.00435389,-0.00852836,0.278788,0.00756662,0.0119583,972,484,-0.117891,30.6062
-245,540,-0.101563,-31.1347,0.00413644,-0.0111775,0.00455786,0.00539033,-0.0124313,0.268463,0.0105536,0.0121209,979,484,-0.101571,31.1347
-238,540,-0.124451,-31.6599,0.00505589,-0.0148852,0.00560797,0.0065248,-0.0163541,0.256178,0.0136094,0.0104557,986,484,-0.12445,31.6599
-231,540,-0.113342,-32.1628,0.0060117,-0.0194137,0.00684665,0.00773816,-0.0211402,0.247012,0.017261,0.0149948,993,484,-0.113326,32.1628
-224,540,-0.179993,-32.587,0.00675822,-0.0247213,0.00828627,0.00880616,-0.0267693,0.242293,0.0213945,0.024901,1000,484,-0.179975,32.587
-217,540,-0.169373,-32.8094,0.007289,-0.0304476,0.00987473,0.00971678,-0.0328754,0.241076,0.0257738,0.0367675,1007,484,-0.169375,32.8094
-210,540,0.0744629,-33.1218,0.00778855,-0.0364536,0.0113473,0.0105291,-0.0391942,0.236981,0.0302562,0.0450236,1014,484,0.0744343,33.1218
-203,540,0.14502,-33.1929,0.00815177,-0.0422075,0.0127595,0.0112001,-0.0452559,0.234512,0.0345151,0.0492772,1021,484,0.145015,33.1929
-196,540,0.247559,-33.1801,0,0,0,0,0,0,0,-1,1028,484,0.247543,33.1801
-189,540,-0.726807,-22.826,0,0,0,0,0,0,0,-1,1035,484,-0.72684,22.8259
-182,540,0.109375,-15.2948,0,0,0,0,0,0,0,-1,1042,484,0.109331,15.2948
-175,540,1.73413,-10.728,0,0,0,0,0,0,0,-1,1049,484,1.73414,10.728
-168,540,1.18164,-7.65347,0,0,0,0,0,0,0,-1,1056,484,1.18163,7.65347
-161,540,-0.405884,-9.86481,0,0,0,0,0,0,0,-1,1063,484,-0.405886,9.8648
-154,540,1.96863,-22.0727,0,0,0,0,0,0,0,-1,1070,484,1.96859,22.0727
-147,540,1.32764,-21.9952,0,0,0,0,0,0,0,-1,1077,484,1.32762,21.9952
-140,540,1.40735,-15.6289,0,0,0,0,0,0,0,-1,1084,484,1.4073,15.6289
-133,540,2.28345,-17.6413,0,0,0,0,0,0,0,-1,1091,484,2.2835,17.6413
-126,540,1.25293,-23.9108,0,0,0,0,0,0,0,-1,1098,484,1.25288,23.9108
-119,540,1.55969,-23.0125,0,0,0,0,0,0,0,-1,1105,484,1.55968,23.0125
-112,540,1.4801,-21.6515,0,0,0,0,0,0,0,-1,1112,484,1.4801,21.6515
-105,540,1.30078,-19.8938,0,0,0,0,0,0,0,-1,1119,484,1.30077,19.8938
-98,540,1.08105,-18.1304,0,0,0,0,0,0,0,-1,1126,484,1.08101,18.1304
-91,540,1.56519,-7.48666,0,0,0,0,0,0,0,-1,1133,484,1.56514,7.48667
-84,540,-0.945923,4.43073,0,0,0,0,0,0,0,-1,1140,484,-0.945891,-4.43074
-77,540,-2.28894,2.14368,0,0,0,0,0,0,0,-1,1147,484,-2.28894,-2.14368
-70,540,-3.75244,-0.452576,0,0,0,0,0,0,0,-1,1154,484,-3.75244,0.452576
-63,540,-5.26257,-3.04767,0,0,0,0,0,0,0,-1,1161,484,-5.26262,3.04766
-56,540,-5.19055,-6.12595,0,0,0,0,0,0,0,-1,1168,484,-5.19057,6.12595
-49,540,-5.63867,-8.52298,0,0,0,0,0,0,0,-1,1175,484,-5.63871,8.52298
-42,540,0,0,0,0,0,0,0,0,0,-1,1182,484,0,0
-35,540,0,0,0,0,0,0,0,0,0,-1,1189,484,0,0
-28,540,0,0,0,0,0,0,0,0,0,-1,1196,484,0,0
-21,540,0,0,0,0,0,0,0,0,0,-1,1203,484,0,0
-14,540,0,0,0,0,0,0,0,0,0,-1,1210,484,0,0
-7,540,0,0,0,0,0,0,0,0,0,-1,1217,484,0,0
0,540,0,0,0,0,0,0,0,0,0,-1,1224,484,0,0
7,540,0,0,0,0,0,0,0,0,0,-1,1231,484,0,0
14,540,0,0,0,0,0,0,0,0,0,-1,1238,484,0,0
21,540,0,0,0,0,0,0,0,0,0,-1,1245,484,0,0
28,540,0,0,0,0,0,0,0,0,0,-1,1252,484,0,0
35,540,0,0,0,0,0,0,0,0,0,-1,1259,484,0,0
42,540,0,0,0,0,0,0,0,0,0,-1,1266,484,0,0
49,540,0,0,0,0,0,0,0,0,0,-1,1273,484,0,0
56,540,0,0,0,0,0,0,0,0,0,-1,1280,484,0,0
63,540,0,0,0,0,0,0,0,0,0,-1,1287,484,0,0
70,540,0,0,0,0,0,0,0,0,0,-1,1294,484,0,0
77,540,0,0,0,0,0,0,0,0,0,-1,1301,484,0,0
84,540,0,0,0,0,0,0,0,0,0,-1,1308,484,0,0
91,540,0,0,0,0,0,0,0,0,0,-1,1315,484,0,0
98,540,0,0,0,0,0,0,0,0,0,-1,1322,484,0,0
105,540,0,0,0,0,0,0,0,0,0,-1,1329,484,0,0
112,540,0,0,0,0,0,0,0,0,0,-1,1336,484,0,0
119,540,0,0,0,0,0,0,0,0,0,-1,1343,484,0,0
126,540,0,0,0,0,0,0,0,0,0,-1,1350,484,0,0
133,540,0,0,0,0,0,0,0,0,0,-1,1357,484,0,0
140,540,0,0,0,0,0,0,0,0,0,-1,1364,484,0,0
147,540,0,0,0,0,0,0,0,0,0,-1,1371,484,0,0
154,540,0,0,0,0,0,0,0,0,0,-1,1378,484,0,0
161,540,0,0,0,0,0,0,0,0,0,-1,1385,484,0,0
168,540,3.05078,-0.0010376,0,0,0,0,0,0,0,-1,1392,484,3.05084,0.00102554
175,540,3.37708,0.617035,0,0,0,0,0,0,0,-1,1399,484,3.37707,-0.617046
182,540,3.32678,1.23267,0,0,0,0,0,0,0,-1,1406,484,3.32678,-1.23266
189,540,3.5813,2.15619,0,0,0,0,0,0,0,-1,1413,484,3.58129,-2.1562
196,540,1.84448,-0.801483,0,0,0,0,0,0,0,-1,1420,484,1.84446,0.80148
203,540,4.14648,0.702087,0,0,0,0,0,0,0,-1,1427,484,4.14645,-0.702089
210,540,4.50671,-0.56076,0,0,0,0,0,0,0,-1,1434,484,4.50667,0.560771
217,540,5.00452,-0.278717,0,0,0,0,0,0,0,-1,1441,484,5.00452,0.278709
224,540,6.44458,-2.83527,0,0,0,0,0,0,0,-1,1448,484,6.44457,2.83525
231,540,6.9231,-3.10504,0,0,0,0,0,0,0,-1,1455,484,6.92307,3.10505
238,540,6.4823,-2.58365,0,0,0,0,0,0,0,-1,1462,484,6.48225,2.58363
245,540,6.02087,-1.97916,0,0,0,0,0,0,0,-1,1469,484,6.02088,1.97915
252,540,6.50647,-3.56006,0,0,0,0,0,0,0,-1,1476,484,6.50649,3.56006
259,540,6.01941,-2.798,0,0,0,0,0,0,0,-1,1483,484,6.01941,2.79801
266,540,5.5332,-2.02853,0,0,0,0,0,0,0,-1,1490,484,5.53323,2.02855
273,540,5.06787,-1.28137,0,0,0,0,0,0,0,-1,1497,484,5.06786,1.28136
280,540,1.62903,-2.14609,0,0,0,0,0,0,0,-1,1504,484,1.62906,2.1461
287,540,1.97156,-2.45053,0,0,0,0,0,0,0,-1,1511,484,1.97159,2.45053
294,540,2.44165,-2.6185,0,0,0,0,0,0,0,-1,1518,484,2.44167,2.6185
301,540,4.36169,-2.54272,0,0,0,0,0,0,0,-1,1525,484,4.36165,2.54272
308,540,4.2019,-4.30469,0,0,0,0,0,0,0,-1,1532,484,4.20193,4.3047
315,540,4.45923,-5.32101,0,0,0,0,0,0,0,-1,1539,484,4.45923,5.32103
322,540,4.71655,-6.33737,0,0,0,0,0,0,0,-1,1546,484,4.71653,6.33736
329,540,5.8949,-12.9383,0,0,0,0,0,0,0,-1,1553,484,5.89492,12.9383
336,540,7.16467,-17.7826,0,0,0,0,0,0,0,-1,1560,484,7.16469,17.7826
343,540,11.9528,-32.8181,0,0,0,0,0,0,0,-1,1567,484,11.9528,32.8181
350,540,11.6986,-32.1118,0,0,0,0,0,0,0,-1,1574,484,11.6986,32.1118
357,540,11.785,-31.2403,0.00198531,-0.00871023,-0.00406673,0.00335594,-0.0100809,-0.325079,0.00807512,0.0413798,1581,484,11.785,31.2403
364,540,11.6783,-30.8811,0.00153518,-0.00718462,-0.00352108,0.00277945,-0.00842889,-0.339681,0.00673957,0.0237655,1588,484,11.6783,30.8811
371,540,11.6838,-30.3646,0.00121235,-0.00576652,-0.0029619,0.00229993,-0.00685409,-0.351904,0.00549877,0.0161045,1595,484,11.6838,30.3646
378,540,11.7102,-29.8073,0.000796426,-0.00410766,-0.00245233,0.0018123,-0.00512353,-0.392728,0.00415373,0.0137326,1602,484,11.7102,29.8073
385,540,11.7216,-29.2446,0.000577969,-0.00279191,-0.00174679,0.00132002,-0.00353396,-0.40171,0.00289799,0.0147621,1609,484,11.7216,29.2446
392,540,11.707,-28.6573,0.00044448,-0.00174698,-0.00119454,0.000969722,-0.00227222,-0.414257,0.00192143,0.0128555,1616,484,11.707,28.6573
399,540,11.6931,-28.1087,0.000437963,-0.000837138,-0.000685102,0.000736273,-0.00113545,-0.410667,0.0010888,0.0178376,1623,484,11.6931,28.1087
406,540,11.7003,-27.5296,0.000471979,6.5344e-05,-0.000184671,0.000543327,-6.00421e-06,-0.368687,0.000364236,0.0188147,1630,484,11.7003,27.5296
413,540,11.6628,-26.9213,0.000515625,0.00106703,0.000357765,0.001243,0.000339656,1.11368,0.000741835,0.0140469,1637,484,11.6628,26.9213
420,540,11.6608,-26.304,0.00049057,0.00175779,0.000785991,0.00213376,0.000114604,1.12463,0.00138588,0.0124301,1644,484,11.6608,26.3041
427,540,11.6154,-25.706,0.000442636,0.00224743,0.00119348,0.00284126,-0.000151197,1.1091,0.00194653,0.0134071,1651,484,11.6153,25.706
434,540,11.5566,-25.1196,0.000414372,0.00270437,0.00160914,0.0035343,-0.000415563,1.09462,0.00250623,0.0166007,1658,484,11.5567,25.1196
441,540,11.5328,-24.5153,0.000344468,0.00312075,0.0020421,0.00420184,-0.000736626,1.0839,0.00307631,0.0197326,1665,484,11.5328,24.5153
448,540,11.5121,-23.8947,0.000242494,0.00334598,0.00243221,0.00467929,-0.00109082,1.06934,0.00353961,0.0117364,1672,484,11.5121,23.8948
455,540,11.4957,-23.2541,8.96711e-05,0.00347015,0.00284586,0.00508987,-0.00153005,1.05337,0.00400198,0.0113577,1679,484,11.4957,23.2541
462,540,11.4442,-22.6231,-0.000100311,0.00355756,0.00326006,0.00546667,-0.00200942,1.04103,0.00446752,0.0119976,1686,484,11.4442,22.6232
469,540,11.3898,-21.9788,-0.000344227,0.00362139,0.00373238,0.00586495,-0.00258779,1.02956,0.00500096,0.0150131,1693,484,11.3898,21.9788
476,540,11.3701,-21.3254,-0.000636907,0.00371765,0.0044876,0.00652827,-0.00344753,1.01126,0.00585036,0.0208202,1700,484,11.3702,21.3254
483,540,11.4417,-20.6281,-0.00100796,0.00373473,0.00518557,0.00706545,-0.00433867,0.999851,0.00664661,0.0355955,1707,484,11.4416,20.6281
490,540,11.652,-19.8766,0,0,0,0,0,0,0,-1,1714,484,11.652,19.8766
497,540,10.3452,-16.9359,0,0,0,0,0,0,0,-1,1721,484,10.3453,16.9359
504,540,11.5691,-17.3131,0,0,0,0,0,0,0,-1,1728,484,11.5691,17.3131
511,540,5.82471,-6.83521,0,0,0,0,0,0,0,-1,1735,484,5.82465,6.83522
518,540,9.98181,-12.4608,0,0,0,0,0,0,0,-1,1742,484,9.98187,12.4608
525,540,12.4843,-16.3481,0,0,0,0,0,0,0,-1,1749,484,12.4842,16.3481
532,540,2.84265,-1.07925,0,0,0,0,0,0,0,-1,1756,484,2.84269,1.07927
539,540,0,0,0,0,0,0,0,0,0,-1,1763,484,0,0
546,540,0,0,0,0,0,0,0,0,0,-1,1770,484,0,0
553,540,0,0,0,0,0,0,0,0,0,-1,1777,484,0,0
560,540,0,0,0,0,0,0,0,0,0,-1,1784,484,0,0
567,540,0,0,0,0,0,0,0,0,0,-1,1791,484,0,0
574,540,0,0,0,0,0,0,0,0,0,-1,1798,484,0,0
581,540,0,0,0,0,0,0,0,0,0,-1,1805,484,0,0
588,540,0,0,0,0,0,0,0,0,0,-1,1812,484,0,0
595,540,0,0,0,0,0,0,0,0,0,-1,1819,484,0,0
602,540,0,0,0,0,0,0,0,0,0,-1,1826,484,0,0
609,540,0,0,0,0,0,0,0,0,0,-1,1833,484,0,0
616,540,0,0,0,0,0,0,0,0,0,-1,1840,484,0,0
623,540,0,0,0,0,0,0,0,0,0,-1,1847,484,0,0
630,540,0,0,0,0,0,0,0,0,0,-1,1854,484,0,0
637,540,0,0,0,0,0,0,0,0,0,-1,1861,484,0,0
644,540,0,0,0,0,0,0,0,0,0,-1,1868,484,0,0
651,540,0,0,0,0,0,0,0,0,0,-1,1875,484,0,0
658,540,0,0,0,0,0,0,0,0,0,-1,1882,484,0,0
665,540,0,0,0,0,0,0,0,0,0,-1,1889,484,0,0
672,540,0,0,0,0,0,0,0,0,0,-1,1896,484,0,0
679,540,0,0,0,0,0,0,0,0,0,-1,1903,484,0,0
686,540,0,0,0,0,0,0,0,0,0,-1,1910,484,0,0
693,540,0,0,0,0,0,0,0,0,0,-1,1917,484,0,0
700,540,0,0,0,0,0,0,0,0,0,-1,1924,484,0,0
707,540,0,0,0,0,0,0,0,0,0,-1,1931,484,0,0
714,540,0,0,0,0,0,0,0,0,0,-1,1938,484,0,0
721,540,0,0,0,0,0,0,0,0,0,-1,1945,484,0,0
728,540,0,0,0,0,0,0,0,0,0,-1,1952,484,0,0
735,540,0,0,0,0,0,0,0,0,0,-1,1959,484,0,0
742,540,0,0,0,0,0,0,0,0,0,-1,1966,484,0,0
749,540,0,0,0,0,0,0,0,0,0,-1,1973,484,0,0
756,540,0,0,0,0,0,0,0,0,0,-1,1980,484,0,0
763,540,0,0,0,0,0,0,0,0,0,-1,1987,484,0,0
770,540,0,0,0,0,0,0,0,0,0,-1,1994,484,0,0
777,540,0,0,0,0,0,0,0,0,0,-1,2001,484,0,0
784,540,0,0,0,0,0,0,0,0,0,-1,2008,484,0,0
791,540,0,0,0,0,0,0,0,0,0,-1,2015,484,0,0
798,540,0,0,0,0,0,0,0,0,0,-1,2022,484,0,0
805,540,0,0,0,0,0,0,0,0,0,-1,2029,484,0,0
812,540,0,0,0,0,0,0,0,0,0,-1,2036,484,0,0
-700,533,0,0,0,0,0,0,0,0,0,-1,524,491,0,0
-693,533,0,0,0,0,0,0,0,0,0,-1,531,491,0,0
-686,533,0,0,0,0,0,0,0,0,0,-1,538,491,0,0
-679,533,0,0,0,0,0,0,0,0,0,-1,545,491,0,0
-672,533,0,0,0,0,0,0,0,0,0,-1,552,491,0,0
-665,533,0,0,0,0,0,0,0,0,0,-1,559,491,0,0
-658,533,0,0,0,0,0,0,0,0,0,-1,566,491,0,0
-651,533,0,0,0,0,0,0,0,0,0,-1,573,491,0,0
-644,533,0,0,0,0,0,0,0,0,0,-1,580,491,0,0
-637,533,0,0,0,0,0,0,0,0,0,-1,587,491,0,0
-630,533,0,0,0,0,0,0,0,0,0,-1,594,491,0,0
-623,533,0,0,0,0,0,0,0,0,0,-1,601,491,0,0
-616,533,0,0,0,0,0,0,0,0,0,-1,608,491,0,0
-609,533,0,0,0,0,0,0,0,0,0,-1,615,491,0,0
-602,533,0,0,0,0,0,0,0,0,0,-1,622,491,0,0
-595,533,0,0,0,0,0,0,0,0,0,-1,629,491,0,0
-588,533,0,0,0,0,0,0,0,0,0,-1,636,491,0,0
-581,533,0,0,0,0,0,0,0,0,0,-1,643,491,0,0
-574,533,0,0,0,0,0,0,0,0,0,-1,650,491,0,0
-567,533,0,0,0,0,0,0,0,0,0,-1,657,491,0,0
-560,533,0,0,0,0,0,0,0,0,0,-1,664,491,0,0
-553,533,0,0,0,0,0,0,0,0,0,-1,671,491,0,0
-546,533,0,0,0,0,0,0,0,0,0,-1,678,491,0,0
-539,533,0,0,0,0,0,0,0,0,0,-1,685,491,0,0
-532,533,0,0,0,0,0,0,0,0,0,-1,692,491,0,0
-525,533,0,0,0,0,0,0,0,0,0,-1,699,491,0,0
-518,533,0,0,0,0,0,0,0,0,0,-1,706,491,0,0
-511,533,0,0,0,0,0,0,0,0,0,-1,713,491,0,0
-504,533,0,0,0,0,0,0,0,0,0,-1,720,491,0,0
-497,533,0,0,0,0,0,0,0,0,0,-1,727,491,0,0
-490,533,0,0,0,0,0,0,0,0,0,-1,734,491,0,0
-483,533,0,0,0,0,0,0,0,0,0,-1,741,491,0,0
-476,533,0,0,0,0,0,0,0,0,0,-1,748,491,0,0
-469,533,0,0,0,0,0,0,0,0,0,-1,755,491,0,0
-462,533,0,0,0,0,0,0,0,0,0,-1,762,491,0,0
-455,533,0,0,0,0,0,0,0,0,0,-1,769,491,0,0
-448,533,0,0,0,0,0,0,0,0,0,-1,776,491,0,0
-441,533,0,0,0,0,0,0,0,0,0,-1,783,491,0,0
-434,533,0,0,0,0,0,0,0,0,0,-1,790,491,0,0
-427,533,0.559814,-4.40222,0,0,0,0,0,0,0,-1,797,491,0.559816,4.40222
-420,533,-1.11127,-10.9054,0,0,0,0,0,0,0,-1,804,491,-1.11124,10.9054
-413,533,-0.704773,-11.0942,0,0,0,0,0,0,0,-1,811,491,-0.704742,11.0942
-406,533,-0.670898,-12.0899,0,0,0,0,0,0,0,-1,818,491,-0.670908,12.0899
-399,533,-0.455017,-12.4423,0,0,0,0,0,0,0,-1,825,491,-0.455032,12.4423
-392,533,-1.89661,-10.3905,0,0,0,0,0,0,0,-1,832,491,-1.89661,10.3905
-385,533,0.797729,-17.0485,0,0,0,0,0,0,0,-1,839,491,0.797746,17.0485
-378,533,-0.444641,-19.3749,0,0,0,0,0,0,0,-1,846,491,-0.444665,19.375
-371,533,-0.74176,-20.4415,0,0,0,0,0,0,0,-1,853,491,-0.741755,20.4415
-364,533,-0.534607,-21.02,0.0038437,0.0204945,-0.012041,0.026808,-0.00246982,-1.08787,0.0187496,0.0424137,860,491,-0.534593,21.02
-357,533,-0.368835,-21.6599,0.00331112,0.0171598,-0.00989141,0.0223096,-0.00183875,-1.09077,0.0155224,0.0274902,867,491,-0.368833,21.6599
-350,533,-0.376465,-22.3934,0.00260674,0.0142001,-0.00796549,0.0182549,-0.00144799,-1.09994,0.0126802,0.0157845,874,491,-0.376476,22.3933
-343,533,-0.421997,-23.0637,0.00208341,0.0114466,-0.00642187,0.0147122,-0.00118217,-1.10036,0.010225,0.0134966,881,491,-0.422023,23.0636
-336,533,-0.477722,-23.7023,0.00173126,0.00911938,-0.00505759,0.0116883,-0.000837691,-1.10082,0.00808593,0.017034,888,491,-0.477738,23.7023
-329,533,-0.509155,-24.3016,0.00144433,0.00696166,-0.00388059,0.00896421,-0.000558226,-1.0944,0.00617064,0.0146422,895,491,-0.509153,24.3016
-322,533,-0.552002,-24.899,0.00116763,0.0049965,-0.00276022,0.00644121,-0.000277081,-1.0886,0.00438942,0.0123923,902,491,-0.551989,24.899
-315,533,-0.578918,-25.5052,0.00099646,0.00339829,-0.00179325,0.0043556,3.91472e-05,-1.08044,0.00289078,0.0140312,909,491,-0.578911,25.5052
-308,533,-0.596436,-26.0931,0.000839915,0.00210942,-0.00101872,0.00267495,0.000274379,-1.06401,0.00169924,0.0130855,916,491,-0.596453,26.0931
-301,533,-0.6427,-26.639,0.000789623,0.000828703,-0.000383383,0.00119304,0.000425283,-0.81086,0.0006982,0.0134788,923,491,-0.642713,26.639
-294,533,-0.634277,-27.2073,0.00087881,-9.5672e-05,0.000238563,0.000934078,-0.00015094,0.227655,0.000678651,0.0124856,930,491,-0.634282,27.2073
-287,533,-0.621521,-27.8123,0.001079,-0.000892137,0.000785856,0.00135395,-0.00116709,0.336566,0.00145686,0.0100902,937,491,-0.621527,27.8123
-280,533,-0.641174,-28.4057,0.00131793,-0.00204006,0.00131258,0.0017701,-0.00249224,0.331761,0.00247261,0.00927973,944,491,-0.641154,28.4057
-273,533,-0.661072,-28.9575,0.00160461,-0.00306685,0.00193613,0.00230273,-0.00376497,0.346064,0.00353693,0.0126173,951,491,-0.661101,28.9575
-266,533,-0.662659,-29.5107,0.00224106,-0.00447808,0.00272302,0.00320602,-0.00544304,0.340563,0.00504891,0.0127183,958,491,-0.66266,29.5107
-259,533,-0.653564,-30.0568,0.003278,-0.00662916,0.00338892,0.00432631,-0.00767748,0.3,0.00701984,0.0133629,965,491,-0.653542,30.0568
-252,533,-0.655334,-30.596,0.00429927,-0.00969438,0.00458485,0.00566764,-0.0110627,0.290037,0.00982527,0.0186753,972,491,-0.65533,30.596
-245,533,-0.73175,-31.1114,0.00521058,-0.0139181,0.00593352,0.00690161,-0.0156091,0.277635,0.0133167,0.0331085,979,491,-0.731753,31.1114
-238,533,-0.578186,-31.5674,0.00634845,-0.0182798,0.00713014,0.00826375,-0.0201951,0.262425,0.0169052,0.0372154,986,491,-0.578175,31.5674
-231,533,-0.485352,-31.7905,0.00762491,-0.0238276,0.00866812,0.00985558,-0.0260583,0.251877,0.0214267,0.0460251,993,491,-0.485356,31.7905
-224,533,-0.644348,-32.2874,0,0,0,0,0,0,0,-1,1000,491,-0.644322,32.2874
-217,533,-0.661926,-32.5574,0,0,0,0,0,0,0,-1,1007,491,-0.661921,32.5574
-210,533,-0.141968,-32.933,0,0,0,0,0,0,0,-1,1014,491,-0.141975,32.933
-203,533,-0.196899,-32.9078,0,0,0,0,0,0,0,-1,1021,491,-0.196927,32.9078
-196,533,0.688354,-19.5743,0,0,0,0,0,0,0,-1,1028,491,0.688406,19.5743
-189,533,-0.169189,-15.0303,0,0,0,0,0,0,0,-1,1035,491,-0.169241,15.0303
-182,533,1.26123,-11.4969,0,0,0,0,0,0,0,-1,1042,491,1.26128,11.4969
-175,533,0.937744,-7.36966,0,0,0,0,0,0,0,-1,1049,491,0.937769,7.36965
-168,533,2.64807,-2.7543,0,0,0,0,0,0,0,-1,1056,491,2.64812,2.7543
-161,533,1.91833,-1.76553,0,0,0,0,0,0,0,-1,1063,491,1.91836,1.76554
-154,533,0.376709,-11.0633,0,0,0,0,0,0,0,-1,1070,491,0.376715,11.0632
-147,533,0.383789,-12.1586,0,0,0,0,0,0,0,-1,1077,491,0.383829,12.1586
-140,533,1.14001,-15.4608,0,0,0,0,0,0,0,-1,1084,491,1.14005,15.4608
-133,533,0.189941,-16.0795,0,0,0,0,0,0,0,-1,1091,491,0.18994,16.0795
-126,533,2.89612,-2.59003,0,0,0,0,0,0,0,-1,1098,491,2.89608,2.59003
-119,533,1.78284,-22.5394,0,0,0,0,0,0,0,-1,1105,491,1.78279,22.5394
-112,533,1.83862,-21.2401,0,0,0,0,0,0,0,-1,1112,491,1.83859,21.24
-105,533,1.67554,-19.4018,0,0,0,0,0,0,0,-1,1119,491,1.6755,19.4018
-98,533,-1.39392,-5.16367,0,0,0,0,0,0,0,-1,1126,491,-1.39394,5.16367
-91,533,0.367432,4.49753,0,0,0,0,0,0,0,-1,1133,491,0.367468,-4.49754
-84,533,-0.88623,3.03604,0,0,0,0,0,0,0,-1,1140,491,-0.886288,-3.03605
-77,533,0,0,0,0,0,0,0,0,0,-1,1147,491,0,0
-70,533,0,0,0,0,0,0,0,0,0,-1,1154,491,0,0
-63,533,0,0,0,0,0,0,0,0,0,-1,1161,491,0,0
-56,533,0,0,0,0,0,0,0,0,0,-1,1168,491,0,0
-49,533,0,0,0,0,0,0,0,0,0,-1,1175,491,0,0
-42,533,0,0,0,0,0,0,0,0,0,-1,1182,491,0,0
-35,533,0,0,0,0,0,0,0,0,0,-1,1189,491,0,0
-28,533,0,0,0,0,0,0,0,0,0,-1,1196,491,0,0
-21,533,0,0,0,0,0,0,0,0,0,-1,1203,491,0,0
-14,533,0,0,0,0,0,0,0,0,0,-1,1210,491,0,0
-7,533,0,0,0,0,0,0,0,0,0,-1,1217,491,0,0
0,533,0,0,0,0,0,0,0,0,0,-1,1224,491,0,0
7,533,0,0,0,0,0,0,0,0,0,-1,1231,491,0,0
14,533,0,0,0,0,0,0,0,0,0,-1,1238,491,0,0
21,533,0,0,0,0,0,0,0,0,0,-1,1245,491,0,0
28,533,0,0,0,0,0,0,0,0,0,-1,1252,491,0,0
35,533,0,0,0,0,0,0,0,0,0,-1,1259,491,0,0
42,533,0,0,0,0,0,0,0,0,0,-1,1266,491,0,0
49,533,0,0,0,0,0,0,0,0,0,-1,1273,491,0,0
56,533,0,0,0,0,0,0,0,0,0,-1,1280,491,0,0
63,533,0,0,0,0,0,0,0,0,0,-1,1287,491,0,0
70,533,0,0,0,0,0,0,0,0,0,-1,1294,491,0,0
77,533,0,0,0,0,0,0,0,0,0,-1,1301,491,0,0
84,533,0,0,0,0,0,0,0,0,0,-1,1308,491,0,0
91,533,0,0,0,0,0,0,0,0,0,-1,1315,491,0,0
98,533,0,0,0,0,0,0,0,0,0,-1,1322,491,0,0
105,533,0,0,0,0,0,0,0,0,0,-1,1329,491,0,0
112,533,0,0,0,0,0,0,0,0,0,-1,1336,491,0,0
119,533,0,0,0,0,0,0,0,0,0,-1,1343,491,0,0
126,533,0,0,0,0,0,0,0,0,0,-1,1350,491,0,0
133,533,0,0,0,0,0,0,0,0,0,-1,1357,491,0,0
140,533,0,0,0,0,0,0,0,0,0,-1,1364,491,0,0
147,533,0,0,0,0,0,0,0,0,0,-1,1371,491,0,0
154,533,0,0,0,0,0,0,0,0,0,-1,1378,491,0,0
161,533,0,0,0,0,0,0,0,0,0,-1,1385,491,0,0
168,533,0,0,0,0,0,0,0,0,0,-1,1392,491,0,0
175,533,0,0,0,0,0,0,0,0,0,-1,1399,491,0,0
182,533,0,0,0,0,0,0,0,0,0,-1,1406,491,0,0
189,533,0,0,0,0,0,0,0,0,0,-1,1413,491,0,0
196,533,0,0,0,0,0,0,0,0,0,-1,1420,491,0,0
203,533,3.7887,1.16193,0,0,0,0,0,0,0,-1,1427,491,3.78872,-1.16193
210,533,5.09558,-0.216034,0,0,0,0,0,0,0,-1,1434,491,5.09559,0.216028
217,533,6.91614,-2.46814,0,0,0,0,0,0,0,-1,1441,491,6.91618,2.46814
224,533,7.23621,-2.1857,0,0,0,0,0,0,0,-1,1448,491,7.23621,2.1857
231,533,7.23474,-1.92282,0,0,0,0,0,0,0,-1,1455,491,7.2347,1.92282
238,533,7.23535,-1.67258,0,0,0,0,0,0,0,-1,1462,491,7.23539,1.67258
245,533,6.86682,-1.2301,0,0,0,0,0,0,0,-1,1469,491,6.86686,1.23011
252,533,6.63354,-3.07825,0,0,0,0,0,0,0,-1,1476,491,6.6335,3.07824
259,533,6.16431,-2.35037,0,0,0,0,0,0,0,-1,1483,491,6.1643,2.35037
266,533,5.68884,-1.6214,0,0,0,0,0,0,0,-1,1490,491,5.68885,1.6214
273,533,5.21399,-0.864227,0,0,0,0,0,0,0,-1,1497,491,5.21403,0.864227
280,533,1.41089,-1.97946,0,0,0,0,0,0,0,-1,1504,491,1.41087,1.97946
287,533,1.6814,-2.44443,0,0,0,0,0,0,0,-1,1511,491,1.6814,2.44444
294,533,2.2384,-2.57626,0,0,0,0,0,0,0,-1,1518,491,2.23839,2.57625
301,533,3.39941,-4.0817,0,0,0,0,0,0,0,-1,1525,491,3.3994,4.08171
308,533,4.13733,-4.14752,0,0,0,0,0,0,0,-1,1532,491,4.13727,4.14752
315,533,4.80762,-5.29349,0,0,0,0,0,0,0,-1,1539,491,4.80762,5.29347
322,533,5.47803,-6.43942,0,0,0,0,0,0,0,-1,1546,491,5.47798,6.43943
329,533,3.88477,-3.86301,0,0,0,0,0,0,0,-1,1553,491,3.88475,3.86299
336,533,6.70923,-13.2003,0,0,0,0,0,0,0,-1,1560,491,6.70926,13.2004
343,533,7.06677,-17.1133,0,0,0,0,0,0,0,-1,1567,491,7.06673,17.1133
350,533,10.0876,-23.7254,0,0,0,0,0,0,0,-1,1574,491,10.0877,23.7254
357,533,12.3289,-30.9623,0,0,0,0,0,0,0,-1,1581,491,12.3288,30.9623
364,533,12.1422,-30.8438,0,0,0,0,0,0,0,-1,1588,491,12.1422,30.8438
371,533,12.1979,-30.3255,0,0,0,0,0,0,0,-1,1595,491,12.1978,30.3255
378,533,12.2015,-29.7433,0.000679541,-0.00509258,-0.00329887,0.00217662,-0.00658965,-0.426022,0.00527065,0.034011,1602,491,12.2015,29.7433
385,533,12.3049,-29.1916,0.000519078,-0.00368213,-0.00246969,0.00166068,-0.00482374,-0.432991,0.00388942,0.0228106,1609,491,12.3049,29.1916
392,533,12.2931,-28.6418,0.000368576,-0.00267098,-0.00191674,0.00129494,-0.00359735,-0.4502,0.00292697,0.0137093,1616,491,12.2931,28.6418
399,533,12.2765,-28.0933,0.000330085,-0.00173763,-0.00144396,0.00107214,-0.00247969,-0.474711,0.00210364,0.0133141,1623,491,12.2765,28.0933
406,533,12.267,-27.5099,0.000394517,-0.00087278,-0.000960629,0.000911659,-0.00138992,-0.493845,0.00133835,0.0161072,1630,491,12.2669,27.5099
413,533,12.2411,-26.8925,0.000499875,0.000110775,-0.000385794,0.000737398,-0.000126748,-0.551863,0.00053884,0.0138693,1637,491,12.2411,26.8925
420,533,12.2119,-26.287,0.000515749,0.000785926,6.21762e-05,0.000799548,0.000502127,1.35512,0.000466635,0.0125683,1644,491,12.212,26.2871
427,533,12.1863,-25.6815,0.000500987,0.00133453,0.000484903,0.00155715,0.000278361,1.14039,0.000958879,0.0136503,1651,491,12.1863,25.6815
434,533,12.1439,-25.1025,0.000480153,0.00181082,0.000906617,0.00227004,2.09312e-05,1.10194,0.00150643,0.0134346,1658,491,12.1439,25.1025
441,533,12.1199,-24.4715,0.000457278,0.00225491,0.00135866,0.00298515,-0.000272961,1.07762,0.00208705,0.0151125,1665,491,12.1199,24.4715
448,533,12.1083,-23.8753,0.000435608,0.00253002,0.00178094,0.00354882,-0.000583193,1.05118,0.00258232,0.0168007,1672,491,12.1083,23.8753
455,533,12.0823,-23.2538,0.000375353,0.00277808,0.00223583,0.00411487,-0.000961437,1.03193,0.00311361,0.0168829,1679,491,12.0823,23.2538
462,533,12.0505,-22.5922,0.00026668,0.0029261,0.00265984,0.00457009,-0.00137731,1.01719,0.00359488,0.0153823,1686,491,12.0505,22.5922
469,533,12.0317,-21.9757,9.79782e-05,0.00305656,0.00314539,0.00505316,-0.00189862,1.0052,0.00414907,0.0101265,1693,491,12.0317,21.9757
476,533,12.0283,-21.3057,-0.000123913,0.00324752,0.00390007,0.00581059,-0.00268698,0.989387,0.00501534,0.0120048,1700,491,12.0284,21.3057
483,533,12.0521,-20.6224,-0.000405736,0.00337707,0.00457558,0.00643676,-0.00346542,0.981387,0.00580219,0.0203799,1707,491,12.0521,20.6224
490,533,12.1394,-19.8245,0,0,0,0,0,0,0,-1,1714,491,12.1394,19.8245
497,533,12.0782,-19.2276,0,0,0,0,0,0,0,-1,1721,491,12.0782,19.2276
504,533,12.2491,-18.4802,0,0,0,0,0,0,0,-1,1728,491,12.2492,18.4802
511,533,12.3409,-17.359,0,0,0,0,0,0,0,-1,1735,491,12.3409,17.359
518,533,11.5782,-17.1034,0,0,0,0,0,0,0,-1,1742,491,11.5782,17.1034
525,533,12.4893,-15.9968,0,0,0,0,0,0,0,-1,1749,491,12.4892,15.9968
532,533,12.3422,-15.2025,0,0,0,0,0,0,0,-1,1756,491,12.3421,15.2025
539,533,3.61609,1.62427,0,0,0,0,0,0,0,-1,1763,491,3.61606,-1.62426
546,533,3.59607,1.65799,0,0,0,0,0,0,0,-1,1770,491,3.59605,-1.658
553,533,0,0,0,0,0,0,0,0,0,-1,1777,491,0,0
560,533,0,0,0,0,0,0,0,0,0,-1,1784,491,0,0
567,533,0,0,0,0,0,0,0,0,0,-1,1791,491,0,0
574,533,0,0,0,0,0,0,0,0,0,-1,1798,491,0,0
581,533,0,0,0,0,0,0,0,0,0,-1,1805,491,0,0
588,533,0,0,0,0,0,0,0,0,0,-1,1812,491,0,0
595,533,0,0,0,0,0,0,0,0,0,-1,1819,491,0,0
602,533,0,0,0,0,0,0,0,0,0,-1,1826,491,0,0
609,533,0,0,0,0,0,0,0,0,0,-1,1833,491,0,0
616,533,0,0,0,0,0,0,0,0,0,-1,1840,491,0,0
623,533,0,0,0,0,0,0,0,0,0,-1,1847,491,0,0
630,533,0,0,0,0,0,0,0,0,0,-1,1854,491,0,0
637,533,0,0,0,0,0,0,0,0,0,-1,1861,491,0,0
644,533,0,0,0,0,0,0,0,0,0,-1,1868,491,0,0
651,533,0,0,0,0,0,0,0,0,0,-1,1875,491,0,0
658,533,0,0,0,0,0,0,0,0,0,-1,1882,491,0,0
665,533,0,0,0,0,0,0,0,0,0,-1,1889,491,0,0
672,533,0,0,0,0,0,0,0,0,0,-1,1896,491,0,0
679,533,0,0,0,0,0,0,0,0,0,-1,1903,491,0,0
686,533,0,0,0,0,0,0,0,0,0,-1,1910,491,0,0
693,533,0,0,0,0,0,0,0,0,0,-1,1917,491,0,0
700,533,0,0,0,0,0,0,0,0,0,-1,1924,491,0,0
707,533,0,0,0,0,0,0,0,0,0,-1,1931,491,0,0
714,533,0,0,0,0,0,0,0,0,0,-1,1938,491,0,0
721,533,0,0,0,0,0,0,0,0,0,-1,1945,491,0,0
728,533,0,0,0,0,0,0,0,0,0,-1,1952,491,0,0
735,533,0,0,0,0,0,0,0,0,0,-1,1959,491,0,0
742,533,0,0,0,0,0,0,0,0,0,-1,1966,491,0,0
749,533,0,0,0,0,0,0,0,0,0,-1,1973,491,0,0
756,533,0,0,0,0,0,0,0,0,0,-1,1980,491,0,0
763,533,0,0,0,0,0,0,0,0,0,-1,1987,491,0,0
770,533,0,0,0,0,0,0,0,0,0,-1,1994,491,0,0
777,533,0,0,0,0,0,0,0,0,0,-1,2001,491,0,0
784,533,0,0,0,0,0,0,0,0,0,-1,2008,491,0,0
791,533,0,0,0,0,0,0,0,0,0,-1,2015,491,0,0
798,533,0,0,0,0,0,0,0,0,0,-1,2022,491,0,0
805,533,0,0,0,0,0,0,0,0,0,-1,2029,491,0,0
812,533,0,0,0,0,0,0,0,0,0,-1,2036,491,0,0
-700,526,0,0,0,0,0,0,0,0,0,-1,524,498,0,0
-693,526,0,0,0,0,0,0,0,0,0,-1,531,498,0,0
-686,526,0,0,0,0,0,0,0,0,0,-1,538,498,0,0
-679,526,0,0,0,0,0,0,0,0,0,-1,545,498,0,0
-672,526,0,0,0,0,0,0,0,0,0,-1,552,498,0,0
-665,526,0,0,0,0,0,0,0,0,0,-1,559,498,0,0
-658,526,0,0,0,0,0,0,0,0,0,-1,566,498,0,0
-651,526,0,0,0,0,0,0,0,0,0,-1,573,498,0,0
-644,526,0,0,0,0,0,0,0,0,0,-1,580,498,0,0
-637,526,0,0,0,0,0,0,0,0,0,-1,587,498,0,0
-630,526,0,0,0,0,0,0,0,0,0,-1,594,498,0,0
-623,526,0,0,0,0,0,0,0,0,0,-1,601,498,0,0
-616,526,0,0,0,0,0,0,0,0,0,-1,608,498,0,0
-609,526,0,0,0,0,0,0,0,0,0,-1,615,498,0,0
-602,526,0,0,0,0,0,0,0,0,0,-1,622,498,0,0
-595,526,0,0,0,0,0,0,0,0,0,-1,629,498,0,0
-588,526,0,0,0,0,0,0,0,0,0,-1,636,498,0,0
-581,526,0,0,0,0,0,0,0,0,0,-1,643,498,0,0
-574,526,0,0,0,0,0,0,0,0,0,-1,650,498,0,0
-567,526,0,0,0,0,0,0,0,0,0,-1,657,498,0,0
-560,526,0,0,0,0,0,0,0,0,0,-1,664,498,0,0
-553,526,0,0,0,0,0,0,0,0,0,-1,671,498,0,0
-546,526,0,0,0,0,0,0,0,0,0,-1,678,498,0,0
-539,526,0,0,0,0,0,0,0,0,0,-1,685,498,0,0
-532,526,0,0,0,0,0,0,0,0,0,-1,692,498,0,0
-525,526,0,0,0,0,0,0,0,0,0,-1,699,498,0,0
-518,526,0,0,0,0,0,0,0,0,0,-1,706,498,0,0
-511,526,0,0,0,0,0,0,0,0,0,-1,713,498,0,0
-504,526,0,0,0,0,0,0,0,0,0,-1,720,498,0,0
-497,526,0,0,0,0,0,0,0,0,0,-1,727,498,0,0
-490,526,0,0,0,0,0,0,0,0,0,-1,734,498,0,0
-483,526,0,0,0,0,0,0,0,0,0,-1,741,498,0,0
-476,526,0,0,0,0,0,0,0,0,0,-1,748,498,0,0
-469,526,0,0,0,0,0,0,0,0,0,-1,755,498,0,0
-462,526,0,0,0,0,0,0,0,0,0,-1,762,498,0,0
-455,526,0,0,0,0,0,0,0,0,0,-1,769,498,0,0
-448,526,0,0,0,0,0,0,0,0,0,-1,776,498,0,0
-441,526,0,0,0,0,0,0,0,0,0,-1,783,498,0,0
-434,526,-0.153564,-5.96649,0,0,0,0,0,0,0,-1,790,498,-0.153589,5.9665
-427,526,1.23206,-4.59808,0,0,0,0,0,0,0,-1,797,498,1.23208,4.59809
-420,526,-1.76373,-11.6241,0,0,0,0,0,0,0,-1,804,498,-1.76373,11.6241
-413,526,-1.38965,-11.7916,0,0,0,0,0,0,0,-1,811,498,-1.38963,11.7916
-406,526,-1.35187,-12.5182,0,0,0,0,0,0,0,-1,818,498,-1.35185,12.5181
-399,526,-1.32715,-13.2116,0,0,0,0,0,0,0,-1,825,498,-1.32713,13.2116
-392,526,0.197571,-15.303,0,0,0,0,0,0,0,-1,832,498,0.197598,15.303
-385,526,-1.00983,-18.4139,0,0,0,0,0,0,0,-1,839,498,-1.0098,18.4139
-378,526,-0.999207,-19.3058,0.00386437,0.0216368,-0.0135761,0.0289763,-0.00347514,-1.07518,0.020574,0.04877,846,498,-0.999207,19.3058
-371,526,-1.02661,-20.1874,0.003288,0.0190847,-0.011381,0.0250396,-0.00266682,-1.08874,0.0176493,0.0380512,853,498,-1.0266,20.1874
-364,526,-1.02563,-21.0176,0.00292663,0.0162113,-0.0097778,0.0213896,-0.00225161,-1.08376,0.0150664,0.0205495,860,498,-1.02563,21.0176
-357,526,-0.94519,-21.7392,0.00245323,0.013523,-0.00811906,0.0178143,-0.00183807,-1.08457,0.0125339,0.0138949,867,498,-0.94517,21.7392
-350,526,-0.973572,-22.3781,0.00196547,0.0110352,-0.00654451,0.0144625,-0.0014618,-1.08838,0.010164,0.0127878,874,498,-0.973586,22.3781
-343,526,-1.03021,-23.0166,0.00161541,0.008669,-0.00517979,0.0114087,-0.00112425,-1.08429,0.00800688,0.0166561,881,498,-1.03024,23.0166
-336,526,-1.05609,-23.6367,0.00133083,0.00664066,-0.00396441,0.00875702,-0.000785535,-1.08044,0.0061167,0.0166391,888,498,-1.05609,23.6367
-329,526,-1.07196,-24.2556,0.00110617,0.00474358,-0.00288535,0.00633558,-0.000485837,-1.06661,0.00439463,0.0169673,895,498,-1.07197,24.2556
-322,526,-1.10559,-24.8542,0.00090841,0.00300002,-0.00183645,0.00406756,-0.000159136,-1.04423,0.00276628,0.0109188,902,498,-1.10559,24.8542
-315,526,-1.13861,-25.4678,0.000812073,0.00156479,-0.000895628,0.00215992,0.000216939,-0.984304,0.00137336,0.0096191,909,498,-1.13862,25.4678
-308,526,-1.16479,-26.0808,0.00075815,0.000404442,-0.000116482,0.000793063,0.000369529,-0.29121,0.000458229,0.00896922,916,498,-1.16479,26.0808
-301,526,-1.20441,-26.6255,0.00076987,-0.000651908,0.00054526,0.000954901,-0.000836938,0.32715,0.00103527,0.00987466,923,498,-1.20442,26.6256
-294,526,-1.20911,-27.1949,0.000903638,-0.00141102,0.00119913,0.00141284,-0.00192023,0.401568,0.00193177,0.0101888,930,498,-1.20908,27.1949
-287,526,-1.21289,-27.7838,0.00116171,-0.00212579,0.00179111,0.00194901,-0.00291308,0.414136,0.00282546,0.0107937,937,498,-1.21289,27.7837
-280,526,-1.24023,-28.3473,0.00144326,-0.00333059,0.00240281,0.00244321,-0.00433054,0.394358,0.0039611,0.0133821,944,498,-1.24024,28.3473
-273,526,-1.25336,-28.913,0.00181418,-0.00437629,0.00307552,0.00308235,-0.00564446,0.391101,0.00511029,0.0112623,951,498,-1.25333,28.913
-266,526,-1.25165,-29.4613,0.00264279,-0.00584981,0.00396778,0.00420806,-0.00741508,0.375752,0.00679523,0.0133567,958,498,-1.25166,29.4613
-259,526,-1.19165,-30.0012,0.00403535,-0.00832244,0.00459046,0.00555392,-0.00984102,0.319479,0.00900242,0.0335244,965,498,-1.19162,30.0012
-252,526,-1.0871,-30.6028,0,0,0,0,0,0,0,-1,972,498,-1.08708,30.6028
-245,526,-1.23901,-31.2083,0,0,0,0,0,0,0,-1,979,498,-1.239,31.2083
-238,526,-1.05829,-31.6244,0,0,0,0,0,0,0,-1,986,498,-1.05828,31.6244
-231,526,-0.741211,-31.5045,0,0,0,0,0,0,0,-1,993,498,-0.741241,31.5045
-224,526,-1.01776,-32.5946,0,0,0,0,0,0,0,-1,1000,498,-1.01777,32.5946
-217,526,-0.919861,-32.4196,0,0,0,0,0,0,0,-1,1007,498,-0.919841,32.4196
-210,526,-1.38812,-33.3338,0,0,0,0,0,0,0,-1,1014,498,-1.38815,33.3338
-203,526,-0.659302,-18.8818,0,0,0,0,0,0,0,-1,1021,498,-0.659273,18.8818
-196,526,-0.328247,-12.179,0,0,0,0,0,0,0,-1,1028,498,-0.328238,12.179
-189,526,0.401245,-5.96826,0,0,0,0,0,0,0,-1,1035,498,0.401197,5.96826
-182,526,1.7323,-2.99405,0,0,0,0,0,0,0,-1,1042,498,1.73226,2.99404
-175,526,2.27637,-2.07983,0,0,0,0,0,0,0,-1,1049,498,2.27639,2.07984
-168,526,2.12036,-1.66049,0,0,0,0,0,0,0,-1,1056,498,2.12035,1.66048
-161,526,2.09082,-1.20572,0,0,0,0,0,0,0,-1,1063,498,2.09086,1.2057
-154,526,-1.3446,-5.37799,0,0,0,0,0,0,0,-1,1070,498,-1.34457,5.37799
-147,526,-0.472656,-6.64996,0,0,0,0,0,0,0,-1,1077,498,-0.472659,6.64997
-140,526,0.422852,-8.03339,0,0,0,0,0,0,0,-1,1084,498,0.422844,8.0334
-133,526,1.09583,-9.2215,0,0,0,0,0,0,0,-1,1091,498,1.09581,9.2215
-126,526,3.42529,-2.36053,0,0,0,0,0,0,0,-1,1098,498,3.42523,2.36052
-119,526,2.7771,-0.764099,0,0,0,0,0,0,0,-1,1105,498,2.7771,0.764107
-112,526,2.57715,-1.1893,0,0,0,0,0,0,0,-1,1112,498,2.57718,1.1893
-105,526,0,0,0,0,0,0,0,0,0,-1,1119,498,0,0
-98,526,0,0,0,0,0,0,0,0,0,-1,1126,498,0,0
-91,526,0,0,0,0,0,0,0,0,0,-1,1133,498,0,0
-84,526,0,0,0,0,0,0,0,0,0,-1,1140,498,0,0
-77,526,0,0,0,0,0,0,0,0,0,-1,1147,498,0,0
-70,526,0,0,0,0,0,0,0,0,0,-1,1154,498,0,0
-63,526,0,0,0,0,0,0,0,0,0,-1,1161,498,0,0
-56,526,0,0,0,0,0,0,0,0,0,-1,1168,498,0,0
-49,526,0,0,0,0,0,0,0,0,0,-1,1175,498,0,0
-42,526,0,0,0,0,0,0,0,0,0,-1,1182,498,0,0
-35,526,0,0,0,0,0,0,0,0,0,-1,1189,498,0,0
-28,526,0,0,0,0,0,0,0,0,0,-1,1196,498,0,0
-21,526,0,0,0,0,0,0,0,0,0,-1,1203,498,0,0
-14,526,0,0,0,0,0,0,0,0,0,-1,1210,498,0,0
-7,526,0,0,0,0,0,0,0,0,0,-1,1217,498,0,0
0,526,0,0,0,0,0,0,0,0,0,-1,1224,498,0,0
7,526,0,0,0,0,0,0,0,0,0,-1,1231,498,0,0
14,526,0,0,0,0,0,0,0,0,0,-1,1238,498,0,0
21,526,0,0,0,0,0,0,0,0,0,-1,1245,498,0,0
28,526,0,0,0,0,0,0,0,0,0,-1,1252,498,0,0
35,526,0,0,0,0,0,0,0,0,0,-1,1259,498,0,0
42,526,0,0,0,0,0,0,0,0,0,-1,1266,498,0,0
49,526,0,0,0,0,0,0,0,0,0,-1,1273,498,0,0
56,526,0,0,0,0,0,0,0,0,0,-1,1280,498,0,0
63,526,0,0,0,0,0,0,0,0,0,-1,1287,498,0,0
70,526,0,0,0,0,0,0,0,0,0,-1,1294,498,0,0
77,526,0,0,0,0,0,0,0,0,0,-1,1301,498,0,0
84,526,0,0,0,0,0,0,0,0,0,-1,1308,498,0,0
91,526,0,0,0,0,0,0,0,0,0,-1,1315,498,0,0
98,526,0,0,0,0,0,0,0,0,0,-1,1322,498,0,0
105,526,0,0,0,0,0,0,0,0,0,-1,1329,498,0,0
112,526,0,0,0,0,0,0,0,0,0,-1,1336,498,0,0
119,526,0,0,0,0,0,0,0,0,0,-1,1343,498,0,0
126,526,0,0,0,0,0,0,0,0,0,-1,1350,498,0,0
133,526,0,0,0,0,0,0,0,0,0,-1,1357,498,0,0
140,526,0,0,0,0,0,0,0,0,0,-1,1364,498,0,0
147,526,0,0,0,0,0,0,0,0,0,-1,1371,498,0,0
154,526,0,0,0,0,0,0,0,0,0,-1,1378,498,0,0
161,526,0,0,0,0,0,0,0,0,0,-1,1385,498,0,0
168,526,0,0,0,0,0,0,0,0,0,-1,1392,498,0,0
175,526,0,0,0,0,0,0,0,0,0,-1,1399,498,0,0
182,526,0,0,0,0,0,0,0,0,0,-1,1406,498,0,0
189,526,0,0,0,0,0,0,0,0,0,-1,1413,498,0,0
196,526,0,0,0,0,0,0,0,0,0,-1,1420,498,0,0
203,526,0,0,0,0,0,0,0,0,0,-1,1427,498,0,0
210,526,0,0,0,0,0,0,0,0,0,-1,1434,498,0,0
217,526,0,0,0,0,0,0,0,0,0,-1,1441,498,0,0
224,526,0,0,0,0,0,0,0,0,0,-1,1448,498,0,0
231,526,7.93237,-1.30618,0,0,0,0,0,0,0,-1,1455,498,7.93238,1.30618
238,526,7.97717,-1.08197,0,0,0,0,0,0,0,-1,1462,498,7.97723,1.08196
245,526,7.2793,-0.792938,0,0,0,0,0,0,0,-1,1469,498,7.27931,0.792926
252,526,6.73523,-2.23608,0,0,0,0,0,0,0,-1,1476,498,6.73525,2.23608
259,526,6.22949,-1.84967,0,0,0,0,0,0,0,-1,1483,498,6.22953,1.84968
266,526,5.72375,-1.46329,0,0,0,0,0,0,0,-1,1490,498,5.72381,1.46328
273,526,4.33984,0.49173,0,0,0,0,0,0,0,-1,1497,498,4.33979,-0.491727
280,526,1.4585,-1.59897,0,0,0,0,0,0,0,-1,1504,498,1.45846,1.59895
287,526,1.46411,-2.40134,0,0,0,0,0,0,0,-1,1511,498,1.46406,2.40133
294,526,5.57471,-4.59085,0,0,0,0,0,0,0,-1,1518,498,5.57466,4.59084
301,526,4.42786,-3.99677,0,0,0,0,0,0,0,-1,1525,498,4.42788,3.99676
308,526,5.79529,-4.19366,0,0,0,0,0,0,0,-1,1532,498,5.79528,4.19368
315,526,5.09851,-5.20068,0,0,0,0,0,0,0,-1,1539,498,5.09851,5.20068
322,526,5.50708,-4.72348,0,0,0,0,0,0,0,-1,1546,498,5.50713,4.72347
329,526,3.88672,-4.345,0,0,0,0,0,0,0,-1,1553,498,3.88674,4.34501
336,526,4.97876,-2.23828,0,0,0,0,0,0,0,-1,1560,498,4.97877,2.23828
343,526,3.31665,-2.69696,0,0,0,0,0,0,0,-1,1567,498,3.31667,2.69696
350,526,6.06287,-6.12015,0,0,0,0,0,0,0,-1,1574,498,6.06286,6.12014
357,526,12.9944,-29.1665,0,0,0,0,0,0,0,-1,1581,498,12.9943,29.1665
364,526,13.2582,-29.5416,0,0,0,0,0,0,0,-1,1588,498,13.2581,29.5416
371,526,12.4481,-29.0131,0,0,0,0,0,0,0,-1,1595,498,12.4481,29.0131
378,526,12.6688,-30.011,0,0,0,0,0,0,0,-1,1602,498,12.6688,30.0111
385,526,12.9005,-29.275,0,0,0,0,0,0,0,-1,1609,498,12.9005,29.275
392,526,12.98,-28.6489,0.000170728,-0.00315628,-0.00257497,0.00157279,-0.00455834,-0.498609,0.00367704,0.0341612,1616,498,12.98,28.6489
399,526,12.8474,-28.0609,0.000157107,-0.00221257,-0.00213175,0.00141116,-0.00346662,-0.531753,0.00289833,0.0194652,1623,498,12.8474,28.0609
406,526,12.8385,-27.4545,0.000311046,-0.00142701,-0.00165807,0.00131403,-0.00242999,-0.54402,0.00219338,0.0125519,1630,498,12.8385,27.4545
413,526,12.8199,-26.8753,0.00051899,-0.000518768,-0.00105004,0.00117136,-0.00117113,-0.555919,0.00135244,0.0129321,1637,498,12.82,26.8753
420,526,12.7926,-26.2836,0.000598235,8.75902e-05,-0.00059055,0.000986293,-0.000300468,-0.58136,0.00077729,0.0129569,1644,498,12.7926,26.2836
427,526,12.7834,-25.674,0.000631183,0.000637101,-0.000165301,0.00079947,0.000468814,-0.794349,0.000463866,0.0141203,1651,498,12.7834,25.674
434,526,12.7565,-25.0641,0.000614664,0.00108871,0.000244937,0.00119253,0.000510843,1.16988,0.000690856,0.0128116,1658,498,12.7565,25.0641
441,526,12.7374,-24.4514,0.000627277,0.0015134,0.000697821,0.00189693,0.000243745,1.06825,0.00119171,0.0111574,1665,498,12.7374,24.4513
448,526,12.7366,-23.8555,0.000662958,0.00179474,0.00113418,0.00249637,-3.86708e-05,1.0168,0.00167728,0.0110869,1672,498,12.7366,23.8555
455,526,12.7036,-23.2446,0.000662105,0.00211799,0.00160415,0.00315164,-0.000371546,0.998397,0.00223526,0.0145961,1679,498,12.7036,23.2447
462,526,12.6826,-22.5889,0.000598984,0.00232375,0.00202721,0.00366439,-0.000741652,0.986504,0.00272401,0.0104319,1686,498,12.6827,22.5889
469,526,12.6709,-21.9706,0.000462663,0.00250193,0.00250782,0.00418947,-0.00122488,0.978482,0.00327845,0.00804604,1693,498,12.6709,21.9706
476,526,12.6497,-21.3195,0.000263292,0.00274828,0.00322519,0.00496204,-0.00195046,0.96926,0.00411525,0.0101173,1700,498,12.6497,21.3195
483,526,12.6367,-20.6155,1.34271e-05,0.00293565,0.00384742,0.00559005,-0.00264098,0.966869,0.0048528,0.0132401,1707,498,12.6368,20.6155
490,526,12.6733,-19.8843,-0.000317735,0.00296497,0.0046256,0.0062318,-0.00358456,0.955889,0.00573576,0.0291211,1714,498,12.6734,19.8843
497,526,12.5613,-19.4136,-0.000802884,0.00289854,0.00544233,0.00679623,-0.00470057,0.949294,0.00667434,0.037669,1721,498,12.5613,19.4136
504,526,12.5956,-18.7166,-0.00143804,0.00299685,0.00631001,0.0074677,-0.00590889,0.954366,0.00774044,0.0389933,1728,498,12.5955,18.7166
511,526,12.8198,-18.1655,0,0,0,0,0,0,0,-1,1735,498,12.8198,18.1655
518,526,12.3428,-17.1356,0,0,0,0,0,0,0,-1,1742,498,12.3428,17.1356
525,526,12.3584,-16.3889,0,0,0,0,0,0,0,-1,1749,498,12.3584,16.3888
532,526,12.7506,-15.1243,0,0,0,0,0,0,0,-1,1756,498,12.7506,15.1243
539,526,13.0063,-13.6487,0,0,0,0,0,0,0,-1,1763,498,13.0063,13.6487
546,526,3.36731,1.07721,0,0,0,0,0,0,0,-1,1770,498,3.36735,-1.07719
553,526,3.40796,1.37137,0,0,0,0,0,0,0,-1,1777,498,3.40792,-1.37138
560,526,0,0,0,0,0,0,0,0,0,-1,1784,498,0,0
567,526,0,0,0,0,0,0,0,0,0,-1,1791,498,0,0
574,526,0,0,0,0,0,0,0,0,0,-1,1798,498,0,0
581,526,0,0,0,0,0,0,0,0,0,-1,1805,498,0,0
588,526,0,0,0,0,0,0,0,0,0,-1,1812,498,0,0
595,526,0,0,0,0,0,0,0,0,0,-1,1819,498,0,0
602,526,0,0,0,0,0,0,0,0,0,-1,1826,498,0,0
609,526,0,0,0,0,0,0,0,0,0,-1,1833,498,0,0
616,526,0,0,0,0,0,0,0,0,0,-1,1840,498,0,0
623,526,0,0,0,0,0,0,0,0,0,-1,1847,498,0,0
630,526,0,0,0,0,0,0,0,0,0,-1,1854,498,0,0
637,526,0,0,0,0,0,0,0,0,0,-1,1861,498,0,0
644,526,0,0,0,0,0,0,0,0,0,-1,1868,498,0,0
651,526,0,0,0,0,0,0,0,0,0,-1,1875,498,0,0
658,526,0,0,0,0,0,0,0,0,0,-1,1882,498,0,0
665,526,0,0,0,0,0,0,0,0,0,-1,1889,498,0,0
672,526,0,0,0,0,0,0,0,0,0,-1,1896,498,0,0
679,526,0,0,0,0,0,0,0,0,0,-1,1903,498,0,0
686,526,0,0,0,0,0,0,0,0,0,-1,1910,498,0,0
693,526,0,0,0,0,0,0,0,0,0,-1,1917,498,0,0
700,526,0,0,0,0,0,0,0,0,0,-1,1924,498,0,0
707,526,0,0,0,0,0,0,0,0,0,-1,1931,498,0,0
714,526,0,0,0,0,0,0,0,0,0,-1,1938,498,0,0
721,526,0,0,0,0,0,0,0,0,0,-1,1945,498,0,0
728,526,0,0,0,0,0,0,0,0,0,-1,1952,498,0,0
735,526,0,0,0,0,0,0,0,0,0,-1,1959,498,0,0
742,526,0,0,0,0,0,0,0,0,0,-1,1966,498,0,0
749,526,0,0,0,0,0,0,0,0,0,-1,1973,498,0,0
756,526,0,0,0,0,0,0,0,0,0,-1,1980,498,0,0
763,526,0,0,0,0,0,0,0,0,0,-1,1987,498,0,0
770,526,0,0,0,0,0,0,0,0,0,-1,1994,498,0,0
777,526,0,0,0,0,0,0,0,0,0,-1,2001,498,0,0
784,526,0,0,0,0,0,0,0,0,0,-1,2008,498,0,0
791,526,0,0,0,0,0,0,0,0,0,-1,2015,498,0,0
798,526,0,0,0,0,0,0,0,0,0,-1,2022,498,0,0
805,526,0,0,0,0,0,0,0,0,0,-1,2029,498,0,0
812,526,0,0,0,0,0,0,0,0,0,-1,2036,498,0,0
-700,519,0,0,0,0,0,0,0,0,0,-1,524,505,0,0
-693,519,0,0,0,0,0,0,0,0,0,-1,531,505,0,0
-686,519,0,0,0,0,0,0,0,0,0,-1,538,505,0,0
-679,519,0,0,0,0,0,0,0,0,0,-1,545,505,0,0
-672,519,0,0,0,0,0,0,0,0,0,-1,552,505,0,0
-665,519,0,0,0,0,0,0,0,0,0,-1,559,505,0,0
-658,519,0,0,0,0,0,0,0,0,0,-1,566,505,0,0
-651,519,0,0,0,0,0,0,0,0,0,-1,573,505,0,0
-644,519,0,0,0,0,0,0,0,0,0,-1,580,505,0,0
-637,519,0,0,0,0,0,0,0,0,0,-1,587,505,0,0
-630,519,0,0,0,0,0,0,0,0,0,-1,594,505,0,0
-623,519,0,0,0,0,0,0,0,0,0,-1,601,505,0,0
-616,519,0,0,0,0,0,0,0,0,0,-1,608,505,0,0
-609,519,0,0,0,0,0,0,0,0,0,-1,615,505,0,0
-602,519,0,0,0,0,0,0,0,0,0,-1,622,505,0,0
-595,519,0,0,0,0,0,0,0,0,0,-1,629,505,0,0
-588,519,0,0,0,0,0,0,0,0,0,-1,636,505,0,0
-581,519,0,0,0,0,0,0,0,0,0,-1,643,505,0,0
-574,519,0,0,0,0,0,0,0,0,0,-1,650,505,0,0
-567,519,0,0,0,0,0,0,0,0,0,-1,657,505,0,0
-560,519,0,0,0,0,0,0,0,0,0,-1,664,505,0,0
-553,519,0,0,0,0,0,0,0,0,0,-1,671,505,0,0
-546,519,0,0,0,0,0,0,0,0,0,-1,678,505,0,0
-539,519,0,0,0,0,0,0,0,0,0,-1,685,505,0,0
-532,519,0,0,0,0,0,0,0,0,0,-1,692,505,0,0
-525,519,0,0,0,0,0,0,0,0,0,-1,699,505,0,0
-518,519,0,0,0,0,0,0,0,0,0,-1,706,505,0,0
-511,519,0,0,0,0,0,0,0,0,0,-1,713,505,0,0
-504,519,0,0,0,0,0,0,0,0,0,-1,720,505,0,0
-497,519,0,0,0,0,0,0,0,0,0,-1,727,505,0,0
-490,519,0,0,0,0,0,0,0,0,0,-1,734,505,0,0
-483,519,0,0,0,0,0,0,0,0,0,-1,741,505,0,0
-476,519,0,0,0,0,0,0,0,0,0,-1,748,505,0,0
-469,519,0,0,0,0,0,0,0,0,0,-1,755,505,0,0
-462,519,0,0,0,0,0,0,0,0,0,-1,762,505,0,0
-455,519,0,0,0,0,0,0,0,0,0,-1,769,505,0,0
-448,519,0,0,0,0,0,0,0,0,0,-1,776,505,0,0
-441,519,1.34839,-5.29346,0,0,0,0,0,0,0,-1,783,505,1.3484,5.29347
-434,519,0.949585,-5.77313,0,0,0,0,0,0,0,-1,790,505,0.949598,5.77315
-427,519,-0.0523682,-9.31567,0,0,0,0,0,0,0,-1,797,505,-0.0523854,9.31568
-420,519,-2.38867,-12.1938,0,0,0,0,0,0,0,-1,804,505,-2.38867,12.1938
-413,519,-2.2298,-12.4998,0,0,0,0,0,0,0,-1,811,505,-2.22979,12.4998
-406,519,-1.44373,-12.3475,0,0,0,0,0,0,0,-1,818,505,-1.44376,12.3475
-399,519,-1.60516,-15.0849,0,0,0,0,0,0,0,-1,825,505,-1.60518,15.0849
-392,519,-1.2486,-18.3735,0,0,0,0,0,0,0,-1,832,505,-1.2486,18.3735
-385,519,-1.7298,-18.5572,0,0,0,0,0,0,0,-1,839,505,-1.72981,18.5572
-378,519,-1.62701,-19.369,0.00276373,0.0170716,-0.0108237,0.0228919,-0.00305657,-1.07742,0.0163755,0.0345209,846,505,-1.62699,19.369
-371,519,-1.54077,-20.2576,0.00249441,0.0148495,-0.00919901,0.0197528,-0.00240883,-1.08108,0.0140405,0.0187685,853,505,-1.54076,20.2575
-364,519,-1.54596,-21.0717,0.00212439,0.0125915,-0.00769078,0.0166605,-0.00194465,-1.08416,0.0118087,0.0116096,860,505,-1.54594,21.0717
-357,519,-1.52429,-21.7446,0.00169871,0.0104298,-0.00627487,0.0137083,-0.00157983,-1.08932,0.00970842,0.0111124,867,505,-1.5243,21.7446
-350,519,-1.55774,-22.3641,0.00132868,0.00837691,-0.00493813,0.0109195,-0.00121388,-1.09531,0.00771617,0.0131964,874,505,-1.55771,22.3641
-343,519,-1.6441,-22.9628,0.00107103,0.00633042,-0.00371821,0.00825489,-0.000853443,-1.09318,0.00580868,0.0158267,881,505,-1.64412,22.9629
-336,519,-1.69147,-23.5812,0.000846347,0.00455712,-0.0026246,0.00591592,-0.000512453,-1.09308,0.00412539,0.016391,888,505,-1.69146,23.5812
-329,519,-1.68127,-24.2108,0.000704502,0.00286898,-0.00164964,0.0037597,-0.000186215,-1.0757,0.00257079,0.0147886,895,505,-1.68126,24.2108
-322,519,-1.69354,-24.8247,0.000639507,0.00129817,-0.000716082,0.00175702,0.000180654,-1.00093,0.00111601,0.0114721,902,505,-1.69355,24.8247
-315,519,-1.71936,-25.4417,0.000712918,-3.92005e-05,0.00011687,0.00073066,-5.69422e-05,0.150657,0.000507154,0.00925008,909,505,-1.71937,25.4417
-308,519,-1.74524,-26.0665,0.000901238,-0.00115407,0.000802244,0.0011773,-0.00143013,0.331417,0.00150776,0.00838206,916,505,-1.74527,26.0665
-301,519,-1.76636,-26.6291,0.00114515,-0.00205492,0.00139176,0.00166576,-0.00257552,0.357948,0.00246741,0.0123882,923,505,-1.76633,26.6291
-294,519,-1.78577,-27.1619,0.00147362,-0.002731,0.00198327,0.00226147,-0.00351886,0.378134,0.00336349,0.0158383,930,505,-1.78579,27.1619
-287,519,-1.81995,-27.7528,0.00189783,-0.00344498,0.00255151,0.00292055,-0.00446771,0.381223,0.00429668,0.012549,937,505,-1.81992,27.7528
-280,519,-1.86542,-28.3238,0.00234276,-0.00478829,0.00321353,0.00357721,-0.00602274,0.36676,0.00560216,0.0192819,944,505,-1.86544,28.3238
-273,519,-1.8526,-28.9052,0.00286051,-0.00592108,0.00394066,0.00436953,-0.0074301,0.365711,0.00688849,0.0372056,951,505,-1.85261,28.9052
-266,519,-1.85602,-29.4889,0,0,0,0,0,0,0,-1,958,505,-1.856,29.4889
-259,519,-1.69678,-30.128,0,0,0,0,0,0,0,-1,965,505,-1.69675,30.128
-252,519,-1.84009,-26.8372,0,0,0,0,0,0,0,-1,972,505,-1.8401,26.8372
-245,519,-1.23254,-23.2696,0,0,0,0,0,0,0,-1,979,505,-1.23256,23.2696
-238,519,-1.06903,-23.1753,0,0,0,0,0,0,0,-1,986,505,-1.06904,23.1753
-231,519,0.337585,-11.2798,0,0,0,0,0,0,0,-1,993,505,0.337568,11.2798
-224,519,-0.0494995,-7.97394,0,0,0,0,0,0,0,-1,1000,505,-0.0495123,7.97392
-217,519,-1.37299,-33.5475,0,0,0,0,0,0,0,-1,1007,505,-1.37296,33.5475
-210,519,-2.14398,-4.74774,0,0,0,0,0,0,0,-1,1014,505,-2.14397,4.74775
-203,519,-0.513611,-5.39017,0,0,0,0,0,0,0,-1,1021,505,-0.513585,5.39017
-196,519,-0.374023,-5.41635,0,0,0,0,0,0,0,-1,1028,505,-0.374047,5.41635
-189,519,-0.234497,-5.44254,0,0,0,0,0,0,0,-1,1035,505,-0.234508,5.44253
-182,519,2.76697,-1.19659,0,0,0,0,0,0,0,-1,1042,505,2.76696,1.19661
-175,519,2.31323,-0.960938,0,0,0,0,0,0,0,-1,1049,505,2.31319,0.960941
-168,519,2.01074,-0.721405,0,0,0,0,0,0,0,-1,1056,505,2.01072,0.721407
-161,519,2.32056,-0.522339,0,0,0,0,0,0,0,-1,1063,505,2.32057,0.522328
-154,519,2.55566,0.116669,0,0,0,0,0,0,0,-1,1070,505,2.55563,-0.116661
-147,519,-0.55127,-6.14001,0,0,0,0,0,0,0,-1,1077,505,-0.551252,6.14001
-140,519,0.240601,-7.53503,0,0,0,0,0,0,0,-1,1084,505,0.240653,7.53501
-133,519,2.70911,-4.4516,0,0,0,0,0,0,0,-1,1091,505,2.70915,4.45161
-126,519,0,0,0,0,0,0,0,0,0,-1,1098,505,0,0
-119,519,0,0,0,0,0,0,0,0,0,-1,1105,505,0,0
-112,519,0,0,0,0,0,0,0,0,0,-1,1112,505,0,0
-105,519,0,0,0,0,0,0,0,0,0,-1,1119,505,0,0
-98,519,0,0,0,0,0,0,0,0,0,-1,1126,505,0,0
-91,519,0,0,0,0,0,0,0,0,0,-1,1133,505,0,0
-84,519,0,0,0,0,0,0,0,0,0,-1,1140,505,0,0
-77,519,0,0,0,0,0,0,0,0,0,-1,1147,505,0,0
-70,519,0,0,0,0,0,0,0,0,0,-1,1154,505,0,0
-63,519,0,0,0,0,0,0,0,0,0,-1,1161,505,0,0
-56,519,0,0,0,0,0,0,0,0,0,-1,1168,505,0,0
-49,519,0,0,0,0,0,0,0,0,0,-1,1175,505,0,0
-42,519,0,0,0,0,0,0,0,0,0,-1,1182,505,0,0
-35,519,0,0,0,0,0,0,0,0,0,-1,1189,505,0,0
-28,519,0,0,0,0,0,0,0,0,0,-1,1196,505,0,0
-21,519,0,0,0,0,0,0,0,0,0,-1,1203,505,0,0
-14,519,0,0,0,0,0,0,0,0,0,-1,1210,505,0,0
-7,519,0,0,0,0,0,0,0,0,0,-1,1217,505,0,0
0,519,0,0,0,0,0,0,0,0,0,-1,1224,505,0,0
7,519,0,0,0,0,0,0,0,0,0,-1,1231,505,0,0
14,519,0,0,0,0,0,0,0,0,0,-1,1238,505,0,0
21,519,0,0,0,0,0,0,0,0,0,-1,1245,505,0,0
28,519,0,0,0,0,0,0,0,0,0,-1,1252,505,0,0
35,519,0,0,0,0,0,0,0,0,0,-1,1259,505,0,0
42,519,0,0,0,0,0,0,0,0,0,-1,1266,505,0,0
49,519,0,0,0,0,0,0,0,0,0,-1,1273,505,0,0
56,519,0,0,0,0,0,0,0,0,0,-1,1280,505,0,0
63,519,0,0,0,0,0,0,0,0,0,-1,1287,505,0,0
70,519,0,0,0,0,0,0,0,0,0,-1,1294,505,0,0
77,519,0,0,0,0,0,0,0,0,0,-1,1301,505,0,0
84,519,0,0,0,0,0,0,0,0,0,-1,1308,505,0,0
91,519,0,0,0,0,0,0,0,0,0,-1,1315,505,0,0
98,519,0,0,0,0,0,0,0,0,0,-1,1322,505,0,0
105,519,0,0,0,0,0,0,0,0,0,-1,1329,505,0,0
112,519,0,0,0,0,0,0,0,0,0,-1,1336,505,0,0
119,519,0,0,0,0,0,0,0,0,0,-1,1343,505,0,0
126,519,0,0,0,0,0,0,0,0,0,-1,1350,505,0,0
133,519,0,0,0,0,0,0,0,0,0,-1,1357,505,0,0
140,519,0,0,0,0,0,0,0,0,0,-1,1364,505,0,0
147,519,0,0,0,0,0,0,0,0,0,-1,1371,505,0,0
154,519,0,0,0,0,0,0,0,0,0,-1,1378,505,0,0
161,519,0,0,0,0,0,0,0,0,0,-1,1385,505,0,0
168,519,0,0,0,0,0,0,0,0,0,-1,1392,505,0,0
175,519,0,0,0,0,0,0,0,0,0,-1,1399,505,0,0
182,519,0,0,0,0,0,0,0,0,0,-1,1406,505,0,0
189,519,0,0,0,0,0,0,0,0,0,-1,1413,505,0,0
196,519,0,0,0,0,0,0,0,0,0,-1,1420,505,0,0
203,519,0,0,0,0,0,0,0,0,0,-1,1427,505,0,0
210,519,0,0,0,0,0,0,0,0,0,-1,1434,505,0,0
217,519,0,0,0,0,0,0,0,0,0,-1,1441,505,0,0
224,519,0,0,0,0,0,0,0,0,0,-1,1448,505,0,0
231,519,0,0,0,0,0,0,0,0,0,-1,1455,505,0,0
238,519,0,0,0,0,0,0,0,0,0,-1,1462,505,0,0
245,519,0,0,0,0,0,0,0,0,0,-1,1469,505,0,0
252,519,5.26208,0.0938416,0,0,0,0,0,0,0,-1,1476,505,5.26207,-0.0938493
259,519,6.14246,-1.36441,0,0,0,0,0,0,0,-1,1483,505,6.14241,1.36441
266,519,5.31909,-0.400787,0,0,0,0,0,0,0,-1,1490,505,5.31912,0.400773
273,519,4.02393,0.325531,0,0,0,0,0,0,0,-1,1497,505,4.0239,-0.325522
280,519,4.68848,0.53006,0,0,0,0,0,0,0,-1,1504,505,4.68842,-0.530073
287,519,7.9519,-3.80801,0,0,0,0,0,0,0,-1,1511,505,7.95193,3.808
294,519,6.92273,-3.38889,0,0,0,0,0,0,0,-1,1518,505,6.92268,3.38888
301,519,5.35669,-2.92661,0,0,0,0,0,0,0,-1,1525,505,5.35675,2.9266
308,519,7.37549,-5.64529,0,0,0,0,0,0,0,-1,1532,505,7.3755,5.64529
315,519,6.30029,-4.53754,0,0,0,0,0,0,0,-1,1539,505,6.30024,4.53753
322,519,5.84302,-5.45117,0,0,0,0,0,0,0,-1,1546,505,5.84303,5.45116
329,519,4.92407,0.62384,0,0,0,0,0,0,0,-1,1553,505,4.92403,-0.623832
336,519,3.10095,-0.329285,0,0,0,0,0,0,0,-1,1560,505,3.1009,0.329283
343,519,2.49146,-2.31119,0,0,0,0,0,0,0,-1,1567,505,2.49145,2.31119
350,519,3.47729,-2.22516,0,0,0,0,0,0,0,-1,1574,505,3.47726,2.22515
357,519,13.271,-29.6344,0,0,0,0,0,0,0,-1,1581,505,13.271,29.6344
364,519,12.8292,-28.3627,0,0,0,0,0,0,0,-1,1588,505,12.8292,28.3627
371,519,12.3875,-27.0911,0,0,0,0,0,0,0,-1,1595,505,12.3874,27.091
378,519,6.36597,-10.0967,0,0,0,0,0,0,0,-1,1602,505,6.36597,10.0967
385,519,6.24756,-9.72186,0,0,0,0,0,0,0,-1,1609,505,6.24752,9.72183
392,519,13.4718,-28.8353,0,0,0,0,0,0,0,-1,1616,505,13.4718,28.8353
399,519,13.5157,-27.861,-8.02196e-05,-0.00260595,-0.00309057,0.00199555,-0.00468171,-0.591441,0.00395773,0.0474565,1623,505,13.5157,27.861
406,519,13.397,-27.4388,0.000243892,-0.00185009,-0.00255075,0.00195417,-0.00356037,-0.590652,0.00322852,0.031846,1630,505,13.397,27.4388
413,519,13.4569,-26.8847,0.000604612,-0.000998575,-0.00183719,0.00180747,-0.00220143,-0.579691,0.00231826,0.0155581,1637,505,13.457,26.8847
420,519,13.4241,-26.2797,0.000766209,-0.000442794,-0.00130833,0.00160294,-0.00127953,-0.568988,0.00166768,0.015232,1644,505,13.4241,26.2797
427,519,13.4098,-25.6779,0.000841292,9.6983e-05,-0.000837396,0.00138551,-0.000447231,-0.576297,0.00110339,0.0139095,1651,505,13.4098,25.6779
434,519,13.3989,-25.0569,0.000800856,0.000518628,-0.000408696,0.00109211,0.000227369,-0.619167,0.000665364,0.013066,1658,505,13.3989,25.0569
441,519,13.3563,-24.4175,0.000818094,0.000908564,6.55568e-05,0.000942978,0.00078368,1.0874,0.000582854,0.0120075,1665,505,13.3563,24.4175
448,519,13.3434,-23.8124,0.000878532,0.0011859,0.000528131,0.00158225,0.000482177,0.926984,0.000936444,0.00975243,1672,505,13.3434,23.8124
455,519,13.3142,-23.2117,0.00090136,0.00156336,0.00100533,0.00229078,0.000173944,0.944432,0.00147263,0.0111167,1679,505,13.3142,23.2117
462,519,13.3002,-22.5797,0.000848532,0.00180853,0.00141827,0.00282582,-0.000168767,0.948567,0.00194258,0.0100559,1686,505,13.3002,22.5797
469,519,13.2994,-21.9493,0.00072174,0.00202302,0.00189069,0.00337189,-0.000627127,0.951116,0.0024835,0.0106516,1693,505,13.2994,21.9493
476,519,13.2806,-21.2877,0.000528309,0.00230799,0.00255623,0.00412483,-0.00128853,0.952892,0.00326527,0.0132764,1700,505,13.2806,21.2877
483,519,13.2516,-20.6245,0.000288584,0.00254075,0.00311237,0.00472449,-0.00189516,0.958976,0.0039365,0.0138615,1707,505,13.2516,20.6244
490,519,13.2253,-19.9485,-4.25199e-05,0.00265344,0.00376285,0.00530247,-0.00269155,0.957394,0.00469669,0.0121397,1714,505,13.2253,19.9485
497,519,13.1975,-19.3469,-0.000484271,0.00270967,0.00446323,0.00585304,-0.00362763,0.957204,0.0055237,0.0201416,1721,505,13.1975,19.3469
504,519,13.1262,-18.6744,-0.00109443,0.00285808,0.0052137,0.00645751,-0.00469386,0.966557,0.00646503,0.0206119,1728,505,13.1262,18.6744
511,519,13.1608,-17.9275,-0.001745,0.00287756,0.00607333,0.00706454,-0.00593198,0.967217,0.00751304,0.0265096,1735,505,13.1607,17.9275
518,519,13.0687,-17.249,-0.00261222,0.00279367,0.00706023,0.00765066,-0.00746921,0.968212,0.00872968,0.0407851,1742,505,13.0687,17.2491
525,519,12.9867,-16.4033,-0.0038344,0.00285511,0.00803188,0.00821084,-0.00919014,0.982695,0.0100518,0.0429494,1749,505,12.9867,16.4033
532,519,13.1206,-15.2622,0,0,0,0,0,0,0,-1,1756,505,13.1206,15.2622
539,519,13.3242,-14.2133,0,0,0,0,0,0,0,-1,1763,505,13.3242,14.2133
546,519,4.62024,-2.89774,0,0,0,0,0,0,0,-1,1770,505,4.62023,2.89775
553,519,4.14136,0.0667419,0,0,0,0,0,0,0,-1,1777,505,4.14141,-0.0667503
560,519,3.77856,0.279724,0,0,0,0,0,0,0,-1,1784,505,3.77861,-0.279731
567,519,0,0,0,0,0,0,0,0,0,-1,1791,505,0,0
574,519,0,0,0,0,0,0,0,0,0,-1,1798,505,0,0
581,519,0,0,0,0,0,0,0,0,0,-1,1805,505,0,0
588,519,0,0,0,0,0,0,0,0,0,-1,1812,505,0,0
595,519,0,0,0,0,0,0,0,0,0,-1,1819,505,0,0
602,519,0,0,0,0,0,0,0,0,0,-1,1826,505,0,0
609,519,0,0,0,0,0,0,0,0,0,-1,1833,505,0,0
616,519,0,0,0,0,0,0,0,0,0,-1,1840,505,0,0
623,519,0,0,0,0,0,0,0,0,0,-1,1847,505,0,0
630,519,0,0,0,0,0,0,0,0,0,-1,1854,505,0,0
637,519,0,0,0,0,0,0,0,0,0,-1,1861,505,0,0
644,519,0,0,0,0,0,0,0,0,0,-1,1868,505,0,0
651,519,0,0,0,0,0,0,0,0,0,-1,1875,505,0,0
658,519,0,0,0,0,0,0,0,0,0,-1,1882,505,0,0
665,519,0,0,0,0,0,0,0,0,0,-1,1889,505,0,0
672,519,0,0,0,0,0,0,0,0,0,-1,1896,505,0,0
679,519,0,0,0,0,0,0,0,0,0,-1,1903,505,0,0
686,519,0,0,0,0,0,0,0,0,0,-1,1910,505,0,0
693,519,0,0,0,0,0,0,0,0,0,-1,1917,505,0,0
700,519,0,0,0,0,0,0,0,0,0,-1,1924,505,0,0
707,519,0,0,0,0,0,0,0,0,0,-1,1931,505,0,0
714,519,0,0,0,0,0,0,0,0,0,-1,1938,505,0,0
721,519,0,0,0,0,0,0,0,0,0,-1,1945,505,0,0
728,519,0,0,0,0,0,0,0,0,0,-1,1952,505,0,0
735,519,0,0,0,0,0,0,0,0,0,-1,1959,505,0,0
742,519,0,0,0,0,0,0,0,0,0,-1,1966,505,0,0
749,519,0,0,0,0,0,0,0,0,0,-1,1973,505,0,0
756,519,0,0,0,0,0,0,0,0,0,-1,1980,505,0,0
763,519,0,0,0,0,0,0,0,0,0,-1,1987,505,0,0
770,519,0,0,0,0,0,0,0,0,0,-1,1994,505,0,0
777,519,0,0,0,0,0,0,0,0,0,-1,2001,505,0,0
784,519,0,0,0,0,0,0,0,0,0,-1,2008,505,0,0
791,519,0,0,0,0,0,0,0,0,0,-1,2015,505,0,0
798,519,0,0,0,0,0,0,0,0,0,-1,2022,505,0,0
805,519,0,0,0,0,0,0,0,0,0,-1,2029,505,0,0
812,519,0,0,0,0,0,0,0,0,0,-1,2036,505,0,0
-700,512,0,0,0,0,0,0,0,0,0,-1,524,512,0,0
-693,512,0,0,0,0,0,0,0,0,0,-1,531,512,0,0
-686,512,0,0,0,0,0,0,0,0,0,-1,538,512,0,0
-679,512,0,0,0,0,0,0,0,0,0,-1,545,512,0,0
-672,512,0,0,0,0,0,0,0,0,0,-1,552,512,0,0
-665,512,0,0,0,0,0,0,0,0,0,-1,559,512,0,0
-658,512,0,0,0,0,0,0,0,0,0,-1,566,512,0,0
-651,512,0,0,0,0,0,0,0,0,0,-1,573,512,0,0
-644,512,0,0,0,0,0,0,0,0,0,-1,580,512,0,0
-637,512,0,0,0,0,0,0,0,0,0,-1,587,512,0,0
-630,512,0,0,0,0,0,0,0,0,0,-1,594,512,0,0
-623,512,0,0,0,0,0,0,0,0,0,-1,601,512,0,0
-616,512,0,0,0,0,0,0,0,0,0,-1,608,512,0,0
-609,512,0,0,0,0,0,0,0,0,0,-1,615,512,0,0
-602,512,0,0,0,0,0,0,0,0,0,-1,622,512,0,0
-595,512,0,0,0,0,0,0,0,0,0,-1,629,512,0,0
-588,512,0,0,0,0,0,0,0,0,0,-1,636,512,0,0
-581,512,0,0,0,0,0,0,0,0,0,-1,643,512,0,0
-574,512,0,0,0,0,0,0,0,0,0,-1,650,512,0,0
-567,512,0,0,0,0,0,0,0,0,0,-1,657,512,0,0
-560,512,0,0,0,0,0,0,0,0,0,-1,664,512,0,0
-553,512,0,0,0,0,0,0,0,0,0,-1,671,512,0,0
-546,512,0,0,0,0,0,0,0,0,0,-1,678,512,0,0
-539,512,0,0,0,0,0,0,0,0,0,-1,685,512,0,0
-532,512,0,0,0,0,0,0,0,0,0,-1,692,512,0,0
-525,512,0,0,0,0,0,0,0,0,0,-1,699,512,0,0
-518,512,0,0,0,0,0,0,0,0,0,-1,706,512,0,0
-511,512,0,0,0,0,0,0,0,0,0,-1,713,512,0,0
-504,512,0,0,0,0,0,0,0,0,0,-1,720,512,0,0
-497,512,0,0,0,0,0,0,0,0,0,-1,727,512,0,0
-490,512,0,0,0,0,0,0,0,0,0,-1,734,512,0,0
-483,512,0,0,0,0,0,0,0,0,0,-1,741,512,0,0
-476,512,0,0,0,0,0,0,0,0,0,-1,748,512,0,0
-469,512,0,0,0,0,0,0,0,0,0,-1,755,512,0,0
-462,512,0,0,0,0,0,0,0,0,0,-1,762,512,0,0
-455,512,0,0,0,0,0,0,0,0,0,-1,769,512,0,0
-448,512,1.96283,-4.15674,0,0,0,0,0,0,0,-1,776,512,1.96285,4.15677
-441,512,1.78198,-4.88824,0,0,0,0,0,0,0,-1,783,512,1.78201,4.88826
-434,512,0.0726929,-9.85822,0,0,0,0,0,0,0,-1,790,512,0.0727008,9.85819
-427,512,-0.384583,-9.94824,0,0,0,0,0,0,0,-1,797,512,-0.384552,9.94823
-420,512,-2.93219,-12.4855,0,0,0,0,0,0,0,-1,804,512,-2.93219,12.4855
-413,512,-2.22711,-11.4485,0,0,0,0,0,0,0,-1,811,512,-2.22712,11.4485
-406,512,-2.38037,-13.5743,0,0,0,0,0,0,0,-1,818,512,-2.38034,13.5743
-399,512,-2.26672,-17.7378,0,0,0,0,0,0,0,-1,825,512,-2.2667,17.7378
-392,512,-2.08398,-18.4225,0.00177513,0.0176749,-0.0110167,0.0233106,-0.00386057,-1.09794,0.0169742,0.0417393,832,512,-2.08398,18.4226
-385,512,-2.08026,-19.0829,0.00189772,0.015319,-0.00968539,0.0203913,-0.00317467,-1.08836,0.0147666,0.0218989,839,512,-2.08028,19.083
-378,512,-2.12195,-19.6993,0.00194776,0.0132314,-0.00845876,0.0177572,-0.00257805,-1.07951,0.0127844,0.0164616,846,512,-2.12194,19.6993
-371,512,-2.12115,-20.4091,0.00192024,0.011243,-0.00726974,0.0152174,-0.00205422,-1.07048,0.0108944,0.0128099,853,512,-2.12117,20.4091
-364,512,-2.13739,-21.1317,0.001777,0.00931276,-0.00600724,0.012636,-0.00154623,-1.0655,0.00898387,0.00996261,860,512,-2.13739,21.1317
-357,512,-2.14557,-21.7546,0.00158001,0.0075217,-0.00479911,0.0101951,-0.00109338,-1.06255,0.00718896,0.0111645,867,512,-2.14556,21.7546
-350,512,-2.18274,-22.3654,0.0014144,0.00581357,-0.00367023,0.00789285,-0.000664888,-1.05535,0.00549695,0.0120876,874,512,-2.18271,22.3654
-343,512,-2.25562,-22.9689,0.00128439,0.00401921,-0.00259587,0.0055858,-0.000282203,-1.02781,0.00382141,0.0131311,881,512,-2.25562,22.9689
-336,512,-2.30383,-23.5974,0.00113812,0.00246049,-0.00161405,0.00354353,5.50853e-05,-0.979794,0.00234421,0.0143351,888,512,-2.30386,23.5974
-329,512,-2.28021,-24.2088,0.00105883,0.000970659,-0.000721937,0.00173803,0.000291461,-0.754904,0.00107478,0.0162251,895,512,-2.28024,24.2088
-322,512,-2.29761,-24.8148,0.00106354,-0.000408292,0.000112301,0.00107206,-0.000416811,0.075716,0.000886913,0.0134813,902,512,-2.29763,24.8148
-315,512,-2.32562,-25.4266,0.00118258,-0.00162145,0.000854452,0.00142244,-0.00186131,0.273667,0.00190151,0.0110234,909,512,-2.32559,25.4266
-308,512,-2.35767,-26.0234,0.00144517,-0.00267637,0.00146715,0.00191408,-0.00314529,0.309348,0.00294972,0.0108723,916,512,-2.35766,26.0234
-301,512,-2.36047,-26.5807,0.00170517,-0.00339043,0.00202079,0.00240927,-0.00409453,0.335275,0.00379676,0.0151635,923,512,-2.36048,26.5808
-294,512,-2.35181,-27.1232,0.0019646,-0.00399024,0.00259898,0.00293936,-0.004965,0.358818,0.00461326,0.0160642,930,512,-2.35182,27.1232
-287,512,-2.45752,-27.6429,0.0023237,-0.00473281,0.00315649,0.00352958,-0.00593869,0.364921,0.00552517,0.0274914,937,512,-2.4575,27.6429
-280,512,-2.45813,-28.3143,0,0,0,0,0,0,0,-1,944,512,-2.45814,28.3143
-273,512,-2.29419,-28.9472,0,0,0,0,0,0,0,-1,951,512,-2.2942,28.9472
-266,512,-2.33594,-25.9839,0,0,0,0,0,0,0,-1,958,512,-2.33592,25.9839
-259,512,-0.525452,-14.0815,0,0,0,0,0,0,0,-1,965,512,-0.525475,14.0815
-252,512,1.45941,-3.43475,0,0,0,0,0,0,0,-1,972,512,1.45938,3.43475
-245,512,-1.6731,-22.8959,0,0,0,0,0,0,0,-1,979,512,-1.67312,22.8959
-238,512,0.227051,-8.92969,0,0,0,0,0,0,0,-1,986,512,0.227073,8.92968
-231,512,-2.54437,-10.169,0,0,0,0,0,0,0,-1,993,512,-2.54439,10.169
-224,512,-4.84601,-7.52783,0,0,0,0,0,0,0,-1,1000,512,-4.84602,7.52786
-217,512,-7.37274,-3.89563,0,0,0,0,0,0,0,-1,1007,512,-7.37274,3.89561
-210,512,-3.76642,-1.94702,0,0,0,0,0,0,0,-1,1014,512,-3.76641,1.94702
-203,512,-2.48328,-5.19061,0,0,0,0,0,0,0,-1,1021,512,-2.48328,5.19059
-196,512,-1.14929,-4.63202,0,0,0,0,0,0,0,-1,1028,512,-1.14934,4.632
-189,512,0.197998,4.55505,0,0,0,0,0,0,0,-1,1035,512,0.197996,-4.55506
-182,512,2.73938,0.0778503,0,0,0,0,0,0,0,-1,1042,512,2.73944,-0.077852
-175,512,2.29565,0.209808,0,0,0,0,0,0,0,-1,1049,512,2.29565,-0.209813
-168,512,2.09399,-0.302856,0,0,0,0,0,0,0,-1,1056,512,2.09403,0.302826
-161,512,2.76636,0.0921021,0,0,0,0,0,0,0,-1,1063,512,2.76633,-0.0921104
-154,512,3.41382,0.466187,0,0,0,0,0,0,0,-1,1070,512,3.41382,-0.466178
-147,512,0,0,0,0,0,0,0,0,0,-1,1077,512,0,0
-140,512,0,0,0,0,0,0,0,0,0,-1,1084,512,0,0
-133,512,0,0,0,0,0,0,0,0,0,-1,1091,512,0,0
-126,512,0,0,0,0,0,0,0,0,0,-1,1098,512,0,0
-119,512,0,0,0,0,0,0,0,0,0,-1,1105,512,0,0
-112,512,0,0,0,0,0,0,0,0,0,-1,1112,512,0,0
-105,512,0,0,0,0,0,0,0,0,0,-1,1119,512,0,0
-98,512,0,0,0,0,0,0,0,0,0,-1,1126,512,0,0
-91,512,0,0,0,0,0,0,0,0,0,-1,1133,512,0,0
-84,512,0,0,0,0,0,0,0,0,0,-1,1140,512,0,0
-77,512,0,0,0,0,0,0,0,0,0,-1,1147,512,0,0
-70,512,0,0,0,0,0,0,0,0,0,-1,1154,512,0,0
-63,512,0,0,0,0,0,0,0,0,0,-1,1161,512,0,0
-56,512,0,0,0,0,0,0,0,0,0,-1,1168,512,0,0
-49,512,0,0,0,0,0,0,0,0,0,-1,1175,512,0,0
-42,512,0,0,0,0,0,0,0,0,0,-1,1182,512,0,0
-35,512,0,0,0,0,0,0,0,0,0,-1,1189,512,0,0
-28,512,0,0,0,0,0,0,0,0,0,-1,1196,512,0,0
-21,512,0,0,0,0,0,0,0,0,0,-1,1203,512,0,0
-14,512,0,0,0,0,0,0,0,0,0,-1,1210,512,0,0
-7,512,0,0,0,0,0,0,0,0,0,-1,1217,512,0,0
0,512,0,0,0,0,0,0,0,0,0,-1,1224,512,0,0
7,512,0,0,0,0,0,0,0,0,0,-1,1231,512,0,0
14,512,0,0,0,0,0,0,0,0,0,-1,1238,512,0,0
21,512,0,0,0,0,0,0,0,0,0,-1,1245,512,0,0
28,512,0,0,0,0,0,0,0,0,0,-1,1252,512,0,0
35,512,0,0,0,0,0,0,0,0,0,-1,1259,512,0,0
42,512,0,0,0,0,0,0,0,0,0,-1,1266,512,0,0
49,512,0,0,0,0,0,0,0,0,0,-1,1273,512,0,0
56,512,0,0,0,0,0,0,0,0,0,-1,1280,512,0,0
63,512,0,0,0,0,0,0,0,0,0,-1,1287,512,0,0
70,512,0,0,0,0,0,0,0,0,0,-1,1294,512,0,0
77,512,0,0,0,0,0,0,0,0,0,-1,1301,512,0,0
84,512,0,0,0,0,0,0,0,0,0,-1,1308,512,0,0
91,512,0,0,0,0,0,0,0,0,0,-1,1315,512,0,0
98,512,0,0,0,0,0,0,0,0,0,-1,1322,512,0,0
105,512,0,0,0,0,0,0,0,0,0,-1,1329,512,0,0
112,512,0,0,0,0,0,0,0,0,0,-1,1336,512,0,0
119,512,0,0,0,0,0,0,0,0,0,-1,1343,512,0,0
126,512,0,0,0,0,0,0,0,0,0,-1,1350,512,0,0
133,512,0,0,0,0,0,0,0,0,0,-1,1357,512,0,0
140,512,0,0,0,0,0,0,0,0,0,-1,1364,512,0,0
147,512,0,0,0,0,0,0,0,0,0,-1,1371,512,0,0
154,512,0,0,0,0,0,0,0,0,0,-1,1378,512,0,0
161,512,0,0,0,0,0,0,0,0,0,-1,1385,512,0,0
168,512,0,0,0,0,0,0,0,0,0,-1,1392,512,0,0
175,512,0,0,0,0,0,0,0,0,0,-1,1399,512,0,0
182,512,0,0,0,0,0,0,0,0,0,-1,1406,512,0,0
189,512,0,0,0,0,0,0,0,0,0,-1,1413,512,0,0
196,512,0,0,0,0,0,0,0,0,0,-1,1420,512,0,0
203,512,0,0,0,0,0,0,0,0,0,-1,1427,512,0,0
210,512,0,0,0,0,0,0,0,0,0,-1,1434,512,0,0
217,512,0,0,0,0,0,0,0,0,0,-1,1441,512,0,0
224,512,0,0,0,0,0,0,0,0,0,-1,1448,512,0,0
231,512,0,0,0,0,0,0,0,0,0,-1,1455,512,0,0
238,512,0,0,0,0,0,0,0,0,0,-1,1462,512,0,0
245,512,0,0,0,0,0,0,0,0,0,-1,1469,512,0,0
252,512,0,0,0,0,0,0,0,0,0,-1,1476,512,0,0
259,512,0,0,0,0,0,0,0,0,0,-1,1483,512,0,0
266,512,0,0,0,0,0,0,0,0,0,-1,1490,512,0,0
273,512,4.00745,0.618622,0,0,0,0,0,0,0,-1,1497,512,4.00747,-0.618611
280,512,4.49609,0.649841,0,0,0,0,0,0,0,-1,1504,512,4.49612,-0.649834
287,512,4.77234,0.458069,0,0,0,0,0,0,0,-1,1511,512,4.77233,-0.458083
294,512,8.54956,-2.36273,0,0,0,0,0,0,0,-1,1518,512,8.54952,2.36274
301,512,6.302,-1.69092,0,0,0,0,0,0,0,-1,1525,512,6.30196,1.69093
308,512,8.2439,-6.22754,0,0,0,0,0,0,0,-1,1532,512,8.24394,6.22757
315,512,7.53687,-6.04211,0,0,0,0,0,0,0,-1,1539,512,7.53691,6.04211
322,512,6.82983,-5.85663,0,0,0,0,0,0,0,-1,1546,512,6.82988,5.85666
329,512,4.38147,-0.329651,0,0,0,0,0,0,0,-1,1553,512,4.38144,0.329662
336,512,4.41467,-0.741455,0,0,0,0,0,0,0,-1,1560,512,4.41467,0.741442
343,512,4.44727,-1.21667,0,0,0,0,0,0,0,-1,1567,512,4.44732,1.21666
350,512,4.55469,-1.65082,0,0,0,0,0,0,0,-1,1574,512,4.5547,1.65083
357,512,5.79993,-2.67456,0,0,0,0,0,0,0,-1,1581,512,5.79991,2.67454
364,512,13.118,-28.5485,0,0,0,0,0,0,0,-1,1588,512,13.1181,28.5485
371,512,5.28467,-7.69269,0,0,0,0,0,0,0,-1,1595,512,5.28464,7.69269
378,512,6.29407,-9.88055,0,0,0,0,0,0,0,-1,1602,512,6.29412,9.88057
385,512,6.45569,-9.32233,0,0,0,0,0,0,0,-1,1609,512,6.45565,9.3223
392,512,6.35522,-8.98425,0,0,0,0,0,0,0,-1,1616,512,6.35526,8.98422
399,512,14.1842,-27.4946,0,0,0,0,0,0,0,-1,1623,512,14.1842,27.4945
406,512,14.0354,-27.5068,0,0,0,0,0,0,0,-1,1630,512,14.0354,27.5068
413,512,14.1189,-26.9387,0,0,0,0,0,0,0,-1,1637,512,14.1188,26.9387
420,512,14.1012,-26.304,0.00124942,-0.00105665,-0.00199108,0.00239723,-0.00220446,-0.522944,0.00265757,0.0261372,1644,512,14.1012,26.3039
427,512,14.0627,-25.6437,0.00129623,-0.000481224,-0.00149956,0.00215064,-0.00133563,-0.517896,0.00203105,0.0150112,1651,512,14.0627,25.6437
434,512,14.0186,-25.0317,0.00115828,-5.35222e-05,-0.00108383,0.00179408,-0.000689317,-0.530521,0.00148032,0.0112506,1658,512,14.0186,25.0318
441,512,13.9712,-24.4066,0.00111253,0.000325501,-0.000607104,0.0014425,-4.46866e-06,-0.49785,0.000963159,0.012529,1665,512,13.9712,24.4066
448,512,13.9506,-23.7932,0.00113675,0.000624694,-0.00013121,0.00116842,0.00059303,-0.236791,0.000674611,0.00929537,1672,512,13.9505,23.7931
455,512,13.9399,-23.1689,0.00113101,0.00106189,0.000338425,0.00143664,0.000756268,0.734511,0.000829829,0.00898286,1679,512,13.94,23.1689
462,512,13.9352,-22.5359,0.00104698,0.00133581,0.000737957,0.00194335,0.000439442,0.882025,0.00117676,0.00954272,1686,512,13.9351,22.536
469,512,13.8947,-21.8898,0.000903092,0.0015821,0.0012049,0.00249441,-9.22254e-06,0.922722,0.00166602,0.0113309,1693,512,13.8947,21.8898
476,512,13.8605,-21.2459,0.000704159,0.0018904,0.00181496,0.0032067,-0.000612138,0.943326,0.00236836,0.0146341,1700,512,13.8605,21.2459
483,512,13.8486,-20.5948,0.000467924,0.00215157,0.00232262,0.00378021,-0.00116072,0.959258,0.00298329,0.0136882,1707,512,13.8486,20.5948
490,512,13.8558,-19.9435,0.000117308,0.00231504,0.00287192,0.00429114,-0.00185879,0.968117,0.00364206,0.0110303,1714,512,13.8558,19.9436
497,512,13.8286,-19.2805,-0.000310047,0.00248273,0.0034875,0.00484301,-0.00267033,0.975823,0.00439787,0.0119395,1721,512,13.8286,19.2804
504,512,13.7715,-18.6077,-0.000873817,0.00264551,0.00413508,0.00537977,-0.00360808,0.986564,0.00522263,0.013626,1728,512,13.7715,18.6077
511,512,13.718,-17.9092,-0.00158716,0.00276937,0.00480364,0.00586556,-0.00468334,0.998262,0.00610315,0.0159247,1735,512,13.718,17.9091
518,512,13.7506,-17.2408,-0.00254148,0.00283065,0.00546985,0.00623836,-0.00594919,1.01364,0.00703715,0.02018,1742,512,13.7506,17.2408
525,512,13.6053,-16.3892,-0.00378631,0.00295341,0.00604885,0.00650775,-0.00734065,1.03954,0.00800019,0.0405809,1749,512,13.6053,16.3892
532,512,13.5906,-15.3182,0,0,0,0,0,0,0,-1,1756,512,13.5905,15.3182
539,512,7.05908,-7.00647,0,0,0,0,0,0,0,-1,1763,512,7.05909,7.00647
546,512,2.77551,-0.66449,0,0,0,0,0,0,0,-1,1770,512,2.77548,0.664503
553,512,3.927,-0.448853,0,0,0,0,0,0,0,-1,1777,512,3.92704,0.448843
560,512,3.55762,-0.201233,0,0,0,0,0,0,0,-1,1784,512,3.55768,0.201259
567,512,3.09045,0.191193,0,0,0,0,0,0,0,-1,1791,512,3.09045,-0.191203
574,512,0,0,0,0,0,0,0,0,0,-1,1798,512,0,0
581,512,0,0,0,0,0,0,0,0,0,-1,1805,512,0,0
588,512,0,0,0,0,0,0,0,0,0,-1,1812,512,0,0
595,512,0,0,0,0,0,0,0,0,0,-1,1819,512,0,0
602,512,0,0,0,0,0,0,0,0,0,-1,1826,512,0,0
609,512,0,0,0,0,0,0,0,0,0,-1,1833,512,0,0
616,512,0,0,0,0,0,0,0,0,0,-1,1840,512,0,0
623,512,0,0,0,0,0,0,0,0,0,-1,1847,512,0,0
630,512,0,0,0,0,0,0,0,0,0,-1,1854,512,0,0
637,512,0,0,0,0,0,0,0,0,0,-1,1861,512,0,0
644,512,0,0,0,0,0,0,0,0,0,-1,1868,512,0,0
651,512,0,0,0,0,0,0,0,0,0,-1,1875,512,0,0
658,512,0,0,0,0,0,0,0,0,0,-1,1882,512,0,0
665,512,0,0,0,0,0,0,0,0,0,-1,1889,512,0,0
672,512,0,0,0,0,0,0,0,0,0,-1,1896,512,0,0
679,512,0,0,0,0,0,0,0,0,0,-1,1903,512,0,0
686,512,0,0,0,0,0,0,0,0,0,-1,1910,512,0,0
693,512,0,0,0,0,0,0,0,0,0,-1,1917,512,0,0
700,512,0,0,0,0,0,0,0,0,0,-1,1924,512,0,0
707,512,0,0,0,0,0,0,0,0,0,-1,1931,512,0,0
714,512,0,0,0,0,0,0,0,0,0,-1,1938,512,0,0
721,512,0,0,0,0,0,0,0,0,0,-1,1945,512,0,0
728,512,0,0,0,0,0,0,0,0,0,-1,1952,512,0,0
735,512,0,0,0,0,0,0,0,0,0,-1,1959,512,0,0
742,512,0,0,0,0,0,0,0,0,0,-1,1966,512,0,0
749,512,0,0,0,0,0,0,0,0,0,-1,1973,512,0,0
756,512,0,0,0,0,0,0,0,0,0,-1,1980,512,0,0
763,512,0,0,0,0,0,0,0,0,0,-1,1987,512,0,0
770,512,0,0,0,0,0,0,0,0,0,-1,1994,512,0,0
777,512,0,0,0,0,0,0,0,0,0,-1,2001,512,0,0
784,512,0,0,0,0,0,0,0,0,0,-1,2008,512,0,0
791,512,0,0,0,0,0,0,0,0,0,-1,2015,512,0,0
798,512,0,0,0,0,0,0,0,0,0,-1,2022,512,0,0
805,512,0,0,0,0,0,0,0,0,0,-1,2029,512,0,0
812,512,0,0,0,0,0,0,0,0,0,-1,2036,512,0,0
-700,505,0,0,0,0,0,0,0,0,0,-1,524,519,0,0
-693,505,0,0,0,0,0,0,0,0,0,-1,531,519,0,0
-686,505,0,0,0,0,0,0,0,0,0,-1,538,519,0,0
-679,505,0,0,0,0,0,0,0,0,0,-1,545,519,0,0
-672,505,0,0,0,0,0,0,0,0,0,-1,552,519,0,0
-665,505,0,0,0,0,0,0,0,0,0,-1,559,519,0,0
-658,505,0,0,0,0,0,0,0,0,0,-1,566,519,0,0
-651,505,0,0,0,0,0,0,0,0,0,-1,573,519,0,0
-644,505,0,0,0,0,0,0,0,0,0,-1,580,519,0,0
-637,505,0,0,0,0,0,0,0,0,0,-1,587,519,0,0
-630,505,0,0,0,0,0,0,0,0,0,-1,594,519,0,0
-623,505,0,0,0,0,0,0,0,0,0,-1,601,519,0,0
-616,505,0,0,0,0,0,0,0,0,0,-1,608,519,0,0
-609,505,0,0,0,0,0,0,0,0,0,-1,615,519,0,0
-602,505,0,0,0,0,0,0,0,0,0,-1,622,519,0,0
-595,505,0,0,0,0,0,0,0,0,0,-1,629,519,0,0
-588,505,0,0,0,0,0,0,0,0,0,-1,636,519,0,0
-581,505,0,0,0,0,0,0,0,0,0,-1,643,519,0,0
-574,505,0,0,0,0,0,0,0,0,0,-1,650,519,0,0
-567,505,0,0,0,0,0,0,0,0,0,-1,657,519,0,0
-560,505,0,0,0,0,0,0,0,0,0,-1,664,519,0,0
-553,505,0,0,0,0,0,0,0,0,0,-1,671,519,0,0
-546,505,0,0,0,0,0,0,0,0,0,-1,678,519,0,0
-539,505,0,0,0,0,0,0,0,0,0,-1,685,519,0,0
-532,505,0,0,0,0,0,0,0,0,0,-1,692,519,0,0
-525,505,0,0,0,0,0,0,0,0,0,-1,699,519,0,0
-518,505,0,0,0,0,0,0,0,0,0,-1,706,519,0,0
-511,505,0,0,0,0,0,0,0,0,0,-1,713,519,0,0
-504,505,0,0,0,0,0,0,0,0,0,-1,720,519,0,0
-497,505,0,0,0,0,0,0,0,0,0,-1,727,519,0,0
-490,505,0,0,0,0,0,0,0,0,0,-1,734,519,0,0
-483,505,0,0,0,0,0,0,0,0,0,-1,741,519,0,0
-476,505,0,0,0,0,0,0,0,0,0,-1,748,519,0,0
-469,505,0,0,0,0,0,0,0,0,0,-1,755,519,0,0
-462,505,0,0,0,0,0,0,0,0,0,-1,762,519,0,0
-455,505,2.72137,-3.26379,0,0,0,0,0,0,0,-1,769,519,2.72135,3.26377
-448,505,2.51111,-3.94989,0,0,0,0,0,0,0,-1,776,519,2.51112,3.94986
-441,505,2.80212,-6.8902,0,0,0,0,0,0,0,-1,783,519,2.80209,6.89019
-434,505,-0.155212,-10.6374,0,0,0,0,0,0,0,-1,790,519,-0.155194,10.6374
-427,505,-0.474426,-10.4702,0,0,0,0,0,0,0,-1,797,519,-0.474433,10.4702
-420,505,-0.922546,-10.1928,0,0,0,0,0,0,0,-1,804,519,-0.92257,10.1928
-413,505,-3.33948,-13.6183,0,0,0,0,0,0,0,-1,811,519,-3.33949,13.6184
-406,505,-2.83563,-15.1596,0,0,0,0,0,0,0,-1,818,519,-2.83563,15.1596
-399,505,-2.62683,-17.622,0,0,0,0,0,0,0,-1,825,519,-2.62682,17.622
-392,505,-2.64709,-18.3979,0.000879992,0.0140374,-0.00856394,0.0182578,-0.0033404,-1.11292,0.0134246,0.023775,832,519,-2.64707,18.3979
-385,505,-2.7002,-19.132,0.00118531,0.0119352,-0.00751428,0.015799,-0.00267849,-1.09586,0.0115297,0.0104391,839,519,-2.70018,19.132
-378,505,-2.73999,-19.7831,0.00141777,0.0100701,-0.00652049,0.013569,-0.00208119,-1.07829,0.00981359,0.0116858,846,519,-2.74001,19.7831
-371,505,-2.74554,-20.47,0.00153004,0.00828598,-0.00560152,0.0114492,-0.00163323,-1.05673,0.00823142,0.0143522,853,519,-2.74555,20.4701
-364,505,-2.76563,-21.1405,0.00153374,0.00653243,-0.00457307,0.00924458,-0.00117841,-1.03549,0.00659106,0.0148407,860,519,-2.76562,21.1405
-357,505,-2.77325,-21.7643,0.00150939,0.00496759,-0.00355857,0.00719491,-0.000717928,-1.01155,0.00505294,0.0123482,867,519,-2.77323,21.7643
-350,505,-2.81995,-22.359,0.00151223,0.00350594,-0.00261009,0.00530305,-0.000284885,-0.967812,0.00363405,0.0122031,874,519,-2.81993,22.359
-343,505,-2.85815,-22.9651,0.00149325,0.0019048,-0.00166756,0.00337924,1.88149e-05,-0.846787,0.00224658,0.0100434,881,519,-2.85817,22.9651
-336,505,-2.88361,-23.5805,0.00143617,0.000508706,-0.000785897,0.00188495,5.99243e-05,-0.518856,0.00123714,0.0122245,888,519,-2.88359,23.5805
-329,505,-2.86926,-24.1754,0.00145111,-0.000805692,4.71834e-05,0.0014521,-0.000806678,0.020895,0.00132173,0.0180799,895,519,-2.86928,24.1753
-322,505,-2.8855,-24.8036,0.00157629,-0.001978,0.000814213,0.00175393,-0.00215564,0.214809,0.00226116,0.0211068,902,519,-2.88549,24.8036
-315,505,-2.93372,-25.4245,0.00179876,-0.00303893,0.00151442,0.00223373,-0.0034739,0.279692,0.00332114,0.0155342,909,519,-2.93369,25.4245
-308,505,-2.96729,-25.9721,0.00220148,-0.00399659,0.00213085,0.00286337,-0.00465848,0.301172,0.00438377,0.0121286,916,519,-2.9673,25.9721
-301,505,-2.94794,-26.548,0.0025568,-0.00445238,0.00275956,0.00351285,-0.00540843,0.33351,0.00518932,0.0176717,923,519,-2.94796,26.548
-294,505,-2.96588,-26.8987,0.00278895,-0.00491233,0.00344597,0.00410572,-0.0062291,0.364997,0.00600864,0.042641,930,519,-2.96586,26.8987
-287,505,-3.06415,-27.5745,0,0,0,0,0,0,0,-1,937,519,-3.06414,27.5745
-280,505,-2.79846,-27.7252,0,0,0,0,0,0,0,-1,944,519,-2.79845,27.7252
-273,505,-0.0680542,-9.44867,0,0,0,0,0,0,0,-1,951,519,-0.0680462,9.44866
-266,505,-0.036377,-9.07922,0,0,0,0,0,0,0,-1,958,519,-0.0364055,9.0792
-259,505,0.10321,-6.69824,0,0,0,0,0,0,0,-1,965,519,0.103235,6.69826
-252,505,6.82312,-15.6972,0,0,0,0,0,0,0,-1,972,519,6.82314,15.6972
-245,505,4.26727,-12.9861,0,0,0,0,0,0,0,-1,979,519,4.2673,12.9861
-238,505,1.67432,-11.2307,0,0,0,0,0,0,0,-1,986,519,1.67429,11.2307
-231,505,-0.958435,-8.3075,0,0,0,0,0,0,0,-1,993,519,-0.958421,8.30751
-224,505,-3.69653,-5.12732,0,0,0,0,0,0,0,-1,1000,519,-3.69653,5.12733
-217,505,-6.34302,-1.65533,0,0,0,0,0,0,0,-1,1007,519,-6.34299,1.65535
-210,505,-3.06128,-0.396301,0,0,0,0,0,0,0,-1,1014,519,-3.06129,0.396294
-203,505,-4.26465,2.03607,0,0,0,0,0,0,0,-1,1021,519,-4.26462,-2.03606
-196,505,-5.47595,4.27295,0,0,0,0,0,0,0,-1,1028,519,-5.47597,-4.27292
-189,505,1.51526,5.56207,0,0,0,0,0,0,0,-1,1035,519,1.51523,-5.56209
-182,505,2.97815,7.5097,0,0,0,0,0,0,0,-1,1042,519,2.97812,-7.5097
-175,505,-2.38416,-2.17548,0,0,0,0,0,0,0,-1,1049,519,-2.38411,2.1755
-168,505,0,0,0,0,0,0,0,0,0,-1,1056,519,0,0
-161,505,0,0,0,0,0,0,0,0,0,-1,1063,519,0,0
-154,505,0,0,0,0,0,0,0,0,0,-1,1070,519,0,0
-147,505,0,0,0,0,0,0,0,0,0,-1,1077,519,0,0
-140,505,0,0,0,0,0,0,0,0,0,-1,1084,519,0,0
-133,505,0,0,0,0,0,0,0,0,0,-1,1091,519,0,0
-126,505,0,0,0,0,0,0,0,0,0,-1,1098,519,0,0
-119,505,0,0,0,0,0,0,0,0,0,-1,1105,519,0,0
-112,505,0,0,0,0,0,0,0,0,0,-1,1112,519,0,0
-105,505,0,0,0,0,0,0,0,0,0,-1,1119,519,0,0
-98,505,0,0,0,0,0,0,0,0,0,-1,1126,519,0,0
-91,505,0,0,0,0,0,0,0,0,0,-1,1133,519,0,0
-84,505,0,0,0,0,0,0,0,0,0,-1,1140,519,0,0
-77,505,0,0,0,0,0,0,0,0,0,-1,1147,519,0,0
-70,505,0,0,0,0,0,0,0,0,0,-1,1154,519,0,0
-63,505,0,0,0,0,0,0,0,0,0,-1,1161,519,0,0
-56,505,0,0,0,0,0,0,0,0,0,-1,1168,519,0,0
-49,505,0,0,0,0,0,0,0,0,0,-1,1175,519,0,0
-42,505,0,0,0,0,0,0,0,0,0,-1,1182,519,0,0
-35,505,0,0,0,0,0,0,0,0,0,-1,1189,519,0,0
-28,505,0,0,0,0,0,0,0,0,0,-1,1196,519,0,0
-21,505,0,0,0,0,0,0,0,0,0,-1,1203,519,0,0
-14,505,0,0,0,0,0,0,0,0,0,-1,1210,519,0,0
-7,505,0,0,0,0,0,0,0,0,0,-1,1217,519,0,0
0,505,0,0,0,0,0,0,0,0,0,-1,1224,519,0,0
7,505,0,0,0,0,0,0,0,0,0,-1,1231,519,0,0
14,505,0,0,0,0,0,0,0,0,0,-1,1238,519,0,0
21,505,0,0,0,0,0,0,0,0,0,-1,1245,519,0,0
28,505,0,0,0,0,0,0,0,0,0,-1,1252,519,0,0
35,505,0,0,0,0,0,0,0,0,0,-1,1259,519,0,0
42,505,0,0,0,0,0,0,0,0,0,-1,1266,519,0,0
49,505,0,0,0,0,0,0,0,0,0,-1,1273,519,0,0
56,505,0,0,0,0,0,0,0,0,0,-1,1280,519,0,0
63,505,0,0,0,0,0,0,0,0,0,-1,1287,519,0,0
70,505,0,0,0,0,0,0,0,0,0,-1,1294,519,0,0
77,505,0,0,0,0,0,0,0,0,0,-1,1301,519,0,0
84,505,0,0,0,0,0,0,0,0,0,-1,1308,519,0,0
91,505,0,0,0,0,0,0,0,0,0,-1,1315,519,0,0
98,505,0,0,0,0,0,0,0,0,0,-1,1322,519,0,0
105,505,0,0,0,0,0,0,0,0,0,-1,1329,519,0,0
112,505,0,0,0,0,0,0,0,0,0,-1,1336,519,0,0
119,505,0,0,0,0,0,0,0,0,0,-1,1343,519,0,0
126,505,0,0,0,0,0,0,0,0,0,-1,1350,519,0,0
133,505,0,0,0,0,0,0,0,0,0,-1,1357,519,0,0
140,505,0,0,0,0,0,0,0,0,0,-1,1364,519,0,0
147,505,0,0,0,0,0,0,0,0,0,-1,1371,519,0,0
154,505,0,0,0,0,0,0,0,0,0,-1,1378,519,0,0
161,505,0,0,0,0,0,0,0,0,0,-1,1385,519,0,0
168,505,0,0,0,0,0,0,0,0,0,-1,1392,519,0,0
175,505,0,0,0,0,0,0,0,0,0,-1,1399,519,0,0
182,505,0,0,0,0,0,0,0,0,0,-1,1406,519,0,0
189,505,0,0,0,0,0,0,0,0,0,-1,1413,519,0,0
196,505,0,0,0,0,0,0,0,0,0,-1,1420,519,0,0
203,505,0,0,0,0,0,0,0,0,0,-1,1427,519,0,0
210,505,0,0,0,0,0,0,0,0,0,-1,1434,519,0,0
217,505,0,0,0,0,0,0,0,0,0,-1,1441,519,0,0
224,505,0,0,0,0,0,0,0,0,0,-1,1448,519,0,0
231,505,0,0,0,0,0,0,0,0,0,-1,1455,519,0,0
238,505,0,0,0,0,0,0,0,0,0,-1,1462,519,0,0
245,505,0,0,0,0,0,0,0,0,0,-1,1469,519,0,0
252,505,0,0,0,0,0,0,0,0,0,-1,1476,519,0,0
259,505,0,0,0,0,0,0,0,0,0,-1,1483,519,0,0
266,505,0,0,0,0,0,0,0,0,0,-1,1490,519,0,0
273,505,0,0,0,0,0,0,0,0,0,-1,1497,519,0,0
280,505,0,0,0,0,0,0,0,0,0,-1,1504,519,0,0
287,505,4.39478,0.499512,0,0,0,0,0,0,0,-1,1511,519,4.39476,-0.499506
294,505,4.88867,0.0822754,0,0,0,0,0,0,0,-1,1518,519,4.88871,-0.0822748
301,505,4.82153,-0.0704346,0,0,0,0,0,0,0,-1,1525,519,4.82156,0.0704312
308,505,4.67761,-0.29187,0,0,0,0,0,0,0,-1,1532,519,4.67762,0.291845
315,505,8.44055,-6.54352,0,0,0,0,0,0,0,-1,1539,519,8.44059,6.54349
322,505,4.78955,-0.594116,0,0,0,0,0,0,0,-1,1546,519,4.78957,0.594096
329,505,5.16321,0.434631,0,0,0,0,0,0,0,-1,1553,519,5.16316,-0.434614
336,505,4.94495,-0.920471,0,0,0,0,0,0,0,-1,1560,519,4.945,0.920495
343,505,5.01855,-1.4823,0,0,0,0,0,0,0,-1,1567,519,5.01851,1.48227
350,505,5.33154,-1.77838,0,0,0,0,0,0,0,-1,1574,519,5.33152,1.77838
357,505,5.56567,-1.9425,0,0,0,0,0,0,0,-1,1581,519,5.56562,1.94248
364,505,5.85205,-2.6579,0,0,0,0,0,0,0,-1,1588,519,5.85211,2.65788
371,505,5.88477,-7.00922,0,0,0,0,0,0,0,-1,1595,519,5.88473,7.00924
378,505,5.44104,-7.10162,0,0,0,0,0,0,0,-1,1602,519,5.44099,7.10162
385,505,6.64661,-8.65015,0,0,0,0,0,0,0,-1,1609,519,6.64662,8.65014
392,505,6.34558,-8.3429,0,0,0,0,0,0,0,-1,1616,519,6.34554,8.34288
399,505,7.45898,-9.70386,0,0,0,0,0,0,0,-1,1623,519,7.45899,9.70388
406,505,7.08679,-9.4928,0,0,0,0,0,0,0,-1,1630,519,7.08678,9.49278
413,505,8.4032,-14.0308,0,0,0,0,0,0,0,-1,1637,519,8.4032,14.0308
420,505,14.7096,-26.4346,0,0,0,0,0,0,0,-1,1644,519,14.7095,26.4346
427,505,14.688,-25.7281,0.00152361,-0.000995426,-0.00213902,0.00274639,-0.00221821,-0.519316,0.00287171,0.0318268,1651,519,14.688,25.7281
434,505,14.6379,-25.0369,0.00132632,-0.000570081,-0.00176487,0.00238158,-0.00162534,-0.538891,0.00232708,0.0128972,1658,519,14.638,25.0369
441,505,14.6317,-24.3811,0.00128152,-0.000238493,-0.00130179,0.00202891,-0.000985887,-0.52118,0.00177498,0.010973,1665,519,14.6318,24.3811
448,505,14.5967,-23.7602,0.00134178,6.66304e-05,-0.000817414,0.00174087,-0.000332455,-0.454187,0.00128581,0.0107879,1672,519,14.5967,23.7602
455,505,14.5952,-23.1253,0.00137465,0.00054122,-0.000354964,0.00150534,0.000410532,-0.352773,0.00089854,0.0112227,1679,519,14.5952,23.1253
462,505,14.5856,-22.5026,0.00131503,0.000826678,4.42992e-05,0.00131901,0.000822693,0.0897363,0.000769264,0.0114384,1686,519,14.5856,22.5026
469,505,14.5328,-21.8591,0.00120416,0.00110119,0.000525863,0.00168105,0.000624294,0.736601,0.000981201,0.0117379,1693,519,14.5328,21.8591
476,505,14.4691,-21.2228,0.00104248,0.00142876,0.00110363,0.00235603,0.000115214,0.872025,0.00153372,0.0125211,1700,519,14.4691,21.2228
483,505,14.4727,-20.5927,0.000834925,0.00171804,0.00160304,0.00293923,-0.000386259,0.919791,0.00210011,0.0138157,1707,519,14.4726,20.5927
490,505,14.4806,-19.933,0.00047484,0.00194338,0.00210107,0.00343479,-0.00101657,0.953501,0.00269344,0.0129335,1714,519,14.4806,19.933
497,505,14.4534,-19.2792,4.63964e-05,0.00222506,0.00268204,0.00403054,-0.00175909,0.9783,0.00342733,0.0121659,1721,519,14.4533,19.2793
504,505,14.4023,-18.6082,-0.00051318,0.00240313,0.00325229,0.00450918,-0.00261923,0.996138,0.00416353,0.0126329,1728,519,14.4023,18.6082
511,505,14.3545,-17.9333,-0.00125652,0.0025978,0.00378932,0.00492186,-0.00358059,1.02064,0.00492921,0.0154551,1735,519,14.3545,17.9333
518,505,14.3983,-17.251,-0.00222995,0.00275753,0.00423433,0.00517788,-0.0046503,1.05152,0.00567703,0.0242226,1742,519,14.3983,17.251
525,505,14.2216,-16.4802,-0.00343123,0.00289553,0.00454014,0.00526566,-0.00580137,1.08967,0.00639205,0.033267,1749,519,14.2216,16.4802
532,505,14.2062,-15.439,0,0,0,0,0,0,0,-1,1756,519,14.2062,15.4389
539,505,7.90369,-7.11932,0,0,0,0,0,0,0,-1,1763,519,7.90373,7.11932
546,505,7.94946,-6.64539,0,0,0,0,0,0,0,-1,1770,519,7.94947,6.64539
553,505,2.82837,0.162659,0,0,0,0,0,0,0,-1,1777,519,2.82841,-0.162672
560,505,3.66223,-0.479797,0,0,0,0,0,0,0,-1,1784,519,3.66219,0.47982
567,505,4.65271,-0.950256,0,0,0,0,0,0,0,-1,1791,519,4.65274,0.95028
574,505,5.54443,-1.19977,0,0,0,0,0,0,0,-1,1798,519,5.54443,1.19974
581,505,0,0,0,0,0,0,0,0,0,-1,1805,519,0,0
588,505,0,0,0,0,0,0,0,0,0,-1,1812,519,0,0
595,505,0,0,0,0,0,0,0,0,0,-1,1819,519,0,0
602,505,0,0,0,0,0,0,0,0,0,-1,1826,519,0,0
609,505,0,0,0,0,0,0,0,0,0,-1,1833,519,0,0
616,505,0,0,0,0,0,0,0,0,0,-1,1840,519,0,0
623,505,0,0,0,0,0,0,0,0,0,-1,1847,519,0,0
630,505,0,0,0,0,0,0,0,0,0,-1,1854,519,0,0
637,505,0,0,0,0,0,0,0,0,0,-1,1861,519,0,0
644,505,0,0,0,0,0,0,0,0,0,-1,1868,519,0,0
651,505,0,0,0,0,0,0,0,0,0,-1,1875,519,0,0
658,505,0,0,0,0,0,0,0,0,0,-1,1882,519,0,0
665,505,0,0,0,0,0,0,0,0,0,-1,1889,519,0,0
672,505,0,0,0,0,0,0,0,0,0,-1,1896,519,0,0
679,505,0,0,0,0,0,0,0,0,0,-1,1903,519,0,0
686,505,0,0,0,0,0,0,0,0,0,-1,1910,519,0,0
693,505,0,0,0,0,0,0,0,0,0,-1,1917,519,0,0
700,505,0,0,0,0,0,0,0,0,0,-1,1924,519,0,0
707,505,0,0,0,0,0,0,0,0,0,-1,1931,519,0,0
714,505,0,0,0,0,0,0,0,0,0,-1,1938,519,0,0
721,505,0,0,0,0,0,0,0,0,0,-1,1945,519,0,0
728,505,0,0,0,0,0,0,0,0,0,-1,1952,519,0,0
735,505,0,0,0,0,0,0,0,0,0,-1,1959,519,0,0
742,505,0,0,0,0,0,0,0,0,0,-1,1966,519,0,0
749,505,0,0,0,0,0,0,0,0,0,-1,1973,519,0,0
756,505,0,0,0,0,0,0,0,0,0,-1,1980,519,0,0
763,505,0,0,0,0,0,0,0,0,0,-1,1987,519,0,0
770,505,0,0,0,0,0,0,0,0,0,-1,1994,519,0,0
777,505,0,0,0,0,0,0,0,0,0,-1,2001,519,0,0
784,505,0,0,0,0,0,0,0,0,0,-1,2008,519,0,0
791,505,0,0,0,0,0,0,0,0,0,-1,2015,519,0,0
798,505,0,0,0,0,0,0,0,0,0,-1,2022,519,0,0
805,505,0,0,0,0,0,0,0,0,0,-1,2029,519,0,0
812,505,0,0,0,0,0,0,0,0,0,-1,2036,519,0,0
-700,498,0,0,0,0,0,0,0,0,0,-1,524,526,0,0
-693,498,0,0,0,0,0,0,0,0,0,-1,531,526,0,0
-686,498,0,0,0,0,0,0,0,0,0,-1,538,526,0,0
-679,498,0,0,0,0,0,0,0,0,0,-1,545,526,0,0
-672,498,0,0,0,0,0,0,0,0,0,-1,552,526,0,0
-665,498,0,0,0,0,0,0,0,0,0,-1,559,526,0,0
-658,498,0,0,0,0,0,0,0,0,0,-1,566,526,0,0
-651,498,0,0,0,0,0,0,0,0,0,-1,573,526,0,0
-644,498,0,0,0,0,0,0,0,0,0,-1,580,526,0,0
-637,498,0,0,0,0,0,0,0,0,0,-1,587,526,0,0
-630,498,0,0,0,0,0,0,0,0,0,-1,594,526,0,0
-623,498,0,0,0,0,0,0,0,0,0,-1,601,526,0,0
-616,498,0,0,0,0,0,0,0,0,0,-1,608,526,0,0
-609,498,0,0,0,0,0,0,0,0,0,-1,615,526,0,0
-602,498,0,0,0,0,0,0,0,0,0,-1,622,526,0,0
-595,498,0,0,0,0,0,0,0,0,0,-1,629,526,0,0
-588,498,0,0,0,0,0,0,0,0,0,-1,636,526,0,0
-581,498,0,0,0,0,0,0,0,0,0,-1,643,526,0,0
-574,498,0,0,0,0,0,0,0,0,0,-1,650,526,0,0
-567,498,0,0,0,0,0,0,0,0,0,-1,657,526,0,0
-560,498,0,0,0,0,0,0,0,0,0,-1,664,526,0,0
-553,498,0,0,0,0,0,0,0,0,0,-1,671,526,0,0
-546,498,0,0,0,0,0,0,0,0,0,-1,678,526,0,0
-539,498,0,0,0,0,0,0,0,0,0,-1,685,526,0,0
-532,498,0,0,0,0,0,0,0,0,0,-1,692,526,0,0
-525,498,0,0,0,0,0,0,0,0,0,-1,699,526,0,0
-518,498,0,0,0,0,0,0,0,0,0,-1,706,526,0,0
-511,498,0,0,0,0,0,0,0,0,0,-1,713,526,0,0
-504,498,0,0,0,0,0,0,0,0,0,-1,720,526,0,0
-497,498,0,0,0,0,0,0,0,0,0,-1,727,526,0,0
-490,498,0,0,0,0,0,0,0,0,0,-1,734,526,0,0
-483,498,0,0,0,0,0,0,0,0,0,-1,741,526,0,0
-476,498,0,0,0,0,0,0,0,0,0,-1,748,526,0,0
-469,498,0,0,0,0,0,0,0,0,0,-1,755,526,0,0
-462,498,6.81024,1.15515,0,0,0,0,0,0,0,-1,762,526,6.81026,-1.15514
-455,498,3.25757,-3.0592,0,0,0,0,0,0,0,-1,769,526,3.25754,3.05921
-448,498,3.05939,-3.74298,0,0,0,0,0,0,0,-1,776,526,3.05939,3.74296
-441,498,2.77191,-6.08209,0,0,0,0,0,0,0,-1,783,526,2.77189,6.08207
-434,498,2.10681,-6.95929,0,0,0,0,0,0,0,-1,790,526,2.10682,6.9593
-427,498,-0.368042,-10.7726,0,0,0,0,0,0,0,-1,797,526,-0.36807,10.7726
-420,498,-1.05035,-10.5142,0,0,0,0,0,0,0,-1,804,526,-1.05034,10.5142
-413,498,-3.41736,-14.6664,0,0,0,0,0,0,0,-1,811,526,-3.41735,14.6664
-406,498,-3.0849,-16.7977,0,0,0,0,0,0,0,-1,818,526,-3.08492,16.7977
-399,498,-3.17017,-17.6427,4.63537e-05,0.0129748,-0.0073074,0.0162668,-0.00324568,-1.14752,0.0120727,0.0284046,825,526,-3.17015,17.6427
-392,498,-3.29218,-18.4502,0.000381336,0.0109252,-0.00651558,0.0140346,-0.00272802,-1.12554,0.0103858,0.014489,832,526,-3.29215,18.4502
-385,498,-3.33398,-19.137,0.000806086,0.0090952,-0.00569583,0.0119948,-0.00209349,-1.09992,0.00877796,0.0104485,839,526,-3.33397,19.137
-378,498,-3.34338,-19.7747,0.00117124,0.00744009,-0.00489696,0.0101199,-0.00150853,-1.07008,0.00730155,0.0112714,846,526,-3.34338,19.7747
-371,498,-3.35052,-20.4321,0.00141887,0.00585399,-0.00415614,0.00834716,-0.00107431,-1.03047,0.00595527,0.0164368,853,526,-3.35049,20.4321
-364,498,-3.38953,-21.1068,0.00156028,0.00426404,-0.00330191,0.0064801,-0.000655782,-0.979701,0.00455443,0.0160864,860,526,-3.3895,21.1067
-357,498,-3.39764,-21.7258,0.0016866,0.00287912,-0.00245024,0.00480461,-0.000238888,-0.904751,0.0032856,0.0111165,867,526,-3.39762,21.7259
-350,498,-3.43213,-22.3137,0.00183293,0.00160752,-0.00165549,0.00337955,6.09056e-05,-0.751411,0.00223301,0.0116195,874,526,-3.43215,22.3137
-343,498,-3.4447,-22.928,0.00189937,0.000162168,-0.000826365,0.00222967,-0.000168125,-0.380242,0.00154554,0.0112743,881,526,-3.44471,22.928
-336,498,-3.4729,-23.5495,0.00190201,-0.00112607,-3.6333e-05,0.00190245,-0.0011265,-0.0119964,0.00176779,0.0147451,888,526,-3.47287,23.5495
-329,498,-3.49261,-24.1312,0.0019697,-0.00232734,0.000743634,0.00209475,-0.00245239,0.166605,0.002628,0.0236736,895,526,-3.4926,24.1312
-322,498,-3.50726,-24.7658,0.00216087,-0.0033445,0.00144181,0.00251562,-0.00369924,0.241247,0.00360977,0.0251063,902,526,-3.50727,24.7658
-315,498,-3.55157,-25.3812,0.0024139,-0.00431736,0.00209094,0.00301053,-0.00491399,0.277953,0.00461901,0.01878,909,526,-3.55158,25.3812
-308,498,-3.56805,-25.9462,0.00288841,-0.00524167,0.00270347,0.0037053,-0.00605857,0.293442,0.00569149,0.0202528,916,526,-3.56804,25.9462
-301,498,-3.46948,-26.5463,0.00326855,-0.00547734,0.00343658,0.00445732,-0.00666612,0.333034,0.00646419,0.0406216,923,526,-3.4695,26.5463
-294,498,-3.3642,-27.1495,0,0,0,0,0,0,0,-1,930,526,-3.36418,27.1494
-287,498,-0.91394,-13.4327,0,0,0,0,0,0,0,-1,937,526,-0.913935,13.4327
-280,498,-0.341614,-8.66608,0,0,0,0,0,0,0,-1,944,526,-0.341589,8.66606
-273,498,-0.988892,-8.62921,0,0,0,0,0,0,0,-1,951,526,-0.988906,8.62922
-266,498,0.362488,-6.33545,0,0,0,0,0,0,0,-1,958,526,0.362478,6.33547
-259,498,10.9454,-17.3615,0,0,0,0,0,0,0,-1,965,526,10.9454,17.3614
-252,498,8.56586,-14.6886,0,0,0,0,0,0,0,-1,972,526,8.56584,14.6886
-245,498,5.97382,-11.928,0,0,0,0,0,0,0,-1,979,526,5.97381,11.928
-238,498,2.24841,-13.8145,0,0,0,0,0,0,0,-1,986,526,2.24838,13.8145
-231,498,0.665894,-10.4898,0,0,0,0,0,0,0,-1,993,526,0.665863,10.4898
-224,498,-2.11243,-4.76312,0,0,0,0,0,0,0,-1,1000,526,-2.11245,4.76314
-217,498,-3.82239,-1.42841,0,0,0,0,0,0,0,-1,1007,526,-3.82241,1.42843
-210,498,-1.80591,-0.358215,0,0,0,0,0,0,0,-1,1014,526,-1.8059,0.3582
-203,498,-3.17316,1.06641,0,0,0,0,0,0,0,-1,1021,526,-3.17313,-1.0664
-196,498,-0.103271,5.40527,0,0,0,0,0,0,0,-1,1028,526,-0.103285,-5.40528
-189,498,3.00256,6.47137,0,0,0,0,0,0,0,-1,1035,526,3.00256,-6.47139
-182,498,0,0,0,0,0,0,0,0,0,-1,1042,526,0,0
-175,498,0,0,0,0,0,0,0,0,0,-1,1049,526,0,0
-168,498,0,0,0,0,0,0,0,0,0,-1,1056,526,0,0
-161,498,0,0,0,0,0,0,0,0,0,-1,1063,526,0,0
-154,498,0,0,0,0,0,0,0,0,0,-1,1070,526,0,0
-147,498,0,0,0,0,0,0,0,0,0,-1,1077,526,0,0
-140,498,0,0,0,0,0,0,0,0,0,-1,1084,526,0,0
-133,498,0,0,0,0,0,0,0,0,0,-1,1091,526,0,0
-126,498,0,0,0,0,0,0,0,0,0,-1,1098,526,0,0
-119,498,0,0,0,0,0,0,0,0,0,-1,1105,526,0,0
-112,498,0,0,0,0,0,0,0,0,0,-1,1112,526,0,0
-105,498,0,0,0,0,0,0,0,0,0,-1,1119,526,0,0
-98,498,0,0,0,0,0,0,0,0,0,-1,1126,526,0,0
-91,498,0,0,0,0,0,0,0,0,0,-1,1133,526,0,0
-84,498,0,0,0,0,0,0,0,0,0,-1,1140,526,0,0
-77,498,0,0,0,0,0,0,0,0,0,-1,1147,526,0,0
-70,498,0,0,0,0,0,0,0,0,0,-1,1154,526,0,0
-63,498,0,0,0,0,0,0,0,0,0,-1,1161,526,0,0
-56,498,0,0,0,0,0,0,0,0,0,-1,1168,526,0,0
-49,498,0,0,0,0,0,0,0,0,0,-1,1175,526,0,0
-42,498,0,0,0,0,0,0,0,0,0,-1,1182,526,0,0
-35,498,0,0,0,0,0,0,0,0,0,-1,1189,526,0,0
-28,498,0,0,0,0,0,0,0,0,0,-1,1196,526,0,0
-21,498,0,0,0,0,0,0,0,0,0,-1,1203,526,0,0
-14,498,0,0,0,0,0,0,0,0,0,-1,1210,526,0,0
-7,498,0,0,0,0,0,0,0,0,0,-1,1217,526,0,0
0,498,0,0,0,0,0,0,0,0,0,-1,1224,526,0,0
7,498,0,0,0,0,0,0,0,0,0,-1,1231,526,0,0
14,498,0,0,0,0,0,0,0,0,0,-1,1238,526,0,0
21,498,0,0,0,0,0,0,0,0,0,-1,1245,526,0,0
28,498,0,0,0,0,0,0,0,0,0,-1,1252,526,0,0
35,498,0,0,0,0,0,0,0,0,0,-1,1259,526,0,0
42,498,0,0,0,0,0,0,0,0,0,-1,1266,526,0,0
49,498,0,0,0,0,0,0,0,0,0,-1,1273,526,0,0
56,498,0,0,0,0,0,0,0,0,0,-1,1280,526,0,0
63,498,0,0,0,0,0,0,0,0,0,-1,1287,526,0,0
70,498,0,0,0,0,0,0,0,0,0,-1,1294,526,0,0
77,498,0,0,0,0,0,0,0,0,0,-1,1301,526,0,0
84,498,0,0,0,0,0,0,0,0,0,-1,1308,526,0,0
91,498,0,0,0,0,0,0,0,0,0,-1,1315,526,0,0
98,498,0,0,0,0,0,0,0,0,0,-1,1322,526,0,0
105,498,0,0,0,0,0,0,0,0,0,-1,1329,526,0,0
112,498,0,0,0,0,0,0,0,0,0,-1,1336,526,0,0
119,498,0,0,0,0,0,0,0,0,0,-1,1343,526,0,0
126,498,0,0,0,0,0,0,0,0,0,-1,1350,526,0,0
133,498,0,0,0,0,0,0,0,0,0,-1,1357,526,0,0
140,498,0,0,0,0,0,0,0,0,0,-1,1364,526,0,0
147,498,0,0,0,0,0,0,0,0,0,-1,1371,526,0,0
154,498,0,0,0,0,0,0,0,0,0,-1,1378,526,0,0
161,498,0,0,0,0,0,0,0,0,0,-1,1385,526,0,0
168,498,0,0,0,0,0,0,0,0,0,-1,1392,526,0,0
175,498,0,0,0,0,0,0,0,0,0,-1,1399,526,0,0
182,498,0,0,0,0,0,0,0,0,0,-1,1406,526,0,0
189,498,0,0,0,0,0,0,0,0,0,-1,1413,526,0,0
196,498,0,0,0,0,0,0,0,0,0,-1,1420,526,0,0
203,498,0,0,0,0,0,0,0,0,0,-1,1427,526,0,0
210,498,0,0,0,0,0,0,0,0,0,-1,1434,526,0,0
217,498,0,0,0,0,0,0,0,0,0,-1,1441,526,0,0
224,498,0,0,0,0,0,0,0,0,0,-1,1448,526,0,0
231,498,0,0,0,0,0,0,0,0,0,-1,1455,526,0,0
238,498,0,0,0,0,0,0,0,0,0,-1,1462,526,0,0
245,498,0,0,0,0,0,0,0,0,0,-1,1469,526,0,0
252,498,0,0,0,0,0,0,0,0,0,-1,1476,526,0,0
259,498,0,0,0,0,0,0,0,0,0,-1,1483,526,0,0
266,498,0,0,0,0,0,0,0,0,0,-1,1490,526,0,0
273,498,0,0,0,0,0,0,0,0,0,-1,1497,526,0,0
280,498,0,0,0,0,0,0,0,0,0,-1,1504,526,0,0
287,498,0,0,0,0,0,0,0,0,0,-1,1511,526,0,0
294,498,0,0,0,0,0,0,0,0,0,-1,1518,526,0,0
301,498,0,0,0,0,0,0,0,0,0,-1,1525,526,0,0
308,498,4.77942,-0.293884,0,0,0,0,0,0,0,-1,1532,526,4.77939,0.293899
315,498,4.56091,-0.564148,0,0,0,0,0,0,0,-1,1539,526,4.56097,0.564142
322,498,4.52344,-0.447266,0,0,0,0,0,0,0,-1,1546,526,4.52341,0.447295
329,498,4.63232,-0.156982,0,0,0,0,0,0,0,-1,1553,526,4.63238,0.156991
336,498,5.22644,0.0925903,0,0,0,0,0,0,0,-1,1560,526,5.22648,-0.0926188
343,498,6.22607,-1.67615,0,0,0,0,0,0,0,-1,1567,526,6.22605,1.67617
350,498,6.19373,-1.59906,0,0,0,0,0,0,0,-1,1574,526,6.19367,1.59906
357,498,6.21472,-1.58929,0,0,0,0,0,0,0,-1,1581,526,6.21476,1.58927
364,498,5.73547,-1.2019,0,0,0,0,0,0,0,-1,1588,526,5.73547,1.20192
371,498,3.27087,-4.55334,0,0,0,0,0,0,0,-1,1595,526,3.27089,4.55332
378,498,8.42944,-4.70624,0,0,0,0,0,0,0,-1,1602,526,8.42942,4.70624
385,498,4.7793,-5.15314,0,0,0,0,0,0,0,-1,1609,526,4.77935,5.15311
392,498,9.12439,-8.57953,0,0,0,0,0,0,0,-1,1616,526,9.12443,8.57955
399,498,7.98938,-9.46021,0,0,0,0,0,0,0,-1,1623,526,7.98936,9.4602
406,498,7.58081,-9.26819,0,0,0,0,0,0,0,-1,1630,526,7.58085,9.26817
413,498,7.17236,-9.07611,0,0,0,0,0,0,0,-1,1637,526,7.17234,9.07614
420,498,11.4314,-16.1147,0,0,0,0,0,0,0,-1,1644,526,11.4313,16.1147
427,498,15.1554,-25.7859,0,0,0,0,0,0,0,-1,1651,526,15.1554,25.7859
434,498,15.1365,-25.0327,0.00144986,-0.00103075,-0.00242103,0.0029298,-0.00251069,-0.548677,0.00314417,0.0385634,1658,526,15.1364,25.0327
441,498,15.2489,-24.3838,0.0013763,-0.000749355,-0.00194444,0.00252942,-0.00190248,-0.535285,0.00256728,0.0139412,1665,526,15.2489,24.3838
448,498,15.2454,-23.7359,0.00144804,-0.000420105,-0.00144189,0.00223197,-0.00120404,-0.497981,0.00201315,0.0110439,1672,526,15.2454,23.7359
455,498,15.2284,-23.1036,0.00149201,9.46171e-05,-0.00100427,0.00201672,-0.000430095,-0.481472,0.00150843,0.0150112,1679,526,15.2284,23.1036
462,498,15.2186,-22.4887,0.00142928,0.000394569,-0.000617027,0.00171714,0.000106705,-0.436519,0.0011109,0.0163885,1686,526,15.2186,22.4887
469,498,15.1594,-21.864,0.00133426,0.000675316,-0.000148438,0.00136615,0.000643422,-0.21165,0.000789191,0.0140401,1693,526,15.1594,21.864
476,498,15.1438,-21.2307,0.00120506,0.000988184,0.000365546,0.00147791,0.000715329,0.641212,0.000853417,0.0109169,1700,526,15.1438,21.2307
483,498,15.1233,-20.5792,0.00102246,0.00127383,0.000845113,0.00200255,0.000293738,0.859218,0.00124869,0.00907569,1707,526,15.1233,20.5792
490,498,15.0962,-19.9487,0.000663412,0.00153019,0.00129001,0.00245766,-0.00026406,0.947454,0.00173318,0.0110093,1714,526,15.0962,19.9486
497,498,15.0743,-19.2735,0.000260172,0.00188879,0.00184405,0.00309032,-0.00094136,0.993316,0.00243542,0.0124121,1721,526,15.0744,19.2735
504,498,15.0538,-18.5992,-0.000259011,0.00205006,0.00234742,0.0035115,-0.00172045,1.01394,0.0030791,0.0147583,1728,526,15.0538,18.5993
511,498,15.009,-17.9307,-0.000960629,0.00224609,0.00278764,0.00385859,-0.00257312,1.04638,0.00373799,0.0170514,1735,526,15.0091,17.9307
518,498,15.0488,-17.252,-0.00184894,0.00242435,0.00311607,0.00406595,-0.00349055,1.08593,0.00436696,0.0188026,1742,526,15.0489,17.252
525,498,14.8979,-16.5718,-0.00288284,0.00255494,0.00332659,0.0041324,-0.00446029,1.128,0.0049622,0.0254744,1749,526,14.898,16.5718
532,498,14.7452,-15.9138,-0.00402905,0.00265616,0.00341146,0.00408965,-0.00546254,1.173,0.00553391,0.0418377,1756,526,14.7453,15.9138
539,498,14.7992,-15.2669,0,0,0,0,0,0,0,-1,1763,526,14.7992,15.2669
546,498,10.2014,-8.47589,0,0,0,0,0,0,0,-1,1770,526,10.2014,8.47589
553,498,5.93958,-1.71448,0,0,0,0,0,0,0,-1,1777,526,5.93956,1.71447
560,498,3.69385,-0.615112,0,0,0,0,0,0,0,-1,1784,526,3.69381,0.615118
567,498,5.12695,-0.581604,0,0,0,0,0,0,0,-1,1791,526,5.12699,0.58159
574,498,3.88,0.0286255,0,0,0,0,0,0,0,-1,1798,526,3.87999,-0.0286535
581,498,10.8722,2.58551,0,0,0,0,0,0,0,-1,1805,526,10.8723,-2.58551
588,498,0,0,0,0,0,0,0,0,0,-1,1812,526,0,0
595,498,0,0,0,0,0,0,0,0,0,-1,1819,526,0,0
602,498,0,0,0,0,0,0,0,0,0,-1,1826,526,0,0
609,498,0,0,0,0,0,0,0,0,0,-1,1833,526,0,0
616,498,0,0,0,0,0,0,0,0,0,-1,1840,526,0,0
623,498,0,0,0,0,0,0,0,0,0,-1,1847,526,0,0
630,498,0,0,0,0,0,0,0,0,0,-1,1854,526,0,0
637,498,0,0,0,0,0,0,0,0,0,-1,1861,526,0,0
644,498,0,0,0,0,0,0,0,0,0,-1,1868,526,0,0
651,498,0,0,0,0,0,0,0,0,0,-1,1875,526,0,0
658,498,0,0,0,0,0,0,0,0,0,-1,1882,526,0,0
665,498,0,0,0,0,0,0,0,0,0,-1,1889,526,0,0
672,498,0,0,0,0,0,0,0,0,0,-1,1896,526,0,0
679,498,0,0,0,0,0,0,0,0,0,-1,1903,526,0,0
686,498,0,0,0,0,0,0,0,0,0,-1,1910,526,0,0
693,498,0,0,0,0,0,0,0,0,0,-1,1917,526,0,0
700,498,0,0,0,0,0,0,0,0,0,-1,1924,526,0,0
707,498,0,0,0,0,0,0,0,0,0,-1,1931,526,0,0
714,498,0,0,0,0,0,0,0,0,0,-1,1938,526,0,0
721,498,0,0,0,0,0,0,0,0,0,-1,1945,526,0,0
728,498,0,0,0,0,0,0,0,0,0,-1,1952,526,0,0
735,498,0,0,0,0,0,0,0,0,0,-1,1959,526,0,0
742,498,0,0,0,0,0,0,0,0,0,-1,1966,526,0,0
749,498,0,0,0,0,0,0,0,0,0,-1,1973,526,0,0
756,498,0,0,0,0,0,0,0,0,0,-1,1980,526,0,0
763,498,0,0,0,0,0,0,0,0,0,-1,1987,526,0,0
770,498,0,0,0,0,0,0,0,0,0,-1,1994,526,0,0
777,498,0,0,0,0,0,0,0,0,0,-1,2001,526,0,0
784,498,0,0,0,0,0,0,0,0,0,-1,2008,526,0,0
791,498,0,0,0,0,0,0,0,0,0,-1,2015,526,0,0
798,498,0,0,0,0,0,0,0,0,0,-1,2022,526,0,0
805,498,0,0,0,0,0,0,0,0,0,-1,2029,526,0,0
812,498,0,0,0,0,0,0,0,0,0,-1,2036,526,0,0
-700,491,0,0,0,0,0,0,0,0,0,-1,524,533,0,0
-693,491,0,0,0,0,0,0,0,0,0,-1,531,533,0,0
-686,491,0,0,0,0,0,0,0,0,0,-1,538,533,0,0
-679,491,0,0,0,0,0,0,0,0,0,-1,545,533,0,0
-672,491,0,0,0,0,0,0,0,0,0,-1,552,533,0,0
-665,491,0,0,0,0,0,0,0,0,0,-1,559,533,0,0
-658,491,0,0,0,0,0,0,0,0,0,-1,566,533,0,0
-651,491,0,0,0,0,0,0,0,0,0,-1,573,533,0,0
-644,491,0,0,0,0,0,0,0,0,0,-1,580,533,0,0
-637,491,0,0,0,0,0,0,0,0,0,-1,587,533,0,0
-630,491,0,0,0,0,0,0,0,0,0,-1,594,533,0,0
-623,491,0,0,0,0,0,0,0,0,0,-1,601,533,0,0
-616,491,0,0,0,0,0,0,0,0,0,-1,608,533,0,0
-609,491,0,0,0,0,0,0,0,0,0,-1,615,533,0,0
-602,491,0,0,0,0,0,0,0,0,0,-1,622,533,0,0
-595,491,0,0,0,0,0,0,0,0,0,-1,629,533,0,0
-588,491,0,0,0,0,0,0,0,0,0,-1,636,533,0,0
-581,491,0,0,0,0,0,0,0,0,0,-1,643,533,0,0
-574,491,0,0,0,0,0,0,0,0,0,-1,650,533,0,0
-567,491,0,0,0,0,0,0,0,0,0,-1,657,533,0,0
-560,491,0,0,0,0,0,0,0,0,0,-1,664,533,0,0
-553,491,0,0,0,0,0,0,0,0,0,-1,671,533,0,0
-546,491,0,0,0,0,0,0,0,0,0,-1,678,533,0,0
-539,491,0,0,0,0,0,0,0,0,0,-1,685,533,0,0
-532,491,0,0,0,0,0,0,0,0,0,-1,692,533,0,0
-525,491,0,0,0,0,0,0,0,0,0,-1,699,533,0,0
-518,491,0,0,0,0,0,0,0,0,0,-1,706,533,0,0
-511,491,0,0,0,0,0,0,0,0,0,-1,713,533,0,0
-504,491,0,0,0,0,0,0,0,0,0,-1,720,533,0,0
-497,491,0,0,0,0,0,0,0,0,0,-1,727,533,0,0
-490,491,0,0,0,0,0,0,0,0,0,-1,734,533,0,0
-483,491,0,0,0,0,0,0,0,0,0,-1,741,533,0,0
-476,491,0,0,0,0,0,0,0,0,0,-1,748,533,0,0
-469,491,-5.85913,4.55011,0,0,0,0,0,0,0,-1,755,533,-5.8591,-4.55009
-462,491,-9.93713,4.90381,0,0,0,0,0,0,0,-1,762,533,-9.93716,-4.9038
-455,491,1.9494,-0.27887,0,0,0,0,0,0,0,-1,769,533,1.94941,0.27885
-448,491,2.68909,-1.8999,0,0,0,0,0,0,0,-1,776,533,2.6891,1.89988
-441,491,3.46069,-3.51855,0,0,0,0,0,0,0,-1,783,533,3.46071,3.51854
-434,491,2.67145,-7.44061,0,0,0,0,0,0,0,-1,790,533,2.67146,7.44061
-427,491,2.27136,-8.34546,0,0,0,0,0,0,0,-1,797,533,2.27136,8.34546
-420,491,-3.89307,-14.6592,0,0,0,0,0,0,0,-1,804,533,-3.89308,14.6592
-413,491,-3.75507,-16.2405,0,0,0,0,0,0,0,-1,811,533,-3.75509,16.2405
-406,491,-3.7746,-17.0925,-0.000529354,0.0122418,-0.00616472,0.014732,-0.00301954,-1.1869,0.0109673,0.0250399,818,533,-3.77461,17.0925
-399,491,-3.83893,-17.8551,-0.000170664,0.010171,-0.00552048,0.0125641,-0.00256378,-1.16175,0.00934857,0.012494,825,533,-3.8389,17.8551
-392,491,-3.91998,-18.5222,0.000185553,0.00831249,-0.00484188,0.0105701,-0.00207202,-1.1345,0.00782932,0.0116471,832,533,-3.91998,18.5221
-385,491,-3.9444,-19.1467,0.000657036,0.00668902,-0.00418868,0.00883454,-0.00148849,-1.09742,0.00644343,0.0108497,839,533,-3.94437,19.1467
-378,491,-3.93365,-19.7542,0.00108501,0.00519317,-0.00353262,0.00722549,-0.000947308,-1.04874,0.00516182,0.0146383,846,533,-3.93368,19.7541
-371,491,-3.97388,-20.3848,0.00142327,0.0037634,-0.00292763,0.00574612,-0.00055945,-0.975506,0.00403019,0.0145683,853,533,-3.97386,20.3848
-364,491,-4.01917,-21.0474,0.00166843,0.00232616,-0.00221443,0.00423601,-0.000241417,-0.859114,0.00290782,0.0132845,860,533,-4.01917,21.0474
-357,491,-4.02777,-21.6584,0.00191864,0.0010989,-0.00150521,0.00306879,-5.12506e-05,-0.652471,0.00206316,0.0119872,867,533,-4.02776,21.6585
-350,491,-4.04956,-22.2626,0.00219341,-1.44606e-05,-0.00084978,0.0024826,-0.000303652,-0.328019,0.00176501,0.0155821,874,533,-4.04954,22.2627
-343,491,-4.04688,-22.883,0.0023471,-0.00131097,-0.000128101,0.00235158,-0.00131545,-0.0349616,0.00214515,0.0236502,881,533,-4.04685,22.883
-336,491,-4.08118,-23.4527,0.00243004,-0.00251567,0.000572627,0.00249548,-0.00258111,0.113777,0.00293111,0.0244702,888,533,-4.08119,23.4527
-329,491,-4.15259,-24.0836,0.00258098,-0.00363864,0.00130957,0.00284547,-0.00390313,0.199285,0.00391222,0.0277025,895,533,-4.15257,24.0836
-322,491,-4.16119,-24.7084,0.00288107,-0.00452401,0.00194881,0.00336263,-0.00500557,0.24225,0.00486232,0.0252393,902,533,-4.1612,24.7084
-315,491,-4.18903,-25.2717,0.00320865,-0.00546252,0.00254753,0.0039017,-0.00615557,0.265621,0.00585497,0.0205222,909,533,-4.189,25.2717
-308,491,-4.17981,-25.9214,0,0,0,0,0,0,0,-1,916,533,-4.1798,25.9214
-301,491,-4.08368,-26.8619,0,0,0,0,0,0,0,-1,923,533,-4.08368,26.8619
-294,491,-0.777283,-8.60913,0,0,0,0,0,0,0,-1,930,533,-0.777288,8.6091
-287,491,-0.26123,-8.69055,0,0,0,0,0,0,0,-1,937,533,-0.261204,8.69053
-280,491,0.2948,-5.99219,0,0,0,0,0,0,0,-1,944,533,0.294811,5.99221
-273,491,0.369995,-5.33691,0,0,0,0,0,0,0,-1,951,533,0.369985,5.33693
-266,491,1.1167,-5.0321,0,0,0,0,0,0,0,-1,958,533,1.11668,5.0321
-259,491,12.0862,-16.9615,0,0,0,0,0,0,0,-1,965,533,12.0862,16.9615
-252,491,9.72443,-13.8417,0,0,0,0,0,0,0,-1,972,533,9.72444,13.8418
-245,491,5.27258,-14.3619,0,0,0,0,0,0,0,-1,979,533,5.27255,14.3619
-238,491,3.65381,-11.1472,0,0,0,0,0,0,0,-1,986,533,3.6538,11.1472
-231,491,2.17719,-7.86835,0,0,0,0,0,0,0,-1,993,533,2.17719,7.86832
-224,491,0.554626,-4.61725,0,0,0,0,0,0,0,-1,1000,533,0.554608,4.61727
-217,491,-2.92743,-1.0766,0,0,0,0,0,0,0,-1,1007,533,-2.92743,1.07659
-210,491,-0.92395,0.374512,0,0,0,0,0,0,0,-1,1014,533,-0.923959,-0.374531
-203,491,0.417419,4.77161,0,0,0,0,0,0,0,-1,1021,533,0.417446,-4.77162
-196,491,0,0,0,0,0,0,0,0,0,-1,1028,533,0,0
-189,491,0,0,0,0,0,0,0,0,0,-1,1035,533,0,0
-182,491,0,0,0,0,0,0,0,0,0,-1,1042,533,0,0
-175,491,0,0,0,0,0,0,0,0,0,-1,1049,533,0,0
-168,491,0,0,0,0,0,0,0,0,0,-1,1056,533,0,0
-161,491,0,0,0,0,0,0,0,0,0,-1,1063,533,0,0
-154,491,0,0,0,0,0,0,0,0,0,-1,1070,533,0,0
-147,491,0,0,0,0,0,0,0,0,0,-1,1077,533,0,0
-140,491,0,0,0,0,0,0,0,0,0,-1,1084,533,0,0
-133,491,0,0,0,0,0,0,0,0,0,-1,1091,533,0,0
-126,491,0,0,0,0,0,0,0,0,0,-1,1098,533,0,0
-119,491,0,0,0,0,0,0,0,0,0,-1,1105,533,0,0
-112,491,0,0,0,0,0,0,0,0,0,-1,1112,533,0,0
-105,491,0,0,0,0,0,0,0,0,0,-1,1119,533,0,0
-98,491,0,0,0,0,0,0,0,0,0,-1,1126,533,0,0
-91,491,0,0,0,0,0,0,0,0,0,-1,1133,533,0,0
-84,491,0,0,0,0,0,0,0,0,0,-1,1140,533,0,0
-77,491,0,0,0,0,0,0,0,0,0,-1,1147,533,0,0
-70,491,0,0,0,0,0,0,0,0,0,-1,1154,533,0,0
-63,491,0,0,0,0,0,0,0,0,0,-1,1161,533,0,0
-56,491,0,0,0,0,0,0,0,0,0,-1,1168,533,0,0
-49,491,0,0,0,0,0,0,0,0,0,-1,1175,533,0,0
-42,491,0,0,0,0,0,0,0,0,0,-1,1182,533,0,0
-35,491,0,0,0,0,0,0,0,0,0,-1,1189,533,0,0
-28,491,0,0,0,0,0,0,0,0,0,-1,1196,533,0,0
-21,491,0,0,0,0,0,0,0,0,0,-1,1203,533,0,0
-14,491,0,0,0,0,0,0,0,0,0,-1,1210,533,0,0
-7,491,0,0,0,0,0,0,0,0,0,-1,1217,533,0,0
0,491,0,0,0,0,0,0,0,0,0,-1,1224,533,0,0
7,491,0,0,0,0,0,0,0,0,0,-1,1231,533,0,0
14,491,0,0,0,0,0,0,0,0,0,-1,1238,533,0,0
21,491,0,0,0,0,0,0,0,0,0,-1,1245,533,0,0
28,491,0,0,0,0,0,0,0,0,0,-1,1252,533,0,0
35,491,0,0,0,0,0,0,0,0,0,-1,1259,533,0,0
42,491,0,0,0,0,0,0,0,0,0,-1,1266,533,0,0
49,491,0,0,0,0,0,0,0,0,0,-1,1273,533,0,0
56,491,0,0,0,0,0,0,0,0,0,-1,1280,533,0,0
63,491,0,0,0,0,0,0,0,0,0,-1,1287,533,0,0
70,491,0,0,0,0,0,0,0,0,0,-1,1294,533,0,0
77,491,0,0,0,0,0,0,0,0,0,-1,1301,533,0,0
84,491,0,0,0,0,0,0,0,0,0,-1,1308,533,0,0
91,491,0,0,0,0,0,0,0,0,0,-1,1315,533,0,0
98,491,0,0,0,0,0,0,0,0,0,-1,1322,533,0,0
105,491,0,0,0,0,0,0,0,0,0,-1,1329,533,0,0
112,491,0,0,0,0,0,0,0,0,0,-1,1336,533,0,0
119,491,0,0,0,0,0,0,0,0,0,-1,1343,533,0,0
126,491,0,0,0,0,0,0,0,0,0,-1,1350,533,0,0
133,491,0,0,0,0,0,0,0,0,0,-1,1357,533,0,0
140,491,0,0,0,0,0,0,0,0,0,-1,1364,533,0,0
147,491,0,0,0,0,0,0,0,0,0,-1,1371,533,0,0
154,491,0,0,0,0,0,0,0,0,0,-1,1378,533,0,0
161,491,0,0,0,0,0,0,0,0,0,-1,1385,533,0,0
168,491,0,0,0,0,0,0,0,0,0,-1,1392,533,0,0
175,491,0,0,0,0,0,0,0,0,0,-1,1399,533,0,0
182,491,0,0,0,0,0,0,0,0,0,-1,1406,533,0,0
189,491,0,0,0,0,0,0,0,0,0,-1,1413,533,0,0
196,491,0,0,0,0,0,0,0,0,0,-1,1420,533,0,0
203,491,0,0,0,0,0,0,0,0,0,-1,1427,533,0,0
210,491,0,0,0,0,0,0,0,0,0,-1,1434,533,0,0
217,491,0,0,0,0,0,0,0,0,0,-1,1441,533,0,0
224,491,0,0,0,0,0,0,0,0,0,-1,1448,533,0,0
231,491,0,0,0,0,0,0,0,0,0,-1,1455,533,0,0
238,491,0,0,0,0,0,0,0,0,0,-1,1462,533,0,0
245,491,0,0,0,0,0,0,0,0,0,-1,1469,533,0,0
252,491,0,0,0,0,0,0,0,0,0,-1,1476,533,0,0
259,491,0,0,0,0,0,0,0,0,0,-1,1483,533,0,0
266,491,0,0,0,0,0,0,0,0,0,-1,1490,533,0,0
273,491,0,0,0,0,0,0,0,0,0,-1,1497,533,0,0
280,491,0,0,0,0,0,0,0,0,0,-1,1504,533,0,0
287,491,0,0,0,0,0,0,0,0,0,-1,1511,533,0,0
294,491,0,0,0,0,0,0,0,0,0,-1,1518,533,0,0
301,491,0,0,0,0,0,0,0,0,0,-1,1525,533,0,0
308,491,0,0,0,0,0,0,0,0,0,-1,1532,533,0,0
315,491,0,0,0,0,0,0,0,0,0,-1,1539,533,0,0
322,491,4.26331,-0.734314,0,0,0,0,0,0,0,-1,1546,533,4.26326,0.734324
329,491,4.25354,-0.783752,0,0,0,0,0,0,0,-1,1553,533,4.25359,0.783734
336,491,4.81604,-0.722107,0,0,0,0,0,0,0,-1,1560,533,4.81605,0.722115
343,491,6.14478,-1.44281,0,0,0,0,0,0,0,-1,1567,533,6.14474,1.44281
350,491,6.36353,-1.30792,0,0,0,0,0,0,0,-1,1574,533,6.36352,1.3079
357,491,6.69482,-1.06018,0,0,0,0,0,0,0,-1,1581,533,6.69489,1.06018
364,491,8.01086,-1.69604,0,0,0,0,0,0,0,-1,1588,533,8.01087,1.69607
371,491,8.2135,-0.539307,0,0,0,0,0,0,0,-1,1595,533,8.21348,0.53929
378,491,13.3589,2.17267,0,0,0,0,0,0,0,-1,1602,533,13.3589,-2.17264
385,491,8.08228,-4.95471,0,0,0,0,0,0,0,-1,1609,533,8.08227,4.95474
392,491,2.88721,-4.30988,0,0,0,0,0,0,0,-1,1616,533,2.88716,4.30986
399,491,8.95862,-8.55518,0,0,0,0,0,0,0,-1,1623,533,8.95864,8.55516
406,491,8.16541,-9.00806,0,0,0,0,0,0,0,-1,1630,533,8.16535,9.00807
413,491,5.31848,-3.7124,0,0,0,0,0,0,0,-1,1637,533,5.31849,3.7124
420,491,4.86389,-3.95892,0,0,0,0,0,0,0,-1,1644,533,4.86387,3.95893
427,491,11.5096,-15.2742,0,0,0,0,0,0,0,-1,1651,533,11.5096,15.2742
434,491,15.925,-24.6061,0,0,0,0,0,0,0,-1,1658,533,15.925,24.6061
441,491,15.8954,-24.0919,0.00148385,-0.00134049,-0.00262329,0.00305092,-0.00290755,-0.538482,0.00344046,0.0469438,1665,533,15.8954,24.0918
448,491,15.8553,-23.7628,0.00154589,-0.000890405,-0.00207321,0.00273233,-0.00207685,-0.519785,0.00278517,0.0334432,1672,533,15.8554,23.7628
455,491,15.8401,-23.1047,0.00158644,-0.000285577,-0.0016442,0.00254239,-0.00124153,-0.526636,0.00222726,0.0194062,1679,533,15.8401,23.1047
462,491,15.8374,-22.4617,0.00154285,8.23274e-05,-0.0011945,0.00221263,-0.000587454,-0.511036,0.00170498,0.0157165,1686,533,15.8374,22.4617
469,491,15.79,-21.8361,0.00147872,0.000371625,-0.000706017,0.00182232,2.80231e-05,-0.452931,0.00120565,0.0147033,1693,533,15.79,21.8361
476,491,15.7991,-21.2045,0.00139906,0.000643415,-0.000238093,0.00146782,0.000574653,-0.281155,0.000854074,0.0110906,1700,533,15.7991,21.2045
483,491,15.7842,-20.5369,0.00125654,0.000899561,0.000253394,0.001388,0.000768105,0.478561,0.000802884,0.0123627,1707,533,15.7842,20.5369
490,491,15.7507,-19.9178,0.000918176,0.00116548,0.000672941,0.00172604,0.00035762,0.876259,0.00105195,0.0105532,1714,533,15.7507,19.9178
497,491,15.7205,-19.2556,0.000553457,0.00156242,0.00121665,0.00237503,-0.000259159,0.981932,0.00167643,0.0118177,1721,533,15.7205,19.2555
504,491,15.7114,-18.574,8.38818e-05,0.00167698,0.00166645,0.00272747,-0.000966605,1.00834,0.00221207,0.0141864,1728,533,15.7114,18.574
511,491,15.6643,-17.9045,-0.000565058,0.00183927,0.00202694,0.00299373,-0.00171952,1.05306,0.00275415,0.0135666,1735,533,15.6643,17.9046
518,491,15.6366,-17.2623,-0.0013718,0.00199879,0.00226757,0.00313876,-0.00251176,1.10497,0.00326902,0.0106417,1742,533,15.6366,17.2622
525,491,15.6257,-16.5919,-0.00226347,0.00210546,0.00240746,0.00317181,-0.00332981,1.15384,0.00375408,0.0107382,1749,533,15.6257,16.5919
532,491,15.6165,-15.9189,-0.00320875,0.00224046,0.00245221,0.00318148,-0.00414977,1.20438,0.00424499,0.0215318,1756,533,15.6164,15.919
539,491,15.4669,-15.3617,-0.00426771,0.00241758,0.00232656,0.00314755,-0.00499768,1.26677,0.00474292,0.0403804,1763,533,15.467,15.3617
546,491,15.1809,-14.5809,0,0,0,0,0,0,0,-1,1770,533,15.181,14.5809
553,491,10.5021,-7.77869,0,0,0,0,0,0,0,-1,1777,533,10.502,7.77871
560,491,6.28455,-1.43585,0,0,0,0,0,0,0,-1,1784,533,6.28458,1.43586
567,491,5.67651,-1.3562,0,0,0,0,0,0,0,-1,1791,533,5.67649,1.3562
574,491,8.0719,1.58325,0,0,0,0,0,0,0,-1,1798,533,8.07195,-1.58326
581,491,9.44812,1.60931,0,0,0,0,0,0,0,-1,1805,533,9.44808,-1.60933
588,491,11.0497,1.54962,0,0,0,0,0,0,0,-1,1812,533,11.0496,-1.54963
595,491,0,0,0,0,0,0,0,0,0,-1,1819,533,0,0
602,491,0,0,0,0,0,0,0,0,0,-1,1826,533,0,0
609,491,0,0,0,0,0,0,0,0,0,-1,1833,533,0,0
616,491,0,0,0,0,0,0,0,0,0,-1,1840,533,0,0
623,491,0,0,0,0,0,0,0,0,0,-1,1847,533,0,0
630,491,0,0,0,0,0,0,0,0,0,-1,1854,533,0,0
637,491,0,0,0,0,0,0,0,0,0,-1,1861,533,0,0
644,491,0,0,0,0,0,0,0,0,0,-1,1868,533,0,0
651,491,0,0,0,0,0,0,0,0,0,-1,1875,533,0,0
658,491,0,0,0,0,0,0,0,0,0,-1,1882,533,0,0
665,491,0,0,0,0,0,0,0,0,0,-1,1889,533,0,0
672,491,0,0,0,0,0,0,0,0,0,-1,1896,533,0,0
679,491,0,0,0,0,0,0,0,0,0,-1,1903,533,0,0
686,491,0,0,0,0,0,0,0,0,0,-1,1910,533,0,0
693,491,0,0,0,0,0,0,0,0,0,-1,1917,533,0,0
700,491,0,0,0,0,0,0,0,0,0,-1,1924,533,0,0
707,491,0,0,0,0,0,0,0,0,0,-1,1931,533,0,0
714,491,0,0,0,0,0,0,0,0,0,-1,1938,533,0,0
721,491,0,0,0,0,0,0,0,0,0,-1,1945,533,0,0
728,491,0,0,0,0,0,0,0,0,0,-1,1952,533,0,0
735,491,0,0,0,0,0,0,0,0,0,-1,1959,533,0,0
742,491,0,0,0,0,0,0,0,0,0,-1,1966,533,0,0
749,491,0,0,0,0,0,0,0,0,0,-1,1973,533,0,0
756,491,0,0,0,0,0,0,0,0,0,-1,1980,533,0,0
763,491,0,0,0,0,0,0,0,0,0,-1,1987,533,0,0
770,491,0,0,0,0,0,0,0,0,0,-1,1994,533,0,0
777,491,0,0,0,0,0,0,0,0,0,-1,2001,533,0,0
784,491,0,0,0,0,0,0,0,0,0,-1,2008,533,0,0
791,491,0,0,0,0,0,0,0,0,0,-1,2015,533,0,0
798,491,0,0,0,0,0,0,0,0,0,-1,2022,533,0,0
805,491,0,0,0,0,0,0,0,0,0,-1,2029,533,0,0
812,491,0,0,0,0,0,0,0,0,0,-1,2036,533,0,0
-700,484,0,0,0,0,0,0,0,0,0,-1,524,540,0,0
-693,484,0,0,0,0,0,0,0,0,0,-1,531,540,0,0
-686,484,0,0,0,0,0,0,0,0,0,-1,538,540,0,0
-679,484,0,0,0,0,0,0,0,0,0,-1,545,540,0,0
-672,484,0,0,0,0,0,0,0,0,0,-1,552,540,0,0
-665,484,0,0,0,0,0,0,0,0,0,-1,559,540,0,0
-658,484,0,0,0,0,0,0,0,0,0,-1,566,540,0,0
-651,484,0,0,0,0,0,0,0,0,0,-1,573,540,0,0
-644,484,0,0,0,0,0,0,0,0,0,-1,580,540,0,0
-637,484,0,0,0,0,0,0,0,0,0,-1,587,540,0,0
-630,484,0,0,0,0,0,0,0,0,0,-1,594,540,0,0
-623,484,0,0,0,0,0,0,0,0,0,-1,601,540,0,0
-616,484,0,0,0,0,0,0,0,0,0,-1,608,540,0,0
-609,484,0,0,0,0,0,0,0,0,0,-1,615,540,0,0
-602,484,0,0,0,0,0,0,0,0,0,-1,622,540,0,0
-595,484,0,0,0,0,0,0,0,0,0,-1,629,540,0,0
-588,484,0,0,0,0,0,0,0,0,0,-1,636,540,0,0
-581,484,0,0,0,0,0,0,0,0,0,-1,643,540,0,0
-574,484,0,0,0,0,0,0,0,0,0,-1,650,540,0,0
-567,484,0,0,0,0,0,0,0,0,0,-1,657,540,0,0
-560,484,0,0,0,0,0,0,0,0,0,-1,664,540,0,0
-553,484,0,0,0,0,0,0,0,0,0,-1,671,540,0,0
-546,484,0,0,0,0,0,0,0,0,0,-1,678,540,0,0
-539,484,0,0,0,0,0,0,0,0,0,-1,685,540,0,0
-532,484,0,0,0,0,0,0,0,0,0,-1,692,540,0,0
-525,484,0,0,0,0,0,0,0,0,0,-1,699,540,0,0
-518,484,0,0,0,0,0,0,0,0,0,-1,706,540,0,0
-511,484,0,0,0,0,0,0,0,0,0,-1,713,540,0,0
-504,484,0,0,0,0,0,0,0,0,0,-1,720,540,0,0
-497,484,0,0,0,0,0,0,0,0,0,-1,727,540,0,0
-490,484,0,0,0,0,0,0,0,0,0,-1,734,540,0,0
-483,484,0,0,0,0,0,0,0,0,0,-1,741,540,0,0
-476,484,-8.46552,1.44702,0,0,0,0,0,0,0,-1,748,540,-8.46554,-1.44702
-469,484,-7.82343,1.70355,0,0,0,0,0,0,0,-1,755,540,-7.82345,-1.70355
-462,484,-8.36987,3.08612,0,0,0,0,0,0,0,-1,762,540,-8.36988,-3.0861
-455,484,-6.77197,2.07092,0,0,0,0,0,0,0,-1,769,540,-6.77197,-2.07094
-448,484,3.54895,-1.40106,0,0,0,0,0,0,0,-1,776,540,3.54897,1.40106
-441,484,4.28906,-3.05884,0,0,0,0,0,0,0,-1,783,540,4.28905,3.05883
-434,484,-2.17548,-5.07245,0,0,0,0,0,0,0,-1,790,540,-2.17546,5.07243
-427,484,-4.27148,-14.6173,0,0,0,0,0,0,0,-1,797,540,-4.2715,14.6173
-420,484,-4.27246,-15.0513,0,0,0,0,0,0,0,-1,804,540,-4.27249,15.0513
-413,484,-4.32166,-16.316,-0.00087036,0.0113478,-0.00516664,0.0132396,-0.00276223,-1.21979,0.00987676,0.0302674,811,540,-4.32163,16.316
-406,484,-4.41138,-17.1228,-0.000467567,0.00944658,-0.00465224,0.0112877,-0.00230872,-1.19395,0.00840115,0.0157775,818,540,-4.41136,17.1228
-399,484,-4.51233,-17.8531,-0.00012837,0.00757773,-0.0040579,0.00932044,-0.00187108,-1.16515,0.00692214,0.0157138,825,540,-4.51233,17.8531
-392,484,-4.5376,-18.4529,0.000240174,0.00589459,-0.00344697,0.00752548,-0.00139072,-1.12887,0.00553907,0.0188128,832,540,-4.53761,18.4529
-385,484,-4.5675,-19.1104,0.000729429,0.00444705,-0.0029004,0.00603316,-0.000856684,-1.07037,0.00433597,0.0135718,839,540,-4.56752,19.1104
-378,484,-4.58344,-19.7454,0.00119243,0.00309574,-0.0023435,0.00467344,-0.000385266,-0.978267,0.00325166,0.0140697,846,540,-4.58343,19.7454
-371,484,-4.63507,-20.3499,0.0015957,0.00183018,-0.00183662,0.0035533,-0.000127416,-0.817272,0.00241246,0.0151877,853,540,-4.6351,20.3499
-364,484,-4.66772,-20.9698,0.00192037,0.000596406,-0.00125195,0.00267458,-0.000157801,-0.542203,0.00183791,0.0115548,860,540,-4.66774,20.9698
-357,484,-4.67072,-21.594,0.00227055,-0.000407194,-0.000696626,0.00244094,-0.000577582,-0.239881,0.00185012,0.0135571,867,540,-4.67074,21.594
-350,484,-4.7038,-22.2233,0.00265281,-0.00127129,-0.000212656,0.0026643,-0.00128278,-0.0539816,0.00232491,0.0153298,874,540,-4.70381,22.2233
-343,484,-4.68927,-22.8759,0.0028868,-0.0022754,0.000344912,0.00290974,-0.00229835,0.0664214,0.00301379,0.022434,881,540,-4.6893,22.8759
-336,484,-4.69702,-23.4699,0.00306486,-0.00324827,0.000875741,0.00318409,-0.0033675,0.135314,0.00378305,0.0257893,888,540,-4.697,23.4699
-329,484,-4.75055,-24.0188,0.00334143,-0.00414478,0.00147308,0.00362086,-0.00442421,0.187465,0.00465254,0.0375458,895,540,-4.75056,24.0188
-322,484,-4.73468,-24.6561,0,0,0,0,0,0,0,-1,902,540,-4.73469,24.6561
-315,484,-4.64825,-25.2623,0,0,0,0,0,0,0,-1,909,540,-4.64826,25.2622
-308,484,-1.32623,-8.9317,0,0,0,0,0,0,0,-1,916,540,-1.32626,8.93173
-301,484,-1.33453,-6.52667,0,0,0,0,0,0,0,-1,923,540,-1.33454,6.5267
-294,484,-1.61224,-8.17059,0,0,0,0,0,0,0,-1,930,540,-1.61227,8.17058
-287,484,-0.715759,-5.62103,0,0,0,0,0,0,0,-1,937,540,-0.715772,5.62105
-280,484,2.66742,-1.6795,0,0,0,0,0,0,0,-1,944,540,2.6674,1.67949
-273,484,2.53125,-2.22296,0,0,0,0,0,0,0,-1,951,540,2.53128,2.22295
-266,484,2.6778,-2.72058,0,0,0,0,0,0,0,-1,958,540,2.6778,2.72061
-259,484,2.41718,-2.59894,0,0,0,0,0,0,0,-1,965,540,2.41717,2.59892
-252,484,10.6069,-11.696,0,0,0,0,0,0,0,-1,972,540,10.6069,11.696
-245,484,6.34106,-11.6107,0,0,0,0,0,0,0,-1,979,540,6.34104,11.6107
-238,484,4.89319,-8.54059,0,0,0,0,0,0,0,-1,986,540,4.89321,8.5406
-231,484,3.47675,-5.22064,0,0,0,0,0,0,0,-1,993,540,3.47676,5.22067
-224,484,1.71344,-2.03473,0,0,0,0,0,0,0,-1,1000,540,1.71342,2.03472
-217,484,-0.745056,1.17358,0,0,0,0,0,0,0,-1,1007,540,-0.745043,-1.17359
-210,484,0,0,0,0,0,0,0,0,0,-1,1014,540,0,0
-203,484,0,0,0,0,0,0,0,0,0,-1,1021,540,0,0
-196,484,0,0,0,0,0,0,0,0,0,-1,1028,540,0,0
-189,484,0,0,0,0,0,0,0,0,0,-1,1035,540,0,0
-182,484,0,0,0,0,0,0,0,0,0,-1,1042,540,0,0
-175,484,0,0,0,0,0,0,0,0,0,-1,1049,540,0,0
-168,484,0,0,0,0,0,0,0,0,0,-1,1056,540,0,0
-161,484,0,0,0,0,0,0,0,0,0,-1,1063,540,0,0
-154,484,0,0,0,0,0,0,0,0,0,-1,1070,540,0,0
-147,484,0,0,0,0,0,0,0,0,0,-1,1077,540,0,0
-140,484,0,0,0,0,0,0,0,0,0,-1,1084,540,0,0
-133,484,0,0,0,0,0,0,0,0,0,-1,1091,540,0,0
-126,484,0,0,0,0,0,0,0,0,0,-1,1098,540,0,0
-119,484,0,0,0,0,0,0,0,0,0,-1,1105,540,0,0
-112,484,0,0,0,0,0,0,0,0,0,-1,1112,540,0,0
-105,484,0,0,0,0,0,0,0,0,0,-1,1119,540,0,0
-98,484,0,0,0,0,0,0,0,0,0,-1,1126,540,0,0
-91,484,0,0,0,0,0,0,0,0,0,-1,1133,540,0,0
-84,484,0,0,0,0,0,0,0,0,0,-1,1140,540,0,0
-77,484,0,0,0,0,0,0,0,0,0,-1,1147,540,0,0
-70,484,0,0,0,0,0,0,0,0,0,-1,1154,540,0,0
-63,484,0,0,0,0,0,0,0,0,0,-1,1161,540,0,0
-56,484,0,0,0,0,0,0,0,0,0,-1,1168,540,0,0
-49,484,0,0,0,0,0,0,0,0,0,-1,1175,540,0,0
-42,484,0,0,0,0,0,0,0,0,0,-1,1182,540,0,0
-35,484,0,0,0,0,0,0,0,0,0,-1,1189,540,0,0
-28,484,0,0,0,0,0,0,0,0,0,-1,1196,540,0,0
-21,484,0,0,0,0,0,0,0,0,0,-1,1203,540,0,0
-14,484,0,0,0,0,0,0,0,0,0,-1,1210,540,0,0
-7,484,0,0,0,0,0,0,0,0,0,-1,1217,540,0,0
0,484,0,0,0,0,0,0,0,0,0,-1,1224,540,0,0
7,484,0,0,0,0,0,0,0,0,0,-1,1231,540,0,0
14,484,0,0,0,0,0,0,0,0,0,-1,1238,540,0,0
21,484,0,0,0,0,0,0,0,0,0,-1,1245,540,0,0
28,484,0,0,0,0,0,0,0,0,0,-1,1252,540,0,0
35,484,0,0,0,0,0,0,0,0,0,-1,1259,540,0,0
42,484,0,0,0,0,0,0,0,0,0,-1,1266,540,0,0
49,484,0,0,0,0,0,0,0,0,0,-1,1273,540,0,0
56,484,0,0,0,0,0,0,0,0,0,-1,1280,540,0,0
63,484,0,0,0,0,0,0,0,0,0,-1,1287,540,0,0
70,484,0,0,0,0,0,0,0,0,0,-1,1294,540,0,0
77,484,0,0,0,0,0,0,0,0,0,-1,1301,540,0,0
84,484,0,0,0,0,0,0,0,0,0,-1,1308,540,0,0
91,484,0,0,0,0,0,0,0,0,0,-1,1315,540,0,0
98,484,0,0,0,0,0,0,0,0,0,-1,1322,540,0,0
105,484,0,0,0,0,0,0,0,0,0,-1,1329,540,0,0
112,484,0,0,0,0,0,0,0,0,0,-1,1336,540,0,0
119,484,0,0,0,0,0,0,0,0,0,-1,1343,540,0,0
126,484,0,0,0,0,0,0,0,0,0,-1,1350,540,0,0
133,484,0,0,0,0,0,0,0,0,0,-1,1357,540,0,0
140,484,0,0,0,0,0,0,0,0,0,-1,1364,540,0,0
147,484,0,0,0,0,0,0,0,0,0,-1,1371,540,0,0
154,484,0,0,0,0,0,0,0,0,0,-1,1378,540,0,0
161,484,0,0,0,0,0,0,0,0,0,-1,1385,540,0,0
168,484,0,0,0,0,0,0,0,0,0,-1,1392,540,0,0
175,484,0,0,0,0,0,0,0,0,0,-1,1399,540,0,0
182,484,0,0,0,0,0,0,0,0,0,-1,1406,540,0,0
189,484,0,0,0,0,0,0,0,0,0,-1,1413,540,0,0
196,484,0,0,0,0,0,0,0,0,0,-1,1420,540,0,0
203,484,0,0,0,0,0,0,0,0,0,-1,1427,540,0,0
210,484,0,0,0,0,0,0,0,0,0,-1,1434,540,0,0
217,484,0,0,0,0,0,0,0,0,0,-1,1441,540,0,0
224,484,0,0,0,0,0,0,0,0,0,-1,1448,540,0,0
231,484,0,0,0,0,0,0,0,0,0,-1,1455,540,0,0
238,484,0,0,0,0,0,0,0,0,0,-1,1462,540,0,0
245,484,0,0,0,0,0,0,0,0,0,-1,1469,540,0,0
252,484,0,0,0,0,0,0,0,0,0,-1,1476,540,0,0
259,484,0,0,0,0,0,0,0,0,0,-1,1483,540,0,0
266,484,0,0,0,0,0,0,0,0,0,-1,1490,540,0,0
273,484,0,0,0,0,0,0,0,0,0,-1,1497,540,0,0
280,484,0,0,0,0,0,0,0,0,0,-1,1504,540,0,0
287,484,0,0,0,0,0,0,0,0,0,-1,1511,540,0,0
294,484,0,0,0,0,0,0,0,0,0,-1,1518,540,0,0
301,484,0,0,0,0,0,0,0,0,0,-1,1525,540,0,0
308,484,0,0,0,0,0,0,0,0,0,-1,1532,540,0,0
315,484,0,0,0,0,0,0,0,0,0,-1,1539,540,0,0
322,484,0,0,0,0,0,0,0,0,0,-1,1546,540,0,0
329,484,0,0,0,0,0,0,0,0,0,-1,1553,540,0,0
336,484,4.38708,-1.64136,0,0,0,0,0,0,0,-1,1560,540,4.38704,1.64138
343,484,7.57996,-1.05457,0,0,0,0,0,0,0,-1,1567,540,7.57995,1.05454
350,484,8.10425,-1.18878,0,0,0,0,0,0,0,-1,1574,540,8.1043,1.18877
357,484,7.74902,-3.80286,0,0,0,0,0,0,0,-1,1581,540,7.74901,3.80287
364,484,6.31262,-3.87213,0,0,0,0,0,0,0,-1,1588,540,6.31263,3.87215
371,484,7.21008,0.973511,0,0,0,0,0,0,0,-1,1595,540,7.21014,-0.973541
378,484,11.0563,1.5014,0,0,0,0,0,0,0,-1,1602,540,11.0563,-1.5014
385,484,14.3469,2.5545,0,0,0,0,0,0,0,-1,1609,540,14.3469,-2.55453
392,484,7.39453,-4.95026,0,0,0,0,0,0,0,-1,1616,540,7.39448,4.95023
399,484,7.14417,-2.5639,0,0,0,0,0,0,0,-1,1623,540,7.14417,2.56391
406,484,7.88953,-2.47321,0,0,0,0,0,0,0,-1,1630,540,7.88954,2.47323
413,484,4.4895,-1.08673,0,0,0,0,0,0,0,-1,1637,540,4.48952,1.08674
420,484,4.50012,-2.11255,0,0,0,0,0,0,0,-1,1644,540,4.50012,2.11256
427,484,5.28601,-3.54053,0,0,0,0,0,0,0,-1,1651,540,5.28599,3.54051
434,484,11.1488,-13.5359,0,0,0,0,0,0,0,-1,1658,540,11.1489,13.5359
441,484,16.4302,-23.7289,0,0,0,0,0,0,0,-1,1665,540,16.4301,23.7289
448,484,16.4165,-23.9369,0,0,0,0,0,0,0,-1,1672,540,16.4165,23.9369
455,484,16.4657,-23.1541,0,0,0,0,0,0,0,-1,1679,540,16.4657,23.1541
462,484,16.4896,-22.4061,0.00179512,-0.000257003,-0.00178185,0.00282522,-0.0012871,-0.524165,0.00242898,0.0294931,1686,540,16.4896,22.4061
469,484,16.4813,-21.8075,0.00171223,8.8138e-05,-0.00123559,0.00237873,-0.000578361,-0.494683,0.00180968,0.018226,1693,540,16.4814,21.8075
476,484,16.4537,-21.1618,0.00165608,0.000322507,-0.00078209,0.00201704,-3.84563e-05,-0.432406,0.00135769,0.0170379,1700,540,16.4537,21.1618
483,484,16.4545,-20.5029,0.00153552,0.000551128,-0.000239144,0.00159054,0.000496107,-0.226141,0.000939706,0.0132284,1707,540,16.4544,20.5029
490,484,16.4165,-19.8912,0.00121064,0.000842464,0.000191581,0.00129224,0.00076086,0.402673,0.000749986,0.0127989,1714,540,16.4165,19.8912
497,484,16.3716,-19.2347,0.000877051,0.00127407,0.000752009,0.00185333,0.000297792,0.914441,0.00114922,0.0140133,1721,540,16.3716,19.2347
504,484,16.3484,-18.5603,0.000453919,0.00134591,0.00117301,0.00215485,-0.00035502,0.967066,0.00156836,0.0168325,1728,540,16.3484,18.5603
511,484,16.3385,-17.903,-0.00012766,0.00147924,0.00148924,0.00236794,-0.00101636,1.03277,0.00200519,0.0194525,1735,540,16.3385,17.903
518,484,16.3042,-17.2404,-0.00082786,0.00162846,0.00169185,0.00249093,-0.00169033,1.09936,0.00242876,0.0160239,1742,540,16.3042,17.2404
525,484,16.2645,-16.5733,-0.00156765,0.0017304,0.00180468,0.002526,-0.00236324,1.15558,0.00282332,0.014326,1749,540,16.2645,16.5733
532,484,16.266,-15.8697,-0.00232596,0.00188667,0.00183649,0.00257486,-0.00301415,1.21226,0.00323014,0.0163208,1756,540,16.2661,15.8697
539,484,16.2072,-15.1937,-0.00312984,0.00205448,0.00173237,0.00258008,-0.00365544,1.27623,0.00361788,0.0385667,1763,540,16.2071,15.1937
546,484,16.0795,-14.394,0,0,0,0,0,0,0,-1,1770,540,16.0795,14.394
553,484,12.4246,-8.96423,0,0,0,0,0,0,0,-1,1777,540,12.4246,8.96422
560,484,10.0549,-5.47931,0,0,0,0,0,0,0,-1,1784,540,10.055,5.47928
567,484,7.78223,-1.38312,0,0,0,0,0,0,0,-1,1791,540,7.78224,1.38311
574,484,5.74463,1.50922,0,0,0,0,0,0,0,-1,1798,540,5.74463,-1.50924
581,484,10.34,2.9491,0,0,0,0,0,0,0,-1,1805,540,10.34,-2.94912
588,484,10.6669,2.88568,0,0,0,0,0,0,0,-1,1812,540,10.6669,-2.88567
595,484,10.7233,1.04767,0,0,0,0,0,0,0,-1,1819,540,10.7233,-1.04766
602,484,0,0,0,0,0,0,0,0,0,-1,1826,540,0,0
609,484,0,0,0,0,0,0,0,0,0,-1,1833,540,0,0
616,484,0,0,0,0,0,0,0,0,0,-1,1840,540,0,0
623,484,0,0,0,0,0,0,0,0,0,-1,1847,540,0,0
630,484,0,0,0,0,0,0,0,0,0,-1,1854,540,0,0
637,484,0,0,0,0,0,0,0,0,0,-1,1861,540,0,0
644,484,0,0,0,0,0,0,0,0,0,-1,1868,540,0,0
651,484,0,0,0,0,0,0,0,0,0,-1,1875,540,0,0
658,484,0,0,0,0,0,0,0,0,0,-1,1882,540,0,0
665,484,0,0,0,0,0,0,0,0,0,-1,1889,540,0,0
672,484,0,0,0,0,0,0,0,0,0,-1,1896,540,0,0
679,484,0,0,0,0,0,0,0,0,0,-1,1903,540,0,0
686,484,0,0,0,0,0,0,0,0,0,-1,1910,540,0,0
693,484,0,0,0,0,0,0,0,0,0,-1,1917,540,0,0
700,484,0,0,0,0,0,0,0,0,0,-1,1924,540,0,0
707,484,0,0,0,0,0,0,0,0,0,-1,1931,540,0,0
714,484,0,0,0,0,0,0,0,0,0,-1,1938,540,0,0
721,484,0,0,0,0,0,0,0,0,0,-1,1945,540,0,0
728,484,0,0,0,0,0,0,0,0,0,-1,1952,540,0,0
735,484,0,0,0,0,0,0,0,0,0,-1,1959,540,0,0
742,484,0,0,0,0,0,0,0,0,0,-1,1966,540,0,0
749,484,0,0,0,0,0,0,0,0,0,-1,1973,540,0,0
756,484,0,0,0,0,0,0,0,0,0,-1,1980,540,0,0
763,484,0,0,0,0,0,0,0,0,0,-1,1987,540,0,0
770,484,0,0,0,0,0,0,0,0,0,-1,1994,540,0,0
777,484,0,0,0,0,0,0,0,0,0,-1,2001,540,0,0
784,484,0,0,0,0,0,0,0,0,0,-1,2008,540,0,0
791,484,0,0,0,0,0,0,0,0,0,-1,2015,540,0,0
798,484,0,0,0,0,0,0,0,0,0,-1,2022,540,0,0
805,484,0,0,0,0,0,0,0,0,0,-1,2029,540,0,0
812,484,0,0,0,0,0,0,0,0,0,-1,2036,540,0,0
-700,477,0,0,0,0,0,0,0,0,0,-1,524,547,0,0
-693,477,0,0,0,0,0,0,0,0,0,-1,531,547,0,0
-686,477,0,0,0,0,0,0,0,0,0,-1,538,547,0,0
-679,477,0,0,0,0,0,0,0,0,0,-1,545,547,0,0
-672,477,0,0,0,0,0,0,0,0,0,-1,552,547,0,0
-665,477,0,0,0,0,0,0,0,0,0,-1,559,547,0,0
-658,477,0,0,0,0,0,0,0,0,0,-1,566,547,0,0
-651,477,0,0,0,0,0,0,0,0,0,-1,573,547,0,0
-644,477,0,0,0,0,0,0,0,0,0,-1,580,547,0,0
-637,477,0,0,0,0,0,0,0,0,0,-1,587,547,0,0
-630,477,0,0,0,0,0,0,0,0,0,-1,594,547,0,0
-623,477,0,0,0,0,0,0,0,0,0,-1,601,547,0,0
-616,477,0,0,0,0,0,0,0,0,0,-1,608,547,0,0
-609,477,0,0,0,0,0,0,0,0,0,-1,615,547,0,0
-602,477,0,0,0,0,0,0,0,0,0,-1,622,547,0,0
-595,477,0,0,0,0,0,0,0,0,0,-1,629,547,0,0
-588,477,0,0,0,0,0,0,0,0,0,-1,636,547,0,0
-581,477,0,0,0,0,0,0,0,0,0,-1,643,547,0,0
-574,477,0,0,0,0,0,0,0,0,0,-1,650,547,0,0
-567,477,0,0,0,0,0,0,0,0,0,-1,657,547,0,0
-560,477,0,0,0,0,0,0,0,0,0,-1,664,547,0,0
-553,477,0,0,0,0,0,0,0,0,0,-1,671,547,0,0
-546,477,0,0,0,0,0,0,0,0,0,-1,678,547,0,0
-539,477,0,0,0,0,0,0,0,0,0,-1,685,547,0,0
-532,477,0,0,0,0,0,0,0,0,0,-1,692,547,0,0
-525,477,0,0,0,0,0,0,0,0,0,-1,699,547,0,0
-518,477,0,0,0,0,0,0,0,0,0,-1,706,547,0,0
-511,477,0,0,0,0,0,0,0,0,0,-1,713,547,0,0
-504,477,0,0,0,0,0,0,0,0,0,-1,720,547,0,0
-497,477,0,0,0,0,0,0,0,0,0,-1,727,547,0,0
-490,477,0,0,0,0,0,0,0,0,0,-1,734,547,0,0
-483,477,-7.73151,-0.224182,0,0,0,0,0,0,0,-1,741,547,-7.73152,0.224176
-476,477,-6.25806,-0.310547,0,0,0,0,0,0,0,-1,748,547,-6.25804,0.310549
-469,477,-7.26617,0.525085,0,0,0,0,0,0,0,-1,755,547,-7.2662,-0.525111
-462,477,-6.65143,1.06042,0,0,0,0,0,0,0,-1,762,547,-6.65143,-1.06043
-455,477,-5.31757,0.429016,0,0,0,0,0,0,0,-1,769,547,-5.31756,-0.42902
-448,477,-4.0697,0.273376,0,0,0,0,0,0,0,-1,776,547,-4.06971,-0.273363
-441,477,-2.47504,-4.76971,0,0,0,0,0,0,0,-1,783,547,-2.47505,4.76973
-434,477,-4.68866,-14.6096,0,0,0,0,0,0,0,-1,790,547,-4.68869,14.6096
-427,477,-4.93634,-14.9186,-0.00084347,0.0132004,-0.00499462,0.0147956,-0.00243859,-1.26167,0.010769,0.0451478,797,547,-4.93636,14.9186
-420,477,-5.01154,-15.4301,-0.000795108,0.0109598,-0.00449488,0.0124816,-0.00231686,-1.24435,0.00919122,0.0347042,804,547,-5.01153,15.4301
-413,477,-5.02209,-16.3558,-0.000666129,0.00879268,-0.00389588,0.0101907,-0.00206413,-1.22627,0.00757615,0.0198055,811,547,-5.02207,16.3558
-406,477,-5.11609,-17.1172,-0.000367501,0.00716265,-0.00342086,0.00848463,-0.00168948,-1.20203,0.0062956,0.0114594,818,547,-5.11612,17.1172
-399,477,-5.14331,-17.7733,-5.44329e-05,0.00555544,-0.00290779,0.00679067,-0.00128966,-1.1691,0.00501261,0.0182852,825,547,-5.14331,17.7733
-392,477,-5.17224,-18.4155,0.000329133,0.00407588,-0.00238898,0.00523842,-0.000833407,-1.11791,0.00380067,0.0177315,832,547,-5.17223,18.4155
-385,477,-5.1781,-19.0616,0.000836143,0.0028195,-0.00194908,0.00401468,-0.000359037,-1.02073,0.0028038,0.0146083,839,547,-5.1781,19.0616
-378,477,-5.22113,-19.7117,0.00134371,0.00161707,-0.00148879,0.00297544,-1.46645e-05,-0.831172,0.00198853,0.0126724,846,547,-5.22113,19.7117
-371,477,-5.24689,-20.3181,0.00184101,0.000507718,-0.00106702,0.00243251,-8.37868e-05,-0.506179,0.00165031,0.0131168,853,547,-5.24686,20.3181
-364,477,-5.26489,-20.9307,0.00229718,-0.000540351,-0.000599502,0.00241864,-0.000661812,-0.199897,0.00187243,0.0141066,860,547,-5.26488,20.9307
-357,477,-5.31067,-21.5471,0.00281557,-0.00138099,-0.000181365,0.0028234,-0.00138882,-0.0431103,0.00247849,0.0120596,867,547,-5.31069,21.5471
-350,477,-5.33838,-22.1657,0.00338676,-0.00208925,0.000158502,0.00339135,-0.00209383,0.0289125,0.00319627,0.0108354,874,547,-5.33838,22.1657
-343,477,-5.26666,-22.8314,0.00379967,-0.00289971,0.00058862,0.00385099,-0.00295103,0.086974,0.00393859,0.0193251,881,547,-5.26663,22.8314
-336,477,-5.18481,-23.4609,0.00419869,-0.00376646,0.000985117,0.00431872,-0.00388649,0.121245,0.00473947,0.0443988,888,547,-5.18481,23.4609
-329,477,-5.01294,-24.0542,0,0,0,0,0,0,0,-1,895,547,-5.01297,24.0542
-322,477,-2.04822,-12.0026,0,0,0,0,0,0,0,-1,902,547,-2.04819,12.0026
-315,477,-1.67358,-9.15253,0,0,0,0,0,0,0,-1,909,547,-1.67356,9.15253
-308,477,-1.30127,-6.55188,0,0,0,0,0,0,0,-1,916,547,-1.30128,6.55185
-301,477,-1.21185,-6.28351,0,0,0,0,0,0,0,-1,923,547,-1.21184,6.28352
-294,477,-0.352905,3.27142,0,0,0,0,0,0,0,-1,930,547,-0.35292,-3.27144
-287,477,3.54364,2.15399,0,0,0,0,0,0,0,-1,937,547,3.54362,-2.15396
-280,477,1.97308,-0.954163,0,0,0,0,0,0,0,-1,944,547,1.9731,0.954178
-273,477,2.11621,-3.76709,0,0,0,0,0,0,0,-1,951,547,2.11619,3.76706
-266,477,2.04669,-3.42389,0,0,0,0,0,0,0,-1,958,547,2.04671,3.42391
-259,477,-1.33478,-3.41205,0,0,0,0,0,0,0,-1,965,547,-1.3348,3.41206
-252,477,0.597168,-5.32922,0,0,0,0,0,0,0,-1,972,547,0.597144,5.32924
-245,477,8.2309,-8.48492,0,0,0,0,0,0,0,-1,979,547,8.23091,8.48494
-238,477,6.60938,-5.64063,0,0,0,0,0,0,0,-1,986,547,6.60938,5.64063
-231,477,4.71716,-2.52484,0,0,0,0,0,0,0,-1,993,547,4.71716,2.52483
-224,477,0,0,0,0,0,0,0,0,0,-1,1000,547,0,0
-217,477,0,0,0,0,0,0,0,0,0,-1,1007,547,0,0
-210,477,0,0,0,0,0,0,0,0,0,-1,1014,547,0,0
-203,477,0,0,0,0,0,0,0,0,0,-1,1021,547,0,0
-196,477,0,0,0,0,0,0,0,0,0,-1,1028,547,0,0
-189,477,0,0,0,0,0,0,0,0,0,-1,1035,547,0,0
-182,477,0,0,0,0,0,0,0,0,0,-1,1042,547,0,0
-175,477,0,0,0,0,0,0,0,0,0,-1,1049,547,0,0
-168,477,0,0,0,0,0,0,0,0,0,-1,1056,547,0,0
-161,477,0,0,0,0,0,0,0,0,0,-1,1063,547,0,0
-154,477,0,0,0,0,0,0,0,0,0,-1,1070,547,0,0
-147,477,0,0,0,0,0,0,0,0,0,-1,1077,547,0,0
-140,477,0,0,0,0,0,0,0,0,0,-1,1084,547,0,0
-133,477,0,0,0,0,0,0,0,0,0,-1,1091,547,0,0
-126,477,0,0,0,0,0,0,0,0,0,-1,1098,547,0,0
-119,477,0,0,0,0,0,0,0,0,0,-1,1105,547,0,0
-112,477,0,0,0,0,0,0,0,0,0,-1,1112,547,0,0
-105,477,0,0,0,0,0,0,0,0,0,-1,1119,547,0,0
-98,477,0,0,0,0,0,0,0,0,0,-1,1126,547,0,0
-91,477,0,0,0,0,0,0,0,0,0,-1,1133,547,0,0
-84,477,0,0,0,0,0,0,0,0,0,-1,1140,547,0,0
-77,477,0,0,0,0,0,0,0,0,0,-1,1147,547,0,0
-70,477,0,0,0,0,0,0,0,0,0,-1,1154,547,0,0
-63,477,0,0,0,0,0,0,0,0,0,-1,1161,547,0,0
-56,477,0,0,0,0,0,0,0,0,0,-1,1168,547,0,0
-49,477,0,0,0,0,0,0,0,0,0,-1,1175,547,0,0
-42,477,0,0,0,0,0,0,0,0,0,-1,1182,547,0,0
-35,477,0,0,0,0,0,0,0,0,0,-1,1189,547,0,0
-28,477,0,0,0,0,0,0,0,0,0,-1,1196,547,0,0
-21,477,0,0,0,0,0,0,0,0,0,-1,1203,547,0,0
-14,477,0,0,0,0,0,0,0,0,0,-1,1210,547,0,0
-7,477,0,0,0,0,0,0,0,0,0,-1,1217,547,0,0
0,477,0,0,0,0,0,0,0,0,0,-1,1224,547,0,0
7,477,0,0,0,0,0,0,0,0,0,-1,1231,547,0,0
14,477,0,0,0,0,0,0,0,0,0,-1,1238,547,0,0
21,477,0,0,0,0,0,0,0,0,0,-1,1245,547,0,0
28,477,0,0,0,0,0,0,0,0,0,-1,1252,547,0,0
35,477,0,0,0,0,0,0,0,0,0,-1,1259,547,0,0
42,477,0,0,0,0,0,0,0,0,0,-1,1266,547,0,0
49,477,0,0,0,0,0,0,0,0,0,-1,1273,547,0,0
56,477,0,0,0,0,0,0,0,0,0,-1,1280,547,0,0
63,477,0,0,0,0,0,0,0,0,0,-1,1287,547,0,0
70,477,0,0,0,0,0,0,0,0,0,-1,1294,547,0,0
77,477,0,0,0,0,0,0,0,0,0,-1,1301,547,0,0
84,477,0,0,0,0,0,0,0,0,0,-1,1308,547,0,0
91,477,0,0,0,0,0,0,0,0,0,-1,1315,547,0,0
98,477,0,0,0,0,0,0,0,0,0,-1,1322,547,0,0
105,477,0,0,0,0,0,0,0,0,0,-1,1329,547,0,0
112,477,0,0,0,0,0,0,0,0,0,-1,1336,547,0,0
119,477,0,0,0,0,0,0,0,0,0,-1,1343,547,0,0
126,477,0,0,0,0,0,0,0,0,0,-1,1350,547,0,0
133,477,0,0,0,0,0,0,0,0,0,-1,1357,547,0,0
140,477,0,0,0,0,0,0,0,0,0,-1,1364,547,0,0
147,477,0,0,0,0,0,0,0,0,0,-1,1371,547,0,0
154,477,0,0,0,0,0,0,0,0,0,-1,1378,547,0,0
161,477,0,0,0,0,0,0,0,0,0,-1,1385,547,0,0
168,477,0,0,0,0,0,0,0,0,0,-1,1392,547,0,0
175,477,0,0,0,0,0,0,0,0,0,-1,1399,547,0,0
182,477,0,0,0,0,0,0,0,0,0,-1,1406,547,0,0
189,477,0,0,0,0,0,0,0,0,0,-1,1413,547,0,0
196,477,0,0,0,0,0,0,0,0,0,-1,1420,547,0,0
203,477,0,0,0,0,0,0,0,0,0,-1,1427,547,0,0
210,477,0,0,0,0,0,0,0,0,0,-1,1434,547,0,0
217,477,0,0,0,0,0,0,0,0,0,-1,1441,547,0,0
224,477,0,0,0,0,0,0,0,0,0,-1,1448,547,0,0
231,477,0,0,0,0,0,0,0,0,0,-1,1455,547,0,0
238,477,0,0,0,0,0,0,0,0,0,-1,1462,547,0,0
245,477,0,0,0,0,0,0,0,0,0,-1,1469,547,0,0
252,477,0,0,0,0,0,0,0,0,0,-1,1476,547,0,0
259,477,0,0,0,0,0,0,0,0,0,-1,1483,547,0,0
266,477,0,0,0,0,0,0,0,0,0,-1,1490,547,0,0
273,477,0,0,0,0,0,0,0,0,0,-1,1497,547,0,0
280,477,0,0,0,0,0,0,0,0,0,-1,1504,547,0,0
287,477,0,0,0,0,0,0,0,0,0,-1,1511,547,0,0
294,477,0,0,0,0,0,0,0,0,0,-1,1518,547,0,0
301,477,0,0,0,0,0,0,0,0,0,-1,1525,547,0,0
308,477,0,0,0,0,0,0,0,0,0,-1,1532,547,0,0
315,477,0,0,0,0,0,0,0,0,0,-1,1539,547,0,0
322,477,0,0,0,0,0,0,0,0,0,-1,1546,547,0,0
329,477,0,0,0,0,0,0,0,0,0,-1,1553,547,0,0
336,477,0,0,0,0,0,0,0,0,0,-1,1560,547,0,0
343,477,0,0,0,0,0,0,0,0,0,-1,1567,547,0,0
350,477,1.7699,-3.32275,0,0,0,0,0,0,0,-1,1574,547,1.7699,3.32272
357,477,3.073,-4.83313,0,0,0,0,0,0,0,-1,1581,547,3.07303,4.83316
364,477,4.30127,-4.22864,0,0,0,0,0,0,0,-1,1588,547,4.30125,4.22865
371,477,4.57703,0.283264,0,0,0,0,0,0,0,-1,1595,547,4.57706,-0.283262
378,477,8.57947,1.05969,0,0,0,0,0,0,0,-1,1602,547,8.5795,-1.05972
385,477,12.3726,2.02356,0,0,0,0,0,0,0,-1,1609,547,12.3725,-2.02355
392,477,16.4678,2.76843,0,0,0,0,0,0,0,-1,1616,547,16.4678,-2.76845
399,477,8.00037,-2.29523,0,0,0,0,0,0,0,-1,1623,547,8.00031,2.2952
406,477,4.82495,2.7475,0,0,0,0,0,0,0,-1,1630,547,4.825,-2.74752
413,477,4.88171,-0.336426,0,0,0,0,0,0,0,-1,1637,547,4.88169,0.336398
420,477,3.34875,0.102722,0,0,0,0,0,0,0,-1,1644,547,3.34871,-0.1027
427,477,1.66772,-0.373108,0,0,0,0,0,0,0,-1,1651,547,1.66768,0.373104
434,477,3.76978,-2.30798,0,0,0,0,0,0,0,-1,1658,547,3.76974,2.30801
441,477,4.05444,-2.80402,0,0,0,0,0,0,0,-1,1665,547,4.05444,2.804
448,477,10.4247,-11.7421,0,0,0,0,0,0,0,-1,1672,547,10.4247,11.7421
455,477,13.3054,-16.8109,0,0,0,0,0,0,0,-1,1679,547,13.3054,16.8109
462,477,17.1011,-22.5541,0,0,0,0,0,0,0,-1,1686,547,17.1011,22.5541
469,477,17.1522,-21.7869,0,0,0,0,0,0,0,-1,1693,547,17.1522,21.7868
476,477,17.0991,-21.1738,0.00204156,-2.85205e-05,-0.0012158,0.00260323,-0.000590187,-0.432766,0.00196203,0.0246312,1700,547,17.0991,21.1738
483,477,17.1069,-20.4999,0.00196137,0.000196615,-0.000598389,0.00214514,1.28503e-05,-0.297956,0.00142583,0.0132368,1707,547,17.107,20.4999
490,477,17.0619,-19.8806,0.00166538,0.000544684,-0.000142181,0.00168313,0.000526927,-0.124247,0.000994139,0.0131292,1714,547,17.0618,19.8806
497,477,17.0217,-19.1943,0.00135907,0.00102352,0.000441834,0.00166391,0.000718678,0.603941,0.000963624,0.0136056,1721,547,17.0218,19.1943
504,477,16.9874,-18.5291,0.000967605,0.00106552,0.000837052,0.00185504,0.000178078,0.814608,0.00118182,0.017891,1728,547,16.9874,18.5291
511,477,17.0266,-17.9183,0.000437649,0.00117134,0.00111779,0.00198094,-0.000371952,0.943955,0.00146049,0.0221556,1735,547,17.0266,17.9184
518,477,16.969,-17.2362,-0.000184782,0.00131184,0.00130018,0.00206367,-0.000936613,1.04652,0.00177249,0.0192714,1742,547,16.969,17.2362
525,477,16.8929,-16.5334,-0.00082688,0.00141331,0.00140525,0.00209026,-0.00150383,1.12188,0.00208423,0.0169115,1749,547,16.893,16.5334
532,477,16.8489,-15.8575,-0.00147332,0.00157039,0.00144779,0.00214904,-0.00205197,1.19056,0.00242567,0.019605,1756,547,16.8489,15.8575
539,477,16.8472,-15.1061,-0.00212987,0.00173755,0.00139829,0.00219014,-0.00258247,1.25776,0.00275857,0.0179881,1763,547,16.8472,15.1061
546,477,16.7821,-14.5159,-0.00275329,0.00205248,0.00134267,0.00240216,-0.00310297,1.31602,0.00318696,0.0420371,1770,547,16.7821,14.5159
553,477,16.8109,-13.6988,0,0,0,0,0,0,0,-1,1777,547,16.8109,13.6988
560,477,16.3442,-11.9187,0,0,0,0,0,0,0,-1,1784,547,16.3442,11.9187
567,477,13.9529,-8.70972,0,0,0,0,0,0,0,-1,1791,547,13.9529,8.7097
574,477,6.82593,-0.916992,0,0,0,0,0,0,0,-1,1798,547,6.82598,0.916977
581,477,9.29321,-0.557007,0,0,0,0,0,0,0,-1,1805,547,9.29324,0.55703
588,477,9.75195,0.422729,0,0,0,0,0,0,0,-1,1812,547,9.75198,-0.42273
595,477,9.89172,1.21326,0,0,0,0,0,0,0,-1,1819,547,9.89174,-1.21328
602,477,6.5271,-0.964417,0,0,0,0,0,0,0,-1,1826,547,6.52706,0.964427
609,477,0,0,0,0,0,0,0,0,0,-1,1833,547,0,0
616,477,0,0,0,0,0,0,0,0,0,-1,1840,547,0,0
623,477,0,0,0,0,0,0,0,0,0,-1,1847,547,0,0
630,477,0,0,0,0,0,0,0,0,0,-1,1854,547,0,0
637,477,0,0,0,0,0,0,0,0,0,-1,1861,547,0,0
644,477,0,0,0,0,0,0,0,0,0,-1,1868,547,0,0
651,477,0,0,0,0,0,0,0,0,0,-1,1875,547,0,0
658,477,0,0,0,0,0,0,0,0,0,-1,1882,547,0,0
665,477,0,0,0,0,0,0,0,0,0,-1,1889,547,0,0
672,477,0,0,0,0,0,0,0,0,0,-1,1896,547,0,0
679,477,0,0,0,0,0,0,0,0,0,-1,1903,547,0,0
686,477,0,0,0,0,0,0,0,0,0,-1,1910,547,0,0
693,477,0,0,0,0,0,0,0,0,0,-1,1917,547,0,0
700,477,0,0,0,0,0,0,0,0,0,-1,1924,547,0,0
707,477,0,0,0,0,0,0,0,0,0,-1,1931,547,0,0
714,477,0,0,0,0,0,0,0,0,0,-1,1938,547,0,0
721,477,0,0,0,0,0,0,0,0,0,-1,1945,547,0,0
728,477,0,0,0,0,0,0,0,0,0,-1,1952,547,0,0
735,477,0,0,0,0,0,0,0,0,0,-1,1959,547,0,0
742,477,0,0,0,0,0,0,0,0,0,-1,1966,547,0,0
749,477,0,0,0,0,0,0,0,0,0,-1,1973,547,0,0
756,477,0,0,0,0,0,0,0,0,0,-1,1980,547,0,0
763,477,0,0,0,0,0,0,0,0,0,-1,1987,547,0,0
770,477,0,0,0,0,0,0,0,0,0,-1,1994,547,0,0
777,477,0,0,0,0,0,0,0,0,0,-1,2001,547,0,0
784,477,0,0,0,0,0,0,0,0,0,-1,2008,547,0,0
791,477,0,0,0,0,0,0,0,0,0,-1,2015,547,0,0
798,477,0,0,0,0,0,0,0,0,0,-1,2022,547,0,0
805,477,0,0,0,0,0,0,0,0,0,-1,2029,547,0,0
812,477,0,0,0,0,0,0,0,0,0,-1,2036,547,0,0
-700,470,0,0,0,0,0,0,0,0,0,-1,524,554,0,0
-693,470,0,0,0,0,0,0,0,0,0,-1,531,554,0,0
-686,470,0,0,0,0,0,0,0,0,0,-1,538,554,0,0
-679,470,0,0,0,0,0,0,0,0,0,-1,545,554,0,0
-672,470,0,0,0,0,0,0,0,0,0,-1,552,554,0,0
-665,470,0,0,0,0,0,0,0,0,0,-1,559,554,0,0
-658,470,0,0,0,0,0,0,0,0,0,-1,566,554,0,0
-651,470,0,0,0,0,0,0,0,0,0,-1,573,554,0,0
-644,470,0,0,0,0,0,0,0,0,0,-1,580,554,0,0
-637,470,0,0,0,0,0,0,0,0,0,-1,587,554,0,0
-630,470,0,0,0,0,0,0,0,0,0,-1,594,554,0,0
-623,470,0,0,0,0,0,0,0,0,0,-1,601,554,0,0
-616,470,0,0,0,0,0,0,0,0,0,-1,608,554,0,0
-609,470,0,0,0,0,0,0,0,0,0,-1,615,554,0,0
-602,470,0,0,0,0,0,0,0,0,0,-1,622,554,0,0
-595,470,0,0,0,0,0,0,0,0,0,-1,629,554,0,0
-588,470,0,0,0,0,0,0,0,0,0,-1,636,554,0,0
-581,470,0,0,0,0,0,0,0,0,0,-1,643,554,0,0
-574,470,0,0,0,0,0,0,0,0,0,-1,650,554,0,0
-567,470,0,0,0,0,0,0,0,0,0,-1,657,554,0,0
-560,470,0,0,0,0,0,0,0,0,0,-1,664,554,0,0
-553,470,0,0,0,0,0,0,0,0,0,-1,671,554,0,0
-546,470,0,0,0,0,0,0,0,0,0,-1,678,554,0,0
-539,470,0,0,0,0,0,0,0,0,0,-1,685,554,0,0
-532,470,0,0,0,0,0,0,0,0,0,-1,692,554,0,0
-525,470,0,0,0,0,0,0,0,0,0,-1,699,554,0,0
-518,470,0,0,0,0,0,0,0,0,0,-1,706,554,0,0
-511,470,0,0,0,0,0,0,0,0,0,-1,713,554,0,0
-504,470,0,0,0,0,0,0,0,0,0,-1,720,554,0,0
-497,470,0,0,0,0,0,0,0,0,0,-1,727,554,0,0
-490,470,-9.13263,-1.03125,0,0,0,0,0,0,0,-1,734,554,-9.1326,1.03127
-483,470,-7.68677,-1.03955,0,0,0,0,0,0,0,-1,741,554,-7.68678,1.03958
-476,470,-6.17969,-1.03394,0,0,0,0,0,0,0,-1,748,554,-6.17971,1.03395
-469,470,-6.23016,-0.651855,0,0,0,0,0,0,0,-1,755,554,-6.23014,0.651829
-462,470,-4.87915,-1.03705,0,0,0,0,0,0,0,-1,762,554,-4.87914,1.03702
-455,470,-4.14777,-1.37079,0,0,0,0,0,0,0,-1,769,554,-4.14779,1.37078
-448,470,-2.9314,-5.74518,0,0,0,0,0,0,0,-1,776,554,-2.93137,5.74518
-441,470,-4.83759,-12.0768,0,0,0,0,0,0,0,-1,783,554,-4.83758,12.0768
-434,470,-5.66516,-14.3085,0,0,0,0,0,0,0,-1,790,554,-5.66518,14.3086
-427,470,-5.69592,-14.9982,-0.000663487,0.0102339,-0.00396735,0.0115252,-0.00195484,-1.25612,0.00841116,0.0240081,797,554,-5.69591,14.9982
-420,470,-5.67004,-15.7045,-0.000526727,0.00845992,-0.00345412,0.00963413,-0.00170094,-1.24311,0.00705838,0.0156171,804,554,-5.67004,15.7045
-413,470,-5.71753,-16.4349,-0.000399428,0.00662073,-0.00282135,0.00761406,-0.00139275,-1.23227,0.00559834,0.0140257,811,554,-5.71755,16.4349
-406,470,-5.75385,-17.1009,-0.00013009,0.0052752,-0.00236235,0.00616213,-0.00101701,-1.21164,0.00448569,0.011654,818,554,-5.75387,17.1009
-399,470,-5.77197,-17.7485,0.000208631,0.00394246,-0.00192103,0.0047543,-0.000603209,-1.17095,0.00338855,0.0140569,825,554,-5.77196,17.7485
-392,470,-5.77496,-18.394,0.000640326,0.0026716,-0.00148528,0.00345529,-0.000143367,-1.08528,0.00235277,0.0144546,832,554,-5.77498,18.394
-385,470,-5.80444,-19.0296,0.0011869,0.00159883,-0.00114784,0.00255904,0.000226688,-0.874171,0.00163571,0.0113716,839,554,-5.80447,19.0296
-378,470,-5.84949,-19.6847,0.00175206,0.000542512,-0.000799639,0.00214987,0.000144701,-0.461635,0.00138753,0.0155548,846,554,-5.84949,19.6847
-371,470,-5.8797,-20.3077,0.0023518,-0.000420918,-0.000489794,0.00243578,-0.000504896,-0.169804,0.0018157,0.0144113,853,554,-5.87967,20.3077
-364,470,-5.88525,-20.8983,0.00294804,-0.00129571,-0.0001903,0.00295656,-0.00130422,-0.0447227,0.00252087,0.015102,860,554,-5.88525,20.8982
-357,470,-5.92084,-21.5167,0.00363878,-0.0020332,2.07933e-05,0.00363885,-0.00203328,0.0036659,0.00331825,0.014195,867,554,-5.92082,21.5167
-350,470,-5.94739,-22.1562,0.00439651,-0.0026998,0.000142526,0.00439937,-0.00270267,0.0200738,0.00413918,0.0115194,874,554,-5.9474,22.1562
-343,470,-5.8222,-22.7695,0.00498837,-0.00345038,0.000372831,0.00500481,-0.00346682,0.0440664,0.00491789,0.0474661,881,554,-5.82219,22.7695
-336,470,-5.58936,-23.4874,0,0,0,0,0,0,0,-1,888,554,-5.58935,23.4874
-329,470,-2.78516,-12.3594,0,0,0,0,0,0,0,-1,895,554,-2.78517,12.3594
-322,470,-2.30829,-11.4527,0,0,0,0,0,0,0,-1,902,554,-2.30827,11.4527
-315,470,-1.04797,-8.29529,0,0,0,0,0,0,0,-1,909,554,-1.04797,8.29526
-308,470,-1.39368,-6.68152,0,0,0,0,0,0,0,-1,916,554,-1.39369,6.68149
-301,470,-0.0340576,3.34888,0,0,0,0,0,0,0,-1,923,554,-0.0340496,-3.3489
-294,470,-1.18378,3.22266,0,0,0,0,0,0,0,-1,930,554,-1.18376,-3.22268
-287,470,-2.15454,3.2204,0,0,0,0,0,0,0,-1,937,554,-2.15452,-3.22037
-280,470,-3.00537,3.099,0,0,0,0,0,0,0,-1,944,554,-3.00536,-3.09898
-273,470,-12.3932,3.65009,0,0,0,0,0,0,0,-1,951,554,-12.3932,-3.65011
-266,470,-11.5706,1.16028,0,0,0,0,0,0,0,-1,958,554,-11.5706,-1.16031
-259,470,-7.50415,-2.77167,0,0,0,0,0,0,0,-1,965,554,-7.50413,2.7717
-252,470,-0.371155,-5.87823,0,0,0,0,0,0,0,-1,972,554,-0.37114,5.87821
-245,470,1.33221,-6.81122,0,0,0,0,0,0,0,-1,979,554,1.33223,6.8112
-238,470,0,0,0,0,0,0,0,0,0,-1,986,554,0,0
-231,470,0,0,0,0,0,0,0,0,0,-1,993,554,0,0
-224,470,0,0,0,0,0,0,0,0,0,-1,1000,554,0,0
-217,470,0,0,0,0,0,0,0,0,0,-1,1007,554,0,0
-210,470,0,0,0,0,0,0,0,0,0,-1,1014,554,0,0
-203,470,0,0,0,0,0,0,0,0,0,-1,1021,554,0,0
-196,470,0,0,0,0,0,0,0,0,0,-1,1028,554,0,0
-189,470,0,0,0,0,0,0,0,0,0,-1,1035,554,0,0
-182,470,0,0,0,0,0,0,0,0,0,-1,1042,554,0,0
-175,470,0,0,0,0,0,0,0,0,0,-1,1049,554,0,0
-168,470,0,0,0,0,0,0,0,0,0,-1,1056,554,0,0
-161,470,0,0,0,0,0,0,0,0,0,-1,1063,554,0,0
-154,470,0,0,0,0,0,0,0,0,0,-1,1070,554,0,0
-147,470,0,0,0,0,0,0,0,0,0,-1,1077,554,0,0
-140,470,0,0,0,0,0,0,0,0,0,-1,1084,554,0,0
-133,470,0,0,0,0,0,0,0,0,0,-1,1091,554,0,0
-126,470,0,0,0,0,0,0,0,0,0,-1,1098,554,0,0
-119,470,0,0,0,0,0,0,0,0,0,-1,1105,554,0,0
-112,470,0,0,0,0,0,0,0,0,0,-1,1112,554,0,0
-105,470,0,0,0,0,0,0,0,0,0,-1,1119,554,0,0
-98,470,0,0,0,0,0,0,0,0,0,-1,1126,554,0,0
-91,470,0,0,0,0,0,0,0,0,0,-1,1133,554,0,0
-84,470,0,0,0,0,0,0,0,0,0,-1,1140,554,0,0
-77,470,0,0,0,0,0,0,0,0,0,-1,1147,554,0,0
-70,470,0,0,0,0,0,0,0,0,0,-1,1154,554,0,0
-63,470,0,0,0,0,0,0,0,0,0,-1,1161,554,0,0
-56,470,0,0,0,0,0,0,0,0,0,-1,1168,554,0,0
-49,470,0,0,0,0,0,0,0,0,0,-1,1175,554,0,0
-42,470,0,0,0,0,0,0,0,0,0,-1,1182,554,0,0
-35,470,0,0,0,0,0,0,0,0,0,-1,1189,554,0,0
-28,470,0,0,0,0,0,0,0,0,0,-1,1196,554,0,0
-21,470,0,0,0,0,0,0,0,0,0,-1,1203,554,0,0
-14,470,0,0,0,0,0,0,0,0,0,-1,1210,554,0,0
-7,470,0,0,0,0,0,0,0,0,0,-1,1217,554,0,0
0,470,0,0,0,0,0,0,0,0,0,-1,1224,554,0,0
7,470,0,0,0,0,0,0,0,0,0,-1,1231,554,0,0
14,470,0,0,0,0,0,0,0,0,0,-1,1238,554,0,0
21,470,0,0,0,0,0,0,0,0,0,-1,1245,554,0,0
28,470,0,0,0,0,0,0,0,0,0,-1,1252,554,0,0
35,470,0,0,0,0,0,0,0,0,0,-1,1259,554,0,0
42,470,0,0,0,0,0,0,0,0,0,-1,1266,554,0,0
49,470,0,0,0,0,0,0,0,0,0,-1,1273,554,0,0
56,470,0,0,0,0,0,0,0,0,0,-1,1280,554,0,0
63,470,0,0,0,0,0,0,0,0,0,-1,1287,554,0,0
70,470,0,0,0,0,0,0,0,0,0,-1,1294,554,0,0
77,470,0,0,0,0,0,0,0,0,0,-1,1301,554,0,0
84,470,0,0,0,0,0,0,0,0,0,-1,1308,554,0,0
91,470,0,0,0,0,0,0,0,0,0,-1,1315,554,0,0
98,470,0,0,0,0,0,0,0,0,0,-1,1322,554,0,0
105,470,0,0,0,0,0,0,0,0,0,-1,1329,554,0,0
112,470,0,0,0,0,0,0,0,0,0,-1,1336,554,0,0
119,470,0,0,0,0,0,0,0,0,0,-1,1343,554,0,0
126,470,0,0,0,0,0,0,0,0,0,-1,1350,554,0,0
133,470,0,0,0,0,0,0,0,0,0,-1,1357,554,0,0
140,470,0,0,0,0,0,0,0,0,0,-1,1364,554,0,0
147,470,0,0,0,0,0,0,0,0,0,-1,1371,554,0,0
154,470,0,0,0,0,0,0,0,0,0,-1,1378,554,0,0
161,470,0,0,0,0,0,0,0,0,0,-1,1385,554,0,0
168,470,0,0,0,0,0,0,0,0,0,-1,1392,554,0,0
175,470,0,0,0,0,0,0,0,0,0,-1,1399,554,0,0
182,470,0,0,0,0,0,0,0,0,0,-1,1406,554,0,0
189,470,0,0,0,0,0,0,0,0,0,-1,1413,554,0,0
196,470,0,0,0,0,0,0,0,0,0,-1,1420,554,0,0
203,470,0,0,0,0,0,0,0,0,0,-1,1427,554,0,0
210,470,0,0,0,0,0,0,0,0,0,-1,1434,554,0,0
217,470,0,0,0,0,0,0,0,0,0,-1,1441,554,0,0
224,470,0,0,0,0,0,0,0,0,0,-1,1448,554,0,0
231,470,0,0,0,0,0,0,0,0,0,-1,1455,554,0,0
238,470,0,0,0,0,0,0,0,0,0,-1,1462,554,0,0
245,470,0,0,0,0,0,0,0,0,0,-1,1469,554,0,0
252,470,0,0,0,0,0,0,0,0,0,-1,1476,554,0,0
259,470,0,0,0,0,0,0,0,0,0,-1,1483,554,0,0
266,470,0,0,0,0,0,0,0,0,0,-1,1490,554,0,0
273,470,0,0,0,0,0,0,0,0,0,-1,1497,554,0,0
280,470,0,0,0,0,0,0,0,0,0,-1,1504,554,0,0
287,470,0,0,0,0,0,0,0,0,0,-1,1511,554,0,0
294,470,0,0,0,0,0,0,0,0,0,-1,1518,554,0,0
301,470,0,0,0,0,0,0,0,0,0,-1,1525,554,0,0
308,470,0,0,0,0,0,0,0,0,0,-1,1532,554,0,0
315,470,0,0,0,0,0,0,0,0,0,-1,1539,554,0,0
322,470,0,0,0,0,0,0,0,0,0,-1,1546,554,0,0
329,470,0,0,0,0,0,0,0,0,0,-1,1553,554,0,0
336,470,0,0,0,0,0,0,0,0,0,-1,1560,554,0,0
343,470,0,0,0,0,0,0,0,0,0,-1,1567,554,0,0
350,470,0,0,0,0,0,0,0,0,0,-1,1574,554,0,0
357,470,0,0,0,0,0,0,0,0,0,-1,1581,554,0,0
364,470,1.33423,0.293335,0,0,0,0,0,0,0,-1,1588,554,1.33422,-0.293348
371,470,2.22498,-0.0305176,0,0,0,0,0,0,0,-1,1595,554,2.22494,0.0305046
378,470,6.27051,0.710083,0,0,0,0,0,0,0,-1,1602,554,6.27054,-0.710093
385,470,10.3657,1.47296,0,0,0,0,0,0,0,-1,1609,554,10.3657,-1.47299
392,470,15.3881,3.01935,0,0,0,0,0,0,0,-1,1616,554,15.388,-3.01937
399,470,18.4479,2.93793,0,0,0,0,0,0,0,-1,1623,554,18.4479,-2.93792
406,470,15.1896,1.36676,0,0,0,0,0,0,0,-1,1630,554,15.1896,-1.36679
413,470,6.55383,1.99207,0,0,0,0,0,0,0,-1,1637,554,6.5538,-1.99208
420,470,4.47095,0.845703,0,0,0,0,0,0,0,-1,1644,554,4.47098,-0.845718
427,470,3.51038,1.19684,0,0,0,0,0,0,0,-1,1651,554,3.51039,-1.19684
434,470,3.31775,-1.37427,0,0,0,0,0,0,0,-1,1658,554,3.31781,1.37426
441,470,2.55457,-2.05902,0,0,0,0,0,0,0,-1,1665,554,2.55461,2.05904
448,470,3.27258,-2.64032,0,0,0,0,0,0,0,-1,1672,554,3.27257,2.64029
455,470,10.3658,-9.82233,0,0,0,0,0,0,0,-1,1679,554,10.3659,9.82233
462,470,11.0651,-11.9958,0,0,0,0,0,0,0,-1,1686,554,11.0651,11.9958
469,470,15.4242,-19.0521,0,0,0,0,0,0,0,-1,1693,554,15.4242,19.0521
476,470,17.7461,-21.2029,0,0,0,0,0,0,0,-1,1700,554,17.7461,21.2029
483,470,17.76,-20.4813,0.00261033,-0.000144509,-0.000732575,0.00279302,-0.000327202,-0.244399,0.00198011,0.0184006,1707,554,17.76,20.4813
490,470,17.7087,-19.8412,0.00235782,0.000307911,-0.000248133,0.00238743,0.000278303,-0.118761,0.00150744,0.0126022,1714,554,17.7087,19.8412
497,470,17.6846,-19.1636,0.00205353,0.000851202,0.00035407,0.00215005,0.000754682,0.266136,0.00125957,0.0130336,1721,554,17.6846,19.1636
504,470,17.6886,-18.5704,0.00165273,0.000881575,0.000709352,0.00207452,0.000459779,0.536455,0.00125808,0.0191802,1728,554,17.6886,18.5704
511,470,17.7026,-17.9603,0.00113666,0.000962557,0.000943554,0.00199717,0.000102047,0.739399,0.00129877,0.0258599,1735,554,17.7026,17.9603
518,470,17.667,-17.2115,0.000549221,0.0010888,0.00110009,0.0019517,-0.000313683,0.905646,0.00141731,0.0265527,1742,554,17.667,17.2116
525,470,17.6031,-16.4771,-5.57473e-05,0.00117903,0.0011848,0.00189766,-0.000774369,1.02559,0.00158748,0.0169463,1749,554,17.6031,16.4771
532,470,17.5388,-15.7795,-0.000660724,0.00132027,0.00121565,0.00189785,-0.00123831,1.12725,0.00182396,0.0140314,1756,554,17.5388,15.7795
539,470,17.5077,-15.1047,-0.00124544,0.00147346,0.001184,0.00191678,-0.00168875,1.21253,0.00208304,0.0166627,1763,554,17.5077,15.1047
546,470,17.4958,-14.456,-0.0017782,0.001779,0.00114964,0.0021182,-0.0021174,1.28388,0.00244543,0.0158593,1770,554,17.4958,14.456
553,470,17.4935,-13.7358,-0.00219465,0.00219314,0.00114197,0.00247256,-0.00247406,1.33083,0.00285593,0.0257915,1777,554,17.4935,13.7358
560,470,17.5376,-12.8202,0,0,0,0,0,0,0,-1,1784,554,17.5377,12.8202
567,470,17.481,-12.0795,0,0,0,0,0,0,0,-1,1791,554,17.4809,12.0795
574,470,14.2793,-8.07147,0,0,0,0,0,0,0,-1,1798,554,14.2793,8.07147
581,470,8.24646,-4.06317,0,0,0,0,0,0,0,-1,1805,554,8.24648,4.06318
588,470,11.1803,1.74927,0,0,0,0,0,0,0,-1,1812,554,11.1803,-1.74926
595,470,4.72192,3.44116,0,0,0,0,0,0,0,-1,1819,554,4.72191,-3.44116
602,470,14.4307,2.76141,0,0,0,0,0,0,0,-1,1826,554,14.4306,-2.76139
609,470,20.9181,4.41058,0,0,0,0,0,0,0,-1,1833,554,20.9181,-4.4106
616,470,0,0,0,0,0,0,0,0,0,-1,1840,554,0,0
623,470,0,0,0,0,0,0,0,0,0,-1,1847,554,0,0
630,470,0,0,0,0,0,0,0,0,0,-1,1854,554,0,0
637,470,0,0,0,0,0,0,0,0,0,-1,1861,554,0,0
644,470,0,0,0,0,0,0,0,0,0,-1,1868,554,0,0
651,470,0,0,0,0,0,0,0,0,0,-1,1875,554,0,0
658,470,0,0,0,0,0,0,0,0,0,-1,1882,554,0,0
665,470,0,0,0,0,0,0,0,0,0,-1,1889,554,0,0
672,470,0,0,0,0,0,0,0,0,0,-1,1896,554,0,0
679,470,0,0,0,0,0,0,0,0,0,-1,1903,554,0,0
686,470,0,0,0,0,0,0,0,0,0,-1,1910,554,0,0
693,470,0,0,0,0,0,0,0,0,0,-1,1917,554,0,0
700,470,0,0,0,0,0,0,0,0,0,-1,1924,554,0,0
707,470,0,0,0,0,0,0,0,0,0,-1,1931,554,0,0
714,470,0,0,0,0,0,0,0,0,0,-1,1938,554,0,0
721,470,0,0,0,0,0,0,0,0,0,-1,1945,554,0,0
728,470,0,0,0,0,0,0,0,0,0,-1,1952,554,0,0
735,470,0,0,0,0,0,0,0,0,0,-1,1959,554,0,0
742,470,0,0,0,0,0,0,0,0,0,-1,1966,554,0,0
749,470,0,0,0,0,0,0,0,0,0,-1,1973,554,0,0
756,470,0,0,0,0,0,0,0,0,0,-1,1980,554,0,0
763,470,0,0,0,0,0,0,0,0,0,-1,1987,554,0,0
770,470,0,0,0,0,0,0,0,0,0,-1,1994,554,0,0
777,470,0,0,0,0,0,0,0,0,0,-1,2001,554,0,0
784,470,0,0,0,0,0,0,0,0,0,-1,2008,554,0,0
791,470,0,0,0,0,0,0,0,0,0,-1,2015,554,0,0
798,470,0,0,0,0,0,0,0,0,0,-1,2022,554,0,0
805,470,0,0,0,0,0,0,0,0,0,-1,2029,554,0,0
812,470,0,0,0,0,0,0,0,0,0,-1,2036,554,0,0
-700,463,0,0,0,0,0,0,0,0,0,-1,524,561,0,0
-693,463,0,0,0,0,0,0,0,0,0,-1,531,561,0,0
-686,463,0,0,0,0,0,0,0,0,0,-1,538,561,0,0
-679,463,0,0,0,0,0,0,0,0,0,-1,545,561,0,0
-672,463,0,0,0,0,0,0,0,0,0,-1,552,561,0,0
-665,463,0,0,0,0,0,0,0,0,0,-1,559,561,0,0
-658,463,0,0,0,0,0,0,0,0,0,-1,566,561,0,0
-651,463,0,0,0,0,0,0,0,0,0,-1,573,561,0,0
-644,463,0,0,0,0,0,0,0,0,0,-1,580,561,0,0
-637,463,0,0,0,0,0,0,0,0,0,-1,587,561,0,0
-630,463,0,0,0,0,0,0,0,0,0,-1,594,561,0,0
-623,463,0,0,0,0,0,0,0,0,0,-1,601,561,0,0
-616,463,0,0,0,0,0,0,0,0,0,-1,608,561,0,0
-609,463,0,0,0,0,0,0,0,0,0,-1,615,561,0,0
-602,463,0,0,0,0,0,0,0,0,0,-1,622,561,0,0
-595,463,0,0,0,0,0,0,0,0,0,-1,629,561,0,0
-588,463,0,0,0,0,0,0,0,0,0,-1,636,561,0,0
-581,463,0,0,0,0,0,0,0,0,0,-1,643,561,0,0
-574,463,0,0,0,0,0,0,0,0,0,-1,650,561,0,0
-567,463,0,0,0,0,0,0,0,0,0,-1,657,561,0,0
-560,463,0,0,0,0,0,0,0,0,0,-1,664,561,0,0
-553,463,0,0,0,0,0,0,0,0,0,-1,671,561,0,0
-546,463,0,0,0,0,0,0,0,0,0,-1,678,561,0,0
-539,463,0,0,0,0,0,0,0,0,0,-1,685,561,0,0
-532,463,0,0,0,0,0,0,0,0,0,-1,692,561,0,0
-525,463,0,0,0,0,0,0,0,0,0,-1,699,561,0,0
-518,463,0,0,0,0,0,0,0,0,0,-1,706,561,0,0
-511,463,0,0,0,0,0,0,0,0,0,-1,713,561,0,0
-504,463,0,0,0,0,0,0,0,0,0,-1,720,561,0,0
-497,463,-9.81451,-1.67126,0,0,0,0,0,0,0,-1,727,561,-9.81452,1.67127
-490,463,-8.57043,-1.58942,0,0,0,0,0,0,0,-1,734,561,-8.57045,1.58944
-483,463,-7.29224,-1.7226,0,0,0,0,0,0,0,-1,741,561,-7.29226,1.72261
-476,463,-5.77704,-1.7312,0,0,0,0,0,0,0,-1,748,561,-5.77703,1.73121
-469,463,-5.14545,-2.138,0,0,0,0,0,0,0,-1,755,561,-5.14546,2.13799
-462,463,-3.13672,-3.07977,0,0,0,0,0,0,0,-1,762,561,-3.13672,3.07974
-455,463,-2.91406,-5.61798,0,0,0,0,0,0,0,-1,769,561,-2.91406,5.61801
-448,463,-4.00177,-8.54681,0,0,0,0,0,0,0,-1,776,561,-4.00175,8.54683
-441,463,-6.37756,-13.4142,0,0,0,0,0,0,0,-1,783,561,-6.37755,13.4142
-434,463,-6.28229,-14.3473,-0.000406297,0.009568,-0.00394034,0.0109368,-0.00177509,-1.23646,0.00794923,0.029904,790,561,-6.28226,14.3473
-427,463,-6.31573,-15.0513,-0.000334195,0.00791285,-0.00320528,0.00901209,-0.00143344,-1.24042,0.00653846,0.0111762,797,561,-6.31576,15.0513
-420,463,-6.32196,-15.7186,-0.000197127,0.00641166,-0.00267746,0.00736025,-0.00114571,-1.23031,0.00532994,0.00959934,804,561,-6.32196,15.7186
-413,463,-6.35175,-16.3887,-8.77537e-05,0.00477227,-0.00203167,0.00550969,-0.000825179,-1.22262,0.00397683,0.0104689,811,561,-6.35175,16.3887
-406,463,-6.39069,-17.052,0.000158722,0.00362151,-0.00159598,0.00424488,-0.000464642,-1.19843,0.00299683,0.0105499,818,561,-6.39066,17.052
-399,463,-6.40546,-17.7,0.000522845,0.00248634,-0.00121869,0.00306954,-6.03485e-05,-1.12446,0.00206677,0.0109893,825,561,-6.40543,17.6999
-392,463,-6.43549,-18.3405,0.0010065,0.00138395,-0.000858179,0.00207391,0.000316539,-0.893634,0.0012901,0.0110224,832,561,-6.4355,18.3405
-385,463,-6.46466,-19.0026,0.00160954,0.000472487,-0.000611279,0.00187581,0.000206218,-0.41081,0.00118778,0.0117735,839,561,-6.46467,19.0026
-378,463,-6.49365,-19.641,0.00225937,-0.000426642,-0.000370175,0.00230945,-0.000476724,-0.134477,0.0017207,0.0129917,846,561,-6.49367,19.641
-371,463,-6.5163,-20.2809,0.00299822,-0.00120457,-0.00016852,0.00300497,-0.00121132,-0.0400114,0.00250662,0.0125469,853,561,-6.51628,20.2809
-364,463,-6.5033,-20.8723,0.00378412,-0.00182562,-4.72356e-05,0.00378452,-0.00182602,-0.00841948,0.00330438,0.0141052,860,561,-6.50332,20.8722
-357,463,-6.52277,-21.4655,0.00469845,-0.00237464,-6.20743e-05,0.004699,-0.00237518,-0.00877521,0.00415709,0.0199823,867,561,-6.52279,21.4655
-350,463,-6.4726,-22.1661,0.00570527,-0.00286537,-0.000190972,0.00570952,-0.00286962,-0.0222673,0.00504282,0.0420535,874,561,-6.47261,22.1661
-343,463,-6.23053,-22.8391,0,0,0,0,0,0,0,-1,881,561,-6.23051,22.8391
-336,463,-2.94928,-12.2127,0,0,0,0,0,0,0,-1,888,561,-2.94925,12.2127
-329,463,-2.64307,-12.7037,0,0,0,0,0,0,0,-1,895,561,-2.64307,12.7038
-322,463,-1.82898,-9.11957,0,0,0,0,0,0,0,-1,902,561,-1.829,9.11957
-315,463,-0.944763,-5.96234,0,0,0,0,0,0,0,-1,909,561,-0.94479,5.96237
-308,463,-1.1535,-3.17889,0,0,0,0,0,0,0,-1,916,561,-1.15352,3.17889
-301,463,-1.50366,-3.15338,0,0,0,0,0,0,0,-1,923,561,-1.50364,3.15341
-294,463,-2.35889,-3.93463,0,0,0,0,0,0,0,-1,930,561,-2.35886,3.93465
-287,463,-2.80322,2.73999,0,0,0,0,0,0,0,-1,937,561,-2.80322,-2.74
-280,463,-12.864,5.25146,0,0,0,0,0,0,0,-1,944,561,-12.864,-5.25149
-273,463,-12.4598,3.39178,0,0,0,0,0,0,0,-1,951,561,-12.4598,-3.3918
-266,463,-8.78101,-3.7356,0,0,0,0,0,0,0,-1,958,561,-8.78098,3.73562
-259,463,-6.23285,-5.68842,0,0,0,0,0,0,0,-1,965,561,-6.23288,5.68843
-252,463,0,0,0,0,0,0,0,0,0,-1,972,561,0,0
-245,463,0,0,0,0,0,0,0,0,0,-1,979,561,0,0
-238,463,0,0,0,0,0,0,0,0,0,-1,986,561,0,0
-231,463,0,0,0,0,0,0,0,0,0,-1,993,561,0,0
-224,463,0,0,0,0,0,0,0,0,0,-1,1000,561,0,0
-217,463,0,0,0,0,0,0,0,0,0,-1,1007,561,0,0
-210,463,0,0,0,0,0,0,0,0,0,-1,1014,561,0,0
-203,463,0,0,0,0,0,0,0,0,0,-1,1021,561,0,0
-196,463,0,0,0,0,0,0,0,0,0,-1,1028,561,0,0
-189,463,0,0,0,0,0,0,0,0,0,-1,1035,561,0,0
-182,463,0,0,0,0,0,0,0,0,0,-1,1042,561,0,0
-175,463,0,0,0,0,0,0,0,0,0,-1,1049,561,0,0
-168,463,0,0,0,0,0,0,0,0,0,-1,1056,561,0,0
-161,463,0,0,0,0,0,0,0,0,0,-1,1063,561,0,0
-154,463,0,0,0,0,0,0,0,0,0,-1,1070,561,0,0
-147,463,0,0,0,0,0,0,0,0,0,-1,1077,561,0,0
-140,463,0,0,0,0,0,0,0,0,0,-1,1084,561,0,0
-133,463,0,0,0,0,0,0,0,0,0,-1,1091,561,0,0
-126,463,0,0,0,0,0,0,0,0,0,-1,1098,561,0,0
-119,463,0,0,0,0,0,0,0,0,0,-1,1105,561,0,0
-112,463,0,0,0,0,0,0,0,0,0,-1,1112,561,0,0
-105,463,0,0,0,0,0,0,0,0,0,-1,1119,561,0,0
-98,463,0,0,0,0,0,0,0,0,0,-1,1126,561,0,0
-91,463,0,0,0,0,0,0,0,0,0,-1,1133,561,0,0
-84,463,0,0,0,0,0,0,0,0,0,-1,1140,561,0,0
-77,463,0,0,0,0,0,0,0,0,0,-1,1147,561,0,0
-70,463,0,0,0,0,0,0,0,0,0,-1,1154,561,0,0
-63,463,0,0,0,0,0,0,0,0,0,-1,1161,561,0,0
-56,463,0,0,0,0,0,0,0,0,0,-1,1168,561,0,0
-49,463,0,0,0,0,0,0,0,0,0,-1,1175,561,0,0
-42,463,0,0,0,0,0,0,0,0,0,-1,1182,561,0,0
-35,463,0,0,0,0,0,0,0,0,0,-1,1189,561,0,0
-28,463,0,0,0,0,0,0,0,0,0,-1,1196,561,0,0
-21,463,0,0,0,0,0,0,0,0,0,-1,1203,561,0,0
-14,463,0,0,0,0,0,0,0,0,0,-1,1210,561,0,0
-7,463,0,0,0,0,0,0,0,0,0,-1,1217,561,0,0
0,463,0,0,0,0,0,0,0,0,0,-1,1224,561,0,0
7,463,0,0,0,0,0,0,0,0,0,-1,1231,561,0,0
14,463,0,0,0,0,0,0,0,0,0,-1,1238,561,0,0
21,463,0,0,0,0,0,0,0,0,0,-1,1245,561,0,0
28,463,0,0,0,0,0,0,0,0,0,-1,1252,561,0,0
35,463,0,0,0,0,0,0,0,0,0,-1,1259,561,0,0
42,463,0,0,0,0,0,0,0,0,0,-1,1266,561,0,0
49,463,0,0,0,0,0,0,0,0,0,-1,1273,561,0,0
56,463,0,0,0,0,0,0,0,0,0,-1,1280,561,0,0
63,463,0,0,0,0,0,0,0,0,0,-1,1287,561,0,0
70,463,0,0,0,0,0,0,0,0,0,-1,1294,561,0,0
77,463,0,0,0,0,0,0,0,0,0,-1,1301,561,0,0
84,463,0,0,0,0,0,0,0,0,0,-1,1308,561,0,0
91,463,0,0,0,0,0,0,0,0,0,-1,1315,561,0,0
98,463,0,0,0,0,0,0,0,0,0,-1,1322,561,0,0
105,463,0,0,0,0,0,0,0,0,0,-1,1329,561,0,0
112,463,0,0,0,0,0,0,0,0,0,-1,1336,561,0,0
119,463,0,0,0,0,0,0,0,0,0,-1,1343,561,0,0
126,463,0,0,0,0,0,0,0,0,0,-1,1350,561,0,0
133,463,0,0,0,0,0,0,0,0,0,-1,1357,561,0,0
140,463,0,0,0,0,0,0,0,0,0,-1,1364,561,0,0
147,463,0,0,0,0,0,0,0,0,0,-1,1371,561,0,0
154,463,0,0,0,0,0,0,0,0,0,-1,1378,561,0,0
161,463,0,0,0,0,0,0,0,0,0,-1,1385,561,0,0
168,463,0,0,0,0,0,0,0,0,0,-1,1392,561,0,0
175,463,0,0,0,0,0,0,0,0,0,-1,1399,561,0,0
182,463,0,0,0,0,0,0,0,0,0,-1,1406,561,0,0
189,463,0,0,0,0,0,0,0,0,0,-1,1413,561,0,0
196,463,0,0,0,0,0,0,0,0,0,-1,1420,561,0,0
203,463,0,0,0,0,0,0,0,0,0,-1,1427,561,0,0
210,463,0,0,0,0,0,0,0,0,0,-1,1434,561,0,0
217,463,0,0,0,0,0,0,0,0,0,-1,1441,561,0,0
224,463,0,0,0,0,0,0,0,0,0,-1,1448,561,0,0
231,463,0,0,0,0,0,0,0,0,0,-1,1455,561,0,0
238,463,0,0,0,0,0,0,0,0,0,-1,1462,561,0,0
245,463,0,0,0,0,0,0,0,0,0,-1,1469,561,0,0
252,463,0,0,0,0,0,0,0,0,0,-1,1476,561,0,0
259,463,0,0,0,0,0,0,0,0,0,-1,1483,561,0,0
266,463,0,0,0,0,0,0,0,0,0,-1,1490,561,0,0
273,463,0,0,0,0,0,0,0,0,0,-1,1497,561,0,0
280,463,0,0,0,0,0,0,0,0,0,-1,1504,561,0,0
287,463,0,0,0,0,0,0,0,0,0,-1,1511,561,0,0
294,463,0,0,0,0,0,0,0,0,0,-1,1518,561,0,0
301,463,0,0,0,0,0,0,0,0,0,-1,1525,561,0,0
308,463,0,0,0,0,0,0,0,0,0,-1,1532,561,0,0
315,463,0,0,0,0,0,0,0,0,0,-1,1539,561,0,0
322,463,0,0,0,0,0,0,0,0,0,-1,1546,561,0,0
329,463,0,0,0,0,0,0,0,0,0,-1,1553,561,0,0
336,463,0,0,0,0,0,0,0,0,0,-1,1560,561,0,0
343,463,0,0,0,0,0,0,0,0,0,-1,1567,561,0,0
350,463,0,0,0,0,0,0,0,0,0,-1,1574,561,0,0
357,463,0,0,0,0,0,0,0,0,0,-1,1581,561,0,0
364,463,0,0,0,0,0,0,0,0,0,-1,1588,561,0,0
371,463,1.75842,0.152588,0,0,0,0,0,0,0,-1,1595,561,1.75844,-0.152558
378,463,4.58813,-0.0444336,0,0,0,0,0,0,0,-1,1602,561,4.58809,0.0444505
385,463,8.88574,1.65057,0,0,0,0,0,0,0,-1,1609,561,8.88575,-1.65055
392,463,14.0912,2.50513,0,0,0,0,0,0,0,-1,1616,561,14.0912,-2.5051
399,463,21.4769,2.7002,0,0,0,0,0,0,0,-1,1623,561,21.477,-2.70017
406,463,26.2987,4.32318,0,0,0,0,0,0,0,-1,1630,561,26.2987,-4.3232
413,463,26.5011,2.65222,0,0,0,0,0,0,0,-1,1637,561,26.5011,-2.65224
420,463,8.849,2.26611,0,0,0,0,0,0,0,-1,1644,561,8.84899,-2.26613
427,463,5.12207,1.69183,0,0,0,0,0,0,0,-1,1651,561,5.12206,-1.69184
434,463,4.59814,1.81995,0,0,0,0,0,0,0,-1,1658,561,4.59812,-1.81994
441,463,1.76392,-5.99225,0,0,0,0,0,0,0,-1,1665,561,1.7639,5.99225
448,463,2.49939,-4.30536,0,0,0,0,0,0,0,-1,1672,561,2.49941,4.30536
455,463,4.40295,-3.02557,0,0,0,0,0,0,0,-1,1679,561,4.40299,3.02558
462,463,5.38293,-4.06445,0,0,0,0,0,0,0,-1,1686,561,5.38289,4.06444
469,463,5.94373,-4.50647,0,0,0,0,0,0,0,-1,1693,561,5.94368,4.50646
476,463,15.2559,-17.3189,0,0,0,0,0,0,0,-1,1700,561,15.2558,17.3189
483,463,18.368,-20.5228,0,0,0,0,0,0,0,-1,1707,561,18.3681,20.5228
490,463,18.3645,-19.8231,0.00321972,6.83021e-05,4.65016e-05,0.00322041,6.7616e-05,0.0147515,0.00212476,0.0264663,1714,561,18.3645,19.8231
497,463,18.3392,-19.129,0.00289692,0.000714601,0.000610016,0.00305586,0.000555661,0.254884,0.0018796,0.0144896,1721,561,18.3393,19.129
504,463,18.3412,-18.5087,0.00244137,0.000751673,0.000843737,0.00279054,0.000402511,0.392369,0.00174176,0.0163812,1728,561,18.3412,18.5087
511,463,18.3289,-17.8947,0.00189753,0.000801695,0.000952991,0.00244889,0.000250337,0.524501,0.00155587,0.0232319,1735,561,18.3288,17.8947
518,463,18.3198,-17.1583,0.00130609,0.000906938,0.00102231,0.00214812,6.49102e-05,0.688999,0.00141094,0.0260523,1742,561,18.3199,17.1583
525,463,18.2781,-16.4761,0.000694455,0.000990377,0.00102873,0.00188173,-0.000196898,0.856823,0.00132501,0.0207186,1749,561,18.2781,16.4761
532,463,18.2764,-15.7886,9.20738e-05,0.00112266,0.000998283,0.0017308,-0.000516063,1.02365,0.00135895,0.0167502,1756,561,18.2763,15.7886
539,463,18.2024,-15.091,-0.000461428,0.00127054,0.00094434,0.00168585,-0.000876734,1.15647,0.00150389,0.0179232,1763,561,18.2024,15.091
546,463,18.1521,-14.451,-0.000943541,0.00156885,0.00090837,0.00186287,-0.00123756,1.25776,0.00180213,0.0144008,1770,561,18.152,14.451
553,463,18.1359,-13.7273,-0.00134496,0.00194343,0.000917521,0.00218211,-0.00158364,1.3163,0.00218329,0.0116387,1777,561,18.1358,13.7273
560,463,18.1418,-12.9196,-0.00164528,0.00238385,0.000967444,0.0026041,-0.00186553,1.34694,0.00259226,0.0228247,1784,561,18.1418,12.9196
567,463,17.9989,-12.2418,-0.0017408,0.00305828,0.00125805,0.00336808,-0.0020506,1.32935,0.00315915,0.0338827,1791,561,17.9989,12.2418
574,463,18.0812,-11.5739,0,0,0,0,0,0,0,-1,1798,561,18.0811,11.5739
581,463,9.4939,-3.88245,0,0,0,0,0,0,0,-1,1805,561,9.49392,3.88245
588,463,1.97424,2.16016,0,0,0,0,0,0,0,-1,1812,561,1.97422,-2.16013
595,463,9.98657,2.99854,0,0,0,0,0,0,0,-1,1819,561,9.98662,-2.99856
602,463,17.2202,4.91302,0,0,0,0,0,0,0,-1,1826,561,17.2202,-4.91305
609,463,17.96,4.03131,0,0,0,0,0,0,0,-1,1833,561,17.96,-4.03132
616,463,20.8352,3.15131,0,0,0,0,0,0,0,-1,1840,561,20.8352,-3.1513
623,463,0,0,0,0,0,0,0,0,0,-1,1847,561,0,0
630,463,0,0,0,0,0,0,0,0,0,-1,1854,561,0,0
637,463,0,0,0,0,0,0,0,0,0,-1,1861,561,0,0
644,463,0,0,0,0,0,0,0,0,0,-1,1868,561,0,0
651,463,0,0,0,0,0,0,0,0,0,-1,1875,561,0,0
658,463,0,0,0,0,0,0,0,0,0,-1,1882,561,0,0
665,463,0,0,0,0,0,0,0,0,0,-1,1889,561,0,0
672,463,0,0,0,0,0,0,0,0,0,-1,1896,561,0,0
679,463,0,0,0,0,0,0,0,0,0,-1,1903,561,0,0
686,463,0,0,0,0,0,0,0,0,0,-1,1910,561,0,0
693,463,0,0,0,0,0,0,0,0,0,-1,1917,561,0,0
700,463,0,0,0,0,0,0,0,0,0,-1,1924,561,0,0
707,463,0,0,0,0,0,0,0,0,0,-1,1931,561,0,0
714,463,0,0,0,0,0,0,0,0,0,-1,1938,561,0,0
721,463,0,0,0,0,0,0,0,0,0,-1,1945,561,0,0
728,463,0,0,0,0,0,0,0,0,0,-1,1952,561,0,0
735,463,0,0,0,0,0,0,0,0,0,-1,1959,561,0,0
742,463,0,0,0,0,0,0,0,0,0,-1,1966,561,0,0
749,463,0,0,0,0,0,0,0,0,0,-1,1973,561,0,0
756,463,0,0,0,0,0,0,0,0,0,-1,1980,561,0,0
763,463,0,0,0,0,0,0,0,0,0,-1,1987,561,0,0
770,463,0,0,0,0,0,0,0,0,0,-1,1994,561,0,0
777,463,0,0,0,0,0,0,0,0,0,-1,2001,561,0,0
784,463,0,0,0,0,0,0,0,0,0,-1,2008,561,0,0
791,463,0,0,0,0,0,0,0,0,0,-1,2015,561,0,0
798,463,0,0,0,0,0,0,0,0,0,-1,2022,561,0,0
805,463,0,0,0,0,0,0,0,0,0,-1,2029,561,0,0
812,463,0,0,0,0,0,0,0,0,0,-1,2036,561,0,0
-700,456,0,0,0,0,0,0,0,0,0,-1,524,568,0,0
-693,456,0,0,0,0,0,0,0,0,0,-1,531,568,0,0
-686,456,0,0,0,0,0,0,0,0,0,-1,538,568,0,0
-679,456,0,0,0,0,0,0,0,0,0,-1,545,568,0,0
-672,456,0,0,0,0,0,0,0,0,0,-1,552,568,0,0
-665,456,0,0,0,0,0,0,0,0,0,-1,559,568,0,0
-658,456,0,0,0,0,0,0,0,0,0,-1,566,568,0,0
-651,456,0,0,0,0,0,0,0,0,0,-1,573,568,0,0
-644,456,0,0,0,0,0,0,0,0,0,-1,580,568,0,0
-637,456,0,0,0,0,0,0,0,0,0,-1,587,568,0,0
-630,456,0,0,0,0,0,0,0,0,0,-1,594,568,0,0
-623,456,0,0,0,0,0,0,0,0,0,-1,601,568,0,0
-616,456,0,0,0,0,0,0,0,0,0,-1,608,568,0,0
-609,456,0,0,0,0,0,0,0,0,0,-1,615,568,0,0
-602,456,0,0,0,0,0,0,0,0,0,-1,622,568,0,0
-595,456,0,0,0,0,0,0,0,0,0,-1,629,568,0,0
-588,456,0,0,0,0,0,0,0,0,0,-1,636,568,0,0
-581,456,0,0,0,0,0,0,0,0,0,-1,643,568,0,0
-574,456,0,0,0,0,0,0,0,0,0,-1,650,568,0,0
-567,456,0,0,0,0,0,0,0,0,0,-1,657,568,0,0
-560,456,0,0,0,0,0,0,0,0,0,-1,664,568,0,0
-553,456,0,0,0,0,0,0,0,0,0,-1,671,568,0,0
-546,456,0,0,0,0,0,0,0,0,0,-1,678,568,0,0
-539,456,0,0,0,0,0,0,0,0,0,-1,685,568,0,0
-532,456,0,0,0,0,0,0,0,0,0,-1,692,568,0,0
-525,456,0,0,0,0,0,0,0,0,0,-1,699,568,0,0
-518,456,0,0,0,0,0,0,0,0,0,-1,706,568,0,0
-511,456,0,0,0,0,0,0,0,0,0,-1,713,568,0,0
-504,456,-10.3994,-2.34839,0,0,0,0,0,0,0,-1,720,568,-10.3994,2.3484
-497,456,-9.21375,-2.38068,0,0,0,0,0,0,0,-1,727,568,-9.21372,2.38069
-490,456,-8.09058,-2.31824,0,0,0,0,0,0,0,-1,734,568,-8.09057,2.31821
-483,456,-6.66119,-2.24329,0,0,0,0,0,0,0,-1,741,568,-6.66121,2.24331
-476,456,-5.1499,-2.21185,0,0,0,0,0,0,0,-1,748,568,-5.14992,2.21184
-469,456,-2.81238,-3.51501,0,0,0,0,0,0,0,-1,755,568,-2.81237,3.51501
-462,456,-4.2431,-5.27478,0,0,0,0,0,0,0,-1,762,568,-4.24312,5.27476
-455,456,-5.98364,-8.72119,0,0,0,0,0,0,0,-1,769,568,-5.98364,8.72122
-448,456,-7.0528,-12.5793,0,0,0,0,0,0,0,-1,776,568,-7.05278,12.5793
-441,456,-7.0033,-13.5857,0,0,0,0,0,0,0,-1,783,568,-7.0033,13.5857
-434,456,-6.92999,-14.3662,-2.76372e-05,0.007607,-0.00342819,0.00892041,-0.00134105,-1.20492,0.00644067,0.0184192,790,568,-6.93001,14.3662
-427,456,-6.95367,-15.0427,2.77973e-05,0.00607081,-0.00267963,0.00708785,-0.000989249,-1.20804,0.00508715,0.0092407,797,568,-6.95367,15.0427
-420,456,-6.97974,-15.7015,0.000155164,0.0047087,-0.00212144,0.00554387,-0.00068001,-1.19575,0.00394218,0.00903846,804,568,-6.97973,15.7015
-413,456,-7.01086,-16.3503,0.000241608,0.00318617,-0.00144942,0.00377991,-0.000352127,-1.18201,0.00264514,0.00953329,811,568,-7.01087,16.3503
-406,456,-7.06256,-17.0045,0.000459055,0.0021392,-0.00101001,0.00261283,-1.45831e-05,-1.1323,0.00174677,0.00984135,818,568,-7.06259,17.0044
-399,456,-7.07965,-17.6533,0.000830565,0.00113186,-0.000665853,0.00166389,0.00029853,-0.896649,0.00102436,0.0113359,825,568,-7.07968,17.6533
-392,456,-7.09021,-18.2935,0.00135297,0.000157759,-0.000356799,0.00145138,5.9349e-05,-0.269122,0.000948425,0.0109922,832,568,-7.09019,18.2934
-385,456,-7.11462,-18.9433,0.00200522,-0.000627245,-0.000166574,0.00201572,-0.000637744,-0.0629422,0.00159935,0.0104503,839,568,-7.11462,18.9433
-378,456,-7.14343,-19.6021,0.00273278,-0.00137408,3.09082e-06,0.00273278,-0.00137408,0.0007526,0.00241396,0.0108232,846,568,-7.14342,19.602
-371,456,-7.16095,-20.2352,0.00360792,-0.00193937,0.000137492,0.00361132,-0.00194278,0.0247652,0.00325454,0.0115747,853,568,-7.16094,20.2352
-364,456,-7.13654,-20.842,0.00459015,-0.00222934,0.000115673,0.00459211,-0.0022313,0.0169556,0.00401733,0.0262488,860,568,-7.13652,20.842
-357,456,-7.0448,-21.5132,0,0,0,0,0,0,0,-1,867,568,-7.04477,21.5132
-350,456,-6.91852,-22.3755,0,0,0,0,0,0,0,-1,874,568,-6.91849,22.3755
-343,456,-3.39081,-12.0217,0,0,0,0,0,0,0,-1,881,568,-3.39078,12.0217
-336,456,-3.04517,-12.4623,0,0,0,0,0,0,0,-1,888,568,-3.04519,12.4624
-329,456,-1.06183,-10.7184,0,0,0,0,0,0,0,-1,895,568,-1.06184,10.7184
-322,456,-0.662537,-7.66632,0,0,0,0,0,0,0,-1,902,568,-0.662564,7.66633
-315,456,-0.675476,-3.38397,0,0,0,0,0,0,0,-1,909,568,-0.675473,3.38399
-308,456,-1.1618,-3.15314,0,0,0,0,0,0,0,-1,916,568,-1.16178,3.15314
-301,456,-1.83551,-3.26447,0,0,0,0,0,0,0,-1,923,568,-1.8355,3.26449
-294,456,-2.93414,-3.35449,0,0,0,0,0,0,0,-1,930,568,-2.93413,3.35451
-287,456,-3.7569,-3.53101,0,0,0,0,0,0,0,-1,937,568,-3.75692,3.53101
-280,456,-13.072,4.52856,0,0,0,0,0,0,0,-1,944,568,-13.072,-4.52855
-273,456,-8.26538,-6.66748,0,0,0,0,0,0,0,-1,951,568,-8.26536,6.66745
-266,456,-5.71527,-9.36884,0,0,0,0,0,0,0,-1,958,568,-5.71529,9.36885
-259,456,0,0,0,0,0,0,0,0,0,-1,965,568,0,0
-252,456,0,0,0,0,0,0,0,0,0,-1,972,568,0,0
-245,456,0,0,0,0,0,0,0,0,0,-1,979,568,0,0
-238,456,0,0,0,0,0,0,0,0,0,-1,986,568,0,0
-231,456,0,0,0,0,0,0,0,0,0,-1,993,568,0,0
-224,456,0,0,0,0,0,0,0,0,0,-1,1000,568,0,0
-217,456,0,0,0,0,0,0,0,0,0,-1,1007,568,0,0
-210,456,0,0,0,0,0,0,0,0,0,-1,1014,568,0,0
-203,456,0,0,0,0,0,0,0,0,0,-1,1021,568,0,0
-196,456,0,0,0,0,0,0,0,0,0,-1,1028,568,0,0
-189,456,0,0,0,0,0,0,0,0,0,-1,1035,568,0,0
-182,456,0,0,0,0,0,0,0,0,0,-1,1042,568,0,0
-175,456,0,0,0,0,0,0,0,0,0,-1,1049,568,0,0
-168,456,0,0,0,0,0,0,0,0,0,-1,1056,568,0,0
-161,456,0,0,0,0,0,0,0,0,0,-1,1063,568,0,0
-154,456,0,0,0,0,0,0,0,0,0,-1,1070,568,0,0
-147,456,0,0,0,0,0,0,0,0,0,-1,1077,568,0,0
-140,456,0,0,0,0,0,0,0,0,0,-1,1084,568,0,0
-133,456,0,0,0,0,0,0,0,0,0,-1,1091,568,0,0
-126,456,0,0,0,0,0,0,0,0,0,-1,1098,568,0,0
-119,456,0,0,0,0,0,0,0,0,0,-1,1105,568,0,0
-112,456,0,0,0,0,0,0,0,0,0,-1,1112,568,0,0
-105,456,0,0,0,0,0,0,0,0,0,-1,1119,568,0,0
-98,456,0,0,0,0,0,0,0,0,0,-1,1126,568,0,0
-91,456,0,0,0,0,0,0,0,0,0,-1,1133,568,0,0
-84,456,0,0,0,0,0,0,0,0,0,-1,1140,568,0,0
-77,456,0,0,0,0,0,0,0,0,0,-1,1147,568,0,0
-70,456,0,0,0,0,0,0,0,0,0,-1,1154,568,0,0
-63,456,0,0,0,0,0,0,0,0,0,-1,1161,568,0,0
-56,456,0,0,0,0,0,0,0,0,0,-1,1168,568,0,0
-49,456,0,0,0,0,0,0,0,0,0,-1,1175,568,0,0
-42,456,0,0,0,0,0,0,0,0,0,-1,1182,568,0,0
-35,456,0,0,0,0,0,0,0,0,0,-1,1189,568,0,0
-28,456,0,0,0,0,0,0,0,0,0,-1,1196,568,0,0
-21,456,0,0,0,0,0,0,0,0,0,-1,1203,568,0,0
-14,456,0,0,0,0,0,0,0,0,0,-1,1210,568,0,0
-7,456,0,0,0,0,0,0,0,0,0,-1,1217,568,0,0
0,456,0,0,0,0,0,0,0,0,0,-1,1224,568,0,0
7,456,0,0,0,0,0,0,0,0,0,-1,1231,568,0,0
14,456,0,0,0,0,0,0,0,0,0,-1,1238,568,0,0
21,456,0,0,0,0,0,0,0,0,0,-1,1245,568,0,0
28,456,0,0,0,0,0,0,0,0,0,-1,1252,568,0,0
35,456,0,0,0,0,0,0,0,0,0,-1,1259,568,0,0
42,456,0,0,0,0,0,0,0,0,0,-1,1266,568,0,0
49,456,0,0,0,0,0,0,0,0,0,-1,1273,568,0,0
56,456,0,0,0,0,0,0,0,0,0,-1,1280,568,0,0
63,456,0,0,0,0,0,0,0,0,0,-1,1287,568,0,0
70,456,0,0,0,0,0,0,0,0,0,-1,1294,568,0,0
77,456,0,0,0,0,0,0,0,0,0,-1,1301,568,0,0
84,456,0,0,0,0,0,0,0,0,0,-1,1308,568,0,0
91,456,0,0,0,0,0,0,0,0,0,-1,1315,568,0,0
98,456,0,0,0,0,0,0,0,0,0,-1,1322,568,0,0
105,456,0,0,0,0,0,0,0,0,0,-1,1329,568,0,0
112,456,0,0,0,0,0,0,0,0,0,-1,1336,568,0,0
119,456,0,0,0,0,0,0,0,0,0,-1,1343,568,0,0
126,456,0,0,0,0,0,0,0,0,0,-1,1350,568,0,0
133,456,0,0,0,0,0,0,0,0,0,-1,1357,568,0,0
140,456,0,0,0,0,0,0,0,0,0,-1,1364,568,0,0
147,456,0,0,0,0,0,0,0,0,0,-1,1371,568,0,0
154,456,0,0,0,0,0,0,0,0,0,-1,1378,568,0,0
161,456,0,0,0,0,0,0,0,0,0,-1,1385,568,0,0
168,456,0,0,0,0,0,0,0,0,0,-1,1392,568,0,0
175,456,0,0,0,0,0,0,0,0,0,-1,1399,568,0,0
182,456,0,0,0,0,0,0,0,0,0,-1,1406,568,0,0
189,456,0,0,0,0,0,0,0,0,0,-1,1413,568,0,0
196,456,0,0,0,0,0,0,0,0,0,-1,1420,568,0,0
203,456,0,0,0,0,0,0,0,0,0,-1,1427,568,0,0
210,456,0,0,0,0,0,0,0,0,0,-1,1434,568,0,0
217,456,0,0,0,0,0,0,0,0,0,-1,1441,568,0,0
224,456,0,0,0,0,0,0,0,0,0,-1,1448,568,0,0
231,456,0,0,0,0,0,0,0,0,0,-1,1455,568,0,0
238,456,0,0,0,0,0,0,0,0,0,-1,1462,568,0,0
245,456,0,0,0,0,0,0,0,0,0,-1,1469,568,0,0
252,456,0,0,0,0,0,0,0,0,0,-1,1476,568,0,0
259,456,0,0,0,0,0,0,0,0,0,-1,1483,568,0,0
266,456,0,0,0,0,0,0,0,0,0,-1,1490,568,0,0
273,456,0,0,0,0,0,0,0,0,0,-1,1497,568,0,0
280,456,0,0,0,0,0,0,0,0,0,-1,1504,568,0,0
287,456,0,0,0,0,0,0,0,0,0,-1,1511,568,0,0
294,456,0,0,0,0,0,0,0,0,0,-1,1518,568,0,0
301,456,0,0,0,0,0,0,0,0,0,-1,1525,568,0,0
308,456,0,0,0,0,0,0,0,0,0,-1,1532,568,0,0
315,456,0,0,0,0,0,0,0,0,0,-1,1539,568,0,0
322,456,0,0,0,0,0,0,0,0,0,-1,1546,568,0,0
329,456,0,0,0,0,0,0,0,0,0,-1,1553,568,0,0
336,456,0,0,0,0,0,0,0,0,0,-1,1560,568,0,0
343,456,0,0,0,0,0,0,0,0,0,-1,1567,568,0,0
350,456,0,0,0,0,0,0,0,0,0,-1,1574,568,0,0
357,456,0,0,0,0,0,0,0,0,0,-1,1581,568,0,0
364,456,0,0,0,0,0,0,0,0,0,-1,1588,568,0,0
371,456,0,0,0,0,0,0,0,0,0,-1,1595,568,0,0
378,456,0,0,0,0,0,0,0,0,0,-1,1602,568,0,0
385,456,5.66284,0.660645,0,0,0,0,0,0,0,-1,1609,568,5.66285,-0.660615
392,456,17.5027,4.32971,0,0,0,0,0,0,0,-1,1616,568,17.5026,-4.32971
399,456,24.1917,5.99652,0,0,0,0,0,0,0,-1,1623,568,24.1916,-5.99651
406,456,24.446,4.53003,0,0,0,0,0,0,0,-1,1630,568,24.446,-4.53005
413,456,24.9418,2.90521,0,0,0,0,0,0,0,-1,1637,568,24.9418,-2.90524
420,456,25.3048,1.04712,0,0,0,0,0,0,0,-1,1644,568,25.3048,-1.04713
427,456,6.21375,2.02905,0,0,0,0,0,0,0,-1,1651,568,6.21372,-2.02904
434,456,3.0719,-4.86285,0,0,0,0,0,0,0,-1,1658,568,3.07184,4.86287
441,456,2.90344,-4.70459,0,0,0,0,0,0,0,-1,1665,568,2.90346,4.7046
448,456,3.06995,-4.93689,0,0,0,0,0,0,0,-1,1672,568,3.06991,4.93687
455,456,3.46582,-3.43701,0,0,0,0,0,0,0,-1,1679,568,3.46585,3.43698
462,456,4.68445,-4.45831,0,0,0,0,0,0,0,-1,1686,568,4.68439,4.45833
469,456,4.93201,-2.289,0,0,0,0,0,0,0,-1,1693,568,4.93197,2.28903
476,456,4.8363,-2.79364,0,0,0,0,0,0,0,-1,1700,568,4.83636,2.79363
483,456,12.8522,-13.692,0,0,0,0,0,0,0,-1,1707,568,12.8522,13.6919
490,456,18.954,-19.8828,0,0,0,0,0,0,0,-1,1714,568,18.954,19.8828
497,456,18.9769,-19.0934,0,0,0,0,0,0,0,-1,1721,568,18.977,19.0935
504,456,18.9609,-18.4533,0.00322388,0.000814985,0.00118223,0.00370714,0.000331727,0.388043,0.00236861,0.0147816,1728,568,18.961,18.4533
511,456,18.9662,-17.8028,0.00266449,0.000770189,0.00114973,0.00320696,0.00022772,0.440854,0.00206625,0.01505,1735,568,18.9661,17.8028
518,456,18.9508,-17.1348,0.00208885,0.000794579,0.00112911,0.00274313,0.0001403,0.525182,0.00178383,0.0182703,1742,568,18.9508,17.1348
525,456,18.9329,-16.4576,0.00148637,0.000834835,0.00106021,0.00226973,5.14691e-05,0.636344,0.00149629,0.0169311,1749,568,18.9329,16.4576
532,456,18.9281,-15.7422,0.000901023,0.000928193,0.000975037,0.00188974,-6.05235e-05,0.792364,0.00128048,0.0160353,1756,568,18.9281,15.7422
539,456,18.8744,-15.0496,0.000388678,0.00104722,0.000900597,0.00167685,-0.000240953,0.960657,0.00120627,0.0218514,1763,568,18.8744,15.0496
546,456,18.7968,-14.3651,-4.41633e-05,0.00131467,0.000861111,0.00173212,-0.000461615,1.1194,0.00133548,0.0248822,1770,568,18.7967,14.3651
553,456,18.7659,-13.6438,-0.000426976,0.00165054,0.00088791,0.00197831,-0.000754748,1.21716,0.00162979,0.0149355,1777,568,18.7659,13.6438
560,456,18.7653,-12.9843,-0.000735597,0.00202656,0.000981673,0.0023399,-0.00104894,1.26183,0.00200331,0.010745,1784,568,18.7652,12.9843
567,456,18.7468,-12.2762,-0.000817778,0.00262295,0.00132667,0.00307508,-0.0012699,1.24234,0.00257973,0.0195534,1791,568,18.7468,12.2762
574,456,18.7413,-11.6094,0,0,0,0,0,0,0,-1,1798,568,18.7413,11.6094
581,456,16.2228,-9.08563,0,0,0,0,0,0,0,-1,1805,568,16.2228,9.08562
588,456,5.23901,-0.0901489,0,0,0,0,0,0,0,-1,1812,568,5.23906,0.0901656
595,456,6.90063,3.14886,0,0,0,0,0,0,0,-1,1819,568,6.90066,-3.14887
602,456,16.894,4.10938,0,0,0,0,0,0,0,-1,1826,568,16.8941,-4.1094
609,456,14.9966,3.5708,0,0,0,0,0,0,0,-1,1833,568,14.9966,-3.57083
616,456,17.7407,2.6579,0,0,0,0,0,0,0,-1,1840,568,17.7408,-2.6579
623,456,20.6838,1.7121,0,0,0,0,0,0,0,-1,1847,568,20.6838,-1.71208
630,456,0,0,0,0,0,0,0,0,0,-1,1854,568,0,0
637,456,0,0,0,0,0,0,0,0,0,-1,1861,568,0,0
644,456,0,0,0,0,0,0,0,0,0,-1,1868,568,0,0
651,456,0,0,0,0,0,0,0,0,0,-1,1875,568,0,0
658,456,0,0,0,0,0,0,0,0,0,-1,1882,568,0,0
665,456,0,0,0,0,0,0,0,0,0,-1,1889,568,0,0
672,456,0,0,0,0,0,0,0,0,0,-1,1896,568,0,0
679,456,0,0,0,0,0,0,0,0,0,-1,1903,568,0,0
686,456,0,0,0,0,0,0,0,0,0,-1,1910,568,0,0
693,456,0,0,0,0,0,0,0,0,0,-1,1917,568,0,0
700,456,0,0,0,0,0,0,0,0,0,-1,1924,568,0,0
707,456,0,0,0,0,0,0,0,0,0,-1,1931,568,0,0
714,456,0,0,0,0,0,0,0,0,0,-1,1938,568,0,0
721,456,0,0,0,0,0,0,0,0,0,-1,1945,568,0,0
728,456,0,0,0,0,0,0,0,0,0,-1,1952,568,0,0
735,456,0,0,0,0,0,0,0,0,0,-1,1959,568,0,0
742,456,0,0,0,0,0,0,0,0,0,-1,1966,568,0,0
749,456,0,0,0,0,0,0,0,0,0,-1,1973,568,0,0
756,456,0,0,0,0,0,0,0,0,0,-1,1980,568,0,0
763,456,0,0,0,0,0,0,0,0,0,-1,1987,568,0,0
770,456,0,0,0,0,0,0,0,0,0,-1,1994,568,0,0
777,456,0,0,0,0,0,0,0,0,0,-1,2001,568,0,0
784,456,0,0,0,0,0,0,0,0,0,-1,2008,568,0,0
791,456,0,0,0,0,0,0,0,0,0,-1,2015,568,0,0
798,456,0,0,0,0,0,0,0,0,0,-1,2022,568,0,0
805,456,0,0,0,0,0,0,0,0,0,-1,2029,568,0,0
812,456,0,0,0,0,0,0,0,0,0,-1,2036,568,0,0
-700,449,0,0,0,0,0,0,0,0,0,-1,524,575,0,0
-693,449,0,0,0,0,0,0,0,0,0,-1,531,575,0,0
-686,449,0,0,0,0,0,0,0,0,0,-1,538,575,0,0
-679,449,0,0,0,0,0,0,0,0,0,-1,545,575,0,0
-672,449,0,0,0,0,0,0,0,0,0,-1,552,575,0,0
-665,449,0,0,0,0,0,0,0,0,0,-1,559,575,0,0
-658,449,0,0,0,0,0,0,0,0,0,-1,566,575,0,0
-651,449,0,0,0,0,0,0,0,0,0,-1,573,575,0,0
-644,449,0,0,0,0,0,0,0,0,0,-1,580,575,0,0
-637,449,0,0,0,0,0,0,0,0,0,-1,587,575,0,0
-630,449,0,0,0,0,0,0,0,0,0,-1,594,575,0,0
-623,449,0,0,0,0,0,0,0,0,0,-1,601,575,0,0
-616,449,0,0,0,0,0,0,0,0,0,-1,608,575,0,0
-609,449,0,0,0,0,0,0,0,0,0,-1,615,575,0,0
-602,449,0,0,0,0,0,0,0,0,0,-1,622,575,0,0
-595,449,0,0,0,0,0,0,0,0,0,-1,629,575,0,0
-588,449,0,0,0,0,0,0,0,0,0,-1,636,575,0,0
-581,449,0,0,0,0,0,0,0,0,0,-1,643,575,0,0
-574,449,0,0,0,0,0,0,0,0,0,-1,650,575,0,0
-567,449,0,0,0,0,0,0,0,0,0,-1,657,575,0,0
-560,449,0,0,0,0,0,0,0,0,0,-1,664,575,0,0
-553,449,0,0,0,0,0,0,0,0,0,-1,671,575,0,0
-546,449,0,0,0,0,0,0,0,0,0,-1,678,575,0,0
-539,449,0,0,0,0,0,0,0,0,0,-1,685,575,0,0
-532,449,0,0,0,0,0,0,0,0,0,-1,692,575,0,0
-525,449,0,0,0,0,0,0,0,0,0,-1,699,575,0,0
-518,449,0,0,0,0,0,0,0,0,0,-1,706,575,0,0
-511,449,-0.941345,-4.4519,0,0,0,0,0,0,0,-1,713,575,-0.941356,4.45191
-504,449,-14.1078,0.318237,0,0,0,0,0,0,0,-1,720,575,-14.1078,-0.318231
-497,449,-8.61292,-3.09009,0,0,0,0,0,0,0,-1,727,575,-8.61291,3.09011
-490,449,-7.50995,-2.96252,0,0,0,0,0,0,0,-1,734,575,-7.50995,2.96251
-483,449,-5.77789,-2.50061,0,0,0,0,0,0,0,-1,741,575,-5.77792,2.50059
-476,449,-4.1723,-2.07739,0,0,0,0,0,0,0,-1,748,575,-4.17228,2.0774
-469,449,-5.0976,-5.78448,0,0,0,0,0,0,0,-1,755,575,-5.09758,5.78451
-462,449,-6.54181,-9.54535,0,0,0,0,0,0,0,-1,762,575,-6.54178,9.54536
-455,449,-7.83856,-11.9138,0,0,0,0,0,0,0,-1,769,575,-7.83857,11.9138
-448,449,-7.5332,-12.8627,0.000161816,0.00935534,-0.00488402,0.0114656,-0.00194842,-1.16295,0.00836914,0.0445633,776,575,-7.53318,12.8627
-441,449,-7.51758,-13.7418,0.000179544,0.00738107,-0.00374164,0.00897313,-0.00141251,-1.1685,0.00650425,0.0216856,783,575,-7.51759,13.7418
-434,449,-7.59863,-14.3416,0.000227185,0.00573524,-0.00283541,0.00693396,-0.000971536,-1.17082,0.00497819,0.0141016,790,575,-7.59861,14.3416
-427,449,-7.61566,-14.9935,0.000286812,0.00436878,-0.00211067,0.00526387,-0.000608279,-1.16971,0.00372858,0.0129734,797,575,-7.61566,14.9935
-420,449,-7.63855,-15.6641,0.000422158,0.00317256,-0.00156306,0.00387927,-0.00028455,-1.14617,0.00268606,0.0126915,804,575,-7.63856,15.6641
-413,449,-7.66064,-16.331,0.00051136,0.00181502,-0.00090843,0.00228128,4.50998e-05,-1.0966,0.00150605,0.0110893,811,575,-7.66066,16.331
-406,449,-7.70398,-16.9988,0.000717404,0.000888785,-0.000486977,0.00129755,0.000308635,-0.872489,0.000782711,0.010258,818,575,-7.70396,16.9988
-399,449,-7.74231,-17.6443,0.0010957,1.72294e-05,-0.000187648,0.00112741,-1.44878e-05,-0.167442,0.000756485,0.00964769,825,575,-7.7423,17.6443
-392,449,-7.74615,-18.2738,0.00165296,-0.000819965,5.49744e-05,0.00165419,-0.000821187,0.0222159,0.00145588,0.0105476,832,575,-7.74617,18.2738
-385,449,-7.76746,-18.9048,0.00234496,-0.00150715,0.000187159,0.00235403,-0.00151622,0.0484341,0.00225187,0.0111283,839,575,-7.76744,18.9048
-378,449,-7.80365,-19.551,0.00314084,-0.00213676,0.000285788,0.00315627,-0.00215219,0.053941,0.00308306,0.00925304,846,575,-7.80365,19.551
-371,449,-7.79156,-20.2097,0.00414393,-0.00253886,0.000358686,0.00416312,-0.00255805,0.0534685,0.00391718,0.0185554,853,575,-7.79159,20.2097
-364,449,-7.75342,-20.8685,0,0,0,0,0,0,0,-1,860,575,-7.75345,20.8685
-357,449,-5.88049,-15.8704,0,0,0,0,0,0,0,-1,867,575,-5.88051,15.8704
-350,449,-2.8764,-9.90204,0,0,0,0,0,0,0,-1,874,575,-2.87638,9.90203
-343,449,-2.98492,-9.2254,0,0,0,0,0,0,0,-1,881,575,-2.98491,9.22541
-336,449,-1.29523,-9.54626,0,0,0,0,0,0,0,-1,888,575,-1.29525,9.54626
-329,449,-0.733398,-7.78937,0,0,0,0,0,0,0,-1,895,575,-0.733398,7.78937
-322,449,-0.628845,-3.16669,0,0,0,0,0,0,0,-1,902,575,-0.628861,3.16667
-315,449,-0.540344,-3.21918,0,0,0,0,0,0,0,-1,909,575,-0.540336,3.21917
-308,449,-1.04413,-2.99341,0,0,0,0,0,0,0,-1,916,575,-1.04415,2.99338
-301,449,-1.58691,-2.80725,0,0,0,0,0,0,0,-1,923,575,-1.58692,2.80728
-294,449,-3.71118,-2.76086,0,0,0,0,0,0,0,-1,930,575,-3.71119,2.76087
-287,449,-4.4082,-2.69525,0,0,0,0,0,0,0,-1,937,575,-4.40822,2.69526
-280,449,0.723999,-14.2697,0,0,0,0,0,0,0,-1,944,575,0.723977,14.2696
-273,449,0,0,0,0,0,0,0,0,0,-1,951,575,0,0
-266,449,0,0,0,0,0,0,0,0,0,-1,958,575,0,0
-259,449,0,0,0,0,0,0,0,0,0,-1,965,575,0,0
-252,449,0,0,0,0,0,0,0,0,0,-1,972,575,0,0
-245,449,0,0,0,0,0,0,0,0,0,-1,979,575,0,0
-238,449,0,0,0,0,0,0,0,0,0,-1,986,575,0,0
-231,449,0,0,0,0,0,0,0,0,0,-1,993,575,0,0
-224,449,0,0,0,0,0,0,0,0,0,-1,1000,575,0,0
-217,449,0,0,0,0,0,0,0,0,0,-1,1007,575,0,0
-210,449,0,0,0,0,0,0,0,0,0,-1,1014,575,0,0
-203,449,0,0,0,0,0,0,0,0,0,-1,1021,575,0,0
-196,449,0,0,0,0,0,0,0,0,0,-1,1028,575,0,0
-189,449,0,0,0,0,0,0,0,0,0,-1,1035,575,0,0
-182,449,0,0,0,0,0,0,0,0,0,-1,1042,575,0,0
-175,449,0,0,0,0,0,0,0,0,0,-1,1049,575,0,0
-168,449,0,0,0,0,0,0,0,0,0,-1,1056,575,0,0
-161,449,0,0,0,0,0,0,0,0,0,-1,1063,575,0,0
-154,449,0,0,0,0,0,0,0,0,0,-1,1070,575,0,0
-147,449,0,0,0,0,0,0,0,0,0,-1,1077,575,0,0
-140,449,0,0,0,0,0,0,0,0,0,-1,1084,575,0,0
-133,449,0,0,0,0,0,0,0,0,0,-1,1091,575,0,0
-126,449,0,0,0,0,0,0,0,0,0,-1,1098,575,0,0
-119,449,0,0,0,0,0,0,0,0,0,-1,1105,575,0,0
-112,449,0,0,0,0,0,0,0,0,0,-1,1112,575,0,0
-105,449,0,0,0,0,0,0,0,0,0,-1,1119,575,0,0
-98,449,0,0,0,0,0,0,0,0,0,-1,1126,575,0,0
-91,449,0,0,0,0,0,0,0,0,0,-1,1133,575,0,0
-84,449,0,0,0,0,0,0,0,0,0,-1,1140,575,0,0
-77,449,0,0,0,0,0,0,0,0,0,-1,1147,575,0,0
-70,449,0,0,0,0,0,0,0,0,0,-1,1154,575,0,0
-63,449,0,0,0,0,0,0,0,0,0,-1,1161,575,0,0
-56,449,0,0,0,0,0,0,0,0,0,-1,1168,575,0,0
-49,449,0,0,0,0,0,0,0,0,0,-1,1175,575,0,0
-42,449,0,0,0,0,0,0,0,0,0,-1,1182,575,0,0
-35,449,0,0,0,0,0,0,0,0,0,-1,1189,575,0,0
-28,449,0,0,0,0,0,0,0,0,0,-1,1196,575,0,0
-21,449,0,0,0,0,0,0,0,0,0,-1,1203,575,0,0
-14,449,0,0,0,0,0,0,0,0,0,-1,1210,575,0,0
-7,449,0,0,0,0,0,0,0,0,0,-1,1217,575,0,0
0,449,0,0,0,0,0,0,0,0,0,-1,1224,575,0,0
7,449,0,0,0,0,0,0,0,0,0,-1,1231,575,0,0
14,449,0,0,0,0,0,0,0,0,0,-1,1238,575,0,0
21,449,0,0,0,0,0,0,0,0,0,-1,1245,575,0,0
28,449,0,0,0,0,0,0,0,0,0,-1,1252,575,0,0
35,449,0,0,0,0,0,0,0,0,0,-1,1259,575,0,0
42,449,0,0,0,0,0,0,0,0,0,-1,1266,575,0,0
49,449,0,0,0,0,0,0,0,0,0,-1,1273,575,0,0
56,449,0,0,0,0,0,0,0,0,0,-1,1280,575,0,0
63,449,0,0,0,0,0,0,0,0,0,-1,1287,575,0,0
70,449,0,0,0,0,0,0,0,0,0,-1,1294,575,0,0
77,449,0,0,0,0,0,0,0,0,0,-1,1301,575,0,0
84,449,0,0,0,0,0,0,0,0,0,-1,1308,575,0,0
91,449,0,0,0,0,0,0,0,0,0,-1,1315,575,0,0
98,449,0,0,0,0,0,0,0,0,0,-1,1322,575,0,0
105,449,0,0,0,0,0,0,0,0,0,-1,1329,575,0,0
112,449,0,0,0,0,0,0,0,0,0,-1,1336,575,0,0
119,449,0,0,0,0,0,0,0,0,0,-1,1343,575,0,0
126,449,0,0,0,0,0,0,0,0,0,-1,1350,575,0,0
133,449,0,0,0,0,0,0,0,0,0,-1,1357,575,0,0
140,449,0,0,0,0,0,0,0,0,0,-1,1364,575,0,0
147,449,0,0,0,0,0,0,0,0,0,-1,1371,575,0,0
154,449,0,0,0,0,0,0,0,0,0,-1,1378,575,0,0
161,449,0,0,0,0,0,0,0,0,0,-1,1385,575,0,0
168,449,0,0,0,0,0,0,0,0,0,-1,1392,575,0,0
175,449,0,0,0,0,0,0,0,0,0,-1,1399,575,0,0
182,449,0,0,0,0,0,0,0,0,0,-1,1406,575,0,0
189,449,0,0,0,0,0,0,0,0,0,-1,1413,575,0,0
196,449,0,0,0,0,0,0,0,0,0,-1,1420,575,0,0
203,449,0,0,0,0,0,0,0,0,0,-1,1427,575,0,0
210,449,0,0,0,0,0,0,0,0,0,-1,1434,575,0,0
217,449,0,0,0,0,0,0,0,0,0,-1,1441,575,0,0
224,449,0,0,0,0,0,0,0,0,0,-1,1448,575,0,0
231,449,0,0,0,0,0,0,0,0,0,-1,1455,575,0,0
238,449,0,0,0,0,0,0,0,0,0,-1,1462,575,0,0
245,449,0,0,0,0,0,0,0,0,0,-1,1469,575,0,0
252,449,0,0,0,0,0,0,0,0,0,-1,1476,575,0,0
259,449,0,0,0,0,0,0,0,0,0,-1,1483,575,0,0
266,449,0,0,0,0,0,0,0,0,0,-1,1490,575,0,0
273,449,0,0,0,0,0,0,0,0,0,-1,1497,575,0,0
280,449,0,0,0,0,0,0,0,0,0,-1,1504,575,0,0
287,449,0,0,0,0,0,0,0,0,0,-1,1511,575,0,0
294,449,0,0,0,0,0,0,0,0,0,-1,1518,575,0,0
301,449,0,0,0,0,0,0,0,0,0,-1,1525,575,0,0
308,449,0,0,0,0,0,0,0,0,0,-1,1532,575,0,0
315,449,0,0,0,0,0,0,0,0,0,-1,1539,575,0,0
322,449,0,0,0,0,0,0,0,0,0,-1,1546,575,0,0
329,449,0,0,0,0,0,0,0,0,0,-1,1553,575,0,0
336,449,0,0,0,0,0,0,0,0,0,-1,1560,575,0,0
343,449,0,0,0,0,0,0,0,0,0,-1,1567,575,0,0
350,449,0,0,0,0,0,0,0,0,0,-1,1574,575,0,0
357,449,0,0,0,0,0,0,0,0,0,-1,1581,575,0,0
364,449,0,0,0,0,0,0,0,0,0,-1,1588,575,0,0
371,449,0,0,0,0,0,0,0,0,0,-1,1595,575,0,0
378,449,0,0,0,0,0,0,0,0,0,-1,1602,575,0,0
385,449,0,0,0,0,0,0,0,0,0,-1,1609,575,0,0
392,449,7.95471,3.66217,0,0,0,0,0,0,0,-1,1616,575,7.95471,-3.66218
399,449,19.9791,5.565,0,0,0,0,0,0,0,-1,1623,575,19.9791,-5.56499
406,449,24.9847,4.55969,0,0,0,0,0,0,0,-1,1630,575,24.9848,-4.55968
413,449,30.4159,3.15027,0,0,0,0,0,0,0,-1,1637,575,30.4159,-3.15028
420,449,23.9675,1.29718,0,0,0,0,0,0,0,-1,1644,575,23.9675,-1.29721
427,449,24.4276,-0.596558,0,0,0,0,0,0,0,-1,1651,575,24.4277,0.596569
434,449,25.61,-2.96594,0,0,0,0,0,0,0,-1,1658,575,25.61,2.96595
441,449,3.89856,-6.06458,0,0,0,0,0,0,0,-1,1665,575,3.89855,6.06459
448,449,4.03198,-5.18207,0,0,0,0,0,0,0,-1,1672,575,4.03197,5.18207
455,449,4.21948,-4.09467,0,0,0,0,0,0,0,-1,1679,575,4.21952,4.09465
462,449,4.23181,-2.96924,0,0,0,0,0,0,0,-1,1686,575,4.23185,2.96926
469,449,4.51672,-2.95135,0,0,0,0,0,0,0,-1,1693,575,4.51672,2.95135
476,449,4.71838,-1.86688,0,0,0,0,0,0,0,-1,1700,575,4.71842,1.86689
483,449,4.87878,-1.73126,0,0,0,0,0,0,0,-1,1707,575,4.87875,1.73128
490,449,5.73279,-2.74573,0,0,0,0,0,0,0,-1,1714,575,5.73282,2.74575
497,449,17.2095,-16.4381,0,0,0,0,0,0,0,-1,1721,575,17.2094,16.4381
504,449,19.573,-18.4619,0,0,0,0,0,0,0,-1,1728,575,19.573,18.4619
511,449,19.6299,-17.7629,0.00346696,0.000956536,0.00147255,0.00414668,0.000276814,0.432454,0.00267696,0.0140926,1735,575,19.6298,17.7629
518,449,19.6251,-17.095,0.00289965,0.000823585,0.00135456,0.00356817,0.00015506,0.458465,0.00232882,0.0139478,1742,575,19.6251,17.0949
525,449,19.5807,-16.4202,0.00227921,0.000776671,0.00120317,0.00294639,0.000109483,0.506312,0.0019288,0.01299,1749,575,19.5807,16.4202
532,449,19.5448,-15.7232,0.00168187,0.000797407,0.00105722,0.00238562,9.36586e-05,0.587307,0.00156013,0.010969,1756,575,19.5448,15.7232
539,449,19.5048,-15.0376,0.00117619,0.000867392,0.00095331,0.00198753,5.60594e-05,0.705114,0.00130673,0.015138,1763,575,19.5047,15.0376
546,449,19.4888,-14.3359,0.000743292,0.00107733,0.000889724,0.00181557,5.04602e-06,0.878178,0.0012087,0.0269046,1770,575,19.4888,14.3359
553,449,19.4624,-13.661,0.000326753,0.00135734,0.000899958,0.00187909,-0.000194993,1.0454,0.00132252,0.0185498,1777,575,19.4624,13.661
560,449,19.4662,-12.9675,-5.3573e-05,0.00166791,0.00097843,0.00211032,-0.000495982,1.14615,0.00159807,0.0136494,1784,575,19.4662,12.9676
567,449,19.4121,-12.2961,-0.000239984,0.00217734,0.00126294,0.00271678,-0.00077943,1.16712,0.00211932,0.0101906,1791,575,19.4121,12.2961
574,449,19.4056,-11.5677,-0.0004514,0.00270662,0.00155882,0.00334644,-0.00109122,1.18131,0.00267009,0.0244285,1798,575,19.4056,11.5677
581,449,19.4238,-10.7496,0,0,0,0,0,0,0,-1,1805,575,19.4238,10.7496
588,449,12.3274,-4.5672,0,0,0,0,0,0,0,-1,1812,575,12.3274,4.5672
595,449,15.9352,-5.65479,0,0,0,0,0,0,0,-1,1819,575,15.9352,5.65478
602,449,9.46167,4.17444,0,0,0,0,0,0,0,-1,1826,575,9.46164,-4.17442
609,449,12.2028,3.18652,0,0,0,0,0,0,0,-1,1833,575,12.2027,-3.18655
616,449,14.9438,2.19867,0,0,0,0,0,0,0,-1,1840,575,14.9438,-2.19867
623,449,9.83789,-0.0820313,0,0,0,0,0,0,0,-1,1847,575,9.83794,0.0820443
630,449,8.90686,4.99329,0,0,0,0,0,0,0,-1,1854,575,8.90685,-4.99327
637,449,0,0,0,0,0,0,0,0,0,-1,1861,575,0,0
644,449,0,0,0,0,0,0,0,0,0,-1,1868,575,0,0
651,449,0,0,0,0,0,0,0,0,0,-1,1875,575,0,0
658,449,0,0,0,0,0,0,0,0,0,-1,1882,575,0,0
665,449,0,0,0,0,0,0,0,0,0,-1,1889,575,0,0
672,449,0,0,0,0,0,0,0,0,0,-1,1896,575,0,0
679,449,0,0,0,0,0,0,0,0,0,-1,1903,575,0,0
686,449,0,0,0,0,0,0,0,0,0,-1,1910,575,0,0
693,449,0,0,0,0,0,0,0,0,0,-1,1917,575,0,0
700,449,0,0,0,0,0,0,0,0,0,-1,1924,575,0,0
707,449,0,0,0,0,0,0,0,0,0,-1,1931,575,0,0
714,449,0,0,0,0,0,0,0,0,0,-1,1938,575,0,0
721,449,0,0,0,0,0,0,0,0,0,-1,1945,575,0,0
728,449,0,0,0,0,0,0,0,0,0,-1,1952,575,0,0
735,449,0,0,0,0,0,0,0,0,0,-1,1959,575,0,0
742,449,0,0,0,0,0,0,0,0,0,-1,1966,575,0,0
749,449,0,0,0,0,0,0,0,0,0,-1,1973,575,0,0
756,449,0,0,0,0,0,0,0,0,0,-1,1980,575,0,0
763,449,0,0,0,0,0,0,0,0,0,-1,1987,575,0,0
770,449,0,0,0,0,0,0,0,0,0,-1,1994,575,0,0
777,449,0,0,0,0,0,0,0,0,0,-1,2001,575,0,0
784,449,0,0,0,0,0,0,0,0,0,-1,2008,575,0,0
791,449,0,0,0,0,0,0,0,0,0,-1,2015,575,0,0
798,449,0,0,0,0,0,0,0,0,0,-1,2022,575,0,0
805,449,0,0,0,0,0,0,0,0,0,-1,2029,575,0,0
812,449,0,0,0,0,0,0,0,0,0,-1,2036,575,0,0
-700,442,0,0,0,0,0,0,0,0,0,-1,524,582,0,0
-693,442,0,0,0,0,0,0,0,0,0,-1,531,582,0,0
-686,442,0,0,0,0,0,0,0,0,0,-1,538,582,0,0
-679,442,0,0,0,0,0,0,0,0,0,-1,545,582,0,0
-672,442,0,0,0,0,0,0,0,0,0,-1,552,582,0,0
-665,442,0,0,0,0,0,0,0,0,0,-1,559,582,0,0
-658,442,0,0,0,0,0,0,0,0,0,-1,566,582,0,0
-651,442,0,0,0,0,0,0,0,0,0,-1,573,582,0,0
-644,442,0,0,0,0,0,0,0,0,0,-1,580,582,0,0
-637,442,0,0,0,0,0,0,0,0,0,-1,587,582,0,0
-630,442,0,0,0,0,0,0,0,0,0,-1,594,582,0,0
-623,442,0,0,0,0,0,0,0,0,0,-1,601,582,0,0
-616,442,0,0,0,0,0,0,0,0,0,-1,608,582,0,0
-609,442,0,0,0,0,0,0,0,0,0,-1,615,582,0,0
-602,442,0,0,0,0,0,0,0,0,0,-1,622,582,0,0
-595,442,0,0,0,0,0,0,0,0,0,-1,629,582,0,0
-588,442,0,0,0,0,0,0,0,0,0,-1,636,582,0,0
-581,442,0,0,0,0,0,0,0,0,0,-1,643,582,0,0
-574,442,0,0,0,0,0,0,0,0,0,-1,650,582,0,0
-567,442,0,0,0,0,0,0,0,0,0,-1,657,582,0,0
-560,442,0,0,0,0,0,0,0,0,0,-1,664,582,0,0
-553,442,0,0,0,0,0,0,0,0,0,-1,671,582,0,0
-546,442,0,0,0,0,0,0,0,0,0,-1,678,582,0,0
-539,442,0,0,0,0,0,0,0,0,0,-1,685,582,0,0
-532,442,0,0,0,0,0,0,0,0,0,-1,692,582,0,0
-525,442,0,0,0,0,0,0,0,0,0,-1,699,582,0,0
-518,442,-0.493774,-5.72943,0,0,0,0,0,0,0,-1,706,582,-0.493791,5.72946
-511,442,-1.33008,-6.18512,0,0,0,0,0,0,0,-1,713,582,-1.33006,6.18511
-504,442,-3.20807,-6.34082,0,0,0,0,0,0,0,-1,720,582,-3.2081,6.34083
-497,442,-13.6886,-0.250122,0,0,0,0,0,0,0,-1,727,582,-13.6886,0.250143
-490,442,-9.09039,-3.64862,0,0,0,0,0,0,0,-1,734,582,-9.09037,3.64861
-483,442,-7.36499,-1.01892,0,0,0,0,0,0,0,-1,741,582,-7.365,1.01895
-476,442,-4.84784,-4.44141,0,0,0,0,0,0,0,-1,748,582,-4.84787,4.44138
-469,442,-8.2088,-9.90967,0,0,0,0,0,0,0,-1,755,582,-8.20882,9.90965
-462,442,-8.06964,-11.3552,0,0,0,0,0,0,0,-1,762,582,-8.06967,11.3552
-455,442,-8.1759,-12.2327,0,0,0,0,0,0,0,-1,769,582,-8.17592,12.2326
-448,442,-8.15643,-12.9847,0.00027144,0.00725093,-0.00411339,0.00915547,-0.0016331,-1.13718,0.00671454,0.0191898,776,582,-8.15645,12.9848
-441,442,-8.21069,-13.666,0.000311179,0.00547051,-0.00303705,0.00687561,-0.00109392,-1.13747,0.00498852,0.0142528,783,582,-8.21071,13.666
-434,442,-8.24799,-14.3152,0.000377347,0.00403712,-0.00219624,0.0050659,-0.000651432,-1.13273,0.00361404,0.013168,790,582,-8.24801,14.3153
-427,442,-8.28931,-14.9605,0.000463126,0.00282166,-0.00152979,0.00357395,-0.000289168,-1.11376,0.00248464,0.0130971,797,582,-8.2893,14.9605
-420,442,-8.30988,-15.6362,0.000619424,0.00176844,-0.00102083,0.00236532,2.25466e-05,-1.0417,0.00156942,0.0136406,804,582,-8.30985,15.6363
-413,442,-8.3075,-16.3033,0.00072751,0.000589166,-0.000421364,0.00108534,0.000231335,-0.704043,0.000660103,0.0115932,811,582,-8.30747,16.3034
-406,442,-8.34589,-16.9717,0.000927971,-0.000223404,-3.68924e-05,0.000929152,-0.000224585,-0.0319983,0.0007063,0.010003,818,582,-8.34591,16.9717
-399,442,-8.39087,-17.6199,0.00129973,-0.000959622,0.000206503,0.00131845,-0.000978341,0.0904012,0.00133089,0.00874898,825,582,-8.39085,17.62
-392,442,-8.40735,-18.2343,0.00187811,-0.00163649,0.000365581,0.00191573,-0.00167411,0.102555,0.00207416,0.0107434,832,582,-8.40735,18.2343
-385,442,-8.43848,-18.8613,0.00259396,-0.00221584,0.000429672,0.00263204,-0.00225392,0.0884,0.00282373,0.0134015,839,582,-8.43847,18.8613
-378,442,-8.4444,-19.536,0.00343257,-0.00271317,0.000444666,0.00346458,-0.00274517,0.0718548,0.00359321,0.0160596,846,582,-8.44441,19.536
-371,442,-8.46271,-20.2941,0,0,0,0,0,0,0,-1,853,582,-8.46272,20.2942
-364,442,-6.89764,-17.5333,0,0,0,0,0,0,0,-1,860,582,-6.89765,17.5333
-357,442,-4.9115,-11.2649,0,0,0,0,0,0,0,-1,867,582,-4.91147,11.2649
-350,442,-1.75372,-6.27618,0,0,0,0,0,0,0,-1,874,582,-1.75371,6.27618
-343,442,-1.4599,-4.63605,0,0,0,0,0,0,0,-1,881,582,-1.4599,4.63607
-336,442,-1.4054,-2.64313,0,0,0,0,0,0,0,-1,888,582,-1.40539,2.64315
-329,442,-0.952576,-2.76923,0,0,0,0,0,0,0,-1,895,582,-0.952571,2.7692
-322,442,-0.972534,-2.63208,0,0,0,0,0,0,0,-1,902,582,-0.972512,2.6321
-315,442,-0.445557,-2.89764,0,0,0,0,0,0,0,-1,909,582,-0.445582,2.89765
-308,442,-0.654175,-3.07831,0,0,0,0,0,0,0,-1,916,582,-0.654145,3.07832
-301,442,-1.37427,-2.41455,0,0,0,0,0,0,0,-1,923,582,-1.37425,2.41453
-294,442,-2.99963,-2.07855,0,0,0,0,0,0,0,-1,930,582,-2.99964,2.07857
-287,442,3.91034,-10.1913,0,0,0,0,0,0,0,-1,937,582,3.91034,10.1913
-280,442,0,0,0,0,0,0,0,0,0,-1,944,582,0,0
-273,442,0,0,0,0,0,0,0,0,0,-1,951,582,0,0
-266,442,0,0,0,0,0,0,0,0,0,-1,958,582,0,0
-259,442,0,0,0,0,0,0,0,0,0,-1,965,582,0,0
-252,442,0,0,0,0,0,0,0,0,0,-1,972,582,0,0
-245,442,0,0,0,0,0,0,0,0,0,-1,979,582,0,0
-238,442,0,0,0,0,0,0,0,0,0,-1,986,582,0,0
-231,442,0,0,0,0,0,0,0,0,0,-1,993,582,0,0
-224,442,0,0,0,0,0,0,0,0,0,-1,1000,582,0,0
-217,442,0,0,0,0,0,0,0,0,0,-1,1007,582,0,0
-210,442,0,0,0,0,0,0,0,0,0,-1,1014,582,0,0
-203,442,0,0,0,0,0,0,0,0,0,-1,1021,582,0,0
-196,442,0,0,0,0,0,0,0,0,0,-1,1028,582,0,0
-189,442,0,0,0,0,0,0,0,0,0,-1,1035,582,0,0
-182,442,0,0,0,0,0,0,0,0,0,-1,1042,582,0,0
-175,442,0,0,0,0,0,0,0,0,0,-1,1049,582,0,0
-168,442,0,0,0,0,0,0,0,0,0,-1,1056,582,0,0
-161,442,0,0,0,0,0,0,0,0,0,-1,1063,582,0,0
-154,442,0,0,0,0,0,0,0,0,0,-1,1070,582,0,0
-147,442,0,0,0,0,0,0,0,0,0,-1,1077,582,0,0
-140,442,0,0,0,0,0,0,0,0,0,-1,1084,582,0,0
-133,442,0,0,0,0,0,0,0,0,0,-1,1091,582,0,0
-126,442,0,0,0,0,0,0,0,0,0,-1,1098,582,0,0
-119,442,0,0,0,0,0,0,0,0,0,-1,1105,582,0,0
-112,442,0,0,0,0,0,0,0,0,0,-1,1112,582,0,0
-105,442,0,0,0,0,0,0,0,0,0,-1,1119,582,0,0
-98,442,0,0,0,0,0,0,0,0,0,-1,1126,582,0,0
-91,442,0,0,0,0,0,0,0,0,0,-1,1133,582,0,0
-84,442,0,0,0,0,0,0,0,0,0,-1,1140,582,0,0
-77,442,0,0,0,0,0,0,0,0,0,-1,1147,582,0,0
-70,442,0,0,0,0,0,0,0,0,0,-1,1154,582,0,0
-63,442,0,0,0,0,0,0,0,0,0,-1,1161,582,0,0
-56,442,0,0,0,0,0,0,0,0,0,-1,1168,582,0,0
-49,442,0,0,0,0,0,0,0,0,0,-1,1175,582,0,0
-42,442,0,0,0,0,0,0,0,0,0,-1,1182,582,0,0
-35,442,0,0,0,0,0,0,0,0,0,-1,1189,582,0,0
-28,442,0,0,0,0,0,0,0,0,0,-1,1196,582,0,0
-21,442,0,0,0,0,0,0,0,0,0,-1,1203,582,0,0
-14,442,0,0,0,0,0,0,0,0,0,-1,1210,582,0,0
-7,442,0,0,0,0,0,0,0,0,0,-1,1217,582,0,0
0,442,0,0,0,0,0,0,0,0,0,-1,1224,582,0,0
7,442,0,0,0,0,0,0,0,0,0,-1,1231,582,0,0
14,442,0,0,0,0,0,0,0,0,0,-1,1238,582,0,0
21,442,0,0,0,0,0,0,0,0,0,-1,1245,582,0,0
28,442,0,0,0,0,0,0,0,0,0,-1,1252,582,0,0
35,442,0,0,0,0,0,0,0,0,0,-1,1259,582,0,0
42,442,0,0,0,0,0,0,0,0,0,-1,1266,582,0,0
49,442,0,0,0,0,0,0,0,0,0,-1,1273,582,0,0
56,442,0,0,0,0,0,0,0,0,0,-1,1280,582,0,0
63,442,0,0,0,0,0,0,0,0,0,-1,1287,582,0,0
70,442,0,0,0,0,0,0,0,0,0,-1,1294,582,0,0
77,442,0,0,0,0,0,0,0,0,0,-1,1301,582,0,0
84,442,0,0,0,0,0,0,0,0,0,-1,1308,582,0,0
91,442,0,0,0,0,0,0,0,0,0,-1,1315,582,0,0
98,442,0,0,0,0,0,0,0,0,0,-1,1322,582,0,0
105,442,0,0,0,0,0,0,0,0,0,-1,1329,582,0,0
112,442,0,0,0,0,0,0,0,0,0,-1,1336,582,0,0
119,442,0,0,0,0,0,0,0,0,0,-1,1343,582,0,0
126,442,0,0,0,0,0,0,0,0,0,-1,1350,582,0,0
133,442,0,0,0,0,0,0,0,0,0,-1,1357,582,0,0
140,442,0,0,0,0,0,0,0,0,0,-1,1364,582,0,0
147,442,0,0,0,0,0,0,0,0,0,-1,1371,582,0,0
154,442,0,0,0,0,0,0,0,0,0,-1,1378,582,0,0
161,442,0,0,0,0,0,0,0,0,0,-1,1385,582,0,0
168,442,0,0,0,0,0,0,0,0,0,-1,1392,582,0,0
175,442,0,0,0,0,0,0,0,0,0,-1,1399,582,0,0
182,442,0,0,0,0,0,0,0,0,0,-1,1406,582,0,0
189,442,0,0,0,0,0,0,0,0,0,-1,1413,582,0,0
196,442,0,0,0,0,0,0,0,0,0,-1,1420,582,0,0
203,442,0,0,0,0,0,0,0,0,0,-1,1427,582,0,0
210,442,0,0,0,0,0,0,0,0,0,-1,1434,582,0,0
217,442,0,0,0,0,0,0,0,0,0,-1,1441,582,0,0
224,442,0,0,0,0,0,0,0,0,0,-1,1448,582,0,0
231,442,0,0,0,0,0,0,0,0,0,-1,1455,582,0,0
238,442,0,0,0,0,0,0,0,0,0,-1,1462,582,0,0
245,442,0,0,0,0,0,0,0,0,0,-1,1469,582,0,0
252,442,0,0,0,0,0,0,0,0,0,-1,1476,582,0,0
259,442,0,0,0,0,0,0,0,0,0,-1,1483,582,0,0
266,442,0,0,0,0,0,0,0,0,0,-1,1490,582,0,0
273,442,0,0,0,0,0,0,0,0,0,-1,1497,582,0,0
280,442,0,0,0,0,0,0,0,0,0,-1,1504,582,0,0
287,442,0,0,0,0,0,0,0,0,0,-1,1511,582,0,0
294,442,0,0,0,0,0,0,0,0,0,-1,1518,582,0,0
301,442,0,0,0,0,0,0,0,0,0,-1,1525,582,0,0
308,442,0,0,0,0,0,0,0,0,0,-1,1532,582,0,0
315,442,0,0,0,0,0,0,0,0,0,-1,1539,582,0,0
322,442,0,0,0,0,0,0,0,0,0,-1,1546,582,0,0
329,442,0,0,0,0,0,0,0,0,0,-1,1553,582,0,0
336,442,0,0,0,0,0,0,0,0,0,-1,1560,582,0,0
343,442,0,0,0,0,0,0,0,0,0,-1,1567,582,0,0
350,442,0,0,0,0,0,0,0,0,0,-1,1574,582,0,0
357,442,0,0,0,0,0,0,0,0,0,-1,1581,582,0,0
364,442,0,0,0,0,0,0,0,0,0,-1,1588,582,0,0
371,442,0,0,0,0,0,0,0,0,0,-1,1595,582,0,0
378,442,0,0,0,0,0,0,0,0,0,-1,1602,582,0,0
385,442,0,0,0,0,0,0,0,0,0,-1,1609,582,0,0
392,442,0,0,0,0,0,0,0,0,0,-1,1616,582,0,0
399,442,0,0,0,0,0,0,0,0,0,-1,1623,582,0,0
406,442,17.6321,4.08295,0,0,0,0,0,0,0,-1,1630,582,17.6321,-4.08293
413,442,25.4768,2.74445,0,0,0,0,0,0,0,-1,1637,582,25.4768,-2.74444
420,442,22.7478,1.55011,0,0,0,0,0,0,0,-1,1644,582,22.7478,-1.55009
427,442,23.2969,-0.456787,0,0,0,0,0,0,0,-1,1651,582,23.2968,0.456769
434,442,23.9512,-2.49365,0,0,0,0,0,0,0,-1,1658,582,23.9512,2.49366
441,442,24.8251,-4.43958,0,0,0,0,0,0,0,-1,1665,582,24.8251,4.43956
448,442,4.7749,-5.88562,0,0,0,0,0,0,0,-1,1672,582,4.7749,5.8856
455,442,4.87024,-4.60687,0,0,0,0,0,0,0,-1,1679,582,4.87019,4.60686
462,442,5.02307,-3.72821,0,0,0,0,0,0,0,-1,1686,582,5.02311,3.7282
469,442,5.12976,-2.98834,0,0,0,0,0,0,0,-1,1693,582,5.12971,2.98834
476,442,5.4624,1.76947,0,0,0,0,0,0,0,-1,1700,582,5.46234,-1.76944
483,442,5.98486,1.87042,0,0,0,0,0,0,0,-1,1707,582,5.98492,-1.87045
490,442,5.04407,-2.35834,0,0,0,0,0,0,0,-1,1714,582,5.04411,2.35837
497,442,6.20984,-3.07831,0,0,0,0,0,0,0,-1,1721,582,6.2098,3.07833
504,442,20.1354,-18.7765,0,0,0,0,0,0,0,-1,1728,582,20.1354,18.7765
511,442,20.236,-17.822,0.00418364,0.00140418,0.00170249,0.0049916,0.000596225,0.4431,0.00314787,0.0463903,1735,582,20.236,17.822
518,442,20.293,-17.0225,0.00362801,0.0010529,0.00155127,0.00435645,0.000324464,0.439014,0.00280241,0.0130503,1742,582,20.293,17.0225
525,442,20.2418,-16.371,0.00297987,0.000878681,0.00135556,0.0036443,0.000214254,0.455735,0.00236136,0.010753,1749,582,20.2419,16.371
532,442,20.2153,-15.6893,0.00236326,0.000797634,0.00117988,0.0029964,0.000164495,0.492507,0.00194509,0.0116349,1756,582,20.2153,15.6893
539,442,20.1962,-14.9992,0.0018588,0.000811682,0.00106876,0.00252536,0.000145128,0.557641,0.00163734,0.0131731,1763,582,20.1961,14.9992
546,442,20.1995,-14.3214,0.00142081,0.000945471,0.000990015,0.00220128,0.000164995,0.667595,0.00141573,0.0171669,1770,582,20.1994,14.3214
553,442,20.1476,-13.6411,0.000978746,0.00115353,0.000979395,0.00204942,8.285e-05,0.829895,0.00133952,0.0172687,1777,582,20.1476,13.6411
560,442,20.1262,-12.937,0.000548711,0.0013916,0.00101906,0.00207293,-0.000132612,0.98147,0.00142821,0.0145394,1784,582,20.1262,12.937
567,442,20.0885,-12.2631,0.000288375,0.00179859,0.0012147,0.00247376,-0.000386791,1.06349,0.00179207,0.0108058,1791,582,20.0885,12.2631
574,442,20.0784,-11.5725,4.72459e-05,0.00226646,0.00144558,0.0029792,-0.000665492,1.11273,0.00224114,0.0134272,1798,582,20.0784,11.5725
581,442,20.1121,-10.8066,-0.000215018,0.00273171,0.00173447,0.00353413,-0.00101744,1.13749,0.0027585,0.0272183,1805,582,20.112,10.8066
588,442,20.1991,-10.0238,0,0,0,0,0,0,0,-1,1812,582,20.1991,10.0238
595,442,16.27,-6.47083,0,0,0,0,0,0,0,-1,1819,582,16.27,6.47082
602,442,16.2213,-4.49225,0,0,0,0,0,0,0,-1,1826,582,16.2213,4.49223
609,442,12.761,2.97223,0,0,0,0,0,0,0,-1,1833,582,12.761,-2.97221
616,442,9.78345,-0.103394,0,0,0,0,0,0,0,-1,1840,582,9.78341,0.103424
623,442,9.23828,0.326721,0,0,0,0,0,0,0,-1,1847,582,9.23829,-0.326727
630,442,7.74304,2.3924,0,0,0,0,0,0,0,-1,1854,582,7.7431,-2.39238
637,442,5.87805,1.84027,0,0,0,0,0,0,0,-1,1861,582,5.87807,-1.84025
644,442,0,0,0,0,0,0,0,0,0,-1,1868,582,0,0
651,442,0,0,0,0,0,0,0,0,0,-1,1875,582,0,0
658,442,0,0,0,0,0,0,0,0,0,-1,1882,582,0,0
665,442,0,0,0,0,0,0,0,0,0,-1,1889,582,0,0
672,442,0,0,0,0,0,0,0,0,0,-1,1896,582,0,0
679,442,0,0,0,0,0,0,0,0,0,-1,1903,582,0,0
686,442,0,0,0,0,0,0,0,0,0,-1,1910,582,0,0
693,442,0,0,0,0,0,0,0,0,0,-1,1917,582,0,0
700,442,0,0,0,0,0,0,0,0,0,-1,1924,582,0,0
707,442,0,0,0,0,0,0,0,0,0,-1,1931,582,0,0
714,442,0,0,0,0,0,0,0,0,0,-1,1938,582,0,0
721,442,0,0,0,0,0,0,0,0,0,-1,1945,582,0,0
728,442,0,0,0,0,0,0,0,0,0,-1,1952,582,0,0
735,442,0,0,0,0,0,0,0,0,0,-1,1959,582,0,0
742,442,0,0,0,0,0,0,0,0,0,-1,1966,582,0,0
749,442,0,0,0,0,0,0,0,0,0,-1,1973,582,0,0
756,442,0,0,0,0,0,0,0,0,0,-1,1980,582,0,0
763,442,0,0,0,0,0,0,0,0,0,-1,1987,582,0,0
770,442,0,0,0,0,0,0,0,0,0,-1,1994,582,0,0
777,442,0,0,0,0,0,0,0,0,0,-1,2001,582,0,0
784,442,0,0,0,0,0,0,0,0,0,-1,2008,582,0,0
791,442,0,0,0,0,0,0,0,0,0,-1,2015,582,0,0
798,442,0,0,0,0,0,0,0,0,0,-1,2022,582,0,0
805,442,0,0,0,0,0,0,0,0,0,-1,2029,582,0,0
812,442,0,0,0,0,0,0,0,0,0,-1,2036,582,0,0
-700,435,0,0,0,0,0,0,0,0,0,-1,524,589,0,0
-693,435,0,0,0,0,0,0,0,0,0,-1,531,589,0,0
-686,435,0,0,0,0,0,0,0,0,0,-1,538,589,0,0
-679,435,0,0,0,0,0,0,0,0,0,-1,545,589,0,0
-672,435,0,0,0,0,0,0,0,0,0,-1,552,589,0,0
-665,435,0,0,0,0,0,0,0,0,0,-1,559,589,0,0
-658,435,0,0,0,0,0,0,0,0,0,-1,566,589,0,0
-651,435,0,0,0,0,0,0,0,0,0,-1,573,589,0,0
-644,435,0,0,0,0,0,0,0,0,0,-1,580,589,0,0
-637,435,0,0,0,0,0,0,0,0,0,-1,587,589,0,0
-630,435,0,0,0,0,0,0,0,0,0,-1,594,589,0,0
-623,435,0,0,0,0,0,0,0,0,0,-1,601,589,0,0
-616,435,0,0,0,0,0,0,0,0,0,-1,608,589,0,0
-609,435,0,0,0,0,0,0,0,0,0,-1,615,589,0,0
-602,435,0,0,0,0,0,0,0,0,0,-1,622,589,0,0
-595,435,0,0,0,0,0,0,0,0,0,-1,629,589,0,0
-588,435,0,0,0,0,0,0,0,0,0,-1,636,589,0,0
-581,435,0,0,0,0,0,0,0,0,0,-1,643,589,0,0
-574,435,0,0,0,0,0,0,0,0,0,-1,650,589,0,0
-567,435,0,0,0,0,0,0,0,0,0,-1,657,589,0,0
-560,435,0,0,0,0,0,0,0,0,0,-1,664,589,0,0
-553,435,0,0,0,0,0,0,0,0,0,-1,671,589,0,0
-546,435,0,0,0,0,0,0,0,0,0,-1,678,589,0,0
-539,435,0,0,0,0,0,0,0,0,0,-1,685,589,0,0
-532,435,0,0,0,0,0,0,0,0,0,-1,692,589,0,0
-525,435,-10.0776,10.0547,0,0,0,0,0,0,0,-1,699,589,-10.0776,-10.0547
-518,435,-1.83093,-5.82367,0,0,0,0,0,0,0,-1,706,589,-1.83093,5.8237
-511,435,-2.45154,-5.33118,0,0,0,0,0,0,0,-1,713,589,-2.45151,5.33115
-504,435,-3.07208,-4.83862,0,0,0,0,0,0,0,-1,720,589,-3.0721,4.8386
-497,435,-6.31012,-5.84698,0,0,0,0,0,0,0,-1,727,589,-6.31012,5.84697
-490,435,-5.81903,-0.458679,0,0,0,0,0,0,0,-1,734,589,-5.81902,0.458684
-483,435,-6.96503,-3.01624,0,0,0,0,0,0,0,-1,741,589,-6.96505,3.01623
-476,435,-8.99207,-9.37134,0,0,0,0,0,0,0,-1,748,589,-8.99207,9.37134
-469,435,-8.75983,-10.3758,-0.000301927,0.0114536,-0.00679116,0.0145574,-0.0034057,-1.14211,0.011017,0.0413892,755,589,-8.75986,10.3758
-462,435,-8.67487,-11.5421,6.40867e-05,0.00915763,-0.00553636,0.011775,-0.00255325,-1.12918,0.00882505,0.0261437,762,589,-8.67486,11.542
-455,435,-8.85162,-12.216,0.000246793,0.00730493,-0.00438005,0.00940073,-0.00184901,-1.12451,0.00696578,0.0243044,769,589,-8.85164,12.216
-448,435,-8.83447,-12.9695,0.000311847,0.00549566,-0.00329738,0.00709788,-0.00129037,-1.11849,0.00521552,0.0137711,776,589,-8.83445,12.9696
-441,435,-8.85547,-13.6343,0.000371989,0.00389403,-0.00234901,0.00506884,-0.000802813,-1.10705,0.00367617,0.010898,783,589,-8.85545,13.6343
-434,435,-8.89386,-14.2703,0.000455341,0.00263311,-0.00160017,0.00347974,-0.00039129,-1.08415,0.00246065,0.0122618,790,589,-8.89385,14.2703
-427,435,-8.94531,-14.9631,0.000563692,0.00153325,-0.00100572,0.00216493,-6.79877e-05,-1.00998,0.00146647,0.0107642,797,589,-8.94534,14.9631
-420,435,-8.94318,-15.614,0.000732141,0.000578887,-0.000542113,0.00120302,0.000108012,-0.715189,0.000768541,0.0105611,804,589,-8.94316,15.614
-413,435,-8.95874,-16.2666,0.000858533,-0.000436966,-1.69231e-05,0.000858754,-0.000437187,-0.01306,0.000761294,0.0108389,811,589,-8.95874,16.2666
-406,435,-9.00214,-16.9277,0.00105087,-0.00118622,0.00033147,0.00109895,-0.0012343,0.144048,0.00134786,0.0111923,818,589,-9.00216,16.9277
-399,435,-9.04926,-17.576,0.00140634,-0.00184426,0.00053106,0.0014909,-0.00192882,0.157905,0.00197977,0.00954823,825,589,-9.04928,17.576
-392,435,-9.07782,-18.2125,0.00200573,-0.00241454,0.000616737,0.00209016,-0.00249897,0.136064,0.00265304,0.0108619,832,589,-9.07781,18.2125
-385,435,-9.07813,-18.8591,0.00274488,-0.00297816,0.000647056,0.00281712,-0.00305041,0.111192,0.00338851,0.0211727,839,589,-9.07814,18.8591
-378,435,-9.09326,-19.4197,0.00362245,-0.00344787,0.000642623,0.00368038,-0.0035058,0.0899085,0.00414935,0.04686,846,589,-9.09324,19.4197
-371,435,-9.31628,-20.0621,0,0,0,0,0,0,0,-1,853,589,-9.31627,20.0622
-364,435,-5.62848,-11.5937,0,0,0,0,0,0,0,-1,860,589,-5.62847,11.5937
-357,435,-5.57343,-10.9666,0,0,0,0,0,0,0,-1,867,589,-5.57342,10.9666
-350,435,-0.86676,-3.69836,0,0,0,0,0,0,0,-1,874,589,-0.866784,3.69834
-343,435,-1.60706,-2.36835,0,0,0,0,0,0,0,-1,881,589,-1.60706,2.36838
-336,435,-2.07263,-1.94012,0,0,0,0,0,0,0,-1,888,589,-2.07265,1.94014
-329,435,-2.55963,-1.5517,0,0,0,0,0,0,0,-1,895,589,-2.5596,1.55168
-322,435,-3.08545,-1.55255,0,0,0,0,0,0,0,-1,902,589,-3.08544,1.55254
-315,435,-0.404297,-2.63763,0,0,0,0,0,0,0,-1,909,589,-0.404276,2.63761
-308,435,-1.70056,-1.90369,0,0,0,0,0,0,0,-1,916,589,-1.70056,1.90367
-301,435,-1.25232,-2.05511,0,0,0,0,0,0,0,-1,923,589,-1.25234,2.05514
-294,435,3.18237,-7.70764,0,0,0,0,0,0,0,-1,930,589,3.18238,7.70766
-287,435,0,0,0,0,0,0,0,0,0,-1,937,589,0,0
-280,435,0,0,0,0,0,0,0,0,0,-1,944,589,0,0
-273,435,0,0,0,0,0,0,0,0,0,-1,951,589,0,0
-266,435,0,0,0,0,0,0,0,0,0,-1,958,589,0,0
-259,435,0,0,0,0,0,0,0,0,0,-1,965,589,0,0
-252,435,0,0,0,0,0,0,0,0,0,-1,972,589,0,0
-245,435,0,0,0,0,0,0,0,0,0,-1,979,589,0,0
-238,435,0,0,0,0,0,0,0,0,0,-1,986,589,0,0
-231,435,0,0,0,0,0,0,0,0,0,-1,993,589,0,0
-224,435,0,0,0,0,0,0,0,0,0,-1,1000,589,0,0
-217,435,0,0,0,0,0,0,0,0,0,-1,1007,589,0,0
-210,435,0,0,0,0,0,0,0,0,0,-1,1014,589,0,0
-203,435,0,0,0,0,0,0,0,0,0,-1,1021,589,0,0
-196,435,0,0,0,0,0,0,0,0,0,-1,1028,589,0,0
-189,435,0,0,0,0,0,0,0,0,0,-1,1035,589,0,0
-182,435,0,0,0,0,0,0,0,0,0,-1,1042,589,0,0
-175,435,0,0,0,0,0,0,0,0,0,-1,1049,589,0,0
-168,435,0,0,0,0,0,0,0,0,0,-1,1056,589,0,0
-161,435,0,0,0,0,0,0,0,0,0,-1,1063,589,0,0
-154,435,0,0,0,0,0,0,0,0,0,-1,1070,589,0,0
-147,435,0,0,0,0,0,0,0,0,0,-1,1077,589,0,0
-140,435,0,0,0,0,0,0,0,0,0,-1,1084,589,0,0
-133,435,0,0,0,0,0,0,0,0,0,-1,1091,589,0,0
-126,435,0,0,0,0,0,0,0,0,0,-1,1098,589,0,0
-119,435,0,0,0,0,0,0,0,0,0,-1,1105,589,0,0
-112,435,0,0,0,0,0,0,0,0,0,-1,1112,589,0,0
-105,435,0,0,0,0,0,0,0,0,0,-1,1119,589,0,0
-98,435,0,0,0,0,0,0,0,0,0,-1,1126,589,0,0
-91,435,0,0,0,0,0,0,0,0,0,-1,1133,589,0,0
-84,435,0,0,0,0,0,0,0,0,0,-1,1140,589,0,0
-77,435,0,0,0,0,0,0,0,0,0,-1,1147,589,0,0
-70,435,0,0,0,0,0,0,0,0,0,-1,1154,589,0,0
-63,435,0,0,0,0,0,0,0,0,0,-1,1161,589,0,0
-56,435,0,0,0,0,0,0,0,0,0,-1,1168,589,0,0
-49,435,0,0,0,0,0,0,0,0,0,-1,1175,589,0,0
-42,435,0,0,0,0,0,0,0,0,0,-1,1182,589,0,0
-35,435,0,0,0,0,0,0,0,0,0,-1,1189,589,0,0
-28,435,0,0,0,0,0,0,0,0,0,-1,1196,589,0,0
-21,435,0,0,0,0,0,0,0,0,0,-1,1203,589,0,0
-14,435,0,0,0,0,0,0,0,0,0,-1,1210,589,0,0
-7,435,0,0,0,0,0,0,0,0,0,-1,1217,589,0,0
0,435,0,0,0,0,0,0,0,0,0,-1,1224,589,0,0
7,435,0,0,0,0,0,0,0,0,0,-1,1231,589,0,0
14,435,0,0,0,0,0,0,0,0,0,-1,1238,589,0,0
21,435,0,0,0,0,0,0,0,0,0,-1,1245,589,0,0
28,435,0,0,0,0,0,0,0,0,0,-1,1252,589,0,0
35,435,0,0,0,0,0,0,0,0,0,-1,1259,589,0,0
42,435,0,0,0,0,0,0,0,0,0,-1,1266,589,0,0
49,435,0,0,0,0,0,0,0,0,0,-1,1273,589,0,0
56,435,0,0,0,0,0,0,0,0,0,-1,1280,589,0,0
63,435,0,0,0,0,0,0,0,0,0,-1,1287,589,0,0
70,435,0,0,0,0,0,0,0,0,0,-1,1294,589,0,0
77,435,0,0,0,0,0,0,0,0,0,-1,1301,589,0,0
84,435,0,0,0,0,0,0,0,0,0,-1,1308,589,0,0
91,435,0,0,0,0,0,0,0,0,0,-1,1315,589,0,0
98,435,0,0,0,0,0,0,0,0,0,-1,1322,589,0,0
105,435,0,0,0,0,0,0,0,0,0,-1,1329,589,0,0
112,435,0,0,0,0,0,0,0,0,0,-1,1336,589,0,0
119,435,0,0,0,0,0,0,0,0,0,-1,1343,589,0,0
126,435,0,0,0,0,0,0,0,0,0,-1,1350,589,0,0
133,435,0,0,0,0,0,0,0,0,0,-1,1357,589,0,0
140,435,0,0,0,0,0,0,0,0,0,-1,1364,589,0,0
147,435,0,0,0,0,0,0,0,0,0,-1,1371,589,0,0
154,435,0,0,0,0,0,0,0,0,0,-1,1378,589,0,0
161,435,0,0,0,0,0,0,0,0,0,-1,1385,589,0,0
168,435,0,0,0,0,0,0,0,0,0,-1,1392,589,0,0
175,435,0,0,0,0,0,0,0,0,0,-1,1399,589,0,0
182,435,0,0,0,0,0,0,0,0,0,-1,1406,589,0,0
189,435,0,0,0,0,0,0,0,0,0,-1,1413,589,0,0
196,435,0,0,0,0,0,0,0,0,0,-1,1420,589,0,0
203,435,0,0,0,0,0,0,0,0,0,-1,1427,589,0,0
210,435,0,0,0,0,0,0,0,0,0,-1,1434,589,0,0
217,435,0,0,0,0,0,0,0,0,0,-1,1441,589,0,0
224,435,0,0,0,0,0,0,0,0,0,-1,1448,589,0,0
231,435,0,0,0,0,0,0,0,0,0,-1,1455,589,0,0
238,435,0,0,0,0,0,0,0,0,0,-1,1462,589,0,0
245,435,0,0,0,0,0,0,0,0,0,-1,1469,589,0,0
252,435,0,0,0,0,0,0,0,0,0,-1,1476,589,0,0
259,435,0,0,0,0,0,0,0,0,0,-1,1483,589,0,0
266,435,0,0,0,0,0,0,0,0,0,-1,1490,589,0,0
273,435,0,0,0,0,0,0,0,0,0,-1,1497,589,0,0
280,435,0,0,0,0,0,0,0,0,0,-1,1504,589,0,0
287,435,0,0,0,0,0,0,0,0,0,-1,1511,589,0,0
294,435,0,0,0,0,0,0,0,0,0,-1,1518,589,0,0
301,435,0,0,0,0,0,0,0,0,0,-1,1525,589,0,0
308,435,0,0,0,0,0,0,0,0,0,-1,1532,589,0,0
315,435,0,0,0,0,0,0,0,0,0,-1,1539,589,0,0
322,435,0,0,0,0,0,0,0,0,0,-1,1546,589,0,0
329,435,0,0,0,0,0,0,0,0,0,-1,1553,589,0,0
336,435,0,0,0,0,0,0,0,0,0,-1,1560,589,0,0
343,435,0,0,0,0,0,0,0,0,0,-1,1567,589,0,0
350,435,0,0,0,0,0,0,0,0,0,-1,1574,589,0,0
357,435,0,0,0,0,0,0,0,0,0,-1,1581,589,0,0
364,435,0,0,0,0,0,0,0,0,0,-1,1588,589,0,0
371,435,0,0,0,0,0,0,0,0,0,-1,1595,589,0,0
378,435,0,0,0,0,0,0,0,0,0,-1,1602,589,0,0
385,435,0,0,0,0,0,0,0,0,0,-1,1609,589,0,0
392,435,0,0,0,0,0,0,0,0,0,-1,1616,589,0,0
399,435,0,0,0,0,0,0,0,0,0,-1,1623,589,0,0
406,435,0,0,0,0,0,0,0,0,0,-1,1630,589,0,0
413,435,20.4565,3.49835,0,0,0,0,0,0,0,-1,1637,589,20.4565,-3.49836
420,435,21.4015,1.49609,0,0,0,0,0,0,0,-1,1644,589,21.4015,-1.49609
427,435,22.0464,-0.373962,0,0,0,0,0,0,0,-1,1651,589,22.0464,0.373972
434,435,22.1863,-1.54407,0,0,0,0,0,0,0,-1,1658,589,22.1862,1.54405
441,435,22.3992,-2.38287,0,0,0,0,0,0,0,-1,1665,589,22.3992,2.38289
448,435,7.4585,-0.00292969,0,0,0,0,0,0,0,-1,1672,589,7.45848,0.00294131
455,435,5.49915,-5.047,0,0,0,0,0,0,0,-1,1679,589,5.49914,5.04703
462,435,5.60669,-4.71466,0,0,0,0,0,0,0,-1,1686,589,5.60675,4.71469
469,435,5.87708,1.22351,0,0,0,0,0,0,0,-1,1693,589,5.87703,-1.22351
476,435,6.14136,1.37714,0,0,0,0,0,0,0,-1,1700,589,6.14138,-1.37712
483,435,6.49243,1.36169,0,0,0,0,0,0,0,-1,1707,589,6.49242,-1.36171
490,435,4.38391,-1.36218,0,0,0,0,0,0,0,-1,1714,589,4.38389,1.3622
497,435,7.23499,-3.64551,0,0,0,0,0,0,0,-1,1721,589,7.23495,3.64551
504,435,7.31189,-3.75909,0,0,0,0,0,0,0,-1,1728,589,7.31184,3.75911
511,435,20.8295,-17.991,0,0,0,0,0,0,0,-1,1735,589,20.8295,17.991
518,435,20.9899,-17.0359,0.00447639,0.0012068,0.00168485,0.0051892,0.000493984,0.400238,0.00330713,0.0285223,1742,589,20.9899,17.0359
525,435,20.9264,-16.3293,0.00375268,0.000937165,0.0014462,0.00436316,0.000326686,0.399434,0.00280623,0.0141162,1749,589,20.9263,16.3293
532,435,20.9092,-15.6239,0.0030705,0.000796154,0.00124346,0.00361837,0.000248285,0.415009,0.00233389,0.0162736,1756,589,20.9092,15.6239
539,435,20.8989,-14.9329,0.00253389,0.000812872,0.00113527,0.00309792,0.000248842,0.461104,0.00198753,0.0170575,1763,589,20.8989,14.9329
546,435,20.8685,-14.2736,0.0020555,0.00090378,0.0010503,0.00267744,0.000281833,0.534637,0.00169883,0.0157916,1770,589,20.8686,14.2736
553,435,20.8309,-13.605,0.00156534,0.00107433,0.00102526,0.00237408,0.000265595,0.667883,0.00150204,0.0108767,1777,589,20.8309,13.605
560,435,20.7893,-12.9246,0.00106987,0.0012739,0.00103954,0.00221642,0.000127355,0.834308,0.00143704,0.0096061,1784,589,20.7893,12.9246
567,435,20.7803,-12.2212,0.000701122,0.00161167,0.00117261,0.00241429,-0.000101496,0.970569,0.0016444,0.00932128,1791,589,20.7802,12.2212
574,435,20.7551,-11.5264,0.000391119,0.0020267,0.00135827,0.00279437,-0.000376553,1.05637,0.00200028,0.0105275,1798,589,20.7551,11.5263
581,435,20.7308,-10.8427,0.000118226,0.00245504,0.00161915,0.00328334,-0.000710071,1.09794,0.00245998,0.017885,1805,589,20.7309,10.8427
588,435,20.6947,-10.212,2.83888e-06,0.00302304,0.00201637,0.0040321,-0.00100622,1.1068,0.00307878,0.0454802,1812,589,20.6947,10.212
595,435,20.7404,-9.27466,0,0,0,0,0,0,0,-1,1819,589,20.7403,9.27463
602,435,16.8671,-6.39026,0,0,0,0,0,0,0,-1,1826,589,16.867,6.39024
609,435,15.2611,-3.42242,0,0,0,0,0,0,0,-1,1833,589,15.2611,3.42242
616,435,5.05151,-2.75269,0,0,0,0,0,0,0,-1,1840,589,5.05157,2.7527
623,435,11.7588,3.9704,0,0,0,0,0,0,0,-1,1847,589,11.7587,-3.97043
630,435,4.72742,-0.87561,0,0,0,0,0,0,0,-1,1854,589,4.7274,0.875636
637,435,5.05286,1.48792,0,0,0,0,0,0,0,-1,1861,589,5.05291,-1.48792
644,435,0,0,0,0,0,0,0,0,0,-1,1868,589,0,0
651,435,0,0,0,0,0,0,0,0,0,-1,1875,589,0,0
658,435,0,0,0,0,0,0,0,0,0,-1,1882,589,0,0
665,435,0,0,0,0,0,0,0,0,0,-1,1889,589,0,0
672,435,0,0,0,0,0,0,0,0,0,-1,1896,589,0,0
679,435,0,0,0,0,0,0,0,0,0,-1,1903,589,0,0
686,435,0,0,0,0,0,0,0,0,0,-1,1910,589,0,0
693,435,0,0,0,0,0,0,0,0,0,-1,1917,589,0,0
700,435,0,0,0,0,0,0,0,0,0,-1,1924,589,0,0
707,435,0,0,0,0,0,0,0,0,0,-1,1931,589,0,0
714,435,0,0,0,0,0,0,0,0,0,-1,1938,589,0,0
721,435,0,0,0,0,0,0,0,0,0,-1,1945,589,0,0
728,435,0,0,0,0,0,0,0,0,0,-1,1952,589,0,0
735,435,0,0,0,0,0,0,0,0,0,-1,1959,589,0,0
742,435,0,0,0,0,0,0,0,0,0,-1,1966,589,0,0
749,435,0,0,0,0,0,0,0,0,0,-1,1973,589,0,0
756,435,0,0,0,0,0,0,0,0,0,-1,1980,589,0,0
763,435,0,0,0,0,0,0,0,0,0,-1,1987,589,0,0
770,435,0,0,0,0,0,0,0,0,0,-1,1994,589,0,0
777,435,0,0,0,0,0,0,0,0,0,-1,2001,589,0,0
784,435,0,0,0,0,0,0,0,0,0,-1,2008,589,0,0
791,435,0,0,0,0,0,0,0,0,0,-1,2015,589,0,0
798,435,0,0,0,0,0,0,0,0,0,-1,2022,589,0,0
805,435,0,0,0,0,0,0,0,0,0,-1,2029,589,0,0
812,435,0,0,0,0,0,0,0,0,0,-1,2036,589,0,0
-700,428,0,0,0,0,0,0,0,0,0,-1,524,596,0,0
-693,428,0,0,0,0,0,0,0,0,0,-1,531,596,0,0
-686,428,0,0,0,0,0,0,0,0,0,-1,538,596,0,0
-679,428,0,0,0,0,0,0,0,0,0,-1,545,596,0,0
-672,428,0,0,0,0,0,0,0,0,0,-1,552,596,0,0
-665,428,0,0,0,0,0,0,0,0,0,-1,559,596,0,0
-658,428,0,0,0,0,0,0,0,0,0,-1,566,596,0,0
-651,428,0,0,0,0,0,0,0,0,0,-1,573,596,0,0
-644,428,0,0,0,0,0,0,0,0,0,-1,580,596,0,0
-637,428,0,0,0,0,0,0,0,0,0,-1,587,596,0,0
-630,428,0,0,0,0,0,0,0,0,0,-1,594,596,0,0
-623,428,0,0,0,0,0,0,0,0,0,-1,601,596,0,0
-616,428,0,0,0,0,0,0,0,0,0,-1,608,596,0,0
-609,428,0,0,0,0,0,0,0,0,0,-1,615,596,0,0
-602,428,0,0,0,0,0,0,0,0,0,-1,622,596,0,0
-595,428,0,0,0,0,0,0,0,0,0,-1,629,596,0,0
-588,428,0,0,0,0,0,0,0,0,0,-1,636,596,0,0
-581,428,0,0,0,0,0,0,0,0,0,-1,643,596,0,0
-574,428,0,0,0,0,0,0,0,0,0,-1,650,596,0,0
-567,428,0,0,0,0,0,0,0,0,0,-1,657,596,0,0
-560,428,0,0,0,0,0,0,0,0,0,-1,664,596,0,0
-553,428,0,0,0,0,0,0,0,0,0,-1,671,596,0,0
-546,428,0,0,0,0,0,0,0,0,0,-1,678,596,0,0
-539,428,0,0,0,0,0,0,0,0,0,-1,685,596,0,0
-532,428,0,0,0,0,0,0,0,0,0,-1,692,596,0,0
-525,428,-9.59918,7.58618,0,0,0,0,0,0,0,-1,699,596,-9.59918,-7.5862
-518,428,-2.92285,-4.81854,0,0,0,0,0,0,0,-1,706,596,-2.92285,4.81856
-511,428,-3.68811,-4.79474,0,0,0,0,0,0,0,-1,713,596,-3.68811,4.79474
-504,428,-4.45337,-4.77094,0,0,0,0,0,0,0,-1,720,596,-4.45337,4.77092
-497,428,-2.98108,-3.77502,0,0,0,0,0,0,0,-1,727,596,-2.98106,3.77505
-490,428,-6.39044,-2.80481,0,0,0,0,0,0,0,-1,734,596,-6.39047,2.80483
-483,428,-9.70264,-8.41449,0,0,0,0,0,0,0,-1,741,596,-9.70266,8.41448
-476,428,-9.20825,-10.226,0,0,0,0,0,0,0,-1,748,596,-9.20823,10.226
-469,428,-9.28906,-10.7623,-0.000242441,0.0092252,-0.00545895,0.011717,-0.00273421,-1.14259,0.00886441,0.0290177,755,596,-9.28909,10.7622
-462,428,-9.4256,-11.4112,7.28668e-05,0.00721102,-0.00441114,0.00931614,-0.00203225,-1.12553,0.00698739,0.0305982,762,596,-9.4256,11.4112
-455,428,-9.50861,-12.1902,0.000253675,0.00554401,-0.00343401,0.00723351,-0.00143582,-1.11358,0.00536537,0.016534,769,596,-9.50862,12.1902
-448,428,-9.52057,-12.8824,0.000371854,0.00397086,-0.00253604,0.00528097,-0.000938255,-1.09396,0.00387148,0.011847,776,596,-9.52057,12.8825
-441,428,-9.53357,-13.565,0.000444578,0.00251854,-0.00169667,0.00347003,-0.000506914,-1.0597,0.00249952,0.0134118,783,596,-9.53356,13.565
-434,428,-9.54608,-14.2701,0.000534033,0.00138857,-0.00102415,0.002071,-0.000148404,-0.983017,0.0014327,0.0105691,790,596,-9.54607,14.2701
-427,428,-9.57007,-14.951,0.000646156,0.000369778,-0.000490252,0.00101732,-1.38843e-06,-0.648025,0.000678678,0.0117307,797,596,-9.57008,14.9511
-420,428,-9.58301,-15.5812,0.000795721,-0.00053015,-5.71544e-05,0.00079818,-0.000532609,-0.0430008,0.000773414,0.0118192,804,596,-9.58302,15.5812
-413,428,-9.60822,-16.2141,0.000916063,-0.00140411,0.000389687,0.000979765,-0.00146781,0.162035,0.00142244,0.014464,811,596,-9.60821,16.2141
-406,428,-9.66016,-16.8663,0.0010735,-0.00215067,0.000705205,0.001221,-0.00229816,0.206184,0.00206327,0.0167789,818,596,-9.66014,16.8663
-399,428,-9.67688,-17.5275,0.00137248,-0.00279999,0.000867482,0.00154564,-0.00297316,0.197032,0.00265197,0.0156519,825,596,-9.67691,17.5274
-392,428,-9.6781,-18.2255,0.00194733,-0.00334552,0.000888695,0.00209256,-0.00349075,0.161988,0.00325705,0.0291209,832,596,-9.6781,18.2255
-385,428,-9.68823,-18.8909,0,0,0,0,0,0,0,-1,839,596,-9.68821,18.8909
-378,428,-9.84265,-19.3483,0,0,0,0,0,0,0,-1,846,596,-9.84263,19.3483
-371,428,-5.96155,-11.0703,0,0,0,0,0,0,0,-1,853,596,-5.96154,11.0702
-364,428,-6.33643,-10.7223,0,0,0,0,0,0,0,-1,860,596,-6.33645,10.7223
-357,428,-3.20996,-4.70966,0,0,0,0,0,0,0,-1,867,596,-3.20997,4.70965
-350,428,-1.62793,-3.94055,0,0,0,0,0,0,0,-1,874,596,-1.62794,3.94055
-343,428,-0.0567017,-4.80994,0,0,0,0,0,0,0,-1,881,596,-0.0567096,4.80996
-336,428,-3.29175,-1.39569,0,0,0,0,0,0,0,-1,888,596,-3.29172,1.39568
-329,428,-3.71564,-0.791321,0,0,0,0,0,0,0,-1,895,596,-3.71564,0.791299
-322,428,-5.52863,-3.59827,0,0,0,0,0,0,0,-1,902,596,-5.52865,3.59829
-315,428,-4.57172,-1.22052,0,0,0,0,0,0,0,-1,909,596,-4.57171,1.22052
-308,428,-5.94324,-0.810791,0,0,0,0,0,0,0,-1,916,596,-5.94321,0.810803
-301,428,0,0,0,0,0,0,0,0,0,-1,923,596,0,0
-294,428,0,0,0,0,0,0,0,0,0,-1,930,596,0,0
-287,428,0,0,0,0,0,0,0,0,0,-1,937,596,0,0
-280,428,0,0,0,0,0,0,0,0,0,-1,944,596,0,0
-273,428,0,0,0,0,0,0,0,0,0,-1,951,596,0,0
-266,428,0,0,0,0,0,0,0,0,0,-1,958,596,0,0
-259,428,0,0,0,0,0,0,0,0,0,-1,965,596,0,0
-252,428,0,0,0,0,0,0,0,0,0,-1,972,596,0,0
-245,428,0,0,0,0,0,0,0,0,0,-1,979,596,0,0
-238,428,0,0,0,0,0,0,0,0,0,-1,986,596,0,0
-231,428,0,0,0,0,0,0,0,0,0,-1,993,596,0,0
-224,428,0,0,0,0,0,0,0,0,0,-1,1000,596,0,0
-217,428,0,0,0,0,0,0,0,0,0,-1,1007,596,0,0
-210,428,0,0,0,0,0,0,0,0,0,-1,1014,596,0,0
-203,428,0,0,0,0,0,0,0,0,0,-1,1021,596,0,0
-196,428,0,0,0,0,0,0,0,0,0,-1,1028,596,0,0
-189,428,0,0,0,0,0,0,0,0,0,-1,1035,596,0,0
-182,428,0,0,0,0,0,0,0,0,0,-1,1042,596,0,0
-175,428,0,0,0,0,0,0,0,0,0,-1,1049,596,0,0
-168,428,0,0,0,0,0,0,0,0,0,-1,1056,596,0,0
-161,428,0,0,0,0,0,0,0,0,0,-1,1063,596,0,0
-154,428,0,0,0,0,0,0,0,0,0,-1,1070,596,0,0
-147,428,0,0,0,0,0,0,0,0,0,-1,1077,596,0,0
-140,428,0,0,0,0,0,0,0,0,0,-1,1084,596,0,0
-133,428,0,0,0,0,0,0,0,0,0,-1,1091,596,0,0
-126,428,0,0,0,0,0,0,0,0,0,-1,1098,596,0,0
-119,428,0,0,0,0,0,0,0,0,0,-1,1105,596,0,0
-112,428,0,0,0,0,0,0,0,0,0,-1,1112,596,0,0
-105,428,0,0,0,0,0,0,0,0,0,-1,1119,596,0,0
-98,428,0,0,0,0,0,0,0,0,0,-1,1126,596,0,0
-91,428,0,0,0,0,0,0,0,0,0,-1,1133,596,0,0
-84,428,0,0,0,0,0,0,0,0,0,-1,1140,596,0,0
-77,428,0,0,0,0,0,0,0,0,0,-1,1147,596,0,0
-70,428,0,0,0,0,0,0,0,0,0,-1,1154,596,0,0
-63,428,0,0,0,0,0,0,0,0,0,-1,1161,596,0,0
-56,428,0,0,0,0,0,0,0,0,0,-1,1168,596,0,0
-49,428,0,0,0,0,0,0,0,0,0,-1,1175,596,0,0
-42,428,0,0,0,0,0,0,0,0,0,-1,1182,596,0,0
-35,428,0,0,0,0,0,0,0,0,0,-1,1189,596,0,0
-28,428,0,0,0,0,0,0,0,0,0,-1,1196,596,0,0
-21,428,0,0,0,0,0,0,0,0,0,-1,1203,596,0,0
-14,428,0,0,0,0,0,0,0,0,0,-1,1210,596,0,0
-7,428,0,0,0,0,0,0,0,0,0,-1,1217,596,0,0
0,428,0,0,0,0,0,0,0,0,0,-1,1224,596,0,0
7,428,0,0,0,0,0,0,0,0,0,-1,1231,596,0,0
14,428,0,0,0,0,0,0,0,0,0,-1,1238,596,0,0
21,428,0,0,0,0,0,0,0,0,0,-1,1245,596,0,0
28,428,0,0,0,0,0,0,0,0,0,-1,1252,596,0,0
35,428,0,0,0,0,0,0,0,0,0,-1,1259,596,0,0
42,428,0,0,0,0,0,0,0,0,0,-1,1266,596,0,0
49,428,0,0,0,0,0,0,0,0,0,-1,1273,596,0,0
56,428,0,0,0,0,0,0,0,0,0,-1,1280,596,0,0
63,428,0,0,0,0,0,0,0,0,0,-1,1287,596,0,0
70,428,0,0,0,0,0,0,0,0,0,-1,1294,596,0,0
77,428,0,0,0,0,0,0,0,0,0,-1,1301,596,0,0
84,428,0,0,0,0,0,0,0,0,0,-1,1308,596,0,0
91,428,0,0,0,0,0,0,0,0,0,-1,1315,596,0,0
98,428,0,0,0,0,0,0,0,0,0,-1,1322,596,0,0
105,428,0,0,0,0,0,0,0,0,0,-1,1329,596,0,0
112,428,0,0,0,0,0,0,0,0,0,-1,1336,596,0,0
119,428,0,0,0,0,0,0,0,0,0,-1,1343,596,0,0
126,428,0,0,0,0,0,0,0,0,0,-1,1350,596,0,0
133,428,0,0,0,0,0,0,0,0,0,-1,1357,596,0,0
140,428,0,0,0,0,0,0,0,0,0,-1,1364,596,0,0
147,428,0,0,0,0,0,0,0,0,0,-1,1371,596,0,0
154,428,0,0,0,0,0,0,0,0,0,-1,1378,596,0,0
161,428,0,0,0,0,0,0,0,0,0,-1,1385,596,0,0
168,428,0,0,0,0,0,0,0,0,0,-1,1392,596,0,0
175,428,0,0,0,0,0,0,0,0,0,-1,1399,596,0,0
182,428,0,0,0,0,0,0,0,0,0,-1,1406,596,0,0
189,428,0,0,0,0,0,0,0,0,0,-1,1413,596,0,0
196,428,0,0,0,0,0,0,0,0,0,-1,1420,596,0,0
203,428,0,0,0,0,0,0,0,0,0,-1,1427,596,0,0
210,428,0,0,0,0,0,0,0,0,0,-1,1434,596,0,0
217,428,0,0,0,0,0,0,0,0,0,-1,1441,596,0,0
224,428,0,0,0,0,0,0,0,0,0,-1,1448,596,0,0
231,428,0,0,0,0,0,0,0,0,0,-1,1455,596,0,0
238,428,0,0,0,0,0,0,0,0,0,-1,1462,596,0,0
245,428,0,0,0,0,0,0,0,0,0,-1,1469,596,0,0
252,428,0,0,0,0,0,0,0,0,0,-1,1476,596,0,0
259,428,0,0,0,0,0,0,0,0,0,-1,1483,596,0,0
266,428,0,0,0,0,0,0,0,0,0,-1,1490,596,0,0
273,428,0,0,0,0,0,0,0,0,0,-1,1497,596,0,0
280,428,0,0,0,0,0,0,0,0,0,-1,1504,596,0,0
287,428,0,0,0,0,0,0,0,0,0,-1,1511,596,0,0
294,428,0,0,0,0,0,0,0,0,0,-1,1518,596,0,0
301,428,0,0,0,0,0,0,0,0,0,-1,1525,596,0,0
308,428,0,0,0,0,0,0,0,0,0,-1,1532,596,0,0
315,428,0,0,0,0,0,0,0,0,0,-1,1539,596,0,0
322,428,0,0,0,0,0,0,0,0,0,-1,1546,596,0,0
329,428,0,0,0,0,0,0,0,0,0,-1,1553,596,0,0
336,428,0,0,0,0,0,0,0,0,0,-1,1560,596,0,0
343,428,0,0,0,0,0,0,0,0,0,-1,1567,596,0,0
350,428,0,0,0,0,0,0,0,0,0,-1,1574,596,0,0
357,428,0,0,0,0,0,0,0,0,0,-1,1581,596,0,0
364,428,0,0,0,0,0,0,0,0,0,-1,1588,596,0,0
371,428,0,0,0,0,0,0,0,0,0,-1,1595,596,0,0
378,428,0,0,0,0,0,0,0,0,0,-1,1602,596,0,0
385,428,0,0,0,0,0,0,0,0,0,-1,1609,596,0,0
392,428,0,0,0,0,0,0,0,0,0,-1,1616,596,0,0
399,428,0,0,0,0,0,0,0,0,0,-1,1623,596,0,0
406,428,0,0,0,0,0,0,0,0,0,-1,1630,596,0,0
413,428,0,0,0,0,0,0,0,0,0,-1,1637,596,0,0
420,428,19.8469,1.3399,0,0,0,0,0,0,0,-1,1644,596,19.8469,-1.33992
427,428,20.7299,-0.225281,0,0,0,0,0,0,0,-1,1651,596,20.7299,0.225262
434,428,19.8915,-0.583069,0,0,0,0,0,0,0,-1,1658,596,19.8915,0.583075
441,428,8.17993,0.607483,0,0,0,0,0,0,0,-1,1665,596,8.17997,-0.607513
448,428,7.84338,-0.385986,0,0,0,0,0,0,0,-1,1672,596,7.84336,0.385978
455,428,6.64038,2.1123,0,0,0,0,0,0,0,-1,1679,596,6.64037,-2.11229
462,428,4.84106,4.12341,0,0,0,0,0,0,0,-1,1686,596,4.84107,-4.12339
469,428,7.83789,3.10083,0,0,0,0,0,0,0,-1,1693,596,7.83785,-3.10086
476,428,7.61255,1.73956,0,0,0,0,0,0,0,-1,1700,596,7.61252,-1.73958
483,428,7.22766,1.05121,0,0,0,0,0,0,0,-1,1707,596,7.2277,-1.05121
490,428,5.4071,-3.2793,0,0,0,0,0,0,0,-1,1714,596,5.40707,3.27929
497,428,7.84106,-3.65491,0,0,0,0,0,0,0,-1,1721,596,7.84107,3.65491
504,428,6.92139,-2.83356,0,0,0,0,0,0,0,-1,1728,596,6.92137,2.83353
511,428,7.88501,-3.78723,0,0,0,0,0,0,0,-1,1735,596,7.88502,3.78722
518,428,21.6499,-17.0825,0,0,0,0,0,0,0,-1,1742,596,21.6499,17.0825
525,428,21.5995,-16.2776,0,0,0,0,0,0,0,-1,1749,596,21.5994,16.2776
532,428,21.5887,-15.5499,0.00383083,0.000773976,0.00135239,0.00434325,0.000261556,0.362185,0.00281237,0.0218904,1756,596,21.5887,15.5499
539,428,21.6036,-14.8944,0.00319286,0.000794549,0.00117854,0.00367505,0.000312353,0.388365,0.00235284,0.0220336,1763,596,21.6036,14.8944
546,428,21.5662,-14.2666,0.00261873,0.000825632,0.00103932,0.00309476,0.000349598,0.429507,0.00195708,0.0165775,1770,596,21.5662,14.2666
553,428,21.5156,-13.5839,0.00205403,0.000950541,0.00096919,0.00261752,0.00038705,0.526634,0.00163138,0.0109709,1777,596,21.5156,13.5839
560,428,21.5066,-12.8978,0.00149241,0.00111036,0.000950758,0.00227114,0.000331627,0.68626,0.00141655,0.0124627,1784,596,21.5066,12.8978
567,428,21.4812,-12.2104,0.00103856,0.0013855,0.00103854,0.00226495,0.000159106,0.868149,0.00145983,0.0118104,1791,596,21.4812,12.2104
574,428,21.439,-11.5192,0.000682582,0.0017549,0.00121113,0.00254325,-0.000105762,0.993779,0.00173183,0.0130857,1798,596,21.4389,11.5192
581,428,21.401,-10.7953,0.000400596,0.00215993,0.00149019,0.00301072,-0.00045019,1.05203,0.00217281,0.0111126,1805,596,21.401,10.7954
588,428,21.3832,-10.0864,0.000254404,0.00273576,0.00190461,0.00376814,-0.00077798,1.07408,0.00280758,0.0172586,1812,596,21.3832,10.0864
595,428,21.3149,-9.36542,0.000200602,0.00340724,0.00239343,0.00468474,-0.0010769,1.08051,0.0035372,0.0305745,1819,596,21.315,9.36543
602,428,21.4381,-8.56921,0,0,0,0,0,0,0,-1,1826,596,21.4381,8.56919
609,428,17.2073,-4.82446,0,0,0,0,0,0,0,-1,1833,596,17.2073,4.82447
616,428,15.7817,-3.09558,0,0,0,0,0,0,0,-1,1840,596,15.7817,3.09556
623,428,9.53577,1.12518,0,0,0,0,0,0,0,-1,1847,596,9.5358,-1.1252
630,428,7.07996,6.88562,0,0,0,0,0,0,0,-1,1854,596,7.0799,-6.88565
637,428,3.95435,1.90857,0,0,0,0,0,0,0,-1,1861,596,3.95439,-1.90858
644,428,5.75476,0.888977,0,0,0,0,0,0,0,-1,1868,596,5.75472,-0.888955
651,428,0,0,0,0,0,0,0,0,0,-1,1875,596,0,0
658,428,0,0,0,0,0,0,0,0,0,-1,1882,596,0,0
665,428,0,0,0,0,0,0,0,0,0,-1,1889,596,0,0
672,428,0,0,0,0,0,0,0,0,0,-1,1896,596,0,0
679,428,0,0,0,0,0,0,0,0,0,-1,1903,596,0,0
686,428,0,0,0,0,0,0,0,0,0,-1,1910,596,0,0
693,428,0,0,0,0,0,0,0,0,0,-1,1917,596,0,0
700,428,0,0,0,0,0,0,0,0,0,-1,1924,596,0,0
707,428,0,0,0,0,0,0,0,0,0,-1,1931,596,0,0
714,428,0,0,0,0,0,0,0,0,0,-1,1938,596,0,0
721,428,0,0,0,0,0,0,0,0,0,-1,1945,596,0,0
728,428,0,0,0,0,0,0,0,0,0,-1,1952,596,0,0
735,428,0,0,0,0,0,0,0,0,0,-1,1959,596,0,0
742,428,0,0,0,0,0,0,0,0,0,-1,1966,596,0,0
749,428,0,0,0,0,0,0,0,0,0,-1,1973,596,0,0
756,428,0,0,0,0,0,0,0,0,0,-1,1980,596,0,0
763,428,0,0,0,0,0,0,0,0,0,-1,1987,596,0,0
770,428,0,0,0,0,0,0,0,0,0,-1,1994,596,0,0
777,428,0,0,0,0,0,0,0,0,0,-1,2001,596,0,0
784,428,0,0,0,0,0,0,0,0,0,-1,2008,596,0,0
791,428,0,0,0,0,0,0,0,0,0,-1,2015,596,0,0
798,428,0,0,0,0,0,0,0,0,0,-1,2022,596,0,0
805,428,0,0,0,0,0,0,0,0,0,-1,2029,596,0,0
812,428,0,0,0,0,0,0,0,0,0,-1,2036,596,0,0
-700,421,0,0,0,0,0,0,0,0,0,-1,524,603,0,0
-693,421,0,0,0,0,0,0,0,0,0,-1,531,603,0,0
-686,421,0,0,0,0,0,0,0,0,0,-1,538,603,0,0
-679,421,0,0,0,0,0,0,0,0,0,-1,545,603,0,0
-672,421,0,0,0,0,0,0,0,0,0,-1,552,603,0,0
-665,421,0,0,0,0,0,0,0,0,0,-1,559,603,0,0
-658,421,0,0,0,0,0,0,0,0,0,-1,566,603,0,0
-651,421,0,0,0,0,0,0,0,0,0,-1,573,603,0,0
-644,421,0,0,0,0,0,0,0,0,0,-1,580,603,0,0
-637,421,0,0,0,0,0,0,0,0,0,-1,587,603,0,0
-630,421,0,0,0,0,0,0,0,0,0,-1,594,603,0,0
-623,421,0,0,0,0,0,0,0,0,0,-1,601,603,0,0
-616,421,0,0,0,0,0,0,0,0,0,-1,608,603,0,0
-609,421,0,0,0,0,0,0,0,0,0,-1,615,603,0,0
-602,421,0,0,0,0,0,0,0,0,0,-1,622,603,0,0
-595,421,0,0,0,0,0,0,0,0,0,-1,629,603,0,0
-588,421,0,0,0,0,0,0,0,0,0,-1,636,603,0,0
-581,421,0,0,0,0,0,0,0,0,0,-1,643,603,0,0
-574,421,0,0,0,0,0,0,0,0,0,-1,650,603,0,0
-567,421,0,0,0,0,0,0,0,0,0,-1,657,603,0,0
-560,421,0,0,0,0,0,0,0,0,0,-1,664,603,0,0
-553,421,0,0,0,0,0,0,0,0,0,-1,671,603,0,0
-546,421,0,0,0,0,0,0,0,0,0,-1,678,603,0,0
-539,421,0,0,0,0,0,0,0,0,0,-1,685,603,0,0
-532,421,-8.97382,6.95636,0,0,0,0,0,0,0,-1,692,603,-8.97384,-6.95634
-525,421,-2.11481,-8.04272,0,0,0,0,0,0,0,-1,699,603,-2.11483,8.0427
-518,421,-3.05908,-5.07233,0,0,0,0,0,0,0,-1,706,603,-3.0591,5.07235
-511,421,-4.63525,-4.08447,0,0,0,0,0,0,0,-1,713,603,-4.63524,4.08449
-504,421,-5.17029,-4.94458,0,0,0,0,0,0,0,-1,720,603,-5.17029,4.9446
-497,421,-6.63141,-2.32501,0,0,0,0,0,0,0,-1,727,603,-6.6314,2.32498
-490,421,-6.7616,-4.14783,0,0,0,0,0,0,0,-1,734,603,-6.76159,4.1478
-483,421,-10.0073,-9.2597,0,0,0,0,0,0,0,-1,741,603,-10.0073,9.25971
-476,421,-9.93677,-10.2316,-8.24067e-05,0.00929359,-0.00546302,0.0118043,-0.00259315,-1.14,0.00886133,0.0356748,748,603,-9.93678,10.2316
-469,421,-10.1063,-10.756,6.89188e-06,0.0071594,-0.00439331,0.00924802,-0.00208173,-1.12701,0.00696376,0.028026,755,603,-10.1063,10.756
-462,421,-10.1395,-11.5082,0.00021335,0.005401,-0.00350027,0.00716376,-0.00154941,-1.10427,0.00536738,0.0208066,762,603,-10.1395,11.5082
-455,421,-10.1641,-12.1965,0.000340529,0.0039063,-0.00267007,0.00533401,-0.00108719,-1.07977,0.00396836,0.0190777,769,603,-10.1641,12.1965
-448,421,-10.1913,-12.855,0.000456064,0.00252464,-0.00190837,0.00366099,-0.000680279,-1.03373,0.00269618,0.0189563,776,603,-10.1913,12.855
-441,421,-10.2021,-13.5445,0.000509579,0.00120038,-0.00114895,0.00205472,-0.000344765,-0.931411,0.00149802,0.0147185,783,603,-10.2021,13.5445
-434,421,-10.2364,-14.2428,0.000582697,0.000186887,-0.000527372,0.000948074,-0.000178491,-0.605896,0.000699183,0.010876,790,603,-10.2364,14.2428
-427,421,-10.2474,-14.9028,0.000672528,-0.000749873,-1.98322e-05,0.000672805,-0.00075015,-0.0139391,0.000821948,0.0105903,797,603,-10.2474,14.9028
-420,421,-10.2596,-15.5336,0.00076788,-0.00159744,0.000430602,0.000843831,-0.00167339,0.174588,0.00147939,0.0119661,804,603,-10.2596,15.5336
-413,421,-10.2908,-16.1778,0.000857249,-0.00229229,0.000832529,0.00106377,-0.00249881,0.243159,0.00211175,0.0146689,811,603,-10.2908,16.1778
-406,421,-10.3468,-16.8558,0.000962534,-0.00301354,0.001152,0.00127219,-0.0033232,0.262592,0.00273982,0.0200768,818,603,-10.3468,16.8557
-399,421,-10.2684,-17.5836,0.00117948,-0.00362484,0.00131527,0.00151599,-0.00396135,0.250475,0.00326571,0.033499,825,603,-10.2684,17.5835
-392,421,-10.1635,-18.2839,0,0,0,0,0,0,0,-1,832,603,-10.1635,18.2839
-385,421,-9.76154,-15.8135,0,0,0,0,0,0,0,-1,839,603,-9.76152,15.8135
-378,421,-4.94733,-8.87909,0,0,0,0,0,0,0,-1,846,603,-4.94731,8.87906
-371,421,-5.65082,-7.01849,0,0,0,0,0,0,0,-1,853,603,-5.65082,7.0185
-364,421,-5.94189,-7.09875,0,0,0,0,0,0,0,-1,860,603,-5.94192,7.09878
-357,421,-7.62531,-8.26337,0,0,0,0,0,0,0,-1,867,603,-7.62532,8.26337
-350,421,-5.38019,-3.75024,0,0,0,0,0,0,0,-1,874,603,-5.38017,3.75026
-343,421,-6.22797,-2.57123,0,0,0,0,0,0,0,-1,881,603,-6.22798,2.57121
-336,421,-6.22882,-2.59369,0,0,0,0,0,0,0,-1,888,603,-6.22883,2.5937
-329,421,-4.50134,-1.49469,0,0,0,0,0,0,0,-1,895,603,-4.50137,1.49468
-322,421,-7.55817,1.13263,0,0,0,0,0,0,0,-1,902,603,-7.55818,-1.13263
-315,421,-4.47821,-1.26733,0,0,0,0,0,0,0,-1,909,603,-4.47824,1.26732
-308,421,0,0,0,0,0,0,0,0,0,-1,916,603,0,0
-301,421,0,0,0,0,0,0,0,0,0,-1,923,603,0,0
-294,421,0,0,0,0,0,0,0,0,0,-1,930,603,0,0
-287,421,0,0,0,0,0,0,0,0,0,-1,937,603,0,0
-280,421,0,0,0,0,0,0,0,0,0,-1,944,603,0,0
-273,421,0,0,0,0,0,0,0,0,0,-1,951,603,0,0
-266,421,0,0,0,0,0,0,0,0,0,-1,958,603,0,0
-259,421,0,0,0,0,0,0,0,0,0,-1,965,603,0,0
-252,421,0,0,0,0,0,0,0,0,0,-1,972,603,0,0
-245,421,0,0,0,0,0,0,0,0,0,-1,979,603,0,0
-238,421,0,0,0,0,0,0,0,0,0,-1,986,603,0,0
-231,421,0,0,0,0,0,0,0,0,0,-1,993,603,0,0
-224,421,0,0,0,0,0,0,0,0,0,-1,1000,603,0,0
-217,421,0,0,0,0,0,0,0,0,0,-1,1007,603,0,0
-210,421,0,0,0,0,0,0,0,0,0,-1,1014,603,0,0
-203,421,0,0,0,0,0,0,0,0,0,-1,1021,603,0,0
-196,421,0,0,0,0,0,0,0,0,0,-1,1028,603,0,0
-189,421,0,0,0,0,0,0,0,0,0,-1,1035,603,0,0
-182,421,0,0,0,0,0,0,0,0,0,-1,1042,603,0,0
-175,421,0,0,0,0,0,0,0,0,0,-1,1049,603,0,0
-168,421,0,0,0,0,0,0,0,0,0,-1,1056,603,0,0
-161,421,0,0,0,0,0,0,0,0,0,-1,1063,603,0,0
-154,421,0,0,0,0,0,0,0,0,0,-1,1070,603,0,0
-147,421,0,0,0,0,0,0,0,0,0,-1,1077,603,0,0
-140,421,0,0,0,0,0,0,0,0,0,-1,1084,603,0,0
-133,421,0,0,0,0,0,0,0,0,0,-1,1091,603,0,0
-126,421,0,0,0,0,0,0,0,0,0,-1,1098,603,0,0
-119,421,0,0,0,0,0,0,0,0,0,-1,1105,603,0,0
-112,421,0,0,0,0,0,0,0,0,0,-1,1112,603,0,0
-105,421,0,0,0,0,0,0,0,0,0,-1,1119,603,0,0
-98,421,0,0,0,0,0,0,0,0,0,-1,1126,603,0,0
-91,421,0,0,0,0,0,0,0,0,0,-1,1133,603,0,0
-84,421,0,0,0,0,0,0,0,0,0,-1,1140,603,0,0
-77,421,0,0,0,0,0,0,0,0,0,-1,1147,603,0,0
-70,421,0,0,0,0,0,0,0,0,0,-1,1154,603,0,0
-63,421,0,0,0,0,0,0,0,0,0,-1,1161,603,0,0
-56,421,0,0,0,0,0,0,0,0,0,-1,1168,603,0,0
-49,421,0,0,0,0,0,0,0,0,0,-1,1175,603,0,0
-42,421,0,0,0,0,0,0,0,0,0,-1,1182,603,0,0
-35,421,0,0,0,0,0,0,0,0,0,-1,1189,603,0,0
-28,421,0,0,0,0,0,0,0,0,0,-1,1196,603,0,0
-21,421,0,0,0,0,0,0,0,0,0,-1,1203,603,0,0
-14,421,0,0,0,0,0,0,0,0,0,-1,1210,603,0,0
-7,421,0,0,0,0,0,0,0,0,0,-1,1217,603,0,0
0,421,0,0,0,0,0,0,0,0,0,-1,1224,603,0,0
7,421,0,0,0,0,0,0,0,0,0,-1,1231,603,0,0
14,421,0,0,0,0,0,0,0,0,0,-1,1238,603,0,0
21,421,0,0,0,0,0,0,0,0,0,-1,1245,603,0,0
28,421,0,0,0,0,0,0,0,0,0,-1,1252,603,0,0
35,421,0,0,0,0,0,0,0,0,0,-1,1259,603,0,0
42,421,0,0,0,0,0,0,0,0,0,-1,1266,603,0,0
49,421,0,0,0,0,0,0,0,0,0,-1,1273,603,0,0
56,421,0,0,0,0,0,0,0,0,0,-1,1280,603,0,0
63,421,0,0,0,0,0,0,0,0,0,-1,1287,603,0,0
70,421,0,0,0,0,0,0,0,0,0,-1,1294,603,0,0
77,421,0,0,0,0,0,0,0,0,0,-1,1301,603,0,0
84,421,0,0,0,0,0,0,0,0,0,-1,1308,603,0,0
91,421,0,0,0,0,0,0,0,0,0,-1,1315,603,0,0
98,421,0,0,0,0,0,0,0,0,0,-1,1322,603,0,0
105,421,0,0,0,0,0,0,0,0,0,-1,1329,603,0,0
112,421,0,0,0,0,0,0,0,0,0,-1,1336,603,0,0
119,421,0,0,0,0,0,0,0,0,0,-1,1343,603,0,0
126,421,0,0,0,0,0,0,0,0,0,-1,1350,603,0,0
133,421,0,0,0,0,0,0,0,0,0,-1,1357,603,0,0
140,421,0,0,0,0,0,0,0,0,0,-1,1364,603,0,0
147,421,0,0,0,0,0,0,0,0,0,-1,1371,603,0,0
154,421,0,0,0,0,0,0,0,0,0,-1,1378,603,0,0
161,421,0,0,0,0,0,0,0,0,0,-1,1385,603,0,0
168,421,0,0,0,0,0,0,0,0,0,-1,1392,603,0,0
175,421,0,0,0,0,0,0,0,0,0,-1,1399,603,0,0
182,421,0,0,0,0,0,0,0,0,0,-1,1406,603,0,0
189,421,0,0,0,0,0,0,0,0,0,-1,1413,603,0,0
196,421,0,0,0,0,0,0,0,0,0,-1,1420,603,0,0
203,421,0,0,0,0,0,0,0,0,0,-1,1427,603,0,0
210,421,0,0,0,0,0,0,0,0,0,-1,1434,603,0,0
217,421,0,0,0,0,0,0,0,0,0,-1,1441,603,0,0
224,421,0,0,0,0,0,0,0,0,0,-1,1448,603,0,0
231,421,0,0,0,0,0,0,0,0,0,-1,1455,603,0,0
238,421,0,0,0,0,0,0,0,0,0,-1,1462,603,0,0
245,421,0,0,0,0,0,0,0,0,0,-1,1469,603,0,0
252,421,0,0,0,0,0,0,0,0,0,-1,1476,603,0,0
259,421,0,0,0,0,0,0,0,0,0,-1,1483,603,0,0
266,421,0,0,0,0,0,0,0,0,0,-1,1490,603,0,0
273,421,0,0,0,0,0,0,0,0,0,-1,1497,603,0,0
280,421,0,0,0,0,0,0,0,0,0,-1,1504,603,0,0
287,421,0,0,0,0,0,0,0,0,0,-1,1511,603,0,0
294,421,0,0,0,0,0,0,0,0,0,-1,1518,603,0,0
301,421,0,0,0,0,0,0,0,0,0,-1,1525,603,0,0
308,421,0,0,0,0,0,0,0,0,0,-1,1532,603,0,0
315,421,0,0,0,0,0,0,0,0,0,-1,1539,603,0,0
322,421,0,0,0,0,0,0,0,0,0,-1,1546,603,0,0
329,421,0,0,0,0,0,0,0,0,0,-1,1553,603,0,0
336,421,0,0,0,0,0,0,0,0,0,-1,1560,603,0,0
343,421,0,0,0,0,0,0,0,0,0,-1,1567,603,0,0
350,421,0,0,0,0,0,0,0,0,0,-1,1574,603,0,0
357,421,0,0,0,0,0,0,0,0,0,-1,1581,603,0,0
364,421,0,0,0,0,0,0,0,0,0,-1,1588,603,0,0
371,421,0,0,0,0,0,0,0,0,0,-1,1595,603,0,0
378,421,0,0,0,0,0,0,0,0,0,-1,1602,603,0,0
385,421,0,0,0,0,0,0,0,0,0,-1,1609,603,0,0
392,421,0,0,0,0,0,0,0,0,0,-1,1616,603,0,0
399,421,0,0,0,0,0,0,0,0,0,-1,1623,603,0,0
406,421,0,0,0,0,0,0,0,0,0,-1,1630,603,0,0
413,421,0,0,0,0,0,0,0,0,0,-1,1637,603,0,0
420,421,0,0,0,0,0,0,0,0,0,-1,1644,603,0,0
427,421,0,0,0,0,0,0,0,0,0,-1,1651,603,0,0
434,421,3.68176,-0.0327759,0,0,0,0,0,0,0,-1,1658,603,3.6818,0.0328037
441,421,8.06689,0.527832,0,0,0,0,0,0,0,-1,1665,603,8.06693,-0.527851
448,421,6.93921,0.802246,0,0,0,0,0,0,0,-1,1672,603,6.93923,-0.802251
455,421,7.29456,2.14825,0,0,0,0,0,0,0,-1,1679,603,7.29461,-2.14827
462,421,7.86902,3.53174,0,0,0,0,0,0,0,-1,1686,603,7.869,-3.53173
469,421,8.06604,2.81213,0,0,0,0,0,0,0,-1,1693,603,8.06606,-2.81212
476,421,8.26306,2.09253,0,0,0,0,0,0,0,-1,1700,603,8.26312,-2.09251
483,421,8.05322,0.798096,0,0,0,0,0,0,0,-1,1707,603,8.05323,-0.7981
490,421,7.51233,0.213074,0,0,0,0,0,0,0,-1,1714,603,7.51235,-0.213043
497,421,7.49634,-2.86688,0,0,0,0,0,0,0,-1,1721,603,7.4963,2.86688
504,421,6.90491,-2.18671,0,0,0,0,0,0,0,-1,1728,603,6.90491,2.18669
511,421,6.31348,-1.50653,0,0,0,0,0,0,0,-1,1735,603,6.31353,1.5065
518,421,6.27588,-2.49878,0,0,0,0,0,0,0,-1,1742,603,6.2759,2.4988
525,421,22.1,-16.5439,0,0,0,0,0,0,0,-1,1749,603,22.1,16.5439
532,421,22.1825,-15.5916,0.00463034,0.00069271,0.00143386,0.00509713,0.000225919,0.314729,0.00332534,0.0448673,1756,603,22.1825,15.5916
539,421,22.2822,-14.8817,0.00387131,0.000723228,0.00120206,0.00427781,0.000316727,0.326098,0.00275238,0.0232058,1763,603,22.2822,14.8817
546,421,22.2505,-14.2441,0.00318431,0.00067946,0.00101457,0.00354369,0.000320076,0.340431,0.00226333,0.0134087,1770,603,22.2505,14.2441
553,421,22.219,-13.5327,0.002545,0.000758885,0.000904487,0.00292303,0.000380862,0.395877,0.00183495,0.0122022,1777,603,22.219,13.5327
560,421,22.1996,-12.832,0.00192119,0.000886978,0.000859973,0.00240755,0.000400613,0.51471,0.00148956,0.0149035,1784,603,22.1996,12.832
567,421,22.1781,-12.183,0.0013844,0.00110306,0.000909998,0.00216454,0.000322924,0.708714,0.00134834,0.0169017,1791,603,22.1781,12.183
574,421,22.1219,-11.4916,0.000981567,0.00144401,0.00108142,0.00231865,0.000106922,0.890718,0.00151139,0.018,1798,603,22.1219,11.4916
581,421,22.0872,-10.7571,0.000689867,0.00184764,0.00137416,0.00275987,-0.000222364,0.98475,0.00191834,0.0150219,1805,603,22.0871,10.7571
588,421,22.0566,-10.1077,0.000535836,0.00244008,0.00179384,0.00351882,-0.000542902,1.02938,0.00254621,0.0105577,1812,603,22.0566,10.1077
595,421,22.0736,-9.3988,0.000519594,0.00315107,0.00233407,0.0045147,-0.000844039,1.04205,0.00332703,0.0203437,1819,603,22.0736,9.39883
602,421,22.0382,-8.65393,0,0,0,0,0,0,0,-1,1826,603,22.0382,8.65395
609,421,22.0634,-7.83575,0,0,0,0,0,0,0,-1,1833,603,22.0633,7.83572
616,421,17.7633,-4.72491,0,0,0,0,0,0,0,-1,1840,603,17.7633,4.7249
623,421,6.19885,0.376648,0,0,0,0,0,0,0,-1,1847,603,6.19881,-0.376624
630,421,6.54993,0.778748,0,0,0,0,0,0,0,-1,1854,603,6.54991,-0.778744
637,421,3.74512,1.65405,0,0,0,0,0,0,0,-1,1861,603,3.74517,-1.65407
644,421,3.58081,0.354675,0,0,0,0,0,0,0,-1,1868,603,3.58082,-0.354704
651,421,3.28687,3.66351,0,0,0,0,0,0,0,-1,1875,603,3.28688,-3.66353
658,421,0,0,0,0,0,0,0,0,0,-1,1882,603,0,0
665,421,0,0,0,0,0,0,0,0,0,-1,1889,603,0,0
672,421,0,0,0,0,0,0,0,0,0,-1,1896,603,0,0
679,421,0,0,0,0,0,0,0,0,0,-1,1903,603,0,0
686,421,0,0,0,0,0,0,0,0,0,-1,1910,603,0,0
693,421,0,0,0,0,0,0,0,0,0,-1,1917,603,0,0
700,421,0,0,0,0,0,0,0,0,0,-1,1924,603,0,0
707,421,0,0,0,0,0,0,0,0,0,-1,1931,603,0,0
714,421,0,0,0,0,0,0,0,0,0,-1,1938,603,0,0
721,421,0,0,0,0,0,0,0,0,0,-1,1945,603,0,0
728,421,0,0,0,0,0,0,0,0,0,-1,1952,603,0,0
735,421,0,0,0,0,0,0,0,0,0,-1,1959,603,0,0
742,421,0,0,0,0,0,0,0,0,0,-1,1966,603,0,0
749,421,0,0,0,0,0,0,0,0,0,-1,1973,603,0,0
756,421,0,0,0,0,0,0,0,0,0,-1,1980,603,0,0
763,421,0,0,0,0,0,0,0,0,0,-1,1987,603,0,0
770,421,0,0,0,0,0,0,0,0,0,-1,1994,603,0,0
777,421,0,0,0,0,0,0,0,0,0,-1,2001,603,0,0
784,421,0,0,0,0,0,0,0,0,0,-1,2008,603,0,0
791,421,0,0,0,0,0,0,0,0,0,-1,2015,603,0,0
798,421,0,0,0,0,0,0,0,0,0,-1,2022,603,0,0
805,421,0,0,0,0,0,0,0,0,0,-1,2029,603,0,0
812,421,0,0,0,0,0,0,0,0,0,-1,2036,603,0,0
-700,414,0,0,0,0,0,0,0,0,0,-1,524,610,0,0
-693,414,0,0,0,0,0,0,0,0,0,-1,531,610,0,0
-686,414,0,0,0,0,0,0,0,0,0,-1,538,610,0,0
-679,414,0,0,0,0,0,0,0,0,0,-1,545,610,0,0
-672,414,0,0,0,0,0,0,0,0,0,-1,552,610,0,0
-665,414,0,0,0,0,0,0,0,0,0,-1,559,610,0,0
-658,414,0,0,0,0,0,0,0,0,0,-1,566,610,0,0
-651,414,0,0,0,0,0,0,0,0,0,-1,573,610,0,0
-644,414,0,0,0,0,0,0,0,0,0,-1,580,610,0,0
-637,414,0,0,0,0,0,0,0,0,0,-1,587,610,0,0
-630,414,0,0,0,0,0,0,0,0,0,-1,594,610,0,0
-623,414,0,0,0,0,0,0,0,0,0,-1,601,610,0,0
-616,414,0,0,0,0,0,0,0,0,0,-1,608,610,0,0
-609,414,0,0,0,0,0,0,0,0,0,-1,615,610,0,0
-602,414,0,0,0,0,0,0,0,0,0,-1,622,610,0,0
-595,414,0,0,0,0,0,0,0,0,0,-1,629,610,0,0
-588,414,0,0,0,0,0,0,0,0,0,-1,636,610,0,0
-581,414,0,0,0,0,0,0,0,0,0,-1,643,610,0,0
-574,414,0,0,0,0,0,0,0,0,0,-1,650,610,0,0
-567,414,0,0,0,0,0,0,0,0,0,-1,657,610,0,0
-560,414,0,0,0,0,0,0,0,0,0,-1,664,610,0,0
-553,414,0,0,0,0,0,0,0,0,0,-1,671,610,0,0
-546,414,0,0,0,0,0,0,0,0,0,-1,678,610,0,0
-539,414,-7.50146,5.65619,0,0,0,0,0,0,0,-1,685,610,-7.50149,-5.65617
-532,414,-8.15204,4.01605,0,0,0,0,0,0,0,-1,692,610,-8.15206,-4.01606
-525,414,-3.47137,-3.27924,0,0,0,0,0,0,0,-1,699,610,-3.47136,3.27922
-518,414,-4.12909,-4.36908,0,0,0,0,0,0,0,-1,706,610,-4.12909,4.36909
-511,414,-3.92542,-4.97021,0,0,0,0,0,0,0,-1,713,610,-3.92542,4.97023
-504,414,-9.35394,-5.49896,0,0,0,0,0,0,0,-1,720,610,-9.35394,5.49898
-497,414,-9.67627,-6.54761,0,0,0,0,0,0,0,-1,727,610,-9.6763,6.5476
-490,414,-10.9006,-8.3277,0,0,0,0,0,0,0,-1,734,610,-10.9006,8.3277
-483,414,-10.6806,-9.44025,0.000418528,0.00931789,-0.00542134,0.0118818,-0.00214539,-1.12904,0.00872471,0.0452225,741,610,-10.6806,9.44024
-476,414,-10.7432,-10.1558,0.000169046,0.00723168,-0.00429826,0.0092632,-0.00186248,-1.12928,0.00688084,0.0226123,748,610,-10.7432,10.1559
-469,414,-10.7924,-10.7999,0.000208147,0.00545425,-0.00341608,0.00713817,-0.00147577,-1.11281,0.00531938,0.0144555,755,610,-10.7924,10.7999
-462,414,-10.7585,-11.4952,0.000342552,0.0039637,-0.00266811,0.00537757,-0.00107131,-1.08351,0.00399038,0.023556,762,610,-10.7586,11.4952
-455,414,-10.8083,-12.1861,0.000432172,0.00264621,-0.00197107,0.00379985,-0.000721477,-1.04126,0.00280483,0.025331,769,610,-10.8084,12.1861
-448,414,-10.8401,-12.865,0.000558219,0.00144959,-0.00134421,0.00242007,-0.00041226,-0.945476,0.00176691,0.0250959,776,610,-10.8401,12.865
-441,414,-10.843,-13.5571,0.000616046,0.000254573,-0.000684323,0.0011431,-0.000272479,-0.656291,0.000867278,0.0177027,783,610,-10.843,13.557
-434,414,-10.9218,-14.2113,0.000693031,-0.000668598,-0.000134312,0.000706153,-0.00068172,-0.0973901,0.00080133,0.009881,790,610,-10.9217,14.2113
-427,414,-10.9401,-14.8562,0.000770576,-0.00156664,0.000338178,0.000818524,-0.00161459,0.140845,0.0014296,0.010887,797,610,-10.94,14.8562
-420,414,-10.9377,-15.5055,0.000812079,-0.00243813,0.000815732,0.00100532,-0.00263137,0.232606,0.00216848,0.0105916,804,610,-10.9378,15.5055
-413,414,-10.975,-16.1726,0.000879425,-0.00302799,0.00117353,0.00120478,-0.00335335,0.270456,0.00272735,0.0107488,811,610,-10.975,16.1726
-406,414,-10.9914,-16.942,0.000940214,-0.00383752,0.00150719,0.00137594,-0.00427324,0.281423,0.00340154,0.0275353,818,610,-10.9914,16.942
-399,414,-10.9529,-17.7131,0,0,0,0,0,0,0,-1,825,610,-10.9529,17.7132
-392,414,-9.43781,-14.5624,0,0,0,0,0,0,0,-1,832,610,-9.43779,14.5624
-385,414,-8.14691,-13.0653,0,0,0,0,0,0,0,-1,839,610,-8.14692,13.0653
-378,414,-8.04907,-11.3331,0,0,0,0,0,0,0,-1,846,610,-8.04905,11.3331
-371,414,-5.20886,-8.05151,0,0,0,0,0,0,0,-1,853,610,-5.20887,8.05153
-364,414,-6.76282,-6.58759,0,0,0,0,0,0,0,-1,860,610,-6.7628,6.58756
-357,414,-9.08685,-8.86188,0,0,0,0,0,0,0,-1,867,610,-9.08688,8.86187
-350,414,-6.4502,-2.41821,0,0,0,0,0,0,0,-1,874,610,-6.45021,2.41822
-343,414,-6.80249,-2.32117,0,0,0,0,0,0,0,-1,881,610,-6.80252,2.32116
-336,414,-7.11017,-2.52026,0,0,0,0,0,0,0,-1,888,610,-7.11016,2.52026
-329,414,-7.59747,-2.70313,0,0,0,0,0,0,0,-1,895,610,-7.59747,2.70315
-322,414,-4.42236,-1.29163,0,0,0,0,0,0,0,-1,902,610,-4.42238,1.2916
-315,414,0,0,0,0,0,0,0,0,0,-1,909,610,0,0
-308,414,0,0,0,0,0,0,0,0,0,-1,916,610,0,0
-301,414,0,0,0,0,0,0,0,0,0,-1,923,610,0,0
-294,414,0,0,0,0,0,0,0,0,0,-1,930,610,0,0
-287,414,0,0,0,0,0,0,0,0,0,-1,937,610,0,0
-280,414,0,0,0,0,0,0,0,0,0,-1,944,610,0,0
-273,414,0,0,0,0,0,0,0,0,0,-1,951,610,0,0
-266,414,0,0,0,0,0,0,0,0,0,-1,958,610,0,0
-259,414,0,0,0,0,0,0,0,0,0,-1,965,610,0,0
-252,414,0,0,0,0,0,0,0,0,0,-1,972,610,0,0
-245,414,0,0,0,0,0,0,0,0,0,-1,979,610,0,0
-238,414,0,0,0,0,0,0,0,0,0,-1,986,610,0,0
-231,414,0,0,0,0,0,0,0,0,0,-1,993,610,0,0
-224,414,0,0,0,0,0,0,0,0,0,-1,1000,610,0,0
-217,414,0,0,0,0,0,0,0,0,0,-1,1007,610,0,0
-210,414,0,0,0,0,0,0,0,0,0,-1,1014,610,0,0
-203,414,0,0,0,0,0,0,0,0,0,-1,1021,610,0,0
-196,414,0,0,0,0,0,0,0,0,0,-1,1028,610,0,0
-189,414,0,0,0,0,0,0,0,0,0,-1,1035,610,0,0
-182,414,0,0,0,0,0,0,0,0,0,-1,1042,610,0,0
-175,414,0,0,0,0,0,0,0,0,0,-1,1049,610,0,0
-168,414,0,0,0,0,0,0,0,0,0,-1,1056,610,0,0
-161,414,0,0,0,0,0,0,0,0,0,-1,1063,610,0,0
-154,414,0,0,0,0,0,0,0,0,0,-1,1070,610,0,0
-147,414,0,0,0,0,0,0,0,0,0,-1,1077,610,0,0
-140,414,0,0,0,0,0,0,0,0,0,-1,1084,610,0,0
-133,414,0,0,0,0,0,0,0,0,0,-1,1091,610,0,0
-126,414,0,0,0,0,0,0,0,0,0,-1,1098,610,0,0
-119,414,0,0,0,0,0,0,0,0,0,-1,1105,610,0,0
-112,414,0,0,0,0,0,0,0,0,0,-1,1112,610,0,0
-105,414,0,0,0,0,0,0,0,0,0,-1,1119,610,0,0
-98,414,0,0,0,0,0,0,0,0,0,-1,1126,610,0,0
-91,414,0,0,0,0,0,0,0,0,0,-1,1133,610,0,0
-84,414,0,0,0,0,0,0,0,0,0,-1,1140,610,0,0
-77,414,0,0,0,0,0,0,0,0,0,-1,1147,610,0,0
-70,414,0,0,0,0,0,0,0,0,0,-1,1154,610,0,0
-63,414,0,0,0,0,0,0,0,0,0,-1,1161,610,0,0
-56,414,0,0,0,0,0,0,0,0,0,-1,1168,610,0,0
-49,414,0,0,0,0,0,0,0,0,0,-1,1175,610,0,0
-42,414,0,0,0,0,0,0,0,0,0,-1,1182,610,0,0
-35,414,0,0,0,0,0,0,0,0,0,-1,1189,610,0,0
-28,414,0,0,0,0,0,0,0,0,0,-1,1196,610,0,0
-21,414,0,0,0,0,0,0,0,0,0,-1,1203,610,0,0
-14,414,0,0,0,0,0,0,0,0,0,-1,1210,610,0,0
-7,414,0,0,0,0,0,0,0,0,0,-1,1217,610,0,0
0,414,0,0,0,0,0,0,0,0,0,-1,1224,610,0,0
7,414,0,0,0,0,0,0,0,0,0,-1,1231,610,0,0
14,414,0,0,0,0,0,0,0,0,0,-1,1238,610,0,0
21,414,0,0,0,0,0,0,0,0,0,-1,1245,610,0,0
28,414,0,0,0,0,0,0,0,0,0,-1,1252,610,0,0
35,414,0,0,0,0,0,0,0,0,0,-1,1259,610,0,0
42,414,0,0,0,0,0,0,0,0,0,-1,1266,610,0,0
49,414,0,0,0,0,0,0,0,0,0,-1,1273,610,0,0
56,414,0,0,0,0,0,0,0,0,0,-1,1280,610,0,0
63,414,0,0,0,0,0,0,0,0,0,-1,1287,610,0,0
70,414,0,0,0,0,0,0,0,0,0,-1,1294,610,0,0
77,414,0,0,0,0,0,0,0,0,0,-1,1301,610,0,0
84,414,0,0,0,0,0,0,0,0,0,-1,1308,610,0,0
91,414,0,0,0,0,0,0,0,0,0,-1,1315,610,0,0
98,414,0,0,0,0,0,0,0,0,0,-1,1322,610,0,0
105,414,0,0,0,0,0,0,0,0,0,-1,1329,610,0,0
112,414,0,0,0,0,0,0,0,0,0,-1,1336,610,0,0
119,414,0,0,0,0,0,0,0,0,0,-1,1343,610,0,0
126,414,0,0,0,0,0,0,0,0,0,-1,1350,610,0,0
133,414,0,0,0,0,0,0,0,0,0,-1,1357,610,0,0
140,414,0,0,0,0,0,0,0,0,0,-1,1364,610,0,0
147,414,0,0,0,0,0,0,0,0,0,-1,1371,610,0,0
154,414,0,0,0,0,0,0,0,0,0,-1,1378,610,0,0
161,414,0,0,0,0,0,0,0,0,0,-1,1385,610,0,0
168,414,0,0,0,0,0,0,0,0,0,-1,1392,610,0,0
175,414,0,0,0,0,0,0,0,0,0,-1,1399,610,0,0
182,414,0,0,0,0,0,0,0,0,0,-1,1406,610,0,0
189,414,0,0,0,0,0,0,0,0,0,-1,1413,610,0,0
196,414,0,0,0,0,0,0,0,0,0,-1,1420,610,0,0
203,414,0,0,0,0,0,0,0,0,0,-1,1427,610,0,0
210,414,0,0,0,0,0,0,0,0,0,-1,1434,610,0,0
217,414,0,0,0,0,0,0,0,0,0,-1,1441,610,0,0
224,414,0,0,0,0,0,0,0,0,0,-1,1448,610,0,0
231,414,0,0,0,0,0,0,0,0,0,-1,1455,610,0,0
238,414,0,0,0,0,0,0,0,0,0,-1,1462,610,0,0
245,414,0,0,0,0,0,0,0,0,0,-1,1469,610,0,0
252,414,0,0,0,0,0,0,0,0,0,-1,1476,610,0,0
259,414,0,0,0,0,0,0,0,0,0,-1,1483,610,0,0
266,414,0,0,0,0,0,0,0,0,0,-1,1490,610,0,0
273,414,0,0,0,0,0,0,0,0,0,-1,1497,610,0,0
280,414,0,0,0,0,0,0,0,0,0,-1,1504,610,0,0
287,414,0,0,0,0,0,0,0,0,0,-1,1511,610,0,0
294,414,0,0,0,0,0,0,0,0,0,-1,1518,610,0,0
301,414,0,0,0,0,0,0,0,0,0,-1,1525,610,0,0
308,414,0,0,0,0,0,0,0,0,0,-1,1532,610,0,0
315,414,0,0,0,0,0,0,0,0,0,-1,1539,610,0,0
322,414,0,0,0,0,0,0,0,0,0,-1,1546,610,0,0
329,414,0,0,0,0,0,0,0,0,0,-1,1553,610,0,0
336,414,0,0,0,0,0,0,0,0,0,-1,1560,610,0,0
343,414,0,0,0,0,0,0,0,0,0,-1,1567,610,0,0
350,414,0,0,0,0,0,0,0,0,0,-1,1574,610,0,0
357,414,0,0,0,0,0,0,0,0,0,-1,1581,610,0,0
364,414,0,0,0,0,0,0,0,0,0,-1,1588,610,0,0
371,414,0,0,0,0,0,0,0,0,0,-1,1595,610,0,0
378,414,0,0,0,0,0,0,0,0,0,-1,1602,610,0,0
385,414,0,0,0,0,0,0,0,0,0,-1,1609,610,0,0
392,414,0,0,0,0,0,0,0,0,0,-1,1616,610,0,0
399,414,0,0,0,0,0,0,0,0,0,-1,1623,610,0,0
406,414,0,0,0,0,0,0,0,0,0,-1,1630,610,0,0
413,414,0,0,0,0,0,0,0,0,0,-1,1637,610,0,0
420,414,0,0,0,0,0,0,0,0,0,-1,1644,610,0,0
427,414,0,0,0,0,0,0,0,0,0,-1,1651,610,0,0
434,414,0,0,0,0,0,0,0,0,0,-1,1658,610,0,0
441,414,7.84375,0.584412,0,0,0,0,0,0,0,-1,1665,610,7.84379,-0.584394
448,414,7.40808,1.25446,0,0,0,0,0,0,0,-1,1672,610,7.40807,-1.25446
455,414,6.3512,1.73846,0,0,0,0,0,0,0,-1,1679,610,6.3512,-1.73847
462,414,8.18103,3.22113,0,0,0,0,0,0,0,-1,1686,610,8.18108,-3.22112
469,414,8.38513,2.49579,0,0,0,0,0,0,0,-1,1693,610,8.38516,-2.49576
476,414,8.64099,1.71161,0,0,0,0,0,0,0,-1,1700,610,8.64097,-1.71164
483,414,8.62744,0.687622,0,0,0,0,0,0,0,-1,1707,610,8.62749,-0.687615
490,414,8.38831,-0.0302734,0,0,0,0,0,0,0,-1,1714,610,8.38835,0.0302913
497,414,4.71094,-0.110046,0,0,0,0,0,0,0,-1,1721,610,4.71089,0.110024
504,414,7.19568,-1.43835,0,0,0,0,0,0,0,-1,1728,610,7.19563,1.43836
511,414,5.94153,-1.28772,0,0,0,0,0,0,0,-1,1735,610,5.94151,1.28769
518,414,4.53381,-0.0996704,0,0,0,0,0,0,0,-1,1742,610,4.53378,0.0996819
525,414,6.18811,-1.64056,0,0,0,0,0,0,0,-1,1749,610,6.18814,1.64055
532,414,22.8568,-15.838,0,0,0,0,0,0,0,-1,1756,610,22.8568,15.8379
539,414,22.96,-14.9357,0,0,0,0,0,0,0,-1,1763,610,22.96,14.9357
546,414,22.9146,-14.2139,0.00387295,0.000628235,0.0011316,0.00422861,0.000272574,0.304524,0.00273275,0.0154171,1770,610,22.9145,14.2139
553,414,22.9108,-13.5093,0.00312454,0.000629288,0.000952079,0.00344632,0.000307512,0.32592,0.00220221,0.0128025,1777,610,22.9107,13.5093
560,414,22.8804,-12.8218,0.00241269,0.000700243,0.000854501,0.00276613,0.000346801,0.392196,0.00174005,0.0147769,1784,610,22.8804,12.8218
567,414,22.8455,-12.1584,0.00176459,0.000825276,0.00083433,0.00225237,0.000337496,0.529046,0.00140268,0.0233126,1791,610,22.8454,12.1585
574,414,22.8198,-11.4442,0.00128746,0.00111611,0.000966329,0.0021719,0.000231667,0.741184,0.00137722,0.0206677,1798,610,22.8198,11.4442
581,414,22.8066,-10.7435,0.000947996,0.00150088,0.00122369,0.00247896,-3.00851e-05,0.896488,0.00166276,0.0158139,1805,610,22.8066,10.7435
588,414,22.739,-10.0922,0.000744837,0.00207619,0.00159462,0.00313851,-0.000317474,0.983128,0.00220579,0.0154425,1812,610,22.739,10.0922
595,414,22.7173,-9.34894,0.000725456,0.00279311,0.00210676,0.00410604,-0.000587471,1.0135,0.00295273,0.0208302,1819,610,22.7172,9.34894
602,414,22.6743,-8.65088,0.000916817,0.00373795,0.00278684,0.00545087,-0.000796106,1.01968,0.00392628,0.0270604,1826,610,22.6743,8.65086
609,414,22.5332,-7.94745,0.00148651,0.00499483,0.00374126,0.00737275,-0.000891413,1.00462,0.00523765,0.0328657,1833,610,22.5333,7.94742
616,414,22.9425,-6.92926,0,0,0,0,0,0,0,-1,1840,610,22.9425,6.92926
623,414,9.6969,0.0378418,0,0,0,0,0,0,0,-1,1847,610,9.69685,-0.0378644
630,414,5.47144,0.499329,0,0,0,0,0,0,0,-1,1854,610,5.47142,-0.499303
637,414,8.36707,4.16278,0,0,0,0,0,0,0,-1,1861,610,8.36709,-4.16278
644,414,5.87073,1.51422,0,0,0,0,0,0,0,-1,1868,610,5.87076,-1.51424
651,414,3.6377,0.820557,0,0,0,0,0,0,0,-1,1875,610,3.6377,-0.820543
658,414,2.29761,3.87323,0,0,0,0,0,0,0,-1,1882,610,2.29758,-3.87325
665,414,0,0,0,0,0,0,0,0,0,-1,1889,610,0,0
672,414,0,0,0,0,0,0,0,0,0,-1,1896,610,0,0
679,414,0,0,0,0,0,0,0,0,0,-1,1903,610,0,0
686,414,0,0,0,0,0,0,0,0,0,-1,1910,610,0,0
693,414,0,0,0,0,0,0,0,0,0,-1,1917,610,0,0
700,414,0,0,0,0,0,0,0,0,0,-1,1924,610,0,0
707,414,0,0,0,0,0,0,0,0,0,-1,1931,610,0,0
714,414,0,0,0,0,0,0,0,0,0,-1,1938,610,0,0
721,414,0,0,0,0,0,0,0,0,0,-1,1945,610,0,0
728,414,0,0,0,0,0,0,0,0,0,-1,1952,610,0,0
735,414,0,0,0,0,0,0,0,0,0,-1,1959,610,0,0
742,414,0,0,0,0,0,0,0,0,0,-1,1966,610,0,0
749,414,0,0,0,0,0,0,0,0,0,-1,1973,610,0,0
756,414,0,0,0,0,0,0,0,0,0,-1,1980,610,0,0
763,414,0,0,0,0,0,0,0,0,0,-1,1987,610,0,0
770,414,0,0,0,0,0,0,0,0,0,-1,1994,610,0,0
777,414,0,0,0,0,0,0,0,0,0,-1,2001,610,0,0
784,414,0,0,0,0,0,0,0,0,0,-1,2008,610,0,0
791,414,0,0,0,0,0,0,0,0,0,-1,2015,610,0,0
798,414,0,0,0,0,0,0,0,0,0,-1,2022,610,0,0
805,414,0,0,0,0,0,0,0,0,0,-1,2029,610,0,0
812,414,0,0,0,0,0,0,0,0,0,-1,2036,610,0,0
-700,407,0,0,0,0,0,0,0,0,0,-1,524,617,0,0
-693,407,0,0,0,0,0,0,0,0,0,-1,531,617,0,0
-686,407,0,0,0,0,0,0,0,0,0,-1,538,617,0,0
-679,407,0,0,0,0,0,0,0,0,0,-1,545,617,0,0
-672,407,0,0,0,0,0,0,0,0,0,-1,552,617,0,0
-665,407,0,0,0,0,0,0,0,0,0,-1,559,617,0,0
-658,407,0,0,0,0,0,0,0,0,0,-1,566,617,0,0
-651,407,0,0,0,0,0,0,0,0,0,-1,573,617,0,0
-644,407,0,0,0,0,0,0,0,0,0,-1,580,617,0,0
-637,407,0,0,0,0,0,0,0,0,0,-1,587,617,0,0
-630,407,0,0,0,0,0,0,0,0,0,-1,594,617,0,0
-623,407,0,0,0,0,0,0,0,0,0,-1,601,617,0,0
-616,407,0,0,0,0,0,0,0,0,0,-1,608,617,0,0
-609,407,0,0,0,0,0,0,0,0,0,-1,615,617,0,0
-602,407,0,0,0,0,0,0,0,0,0,-1,622,617,0,0
-595,407,0,0,0,0,0,0,0,0,0,-1,629,617,0,0
-588,407,0,0,0,0,0,0,0,0,0,-1,636,617,0,0
-581,407,0,0,0,0,0,0,0,0,0,-1,643,617,0,0
-574,407,0,0,0,0,0,0,0,0,0,-1,650,617,0,0
-567,407,0,0,0,0,0,0,0,0,0,-1,657,617,0,0
-560,407,0,0,0,0,0,0,0,0,0,-1,664,617,0,0
-553,407,0,0,0,0,0,0,0,0,0,-1,671,617,0,0
-546,407,-8.54517,-0.658142,0,0,0,0,0,0,0,-1,678,617,-8.54515,0.658112
-539,407,-6.09442,-1.01154,0,0,0,0,0,0,0,-1,685,617,-6.09441,1.01155
-532,407,-7.75665,1.62152,0,0,0,0,0,0,0,-1,692,617,-7.75667,-1.62154
-525,407,-3.78247,-2.67639,0,0,0,0,0,0,0,-1,699,617,-3.78246,2.67638
-518,407,-5.013,-5.87323,0,0,0,0,0,0,0,-1,706,617,-5.013,5.87324
-511,407,-9.42743,-4.94189,0,0,0,0,0,0,0,-1,713,617,-9.42745,4.94191
-504,407,-10.8291,-8.05927,0,0,0,0,0,0,0,-1,720,617,-10.8291,8.05927
-497,407,-9.84467,-6.81641,0,0,0,0,0,0,0,-1,727,617,-9.84468,6.8164
-490,407,-11.4863,-8.45056,0,0,0,0,0,0,0,-1,734,617,-11.4863,8.45056
-483,407,-11.3506,-9.42273,0.000727629,0.007373,-0.00441039,0.00957225,-0.00147162,-1.10823,0.00692437,0.0332795,741,617,-11.3507,9.42271
-476,407,-11.3911,-10.0662,0.000501469,0.00561826,-0.00345339,0.00735769,-0.00123796,-1.1042,0.00536559,0.0154114,748,617,-11.3911,10.0662
-469,407,-11.4305,-10.7445,0.0005185,0.00412258,-0.00270099,0.00556749,-0.000926413,-1.07958,0.00405589,0.0133234,755,617,-11.4306,10.7445
-462,407,-11.4381,-11.4532,0.000602544,0.00284045,-0.00204889,0.00405602,-0.000613027,-1.03533,0.00292981,0.0207325,762,617,-11.4381,11.4532
-455,407,-11.4702,-12.1771,0.000666736,0.00165811,-0.00144424,0.00268936,-0.000364513,-0.950708,0.00192594,0.0227486,769,617,-11.4702,12.1771
-448,407,-11.4779,-12.8481,0.000797853,0.000608709,-0.000916868,0.00162501,-0.000218452,-0.734007,0.00116302,0.0205318,776,617,-11.4779,12.8482
-441,407,-11.5192,-13.4827,0.000860051,-0.000470592,-0.000342337,0.000942959,-0.000553499,-0.237607,0.000873679,0.015583,783,617,-11.5191,13.4827
-434,407,-11.6031,-14.1296,0.000931917,-0.00133618,0.000147393,0.000941455,-0.00134571,0.0646231,0.00132736,0.010949,790,617,-11.6031,14.1296
-427,407,-11.6004,-14.7975,0.000971524,-0.00224383,0.000603513,0.00108107,-0.00235338,0.179558,0.00202773,0.0112664,797,617,-11.6004,14.7976
-420,407,-11.5931,-15.4619,0.000915141,-0.0032193,0.00114004,0.00120866,-0.00351282,0.251991,0.00283208,0.0106483,804,617,-11.5932,15.4619
-413,407,-11.6125,-16.1044,0.000909172,-0.00379924,0.0014822,0.00133691,-0.00422697,0.280949,0.00335365,0.0140182,811,617,-11.6125,16.1044
-406,407,-11.7396,-16.5904,0.000824631,-0.00485223,0.00187469,0.00138784,-0.00541544,0.291849,0.00415097,0.0445518,818,617,-11.7396,16.5904
-399,407,-11.6509,-17.1105,0,0,0,0,0,0,0,-1,825,617,-11.6509,17.1105
-392,407,-8.33612,-12.195,0,0,0,0,0,0,0,-1,832,617,-8.33611,12.195
-385,407,-7.65765,-10.7744,0,0,0,0,0,0,0,-1,839,617,-7.65767,10.7744
-378,407,-6.08655,-7.42291,0,0,0,0,0,0,0,-1,846,617,-6.08652,7.42292
-371,407,-7.4007,-5.79449,0,0,0,0,0,0,0,-1,853,617,-7.40072,5.79447
-364,407,-10.0638,-6.6228,0,0,0,0,0,0,0,-1,860,617,-10.0639,6.62279
-357,407,-6.64447,-1.83337,0,0,0,0,0,0,0,-1,867,617,-6.64446,1.8334
-350,407,-7.03351,-1.77551,0,0,0,0,0,0,0,-1,874,617,-7.03349,1.77551
-343,407,-7.40967,-1.95026,0,0,0,0,0,0,0,-1,881,617,-7.40969,1.95026
-336,407,-8.10229,-2.40662,0,0,0,0,0,0,0,-1,888,617,-8.10229,2.40664
-329,407,-8.81232,-2.76331,0,0,0,0,0,0,0,-1,895,617,-8.81235,2.76331
-322,407,0,0,0,0,0,0,0,0,0,-1,902,617,0,0
-315,407,0,0,0,0,0,0,0,0,0,-1,909,617,0,0
-308,407,0,0,0,0,0,0,0,0,0,-1,916,617,0,0
-301,407,0,0,0,0,0,0,0,0,0,-1,923,617,0,0
-294,407,0,0,0,0,0,0,0,0,0,-1,930,617,0,0
-287,407,0,0,0,0,0,0,0,0,0,-1,937,617,0,0
-280,407,0,0,0,0,0,0,0,0,0,-1,944,617,0,0
-273,407,0,0,0,0,0,0,0,0,0,-1,951,617,0,0
-266,407,0,0,0,0,0,0,0,0,0,-1,958,617,0,0
-259,407,0,0,0,0,0,0,0,0,0,-1,965,617,0,0
-252,407,0,0,0,0,0,0,0,0,0,-1,972,617,0,0
-245,407,0,0,0,0,0,0,0,0,0,-1,979,617,0,0
-238,407,0,0,0,0,0,0,0,0,0,-1,986,617,0,0
-231,407,0,0,0,0,0,0,0,0,0,-1,993,617,0,0
-224,407,0,0,0,0,0,0,0,0,0,-1,1000,617,0,0
-217,407,0,0,0,0,0,0,0,0,0,-1,1007,617,0,0
-210,407,0,0,0,0,0,0,0,0,0,-1,1014,617,0,0
-203,407,0,0,0,0,0,0,0,0,0,-1,1021,617,0,0
-196,407,0,0,0,0,0,0,0,0,0,-1,1028,617,0,0
-189,407,0,0,0,0,0,0,0,0,0,-1,1035,617,0,0
-182,407,0,0,0,0,0,0,0,0,0,-1,1042,617,0,0
-175,407,0,0,0,0,0,0,0,0,0,-1,1049,617,0,0
-168,407,0,0,0,0,0,0,0,0,0,-1,1056,617,0,0
-161,407,0,0,0,0,0,0,0,0,0,-1,1063,617,0,0
-154,407,0,0,0,0,0,0,0,0,0,-1,1070,617,0,0
-147,407,0,0,0,0,0,0,0,0,0,-1,1077,617,0,0
-140,407,0,0,0,0,0,0,0,0,0,-1,1084,617,0,0
-133,407,0,0,0,0,0,0,0,0,0,-1,1091,617,0,0
-126,407,0,0,0,0,0,0,0,0,0,-1,1098,617,0,0
-119,407,0,0,0,0,0,0,0,0,0,-1,1105,617,0,0
-112,407,0,0,0,0,0,0,0,0,0,-1,1112,617,0,0
-105,407,0,0,0,0,0,0,0,0,0,-1,1119,617,0,0
-98,407,0,0,0,0,0,0,0,0,0,-1,1126,617,0,0
-91,407,0,0,0,0,0,0,0,0,0,-1,1133,617,0,0
-84,407,0,0,0,0,0,0,0,0,0,-1,1140,617,0,0
-77,407,0,0,0,0,0,0,0,0,0,-1,1147,617,0,0
-70,407,0,0,0,0,0,0,0,0,0,-1,1154,617,0,0
-63,407,0,0,0,0,0,0,0,0,0,-1,1161,617,0,0
-56,407,0,0,0,0,0,0,0,0,0,-1,1168,617,0,0
-49,407,0,0,0,0,0,0,0,0,0,-1,1175,617,0,0
-42,407,0,0,0,0,0,0,0,0,0,-1,1182,617,0,0
-35,407,0,0,0,0,0,0,0,0,0,-1,1189,617,0,0
-28,407,0,0,0,0,0,0,0,0,0,-1,1196,617,0,0
-21,407,0,0,0,0,0,0,0,0,0,-1,1203,617,0,0
-14,407,0,0,0,0,0,0,0,0,0,-1,1210,617,0,0
-7,407,0,0,0,0,0,0,0,0,0,-1,1217,617,0,0
0,407,0,0,0,0,0,0,0,0,0,-1,1224,617,0,0
7,407,0,0,0,0,0,0,0,0,0,-1,1231,617,0,0
14,407,0,0,0,0,0,0,0,0,0,-1,1238,617,0,0
21,407,0,0,0,0,0,0,0,0,0,-1,1245,617,0,0
28,407,0,0,0,0,0,0,0,0,0,-1,1252,617,0,0
35,407,0,0,0,0,0,0,0,0,0,-1,1259,617,0,0
42,407,0,0,0,0,0,0,0,0,0,-1,1266,617,0,0
49,407,0,0,0,0,0,0,0,0,0,-1,1273,617,0,0
56,407,0,0,0,0,0,0,0,0,0,-1,1280,617,0,0
63,407,0,0,0,0,0,0,0,0,0,-1,1287,617,0,0
70,407,0,0,0,0,0,0,0,0,0,-1,1294,617,0,0
77,407,0,0,0,0,0,0,0,0,0,-1,1301,617,0,0
84,407,0,0,0,0,0,0,0,0,0,-1,1308,617,0,0
91,407,0,0,0,0,0,0,0,0,0,-1,1315,617,0,0
98,407,0,0,0,0,0,0,0,0,0,-1,1322,617,0,0
105,407,0,0,0,0,0,0,0,0,0,-1,1329,617,0,0
112,407,0,0,0,0,0,0,0,0,0,-1,1336,617,0,0
119,407,0,0,0,0,0,0,0,0,0,-1,1343,617,0,0
126,407,0,0,0,0,0,0,0,0,0,-1,1350,617,0,0
133,407,0,0,0,0,0,0,0,0,0,-1,1357,617,0,0
140,407,0,0,0,0,0,0,0,0,0,-1,1364,617,0,0
147,407,0,0,0,0,0,0,0,0,0,-1,1371,617,0,0
154,407,0,0,0,0,0,0,0,0,0,-1,1378,617,0,0
161,407,0,0,0,0,0,0,0,0,0,-1,1385,617,0,0
168,407,0,0,0,0,0,0,0,0,0,-1,1392,617,0,0
175,407,0,0,0,0,0,0,0,0,0,-1,1399,617,0,0
182,407,0,0,0,0,0,0,0,0,0,-1,1406,617,0,0
189,407,0,0,0,0,0,0,0,0,0,-1,1413,617,0,0
196,407,0,0,0,0,0,0,0,0,0,-1,1420,617,0,0
203,407,0,0,0,0,0,0,0,0,0,-1,1427,617,0,0
210,407,0,0,0,0,0,0,0,0,0,-1,1434,617,0,0
217,407,0,0,0,0,0,0,0,0,0,-1,1441,617,0,0
224,407,0,0,0,0,0,0,0,0,0,-1,1448,617,0,0
231,407,0,0,0,0,0,0,0,0,0,-1,1455,617,0,0
238,407,0,0,0,0,0,0,0,0,0,-1,1462,617,0,0
245,407,0,0,0,0,0,0,0,0,0,-1,1469,617,0,0
252,407,0,0,0,0,0,0,0,0,0,-1,1476,617,0,0
259,407,0,0,0,0,0,0,0,0,0,-1,1483,617,0,0
266,407,0,0,0,0,0,0,0,0,0,-1,1490,617,0,0
273,407,0,0,0,0,0,0,0,0,0,-1,1497,617,0,0
280,407,0,0,0,0,0,0,0,0,0,-1,1504,617,0,0
287,407,0,0,0,0,0,0,0,0,0,-1,1511,617,0,0
294,407,0,0,0,0,0,0,0,0,0,-1,1518,617,0,0
301,407,0,0,0,0,0,0,0,0,0,-1,1525,617,0,0
308,407,0,0,0,0,0,0,0,0,0,-1,1532,617,0,0
315,407,0,0,0,0,0,0,0,0,0,-1,1539,617,0,0
322,407,0,0,0,0,0,0,0,0,0,-1,1546,617,0,0
329,407,0,0,0,0,0,0,0,0,0,-1,1553,617,0,0
336,407,0,0,0,0,0,0,0,0,0,-1,1560,617,0,0
343,407,0,0,0,0,0,0,0,0,0,-1,1567,617,0,0
350,407,0,0,0,0,0,0,0,0,0,-1,1574,617,0,0
357,407,0,0,0,0,0,0,0,0,0,-1,1581,617,0,0
364,407,0,0,0,0,0,0,0,0,0,-1,1588,617,0,0
371,407,0,0,0,0,0,0,0,0,0,-1,1595,617,0,0
378,407,0,0,0,0,0,0,0,0,0,-1,1602,617,0,0
385,407,0,0,0,0,0,0,0,0,0,-1,1609,617,0,0
392,407,0,0,0,0,0,0,0,0,0,-1,1616,617,0,0
399,407,0,0,0,0,0,0,0,0,0,-1,1623,617,0,0
406,407,0,0,0,0,0,0,0,0,0,-1,1630,617,0,0
413,407,0,0,0,0,0,0,0,0,0,-1,1637,617,0,0
420,407,0,0,0,0,0,0,0,0,0,-1,1644,617,0,0
427,407,0,0,0,0,0,0,0,0,0,-1,1651,617,0,0
434,407,0,0,0,0,0,0,0,0,0,-1,1658,617,0,0
441,407,0,0,0,0,0,0,0,0,0,-1,1665,617,0,0
448,407,7.02893,2.13843,0,0,0,0,0,0,0,-1,1672,617,7.02899,-2.13844
455,407,7.55237,2.29242,0,0,0,0,0,0,0,-1,1679,617,7.55236,-2.29244
462,407,8.2926,2.46173,0,0,0,0,0,0,0,-1,1686,617,8.29261,-2.46174
469,407,8.71509,2.22681,0,0,0,0,0,0,0,-1,1693,617,8.71511,-2.22681
476,407,8.89917,1.47766,0,0,0,0,0,0,0,-1,1700,617,8.89914,-1.47768
483,407,9.02612,0.682983,0,0,0,0,0,0,0,-1,1707,617,9.02608,-0.683004
490,407,9.12659,0.000671387,0,0,0,0,0,0,0,-1,1714,617,9.12653,-0.000675931
497,407,7.76819,0.855835,0,0,0,0,0,0,0,-1,1721,617,7.7682,-0.855865
504,407,4.69336,0.160706,0,0,0,0,0,0,0,-1,1728,617,4.69337,-0.1607
511,407,4.07104,-0.00140381,0,0,0,0,0,0,0,-1,1735,617,4.07109,0.00141425
518,407,6.09534,1.9411,0,0,0,0,0,0,0,-1,1742,617,6.09532,-1.94113
525,407,5.72534,-1.35986,0,0,0,0,0,0,0,-1,1749,617,5.72529,1.35988
532,407,18.5767,-10.6388,0,0,0,0,0,0,0,-1,1756,617,18.5766,10.6388
539,407,23.5164,-14.947,0,0,0,0,0,0,0,-1,1763,617,23.5164,14.947
546,407,23.6055,-14.1789,0.00450138,0.000750417,0.00133888,0.00493025,0.000321547,0.309993,0.00318507,0.0235989,1770,617,23.6055,14.1789
553,407,23.5887,-13.485,0.00368141,0.000631795,0.00104791,0.00400678,0.000306425,0.301056,0.00257513,0.0166486,1777,617,23.5888,13.485
560,407,23.594,-12.7771,0.00291625,0.000612409,0.000869276,0.00320744,0.000321221,0.32323,0.00203967,0.0171856,1784,617,23.594,12.7771
567,407,23.5275,-12.1675,0.00217818,0.000614264,0.000753504,0.00248215,0.0003103,0.383434,0.00156164,0.0299748,1791,617,23.5274,12.1675
574,407,23.5348,-11.4636,0.00164501,0.000838705,0.000835328,0.00216938,0.00031433,0.560572,0.0013537,0.0257401,1798,617,23.5348,11.4635
581,407,23.5189,-10.7158,0.00126601,0.00119059,0.00105089,0.00227987,0.000176735,0.767465,0.00146456,0.0182587,1805,617,23.5189,10.7158
588,407,23.4248,-10.0558,0.00102906,0.00172213,0.00137593,0.00279449,-4.32956e-05,0.90876,0.00187759,0.0137551,1812,617,23.4249,10.0559
595,407,23.4215,-9.36292,0.00103065,0.00239432,0.00186449,0.00369774,-0.000272767,0.960692,0.00256093,0.0252041,1819,617,23.4215,9.36289
602,407,23.381,-8.60461,0.00132801,0.00325994,0.00254326,0.0050145,-0.000426546,0.966891,0.00349387,0.0199257,1826,617,23.381,8.60463
609,407,23.2963,-7.87982,0.00197469,0.00438194,0.00344417,0.00682674,-0.00047011,0.953498,0.00471568,0.0185525,1833,617,23.2963,7.87981
616,407,23.3419,-7.02002,0.00304623,0.00588341,0.00459906,0.00927769,-0.000348053,0.934995,0.00630435,0.0324604,1840,617,23.3419,7.02004
623,407,23.6119,-6.02814,0,0,0,0,0,0,0,-1,1847,617,23.612,6.02811
630,407,7.06177,0.814575,0,0,0,0,0,0,0,-1,1854,617,7.06178,-0.814579
637,407,9.76819,-0.110657,0,0,0,0,0,0,0,-1,1861,617,9.76814,0.11064
644,407,5.09766,2.27747,0,0,0,0,0,0,0,-1,1868,617,5.09764,-2.27746
651,407,7.37524,0.0513916,0,0,0,0,0,0,0,-1,1875,617,7.3752,-0.0513923
658,407,3.76685,0.594177,0,0,0,0,0,0,0,-1,1882,617,3.76683,-0.594184
665,407,5.76123,0.375061,0,0,0,0,0,0,0,-1,1889,617,5.76118,-0.37509
672,407,0,0,0,0,0,0,0,0,0,-1,1896,617,0,0
679,407,0,0,0,0,0,0,0,0,0,-1,1903,617,0,0
686,407,0,0,0,0,0,0,0,0,0,-1,1910,617,0,0
693,407,0,0,0,0,0,0,0,0,0,-1,1917,617,0,0
700,407,0,0,0,0,0,0,0,0,0,-1,1924,617,0,0
707,407,0,0,0,0,0,0,0,0,0,-1,1931,617,0,0
714,407,0,0,0,0,0,0,0,0,0,-1,1938,617,0,0
721,407,0,0,0,0,0,0,0,0,0,-1,1945,617,0,0
728,407,0,0,0,0,0,0,0,0,0,-1,1952,617,0,0
735,407,0,0,0,0,0,0,0,0,0,-1,1959,617,0,0
742,407,0,0,0,0,0,0,0,0,0,-1,1966,617,0,0
749,407,0,0,0,0,0,0,0,0,0,-1,1973,617,0,0
756,407,0,0,0,0,0,0,0,0,0,-1,1980,617,0,0
763,407,0,0,0,0,0,0,0,0,0,-1,1987,617,0,0
770,407,0,0,0,0,0,0,0,0,0,-1,1994,617,0,0
777,407,0,0,0,0,0,0,0,0,0,-1,2001,617,0,0
784,407,0,0,0,0,0,0,0,0,0,-1,2008,617,0,0
791,407,0,0,0,0,0,0,0,0,0,-1,2015,617,0,0
798,407,0,0,0,0,0,0,0,0,0,-1,2022,617,0,0
805,407,0,0,0,0,0,0,0,0,0,-1,2029,617,0,0
812,407,0,0,0,0,0,0,0,0,0,-1,2036,617,0,0
-700,400,0,0,0,0,0,0,0,0,0,-1,524,624,0,0
-693,400,0,0,0,0,0,0,0,0,0,-1,531,624,0,0
-686,400,0,0,0,0,0,0,0,0,0,-1,538,624,0,0
-679,400,0,0,0,0,0,0,0,0,0,-1,545,624,0,0
-672,400,0,0,0,0,0,0,0,0,0,-1,552,624,0,0
-665,400,0,0,0,0,0,0,0,0,0,-1,559,624,0,0
-658,400,0,0,0,0,0,0,0,0,0,-1,566,624,0,0
-651,400,0,0,0,0,0,0,0,0,0,-1,573,624,0,0
-644,400,0,0,0,0,0,0,0,0,0,-1,580,624,0,0
-637,400,0,0,0,0,0,0,0,0,0,-1,587,624,0,0
-630,400,0,0,0,0,0,0,0,0,0,-1,594,624,0,0
-623,400,0,0,0,0,0,0,0,0,0,-1,601,624,0,0
-616,400,0,0,0,0,0,0,0,0,0,-1,608,624,0,0
-609,400,0,0,0,0,0,0,0,0,0,-1,615,624,0,0
-602,400,0,0,0,0,0,0,0,0,0,-1,622,624,0,0
-595,400,0,0,0,0,0,0,0,0,0,-1,629,624,0,0
-588,400,0,0,0,0,0,0,0,0,0,-1,636,624,0,0
-581,400,0,0,0,0,0,0,0,0,0,-1,643,624,0,0
-574,400,0,0,0,0,0,0,0,0,0,-1,650,624,0,0
-567,400,0,0,0,0,0,0,0,0,0,-1,657,624,0,0
-560,400,0,0,0,0,0,0,0,0,0,-1,664,624,0,0
-553,400,0,0,0,0,0,0,0,0,0,-1,671,624,0,0
-546,400,-8.41174,-1.4599,0,0,0,0,0,0,0,-1,678,624,-8.41173,1.45989
-539,400,-5.69104,-1.7337,0,0,0,0,0,0,0,-1,685,624,-5.69103,1.7337
-532,400,-3.03632,-2.03912,0,0,0,0,0,0,0,-1,692,624,-3.03632,2.03909
-525,400,-6.20813,-7.04071,0,0,0,0,0,0,0,-1,699,624,-6.20814,7.04071
-518,400,-5.26544,-1.58661,0,0,0,0,0,0,0,-1,706,624,-5.26544,1.58658
-511,400,-10.6307,-6.7121,0,0,0,0,0,0,0,-1,713,624,-10.6307,6.71209
-504,400,-10.2663,-6.55109,0,0,0,0,0,0,0,-1,720,624,-10.2663,6.55106
-497,400,-11.9591,-7.16199,0,0,0,0,0,0,0,-1,727,624,-11.9591,7.16199
-490,400,-12.0213,-8.59601,0.00147377,0.00759414,-0.00462383,0.0100787,-0.00101082,-1.07772,0.00708019,0.0367536,734,624,-12.0213,8.596
-483,400,-12.0549,-9.39288,0.00107064,0.00575888,-0.00359535,0.00770678,-0.000877257,-1.07428,0.00545384,0.0177086,741,624,-12.055,9.39291
-476,400,-12.0638,-10.0368,0.000864255,0.00429276,-0.00279835,0.00586019,-0.000703173,-1.06021,0.00416104,0.0146447,748,624,-12.0638,10.0368
-469,400,-12.0813,-10.7233,0.000861228,0.0030383,-0.0021671,0.00437489,-0.000475361,-1.01814,0.00308727,0.0150865,755,624,-12.0813,10.7233
-462,400,-12.1127,-11.4525,0.000903686,0.0019352,-0.0016064,0.00310661,-0.000267724,-0.940732,0.00216584,0.0194616,762,624,-12.1127,11.4524
-455,400,-12.1226,-12.1256,0.000948581,0.000869031,-0.00108574,0.00199527,-0.000177661,-0.767089,0.00139318,0.0211428,769,624,-12.1225,12.1256
-448,400,-12.1547,-12.7766,0.00108049,-6.09823e-05,-0.000644328,0.00137051,-0.000351001,-0.422945,0.00105041,0.016572,776,624,-12.1547,12.7766
-441,400,-12.1942,-13.388,0.00115661,-0.00102035,-0.000161749,0.00116856,-0.0010323,-0.0737604,0.00127148,0.0154913,783,624,-12.1942,13.388
-434,400,-12.2514,-14.0531,0.0012289,-0.00184776,0.0002686,0.00125218,-0.00187103,0.0864311,0.00181495,0.0129175,790,624,-12.2514,14.0531
-427,400,-12.2751,-14.7272,0.00122728,-0.00279417,0.000729181,0.00135541,-0.0029223,0.173948,0.00252436,0.0108646,797,624,-12.2751,14.7272
-420,400,-12.2314,-15.4261,0.00105412,-0.00392633,0.00136611,0.00140422,-0.00427643,0.250879,0.00341661,0.0160261,804,624,-12.2314,15.4261
-413,400,-12.34,-15.9569,0.000923682,-0.00457658,0.00175364,0.00143522,-0.00508811,0.283824,0.00395819,0.0401449,811,624,-12.34,15.9569
-406,400,-12.4778,-16.4423,0,0,0,0,0,0,0,-1,818,624,-12.4779,16.4423
-399,400,-11.0176,-13.2944,0,0,0,0,0,0,0,-1,825,624,-11.0176,13.2944
-392,400,-4.92285,-6.63354,0,0,0,0,0,0,0,-1,832,624,-4.92285,6.63354
-385,400,-3.68738,-5.04205,0,0,0,0,0,0,0,-1,839,624,-3.68736,5.04207
-378,400,-6.84064,-1.28662,0,0,0,0,0,0,0,-1,846,624,-6.84062,1.28662
-371,400,-6.98865,-1.2572,0,0,0,0,0,0,0,-1,853,624,-6.98865,1.25721
-364,400,-6.97247,-1.24133,0,0,0,0,0,0,0,-1,860,624,-6.97249,1.24135
-357,400,-7.18329,-1.23218,0,0,0,0,0,0,0,-1,867,624,-7.18327,1.2322
-350,400,-7.40186,-1.19409,0,0,0,0,0,0,0,-1,874,624,-7.40187,1.19407
-343,400,-8.09357,-1.51147,0,0,0,0,0,0,0,-1,881,624,-8.09355,1.51148
-336,400,0,0,0,0,0,0,0,0,0,-1,888,624,0,0
-329,400,0,0,0,0,0,0,0,0,0,-1,895,624,0,0
-322,400,0,0,0,0,0,0,0,0,0,-1,902,624,0,0
-315,400,0,0,0,0,0,0,0,0,0,-1,909,624,0,0
-308,400,0,0,0,0,0,0,0,0,0,-1,916,624,0,0
-301,400,0,0,0,0,0,0,0,0,0,-1,923,624,0,0
-294,400,0,0,0,0,0,0,0,0,0,-1,930,624,0,0
-287,400,0,0,0,0,0,0,0,0,0,-1,937,624,0,0
-280,400,0,0,0,0,0,0,0,0,0,-1,944,624,0,0
-273,400,0,0,0,0,0,0,0,0,0,-1,951,624,0,0
-266,400,0,0,0,0,0,0,0,0,0,-1,958,624,0,0
-259,400,0,0,0,0,0,0,0,0,0,-1,965,624,0,0
-252,400,0,0,0,0,0,0,0,0,0,-1,972,624,0,0
-245,400,0,0,0,0,0,0,0,0,0,-1,979,624,0,0
-238,400,0,0,0,0,0,0,0,0,0,-1,986,624,0,0
-231,400,0,0,0,0,0,0,0,0,0,-1,993,624,0,0
-224,400,0,0,0,0,0,0,0,0,0,-1,1000,624,0,0
-217,400,0,0,0,0,0,0,0,0,0,-1,1007,624,0,0
-210,400,0,0,0,0,0,0,0,0,0,-1,1014,624,0,0
-203,400,0,0,0,0,0,0,0,0,0,-1,1021,624,0,0
-196,400,0,0,0,0,0,0,0,0,0,-1,1028,624,0,0
-189,400,0,0,0,0,0,0,0,0,0,-1,1035,624,0,0
-182,400,0,0,0,0,0,0,0,0,0,-1,1042,624,0,0
-175,400,0,0,0,0,0,0,0,0,0,-1,1049,624,0,0
-168,400,0,0,0,0,0,0,0,0,0,-1,1056,624,0,0
-161,400,0,0,0,0,0,0,0,0,0,-1,1063,624,0,0
-154,400,0,0,0,0,0,0,0,0,0,-1,1070,624,0,0
-147,400,0,0,0,0,0,0,0,0,0,-1,1077,624,0,0
-140,400,0,0,0,0,0,0,0,0,0,-1,1084,624,0,0
-133,400,0,0,0,0,0,0,0,0,0,-1,1091,624,0,0
-126,400,0,0,0,0,0,0,0,0,0,-1,1098,624,0,0
-119,400,0,0,0,0,0,0,0,0,0,-1,1105,624,0,0
-112,400,0,0,0,0,0,0,0,0,0,-1,1112,624,0,0
-105,400,0,0,0,0,0,0,0,0,0,-1,1119,624,0,0
-98,400,0,0,0,0,0,0,0,0,0,-1,1126,624,0,0
-91,400,0,0,0,0,0,0,0,0,0,-1,1133,624,0,0
-84,400,0,0,0,0,0,0,0,0,0,-1,1140,624,0,0
-77,400,0,0,0,0,0,0,0,0,0,-1,1147,624,0,0
-70,400,0,0,0,0,0,0,0,0,0,-1,1154,624,0,0
-63,400,0,0,0,0,0,0,0,0,0,-1,1161,624,0,0
-56,400,0,0,0,0,0,0,0,0,0,-1,1168,624,0,0
-49,400,0,0,0,0,0,0,0,0,0,-1,1175,624,0,0
-42,400,0,0,0,0,0,0,0,0,0,-1,1182,624,0,0
-35,400,0,0,0,0,0,0,0,0,0,-1,1189,624,0,0
-28,400,0,0,0,0,0,0,0,0,0,-1,1196,624,0,0
-21,400,0,0,0,0,0,0,0,0,0,-1,1203,624,0,0
-14,400,0,0,0,0,0,0,0,0,0,-1,1210,624,0,0
-7,400,0,0,0,0,0,0,0,0,0,-1,1217,624,0,0
0,400,0,0,0,0,0,0,0,0,0,-1,1224,624,0,0
7,400,0,0,0,0,0,0,0,0,0,-1,1231,624,0,0
14,400,0,0,0,0,0,0,0,0,0,-1,1238,624,0,0
21,400,0,0,0,0,0,0,0,0,0,-1,1245,624,0,0
28,400,0,0,0,0,0,0,0,0,0,-1,1252,624,0,0
35,400,0,0,0,0,0,0,0,0,0,-1,1259,624,0,0
42,400,0,0,0,0,0,0,0,0,0,-1,1266,624,0,0
49,400,0,0,0,0,0,0,0,0,0,-1,1273,624,0,0
56,400,0,0,0,0,0,0,0,0,0,-1,1280,624,0,0
63,400,0,0,0,0,0,0,0,0,0,-1,1287,624,0,0
70,400,0,0,0,0,0,0,0,0,0,-1,1294,624,0,0
77,400,0,0,0,0,0,0,0,0,0,-1,1301,624,0,0
84,400,0,0,0,0,0,0,0,0,0,-1,1308,624,0,0
91,400,0,0,0,0,0,0,0,0,0,-1,1315,624,0,0
98,400,0,0,0,0,0,0,0,0,0,-1,1322,624,0,0
105,400,0,0,0,0,0,0,0,0,0,-1,1329,624,0,0
112,400,0,0,0,0,0,0,0,0,0,-1,1336,624,0,0
119,400,0,0,0,0,0,0,0,0,0,-1,1343,624,0,0
126,400,0,0,0,0,0,0,0,0,0,-1,1350,624,0,0
133,400,0,0,0,0,0,0,0,0,0,-1,1357,624,0,0
140,400,0,0,0,0,0,0,0,0,0,-1,1364,624,0,0
147,400,0,0,0,0,0,0,0,0,0,-1,1371,624,0,0
154,400,0,0,0,0,0,0,0,0,0,-1,1378,624,0,0
161,400,0,0,0,0,0,0,0,0,0,-1,1385,624,0,0
168,400,0,0,0,0,0,0,0,0,0,-1,1392,624,0,0
175,400,0,0,0,0,0,0,0,0,0,-1,1399,624,0,0
182,400,0,0,0,0,0,0,0,0,0,-1,1406,624,0,0
189,400,0,0,0,0,0,0,0,0,0,-1,1413,624,0,0
196,400,0,0,0,0,0,0,0,0,0,-1,1420,624,0,0
203,400,0,0,0,0,0,0,0,0,0,-1,1427,624,0,0
210,400,0,0,0,0,0,0,0,0,0,-1,1434,624,0,0
217,400,0,0,0,0,0,0,0,0,0,-1,1441,624,0,0
224,400,0,0,0,0,0,0,0,0,0,-1,1448,624,0,0
231,400,0,0,0,0,0,0,0,0,0,-1,1455,624,0,0
238,400,0,0,0,0,0,0,0,0,0,-1,1462,624,0,0
245,400,0,0,0,0,0,0,0,0,0,-1,1469,624,0,0
252,400,0,0,0,0,0,0,0,0,0,-1,1476,624,0,0
259,400,0,0,0,0,0,0,0,0,0,-1,1483,624,0,0
266,400,0,0,0,0,0,0,0,0,0,-1,1490,624,0,0
273,400,0,0,0,0,0,0,0,0,0,-1,1497,624,0,0
280,400,0,0,0,0,0,0,0,0,0,-1,1504,624,0,0
287,400,0,0,0,0,0,0,0,0,0,-1,1511,624,0,0
294,400,0,0,0,0,0,0,0,0,0,-1,1518,624,0,0
301,400,0,0,0,0,0,0,0,0,0,-1,1525,624,0,0
308,400,0,0,0,0,0,0,0,0,0,-1,1532,624,0,0
315,400,0,0,0,0,0,0,0,0,0,-1,1539,624,0,0
322,400,0,0,0,0,0,0,0,0,0,-1,1546,624,0,0
329,400,0,0,0,0,0,0,0,0,0,-1,1553,624,0,0
336,400,0,0,0,0,0,0,0,0,0,-1,1560,624,0,0
343,400,0,0,0,0,0,0,0,0,0,-1,1567,624,0,0
350,400,0,0,0,0,0,0,0,0,0,-1,1574,624,0,0
357,400,0,0,0,0,0,0,0,0,0,-1,1581,624,0,0
364,400,0,0,0,0,0,0,0,0,0,-1,1588,624,0,0
371,400,0,0,0,0,0,0,0,0,0,-1,1595,624,0,0
378,400,0,0,0,0,0,0,0,0,0,-1,1602,624,0,0
385,400,0,0,0,0,0,0,0,0,0,-1,1609,624,0,0
392,400,0,0,0,0,0,0,0,0,0,-1,1616,624,0,0
399,400,0,0,0,0,0,0,0,0,0,-1,1623,624,0,0
406,400,0,0,0,0,0,0,0,0,0,-1,1630,624,0,0
413,400,0,0,0,0,0,0,0,0,0,-1,1637,624,0,0
420,400,0,0,0,0,0,0,0,0,0,-1,1644,624,0,0
427,400,0,0,0,0,0,0,0,0,0,-1,1651,624,0,0
434,400,0,0,0,0,0,0,0,0,0,-1,1658,624,0,0
441,400,0,0,0,0,0,0,0,0,0,-1,1665,624,0,0
448,400,0,0,0,0,0,0,0,0,0,-1,1672,624,0,0
455,400,8.91309,2.75885,0,0,0,0,0,0,0,-1,1679,624,8.91312,-2.75885
462,400,8.90356,2.37878,0,0,0,0,0,0,0,-1,1686,624,8.90353,-2.37878
469,400,9.14429,1.76849,0,0,0,0,0,0,0,-1,1693,624,9.14432,-1.76847
476,400,9.23254,1.25995,0,0,0,0,0,0,0,-1,1700,624,9.23252,-1.25994
483,400,9.59766,0.562439,0,0,0,0,0,0,0,-1,1707,624,9.59771,-0.56242
490,400,9.92578,-0.213745,0,0,0,0,0,0,0,-1,1714,624,9.92579,0.21376
497,400,9.19141,0.175232,0,0,0,0,0,0,0,-1,1721,624,9.19138,-0.175209
504,400,9.23438,0.00823975,0,0,0,0,0,0,0,-1,1728,624,9.23436,-0.00823766
511,400,6.16687,3.3501,0,0,0,0,0,0,0,-1,1735,624,6.16682,-3.35007
518,400,6.55237,1.74994,0,0,0,0,0,0,0,-1,1742,624,6.55236,-1.74993
525,400,6.99731,1.08783,0,0,0,0,0,0,0,-1,1749,624,6.99736,-1.08785
532,400,6.96582,-1.74982,0,0,0,0,0,0,0,-1,1756,624,6.96585,1.74983
539,400,21.2305,-10.5841,0,0,0,0,0,0,0,-1,1763,624,21.2304,10.5841
546,400,24.3182,-14.1455,0,0,0,0,0,0,0,-1,1770,624,24.3182,14.1455
553,400,24.2173,-13.4735,0.00440938,0.000766938,0.00119724,0.00476766,0.000408655,0.290775,0.00305136,0.041752,1777,624,24.2173,13.4735
560,400,24.2712,-12.7425,0.00352717,0.000677751,0.000945459,0.00381234,0.000392581,0.292944,0.00242133,0.0158512,1784,624,24.2712,12.7425
567,400,24.2488,-12.0867,0.00262762,0.000556515,0.000721851,0.00285438,0.000329753,0.304378,0.00180308,0.0178671,1791,624,24.2488,12.0867
574,400,24.2224,-11.431,0.00198364,0.000711159,0.000744478,0.00232671,0.00036809,0.431815,0.00144417,0.0199066,1798,624,24.2224,11.431
581,400,24.1584,-10.7024,0.00152054,0.00101838,0.000903641,0.00220733,0.000331585,0.649888,0.00137443,0.0215183,1805,624,24.1585,10.7024
588,400,24.0988,-9.9516,0.00122341,0.00147813,0.00116822,0.00252592,0.000175629,0.839694,0.00162856,0.0182403,1812,624,24.0988,9.95159
595,400,24.0909,-9.28766,0.00120201,0.00206541,0.00159807,0.00328907,-2.1641e-05,0.917318,0.00219996,0.0162268,1819,624,24.0909,9.28768
602,400,24.0718,-8.59979,0.00149756,0.00280855,0.00221433,0.00446237,-0.000156258,0.9293,0.00302834,0.0144839,1826,624,24.0718,8.59979
609,400,23.9666,-7.86426,0.00200963,0.0037322,0.00296071,0.00595436,-0.000212528,0.926944,0.00404228,0.0149158,1833,624,23.9666,7.86427
616,400,23.9222,-7.13446,0.00265847,0.00480554,0.00376055,0.00764279,-0.000178783,0.924436,0.00515582,0.0207573,1840,624,23.9222,7.13444
623,400,23.9332,-6.38379,0,0,0,0,0,0,0,-1,1847,624,23.9333,6.38376
630,400,11.9432,0.09021,0,0,0,0,0,0,0,-1,1854,624,11.9432,-0.0902007
637,400,6.92896,1.01917,0,0,0,0,0,0,0,-1,1861,624,6.92899,-1.01918
644,400,8.65381,1.4599,0,0,0,0,0,0,0,-1,1868,624,8.65379,-1.45991
651,400,7.90601,0.424072,0,0,0,0,0,0,0,-1,1875,624,7.90598,-0.424097
658,400,8.69031,1.0484,0,0,0,0,0,0,0,-1,1882,624,8.6903,-1.0484
665,400,5.98438,0.522522,0,0,0,0,0,0,0,-1,1889,624,5.98442,-0.522552
672,400,0,0,0,0,0,0,0,0,0,-1,1896,624,0,0
679,400,0,0,0,0,0,0,0,0,0,-1,1903,624,0,0
686,400,0,0,0,0,0,0,0,0,0,-1,1910,624,0,0
693,400,0,0,0,0,0,0,0,0,0,-1,1917,624,0,0
700,400,0,0,0,0,0,0,0,0,0,-1,1924,624,0,0
707,400,0,0,0,0,0,0,0,0,0,-1,1931,624,0,0
714,400,0,0,0,0,0,0,0,0,0,-1,1938,624,0,0
721,400,0,0,0,0,0,0,0,0,0,-1,1945,624,0,0
728,400,0,0,0,0,0,0,0,0,0,-1,1952,624,0,0
735,400,0,0,0,0,0,0,0,0,0,-1,1959,624,0,0
742,400,0,0,0,0,0,0,0,0,0,-1,1966,624,0,0
749,400,0,0,0,0,0,0,0,0,0,-1,1973,624,0,0
756,400,0,0,0,0,0,0,0,0,0,-1,1980,624,0,0
763,400,0,0,0,0,0,0,0,0,0,-1,1987,624,0,0
770,400,0,0,0,0,0,0,0,0,0,-1,1994,624,0,0
777,400,0,0,0,0,0,0,0,0,0,-1,2001,624,0,0
784,400,0,0,0,0,0,0,0,0,0,-1,2008,624,0,0
791,400,0,0,0,0,0,0,0,0,0,-1,2015,624,0,0
798,400,0,0,0,0,0,0,0,0,0,-1,2022,624,0,0
805,400,0,0,0,0,0,0,0,0,0,-1,2029,624,0,0
812,400,0,0,0,0,0,0,0,0,0,-1,2036,624,0,0
-700,393,0,0,0,0,0,0,0,0,0,-1,524,631,0,0
-693,393,0,0,0,0,0,0,0,0,0,-1,531,631,0,0
-686,393,0,0,0,0,0,0,0,0,0,-1,538,631,0,0
-679,393,0,0,0,0,0,0,0,0,0,-1,545,631,0,0
-672,393,0,0,0,0,0,0,0,0,0,-1,552,631,0,0
-665,393,0,0,0,0,0,0,0,0,0,-1,559,631,0,0
-658,393,0,0,0,0,0,0,0,0,0,-1,566,631,0,0
-651,393,0,0,0,0,0,0,0,0,0,-1,573,631,0,0
-644,393,0,0,0,0,0,0,0,0,0,-1,580,631,0,0
-637,393,0,0,0,0,0,0,0,0,0,-1,587,631,0,0
-630,393,0,0,0,0,0,0,0,0,0,-1,594,631,0,0
-623,393,0,0,0,0,0,0,0,0,0,-1,601,631,0,0
-616,393,0,0,0,0,0,0,0,0,0,-1,608,631,0,0
-609,393,0,0,0,0,0,0,0,0,0,-1,615,631,0,0
-602,393,0,0,0,0,0,0,0,0,0,-1,622,631,0,0
-595,393,0,0,0,0,0,0,0,0,0,-1,629,631,0,0
-588,393,0,0,0,0,0,0,0,0,0,-1,636,631,0,0
-581,393,0,0,0,0,0,0,0,0,0,-1,643,631,0,0
-574,393,0,0,0,0,0,0,0,0,0,-1,650,631,0,0
-567,393,0,0,0,0,0,0,0,0,0,-1,657,631,0,0
-560,393,0,0,0,0,0,0,0,0,0,-1,664,631,0,0
-553,393,-2.35107,3.92633,0,0,0,0,0,0,0,-1,671,631,-2.35108,-3.92634
-546,393,-1.78778,2.4856,0,0,0,0,0,0,0,-1,678,631,-1.78778,-2.48557
-539,393,-5.2113,-2.20245,0,0,0,0,0,0,0,-1,685,631,-5.21128,2.20247
-532,393,-2.83643,-2.01624,0,0,0,0,0,0,0,-1,692,631,-2.83642,2.01626
-525,393,-5.9505,-0.952698,0,0,0,0,0,0,0,-1,699,631,-5.95053,0.95268
-518,393,-5.80219,-1.57739,0,0,0,0,0,0,0,-1,706,631,-5.80219,1.57738
-511,393,-6.15527,-2.09906,0,0,0,0,0,0,0,-1,713,631,-6.15526,2.09903
-504,393,-13.1655,-6.45264,0,0,0,0,0,0,0,-1,720,631,-13.1655,6.45262
-497,393,-12.756,-7.55121,0.00227341,0.00760191,-0.0047988,0.0104264,-0.000551119,-1.03881,0.00714176,0.0466956,727,631,-12.756,7.55121
-490,393,-12.6971,-8.64453,0.00174268,0.00591973,-0.00377042,0.00814143,-0.000479017,-1.03832,0.00559413,0.0222309,734,631,-12.6971,8.64451
-483,393,-12.7056,-9.3949,0.00136002,0.00443409,-0.00290898,0.00618713,-0.000393022,-1.02844,0.00426181,0.0200058,741,631,-12.7056,9.39489
-476,393,-12.7231,-10.0109,0.00118278,0.00322297,-0.00224901,0.00467242,-0.000266674,-0.99831,0.00320753,0.0173568,748,631,-12.7231,10.0108
-469,393,-12.7437,-10.6898,0.00117331,0.00217606,-0.00172328,0.00346942,-0.000120053,-0.926962,0.00235398,0.0137129,755,631,-12.7437,10.6898
-462,393,-12.783,-11.4289,0.00120664,0.00124653,-0.00125898,0.00248572,-3.25504e-05,-0.793319,0.0016681,0.0161498,762,631,-12.783,11.4289
-455,393,-12.8135,-12.1105,0.00126627,0.000304086,-0.000835769,0.00174952,-0.000179165,-0.524245,0.00123043,0.0155479,769,631,-12.8135,12.1105
-448,393,-12.8381,-12.7578,0.00142593,-0.000505554,-0.000495167,0.00154547,-0.000625099,-0.236891,0.00129019,0.0149866,776,631,-12.8381,12.7578
-441,393,-12.8794,-13.3751,0.00156089,-0.00130264,-0.000151716,0.0015689,-0.00131066,-0.0527853,0.00166474,0.0139327,783,631,-12.8794,13.3751
-434,393,-12.9266,-14.0234,0.00167418,-0.00208121,0.000169543,0.00168182,-0.00208885,0.0450246,0.00218122,0.0131146,790,631,-12.9266,14.0234
-427,393,-12.8777,-14.6964,0.00165676,-0.00307445,0.00060029,0.00173173,-0.00314942,0.124256,0.00285748,0.021424,797,631,-12.8777,14.6964
-420,393,-12.9261,-15.3439,0.00136997,-0.00440746,0.0013397,0.00166551,-0.004703,0.217122,0.00381372,0.0475144,804,631,-12.9261,15.3438
-413,393,-13.0884,-15.9639,0,0,0,0,0,0,0,-1,811,631,-13.0884,15.9638
-406,393,-11.826,-12.7987,0,0,0,0,0,0,0,-1,818,631,-11.8261,12.7987
-399,393,-5.07343,-5.92365,0,0,0,0,0,0,0,-1,825,631,-5.07344,5.92364
-392,393,-2.08063,-3.02386,0,0,0,0,0,0,0,-1,832,631,-2.08063,3.02384
-385,393,-3.16931,-0.624756,0,0,0,0,0,0,0,-1,839,631,-3.16928,0.624764
-378,393,-7.33081,-0.872314,0,0,0,0,0,0,0,-1,846,631,-7.33081,0.872325
-371,393,-7.47858,-0.811096,0,0,0,0,0,0,0,-1,853,631,-7.47859,0.811075
-364,393,-7.64917,-0.662415,0,0,0,0,0,0,0,-1,860,631,-7.64917,0.662406
-357,393,-8.09686,-0.726013,0,0,0,0,0,0,0,-1,867,631,-8.09689,0.726029
-350,393,-8.38788,-0.511841,0,0,0,0,0,0,0,-1,874,631,-8.38785,0.511811
-343,393,0,0,0,0,0,0,0,0,0,-1,881,631,0,0
-336,393,0,0,0,0,0,0,0,0,0,-1,888,631,0,0
-329,393,0,0,0,0,0,0,0,0,0,-1,895,631,0,0
-322,393,0,0,0,0,0,0,0,0,0,-1,902,631,0,0
-315,393,0,0,0,0,0,0,0,0,0,-1,909,631,0,0
-308,393,0,0,0,0,0,0,0,0,0,-1,916,631,0,0
-301,393,0,0,0,0,0,0,0,0,0,-1,923,631,0,0
-294,393,0,0,0,0,0,0,0,0,0,-1,930,631,0,0
-287,393,0,0,0,0,0,0,0,0,0,-1,937,631,0,0
-280,393,0,0,0,0,0,0,0,0,0,-1,944,631,0,0
-273,393,0,0,0,0,0,0,0,0,0,-1,951,631,0,0
-266,393,0,0,0,0,0,0,0,0,0,-1,958,631,0,0
-259,393,0,0,0,0,0,0,0,0,0,-1,965,631,0,0
-252,393,0,0,0,0,0,0,0,0,0,-1,972,631,0,0
-245,393,0,0,0,0,0,0,0,0,0,-1,979,631,0,0
-238,393,0,0,0,0,0,0,0,0,0,-1,986,631,0,0
-231,393,0,0,0,0,0,0,0,0,0,-1,993,631,0,0
-224,393,0,0,0,0,0,0,0,0,0,-1,1000,631,0,0
-217,393,0,0,0,0,0,0,0,0,0,-1,1007,631,0,0
-210,393,0,0,0,0,0,0,0,0,0,-1,1014,631,0,0
-203,393,0,0,0,0,0,0,0,0,0,-1,1021,631,0,0
-196,393,0,0,0,0,0,0,0,0,0,-1,1028,631,0,0
-189,393,0,0,0,0,0,0,0,0,0,-1,1035,631,0,0
-182,393,0,0,0,0,0,0,0,0,0,-1,1042,631,0,0
-175,393,0,0,0,0,0,0,0,0,0,-1,1049,631,0,0
-168,393,0,0,0,0,0,0,0,0,0,-1,1056,631,0,0
-161,393,0,0,0,0,0,0,0,0,0,-1,1063,631,0,0
-154,393,0,0,0,0,0,0,0,0,0,-1,1070,631,0,0
-147,393,0,0,0,0,0,0,0,0,0,-1,1077,631,0,0
-140,393,0,0,0,0,0,0,0,0,0,-1,1084,631,0,0
-133,393,0,0,0,0,0,0,0,0,0,-1,1091,631,0,0
-126,393,0,0,0,0,0,0,0,0,0,-1,1098,631,0,0
-119,393,0,0,0,0,0,0,0,0,0,-1,1105,631,0,0
-112,393,0,0,0,0,0,0,0,0,0,-1,1112,631,0,0
-105,393,0,0,0,0,0,0,0,0,0,-1,1119,631,0,0
-98,393,0,0,0,0,0,0,0,0,0,-1,1126,631,0,0
-91,393,0,0,0,0,0,0,0,0,0,-1,1133,631,0,0
-84,393,0,0,0,0,0,0,0,0,0,-1,1140,631,0,0
-77,393,0,0,0,0,0,0,0,0,0,-1,1147,631,0,0
-70,393,0,0,0,0,0,0,0,0,0,-1,1154,631,0,0
-63,393,0,0,0,0,0,0,0,0,0,-1,1161,631,0,0
-56,393,0,0,0,0,0,0,0,0,0,-1,1168,631,0,0
-49,393,0,0,0,0,0,0,0,0,0,-1,1175,631,0,0
-42,393,0,0,0,0,0,0,0,0,0,-1,1182,631,0,0
-35,393,0,0,0,0,0,0,0,0,0,-1,1189,631,0,0
-28,393,0,0,0,0,0,0,0,0,0,-1,1196,631,0,0
-21,393,0,0,0,0,0,0,0,0,0,-1,1203,631,0,0
-14,393,0,0,0,0,0,0,0,0,0,-1,1210,631,0,0
-7,393,0,0,0,0,0,0,0,0,0,-1,1217,631,0,0
0,393,0,0,0,0,0,0,0,0,0,-1,1224,631,0,0
7,393,0,0,0,0,0,0,0,0,0,-1,1231,631,0,0
14,393,0,0,0,0,0,0,0,0,0,-1,1238,631,0,0
21,393,0,0,0,0,0,0,0,0,0,-1,1245,631,0,0
28,393,0,0,0,0,0,0,0,0,0,-1,1252,631,0,0
35,393,0,0,0,0,0,0,0,0,0,-1,1259,631,0,0
42,393,0,0,0,0,0,0,0,0,0,-1,1266,631,0,0
49,393,0,0,0,0,0,0,0,0,0,-1,1273,631,0,0
56,393,0,0,0,0,0,0,0,0,0,-1,1280,631,0,0
63,393,0,0,0,0,0,0,0,0,0,-1,1287,631,0,0
70,393,0,0,0,0,0,0,0,0,0,-1,1294,631,0,0
77,393,0,0,0,0,0,0,0,0,0,-1,1301,631,0,0
84,393,0,0,0,0,0,0,0,0,0,-1,1308,631,0,0
91,393,0,0,0,0,0,0,0,0,0,-1,1315,631,0,0
98,393,0,0,0,0,0,0,0,0,0,-1,1322,631,0,0
105,393,0,0,0,0,0,0,0,0,0,-1,1329,631,0,0
112,393,0,0,0,0,0,0,0,0,0,-1,1336,631,0,0
119,393,0,0,0,0,0,0,0,0,0,-1,1343,631,0,0
126,393,0,0,0,0,0,0,0,0,0,-1,1350,631,0,0
133,393,0,0,0,0,0,0,0,0,0,-1,1357,631,0,0
140,393,0,0,0,0,0,0,0,0,0,-1,1364,631,0,0
147,393,0,0,0,0,0,0,0,0,0,-1,1371,631,0,0
154,393,0,0,0,0,0,0,0,0,0,-1,1378,631,0,0
161,393,0,0,0,0,0,0,0,0,0,-1,1385,631,0,0
168,393,0,0,0,0,0,0,0,0,0,-1,1392,631,0,0
175,393,0,0,0,0,0,0,0,0,0,-1,1399,631,0,0
182,393,0,0,0,0,0,0,0,0,0,-1,1406,631,0,0
189,393,0,0,0,0,0,0,0,0,0,-1,1413,631,0,0
196,393,0,0,0,0,0,0,0,0,0,-1,1420,631,0,0
203,393,0,0,0,0,0,0,0,0,0,-1,1427,631,0,0
210,393,0,0,0,0,0,0,0,0,0,-1,1434,631,0,0
217,393,0,0,0,0,0,0,0,0,0,-1,1441,631,0,0
224,393,0,0,0,0,0,0,0,0,0,-1,1448,631,0,0
231,393,0,0,0,0,0,0,0,0,0,-1,1455,631,0,0
238,393,0,0,0,0,0,0,0,0,0,-1,1462,631,0,0
245,393,0,0,0,0,0,0,0,0,0,-1,1469,631,0,0
252,393,0,0,0,0,0,0,0,0,0,-1,1476,631,0,0
259,393,0,0,0,0,0,0,0,0,0,-1,1483,631,0,0
266,393,0,0,0,0,0,0,0,0,0,-1,1490,631,0,0
273,393,0,0,0,0,0,0,0,0,0,-1,1497,631,0,0
280,393,0,0,0,0,0,0,0,0,0,-1,1504,631,0,0
287,393,0,0,0,0,0,0,0,0,0,-1,1511,631,0,0
294,393,0,0,0,0,0,0,0,0,0,-1,1518,631,0,0
301,393,0,0,0,0,0,0,0,0,0,-1,1525,631,0,0
308,393,0,0,0,0,0,0,0,0,0,-1,1532,631,0,0
315,393,0,0,0,0,0,0,0,0,0,-1,1539,631,0,0
322,393,0,0,0,0,0,0,0,0,0,-1,1546,631,0,0
329,393,0,0,0,0,0,0,0,0,0,-1,1553,631,0,0
336,393,0,0,0,0,0,0,0,0,0,-1,1560,631,0,0
343,393,0,0,0,0,0,0,0,0,0,-1,1567,631,0,0
350,393,0,0,0,0,0,0,0,0,0,-1,1574,631,0,0
357,393,0,0,0,0,0,0,0,0,0,-1,1581,631,0,0
364,393,0,0,0,0,0,0,0,0,0,-1,1588,631,0,0
371,393,0,0,0,0,0,0,0,0,0,-1,1595,631,0,0
378,393,0,0,0,0,0,0,0,0,0,-1,1602,631,0,0
385,393,0,0,0,0,0,0,0,0,0,-1,1609,631,0,0
392,393,0,0,0,0,0,0,0,0,0,-1,1616,631,0,0
399,393,0,0,0,0,0,0,0,0,0,-1,1623,631,0,0
406,393,0,0,0,0,0,0,0,0,0,-1,1630,631,0,0
413,393,0,0,0,0,0,0,0,0,0,-1,1637,631,0,0
420,393,0,0,0,0,0,0,0,0,0,-1,1644,631,0,0
427,393,0,0,0,0,0,0,0,0,0,-1,1651,631,0,0
434,393,0,0,0,0,0,0,0,0,0,-1,1658,631,0,0
441,393,0,0,0,0,0,0,0,0,0,-1,1665,631,0,0
448,393,0,0,0,0,0,0,0,0,0,-1,1672,631,0,0
455,393,0,0,0,0,0,0,0,0,0,-1,1679,631,0,0
462,393,8.51099,1.89502,0,0,0,0,0,0,0,-1,1686,631,8.51103,-1.89504
469,393,9.39465,1.51703,0,0,0,0,0,0,0,-1,1693,631,9.39465,-1.51703
476,393,9.95569,1.185,0,0,0,0,0,0,0,-1,1700,631,9.95575,-1.18497
483,393,10.5267,0.887329,0,0,0,0,0,0,0,-1,1707,631,10.5267,-0.887321
490,393,10.9303,0.761414,0,0,0,0,0,0,0,-1,1714,631,10.9303,-0.761386
497,393,8.32153,1.88104,0,0,0,0,0,0,0,-1,1721,631,8.32148,-1.88103
504,393,9.46985,1.78711,0,0,0,0,0,0,0,-1,1728,631,9.46986,-1.78713
511,393,9.66565,-0.375977,0,0,0,0,0,0,0,-1,1735,631,9.66571,0.375949
518,393,7.01599,1.62482,0,0,0,0,0,0,0,-1,1742,631,7.01597,-1.62483
525,393,7.88245,-1.13422,0,0,0,0,0,0,0,-1,1749,631,7.88246,1.13423
532,393,7.06335,-1.18103,0,0,0,0,0,0,0,-1,1756,631,7.06332,1.18101
539,393,9.91626,-2.46301,0,0,0,0,0,0,0,-1,1763,631,9.91625,2.46302
546,393,16.4094,-8.04651,0,0,0,0,0,0,0,-1,1770,631,16.4094,8.04649
553,393,24.7764,-13.5097,0,0,0,0,0,0,0,-1,1777,631,24.7764,13.5097
560,393,24.9109,-12.7847,0.00410367,0.000653911,0.000957751,0.00435173,0.000405849,0.253435,0.00277578,0.0439518,1784,631,24.9109,12.7847
567,393,24.9099,-12.0417,0.00297995,0.00041275,0.000603391,0.0031147,0.000278002,0.219712,0.00199028,0.0160832,1791,631,24.91,12.0417
574,393,24.8779,-11.371,0.00218865,0.00049831,0.000554689,0.00235441,0.000332543,0.290398,0.00147134,0.0153819,1798,631,24.878,11.371
581,393,24.8134,-10.6407,0.00162157,0.000780364,0.000655286,0.00197962,0.000422309,0.500083,0.00120392,0.0171273,1805,631,24.8133,10.6407
588,393,24.7816,-9.89307,0.0012753,0.00119356,0.000875389,0.00211077,0.000358087,0.762069,0.00130431,0.0201948,1812,631,24.7816,9.89305
595,393,24.7872,-9.24036,0.00125518,0.00173828,0.00126639,0.00278595,0.00020751,0.879637,0.00179214,0.0165969,1819,631,24.7873,9.24038
602,393,24.7618,-8.54364,0.00158032,0.00241955,0.00184376,0.00389084,0.000109023,0.897286,0.00255833,0.0173561,1826,631,24.7619,8.54366
609,393,24.6945,-7.82056,0.00206764,0.00324406,0.00250753,0.00523145,8.025e-05,0.900604,0.00346119,0.0168057,1833,631,24.6945,7.82053
616,393,24.6472,-7.1297,0.00259113,0.00409285,0.00312008,0.00655115,0.000132831,0.90348,0.00432384,0.0169229,1840,631,24.6472,7.12972
623,393,24.6644,-6.31244,0.00354018,0.0050546,0.00397735,0.00834618,0.000248603,0.879462,0.00548313,0.0333025,1847,631,24.6644,6.31243
630,393,24.7303,-5.37506,0,0,0,0,0,0,0,-1,1854,631,24.7303,5.37509
637,393,11.4626,0.608887,0,0,0,0,0,0,0,-1,1861,631,11.4627,-0.608904
644,393,8.97583,1.30585,0,0,0,0,0,0,0,-1,1868,631,8.97586,-1.30584
651,393,11.348,0.53302,0,0,0,0,0,0,0,-1,1875,631,11.348,-0.53305
658,393,9.21338,1.50836,0,0,0,0,0,0,0,-1,1882,631,9.21338,-1.50834
665,393,6.1001,2.32129,0,0,0,0,0,0,0,-1,1889,631,6.10012,-2.3213
672,393,7.14575,2.43225,0,0,0,0,0,0,0,-1,1896,631,7.14572,-2.43222
679,393,0,0,0,0,0,0,0,0,0,-1,1903,631,0,0
686,393,0,0,0,0,0,0,0,0,0,-1,1910,631,0,0
693,393,0,0,0,0,0,0,0,0,0,-1,1917,631,0,0
700,393,0,0,0,0,0,0,0,0,0,-1,1924,631,0,0
707,393,0,0,0,0,0,0,0,0,0,-1,1931,631,0,0
714,393,0,0,0,0,0,0,0,0,0,-1,1938,631,0,0
721,393,0,0,0,0,0,0,0,0,0,-1,1945,631,0,0
728,393,0,0,0,0,0,0,0,0,0,-1,1952,631,0,0
735,393,0,0,0,0,0,0,0,0,0,-1,1959,631,0,0
742,393,0,0,0,0,0,0,0,0,0,-1,1966,631,0,0
749,393,0,0,0,0,0,0,0,0,0,-1,1973,631,0,0
756,393,0,0,0,0,0,0,0,0,0,-1,1980,631,0,0
763,393,0,0,0,0,0,0,0,0,0,-1,1987,631,0,0
770,393,0,0,0,0,0,0,0,0,0,-1,1994,631,0,0
777,393,0,0,0,0,0,0,0,0,0,-1,2001,631,0,0
784,393,0,0,0,0,0,0,0,0,0,-1,2008,631,0,0
791,393,0,0,0,0,0,0,0,0,0,-1,2015,631,0,0
798,393,0,0,0,0,0,0,0,0,0,-1,2022,631,0,0
805,393,0,0,0,0,0,0,0,0,0,-1,2029,631,0,0
812,393,0,0,0,0,0,0,0,0,0,-1,2036,631,0,0
-700,386,0,0,0,0,0,0,0,0,0,-1,524,638,0,0
-693,386,0,0,0,0,0,0,0,0,0,-1,531,638,0,0
-686,386,0,0,0,0,0,0,0,0,0,-1,538,638,0,0
-679,386,0,0,0,0,0,0,0,0,0,-1,545,638,0,0
-672,386,0,0,0,0,0,0,0,0,0,-1,552,638,0,0
-665,386,0,0,0,0,0,0,0,0,0,-1,559,638,0,0
-658,386,0,0,0,0,0,0,0,0,0,-1,566,638,0,0
-651,386,0,0,0,0,0,0,0,0,0,-1,573,638,0,0
-644,386,0,0,0,0,0,0,0,0,0,-1,580,638,0,0
-637,386,0,0,0,0,0,0,0,0,0,-1,587,638,0,0
-630,386,0,0,0,0,0,0,0,0,0,-1,594,638,0,0
-623,386,0,0,0,0,0,0,0,0,0,-1,601,638,0,0
-616,386,0,0,0,0,0,0,0,0,0,-1,608,638,0,0
-609,386,0,0,0,0,0,0,0,0,0,-1,615,638,0,0
-602,386,0,0,0,0,0,0,0,0,0,-1,622,638,0,0
-595,386,0,0,0,0,0,0,0,0,0,-1,629,638,0,0
-588,386,0,0,0,0,0,0,0,0,0,-1,636,638,0,0
-581,386,0,0,0,0,0,0,0,0,0,-1,643,638,0,0
-574,386,0,0,0,0,0,0,0,0,0,-1,650,638,0,0
-567,386,0,0,0,0,0,0,0,0,0,-1,657,638,0,0
-560,386,-3.97229,-5.13898,0,0,0,0,0,0,0,-1,664,638,-3.97232,5.13897
-553,386,-4.94244,-5.54309,0,0,0,0,0,0,0,-1,671,638,-4.94242,5.5431
-546,386,-1.78668,1.72827,0,0,0,0,0,0,0,-1,678,638,-1.78668,-1.72829
-539,386,-0.879456,-2.90009,0,0,0,0,0,0,0,-1,685,638,-0.879442,2.90008
-532,386,-5.4884,1.73328,0,0,0,0,0,0,0,-1,692,638,-5.4884,-1.73325
-525,386,-6.64148,-1.50604,0,0,0,0,0,0,0,-1,699,638,-6.64149,1.50603
-518,386,-11.1217,-4.10382,0,0,0,0,0,0,0,-1,706,638,-11.1217,4.1038
-511,386,-13.0612,-5.05151,0,0,0,0,0,0,0,-1,713,638,-13.0612,5.05149
-504,386,-13.4463,-6.80573,0,0,0,0,0,0,0,-1,720,638,-13.4463,6.80573
-497,386,-13.3915,-7.88776,0.00216647,0.0058436,-0.00381255,0.00823775,-0.000227676,-1.01007,0.00556927,0.0215201,727,638,-13.3915,7.88773
-490,386,-13.3533,-8.67029,0.00179995,0.00452053,-0.00300451,0.00645834,-0.000137862,-0.997967,0.00435224,0.0138345,734,638,-13.3533,8.67032
-483,386,-13.3569,-9.39758,0.00154565,0.00334886,-0.00233199,0.00494747,-5.2962e-05,-0.96986,0.00331611,0.0171556,741,638,-13.3569,9.39756
-476,386,-13.3882,-10.0464,0.00148183,0.00237759,-0.00183541,0.00381897,4.0437e-05,-0.90507,0.00253261,0.016358,748,638,-13.3883,10.0464
-469,386,-13.4271,-10.6729,0.00151825,0.00152218,-0.00142223,0.00294244,9.79817e-05,-0.786089,0.0019298,0.0127373,755,638,-13.4271,10.6729
-462,386,-13.4532,-11.3814,0.00157572,0.000762756,-0.00105922,0.00230378,3.46982e-05,-0.602186,0.00152442,0.0121212,762,638,-13.4532,11.3814
-455,386,-13.4852,-12.074,0.00167052,-4.91207e-05,-0.000731971,0.00193989,-0.000318492,-0.352626,0.00141145,0.0130231,769,638,-13.4852,12.074
-448,386,-13.5129,-12.7126,0.00186138,-0.000734546,-0.000483324,0.00194845,-0.000821613,-0.178232,0.00164281,0.0137669,776,638,-13.5129,12.7126
-441,386,-13.5547,-13.3483,0.0020728,-0.00131425,-0.000299956,0.00209916,-0.00134061,-0.0876507,0.00200198,0.0148053,783,638,-13.5547,13.3483
-434,386,-13.5425,-14.0776,0.00223591,-0.00202345,-9.87844e-05,0.0022382,-0.00202574,-0.0231757,0.00246281,0.0326579,790,638,-13.5425,14.0776
-427,386,-13.4404,-14.697,0,0,0,0,0,0,0,-1,797,638,-13.4404,14.697
-420,386,-13.6113,-15.3172,0,0,0,0,0,0,0,-1,804,638,-13.6113,15.3172
-413,386,-5.45691,-5.35785,0,0,0,0,0,0,0,-1,811,638,-5.45691,5.35783
-406,386,-4.51135,-4.10999,0,0,0,0,0,0,0,-1,818,638,-4.51135,4.10996
-399,386,-3.57117,-3.42126,0,0,0,0,0,0,0,-1,825,638,-3.57116,3.42129
-392,386,-4.00977,0.403625,0,0,0,0,0,0,0,-1,832,638,-4.0098,-0.403616
-385,386,-3.2406,-0.118469,0,0,0,0,0,0,0,-1,839,638,-3.24058,0.118485
-378,386,-2.55243,-1.22748,0,0,0,0,0,0,0,-1,846,638,-2.55243,1.22748
-371,386,-7.95807,-0.330261,0,0,0,0,0,0,0,-1,853,638,-7.95806,0.330284
-364,386,-8.90637,-0.665955,0,0,0,0,0,0,0,-1,860,638,-8.90635,0.665951
-357,386,-9.10364,-0.388733,0,0,0,0,0,0,0,-1,867,638,-9.10364,0.388744
-350,386,0,0,0,0,0,0,0,0,0,-1,874,638,0,0
-343,386,0,0,0,0,0,0,0,0,0,-1,881,638,0,0
-336,386,0,0,0,0,0,0,0,0,0,-1,888,638,0,0
-329,386,0,0,0,0,0,0,0,0,0,-1,895,638,0,0
-322,386,0,0,0,0,0,0,0,0,0,-1,902,638,0,0
-315,386,0,0,0,0,0,0,0,0,0,-1,909,638,0,0
-308,386,0,0,0,0,0,0,0,0,0,-1,916,638,0,0
-301,386,0,0,0,0,0,0,0,0,0,-1,923,638,0,0
-294,386,0,0,0,0,0,0,0,0,0,-1,930,638,0,0
-287,386,0,0,0,0,0,0,0,0,0,-1,937,638,0,0
-280,386,0,0,0,0,0,0,0,0,0,-1,944,638,0,0
-273,386,0,0,0,0,0,0,0,0,0,-1,951,638,0,0
-266,386,0,0,0,0,0,0,0,0,0,-1,958,638,0,0
-259,386,0,0,0,0,0,0,0,0,0,-1,965,638,0,0
-252,386,0,0,0,0,0,0,0,0,0,-1,972,638,0,0
-245,386,0,0,0,0,0,0,0,0,0,-1,979,638,0,0
-238,386,0,0,0,0,0,0,0,0,0,-1,986,638,0,0
-231,386,0,0,0,0,0,0,0,0,0,-1,993,638,0,0
-224,386,0,0,0,0,0,0,0,0,0,-1,1000,638,0,0
-217,386,0,0,0,0,0,0,0,0,0,-1,1007,638,0,0
-210,386,0,0,0,0,0,0,0,0,0,-1,1014,638,0,0
-203,386,0,0,0,0,0,0,0,0,0,-1,1021,638,0,0
-196,386,0,0,0,0,0,0,0,0,0,-1,1028,638,0,0
-189,386,0,0,0,0,0,0,0,0,0,-1,1035,638,0,0
-182,386,0,0,0,0,0,0,0,0,0,-1,1042,638,0,0
-175,386,0,0,0,0,0,0,0,0,0,-1,1049,638,0,0
-168,386,0,0,0,0,0,0,0,0,0,-1,1056,638,0,0
-161,386,0,0,0,0,0,0,0,0,0,-1,1063,638,0,0
-154,386,0,0,0,0,0,0,0,0,0,-1,1070,638,0,0
-147,386,0,0,0,0,0,0,0,0,0,-1,1077,638,0,0
-140,386,0,0,0,0,0,0,0,0,0,-1,1084,638,0,0
-133,386,0,0,0,0,0,0,0,0,0,-1,1091,638,0,0
-126,386,0,0,0,0,0,0,0,0,0,-1,1098,638,0,0
-119,386,0,0,0,0,0,0,0,0,0,-1,1105,638,0,0
-112,386,0,0,0,0,0,0,0,0,0,-1,1112,638,0,0
-105,386,0,0,0,0,0,0,0,0,0,-1,1119,638,0,0
-98,386,0,0,0,0,0,0,0,0,0,-1,1126,638,0,0
-91,386,0,0,0,0,0,0,0,0,0,-1,1133,638,0,0
-84,386,0,0,0,0,0,0,0,0,0,-1,1140,638,0,0
-77,386,0,0,0,0,0,0,0,0,0,-1,1147,638,0,0
-70,386,0,0,0,0,0,0,0,0,0,-1,1154,638,0,0
-63,386,0,0,0,0,0,0,0,0,0,-1,1161,638,0,0
-56,386,0,0,0,0,0,0,0,0,0,-1,1168,638,0,0
-49,386,0,0,0,0,0,0,0,0,0,-1,1175,638,0,0
-42,386,0,0,0,0,0,0,0,0,0,-1,1182,638,0,0
-35,386,0,0,0,0,0,0,0,0,0,-1,1189,638,0,0
-28,386,0,0,0,0,0,0,0,0,0,-1,1196,638,0,0
-21,386,0,0,0,0,0,0,0,0,0,-1,1203,638,0,0
-14,386,0,0,0,0,0,0,0,0,0,-1,1210,638,0,0
-7,386,0,0,0,0,0,0,0,0,0,-1,1217,638,0,0
0,386,0,0,0,0,0,0,0,0,0,-1,1224,638,0,0
7,386,0,0,0,0,0,0,0,0,0,-1,1231,638,0,0
14,386,0,0,0,0,0,0,0,0,0,-1,1238,638,0,0
21,386,0,0,0,0,0,0,0,0,0,-1,1245,638,0,0
28,386,0,0,0,0,0,0,0,0,0,-1,1252,638,0,0
35,386,0,0,0,0,0,0,0,0,0,-1,1259,638,0,0
42,386,0,0,0,0,0,0,0,0,0,-1,1266,638,0,0
49,386,0,0,0,0,0,0,0,0,0,-1,1273,638,0,0
56,386,0,0,0,0,0,0,0,0,0,-1,1280,638,0,0
63,386,0,0,0,0,0,0,0,0,0,-1,1287,638,0,0
70,386,0,0,0,0,0,0,0,0,0,-1,1294,638,0,0
77,386,0,0,0,0,0,0,0,0,0,-1,1301,638,0,0
84,386,0,0,0,0,0,0,0,0,0,-1,1308,638,0,0
91,386,0,0,0,0,0,0,0,0,0,-1,1315,638,0,0
98,386,0,0,0,0,0,0,0,0,0,-1,1322,638,0,0
105,386,0,0,0,0,0,0,0,0,0,-1,1329,638,0,0
112,386,0,0,0,0,0,0,0,0,0,-1,1336,638,0,0
119,386,0,0,0,0,0,0,0,0,0,-1,1343,638,0,0
126,386,0,0,0,0,0,0,0,0,0,-1,1350,638,0,0
133,386,0,0,0,0,0,0,0,0,0,-1,1357,638,0,0
140,386,0,0,0,0,0,0,0,0,0,-1,1364,638,0,0
147,386,0,0,0,0,0,0,0,0,0,-1,1371,638,0,0
154,386,0,0,0,0,0,0,0,0,0,-1,1378,638,0,0
161,386,0,0,0,0,0,0,0,0,0,-1,1385,638,0,0
168,386,0,0,0,0,0,0,0,0,0,-1,1392,638,0,0
175,386,0,0,0,0,0,0,0,0,0,-1,1399,638,0,0
182,386,0,0,0,0,0,0,0,0,0,-1,1406,638,0,0
189,386,0,0,0,0,0,0,0,0,0,-1,1413,638,0,0
196,386,0,0,0,0,0,0,0,0,0,-1,1420,638,0,0
203,386,0,0,0,0,0,0,0,0,0,-1,1427,638,0,0
210,386,0,0,0,0,0,0,0,0,0,-1,1434,638,0,0
217,386,0,0,0,0,0,0,0,0,0,-1,1441,638,0,0
224,386,0,0,0,0,0,0,0,0,0,-1,1448,638,0,0
231,386,0,0,0,0,0,0,0,0,0,-1,1455,638,0,0
238,386,0,0,0,0,0,0,0,0,0,-1,1462,638,0,0
245,386,0,0,0,0,0,0,0,0,0,-1,1469,638,0,0
252,386,0,0,0,0,0,0,0,0,0,-1,1476,638,0,0
259,386,0,0,0,0,0,0,0,0,0,-1,1483,638,0,0
266,386,0,0,0,0,0,0,0,0,0,-1,1490,638,0,0
273,386,0,0,0,0,0,0,0,0,0,-1,1497,638,0,0
280,386,0,0,0,0,0,0,0,0,0,-1,1504,638,0,0
287,386,0,0,0,0,0,0,0,0,0,-1,1511,638,0,0
294,386,0,0,0,0,0,0,0,0,0,-1,1518,638,0,0
301,386,0,0,0,0,0,0,0,0,0,-1,1525,638,0,0
308,386,0,0,0,0,0,0,0,0,0,-1,1532,638,0,0
315,386,0,0,0,0,0,0,0,0,0,-1,1539,638,0,0
322,386,0,0,0,0,0,0,0,0,0,-1,1546,638,0,0
329,386,0,0,0,0,0,0,0,0,0,-1,1553,638,0,0
336,386,0,0,0,0,0,0,0,0,0,-1,1560,638,0,0
343,386,0,0,0,0,0,0,0,0,0,-1,1567,638,0,0
350,386,0,0,0,0,0,0,0,0,0,-1,1574,638,0,0
357,386,0,0,0,0,0,0,0,0,0,-1,1581,638,0,0
364,386,0,0,0,0,0,0,0,0,0,-1,1588,638,0,0
371,386,0,0,0,0,0,0,0,0,0,-1,1595,638,0,0
378,386,0,0,0,0,0,0,0,0,0,-1,1602,638,0,0
385,386,0,0,0,0,0,0,0,0,0,-1,1609,638,0,0
392,386,0,0,0,0,0,0,0,0,0,-1,1616,638,0,0
399,386,0,0,0,0,0,0,0,0,0,-1,1623,638,0,0
406,386,0,0,0,0,0,0,0,0,0,-1,1630,638,0,0
413,386,0,0,0,0,0,0,0,0,0,-1,1637,638,0,0
420,386,0,0,0,0,0,0,0,0,0,-1,1644,638,0,0
427,386,0,0,0,0,0,0,0,0,0,-1,1651,638,0,0
434,386,0,0,0,0,0,0,0,0,0,-1,1658,638,0,0
441,386,0,0,0,0,0,0,0,0,0,-1,1665,638,0,0
448,386,0,0,0,0,0,0,0,0,0,-1,1672,638,0,0
455,386,0,0,0,0,0,0,0,0,0,-1,1679,638,0,0
462,386,0,0,0,0,0,0,0,0,0,-1,1686,638,0,0
469,386,9.84692,1.55804,0,0,0,0,0,0,0,-1,1693,638,9.84691,-1.55807
476,386,10.6145,0.986511,0,0,0,0,0,0,0,-1,1700,638,10.6145,-0.986529
483,386,11.4113,0.732971,0,0,0,0,0,0,0,-1,1707,638,11.4112,-0.732958
490,386,7.79785,1.79572,0,0,0,0,0,0,0,-1,1714,638,7.79788,-1.7957
497,386,8.96362,1.77081,0,0,0,0,0,0,0,-1,1721,638,8.96357,-1.77081
504,386,10.0555,1.69427,0,0,0,0,0,0,0,-1,1728,638,10.0555,-1.69426
511,386,11.2172,1.534,0,0,0,0,0,0,0,-1,1735,638,11.2172,-1.53398
518,386,7.41553,1.75238,0,0,0,0,0,0,0,-1,1742,638,7.41547,-1.75238
525,386,8.82422,-1.1449,0,0,0,0,0,0,0,-1,1749,638,8.82426,1.14492
532,386,10.6432,0.617371,0,0,0,0,0,0,0,-1,1756,638,10.6432,-0.617359
539,386,9.62061,-0.393616,0,0,0,0,0,0,0,-1,1763,638,9.62059,0.393634
546,386,10.7963,-2.854,0,0,0,0,0,0,0,-1,1770,638,10.7962,2.854
553,386,16.9939,-7.27942,0,0,0,0,0,0,0,-1,1777,638,16.9939,7.27944
560,386,25.4965,-12.926,0,0,0,0,0,0,0,-1,1784,638,25.4964,12.926
567,386,25.4778,-12.0065,0.00341582,0.000351137,0.000538082,0.00350755,0.000259409,0.16885,0.00225687,0.045365,1791,638,25.4777,12.0065
574,386,25.5724,-11.2997,0.00242257,0.000366983,0.000396382,0.00249636,0.000293197,0.184043,0.00157562,0.0143379,1798,638,25.5724,11.2997
581,386,25.5079,-10.6343,0.00169879,0.000618479,0.000413644,0.00183898,0.000478289,0.326764,0.00110173,0.0154202,1805,638,25.5079,10.6343
588,386,25.506,-9.9389,0.00126767,0.000958957,0.000572866,0.00170661,0.000520019,0.653799,0.00101006,0.0146352,1812,638,25.5059,9.93892
595,386,25.4802,-9.23163,0.00121014,0.00143896,0.000904684,0.00223644,0.000412657,0.848297,0.00137422,0.0153859,1819,638,25.4803,9.23162
602,386,25.4302,-8.53394,0.00151174,0.00203228,0.00141708,0.00321279,0.000331235,0.876219,0.00204043,0.0164305,1826,638,25.4302,8.53392
609,386,25.4136,-7.84717,0.00194518,0.00273493,0.00198549,0.00436444,0.000315675,0.883558,0.00281031,0.015346,1833,638,25.4136,7.84716
616,386,25.3884,-7.13,0.0023628,0.00338711,0.00244198,0.00537006,0.000379852,0.888765,0.00346038,0.0125179,1840,638,25.3884,7.12999
623,386,25.3335,-6.41058,0.00312504,0.00415304,0.00309651,0.00677792,0.000500164,0.867645,0.00436146,0.0111823,1847,638,25.3335,6.41059
630,386,25.4595,-5.67944,0.00383932,0.00475617,0.00357774,0.00790474,0.000690749,0.849117,0.00505533,0.0374203,1854,638,25.4595,5.67947
637,386,25.6478,-4.88385,0,0,0,0,0,0,0,-1,1861,638,25.6479,4.88382
644,386,11.6521,0.723328,0,0,0,0,0,0,0,-1,1868,638,11.6521,-0.723355
651,386,9.3866,1.31097,0,0,0,0,0,0,0,-1,1875,638,9.3866,-1.31095
658,386,12.0731,-0.00415039,0,0,0,0,0,0,0,-1,1882,638,12.0731,0.00412803
665,386,6.33167,1.78601,0,0,0,0,0,0,0,-1,1889,638,6.33171,-1.78601
672,386,7.23352,2.14435,0,0,0,0,0,0,0,-1,1896,638,7.23353,-2.14433
679,386,8.07764,2.57104,0,0,0,0,0,0,0,-1,1903,638,8.07758,-2.57103
686,386,0,0,0,0,0,0,0,0,0,-1,1910,638,0,0
693,386,0,0,0,0,0,0,0,0,0,-1,1917,638,0,0
700,386,0,0,0,0,0,0,0,0,0,-1,1924,638,0,0
707,386,0,0,0,0,0,0,0,0,0,-1,1931,638,0,0
714,386,0,0,0,0,0,0,0,0,0,-1,1938,638,0,0
721,386,0,0,0,0,0,0,0,0,0,-1,1945,638,0,0
728,386,0,0,0,0,0,0,0,0,0,-1,1952,638,0,0
735,386,0,0,0,0,0,0,0,0,0,-1,1959,638,0,0
742,386,0,0,0,0,0,0,0,0,0,-1,1966,638,0,0
749,386,0,0,0,0,0,0,0,0,0,-1,1973,638,0,0
756,386,0,0,0,0,0,0,0,0,0,-1,1980,638,0,0
763,386,0,0,0,0,0,0,0,0,0,-1,1987,638,0,0
770,386,0,0,0,0,0,0,0,0,0,-1,1994,638,0,0
777,386,0,0,0,0,0,0,0,0,0,-1,2001,638,0,0
784,386,0,0,0,0,0,0,0,0,0,-1,2008,638,0,0
791,386,0,0,0,0,0,0,0,0,0,-1,2015,638,0,0
798,386,0,0,0,0,0,0,0,0,0,-1,2022,638,0,0
805,386,0,0,0,0,0,0,0,0,0,-1,2029,638,0,0
812,386,0,0,0,0,0,0,0,0,0,-1,2036,638,0,0
-700,379,0,0,0,0,0,0,0,0,0,-1,524,645,0,0
-693,379,0,0,0,0,0,0,0,0,0,-1,531,645,0,0
-686,379,0,0,0,0,0,0,0,0,0,-1,538,645,0,0
-679,379,0,0,0,0,0,0,0,0,0,-1,545,645,0,0
-672,379,0,0,0,0,0,0,0,0,0,-1,552,645,0,0
-665,379,0,0,0,0,0,0,0,0,0,-1,559,645,0,0
-658,379,0,0,0,0,0,0,0,0,0,-1,566,645,0,0
-651,379,0,0,0,0,0,0,0,0,0,-1,573,645,0,0
-644,379,0,0,0,0,0,0,0,0,0,-1,580,645,0,0
-637,379,0,0,0,0,0,0,0,0,0,-1,587,645,0,0
-630,379,0,0,0,0,0,0,0,0,0,-1,594,645,0,0
-623,379,0,0,0,0,0,0,0,0,0,-1,601,645,0,0
-616,379,0,0,0,0,0,0,0,0,0,-1,608,645,0,0
-609,379,0,0,0,0,0,0,0,0,0,-1,615,645,0,0
-602,379,0,0,0,0,0,0,0,0,0,-1,622,645,0,0
-595,379,0,0,0,0,0,0,0,0,0,-1,629,645,0,0
-588,379,0,0,0,0,0,0,0,0,0,-1,636,645,0,0
-581,379,0,0,0,0,0,0,0,0,0,-1,643,645,0,0
-574,379,0,0,0,0,0,0,0,0,0,-1,650,645,0,0
-567,379,-8.78058,0.59668,0,0,0,0,0,0,0,-1,657,645,-8.7806,-0.596692
-560,379,-9.53485,-0.211304,0,0,0,0,0,0,0,-1,664,645,-9.53487,0.211282
-553,379,-5.17108,-4.53119,0,0,0,0,0,0,0,-1,671,645,-5.17106,4.53117
-546,379,-6.23053,-4.92102,0,0,0,0,0,0,0,-1,678,645,-6.23054,4.92105
-539,379,-0.71698,-2.19427,0,0,0,0,0,0,0,-1,685,645,-0.716959,2.19427
-532,379,-7.69611,0.217224,0,0,0,0,0,0,0,-1,692,645,-7.69614,-0.217204
-525,379,-7.09833,-1.13043,0,0,0,0,0,0,0,-1,699,645,-7.0983,1.13041
-518,379,-13.126,-5.33893,0,0,0,0,0,0,0,-1,706,645,-13.126,5.33895
-511,379,-13.962,-6.46014,0,0,0,0,0,0,0,-1,713,645,-13.962,6.46017
-504,379,-13.925,-7.26251,0.00260722,0.0055964,-0.00362251,0.00802053,0.000183091,-0.981052,0.00528705,0.0310727,720,645,-13.9251,7.26252
-497,379,-14.003,-7.914,0.00207305,0.00426184,-0.00276564,0.00614175,0.000193148,-0.9738,0.00403166,0.0155441,727,645,-14.003,7.914
-490,379,-14.0206,-8.63312,0.00179065,0.00321463,-0.00214005,0.00475802,0.000247256,-0.945988,0.00309289,0.0122648,734,645,-14.0206,8.63309
-483,379,-14.0502,-9.33478,0.00163463,0.00231556,-0.00165448,0.00366424,0.000285946,-0.886873,0.00235331,0.0139219,741,645,-14.0502,9.33477
-476,379,-14.0656,-9.98016,0.00166683,0.001582,-0.00134201,0.0029671,0.000281732,-0.7696,0.00189117,0.0142755,748,645,-14.0656,9.98013
-469,379,-14.0995,-10.6242,0.00178698,0.000948006,-0.00110778,0.00255204,0.000182946,-0.604405,0.00164378,0.0129989,755,645,-14.0995,10.6242
-462,379,-14.1403,-11.3099,0.00193963,0.000407389,-0.000936786,0.00238367,-3.66595e-05,-0.442643,0.00160148,0.00981026,762,645,-14.1402,11.31
-455,379,-14.1776,-11.9902,0.00215205,-0.000210978,-0.000809832,0.00240295,-0.000461875,-0.300436,0.00177606,0.0097539,769,645,-14.1776,11.9902
-448,379,-14.1851,-12.6321,0.00245831,-0.000703214,-0.00076729,0.00263468,-0.000879593,-0.225947,0.00211163,0.0120964,776,645,-14.185,12.632
-441,379,-14.1854,-13.3351,0.00285631,-0.00093354,-0.000907416,0.00306237,-0.0011396,-0.223299,0.00250925,0.0222557,783,645,-14.1854,13.3351
-434,379,-14.0854,-14.1505,0,0,0,0,0,0,0,-1,790,645,-14.0854,14.1505
-427,379,-4.16113,-4.13452,0,0,0,0,0,0,0,-1,797,645,-4.16116,4.1345
-420,379,-4.63953,-3.46869,0,0,0,0,0,0,0,-1,804,645,-4.63953,3.46872
-413,379,-4.62543,-3.7912,0,0,0,0,0,0,0,-1,811,645,-4.62541,3.79123
-406,379,-4.64063,-4.38489,0,0,0,0,0,0,0,-1,818,645,-4.64065,4.3849
-399,379,-2.93536,-1.40118,0,0,0,0,0,0,0,-1,825,645,-2.93534,1.40119
-392,379,-4.16711,-0.466003,0,0,0,0,0,0,0,-1,832,645,-4.16714,0.465992
-385,379,-3.51862,0.441101,0,0,0,0,0,0,0,-1,839,645,-3.51859,-0.441072
-378,379,-5.3504,0.212219,0,0,0,0,0,0,0,-1,846,645,-5.35038,-0.212241
-371,379,-4.32092,-0.186707,0,0,0,0,0,0,0,-1,853,645,-4.3209,0.186707
-364,379,-3.40887,-0.549805,0,0,0,0,0,0,0,-1,860,645,-3.4089,0.549802
-357,379,0,0,0,0,0,0,0,0,0,-1,867,645,0,0
-350,379,0,0,0,0,0,0,0,0,0,-1,874,645,0,0
-343,379,0,0,0,0,0,0,0,0,0,-1,881,645,0,0
-336,379,0,0,0,0,0,0,0,0,0,-1,888,645,0,0
-329,379,0,0,0,0,0,0,0,0,0,-1,895,645,0,0
-322,379,0,0,0,0,0,0,0,0,0,-1,902,645,0,0
-315,379,0,0,0,0,0,0,0,0,0,-1,909,645,0,0
-308,379,0,0,0,0,0,0,0,0,0,-1,916,645,0,0
-301,379,0,0,0,0,0,0,0,0,0,-1,923,645,0,0
-294,379,0,0,0,0,0,0,0,0,0,-1,930,645,0,0
-287,379,0,0,0,0,0,0,0,0,0,-1,937,645,0,0
-280,379,0,0,0,0,0,0,0,0,0,-1,944,645,0,0
-273,379,0,0,0,0,0,0,0,0,0,-1,951,645,0,0
-266,379,0,0,0,0,0,0,0,0,0,-1,958,645,0,0
-259,379,0,0,0,0,0,0,0,0,0,-1,965,645,0,0
-252,379,0,0,0,0,0,0,0,0,0,-1,972,645,0,0
-245,379,0,0,0,0,0,0,0,0,0,-1,979,645,0,0
-238,379,0,0,0,0,0,0,0,0,0,-1,986,645,0,0
-231,379,0,0,0,0,0,0,0,0,0,-1,993,645,0,0
-224,379,0,0,0,0,0,0,0,0,0,-1,1000,645,0,0
-217,379,0,0,0,0,0,0,0,0,0,-1,1007,645,0,0
-210,379,0,0,0,0,0,0,0,0,0,-1,1014,645,0,0
-203,379,0,0,0,0,0,0,0,0,0,-1,1021,645,0,0
-196,379,0,0,0,0,0,0,0,0,0,-1,1028,645,0,0
-189,379,0,0,0,0,0,0,0,0,0,-1,1035,645,0,0
-182,379,0,0,0,0,0,0,0,0,0,-1,1042,645,0,0
-175,379,0,0,0,0,0,0,0,0,0,-1,1049,645,0,0
-168,379,0,0,0,0,0,0,0,0,0,-1,1056,645,0,0
-161,379,0,0,0,0,0,0,0,0,0,-1,1063,645,0,0
-154,379,0,0,0,0,0,0,0,0,0,-1,1070,645,0,0
-147,379,0,0,0,0,0,0,0,0,0,-1,1077,645,0,0
-140,379,0,0,0,0,0,0,0,0,0,-1,1084,645,0,0
-133,379,0,0,0,0,0,0,0,0,0,-1,1091,645,0,0
-126,379,0,0,0,0,0,0,0,0,0,-1,1098,645,0,0
-119,379,0,0,0,0,0,0,0,0,0,-1,1105,645,0,0
-112,379,0,0,0,0,0,0,0,0,0,-1,1112,645,0,0
-105,379,0,0,0,0,0,0,0,0,0,-1,1119,645,0,0
-98,379,0,0,0,0,0,0,0,0,0,-1,1126,645,0,0
-91,379,0,0,0,0,0,0,0,0,0,-1,1133,645,0,0
-84,379,0,0,0,0,0,0,0,0,0,-1,1140,645,0,0
-77,379,0,0,0,0,0,0,0,0,0,-1,1147,645,0,0
-70,379,0,0,0,0,0,0,0,0,0,-1,1154,645,0,0
-63,379,0,0,0,0,0,0,0,0,0,-1,1161,645,0,0
-56,379,0,0,0,0,0,0,0,0,0,-1,1168,645,0,0
-49,379,0,0,0,0,0,0,0,0,0,-1,1175,645,0,0
-42,379,0,0,0,0,0,0,0,0,0,-1,1182,645,0,0
-35,379,0,0,0,0,0,0,0,0,0,-1,1189,645,0,0
-28,379,0,0,0,0,0,0,0,0,0,-1,1196,645,0,0
-21,379,0,0,0,0,0,0,0,0,0,-1,1203,645,0,0
-14,379,0,0,0,0,0,0,0,0,0,-1,1210,645,0,0
-7,379,0,0,0,0,0,0,0,0,0,-1,1217,645,0,0
0,379,0,0,0,0,0,0,0,0,0,-1,1224,645,0,0
7,379,0,0,0,0,0,0,0,0,0,-1,1231,645,0,0
14,379,0,0,0,0,0,0,0,0,0,-1,1238,645,0,0
21,379,0,0,0,0,0,0,0,0,0,-1,1245,645,0,0
28,379,0,0,0,0,0,0,0,0,0,-1,1252,645,0,0
35,379,0,0,0,0,0,0,0,0,0,-1,1259,645,0,0
42,379,0,0,0,0,0,0,0,0,0,-1,1266,645,0,0
49,379,0,0,0,0,0,0,0,0,0,-1,1273,645,0,0
56,379,0,0,0,0,0,0,0,0,0,-1,1280,645,0,0
63,379,0,0,0,0,0,0,0,0,0,-1,1287,645,0,0
70,379,0,0,0,0,0,0,0,0,0,-1,1294,645,0,0
77,379,0,0,0,0,0,0,0,0,0,-1,1301,645,0,0
84,379,0,0,0,0,0,0,0,0,0,-1,1308,645,0,0
91,379,0,0,0,0,0,0,0,0,0,-1,1315,645,0,0
98,379,0,0,0,0,0,0,0,0,0,-1,1322,645,0,0
105,379,0,0,0,0,0,0,0,0,0,-1,1329,645,0,0
112,379,0,0,0,0,0,0,0,0,0,-1,1336,645,0,0
119,379,0,0,0,0,0,0,0,0,0,-1,1343,645,0,0
126,379,0,0,0,0,0,0,0,0,0,-1,1350,645,0,0
133,379,0,0,0,0,0,0,0,0,0,-1,1357,645,0,0
140,379,0,0,0,0,0,0,0,0,0,-1,1364,645,0,0
147,379,0,0,0,0,0,0,0,0,0,-1,1371,645,0,0
154,379,0,0,0,0,0,0,0,0,0,-1,1378,645,0,0
161,379,0,0,0,0,0,0,0,0,0,-1,1385,645,0,0
168,379,0,0,0,0,0,0,0,0,0,-1,1392,645,0,0
175,379,0,0,0,0,0,0,0,0,0,-1,1399,645,0,0
182,379,0,0,0,0,0,0,0,0,0,-1,1406,645,0,0
189,379,0,0,0,0,0,0,0,0,0,-1,1413,645,0,0
196,379,0,0,0,0,0,0,0,0,0,-1,1420,645,0,0
203,379,0,0,0,0,0,0,0,0,0,-1,1427,645,0,0
210,379,0,0,0,0,0,0,0,0,0,-1,1434,645,0,0
217,379,0,0,0,0,0,0,0,0,0,-1,1441,645,0,0
224,379,0,0,0,0,0,0,0,0,0,-1,1448,645,0,0
231,379,0,0,0,0,0,0,0,0,0,-1,1455,645,0,0
238,379,0,0,0,0,0,0,0,0,0,-1,1462,645,0,0
245,379,0,0,0,0,0,0,0,0,0,-1,1469,645,0,0
252,379,0,0,0,0,0,0,0,0,0,-1,1476,645,0,0
259,379,0,0,0,0,0,0,0,0,0,-1,1483,645,0,0
266,379,0,0,0,0,0,0,0,0,0,-1,1490,645,0,0
273,379,0,0,0,0,0,0,0,0,0,-1,1497,645,0,0
280,379,0,0,0,0,0,0,0,0,0,-1,1504,645,0,0
287,379,0,0,0,0,0,0,0,0,0,-1,1511,645,0,0
294,379,0,0,0,0,0,0,0,0,0,-1,1518,645,0,0
301,379,0,0,0,0,0,0,0,0,0,-1,1525,645,0,0
308,379,0,0,0,0,0,0,0,0,0,-1,1532,645,0,0
315,379,0,0,0,0,0,0,0,0,0,-1,1539,645,0,0
322,379,0,0,0,0,0,0,0,0,0,-1,1546,645,0,0
329,379,0,0,0,0,0,0,0,0,0,-1,1553,645,0,0
336,379,0,0,0,0,0,0,0,0,0,-1,1560,645,0,0
343,379,0,0,0,0,0,0,0,0,0,-1,1567,645,0,0
350,379,0,0,0,0,0,0,0,0,0,-1,1574,645,0,0
357,379,0,0,0,0,0,0,0,0,0,-1,1581,645,0,0
364,379,0,0,0,0,0,0,0,0,0,-1,1588,645,0,0
371,379,0,0,0,0,0,0,0,0,0,-1,1595,645,0,0
378,379,0,0,0,0,0,0,0,0,0,-1,1602,645,0,0
385,379,0,0,0,0,0,0,0,0,0,-1,1609,645,0,0
392,379,0,0,0,0,0,0,0,0,0,-1,1616,645,0,0
399,379,0,0,0,0,0,0,0,0,0,-1,1623,645,0,0
406,379,0,0,0,0,0,0,0,0,0,-1,1630,645,0,0
413,379,0,0,0,0,0,0,0,0,0,-1,1637,645,0,0
420,379,0,0,0,0,0,0,0,0,0,-1,1644,645,0,0
427,379,0,0,0,0,0,0,0,0,0,-1,1651,645,0,0
434,379,0,0,0,0,0,0,0,0,0,-1,1658,645,0,0
441,379,0,0,0,0,0,0,0,0,0,-1,1665,645,0,0
448,379,0,0,0,0,0,0,0,0,0,-1,1672,645,0,0
455,379,0,0,0,0,0,0,0,0,0,-1,1679,645,0,0
462,379,0,0,0,0,0,0,0,0,0,-1,1686,645,0,0
469,379,0,0,0,0,0,0,0,0,0,-1,1693,645,0,0
476,379,11.1787,0.830383,0,0,0,0,0,0,0,-1,1700,645,11.1787,-0.830365
483,379,7.4231,1.54321,0,0,0,0,0,0,0,-1,1707,645,7.42314,-1.54324
490,379,8.52881,1.56677,0,0,0,0,0,0,0,-1,1714,645,8.52878,-1.56677
497,379,9.63599,1.49573,0,0,0,0,0,0,0,-1,1721,645,9.63604,-1.4957
504,379,10.0833,1.35229,0,0,0,0,0,0,0,-1,1728,645,10.0832,-1.35227
511,379,8.14343,1.59912,0,0,0,0,0,0,0,-1,1735,645,8.14347,-1.59912
518,379,12.7955,-0.324097,0,0,0,0,0,0,0,-1,1742,645,12.7955,0.324101
525,379,6.03711,1.10352,0,0,0,0,0,0,0,-1,1749,645,6.03711,-1.10351
532,379,8.70947,0.887817,0,0,0,0,0,0,0,-1,1756,645,8.70953,-0.887808
539,379,9.87097,0.111389,0,0,0,0,0,0,0,-1,1763,645,9.87095,-0.111395
546,379,8.42383,-0.730652,0,0,0,0,0,0,0,-1,1770,645,8.42378,0.730638
553,379,19.2905,-7.67834,0,0,0,0,0,0,0,-1,1777,645,19.2905,7.67837
560,379,22.5734,-10.4749,0,0,0,0,0,0,0,-1,1784,645,22.5734,10.4749
567,379,26.0671,-12.1108,0,0,0,0,0,0,0,-1,1791,645,26.0672,12.1108
574,379,26.267,-11.2691,0.00260518,0.000205862,0.000196756,0.00262121,0.000189834,0.0812813,0.00168776,0.0154438,1798,645,26.267,11.2691
581,379,26.2533,-10.6047,0.00174224,0.000465883,0.00018343,0.00176808,0.000440045,0.139941,0.00106285,0.0160109,1805,645,26.2533,10.6047
588,379,26.2148,-9.9093,0.00124762,0.000745195,0.000319958,0.0014032,0.000589615,0.452589,0.000813573,0.0184273,1812,645,26.2149,9.90931
595,379,26.184,-9.21649,0.00115621,0.00118091,0.00061067,0.00177935,0.000557763,0.795509,0.00105087,0.0147523,1819,645,26.1839,9.21652
602,379,26.1434,-8.5304,0.00141541,0.00169762,0.00105615,0.00262205,0.000490978,0.851806,0.00160953,0.0158472,1826,645,26.1434,8.53042
609,379,26.087,-7.86169,0.00178178,0.00228258,0.00153724,0.00358968,0.000474682,0.866133,0.00225163,0.0178368,1833,645,26.0871,7.86171
616,379,26.0587,-7.1405,0.00208193,0.00276031,0.00186535,0.00431706,0.000525176,0.875334,0.00271994,0.013938,1840,645,26.0587,7.14049
623,379,26.0569,-6.37061,0.00256968,0.0033293,0.00234193,0.00532203,0.000576958,0.865787,0.00337219,0.0127489,1847,645,26.0569,6.37058
630,379,26.0272,-5.68347,0.00295538,0.00375267,0.00265909,0.00604283,0.000665218,0.859803,0.00382614,0.0145434,1854,645,26.0272,5.68344
637,379,26.0541,-4.86707,0.00294014,0.00412443,0.00277847,0.00637315,0.000691415,0.890386,0.00403808,0.0469294,1861,645,26.0541,4.86706
644,379,26.3655,-3.88623,0,0,0,0,0,0,0,-1,1868,645,26.3655,3.88623
651,379,12.9515,0.220825,0,0,0,0,0,0,0,-1,1875,645,12.9515,-0.220814
658,379,13.7498,0.37439,0,0,0,0,0,0,0,-1,1882,645,13.7498,-0.374371
665,379,11.9719,0.353333,0,0,0,0,0,0,0,-1,1889,645,11.9719,-0.353321
672,379,7.57605,2.15326,0,0,0,0,0,0,0,-1,1896,645,7.57599,-2.15326
679,379,8.55078,2.50409,0,0,0,0,0,0,0,-1,1903,645,8.55073,-2.50406
686,379,0,0,0,0,0,0,0,0,0,-1,1910,645,0,0
693,379,0,0,0,0,0,0,0,0,0,-1,1917,645,0,0
700,379,0,0,0,0,0,0,0,0,0,-1,1924,645,0,0
707,379,0,0,0,0,0,0,0,0,0,-1,1931,645,0,0
714,379,0,0,0,0,0,0,0,0,0,-1,1938,645,0,0
721,379,0,0,0,0,0,0,0,0,0,-1,1945,645,0,0
728,379,0,0,0,0,0,0,0,0,0,-1,1952,645,0,0
735,379,0,0,0,0,0,0,0,0,0,-1,1959,645,0,0
742,379,0,0,0,0,0,0,0,0,0,-1,1966,645,0,0
749,379,0,0,0,0,0,0,0,0,0,-1,1973,645,0,0
756,379,0,0,0,0,0,0,0,0,0,-1,1980,645,0,0
763,379,0,0,0,0,0,0,0,0,0,-1,1987,645,0,0
770,379,0,0,0,0,0,0,0,0,0,-1,1994,645,0,0
777,379,0,0,0,0,0,0,0,0,0,-1,2001,645,0,0
784,379,0,0,0,0,0,0,0,0,0,-1,2008,645,0,0
791,379,0,0,0,0,0,0,0,0,0,-1,2015,645,0,0
798,379,0,0,0,0,0,0,0,0,0,-1,2022,645,0,0
805,379,0,0,0,0,0,0,0,0,0,-1,2029,645,0,0
812,379,0,0,0,0,0,0,0,0,0,-1,2036,645,0,0
-700,372,0,0,0,0,0,0,0,0,0,-1,524,652,0,0
-693,372,0,0,0,0,0,0,0,0,0,-1,531,652,0,0
-686,372,0,0,0,0,0,0,0,0,0,-1,538,652,0,0
-679,372,0,0,0,0,0,0,0,0,0,-1,545,652,0,0
-672,372,0,0,0,0,0,0,0,0,0,-1,552,652,0,0
-665,372,0,0,0,0,0,0,0,0,0,-1,559,652,0,0
-658,372,0,0,0,0,0,0,0,0,0,-1,566,652,0,0
-651,372,0,0,0,0,0,0,0,0,0,-1,573,652,0,0
-644,372,0,0,0,0,0,0,0,0,0,-1,580,652,0,0
-637,372,0,0,0,0,0,0,0,0,0,-1,587,652,0,0
-630,372,0,0,0,0,0,0,0,0,0,-1,594,652,0,0
-623,372,0,0,0,0,0,0,0,0,0,-1,601,652,0,0
-616,372,0,0,0,0,0,0,0,0,0,-1,608,652,0,0
-609,372,0,0,0,0,0,0,0,0,0,-1,615,652,0,0
-602,372,0,0,0,0,0,0,0,0,0,-1,622,652,0,0
-595,372,0,0,0,0,0,0,0,0,0,-1,629,652,0,0
-588,372,0,0,0,0,0,0,0,0,0,-1,636,652,0,0
-581,372,0,0,0,0,0,0,0,0,0,-1,643,652,0,0
-574,372,0,0,0,0,0,0,0,0,0,-1,650,652,0,0
-567,372,-7.93744,0.73407,0,0,0,0,0,0,0,-1,657,652,-7.93741,-0.734076
-560,372,-8.78552,-0.158203,0,0,0,0,0,0,0,-1,664,652,-8.78552,0.158216
-553,372,-7.95551,1.61694,0,0,0,0,0,0,0,-1,671,652,-7.95552,-1.61697
-546,372,-4.2403,-3.75372,0,0,0,0,0,0,0,-1,678,652,-4.24028,3.75369
-539,372,-7.92285,-0.0650024,0,0,0,0,0,0,0,-1,685,652,-7.92287,0.0649772
-532,372,-8.59589,-0.419556,0,0,0,0,0,0,0,-1,692,652,-8.59591,0.419539
-525,372,-8.03674,-1.36804,0,0,0,0,0,0,0,-1,699,652,-8.03676,1.36806
-518,372,-14.6793,-5.73718,0,0,0,0,0,0,0,-1,706,652,-14.6793,5.7372
-511,372,-14.6262,-6.56702,0.00309275,0.00526032,-0.00351334,0.00785324,0.000499837,-0.935006,0.00507709,0.0373534,713,652,-14.6261,6.56703
-504,372,-14.6533,-7.20728,0.00249329,0.00414626,-0.00277703,0.00621719,0.000422368,-0.930032,0.00401142,0.017213,720,652,-14.6533,7.2073
-497,372,-14.6468,-7.91388,0.00213045,0.00308337,-0.00214587,0.00480504,0.000408779,-0.894644,0.00307617,0.0124849,727,652,-14.6468,7.9139
-490,372,-14.6929,-8.58032,0.00194062,0.00225512,-0.00169572,0.00380086,0.000394875,-0.831634,0.00241308,0.0134771,734,652,-14.6929,8.58032
-483,372,-14.735,-9.24994,0.00187384,0.00155143,-0.00134202,0.0030643,0.000360966,-0.725625,0.00193381,0.0137235,741,652,-14.735,9.24993
-476,372,-14.7563,-9.89355,0.0019732,0.00100828,-0.00114061,0.00272919,0.000252286,-0.585318,0.00174147,0.0151096,748,652,-14.7563,9.89357
-469,372,-14.7963,-10.5517,0.00213514,0.000567263,-0.00101607,0.00263454,6.78649e-05,-0.456825,0.00173418,0.0117634,755,652,-14.7963,10.5517
-462,372,-14.816,-11.2477,0.00233426,0.000227486,-0.000963359,0.00270835,-0.000146602,-0.370394,0.00185636,0.00966381,762,652,-14.816,11.2477
-455,372,-14.8532,-11.9154,0.00261587,-0.00020024,-0.000961553,0.00291287,-0.000497237,-0.299577,0.00212712,0.0103201,769,652,-14.8532,11.9154
-448,372,-14.864,-12.583,0.00297745,-0.000491313,-0.0010433,0.00326706,-0.000780928,-0.270777,0.00247968,0.0131109,776,652,-14.8639,12.583
-441,372,-14.8163,-13.3374,0,0,0,0,0,0,0,-1,783,652,-14.8163,13.3374
-434,372,-9.86865,-9.68494,0,0,0,0,0,0,0,-1,790,652,-9.86863,9.68492
-427,372,-4.54248,-3.56268,0,0,0,0,0,0,0,-1,797,652,-4.54247,3.56266
-420,372,-4.66168,-2.93597,0,0,0,0,0,0,0,-1,804,652,-4.66166,2.93599
-413,372,-4.74762,-3.29541,0,0,0,0,0,0,0,-1,811,652,-4.74763,3.29542
-406,372,-0.885437,-0.583923,0,0,0,0,0,0,0,-1,818,652,-0.885437,0.5839
-399,372,-3.97357,-0.825012,0,0,0,0,0,0,0,-1,825,652,-3.97359,0.825037
-392,372,-7.64337,0.173035,0,0,0,0,0,0,0,-1,832,652,-7.64337,-0.173019
-385,372,-6.48871,-0.0271606,0,0,0,0,0,0,0,-1,839,652,-6.48874,0.0271353
-378,372,-5.33044,-0.242432,0,0,0,0,0,0,0,-1,846,652,-5.33042,0.242457
-371,372,-4.40802,-0.495667,0,0,0,0,0,0,0,-1,853,652,-4.40802,0.495661
-364,372,0,0,0,0,0,0,0,0,0,-1,860,652,0,0
-357,372,0,0,0,0,0,0,0,0,0,-1,867,652,0,0
-350,372,0,0,0,0,0,0,0,0,0,-1,874,652,0,0
-343,372,0,0,0,0,0,0,0,0,0,-1,881,652,0,0
-336,372,0,0,0,0,0,0,0,0,0,-1,888,652,0,0
-329,372,0,0,0,0,0,0,0,0,0,-1,895,652,0,0
-322,372,0,0,0,0,0,0,0,0,0,-1,902,652,0,0
-315,372,0,0,0,0,0,0,0,0,0,-1,909,652,0,0
-308,372,0,0,0,0,0,0,0,0,0,-1,916,652,0,0
-301,372,0,0,0,0,0,0,0,0,0,-1,923,652,0,0
-294,372,0,0,0,0,0,0,0,0,0,-1,930,652,0,0
-287,372,0,0,0,0,0,0,0,0,0,-1,937,652,0,0
-280,372,0,0,0,0,0,0,0,0,0,-1,944,652,0,0
-273,372,0,0,0,0,0,0,0,0,0,-1,951,652,0,0
-266,372,0,0,0,0,0,0,0,0,0,-1,958,652,0,0
-259,372,0,0,0,0,0,0,0,0,0,-1,965,652,0,0
-252,372,0,0,0,0,0,0,0,0,0,-1,972,652,0,0
-245,372,0,0,0,0,0,0,0,0,0,-1,979,652,0,0
-238,372,0,0,0,0,0,0,0,0,0,-1,986,652,0,0
-231,372,0,0,0,0,0,0,0,0,0,-1,993,652,0,0
-224,372,0,0,0,0,0,0,0,0,0,-1,1000,652,0,0
-217,372,0,0,0,0,0,0,0,0,0,-1,1007,652,0,0
-210,372,0,0,0,0,0,0,0,0,0,-1,1014,652,0,0
-203,372,0,0,0,0,0,0,0,0,0,-1,1021,652,0,0
-196,372,0,0,0,0,0,0,0,0,0,-1,1028,652,0,0
-189,372,0,0,0,0,0,0,0,0,0,-1,1035,652,0,0
-182,372,0,0,0,0,0,0,0,0,0,-1,1042,652,0,0
-175,372,0,0,0,0,0,0,0,0,0,-1,1049,652,0,0
-168,372,0,0,0,0,0,0,0,0,0,-1,1056,652,0,0
-161,372,0,0,0,0,0,0,0,0,0,-1,1063,652,0,0
-154,372,0,0,0,0,0,0,0,0,0,-1,1070,652,0,0
-147,372,0,0,0,0,0,0,0,0,0,-1,1077,652,0,0
-140,372,0,0,0,0,0,0,0,0,0,-1,1084,652,0,0
-133,372,0,0,0,0,0,0,0,0,0,-1,1091,652,0,0
-126,372,0,0,0,0,0,0,0,0,0,-1,1098,652,0,0
-119,372,0,0,0,0,0,0,0,0,0,-1,1105,652,0,0
-112,372,0,0,0,0,0,0,0,0,0,-1,1112,652,0,0
-105,372,0,0,0,0,0,0,0,0,0,-1,1119,652,0,0
-98,372,0,0,0,0,0,0,0,0,0,-1,1126,652,0,0
-91,372,0,0,0,0,0,0,0,0,0,-1,1133,652,0,0
-84,372,0,0,0,0,0,0,0,0,0,-1,1140,652,0,0
-77,372,0,0,0,0,0,0,0,0,0,-1,1147,652,0,0
-70,372,0,0,0,0,0,0,0,0,0,-1,1154,652,0,0
-63,372,0,0,0,0,0,0,0,0,0,-1,1161,652,0,0
-56,372,0,0,0,0,0,0,0,0,0,-1,1168,652,0,0
-49,372,0,0,0,0,0,0,0,0,0,-1,1175,652,0,0
-42,372,0,0,0,0,0,0,0,0,0,-1,1182,652,0,0
-35,372,0,0,0,0,0,0,0,0,0,-1,1189,652,0,0
-28,372,0,0,0,0,0,0,0,0,0,-1,1196,652,0,0
-21,372,0,0,0,0,0,0,0,0,0,-1,1203,652,0,0
-14,372,0,0,0,0,0,0,0,0,0,-1,1210,652,0,0
-7,372,0,0,0,0,0,0,0,0,0,-1,1217,652,0,0
0,372,0,0,0,0,0,0,0,0,0,-1,1224,652,0,0
7,372,0,0,0,0,0,0,0,0,0,-1,1231,652,0,0
14,372,0,0,0,0,0,0,0,0,0,-1,1238,652,0,0
21,372,0,0,0,0,0,0,0,0,0,-1,1245,652,0,0
28,372,0,0,0,0,0,0,0,0,0,-1,1252,652,0,0
35,372,0,0,0,0,0,0,0,0,0,-1,1259,652,0,0
42,372,0,0,0,0,0,0,0,0,0,-1,1266,652,0,0
49,372,0,0,0,0,0,0,0,0,0,-1,1273,652,0,0
56,372,0,0,0,0,0,0,0,0,0,-1,1280,652,0,0
63,372,0,0,0,0,0,0,0,0,0,-1,1287,652,0,0
70,372,0,0,0,0,0,0,0,0,0,-1,1294,652,0,0
77,372,0,0,0,0,0,0,0,0,0,-1,1301,652,0,0
84,372,0,0,0,0,0,0,0,0,0,-1,1308,652,0,0
91,372,0,0,0,0,0,0,0,0,0,-1,1315,652,0,0
98,372,0,0,0,0,0,0,0,0,0,-1,1322,652,0,0
105,372,0,0,0,0,0,0,0,0,0,-1,1329,652,0,0
112,372,0,0,0,0,0,0,0,0,0,-1,1336,652,0,0
119,372,0,0,0,0,0,0,0,0,0,-1,1343,652,0,0
126,372,0,0,0,0,0,0,0,0,0,-1,1350,652,0,0
133,372,0,0,0,0,0,0,0,0,0,-1,1357,652,0,0
140,372,0,0,0,0,0,0,0,0,0,-1,1364,652,0,0
147,372,0,0,0,0,0,0,0,0,0,-1,1371,652,0,0
154,372,0,0,0,0,0,0,0,0,0,-1,1378,652,0,0
161,372,0,0,0,0,0,0,0,0,0,-1,1385,652,0,0
168,372,0,0,0,0,0,0,0,0,0,-1,1392,652,0,0
175,372,0,0,0,0,0,0,0,0,0,-1,1399,652,0,0
182,372,0,0,0,0,0,0,0,0,0,-1,1406,652,0,0
189,372,0,0,0,0,0,0,0,0,0,-1,1413,652,0,0
196,372,0,0,0,0,0,0,0,0,0,-1,1420,652,0,0
203,372,0,0,0,0,0,0,0,0,0,-1,1427,652,0,0
210,372,0,0,0,0,0,0,0,0,0,-1,1434,652,0,0
217,372,0,0,0,0,0,0,0,0,0,-1,1441,652,0,0
224,372,0,0,0,0,0,0,0,0,0,-1,1448,652,0,0
231,372,0,0,0,0,0,0,0,0,0,-1,1455,652,0,0
238,372,0,0,0,0,0,0,0,0,0,-1,1462,652,0,0
245,372,0,0,0,0,0,0,0,0,0,-1,1469,652,0,0
252,372,0,0,0,0,0,0,0,0,0,-1,1476,652,0,0
259,372,0,0,0,0,0,0,0,0,0,-1,1483,652,0,0
266,372,0,0,0,0,0,0,0,0,0,-1,1490,652,0,0
273,372,0,0,0,0,0,0,0,0,0,-1,1497,652,0,0
280,372,0,0,0,0,0,0,0,0,0,-1,1504,652,0,0
287,372,0,0,0,0,0,0,0,0,0,-1,1511,652,0,0
294,372,0,0,0,0,0,0,0,0,0,-1,1518,652,0,0
301,372,0,0,0,0,0,0,0,0,0,-1,1525,652,0,0
308,372,0,0,0,0,0,0,0,0,0,-1,1532,652,0,0
315,372,0,0,0,0,0,0,0,0,0,-1,1539,652,0,0
322,372,0,0,0,0,0,0,0,0,0,-1,1546,652,0,0
329,372,0,0,0,0,0,0,0,0,0,-1,1553,652,0,0
336,372,0,0,0,0,0,0,0,0,0,-1,1560,652,0,0
343,372,0,0,0,0,0,0,0,0,0,-1,1567,652,0,0
350,372,0,0,0,0,0,0,0,0,0,-1,1574,652,0,0
357,372,0,0,0,0,0,0,0,0,0,-1,1581,652,0,0
364,372,0,0,0,0,0,0,0,0,0,-1,1588,652,0,0
371,372,0,0,0,0,0,0,0,0,0,-1,1595,652,0,0
378,372,0,0,0,0,0,0,0,0,0,-1,1602,652,0,0
385,372,0,0,0,0,0,0,0,0,0,-1,1609,652,0,0
392,372,0,0,0,0,0,0,0,0,0,-1,1616,652,0,0
399,372,0,0,0,0,0,0,0,0,0,-1,1623,652,0,0
406,372,0,0,0,0,0,0,0,0,0,-1,1630,652,0,0
413,372,0,0,0,0,0,0,0,0,0,-1,1637,652,0,0
420,372,0,0,0,0,0,0,0,0,0,-1,1644,652,0,0
427,372,0,0,0,0,0,0,0,0,0,-1,1651,652,0,0
434,372,0,0,0,0,0,0,0,0,0,-1,1658,652,0,0
441,372,0,0,0,0,0,0,0,0,0,-1,1665,652,0,0
448,372,0,0,0,0,0,0,0,0,0,-1,1672,652,0,0
455,372,0,0,0,0,0,0,0,0,0,-1,1679,652,0,0
462,372,0,0,0,0,0,0,0,0,0,-1,1686,652,0,0
469,372,0,0,0,0,0,0,0,0,0,-1,1693,652,0,0
476,372,0,0,0,0,0,0,0,0,0,-1,1700,652,0,0
483,372,8.74182,1.53125,0,0,0,0,0,0,0,-1,1707,652,8.74186,-1.53126
490,372,9.78455,1.67096,0,0,0,0,0,0,0,-1,1714,652,9.7846,-1.67093
497,372,9.97644,1.46069,0,0,0,0,0,0,0,-1,1721,652,9.97647,-1.46071
504,372,10.1216,1.28375,0,0,0,0,0,0,0,-1,1728,652,10.1216,-1.28376
511,372,11.7367,-0.0272217,0,0,0,0,0,0,0,-1,1735,652,11.7367,0.0272326
518,372,12.0657,-0.0995483,0,0,0,0,0,0,0,-1,1742,652,12.0657,0.0995285
525,372,12.3947,-0.171814,0,0,0,0,0,0,0,-1,1749,652,12.3946,0.171824
532,372,9.36597,1.72034,0,0,0,0,0,0,0,-1,1756,652,9.36597,-1.72036
539,372,7.82886,-0.0865479,0,0,0,0,0,0,0,-1,1763,652,7.82882,0.0865771
546,372,10.953,-0.187195,0,0,0,0,0,0,0,-1,1770,652,10.953,0.187181
553,372,14.1201,-4.83234,0,0,0,0,0,0,0,-1,1777,652,14.1201,4.83235
560,372,20.1057,-8.06934,0,0,0,0,0,0,0,-1,1784,652,20.1058,8.06936
567,372,27.0184,-12.0544,0,0,0,0,0,0,0,-1,1791,652,27.0184,12.0544
574,372,26.9921,-11.1452,0.00287435,0.000102662,8.41317e-05,0.0028769,0.00010011,0.0303167,0.00188545,0.0417217,1798,652,26.992,11.1452
581,372,26.9679,-10.5507,0.00188548,0.000340186,2.70533e-05,0.00188596,0.000339713,0.0174997,0.00116076,0.0215144,1805,652,26.9679,10.5507
588,372,26.9115,-9.87665,0.00133491,0.000520581,0.000131207,0.00135553,0.000499963,0.15587,0.000791539,0.0164931,1812,652,26.9115,9.87663
595,372,26.8822,-9.18732,0.00119434,0.000889665,0.000365359,0.00143785,0.000646156,0.587883,0.000831557,0.0141609,1819,652,26.8822,9.1873
602,372,26.8682,-8.5127,0.00137103,0.00131161,0.000723197,0.00206513,0.000617513,0.764872,0.00122399,0.0158917,1826,652,26.8682,8.51271
609,372,26.772,-7.8349,0.00165221,0.00177852,0.00112507,0.00284221,0.000588521,0.813437,0.00173228,0.0170092,1833,652,26.772,7.83489
616,372,26.7476,-7.10266,0.00182421,0.00212016,0.00135816,0.00333839,0.000605986,0.839661,0.00205362,0.015806,1840,652,26.7475,7.10264
623,372,26.7531,-6.34338,0.00207235,0.00253828,0.00169287,0.00401413,0.00059649,0.853777,0.00250108,0.012948,1847,652,26.753,6.34338
630,372,26.7223,-5.65186,0.00217384,0.00284412,0.00189448,0.00443288,0.000585085,0.872944,0.00278082,0.0169511,1854,652,26.7223,5.65188
637,372,26.7776,-4.96686,0.00189084,0.00304643,0.00188937,0.00444438,0.000492887,0.933789,0.00281306,0.0280373,1861,652,26.7776,4.96686
644,372,26.8593,-4.25696,0,0,0,0,0,0,0,-1,1868,652,26.8593,4.25694
651,372,21.3998,-0.888,0,0,0,0,0,0,0,-1,1875,652,21.3998,0.887992
658,372,14.157,0.280273,0,0,0,0,0,0,0,-1,1882,652,14.157,-0.280264
665,372,15.2286,0.463867,0,0,0,0,0,0,0,-1,1889,652,15.2287,-0.463854
672,372,9.34106,1.48444,0,0,0,0,0,0,0,-1,1896,652,9.34109,-1.48444
679,372,10.7308,2.32391,0,0,0,0,0,0,0,-1,1903,652,10.7309,-2.3239
686,372,11.6295,2.52997,0,0,0,0,0,0,0,-1,1910,652,11.6296,-2.52996
693,372,0,0,0,0,0,0,0,0,0,-1,1917,652,0,0
700,372,0,0,0,0,0,0,0,0,0,-1,1924,652,0,0
707,372,0,0,0,0,0,0,0,0,0,-1,1931,652,0,0
714,372,0,0,0,0,0,0,0,0,0,-1,1938,652,0,0
721,372,0,0,0,0,0,0,0,0,0,-1,1945,652,0,0
728,372,0,0,0,0,0,0,0,0,0,-1,1952,652,0,0
735,372,0,0,0,0,0,0,0,0,0,-1,1959,652,0,0
742,372,0,0,0,0,0,0,0,0,0,-1,1966,652,0,0
749,372,0,0,0,0,0,0,0,0,0,-1,1973,652,0,0
756,372,0,0,0,0,0,0,0,0,0,-1,1980,652,0,0
763,372,0,0,0,0,0,0,0,0,0,-1,1987,652,0,0
770,372,0,0,0,0,0,0,0,0,0,-1,1994,652,0,0
777,372,0,0,0,0,0,0,0,0,0,-1,2001,652,0,0
784,372,0,0,0,0,0,0,0,0,0,-1,2008,652,0,0
791,372,0,0,0,0,0,0,0,0,0,-1,2015,652,0,0
798,372,0,0,0,0,0,0,0,0,0,-1,2022,652,0,0
805,372,0,0,0,0,0,0,0,0,0,-1,2029,652,0,0
812,372,0,0,0,0,0,0,0,0,0,-1,2036,652,0,0
-700,365,0,0,0,0,0,0,0,0,0,-1,524,659,0,0
-693,365,0,0,0,0,0,0,0,0,0,-1,531,659,0,0
-686,365,0,0,0,0,0,0,0,0,0,-1,538,659,0,0
-679,365,0,0,0,0,0,0,0,0,0,-1,545,659,0,0
-672,365,0,0,0,0,0,0,0,0,0,-1,552,659,0,0
-665,365,0,0,0,0,0,0,0,0,0,-1,559,659,0,0
-658,365,0,0,0,0,0,0,0,0,0,-1,566,659,0,0
-651,365,0,0,0,0,0,0,0,0,0,-1,573,659,0,0
-644,365,0,0,0,0,0,0,0,0,0,-1,580,659,0,0
-637,365,0,0,0,0,0,0,0,0,0,-1,587,659,0,0
-630,365,0,0,0,0,0,0,0,0,0,-1,594,659,0,0
-623,365,0,0,0,0,0,0,0,0,0,-1,601,659,0,0
-616,365,0,0,0,0,0,0,0,0,0,-1,608,659,0,0
-609,365,0,0,0,0,0,0,0,0,0,-1,615,659,0,0
-602,365,0,0,0,0,0,0,0,0,0,-1,622,659,0,0
-595,365,0,0,0,0,0,0,0,0,0,-1,629,659,0,0
-588,365,0,0,0,0,0,0,0,0,0,-1,636,659,0,0
-581,365,0,0,0,0,0,0,0,0,0,-1,643,659,0,0
-574,365,-7.69281,1.59015,0,0,0,0,0,0,0,-1,650,659,-7.69282,-1.59018
-567,365,-8.2583,1.72638,0,0,0,0,0,0,0,-1,657,659,-8.25827,-1.72637
-560,365,-7.17767,0.275757,0,0,0,0,0,0,0,-1,664,659,-7.17768,-0.27577
-553,365,-10.0349,-0.169617,0,0,0,0,0,0,0,-1,671,659,-10.0349,0.169593
-546,365,-10.6303,-1.51642,0,0,0,0,0,0,0,-1,678,659,-10.6303,1.5164
-539,365,-8.38599,1.52936,0,0,0,0,0,0,0,-1,685,659,-8.38598,-1.52935
-532,365,-8.52863,0.166504,0,0,0,0,0,0,0,-1,692,659,-8.52863,-0.166501
-525,365,-9.28229,-2.62726,0,0,0,0,0,0,0,-1,699,659,-9.28227,2.62724
-518,365,-15.3383,-5.64771,0,0,0,0,0,0,0,-1,706,659,-15.3383,5.64773
-511,365,-15.316,-6.47064,0.00298255,0.00399803,-0.00270323,0.00624079,0.000739796,-0.87823,0.00393716,0.0373047,713,659,-15.316,6.47061
-504,365,-15.3019,-7.19366,0.00249339,0.00307621,-0.00217551,0.00497974,0.000589864,-0.851977,0.00314171,0.0122529,720,659,-15.302,7.19369
-497,365,-15.3376,-7.88611,0.00221699,0.00222832,-0.00171494,0.0039376,0.000507708,-0.787051,0.00247326,0.0132256,727,659,-15.3376,7.8861
-490,365,-15.3911,-8.55963,0.0020608,0.00156747,-0.00138606,0.00322197,0.000406294,-0.697338,0.00202618,0.0148358,734,659,-15.3911,8.55962
-483,365,-15.4295,-9.22229,0.00205438,0.00102132,-0.00113397,0.00278392,0.000291775,-0.571688,0.00176674,0.0136794,741,659,-15.4295,9.22227
-476,365,-15.3951,-9.87689,0.00220637,0.000633668,-0.00101805,0.0027064,0.000133637,-0.456554,0.00176141,0.0178695,748,659,-15.3951,9.87691
-469,365,-15.4481,-10.5474,0.00241479,0.000361425,-0.000981622,0.00280855,-3.23353e-05,-0.381482,0.00188324,0.0176998,755,659,-15.4481,10.5474
-462,365,-15.4959,-11.2118,0.00267841,0.000202324,-0.00102707,0.00304898,-0.000168245,-0.346264,0.00209099,0.0149716,762,659,-15.4959,11.2118
-455,365,-15.5131,-11.8812,0.00305313,-5.37711e-05,-0.00112881,0.00341995,-0.000420589,-0.314194,0.00243231,0.017468,769,659,-15.5131,11.8812
-448,365,-15.4367,-12.6809,0.00346966,-0.000154149,-0.00130378,0.00388998,-0.00057447,-0.311867,0.00280449,0.0434483,776,659,-15.4367,12.6809
-441,365,-15.1903,-13.5991,0,0,0,0,0,0,0,-1,783,659,-15.1903,13.5991
-434,365,-5.45056,-3.98041,0,0,0,0,0,0,0,-1,790,659,-5.45055,3.98042
-427,365,-5.05377,-4.74689,0,0,0,0,0,0,0,-1,797,659,-5.05376,4.7469
-420,365,-4.58813,-3.16376,0,0,0,0,0,0,0,-1,804,659,-4.58816,3.16374
-413,365,0.141357,0.672729,0,0,0,0,0,0,0,-1,811,659,0.141365,-0.672714
-406,365,-1.75067,-0.934448,0,0,0,0,0,0,0,-1,818,659,-1.7507,0.934424
-399,365,-4.10242,-1.25439,0,0,0,0,0,0,0,-1,825,659,-4.10244,1.25438
-392,365,-7.46545,-0.779724,0,0,0,0,0,0,0,-1,832,659,-7.46543,0.779744
-385,365,-6.27875,-0.887573,0,0,0,0,0,0,0,-1,839,659,-6.27874,0.887545
-378,365,-5.34503,-0.263306,0,0,0,0,0,0,0,-1,846,659,-5.34504,0.263275
-371,365,0,0,0,0,0,0,0,0,0,-1,853,659,0,0
-364,365,0,0,0,0,0,0,0,0,0,-1,860,659,0,0
-357,365,0,0,0,0,0,0,0,0,0,-1,867,659,0,0
-350,365,0,0,0,0,0,0,0,0,0,-1,874,659,0,0
-343,365,0,0,0,0,0,0,0,0,0,-1,881,659,0,0
-336,365,0,0,0,0,0,0,0,0,0,-1,888,659,0,0
-329,365,0,0,0,0,0,0,0,0,0,-1,895,659,0,0
-322,365,0,0,0,0,0,0,0,0,0,-1,902,659,0,0
-315,365,0,0,0,0,0,0,0,0,0,-1,909,659,0,0
-308,365,0,0,0,0,0,0,0,0,0,-1,916,659,0,0
-301,365,0,0,0,0,0,0,0,0,0,-1,923,659,0,0
-294,365,0,0,0,0,0,0,0,0,0,-1,930,659,0,0
-287,365,0,0,0,0,0,0,0,0,0,-1,937,659,0,0
-280,365,0,0,0,0,0,0,0,0,0,-1,944,659,0,0
-273,365,0,0,0,0,0,0,0,0,0,-1,951,659,0,0
-266,365,0,0,0,0,0,0,0,0,0,-1,958,659,0,0
-259,365,0,0,0,0,0,0,0,0,0,-1,965,659,0,0
-252,365,0,0,0,0,0,0,0,0,0,-1,972,659,0,0
-245,365,0,0,0,0,0,0,0,0,0,-1,979,659,0,0
-238,365,0,0,0,0,0,0,0,0,0,-1,986,659,0,0
-231,365,0,0,0,0,0,0,0,0,0,-1,993,659,0,0
-224,365,0,0,0,0,0,0,0,0,0,-1,1000,659,0,0
-217,365,0,0,0,0,0,0,0,0,0,-1,1007,659,0,0
-210,365,0,0,0,0,0,0,0,0,0,-1,1014,659,0,0
-203,365,0,0,0,0,0,0,0,0,0,-1,1021,659,0,0
-196,365,0,0,0,0,0,0,0,0,0,-1,1028,659,0,0
-189,365,0,0,0,0,0,0,0,0,0,-1,1035,659,0,0
-182,365,0,0,0,0,0,0,0,0,0,-1,1042,659,0,0
-175,365,0,0,0,0,0,0,0,0,0,-1,1049,659,0,0
-168,365,0,0,0,0,0,0,0,0,0,-1,1056,659,0,0
-161,365,0,0,0,0,0,0,0,0,0,-1,1063,659,0,0
-154,365,0,0,0,0,0,0,0,0,0,-1,1070,659,0,0
-147,365,0,0,0,0,0,0,0,0,0,-1,1077,659,0,0
-140,365,0,0,0,0,0,0,0,0,0,-1,1084,659,0,0
-133,365,0,0,0,0,0,0,0,0,0,-1,1091,659,0,0
-126,365,0,0,0,0,0,0,0,0,0,-1,1098,659,0,0
-119,365,0,0,0,0,0,0,0,0,0,-1,1105,659,0,0
-112,365,0,0,0,0,0,0,0,0,0,-1,1112,659,0,0
-105,365,0,0,0,0,0,0,0,0,0,-1,1119,659,0,0
-98,365,0,0,0,0,0,0,0,0,0,-1,1126,659,0,0
-91,365,0,0,0,0,0,0,0,0,0,-1,1133,659,0,0
-84,365,0,0,0,0,0,0,0,0,0,-1,1140,659,0,0
-77,365,0,0,0,0,0,0,0,0,0,-1,1147,659,0,0
-70,365,0,0,0,0,0,0,0,0,0,-1,1154,659,0,0
-63,365,0,0,0,0,0,0,0,0,0,-1,1161,659,0,0
-56,365,0,0,0,0,0,0,0,0,0,-1,1168,659,0,0
-49,365,0,0,0,0,0,0,0,0,0,-1,1175,659,0,0
-42,365,0,0,0,0,0,0,0,0,0,-1,1182,659,0,0
-35,365,0,0,0,0,0,0,0,0,0,-1,1189,659,0,0
-28,365,0,0,0,0,0,0,0,0,0,-1,1196,659,0,0
-21,365,0,0,0,0,0,0,0,0,0,-1,1203,659,0,0
-14,365,0,0,0,0,0,0,0,0,0,-1,1210,659,0,0
-7,365,0,0,0,0,0,0,0,0,0,-1,1217,659,0,0
0,365,0,0,0,0,0,0,0,0,0,-1,1224,659,0,0
7,365,0,0,0,0,0,0,0,0,0,-1,1231,659,0,0
14,365,0,0,0,0,0,0,0,0,0,-1,1238,659,0,0
21,365,0,0,0,0,0,0,0,0,0,-1,1245,659,0,0
28,365,0,0,0,0,0,0,0,0,0,-1,1252,659,0,0
35,365,0,0,0,0,0,0,0,0,0,-1,1259,659,0,0
42,365,0,0,0,0,0,0,0,0,0,-1,1266,659,0,0
49,365,0,0,0,0,0,0,0,0,0,-1,1273,659,0,0
56,365,0,0,0,0,0,0,0,0,0,-1,1280,659,0,0
63,365,0,0,0,0,0,0,0,0,0,-1,1287,659,0,0
70,365,0,0,0,0,0,0,0,0,0,-1,1294,659,0,0
77,365,0,0,0,0,0,0,0,0,0,-1,1301,659,0,0
84,365,0,0,0,0,0,0,0,0,0,-1,1308,659,0,0
91,365,0,0,0,0,0,0,0,0,0,-1,1315,659,0,0
98,365,0,0,0,0,0,0,0,0,0,-1,1322,659,0,0
105,365,0,0,0,0,0,0,0,0,0,-1,1329,659,0,0
112,365,0,0,0,0,0,0,0,0,0,-1,1336,659,0,0
119,365,0,0,0,0,0,0,0,0,0,-1,1343,659,0,0
126,365,0,0,0,0,0,0,0,0,0,-1,1350,659,0,0
133,365,0,0,0,0,0,0,0,0,0,-1,1357,659,0,0
140,365,0,0,0,0,0,0,0,0,0,-1,1364,659,0,0
147,365,0,0,0,0,0,0,0,0,0,-1,1371,659,0,0
154,365,0,0,0,0,0,0,0,0,0,-1,1378,659,0,0
161,365,0,0,0,0,0,0,0,0,0,-1,1385,659,0,0
168,365,0,0,0,0,0,0,0,0,0,-1,1392,659,0,0
175,365,0,0,0,0,0,0,0,0,0,-1,1399,659,0,0
182,365,0,0,0,0,0,0,0,0,0,-1,1406,659,0,0
189,365,0,0,0,0,0,0,0,0,0,-1,1413,659,0,0
196,365,0,0,0,0,0,0,0,0,0,-1,1420,659,0,0
203,365,0,0,0,0,0,0,0,0,0,-1,1427,659,0,0
210,365,0,0,0,0,0,0,0,0,0,-1,1434,659,0,0
217,365,0,0,0,0,0,0,0,0,0,-1,1441,659,0,0
224,365,0,0,0,0,0,0,0,0,0,-1,1448,659,0,0
231,365,0,0,0,0,0,0,0,0,0,-1,1455,659,0,0
238,365,0,0,0,0,0,0,0,0,0,-1,1462,659,0,0
245,365,0,0,0,0,0,0,0,0,0,-1,1469,659,0,0
252,365,0,0,0,0,0,0,0,0,0,-1,1476,659,0,0
259,365,0,0,0,0,0,0,0,0,0,-1,1483,659,0,0
266,365,0,0,0,0,0,0,0,0,0,-1,1490,659,0,0
273,365,0,0,0,0,0,0,0,0,0,-1,1497,659,0,0
280,365,0,0,0,0,0,0,0,0,0,-1,1504,659,0,0
287,365,0,0,0,0,0,0,0,0,0,-1,1511,659,0,0
294,365,0,0,0,0,0,0,0,0,0,-1,1518,659,0,0
301,365,0,0,0,0,0,0,0,0,0,-1,1525,659,0,0
308,365,0,0,0,0,0,0,0,0,0,-1,1532,659,0,0
315,365,0,0,0,0,0,0,0,0,0,-1,1539,659,0,0
322,365,0,0,0,0,0,0,0,0,0,-1,1546,659,0,0
329,365,0,0,0,0,0,0,0,0,0,-1,1553,659,0,0
336,365,0,0,0,0,0,0,0,0,0,-1,1560,659,0,0
343,365,0,0,0,0,0,0,0,0,0,-1,1567,659,0,0
350,365,0,0,0,0,0,0,0,0,0,-1,1574,659,0,0
357,365,0,0,0,0,0,0,0,0,0,-1,1581,659,0,0
364,365,0,0,0,0,0,0,0,0,0,-1,1588,659,0,0
371,365,0,0,0,0,0,0,0,0,0,-1,1595,659,0,0
378,365,0,0,0,0,0,0,0,0,0,-1,1602,659,0,0
385,365,0,0,0,0,0,0,0,0,0,-1,1609,659,0,0
392,365,0,0,0,0,0,0,0,0,0,-1,1616,659,0,0
399,365,0,0,0,0,0,0,0,0,0,-1,1623,659,0,0
406,365,0,0,0,0,0,0,0,0,0,-1,1630,659,0,0
413,365,0,0,0,0,0,0,0,0,0,-1,1637,659,0,0
420,365,0,0,0,0,0,0,0,0,0,-1,1644,659,0,0
427,365,0,0,0,0,0,0,0,0,0,-1,1651,659,0,0
434,365,0,0,0,0,0,0,0,0,0,-1,1658,659,0,0
441,365,0,0,0,0,0,0,0,0,0,-1,1665,659,0,0
448,365,0,0,0,0,0,0,0,0,0,-1,1672,659,0,0
455,365,0,0,0,0,0,0,0,0,0,-1,1679,659,0,0
462,365,0,0,0,0,0,0,0,0,0,-1,1686,659,0,0
469,365,0,0,0,0,0,0,0,0,0,-1,1693,659,0,0
476,365,0,0,0,0,0,0,0,0,0,-1,1700,659,0,0
483,365,0,0,0,0,0,0,0,0,0,-1,1707,659,0,0
490,365,8.39551,0.471252,0,0,0,0,0,0,0,-1,1714,659,8.39551,-0.471241
497,365,9.89233,1.35394,0,0,0,0,0,0,0,-1,1721,659,9.89237,-1.35396
504,365,10.1414,1.18005,0,0,0,0,0,0,0,-1,1728,659,10.1413,-1.18004
511,365,10.5151,0.993896,0,0,0,0,0,0,0,-1,1735,659,10.5152,-0.993894
518,365,11.2029,0.398132,0,0,0,0,0,0,0,-1,1742,659,11.2029,-0.398136
525,365,15.5748,3.85303,0,0,0,0,0,0,0,-1,1749,659,15.5748,-3.85303
532,365,11.2446,1.00629,0,0,0,0,0,0,0,-1,1756,659,11.2446,-1.00631
539,365,12.6301,1.03204,0,0,0,0,0,0,0,-1,1763,659,12.6302,-1.03204
546,365,11.647,0.84198,0,0,0,0,0,0,0,-1,1770,659,11.6469,-0.841955
553,365,12.028,-0.558899,0,0,0,0,0,0,0,-1,1777,659,12.028,0.558873
560,365,14.5372,-4.55548,0,0,0,0,0,0,0,-1,1784,659,14.5373,4.55547
567,365,20.5676,-7.53888,0,0,0,0,0,0,0,-1,1791,659,20.5676,7.53887
574,365,27.943,-11.0339,0,0,0,0,0,0,0,-1,1798,659,27.943,11.0339
581,365,27.6693,-10.4398,0,0,0,0,0,0,0,-1,1805,659,27.6693,10.4398
588,365,27.5829,-9.88708,0.00127003,0.000388679,-3.89829e-05,0.00127175,0.000386958,-0.0441161,0.000752764,0.0250739,1812,659,27.5828,9.88705
595,365,27.5767,-9.1449,0.00107907,0.00068839,0.000152101,0.00113131,0.000636158,0.330789,0.00065485,0.0136514,1819,659,27.5767,9.14492
602,365,27.5349,-8.43463,0.00116809,0.0010029,0.000417496,0.00151108,0.000659909,0.687742,0.000874751,0.0157892,1826,659,27.535,8.43464
609,365,27.4598,-7.7334,0.00141705,0.00134989,0.000764954,0.00214916,0.000617778,0.763465,0.00127764,0.0166831,1833,659,27.4599,7.73343
616,365,27.4659,-7.0083,0.00155079,0.00158388,0.00095687,0.00252435,0.00061032,0.794042,0.00152084,0.0178325,1840,659,27.4659,7.00831
623,365,27.4761,-6.31165,0.00165627,0.0018656,0.00119297,0.00295849,0.000563376,0.829154,0.00181394,0.0119022,1847,659,27.4761,6.31166
630,365,27.4247,-5.63757,0.00161396,0.00207617,0.00133517,0.00320009,0.000490039,0.871093,0.00199026,0.0155957,1854,659,27.4247,5.63755
637,365,27.3988,-4.95941,0.00121754,0.00215764,0.00127067,0.00304242,0.000332762,0.962556,0.00192696,0.0216239,1861,659,27.3988,4.95939
644,365,27.3925,-4.2702,0.000323258,0.00215833,0.000991945,0.00259202,-0.000110438,1.15862,0.00176598,0.026944,1868,659,27.3924,4.27019
651,365,27.5286,-3.48199,0,0,0,0,0,0,0,-1,1875,659,27.5285,3.48201
658,365,24.745,-2.13275,0,0,0,0,0,0,0,-1,1882,659,24.745,2.13277
665,365,14.0961,0.769043,0,0,0,0,0,0,0,-1,1889,659,14.0961,-0.769063
672,365,10.0579,2.15088,0,0,0,0,0,0,0,-1,1896,659,10.0579,-2.15088
679,365,10.9718,2.19208,0,0,0,0,0,0,0,-1,1903,659,10.9718,-2.19211
686,365,12.2134,2.17108,0,0,0,0,0,0,0,-1,1910,659,12.2134,-2.17109
693,365,13.7141,1.98279,0,0,0,0,0,0,0,-1,1917,659,13.7141,-1.98278
700,365,0,0,0,0,0,0,0,0,0,-1,1924,659,0,0
707,365,0,0,0,0,0,0,0,0,0,-1,1931,659,0,0
714,365,0,0,0,0,0,0,0,0,0,-1,1938,659,0,0
721,365,0,0,0,0,0,0,0,0,0,-1,1945,659,0,0
728,365,0,0,0,0,0,0,0,0,0,-1,1952,659,0,0
735,365,0,0,0,0,0,0,0,0,0,-1,1959,659,0,0
742,365,0,0,0,0,0,0,0,0,0,-1,1966,659,0,0
749,365,0,0,0,0,0,0,0,0,0,-1,1973,659,0,0
756,365,0,0,0,0,0,0,0,0,0,-1,1980,659,0,0
763,365,0,0,0,0,0,0,0,0,0,-1,1987,659,0,0
770,365,0,0,0,0,0,0,0,0,0,-1,1994,659,0,0
777,365,0,0,0,0,0,0,0,0,0,-1,2001,659,0,0
784,365,0,0,0,0,0,0,0,0,0,-1,2008,659,0,0
791,365,0,0,0,0,0,0,0,0,0,-1,2015,659,0,0
798,365,0,0,0,0,0,0,0,0,0,-1,2022,659,0,0
805,365,0,0,0,0,0,0,0,0,0,-1,2029,659,0,0
812,365,0,0,0,0,0,0,0,0,0,-1,2036,659,0,0
-700,358,0,0,0,0,0,0,0,0,0,-1,524,666,0,0
-693,358,0,0,0,0,0,0,0,0,0,-1,531,666,0,0
-686,358,0,0,0,0,0,0,0,0,0,-1,538,666,0,0
-679,358,0,0,0,0,0,0,0,0,0,-1,545,666,0,0
-672,358,0,0,0,0,0,0,0,0,0,-1,552,666,0,0
-665,358,0,0,0,0,0,0,0,0,0,-1,559,666,0,0
-658,358,0,0,0,0,0,0,0,0,0,-1,566,666,0,0
-651,358,0,0,0,0,0,0,0,0,0,-1,573,666,0,0
-644,358,0,0,0,0,0,0,0,0,0,-1,580,666,0,0
-637,358,0,0,0,0,0,0,0,0,0,-1,587,666,0,0
-630,358,0,0,0,0,0,0,0,0,0,-1,594,666,0,0
-623,358,0,0,0,0,0,0,0,0,0,-1,601,666,0,0
-616,358,0,0,0,0,0,0,0,0,0,-1,608,666,0,0
-609,358,0,0,0,0,0,0,0,0,0,-1,615,666,0,0
-602,358,0,0,0,0,0,0,0,0,0,-1,622,666,0,0
-595,358,0,0,0,0,0,0,0,0,0,-1,629,666,0,0
-588,358,0,0,0,0,0,0,0,0,0,-1,636,666,0,0
-581,358,-8.31616,1.61993,0,0,0,0,0,0,0,-1,643,666,-8.31614,-1.61993
-574,358,-8.22406,1.75385,0,0,0,0,0,0,0,-1,650,666,-8.22408,-1.75383
-567,358,-8.14215,1.91577,0,0,0,0,0,0,0,-1,657,666,-8.14214,-1.91579
-560,358,-10.6086,2.18872,0,0,0,0,0,0,0,-1,664,666,-10.6086,-2.18873
-553,358,-13.4767,1.09552,0,0,0,0,0,0,0,-1,671,666,-13.4767,-1.09551
-546,358,-13.3743,-0.185059,0,0,0,0,0,0,0,-1,678,666,-13.3743,0.185037
-539,358,-9.43884,-2.04785,0,0,0,0,0,0,0,-1,685,666,-9.43884,2.04785
-532,358,-12.4141,-2.36572,0,0,0,0,0,0,0,-1,692,666,-12.4141,2.3657
-525,358,-12.731,-3.88031,0,0,0,0,0,0,0,-1,699,666,-12.731,3.88029
-518,358,-15.9778,-5.7691,0,0,0,0,0,0,0,-1,706,666,-15.9778,5.76911
-511,358,-15.9831,-6.4613,0.00278361,0.00302149,-0.0019708,0.00487694,0.000928157,-0.815538,0.00299031,0.015973,713,666,-15.9831,6.46133
-504,358,-15.9903,-7.1557,0.00238024,0.00223971,-0.00157276,0.00388431,0.000735644,-0.763074,0.00238249,0.0113668,720,666,-15.9903,7.15571
-497,358,-16.0047,-7.84863,0.00217755,0.00155614,-0.00123528,0.0031406,0.000593092,-0.66219,0.00192671,0.0118853,727,666,-16.0047,7.84861
-490,358,-16.0505,-8.52264,0.0020666,0.00102386,-0.00100362,0.00267619,0.00041426,-0.54584,0.00166333,0.0118187,734,666,-16.0505,8.52267
-483,358,-16.0883,-9.18243,0.00214133,0.000614075,-0.000858253,0.00252649,0.000228909,-0.421838,0.00161345,0.0111197,741,666,-16.0882,9.18241
-476,358,-16.0545,-9.82184,0.00237877,0.000362373,-0.00084944,0.00268891,5.22345e-05,-0.350071,0.00177545,0.014275,748,666,-16.0545,9.82186
-469,358,-16.1271,-10.4905,0.00269623,0.000253059,-0.000952183,0.00302349,-7.42016e-05,-0.331047,0.00204084,0.0183974,755,666,-16.1271,10.4905
-462,358,-16.1943,-11.1811,0.00310035,0.000271352,-0.00115924,0.00351469,-0.000142984,-0.343271,0.00239221,0.0195971,762,666,-16.1943,11.1811
-455,358,-16.1052,-11.9096,0.00367902,0.000239573,-0.00145059,0.00420911,-0.000290517,-0.350355,0.00290775,0.0482486,769,666,-16.1052,11.9096
-448,358,-15.9286,-12.949,0,0,0,0,0,0,0,-1,776,666,-15.9286,12.949
-441,358,-5.56293,-3.98041,0,0,0,0,0,0,0,-1,783,666,-5.56291,3.98043
-434,358,-5.21558,-4.43127,0,0,0,0,0,0,0,-1,790,666,-5.21559,4.43125
-427,358,-3.56189,-3.15729,0,0,0,0,0,0,0,-1,797,666,-3.56192,3.15729
-420,358,0.200195,1.08234,0,0,0,0,0,0,0,-1,804,666,0.200174,-1.08231
-413,358,0.0325317,0.161072,0,0,0,0,0,0,0,-1,811,666,0.0325501,-0.161098
-406,358,-3.85846,0.753113,0,0,0,0,0,0,0,-1,818,666,-3.85846,-0.753129
-399,358,-1.31213,0.190735,0,0,0,0,0,0,0,-1,825,666,-1.31215,-0.190763
-392,358,-3.73914,-0.832214,0,0,0,0,0,0,0,-1,832,666,-3.73915,0.832202
-385,358,-5.95178,-1.69141,0,0,0,0,0,0,0,-1,839,666,-5.9518,1.69143
-378,358,0,0,0,0,0,0,0,0,0,-1,846,666,0,0
-371,358,0,0,0,0,0,0,0,0,0,-1,853,666,0,0
-364,358,0,0,0,0,0,0,0,0,0,-1,860,666,0,0
-357,358,0,0,0,0,0,0,0,0,0,-1,867,666,0,0
-350,358,0,0,0,0,0,0,0,0,0,-1,874,666,0,0
-343,358,0,0,0,0,0,0,0,0,0,-1,881,666,0,0
-336,358,0,0,0,0,0,0,0,0,0,-1,888,666,0,0
-329,358,0,0,0,0,0,0,0,0,0,-1,895,666,0,0
-322,358,0,0,0,0,0,0,0,0,0,-1,902,666,0,0
-315,358,0,0,0,0,0,0,0,0,0,-1,909,666,0,0
-308,358,0,0,0,0,0,0,0,0,0,-1,916,666,0,0
-301,358,0,0,0,0,0,0,0,0,0,-1,923,666,0,0
-294,358,0,0,0,0,0,0,0,0,0,-1,930,666,0,0
-287,358,0,0,0,0,0,0,0,0,0,-1,937,666,0,0
-280,358,0,0,0,0,0,0,0,0,0,-1,944,666,0,0
-273,358,0,0,0,0,0,0,0,0,0,-1,951,666,0,0
-266,358,0,0,0,0,0,0,0,0,0,-1,958,666,0,0
-259,358,0,0,0,0,0,0,0,0,0,-1,965,666,0,0
-252,358,0,0,0,0,0,0,0,0,0,-1,972,666,0,0
-245,358,0,0,0,0,0,0,0,0,0,-1,979,666,0,0
-238,358,0,0,0,0,0,0,0,0,0,-1,986,666,0,0
-231,358,0,0,0,0,0,0,0,0,0,-1,993,666,0,0
-224,358,0,0,0,0,0,0,0,0,0,-1,1000,666,0,0
-217,358,0,0,0,0,0,0,0,0,0,-1,1007,666,0,0
-210,358,0,0,0,0,0,0,0,0,0,-1,1014,666,0,0
-203,358,0,0,0,0,0,0,0,0,0,-1,1021,666,0,0
-196,358,0,0,0,0,0,0,0,0,0,-1,1028,666,0,0
-189,358,0,0,0,0,0,0,0,0,0,-1,1035,666,0,0
-182,358,0,0,0,0,0,0,0,0,0,-1,1042,666,0,0
-175,358,0,0,0,0,0,0,0,0,0,-1,1049,666,0,0
-168,358,0,0,0,0,0,0,0,0,0,-1,1056,666,0,0
-161,358,0,0,0,0,0,0,0,0,0,-1,1063,666,0,0
-154,358,0,0,0,0,0,0,0,0,0,-1,1070,666,0,0
-147,358,0,0,0,0,0,0,0,0,0,-1,1077,666,0,0
-140,358,0,0,0,0,0,0,0,0,0,-1,1084,666,0,0
-133,358,0,0,0,0,0,0,0,0,0,-1,1091,666,0,0
-126,358,0,0,0,0,0,0,0,0,0,-1,1098,666,0,0
-119,358,0,0,0,0,0,0,0,0,0,-1,1105,666,0,0
-112,358,0,0,0,0,0,0,0,0,0,-1,1112,666,0,0
-105,358,0,0,0,0,0,0,0,0,0,-1,1119,666,0,0
-98,358,0,0,0,0,0,0,0,0,0,-1,1126,666,0,0
-91,358,0,0,0,0,0,0,0,0,0,-1,1133,666,0,0
-84,358,0,0,0,0,0,0,0,0,0,-1,1140,666,0,0
-77,358,0,0,0,0,0,0,0,0,0,-1,1147,666,0,0
-70,358,0,0,0,0,0,0,0,0,0,-1,1154,666,0,0
-63,358,0,0,0,0,0,0,0,0,0,-1,1161,666,0,0
-56,358,0,0,0,0,0,0,0,0,0,-1,1168,666,0,0
-49,358,0,0,0,0,0,0,0,0,0,-1,1175,666,0,0
-42,358,0,0,0,0,0,0,0,0,0,-1,1182,666,0,0
-35,358,0,0,0,0,0,0,0,0,0,-1,1189,666,0,0
-28,358,0,0,0,0,0,0,0,0,0,-1,1196,666,0,0
-21,358,0,0,0,0,0,0,0,0,0,-1,1203,666,0,0
-14,358,0,0,0,0,0,0,0,0,0,-1,1210,666,0,0
-7,358,0,0,0,0,0,0,0,0,0,-1,1217,666,0,0
0,358,0,0,0,0,0,0,0,0,0,-1,1224,666,0,0
7,358,0,0,0,0,0,0,0,0,0,-1,1231,666,0,0
14,358,0,0,0,0,0,0,0,0,0,-1,1238,666,0,0
21,358,0,0,0,0,0,0,0,0,0,-1,1245,666,0,0
28,358,0,0,0,0,0,0,0,0,0,-1,1252,666,0,0
35,358,0,0,0,0,0,0,0,0,0,-1,1259,666,0,0
42,358,0,0,0,0,0,0,0,0,0,-1,1266,666,0,0
49,358,0,0,0,0,0,0,0,0,0,-1,1273,666,0,0
56,358,0,0,0,0,0,0,0,0,0,-1,1280,666,0,0
63,358,0,0,0,0,0,0,0,0,0,-1,1287,666,0,0
70,358,0,0,0,0,0,0,0,0,0,-1,1294,666,0,0
77,358,0,0,0,0,0,0,0,0,0,-1,1301,666,0,0
84,358,0,0,0,0,0,0,0,0,0,-1,1308,666,0,0
91,358,0,0,0,0,0,0,0,0,0,-1,1315,666,0,0
98,358,0,0,0,0,0,0,0,0,0,-1,1322,666,0,0
105,358,0,0,0,0,0,0,0,0,0,-1,1329,666,0,0
112,358,0,0,0,0,0,0,0,0,0,-1,1336,666,0,0
119,358,0,0,0,0,0,0,0,0,0,-1,1343,666,0,0
126,358,0,0,0,0,0,0,0,0,0,-1,1350,666,0,0
133,358,0,0,0,0,0,0,0,0,0,-1,1357,666,0,0
140,358,0,0,0,0,0,0,0,0,0,-1,1364,666,0,0
147,358,0,0,0,0,0,0,0,0,0,-1,1371,666,0,0
154,358,0,0,0,0,0,0,0,0,0,-1,1378,666,0,0
161,358,0,0,0,0,0,0,0,0,0,-1,1385,666,0,0
168,358,0,0,0,0,0,0,0,0,0,-1,1392,666,0,0
175,358,0,0,0,0,0,0,0,0,0,-1,1399,666,0,0
182,358,0,0,0,0,0,0,0,0,0,-1,1406,666,0,0
189,358,0,0,0,0,0,0,0,0,0,-1,1413,666,0,0
196,358,0,0,0,0,0,0,0,0,0,-1,1420,666,0,0
203,358,0,0,0,0,0,0,0,0,0,-1,1427,666,0,0
210,358,0,0,0,0,0,0,0,0,0,-1,1434,666,0,0
217,358,0,0,0,0,0,0,0,0,0,-1,1441,666,0,0
224,358,0,0,0,0,0,0,0,0,0,-1,1448,666,0,0
231,358,0,0,0,0,0,0,0,0,0,-1,1455,666,0,0
238,358,0,0,0,0,0,0,0,0,0,-1,1462,666,0,0
245,358,0,0,0,0,0,0,0,0,0,-1,1469,666,0,0
252,358,0,0,0,0,0,0,0,0,0,-1,1476,666,0,0
259,358,0,0,0,0,0,0,0,0,0,-1,1483,666,0,0
266,358,0,0,0,0,0,0,0,0,0,-1,1490,666,0,0
273,358,0,0,0,0,0,0,0,0,0,-1,1497,666,0,0
280,358,0,0,0,0,0,0,0,0,0,-1,1504,666,0,0
287,358,0,0,0,0,0,0,0,0,0,-1,1511,666,0,0
294,358,0,0,0,0,0,0,0,0,0,-1,1518,666,0,0
301,358,0,0,0,0,0,0,0,0,0,-1,1525,666,0,0
308,358,0,0,0,0,0,0,0,0,0,-1,1532,666,0,0
315,358,0,0,0,0,0,0,0,0,0,-1,1539,666,0,0
322,358,0,0,0,0,0,0,0,0,0,-1,1546,666,0,0
329,358,0,0,0,0,0,0,0,0,0,-1,1553,666,0,0
336,358,0,0,0,0,0,0,0,0,0,-1,1560,666,0,0
343,358,0,0,0,0,0,0,0,0,0,-1,1567,666,0,0
350,358,0,0,0,0,0,0,0,0,0,-1,1574,666,0,0
357,358,0,0,0,0,0,0,0,0,0,-1,1581,666,0,0
364,358,0,0,0,0,0,0,0,0,0,-1,1588,666,0,0
371,358,0,0,0,0,0,0,0,0,0,-1,1595,666,0,0
378,358,0,0,0,0,0,0,0,0,0,-1,1602,666,0,0
385,358,0,0,0,0,0,0,0,0,0,-1,1609,666,0,0
392,358,0,0,0,0,0,0,0,0,0,-1,1616,666,0,0
399,358,0,0,0,0,0,0,0,0,0,-1,1623,666,0,0
406,358,0,0,0,0,0,0,0,0,0,-1,1630,666,0,0
413,358,0,0,0,0,0,0,0,0,0,-1,1637,666,0,0
420,358,0,0,0,0,0,0,0,0,0,-1,1644,666,0,0
427,358,0,0,0,0,0,0,0,0,0,-1,1651,666,0,0
434,358,0,0,0,0,0,0,0,0,0,-1,1658,666,0,0
441,358,0,0,0,0,0,0,0,0,0,-1,1665,666,0,0
448,358,0,0,0,0,0,0,0,0,0,-1,1672,666,0,0
455,358,0,0,0,0,0,0,0,0,0,-1,1679,666,0,0
462,358,0,0,0,0,0,0,0,0,0,-1,1686,666,0,0
469,358,0,0,0,0,0,0,0,0,0,-1,1693,666,0,0
476,358,0,0,0,0,0,0,0,0,0,-1,1700,666,0,0
483,358,0,0,0,0,0,0,0,0,0,-1,1707,666,0,0
490,358,0,0,0,0,0,0,0,0,0,-1,1714,666,0,0
497,358,8.57239,1.1322,0,0,0,0,0,0,0,-1,1721,666,8.57234,-1.13219
504,358,10.5972,0.832947,0,0,0,0,0,0,0,-1,1728,666,10.5972,-0.832968
511,358,10.6873,0.868469,0,0,0,0,0,0,0,-1,1735,666,10.6872,-0.868484
518,358,16.5884,2.34894,0,0,0,0,0,0,0,-1,1742,666,16.5884,-2.34894
525,358,15.7626,3.65344,0,0,0,0,0,0,0,-1,1749,666,15.7626,-3.65342
532,358,14.9368,4.95789,0,0,0,0,0,0,0,-1,1756,666,14.9367,-4.9579
539,358,15.1597,3.42694,0,0,0,0,0,0,0,-1,1763,666,15.1597,-3.42692
546,358,12.3792,1.53558,0,0,0,0,0,0,0,-1,1770,666,12.3792,-1.5356
553,358,11.6584,1.26172,0,0,0,0,0,0,0,-1,1777,666,11.6585,-1.26175
560,358,10.8234,1.43042,0,0,0,0,0,0,0,-1,1784,666,10.8233,-1.43041
567,358,10.1333,-0.955139,0,0,0,0,0,0,0,-1,1791,666,10.1333,0.955132
574,358,14.7886,-2.69293,0,0,0,0,0,0,0,-1,1798,666,14.7885,2.6929
581,358,20.1738,-6.76135,0,0,0,0,0,0,0,-1,1805,666,20.1738,6.76137
588,358,28.2769,-9.83026,0,0,0,0,0,0,0,-1,1812,666,28.2768,9.83024
595,358,28.251,-9.1012,0.000911239,0.000511781,5.22549e-05,0.000917962,0.000505059,0.127947,0.000530875,0.0172694,1819,666,28.251,9.10119
602,358,28.205,-8.37299,0.000987836,0.000748002,0.000214086,0.0011133,0.000622536,0.530103,0.000644264,0.0136292,1826,666,28.205,8.373
609,358,28.1528,-7.6955,0.00129393,0.00100683,0.0005226,0.00169234,0.000608426,0.651362,0.000989844,0.0178465,1833,666,28.1529,7.69547
616,358,28.1349,-6.9903,0.00146347,0.00118632,0.000713531,0.00205176,0.000598032,0.689486,0.00121844,0.0170465,1840,666,28.1349,6.99027
623,358,28.1545,-6.29309,0.00147632,0.00137024,0.000872148,0.00229704,0.000549523,0.755029,0.00138501,0.0143228,1847,666,28.1545,6.29311
630,358,28.1219,-5.61841,0.00133645,0.00151981,0.000966888,0.00239936,0.000456907,0.832667,0.00147111,0.0168525,1854,666,28.1219,5.61843
637,358,28.0422,-4.9588,0.000862099,0.00152633,0.000864579,0.00212039,0.000268041,0.968776,0.00133326,0.024563,1861,666,28.0423,4.95881
644,358,28.0563,-4.27472,-5.53247e-05,0.001449,0.000567818,0.00163926,-0.000245588,1.24748,0.00118323,0.0206073,1868,666,28.0563,4.27472
651,358,28.2227,-3.41925,-0.00153879,0.00140618,6.72989e-05,0.00140772,-0.00154033,1.54796,0.00170263,0.0436938,1875,666,28.2227,3.41925
658,358,28.2451,-2.41986,0,0,0,0,0,0,0,-1,1882,666,28.2451,2.41986
665,358,27.0897,-1.9187,0,0,0,0,0,0,0,-1,1889,666,27.0897,1.9187
672,358,12.4299,1.47272,0,0,0,0,0,0,0,-1,1896,666,12.4299,-1.4727
679,358,12.1294,2.19702,0,0,0,0,0,0,0,-1,1903,666,12.1294,-2.19703
686,358,11.9557,2.2002,0,0,0,0,0,0,0,-1,1910,666,11.9557,-2.20021
693,358,13.188,2.52203,0,0,0,0,0,0,0,-1,1917,666,13.188,-2.52202
700,358,0,0,0,0,0,0,0,0,0,-1,1924,666,0,0
707,358,0,0,0,0,0,0,0,0,0,-1,1931,666,0,0
714,358,0,0,0,0,0,0,0,0,0,-1,1938,666,0,0
721,358,0,0,0,0,0,0,0,0,0,-1,1945,666,0,0
728,358,0,0,0,0,0,0,0,0,0,-1,1952,666,0,0
735,358,0,0,0,0,0,0,0,0,0,-1,1959,666,0,0
742,358,0,0,0,0,0,0,0,0,0,-1,1966,666,0,0
749,358,0,0,0,0,0,0,0,0,0,-1,1973,666,0,0
756,358,0,0,0,0,0,0,0,0,0,-1,1980,666,0,0
763,358,0,0,0,0,0,0,0,0,0,-1,1987,666,0,0
770,358,0,0,0,0,0,0,0,0,0,-1,1994,666,0,0
777,358,0,0,0,0,0,0,0,0,0,-1,2001,666,0,0
784,358,0,0,0,0,0,0,0,0,0,-1,2008,666,0,0
791,358,0,0,0,0,0,0,0,0,0,-1,2015,666,0,0
798,358,0,0,0,0,0,0,0,0,0,-1,2022,666,0,0
805,358,0,0,0,0,0,0,0,0,0,-1,2029,666,0,0
812,358,0,0,0,0,0,0,0,0,0,-1,2036,666,0,0
-700,351,0,0,0,0,0,0,0,0,0,-1,524,673,0,0
-693,351,0,0,0,0,0,0,0,0,0,-1,531,673,0,0
-686,351,0,0,0,0,0,0,0,0,0,-1,538,673,0,0
-679,351,0,0,0,0,0,0,0,0,0,-1,545,673,0,0
-672,351,0,0,0,0,0,0,0,0,0,-1,552,673,0,0
-665,351,0,0,0,0,0,0,0,0,0,-1,559,673,0,0
-658,351,0,0,0,0,0,0,0,0,0,-1,566,673,0,0
-651,351,0,0,0,0,0,0,0,0,0,-1,573,673,0,0
-644,351,0,0,0,0,0,0,0,0,0,-1,580,673,0,0
-637,351,0,0,0,0,0,0,0,0,0,-1,587,673,0,0
-630,351,0,0,0,0,0,0,0,0,0,-1,594,673,0,0
-623,351,0,0,0,0,0,0,0,0,0,-1,601,673,0,0
-616,351,0,0,0,0,0,0,0,0,0,-1,608,673,0,0
-609,351,0,0,0,0,0,0,0,0,0,-1,615,673,0,0
-602,351,0,0,0,0,0,0,0,0,0,-1,622,673,0,0
-595,351,0,0,0,0,0,0,0,0,0,-1,629,673,0,0
-588,351,0,0,0,0,0,0,0,0,0,-1,636,673,0,0
-581,351,-9.0647,1.71906,0,0,0,0,0,0,0,-1,643,673,-9.06472,-1.71908
-574,351,-8.23584,2.64764,0,0,0,0,0,0,0,-1,650,673,-8.23584,-2.64764
-567,351,-10.8027,4.56836,0,0,0,0,0,0,0,-1,657,673,-10.8027,-4.56839
-560,351,-14.2001,2.17084,0,0,0,0,0,0,0,-1,664,673,-14.2002,-2.17086
-553,351,-13.4979,0.779541,0,0,0,0,0,0,0,-1,671,673,-13.4978,-0.779519
-546,351,-14.0065,0.73645,0,0,0,0,0,0,0,-1,678,673,-14.0065,-0.736473
-539,351,-12.8123,-1.46393,0,0,0,0,0,0,0,-1,685,673,-12.8123,1.46395
-532,351,-16.0198,-4.03937,0,0,0,0,0,0,0,-1,692,673,-16.0198,4.03936
-525,351,-16.6422,-5.00476,0,0,0,0,0,0,0,-1,699,673,-16.6422,5.00479
-518,351,-16.6333,-5.71619,0.00303093,0.00304748,-0.00174312,0.00478234,0.00129607,-0.787772,0.00285597,0.0218115,706,673,-16.6333,5.7162
-511,351,-16.6431,-6.42957,0.00257382,0.00226097,-0.00142514,0.00385109,0.000983699,-0.730735,0.00231039,0.0116383,713,673,-16.643,6.42957
-504,351,-16.6597,-7.1236,0.00224401,0.00154415,-0.001105,0.00305316,0.000734997,-0.632055,0.00184004,0.0110654,720,673,-16.6597,7.12358
-497,351,-16.6796,-7.80096,0.00210226,0.000951183,-0.000842321,0.00254689,0.00050655,-0.485691,0.0015568,0.0112754,727,673,-16.6796,7.80094
-490,351,-16.7209,-8.46552,0.00204771,0.000514679,-0.000684217,0.00230866,0.000253722,-0.364366,0.00146189,0.0105883,734,673,-16.7209,8.46549
-483,351,-16.7401,-9.12164,0.00219928,0.000222045,-0.000625093,0.00238032,4.10021e-05,-0.281912,0.00157339,0.0124049,741,673,-16.7401,9.12165
-476,351,-16.78,-9.77924,0.00250931,9.61696e-05,-0.000703621,0.00269949,-9.40041e-05,-0.263971,0.0018318,0.0115852,748,673,-16.78,9.77924
-469,351,-16.8149,-10.4272,0.00294671,0.000167807,-0.00094838,0.00323952,-0.000125002,-0.299462,0.00220253,0.0137913,755,673,-16.8149,10.4272
-462,351,-16.8257,-11.1663,0.00353482,0.000399091,-0.00135825,0.00404133,-0.000107419,-0.356941,0.00273073,0.0328573,762,673,-16.8257,11.1663
-455,351,-16.5734,-12.0498,0,0,0,0,0,0,0,-1,769,673,-16.5734,12.0498
-448,351,-6.61456,-4.38654,0,0,0,0,0,0,0,-1,776,673,-6.61456,4.38654
-441,351,-4.31567,-2.3009,0,0,0,0,0,0,0,-1,783,673,-4.31565,2.30089
-434,351,-3.81708,-2.28003,0,0,0,0,0,0,0,-1,790,673,-3.81706,2.28006
-427,351,-2.05157,-2.7785,0,0,0,0,0,0,0,-1,797,673,-2.05157,2.77848
-420,351,-1.06989,-2.43665,0,0,0,0,0,0,0,-1,804,673,-1.06991,2.43663
-413,351,-0.392334,-2.06671,0,0,0,0,0,0,0,-1,811,673,-0.392363,2.06672
-406,351,-1.86316,-2.58105,0,0,0,0,0,0,0,-1,818,673,-1.86313,2.58106
-399,351,1.00952,-1.53455,0,0,0,0,0,0,0,-1,825,673,1.00954,1.53457
-392,351,-1.02197,0.877136,0,0,0,0,0,0,0,-1,832,673,-1.02195,-0.877143
-385,351,-1.47205,1.04437,0,0,0,0,0,0,0,-1,839,673,-1.47207,-1.04435
-378,351,0,0,0,0,0,0,0,0,0,-1,846,673,0,0
-371,351,0,0,0,0,0,0,0,0,0,-1,853,673,0,0
-364,351,0,0,0,0,0,0,0,0,0,-1,860,673,0,0
-357,351,0,0,0,0,0,0,0,0,0,-1,867,673,0,0
-350,351,0,0,0,0,0,0,0,0,0,-1,874,673,0,0
-343,351,0,0,0,0,0,0,0,0,0,-1,881,673,0,0
-336,351,0,0,0,0,0,0,0,0,0,-1,888,673,0,0
-329,351,0,0,0,0,0,0,0,0,0,-1,895,673,0,0
-322,351,0,0,0,0,0,0,0,0,0,-1,902,673,0,0
-315,351,0,0,0,0,0,0,0,0,0,-1,909,673,0,0
-308,351,0,0,0,0,0,0,0,0,0,-1,916,673,0,0
-301,351,0,0,0,0,0,0,0,0,0,-1,923,673,0,0
-294,351,0,0,0,0,0,0,0,0,0,-1,930,673,0,0
-287,351,0,0,0,0,0,0,0,0,0,-1,937,673,0,0
-280,351,0,0,0,0,0,0,0,0,0,-1,944,673,0,0
-273,351,0,0,0,0,0,0,0,0,0,-1,951,673,0,0
-266,351,0,0,0,0,0,0,0,0,0,-1,958,673,0,0
-259,351,0,0,0,0,0,0,0,0,0,-1,965,673,0,0
-252,351,0,0,0,0,0,0,0,0,0,-1,972,673,0,0
-245,351,0,0,0,0,0,0,0,0,0,-1,979,673,0,0
-238,351,0,0,0,0,0,0,0,0,0,-1,986,673,0,0
-231,351,0,0,0,0,0,0,0,0,0,-1,993,673,0,0
-224,351,0,0,0,0,0,0,0,0,0,-1,1000,673,0,0
-217,351,0,0,0,0,0,0,0,0,0,-1,1007,673,0,0
-210,351,0,0,0,0,0,0,0,0,0,-1,1014,673,0,0
-203,351,0,0,0,0,0,0,0,0,0,-1,1021,673,0,0
-196,351,0,0,0,0,0,0,0,0,0,-1,1028,673,0,0
-189,351,0,0,0,0,0,0,0,0,0,-1,1035,673,0,0
-182,351,0,0,0,0,0,0,0,0,0,-1,1042,673,0,0
-175,351,0,0,0,0,0,0,0,0,0,-1,1049,673,0,0
-168,351,0,0,0,0,0,0,0,0,0,-1,1056,673,0,0
-161,351,0,0,0,0,0,0,0,0,0,-1,1063,673,0,0
-154,351,0,0,0,0,0,0,0,0,0,-1,1070,673,0,0
-147,351,0,0,0,0,0,0,0,0,0,-1,1077,673,0,0
-140,351,0,0,0,0,0,0,0,0,0,-1,1084,673,0,0
-133,351,0,0,0,0,0,0,0,0,0,-1,1091,673,0,0
-126,351,0,0,0,0,0,0,0,0,0,-1,1098,673,0,0
-119,351,0,0,0,0,0,0,0,0,0,-1,1105,673,0,0
-112,351,0,0,0,0,0,0,0,0,0,-1,1112,673,0,0
-105,351,0,0,0,0,0,0,0,0,0,-1,1119,673,0,0
-98,351,0,0,0,0,0,0,0,0,0,-1,1126,673,0,0
-91,351,0,0,0,0,0,0,0,0,0,-1,1133,673,0,0
-84,351,0,0,0,0,0,0,0,0,0,-1,1140,673,0,0
-77,351,0,0,0,0,0,0,0,0,0,-1,1147,673,0,0
-70,351,0,0,0,0,0,0,0,0,0,-1,1154,673,0,0
-63,351,0,0,0,0,0,0,0,0,0,-1,1161,673,0,0
-56,351,0,0,0,0,0,0,0,0,0,-1,1168,673,0,0
-49,351,0,0,0,0,0,0,0,0,0,-1,1175,673,0,0
-42,351,0,0,0,0,0,0,0,0,0,-1,1182,673,0,0
-35,351,0,0,0,0,0,0,0,0,0,-1,1189,673,0,0
-28,351,0,0,0,0,0,0,0,0,0,-1,1196,673,0,0
-21,351,0,0,0,0,0,0,0,0,0,-1,1203,673,0,0
-14,351,0,0,0,0,0,0,0,0,0,-1,1210,673,0,0
-7,351,0,0,0,0,0,0,0,0,0,-1,1217,673,0,0
0,351,0,0,0,0,0,0,0,0,0,-1,1224,673,0,0
7,351,0,0,0,0,0,0,0,0,0,-1,1231,673,0,0
14,351,0,0,0,0,0,0,0,0,0,-1,1238,673,0,0
21,351,0,0,0,0,0,0,0,0,0,-1,1245,673,0,0
28,351,0,0,0,0,0,0,0,0,0,-1,1252,673,0,0
35,351,0,0,0,0,0,0,0,0,0,-1,1259,673,0,0
42,351,0,0,0,0,0,0,0,0,0,-1,1266,673,0,0
49,351,0,0,0,0,0,0,0,0,0,-1,1273,673,0,0
56,351,0,0,0,0,0,0,0,0,0,-1,1280,673,0,0
63,351,0,0,0,0,0,0,0,0,0,-1,1287,673,0,0
70,351,0,0,0,0,0,0,0,0,0,-1,1294,673,0,0
77,351,0,0,0,0,0,0,0,0,0,-1,1301,673,0,0
84,351,0,0,0,0,0,0,0,0,0,-1,1308,673,0,0
91,351,0,0,0,0,0,0,0,0,0,-1,1315,673,0,0
98,351,0,0,0,0,0,0,0,0,0,-1,1322,673,0,0
105,351,0,0,0,0,0,0,0,0,0,-1,1329,673,0,0
112,351,0,0,0,0,0,0,0,0,0,-1,1336,673,0,0
119,351,0,0,0,0,0,0,0,0,0,-1,1343,673,0,0
126,351,0,0,0,0,0,0,0,0,0,-1,1350,673,0,0
133,351,0,0,0,0,0,0,0,0,0,-1,1357,673,0,0
140,351,0,0,0,0,0,0,0,0,0,-1,1364,673,0,0
147,351,0,0,0,0,0,0,0,0,0,-1,1371,673,0,0
154,351,0,0,0,0,0,0,0,0,0,-1,1378,673,0,0
161,351,0,0,0,0,0,0,0,0,0,-1,1385,673,0,0
168,351,0,0,0,0,0,0,0,0,0,-1,1392,673,0,0
175,351,0,0,0,0,0,0,0,0,0,-1,1399,673,0,0
182,351,0,0,0,0,0,0,0,0,0,-1,1406,673,0,0
189,351,0,0,0,0,0,0,0,0,0,-1,1413,673,0,0
196,351,0,0,0,0,0,0,0,0,0,-1,1420,673,0,0
203,351,0,0,0,0,0,0,0,0,0,-1,1427,673,0,0
210,351,0,0,0,0,0,0,0,0,0,-1,1434,673,0,0
217,351,0,0,0,0,0,0,0,0,0,-1,1441,673,0,0
224,351,0,0,0,0,0,0,0,0,0,-1,1448,673,0,0
231,351,0,0,0,0,0,0,0,0,0,-1,1455,673,0,0
238,351,0,0,0,0,0,0,0,0,0,-1,1462,673,0,0
245,351,0,0,0,0,0,0,0,0,0,-1,1469,673,0,0
252,351,0,0,0,0,0,0,0,0,0,-1,1476,673,0,0
259,351,0,0,0,0,0,0,0,0,0,-1,1483,673,0,0
266,351,0,0,0,0,0,0,0,0,0,-1,1490,673,0,0
273,351,0,0,0,0,0,0,0,0,0,-1,1497,673,0,0
280,351,0,0,0,0,0,0,0,0,0,-1,1504,673,0,0
287,351,0,0,0,0,0,0,0,0,0,-1,1511,673,0,0
294,351,0,0,0,0,0,0,0,0,0,-1,1518,673,0,0
301,351,0,0,0,0,0,0,0,0,0,-1,1525,673,0,0
308,351,0,0,0,0,0,0,0,0,0,-1,1532,673,0,0
315,351,0,0,0,0,0,0,0,0,0,-1,1539,673,0,0
322,351,0,0,0,0,0,0,0,0,0,-1,1546,673,0,0
329,351,0,0,0,0,0,0,0,0,0,-1,1553,673,0,0
336,351,0,0,0,0,0,0,0,0,0,-1,1560,673,0,0
343,351,0,0,0,0,0,0,0,0,0,-1,1567,673,0,0
350,351,0,0,0,0,0,0,0,0,0,-1,1574,673,0,0
357,351,0,0,0,0,0,0,0,0,0,-1,1581,673,0,0
364,351,0,0,0,0,0,0,0,0,0,-1,1588,673,0,0
371,351,0,0,0,0,0,0,0,0,0,-1,1595,673,0,0
378,351,0,0,0,0,0,0,0,0,0,-1,1602,673,0,0
385,351,0,0,0,0,0,0,0,0,0,-1,1609,673,0,0
392,351,0,0,0,0,0,0,0,0,0,-1,1616,673,0,0
399,351,0,0,0,0,0,0,0,0,0,-1,1623,673,0,0
406,351,0,0,0,0,0,0,0,0,0,-1,1630,673,0,0
413,351,0,0,0,0,0,0,0,0,0,-1,1637,673,0,0
420,351,0,0,0,0,0,0,0,0,0,-1,1644,673,0,0
427,351,0,0,0,0,0,0,0,0,0,-1,1651,673,0,0
434,351,0,0,0,0,0,0,0,0,0,-1,1658,673,0,0
441,351,0,0,0,0,0,0,0,0,0,-1,1665,673,0,0
448,351,0,0,0,0,0,0,0,0,0,-1,1672,673,0,0
455,351,0,0,0,0,0,0,0,0,0,-1,1679,673,0,0
462,351,0,0,0,0,0,0,0,0,0,-1,1686,673,0,0
469,351,0,0,0,0,0,0,0,0,0,-1,1693,673,0,0
476,351,0,0,0,0,0,0,0,0,0,-1,1700,673,0,0
483,351,0,0,0,0,0,0,0,0,0,-1,1707,673,0,0
490,351,0,0,0,0,0,0,0,0,0,-1,1714,673,0,0
497,351,0,0,0,0,0,0,0,0,0,-1,1721,673,0,0
504,351,10.8842,1.61615,0,0,0,0,0,0,0,-1,1728,673,10.8842,-1.61618
511,351,15.4548,0.0236816,0,0,0,0,0,0,0,-1,1735,673,15.4549,-0.0236664
518,351,16.7448,2.49268,0,0,0,0,0,0,0,-1,1742,673,16.7448,-2.49269
525,351,16.0701,3.43225,0,0,0,0,0,0,0,-1,1749,673,16.07,-3.43227
532,351,32.3822,3.03021,0,0,0,0,0,0,0,-1,1756,673,32.3822,-3.03019
539,351,15.3387,3.54486,0,0,0,0,0,0,0,-1,1763,673,15.3387,-3.54485
546,351,13.9387,4.59357,0,0,0,0,0,0,0,-1,1770,673,13.9388,-4.59359
553,351,12.0682,2.02832,0,0,0,0,0,0,0,-1,1777,673,12.0683,-2.02831
560,351,12.0173,0.55304,0,0,0,0,0,0,0,-1,1784,673,12.0174,-0.553028
567,351,10.7827,0.130188,0,0,0,0,0,0,0,-1,1791,673,10.7827,-0.130183
574,351,13.405,-1.09204,0,0,0,0,0,0,0,-1,1798,673,13.405,1.09207
581,351,15.2351,-3.06049,0,0,0,0,0,0,0,-1,1805,673,15.2351,3.06046
588,351,28.6444,-9.97998,0,0,0,0,0,0,0,-1,1812,673,28.6444,9.97995
595,351,28.9557,-9.25256,0.000913727,0.000558022,0.00020075,0.00100408,0.000467673,0.422902,0.000580156,0.0498118,1819,673,28.9557,9.25259
602,351,28.9358,-8.38507,0.000886069,0.000642456,0.000144982,0.000953621,0.000574904,0.436025,0.000554444,0.0188185,1826,673,28.9357,8.38509
609,351,28.9083,-7.68304,0.00121084,0.000756663,0.000362799,0.00141176,0.000555741,0.505763,0.000821203,0.0183332,1833,673,28.9083,7.68306
616,351,28.8444,-6.98798,0.0013951,0.000859619,0.00054156,0.00173149,0.000523231,0.555824,0.00102542,0.0151091,1840,673,28.8444,6.988
623,351,28.8503,-6.26538,0.00130941,0.000930138,0.000609182,0.00175779,0.000481757,0.634505,0.00104883,0.0150108,1847,673,28.8504,6.26538
630,351,28.8695,-5.5946,0.00108617,0.00101027,0.00065897,0.00170828,0.000388156,0.756635,0.00103404,0.0240133,1854,673,28.8695,5.5946
637,351,28.8242,-4.89117,0.000577357,0.000981546,0.000553225,0.00136843,0.000190469,0.960519,0.000855894,0.0291697,1861,673,28.8242,4.89118
644,351,28.7527,-4.19086,-0.00029934,0.000883432,0.000287611,0.000949661,-0.000365569,1.34447,0.000783912,0.021481,1868,673,28.7526,4.19084
651,351,28.7455,-3.42621,-0.00159854,0.000816725,-0.000127468,0.000823434,-0.00160525,-1.51822,0.00142621,0.017025,1875,673,28.7455,3.4262
658,351,28.6667,-2.68372,-0.00353894,0.000544571,-0.000918487,0.000741651,-0.00373602,-1.35943,0.00277118,0.0379845,1882,673,28.6668,2.68373
665,351,28.1841,-2.245,-0.00604618,4.16701e-05,-0.00193028,0.000602111,-0.00660662,-1.28822,0.00461822,0.0495366,1889,673,28.1841,2.24499
672,351,27.876,-1.51941,0,0,0,0,0,0,0,-1,1896,673,27.8759,1.51941
679,351,14.1252,1.85681,0,0,0,0,0,0,0,-1,1903,673,14.1253,-1.85682
686,351,13.0294,2.1189,0,0,0,0,0,0,0,-1,1910,673,13.0294,-2.11892
693,351,13.5187,2.34595,0,0,0,0,0,0,0,-1,1917,673,13.5187,-2.34596
700,351,14.5629,-2.40173,0,0,0,0,0,0,0,-1,1924,673,14.5629,2.40172
707,351,0,0,0,0,0,0,0,0,0,-1,1931,673,0,0
714,351,0,0,0,0,0,0,0,0,0,-1,1938,673,0,0
721,351,0,0,0,0,0,0,0,0,0,-1,1945,673,0,0
728,351,0,0,0,0,0,0,0,0,0,-1,1952,673,0,0
735,351,0,0,0,0,0,0,0,0,0,-1,1959,673,0,0
742,351,0,0,0,0,0,0,0,0,0,-1,1966,673,0,0
749,351,0,0,0,0,0,0,0,0,0,-1,1973,673,0,0
756,351,0,0,0,0,0,0,0,0,0,-1,1980,673,0,0
763,351,0,0,0,0,0,0,0,0,0,-1,1987,673,0,0
770,351,0,0,0,0,0,0,0,0,0,-1,1994,673,0,0
777,351,0,0,0,0,0,0,0,0,0,-1,2001,673,0,0
784,351,0,0,0,0,0,0,0,0,0,-1,2008,673,0,0
791,351,0,0,0,0,0,0,0,0,0,-1,2015,673,0,0
798,351,0,0,0,0,0,0,0,0,0,-1,2022,673,0,0
805,351,0,0,0,0,0,0,0,0,0,-1,2029,673,0,0
812,351,0,0,0,0,0,0,0,0,0,-1,2036,673,0,0
-700,344,0,0,0,0,0,0,0,0,0,-1,524,680,0,0
-693,344,0,0,0,0,0,0,0,0,0,-1,531,680,0,0
-686,344,0,0,0,0,0,0,0,0,0,-1,538,680,0,0
-679,344,0,0,0,0,0,0,0,0,0,-1,545,680,0,0
-672,344,0,0,0,0,0,0,0,0,0,-1,552,680,0,0
-665,344,0,0,0,0,0,0,0,0,0,-1,559,680,0,0
-658,344,0,0,0,0,0,0,0,0,0,-1,566,680,0,0
-651,344,0,0,0,0,0,0,0,0,0,-1,573,680,0,0
-644,344,0,0,0,0,0,0,0,0,0,-1,580,680,0,0
-637,344,0,0,0,0,0,0,0,0,0,-1,587,680,0,0
-630,344,0,0,0,0,0,0,0,0,0,-1,594,680,0,0
-623,344,0,0,0,0,0,0,0,0,0,-1,601,680,0,0
-616,344,0,0,0,0,0,0,0,0,0,-1,608,680,0,0
-609,344,0,0,0,0,0,0,0,0,0,-1,615,680,0,0
-602,344,0,0,0,0,0,0,0,0,0,-1,622,680,0,0
-595,344,0,0,0,0,0,0,0,0,0,-1,629,680,0,0
-588,344,-9.27826,1.47302,0,0,0,0,0,0,0,-1,636,680,-9.27829,-1.473
-581,344,-10.0098,1.71753,0,0,0,0,0,0,0,-1,643,680,-10.0098,-1.7175
-574,344,-10.2208,3.04871,0,0,0,0,0,0,0,-1,650,680,-10.2208,-3.04869
-567,344,-14.3779,2.29016,0,0,0,0,0,0,0,-1,657,680,-14.3779,-2.29014
-560,344,-14.1238,1.8374,0,0,0,0,0,0,0,-1,664,680,-14.1238,-1.83743
-553,344,-14.7884,2.00116,0,0,0,0,0,0,0,-1,671,680,-14.7884,-2.00115
-546,344,-17.4192,0.157654,0,0,0,0,0,0,0,-1,678,680,-17.4192,-0.157635
-539,344,-17.2671,-2.75714,0,0,0,0,0,0,0,-1,685,680,-17.2671,2.75712
-532,344,-17.2575,-4.23505,0,0,0,0,0,0,0,-1,692,680,-17.2575,4.23502
-525,344,-17.3618,-4.92828,0.0034028,0.00331721,-0.00146134,0.00482197,0.00189804,-0.770759,0.00280489,0.0472832,699,680,-17.3618,4.92828
-518,344,-17.3197,-5.70111,0.00283788,0.00238095,-0.00121399,0.00384471,0.00137412,-0.692389,0.00224964,0.0192184,706,680,-17.3197,5.70109
-511,344,-17.3359,-6.41833,0.00237569,0.00157313,-0.000937086,0.0029938,0.000955019,-0.583101,0.00176582,0.0176129,713,680,-17.3359,6.41834
-504,344,-17.3389,-7.11292,0.00207128,0.000860109,-0.000673988,0.00237178,0.000559607,-0.419403,0.00143159,0.0184491,720,680,-17.3389,7.11294
-497,344,-17.3668,-7.79291,0.00195858,0.00031587,-0.000478312,0.0020877,0.000186748,-0.263669,0.00133391,0.0163333,727,680,-17.3668,7.79289
-490,344,-17.4094,-8.45612,0.0019462,-6.7479e-05,-0.000384851,0.00201725,-0.000138524,-0.18255,0.00139331,0.0148911,734,680,-17.4094,8.45613
-483,344,-17.4007,-9.10278,0.00215523,-0.000270565,-0.000409583,0.00222252,-0.000337855,-0.162833,0.00160619,0.014469,741,680,-17.4007,9.10281
-476,344,-17.4257,-9.75482,0.00251498,-0.000284313,-0.000578495,0.00262982,-0.000399152,-0.195966,0.00190029,0.014166,748,680,-17.4257,9.75484
-469,344,-17.4434,-10.4531,0.00309586,1.45373e-05,-0.00101261,0.00339884,-0.000288446,-0.290731,0.00236791,0.0203732,755,680,-17.4434,10.453
-462,344,-17.3985,-11.1893,0,0,0,0,0,0,0,-1,762,680,-17.3985,11.1893
-455,344,-12.1653,-7.99176,0,0,0,0,0,0,0,-1,769,680,-12.1653,7.99174
-448,344,-5.67657,-2.72864,0,0,0,0,0,0,0,-1,776,680,-5.6766,2.72863
-441,344,-5.09229,-2.34167,0,0,0,0,0,0,0,-1,783,680,-5.09229,2.34168
-434,344,-4.28778,-2.08807,0,0,0,0,0,0,0,-1,790,680,-4.28778,2.08809
-427,344,-3.06506,-1.45404,0,0,0,0,0,0,0,-1,797,680,-3.06505,1.45402
-420,344,-1.96582,-1.57574,0,0,0,0,0,0,0,-1,804,680,-1.96579,1.57574
-413,344,-0.817993,-1.4751,0,0,0,0,0,0,0,-1,811,680,-0.818017,1.47511
-406,344,-0.00714111,-1.25189,0,0,0,0,0,0,0,-1,818,680,-0.00714956,1.25191
-399,344,0.240051,-1.75769,0,0,0,0,0,0,0,-1,825,680,0.240079,1.75767
-392,344,1.11353,-2.05615,0,0,0,0,0,0,0,-1,832,680,1.11351,2.05616
-385,344,0,0,0,0,0,0,0,0,0,-1,839,680,0,0
-378,344,0,0,0,0,0,0,0,0,0,-1,846,680,0,0
-371,344,0,0,0,0,0,0,0,0,0,-1,853,680,0,0
-364,344,0,0,0,0,0,0,0,0,0,-1,860,680,0,0
-357,344,0,0,0,0,0,0,0,0,0,-1,867,680,0,0
-350,344,0,0,0,0,0,0,0,0,0,-1,874,680,0,0
-343,344,0,0,0,0,0,0,0,0,0,-1,881,680,0,0
-336,344,0,0,0,0,0,0,0,0,0,-1,888,680,0,0
-329,344,0,0,0,0,0,0,0,0,0,-1,895,680,0,0
-322,344,0,0,0,0,0,0,0,0,0,-1,902,680,0,0
-315,344,0,0,0,0,0,0,0,0,0,-1,909,680,0,0
-308,344,0,0,0,0,0,0,0,0,0,-1,916,680,0,0
-301,344,0,0,0,0,0,0,0,0,0,-1,923,680,0,0
-294,344,0,0,0,0,0,0,0,0,0,-1,930,680,0,0
-287,344,0,0,0,0,0,0,0,0,0,-1,937,680,0,0
-280,344,0,0,0,0,0,0,0,0,0,-1,944,680,0,0
-273,344,0,0,0,0,0,0,0,0,0,-1,951,680,0,0
-266,344,0,0,0,0,0,0,0,0,0,-1,958,680,0,0
-259,344,0,0,0,0,0,0,0,0,0,-1,965,680,0,0
-252,344,0,0,0,0,0,0,0,0,0,-1,972,680,0,0
-245,344,0,0,0,0,0,0,0,0,0,-1,979,680,0,0
-238,344,0,0,0,0,0,0,0,0,0,-1,986,680,0,0
-231,344,0,0,0,0,0,0,0,0,0,-1,993,680,0,0
-224,344,0,0,0,0,0,0,0,0,0,-1,1000,680,0,0
-217,344,0,0,0,0,0,0,0,0,0,-1,1007,680,0,0
-210,344,0,0,0,0,0,0,0,0,0,-1,1014,680,0,0
-203,344,0,0,0,0,0,0,0,0,0,-1,1021,680,0,0
-196,344,0,0,0,0,0,0,0,0,0,-1,1028,680,0,0
-189,344,0,0,0,0,0,0,0,0,0,-1,1035,680,0,0
-182,344,0,0,0,0,0,0,0,0,0,-1,1042,680,0,0
-175,344,0,0,0,0,0,0,0,0,0,-1,1049,680,0,0
-168,344,0,0,0,0,0,0,0,0,0,-1,1056,680,0,0
-161,344,0,0,0,0,0,0,0,0,0,-1,1063,680,0,0
-154,344,0,0,0,0,0,0,0,0,0,-1,1070,680,0,0
-147,344,0,0,0,0,0,0,0,0,0,-1,1077,680,0,0
-140,344,0,0,0,0,0,0,0,0,0,-1,1084,680,0,0
-133,344,0,0,0,0,0,0,0,0,0,-1,1091,680,0,0
-126,344,0,0,0,0,0,0,0,0,0,-1,1098,680,0,0
-119,344,0,0,0,0,0,0,0,0,0,-1,1105,680,0,0
-112,344,0,0,0,0,0,0,0,0,0,-1,1112,680,0,0
-105,344,0,0,0,0,0,0,0,0,0,-1,1119,680,0,0
-98,344,0,0,0,0,0,0,0,0,0,-1,1126,680,0,0
-91,344,0,0,0,0,0,0,0,0,0,-1,1133,680,0,0
-84,344,0,0,0,0,0,0,0,0,0,-1,1140,680,0,0
-77,344,0,0,0,0,0,0,0,0,0,-1,1147,680,0,0
-70,344,0,0,0,0,0,0,0,0,0,-1,1154,680,0,0
-63,344,0,0,0,0,0,0,0,0,0,-1,1161,680,0,0
-56,344,0,0,0,0,0,0,0,0,0,-1,1168,680,0,0
-49,344,0,0,0,0,0,0,0,0,0,-1,1175,680,0,0
-42,344,0,0,0,0,0,0,0,0,0,-1,1182,680,0,0
-35,344,0,0,0,0,0,0,0,0,0,-1,1189,680,0,0
-28,344,0,0,0,0,0,0,0,0,0,-1,1196,680,0,0
-21,344,0,0,0,0,0,0,0,0,0,-1,1203,680,0,0
-14,344,0,0,0,0,0,0,0,0,0,-1,1210,680,0,0
-7,344,0,0,0,0,0,0,0,0,0,-1,1217,680,0,0
0,344,0,0,0,0,0,0,0,0,0,-1,1224,680,0,0
7,344,0,0,0,0,0,0,0,0,0,-1,1231,680,0,0
14,344,0,0,0,0,0,0,0,0,0,-1,1238,680,0,0
21,344,0,0,0,0,0,0,0,0,0,-1,1245,680,0,0
28,344,0,0,0,0,0,0,0,0,0,-1,1252,680,0,0
35,344,0,0,0,0,0,0,0,0,0,-1,1259,680,0,0
42,344,0,0,0,0,0,0,0,0,0,-1,1266,680,0,0
49,344,0,0,0,0,0,0,0,0,0,-1,1273,680,0,0
56,344,0,0,0,0,0,0,0,0,0,-1,1280,680,0,0
63,344,0,0,0,0,0,0,0,0,0,-1,1287,680,0,0
70,344,0,0,0,0,0,0,0,0,0,-1,1294,680,0,0
77,344,0,0,0,0,0,0,0,0,0,-1,1301,680,0,0
84,344,0,0,0,0,0,0,0,0,0,-1,1308,680,0,0
91,344,0,0,0,0,0,0,0,0,0,-1,1315,680,0,0
98,344,0,0,0,0,0,0,0,0,0,-1,1322,680,0,0
105,344,0,0,0,0,0,0,0,0,0,-1,1329,680,0,0
112,344,0,0,0,0,0,0,0,0,0,-1,1336,680,0,0
119,344,0,0,0,0,0,0,0,0,0,-1,1343,680,0,0
126,344,0,0,0,0,0,0,0,0,0,-1,1350,680,0,0
133,344,0,0,0,0,0,0,0,0,0,-1,1357,680,0,0
140,344,0,0,0,0,0,0,0,0,0,-1,1364,680,0,0
147,344,0,0,0,0,0,0,0,0,0,-1,1371,680,0,0
154,344,0,0,0,0,0,0,0,0,0,-1,1378,680,0,0
161,344,0,0,0,0,0,0,0,0,0,-1,1385,680,0,0
168,344,0,0,0,0,0,0,0,0,0,-1,1392,680,0,0
175,344,0,0,0,0,0,0,0,0,0,-1,1399,680,0,0
182,344,0,0,0,0,0,0,0,0,0,-1,1406,680,0,0
189,344,0,0,0,0,0,0,0,0,0,-1,1413,680,0,0
196,344,0,0,0,0,0,0,0,0,0,-1,1420,680,0,0
203,344,0,0,0,0,0,0,0,0,0,-1,1427,680,0,0
210,344,0,0,0,0,0,0,0,0,0,-1,1434,680,0,0
217,344,0,0,0,0,0,0,0,0,0,-1,1441,680,0,0
224,344,0,0,0,0,0,0,0,0,0,-1,1448,680,0,0
231,344,0,0,0,0,0,0,0,0,0,-1,1455,680,0,0
238,344,0,0,0,0,0,0,0,0,0,-1,1462,680,0,0
245,344,0,0,0,0,0,0,0,0,0,-1,1469,680,0,0
252,344,0,0,0,0,0,0,0,0,0,-1,1476,680,0,0
259,344,0,0,0,0,0,0,0,0,0,-1,1483,680,0,0
266,344,0,0,0,0,0,0,0,0,0,-1,1490,680,0,0
273,344,0,0,0,0,0,0,0,0,0,-1,1497,680,0,0
280,344,0,0,0,0,0,0,0,0,0,-1,1504,680,0,0
287,344,0,0,0,0,0,0,0,0,0,-1,1511,680,0,0
294,344,0,0,0,0,0,0,0,0,0,-1,1518,680,0,0
301,344,0,0,0,0,0,0,0,0,0,-1,1525,680,0,0
308,344,0,0,0,0,0,0,0,0,0,-1,1532,680,0,0
315,344,0,0,0,0,0,0,0,0,0,-1,1539,680,0,0
322,344,0,0,0,0,0,0,0,0,0,-1,1546,680,0,0
329,344,0,0,0,0,0,0,0,0,0,-1,1553,680,0,0
336,344,0,0,0,0,0,0,0,0,0,-1,1560,680,0,0
343,344,0,0,0,0,0,0,0,0,0,-1,1567,680,0,0
350,344,0,0,0,0,0,0,0,0,0,-1,1574,680,0,0
357,344,0,0,0,0,0,0,0,0,0,-1,1581,680,0,0
364,344,0,0,0,0,0,0,0,0,0,-1,1588,680,0,0
371,344,0,0,0,0,0,0,0,0,0,-1,1595,680,0,0
378,344,0,0,0,0,0,0,0,0,0,-1,1602,680,0,0
385,344,0,0,0,0,0,0,0,0,0,-1,1609,680,0,0
392,344,0,0,0,0,0,0,0,0,0,-1,1616,680,0,0
399,344,0,0,0,0,0,0,0,0,0,-1,1623,680,0,0
406,344,0,0,0,0,0,0,0,0,0,-1,1630,680,0,0
413,344,0,0,0,0,0,0,0,0,0,-1,1637,680,0,0
420,344,0,0,0,0,0,0,0,0,0,-1,1644,680,0,0
427,344,0,0,0,0,0,0,0,0,0,-1,1651,680,0,0
434,344,0,0,0,0,0,0,0,0,0,-1,1658,680,0,0
441,344,0,0,0,0,0,0,0,0,0,-1,1665,680,0,0
448,344,0,0,0,0,0,0,0,0,0,-1,1672,680,0,0
455,344,0,0,0,0,0,0,0,0,0,-1,1679,680,0,0
462,344,0,0,0,0,0,0,0,0,0,-1,1686,680,0,0
469,344,0,0,0,0,0,0,0,0,0,-1,1693,680,0,0
476,344,0,0,0,0,0,0,0,0,0,-1,1700,680,0,0
483,344,0,0,0,0,0,0,0,0,0,-1,1707,680,0,0
490,344,0,0,0,0,0,0,0,0,0,-1,1714,680,0,0
497,344,0,0,0,0,0,0,0,0,0,-1,1721,680,0,0
504,344,0,0,0,0,0,0,0,0,0,-1,1728,680,0,0
511,344,15.4819,0.452637,0,0,0,0,0,0,0,-1,1735,680,15.4819,-0.452656
518,344,17.1357,2.31207,0,0,0,0,0,0,0,-1,1742,680,17.1358,-2.31207
525,344,31.5201,2.6217,0,0,0,0,0,0,0,-1,1749,680,31.5201,-2.62168
532,344,31.9766,2.61047,0,0,0,0,0,0,0,-1,1756,680,31.9765,-2.6105
539,344,32.4379,2.65314,0,0,0,0,0,0,0,-1,1763,680,32.4378,-2.65316
546,344,14.6722,4.30243,0,0,0,0,0,0,0,-1,1770,680,14.6722,-4.30241
553,344,14.8136,4.35681,0,0,0,0,0,0,0,-1,1777,680,14.8136,-4.35679
560,344,11.9363,2.14185,0,0,0,0,0,0,0,-1,1784,680,11.9362,-2.14182
567,344,11.397,0.925842,0,0,0,0,0,0,0,-1,1791,680,11.397,-0.92583
574,344,10.0004,0.504639,0,0,0,0,0,0,0,-1,1798,680,10.0004,-0.504645
581,344,13.6709,-0.969604,0,0,0,0,0,0,0,-1,1805,680,13.6709,0.969629
588,344,16.1447,-3.15948,0,0,0,0,0,0,0,-1,1812,680,16.1447,3.15946
595,344,29.5569,-9.29321,0,0,0,0,0,0,0,-1,1819,680,29.5569,9.29324
602,344,29.7913,-8.33069,0.000797071,0.000700539,0.000114677,0.000873226,0.000624385,0.586206,0.000519466,0.0418928,1826,680,29.7913,8.33068
609,344,29.6406,-7.62982,0.00122986,0.000656889,0.000306253,0.00136274,0.000524012,0.409367,0.00079374,0.0167387,1833,680,29.6406,7.62983
616,344,29.5876,-6.91174,0.00147836,0.000692996,0.000532192,0.00174706,0.000424295,0.467556,0.00105219,0.022706,1840,680,29.5876,6.91172
623,344,29.5787,-6.23499,0.00133606,0.000654105,0.000542547,0.00163588,0.000354284,0.504851,0.000993771,0.0186315,1847,680,29.5788,6.23498
630,344,29.5909,-5.55261,0.00106388,0.000662301,0.000566487,0.00146411,0.000262071,0.615083,0.000901505,0.0243458,1854,680,29.5909,5.5526
637,344,29.5629,-4.86865,0.000563201,0.000610402,0.000473203,0.00106059,0.00011301,0.810314,0.000672564,0.0248358,1861,680,29.5629,4.86863
644,344,29.4775,-4.14423,-0.000227739,0.000516054,0.000253065,0.00059399,-0.000305675,1.27205,0.000528237,0.0166818,1868,680,29.4776,4.14423
651,344,29.4352,-3.41962,-0.00131618,0.000457581,-7.49796e-05,0.000460745,-0.00131934,-1.52863,0.00106684,0.0110459,1875,680,29.4351,3.41963
658,344,29.4143,-2.63605,-0.00282204,0.000335513,-0.000626438,0.000455253,-0.00294178,-1.38193,0.00212923,0.0235396,1882,680,29.4143,2.63607
665,344,29.2633,-1.96783,-0.00464148,0.000112057,-0.00128747,0.000438362,-0.00496778,-1.32258,0.00346722,0.0393315,1889,680,29.2633,1.96781
672,344,29.2712,-1.33734,0,0,0,0,0,0,0,-1,1896,680,29.2713,1.33736
679,344,28.2183,-0.882141,0,0,0,0,0,0,0,-1,1903,680,28.2183,0.88215
686,344,15.024,1.82709,0,0,0,0,0,0,0,-1,1910,680,15.024,-1.82706
693,344,12.4362,-1.42346,0,0,0,0,0,0,0,-1,1917,680,12.4361,1.42348
700,344,17.5396,2.61206,0,0,0,0,0,0,0,-1,1924,680,17.5396,-2.61204
707,344,18.5829,3.29352,0,0,0,0,0,0,0,-1,1931,680,18.5828,-3.2935
714,344,0,0,0,0,0,0,0,0,0,-1,1938,680,0,0
721,344,0,0,0,0,0,0,0,0,0,-1,1945,680,0,0
728,344,0,0,0,0,0,0,0,0,0,-1,1952,680,0,0
735,344,0,0,0,0,0,0,0,0,0,-1,1959,680,0,0
742,344,0,0,0,0,0,0,0,0,0,-1,1966,680,0,0
749,344,0,0,0,0,0,0,0,0,0,-1,1973,680,0,0
756,344,0,0,0,0,0,0,0,0,0,-1,1980,680,0,0
763,344,0,0,0,0,0,0,0,0,0,-1,1987,680,0,0
770,344,0,0,0,0,0,0,0,0,0,-1,1994,680,0,0
777,344,0,0,0,0,0,0,0,0,0,-1,2001,680,0,0
784,344,0,0,0,0,0,0,0,0,0,-1,2008,680,0,0
791,344,0,0,0,0,0,0,0,0,0,-1,2015,680,0,0
798,344,0,0,0,0,0,0,0,0,0,-1,2022,680,0,0
805,344,0,0,0,0,0,0,0,0,0,-1,2029,680,0,0
812,344,0,0,0,0,0,0,0,0,0,-1,2036,680,0,0
-700,337,0,0,0,0,0,0,0,0,0,-1,524,687,0,0
-693,337,0,0,0,0,0,0,0,0,0,-1,531,687,0,0
-686,337,0,0,0,0,0,0,0,0,0,-1,538,687,0,0
-679,337,0,0,0,0,0,0,0,0,0,-1,545,687,0,0
-672,337,0,0,0,0,0,0,0,0,0,-1,552,687,0,0
-665,337,0,0,0,0,0,0,0,0,0,-1,559,687,0,0
-658,337,0,0,0,0,0,0,0,0,0,-1,566,687,0,0
-651,337,0,0,0,0,0,0,0,0,0,-1,573,687,0,0
-644,337,0,0,0,0,0,0,0,0,0,-1,580,687,0,0
-637,337,0,0,0,0,0,0,0,0,0,-1,587,687,0,0
-630,337,0,0,0,0,0,0,0,0,0,-1,594,687,0,0
-623,337,0,0,0,0,0,0,0,0,0,-1,601,687,0,0
-616,337,0,0,0,0,0,0,0,0,0,-1,608,687,0,0
-609,337,0,0,0,0,0,0,0,0,0,-1,615,687,0,0
-602,337,0,0,0,0,0,0,0,0,0,-1,622,687,0,0
-595,337,0,0,0,0,0,0,0,0,0,-1,629,687,0,0
-588,337,-10.8413,1.27863,0,0,0,0,0,0,0,-1,636,687,-10.8413,-1.27861
-581,337,-11.2157,1.31567,0,0,0,0,0,0,0,-1,643,687,-11.2157,-1.3157
-574,337,-6.03339,2.0321,0,0,0,0,0,0,0,-1,650,687,-6.03337,-2.03213
-567,337,-13.8102,1.56787,0,0,0,0,0,0,0,-1,657,687,-13.8102,-1.56789
-560,337,-15.5435,2.34247,0,0,0,0,0,0,0,-1,664,687,-15.5435,-2.34247
-553,337,-18.0128,1.12927,0,0,0,0,0,0,0,-1,671,687,-18.0128,-1.12926
-546,337,-18.0244,-2.03845,0,0,0,0,0,0,0,-1,678,687,-18.0244,2.03846
-539,337,-18.033,-3.47937,0,0,0,0,0,0,0,-1,685,687,-18.033,3.47934
-532,337,-17.8582,-4.33533,0.00339503,0.00325608,-0.00104477,0.00437263,0.00227848,-0.752197,0.00252529,0.0377148,692,687,-17.8582,4.33533
-525,337,-17.9939,-5.00989,0.00282543,0.00225554,-0.000885627,0.00347082,0.00161014,-0.629755,0.00200562,0.0167513,699,687,-17.9939,5.00987
-518,337,-17.9975,-5.70074,0.00236096,0.0014231,-0.000634851,0.00268129,0.00110277,-0.4673,0.00155614,0.0222951,706,687,-17.9975,5.70073
-511,337,-18.0398,-6.37964,0.00202619,0.000713947,-0.000383705,0.00213015,0.000609986,-0.264587,0.00126671,0.0246814,713,687,-18.0398,6.37962
-504,337,-18.0535,-7.08887,0.00179988,0.000130446,-0.000157116,0.00181453,0.000115788,-0.093025,0.001173,0.024696,720,687,-18.0535,7.08889
-497,337,-18.058,-7.77228,0.00174675,-0.000257867,-2.53526e-05,0.00174707,-0.000258188,-0.0126444,0.00125963,0.0171256,727,687,-18.058,7.77229
-490,337,-18.0999,-8.44366,0.00183609,-0.000484755,-3.28096e-06,0.00183609,-0.00048476,-0.00141369,0.00141363,0.0151422,734,687,-18.0998,8.44365
-483,337,-18.0975,-9.11633,0.00215321,-0.000493452,-0.000141323,0.00216073,-0.000500977,-0.0531951,0.0016333,0.0156933,741,687,-18.0975,9.11631
-476,337,-18.0996,-9.78247,0.00260905,-0.00029072,-0.000459268,0.00268006,-0.000361721,-0.153381,0.00191868,0.0166724,748,687,-18.0996,9.78247
-469,337,-18.0651,-10.5048,0,0,0,0,0,0,0,-1,755,687,-18.0651,10.5048
-462,337,-14.186,-8.89264,0,0,0,0,0,0,0,-1,762,687,-14.186,8.89266
-455,337,-6.00574,-3.12933,0,0,0,0,0,0,0,-1,769,687,-6.00576,3.12934
-448,337,-5.30627,-2.07202,0,0,0,0,0,0,0,-1,776,687,-5.30628,2.07205
-441,337,-4.24762,-1.49597,0,0,0,0,0,0,0,-1,783,687,-4.24762,1.49598
-434,337,-6.86908,1.37531,0,0,0,0,0,0,0,-1,790,687,-6.86908,-1.3753
-427,337,-9.92004,2.487,0,0,0,0,0,0,0,-1,797,687,-9.92002,-2.48701
-420,337,-2.95996,-1.76697,0,0,0,0,0,0,0,-1,804,687,-2.95998,1.76696
-413,337,-1.29169,-1.99487,0,0,0,0,0,0,0,-1,811,687,-1.29171,1.9949
-406,337,-1.02356,-1.89563,0,0,0,0,0,0,0,-1,818,687,-1.02357,1.89564
-399,337,-0.472839,-2.21338,0,0,0,0,0,0,0,-1,825,687,-0.472837,2.2134
-392,337,0,0,0,0,0,0,0,0,0,-1,832,687,0,0
-385,337,0,0,0,0,0,0,0,0,0,-1,839,687,0,0
-378,337,0,0,0,0,0,0,0,0,0,-1,846,687,0,0
-371,337,0,0,0,0,0,0,0,0,0,-1,853,687,0,0
-364,337,0,0,0,0,0,0,0,0,0,-1,860,687,0,0
-357,337,0,0,0,0,0,0,0,0,0,-1,867,687,0,0
-350,337,0,0,0,0,0,0,0,0,0,-1,874,687,0,0
-343,337,0,0,0,0,0,0,0,0,0,-1,881,687,0,0
-336,337,0,0,0,0,0,0,0,0,0,-1,888,687,0,0
-329,337,0,0,0,0,0,0,0,0,0,-1,895,687,0,0
-322,337,0,0,0,0,0,0,0,0,0,-1,902,687,0,0
-315,337,0,0,0,0,0,0,0,0,0,-1,909,687,0,0
-308,337,0,0,0,0,0,0,0,0,0,-1,916,687,0,0
-301,337,0,0,0,0,0,0,0,0,0,-1,923,687,0,0
-294,337,0,0,0,0,0,0,0,0,0,-1,930,687,0,0
-287,337,0,0,0,0,0,0,0,0,0,-1,937,687,0,0
-280,337,0,0,0,0,0,0,0,0,0,-1,944,687,0,0
-273,337,0,0,0,0,0,0,0,0,0,-1,951,687,0,0
-266,337,0,0,0,0,0,0,0,0,0,-1,958,687,0,0
-259,337,0,0,0,0,0,0,0,0,0,-1,965,687,0,0
-252,337,0,0,0,0,0,0,0,0,0,-1,972,687,0,0
-245,337,0,0,0,0,0,0,0,0,0,-1,979,687,0,0
-238,337,0,0,0,0,0,0,0,0,0,-1,986,687,0,0
-231,337,0,0,0,0,0,0,0,0,0,-1,993,687,0,0
-224,337,0,0,0,0,0,0,0,0,0,-1,1000,687,0,0
-217,337,0,0,0,0,0,0,0,0,0,-1,1007,687,0,0
-210,337,0,0,0,0,0,0,0,0,0,-1,1014,687,0,0
-203,337,0,0,0,0,0,0,0,0,0,-1,1021,687,0,0
-196,337,0,0,0,0,0,0,0,0,0,-1,1028,687,0,0
-189,337,0,0,0,0,0,0,0,0,0,-1,1035,687,0,0
-182,337,0,0,0,0,0,0,0,0,0,-1,1042,687,0,0
-175,337,0,0,0,0,0,0,0,0,0,-1,1049,687,0,0
-168,337,0,0,0,0,0,0,0,0,0,-1,1056,687,0,0
-161,337,0,0,0,0,0,0,0,0,0,-1,1063,687,0,0
-154,337,0,0,0,0,0,0,0,0,0,-1,1070,687,0,0
-147,337,0,0,0,0,0,0,0,0,0,-1,1077,687,0,0
-140,337,0,0,0,0,0,0,0,0,0,-1,1084,687,0,0
-133,337,0,0,0,0,0,0,0,0,0,-1,1091,687,0,0
-126,337,0,0,0,0,0,0,0,0,0,-1,1098,687,0,0
-119,337,0,0,0,0,0,0,0,0,0,-1,1105,687,0,0
-112,337,0,0,0,0,0,0,0,0,0,-1,1112,687,0,0
-105,337,0,0,0,0,0,0,0,0,0,-1,1119,687,0,0
-98,337,0,0,0,0,0,0,0,0,0,-1,1126,687,0,0
-91,337,0,0,0,0,0,0,0,0,0,-1,1133,687,0,0
-84,337,0,0,0,0,0,0,0,0,0,-1,1140,687,0,0
-77,337,0,0,0,0,0,0,0,0,0,-1,1147,687,0,0
-70,337,0,0,0,0,0,0,0,0,0,-1,1154,687,0,0
-63,337,0,0,0,0,0,0,0,0,0,-1,1161,687,0,0
-56,337,0,0,0,0,0,0,0,0,0,-1,1168,687,0,0
-49,337,0,0,0,0,0,0,0,0,0,-1,1175,687,0,0
-42,337,0,0,0,0,0,0,0,0,0,-1,1182,687,0,0
-35,337,0,0,0,0,0,0,0,0,0,-1,1189,687,0,0
-28,337,0,0,0,0,0,0,0,0,0,-1,1196,687,0,0
-21,337,0,0,0,0,0,0,0,0,0,-1,1203,687,0,0
-14,337,0,0,0,0,0,0,0,0,0,-1,1210,687,0,0
-7,337,0,0,0,0,0,0,0,0,0,-1,1217,687,0,0
0,337,0,0,0,0,0,0,0,0,0,-1,1224,687,0,0
7,337,0,0,0,0,0,0,0,0,0,-1,1231,687,0,0
14,337,0,0,0,0,0,0,0,0,0,-1,1238,687,0,0
21,337,0,0,0,0,0,0,0,0,0,-1,1245,687,0,0
28,337,0,0,0,0,0,0,0,0,0,-1,1252,687,0,0
35,337,0,0,0,0,0,0,0,0,0,-1,1259,687,0,0
42,337,0,0,0,0,0,0,0,0,0,-1,1266,687,0,0
49,337,0,0,0,0,0,0,0,0,0,-1,1273,687,0,0
56,337,0,0,0,0,0,0,0,0,0,-1,1280,687,0,0
63,337,0,0,0,0,0,0,0,0,0,-1,1287,687,0,0
70,337,0,0,0,0,0,0,0,0,0,-1,1294,687,0,0
77,337,0,0,0,0,0,0,0,0,0,-1,1301,687,0,0
84,337,0,0,0,0,0,0,0,0,0,-1,1308,687,0,0
91,337,0,0,0,0,0,0,0,0,0,-1,1315,687,0,0
98,337,0,0,0,0,0,0,0,0,0,-1,1322,687,0,0
105,337,0,0,0,0,0,0,0,0,0,-1,1329,687,0,0
112,337,0,0,0,0,0,0,0,0,0,-1,1336,687,0,0
119,337,0,0,0,0,0,0,0,0,0,-1,1343,687,0,0
126,337,0,0,0,0,0,0,0,0,0,-1,1350,687,0,0
133,337,0,0,0,0,0,0,0,0,0,-1,1357,687,0,0
140,337,0,0,0,0,0,0,0,0,0,-1,1364,687,0,0
147,337,0,0,0,0,0,0,0,0,0,-1,1371,687,0,0
154,337,0,0,0,0,0,0,0,0,0,-1,1378,687,0,0
161,337,0,0,0,0,0,0,0,0,0,-1,1385,687,0,0
168,337,0,0,0,0,0,0,0,0,0,-1,1392,687,0,0
175,337,0,0,0,0,0,0,0,0,0,-1,1399,687,0,0
182,337,0,0,0,0,0,0,0,0,0,-1,1406,687,0,0
189,337,0,0,0,0,0,0,0,0,0,-1,1413,687,0,0
196,337,0,0,0,0,0,0,0,0,0,-1,1420,687,0,0
203,337,0,0,0,0,0,0,0,0,0,-1,1427,687,0,0
210,337,0,0,0,0,0,0,0,0,0,-1,1434,687,0,0
217,337,0,0,0,0,0,0,0,0,0,-1,1441,687,0,0
224,337,0,0,0,0,0,0,0,0,0,-1,1448,687,0,0
231,337,0,0,0,0,0,0,0,0,0,-1,1455,687,0,0
238,337,0,0,0,0,0,0,0,0,0,-1,1462,687,0,0
245,337,0,0,0,0,0,0,0,0,0,-1,1469,687,0,0
252,337,0,0,0,0,0,0,0,0,0,-1,1476,687,0,0
259,337,0,0,0,0,0,0,0,0,0,-1,1483,687,0,0
266,337,0,0,0,0,0,0,0,0,0,-1,1490,687,0,0
273,337,0,0,0,0,0,0,0,0,0,-1,1497,687,0,0
280,337,0,0,0,0,0,0,0,0,0,-1,1504,687,0,0
287,337,0,0,0,0,0,0,0,0,0,-1,1511,687,0,0
294,337,0,0,0,0,0,0,0,0,0,-1,1518,687,0,0
301,337,0,0,0,0,0,0,0,0,0,-1,1525,687,0,0
308,337,0,0,0,0,0,0,0,0,0,-1,1532,687,0,0
315,337,0,0,0,0,0,0,0,0,0,-1,1539,687,0,0
322,337,0,0,0,0,0,0,0,0,0,-1,1546,687,0,0
329,337,0,0,0,0,0,0,0,0,0,-1,1553,687,0,0
336,337,0,0,0,0,0,0,0,0,0,-1,1560,687,0,0
343,337,0,0,0,0,0,0,0,0,0,-1,1567,687,0,0
350,337,0,0,0,0,0,0,0,0,0,-1,1574,687,0,0
357,337,0,0,0,0,0,0,0,0,0,-1,1581,687,0,0
364,337,0,0,0,0,0,0,0,0,0,-1,1588,687,0,0
371,337,0,0,0,0,0,0,0,0,0,-1,1595,687,0,0
378,337,0,0,0,0,0,0,0,0,0,-1,1602,687,0,0
385,337,0,0,0,0,0,0,0,0,0,-1,1609,687,0,0
392,337,0,0,0,0,0,0,0,0,0,-1,1616,687,0,0
399,337,0,0,0,0,0,0,0,0,0,-1,1623,687,0,0
406,337,0,0,0,0,0,0,0,0,0,-1,1630,687,0,0
413,337,0,0,0,0,0,0,0,0,0,-1,1637,687,0,0
420,337,0,0,0,0,0,0,0,0,0,-1,1644,687,0,0
427,337,0,0,0,0,0,0,0,0,0,-1,1651,687,0,0
434,337,0,0,0,0,0,0,0,0,0,-1,1658,687,0,0
441,337,0,0,0,0,0,0,0,0,0,-1,1665,687,0,0
448,337,0,0,0,0,0,0,0,0,0,-1,1672,687,0,0
455,337,0,0,0,0,0,0,0,0,0,-1,1679,687,0,0
462,337,0,0,0,0,0,0,0,0,0,-1,1686,687,0,0
469,337,0,0,0,0,0,0,0,0,0,-1,1693,687,0,0
476,337,0,0,0,0,0,0,0,0,0,-1,1700,687,0,0
483,337,0,0,0,0,0,0,0,0,0,-1,1707,687,0,0
490,337,0,0,0,0,0,0,0,0,0,-1,1714,687,0,0
497,337,0,0,0,0,0,0,0,0,0,-1,1721,687,0,0
504,337,0,0,0,0,0,0,0,0,0,-1,1728,687,0,0
511,337,0,0,0,0,0,0,0,0,0,-1,1735,687,0,0
518,337,18.0369,1.64581,0,0,0,0,0,0,0,-1,1742,687,18.0368,-1.64581
525,337,31.0717,2.13745,0,0,0,0,0,0,0,-1,1749,687,31.0717,-2.13747
532,337,31.5126,2.13904,0,0,0,0,0,0,0,-1,1756,687,31.5125,-2.13905
539,337,31.9684,2.15594,0,0,0,0,0,0,0,-1,1763,687,31.9684,-2.15596
546,337,32.3584,1.43719,0,0,0,0,0,0,0,-1,1770,687,32.3585,-1.43722
553,337,32.1809,1.36395,0,0,0,0,0,0,0,-1,1777,687,32.181,-1.36396
560,337,18.4053,3.62793,0,0,0,0,0,0,0,-1,1784,687,18.4052,-3.6279
567,337,11.9288,1.38776,0,0,0,0,0,0,0,-1,1791,687,11.9288,-1.38777
574,337,10.704,1.19476,0,0,0,0,0,0,0,-1,1798,687,10.704,-1.19478
581,337,8.50427,0.561768,0,0,0,0,0,0,0,-1,1805,687,8.5043,-0.561754
588,337,8.5885,-0.0536499,0,0,0,0,0,0,0,-1,1812,687,8.58844,0.0536788
595,337,13.8816,-1.70703,0,0,0,0,0,0,0,-1,1819,687,13.8816,1.70702
602,337,30.3531,-8.36877,0,0,0,0,0,0,0,-1,1826,687,30.3531,8.3688
609,337,30.3336,-7.55322,0.00146388,0.000538808,0.000281091,0.0015426,0.000460094,0.273036,0.000914465,0.025344,1833,687,30.3336,7.55321
616,337,30.277,-6.87128,0.00171397,0.00051308,0.000577286,0.00194647,0.000280582,0.382869,0.00121497,0.0187011,1840,687,30.277,6.87127
623,337,30.2715,-6.21472,0.00148774,0.000383283,0.000541349,0.00170882,0.000162198,0.387725,0.00108918,0.015173,1847,687,30.2715,6.21473
630,337,30.2538,-5.51831,0.00114409,0.000339646,0.000537722,0.00141338,7.03572e-05,0.464284,0.000919699,0.0187423,1854,687,30.2538,5.51834
637,337,30.2295,-4.83289,0.000641378,0.000296637,0.000461439,0.00096159,-2.35753e-05,0.606649,0.000649061,0.0176231,1861,687,30.2295,4.83287
644,337,30.1671,-4.11011,-5.61381e-05,0.000270683,0.000309027,0.000456844,-0.000242299,1.02861,0.000409937,0.0113881,1868,687,30.1671,4.11011
651,337,30.1342,-3.38647,-0.00094679,0.000283115,8.70825e-05,0.00028925,-0.000952926,1.50046,0.000750516,0.0098582,1875,687,30.1342,3.38646
658,337,30.1233,-2.68011,-0.0020721,0.000339529,-0.000235334,0.000362279,-0.00209485,-1.47442,0.00153168,0.0115632,1882,687,30.1233,2.68011
665,337,30.1254,-1.98682,-0.00332434,0.000406957,-0.000579431,0.000494865,-0.00341225,-1.42023,0.00245646,0.0157229,1889,687,30.1254,1.98679
672,337,30.1429,-1.25458,0,0,0,0,0,0,0,-1,1896,687,30.1429,1.25456
679,337,29.5891,-0.512573,0,0,0,0,0,0,0,-1,1903,687,29.5891,0.512568
686,337,18.5614,1.68597,0,0,0,0,0,0,0,-1,1910,687,18.5614,-1.68598
693,337,16.5415,2.21411,0,0,0,0,0,0,0,-1,1917,687,16.5415,-2.2141
700,337,17.2661,2.44379,0,0,0,0,0,0,0,-1,1924,687,17.2661,-2.44378
707,337,17.3544,5.61853,0,0,0,0,0,0,0,-1,1931,687,17.3543,-5.61851
714,337,0,0,0,0,0,0,0,0,0,-1,1938,687,0,0
721,337,0,0,0,0,0,0,0,0,0,-1,1945,687,0,0
728,337,0,0,0,0,0,0,0,0,0,-1,1952,687,0,0
735,337,0,0,0,0,0,0,0,0,0,-1,1959,687,0,0
742,337,0,0,0,0,0,0,0,0,0,-1,1966,687,0,0
749,337,0,0,0,0,0,0,0,0,0,-1,1973,687,0,0
756,337,0,0,0,0,0,0,0,0,0,-1,1980,687,0,0
763,337,0,0,0,0,0,0,0,0,0,-1,1987,687,0,0
770,337,0,0,0,0,0,0,0,0,0,-1,1994,687,0,0
777,337,0,0,0,0,0,0,0,0,0,-1,2001,687,0,0
784,337,0,0,0,0,0,0,0,0,0,-1,2008,687,0,0
791,337,0,0,0,0,0,0,0,0,0,-1,2015,687,0,0
798,337,0,0,0,0,0,0,0,0,0,-1,2022,687,0,0
805,337,0,0,0,0,0,0,0,0,0,-1,2029,687,0,0
812,337,0,0,0,0,0,0,0,0,0,-1,2036,687,0,0
-700,330,0,0,0,0,0,0,0,0,0,-1,524,694,0,0
-693,330,0,0,0,0,0,0,0,0,0,-1,531,694,0,0
-686,330,0,0,0,0,0,0,0,0,0,-1,538,694,0,0
-679,330,0,0,0,0,0,0,0,0,0,-1,545,694,0,0
-672,330,0,0,0,0,0,0,0,0,0,-1,552,694,0,0
-665,330,0,0,0,0,0,0,0,0,0,-1,559,694,0,0
-658,330,0,0,0,0,0,0,0,0,0,-1,566,694,0,0
-651,330,0,0,0,0,0,0,0,0,0,-1,573,694,0,0
-644,330,0,0,0,0,0,0,0,0,0,-1,580,694,0,0
-637,330,0,0,0,0,0,0,0,0,0,-1,587,694,0,0
-630,330,0,0,0,0,0,0,0,0,0,-1,594,694,0,0
-623,330,0,0,0,0,0,0,0,0,0,-1,601,694,0,0
-616,330,0,0,0,0,0,0,0,0,0,-1,608,694,0,0
-609,330,0,0,0,0,0,0,0,0,0,-1,615,694,0,0
-602,330,0,0,0,0,0,0,0,0,0,-1,622,694,0,0
-595,330,-4.67883,1.65515,0,0,0,0,0,0,0,-1,629,694,-4.67881,-1.65515
-588,330,-8.5047,2.67346,0,0,0,0,0,0,0,-1,636,694,-8.50469,-2.67348
-581,330,-12.4227,0.947083,0,0,0,0,0,0,0,-1,643,694,-12.4227,-0.947109
-574,330,-9.02118,1.87952,0,0,0,0,0,0,0,-1,650,694,-9.02115,-1.87953
-567,330,-8.35577,0.909973,0,0,0,0,0,0,0,-1,657,694,-8.35575,-0.909945
-560,330,-13.1036,-0.584656,0,0,0,0,0,0,0,-1,664,694,-13.1035,0.584658
-553,330,-17.5484,-1.21545,0,0,0,0,0,0,0,-1,671,694,-17.5484,1.21547
-546,330,-18.4778,-2.71588,0,0,0,0,0,0,0,-1,678,694,-18.4778,2.71585
-539,330,-18.7235,-3.49847,0,0,0,0,0,0,0,-1,685,694,-18.7235,3.49849
-532,330,-18.6821,-4.28156,0.00275908,0.00232822,-0.000631605,0.00321099,0.00187632,-0.621045,0.00186263,0.0188392,692,694,-18.6821,4.28154
-525,330,-18.6517,-5.02484,0.00236901,0.0015037,-0.000504531,0.00260099,0.00127172,-0.430971,0.00150181,0.0102181,699,694,-18.6517,5.02486
-518,330,-18.6533,-5.66052,0.00204885,0.00083011,-0.000314372,0.00212516,0.000753797,-0.238142,0.00124411,0.0144544,706,694,-18.6533,5.66055
-511,330,-18.7086,-6.34393,0.00182073,0.000265865,-0.000110375,0.00182852,0.000258069,-0.0705157,0.00114275,0.0206888,713,694,-18.7085,6.34393
-504,330,-18.7419,-7.04218,0.00167414,-0.000149701,8.97346e-05,0.00167854,-0.000154105,0.0490432,0.00117377,0.0191167,720,694,-18.7419,7.04218
-497,330,-18.7598,-7.7016,0.00169284,-0.000364778,0.000192467,0.00171069,-0.000382626,0.0924699,0.0012871,0.0131053,727,694,-18.7598,7.70163
-490,330,-18.773,-8.39111,0.00190408,-0.000432464,0.000210191,0.00192284,-0.000451221,0.0890061,0.0014558,0.0137819,734,694,-18.773,8.39109
-483,330,-18.7716,-9.09119,0.00233315,-0.000258236,6.54509e-05,0.0023348,-0.000259888,0.0252357,0.00165,0.0146363,741,694,-18.7716,9.09116
-476,330,-18.766,-9.80963,0,0,0,0,0,0,0,-1,748,694,-18.766,9.80964
-469,330,-16.1478,-9.23303,0,0,0,0,0,0,0,-1,755,694,-16.1478,9.23301
-462,330,-7.26733,-3.84833,0,0,0,0,0,0,0,-1,762,694,-7.26731,3.84832
-455,330,-5.04254,-1.79303,0,0,0,0,0,0,0,-1,769,694,-5.04252,1.79305
-448,330,-4.89886,-1.66156,0,0,0,0,0,0,0,-1,776,694,-4.89886,1.66157
-441,330,-5.30676,-2.34045,0,0,0,0,0,0,0,-1,783,694,-5.30679,2.34048
-434,330,-7.20428,1.00024,0,0,0,0,0,0,0,-1,790,694,-7.20431,-1.00027
-427,330,-16.0428,2.89258,0,0,0,0,0,0,0,-1,797,694,-16.0428,-2.89259
-420,330,-29.0331,0.271606,0,0,0,0,0,0,0,-1,804,694,-29.0331,-0.27158
-413,330,-29.0896,0.56366,0,0,0,0,0,0,0,-1,811,694,-29.0896,-0.563671
-406,330,-1.65375,-1.74371,0,0,0,0,0,0,0,-1,818,694,-1.65375,1.74371
-399,330,0,0,0,0,0,0,0,0,0,-1,825,694,0,0
-392,330,0,0,0,0,0,0,0,0,0,-1,832,694,0,0
-385,330,0,0,0,0,0,0,0,0,0,-1,839,694,0,0
-378,330,0,0,0,0,0,0,0,0,0,-1,846,694,0,0
-371,330,0,0,0,0,0,0,0,0,0,-1,853,694,0,0
-364,330,0,0,0,0,0,0,0,0,0,-1,860,694,0,0
-357,330,0,0,0,0,0,0,0,0,0,-1,867,694,0,0
-350,330,0,0,0,0,0,0,0,0,0,-1,874,694,0,0
-343,330,0,0,0,0,0,0,0,0,0,-1,881,694,0,0
-336,330,0,0,0,0,0,0,0,0,0,-1,888,694,0,0
-329,330,0,0,0,0,0,0,0,0,0,-1,895,694,0,0
-322,330,0,0,0,0,0,0,0,0,0,-1,902,694,0,0
-315,330,0,0,0,0,0,0,0,0,0,-1,909,694,0,0
-308,330,0,0,0,0,0,0,0,0,0,-1,916,694,0,0
-301,330,0,0,0,0,0,0,0,0,0,-1,923,694,0,0
-294,330,0,0,0,0,0,0,0,0,0,-1,930,694,0,0
-287,330,0,0,0,0,0,0,0,0,0,-1,937,694,0,0
-280,330,0,0,0,0,0,0,0,0,0,-1,944,694,0,0
-273,330,0,0,0,0,0,0,0,0,0,-1,951,694,0,0
-266,330,0,0,0,0,0,0,0,0,0,-1,958,694,0,0
-259,330,0,0,0,0,0,0,0,0,0,-1,965,694,0,0
-252,330,0,0,0,0,0,0,0,0,0,-1,972,694,0,0
-245,330,0,0,0,0,0,0,0,0,0,-1,979,694,0,0
-238,330,0,0,0,0,0,0,0,0,0,-1,986,694,0,0
-231,330,0,0,0,0,0,0,0,0,0,-1,993,694,0,0
-224,330,0,0,0,0,0,0,0,0,0,-1,1000,694,0,0
-217,330,0,0,0,0,0,0,0,0,0,-1,1007,694,0,0
-210,330,0,0,0,0,0,0,0,0,0,-1,1014,694,0,0
-203,330,0,0,0,0,0,0,0,0,0,-1,1021,694,0,0
-196,330,0,0,0,0,0,0,0,0,0,-1,1028,694,0,0
-189,330,0,0,0,0,0,0,0,0,0,-1,1035,694,0,0
-182,330,0,0,0,0,0,0,0,0,0,-1,1042,694,0,0
-175,330,0,0,0,0,0,0,0,0,0,-1,1049,694,0,0
-168,330,0,0,0,0,0,0,0,0,0,-1,1056,694,0,0
-161,330,0,0,0,0,0,0,0,0,0,-1,1063,694,0,0
-154,330,0,0,0,0,0,0,0,0,0,-1,1070,694,0,0
-147,330,0,0,0,0,0,0,0,0,0,-1,1077,694,0,0
-140,330,0,0,0,0,0,0,0,0,0,-1,1084,694,0,0
-133,330,0,0,0,0,0,0,0,0,0,-1,1091,694,0,0
-126,330,0,0,0,0,0,0,0,0,0,-1,1098,694,0,0
-119,330,0,0,0,0,0,0,0,0,0,-1,1105,694,0,0
-112,330,0,0,0,0,0,0,0,0,0,-1,1112,694,0,0
-105,330,0,0,0,0,0,0,0,0,0,-1,1119,694,0,0
-98,330,0,0,0,0,0,0,0,0,0,-1,1126,694,0,0
-91,330,0,0,0,0,0,0,0,0,0,-1,1133,694,0,0
-84,330,0,0,0,0,0,0,0,0,0,-1,1140,694,0,0
-77,330,0,0,0,0,0,0,0,0,0,-1,1147,694,0,0
-70,330,0,0,0,0,0,0,0,0,0,-1,1154,694,0,0
-63,330,0,0,0,0,0,0,0,0,0,-1,1161,694,0,0
-56,330,0,0,0,0,0,0,0,0,0,-1,1168,694,0,0
-49,330,0,0,0,0,0,0,0,0,0,-1,1175,694,0,0
-42,330,0,0,0,0,0,0,0,0,0,-1,1182,694,0,0
-35,330,0,0,0,0,0,0,0,0,0,-1,1189,694,0,0
-28,330,0,0,0,0,0,0,0,0,0,-1,1196,694,0,0
-21,330,0,0,0,0,0,0,0,0,0,-1,1203,694,0,0
-14,330,0,0,0,0,0,0,0,0,0,-1,1210,694,0,0
-7,330,0,0,0,0,0,0,0,0,0,-1,1217,694,0,0
0,330,0,0,0,0,0,0,0,0,0,-1,1224,694,0,0
7,330,0,0,0,0,0,0,0,0,0,-1,1231,694,0,0
14,330,0,0,0,0,0,0,0,0,0,-1,1238,694,0,0
21,330,0,0,0,0,0,0,0,0,0,-1,1245,694,0,0
28,330,0,0,0,0,0,0,0,0,0,-1,1252,694,0,0
35,330,0,0,0,0,0,0,0,0,0,-1,1259,694,0,0
42,330,0,0,0,0,0,0,0,0,0,-1,1266,694,0,0
49,330,0,0,0,0,0,0,0,0,0,-1,1273,694,0,0
56,330,0,0,0,0,0,0,0,0,0,-1,1280,694,0,0
63,330,0,0,0,0,0,0,0,0,0,-1,1287,694,0,0
70,330,0,0,0,0,0,0,0,0,0,-1,1294,694,0,0
77,330,0,0,0,0,0,0,0,0,0,-1,1301,694,0,0
84,330,0,0,0,0,0,0,0,0,0,-1,1308,694,0,0
91,330,0,0,0,0,0,0,0,0,0,-1,1315,694,0,0
98,330,0,0,0,0,0,0,0,0,0,-1,1322,694,0,0
105,330,0,0,0,0,0,0,0,0,0,-1,1329,694,0,0
112,330,0,0,0,0,0,0,0,0,0,-1,1336,694,0,0
119,330,0,0,0,0,0,0,0,0,0,-1,1343,694,0,0
126,330,0,0,0,0,0,0,0,0,0,-1,1350,694,0,0
133,330,0,0,0,0,0,0,0,0,0,-1,1357,694,0,0
140,330,0,0,0,0,0,0,0,0,0,-1,1364,694,0,0
147,330,0,0,0,0,0,0,0,0,0,-1,1371,694,0,0
154,330,0,0,0,0,0,0,0,0,0,-1,1378,694,0,0
161,330,0,0,0,0,0,0,0,0,0,-1,1385,694,0,0
168,330,0,0,0,0,0,0,0,0,0,-1,1392,694,0,0
175,330,0,0,0,0,0,0,0,0,0,-1,1399,694,0,0
182,330,0,0,0,0,0,0,0,0,0,-1,1406,694,0,0
189,330,0,0,0,0,0,0,0,0,0,-1,1413,694,0,0
196,330,0,0,0,0,0,0,0,0,0,-1,1420,694,0,0
203,330,0,0,0,0,0,0,0,0,0,-1,1427,694,0,0
210,330,0,0,0,0,0,0,0,0,0,-1,1434,694,0,0
217,330,0,0,0,0,0,0,0,0,0,-1,1441,694,0,0
224,330,0,0,0,0,0,0,0,0,0,-1,1448,694,0,0
231,330,0,0,0,0,0,0,0,0,0,-1,1455,694,0,0
238,330,0,0,0,0,0,0,0,0,0,-1,1462,694,0,0
245,330,0,0,0,0,0,0,0,0,0,-1,1469,694,0,0
252,330,0,0,0,0,0,0,0,0,0,-1,1476,694,0,0
259,330,0,0,0,0,0,0,0,0,0,-1,1483,694,0,0
266,330,0,0,0,0,0,0,0,0,0,-1,1490,694,0,0
273,330,0,0,0,0,0,0,0,0,0,-1,1497,694,0,0
280,330,0,0,0,0,0,0,0,0,0,-1,1504,694,0,0
287,330,0,0,0,0,0,0,0,0,0,-1,1511,694,0,0
294,330,0,0,0,0,0,0,0,0,0,-1,1518,694,0,0
301,330,0,0,0,0,0,0,0,0,0,-1,1525,694,0,0
308,330,0,0,0,0,0,0,0,0,0,-1,1532,694,0,0
315,330,0,0,0,0,0,0,0,0,0,-1,1539,694,0,0
322,330,0,0,0,0,0,0,0,0,0,-1,1546,694,0,0
329,330,0,0,0,0,0,0,0,0,0,-1,1553,694,0,0
336,330,0,0,0,0,0,0,0,0,0,-1,1560,694,0,0
343,330,0,0,0,0,0,0,0,0,0,-1,1567,694,0,0
350,330,0,0,0,0,0,0,0,0,0,-1,1574,694,0,0
357,330,0,0,0,0,0,0,0,0,0,-1,1581,694,0,0
364,330,0,0,0,0,0,0,0,0,0,-1,1588,694,0,0
371,330,0,0,0,0,0,0,0,0,0,-1,1595,694,0,0
378,330,0,0,0,0,0,0,0,0,0,-1,1602,694,0,0
385,330,0,0,0,0,0,0,0,0,0,-1,1609,694,0,0
392,330,0,0,0,0,0,0,0,0,0,-1,1616,694,0,0
399,330,0,0,0,0,0,0,0,0,0,-1,1623,694,0,0
406,330,0,0,0,0,0,0,0,0,0,-1,1630,694,0,0
413,330,0,0,0,0,0,0,0,0,0,-1,1637,694,0,0
420,330,0,0,0,0,0,0,0,0,0,-1,1644,694,0,0
427,330,0,0,0,0,0,0,0,0,0,-1,1651,694,0,0
434,330,0,0,0,0,0,0,0,0,0,-1,1658,694,0,0
441,330,0,0,0,0,0,0,0,0,0,-1,1665,694,0,0
448,330,0,0,0,0,0,0,0,0,0,-1,1672,694,0,0
455,330,0,0,0,0,0,0,0,0,0,-1,1679,694,0,0
462,330,0,0,0,0,0,0,0,0,0,-1,1686,694,0,0
469,330,0,0,0,0,0,0,0,0,0,-1,1693,694,0,0
476,330,0,0,0,0,0,0,0,0,0,-1,1700,694,0,0
483,330,0,0,0,0,0,0,0,0,0,-1,1707,694,0,0
490,330,0,0,0,0,0,0,0,0,0,-1,1714,694,0,0
497,330,0,0,0,0,0,0,0,0,0,-1,1721,694,0,0
504,330,0,0,0,0,0,0,0,0,0,-1,1728,694,0,0
511,330,0,0,0,0,0,0,0,0,0,-1,1735,694,0,0
518,330,0,0,0,0,0,0,0,0,0,-1,1742,694,0,0
525,330,30.6694,0.69519,0,0,0,0,0,0,0,-1,1749,694,30.6694,-0.695206
532,330,30.9469,1.32501,0,0,0,0,0,0,0,-1,1756,694,30.9469,-1.32501
539,330,31.5155,1.62506,0,0,0,0,0,0,0,-1,1763,694,31.5155,-1.62507
546,330,31.4187,1.85651,0,0,0,0,0,0,0,-1,1770,694,31.4187,-1.85651
553,330,31.8452,1.81476,0,0,0,0,0,0,0,-1,1777,694,31.8452,-1.81475
560,330,32.2401,2.43225,0,0,0,0,0,0,0,-1,1784,694,32.2401,-2.43227
567,330,18.0321,3.98578,0,0,0,0,0,0,0,-1,1791,694,18.0321,-3.98576
574,330,12.0454,2.1662,0,0,0,0,0,0,0,-1,1798,694,12.0455,-2.16618
581,330,11.4215,4.50836,0,0,0,0,0,0,0,-1,1805,694,11.4215,-4.50837
588,330,6.45667,-0.0630493,0,0,0,0,0,0,0,-1,1812,694,6.45661,0.0630695
595,330,8.23193,-0.258484,0,0,0,0,0,0,0,-1,1819,694,8.23188,0.258459
602,330,30.894,-8.43524,0,0,0,0,0,0,0,-1,1826,694,30.8941,8.43522
609,330,30.9503,-7.59253,0.0018266,0.000474184,0.000414606,0.00194359,0.000357199,0.27501,0.00119459,0.033664,1833,694,30.9503,7.59253
616,330,30.974,-6.875,0.00203077,0.000387449,0.000738797,0.00231407,0.000104145,0.366173,0.0015092,0.0119974,1840,694,30.974,6.87503
623,330,30.9388,-6.18927,0.00172458,0.000196996,0.000642742,0.00195904,-3.74576e-05,0.349773,0.00131869,0.0132554,1847,694,30.9388,6.18928
630,330,30.9314,-5.48346,0.0012985,0.000123352,0.000593045,0.00154576,-0.000123907,0.395016,0.00107419,0.01387,1854,694,30.9314,5.48345
637,330,30.9224,-4.78198,0.000780574,0.000104233,0.000512143,0.00105612,-0.000171314,0.493605,0.000767585,0.0138044,1861,694,30.9223,4.78197
644,330,30.8702,-4.06274,0.000154859,0.000145828,0.000400699,0.000551068,-0.000250381,0.779764,0.000473448,0.00882285,1868,694,30.8703,4.06273
651,330,30.8408,-3.34924,-0.000573622,0.000226642,0.000251733,0.000299242,-0.000646221,1.29002,0.000557982,0.0114555,1875,694,30.8409,3.34925
658,330,30.8015,-2.65039,-0.00140481,0.000412296,8.01931e-05,0.000415829,-0.00140835,1.52678,0.00110393,0.012168,1882,694,30.8016,2.6504
665,330,30.7557,-1.94183,-0.00225295,0.000664738,-7.00677e-05,0.00066642,-0.00225463,-1.5468,0.00176761,0.0111634,1889,694,30.7558,1.94186
672,330,30.8086,-1.20673,-0.00312639,0.000995194,-0.000330992,0.00102161,-0.0031528,-1.49117,0.00251261,0.0293481,1896,694,30.8086,1.20673
679,330,30.3446,-0.554382,0,0,0,0,0,0,0,-1,1903,694,30.3446,0.554405
686,330,29.9783,0.316589,0,0,0,0,0,0,0,-1,1910,694,29.9783,-0.3166
693,330,17.3999,2.5976,0,0,0,0,0,0,0,-1,1917,694,17.4,-2.59759
700,330,17.1072,4.13,0,0,0,0,0,0,0,-1,1924,694,17.1071,-4.13002
707,330,16.663,4.88672,0,0,0,0,0,0,0,-1,1931,694,16.6629,-4.88673
714,330,16.5454,5.80896,0,0,0,0,0,0,0,-1,1938,694,16.5454,-5.80899
721,330,0,0,0,0,0,0,0,0,0,-1,1945,694,0,0
728,330,0,0,0,0,0,0,0,0,0,-1,1952,694,0,0
735,330,0,0,0,0,0,0,0,0,0,-1,1959,694,0,0
742,330,0,0,0,0,0,0,0,0,0,-1,1966,694,0,0
749,330,0,0,0,0,0,0,0,0,0,-1,1973,694,0,0
756,330,0,0,0,0,0,0,0,0,0,-1,1980,694,0,0
763,330,0,0,0,0,0,0,0,0,0,-1,1987,694,0,0
770,330,0,0,0,0,0,0,0,0,0,-1,1994,694,0,0
777,330,0,0,0,0,0,0,0,0,0,-1,2001,694,0,0
784,330,0,0,0,0,0,0,0,0,0,-1,2008,694,0,0
791,330,0,0,0,0,0,0,0,0,0,-1,2015,694,0,0
798,330,0,0,0,0,0,0,0,0,0,-1,2022,694,0,0
805,330,0,0,0,0,0,0,0,0,0,-1,2029,694,0,0
812,330,0,0,0,0,0,0,0,0,0,-1,2036,694,0,0
-700,323,0,0,0,0,0,0,0,0,0,-1,524,701,0,0
-693,323,0,0,0,0,0,0,0,0,0,-1,531,701,0,0
-686,323,0,0,0,0,0,0,0,0,0,-1,538,701,0,0
-679,323,0,0,0,0,0,0,0,0,0,-1,545,701,0,0
-672,323,0,0,0,0,0,0,0,0,0,-1,552,701,0,0
-665,323,0,0,0,0,0,0,0,0,0,-1,559,701,0,0
-658,323,0,0,0,0,0,0,0,0,0,-1,566,701,0,0
-651,323,0,0,0,0,0,0,0,0,0,-1,573,701,0,0
-644,323,0,0,0,0,0,0,0,0,0,-1,580,701,0,0
-637,323,0,0,0,0,0,0,0,0,0,-1,587,701,0,0
-630,323,0,0,0,0,0,0,0,0,0,-1,594,701,0,0
-623,323,0,0,0,0,0,0,0,0,0,-1,601,701,0,0
-616,323,0,0,0,0,0,0,0,0,0,-1,608,701,0,0
-609,323,0,0,0,0,0,0,0,0,0,-1,615,701,0,0
-602,323,-4.15833,2.12256,0,0,0,0,0,0,0,-1,622,701,-4.1583,-2.12257
-595,323,-4.052,1.79156,0,0,0,0,0,0,0,-1,629,701,-4.05198,-1.79158
-588,323,-4.07019,1.94543,0,0,0,0,0,0,0,-1,636,701,-4.07019,-1.94542
-581,323,-6.63727,0.562805,0,0,0,0,0,0,0,-1,643,701,-6.63728,-0.56279
-574,323,-6.15887,0.426697,0,0,0,0,0,0,0,-1,650,701,-6.15887,-0.426727
-567,323,-10.0015,0.0371094,0,0,0,0,0,0,0,-1,657,701,-10.0015,-0.037126
-560,323,-16.3503,-1.16956,0,0,0,0,0,0,0,-1,664,701,-16.3503,1.16957
-553,323,-19.2797,-2.37457,0,0,0,0,0,0,0,-1,671,701,-19.2797,2.37458
-546,323,-19.2505,-2.93372,0.00281167,0.00361437,-0.00033026,0.00373279,0.00269325,-1.22653,0.00222451,0.0297783,678,701,-19.2505,2.93372
-539,323,-19.2272,-3.5224,0.00264396,0.00272798,-0.00040609,0.00309423,0.00227772,-0.836938,0.00185166,0.0235165,685,701,-19.2272,3.52243
-532,323,-19.2947,-4.2572,0.00237682,0.00192229,-0.000400918,0.00261041,0.0016887,-0.52755,0.00152865,0.011075,692,701,-19.2947,4.25717
-525,323,-19.3412,-4.96857,0.00209671,0.00116442,-0.000287737,0.00217836,0.00108277,-0.276512,0.00125769,0.00782778,699,701,-19.3412,4.96859
-518,323,-19.3442,-5.62256,0.00185169,0.000525909,-0.000125848,0.00186353,0.000514069,-0.0938069,0.00111136,0.0100297,706,701,-19.3442,5.62256
-511,323,-19.3828,-6.30573,0.00164132,-3.70941e-05,6.53122e-05,0.00164386,-3.96318e-05,0.0388348,0.00110935,0.0141247,713,701,-19.3828,6.30574
-504,323,-19.4435,-6.98218,0.00147509,-0.000449511,0.000270156,0.00151229,-0.000486714,0.136847,0.00120369,0.0146267,720,701,-19.4435,6.9822
-497,323,-19.4382,-7.63824,0.0014555,-0.000662932,0.000387549,0.00152417,-0.000731605,0.175377,0.0013289,0.0120076,727,701,-19.4382,7.63822
-490,323,-19.4726,-8.3172,0.00168383,-0.000755656,0.000465934,0.00176979,-0.000841619,0.182444,0.00153912,0.0144093,734,701,-19.4726,8.31718
-483,323,-19.4693,-8.98248,0.00212277,-0.00054303,0.000377677,0.00217524,-0.000595504,0.138056,0.00168413,0.0302781,741,701,-19.4693,8.98248
-476,323,-19.4095,-9.68225,0,0,0,0,0,0,0,-1,748,701,-19.4095,9.68225
-469,323,-8.33301,-3.64001,0,0,0,0,0,0,0,-1,755,701,-8.33298,3.64
-462,323,-5.29431,-1.45697,0,0,0,0,0,0,0,-1,762,701,-5.29431,1.45699
-455,323,-5.0658,-1.36639,0,0,0,0,0,0,0,-1,769,701,-5.06578,1.3664
-448,323,-4.91608,-1.59601,0,0,0,0,0,0,0,-1,776,701,-4.91606,1.59604
-441,323,-14.4006,0.535217,0,0,0,0,0,0,0,-1,783,701,-14.4006,-0.535203
-434,323,-15.3158,2.479,0,0,0,0,0,0,0,-1,790,701,-15.3158,-2.47898
-427,323,-28.3923,1.16797,0,0,0,0,0,0,0,-1,797,701,-28.3923,-1.16796
-420,323,-28.7292,1.09302,0,0,0,0,0,0,0,-1,804,701,-28.7292,-1.09304
-413,323,-28.7955,1.22418,0,0,0,0,0,0,0,-1,811,701,-28.7956,-1.22419
-406,323,0,0,0,0,0,0,0,0,0,-1,818,701,0,0
-399,323,0,0,0,0,0,0,0,0,0,-1,825,701,0,0
-392,323,0,0,0,0,0,0,0,0,0,-1,832,701,0,0
-385,323,0,0,0,0,0,0,0,0,0,-1,839,701,0,0
-378,323,0,0,0,0,0,0,0,0,0,-1,846,701,0,0
-371,323,0,0,0,0,0,0,0,0,0,-1,853,701,0,0
-364,323,0,0,0,0,0,0,0,0,0,-1,860,701,0,0
-357,323,0,0,0,0,0,0,0,0,0,-1,867,701,0,0
-350,323,0,0,0,0,0,0,0,0,0,-1,874,701,0,0
-343,323,0,0,0,0,0,0,0,0,0,-1,881,701,0,0
-336,323,0,0,0,0,0,0,0,0,0,-1,888,701,0,0
-329,323,0,0,0,0,0,0,0,0,0,-1,895,701,0,0
-322,323,0,0,0,0,0,0,0,0,0,-1,902,701,0,0
-315,323,0,0,0,0,0,0,0,0,0,-1,909,701,0,0
-308,323,0,0,0,0,0,0,0,0,0,-1,916,701,0,0
-301,323,0,0,0,0,0,0,0,0,0,-1,923,701,0,0
-294,323,0,0,0,0,0,0,0,0,0,-1,930,701,0,0
-287,323,0,0,0,0,0,0,0,0,0,-1,937,701,0,0
-280,323,0,0,0,0,0,0,0,0,0,-1,944,701,0,0
-273,323,0,0,0,0,0,0,0,0,0,-1,951,701,0,0
-266,323,0,0,0,0,0,0,0,0,0,-1,958,701,0,0
-259,323,0,0,0,0,0,0,0,0,0,-1,965,701,0,0
-252,323,0,0,0,0,0,0,0,0,0,-1,972,701,0,0
-245,323,0,0,0,0,0,0,0,0,0,-1,979,701,0,0
-238,323,0,0,0,0,0,0,0,0,0,-1,986,701,0,0
-231,323,0,0,0,0,0,0,0,0,0,-1,993,701,0,0
-224,323,0,0,0,0,0,0,0,0,0,-1,1000,701,0,0
-217,323,0,0,0,0,0,0,0,0,0,-1,1007,701,0,0
-210,323,0,0,0,0,0,0,0,0,0,-1,1014,701,0,0
-203,323,0,0,0,0,0,0,0,0,0,-1,1021,701,0,0
-196,323,0,0,0,0,0,0,0,0,0,-1,1028,701,0,0
-189,323,0,0,0,0,0,0,0,0,0,-1,1035,701,0,0
-182,323,0,0,0,0,0,0,0,0,0,-1,1042,701,0,0
-175,323,0,0,0,0,0,0,0,0,0,-1,1049,701,0,0
-168,323,0,0,0,0,0,0,0,0,0,-1,1056,701,0,0
-161,323,0,0,0,0,0,0,0,0,0,-1,1063,701,0,0
-154,323,0,0,0,0,0,0,0,0,0,-1,1070,701,0,0
-147,323,0,0,0,0,0,0,0,0,0,-1,1077,701,0,0
-140,323,0,0,0,0,0,0,0,0,0,-1,1084,701,0,0
-133,323,0,0,0,0,0,0,0,0,0,-1,1091,701,0,0
-126,323,0,0,0,0,0,0,0,0,0,-1,1098,701,0,0
-119,323,0,0,0,0,0,0,0,0,0,-1,1105,701,0,0
-112,323,0,0,0,0,0,0,0,0,0,-1,1112,701,0,0
-105,323,0,0,0,0,0,0,0,0,0,-1,1119,701,0,0
-98,323,0,0,0,0,0,0,0,0,0,-1,1126,701,0,0
-91,323,0,0,0,0,0,0,0,0,0,-1,1133,701,0,0
-84,323,0,0,0,0,0,0,0,0,0,-1,1140,701,0,0
-77,323,0,0,0,0,0,0,0,0,0,-1,1147,701,0,0
-70,323,0,0,0,0,0,0,0,0,0,-1,1154,701,0,0
-63,323,0,0,0,0,0,0,0,0,0,-1,1161,701,0,0
-56,323,0,0,0,0,0,0,0,0,0,-1,1168,701,0,0
-49,323,0,0,0,0,0,0,0,0,0,-1,1175,701,0,0
-42,323,0,0,0,0,0,0,0,0,0,-1,1182,701,0,0
-35,323,0,0,0,0,0,0,0,0,0,-1,1189,701,0,0
-28,323,0,0,0,0,0,0,0,0,0,-1,1196,701,0,0
-21,323,0,0,0,0,0,0,0,0,0,-1,1203,701,0,0
-14,323,0,0,0,0,0,0,0,0,0,-1,1210,701,0,0
-7,323,0,0,0,0,0,0,0,0,0,-1,1217,701,0,0
0,323,0,0,0,0,0,0,0,0,0,-1,1224,701,0,0
7,323,0,0,0,0,0,0,0,0,0,-1,1231,701,0,0
14,323,0,0,0,0,0,0,0,0,0,-1,1238,701,0,0
21,323,0,0,0,0,0,0,0,0,0,-1,1245,701,0,0
28,323,0,0,0,0,0,0,0,0,0,-1,1252,701,0,0
35,323,0,0,0,0,0,0,0,0,0,-1,1259,701,0,0
42,323,0,0,0,0,0,0,0,0,0,-1,1266,701,0,0
49,323,0,0,0,0,0,0,0,0,0,-1,1273,701,0,0
56,323,0,0,0,0,0,0,0,0,0,-1,1280,701,0,0
63,323,0,0,0,0,0,0,0,0,0,-1,1287,701,0,0
70,323,0,0,0,0,0,0,0,0,0,-1,1294,701,0,0
77,323,0,0,0,0,0,0,0,0,0,-1,1301,701,0,0
84,323,0,0,0,0,0,0,0,0,0,-1,1308,701,0,0
91,323,0,0,0,0,0,0,0,0,0,-1,1315,701,0,0
98,323,0,0,0,0,0,0,0,0,0,-1,1322,701,0,0
105,323,0,0,0,0,0,0,0,0,0,-1,1329,701,0,0
112,323,0,0,0,0,0,0,0,0,0,-1,1336,701,0,0
119,323,0,0,0,0,0,0,0,0,0,-1,1343,701,0,0
126,323,0,0,0,0,0,0,0,0,0,-1,1350,701,0,0
133,323,0,0,0,0,0,0,0,0,0,-1,1357,701,0,0
140,323,0,0,0,0,0,0,0,0,0,-1,1364,701,0,0
147,323,0,0,0,0,0,0,0,0,0,-1,1371,701,0,0
154,323,0,0,0,0,0,0,0,0,0,-1,1378,701,0,0
161,323,0,0,0,0,0,0,0,0,0,-1,1385,701,0,0
168,323,0,0,0,0,0,0,0,0,0,-1,1392,701,0,0
175,323,0,0,0,0,0,0,0,0,0,-1,1399,701,0,0
182,323,0,0,0,0,0,0,0,0,0,-1,1406,701,0,0
189,323,0,0,0,0,0,0,0,0,0,-1,1413,701,0,0
196,323,0,0,0,0,0,0,0,0,0,-1,1420,701,0,0
203,323,0,0,0,0,0,0,0,0,0,-1,1427,701,0,0
210,323,0,0,0,0,0,0,0,0,0,-1,1434,701,0,0
217,323,0,0,0,0,0,0,0,0,0,-1,1441,701,0,0
224,323,0,0,0,0,0,0,0,0,0,-1,1448,701,0,0
231,323,0,0,0,0,0,0,0,0,0,-1,1455,701,0,0
238,323,0,0,0,0,0,0,0,0,0,-1,1462,701,0,0
245,323,0,0,0,0,0,0,0,0,0,-1,1469,701,0,0
252,323,0,0,0,0,0,0,0,0,0,-1,1476,701,0,0
259,323,0,0,0,0,0,0,0,0,0,-1,1483,701,0,0
266,323,0,0,0,0,0,0,0,0,0,-1,1490,701,0,0
273,323,0,0,0,0,0,0,0,0,0,-1,1497,701,0,0
280,323,0,0,0,0,0,0,0,0,0,-1,1504,701,0,0
287,323,0,0,0,0,0,0,0,0,0,-1,1511,701,0,0
294,323,0,0,0,0,0,0,0,0,0,-1,1518,701,0,0
301,323,0,0,0,0,0,0,0,0,0,-1,1525,701,0,0
308,323,0,0,0,0,0,0,0,0,0,-1,1532,701,0,0
315,323,0,0,0,0,0,0,0,0,0,-1,1539,701,0,0
322,323,0,0,0,0,0,0,0,0,0,-1,1546,701,0,0
329,323,0,0,0,0,0,0,0,0,0,-1,1553,701,0,0
336,323,0,0,0,0,0,0,0,0,0,-1,1560,701,0,0
343,323,0,0,0,0,0,0,0,0,0,-1,1567,701,0,0
350,323,0,0,0,0,0,0,0,0,0,-1,1574,701,0,0
357,323,0,0,0,0,0,0,0,0,0,-1,1581,701,0,0
364,323,0,0,0,0,0,0,0,0,0,-1,1588,701,0,0
371,323,0,0,0,0,0,0,0,0,0,-1,1595,701,0,0
378,323,0,0,0,0,0,0,0,0,0,-1,1602,701,0,0
385,323,0,0,0,0,0,0,0,0,0,-1,1609,701,0,0
392,323,0,0,0,0,0,0,0,0,0,-1,1616,701,0,0
399,323,0,0,0,0,0,0,0,0,0,-1,1623,701,0,0
406,323,0,0,0,0,0,0,0,0,0,-1,1630,701,0,0
413,323,0,0,0,0,0,0,0,0,0,-1,1637,701,0,0
420,323,0,0,0,0,0,0,0,0,0,-1,1644,701,0,0
427,323,0,0,0,0,0,0,0,0,0,-1,1651,701,0,0
434,323,0,0,0,0,0,0,0,0,0,-1,1658,701,0,0
441,323,0,0,0,0,0,0,0,0,0,-1,1665,701,0,0
448,323,0,0,0,0,0,0,0,0,0,-1,1672,701,0,0
455,323,0,0,0,0,0,0,0,0,0,-1,1679,701,0,0
462,323,0,0,0,0,0,0,0,0,0,-1,1686,701,0,0
469,323,0,0,0,0,0,0,0,0,0,-1,1693,701,0,0
476,323,0,0,0,0,0,0,0,0,0,-1,1700,701,0,0
483,323,0,0,0,0,0,0,0,0,0,-1,1707,701,0,0
490,323,0,0,0,0,0,0,0,0,0,-1,1714,701,0,0
497,323,0,0,0,0,0,0,0,0,0,-1,1721,701,0,0
504,323,0,0,0,0,0,0,0,0,0,-1,1728,701,0,0
511,323,0,0,0,0,0,0,0,0,0,-1,1735,701,0,0
518,323,0,0,0,0,0,0,0,0,0,-1,1742,701,0,0
525,323,0,0,0,0,0,0,0,0,0,-1,1749,701,0,0
532,323,33.6193,1.69446,0,0,0,0,0,0,0,-1,1756,701,33.6193,-1.69444
539,323,32.2698,2.44037,0,0,0,0,0,0,0,-1,1763,701,32.2697,-2.44036
546,323,31.1644,3.9444,0,0,0,0,0,0,0,-1,1770,701,31.1644,-3.94438
553,323,30.2488,5.8775,0,0,0,0,0,0,0,-1,1777,701,30.2487,-5.87752
560,323,40.6711,1.25153,0,0,0,0,0,0,0,-1,1784,701,40.6711,-1.25154
567,323,42.1637,2.01208,0,0,0,0,0,0,0,-1,1791,701,42.1637,-2.01207
574,323,12.514,5.89685,0,0,0,0,0,0,0,-1,1798,701,12.5141,-5.89683
581,323,11.821,5.3476,0,0,0,0,0,0,0,-1,1805,701,11.821,-5.34762
588,323,11.7933,7.00818,0,0,0,0,0,0,0,-1,1812,701,11.7933,-7.00819
595,323,6.67847,0.06604,0,0,0,0,0,0,0,-1,1819,701,6.67841,-0.0660418
602,323,31.2295,-8.35675,0,0,0,0,0,0,0,-1,1826,701,31.2295,8.35673
609,323,31.546,-7.55017,0.00243641,0.000502744,0.000704927,0.00266611,0.000273045,0.314998,0.00169374,0.0480979,1833,701,31.546,7.55015
616,323,31.6775,-6.81531,0.00252097,0.000326716,0.000990618,0.00290202,-5.43342e-05,0.367213,0.00195305,0.0134567,1840,701,31.6775,6.81531
623,323,31.6439,-6.12183,0.00210407,7.55733e-05,0.000797186,0.00237986,-0.000200219,0.333069,0.00165735,0.0128071,1847,701,31.6439,6.12181
630,323,31.6205,-5.41357,0.00159809,-3.88616e-05,0.000688506,0.00184917,-0.000289939,0.349683,0.00133992,0.014519,1854,701,31.6205,5.41356
637,323,31.6111,-4.71246,0.00106801,-4.0975e-05,0.000593491,0.00132573,-0.000298698,0.409679,0.000998393,0.0121531,1861,701,31.6111,4.71244
644,323,31.5674,-4.02606,0.000499748,5.69967e-05,0.000507661,0.000832202,-0.000275457,0.579793,0.00066589,0.00901945,1868,701,31.5674,4.02603
651,323,31.536,-3.30945,-0.000107504,0.000206669,0.000412717,0.000491184,-0.000392018,0.967241,0.000510987,0.0111823,1875,701,31.536,3.30947
658,323,31.4635,-2.58704,-0.000741699,0.000517598,0.000341778,0.000604377,-0.000828478,1.32214,0.000830625,0.0168324,1882,701,31.4635,2.58706
665,323,31.4181,-1.8996,-0.00134299,0.000919988,0.000311414,0.00096206,-0.00138506,1.43651,0.00136243,0.0139083,1889,701,31.418,1.89963
672,323,31.4611,-1.1546,-0.00189548,0.00145129,0.000268161,0.00147264,-0.00191683,1.49135,0.00196251,0.0169558,1896,701,31.461,1.15462
679,323,31.5215,-0.309143,0,0,0,0,0,0,0,-1,1903,701,31.5215,0.309145
686,323,30.4916,0.378235,0,0,0,0,0,0,0,-1,1910,701,30.4916,-0.37825
693,323,23.8806,1.08844,0,0,0,0,0,0,0,-1,1917,701,23.8806,-1.08845
700,323,10.7705,0.828613,0,0,0,0,0,0,0,-1,1924,701,10.7705,-0.828591
707,323,16.9005,4.79193,0,0,0,0,0,0,0,-1,1931,701,16.9005,-4.7919
714,323,16.2346,6.25958,0,0,0,0,0,0,0,-1,1938,701,16.2346,-6.25956
721,323,0,0,0,0,0,0,0,0,0,-1,1945,701,0,0
728,323,0,0,0,0,0,0,0,0,0,-1,1952,701,0,0
735,323,0,0,0,0,0,0,0,0,0,-1,1959,701,0,0
742,323,0,0,0,0,0,0,0,0,0,-1,1966,701,0,0
749,323,0,0,0,0,0,0,0,0,0,-1,1973,701,0,0
756,323,0,0,0,0,0,0,0,0,0,-1,1980,701,0,0
763,323,0,0,0,0,0,0,0,0,0,-1,1987,701,0,0
770,323,0,0,0,0,0,0,0,0,0,-1,1994,701,0,0
777,323,0,0,0,0,0,0,0,0,0,-1,2001,701,0,0
784,323,0,0,0,0,0,0,0,0,0,-1,2008,701,0,0
791,323,0,0,0,0,0,0,0,0,0,-1,2015,701,0,0
798,323,0,0,0,0,0,0,0,0,0,-1,2022,701,0,0
805,323,0,0,0,0,0,0,0,0,0,-1,2029,701,0,0
812,323,0,0,0,0,0,0,0,0,0,-1,2036,701,0,0
-700,316,0,0,0,0,0,0,0,0,0,-1,524,708,0,0
-693,316,0,0,0,0,0,0,0,0,0,-1,531,708,0,0
-686,316,0,0,0,0,0,0,0,0,0,-1,538,708,0,0
-679,316,0,0,0,0,0,0,0,0,0,-1,545,708,0,0
-672,316,0,0,0,0,0,0,0,0,0,-1,552,708,0,0
-665,316,0,0,0,0,0,0,0,0,0,-1,559,708,0,0
-658,316,0,0,0,0,0,0,0,0,0,-1,566,708,0,0
-651,316,0,0,0,0,0,0,0,0,0,-1,573,708,0,0
-644,316,0,0,0,0,0,0,0,0,0,-1,580,708,0,0
-637,316,0,0,0,0,0,0,0,0,0,-1,587,708,0,0
-630,316,0,0,0,0,0,0,0,0,0,-1,594,708,0,0
-623,316,0,0,0,0,0,0,0,0,0,-1,601,708,0,0
-616,316,0,0,0,0,0,0,0,0,0,-1,608,708,0,0
-609,316,0,0,0,0,0,0,0,0,0,-1,615,708,0,0
-602,316,-0.451782,-0.0494995,0,0,0,0,0,0,0,-1,622,708,-0.451768,0.0495022
-595,316,-3.3761,2.17188,0,0,0,0,0,0,0,-1,629,708,-3.37609,-2.17189
-588,316,-5.00177,2.60675,0,0,0,0,0,0,0,-1,636,708,-5.00175,-2.60676
-581,316,-3.94653,0.393433,0,0,0,0,0,0,0,-1,643,708,-3.94655,-0.39342
-574,316,-9.67395,1.06067,0,0,0,0,0,0,0,-1,650,708,-9.67396,-1.06065
-567,316,-10.1962,0.448425,0,0,0,0,0,0,0,-1,657,708,-10.1962,-0.448411
-560,316,-18.9941,-1.75067,0,0,0,0,0,0,0,-1,664,708,-18.9941,1.75068
-553,316,-20.0717,-2.19592,0,0,0,0,0,0,0,-1,671,708,-20.0717,2.19592
-546,316,-20.0104,-2.85065,0.00255309,0.00385714,-0.00071928,0.00417594,0.00223429,-1.15359,0.00241295,0.0347903,678,708,-20.0104,2.85062
-539,316,-19.9095,-3.56464,0.00233183,0.00270815,-0.000562722,0.00311334,0.00192665,-0.946741,0.00181433,0.0132984,685,708,-19.9095,3.56467
-532,316,-19.9498,-4.23157,0.0019963,0.00162178,-0.000343225,0.00220002,0.00141805,-0.535673,0.00128776,0.00988832,692,708,-19.9497,4.23154
-525,316,-19.9953,-4.89948,0.00173114,0.000782368,-0.0001132,0.00174446,0.000769049,-0.117122,0.00100951,0.00945739,699,708,-19.9953,4.89949
-518,316,-19.9933,-5.58362,0.00152295,8.27783e-05,0.00011393,0.00153191,7.38211e-05,0.0784584,0.000997574,0.0100535,706,708,-19.9933,5.58362
-511,316,-20.0335,-6.2735,0.00130596,-0.000569609,0.000382363,0.00138091,-0.000644564,0.193576,0.00119489,0.0117507,713,708,-20.0335,6.27351
-504,316,-20.0974,-6.94812,0.00110483,-0.00108655,0.000681059,0.00129925,-0.00128097,0.278068,0.0014897,0.0147956,720,708,-20.0974,6.94811
-497,316,-20.0935,-7.59882,0.00103916,-0.00142314,0.00090729,0.00133736,-0.00172134,0.317547,0.00177057,0.0132136,727,708,-20.0935,7.59881
-490,316,-20.103,-8.27173,0.00129307,-0.00166493,0.00113707,0.00167964,-0.0020515,0.327715,0.00215774,0.0188016,734,708,-20.103,8.27171
-483,316,-20.1107,-8.96045,0,0,0,0,0,0,0,-1,741,708,-20.1107,8.96047
-476,316,-8.90894,-3.31207,0,0,0,0,0,0,0,-1,748,708,-8.90896,3.31206
-469,316,-6.24194,-1.42725,0,0,0,0,0,0,0,-1,755,708,-6.24192,1.42725
-462,316,-5.74237,-1.40039,0,0,0,0,0,0,0,-1,762,708,-5.74238,1.40039
-455,316,-5.44745,-1.21899,0,0,0,0,0,0,0,-1,769,708,-5.44746,1.21898
-448,316,-14.8945,0.655396,0,0,0,0,0,0,0,-1,776,708,-14.8946,-0.655396
-441,316,-14.9626,0.576111,0,0,0,0,0,0,0,-1,783,708,-14.9626,-0.576115
-434,316,-27.7723,1.15576,0,0,0,0,0,0,0,-1,790,708,-27.7723,-1.15579
-427,316,-28.0504,1.31427,0,0,0,0,0,0,0,-1,797,708,-28.0504,-1.31427
-420,316,-28.198,1.62891,0,0,0,0,0,0,0,-1,804,708,-28.198,-1.62889
-413,316,0,0,0,0,0,0,0,0,0,-1,811,708,0,0
-406,316,0,0,0,0,0,0,0,0,0,-1,818,708,0,0
-399,316,0,0,0,0,0,0,0,0,0,-1,825,708,0,0
-392,316,0,0,0,0,0,0,0,0,0,-1,832,708,0,0
-385,316,0,0,0,0,0,0,0,0,0,-1,839,708,0,0
-378,316,0,0,0,0,0,0,0,0,0,-1,846,708,0,0
-371,316,0,0,0,0,0,0,0,0,0,-1,853,708,0,0
-364,316,0,0,0,0,0,0,0,0,0,-1,860,708,0,0
-357,316,0,0,0,0,0,0,0,0,0,-1,867,708,0,0
-350,316,0,0,0,0,0,0,0,0,0,-1,874,708,0,0
-343,316,0,0,0,0,0,0,0,0,0,-1,881,708,0,0
-336,316,0,0,0,0,0,0,0,0,0,-1,888,708,0,0
-329,316,0,0,0,0,0,0,0,0,0,-1,895,708,0,0
-322,316,0,0,0,0,0,0,0,0,0,-1,902,708,0,0
-315,316,0,0,0,0,0,0,0,0,0,-1,909,708,0,0
-308,316,0,0,0,0,0,0,0,0,0,-1,916,708,0,0
-301,316,0,0,0,0,0,0,0,0,0,-1,923,708,0,0
-294,316,0,0,0,0,0,0,0,0,0,-1,930,708,0,0
-287,316,0,0,0,0,0,0,0,0,0,-1,937,708,0,0
-280,316,0,0,0,0,0,0,0,0,0,-1,944,708,0,0
-273,316,0,0,0,0,0,0,0,0,0,-1,951,708,0,0
-266,316,0,0,0,0,0,0,0,0,0,-1,958,708,0,0
-259,316,0,0,0,0,0,0,0,0,0,-1,965,708,0,0
-252,316,0,0,0,0,0,0,0,0,0,-1,972,708,0,0
-245,316,0,0,0,0,0,0,0,0,0,-1,979,708,0,0
-238,316,0,0,0,0,0,0,0,0,0,-1,986,708,0,0
-231,316,0,0,0,0,0,0,0,0,0,-1,993,708,0,0
-224,316,0,0,0,0,0,0,0,0,0,-1,1000,708,0,0
-217,316,0,0,0,0,0,0,0,0,0,-1,1007,708,0,0
-210,316,0,0,0,0,0,0,0,0,0,-1,1014,708,0,0
-203,316,0,0,0,0,0,0,0,0,0,-1,1021,708,0,0
-196,316,0,0,0,0,0,0,0,0,0,-1,1028,708,0,0
-189,316,0,0,0,0,0,0,0,0,0,-1,1035,708,0,0
-182,316,0,0,0,0,0,0,0,0,0,-1,1042,708,0,0
-175,316,0,0,0,0,0,0,0,0,0,-1,1049,708,0,0
-168,316,0,0,0,0,0,0,0,0,0,-1,1056,708,0,0
-161,316,0,0,0,0,0,0,0,0,0,-1,1063,708,0,0
-154,316,0,0,0,0,0,0,0,0,0,-1,1070,708,0,0
-147,316,0,0,0,0,0,0,0,0,0,-1,1077,708,0,0
-140,316,0,0,0,0,0,0,0,0,0,-1,1084,708,0,0
-133,316,0,0,0,0,0,0,0,0,0,-1,1091,708,0,0
-126,316,0,0,0,0,0,0,0,0,0,-1,1098,708,0,0
-119,316,0,0,0,0,0,0,0,0,0,-1,1105,708,0,0
-112,316,0,0,0,0,0,0,0,0,0,-1,1112,708,0,0
-105,316,0,0,0,0,0,0,0,0,0,-1,1119,708,0,0
-98,316,0,0,0,0,0,0,0,0,0,-1,1126,708,0,0
-91,316,0,0,0,0,0,0,0,0,0,-1,1133,708,0,0
-84,316,0,0,0,0,0,0,0,0,0,-1,1140,708,0,0
-77,316,0,0,0,0,0,0,0,0,0,-1,1147,708,0,0
-70,316,0,0,0,0,0,0,0,0,0,-1,1154,708,0,0
-63,316,0,0,0,0,0,0,0,0,0,-1,1161,708,0,0
-56,316,0,0,0,0,0,0,0,0,0,-1,1168,708,0,0
-49,316,0,0,0,0,0,0,0,0,0,-1,1175,708,0,0
-42,316,0,0,0,0,0,0,0,0,0,-1,1182,708,0,0
-35,316,0,0,0,0,0,0,0,0,0,-1,1189,708,0,0
-28,316,0,0,0,0,0,0,0,0,0,-1,1196,708,0,0
-21,316,0,0,0,0,0,0,0,0,0,-1,1203,708,0,0
-14,316,0,0,0,0,0,0,0,0,0,-1,1210,708,0,0
-7,316,0,0,0,0,0,0,0,0,0,-1,1217,708,0,0
0,316,0,0,0,0,0,0,0,0,0,-1,1224,708,0,0
7,316,0,0,0,0,0,0,0,0,0,-1,1231,708,0,0
14,316,0,0,0,0,0,0,0,0,0,-1,1238,708,0,0
21,316,0,0,0,0,0,0,0,0,0,-1,1245,708,0,0
28,316,0,0,0,0,0,0,0,0,0,-1,1252,708,0,0
35,316,0,0,0,0,0,0,0,0,0,-1,1259,708,0,0
42,316,0,0,0,0,0,0,0,0,0,-1,1266,708,0,0
49,316,0,0,0,0,0,0,0,0,0,-1,1273,708,0,0
56,316,0,0,0,0,0,0,0,0,0,-1,1280,708,0,0
63,316,0,0,0,0,0,0,0,0,0,-1,1287,708,0,0
70,316,0,0,0,0,0,0,0,0,0,-1,1294,708,0,0
77,316,0,0,0,0,0,0,0,0,0,-1,1301,708,0,0
84,316,0,0,0,0,0,0,0,0,0,-1,1308,708,0,0
91,316,0,0,0,0,0,0,0,0,0,-1,1315,708,0,0
98,316,0,0,0,0,0,0,0,0,0,-1,1322,708,0,0
105,316,0,0,0,0,0,0,0,0,0,-1,1329,708,0,0
112,316,0,0,0,0,0,0,0,0,0,-1,1336,708,0,0
119,316,0,0,0,0,0,0,0,0,0,-1,1343,708,0,0
126,316,0,0,0,0,0,0,0,0,0,-1,1350,708,0,0
133,316,0,0,0,0,0,0,0,0,0,-1,1357,708,0,0
140,316,0,0,0,0,0,0,0,0,0,-1,1364,708,0,0
147,316,0,0,0,0,0,0,0,0,0,-1,1371,708,0,0
154,316,0,0,0,0,0,0,0,0,0,-1,1378,708,0,0
161,316,0,0,0,0,0,0,0,0,0,-1,1385,708,0,0
168,316,0,0,0,0,0,0,0,0,0,-1,1392,708,0,0
175,316,0,0,0,0,0,0,0,0,0,-1,1399,708,0,0
182,316,0,0,0,0,0,0,0,0,0,-1,1406,708,0,0
189,316,0,0,0,0,0,0,0,0,0,-1,1413,708,0,0
196,316,0,0,0,0,0,0,0,0,0,-1,1420,708,0,0
203,316,0,0,0,0,0,0,0,0,0,-1,1427,708,0,0
210,316,0,0,0,0,0,0,0,0,0,-1,1434,708,0,0
217,316,0,0,0,0,0,0,0,0,0,-1,1441,708,0,0
224,316,0,0,0,0,0,0,0,0,0,-1,1448,708,0,0
231,316,0,0,0,0,0,0,0,0,0,-1,1455,708,0,0
238,316,0,0,0,0,0,0,0,0,0,-1,1462,708,0,0
245,316,0,0,0,0,0,0,0,0,0,-1,1469,708,0,0
252,316,0,0,0,0,0,0,0,0,0,-1,1476,708,0,0
259,316,0,0,0,0,0,0,0,0,0,-1,1483,708,0,0
266,316,0,0,0,0,0,0,0,0,0,-1,1490,708,0,0
273,316,0,0,0,0,0,0,0,0,0,-1,1497,708,0,0
280,316,0,0,0,0,0,0,0,0,0,-1,1504,708,0,0
287,316,0,0,0,0,0,0,0,0,0,-1,1511,708,0,0
294,316,0,0,0,0,0,0,0,0,0,-1,1518,708,0,0
301,316,0,0,0,0,0,0,0,0,0,-1,1525,708,0,0
308,316,0,0,0,0,0,0,0,0,0,-1,1532,708,0,0
315,316,0,0,0,0,0,0,0,0,0,-1,1539,708,0,0
322,316,0,0,0,0,0,0,0,0,0,-1,1546,708,0,0
329,316,0,0,0,0,0,0,0,0,0,-1,1553,708,0,0
336,316,0,0,0,0,0,0,0,0,0,-1,1560,708,0,0
343,316,0,0,0,0,0,0,0,0,0,-1,1567,708,0,0
350,316,0,0,0,0,0,0,0,0,0,-1,1574,708,0,0
357,316,0,0,0,0,0,0,0,0,0,-1,1581,708,0,0
364,316,0,0,0,0,0,0,0,0,0,-1,1588,708,0,0
371,316,0,0,0,0,0,0,0,0,0,-1,1595,708,0,0
378,316,0,0,0,0,0,0,0,0,0,-1,1602,708,0,0
385,316,0,0,0,0,0,0,0,0,0,-1,1609,708,0,0
392,316,0,0,0,0,0,0,0,0,0,-1,1616,708,0,0
399,316,0,0,0,0,0,0,0,0,0,-1,1623,708,0,0
406,316,0,0,0,0,0,0,0,0,0,-1,1630,708,0,0
413,316,0,0,0,0,0,0,0,0,0,-1,1637,708,0,0
420,316,0,0,0,0,0,0,0,0,0,-1,1644,708,0,0
427,316,0,0,0,0,0,0,0,0,0,-1,1651,708,0,0
434,316,0,0,0,0,0,0,0,0,0,-1,1658,708,0,0
441,316,0,0,0,0,0,0,0,0,0,-1,1665,708,0,0
448,316,0,0,0,0,0,0,0,0,0,-1,1672,708,0,0
455,316,0,0,0,0,0,0,0,0,0,-1,1679,708,0,0
462,316,0,0,0,0,0,0,0,0,0,-1,1686,708,0,0
469,316,0,0,0,0,0,0,0,0,0,-1,1693,708,0,0
476,316,0,0,0,0,0,0,0,0,0,-1,1700,708,0,0
483,316,0,0,0,0,0,0,0,0,0,-1,1707,708,0,0
490,316,0,0,0,0,0,0,0,0,0,-1,1714,708,0,0
497,316,0,0,0,0,0,0,0,0,0,-1,1721,708,0,0
504,316,0,0,0,0,0,0,0,0,0,-1,1728,708,0,0
511,316,0,0,0,0,0,0,0,0,0,-1,1735,708,0,0
518,316,0,0,0,0,0,0,0,0,0,-1,1742,708,0,0
525,316,0,0,0,0,0,0,0,0,0,-1,1749,708,0,0
532,316,33.8604,0.531128,0,0,0,0,0,0,0,-1,1756,708,33.8604,-0.531151
539,316,44.4543,2.73468,0,0,0,0,0,0,0,-1,1763,708,44.4543,-2.7347
546,316,44.713,3.35498,0,0,0,0,0,0,0,-1,1770,708,44.7131,-3.35501
553,316,39.9031,6.57275,0,0,0,0,0,0,0,-1,1777,708,39.9031,-6.57274
560,316,39.1196,1.10046,0,0,0,0,0,0,0,-1,1784,708,39.1197,-1.10048
567,316,47.3683,6.04919,0,0,0,0,0,0,0,-1,1791,708,47.3683,-6.04918
574,316,45.9872,6.7655,0,0,0,0,0,0,0,-1,1798,708,45.9871,-6.76552
581,316,24.6815,7.77496,0,0,0,0,0,0,0,-1,1805,708,24.6815,-7.77499
588,316,19.7659,2.90198,0,0,0,0,0,0,0,-1,1812,708,19.7659,-2.902
595,316,12.5363,1.50702,0,0,0,0,0,0,0,-1,1819,708,12.5363,-1.50701
602,316,7.79919,0.0422363,0,0,0,0,0,0,0,-1,1826,708,7.79923,-0.0422066
609,316,32.1793,-7.46692,0,0,0,0,0,0,0,-1,1833,708,32.1793,7.46692
616,316,32.3826,-6.76001,0.00282649,0.000192651,0.00100563,0.00316655,-0.000147407,0.326082,0.00216184,0.0151063,1840,708,32.3826,6.75998
623,316,32.3698,-6.07715,0.00229705,-9.84228e-05,0.000747856,0.00251135,-0.000312728,0.279081,0.00178762,0.0113647,1847,708,32.3698,6.07715
630,316,32.3202,-5.39594,0.00173246,-0.00023354,0.00061628,0.00190967,-0.000410751,0.279996,0.00142983,0.0136924,1854,708,32.3202,5.39594
637,316,32.2972,-4.67444,0.00122324,-0.000193091,0.000555271,0.00141498,-0.000384828,0.332484,0.00109438,0.0132947,1861,708,32.2972,4.67446
644,316,32.2584,-3.96021,0.00074426,-1.65105e-05,0.00053901,0.00102359,-0.000295841,0.478124,0.000799466,0.0128297,1868,708,32.2584,3.96022
651,316,32.2061,-3.25824,0.000284746,0.000223127,0.000538762,0.000793579,-0.000285705,0.756836,0.000645712,0.0156312,1875,708,32.2061,3.25822
658,316,32.1455,-2.55621,-0.00012094,0.000647016,0.000592726,0.00096927,-0.000443194,1.07282,0.000834127,0.0285553,1882,708,32.1455,2.55619
665,316,32.0984,-1.84229,-0.000398966,0.00120981,0.000738483,0.00149739,-0.000686548,1.19944,0.00128954,0.020446,1889,708,32.0984,1.84228
672,316,32.1273,-1.13367,-0.00056781,0.00191654,0.00093241,0.00222755,-0.000878821,1.24884,0.00184895,0.0132723,1896,708,32.1273,1.13369
679,316,32.1339,-0.367065,-0.000647941,0.00290754,0.0012453,0.00330032,-0.00104072,1.26527,0.00261703,0.0456199,1903,708,32.1339,0.367041
686,316,32.1779,0.379517,0,0,0,0,0,0,0,-1,1910,708,32.1778,-0.379501
693,316,26.4315,1.80652,0,0,0,0,0,0,0,-1,1917,708,26.4315,-1.80651
700,316,12.8749,2.89136,0,0,0,0,0,0,0,-1,1924,708,12.8748,-2.89137
707,316,15.7089,5.41486,0,0,0,0,0,0,0,-1,1931,708,15.7088,-5.41487
714,316,16.1727,5.52045,0,0,0,0,0,0,0,-1,1938,708,16.1728,-5.52042
721,316,16.7094,6.53351,0,0,0,0,0,0,0,-1,1945,708,16.7094,-6.5335
728,316,0,0,0,0,0,0,0,0,0,-1,1952,708,0,0
735,316,0,0,0,0,0,0,0,0,0,-1,1959,708,0,0
742,316,0,0,0,0,0,0,0,0,0,-1,1966,708,0,0
749,316,0,0,0,0,0,0,0,0,0,-1,1973,708,0,0
756,316,0,0,0,0,0,0,0,0,0,-1,1980,708,0,0
763,316,0,0,0,0,0,0,0,0,0,-1,1987,708,0,0
770,316,0,0,0,0,0,0,0,0,0,-1,1994,708,0,0
777,316,0,0,0,0,0,0,0,0,0,-1,2001,708,0,0
784,316,0,0,0,0,0,0,0,0,0,-1,2008,708,0,0
791,316,0,0,0,0,0,0,0,0,0,-1,2015,708,0,0
798,316,0,0,0,0,0,0,0,0,0,-1,2022,708,0,0
805,316,0,0,0,0,0,0,0,0,0,-1,2029,708,0,0
812,316,0,0,0,0,0,0,0,0,0,-1,2036,708,0,0
-700,309,0,0,0,0,0,0,0,0,0,-1,524,715,0,0
-693,309,0,0,0,0,0,0,0,0,0,-1,531,715,0,0
-686,309,0,0,0,0,0,0,0,0,0,-1,538,715,0,0
-679,309,0,0,0,0,0,0,0,0,0,-1,545,715,0,0
-672,309,0,0,0,0,0,0,0,0,0,-1,552,715,0,0
-665,309,0,0,0,0,0,0,0,0,0,-1,559,715,0,0
-658,309,0,0,0,0,0,0,0,0,0,-1,566,715,0,0
-651,309,0,0,0,0,0,0,0,0,0,-1,573,715,0,0
-644,309,0,0,0,0,0,0,0,0,0,-1,580,715,0,0
-637,309,0,0,0,0,0,0,0,0,0,-1,587,715,0,0
-630,309,0,0,0,0,0,0,0,0,0,-1,594,715,0,0
-623,309,0,0,0,0,0,0,0,0,0,-1,601,715,0,0
-616,309,0,0,0,0,0,0,0,0,0,-1,608,715,0,0
-609,309,-5.95392,-3.93689,0,0,0,0,0,0,0,-1,615,715,-5.95392,3.93686
-602,309,-4.99786,-3.31287,0,0,0,0,0,0,0,-1,622,715,-4.99786,3.31284
-595,309,-6.80847,2.4046,0,0,0,0,0,0,0,-1,629,715,-6.80845,-2.40458
-588,309,-6.08795,2.19324,0,0,0,0,0,0,0,-1,636,715,-6.08793,-2.19325
-581,309,-5.97552,1.3277,0,0,0,0,0,0,0,-1,643,715,-5.97552,-1.32769
-574,309,-8.73602,0.208435,0,0,0,0,0,0,0,-1,650,715,-8.73604,-0.208437
-567,309,-10.3909,0.85968,0,0,0,0,0,0,0,-1,657,715,-10.3909,-0.859696
-560,309,-18.6088,-1.73389,0,0,0,0,0,0,0,-1,664,715,-18.6088,1.73389
-553,309,-20.7538,-2.14868,0,0,0,0,0,0,0,-1,671,715,-20.7538,2.1487
-546,309,-20.6667,-2.83466,0.00233759,0.00369273,-0.000770774,0.00404141,0.00198891,-1.14596,0.0023334,0.027376,678,715,-20.6667,2.83466
-539,309,-20.5792,-3.53821,0.0020197,0.00240511,-0.000469686,0.00272009,0.00170472,-0.98007,0.00158716,0.0147344,685,715,-20.5792,3.53824
-532,309,-20.6002,-4.19928,0.00155872,0.00115187,-9.38689e-05,0.00157933,0.00113126,-0.216167,0.000939836,0.01138,692,715,-20.6002,4.19926
-525,309,-20.6628,-4.88715,0.00130674,0.000294037,0.000186589,0.00134002,0.000260752,0.176529,0.000820364,0.0150035,699,715,-20.6628,4.88716
-518,309,-20.6735,-5.56494,0.00115578,-0.000408727,0.000437018,0.00126958,-0.000522523,0.254735,0.00106421,0.0156134,706,715,-20.6735,5.56492
-511,309,-20.6959,-6.22784,0.000949432,-0.00107582,0.000747627,0.00119552,-0.00132191,0.317987,0.00145405,0.0126719,713,715,-20.6959,6.22782
-504,309,-20.746,-6.89856,0.000730925,-0.00162569,0.00111199,0.00117278,-0.00206754,0.378225,0.00189443,0.0103384,720,715,-20.746,6.89857
-497,309,-20.7472,-7.55823,0.000612594,-0.00203299,0.00144491,0.00124876,-0.00266916,0.414745,0.00231104,0.014636,727,715,-20.7472,7.55824
-490,309,-20.7169,-8.23059,0,0,0,0,0,0,0,-1,734,715,-20.7169,8.23057
-483,309,-17.7261,-7.75836,0,0,0,0,0,0,0,-1,741,715,-17.7261,7.75839
-476,309,-5.29486,-1.2262,0,0,0,0,0,0,0,-1,748,715,-5.29484,1.22622
-469,309,-4.22717,-0.592896,0,0,0,0,0,0,0,-1,755,715,-4.2272,0.592905
-462,309,-10.428,2.46948,0,0,0,0,0,0,0,-1,762,715,-10.428,-2.46947
-455,309,-15.8216,0.00915527,0,0,0,0,0,0,0,-1,769,715,-15.8216,-0.00913359
-448,309,-37.3543,-1.02441,0,0,0,0,0,0,0,-1,776,715,-37.3543,1.02444
-441,309,-19.8181,1.4425,0,0,0,0,0,0,0,-1,783,715,-19.8181,-1.44249
-434,309,-28.3196,0.95105,0,0,0,0,0,0,0,-1,790,715,-28.3196,-0.951068
-427,309,-27.8553,1.40332,0,0,0,0,0,0,0,-1,797,715,-27.8553,-1.40334
-420,309,-27.3148,1.90747,0,0,0,0,0,0,0,-1,804,715,-27.3148,-1.90745
-413,309,0,0,0,0,0,0,0,0,0,-1,811,715,0,0
-406,309,0,0,0,0,0,0,0,0,0,-1,818,715,0,0
-399,309,0,0,0,0,0,0,0,0,0,-1,825,715,0,0
-392,309,0,0,0,0,0,0,0,0,0,-1,832,715,0,0
-385,309,0,0,0,0,0,0,0,0,0,-1,839,715,0,0
-378,309,0,0,0,0,0,0,0,0,0,-1,846,715,0,0
-371,309,0,0,0,0,0,0,0,0,0,-1,853,715,0,0
-364,309,0,0,0,0,0,0,0,0,0,-1,860,715,0,0
-357,309,0,0,0,0,0,0,0,0,0,-1,867,715,0,0
-350,309,0,0,0,0,0,0,0,0,0,-1,874,715,0,0
-343,309,0,0,0,0,0,0,0,0,0,-1,881,715,0,0
-336,309,0,0,0,0,0,0,0,0,0,-1,888,715,0,0
-329,309,0,0,0,0,0,0,0,0,0,-1,895,715,0,0
-322,309,0,0,0,0,0,0,0,0,0,-1,902,715,0,0
-315,309,0,0,0,0,0,0,0,0,0,-1,909,715,0,0
-308,309,0,0,0,0,0,0,0,0,0,-1,916,715,0,0
-301,309,0,0,0,0,0,0,0,0,0,-1,923,715,0,0
-294,309,0,0,0,0,0,0,0,0,0,-1,930,715,0,0
-287,309,0,0,0,0,0,0,0,0,0,-1,937,715,0,0
-280,309,0,0,0,0,0,0,0,0,0,-1,944,715,0,0
-273,309,0,0,0,0,0,0,0,0,0,-1,951,715,0,0
-266,309,0,0,0,0,0,0,0,0,0,-1,958,715,0,0
-259,309,0,0,0,0,0,0,0,0,0,-1,965,715,0,0
-252,309,0,0,0,0,0,0,0,0,0,-1,972,715,0,0
-245,309,0,0,0,0,0,0,0,0,0,-1,979,715,0,0
-238,309,0,0,0,0,0,0,0,0,0,-1,986,715,0,0
-231,309,0,0,0,0,0,0,0,0,0,-1,993,715,0,0
-224,309,0,0,0,0,0,0,0,0,0,-1,1000,715,0,0
-217,309,0,0,0,0,0,0,0,0,0,-1,1007,715,0,0
-210,309,0,0,0,0,0,0,0,0,0,-1,1014,715,0,0
-203,309,0,0,0,0,0,0,0,0,0,-1,1021,715,0,0
-196,309,0,0,0,0,0,0,0,0,0,-1,1028,715,0,0
-189,309,0,0,0,0,0,0,0,0,0,-1,1035,715,0,0
-182,309,0,0,0,0,0,0,0,0,0,-1,1042,715,0,0
-175,309,0,0,0,0,0,0,0,0,0,-1,1049,715,0,0
-168,309,0,0,0,0,0,0,0,0,0,-1,1056,715,0,0
-161,309,0,0,0,0,0,0,0,0,0,-1,1063,715,0,0
-154,309,0,0,0,0,0,0,0,0,0,-1,1070,715,0,0
-147,309,0,0,0,0,0,0,0,0,0,-1,1077,715,0,0
-140,309,0,0,0,0,0,0,0,0,0,-1,1084,715,0,0
-133,309,0,0,0,0,0,0,0,0,0,-1,1091,715,0,0
-126,309,0,0,0,0,0,0,0,0,0,-1,1098,715,0,0
-119,309,0,0,0,0,0,0,0,0,0,-1,1105,715,0,0
-112,309,0,0,0,0,0,0,0,0,0,-1,1112,715,0,0
-105,309,0,0,0,0,0,0,0,0,0,-1,1119,715,0,0
-98,309,0,0,0,0,0,0,0,0,0,-1,1126,715,0,0
-91,309,0,0,0,0,0,0,0,0,0,-1,1133,715,0,0
-84,309,0,0,0,0,0,0,0,0,0,-1,1140,715,0,0
-77,309,0,0,0,0,0,0,0,0,0,-1,1147,715,0,0
-70,309,0,0,0,0,0,0,0,0,0,-1,1154,715,0,0
-63,309,0,0,0,0,0,0,0,0,0,-1,1161,715,0,0
-56,309,0,0,0,0,0,0,0,0,0,-1,1168,715,0,0
-49,309,0,0,0,0,0,0,0,0,0,-1,1175,715,0,0
-42,309,0,0,0,0,0,0,0,0,0,-1,1182,715,0,0
-35,309,0,0,0,0,0,0,0,0,0,-1,1189,715,0,0
-28,309,0,0,0,0,0,0,0,0,0,-1,1196,715,0,0
-21,309,0,0,0,0,0,0,0,0,0,-1,1203,715,0,0
-14,309,0,0,0,0,0,0,0,0,0,-1,1210,715,0,0
-7,309,0,0,0,0,0,0,0,0,0,-1,1217,715,0,0
0,309,0,0,0,0,0,0,0,0,0,-1,1224,715,0,0
7,309,0,0,0,0,0,0,0,0,0,-1,1231,715,0,0
14,309,0,0,0,0,0,0,0,0,0,-1,1238,715,0,0
21,309,0,0,0,0,0,0,0,0,0,-1,1245,715,0,0
28,309,0,0,0,0,0,0,0,0,0,-1,1252,715,0,0
35,309,0,0,0,0,0,0,0,0,0,-1,1259,715,0,0
42,309,0,0,0,0,0,0,0,0,0,-1,1266,715,0,0
49,309,0,0,0,0,0,0,0,0,0,-1,1273,715,0,0
56,309,0,0,0,0,0,0,0,0,0,-1,1280,715,0,0
63,309,0,0,0,0,0,0,0,0,0,-1,1287,715,0,0
70,309,0,0,0,0,0,0,0,0,0,-1,1294,715,0,0
77,309,0,0,0,0,0,0,0,0,0,-1,1301,715,0,0
84,309,0,0,0,0,0,0,0,0,0,-1,1308,715,0,0
91,309,0,0,0,0,0,0,0,0,0,-1,1315,715,0,0
98,309,0,0,0,0,0,0,0,0,0,-1,1322,715,0,0
105,309,0,0,0,0,0,0,0,0,0,-1,1329,715,0,0
112,309,0,0,0,0,0,0,0,0,0,-1,1336,715,0,0
119,309,0,0,0,0,0,0,0,0,0,-1,1343,715,0,0
126,309,0,0,0,0,0,0,0,0,0,-1,1350,715,0,0
133,309,0,0,0,0,0,0,0,0,0,-1,1357,715,0,0
140,309,0,0,0,0,0,0,0,0,0,-1,1364,715,0,0
147,309,0,0,0,0,0,0,0,0,0,-1,1371,715,0,0
154,309,0,0,0,0,0,0,0,0,0,-1,1378,715,0,0
161,309,0,0,0,0,0,0,0,0,0,-1,1385,715,0,0
168,309,0,0,0,0,0,0,0,0,0,-1,1392,715,0,0
175,309,0,0,0,0,0,0,0,0,0,-1,1399,715,0,0
182,309,0,0,0,0,0,0,0,0,0,-1,1406,715,0,0
189,309,0,0,0,0,0,0,0,0,0,-1,1413,715,0,0
196,309,0,0,0,0,0,0,0,0,0,-1,1420,715,0,0
203,309,0,0,0,0,0,0,0,0,0,-1,1427,715,0,0
210,309,0,0,0,0,0,0,0,0,0,-1,1434,715,0,0
217,309,0,0,0,0,0,0,0,0,0,-1,1441,715,0,0
224,309,0,0,0,0,0,0,0,0,0,-1,1448,715,0,0
231,309,0,0,0,0,0,0,0,0,0,-1,1455,715,0,0
238,309,0,0,0,0,0,0,0,0,0,-1,1462,715,0,0
245,309,0,0,0,0,0,0,0,0,0,-1,1469,715,0,0
252,309,0,0,0,0,0,0,0,0,0,-1,1476,715,0,0
259,309,0,0,0,0,0,0,0,0,0,-1,1483,715,0,0
266,309,0,0,0,0,0,0,0,0,0,-1,1490,715,0,0
273,309,0,0,0,0,0,0,0,0,0,-1,1497,715,0,0
280,309,0,0,0,0,0,0,0,0,0,-1,1504,715,0,0
287,309,0,0,0,0,0,0,0,0,0,-1,1511,715,0,0
294,309,0,0,0,0,0,0,0,0,0,-1,1518,715,0,0
301,309,0,0,0,0,0,0,0,0,0,-1,1525,715,0,0
308,309,0,0,0,0,0,0,0,0,0,-1,1532,715,0,0
315,309,0,0,0,0,0,0,0,0,0,-1,1539,715,0,0
322,309,0,0,0,0,0,0,0,0,0,-1,1546,715,0,0
329,309,0,0,0,0,0,0,0,0,0,-1,1553,715,0,0
336,309,0,0,0,0,0,0,0,0,0,-1,1560,715,0,0
343,309,0,0,0,0,0,0,0,0,0,-1,1567,715,0,0
350,309,0,0,0,0,0,0,0,0,0,-1,1574,715,0,0
357,309,0,0,0,0,0,0,0,0,0,-1,1581,715,0,0
364,309,0,0,0,0,0,0,0,0,0,-1,1588,715,0,0
371,309,0,0,0,0,0,0,0,0,0,-1,1595,715,0,0
378,309,0,0,0,0,0,0,0,0,0,-1,1602,715,0,0
385,309,0,0,0,0,0,0,0,0,0,-1,1609,715,0,0
392,309,0,0,0,0,0,0,0,0,0,-1,1616,715,0,0
399,309,0,0,0,0,0,0,0,0,0,-1,1623,715,0,0
406,309,0,0,0,0,0,0,0,0,0,-1,1630,715,0,0
413,309,0,0,0,0,0,0,0,0,0,-1,1637,715,0,0
420,309,0,0,0,0,0,0,0,0,0,-1,1644,715,0,0
427,309,0,0,0,0,0,0,0,0,0,-1,1651,715,0,0
434,309,0,0,0,0,0,0,0,0,0,-1,1658,715,0,0
441,309,0,0,0,0,0,0,0,0,0,-1,1665,715,0,0
448,309,0,0,0,0,0,0,0,0,0,-1,1672,715,0,0
455,309,0,0,0,0,0,0,0,0,0,-1,1679,715,0,0
462,309,0,0,0,0,0,0,0,0,0,-1,1686,715,0,0
469,309,0,0,0,0,0,0,0,0,0,-1,1693,715,0,0
476,309,0,0,0,0,0,0,0,0,0,-1,1700,715,0,0
483,309,0,0,0,0,0,0,0,0,0,-1,1707,715,0,0
490,309,0,0,0,0,0,0,0,0,0,-1,1714,715,0,0
497,309,0,0,0,0,0,0,0,0,0,-1,1721,715,0,0
504,309,0,0,0,0,0,0,0,0,0,-1,1728,715,0,0
511,309,0,0,0,0,0,0,0,0,0,-1,1735,715,0,0
518,309,0,0,0,0,0,0,0,0,0,-1,1742,715,0,0
525,309,0,0,0,0,0,0,0,0,0,-1,1749,715,0,0
532,309,0,0,0,0,0,0,0,0,0,-1,1756,715,0,0
539,309,44.2073,2.66235,0,0,0,0,0,0,0,-1,1763,715,44.2073,-2.66238
546,309,44.4976,3.25531,0,0,0,0,0,0,0,-1,1770,715,44.4976,-3.25533
553,309,47.9611,4.06433,0,0,0,0,0,0,0,-1,1777,715,47.9611,-4.06434
560,309,47.9784,4.64801,0,0,0,0,0,0,0,-1,1784,715,47.9784,-4.64799
567,309,47.0073,5.43121,0,0,0,0,0,0,0,-1,1791,715,47.0073,-5.43121
574,309,45.8746,6.53271,0,0,0,0,0,0,0,-1,1798,715,45.8747,-6.53269
581,309,45.0629,7.73468,0,0,0,0,0,0,0,-1,1805,715,45.0629,-7.73471
588,309,26.2064,7.76422,0,0,0,0,0,0,0,-1,1812,715,26.2064,-7.7642
595,309,19.585,3.71558,0,0,0,0,0,0,0,-1,1819,715,19.5849,-3.71555
602,309,11.0811,3.47772,0,0,0,0,0,0,0,-1,1826,715,11.0811,-3.47772
609,309,33.0688,-7.39539,0,0,0,0,0,0,0,-1,1833,715,33.0688,7.39536
616,309,33.0684,-6.72119,0.00334451,0.000227411,0.0018077,0.00417277,-0.000600848,0.429639,0.00300224,0.0254659,1840,715,33.0684,6.72117
623,309,33.059,-6.04095,0.00257719,-0.000127861,0.00120228,0.0030343,-0.000584977,0.363328,0.00224343,0.012236,1847,715,33.059,6.04094
630,309,33.0105,-5.35278,0.00188662,-0.000302201,0.000858434,0.00218312,-0.000598706,0.332572,0.00169069,0.0115317,1854,715,33.0105,5.35278
637,309,32.9634,-4.63733,0.00134275,-0.000271502,0.000684564,0.00159397,-0.000522713,0.351709,0.00127317,0.0141972,1861,715,32.9633,4.63731
644,309,32.9153,-3.93048,0.000904454,-7.23945e-05,0.000624697,0.001209,-0.000376942,0.453608,0.000956729,0.0148863,1868,715,32.9152,3.93045
651,309,32.9049,-3.21887,0.000537777,0.000202165,0.00062198,0.00101419,-0.000274247,0.653638,0.000783704,0.0147122,1875,715,32.905,3.21885
658,309,32.8818,-2.51794,0.000293652,0.000674464,0.00072582,0.00123444,-0.000266321,0.913674,0.000924606,0.0210185,1882,715,32.8818,2.51792
665,309,32.8868,-1.82123,0.000223024,0.00130959,0.000946934,0.00185802,-0.000325408,1.04584,0.00136019,0.0175285,1889,715,32.8869,1.82122
672,309,32.8159,-1.1076,0.000282907,0.00208264,0.00123664,0.00271217,-0.000346622,1.09993,0.00193403,0.0158412,1896,715,32.8159,1.10759
679,309,32.8055,-0.374878,0.000506738,0.00312052,0.00165377,0.00392145,-0.000294192,1.11978,0.00271767,0.0242103,1903,715,32.8055,0.374891
686,309,32.827,0.424622,0,0,0,0,0,0,0,-1,1910,715,32.8271,-0.424628
693,309,31.3501,1.39203,0,0,0,0,0,0,0,-1,1917,715,31.3501,-1.39201
700,309,23.0179,3.08337,0,0,0,0,0,0,0,-1,1924,715,23.018,-3.08336
707,309,15.6318,4.58655,0,0,0,0,0,0,0,-1,1931,715,15.6318,-4.58657
714,309,16.7573,6.68286,0,0,0,0,0,0,0,-1,1938,715,16.7574,-6.68284
721,309,16.8337,5.4458,0,0,0,0,0,0,0,-1,1945,715,16.8338,-5.44582
728,309,0,0,0,0,0,0,0,0,0,-1,1952,715,0,0
735,309,0,0,0,0,0,0,0,0,0,-1,1959,715,0,0
742,309,0,0,0,0,0,0,0,0,0,-1,1966,715,0,0
749,309,0,0,0,0,0,0,0,0,0,-1,1973,715,0,0
756,309,0,0,0,0,0,0,0,0,0,-1,1980,715,0,0
763,309,0,0,0,0,0,0,0,0,0,-1,1987,715,0,0
770,309,0,0,0,0,0,0,0,0,0,-1,1994,715,0,0
777,309,0,0,0,0,0,0,0,0,0,-1,2001,715,0,0
784,309,0,0,0,0,0,0,0,0,0,-1,2008,715,0,0
791,309,0,0,0,0,0,0,0,0,0,-1,2015,715,0,0
798,309,0,0,0,0,0,0,0,0,0,-1,2022,715,0,0
805,309,0,0,0,0,0,0,0,0,0,-1,2029,715,0,0
812,309,0,0,0,0,0,0,0,0,0,-1,2036,715,0,0
-700,302,0,0,0,0,0,0,0,0,0,-1,524,722,0,0
-693,302,0,0,0,0,0,0,0,0,0,-1,531,722,0,0
-686,302,0,0,0,0,0,0,0,0,0,-1,538,722,0,0
-679,302,0,0,0,0,0,0,0,0,0,-1,545,722,0,0
-672,302,0,0,0,0,0,0,0,0,0,-1,552,722,0,0
-665,302,0,0,0,0,0,0,0,0,0,-1,559,722,0,0
-658,302,0,0,0,0,0,0,0,0,0,-1,566,722,0,0
-651,302,0,0,0,0,0,0,0,0,0,-1,573,722,0,0
-644,302,0,0,0,0,0,0,0,0,0,-1,580,722,0,0
-637,302,0,0,0,0,0,0,0,0,0,-1,587,722,0,0
-630,302,0,0,0,0,0,0,0,0,0,-1,594,722,0,0
-623,302,0,0,0,0,0,0,0,0,0,-1,601,722,0,0
-616,302,0,0,0,0,0,0,0,0,0,-1,608,722,0,0
-609,302,-7.79266,-3.71649,0,0,0,0,0,0,0,-1,615,722,-7.79267,3.7165
-602,302,0.92865,-1.99158,0,0,0,0,0,0,0,-1,622,722,0.928637,1.99157
-595,302,-7.89941,2.13641,0,0,0,0,0,0,0,-1,629,722,-7.89939,-2.13639
-588,302,-7.10895,1.79163,0,0,0,0,0,0,0,-1,636,722,-7.10896,-1.79163
-581,302,-9.17566,1.09448,0,0,0,0,0,0,0,-1,643,722,-9.17569,-1.09445
-574,302,-11.5183,-0.344543,0,0,0,0,0,0,0,-1,650,722,-11.5183,0.344557
-567,302,-12.1534,-0.672241,0,0,0,0,0,0,0,-1,657,722,-12.1535,0.672246
-560,302,-21.3587,-1.37512,0,0,0,0,0,0,0,-1,664,722,-21.3587,1.37513
-553,302,-21.2608,-2.09552,0.00209204,0.00525482,-0.00122962,0.00567662,0.00167025,-1.24034,0.00336864,0.0293092,671,722,-21.2608,2.09551
-546,302,-21.2701,-2.83014,0.00175852,0.00335783,-0.000739208,0.00364715,0.0014692,-1.19773,0.0021189,0.0171542,678,722,-21.2701,2.83011
-539,302,-21.2789,-3.4729,0.00151066,0.00201434,-0.00033787,0.0021839,0.0013411,-1.10566,0.00127177,0.0150962,685,722,-21.2789,3.47288
-532,302,-21.2866,-4.14648,0.00109773,0.000673438,0.000154306,0.00114791,0.000623256,0.314427,0.000663562,0.0140627,692,722,-21.2866,4.1465
-525,302,-21.3345,-4.8725,0.000896885,-0.00019787,0.00047208,0.00107234,-0.000373322,0.355836,0.000866565,0.0191457,699,722,-21.3345,4.87248
-518,302,-21.3608,-5.53748,0.000781087,-0.000919198,0.000755669,0.00106839,-0.0012065,0.363317,0.00131421,0.0208266,706,722,-21.3608,5.53745
-511,302,-21.3799,-6.17596,0.000547595,-0.00161225,0.00112757,0.00102897,-0.00209363,0.40349,0.00183743,0.01101,713,722,-21.3799,6.17599
-504,302,-21.4139,-6.84991,0.000269129,-0.00221144,0.00157877,0.00103654,-0.00297885,0.452449,0.00240699,0.0107994,720,722,-21.4139,6.84993
-497,302,-21.4639,-7.50092,9.56446e-05,-0.0026473,0.00200221,0.00115106,-0.00370271,0.485112,0.00292856,0.0162962,727,722,-21.4639,7.50094
-490,302,-21.5031,-8.15131,0,0,0,0,0,0,0,-1,734,722,-21.5031,8.15132
-483,302,-9.53412,-3.1673,0,0,0,0,0,0,0,-1,741,722,-9.53411,3.1673
-476,302,-4.29749,-0.203491,0,0,0,0,0,0,0,-1,748,722,-4.29751,0.203464
-469,302,-12.369,1.42859,0,0,0,0,0,0,0,-1,755,722,-12.3689,-1.42857
-462,302,-17.4766,0.310791,0,0,0,0,0,0,0,-1,762,722,-17.4766,-0.310788
-455,302,-36.7368,-2.97418,0,0,0,0,0,0,0,-1,769,722,-36.7368,2.97416
-448,302,-39.9575,-0.624146,0,0,0,0,0,0,0,-1,776,722,-39.9575,0.624164
-441,302,-39.4683,-0.341492,0,0,0,0,0,0,0,-1,783,722,-39.4683,0.341475
-434,302,-39.4329,-0.154724,0,0,0,0,0,0,0,-1,790,722,-39.4329,0.154743
-427,302,-27.1735,1.81506,0,0,0,0,0,0,0,-1,797,722,-27.1735,-1.81504
-420,302,0,0,0,0,0,0,0,0,0,-1,804,722,0,0
-413,302,0,0,0,0,0,0,0,0,0,-1,811,722,0,0
-406,302,0,0,0,0,0,0,0,0,0,-1,818,722,0,0
-399,302,0,0,0,0,0,0,0,0,0,-1,825,722,0,0
-392,302,0,0,0,0,0,0,0,0,0,-1,832,722,0,0
-385,302,0,0,0,0,0,0,0,0,0,-1,839,722,0,0
-378,302,0,0,0,0,0,0,0,0,0,-1,846,722,0,0
-371,302,0,0,0,0,0,0,0,0,0,-1,853,722,0,0
-364,302,0,0,0,0,0,0,0,0,0,-1,860,722,0,0
-357,302,0,0,0,0,0,0,0,0,0,-1,867,722,0,0
-350,302,0,0,0,0,0,0,0,0,0,-1,874,722,0,0
-343,302,0,0,0,0,0,0,0,0,0,-1,881,722,0,0
-336,302,0,0,0,0,0,0,0,0,0,-1,888,722,0,0
-329,302,0,0,0,0,0,0,0,0,0,-1,895,722,0,0
-322,302,0,0,0,0,0,0,0,0,0,-1,902,722,0,0
-315,302,0,0,0,0,0,0,0,0,0,-1,909,722,0,0
-308,302,0,0,0,0,0,0,0,0,0,-1,916,722,0,0
-301,302,0,0,0,0,0,0,0,0,0,-1,923,722,0,0
-294,302,0,0,0,0,0,0,0,0,0,-1,930,722,0,0
-287,302,0,0,0,0,0,0,0,0,0,-1,937,722,0,0
-280,302,0,0,0,0,0,0,0,0,0,-1,944,722,0,0
-273,302,0,0,0,0,0,0,0,0,0,-1,951,722,0,0
-266,302,0,0,0,0,0,0,0,0,0,-1,958,722,0,0
-259,302,0,0,0,0,0,0,0,0,0,-1,965,722,0,0
-252,302,0,0,0,0,0,0,0,0,0,-1,972,722,0,0
-245,302,0,0,0,0,0,0,0,0,0,-1,979,722,0,0
-238,302,0,0,0,0,0,0,0,0,0,-1,986,722,0,0
-231,302,0,0,0,0,0,0,0,0,0,-1,993,722,0,0
-224,302,0,0,0,0,0,0,0,0,0,-1,1000,722,0,0
-217,302,0,0,0,0,0,0,0,0,0,-1,1007,722,0,0
-210,302,0,0,0,0,0,0,0,0,0,-1,1014,722,0,0
-203,302,0,0,0,0,0,0,0,0,0,-1,1021,722,0,0
-196,302,0,0,0,0,0,0,0,0,0,-1,1028,722,0,0
-189,302,0,0,0,0,0,0,0,0,0,-1,1035,722,0,0
-182,302,0,0,0,0,0,0,0,0,0,-1,1042,722,0,0
-175,302,0,0,0,0,0,0,0,0,0,-1,1049,722,0,0
-168,302,0,0,0,0,0,0,0,0,0,-1,1056,722,0,0
-161,302,0,0,0,0,0,0,0,0,0,-1,1063,722,0,0
-154,302,0,0,0,0,0,0,0,0,0,-1,1070,722,0,0
-147,302,0,0,0,0,0,0,0,0,0,-1,1077,722,0,0
-140,302,0,0,0,0,0,0,0,0,0,-1,1084,722,0,0
-133,302,0,0,0,0,0,0,0,0,0,-1,1091,722,0,0
-126,302,0,0,0,0,0,0,0,0,0,-1,1098,722,0,0
-119,302,0,0,0,0,0,0,0,0,0,-1,1105,722,0,0
-112,302,0,0,0,0,0,0,0,0,0,-1,1112,722,0,0
-105,302,0,0,0,0,0,0,0,0,0,-1,1119,722,0,0
-98,302,0,0,0,0,0,0,0,0,0,-1,1126,722,0,0
-91,302,0,0,0,0,0,0,0,0,0,-1,1133,722,0,0
-84,302,0,0,0,0,0,0,0,0,0,-1,1140,722,0,0
-77,302,0,0,0,0,0,0,0,0,0,-1,1147,722,0,0
-70,302,0,0,0,0,0,0,0,0,0,-1,1154,722,0,0
-63,302,0,0,0,0,0,0,0,0,0,-1,1161,722,0,0
-56,302,0,0,0,0,0,0,0,0,0,-1,1168,722,0,0
-49,302,0,0,0,0,0,0,0,0,0,-1,1175,722,0,0
-42,302,0,0,0,0,0,0,0,0,0,-1,1182,722,0,0
-35,302,0,0,0,0,0,0,0,0,0,-1,1189,722,0,0
-28,302,0,0,0,0,0,0,0,0,0,-1,1196,722,0,0
-21,302,0,0,0,0,0,0,0,0,0,-1,1203,722,0,0
-14,302,0,0,0,0,0,0,0,0,0,-1,1210,722,0,0
-7,302,0,0,0,0,0,0,0,0,0,-1,1217,722,0,0
0,302,0,0,0,0,0,0,0,0,0,-1,1224,722,0,0
7,302,0,0,0,0,0,0,0,0,0,-1,1231,722,0,0
14,302,0,0,0,0,0,0,0,0,0,-1,1238,722,0,0
21,302,0,0,0,0,0,0,0,0,0,-1,1245,722,0,0
28,302,0,0,0,0,0,0,0,0,0,-1,1252,722,0,0
35,302,0,0,0,0,0,0,0,0,0,-1,1259,722,0,0
42,302,0,0,0,0,0,0,0,0,0,-1,1266,722,0,0
49,302,0,0,0,0,0,0,0,0,0,-1,1273,722,0,0
56,302,0,0,0,0,0,0,0,0,0,-1,1280,722,0,0
63,302,0,0,0,0,0,0,0,0,0,-1,1287,722,0,0
70,302,0,0,0,0,0,0,0,0,0,-1,1294,722,0,0
77,302,0,0,0,0,0,0,0,0,0,-1,1301,722,0,0
84,302,0,0,0,0,0,0,0,0,0,-1,1308,722,0,0
91,302,0,0,0,0,0,0,0,0,0,-1,1315,722,0,0
98,302,0,0,0,0,0,0,0,0,0,-1,1322,722,0,0
105,302,0,0,0,0,0,0,0,0,0,-1,1329,722,0,0
112,302,0,0,0,0,0,0,0,0,0,-1,1336,722,0,0
119,302,0,0,0,0,0,0,0,0,0,-1,1343,722,0,0
126,302,0,0,0,0,0,0,0,0,0,-1,1350,722,0,0
133,302,0,0,0,0,0,0,0,0,0,-1,1357,722,0,0
140,302,0,0,0,0,0,0,0,0,0,-1,1364,722,0,0
147,302,0,0,0,0,0,0,0,0,0,-1,1371,722,0,0
154,302,0,0,0,0,0,0,0,0,0,-1,1378,722,0,0
161,302,0,0,0,0,0,0,0,0,0,-1,1385,722,0,0
168,302,0,0,0,0,0,0,0,0,0,-1,1392,722,0,0
175,302,0,0,0,0,0,0,0,0,0,-1,1399,722,0,0
182,302,0,0,0,0,0,0,0,0,0,-1,1406,722,0,0
189,302,0,0,0,0,0,0,0,0,0,-1,1413,722,0,0
196,302,0,0,0,0,0,0,0,0,0,-1,1420,722,0,0
203,302,0,0,0,0,0,0,0,0,0,-1,1427,722,0,0
210,302,0,0,0,0,0,0,0,0,0,-1,1434,722,0,0
217,302,0,0,0,0,0,0,0,0,0,-1,1441,722,0,0
224,302,0,0,0,0,0,0,0,0,0,-1,1448,722,0,0
231,302,0,0,0,0,0,0,0,0,0,-1,1455,722,0,0
238,302,0,0,0,0,0,0,0,0,0,-1,1462,722,0,0
245,302,0,0,0,0,0,0,0,0,0,-1,1469,722,0,0
252,302,0,0,0,0,0,0,0,0,0,-1,1476,722,0,0
259,302,0,0,0,0,0,0,0,0,0,-1,1483,722,0,0
266,302,0,0,0,0,0,0,0,0,0,-1,1490,722,0,0
273,302,0,0,0,0,0,0,0,0,0,-1,1497,722,0,0
280,302,0,0,0,0,0,0,0,0,0,-1,1504,722,0,0
287,302,0,0,0,0,0,0,0,0,0,-1,1511,722,0,0
294,302,0,0,0,0,0,0,0,0,0,-1,1518,722,0,0
301,302,0,0,0,0,0,0,0,0,0,-1,1525,722,0,0
308,302,0,0,0,0,0,0,0,0,0,-1,1532,722,0,0
315,302,0,0,0,0,0,0,0,0,0,-1,1539,722,0,0
322,302,0,0,0,0,0,0,0,0,0,-1,1546,722,0,0
329,302,0,0,0,0,0,0,0,0,0,-1,1553,722,0,0
336,302,0,0,0,0,0,0,0,0,0,-1,1560,722,0,0
343,302,0,0,0,0,0,0,0,0,0,-1,1567,722,0,0
350,302,0,0,0,0,0,0,0,0,0,-1,1574,722,0,0
357,302,0,0,0,0,0,0,0,0,0,-1,1581,722,0,0
364,302,0,0,0,0,0,0,0,0,0,-1,1588,722,0,0
371,302,0,0,0,0,0,0,0,0,0,-1,1595,722,0,0
378,302,0,0,0,0,0,0,0,0,0,-1,1602,722,0,0
385,302,0,0,0,0,0,0,0,0,0,-1,1609,722,0,0
392,302,0,0,0,0,0,0,0,0,0,-1,1616,722,0,0
399,302,0,0,0,0,0,0,0,0,0,-1,1623,722,0,0
406,302,0,0,0,0,0,0,0,0,0,-1,1630,722,0,0
413,302,0,0,0,0,0,0,0,0,0,-1,1637,722,0,0
420,302,0,0,0,0,0,0,0,0,0,-1,1644,722,0,0
427,302,0,0,0,0,0,0,0,0,0,-1,1651,722,0,0
434,302,0,0,0,0,0,0,0,0,0,-1,1658,722,0,0
441,302,0,0,0,0,0,0,0,0,0,-1,1665,722,0,0
448,302,0,0,0,0,0,0,0,0,0,-1,1672,722,0,0
455,302,0,0,0,0,0,0,0,0,0,-1,1679,722,0,0
462,302,0,0,0,0,0,0,0,0,0,-1,1686,722,0,0
469,302,0,0,0,0,0,0,0,0,0,-1,1693,722,0,0
476,302,0,0,0,0,0,0,0,0,0,-1,1700,722,0,0
483,302,0,0,0,0,0,0,0,0,0,-1,1707,722,0,0
490,302,0,0,0,0,0,0,0,0,0,-1,1714,722,0,0
497,302,0,0,0,0,0,0,0,0,0,-1,1721,722,0,0
504,302,0,0,0,0,0,0,0,0,0,-1,1728,722,0,0
511,302,0,0,0,0,0,0,0,0,0,-1,1735,722,0,0
518,302,0,0,0,0,0,0,0,0,0,-1,1742,722,0,0
525,302,0,0,0,0,0,0,0,0,0,-1,1749,722,0,0
532,302,0,0,0,0,0,0,0,0,0,-1,1756,722,0,0
539,302,0,0,0,0,0,0,0,0,0,-1,1763,722,0,0
546,302,48.9873,1.50562,0,0,0,0,0,0,0,-1,1770,722,48.9873,-1.50562
553,302,48.5511,2.79346,0,0,0,0,0,0,0,-1,1777,722,48.5512,-2.79343
560,302,47.9004,3.90967,0,0,0,0,0,0,0,-1,1784,722,47.9004,-3.90967
567,302,46.8901,4.84912,0,0,0,0,0,0,0,-1,1791,722,46.8901,-4.84912
574,302,45.9537,6.00867,0,0,0,0,0,0,0,-1,1798,722,45.9537,-6.00864
581,302,45.137,7.38043,0,0,0,0,0,0,0,-1,1805,722,45.1369,-7.38044
588,302,26.9731,7.19983,0,0,0,0,0,0,0,-1,1812,722,26.9732,-7.19981
595,302,27.3826,8.13104,0,0,0,0,0,0,0,-1,1819,722,27.3825,-8.13102
602,302,14.7349,5.21246,0,0,0,0,0,0,0,-1,1826,722,14.7349,-5.21247
609,302,31.1039,-6.34253,0,0,0,0,0,0,0,-1,1833,722,31.1039,6.34254
616,302,33.7363,-6.67194,0,0,0,0,0,0,0,-1,1840,722,33.7363,6.67195
623,302,33.7219,-5.98865,0.00427277,0.000201556,0.00184041,0.00498139,-0.000507067,0.36754,0.00350221,0.0153631,1847,722,33.722,5.98864
630,302,33.6783,-5.29889,0.00281723,-0.000184377,0.00127718,0.00328711,-0.000654257,0.352536,0.00243892,0.0122637,1854,722,33.6784,5.29886
637,302,33.6147,-4.59949,0.00170156,-0.000312721,0.000973872,0.00209541,-0.000706564,0.384303,0.00168266,0.0153991,1861,722,33.6148,4.5995
644,302,33.6051,-3.91498,0.00101921,-0.000185463,0.000764997,0.00139054,-0.000556795,0.451902,0.00115814,0.0156985,1868,722,33.6051,3.91497
651,302,33.6168,-3.19238,0.00061451,0.000130382,0.000659872,0.00107532,-0.000330424,0.609602,0.000848736,0.0152768,1875,722,33.6168,3.19238
658,302,33.6122,-2.50201,0.000435221,0.000648707,0.000722272,0.00127208,-0.000188152,0.858761,0.000917227,0.0162671,1882,722,33.6122,2.50202
665,302,33.5586,-1.81628,0.000476032,0.00132985,0.000956291,0.0019502,-0.000144315,0.995335,0.00135081,0.0151867,1889,722,33.5586,1.81627
672,302,33.5062,-1.11566,0.000673553,0.00214293,0.00128447,0.00288798,-7.14941e-05,1.04518,0.00194959,0.0124391,1896,722,33.5062,1.11564
679,302,33.4734,-0.409607,0.00106828,0.00317327,0.0017268,0.00414305,9.85051e-05,1.05909,0.00272979,0.0103427,1903,722,33.4734,0.40959
686,302,33.4698,0.347534,0.0017681,0.00438652,0.00235641,0.00577299,0.000381631,1.03896,0.00372797,0.02197,1910,722,33.4698,-0.347521
693,302,33.4148,1.10571,0,0,0,0,0,0,0,-1,1917,722,33.4149,-1.10569
700,302,25.4069,1.97308,0,0,0,0,0,0,0,-1,1924,722,25.4068,-1.97311
707,302,16.7321,4.76685,0,0,0,0,0,0,0,-1,1931,722,16.7321,-4.76687
714,302,17.2,5.77594,0,0,0,0,0,0,0,-1,1938,722,17.2,-5.77595
721,302,17.7914,6.60394,0,0,0,0,0,0,0,-1,1945,722,17.7914,-6.60395
728,302,17.2798,4.81702,0,0,0,0,0,0,0,-1,1952,722,17.2798,-4.81703
735,302,0,0,0,0,0,0,0,0,0,-1,1959,722,0,0
742,302,0,0,0,0,0,0,0,0,0,-1,1966,722,0,0
749,302,0,0,0,0,0,0,0,0,0,-1,1973,722,0,0
756,302,0,0,0,0,0,0,0,0,0,-1,1980,722,0,0
763,302,0,0,0,0,0,0,0,0,0,-1,1987,722,0,0
770,302,0,0,0,0,0,0,0,0,0,-1,1994,722,0,0
777,302,0,0,0,0,0,0,0,0,0,-1,2001,722,0,0
784,302,0,0,0,0,0,0,0,0,0,-1,2008,722,0,0
791,302,0,0,0,0,0,0,0,0,0,-1,2015,722,0,0
798,302,0,0,0,0,0,0,0,0,0,-1,2022,722,0,0
805,302,0,0,0,0,0,0,0,0,0,-1,2029,722,0,0
812,302,0,0,0,0,0,0,0,0,0,-1,2036,722,0,0
-700,295,0,0,0,0,0,0,0,0,0,-1,524,729,0,0
-693,295,0,0,0,0,0,0,0,0,0,-1,531,729,0,0
-686,295,0,0,0,0,0,0,0,0,0,-1,538,729,0,0
-679,295,0,0,0,0,0,0,0,0,0,-1,545,729,0,0
-672,295,0,0,0,0,0,0,0,0,0,-1,552,729,0,0
-665,295,0,0,0,0,0,0,0,0,0,-1,559,729,0,0
-658,295,0,0,0,0,0,0,0,0,0,-1,566,729,0,0
-651,295,0,0,0,0,0,0,0,0,0,-1,573,729,0,0
-644,295,0,0,0,0,0,0,0,0,0,-1,580,729,0,0
-637,295,0,0,0,0,0,0,0,0,0,-1,587,729,0,0
-630,295,0,0,0,0,0,0,0,0,0,-1,594,729,0,0
-623,295,0,0,0,0,0,0,0,0,0,-1,601,729,0,0
-616,295,-13.4911,1.31738,0,0,0,0,0,0,0,-1,608,729,-13.4911,-1.3174
-609,295,-10.2864,0.832031,0,0,0,0,0,0,0,-1,615,729,-10.2863,-0.832034
-602,295,-8.19006,3.01587,0,0,0,0,0,0,0,-1,622,729,-8.19005,-3.01588
-595,295,-0.615479,-1.95447,0,0,0,0,0,0,0,-1,629,729,-0.615481,1.95445
-588,295,-7.98999,1.56903,0,0,0,0,0,0,0,-1,636,729,-7.98997,-1.56905
-581,295,-12.0404,0.150574,0,0,0,0,0,0,0,-1,643,729,-12.0404,-0.150604
-574,295,-12.1605,-0.0739746,0,0,0,0,0,0,0,-1,650,729,-12.1605,0.0739856
-567,295,-21.4492,-0.742554,0,0,0,0,0,0,0,-1,657,729,-21.4492,0.742524
-560,295,-21.8667,-1.46838,0.00216581,0.00694944,-0.00216488,0.00778368,0.00133156,-1.20298,0.00480714,0.0363201,664,729,-21.8667,1.46839
-553,295,-21.849,-2.18115,0.00174052,0.00485455,-0.00135381,0.00536081,0.00123426,-1.21295,0.00324175,0.0193473,671,729,-21.849,2.18116
-546,295,-21.9523,-2.83453,0.00135718,0.00295343,-0.000682928,0.00320573,0.00110488,-1.21691,0.00188037,0.0205538,678,729,-21.9522,2.83456
-539,295,-21.9865,-3.45654,0.0010637,0.00152012,-0.000142521,0.00156097,0.00102285,-1.29167,0.000915596,0.0182876,685,729,-21.9865,3.45655
-532,295,-21.9884,-4.10773,0.000607749,7.30863e-05,0.000490044,0.000898637,-0.000217802,0.535697,0.000683361,0.0151718,692,729,-21.9884,4.10773
-525,295,-22.0063,-4.80542,0.000371134,-0.000856969,0.000904015,0.000849924,-0.00133576,0.487067,0.00127225,0.0148973,699,729,-22.0064,4.80544
-518,295,-22.0106,-5.47192,0.000210693,-0.00157334,0.00125282,0.00085661,-0.00221926,0.476028,0.00183302,0.0112533,706,729,-22.0106,5.47195
-511,295,-22.027,-6.12958,-9.42066e-05,-0.00220998,0.00169218,0.000843553,-0.00314774,0.506041,0.002429,0.0094185,713,729,-22.027,6.12958
-504,295,-22.0746,-6.79407,-0.000409769,-0.00264013,0.00215146,0.000898358,-0.00394826,0.546294,0.00297715,0.0121202,720,729,-22.0746,6.7941
-497,295,-22.172,-7.38074,-0.000584525,-0.00271639,0.00251066,0.00107711,-0.00437803,0.584648,0.00333619,0.0235222,727,729,-22.172,7.38072
-490,295,-22.264,-7.93207,0,0,0,0,0,0,0,-1,734,729,-22.264,7.93204
-483,295,-6.84503,-0.454651,0,0,0,0,0,0,0,-1,741,729,-6.84505,0.454639
-476,295,-13.1738,-0.836243,0,0,0,0,0,0,0,-1,748,729,-13.1738,0.836223
-469,295,-26.5608,-0.466187,0,0,0,0,0,0,0,-1,755,729,-26.5608,0.466162
-462,295,-29.7701,-0.792664,0,0,0,0,0,0,0,-1,762,729,-29.7701,0.792642
-455,295,-39.7284,-1.35437,0,0,0,0,0,0,0,-1,769,729,-39.7284,1.35437
-448,295,-40.9255,-1.80212,0,0,0,0,0,0,0,-1,776,729,-40.9255,1.80211
-441,295,-39.6894,-0.329468,0,0,0,0,0,0,0,-1,783,729,-39.6894,0.329463
-434,295,-39.6559,-0.0856934,0,0,0,0,0,0,0,-1,790,729,-39.6559,0.0856846
-427,295,0,0,0,0,0,0,0,0,0,-1,797,729,0,0
-420,295,0,0,0,0,0,0,0,0,0,-1,804,729,0,0
-413,295,0,0,0,0,0,0,0,0,0,-1,811,729,0,0
-406,295,0,0,0,0,0,0,0,0,0,-1,818,729,0,0
-399,295,0,0,0,0,0,0,0,0,0,-1,825,729,0,0
-392,295,0,0,0,0,0,0,0,0,0,-1,832,729,0,0
-385,295,0,0,0,0,0,0,0,0,0,-1,839,729,0,0
-378,295,0,0,0,0,0,0,0,0,0,-1,846,729,0,0
-371,295,0,0,0,0,0,0,0,0,0,-1,853,729,0,0
-364,295,0,0,0,0,0,0,0,0,0,-1,860,729,0,0
-357,295,0,0,0,0,0,0,0,0,0,-1,867,729,0,0
-350,295,0,0,0,0,0,0,0,0,0,-1,874,729,0,0
-343,295,0,0,0,0,0,0,0,0,0,-1,881,729,0,0
-336,295,0,0,0,0,0,0,0,0,0,-1,888,729,0,0
-329,295,0,0,0,0,0,0,0,0,0,-1,895,729,0,0
-322,295,0,0,0,0,0,0,0,0,0,-1,902,729,0,0
-315,295,0,0,0,0,0,0,0,0,0,-1,909,729,0,0
-308,295,0,0,0,0,0,0,0,0,0,-1,916,729,0,0
-301,295,0,0,0,0,0,0,0,0,0,-1,923,729,0,0
-294,295,0,0,0,0,0,0,0,0,0,-1,930,729,0,0
-287,295,0,0,0,0,0,0,0,0,0,-1,937,729,0,0
-280,295,0,0,0,0,0,0,0,0,0,-1,944,729,0,0
-273,295,0,0,0,0,0,0,0,0,0,-1,951,729,0,0
-266,295,0,0,0,0,0,0,0,0,0,-1,958,729,0,0
-259,295,0,0,0,0,0,0,0,0,0,-1,965,729,0,0
-252,295,0,0,0,0,0,0,0,0,0,-1,972,729,0,0
-245,295,0,0,0,0,0,0,0,0,0,-1,979,729,0,0
-238,295,0,0,0,0,0,0,0,0,0,-1,986,729,0,0
-231,295,0,0,0,0,0,0,0,0,0,-1,993,729,0,0
-224,295,0,0,0,0,0,0,0,0,0,-1,1000,729,0,0
-217,295,0,0,0,0,0,0,0,0,0,-1,1007,729,0,0
-210,295,0,0,0,0,0,0,0,0,0,-1,1014,729,0,0
-203,295,0,0,0,0,0,0,0,0,0,-1,1021,729,0,0
-196,295,0,0,0,0,0,0,0,0,0,-1,1028,729,0,0
-189,295,0,0,0,0,0,0,0,0,0,-1,1035,729,0,0
-182,295,0,0,0,0,0,0,0,0,0,-1,1042,729,0,0
-175,295,0,0,0,0,0,0,0,0,0,-1,1049,729,0,0
-168,295,0,0,0,0,0,0,0,0,0,-1,1056,729,0,0
-161,295,0,0,0,0,0,0,0,0,0,-1,1063,729,0,0
-154,295,0,0,0,0,0,0,0,0,0,-1,1070,729,0,0
-147,295,0,0,0,0,0,0,0,0,0,-1,1077,729,0,0
-140,295,0,0,0,0,0,0,0,0,0,-1,1084,729,0,0
-133,295,0,0,0,0,0,0,0,0,0,-1,1091,729,0,0
-126,295,0,0,0,0,0,0,0,0,0,-1,1098,729,0,0
-119,295,0,0,0,0,0,0,0,0,0,-1,1105,729,0,0
-112,295,0,0,0,0,0,0,0,0,0,-1,1112,729,0,0
-105,295,0,0,0,0,0,0,0,0,0,-1,1119,729,0,0
-98,295,0,0,0,0,0,0,0,0,0,-1,1126,729,0,0
-91,295,0,0,0,0,0,0,0,0,0,-1,1133,729,0,0
-84,295,0,0,0,0,0,0,0,0,0,-1,1140,729,0,0
-77,295,0,0,0,0,0,0,0,0,0,-1,1147,729,0,0
-70,295,0,0,0,0,0,0,0,0,0,-1,1154,729,0,0
-63,295,0,0,0,0,0,0,0,0,0,-1,1161,729,0,0
-56,295,0,0,0,0,0,0,0,0,0,-1,1168,729,0,0
-49,295,0,0,0,0,0,0,0,0,0,-1,1175,729,0,0
-42,295,0,0,0,0,0,0,0,0,0,-1,1182,729,0,0
-35,295,0,0,0,0,0,0,0,0,0,-1,1189,729,0,0
-28,295,0,0,0,0,0,0,0,0,0,-1,1196,729,0,0
-21,295,0,0,0,0,0,0,0,0,0,-1,1203,729,0,0
-14,295,0,0,0,0,0,0,0,0,0,-1,1210,729,0,0
-7,295,0,0,0,0,0,0,0,0,0,-1,1217,729,0,0
0,295,0,0,0,0,0,0,0,0,0,-1,1224,729,0,0
7,295,0,0,0,0,0,0,0,0,0,-1,1231,729,0,0
14,295,0,0,0,0,0,0,0,0,0,-1,1238,729,0,0
21,295,0,0,0,0,0,0,0,0,0,-1,1245,729,0,0
28,295,0,0,0,0,0,0,0,0,0,-1,1252,729,0,0
35,295,0,0,0,0,0,0,0,0,0,-1,1259,729,0,0
42,295,0,0,0,0,0,0,0,0,0,-1,1266,729,0,0
49,295,0,0,0,0,0,0,0,0,0,-1,1273,729,0,0
56,295,0,0,0,0,0,0,0,0,0,-1,1280,729,0,0
63,295,0,0,0,0,0,0,0,0,0,-1,1287,729,0,0
70,295,0,0,0,0,0,0,0,0,0,-1,1294,729,0,0
77,295,0,0,0,0,0,0,0,0,0,-1,1301,729,0,0
84,295,0,0,0,0,0,0,0,0,0,-1,1308,729,0,0
91,295,0,0,0,0,0,0,0,0,0,-1,1315,729,0,0
98,295,0,0,0,0,0,0,0,0,0,-1,1322,729,0,0
105,295,0,0,0,0,0,0,0,0,0,-1,1329,729,0,0
112,295,0,0,0,0,0,0,0,0,0,-1,1336,729,0,0
119,295,0,0,0,0,0,0,0,0,0,-1,1343,729,0,0
126,295,0,0,0,0,0,0,0,0,0,-1,1350,729,0,0
133,295,0,0,0,0,0,0,0,0,0,-1,1357,729,0,0
140,295,0,0,0,0,0,0,0,0,0,-1,1364,729,0,0
147,295,0,0,0,0,0,0,0,0,0,-1,1371,729,0,0
154,295,0,0,0,0,0,0,0,0,0,-1,1378,729,0,0
161,295,0,0,0,0,0,0,0,0,0,-1,1385,729,0,0
168,295,0,0,0,0,0,0,0,0,0,-1,1392,729,0,0
175,295,0,0,0,0,0,0,0,0,0,-1,1399,729,0,0
182,295,0,0,0,0,0,0,0,0,0,-1,1406,729,0,0
189,295,0,0,0,0,0,0,0,0,0,-1,1413,729,0,0
196,295,0,0,0,0,0,0,0,0,0,-1,1420,729,0,0
203,295,0,0,0,0,0,0,0,0,0,-1,1427,729,0,0
210,295,0,0,0,0,0,0,0,0,0,-1,1434,729,0,0
217,295,0,0,0,0,0,0,0,0,0,-1,1441,729,0,0
224,295,0,0,0,0,0,0,0,0,0,-1,1448,729,0,0
231,295,0,0,0,0,0,0,0,0,0,-1,1455,729,0,0
238,295,0,0,0,0,0,0,0,0,0,-1,1462,729,0,0
245,295,0,0,0,0,0,0,0,0,0,-1,1469,729,0,0
252,295,0,0,0,0,0,0,0,0,0,-1,1476,729,0,0
259,295,0,0,0,0,0,0,0,0,0,-1,1483,729,0,0
266,295,0,0,0,0,0,0,0,0,0,-1,1490,729,0,0
273,295,0,0,0,0,0,0,0,0,0,-1,1497,729,0,0
280,295,0,0,0,0,0,0,0,0,0,-1,1504,729,0,0
287,295,0,0,0,0,0,0,0,0,0,-1,1511,729,0,0
294,295,0,0,0,0,0,0,0,0,0,-1,1518,729,0,0
301,295,0,0,0,0,0,0,0,0,0,-1,1525,729,0,0
308,295,0,0,0,0,0,0,0,0,0,-1,1532,729,0,0
315,295,0,0,0,0,0,0,0,0,0,-1,1539,729,0,0
322,295,0,0,0,0,0,0,0,0,0,-1,1546,729,0,0
329,295,0,0,0,0,0,0,0,0,0,-1,1553,729,0,0
336,295,0,0,0,0,0,0,0,0,0,-1,1560,729,0,0
343,295,0,0,0,0,0,0,0,0,0,-1,1567,729,0,0
350,295,0,0,0,0,0,0,0,0,0,-1,1574,729,0,0
357,295,0,0,0,0,0,0,0,0,0,-1,1581,729,0,0
364,295,0,0,0,0,0,0,0,0,0,-1,1588,729,0,0
371,295,0,0,0,0,0,0,0,0,0,-1,1595,729,0,0
378,295,0,0,0,0,0,0,0,0,0,-1,1602,729,0,0
385,295,0,0,0,0,0,0,0,0,0,-1,1609,729,0,0
392,295,0,0,0,0,0,0,0,0,0,-1,1616,729,0,0
399,295,0,0,0,0,0,0,0,0,0,-1,1623,729,0,0
406,295,0,0,0,0,0,0,0,0,0,-1,1630,729,0,0
413,295,0,0,0,0,0,0,0,0,0,-1,1637,729,0,0
420,295,0,0,0,0,0,0,0,0,0,-1,1644,729,0,0
427,295,0,0,0,0,0,0,0,0,0,-1,1651,729,0,0
434,295,0,0,0,0,0,0,0,0,0,-1,1658,729,0,0
441,295,0,0,0,0,0,0,0,0,0,-1,1665,729,0,0
448,295,0,0,0,0,0,0,0,0,0,-1,1672,729,0,0
455,295,0,0,0,0,0,0,0,0,0,-1,1679,729,0,0
462,295,0,0,0,0,0,0,0,0,0,-1,1686,729,0,0
469,295,0,0,0,0,0,0,0,0,0,-1,1693,729,0,0
476,295,0,0,0,0,0,0,0,0,0,-1,1700,729,0,0
483,295,0,0,0,0,0,0,0,0,0,-1,1707,729,0,0
490,295,0,0,0,0,0,0,0,0,0,-1,1714,729,0,0
497,295,0,0,0,0,0,0,0,0,0,-1,1721,729,0,0
504,295,0,0,0,0,0,0,0,0,0,-1,1728,729,0,0
511,295,0,0,0,0,0,0,0,0,0,-1,1735,729,0,0
518,295,0,0,0,0,0,0,0,0,0,-1,1742,729,0,0
525,295,0,0,0,0,0,0,0,0,0,-1,1749,729,0,0
532,295,0,0,0,0,0,0,0,0,0,-1,1756,729,0,0
539,295,0,0,0,0,0,0,0,0,0,-1,1763,729,0,0
546,295,48.8486,1.93115,0,0,0,0,0,0,0,-1,1770,729,48.8486,-1.93117
553,295,48.7095,2.24249,0,0,0,0,0,0,0,-1,1777,729,48.7095,-2.24251
560,295,54.6915,3.23865,0,0,0,0,0,0,0,-1,1784,729,54.6916,-3.23863
567,295,53.9983,3.71307,0,0,0,0,0,0,0,-1,1791,729,53.9983,-3.71305
574,295,45.8945,5.06598,0,0,0,0,0,0,0,-1,1798,729,45.8945,-5.06597
581,295,37.8191,2.19592,0,0,0,0,0,0,0,-1,1805,729,37.8191,-2.19594
588,295,39.0542,2.45679,0,0,0,0,0,0,0,-1,1812,729,39.0542,-2.45676
595,295,27.2102,6.99121,0,0,0,0,0,0,0,-1,1819,729,27.2103,-6.99121
602,295,26.9065,7.82141,0,0,0,0,0,0,0,-1,1826,729,26.9064,-7.8214
609,295,11.7737,2.19989,0,0,0,0,0,0,0,-1,1833,729,11.7736,-2.19988
616,295,34.5298,-6.7146,0,0,0,0,0,0,0,-1,1840,729,34.5298,6.71459
623,295,34.4342,-5.99237,0.00490107,0.000314795,0.00278695,0.00621703,-0.00100116,0.44115,0.00451555,0.0330694,1847,729,34.4342,5.99236
630,295,34.3693,-5.25879,0.0033121,-9.61388e-05,0.00198808,0.00422647,-0.00101051,0.431077,0.00320798,0.0136091,1854,729,34.3692,5.25878
637,295,34.3306,-4.55975,0.00200929,-0.00031802,0.00155051,0.00278423,-0.00109296,0.463488,0.0023084,0.0149832,1861,729,34.3306,4.55974
644,295,34.3162,-3.87164,0.00127925,-0.00024708,0.00112796,0.00187796,-0.000845792,0.487978,0.00160976,0.0138404,1868,729,34.3162,3.87165
651,295,34.3195,-3.15417,0.000968978,8.67365e-05,0.000864964,0.00149881,-0.000443096,0.549595,0.00117509,0.0140009,1875,729,34.3194,3.15419
658,295,34.2656,-2.47357,0.000959419,0.000626903,0.000868603,0.00167753,-9.12108e-05,0.690838,0.00114997,0.0132129,1882,729,34.2656,2.47355
665,295,34.2273,-1.8009,0.00115247,0.00135247,0.00115295,0.00240975,9.51951e-05,0.828658,0.00157572,0.0121356,1889,729,34.2273,1.80092
672,295,34.196,-1.10388,0.0014843,0.00219521,0.00153187,0.00341232,0.000267186,0.899401,0.00219126,0.01423,1896,729,34.196,1.10391
679,295,34.1576,-0.394714,0.00203771,0.00319456,0.00205061,0.00474677,0.000485503,0.922863,0.00301573,0.0113782,1903,729,34.1576,0.394706
686,295,34.1636,0.294678,0.00282738,0.00437656,0.00271489,0.00642519,0.000778743,0.924362,0.00404892,0.0121078,1910,729,34.1636,-0.294649
693,295,34.1804,0.983398,0,0,0,0,0,0,0,-1,1917,729,34.1804,-0.983395
700,295,31.3757,2.06982,0,0,0,0,0,0,0,-1,1924,729,31.3758,-2.0698
707,295,22.2661,3.05206,0,0,0,0,0,0,0,-1,1931,729,22.2662,-3.05207
714,295,17.4906,4.63068,0,0,0,0,0,0,0,-1,1938,729,17.4906,-4.63066
721,295,18.3792,5.32281,0,0,0,0,0,0,0,-1,1945,729,18.3791,-5.32283
728,295,17.379,3.74866,0,0,0,0,0,0,0,-1,1952,729,17.379,-3.74863
735,295,0,0,0,0,0,0,0,0,0,-1,1959,729,0,0
742,295,0,0,0,0,0,0,0,0,0,-1,1966,729,0,0
749,295,0,0,0,0,0,0,0,0,0,-1,1973,729,0,0
756,295,0,0,0,0,0,0,0,0,0,-1,1980,729,0,0
763,295,0,0,0,0,0,0,0,0,0,-1,1987,729,0,0
770,295,0,0,0,0,0,0,0,0,0,-1,1994,729,0,0
777,295,0,0,0,0,0,0,0,0,0,-1,2001,729,0,0
784,295,0,0,0,0,0,0,0,0,0,-1,2008,729,0,0
791,295,0,0,0,0,0,0,0,0,0,-1,2015,729,0,0
798,295,0,0,0,0,0,0,0,0,0,-1,2022,729,0,0
805,295,0,0,0,0,0,0,0,0,0,-1,2029,729,0,0
812,295,0,0,0,0,0,0,0,0,0,-1,2036,729,0,0
-700,288,0,0,0,0,0,0,0,0,0,-1,524,736,0,0
-693,288,0,0,0,0,0,0,0,0,0,-1,531,736,0,0
-686,288,0,0,0,0,0,0,0,0,0,-1,538,736,0,0
-679,288,0,0,0,0,0,0,0,0,0,-1,545,736,0,0
-672,288,0,0,0,0,0,0,0,0,0,-1,552,736,0,0
-665,288,0,0,0,0,0,0,0,0,0,-1,559,736,0,0
-658,288,0,0,0,0,0,0,0,0,0,-1,566,736,0,0
-651,288,0,0,0,0,0,0,0,0,0,-1,573,736,0,0
-644,288,0,0,0,0,0,0,0,0,0,-1,580,736,0,0
-637,288,0,0,0,0,0,0,0,0,0,-1,587,736,0,0
-630,288,0,0,0,0,0,0,0,0,0,-1,594,736,0,0
-623,288,0,0,0,0,0,0,0,0,0,-1,601,736,0,0
-616,288,-11.7584,2.4425,0,0,0,0,0,0,0,-1,608,736,-11.7584,-2.44251
-609,288,-10.3007,2.32178,0,0,0,0,0,0,0,-1,615,736,-10.3007,-2.32178
-602,288,-10.1458,-1.85559,0,0,0,0,0,0,0,-1,622,736,-10.1458,1.85556
-595,288,-7.63208,1.81769,0,0,0,0,0,0,0,-1,629,736,-7.63205,-1.81766
-588,288,-8.19269,1.50598,0,0,0,0,0,0,0,-1,636,736,-8.19268,-1.50601
-581,288,-13.1915,0.659241,0,0,0,0,0,0,0,-1,643,736,-13.1915,-0.659228
-574,288,-22.0969,-0.0181274,0,0,0,0,0,0,0,-1,650,736,-22.0969,0.0181412
-567,288,-22.2764,-0.757141,0.0027955,0.0094803,-0.00410927,0.0114349,0.000840941,-1.12682,0.00735896,0.0406446,657,736,-22.2764,0.757126
-560,288,-22.5402,-1.52496,0.00185323,0.00645761,-0.00251269,0.00756331,0.000747534,-1.15625,0.00481242,0.0179131,664,736,-22.5401,1.52498
-553,288,-22.5195,-2.13721,0.00131251,0.00427596,-0.00140874,0.00483875,0.00074972,-1.19072,0.00300724,0.0186486,671,736,-22.5195,2.1372
-546,288,-22.5807,-2.80243,0.000884782,0.00236186,-0.000516827,0.00252473,0.000721905,-1.2655,0.00150153,0.0212517,678,736,-22.5807,2.80241
-539,288,-22.6422,-3.4306,0.000554946,0.000826113,0.000221004,0.000949808,0.000431251,1.06054,0.000549144,0.0181032,685,736,-22.6422,3.43063
-532,288,-22.6292,-4.07495,9.62376e-05,-0.000701298,0.000993782,0.000768272,-0.00137333,0.594601,0.0012528,0.0142975,692,736,-22.6292,4.07498
-525,288,-22.6656,-4.76111,-9.95897e-05,-0.00160742,0.0014668,0.000795706,-0.00250272,0.548011,0.00198754,0.0133461,699,736,-22.6656,4.7611
-518,288,-22.7155,-5.43658,-0.000200587,-0.00216377,0.00180796,0.000875064,-0.00323942,0.5367,0.00250282,0.0116951,706,736,-22.7154,5.43657
-511,288,-22.7303,-6.08887,-0.000413875,-0.00253054,0.00218996,0.000960072,-0.00390449,0.560313,0.00297511,0.0085809,713,736,-22.7303,6.08887
-504,288,-22.7482,-6.75488,-0.000544924,-0.00248607,0.00248577,0.00115304,-0.00418403,0.599274,0.00324277,0.0106468,720,736,-22.7482,6.75486
-497,288,-22.7822,-7.19659,-0.000430513,-0.00181639,0.00255819,0.00152693,-0.00377383,0.653137,0.00315071,0.0326609,727,736,-22.7822,7.19661
-490,288,-22.6764,-7.54987,0,0,0,0,0,0,0,-1,734,736,-22.6764,7.54988
-483,288,-17.3287,0.564758,0,0,0,0,0,0,0,-1,741,736,-17.3287,-0.56477
-476,288,-26.136,0.452148,0,0,0,0,0,0,0,-1,748,736,-26.136,-0.452177
-469,288,-27.7904,0.649841,0,0,0,0,0,0,0,-1,755,736,-27.7904,-0.649854
-462,288,-38.9562,0.158569,0,0,0,0,0,0,0,-1,762,736,-38.9562,-0.158541
-455,288,-43.7539,-0.235657,0,0,0,0,0,0,0,-1,769,736,-43.7539,0.23565
-448,288,-44.3273,-0.595276,0,0,0,0,0,0,0,-1,776,736,-44.3273,0.595262
-441,288,-41.1157,-2.28247,0,0,0,0,0,0,0,-1,783,736,-41.1157,2.28244
-434,288,-39.9307,-0.149353,0,0,0,0,0,0,0,-1,790,736,-39.9307,0.149359
-427,288,0,0,0,0,0,0,0,0,0,-1,797,736,0,0
-420,288,0,0,0,0,0,0,0,0,0,-1,804,736,0,0
-413,288,0,0,0,0,0,0,0,0,0,-1,811,736,0,0
-406,288,0,0,0,0,0,0,0,0,0,-1,818,736,0,0
-399,288,0,0,0,0,0,0,0,0,0,-1,825,736,0,0
-392,288,0,0,0,0,0,0,0,0,0,-1,832,736,0,0
-385,288,0,0,0,0,0,0,0,0,0,-1,839,736,0,0
-378,288,0,0,0,0,0,0,0,0,0,-1,846,736,0,0
-371,288,0,0,0,0,0,0,0,0,0,-1,853,736,0,0
-364,288,0,0,0,0,0,0,0,0,0,-1,860,736,0,0
-357,288,0,0,0,0,0,0,0,0,0,-1,867,736,0,0
-350,288,0,0,0,0,0,0,0,0,0,-1,874,736,0,0
-343,288,0,0,0,0,0,0,0,0,0,-1,881,736,0,0
-336,288,0,0,0,0,0,0,0,0,0,-1,888,736,0,0
-329,288,0,0,0,0,0,0,0,0,0,-1,895,736,0,0
-322,288,0,0,0,0,0,0,0,0,0,-1,902,736,0,0
-315,288,0,0,0,0,0,0,0,0,0,-1,909,736,0,0
-308,288,0,0,0,0,0,0,0,0,0,-1,916,736,0,0
-301,288,0,0,0,0,0,0,0,0,0,-1,923,736,0,0
-294,288,0,0,0,0,0,0,0,0,0,-1,930,736,0,0
-287,288,0,0,0,0,0,0,0,0,0,-1,937,736,0,0
-280,288,0,0,0,0,0,0,0,0,0,-1,944,736,0,0
-273,288,0,0,0,0,0,0,0,0,0,-1,951,736,0,0
-266,288,0,0,0,0,0,0,0,0,0,-1,958,736,0,0
-259,288,0,0,0,0,0,0,0,0,0,-1,965,736,0,0
-252,288,0,0,0,0,0,0,0,0,0,-1,972,736,0,0
-245,288,0,0,0,0,0,0,0,0,0,-1,979,736,0,0
-238,288,0,0,0,0,0,0,0,0,0,-1,986,736,0,0
-231,288,0,0,0,0,0,0,0,0,0,-1,993,736,0,0
-224,288,0,0,0,0,0,0,0,0,0,-1,1000,736,0,0
-217,288,0,0,0,0,0,0,0,0,0,-1,1007,736,0,0
-210,288,0,0,0,0,0,0,0,0,0,-1,1014,736,0,0
-203,288,0,0,0,0,0,0,0,0,0,-1,1021,736,0,0
-196,288,0,0,0,0,0,0,0,0,0,-1,1028,736,0,0
-189,288,0,0,0,0,0,0,0,0,0,-1,1035,736,0,0
-182,288,0,0,0,0,0,0,0,0,0,-1,1042,736,0,0
-175,288,0,0,0,0,0,0,0,0,0,-1,1049,736,0,0
-168,288,0,0,0,0,0,0,0,0,0,-1,1056,736,0,0
-161,288,0,0,0,0,0,0,0,0,0,-1,1063,736,0,0
-154,288,0,0,0,0,0,0,0,0,0,-1,1070,736,0,0
-147,288,0,0,0,0,0,0,0,0,0,-1,1077,736,0,0
-140,288,0,0,0,0,0,0,0,0,0,-1,1084,736,0,0
-133,288,0,0,0,0,0,0,0,0,0,-1,1091,736,0,0
-126,288,0,0,0,0,0,0,0,0,0,-1,1098,736,0,0
-119,288,0,0,0,0,0,0,0,0,0,-1,1105,736,0,0
-112,288,0,0,0,0,0,0,0,0,0,-1,1112,736,0,0
-105,288,0,0,0,0,0,0,0,0,0,-1,1119,736,0,0
-98,288,0,0,0,0,0,0,0,0,0,-1,1126,736,0,0
-91,288,0,0,0,0,0,0,0,0,0,-1,1133,736,0,0
-84,288,0,0,0,0,0,0,0,0,0,-1,1140,736,0,0
-77,288,0,0,0,0,0,0,0,0,0,-1,1147,736,0,0
-70,288,0,0,0,0,0,0,0,0,0,-1,1154,736,0,0
-63,288,0,0,0,0,0,0,0,0,0,-1,1161,736,0,0
-56,288,0,0,0,0,0,0,0,0,0,-1,1168,736,0,0
-49,288,0,0,0,0,0,0,0,0,0,-1,1175,736,0,0
-42,288,0,0,0,0,0,0,0,0,0,-1,1182,736,0,0
-35,288,0,0,0,0,0,0,0,0,0,-1,1189,736,0,0
-28,288,0,0,0,0,0,0,0,0,0,-1,1196,736,0,0
-21,288,0,0,0,0,0,0,0,0,0,-1,1203,736,0,0
-14,288,0,0,0,0,0,0,0,0,0,-1,1210,736,0,0
-7,288,0,0,0,0,0,0,0,0,0,-1,1217,736,0,0
0,288,0,0,0,0,0,0,0,0,0,-1,1224,736,0,0
7,288,0,0,0,0,0,0,0,0,0,-1,1231,736,0,0
14,288,0,0,0,0,0,0,0,0,0,-1,1238,736,0,0
21,288,0,0,0,0,0,0,0,0,0,-1,1245,736,0,0
28,288,0,0,0,0,0,0,0,0,0,-1,1252,736,0,0
35,288,0,0,0,0,0,0,0,0,0,-1,1259,736,0,0
42,288,0,0,0,0,0,0,0,0,0,-1,1266,736,0,0
49,288,0,0,0,0,0,0,0,0,0,-1,1273,736,0,0
56,288,0,0,0,0,0,0,0,0,0,-1,1280,736,0,0
63,288,0,0,0,0,0,0,0,0,0,-1,1287,736,0,0
70,288,0,0,0,0,0,0,0,0,0,-1,1294,736,0,0
77,288,0,0,0,0,0,0,0,0,0,-1,1301,736,0,0
84,288,0,0,0,0,0,0,0,0,0,-1,1308,736,0,0
91,288,0,0,0,0,0,0,0,0,0,-1,1315,736,0,0
98,288,0,0,0,0,0,0,0,0,0,-1,1322,736,0,0
105,288,0,0,0,0,0,0,0,0,0,-1,1329,736,0,0
112,288,0,0,0,0,0,0,0,0,0,-1,1336,736,0,0
119,288,0,0,0,0,0,0,0,0,0,-1,1343,736,0,0
126,288,0,0,0,0,0,0,0,0,0,-1,1350,736,0,0
133,288,0,0,0,0,0,0,0,0,0,-1,1357,736,0,0
140,288,0,0,0,0,0,0,0,0,0,-1,1364,736,0,0
147,288,0,0,0,0,0,0,0,0,0,-1,1371,736,0,0
154,288,0,0,0,0,0,0,0,0,0,-1,1378,736,0,0
161,288,0,0,0,0,0,0,0,0,0,-1,1385,736,0,0
168,288,0,0,0,0,0,0,0,0,0,-1,1392,736,0,0
175,288,0,0,0,0,0,0,0,0,0,-1,1399,736,0,0
182,288,0,0,0,0,0,0,0,0,0,-1,1406,736,0,0
189,288,0,0,0,0,0,0,0,0,0,-1,1413,736,0,0
196,288,0,0,0,0,0,0,0,0,0,-1,1420,736,0,0
203,288,0,0,0,0,0,0,0,0,0,-1,1427,736,0,0
210,288,0,0,0,0,0,0,0,0,0,-1,1434,736,0,0
217,288,0,0,0,0,0,0,0,0,0,-1,1441,736,0,0
224,288,0,0,0,0,0,0,0,0,0,-1,1448,736,0,0
231,288,0,0,0,0,0,0,0,0,0,-1,1455,736,0,0
238,288,0,0,0,0,0,0,0,0,0,-1,1462,736,0,0
245,288,0,0,0,0,0,0,0,0,0,-1,1469,736,0,0
252,288,0,0,0,0,0,0,0,0,0,-1,1476,736,0,0
259,288,0,0,0,0,0,0,0,0,0,-1,1483,736,0,0
266,288,0,0,0,0,0,0,0,0,0,-1,1490,736,0,0
273,288,0,0,0,0,0,0,0,0,0,-1,1497,736,0,0
280,288,0,0,0,0,0,0,0,0,0,-1,1504,736,0,0
287,288,0,0,0,0,0,0,0,0,0,-1,1511,736,0,0
294,288,0,0,0,0,0,0,0,0,0,-1,1518,736,0,0
301,288,0,0,0,0,0,0,0,0,0,-1,1525,736,0,0
308,288,0,0,0,0,0,0,0,0,0,-1,1532,736,0,0
315,288,0,0,0,0,0,0,0,0,0,-1,1539,736,0,0
322,288,0,0,0,0,0,0,0,0,0,-1,1546,736,0,0
329,288,0,0,0,0,0,0,0,0,0,-1,1553,736,0,0
336,288,0,0,0,0,0,0,0,0,0,-1,1560,736,0,0
343,288,0,0,0,0,0,0,0,0,0,-1,1567,736,0,0
350,288,0,0,0,0,0,0,0,0,0,-1,1574,736,0,0
357,288,0,0,0,0,0,0,0,0,0,-1,1581,736,0,0
364,288,0,0,0,0,0,0,0,0,0,-1,1588,736,0,0
371,288,0,0,0,0,0,0,0,0,0,-1,1595,736,0,0
378,288,0,0,0,0,0,0,0,0,0,-1,1602,736,0,0
385,288,0,0,0,0,0,0,0,0,0,-1,1609,736,0,0
392,288,0,0,0,0,0,0,0,0,0,-1,1616,736,0,0
399,288,0,0,0,0,0,0,0,0,0,-1,1623,736,0,0
406,288,0,0,0,0,0,0,0,0,0,-1,1630,736,0,0
413,288,0,0,0,0,0,0,0,0,0,-1,1637,736,0,0
420,288,0,0,0,0,0,0,0,0,0,-1,1644,736,0,0
427,288,0,0,0,0,0,0,0,0,0,-1,1651,736,0,0
434,288,0,0,0,0,0,0,0,0,0,-1,1658,736,0,0
441,288,0,0,0,0,0,0,0,0,0,-1,1665,736,0,0
448,288,0,0,0,0,0,0,0,0,0,-1,1672,736,0,0
455,288,0,0,0,0,0,0,0,0,0,-1,1679,736,0,0
462,288,0,0,0,0,0,0,0,0,0,-1,1686,736,0,0
469,288,0,0,0,0,0,0,0,0,0,-1,1693,736,0,0
476,288,0,0,0,0,0,0,0,0,0,-1,1700,736,0,0
483,288,0,0,0,0,0,0,0,0,0,-1,1707,736,0,0
490,288,0,0,0,0,0,0,0,0,0,-1,1714,736,0,0
497,288,0,0,0,0,0,0,0,0,0,-1,1721,736,0,0
504,288,0,0,0,0,0,0,0,0,0,-1,1728,736,0,0
511,288,0,0,0,0,0,0,0,0,0,-1,1735,736,0,0
518,288,0,0,0,0,0,0,0,0,0,-1,1742,736,0,0
525,288,0,0,0,0,0,0,0,0,0,-1,1749,736,0,0
532,288,0,0,0,0,0,0,0,0,0,-1,1756,736,0,0
539,288,0,0,0,0,0,0,0,0,0,-1,1763,736,0,0
546,288,0,0,0,0,0,0,0,0,0,-1,1770,736,0,0
553,288,55.6929,2.51068,0,0,0,0,0,0,0,-1,1777,736,55.6929,-2.51067
560,288,55.074,3.12445,0,0,0,0,0,0,0,-1,1784,736,55.0739,-3.12443
567,288,54.4742,3.71405,0,0,0,0,0,0,0,-1,1791,736,54.4742,-3.71403
574,288,53.8524,4.28387,0,0,0,0,0,0,0,-1,1798,736,53.8524,-4.2839
581,288,53.4904,5.33215,0,0,0,0,0,0,0,-1,1805,736,53.4904,-5.33218
588,288,54.9313,3.29852,0,0,0,0,0,0,0,-1,1812,736,54.9313,-3.29849
595,288,47.035,3.35156,0,0,0,0,0,0,0,-1,1819,736,47.035,-3.35157
602,288,26.7634,7.61279,0,0,0,0,0,0,0,-1,1826,736,26.7635,-7.61279
609,288,17.5223,4.86414,0,0,0,0,0,0,0,-1,1833,736,17.5223,-4.86412
616,288,13.4886,0.801331,0,0,0,0,0,0,0,-1,1840,736,13.4886,-0.80132
623,288,35.141,-6.01324,0,0,0,0,0,0,0,-1,1847,736,35.1409,6.01326
630,288,35.0409,-5.19104,0.00393308,4.06842e-05,0.00274497,0.00535178,-0.00137802,0.477027,0.00410503,0.0261703,1854,736,35.0409,5.19102
637,288,35.0542,-4.52161,0.00243435,-0.00028488,0.0021768,0.00364125,-0.00149178,0.506245,0.00304894,0.0119823,1861,736,35.0542,4.52162
644,288,35.0392,-3.83704,0.00146471,-0.00032242,0.00149829,0.00231566,-0.00117337,0.516519,0.00205006,0.0108385,1868,736,35.0392,3.83705
651,288,35.0117,-3.13025,0.0010191,-0.000105039,0.000969053,0.00157729,-0.00066323,0.522599,0.00132897,0.0113949,1875,736,35.0117,3.13023
658,288,34.9606,-2.43005,0.000995969,0.000347937,0.000789494,0.00152535,-0.000181445,0.590674,0.00108246,0.0160468,1882,736,34.9605,2.43006
665,288,34.9122,-1.75928,0.00121628,0.00106999,0.00107511,0.00222073,6.55403e-05,0.751435,0.00145913,0.0167158,1889,736,34.9122,1.75925
672,288,34.8987,-1.0799,0.00156134,0.0019069,0.00145342,0.00319778,0.000270467,0.84456,0.00204766,0.0167606,1896,736,34.8986,1.07992
679,288,34.8632,-0.354065,0.00210861,0.00286348,0.00200367,0.00452496,0.000447137,0.878493,0.00287919,0.0147486,1903,736,34.8632,0.354085
686,288,34.8234,0.29834,0.00285004,0.00401384,0.0026695,0.00616413,0.000699753,0.89271,0.00389716,0.0116016,1910,736,34.8234,-0.298358
693,288,34.8372,1.08368,0.00390541,0.00534118,0.00353785,0.00823324,0.00101334,0.885497,0.00518417,0.0248848,1917,736,34.8371,-1.08367
700,288,34.8446,1.93671,0,0,0,0,0,0,0,-1,1924,736,34.8446,-1.93673
707,288,30.9496,3.07977,0,0,0,0,0,0,0,-1,1931,736,30.9496,-3.07975
714,288,23.0149,3.82544,0,0,0,0,0,0,0,-1,1938,736,23.0149,-3.82541
721,288,18.0732,3.69385,0,0,0,0,0,0,0,-1,1945,736,18.0732,-3.69387
728,288,19.3208,3.91455,0,0,0,0,0,0,0,-1,1952,736,19.3209,-3.91455
735,288,18.7712,3.51312,0,0,0,0,0,0,0,-1,1959,736,18.7713,-3.51309
742,288,0,0,0,0,0,0,0,0,0,-1,1966,736,0,0
749,288,0,0,0,0,0,0,0,0,0,-1,1973,736,0,0
756,288,0,0,0,0,0,0,0,0,0,-1,1980,736,0,0
763,288,0,0,0,0,0,0,0,0,0,-1,1987,736,0,0
770,288,0,0,0,0,0,0,0,0,0,-1,1994,736,0,0
777,288,0,0,0,0,0,0,0,0,0,-1,2001,736,0,0
784,288,0,0,0,0,0,0,0,0,0,-1,2008,736,0,0
791,288,0,0,0,0,0,0,0,0,0,-1,2015,736,0,0
798,288,0,0,0,0,0,0,0,0,0,-1,2022,736,0,0
805,288,0,0,0,0,0,0,0,0,0,-1,2029,736,0,0
812,288,0,0,0,0,0,0,0,0,0,-1,2036,736,0,0
-700,281,0,0,0,0,0,0,0,0,0,-1,524,743,0,0
-693,281,0,0,0,0,0,0,0,0,0,-1,531,743,0,0
-686,281,0,0,0,0,0,0,0,0,0,-1,538,743,0,0
-679,281,0,0,0,0,0,0,0,0,0,-1,545,743,0,0
-672,281,0,0,0,0,0,0,0,0,0,-1,552,743,0,0
-665,281,0,0,0,0,0,0,0,0,0,-1,559,743,0,0
-658,281,0,0,0,0,0,0,0,0,0,-1,566,743,0,0
-651,281,0,0,0,0,0,0,0,0,0,-1,573,743,0,0
-644,281,0,0,0,0,0,0,0,0,0,-1,580,743,0,0
-637,281,0,0,0,0,0,0,0,0,0,-1,587,743,0,0
-630,281,0,0,0,0,0,0,0,0,0,-1,594,743,0,0
-623,281,-19.1697,5.67017,0,0,0,0,0,0,0,-1,601,743,-19.1697,-5.67019
-616,281,-11.5906,2.6853,0,0,0,0,0,0,0,-1,608,743,-11.5906,-2.68529
-609,281,-16.1972,4.14838,0,0,0,0,0,0,0,-1,615,743,-16.1972,-4.14837
-602,281,-12.7697,3.94086,0,0,0,0,0,0,0,-1,622,743,-12.7697,-3.94086
-595,281,-10.4797,-1.07404,0,0,0,0,0,0,0,-1,629,743,-10.4798,1.07402
-588,281,-13.277,1.49817,0,0,0,0,0,0,0,-1,636,743,-13.2771,-1.49817
-581,281,-23.1578,0.30072,0,0,0,0,0,0,0,-1,643,743,-23.1578,-0.300701
-574,281,-23.0245,-0.187195,0.00447636,0.0127279,-0.00677965,0.0165385,0.000665785,-1.05874,0.0108106,0.0436802,650,743,-23.0245,0.187206
-567,281,-23.1743,-0.754517,0.00292759,0.00890626,-0.00439489,0.0112321,0.000601744,-1.08405,0.00729577,0.0214121,657,743,-23.1742,0.754529
-560,281,-23.2426,-1.43854,0.0018164,0.00594314,-0.00263514,0.00722663,0.000532916,-1.11755,0.00465031,0.00899248,664,743,-23.2426,1.43852
-553,281,-23.2198,-2.10779,0.00108822,0.00367771,-0.00134333,0.00424868,0.000517245,-1.16889,0.00267675,0.0144741,671,743,-23.2198,2.10778
-546,281,-23.2501,-2.7373,0.000528902,0.00175066,-0.000301022,0.0018208,0.000458762,-1.34187,0.00109351,0.0171063,678,743,-23.2501,2.73733
-539,281,-23.2894,-3.38593,6.30315e-05,0.000117093,0.000591461,0.000682141,-0.000502016,0.808233,0.000686305,0.0144245,685,743,-23.2894,3.38592
-532,281,-23.3008,-4.01147,-0.000496419,-0.00139055,0.0014295,0.00055429,-0.00244126,0.633845,0.00184031,0.0139723,692,743,-23.3008,4.01145
-525,281,-23.3562,-4.70026,-0.000768705,-0.00213123,0.00188396,0.000553382,-0.00345332,0.611907,0.00250711,0.016381,699,743,-23.3562,4.70028
-518,281,-23.3941,-5.4057,-0.000927997,-0.00234235,0.00213236,0.000611394,-0.00388175,0.625285,0.00281386,0.013138,706,743,-23.3941,5.40568
-511,281,-23.4254,-6.07727,-0.00118382,-0.00226545,0.0023572,0.000693812,-0.00414308,0.672635,0.00302001,0.0114277,713,743,-23.4253,6.07727
-504,281,-23.4726,-6.74597,-0.00131468,-0.00159278,0.00239013,0.000940443,-0.00384791,0.756342,0.00292951,0.0153034,720,743,-23.4726,6.74596
-497,281,-23.3875,-7.41357,-0.00117702,-0.00014636,0.00211348,0.00151371,-0.00283709,0.90498,0.00255037,0.0479346,727,743,-23.3875,7.4136
-490,281,-23.2217,-7.98859,0,0,0,0,0,0,0,-1,734,743,-23.2217,7.98861
-483,281,-22.1078,-2.34973,0,0,0,0,0,0,0,-1,741,743,-22.1078,2.3497
-476,281,-28.0016,2.17786,0,0,0,0,0,0,0,-1,748,743,-28.0016,-2.17786
-469,281,-34.6448,0.171692,0,0,0,0,0,0,0,-1,755,743,-34.6448,-0.171685
-462,281,-41.1978,1.31653,0,0,0,0,0,0,0,-1,762,743,-41.1978,-1.31656
-455,281,-42.8792,0.221863,0,0,0,0,0,0,0,-1,769,743,-42.8792,-0.221842
-448,281,-43.549,-0.256531,0,0,0,0,0,0,0,-1,776,743,-43.5489,0.256546
-441,281,-44.1879,-0.576233,0,0,0,0,0,0,0,-1,783,743,-44.1879,0.576237
-434,281,0,0,0,0,0,0,0,0,0,-1,790,743,0,0
-427,281,0,0,0,0,0,0,0,0,0,-1,797,743,0,0
-420,281,0,0,0,0,0,0,0,0,0,-1,804,743,0,0
-413,281,0,0,0,0,0,0,0,0,0,-1,811,743,0,0
-406,281,0,0,0,0,0,0,0,0,0,-1,818,743,0,0
-399,281,0,0,0,0,0,0,0,0,0,-1,825,743,0,0
-392,281,0,0,0,0,0,0,0,0,0,-1,832,743,0,0
-385,281,0,0,0,0,0,0,0,0,0,-1,839,743,0,0
-378,281,0,0,0,0,0,0,0,0,0,-1,846,743,0,0
-371,281,0,0,0,0,0,0,0,0,0,-1,853,743,0,0
-364,281,0,0,0,0,0,0,0,0,0,-1,860,743,0,0
-357,281,0,0,0,0,0,0,0,0,0,-1,867,743,0,0
-350,281,0,0,0,0,0,0,0,0,0,-1,874,743,0,0
-343,281,0,0,0,0,0,0,0,0,0,-1,881,743,0,0
-336,281,0,0,0,0,0,0,0,0,0,-1,888,743,0,0
-329,281,0,0,0,0,0,0,0,0,0,-1,895,743,0,0
-322,281,0,0,0,0,0,0,0,0,0,-1,902,743,0,0
-315,281,0,0,0,0,0,0,0,0,0,-1,909,743,0,0
-308,281,0,0,0,0,0,0,0,0,0,-1,916,743,0,0
-301,281,0,0,0,0,0,0,0,0,0,-1,923,743,0,0
-294,281,0,0,0,0,0,0,0,0,0,-1,930,743,0,0
-287,281,0,0,0,0,0,0,0,0,0,-1,937,743,0,0
-280,281,0,0,0,0,0,0,0,0,0,-1,944,743,0,0
-273,281,0,0,0,0,0,0,0,0,0,-1,951,743,0,0
-266,281,0,0,0,0,0,0,0,0,0,-1,958,743,0,0
-259,281,0,0,0,0,0,0,0,0,0,-1,965,743,0,0
-252,281,0,0,0,0,0,0,0,0,0,-1,972,743,0,0
-245,281,0,0,0,0,0,0,0,0,0,-1,979,743,0,0
-238,281,0,0,0,0,0,0,0,0,0,-1,986,743,0,0
-231,281,0,0,0,0,0,0,0,0,0,-1,993,743,0,0
-224,281,0,0,0,0,0,0,0,0,0,-1,1000,743,0,0
-217,281,0,0,0,0,0,0,0,0,0,-1,1007,743,0,0
-210,281,0,0,0,0,0,0,0,0,0,-1,1014,743,0,0
-203,281,0,0,0,0,0,0,0,0,0,-1,1021,743,0,0
-196,281,0,0,0,0,0,0,0,0,0,-1,1028,743,0,0
-189,281,0,0,0,0,0,0,0,0,0,-1,1035,743,0,0
-182,281,0,0,0,0,0,0,0,0,0,-1,1042,743,0,0
-175,281,0,0,0,0,0,0,0,0,0,-1,1049,743,0,0
-168,281,0,0,0,0,0,0,0,0,0,-1,1056,743,0,0
-161,281,0,0,0,0,0,0,0,0,0,-1,1063,743,0,0
-154,281,0,0,0,0,0,0,0,0,0,-1,1070,743,0,0
-147,281,0,0,0,0,0,0,0,0,0,-1,1077,743,0,0
-140,281,0,0,0,0,0,0,0,0,0,-1,1084,743,0,0
-133,281,0,0,0,0,0,0,0,0,0,-1,1091,743,0,0
-126,281,0,0,0,0,0,0,0,0,0,-1,1098,743,0,0
-119,281,0,0,0,0,0,0,0,0,0,-1,1105,743,0,0
-112,281,0,0,0,0,0,0,0,0,0,-1,1112,743,0,0
-105,281,0,0,0,0,0,0,0,0,0,-1,1119,743,0,0
-98,281,0,0,0,0,0,0,0,0,0,-1,1126,743,0,0
-91,281,0,0,0,0,0,0,0,0,0,-1,1133,743,0,0
-84,281,0,0,0,0,0,0,0,0,0,-1,1140,743,0,0
-77,281,0,0,0,0,0,0,0,0,0,-1,1147,743,0,0
-70,281,0,0,0,0,0,0,0,0,0,-1,1154,743,0,0
-63,281,0,0,0,0,0,0,0,0,0,-1,1161,743,0,0
-56,281,0,0,0,0,0,0,0,0,0,-1,1168,743,0,0
-49,281,0,0,0,0,0,0,0,0,0,-1,1175,743,0,0
-42,281,0,0,0,0,0,0,0,0,0,-1,1182,743,0,0
-35,281,0,0,0,0,0,0,0,0,0,-1,1189,743,0,0
-28,281,0,0,0,0,0,0,0,0,0,-1,1196,743,0,0
-21,281,0,0,0,0,0,0,0,0,0,-1,1203,743,0,0
-14,281,0,0,0,0,0,0,0,0,0,-1,1210,743,0,0
-7,281,0,0,0,0,0,0,0,0,0,-1,1217,743,0,0
0,281,0,0,0,0,0,0,0,0,0,-1,1224,743,0,0
7,281,0,0,0,0,0,0,0,0,0,-1,1231,743,0,0
14,281,0,0,0,0,0,0,0,0,0,-1,1238,743,0,0
21,281,0,0,0,0,0,0,0,0,0,-1,1245,743,0,0
28,281,0,0,0,0,0,0,0,0,0,-1,1252,743,0,0
35,281,0,0,0,0,0,0,0,0,0,-1,1259,743,0,0
42,281,0,0,0,0,0,0,0,0,0,-1,1266,743,0,0
49,281,0,0,0,0,0,0,0,0,0,-1,1273,743,0,0
56,281,0,0,0,0,0,0,0,0,0,-1,1280,743,0,0
63,281,0,0,0,0,0,0,0,0,0,-1,1287,743,0,0
70,281,0,0,0,0,0,0,0,0,0,-1,1294,743,0,0
77,281,0,0,0,0,0,0,0,0,0,-1,1301,743,0,0
84,281,0,0,0,0,0,0,0,0,0,-1,1308,743,0,0
91,281,0,0,0,0,0,0,0,0,0,-1,1315,743,0,0
98,281,0,0,0,0,0,0,0,0,0,-1,1322,743,0,0
105,281,0,0,0,0,0,0,0,0,0,-1,1329,743,0,0
112,281,0,0,0,0,0,0,0,0,0,-1,1336,743,0,0
119,281,0,0,0,0,0,0,0,0,0,-1,1343,743,0,0
126,281,0,0,0,0,0,0,0,0,0,-1,1350,743,0,0
133,281,0,0,0,0,0,0,0,0,0,-1,1357,743,0,0
140,281,0,0,0,0,0,0,0,0,0,-1,1364,743,0,0
147,281,0,0,0,0,0,0,0,0,0,-1,1371,743,0,0
154,281,0,0,0,0,0,0,0,0,0,-1,1378,743,0,0
161,281,0,0,0,0,0,0,0,0,0,-1,1385,743,0,0
168,281,0,0,0,0,0,0,0,0,0,-1,1392,743,0,0
175,281,0,0,0,0,0,0,0,0,0,-1,1399,743,0,0
182,281,0,0,0,0,0,0,0,0,0,-1,1406,743,0,0
189,281,0,0,0,0,0,0,0,0,0,-1,1413,743,0,0
196,281,0,0,0,0,0,0,0,0,0,-1,1420,743,0,0
203,281,0,0,0,0,0,0,0,0,0,-1,1427,743,0,0
210,281,0,0,0,0,0,0,0,0,0,-1,1434,743,0,0
217,281,0,0,0,0,0,0,0,0,0,-1,1441,743,0,0
224,281,0,0,0,0,0,0,0,0,0,-1,1448,743,0,0
231,281,0,0,0,0,0,0,0,0,0,-1,1455,743,0,0
238,281,0,0,0,0,0,0,0,0,0,-1,1462,743,0,0
245,281,0,0,0,0,0,0,0,0,0,-1,1469,743,0,0
252,281,0,0,0,0,0,0,0,0,0,-1,1476,743,0,0
259,281,0,0,0,0,0,0,0,0,0,-1,1483,743,0,0
266,281,0,0,0,0,0,0,0,0,0,-1,1490,743,0,0
273,281,0,0,0,0,0,0,0,0,0,-1,1497,743,0,0
280,281,0,0,0,0,0,0,0,0,0,-1,1504,743,0,0
287,281,0,0,0,0,0,0,0,0,0,-1,1511,743,0,0
294,281,0,0,0,0,0,0,0,0,0,-1,1518,743,0,0
301,281,0,0,0,0,0,0,0,0,0,-1,1525,743,0,0
308,281,0,0,0,0,0,0,0,0,0,-1,1532,743,0,0
315,281,0,0,0,0,0,0,0,0,0,-1,1539,743,0,0
322,281,0,0,0,0,0,0,0,0,0,-1,1546,743,0,0
329,281,0,0,0,0,0,0,0,0,0,-1,1553,743,0,0
336,281,0,0,0,0,0,0,0,0,0,-1,1560,743,0,0
343,281,0,0,0,0,0,0,0,0,0,-1,1567,743,0,0
350,281,0,0,0,0,0,0,0,0,0,-1,1574,743,0,0
357,281,0,0,0,0,0,0,0,0,0,-1,1581,743,0,0
364,281,0,0,0,0,0,0,0,0,0,-1,1588,743,0,0
371,281,0,0,0,0,0,0,0,0,0,-1,1595,743,0,0
378,281,0,0,0,0,0,0,0,0,0,-1,1602,743,0,0
385,281,0,0,0,0,0,0,0,0,0,-1,1609,743,0,0
392,281,0,0,0,0,0,0,0,0,0,-1,1616,743,0,0
399,281,0,0,0,0,0,0,0,0,0,-1,1623,743,0,0
406,281,0,0,0,0,0,0,0,0,0,-1,1630,743,0,0
413,281,0,0,0,0,0,0,0,0,0,-1,1637,743,0,0
420,281,0,0,0,0,0,0,0,0,0,-1,1644,743,0,0
427,281,0,0,0,0,0,0,0,0,0,-1,1651,743,0,0
434,281,0,0,0,0,0,0,0,0,0,-1,1658,743,0,0
441,281,0,0,0,0,0,0,0,0,0,-1,1665,743,0,0
448,281,0,0,0,0,0,0,0,0,0,-1,1672,743,0,0
455,281,0,0,0,0,0,0,0,0,0,-1,1679,743,0,0
462,281,0,0,0,0,0,0,0,0,0,-1,1686,743,0,0
469,281,0,0,0,0,0,0,0,0,0,-1,1693,743,0,0
476,281,0,0,0,0,0,0,0,0,0,-1,1700,743,0,0
483,281,0,0,0,0,0,0,0,0,0,-1,1707,743,0,0
490,281,0,0,0,0,0,0,0,0,0,-1,1714,743,0,0
497,281,0,0,0,0,0,0,0,0,0,-1,1721,743,0,0
504,281,0,0,0,0,0,0,0,0,0,-1,1728,743,0,0
511,281,0,0,0,0,0,0,0,0,0,-1,1735,743,0,0
518,281,0,0,0,0,0,0,0,0,0,-1,1742,743,0,0
525,281,0,0,0,0,0,0,0,0,0,-1,1749,743,0,0
532,281,0,0,0,0,0,0,0,0,0,-1,1756,743,0,0
539,281,0,0,0,0,0,0,0,0,0,-1,1763,743,0,0
546,281,0,0,0,0,0,0,0,0,0,-1,1770,743,0,0
553,281,0,0,0,0,0,0,0,0,0,-1,1777,743,0,0
560,281,55.5599,3.12976,0,0,0,0,0,0,0,-1,1784,743,55.5599,-3.12975
567,281,54.9517,3.71344,0,0,0,0,0,0,0,-1,1791,743,54.9517,-3.71346
574,281,54.3483,4.30853,0,0,0,0,0,0,0,-1,1798,743,54.3483,-4.30856
581,281,53.8701,4.98456,0,0,0,0,0,0,0,-1,1805,743,53.8702,-4.98455
588,281,53.5422,6.00092,0,0,0,0,0,0,0,-1,1812,743,53.5422,-6.00092
595,281,54.8569,3.32269,0,0,0,0,0,0,0,-1,1819,743,54.857,-3.32269
602,281,45.9985,3.98254,0,0,0,0,0,0,0,-1,1826,743,45.9985,-3.98254
609,281,32.7925,1.28723,0,0,0,0,0,0,0,-1,1833,743,32.7925,-1.28722
616,281,21.3191,-0.253906,0,0,0,0,0,0,0,-1,1840,743,21.3191,0.253931
623,281,31.8741,-4.74182,0,0,0,0,0,0,0,-1,1847,743,31.8741,4.74184
630,281,35.7427,-5.16473,0,0,0,0,0,0,0,-1,1854,743,35.7427,5.16472
637,281,35.7031,-4.50305,0.00277772,-0.000226802,0.00264689,0.00431895,-0.00176803,0.527287,0.00361573,0.0181094,1861,743,35.7031,4.50306
644,281,35.7052,-3.79553,0.00155147,-0.000377974,0.0018932,0.00271157,-0.00153808,0.54976,0.00248452,0.0110148,1868,743,35.7052,3.7955
651,281,35.7023,-3.10455,0.000928431,-0.000304824,0.00111399,0.00158507,-0.000961459,0.532623,0.00148486,0.0116611,1875,743,35.7023,3.10458
658,281,35.6748,-2.38733,0.000857116,-2.05948e-05,0.000675328,0.00122366,-0.000387135,0.497267,0.000970894,0.0193088,1882,743,35.6749,2.38733
665,281,35.6281,-1.70502,0.0010606,0.000652989,0.000907933,0.00178732,-7.37309e-05,0.674992,0.00121687,0.0197146,1889,743,35.6281,1.70501
672,281,35.5796,-1.03662,0.00140687,0.00146586,0.0012461,0.00268282,0.000189921,0.797231,0.00172872,0.0137984,1896,743,35.5795,1.03665
679,281,35.5614,-0.361633,0.00195557,0.00237285,0.00176235,0.00393886,0.000389558,0.844317,0.00250617,0.0225147,1903,743,35.5614,0.361652
686,281,35.4836,0.311035,0.00267358,0.00347187,0.00237691,0.00548292,0.00066253,0.868585,0.00345567,0.0176543,1910,743,35.4836,-0.311039
693,281,35.4738,1.00452,0.00366213,0.00472089,0.0031914,0.00742652,0.000956501,0.867588,0.00466498,0.0131038,1917,743,35.4738,-1.0045
700,281,35.4395,1.73944,0.00500814,0.00639252,0.00434638,0.0101015,0.00129918,0.864363,0.00634575,0.0366651,1924,743,35.4395,-1.73941
707,281,35.5138,2.4563,0,0,0,0,0,0,0,-1,1931,743,35.5138,-2.45629
714,281,25.0125,2.5105,0,0,0,0,0,0,0,-1,1938,743,25.0124,-2.51053
721,281,16.9656,3.22174,0,0,0,0,0,0,0,-1,1945,743,16.9656,-3.22172
728,281,19.0251,3.63934,0,0,0,0,0,0,0,-1,1952,743,19.0252,-3.63932
735,281,19.0869,2.50311,0,0,0,0,0,0,0,-1,1959,743,19.0869,-2.5031
742,281,0,0,0,0,0,0,0,0,0,-1,1966,743,0,0
749,281,0,0,0,0,0,0,0,0,0,-1,1973,743,0,0
756,281,0,0,0,0,0,0,0,0,0,-1,1980,743,0,0
763,281,0,0,0,0,0,0,0,0,0,-1,1987,743,0,0
770,281,0,0,0,0,0,0,0,0,0,-1,1994,743,0,0
777,281,0,0,0,0,0,0,0,0,0,-1,2001,743,0,0
784,281,0,0,0,0,0,0,0,0,0,-1,2008,743,0,0
791,281,0,0,0,0,0,0,0,0,0,-1,2015,743,0,0
798,281,0,0,0,0,0,0,0,0,0,-1,2022,743,0,0
805,281,0,0,0,0,0,0,0,0,0,-1,2029,743,0,0
812,281,0,0,0,0,0,0,0,0,0,-1,2036,743,0,0
-700,274,0,0,0,0,0,0,0,0,0,-1,524,750,0,0
-693,274,0,0,0,0,0,0,0,0,0,-1,531,750,0,0
-686,274,0,0,0,0,0,0,0,0,0,-1,538,750,0,0
-679,274,0,0,0,0,0,0,0,0,0,-1,545,750,0,0
-672,274,0,0,0,0,0,0,0,0,0,-1,552,750,0,0
-665,274,0,0,0,0,0,0,0,0,0,-1,559,750,0,0
-658,274,0,0,0,0,0,0,0,0,0,-1,566,750,0,0
-651,274,0,0,0,0,0,0,0,0,0,-1,573,750,0,0
-644,274,0,0,0,0,0,0,0,0,0,-1,580,750,0,0
-637,274,0,0,0,0,0,0,0,0,0,-1,587,750,0,0
-630,274,0,0,0,0,0,0,0,0,0,-1,594,750,0,0
-623,274,-19.6909,5.12701,0,0,0,0,0,0,0,-1,601,750,-19.6908,-5.12703
-616,274,-17.9133,3.9024,0,0,0,0,0,0,0,-1,608,750,-17.9133,-3.90239
-609,274,-22.8754,6.07513,0,0,0,0,0,0,0,-1,615,750,-22.8754,-6.07514
-602,274,-22.5925,4.8269,0,0,0,0,0,0,0,-1,622,750,-22.5925,-4.82689
-595,274,-22.2496,3.62689,0,0,0,0,0,0,0,-1,629,750,-22.2497,-3.62688
-588,274,-23.6285,2.57928,0,0,0,0,0,0,0,-1,636,750,-23.6285,-2.57928
-581,274,-23.8481,0.492737,0,0,0,0,0,0,0,-1,643,750,-23.8481,-0.492739
-574,274,-23.6985,-0.169434,0.00451473,0.0116954,-0.00674481,0.0157459,0.000464194,-1.02998,0.010346,0.0277634,650,750,-23.6986,0.169428
-567,274,-23.8549,-0.79895,0.0028393,0.0081377,-0.00432483,0.0105602,0.000416778,-1.0602,0.00690542,0.026726,657,750,-23.8549,0.798958
-560,274,-23.8705,-1.4024,0.00157865,0.00531091,-0.00248552,0.00655287,0.00033669,-1.10741,0.00426079,0.014349,664,750,-23.8705,1.40238
-553,274,-23.9049,-2.0675,0.000668238,0.00303491,-0.00107391,0.00344956,0.000253587,-1.20232,0.00222001,0.00953622,671,750,-23.9049,2.06748
-546,274,-23.9385,-2.74292,-3.77744e-05,0.00114131,7.15342e-05,0.00114563,-4.20984e-05,1.51042,0.000778167,0.0109585,678,750,-23.9385,2.74289
-539,274,-23.9644,-3.39856,-0.000673294,-0.00048471,0.00105179,0.000477004,-0.00163501,0.830103,0.00127901,0.0112706,685,750,-23.9644,3.39854
-532,274,-23.9845,-4.01324,-0.00131242,-0.00181318,0.0018622,0.00031615,-0.00344176,0.718572,0.00240682,0.0127087,692,750,-23.9845,4.01324
-525,274,-24.0215,-4.64648,-0.00161919,-0.00224727,0.00221353,0.000302463,-0.00416893,0.714933,0.00288539,0.0136326,699,750,-24.0215,4.64648
-518,274,-24.0494,-5.35614,-0.00176549,-0.00202523,0.00230003,0.000408335,-0.00419905,0.757196,0.00294493,0.0135314,706,750,-24.0494,5.35614
-511,274,-24.0676,-6.06036,-0.00195325,-0.00148636,0.00230418,0.000596172,-0.00403578,0.835883,0.00290967,0.0147633,713,750,-24.0676,6.06036
-504,274,-24.1641,-6.75116,-0.00196373,-0.000292267,0.00206318,0.00109801,-0.00335402,0.977833,0.00267813,0.0281014,720,750,-24.1641,6.75113
-497,274,-24.3247,-7.47095,0,0,0,0,0,0,0,-1,727,750,-24.3247,7.47093
-490,274,-13.6545,-3.58826,0,0,0,0,0,0,0,-1,734,750,-13.6546,3.58825
-483,274,-27.8608,1.30981,0,0,0,0,0,0,0,-1,741,750,-27.8608,-1.30979
-476,274,-33.7561,-0.508606,0,0,0,0,0,0,0,-1,748,750,-33.7561,0.508636
-469,274,-41.1387,0.907715,0,0,0,0,0,0,0,-1,755,750,-41.1387,-0.907744
-462,274,-41.2065,1.21558,0,0,0,0,0,0,0,-1,762,750,-41.2066,-1.2156
-455,274,-41.2744,1.52344,0,0,0,0,0,0,0,-1,769,750,-41.2744,-1.52346
-448,274,-42.0142,0.518311,0,0,0,0,0,0,0,-1,776,750,-42.0142,-0.518291
-441,274,0,0,0,0,0,0,0,0,0,-1,783,750,0,0
-434,274,0,0,0,0,0,0,0,0,0,-1,790,750,0,0
-427,274,0,0,0,0,0,0,0,0,0,-1,797,750,0,0
-420,274,0,0,0,0,0,0,0,0,0,-1,804,750,0,0
-413,274,0,0,0,0,0,0,0,0,0,-1,811,750,0,0
-406,274,0,0,0,0,0,0,0,0,0,-1,818,750,0,0
-399,274,0,0,0,0,0,0,0,0,0,-1,825,750,0,0
-392,274,0,0,0,0,0,0,0,0,0,-1,832,750,0,0
-385,274,0,0,0,0,0,0,0,0,0,-1,839,750,0,0
-378,274,0,0,0,0,0,0,0,0,0,-1,846,750,0,0
-371,274,0,0,0,0,0,0,0,0,0,-1,853,750,0,0
-364,274,0,0,0,0,0,0,0,0,0,-1,860,750,0,0
-357,274,0,0,0,0,0,0,0,0,0,-1,867,750,0,0
-350,274,0,0,0,0,0,0,0,0,0,-1,874,750,0,0
-343,274,0,0,0,0,0,0,0,0,0,-1,881,750,0,0
-336,274,0,0,0,0,0,0,0,0,0,-1,888,750,0,0
-329,274,0,0,0,0,0,0,0,0,0,-1,895,750,0,0
-322,274,0,0,0,0,0,0,0,0,0,-1,902,750,0,0
-315,274,0,0,0,0,0,0,0,0,0,-1,909,750,0,0
-308,274,0,0,0,0,0,0,0,0,0,-1,916,750,0,0
-301,274,0,0,0,0,0,0,0,0,0,-1,923,750,0,0
-294,274,0,0,0,0,0,0,0,0,0,-1,930,750,0,0
-287,274,0,0,0,0,0,0,0,0,0,-1,937,750,0,0
-280,274,0,0,0,0,0,0,0,0,0,-1,944,750,0,0
-273,274,0,0,0,0,0,0,0,0,0,-1,951,750,0,0
-266,274,0,0,0,0,0,0,0,0,0,-1,958,750,0,0
-259,274,0,0,0,0,0,0,0,0,0,-1,965,750,0,0
-252,274,0,0,0,0,0,0,0,0,0,-1,972,750,0,0
-245,274,0,0,0,0,0,0,0,0,0,-1,979,750,0,0
-238,274,0,0,0,0,0,0,0,0,0,-1,986,750,0,0
-231,274,0,0,0,0,0,0,0,0,0,-1,993,750,0,0
-224,274,0,0,0,0,0,0,0,0,0,-1,1000,750,0,0
-217,274,0,0,0,0,0,0,0,0,0,-1,1007,750,0,0
-210,274,0,0,0,0,0,0,0,0,0,-1,1014,750,0,0
-203,274,0,0,0,0,0,0,0,0,0,-1,1021,750,0,0
-196,274,0,0,0,0,0,0,0,0,0,-1,1028,750,0,0
-189,274,0,0,0,0,0,0,0,0,0,-1,1035,750,0,0
-182,274,0,0,0,0,0,0,0,0,0,-1,1042,750,0,0
-175,274,0,0,0,0,0,0,0,0,0,-1,1049,750,0,0
-168,274,0,0,0,0,0,0,0,0,0,-1,1056,750,0,0
-161,274,0,0,0,0,0,0,0,0,0,-1,1063,750,0,0
-154,274,0,0,0,0,0,0,0,0,0,-1,1070,750,0,0
-147,274,0,0,0,0,0,0,0,0,0,-1,1077,750,0,0
-140,274,0,0,0,0,0,0,0,0,0,-1,1084,750,0,0
-133,274,0,0,0,0,0,0,0,0,0,-1,1091,750,0,0
-126,274,0,0,0,0,0,0,0,0,0,-1,1098,750,0,0
-119,274,0,0,0,0,0,0,0,0,0,-1,1105,750,0,0
-112,274,0,0,0,0,0,0,0,0,0,-1,1112,750,0,0
-105,274,0,0,0,0,0,0,0,0,0,-1,1119,750,0,0
-98,274,0,0,0,0,0,0,0,0,0,-1,1126,750,0,0
-91,274,0,0,0,0,0,0,0,0,0,-1,1133,750,0,0
-84,274,0,0,0,0,0,0,0,0,0,-1,1140,750,0,0
-77,274,0,0,0,0,0,0,0,0,0,-1,1147,750,0,0
-70,274,0,0,0,0,0,0,0,0,0,-1,1154,750,0,0
-63,274,0,0,0,0,0,0,0,0,0,-1,1161,750,0,0
-56,274,0,0,0,0,0,0,0,0,0,-1,1168,750,0,0
-49,274,0,0,0,0,0,0,0,0,0,-1,1175,750,0,0
-42,274,0,0,0,0,0,0,0,0,0,-1,1182,750,0,0
-35,274,0,0,0,0,0,0,0,0,0,-1,1189,750,0,0
-28,274,0,0,0,0,0,0,0,0,0,-1,1196,750,0,0
-21,274,0,0,0,0,0,0,0,0,0,-1,1203,750,0,0
-14,274,0,0,0,0,0,0,0,0,0,-1,1210,750,0,0
-7,274,0,0,0,0,0,0,0,0,0,-1,1217,750,0,0
0,274,0,0,0,0,0,0,0,0,0,-1,1224,750,0,0
7,274,0,0,0,0,0,0,0,0,0,-1,1231,750,0,0
14,274,0,0,0,0,0,0,0,0,0,-1,1238,750,0,0
21,274,0,0,0,0,0,0,0,0,0,-1,1245,750,0,0
28,274,0,0,0,0,0,0,0,0,0,-1,1252,750,0,0
35,274,0,0,0,0,0,0,0,0,0,-1,1259,750,0,0
42,274,0,0,0,0,0,0,0,0,0,-1,1266,750,0,0
49,274,0,0,0,0,0,0,0,0,0,-1,1273,750,0,0
56,274,0,0,0,0,0,0,0,0,0,-1,1280,750,0,0
63,274,0,0,0,0,0,0,0,0,0,-1,1287,750,0,0
70,274,0,0,0,0,0,0,0,0,0,-1,1294,750,0,0
77,274,0,0,0,0,0,0,0,0,0,-1,1301,750,0,0
84,274,0,0,0,0,0,0,0,0,0,-1,1308,750,0,0
91,274,0,0,0,0,0,0,0,0,0,-1,1315,750,0,0
98,274,0,0,0,0,0,0,0,0,0,-1,1322,750,0,0
105,274,0,0,0,0,0,0,0,0,0,-1,1329,750,0,0
112,274,0,0,0,0,0,0,0,0,0,-1,1336,750,0,0
119,274,0,0,0,0,0,0,0,0,0,-1,1343,750,0,0
126,274,0,0,0,0,0,0,0,0,0,-1,1350,750,0,0
133,274,0,0,0,0,0,0,0,0,0,-1,1357,750,0,0
140,274,0,0,0,0,0,0,0,0,0,-1,1364,750,0,0
147,274,0,0,0,0,0,0,0,0,0,-1,1371,750,0,0
154,274,0,0,0,0,0,0,0,0,0,-1,1378,750,0,0
161,274,0,0,0,0,0,0,0,0,0,-1,1385,750,0,0
168,274,0,0,0,0,0,0,0,0,0,-1,1392,750,0,0
175,274,0,0,0,0,0,0,0,0,0,-1,1399,750,0,0
182,274,0,0,0,0,0,0,0,0,0,-1,1406,750,0,0
189,274,0,0,0,0,0,0,0,0,0,-1,1413,750,0,0
196,274,0,0,0,0,0,0,0,0,0,-1,1420,750,0,0
203,274,0,0,0,0,0,0,0,0,0,-1,1427,750,0,0
210,274,0,0,0,0,0,0,0,0,0,-1,1434,750,0,0
217,274,0,0,0,0,0,0,0,0,0,-1,1441,750,0,0
224,274,0,0,0,0,0,0,0,0,0,-1,1448,750,0,0
231,274,0,0,0,0,0,0,0,0,0,-1,1455,750,0,0
238,274,0,0,0,0,0,0,0,0,0,-1,1462,750,0,0
245,274,0,0,0,0,0,0,0,0,0,-1,1469,750,0,0
252,274,0,0,0,0,0,0,0,0,0,-1,1476,750,0,0
259,274,0,0,0,0,0,0,0,0,0,-1,1483,750,0,0
266,274,0,0,0,0,0,0,0,0,0,-1,1490,750,0,0
273,274,0,0,0,0,0,0,0,0,0,-1,1497,750,0,0
280,274,0,0,0,0,0,0,0,0,0,-1,1504,750,0,0
287,274,0,0,0,0,0,0,0,0,0,-1,1511,750,0,0
294,274,0,0,0,0,0,0,0,0,0,-1,1518,750,0,0
301,274,0,0,0,0,0,0,0,0,0,-1,1525,750,0,0
308,274,0,0,0,0,0,0,0,0,0,-1,1532,750,0,0
315,274,0,0,0,0,0,0,0,0,0,-1,1539,750,0,0
322,274,0,0,0,0,0,0,0,0,0,-1,1546,750,0,0
329,274,0,0,0,0,0,0,0,0,0,-1,1553,750,0,0
336,274,0,0,0,0,0,0,0,0,0,-1,1560,750,0,0
343,274,0,0,0,0,0,0,0,0,0,-1,1567,750,0,0
350,274,0,0,0,0,0,0,0,0,0,-1,1574,750,0,0
357,274,0,0,0,0,0,0,0,0,0,-1,1581,750,0,0
364,274,0,0,0,0,0,0,0,0,0,-1,1588,750,0,0
371,274,0,0,0,0,0,0,0,0,0,-1,1595,750,0,0
378,274,0,0,0,0,0,0,0,0,0,-1,1602,750,0,0
385,274,0,0,0,0,0,0,0,0,0,-1,1609,750,0,0
392,274,0,0,0,0,0,0,0,0,0,-1,1616,750,0,0
399,274,0,0,0,0,0,0,0,0,0,-1,1623,750,0,0
406,274,0,0,0,0,0,0,0,0,0,-1,1630,750,0,0
413,274,0,0,0,0,0,0,0,0,0,-1,1637,750,0,0
420,274,0,0,0,0,0,0,0,0,0,-1,1644,750,0,0
427,274,0,0,0,0,0,0,0,0,0,-1,1651,750,0,0
434,274,0,0,0,0,0,0,0,0,0,-1,1658,750,0,0
441,274,0,0,0,0,0,0,0,0,0,-1,1665,750,0,0
448,274,0,0,0,0,0,0,0,0,0,-1,1672,750,0,0
455,274,0,0,0,0,0,0,0,0,0,-1,1679,750,0,0
462,274,0,0,0,0,0,0,0,0,0,-1,1686,750,0,0
469,274,0,0,0,0,0,0,0,0,0,-1,1693,750,0,0
476,274,0,0,0,0,0,0,0,0,0,-1,1700,750,0,0
483,274,0,0,0,0,0,0,0,0,0,-1,1707,750,0,0
490,274,0,0,0,0,0,0,0,0,0,-1,1714,750,0,0
497,274,0,0,0,0,0,0,0,0,0,-1,1721,750,0,0
504,274,0,0,0,0,0,0,0,0,0,-1,1728,750,0,0
511,274,0,0,0,0,0,0,0,0,0,-1,1735,750,0,0
518,274,0,0,0,0,0,0,0,0,0,-1,1742,750,0,0
525,274,0,0,0,0,0,0,0,0,0,-1,1749,750,0,0
532,274,0,0,0,0,0,0,0,0,0,-1,1756,750,0,0
539,274,0,0,0,0,0,0,0,0,0,-1,1763,750,0,0
546,274,0,0,0,0,0,0,0,0,0,-1,1770,750,0,0
553,274,0,0,0,0,0,0,0,0,0,-1,1777,750,0,0
560,274,55.7545,3.29156,0,0,0,0,0,0,0,-1,1784,750,55.7545,-3.29157
567,274,55.3269,3.63623,0,0,0,0,0,0,0,-1,1791,750,55.3269,-3.63623
574,274,56.4736,2.92535,0,0,0,0,0,0,0,-1,1798,750,56.4737,-2.92533
581,274,54.4941,4.68127,0,0,0,0,0,0,0,-1,1805,750,54.4941,-4.68125
588,274,53.9908,5.6676,0,0,0,0,0,0,0,-1,1812,750,53.9908,-5.66763
595,274,58.0696,2.71381,0,0,0,0,0,0,0,-1,1819,750,58.0696,-2.71383
602,274,55.6321,2.56519,0,0,0,0,0,0,0,-1,1826,750,55.6321,-2.56521
609,274,44.6676,3.10461,0,0,0,0,0,0,0,-1,1833,750,44.6676,-3.1046
616,274,32.7869,1.78436,0,0,0,0,0,0,0,-1,1840,750,32.7868,-1.78437
623,274,24.8231,-1.80353,0,0,0,0,0,0,0,-1,1847,750,24.8232,1.80351
630,274,36.5437,-5.31183,0,0,0,0,0,0,0,-1,1854,750,36.5438,5.31184
637,274,36.355,-4.5307,0.00291079,1.09e-05,0.00279993,0.00461393,-0.00169224,0.546486,0.00376887,0.0225709,1861,750,36.3549,4.53071
644,274,36.3562,-3.76959,0.00161262,-0.000207967,0.00212035,0.00300982,-0.00160517,0.58264,0.00270529,0.012882,1868,750,36.3562,3.7696
651,274,36.366,-3.07635,0.000879628,-0.000292015,0.00119374,0.00162354,-0.00103593,0.55729,0.00154789,0.0129424,1875,750,36.3659,3.07633
658,274,36.3621,-2.35815,0.000777944,-0.000247504,0.000487927,0.000973004,-0.000442565,0.380311,0.000836187,0.0160283,1882,750,36.3621,2.35815
665,274,36.3213,-1.66278,0.000978756,0.000287523,0.000635325,0.00135639,-9.01095e-05,0.536286,0.000935743,0.0165377,1889,750,36.3213,1.66276
672,274,36.2882,-1.01978,0.00133908,0.00102485,0.000928026,0.00212319,0.00024073,0.701542,0.00134243,0.0140995,1896,750,36.2882,1.01975
679,274,36.243,-0.327454,0.00189216,0.0018746,0.00143081,0.00331422,0.000452542,0.782329,0.00207515,0.0159317,1903,750,36.2431,0.327453
686,274,36.193,0.36145,0.00259276,0.00292311,0.00203665,0.00480127,0.000714598,0.825861,0.00299124,0.0178953,1910,750,36.193,-0.361421
693,274,36.1492,1.03754,0.00352221,0.00409246,0.00285555,0.00667708,0.000937595,0.835158,0.00417411,0.0139019,1917,750,36.1492,-1.03752
700,274,36.152,1.77106,0.00474798,0.00556607,0.00399671,0.00917461,0.00113944,0.836393,0.00577419,0.0182439,1924,750,36.1519,-1.77103
707,274,36.0656,2.52039,0.00641437,0.00714627,0.00572127,0.0125133,0.00104736,0.817336,0.00801591,0.0343373,1931,750,36.0655,-2.52037
714,274,35.9474,3.3114,0,0,0,0,0,0,0,-1,1938,750,35.9474,-3.3114
721,274,25.6215,3.91144,0,0,0,0,0,0,0,-1,1945,750,25.6214,-3.91141
728,274,19.2209,3.95154,0,0,0,0,0,0,0,-1,1952,750,19.221,-3.95151
735,274,20.6608,4.10931,0,0,0,0,0,0,0,-1,1959,750,20.6607,-4.10932
742,274,11.7815,-0.740234,0,0,0,0,0,0,0,-1,1966,750,11.7815,0.740253
749,274,0,0,0,0,0,0,0,0,0,-1,1973,750,0,0
756,274,0,0,0,0,0,0,0,0,0,-1,1980,750,0,0
763,274,0,0,0,0,0,0,0,0,0,-1,1987,750,0,0
770,274,0,0,0,0,0,0,0,0,0,-1,1994,750,0,0
777,274,0,0,0,0,0,0,0,0,0,-1,2001,750,0,0
784,274,0,0,0,0,0,0,0,0,0,-1,2008,750,0,0
791,274,0,0,0,0,0,0,0,0,0,-1,2015,750,0,0
798,274,0,0,0,0,0,0,0,0,0,-1,2022,750,0,0
805,274,0,0,0,0,0,0,0,0,0,-1,2029,750,0,0
812,274,0,0,0,0,0,0,0,0,0,-1,2036,750,0,0
-700,267,0,0,0,0,0,0,0,0,0,-1,524,757,0,0
-693,267,0,0,0,0,0,0,0,0,0,-1,531,757,0,0
-686,267,0,0,0,0,0,0,0,0,0,-1,538,757,0,0
-679,267,0,0,0,0,0,0,0,0,0,-1,545,757,0,0
-672,267,0,0,0,0,0,0,0,0,0,-1,552,757,0,0
-665,267,0,0,0,0,0,0,0,0,0,-1,559,757,0,0
-658,267,0,0,0,0,0,0,0,0,0,-1,566,757,0,0
-651,267,0,0,0,0,0,0,0,0,0,-1,573,757,0,0
-644,267,0,0,0,0,0,0,0,0,0,-1,580,757,0,0
-637,267,0,0,0,0,0,0,0,0,0,-1,587,757,0,0
-630,267,-21.3979,5.17529,0,0,0,0,0,0,0,-1,594,757,-21.3979,-5.17529
-623,267,-20.043,4.43115,0,0,0,0,0,0,0,-1,601,757,-20.043,-4.43116
-616,267,-23.9603,6.67145,0,0,0,0,0,0,0,-1,608,757,-23.9603,-6.67147
-609,267,-23.6296,5.39941,0,0,0,0,0,0,0,-1,615,757,-23.6297,-5.39942
-602,267,-23.3533,4.11847,0,0,0,0,0,0,0,-1,622,757,-23.3533,-4.11848
-595,267,-24.9902,3.38367,0,0,0,0,0,0,0,-1,629,757,-24.9902,-3.38367
-588,267,-24.5838,2.14014,0.00980314,0.0203402,-0.0140882,0.0301128,3.05306e-05,-0.96433,0.020065,0.0495941,636,757,-24.5838,-2.14015
-581,267,-24.3618,0.794128,0.00655076,0.0146009,-0.00974887,0.0211229,2.86987e-05,-0.981175,0.0140724,0.0387259,643,757,-24.3617,-0.794134
-574,267,-24.3838,-0.0598755,0.00421543,0.0104867,-0.00656481,0.0146263,7.58404e-05,-1.0082,0.00972569,0.0229441,650,757,-24.3838,0.0599014
-567,267,-24.4855,-0.731873,0.00254766,0.00725783,-0.00417557,0.00969668,0.000108807,-1.04217,0.00642849,0.0275148,657,757,-24.4856,0.73187
-560,267,-24.5184,-1.32587,0.00123524,0.00462629,-0.00230152,0.0057894,7.21344e-05,-1.10286,0.00383578,0.0228473,664,757,-24.5184,1.32584
-553,267,-24.5638,-1.98694,0.000211411,0.00239802,-0.000798828,0.00265876,-4.93305e-05,-1.25529,0.00178918,0.0179011,671,757,-24.5639,1.98696
-546,267,-24.5912,-2.68793,-0.00060068,0.000595092,0.000439602,0.000739309,-0.000744897,1.2538,0.000856909,0.0109525,678,757,-24.5912,2.68791
-539,267,-24.6024,-3.37628,-0.00135453,-0.000914742,0.00147437,0.000356041,-0.00262531,0.859425,0.00188016,0.0109237,685,757,-24.6024,3.37628
-532,267,-24.614,-4.02588,-0.00200157,-0.00195085,0.0021935,0.000217439,-0.00416985,0.791178,0.00285514,0.0126941,692,757,-24.614,4.0259
-525,267,-24.6797,-4.63824,-0.00226131,-0.00203033,0.00239442,0.000251382,-0.00454302,0.809496,0.00311585,0.0122479,699,757,-24.6797,4.63822
-518,267,-24.721,-5.30426,-0.00233316,-0.00143939,0.00232046,0.000476822,-0.00424937,0.880526,0.00300449,0.0128741,706,757,-24.721,5.30428
-511,267,-24.7156,-5.96814,-0.00237844,-0.000556986,0.0021129,0.000833105,-0.00376853,0.988882,0.00283121,0.0220302,713,757,-24.7156,5.96815
-504,267,-24.8283,-6.34686,-0.00221581,0.000943456,0.00164534,0.0016447,-0.00291705,1.16791,0.00266766,0.0381878,720,757,-24.8283,6.34686
-497,267,-24.9935,-6.70935,0,0,0,0,0,0,0,-1,727,757,-24.9935,6.70936
-490,267,-23.4949,-0.494995,0,0,0,0,0,0,0,-1,734,757,-23.4949,0.494981
-483,267,-33.2785,-0.448425,0,0,0,0,0,0,0,-1,741,757,-33.2785,0.448407
-476,267,-40.2954,0.52002,0,0,0,0,0,0,0,-1,748,757,-40.2954,-0.520037
-469,267,-41.5975,2.43402,0,0,0,0,0,0,0,-1,755,757,-41.5975,-2.43399
-462,267,-42.0607,1.73578,0,0,0,0,0,0,0,-1,762,757,-42.0607,-1.7358
-455,267,-42.543,0.203125,0,0,0,0,0,0,0,-1,769,757,-42.543,-0.203119
-448,267,-40.9064,1.47162,0,0,0,0,0,0,0,-1,776,757,-40.9065,-1.47164
-441,267,0,0,0,0,0,0,0,0,0,-1,783,757,0,0
-434,267,0,0,0,0,0,0,0,0,0,-1,790,757,0,0
-427,267,0,0,0,0,0,0,0,0,0,-1,797,757,0,0
-420,267,0,0,0,0,0,0,0,0,0,-1,804,757,0,0
-413,267,0,0,0,0,0,0,0,0,0,-1,811,757,0,0
-406,267,0,0,0,0,0,0,0,0,0,-1,818,757,0,0
-399,267,0,0,0,0,0,0,0,0,0,-1,825,757,0,0
-392,267,0,0,0,0,0,0,0,0,0,-1,832,757,0,0
-385,267,0,0,0,0,0,0,0,0,0,-1,839,757,0,0
-378,267,0,0,0,0,0,0,0,0,0,-1,846,757,0,0
-371,267,0,0,0,0,0,0,0,0,0,-1,853,757,0,0
-364,267,0,0,0,0,0,0,0,0,0,-1,860,757,0,0
-357,267,0,0,0,0,0,0,0,0,0,-1,867,757,0,0
-350,267,0,0,0,0,0,0,0,0,0,-1,874,757,0,0
-343,267,0,0,0,0,0,0,0,0,0,-1,881,757,0,0
-336,267,0,0,0,0,0,0,0,0,0,-1,888,757,0,0
-329,267,0,0,0,0,0,0,0,0,0,-1,895,757,0,0
-322,267,0,0,0,0,0,0,0,0,0,-1,902,757,0,0
-315,267,0,0,0,0,0,0,0,0,0,-1,909,757,0,0
-308,267,0,0,0,0,0,0,0,0,0,-1,916,757,0,0
-301,267,0,0,0,0,0,0,0,0,0,-1,923,757,0,0
-294,267,0,0,0,0,0,0,0,0,0,-1,930,757,0,0
-287,267,0,0,0,0,0,0,0,0,0,-1,937,757,0,0
-280,267,0,0,0,0,0,0,0,0,0,-1,944,757,0,0
-273,267,0,0,0,0,0,0,0,0,0,-1,951,757,0,0
-266,267,0,0,0,0,0,0,0,0,0,-1,958,757,0,0
-259,267,0,0,0,0,0,0,0,0,0,-1,965,757,0,0
-252,267,0,0,0,0,0,0,0,0,0,-1,972,757,0,0
-245,267,0,0,0,0,0,0,0,0,0,-1,979,757,0,0
-238,267,0,0,0,0,0,0,0,0,0,-1,986,757,0,0
-231,267,0,0,0,0,0,0,0,0,0,-1,993,757,0,0
-224,267,0,0,0,0,0,0,0,0,0,-1,1000,757,0,0
-217,267,0,0,0,0,0,0,0,0,0,-1,1007,757,0,0
-210,267,0,0,0,0,0,0,0,0,0,-1,1014,757,0,0
-203,267,0,0,0,0,0,0,0,0,0,-1,1021,757,0,0
-196,267,0,0,0,0,0,0,0,0,0,-1,1028,757,0,0
-189,267,0,0,0,0,0,0,0,0,0,-1,1035,757,0,0
-182,267,0,0,0,0,0,0,0,0,0,-1,1042,757,0,0
-175,267,0,0,0,0,0,0,0,0,0,-1,1049,757,0,0
-168,267,0,0,0,0,0,0,0,0,0,-1,1056,757,0,0
-161,267,0,0,0,0,0,0,0,0,0,-1,1063,757,0,0
-154,267,0,0,0,0,0,0,0,0,0,-1,1070,757,0,0
-147,267,0,0,0,0,0,0,0,0,0,-1,1077,757,0,0
-140,267,0,0,0,0,0,0,0,0,0,-1,1084,757,0,0
-133,267,0,0,0,0,0,0,0,0,0,-1,1091,757,0,0
-126,267,0,0,0,0,0,0,0,0,0,-1,1098,757,0,0
-119,267,0,0,0,0,0,0,0,0,0,-1,1105,757,0,0
-112,267,0,0,0,0,0,0,0,0,0,-1,1112,757,0,0
-105,267,0,0,0,0,0,0,0,0,0,-1,1119,757,0,0
-98,267,0,0,0,0,0,0,0,0,0,-1,1126,757,0,0
-91,267,0,0,0,0,0,0,0,0,0,-1,1133,757,0,0
-84,267,0,0,0,0,0,0,0,0,0,-1,1140,757,0,0
-77,267,0,0,0,0,0,0,0,0,0,-1,1147,757,0,0
-70,267,0,0,0,0,0,0,0,0,0,-1,1154,757,0,0
-63,267,0,0,0,0,0,0,0,0,0,-1,1161,757,0,0
-56,267,0,0,0,0,0,0,0,0,0,-1,1168,757,0,0
-49,267,0,0,0,0,0,0,0,0,0,-1,1175,757,0,0
-42,267,0,0,0,0,0,0,0,0,0,-1,1182,757,0,0
-35,267,0,0,0,0,0,0,0,0,0,-1,1189,757,0,0
-28,267,0,0,0,0,0,0,0,0,0,-1,1196,757,0,0
-21,267,0,0,0,0,0,0,0,0,0,-1,1203,757,0,0
-14,267,0,0,0,0,0,0,0,0,0,-1,1210,757,0,0
-7,267,0,0,0,0,0,0,0,0,0,-1,1217,757,0,0
0,267,0,0,0,0,0,0,0,0,0,-1,1224,757,0,0
7,267,0,0,0,0,0,0,0,0,0,-1,1231,757,0,0
14,267,0,0,0,0,0,0,0,0,0,-1,1238,757,0,0
21,267,0,0,0,0,0,0,0,0,0,-1,1245,757,0,0
28,267,0,0,0,0,0,0,0,0,0,-1,1252,757,0,0
35,267,0,0,0,0,0,0,0,0,0,-1,1259,757,0,0
42,267,0,0,0,0,0,0,0,0,0,-1,1266,757,0,0
49,267,0,0,0,0,0,0,0,0,0,-1,1273,757,0,0
56,267,0,0,0,0,0,0,0,0,0,-1,1280,757,0,0
63,267,0,0,0,0,0,0,0,0,0,-1,1287,757,0,0
70,267,0,0,0,0,0,0,0,0,0,-1,1294,757,0,0
77,267,0,0,0,0,0,0,0,0,0,-1,1301,757,0,0
84,267,0,0,0,0,0,0,0,0,0,-1,1308,757,0,0
91,267,0,0,0,0,0,0,0,0,0,-1,1315,757,0,0
98,267,0,0,0,0,0,0,0,0,0,-1,1322,757,0,0
105,267,0,0,0,0,0,0,0,0,0,-1,1329,757,0,0
112,267,0,0,0,0,0,0,0,0,0,-1,1336,757,0,0
119,267,0,0,0,0,0,0,0,0,0,-1,1343,757,0,0
126,267,0,0,0,0,0,0,0,0,0,-1,1350,757,0,0
133,267,0,0,0,0,0,0,0,0,0,-1,1357,757,0,0
140,267,0,0,0,0,0,0,0,0,0,-1,1364,757,0,0
147,267,0,0,0,0,0,0,0,0,0,-1,1371,757,0,0
154,267,0,0,0,0,0,0,0,0,0,-1,1378,757,0,0
161,267,0,0,0,0,0,0,0,0,0,-1,1385,757,0,0
168,267,0,0,0,0,0,0,0,0,0,-1,1392,757,0,0
175,267,0,0,0,0,0,0,0,0,0,-1,1399,757,0,0
182,267,0,0,0,0,0,0,0,0,0,-1,1406,757,0,0
189,267,0,0,0,0,0,0,0,0,0,-1,1413,757,0,0
196,267,0,0,0,0,0,0,0,0,0,-1,1420,757,0,0
203,267,0,0,0,0,0,0,0,0,0,-1,1427,757,0,0
210,267,0,0,0,0,0,0,0,0,0,-1,1434,757,0,0
217,267,0,0,0,0,0,0,0,0,0,-1,1441,757,0,0
224,267,0,0,0,0,0,0,0,0,0,-1,1448,757,0,0
231,267,0,0,0,0,0,0,0,0,0,-1,1455,757,0,0
238,267,0,0,0,0,0,0,0,0,0,-1,1462,757,0,0
245,267,0,0,0,0,0,0,0,0,0,-1,1469,757,0,0
252,267,0,0,0,0,0,0,0,0,0,-1,1476,757,0,0
259,267,0,0,0,0,0,0,0,0,0,-1,1483,757,0,0
266,267,0,0,0,0,0,0,0,0,0,-1,1490,757,0,0
273,267,0,0,0,0,0,0,0,0,0,-1,1497,757,0,0
280,267,0,0,0,0,0,0,0,0,0,-1,1504,757,0,0
287,267,0,0,0,0,0,0,0,0,0,-1,1511,757,0,0
294,267,0,0,0,0,0,0,0,0,0,-1,1518,757,0,0
301,267,0,0,0,0,0,0,0,0,0,-1,1525,757,0,0
308,267,0,0,0,0,0,0,0,0,0,-1,1532,757,0,0
315,267,0,0,0,0,0,0,0,0,0,-1,1539,757,0,0
322,267,0,0,0,0,0,0,0,0,0,-1,1546,757,0,0
329,267,0,0,0,0,0,0,0,0,0,-1,1553,757,0,0
336,267,0,0,0,0,0,0,0,0,0,-1,1560,757,0,0
343,267,0,0,0,0,0,0,0,0,0,-1,1567,757,0,0
350,267,0,0,0,0,0,0,0,0,0,-1,1574,757,0,0
357,267,0,0,0,0,0,0,0,0,0,-1,1581,757,0,0
364,267,0,0,0,0,0,0,0,0,0,-1,1588,757,0,0
371,267,0,0,0,0,0,0,0,0,0,-1,1595,757,0,0
378,267,0,0,0,0,0,0,0,0,0,-1,1602,757,0,0
385,267,0,0,0,0,0,0,0,0,0,-1,1609,757,0,0
392,267,0,0,0,0,0,0,0,0,0,-1,1616,757,0,0
399,267,0,0,0,0,0,0,0,0,0,-1,1623,757,0,0
406,267,0,0,0,0,0,0,0,0,0,-1,1630,757,0,0
413,267,0,0,0,0,0,0,0,0,0,-1,1637,757,0,0
420,267,0,0,0,0,0,0,0,0,0,-1,1644,757,0,0
427,267,0,0,0,0,0,0,0,0,0,-1,1651,757,0,0
434,267,0,0,0,0,0,0,0,0,0,-1,1658,757,0,0
441,267,0,0,0,0,0,0,0,0,0,-1,1665,757,0,0
448,267,0,0,0,0,0,0,0,0,0,-1,1672,757,0,0
455,267,0,0,0,0,0,0,0,0,0,-1,1679,757,0,0
462,267,0,0,0,0,0,0,0,0,0,-1,1686,757,0,0
469,267,0,0,0,0,0,0,0,0,0,-1,1693,757,0,0
476,267,0,0,0,0,0,0,0,0,0,-1,1700,757,0,0
483,267,0,0,0,0,0,0,0,0,0,-1,1707,757,0,0
490,267,0,0,0,0,0,0,0,0,0,-1,1714,757,0,0
497,267,0,0,0,0,0,0,0,0,0,-1,1721,757,0,0
504,267,0,0,0,0,0,0,0,0,0,-1,1728,757,0,0
511,267,0,0,0,0,0,0,0,0,0,-1,1735,757,0,0
518,267,0,0,0,0,0,0,0,0,0,-1,1742,757,0,0
525,267,0,0,0,0,0,0,0,0,0,-1,1749,757,0,0
532,267,0,0,0,0,0,0,0,0,0,-1,1756,757,0,0
539,267,0,0,0,0,0,0,0,0,0,-1,1763,757,0,0
546,267,0,0,0,0,0,0,0,0,0,-1,1770,757,0,0
553,267,0,0,0,0,0,0,0,0,0,-1,1777,757,0,0
560,267,0,0,0,0,0,0,0,0,0,-1,1784,757,0,0
567,267,55.8815,3.2818,0,0,0,0,0,0,0,-1,1791,757,55.8814,-3.28182
574,267,56.2998,2.99603,0,0,0,0,0,0,0,-1,1798,757,56.2998,-2.99603
581,267,56.6887,2.685,0,0,0,0,0,0,0,-1,1805,757,56.6887,-2.68498
588,267,57.858,2.28149,0,0,0,0,0,0,0,-1,1812,757,57.858,-2.28152
595,267,57.6678,2.57617,0,0,0,0,0,0,0,-1,1819,757,57.6679,-2.57614
602,267,57.689,2.76379,0,0,0,0,0,0,0,-1,1826,757,57.689,-2.76377
609,267,54.5498,3.24054,0,0,0,0,0,0,0,-1,1833,757,54.5498,-3.24052
616,267,44.2543,3.28918,0,0,0,0,0,0,0,-1,1840,757,44.2542,-3.28918
623,267,24.1475,-1.1391,0,0,0,0,0,0,0,-1,1847,757,24.1475,1.13913
630,267,37.5123,-4.88702,0,0,0,0,0,0,0,-1,1854,757,37.5124,4.88703
637,267,37.1594,-4.33844,0.00298013,0.000145731,0.00280344,0.00470422,-0.00157837,0.551371,0.00377394,0.0457267,1861,757,37.1595,4.33846
644,267,37.0317,-3.76172,0.00163886,-7.82245e-05,0.00215954,0.00310426,-0.00154363,0.596199,0.00273342,0.0156714,1868,757,37.0318,3.76173
651,267,37.0093,-3.03882,0.000760984,-0.000255334,0.00116593,0.00152468,-0.00101903,0.57989,0.00147826,0.013962,1875,757,37.0093,3.03882
658,267,37.0156,-2.33447,0.00054219,-0.000404205,0.000219721,0.000590713,-0.000452729,0.217355,0.000604185,0.0154439,1882,757,37.0156,2.33448
665,267,37.0076,-1.66309,0.000659656,-5.60521e-05,0.000255195,0.000741329,-0.000137725,0.30974,0.000545949,0.0167319,1889,757,37.0075,1.66309
672,267,36.9773,-1.00909,0.000977017,0.000557057,0.000493659,0.0013035,0.000230576,0.584313,0.000803248,0.0146427,1896,757,36.9773,1.0091
679,267,36.9343,-0.295349,0.00151845,0.001308,0.000981632,0.00240048,0.000425967,0.732004,0.00147892,0.0130059,1903,757,36.9344,0.295332
686,267,36.8934,0.404297,0.00224494,0.00228769,0.00161041,0.00387687,0.000655762,0.792034,0.00239609,0.0154416,1910,757,36.8935,-0.404321
693,267,36.834,1.04108,0.00319623,0.00336846,0.00247257,0.00575641,0.000808275,0.802805,0.00359857,0.0156708,1917,757,36.834,-1.04105
700,267,36.8226,1.74762,0.00441617,0.00464613,0.00363692,0.00816988,0.000892414,0.8012,0.00517483,0.0162407,1924,757,36.8226,-1.74759
707,267,36.8319,2.4527,0.00600817,0.00600985,0.00531054,0.0113195,0.000698473,0.785477,0.00732465,0.0175133,1931,757,36.832,-2.4527
714,267,37.0272,3.26434,0.00823599,0.00776466,0.00775592,0.0157598,0.000240827,0.77021,0.0104272,0.0398248,1938,757,37.0272,-3.26434
721,267,37.3666,4.13873,0,0,0,0,0,0,0,-1,1945,757,37.3666,-4.13873
728,267,26.7886,3.90027,0,0,0,0,0,0,0,-1,1952,757,26.7886,-3.90028
735,267,24.6713,2.82483,0,0,0,0,0,0,0,-1,1959,757,24.6713,-2.82483
742,267,18.1177,3.56561,0,0,0,0,0,0,0,-1,1966,757,18.1176,-3.56564
749,267,0,0,0,0,0,0,0,0,0,-1,1973,757,0,0
756,267,0,0,0,0,0,0,0,0,0,-1,1980,757,0,0
763,267,0,0,0,0,0,0,0,0,0,-1,1987,757,0,0
770,267,0,0,0,0,0,0,0,0,0,-1,1994,757,0,0
777,267,0,0,0,0,0,0,0,0,0,-1,2001,757,0,0
784,267,0,0,0,0,0,0,0,0,0,-1,2008,757,0,0
791,267,0,0,0,0,0,0,0,0,0,-1,2015,757,0,0
798,267,0,0,0,0,0,0,0,0,0,-1,2022,757,0,0
805,267,0,0,0,0,0,0,0,0,0,-1,2029,757,0,0
812,267,0,0,0,0,0,0,0,0,0,-1,2036,757,0,0
-700,260,0,0,0,0,0,0,0,0,0,-1,524,764,0,0
-693,260,0,0,0,0,0,0,0,0,0,-1,531,764,0,0
-686,260,0,0,0,0,0,0,0,0,0,-1,538,764,0,0
-679,260,0,0,0,0,0,0,0,0,0,-1,545,764,0,0
-672,260,0,0,0,0,0,0,0,0,0,-1,552,764,0,0
-665,260,0,0,0,0,0,0,0,0,0,-1,559,764,0,0
-658,260,0,0,0,0,0,0,0,0,0,-1,566,764,0,0
-651,260,0,0,0,0,0,0,0,0,0,-1,573,764,0,0
-644,260,0,0,0,0,0,0,0,0,0,-1,580,764,0,0
-637,260,0,0,0,0,0,0,0,0,0,-1,587,764,0,0
-630,260,-21.8905,4.49341,0,0,0,0,0,0,0,-1,594,764,-21.8905,-4.49342
-623,260,-20.3127,3.53546,0,0,0,0,0,0,0,-1,601,764,-20.3127,-3.53544
-616,260,-23.4346,3.65009,0,0,0,0,0,0,0,-1,608,764,-23.4345,-3.65008
-609,260,-24.3839,4.72369,0,0,0,0,0,0,0,-1,615,764,-24.3839,-4.7237
-602,260,-26.4597,3.86035,0,0,0,0,0,0,0,-1,622,764,-26.4597,-3.86036
-595,260,-26.0134,2.80566,0,0,0,0,0,0,0,-1,629,764,-26.0134,-2.80564
-588,260,-25.5467,1.70844,0.00807802,0.0176329,-0.0128793,0.0265923,-0.000881382,-0.963001,0.0180292,0.0430594,636,764,-25.5467,-1.70844
-581,260,-25.1108,0.624084,0.0055272,0.0128449,-0.00902529,0.0189248,-0.000552691,-0.977974,0.0128047,0.0276339,643,764,-25.1108,-0.624081
-574,260,-25.133,-0.0494385,0.00350602,0.0092669,-0.00609084,0.0131241,-0.00035114,-1.00627,0.00886874,0.0175824,650,764,-25.133,0.0494437
-567,260,-25.1701,-0.644104,0.00194624,0.00634006,-0.00378553,0.00851998,-0.00023368,-1.04832,0.00575946,0.0159153,657,764,-25.1701,0.644122
-560,260,-25.216,-1.27747,0.000651062,0.00388236,-0.00191498,0.0047722,-0.000238776,-1.13581,0.00326397,0.0197538,664,764,-25.216,1.27749
-553,260,-25.2508,-1.95081,-0.000428913,0.00170611,-0.000358219,0.00176461,-0.000487412,-1.40892,0.00136813,0.0173853,671,764,-25.2508,1.95079
-546,260,-25.2604,-2.62811,-0.00129419,1.3814e-05,0.000931341,0.000497843,-0.00177822,1.0915,0.00138166,0.01122,678,764,-25.2604,2.62809
-539,260,-25.2559,-3.31525,-0.00210533,-0.00131065,0.00196024,0.000292117,-0.00370809,0.885393,0.00257496,0.0127033,685,764,-25.2559,3.31522
-532,260,-25.2584,-3.93115,-0.00266836,-0.00199618,0.00251479,0.000204883,-0.00486942,0.851827,0.00331668,0.0180921,692,764,-25.2584,3.93113
-525,260,-25.321,-4.60992,-0.00281007,-0.00174607,0.00253784,0.000314937,-0.00487107,0.888716,0.00335729,0.016019,699,764,-25.3211,4.60993
-518,260,-25.4036,-5.24426,-0.00276542,-0.00088576,0.00233092,0.000687665,-0.00433885,0.97703,0.00314693,0.0206023,706,764,-25.4036,5.24425
-511,260,-25.4073,-5.84369,-0.00263163,0.000170836,0.00197351,0.00118997,-0.00365077,1.09411,0.00291269,0.0383679,713,764,-25.4073,5.8437
-504,260,-25.5229,-6.4201,0,0,0,0,0,0,0,-1,720,764,-25.5229,6.42013
-497,260,-16.6542,-3.67334,0,0,0,0,0,0,0,-1,727,764,-16.6542,3.67331
-490,260,-29.4557,0.921387,0,0,0,0,0,0,0,-1,734,764,-29.4557,-0.921369
-483,260,-40.8972,1.04193,0,0,0,0,0,0,0,-1,741,764,-40.8972,-1.04193
-476,260,-41.3648,1.97339,0,0,0,0,0,0,0,-1,748,764,-41.3648,-1.9734
-469,260,-42.8163,1.0874,0,0,0,0,0,0,0,-1,755,764,-42.8164,-1.0874
-462,260,-42.0058,1.64264,0,0,0,0,0,0,0,-1,762,764,-42.0058,-1.64266
-455,260,-42.3799,1.3526,0,0,0,0,0,0,0,-1,769,764,-42.3799,-1.35262
-448,260,0,0,0,0,0,0,0,0,0,-1,776,764,0,0
-441,260,0,0,0,0,0,0,0,0,0,-1,783,764,0,0
-434,260,0,0,0,0,0,0,0,0,0,-1,790,764,0,0
-427,260,0,0,0,0,0,0,0,0,0,-1,797,764,0,0
-420,260,0,0,0,0,0,0,0,0,0,-1,804,764,0,0
-413,260,0,0,0,0,0,0,0,0,0,-1,811,764,0,0
-406,260,0,0,0,0,0,0,0,0,0,-1,818,764,0,0
-399,260,0,0,0,0,0,0,0,0,0,-1,825,764,0,0
-392,260,0,0,0,0,0,0,0,0,0,-1,832,764,0,0
-385,260,0,0,0,0,0,0,0,0,0,-1,839,764,0,0
-378,260,0,0,0,0,0,0,0,0,0,-1,846,764,0,0
-371,260,0,0,0,0,0,0,0,0,0,-1,853,764,0,0
-364,260,0,0,0,0,0,0,0,0,0,-1,860,764,0,0
-357,260,0,0,0,0,0,0,0,0,0,-1,867,764,0,0
-350,260,0,0,0,0,0,0,0,0,0,-1,874,764,0,0
-343,260,0,0,0,0,0,0,0,0,0,-1,881,764,0,0
-336,260,0,0,0,0,0,0,0,0,0,-1,888,764,0,0
-329,260,0,0,0,0,0,0,0,0,0,-1,895,764,0,0
-322,260,0,0,0,0,0,0,0,0,0,-1,902,764,0,0
-315,260,0,0,0,0,0,0,0,0,0,-1,909,764,0,0
-308,260,0,0,0,0,0,0,0,0,0,-1,916,764,0,0
-301,260,0,0,0,0,0,0,0,0,0,-1,923,764,0,0
-294,260,0,0,0,0,0,0,0,0,0,-1,930,764,0,0
-287,260,0,0,0,0,0,0,0,0,0,-1,937,764,0,0
-280,260,0,0,0,0,0,0,0,0,0,-1,944,764,0,0
-273,260,0,0,0,0,0,0,0,0,0,-1,951,764,0,0
-266,260,0,0,0,0,0,0,0,0,0,-1,958,764,0,0
-259,260,0,0,0,0,0,0,0,0,0,-1,965,764,0,0
-252,260,0,0,0,0,0,0,0,0,0,-1,972,764,0,0
-245,260,0,0,0,0,0,0,0,0,0,-1,979,764,0,0
-238,260,0,0,0,0,0,0,0,0,0,-1,986,764,0,0
-231,260,0,0,0,0,0,0,0,0,0,-1,993,764,0,0
-224,260,0,0,0,0,0,0,0,0,0,-1,1000,764,0,0
-217,260,0,0,0,0,0,0,0,0,0,-1,1007,764,0,0
-210,260,0,0,0,0,0,0,0,0,0,-1,1014,764,0,0
-203,260,0,0,0,0,0,0,0,0,0,-1,1021,764,0,0
-196,260,0,0,0,0,0,0,0,0,0,-1,1028,764,0,0
-189,260,0,0,0,0,0,0,0,0,0,-1,1035,764,0,0
-182,260,0,0,0,0,0,0,0,0,0,-1,1042,764,0,0
-175,260,0,0,0,0,0,0,0,0,0,-1,1049,764,0,0
-168,260,0,0,0,0,0,0,0,0,0,-1,1056,764,0,0
-161,260,0,0,0,0,0,0,0,0,0,-1,1063,764,0,0
-154,260,0,0,0,0,0,0,0,0,0,-1,1070,764,0,0
-147,260,0,0,0,0,0,0,0,0,0,-1,1077,764,0,0
-140,260,0,0,0,0,0,0,0,0,0,-1,1084,764,0,0
-133,260,0,0,0,0,0,0,0,0,0,-1,1091,764,0,0
-126,260,0,0,0,0,0,0,0,0,0,-1,1098,764,0,0
-119,260,0,0,0,0,0,0,0,0,0,-1,1105,764,0,0
-112,260,0,0,0,0,0,0,0,0,0,-1,1112,764,0,0
-105,260,0,0,0,0,0,0,0,0,0,-1,1119,764,0,0
-98,260,0,0,0,0,0,0,0,0,0,-1,1126,764,0,0
-91,260,0,0,0,0,0,0,0,0,0,-1,1133,764,0,0
-84,260,0,0,0,0,0,0,0,0,0,-1,1140,764,0,0
-77,260,0,0,0,0,0,0,0,0,0,-1,1147,764,0,0
-70,260,0,0,0,0,0,0,0,0,0,-1,1154,764,0,0
-63,260,0,0,0,0,0,0,0,0,0,-1,1161,764,0,0
-56,260,0,0,0,0,0,0,0,0,0,-1,1168,764,0,0
-49,260,0,0,0,0,0,0,0,0,0,-1,1175,764,0,0
-42,260,0,0,0,0,0,0,0,0,0,-1,1182,764,0,0
-35,260,0,0,0,0,0,0,0,0,0,-1,1189,764,0,0
-28,260,0,0,0,0,0,0,0,0,0,-1,1196,764,0,0
-21,260,0,0,0,0,0,0,0,0,0,-1,1203,764,0,0
-14,260,0,0,0,0,0,0,0,0,0,-1,1210,764,0,0
-7,260,0,0,0,0,0,0,0,0,0,-1,1217,764,0,0
0,260,0,0,0,0,0,0,0,0,0,-1,1224,764,0,0
7,260,0,0,0,0,0,0,0,0,0,-1,1231,764,0,0
14,260,0,0,0,0,0,0,0,0,0,-1,1238,764,0,0
21,260,0,0,0,0,0,0,0,0,0,-1,1245,764,0,0
28,260,0,0,0,0,0,0,0,0,0,-1,1252,764,0,0
35,260,0,0,0,0,0,0,0,0,0,-1,1259,764,0,0
42,260,0,0,0,0,0,0,0,0,0,-1,1266,764,0,0
49,260,0,0,0,0,0,0,0,0,0,-1,1273,764,0,0
56,260,0,0,0,0,0,0,0,0,0,-1,1280,764,0,0
63,260,0,0,0,0,0,0,0,0,0,-1,1287,764,0,0
70,260,0,0,0,0,0,0,0,0,0,-1,1294,764,0,0
77,260,0,0,0,0,0,0,0,0,0,-1,1301,764,0,0
84,260,0,0,0,0,0,0,0,0,0,-1,1308,764,0,0
91,260,0,0,0,0,0,0,0,0,0,-1,1315,764,0,0
98,260,0,0,0,0,0,0,0,0,0,-1,1322,764,0,0
105,260,0,0,0,0,0,0,0,0,0,-1,1329,764,0,0
112,260,0,0,0,0,0,0,0,0,0,-1,1336,764,0,0
119,260,0,0,0,0,0,0,0,0,0,-1,1343,764,0,0
126,260,0,0,0,0,0,0,0,0,0,-1,1350,764,0,0
133,260,0,0,0,0,0,0,0,0,0,-1,1357,764,0,0
140,260,0,0,0,0,0,0,0,0,0,-1,1364,764,0,0
147,260,0,0,0,0,0,0,0,0,0,-1,1371,764,0,0
154,260,0,0,0,0,0,0,0,0,0,-1,1378,764,0,0
161,260,0,0,0,0,0,0,0,0,0,-1,1385,764,0,0
168,260,0,0,0,0,0,0,0,0,0,-1,1392,764,0,0
175,260,0,0,0,0,0,0,0,0,0,-1,1399,764,0,0
182,260,0,0,0,0,0,0,0,0,0,-1,1406,764,0,0
189,260,0,0,0,0,0,0,0,0,0,-1,1413,764,0,0
196,260,0,0,0,0,0,0,0,0,0,-1,1420,764,0,0
203,260,0,0,0,0,0,0,0,0,0,-1,1427,764,0,0
210,260,0,0,0,0,0,0,0,0,0,-1,1434,764,0,0
217,260,0,0,0,0,0,0,0,0,0,-1,1441,764,0,0
224,260,0,0,0,0,0,0,0,0,0,-1,1448,764,0,0
231,260,0,0,0,0,0,0,0,0,0,-1,1455,764,0,0
238,260,0,0,0,0,0,0,0,0,0,-1,1462,764,0,0
245,260,0,0,0,0,0,0,0,0,0,-1,1469,764,0,0
252,260,0,0,0,0,0,0,0,0,0,-1,1476,764,0,0
259,260,0,0,0,0,0,0,0,0,0,-1,1483,764,0,0
266,260,0,0,0,0,0,0,0,0,0,-1,1490,764,0,0
273,260,0,0,0,0,0,0,0,0,0,-1,1497,764,0,0
280,260,0,0,0,0,0,0,0,0,0,-1,1504,764,0,0
287,260,0,0,0,0,0,0,0,0,0,-1,1511,764,0,0
294,260,0,0,0,0,0,0,0,0,0,-1,1518,764,0,0
301,260,0,0,0,0,0,0,0,0,0,-1,1525,764,0,0
308,260,0,0,0,0,0,0,0,0,0,-1,1532,764,0,0
315,260,0,0,0,0,0,0,0,0,0,-1,1539,764,0,0
322,260,0,0,0,0,0,0,0,0,0,-1,1546,764,0,0
329,260,0,0,0,0,0,0,0,0,0,-1,1553,764,0,0
336,260,0,0,0,0,0,0,0,0,0,-1,1560,764,0,0
343,260,0,0,0,0,0,0,0,0,0,-1,1567,764,0,0
350,260,0,0,0,0,0,0,0,0,0,-1,1574,764,0,0
357,260,0,0,0,0,0,0,0,0,0,-1,1581,764,0,0
364,260,0,0,0,0,0,0,0,0,0,-1,1588,764,0,0
371,260,0,0,0,0,0,0,0,0,0,-1,1595,764,0,0
378,260,0,0,0,0,0,0,0,0,0,-1,1602,764,0,0
385,260,0,0,0,0,0,0,0,0,0,-1,1609,764,0,0
392,260,0,0,0,0,0,0,0,0,0,-1,1616,764,0,0
399,260,0,0,0,0,0,0,0,0,0,-1,1623,764,0,0
406,260,0,0,0,0,0,0,0,0,0,-1,1630,764,0,0
413,260,0,0,0,0,0,0,0,0,0,-1,1637,764,0,0
420,260,0,0,0,0,0,0,0,0,0,-1,1644,764,0,0
427,260,0,0,0,0,0,0,0,0,0,-1,1651,764,0,0
434,260,0,0,0,0,0,0,0,0,0,-1,1658,764,0,0
441,260,0,0,0,0,0,0,0,0,0,-1,1665,764,0,0
448,260,0,0,0,0,0,0,0,0,0,-1,1672,764,0,0
455,260,0,0,0,0,0,0,0,0,0,-1,1679,764,0,0
462,260,0,0,0,0,0,0,0,0,0,-1,1686,764,0,0
469,260,0,0,0,0,0,0,0,0,0,-1,1693,764,0,0
476,260,0,0,0,0,0,0,0,0,0,-1,1700,764,0,0
483,260,0,0,0,0,0,0,0,0,0,-1,1707,764,0,0
490,260,0,0,0,0,0,0,0,0,0,-1,1714,764,0,0
497,260,0,0,0,0,0,0,0,0,0,-1,1721,764,0,0
504,260,0,0,0,0,0,0,0,0,0,-1,1728,764,0,0
511,260,0,0,0,0,0,0,0,0,0,-1,1735,764,0,0
518,260,0,0,0,0,0,0,0,0,0,-1,1742,764,0,0
525,260,0,0,0,0,0,0,0,0,0,-1,1749,764,0,0
532,260,0,0,0,0,0,0,0,0,0,-1,1756,764,0,0
539,260,0,0,0,0,0,0,0,0,0,-1,1763,764,0,0
546,260,0,0,0,0,0,0,0,0,0,-1,1770,764,0,0
553,260,0,0,0,0,0,0,0,0,0,-1,1777,764,0,0
560,260,0,0,0,0,0,0,0,0,0,-1,1784,764,0,0
567,260,0,0,0,0,0,0,0,0,0,-1,1791,764,0,0
574,260,56.0479,2.99921,0,0,0,0,0,0,0,-1,1798,764,56.0479,-2.99921
581,260,56.3678,3.01343,0,0,0,0,0,0,0,-1,1805,764,56.3678,-3.01344
588,260,57.2269,2.56158,0,0,0,0,0,0,0,-1,1812,764,57.227,-2.56157
595,260,57.3337,2.63434,0.0191583,0.00348296,0.00652774,0.0215206,0.0011206,0.347232,0.0139885,0.0484328,1819,764,57.3338,-2.63432
602,260,57.4364,2.72083,0.0144841,0.00255562,0.00611243,0.01706,-2.0273e-05,0.398834,0.0113801,0.0463388,1826,764,57.4363,-2.72081
609,260,57.5874,2.85046,0,0,0,0,0,0,0,-1,1833,764,57.5874,-2.85045
616,260,46.0709,2.74542,0,0,0,0,0,0,0,-1,1840,764,46.0709,-2.74545
623,260,32.2268,3.25836,0,0,0,0,0,0,0,-1,1847,764,32.2268,-3.25833
630,260,24.3739,-0.536316,0,0,0,0,0,0,0,-1,1854,764,24.3739,0.536343
637,260,38.0443,-4.19525,0,0,0,0,0,0,0,-1,1861,764,38.0444,4.19523
644,260,37.8864,-3.75397,0.00138683,-1.96478e-05,0.00216492,0.00295987,-0.00159269,0.628358,0.00266763,0.0417447,1868,764,37.8863,3.75395
651,260,37.7665,-2.98773,0.000430721,-0.000212077,0.00120851,0.00135984,-0.00114119,0.655433,0.00144581,0.0182886,1875,764,37.7665,2.98774
658,260,37.6998,-2.28033,0.000115799,-0.000473499,0.000119438,0.000139086,-0.000496787,0.192558,0.000385998,0.0169783,1882,764,37.6999,2.28036
665,260,37.6659,-1.62378,0.000142546,-0.000309362,2.58902e-06,0.000142561,-0.000309377,0.00572883,0.000266786,0.017174,1889,764,37.6659,1.62378
672,260,37.6372,-0.949707,0.000437797,0.000147096,0.000135515,0.00049117,9.37229e-05,0.375196,0.000301108,0.0151827,1896,764,37.6372,0.949731
679,260,37.5934,-0.242981,0.000982292,0.000755742,0.000537519,0.00141834,0.000319692,0.681549,0.00085906,0.0131985,1903,764,37.5934,0.24296
686,260,37.536,0.452271,0.00175858,0.00163114,0.00113603,0.00283267,0.000557046,0.757382,0.00173287,0.0183297,1910,764,37.536,-0.452256
693,260,37.4857,1.07599,0.00276208,0.00261573,0.00199962,0.00468987,0.000687941,0.767109,0.00292436,0.0182923,1917,764,37.4857,-1.07601
700,260,37.4562,1.76044,0.00401531,0.00371995,0.00314361,0.00701471,0.00072055,0.761927,0.00445575,0.015421,1924,764,37.4561,-1.76045
707,260,37.4637,2.46106,0.00559055,0.00490785,0.00473047,0.00999197,0.000506427,0.74938,0.00649909,0.0153113,1931,764,37.4637,-2.46106
714,260,37.5193,3.11713,0.00770298,0.0063753,0.00699659,0.0140672,1.1126e-05,0.7381,0.0093744,0.0289986,1938,764,37.5193,-3.11711
721,260,37.6123,3.76288,0,0,0,0,0,0,0,-1,1945,764,37.6123,-3.76287
728,260,33.4344,5.75409,0,0,0,0,0,0,0,-1,1952,764,33.4345,-5.75408
735,260,26.9788,4.85681,0,0,0,0,0,0,0,-1,1959,764,26.9787,-4.85678
742,260,32.1443,1.73688,0,0,0,0,0,0,0,-1,1966,764,32.1442,-1.73688
749,260,33.6013,2.94733,0,0,0,0,0,0,0,-1,1973,764,33.6013,-2.9473
756,260,0,0,0,0,0,0,0,0,0,-1,1980,764,0,0
763,260,0,0,0,0,0,0,0,0,0,-1,1987,764,0,0
770,260,0,0,0,0,0,0,0,0,0,-1,1994,764,0,0
777,260,0,0,0,0,0,0,0,0,0,-1,2001,764,0,0
784,260,0,0,0,0,0,0,0,0,0,-1,2008,764,0,0
791,260,0,0,0,0,0,0,0,0,0,-1,2015,764,0,0
798,260,0,0,0,0,0,0,0,0,0,-1,2022,764,0,0
805,260,0,0,0,0,0,0,0,0,0,-1,2029,764,0,0
812,260,0,0,0,0,0,0,0,0,0,-1,2036,764,0,0
-700,253,0,0,0,0,0,0,0,0,0,-1,524,771,0,0
-693,253,0,0,0,0,0,0,0,0,0,-1,531,771,0,0
-686,253,0,0,0,0,0,0,0,0,0,-1,538,771,0,0
-679,253,0,0,0,0,0,0,0,0,0,-1,545,771,0,0
-672,253,0,0,0,0,0,0,0,0,0,-1,552,771,0,0
-665,253,0,0,0,0,0,0,0,0,0,-1,559,771,0,0
-658,253,0,0,0,0,0,0,0,0,0,-1,566,771,0,0
-651,253,0,0,0,0,0,0,0,0,0,-1,573,771,0,0
-644,253,0,0,0,0,0,0,0,0,0,-1,580,771,0,0
-637,253,-24.7979,-0.491394,0,0,0,0,0,0,0,-1,587,771,-24.7978,0.491371
-630,253,-25.156,0.540405,0,0,0,0,0,0,0,-1,594,771,-25.156,-0.540421
-623,253,-20.808,2.84314,0,0,0,0,0,0,0,-1,601,771,-20.8081,-2.84312
-616,253,-25.0877,2.96875,0,0,0,0,0,0,0,-1,608,771,-25.0877,-2.96876
-609,253,-24.28,2.08228,0,0,0,0,0,0,0,-1,615,771,-24.2801,-2.08227
-602,253,-24.6464,3.77881,0,0,0,0,0,0,0,-1,622,771,-24.6464,-3.77881
-595,253,-25.4829,2.21356,0,0,0,0,0,0,0,-1,629,771,-25.4829,-2.21354
-588,253,-25.6086,1.38916,0.00653843,0.0151148,-0.0116497,0.0232404,-0.00158725,-0.961749,0.0160489,0.0402665,636,771,-25.6087,-1.38917
-581,253,-25.7498,0.588867,0.00455674,0.0111658,-0.00822698,0.0167271,-0.00100457,-0.976371,0.0115009,0.0249769,643,771,-25.7498,-0.58889
-574,253,-25.7975,-0.0545044,0.00278943,0.00805565,-0.00550483,0.0115247,-0.000679627,-1.00848,0.00791941,0.0191831,650,771,-25.7975,0.0545217
-567,253,-25.8192,-0.712891,0.00128588,0.00539491,-0.00326423,0.00719737,-0.000516575,-1.06628,0.00497938,0.0151573,657,771,-25.8192,0.712883
-560,253,-25.8651,-1.27808,-4.28319e-05,0.00309197,-0.00138607,0.00361693,-0.000567785,-1.20876,0.00262113,0.0130134,664,771,-25.8651,1.27808
-553,253,-25.9123,-1.92468,-0.00122779,0.000971811,0.000231724,0.000995957,-0.00125193,1.46697,0.00130062,0.0126046,671,771,-25.9123,1.92465
-546,253,-25.9247,-2.58319,-0.00215902,-0.000575733,0.00152807,0.000353582,-0.00308834,1.0244,0.0021863,0.0114902,678,771,-25.9247,2.58319
-539,253,-25.9657,-3.25995,-0.00298952,-0.0016663,0.00246565,0.000224957,-0.00488078,0.916476,0.00333137,0.0129783,685,771,-25.9657,3.25993
-532,253,-25.9495,-3.91821,-0.00338745,-0.00202287,0.00278991,0.00016697,-0.00557729,0.905322,0.00377508,0.0176689,692,771,-25.9495,3.91823
-525,253,-25.9495,-4.59436,-0.00338221,-0.00153484,0.00263519,0.000333865,-0.00525091,0.953967,0.00361704,0.0179444,699,771,-25.9495,4.59439
-518,253,-26.0377,-5.27148,-0.00321288,-0.000526156,0.00231823,0.000809812,-0.00454885,1.04799,0.00333544,0.0328323,706,771,-26.0377,5.27149
-511,253,-26.2402,-5.85229,0,0,0,0,0,0,0,-1,713,771,-26.2402,5.85227
-504,253,-19.317,-4.1723,0,0,0,0,0,0,0,-1,720,771,-19.317,4.1723
-497,253,-21.7737,-1.76837,0,0,0,0,0,0,0,-1,727,771,-21.7738,1.7684
-490,253,-29.7674,0.438354,0,0,0,0,0,0,0,-1,734,771,-29.7674,-0.438339
-483,253,-41.2969,2.20251,0,0,0,0,0,0,0,-1,741,771,-41.2969,-2.20254
-476,253,-42.8339,1.2276,0,0,0,0,0,0,0,-1,748,771,-42.8339,-1.22762
-469,253,-42.8109,1.08881,0,0,0,0,0,0,0,-1,755,771,-42.8109,-1.08878
-462,253,-42.7878,0.949951,0,0,0,0,0,0,0,-1,762,771,-42.7878,-0.949946
-455,253,-42.3763,1.20032,0,0,0,0,0,0,0,-1,769,771,-42.3763,-1.20029
-448,253,0,0,0,0,0,0,0,0,0,-1,776,771,0,0
-441,253,0,0,0,0,0,0,0,0,0,-1,783,771,0,0
-434,253,0,0,0,0,0,0,0,0,0,-1,790,771,0,0
-427,253,0,0,0,0,0,0,0,0,0,-1,797,771,0,0
-420,253,0,0,0,0,0,0,0,0,0,-1,804,771,0,0
-413,253,0,0,0,0,0,0,0,0,0,-1,811,771,0,0
-406,253,0,0,0,0,0,0,0,0,0,-1,818,771,0,0
-399,253,0,0,0,0,0,0,0,0,0,-1,825,771,0,0
-392,253,0,0,0,0,0,0,0,0,0,-1,832,771,0,0
-385,253,0,0,0,0,0,0,0,0,0,-1,839,771,0,0
-378,253,0,0,0,0,0,0,0,0,0,-1,846,771,0,0
-371,253,0,0,0,0,0,0,0,0,0,-1,853,771,0,0
-364,253,0,0,0,0,0,0,0,0,0,-1,860,771,0,0
-357,253,0,0,0,0,0,0,0,0,0,-1,867,771,0,0
-350,253,0,0,0,0,0,0,0,0,0,-1,874,771,0,0
-343,253,0,0,0,0,0,0,0,0,0,-1,881,771,0,0
-336,253,0,0,0,0,0,0,0,0,0,-1,888,771,0,0
-329,253,0,0,0,0,0,0,0,0,0,-1,895,771,0,0
-322,253,0,0,0,0,0,0,0,0,0,-1,902,771,0,0
-315,253,0,0,0,0,0,0,0,0,0,-1,909,771,0,0
-308,253,0,0,0,0,0,0,0,0,0,-1,916,771,0,0
-301,253,0,0,0,0,0,0,0,0,0,-1,923,771,0,0
-294,253,0,0,0,0,0,0,0,0,0,-1,930,771,0,0
-287,253,0,0,0,0,0,0,0,0,0,-1,937,771,0,0
-280,253,0,0,0,0,0,0,0,0,0,-1,944,771,0,0
-273,253,0,0,0,0,0,0,0,0,0,-1,951,771,0,0
-266,253,0,0,0,0,0,0,0,0,0,-1,958,771,0,0
-259,253,0,0,0,0,0,0,0,0,0,-1,965,771,0,0
-252,253,0,0,0,0,0,0,0,0,0,-1,972,771,0,0
-245,253,0,0,0,0,0,0,0,0,0,-1,979,771,0,0
-238,253,0,0,0,0,0,0,0,0,0,-1,986,771,0,0
-231,253,0,0,0,0,0,0,0,0,0,-1,993,771,0,0
-224,253,0,0,0,0,0,0,0,0,0,-1,1000,771,0,0
-217,253,0,0,0,0,0,0,0,0,0,-1,1007,771,0,0
-210,253,0,0,0,0,0,0,0,0,0,-1,1014,771,0,0
-203,253,0,0,0,0,0,0,0,0,0,-1,1021,771,0,0
-196,253,0,0,0,0,0,0,0,0,0,-1,1028,771,0,0
-189,253,0,0,0,0,0,0,0,0,0,-1,1035,771,0,0
-182,253,0,0,0,0,0,0,0,0,0,-1,1042,771,0,0
-175,253,0,0,0,0,0,0,0,0,0,-1,1049,771,0,0
-168,253,0,0,0,0,0,0,0,0,0,-1,1056,771,0,0
-161,253,0,0,0,0,0,0,0,0,0,-1,1063,771,0,0
-154,253,0,0,0,0,0,0,0,0,0,-1,1070,771,0,0
-147,253,0,0,0,0,0,0,0,0,0,-1,1077,771,0,0
-140,253,0,0,0,0,0,0,0,0,0,-1,1084,771,0,0
-133,253,0,0,0,0,0,0,0,0,0,-1,1091,771,0,0
-126,253,0,0,0,0,0,0,0,0,0,-1,1098,771,0,0
-119,253,0,0,0,0,0,0,0,0,0,-1,1105,771,0,0
-112,253,0,0,0,0,0,0,0,0,0,-1,1112,771,0,0
-105,253,0,0,0,0,0,0,0,0,0,-1,1119,771,0,0
-98,253,0,0,0,0,0,0,0,0,0,-1,1126,771,0,0
-91,253,0,0,0,0,0,0,0,0,0,-1,1133,771,0,0
-84,253,0,0,0,0,0,0,0,0,0,-1,1140,771,0,0
-77,253,0,0,0,0,0,0,0,0,0,-1,1147,771,0,0
-70,253,0,0,0,0,0,0,0,0,0,-1,1154,771,0,0
-63,253,0,0,0,0,0,0,0,0,0,-1,1161,771,0,0
-56,253,0,0,0,0,0,0,0,0,0,-1,1168,771,0,0
-49,253,0,0,0,0,0,0,0,0,0,-1,1175,771,0,0
-42,253,0,0,0,0,0,0,0,0,0,-1,1182,771,0,0
-35,253,0,0,0,0,0,0,0,0,0,-1,1189,771,0,0
-28,253,0,0,0,0,0,0,0,0,0,-1,1196,771,0,0
-21,253,0,0,0,0,0,0,0,0,0,-1,1203,771,0,0
-14,253,0,0,0,0,0,0,0,0,0,-1,1210,771,0,0
-7,253,0,0,0,0,0,0,0,0,0,-1,1217,771,0,0
0,253,0,0,0,0,0,0,0,0,0,-1,1224,771,0,0
7,253,0,0,0,0,0,0,0,0,0,-1,1231,771,0,0
14,253,0,0,0,0,0,0,0,0,0,-1,1238,771,0,0
21,253,0,0,0,0,0,0,0,0,0,-1,1245,771,0,0
28,253,0,0,0,0,0,0,0,0,0,-1,1252,771,0,0
35,253,0,0,0,0,0,0,0,0,0,-1,1259,771,0,0
42,253,0,0,0,0,0,0,0,0,0,-1,1266,771,0,0
49,253,0,0,0,0,0,0,0,0,0,-1,1273,771,0,0
56,253,0,0,0,0,0,0,0,0,0,-1,1280,771,0,0
63,253,0,0,0,0,0,0,0,0,0,-1,1287,771,0,0
70,253,0,0,0,0,0,0,0,0,0,-1,1294,771,0,0
77,253,0,0,0,0,0,0,0,0,0,-1,1301,771,0,0
84,253,0,0,0,0,0,0,0,0,0,-1,1308,771,0,0
91,253,0,0,0,0,0,0,0,0,0,-1,1315,771,0,0
98,253,0,0,0,0,0,0,0,0,0,-1,1322,771,0,0
105,253,0,0,0,0,0,0,0,0,0,-1,1329,771,0,0
112,253,0,0,0,0,0,0,0,0,0,-1,1336,771,0,0
119,253,0,0,0,0,0,0,0,0,0,-1,1343,771,0,0
126,253,0,0,0,0,0,0,0,0,0,-1,1350,771,0,0
133,253,0,0,0,0,0,0,0,0,0,-1,1357,771,0,0
140,253,0,0,0,0,0,0,0,0,0,-1,1364,771,0,0
147,253,0,0,0,0,0,0,0,0,0,-1,1371,771,0,0
154,253,0,0,0,0,0,0,0,0,0,-1,1378,771,0,0
161,253,0,0,0,0,0,0,0,0,0,-1,1385,771,0,0
168,253,0,0,0,0,0,0,0,0,0,-1,1392,771,0,0
175,253,0,0,0,0,0,0,0,0,0,-1,1399,771,0,0
182,253,0,0,0,0,0,0,0,0,0,-1,1406,771,0,0
189,253,0,0,0,0,0,0,0,0,0,-1,1413,771,0,0
196,253,0,0,0,0,0,0,0,0,0,-1,1420,771,0,0
203,253,0,0,0,0,0,0,0,0,0,-1,1427,771,0,0
210,253,0,0,0,0,0,0,0,0,0,-1,1434,771,0,0
217,253,0,0,0,0,0,0,0,0,0,-1,1441,771,0,0
224,253,0,0,0,0,0,0,0,0,0,-1,1448,771,0,0
231,253,0,0,0,0,0,0,0,0,0,-1,1455,771,0,0
238,253,0,0,0,0,0,0,0,0,0,-1,1462,771,0,0
245,253,0,0,0,0,0,0,0,0,0,-1,1469,771,0,0
252,253,0,0,0,0,0,0,0,0,0,-1,1476,771,0,0
259,253,0,0,0,0,0,0,0,0,0,-1,1483,771,0,0
266,253,0,0,0,0,0,0,0,0,0,-1,1490,771,0,0
273,253,0,0,0,0,0,0,0,0,0,-1,1497,771,0,0
280,253,0,0,0,0,0,0,0,0,0,-1,1504,771,0,0
287,253,0,0,0,0,0,0,0,0,0,-1,1511,771,0,0
294,253,0,0,0,0,0,0,0,0,0,-1,1518,771,0,0
301,253,0,0,0,0,0,0,0,0,0,-1,1525,771,0,0
308,253,0,0,0,0,0,0,0,0,0,-1,1532,771,0,0
315,253,0,0,0,0,0,0,0,0,0,-1,1539,771,0,0
322,253,0,0,0,0,0,0,0,0,0,-1,1546,771,0,0
329,253,0,0,0,0,0,0,0,0,0,-1,1553,771,0,0
336,253,0,0,0,0,0,0,0,0,0,-1,1560,771,0,0
343,253,0,0,0,0,0,0,0,0,0,-1,1567,771,0,0
350,253,0,0,0,0,0,0,0,0,0,-1,1574,771,0,0
357,253,0,0,0,0,0,0,0,0,0,-1,1581,771,0,0
364,253,0,0,0,0,0,0,0,0,0,-1,1588,771,0,0
371,253,0,0,0,0,0,0,0,0,0,-1,1595,771,0,0
378,253,0,0,0,0,0,0,0,0,0,-1,1602,771,0,0
385,253,0,0,0,0,0,0,0,0,0,-1,1609,771,0,0
392,253,0,0,0,0,0,0,0,0,0,-1,1616,771,0,0
399,253,0,0,0,0,0,0,0,0,0,-1,1623,771,0,0
406,253,0,0,0,0,0,0,0,0,0,-1,1630,771,0,0
413,253,0,0,0,0,0,0,0,0,0,-1,1637,771,0,0
420,253,0,0,0,0,0,0,0,0,0,-1,1644,771,0,0
427,253,0,0,0,0,0,0,0,0,0,-1,1651,771,0,0
434,253,0,0,0,0,0,0,0,0,0,-1,1658,771,0,0
441,253,0,0,0,0,0,0,0,0,0,-1,1665,771,0,0
448,253,0,0,0,0,0,0,0,0,0,-1,1672,771,0,0
455,253,0,0,0,0,0,0,0,0,0,-1,1679,771,0,0
462,253,0,0,0,0,0,0,0,0,0,-1,1686,771,0,0
469,253,0,0,0,0,0,0,0,0,0,-1,1693,771,0,0
476,253,0,0,0,0,0,0,0,0,0,-1,1700,771,0,0
483,253,0,0,0,0,0,0,0,0,0,-1,1707,771,0,0
490,253,0,0,0,0,0,0,0,0,0,-1,1714,771,0,0
497,253,0,0,0,0,0,0,0,0,0,-1,1721,771,0,0
504,253,0,0,0,0,0,0,0,0,0,-1,1728,771,0,0
511,253,0,0,0,0,0,0,0,0,0,-1,1735,771,0,0
518,253,0,0,0,0,0,0,0,0,0,-1,1742,771,0,0
525,253,0,0,0,0,0,0,0,0,0,-1,1749,771,0,0
532,253,0,0,0,0,0,0,0,0,0,-1,1756,771,0,0
539,253,0,0,0,0,0,0,0,0,0,-1,1763,771,0,0
546,253,0,0,0,0,0,0,0,0,0,-1,1770,771,0,0
553,253,0,0,0,0,0,0,0,0,0,-1,1777,771,0,0
560,253,0,0,0,0,0,0,0,0,0,-1,1784,771,0,0
567,253,0,0,0,0,0,0,0,0,0,-1,1791,771,0,0
574,253,56.1403,2.68512,0,0,0,0,0,0,0,-1,1798,771,56.1402,-2.6851
581,253,56.3816,2.74316,0.0272491,0.00393715,0.00268435,0.0275542,0.00363204,0.113176,0.0172865,0.0413974,1805,771,56.3816,-2.74317
588,253,56.8009,2.69885,0.0220812,0.00358143,0.00581816,0.0237588,0.00190376,0.280735,0.0152443,0.0471589,1812,771,56.8008,-2.69883
595,253,57.1522,2.61188,0.0175065,0.00282022,0.00636832,0.0198833,0.000443431,0.357211,0.0131102,0.0489534,1819,771,57.1523,-2.6119
602,253,57.229,2.69788,0.0135161,0.00215577,0.00600516,0.0161019,-0.000430045,0.406603,0.0108808,0.0464609,1826,771,57.229,-2.6979
609,253,57.2914,2.88501,0,0,0,0,0,0,0,-1,1833,771,57.2914,-2.88503
616,253,55.5494,3.24188,0,0,0,0,0,0,0,-1,1840,771,55.5494,-3.24189
623,253,48.8328,3.01001,0,0,0,0,0,0,0,-1,1847,771,48.8328,-3.01002
630,253,33.561,2.96838,0,0,0,0,0,0,0,-1,1854,771,33.561,-2.96836
637,253,22.3192,-0.604004,0,0,0,0,0,0,0,-1,1861,771,22.3192,0.603986
644,253,38.7509,-3.71472,0,0,0,0,0,0,0,-1,1868,771,38.7508,3.71473
651,253,38.3713,-2.89264,0.00023632,2.09249e-05,0.00121749,0.00135087,-0.00109362,0.741284,0.00141393,0.0358425,1875,771,38.3713,2.89261
658,253,38.321,-2.24683,-0.000168406,-0.00029049,9.79228e-05,-0.000114057,-0.000344839,0.506686,0.000202859,0.0207735,1882,771,38.3211,2.24685
665,253,38.2734,-1.6037,-0.000289303,-0.000337328,-0.000141536,-0.000169757,-0.000456874,-0.701371,0.000266662,0.0210706,1889,771,38.2734,1.60371
672,253,38.2375,-0.936401,-8.13124e-05,-0.000106424,-0.000117454,2.42548e-05,-0.000211991,-0.73215,0.000150067,0.0171154,1896,771,38.2376,0.936397
679,253,38.2654,-0.198792,0.000399992,0.000288057,0.000169155,0.000522198,0.000165851,0.625634,0.000308106,0.0137283,1903,771,38.2653,0.1988
686,253,38.2148,0.476379,0.00115636,0.00101627,0.000681856,0.00177176,0.000400873,0.734215,0.00107281,0.0214372,1910,771,38.2148,-0.476355
693,253,38.1516,1.12762,0.00217066,0.00187234,0.0014805,0.00350949,0.000533511,0.735193,0.00218366,0.0210125,1917,771,38.1516,-1.12763
700,253,38.14,1.78955,0.00342021,0.00269046,0.0025269,0.00560844,0.000502222,0.713696,0.00358331,0.0164542,1924,771,38.14,-1.78952
707,253,38.1389,2.48535,0.00491469,0.0036194,0.00397485,0.00829432,0.000239778,0.70464,0.00545138,0.0147538,1931,771,38.1389,-2.48537
714,253,38.1271,3.14233,0.00673394,0.00494322,0.00591466,0.0118206,-0.00014347,0.710278,0.00792868,0.0206312,1938,771,38.127,-3.14236
721,253,38.1733,3.90173,0.00886403,0.00616144,0.00834726,0.0159687,-0.0009432,0.705152,0.0109737,0.0396356,1945,771,38.1734,-3.90172
728,253,38.2461,4.67224,0,0,0,0,0,0,0,-1,1952,771,38.2461,-4.67226
735,253,34.5735,6.15118,0,0,0,0,0,0,0,-1,1959,771,34.5734,-6.1512
742,253,31.0571,5.7337,0,0,0,0,0,0,0,-1,1966,771,31.0571,-5.73373
749,253,33.7754,3.21533,0,0,0,0,0,0,0,-1,1973,771,33.7754,-3.21533
756,253,0,0,0,0,0,0,0,0,0,-1,1980,771,0,0
763,253,0,0,0,0,0,0,0,0,0,-1,1987,771,0,0
770,253,0,0,0,0,0,0,0,0,0,-1,1994,771,0,0
777,253,0,0,0,0,0,0,0,0,0,-1,2001,771,0,0
784,253,0,0,0,0,0,0,0,0,0,-1,2008,771,0,0
791,253,0,0,0,0,0,0,0,0,0,-1,2015,771,0,0
798,253,0,0,0,0,0,0,0,0,0,-1,2022,771,0,0
805,253,0,0,0,0,0,0,0,0,0,-1,2029,771,0,0
812,253,0,0,0,0,0,0,0,0,0,-1,2036,771,0,0
-700,246,0,0,0,0,0,0,0,0,0,-1,524,778,0,0
-693,246,0,0,0,0,0,0,0,0,0,-1,531,778,0,0
-686,246,0,0,0,0,0,0,0,0,0,-1,538,778,0,0
-679,246,0,0,0,0,0,0,0,0,0,-1,545,778,0,0
-672,246,0,0,0,0,0,0,0,0,0,-1,552,778,0,0
-665,246,0,0,0,0,0,0,0,0,0,-1,559,778,0,0
-658,246,0,0,0,0,0,0,0,0,0,-1,566,778,0,0
-651,246,0,0,0,0,0,0,0,0,0,-1,573,778,0,0
-644,246,0,0,0,0,0,0,0,0,0,-1,580,778,0,0
-637,246,-24.1234,0.130432,0,0,0,0,0,0,0,-1,587,778,-24.1234,-0.130438
-630,246,-24.0781,1.38916,0,0,0,0,0,0,0,-1,594,778,-24.0781,-1.38913
-623,246,-23.9183,2.49573,0,0,0,0,0,0,0,-1,601,778,-23.9183,-2.49575
-616,246,-26.8182,2.0705,0,0,0,0,0,0,0,-1,608,778,-26.8182,-2.07052
-609,246,-26.0615,1.16388,0,0,0,0,0,0,0,-1,615,778,-26.0615,-1.16388
-602,246,-26.1818,3.08966,0,0,0,0,0,0,0,-1,622,778,-26.1818,-3.08965
-595,246,-26.3178,2.5946,0,0,0,0,0,0,0,-1,629,778,-26.3178,-2.59459
-588,246,-26.2939,1.37531,0.00479516,0.0126282,-0.0101283,0.0195708,-0.00214743,-0.96989,0.0138188,0.031912,636,778,-26.2939,-1.37528
-581,246,-26.4477,0.678162,0.00338099,0.00944218,-0.0071901,0.0142143,-0.00139111,-0.984847,0.00997229,0.0177328,643,778,-26.4477,-0.678174
-574,246,-26.4123,-0.052063,0.00191571,0.00677847,-0.0047292,0.00966469,-0.000970514,-1.02284,0.00678979,0.0182668,650,778,-26.4123,0.0520492
-567,246,-26.44,-0.685547,0.000522069,0.0043947,-0.00260277,0.00570241,-0.000785647,-1.1052,0.00408873,0.0229807,657,778,-26.44,0.685523
-560,246,-26.5167,-1.30182,-0.00077682,0.00231947,-0.000768747,0.00249983,-0.000957179,-1.34035,0.00206108,0.018149,664,778,-26.5167,1.30181
-553,246,-26.5363,-1.90601,-0.00201362,0.000354792,0.000887253,0.000650303,-0.00230913,1.24929,0.00179587,0.0138073,671,778,-26.5363,1.90603
-546,246,-26.5547,-2.54419,-0.0029132,-0.00089599,0.00213666,0.000458158,-0.00426735,1.00592,0.00300927,0.0121083,678,778,-26.5548,2.54421
-539,246,-26.5933,-3.22626,-0.00363754,-0.00164309,0.00292208,0.000447239,-0.00572787,0.949837,0.00397605,0.0115285,685,778,-26.5933,3.22624
-532,246,-26.5838,-3.90405,-0.00378322,-0.00169872,0.00303315,0.000466251,-0.00594819,0.950888,0.00412966,0.0165419,692,778,-26.5838,3.90405
-525,246,-26.6461,-4.55927,-0.00363103,-0.00106516,0.00275734,0.000693101,-0.00538929,1.00314,0.00384477,0.0339428,699,778,-26.646,4.55924
-518,246,-26.8981,-4.94659,-0.00337331,-3.31097e-05,0.00239175,0.00121393,-0.00462035,1.09018,0.00355466,0.0489901,706,778,-26.8981,4.94662
-511,246,-27.3007,-5.1474,0,0,0,0,0,0,0,-1,713,778,-27.3007,5.14741
-504,246,-20.0047,-2.88214,0,0,0,0,0,0,0,-1,720,778,-20.0047,2.88216
-497,246,-29.4669,1.82684,0,0,0,0,0,0,0,-1,727,778,-29.4669,-1.82687
-490,246,-40.4299,1.04309,0,0,0,0,0,0,0,-1,734,778,-40.4299,-1.04308
-483,246,-42.6471,1.27911,0,0,0,0,0,0,0,-1,741,778,-42.6471,-1.27914
-476,246,-42.6844,1.18488,-0.000444883,0.0155523,-0.00372857,0.0163786,-0.00127124,-1.35269,0.0113666,0.0473976,748,778,-42.6845,-1.18486
-469,246,-42.6985,1.11829,-0.000194754,0.0199062,-0.00460454,0.0209107,-0.00119932,-1.35599,0.014357,0.0410816,755,778,-42.6986,-1.11829
-462,246,-42.7249,1.04047,0,0,0,0,0,0,0,-1,762,778,-42.7248,-1.04047
-455,246,0,0,0,0,0,0,0,0,0,-1,769,778,0,0
-448,246,0,0,0,0,0,0,0,0,0,-1,776,778,0,0
-441,246,0,0,0,0,0,0,0,0,0,-1,783,778,0,0
-434,246,0,0,0,0,0,0,0,0,0,-1,790,778,0,0
-427,246,0,0,0,0,0,0,0,0,0,-1,797,778,0,0
-420,246,0,0,0,0,0,0,0,0,0,-1,804,778,0,0
-413,246,0,0,0,0,0,0,0,0,0,-1,811,778,0,0
-406,246,0,0,0,0,0,0,0,0,0,-1,818,778,0,0
-399,246,0,0,0,0,0,0,0,0,0,-1,825,778,0,0
-392,246,0,0,0,0,0,0,0,0,0,-1,832,778,0,0
-385,246,0,0,0,0,0,0,0,0,0,-1,839,778,0,0
-378,246,0,0,0,0,0,0,0,0,0,-1,846,778,0,0
-371,246,0,0,0,0,0,0,0,0,0,-1,853,778,0,0
-364,246,0,0,0,0,0,0,0,0,0,-1,860,778,0,0
-357,246,0,0,0,0,0,0,0,0,0,-1,867,778,0,0
-350,246,0,0,0,0,0,0,0,0,0,-1,874,778,0,0
-343,246,0,0,0,0,0,0,0,0,0,-1,881,778,0,0
-336,246,0,0,0,0,0,0,0,0,0,-1,888,778,0,0
-329,246,0,0,0,0,0,0,0,0,0,-1,895,778,0,0
-322,246,0,0,0,0,0,0,0,0,0,-1,902,778,0,0
-315,246,0,0,0,0,0,0,0,0,0,-1,909,778,0,0
-308,246,0,0,0,0,0,0,0,0,0,-1,916,778,0,0
-301,246,0,0,0,0,0,0,0,0,0,-1,923,778,0,0
-294,246,0,0,0,0,0,0,0,0,0,-1,930,778,0,0
-287,246,0,0,0,0,0,0,0,0,0,-1,937,778,0,0
-280,246,0,0,0,0,0,0,0,0,0,-1,944,778,0,0
-273,246,0,0,0,0,0,0,0,0,0,-1,951,778,0,0
-266,246,0,0,0,0,0,0,0,0,0,-1,958,778,0,0
-259,246,0,0,0,0,0,0,0,0,0,-1,965,778,0,0
-252,246,0,0,0,0,0,0,0,0,0,-1,972,778,0,0
-245,246,0,0,0,0,0,0,0,0,0,-1,979,778,0,0
-238,246,0,0,0,0,0,0,0,0,0,-1,986,778,0,0
-231,246,0,0,0,0,0,0,0,0,0,-1,993,778,0,0
-224,246,0,0,0,0,0,0,0,0,0,-1,1000,778,0,0
-217,246,0,0,0,0,0,0,0,0,0,-1,1007,778,0,0
-210,246,0,0,0,0,0,0,0,0,0,-1,1014,778,0,0
-203,246,0,0,0,0,0,0,0,0,0,-1,1021,778,0,0
-196,246,0,0,0,0,0,0,0,0,0,-1,1028,778,0,0
-189,246,0,0,0,0,0,0,0,0,0,-1,1035,778,0,0
-182,246,0,0,0,0,0,0,0,0,0,-1,1042,778,0,0
-175,246,0,0,0,0,0,0,0,0,0,-1,1049,778,0,0
-168,246,0,0,0,0,0,0,0,0,0,-1,1056,778,0,0
-161,246,0,0,0,0,0,0,0,0,0,-1,1063,778,0,0
-154,246,0,0,0,0,0,0,0,0,0,-1,1070,778,0,0
-147,246,0,0,0,0,0,0,0,0,0,-1,1077,778,0,0
-140,246,0,0,0,0,0,0,0,0,0,-1,1084,778,0,0
-133,246,0,0,0,0,0,0,0,0,0,-1,1091,778,0,0
-126,246,0,0,0,0,0,0,0,0,0,-1,1098,778,0,0
-119,246,0,0,0,0,0,0,0,0,0,-1,1105,778,0,0
-112,246,0,0,0,0,0,0,0,0,0,-1,1112,778,0,0
-105,246,0,0,0,0,0,0,0,0,0,-1,1119,778,0,0
-98,246,0,0,0,0,0,0,0,0,0,-1,1126,778,0,0
-91,246,0,0,0,0,0,0,0,0,0,-1,1133,778,0,0
-84,246,0,0,0,0,0,0,0,0,0,-1,1140,778,0,0
-77,246,0,0,0,0,0,0,0,0,0,-1,1147,778,0,0
-70,246,0,0,0,0,0,0,0,0,0,-1,1154,778,0,0
-63,246,0,0,0,0,0,0,0,0,0,-1,1161,778,0,0
-56,246,0,0,0,0,0,0,0,0,0,-1,1168,778,0,0
-49,246,0,0,0,0,0,0,0,0,0,-1,1175,778,0,0
-42,246,0,0,0,0,0,0,0,0,0,-1,1182,778,0,0
-35,246,0,0,0,0,0,0,0,0,0,-1,1189,778,0,0
-28,246,0,0,0,0,0,0,0,0,0,-1,1196,778,0,0
-21,246,0,0,0,0,0,0,0,0,0,-1,1203,778,0,0
-14,246,0,0,0,0,0,0,0,0,0,-1,1210,778,0,0
-7,246,0,0,0,0,0,0,0,0,0,-1,1217,778,0,0
0,246,0,0,0,0,0,0,0,0,0,-1,1224,778,0,0
7,246,0,0,0,0,0,0,0,0,0,-1,1231,778,0,0
14,246,0,0,0,0,0,0,0,0,0,-1,1238,778,0,0
21,246,0,0,0,0,0,0,0,0,0,-1,1245,778,0,0
28,246,0,0,0,0,0,0,0,0,0,-1,1252,778,0,0
35,246,0,0,0,0,0,0,0,0,0,-1,1259,778,0,0
42,246,0,0,0,0,0,0,0,0,0,-1,1266,778,0,0
49,246,0,0,0,0,0,0,0,0,0,-1,1273,778,0,0
56,246,0,0,0,0,0,0,0,0,0,-1,1280,778,0,0
63,246,0,0,0,0,0,0,0,0,0,-1,1287,778,0,0
70,246,0,0,0,0,0,0,0,0,0,-1,1294,778,0,0
77,246,0,0,0,0,0,0,0,0,0,-1,1301,778,0,0
84,246,0,0,0,0,0,0,0,0,0,-1,1308,778,0,0
91,246,0,0,0,0,0,0,0,0,0,-1,1315,778,0,0
98,246,0,0,0,0,0,0,0,0,0,-1,1322,778,0,0
105,246,0,0,0,0,0,0,0,0,0,-1,1329,778,0,0
112,246,0,0,0,0,0,0,0,0,0,-1,1336,778,0,0
119,246,0,0,0,0,0,0,0,0,0,-1,1343,778,0,0
126,246,0,0,0,0,0,0,0,0,0,-1,1350,778,0,0
133,246,0,0,0,0,0,0,0,0,0,-1,1357,778,0,0
140,246,0,0,0,0,0,0,0,0,0,-1,1364,778,0,0
147,246,0,0,0,0,0,0,0,0,0,-1,1371,778,0,0
154,246,0,0,0,0,0,0,0,0,0,-1,1378,778,0,0
161,246,0,0,0,0,0,0,0,0,0,-1,1385,778,0,0
168,246,0,0,0,0,0,0,0,0,0,-1,1392,778,0,0
175,246,0,0,0,0,0,0,0,0,0,-1,1399,778,0,0
182,246,0,0,0,0,0,0,0,0,0,-1,1406,778,0,0
189,246,0,0,0,0,0,0,0,0,0,-1,1413,778,0,0
196,246,0,0,0,0,0,0,0,0,0,-1,1420,778,0,0
203,246,0,0,0,0,0,0,0,0,0,-1,1427,778,0,0
210,246,0,0,0,0,0,0,0,0,0,-1,1434,778,0,0
217,246,0,0,0,0,0,0,0,0,0,-1,1441,778,0,0
224,246,0,0,0,0,0,0,0,0,0,-1,1448,778,0,0
231,246,0,0,0,0,0,0,0,0,0,-1,1455,778,0,0
238,246,0,0,0,0,0,0,0,0,0,-1,1462,778,0,0
245,246,0,0,0,0,0,0,0,0,0,-1,1469,778,0,0
252,246,0,0,0,0,0,0,0,0,0,-1,1476,778,0,0
259,246,0,0,0,0,0,0,0,0,0,-1,1483,778,0,0
266,246,0,0,0,0,0,0,0,0,0,-1,1490,778,0,0
273,246,0,0,0,0,0,0,0,0,0,-1,1497,778,0,0
280,246,0,0,0,0,0,0,0,0,0,-1,1504,778,0,0
287,246,0,0,0,0,0,0,0,0,0,-1,1511,778,0,0
294,246,0,0,0,0,0,0,0,0,0,-1,1518,778,0,0
301,246,0,0,0,0,0,0,0,0,0,-1,1525,778,0,0
308,246,0,0,0,0,0,0,0,0,0,-1,1532,778,0,0
315,246,0,0,0,0,0,0,0,0,0,-1,1539,778,0,0
322,246,0,0,0,0,0,0,0,0,0,-1,1546,778,0,0
329,246,0,0,0,0,0,0,0,0,0,-1,1553,778,0,0
336,246,0,0,0,0,0,0,0,0,0,-1,1560,778,0,0
343,246,0,0,0,0,0,0,0,0,0,-1,1567,778,0,0
350,246,0,0,0,0,0,0,0,0,0,-1,1574,778,0,0
357,246,0,0,0,0,0,0,0,0,0,-1,1581,778,0,0
364,246,0,0,0,0,0,0,0,0,0,-1,1588,778,0,0
371,246,0,0,0,0,0,0,0,0,0,-1,1595,778,0,0
378,246,0,0,0,0,0,0,0,0,0,-1,1602,778,0,0
385,246,0,0,0,0,0,0,0,0,0,-1,1609,778,0,0
392,246,0,0,0,0,0,0,0,0,0,-1,1616,778,0,0
399,246,0,0,0,0,0,0,0,0,0,-1,1623,778,0,0
406,246,0,0,0,0,0,0,0,0,0,-1,1630,778,0,0
413,246,0,0,0,0,0,0,0,0,0,-1,1637,778,0,0
420,246,0,0,0,0,0,0,0,0,0,-1,1644,778,0,0
427,246,0,0,0,0,0,0,0,0,0,-1,1651,778,0,0
434,246,0,0,0,0,0,0,0,0,0,-1,1658,778,0,0
441,246,0,0,0,0,0,0,0,0,0,-1,1665,778,0,0
448,246,0,0,0,0,0,0,0,0,0,-1,1672,778,0,0
455,246,0,0,0,0,0,0,0,0,0,-1,1679,778,0,0
462,246,0,0,0,0,0,0,0,0,0,-1,1686,778,0,0
469,246,0,0,0,0,0,0,0,0,0,-1,1693,778,0,0
476,246,0,0,0,0,0,0,0,0,0,-1,1700,778,0,0
483,246,0,0,0,0,0,0,0,0,0,-1,1707,778,0,0
490,246,0,0,0,0,0,0,0,0,0,-1,1714,778,0,0
497,246,0,0,0,0,0,0,0,0,0,-1,1721,778,0,0
504,246,0,0,0,0,0,0,0,0,0,-1,1728,778,0,0
511,246,0,0,0,0,0,0,0,0,0,-1,1735,778,0,0
518,246,0,0,0,0,0,0,0,0,0,-1,1742,778,0,0
525,246,0,0,0,0,0,0,0,0,0,-1,1749,778,0,0
532,246,0,0,0,0,0,0,0,0,0,-1,1756,778,0,0
539,246,0,0,0,0,0,0,0,0,0,-1,1763,778,0,0
546,246,0,0,0,0,0,0,0,0,0,-1,1770,778,0,0
553,246,0,0,0,0,0,0,0,0,0,-1,1777,778,0,0
560,246,0,0,0,0,0,0,0,0,0,-1,1784,778,0,0
567,246,0,0,0,0,0,0,0,0,0,-1,1791,778,0,0
574,246,0,0,0,0,0,0,0,0,0,-1,1798,778,0,0
581,246,56.5632,2.62878,0.0230327,0.00179388,-7.98466e-05,0.023033,0.00179358,-0.00375939,0.0147938,0.0381322,1805,778,56.5633,-2.62875
588,246,56.7126,2.4986,0.0192449,0.0024371,0.00457322,0.0204087,0.00127335,0.249181,0.0132018,0.0442178,1812,778,56.7127,-2.49857
595,246,56.8956,2.54675,0.0154538,0.00217546,0.00567063,0.0175459,8.3386e-05,0.353439,0.0116696,0.0455714,1819,778,56.8956,-2.54673
602,246,56.8829,2.73657,0.0120411,0.0017446,0.00553422,0.0144515,-0.000665724,0.410756,0.00986371,0.0488713,1826,778,56.8829,-2.73654
609,246,56.6796,2.93536,0,0,0,0,0,0,0,-1,1833,778,56.6796,-2.93539
616,246,56.5723,2.88239,0,0,0,0,0,0,0,-1,1840,778,56.5723,-2.88239
623,246,55.8947,3.95953,0,0,0,0,0,0,0,-1,1847,778,55.8947,-3.95952
630,246,49.5938,1.99902,0,0,0,0,0,0,0,-1,1854,778,49.5937,-1.999
637,246,29.5785,0.837585,0,0,0,0,0,0,0,-1,1861,778,29.5785,-0.837606
644,246,28.1232,-1.43188,0,0,0,0,0,0,0,-1,1868,778,28.1232,1.43188
651,246,38.9218,-2.81738,0,0,0,0,0,0,0,-1,1875,778,38.9218,2.81739
658,246,38.8295,-2.3194,-0.000417006,-0.000226021,1.66996e-05,-0.000224571,-0.000418455,1.48423,0.000241811,0.0404623,1882,778,38.8294,2.31942
665,246,38.9481,-1.58972,-0.000689484,-0.000364937,-0.000307607,-0.000179425,-0.000874996,-1.02812,0.000533673,0.0240774,1889,778,38.9481,1.58975
672,246,38.9338,-0.876587,-0.000627418,-0.000311488,-0.000388121,-5.04175e-05,-0.000888488,-0.978662,0.000576255,0.0209367,1896,778,38.9338,0.876617
679,246,38.911,-0.190735,-0.000263747,-0.000110699,-0.000227434,5.27396e-05,-0.000427186,-0.947683,0.0003039,0.0210178,1903,778,38.911,0.190714
686,246,38.9021,0.486633,0.000433165,0.000473237,0.000175785,0.000630125,0.000276278,0.842143,0.00036472,0.0230643,1910,778,38.9021,-0.486652
693,246,38.8912,1.1366,0.00148002,0.00121057,0.0009276,0.00228263,0.000407965,0.713282,0.00140564,0.0182758,1917,778,38.8913,-1.1366
700,246,38.8694,1.79382,0.00278888,0.00185347,0.00193684,0.00431368,0.000328671,0.666926,0.00277273,0.0147784,1924,778,38.8694,-1.79381
707,246,38.8557,2.48669,0.00428194,0.00265379,0.00324386,0.00681231,0.000123412,0.662458,0.00450097,0.0133616,1931,778,38.8557,-2.48671
714,246,38.813,3.19495,0.00614988,0.00392695,0.00473943,0.00990643,0.000170403,0.670222,0.00654822,0.0133778,1938,778,38.813,-3.19495
721,246,38.7506,3.84485,0.00828375,0.00504507,0.00659115,0.0134516,-0.000122753,0.664942,0.00900891,0.0196628,1945,778,38.7507,-3.84488
728,246,38.901,4.65887,0.0106477,0.00608802,0.00842245,0.0170934,-0.000357683,0.653221,0.0115167,0.0429594,1952,778,38.901,-4.65884
735,246,39.2092,5.55957,0,0,0,0,0,0,0,-1,1959,778,39.2092,-5.55958
742,246,31.7356,6.70013,0,0,0,0,0,0,0,-1,1966,778,31.7356,-6.70011
749,246,32.3883,7.69324,0,0,0,0,0,0,0,-1,1973,778,32.3883,-7.69322
756,246,33.6919,3.45264,0,0,0,0,0,0,0,-1,1980,778,33.6919,-3.45262
763,246,0,0,0,0,0,0,0,0,0,-1,1987,778,0,0
770,246,0,0,0,0,0,0,0,0,0,-1,1994,778,0,0
777,246,0,0,0,0,0,0,0,0,0,-1,2001,778,0,0
784,246,0,0,0,0,0,0,0,0,0,-1,2008,778,0,0
791,246,0,0,0,0,0,0,0,0,0,-1,2015,778,0,0
798,246,0,0,0,0,0,0,0,0,0,-1,2022,778,0,0
805,246,0,0,0,0,0,0,0,0,0,-1,2029,778,0,0
812,246,0,0,0,0,0,0,0,0,0,-1,2036,778,0,0
-700,239,0,0,0,0,0,0,0,0,0,-1,524,785,0,0
-693,239,0,0,0,0,0,0,0,0,0,-1,531,785,0,0
-686,239,0,0,0,0,0,0,0,0,0,-1,538,785,0,0
-679,239,0,0,0,0,0,0,0,0,0,-1,545,785,0,0
-672,239,0,0,0,0,0,0,0,0,0,-1,552,785,0,0
-665,239,0,0,0,0,0,0,0,0,0,-1,559,785,0,0
-658,239,0,0,0,0,0,0,0,0,0,-1,566,785,0,0
-651,239,0,0,0,0,0,0,0,0,0,-1,573,785,0,0
-644,239,0,0,0,0,0,0,0,0,0,-1,580,785,0,0
-637,239,-23.2709,0.465088,0,0,0,0,0,0,0,-1,587,785,-23.271,-0.465116
-630,239,-23.4006,0.956299,0,0,0,0,0,0,0,-1,594,785,-23.4005,-0.956285
-623,239,-30.6328,2.52185,0,0,0,0,0,0,0,-1,601,785,-30.6328,-2.52183
-616,239,-29.1425,1.42139,0,0,0,0,0,0,0,-1,608,785,-29.1425,-1.42139
-609,239,-27.8569,0.322937,0,0,0,0,0,0,0,-1,615,785,-27.857,-0.322963
-602,239,-26.809,3.66492,0,0,0,0,0,0,0,-1,622,785,-26.809,-3.66491
-595,239,-26.8856,2.56506,0.00467183,0.0137979,-0.011627,0.0217252,-0.00325542,-0.972391,0.0156816,0.0427287,629,785,-26.8855,-2.56507
-588,239,-26.9722,1.48676,0.0036568,0.0105639,-0.00866993,0.0164428,-0.00222209,-0.974935,0.0117727,0.02027,636,785,-26.9722,-1.48673
-581,239,-27.109,0.709167,0.00250104,0.00796288,-0.00615087,0.0119618,-0.00149791,-0.99432,0.00851788,0.0112313,643,785,-27.109,-0.709176
-574,239,-27.0895,0.00592041,0.00117564,0.00567227,-0.00394037,0.00796063,-0.00111273,-1.04465,0.00571423,0.0124455,650,785,-27.0895,-0.00594462
-567,239,-27.1114,-0.647827,-0.000201865,0.00354754,-0.00194689,0.00437559,-0.00102992,-1.16865,0.00331415,0.017279,657,785,-27.1114,0.647824
-560,239,-27.171,-1.25641,-0.0015574,0.00170404,-0.000173944,0.00171329,-0.00156665,-1.51766,0.00189431,0.0173941,664,785,-27.171,1.25639
-553,239,-27.1868,-1.87628,-0.0029,-0.000100091,0.00148725,0.000542452,-0.00354254,1.16298,0.00256173,0.0136423,671,785,-27.1869,1.87627
-546,239,-27.2275,-2.51813,-0.00375884,-0.00103194,0.00263453,0.000571048,-0.00536183,1.02418,0.00377931,0.0146705,678,785,-27.2275,2.51816
-539,239,-27.3474,-3.16998,-0.00435974,-0.00141804,0.00321861,0.000649871,-0.00642765,0.999721,0.00451734,0.0160808,685,785,-27.3473,3.16999
-532,239,-27.4059,-3.80737,-0.00425948,-0.00117809,0.00308772,0.000731973,-0.00616955,1.01681,0.00437747,0.0217352,692,785,-27.406,3.80739
-525,239,-27.4144,-4.23962,-0.00397008,-0.000408415,0.00268703,0.00103434,-0.00541283,1.07804,0.00399818,0.0360079,699,785,-27.4143,4.2396
-518,239,-27.8324,-4.46088,0,0,0,0,0,0,0,-1,706,785,-27.8324,4.46087
-511,239,-20.9849,-2.09235,0,0,0,0,0,0,0,-1,713,785,-20.9848,2.09234
-504,239,-25.5015,2.00421,0,0,0,0,0,0,0,-1,720,785,-25.5015,-2.00422
-497,239,-40.2453,1.4447,0,0,0,0,0,0,0,-1,727,785,-40.2453,-1.4447
-490,239,-42.5645,1.27704,0,0,0,0,0,0,0,-1,734,785,-42.5645,-1.27707
-483,239,-42.8118,1.09998,-0.000715019,0.0108599,-0.00255253,0.0113978,-0.00125291,-1.3631,0.00804871,0.0472312,741,785,-42.8118,-1.09996
-476,239,-42.7172,1.0733,-0.000597289,0.0152106,-0.0040336,0.0161804,-0.00156703,-1.33486,0.0113454,0.0412059,748,785,-42.7172,-1.07331
-469,239,-42.6923,0.984802,-0.000344084,0.0191849,-0.00506379,0.0204198,-0.00157902,-1.33159,0.0141689,0.0420324,755,785,-42.6923,-0.984783
-462,239,-42.7025,0.978271,0,0,0,0,0,0,0,-1,762,785,-42.7025,-0.978295
-455,239,0,0,0,0,0,0,0,0,0,-1,769,785,0,0
-448,239,0,0,0,0,0,0,0,0,0,-1,776,785,0,0
-441,239,0,0,0,0,0,0,0,0,0,-1,783,785,0,0
-434,239,0,0,0,0,0,0,0,0,0,-1,790,785,0,0
-427,239,0,0,0,0,0,0,0,0,0,-1,797,785,0,0
-420,239,0,0,0,0,0,0,0,0,0,-1,804,785,0,0
-413,239,0,0,0,0,0,0,0,0,0,-1,811,785,0,0
-406,239,0,0,0,0,0,0,0,0,0,-1,818,785,0,0
-399,239,0,0,0,0,0,0,0,0,0,-1,825,785,0,0
-392,239,0,0,0,0,0,0,0,0,0,-1,832,785,0,0
-385,239,0,0,0,0,0,0,0,0,0,-1,839,785,0,0
-378,239,0,0,0,0,0,0,0,0,0,-1,846,785,0,0
-371,239,0,0,0,0,0,0,0,0,0,-1,853,785,0,0
-364,239,0,0,0,0,0,0,0,0,0,-1,860,785,0,0
-357,239,0,0,0,0,0,0,0,0,0,-1,867,785,0,0
-350,239,0,0,0,0,0,0,0,0,0,-1,874,785,0,0
-343,239,0,0,0,0,0,0,0,0,0,-1,881,785,0,0
-336,239,0,0,0,0,0,0,0,0,0,-1,888,785,0,0
-329,239,0,0,0,0,0,0,0,0,0,-1,895,785,0,0
-322,239,0,0,0,0,0,0,0,0,0,-1,902,785,0,0
-315,239,0,0,0,0,0,0,0,0,0,-1,909,785,0,0
-308,239,0,0,0,0,0,0,0,0,0,-1,916,785,0,0
-301,239,0,0,0,0,0,0,0,0,0,-1,923,785,0,0
-294,239,0,0,0,0,0,0,0,0,0,-1,930,785,0,0
-287,239,0,0,0,0,0,0,0,0,0,-1,937,785,0,0
-280,239,0,0,0,0,0,0,0,0,0,-1,944,785,0,0
-273,239,0,0,0,0,0,0,0,0,0,-1,951,785,0,0
-266,239,0,0,0,0,0,0,0,0,0,-1,958,785,0,0
-259,239,0,0,0,0,0,0,0,0,0,-1,965,785,0,0
-252,239,0,0,0,0,0,0,0,0,0,-1,972,785,0,0
-245,239,0,0,0,0,0,0,0,0,0,-1,979,785,0,0
-238,239,0,0,0,0,0,0,0,0,0,-1,986,785,0,0
-231,239,0,0,0,0,0,0,0,0,0,-1,993,785,0,0
-224,239,0,0,0,0,0,0,0,0,0,-1,1000,785,0,0
-217,239,0,0,0,0,0,0,0,0,0,-1,1007,785,0,0
-210,239,0,0,0,0,0,0,0,0,0,-1,1014,785,0,0
-203,239,0,0,0,0,0,0,0,0,0,-1,1021,785,0,0
-196,239,0,0,0,0,0,0,0,0,0,-1,1028,785,0,0
-189,239,0,0,0,0,0,0,0,0,0,-1,1035,785,0,0
-182,239,0,0,0,0,0,0,0,0,0,-1,1042,785,0,0
-175,239,0,0,0,0,0,0,0,0,0,-1,1049,785,0,0
-168,239,0,0,0,0,0,0,0,0,0,-1,1056,785,0,0
-161,239,0,0,0,0,0,0,0,0,0,-1,1063,785,0,0
-154,239,0,0,0,0,0,0,0,0,0,-1,1070,785,0,0
-147,239,0,0,0,0,0,0,0,0,0,-1,1077,785,0,0
-140,239,0,0,0,0,0,0,0,0,0,-1,1084,785,0,0
-133,239,0,0,0,0,0,0,0,0,0,-1,1091,785,0,0
-126,239,0,0,0,0,0,0,0,0,0,-1,1098,785,0,0
-119,239,0,0,0,0,0,0,0,0,0,-1,1105,785,0,0
-112,239,0,0,0,0,0,0,0,0,0,-1,1112,785,0,0
-105,239,0,0,0,0,0,0,0,0,0,-1,1119,785,0,0
-98,239,0,0,0,0,0,0,0,0,0,-1,1126,785,0,0
-91,239,0,0,0,0,0,0,0,0,0,-1,1133,785,0,0
-84,239,0,0,0,0,0,0,0,0,0,-1,1140,785,0,0
-77,239,0,0,0,0,0,0,0,0,0,-1,1147,785,0,0
-70,239,0,0,0,0,0,0,0,0,0,-1,1154,785,0,0
-63,239,0,0,0,0,0,0,0,0,0,-1,1161,785,0,0
-56,239,0,0,0,0,0,0,0,0,0,-1,1168,785,0,0
-49,239,0,0,0,0,0,0,0,0,0,-1,1175,785,0,0
-42,239,0,0,0,0,0,0,0,0,0,-1,1182,785,0,0
-35,239,0,0,0,0,0,0,0,0,0,-1,1189,785,0,0
-28,239,0,0,0,0,0,0,0,0,0,-1,1196,785,0,0
-21,239,0,0,0,0,0,0,0,0,0,-1,1203,785,0,0
-14,239,0,0,0,0,0,0,0,0,0,-1,1210,785,0,0
-7,239,0,0,0,0,0,0,0,0,0,-1,1217,785,0,0
0,239,0,0,0,0,0,0,0,0,0,-1,1224,785,0,0
7,239,0,0,0,0,0,0,0,0,0,-1,1231,785,0,0
14,239,0,0,0,0,0,0,0,0,0,-1,1238,785,0,0
21,239,0,0,0,0,0,0,0,0,0,-1,1245,785,0,0
28,239,0,0,0,0,0,0,0,0,0,-1,1252,785,0,0
35,239,0,0,0,0,0,0,0,0,0,-1,1259,785,0,0
42,239,0,0,0,0,0,0,0,0,0,-1,1266,785,0,0
49,239,0,0,0,0,0,0,0,0,0,-1,1273,785,0,0
56,239,0,0,0,0,0,0,0,0,0,-1,1280,785,0,0
63,239,0,0,0,0,0,0,0,0,0,-1,1287,785,0,0
70,239,0,0,0,0,0,0,0,0,0,-1,1294,785,0,0
77,239,0,0,0,0,0,0,0,0,0,-1,1301,785,0,0
84,239,0,0,0,0,0,0,0,0,0,-1,1308,785,0,0
91,239,0,0,0,0,0,0,0,0,0,-1,1315,785,0,0
98,239,0,0,0,0,0,0,0,0,0,-1,1322,785,0,0
105,239,0,0,0,0,0,0,0,0,0,-1,1329,785,0,0
112,239,0,0,0,0,0,0,0,0,0,-1,1336,785,0,0
119,239,0,0,0,0,0,0,0,0,0,-1,1343,785,0,0
126,239,0,0,0,0,0,0,0,0,0,-1,1350,785,0,0
133,239,0,0,0,0,0,0,0,0,0,-1,1357,785,0,0
140,239,0,0,0,0,0,0,0,0,0,-1,1364,785,0,0
147,239,0,0,0,0,0,0,0,0,0,-1,1371,785,0,0
154,239,0,0,0,0,0,0,0,0,0,-1,1378,785,0,0
161,239,0,0,0,0,0,0,0,0,0,-1,1385,785,0,0
168,239,0,0,0,0,0,0,0,0,0,-1,1392,785,0,0
175,239,0,0,0,0,0,0,0,0,0,-1,1399,785,0,0
182,239,0,0,0,0,0,0,0,0,0,-1,1406,785,0,0
189,239,0,0,0,0,0,0,0,0,0,-1,1413,785,0,0
196,239,0,0,0,0,0,0,0,0,0,-1,1420,785,0,0
203,239,0,0,0,0,0,0,0,0,0,-1,1427,785,0,0
210,239,0,0,0,0,0,0,0,0,0,-1,1434,785,0,0
217,239,0,0,0,0,0,0,0,0,0,-1,1441,785,0,0
224,239,0,0,0,0,0,0,0,0,0,-1,1448,785,0,0
231,239,0,0,0,0,0,0,0,0,0,-1,1455,785,0,0
238,239,0,0,0,0,0,0,0,0,0,-1,1462,785,0,0
245,239,0,0,0,0,0,0,0,0,0,-1,1469,785,0,0
252,239,0,0,0,0,0,0,0,0,0,-1,1476,785,0,0
259,239,0,0,0,0,0,0,0,0,0,-1,1483,785,0,0
266,239,0,0,0,0,0,0,0,0,0,-1,1490,785,0,0
273,239,0,0,0,0,0,0,0,0,0,-1,1497,785,0,0
280,239,0,0,0,0,0,0,0,0,0,-1,1504,785,0,0
287,239,0,0,0,0,0,0,0,0,0,-1,1511,785,0,0
294,239,0,0,0,0,0,0,0,0,0,-1,1518,785,0,0
301,239,0,0,0,0,0,0,0,0,0,-1,1525,785,0,0
308,239,0,0,0,0,0,0,0,0,0,-1,1532,785,0,0
315,239,0,0,0,0,0,0,0,0,0,-1,1539,785,0,0
322,239,0,0,0,0,0,0,0,0,0,-1,1546,785,0,0
329,239,0,0,0,0,0,0,0,0,0,-1,1553,785,0,0
336,239,0,0,0,0,0,0,0,0,0,-1,1560,785,0,0
343,239,0,0,0,0,0,0,0,0,0,-1,1567,785,0,0
350,239,0,0,0,0,0,0,0,0,0,-1,1574,785,0,0
357,239,0,0,0,0,0,0,0,0,0,-1,1581,785,0,0
364,239,0,0,0,0,0,0,0,0,0,-1,1588,785,0,0
371,239,0,0,0,0,0,0,0,0,0,-1,1595,785,0,0
378,239,0,0,0,0,0,0,0,0,0,-1,1602,785,0,0
385,239,0,0,0,0,0,0,0,0,0,-1,1609,785,0,0
392,239,0,0,0,0,0,0,0,0,0,-1,1616,785,0,0
399,239,0,0,0,0,0,0,0,0,0,-1,1623,785,0,0
406,239,0,0,0,0,0,0,0,0,0,-1,1630,785,0,0
413,239,0,0,0,0,0,0,0,0,0,-1,1637,785,0,0
420,239,0,0,0,0,0,0,0,0,0,-1,1644,785,0,0
427,239,0,0,0,0,0,0,0,0,0,-1,1651,785,0,0
434,239,0,0,0,0,0,0,0,0,0,-1,1658,785,0,0
441,239,0,0,0,0,0,0,0,0,0,-1,1665,785,0,0
448,239,0,0,0,0,0,0,0,0,0,-1,1672,785,0,0
455,239,0,0,0,0,0,0,0,0,0,-1,1679,785,0,0
462,239,0,0,0,0,0,0,0,0,0,-1,1686,785,0,0
469,239,0,0,0,0,0,0,0,0,0,-1,1693,785,0,0
476,239,0,0,0,0,0,0,0,0,0,-1,1700,785,0,0
483,239,0,0,0,0,0,0,0,0,0,-1,1707,785,0,0
490,239,0,0,0,0,0,0,0,0,0,-1,1714,785,0,0
497,239,0,0,0,0,0,0,0,0,0,-1,1721,785,0,0
504,239,0,0,0,0,0,0,0,0,0,-1,1728,785,0,0
511,239,0,0,0,0,0,0,0,0,0,-1,1735,785,0,0
518,239,0,0,0,0,0,0,0,0,0,-1,1742,785,0,0
525,239,0,0,0,0,0,0,0,0,0,-1,1749,785,0,0
532,239,0,0,0,0,0,0,0,0,0,-1,1756,785,0,0
539,239,0,0,0,0,0,0,0,0,0,-1,1763,785,0,0
546,239,0,0,0,0,0,0,0,0,0,-1,1770,785,0,0
553,239,0,0,0,0,0,0,0,0,0,-1,1777,785,0,0
560,239,0,0,0,0,0,0,0,0,0,-1,1784,785,0,0
567,239,0,0,0,0,0,0,0,0,0,-1,1791,785,0,0
574,239,0,0,0,0,0,0,0,0,0,-1,1798,785,0,0
581,239,56.5735,2.65436,0.0187191,-0.000656175,-0.0039103,0.0194785,-0.00141558,-0.191819,0.0134823,0.0372434,1805,785,56.5735,-2.65433
588,239,56.4971,2.72009,0.0163574,0.00111096,0.00238357,0.0167214,0.000747012,0.151521,0.0109071,0.0398768,1812,785,56.4971,-2.72012
595,239,56.6301,2.57086,0.0134651,0.00143721,0.00448057,0.0149507,-4.83794e-05,0.320157,0.00998328,0.0370923,1819,785,56.6301,-2.57088
602,239,56.6787,2.6532,0.010601,0.00128446,0.00481702,0.0126437,-0.000758253,0.401076,0.00869291,0.0435099,1826,785,56.6788,-2.65319
609,239,56.6952,2.78156,0,0,0,0,0,0,0,-1,1833,785,56.6952,-2.78153
616,239,55.8469,3.72443,0,0,0,0,0,0,0,-1,1840,785,55.8469,-3.72445
623,239,56.1724,3.23907,0,0,0,0,0,0,0,-1,1847,785,56.1723,-3.2391
630,239,54.5767,3.64667,0,0,0,0,0,0,0,-1,1854,785,54.5766,-3.64667
637,239,39.5542,2.54114,0,0,0,0,0,0,0,-1,1861,785,39.5543,-2.54114
644,239,18.3466,0.735413,0,0,0,0,0,0,0,-1,1868,785,18.3465,-0.735414
651,239,34.2471,-2.15778,0,0,0,0,0,0,0,-1,1875,785,34.2471,2.1578
658,239,39.308,-2.48663,0,0,0,0,0,0,0,-1,1882,785,39.3079,2.48661
665,239,39.6603,-1.50983,-0.00100673,-0.000531171,-0.000502379,-0.000213142,-0.00132476,-1.00643,0.000821397,0.0264932,1889,785,39.6603,1.50984
672,239,39.6489,-0.813354,-0.0011086,-0.000520654,-0.000673558,-7.97134e-05,-0.00154954,-0.991163,0.00100751,0.0214732,1896,785,39.649,0.813352
679,239,39.5986,-0.0995483,-0.000910207,-0.000396609,-0.00063652,3.29618e-05,-0.00133978,-0.977133,0.000904373,0.0225214,1903,785,39.5986,0.0995381
686,239,39.5685,0.603088,-0.000330403,9.42131e-05,-0.000353229,0.000294028,-0.000530218,-1.05599,0.000482347,0.0232359,1910,785,39.5684,-0.603069
693,239,39.5737,1.1825,0.000711845,0.000725158,0.000343458,0.00106202,0.000374979,0.795087,0.000621921,0.0156768,1917,785,39.5737,-1.18247
700,239,39.5598,1.83655,0.0021038,0.0012486,0.00133038,0.0030736,0.00027879,0.629907,0.00196275,0.0119721,1924,785,39.5598,-1.83654
707,239,39.5275,2.5174,0.00372316,0.00196299,0.00252387,0.00551599,0.000170158,0.617638,0.00362194,0.0112066,1931,785,39.5275,-2.51739
714,239,39.5042,3.1839,0.00572457,0.00316973,0.00364276,0.00830739,0.000586905,0.61676,0.00535336,0.0107419,1938,785,39.5041,-3.18387
721,239,39.4266,3.87329,0.00801107,0.00421154,0.00503751,0.0114951,0.000727477,0.605083,0.00743281,0.0239935,1945,785,39.4267,-3.87332
728,239,39.3307,4.6825,0.01062,0.00527901,0.006181,0.0146828,0.00121629,0.581484,0.00940932,0.0462815,1952,785,39.3307,-4.68249
735,239,39.496,5.65967,0,0,0,0,0,0,0,-1,1959,785,39.496,-5.65966
742,239,32.4141,7.6665,0,0,0,0,0,0,0,-1,1966,785,32.4141,-7.6665
749,239,32.1489,3.4411,0,0,0,0,0,0,0,-1,1973,785,32.149,-3.44109
756,239,32.9064,3.6687,0,0,0,0,0,0,0,-1,1980,785,32.9063,-3.66873
763,239,0,0,0,0,0,0,0,0,0,-1,1987,785,0,0
770,239,0,0,0,0,0,0,0,0,0,-1,1994,785,0,0
777,239,0,0,0,0,0,0,0,0,0,-1,2001,785,0,0
784,239,0,0,0,0,0,0,0,0,0,-1,2008,785,0,0
791,239,0,0,0,0,0,0,0,0,0,-1,2015,785,0,0
798,239,0,0,0,0,0,0,0,0,0,-1,2022,785,0,0
805,239,0,0,0,0,0,0,0,0,0,-1,2029,785,0,0
812,239,0,0,0,0,0,0,0,0,0,-1,2036,785,0,0
-700,232,0,0,0,0,0,0,0,0,0,-1,524,792,0,0
-693,232,0,0,0,0,0,0,0,0,0,-1,531,792,0,0
-686,232,0,0,0,0,0,0,0,0,0,-1,538,792,0,0
-679,232,0,0,0,0,0,0,0,0,0,-1,545,792,0,0
-672,232,0,0,0,0,0,0,0,0,0,-1,552,792,0,0
-665,232,0,0,0,0,0,0,0,0,0,-1,559,792,0,0
-658,232,0,0,0,0,0,0,0,0,0,-1,566,792,0,0
-651,232,0,0,0,0,0,0,0,0,0,-1,573,792,0,0
-644,232,-31.7343,6.23914,0,0,0,0,0,0,0,-1,580,792,-31.7343,-6.23911
-637,232,-30.1556,5.06824,0,0,0,0,0,0,0,-1,587,792,-30.1556,-5.06823
-630,232,-32.2345,1.80212,0,0,0,0,0,0,0,-1,594,792,-32.2345,-1.80211
-623,232,-31.5665,1.05115,0,0,0,0,0,0,0,-1,601,792,-31.5664,-1.05112
-616,232,-30.6812,0.432861,0,0,0,0,0,0,0,-1,608,792,-30.6812,-0.432881
-609,232,-29.7142,-0.478943,0,0,0,0,0,0,0,-1,615,792,-29.7142,0.478965
-602,232,-27.5908,3.62183,0,0,0,0,0,0,0,-1,622,792,-27.5908,-3.62185
-595,232,-27.6094,2.53979,0.00346913,0.012064,-0.0103016,0.0189286,-0.00339547,-0.983004,0.0138899,0.0386583,629,792,-27.6094,-2.5398
-588,232,-27.6899,1.46039,0.00281101,0.00918565,-0.00757803,0.0142194,-0.00222272,-0.984467,0.0103007,0.0138031,636,792,-27.6899,-1.46036
-581,232,-27.7397,0.706116,0.00193135,0.00684588,-0.00519168,0.0101325,-0.00135522,-1.00643,0.00724906,0.00860877,643,792,-27.7397,-0.706086
-574,232,-27.7533,0.0615845,0.000648451,0.00472039,-0.0031152,0.00640594,-0.00103709,-1.07484,0.00465499,0.00878656,650,792,-27.7533,-0.0615569
-567,232,-27.7988,-0.586853,-0.000786504,0.00279015,-0.00123065,0.00317268,-0.00116903,-1.26943,0.00259414,0.0109369,657,792,-27.7988,0.586875
-560,232,-27.8347,-1.21722,-0.00226118,0.00116262,0.00049496,0.00123274,-0.00233129,1.43007,0.00209002,0.0153702,664,792,-27.8347,1.21721
-553,232,-27.877,-1.84662,-0.0037684,-0.00025217,0.00214155,0.000760494,-0.00478106,1.12909,0.00346877,0.0142721,671,792,-27.877,1.8466
-546,232,-27.9208,-2.49652,-0.0045537,-0.000441973,0.00307577,0.00120175,-0.00619742,1.08,0.00458499,0.0211509,678,792,-27.9208,2.49655
-539,232,-28.0643,-3.05463,-0.00497397,-0.00012555,0.00332981,0.00156903,-0.00666855,1.10004,0.00505061,0.0334573,685,792,-28.0643,3.05463
-532,232,-28.2803,-3.64673,-0.00467455,0.000489639,0.00299735,0.00186372,-0.00604863,1.14095,0.00477644,0.0358456,692,792,-28.2803,3.64674
-525,232,-28.347,-4.31433,0,0,0,0,0,0,0,-1,699,792,-28.347,4.31432
-518,232,-20.8098,-3.08154,0,0,0,0,0,0,0,-1,706,792,-20.8098,3.08155
-511,232,-21.6708,-0.962708,0,0,0,0,0,0,0,-1,713,792,-21.6708,0.962731
-504,232,-34.2155,0.346985,0,0,0,0,0,0,0,-1,720,792,-34.2155,-0.346955
-497,232,-42.3885,1.28638,0,0,0,0,0,0,0,-1,727,792,-42.3885,-1.28638
-490,232,-42.5613,1.11859,-0.00144366,0.00768749,-0.00124203,0.00785342,-0.00160959,-1.43799,0.00584647,0.0469723,734,792,-42.5613,-1.1186
-483,232,-42.743,0.977234,-0.000698647,0.0102203,-0.00278143,0.010888,-0.00136635,-1.3352,0.00775433,0.0429288,741,792,-42.743,-0.977215
-476,232,-42.7526,0.837708,-0.000221484,0.0131494,-0.00436842,0.0144501,-0.00152217,-1.28141,0.0101788,0.0367903,748,792,-42.7526,-0.83771
-469,232,-42.7582,0.837402,0.000452562,0.0155429,-0.00550622,0.0173384,-0.00134293,-1.25558,0.0120316,0.0355525,755,792,-42.7582,-0.83742
-462,232,0,0,0,0,0,0,0,0,0,-1,762,792,0,0
-455,232,0,0,0,0,0,0,0,0,0,-1,769,792,0,0
-448,232,0,0,0,0,0,0,0,0,0,-1,776,792,0,0
-441,232,0,0,0,0,0,0,0,0,0,-1,783,792,0,0
-434,232,0,0,0,0,0,0,0,0,0,-1,790,792,0,0
-427,232,0,0,0,0,0,0,0,0,0,-1,797,792,0,0
-420,232,0,0,0,0,0,0,0,0,0,-1,804,792,0,0
-413,232,0,0,0,0,0,0,0,0,0,-1,811,792,0,0
-406,232,0,0,0,0,0,0,0,0,0,-1,818,792,0,0
-399,232,0,0,0,0,0,0,0,0,0,-1,825,792,0,0
-392,232,0,0,0,0,0,0,0,0,0,-1,832,792,0,0
-385,232,0,0,0,0,0,0,0,0,0,-1,839,792,0,0
-378,232,0,0,0,0,0,0,0,0,0,-1,846,792,0,0
-371,232,0,0,0,0,0,0,0,0,0,-1,853,792,0,0
-364,232,0,0,0,0,0,0,0,0,0,-1,860,792,0,0
-357,232,0,0,0,0,0,0,0,0,0,-1,867,792,0,0
-350,232,0,0,0,0,0,0,0,0,0,-1,874,792,0,0
-343,232,0,0,0,0,0,0,0,0,0,-1,881,792,0,0
-336,232,0,0,0,0,0,0,0,0,0,-1,888,792,0,0
-329,232,0,0,0,0,0,0,0,0,0,-1,895,792,0,0
-322,232,0,0,0,0,0,0,0,0,0,-1,902,792,0,0
-315,232,0,0,0,0,0,0,0,0,0,-1,909,792,0,0
-308,232,0,0,0,0,0,0,0,0,0,-1,916,792,0,0
-301,232,0,0,0,0,0,0,0,0,0,-1,923,792,0,0
-294,232,0,0,0,0,0,0,0,0,0,-1,930,792,0,0
-287,232,0,0,0,0,0,0,0,0,0,-1,937,792,0,0
-280,232,0,0,0,0,0,0,0,0,0,-1,944,792,0,0
-273,232,0,0,0,0,0,0,0,0,0,-1,951,792,0,0
-266,232,0,0,0,0,0,0,0,0,0,-1,958,792,0,0
-259,232,0,0,0,0,0,0,0,0,0,-1,965,792,0,0
-252,232,0,0,0,0,0,0,0,0,0,-1,972,792,0,0
-245,232,0,0,0,0,0,0,0,0,0,-1,979,792,0,0
-238,232,0,0,0,0,0,0,0,0,0,-1,986,792,0,0
-231,232,0,0,0,0,0,0,0,0,0,-1,993,792,0,0
-224,232,0,0,0,0,0,0,0,0,0,-1,1000,792,0,0
-217,232,0,0,0,0,0,0,0,0,0,-1,1007,792,0,0
-210,232,0,0,0,0,0,0,0,0,0,-1,1014,792,0,0
-203,232,0,0,0,0,0,0,0,0,0,-1,1021,792,0,0
-196,232,0,0,0,0,0,0,0,0,0,-1,1028,792,0,0
-189,232,0,0,0,0,0,0,0,0,0,-1,1035,792,0,0
-182,232,0,0,0,0,0,0,0,0,0,-1,1042,792,0,0
-175,232,0,0,0,0,0,0,0,0,0,-1,1049,792,0,0
-168,232,0,0,0,0,0,0,0,0,0,-1,1056,792,0,0
-161,232,0,0,0,0,0,0,0,0,0,-1,1063,792,0,0
-154,232,0,0,0,0,0,0,0,0,0,-1,1070,792,0,0
-147,232,0,0,0,0,0,0,0,0,0,-1,1077,792,0,0
-140,232,0,0,0,0,0,0,0,0,0,-1,1084,792,0,0
-133,232,0,0,0,0,0,0,0,0,0,-1,1091,792,0,0
-126,232,0,0,0,0,0,0,0,0,0,-1,1098,792,0,0
-119,232,0,0,0,0,0,0,0,0,0,-1,1105,792,0,0
-112,232,0,0,0,0,0,0,0,0,0,-1,1112,792,0,0
-105,232,0,0,0,0,0,0,0,0,0,-1,1119,792,0,0
-98,232,0,0,0,0,0,0,0,0,0,-1,1126,792,0,0
-91,232,0,0,0,0,0,0,0,0,0,-1,1133,792,0,0
-84,232,0,0,0,0,0,0,0,0,0,-1,1140,792,0,0
-77,232,0,0,0,0,0,0,0,0,0,-1,1147,792,0,0
-70,232,0,0,0,0,0,0,0,0,0,-1,1154,792,0,0
-63,232,0,0,0,0,0,0,0,0,0,-1,1161,792,0,0
-56,232,0,0,0,0,0,0,0,0,0,-1,1168,792,0,0
-49,232,0,0,0,0,0,0,0,0,0,-1,1175,792,0,0
-42,232,0,0,0,0,0,0,0,0,0,-1,1182,792,0,0
-35,232,0,0,0,0,0,0,0,0,0,-1,1189,792,0,0
-28,232,0,0,0,0,0,0,0,0,0,-1,1196,792,0,0
-21,232,0,0,0,0,0,0,0,0,0,-1,1203,792,0,0
-14,232,0,0,0,0,0,0,0,0,0,-1,1210,792,0,0
-7,232,0,0,0,0,0,0,0,0,0,-1,1217,792,0,0
0,232,0,0,0,0,0,0,0,0,0,-1,1224,792,0,0
7,232,0,0,0,0,0,0,0,0,0,-1,1231,792,0,0
14,232,0,0,0,0,0,0,0,0,0,-1,1238,792,0,0
21,232,0,0,0,0,0,0,0,0,0,-1,1245,792,0,0
28,232,0,0,0,0,0,0,0,0,0,-1,1252,792,0,0
35,232,0,0,0,0,0,0,0,0,0,-1,1259,792,0,0
42,232,0,0,0,0,0,0,0,0,0,-1,1266,792,0,0
49,232,0,0,0,0,0,0,0,0,0,-1,1273,792,0,0
56,232,0,0,0,0,0,0,0,0,0,-1,1280,792,0,0
63,232,0,0,0,0,0,0,0,0,0,-1,1287,792,0,0
70,232,0,0,0,0,0,0,0,0,0,-1,1294,792,0,0
77,232,0,0,0,0,0,0,0,0,0,-1,1301,792,0,0
84,232,0,0,0,0,0,0,0,0,0,-1,1308,792,0,0
91,232,0,0,0,0,0,0,0,0,0,-1,1315,792,0,0
98,232,0,0,0,0,0,0,0,0,0,-1,1322,792,0,0
105,232,0,0,0,0,0,0,0,0,0,-1,1329,792,0,0
112,232,0,0,0,0,0,0,0,0,0,-1,1336,792,0,0
119,232,0,0,0,0,0,0,0,0,0,-1,1343,792,0,0
126,232,0,0,0,0,0,0,0,0,0,-1,1350,792,0,0
133,232,0,0,0,0,0,0,0,0,0,-1,1357,792,0,0
140,232,0,0,0,0,0,0,0,0,0,-1,1364,792,0,0
147,232,0,0,0,0,0,0,0,0,0,-1,1371,792,0,0
154,232,0,0,0,0,0,0,0,0,0,-1,1378,792,0,0
161,232,0,0,0,0,0,0,0,0,0,-1,1385,792,0,0
168,232,0,0,0,0,0,0,0,0,0,-1,1392,792,0,0
175,232,0,0,0,0,0,0,0,0,0,-1,1399,792,0,0
182,232,0,0,0,0,0,0,0,0,0,-1,1406,792,0,0
189,232,0,0,0,0,0,0,0,0,0,-1,1413,792,0,0
196,232,0,0,0,0,0,0,0,0,0,-1,1420,792,0,0
203,232,0,0,0,0,0,0,0,0,0,-1,1427,792,0,0
210,232,0,0,0,0,0,0,0,0,0,-1,1434,792,0,0
217,232,0,0,0,0,0,0,0,0,0,-1,1441,792,0,0
224,232,0,0,0,0,0,0,0,0,0,-1,1448,792,0,0
231,232,0,0,0,0,0,0,0,0,0,-1,1455,792,0,0
238,232,0,0,0,0,0,0,0,0,0,-1,1462,792,0,0
245,232,0,0,0,0,0,0,0,0,0,-1,1469,792,0,0
252,232,0,0,0,0,0,0,0,0,0,-1,1476,792,0,0
259,232,0,0,0,0,0,0,0,0,0,-1,1483,792,0,0
266,232,0,0,0,0,0,0,0,0,0,-1,1490,792,0,0
273,232,0,0,0,0,0,0,0,0,0,-1,1497,792,0,0
280,232,0,0,0,0,0,0,0,0,0,-1,1504,792,0,0
287,232,0,0,0,0,0,0,0,0,0,-1,1511,792,0,0
294,232,0,0,0,0,0,0,0,0,0,-1,1518,792,0,0
301,232,0,0,0,0,0,0,0,0,0,-1,1525,792,0,0
308,232,0,0,0,0,0,0,0,0,0,-1,1532,792,0,0
315,232,0,0,0,0,0,0,0,0,0,-1,1539,792,0,0
322,232,0,0,0,0,0,0,0,0,0,-1,1546,792,0,0
329,232,0,0,0,0,0,0,0,0,0,-1,1553,792,0,0
336,232,0,0,0,0,0,0,0,0,0,-1,1560,792,0,0
343,232,0,0,0,0,0,0,0,0,0,-1,1567,792,0,0
350,232,0,0,0,0,0,0,0,0,0,-1,1574,792,0,0
357,232,0,0,0,0,0,0,0,0,0,-1,1581,792,0,0
364,232,0,0,0,0,0,0,0,0,0,-1,1588,792,0,0
371,232,0,0,0,0,0,0,0,0,0,-1,1595,792,0,0
378,232,0,0,0,0,0,0,0,0,0,-1,1602,792,0,0
385,232,0,0,0,0,0,0,0,0,0,-1,1609,792,0,0
392,232,0,0,0,0,0,0,0,0,0,-1,1616,792,0,0
399,232,0,0,0,0,0,0,0,0,0,-1,1623,792,0,0
406,232,0,0,0,0,0,0,0,0,0,-1,1630,792,0,0
413,232,0,0,0,0,0,0,0,0,0,-1,1637,792,0,0
420,232,0,0,0,0,0,0,0,0,0,-1,1644,792,0,0
427,232,0,0,0,0,0,0,0,0,0,-1,1651,792,0,0
434,232,0,0,0,0,0,0,0,0,0,-1,1658,792,0,0
441,232,0,0,0,0,0,0,0,0,0,-1,1665,792,0,0
448,232,0,0,0,0,0,0,0,0,0,-1,1672,792,0,0
455,232,0,0,0,0,0,0,0,0,0,-1,1679,792,0,0
462,232,0,0,0,0,0,0,0,0,0,-1,1686,792,0,0
469,232,0,0,0,0,0,0,0,0,0,-1,1693,792,0,0
476,232,0,0,0,0,0,0,0,0,0,-1,1700,792,0,0
483,232,0,0,0,0,0,0,0,0,0,-1,1707,792,0,0
490,232,0,0,0,0,0,0,0,0,0,-1,1714,792,0,0
497,232,0,0,0,0,0,0,0,0,0,-1,1721,792,0,0
504,232,0,0,0,0,0,0,0,0,0,-1,1728,792,0,0
511,232,0,0,0,0,0,0,0,0,0,-1,1735,792,0,0
518,232,0,0,0,0,0,0,0,0,0,-1,1742,792,0,0
525,232,0,0,0,0,0,0,0,0,0,-1,1749,792,0,0
532,232,0,0,0,0,0,0,0,0,0,-1,1756,792,0,0
539,232,0,0,0,0,0,0,0,0,0,-1,1763,792,0,0
546,232,0,0,0,0,0,0,0,0,0,-1,1770,792,0,0
553,232,0,0,0,0,0,0,0,0,0,-1,1777,792,0,0
560,232,0,0,0,0,0,0,0,0,0,-1,1784,792,0,0
567,232,0,0,0,0,0,0,0,0,0,-1,1791,792,0,0
574,232,0,0,0,0,0,0,0,0,0,-1,1798,792,0,0
581,232,0,0,0,0,0,0,0,0,0,-1,1805,792,0,0
588,232,56.4226,2.80896,0.0139192,-0.000680545,-0.000343938,0.0139273,-0.000688643,-0.0235404,0.00952273,0.0397586,1812,792,56.4226,-2.80894
595,232,56.5455,2.61823,0.0116279,0.000337881,0.00273554,0.0122558,-0.000290013,0.225624,0.00826891,0.0388115,1819,792,56.5455,-2.6182
602,232,56.5284,2.59222,0.0091835,0.000723671,0.00376655,0.0106174,-0.000710251,0.363758,0.00732652,0.0375989,1826,792,56.5284,-2.59225
609,232,56.5792,2.67133,0.00708955,0.000789086,0.00387365,0.00893222,-0.00105359,0.444015,0.00633528,0.0457615,1833,792,56.5792,-2.67135
616,232,56.6071,2.7334,0,0,0,0,0,0,0,-1,1840,792,56.607,-2.73337
623,232,56.3602,2.98865,0,0,0,0,0,0,0,-1,1847,792,56.3602,-2.98863
630,232,56.5376,2.90778,0,0,0,0,0,0,0,-1,1854,792,56.5376,-2.90779
637,232,47.0471,4.04309,0,0,0,0,0,0,0,-1,1861,792,47.0471,-4.04309
644,232,30.7756,4.24139,0,0,0,0,0,0,0,-1,1868,792,30.7757,-4.24141
651,232,31.6797,-0.564087,0,0,0,0,0,0,0,-1,1875,792,31.6797,0.564059
658,232,40.6125,-2.08624,0,0,0,0,0,0,0,-1,1882,792,40.6125,2.08627
665,232,40.3934,-1.45709,-0.00133052,-0.000515964,-0.000698273,-0.000114872,-0.00173161,-1.04941,0.00111808,0.0340082,1889,792,40.3934,1.4571
672,232,40.2611,-0.760925,-0.00158534,-0.000578454,-0.000954379,-2.87395e-06,-0.00216092,-1.0281,0.00143966,0.0373875,1896,792,40.2611,0.7609
679,232,40.2734,-0.0375366,-0.00154882,-0.000615777,-0.00103876,5.64103e-05,-0.00222101,-0.996457,0.00149983,0.0206588,1903,792,40.2734,0.0375308
686,232,40.2683,0.650574,-0.00111646,-0.000278971,-0.000905604,0.000300016,-0.00169544,-1.00195,0.00124243,0.0193374,1910,792,40.2683,-0.650576
693,232,40.2548,1.23193,-0.000107449,0.0002285,-0.000296353,0.000401173,-0.000280122,-1.04323,0.00039541,0.0110849,1917,792,40.2547,-1.23193
700,232,40.2319,1.883,0.0013955,0.00067447,0.000647743,0.0017763,0.000293675,0.53146,0.00109946,0.0127078,1924,792,40.232,-1.88299
707,232,40.2021,2.54852,0.00329079,0.00134265,0.00174993,0.00431949,0.000313952,0.531437,0.00278092,0.0122555,1931,792,40.2022,-2.54851
714,232,40.1799,3.1806,0.00552594,0.00252658,0.00265666,0.00707698,0.000975542,0.528445,0.00442877,0.0129777,1938,792,40.18,-3.18062
721,232,40.1311,3.86255,0.00811493,0.00355499,0.00377925,0.0102487,0.00142124,0.513982,0.00641143,0.0221803,1945,792,40.1311,-3.86253
728,232,40.0458,4.61511,0,0,0,0,0,0,0,-1,1952,792,40.0458,-4.61511
735,232,39.8275,5.70605,0,0,0,0,0,0,0,-1,1959,792,39.8275,-5.70606
742,232,25.6461,6.00684,0,0,0,0,0,0,0,-1,1966,792,25.6461,-6.00684
749,232,31.2874,3.74713,0,0,0,0,0,0,0,-1,1973,792,31.2874,-3.74713
756,232,32.1207,3.896,0,0,0,0,0,0,0,-1,1980,792,32.1207,-3.89597
763,232,32.7255,4.05878,0,0,0,0,0,0,0,-1,1987,792,32.7255,-4.05881
770,232,0,0,0,0,0,0,0,0,0,-1,1994,792,0,0
777,232,0,0,0,0,0,0,0,0,0,-1,2001,792,0,0
784,232,0,0,0,0,0,0,0,0,0,-1,2008,792,0,0
791,232,0,0,0,0,0,0,0,0,0,-1,2015,792,0,0
798,232,0,0,0,0,0,0,0,0,0,-1,2022,792,0,0
805,232,0,0,0,0,0,0,0,0,0,-1,2029,792,0,0
812,232,0,0,0,0,0,0,0,0,0,-1,2036,792,0,0
-700,225,0,0,0,0,0,0,0,0,0,-1,524,799,0,0
-693,225,0,0,0,0,0,0,0,0,0,-1,531,799,0,0
-686,225,0,0,0,0,0,0,0,0,0,-1,538,799,0,0
-679,225,0,0,0,0,0,0,0,0,0,-1,545,799,0,0
-672,225,0,0,0,0,0,0,0,0,0,-1,552,799,0,0
-665,225,0,0,0,0,0,0,0,0,0,-1,559,799,0,0
-658,225,0,0,0,0,0,0,0,0,0,-1,566,799,0,0
-651,225,0,0,0,0,0,0,0,0,0,-1,573,799,0,0
-644,225,-31.6232,6.26855,0,0,0,0,0,0,0,-1,580,799,-31.6231,-6.26854
-637,225,-31.4901,6.06842,0,0,0,0,0,0,0,-1,587,799,-31.4901,-6.06839
-630,225,-29.8912,5.02606,0,0,0,0,0,0,0,-1,594,799,-29.8912,-5.02606
-623,225,-32.8276,-0.00836182,0,0,0,0,0,0,0,-1,601,799,-32.8276,0.00837668
-616,225,-32.0569,-0.549255,0,0,0,0,0,0,0,-1,608,799,-32.0569,0.549265
-609,225,-27.8046,3.35376,0,0,0,0,0,0,0,-1,615,799,-27.8046,-3.35376
-602,225,-28.5187,3.02991,0,0,0,0,0,0,0,-1,622,799,-28.5187,-3.02994
-595,225,-28.4415,2.18225,0.00203935,0.0107092,-0.00966173,0.0169639,-0.00421538,-0.996271,0.0129452,0.0319289,629,799,-28.4415,-2.18226
-588,225,-28.3837,1.35693,0.00177154,0.00803834,-0.00675663,0.0123528,-0.00254289,-1.00251,0.00920071,0.0130461,636,799,-28.3838,-1.35693
-581,225,-28.3911,0.71344,0.00113455,0.00583101,-0.00432573,0.00840478,-0.00143923,-1.03407,0.00613942,0.0105333,643,799,-28.3911,-0.713451
-574,225,-28.4079,0.0880127,-4.15823e-05,0.003811,-0.00226276,0.00485636,-0.00108694,-1.13802,0.00365417,0.00898123,650,799,-28.4079,-0.0880384
-567,225,-28.4442,-0.563599,-0.00150566,0.00209085,-0.000473403,0.00215211,-0.00156693,-1.44209,0.00215604,0.0120412,657,799,-28.4442,0.563599
-560,225,-28.4861,-1.18433,-0.00296844,0.000819857,0.00119301,0.00116425,-0.00331284,1.28976,0.00268223,0.0139649,664,799,-28.4861,1.18433
-553,225,-28.5178,-1.83362,-0.00444328,9.70924e-05,0.00276716,0.00140614,-0.00575232,1.12893,0.0043795,0.012698,671,799,-28.5178,1.83361
-546,225,-28.5399,-2.44836,-0.0049712,0.000773993,0.00345626,0.00239556,-0.00659277,1.13212,0.0053747,0.0221402,678,799,-28.5399,2.44839
-539,225,-28.5938,-3.01831,-0.00508308,0.00171669,0.00347206,0.00317628,-0.00654266,1.17285,0.00572233,0.0492377,685,799,-28.5938,3.01831
-532,225,-28.8433,-3.54572,-0.00462495,0.00252828,0.00309668,0.00368259,-0.00577925,1.21399,0.00550732,0.0497743,692,799,-28.8433,3.54569
-525,225,-29.1705,-3.88239,0,0,0,0,0,0,0,-1,699,799,-29.1705,3.88237
-518,225,-21.963,0.171326,0,0,0,0,0,0,0,-1,706,799,-21.9629,-0.171319
-511,225,-33.0002,0.660217,0,0,0,0,0,0,0,-1,713,799,-33.0002,-0.660239
-504,225,-42.5437,1.32184,0,0,0,0,0,0,0,-1,720,799,-42.5437,-1.32185
-497,225,-42.5784,1.13306,-0.00220438,0.00759525,0.000314345,0.00760532,-0.00221446,1.53876,0.00594741,0.0451657,727,799,-42.5784,-1.13307
-490,225,-42.6547,0.992554,-0.00142092,0.00873701,-0.000961541,0.00882723,-0.00151114,-1.47724,0.00644783,0.0391422,734,799,-42.6547,-0.992559
-483,225,-42.7461,0.866882,-0.000547287,0.0103998,-0.00262913,0.0109985,-0.00114598,-1.3469,0.00774263,0.0334394,741,799,-42.7461,-0.866877
-476,225,-42.7734,0.768127,0.000247244,0.0122616,-0.00445407,0.0137327,-0.00122388,-1.25179,0.00958914,0.0323451,748,799,-42.7735,-0.768147
-469,225,-42.7953,0.750427,0.00144855,0.0132909,-0.00583621,0.0156836,-0.000944223,-1.18171,0.0107843,0.0362929,755,799,-42.7953,-0.750398
-462,225,0,0,0,0,0,0,0,0,0,-1,762,799,0,0
-455,225,0,0,0,0,0,0,0,0,0,-1,769,799,0,0
-448,225,0,0,0,0,0,0,0,0,0,-1,776,799,0,0
-441,225,0,0,0,0,0,0,0,0,0,-1,783,799,0,0
-434,225,0,0,0,0,0,0,0,0,0,-1,790,799,0,0
-427,225,0,0,0,0,0,0,0,0,0,-1,797,799,0,0
-420,225,0,0,0,0,0,0,0,0,0,-1,804,799,0,0
-413,225,0,0,0,0,0,0,0,0,0,-1,811,799,0,0
-406,225,0,0,0,0,0,0,0,0,0,-1,818,799,0,0
-399,225,0,0,0,0,0,0,0,0,0,-1,825,799,0,0
-392,225,0,0,0,0,0,0,0,0,0,-1,832,799,0,0
-385,225,0,0,0,0,0,0,0,0,0,-1,839,799,0,0
-378,225,0,0,0,0,0,0,0,0,0,-1,846,799,0,0
-371,225,0,0,0,0,0,0,0,0,0,-1,853,799,0,0
-364,225,0,0,0,0,0,0,0,0,0,-1,860,799,0,0
-357,225,0,0,0,0,0,0,0,0,0,-1,867,799,0,0
-350,225,0,0,0,0,0,0,0,0,0,-1,874,799,0,0
-343,225,0,0,0,0,0,0,0,0,0,-1,881,799,0,0
-336,225,0,0,0,0,0,0,0,0,0,-1,888,799,0,0
-329,225,0,0,0,0,0,0,0,0,0,-1,895,799,0,0
-322,225,0,0,0,0,0,0,0,0,0,-1,902,799,0,0
-315,225,0,0,0,0,0,0,0,0,0,-1,909,799,0,0
-308,225,0,0,0,0,0,0,0,0,0,-1,916,799,0,0
-301,225,0,0,0,0,0,0,0,0,0,-1,923,799,0,0
-294,225,0,0,0,0,0,0,0,0,0,-1,930,799,0,0
-287,225,0,0,0,0,0,0,0,0,0,-1,937,799,0,0
-280,225,0,0,0,0,0,0,0,0,0,-1,944,799,0,0
-273,225,0,0,0,0,0,0,0,0,0,-1,951,799,0,0
-266,225,0,0,0,0,0,0,0,0,0,-1,958,799,0,0
-259,225,0,0,0,0,0,0,0,0,0,-1,965,799,0,0
-252,225,0,0,0,0,0,0,0,0,0,-1,972,799,0,0
-245,225,0,0,0,0,0,0,0,0,0,-1,979,799,0,0
-238,225,0,0,0,0,0,0,0,0,0,-1,986,799,0,0
-231,225,0,0,0,0,0,0,0,0,0,-1,993,799,0,0
-224,225,0,0,0,0,0,0,0,0,0,-1,1000,799,0,0
-217,225,0,0,0,0,0,0,0,0,0,-1,1007,799,0,0
-210,225,0,0,0,0,0,0,0,0,0,-1,1014,799,0,0
-203,225,0,0,0,0,0,0,0,0,0,-1,1021,799,0,0
-196,225,0,0,0,0,0,0,0,0,0,-1,1028,799,0,0
-189,225,0,0,0,0,0,0,0,0,0,-1,1035,799,0,0
-182,225,0,0,0,0,0,0,0,0,0,-1,1042,799,0,0
-175,225,0,0,0,0,0,0,0,0,0,-1,1049,799,0,0
-168,225,0,0,0,0,0,0,0,0,0,-1,1056,799,0,0
-161,225,0,0,0,0,0,0,0,0,0,-1,1063,799,0,0
-154,225,0,0,0,0,0,0,0,0,0,-1,1070,799,0,0
-147,225,0,0,0,0,0,0,0,0,0,-1,1077,799,0,0
-140,225,0,0,0,0,0,0,0,0,0,-1,1084,799,0,0
-133,225,0,0,0,0,0,0,0,0,0,-1,1091,799,0,0
-126,225,0,0,0,0,0,0,0,0,0,-1,1098,799,0,0
-119,225,0,0,0,0,0,0,0,0,0,-1,1105,799,0,0
-112,225,0,0,0,0,0,0,0,0,0,-1,1112,799,0,0
-105,225,0,0,0,0,0,0,0,0,0,-1,1119,799,0,0
-98,225,0,0,0,0,0,0,0,0,0,-1,1126,799,0,0
-91,225,0,0,0,0,0,0,0,0,0,-1,1133,799,0,0
-84,225,0,0,0,0,0,0,0,0,0,-1,1140,799,0,0
-77,225,0,0,0,0,0,0,0,0,0,-1,1147,799,0,0
-70,225,0,0,0,0,0,0,0,0,0,-1,1154,799,0,0
-63,225,0,0,0,0,0,0,0,0,0,-1,1161,799,0,0
-56,225,0,0,0,0,0,0,0,0,0,-1,1168,799,0,0
-49,225,0,0,0,0,0,0,0,0,0,-1,1175,799,0,0
-42,225,0,0,0,0,0,0,0,0,0,-1,1182,799,0,0
-35,225,0,0,0,0,0,0,0,0,0,-1,1189,799,0,0
-28,225,0,0,0,0,0,0,0,0,0,-1,1196,799,0,0
-21,225,0,0,0,0,0,0,0,0,0,-1,1203,799,0,0
-14,225,0,0,0,0,0,0,0,0,0,-1,1210,799,0,0
-7,225,0,0,0,0,0,0,0,0,0,-1,1217,799,0,0
0,225,0,0,0,0,0,0,0,0,0,-1,1224,799,0,0
7,225,0,0,0,0,0,0,0,0,0,-1,1231,799,0,0
14,225,0,0,0,0,0,0,0,0,0,-1,1238,799,0,0
21,225,0,0,0,0,0,0,0,0,0,-1,1245,799,0,0
28,225,0,0,0,0,0,0,0,0,0,-1,1252,799,0,0
35,225,0,0,0,0,0,0,0,0,0,-1,1259,799,0,0
42,225,0,0,0,0,0,0,0,0,0,-1,1266,799,0,0
49,225,0,0,0,0,0,0,0,0,0,-1,1273,799,0,0
56,225,0,0,0,0,0,0,0,0,0,-1,1280,799,0,0
63,225,0,0,0,0,0,0,0,0,0,-1,1287,799,0,0
70,225,0,0,0,0,0,0,0,0,0,-1,1294,799,0,0
77,225,0,0,0,0,0,0,0,0,0,-1,1301,799,0,0
84,225,0,0,0,0,0,0,0,0,0,-1,1308,799,0,0
91,225,0,0,0,0,0,0,0,0,0,-1,1315,799,0,0
98,225,0,0,0,0,0,0,0,0,0,-1,1322,799,0,0
105,225,0,0,0,0,0,0,0,0,0,-1,1329,799,0,0
112,225,0,0,0,0,0,0,0,0,0,-1,1336,799,0,0
119,225,0,0,0,0,0,0,0,0,0,-1,1343,799,0,0
126,225,0,0,0,0,0,0,0,0,0,-1,1350,799,0,0
133,225,0,0,0,0,0,0,0,0,0,-1,1357,799,0,0
140,225,0,0,0,0,0,0,0,0,0,-1,1364,799,0,0
147,225,0,0,0,0,0,0,0,0,0,-1,1371,799,0,0
154,225,0,0,0,0,0,0,0,0,0,-1,1378,799,0,0
161,225,0,0,0,0,0,0,0,0,0,-1,1385,799,0,0
168,225,0,0,0,0,0,0,0,0,0,-1,1392,799,0,0
175,225,0,0,0,0,0,0,0,0,0,-1,1399,799,0,0
182,225,0,0,0,0,0,0,0,0,0,-1,1406,799,0,0
189,225,0,0,0,0,0,0,0,0,0,-1,1413,799,0,0
196,225,0,0,0,0,0,0,0,0,0,-1,1420,799,0,0
203,225,0,0,0,0,0,0,0,0,0,-1,1427,799,0,0
210,225,0,0,0,0,0,0,0,0,0,-1,1434,799,0,0
217,225,0,0,0,0,0,0,0,0,0,-1,1441,799,0,0
224,225,0,0,0,0,0,0,0,0,0,-1,1448,799,0,0
231,225,0,0,0,0,0,0,0,0,0,-1,1455,799,0,0
238,225,0,0,0,0,0,0,0,0,0,-1,1462,799,0,0
245,225,0,0,0,0,0,0,0,0,0,-1,1469,799,0,0
252,225,0,0,0,0,0,0,0,0,0,-1,1476,799,0,0
259,225,0,0,0,0,0,0,0,0,0,-1,1483,799,0,0
266,225,0,0,0,0,0,0,0,0,0,-1,1490,799,0,0
273,225,0,0,0,0,0,0,0,0,0,-1,1497,799,0,0
280,225,0,0,0,0,0,0,0,0,0,-1,1504,799,0,0
287,225,0,0,0,0,0,0,0,0,0,-1,1511,799,0,0
294,225,0,0,0,0,0,0,0,0,0,-1,1518,799,0,0
301,225,0,0,0,0,0,0,0,0,0,-1,1525,799,0,0
308,225,0,0,0,0,0,0,0,0,0,-1,1532,799,0,0
315,225,0,0,0,0,0,0,0,0,0,-1,1539,799,0,0
322,225,0,0,0,0,0,0,0,0,0,-1,1546,799,0,0
329,225,0,0,0,0,0,0,0,0,0,-1,1553,799,0,0
336,225,0,0,0,0,0,0,0,0,0,-1,1560,799,0,0
343,225,0,0,0,0,0,0,0,0,0,-1,1567,799,0,0
350,225,0,0,0,0,0,0,0,0,0,-1,1574,799,0,0
357,225,0,0,0,0,0,0,0,0,0,-1,1581,799,0,0
364,225,0,0,0,0,0,0,0,0,0,-1,1588,799,0,0
371,225,0,0,0,0,0,0,0,0,0,-1,1595,799,0,0
378,225,0,0,0,0,0,0,0,0,0,-1,1602,799,0,0
385,225,0,0,0,0,0,0,0,0,0,-1,1609,799,0,0
392,225,0,0,0,0,0,0,0,0,0,-1,1616,799,0,0
399,225,0,0,0,0,0,0,0,0,0,-1,1623,799,0,0
406,225,0,0,0,0,0,0,0,0,0,-1,1630,799,0,0
413,225,0,0,0,0,0,0,0,0,0,-1,1637,799,0,0
420,225,0,0,0,0,0,0,0,0,0,-1,1644,799,0,0
427,225,0,0,0,0,0,0,0,0,0,-1,1651,799,0,0
434,225,0,0,0,0,0,0,0,0,0,-1,1658,799,0,0
441,225,0,0,0,0,0,0,0,0,0,-1,1665,799,0,0
448,225,0,0,0,0,0,0,0,0,0,-1,1672,799,0,0
455,225,0,0,0,0,0,0,0,0,0,-1,1679,799,0,0
462,225,0,0,0,0,0,0,0,0,0,-1,1686,799,0,0
469,225,0,0,0,0,0,0,0,0,0,-1,1693,799,0,0
476,225,0,0,0,0,0,0,0,0,0,-1,1700,799,0,0
483,225,0,0,0,0,0,0,0,0,0,-1,1707,799,0,0
490,225,0,0,0,0,0,0,0,0,0,-1,1714,799,0,0
497,225,0,0,0,0,0,0,0,0,0,-1,1721,799,0,0
504,225,0,0,0,0,0,0,0,0,0,-1,1728,799,0,0
511,225,0,0,0,0,0,0,0,0,0,-1,1735,799,0,0
518,225,0,0,0,0,0,0,0,0,0,-1,1742,799,0,0
525,225,0,0,0,0,0,0,0,0,0,-1,1749,799,0,0
532,225,0,0,0,0,0,0,0,0,0,-1,1756,799,0,0
539,225,0,0,0,0,0,0,0,0,0,-1,1763,799,0,0
546,225,0,0,0,0,0,0,0,0,0,-1,1770,799,0,0
553,225,0,0,0,0,0,0,0,0,0,-1,1777,799,0,0
560,225,0,0,0,0,0,0,0,0,0,-1,1784,799,0,0
567,225,0,0,0,0,0,0,0,0,0,-1,1791,799,0,0
574,225,0,0,0,0,0,0,0,0,0,-1,1798,799,0,0
581,225,0,0,0,0,0,0,0,0,0,-1,1805,799,0,0
588,225,56.4891,2.84845,0.0122212,-0.00190406,-0.00243554,0.0126293,-0.00231221,-0.16604,0.00928673,0.0388136,1812,799,56.4892,-2.84845
595,225,56.5238,2.70795,0.0102591,-0.000650834,0.000916319,0.0103355,-0.00072726,0.0832129,0.00714509,0.0368228,1819,799,56.5238,-2.70794
602,225,56.5385,2.54102,0.0080865,0.000132335,0.00248643,0.00879978,-0.000580946,0.279368,0.00606944,0.0322785,1826,799,56.5385,-2.54102
609,225,56.5469,2.64008,0.00617479,0.000454823,0.0030126,0.00746875,-0.000839138,0.40569,0.00528115,0.031294,1833,799,56.5469,-2.64006
616,225,56.5599,2.66962,0.00459961,0.00047242,0.00283976,0.00604638,-0.000974351,0.471194,0.00439188,0.0393337,1840,799,56.56,-2.66964
623,225,56.5736,2.71942,0.00323679,0.000110061,0.00215947,0.0043394,-0.000992549,0.472086,0.00327432,0.0414303,1847,799,56.5736,-2.71944
630,225,56.8,2.62256,0,0,0,0,0,0,0,-1,1854,799,56.8001,-2.62256
637,225,55.6359,2.8064,0,0,0,0,0,0,0,-1,1861,799,55.6359,-2.80637
644,225,42.0298,2.46411,0,0,0,0,0,0,0,-1,1868,799,42.0298,-2.4641
651,225,27.9657,0.579529,0,0,0,0,0,0,0,-1,1875,799,27.9657,-0.579541
658,225,41.1477,-1.19226,0,0,0,0,0,0,0,-1,1882,799,41.1477,1.19229
665,225,41.2137,-1.2782,0,0,0,0,0,0,0,-1,1889,799,41.2137,1.27821
672,225,40.9691,-0.581726,-0.00200485,-0.000677088,-0.00120547,3.52206e-05,-0.00271716,-1.0371,0.00182329,0.039317,1896,799,40.9692,0.581747
679,225,40.9458,0.0161743,-0.00215415,-0.00081957,-0.00136266,3.0415e-05,-0.00300414,-1.01308,0.00201297,0.0250968,1903,799,40.9458,-0.0161507
686,225,40.9413,0.632751,-0.00190279,-0.000626959,-0.00139194,0.000266283,-0.00279603,-1.00026,0.00195882,0.0120659,1910,799,40.9412,-0.632753
693,225,40.921,1.26813,-0.000962932,-0.000240607,-0.000911479,0.000378655,-0.00158219,-0.974028,0.00120108,0.0109426,1917,799,40.921,-1.26815
700,225,40.8928,1.91895,0.000636421,0.000186763,-2.41352e-05,0.000637713,0.000185471,-0.0534697,0.00037877,0.0119629,1924,799,40.8928,-1.91897
707,225,40.8481,2.57312,0.00273637,0.000842453,0.00103072,0.00318909,0.000389728,0.413863,0.00200879,0.0115261,1931,799,40.8482,-2.57311
714,225,40.8264,3.23602,0.00519796,0.00203221,0.00180526,0.00601602,0.00121416,0.425471,0.00367346,0.0123455,1938,799,40.8265,-3.23602
721,225,40.8341,3.89783,0.00802132,0.00308178,0.00275462,0.00925123,0.00185186,0.419933,0.00565224,0.0170897,1945,799,40.8341,-3.89785
728,225,40.8617,4.57721,0,0,0,0,0,0,0,-1,1952,799,40.8617,-4.57718
735,225,40.6326,5.87811,0,0,0,0,0,0,0,-1,1959,799,40.6326,-5.8781
742,225,29.0922,3.2132,0,0,0,0,0,0,0,-1,1966,799,29.0921,-3.21322
749,225,29.9529,4.45538,0,0,0,0,0,0,0,-1,1973,799,29.9529,-4.45537
756,225,31.8855,3.83466,0,0,0,0,0,0,0,-1,1980,799,31.8855,-3.83463
763,225,29.4901,5.14417,0,0,0,0,0,0,0,-1,1987,799,29.4902,-5.14415
770,225,0,0,0,0,0,0,0,0,0,-1,1994,799,0,0
777,225,0,0,0,0,0,0,0,0,0,-1,2001,799,0,0
784,225,0,0,0,0,0,0,0,0,0,-1,2008,799,0,0
791,225,0,0,0,0,0,0,0,0,0,-1,2015,799,0,0
798,225,0,0,0,0,0,0,0,0,0,-1,2022,799,0,0
805,225,0,0,0,0,0,0,0,0,0,-1,2029,799,0,0
812,225,0,0,0,0,0,0,0,0,0,-1,2036,799,0,0
-700,218,0,0,0,0,0,0,0,0,0,-1,524,806,0,0
-693,218,0,0,0,0,0,0,0,0,0,-1,531,806,0,0
-686,218,0,0,0,0,0,0,0,0,0,-1,538,806,0,0
-679,218,0,0,0,0,0,0,0,0,0,-1,545,806,0,0
-672,218,0,0,0,0,0,0,0,0,0,-1,552,806,0,0
-665,218,0,0,0,0,0,0,0,0,0,-1,559,806,0,0
-658,218,0,0,0,0,0,0,0,0,0,-1,566,806,0,0
-651,218,-31.2516,6.36798,0,0,0,0,0,0,0,-1,573,806,-31.2517,-6.36799
-644,218,-31.3896,6.17743,0,0,0,0,0,0,0,-1,580,806,-31.3897,-6.17743
-637,218,-31.3395,5.94513,0,0,0,0,0,0,0,-1,587,806,-31.3395,-5.94511
-630,218,-29.7347,3.06238,0,0,0,0,0,0,0,-1,594,806,-29.7347,-3.06238
-623,218,-29.4469,4.34161,0,0,0,0,0,0,0,-1,601,806,-29.4469,-4.34164
-616,218,-20.0258,1.87585,0,0,0,0,0,0,0,-1,608,806,-20.0258,-1.87585
-609,218,-28.9944,3.461,0,0,0,0,0,0,0,-1,615,806,-28.9944,-3.46098
-602,218,-29.0427,2.75543,0.000246424,0.012836,-0.0130035,0.0209882,-0.00790579,-1.01081,0.0172425,0.0421459,622,806,-29.0427,-2.75545
-595,218,-29.0584,2.04523,0.000883742,0.00957899,-0.00900696,0.0152327,-0.00477,-1.01025,0.0120637,0.0187597,629,806,-29.0584,-2.0452
-588,218,-29.0436,1.35406,0.000913229,0.00706881,-0.00581343,0.0105689,-0.00258688,-1.02885,0.00804804,0.0118227,636,806,-29.0436,-1.35408
-581,218,-29.0541,0.744385,0.000473571,0.00490669,-0.00320063,0.00658335,-0.00120309,-1.08825,0.00484003,0.0109488,643,806,-29.0541,-0.744363
-574,218,-29.0748,0.133484,-0.000611819,0.00309393,-0.00116759,0.00343113,-0.000949016,-1.28965,0.00266078,0.010508,650,806,-29.0748,-0.1335
-567,218,-29.0764,-0.506714,-0.00201204,0.0016866,0.000534424,0.00176227,-0.00208771,1.43014,0.00222543,0.0179821,657,806,-29.0764,0.506725
-560,218,-29.1092,-1.1286,-0.00332269,0.000897076,0.00207245,0.00174467,-0.00417028,1.18257,0.00350941,0.0185838,664,806,-29.1092,1.12862
-553,218,-29.06,-1.86102,-0.00456756,0.000956718,0.00346621,0.00262674,-0.00623758,1.12181,0.00525744,0.0187935,671,806,-29.06,1.86104
-546,218,-29.2153,-2.6521,-0.00477659,0.00231135,0.00387955,0.00402196,-0.0064872,1.15551,0.00612286,0.0250702,678,806,-29.2153,2.6521
-539,218,-29.2853,-3.22369,-0.00469544,0.00351627,0.00372904,0.00495692,-0.0061361,1.20213,0.00641661,0.0369606,685,806,-29.2853,3.22367
-532,218,-29.5259,-3.38568,0,0,0,0,0,0,0,-1,692,806,-29.5259,3.3857
-525,218,-29.3521,-3.64417,0,0,0,0,0,0,0,-1,699,806,-29.3521,3.64414
-518,218,-23.61,2.54181,0,0,0,0,0,0,0,-1,706,806,-23.61,-2.54183
-511,218,-41.0953,1.06879,0,0,0,0,0,0,0,-1,713,806,-41.0953,-1.06876
-504,218,-42.8113,1.05066,0,0,0,0,0,0,0,-1,720,806,-42.8114,-1.05066
-497,218,-42.7164,0.988708,-0.00168863,0.0094344,0.000716406,0.00948035,-0.00173458,1.50674,0.00697074,0.0465609,727,806,-42.7165,-0.988707
-490,218,-42.6619,0.903625,-0.000776711,0.010389,-0.000615414,0.0104228,-0.000810529,-1.5159,0.00723386,0.0355906,734,806,-42.6619,-0.903639
-483,218,-42.7223,0.784546,0.000312949,0.0116111,-0.00242441,0.0121093,-0.00018532,-1.3681,0.00813537,0.03297,741,806,-42.7223,-0.784527
-476,218,-42.7126,0.724426,0.00136772,0.0125097,-0.00444393,0.014065,-0.000187615,-1.23413,0.00943983,0.0359796,748,806,-42.7127,-0.724413
-469,218,0,0,0,0,0,0,0,0,0,-1,755,806,0,0
-462,218,0,0,0,0,0,0,0,0,0,-1,762,806,0,0
-455,218,0,0,0,0,0,0,0,0,0,-1,769,806,0,0
-448,218,0,0,0,0,0,0,0,0,0,-1,776,806,0,0
-441,218,0,0,0,0,0,0,0,0,0,-1,783,806,0,0
-434,218,0,0,0,0,0,0,0,0,0,-1,790,806,0,0
-427,218,0,0,0,0,0,0,0,0,0,-1,797,806,0,0
-420,218,0,0,0,0,0,0,0,0,0,-1,804,806,0,0
-413,218,0,0,0,0,0,0,0,0,0,-1,811,806,0,0
-406,218,0,0,0,0,0,0,0,0,0,-1,818,806,0,0
-399,218,0,0,0,0,0,0,0,0,0,-1,825,806,0,0
-392,218,0,0,0,0,0,0,0,0,0,-1,832,806,0,0
-385,218,0,0,0,0,0,0,0,0,0,-1,839,806,0,0
-378,218,0,0,0,0,0,0,0,0,0,-1,846,806,0,0
-371,218,0,0,0,0,0,0,0,0,0,-1,853,806,0,0
-364,218,0,0,0,0,0,0,0,0,0,-1,860,806,0,0
-357,218,0,0,0,0,0,0,0,0,0,-1,867,806,0,0
-350,218,0,0,0,0,0,0,0,0,0,-1,874,806,0,0
-343,218,0,0,0,0,0,0,0,0,0,-1,881,806,0,0
-336,218,0,0,0,0,0,0,0,0,0,-1,888,806,0,0
-329,218,0,0,0,0,0,0,0,0,0,-1,895,806,0,0
-322,218,0,0,0,0,0,0,0,0,0,-1,902,806,0,0
-315,218,0,0,0,0,0,0,0,0,0,-1,909,806,0,0
-308,218,0,0,0,0,0,0,0,0,0,-1,916,806,0,0
-301,218,0,0,0,0,0,0,0,0,0,-1,923,806,0,0
-294,218,0,0,0,0,0,0,0,0,0,-1,930,806,0,0
-287,218,0,0,0,0,0,0,0,0,0,-1,937,806,0,0
-280,218,0,0,0,0,0,0,0,0,0,-1,944,806,0,0
-273,218,0,0,0,0,0,0,0,0,0,-1,951,806,0,0
-266,218,0,0,0,0,0,0,0,0,0,-1,958,806,0,0
-259,218,0,0,0,0,0,0,0,0,0,-1,965,806,0,0
-252,218,0,0,0,0,0,0,0,0,0,-1,972,806,0,0
-245,218,0,0,0,0,0,0,0,0,0,-1,979,806,0,0
-238,218,0,0,0,0,0,0,0,0,0,-1,986,806,0,0
-231,218,0,0,0,0,0,0,0,0,0,-1,993,806,0,0
-224,218,0,0,0,0,0,0,0,0,0,-1,1000,806,0,0
-217,218,0,0,0,0,0,0,0,0,0,-1,1007,806,0,0
-210,218,0,0,0,0,0,0,0,0,0,-1,1014,806,0,0
-203,218,0,0,0,0,0,0,0,0,0,-1,1021,806,0,0
-196,218,0,0,0,0,0,0,0,0,0,-1,1028,806,0,0
-189,218,0,0,0,0,0,0,0,0,0,-1,1035,806,0,0
-182,218,0,0,0,0,0,0,0,0,0,-1,1042,806,0,0
-175,218,0,0,0,0,0,0,0,0,0,-1,1049,806,0,0
-168,218,0,0,0,0,0,0,0,0,0,-1,1056,806,0,0
-161,218,0,0,0,0,0,0,0,0,0,-1,1063,806,0,0
-154,218,0,0,0,0,0,0,0,0,0,-1,1070,806,0,0
-147,218,0,0,0,0,0,0,0,0,0,-1,1077,806,0,0
-140,218,0,0,0,0,0,0,0,0,0,-1,1084,806,0,0
-133,218,0,0,0,0,0,0,0,0,0,-1,1091,806,0,0
-126,218,0,0,0,0,0,0,0,0,0,-1,1098,806,0,0
-119,218,0,0,0,0,0,0,0,0,0,-1,1105,806,0,0
-112,218,0,0,0,0,0,0,0,0,0,-1,1112,806,0,0
-105,218,0,0,0,0,0,0,0,0,0,-1,1119,806,0,0
-98,218,0,0,0,0,0,0,0,0,0,-1,1126,806,0,0
-91,218,0,0,0,0,0,0,0,0,0,-1,1133,806,0,0
-84,218,0,0,0,0,0,0,0,0,0,-1,1140,806,0,0
-77,218,0,0,0,0,0,0,0,0,0,-1,1147,806,0,0
-70,218,0,0,0,0,0,0,0,0,0,-1,1154,806,0,0
-63,218,0,0,0,0,0,0,0,0,0,-1,1161,806,0,0
-56,218,0,0,0,0,0,0,0,0,0,-1,1168,806,0,0
-49,218,0,0,0,0,0,0,0,0,0,-1,1175,806,0,0
-42,218,0,0,0,0,0,0,0,0,0,-1,1182,806,0,0
-35,218,0,0,0,0,0,0,0,0,0,-1,1189,806,0,0
-28,218,0,0,0,0,0,0,0,0,0,-1,1196,806,0,0
-21,218,0,0,0,0,0,0,0,0,0,-1,1203,806,0,0
-14,218,0,0,0,0,0,0,0,0,0,-1,1210,806,0,0
-7,218,0,0,0,0,0,0,0,0,0,-1,1217,806,0,0
0,218,0,0,0,0,0,0,0,0,0,-1,1224,806,0,0
7,218,0,0,0,0,0,0,0,0,0,-1,1231,806,0,0
14,218,0,0,0,0,0,0,0,0,0,-1,1238,806,0,0
21,218,0,0,0,0,0,0,0,0,0,-1,1245,806,0,0
28,218,0,0,0,0,0,0,0,0,0,-1,1252,806,0,0
35,218,0,0,0,0,0,0,0,0,0,-1,1259,806,0,0
42,218,0,0,0,0,0,0,0,0,0,-1,1266,806,0,0
49,218,0,0,0,0,0,0,0,0,0,-1,1273,806,0,0
56,218,0,0,0,0,0,0,0,0,0,-1,1280,806,0,0
63,218,0,0,0,0,0,0,0,0,0,-1,1287,806,0,0
70,218,0,0,0,0,0,0,0,0,0,-1,1294,806,0,0
77,218,0,0,0,0,0,0,0,0,0,-1,1301,806,0,0
84,218,0,0,0,0,0,0,0,0,0,-1,1308,806,0,0
91,218,0,0,0,0,0,0,0,0,0,-1,1315,806,0,0
98,218,0,0,0,0,0,0,0,0,0,-1,1322,806,0,0
105,218,0,0,0,0,0,0,0,0,0,-1,1329,806,0,0
112,218,0,0,0,0,0,0,0,0,0,-1,1336,806,0,0
119,218,0,0,0,0,0,0,0,0,0,-1,1343,806,0,0
126,218,0,0,0,0,0,0,0,0,0,-1,1350,806,0,0
133,218,0,0,0,0,0,0,0,0,0,-1,1357,806,0,0
140,218,0,0,0,0,0,0,0,0,0,-1,1364,806,0,0
147,218,0,0,0,0,0,0,0,0,0,-1,1371,806,0,0
154,218,0,0,0,0,0,0,0,0,0,-1,1378,806,0,0
161,218,0,0,0,0,0,0,0,0,0,-1,1385,806,0,0
168,218,0,0,0,0,0,0,0,0,0,-1,1392,806,0,0
175,218,0,0,0,0,0,0,0,0,0,-1,1399,806,0,0
182,218,0,0,0,0,0,0,0,0,0,-1,1406,806,0,0
189,218,0,0,0,0,0,0,0,0,0,-1,1413,806,0,0
196,218,0,0,0,0,0,0,0,0,0,-1,1420,806,0,0
203,218,0,0,0,0,0,0,0,0,0,-1,1427,806,0,0
210,218,0,0,0,0,0,0,0,0,0,-1,1434,806,0,0
217,218,0,0,0,0,0,0,0,0,0,-1,1441,806,0,0
224,218,0,0,0,0,0,0,0,0,0,-1,1448,806,0,0
231,218,0,0,0,0,0,0,0,0,0,-1,1455,806,0,0
238,218,0,0,0,0,0,0,0,0,0,-1,1462,806,0,0
245,218,0,0,0,0,0,0,0,0,0,-1,1469,806,0,0
252,218,0,0,0,0,0,0,0,0,0,-1,1476,806,0,0
259,218,0,0,0,0,0,0,0,0,0,-1,1483,806,0,0
266,218,0,0,0,0,0,0,0,0,0,-1,1490,806,0,0
273,218,0,0,0,0,0,0,0,0,0,-1,1497,806,0,0
280,218,0,0,0,0,0,0,0,0,0,-1,1504,806,0,0
287,218,0,0,0,0,0,0,0,0,0,-1,1511,806,0,0
294,218,0,0,0,0,0,0,0,0,0,-1,1518,806,0,0
301,218,0,0,0,0,0,0,0,0,0,-1,1525,806,0,0
308,218,0,0,0,0,0,0,0,0,0,-1,1532,806,0,0
315,218,0,0,0,0,0,0,0,0,0,-1,1539,806,0,0
322,218,0,0,0,0,0,0,0,0,0,-1,1546,806,0,0
329,218,0,0,0,0,0,0,0,0,0,-1,1553,806,0,0
336,218,0,0,0,0,0,0,0,0,0,-1,1560,806,0,0
343,218,0,0,0,0,0,0,0,0,0,-1,1567,806,0,0
350,218,0,0,0,0,0,0,0,0,0,-1,1574,806,0,0
357,218,0,0,0,0,0,0,0,0,0,-1,1581,806,0,0
364,218,0,0,0,0,0,0,0,0,0,-1,1588,806,0,0
371,218,0,0,0,0,0,0,0,0,0,-1,1595,806,0,0
378,218,0,0,0,0,0,0,0,0,0,-1,1602,806,0,0
385,218,0,0,0,0,0,0,0,0,0,-1,1609,806,0,0
392,218,0,0,0,0,0,0,0,0,0,-1,1616,806,0,0
399,218,0,0,0,0,0,0,0,0,0,-1,1623,806,0,0
406,218,0,0,0,0,0,0,0,0,0,-1,1630,806,0,0
413,218,0,0,0,0,0,0,0,0,0,-1,1637,806,0,0
420,218,0,0,0,0,0,0,0,0,0,-1,1644,806,0,0
427,218,0,0,0,0,0,0,0,0,0,-1,1651,806,0,0
434,218,0,0,0,0,0,0,0,0,0,-1,1658,806,0,0
441,218,0,0,0,0,0,0,0,0,0,-1,1665,806,0,0
448,218,0,0,0,0,0,0,0,0,0,-1,1672,806,0,0
455,218,0,0,0,0,0,0,0,0,0,-1,1679,806,0,0
462,218,0,0,0,0,0,0,0,0,0,-1,1686,806,0,0
469,218,0,0,0,0,0,0,0,0,0,-1,1693,806,0,0
476,218,0,0,0,0,0,0,0,0,0,-1,1700,806,0,0
483,218,0,0,0,0,0,0,0,0,0,-1,1707,806,0,0
490,218,0,0,0,0,0,0,0,0,0,-1,1714,806,0,0
497,218,0,0,0,0,0,0,0,0,0,-1,1721,806,0,0
504,218,0,0,0,0,0,0,0,0,0,-1,1728,806,0,0
511,218,0,0,0,0,0,0,0,0,0,-1,1735,806,0,0
518,218,0,0,0,0,0,0,0,0,0,-1,1742,806,0,0
525,218,0,0,0,0,0,0,0,0,0,-1,1749,806,0,0
532,218,0,0,0,0,0,0,0,0,0,-1,1756,806,0,0
539,218,0,0,0,0,0,0,0,0,0,-1,1763,806,0,0
546,218,0,0,0,0,0,0,0,0,0,-1,1770,806,0,0
553,218,0,0,0,0,0,0,0,0,0,-1,1777,806,0,0
560,218,0,0,0,0,0,0,0,0,0,-1,1784,806,0,0
567,218,0,0,0,0,0,0,0,0,0,-1,1791,806,0,0
574,218,0,0,0,0,0,0,0,0,0,-1,1798,806,0,0
581,218,0,0,0,0,0,0,0,0,0,-1,1805,806,0,0
588,218,0,0,0,0,0,0,0,0,0,-1,1812,806,0,0
595,218,56.5178,2.71814,0.00949933,-0.0014366,-0.000809014,0.00955886,-0.00149612,-0.0734448,0.00692536,0.0369474,1819,806,56.5178,-2.71812
602,218,56.594,2.64514,0.00742944,-0.000390542,0.00110484,0.00758254,-0.000543639,0.137694,0.00524564,0.0323134,1826,806,56.594,-2.64515
609,218,56.5623,2.67871,0.00553861,0.000141324,0.00200734,0.00620331,-0.000523377,0.319771,0.00432058,0.0300383,1833,806,56.5623,-2.67873
616,218,56.5319,2.63049,0.0040235,0.000342557,0.00215933,0.00502029,-0.00065423,0.432474,0.00358489,0.0331708,1840,806,56.5319,-2.63047
623,218,56.6122,2.57361,0.00272757,5.35486e-05,0.00160548,0.00347986,-0.000698737,0.438192,0.0025845,0.0380874,1847,806,56.6122,-2.57361
630,218,56.6945,2.6156,0.00154056,8.10123e-06,0.00107356,0.00209329,-0.000544626,0.475459,0.00160811,0.0423535,1854,806,56.6944,-2.6156
637,218,56.4088,2.67981,0,0,0,0,0,0,0,-1,1861,806,56.4088,-2.67979
644,218,52.4042,2.47949,0,0,0,0,0,0,0,-1,1868,806,52.4041,-2.47949
651,218,41.7338,1.99164,0,0,0,0,0,0,0,-1,1875,806,41.7338,-1.99162
658,218,28.41,0.514954,0,0,0,0,0,0,0,-1,1882,806,28.41,-0.514983
665,218,42.2046,-1.22571,0,0,0,0,0,0,0,-1,1889,806,42.2046,1.22572
672,218,41.949,-0.459229,-0.00223123,-0.000751787,-0.00148181,0.000164675,-0.00314769,-1.0169,0.00215545,0.0301568,1896,806,41.949,0.459211
679,218,41.7343,0.0756226,-0.00249343,-0.000921887,-0.00164745,0.00011759,-0.00353291,-1.00792,0.00239543,0.0281098,1903,806,41.7343,-0.0756369
686,218,41.6111,0.635254,-0.00241546,-0.000836968,-0.00177887,0.000319881,-0.00357231,-0.994191,0.00249501,0.013334,1910,806,41.6111,-0.635237
693,218,41.5874,1.28607,-0.00164457,-0.00059895,-0.00144858,0.000418275,-0.0026618,-0.95858,0.00192913,0.0121602,1917,806,41.5875,-1.28606
700,218,41.5439,1.93298,-0.000139979,-0.000212079,-0.000654231,0.000479195,-0.000831253,-0.757874,0.000765634,0.0102342,1924,806,41.5439,-1.93297
707,218,41.5002,2.58423,0.00201421,0.000395576,0.000350426,0.00208682,0.000322967,0.204309,0.00129703,0.00815137,1931,806,41.5003,-2.58423
714,218,41.4736,3.26318,0.00462645,0.00153743,0.00103498,0.00494116,0.00122272,0.295189,0.0029716,0.0101962,1938,806,41.4736,-3.26319
721,218,41.499,3.91064,0.00761455,0.00256755,0.00184678,0.00821813,0.00196396,0.315886,0.00495557,0.0141213,1945,806,41.499,-3.91063
728,218,41.5233,4.61566,0.0110334,0.00380429,0.00234846,0.0117293,0.00310836,0.28809,0.00701681,0.0283001,1952,806,41.5234,-4.61569
735,218,41.8682,5.35815,0,0,0,0,0,0,0,-1,1959,806,41.8682,-5.35817
742,218,41.4174,6.59644,0,0,0,0,0,0,0,-1,1966,806,41.4174,-6.59643
749,218,42.0249,6.64703,0,0,0,0,0,0,0,-1,1973,806,42.0249,-6.64703
756,218,41.4125,7.37323,0,0,0,0,0,0,0,-1,1980,806,41.4125,-7.37323
763,218,39.5968,4.98688,0,0,0,0,0,0,0,-1,1987,806,39.5968,-4.98688
770,218,0,0,0,0,0,0,0,0,0,-1,1994,806,0,0
777,218,0,0,0,0,0,0,0,0,0,-1,2001,806,0,0
784,218,0,0,0,0,0,0,0,0,0,-1,2008,806,0,0
791,218,0,0,0,0,0,0,0,0,0,-1,2015,806,0,0
798,218,0,0,0,0,0,0,0,0,0,-1,2022,806,0,0
805,218,0,0,0,0,0,0,0,0,0,-1,2029,806,0,0
812,218,0,0,0,0,0,0,0,0,0,-1,2036,806,0,0
-700,211,0,0,0,0,0,0,0,0,0,-1,524,813,0,0
-693,211,0,0,0,0,0,0,0,0,0,-1,531,813,0,0
-686,211,0,0,0,0,0,0,0,0,0,-1,538,813,0,0
-679,211,0,0,0,0,0,0,0,0,0,-1,545,813,0,0
-672,211,0,0,0,0,0,0,0,0,0,-1,552,813,0,0
-665,211,0,0,0,0,0,0,0,0,0,-1,559,813,0,0
-658,211,0,0,0,0,0,0,0,0,0,-1,566,813,0,0
-651,211,-32.4163,6.39746,0,0,0,0,0,0,0,-1,573,813,-32.4163,-6.39747
-644,211,-31.1364,6.37982,0,0,0,0,0,0,0,-1,580,813,-31.1364,-6.37985
-637,211,-31.2496,6.42194,0,0,0,0,0,0,0,-1,587,813,-31.2496,-6.42195
-630,211,-26.2802,6.70776,0,0,0,0,0,0,0,-1,594,813,-26.2802,-6.70775
-623,211,-26.2827,6.96381,0,0,0,0,0,0,0,-1,601,813,-26.2827,-6.96378
-616,211,-29.3288,3.96924,0,0,0,0,0,0,0,-1,608,813,-29.3288,-3.96926
-609,211,-29.4067,3.30402,-0.00115697,0.0161802,-0.0186724,0.0280981,-0.0130748,-1.00272,0.024293,0.0429702,615,813,-29.4068,-3.30404
-602,211,-29.5356,2.66571,-0.000116417,0.0118667,-0.0127516,0.0199642,-0.00821395,-1.00502,0.0167335,0.022684,622,813,-29.5357,-2.66574
-595,211,-29.6427,2.04895,0.000162314,0.00857319,-0.00835088,0.0137178,-0.00498227,-1.01866,0.0111823,0.0115462,629,813,-29.6427,-2.04896
-588,211,-29.673,1.41254,-7.60329e-05,0.00603279,-0.00478728,0.00865707,-0.00270031,-1.06935,0.00685122,0.0114856,636,813,-29.673,-1.41254
-581,211,-29.6972,0.790894,-0.000357491,0.00386762,-0.00195517,0.00463353,-0.0011234,-1.19743,0.00352369,0.0120181,643,813,-29.6972,-0.790918
-574,211,-29.7285,0.171326,-0.00117539,0.00237856,-7.09715e-05,0.00237998,-0.00117681,-1.55084,0.00209231,0.0128191,650,813,-29.7285,-0.171347
-567,211,-29.7309,-0.492798,-0.00228341,0.00139423,0.00137709,0.00185272,-0.0027419,1.2494,0.00266921,0.0193596,657,813,-29.7309,0.492803
-560,211,-29.742,-1.13843,-0.00325558,0.0011084,0.00259013,0.00231313,-0.00446031,1.13544,0.0039756,0.0267455,664,813,-29.742,1.13843
-553,211,-29.5694,-1.92505,0,0,0,0,0,0,0,-1,671,813,-29.5694,1.92505
-546,211,-29.7966,-2.82684,0,0,0,0,0,0,0,-1,678,813,-29.7966,2.82684
-539,211,-29.9581,-3.00269,0,0,0,0,0,0,0,-1,685,813,-29.9581,3.00271
-532,211,-29.8599,-3.74451,0,0,0,0,0,0,0,-1,692,813,-29.8599,3.74454
-525,211,-14.3009,2.3233,0,0,0,0,0,0,0,-1,699,813,-14.3009,-2.3233
-518,211,-34.952,1.93011,0,0,0,0,0,0,0,-1,706,813,-34.952,-1.9301
-511,211,-42.9474,0.794128,0,0,0,0,0,0,0,-1,713,813,-42.9474,-0.794124
-504,211,-42.8675,0.752319,0,0,0,0,0,0,0,-1,720,813,-42.8675,-0.752338
-497,211,-42.7629,0.763428,-0.00126603,0.011187,0.00076049,0.0112333,-0.0013123,1.51003,0.00796242,0.0468788,727,813,-42.763,-0.763448
-490,211,-42.6772,0.75238,-0.000145784,0.0120715,-0.000542408,0.0120955,-0.000169817,-1.52652,0.00812089,0.0341723,734,813,-42.6772,-0.752362
-483,211,-42.6134,0.751709,0.00122674,0.0128349,-0.0022851,0.0132685,0.00079311,-1.38326,0.00859353,0.0321924,741,813,-42.6134,-0.751711
-476,211,-42.6119,0.757324,0.00250499,0.0122689,-0.00409715,0.0137603,0.00101355,-1.22169,0.00885505,0.0361956,748,813,-42.6119,-0.757347
-469,211,0,0,0,0,0,0,0,0,0,-1,755,813,0,0
-462,211,0,0,0,0,0,0,0,0,0,-1,762,813,0,0
-455,211,0,0,0,0,0,0,0,0,0,-1,769,813,0,0
-448,211,0,0,0,0,0,0,0,0,0,-1,776,813,0,0
-441,211,0,0,0,0,0,0,0,0,0,-1,783,813,0,0
-434,211,0,0,0,0,0,0,0,0,0,-1,790,813,0,0
-427,211,0,0,0,0,0,0,0,0,0,-1,797,813,0,0
-420,211,0,0,0,0,0,0,0,0,0,-1,804,813,0,0
-413,211,0,0,0,0,0,0,0,0,0,-1,811,813,0,0
-406,211,0,0,0,0,0,0,0,0,0,-1,818,813,0,0
-399,211,0,0,0,0,0,0,0,0,0,-1,825,813,0,0
-392,211,0,0,0,0,0,0,0,0,0,-1,832,813,0,0
-385,211,0,0,0,0,0,0,0,0,0,-1,839,813,0,0
-378,211,0,0,0,0,0,0,0,0,0,-1,846,813,0,0
-371,211,0,0,0,0,0,0,0,0,0,-1,853,813,0,0
-364,211,0,0,0,0,0,0,0,0,0,-1,860,813,0,0
-357,211,0,0,0,0,0,0,0,0,0,-1,867,813,0,0
-350,211,0,0,0,0,0,0,0,0,0,-1,874,813,0,0
-343,211,0,0,0,0,0,0,0,0,0,-1,881,813,0,0
-336,211,0,0,0,0,0,0,0,0,0,-1,888,813,0,0
-329,211,0,0,0,0,0,0,0,0,0,-1,895,813,0,0
-322,211,0,0,0,0,0,0,0,0,0,-1,902,813,0,0
-315,211,0,0,0,0,0,0,0,0,0,-1,909,813,0,0
-308,211,0,0,0,0,0,0,0,0,0,-1,916,813,0,0
-301,211,0,0,0,0,0,0,0,0,0,-1,923,813,0,0
-294,211,0,0,0,0,0,0,0,0,0,-1,930,813,0,0
-287,211,0,0,0,0,0,0,0,0,0,-1,937,813,0,0
-280,211,0,0,0,0,0,0,0,0,0,-1,944,813,0,0
-273,211,0,0,0,0,0,0,0,0,0,-1,951,813,0,0
-266,211,0,0,0,0,0,0,0,0,0,-1,958,813,0,0
-259,211,0,0,0,0,0,0,0,0,0,-1,965,813,0,0
-252,211,0,0,0,0,0,0,0,0,0,-1,972,813,0,0
-245,211,0,0,0,0,0,0,0,0,0,-1,979,813,0,0
-238,211,0,0,0,0,0,0,0,0,0,-1,986,813,0,0
-231,211,0,0,0,0,0,0,0,0,0,-1,993,813,0,0
-224,211,0,0,0,0,0,0,0,0,0,-1,1000,813,0,0
-217,211,0,0,0,0,0,0,0,0,0,-1,1007,813,0,0
-210,211,0,0,0,0,0,0,0,0,0,-1,1014,813,0,0
-203,211,0,0,0,0,0,0,0,0,0,-1,1021,813,0,0
-196,211,0,0,0,0,0,0,0,0,0,-1,1028,813,0,0
-189,211,0,0,0,0,0,0,0,0,0,-1,1035,813,0,0
-182,211,0,0,0,0,0,0,0,0,0,-1,1042,813,0,0
-175,211,0,0,0,0,0,0,0,0,0,-1,1049,813,0,0
-168,211,0,0,0,0,0,0,0,0,0,-1,1056,813,0,0
-161,211,0,0,0,0,0,0,0,0,0,-1,1063,813,0,0
-154,211,0,0,0,0,0,0,0,0,0,-1,1070,813,0,0
-147,211,0,0,0,0,0,0,0,0,0,-1,1077,813,0,0
-140,211,0,0,0,0,0,0,0,0,0,-1,1084,813,0,0
-133,211,0,0,0,0,0,0,0,0,0,-1,1091,813,0,0
-126,211,0,0,0,0,0,0,0,0,0,-1,1098,813,0,0
-119,211,0,0,0,0,0,0,0,0,0,-1,1105,813,0,0
-112,211,0,0,0,0,0,0,0,0,0,-1,1112,813,0,0
-105,211,0,0,0,0,0,0,0,0,0,-1,1119,813,0,0
-98,211,0,0,0,0,0,0,0,0,0,-1,1126,813,0,0
-91,211,0,0,0,0,0,0,0,0,0,-1,1133,813,0,0
-84,211,0,0,0,0,0,0,0,0,0,-1,1140,813,0,0
-77,211,0,0,0,0,0,0,0,0,0,-1,1147,813,0,0
-70,211,0,0,0,0,0,0,0,0,0,-1,1154,813,0,0
-63,211,0,0,0,0,0,0,0,0,0,-1,1161,813,0,0
-56,211,0,0,0,0,0,0,0,0,0,-1,1168,813,0,0
-49,211,0,0,0,0,0,0,0,0,0,-1,1175,813,0,0
-42,211,0,0,0,0,0,0,0,0,0,-1,1182,813,0,0
-35,211,0,0,0,0,0,0,0,0,0,-1,1189,813,0,0
-28,211,0,0,0,0,0,0,0,0,0,-1,1196,813,0,0
-21,211,0,0,0,0,0,0,0,0,0,-1,1203,813,0,0
-14,211,0,0,0,0,0,0,0,0,0,-1,1210,813,0,0
-7,211,0,0,0,0,0,0,0,0,0,-1,1217,813,0,0
0,211,0,0,0,0,0,0,0,0,0,-1,1224,813,0,0
7,211,0,0,0,0,0,0,0,0,0,-1,1231,813,0,0
14,211,0,0,0,0,0,0,0,0,0,-1,1238,813,0,0
21,211,0,0,0,0,0,0,0,0,0,-1,1245,813,0,0
28,211,0,0,0,0,0,0,0,0,0,-1,1252,813,0,0
35,211,0,0,0,0,0,0,0,0,0,-1,1259,813,0,0
42,211,0,0,0,0,0,0,0,0,0,-1,1266,813,0,0
49,211,0,0,0,0,0,0,0,0,0,-1,1273,813,0,0
56,211,0,0,0,0,0,0,0,0,0,-1,1280,813,0,0
63,211,0,0,0,0,0,0,0,0,0,-1,1287,813,0,0
70,211,0,0,0,0,0,0,0,0,0,-1,1294,813,0,0
77,211,0,0,0,0,0,0,0,0,0,-1,1301,813,0,0
84,211,0,0,0,0,0,0,0,0,0,-1,1308,813,0,0
91,211,0,0,0,0,0,0,0,0,0,-1,1315,813,0,0
98,211,0,0,0,0,0,0,0,0,0,-1,1322,813,0,0
105,211,0,0,0,0,0,0,0,0,0,-1,1329,813,0,0
112,211,0,0,0,0,0,0,0,0,0,-1,1336,813,0,0
119,211,0,0,0,0,0,0,0,0,0,-1,1343,813,0,0
126,211,0,0,0,0,0,0,0,0,0,-1,1350,813,0,0
133,211,0,0,0,0,0,0,0,0,0,-1,1357,813,0,0
140,211,0,0,0,0,0,0,0,0,0,-1,1364,813,0,0
147,211,0,0,0,0,0,0,0,0,0,-1,1371,813,0,0
154,211,0,0,0,0,0,0,0,0,0,-1,1378,813,0,0
161,211,0,0,0,0,0,0,0,0,0,-1,1385,813,0,0
168,211,0,0,0,0,0,0,0,0,0,-1,1392,813,0,0
175,211,0,0,0,0,0,0,0,0,0,-1,1399,813,0,0
182,211,0,0,0,0,0,0,0,0,0,-1,1406,813,0,0
189,211,0,0,0,0,0,0,0,0,0,-1,1413,813,0,0
196,211,0,0,0,0,0,0,0,0,0,-1,1420,813,0,0
203,211,0,0,0,0,0,0,0,0,0,-1,1427,813,0,0
210,211,0,0,0,0,0,0,0,0,0,-1,1434,813,0,0
217,211,0,0,0,0,0,0,0,0,0,-1,1441,813,0,0
224,211,0,0,0,0,0,0,0,0,0,-1,1448,813,0,0
231,211,0,0,0,0,0,0,0,0,0,-1,1455,813,0,0
238,211,0,0,0,0,0,0,0,0,0,-1,1462,813,0,0
245,211,0,0,0,0,0,0,0,0,0,-1,1469,813,0,0
252,211,0,0,0,0,0,0,0,0,0,-1,1476,813,0,0
259,211,0,0,0,0,0,0,0,0,0,-1,1483,813,0,0
266,211,0,0,0,0,0,0,0,0,0,-1,1490,813,0,0
273,211,0,0,0,0,0,0,0,0,0,-1,1497,813,0,0
280,211,0,0,0,0,0,0,0,0,0,-1,1504,813,0,0
287,211,0,0,0,0,0,0,0,0,0,-1,1511,813,0,0
294,211,0,0,0,0,0,0,0,0,0,-1,1518,813,0,0
301,211,0,0,0,0,0,0,0,0,0,-1,1525,813,0,0
308,211,0,0,0,0,0,0,0,0,0,-1,1532,813,0,0
315,211,0,0,0,0,0,0,0,0,0,-1,1539,813,0,0
322,211,0,0,0,0,0,0,0,0,0,-1,1546,813,0,0
329,211,0,0,0,0,0,0,0,0,0,-1,1553,813,0,0
336,211,0,0,0,0,0,0,0,0,0,-1,1560,813,0,0
343,211,0,0,0,0,0,0,0,0,0,-1,1567,813,0,0
350,211,0,0,0,0,0,0,0,0,0,-1,1574,813,0,0
357,211,0,0,0,0,0,0,0,0,0,-1,1581,813,0,0
364,211,0,0,0,0,0,0,0,0,0,-1,1588,813,0,0
371,211,0,0,0,0,0,0,0,0,0,-1,1595,813,0,0
378,211,0,0,0,0,0,0,0,0,0,-1,1602,813,0,0
385,211,0,0,0,0,0,0,0,0,0,-1,1609,813,0,0
392,211,0,0,0,0,0,0,0,0,0,-1,1616,813,0,0
399,211,0,0,0,0,0,0,0,0,0,-1,1623,813,0,0
406,211,0,0,0,0,0,0,0,0,0,-1,1630,813,0,0
413,211,0,0,0,0,0,0,0,0,0,-1,1637,813,0,0
420,211,0,0,0,0,0,0,0,0,0,-1,1644,813,0,0
427,211,0,0,0,0,0,0,0,0,0,-1,1651,813,0,0
434,211,0,0,0,0,0,0,0,0,0,-1,1658,813,0,0
441,211,0,0,0,0,0,0,0,0,0,-1,1665,813,0,0
448,211,0,0,0,0,0,0,0,0,0,-1,1672,813,0,0
455,211,0,0,0,0,0,0,0,0,0,-1,1679,813,0,0
462,211,0,0,0,0,0,0,0,0,0,-1,1686,813,0,0
469,211,0,0,0,0,0,0,0,0,0,-1,1693,813,0,0
476,211,0,0,0,0,0,0,0,0,0,-1,1700,813,0,0
483,211,0,0,0,0,0,0,0,0,0,-1,1707,813,0,0
490,211,0,0,0,0,0,0,0,0,0,-1,1714,813,0,0
497,211,0,0,0,0,0,0,0,0,0,-1,1721,813,0,0
504,211,0,0,0,0,0,0,0,0,0,-1,1728,813,0,0
511,211,0,0,0,0,0,0,0,0,0,-1,1735,813,0,0
518,211,0,0,0,0,0,0,0,0,0,-1,1742,813,0,0
525,211,0,0,0,0,0,0,0,0,0,-1,1749,813,0,0
532,211,0,0,0,0,0,0,0,0,0,-1,1756,813,0,0
539,211,0,0,0,0,0,0,0,0,0,-1,1763,813,0,0
546,211,0,0,0,0,0,0,0,0,0,-1,1770,813,0,0
553,211,0,0,0,0,0,0,0,0,0,-1,1777,813,0,0
560,211,0,0,0,0,0,0,0,0,0,-1,1784,813,0,0
567,211,0,0,0,0,0,0,0,0,0,-1,1791,813,0,0
574,211,0,0,0,0,0,0,0,0,0,-1,1798,813,0,0
581,211,0,0,0,0,0,0,0,0,0,-1,1805,813,0,0
588,211,0,0,0,0,0,0,0,0,0,-1,1812,813,0,0
595,211,56.5421,2.66644,0.00906143,-0.00123765,-0.00193337,0.00941241,-0.00158863,-0.17958,0.00686602,0.0374505,1819,813,56.5421,-2.66645
602,211,56.5568,2.6424,0.00708508,-0.000284798,3.66754e-05,0.00708526,-0.000284981,0.00497623,0.00482131,0.0355669,1826,813,56.5567,-2.64242
609,211,56.5997,2.66461,0.0052295,0.000203862,0.00118602,0.00549533,-6.19681e-05,0.220493,0.00368438,0.0385574,1833,813,56.5997,-2.6646
616,211,56.6052,2.67633,0.0037412,0.000478248,0.00170025,0.00446612,-0.000246664,0.403018,0.00306294,0.0340652,1840,813,56.6053,-2.67633
623,211,56.5453,2.63342,0.00246914,0.000280613,0.00137074,0.00312882,-0.000379071,0.448546,0.00222304,0.0336566,1847,813,56.5453,-2.63342
630,211,56.5502,2.63196,0.00126938,0.000308405,0.000915692,0.00182299,-0.000245206,0.543782,0.00130476,0.036842,1854,813,56.5502,-2.63194
637,211,56.4652,2.68457,0.000308344,8.8773e-05,0.000404634,0.000617821,-0.000220705,0.652927,0.000501894,0.0424564,1861,813,56.4652,-2.68455
644,211,56.4486,2.69446,0,0,0,0,0,0,0,-1,1868,813,56.4486,-2.69443
651,211,48.5043,2.95557,0,0,0,0,0,0,0,-1,1875,813,48.5043,-2.95558
658,211,27.7909,1.52234,0,0,0,0,0,0,0,-1,1882,813,27.7909,-1.52234
665,211,42.2053,-0.745605,0,0,0,0,0,0,0,-1,1889,813,42.2054,0.745605
672,211,42.7585,-0.382813,0,0,0,0,0,0,0,-1,1896,813,42.7586,0.382829
679,211,42.5662,0.0969238,-0.00281546,-0.000940349,-0.00180165,0.000153097,-0.0039089,-1.02531,0.00265844,0.034072,1903,813,42.5661,-0.096938
686,211,42.3077,0.657104,-0.00288542,-0.000951704,-0.00204362,0.000342236,-0.00417936,-1.00635,0.00290704,0.0145228,1910,813,42.3077,-0.657119
693,211,42.2552,1.29205,-0.00236918,-0.000902456,-0.00192489,0.000424039,-0.00369568,-0.967404,0.00261661,0.0127636,1917,813,42.2553,-1.29203
700,211,42.1638,1.91364,-0.00110783,-0.000597416,-0.00131048,0.000482476,-0.00218772,-0.881566,0.00164309,0.0145777,1924,813,42.1638,-1.91367
707,211,42.1719,2.62158,0.000941855,-6.14855e-05,-0.000404964,0.00108491,-0.000204539,-0.339567,0.000800213,0.0215375,1931,813,42.1719,-2.6216
714,211,42.1711,3.3175,0.00362292,0.00100761,0.000197998,0.00363783,0.00099271,0.0751367,0.00217132,0.0227037,1938,813,42.1712,-3.31748
721,211,42.1541,3.91315,0.00672781,0.00200924,0.000873892,0.00688445,0.00185259,0.177368,0.00411359,0.0171438,1945,813,42.1541,-3.91317
728,211,42.1677,4.57922,0.0102762,0.0032331,0.00125443,0.0104929,0.00301634,0.1711,0.00623787,0.0178708,1952,813,42.1677,-4.57919
735,211,42.2482,5.29749,0.0142768,0.00489039,0.0012472,0.0144397,0.00472749,0.129871,0.00850072,0.0325705,1959,813,42.2482,-5.29747
742,211,42.4194,6.01483,0,0,0,0,0,0,0,-1,1966,813,42.4195,-6.01482
749,211,42.3701,6.31238,0,0,0,0,0,0,0,-1,1973,813,42.3701,-6.3124
756,211,42.238,7.44238,0,0,0,0,0,0,0,-1,1980,813,42.2381,-7.44237
763,211,41.927,9.00311,0,0,0,0,0,0,0,-1,1987,813,41.927,-9.00313
770,211,39.2373,7.45868,0,0,0,0,0,0,0,-1,1994,813,39.2373,-7.45868
777,211,0,0,0,0,0,0,0,0,0,-1,2001,813,0,0
784,211,0,0,0,0,0,0,0,0,0,-1,2008,813,0,0
791,211,0,0,0,0,0,0,0,0,0,-1,2015,813,0,0
798,211,0,0,0,0,0,0,0,0,0,-1,2022,813,0,0
805,211,0,0,0,0,0,0,0,0,0,-1,2029,813,0,0
812,211,0,0,0,0,0,0,0,0,0,-1,2036,813,0,0
-700,204,0,0,0,0,0,0,0,0,0,-1,524,820,0,0
-693,204,0,0,0,0,0,0,0,0,0,-1,531,820,0,0
-686,204,0,0,0,0,0,0,0,0,0,-1,538,820,0,0
-679,204,0,0,0,0,0,0,0,0,0,-1,545,820,0,0
-672,204,0,0,0,0,0,0,0,0,0,-1,552,820,0,0
-665,204,0,0,0,0,0,0,0,0,0,-1,559,820,0,0
-658,204,0,0,0,0,0,0,0,0,0,-1,566,820,0,0
-651,204,-30.8603,6.04706,0,0,0,0,0,0,0,-1,573,820,-30.8603,-6.04704
-644,204,-30.553,6.28735,0,0,0,0,0,0,0,-1,580,820,-30.5531,-6.28735
-637,204,-30.6819,7.18677,0,0,0,0,0,0,0,-1,587,820,-30.6819,-7.18676
-630,204,-26.3576,4.56836,0,0,0,0,0,0,0,-1,594,820,-26.3576,-4.56833
-623,204,-27.8553,4.75055,0,0,0,0,0,0,0,-1,601,820,-27.8554,-4.75058
-616,204,-30.0499,4.1366,0,0,0,0,0,0,0,-1,608,820,-30.0499,-4.1366
-609,204,-30.0951,3.40906,-0.00139955,0.0169386,-0.0181793,0.0281303,-0.0125912,-1.01897,0.0240744,0.0355255,615,820,-30.0951,-3.40903
-602,204,-30.2075,2.68719,-0.000766691,0.0118792,-0.0120616,0.0191747,-0.0080622,-1.02682,0.0161556,0.0174891,622,820,-30.2075,-2.6872
-595,204,-30.2864,2.04675,-0.000658056,0.00793146,-0.00742348,0.012213,-0.00493961,-1.04764,0.0101955,0.0158656,629,820,-30.2864,-2.04677
-588,204,-30.3156,1.41174,-0.000949012,0.00515313,-0.00365547,0.00686352,-0.0026594,-1.13316,0.00567384,0.0134259,636,820,-30.3156,-1.41171
-581,204,-30.3322,0.784729,-0.0011248,0.0030769,-0.000784597,0.00321863,-0.00126653,-1.39208,0.00267001,0.0131779,643,820,-30.3322,-0.7847
-574,204,-30.3581,0.168884,-0.00175356,0.00184514,0.000946774,0.00207902,-0.00198745,1.32861,0.00234798,0.0133973,650,820,-30.3581,-0.168872
-567,204,-30.3468,-0.471558,-0.00259172,0.00119032,0.00211259,0.00213461,-0.00353601,1.15045,0.0033071,0.0134272,657,820,-30.3468,0.471555
-560,204,-30.2744,-1.16534,-0.00325447,0.00125928,0.00294419,0.00271209,-0.00470728,1.1124,0.0043349,0.0221583,664,820,-30.2744,1.16532
-553,204,-30.4362,-1.63727,-0.00392126,0.00245931,0.00348847,0.00399633,-0.00545828,1.15579,0.00548033,0.0249283,671,820,-30.4362,1.63728
-546,204,-30.6552,-2.17151,-0.00395874,0.00430367,0.00353827,0.00561179,-0.00526686,1.21668,0.00628184,0.0267322,678,820,-30.6552,2.17154
-539,204,-30.5636,-2.91962,0,0,0,0,0,0,0,-1,685,820,-30.5636,2.9196
-532,204,-30.0565,-3.29065,0,0,0,0,0,0,0,-1,692,820,-30.0565,3.29063
-525,204,-25.7137,1.52496,0,0,0,0,0,0,0,-1,699,820,-25.7137,-1.52496
-518,204,-41.332,2.00537,0,0,0,0,0,0,0,-1,706,820,-41.332,-2.00537
-511,204,-42.5336,1.15015,0,0,0,0,0,0,0,-1,713,820,-42.5337,-1.15015
-504,204,-42.6297,0.908447,0,0,0,0,0,0,0,-1,720,820,-42.6297,-0.908435
-497,204,-42.7227,0.801208,-0.000852643,0.0123364,0.000587923,0.0123625,-0.000878798,1.52634,0.0085497,0.0396291,727,820,-42.7227,-0.801185
-490,204,-42.7084,0.736023,0.000491929,0.0132513,-0.000707187,0.0132904,0.000452853,-1.5156,0.00871321,0.0332702,734,820,-42.7084,-0.736036
-483,204,-42.5953,0.776245,0.00213548,0.0137162,-0.00242906,0.0142051,0.00164662,-1.3722,0.0089717,0.0377899,741,820,-42.5953,-0.77625
-476,204,0,0,0,0,0,0,0,0,0,-1,748,820,0,0
-469,204,0,0,0,0,0,0,0,0,0,-1,755,820,0,0
-462,204,0,0,0,0,0,0,0,0,0,-1,762,820,0,0
-455,204,0,0,0,0,0,0,0,0,0,-1,769,820,0,0
-448,204,0,0,0,0,0,0,0,0,0,-1,776,820,0,0
-441,204,0,0,0,0,0,0,0,0,0,-1,783,820,0,0
-434,204,0,0,0,0,0,0,0,0,0,-1,790,820,0,0
-427,204,0,0,0,0,0,0,0,0,0,-1,797,820,0,0
-420,204,0,0,0,0,0,0,0,0,0,-1,804,820,0,0
-413,204,0,0,0,0,0,0,0,0,0,-1,811,820,0,0
-406,204,0,0,0,0,0,0,0,0,0,-1,818,820,0,0
-399,204,0,0,0,0,0,0,0,0,0,-1,825,820,0,0
-392,204,0,0,0,0,0,0,0,0,0,-1,832,820,0,0
-385,204,0,0,0,0,0,0,0,0,0,-1,839,820,0,0
-378,204,0,0,0,0,0,0,0,0,0,-1,846,820,0,0
-371,204,0,0,0,0,0,0,0,0,0,-1,853,820,0,0
-364,204,0,0,0,0,0,0,0,0,0,-1,860,820,0,0
-357,204,0,0,0,0,0,0,0,0,0,-1,867,820,0,0
-350,204,0,0,0,0,0,0,0,0,0,-1,874,820,0,0
-343,204,0,0,0,0,0,0,0,0,0,-1,881,820,0,0
-336,204,0,0,0,0,0,0,0,0,0,-1,888,820,0,0
-329,204,0,0,0,0,0,0,0,0,0,-1,895,820,0,0
-322,204,0,0,0,0,0,0,0,0,0,-1,902,820,0,0
-315,204,0,0,0,0,0,0,0,0,0,-1,909,820,0,0
-308,204,0,0,0,0,0,0,0,0,0,-1,916,820,0,0
-301,204,0,0,0,0,0,0,0,0,0,-1,923,820,0,0
-294,204,0,0,0,0,0,0,0,0,0,-1,930,820,0,0
-287,204,0,0,0,0,0,0,0,0,0,-1,937,820,0,0
-280,204,0,0,0,0,0,0,0,0,0,-1,944,820,0,0
-273,204,0,0,0,0,0,0,0,0,0,-1,951,820,0,0
-266,204,0,0,0,0,0,0,0,0,0,-1,958,820,0,0
-259,204,0,0,0,0,0,0,0,0,0,-1,965,820,0,0
-252,204,0,0,0,0,0,0,0,0,0,-1,972,820,0,0
-245,204,0,0,0,0,0,0,0,0,0,-1,979,820,0,0
-238,204,0,0,0,0,0,0,0,0,0,-1,986,820,0,0
-231,204,0,0,0,0,0,0,0,0,0,-1,993,820,0,0
-224,204,0,0,0,0,0,0,0,0,0,-1,1000,820,0,0
-217,204,0,0,0,0,0,0,0,0,0,-1,1007,820,0,0
-210,204,0,0,0,0,0,0,0,0,0,-1,1014,820,0,0
-203,204,0,0,0,0,0,0,0,0,0,-1,1021,820,0,0
-196,204,0,0,0,0,0,0,0,0,0,-1,1028,820,0,0
-189,204,0,0,0,0,0,0,0,0,0,-1,1035,820,0,0
-182,204,0,0,0,0,0,0,0,0,0,-1,1042,820,0,0
-175,204,0,0,0,0,0,0,0,0,0,-1,1049,820,0,0
-168,204,0,0,0,0,0,0,0,0,0,-1,1056,820,0,0
-161,204,0,0,0,0,0,0,0,0,0,-1,1063,820,0,0
-154,204,0,0,0,0,0,0,0,0,0,-1,1070,820,0,0
-147,204,0,0,0,0,0,0,0,0,0,-1,1077,820,0,0
-140,204,0,0,0,0,0,0,0,0,0,-1,1084,820,0,0
-133,204,0,0,0,0,0,0,0,0,0,-1,1091,820,0,0
-126,204,0,0,0,0,0,0,0,0,0,-1,1098,820,0,0
-119,204,0,0,0,0,0,0,0,0,0,-1,1105,820,0,0
-112,204,0,0,0,0,0,0,0,0,0,-1,1112,820,0,0
-105,204,0,0,0,0,0,0,0,0,0,-1,1119,820,0,0
-98,204,0,0,0,0,0,0,0,0,0,-1,1126,820,0,0
-91,204,0,0,0,0,0,0,0,0,0,-1,1133,820,0,0
-84,204,0,0,0,0,0,0,0,0,0,-1,1140,820,0,0
-77,204,0,0,0,0,0,0,0,0,0,-1,1147,820,0,0
-70,204,0,0,0,0,0,0,0,0,0,-1,1154,820,0,0
-63,204,0,0,0,0,0,0,0,0,0,-1,1161,820,0,0
-56,204,0,0,0,0,0,0,0,0,0,-1,1168,820,0,0
-49,204,0,0,0,0,0,0,0,0,0,-1,1175,820,0,0
-42,204,0,0,0,0,0,0,0,0,0,-1,1182,820,0,0
-35,204,0,0,0,0,0,0,0,0,0,-1,1189,820,0,0
-28,204,0,0,0,0,0,0,0,0,0,-1,1196,820,0,0
-21,204,0,0,0,0,0,0,0,0,0,-1,1203,820,0,0
-14,204,0,0,0,0,0,0,0,0,0,-1,1210,820,0,0
-7,204,0,0,0,0,0,0,0,0,0,-1,1217,820,0,0
0,204,0,0,0,0,0,0,0,0,0,-1,1224,820,0,0
7,204,0,0,0,0,0,0,0,0,0,-1,1231,820,0,0
14,204,0,0,0,0,0,0,0,0,0,-1,1238,820,0,0
21,204,0,0,0,0,0,0,0,0,0,-1,1245,820,0,0
28,204,0,0,0,0,0,0,0,0,0,-1,1252,820,0,0
35,204,0,0,0,0,0,0,0,0,0,-1,1259,820,0,0
42,204,0,0,0,0,0,0,0,0,0,-1,1266,820,0,0
49,204,0,0,0,0,0,0,0,0,0,-1,1273,820,0,0
56,204,0,0,0,0,0,0,0,0,0,-1,1280,820,0,0
63,204,0,0,0,0,0,0,0,0,0,-1,1287,820,0,0
70,204,0,0,0,0,0,0,0,0,0,-1,1294,820,0,0
77,204,0,0,0,0,0,0,0,0,0,-1,1301,820,0,0
84,204,0,0,0,0,0,0,0,0,0,-1,1308,820,0,0
91,204,0,0,0,0,0,0,0,0,0,-1,1315,820,0,0
98,204,0,0,0,0,0,0,0,0,0,-1,1322,820,0,0
105,204,0,0,0,0,0,0,0,0,0,-1,1329,820,0,0
112,204,0,0,0,0,0,0,0,0,0,-1,1336,820,0,0
119,204,0,0,0,0,0,0,0,0,0,-1,1343,820,0,0
126,204,0,0,0,0,0,0,0,0,0,-1,1350,820,0,0
133,204,0,0,0,0,0,0,0,0,0,-1,1357,820,0,0
140,204,0,0,0,0,0,0,0,0,0,-1,1364,820,0,0
147,204,0,0,0,0,0,0,0,0,0,-1,1371,820,0,0
154,204,0,0,0,0,0,0,0,0,0,-1,1378,820,0,0
161,204,0,0,0,0,0,0,0,0,0,-1,1385,820,0,0
168,204,0,0,0,0,0,0,0,0,0,-1,1392,820,0,0
175,204,0,0,0,0,0,0,0,0,0,-1,1399,820,0,0
182,204,0,0,0,0,0,0,0,0,0,-1,1406,820,0,0
189,204,0,0,0,0,0,0,0,0,0,-1,1413,820,0,0
196,204,0,0,0,0,0,0,0,0,0,-1,1420,820,0,0
203,204,0,0,0,0,0,0,0,0,0,-1,1427,820,0,0
210,204,0,0,0,0,0,0,0,0,0,-1,1434,820,0,0
217,204,0,0,0,0,0,0,0,0,0,-1,1441,820,0,0
224,204,0,0,0,0,0,0,0,0,0,-1,1448,820,0,0
231,204,0,0,0,0,0,0,0,0,0,-1,1455,820,0,0
238,204,0,0,0,0,0,0,0,0,0,-1,1462,820,0,0
245,204,0,0,0,0,0,0,0,0,0,-1,1469,820,0,0
252,204,0,0,0,0,0,0,0,0,0,-1,1476,820,0,0
259,204,0,0,0,0,0,0,0,0,0,-1,1483,820,0,0
266,204,0,0,0,0,0,0,0,0,0,-1,1490,820,0,0
273,204,0,0,0,0,0,0,0,0,0,-1,1497,820,0,0
280,204,0,0,0,0,0,0,0,0,0,-1,1504,820,0,0
287,204,0,0,0,0,0,0,0,0,0,-1,1511,820,0,0
294,204,0,0,0,0,0,0,0,0,0,-1,1518,820,0,0
301,204,0,0,0,0,0,0,0,0,0,-1,1525,820,0,0
308,204,0,0,0,0,0,0,0,0,0,-1,1532,820,0,0
315,204,0,0,0,0,0,0,0,0,0,-1,1539,820,0,0
322,204,0,0,0,0,0,0,0,0,0,-1,1546,820,0,0
329,204,0,0,0,0,0,0,0,0,0,-1,1553,820,0,0
336,204,0,0,0,0,0,0,0,0,0,-1,1560,820,0,0
343,204,0,0,0,0,0,0,0,0,0,-1,1567,820,0,0
350,204,0,0,0,0,0,0,0,0,0,-1,1574,820,0,0
357,204,0,0,0,0,0,0,0,0,0,-1,1581,820,0,0
364,204,0,0,0,0,0,0,0,0,0,-1,1588,820,0,0
371,204,0,0,0,0,0,0,0,0,0,-1,1595,820,0,0
378,204,0,0,0,0,0,0,0,0,0,-1,1602,820,0,0
385,204,0,0,0,0,0,0,0,0,0,-1,1609,820,0,0
392,204,0,0,0,0,0,0,0,0,0,-1,1616,820,0,0
399,204,0,0,0,0,0,0,0,0,0,-1,1623,820,0,0
406,204,0,0,0,0,0,0,0,0,0,-1,1630,820,0,0
413,204,0,0,0,0,0,0,0,0,0,-1,1637,820,0,0
420,204,0,0,0,0,0,0,0,0,0,-1,1644,820,0,0
427,204,0,0,0,0,0,0,0,0,0,-1,1651,820,0,0
434,204,0,0,0,0,0,0,0,0,0,-1,1658,820,0,0
441,204,0,0,0,0,0,0,0,0,0,-1,1665,820,0,0
448,204,0,0,0,0,0,0,0,0,0,-1,1672,820,0,0
455,204,0,0,0,0,0,0,0,0,0,-1,1679,820,0,0
462,204,0,0,0,0,0,0,0,0,0,-1,1686,820,0,0
469,204,0,0,0,0,0,0,0,0,0,-1,1693,820,0,0
476,204,0,0,0,0,0,0,0,0,0,-1,1700,820,0,0
483,204,0,0,0,0,0,0,0,0,0,-1,1707,820,0,0
490,204,0,0,0,0,0,0,0,0,0,-1,1714,820,0,0
497,204,0,0,0,0,0,0,0,0,0,-1,1721,820,0,0
504,204,0,0,0,0,0,0,0,0,0,-1,1728,820,0,0
511,204,0,0,0,0,0,0,0,0,0,-1,1735,820,0,0
518,204,0,0,0,0,0,0,0,0,0,-1,1742,820,0,0
525,204,0,0,0,0,0,0,0,0,0,-1,1749,820,0,0
532,204,0,0,0,0,0,0,0,0,0,-1,1756,820,0,0
539,204,0,0,0,0,0,0,0,0,0,-1,1763,820,0,0
546,204,0,0,0,0,0,0,0,0,0,-1,1770,820,0,0
553,204,0,0,0,0,0,0,0,0,0,-1,1777,820,0,0
560,204,0,0,0,0,0,0,0,0,0,-1,1784,820,0,0
567,204,0,0,0,0,0,0,0,0,0,-1,1791,820,0,0
574,204,0,0,0,0,0,0,0,0,0,-1,1798,820,0,0
581,204,0,0,0,0,0,0,0,0,0,-1,1805,820,0,0
588,204,0,0,0,0,0,0,0,0,0,-1,1812,820,0,0
595,204,0,0,0,0,0,0,0,0,0,-1,1819,820,0,0
602,204,56.5015,2.60291,0.00716446,0.000145345,8.25354e-05,0.00716543,0.000144374,0.0117565,0.00472956,0.0376844,1826,820,56.5015,-2.60292
609,204,56.5439,2.65826,0.00518589,0.000319747,0.000848694,0.00532966,0.000175976,0.16781,0.00349593,0.0418276,1833,820,56.544,-2.65827
616,204,56.637,2.7121,0.00361002,0.000404642,0.00127074,0.00405267,-3.80031e-05,0.335192,0.00271453,0.0404248,1840,820,56.637,-2.71207
623,204,56.5255,2.70911,0.00230763,0.000179926,0.00105709,0.00274353,-0.000255964,0.391105,0.00192003,0.0293783,1847,820,56.5255,-2.70912
630,204,56.5188,2.66388,0.00109365,0.000199244,0.000686964,0.00146615,-0.000173254,0.496864,0.00104001,0.0274486,1854,820,56.5188,-2.66388
637,204,56.5212,2.66248,0.000135675,-3.41344e-05,0.00018973,0.000258632,-0.000157091,0.575011,0.000242393,0.0353652,1861,820,56.5212,-2.66249
644,204,56.5272,2.66516,0,0,0,0,0,0,0,-1,1868,820,56.5272,-2.66515
651,204,53.7611,2.32251,0,0,0,0,0,0,0,-1,1875,820,53.7611,-2.32249
658,204,34.9631,1.64844,0,0,0,0,0,0,0,-1,1882,820,34.9631,-1.64842
665,204,21.8292,1.51099,0,0,0,0,0,0,0,-1,1889,820,21.8292,-1.51099
672,204,43.1187,-0.664673,0,0,0,0,0,0,0,-1,1896,820,43.1187,0.664658
679,204,43.061,-0.0275269,-0.0029358,-0.00123673,-0.00192811,2.07024e-05,-0.00419323,-0.992905,0.00280241,0.0411062,1903,820,43.0611,0.0275349
686,204,42.9762,0.690369,-0.00304784,-0.00122473,-0.00222157,0.000265022,-0.0045376,-0.980084,0.00311716,0.0207888,1910,820,42.9762,-0.690386
693,204,42.8323,1.31586,-0.00273597,-0.00125248,-0.00224547,0.000370578,-0.00435903,-0.94492,0.00303709,0.0184619,1917,820,42.8323,-1.31585
700,204,42.8368,1.97998,-0.00176188,-0.00101063,-0.00183754,0.00048929,-0.00326179,-0.886217,0.00235463,0.0191488,1924,820,42.8368,-1.97998
707,204,42.8069,2.65936,7.23833e-05,-0.000509497,-0.00104073,0.000862077,-0.00129919,-0.649101,0.00125629,0.0161869,1931,820,42.8068,-2.65935
714,204,42.8055,3.37653,0.00270415,0.00054127,-0.000449702,0.00279392,0.000451495,-0.197042,0.00173185,0.0241311,1938,820,42.8055,-3.3765
721,204,42.8105,3.95465,0.00586201,0.00157501,0.000177002,0.00586931,0.00156772,0.0411946,0.00350904,0.0218371,1945,820,42.8106,-3.95466
728,204,42.7709,4.57489,0.00945222,0.00281952,0.000536721,0.00949537,0.00277636,0.0802248,0.00563748,0.0136822,1952,820,42.7709,-4.57492
735,204,42.6952,5.25958,0.0134901,0.00439673,0.000487232,0.0135161,0.0043707,0.0533775,0.00796416,0.0167631,1959,820,42.6951,-5.25956
742,204,42.6786,5.83942,0.0181604,0.00643604,-0.000180198,0.0181632,0.00643327,-0.0153646,0.0106341,0.0325183,1966,820,42.6786,-5.8394
749,204,42.7278,6.37762,0.0234693,0.00919807,-0.00162178,0.0236513,0.00901609,-0.111741,0.0137829,0.048234,1973,820,42.7278,-6.37765
756,204,42.7733,7.74847,0.0295319,0.0130015,-0.00427137,0.0305704,0.0119631,-0.238495,0.0177882,0.0479946,1980,820,42.7734,-7.74845
763,204,42.6622,8.68054,0.0361894,0.0183084,-0.00865825,0.0396947,0.0148031,-0.384681,0.0231632,0.0484519,1987,820,42.6622,-8.68055
770,204,43.2932,8.66998,0,0,0,0,0,0,0,-1,1994,820,43.2933,-8.67001
777,204,0,0,0,0,0,0,0,0,0,-1,2001,820,0,0
784,204,0,0,0,0,0,0,0,0,0,-1,2008,820,0,0
791,204,0,0,0,0,0,0,0,0,0,-1,2015,820,0,0
798,204,0,0,0,0,0,0,0,0,0,-1,2022,820,0,0
805,204,0,0,0,0,0,0,0,0,0,-1,2029,820,0,0
812,204,0,0,0,0,0,0,0,0,0,-1,2036,820,0,0
-700,197,0,0,0,0,0,0,0,0,0,-1,524,827,0,0
-693,197,0,0,0,0,0,0,0,0,0,-1,531,827,0,0
-686,197,0,0,0,0,0,0,0,0,0,-1,538,827,0,0
-679,197,0,0,0,0,0,0,0,0,0,-1,545,827,0,0
-672,197,0,0,0,0,0,0,0,0,0,-1,552,827,0,0
-665,197,0,0,0,0,0,0,0,0,0,-1,559,827,0,0
-658,197,-34.5739,5.17334,0,0,0,0,0,0,0,-1,566,827,-34.5738,-5.17337
-651,197,-34.4095,4.15332,0,0,0,0,0,0,0,-1,573,827,-34.4096,-4.15333
-644,197,-35.0823,3.64722,0,0,0,0,0,0,0,-1,580,827,-35.0823,-3.6472
-637,197,-27.6712,4.42389,0,0,0,0,0,0,0,-1,587,827,-27.6712,-4.42386
-630,197,-27.0933,4.53906,0,0,0,0,0,0,0,-1,594,827,-27.0933,-4.53909
-623,197,-30.4709,5.10431,0,0,0,0,0,0,0,-1,601,827,-30.4709,-5.10432
-616,197,-30.5878,4.27075,-0.000814769,0.0271754,-0.0260464,0.0427485,-0.0163879,-1.03192,0.035255,0.0459024,608,827,-30.5878,-4.27078
-609,197,-30.7073,3.42322,-0.000787206,0.0183959,-0.0178861,0.0290999,-0.0114912,-1.03151,0.0241592,0.0323825,615,827,-30.7074,-3.42321
-602,197,-30.8464,2.67871,-0.000539607,0.0125249,-0.0115061,0.0192237,-0.00723839,-1.04357,0.0157916,0.0181143,622,827,-30.8464,-2.67874
-595,197,-30.9148,2.09906,-0.000620919,0.00780278,-0.0065502,0.0113784,-0.00419655,-1.07112,0.00930541,0.0189615,629,827,-30.9148,-2.09908
-588,197,-30.9409,1.44305,-0.00104135,0.0046212,-0.00253701,0.00559158,-0.00201173,-1.20548,0.00454907,0.0206842,636,827,-30.9409,-1.44305
-581,197,-30.9691,0.790405,-0.00124468,0.00260382,0.000306025,0.002628,-0.00126886,1.49194,0.00229502,0.0120029,643,827,-30.9691,-0.790435
-574,197,-30.9781,0.187256,-0.00179982,0.00156116,0.00182212,0.00235942,-0.00259807,1.15789,0.00286331,0.0125945,650,827,-30.9781,-0.187232
-567,197,-30.932,-0.413574,-0.0024618,0.00113664,0.00267055,0.00255752,-0.00388268,1.08184,0.0037444,0.0155994,657,827,-30.932,0.413582
-560,197,-30.8599,-1.05249,-0.0029018,0.00135709,0.00311997,0.00300505,-0.00454975,1.08485,0.00439205,0.0317201,664,827,-30.8598,1.05251
-553,197,-31.3688,-1.49731,-0.00337461,0.00265324,0.00328214,0.00409534,-0.00481671,1.15681,0.00515099,0.0292574,671,827,-31.3688,1.4973
-546,197,-31.286,-2.0509,-0.00340876,0.00446966,0.00327542,0.00565352,-0.00459262,1.22397,0.00592617,0.0457106,678,827,-31.286,2.0509
-539,197,-31.1176,-2.56781,0,0,0,0,0,0,0,-1,685,827,-31.1175,2.56782
-532,197,-16.0519,0.0410156,0,0,0,0,0,0,0,-1,692,827,-16.0519,-0.0410415
-525,197,-35.3785,2.11829,0,0,0,0,0,0,0,-1,699,827,-35.3785,-2.11826
-518,197,-42.6813,0.870789,0,0,0,0,0,0,0,-1,706,827,-42.6813,-0.870794
-511,197,-42.7659,0.723145,-0.00253957,0.010191,0.00180473,0.0104419,-0.00279047,1.43266,0.00805418,0.0443227,713,827,-42.7659,-0.723162
-504,197,-42.7378,0.854431,0,0,0,0,0,0,0,-1,720,827,-42.7378,-0.854416
-497,197,-42.7794,0.892639,-0.00025268,0.0129304,0.00033705,0.012939,-0.000261291,1.54525,0.00871439,0.0418081,727,827,-42.7793,-0.892613
-490,197,-42.7914,0.913025,0.00130477,0.0138095,-0.001031,0.013894,0.00122033,-1.48908,0.00888385,0.0380865,734,827,-42.7914,-0.913039
-483,197,-42.6603,0.940918,0.0030696,0.013775,-0.00283643,0.01448,0.00236452,-1.32715,0.00896968,0.0408439,741,827,-42.6604,-0.940928
-476,197,0,0,0,0,0,0,0,0,0,-1,748,827,0,0
-469,197,0,0,0,0,0,0,0,0,0,-1,755,827,0,0
-462,197,0,0,0,0,0,0,0,0,0,-1,762,827,0,0
-455,197,0,0,0,0,0,0,0,0,0,-1,769,827,0,0
-448,197,0,0,0,0,0,0,0,0,0,-1,776,827,0,0
-441,197,0,0,0,0,0,0,0,0,0,-1,783,827,0,0
-434,197,0,0,0,0,0,0,0,0,0,-1,790,827,0,0
-427,197,0,0,0,0,0,0,0,0,0,-1,797,827,0,0
-420,197,0,0,0,0,0,0,0,0,0,-1,804,827,0,0
-413,197,0,0,0,0,0,0,0,0,0,-1,811,827,0,0
-406,197,0,0,0,0,0,0,0,0,0,-1,818,827,0,0
-399,197,0,0,0,0,0,0,0,0,0,-1,825,827,0,0
-392,197,0,0,0,0,0,0,0,0,0,-1,832,827,0,0
-385,197,0,0,0,0,0,0,0,0,0,-1,839,827,0,0
-378,197,0,0,0,0,0,0,0,0,0,-1,846,827,0,0
-371,197,0,0,0,0,0,0,0,0,0,-1,853,827,0,0
-364,197,0,0,0,0,0,0,0,0,0,-1,860,827,0,0
-357,197,0,0,0,0,0,0,0,0,0,-1,867,827,0,0
-350,197,0,0,0,0,0,0,0,0,0,-1,874,827,0,0
-343,197,0,0,0,0,0,0,0,0,0,-1,881,827,0,0
-336,197,0,0,0,0,0,0,0,0,0,-1,888,827,0,0
-329,197,0,0,0,0,0,0,0,0,0,-1,895,827,0,0
-322,197,0,0,0,0,0,0,0,0,0,-1,902,827,0,0
-315,197,0,0,0,0,0,0,0,0,0,-1,909,827,0,0
-308,197,0,0,0,0,0,0,0,0,0,-1,916,827,0,0
-301,197,0,0,0,0,0,0,0,0,0,-1,923,827,0,0
-294,197,0,0,0,0,0,0,0,0,0,-1,930,827,0,0
-287,197,0,0,0,0,0,0,0,0,0,-1,937,827,0,0
-280,197,0,0,0,0,0,0,0,0,0,-1,944,827,0,0
-273,197,0,0,0,0,0,0,0,0,0,-1,951,827,0,0
-266,197,0,0,0,0,0,0,0,0,0,-1,958,827,0,0
-259,197,0,0,0,0,0,0,0,0,0,-1,965,827,0,0
-252,197,0,0,0,0,0,0,0,0,0,-1,972,827,0,0
-245,197,0,0,0,0,0,0,0,0,0,-1,979,827,0,0
-238,197,0,0,0,0,0,0,0,0,0,-1,986,827,0,0
-231,197,0,0,0,0,0,0,0,0,0,-1,993,827,0,0
-224,197,0,0,0,0,0,0,0,0,0,-1,1000,827,0,0
-217,197,0,0,0,0,0,0,0,0,0,-1,1007,827,0,0
-210,197,0,0,0,0,0,0,0,0,0,-1,1014,827,0,0
-203,197,0,0,0,0,0,0,0,0,0,-1,1021,827,0,0
-196,197,0,0,0,0,0,0,0,0,0,-1,1028,827,0,0
-189,197,0,0,0,0,0,0,0,0,0,-1,1035,827,0,0
-182,197,0,0,0,0,0,0,0,0,0,-1,1042,827,0,0
-175,197,0,0,0,0,0,0,0,0,0,-1,1049,827,0,0
-168,197,0,0,0,0,0,0,0,0,0,-1,1056,827,0,0
-161,197,0,0,0,0,0,0,0,0,0,-1,1063,827,0,0
-154,197,0,0,0,0,0,0,0,0,0,-1,1070,827,0,0
-147,197,0,0,0,0,0,0,0,0,0,-1,1077,827,0,0
-140,197,0,0,0,0,0,0,0,0,0,-1,1084,827,0,0
-133,197,0,0,0,0,0,0,0,0,0,-1,1091,827,0,0
-126,197,0,0,0,0,0,0,0,0,0,-1,1098,827,0,0
-119,197,0,0,0,0,0,0,0,0,0,-1,1105,827,0,0
-112,197,0,0,0,0,0,0,0,0,0,-1,1112,827,0,0
-105,197,0,0,0,0,0,0,0,0,0,-1,1119,827,0,0
-98,197,0,0,0,0,0,0,0,0,0,-1,1126,827,0,0
-91,197,0,0,0,0,0,0,0,0,0,-1,1133,827,0,0
-84,197,0,0,0,0,0,0,0,0,0,-1,1140,827,0,0
-77,197,0,0,0,0,0,0,0,0,0,-1,1147,827,0,0
-70,197,0,0,0,0,0,0,0,0,0,-1,1154,827,0,0
-63,197,0,0,0,0,0,0,0,0,0,-1,1161,827,0,0
-56,197,0,0,0,0,0,0,0,0,0,-1,1168,827,0,0
-49,197,0,0,0,0,0,0,0,0,0,-1,1175,827,0,0
-42,197,0,0,0,0,0,0,0,0,0,-1,1182,827,0,0
-35,197,0,0,0,0,0,0,0,0,0,-1,1189,827,0,0
-28,197,0,0,0,0,0,0,0,0,0,-1,1196,827,0,0
-21,197,0,0,0,0,0,0,0,0,0,-1,1203,827,0,0
-14,197,0,0,0,0,0,0,0,0,0,-1,1210,827,0,0
-7,197,0,0,0,0,0,0,0,0,0,-1,1217,827,0,0
0,197,0,0,0,0,0,0,0,0,0,-1,1224,827,0,0
7,197,0,0,0,0,0,0,0,0,0,-1,1231,827,0,0
14,197,0,0,0,0,0,0,0,0,0,-1,1238,827,0,0
21,197,0,0,0,0,0,0,0,0,0,-1,1245,827,0,0
28,197,0,0,0,0,0,0,0,0,0,-1,1252,827,0,0
35,197,0,0,0,0,0,0,0,0,0,-1,1259,827,0,0
42,197,0,0,0,0,0,0,0,0,0,-1,1266,827,0,0
49,197,0,0,0,0,0,0,0,0,0,-1,1273,827,0,0
56,197,0,0,0,0,0,0,0,0,0,-1,1280,827,0,0
63,197,0,0,0,0,0,0,0,0,0,-1,1287,827,0,0
70,197,0,0,0,0,0,0,0,0,0,-1,1294,827,0,0
77,197,0,0,0,0,0,0,0,0,0,-1,1301,827,0,0
84,197,0,0,0,0,0,0,0,0,0,-1,1308,827,0,0
91,197,0,0,0,0,0,0,0,0,0,-1,1315,827,0,0
98,197,0,0,0,0,0,0,0,0,0,-1,1322,827,0,0
105,197,0,0,0,0,0,0,0,0,0,-1,1329,827,0,0
112,197,0,0,0,0,0,0,0,0,0,-1,1336,827,0,0
119,197,0,0,0,0,0,0,0,0,0,-1,1343,827,0,0
126,197,0,0,0,0,0,0,0,0,0,-1,1350,827,0,0
133,197,0,0,0,0,0,0,0,0,0,-1,1357,827,0,0
140,197,0,0,0,0,0,0,0,0,0,-1,1364,827,0,0
147,197,0,0,0,0,0,0,0,0,0,-1,1371,827,0,0
154,197,0,0,0,0,0,0,0,0,0,-1,1378,827,0,0
161,197,0,0,0,0,0,0,0,0,0,-1,1385,827,0,0
168,197,0,0,0,0,0,0,0,0,0,-1,1392,827,0,0
175,197,0,0,0,0,0,0,0,0,0,-1,1399,827,0,0
182,197,0,0,0,0,0,0,0,0,0,-1,1406,827,0,0
189,197,0,0,0,0,0,0,0,0,0,-1,1413,827,0,0
196,197,0,0,0,0,0,0,0,0,0,-1,1420,827,0,0
203,197,0,0,0,0,0,0,0,0,0,-1,1427,827,0,0
210,197,0,0,0,0,0,0,0,0,0,-1,1434,827,0,0
217,197,0,0,0,0,0,0,0,0,0,-1,1441,827,0,0
224,197,0,0,0,0,0,0,0,0,0,-1,1448,827,0,0
231,197,0,0,0,0,0,0,0,0,0,-1,1455,827,0,0
238,197,0,0,0,0,0,0,0,0,0,-1,1462,827,0,0
245,197,0,0,0,0,0,0,0,0,0,-1,1469,827,0,0
252,197,0,0,0,0,0,0,0,0,0,-1,1476,827,0,0
259,197,0,0,0,0,0,0,0,0,0,-1,1483,827,0,0
266,197,0,0,0,0,0,0,0,0,0,-1,1490,827,0,0
273,197,0,0,0,0,0,0,0,0,0,-1,1497,827,0,0
280,197,0,0,0,0,0,0,0,0,0,-1,1504,827,0,0
287,197,0,0,0,0,0,0,0,0,0,-1,1511,827,0,0
294,197,0,0,0,0,0,0,0,0,0,-1,1518,827,0,0
301,197,0,0,0,0,0,0,0,0,0,-1,1525,827,0,0
308,197,0,0,0,0,0,0,0,0,0,-1,1532,827,0,0
315,197,0,0,0,0,0,0,0,0,0,-1,1539,827,0,0
322,197,0,0,0,0,0,0,0,0,0,-1,1546,827,0,0
329,197,0,0,0,0,0,0,0,0,0,-1,1553,827,0,0
336,197,0,0,0,0,0,0,0,0,0,-1,1560,827,0,0
343,197,0,0,0,0,0,0,0,0,0,-1,1567,827,0,0
350,197,0,0,0,0,0,0,0,0,0,-1,1574,827,0,0
357,197,0,0,0,0,0,0,0,0,0,-1,1581,827,0,0
364,197,0,0,0,0,0,0,0,0,0,-1,1588,827,0,0
371,197,0,0,0,0,0,0,0,0,0,-1,1595,827,0,0
378,197,0,0,0,0,0,0,0,0,0,-1,1602,827,0,0
385,197,0,0,0,0,0,0,0,0,0,-1,1609,827,0,0
392,197,0,0,0,0,0,0,0,0,0,-1,1616,827,0,0
399,197,0,0,0,0,0,0,0,0,0,-1,1623,827,0,0
406,197,0,0,0,0,0,0,0,0,0,-1,1630,827,0,0
413,197,0,0,0,0,0,0,0,0,0,-1,1637,827,0,0
420,197,0,0,0,0,0,0,0,0,0,-1,1644,827,0,0
427,197,0,0,0,0,0,0,0,0,0,-1,1651,827,0,0
434,197,0,0,0,0,0,0,0,0,0,-1,1658,827,0,0
441,197,0,0,0,0,0,0,0,0,0,-1,1665,827,0,0
448,197,0,0,0,0,0,0,0,0,0,-1,1672,827,0,0
455,197,0,0,0,0,0,0,0,0,0,-1,1679,827,0,0
462,197,0,0,0,0,0,0,0,0,0,-1,1686,827,0,0
469,197,0,0,0,0,0,0,0,0,0,-1,1693,827,0,0
476,197,0,0,0,0,0,0,0,0,0,-1,1700,827,0,0
483,197,0,0,0,0,0,0,0,0,0,-1,1707,827,0,0
490,197,0,0,0,0,0,0,0,0,0,-1,1714,827,0,0
497,197,0,0,0,0,0,0,0,0,0,-1,1721,827,0,0
504,197,0,0,0,0,0,0,0,0,0,-1,1728,827,0,0
511,197,0,0,0,0,0,0,0,0,0,-1,1735,827,0,0
518,197,0,0,0,0,0,0,0,0,0,-1,1742,827,0,0
525,197,0,0,0,0,0,0,0,0,0,-1,1749,827,0,0
532,197,0,0,0,0,0,0,0,0,0,-1,1756,827,0,0
539,197,0,0,0,0,0,0,0,0,0,-1,1763,827,0,0
546,197,0,0,0,0,0,0,0,0,0,-1,1770,827,0,0
553,197,0,0,0,0,0,0,0,0,0,-1,1777,827,0,0
560,197,0,0,0,0,0,0,0,0,0,-1,1784,827,0,0
567,197,0,0,0,0,0,0,0,0,0,-1,1791,827,0,0
574,197,0,0,0,0,0,0,0,0,0,-1,1798,827,0,0
581,197,0,0,0,0,0,0,0,0,0,-1,1805,827,0,0
588,197,0,0,0,0,0,0,0,0,0,-1,1812,827,0,0
595,197,0,0,0,0,0,0,0,0,0,-1,1819,827,0,0
602,197,56.5011,2.65442,0.00667794,0.000756447,0.000616166,0.00674137,0.000693012,0.102592,0.00428198,0.040251,1826,827,56.5011,-2.65439
609,197,56.4882,2.58905,0.00479489,0.000710325,0.00095902,0.00500885,0.000496364,0.219509,0.00318669,0.0428059,1833,827,56.4881,-2.58903
616,197,56.5841,2.65326,0.00326904,0.0005437,0.0010813,0.00364593,0.000166804,0.335389,0.00237697,0.0427471,1840,827,56.5841,-2.65325
623,197,56.5251,2.58429,0.00201353,0.000199771,0.000824812,0.00233252,-0.000119214,0.369021,0.00159624,0.0350602,1847,827,56.5251,-2.58428
630,197,56.5277,2.54779,0.00083188,0.00010291,0.000424004,0.00102653,-9.17367e-05,0.43037,0.000716889,0.0293041,1854,827,56.5278,-2.54782
637,197,56.5697,2.59424,-8.56091e-05,-0.000170562,-0.000100399,-1.90703e-05,-0.0002371,-0.58528,0.000152109,0.0283233,1861,827,56.5697,-2.59423
644,197,56.541,2.63818,-0.000849671,-0.000389339,-0.000512854,-5.73705e-05,-0.00118164,-0.996323,0.00076935,0.0350876,1868,827,56.541,-2.63818
651,197,56.5092,2.70978,0,0,0,0,0,0,0,-1,1875,827,56.5092,-2.70975
658,197,40.4694,3.05927,0,0,0,0,0,0,0,-1,1882,827,40.4694,-3.05926
665,197,14.0618,1.80304,0,0,0,0,0,0,0,-1,1889,827,14.0617,-1.80303
672,197,40.0977,-0.62207,0,0,0,0,0,0,0,-1,1896,827,40.0977,0.6221
679,197,43.4889,-0.232239,0,0,0,0,0,0,0,-1,1903,827,43.4889,0.232217
686,197,43.6128,0.752014,-0.00310446,-0.00163252,-0.00232048,6.59018e-05,-0.00480288,-0.938962,0.00322412,0.0325396,1910,827,43.6128,-0.752031
693,197,43.4832,1.48364,-0.00295464,-0.00167105,-0.00237584,0.000148153,-0.00477385,-0.917317,0.00323308,0.0232634,1917,827,43.4831,-1.48366
700,197,43.442,2.05109,-0.00230458,-0.00147569,-0.00211431,0.000264414,-0.00404468,-0.88218,0.00278877,0.0250415,1924,827,43.4421,-2.05106
707,197,43.4965,2.71185,-0.000826211,-0.00101062,-0.00146493,0.000549418,-0.00238625,-0.753969,0.00180211,0.00951481,1931,827,43.4965,-2.71184
714,197,43.4506,3.33746,0.00157749,6.95362e-05,-0.000930001,0.00202075,-0.000373727,-0.444774,0.00148748,0.0114797,1938,827,43.4506,-3.33748
721,197,43.4364,3.95605,0.00465448,0.00118649,-0.000380732,0.00469578,0.00114518,-0.10807,0.00282719,0.0124848,1945,827,43.4364,-3.95604
728,197,43.3925,4.61902,0.00819449,0.00249418,-6.91559e-05,0.00819533,0.00249334,-0.0121296,0.00485095,0.0112089,1952,827,43.3925,-4.61901
735,197,43.3461,5.27649,0.012151,0.0040613,-0.000163739,0.0121543,0.00405798,-0.0202293,0.00714526,0.0121755,1959,827,43.346,-5.2765
742,197,43.3374,5.94482,0.0166374,0.00605671,-0.000816257,0.0167,0.00599411,-0.0765426,0.00976881,0.0229832,1966,827,43.3374,-5.94484
749,197,43.6001,6.93298,0.0216942,0.00866823,-0.00217654,0.0220482,0.00831417,-0.161258,0.0128571,0.0472575,1973,827,43.6002,-6.93299
756,197,43.5845,7.698,0.0275442,0.0121892,-0.00462041,0.0288273,0.0109061,-0.270876,0.0168069,0.0466564,1980,827,43.5845,-7.69798
763,197,43.6119,8.19946,0.0338547,0.0168991,-0.00879002,0.0375891,0.0131647,-0.401739,0.0220242,0.0455461,1987,827,43.612,-8.19943
770,197,44.3218,8.56055,0,0,0,0,0,0,0,-1,1994,827,44.3218,-8.56057
777,197,0,0,0,0,0,0,0,0,0,-1,2001,827,0,0
784,197,0,0,0,0,0,0,0,0,0,-1,2008,827,0,0
791,197,0,0,0,0,0,0,0,0,0,-1,2015,827,0,0
798,197,0,0,0,0,0,0,0,0,0,-1,2022,827,0,0
805,197,0,0,0,0,0,0,0,0,0,-1,2029,827,0,0
812,197,0,0,0,0,0,0,0,0,0,-1,2036,827,0,0
-700,190,0,0,0,0,0,0,0,0,0,-1,524,834,0,0
-693,190,0,0,0,0,0,0,0,0,0,-1,531,834,0,0
-686,190,0,0,0,0,0,0,0,0,0,-1,538,834,0,0
-679,190,0,0,0,0,0,0,0,0,0,-1,545,834,0,0
-672,190,0,0,0,0,0,0,0,0,0,-1,552,834,0,0
-665,190,0,0,0,0,0,0,0,0,0,-1,559,834,0,0
-658,190,-34.7194,5.09772,0,0,0,0,0,0,0,-1,566,834,-34.7194,-5.09772
-651,190,-34.6227,4.48425,0,0,0,0,0,0,0,-1,573,834,-34.6227,-4.48426
-644,190,-29.7014,10.0268,0,0,0,0,0,0,0,-1,580,834,-29.7014,-10.0268
-637,190,-31.7385,7.57587,0,0,0,0,0,0,0,-1,587,834,-31.7385,-7.57589
-630,190,-32.2927,6.57001,0,0,0,0,0,0,0,-1,594,834,-32.2927,-6.56998
-623,190,-31.8021,5.24786,0,0,0,0,0,0,0,-1,601,834,-31.8021,-5.24783
-616,190,-31.5276,4.37048,-0.000150267,0.0284884,-0.0256773,0.0435692,-0.015231,-1.03975,0.035238,0.0440712,608,834,-31.5276,-4.37051
-609,190,-31.3494,3.33685,-0.000495129,0.0189768,-0.0173778,0.0291601,-0.0106784,-1.04074,0.0238115,0.0266707,615,834,-31.3493,-3.33686
-602,190,-31.4739,2.72052,-0.000515675,0.0126847,-0.0107618,0.018709,-0.00653998,-1.06047,0.0151314,0.017634,622,834,-31.4739,-2.72055
-595,190,-31.5367,2.12994,-0.000691883,0.00756765,-0.00554136,0.0103489,-0.0034731,-1.10563,0.00830272,0.0191342,629,834,-31.5367,-2.12996
-588,190,-31.5746,1.47205,-0.00114851,0.00419196,-0.00137118,0.00452343,-0.00147999,-1.3336,0.00361149,0.0193334,636,834,-31.5746,-1.47202
-581,190,-31.5859,0.833374,-0.00131043,0.00226329,0.00133038,0.00270416,-0.0017513,1.2508,0.00259189,0.0133714,643,834,-31.5858,-0.833388
-574,190,-31.577,0.223816,-0.00171622,0.00140842,0.00255035,0.00283694,-0.00314474,1.06021,0.00345505,0.0118452,650,834,-31.577,-0.223823
-567,190,-31.4787,-0.475769,-0.00215553,0.0012083,0.00302734,0.00298957,-0.00393679,1.03896,0.00401138,0.02603,657,834,-31.4787,0.475764
-560,190,-31.5832,-1.01825,-0.00240973,0.00154387,0.00311545,0.00325675,-0.00412261,1.0681,0.00427025,0.0480223,664,834,-31.5832,1.01827
-553,190,-31.7407,-1.51129,-0.00272086,0.00283786,0.00298995,0.00414073,-0.00402373,1.15985,0.00471392,0.0396702,671,834,-31.7406,1.51128
-546,190,-31.3755,-1.80792,0,0,0,0,0,0,0,-1,678,834,-31.3755,1.80792
-539,190,-16.4624,-0.542542,0,0,0,0,0,0,0,-1,685,834,-16.4624,0.542527
-532,190,-21.6292,2.06122,0,0,0,0,0,0,0,-1,692,834,-21.6292,-2.06123
-525,190,-38.9377,1.03369,0,0,0,0,0,0,0,-1,699,834,-38.9377,-1.0337
-518,190,-42.7288,0.690674,0,0,0,0,0,0,0,-1,706,834,-42.7288,-0.690656
-511,190,-42.875,0.406433,0,0,0,0,0,0,0,-1,713,834,-42.875,-0.40643
-504,190,-42.1895,1.94861,0,0,0,0,0,0,0,-1,720,834,-42.1895,-1.94863
-497,190,-42.4063,1.96051,0,0,0,0,0,0,0,-1,727,834,-42.4063,-1.96048
-490,190,-42.6813,1.13452,0,0,0,0,0,0,0,-1,734,834,-42.6813,-1.13454
-483,190,0,0,0,0,0,0,0,0,0,-1,741,834,0,0
-476,190,0,0,0,0,0,0,0,0,0,-1,748,834,0,0
-469,190,0,0,0,0,0,0,0,0,0,-1,755,834,0,0
-462,190,0,0,0,0,0,0,0,0,0,-1,762,834,0,0
-455,190,0,0,0,0,0,0,0,0,0,-1,769,834,0,0
-448,190,0,0,0,0,0,0,0,0,0,-1,776,834,0,0
-441,190,0,0,0,0,0,0,0,0,0,-1,783,834,0,0
-434,190,0,0,0,0,0,0,0,0,0,-1,790,834,0,0
-427,190,0,0,0,0,0,0,0,0,0,-1,797,834,0,0
-420,190,0,0,0,0,0,0,0,0,0,-1,804,834,0,0
-413,190,0,0,0,0,0,0,0,0,0,-1,811,834,0,0
-406,190,0,0,0,0,0,0,0,0,0,-1,818,834,0,0
-399,190,0,0,0,0,0,0,0,0,0,-1,825,834,0,0
-392,190,0,0,0,0,0,0,0,0,0,-1,832,834,0,0
-385,190,0,0,0,0,0,0,0,0,0,-1,839,834,0,0
-378,190,0,0,0,0,0,0,0,0,0,-1,846,834,0,0
-371,190,0,0,0,0,0,0,0,0,0,-1,853,834,0,0
-364,190,0,0,0,0,0,0,0,0,0,-1,860,834,0,0
-357,190,0,0,0,0,0,0,0,0,0,-1,867,834,0,0
-350,190,0,0,0,0,0,0,0,0,0,-1,874,834,0,0
-343,190,0,0,0,0,0,0,0,0,0,-1,881,834,0,0
-336,190,0,0,0,0,0,0,0,0,0,-1,888,834,0,0
-329,190,0,0,0,0,0,0,0,0,0,-1,895,834,0,0
-322,190,0,0,0,0,0,0,0,0,0,-1,902,834,0,0
-315,190,0,0,0,0,0,0,0,0,0,-1,909,834,0,0
-308,190,0,0,0,0,0,0,0,0,0,-1,916,834,0,0
-301,190,0,0,0,0,0,0,0,0,0,-1,923,834,0,0
-294,190,0,0,0,0,0,0,0,0,0,-1,930,834,0,0
-287,190,0,0,0,0,0,0,0,0,0,-1,937,834,0,0
-280,190,0,0,0,0,0,0,0,0,0,-1,944,834,0,0
-273,190,0,0,0,0,0,0,0,0,0,-1,951,834,0,0
-266,190,0,0,0,0,0,0,0,0,0,-1,958,834,0,0
-259,190,0,0,0,0,0,0,0,0,0,-1,965,834,0,0
-252,190,0,0,0,0,0,0,0,0,0,-1,972,834,0,0
-245,190,0,0,0,0,0,0,0,0,0,-1,979,834,0,0
-238,190,0,0,0,0,0,0,0,0,0,-1,986,834,0,0
-231,190,0,0,0,0,0,0,0,0,0,-1,993,834,0,0
-224,190,0,0,0,0,0,0,0,0,0,-1,1000,834,0,0
-217,190,0,0,0,0,0,0,0,0,0,-1,1007,834,0,0
-210,190,0,0,0,0,0,0,0,0,0,-1,1014,834,0,0
-203,190,0,0,0,0,0,0,0,0,0,-1,1021,834,0,0
-196,190,0,0,0,0,0,0,0,0,0,-1,1028,834,0,0
-189,190,0,0,0,0,0,0,0,0,0,-1,1035,834,0,0
-182,190,0,0,0,0,0,0,0,0,0,-1,1042,834,0,0
-175,190,0,0,0,0,0,0,0,0,0,-1,1049,834,0,0
-168,190,0,0,0,0,0,0,0,0,0,-1,1056,834,0,0
-161,190,0,0,0,0,0,0,0,0,0,-1,1063,834,0,0
-154,190,0,0,0,0,0,0,0,0,0,-1,1070,834,0,0
-147,190,0,0,0,0,0,0,0,0,0,-1,1077,834,0,0
-140,190,0,0,0,0,0,0,0,0,0,-1,1084,834,0,0
-133,190,0,0,0,0,0,0,0,0,0,-1,1091,834,0,0
-126,190,0,0,0,0,0,0,0,0,0,-1,1098,834,0,0
-119,190,0,0,0,0,0,0,0,0,0,-1,1105,834,0,0
-112,190,0,0,0,0,0,0,0,0,0,-1,1112,834,0,0
-105,190,0,0,0,0,0,0,0,0,0,-1,1119,834,0,0
-98,190,0,0,0,0,0,0,0,0,0,-1,1126,834,0,0
-91,190,0,0,0,0,0,0,0,0,0,-1,1133,834,0,0
-84,190,0,0,0,0,0,0,0,0,0,-1,1140,834,0,0
-77,190,0,0,0,0,0,0,0,0,0,-1,1147,834,0,0
-70,190,0,0,0,0,0,0,0,0,0,-1,1154,834,0,0
-63,190,0,0,0,0,0,0,0,0,0,-1,1161,834,0,0
-56,190,0,0,0,0,0,0,0,0,0,-1,1168,834,0,0
-49,190,0,0,0,0,0,0,0,0,0,-1,1175,834,0,0
-42,190,0,0,0,0,0,0,0,0,0,-1,1182,834,0,0
-35,190,0,0,0,0,0,0,0,0,0,-1,1189,834,0,0
-28,190,0,0,0,0,0,0,0,0,0,-1,1196,834,0,0
-21,190,0,0,0,0,0,0,0,0,0,-1,1203,834,0,0
-14,190,0,0,0,0,0,0,0,0,0,-1,1210,834,0,0
-7,190,0,0,0,0,0,0,0,0,0,-1,1217,834,0,0
0,190,0,0,0,0,0,0,0,0,0,-1,1224,834,0,0
7,190,0,0,0,0,0,0,0,0,0,-1,1231,834,0,0
14,190,0,0,0,0,0,0,0,0,0,-1,1238,834,0,0
21,190,0,0,0,0,0,0,0,0,0,-1,1245,834,0,0
28,190,0,0,0,0,0,0,0,0,0,-1,1252,834,0,0
35,190,0,0,0,0,0,0,0,0,0,-1,1259,834,0,0
42,190,0,0,0,0,0,0,0,0,0,-1,1266,834,0,0
49,190,0,0,0,0,0,0,0,0,0,-1,1273,834,0,0
56,190,0,0,0,0,0,0,0,0,0,-1,1280,834,0,0
63,190,0,0,0,0,0,0,0,0,0,-1,1287,834,0,0
70,190,0,0,0,0,0,0,0,0,0,-1,1294,834,0,0
77,190,0,0,0,0,0,0,0,0,0,-1,1301,834,0,0
84,190,0,0,0,0,0,0,0,0,0,-1,1308,834,0,0
91,190,0,0,0,0,0,0,0,0,0,-1,1315,834,0,0
98,190,0,0,0,0,0,0,0,0,0,-1,1322,834,0,0
105,190,0,0,0,0,0,0,0,0,0,-1,1329,834,0,0
112,190,0,0,0,0,0,0,0,0,0,-1,1336,834,0,0
119,190,0,0,0,0,0,0,0,0,0,-1,1343,834,0,0
126,190,0,0,0,0,0,0,0,0,0,-1,1350,834,0,0
133,190,0,0,0,0,0,0,0,0,0,-1,1357,834,0,0
140,190,0,0,0,0,0,0,0,0,0,-1,1364,834,0,0
147,190,0,0,0,0,0,0,0,0,0,-1,1371,834,0,0
154,190,0,0,0,0,0,0,0,0,0,-1,1378,834,0,0
161,190,0,0,0,0,0,0,0,0,0,-1,1385,834,0,0
168,190,0,0,0,0,0,0,0,0,0,-1,1392,834,0,0
175,190,0,0,0,0,0,0,0,0,0,-1,1399,834,0,0
182,190,0,0,0,0,0,0,0,0,0,-1,1406,834,0,0
189,190,0,0,0,0,0,0,0,0,0,-1,1413,834,0,0
196,190,0,0,0,0,0,0,0,0,0,-1,1420,834,0,0
203,190,0,0,0,0,0,0,0,0,0,-1,1427,834,0,0
210,190,0,0,0,0,0,0,0,0,0,-1,1434,834,0,0
217,190,0,0,0,0,0,0,0,0,0,-1,1441,834,0,0
224,190,0,0,0,0,0,0,0,0,0,-1,1448,834,0,0
231,190,0,0,0,0,0,0,0,0,0,-1,1455,834,0,0
238,190,0,0,0,0,0,0,0,0,0,-1,1462,834,0,0
245,190,0,0,0,0,0,0,0,0,0,-1,1469,834,0,0
252,190,0,0,0,0,0,0,0,0,0,-1,1476,834,0,0
259,190,0,0,0,0,0,0,0,0,0,-1,1483,834,0,0
266,190,0,0,0,0,0,0,0,0,0,-1,1490,834,0,0
273,190,0,0,0,0,0,0,0,0,0,-1,1497,834,0,0
280,190,0,0,0,0,0,0,0,0,0,-1,1504,834,0,0
287,190,0,0,0,0,0,0,0,0,0,-1,1511,834,0,0
294,190,0,0,0,0,0,0,0,0,0,-1,1518,834,0,0
301,190,0,0,0,0,0,0,0,0,0,-1,1525,834,0,0
308,190,0,0,0,0,0,0,0,0,0,-1,1532,834,0,0
315,190,0,0,0,0,0,0,0,0,0,-1,1539,834,0,0
322,190,0,0,0,0,0,0,0,0,0,-1,1546,834,0,0
329,190,0,0,0,0,0,0,0,0,0,-1,1553,834,0,0
336,190,0,0,0,0,0,0,0,0,0,-1,1560,834,0,0
343,190,0,0,0,0,0,0,0,0,0,-1,1567,834,0,0
350,190,0,0,0,0,0,0,0,0,0,-1,1574,834,0,0
357,190,0,0,0,0,0,0,0,0,0,-1,1581,834,0,0
364,190,0,0,0,0,0,0,0,0,0,-1,1588,834,0,0
371,190,0,0,0,0,0,0,0,0,0,-1,1595,834,0,0
378,190,0,0,0,0,0,0,0,0,0,-1,1602,834,0,0
385,190,0,0,0,0,0,0,0,0,0,-1,1609,834,0,0
392,190,0,0,0,0,0,0,0,0,0,-1,1616,834,0,0
399,190,0,0,0,0,0,0,0,0,0,-1,1623,834,0,0
406,190,0,0,0,0,0,0,0,0,0,-1,1630,834,0,0
413,190,0,0,0,0,0,0,0,0,0,-1,1637,834,0,0
420,190,0,0,0,0,0,0,0,0,0,-1,1644,834,0,0
427,190,0,0,0,0,0,0,0,0,0,-1,1651,834,0,0
434,190,0,0,0,0,0,0,0,0,0,-1,1658,834,0,0
441,190,0,0,0,0,0,0,0,0,0,-1,1665,834,0,0
448,190,0,0,0,0,0,0,0,0,0,-1,1672,834,0,0
455,190,0,0,0,0,0,0,0,0,0,-1,1679,834,0,0
462,190,0,0,0,0,0,0,0,0,0,-1,1686,834,0,0
469,190,0,0,0,0,0,0,0,0,0,-1,1693,834,0,0
476,190,0,0,0,0,0,0,0,0,0,-1,1700,834,0,0
483,190,0,0,0,0,0,0,0,0,0,-1,1707,834,0,0
490,190,0,0,0,0,0,0,0,0,0,-1,1714,834,0,0
497,190,0,0,0,0,0,0,0,0,0,-1,1721,834,0,0
504,190,0,0,0,0,0,0,0,0,0,-1,1728,834,0,0
511,190,0,0,0,0,0,0,0,0,0,-1,1735,834,0,0
518,190,0,0,0,0,0,0,0,0,0,-1,1742,834,0,0
525,190,0,0,0,0,0,0,0,0,0,-1,1749,834,0,0
532,190,0,0,0,0,0,0,0,0,0,-1,1756,834,0,0
539,190,0,0,0,0,0,0,0,0,0,-1,1763,834,0,0
546,190,0,0,0,0,0,0,0,0,0,-1,1770,834,0,0
553,190,0,0,0,0,0,0,0,0,0,-1,1777,834,0,0
560,190,0,0,0,0,0,0,0,0,0,-1,1784,834,0,0
567,190,0,0,0,0,0,0,0,0,0,-1,1791,834,0,0
574,190,0,0,0,0,0,0,0,0,0,-1,1798,834,0,0
581,190,0,0,0,0,0,0,0,0,0,-1,1805,834,0,0
588,190,0,0,0,0,0,0,0,0,0,-1,1812,834,0,0
595,190,0,0,0,0,0,0,0,0,0,-1,1819,834,0,0
602,190,56.524,2.75433,0.00674871,0.00381527,0.00167286,0.00750679,0.0030572,0.425481,0.00435883,0.0425872,1826,834,56.524,-2.75433
609,190,56.4779,2.70776,0.00500341,0.00323232,0.00166568,0.00600431,0.00223142,0.541079,0.00350446,0.0420904,1833,834,56.4779,-2.70774
616,190,56.5601,2.67175,0.00347002,0.00229356,0.00138326,0.00438492,0.00137865,0.584356,0.00258912,0.0397185,1840,834,56.5601,-2.67176
623,190,56.5504,2.74115,0.00209952,0.00126985,0.000915736,0.00269,0.000679369,0.572721,0.00161523,0.0365118,1847,834,56.5504,-2.74114
630,190,56.5948,2.67169,0.000791261,0.000660434,0.000352068,0.00108394,0.000367754,0.693546,0.000636499,0.0386193,1854,834,56.5948,-2.67169
637,190,56.6097,2.62811,-0.000254945,0.000203737,-0.00024343,0.000308844,-0.000360052,-1.1632,0.000386564,0.0331133,1861,834,56.6097,-2.62809
644,190,56.5651,2.62909,-0.00109847,-0.000120485,-0.000673657,0.000222946,-0.0014419,-1.09934,0.00104355,0.0289782,1868,834,56.565,-2.62909
651,190,56.4701,2.74707,0,0,0,0,0,0,0,-1,1875,834,56.4701,-2.74708
658,190,54.0599,3.0943,0,0,0,0,0,0,0,-1,1882,834,54.0599,-3.09428
665,190,25.9916,3.05157,0,0,0,0,0,0,0,-1,1889,834,25.9916,-3.05156
672,190,27.2662,1.70862,0,0,0,0,0,0,0,-1,1896,834,27.2662,-1.70861
679,190,44.3049,0.264526,0,0,0,0,0,0,0,-1,1903,834,44.3049,-0.264556
686,190,44.2369,0.846802,-0.00327097,-0.00164801,-0.0024266,9.91963e-05,-0.00501818,-0.946758,0.003379,0.0280307,1910,834,44.2369,-0.846785
693,190,44.255,1.47375,-0.0031471,-0.0016943,-0.00248299,0.000166364,-0.00500776,-0.927702,0.00339532,0.024472,1917,834,44.255,-1.47375
700,190,44.0873,2.08203,-0.00270472,-0.00154354,-0.00230849,0.00025625,-0.00450451,-0.908594,0.00309196,0.0160996,1924,834,44.0873,-2.08201
707,190,44.1179,2.7334,-0.00159006,-0.00114311,-0.0018278,0.000474822,-0.003208,-0.846228,0.00231324,0.0131366,1931,834,44.118,-2.73339
714,190,44.1047,3.34802,0.000528474,-0.000135914,-0.00139902,0.00163419,-0.00124163,-0.668833,0.00166551,0.0120493,1938,834,44.1047,-3.348
721,190,44.0607,3.9873,0.00341259,0.000970536,-0.000961409,0.00374566,0.000637468,-0.333498,0.00231407,0.01161,1945,834,44.0607,-3.98733
728,190,44.0245,4.6283,0.00677123,0.00227328,-0.00073876,0.00688946,0.00215505,-0.158692,0.00406949,0.013435,1952,834,44.0245,-4.62832
735,190,44.0114,5.25549,0.0105243,0.00381189,-0.000909974,0.0106454,0.00369071,-0.132384,0.0062417,0.0133132,1959,834,44.0113,-5.25547
742,190,43.9792,5.95679,0.0146646,0.00573934,-0.0015898,0.0149394,0.00546462,-0.171114,0.00872821,0.0191262,1966,834,43.9793,-5.95682
749,190,44.1077,6.79993,0.0192199,0.00819653,-0.0029324,0.0199514,0.007465,-0.244472,0.0116399,0.0430089,1973,834,44.1077,-6.79994
756,190,44.58,7.63654,0.0243583,0.0114328,-0.0052809,0.0262415,0.00954956,-0.342548,0.0153365,0.0461609,1980,834,44.58,-7.63653
763,190,44.8252,8.23572,0.0296452,0.0156407,-0.00927415,0.0342636,0.0110222,-0.462042,0.0201971,0.0486061,1987,834,44.8252,-8.23572
770,190,45.1699,8.8703,0,0,0,0,0,0,0,-1,1994,834,45.17,-8.87029
777,190,40.5735,6.99371,0,0,0,0,0,0,0,-1,2001,834,40.5735,-6.99373
784,190,0,0,0,0,0,0,0,0,0,-1,2008,834,0,0
791,190,0,0,0,0,0,0,0,0,0,-1,2015,834,0,0
798,190,0,0,0,0,0,0,0,0,0,-1,2022,834,0,0
805,190,0,0,0,0,0,0,0,0,0,-1,2029,834,0,0
812,190,0,0,0,0,0,0,0,0,0,-1,2036,834,0,0
-700,183,0,0,0,0,0,0,0,0,0,-1,524,841,0,0
-693,183,0,0,0,0,0,0,0,0,0,-1,531,841,0,0
-686,183,0,0,0,0,0,0,0,0,0,-1,538,841,0,0
-679,183,0,0,0,0,0,0,0,0,0,-1,545,841,0,0
-672,183,0,0,0,0,0,0,0,0,0,-1,552,841,0,0
-665,183,0,0,0,0,0,0,0,0,0,-1,559,841,0,0
-658,183,-35.7355,6.94122,0,0,0,0,0,0,0,-1,566,841,-35.7355,-6.94119
-651,183,-30.8333,10.3167,0,0,0,0,0,0,0,-1,573,841,-30.8333,-10.3167
-644,183,-32.2059,8.74536,0,0,0,0,0,0,0,-1,580,841,-32.206,-8.74538
-637,183,-32.4414,7.44562,0.00507076,0.0791604,-0.0594378,0.112153,-0.0279214,-1.06407,0.085607,0.0477214,587,841,-32.4414,-7.44561
-630,183,-32.9739,6.08411,0.00345843,0.059399,-0.0461015,0.0853517,-0.0224942,-1.05807,0.0656957,0.0491059,594,841,-32.9739,-6.08413
-623,183,-32.6664,4.96198,0,0,0,0,0,0,0,-1,601,841,-32.6665,-4.96199
-616,183,-32.3439,4.12567,0.000600306,0.0303978,-0.0246888,0.044335,-0.0133368,-1.05688,0.0348632,0.0397647,608,841,-32.3439,-4.12566
-609,183,-32.0833,3.34381,-0.000432741,0.0194172,-0.016365,0.0286317,-0.00964722,-1.05798,0.0229885,0.0190677,615,841,-32.0833,-3.3438
-602,183,-32.1082,2.72009,-0.000811958,0.0126605,-0.00957896,0.0176347,-0.00578612,-1.09184,0.014087,0.0120093,622,841,-32.1082,-2.72011
-595,183,-32.1556,2.08386,-0.00118221,0.00716098,-0.00419903,0.00890834,-0.00292957,-1.17646,0.00711926,0.0114765,629,841,-32.1556,-2.08386
-588,183,-32.1669,1.46466,-0.00171367,0.00368475,-0.000103224,0.00368672,-0.00171565,-1.55168,0.00318751,0.0141072,636,841,-32.1669,-1.46465
-581,183,-32.2152,0.85907,-0.00182007,0.00195523,0.00219227,0.00296055,-0.00282539,1.14083,0.00334082,0.0146776,643,841,-32.2152,-0.859077
-574,183,-32.2047,0.265442,-0.00201532,0.00131618,0.00298318,0.00306717,-0.0037663,1.04003,0.00395218,0.0160774,650,841,-32.2047,-0.265438
-567,183,-32.1452,-0.31012,0,0,0,0,0,0,0,-1,657,841,-32.1452,0.31012
-560,183,-32.2778,-1.0874,0,0,0,0,0,0,0,-1,664,841,-32.2778,1.08737
-553,183,-32.2224,-1.71942,0,0,0,0,0,0,0,-1,671,841,-32.2224,1.71944
-546,183,-27.8053,-1.91199,0,0,0,0,0,0,0,-1,678,841,-27.8053,1.91201
-539,183,-16.8032,-0.417297,0,0,0,0,0,0,0,-1,685,841,-16.8032,0.41732
-532,183,-29.9686,0.953613,0,0,0,0,0,0,0,-1,692,841,-29.9686,-0.953627
-525,183,-42.7863,0.67334,0,0,0,0,0,0,0,-1,699,841,-42.7862,-0.673338
-518,183,-42.6208,0.816406,0,0,0,0,0,0,0,-1,706,841,-42.6208,-0.816377
-511,183,-42.4357,0.963074,0,0,0,0,0,0,0,-1,713,841,-42.4357,-0.963072
-504,183,-42.3625,1.37799,-0.000656058,0.0122375,0.000597505,0.0122652,-0.000683688,1.52459,0.00841393,0.0401977,720,841,-42.3625,-1.378
-497,183,-42.4949,1.39484,0.000789045,0.012994,-0.000125705,0.0129953,0.00078775,-1.5605,0.00841323,0.0428616,727,841,-42.4949,-1.39485
-490,183,-42.5848,1.18121,0.00245365,0.0123582,-0.00117463,0.0124956,0.00231625,-1.45435,0.00767569,0.0437874,734,841,-42.5848,-1.1812
-483,183,0,0,0,0,0,0,0,0,0,-1,741,841,0,0
-476,183,0,0,0,0,0,0,0,0,0,-1,748,841,0,0
-469,183,0,0,0,0,0,0,0,0,0,-1,755,841,0,0
-462,183,0,0,0,0,0,0,0,0,0,-1,762,841,0,0
-455,183,0,0,0,0,0,0,0,0,0,-1,769,841,0,0
-448,183,0,0,0,0,0,0,0,0,0,-1,776,841,0,0
-441,183,0,0,0,0,0,0,0,0,0,-1,783,841,0,0
-434,183,0,0,0,0,0,0,0,0,0,-1,790,841,0,0
-427,183,0,0,0,0,0,0,0,0,0,-1,797,841,0,0
-420,183,0,0,0,0,0,0,0,0,0,-1,804,841,0,0
-413,183,0,0,0,0,0,0,0,0,0,-1,811,841,0,0
-406,183,0,0,0,0,0,0,0,0,0,-1,818,841,0,0
-399,183,0,0,0,0,0,0,0,0,0,-1,825,841,0,0
-392,183,0,0,0,0,0,0,0,0,0,-1,832,841,0,0
-385,183,0,0,0,0,0,0,0,0,0,-1,839,841,0,0
-378,183,0,0,0,0,0,0,0,0,0,-1,846,841,0,0
-371,183,0,0,0,0,0,0,0,0,0,-1,853,841,0,0
-364,183,0,0,0,0,0,0,0,0,0,-1,860,841,0,0
-357,183,0,0,0,0,0,0,0,0,0,-1,867,841,0,0
-350,183,0,0,0,0,0,0,0,0,0,-1,874,841,0,0
-343,183,0,0,0,0,0,0,0,0,0,-1,881,841,0,0
-336,183,0,0,0,0,0,0,0,0,0,-1,888,841,0,0
-329,183,0,0,0,0,0,0,0,0,0,-1,895,841,0,0
-322,183,0,0,0,0,0,0,0,0,0,-1,902,841,0,0
-315,183,0,0,0,0,0,0,0,0,0,-1,909,841,0,0
-308,183,0,0,0,0,0,0,0,0,0,-1,916,841,0,0
-301,183,0,0,0,0,0,0,0,0,0,-1,923,841,0,0
-294,183,0,0,0,0,0,0,0,0,0,-1,930,841,0,0
-287,183,0,0,0,0,0,0,0,0,0,-1,937,841,0,0
-280,183,0,0,0,0,0,0,0,0,0,-1,944,841,0,0
-273,183,0,0,0,0,0,0,0,0,0,-1,951,841,0,0
-266,183,0,0,0,0,0,0,0,0,0,-1,958,841,0,0
-259,183,0,0,0,0,0,0,0,0,0,-1,965,841,0,0
-252,183,0,0,0,0,0,0,0,0,0,-1,972,841,0,0
-245,183,0,0,0,0,0,0,0,0,0,-1,979,841,0,0
-238,183,0,0,0,0,0,0,0,0,0,-1,986,841,0,0
-231,183,0,0,0,0,0,0,0,0,0,-1,993,841,0,0
-224,183,0,0,0,0,0,0,0,0,0,-1,1000,841,0,0
-217,183,0,0,0,0,0,0,0,0,0,-1,1007,841,0,0
-210,183,0,0,0,0,0,0,0,0,0,-1,1014,841,0,0
-203,183,0,0,0,0,0,0,0,0,0,-1,1021,841,0,0
-196,183,0,0,0,0,0,0,0,0,0,-1,1028,841,0,0
-189,183,0,0,0,0,0,0,0,0,0,-1,1035,841,0,0
-182,183,0,0,0,0,0,0,0,0,0,-1,1042,841,0,0
-175,183,0,0,0,0,0,0,0,0,0,-1,1049,841,0,0
-168,183,0,0,0,0,0,0,0,0,0,-1,1056,841,0,0
-161,183,0,0,0,0,0,0,0,0,0,-1,1063,841,0,0
-154,183,0,0,0,0,0,0,0,0,0,-1,1070,841,0,0
-147,183,0,0,0,0,0,0,0,0,0,-1,1077,841,0,0
-140,183,0,0,0,0,0,0,0,0,0,-1,1084,841,0,0
-133,183,0,0,0,0,0,0,0,0,0,-1,1091,841,0,0
-126,183,0,0,0,0,0,0,0,0,0,-1,1098,841,0,0
-119,183,0,0,0,0,0,0,0,0,0,-1,1105,841,0,0
-112,183,0,0,0,0,0,0,0,0,0,-1,1112,841,0,0
-105,183,0,0,0,0,0,0,0,0,0,-1,1119,841,0,0
-98,183,0,0,0,0,0,0,0,0,0,-1,1126,841,0,0
-91,183,0,0,0,0,0,0,0,0,0,-1,1133,841,0,0
-84,183,0,0,0,0,0,0,0,0,0,-1,1140,841,0,0
-77,183,0,0,0,0,0,0,0,0,0,-1,1147,841,0,0
-70,183,0,0,0,0,0,0,0,0,0,-1,1154,841,0,0
-63,183,0,0,0,0,0,0,0,0,0,-1,1161,841,0,0
-56,183,0,0,0,0,0,0,0,0,0,-1,1168,841,0,0
-49,183,0,0,0,0,0,0,0,0,0,-1,1175,841,0,0
-42,183,0,0,0,0,0,0,0,0,0,-1,1182,841,0,0
-35,183,0,0,0,0,0,0,0,0,0,-1,1189,841,0,0
-28,183,0,0,0,0,0,0,0,0,0,-1,1196,841,0,0
-21,183,0,0,0,0,0,0,0,0,0,-1,1203,841,0,0
-14,183,0,0,0,0,0,0,0,0,0,-1,1210,841,0,0
-7,183,0,0,0,0,0,0,0,0,0,-1,1217,841,0,0
0,183,0,0,0,0,0,0,0,0,0,-1,1224,841,0,0
7,183,0,0,0,0,0,0,0,0,0,-1,1231,841,0,0
14,183,0,0,0,0,0,0,0,0,0,-1,1238,841,0,0
21,183,0,0,0,0,0,0,0,0,0,-1,1245,841,0,0
28,183,0,0,0,0,0,0,0,0,0,-1,1252,841,0,0
35,183,0,0,0,0,0,0,0,0,0,-1,1259,841,0,0
42,183,0,0,0,0,0,0,0,0,0,-1,1266,841,0,0
49,183,0,0,0,0,0,0,0,0,0,-1,1273,841,0,0
56,183,0,0,0,0,0,0,0,0,0,-1,1280,841,0,0
63,183,0,0,0,0,0,0,0,0,0,-1,1287,841,0,0
70,183,0,0,0,0,0,0,0,0,0,-1,1294,841,0,0
77,183,0,0,0,0,0,0,0,0,0,-1,1301,841,0,0
84,183,0,0,0,0,0,0,0,0,0,-1,1308,841,0,0
91,183,0,0,0,0,0,0,0,0,0,-1,1315,841,0,0
98,183,0,0,0,0,0,0,0,0,0,-1,1322,841,0,0
105,183,0,0,0,0,0,0,0,0,0,-1,1329,841,0,0
112,183,0,0,0,0,0,0,0,0,0,-1,1336,841,0,0
119,183,0,0,0,0,0,0,0,0,0,-1,1343,841,0,0
126,183,0,0,0,0,0,0,0,0,0,-1,1350,841,0,0
133,183,0,0,0,0,0,0,0,0,0,-1,1357,841,0,0
140,183,0,0,0,0,0,0,0,0,0,-1,1364,841,0,0
147,183,0,0,0,0,0,0,0,0,0,-1,1371,841,0,0
154,183,0,0,0,0,0,0,0,0,0,-1,1378,841,0,0
161,183,0,0,0,0,0,0,0,0,0,-1,1385,841,0,0
168,183,0,0,0,0,0,0,0,0,0,-1,1392,841,0,0
175,183,0,0,0,0,0,0,0,0,0,-1,1399,841,0,0
182,183,0,0,0,0,0,0,0,0,0,-1,1406,841,0,0
189,183,0,0,0,0,0,0,0,0,0,-1,1413,841,0,0
196,183,0,0,0,0,0,0,0,0,0,-1,1420,841,0,0
203,183,0,0,0,0,0,0,0,0,0,-1,1427,841,0,0
210,183,0,0,0,0,0,0,0,0,0,-1,1434,841,0,0
217,183,0,0,0,0,0,0,0,0,0,-1,1441,841,0,0
224,183,0,0,0,0,0,0,0,0,0,-1,1448,841,0,0
231,183,0,0,0,0,0,0,0,0,0,-1,1455,841,0,0
238,183,0,0,0,0,0,0,0,0,0,-1,1462,841,0,0
245,183,0,0,0,0,0,0,0,0,0,-1,1469,841,0,0
252,183,0,0,0,0,0,0,0,0,0,-1,1476,841,0,0
259,183,0,0,0,0,0,0,0,0,0,-1,1483,841,0,0
266,183,0,0,0,0,0,0,0,0,0,-1,1490,841,0,0
273,183,0,0,0,0,0,0,0,0,0,-1,1497,841,0,0
280,183,0,0,0,0,0,0,0,0,0,-1,1504,841,0,0
287,183,0,0,0,0,0,0,0,0,0,-1,1511,841,0,0
294,183,0,0,0,0,0,0,0,0,0,-1,1518,841,0,0
301,183,0,0,0,0,0,0,0,0,0,-1,1525,841,0,0
308,183,0,0,0,0,0,0,0,0,0,-1,1532,841,0,0
315,183,0,0,0,0,0,0,0,0,0,-1,1539,841,0,0
322,183,0,0,0,0,0,0,0,0,0,-1,1546,841,0,0
329,183,0,0,0,0,0,0,0,0,0,-1,1553,841,0,0
336,183,0,0,0,0,0,0,0,0,0,-1,1560,841,0,0
343,183,0,0,0,0,0,0,0,0,0,-1,1567,841,0,0
350,183,0,0,0,0,0,0,0,0,0,-1,1574,841,0,0
357,183,0,0,0,0,0,0,0,0,0,-1,1581,841,0,0
364,183,0,0,0,0,0,0,0,0,0,-1,1588,841,0,0
371,183,0,0,0,0,0,0,0,0,0,-1,1595,841,0,0
378,183,0,0,0,0,0,0,0,0,0,-1,1602,841,0,0
385,183,0,0,0,0,0,0,0,0,0,-1,1609,841,0,0
392,183,0,0,0,0,0,0,0,0,0,-1,1616,841,0,0
399,183,0,0,0,0,0,0,0,0,0,-1,1623,841,0,0
406,183,0,0,0,0,0,0,0,0,0,-1,1630,841,0,0
413,183,0,0,0,0,0,0,0,0,0,-1,1637,841,0,0
420,183,0,0,0,0,0,0,0,0,0,-1,1644,841,0,0
427,183,0,0,0,0,0,0,0,0,0,-1,1651,841,0,0
434,183,0,0,0,0,0,0,0,0,0,-1,1658,841,0,0
441,183,0,0,0,0,0,0,0,0,0,-1,1665,841,0,0
448,183,0,0,0,0,0,0,0,0,0,-1,1672,841,0,0
455,183,0,0,0,0,0,0,0,0,0,-1,1679,841,0,0
462,183,0,0,0,0,0,0,0,0,0,-1,1686,841,0,0
469,183,0,0,0,0,0,0,0,0,0,-1,1693,841,0,0
476,183,0,0,0,0,0,0,0,0,0,-1,1700,841,0,0
483,183,0,0,0,0,0,0,0,0,0,-1,1707,841,0,0
490,183,0,0,0,0,0,0,0,0,0,-1,1714,841,0,0
497,183,0,0,0,0,0,0,0,0,0,-1,1721,841,0,0
504,183,0,0,0,0,0,0,0,0,0,-1,1728,841,0,0
511,183,0,0,0,0,0,0,0,0,0,-1,1735,841,0,0
518,183,0,0,0,0,0,0,0,0,0,-1,1742,841,0,0
525,183,0,0,0,0,0,0,0,0,0,-1,1749,841,0,0
532,183,0,0,0,0,0,0,0,0,0,-1,1756,841,0,0
539,183,0,0,0,0,0,0,0,0,0,-1,1763,841,0,0
546,183,0,0,0,0,0,0,0,0,0,-1,1770,841,0,0
553,183,0,0,0,0,0,0,0,0,0,-1,1777,841,0,0
560,183,0,0,0,0,0,0,0,0,0,-1,1784,841,0,0
567,183,0,0,0,0,0,0,0,0,0,-1,1791,841,0,0
574,183,0,0,0,0,0,0,0,0,0,-1,1798,841,0,0
581,183,0,0,0,0,0,0,0,0,0,-1,1805,841,0,0
588,183,0,0,0,0,0,0,0,0,0,-1,1812,841,0,0
595,183,0,0,0,0,0,0,0,0,0,-1,1819,841,0,0
602,183,0,0,0,0,0,0,0,0,0,-1,1826,841,0,0
609,183,56.3832,2.89355,0.00539639,0.00606559,0.00263132,0.0083835,0.00307848,0.848638,0.00489679,0.0418391,1833,841,56.3832,-2.89354
616,183,56.542,2.68738,0.00376099,0.00456876,0.00208182,0.00628551,0.00204424,0.881211,0.0037021,0.0377967,1840,841,56.542,-2.68738
623,183,56.5942,2.81689,0.00232201,0.00295443,0.00142006,0.00409306,0.00118338,0.894946,0.00243218,0.0398318,1847,841,56.5943,-2.81687
630,183,56.5691,2.75842,0.00100128,0.00171352,0.000627465,0.00207888,0.000635917,1.04351,0.00123002,0.0389086,1854,841,56.5692,-2.75842
637,183,56.5261,2.71027,-0.000131911,0.000940796,-9.96459e-05,0.000949974,-0.000141088,-1.47895,0.000685204,0.0340743,1861,841,56.5261,-2.71028
644,183,56.4572,2.71198,-0.00104782,0.000442044,-0.000615454,0.000663398,-0.00126917,-1.22554,0.00113389,0.0295602,1868,841,56.4571,-2.71199
651,183,56.4921,2.65076,-0.00166483,4.2949e-06,-0.00100431,0.000475536,-0.00213607,-1.13207,0.0016062,0.0277991,1875,841,56.492,-2.65078
658,183,56.6489,2.49347,0,0,0,0,0,0,0,-1,1882,841,56.6489,-2.49345
665,183,38.4337,2.66992,0,0,0,0,0,0,0,-1,1889,841,38.4337,-2.6699
672,183,29.168,1.54572,0,0,0,0,0,0,0,-1,1896,841,29.168,-1.54574
679,183,45.0327,0.413086,0,0,0,0,0,0,0,-1,1903,841,45.0327,-0.413115
686,183,45.0056,0.937622,-0.00312165,-0.00130392,-0.00246015,0.000409884,-0.00483545,-0.96234,0.00336859,0.0335051,1910,841,45.0056,-0.93765
693,183,44.9778,1.47607,-0.00297487,-0.00139869,-0.00251136,0.000445334,-0.00481889,-0.937437,0.00337086,0.0298808,1917,841,44.9778,-1.4761
700,183,44.8373,2.13965,-0.00264413,-0.00136528,-0.00240123,0.000480202,-0.00448961,-0.915523,0.00316531,0.0299357,1924,841,44.8373,-2.13963
707,183,44.7419,2.7688,-0.00187108,-0.00110255,-0.00207215,0.000620662,-0.0035943,-0.877078,0.00262763,0.0124705,1931,841,44.742,-2.76877
714,183,44.7327,3.38263,-0.000154124,-0.00025647,-0.0017414,0.00153686,-0.00194745,-0.770709,0.00201631,0.0163902,1938,841,44.7327,-3.38261
721,183,44.7125,3.98895,0.00238817,0.000770719,-0.00138016,0.0031791,-2.0205e-05,-0.52038,0.00212617,0.0160346,1945,841,44.7125,-3.98893
728,183,44.6774,4.6416,0.00540884,0.00201952,-0.00120653,0.00579446,0.0016339,-0.309353,0.00344982,0.013713,1952,841,44.6774,-4.64161
735,183,44.6525,5.27509,0.00879884,0.00349651,-0.00140006,0.00914582,0.00314953,-0.242934,0.00536493,0.0125192,1959,841,44.6524,-5.27507
742,183,44.6495,5.93646,0.0124257,0.00533058,-0.00204802,0.0129744,0.00478185,-0.261783,0.00757656,0.0137723,1966,841,44.6496,-5.93647
749,183,44.9001,6.83069,0.0162598,0.0076003,-0.00330495,0.017377,0.00648309,-0.325982,0.0101398,0.0364953,1973,841,44.9001,-6.8307
756,183,45.5627,7.6499,0.0203934,0.0105087,-0.00547663,0.022828,0.00807399,-0.418316,0.0133665,0.0463109,1980,841,45.5627,-7.64993
763,183,45.9498,8.32849,0,0,0,0,0,0,0,-1,1987,841,45.9499,-8.32847
770,183,41.0603,7.72028,0,0,0,0,0,0,0,-1,1994,841,41.0603,-7.72026
777,183,42.1948,7.22906,0,0,0,0,0,0,0,-1,2001,841,42.1948,-7.22905
784,183,0,0,0,0,0,0,0,0,0,-1,2008,841,0,0
791,183,0,0,0,0,0,0,0,0,0,-1,2015,841,0,0
798,183,0,0,0,0,0,0,0,0,0,-1,2022,841,0,0
805,183,0,0,0,0,0,0,0,0,0,-1,2029,841,0,0
812,183,0,0,0,0,0,0,0,0,0,-1,2036,841,0,0
-700,176,0,0,0,0,0,0,0,0,0,-1,524,848,0,0
-693,176,0,0,0,0,0,0,0,0,0,-1,531,848,0,0
-686,176,0,0,0,0,0,0,0,0,0,-1,538,848,0,0
-679,176,0,0,0,0,0,0,0,0,0,-1,545,848,0,0
-672,176,0,0,0,0,0,0,0,0,0,-1,552,848,0,0
-665,176,-35.2116,5.59888,0,0,0,0,0,0,0,-1,559,848,-35.2116,-5.59887
-658,176,-35.6655,6.72937,0,0,0,0,0,0,0,-1,566,848,-35.6655,-6.72935
-651,176,-32.7661,9.99335,0,0,0,0,0,0,0,-1,573,848,-32.7661,-9.99336
-644,176,-32.9407,8.59088,0.0103656,0.111964,-0.0720075,0.149288,-0.026958,-1.09259,0.109622,0.0469446,580,848,-32.9408,-8.59086
-637,176,-33.1431,7.31281,0.00723045,0.0846948,-0.0573413,0.115159,-0.0232342,-1.08243,0.0855756,0.0462146,587,848,-33.143,-7.3128
-630,176,-33.6941,5.71332,0.00464853,0.0624793,-0.0442365,0.0864124,-0.0192846,-1.07487,0.0649972,0.0438675,594,848,-33.6941,-5.71332
-623,176,-32.7863,4.57629,0,0,0,0,0,0,0,-1,601,848,-32.7863,-4.57628
-616,176,-32.7637,4.0296,0.000861084,0.0308895,-0.0229965,0.0433391,-0.0115886,-1.0746,0.0334319,0.0284023,608,848,-32.7637,-4.02958
-609,176,-32.7404,3.32721,-0.000508304,0.0189891,-0.0147262,0.0269011,-0.00842022,-1.07778,0.0213029,0.0126531,615,848,-32.7404,-3.32721
-602,176,-32.7489,2.70123,-0.0010936,0.0119162,-0.00793535,0.015672,-0.00484949,-1.12873,0.0123851,0.0127667,622,848,-32.7489,-2.70123
-595,176,-32.7759,2.08032,-0.00154076,0.00627376,-0.00261664,0.007069,-0.002336,-1.27575,0.00565453,0.0120311,629,848,-32.776,-2.08034
-588,176,-32.7775,1.49219,-0.00201595,0.00296152,0.00110642,0.00319638,-0.00225082,1.36163,0.00316069,0.013951,636,848,-32.7775,-1.49221
-581,176,-32.8329,0.927551,-0.00199193,0.00159654,0.00279409,0.00312288,-0.00351827,1.07082,0.00383654,0.013211,643,848,-32.8329,-0.927561
-574,176,-32.9055,0.330078,-0.00197674,0.00116444,0.00317697,0.00313784,-0.00395015,1.01496,0.0041012,0.0246846,650,848,-32.9055,-0.330082
-567,176,-32.9136,-0.362061,0,0,0,0,0,0,0,-1,657,848,-32.9136,0.362058
-560,176,-31.6935,-0.0994873,0,0,0,0,0,0,0,-1,664,848,-31.6936,0.0994584
-553,176,-29.4605,-1.50214,0,0,0,0,0,0,0,-1,671,848,-29.4605,1.50211
-546,176,-16.657,-0.403198,0,0,0,0,0,0,0,-1,678,848,-16.657,0.403182
-539,176,-22.7061,1.48657,0,0,0,0,0,0,0,-1,685,848,-22.7061,-1.48657
-532,176,-38.8326,1.29749,0,0,0,0,0,0,0,-1,692,848,-38.8326,-1.29747
-525,176,-42.6347,0.841187,0,0,0,0,0,0,0,-1,699,848,-42.6347,-0.841185
-518,176,-42.6078,0.922302,-0.00105955,0.00895103,0.00123642,0.00910148,-0.00121,1.44971,0.00650859,0.0432209,706,848,-42.6078,-0.922307
-511,176,-42.5536,0.84552,-0.000842088,0.0103389,0.000801635,0.0103961,-0.000899269,1.49959,0.00724912,0.0394703,713,848,-42.5537,-0.845514
-504,176,-42.4993,0.83075,0.000321843,0.0117651,0.000332831,0.0117748,0.00031217,1.54174,0.00774792,0.0402251,720,848,-42.4993,-0.83075
-497,176,-42.5802,0.826904,0.00154197,0.0121348,-0.00048015,0.0121565,0.00152025,-1.52559,0.00764813,0.0407223,727,848,-42.5802,-0.826901
-490,176,-42.5958,0.90741,0.00290077,0.0107729,-0.00177183,0.0111533,0.00252035,-1.35931,0.00675403,0.041201,734,848,-42.5959,-0.907429
-483,176,0,0,0,0,0,0,0,0,0,-1,741,848,0,0
-476,176,0,0,0,0,0,0,0,0,0,-1,748,848,0,0
-469,176,0,0,0,0,0,0,0,0,0,-1,755,848,0,0
-462,176,0,0,0,0,0,0,0,0,0,-1,762,848,0,0
-455,176,0,0,0,0,0,0,0,0,0,-1,769,848,0,0
-448,176,0,0,0,0,0,0,0,0,0,-1,776,848,0,0
-441,176,0,0,0,0,0,0,0,0,0,-1,783,848,0,0
-434,176,0,0,0,0,0,0,0,0,0,-1,790,848,0,0
-427,176,0,0,0,0,0,0,0,0,0,-1,797,848,0,0
-420,176,0,0,0,0,0,0,0,0,0,-1,804,848,0,0
-413,176,0,0,0,0,0,0,0,0,0,-1,811,848,0,0
-406,176,0,0,0,0,0,0,0,0,0,-1,818,848,0,0
-399,176,0,0,0,0,0,0,0,0,0,-1,825,848,0,0
-392,176,0,0,0,0,0,0,0,0,0,-1,832,848,0,0
-385,176,0,0,0,0,0,0,0,0,0,-1,839,848,0,0
-378,176,0,0,0,0,0,0,0,0,0,-1,846,848,0,0
-371,176,0,0,0,0,0,0,0,0,0,-1,853,848,0,0
-364,176,0,0,0,0,0,0,0,0,0,-1,860,848,0,0
-357,176,0,0,0,0,0,0,0,0,0,-1,867,848,0,0
-350,176,0,0,0,0,0,0,0,0,0,-1,874,848,0,0
-343,176,0,0,0,0,0,0,0,0,0,-1,881,848,0,0
-336,176,0,0,0,0,0,0,0,0,0,-1,888,848,0,0
-329,176,0,0,0,0,0,0,0,0,0,-1,895,848,0,0
-322,176,0,0,0,0,0,0,0,0,0,-1,902,848,0,0
-315,176,0,0,0,0,0,0,0,0,0,-1,909,848,0,0
-308,176,0,0,0,0,0,0,0,0,0,-1,916,848,0,0
-301,176,0,0,0,0,0,0,0,0,0,-1,923,848,0,0
-294,176,0,0,0,0,0,0,0,0,0,-1,930,848,0,0
-287,176,0,0,0,0,0,0,0,0,0,-1,937,848,0,0
-280,176,0,0,0,0,0,0,0,0,0,-1,944,848,0,0
-273,176,0,0,0,0,0,0,0,0,0,-1,951,848,0,0
-266,176,0,0,0,0,0,0,0,0,0,-1,958,848,0,0
-259,176,0,0,0,0,0,0,0,0,0,-1,965,848,0,0
-252,176,0,0,0,0,0,0,0,0,0,-1,972,848,0,0
-245,176,0,0,0,0,0,0,0,0,0,-1,979,848,0,0
-238,176,0,0,0,0,0,0,0,0,0,-1,986,848,0,0
-231,176,0,0,0,0,0,0,0,0,0,-1,993,848,0,0
-224,176,0,0,0,0,0,0,0,0,0,-1,1000,848,0,0
-217,176,0,0,0,0,0,0,0,0,0,-1,1007,848,0,0
-210,176,0,0,0,0,0,0,0,0,0,-1,1014,848,0,0
-203,176,0,0,0,0,0,0,0,0,0,-1,1021,848,0,0
-196,176,0,0,0,0,0,0,0,0,0,-1,1028,848,0,0
-189,176,0,0,0,0,0,0,0,0,0,-1,1035,848,0,0
-182,176,0,0,0,0,0,0,0,0,0,-1,1042,848,0,0
-175,176,0,0,0,0,0,0,0,0,0,-1,1049,848,0,0
-168,176,0,0,0,0,0,0,0,0,0,-1,1056,848,0,0
-161,176,0,0,0,0,0,0,0,0,0,-1,1063,848,0,0
-154,176,0,0,0,0,0,0,0,0,0,-1,1070,848,0,0
-147,176,0,0,0,0,0,0,0,0,0,-1,1077,848,0,0
-140,176,0,0,0,0,0,0,0,0,0,-1,1084,848,0,0
-133,176,0,0,0,0,0,0,0,0,0,-1,1091,848,0,0
-126,176,0,0,0,0,0,0,0,0,0,-1,1098,848,0,0
-119,176,0,0,0,0,0,0,0,0,0,-1,1105,848,0,0
-112,176,0,0,0,0,0,0,0,0,0,-1,1112,848,0,0
-105,176,0,0,0,0,0,0,0,0,0,-1,1119,848,0,0
-98,176,0,0,0,0,0,0,0,0,0,-1,1126,848,0,0
-91,176,0,0,0,0,0,0,0,0,0,-1,1133,848,0,0
-84,176,0,0,0,0,0,0,0,0,0,-1,1140,848,0,0
-77,176,0,0,0,0,0,0,0,0,0,-1,1147,848,0,0
-70,176,0,0,0,0,0,0,0,0,0,-1,1154,848,0,0
-63,176,0,0,0,0,0,0,0,0,0,-1,1161,848,0,0
-56,176,0,0,0,0,0,0,0,0,0,-1,1168,848,0,0
-49,176,0,0,0,0,0,0,0,0,0,-1,1175,848,0,0
-42,176,0,0,0,0,0,0,0,0,0,-1,1182,848,0,0
-35,176,0,0,0,0,0,0,0,0,0,-1,1189,848,0,0
-28,176,0,0,0,0,0,0,0,0,0,-1,1196,848,0,0
-21,176,0,0,0,0,0,0,0,0,0,-1,1203,848,0,0
-14,176,0,0,0,0,0,0,0,0,0,-1,1210,848,0,0
-7,176,0,0,0,0,0,0,0,0,0,-1,1217,848,0,0
0,176,0,0,0,0,0,0,0,0,0,-1,1224,848,0,0
7,176,0,0,0,0,0,0,0,0,0,-1,1231,848,0,0
14,176,0,0,0,0,0,0,0,0,0,-1,1238,848,0,0
21,176,0,0,0,0,0,0,0,0,0,-1,1245,848,0,0
28,176,0,0,0,0,0,0,0,0,0,-1,1252,848,0,0
35,176,0,0,0,0,0,0,0,0,0,-1,1259,848,0,0
42,176,0,0,0,0,0,0,0,0,0,-1,1266,848,0,0
49,176,0,0,0,0,0,0,0,0,0,-1,1273,848,0,0
56,176,0,0,0,0,0,0,0,0,0,-1,1280,848,0,0
63,176,0,0,0,0,0,0,0,0,0,-1,1287,848,0,0
70,176,0,0,0,0,0,0,0,0,0,-1,1294,848,0,0
77,176,0,0,0,0,0,0,0,0,0,-1,1301,848,0,0
84,176,0,0,0,0,0,0,0,0,0,-1,1308,848,0,0
91,176,0,0,0,0,0,0,0,0,0,-1,1315,848,0,0
98,176,0,0,0,0,0,0,0,0,0,-1,1322,848,0,0
105,176,0,0,0,0,0,0,0,0,0,-1,1329,848,0,0
112,176,0,0,0,0,0,0,0,0,0,-1,1336,848,0,0
119,176,0,0,0,0,0,0,0,0,0,-1,1343,848,0,0
126,176,0,0,0,0,0,0,0,0,0,-1,1350,848,0,0
133,176,0,0,0,0,0,0,0,0,0,-1,1357,848,0,0
140,176,0,0,0,0,0,0,0,0,0,-1,1364,848,0,0
147,176,0,0,0,0,0,0,0,0,0,-1,1371,848,0,0
154,176,0,0,0,0,0,0,0,0,0,-1,1378,848,0,0
161,176,0,0,0,0,0,0,0,0,0,-1,1385,848,0,0
168,176,0,0,0,0,0,0,0,0,0,-1,1392,848,0,0
175,176,0,0,0,0,0,0,0,0,0,-1,1399,848,0,0
182,176,0,0,0,0,0,0,0,0,0,-1,1406,848,0,0
189,176,0,0,0,0,0,0,0,0,0,-1,1413,848,0,0
196,176,0,0,0,0,0,0,0,0,0,-1,1420,848,0,0
203,176,0,0,0,0,0,0,0,0,0,-1,1427,848,0,0
210,176,0,0,0,0,0,0,0,0,0,-1,1434,848,0,0
217,176,0,0,0,0,0,0,0,0,0,-1,1441,848,0,0
224,176,0,0,0,0,0,0,0,0,0,-1,1448,848,0,0
231,176,0,0,0,0,0,0,0,0,0,-1,1455,848,0,0
238,176,0,0,0,0,0,0,0,0,0,-1,1462,848,0,0
245,176,0,0,0,0,0,0,0,0,0,-1,1469,848,0,0
252,176,0,0,0,0,0,0,0,0,0,-1,1476,848,0,0
259,176,0,0,0,0,0,0,0,0,0,-1,1483,848,0,0
266,176,0,0,0,0,0,0,0,0,0,-1,1490,848,0,0
273,176,0,0,0,0,0,0,0,0,0,-1,1497,848,0,0
280,176,0,0,0,0,0,0,0,0,0,-1,1504,848,0,0
287,176,0,0,0,0,0,0,0,0,0,-1,1511,848,0,0
294,176,0,0,0,0,0,0,0,0,0,-1,1518,848,0,0
301,176,0,0,0,0,0,0,0,0,0,-1,1525,848,0,0
308,176,0,0,0,0,0,0,0,0,0,-1,1532,848,0,0
315,176,0,0,0,0,0,0,0,0,0,-1,1539,848,0,0
322,176,0,0,0,0,0,0,0,0,0,-1,1546,848,0,0
329,176,0,0,0,0,0,0,0,0,0,-1,1553,848,0,0
336,176,0,0,0,0,0,0,0,0,0,-1,1560,848,0,0
343,176,0,0,0,0,0,0,0,0,0,-1,1567,848,0,0
350,176,0,0,0,0,0,0,0,0,0,-1,1574,848,0,0
357,176,0,0,0,0,0,0,0,0,0,-1,1581,848,0,0
364,176,0,0,0,0,0,0,0,0,0,-1,1588,848,0,0
371,176,0,0,0,0,0,0,0,0,0,-1,1595,848,0,0
378,176,0,0,0,0,0,0,0,0,0,-1,1602,848,0,0
385,176,0,0,0,0,0,0,0,0,0,-1,1609,848,0,0
392,176,0,0,0,0,0,0,0,0,0,-1,1616,848,0,0
399,176,0,0,0,0,0,0,0,0,0,-1,1623,848,0,0
406,176,0,0,0,0,0,0,0,0,0,-1,1630,848,0,0
413,176,0,0,0,0,0,0,0,0,0,-1,1637,848,0,0
420,176,0,0,0,0,0,0,0,0,0,-1,1644,848,0,0
427,176,0,0,0,0,0,0,0,0,0,-1,1651,848,0,0
434,176,0,0,0,0,0,0,0,0,0,-1,1658,848,0,0
441,176,0,0,0,0,0,0,0,0,0,-1,1665,848,0,0
448,176,0,0,0,0,0,0,0,0,0,-1,1672,848,0,0
455,176,0,0,0,0,0,0,0,0,0,-1,1679,848,0,0
462,176,0,0,0,0,0,0,0,0,0,-1,1686,848,0,0
469,176,0,0,0,0,0,0,0,0,0,-1,1693,848,0,0
476,176,0,0,0,0,0,0,0,0,0,-1,1700,848,0,0
483,176,0,0,0,0,0,0,0,0,0,-1,1707,848,0,0
490,176,0,0,0,0,0,0,0,0,0,-1,1714,848,0,0
497,176,0,0,0,0,0,0,0,0,0,-1,1721,848,0,0
504,176,0,0,0,0,0,0,0,0,0,-1,1728,848,0,0
511,176,0,0,0,0,0,0,0,0,0,-1,1735,848,0,0
518,176,0,0,0,0,0,0,0,0,0,-1,1742,848,0,0
525,176,0,0,0,0,0,0,0,0,0,-1,1749,848,0,0
532,176,0,0,0,0,0,0,0,0,0,-1,1756,848,0,0
539,176,0,0,0,0,0,0,0,0,0,-1,1763,848,0,0
546,176,0,0,0,0,0,0,0,0,0,-1,1770,848,0,0
553,176,0,0,0,0,0,0,0,0,0,-1,1777,848,0,0
560,176,0,0,0,0,0,0,0,0,0,-1,1784,848,0,0
567,176,0,0,0,0,0,0,0,0,0,-1,1791,848,0,0
574,176,0,0,0,0,0,0,0,0,0,-1,1798,848,0,0
581,176,0,0,0,0,0,0,0,0,0,-1,1805,848,0,0
588,176,0,0,0,0,0,0,0,0,0,-1,1812,848,0,0
595,176,0,0,0,0,0,0,0,0,0,-1,1819,848,0,0
602,176,0,0,0,0,0,0,0,0,0,-1,1826,848,0,0
609,176,56.3004,2.70239,0.00556198,0.00976926,0.00396992,0.0121585,0.00317279,1.02904,0.0072822,0.0403546,1833,848,56.3004,-2.70242
616,176,56.3422,2.73224,0.00385424,0.00771434,0.00308436,0.00942275,0.00214584,1.06497,0.00570275,0.0393839,1840,848,56.3422,-2.73224
623,176,56.6,2.54047,0.00241611,0.00541281,0.0021672,0.00654919,0.00127973,1.08786,0.00400824,0.0435393,1847,848,56.5999,-2.54047
630,176,56.5149,2.54132,0.00118482,0.00335027,0.00111701,0.00382318,0.000711906,1.1703,0.00234774,0.0389597,1854,848,56.5149,-2.54133
637,176,56.4683,2.63214,6.49244e-05,0.0020202,0.000213292,0.0020432,4.19279e-05,1.46339,0.00134838,0.0320397,1861,848,56.4682,-2.63217
644,176,56.4067,2.70441,-0.000871257,0.00120744,-0.000430189,0.00129295,-0.000956768,-1.37458,0.0013037,0.0322958,1868,848,56.4067,-2.70439
651,176,56.5018,2.63416,-0.0015201,0.000603672,-0.000891104,0.000928028,-0.00184446,-1.22171,0.00162958,0.0335997,1875,848,56.5018,-2.63414
658,176,56.6104,2.54535,0,0,0,0,0,0,0,-1,1882,848,56.6103,-2.54532
665,176,54.3333,2.34277,0,0,0,0,0,0,0,-1,1889,848,54.3333,-2.34279
672,176,16.9304,2.80719,0,0,0,0,0,0,0,-1,1896,848,16.9305,-2.80719
679,176,45.8427,0.336426,0,0,0,0,0,0,0,-1,1903,848,45.8426,-0.336442
686,176,45.7858,1.04193,-0.00288392,-0.00109551,-0.00233845,0.000513872,-0.00449331,-0.968015,0.00318069,0.0464853,1910,848,45.7858,-1.04191
693,176,45.6301,1.65295,-0.00272061,-0.0012506,-0.00235974,0.000485953,-0.00445716,-0.936375,0.00314596,0.0270331,1917,848,45.6301,-1.65295
700,176,45.4968,2.32043,-0.0024538,-0.00134636,-0.00228886,0.000454803,-0.00425497,-0.904077,0.00299976,0.0314826,1924,848,45.4968,-2.32043
707,176,45.4581,2.87811,-0.00198016,-0.00124487,-0.00212495,0.000544004,-0.00376903,-0.871057,0.00271227,0.0187454,1931,848,45.4582,-2.87811
714,176,45.3971,3.3999,-0.000737237,-0.000541746,-0.00190913,0.00127214,-0.00255113,-0.810975,0.00224816,0.0126871,1938,848,45.397,-3.39993
721,176,45.3773,4.00385,0.00127864,0.000422972,-0.00160612,0.00251293,-0.000811317,-0.655231,0.00200132,0.0135336,1945,848,45.3773,-4.00386
728,176,45.3203,4.67938,0.00375907,0.00163935,-0.00145855,0.00450217,0.000896253,-0.471202,0.00275178,0.0162138,1952,848,45.3203,-4.6794
735,176,45.2864,5.32343,0.0065991,0.00310083,-0.00164015,0.00724779,0.00245213,-0.376627,0.0042568,0.0139077,1959,848,45.2864,-5.32343
742,176,45.2606,5.94482,0.00956993,0.00490507,-0.0022296,0.0104642,0.00401084,-0.381431,0.0060961,0.0232431,1966,848,45.2606,-5.94485
749,176,45.6895,6.63666,0.012558,0.00705814,-0.00337755,0.0141635,0.00545262,-0.443735,0.00824913,0.0363944,1973,848,45.6895,-6.63668
756,176,46.2571,7.31659,0,0,0,0,0,0,0,-1,1980,848,46.2571,-7.31658
763,176,44.4343,7.70581,0,0,0,0,0,0,0,-1,1987,848,44.4343,-7.70578
770,176,36.4186,4.25641,0,0,0,0,0,0,0,-1,1994,848,36.4186,-4.25639
777,176,43.8328,7.50177,0,0,0,0,0,0,0,-1,2001,848,43.8328,-7.50178
784,176,0,0,0,0,0,0,0,0,0,-1,2008,848,0,0
791,176,0,0,0,0,0,0,0,0,0,-1,2015,848,0,0
798,176,0,0,0,0,0,0,0,0,0,-1,2022,848,0,0
805,176,0,0,0,0,0,0,0,0,0,-1,2029,848,0,0
812,176,0,0,0,0,0,0,0,0,0,-1,2036,848,0,0
-700,169,0,0,0,0,0,0,0,0,0,-1,524,855,0,0
-693,169,0,0,0,0,0,0,0,0,0,-1,531,855,0,0
-686,169,0,0,0,0,0,0,0,0,0,-1,538,855,0,0
-679,169,0,0,0,0,0,0,0,0,0,-1,545,855,0,0
-672,169,0,0,0,0,0,0,0,0,0,-1,552,855,0,0
-665,169,-35.4327,5.68292,0,0,0,0,0,0,0,-1,559,855,-35.4327,-5.68293
-658,169,-35.2197,4.88965,0,0,0,0,0,0,0,-1,566,855,-35.2197,-4.88965
-651,169,-33.2657,10.4396,0,0,0,0,0,0,0,-1,573,855,-33.2657,-10.4397
-644,169,-33.4224,8.47626,0.0132643,0.119736,-0.0681671,0.152992,-0.0199915,-1.11691,0.10927,0.0466559,580,855,-33.4224,-8.47626
-637,169,-33.7935,7.013,0.00883126,0.0891986,-0.0541973,0.116484,-0.0184542,-1.1044,0.0844819,0.0472412,587,855,-33.7935,-7.01303
-630,169,-33.249,5.30219,0,0,0,0,0,0,0,-1,594,855,-33.249,-5.30218
-623,169,-33.2863,4.61871,0.00274326,0.0458212,-0.0306936,0.0617793,-0.0132148,-1.09135,0.0462251,0.0393443,601,855,-33.2863,-4.61873
-616,169,-33.3105,3.97113,0.000762826,0.0308918,-0.0210773,0.0417346,-0.01008,-1.09567,0.0317215,0.0225627,608,855,-33.3105,-3.97114
-609,169,-33.3488,3.33881,-0.000842777,0.0181488,-0.0129767,0.024733,-0.00742695,-1.10126,0.019443,0.0135421,615,855,-33.3488,-3.33882
-602,169,-33.3727,2.7218,-0.00150397,0.0108076,-0.00624827,0.013423,-0.00411942,-1.17437,0.0105923,0.0137709,622,855,-33.3728,-2.72182
-595,169,-33.4005,2.11987,-0.00190519,0.00518572,-0.00112859,0.00536102,-0.00208049,-1.41671,0.00443333,0.0126062,629,855,-33.4005,-2.1199
-588,169,-33.4023,1.53754,-0.00220897,0.00218527,0.00203235,0.00298111,-0.00300481,1.19757,0.00345598,0.0112572,636,855,-33.4023,-1.53751
-581,169,-33.442,0.96521,-0.00204739,0.00116193,0.00307947,0.00302974,-0.00391521,1.02558,0.00402052,0.0189752,643,855,-33.442,-0.9652
-574,169,-33.7425,0.36438,-0.00190635,0.000840698,0.00316585,0.00291814,-0.00398379,0.990072,0.00400063,0.0349357,650,855,-33.7425,-0.364367
-567,169,-33.5251,-0.157349,-0.00173491,0.000784075,0.00298861,0.00276774,-0.00371858,0.98482,0.00375827,0.0407154,657,855,-33.5252,0.157343
-560,169,-33.5892,-0.677429,0,0,0,0,0,0,0,-1,664,855,-33.5893,0.677455
-553,169,-32.1944,-0.787964,0,0,0,0,0,0,0,-1,671,855,-32.1944,0.787959
-546,169,-19.0852,-1.05609,0,0,0,0,0,0,0,-1,678,855,-19.0852,1.05612
-539,169,-33.2307,1.10706,0,0,0,0,0,0,0,-1,685,855,-33.2307,-1.10708
-532,169,-42.6713,0.750366,0,0,0,0,0,0,0,-1,692,855,-42.6713,-0.750395
-525,169,-42.6929,0.680908,-0.000651816,0.0063911,0.00140725,0.00666187,-0.000922588,1.38071,0.00477856,0.0463059,699,855,-42.6929,-0.680932
-518,169,-42.7327,0.8078,-0.000498237,0.00809794,0.00102772,0.0082191,-0.000619399,1.45344,0.0056971,0.0423146,706,855,-42.7327,-0.807811
-511,169,-42.7585,0.683411,-0.000209624,0.00956493,0.000587004,0.00960005,-0.000244751,1.51103,0.00648316,0.0423276,713,855,-42.7585,-0.683382
-504,169,-42.6373,0.515259,0.00102609,0.0108568,9.789e-05,0.0108578,0.00102512,1.56084,0.00692217,0.043325,720,855,-42.6373,-0.515261
-497,169,-42.5983,0.703125,0.00194386,0.0108176,-0.000778012,0.0108853,0.00187616,-1.484,0.00671938,0.0415577,727,855,-42.5983,-0.703129
-490,169,0,0,0,0,0,0,0,0,0,-1,734,855,0,0
-483,169,0,0,0,0,0,0,0,0,0,-1,741,855,0,0
-476,169,0,0,0,0,0,0,0,0,0,-1,748,855,0,0
-469,169,0,0,0,0,0,0,0,0,0,-1,755,855,0,0
-462,169,0,0,0,0,0,0,0,0,0,-1,762,855,0,0
-455,169,0,0,0,0,0,0,0,0,0,-1,769,855,0,0
-448,169,0,0,0,0,0,0,0,0,0,-1,776,855,0,0
-441,169,0,0,0,0,0,0,0,0,0,-1,783,855,0,0
-434,169,0,0,0,0,0,0,0,0,0,-1,790,855,0,0
-427,169,0,0,0,0,0,0,0,0,0,-1,797,855,0,0
-420,169,0,0,0,0,0,0,0,0,0,-1,804,855,0,0
-413,169,0,0,0,0,0,0,0,0,0,-1,811,855,0,0
-406,169,0,0,0,0,0,0,0,0,0,-1,818,855,0,0
-399,169,0,0,0,0,0,0,0,0,0,-1,825,855,0,0
-392,169,0,0,0,0,0,0,0,0,0,-1,832,855,0,0
-385,169,0,0,0,0,0,0,0,0,0,-1,839,855,0,0
-378,169,0,0,0,0,0,0,0,0,0,-1,846,855,0,0
-371,169,0,0,0,0,0,0,0,0,0,-1,853,855,0,0
-364,169,0,0,0,0,0,0,0,0,0,-1,860,855,0,0
-357,169,0,0,0,0,0,0,0,0,0,-1,867,855,0,0
-350,169,0,0,0,0,0,0,0,0,0,-1,874,855,0,0
-343,169,0,0,0,0,0,0,0,0,0,-1,881,855,0,0
-336,169,0,0,0,0,0,0,0,0,0,-1,888,855,0,0
-329,169,0,0,0,0,0,0,0,0,0,-1,895,855,0,0
-322,169,0,0,0,0,0,0,0,0,0,-1,902,855,0,0
-315,169,0,0,0,0,0,0,0,0,0,-1,909,855,0,0
-308,169,0,0,0,0,0,0,0,0,0,-1,916,855,0,0
-301,169,0,0,0,0,0,0,0,0,0,-1,923,855,0,0
-294,169,0,0,0,0,0,0,0,0,0,-1,930,855,0,0
-287,169,0,0,0,0,0,0,0,0,0,-1,937,855,0,0
-280,169,0,0,0,0,0,0,0,0,0,-1,944,855,0,0
-273,169,0,0,0,0,0,0,0,0,0,-1,951,855,0,0
-266,169,0,0,0,0,0,0,0,0,0,-1,958,855,0,0
-259,169,0,0,0,0,0,0,0,0,0,-1,965,855,0,0
-252,169,0,0,0,0,0,0,0,0,0,-1,972,855,0,0
-245,169,0,0,0,0,0,0,0,0,0,-1,979,855,0,0
-238,169,0,0,0,0,0,0,0,0,0,-1,986,855,0,0
-231,169,0,0,0,0,0,0,0,0,0,-1,993,855,0,0
-224,169,0,0,0,0,0,0,0,0,0,-1,1000,855,0,0
-217,169,0,0,0,0,0,0,0,0,0,-1,1007,855,0,0
-210,169,0,0,0,0,0,0,0,0,0,-1,1014,855,0,0
-203,169,0,0,0,0,0,0,0,0,0,-1,1021,855,0,0
-196,169,0,0,0,0,0,0,0,0,0,-1,1028,855,0,0
-189,169,0,0,0,0,0,0,0,0,0,-1,1035,855,0,0
-182,169,0,0,0,0,0,0,0,0,0,-1,1042,855,0,0
-175,169,0,0,0,0,0,0,0,0,0,-1,1049,855,0,0
-168,169,0,0,0,0,0,0,0,0,0,-1,1056,855,0,0
-161,169,0,0,0,0,0,0,0,0,0,-1,1063,855,0,0
-154,169,0,0,0,0,0,0,0,0,0,-1,1070,855,0,0
-147,169,0,0,0,0,0,0,0,0,0,-1,1077,855,0,0
-140,169,0,0,0,0,0,0,0,0,0,-1,1084,855,0,0
-133,169,0,0,0,0,0,0,0,0,0,-1,1091,855,0,0
-126,169,0,0,0,0,0,0,0,0,0,-1,1098,855,0,0
-119,169,0,0,0,0,0,0,0,0,0,-1,1105,855,0,0
-112,169,0,0,0,0,0,0,0,0,0,-1,1112,855,0,0
-105,169,0,0,0,0,0,0,0,0,0,-1,1119,855,0,0
-98,169,0,0,0,0,0,0,0,0,0,-1,1126,855,0,0
-91,169,0,0,0,0,0,0,0,0,0,-1,1133,855,0,0
-84,169,0,0,0,0,0,0,0,0,0,-1,1140,855,0,0
-77,169,0,0,0,0,0,0,0,0,0,-1,1147,855,0,0
-70,169,0,0,0,0,0,0,0,0,0,-1,1154,855,0,0
-63,169,0,0,0,0,0,0,0,0,0,-1,1161,855,0,0
-56,169,0,0,0,0,0,0,0,0,0,-1,1168,855,0,0
-49,169,0,0,0,0,0,0,0,0,0,-1,1175,855,0,0
-42,169,0,0,0,0,0,0,0,0,0,-1,1182,855,0,0
-35,169,0,0,0,0,0,0,0,0,0,-1,1189,855,0,0
-28,169,0,0,0,0,0,0,0,0,0,-1,1196,855,0,0
-21,169,0,0,0,0,0,0,0,0,0,-1,1203,855,0,0
-14,169,0,0,0,0,0,0,0,0,0,-1,1210,855,0,0
-7,169,0,0,0,0,0,0,0,0,0,-1,1217,855,0,0
0,169,0,0,0,0,0,0,0,0,0,-1,1224,855,0,0
7,169,0,0,0,0,0,0,0,0,0,-1,1231,855,0,0
14,169,0,0,0,0,0,0,0,0,0,-1,1238,855,0,0
21,169,0,0,0,0,0,0,0,0,0,-1,1245,855,0,0
28,169,0,0,0,0,0,0,0,0,0,-1,1252,855,0,0
35,169,0,0,0,0,0,0,0,0,0,-1,1259,855,0,0
42,169,0,0,0,0,0,0,0,0,0,-1,1266,855,0,0
49,169,0,0,0,0,0,0,0,0,0,-1,1273,855,0,0
56,169,0,0,0,0,0,0,0,0,0,-1,1280,855,0,0
63,169,0,0,0,0,0,0,0,0,0,-1,1287,855,0,0
70,169,0,0,0,0,0,0,0,0,0,-1,1294,855,0,0
77,169,0,0,0,0,0,0,0,0,0,-1,1301,855,0,0
84,169,0,0,0,0,0,0,0,0,0,-1,1308,855,0,0
91,169,0,0,0,0,0,0,0,0,0,-1,1315,855,0,0
98,169,0,0,0,0,0,0,0,0,0,-1,1322,855,0,0
105,169,0,0,0,0,0,0,0,0,0,-1,1329,855,0,0
112,169,0,0,0,0,0,0,0,0,0,-1,1336,855,0,0
119,169,0,0,0,0,0,0,0,0,0,-1,1343,855,0,0
126,169,0,0,0,0,0,0,0,0,0,-1,1350,855,0,0
133,169,0,0,0,0,0,0,0,0,0,-1,1357,855,0,0
140,169,0,0,0,0,0,0,0,0,0,-1,1364,855,0,0
147,169,0,0,0,0,0,0,0,0,0,-1,1371,855,0,0
154,169,0,0,0,0,0,0,0,0,0,-1,1378,855,0,0
161,169,0,0,0,0,0,0,0,0,0,-1,1385,855,0,0
168,169,0,0,0,0,0,0,0,0,0,-1,1392,855,0,0
175,169,0,0,0,0,0,0,0,0,0,-1,1399,855,0,0
182,169,0,0,0,0,0,0,0,0,0,-1,1406,855,0,0
189,169,0,0,0,0,0,0,0,0,0,-1,1413,855,0,0
196,169,0,0,0,0,0,0,0,0,0,-1,1420,855,0,0
203,169,0,0,0,0,0,0,0,0,0,-1,1427,855,0,0
210,169,0,0,0,0,0,0,0,0,0,-1,1434,855,0,0
217,169,0,0,0,0,0,0,0,0,0,-1,1441,855,0,0
224,169,0,0,0,0,0,0,0,0,0,-1,1448,855,0,0
231,169,0,0,0,0,0,0,0,0,0,-1,1455,855,0,0
238,169,0,0,0,0,0,0,0,0,0,-1,1462,855,0,0
245,169,0,0,0,0,0,0,0,0,0,-1,1469,855,0,0
252,169,0,0,0,0,0,0,0,0,0,-1,1476,855,0,0
259,169,0,0,0,0,0,0,0,0,0,-1,1483,855,0,0
266,169,0,0,0,0,0,0,0,0,0,-1,1490,855,0,0
273,169,0,0,0,0,0,0,0,0,0,-1,1497,855,0,0
280,169,0,0,0,0,0,0,0,0,0,-1,1504,855,0,0
287,169,0,0,0,0,0,0,0,0,0,-1,1511,855,0,0
294,169,0,0,0,0,0,0,0,0,0,-1,1518,855,0,0
301,169,0,0,0,0,0,0,0,0,0,-1,1525,855,0,0
308,169,0,0,0,0,0,0,0,0,0,-1,1532,855,0,0
315,169,0,0,0,0,0,0,0,0,0,-1,1539,855,0,0
322,169,0,0,0,0,0,0,0,0,0,-1,1546,855,0,0
329,169,0,0,0,0,0,0,0,0,0,-1,1553,855,0,0
336,169,0,0,0,0,0,0,0,0,0,-1,1560,855,0,0
343,169,0,0,0,0,0,0,0,0,0,-1,1567,855,0,0
350,169,0,0,0,0,0,0,0,0,0,-1,1574,855,0,0
357,169,0,0,0,0,0,0,0,0,0,-1,1581,855,0,0
364,169,0,0,0,0,0,0,0,0,0,-1,1588,855,0,0
371,169,0,0,0,0,0,0,0,0,0,-1,1595,855,0,0
378,169,0,0,0,0,0,0,0,0,0,-1,1602,855,0,0
385,169,0,0,0,0,0,0,0,0,0,-1,1609,855,0,0
392,169,0,0,0,0,0,0,0,0,0,-1,1616,855,0,0
399,169,0,0,0,0,0,0,0,0,0,-1,1623,855,0,0
406,169,0,0,0,0,0,0,0,0,0,-1,1630,855,0,0
413,169,0,0,0,0,0,0,0,0,0,-1,1637,855,0,0
420,169,0,0,0,0,0,0,0,0,0,-1,1644,855,0,0
427,169,0,0,0,0,0,0,0,0,0,-1,1651,855,0,0
434,169,0,0,0,0,0,0,0,0,0,-1,1658,855,0,0
441,169,0,0,0,0,0,0,0,0,0,-1,1665,855,0,0
448,169,0,0,0,0,0,0,0,0,0,-1,1672,855,0,0
455,169,0,0,0,0,0,0,0,0,0,-1,1679,855,0,0
462,169,0,0,0,0,0,0,0,0,0,-1,1686,855,0,0
469,169,0,0,0,0,0,0,0,0,0,-1,1693,855,0,0
476,169,0,0,0,0,0,0,0,0,0,-1,1700,855,0,0
483,169,0,0,0,0,0,0,0,0,0,-1,1707,855,0,0
490,169,0,0,0,0,0,0,0,0,0,-1,1714,855,0,0
497,169,0,0,0,0,0,0,0,0,0,-1,1721,855,0,0
504,169,0,0,0,0,0,0,0,0,0,-1,1728,855,0,0
511,169,0,0,0,0,0,0,0,0,0,-1,1735,855,0,0
518,169,0,0,0,0,0,0,0,0,0,-1,1742,855,0,0
525,169,0,0,0,0,0,0,0,0,0,-1,1749,855,0,0
532,169,0,0,0,0,0,0,0,0,0,-1,1756,855,0,0
539,169,0,0,0,0,0,0,0,0,0,-1,1763,855,0,0
546,169,0,0,0,0,0,0,0,0,0,-1,1770,855,0,0
553,169,0,0,0,0,0,0,0,0,0,-1,1777,855,0,0
560,169,0,0,0,0,0,0,0,0,0,-1,1784,855,0,0
567,169,0,0,0,0,0,0,0,0,0,-1,1791,855,0,0
574,169,0,0,0,0,0,0,0,0,0,-1,1798,855,0,0
581,169,0,0,0,0,0,0,0,0,0,-1,1805,855,0,0
588,169,0,0,0,0,0,0,0,0,0,-1,1812,855,0,0
595,169,0,0,0,0,0,0,0,0,0,-1,1819,855,0,0
602,169,0,0,0,0,0,0,0,0,0,-1,1826,855,0,0
609,169,0,0,0,0,0,0,0,0,0,-1,1833,855,0,0
616,169,56.4255,2.73706,0.00373449,0.0107038,0.00428889,0.0127452,0.00169308,1.12655,0.00799245,0.0428497,1840,855,56.4255,-2.73707
623,169,56.5902,2.79028,0.0022743,0.00776157,0.0030397,0.00911273,0.000923139,1.15252,0.00579201,0.0459046,1847,855,56.5902,-2.79026
630,169,56.55,2.64764,0.00114436,0.00497193,0.00176399,0.00566088,0.000455411,1.19845,0.00363165,0.0411185,1854,855,56.55,-2.64761
637,169,56.484,2.61151,0.000116437,0.00301589,0.000714014,0.00318218,-4.98572e-05,1.34197,0.00213827,0.0359024,1861,855,56.484,-2.61149
644,169,56.4198,2.74036,-0.000789169,0.00177788,-5.46702e-05,0.00177904,-0.000790333,-1.54951,0.0015196,0.0358596,1868,855,56.4198,-2.74036
651,169,56.4541,2.71436,-0.00144362,0.00095334,-0.000588442,0.00109001,-0.00158029,-1.34259,0.00155033,0.0374604,1875,855,56.4541,-2.71434
658,169,56.5389,2.59314,-0.00197405,0.000279801,-0.00115913,0.000769523,-0.00246378,-1.17105,0.0019503,0.0375962,1882,855,56.5389,-2.59314
665,169,56.631,2.55963,0,0,0,0,0,0,0,-1,1889,855,56.6309,-2.55966
672,169,31.2465,2.96387,0,0,0,0,0,0,0,-1,1896,855,31.2464,-2.9639
679,169,38.4297,1.08197,0,0,0,0,0,0,0,-1,1903,855,38.4296,-1.08194
686,169,46.4868,1.19049,0,0,0,0,0,0,0,-1,1910,855,46.4868,-1.1905
693,169,46.2981,1.70734,-0.00252627,-0.00124962,-0.00207237,0.000280501,-0.00405639,-0.934795,0.00280244,0.0284858,1917,855,46.2981,-1.70734
700,169,46.2909,2.37469,-0.00226161,-0.001346,-0.00203122,0.000278364,-0.00388597,-0.896238,0.00268824,0.0249348,1924,855,46.2909,-2.37469
707,169,46.2129,2.92621,-0.00198875,-0.00132272,-0.00203056,0.000401945,-0.00371342,-0.866676,0.00261989,0.0244535,1931,855,46.2129,-2.92621
714,169,46.0251,3.39941,-0.00119194,-0.000751824,-0.00196463,0.00100504,-0.0029488,-0.841171,0.00237292,0.0161968,1938,855,46.0251,-3.39939
721,169,45.9995,4.05402,0.00024601,0.000136439,-0.00174613,0.00193822,-0.00155577,-0.769716,0.00202128,0.0178447,1945,855,45.9996,-4.054
728,169,45.9751,4.70416,0.00209525,0.00129256,-0.00166233,0.00340399,-1.61876e-05,-0.666947,0.00227474,0.0144318,1952,855,45.9751,-4.70414
735,169,45.9342,5.33582,0.00427863,0.00269651,-0.00185355,0.00550287,0.00147227,-0.583708,0.00328954,0.0182669,1959,855,45.9342,-5.33584
742,169,45.9362,5.9613,0.00653604,0.00444087,-0.00239528,0.00810281,0.00287411,-0.579254,0.00474354,0.0184014,1966,855,45.9361,-5.96129
749,169,45.9032,6.51746,0.0086451,0.00644374,-0.00343544,0.0111519,0.00393696,-0.63037,0.0065306,0.0303755,1973,855,45.9032,-6.51745
756,169,46.0938,7.00916,0,0,0,0,0,0,0,-1,1980,855,46.0937,-7.00913
763,169,45.1978,7.5675,0,0,0,0,0,0,0,-1,1987,855,45.1977,-7.56751
770,169,37.2059,3.97021,0,0,0,0,0,0,0,-1,1994,855,37.2059,-3.97022
777,169,41.7505,8.7085,0,0,0,0,0,0,0,-1,2001,855,41.7505,-8.70852
784,169,40.0581,9.47473,0,0,0,0,0,0,0,-1,2008,855,40.058,-9.47476
791,169,0,0,0,0,0,0,0,0,0,-1,2015,855,0,0
798,169,0,0,0,0,0,0,0,0,0,-1,2022,855,0,0
805,169,0,0,0,0,0,0,0,0,0,-1,2029,855,0,0
812,169,0,0,0,0,0,0,0,0,0,-1,2036,855,0,0
-700,162,0,0,0,0,0,0,0,0,0,-1,524,862,0,0
-693,162,0,0,0,0,0,0,0,0,0,-1,531,862,0,0
-686,162,0,0,0,0,0,0,0,0,0,-1,538,862,0,0
-679,162,0,0,0,0,0,0,0,0,0,-1,545,862,0,0
-672,162,0,0,0,0,0,0,0,0,0,-1,552,862,0,0
-665,162,-35.8782,5.69604,0,0,0,0,0,0,0,-1,559,862,-35.8783,-5.69604
-658,162,-35.4182,5.05365,0,0,0,0,0,0,0,-1,566,862,-35.4182,-5.05364
-651,162,-34.0599,10.4942,0,0,0,0,0,0,0,-1,573,862,-34.0599,-10.4942
-644,162,-34.0636,8.34387,0.0155547,0.124104,-0.0631319,0.153084,-0.0134256,-1.14045,0.106813,0.0459369,580,862,-34.0636,-8.34388
-637,162,-33.2351,5.98505,0.010196,0.0911907,-0.0500334,0.115062,-0.0136757,-1.12562,0.0816495,0.0480862,587,862,-33.2351,-5.98507
-630,162,-33.632,5.29724,0,0,0,0,0,0,0,-1,594,862,-33.6319,-5.29724
-623,162,-33.7667,4.61023,0.00300022,0.0454168,-0.0277911,0.0591676,-0.0107506,-1.11132,0.043474,0.0329291,601,862,-33.7667,-4.61022
-616,162,-33.8979,3.96527,0.00074093,0.0299762,-0.0186038,0.0390182,-0.00830105,-1.11839,0.0291755,0.0199939,608,862,-33.8979,-3.96526
-609,162,-33.9654,3.35278,-0.00107378,0.0167853,-0.0108411,0.0219009,-0.0061894,-1.1299,0.0170426,0.013886,615,862,-33.9654,-3.35276
-602,162,-34.0025,2.7381,-0.00179052,0.00944464,-0.00438658,0.0109544,-0.00330031,-1.23931,0.00861637,0.0124287,622,862,-34.0025,-2.73809
-595,162,-34.0198,2.16217,-0.00211156,0.0041303,0.00028876,0.00414363,-0.00212489,1.52467,0.00368116,0.0118517,629,862,-34.0198,-2.16214
-588,162,-34.0217,1.58038,-0.00224697,0.00162722,0.00275609,0.00305886,-0.00367861,1.09171,0.00389536,0.0133907,636,862,-34.0217,-1.58038
-581,162,-34.2147,1.00623,-0.00205018,0.000907754,0.00327257,0.00302004,-0.00416247,0.997626,0.00416427,0.0318472,643,862,-34.2146,-1.00622
-574,162,-34.5225,0.411072,-0.00188109,0.000649705,0.00316498,0.00279288,-0.00402426,0.97557,0.00395722,0.0464579,650,862,-34.5225,-0.41108
-567,162,-34.5331,-0.266663,-0.00168574,0.000612975,0.00295393,0.00263327,-0.00370604,0.970933,0.00367743,0.0493095,657,862,-34.5331,0.266682
-560,162,-34.2644,-0.920044,-0.00149317,0.000579144,0.00270587,0.00244046,-0.00335449,0.96825,0.00335956,0.045003,664,862,-34.2644,0.920046
-553,162,-33.7935,-1.68036,0,0,0,0,0,0,0,-1,671,862,-33.7935,1.68034
-546,162,-22.8181,-1.51154,0,0,0,0,0,0,0,-1,678,862,-22.8181,1.51155
-539,162,-42.6448,0.825073,0,0,0,0,0,0,0,-1,685,862,-42.6448,-0.825045
-532,162,-42.6539,0.700439,-0.000905204,0.00386619,0.00163668,0.00437363,-0.00141265,1.27015,0.00348346,0.0422461,692,862,-42.6539,-0.700456
-525,162,-42.6888,0.595154,-0.000551793,0.00520879,0.00117577,0.00543953,-0.000782531,1.37701,0.00391336,0.038907,699,862,-42.6888,-0.59518
-518,162,-42.7487,0.693298,-0.000432627,0.0068541,0.000737931,0.00692808,-0.000506607,1.47088,0.00479651,0.0403672,706,862,-42.7487,-0.693327
-511,162,-42.7506,0.690063,-4.9984e-05,0.00836656,0.000311761,0.00837809,-6.15162e-05,1.53382,0.00560601,0.0442224,713,862,-42.7506,-0.690076
-504,162,-42.7825,0.709534,0.00129859,0.00954397,-0.000114231,0.00954555,0.00129701,-1.55695,0.00597844,0.045831,720,862,-42.7825,-0.709539
-497,162,-42.6309,0.733948,0,0,0,0,0,0,0,-1,727,862,-42.6309,-0.733972
-490,162,0,0,0,0,0,0,0,0,0,-1,734,862,0,0
-483,162,0,0,0,0,0,0,0,0,0,-1,741,862,0,0
-476,162,0,0,0,0,0,0,0,0,0,-1,748,862,0,0
-469,162,0,0,0,0,0,0,0,0,0,-1,755,862,0,0
-462,162,0,0,0,0,0,0,0,0,0,-1,762,862,0,0
-455,162,0,0,0,0,0,0,0,0,0,-1,769,862,0,0
-448,162,0,0,0,0,0,0,0,0,0,-1,776,862,0,0
-441,162,0,0,0,0,0,0,0,0,0,-1,783,862,0,0
-434,162,0,0,0,0,0,0,0,0,0,-1,790,862,0,0
-427,162,0,0,0,0,0,0,0,0,0,-1,797,862,0,0
-420,162,0,0,0,0,0,0,0,0,0,-1,804,862,0,0
-413,162,0,0,0,0,0,0,0,0,0,-1,811,862,0,0
-406,162,0,0,0,0,0,0,0,0,0,-1,818,862,0,0
-399,162,0,0,0,0,0,0,0,0,0,-1,825,862,0,0
-392,162,0,0,0,0,0,0,0,0,0,-1,832,862,0,0
-385,162,0,0,0,0,0,0,0,0,0,-1,839,862,0,0
-378,162,0,0,0,0,0,0,0,0,0,-1,846,862,0,0
-371,162,0,0,0,0,0,0,0,0,0,-1,853,862,0,0
-364,162,0,0,0,0,0,0,0,0,0,-1,860,862,0,0
-357,162,0,0,0,0,0,0,0,0,0,-1,867,862,0,0
-350,162,0,0,0,0,0,0,0,0,0,-1,874,862,0,0
-343,162,0,0,0,0,0,0,0,0,0,-1,881,862,0,0
-336,162,0,0,0,0,0,0,0,0,0,-1,888,862,0,0
-329,162,0,0,0,0,0,0,0,0,0,-1,895,862,0,0
-322,162,0,0,0,0,0,0,0,0,0,-1,902,862,0,0
-315,162,0,0,0,0,0,0,0,0,0,-1,909,862,0,0
-308,162,0,0,0,0,0,0,0,0,0,-1,916,862,0,0
-301,162,0,0,0,0,0,0,0,0,0,-1,923,862,0,0
-294,162,0,0,0,0,0,0,0,0,0,-1,930,862,0,0
-287,162,0,0,0,0,0,0,0,0,0,-1,937,862,0,0
-280,162,0,0,0,0,0,0,0,0,0,-1,944,862,0,0
-273,162,0,0,0,0,0,0,0,0,0,-1,951,862,0,0
-266,162,0,0,0,0,0,0,0,0,0,-1,958,862,0,0
-259,162,0,0,0,0,0,0,0,0,0,-1,965,862,0,0
-252,162,0,0,0,0,0,0,0,0,0,-1,972,862,0,0
-245,162,0,0,0,0,0,0,0,0,0,-1,979,862,0,0
-238,162,0,0,0,0,0,0,0,0,0,-1,986,862,0,0
-231,162,0,0,0,0,0,0,0,0,0,-1,993,862,0,0
-224,162,0,0,0,0,0,0,0,0,0,-1,1000,862,0,0
-217,162,0,0,0,0,0,0,0,0,0,-1,1007,862,0,0
-210,162,0,0,0,0,0,0,0,0,0,-1,1014,862,0,0
-203,162,0,0,0,0,0,0,0,0,0,-1,1021,862,0,0
-196,162,0,0,0,0,0,0,0,0,0,-1,1028,862,0,0
-189,162,0,0,0,0,0,0,0,0,0,-1,1035,862,0,0
-182,162,0,0,0,0,0,0,0,0,0,-1,1042,862,0,0
-175,162,0,0,0,0,0,0,0,0,0,-1,1049,862,0,0
-168,162,0,0,0,0,0,0,0,0,0,-1,1056,862,0,0
-161,162,0,0,0,0,0,0,0,0,0,-1,1063,862,0,0
-154,162,0,0,0,0,0,0,0,0,0,-1,1070,862,0,0
-147,162,0,0,0,0,0,0,0,0,0,-1,1077,862,0,0
-140,162,0,0,0,0,0,0,0,0,0,-1,1084,862,0,0
-133,162,0,0,0,0,0,0,0,0,0,-1,1091,862,0,0
-126,162,0,0,0,0,0,0,0,0,0,-1,1098,862,0,0
-119,162,0,0,0,0,0,0,0,0,0,-1,1105,862,0,0
-112,162,0,0,0,0,0,0,0,0,0,-1,1112,862,0,0
-105,162,0,0,0,0,0,0,0,0,0,-1,1119,862,0,0
-98,162,0,0,0,0,0,0,0,0,0,-1,1126,862,0,0
-91,162,0,0,0,0,0,0,0,0,0,-1,1133,862,0,0
-84,162,0,0,0,0,0,0,0,0,0,-1,1140,862,0,0
-77,162,0,0,0,0,0,0,0,0,0,-1,1147,862,0,0
-70,162,0,0,0,0,0,0,0,0,0,-1,1154,862,0,0
-63,162,0,0,0,0,0,0,0,0,0,-1,1161,862,0,0
-56,162,0,0,0,0,0,0,0,0,0,-1,1168,862,0,0
-49,162,0,0,0,0,0,0,0,0,0,-1,1175,862,0,0
-42,162,0,0,0,0,0,0,0,0,0,-1,1182,862,0,0
-35,162,0,0,0,0,0,0,0,0,0,-1,1189,862,0,0
-28,162,0,0,0,0,0,0,0,0,0,-1,1196,862,0,0
-21,162,0,0,0,0,0,0,0,0,0,-1,1203,862,0,0
-14,162,0,0,0,0,0,0,0,0,0,-1,1210,862,0,0
-7,162,0,0,0,0,0,0,0,0,0,-1,1217,862,0,0
0,162,0,0,0,0,0,0,0,0,0,-1,1224,862,0,0
7,162,0,0,0,0,0,0,0,0,0,-1,1231,862,0,0
14,162,0,0,0,0,0,0,0,0,0,-1,1238,862,0,0
21,162,0,0,0,0,0,0,0,0,0,-1,1245,862,0,0
28,162,0,0,0,0,0,0,0,0,0,-1,1252,862,0,0
35,162,0,0,0,0,0,0,0,0,0,-1,1259,862,0,0
42,162,0,0,0,0,0,0,0,0,0,-1,1266,862,0,0
49,162,0,0,0,0,0,0,0,0,0,-1,1273,862,0,0
56,162,0,0,0,0,0,0,0,0,0,-1,1280,862,0,0
63,162,0,0,0,0,0,0,0,0,0,-1,1287,862,0,0
70,162,0,0,0,0,0,0,0,0,0,-1,1294,862,0,0
77,162,0,0,0,0,0,0,0,0,0,-1,1301,862,0,0
84,162,0,0,0,0,0,0,0,0,0,-1,1308,862,0,0
91,162,0,0,0,0,0,0,0,0,0,-1,1315,862,0,0
98,162,0,0,0,0,0,0,0,0,0,-1,1322,862,0,0
105,162,0,0,0,0,0,0,0,0,0,-1,1329,862,0,0
112,162,0,0,0,0,0,0,0,0,0,-1,1336,862,0,0
119,162,0,0,0,0,0,0,0,0,0,-1,1343,862,0,0
126,162,0,0,0,0,0,0,0,0,0,-1,1350,862,0,0
133,162,0,0,0,0,0,0,0,0,0,-1,1357,862,0,0
140,162,0,0,0,0,0,0,0,0,0,-1,1364,862,0,0
147,162,0,0,0,0,0,0,0,0,0,-1,1371,862,0,0
154,162,0,0,0,0,0,0,0,0,0,-1,1378,862,0,0
161,162,0,0,0,0,0,0,0,0,0,-1,1385,862,0,0
168,162,0,0,0,0,0,0,0,0,0,-1,1392,862,0,0
175,162,0,0,0,0,0,0,0,0,0,-1,1399,862,0,0
182,162,0,0,0,0,0,0,0,0,0,-1,1406,862,0,0
189,162,0,0,0,0,0,0,0,0,0,-1,1413,862,0,0
196,162,0,0,0,0,0,0,0,0,0,-1,1420,862,0,0
203,162,0,0,0,0,0,0,0,0,0,-1,1427,862,0,0
210,162,0,0,0,0,0,0,0,0,0,-1,1434,862,0,0
217,162,0,0,0,0,0,0,0,0,0,-1,1441,862,0,0
224,162,0,0,0,0,0,0,0,0,0,-1,1448,862,0,0
231,162,0,0,0,0,0,0,0,0,0,-1,1455,862,0,0
238,162,0,0,0,0,0,0,0,0,0,-1,1462,862,0,0
245,162,0,0,0,0,0,0,0,0,0,-1,1469,862,0,0
252,162,0,0,0,0,0,0,0,0,0,-1,1476,862,0,0
259,162,0,0,0,0,0,0,0,0,0,-1,1483,862,0,0
266,162,0,0,0,0,0,0,0,0,0,-1,1490,862,0,0
273,162,0,0,0,0,0,0,0,0,0,-1,1497,862,0,0
280,162,0,0,0,0,0,0,0,0,0,-1,1504,862,0,0
287,162,0,0,0,0,0,0,0,0,0,-1,1511,862,0,0
294,162,0,0,0,0,0,0,0,0,0,-1,1518,862,0,0
301,162,0,0,0,0,0,0,0,0,0,-1,1525,862,0,0
308,162,0,0,0,0,0,0,0,0,0,-1,1532,862,0,0
315,162,0,0,0,0,0,0,0,0,0,-1,1539,862,0,0
322,162,0,0,0,0,0,0,0,0,0,-1,1546,862,0,0
329,162,0,0,0,0,0,0,0,0,0,-1,1553,862,0,0
336,162,0,0,0,0,0,0,0,0,0,-1,1560,862,0,0
343,162,0,0,0,0,0,0,0,0,0,-1,1567,862,0,0
350,162,0,0,0,0,0,0,0,0,0,-1,1574,862,0,0
357,162,0,0,0,0,0,0,0,0,0,-1,1581,862,0,0
364,162,0,0,0,0,0,0,0,0,0,-1,1588,862,0,0
371,162,0,0,0,0,0,0,0,0,0,-1,1595,862,0,0
378,162,0,0,0,0,0,0,0,0,0,-1,1602,862,0,0
385,162,0,0,0,0,0,0,0,0,0,-1,1609,862,0,0
392,162,0,0,0,0,0,0,0,0,0,-1,1616,862,0,0
399,162,0,0,0,0,0,0,0,0,0,-1,1623,862,0,0
406,162,0,0,0,0,0,0,0,0,0,-1,1630,862,0,0
413,162,0,0,0,0,0,0,0,0,0,-1,1637,862,0,0
420,162,0,0,0,0,0,0,0,0,0,-1,1644,862,0,0
427,162,0,0,0,0,0,0,0,0,0,-1,1651,862,0,0
434,162,0,0,0,0,0,0,0,0,0,-1,1658,862,0,0
441,162,0,0,0,0,0,0,0,0,0,-1,1665,862,0,0
448,162,0,0,0,0,0,0,0,0,0,-1,1672,862,0,0
455,162,0,0,0,0,0,0,0,0,0,-1,1679,862,0,0
462,162,0,0,0,0,0,0,0,0,0,-1,1686,862,0,0
469,162,0,0,0,0,0,0,0,0,0,-1,1693,862,0,0
476,162,0,0,0,0,0,0,0,0,0,-1,1700,862,0,0
483,162,0,0,0,0,0,0,0,0,0,-1,1707,862,0,0
490,162,0,0,0,0,0,0,0,0,0,-1,1714,862,0,0
497,162,0,0,0,0,0,0,0,0,0,-1,1721,862,0,0
504,162,0,0,0,0,0,0,0,0,0,-1,1728,862,0,0
511,162,0,0,0,0,0,0,0,0,0,-1,1735,862,0,0
518,162,0,0,0,0,0,0,0,0,0,-1,1742,862,0,0
525,162,0,0,0,0,0,0,0,0,0,-1,1749,862,0,0
532,162,0,0,0,0,0,0,0,0,0,-1,1756,862,0,0
539,162,0,0,0,0,0,0,0,0,0,-1,1763,862,0,0
546,162,0,0,0,0,0,0,0,0,0,-1,1770,862,0,0
553,162,0,0,0,0,0,0,0,0,0,-1,1777,862,0,0
560,162,0,0,0,0,0,0,0,0,0,-1,1784,862,0,0
567,162,0,0,0,0,0,0,0,0,0,-1,1791,862,0,0
574,162,0,0,0,0,0,0,0,0,0,-1,1798,862,0,0
581,162,0,0,0,0,0,0,0,0,0,-1,1805,862,0,0
588,162,0,0,0,0,0,0,0,0,0,-1,1812,862,0,0
595,162,0,0,0,0,0,0,0,0,0,-1,1819,862,0,0
602,162,0,0,0,0,0,0,0,0,0,-1,1826,862,0,0
609,162,0,0,0,0,0,0,0,0,0,-1,1833,862,0,0
616,162,56.5646,2.32275,0.00355457,0.0126938,0.00537281,0.0151774,0.00107092,1.13779,0.00978087,0.0442612,1840,862,56.5646,-2.32273
623,162,56.6603,2.63599,0.00194786,0.00938247,0.00375956,0.0109522,0.00037814,1.17527,0.00717874,0.0457502,1847,862,56.6603,-2.63599
630,162,56.5326,2.55835,0.000873901,0.0062174,0.00227788,0.00705663,3.4672e-05,1.2178,0.00469291,0.0400571,1854,862,56.5326,-2.55834
637,162,56.4829,2.52136,3.93422e-05,0.00385468,0.00111525,0.00415676,-0.000262738,1.30628,0.00286277,0.0387571,1861,862,56.4829,-2.52136
644,162,56.4827,2.67969,-0.000696354,0.00223192,0.000251493,0.00225337,-0.000717796,1.48574,0.00179014,0.0378675,1868,862,56.4826,-2.67968
651,162,56.4801,2.72095,-0.00125489,0.00115666,-0.000340988,0.00120395,-0.00130218,-1.433,0.00144728,0.036893,1875,862,56.4801,-2.72093
658,162,56.5216,2.63647,-0.00176188,0.000277045,-0.000966465,0.000662346,-0.00214718,-1.19144,0.00169591,0.0386664,1882,862,56.5216,-2.63648
665,162,56.5323,2.55908,0,0,0,0,0,0,0,-1,1889,862,56.5324,-2.55908
672,162,56.0243,2.84784,0,0,0,0,0,0,0,-1,1896,862,56.0242,-2.84787
679,162,26.5077,2.54785,0,0,0,0,0,0,0,-1,1903,862,26.5077,-2.54787
686,162,45.6431,0.996643,0,0,0,0,0,0,0,-1,1910,862,45.6431,-0.996634
693,162,47.0193,1.77026,0,0,0,0,0,0,0,-1,1917,862,47.0193,-1.77024
700,162,46.9364,2.35907,-0.00183106,-0.00131695,-0.00178265,0.000227081,-0.0033751,-0.857004,0.00232945,0.0305366,1924,862,46.9364,-2.35905
707,162,46.8372,2.91254,-0.00168338,-0.00129823,-0.00186538,0.000384494,-0.0033661,-0.836834,0.0023826,0.0216861,1931,862,46.8372,-2.91256
714,162,46.6735,3.43146,-0.0012516,-0.00082476,-0.00191862,0.000892276,-0.00296864,-0.840788,0.00233408,0.0245452,1938,862,46.6735,-3.43143
721,162,46.5369,4.15918,-0.000374539,-1.17155e-05,-0.00179571,0.00161172,-0.00199798,-0.83574,0.00208803,0.0296243,1945,862,46.5368,-4.1592
728,162,46.5494,4.75146,0.00077684,0.00107494,-0.00178137,0.00271349,-0.000861706,-0.827137,0.00215446,0.0239498,1952,862,46.5494,-4.75149
735,162,46.5844,5.33813,0.0022027,0.0023876,-0.00198888,0.00428618,0.000304116,-0.808623,0.00276167,0.0109952,1959,862,46.5843,-5.33815
742,162,46.5414,5.94299,0.00366464,0.00404136,-0.00249278,0.00635289,0.00135312,-0.823108,0.00386402,0.0127823,1966,862,46.5414,-5.94298
749,162,46.4601,6.53741,0.00485077,0.00588218,-0.00342171,0.00882683,0.00190613,-0.860193,0.0053633,0.0200976,1973,862,46.46,-6.53739
756,162,46.2579,7.01385,0.00562907,0.00799241,-0.00493399,0.0118843,0.00173722,-0.902933,0.00741194,0.0462066,1980,862,46.2579,-7.01386
763,162,46.0956,7.54919,0,0,0,0,0,0,0,-1,1987,862,46.0956,-7.54917
770,162,45.8811,9.52185,0,0,0,0,0,0,0,-1,1994,862,45.8811,-9.52183
777,162,45.3398,10.4014,0,0,0,0,0,0,0,-1,2001,862,45.3398,-10.4014
784,162,45.177,10.9936,0,0,0,0,0,0,0,-1,2008,862,45.1769,-10.9936
791,162,0,0,0,0,0,0,0,0,0,-1,2015,862,0,0
798,162,0,0,0,0,0,0,0,0,0,-1,2022,862,0,0
805,162,0,0,0,0,0,0,0,0,0,-1,2029,862,0,0
812,162,0,0,0,0,0,0,0,0,0,-1,2036,862,0,0
-700,155,0,0,0,0,0,0,0,0,0,-1,524,869,0,0
-693,155,0,0,0,0,0,0,0,0,0,-1,531,869,0,0
-686,155,0,0,0,0,0,0,0,0,0,-1,538,869,0,0
-679,155,0,0,0,0,0,0,0,0,0,-1,545,869,0,0
-672,155,0,0,0,0,0,0,0,0,0,-1,552,869,0,0
-665,155,-34.7548,13.9272,0,0,0,0,0,0,0,-1,559,869,-34.7548,-13.9272
-658,155,-35.1411,11.6751,0,0,0,0,0,0,0,-1,566,869,-35.1411,-11.6751
-651,155,-35.2849,9.61017,0.0244965,0.16764,-0.0693321,0.195715,-0.00357837,-1.18604,0.131686,0.0493601,573,869,-35.2848,-9.6102
-644,155,-35.4213,7.60449,0.0164362,0.125274,-0.0573038,0.149882,-0.00817108,-1.16519,0.102753,0.0490131,580,869,-35.4213,-7.60447
-637,155,-34.2622,5.65924,0,0,0,0,0,0,0,-1,587,869,-34.2622,-5.65925
-630,155,-34.1697,5.22937,0,0,0,0,0,0,0,-1,594,869,-34.1697,-5.22939
-623,155,-34.3664,4.63507,0.00272223,0.0439546,-0.0245647,0.0554079,-0.0087311,-1.13451,0.0401665,0.0265613,601,869,-34.3664,-4.63506
-616,155,-34.5036,3.98096,0.000325451,0.0283152,-0.0159246,0.0355206,-0.00687989,-1.14589,0.0262756,0.015726,608,869,-34.5036,-3.98093
-609,155,-34.5809,3.3562,-0.00158653,0.0149828,-0.00858262,0.0186269,-0.00523071,-1.16927,0.0144799,0.0149711,615,869,-34.5809,-3.35619
-602,155,-34.6261,2.75122,-0.00226214,0.00785884,-0.00256515,0.00847185,-0.00287514,-1.33622,0.00681164,0.013604,622,869,-34.6261,-2.75125
-595,155,-34.6516,2.17938,-0.00242879,0.00314551,0.00142352,0.00348799,-0.00277128,1.33469,0.00362168,0.0130681,629,869,-34.6516,-2.17935
-588,155,-34.6292,1.63678,-0.00236807,0.0012801,0.00306365,0.00302158,-0.00410955,1.05391,0.0041331,0.0183364,636,869,-34.6291,-1.63677
-581,155,-34.8831,1.21991,-0.00211733,0.000866711,0.00315202,0.002862,-0.00411263,1.00645,0.00404833,0.0358077,643,869,-34.8831,-1.21991
-574,155,-35.1168,0.933533,0,0,0,0,0,0,0,-1,650,869,-35.1168,-0.933534
-567,155,-35.3516,-0.344666,0,0,0,0,0,0,0,-1,657,869,-35.3516,0.344643
-560,155,-34.8677,-0.784546,0,0,0,0,0,0,0,-1,664,869,-34.8677,0.784561
-553,155,-34.5399,-1.73462,0,0,0,0,0,0,0,-1,671,869,-34.5399,1.73461
-546,155,-22.7988,0.873657,0,0,0,0,0,0,0,-1,678,869,-22.7988,-0.873645
-539,155,-42.6599,0.642578,0,0,0,0,0,0,0,-1,685,869,-42.6599,-0.64256
-532,155,-42.6356,0.627197,-0.00082414,0.00295066,0.00105392,0.00322498,-0.00109846,1.31616,0.00259484,0.0364037,692,869,-42.6356,-0.627182
-525,155,-42.6187,0.655701,-0.000548625,0.00410083,0.000497612,0.00415349,-0.000601286,1.46536,0.00298965,0.0381703,699,869,-42.6187,-0.655702
-518,155,-42.6094,0.791321,-0.000500194,0.00555233,2.56578e-05,0.00555244,-0.000500303,1.56656,0.00387916,0.0422203,706,869,-42.6094,-0.79132
-511,155,-42.6746,0.764832,-2.68597e-06,0.00708149,-0.000275126,0.00709215,-1.33547e-05,-1.53204,0.00473256,0.0420647,713,869,-42.6746,-0.764855
-504,155,-42.6979,0.504395,0.00136846,0.00818682,-0.000547182,0.00823045,0.00132483,-1.49122,0.00510301,0.0407381,720,869,-42.6979,-0.504413
-497,155,0,0,0,0,0,0,0,0,0,-1,727,869,0,0
-490,155,0,0,0,0,0,0,0,0,0,-1,734,869,0,0
-483,155,0,0,0,0,0,0,0,0,0,-1,741,869,0,0
-476,155,0,0,0,0,0,0,0,0,0,-1,748,869,0,0
-469,155,0,0,0,0,0,0,0,0,0,-1,755,869,0,0
-462,155,0,0,0,0,0,0,0,0,0,-1,762,869,0,0
-455,155,0,0,0,0,0,0,0,0,0,-1,769,869,0,0
-448,155,0,0,0,0,0,0,0,0,0,-1,776,869,0,0
-441,155,0,0,0,0,0,0,0,0,0,-1,783,869,0,0
-434,155,0,0,0,0,0,0,0,0,0,-1,790,869,0,0
-427,155,0,0,0,0,0,0,0,0,0,-1,797,869,0,0
-420,155,0,0,0,0,0,0,0,0,0,-1,804,869,0,0
-413,155,0,0,0,0,0,0,0,0,0,-1,811,869,0,0
-406,155,0,0,0,0,0,0,0,0,0,-1,818,869,0,0
-399,155,0,0,0,0,0,0,0,0,0,-1,825,869,0,0
-392,155,0,0,0,0,0,0,0,0,0,-1,832,869,0,0
-385,155,0,0,0,0,0,0,0,0,0,-1,839,869,0,0
-378,155,0,0,0,0,0,0,0,0,0,-1,846,869,0,0
-371,155,0,0,0,0,0,0,0,0,0,-1,853,869,0,0
-364,155,0,0,0,0,0,0,0,0,0,-1,860,869,0,0
-357,155,0,0,0,0,0,0,0,0,0,-1,867,869,0,0
-350,155,0,0,0,0,0,0,0,0,0,-1,874,869,0,0
-343,155,0,0,0,0,0,0,0,0,0,-1,881,869,0,0
-336,155,0,0,0,0,0,0,0,0,0,-1,888,869,0,0
-329,155,0,0,0,0,0,0,0,0,0,-1,895,869,0,0
-322,155,0,0,0,0,0,0,0,0,0,-1,902,869,0,0
-315,155,0,0,0,0,0,0,0,0,0,-1,909,869,0,0
-308,155,0,0,0,0,0,0,0,0,0,-1,916,869,0,0
-301,155,0,0,0,0,0,0,0,0,0,-1,923,869,0,0
-294,155,0,0,0,0,0,0,0,0,0,-1,930,869,0,0
-287,155,0,0,0,0,0,0,0,0,0,-1,937,869,0,0
-280,155,0,0,0,0,0,0,0,0,0,-1,944,869,0,0
-273,155,0,0,0,0,0,0,0,0,0,-1,951,869,0,0
-266,155,0,0,0,0,0,0,0,0,0,-1,958,869,0,0
-259,155,0,0,0,0,0,0,0,0,0,-1,965,869,0,0
-252,155,0,0,0,0,0,0,0,0,0,-1,972,869,0,0
-245,155,0,0,0,0,0,0,0,0,0,-1,979,869,0,0
-238,155,0,0,0,0,0,0,0,0,0,-1,986,869,0,0
-231,155,0,0,0,0,0,0,0,0,0,-1,993,869,0,0
-224,155,0,0,0,0,0,0,0,0,0,-1,1000,869,0,0
-217,155,0,0,0,0,0,0,0,0,0,-1,1007,869,0,0
-210,155,0,0,0,0,0,0,0,0,0,-1,1014,869,0,0
-203,155,0,0,0,0,0,0,0,0,0,-1,1021,869,0,0
-196,155,0,0,0,0,0,0,0,0,0,-1,1028,869,0,0
-189,155,0,0,0,0,0,0,0,0,0,-1,1035,869,0,0
-182,155,0,0,0,0,0,0,0,0,0,-1,1042,869,0,0
-175,155,0,0,0,0,0,0,0,0,0,-1,1049,869,0,0
-168,155,0,0,0,0,0,0,0,0,0,-1,1056,869,0,0
-161,155,0,0,0,0,0,0,0,0,0,-1,1063,869,0,0
-154,155,0,0,0,0,0,0,0,0,0,-1,1070,869,0,0
-147,155,0,0,0,0,0,0,0,0,0,-1,1077,869,0,0
-140,155,0,0,0,0,0,0,0,0,0,-1,1084,869,0,0
-133,155,0,0,0,0,0,0,0,0,0,-1,1091,869,0,0
-126,155,0,0,0,0,0,0,0,0,0,-1,1098,869,0,0
-119,155,0,0,0,0,0,0,0,0,0,-1,1105,869,0,0
-112,155,0,0,0,0,0,0,0,0,0,-1,1112,869,0,0
-105,155,0,0,0,0,0,0,0,0,0,-1,1119,869,0,0
-98,155,0,0,0,0,0,0,0,0,0,-1,1126,869,0,0
-91,155,0,0,0,0,0,0,0,0,0,-1,1133,869,0,0
-84,155,0,0,0,0,0,0,0,0,0,-1,1140,869,0,0
-77,155,0,0,0,0,0,0,0,0,0,-1,1147,869,0,0
-70,155,0,0,0,0,0,0,0,0,0,-1,1154,869,0,0
-63,155,0,0,0,0,0,0,0,0,0,-1,1161,869,0,0
-56,155,0,0,0,0,0,0,0,0,0,-1,1168,869,0,0
-49,155,0,0,0,0,0,0,0,0,0,-1,1175,869,0,0
-42,155,0,0,0,0,0,0,0,0,0,-1,1182,869,0,0
-35,155,0,0,0,0,0,0,0,0,0,-1,1189,869,0,0
-28,155,0,0,0,0,0,0,0,0,0,-1,1196,869,0,0
-21,155,0,0,0,0,0,0,0,0,0,-1,1203,869,0,0
-14,155,0,0,0,0,0,0,0,0,0,-1,1210,869,0,0
-7,155,0,0,0,0,0,0,0,0,0,-1,1217,869,0,0
0,155,0,0,0,0,0,0,0,0,0,-1,1224,869,0,0
7,155,0,0,0,0,0,0,0,0,0,-1,1231,869,0,0
14,155,0,0,0,0,0,0,0,0,0,-1,1238,869,0,0
21,155,0,0,0,0,0,0,0,0,0,-1,1245,869,0,0
28,155,0,0,0,0,0,0,0,0,0,-1,1252,869,0,0
35,155,0,0,0,0,0,0,0,0,0,-1,1259,869,0,0
42,155,0,0,0,0,0,0,0,0,0,-1,1266,869,0,0
49,155,0,0,0,0,0,0,0,0,0,-1,1273,869,0,0
56,155,0,0,0,0,0,0,0,0,0,-1,1280,869,0,0
63,155,0,0,0,0,0,0,0,0,0,-1,1287,869,0,0
70,155,0,0,0,0,0,0,0,0,0,-1,1294,869,0,0
77,155,0,0,0,0,0,0,0,0,0,-1,1301,869,0,0
84,155,0,0,0,0,0,0,0,0,0,-1,1308,869,0,0
91,155,0,0,0,0,0,0,0,0,0,-1,1315,869,0,0
98,155,0,0,0,0,0,0,0,0,0,-1,1322,869,0,0
105,155,0,0,0,0,0,0,0,0,0,-1,1329,869,0,0
112,155,0,0,0,0,0,0,0,0,0,-1,1336,869,0,0
119,155,0,0,0,0,0,0,0,0,0,-1,1343,869,0,0
126,155,0,0,0,0,0,0,0,0,0,-1,1350,869,0,0
133,155,0,0,0,0,0,0,0,0,0,-1,1357,869,0,0
140,155,0,0,0,0,0,0,0,0,0,-1,1364,869,0,0
147,155,0,0,0,0,0,0,0,0,0,-1,1371,869,0,0
154,155,0,0,0,0,0,0,0,0,0,-1,1378,869,0,0
161,155,0,0,0,0,0,0,0,0,0,-1,1385,869,0,0
168,155,0,0,0,0,0,0,0,0,0,-1,1392,869,0,0
175,155,0,0,0,0,0,0,0,0,0,-1,1399,869,0,0
182,155,0,0,0,0,0,0,0,0,0,-1,1406,869,0,0
189,155,0,0,0,0,0,0,0,0,0,-1,1413,869,0,0
196,155,0,0,0,0,0,0,0,0,0,-1,1420,869,0,0
203,155,0,0,0,0,0,0,0,0,0,-1,1427,869,0,0
210,155,0,0,0,0,0,0,0,0,0,-1,1434,869,0,0
217,155,0,0,0,0,0,0,0,0,0,-1,1441,869,0,0
224,155,0,0,0,0,0,0,0,0,0,-1,1448,869,0,0
231,155,0,0,0,0,0,0,0,0,0,-1,1455,869,0,0
238,155,0,0,0,0,0,0,0,0,0,-1,1462,869,0,0
245,155,0,0,0,0,0,0,0,0,0,-1,1469,869,0,0
252,155,0,0,0,0,0,0,0,0,0,-1,1476,869,0,0
259,155,0,0,0,0,0,0,0,0,0,-1,1483,869,0,0
266,155,0,0,0,0,0,0,0,0,0,-1,1490,869,0,0
273,155,0,0,0,0,0,0,0,0,0,-1,1497,869,0,0
280,155,0,0,0,0,0,0,0,0,0,-1,1504,869,0,0
287,155,0,0,0,0,0,0,0,0,0,-1,1511,869,0,0
294,155,0,0,0,0,0,0,0,0,0,-1,1518,869,0,0
301,155,0,0,0,0,0,0,0,0,0,-1,1525,869,0,0
308,155,0,0,0,0,0,0,0,0,0,-1,1532,869,0,0
315,155,0,0,0,0,0,0,0,0,0,-1,1539,869,0,0
322,155,0,0,0,0,0,0,0,0,0,-1,1546,869,0,0
329,155,0,0,0,0,0,0,0,0,0,-1,1553,869,0,0
336,155,0,0,0,0,0,0,0,0,0,-1,1560,869,0,0
343,155,0,0,0,0,0,0,0,0,0,-1,1567,869,0,0
350,155,0,0,0,0,0,0,0,0,0,-1,1574,869,0,0
357,155,0,0,0,0,0,0,0,0,0,-1,1581,869,0,0
364,155,0,0,0,0,0,0,0,0,0,-1,1588,869,0,0
371,155,0,0,0,0,0,0,0,0,0,-1,1595,869,0,0
378,155,0,0,0,0,0,0,0,0,0,-1,1602,869,0,0
385,155,0,0,0,0,0,0,0,0,0,-1,1609,869,0,0
392,155,0,0,0,0,0,0,0,0,0,-1,1616,869,0,0
399,155,0,0,0,0,0,0,0,0,0,-1,1623,869,0,0
406,155,0,0,0,0,0,0,0,0,0,-1,1630,869,0,0
413,155,0,0,0,0,0,0,0,0,0,-1,1637,869,0,0
420,155,0,0,0,0,0,0,0,0,0,-1,1644,869,0,0
427,155,0,0,0,0,0,0,0,0,0,-1,1651,869,0,0
434,155,0,0,0,0,0,0,0,0,0,-1,1658,869,0,0
441,155,0,0,0,0,0,0,0,0,0,-1,1665,869,0,0
448,155,0,0,0,0,0,0,0,0,0,-1,1672,869,0,0
455,155,0,0,0,0,0,0,0,0,0,-1,1679,869,0,0
462,155,0,0,0,0,0,0,0,0,0,-1,1686,869,0,0
469,155,0,0,0,0,0,0,0,0,0,-1,1693,869,0,0
476,155,0,0,0,0,0,0,0,0,0,-1,1700,869,0,0
483,155,0,0,0,0,0,0,0,0,0,-1,1707,869,0,0
490,155,0,0,0,0,0,0,0,0,0,-1,1714,869,0,0
497,155,0,0,0,0,0,0,0,0,0,-1,1721,869,0,0
504,155,0,0,0,0,0,0,0,0,0,-1,1728,869,0,0
511,155,0,0,0,0,0,0,0,0,0,-1,1735,869,0,0
518,155,0,0,0,0,0,0,0,0,0,-1,1742,869,0,0
525,155,0,0,0,0,0,0,0,0,0,-1,1749,869,0,0
532,155,0,0,0,0,0,0,0,0,0,-1,1756,869,0,0
539,155,0,0,0,0,0,0,0,0,0,-1,1763,869,0,0
546,155,0,0,0,0,0,0,0,0,0,-1,1770,869,0,0
553,155,0,0,0,0,0,0,0,0,0,-1,1777,869,0,0
560,155,0,0,0,0,0,0,0,0,0,-1,1784,869,0,0
567,155,0,0,0,0,0,0,0,0,0,-1,1791,869,0,0
574,155,0,0,0,0,0,0,0,0,0,-1,1798,869,0,0
581,155,0,0,0,0,0,0,0,0,0,-1,1805,869,0,0
588,155,0,0,0,0,0,0,0,0,0,-1,1812,869,0,0
595,155,0,0,0,0,0,0,0,0,0,-1,1819,869,0,0
602,155,0,0,0,0,0,0,0,0,0,-1,1826,869,0,0
609,155,0,0,0,0,0,0,0,0,0,-1,1833,869,0,0
616,155,56.5394,2.0368,0.00329766,0.0145492,0.00627237,0.0173491,0.000497756,1.15095,0.0114038,0.0452662,1840,869,56.5394,-2.0368
623,155,56.6941,2.44232,0.00167923,0.0108689,0.00435438,0.0126044,-5.62691e-05,1.19153,0.00842174,0.0447289,1847,869,56.694,-2.44233
630,155,56.3719,2.79675,0.000617682,0.00747115,0.00268879,0.00840011,-0.000311282,1.23814,0.00570666,0.0446767,1854,869,56.3719,-2.79675
637,155,56.4661,2.54688,-6.96439e-05,0.00484822,0.00139716,0.00521743,-0.000438859,1.31244,0.00363342,0.041731,1861,869,56.4661,-2.54689
644,155,56.4576,2.48627,-0.000662076,0.00290096,0.000420855,0.00295,-0.000711111,1.45481,0.00224162,0.0391276,1868,869,56.4576,-2.48629
651,155,56.509,2.67487,-0.00114413,0.00155401,-0.000250579,0.00157709,-0.0011672,-1.47897,0.0015903,0.0364722,1875,869,56.5091,-2.67484
658,155,56.4965,2.6814,-0.00163945,0.000454189,-0.000923234,0.000803146,-0.00198841,-1.20942,0.00165942,0.0296911,1882,869,56.4965,-2.68138
665,155,56.4554,2.60913,-0.00199563,-3.13565e-06,-0.00114946,0.000521721,-0.00252049,-1.14246,0.00187854,0.0332774,1889,869,56.4555,-2.60913
672,155,56.4946,2.46973,0,0,0,0,0,0,0,-1,1896,869,56.4946,-2.46974
679,155,35.1565,2.78528,0,0,0,0,0,0,0,-1,1903,869,35.1565,-2.7853
686,155,43.6101,1.63361,0,0,0,0,0,0,0,-1,1910,869,43.6101,-1.63362
693,155,47.5333,1.93597,0,0,0,0,0,0,0,-1,1917,869,47.5333,-1.93599
700,155,47.6019,2.45038,-0.00164437,-0.00115174,-0.00160801,0.00022871,-0.00302482,-0.861397,0.00209695,0.0403667,1924,869,47.6019,-2.45036
707,155,47.5563,3.06122,-0.00155317,-0.00110254,-0.00170957,0.000396496,-0.00305221,-0.850919,0.00217903,0.0272832,1931,869,47.5563,-3.06124
714,155,47.8074,3.64258,0,0,0,0,0,0,0,-1,1938,869,47.8073,-3.64256
721,155,47.2036,4.16241,-0.000843892,8.26785e-05,-0.00180015,0.0014782,-0.00223942,-0.911345,0.00216131,0.0350174,1945,869,47.2036,-4.16243
728,155,47.1768,4.78552,-0.000272747,0.00108619,-0.0018555,0.00238272,-0.00156928,-0.960911,0.00229774,0.0207187,1952,869,47.1768,-4.78552
735,155,47.1914,5.35486,0.000429587,0.00230103,-0.00212296,0.00368534,-0.000954717,-0.992971,0.00282934,0.0159201,1959,869,47.1914,-5.35483
742,155,47.1791,5.96252,0.00111369,0.00387835,-0.00265094,0.00548572,-0.000493678,-1.02573,0.00383232,0.0165473,1966,869,47.1791,-5.96252
749,155,47.1002,6.54022,0.00144735,0.00562582,-0.00351629,0.00762671,-0.000553551,-1.05345,0.00527868,0.0169276,1973,869,47.1002,-6.54023
756,155,47.0059,7.18958,0.00125379,0.00758083,-0.00483991,0.0101994,-0.00136479,-1.07486,0.0072972,0.0303942,1980,869,47.0059,-7.18957
763,155,46.7156,7.85297,0.000106847,0.00951953,-0.00703164,0.0132745,-0.00364811,-1.08031,0.0102837,0.0471252,1987,869,46.7156,-7.85296
770,155,46.3434,8.50787,0,0,0,0,0,0,0,-1,1994,869,46.3433,-8.50786
777,155,45.8065,10.0418,0,0,0,0,0,0,0,-1,2001,869,45.8065,-10.0418
784,155,46.0178,10.7461,0,0,0,0,0,0,0,-1,2008,869,46.0177,-10.7461
791,155,0,0,0,0,0,0,0,0,0,-1,2015,869,0,0
798,155,0,0,0,0,0,0,0,0,0,-1,2022,869,0,0
805,155,0,0,0,0,0,0,0,0,0,-1,2029,869,0,0
812,155,0,0,0,0,0,0,0,0,0,-1,2036,869,0,0
-700,148,0,0,0,0,0,0,0,0,0,-1,524,876,0,0
-693,148,0,0,0,0,0,0,0,0,0,-1,531,876,0,0
-686,148,0,0,0,0,0,0,0,0,0,-1,538,876,0,0
-679,148,0,0,0,0,0,0,0,0,0,-1,545,876,0,0
-672,148,-36.5176,14.8577,0,0,0,0,0,0,0,-1,552,876,-36.5176,-14.8577
-665,148,-36.7078,12.4976,0.0503154,0.286687,-0.0796135,0.311001,0.0260015,-1.27439,0.199233,0.047461,559,876,-36.7078,-12.4976
-658,148,-36.6985,10.4611,0,0,0,0,0,0,0,-1,566,876,-36.6985,-10.4611
-651,148,-36.8201,8.37048,0.0241154,0.165565,-0.0613346,0.188456,0.00122443,-1.21359,0.125232,0.0462224,573,876,-36.8201,-8.37045
-644,148,-37.136,6.24457,0.0158342,0.122416,-0.0502976,0.142404,-0.00415356,-1.19254,0.0963503,0.0461377,580,876,-37.1361,-6.24457
-637,148,-37.275,3.82898,0,0,0,0,0,0,0,-1,587,876,-37.2749,-3.82895
-630,148,-34.7748,5.39282,0,0,0,0,0,0,0,-1,594,876,-34.7748,-5.39285
-623,148,-34.9406,4.66876,0.00203925,0.0412397,-0.0206534,0.0501128,-0.00683388,-1.16502,0.0359039,0.0271786,601,876,-34.9406,-4.66873
-616,148,-35.0887,3.987,-0.000287711,0.0259262,-0.0128676,0.0311868,-0.00554833,-1.1827,0.0228661,0.0145133,608,876,-35.0887,-3.98699
-609,148,-35.1788,3.36554,-0.00211578,0.012984,-0.00625736,0.01524,-0.00437178,-1.22477,0.0118883,0.0134107,615,876,-35.1787,-3.36555
-602,148,-35.2282,2.77264,-0.00261473,0.0064395,-0.00105233,0.0065602,-0.00273543,-1.4566,0.00551619,0.0143763,622,876,-35.2282,-2.77266
-595,148,-35.2511,2.20306,-0.00253362,0.00257963,0.0020274,0.00328593,-0.00323992,1.23557,0.00376773,0.0131288,629,876,-35.2511,-2.20309
-588,148,-35.2569,1.57239,-0.0022941,0.00129521,0.00294054,0.00294548,-0.00394438,1.05938,0.00399177,0.0266943,636,876,-35.2569,-1.5724
-581,148,-35.4245,1.16547,-0.00202303,0.00101841,0.0028301,0.00271049,-0.00371511,1.03193,0.0037249,0.0430895,643,876,-35.4245,-1.16547
-574,148,-35.1091,0.736511,0,0,0,0,0,0,0,-1,650,876,-35.1091,-0.736537
-567,148,-34.7038,0.394226,0,0,0,0,0,0,0,-1,657,876,-34.7038,-0.394221
-560,148,-35.4973,-0.643127,0,0,0,0,0,0,0,-1,664,876,-35.4973,0.643119
-553,148,-18.3896,-0.00280762,0,0,0,0,0,0,0,-1,671,876,-18.3897,0.00278524
-546,148,-42.531,0.898743,0,0,0,0,0,0,0,-1,678,876,-42.531,-0.898735
-539,148,-42.5778,0.735413,-0.0010109,0.00172831,0.00098698,0.00204688,-0.00132948,1.25858,0.00196395,0.0419146,685,876,-42.5778,-0.735397
-532,148,-42.6255,0.630066,-0.000589804,0.00236857,0.000487385,0.0024468,-0.000668032,1.41165,0.00189357,0.0360927,692,876,-42.6255,-0.630048
-525,148,-42.579,0.693726,-0.000423912,0.00317633,-0.000163191,0.00318371,-0.000431294,-1.52559,0.00227988,0.0386322,699,876,-42.5791,-0.693726
-518,148,-42.5742,0.876404,-0.000541163,0.00413533,-0.000569085,0.00420359,-0.000609419,-1.45143,0.00302606,0.0438681,706,876,-42.5742,-0.8764
-511,148,-42.6268,0.923645,-0.000112201,0.00524479,-0.000569276,0.00530462,-0.000172028,-1.46609,0.00359513,0.0408448,713,876,-42.6267,-0.923667
-504,148,-42.5609,0.666382,0.0010785,0.00587949,-0.000536936,0.0059388,0.00101918,-1.46077,0.00366699,0.040637,720,876,-42.5609,-0.666355
-497,148,0,0,0,0,0,0,0,0,0,-1,727,876,0,0
-490,148,0,0,0,0,0,0,0,0,0,-1,734,876,0,0
-483,148,0,0,0,0,0,0,0,0,0,-1,741,876,0,0
-476,148,0,0,0,0,0,0,0,0,0,-1,748,876,0,0
-469,148,0,0,0,0,0,0,0,0,0,-1,755,876,0,0
-462,148,0,0,0,0,0,0,0,0,0,-1,762,876,0,0
-455,148,0,0,0,0,0,0,0,0,0,-1,769,876,0,0
-448,148,0,0,0,0,0,0,0,0,0,-1,776,876,0,0
-441,148,0,0,0,0,0,0,0,0,0,-1,783,876,0,0
-434,148,0,0,0,0,0,0,0,0,0,-1,790,876,0,0
-427,148,0,0,0,0,0,0,0,0,0,-1,797,876,0,0
-420,148,0,0,0,0,0,0,0,0,0,-1,804,876,0,0
-413,148,0,0,0,0,0,0,0,0,0,-1,811,876,0,0
-406,148,0,0,0,0,0,0,0,0,0,-1,818,876,0,0
-399,148,0,0,0,0,0,0,0,0,0,-1,825,876,0,0
-392,148,0,0,0,0,0,0,0,0,0,-1,832,876,0,0
-385,148,0,0,0,0,0,0,0,0,0,-1,839,876,0,0
-378,148,0,0,0,0,0,0,0,0,0,-1,846,876,0,0
-371,148,0,0,0,0,0,0,0,0,0,-1,853,876,0,0
-364,148,0,0,0,0,0,0,0,0,0,-1,860,876,0,0
-357,148,0,0,0,0,0,0,0,0,0,-1,867,876,0,0
-350,148,0,0,0,0,0,0,0,0,0,-1,874,876,0,0
-343,148,0,0,0,0,0,0,0,0,0,-1,881,876,0,0
-336,148,0,0,0,0,0,0,0,0,0,-1,888,876,0,0
-329,148,0,0,0,0,0,0,0,0,0,-1,895,876,0,0
-322,148,0,0,0,0,0,0,0,0,0,-1,902,876,0,0
-315,148,0,0,0,0,0,0,0,0,0,-1,909,876,0,0
-308,148,0,0,0,0,0,0,0,0,0,-1,916,876,0,0
-301,148,0,0,0,0,0,0,0,0,0,-1,923,876,0,0
-294,148,0,0,0,0,0,0,0,0,0,-1,930,876,0,0
-287,148,0,0,0,0,0,0,0,0,0,-1,937,876,0,0
-280,148,0,0,0,0,0,0,0,0,0,-1,944,876,0,0
-273,148,0,0,0,0,0,0,0,0,0,-1,951,876,0,0
-266,148,0,0,0,0,0,0,0,0,0,-1,958,876,0,0
-259,148,0,0,0,0,0,0,0,0,0,-1,965,876,0,0
-252,148,0,0,0,0,0,0,0,0,0,-1,972,876,0,0
-245,148,0,0,0,0,0,0,0,0,0,-1,979,876,0,0
-238,148,0,0,0,0,0,0,0,0,0,-1,986,876,0,0
-231,148,0,0,0,0,0,0,0,0,0,-1,993,876,0,0
-224,148,0,0,0,0,0,0,0,0,0,-1,1000,876,0,0
-217,148,0,0,0,0,0,0,0,0,0,-1,1007,876,0,0
-210,148,0,0,0,0,0,0,0,0,0,-1,1014,876,0,0
-203,148,0,0,0,0,0,0,0,0,0,-1,1021,876,0,0
-196,148,0,0,0,0,0,0,0,0,0,-1,1028,876,0,0
-189,148,0,0,0,0,0,0,0,0,0,-1,1035,876,0,0
-182,148,0,0,0,0,0,0,0,0,0,-1,1042,876,0,0
-175,148,0,0,0,0,0,0,0,0,0,-1,1049,876,0,0
-168,148,0,0,0,0,0,0,0,0,0,-1,1056,876,0,0
-161,148,0,0,0,0,0,0,0,0,0,-1,1063,876,0,0
-154,148,0,0,0,0,0,0,0,0,0,-1,1070,876,0,0
-147,148,0,0,0,0,0,0,0,0,0,-1,1077,876,0,0
-140,148,0,0,0,0,0,0,0,0,0,-1,1084,876,0,0
-133,148,0,0,0,0,0,0,0,0,0,-1,1091,876,0,0
-126,148,0,0,0,0,0,0,0,0,0,-1,1098,876,0,0
-119,148,0,0,0,0,0,0,0,0,0,-1,1105,876,0,0
-112,148,0,0,0,0,0,0,0,0,0,-1,1112,876,0,0
-105,148,0,0,0,0,0,0,0,0,0,-1,1119,876,0,0
-98,148,0,0,0,0,0,0,0,0,0,-1,1126,876,0,0
-91,148,0,0,0,0,0,0,0,0,0,-1,1133,876,0,0
-84,148,0,0,0,0,0,0,0,0,0,-1,1140,876,0,0
-77,148,0,0,0,0,0,0,0,0,0,-1,1147,876,0,0
-70,148,0,0,0,0,0,0,0,0,0,-1,1154,876,0,0
-63,148,0,0,0,0,0,0,0,0,0,-1,1161,876,0,0
-56,148,0,0,0,0,0,0,0,0,0,-1,1168,876,0,0
-49,148,0,0,0,0,0,0,0,0,0,-1,1175,876,0,0
-42,148,0,0,0,0,0,0,0,0,0,-1,1182,876,0,0
-35,148,0,0,0,0,0,0,0,0,0,-1,1189,876,0,0
-28,148,0,0,0,0,0,0,0,0,0,-1,1196,876,0,0
-21,148,0,0,0,0,0,0,0,0,0,-1,1203,876,0,0
-14,148,0,0,0,0,0,0,0,0,0,-1,1210,876,0,0
-7,148,0,0,0,0,0,0,0,0,0,-1,1217,876,0,0
0,148,0,0,0,0,0,0,0,0,0,-1,1224,876,0,0
7,148,0,0,0,0,0,0,0,0,0,-1,1231,876,0,0
14,148,0,0,0,0,0,0,0,0,0,-1,1238,876,0,0
21,148,0,0,0,0,0,0,0,0,0,-1,1245,876,0,0
28,148,0,0,0,0,0,0,0,0,0,-1,1252,876,0,0
35,148,0,0,0,0,0,0,0,0,0,-1,1259,876,0,0
42,148,0,0,0,0,0,0,0,0,0,-1,1266,876,0,0
49,148,0,0,0,0,0,0,0,0,0,-1,1273,876,0,0
56,148,0,0,0,0,0,0,0,0,0,-1,1280,876,0,0
63,148,0,0,0,0,0,0,0,0,0,-1,1287,876,0,0
70,148,0,0,0,0,0,0,0,0,0,-1,1294,876,0,0
77,148,0,0,0,0,0,0,0,0,0,-1,1301,876,0,0
84,148,0,0,0,0,0,0,0,0,0,-1,1308,876,0,0
91,148,0,0,0,0,0,0,0,0,0,-1,1315,876,0,0
98,148,0,0,0,0,0,0,0,0,0,-1,1322,876,0,0
105,148,0,0,0,0,0,0,0,0,0,-1,1329,876,0,0
112,148,0,0,0,0,0,0,0,0,0,-1,1336,876,0,0
119,148,0,0,0,0,0,0,0,0,0,-1,1343,876,0,0
126,148,0,0,0,0,0,0,0,0,0,-1,1350,876,0,0
133,148,0,0,0,0,0,0,0,0,0,-1,1357,876,0,0
140,148,0,0,0,0,0,0,0,0,0,-1,1364,876,0,0
147,148,0,0,0,0,0,0,0,0,0,-1,1371,876,0,0
154,148,0,0,0,0,0,0,0,0,0,-1,1378,876,0,0
161,148,0,0,0,0,0,0,0,0,0,-1,1385,876,0,0
168,148,0,0,0,0,0,0,0,0,0,-1,1392,876,0,0
175,148,0,0,0,0,0,0,0,0,0,-1,1399,876,0,0
182,148,0,0,0,0,0,0,0,0,0,-1,1406,876,0,0
189,148,0,0,0,0,0,0,0,0,0,-1,1413,876,0,0
196,148,0,0,0,0,0,0,0,0,0,-1,1420,876,0,0
203,148,0,0,0,0,0,0,0,0,0,-1,1427,876,0,0
210,148,0,0,0,0,0,0,0,0,0,-1,1434,876,0,0
217,148,0,0,0,0,0,0,0,0,0,-1,1441,876,0,0
224,148,0,0,0,0,0,0,0,0,0,-1,1448,876,0,0
231,148,0,0,0,0,0,0,0,0,0,-1,1455,876,0,0
238,148,0,0,0,0,0,0,0,0,0,-1,1462,876,0,0
245,148,0,0,0,0,0,0,0,0,0,-1,1469,876,0,0
252,148,0,0,0,0,0,0,0,0,0,-1,1476,876,0,0
259,148,0,0,0,0,0,0,0,0,0,-1,1483,876,0,0
266,148,0,0,0,0,0,0,0,0,0,-1,1490,876,0,0
273,148,0,0,0,0,0,0,0,0,0,-1,1497,876,0,0
280,148,0,0,0,0,0,0,0,0,0,-1,1504,876,0,0
287,148,0,0,0,0,0,0,0,0,0,-1,1511,876,0,0
294,148,0,0,0,0,0,0,0,0,0,-1,1518,876,0,0
301,148,0,0,0,0,0,0,0,0,0,-1,1525,876,0,0
308,148,0,0,0,0,0,0,0,0,0,-1,1532,876,0,0
315,148,0,0,0,0,0,0,0,0,0,-1,1539,876,0,0
322,148,0,0,0,0,0,0,0,0,0,-1,1546,876,0,0
329,148,0,0,0,0,0,0,0,0,0,-1,1553,876,0,0
336,148,0,0,0,0,0,0,0,0,0,-1,1560,876,0,0
343,148,0,0,0,0,0,0,0,0,0,-1,1567,876,0,0
350,148,0,0,0,0,0,0,0,0,0,-1,1574,876,0,0
357,148,0,0,0,0,0,0,0,0,0,-1,1581,876,0,0
364,148,0,0,0,0,0,0,0,0,0,-1,1588,876,0,0
371,148,0,0,0,0,0,0,0,0,0,-1,1595,876,0,0
378,148,0,0,0,0,0,0,0,0,0,-1,1602,876,0,0
385,148,0,0,0,0,0,0,0,0,0,-1,1609,876,0,0
392,148,0,0,0,0,0,0,0,0,0,-1,1616,876,0,0
399,148,0,0,0,0,0,0,0,0,0,-1,1623,876,0,0
406,148,0,0,0,0,0,0,0,0,0,-1,1630,876,0,0
413,148,0,0,0,0,0,0,0,0,0,-1,1637,876,0,0
420,148,0,0,0,0,0,0,0,0,0,-1,1644,876,0,0
427,148,0,0,0,0,0,0,0,0,0,-1,1651,876,0,0
434,148,0,0,0,0,0,0,0,0,0,-1,1658,876,0,0
441,148,0,0,0,0,0,0,0,0,0,-1,1665,876,0,0
448,148,0,0,0,0,0,0,0,0,0,-1,1672,876,0,0
455,148,0,0,0,0,0,0,0,0,0,-1,1679,876,0,0
462,148,0,0,0,0,0,0,0,0,0,-1,1686,876,0,0
469,148,0,0,0,0,0,0,0,0,0,-1,1693,876,0,0
476,148,0,0,0,0,0,0,0,0,0,-1,1700,876,0,0
483,148,0,0,0,0,0,0,0,0,0,-1,1707,876,0,0
490,148,0,0,0,0,0,0,0,0,0,-1,1714,876,0,0
497,148,0,0,0,0,0,0,0,0,0,-1,1721,876,0,0
504,148,0,0,0,0,0,0,0,0,0,-1,1728,876,0,0
511,148,0,0,0,0,0,0,0,0,0,-1,1735,876,0,0
518,148,0,0,0,0,0,0,0,0,0,-1,1742,876,0,0
525,148,0,0,0,0,0,0,0,0,0,-1,1749,876,0,0
532,148,0,0,0,0,0,0,0,0,0,-1,1756,876,0,0
539,148,0,0,0,0,0,0,0,0,0,-1,1763,876,0,0
546,148,0,0,0,0,0,0,0,0,0,-1,1770,876,0,0
553,148,0,0,0,0,0,0,0,0,0,-1,1777,876,0,0
560,148,0,0,0,0,0,0,0,0,0,-1,1784,876,0,0
567,148,0,0,0,0,0,0,0,0,0,-1,1791,876,0,0
574,148,0,0,0,0,0,0,0,0,0,-1,1798,876,0,0
581,148,0,0,0,0,0,0,0,0,0,-1,1805,876,0,0
588,148,0,0,0,0,0,0,0,0,0,-1,1812,876,0,0
595,148,0,0,0,0,0,0,0,0,0,-1,1819,876,0,0
602,148,0,0,0,0,0,0,0,0,0,-1,1826,876,0,0
609,148,0,0,0,0,0,0,0,0,0,-1,1833,876,0,0
616,148,0,0,0,0,0,0,0,0,0,-1,1840,876,0,0
623,148,56.5425,2.88129,0.000908275,0.0127217,0.00504163,0.0145808,-0.000950788,1.21752,0.0100525,0.0439296,1847,876,56.5425,-2.88126
630,148,56.3683,3.17432,-6.63188e-05,0.00894333,0.00330541,0.0100259,-0.00114891,1.25429,0.00709798,0.0459261,1854,876,56.3683,-3.17431
637,148,56.4393,2.88263,-0.000608469,0.00599635,0.00189958,0.0065037,-0.00111583,1.3098,0.00475162,0.0399151,1861,876,56.4394,-2.88261
644,148,56.4763,2.59198,-0.00103527,0.00371671,0.000798799,0.00384739,-0.00116595,1.40863,0.00302932,0.0374885,1868,876,56.4763,-2.59198
651,148,56.5383,2.45361,-0.001405,0.00208967,2.14108e-05,0.0020898,-0.00140513,1.56467,0.00203067,0.0382928,1875,876,56.5383,-2.45361
658,148,56.3887,2.79132,-0.00183364,0.000781705,-0.000705425,0.000959843,-0.00201177,-1.32344,0.00175113,0.0324637,1882,876,56.3887,-2.7913
665,148,56.3934,2.72882,-0.00208892,0.000225385,-0.000941563,0.000560058,-0.00242359,-1.22928,0.00183119,0.0236063,1889,876,56.3934,-2.72882
672,148,56.4373,2.61182,-0.00229144,-0.000387958,-0.00119987,0.000191805,-0.0028712,-1.12069,0.00198117,0.0347859,1896,876,56.4373,-2.61185
679,148,56.1843,2.92847,0,0,0,0,0,0,0,-1,1903,876,56.1843,-2.92849
686,148,21.6195,2.40845,0,0,0,0,0,0,0,-1,1910,876,21.6196,-2.40846
693,148,47.7051,1.7771,0,0,0,0,0,0,0,-1,1917,876,47.7051,-1.7771
700,148,48.2327,2.5285,-0.00153269,-0.000881959,-0.00137046,0.000201231,-0.00261588,-0.901947,0.00181472,0.0473583,1924,876,48.2327,-2.52849
707,148,48.2605,3.27557,-0.00147565,-0.000808976,-0.00150256,0.000396781,-0.00268141,-0.894553,0.00193348,0.0332671,1931,876,48.2606,-3.27555
714,148,48.1495,3.69214,-0.00135504,-0.000414675,-0.00169121,0.000870492,-0.0026402,-0.920982,0.002111,0.0342256,1938,876,48.1496,-3.69214
721,148,47.8341,4.2204,-0.00109906,0.000266864,-0.00173754,0.00145085,-0.00228304,-0.972654,0.00217354,0.0254071,1945,876,47.8341,-4.22038
728,148,47.8011,4.81006,-0.000916375,0.00117073,-0.00186366,0.00226312,-0.00200876,-1.04062,0.00246783,0.0211555,1952,876,47.8012,-4.81005
735,148,47.8103,5.39459,-0.00070341,0.00222515,-0.0022453,0.00344144,-0.00191971,-1.07434,0.00313655,0.0199349,1959,876,47.8104,-5.39461
742,148,47.7672,5.974,-0.000489711,0.00353872,-0.00302803,0.00516126,-0.00211226,-1.07889,0.00432061,0.0205838,1966,876,47.7672,-5.97403
749,148,47.6793,6.53638,-0.000526113,0.00493431,-0.00412446,0.00715033,-0.00274214,-1.07777,0.00589741,0.0205067,1973,876,47.6793,-6.53639
756,148,47.5909,7.17621,-0.00082054,0.00623287,-0.00574495,0.00944724,-0.00403491,-1.06068,0.00799026,0.0257399,1980,876,47.5909,-7.17623
763,148,47.0875,7.89197,-0.00146278,0.00706449,-0.00829406,0.0121266,-0.00652491,-1.02281,0.0109292,0.0449365,1987,876,47.0875,-7.89196
770,148,46.5848,8.58691,0,0,0,0,0,0,0,-1,1994,876,46.5848,-8.58692
777,148,46.3822,9.72516,0,0,0,0,0,0,0,-1,2001,876,46.3822,-9.72517
784,148,46.8586,10.4986,0,0,0,0,0,0,0,-1,2008,876,46.8586,-10.4986
791,148,42.936,11.5876,0,0,0,0,0,0,0,-1,2015,876,42.936,-11.5876
798,148,0,0,0,0,0,0,0,0,0,-1,2022,876,0,0
805,148,0,0,0,0,0,0,0,0,0,-1,2029,876,0,0
812,148,0,0,0,0,0,0,0,0,0,-1,2036,876,0,0
-700,141,0,0,0,0,0,0,0,0,0,-1,524,883,0,0
-693,141,0,0,0,0,0,0,0,0,0,-1,531,883,0,0
-686,141,0,0,0,0,0,0,0,0,0,-1,538,883,0,0
-679,141,0,0,0,0,0,0,0,0,0,-1,545,883,0,0
-672,141,-38.2416,13.0066,0,0,0,0,0,0,0,-1,552,883,-38.2416,-13.0066
-665,141,-38.4996,10.6559,0,0,0,0,0,0,0,-1,559,883,-38.4997,-10.6559
-658,141,-38.3856,9.29706,0,0,0,0,0,0,0,-1,566,883,-38.3856,-9.29705
-651,141,-38.3545,7.24249,0,0,0,0,0,0,0,-1,573,883,-38.3545,-7.2425
-644,141,-38.7173,4.97528,0,0,0,0,0,0,0,-1,580,883,-38.7173,-4.9753
-637,141,-36.755,6.21185,0,0,0,0,0,0,0,-1,587,883,-36.755,-6.21185
-630,141,-36.2109,5.56543,0,0,0,0,0,0,0,-1,594,883,-36.2109,-5.5654
-623,141,-35.502,4.62091,0.000895327,0.0374769,-0.0162962,0.0436835,-0.00531119,-1.2069,0.0310445,0.0304003,601,883,-35.502,-4.62089
-616,141,-35.6899,3.94482,-0.00116285,0.0230584,-0.00962952,0.0264201,-0.00452462,-1.23491,0.0192992,0.0136895,608,883,-35.69,-3.94483
-609,141,-35.7683,3.36908,-0.0028008,0.0109909,-0.00398903,0.0120615,-0.00387145,-1.30858,0.00959547,0.0141565,615,883,-35.7683,-3.36907
-602,141,-35.7909,2.79504,-0.003151,0.00528651,0.000183129,0.00529049,-0.00315498,1.54911,0.00492768,0.014401,622,883,-35.7909,-2.79503
-595,141,-35.841,2.22656,0,0,0,0,0,0,0,-1,629,883,-35.841,-2.22658
-588,141,-36.1503,1.64551,-0.0026823,0.00149688,0.00275387,0.00286419,-0.00404962,1.10995,0.0040112,0.0321735,636,883,-36.1503,-1.64549
-581,141,-36.0772,1.13513,-0.00241414,0.0012243,0.00262249,0.00259679,-0.00378663,1.08864,0.00370674,0.0431118,643,883,-36.0772,-1.13514
-574,141,-35.7198,0.690979,0,0,0,0,0,0,0,-1,650,883,-35.7198,-0.690957
-567,141,-30.5335,0.480103,0,0,0,0,0,0,0,-1,657,883,-30.5335,-0.480081
-560,141,-30.5542,0.23175,0,0,0,0,0,0,0,-1,664,883,-30.5542,-0.231742
-553,141,-32.0876,1.39459,0,0,0,0,0,0,0,-1,671,883,-32.0876,-1.3946
-546,141,-42.5369,0.80188,0,0,0,0,0,0,0,-1,678,883,-42.5368,-0.801879
-539,141,-42.5186,0.810486,-0.00113435,0.00131184,0.000579132,0.00144202,-0.00126453,1.34969,0.00156375,0.028353,685,883,-42.5186,-0.810511
-532,141,-42.6191,0.682434,-0.000639146,0.00176089,2.17306e-05,0.00176108,-0.000639343,1.56174,0.00143544,0.0294895,692,883,-42.6191,-0.682444
-525,141,-42.5889,0.727966,-0.000492899,0.0020993,-0.000667375,0.00226103,-0.000654627,-1.33304,0.00176647,0.0397618,699,883,-42.5889,-0.727948
-518,141,-42.6008,0.83728,-0.000639447,0.00240982,-0.000886162,0.00264865,-0.000878274,-1.30754,0.00212006,0.0435232,706,883,-42.6009,-0.837262
-511,141,-42.6532,0.927795,-7.16963e-05,0.00304353,-0.000504649,0.00312324,-0.000151407,-1.41414,0.00213442,0.0399654,713,883,-42.6532,-0.92777
-504,141,-42.563,0.902405,0.00128843,0.00344209,-0.000217221,0.00346378,0.00126673,-1.47127,0.00202371,0.0431665,720,883,-42.563,-0.902394
-497,141,0,0,0,0,0,0,0,0,0,-1,727,883,0,0
-490,141,0,0,0,0,0,0,0,0,0,-1,734,883,0,0
-483,141,0,0,0,0,0,0,0,0,0,-1,741,883,0,0
-476,141,0,0,0,0,0,0,0,0,0,-1,748,883,0,0
-469,141,0,0,0,0,0,0,0,0,0,-1,755,883,0,0
-462,141,0,0,0,0,0,0,0,0,0,-1,762,883,0,0
-455,141,0,0,0,0,0,0,0,0,0,-1,769,883,0,0
-448,141,0,0,0,0,0,0,0,0,0,-1,776,883,0,0
-441,141,0,0,0,0,0,0,0,0,0,-1,783,883,0,0
-434,141,0,0,0,0,0,0,0,0,0,-1,790,883,0,0
-427,141,0,0,0,0,0,0,0,0,0,-1,797,883,0,0
-420,141,0,0,0,0,0,0,0,0,0,-1,804,883,0,0
-413,141,0,0,0,0,0,0,0,0,0,-1,811,883,0,0
-406,141,0,0,0,0,0,0,0,0,0,-1,818,883,0,0
-399,141,0,0,0,0,0,0,0,0,0,-1,825,883,0,0
-392,141,0,0,0,0,0,0,0,0,0,-1,832,883,0,0
-385,141,0,0,0,0,0,0,0,0,0,-1,839,883,0,0
-378,141,0,0,0,0,0,0,0,0,0,-1,846,883,0,0
-371,141,0,0,0,0,0,0,0,0,0,-1,853,883,0,0
-364,141,0,0,0,0,0,0,0,0,0,-1,860,883,0,0
-357,141,0,0,0,0,0,0,0,0,0,-1,867,883,0,0
-350,141,0,0,0,0,0,0,0,0,0,-1,874,883,0,0
-343,141,0,0,0,0,0,0,0,0,0,-1,881,883,0,0
-336,141,0,0,0,0,0,0,0,0,0,-1,888,883,0,0
-329,141,0,0,0,0,0,0,0,0,0,-1,895,883,0,0
-322,141,0,0,0,0,0,0,0,0,0,-1,902,883,0,0
-315,141,0,0,0,0,0,0,0,0,0,-1,909,883,0,0
-308,141,0,0,0,0,0,0,0,0,0,-1,916,883,0,0
-301,141,0,0,0,0,0,0,0,0,0,-1,923,883,0,0
-294,141,0,0,0,0,0,0,0,0,0,-1,930,883,0,0
-287,141,0,0,0,0,0,0,0,0,0,-1,937,883,0,0
-280,141,0,0,0,0,0,0,0,0,0,-1,944,883,0,0
-273,141,0,0,0,0,0,0,0,0,0,-1,951,883,0,0
-266,141,0,0,0,0,0,0,0,0,0,-1,958,883,0,0
-259,141,0,0,0,0,0,0,0,0,0,-1,965,883,0,0
-252,141,0,0,0,0,0,0,0,0,0,-1,972,883,0,0
-245,141,0,0,0,0,0,0,0,0,0,-1,979,883,0,0
-238,141,0,0,0,0,0,0,0,0,0,-1,986,883,0,0
-231,141,0,0,0,0,0,0,0,0,0,-1,993,883,0,0
-224,141,0,0,0,0,0,0,0,0,0,-1,1000,883,0,0
-217,141,0,0,0,0,0,0,0,0,0,-1,1007,883,0,0
-210,141,0,0,0,0,0,0,0,0,0,-1,1014,883,0,0
-203,141,0,0,0,0,0,0,0,0,0,-1,1021,883,0,0
-196,141,0,0,0,0,0,0,0,0,0,-1,1028,883,0,0
-189,141,0,0,0,0,0,0,0,0,0,-1,1035,883,0,0
-182,141,0,0,0,0,0,0,0,0,0,-1,1042,883,0,0
-175,141,0,0,0,0,0,0,0,0,0,-1,1049,883,0,0
-168,141,0,0,0,0,0,0,0,0,0,-1,1056,883,0,0
-161,141,0,0,0,0,0,0,0,0,0,-1,1063,883,0,0
-154,141,0,0,0,0,0,0,0,0,0,-1,1070,883,0,0
-147,141,0,0,0,0,0,0,0,0,0,-1,1077,883,0,0
-140,141,0,0,0,0,0,0,0,0,0,-1,1084,883,0,0
-133,141,0,0,0,0,0,0,0,0,0,-1,1091,883,0,0
-126,141,0,0,0,0,0,0,0,0,0,-1,1098,883,0,0
-119,141,0,0,0,0,0,0,0,0,0,-1,1105,883,0,0
-112,141,0,0,0,0,0,0,0,0,0,-1,1112,883,0,0
-105,141,0,0,0,0,0,0,0,0,0,-1,1119,883,0,0
-98,141,0,0,0,0,0,0,0,0,0,-1,1126,883,0,0
-91,141,0,0,0,0,0,0,0,0,0,-1,1133,883,0,0
-84,141,0,0,0,0,0,0,0,0,0,-1,1140,883,0,0
-77,141,0,0,0,0,0,0,0,0,0,-1,1147,883,0,0
-70,141,0,0,0,0,0,0,0,0,0,-1,1154,883,0,0
-63,141,0,0,0,0,0,0,0,0,0,-1,1161,883,0,0
-56,141,0,0,0,0,0,0,0,0,0,-1,1168,883,0,0
-49,141,0,0,0,0,0,0,0,0,0,-1,1175,883,0,0
-42,141,0,0,0,0,0,0,0,0,0,-1,1182,883,0,0
-35,141,0,0,0,0,0,0,0,0,0,-1,1189,883,0,0
-28,141,0,0,0,0,0,0,0,0,0,-1,1196,883,0,0
-21,141,0,0,0,0,0,0,0,0,0,-1,1203,883,0,0
-14,141,0,0,0,0,0,0,0,0,0,-1,1210,883,0,0
-7,141,0,0,0,0,0,0,0,0,0,-1,1217,883,0,0
0,141,0,0,0,0,0,0,0,0,0,-1,1224,883,0,0
7,141,0,0,0,0,0,0,0,0,0,-1,1231,883,0,0
14,141,0,0,0,0,0,0,0,0,0,-1,1238,883,0,0
21,141,0,0,0,0,0,0,0,0,0,-1,1245,883,0,0
28,141,0,0,0,0,0,0,0,0,0,-1,1252,883,0,0
35,141,0,0,0,0,0,0,0,0,0,-1,1259,883,0,0
42,141,0,0,0,0,0,0,0,0,0,-1,1266,883,0,0
49,141,0,0,0,0,0,0,0,0,0,-1,1273,883,0,0
56,141,0,0,0,0,0,0,0,0,0,-1,1280,883,0,0
63,141,0,0,0,0,0,0,0,0,0,-1,1287,883,0,0
70,141,0,0,0,0,0,0,0,0,0,-1,1294,883,0,0
77,141,0,0,0,0,0,0,0,0,0,-1,1301,883,0,0
84,141,0,0,0,0,0,0,0,0,0,-1,1308,883,0,0
91,141,0,0,0,0,0,0,0,0,0,-1,1315,883,0,0
98,141,0,0,0,0,0,0,0,0,0,-1,1322,883,0,0
105,141,0,0,0,0,0,0,0,0,0,-1,1329,883,0,0
112,141,0,0,0,0,0,0,0,0,0,-1,1336,883,0,0
119,141,0,0,0,0,0,0,0,0,0,-1,1343,883,0,0
126,141,0,0,0,0,0,0,0,0,0,-1,1350,883,0,0
133,141,0,0,0,0,0,0,0,0,0,-1,1357,883,0,0
140,141,0,0,0,0,0,0,0,0,0,-1,1364,883,0,0
147,141,0,0,0,0,0,0,0,0,0,-1,1371,883,0,0
154,141,0,0,0,0,0,0,0,0,0,-1,1378,883,0,0
161,141,0,0,0,0,0,0,0,0,0,-1,1385,883,0,0
168,141,0,0,0,0,0,0,0,0,0,-1,1392,883,0,0
175,141,0,0,0,0,0,0,0,0,0,-1,1399,883,0,0
182,141,0,0,0,0,0,0,0,0,0,-1,1406,883,0,0
189,141,0,0,0,0,0,0,0,0,0,-1,1413,883,0,0
196,141,0,0,0,0,0,0,0,0,0,-1,1420,883,0,0
203,141,0,0,0,0,0,0,0,0,0,-1,1427,883,0,0
210,141,0,0,0,0,0,0,0,0,0,-1,1434,883,0,0
217,141,0,0,0,0,0,0,0,0,0,-1,1441,883,0,0
224,141,0,0,0,0,0,0,0,0,0,-1,1448,883,0,0
231,141,0,0,0,0,0,0,0,0,0,-1,1455,883,0,0
238,141,0,0,0,0,0,0,0,0,0,-1,1462,883,0,0
245,141,0,0,0,0,0,0,0,0,0,-1,1469,883,0,0
252,141,0,0,0,0,0,0,0,0,0,-1,1476,883,0,0
259,141,0,0,0,0,0,0,0,0,0,-1,1483,883,0,0
266,141,0,0,0,0,0,0,0,0,0,-1,1490,883,0,0
273,141,0,0,0,0,0,0,0,0,0,-1,1497,883,0,0
280,141,0,0,0,0,0,0,0,0,0,-1,1504,883,0,0
287,141,0,0,0,0,0,0,0,0,0,-1,1511,883,0,0
294,141,0,0,0,0,0,0,0,0,0,-1,1518,883,0,0
301,141,0,0,0,0,0,0,0,0,0,-1,1525,883,0,0
308,141,0,0,0,0,0,0,0,0,0,-1,1532,883,0,0
315,141,0,0,0,0,0,0,0,0,0,-1,1539,883,0,0
322,141,0,0,0,0,0,0,0,0,0,-1,1546,883,0,0
329,141,0,0,0,0,0,0,0,0,0,-1,1553,883,0,0
336,141,0,0,0,0,0,0,0,0,0,-1,1560,883,0,0
343,141,0,0,0,0,0,0,0,0,0,-1,1567,883,0,0
350,141,0,0,0,0,0,0,0,0,0,-1,1574,883,0,0
357,141,0,0,0,0,0,0,0,0,0,-1,1581,883,0,0
364,141,0,0,0,0,0,0,0,0,0,-1,1588,883,0,0
371,141,0,0,0,0,0,0,0,0,0,-1,1595,883,0,0
378,141,0,0,0,0,0,0,0,0,0,-1,1602,883,0,0
385,141,0,0,0,0,0,0,0,0,0,-1,1609,883,0,0
392,141,0,0,0,0,0,0,0,0,0,-1,1616,883,0,0
399,141,0,0,0,0,0,0,0,0,0,-1,1623,883,0,0
406,141,0,0,0,0,0,0,0,0,0,-1,1630,883,0,0
413,141,0,0,0,0,0,0,0,0,0,-1,1637,883,0,0
420,141,0,0,0,0,0,0,0,0,0,-1,1644,883,0,0
427,141,0,0,0,0,0,0,0,0,0,-1,1651,883,0,0
434,141,0,0,0,0,0,0,0,0,0,-1,1658,883,0,0
441,141,0,0,0,0,0,0,0,0,0,-1,1665,883,0,0
448,141,0,0,0,0,0,0,0,0,0,-1,1672,883,0,0
455,141,0,0,0,0,0,0,0,0,0,-1,1679,883,0,0
462,141,0,0,0,0,0,0,0,0,0,-1,1686,883,0,0
469,141,0,0,0,0,0,0,0,0,0,-1,1693,883,0,0
476,141,0,0,0,0,0,0,0,0,0,-1,1700,883,0,0
483,141,0,0,0,0,0,0,0,0,0,-1,1707,883,0,0
490,141,0,0,0,0,0,0,0,0,0,-1,1714,883,0,0
497,141,0,0,0,0,0,0,0,0,0,-1,1721,883,0,0
504,141,0,0,0,0,0,0,0,0,0,-1,1728,883,0,0
511,141,0,0,0,0,0,0,0,0,0,-1,1735,883,0,0
518,141,0,0,0,0,0,0,0,0,0,-1,1742,883,0,0
525,141,0,0,0,0,0,0,0,0,0,-1,1749,883,0,0
532,141,0,0,0,0,0,0,0,0,0,-1,1756,883,0,0
539,141,0,0,0,0,0,0,0,0,0,-1,1763,883,0,0
546,141,0,0,0,0,0,0,0,0,0,-1,1770,883,0,0
553,141,0,0,0,0,0,0,0,0,0,-1,1777,883,0,0
560,141,0,0,0,0,0,0,0,0,0,-1,1784,883,0,0
567,141,0,0,0,0,0,0,0,0,0,-1,1791,883,0,0
574,141,0,0,0,0,0,0,0,0,0,-1,1798,883,0,0
581,141,0,0,0,0,0,0,0,0,0,-1,1805,883,0,0
588,141,0,0,0,0,0,0,0,0,0,-1,1812,883,0,0
595,141,0,0,0,0,0,0,0,0,0,-1,1819,883,0,0
602,141,0,0,0,0,0,0,0,0,0,-1,1826,883,0,0
609,141,0,0,0,0,0,0,0,0,0,-1,1833,883,0,0
616,141,0,0,0,0,0,0,0,0,0,-1,1840,883,0,0
623,141,56.6488,2.3493,-5.33717e-05,0.0140764,0.00620781,0.0164163,-0.00239324,1.21034,0.011823,0.0436601,1847,883,56.6488,-2.3493
630,141,56.5826,2.70892,-0.000936189,0.0099362,0.00430815,0.0114363,-0.0024363,1.23572,0.00855277,0.0488819,1854,883,56.5826,-2.70894
637,141,56.4586,2.9812,-0.00132904,0.00689619,0.00276691,0.00774033,-0.00217317,1.27468,0.00601688,0.0457963,1861,883,56.4586,-2.98119
644,141,56.4803,2.72449,-0.00155589,0.00450718,0.00152524,0.00486925,-0.00191796,1.33772,0.0040402,0.0404921,1868,883,56.4803,-2.72451
651,141,56.5806,2.53168,-0.00175045,0.00273307,0.000623773,0.00281824,-0.00183561,1.4351,0.00270679,0.0395078,1875,883,56.5806,-2.53166
658,141,56.5176,2.70355,-0.00203877,0.00129104,-0.000161991,0.0012989,-0.00204663,-1.5223,0.00194756,0.0359824,1882,883,56.5176,-2.70353
665,141,56.4067,2.73779,-0.00214288,0.000637032,-0.000436431,0.00070394,-0.00220979,-1.41868,0.00175553,0.0282256,1889,883,56.4067,-2.73777
672,141,56.402,2.68848,-0.00222716,-1.09221e-08,-0.000705918,0.000204886,-0.00243206,-1.2883,0.00169381,0.025601,1896,883,56.4019,-2.68847
679,141,56.3521,2.7226,-0.00204286,-0.000441921,-0.000968531,1.41136e-05,-0.0024989,-1.13074,0.00167066,0.0468693,1903,883,56.3521,-2.72261
686,141,56.2953,2.75732,0,0,0,0,0,0,0,-1,1910,883,56.2953,-2.75731
693,141,48.2092,1.82922,0,0,0,0,0,0,0,-1,1917,883,48.2092,-1.8292
700,141,48.7622,2.59399,0,0,0,0,0,0,0,-1,1924,883,48.7622,-2.59397
707,141,48.8009,3.1665,0,0,0,0,0,0,0,-1,1931,883,48.8009,-3.16651
714,141,48.4021,3.68884,-0.0014684,-0.000192938,-0.00149586,0.000795463,-0.0024568,-0.986896,0.00195765,0.0320612,1938,883,48.4021,-3.68887
721,141,48.3933,4.2074,-0.0013863,0.00036525,-0.00162359,0.00133421,-0.00235525,-1.03273,0.00215713,0.0175229,1945,883,48.3933,-4.2074
728,141,48.442,4.74786,-0.00151547,0.0011371,-0.00176692,0.00202012,-0.0023985,-1.10735,0.00255421,0.0162002,1952,883,48.4421,-4.74788
735,141,48.4222,5.39392,-0.00166561,0.00200518,-0.00214551,0.00299324,-0.00265366,-1.13923,0.0032622,0.0183867,1959,883,48.4222,-5.39394
742,141,48.3783,5.99847,-0.0017286,0.00309612,-0.00300254,0.00453535,-0.00316782,-1.12382,0.00447073,0.0192223,1966,883,48.3783,-5.99846
749,141,48.3505,6.54718,-0.00192163,0.00425402,-0.00408117,0.00628387,-0.00395148,-1.10926,0.00596031,0.0144293,1973,883,48.3505,-6.54721
756,141,48.2854,7.14874,-0.00199084,0.00513514,-0.00562573,0.00823126,-0.00508696,-1.06768,0.00776038,0.0194651,1980,883,48.2854,-7.14873
763,141,48.1968,7.42963,-0.00176878,0.00534819,-0.00797888,0.0105261,-0.00694673,-0.995154,0.0101583,0.0433523,1987,883,48.1968,-7.42963
770,141,48.0897,7.67883,0,0,0,0,0,0,0,-1,1994,883,48.0897,-7.67884
777,141,47.5159,7.77124,0,0,0,0,0,0,0,-1,2001,883,47.5159,-7.77122
784,141,43.439,10.2161,0,0,0,0,0,0,0,-1,2008,883,43.4389,-10.2161
791,141,42.5815,7.74707,0,0,0,0,0,0,0,-1,2015,883,42.5815,-7.74706
798,141,0,0,0,0,0,0,0,0,0,-1,2022,883,0,0
805,141,0,0,0,0,0,0,0,0,0,-1,2029,883,0,0
812,141,0,0,0,0,0,0,0,0,0,-1,2036,883,0,0
-700,134,0,0,0,0,0,0,0,0,0,-1,524,890,0,0
-693,134,0,0,0,0,0,0,0,0,0,-1,531,890,0,0
-686,134,0,0,0,0,0,0,0,0,0,-1,538,890,0,0
-679,134,0,0,0,0,0,0,0,0,0,-1,545,890,0,0
-672,134,-40.6551,11.06,0,0,0,0,0,0,0,-1,552,890,-40.6551,-11.06
-665,134,-40.5486,8.8222,0.039022,0.257763,-0.05713,0.271785,0.0249999,-1.33011,0.173459,0.0465255,559,890,-40.5487,-8.8222
-658,134,-40.2837,6.68646,0,0,0,0,0,0,0,-1,566,890,-40.2837,-6.68647
-651,134,-40.2074,4.71368,0,0,0,0,0,0,0,-1,573,890,-40.2074,-4.71369
-644,134,-37.8325,1.0694,0,0,0,0,0,0,0,-1,580,890,-37.8325,-1.06941
-637,134,-38.2886,-0.658752,0,0,0,0,0,0,0,-1,587,890,-38.2886,0.658751
-630,134,-35.9669,5.0412,0,0,0,0,0,0,0,-1,594,890,-35.9669,-5.0412
-623,134,-36.1098,4.5155,-0.000833866,0.032859,-0.0118815,0.0366274,-0.00460228,-1.26367,0.026088,0.0273147,601,890,-36.1098,-4.5155
-616,134,-36.3053,3.93658,-0.00236067,0.0197039,-0.00641717,0.0214345,-0.00409128,-1.30738,0.0158307,0.0131168,608,890,-36.3053,-3.93659
-609,134,-36.3872,3.36548,-0.00354578,0.00887775,-0.00189061,0.00915909,-0.00382712,-1.42307,0.00770538,0.0121908,615,890,-36.3872,-3.3655
-602,134,-36.3868,2.78619,-0.00355379,0.00412544,0.00110658,0.00428172,-0.00371007,1.4305,0.004618,0.0132129,622,890,-36.3868,-2.78621
-595,134,-36.3184,2.27216,-0.00318218,0.00197921,0.00233521,0.00287892,-0.00408189,1.20305,0.00403878,0.0234321,629,890,-36.3183,-2.27216
-588,134,-36.8211,1.82959,-0.00286302,0.00134094,0.00246419,0.00247788,-0.00399995,1.13852,0.00377423,0.0387526,636,890,-36.8211,-1.82962
-581,134,-36.956,1.29987,0,0,0,0,0,0,0,-1,643,890,-36.956,-1.29985
-574,134,-31.1517,0.757751,0,0,0,0,0,0,0,-1,650,890,-31.1517,-0.757758
-567,134,-30.9003,0.296326,0,0,0,0,0,0,0,-1,657,890,-30.9002,-0.296302
-560,134,-22.9123,0.106567,0,0,0,0,0,0,0,-1,664,890,-22.9123,-0.106594
-553,134,-42.4968,0.808105,0,0,0,0,0,0,0,-1,671,890,-42.4968,-0.808136
-546,134,-42.5117,0.790222,-0.00139673,0.000640146,0.000738258,0.00087958,-0.00163616,1.25718,0.0014742,0.0330078,678,890,-42.5116,-0.790199
-539,134,-42.534,0.773499,-0.00115531,0.000904747,0.000141397,0.000914407,-0.00116497,1.50259,0.00120343,0.0182214,685,890,-42.534,-0.773489
-532,134,-42.5677,0.758423,-0.000620869,0.00118346,-0.000372983,0.00125752,-0.000694931,-1.37478,0.00114274,0.0225354,692,890,-42.5677,-0.758444
-525,134,-42.5851,0.76001,-0.000500401,0.00107906,-0.000928702,0.00150841,-0.000929753,-1.13775,0.00142083,0.0353702,699,890,-42.5851,-0.760035
-518,134,-42.5787,0.77948,-0.000577681,0.000836401,-0.000883794,0.00126117,-0.00100245,-1.12277,0.00130975,0.0417374,706,890,-42.5787,-0.779481
-511,134,-42.5912,0.847778,0.00015054,0.000977212,-0.000276834,0.00106135,6.63984e-05,-1.27573,0.000686507,0.0425015,713,890,-42.5912,-0.847771
-504,134,0,0,0,0,0,0,0,0,0,-1,720,890,0,0
-497,134,0,0,0,0,0,0,0,0,0,-1,727,890,0,0
-490,134,0,0,0,0,0,0,0,0,0,-1,734,890,0,0
-483,134,0,0,0,0,0,0,0,0,0,-1,741,890,0,0
-476,134,0,0,0,0,0,0,0,0,0,-1,748,890,0,0
-469,134,0,0,0,0,0,0,0,0,0,-1,755,890,0,0
-462,134,0,0,0,0,0,0,0,0,0,-1,762,890,0,0
-455,134,0,0,0,0,0,0,0,0,0,-1,769,890,0,0
-448,134,0,0,0,0,0,0,0,0,0,-1,776,890,0,0
-441,134,0,0,0,0,0,0,0,0,0,-1,783,890,0,0
-434,134,0,0,0,0,0,0,0,0,0,-1,790,890,0,0
-427,134,0,0,0,0,0,0,0,0,0,-1,797,890,0,0
-420,134,0,0,0,0,0,0,0,0,0,-1,804,890,0,0
-413,134,0,0,0,0,0,0,0,0,0,-1,811,890,0,0
-406,134,0,0,0,0,0,0,0,0,0,-1,818,890,0,0
-399,134,0,0,0,0,0,0,0,0,0,-1,825,890,0,0
-392,134,0,0,0,0,0,0,0,0,0,-1,832,890,0,0
-385,134,0,0,0,0,0,0,0,0,0,-1,839,890,0,0
-378,134,0,0,0,0,0,0,0,0,0,-1,846,890,0,0
-371,134,0,0,0,0,0,0,0,0,0,-1,853,890,0,0
-364,134,0,0,0,0,0,0,0,0,0,-1,860,890,0,0
-357,134,0,0,0,0,0,0,0,0,0,-1,867,890,0,0
-350,134,0,0,0,0,0,0,0,0,0,-1,874,890,0,0
-343,134,0,0,0,0,0,0,0,0,0,-1,881,890,0,0
-336,134,0,0,0,0,0,0,0,0,0,-1,888,890,0,0
-329,134,0,0,0,0,0,0,0,0,0,-1,895,890,0,0
-322,134,0,0,0,0,0,0,0,0,0,-1,902,890,0,0
-315,134,0,0,0,0,0,0,0,0,0,-1,909,890,0,0
-308,134,0,0,0,0,0,0,0,0,0,-1,916,890,0,0
-301,134,0,0,0,0,0,0,0,0,0,-1,923,890,0,0
-294,134,0,0,0,0,0,0,0,0,0,-1,930,890,0,0
-287,134,0,0,0,0,0,0,0,0,0,-1,937,890,0,0
-280,134,0,0,0,0,0,0,0,0,0,-1,944,890,0,0
-273,134,0,0,0,0,0,0,0,0,0,-1,951,890,0,0
-266,134,0,0,0,0,0,0,0,0,0,-1,958,890,0,0
-259,134,0,0,0,0,0,0,0,0,0,-1,965,890,0,0
-252,134,0,0,0,0,0,0,0,0,0,-1,972,890,0,0
-245,134,0,0,0,0,0,0,0,0,0,-1,979,890,0,0
-238,134,0,0,0,0,0,0,0,0,0,-1,986,890,0,0
-231,134,0,0,0,0,0,0,0,0,0,-1,993,890,0,0
-224,134,0,0,0,0,0,0,0,0,0,-1,1000,890,0,0
-217,134,0,0,0,0,0,0,0,0,0,-1,1007,890,0,0
-210,134,0,0,0,0,0,0,0,0,0,-1,1014,890,0,0
-203,134,0,0,0,0,0,0,0,0,0,-1,1021,890,0,0
-196,134,0,0,0,0,0,0,0,0,0,-1,1028,890,0,0
-189,134,0,0,0,0,0,0,0,0,0,-1,1035,890,0,0
-182,134,0,0,0,0,0,0,0,0,0,-1,1042,890,0,0
-175,134,0,0,0,0,0,0,0,0,0,-1,1049,890,0,0
-168,134,0,0,0,0,0,0,0,0,0,-1,1056,890,0,0
-161,134,0,0,0,0,0,0,0,0,0,-1,1063,890,0,0
-154,134,0,0,0,0,0,0,0,0,0,-1,1070,890,0,0
-147,134,0,0,0,0,0,0,0,0,0,-1,1077,890,0,0
-140,134,0,0,0,0,0,0,0,0,0,-1,1084,890,0,0
-133,134,0,0,0,0,0,0,0,0,0,-1,1091,890,0,0
-126,134,0,0,0,0,0,0,0,0,0,-1,1098,890,0,0
-119,134,0,0,0,0,0,0,0,0,0,-1,1105,890,0,0
-112,134,0,0,0,0,0,0,0,0,0,-1,1112,890,0,0
-105,134,0,0,0,0,0,0,0,0,0,-1,1119,890,0,0
-98,134,0,0,0,0,0,0,0,0,0,-1,1126,890,0,0
-91,134,0,0,0,0,0,0,0,0,0,-1,1133,890,0,0
-84,134,0,0,0,0,0,0,0,0,0,-1,1140,890,0,0
-77,134,0,0,0,0,0,0,0,0,0,-1,1147,890,0,0
-70,134,0,0,0,0,0,0,0,0,0,-1,1154,890,0,0
-63,134,0,0,0,0,0,0,0,0,0,-1,1161,890,0,0
-56,134,0,0,0,0,0,0,0,0,0,-1,1168,890,0,0
-49,134,0,0,0,0,0,0,0,0,0,-1,1175,890,0,0
-42,134,0,0,0,0,0,0,0,0,0,-1,1182,890,0,0
-35,134,0,0,0,0,0,0,0,0,0,-1,1189,890,0,0
-28,134,0,0,0,0,0,0,0,0,0,-1,1196,890,0,0
-21,134,0,0,0,0,0,0,0,0,0,-1,1203,890,0,0
-14,134,0,0,0,0,0,0,0,0,0,-1,1210,890,0,0
-7,134,0,0,0,0,0,0,0,0,0,-1,1217,890,0,0
0,134,0,0,0,0,0,0,0,0,0,-1,1224,890,0,0
7,134,0,0,0,0,0,0,0,0,0,-1,1231,890,0,0
14,134,0,0,0,0,0,0,0,0,0,-1,1238,890,0,0
21,134,0,0,0,0,0,0,0,0,0,-1,1245,890,0,0
28,134,0,0,0,0,0,0,0,0,0,-1,1252,890,0,0
35,134,0,0,0,0,0,0,0,0,0,-1,1259,890,0,0
42,134,0,0,0,0,0,0,0,0,0,-1,1266,890,0,0
49,134,0,0,0,0,0,0,0,0,0,-1,1273,890,0,0
56,134,0,0,0,0,0,0,0,0,0,-1,1280,890,0,0
63,134,0,0,0,0,0,0,0,0,0,-1,1287,890,0,0
70,134,0,0,0,0,0,0,0,0,0,-1,1294,890,0,0
77,134,0,0,0,0,0,0,0,0,0,-1,1301,890,0,0
84,134,0,0,0,0,0,0,0,0,0,-1,1308,890,0,0
91,134,0,0,0,0,0,0,0,0,0,-1,1315,890,0,0
98,134,0,0,0,0,0,0,0,0,0,-1,1322,890,0,0
105,134,0,0,0,0,0,0,0,0,0,-1,1329,890,0,0
112,134,0,0,0,0,0,0,0,0,0,-1,1336,890,0,0
119,134,0,0,0,0,0,0,0,0,0,-1,1343,890,0,0
126,134,0,0,0,0,0,0,0,0,0,-1,1350,890,0,0
133,134,0,0,0,0,0,0,0,0,0,-1,1357,890,0,0
140,134,0,0,0,0,0,0,0,0,0,-1,1364,890,0,0
147,134,0,0,0,0,0,0,0,0,0,-1,1371,890,0,0
154,134,0,0,0,0,0,0,0,0,0,-1,1378,890,0,0
161,134,0,0,0,0,0,0,0,0,0,-1,1385,890,0,0
168,134,0,0,0,0,0,0,0,0,0,-1,1392,890,0,0
175,134,0,0,0,0,0,0,0,0,0,-1,1399,890,0,0
182,134,0,0,0,0,0,0,0,0,0,-1,1406,890,0,0
189,134,0,0,0,0,0,0,0,0,0,-1,1413,890,0,0
196,134,0,0,0,0,0,0,0,0,0,-1,1420,890,0,0
203,134,0,0,0,0,0,0,0,0,0,-1,1427,890,0,0
210,134,0,0,0,0,0,0,0,0,0,-1,1434,890,0,0
217,134,0,0,0,0,0,0,0,0,0,-1,1441,890,0,0
224,134,0,0,0,0,0,0,0,0,0,-1,1448,890,0,0
231,134,0,0,0,0,0,0,0,0,0,-1,1455,890,0,0
238,134,0,0,0,0,0,0,0,0,0,-1,1462,890,0,0
245,134,0,0,0,0,0,0,0,0,0,-1,1469,890,0,0
252,134,0,0,0,0,0,0,0,0,0,-1,1476,890,0,0
259,134,0,0,0,0,0,0,0,0,0,-1,1483,890,0,0
266,134,0,0,0,0,0,0,0,0,0,-1,1490,890,0,0
273,134,0,0,0,0,0,0,0,0,0,-1,1497,890,0,0
280,134,0,0,0,0,0,0,0,0,0,-1,1504,890,0,0
287,134,0,0,0,0,0,0,0,0,0,-1,1511,890,0,0
294,134,0,0,0,0,0,0,0,0,0,-1,1518,890,0,0
301,134,0,0,0,0,0,0,0,0,0,-1,1525,890,0,0
308,134,0,0,0,0,0,0,0,0,0,-1,1532,890,0,0
315,134,0,0,0,0,0,0,0,0,0,-1,1539,890,0,0
322,134,0,0,0,0,0,0,0,0,0,-1,1546,890,0,0
329,134,0,0,0,0,0,0,0,0,0,-1,1553,890,0,0
336,134,0,0,0,0,0,0,0,0,0,-1,1560,890,0,0
343,134,0,0,0,0,0,0,0,0,0,-1,1567,890,0,0
350,134,0,0,0,0,0,0,0,0,0,-1,1574,890,0,0
357,134,0,0,0,0,0,0,0,0,0,-1,1581,890,0,0
364,134,0,0,0,0,0,0,0,0,0,-1,1588,890,0,0
371,134,0,0,0,0,0,0,0,0,0,-1,1595,890,0,0
378,134,0,0,0,0,0,0,0,0,0,-1,1602,890,0,0
385,134,0,0,0,0,0,0,0,0,0,-1,1609,890,0,0
392,134,0,0,0,0,0,0,0,0,0,-1,1616,890,0,0
399,134,0,0,0,0,0,0,0,0,0,-1,1623,890,0,0
406,134,0,0,0,0,0,0,0,0,0,-1,1630,890,0,0
413,134,0,0,0,0,0,0,0,0,0,-1,1637,890,0,0
420,134,0,0,0,0,0,0,0,0,0,-1,1644,890,0,0
427,134,0,0,0,0,0,0,0,0,0,-1,1651,890,0,0
434,134,0,0,0,0,0,0,0,0,0,-1,1658,890,0,0
441,134,0,0,0,0,0,0,0,0,0,-1,1665,890,0,0
448,134,0,0,0,0,0,0,0,0,0,-1,1672,890,0,0
455,134,0,0,0,0,0,0,0,0,0,-1,1679,890,0,0
462,134,0,0,0,0,0,0,0,0,0,-1,1686,890,0,0
469,134,0,0,0,0,0,0,0,0,0,-1,1693,890,0,0
476,134,0,0,0,0,0,0,0,0,0,-1,1700,890,0,0
483,134,0,0,0,0,0,0,0,0,0,-1,1707,890,0,0
490,134,0,0,0,0,0,0,0,0,0,-1,1714,890,0,0
497,134,0,0,0,0,0,0,0,0,0,-1,1721,890,0,0
504,134,0,0,0,0,0,0,0,0,0,-1,1728,890,0,0
511,134,0,0,0,0,0,0,0,0,0,-1,1735,890,0,0
518,134,0,0,0,0,0,0,0,0,0,-1,1742,890,0,0
525,134,0,0,0,0,0,0,0,0,0,-1,1749,890,0,0
532,134,0,0,0,0,0,0,0,0,0,-1,1756,890,0,0
539,134,0,0,0,0,0,0,0,0,0,-1,1763,890,0,0
546,134,0,0,0,0,0,0,0,0,0,-1,1770,890,0,0
553,134,0,0,0,0,0,0,0,0,0,-1,1777,890,0,0
560,134,0,0,0,0,0,0,0,0,0,-1,1784,890,0,0
567,134,0,0,0,0,0,0,0,0,0,-1,1791,890,0,0
574,134,0,0,0,0,0,0,0,0,0,-1,1798,890,0,0
581,134,0,0,0,0,0,0,0,0,0,-1,1805,890,0,0
588,134,0,0,0,0,0,0,0,0,0,-1,1812,890,0,0
595,134,0,0,0,0,0,0,0,0,0,-1,1819,890,0,0
602,134,0,0,0,0,0,0,0,0,0,-1,1826,890,0,0
609,134,0,0,0,0,0,0,0,0,0,-1,1833,890,0,0
616,134,0,0,0,0,0,0,0,0,0,-1,1840,890,0,0
623,134,56.7692,1.95093,0,0,0,0,0,0,0,-1,1847,890,56.7691,-1.95095
630,134,56.592,2.84479,0,0,0,0,0,0,0,-1,1854,890,56.5921,-2.84476
637,134,56.6229,2.65228,-0.00232271,0.00744474,0.00345307,0.00854219,-0.00342016,1.26307,0.00711437,0.0470312,1861,890,56.6229,-2.65225
644,134,56.5916,2.73523,-0.00228412,0.00512807,0.00214982,0.00570646,-0.00286252,1.30798,0.00503731,0.0408316,1868,890,56.5915,-2.73524
651,134,56.5887,2.71002,-0.00222007,0.00337463,0.00119622,0.00361966,-0.00246511,1.36875,0.00353406,0.040798,1875,890,56.5888,-2.71002
658,134,56.5378,2.66803,-0.00227989,0.00191578,0.00039966,0.00195351,-0.00231762,1.47667,0.00246892,0.0394165,1882,890,56.5379,-2.66803
665,134,56.4586,2.6098,-0.00219541,0.00119757,9.73321e-05,0.00120036,-0.0021982,1.54214,0.00199015,0.0342918,1889,890,56.4586,-2.60981
672,134,56.441,2.59827,-0.00216087,0.000540168,-0.000157824,0.000549358,-0.00217006,-1.51263,0.0016604,0.0257629,1896,890,56.4411,-2.59824
679,134,56.4456,2.58368,-0.00194072,4.97195e-05,-0.000407428,0.000129888,-0.00202089,-1.37651,0.00139258,0.0260532,1903,890,56.4456,-2.58369
686,134,56.4553,2.57416,0,0,0,0,0,0,0,-1,1910,890,56.4554,-2.57413
693,134,34.5778,2.48096,0,0,0,0,0,0,0,-1,1917,890,34.5777,-2.48099
700,134,49.219,2.58441,0,0,0,0,0,0,0,-1,1924,890,49.219,-2.58441
707,134,48.8401,2.78754,0,0,0,0,0,0,0,-1,1931,890,48.8401,-2.78756
714,134,48.8698,3.44891,-0.00161333,0.000141534,-0.00117985,0.000734452,-0.00220625,-1.10512,0.00176727,0.0255341,1938,890,48.8698,-3.44894
721,134,49.037,4.1366,-0.00167266,0.000573286,-0.00137638,0.00122669,-0.00232606,-1.12757,0.00208366,0.0217088,1945,890,49.037,-4.13657
728,134,49.1038,4.71759,-0.0020546,0.00121302,-0.00154605,0.00182857,-0.00267015,-1.19189,0.00261244,0.0188612,1952,890,49.1037,-4.7176
735,134,49.0436,5.39502,-0.00251267,0.00193776,-0.00196068,0.00267832,-0.00325324,-1.20965,0.00342995,0.0252539,1959,890,49.0436,-5.395
742,134,48.9944,6.01257,-0.00291408,0.00293941,-0.00289379,0.00412846,-0.00410314,-1.18093,0.00475252,0.0171684,1966,890,48.9943,-6.01256
749,134,48.9944,6.5625,-0.00346929,0.00407223,-0.00395301,0.00576452,-0.00516158,-1.1663,0.00631139,0.0132279,1973,890,48.9944,-6.5625
756,134,48.9392,7.11041,-0.00376591,0.00494523,-0.00537721,0.00750959,-0.00633027,-1.1258,0.00800011,0.0166795,1980,890,48.9393,-7.11041
763,134,49.0004,7.53058,-0.00358221,0.00514637,-0.00748177,0.00944371,-0.00787956,-1.04943,0.0100152,0.0369065,1987,890,49.0003,-7.53056
770,134,49.0614,7.91473,0,0,0,0,0,0,0,-1,1994,890,49.0614,-7.91474
777,134,43.6969,5.94574,0,0,0,0,0,0,0,-1,2001,890,43.697,-5.94577
784,134,42.3352,7.4964,0,0,0,0,0,0,0,-1,2008,890,42.3352,-7.49641
791,134,42.2061,9.63593,0,0,0,0,0,0,0,-1,2015,890,42.2061,-9.63591
798,134,0,0,0,0,0,0,0,0,0,-1,2022,890,0,0
805,134,0,0,0,0,0,0,0,0,0,-1,2029,890,0,0
812,134,0,0,0,0,0,0,0,0,0,-1,2036,890,0,0
-700,127,0,0,0,0,0,0,0,0,0,-1,524,897,0,0
-693,127,0,0,0,0,0,0,0,0,0,-1,531,897,0,0
-686,127,0,0,0,0,0,0,0,0,0,-1,538,897,0,0
-679,127,-36.8239,8.63116,0,0,0,0,0,0,0,-1,545,897,-36.8239,-8.63116
-672,127,-42.769,9.27637,0,0,0,0,0,0,0,-1,552,897,-42.769,-9.27635
-665,127,-42.5981,7.00281,0,0,0,0,0,0,0,-1,559,897,-42.5981,-7.00279
-658,127,-42.4303,4.76166,0,0,0,0,0,0,0,-1,566,897,-42.4303,-4.76166
-651,127,-37.9974,2.57092,0,0,0,0,0,0,0,-1,573,897,-37.9974,-2.57093
-644,127,-38.7797,1.09039,0,0,0,0,0,0,0,-1,580,897,-38.7797,-1.09042
-637,127,-37.3555,3.5694,0,0,0,0,0,0,0,-1,587,897,-37.3555,-3.56942
-630,127,-37.0168,4.1084,0.00159028,0.0444298,-0.0149022,0.0491038,-0.00308367,-1.26687,0.0338107,0.0498456,594,897,-37.0168,-4.10843
-623,127,-36.8546,4.38519,-0.000959854,0.028585,-0.00907031,0.0311473,-0.00352222,-1.29547,0.022033,0.0166331,601,897,-36.8546,-4.38517
-616,127,-36.9177,3.91974,-0.00258267,0.0166576,-0.0042027,0.0175356,-0.00346062,-1.36486,0.0129984,0.011022,608,897,-36.9177,-3.91973
-609,127,-36.9744,3.36255,-0.00370817,0.00711695,-0.000460245,0.00713648,-0.0037277,-1.52838,0.00637453,0.014764,615,897,-36.9744,-3.36258
-602,127,-36.9752,2.81769,-0.00375853,0.00316724,0.00167222,0.00354986,-0.00414115,1.34586,0.00444478,0.0165024,622,897,-36.9752,-2.81771
-595,127,-36.9078,2.33502,-0.00335019,0.00154372,0.00222804,0.00240611,-0.00421258,1.20149,0.00386846,0.0292784,629,897,-36.9078,-2.33504
-588,127,-37.0143,1.73529,-0.00301392,0.000926969,0.00219109,0.0019033,-0.00399026,1.15161,0.00347303,0.0371326,636,897,-37.0143,-1.73531
-581,127,-36.7408,1.16797,0,0,0,0,0,0,0,-1,643,897,-36.7408,-1.16798
-574,127,-25.2603,0.511169,0,0,0,0,0,0,0,-1,650,897,-25.2603,-0.51117
-567,127,-24.5417,-0.0447388,0,0,0,0,0,0,0,-1,657,897,-24.5417,0.0447226
-560,127,-18.9678,1.21667,0,0,0,0,0,0,0,-1,664,897,-18.9677,-1.2167
-553,127,-42.4616,0.870911,0,0,0,0,0,0,0,-1,671,897,-42.4616,-0.870917
-546,127,-42.4868,0.811646,-0.00145805,0.000316532,0.000206831,0.000340319,-0.00148184,1.45629,0.00111872,0.0247236,678,897,-42.4868,-0.81162
-539,127,-42.5193,0.771301,-0.00116565,0.000454182,-0.000364436,0.000532397,-0.00124387,-1.35938,0.00105259,0.0208977,685,897,-42.5193,-0.77133
-532,127,-42.5102,0.776428,-0.000623418,0.000545085,-0.000768077,0.000925868,-0.0010042,-1.11054,0.00111463,0.0168406,692,897,-42.5102,-0.776407
-525,127,-42.5253,0.812988,-0.000457092,7.45849e-05,-0.00106872,0.000910031,-0.00129254,-0.907297,0.00127803,0.0322509,699,897,-42.5253,-0.813016
-518,127,-42.4956,0.839783,-0.000371396,-0.000503938,-0.000823809,0.000388803,-0.00126414,-0.745262,0.000997933,0.0410731,706,897,-42.4956,-0.839776
-511,127,-42.3848,0.808594,0.000459161,-0.000731468,-0.000194875,0.000490246,-0.000762552,-0.158177,0.000728976,0.0427603,713,897,-42.3848,-0.808566
-504,127,0,0,0,0,0,0,0,0,0,-1,720,897,0,0
-497,127,0,0,0,0,0,0,0,0,0,-1,727,897,0,0
-490,127,0,0,0,0,0,0,0,0,0,-1,734,897,0,0
-483,127,0,0,0,0,0,0,0,0,0,-1,741,897,0,0
-476,127,0,0,0,0,0,0,0,0,0,-1,748,897,0,0
-469,127,0,0,0,0,0,0,0,0,0,-1,755,897,0,0
-462,127,0,0,0,0,0,0,0,0,0,-1,762,897,0,0
-455,127,0,0,0,0,0,0,0,0,0,-1,769,897,0,0
-448,127,0,0,0,0,0,0,0,0,0,-1,776,897,0,0
-441,127,0,0,0,0,0,0,0,0,0,-1,783,897,0,0
-434,127,0,0,0,0,0,0,0,0,0,-1,790,897,0,0
-427,127,0,0,0,0,0,0,0,0,0,-1,797,897,0,0
-420,127,0,0,0,0,0,0,0,0,0,-1,804,897,0,0
-413,127,0,0,0,0,0,0,0,0,0,-1,811,897,0,0
-406,127,0,0,0,0,0,0,0,0,0,-1,818,897,0,0
-399,127,0,0,0,0,0,0,0,0,0,-1,825,897,0,0
-392,127,0,0,0,0,0,0,0,0,0,-1,832,897,0,0
-385,127,0,0,0,0,0,0,0,0,0,-1,839,897,0,0
-378,127,0,0,0,0,0,0,0,0,0,-1,846,897,0,0
-371,127,0,0,0,0,0,0,0,0,0,-1,853,897,0,0
-364,127,0,0,0,0,0,0,0,0,0,-1,860,897,0,0
-357,127,0,0,0,0,0,0,0,0,0,-1,867,897,0,0
-350,127,0,0,0,0,0,0,0,0,0,-1,874,897,0,0
-343,127,0,0,0,0,0,0,0,0,0,-1,881,897,0,0
-336,127,0,0,0,0,0,0,0,0,0,-1,888,897,0,0
-329,127,0,0,0,0,0,0,0,0,0,-1,895,897,0,0
-322,127,0,0,0,0,0,0,0,0,0,-1,902,897,0,0
-315,127,0,0,0,0,0,0,0,0,0,-1,909,897,0,0
-308,127,0,0,0,0,0,0,0,0,0,-1,916,897,0,0
-301,127,0,0,0,0,0,0,0,0,0,-1,923,897,0,0
-294,127,0,0,0,0,0,0,0,0,0,-1,930,897,0,0
-287,127,0,0,0,0,0,0,0,0,0,-1,937,897,0,0
-280,127,0,0,0,0,0,0,0,0,0,-1,944,897,0,0
-273,127,0,0,0,0,0,0,0,0,0,-1,951,897,0,0
-266,127,0,0,0,0,0,0,0,0,0,-1,958,897,0,0
-259,127,0,0,0,0,0,0,0,0,0,-1,965,897,0,0
-252,127,0,0,0,0,0,0,0,0,0,-1,972,897,0,0
-245,127,0,0,0,0,0,0,0,0,0,-1,979,897,0,0
-238,127,0,0,0,0,0,0,0,0,0,-1,986,897,0,0
-231,127,0,0,0,0,0,0,0,0,0,-1,993,897,0,0
-224,127,0,0,0,0,0,0,0,0,0,-1,1000,897,0,0
-217,127,0,0,0,0,0,0,0,0,0,-1,1007,897,0,0
-210,127,0,0,0,0,0,0,0,0,0,-1,1014,897,0,0
-203,127,0,0,0,0,0,0,0,0,0,-1,1021,897,0,0
-196,127,0,0,0,0,0,0,0,0,0,-1,1028,897,0,0
-189,127,0,0,0,0,0,0,0,0,0,-1,1035,897,0,0
-182,127,0,0,0,0,0,0,0,0,0,-1,1042,897,0,0
-175,127,0,0,0,0,0,0,0,0,0,-1,1049,897,0,0
-168,127,0,0,0,0,0,0,0,0,0,-1,1056,897,0,0
-161,127,0,0,0,0,0,0,0,0,0,-1,1063,897,0,0
-154,127,0,0,0,0,0,0,0,0,0,-1,1070,897,0,0
-147,127,0,0,0,0,0,0,0,0,0,-1,1077,897,0,0
-140,127,0,0,0,0,0,0,0,0,0,-1,1084,897,0,0
-133,127,0,0,0,0,0,0,0,0,0,-1,1091,897,0,0
-126,127,0,0,0,0,0,0,0,0,0,-1,1098,897,0,0
-119,127,0,0,0,0,0,0,0,0,0,-1,1105,897,0,0
-112,127,0,0,0,0,0,0,0,0,0,-1,1112,897,0,0
-105,127,0,0,0,0,0,0,0,0,0,-1,1119,897,0,0
-98,127,0,0,0,0,0,0,0,0,0,-1,1126,897,0,0
-91,127,0,0,0,0,0,0,0,0,0,-1,1133,897,0,0
-84,127,0,0,0,0,0,0,0,0,0,-1,1140,897,0,0
-77,127,0,0,0,0,0,0,0,0,0,-1,1147,897,0,0
-70,127,0,0,0,0,0,0,0,0,0,-1,1154,897,0,0
-63,127,0,0,0,0,0,0,0,0,0,-1,1161,897,0,0
-56,127,0,0,0,0,0,0,0,0,0,-1,1168,897,0,0
-49,127,0,0,0,0,0,0,0,0,0,-1,1175,897,0,0
-42,127,0,0,0,0,0,0,0,0,0,-1,1182,897,0,0
-35,127,0,0,0,0,0,0,0,0,0,-1,1189,897,0,0
-28,127,0,0,0,0,0,0,0,0,0,-1,1196,897,0,0
-21,127,0,0,0,0,0,0,0,0,0,-1,1203,897,0,0
-14,127,0,0,0,0,0,0,0,0,0,-1,1210,897,0,0
-7,127,0,0,0,0,0,0,0,0,0,-1,1217,897,0,0
0,127,0,0,0,0,0,0,0,0,0,-1,1224,897,0,0
7,127,0,0,0,0,0,0,0,0,0,-1,1231,897,0,0
14,127,0,0,0,0,0,0,0,0,0,-1,1238,897,0,0
21,127,0,0,0,0,0,0,0,0,0,-1,1245,897,0,0
28,127,0,0,0,0,0,0,0,0,0,-1,1252,897,0,0
35,127,0,0,0,0,0,0,0,0,0,-1,1259,897,0,0
42,127,0,0,0,0,0,0,0,0,0,-1,1266,897,0,0
49,127,0,0,0,0,0,0,0,0,0,-1,1273,897,0,0
56,127,0,0,0,0,0,0,0,0,0,-1,1280,897,0,0
63,127,0,0,0,0,0,0,0,0,0,-1,1287,897,0,0
70,127,0,0,0,0,0,0,0,0,0,-1,1294,897,0,0
77,127,0,0,0,0,0,0,0,0,0,-1,1301,897,0,0
84,127,0,0,0,0,0,0,0,0,0,-1,1308,897,0,0
91,127,0,0,0,0,0,0,0,0,0,-1,1315,897,0,0
98,127,0,0,0,0,0,0,0,0,0,-1,1322,897,0,0
105,127,0,0,0,0,0,0,0,0,0,-1,1329,897,0,0
112,127,0,0,0,0,0,0,0,0,0,-1,1336,897,0,0
119,127,0,0,0,0,0,0,0,0,0,-1,1343,897,0,0
126,127,0,0,0,0,0,0,0,0,0,-1,1350,897,0,0
133,127,0,0,0,0,0,0,0,0,0,-1,1357,897,0,0
140,127,0,0,0,0,0,0,0,0,0,-1,1364,897,0,0
147,127,0,0,0,0,0,0,0,0,0,-1,1371,897,0,0
154,127,0,0,0,0,0,0,0,0,0,-1,1378,897,0,0
161,127,0,0,0,0,0,0,0,0,0,-1,1385,897,0,0
168,127,0,0,0,0,0,0,0,0,0,-1,1392,897,0,0
175,127,0,0,0,0,0,0,0,0,0,-1,1399,897,0,0
182,127,0,0,0,0,0,0,0,0,0,-1,1406,897,0,0
189,127,0,0,0,0,0,0,0,0,0,-1,1413,897,0,0
196,127,0,0,0,0,0,0,0,0,0,-1,1420,897,0,0
203,127,0,0,0,0,0,0,0,0,0,-1,1427,897,0,0
210,127,0,0,0,0,0,0,0,0,0,-1,1434,897,0,0
217,127,0,0,0,0,0,0,0,0,0,-1,1441,897,0,0
224,127,0,0,0,0,0,0,0,0,0,-1,1448,897,0,0
231,127,0,0,0,0,0,0,0,0,0,-1,1455,897,0,0
238,127,0,0,0,0,0,0,0,0,0,-1,1462,897,0,0
245,127,0,0,0,0,0,0,0,0,0,-1,1469,897,0,0
252,127,0,0,0,0,0,0,0,0,0,-1,1476,897,0,0
259,127,0,0,0,0,0,0,0,0,0,-1,1483,897,0,0
266,127,0,0,0,0,0,0,0,0,0,-1,1490,897,0,0
273,127,0,0,0,0,0,0,0,0,0,-1,1497,897,0,0
280,127,0,0,0,0,0,0,0,0,0,-1,1504,897,0,0
287,127,0,0,0,0,0,0,0,0,0,-1,1511,897,0,0
294,127,0,0,0,0,0,0,0,0,0,-1,1518,897,0,0
301,127,0,0,0,0,0,0,0,0,0,-1,1525,897,0,0
308,127,0,0,0,0,0,0,0,0,0,-1,1532,897,0,0
315,127,0,0,0,0,0,0,0,0,0,-1,1539,897,0,0
322,127,0,0,0,0,0,0,0,0,0,-1,1546,897,0,0
329,127,0,0,0,0,0,0,0,0,0,-1,1553,897,0,0
336,127,0,0,0,0,0,0,0,0,0,-1,1560,897,0,0
343,127,0,0,0,0,0,0,0,0,0,-1,1567,897,0,0
350,127,0,0,0,0,0,0,0,0,0,-1,1574,897,0,0
357,127,0,0,0,0,0,0,0,0,0,-1,1581,897,0,0
364,127,0,0,0,0,0,0,0,0,0,-1,1588,897,0,0
371,127,0,0,0,0,0,0,0,0,0,-1,1595,897,0,0
378,127,0,0,0,0,0,0,0,0,0,-1,1602,897,0,0
385,127,0,0,0,0,0,0,0,0,0,-1,1609,897,0,0
392,127,0,0,0,0,0,0,0,0,0,-1,1616,897,0,0
399,127,0,0,0,0,0,0,0,0,0,-1,1623,897,0,0
406,127,0,0,0,0,0,0,0,0,0,-1,1630,897,0,0
413,127,0,0,0,0,0,0,0,0,0,-1,1637,897,0,0
420,127,0,0,0,0,0,0,0,0,0,-1,1644,897,0,0
427,127,0,0,0,0,0,0,0,0,0,-1,1651,897,0,0
434,127,0,0,0,0,0,0,0,0,0,-1,1658,897,0,0
441,127,0,0,0,0,0,0,0,0,0,-1,1665,897,0,0
448,127,0,0,0,0,0,0,0,0,0,-1,1672,897,0,0
455,127,0,0,0,0,0,0,0,0,0,-1,1679,897,0,0
462,127,0,0,0,0,0,0,0,0,0,-1,1686,897,0,0
469,127,0,0,0,0,0,0,0,0,0,-1,1693,897,0,0
476,127,0,0,0,0,0,0,0,0,0,-1,1700,897,0,0
483,127,0,0,0,0,0,0,0,0,0,-1,1707,897,0,0
490,127,0,0,0,0,0,0,0,0,0,-1,1714,897,0,0
497,127,0,0,0,0,0,0,0,0,0,-1,1721,897,0,0
504,127,0,0,0,0,0,0,0,0,0,-1,1728,897,0,0
511,127,0,0,0,0,0,0,0,0,0,-1,1735,897,0,0
518,127,0,0,0,0,0,0,0,0,0,-1,1742,897,0,0
525,127,0,0,0,0,0,0,0,0,0,-1,1749,897,0,0
532,127,0,0,0,0,0,0,0,0,0,-1,1756,897,0,0
539,127,0,0,0,0,0,0,0,0,0,-1,1763,897,0,0
546,127,0,0,0,0,0,0,0,0,0,-1,1770,897,0,0
553,127,0,0,0,0,0,0,0,0,0,-1,1777,897,0,0
560,127,0,0,0,0,0,0,0,0,0,-1,1784,897,0,0
567,127,0,0,0,0,0,0,0,0,0,-1,1791,897,0,0
574,127,0,0,0,0,0,0,0,0,0,-1,1798,897,0,0
581,127,0,0,0,0,0,0,0,0,0,-1,1805,897,0,0
588,127,0,0,0,0,0,0,0,0,0,-1,1812,897,0,0
595,127,0,0,0,0,0,0,0,0,0,-1,1819,897,0,0
602,127,0,0,0,0,0,0,0,0,0,-1,1826,897,0,0
609,127,0,0,0,0,0,0,0,0,0,-1,1833,897,0,0
616,127,0,0,0,0,0,0,0,0,0,-1,1840,897,0,0
623,127,0,0,0,0,0,0,0,0,0,-1,1847,897,0,0
630,127,56.5449,2.59192,-0.00406482,0.00971792,0.00555856,0.0116803,-0.00602718,1.23142,0.0103956,0.0461838,1854,897,56.545,-2.5919
637,127,56.6259,2.51172,-0.00374078,0.00699318,0.00385297,0.008233,-0.00498061,1.25948,0.00770553,0.0434988,1861,897,56.6259,-2.51175
644,127,56.616,2.41315,-0.00331035,0.00493302,0.00255267,0.00565947,-0.0040368,1.29354,0.00562421,0.0384086,1868,897,56.616,-2.41317
651,127,56.5675,2.41125,-0.00289504,0.00343592,0.00161037,0.003822,-0.00328112,1.33549,0.00410495,0.0395241,1875,897,56.5675,-2.41125
658,127,56.4949,2.54266,-0.0026255,0.00220606,0.000857601,0.00235377,-0.0027732,1.40024,0.00296336,0.0424644,1882,897,56.4949,-2.54265
665,127,56.4319,2.53424,-0.00230274,0.00157367,0.000546911,0.00164935,-0.00237843,1.43328,0.0023381,0.0390781,1889,897,56.4319,-2.53422
672,127,56.4241,2.51563,-0.00213435,0.000964747,0.000323917,0.000998241,-0.00216784,1.46776,0.00186905,0.0329578,1896,897,56.4241,-2.51563
679,127,56.4614,2.55023,-0.00186966,0.000489072,0.000100235,0.000493324,-0.00187391,1.5284,0.00144212,0.0275711,1903,897,56.4614,-2.55022
686,127,56.4675,2.5625,0,0,0,0,0,0,0,-1,1910,897,56.4675,-2.5625
693,127,55.8605,2.73022,0,0,0,0,0,0,0,-1,1917,897,55.8605,-2.7302
700,127,48.9604,2.526,0,0,0,0,0,0,0,-1,1924,897,48.9604,-2.52598
707,127,49.3444,2.68835,0,0,0,0,0,0,0,-1,1931,897,49.3443,-2.68835
714,127,49.6566,3.49609,-0.00181571,0.000526827,-0.000885644,0.000823971,-0.00211285,-1.24709,0.00174916,0.0236027,1938,897,49.6566,-3.49609
721,127,49.7899,4.26862,-0.00198404,0.000870136,-0.00113818,0.00126843,-0.00238234,-1.23417,0.00214023,0.0214337,1945,897,49.7899,-4.26863
728,127,49.7234,4.8241,-0.00250491,0.00141798,-0.00133455,0.00182893,-0.00291587,-1.27207,0.00276327,0.0191188,1952,897,49.7234,-4.82408
735,127,49.6652,5.43463,-0.00306534,0.00217757,-0.00174613,0.00270588,-0.00359365,-1.27699,0.00364905,0.0203278,1959,897,49.6652,-5.43465
742,127,49.6145,6.02496,-0.0035384,0.00325802,-0.00272543,0.00421593,-0.00449631,-1.23281,0.00503089,0.0189964,1966,897,49.6145,-6.02499
749,127,49.5668,6.56232,-0.00412733,0.00466279,-0.00372823,0.00603108,-0.00549563,-1.21905,0.00665734,0.0141703,1973,897,49.5667,-6.56233
756,127,49.5155,7.07349,-0.00430869,0.00600939,-0.00497374,0.00801651,-0.0063158,-1.18724,0.00829416,0.0165189,1980,897,49.5156,-7.07346
763,127,49.4946,7.55573,-0.00376974,0.00687831,-0.00673574,0.0101401,-0.00703148,-1.11983,0.00996799,0.0253003,1987,897,49.4946,-7.55571
770,127,49.5399,8.02002,0,0,0,0,0,0,0,-1,1994,897,49.5399,-8.02003
777,127,42.703,5.33789,0,0,0,0,0,0,0,-1,2001,897,42.7031,-5.33791
784,127,42.6145,8.47131,0,0,0,0,0,0,0,-1,2008,897,42.6146,-8.47131
791,127,42.5813,5.51636,0,0,0,0,0,0,0,-1,2015,897,42.5813,-5.51633
798,127,0,0,0,0,0,0,0,0,0,-1,2022,897,0,0
805,127,0,0,0,0,0,0,0,0,0,-1,2029,897,0,0
812,127,0,0,0,0,0,0,0,0,0,-1,2036,897,0,0
-700,120,0,0,0,0,0,0,0,0,0,-1,524,904,0,0
-693,120,0,0,0,0,0,0,0,0,0,-1,531,904,0,0
-686,120,0,0,0,0,0,0,0,0,0,-1,538,904,0,0
-679,120,-39.1634,2.83453,0,0,0,0,0,0,0,-1,545,904,-39.1634,-2.83452
-672,120,-36.6606,6.23993,0,0,0,0,0,0,0,-1,552,904,-36.6606,-6.23994
-665,120,-44.6521,5.18616,0,0,0,0,0,0,0,-1,559,904,-44.6521,-5.18618
-658,120,-36.8363,3.36487,0,0,0,0,0,0,0,-1,566,904,-36.8363,-3.36485
-651,120,-38.6806,2.67523,0,0,0,0,0,0,0,-1,573,904,-38.6806,-2.67521
-644,120,-39.3876,1.10193,0,0,0,0,0,0,0,-1,580,904,-39.3876,-1.10194
-637,120,-37.3812,5.29742,0,0,0,0,0,0,0,-1,587,904,-37.3812,-5.29745
-630,120,-37.3659,4.85767,0.000739538,0.0397765,-0.0103775,0.0423637,-0.0018477,-1.32646,0.0288781,0.0298693,594,904,-37.3659,-4.85767
-623,120,-37.4543,4.36981,-0.00152597,0.0250958,-0.00554472,0.0262045,-0.00263464,-1.37345,0.0184108,0.0118979,601,904,-37.4543,-4.36981
-616,120,-37.5036,3.88184,-0.0028813,0.0141777,-0.00172535,0.0143505,-0.00305405,-1.471,0.0107309,0.011524,608,904,-37.5036,-3.88181
-609,120,-37.5151,3.35297,-0.00373322,0.00571371,0.000958664,0.00581002,-0.00382953,1.47068,0.00560441,0.014894,615,904,-37.5151,-3.35295
-602,120,-37.5249,2.82623,-0.0037473,0.00243157,0.00219814,0.00313377,-0.00444949,1.26159,0.00440011,0.0174022,622,904,-37.5249,-2.82623
-595,120,-37.4683,2.38605,-0.0033454,0.00120579,0.00228218,0.00215303,-0.00429264,1.17737,0.00378914,0.0321868,629,904,-37.4683,-2.38602
-588,120,-37.3906,1.74402,-0.00298996,0.00063208,0.00214072,0.00162507,-0.00398295,1.13648,0.00333182,0.0441793,636,904,-37.3906,-1.744
-581,120,-37.5713,1.53448,0,0,0,0,0,0,0,-1,643,904,-37.5713,-1.53447
-574,120,-27.5438,0.505066,0,0,0,0,0,0,0,-1,650,904,-27.5438,-0.505085
-567,120,-25.2822,-0.410645,0,0,0,0,0,0,0,-1,657,904,-25.2821,0.410629
-560,120,-27.3358,1.10327,0,0,0,0,0,0,0,-1,664,904,-27.3358,-1.10324
-553,120,-42.4001,0.992371,0,0,0,0,0,0,0,-1,671,904,-42.4002,-0.992364
-546,120,-42.417,0.870605,-0.00154328,0.000233089,-0.00013449,0.000243214,-0.00155341,-1.49566,0.00112547,0.0334115,678,904,-42.417,-0.870598
-539,120,-42.4114,0.767578,-0.00124145,0.000318478,-0.000668319,0.000565643,-0.00148862,-1.21657,0.00122528,0.0250838,685,904,-42.4114,-0.767556
-532,120,-42.415,0.797058,-0.000732628,0.000270105,-0.000964751,0.000855989,-0.00131851,-1.02503,0.00126488,0.0270118,692,904,-42.415,-0.797077
-525,120,-42.5055,0.823181,-0.000584261,-0.000500746,-0.00109284,0.000551132,-0.00163614,-0.804494,0.00131359,0.0350117,699,904,-42.5055,-0.823197
-518,120,-42.562,0.894653,-0.00043262,-0.00141353,-0.000867094,7.31155e-05,-0.00191927,-0.528015,0.00130457,0.0399524,706,904,-42.562,-0.894666
-511,120,-42.5285,0.897278,0.000367903,-0.00212123,-0.000429634,0.000439973,-0.0021933,-0.166199,0.00162879,0.0406335,713,904,-42.5285,-0.897284
-504,120,0,0,0,0,0,0,0,0,0,-1,720,904,0,0
-497,120,0,0,0,0,0,0,0,0,0,-1,727,904,0,0
-490,120,0,0,0,0,0,0,0,0,0,-1,734,904,0,0
-483,120,0,0,0,0,0,0,0,0,0,-1,741,904,0,0
-476,120,0,0,0,0,0,0,0,0,0,-1,748,904,0,0
-469,120,0,0,0,0,0,0,0,0,0,-1,755,904,0,0
-462,120,0,0,0,0,0,0,0,0,0,-1,762,904,0,0
-455,120,0,0,0,0,0,0,0,0,0,-1,769,904,0,0
-448,120,0,0,0,0,0,0,0,0,0,-1,776,904,0,0
-441,120,0,0,0,0,0,0,0,0,0,-1,783,904,0,0
-434,120,0,0,0,0,0,0,0,0,0,-1,790,904,0,0
-427,120,0,0,0,0,0,0,0,0,0,-1,797,904,0,0
-420,120,0,0,0,0,0,0,0,0,0,-1,804,904,0,0
-413,120,0,0,0,0,0,0,0,0,0,-1,811,904,0,0
-406,120,0,0,0,0,0,0,0,0,0,-1,818,904,0,0
-399,120,0,0,0,0,0,0,0,0,0,-1,825,904,0,0
-392,120,0,0,0,0,0,0,0,0,0,-1,832,904,0,0
-385,120,0,0,0,0,0,0,0,0,0,-1,839,904,0,0
-378,120,0,0,0,0,0,0,0,0,0,-1,846,904,0,0
-371,120,0,0,0,0,0,0,0,0,0,-1,853,904,0,0
-364,120,0,0,0,0,0,0,0,0,0,-1,860,904,0,0
-357,120,0,0,0,0,0,0,0,0,0,-1,867,904,0,0
-350,120,0,0,0,0,0,0,0,0,0,-1,874,904,0,0
-343,120,0,0,0,0,0,0,0,0,0,-1,881,904,0,0
-336,120,0,0,0,0,0,0,0,0,0,-1,888,904,0,0
-329,120,0,0,0,0,0,0,0,0,0,-1,895,904,0,0
-322,120,0,0,0,0,0,0,0,0,0,-1,902,904,0,0
-315,120,0,0,0,0,0,0,0,0,0,-1,909,904,0,0
-308,120,0,0,0,0,0,0,0,0,0,-1,916,904,0,0
-301,120,0,0,0,0,0,0,0,0,0,-1,923,904,0,0
-294,120,0,0,0,0,0,0,0,0,0,-1,930,904,0,0
-287,120,0,0,0,0,0,0,0,0,0,-1,937,904,0,0
-280,120,0,0,0,0,0,0,0,0,0,-1,944,904,0,0
-273,120,0,0,0,0,0,0,0,0,0,-1,951,904,0,0
-266,120,0,0,0,0,0,0,0,0,0,-1,958,904,0,0
-259,120,0,0,0,0,0,0,0,0,0,-1,965,904,0,0
-252,120,0,0,0,0,0,0,0,0,0,-1,972,904,0,0
-245,120,0,0,0,0,0,0,0,0,0,-1,979,904,0,0
-238,120,0,0,0,0,0,0,0,0,0,-1,986,904,0,0
-231,120,0,0,0,0,0,0,0,0,0,-1,993,904,0,0
-224,120,0,0,0,0,0,0,0,0,0,-1,1000,904,0,0
-217,120,0,0,0,0,0,0,0,0,0,-1,1007,904,0,0
-210,120,0,0,0,0,0,0,0,0,0,-1,1014,904,0,0
-203,120,0,0,0,0,0,0,0,0,0,-1,1021,904,0,0
-196,120,0,0,0,0,0,0,0,0,0,-1,1028,904,0,0
-189,120,0,0,0,0,0,0,0,0,0,-1,1035,904,0,0
-182,120,0,0,0,0,0,0,0,0,0,-1,1042,904,0,0
-175,120,0,0,0,0,0,0,0,0,0,-1,1049,904,0,0
-168,120,0,0,0,0,0,0,0,0,0,-1,1056,904,0,0
-161,120,0,0,0,0,0,0,0,0,0,-1,1063,904,0,0
-154,120,0,0,0,0,0,0,0,0,0,-1,1070,904,0,0
-147,120,0,0,0,0,0,0,0,0,0,-1,1077,904,0,0
-140,120,0,0,0,0,0,0,0,0,0,-1,1084,904,0,0
-133,120,0,0,0,0,0,0,0,0,0,-1,1091,904,0,0
-126,120,0,0,0,0,0,0,0,0,0,-1,1098,904,0,0
-119,120,0,0,0,0,0,0,0,0,0,-1,1105,904,0,0
-112,120,0,0,0,0,0,0,0,0,0,-1,1112,904,0,0
-105,120,0,0,0,0,0,0,0,0,0,-1,1119,904,0,0
-98,120,0,0,0,0,0,0,0,0,0,-1,1126,904,0,0
-91,120,0,0,0,0,0,0,0,0,0,-1,1133,904,0,0
-84,120,0,0,0,0,0,0,0,0,0,-1,1140,904,0,0
-77,120,0,0,0,0,0,0,0,0,0,-1,1147,904,0,0
-70,120,0,0,0,0,0,0,0,0,0,-1,1154,904,0,0
-63,120,0,0,0,0,0,0,0,0,0,-1,1161,904,0,0
-56,120,0,0,0,0,0,0,0,0,0,-1,1168,904,0,0
-49,120,0,0,0,0,0,0,0,0,0,-1,1175,904,0,0
-42,120,0,0,0,0,0,0,0,0,0,-1,1182,904,0,0
-35,120,0,0,0,0,0,0,0,0,0,-1,1189,904,0,0
-28,120,0,0,0,0,0,0,0,0,0,-1,1196,904,0,0
-21,120,0,0,0,0,0,0,0,0,0,-1,1203,904,0,0
-14,120,0,0,0,0,0,0,0,0,0,-1,1210,904,0,0
-7,120,0,0,0,0,0,0,0,0,0,-1,1217,904,0,0
0,120,0,0,0,0,0,0,0,0,0,-1,1224,904,0,0
7,120,0,0,0,0,0,0,0,0,0,-1,1231,904,0,0
14,120,0,0,0,0,0,0,0,0,0,-1,1238,904,0,0
21,120,0,0,0,0,0,0,0,0,0,-1,1245,904,0,0
28,120,0,0,0,0,0,0,0,0,0,-1,1252,904,0,0
35,120,0,0,0,0,0,0,0,0,0,-1,1259,904,0,0
42,120,0,0,0,0,0,0,0,0,0,-1,1266,904,0,0
49,120,0,0,0,0,0,0,0,0,0,-1,1273,904,0,0
56,120,0,0,0,0,0,0,0,0,0,-1,1280,904,0,0
63,120,0,0,0,0,0,0,0,0,0,-1,1287,904,0,0
70,120,0,0,0,0,0,0,0,0,0,-1,1294,904,0,0
77,120,0,0,0,0,0,0,0,0,0,-1,1301,904,0,0
84,120,0,0,0,0,0,0,0,0,0,-1,1308,904,0,0
91,120,0,0,0,0,0,0,0,0,0,-1,1315,904,0,0
98,120,0,0,0,0,0,0,0,0,0,-1,1322,904,0,0
105,120,0,0,0,0,0,0,0,0,0,-1,1329,904,0,0
112,120,0,0,0,0,0,0,0,0,0,-1,1336,904,0,0
119,120,0,0,0,0,0,0,0,0,0,-1,1343,904,0,0
126,120,0,0,0,0,0,0,0,0,0,-1,1350,904,0,0
133,120,0,0,0,0,0,0,0,0,0,-1,1357,904,0,0
140,120,0,0,0,0,0,0,0,0,0,-1,1364,904,0,0
147,120,0,0,0,0,0,0,0,0,0,-1,1371,904,0,0
154,120,0,0,0,0,0,0,0,0,0,-1,1378,904,0,0
161,120,0,0,0,0,0,0,0,0,0,-1,1385,904,0,0
168,120,0,0,0,0,0,0,0,0,0,-1,1392,904,0,0
175,120,0,0,0,0,0,0,0,0,0,-1,1399,904,0,0
182,120,0,0,0,0,0,0,0,0,0,-1,1406,904,0,0
189,120,0,0,0,0,0,0,0,0,0,-1,1413,904,0,0
196,120,0,0,0,0,0,0,0,0,0,-1,1420,904,0,0
203,120,0,0,0,0,0,0,0,0,0,-1,1427,904,0,0
210,120,0,0,0,0,0,0,0,0,0,-1,1434,904,0,0
217,120,0,0,0,0,0,0,0,0,0,-1,1441,904,0,0
224,120,0,0,0,0,0,0,0,0,0,-1,1448,904,0,0
231,120,0,0,0,0,0,0,0,0,0,-1,1455,904,0,0
238,120,0,0,0,0,0,0,0,0,0,-1,1462,904,0,0
245,120,0,0,0,0,0,0,0,0,0,-1,1469,904,0,0
252,120,0,0,0,0,0,0,0,0,0,-1,1476,904,0,0
259,120,0,0,0,0,0,0,0,0,0,-1,1483,904,0,0
266,120,0,0,0,0,0,0,0,0,0,-1,1490,904,0,0
273,120,0,0,0,0,0,0,0,0,0,-1,1497,904,0,0
280,120,0,0,0,0,0,0,0,0,0,-1,1504,904,0,0
287,120,0,0,0,0,0,0,0,0,0,-1,1511,904,0,0
294,120,0,0,0,0,0,0,0,0,0,-1,1518,904,0,0
301,120,0,0,0,0,0,0,0,0,0,-1,1525,904,0,0
308,120,0,0,0,0,0,0,0,0,0,-1,1532,904,0,0
315,120,0,0,0,0,0,0,0,0,0,-1,1539,904,0,0
322,120,0,0,0,0,0,0,0,0,0,-1,1546,904,0,0
329,120,0,0,0,0,0,0,0,0,0,-1,1553,904,0,0
336,120,0,0,0,0,0,0,0,0,0,-1,1560,904,0,0
343,120,0,0,0,0,0,0,0,0,0,-1,1567,904,0,0
350,120,0,0,0,0,0,0,0,0,0,-1,1574,904,0,0
357,120,0,0,0,0,0,0,0,0,0,-1,1581,904,0,0
364,120,0,0,0,0,0,0,0,0,0,-1,1588,904,0,0
371,120,0,0,0,0,0,0,0,0,0,-1,1595,904,0,0
378,120,0,0,0,0,0,0,0,0,0,-1,1602,904,0,0
385,120,0,0,0,0,0,0,0,0,0,-1,1609,904,0,0
392,120,0,0,0,0,0,0,0,0,0,-1,1616,904,0,0
399,120,0,0,0,0,0,0,0,0,0,-1,1623,904,0,0
406,120,0,0,0,0,0,0,0,0,0,-1,1630,904,0,0
413,120,0,0,0,0,0,0,0,0,0,-1,1637,904,0,0
420,120,0,0,0,0,0,0,0,0,0,-1,1644,904,0,0
427,120,0,0,0,0,0,0,0,0,0,-1,1651,904,0,0
434,120,0,0,0,0,0,0,0,0,0,-1,1658,904,0,0
441,120,0,0,0,0,0,0,0,0,0,-1,1665,904,0,0
448,120,0,0,0,0,0,0,0,0,0,-1,1672,904,0,0
455,120,0,0,0,0,0,0,0,0,0,-1,1679,904,0,0
462,120,0,0,0,0,0,0,0,0,0,-1,1686,904,0,0
469,120,0,0,0,0,0,0,0,0,0,-1,1693,904,0,0
476,120,0,0,0,0,0,0,0,0,0,-1,1700,904,0,0
483,120,0,0,0,0,0,0,0,0,0,-1,1707,904,0,0
490,120,0,0,0,0,0,0,0,0,0,-1,1714,904,0,0
497,120,0,0,0,0,0,0,0,0,0,-1,1721,904,0,0
504,120,0,0,0,0,0,0,0,0,0,-1,1728,904,0,0
511,120,0,0,0,0,0,0,0,0,0,-1,1735,904,0,0
518,120,0,0,0,0,0,0,0,0,0,-1,1742,904,0,0
525,120,0,0,0,0,0,0,0,0,0,-1,1749,904,0,0
532,120,0,0,0,0,0,0,0,0,0,-1,1756,904,0,0
539,120,0,0,0,0,0,0,0,0,0,-1,1763,904,0,0
546,120,0,0,0,0,0,0,0,0,0,-1,1770,904,0,0
553,120,0,0,0,0,0,0,0,0,0,-1,1777,904,0,0
560,120,0,0,0,0,0,0,0,0,0,-1,1784,904,0,0
567,120,0,0,0,0,0,0,0,0,0,-1,1791,904,0,0
574,120,0,0,0,0,0,0,0,0,0,-1,1798,904,0,0
581,120,0,0,0,0,0,0,0,0,0,-1,1805,904,0,0
588,120,0,0,0,0,0,0,0,0,0,-1,1812,904,0,0
595,120,0,0,0,0,0,0,0,0,0,-1,1819,904,0,0
602,120,0,0,0,0,0,0,0,0,0,-1,1826,904,0,0
609,120,0,0,0,0,0,0,0,0,0,-1,1833,904,0,0
616,120,0,0,0,0,0,0,0,0,0,-1,1840,904,0,0
623,120,0,0,0,0,0,0,0,0,0,-1,1847,904,0,0
630,120,56.6034,2.37817,-0.0057068,0.00867561,0.00631357,0.0110539,-0.00808506,1.21054,0.0110941,0.0429245,1854,904,56.6034,-2.37815
637,120,56.637,2.29041,-0.00501242,0.00620736,0.00448948,0.00778261,-0.00658767,1.23334,0.00830624,0.042394,1861,904,56.637,-2.29038
644,120,56.5131,2.34943,-0.00426152,0.00438688,0.00311996,0.00539493,-0.00526957,1.25829,0.00615729,0.0384005,1868,904,56.513,-2.34943
651,120,56.3696,2.37469,-0.00355413,0.00317107,0.00211813,0.00378258,-0.00416564,1.28974,0.00459069,0.0382485,1875,904,56.3697,-2.37467
658,120,56.3402,2.62396,-0.002978,0.00222738,0.00135332,0.0025582,-0.00330882,1.33105,0.00339655,0.0412475,1882,904,56.3402,-2.62394
665,120,56.4446,2.63818,-0.00242148,0.00174392,0.00100308,0.00197288,-0.00265045,1.34638,0.00267882,0.0379238,1889,904,56.4445,-2.63816
672,120,56.4443,2.57416,-0.00214401,0.00121519,0.000780777,0.0013878,-0.00231661,1.35323,0.00216104,0.0360012,1896,904,56.4443,-2.57419
679,120,56.4194,2.5174,-0.00185316,0.000764473,0.000575373,0.000885361,-0.00197405,1.3637,0.00169029,0.0322961,1903,904,56.4194,-2.51739
686,120,56.4309,2.56573,-0.00170228,0.000525317,0.000444358,0.000610685,-0.00178765,1.38099,0.00143918,0.0283377,1910,904,56.4309,-2.56571
693,120,56.467,2.57532,0,0,0,0,0,0,0,-1,1917,904,56.4671,-2.57535
700,120,42.2007,3.00946,0,0,0,0,0,0,0,-1,1924,904,42.2007,-3.00944
707,120,50.2345,3.19611,0,0,0,0,0,0,0,-1,1931,904,50.2344,-3.1961
714,120,50.4215,3.83881,-0.00203373,0.000769106,-0.000637912,0.000907463,-0.00217209,-1.35722,0.00182727,0.0233866,1938,904,50.4215,-3.83883
721,120,50.3793,4.38446,-0.00227626,0.00106359,-0.000936138,0.00130808,-0.00252075,-1.31533,0.00224723,0.0198979,1945,904,50.3793,-4.38443
728,120,50.2856,4.94952,-0.00285564,0.00156074,-0.0011697,0.00185141,-0.00314631,-1.32723,0.00291754,0.0140581,1952,904,50.2857,-4.94955
735,120,50.2549,5.46802,-0.00339943,0.00232127,-0.00163124,0.00275372,-0.00383189,-1.31165,0.00381915,0.0144899,1959,904,50.2549,-5.46804
742,120,50.2207,6.03369,-0.00374197,0.00347507,-0.00276508,0.00441266,-0.00467956,-1.24388,0.00525014,0.0152489,1966,904,50.2207,-6.0337
749,120,50.1754,6.54913,-0.00410821,0.00508271,-0.00391615,0.00652501,-0.00555051,-1.21792,0.00697937,0.0119413,1973,904,50.1754,-6.54915
756,120,50.099,7.07513,-0.00400264,0.00680824,-0.00531059,0.00898047,-0.00617488,-1.18252,0.00879978,0.0148827,1980,904,50.099,-7.07515
763,120,49.9935,7.59424,-0.00308299,0.00819283,-0.00719112,0.0116927,-0.00658282,-1.11786,0.0106879,0.0296376,1987,904,49.9936,-7.59423
770,120,49.9214,8.11328,0,0,0,0,0,0,0,-1,1994,904,49.9214,-8.11329
777,120,41.3512,6.78638,0,0,0,0,0,0,0,-1,2001,904,41.3512,-6.78635
784,120,43.5239,5.77271,0,0,0,0,0,0,0,-1,2008,904,43.524,-5.77269
791,120,41.957,6.00659,0,0,0,0,0,0,0,-1,2015,904,41.957,-6.00662
798,120,42.4553,5.6944,0,0,0,0,0,0,0,-1,2022,904,42.4552,-5.69439
805,120,0,0,0,0,0,0,0,0,0,-1,2029,904,0,0
812,120,0,0,0,0,0,0,0,0,0,-1,2036,904,0,0
-700,113,0,0,0,0,0,0,0,0,0,-1,524,911,0,0
-693,113,0,0,0,0,0,0,0,0,0,-1,531,911,0,0
-686,113,0,0,0,0,0,0,0,0,0,-1,538,911,0,0
-679,113,-36.4636,6.26599,0,0,0,0,0,0,0,-1,545,911,-36.4636,-6.26599
-672,113,-37.4512,2.8244,0,0,0,0,0,0,0,-1,552,911,-37.4512,-2.82438
-665,113,-37.1398,8.44916,0,0,0,0,0,0,0,-1,559,911,-37.1398,-8.44913
-658,113,-37.1281,2.40698,0,0,0,0,0,0,0,-1,566,911,-37.1281,-2.40697
-651,113,-37.0688,5.01025,0,0,0,0,0,0,0,-1,573,911,-37.0688,-5.01027
-644,113,-38.0602,5.58643,0,0,0,0,0,0,0,-1,580,911,-38.0603,-5.58641
-637,113,-38.0372,5.16254,0.00136449,0.0545873,-0.0110737,0.0567994,-0.000847587,-1.37363,0.0381519,0.0438821,587,911,-38.0372,-5.16251
-630,113,-37.9245,4.84082,-0.000892299,0.0362122,-0.00620437,0.0372222,-0.00190226,-1.40943,0.0254726,0.0204932,594,911,-37.9245,-4.84081
-623,113,-38.0259,4.35651,-0.00239432,0.0223431,-0.0024862,0.0225905,-0.00264172,-1.47161,0.0160137,0.0124444,601,911,-38.0259,-4.35651
-616,113,-38.0453,3.87634,-0.00328504,0.0122796,0.000269429,0.0122843,-0.00328971,1.55349,0.00947832,0.0116709,608,911,-38.0453,-3.87633
-609,113,-38.0379,3.3869,-0.00376972,0.00471977,0.0019541,0.00514797,-0.00419792,1.35508,0.00540513,0.0123627,615,911,-38.0379,-3.38693
-602,113,-38.0536,2.85046,-0.00375304,0.00184738,0.0024819,0.00278896,-0.00469462,1.20819,0.00436709,0.020148,622,911,-38.0536,-2.85044
-595,113,-38.1212,2.49323,-0.00342367,0.00083898,0.0022384,0.00179845,-0.00438313,1.16585,0.00367146,0.0277122,629,911,-38.1211,-2.49321
-588,113,-38.0648,1.95374,-0.00308578,0.00030457,0.00200629,0.00123596,-0.00401717,1.13617,0.00317142,0.033227,636,911,-38.0648,-1.95376
-581,113,-38.0594,1.4223,-0.00276764,0.000187257,0.00177393,0.00101842,-0.0035988,1.13263,0.00280108,0.0332683,643,911,-38.0594,-1.42228
-574,113,-38.0384,0.72583,0,0,0,0,0,0,0,-1,650,911,-38.0384,-0.725838
-567,113,-21.8396,0.437378,0,0,0,0,0,0,0,-1,657,911,-21.8396,-0.437351
-560,113,-42.3813,1.08832,0,0,0,0,0,0,0,-1,664,911,-42.3813,-1.08834
-553,113,-42.4554,0.81543,-0.00178011,-1.7301e-05,3.72878e-06,-1.7293e-05,-0.00178012,1.56868,0.00118103,0.0431558,671,911,-42.4554,-0.815405
-546,113,-42.4128,0.656311,-0.00170217,0.00010714,-0.000457809,0.000216384,-0.00181141,-1.33655,0.00128582,0.0363854,678,911,-42.4128,-0.656334
-539,113,-42.314,0.810486,-0.00135251,0.000233531,-0.000887072,0.000630375,-0.00174935,-1.15014,0.00142367,0.035153,685,911,-42.314,-0.810457
-532,113,-42.3983,0.976135,-0.000789637,0.000144903,-0.00102675,0.000805707,-0.00145044,-0.998941,0.0013202,0.0373423,692,911,-42.3983,-0.976112
-525,113,-42.4778,0.923767,-0.000491005,-0.000707301,-0.000931363,0.000338469,-0.00153677,-0.727598,0.001154,0.0387732,699,911,-42.4778,-0.923773
-518,113,-42.5723,0.760132,-0.000209836,-0.00166789,-0.000759452,0.00011387,-0.0019916,-0.402917,0.00136727,0.0401049,706,911,-42.5723,-0.760135
-511,113,-42.5845,0.93988,0.000357447,-0.00257141,-0.000694161,0.000513639,-0.0027276,-0.221322,0.00201159,0.0407842,713,911,-42.5845,-0.939879
-504,113,0,0,0,0,0,0,0,0,0,-1,720,911,0,0
-497,113,0,0,0,0,0,0,0,0,0,-1,727,911,0,0
-490,113,0,0,0,0,0,0,0,0,0,-1,734,911,0,0
-483,113,0,0,0,0,0,0,0,0,0,-1,741,911,0,0
-476,113,0,0,0,0,0,0,0,0,0,-1,748,911,0,0
-469,113,0,0,0,0,0,0,0,0,0,-1,755,911,0,0
-462,113,0,0,0,0,0,0,0,0,0,-1,762,911,0,0
-455,113,0,0,0,0,0,0,0,0,0,-1,769,911,0,0
-448,113,0,0,0,0,0,0,0,0,0,-1,776,911,0,0
-441,113,0,0,0,0,0,0,0,0,0,-1,783,911,0,0
-434,113,0,0,0,0,0,0,0,0,0,-1,790,911,0,0
-427,113,0,0,0,0,0,0,0,0,0,-1,797,911,0,0
-420,113,0,0,0,0,0,0,0,0,0,-1,804,911,0,0
-413,113,0,0,0,0,0,0,0,0,0,-1,811,911,0,0
-406,113,0,0,0,0,0,0,0,0,0,-1,818,911,0,0
-399,113,0,0,0,0,0,0,0,0,0,-1,825,911,0,0
-392,113,0,0,0,0,0,0,0,0,0,-1,832,911,0,0
-385,113,0,0,0,0,0,0,0,0,0,-1,839,911,0,0
-378,113,0,0,0,0,0,0,0,0,0,-1,846,911,0,0
-371,113,0,0,0,0,0,0,0,0,0,-1,853,911,0,0
-364,113,0,0,0,0,0,0,0,0,0,-1,860,911,0,0
-357,113,0,0,0,0,0,0,0,0,0,-1,867,911,0,0
-350,113,0,0,0,0,0,0,0,0,0,-1,874,911,0,0
-343,113,0,0,0,0,0,0,0,0,0,-1,881,911,0,0
-336,113,0,0,0,0,0,0,0,0,0,-1,888,911,0,0
-329,113,0,0,0,0,0,0,0,0,0,-1,895,911,0,0
-322,113,0,0,0,0,0,0,0,0,0,-1,902,911,0,0
-315,113,0,0,0,0,0,0,0,0,0,-1,909,911,0,0
-308,113,0,0,0,0,0,0,0,0,0,-1,916,911,0,0
-301,113,0,0,0,0,0,0,0,0,0,-1,923,911,0,0
-294,113,0,0,0,0,0,0,0,0,0,-1,930,911,0,0
-287,113,0,0,0,0,0,0,0,0,0,-1,937,911,0,0
-280,113,0,0,0,0,0,0,0,0,0,-1,944,911,0,0
-273,113,0,0,0,0,0,0,0,0,0,-1,951,911,0,0
-266,113,0,0,0,0,0,0,0,0,0,-1,958,911,0,0
-259,113,0,0,0,0,0,0,0,0,0,-1,965,911,0,0
-252,113,0,0,0,0,0,0,0,0,0,-1,972,911,0,0
-245,113,0,0,0,0,0,0,0,0,0,-1,979,911,0,0
-238,113,0,0,0,0,0,0,0,0,0,-1,986,911,0,0
-231,113,0,0,0,0,0,0,0,0,0,-1,993,911,0,0
-224,113,0,0,0,0,0,0,0,0,0,-1,1000,911,0,0
-217,113,0,0,0,0,0,0,0,0,0,-1,1007,911,0,0
-210,113,0,0,0,0,0,0,0,0,0,-1,1014,911,0,0
-203,113,0,0,0,0,0,0,0,0,0,-1,1021,911,0,0
-196,113,0,0,0,0,0,0,0,0,0,-1,1028,911,0,0
-189,113,0,0,0,0,0,0,0,0,0,-1,1035,911,0,0
-182,113,0,0,0,0,0,0,0,0,0,-1,1042,911,0,0
-175,113,0,0,0,0,0,0,0,0,0,-1,1049,911,0,0
-168,113,0,0,0,0,0,0,0,0,0,-1,1056,911,0,0
-161,113,0,0,0,0,0,0,0,0,0,-1,1063,911,0,0
-154,113,0,0,0,0,0,0,0,0,0,-1,1070,911,0,0
-147,113,0,0,0,0,0,0,0,0,0,-1,1077,911,0,0
-140,113,0,0,0,0,0,0,0,0,0,-1,1084,911,0,0
-133,113,0,0,0,0,0,0,0,0,0,-1,1091,911,0,0
-126,113,0,0,0,0,0,0,0,0,0,-1,1098,911,0,0
-119,113,0,0,0,0,0,0,0,0,0,-1,1105,911,0,0
-112,113,0,0,0,0,0,0,0,0,0,-1,1112,911,0,0
-105,113,0,0,0,0,0,0,0,0,0,-1,1119,911,0,0
-98,113,0,0,0,0,0,0,0,0,0,-1,1126,911,0,0
-91,113,0,0,0,0,0,0,0,0,0,-1,1133,911,0,0
-84,113,0,0,0,0,0,0,0,0,0,-1,1140,911,0,0
-77,113,0,0,0,0,0,0,0,0,0,-1,1147,911,0,0
-70,113,0,0,0,0,0,0,0,0,0,-1,1154,911,0,0
-63,113,0,0,0,0,0,0,0,0,0,-1,1161,911,0,0
-56,113,0,0,0,0,0,0,0,0,0,-1,1168,911,0,0
-49,113,0,0,0,0,0,0,0,0,0,-1,1175,911,0,0
-42,113,0,0,0,0,0,0,0,0,0,-1,1182,911,0,0
-35,113,0,0,0,0,0,0,0,0,0,-1,1189,911,0,0
-28,113,0,0,0,0,0,0,0,0,0,-1,1196,911,0,0
-21,113,0,0,0,0,0,0,0,0,0,-1,1203,911,0,0
-14,113,0,0,0,0,0,0,0,0,0,-1,1210,911,0,0
-7,113,0,0,0,0,0,0,0,0,0,-1,1217,911,0,0
0,113,0,0,0,0,0,0,0,0,0,-1,1224,911,0,0
7,113,0,0,0,0,0,0,0,0,0,-1,1231,911,0,0
14,113,0,0,0,0,0,0,0,0,0,-1,1238,911,0,0
21,113,0,0,0,0,0,0,0,0,0,-1,1245,911,0,0
28,113,0,0,0,0,0,0,0,0,0,-1,1252,911,0,0
35,113,0,0,0,0,0,0,0,0,0,-1,1259,911,0,0
42,113,0,0,0,0,0,0,0,0,0,-1,1266,911,0,0
49,113,0,0,0,0,0,0,0,0,0,-1,1273,911,0,0
56,113,0,0,0,0,0,0,0,0,0,-1,1280,911,0,0
63,113,0,0,0,0,0,0,0,0,0,-1,1287,911,0,0
70,113,0,0,0,0,0,0,0,0,0,-1,1294,911,0,0
77,113,0,0,0,0,0,0,0,0,0,-1,1301,911,0,0
84,113,0,0,0,0,0,0,0,0,0,-1,1308,911,0,0
91,113,0,0,0,0,0,0,0,0,0,-1,1315,911,0,0
98,113,0,0,0,0,0,0,0,0,0,-1,1322,911,0,0
105,113,0,0,0,0,0,0,0,0,0,-1,1329,911,0,0
112,113,0,0,0,0,0,0,0,0,0,-1,1336,911,0,0
119,113,0,0,0,0,0,0,0,0,0,-1,1343,911,0,0
126,113,0,0,0,0,0,0,0,0,0,-1,1350,911,0,0
133,113,0,0,0,0,0,0,0,0,0,-1,1357,911,0,0
140,113,0,0,0,0,0,0,0,0,0,-1,1364,911,0,0
147,113,0,0,0,0,0,0,0,0,0,-1,1371,911,0,0
154,113,0,0,0,0,0,0,0,0,0,-1,1378,911,0,0
161,113,0,0,0,0,0,0,0,0,0,-1,1385,911,0,0
168,113,0,0,0,0,0,0,0,0,0,-1,1392,911,0,0
175,113,0,0,0,0,0,0,0,0,0,-1,1399,911,0,0
182,113,0,0,0,0,0,0,0,0,0,-1,1406,911,0,0
189,113,0,0,0,0,0,0,0,0,0,-1,1413,911,0,0
196,113,0,0,0,0,0,0,0,0,0,-1,1420,911,0,0
203,113,0,0,0,0,0,0,0,0,0,-1,1427,911,0,0
210,113,0,0,0,0,0,0,0,0,0,-1,1434,911,0,0
217,113,0,0,0,0,0,0,0,0,0,-1,1441,911,0,0
224,113,0,0,0,0,0,0,0,0,0,-1,1448,911,0,0
231,113,0,0,0,0,0,0,0,0,0,-1,1455,911,0,0
238,113,0,0,0,0,0,0,0,0,0,-1,1462,911,0,0
245,113,0,0,0,0,0,0,0,0,0,-1,1469,911,0,0
252,113,0,0,0,0,0,0,0,0,0,-1,1476,911,0,0
259,113,0,0,0,0,0,0,0,0,0,-1,1483,911,0,0
266,113,0,0,0,0,0,0,0,0,0,-1,1490,911,0,0
273,113,0,0,0,0,0,0,0,0,0,-1,1497,911,0,0
280,113,0,0,0,0,0,0,0,0,0,-1,1504,911,0,0
287,113,0,0,0,0,0,0,0,0,0,-1,1511,911,0,0
294,113,0,0,0,0,0,0,0,0,0,-1,1518,911,0,0
301,113,0,0,0,0,0,0,0,0,0,-1,1525,911,0,0
308,113,0,0,0,0,0,0,0,0,0,-1,1532,911,0,0
315,113,0,0,0,0,0,0,0,0,0,-1,1539,911,0,0
322,113,0,0,0,0,0,0,0,0,0,-1,1546,911,0,0
329,113,0,0,0,0,0,0,0,0,0,-1,1553,911,0,0
336,113,0,0,0,0,0,0,0,0,0,-1,1560,911,0,0
343,113,0,0,0,0,0,0,0,0,0,-1,1567,911,0,0
350,113,0,0,0,0,0,0,0,0,0,-1,1574,911,0,0
357,113,0,0,0,0,0,0,0,0,0,-1,1581,911,0,0
364,113,0,0,0,0,0,0,0,0,0,-1,1588,911,0,0
371,113,0,0,0,0,0,0,0,0,0,-1,1595,911,0,0
378,113,0,0,0,0,0,0,0,0,0,-1,1602,911,0,0
385,113,0,0,0,0,0,0,0,0,0,-1,1609,911,0,0
392,113,0,0,0,0,0,0,0,0,0,-1,1616,911,0,0
399,113,0,0,0,0,0,0,0,0,0,-1,1623,911,0,0
406,113,0,0,0,0,0,0,0,0,0,-1,1630,911,0,0
413,113,0,0,0,0,0,0,0,0,0,-1,1637,911,0,0
420,113,0,0,0,0,0,0,0,0,0,-1,1644,911,0,0
427,113,0,0,0,0,0,0,0,0,0,-1,1651,911,0,0
434,113,0,0,0,0,0,0,0,0,0,-1,1658,911,0,0
441,113,0,0,0,0,0,0,0,0,0,-1,1665,911,0,0
448,113,0,0,0,0,0,0,0,0,0,-1,1672,911,0,0
455,113,0,0,0,0,0,0,0,0,0,-1,1679,911,0,0
462,113,0,0,0,0,0,0,0,0,0,-1,1686,911,0,0
469,113,0,0,0,0,0,0,0,0,0,-1,1693,911,0,0
476,113,0,0,0,0,0,0,0,0,0,-1,1700,911,0,0
483,113,0,0,0,0,0,0,0,0,0,-1,1707,911,0,0
490,113,0,0,0,0,0,0,0,0,0,-1,1714,911,0,0
497,113,0,0,0,0,0,0,0,0,0,-1,1721,911,0,0
504,113,0,0,0,0,0,0,0,0,0,-1,1728,911,0,0
511,113,0,0,0,0,0,0,0,0,0,-1,1735,911,0,0
518,113,0,0,0,0,0,0,0,0,0,-1,1742,911,0,0
525,113,0,0,0,0,0,0,0,0,0,-1,1749,911,0,0
532,113,0,0,0,0,0,0,0,0,0,-1,1756,911,0,0
539,113,0,0,0,0,0,0,0,0,0,-1,1763,911,0,0
546,113,0,0,0,0,0,0,0,0,0,-1,1770,911,0,0
553,113,0,0,0,0,0,0,0,0,0,-1,1777,911,0,0
560,113,0,0,0,0,0,0,0,0,0,-1,1784,911,0,0
567,113,0,0,0,0,0,0,0,0,0,-1,1791,911,0,0
574,113,0,0,0,0,0,0,0,0,0,-1,1798,911,0,0
581,113,0,0,0,0,0,0,0,0,0,-1,1805,911,0,0
588,113,0,0,0,0,0,0,0,0,0,-1,1812,911,0,0
595,113,0,0,0,0,0,0,0,0,0,-1,1819,911,0,0
602,113,0,0,0,0,0,0,0,0,0,-1,1826,911,0,0
609,113,0,0,0,0,0,0,0,0,0,-1,1833,911,0,0
616,113,0,0,0,0,0,0,0,0,0,-1,1840,911,0,0
623,113,0,0,0,0,0,0,0,0,0,-1,1847,911,0,0
630,113,56.5632,2.55756,-0.00721741,0.00723733,0.0072004,0.010212,-0.010192,1.17903,0.0117802,0.041344,1854,911,56.5633,-2.55758
637,113,56.6538,2.51733,-0.00605964,0.00515012,0.00525988,0.00723166,-0.00814118,1.19397,0.00888069,0.0412988,1861,911,56.6538,-2.51732
644,113,56.509,2.70135,-0.00500111,0.00363391,0.00380409,0.0050707,-0.0064379,1.20966,0.00666011,0.0399976,1868,911,56.509,-2.70134
651,113,56.4281,2.48987,-0.00408329,0.00273094,0.00272333,0.00368558,-0.00503794,1.23364,0.00505666,0.0402014,1875,911,56.428,-2.48986
658,113,56.3988,2.41101,-0.00329901,0.00208924,0.00190326,0.00269371,-0.00390348,1.26328,0.00383017,0.0417016,1882,911,56.3988,-2.41099
665,113,56.4961,2.67578,-0.00257474,0.00176956,0.00145875,0.00221393,-0.00301911,1.2751,0.00303319,0.0388886,1889,911,56.4961,-2.6758
672,113,56.39,2.71552,-0.0022184,0.00135453,0.00120165,0.00172107,-0.00258494,1.27473,0.0025027,0.0378338,1896,911,56.3901,-2.7155
679,113,56.3997,2.58014,-0.00192632,0.00092333,0.000999627,0.00123902,-0.00224201,1.2649,0.00203739,0.0303669,1903,911,56.3997,-2.58016
686,113,56.4489,2.57056,-0.00176161,0.000664328,0.000826225,0.00091899,-0.00201628,1.27181,0.0017337,0.028368,1910,911,56.4488,-2.57055
693,113,56.3121,2.76776,0,0,0,0,0,0,0,-1,1917,911,56.3122,-2.76779
700,113,43.897,2.79669,0,0,0,0,0,0,0,-1,1924,911,43.897,-2.79671
707,113,50.7635,3.26178,0,0,0,0,0,0,0,-1,1931,911,50.7635,-3.26177
714,113,50.8627,3.7879,-0.00211964,0.000900965,-0.00046682,0.000971464,-0.00219014,-1.42091,0.00187001,0.0249512,1938,911,50.8627,-3.78792
721,113,50.8629,4.33032,-0.00238425,0.00117908,-0.000795169,0.00134847,-0.00255364,-1.36091,0.00228842,0.0244504,1945,911,50.8629,-4.33029
728,113,50.869,4.95746,-0.00295436,0.00166148,-0.00103301,0.00188212,-0.003175,-1.36037,0.00295136,0.0247984,1952,911,50.869,-4.95745
735,113,50.8323,5.49176,-0.00340645,0.00243674,-0.00151437,0.0028059,-0.0037756,-1.33169,0.00381355,0.0216126,1959,911,50.8322,-5.49177
742,113,50.7754,5.98468,-0.00354364,0.00366625,-0.00281389,0.00463445,-0.00451184,-1.23941,0.00528077,0.0137316,1966,911,50.7753,-5.98467
749,113,50.7826,6.5321,-0.00363,0.00544694,-0.004166,0.00706909,-0.00525215,-1.19948,0.00713941,0.01067,1973,911,50.7825,-6.53211
756,113,50.6903,7.10815,-0.00319067,0.00749983,-0.00582334,0.0100592,-0.00575004,-1.15671,0.00923979,0.014905,1980,911,50.6904,-7.10817
763,113,50.5104,7.73676,-0.00189223,0.00930665,-0.00800311,0.0134747,-0.00606026,-1.09065,0.0115461,0.0313598,1987,911,50.5103,-7.73675
770,113,50.3439,8.3493,0,0,0,0,0,0,0,-1,1994,911,50.3439,-8.34932
777,113,50.5425,8.80872,0,0,0,0,0,0,0,-1,2001,911,50.5425,-8.8087
784,113,42.8354,6.22766,0,0,0,0,0,0,0,-1,2008,911,42.8355,-6.22766
791,113,41.7288,7.26263,0,0,0,0,0,0,0,-1,2015,911,41.7287,-7.26261
798,113,46.2527,8.20587,0,0,0,0,0,0,0,-1,2022,911,46.2528,-8.20587
805,113,0,0,0,0,0,0,0,0,0,-1,2029,911,0,0
812,113,0,0,0,0,0,0,0,0,0,-1,2036,911,0,0
-700,106,0,0,0,0,0,0,0,0,0,-1,524,918,0,0
-693,106,0,0,0,0,0,0,0,0,0,-1,531,918,0,0
-686,106,0,0,0,0,0,0,0,0,0,-1,538,918,0,0
-679,106,-37.7096,5.84631,0,0,0,0,0,0,0,-1,545,918,-37.7096,-5.84632
-672,106,-36.9965,6.33636,0,0,0,0,0,0,0,-1,552,918,-36.9965,-6.33637
-665,106,-37.1927,7.62671,0,0,0,0,0,0,0,-1,559,918,-37.1927,-7.62674
-658,106,-36.1431,4.95593,0,0,0,0,0,0,0,-1,566,918,-36.1431,-4.95595
-651,106,-37.4219,6.97137,0,0,0,0,0,0,0,-1,573,918,-37.4219,-6.97138
-644,106,-38.045,6.01239,0,0,0,0,0,0,0,-1,580,918,-38.045,-6.01241
-637,106,-38.1276,5.39777,-0.00338847,0.0496674,-0.00623933,0.0503913,-0.00411234,-1.4553,0.0350455,0.0341071,587,918,-38.1276,-5.39774
-630,106,-38.4204,4.91998,-0.00397497,0.0329442,-0.0023163,0.0330889,-0.00411973,-1.50838,0.0235529,0.0162641,594,918,-38.4204,-4.92001
-623,106,-38.5816,4.32965,-0.00421747,0.0199855,0.000346376,0.0199904,-0.00422243,1.55649,0.0149347,0.0172912,601,918,-38.5816,-4.32964
-616,106,-38.6166,3.83557,-0.00420721,0.0108181,0.00196601,0.0110711,-0.0044602,1.44282,0.00923382,0.0176477,608,918,-38.6166,-3.83554
-609,106,-38.5934,3.37585,-0.00413242,0.00406964,0.00269643,0.00487668,-0.00493946,1.27998,0.00566739,0.013597,615,918,-38.5934,-3.37584
-602,106,-38.6028,2.86871,-0.00396714,0.00148065,0.00265004,0.00255706,-0.00504355,1.18497,0.0044658,0.021365,622,918,-38.6029,-2.8687
-595,106,-38.7531,2.4248,-0.00365044,0.000598862,0.00215701,0.00150189,-0.00455346,1.17432,0.00364103,0.0258861,629,918,-38.7531,-2.42479
-588,106,-38.8744,1.95703,0,0,0,0,0,0,0,-1,636,918,-38.8744,-1.95705
-581,106,-38.5867,1.3642,0,0,0,0,0,0,0,-1,643,918,-38.5867,-1.3642
-574,106,-38.6251,0.850769,0,0,0,0,0,0,0,-1,650,918,-38.6251,-0.850783
-567,106,-36.2079,0.840881,0,0,0,0,0,0,0,-1,657,918,-36.208,-0.840858
-560,106,-42.4709,0.928467,0,0,0,0,0,0,0,-1,664,918,-42.4709,-0.928481
-553,106,-42.5311,0.859924,-0.0020399,-4.73341e-05,-0.00033649,7.95547e-06,-0.00209519,-1.40794,0.00139945,0.0342888,671,918,-42.531,-0.859952
-546,106,-42.4412,0.748047,-0.00193773,0.000134185,-0.00072444,0.000362356,-0.00216591,-1.26567,0.00157865,0.0373071,678,918,-42.4412,-0.748043
-539,106,-42.336,0.620056,-0.00151893,0.000310426,-0.00102009,0.000765867,-0.00197437,-1.15088,0.00163256,0.0406393,685,918,-42.336,-0.620064
-532,106,-42.353,0.732666,-0.000824261,0.000228391,-0.000990188,0.000823444,-0.00141931,-1.02968,0.00131,0.0418726,692,918,-42.3531,-0.732664
-525,106,-42.4489,0.752197,-0.000291059,-0.000438552,-0.00073503,0.000373915,-0.00110353,-0.7354,0.000886994,0.0392752,699,918,-42.4488,-0.752213
-518,106,-42.5048,0.589905,0.000187317,-0.00109089,-0.000664553,0.000470213,-0.00137379,-0.402458,0.00110642,0.0381531,706,918,-42.5048,-0.589923
-511,106,0,0,0,0,0,0,0,0,0,-1,713,918,0,0
-504,106,0,0,0,0,0,0,0,0,0,-1,720,918,0,0
-497,106,0,0,0,0,0,0,0,0,0,-1,727,918,0,0
-490,106,0,0,0,0,0,0,0,0,0,-1,734,918,0,0
-483,106,0,0,0,0,0,0,0,0,0,-1,741,918,0,0
-476,106,0,0,0,0,0,0,0,0,0,-1,748,918,0,0
-469,106,0,0,0,0,0,0,0,0,0,-1,755,918,0,0
-462,106,0,0,0,0,0,0,0,0,0,-1,762,918,0,0
-455,106,0,0,0,0,0,0,0,0,0,-1,769,918,0,0
-448,106,0,0,0,0,0,0,0,0,0,-1,776,918,0,0
-441,106,0,0,0,0,0,0,0,0,0,-1,783,918,0,0
-434,106,0,0,0,0,0,0,0,0,0,-1,790,918,0,0
-427,106,0,0,0,0,0,0,0,0,0,-1,797,918,0,0
-420,106,0,0,0,0,0,0,0,0,0,-1,804,918,0,0
-413,106,0,0,0,0,0,0,0,0,0,-1,811,918,0,0
-406,106,0,0,0,0,0,0,0,0,0,-1,818,918,0,0
-399,106,0,0,0,0,0,0,0,0,0,-1,825,918,0,0
-392,106,0,0,0,0,0,0,0,0,0,-1,832,918,0,0
-385,106,0,0,0,0,0,0,0,0,0,-1,839,918,0,0
-378,106,0,0,0,0,0,0,0,0,0,-1,846,918,0,0
-371,106,0,0,0,0,0,0,0,0,0,-1,853,918,0,0
-364,106,0,0,0,0,0,0,0,0,0,-1,860,918,0,0
-357,106,0,0,0,0,0,0,0,0,0,-1,867,918,0,0
-350,106,0,0,0,0,0,0,0,0,0,-1,874,918,0,0
-343,106,0,0,0,0,0,0,0,0,0,-1,881,918,0,0
-336,106,0,0,0,0,0,0,0,0,0,-1,888,918,0,0
-329,106,0,0,0,0,0,0,0,0,0,-1,895,918,0,0
-322,106,0,0,0,0,0,0,0,0,0,-1,902,918,0,0
-315,106,0,0,0,0,0,0,0,0,0,-1,909,918,0,0
-308,106,0,0,0,0,0,0,0,0,0,-1,916,918,0,0
-301,106,0,0,0,0,0,0,0,0,0,-1,923,918,0,0
-294,106,0,0,0,0,0,0,0,0,0,-1,930,918,0,0
-287,106,0,0,0,0,0,0,0,0,0,-1,937,918,0,0
-280,106,0,0,0,0,0,0,0,0,0,-1,944,918,0,0
-273,106,0,0,0,0,0,0,0,0,0,-1,951,918,0,0
-266,106,0,0,0,0,0,0,0,0,0,-1,958,918,0,0
-259,106,0,0,0,0,0,0,0,0,0,-1,965,918,0,0
-252,106,0,0,0,0,0,0,0,0,0,-1,972,918,0,0
-245,106,0,0,0,0,0,0,0,0,0,-1,979,918,0,0
-238,106,0,0,0,0,0,0,0,0,0,-1,986,918,0,0
-231,106,0,0,0,0,0,0,0,0,0,-1,993,918,0,0
-224,106,0,0,0,0,0,0,0,0,0,-1,1000,918,0,0
-217,106,0,0,0,0,0,0,0,0,0,-1,1007,918,0,0
-210,106,0,0,0,0,0,0,0,0,0,-1,1014,918,0,0
-203,106,0,0,0,0,0,0,0,0,0,-1,1021,918,0,0
-196,106,0,0,0,0,0,0,0,0,0,-1,1028,918,0,0
-189,106,0,0,0,0,0,0,0,0,0,-1,1035,918,0,0
-182,106,0,0,0,0,0,0,0,0,0,-1,1042,918,0,0
-175,106,0,0,0,0,0,0,0,0,0,-1,1049,918,0,0
-168,106,0,0,0,0,0,0,0,0,0,-1,1056,918,0,0
-161,106,0,0,0,0,0,0,0,0,0,-1,1063,918,0,0
-154,106,0,0,0,0,0,0,0,0,0,-1,1070,918,0,0
-147,106,0,0,0,0,0,0,0,0,0,-1,1077,918,0,0
-140,106,0,0,0,0,0,0,0,0,0,-1,1084,918,0,0
-133,106,0,0,0,0,0,0,0,0,0,-1,1091,918,0,0
-126,106,0,0,0,0,0,0,0,0,0,-1,1098,918,0,0
-119,106,0,0,0,0,0,0,0,0,0,-1,1105,918,0,0
-112,106,0,0,0,0,0,0,0,0,0,-1,1112,918,0,0
-105,106,0,0,0,0,0,0,0,0,0,-1,1119,918,0,0
-98,106,0,0,0,0,0,0,0,0,0,-1,1126,918,0,0
-91,106,0,0,0,0,0,0,0,0,0,-1,1133,918,0,0
-84,106,0,0,0,0,0,0,0,0,0,-1,1140,918,0,0
-77,106,0,0,0,0,0,0,0,0,0,-1,1147,918,0,0
-70,106,0,0,0,0,0,0,0,0,0,-1,1154,918,0,0
-63,106,0,0,0,0,0,0,0,0,0,-1,1161,918,0,0
-56,106,0,0,0,0,0,0,0,0,0,-1,1168,918,0,0
-49,106,0,0,0,0,0,0,0,0,0,-1,1175,918,0,0
-42,106,0,0,0,0,0,0,0,0,0,-1,1182,918,0,0
-35,106,0,0,0,0,0,0,0,0,0,-1,1189,918,0,0
-28,106,0,0,0,0,0,0,0,0,0,-1,1196,918,0,0
-21,106,0,0,0,0,0,0,0,0,0,-1,1203,918,0,0
-14,106,0,0,0,0,0,0,0,0,0,-1,1210,918,0,0
-7,106,0,0,0,0,0,0,0,0,0,-1,1217,918,0,0
0,106,0,0,0,0,0,0,0,0,0,-1,1224,918,0,0
7,106,0,0,0,0,0,0,0,0,0,-1,1231,918,0,0
14,106,0,0,0,0,0,0,0,0,0,-1,1238,918,0,0
21,106,0,0,0,0,0,0,0,0,0,-1,1245,918,0,0
28,106,0,0,0,0,0,0,0,0,0,-1,1252,918,0,0
35,106,0,0,0,0,0,0,0,0,0,-1,1259,918,0,0
42,106,0,0,0,0,0,0,0,0,0,-1,1266,918,0,0
49,106,0,0,0,0,0,0,0,0,0,-1,1273,918,0,0
56,106,0,0,0,0,0,0,0,0,0,-1,1280,918,0,0
63,106,0,0,0,0,0,0,0,0,0,-1,1287,918,0,0
70,106,0,0,0,0,0,0,0,0,0,-1,1294,918,0,0
77,106,0,0,0,0,0,0,0,0,0,-1,1301,918,0,0
84,106,0,0,0,0,0,0,0,0,0,-1,1308,918,0,0
91,106,0,0,0,0,0,0,0,0,0,-1,1315,918,0,0
98,106,0,0,0,0,0,0,0,0,0,-1,1322,918,0,0
105,106,0,0,0,0,0,0,0,0,0,-1,1329,918,0,0
112,106,0,0,0,0,0,0,0,0,0,-1,1336,918,0,0
119,106,0,0,0,0,0,0,0,0,0,-1,1343,918,0,0
126,106,0,0,0,0,0,0,0,0,0,-1,1350,918,0,0
133,106,0,0,0,0,0,0,0,0,0,-1,1357,918,0,0
140,106,0,0,0,0,0,0,0,0,0,-1,1364,918,0,0
147,106,0,0,0,0,0,0,0,0,0,-1,1371,918,0,0
154,106,0,0,0,0,0,0,0,0,0,-1,1378,918,0,0
161,106,0,0,0,0,0,0,0,0,0,-1,1385,918,0,0
168,106,0,0,0,0,0,0,0,0,0,-1,1392,918,0,0
175,106,0,0,0,0,0,0,0,0,0,-1,1399,918,0,0
182,106,0,0,0,0,0,0,0,0,0,-1,1406,918,0,0
189,106,0,0,0,0,0,0,0,0,0,-1,1413,918,0,0
196,106,0,0,0,0,0,0,0,0,0,-1,1420,918,0,0
203,106,0,0,0,0,0,0,0,0,0,-1,1427,918,0,0
210,106,0,0,0,0,0,0,0,0,0,-1,1434,918,0,0
217,106,0,0,0,0,0,0,0,0,0,-1,1441,918,0,0
224,106,0,0,0,0,0,0,0,0,0,-1,1448,918,0,0
231,106,0,0,0,0,0,0,0,0,0,-1,1455,918,0,0
238,106,0,0,0,0,0,0,0,0,0,-1,1462,918,0,0
245,106,0,0,0,0,0,0,0,0,0,-1,1469,918,0,0
252,106,0,0,0,0,0,0,0,0,0,-1,1476,918,0,0
259,106,0,0,0,0,0,0,0,0,0,-1,1483,918,0,0
266,106,0,0,0,0,0,0,0,0,0,-1,1490,918,0,0
273,106,0,0,0,0,0,0,0,0,0,-1,1497,918,0,0
280,106,0,0,0,0,0,0,0,0,0,-1,1504,918,0,0
287,106,0,0,0,0,0,0,0,0,0,-1,1511,918,0,0
294,106,0,0,0,0,0,0,0,0,0,-1,1518,918,0,0
301,106,0,0,0,0,0,0,0,0,0,-1,1525,918,0,0
308,106,0,0,0,0,0,0,0,0,0,-1,1532,918,0,0
315,106,0,0,0,0,0,0,0,0,0,-1,1539,918,0,0
322,106,0,0,0,0,0,0,0,0,0,-1,1546,918,0,0
329,106,0,0,0,0,0,0,0,0,0,-1,1553,918,0,0
336,106,0,0,0,0,0,0,0,0,0,-1,1560,918,0,0
343,106,0,0,0,0,0,0,0,0,0,-1,1567,918,0,0
350,106,0,0,0,0,0,0,0,0,0,-1,1574,918,0,0
357,106,0,0,0,0,0,0,0,0,0,-1,1581,918,0,0
364,106,0,0,0,0,0,0,0,0,0,-1,1588,918,0,0
371,106,0,0,0,0,0,0,0,0,0,-1,1595,918,0,0
378,106,0,0,0,0,0,0,0,0,0,-1,1602,918,0,0
385,106,0,0,0,0,0,0,0,0,0,-1,1609,918,0,0
392,106,0,0,0,0,0,0,0,0,0,-1,1616,918,0,0
399,106,0,0,0,0,0,0,0,0,0,-1,1623,918,0,0
406,106,0,0,0,0,0,0,0,0,0,-1,1630,918,0,0
413,106,0,0,0,0,0,0,0,0,0,-1,1637,918,0,0
420,106,0,0,0,0,0,0,0,0,0,-1,1644,918,0,0
427,106,0,0,0,0,0,0,0,0,0,-1,1651,918,0,0
434,106,0,0,0,0,0,0,0,0,0,-1,1658,918,0,0
441,106,0,0,0,0,0,0,0,0,0,-1,1665,918,0,0
448,106,0,0,0,0,0,0,0,0,0,-1,1672,918,0,0
455,106,0,0,0,0,0,0,0,0,0,-1,1679,918,0,0
462,106,0,0,0,0,0,0,0,0,0,-1,1686,918,0,0
469,106,0,0,0,0,0,0,0,0,0,-1,1693,918,0,0
476,106,0,0,0,0,0,0,0,0,0,-1,1700,918,0,0
483,106,0,0,0,0,0,0,0,0,0,-1,1707,918,0,0
490,106,0,0,0,0,0,0,0,0,0,-1,1714,918,0,0
497,106,0,0,0,0,0,0,0,0,0,-1,1721,918,0,0
504,106,0,0,0,0,0,0,0,0,0,-1,1728,918,0,0
511,106,0,0,0,0,0,0,0,0,0,-1,1735,918,0,0
518,106,0,0,0,0,0,0,0,0,0,-1,1742,918,0,0
525,106,0,0,0,0,0,0,0,0,0,-1,1749,918,0,0
532,106,0,0,0,0,0,0,0,0,0,-1,1756,918,0,0
539,106,0,0,0,0,0,0,0,0,0,-1,1763,918,0,0
546,106,0,0,0,0,0,0,0,0,0,-1,1770,918,0,0
553,106,0,0,0,0,0,0,0,0,0,-1,1777,918,0,0
560,106,0,0,0,0,0,0,0,0,0,-1,1784,918,0,0
567,106,0,0,0,0,0,0,0,0,0,-1,1791,918,0,0
574,106,0,0,0,0,0,0,0,0,0,-1,1798,918,0,0
581,106,0,0,0,0,0,0,0,0,0,-1,1805,918,0,0
588,106,0,0,0,0,0,0,0,0,0,-1,1812,918,0,0
595,106,0,0,0,0,0,0,0,0,0,-1,1819,918,0,0
602,106,0,0,0,0,0,0,0,0,0,-1,1826,918,0,0
609,106,0,0,0,0,0,0,0,0,0,-1,1833,918,0,0
616,106,0,0,0,0,0,0,0,0,0,-1,1840,918,0,0
623,106,0,0,0,0,0,0,0,0,0,-1,1847,918,0,0
630,106,56.5186,2.68738,-0.00884453,0.00531347,0.00766854,0.00867089,-0.0122019,1.15812,0.0121083,0.0433559,1854,918,56.5186,-2.68737
637,106,56.5178,2.79718,-0.00711711,0.0038797,0.00571408,0.00631119,-0.00954859,1.16848,0.00922002,0.0427259,1861,918,56.5179,-2.79715
644,106,56.5781,2.84369,-0.00569919,0.00281321,0.00423128,0.00455859,-0.00744457,1.17957,0.00699648,0.0394437,1868,918,56.5781,-2.84371
651,106,56.5327,2.62244,-0.00454685,0.00228219,0.00314049,0.00350681,-0.00577147,1.19899,0.00540975,0.0399489,1875,918,56.5327,-2.62246
658,106,56.5968,2.51038,-0.00355251,0.00197886,0.0023248,0.00282616,-0.00439981,1.22129,0.00420477,0.0421411,1882,918,56.5968,-2.51038
665,106,56.4987,2.698,-0.00266568,0.00187769,0.00183043,0.00252337,-0.00331136,1.23168,0.00337891,0.041946,1889,918,56.4987,-2.69797
672,106,56.4265,2.80927,-0.00223843,0.00160024,0.00156681,0.00215855,-0.00279674,1.22849,0.00286884,0.0418025,1896,918,56.4265,-2.80924
679,106,56.4634,2.69171,-0.00195658,0.00120604,0.00138098,0.00172417,-0.00247471,1.21186,0.0024371,0.0338285,1903,918,56.4634,-2.69172
686,106,56.4513,2.64899,-0.00177735,0.000923998,0.00116994,0.00136024,-0.0022136,1.21389,0.00208287,0.0315249,1910,918,56.4513,-2.64902
693,106,56.2793,2.84521,-0.00149462,0.000745798,0.000805412,0.00100528,-0.0017541,1.25912,0.00161257,0.0385977,1917,918,56.2793,-2.8452
700,106,56.1882,3.24207,0,0,0,0,0,0,0,-1,1924,918,56.1882,-3.24207
707,106,51.3165,3.11993,0,0,0,0,0,0,0,-1,1931,918,51.3166,-3.11996
714,106,51.5045,3.71881,-0.00217005,0.00112359,-0.000283859,0.00114787,-0.00219434,-1.48545,0.0019609,0.0443505,1938,918,51.5046,-3.71884
721,106,51.4878,4.38184,-0.00246269,0.00137856,-0.000633108,0.00148022,-0.00256434,-1.41159,0.00236293,0.0302189,1945,918,51.4878,-4.38182
728,106,51.5051,5.01263,-0.00301533,0.0018649,-0.000880916,0.00201904,-0.00316947,-1.39757,0.00302004,0.0287437,1952,918,51.5051,-5.01261
735,106,51.4406,5.51141,-0.00337902,0.00270536,-0.00136931,0.00299932,-0.00367299,-1.35932,0.0038588,0.0256613,1959,918,51.4406,-5.51142
742,106,51.3516,5.97308,-0.00337005,0.0040129,-0.00270306,0.00489674,-0.00425389,-1.25478,0.00528746,0.0135011,1966,918,51.3515,-5.97311
749,106,51.3241,6.5061,-0.00327857,0.00598309,-0.00407849,0.00752305,-0.00481853,-1.20976,0.00718222,0.0112862,1973,918,51.3241,-6.50613
756,106,51.2469,7.04492,-0.00260602,0.00841142,-0.00575811,0.0108715,-0.0050661,-1.16703,0.00940286,0.0144848,1980,918,51.247,-7.04491
763,106,51.1238,7.67786,-0.00105092,0.0106985,-0.00793396,0.014696,-0.00504838,-1.10408,0.0118443,0.0262351,1987,918,51.1238,-7.67784
770,106,50.9899,8.16248,0.00180636,0.01269,-0.0109169,0.0194462,-0.00494981,-1.01661,0.0148909,0.0470234,1994,918,50.9899,-8.16248
777,106,51.1682,8.84357,0,0,0,0,0,0,0,-1,2001,918,51.1681,-8.84356
784,106,51.0586,9.43628,0,0,0,0,0,0,0,-1,2008,918,51.0586,-9.43627
791,106,51.2283,9.65942,0,0,0,0,0,0,0,-1,2015,918,51.2283,-9.6594
798,106,47.1345,8.55341,0,0,0,0,0,0,0,-1,2022,918,47.1345,-8.55342
805,106,0,0,0,0,0,0,0,0,0,-1,2029,918,0,0
812,106,0,0,0,0,0,0,0,0,0,-1,2036,918,0,0
-700,99,0,0,0,0,0,0,0,0,0,-1,524,925,0,0
-693,99,0,0,0,0,0,0,0,0,0,-1,531,925,0,0
-686,99,0,0,0,0,0,0,0,0,0,-1,538,925,0,0
-679,99,-39.1913,5.63721,0,0,0,0,0,0,0,-1,545,925,-39.1913,-5.63724
-672,99,-38.4225,6.0387,0,0,0,0,0,0,0,-1,552,925,-38.4225,-6.03872
-665,99,-38.2468,7.06299,0,0,0,0,0,0,0,-1,559,925,-38.2468,-7.06298
-658,99,-37.3052,7.24902,0,0,0,0,0,0,0,-1,566,925,-37.3052,-7.24904
-651,99,-38.4925,6.14697,0,0,0,0,0,0,0,-1,573,925,-38.4925,-6.14697
-644,99,-38.611,5.75299,-0.00443428,0.0649961,-0.0102304,0.0664722,-0.00591031,-1.42751,0.0464105,0.0491388,580,925,-38.611,-5.75299
-637,99,-38.7239,5.30157,-0.00503168,0.0445774,-0.00472456,0.0450233,-0.00547762,-1.47669,0.0319981,0.0325586,587,925,-38.7239,-5.3016
-630,99,-38.9422,4.87451,-0.00476496,0.0293732,-0.000798609,0.0293919,-0.00478363,-1.54742,0.0213683,0.0175503,594,925,-38.9422,-4.87453
-623,99,-39.1445,4.33026,-0.00446332,0.0176451,0.00150457,0.017747,-0.00456524,1.50316,0.0136107,0.012666,601,925,-39.1445,-4.33025
-616,99,-39.1477,3.84369,-0.00417529,0.00962239,0.0025129,0.0100658,-0.0046187,1.39614,0.00867035,0.0147197,608,925,-39.1477,-3.84367
-609,99,-39.1344,3.39398,-0.00389642,0.00373573,0.00271478,0.00460287,-0.00476356,1.26163,0.00540797,0.0128676,615,925,-39.1344,-3.39395
-602,99,-39.1245,2.94849,-0.00374239,0.00130863,0.00244437,0.00229783,-0.00473159,1.18626,0.00413872,0.0172228,622,925,-39.1245,-2.9485
-595,99,-39.2376,2.50098,-0.00343797,0.000552971,0.00183327,0.00126726,-0.00415225,1.19927,0.0032734,0.022632,629,925,-39.2376,-2.50096
-588,99,-39.2315,2.00653,-0.00296167,7.89516e-05,0.00139473,0.000621801,-0.00350451,1.19962,0.00256882,0.0243389,636,925,-39.2315,-2.00651
-581,99,-39.2156,1.40039,-0.00255129,-7.52474e-05,0.00108972,0.000336029,-0.00296256,1.20991,0.00209605,0.0209244,643,925,-39.2156,-1.40041
-574,99,-39.3419,0.815063,0,0,0,0,0,0,0,-1,650,925,-39.3419,-0.815087
-567,99,-42.451,0.78302,0,0,0,0,0,0,0,-1,657,925,-42.451,-0.783
-560,99,-42.382,0.763855,-0.00197902,-8.76106e-05,-0.000279346,-4.72162e-05,-0.00201942,-1.42719,0.00133082,0.0474293,664,925,-42.382,-0.763841
-553,99,-42.4732,0.863525,-0.00193798,-2.5839e-05,-0.000637489,0.000167205,-0.00213102,-1.27676,0.00147957,0.0367823,671,925,-42.4732,-0.863546
-546,99,-42.4437,0.736511,-0.00182157,0.000232158,-0.000922004,0.000585346,-0.00217476,-1.20497,0.00167931,0.0391981,678,925,-42.4437,-0.736488
-539,99,-42.3549,0.582031,-0.00141282,0.000486877,-0.0010631,0.000962649,-0.00188859,-1.15,0.00167485,0.0384548,685,925,-42.3549,-0.582006
-532,99,-42.3334,0.502563,-0.00077599,0.000470983,-0.000894791,0.000938087,-0.00124309,-1.08968,0.0012634,0.0420502,692,925,-42.3335,-0.502541
-525,99,-42.4238,0.602783,-0.000356337,0.000185769,-0.000607774,0.000580193,-0.000750761,-0.99515,0.000770527,0.0405508,699,925,-42.4238,-0.602765
-518,99,-42.479,0.704834,-1.08362e-05,-2.43516e-05,-0.000608036,0.00059048,-0.000625668,-0.779841,0.000702241,0.0381548,706,925,-42.479,-0.704853
-511,99,0,0,0,0,0,0,0,0,0,-1,713,925,0,0
-504,99,0,0,0,0,0,0,0,0,0,-1,720,925,0,0
-497,99,0,0,0,0,0,0,0,0,0,-1,727,925,0,0
-490,99,0,0,0,0,0,0,0,0,0,-1,734,925,0,0
-483,99,0,0,0,0,0,0,0,0,0,-1,741,925,0,0
-476,99,0,0,0,0,0,0,0,0,0,-1,748,925,0,0
-469,99,0,0,0,0,0,0,0,0,0,-1,755,925,0,0
-462,99,0,0,0,0,0,0,0,0,0,-1,762,925,0,0
-455,99,0,0,0,0,0,0,0,0,0,-1,769,925,0,0
-448,99,0,0,0,0,0,0,0,0,0,-1,776,925,0,0
-441,99,0,0,0,0,0,0,0,0,0,-1,783,925,0,0
-434,99,0,0,0,0,0,0,0,0,0,-1,790,925,0,0
-427,99,0,0,0,0,0,0,0,0,0,-1,797,925,0,0
-420,99,0,0,0,0,0,0,0,0,0,-1,804,925,0,0
-413,99,0,0,0,0,0,0,0,0,0,-1,811,925,0,0
-406,99,0,0,0,0,0,0,0,0,0,-1,818,925,0,0
-399,99,0,0,0,0,0,0,0,0,0,-1,825,925,0,0
-392,99,0,0,0,0,0,0,0,0,0,-1,832,925,0,0
-385,99,0,0,0,0,0,0,0,0,0,-1,839,925,0,0
-378,99,0,0,0,0,0,0,0,0,0,-1,846,925,0,0
-371,99,0,0,0,0,0,0,0,0,0,-1,853,925,0,0
-364,99,0,0,0,0,0,0,0,0,0,-1,860,925,0,0
-357,99,0,0,0,0,0,0,0,0,0,-1,867,925,0,0
-350,99,0,0,0,0,0,0,0,0,0,-1,874,925,0,0
-343,99,0,0,0,0,0,0,0,0,0,-1,881,925,0,0
-336,99,0,0,0,0,0,0,0,0,0,-1,888,925,0,0
-329,99,0,0,0,0,0,0,0,0,0,-1,895,925,0,0
-322,99,0,0,0,0,0,0,0,0,0,-1,902,925,0,0
-315,99,0,0,0,0,0,0,0,0,0,-1,909,925,0,0
-308,99,0,0,0,0,0,0,0,0,0,-1,916,925,0,0
-301,99,0,0,0,0,0,0,0,0,0,-1,923,925,0,0
-294,99,0,0,0,0,0,0,0,0,0,-1,930,925,0,0
-287,99,0,0,0,0,0,0,0,0,0,-1,937,925,0,0
-280,99,0,0,0,0,0,0,0,0,0,-1,944,925,0,0
-273,99,0,0,0,0,0,0,0,0,0,-1,951,925,0,0
-266,99,0,0,0,0,0,0,0,0,0,-1,958,925,0,0
-259,99,0,0,0,0,0,0,0,0,0,-1,965,925,0,0
-252,99,0,0,0,0,0,0,0,0,0,-1,972,925,0,0
-245,99,0,0,0,0,0,0,0,0,0,-1,979,925,0,0
-238,99,0,0,0,0,0,0,0,0,0,-1,986,925,0,0
-231,99,0,0,0,0,0,0,0,0,0,-1,993,925,0,0
-224,99,0,0,0,0,0,0,0,0,0,-1,1000,925,0,0
-217,99,0,0,0,0,0,0,0,0,0,-1,1007,925,0,0
-210,99,0,0,0,0,0,0,0,0,0,-1,1014,925,0,0
-203,99,0,0,0,0,0,0,0,0,0,-1,1021,925,0,0
-196,99,0,0,0,0,0,0,0,0,0,-1,1028,925,0,0
-189,99,0,0,0,0,0,0,0,0,0,-1,1035,925,0,0
-182,99,0,0,0,0,0,0,0,0,0,-1,1042,925,0,0
-175,99,0,0,0,0,0,0,0,0,0,-1,1049,925,0,0
-168,99,0,0,0,0,0,0,0,0,0,-1,1056,925,0,0
-161,99,0,0,0,0,0,0,0,0,0,-1,1063,925,0,0
-154,99,0,0,0,0,0,0,0,0,0,-1,1070,925,0,0
-147,99,0,0,0,0,0,0,0,0,0,-1,1077,925,0,0
-140,99,0,0,0,0,0,0,0,0,0,-1,1084,925,0,0
-133,99,0,0,0,0,0,0,0,0,0,-1,1091,925,0,0
-126,99,0,0,0,0,0,0,0,0,0,-1,1098,925,0,0
-119,99,0,0,0,0,0,0,0,0,0,-1,1105,925,0,0
-112,99,0,0,0,0,0,0,0,0,0,-1,1112,925,0,0
-105,99,0,0,0,0,0,0,0,0,0,-1,1119,925,0,0
-98,99,0,0,0,0,0,0,0,0,0,-1,1126,925,0,0
-91,99,0,0,0,0,0,0,0,0,0,-1,1133,925,0,0
-84,99,0,0,0,0,0,0,0,0,0,-1,1140,925,0,0
-77,99,0,0,0,0,0,0,0,0,0,-1,1147,925,0,0
-70,99,0,0,0,0,0,0,0,0,0,-1,1154,925,0,0
-63,99,0,0,0,0,0,0,0,0,0,-1,1161,925,0,0
-56,99,0,0,0,0,0,0,0,0,0,-1,1168,925,0,0
-49,99,0,0,0,0,0,0,0,0,0,-1,1175,925,0,0
-42,99,0,0,0,0,0,0,0,0,0,-1,1182,925,0,0
-35,99,0,0,0,0,0,0,0,0,0,-1,1189,925,0,0
-28,99,0,0,0,0,0,0,0,0,0,-1,1196,925,0,0
-21,99,0,0,0,0,0,0,0,0,0,-1,1203,925,0,0
-14,99,0,0,0,0,0,0,0,0,0,-1,1210,925,0,0
-7,99,0,0,0,0,0,0,0,0,0,-1,1217,925,0,0
0,99,0,0,0,0,0,0,0,0,0,-1,1224,925,0,0
7,99,0,0,0,0,0,0,0,0,0,-1,1231,925,0,0
14,99,0,0,0,0,0,0,0,0,0,-1,1238,925,0,0
21,99,0,0,0,0,0,0,0,0,0,-1,1245,925,0,0
28,99,0,0,0,0,0,0,0,0,0,-1,1252,925,0,0
35,99,0,0,0,0,0,0,0,0,0,-1,1259,925,0,0
42,99,0,0,0,0,0,0,0,0,0,-1,1266,925,0,0
49,99,0,0,0,0,0,0,0,0,0,-1,1273,925,0,0
56,99,0,0,0,0,0,0,0,0,0,-1,1280,925,0,0
63,99,0,0,0,0,0,0,0,0,0,-1,1287,925,0,0
70,99,0,0,0,0,0,0,0,0,0,-1,1294,925,0,0
77,99,0,0,0,0,0,0,0,0,0,-1,1301,925,0,0
84,99,0,0,0,0,0,0,0,0,0,-1,1308,925,0,0
91,99,0,0,0,0,0,0,0,0,0,-1,1315,925,0,0
98,99,0,0,0,0,0,0,0,0,0,-1,1322,925,0,0
105,99,0,0,0,0,0,0,0,0,0,-1,1329,925,0,0
112,99,0,0,0,0,0,0,0,0,0,-1,1336,925,0,0
119,99,0,0,0,0,0,0,0,0,0,-1,1343,925,0,0
126,99,0,0,0,0,0,0,0,0,0,-1,1350,925,0,0
133,99,0,0,0,0,0,0,0,0,0,-1,1357,925,0,0
140,99,0,0,0,0,0,0,0,0,0,-1,1364,925,0,0
147,99,0,0,0,0,0,0,0,0,0,-1,1371,925,0,0
154,99,0,0,0,0,0,0,0,0,0,-1,1378,925,0,0
161,99,0,0,0,0,0,0,0,0,0,-1,1385,925,0,0
168,99,0,0,0,0,0,0,0,0,0,-1,1392,925,0,0
175,99,0,0,0,0,0,0,0,0,0,-1,1399,925,0,0
182,99,0,0,0,0,0,0,0,0,0,-1,1406,925,0,0
189,99,0,0,0,0,0,0,0,0,0,-1,1413,925,0,0
196,99,0,0,0,0,0,0,0,0,0,-1,1420,925,0,0
203,99,0,0,0,0,0,0,0,0,0,-1,1427,925,0,0
210,99,0,0,0,0,0,0,0,0,0,-1,1434,925,0,0
217,99,0,0,0,0,0,0,0,0,0,-1,1441,925,0,0
224,99,0,0,0,0,0,0,0,0,0,-1,1448,925,0,0
231,99,0,0,0,0,0,0,0,0,0,-1,1455,925,0,0
238,99,0,0,0,0,0,0,0,0,0,-1,1462,925,0,0
245,99,0,0,0,0,0,0,0,0,0,-1,1469,925,0,0
252,99,0,0,0,0,0,0,0,0,0,-1,1476,925,0,0
259,99,0,0,0,0,0,0,0,0,0,-1,1483,925,0,0
266,99,0,0,0,0,0,0,0,0,0,-1,1490,925,0,0
273,99,0,0,0,0,0,0,0,0,0,-1,1497,925,0,0
280,99,0,0,0,0,0,0,0,0,0,-1,1504,925,0,0
287,99,0,0,0,0,0,0,0,0,0,-1,1511,925,0,0
294,99,0,0,0,0,0,0,0,0,0,-1,1518,925,0,0
301,99,0,0,0,0,0,0,0,0,0,-1,1525,925,0,0
308,99,0,0,0,0,0,0,0,0,0,-1,1532,925,0,0
315,99,0,0,0,0,0,0,0,0,0,-1,1539,925,0,0
322,99,0,0,0,0,0,0,0,0,0,-1,1546,925,0,0
329,99,0,0,0,0,0,0,0,0,0,-1,1553,925,0,0
336,99,0,0,0,0,0,0,0,0,0,-1,1560,925,0,0
343,99,0,0,0,0,0,0,0,0,0,-1,1567,925,0,0
350,99,0,0,0,0,0,0,0,0,0,-1,1574,925,0,0
357,99,0,0,0,0,0,0,0,0,0,-1,1581,925,0,0
364,99,0,0,0,0,0,0,0,0,0,-1,1588,925,0,0
371,99,0,0,0,0,0,0,0,0,0,-1,1595,925,0,0
378,99,0,0,0,0,0,0,0,0,0,-1,1602,925,0,0
385,99,0,0,0,0,0,0,0,0,0,-1,1609,925,0,0
392,99,0,0,0,0,0,0,0,0,0,-1,1616,925,0,0
399,99,0,0,0,0,0,0,0,0,0,-1,1623,925,0,0
406,99,0,0,0,0,0,0,0,0,0,-1,1630,925,0,0
413,99,0,0,0,0,0,0,0,0,0,-1,1637,925,0,0
420,99,0,0,0,0,0,0,0,0,0,-1,1644,925,0,0
427,99,0,0,0,0,0,0,0,0,0,-1,1651,925,0,0
434,99,0,0,0,0,0,0,0,0,0,-1,1658,925,0,0
441,99,0,0,0,0,0,0,0,0,0,-1,1665,925,0,0
448,99,0,0,0,0,0,0,0,0,0,-1,1672,925,0,0
455,99,0,0,0,0,0,0,0,0,0,-1,1679,925,0,0
462,99,0,0,0,0,0,0,0,0,0,-1,1686,925,0,0
469,99,0,0,0,0,0,0,0,0,0,-1,1693,925,0,0
476,99,0,0,0,0,0,0,0,0,0,-1,1700,925,0,0
483,99,0,0,0,0,0,0,0,0,0,-1,1707,925,0,0
490,99,0,0,0,0,0,0,0,0,0,-1,1714,925,0,0
497,99,0,0,0,0,0,0,0,0,0,-1,1721,925,0,0
504,99,0,0,0,0,0,0,0,0,0,-1,1728,925,0,0
511,99,0,0,0,0,0,0,0,0,0,-1,1735,925,0,0
518,99,0,0,0,0,0,0,0,0,0,-1,1742,925,0,0
525,99,0,0,0,0,0,0,0,0,0,-1,1749,925,0,0
532,99,0,0,0,0,0,0,0,0,0,-1,1756,925,0,0
539,99,0,0,0,0,0,0,0,0,0,-1,1763,925,0,0
546,99,0,0,0,0,0,0,0,0,0,-1,1770,925,0,0
553,99,0,0,0,0,0,0,0,0,0,-1,1777,925,0,0
560,99,0,0,0,0,0,0,0,0,0,-1,1784,925,0,0
567,99,0,0,0,0,0,0,0,0,0,-1,1791,925,0,0
574,99,0,0,0,0,0,0,0,0,0,-1,1798,925,0,0
581,99,0,0,0,0,0,0,0,0,0,-1,1805,925,0,0
588,99,0,0,0,0,0,0,0,0,0,-1,1812,925,0,0
595,99,0,0,0,0,0,0,0,0,0,-1,1819,925,0,0
602,99,0,0,0,0,0,0,0,0,0,-1,1826,925,0,0
609,99,0,0,0,0,0,0,0,0,0,-1,1833,925,0,0
616,99,0,0,0,0,0,0,0,0,0,-1,1840,925,0,0
623,99,0,0,0,0,0,0,0,0,0,-1,1847,925,0,0
630,99,0,0,0,0,0,0,0,0,0,-1,1854,925,0,0
637,99,56.7487,2.36115,-0.0083864,0.00341464,0.00578179,0.00577518,-0.0107469,1.18318,0.00968194,0.0444379,1861,925,56.7486,-2.36117
644,99,56.5211,2.69171,-0.00648076,0.00258774,0.00433533,0.00432681,-0.00821983,1.18931,0.00735912,0.0379001,1868,925,56.5211,-2.6917
651,99,56.5521,2.60925,-0.00502005,0.00224978,0.00328852,0.00351659,-0.00628687,1.20309,0.00573486,0.0377335,1875,925,56.5522,-2.60926
658,99,56.7004,2.57483,-0.00380161,0.00215594,0.00253639,0.0030895,-0.00473517,1.21812,0.00455076,0.0402462,1882,925,56.7004,-2.5748
665,99,56.5322,2.75909,-0.00278048,0.00221867,0.00206011,0.00295822,-0.00352003,1.22614,0.0037449,0.0421261,1889,925,56.5322,-2.75909
672,99,56.5323,2.75812,-0.00230829,0.00205785,0.00183403,0.002726,-0.00297644,1.22143,0.00329337,0.0416474,1896,925,56.5323,-2.75815
679,99,56.5175,2.60583,-0.00205439,0.00169011,0.0016869,0.00233797,-0.00270226,1.20411,0.00291251,0.0374777,1903,925,56.5175,-2.60584
686,99,56.392,2.60309,-0.00187552,0.00138361,0.0014619,0.00194325,-0.00243516,1.20519,0.00253319,0.0320753,1910,925,56.392,-2.60307
693,99,56.3529,2.80725,-0.00157837,0.00115959,0.00104687,0.00151399,-0.00193277,1.24437,0.00199488,0.0366262,1917,925,56.3529,-2.80723
700,99,56.3123,3.10193,0,0,0,0,0,0,0,-1,1924,925,56.3123,-3.10196
707,99,47.9915,3.27429,0,0,0,0,0,0,0,-1,1931,925,47.9914,-3.27427
714,99,51.8088,3.60059,0,0,0,0,0,0,0,-1,1938,925,51.8088,-3.60057
721,99,52.0054,4.3313,-0.00269179,0.00173595,-0.000502711,0.0017923,-0.00274815,-1.45915,0.00264072,0.0340392,1945,925,52.0054,-4.33132
728,99,52.0436,4.9281,-0.00322301,0.00223939,-0.0007936,0.00235235,-0.00333598,-1.42941,0.00330048,0.0267184,1952,925,52.0436,-4.9281
735,99,51.9854,5.48608,-0.00349512,0.00313467,-0.00132886,0.00339111,-0.00375155,-1.38017,0.00412557,0.0222,1959,925,51.9854,-5.48611
742,99,51.9043,5.99902,-0.00337782,0.00445861,-0.00272402,0.00531247,-0.00423168,-1.26704,0.00552208,0.0143297,1966,925,51.9043,-5.99905
749,99,51.8521,6.5036,-0.00318354,0.00651487,-0.00415658,0.00805252,-0.0047212,-1.21648,0.00745804,0.0134349,1973,925,51.8521,-6.5036
756,99,51.8064,6.97626,-0.00238377,0.00922793,-0.00590505,0.0117032,-0.00485907,-1.17386,0.00983063,0.0144912,1980,925,51.8064,-6.97626
763,99,51.7469,7.47473,-0.000689728,0.0119958,-0.00811808,0.0159551,-0.0046491,-1.11702,0.0124786,0.0166968,1987,925,51.7469,-7.47475
770,99,51.6498,8.05933,0.00214978,0.0145199,-0.0110883,0.0210315,-0.00436182,-1.0398,0.0156785,0.0301825,1994,925,51.6498,-8.05933
777,99,51.606,8.68274,0.00651019,0.0163875,-0.0152827,0.0275097,-0.00461204,-0.941678,0.0200547,0.0421748,2001,925,51.6059,-8.68274
784,99,51.8342,9.09656,0.0136563,0.0168893,-0.0214082,0.0367419,-0.00619632,-0.82308,0.0267999,0.0430484,2008,925,51.8341,-9.09653
791,99,52.0286,9.30042,0.0250559,0.015314,-0.0308025,0.0513702,-0.0110003,-0.70698,0.0384418,0.0481893,2015,925,52.0286,-9.30039
798,99,52.0664,9.58075,0,0,0,0,0,0,0,-1,2022,925,52.0664,-9.58073
805,99,0,0,0,0,0,0,0,0,0,-1,2029,925,0,0
812,99,0,0,0,0,0,0,0,0,0,-1,2036,925,0,0
-700,92,0,0,0,0,0,0,0,0,0,-1,524,932,0,0
-693,92,0,0,0,0,0,0,0,0,0,-1,531,932,0,0
-686,92,-40.8612,4.83539,0,0,0,0,0,0,0,-1,538,932,-40.8612,-4.83538
-679,92,-40.3691,5.17773,0,0,0,0,0,0,0,-1,545,932,-40.3691,-5.17774
-672,92,-39.6227,5.58466,0,0,0,0,0,0,0,-1,552,932,-39.6227,-5.58469
-665,92,-38.1348,6.81769,0,0,0,0,0,0,0,-1,559,932,-38.1348,-6.8177
-658,92,-38.8328,5.39191,0,0,0,0,0,0,0,-1,566,932,-38.8328,-5.39192
-651,92,-38.9483,5.50848,-0.00728862,0.0814795,-0.0145116,0.0837916,-0.00960073,-1.4128,0.0593208,0.0468754,573,932,-38.9483,-5.50851
-644,92,-39.161,5.50677,-0.00696196,0.0585989,-0.00775593,0.0595039,-0.007867,-1.45463,0.0425348,0.0447405,580,932,-39.161,-5.5068
-637,92,-39.4285,5.17072,-0.0063781,0.0408422,-0.00304752,0.041038,-0.00657397,-1.50661,0.0297928,0.027657,587,932,-39.4285,-5.17073
-630,92,-39.5042,4.73004,-0.00528523,0.0268971,0.000450395,0.0269033,-0.00529154,1.5568,0.0199349,0.0141286,594,932,-39.5042,-4.73007
-623,92,-39.6196,4.29639,-0.00450327,0.0160393,0.0023352,0.0163014,-0.00476538,1.45902,0.0127563,0.0101572,601,932,-39.6196,-4.29639
-616,92,-39.6269,3.84955,-0.0040892,0.00881561,0.00289483,0.00943523,-0.00470882,1.35993,0.00831666,0.00951009,608,932,-39.6269,-3.84954
-609,92,-39.657,3.40906,-0.00370954,0.00362479,0.00270687,0.00451561,-0.00460037,1.25286,0.00526319,0.00960089,615,932,-39.657,-3.40907
-602,92,-39.6387,2.94629,-0.00367651,0.00116184,0.00235725,0.00212039,-0.00463506,1.18458,0.00398932,0.0115106,622,932,-39.6387,-2.94628
-595,92,-39.5568,2.42059,-0.00345896,0.00043431,0.00168914,0.001065,-0.00408964,1.21345,0.00314218,0.0231722,629,932,-39.5567,-2.42057
-588,92,-39.5997,2.013,-0.00296406,-6.58518e-05,0.00120045,0.000366795,-0.00339671,1.22488,0.00239611,0.0295131,636,932,-39.5997,-2.01298
-581,92,-40.0439,1.50391,-0.00252463,-0.000329127,0.00089457,-1.0787e-05,-0.00284297,1.22891,0.00189173,0.0353792,643,932,-40.0439,-1.50392
-574,92,-40.4927,0.881348,0,0,0,0,0,0,0,-1,650,932,-40.4927,-0.881376
-567,92,-42.437,0.761902,0,0,0,0,0,0,0,-1,657,932,-42.437,-0.761875
-560,92,-42.3745,0.679688,-0.00207089,-0.000324356,-0.000501641,-0.000190529,-0.00220472,-1.31009,0.0014106,0.0400009,664,932,-42.3745,-0.679707
-553,92,-42.4559,0.625671,-0.00203872,-0.000158055,-0.000809238,0.000142214,-0.00233899,-1.21549,0.00160883,0.039122,671,932,-42.4559,-0.625676
-546,92,-42.5168,0.582153,-0.00187224,0.000187329,-0.00103393,0.000616815,-0.00230172,-1.17709,0.00177615,0.0390476,678,932,-42.5169,-0.582167
-539,92,-42.5017,0.679016,-0.00141393,0.000558619,-0.00112159,0.0010659,-0.00192121,-1.14604,0.00174802,0.0359963,685,932,-42.5017,-0.678992
-532,92,-42.4757,0.77063,-0.000758788,0.000708373,-0.00100431,0.00121849,-0.0012689,-1.10083,0.00143619,0.0410825,692,932,-42.4757,-0.770622
-525,92,-42.5287,0.845154,-0.000492269,0.000928198,-0.000949191,0.00140346,-0.000967529,-1.10659,0.00137658,0.0397163,699,932,-42.5287,-0.845153
-518,92,-42.426,0.968567,-0.000295502,0.00130244,-0.00122209,0.00196355,-0.00095662,-1.07491,0.00171905,0.0394008,706,932,-42.426,-0.968595
-511,92,0,0,0,0,0,0,0,0,0,-1,713,932,0,0
-504,92,0,0,0,0,0,0,0,0,0,-1,720,932,0,0
-497,92,0,0,0,0,0,0,0,0,0,-1,727,932,0,0
-490,92,0,0,0,0,0,0,0,0,0,-1,734,932,0,0
-483,92,0,0,0,0,0,0,0,0,0,-1,741,932,0,0
-476,92,0,0,0,0,0,0,0,0,0,-1,748,932,0,0
-469,92,0,0,0,0,0,0,0,0,0,-1,755,932,0,0
-462,92,0,0,0,0,0,0,0,0,0,-1,762,932,0,0
-455,92,0,0,0,0,0,0,0,0,0,-1,769,932,0,0
-448,92,0,0,0,0,0,0,0,0,0,-1,776,932,0,0
-441,92,0,0,0,0,0,0,0,0,0,-1,783,932,0,0
-434,92,0,0,0,0,0,0,0,0,0,-1,790,932,0,0
-427,92,0,0,0,0,0,0,0,0,0,-1,797,932,0,0
-420,92,0,0,0,0,0,0,0,0,0,-1,804,932,0,0
-413,92,0,0,0,0,0,0,0,0,0,-1,811,932,0,0
-406,92,0,0,0,0,0,0,0,0,0,-1,818,932,0,0
-399,92,0,0,0,0,0,0,0,0,0,-1,825,932,0,0
-392,92,0,0,0,0,0,0,0,0,0,-1,832,932,0,0
-385,92,0,0,0,0,0,0,0,0,0,-1,839,932,0,0
-378,92,0,0,0,0,0,0,0,0,0,-1,846,932,0,0
-371,92,0,0,0,0,0,0,0,0,0,-1,853,932,0,0
-364,92,0,0,0,0,0,0,0,0,0,-1,860,932,0,0
-357,92,0,0,0,0,0,0,0,0,0,-1,867,932,0,0
-350,92,0,0,0,0,0,0,0,0,0,-1,874,932,0,0
-343,92,0,0,0,0,0,0,0,0,0,-1,881,932,0,0
-336,92,0,0,0,0,0,0,0,0,0,-1,888,932,0,0
-329,92,0,0,0,0,0,0,0,0,0,-1,895,932,0,0
-322,92,0,0,0,0,0,0,0,0,0,-1,902,932,0,0
-315,92,0,0,0,0,0,0,0,0,0,-1,909,932,0,0
-308,92,0,0,0,0,0,0,0,0,0,-1,916,932,0,0
-301,92,0,0,0,0,0,0,0,0,0,-1,923,932,0,0
-294,92,0,0,0,0,0,0,0,0,0,-1,930,932,0,0
-287,92,0,0,0,0,0,0,0,0,0,-1,937,932,0,0
-280,92,0,0,0,0,0,0,0,0,0,-1,944,932,0,0
-273,92,0,0,0,0,0,0,0,0,0,-1,951,932,0,0
-266,92,0,0,0,0,0,0,0,0,0,-1,958,932,0,0
-259,92,0,0,0,0,0,0,0,0,0,-1,965,932,0,0
-252,92,0,0,0,0,0,0,0,0,0,-1,972,932,0,0
-245,92,0,0,0,0,0,0,0,0,0,-1,979,932,0,0
-238,92,0,0,0,0,0,0,0,0,0,-1,986,932,0,0
-231,92,0,0,0,0,0,0,0,0,0,-1,993,932,0,0
-224,92,0,0,0,0,0,0,0,0,0,-1,1000,932,0,0
-217,92,0,0,0,0,0,0,0,0,0,-1,1007,932,0,0
-210,92,0,0,0,0,0,0,0,0,0,-1,1014,932,0,0
-203,92,0,0,0,0,0,0,0,0,0,-1,1021,932,0,0
-196,92,0,0,0,0,0,0,0,0,0,-1,1028,932,0,0
-189,92,0,0,0,0,0,0,0,0,0,-1,1035,932,0,0
-182,92,0,0,0,0,0,0,0,0,0,-1,1042,932,0,0
-175,92,0,0,0,0,0,0,0,0,0,-1,1049,932,0,0
-168,92,0,0,0,0,0,0,0,0,0,-1,1056,932,0,0
-161,92,0,0,0,0,0,0,0,0,0,-1,1063,932,0,0
-154,92,0,0,0,0,0,0,0,0,0,-1,1070,932,0,0
-147,92,0,0,0,0,0,0,0,0,0,-1,1077,932,0,0
-140,92,0,0,0,0,0,0,0,0,0,-1,1084,932,0,0
-133,92,0,0,0,0,0,0,0,0,0,-1,1091,932,0,0
-126,92,0,0,0,0,0,0,0,0,0,-1,1098,932,0,0
-119,92,0,0,0,0,0,0,0,0,0,-1,1105,932,0,0
-112,92,0,0,0,0,0,0,0,0,0,-1,1112,932,0,0
-105,92,0,0,0,0,0,0,0,0,0,-1,1119,932,0,0
-98,92,0,0,0,0,0,0,0,0,0,-1,1126,932,0,0
-91,92,0,0,0,0,0,0,0,0,0,-1,1133,932,0,0
-84,92,0,0,0,0,0,0,0,0,0,-1,1140,932,0,0
-77,92,0,0,0,0,0,0,0,0,0,-1,1147,932,0,0
-70,92,0,0,0,0,0,0,0,0,0,-1,1154,932,0,0
-63,92,0,0,0,0,0,0,0,0,0,-1,1161,932,0,0
-56,92,0,0,0,0,0,0,0,0,0,-1,1168,932,0,0
-49,92,0,0,0,0,0,0,0,0,0,-1,1175,932,0,0
-42,92,0,0,0,0,0,0,0,0,0,-1,1182,932,0,0
-35,92,0,0,0,0,0,0,0,0,0,-1,1189,932,0,0
-28,92,0,0,0,0,0,0,0,0,0,-1,1196,932,0,0
-21,92,0,0,0,0,0,0,0,0,0,-1,1203,932,0,0
-14,92,0,0,0,0,0,0,0,0,0,-1,1210,932,0,0
-7,92,0,0,0,0,0,0,0,0,0,-1,1217,932,0,0
0,92,0,0,0,0,0,0,0,0,0,-1,1224,932,0,0
7,92,0,0,0,0,0,0,0,0,0,-1,1231,932,0,0
14,92,0,0,0,0,0,0,0,0,0,-1,1238,932,0,0
21,92,0,0,0,0,0,0,0,0,0,-1,1245,932,0,0
28,92,0,0,0,0,0,0,0,0,0,-1,1252,932,0,0
35,92,0,0,0,0,0,0,0,0,0,-1,1259,932,0,0
42,92,0,0,0,0,0,0,0,0,0,-1,1266,932,0,0
49,92,0,0,0,0,0,0,0,0,0,-1,1273,932,0,0
56,92,0,0,0,0,0,0,0,0,0,-1,1280,932,0,0
63,92,0,0,0,0,0,0,0,0,0,-1,1287,932,0,0
70,92,0,0,0,0,0,0,0,0,0,-1,1294,932,0,0
77,92,0,0,0,0,0,0,0,0,0,-1,1301,932,0,0
84,92,0,0,0,0,0,0,0,0,0,-1,1308,932,0,0
91,92,0,0,0,0,0,0,0,0,0,-1,1315,932,0,0
98,92,0,0,0,0,0,0,0,0,0,-1,1322,932,0,0
105,92,0,0,0,0,0,0,0,0,0,-1,1329,932,0,0
112,92,0,0,0,0,0,0,0,0,0,-1,1336,932,0,0
119,92,0,0,0,0,0,0,0,0,0,-1,1343,932,0,0
126,92,0,0,0,0,0,0,0,0,0,-1,1350,932,0,0
133,92,0,0,0,0,0,0,0,0,0,-1,1357,932,0,0
140,92,0,0,0,0,0,0,0,0,0,-1,1364,932,0,0
147,92,0,0,0,0,0,0,0,0,0,-1,1371,932,0,0
154,92,0,0,0,0,0,0,0,0,0,-1,1378,932,0,0
161,92,0,0,0,0,0,0,0,0,0,-1,1385,932,0,0
168,92,0,0,0,0,0,0,0,0,0,-1,1392,932,0,0
175,92,0,0,0,0,0,0,0,0,0,-1,1399,932,0,0
182,92,0,0,0,0,0,0,0,0,0,-1,1406,932,0,0
189,92,0,0,0,0,0,0,0,0,0,-1,1413,932,0,0
196,92,0,0,0,0,0,0,0,0,0,-1,1420,932,0,0
203,92,0,0,0,0,0,0,0,0,0,-1,1427,932,0,0
210,92,0,0,0,0,0,0,0,0,0,-1,1434,932,0,0
217,92,0,0,0,0,0,0,0,0,0,-1,1441,932,0,0
224,92,0,0,0,0,0,0,0,0,0,-1,1448,932,0,0
231,92,0,0,0,0,0,0,0,0,0,-1,1455,932,0,0
238,92,0,0,0,0,0,0,0,0,0,-1,1462,932,0,0
245,92,0,0,0,0,0,0,0,0,0,-1,1469,932,0,0
252,92,0,0,0,0,0,0,0,0,0,-1,1476,932,0,0
259,92,0,0,0,0,0,0,0,0,0,-1,1483,932,0,0
266,92,0,0,0,0,0,0,0,0,0,-1,1490,932,0,0
273,92,0,0,0,0,0,0,0,0,0,-1,1497,932,0,0
280,92,0,0,0,0,0,0,0,0,0,-1,1504,932,0,0
287,92,0,0,0,0,0,0,0,0,0,-1,1511,932,0,0
294,92,0,0,0,0,0,0,0,0,0,-1,1518,932,0,0
301,92,0,0,0,0,0,0,0,0,0,-1,1525,932,0,0
308,92,0,0,0,0,0,0,0,0,0,-1,1532,932,0,0
315,92,0,0,0,0,0,0,0,0,0,-1,1539,932,0,0
322,92,0,0,0,0,0,0,0,0,0,-1,1546,932,0,0
329,92,0,0,0,0,0,0,0,0,0,-1,1553,932,0,0
336,92,0,0,0,0,0,0,0,0,0,-1,1560,932,0,0
343,92,0,0,0,0,0,0,0,0,0,-1,1567,932,0,0
350,92,0,0,0,0,0,0,0,0,0,-1,1574,932,0,0
357,92,0,0,0,0,0,0,0,0,0,-1,1581,932,0,0
364,92,0,0,0,0,0,0,0,0,0,-1,1588,932,0,0
371,92,0,0,0,0,0,0,0,0,0,-1,1595,932,0,0
378,92,0,0,0,0,0,0,0,0,0,-1,1602,932,0,0
385,92,0,0,0,0,0,0,0,0,0,-1,1609,932,0,0
392,92,0,0,0,0,0,0,0,0,0,-1,1616,932,0,0
399,92,0,0,0,0,0,0,0,0,0,-1,1623,932,0,0
406,92,0,0,0,0,0,0,0,0,0,-1,1630,932,0,0
413,92,0,0,0,0,0,0,0,0,0,-1,1637,932,0,0
420,92,0,0,0,0,0,0,0,0,0,-1,1644,932,0,0
427,92,0,0,0,0,0,0,0,0,0,-1,1651,932,0,0
434,92,0,0,0,0,0,0,0,0,0,-1,1658,932,0,0
441,92,0,0,0,0,0,0,0,0,0,-1,1665,932,0,0
448,92,0,0,0,0,0,0,0,0,0,-1,1672,932,0,0
455,92,0,0,0,0,0,0,0,0,0,-1,1679,932,0,0
462,92,0,0,0,0,0,0,0,0,0,-1,1686,932,0,0
469,92,0,0,0,0,0,0,0,0,0,-1,1693,932,0,0
476,92,0,0,0,0,0,0,0,0,0,-1,1700,932,0,0
483,92,0,0,0,0,0,0,0,0,0,-1,1707,932,0,0
490,92,0,0,0,0,0,0,0,0,0,-1,1714,932,0,0
497,92,0,0,0,0,0,0,0,0,0,-1,1721,932,0,0
504,92,0,0,0,0,0,0,0,0,0,-1,1728,932,0,0
511,92,0,0,0,0,0,0,0,0,0,-1,1735,932,0,0
518,92,0,0,0,0,0,0,0,0,0,-1,1742,932,0,0
525,92,0,0,0,0,0,0,0,0,0,-1,1749,932,0,0
532,92,0,0,0,0,0,0,0,0,0,-1,1756,932,0,0
539,92,0,0,0,0,0,0,0,0,0,-1,1763,932,0,0
546,92,0,0,0,0,0,0,0,0,0,-1,1770,932,0,0
553,92,0,0,0,0,0,0,0,0,0,-1,1777,932,0,0
560,92,0,0,0,0,0,0,0,0,0,-1,1784,932,0,0
567,92,0,0,0,0,0,0,0,0,0,-1,1791,932,0,0
574,92,0,0,0,0,0,0,0,0,0,-1,1798,932,0,0
581,92,0,0,0,0,0,0,0,0,0,-1,1805,932,0,0
588,92,0,0,0,0,0,0,0,0,0,-1,1812,932,0,0
595,92,0,0,0,0,0,0,0,0,0,-1,1819,932,0,0
602,92,0,0,0,0,0,0,0,0,0,-1,1826,932,0,0
609,92,0,0,0,0,0,0,0,0,0,-1,1833,932,0,0
616,92,0,0,0,0,0,0,0,0,0,-1,1840,932,0,0
623,92,0,0,0,0,0,0,0,0,0,-1,1847,932,0,0
630,92,0,0,0,0,0,0,0,0,0,-1,1854,932,0,0
637,92,56.6416,2.20349,-0.00877876,0.00261654,0.00623021,0.00536157,-0.0115238,1.15579,0.00996281,0.0467731,1861,932,56.6416,-2.2035
644,92,56.4237,2.48688,-0.00661114,0.00205626,0.0046089,0.00404893,-0.00860381,1.16271,0.00746118,0.0391907,1868,932,56.4237,-2.48688
651,92,56.4336,2.63611,-0.00502234,0.00190696,0.00347672,0.00335061,-0.00646599,1.17723,0.00576197,0.0387251,1875,932,56.4336,-2.63613
658,92,56.5095,2.71863,-0.00375245,0.00199375,0.00269488,0.00305983,-0.00481852,1.1941,0.00458619,0.040966,1882,932,56.5095,-2.71862
665,92,56.3402,2.82776,-0.00270439,0.00221887,0.00217085,0.00303934,-0.00352486,1.20944,0.0037933,0.0424664,1889,932,56.3402,-2.82773
672,92,56.2634,2.82037,-0.00222517,0.00218178,0.00191853,0.00289996,-0.00294335,1.21261,0.00337366,0.0427702,1896,932,56.2635,-2.82039
679,92,56.5007,2.62128,-0.00200987,0.00187259,0.00178112,0.00256589,-0.00270317,1.19959,0.00304244,0.0392929,1903,932,56.5007,-2.6213
686,92,56.3762,2.61389,-0.00182526,0.00157348,0.00153718,0.00216557,-0.00241735,1.20313,0.00264728,0.0323286,1910,932,56.3762,-2.61391
693,92,56.4198,2.66846,-0.00152136,0.00132088,0.00108673,0.00168877,-0.00188925,1.24438,0.00206685,0.0305223,1917,932,56.4198,-2.66848
700,92,56.4437,2.70496,0,0,0,0,0,0,0,-1,1924,932,56.4437,-2.70496
707,92,32.9893,3.26874,0,0,0,0,0,0,0,-1,1931,932,32.9893,-3.26874
714,92,52.8582,3.90955,0,0,0,0,0,0,0,-1,1938,932,52.8582,-3.90952
721,92,52.6959,4.5401,-0.00273557,0.00186402,-0.00049896,0.00191752,-0.00278907,-1.46397,0.00273284,0.0361788,1945,932,52.696,-4.54009
728,92,52.5078,5.04883,-0.00325182,0.00240937,-0.000809122,0.00252275,-0.00336519,-1.43158,0.00341098,0.0271333,1952,932,52.5078,-5.04882
735,92,52.4791,5.53381,-0.00347054,0.00337727,-0.00134476,0.00363189,-0.00372515,-1.38367,0.0042477,0.0201731,1959,932,52.4792,-5.5338
742,92,52.476,6.00366,-0.00332417,0.00472294,-0.0027213,0.00555679,-0.00415802,-1.27346,0.0056282,0.019138,1966,932,52.4759,-6.00367
749,92,52.4131,6.49243,-0.00311177,0.00690998,-0.00411248,0.00838149,-0.00458328,-1.22717,0.00759154,0.0183587,1973,932,52.4131,-6.49246
756,92,52.3503,6.95593,-0.0023163,0.00994261,-0.00583759,0.0122776,-0.00465135,-1.19029,0.0100991,0.0158867,1980,932,52.3504,-6.95591
763,92,52.3197,7.43304,-0.000623828,0.0133017,-0.00800759,0.0169503,-0.00427246,-1.14326,0.0129612,0.0179274,1987,932,52.3197,-7.43304
770,92,52.2228,8.04712,0.00206655,0.0165878,-0.010864,0.022394,-0.00373973,-1.07997,0.0163194,0.0275174,1994,932,52.2227,-8.04714
777,92,52.2722,8.71979,0.00605311,0.0196348,-0.014812,0.0291384,-0.00345054,-1.00034,0.020672,0.0458258,2001,932,52.2722,-8.71978
784,92,52.6255,9.34454,0.0125217,0.021962,-0.0205103,0.0382883,-0.00380453,-0.898497,0.0268836,0.0462375,2008,932,52.6256,-9.34452
791,92,53.2034,9.75415,0.0227238,0.0231492,-0.0291067,0.0520439,-0.00617098,-0.789052,0.0369252,0.0454754,2015,932,53.2034,-9.75417
798,92,53.729,10.2189,0,0,0,0,0,0,0,-1,2022,932,53.729,-10.2189
805,92,0,0,0,0,0,0,0,0,0,-1,2029,932,0,0
812,92,0,0,0,0,0,0,0,0,0,-1,2036,932,0,0
-700,85,0,0,0,0,0,0,0,0,0,-1,524,939,0,0
-693,85,0,0,0,0,0,0,0,0,0,-1,531,939,0,0
-686,85,-42.0499,4.30652,0,0,0,0,0,0,0,-1,538,939,-42.0499,-4.30654
-679,85,-41.4347,4.7312,0,0,0,0,0,0,0,-1,545,939,-41.4347,-4.73118
-672,85,-40.7466,5.1394,0,0,0,0,0,0,0,-1,552,939,-40.7466,-5.1394
-665,85,-40.1166,5.45599,0,0,0,0,0,0,0,-1,559,939,-40.1166,-5.45602
-658,85,-39.1183,5.49377,0,0,0,0,0,0,0,-1,566,939,-39.1183,-5.49378
-651,85,-39.3891,5.38031,-0.0108173,0.0832535,-0.0142834,0.0853744,-0.0129382,-1.42338,0.061683,0.0429891,573,939,-39.3891,-5.3803
-644,85,-39.6792,5.29688,-0.00890235,0.061281,-0.00779405,0.0621361,-0.00975747,-1.46152,0.0450303,0.0351266,580,939,-39.6792,-5.29686
-637,85,-39.9136,5.07019,-0.00720778,0.043533,-0.00321881,0.0437364,-0.00741116,-1.5077,0.0319161,0.0211975,587,939,-39.9136,-5.07021
-630,85,-40.0209,4.64392,-0.00544837,0.0289727,0.000349876,0.0289763,-0.00545193,1.56063,0.0213679,0.0129535,594,939,-40.0209,-4.64393
-623,85,-40.0957,4.22418,-0.00425831,0.0172778,0.00220923,0.0175021,-0.0044826,1.46962,0.0134143,0.00988818,601,939,-40.0957,-4.22421
-616,85,-40.1122,3.81799,-0.00382319,0.00965733,0.00255117,0.010124,-0.00428985,1.38988,0.00854603,0.00999339,608,939,-40.1122,-3.81799
-609,85,-40.152,3.40021,-0.00341825,0.00432018,0.00216502,0.00488471,-0.00398279,1.31572,0.00512847,0.0127475,615,939,-40.152,-3.40019
-602,85,-40.1585,2.96594,-0.00348149,0.00153613,0.0018398,0.00213843,-0.00408379,1.25442,0.00365046,0.0173876,622,939,-40.1585,-2.96593
-595,85,-40.0577,2.51343,-0.00334761,0.000638413,0.00122081,0.000982592,-0.00369179,1.296,0.00284584,0.0217814,629,939,-40.0578,-2.51343
-588,85,-40.0767,2.09222,-0.00285458,-1.66555e-05,0.00071998,0.000155553,-0.00302679,1.33602,0.00207166,0.0238125,636,939,-40.0767,-2.09225
-581,85,-40.9189,1.62372,0,0,0,0,0,0,0,-1,643,939,-40.9189,-1.62371
-574,85,-41.1667,1.17358,0,0,0,0,0,0,0,-1,650,939,-41.1667,-1.17358
-567,85,-42.3609,0.966675,0,0,0,0,0,0,0,-1,657,939,-42.3609,-0.966652
-560,85,-42.3516,0.726563,-0.00210402,-0.000351602,-0.00098756,9.24228e-05,-0.00254804,-1.14826,0.00173033,0.0355045,664,939,-42.3515,-0.726545
-553,85,-42.3741,0.349915,-0.00208398,-7.93347e-05,-0.00125724,0.000526229,-0.00268955,-1.12193,0.00199175,0.0404104,671,939,-42.3741,-0.349894
-546,85,-42.4897,0.323303,-0.0018921,0.000360056,-0.00145344,0.0010726,-0.00260464,-1.11498,0.00218361,0.0412257,678,939,-42.4897,-0.323331
-539,85,-42.5829,0.596741,-0.0014566,0.000848291,-0.00156444,0.00163894,-0.00224724,-1.10285,0.00225283,0.0380371,685,939,-42.583,-0.596735
-532,85,-42.4612,0.921936,-0.000906234,0.00117429,-0.00172258,0.00214635,-0.0018783,-1.05704,0.00232535,0.03926,692,939,-42.4612,-0.921953
-525,85,-42.3817,0.970764,-0.000943747,0.00189409,-0.00227218,0.003154,-0.00220366,-1.06451,0.00310942,0.0392096,699,939,-42.3817,-0.970785
-518,85,-42.3689,0.928101,-0.00102372,0.00281451,-0.00314608,0.00458061,-0.00278982,-1.05927,0.00429699,0.0386398,706,939,-42.3689,-0.928089
-511,85,0,0,0,0,0,0,0,0,0,-1,713,939,0,0
-504,85,0,0,0,0,0,0,0,0,0,-1,720,939,0,0
-497,85,0,0,0,0,0,0,0,0,0,-1,727,939,0,0
-490,85,0,0,0,0,0,0,0,0,0,-1,734,939,0,0
-483,85,0,0,0,0,0,0,0,0,0,-1,741,939,0,0
-476,85,0,0,0,0,0,0,0,0,0,-1,748,939,0,0
-469,85,0,0,0,0,0,0,0,0,0,-1,755,939,0,0
-462,85,0,0,0,0,0,0,0,0,0,-1,762,939,0,0
-455,85,0,0,0,0,0,0,0,0,0,-1,769,939,0,0
-448,85,0,0,0,0,0,0,0,0,0,-1,776,939,0,0
-441,85,0,0,0,0,0,0,0,0,0,-1,783,939,0,0
-434,85,0,0,0,0,0,0,0,0,0,-1,790,939,0,0
-427,85,0,0,0,0,0,0,0,0,0,-1,797,939,0,0
-420,85,0,0,0,0,0,0,0,0,0,-1,804,939,0,0
-413,85,0,0,0,0,0,0,0,0,0,-1,811,939,0,0
-406,85,0,0,0,0,0,0,0,0,0,-1,818,939,0,0
-399,85,0,0,0,0,0,0,0,0,0,-1,825,939,0,0
-392,85,0,0,0,0,0,0,0,0,0,-1,832,939,0,0
-385,85,0,0,0,0,0,0,0,0,0,-1,839,939,0,0
-378,85,0,0,0,0,0,0,0,0,0,-1,846,939,0,0
-371,85,0,0,0,0,0,0,0,0,0,-1,853,939,0,0
-364,85,0,0,0,0,0,0,0,0,0,-1,860,939,0,0
-357,85,0,0,0,0,0,0,0,0,0,-1,867,939,0,0
-350,85,0,0,0,0,0,0,0,0,0,-1,874,939,0,0
-343,85,0,0,0,0,0,0,0,0,0,-1,881,939,0,0
-336,85,0,0,0,0,0,0,0,0,0,-1,888,939,0,0
-329,85,0,0,0,0,0,0,0,0,0,-1,895,939,0,0
-322,85,0,0,0,0,0,0,0,0,0,-1,902,939,0,0
-315,85,0,0,0,0,0,0,0,0,0,-1,909,939,0,0
-308,85,0,0,0,0,0,0,0,0,0,-1,916,939,0,0
-301,85,0,0,0,0,0,0,0,0,0,-1,923,939,0,0
-294,85,0,0,0,0,0,0,0,0,0,-1,930,939,0,0
-287,85,0,0,0,0,0,0,0,0,0,-1,937,939,0,0
-280,85,0,0,0,0,0,0,0,0,0,-1,944,939,0,0
-273,85,0,0,0,0,0,0,0,0,0,-1,951,939,0,0
-266,85,0,0,0,0,0,0,0,0,0,-1,958,939,0,0
-259,85,0,0,0,0,0,0,0,0,0,-1,965,939,0,0
-252,85,0,0,0,0,0,0,0,0,0,-1,972,939,0,0
-245,85,0,0,0,0,0,0,0,0,0,-1,979,939,0,0
-238,85,0,0,0,0,0,0,0,0,0,-1,986,939,0,0
-231,85,0,0,0,0,0,0,0,0,0,-1,993,939,0,0
-224,85,0,0,0,0,0,0,0,0,0,-1,1000,939,0,0
-217,85,0,0,0,0,0,0,0,0,0,-1,1007,939,0,0
-210,85,0,0,0,0,0,0,0,0,0,-1,1014,939,0,0
-203,85,0,0,0,0,0,0,0,0,0,-1,1021,939,0,0
-196,85,0,0,0,0,0,0,0,0,0,-1,1028,939,0,0
-189,85,0,0,0,0,0,0,0,0,0,-1,1035,939,0,0
-182,85,0,0,0,0,0,0,0,0,0,-1,1042,939,0,0
-175,85,0,0,0,0,0,0,0,0,0,-1,1049,939,0,0
-168,85,0,0,0,0,0,0,0,0,0,-1,1056,939,0,0
-161,85,0,0,0,0,0,0,0,0,0,-1,1063,939,0,0
-154,85,0,0,0,0,0,0,0,0,0,-1,1070,939,0,0
-147,85,0,0,0,0,0,0,0,0,0,-1,1077,939,0,0
-140,85,0,0,0,0,0,0,0,0,0,-1,1084,939,0,0
-133,85,0,0,0,0,0,0,0,0,0,-1,1091,939,0,0
-126,85,0,0,0,0,0,0,0,0,0,-1,1098,939,0,0
-119,85,0,0,0,0,0,0,0,0,0,-1,1105,939,0,0
-112,85,0,0,0,0,0,0,0,0,0,-1,1112,939,0,0
-105,85,0,0,0,0,0,0,0,0,0,-1,1119,939,0,0
-98,85,0,0,0,0,0,0,0,0,0,-1,1126,939,0,0
-91,85,0,0,0,0,0,0,0,0,0,-1,1133,939,0,0
-84,85,0,0,0,0,0,0,0,0,0,-1,1140,939,0,0
-77,85,0,0,0,0,0,0,0,0,0,-1,1147,939,0,0
-70,85,0,0,0,0,0,0,0,0,0,-1,1154,939,0,0
-63,85,0,0,0,0,0,0,0,0,0,-1,1161,939,0,0
-56,85,0,0,0,0,0,0,0,0,0,-1,1168,939,0,0
-49,85,0,0,0,0,0,0,0,0,0,-1,1175,939,0,0
-42,85,0,0,0,0,0,0,0,0,0,-1,1182,939,0,0
-35,85,0,0,0,0,0,0,0,0,0,-1,1189,939,0,0
-28,85,0,0,0,0,0,0,0,0,0,-1,1196,939,0,0
-21,85,0,0,0,0,0,0,0,0,0,-1,1203,939,0,0
-14,85,0,0,0,0,0,0,0,0,0,-1,1210,939,0,0
-7,85,0,0,0,0,0,0,0,0,0,-1,1217,939,0,0
0,85,0,0,0,0,0,0,0,0,0,-1,1224,939,0,0
7,85,0,0,0,0,0,0,0,0,0,-1,1231,939,0,0
14,85,0,0,0,0,0,0,0,0,0,-1,1238,939,0,0
21,85,0,0,0,0,0,0,0,0,0,-1,1245,939,0,0
28,85,0,0,0,0,0,0,0,0,0,-1,1252,939,0,0
35,85,0,0,0,0,0,0,0,0,0,-1,1259,939,0,0
42,85,0,0,0,0,0,0,0,0,0,-1,1266,939,0,0
49,85,0,0,0,0,0,0,0,0,0,-1,1273,939,0,0
56,85,0,0,0,0,0,0,0,0,0,-1,1280,939,0,0
63,85,0,0,0,0,0,0,0,0,0,-1,1287,939,0,0
70,85,0,0,0,0,0,0,0,0,0,-1,1294,939,0,0
77,85,0,0,0,0,0,0,0,0,0,-1,1301,939,0,0
84,85,0,0,0,0,0,0,0,0,0,-1,1308,939,0,0
91,85,0,0,0,0,0,0,0,0,0,-1,1315,939,0,0
98,85,0,0,0,0,0,0,0,0,0,-1,1322,939,0,0
105,85,0,0,0,0,0,0,0,0,0,-1,1329,939,0,0
112,85,0,0,0,0,0,0,0,0,0,-1,1336,939,0,0
119,85,0,0,0,0,0,0,0,0,0,-1,1343,939,0,0
126,85,0,0,0,0,0,0,0,0,0,-1,1350,939,0,0
133,85,0,0,0,0,0,0,0,0,0,-1,1357,939,0,0
140,85,0,0,0,0,0,0,0,0,0,-1,1364,939,0,0
147,85,0,0,0,0,0,0,0,0,0,-1,1371,939,0,0
154,85,0,0,0,0,0,0,0,0,0,-1,1378,939,0,0
161,85,0,0,0,0,0,0,0,0,0,-1,1385,939,0,0
168,85,0,0,0,0,0,0,0,0,0,-1,1392,939,0,0
175,85,0,0,0,0,0,0,0,0,0,-1,1399,939,0,0
182,85,0,0,0,0,0,0,0,0,0,-1,1406,939,0,0
189,85,0,0,0,0,0,0,0,0,0,-1,1413,939,0,0
196,85,0,0,0,0,0,0,0,0,0,-1,1420,939,0,0
203,85,0,0,0,0,0,0,0,0,0,-1,1427,939,0,0
210,85,0,0,0,0,0,0,0,0,0,-1,1434,939,0,0
217,85,0,0,0,0,0,0,0,0,0,-1,1441,939,0,0
224,85,0,0,0,0,0,0,0,0,0,-1,1448,939,0,0
231,85,0,0,0,0,0,0,0,0,0,-1,1455,939,0,0
238,85,0,0,0,0,0,0,0,0,0,-1,1462,939,0,0
245,85,0,0,0,0,0,0,0,0,0,-1,1469,939,0,0
252,85,0,0,0,0,0,0,0,0,0,-1,1476,939,0,0
259,85,0,0,0,0,0,0,0,0,0,-1,1483,939,0,0
266,85,0,0,0,0,0,0,0,0,0,-1,1490,939,0,0
273,85,0,0,0,0,0,0,0,0,0,-1,1497,939,0,0
280,85,0,0,0,0,0,0,0,0,0,-1,1504,939,0,0
287,85,0,0,0,0,0,0,0,0,0,-1,1511,939,0,0
294,85,0,0,0,0,0,0,0,0,0,-1,1518,939,0,0
301,85,0,0,0,0,0,0,0,0,0,-1,1525,939,0,0
308,85,0,0,0,0,0,0,0,0,0,-1,1532,939,0,0
315,85,0,0,0,0,0,0,0,0,0,-1,1539,939,0,0
322,85,0,0,0,0,0,0,0,0,0,-1,1546,939,0,0
329,85,0,0,0,0,0,0,0,0,0,-1,1553,939,0,0
336,85,0,0,0,0,0,0,0,0,0,-1,1560,939,0,0
343,85,0,0,0,0,0,0,0,0,0,-1,1567,939,0,0
350,85,0,0,0,0,0,0,0,0,0,-1,1574,939,0,0
357,85,0,0,0,0,0,0,0,0,0,-1,1581,939,0,0
364,85,0,0,0,0,0,0,0,0,0,-1,1588,939,0,0
371,85,0,0,0,0,0,0,0,0,0,-1,1595,939,0,0
378,85,0,0,0,0,0,0,0,0,0,-1,1602,939,0,0
385,85,0,0,0,0,0,0,0,0,0,-1,1609,939,0,0
392,85,0,0,0,0,0,0,0,0,0,-1,1616,939,0,0
399,85,0,0,0,0,0,0,0,0,0,-1,1623,939,0,0
406,85,0,0,0,0,0,0,0,0,0,-1,1630,939,0,0
413,85,0,0,0,0,0,0,0,0,0,-1,1637,939,0,0
420,85,0,0,0,0,0,0,0,0,0,-1,1644,939,0,0
427,85,0,0,0,0,0,0,0,0,0,-1,1651,939,0,0
434,85,0,0,0,0,0,0,0,0,0,-1,1658,939,0,0
441,85,0,0,0,0,0,0,0,0,0,-1,1665,939,0,0
448,85,0,0,0,0,0,0,0,0,0,-1,1672,939,0,0
455,85,0,0,0,0,0,0,0,0,0,-1,1679,939,0,0
462,85,0,0,0,0,0,0,0,0,0,-1,1686,939,0,0
469,85,0,0,0,0,0,0,0,0,0,-1,1693,939,0,0
476,85,0,0,0,0,0,0,0,0,0,-1,1700,939,0,0
483,85,0,0,0,0,0,0,0,0,0,-1,1707,939,0,0
490,85,0,0,0,0,0,0,0,0,0,-1,1714,939,0,0
497,85,0,0,0,0,0,0,0,0,0,-1,1721,939,0,0
504,85,0,0,0,0,0,0,0,0,0,-1,1728,939,0,0
511,85,0,0,0,0,0,0,0,0,0,-1,1735,939,0,0
518,85,0,0,0,0,0,0,0,0,0,-1,1742,939,0,0
525,85,0,0,0,0,0,0,0,0,0,-1,1749,939,0,0
532,85,0,0,0,0,0,0,0,0,0,-1,1756,939,0,0
539,85,0,0,0,0,0,0,0,0,0,-1,1763,939,0,0
546,85,0,0,0,0,0,0,0,0,0,-1,1770,939,0,0
553,85,0,0,0,0,0,0,0,0,0,-1,1777,939,0,0
560,85,0,0,0,0,0,0,0,0,0,-1,1784,939,0,0
567,85,0,0,0,0,0,0,0,0,0,-1,1791,939,0,0
574,85,0,0,0,0,0,0,0,0,0,-1,1798,939,0,0
581,85,0,0,0,0,0,0,0,0,0,-1,1805,939,0,0
588,85,0,0,0,0,0,0,0,0,0,-1,1812,939,0,0
595,85,0,0,0,0,0,0,0,0,0,-1,1819,939,0,0
602,85,0,0,0,0,0,0,0,0,0,-1,1826,939,0,0
609,85,0,0,0,0,0,0,0,0,0,-1,1833,939,0,0
616,85,0,0,0,0,0,0,0,0,0,-1,1840,939,0,0
623,85,0,0,0,0,0,0,0,0,0,-1,1847,939,0,0
630,85,0,0,0,0,0,0,0,0,0,-1,1854,939,0,0
637,85,56.5712,2.25031,-0.00855865,0.000681604,0.00607736,0.0036956,-0.0115726,1.1104,0.00919787,0.0499676,1861,939,56.5711,-2.25031
644,85,56.3149,2.37018,-0.00619595,0.000712453,0.00443333,0.00287839,-0.00836188,1.11634,0.00674207,0.0439183,1868,939,56.3149,-2.37015
651,85,56.224,2.57416,-0.00456069,0.000924752,0.00331348,0.00248338,-0.00611932,1.13111,0.00511251,0.0423328,1875,939,56.224,-2.57413
658,85,56.2223,2.70209,-0.00332621,0.00124535,0.00260932,0.00242848,-0.00450934,1.1451,0.00406516,0.0402836,1882,939,56.2223,-2.70208
665,85,56.1571,2.67725,-0.00235178,0.00162955,0.00214298,0.0025638,-0.00328603,1.15968,0.00338597,0.0410746,1889,939,56.1571,-2.67727
672,85,56.1912,2.64166,-0.00194658,0.00171785,0.00192312,0.00254184,-0.00277057,1.166,0.00306806,0.0428597,1896,939,56.1911,-2.64166
679,85,56.5771,2.37689,-0.00182331,0.00148628,0.00183087,0.00229936,-0.00263639,1.15286,0.00285187,0.0400641,1903,939,56.5772,-2.37688
686,85,56.4005,2.57794,-0.0016932,0.00120983,0.00160538,0.0019226,-0.00240597,1.15295,0.00250429,0.0349986,1910,939,56.4005,-2.57796
693,85,56.3789,2.64496,-0.00144681,0.000959583,0.00115852,0.00142667,-0.0019139,1.18755,0.0019355,0.0328879,1917,939,56.379,-2.64494
700,85,56.4008,2.76141,-0.00154331,0.000914084,0.000754594,0.0011273,-0.00175652,1.29542,0.00167813,0.0452865,1924,939,56.4007,-2.76139
707,85,56.4764,2.86292,0,0,0,0,0,0,0,-1,1931,939,56.4765,-2.86292
714,85,53.3448,4.08154,0,0,0,0,0,0,0,-1,1938,939,53.3449,-4.08155
721,85,53.1707,4.63641,-0.00296452,0.00158612,-0.000360909,0.00161457,-0.00299297,-1.49214,0.00269955,0.0330216,1945,939,53.1707,-4.6364
728,85,52.9661,5.21313,-0.0035034,0.00225341,-0.000676574,0.00233185,-0.00358184,-1.45537,0.0034396,0.0299877,1952,939,52.9661,-5.21316
735,85,52.9817,5.59869,-0.00372994,0.00340489,-0.00121134,0.00360494,-0.00392999,-1.40713,0.00435164,0.0277362,1959,939,52.9816,-5.59871
742,85,53.0553,6.04382,-0.00362977,0.00490338,-0.00254978,0.00560723,-0.00433362,-1.30146,0.00575503,0.0187354,1966,939,53.0553,-6.04383
749,85,52.9753,6.49664,-0.00352564,0.00734876,-0.00386177,0.00858062,-0.0047575,-1.26201,0.0078055,0.0151918,1973,939,52.9754,-6.49664
756,85,52.86,6.90747,-0.00293136,0.01083,-0.00553788,0.0127817,-0.00488312,-1.23195,0.0105332,0.0139553,1980,939,52.86,-6.90748
763,85,52.8274,7.34399,-0.00150468,0.0149665,-0.00763348,0.0179602,-0.00449829,-1.19706,0.0137209,0.0145907,1987,939,52.8274,-7.34402
770,85,52.736,7.84326,0.000773398,0.0192547,-0.0103727,0.0239058,-0.00387775,-1.14927,0.0173746,0.0208407,1994,939,52.7359,-7.84328
777,85,52.6294,8.45355,0.0040748,0.0236983,-0.0140965,0.0310616,-0.0032885,-1.08943,0.0218864,0.0436212,2001,939,52.6293,-8.45354
784,85,52.6113,9.08191,0,0,0,0,0,0,0,-1,2008,939,52.6113,-9.08188
791,85,54.0369,10.0245,0,0,0,0,0,0,0,-1,2015,939,54.0369,-10.0245
798,85,54.551,10.4586,0,0,0,0,0,0,0,-1,2022,939,54.5511,-10.4586
805,85,49.3545,7.11475,0,0,0,0,0,0,0,-1,2029,939,49.3545,-7.11474
812,85,0,0,0,0,0,0,0,0,0,-1,2036,939,0,0
-700,78,0,0,0,0,0,0,0,0,0,-1,524,946,0,0
-693,78,0,0,0,0,0,0,0,0,0,-1,531,946,0,0
-686,78,-41.9576,3.46228,0,0,0,0,0,0,0,-1,538,946,-41.9576,-3.46231
-679,78,-39.9401,7.91162,0,0,0,0,0,0,0,-1,545,946,-39.9401,-7.91164
-672,78,-41.3152,4.65656,0,0,0,0,0,0,0,-1,552,946,-41.3152,-4.65658
-665,78,-40.4751,8.68195,0,0,0,0,0,0,0,-1,559,946,-40.4751,-8.68192
-658,78,-40.6013,8.72876,-0.0186379,0.108144,-0.0219128,0.111825,-0.0223184,-1.40439,0.0829958,0.0472724,566,946,-40.6013,-8.72873
-651,78,-39.8471,5.23633,-0.0144601,0.0840117,-0.0136956,0.0858811,-0.0163294,-1.43514,0.0634021,0.0443939,573,946,-39.8471,-5.23632
-644,78,-40.1185,5.18085,-0.0111826,0.0628623,-0.00747163,0.0636087,-0.011929,-1.47123,0.0468906,0.0298931,580,946,-40.1185,-5.18085
-637,78,-40.3809,4.92542,-0.00845246,0.0452798,-0.00310296,0.0454584,-0.00863105,-1.5133,0.0335547,0.018601,587,946,-40.3809,-4.92542
-630,78,-40.5192,4.55231,-0.00595649,0.0303832,0.000399221,0.0303876,-0.00596088,1.55981,0.02251,0.016324,594,946,-40.5191,-4.55232
-623,78,-40.5602,4.17712,-0.00412104,0.0180915,0.00213248,0.0182944,-0.00432391,1.47595,0.0138642,0.0128826,601,946,-40.5602,-4.1771
-616,78,-40.5912,3.78577,-0.00338671,0.0103247,0.00219744,0.0106683,-0.00373027,1.41571,0.00862869,0.01178,608,946,-40.5913,-3.78575
-609,78,-40.579,3.40094,-0.00280243,0.00499896,0.00159639,0.00531299,-0.00311646,1.37657,0.00492151,0.0128772,615,946,-40.579,-3.40093
-602,78,-40.598,3.00421,-0.00284686,0.00189556,0.00128718,0.0022224,-0.0031737,1.32213,0.00313154,0.0174095,622,946,-40.598,-3.0042
-595,78,-40.5118,2.54303,-0.00272035,0.000832665,0.000697153,0.00096456,-0.00285225,1.38382,0.00229171,0.0178857,629,946,-40.5118,-2.54301
-588,78,-40.4925,2.18774,-0.00223064,4.95452e-05,0.000168604,6.19449e-05,-0.00224304,1.49739,0.00151643,0.015198,636,946,-40.4925,-2.18774
-581,78,-40.4562,1.76398,0,0,0,0,0,0,0,-1,643,946,-40.4562,-1.76395
-574,78,-41.5255,1.26434,0,0,0,0,0,0,0,-1,650,946,-41.5255,-1.26435
-567,78,-42.4229,0.832886,0,0,0,0,0,0,0,-1,657,946,-42.4228,-0.832877
-560,78,-42.3202,0.838379,-0.0017851,-0.000364543,-0.00151855,0.000601635,-0.00275127,-1.00415,0.00206416,0.0339912,664,946,-42.3202,-0.838379
-553,78,-42.2824,0.525635,-0.00184133,-2.21928e-05,-0.00175669,0.00104644,-0.00290996,-1.02428,0.00236718,0.0397531,671,946,-42.2824,-0.525644
-546,78,-42.4268,0.533081,-0.00173159,0.000501399,-0.00193463,0.00161859,-0.00284878,-1.04711,0.00261163,0.0434994,678,946,-42.4267,-0.533058
-539,78,-42.4387,0.683228,-0.0014625,0.00108204,-0.00208704,0.00225403,-0.00263449,-1.05912,0.00282524,0.0424252,685,946,-42.4387,-0.683209
-532,78,-42.2701,0.936951,-0.00106499,0.0015202,-0.00254189,0.00307928,-0.00262406,-1.02062,0.00329632,0.0422387,692,946,-42.2701,-0.936934
-525,78,-42.0971,0.938965,-0.00135298,0.0025986,-0.00367818,0.00479807,-0.00355245,-1.03187,0.00483902,0.0406744,699,946,-42.0971,-0.938948
-518,78,-42.2686,0.680725,-0.00165922,0.00380241,-0.00510732,0.00686314,-0.00471995,-1.0309,0.00672555,0.0429186,706,946,-42.2685,-0.680754
-511,78,0,0,0,0,0,0,0,0,0,-1,713,946,0,0
-504,78,0,0,0,0,0,0,0,0,0,-1,720,946,0,0
-497,78,0,0,0,0,0,0,0,0,0,-1,727,946,0,0
-490,78,0,0,0,0,0,0,0,0,0,-1,734,946,0,0
-483,78,0,0,0,0,0,0,0,0,0,-1,741,946,0,0
-476,78,0,0,0,0,0,0,0,0,0,-1,748,946,0,0
-469,78,0,0,0,0,0,0,0,0,0,-1,755,946,0,0
-462,78,0,0,0,0,0,0,0,0,0,-1,762,946,0,0
-455,78,0,0,0,0,0,0,0,0,0,-1,769,946,0,0
-448,78,0,0,0,0,0,0,0,0,0,-1,776,946,0,0
-441,78,0,0,0,0,0,0,0,0,0,-1,783,946,0,0
-434,78,0,0,0,0,0,0,0,0,0,-1,790,946,0,0
-427,78,0,0,0,0,0,0,0,0,0,-1,797,946,0,0
-420,78,0,0,0,0,0,0,0,0,0,-1,804,946,0,0
-413,78,0,0,0,0,0,0,0,0,0,-1,811,946,0,0
-406,78,0,0,0,0,0,0,0,0,0,-1,818,946,0,0
-399,78,0,0,0,0,0,0,0,0,0,-1,825,946,0,0
-392,78,0,0,0,0,0,0,0,0,0,-1,832,946,0,0
-385,78,0,0,0,0,0,0,0,0,0,-1,839,946,0,0
-378,78,0,0,0,0,0,0,0,0,0,-1,846,946,0,0
-371,78,0,0,0,0,0,0,0,0,0,-1,853,946,0,0
-364,78,0,0,0,0,0,0,0,0,0,-1,860,946,0,0
-357,78,0,0,0,0,0,0,0,0,0,-1,867,946,0,0
-350,78,0,0,0,0,0,0,0,0,0,-1,874,946,0,0
-343,78,0,0,0,0,0,0,0,0,0,-1,881,946,0,0
-336,78,0,0,0,0,0,0,0,0,0,-1,888,946,0,0
-329,78,0,0,0,0,0,0,0,0,0,-1,895,946,0,0
-322,78,0,0,0,0,0,0,0,0,0,-1,902,946,0,0
-315,78,0,0,0,0,0,0,0,0,0,-1,909,946,0,0
-308,78,0,0,0,0,0,0,0,0,0,-1,916,946,0,0
-301,78,0,0,0,0,0,0,0,0,0,-1,923,946,0,0
-294,78,0,0,0,0,0,0,0,0,0,-1,930,946,0,0
-287,78,0,0,0,0,0,0,0,0,0,-1,937,946,0,0
-280,78,0,0,0,0,0,0,0,0,0,-1,944,946,0,0
-273,78,0,0,0,0,0,0,0,0,0,-1,951,946,0,0
-266,78,0,0,0,0,0,0,0,0,0,-1,958,946,0,0
-259,78,0,0,0,0,0,0,0,0,0,-1,965,946,0,0
-252,78,0,0,0,0,0,0,0,0,0,-1,972,946,0,0
-245,78,0,0,0,0,0,0,0,0,0,-1,979,946,0,0
-238,78,0,0,0,0,0,0,0,0,0,-1,986,946,0,0
-231,78,0,0,0,0,0,0,0,0,0,-1,993,946,0,0
-224,78,0,0,0,0,0,0,0,0,0,-1,1000,946,0,0
-217,78,0,0,0,0,0,0,0,0,0,-1,1007,946,0,0
-210,78,0,0,0,0,0,0,0,0,0,-1,1014,946,0,0
-203,78,0,0,0,0,0,0,0,0,0,-1,1021,946,0,0
-196,78,0,0,0,0,0,0,0,0,0,-1,1028,946,0,0
-189,78,0,0,0,0,0,0,0,0,0,-1,1035,946,0,0
-182,78,0,0,0,0,0,0,0,0,0,-1,1042,946,0,0
-175,78,0,0,0,0,0,0,0,0,0,-1,1049,946,0,0
-168,78,0,0,0,0,0,0,0,0,0,-1,1056,946,0,0
-161,78,0,0,0,0,0,0,0,0,0,-1,1063,946,0,0
-154,78,0,0,0,0,0,0,0,0,0,-1,1070,946,0,0
-147,78,0,0,0,0,0,0,0,0,0,-1,1077,946,0,0
-140,78,0,0,0,0,0,0,0,0,0,-1,1084,946,0,0
-133,78,0,0,0,0,0,0,0,0,0,-1,1091,946,0,0
-126,78,0,0,0,0,0,0,0,0,0,-1,1098,946,0,0
-119,78,0,0,0,0,0,0,0,0,0,-1,1105,946,0,0
-112,78,0,0,0,0,0,0,0,0,0,-1,1112,946,0,0
-105,78,0,0,0,0,0,0,0,0,0,-1,1119,946,0,0
-98,78,0,0,0,0,0,0,0,0,0,-1,1126,946,0,0
-91,78,0,0,0,0,0,0,0,0,0,-1,1133,946,0,0
-84,78,0,0,0,0,0,0,0,0,0,-1,1140,946,0,0
-77,78,0,0,0,0,0,0,0,0,0,-1,1147,946,0,0
-70,78,0,0,0,0,0,0,0,0,0,-1,1154,946,0,0
-63,78,0,0,0,0,0,0,0,0,0,-1,1161,946,0,0
-56,78,0,0,0,0,0,0,0,0,0,-1,1168,946,0,0
-49,78,0,0,0,0,0,0,0,0,0,-1,1175,946,0,0
-42,78,0,0,0,0,0,0,0,0,0,-1,1182,946,0,0
-35,78,0,0,0,0,0,0,0,0,0,-1,1189,946,0,0
-28,78,0,0,0,0,0,0,0,0,0,-1,1196,946,0,0
-21,78,0,0,0,0,0,0,0,0,0,-1,1203,946,0,0
-14,78,0,0,0,0,0,0,0,0,0,-1,1210,946,0,0
-7,78,0,0,0,0,0,0,0,0,0,-1,1217,946,0,0
0,78,0,0,0,0,0,0,0,0,0,-1,1224,946,0,0
7,78,0,0,0,0,0,0,0,0,0,-1,1231,946,0,0
14,78,0,0,0,0,0,0,0,0,0,-1,1238,946,0,0
21,78,0,0,0,0,0,0,0,0,0,-1,1245,946,0,0
28,78,0,0,0,0,0,0,0,0,0,-1,1252,946,0,0
35,78,0,0,0,0,0,0,0,0,0,-1,1259,946,0,0
42,78,0,0,0,0,0,0,0,0,0,-1,1266,946,0,0
49,78,0,0,0,0,0,0,0,0,0,-1,1273,946,0,0
56,78,0,0,0,0,0,0,0,0,0,-1,1280,946,0,0
63,78,0,0,0,0,0,0,0,0,0,-1,1287,946,0,0
70,78,0,0,0,0,0,0,0,0,0,-1,1294,946,0,0
77,78,0,0,0,0,0,0,0,0,0,-1,1301,946,0,0
84,78,0,0,0,0,0,0,0,0,0,-1,1308,946,0,0
91,78,0,0,0,0,0,0,0,0,0,-1,1315,946,0,0
98,78,0,0,0,0,0,0,0,0,0,-1,1322,946,0,0
105,78,0,0,0,0,0,0,0,0,0,-1,1329,946,0,0
112,78,0,0,0,0,0,0,0,0,0,-1,1336,946,0,0
119,78,0,0,0,0,0,0,0,0,0,-1,1343,946,0,0
126,78,0,0,0,0,0,0,0,0,0,-1,1350,946,0,0
133,78,0,0,0,0,0,0,0,0,0,-1,1357,946,0,0
140,78,0,0,0,0,0,0,0,0,0,-1,1364,946,0,0
147,78,0,0,0,0,0,0,0,0,0,-1,1371,946,0,0
154,78,0,0,0,0,0,0,0,0,0,-1,1378,946,0,0
161,78,0,0,0,0,0,0,0,0,0,-1,1385,946,0,0
168,78,0,0,0,0,0,0,0,0,0,-1,1392,946,0,0
175,78,0,0,0,0,0,0,0,0,0,-1,1399,946,0,0
182,78,0,0,0,0,0,0,0,0,0,-1,1406,946,0,0
189,78,0,0,0,0,0,0,0,0,0,-1,1413,946,0,0
196,78,0,0,0,0,0,0,0,0,0,-1,1420,946,0,0
203,78,0,0,0,0,0,0,0,0,0,-1,1427,946,0,0
210,78,0,0,0,0,0,0,0,0,0,-1,1434,946,0,0
217,78,0,0,0,0,0,0,0,0,0,-1,1441,946,0,0
224,78,0,0,0,0,0,0,0,0,0,-1,1448,946,0,0
231,78,0,0,0,0,0,0,0,0,0,-1,1455,946,0,0
238,78,0,0,0,0,0,0,0,0,0,-1,1462,946,0,0
245,78,0,0,0,0,0,0,0,0,0,-1,1469,946,0,0
252,78,0,0,0,0,0,0,0,0,0,-1,1476,946,0,0
259,78,0,0,0,0,0,0,0,0,0,-1,1483,946,0,0
266,78,0,0,0,0,0,0,0,0,0,-1,1490,946,0,0
273,78,0,0,0,0,0,0,0,0,0,-1,1497,946,0,0
280,78,0,0,0,0,0,0,0,0,0,-1,1504,946,0,0
287,78,0,0,0,0,0,0,0,0,0,-1,1511,946,0,0
294,78,0,0,0,0,0,0,0,0,0,-1,1518,946,0,0
301,78,0,0,0,0,0,0,0,0,0,-1,1525,946,0,0
308,78,0,0,0,0,0,0,0,0,0,-1,1532,946,0,0
315,78,0,0,0,0,0,0,0,0,0,-1,1539,946,0,0
322,78,0,0,0,0,0,0,0,0,0,-1,1546,946,0,0
329,78,0,0,0,0,0,0,0,0,0,-1,1553,946,0,0
336,78,0,0,0,0,0,0,0,0,0,-1,1560,946,0,0
343,78,0,0,0,0,0,0,0,0,0,-1,1567,946,0,0
350,78,0,0,0,0,0,0,0,0,0,-1,1574,946,0,0
357,78,0,0,0,0,0,0,0,0,0,-1,1581,946,0,0
364,78,0,0,0,0,0,0,0,0,0,-1,1588,946,0,0
371,78,0,0,0,0,0,0,0,0,0,-1,1595,946,0,0
378,78,0,0,0,0,0,0,0,0,0,-1,1602,946,0,0
385,78,0,0,0,0,0,0,0,0,0,-1,1609,946,0,0
392,78,0,0,0,0,0,0,0,0,0,-1,1616,946,0,0
399,78,0,0,0,0,0,0,0,0,0,-1,1623,946,0,0
406,78,0,0,0,0,0,0,0,0,0,-1,1630,946,0,0
413,78,0,0,0,0,0,0,0,0,0,-1,1637,946,0,0
420,78,0,0,0,0,0,0,0,0,0,-1,1644,946,0,0
427,78,0,0,0,0,0,0,0,0,0,-1,1651,946,0,0
434,78,0,0,0,0,0,0,0,0,0,-1,1658,946,0,0
441,78,0,0,0,0,0,0,0,0,0,-1,1665,946,0,0
448,78,0,0,0,0,0,0,0,0,0,-1,1672,946,0,0
455,78,0,0,0,0,0,0,0,0,0,-1,1679,946,0,0
462,78,0,0,0,0,0,0,0,0,0,-1,1686,946,0,0
469,78,0,0,0,0,0,0,0,0,0,-1,1693,946,0,0
476,78,0,0,0,0,0,0,0,0,0,-1,1700,946,0,0
483,78,0,0,0,0,0,0,0,0,0,-1,1707,946,0,0
490,78,0,0,0,0,0,0,0,0,0,-1,1714,946,0,0
497,78,0,0,0,0,0,0,0,0,0,-1,1721,946,0,0
504,78,0,0,0,0,0,0,0,0,0,-1,1728,946,0,0
511,78,0,0,0,0,0,0,0,0,0,-1,1735,946,0,0
518,78,0,0,0,0,0,0,0,0,0,-1,1742,946,0,0
525,78,0,0,0,0,0,0,0,0,0,-1,1749,946,0,0
532,78,0,0,0,0,0,0,0,0,0,-1,1756,946,0,0
539,78,0,0,0,0,0,0,0,0,0,-1,1763,946,0,0
546,78,0,0,0,0,0,0,0,0,0,-1,1770,946,0,0
553,78,0,0,0,0,0,0,0,0,0,-1,1777,946,0,0
560,78,0,0,0,0,0,0,0,0,0,-1,1784,946,0,0
567,78,0,0,0,0,0,0,0,0,0,-1,1791,946,0,0
574,78,0,0,0,0,0,0,0,0,0,-1,1798,946,0,0
581,78,0,0,0,0,0,0,0,0,0,-1,1805,946,0,0
588,78,0,0,0,0,0,0,0,0,0,-1,1812,946,0,0
595,78,0,0,0,0,0,0,0,0,0,-1,1819,946,0,0
602,78,0,0,0,0,0,0,0,0,0,-1,1826,946,0,0
609,78,0,0,0,0,0,0,0,0,0,-1,1833,946,0,0
616,78,0,0,0,0,0,0,0,0,0,-1,1840,946,0,0
623,78,0,0,0,0,0,0,0,0,0,-1,1847,946,0,0
630,78,0,0,0,0,0,0,0,0,0,-1,1854,946,0,0
637,78,56.7018,2.45502,-0.00788533,0.000436242,0.00566318,0.00330281,-0.0107519,1.10222,0.0084859,0.0481958,1861,946,56.7018,-2.455
644,78,56.4116,2.47516,-0.00548871,0.000377582,0.00407675,0.00246671,-0.00757784,1.09724,0.0060443,0.0439074,1868,946,56.4116,-2.47514
651,78,56.3282,2.63129,-0.00390561,0.000512948,0.00301234,0.00203932,-0.00543198,1.1018,0.00445934,0.0410392,1875,946,56.3282,-2.6313
658,78,56.3662,2.56836,-0.00278079,0.000765565,0.00241694,0.00199001,-0.00400523,1.10187,0.00352593,0.0365808,1882,946,56.3662,-2.56835
665,78,56.3582,2.51758,-0.00195629,0.00114012,0.00208574,0.00218946,-0.00300564,1.10467,0.00301171,0.0383752,1889,946,56.3582,-2.51759
672,78,56.4037,2.49164,-0.00167558,0.00129648,0.00196985,0.00227796,-0.00265705,1.10855,0.00285203,0.0402061,1896,946,56.4037,-2.49163
679,78,56.5308,2.3584,-0.00166574,0.0011225,0.00196599,0.0021385,-0.00268175,1.09381,0.00278886,0.0391858,1903,946,56.5308,-2.35839
686,78,56.4149,2.50342,-0.00160955,0.000883501,0.00180482,0.00183042,-0.00255647,1.08761,0.00254431,0.036479,1910,946,56.4149,-2.50344
693,78,56.3677,2.54327,-0.0014423,0.000678636,0.00140331,0.00137711,-0.00214077,1.10896,0.00204694,0.03396,1917,946,56.3676,-2.54328
700,78,56.3353,2.65607,-0.0016253,0.000658706,0.00104009,0.00106136,-0.00202795,1.20143,0.00181248,0.0314794,1924,946,56.3354,-2.65609
707,78,56.3646,2.88141,0,0,0,0,0,0,0,-1,1931,946,56.3646,-2.88139
714,78,53.6294,4.26752,0,0,0,0,0,0,0,-1,1938,946,53.6295,-4.26753
721,78,53.5583,4.698,-0.00324359,0.00153225,-6.86391e-05,0.00153323,-0.00324458,-1.55643,0.00281684,0.0318251,1945,946,53.5584,-4.69799
728,78,53.4644,5.25293,-0.00376786,0.00233476,-0.000416447,0.00236305,-0.00379614,-1.50297,0.00358795,0.0361918,1952,946,53.4644,-5.25292
735,78,53.5522,5.65875,-0.00397975,0.00365709,-0.00100338,0.00378672,-0.00410938,-1.44231,0.00456009,0.0251457,1959,946,53.5523,-5.65873
742,78,53.5966,6.07239,-0.00390687,0.00532126,-0.00237164,0.00589509,-0.0044807,-1.3334,0.00600899,0.0187872,1966,946,53.5966,-6.07241
749,78,53.4689,6.47888,-0.00386058,0.00797734,-0.00371448,0.00904633,-0.00492958,-1.29058,0.00818485,0.0157284,1973,946,53.4689,-6.47887
756,78,53.4043,6.83887,-0.00339,0.0118186,-0.00547311,0.0135834,-0.00515481,-1.25887,0.0111774,0.0157367,1980,946,53.4043,-6.83886
763,78,53.3247,7.21613,-0.00215268,0.0166476,-0.00763666,0.0193587,-0.00486373,-1.22967,0.014796,0.0161599,1987,946,53.3247,-7.21613
770,78,53.2162,7.60474,-0.000142478,0.0219141,-0.01038,0.0260307,-0.0042591,-1.19323,0.0189339,0.0220282,1994,946,53.2161,-7.60472
777,78,53.1543,8.22766,0.00272043,0.0276063,-0.0140289,0.0339154,-0.00358862,-1.14818,0.0238964,0.041727,2001,946,53.1542,-8.22768
784,78,53.4016,9.02179,0.00732464,0.033731,-0.0191267,0.043769,-0.00271343,-1.08749,0.0301246,0.0474782,2008,946,53.4015,-9.02177
791,78,52.8386,7.90875,0,0,0,0,0,0,0,-1,2015,946,52.8385,-7.90874
798,78,51.2927,7.8479,0,0,0,0,0,0,0,-1,2022,946,51.2928,-7.84791
805,78,50.8481,6.75513,0,0,0,0,0,0,0,-1,2029,946,50.848,-6.75512
812,78,0,0,0,0,0,0,0,0,0,-1,2036,946,0,0
-700,71,0,0,0,0,0,0,0,0,0,-1,524,953,0,0
-693,71,0,0,0,0,0,0,0,0,0,-1,531,953,0,0
-686,71,-39.2302,6.74292,0,0,0,0,0,0,0,-1,538,953,-39.2302,-6.74292
-679,71,-39.7764,6.69757,0,0,0,0,0,0,0,-1,545,953,-39.7764,-6.69758
-672,71,-40.0714,6.9693,0,0,0,0,0,0,0,-1,552,953,-40.0714,-6.96927
-665,71,-40.6511,7.20154,-0.0280956,0.139022,-0.0294813,0.14407,-0.0331439,-1.4012,0.108791,0.0457333,559,953,-40.6511,-7.20154
-658,71,-41.0021,7.31995,-0.0222955,0.112814,-0.0199028,0.115685,-0.0251663,-1.42754,0.086738,0.047318,566,953,-41.002,-7.31997
-651,71,-40.5081,5.54181,-0.0172435,0.08837,-0.0123966,0.0898056,-0.0186791,-1.45551,0.0669708,0.0441516,573,953,-40.5081,-5.5418
-644,71,-40.5983,5.23492,-0.0131741,0.0667004,-0.00673232,0.0672639,-0.0137376,-1.4873,0.0500542,0.0343442,580,953,-40.5982,-5.2349
-637,71,-40.8474,4.87506,-0.00975236,0.0484185,-0.002793,0.0485523,-0.00988615,-1.52293,0.0361174,0.0175225,587,953,-40.8473,-4.87505
-630,71,-40.9466,4.4967,-0.0067514,0.0326658,0.000515418,0.0326725,-0.00675814,1.55772,0.0243491,0.0159967,594,953,-40.9466,-4.49672
-623,71,-41.0055,4.13104,-0.00442243,0.0194772,0.00196089,0.019637,-0.00458225,1.48947,0.0148562,0.0147261,601,953,-41.0055,-4.13101
-616,71,-41.0292,3.71716,-0.00349778,0.0115045,0.00169037,0.0116926,-0.00368588,1.45997,0.00927125,0.014632,608,953,-41.0292,-3.71717
-609,71,-40.9896,3.36377,-0.00284799,0.00598696,0.000923959,0.00608256,-0.00294358,1.4677,0.00531525,0.0163579,615,953,-40.9896,-3.36377
-602,71,-40.9706,2.99249,-0.00284597,0.00259796,0.000588641,0.00266088,-0.00290889,1.46431,0.00321678,0.01724,622,953,-40.9707,-2.99249
-595,71,-40.9722,2.62799,-0.00269313,0.00135228,6.59669e-06,0.00135229,-0.00269315,1.56917,0.00237801,0.0189901,629,953,-40.9722,-2.62797
-588,71,-40.9401,2.33551,-0.00216486,0.000413598,-0.000549896,0.000525974,-0.00227723,-1.36921,0.00172049,0.0226427,636,953,-40.9401,-2.33553
-581,71,-41.2111,1.74689,0,0,0,0,0,0,0,-1,643,953,-41.2111,-1.74688
-574,71,-42.0052,1.18677,0,0,0,0,0,0,0,-1,650,953,-42.0052,-1.18678
-567,71,-42.6379,0.645874,0,0,0,0,0,0,0,-1,657,953,-42.6379,-0.645871
-560,71,-42.3986,0.732178,-0.0017741,-0.000248999,-0.00211174,0.00123366,-0.00325675,-0.958662,0.00267881,0.0283236,664,953,-42.3986,-0.732205
-553,71,-42.3951,0.786133,-0.00183563,0.000124317,-0.00228541,0.001631,-0.00334232,-0.987939,0.00292746,0.0394244,671,953,-42.3951,-0.786111
-546,71,-42.4753,0.798889,-0.00173603,0.000688585,-0.00239197,0.00215792,-0.00320536,-1.01994,0.00311611,0.0416528,678,953,-42.4754,-0.798865
-539,71,-42.4203,0.859985,-0.00153454,0.00132712,-0.00250019,0.00277695,-0.00298438,-1.0453,0.00332702,0.0425708,685,953,-42.4204,-0.859964
-532,71,-42.4029,0.730347,-0.0012459,0.00188434,-0.00309457,0.00378706,-0.00314863,-1.01952,0.00400997,0.0460142,692,953,-42.4029,-0.73035
-525,71,-42.4548,0.349854,-0.00175911,0.003556,-0.00468278,0.00628278,-0.00448589,-1.04349,0.00624608,0.0453068,699,953,-42.4548,-0.349852
-518,71,0,0,0,0,0,0,0,0,0,-1,706,953,0,0
-511,71,0,0,0,0,0,0,0,0,0,-1,713,953,0,0
-504,71,0,0,0,0,0,0,0,0,0,-1,720,953,0,0
-497,71,0,0,0,0,0,0,0,0,0,-1,727,953,0,0
-490,71,0,0,0,0,0,0,0,0,0,-1,734,953,0,0
-483,71,0,0,0,0,0,0,0,0,0,-1,741,953,0,0
-476,71,0,0,0,0,0,0,0,0,0,-1,748,953,0,0
-469,71,0,0,0,0,0,0,0,0,0,-1,755,953,0,0
-462,71,0,0,0,0,0,0,0,0,0,-1,762,953,0,0
-455,71,0,0,0,0,0,0,0,0,0,-1,769,953,0,0
-448,71,0,0,0,0,0,0,0,0,0,-1,776,953,0,0
-441,71,0,0,0,0,0,0,0,0,0,-1,783,953,0,0
-434,71,0,0,0,0,0,0,0,0,0,-1,790,953,0,0
-427,71,0,0,0,0,0,0,0,0,0,-1,797,953,0,0
-420,71,0,0,0,0,0,0,0,0,0,-1,804,953,0,0
-413,71,0,0,0,0,0,0,0,0,0,-1,811,953,0,0
-406,71,0,0,0,0,0,0,0,0,0,-1,818,953,0,0
-399,71,0,0,0,0,0,0,0,0,0,-1,825,953,0,0
-392,71,0,0,0,0,0,0,0,0,0,-1,832,953,0,0
-385,71,0,0,0,0,0,0,0,0,0,-1,839,953,0,0
-378,71,0,0,0,0,0,0,0,0,0,-1,846,953,0,0
-371,71,0,0,0,0,0,0,0,0,0,-1,853,953,0,0
-364,71,0,0,0,0,0,0,0,0,0,-1,860,953,0,0
-357,71,0,0,0,0,0,0,0,0,0,-1,867,953,0,0
-350,71,0,0,0,0,0,0,0,0,0,-1,874,953,0,0
-343,71,0,0,0,0,0,0,0,0,0,-1,881,953,0,0
-336,71,0,0,0,0,0,0,0,0,0,-1,888,953,0,0
-329,71,0,0,0,0,0,0,0,0,0,-1,895,953,0,0
-322,71,0,0,0,0,0,0,0,0,0,-1,902,953,0,0
-315,71,0,0,0,0,0,0,0,0,0,-1,909,953,0,0
-308,71,0,0,0,0,0,0,0,0,0,-1,916,953,0,0
-301,71,0,0,0,0,0,0,0,0,0,-1,923,953,0,0
-294,71,0,0,0,0,0,0,0,0,0,-1,930,953,0,0
-287,71,0,0,0,0,0,0,0,0,0,-1,937,953,0,0
-280,71,0,0,0,0,0,0,0,0,0,-1,944,953,0,0
-273,71,0,0,0,0,0,0,0,0,0,-1,951,953,0,0
-266,71,0,0,0,0,0,0,0,0,0,-1,958,953,0,0
-259,71,0,0,0,0,0,0,0,0,0,-1,965,953,0,0
-252,71,0,0,0,0,0,0,0,0,0,-1,972,953,0,0
-245,71,0,0,0,0,0,0,0,0,0,-1,979,953,0,0
-238,71,0,0,0,0,0,0,0,0,0,-1,986,953,0,0
-231,71,0,0,0,0,0,0,0,0,0,-1,993,953,0,0
-224,71,0,0,0,0,0,0,0,0,0,-1,1000,953,0,0
-217,71,0,0,0,0,0,0,0,0,0,-1,1007,953,0,0
-210,71,0,0,0,0,0,0,0,0,0,-1,1014,953,0,0
-203,71,0,0,0,0,0,0,0,0,0,-1,1021,953,0,0
-196,71,0,0,0,0,0,0,0,0,0,-1,1028,953,0,0
-189,71,0,0,0,0,0,0,0,0,0,-1,1035,953,0,0
-182,71,0,0,0,0,0,0,0,0,0,-1,1042,953,0,0
-175,71,0,0,0,0,0,0,0,0,0,-1,1049,953,0,0
-168,71,0,0,0,0,0,0,0,0,0,-1,1056,953,0,0
-161,71,0,0,0,0,0,0,0,0,0,-1,1063,953,0,0
-154,71,0,0,0,0,0,0,0,0,0,-1,1070,953,0,0
-147,71,0,0,0,0,0,0,0,0,0,-1,1077,953,0,0
-140,71,0,0,0,0,0,0,0,0,0,-1,1084,953,0,0
-133,71,0,0,0,0,0,0,0,0,0,-1,1091,953,0,0
-126,71,0,0,0,0,0,0,0,0,0,-1,1098,953,0,0
-119,71,0,0,0,0,0,0,0,0,0,-1,1105,953,0,0
-112,71,0,0,0,0,0,0,0,0,0,-1,1112,953,0,0
-105,71,0,0,0,0,0,0,0,0,0,-1,1119,953,0,0
-98,71,0,0,0,0,0,0,0,0,0,-1,1126,953,0,0
-91,71,0,0,0,0,0,0,0,0,0,-1,1133,953,0,0
-84,71,0,0,0,0,0,0,0,0,0,-1,1140,953,0,0
-77,71,0,0,0,0,0,0,0,0,0,-1,1147,953,0,0
-70,71,0,0,0,0,0,0,0,0,0,-1,1154,953,0,0
-63,71,0,0,0,0,0,0,0,0,0,-1,1161,953,0,0
-56,71,0,0,0,0,0,0,0,0,0,-1,1168,953,0,0
-49,71,0,0,0,0,0,0,0,0,0,-1,1175,953,0,0
-42,71,0,0,0,0,0,0,0,0,0,-1,1182,953,0,0
-35,71,0,0,0,0,0,0,0,0,0,-1,1189,953,0,0
-28,71,0,0,0,0,0,0,0,0,0,-1,1196,953,0,0
-21,71,0,0,0,0,0,0,0,0,0,-1,1203,953,0,0
-14,71,0,0,0,0,0,0,0,0,0,-1,1210,953,0,0
-7,71,0,0,0,0,0,0,0,0,0,-1,1217,953,0,0
0,71,0,0,0,0,0,0,0,0,0,-1,1224,953,0,0
7,71,0,0,0,0,0,0,0,0,0,-1,1231,953,0,0
14,71,0,0,0,0,0,0,0,0,0,-1,1238,953,0,0
21,71,0,0,0,0,0,0,0,0,0,-1,1245,953,0,0
28,71,0,0,0,0,0,0,0,0,0,-1,1252,953,0,0
35,71,0,0,0,0,0,0,0,0,0,-1,1259,953,0,0
42,71,0,0,0,0,0,0,0,0,0,-1,1266,953,0,0
49,71,0,0,0,0,0,0,0,0,0,-1,1273,953,0,0
56,71,0,0,0,0,0,0,0,0,0,-1,1280,953,0,0
63,71,0,0,0,0,0,0,0,0,0,-1,1287,953,0,0
70,71,0,0,0,0,0,0,0,0,0,-1,1294,953,0,0
77,71,0,0,0,0,0,0,0,0,0,-1,1301,953,0,0
84,71,0,0,0,0,0,0,0,0,0,-1,1308,953,0,0
91,71,0,0,0,0,0,0,0,0,0,-1,1315,953,0,0
98,71,0,0,0,0,0,0,0,0,0,-1,1322,953,0,0
105,71,0,0,0,0,0,0,0,0,0,-1,1329,953,0,0
112,71,0,0,0,0,0,0,0,0,0,-1,1336,953,0,0
119,71,0,0,0,0,0,0,0,0,0,-1,1343,953,0,0
126,71,0,0,0,0,0,0,0,0,0,-1,1350,953,0,0
133,71,0,0,0,0,0,0,0,0,0,-1,1357,953,0,0
140,71,0,0,0,0,0,0,0,0,0,-1,1364,953,0,0
147,71,0,0,0,0,0,0,0,0,0,-1,1371,953,0,0
154,71,0,0,0,0,0,0,0,0,0,-1,1378,953,0,0
161,71,0,0,0,0,0,0,0,0,0,-1,1385,953,0,0
168,71,0,0,0,0,0,0,0,0,0,-1,1392,953,0,0
175,71,0,0,0,0,0,0,0,0,0,-1,1399,953,0,0
182,71,0,0,0,0,0,0,0,0,0,-1,1406,953,0,0
189,71,0,0,0,0,0,0,0,0,0,-1,1413,953,0,0
196,71,0,0,0,0,0,0,0,0,0,-1,1420,953,0,0
203,71,0,0,0,0,0,0,0,0,0,-1,1427,953,0,0
210,71,0,0,0,0,0,0,0,0,0,-1,1434,953,0,0
217,71,0,0,0,0,0,0,0,0,0,-1,1441,953,0,0
224,71,0,0,0,0,0,0,0,0,0,-1,1448,953,0,0
231,71,0,0,0,0,0,0,0,0,0,-1,1455,953,0,0
238,71,0,0,0,0,0,0,0,0,0,-1,1462,953,0,0
245,71,0,0,0,0,0,0,0,0,0,-1,1469,953,0,0
252,71,0,0,0,0,0,0,0,0,0,-1,1476,953,0,0
259,71,0,0,0,0,0,0,0,0,0,-1,1483,953,0,0
266,71,0,0,0,0,0,0,0,0,0,-1,1490,953,0,0
273,71,0,0,0,0,0,0,0,0,0,-1,1497,953,0,0
280,71,0,0,0,0,0,0,0,0,0,-1,1504,953,0,0
287,71,0,0,0,0,0,0,0,0,0,-1,1511,953,0,0
294,71,0,0,0,0,0,0,0,0,0,-1,1518,953,0,0
301,71,0,0,0,0,0,0,0,0,0,-1,1525,953,0,0
308,71,0,0,0,0,0,0,0,0,0,-1,1532,953,0,0
315,71,0,0,0,0,0,0,0,0,0,-1,1539,953,0,0
322,71,0,0,0,0,0,0,0,0,0,-1,1546,953,0,0
329,71,0,0,0,0,0,0,0,0,0,-1,1553,953,0,0
336,71,0,0,0,0,0,0,0,0,0,-1,1560,953,0,0
343,71,0,0,0,0,0,0,0,0,0,-1,1567,953,0,0
350,71,0,0,0,0,0,0,0,0,0,-1,1574,953,0,0
357,71,0,0,0,0,0,0,0,0,0,-1,1581,953,0,0
364,71,0,0,0,0,0,0,0,0,0,-1,1588,953,0,0
371,71,0,0,0,0,0,0,0,0,0,-1,1595,953,0,0
378,71,0,0,0,0,0,0,0,0,0,-1,1602,953,0,0
385,71,0,0,0,0,0,0,0,0,0,-1,1609,953,0,0
392,71,0,0,0,0,0,0,0,0,0,-1,1616,953,0,0
399,71,0,0,0,0,0,0,0,0,0,-1,1623,953,0,0
406,71,0,0,0,0,0,0,0,0,0,-1,1630,953,0,0
413,71,0,0,0,0,0,0,0,0,0,-1,1637,953,0,0
420,71,0,0,0,0,0,0,0,0,0,-1,1644,953,0,0
427,71,0,0,0,0,0,0,0,0,0,-1,1651,953,0,0
434,71,0,0,0,0,0,0,0,0,0,-1,1658,953,0,0
441,71,0,0,0,0,0,0,0,0,0,-1,1665,953,0,0
448,71,0,0,0,0,0,0,0,0,0,-1,1672,953,0,0
455,71,0,0,0,0,0,0,0,0,0,-1,1679,953,0,0
462,71,0,0,0,0,0,0,0,0,0,-1,1686,953,0,0
469,71,0,0,0,0,0,0,0,0,0,-1,1693,953,0,0
476,71,0,0,0,0,0,0,0,0,0,-1,1700,953,0,0
483,71,0,0,0,0,0,0,0,0,0,-1,1707,953,0,0
490,71,0,0,0,0,0,0,0,0,0,-1,1714,953,0,0
497,71,0,0,0,0,0,0,0,0,0,-1,1721,953,0,0
504,71,0,0,0,0,0,0,0,0,0,-1,1728,953,0,0
511,71,0,0,0,0,0,0,0,0,0,-1,1735,953,0,0
518,71,0,0,0,0,0,0,0,0,0,-1,1742,953,0,0
525,71,0,0,0,0,0,0,0,0,0,-1,1749,953,0,0
532,71,0,0,0,0,0,0,0,0,0,-1,1756,953,0,0
539,71,0,0,0,0,0,0,0,0,0,-1,1763,953,0,0
546,71,0,0,0,0,0,0,0,0,0,-1,1770,953,0,0
553,71,0,0,0,0,0,0,0,0,0,-1,1777,953,0,0
560,71,0,0,0,0,0,0,0,0,0,-1,1784,953,0,0
567,71,0,0,0,0,0,0,0,0,0,-1,1791,953,0,0
574,71,0,0,0,0,0,0,0,0,0,-1,1798,953,0,0
581,71,0,0,0,0,0,0,0,0,0,-1,1805,953,0,0
588,71,0,0,0,0,0,0,0,0,0,-1,1812,953,0,0
595,71,0,0,0,0,0,0,0,0,0,-1,1819,953,0,0
602,71,0,0,0,0,0,0,0,0,0,-1,1826,953,0,0
609,71,0,0,0,0,0,0,0,0,0,-1,1833,953,0,0
616,71,0,0,0,0,0,0,0,0,0,-1,1840,953,0,0
623,71,0,0,0,0,0,0,0,0,0,-1,1847,953,0,0
630,71,0,0,0,0,0,0,0,0,0,-1,1854,953,0,0
637,71,56.4934,2.41302,-0.00640788,-0.000249139,0.00538243,0.00287255,-0.00952956,1.04523,0.00749632,0.0401519,1861,953,56.4934,-2.413
644,71,56.3774,2.55945,-0.00419095,-8.97217e-05,0.00378885,0.00216784,-0.00644851,1.03344,0.00517525,0.0413704,1868,953,56.3774,-2.55945
651,71,56.4142,2.62079,-0.00281578,0.000171399,0.00271708,0.00177835,-0.00442273,1.03671,0.00368711,0.0397544,1875,953,56.4142,-2.62076
658,71,56.5012,2.5719,-0.00192584,0.000487015,0.00216837,0.00176198,-0.00320081,1.03926,0.00290513,0.0369125,1882,953,56.5012,-2.57193
665,71,56.5118,2.53375,-0.00134733,0.000938299,0.00190842,0.00201992,-0.00242895,1.05518,0.00257217,0.0391563,1889,953,56.5118,-2.53377
672,71,56.3876,2.57098,-0.00123532,0.00122929,0.00186035,0.00222846,-0.00223449,1.07792,0.00257669,0.0396245,1896,953,56.3876,-2.57099
679,71,56.4451,2.51392,-0.00134375,0.00116383,0.00192104,0.00220402,-0.00238395,1.07452,0.00264955,0.0394145,1903,953,56.4451,-2.51393
686,71,56.4465,2.48157,-0.00136112,0.000983858,0.00182082,0.00197704,-0.0023543,1.07145,0.00250386,0.0373645,1910,953,56.4465,-2.48156
693,71,56.4058,2.43152,-0.0012716,0.000807038,0.00147894,0.00157533,-0.00203989,1.09168,0.00209298,0.035698,1917,953,56.4058,-2.4315
700,71,56.3268,2.56299,-0.0015379,0.000804495,0.00116796,0.00128734,-0.00202074,1.17879,0.0019255,0.0386229,1924,953,56.3268,-2.56301
707,71,56.2542,2.93384,0,0,0,0,0,0,0,-1,1931,953,56.2541,-2.93387
714,71,54.403,4.40564,0,0,0,0,0,0,0,-1,1938,953,54.403,-4.40566
721,71,54.1411,4.78601,-0.00329157,0.00177593,6.79678e-05,0.00177684,-0.00329248,1.55739,0.00297006,0.0421647,1945,953,54.1411,-4.78602
728,71,53.9332,5.29114,-0.00382226,0.00265305,-0.0003077,0.00266764,-0.00383684,-1.52342,0.00377553,0.0301706,1952,953,53.9332,-5.29112
735,71,53.9719,5.72528,-0.00406616,0.00405465,-0.000916534,0.00415681,-0.00416831,-1.45979,0.00480651,0.0213525,1959,953,53.9719,-5.7253
742,71,54.0361,6.09662,-0.00410233,0.00579898,-0.0022642,0.00629218,-0.00459553,-1.35632,0.00631141,0.0204861,1966,953,54.0361,-6.0966
749,71,53.9932,6.46277,-0.00420018,0.00856215,-0.00358859,0.009502,-0.00514003,-1.31465,0.00857771,0.0190849,1973,953,53.9931,-6.46278
756,71,53.9285,6.80176,-0.0039682,0.0125782,-0.00536542,0.0141657,-0.00555572,-1.28312,0.0117423,0.0183542,1980,953,53.9285,-6.80174
763,71,53.8312,7.19507,-0.00305285,0.0178968,-0.00754494,0.0203312,-0.00548725,-1.25869,0.015706,0.0209201,1987,953,53.8312,-7.19505
770,71,53.6093,7.48785,-0.00142007,0.0239665,-0.0102704,0.0276012,-0.0050547,-1.23066,0.0202966,0.0245599,1994,953,53.6092,-7.48784
777,71,53.3376,7.77081,0.000933604,0.0307217,-0.0138007,0.0361326,-0.00447733,-1.19714,0.0257111,0.0436677,2001,953,53.3376,-7.7708
784,71,53.3149,7.68164,0.00475957,0.0384025,-0.018632,0.0466831,-0.00352102,-1.15259,0.0323597,0.0438738,2008,953,53.315,-7.68162
791,71,53.1477,7.52136,0.0110351,0.0471873,-0.0255813,0.0604345,-0.00221207,-1.09297,0.0410469,0.04903,2015,953,53.1478,-7.52137
798,71,52.9385,7.34241,0,0,0,0,0,0,0,-1,2022,953,52.9384,-7.34238
805,71,45.0161,6.63287,0,0,0,0,0,0,0,-1,2029,953,45.0161,-6.63289
812,71,0,0,0,0,0,0,0,0,0,-1,2036,953,0,0
-700,64,0,0,0,0,0,0,0,0,0,-1,524,960,0,0
-693,64,0,0,0,0,0,0,0,0,0,-1,531,960,0,0
-686,64,-39.1609,5.70703,-0.0564592,0.216735,-0.0674186,0.232466,-0.0721908,-1.34156,0.183828,0.0487538,538,960,-39.1609,-5.70703
-679,64,-39.6434,5.45825,-0.0488198,0.19449,-0.0503717,0.204506,-0.0588357,-1.37452,0.159606,0.0460977,545,960,-39.6434,-5.45825
-672,64,-40.1775,5.52063,0,0,0,0,0,0,0,-1,552,960,-40.1775,-5.52064
-665,64,-40.7811,5.87579,-0.033242,0.141778,-0.0262181,0.145621,-0.0370851,-1.42525,0.111517,0.042636,559,960,-40.7811,-5.87578
-658,64,-41.1458,5.96234,-0.0262476,0.11551,-0.0175987,0.117663,-0.0283998,-1.44911,0.0894244,0.0424853,566,960,-41.1457,-5.96231
-651,64,-41.4131,5.37408,-0.0201776,0.0909059,-0.010785,0.0919433,-0.021215,-1.4749,0.0694558,0.040942,573,960,-41.4131,-5.37407
-644,64,-41.3351,4.97778,-0.0152076,0.0688875,-0.00564674,0.069265,-0.015585,-1.50405,0.0521538,0.0317948,580,960,-41.3351,-4.97778
-637,64,-41.2953,4.67773,-0.011011,0.05015,-0.00214831,0.0502254,-0.0110863,-1.53573,0.037726,0.0170789,587,960,-41.2953,-4.67774
-630,64,-41.3663,4.38971,-0.00745288,0.0338266,0.000902066,0.0338463,-0.00747259,1.54896,0.0254238,0.0143671,594,960,-41.3663,-4.3897
-623,64,-41.4063,4.07983,-0.00465086,0.0201523,0.00202607,0.0203167,-0.00481528,1.48983,0.0154025,0.0146401,601,960,-41.4062,-4.07981
-616,64,-41.4293,3.72357,-0.0035446,0.0122428,0.00138785,0.0123638,-0.00366568,1.48378,0.00969819,0.0180757,608,960,-41.4293,-3.72356
-609,64,-41.3865,3.42401,-0.00281666,0.00670656,0.000423103,0.00672532,-0.00283542,1.52648,0.00567014,0.0182024,615,960,-41.3865,-3.42398
-602,64,-41.366,3.08832,-0.00272273,0.00318095,-1.44317e-05,0.00318099,-0.00272276,-1.56835,0.00341195,0.0173207,622,960,-41.366,-3.08833
-595,64,-41.3901,2.77362,-0.0025421,0.00181874,-0.000636033,0.00190961,-0.00263297,-1.42888,0.00263372,0.0202404,629,960,-41.3901,-2.77362
-588,64,-41.3251,2.5257,-0.00200222,0.000795067,-0.00124661,0.00126999,-0.00247715,-1.2068,0.00220051,0.0321357,636,960,-41.325,-2.52569
-581,64,-41.1865,2.25897,0,0,0,0,0,0,0,-1,643,960,-41.1865,-2.25896
-574,64,-42.2062,1.13678,0,0,0,0,0,0,0,-1,650,960,-42.2063,-1.13677
-567,64,-42.3755,0.674622,-0.00158214,-0.000135216,-0.0025386,0.00178099,-0.00349835,-0.924211,0.00310132,0.0252266,657,960,-42.3756,-0.674643
-560,64,-42.5006,0.570862,-0.00172352,2.74522e-05,-0.00270358,0.00199376,-0.00368983,-0.941982,0.00332977,0.0341441,664,960,-42.5006,-0.570839
-553,64,-42.5948,0.610596,-0.00180594,0.000437298,-0.00278652,0.00231947,-0.0036881,-0.976735,0.00349835,0.0380808,671,960,-42.5949,-0.610624
-546,64,-42.655,0.656311,-0.00176885,0.00105067,-0.002794,0.00277043,-0.00348861,-1.01905,0.00362158,0.039186,678,960,-42.6549,-0.65631
-539,64,-42.7025,0.799927,-0.00168602,0.00175336,-0.00286895,0.00337854,-0.00331121,-1.05539,0.00386239,0.0416256,685,960,-42.7025,-0.799928
-532,64,-42.5969,0.87738,-0.00158399,0.00247011,-0.00365892,0.00462596,-0.00373984,-1.03835,0.00483902,0.0425238,692,960,-42.5969,-0.877391
-525,64,-42.5134,0.598267,-0.00237421,0.00477588,-0.00568345,0.00791519,-0.00551352,-1.06614,0.00779429,0.0410166,699,960,-42.5134,-0.598289
-518,64,0,0,0,0,0,0,0,0,0,-1,706,960,0,0
-511,64,0,0,0,0,0,0,0,0,0,-1,713,960,0,0
-504,64,0,0,0,0,0,0,0,0,0,-1,720,960,0,0
-497,64,0,0,0,0,0,0,0,0,0,-1,727,960,0,0
-490,64,0,0,0,0,0,0,0,0,0,-1,734,960,0,0
-483,64,0,0,0,0,0,0,0,0,0,-1,741,960,0,0
-476,64,0,0,0,0,0,0,0,0,0,-1,748,960,0,0
-469,64,0,0,0,0,0,0,0,0,0,-1,755,960,0,0
-462,64,0,0,0,0,0,0,0,0,0,-1,762,960,0,0
-455,64,0,0,0,0,0,0,0,0,0,-1,769,960,0,0
-448,64,0,0,0,0,0,0,0,0,0,-1,776,960,0,0
-441,64,0,0,0,0,0,0,0,0,0,-1,783,960,0,0
-434,64,0,0,0,0,0,0,0,0,0,-1,790,960,0,0
-427,64,0,0,0,0,0,0,0,0,0,-1,797,960,0,0
-420,64,0,0,0,0,0,0,0,0,0,-1,804,960,0,0
-413,64,0,0,0,0,0,0,0,0,0,-1,811,960,0,0
-406,64,0,0,0,0,0,0,0,0,0,-1,818,960,0,0
-399,64,0,0,0,0,0,0,0,0,0,-1,825,960,0,0
-392,64,0,0,0,0,0,0,0,0,0,-1,832,960,0,0
-385,64,0,0,0,0,0,0,0,0,0,-1,839,960,0,0
-378,64,0,0,0,0,0,0,0,0,0,-1,846,960,0,0
-371,64,0,0,0,0,0,0,0,0,0,-1,853,960,0,0
-364,64,0,0,0,0,0,0,0,0,0,-1,860,960,0,0
-357,64,0,0,0,0,0,0,0,0,0,-1,867,960,0,0
-350,64,0,0,0,0,0,0,0,0,0,-1,874,960,0,0
-343,64,0,0,0,0,0,0,0,0,0,-1,881,960,0,0
-336,64,0,0,0,0,0,0,0,0,0,-1,888,960,0,0
-329,64,0,0,0,0,0,0,0,0,0,-1,895,960,0,0
-322,64,0,0,0,0,0,0,0,0,0,-1,902,960,0,0
-315,64,0,0,0,0,0,0,0,0,0,-1,909,960,0,0
-308,64,0,0,0,0,0,0,0,0,0,-1,916,960,0,0
-301,64,0,0,0,0,0,0,0,0,0,-1,923,960,0,0
-294,64,0,0,0,0,0,0,0,0,0,-1,930,960,0,0
-287,64,0,0,0,0,0,0,0,0,0,-1,937,960,0,0
-280,64,0,0,0,0,0,0,0,0,0,-1,944,960,0,0
-273,64,0,0,0,0,0,0,0,0,0,-1,951,960,0,0
-266,64,0,0,0,0,0,0,0,0,0,-1,958,960,0,0
-259,64,0,0,0,0,0,0,0,0,0,-1,965,960,0,0
-252,64,0,0,0,0,0,0,0,0,0,-1,972,960,0,0
-245,64,0,0,0,0,0,0,0,0,0,-1,979,960,0,0
-238,64,0,0,0,0,0,0,0,0,0,-1,986,960,0,0
-231,64,0,0,0,0,0,0,0,0,0,-1,993,960,0,0
-224,64,0,0,0,0,0,0,0,0,0,-1,1000,960,0,0
-217,64,0,0,0,0,0,0,0,0,0,-1,1007,960,0,0
-210,64,0,0,0,0,0,0,0,0,0,-1,1014,960,0,0
-203,64,0,0,0,0,0,0,0,0,0,-1,1021,960,0,0
-196,64,0,0,0,0,0,0,0,0,0,-1,1028,960,0,0
-189,64,0,0,0,0,0,0,0,0,0,-1,1035,960,0,0
-182,64,0,0,0,0,0,0,0,0,0,-1,1042,960,0,0
-175,64,0,0,0,0,0,0,0,0,0,-1,1049,960,0,0
-168,64,0,0,0,0,0,0,0,0,0,-1,1056,960,0,0
-161,64,0,0,0,0,0,0,0,0,0,-1,1063,960,0,0
-154,64,0,0,0,0,0,0,0,0,0,-1,1070,960,0,0
-147,64,0,0,0,0,0,0,0,0,0,-1,1077,960,0,0
-140,64,0,0,0,0,0,0,0,0,0,-1,1084,960,0,0
-133,64,0,0,0,0,0,0,0,0,0,-1,1091,960,0,0
-126,64,0,0,0,0,0,0,0,0,0,-1,1098,960,0,0
-119,64,0,0,0,0,0,0,0,0,0,-1,1105,960,0,0
-112,64,0,0,0,0,0,0,0,0,0,-1,1112,960,0,0
-105,64,0,0,0,0,0,0,0,0,0,-1,1119,960,0,0
-98,64,0,0,0,0,0,0,0,0,0,-1,1126,960,0,0
-91,64,0,0,0,0,0,0,0,0,0,-1,1133,960,0,0
-84,64,0,0,0,0,0,0,0,0,0,-1,1140,960,0,0
-77,64,0,0,0,0,0,0,0,0,0,-1,1147,960,0,0
-70,64,0,0,0,0,0,0,0,0,0,-1,1154,960,0,0
-63,64,0,0,0,0,0,0,0,0,0,-1,1161,960,0,0
-56,64,0,0,0,0,0,0,0,0,0,-1,1168,960,0,0
-49,64,0,0,0,0,0,0,0,0,0,-1,1175,960,0,0
-42,64,0,0,0,0,0,0,0,0,0,-1,1182,960,0,0
-35,64,0,0,0,0,0,0,0,0,0,-1,1189,960,0,0
-28,64,0,0,0,0,0,0,0,0,0,-1,1196,960,0,0
-21,64,0,0,0,0,0,0,0,0,0,-1,1203,960,0,0
-14,64,0,0,0,0,0,0,0,0,0,-1,1210,960,0,0
-7,64,0,0,0,0,0,0,0,0,0,-1,1217,960,0,0
0,64,0,0,0,0,0,0,0,0,0,-1,1224,960,0,0
7,64,0,0,0,0,0,0,0,0,0,-1,1231,960,0,0
14,64,0,0,0,0,0,0,0,0,0,-1,1238,960,0,0
21,64,0,0,0,0,0,0,0,0,0,-1,1245,960,0,0
28,64,0,0,0,0,0,0,0,0,0,-1,1252,960,0,0
35,64,0,0,0,0,0,0,0,0,0,-1,1259,960,0,0
42,64,0,0,0,0,0,0,0,0,0,-1,1266,960,0,0
49,64,0,0,0,0,0,0,0,0,0,-1,1273,960,0,0
56,64,0,0,0,0,0,0,0,0,0,-1,1280,960,0,0
63,64,0,0,0,0,0,0,0,0,0,-1,1287,960,0,0
70,64,0,0,0,0,0,0,0,0,0,-1,1294,960,0,0
77,64,0,0,0,0,0,0,0,0,0,-1,1301,960,0,0
84,64,0,0,0,0,0,0,0,0,0,-1,1308,960,0,0
91,64,0,0,0,0,0,0,0,0,0,-1,1315,960,0,0
98,64,0,0,0,0,0,0,0,0,0,-1,1322,960,0,0
105,64,0,0,0,0,0,0,0,0,0,-1,1329,960,0,0
112,64,0,0,0,0,0,0,0,0,0,-1,1336,960,0,0
119,64,0,0,0,0,0,0,0,0,0,-1,1343,960,0,0
126,64,0,0,0,0,0,0,0,0,0,-1,1350,960,0,0
133,64,0,0,0,0,0,0,0,0,0,-1,1357,960,0,0
140,64,0,0,0,0,0,0,0,0,0,-1,1364,960,0,0
147,64,0,0,0,0,0,0,0,0,0,-1,1371,960,0,0
154,64,0,0,0,0,0,0,0,0,0,-1,1378,960,0,0
161,64,0,0,0,0,0,0,0,0,0,-1,1385,960,0,0
168,64,0,0,0,0,0,0,0,0,0,-1,1392,960,0,0
175,64,0,0,0,0,0,0,0,0,0,-1,1399,960,0,0
182,64,0,0,0,0,0,0,0,0,0,-1,1406,960,0,0
189,64,0,0,0,0,0,0,0,0,0,-1,1413,960,0,0
196,64,0,0,0,0,0,0,0,0,0,-1,1420,960,0,0
203,64,0,0,0,0,0,0,0,0,0,-1,1427,960,0,0
210,64,0,0,0,0,0,0,0,0,0,-1,1434,960,0,0
217,64,0,0,0,0,0,0,0,0,0,-1,1441,960,0,0
224,64,0,0,0,0,0,0,0,0,0,-1,1448,960,0,0
231,64,0,0,0,0,0,0,0,0,0,-1,1455,960,0,0
238,64,0,0,0,0,0,0,0,0,0,-1,1462,960,0,0
245,64,0,0,0,0,0,0,0,0,0,-1,1469,960,0,0
252,64,0,0,0,0,0,0,0,0,0,-1,1476,960,0,0
259,64,0,0,0,0,0,0,0,0,0,-1,1483,960,0,0
266,64,0,0,0,0,0,0,0,0,0,-1,1490,960,0,0
273,64,0,0,0,0,0,0,0,0,0,-1,1497,960,0,0
280,64,0,0,0,0,0,0,0,0,0,-1,1504,960,0,0
287,64,0,0,0,0,0,0,0,0,0,-1,1511,960,0,0
294,64,0,0,0,0,0,0,0,0,0,-1,1518,960,0,0
301,64,0,0,0,0,0,0,0,0,0,-1,1525,960,0,0
308,64,0,0,0,0,0,0,0,0,0,-1,1532,960,0,0
315,64,0,0,0,0,0,0,0,0,0,-1,1539,960,0,0
322,64,0,0,0,0,0,0,0,0,0,-1,1546,960,0,0
329,64,0,0,0,0,0,0,0,0,0,-1,1553,960,0,0
336,64,0,0,0,0,0,0,0,0,0,-1,1560,960,0,0
343,64,0,0,0,0,0,0,0,0,0,-1,1567,960,0,0
350,64,0,0,0,0,0,0,0,0,0,-1,1574,960,0,0
357,64,0,0,0,0,0,0,0,0,0,-1,1581,960,0,0
364,64,0,0,0,0,0,0,0,0,0,-1,1588,960,0,0
371,64,0,0,0,0,0,0,0,0,0,-1,1595,960,0,0
378,64,0,0,0,0,0,0,0,0,0,-1,1602,960,0,0
385,64,0,0,0,0,0,0,0,0,0,-1,1609,960,0,0
392,64,0,0,0,0,0,0,0,0,0,-1,1616,960,0,0
399,64,0,0,0,0,0,0,0,0,0,-1,1623,960,0,0
406,64,0,0,0,0,0,0,0,0,0,-1,1630,960,0,0
413,64,0,0,0,0,0,0,0,0,0,-1,1637,960,0,0
420,64,0,0,0,0,0,0,0,0,0,-1,1644,960,0,0
427,64,0,0,0,0,0,0,0,0,0,-1,1651,960,0,0
434,64,0,0,0,0,0,0,0,0,0,-1,1658,960,0,0
441,64,0,0,0,0,0,0,0,0,0,-1,1665,960,0,0
448,64,0,0,0,0,0,0,0,0,0,-1,1672,960,0,0
455,64,0,0,0,0,0,0,0,0,0,-1,1679,960,0,0
462,64,0,0,0,0,0,0,0,0,0,-1,1686,960,0,0
469,64,0,0,0,0,0,0,0,0,0,-1,1693,960,0,0
476,64,0,0,0,0,0,0,0,0,0,-1,1700,960,0,0
483,64,0,0,0,0,0,0,0,0,0,-1,1707,960,0,0
490,64,0,0,0,0,0,0,0,0,0,-1,1714,960,0,0
497,64,0,0,0,0,0,0,0,0,0,-1,1721,960,0,0
504,64,0,0,0,0,0,0,0,0,0,-1,1728,960,0,0
511,64,0,0,0,0,0,0,0,0,0,-1,1735,960,0,0
518,64,0,0,0,0,0,0,0,0,0,-1,1742,960,0,0
525,64,0,0,0,0,0,0,0,0,0,-1,1749,960,0,0
532,64,0,0,0,0,0,0,0,0,0,-1,1756,960,0,0
539,64,0,0,0,0,0,0,0,0,0,-1,1763,960,0,0
546,64,0,0,0,0,0,0,0,0,0,-1,1770,960,0,0
553,64,0,0,0,0,0,0,0,0,0,-1,1777,960,0,0
560,64,0,0,0,0,0,0,0,0,0,-1,1784,960,0,0
567,64,0,0,0,0,0,0,0,0,0,-1,1791,960,0,0
574,64,0,0,0,0,0,0,0,0,0,-1,1798,960,0,0
581,64,0,0,0,0,0,0,0,0,0,-1,1805,960,0,0
588,64,0,0,0,0,0,0,0,0,0,-1,1812,960,0,0
595,64,0,0,0,0,0,0,0,0,0,-1,1819,960,0,0
602,64,0,0,0,0,0,0,0,0,0,-1,1826,960,0,0
609,64,0,0,0,0,0,0,0,0,0,-1,1833,960,0,0
616,64,0,0,0,0,0,0,0,0,0,-1,1840,960,0,0
623,64,0,0,0,0,0,0,0,0,0,-1,1847,960,0,0
630,64,0,0,0,0,0,0,0,0,0,-1,1854,960,0,0
637,64,0,0,0,0,0,0,0,0,0,-1,1861,960,0,0
644,64,56.3623,2.57385,-0.00211679,-0.000370275,0.00300437,0.00188517,-0.00437224,0.926833,0.00370662,0.0407942,1868,960,56.3622,-2.57385
651,64,56.4287,2.63885,-0.00121328,0.000104227,0.00207377,0.00162136,-0.00273041,0.939188,0.00253955,0.0387364,1875,960,56.4287,-2.63884
658,64,56.4977,2.68665,-0.000723479,0.000546262,0.00168089,0.00170818,-0.0018854,0.965965,0.0020756,0.0369578,1882,960,56.4977,-2.68664
665,64,56.5208,2.77289,0,0,0,0,0,0,0,-1,1889,960,56.5208,-2.77288
672,64,56.5135,2.82068,0,0,0,0,0,0,0,-1,1896,960,56.5136,-2.82066
679,64,56.3923,2.65356,-0.000866688,0.00155816,0.0018435,0.0025522,-0.00186073,1.07627,0.00255821,0.0413354,1903,960,56.3924,-2.65355
686,64,56.4224,2.51825,-0.000969863,0.00138749,0.00184148,0.00239521,-0.00197758,1.07008,0.00252847,0.0369772,1910,960,56.4223,-2.51827
693,64,56.4219,2.41736,-0.000959773,0.00117085,0.00158377,0.00201425,-0.00180318,1.08146,0.00220512,0.0349551,1917,960,56.4219,-2.41737
700,64,56.4148,2.56024,-0.00130486,0.00113264,0.00133442,0.0017211,-0.00189332,1.15546,0.00208758,0.0346502,1924,960,56.4148,-2.56021
707,64,56.3582,2.8432,0,0,0,0,0,0,0,-1,1931,960,56.3581,-2.84322
714,64,55.5587,3.91711,0,0,0,0,0,0,0,-1,1938,960,55.5587,-3.91708
721,64,54.4922,4.82983,0,0,0,0,0,0,0,-1,1945,960,54.4922,-4.82984
728,64,54.342,5.32239,-0.0036897,0.00295868,-0.000156584,0.00296237,-0.00369339,-1.54726,0.00385042,0.0221268,1952,960,54.342,-5.32236
735,64,54.2903,5.79578,-0.00400423,0.00435981,-0.000789517,0.00443369,-0.00407811,-1.4775,0.00491572,0.0298598,1959,960,54.2902,-5.79576
742,64,54.4254,6.07404,-0.00416666,0.00615477,-0.00211272,0.00657048,-0.00458238,-1.37651,0.00647312,0.0256536,1966,960,54.4254,-6.07404
749,64,54.4056,6.42316,-0.0044199,0.00899689,-0.00341525,0.00981621,-0.00523922,-1.33535,0.00882513,0.0170257,1973,960,54.4056,-6.42314
756,64,54.3469,6.78278,-0.00444174,0.0131322,-0.00519968,0.0145554,-0.00586494,-1.30363,0.0121404,0.0168724,1980,960,54.347,-6.78275
763,64,54.2964,7.16333,-0.00387143,0.0188495,-0.00738152,0.021037,-0.00605892,-1.28269,0.0164212,0.0185948,1987,960,54.2964,-7.16336
770,64,54.0715,7.43805,-0.00262639,0.0256418,-0.0100753,0.0288652,-0.00584984,-1.26115,0.0214608,0.0192657,1994,960,54.0716,-7.43807
777,64,53.9006,7.79083,-0.000737979,0.0333521,-0.0134751,0.0380352,-0.00542106,-1.23632,0.0273436,0.0356205,2001,960,53.9006,-7.79081
784,64,53.8464,8.17242,0.00242703,0.0423806,-0.0180209,0.0493078,-0.00450013,-1.20381,0.03447,0.0440178,2008,960,53.8463,-8.17241
791,64,53.7725,7.04364,0.00783656,0.0530647,-0.0244239,0.0637361,-0.00283482,-1.15887,0.0434665,0.0490511,2015,960,53.7726,-7.04366
798,64,53.6375,6.88391,0,0,0,0,0,0,0,-1,2022,960,53.6375,-6.88389
805,64,54.3772,7.26849,0,0,0,0,0,0,0,-1,2029,960,54.3773,-7.26848
812,64,0,0,0,0,0,0,0,0,0,-1,2036,960,0,0
-700,57,0,0,0,0,0,0,0,0,0,-1,524,967,0,0
-693,57,0,0,0,0,0,0,0,0,0,-1,531,967,0,0
-686,57,-39.1849,5.28021,-0.0670232,0.217734,-0.0579348,0.22907,-0.078359,-1.37757,0.184467,0.0456983,538,967,-39.1849,-5.28024
-679,57,-39.5422,4.14203,-0.0563258,0.191469,-0.0424396,0.198536,-0.0633928,-1.40579,0.157792,0.0468653,545,967,-39.5422,-4.14201
-672,57,-40.6169,4.28601,0,0,0,0,0,0,0,-1,552,967,-40.6169,-4.28599
-665,57,-41.1993,4.35529,-0.037764,0.137812,-0.0210856,0.140309,-0.0402608,-1.45294,0.109456,0.0484695,559,967,-41.1993,-4.3553
-658,57,-41.3795,4.42206,-0.0298569,0.112463,-0.013702,0.11377,-0.031164,-1.47568,0.0880917,0.0481795,566,967,-41.3795,-4.42206
-651,57,-41.5514,4.51996,-0.0230215,0.0889319,-0.00796761,0.0894962,-0.0235857,-1.5001,0.0688853,0.0470268,573,967,-41.5514,-4.51995
-644,57,-41.7789,4.7807,-0.0173401,0.0677682,-0.00370323,0.067929,-0.0175009,-1.52739,0.0521086,0.0342813,580,967,-41.7789,-4.78069
-637,57,-41.655,4.49609,-0.0124554,0.04956,-0.000934449,0.0495741,-0.0124695,-1.55573,0.037896,0.019623,587,967,-41.655,-4.49608
-630,57,-41.7593,4.25458,-0.00836408,0.0335942,0.00152928,0.0336498,-0.00841974,1.53441,0.0257037,0.0137652,594,967,-41.7594,-4.25458
-623,57,-41.7934,4.021,-0.00504831,0.0200509,0.00218449,0.0202396,-0.00523702,1.48463,0.0155358,0.0135924,601,967,-41.7934,-4.02101
-616,57,-41.7885,3.74323,-0.00367586,0.0124422,0.001117,0.0125193,-0.0037529,1.50193,0.00983869,0.0164464,608,967,-41.7885,-3.74322
-609,57,-41.7737,3.45007,-0.00283009,0.00708755,-0.000101725,0.00708859,-0.00283114,-1.56054,0.00590036,0.0167612,615,967,-41.7737,-3.45008
-602,57,-41.7508,3.14111,-0.00258232,0.00357168,-0.000701407,0.00365061,-0.00266125,-1.45874,0.00365905,0.0118701,622,967,-41.7508,-3.14113
-595,57,-41.7457,2.84991,-0.00233288,0.00217381,-0.00139191,0.00256905,-0.00272811,-1.29413,0.00305878,0.0145752,629,967,-41.7457,-2.84988
-588,57,-41.7016,2.63458,-0.00177888,0.00111461,-0.00206142,0.0021863,-0.00285056,-1.09137,0.00291645,0.0245131,636,967,-41.7016,-2.63456
-581,57,-41.9067,1.77271,-0.00137734,0.000396138,-0.00247984,0.00214301,-0.00312421,-0.957104,0.00305857,0.0369477,643,967,-41.9067,-1.77273
-574,57,-42.3003,0.833008,0,0,0,0,0,0,0,-1,650,967,-42.3003,-0.832984
-567,57,-42.41,0.640381,-0.00143379,0.000149904,-0.00330845,0.00275995,-0.00404383,-0.902859,0.00395141,0.0323554,657,967,-42.41,-0.640374
-560,57,-42.5548,0.581055,-0.0016111,0.000359251,-0.00338733,0.00290176,-0.00415361,-0.926915,0.00409474,0.0401597,664,967,-42.5548,-0.581055
-553,57,-42.5402,0.719421,-0.00174973,0.000818153,-0.00335441,0.00312595,-0.00405753,-0.968178,0.00415899,0.0403266,671,967,-42.5402,-0.719445
-546,57,-42.5599,0.801453,-0.00181843,0.00148202,-0.00322946,0.00345846,-0.00379487,-1.0216,0.00418921,0.0419795,678,967,-42.56,-0.801444
-539,57,-42.67,0.769775,-0.00189438,0.00222625,-0.00320598,0.00397687,-0.003645,-1.07099,0.00440188,0.0441806,685,967,-42.67,-0.769784
-532,57,-42.7941,1.08777,0,0,0,0,0,0,0,-1,692,967,-42.794,-1.08778
-525,57,-42.4488,0.882629,0,0,0,0,0,0,0,-1,699,967,-42.4488,-0.882643
-518,57,0,0,0,0,0,0,0,0,0,-1,706,967,0,0
-511,57,0,0,0,0,0,0,0,0,0,-1,713,967,0,0
-504,57,0,0,0,0,0,0,0,0,0,-1,720,967,0,0
-497,57,0,0,0,0,0,0,0,0,0,-1,727,967,0,0
-490,57,0,0,0,0,0,0,0,0,0,-1,734,967,0,0
-483,57,0,0,0,0,0,0,0,0,0,-1,741,967,0,0
-476,57,0,0,0,0,0,0,0,0,0,-1,748,967,0,0
-469,57,0,0,0,0,0,0,0,0,0,-1,755,967,0,0
-462,57,0,0,0,0,0,0,0,0,0,-1,762,967,0,0
-455,57,0,0,0,0,0,0,0,0,0,-1,769,967,0,0
-448,57,0,0,0,0,0,0,0,0,0,-1,776,967,0,0
-441,57,0,0,0,0,0,0,0,0,0,-1,783,967,0,0
-434,57,0,0,0,0,0,0,0,0,0,-1,790,967,0,0
-427,57,0,0,0,0,0,0,0,0,0,-1,797,967,0,0
-420,57,0,0,0,0,0,0,0,0,0,-1,804,967,0,0
-413,57,0,0,0,0,0,0,0,0,0,-1,811,967,0,0
-406,57,0,0,0,0,0,0,0,0,0,-1,818,967,0,0
-399,57,0,0,0,0,0,0,0,0,0,-1,825,967,0,0
-392,57,0,0,0,0,0,0,0,0,0,-1,832,967,0,0
-385,57,0,0,0,0,0,0,0,0,0,-1,839,967,0,0
-378,57,0,0,0,0,0,0,0,0,0,-1,846,967,0,0
-371,57,0,0,0,0,0,0,0,0,0,-1,853,967,0,0
-364,57,0,0,0,0,0,0,0,0,0,-1,860,967,0,0
-357,57,0,0,0,0,0,0,0,0,0,-1,867,967,0,0
-350,57,0,0,0,0,0,0,0,0,0,-1,874,967,0,0
-343,57,0,0,0,0,0,0,0,0,0,-1,881,967,0,0
-336,57,0,0,0,0,0,0,0,0,0,-1,888,967,0,0
-329,57,0,0,0,0,0,0,0,0,0,-1,895,967,0,0
-322,57,0,0,0,0,0,0,0,0,0,-1,902,967,0,0
-315,57,0,0,0,0,0,0,0,0,0,-1,909,967,0,0
-308,57,0,0,0,0,0,0,0,0,0,-1,916,967,0,0
-301,57,0,0,0,0,0,0,0,0,0,-1,923,967,0,0
-294,57,0,0,0,0,0,0,0,0,0,-1,930,967,0,0
-287,57,0,0,0,0,0,0,0,0,0,-1,937,967,0,0
-280,57,0,0,0,0,0,0,0,0,0,-1,944,967,0,0
-273,57,0,0,0,0,0,0,0,0,0,-1,951,967,0,0
-266,57,0,0,0,0,0,0,0,0,0,-1,958,967,0,0
-259,57,0,0,0,0,0,0,0,0,0,-1,965,967,0,0
-252,57,0,0,0,0,0,0,0,0,0,-1,972,967,0,0
-245,57,0,0,0,0,0,0,0,0,0,-1,979,967,0,0
-238,57,0,0,0,0,0,0,0,0,0,-1,986,967,0,0
-231,57,0,0,0,0,0,0,0,0,0,-1,993,967,0,0
-224,57,0,0,0,0,0,0,0,0,0,-1,1000,967,0,0
-217,57,0,0,0,0,0,0,0,0,0,-1,1007,967,0,0
-210,57,0,0,0,0,0,0,0,0,0,-1,1014,967,0,0
-203,57,0,0,0,0,0,0,0,0,0,-1,1021,967,0,0
-196,57,0,0,0,0,0,0,0,0,0,-1,1028,967,0,0
-189,57,0,0,0,0,0,0,0,0,0,-1,1035,967,0,0
-182,57,0,0,0,0,0,0,0,0,0,-1,1042,967,0,0
-175,57,0,0,0,0,0,0,0,0,0,-1,1049,967,0,0
-168,57,0,0,0,0,0,0,0,0,0,-1,1056,967,0,0
-161,57,0,0,0,0,0,0,0,0,0,-1,1063,967,0,0
-154,57,0,0,0,0,0,0,0,0,0,-1,1070,967,0,0
-147,57,0,0,0,0,0,0,0,0,0,-1,1077,967,0,0
-140,57,0,0,0,0,0,0,0,0,0,-1,1084,967,0,0
-133,57,0,0,0,0,0,0,0,0,0,-1,1091,967,0,0
-126,57,0,0,0,0,0,0,0,0,0,-1,1098,967,0,0
-119,57,0,0,0,0,0,0,0,0,0,-1,1105,967,0,0
-112,57,0,0,0,0,0,0,0,0,0,-1,1112,967,0,0
-105,57,0,0,0,0,0,0,0,0,0,-1,1119,967,0,0
-98,57,0,0,0,0,0,0,0,0,0,-1,1126,967,0,0
-91,57,0,0,0,0,0,0,0,0,0,-1,1133,967,0,0
-84,57,0,0,0,0,0,0,0,0,0,-1,1140,967,0,0
-77,57,0,0,0,0,0,0,0,0,0,-1,1147,967,0,0
-70,57,0,0,0,0,0,0,0,0,0,-1,1154,967,0,0
-63,57,0,0,0,0,0,0,0,0,0,-1,1161,967,0,0
-56,57,0,0,0,0,0,0,0,0,0,-1,1168,967,0,0
-49,57,0,0,0,0,0,0,0,0,0,-1,1175,967,0,0
-42,57,0,0,0,0,0,0,0,0,0,-1,1182,967,0,0
-35,57,0,0,0,0,0,0,0,0,0,-1,1189,967,0,0
-28,57,0,0,0,0,0,0,0,0,0,-1,1196,967,0,0
-21,57,0,0,0,0,0,0,0,0,0,-1,1203,967,0,0
-14,57,0,0,0,0,0,0,0,0,0,-1,1210,967,0,0
-7,57,0,0,0,0,0,0,0,0,0,-1,1217,967,0,0
0,57,0,0,0,0,0,0,0,0,0,-1,1224,967,0,0
7,57,0,0,0,0,0,0,0,0,0,-1,1231,967,0,0
14,57,0,0,0,0,0,0,0,0,0,-1,1238,967,0,0
21,57,0,0,0,0,0,0,0,0,0,-1,1245,967,0,0
28,57,0,0,0,0,0,0,0,0,0,-1,1252,967,0,0
35,57,0,0,0,0,0,0,0,0,0,-1,1259,967,0,0
42,57,0,0,0,0,0,0,0,0,0,-1,1266,967,0,0
49,57,0,0,0,0,0,0,0,0,0,-1,1273,967,0,0
56,57,0,0,0,0,0,0,0,0,0,-1,1280,967,0,0
63,57,0,0,0,0,0,0,0,0,0,-1,1287,967,0,0
70,57,0,0,0,0,0,0,0,0,0,-1,1294,967,0,0
77,57,0,0,0,0,0,0,0,0,0,-1,1301,967,0,0
84,57,0,0,0,0,0,0,0,0,0,-1,1308,967,0,0
91,57,0,0,0,0,0,0,0,0,0,-1,1315,967,0,0
98,57,0,0,0,0,0,0,0,0,0,-1,1322,967,0,0
105,57,0,0,0,0,0,0,0,0,0,-1,1329,967,0,0
112,57,0,0,0,0,0,0,0,0,0,-1,1336,967,0,0
119,57,0,0,0,0,0,0,0,0,0,-1,1343,967,0,0
126,57,0,0,0,0,0,0,0,0,0,-1,1350,967,0,0
133,57,0,0,0,0,0,0,0,0,0,-1,1357,967,0,0
140,57,0,0,0,0,0,0,0,0,0,-1,1364,967,0,0
147,57,0,0,0,0,0,0,0,0,0,-1,1371,967,0,0
154,57,0,0,0,0,0,0,0,0,0,-1,1378,967,0,0
161,57,0,0,0,0,0,0,0,0,0,-1,1385,967,0,0
168,57,0,0,0,0,0,0,0,0,0,-1,1392,967,0,0
175,57,0,0,0,0,0,0,0,0,0,-1,1399,967,0,0
182,57,0,0,0,0,0,0,0,0,0,-1,1406,967,0,0
189,57,0,0,0,0,0,0,0,0,0,-1,1413,967,0,0
196,57,0,0,0,0,0,0,0,0,0,-1,1420,967,0,0
203,57,0,0,0,0,0,0,0,0,0,-1,1427,967,0,0
210,57,0,0,0,0,0,0,0,0,0,-1,1434,967,0,0
217,57,0,0,0,0,0,0,0,0,0,-1,1441,967,0,0
224,57,0,0,0,0,0,0,0,0,0,-1,1448,967,0,0
231,57,0,0,0,0,0,0,0,0,0,-1,1455,967,0,0
238,57,0,0,0,0,0,0,0,0,0,-1,1462,967,0,0
245,57,0,0,0,0,0,0,0,0,0,-1,1469,967,0,0
252,57,0,0,0,0,0,0,0,0,0,-1,1476,967,0,0
259,57,0,0,0,0,0,0,0,0,0,-1,1483,967,0,0
266,57,0,0,0,0,0,0,0,0,0,-1,1490,967,0,0
273,57,0,0,0,0,0,0,0,0,0,-1,1497,967,0,0
280,57,0,0,0,0,0,0,0,0,0,-1,1504,967,0,0
287,57,0,0,0,0,0,0,0,0,0,-1,1511,967,0,0
294,57,0,0,0,0,0,0,0,0,0,-1,1518,967,0,0
301,57,0,0,0,0,0,0,0,0,0,-1,1525,967,0,0
308,57,0,0,0,0,0,0,0,0,0,-1,1532,967,0,0
315,57,0,0,0,0,0,0,0,0,0,-1,1539,967,0,0
322,57,0,0,0,0,0,0,0,0,0,-1,1546,967,0,0
329,57,0,0,0,0,0,0,0,0,0,-1,1553,967,0,0
336,57,0,0,0,0,0,0,0,0,0,-1,1560,967,0,0
343,57,0,0,0,0,0,0,0,0,0,-1,1567,967,0,0
350,57,0,0,0,0,0,0,0,0,0,-1,1574,967,0,0
357,57,0,0,0,0,0,0,0,0,0,-1,1581,967,0,0
364,57,0,0,0,0,0,0,0,0,0,-1,1588,967,0,0
371,57,0,0,0,0,0,0,0,0,0,-1,1595,967,0,0
378,57,0,0,0,0,0,0,0,0,0,-1,1602,967,0,0
385,57,0,0,0,0,0,0,0,0,0,-1,1609,967,0,0
392,57,0,0,0,0,0,0,0,0,0,-1,1616,967,0,0
399,57,0,0,0,0,0,0,0,0,0,-1,1623,967,0,0
406,57,0,0,0,0,0,0,0,0,0,-1,1630,967,0,0
413,57,0,0,0,0,0,0,0,0,0,-1,1637,967,0,0
420,57,0,0,0,0,0,0,0,0,0,-1,1644,967,0,0
427,57,0,0,0,0,0,0,0,0,0,-1,1651,967,0,0
434,57,0,0,0,0,0,0,0,0,0,-1,1658,967,0,0
441,57,0,0,0,0,0,0,0,0,0,-1,1665,967,0,0
448,57,0,0,0,0,0,0,0,0,0,-1,1672,967,0,0
455,57,0,0,0,0,0,0,0,0,0,-1,1679,967,0,0
462,57,0,0,0,0,0,0,0,0,0,-1,1686,967,0,0
469,57,0,0,0,0,0,0,0,0,0,-1,1693,967,0,0
476,57,0,0,0,0,0,0,0,0,0,-1,1700,967,0,0
483,57,0,0,0,0,0,0,0,0,0,-1,1707,967,0,0
490,57,0,0,0,0,0,0,0,0,0,-1,1714,967,0,0
497,57,0,0,0,0,0,0,0,0,0,-1,1721,967,0,0
504,57,0,0,0,0,0,0,0,0,0,-1,1728,967,0,0
511,57,0,0,0,0,0,0,0,0,0,-1,1735,967,0,0
518,57,0,0,0,0,0,0,0,0,0,-1,1742,967,0,0
525,57,0,0,0,0,0,0,0,0,0,-1,1749,967,0,0
532,57,0,0,0,0,0,0,0,0,0,-1,1756,967,0,0
539,57,0,0,0,0,0,0,0,0,0,-1,1763,967,0,0
546,57,0,0,0,0,0,0,0,0,0,-1,1770,967,0,0
553,57,0,0,0,0,0,0,0,0,0,-1,1777,967,0,0
560,57,0,0,0,0,0,0,0,0,0,-1,1784,967,0,0
567,57,0,0,0,0,0,0,0,0,0,-1,1791,967,0,0
574,57,0,0,0,0,0,0,0,0,0,-1,1798,967,0,0
581,57,0,0,0,0,0,0,0,0,0,-1,1805,967,0,0
588,57,0,0,0,0,0,0,0,0,0,-1,1812,967,0,0
595,57,0,0,0,0,0,0,0,0,0,-1,1819,967,0,0
602,57,0,0,0,0,0,0,0,0,0,-1,1826,967,0,0
609,57,0,0,0,0,0,0,0,0,0,-1,1833,967,0,0
616,57,0,0,0,0,0,0,0,0,0,-1,1840,967,0,0
623,57,0,0,0,0,0,0,0,0,0,-1,1847,967,0,0
630,57,0,0,0,0,0,0,0,0,0,-1,1854,967,0,0
637,57,0,0,0,0,0,0,0,0,0,-1,1861,967,0,0
644,57,56.4248,2.65955,0.000453221,-0.00057555,0.00201869,0.00202203,-0.00214436,0.660647,0.00240581,0.0392606,1868,967,56.4247,-2.65957
651,57,56.3978,2.6153,0.000719751,-1.35922e-05,0.00130462,0.00170825,-0.00100209,0.648405,0.00158242,0.0326521,1875,967,56.3979,-2.61529
658,57,56.4119,2.7002,0.000716063,0.00046893,0.00110743,0.0017068,-0.000521802,0.729838,0.00134595,0.034244,1882,967,56.4119,-2.70018
665,57,56.4377,2.52362,0.000513957,0.00109033,0.00120142,0.00203764,-0.000433357,0.90311,0.00152357,0.0427756,1889,967,56.4377,-2.52361
672,57,56.4734,2.46783,9.08805e-05,0.00162429,0.00146633,0.00251226,-0.00079709,1.02629,0.00199436,0.0439592,1896,967,56.4734,-2.46786
679,57,56.4636,2.58575,-0.000350207,0.00173498,0.0017648,0.00274214,-0.00135737,1.0522,0.00241145,0.0406732,1903,967,56.4636,-2.58573
686,57,56.3988,2.5116,-0.000581927,0.00159241,0.00188073,0.00267758,-0.0016671,1.04746,0.00253092,0.0370319,1910,967,56.3988,-2.51159
693,57,56.3558,2.4826,-0.000687831,0.00135756,0.0017272,0.00234213,-0.0016724,1.0527,0.00232852,0.0336311,1917,967,56.3559,-2.48259
700,57,56.4128,2.5885,-0.00113249,0.00130603,0.00153881,0.00205007,-0.00187652,1.12042,0.00226776,0.0284948,1924,967,56.4129,-2.58851
707,57,56.462,2.65582,0,0,0,0,0,0,0,-1,1931,967,56.462,-2.65581
714,57,55.7168,3.46057,0,0,0,0,0,0,0,-1,1938,967,55.7168,-3.46054
721,57,54.8887,5.01093,0,0,0,0,0,0,0,-1,1945,967,54.8887,-5.01095
728,57,54.7343,5.43854,-0.0036657,0.00324478,5.55616e-05,0.00324523,-0.00366615,1.56276,0.00399275,0.0248003,1952,967,54.7343,-5.43856
735,57,54.7629,5.83032,-0.00406046,0.00464325,-0.000610461,0.00468586,-0.00410307,-1.50111,0.00507801,0.0293026,1959,967,54.7629,-5.83035
742,57,54.8124,6.05054,-0.00435676,0.00649946,-0.00190716,0.00682475,-0.00468205,-1.40186,0.00668174,0.0218848,1966,967,54.8124,-6.05055
749,57,54.765,6.3952,-0.0047547,0.00941379,-0.00317406,0.0100924,-0.00543327,-1.36018,0.00909726,0.016394,1973,967,54.765,-6.39523
756,57,54.7089,6.73279,-0.00499573,0.0135904,-0.00493783,0.0148208,-0.00622613,-1.32659,0.0124846,0.0131277,1980,967,54.7089,-6.73279
763,57,54.6233,7.05072,-0.00472417,0.0195468,-0.00709021,0.0214662,-0.00664362,-1.30642,0.0169647,0.0132919,1987,967,54.6233,-7.05071
770,57,54.5027,7.32861,-0.0038044,0.0269081,-0.00972923,0.0297308,-0.00662705,-1.28843,0.0223593,0.0128992,1994,967,54.5028,-7.32859
777,57,54.3933,7.6123,-0.0022832,0.0354218,-0.0129913,0.0394645,-0.00632591,-1.26911,0.028652,0.0284204,2001,967,54.3933,-7.61231
784,57,54.3206,7.85309,0.000404148,0.0455629,-0.0172655,0.0514076,-0.00544054,-1.24439,0.0362217,0.0464904,2008,967,54.3206,-7.8531
791,57,54.2336,8.18872,0,0,0,0,0,0,0,-1,2015,967,54.2336,-8.18872
798,57,55.1677,10.6152,0,0,0,0,0,0,0,-1,2022,967,55.1677,-10.6152
805,57,52.9175,8.80328,0,0,0,0,0,0,0,-1,2029,967,52.9176,-8.80327
812,57,0,0,0,0,0,0,0,0,0,-1,2036,967,0,0
-700,50,0,0,0,0,0,0,0,0,0,-1,524,974,0,0
-693,50,-38.6429,5.12091,0,0,0,0,0,0,0,-1,531,974,-38.6429,-5.12091
-686,50,-39.0458,4.59497,-0.068853,0.204049,-0.0454686,0.211425,-0.0762292,-1.40997,0.172083,0.0475538,538,974,-39.0458,-4.59499
-679,50,-39.6312,2.77386,-0.0566545,0.177799,-0.0323334,0.182177,-0.0610318,-1.43623,0.146108,0.049459,545,974,-39.6312,-2.77389
-672,50,-40.2449,2.8941,0,0,0,0,0,0,0,-1,552,974,-40.2449,-2.89412
-665,50,-41.7031,2.75433,0,0,0,0,0,0,0,-1,559,974,-41.7031,-2.75434
-658,50,-41.646,4.48566,0,0,0,0,0,0,0,-1,566,974,-41.646,-4.48567
-651,50,-41.7955,4.46741,-0.0231454,0.0829826,-0.00439941,0.0831646,-0.0233275,-1.52944,0.0646376,0.0472262,573,974,-41.7955,-4.46739
-644,50,-41.8776,4.50104,-0.0175512,0.0635947,-0.00119613,0.0636123,-0.0175688,-1.55606,0.0493189,0.0326667,580,974,-41.8776,-4.50105
-637,50,-41.9755,4.37048,-0.0127391,0.0469119,0.000652006,0.046919,-0.0127462,1.55987,0.0362822,0.0189039,587,974,-41.9754,-4.37046
-630,50,-42.067,4.17603,-0.00858717,0.0319603,0.00237048,0.0320984,-0.00872528,1.5126,0.0248239,0.0113225,594,974,-42.067,-4.17602
-623,50,-42.0941,3.97791,-0.00505959,0.0190996,0.00249845,0.0193553,-0.00531526,1.46882,0.0149927,0.0128478,601,974,-42.0941,-3.97792
-616,50,-42.1147,3.73077,-0.0034761,0.0120905,0.00102886,0.0121582,-0.0035438,1.50508,0.00950943,0.0140527,608,974,-42.1147,-3.73077
-609,50,-42.1157,3.4295,-0.00256158,0.00715463,-0.000443212,0.0071748,-0.00258176,-1.52531,0.00583731,0.0125458,615,974,-42.1157,-3.42949
-602,50,-42.1057,3.16968,-0.00218123,0.00384083,-0.00125833,0.00409319,-0.00243359,-1.37287,0.00380863,0.0116898,622,974,-42.1057,-3.1697
-595,50,-42.1026,2.91998,-0.0018743,0.00247983,-0.00204059,0.00328666,-0.00268113,-1.19427,0.00345141,0.0131266,629,974,-42.1026,-2.91998
-588,50,-42.1085,2.492,-0.00130589,0.00143318,-0.00276076,0.00314543,-0.00301815,-1.01565,0.00355879,0.0220614,636,974,-42.1085,-2.49202
-581,50,-42.272,1.44916,-0.000940214,0.000722326,-0.00320381,0.00320095,-0.00341884,-0.912331,0.00382263,0.0280864,643,974,-42.2721,-1.44914
-574,50,-42.3687,0.744202,0,0,0,0,0,0,0,-1,650,974,-42.3687,-0.744175
-567,50,-42.4288,0.820374,-0.00114502,0.000501473,-0.0039404,0.00370371,-0.00434726,-0.888379,0.00465317,0.0354311,657,974,-42.4288,-0.820369
-560,50,-42.4301,0.899231,-0.00140336,0.000738348,-0.00391026,0.00372173,-0.00438675,-0.91905,0.00468668,0.0409491,664,974,-42.43,-0.899226
-553,50,-42.2551,0.777588,-0.00167141,0.00120927,-0.00374494,0.00378131,-0.00424345,-0.968982,0.00463566,0.0406049,671,974,-42.2551,-0.777578
-546,50,-42.2584,0.869873,0,0,0,0,0,0,0,-1,678,974,-42.2584,-0.869851
-539,50,-42.1563,0.800049,-0.00223578,0.00250021,-0.00331022,0.00420222,-0.0039378,-1.09588,0.00470047,0.0461462,685,974,-42.1563,-0.800078
-532,50,-42.2436,0.822998,-0.00248374,0.00327537,-0.004229,0.00551209,-0.00472046,-1.0843,0.00591366,0.0473624,692,974,-42.2436,-0.823012
-525,50,-42.3415,0.707764,-0.00370503,0.00631946,-0.00657809,0.00957728,-0.00696285,-1.11095,0.00958913,0.0420598,699,974,-42.3415,-0.707772
-518,50,0,0,0,0,0,0,0,0,0,-1,706,974,0,0
-511,50,0,0,0,0,0,0,0,0,0,-1,713,974,0,0
-504,50,0,0,0,0,0,0,0,0,0,-1,720,974,0,0
-497,50,0,0,0,0,0,0,0,0,0,-1,727,974,0,0
-490,50,0,0,0,0,0,0,0,0,0,-1,734,974,0,0
-483,50,0,0,0,0,0,0,0,0,0,-1,741,974,0,0
-476,50,0,0,0,0,0,0,0,0,0,-1,748,974,0,0
-469,50,0,0,0,0,0,0,0,0,0,-1,755,974,0,0
-462,50,0,0,0,0,0,0,0,0,0,-1,762,974,0,0
-455,50,0,0,0,0,0,0,0,0,0,-1,769,974,0,0
-448,50,0,0,0,0,0,0,0,0,0,-1,776,974,0,0
-441,50,0,0,0,0,0,0,0,0,0,-1,783,974,0,0
-434,50,0,0,0,0,0,0,0,0,0,-1,790,974,0,0
-427,50,0,0,0,0,0,0,0,0,0,-1,797,974,0,0
-420,50,0,0,0,0,0,0,0,0,0,-1,804,974,0,0
-413,50,0,0,0,0,0,0,0,0,0,-1,811,974,0,0
-406,50,0,0,0,0,0,0,0,0,0,-1,818,974,0,0
-399,50,0,0,0,0,0,0,0,0,0,-1,825,974,0,0
-392,50,0,0,0,0,0,0,0,0,0,-1,832,974,0,0
-385,50,0,0,0,0,0,0,0,0,0,-1,839,974,0,0
-378,50,0,0,0,0,0,0,0,0,0,-1,846,974,0,0
-371,50,0,0,0,0,0,0,0,0,0,-1,853,974,0,0
-364,50,0,0,0,0,0,0,0,0,0,-1,860,974,0,0
-357,50,0,0,0,0,0,0,0,0,0,-1,867,974,0,0
-350,50,0,0,0,0,0,0,0,0,0,-1,874,974,0,0
-343,50,0,0,0,0,0,0,0,0,0,-1,881,974,0,0
-336,50,0,0,0,0,0,0,0,0,0,-1,888,974,0,0
-329,50,0,0,0,0,0,0,0,0,0,-1,895,974,0,0
-322,50,0,0,0,0,0,0,0,0,0,-1,902,974,0,0
-315,50,0,0,0,0,0,0,0,0,0,-1,909,974,0,0
-308,50,0,0,0,0,0,0,0,0,0,-1,916,974,0,0
-301,50,0,0,0,0,0,0,0,0,0,-1,923,974,0,0
-294,50,0,0,0,0,0,0,0,0,0,-1,930,974,0,0
-287,50,0,0,0,0,0,0,0,0,0,-1,937,974,0,0
-280,50,0,0,0,0,0,0,0,0,0,-1,944,974,0,0
-273,50,0,0,0,0,0,0,0,0,0,-1,951,974,0,0
-266,50,0,0,0,0,0,0,0,0,0,-1,958,974,0,0
-259,50,0,0,0,0,0,0,0,0,0,-1,965,974,0,0
-252,50,0,0,0,0,0,0,0,0,0,-1,972,974,0,0
-245,50,0,0,0,0,0,0,0,0,0,-1,979,974,0,0
-238,50,0,0,0,0,0,0,0,0,0,-1,986,974,0,0
-231,50,0,0,0,0,0,0,0,0,0,-1,993,974,0,0
-224,50,0,0,0,0,0,0,0,0,0,-1,1000,974,0,0
-217,50,0,0,0,0,0,0,0,0,0,-1,1007,974,0,0
-210,50,0,0,0,0,0,0,0,0,0,-1,1014,974,0,0
-203,50,0,0,0,0,0,0,0,0,0,-1,1021,974,0,0
-196,50,0,0,0,0,0,0,0,0,0,-1,1028,974,0,0
-189,50,0,0,0,0,0,0,0,0,0,-1,1035,974,0,0
-182,50,0,0,0,0,0,0,0,0,0,-1,1042,974,0,0
-175,50,0,0,0,0,0,0,0,0,0,-1,1049,974,0,0
-168,50,0,0,0,0,0,0,0,0,0,-1,1056,974,0,0
-161,50,0,0,0,0,0,0,0,0,0,-1,1063,974,0,0
-154,50,0,0,0,0,0,0,0,0,0,-1,1070,974,0,0
-147,50,0,0,0,0,0,0,0,0,0,-1,1077,974,0,0
-140,50,0,0,0,0,0,0,0,0,0,-1,1084,974,0,0
-133,50,0,0,0,0,0,0,0,0,0,-1,1091,974,0,0
-126,50,0,0,0,0,0,0,0,0,0,-1,1098,974,0,0
-119,50,0,0,0,0,0,0,0,0,0,-1,1105,974,0,0
-112,50,0,0,0,0,0,0,0,0,0,-1,1112,974,0,0
-105,50,0,0,0,0,0,0,0,0,0,-1,1119,974,0,0
-98,50,0,0,0,0,0,0,0,0,0,-1,1126,974,0,0
-91,50,0,0,0,0,0,0,0,0,0,-1,1133,974,0,0
-84,50,0,0,0,0,0,0,0,0,0,-1,1140,974,0,0
-77,50,0,0,0,0,0,0,0,0,0,-1,1147,974,0,0
-70,50,0,0,0,0,0,0,0,0,0,-1,1154,974,0,0
-63,50,0,0,0,0,0,0,0,0,0,-1,1161,974,0,0
-56,50,0,0,0,0,0,0,0,0,0,-1,1168,974,0,0
-49,50,0,0,0,0,0,0,0,0,0,-1,1175,974,0,0
-42,50,0,0,0,0,0,0,0,0,0,-1,1182,974,0,0
-35,50,0,0,0,0,0,0,0,0,0,-1,1189,974,0,0
-28,50,0,0,0,0,0,0,0,0,0,-1,1196,974,0,0
-21,50,0,0,0,0,0,0,0,0,0,-1,1203,974,0,0
-14,50,0,0,0,0,0,0,0,0,0,-1,1210,974,0,0
-7,50,0,0,0,0,0,0,0,0,0,-1,1217,974,0,0
0,50,0,0,0,0,0,0,0,0,0,-1,1224,974,0,0
7,50,0,0,0,0,0,0,0,0,0,-1,1231,974,0,0
14,50,0,0,0,0,0,0,0,0,0,-1,1238,974,0,0
21,50,0,0,0,0,0,0,0,0,0,-1,1245,974,0,0
28,50,0,0,0,0,0,0,0,0,0,-1,1252,974,0,0
35,50,0,0,0,0,0,0,0,0,0,-1,1259,974,0,0
42,50,0,0,0,0,0,0,0,0,0,-1,1266,974,0,0
49,50,0,0,0,0,0,0,0,0,0,-1,1273,974,0,0
56,50,0,0,0,0,0,0,0,0,0,-1,1280,974,0,0
63,50,0,0,0,0,0,0,0,0,0,-1,1287,974,0,0
70,50,0,0,0,0,0,0,0,0,0,-1,1294,974,0,0
77,50,0,0,0,0,0,0,0,0,0,-1,1301,974,0,0
84,50,0,0,0,0,0,0,0,0,0,-1,1308,974,0,0
91,50,0,0,0,0,0,0,0,0,0,-1,1315,974,0,0
98,50,0,0,0,0,0,0,0,0,0,-1,1322,974,0,0
105,50,0,0,0,0,0,0,0,0,0,-1,1329,974,0,0
112,50,0,0,0,0,0,0,0,0,0,-1,1336,974,0,0
119,50,0,0,0,0,0,0,0,0,0,-1,1343,974,0,0
126,50,0,0,0,0,0,0,0,0,0,-1,1350,974,0,0
133,50,0,0,0,0,0,0,0,0,0,-1,1357,974,0,0
140,50,0,0,0,0,0,0,0,0,0,-1,1364,974,0,0
147,50,0,0,0,0,0,0,0,0,0,-1,1371,974,0,0
154,50,0,0,0,0,0,0,0,0,0,-1,1378,974,0,0
161,50,0,0,0,0,0,0,0,0,0,-1,1385,974,0,0
168,50,0,0,0,0,0,0,0,0,0,-1,1392,974,0,0
175,50,0,0,0,0,0,0,0,0,0,-1,1399,974,0,0
182,50,0,0,0,0,0,0,0,0,0,-1,1406,974,0,0
189,50,0,0,0,0,0,0,0,0,0,-1,1413,974,0,0
196,50,0,0,0,0,0,0,0,0,0,-1,1420,974,0,0
203,50,0,0,0,0,0,0,0,0,0,-1,1427,974,0,0
210,50,0,0,0,0,0,0,0,0,0,-1,1434,974,0,0
217,50,0,0,0,0,0,0,0,0,0,-1,1441,974,0,0
224,50,0,0,0,0,0,0,0,0,0,-1,1448,974,0,0
231,50,0,0,0,0,0,0,0,0,0,-1,1455,974,0,0
238,50,0,0,0,0,0,0,0,0,0,-1,1462,974,0,0
245,50,0,0,0,0,0,0,0,0,0,-1,1469,974,0,0
252,50,0,0,0,0,0,0,0,0,0,-1,1476,974,0,0
259,50,0,0,0,0,0,0,0,0,0,-1,1483,974,0,0
266,50,0,0,0,0,0,0,0,0,0,-1,1490,974,0,0
273,50,0,0,0,0,0,0,0,0,0,-1,1497,974,0,0
280,50,0,0,0,0,0,0,0,0,0,-1,1504,974,0,0
287,50,0,0,0,0,0,0,0,0,0,-1,1511,974,0,0
294,50,0,0,0,0,0,0,0,0,0,-1,1518,974,0,0
301,50,0,0,0,0,0,0,0,0,0,-1,1525,974,0,0
308,50,0,0,0,0,0,0,0,0,0,-1,1532,974,0,0
315,50,0,0,0,0,0,0,0,0,0,-1,1539,974,0,0
322,50,0,0,0,0,0,0,0,0,0,-1,1546,974,0,0
329,50,0,0,0,0,0,0,0,0,0,-1,1553,974,0,0
336,50,0,0,0,0,0,0,0,0,0,-1,1560,974,0,0
343,50,0,0,0,0,0,0,0,0,0,-1,1567,974,0,0
350,50,0,0,0,0,0,0,0,0,0,-1,1574,974,0,0
357,50,0,0,0,0,0,0,0,0,0,-1,1581,974,0,0
364,50,0,0,0,0,0,0,0,0,0,-1,1588,974,0,0
371,50,0,0,0,0,0,0,0,0,0,-1,1595,974,0,0
378,50,0,0,0,0,0,0,0,0,0,-1,1602,974,0,0
385,50,0,0,0,0,0,0,0,0,0,-1,1609,974,0,0
392,50,0,0,0,0,0,0,0,0,0,-1,1616,974,0,0
399,50,0,0,0,0,0,0,0,0,0,-1,1623,974,0,0
406,50,0,0,0,0,0,0,0,0,0,-1,1630,974,0,0
413,50,0,0,0,0,0,0,0,0,0,-1,1637,974,0,0
420,50,0,0,0,0,0,0,0,0,0,-1,1644,974,0,0
427,50,0,0,0,0,0,0,0,0,0,-1,1651,974,0,0
434,50,0,0,0,0,0,0,0,0,0,-1,1658,974,0,0
441,50,0,0,0,0,0,0,0,0,0,-1,1665,974,0,0
448,50,0,0,0,0,0,0,0,0,0,-1,1672,974,0,0
455,50,0,0,0,0,0,0,0,0,0,-1,1679,974,0,0
462,50,0,0,0,0,0,0,0,0,0,-1,1686,974,0,0
469,50,0,0,0,0,0,0,0,0,0,-1,1693,974,0,0
476,50,0,0,0,0,0,0,0,0,0,-1,1700,974,0,0
483,50,0,0,0,0,0,0,0,0,0,-1,1707,974,0,0
490,50,0,0,0,0,0,0,0,0,0,-1,1714,974,0,0
497,50,0,0,0,0,0,0,0,0,0,-1,1721,974,0,0
504,50,0,0,0,0,0,0,0,0,0,-1,1728,974,0,0
511,50,0,0,0,0,0,0,0,0,0,-1,1735,974,0,0
518,50,0,0,0,0,0,0,0,0,0,-1,1742,974,0,0
525,50,0,0,0,0,0,0,0,0,0,-1,1749,974,0,0
532,50,0,0,0,0,0,0,0,0,0,-1,1756,974,0,0
539,50,0,0,0,0,0,0,0,0,0,-1,1763,974,0,0
546,50,0,0,0,0,0,0,0,0,0,-1,1770,974,0,0
553,50,0,0,0,0,0,0,0,0,0,-1,1777,974,0,0
560,50,0,0,0,0,0,0,0,0,0,-1,1784,974,0,0
567,50,0,0,0,0,0,0,0,0,0,-1,1791,974,0,0
574,50,0,0,0,0,0,0,0,0,0,-1,1798,974,0,0
581,50,0,0,0,0,0,0,0,0,0,-1,1805,974,0,0
588,50,0,0,0,0,0,0,0,0,0,-1,1812,974,0,0
595,50,0,0,0,0,0,0,0,0,0,-1,1819,974,0,0
602,50,0,0,0,0,0,0,0,0,0,-1,1826,974,0,0
609,50,0,0,0,0,0,0,0,0,0,-1,1833,974,0,0
616,50,0,0,0,0,0,0,0,0,0,-1,1840,974,0,0
623,50,0,0,0,0,0,0,0,0,0,-1,1847,974,0,0
630,50,0,0,0,0,0,0,0,0,0,-1,1854,974,0,0
637,50,0,0,0,0,0,0,0,0,0,-1,1861,974,0,0
644,50,56.4193,2.67944,0.00305045,-0.00130872,0.000915133,0.00323477,-0.00149304,0.198757,0.00279066,0.0353988,1868,974,56.4194,-2.67942
651,50,56.3148,2.51337,0.00262434,-0.000602385,0.000462217,0.00268925,-0.000667291,0.13951,0.00205176,0.0306885,1875,974,56.3149,-2.51334
658,50,56.2673,2.4953,0.00213123,-4.46162e-05,0.000474654,0.00223026,-0.000143653,0.205699,0.00153697,0.0362854,1882,974,56.2674,-2.49533
665,50,56.3337,2.34161,0.00154463,0.000653245,0.000759951,0.00197994,0.000217934,0.52019,0.00125365,0.0407434,1889,974,56.3337,-2.34164
672,50,56.4487,2.37817,0.000846932,0.00132443,0.00119989,0.0023091,-0.000137733,0.883604,0.0015873,0.0401104,1896,974,56.4487,-2.37815
679,50,56.3688,2.55011,0.000229156,0.00157145,0.00163506,0.00266775,-0.000867145,0.980149,0.0021273,0.0409623,1903,974,56.3688,-2.55013
686,50,56.3153,2.52258,-0.000129158,0.00151242,0.00188026,0.00274324,-0.00135997,0.991196,0.00241345,0.0408633,1910,974,56.3154,-2.52258
693,50,56.2974,2.48132,-0.00034212,0.00132733,0.00183942,0.00251257,-0.00152735,0.998402,0.00235546,0.0390438,1917,974,56.2974,-2.48132
700,50,56.3264,2.61462,-0.00086283,0.00129733,0.00171986,0.00224814,-0.00181364,1.06578,0.00234953,0.0242659,1924,974,56.3264,-2.61463
707,50,56.3302,2.83942,-0.00151696,0.00143764,0.00146901,0.0020437,-0.00212303,1.17951,0.00240581,0.038018,1931,974,56.3302,-2.83939
714,50,56.2542,3.15521,0,0,0,0,0,0,0,-1,1938,974,56.2541,-3.15518
721,50,55.1443,5.05646,0,0,0,0,0,0,0,-1,1945,974,55.1443,-5.05646
728,50,55.1461,5.44775,-0.00361229,0.0034581,0.000315698,0.00347217,-0.00362636,1.52626,0.00409866,0.0240241,1952,974,55.1462,-5.44778
735,50,55.188,5.77026,-0.00409887,0.00489862,-0.000351173,0.00491231,-0.00411256,-1.53185,0.00521732,0.0200721,1959,974,55.188,-5.77027
742,50,55.1816,6.08392,-0.00455297,0.00682524,-0.00158717,0.00704249,-0.00477022,-1.43476,0.006862,0.0153794,1966,974,55.1816,-6.08395
749,50,55.1389,6.35315,-0.00510737,0.00982148,-0.00278565,0.0103243,-0.00561022,-1.39221,0.00933305,0.0169368,1973,974,55.1389,-6.35313
756,50,55.0732,6.64172,-0.00546134,0.0140691,-0.00456863,0.015085,-0.00647721,-1.352,0.0127753,0.0149152,1980,974,55.0732,-6.64173
763,50,54.972,6.93268,-0.0052655,0.0202448,-0.00685426,0.0219698,-0.00699051,-1.32425,0.0174498,0.0145873,1987,974,54.972,-6.93268
770,50,54.8845,7.20209,-0.00439422,0.0281518,-0.0096705,0.0308084,-0.0070508,-1.3027,0.0232483,0.0132257,1994,974,54.8844,-7.20206
777,50,54.8242,7.49921,-0.00278759,0.0374589,-0.0132306,0.0414187,-0.00674742,-1.27999,0.0301146,0.0249613,2001,974,54.8243,-7.49923
784,50,54.7578,7.82947,0.000131176,0.0485766,-0.0180069,0.0545364,-0.00582869,-1.25117,0.0384481,0.0423277,2008,974,54.7579,-7.82945
791,50,54.6895,8.19153,0,0,0,0,0,0,0,-1,2015,974,54.6893,-8.19156
798,50,55.2773,9.73175,0,0,0,0,0,0,0,-1,2022,974,55.2773,-9.73177
805,50,55.3784,9.93365,0,0,0,0,0,0,0,-1,2029,974,55.3783,-9.93368
812,50,0,0,0,0,0,0,0,0,0,-1,2036,974,0,0
-700,43,0,0,0,0,0,0,0,0,0,-1,524,981,0,0
-693,43,-38.344,1.26093,0,0,0,0,0,0,0,-1,531,981,-38.344,-1.26094
-686,43,-39.0518,1.30316,-0.064227,0.181957,-0.032734,0.186235,-0.0685052,-1.44084,0.15222,0.0454652,538,981,-39.0518,-1.30317
-679,43,-39.7141,1.42249,-0.05256,0.158126,-0.0222378,0.160448,-0.0548816,-1.46677,0.129205,0.0498872,545,981,-39.7142,-1.42249
-672,43,-40.601,1.52057,0,0,0,0,0,0,0,-1,552,981,-40.6009,-1.52059
-665,43,-41.5596,0.541321,0,0,0,0,0,0,0,-1,559,981,-41.5596,-0.5413
-658,43,-41.4501,4.98071,0,0,0,0,0,0,0,-1,566,981,-41.4501,-4.98069
-651,43,-42.081,4.46625,0,0,0,0,0,0,0,-1,573,981,-42.081,-4.46622
-644,43,-42.1743,4.45294,-0.0167104,0.0573941,0.0010263,0.0574083,-0.0167246,1.55695,0.0448977,0.0252847,580,981,-42.1742,-4.45297
-637,43,-42.2916,4.2652,-0.012322,0.0427137,0.00198995,0.0427856,-0.0123938,1.5347,0.0334298,0.0187378,587,981,-42.2916,-4.26522
-630,43,-42.3303,4.08008,-0.00843202,0.0292753,0.00293539,0.0295024,-0.00865916,1.49357,0.0231021,0.0148584,594,981,-42.3303,-4.08006
-623,43,-42.3478,3.90979,-0.00498028,0.0175186,0.00257341,0.0178092,-0.00527087,1.45835,0.0139653,0.0128189,601,981,-42.3478,-3.90981
-616,43,-42.3637,3.67719,-0.00330236,0.011288,0.000820584,0.011334,-0.00334836,1.51479,0.00888498,0.0118595,608,981,-42.3637,-3.67718
-609,43,-42.3838,3.42993,-0.00237661,0.00698961,-0.00082151,0.00706111,-0.00244812,-1.48397,0.00570142,0.0138416,615,981,-42.3838,-3.42995
-602,43,-42.3499,3.23096,-0.00190428,0.00404679,-0.00179473,0.00454615,-0.00240363,-1.29943,0.00407552,0.0166606,622,981,-42.3499,-3.23097
-595,43,-42.435,2.99213,-0.00156055,0.00274985,-0.00261508,0.00398338,-0.00279409,-1.13004,0.00393301,0.0170901,629,981,-42.435,-2.99215
-588,43,-42.6074,2.83533,0,0,0,0,0,0,0,-1,636,981,-42.6075,-2.83535
-581,43,-42.3752,1.20026,0,0,0,0,0,0,0,-1,643,981,-42.3752,-1.20028
-574,43,-42.3381,0.139099,0,0,0,0,0,0,0,-1,650,981,-42.3381,-0.139109
-567,43,-42.3558,0.893494,-0.000858835,0.000944461,-0.00441674,0.00455065,-0.00446502,-0.886086,0.00520528,0.0375341,657,981,-42.3558,-0.89347
-560,43,-42.2982,1.05536,-0.00117389,0.00121938,-0.004298,0.00448422,-0.00443872,-0.921168,0.00515168,0.0407548,664,981,-42.2982,-1.05534
-553,43,-42.3364,0.704895,-0.00156023,0.00171218,-0.00401854,0.00441485,-0.0042629,-0.978731,0.00501035,0.0407558,671,981,-42.3364,-0.704868
-546,43,-42.3707,0.854797,-0.00202104,0.00231891,-0.00360584,0.00435736,-0.0040595,-1.05627,0.00486049,0.0421894,678,981,-42.3706,-0.854791
-539,43,-42.3377,0.980713,-0.00259784,0.00291133,-0.00331928,0.00447013,-0.00415664,-1.13174,0.00498177,0.0477577,685,981,-42.3377,-0.980685
-532,43,-42.3646,0.783508,-0.00310386,0.00360924,-0.00420027,0.00562937,-0.00512399,-1.1225,0.00621074,0.0479425,692,981,-42.3645,-0.783539
-525,43,-42.4188,0.520203,-0.0046425,0.0069019,-0.00653928,0.00985211,-0.00759272,-1.14698,0.0100999,0.0441601,699,981,-42.4188,-0.520178
-518,43,0,0,0,0,0,0,0,0,0,-1,706,981,0,0
-511,43,0,0,0,0,0,0,0,0,0,-1,713,981,0,0
-504,43,0,0,0,0,0,0,0,0,0,-1,720,981,0,0
-497,43,0,0,0,0,0,0,0,0,0,-1,727,981,0,0
-490,43,0,0,0,0,0,0,0,0,0,-1,734,981,0,0
-483,43,0,0,0,0,0,0,0,0,0,-1,741,981,0,0
-476,43,0,0,0,0,0,0,0,0,0,-1,748,981,0,0
-469,43,0,0,0,0,0,0,0,0,0,-1,755,981,0,0
-462,43,0,0,0,0,0,0,0,0,0,-1,762,981,0,0
-455,43,0,0,0,0,0,0,0,0,0,-1,769,981,0,0
-448,43,0,0,0,0,0,0,0,0,0,-1,776,981,0,0
-441,43,0,0,0,0,0,0,0,0,0,-1,783,981,0,0
-434,43,0,0,0,0,0,0,0,0,0,-1,790,981,0,0
-427,43,0,0,0,0,0,0,0,0,0,-1,797,981,0,0
-420,43,0,0,0,0,0,0,0,0,0,-1,804,981,0,0
-413,43,0,0,0,0,0,0,0,0,0,-1,811,981,0,0
-406,43,0,0,0,0,0,0,0,0,0,-1,818,981,0,0
-399,43,0,0,0,0,0,0,0,0,0,-1,825,981,0,0
-392,43,0,0,0,0,0,0,0,0,0,-1,832,981,0,0
-385,43,0,0,0,0,0,0,0,0,0,-1,839,981,0,0
-378,43,0,0,0,0,0,0,0,0,0,-1,846,981,0,0
-371,43,0,0,0,0,0,0,0,0,0,-1,853,981,0,0
-364,43,0,0,0,0,0,0,0,0,0,-1,860,981,0,0
-357,43,0,0,0,0,0,0,0,0,0,-1,867,981,0,0
-350,43,0,0,0,0,0,0,0,0,0,-1,874,981,0,0
-343,43,0,0,0,0,0,0,0,0,0,-1,881,981,0,0
-336,43,0,0,0,0,0,0,0,0,0,-1,888,981,0,0
-329,43,0,0,0,0,0,0,0,0,0,-1,895,981,0,0
-322,43,0,0,0,0,0,0,0,0,0,-1,902,981,0,0
-315,43,0,0,0,0,0,0,0,0,0,-1,909,981,0,0
-308,43,0,0,0,0,0,0,0,0,0,-1,916,981,0,0
-301,43,0,0,0,0,0,0,0,0,0,-1,923,981,0,0
-294,43,0,0,0,0,0,0,0,0,0,-1,930,981,0,0
-287,43,0,0,0,0,0,0,0,0,0,-1,937,981,0,0
-280,43,0,0,0,0,0,0,0,0,0,-1,944,981,0,0
-273,43,0,0,0,0,0,0,0,0,0,-1,951,981,0,0
-266,43,0,0,0,0,0,0,0,0,0,-1,958,981,0,0
-259,43,0,0,0,0,0,0,0,0,0,-1,965,981,0,0
-252,43,0,0,0,0,0,0,0,0,0,-1,972,981,0,0
-245,43,0,0,0,0,0,0,0,0,0,-1,979,981,0,0
-238,43,0,0,0,0,0,0,0,0,0,-1,986,981,0,0
-231,43,0,0,0,0,0,0,0,0,0,-1,993,981,0,0
-224,43,0,0,0,0,0,0,0,0,0,-1,1000,981,0,0
-217,43,0,0,0,0,0,0,0,0,0,-1,1007,981,0,0
-210,43,0,0,0,0,0,0,0,0,0,-1,1014,981,0,0
-203,43,0,0,0,0,0,0,0,0,0,-1,1021,981,0,0
-196,43,0,0,0,0,0,0,0,0,0,-1,1028,981,0,0
-189,43,0,0,0,0,0,0,0,0,0,-1,1035,981,0,0
-182,43,0,0,0,0,0,0,0,0,0,-1,1042,981,0,0
-175,43,0,0,0,0,0,0,0,0,0,-1,1049,981,0,0
-168,43,0,0,0,0,0,0,0,0,0,-1,1056,981,0,0
-161,43,0,0,0,0,0,0,0,0,0,-1,1063,981,0,0
-154,43,0,0,0,0,0,0,0,0,0,-1,1070,981,0,0
-147,43,0,0,0,0,0,0,0,0,0,-1,1077,981,0,0
-140,43,0,0,0,0,0,0,0,0,0,-1,1084,981,0,0
-133,43,0,0,0,0,0,0,0,0,0,-1,1091,981,0,0
-126,43,0,0,0,0,0,0,0,0,0,-1,1098,981,0,0
-119,43,0,0,0,0,0,0,0,0,0,-1,1105,981,0,0
-112,43,0,0,0,0,0,0,0,0,0,-1,1112,981,0,0
-105,43,0,0,0,0,0,0,0,0,0,-1,1119,981,0,0
-98,43,0,0,0,0,0,0,0,0,0,-1,1126,981,0,0
-91,43,0,0,0,0,0,0,0,0,0,-1,1133,981,0,0
-84,43,0,0,0,0,0,0,0,0,0,-1,1140,981,0,0
-77,43,0,0,0,0,0,0,0,0,0,-1,1147,981,0,0
-70,43,0,0,0,0,0,0,0,0,0,-1,1154,981,0,0
-63,43,0,0,0,0,0,0,0,0,0,-1,1161,981,0,0
-56,43,0,0,0,0,0,0,0,0,0,-1,1168,981,0,0
-49,43,0,0,0,0,0,0,0,0,0,-1,1175,981,0,0
-42,43,0,0,0,0,0,0,0,0,0,-1,1182,981,0,0
-35,43,0,0,0,0,0,0,0,0,0,-1,1189,981,0,0
-28,43,0,0,0,0,0,0,0,0,0,-1,1196,981,0,0
-21,43,0,0,0,0,0,0,0,0,0,-1,1203,981,0,0
-14,43,0,0,0,0,0,0,0,0,0,-1,1210,981,0,0
-7,43,0,0,0,0,0,0,0,0,0,-1,1217,981,0,0
0,43,0,0,0,0,0,0,0,0,0,-1,1224,981,0,0
7,43,0,0,0,0,0,0,0,0,0,-1,1231,981,0,0
14,43,0,0,0,0,0,0,0,0,0,-1,1238,981,0,0
21,43,0,0,0,0,0,0,0,0,0,-1,1245,981,0,0
28,43,0,0,0,0,0,0,0,0,0,-1,1252,981,0,0
35,43,0,0,0,0,0,0,0,0,0,-1,1259,981,0,0
42,43,0,0,0,0,0,0,0,0,0,-1,1266,981,0,0
49,43,0,0,0,0,0,0,0,0,0,-1,1273,981,0,0
56,43,0,0,0,0,0,0,0,0,0,-1,1280,981,0,0
63,43,0,0,0,0,0,0,0,0,0,-1,1287,981,0,0
70,43,0,0,0,0,0,0,0,0,0,-1,1294,981,0,0
77,43,0,0,0,0,0,0,0,0,0,-1,1301,981,0,0
84,43,0,0,0,0,0,0,0,0,0,-1,1308,981,0,0
91,43,0,0,0,0,0,0,0,0,0,-1,1315,981,0,0
98,43,0,0,0,0,0,0,0,0,0,-1,1322,981,0,0
105,43,0,0,0,0,0,0,0,0,0,-1,1329,981,0,0
112,43,0,0,0,0,0,0,0,0,0,-1,1336,981,0,0
119,43,0,0,0,0,0,0,0,0,0,-1,1343,981,0,0
126,43,0,0,0,0,0,0,0,0,0,-1,1350,981,0,0
133,43,0,0,0,0,0,0,0,0,0,-1,1357,981,0,0
140,43,0,0,0,0,0,0,0,0,0,-1,1364,981,0,0
147,43,0,0,0,0,0,0,0,0,0,-1,1371,981,0,0
154,43,0,0,0,0,0,0,0,0,0,-1,1378,981,0,0
161,43,0,0,0,0,0,0,0,0,0,-1,1385,981,0,0
168,43,0,0,0,0,0,0,0,0,0,-1,1392,981,0,0
175,43,0,0,0,0,0,0,0,0,0,-1,1399,981,0,0
182,43,0,0,0,0,0,0,0,0,0,-1,1406,981,0,0
189,43,0,0,0,0,0,0,0,0,0,-1,1413,981,0,0
196,43,0,0,0,0,0,0,0,0,0,-1,1420,981,0,0
203,43,0,0,0,0,0,0,0,0,0,-1,1427,981,0,0
210,43,0,0,0,0,0,0,0,0,0,-1,1434,981,0,0
217,43,0,0,0,0,0,0,0,0,0,-1,1441,981,0,0
224,43,0,0,0,0,0,0,0,0,0,-1,1448,981,0,0
231,43,0,0,0,0,0,0,0,0,0,-1,1455,981,0,0
238,43,0,0,0,0,0,0,0,0,0,-1,1462,981,0,0
245,43,0,0,0,0,0,0,0,0,0,-1,1469,981,0,0
252,43,0,0,0,0,0,0,0,0,0,-1,1476,981,0,0
259,43,0,0,0,0,0,0,0,0,0,-1,1483,981,0,0
266,43,0,0,0,0,0,0,0,0,0,-1,1490,981,0,0
273,43,0,0,0,0,0,0,0,0,0,-1,1497,981,0,0
280,43,0,0,0,0,0,0,0,0,0,-1,1504,981,0,0
287,43,0,0,0,0,0,0,0,0,0,-1,1511,981,0,0
294,43,0,0,0,0,0,0,0,0,0,-1,1518,981,0,0
301,43,0,0,0,0,0,0,0,0,0,-1,1525,981,0,0
308,43,0,0,0,0,0,0,0,0,0,-1,1532,981,0,0
315,43,0,0,0,0,0,0,0,0,0,-1,1539,981,0,0
322,43,0,0,0,0,0,0,0,0,0,-1,1546,981,0,0
329,43,0,0,0,0,0,0,0,0,0,-1,1553,981,0,0
336,43,0,0,0,0,0,0,0,0,0,-1,1560,981,0,0
343,43,0,0,0,0,0,0,0,0,0,-1,1567,981,0,0
350,43,0,0,0,0,0,0,0,0,0,-1,1574,981,0,0
357,43,0,0,0,0,0,0,0,0,0,-1,1581,981,0,0
364,43,0,0,0,0,0,0,0,0,0,-1,1588,981,0,0
371,43,0,0,0,0,0,0,0,0,0,-1,1595,981,0,0
378,43,0,0,0,0,0,0,0,0,0,-1,1602,981,0,0
385,43,0,0,0,0,0,0,0,0,0,-1,1609,981,0,0
392,43,0,0,0,0,0,0,0,0,0,-1,1616,981,0,0
399,43,0,0,0,0,0,0,0,0,0,-1,1623,981,0,0
406,43,0,0,0,0,0,0,0,0,0,-1,1630,981,0,0
413,43,0,0,0,0,0,0,0,0,0,-1,1637,981,0,0
420,43,0,0,0,0,0,0,0,0,0,-1,1644,981,0,0
427,43,0,0,0,0,0,0,0,0,0,-1,1651,981,0,0
434,43,0,0,0,0,0,0,0,0,0,-1,1658,981,0,0
441,43,0,0,0,0,0,0,0,0,0,-1,1665,981,0,0
448,43,0,0,0,0,0,0,0,0,0,-1,1672,981,0,0
455,43,0,0,0,0,0,0,0,0,0,-1,1679,981,0,0
462,43,0,0,0,0,0,0,0,0,0,-1,1686,981,0,0
469,43,0,0,0,0,0,0,0,0,0,-1,1693,981,0,0
476,43,0,0,0,0,0,0,0,0,0,-1,1700,981,0,0
483,43,0,0,0,0,0,0,0,0,0,-1,1707,981,0,0
490,43,0,0,0,0,0,0,0,0,0,-1,1714,981,0,0
497,43,0,0,0,0,0,0,0,0,0,-1,1721,981,0,0
504,43,0,0,0,0,0,0,0,0,0,-1,1728,981,0,0
511,43,0,0,0,0,0,0,0,0,0,-1,1735,981,0,0
518,43,0,0,0,0,0,0,0,0,0,-1,1742,981,0,0
525,43,0,0,0,0,0,0,0,0,0,-1,1749,981,0,0
532,43,0,0,0,0,0,0,0,0,0,-1,1756,981,0,0
539,43,0,0,0,0,0,0,0,0,0,-1,1763,981,0,0
546,43,0,0,0,0,0,0,0,0,0,-1,1770,981,0,0
553,43,0,0,0,0,0,0,0,0,0,-1,1777,981,0,0
560,43,0,0,0,0,0,0,0,0,0,-1,1784,981,0,0
567,43,0,0,0,0,0,0,0,0,0,-1,1791,981,0,0
574,43,0,0,0,0,0,0,0,0,0,-1,1798,981,0,0
581,43,0,0,0,0,0,0,0,0,0,-1,1805,981,0,0
588,43,0,0,0,0,0,0,0,0,0,-1,1812,981,0,0
595,43,0,0,0,0,0,0,0,0,0,-1,1819,981,0,0
602,43,0,0,0,0,0,0,0,0,0,-1,1826,981,0,0
609,43,0,0,0,0,0,0,0,0,0,-1,1833,981,0,0
616,43,0,0,0,0,0,0,0,0,0,-1,1840,981,0,0
623,43,0,0,0,0,0,0,0,0,0,-1,1847,981,0,0
630,43,0,0,0,0,0,0,0,0,0,-1,1854,981,0,0
637,43,0,0,0,0,0,0,0,0,0,-1,1861,981,0,0
644,43,56.2671,2.62311,0.00633883,-0.00286381,-0.00029732,0.00634843,-0.00287341,-0.0322633,0.00544878,0.0371861,1868,981,56.2671,-2.6231
651,43,56.3917,2.46802,0.00490994,-0.00171494,-0.000478535,0.00494433,-0.00174932,-0.0717367,0.00400864,0.0361492,1875,981,56.3917,-2.46803
658,43,56.4108,2.41217,0.00374093,-0.000853265,-0.000257533,0.00375532,-0.000867656,-0.0558231,0.00283733,0.0373869,1882,981,56.4108,-2.41217
665,43,56.3503,2.44775,0.00266134,6.84803e-05,0.000198153,0.0026764,5.34245e-05,0.0758354,0.00176673,0.0374603,1889,981,56.3504,-2.44774
672,43,56.442,2.44537,0.00161208,0.000985296,0.000798946,0.0021569,0.000440476,0.598491,0.00131592,0.0374544,1896,981,56.4421,-2.4454
679,43,56.382,2.52136,0.000759467,0.00146662,0.00137553,0.00253329,-0.000307205,0.911198,0.00180002,0.0394795,1903,981,56.3819,-2.52137
686,43,56.3553,2.50525,0.000233231,0.00157279,0.00175953,0.00278571,-0.000979683,0.96726,0.00225576,0.0403959,1910,981,56.3554,-2.50527
693,43,56.3439,2.50165,-0.000119168,0.00148589,0.00186325,0.00271209,-0.00134537,0.988749,0.00238646,0.0386164,1917,981,56.3438,-2.50168
700,43,56.3555,2.56696,-0.000718561,0.00149863,0.00184182,0.00253975,-0.00175968,1.05631,0.00249586,0.0337007,1924,981,56.3555,-2.56697
707,43,56.4135,2.57336,-0.00141814,0.00168424,0.00163577,0.00238736,-0.00212126,1.16483,0.00260457,0.0311376,1931,981,56.4135,-2.57337
714,43,56.3695,2.72479,0,0,0,0,0,0,0,-1,1938,981,56.3695,-2.72482
721,43,55.5767,5.09229,0,0,0,0,0,0,0,-1,1945,981,55.5767,-5.09231
728,43,55.5837,5.44647,-0.00371907,0.00389819,0.000568234,0.00394035,-0.00376123,1.49674,0.00444691,0.0212213,1952,981,55.5838,-5.44649
735,43,55.5587,5.77301,-0.00428973,0.00539535,-8.78266e-05,0.00539615,-0.00429052,-1.56173,0.00560473,0.0144823,1959,981,55.5587,-5.773
742,43,55.5068,6.06995,-0.00489731,0.00734955,-0.00120986,0.00746793,-0.00501569,-1.47326,0.00725362,0.0159418,1966,981,55.5068,-6.06995
749,43,55.4618,6.33002,-0.00559746,0.010474,-0.00231257,0.0108001,-0.0059236,-1.43069,0.00979134,0.0183509,1973,981,55.4618,-6.33001
756,43,55.4259,6.56116,-0.00602885,0.0148134,-0.00408177,0.0155843,-0.00679971,-1.38414,0.013251,0.0216488,1980,981,55.426,-6.56119
763,43,55.3593,6.78839,-0.00585441,0.0212406,-0.00644098,0.0226938,-0.00730761,-1.34889,0.0180646,0.0252517,1987,981,55.3593,-6.78838
770,43,55.2588,7.1051,-0.00499391,0.0298137,-0.00933233,0.0321579,-0.00733814,-1.32469,0.0242575,0.0204497,1994,981,55.2589,-7.1051
777,43,55.2617,7.41071,-0.00324953,0.0400876,-0.0130485,0.0437131,-0.00687502,-1.29978,0.0316834,0.0247327,2001,981,55.2617,-7.41071
784,43,55.1699,7.78076,-8.99709e-05,0.0522762,-0.0180726,0.0579078,-0.00572156,-1.26872,0.0406468,0.0424175,2008,981,55.17,-7.78075
791,43,55.1001,8.13623,0,0,0,0,0,0,0,-1,2015,981,55.1,-8.13623
798,43,55.3567,8.80609,0.0134715,0.0841912,-0.0348231,0.0984597,-0.000796936,-1.18192,0.065907,0.0477516,2022,981,55.3568,-8.8061
805,43,55.5825,8.9397,0,0,0,0,0,0,0,-1,2029,981,55.5824,-8.9397
812,43,55.9292,8.96985,0,0,0,0,0,0,0,-1,2036,981,55.9291,-8.96988
-700,36,0,0,0,0,0,0,0,0,0,-1,524,988,0,0
-693,36,-37.4586,0.388062,-0.0702995,0.176527,-0.0326274,0.180767,-0.0745396,-1.44157,0.151595,0.0427783,531,988,-37.4586,-0.388056
-686,36,-38.4101,0.4646,-0.0560583,0.157508,-0.0211626,0.159585,-0.0581351,-1.47297,0.13017,0.0431733,538,988,-38.4101,-0.464577
-679,36,-39.482,0.260071,-0.0461741,0.137538,-0.0133101,0.138498,-0.0471334,-1.49885,0.111417,0.0491026,545,988,-39.482,-0.26008
-672,36,-40.3767,0.28479,0,0,0,0,0,0,0,-1,552,988,-40.3767,-0.284787
-665,36,-41.1409,-0.00720215,0,0,0,0,0,0,0,-1,559,988,-41.1409,0.00722382
-658,36,-42.3652,4.36615,0,0,0,0,0,0,0,-1,566,988,-42.3652,-4.36617
-651,36,-42.3908,4.25818,0,0,0,0,0,0,0,-1,573,988,-42.3908,-4.2582
-644,36,-42.4321,4.23041,-0.0157137,0.0516417,0.00267468,0.0517477,-0.0158197,1.53117,0.040807,0.0276103,580,988,-42.4321,-4.2304
-637,36,-42.5673,4.07556,-0.0118127,0.0387179,0.00293085,0.0388874,-0.0119822,1.51305,0.0307083,0.0221402,587,988,-42.5673,-4.07555
-630,36,-42.5695,3.9848,-0.0082401,0.026737,0.00322166,0.0270313,-0.00853436,1.47971,0.0214395,0.0165623,594,988,-42.5695,-3.98482
-623,36,-42.6145,3.8501,-0.0050703,0.0161224,0.0025453,0.0164239,-0.0053717,1.45293,0.0131119,0.0130065,601,988,-42.6145,-3.85009
-616,36,-42.6221,3.68292,-0.00323533,0.010517,0.000585019,0.0105419,-0.00326017,1.52836,0.00833008,0.0105368,608,988,-42.6221,-3.68292
-609,36,-42.5699,3.51276,-0.00223125,0.00679188,-0.00115872,0.00693831,-0.00237767,-1.4451,0.00558929,0.0153596,615,988,-42.5699,-3.51274
-602,36,-42.582,3.28125,-0.00161646,0.00421412,-0.00224633,0.00497917,-0.00238151,-1.24254,0.00433701,0.0213279,622,988,-42.5819,-3.28126
-595,36,-42.7432,3.03979,-0.00120339,0.00297882,-0.00308218,0.0046123,-0.00283687,-1.08346,0.00434131,0.024976,629,988,-42.7431,-3.03981
-588,36,-42.6631,2.0979,-0.000528388,0.00204239,-0.00382048,0.00478792,-0.00327391,-0.947673,0.00468178,0.0398062,636,988,-42.6631,-2.09793
-581,36,-42.3862,1.01782,0,0,0,0,0,0,0,-1,643,988,-42.3862,-1.01779
-574,36,-42.3381,0.708313,-0.000203485,0.00125533,-0.00469038,0.00527269,-0.00422084,-0.862536,0.00549229,0.0284572,650,988,-42.3381,-0.708295
-567,36,-42.3297,0.714417,-0.000443336,0.00136976,-0.00475731,0.00530613,-0.00437971,-0.879549,0.00560064,0.0353242,657,988,-42.3296,-0.714391
-560,36,-42.3553,0.802063,-0.000854654,0.00171501,-0.00455188,0.00515991,-0.00429955,-0.922952,0.00546895,0.0396341,664,988,-42.3553,-0.802041
-553,36,-42.3915,0.766479,-0.00142964,0.00227029,-0.0041582,0.00497147,-0.00413082,-0.994698,0.00526268,0.041735,671,988,-42.3915,-0.766459
-546,36,-42.3416,1.06726,-0.00220348,0.00290532,-0.00360437,0.00476866,-0.00406682,-1.09367,0.00510653,0.0446348,678,988,-42.3416,-1.06724
-539,36,-42.3523,1.20807,-0.00321312,0.00351091,-0.0031788,0.00477576,-0.00447798,-1.1921,0.00534357,0.0456985,685,988,-42.3523,-1.20805
-532,36,-42.3066,0.637634,-0.00411223,0.00423792,-0.00399447,0.005841,-0.00571531,-1.18915,0.00667217,0.0453899,692,988,-42.3066,-0.637649
-525,36,-42.508,0.301392,-0.00602307,0.00787226,-0.00622437,0.0102527,-0.00840348,-1.20553,0.0107887,0.0465214,699,988,-42.508,-0.301394
-518,36,0,0,0,0,0,0,0,0,0,-1,706,988,0,0
-511,36,0,0,0,0,0,0,0,0,0,-1,713,988,0,0
-504,36,0,0,0,0,0,0,0,0,0,-1,720,988,0,0
-497,36,0,0,0,0,0,0,0,0,0,-1,727,988,0,0
-490,36,0,0,0,0,0,0,0,0,0,-1,734,988,0,0
-483,36,0,0,0,0,0,0,0,0,0,-1,741,988,0,0
-476,36,0,0,0,0,0,0,0,0,0,-1,748,988,0,0
-469,36,0,0,0,0,0,0,0,0,0,-1,755,988,0,0
-462,36,0,0,0,0,0,0,0,0,0,-1,762,988,0,0
-455,36,0,0,0,0,0,0,0,0,0,-1,769,988,0,0
-448,36,0,0,0,0,0,0,0,0,0,-1,776,988,0,0
-441,36,0,0,0,0,0,0,0,0,0,-1,783,988,0,0
-434,36,0,0,0,0,0,0,0,0,0,-1,790,988,0,0
-427,36,0,0,0,0,0,0,0,0,0,-1,797,988,0,0
-420,36,0,0,0,0,0,0,0,0,0,-1,804,988,0,0
-413,36,0,0,0,0,0,0,0,0,0,-1,811,988,0,0
-406,36,0,0,0,0,0,0,0,0,0,-1,818,988,0,0
-399,36,0,0,0,0,0,0,0,0,0,-1,825,988,0,0
-392,36,0,0,0,0,0,0,0,0,0,-1,832,988,0,0
-385,36,0,0,0,0,0,0,0,0,0,-1,839,988,0,0
-378,36,0,0,0,0,0,0,0,0,0,-1,846,988,0,0
-371,36,0,0,0,0,0,0,0,0,0,-1,853,988,0,0
-364,36,0,0,0,0,0,0,0,0,0,-1,860,988,0,0
-357,36,0,0,0,0,0,0,0,0,0,-1,867,988,0,0
-350,36,0,0,0,0,0,0,0,0,0,-1,874,988,0,0
-343,36,0,0,0,0,0,0,0,0,0,-1,881,988,0,0
-336,36,0,0,0,0,0,0,0,0,0,-1,888,988,0,0
-329,36,0,0,0,0,0,0,0,0,0,-1,895,988,0,0
-322,36,0,0,0,0,0,0,0,0,0,-1,902,988,0,0
-315,36,0,0,0,0,0,0,0,0,0,-1,909,988,0,0
-308,36,0,0,0,0,0,0,0,0,0,-1,916,988,0,0
-301,36,0,0,0,0,0,0,0,0,0,-1,923,988,0,0
-294,36,0,0,0,0,0,0,0,0,0,-1,930,988,0,0
-287,36,0,0,0,0,0,0,0,0,0,-1,937,988,0,0
-280,36,0,0,0,0,0,0,0,0,0,-1,944,988,0,0
-273,36,0,0,0,0,0,0,0,0,0,-1,951,988,0,0
-266,36,0,0,0,0,0,0,0,0,0,-1,958,988,0,0
-259,36,0,0,0,0,0,0,0,0,0,-1,965,988,0,0
-252,36,0,0,0,0,0,0,0,0,0,-1,972,988,0,0
-245,36,0,0,0,0,0,0,0,0,0,-1,979,988,0,0
-238,36,0,0,0,0,0,0,0,0,0,-1,986,988,0,0
-231,36,0,0,0,0,0,0,0,0,0,-1,993,988,0,0
-224,36,0,0,0,0,0,0,0,0,0,-1,1000,988,0,0
-217,36,0,0,0,0,0,0,0,0,0,-1,1007,988,0,0
-210,36,0,0,0,0,0,0,0,0,0,-1,1014,988,0,0
-203,36,0,0,0,0,0,0,0,0,0,-1,1021,988,0,0
-196,36,0,0,0,0,0,0,0,0,0,-1,1028,988,0,0
-189,36,0,0,0,0,0,0,0,0,0,-1,1035,988,0,0
-182,36,0,0,0,0,0,0,0,0,0,-1,1042,988,0,0
-175,36,0,0,0,0,0,0,0,0,0,-1,1049,988,0,0
-168,36,0,0,0,0,0,0,0,0,0,-1,1056,988,0,0
-161,36,0,0,0,0,0,0,0,0,0,-1,1063,988,0,0
-154,36,0,0,0,0,0,0,0,0,0,-1,1070,988,0,0
-147,36,0,0,0,0,0,0,0,0,0,-1,1077,988,0,0
-140,36,0,0,0,0,0,0,0,0,0,-1,1084,988,0,0
-133,36,0,0,0,0,0,0,0,0,0,-1,1091,988,0,0
-126,36,0,0,0,0,0,0,0,0,0,-1,1098,988,0,0
-119,36,0,0,0,0,0,0,0,0,0,-1,1105,988,0,0
-112,36,0,0,0,0,0,0,0,0,0,-1,1112,988,0,0
-105,36,0,0,0,0,0,0,0,0,0,-1,1119,988,0,0
-98,36,0,0,0,0,0,0,0,0,0,-1,1126,988,0,0
-91,36,0,0,0,0,0,0,0,0,0,-1,1133,988,0,0
-84,36,0,0,0,0,0,0,0,0,0,-1,1140,988,0,0
-77,36,0,0,0,0,0,0,0,0,0,-1,1147,988,0,0
-70,36,0,0,0,0,0,0,0,0,0,-1,1154,988,0,0
-63,36,0,0,0,0,0,0,0,0,0,-1,1161,988,0,0
-56,36,0,0,0,0,0,0,0,0,0,-1,1168,988,0,0
-49,36,0,0,0,0,0,0,0,0,0,-1,1175,988,0,0
-42,36,0,0,0,0,0,0,0,0,0,-1,1182,988,0,0
-35,36,0,0,0,0,0,0,0,0,0,-1,1189,988,0,0
-28,36,0,0,0,0,0,0,0,0,0,-1,1196,988,0,0
-21,36,0,0,0,0,0,0,0,0,0,-1,1203,988,0,0
-14,36,0,0,0,0,0,0,0,0,0,-1,1210,988,0,0
-7,36,0,0,0,0,0,0,0,0,0,-1,1217,988,0,0
0,36,0,0,0,0,0,0,0,0,0,-1,1224,988,0,0
7,36,0,0,0,0,0,0,0,0,0,-1,1231,988,0,0
14,36,0,0,0,0,0,0,0,0,0,-1,1238,988,0,0
21,36,0,0,0,0,0,0,0,0,0,-1,1245,988,0,0
28,36,0,0,0,0,0,0,0,0,0,-1,1252,988,0,0
35,36,0,0,0,0,0,0,0,0,0,-1,1259,988,0,0
42,36,0,0,0,0,0,0,0,0,0,-1,1266,988,0,0
49,36,0,0,0,0,0,0,0,0,0,-1,1273,988,0,0
56,36,0,0,0,0,0,0,0,0,0,-1,1280,988,0,0
63,36,0,0,0,0,0,0,0,0,0,-1,1287,988,0,0
70,36,0,0,0,0,0,0,0,0,0,-1,1294,988,0,0
77,36,0,0,0,0,0,0,0,0,0,-1,1301,988,0,0
84,36,0,0,0,0,0,0,0,0,0,-1,1308,988,0,0
91,36,0,0,0,0,0,0,0,0,0,-1,1315,988,0,0
98,36,0,0,0,0,0,0,0,0,0,-1,1322,988,0,0
105,36,0,0,0,0,0,0,0,0,0,-1,1329,988,0,0
112,36,0,0,0,0,0,0,0,0,0,-1,1336,988,0,0
119,36,0,0,0,0,0,0,0,0,0,-1,1343,988,0,0
126,36,0,0,0,0,0,0,0,0,0,-1,1350,988,0,0
133,36,0,0,0,0,0,0,0,0,0,-1,1357,988,0,0
140,36,0,0,0,0,0,0,0,0,0,-1,1364,988,0,0
147,36,0,0,0,0,0,0,0,0,0,-1,1371,988,0,0
154,36,0,0,0,0,0,0,0,0,0,-1,1378,988,0,0
161,36,0,0,0,0,0,0,0,0,0,-1,1385,988,0,0
168,36,0,0,0,0,0,0,0,0,0,-1,1392,988,0,0
175,36,0,0,0,0,0,0,0,0,0,-1,1399,988,0,0
182,36,0,0,0,0,0,0,0,0,0,-1,1406,988,0,0
189,36,0,0,0,0,0,0,0,0,0,-1,1413,988,0,0
196,36,0,0,0,0,0,0,0,0,0,-1,1420,988,0,0
203,36,0,0,0,0,0,0,0,0,0,-1,1427,988,0,0
210,36,0,0,0,0,0,0,0,0,0,-1,1434,988,0,0
217,36,0,0,0,0,0,0,0,0,0,-1,1441,988,0,0
224,36,0,0,0,0,0,0,0,0,0,-1,1448,988,0,0
231,36,0,0,0,0,0,0,0,0,0,-1,1455,988,0,0
238,36,0,0,0,0,0,0,0,0,0,-1,1462,988,0,0
245,36,0,0,0,0,0,0,0,0,0,-1,1469,988,0,0
252,36,0,0,0,0,0,0,0,0,0,-1,1476,988,0,0
259,36,0,0,0,0,0,0,0,0,0,-1,1483,988,0,0
266,36,0,0,0,0,0,0,0,0,0,-1,1490,988,0,0
273,36,0,0,0,0,0,0,0,0,0,-1,1497,988,0,0
280,36,0,0,0,0,0,0,0,0,0,-1,1504,988,0,0
287,36,0,0,0,0,0,0,0,0,0,-1,1511,988,0,0
294,36,0,0,0,0,0,0,0,0,0,-1,1518,988,0,0
301,36,0,0,0,0,0,0,0,0,0,-1,1525,988,0,0
308,36,0,0,0,0,0,0,0,0,0,-1,1532,988,0,0
315,36,0,0,0,0,0,0,0,0,0,-1,1539,988,0,0
322,36,0,0,0,0,0,0,0,0,0,-1,1546,988,0,0
329,36,0,0,0,0,0,0,0,0,0,-1,1553,988,0,0
336,36,0,0,0,0,0,0,0,0,0,-1,1560,988,0,0
343,36,0,0,0,0,0,0,0,0,0,-1,1567,988,0,0
350,36,0,0,0,0,0,0,0,0,0,-1,1574,988,0,0
357,36,0,0,0,0,0,0,0,0,0,-1,1581,988,0,0
364,36,0,0,0,0,0,0,0,0,0,-1,1588,988,0,0
371,36,0,0,0,0,0,0,0,0,0,-1,1595,988,0,0
378,36,0,0,0,0,0,0,0,0,0,-1,1602,988,0,0
385,36,0,0,0,0,0,0,0,0,0,-1,1609,988,0,0
392,36,0,0,0,0,0,0,0,0,0,-1,1616,988,0,0
399,36,0,0,0,0,0,0,0,0,0,-1,1623,988,0,0
406,36,0,0,0,0,0,0,0,0,0,-1,1630,988,0,0
413,36,0,0,0,0,0,0,0,0,0,-1,1637,988,0,0
420,36,0,0,0,0,0,0,0,0,0,-1,1644,988,0,0
427,36,0,0,0,0,0,0,0,0,0,-1,1651,988,0,0
434,36,0,0,0,0,0,0,0,0,0,-1,1658,988,0,0
441,36,0,0,0,0,0,0,0,0,0,-1,1665,988,0,0
448,36,0,0,0,0,0,0,0,0,0,-1,1672,988,0,0
455,36,0,0,0,0,0,0,0,0,0,-1,1679,988,0,0
462,36,0,0,0,0,0,0,0,0,0,-1,1686,988,0,0
469,36,0,0,0,0,0,0,0,0,0,-1,1693,988,0,0
476,36,0,0,0,0,0,0,0,0,0,-1,1700,988,0,0
483,36,0,0,0,0,0,0,0,0,0,-1,1707,988,0,0
490,36,0,0,0,0,0,0,0,0,0,-1,1714,988,0,0
497,36,0,0,0,0,0,0,0,0,0,-1,1721,988,0,0
504,36,0,0,0,0,0,0,0,0,0,-1,1728,988,0,0
511,36,0,0,0,0,0,0,0,0,0,-1,1735,988,0,0
518,36,0,0,0,0,0,0,0,0,0,-1,1742,988,0,0
525,36,0,0,0,0,0,0,0,0,0,-1,1749,988,0,0
532,36,0,0,0,0,0,0,0,0,0,-1,1756,988,0,0
539,36,0,0,0,0,0,0,0,0,0,-1,1763,988,0,0
546,36,0,0,0,0,0,0,0,0,0,-1,1770,988,0,0
553,36,0,0,0,0,0,0,0,0,0,-1,1777,988,0,0
560,36,0,0,0,0,0,0,0,0,0,-1,1784,988,0,0
567,36,0,0,0,0,0,0,0,0,0,-1,1791,988,0,0
574,36,0,0,0,0,0,0,0,0,0,-1,1798,988,0,0
581,36,0,0,0,0,0,0,0,0,0,-1,1805,988,0,0
588,36,0,0,0,0,0,0,0,0,0,-1,1812,988,0,0
595,36,0,0,0,0,0,0,0,0,0,-1,1819,988,0,0
602,36,0,0,0,0,0,0,0,0,0,-1,1826,988,0,0
609,36,0,0,0,0,0,0,0,0,0,-1,1833,988,0,0
616,36,0,0,0,0,0,0,0,0,0,-1,1840,988,0,0
623,36,0,0,0,0,0,0,0,0,0,-1,1847,988,0,0
630,36,0,0,0,0,0,0,0,0,0,-1,1854,988,0,0
637,36,0,0,0,0,0,0,0,0,0,-1,1861,988,0,0
644,36,56.1686,2.73517,0.00929916,-0.00421603,-0.00190654,0.00956296,-0.00447983,-0.137493,0.00828276,0.0409456,1868,988,56.1686,-2.73519
651,36,56.3958,2.49554,0.00693589,-0.00268231,-0.0017684,0.00725073,-0.00299714,-0.176187,0.00608413,0.038857,1875,988,56.3958,-2.49552
658,36,56.5249,2.32379,0.00513847,-0.00152531,-0.00128376,0.00537723,-0.00176407,-0.183883,0.00429534,0.0387246,1882,988,56.5248,-2.32379
665,36,56.4583,2.54254,0.00361464,-0.000398829,-0.000597567,0.00370173,-0.000485911,-0.14471,0.00264471,0.0374297,1889,988,56.4583,-2.54255
672,36,56.3545,2.68048,0.00225666,0.000738856,0.000226698,0.00228979,0.00070572,0.145141,0.00135405,0.0381374,1896,988,56.3545,-2.68047
679,36,56.3649,2.71912,0.00119553,0.00146775,0.0010139,0.00235464,0.000308648,0.852121,0.00147766,0.0391333,1903,988,56.3649,-2.71914
686,36,56.4241,2.72357,0.000509431,0.00175928,0.00158685,0.00283983,-0.000571115,0.972979,0.00210952,0.0378189,1910,988,56.4241,-2.72357
693,36,56.4341,2.53363,3.89e-05,0.00178479,0.00187925,0.00298395,-0.00116026,1.00283,0.00246868,0.0385803,1917,988,56.434,-2.53364
700,36,56.4338,2.54419,-0.000603889,0.00184999,0.0019785,0.0029511,-0.001705,1.06295,0.0027201,0.0345254,1924,988,56.4338,-2.5442
707,36,56.4399,2.5639,-0.00131413,0.00208207,0.00184612,0.0028923,-0.00212436,1.15723,0.00290766,0.0276677,1931,988,56.4399,-2.56388
714,36,56.4116,2.57385,0,0,0,0,0,0,0,-1,1938,988,56.4116,-2.57387
721,36,55.8745,5.18591,0,0,0,0,0,0,0,-1,1945,988,55.8745,-5.18593
728,36,55.8265,5.53394,-0.00380557,0.0043667,0.000859369,0.00445609,-0.00389496,1.46715,0.00482511,0.021665,1952,988,55.8266,-5.53393
735,36,55.7913,5.85675,-0.00444216,0.00586595,0.000226096,0.00587091,-0.00444712,1.54888,0.00597599,0.0196525,1959,988,55.7913,-5.85672
742,36,55.7269,6.06598,-0.00517592,0.00773888,-0.000798587,0.00778808,-0.00522511,-1.50927,0.00756159,0.0161184,1966,988,55.727,-6.06599
749,36,55.7164,6.31116,-0.00597508,0.0108451,-0.0018611,0.0110486,-0.00617854,-1.4619,0.0100777,0.0177217,1973,988,55.7165,-6.31117
756,36,55.6766,6.51392,-0.0064729,0.0151461,-0.00364824,0.0157452,-0.00707194,-1.40805,0.013487,0.0176901,1980,988,55.6766,-6.51393
763,36,55.582,6.70477,-0.0064092,0.0215616,-0.00606514,0.0228201,-0.00766773,-1.3662,0.0183125,0.0203152,1987,988,55.5821,-6.7048
770,36,55.5195,6.96246,-0.00569925,0.0304341,-0.00903022,0.0325652,-0.00783033,-1.33904,0.0247369,0.0169839,1994,988,55.5196,-6.96247
777,36,55.551,7.27332,-0.00402434,0.0412929,-0.0128682,0.044692,-0.00742344,-1.31255,0.0325525,0.0252938,2001,988,55.5511,-7.2733
784,36,55.5657,7.59924,-0.000935218,0.0540523,-0.0180041,0.0594227,-0.00630565,-1.28091,0.0418756,0.0442442,2008,988,55.5656,-7.59924
791,36,55.5925,7.78564,0.00436021,0.0693246,-0.025137,0.077915,-0.0042302,-1.2415,0.0534093,0.0480723,2015,988,55.5924,-7.78562
798,36,55.4414,7.93732,0.0121473,0.0871415,-0.0347994,0.100801,-0.00151251,-1.19675,0.0677107,0.0488444,2022,988,55.4414,-7.93734
805,36,55.4849,8.1911,0,0,0,0,0,0,0,-1,2029,988,55.4849,-8.19108
812,36,52.1794,2.04254,0,0,0,0,0,0,0,-1,2036,988,52.1795,-2.04251
-700,29,0,0,0,0,0,0,0,0,0,-1,524,995,0,0
-693,29,-37.3527,-0.445923,0,0,0,0,0,0,0,-1,531,995,-37.3527,0.44592
-686,29,-38.4366,-0.938843,0,0,0,0,0,0,0,-1,538,995,-38.4366,0.938859
-679,29,-39.2982,-0.884766,-0.0363147,0.114661,-0.0066103,0.11495,-0.0366036,-1.52712,0.0913138,0.048912,545,995,-39.2982,0.884781
-672,29,-40.0296,-0.799255,-0.0305365,0.0994582,-0.00274619,0.0995162,-0.0305945,-1.54968,0.078554,0.0469222,552,995,-40.0296,0.799256
-665,29,-40.8451,-0.724854,0,0,0,0,0,0,0,-1,559,995,-40.8451,0.724852
-658,29,-41.4799,-0.522827,0,0,0,0,0,0,0,-1,566,995,-41.4799,0.52282
-651,29,-42.4863,3.85004,0,0,0,0,0,0,0,-1,573,995,-42.4863,-3.85001
-644,29,-42.5505,3.77734,-0.0137858,0.044806,0.003643,0.0450317,-0.0140114,1.50894,0.0356223,0.0448743,580,995,-42.5505,-3.77734
-637,29,-42.7534,3.90759,-0.0106833,0.0338808,0.00335358,0.0341318,-0.0109342,1.4961,0.0271436,0.0267076,587,995,-42.7534,-3.9076
-630,29,-42.7473,3.88501,-0.00781472,0.0236935,0.00318621,0.0240125,-0.00813369,1.47102,0.0192996,0.0144686,594,995,-42.7472,-3.88501
-623,29,-42.7687,3.81213,-0.00512764,0.0144633,0.00231802,0.0147338,-0.00539818,1.45461,0.0120326,0.0119889,601,995,-42.7687,-3.81215
-616,29,-42.7909,3.66467,-0.0032738,0.00950292,0.000293334,0.00950966,-0.00328053,1.54785,0.00767079,0.0133989,608,995,-42.7909,-3.66467
-609,29,-42.7733,3.5722,-0.00227042,0.00632681,-0.00145598,0.00656669,-0.0025103,-1.40751,0.00541223,0.0214209,615,995,-42.7733,-3.57218
-602,29,-42.8814,3.4118,-0.00158939,0.004135,-0.00257498,0.00512283,-0.00257721,-1.20449,0.00452588,0.0248461,622,995,-42.8814,-3.41178
-595,29,-43.0128,3.12646,-0.00117015,0.00299314,-0.00338096,0.0048819,-0.00305891,-1.06134,0.00462473,0.0260438,629,995,-43.0128,-3.12644
-588,29,-42.6768,2.2677,-0.000459847,0.0021347,-0.00409476,0.00513278,-0.00345792,-0.938803,0.00499116,0.045345,636,995,-42.6768,-2.26768
-581,29,-42.3461,1.01221,0,0,0,0,0,0,0,-1,643,995,-42.3462,-1.01222
-574,29,-42.2982,0.64978,-8.06691e-05,0.00151025,-0.00484045,0.00562017,-0.00419058,-0.866838,0.00568425,0.0340385,650,995,-42.2982,-0.649761
-567,29,-42.2999,0.5849,-0.000335687,0.00170804,-0.00482627,0.00561944,-0.00424709,-0.889722,0.00571478,0.0344672,657,995,-42.2999,-0.584899
-560,29,-42.3922,0.542969,-0.00078891,0.00216629,-0.0045318,0.0054553,-0.00407792,-0.94299,0.00552312,0.0388776,664,995,-42.3921,-0.542938
-553,29,-42.4771,0.739136,-0.00146177,0.00281987,-0.0040322,0.00524433,-0.00388623,-1.02944,0.00529093,0.0413563,671,995,-42.4771,-0.739116
-546,29,-42.3154,0.780151,-0.00239991,0.00350258,-0.00335371,0.00501868,-0.00391601,-1.14622,0.00517153,0.0445842,678,995,-42.3154,-0.780182
-539,29,-42.196,0.732849,-0.00360872,0.00411926,-0.00281473,0.00503577,-0.00452523,-1.25601,0.00552267,0.0452511,685,995,-42.1961,-0.732871
-532,29,-42.1296,0.654358,-0.00464899,0.00484849,-0.00351062,0.00600526,-0.00580575,-1.2525,0.00681941,0.0468005,692,995,-42.1296,-0.654367
-525,29,-42.3215,0.404358,-0.0068195,0.00861084,-0.00533538,0.010276,-0.00848464,-1.26828,0.0108479,0.0456467,699,995,-42.3215,-0.40435
-518,29,0,0,0,0,0,0,0,0,0,-1,706,995,0,0
-511,29,0,0,0,0,0,0,0,0,0,-1,713,995,0,0
-504,29,0,0,0,0,0,0,0,0,0,-1,720,995,0,0
-497,29,0,0,0,0,0,0,0,0,0,-1,727,995,0,0
-490,29,0,0,0,0,0,0,0,0,0,-1,734,995,0,0
-483,29,0,0,0,0,0,0,0,0,0,-1,741,995,0,0
-476,29,0,0,0,0,0,0,0,0,0,-1,748,995,0,0
-469,29,0,0,0,0,0,0,0,0,0,-1,755,995,0,0
-462,29,0,0,0,0,0,0,0,0,0,-1,762,995,0,0
-455,29,0,0,0,0,0,0,0,0,0,-1,769,995,0,0
-448,29,0,0,0,0,0,0,0,0,0,-1,776,995,0,0
-441,29,0,0,0,0,0,0,0,0,0,-1,783,995,0,0
-434,29,0,0,0,0,0,0,0,0,0,-1,790,995,0,0
-427,29,0,0,0,0,0,0,0,0,0,-1,797,995,0,0
-420,29,0,0,0,0,0,0,0,0,0,-1,804,995,0,0
-413,29,0,0,0,0,0,0,0,0,0,-1,811,995,0,0
-406,29,0,0,0,0,0,0,0,0,0,-1,818,995,0,0
-399,29,0,0,0,0,0,0,0,0,0,-1,825,995,0,0
-392,29,0,0,0,0,0,0,0,0,0,-1,832,995,0,0
-385,29,0,0,0,0,0,0,0,0,0,-1,839,995,0,0
-378,29,0,0,0,0,0,0,0,0,0,-1,846,995,0,0
-371,29,0,0,0,0,0,0,0,0,0,-1,853,995,0,0
-364,29,0,0,0,0,0,0,0,0,0,-1,860,995,0,0
-357,29,0,0,0,0,0,0,0,0,0,-1,867,995,0,0
-350,29,0,0,0,0,0,0,0,0,0,-1,874,995,0,0
-343,29,0,0,0,0,0,0,0,0,0,-1,881,995,0,0
-336,29,0,0,0,0,0,0,0,0,0,-1,888,995,0,0
-329,29,0,0,0,0,0,0,0,0,0,-1,895,995,0,0
-322,29,0,0,0,0,0,0,0,0,0,-1,902,995,0,0
-315,29,0,0,0,0,0,0,0,0,0,-1,909,995,0,0
-308,29,0,0,0,0,0,0,0,0,0,-1,916,995,0,0
-301,29,0,0,0,0,0,0,0,0,0,-1,923,995,0,0
-294,29,0,0,0,0,0,0,0,0,0,-1,930,995,0,0
-287,29,0,0,0,0,0,0,0,0,0,-1,937,995,0,0
-280,29,0,0,0,0,0,0,0,0,0,-1,944,995,0,0
-273,29,0,0,0,0,0,0,0,0,0,-1,951,995,0,0
-266,29,0,0,0,0,0,0,0,0,0,-1,958,995,0,0
-259,29,0,0,0,0,0,0,0,0,0,-1,965,995,0,0
-252,29,0,0,0,0,0,0,0,0,0,-1,972,995,0,0
-245,29,0,0,0,0,0,0,0,0,0,-1,979,995,0,0
-238,29,0,0,0,0,0,0,0,0,0,-1,986,995,0,0
-231,29,0,0,0,0,0,0,0,0,0,-1,993,995,0,0
-224,29,0,0,0,0,0,0,0,0,0,-1,1000,995,0,0
-217,29,0,0,0,0,0,0,0,0,0,-1,1007,995,0,0
-210,29,0,0,0,0,0,0,0,0,0,-1,1014,995,0,0
-203,29,0,0,0,0,0,0,0,0,0,-1,1021,995,0,0
-196,29,0,0,0,0,0,0,0,0,0,-1,1028,995,0,0
-189,29,0,0,0,0,0,0,0,0,0,-1,1035,995,0,0
-182,29,0,0,0,0,0,0,0,0,0,-1,1042,995,0,0
-175,29,0,0,0,0,0,0,0,0,0,-1,1049,995,0,0
-168,29,0,0,0,0,0,0,0,0,0,-1,1056,995,0,0
-161,29,0,0,0,0,0,0,0,0,0,-1,1063,995,0,0
-154,29,0,0,0,0,0,0,0,0,0,-1,1070,995,0,0
-147,29,0,0,0,0,0,0,0,0,0,-1,1077,995,0,0
-140,29,0,0,0,0,0,0,0,0,0,-1,1084,995,0,0
-133,29,0,0,0,0,0,0,0,0,0,-1,1091,995,0,0
-126,29,0,0,0,0,0,0,0,0,0,-1,1098,995,0,0
-119,29,0,0,0,0,0,0,0,0,0,-1,1105,995,0,0
-112,29,0,0,0,0,0,0,0,0,0,-1,1112,995,0,0
-105,29,0,0,0,0,0,0,0,0,0,-1,1119,995,0,0
-98,29,0,0,0,0,0,0,0,0,0,-1,1126,995,0,0
-91,29,0,0,0,0,0,0,0,0,0,-1,1133,995,0,0
-84,29,0,0,0,0,0,0,0,0,0,-1,1140,995,0,0
-77,29,0,0,0,0,0,0,0,0,0,-1,1147,995,0,0
-70,29,0,0,0,0,0,0,0,0,0,-1,1154,995,0,0
-63,29,0,0,0,0,0,0,0,0,0,-1,1161,995,0,0
-56,29,0,0,0,0,0,0,0,0,0,-1,1168,995,0,0
-49,29,0,0,0,0,0,0,0,0,0,-1,1175,995,0,0
-42,29,0,0,0,0,0,0,0,0,0,-1,1182,995,0,0
-35,29,0,0,0,0,0,0,0,0,0,-1,1189,995,0,0
-28,29,0,0,0,0,0,0,0,0,0,-1,1196,995,0,0
-21,29,0,0,0,0,0,0,0,0,0,-1,1203,995,0,0
-14,29,0,0,0,0,0,0,0,0,0,-1,1210,995,0,0
-7,29,0,0,0,0,0,0,0,0,0,-1,1217,995,0,0
0,29,0,0,0,0,0,0,0,0,0,-1,1224,995,0,0
7,29,0,0,0,0,0,0,0,0,0,-1,1231,995,0,0
14,29,0,0,0,0,0,0,0,0,0,-1,1238,995,0,0
21,29,0,0,0,0,0,0,0,0,0,-1,1245,995,0,0
28,29,0,0,0,0,0,0,0,0,0,-1,1252,995,0,0
35,29,0,0,0,0,0,0,0,0,0,-1,1259,995,0,0
42,29,0,0,0,0,0,0,0,0,0,-1,1266,995,0,0
49,29,0,0,0,0,0,0,0,0,0,-1,1273,995,0,0
56,29,0,0,0,0,0,0,0,0,0,-1,1280,995,0,0
63,29,0,0,0,0,0,0,0,0,0,-1,1287,995,0,0
70,29,0,0,0,0,0,0,0,0,0,-1,1294,995,0,0
77,29,0,0,0,0,0,0,0,0,0,-1,1301,995,0,0
84,29,0,0,0,0,0,0,0,0,0,-1,1308,995,0,0
91,29,0,0,0,0,0,0,0,0,0,-1,1315,995,0,0
98,29,0,0,0,0,0,0,0,0,0,-1,1322,995,0,0
105,29,0,0,0,0,0,0,0,0,0,-1,1329,995,0,0
112,29,0,0,0,0,0,0,0,0,0,-1,1336,995,0,0
119,29,0,0,0,0,0,0,0,0,0,-1,1343,995,0,0
126,29,0,0,0,0,0,0,0,0,0,-1,1350,995,0,0
133,29,0,0,0,0,0,0,0,0,0,-1,1357,995,0,0
140,29,0,0,0,0,0,0,0,0,0,-1,1364,995,0,0
147,29,0,0,0,0,0,0,0,0,0,-1,1371,995,0,0
154,29,0,0,0,0,0,0,0,0,0,-1,1378,995,0,0
161,29,0,0,0,0,0,0,0,0,0,-1,1385,995,0,0
168,29,0,0,0,0,0,0,0,0,0,-1,1392,995,0,0
175,29,0,0,0,0,0,0,0,0,0,-1,1399,995,0,0
182,29,0,0,0,0,0,0,0,0,0,-1,1406,995,0,0
189,29,0,0,0,0,0,0,0,0,0,-1,1413,995,0,0
196,29,0,0,0,0,0,0,0,0,0,-1,1420,995,0,0
203,29,0,0,0,0,0,0,0,0,0,-1,1427,995,0,0
210,29,0,0,0,0,0,0,0,0,0,-1,1434,995,0,0
217,29,0,0,0,0,0,0,0,0,0,-1,1441,995,0,0
224,29,0,0,0,0,0,0,0,0,0,-1,1448,995,0,0
231,29,0,0,0,0,0,0,0,0,0,-1,1455,995,0,0
238,29,0,0,0,0,0,0,0,0,0,-1,1462,995,0,0
245,29,0,0,0,0,0,0,0,0,0,-1,1469,995,0,0
252,29,0,0,0,0,0,0,0,0,0,-1,1476,995,0,0
259,29,0,0,0,0,0,0,0,0,0,-1,1483,995,0,0
266,29,0,0,0,0,0,0,0,0,0,-1,1490,995,0,0
273,29,0,0,0,0,0,0,0,0,0,-1,1497,995,0,0
280,29,0,0,0,0,0,0,0,0,0,-1,1504,995,0,0
287,29,0,0,0,0,0,0,0,0,0,-1,1511,995,0,0
294,29,0,0,0,0,0,0,0,0,0,-1,1518,995,0,0
301,29,0,0,0,0,0,0,0,0,0,-1,1525,995,0,0
308,29,0,0,0,0,0,0,0,0,0,-1,1532,995,0,0
315,29,0,0,0,0,0,0,0,0,0,-1,1539,995,0,0
322,29,0,0,0,0,0,0,0,0,0,-1,1546,995,0,0
329,29,0,0,0,0,0,0,0,0,0,-1,1553,995,0,0
336,29,0,0,0,0,0,0,0,0,0,-1,1560,995,0,0
343,29,0,0,0,0,0,0,0,0,0,-1,1567,995,0,0
350,29,0,0,0,0,0,0,0,0,0,-1,1574,995,0,0
357,29,0,0,0,0,0,0,0,0,0,-1,1581,995,0,0
364,29,0,0,0,0,0,0,0,0,0,-1,1588,995,0,0
371,29,0,0,0,0,0,0,0,0,0,-1,1595,995,0,0
378,29,0,0,0,0,0,0,0,0,0,-1,1602,995,0,0
385,29,0,0,0,0,0,0,0,0,0,-1,1609,995,0,0
392,29,0,0,0,0,0,0,0,0,0,-1,1616,995,0,0
399,29,0,0,0,0,0,0,0,0,0,-1,1623,995,0,0
406,29,0,0,0,0,0,0,0,0,0,-1,1630,995,0,0
413,29,0,0,0,0,0,0,0,0,0,-1,1637,995,0,0
420,29,0,0,0,0,0,0,0,0,0,-1,1644,995,0,0
427,29,0,0,0,0,0,0,0,0,0,-1,1651,995,0,0
434,29,0,0,0,0,0,0,0,0,0,-1,1658,995,0,0
441,29,0,0,0,0,0,0,0,0,0,-1,1665,995,0,0
448,29,0,0,0,0,0,0,0,0,0,-1,1672,995,0,0
455,29,0,0,0,0,0,0,0,0,0,-1,1679,995,0,0
462,29,0,0,0,0,0,0,0,0,0,-1,1686,995,0,0
469,29,0,0,0,0,0,0,0,0,0,-1,1693,995,0,0
476,29,0,0,0,0,0,0,0,0,0,-1,1700,995,0,0
483,29,0,0,0,0,0,0,0,0,0,-1,1707,995,0,0
490,29,0,0,0,0,0,0,0,0,0,-1,1714,995,0,0
497,29,0,0,0,0,0,0,0,0,0,-1,1721,995,0,0
504,29,0,0,0,0,0,0,0,0,0,-1,1728,995,0,0
511,29,0,0,0,0,0,0,0,0,0,-1,1735,995,0,0
518,29,0,0,0,0,0,0,0,0,0,-1,1742,995,0,0
525,29,0,0,0,0,0,0,0,0,0,-1,1749,995,0,0
532,29,0,0,0,0,0,0,0,0,0,-1,1756,995,0,0
539,29,0,0,0,0,0,0,0,0,0,-1,1763,995,0,0
546,29,0,0,0,0,0,0,0,0,0,-1,1770,995,0,0
553,29,0,0,0,0,0,0,0,0,0,-1,1777,995,0,0
560,29,0,0,0,0,0,0,0,0,0,-1,1784,995,0,0
567,29,0,0,0,0,0,0,0,0,0,-1,1791,995,0,0
574,29,0,0,0,0,0,0,0,0,0,-1,1798,995,0,0
581,29,0,0,0,0,0,0,0,0,0,-1,1805,995,0,0
588,29,0,0,0,0,0,0,0,0,0,-1,1812,995,0,0
595,29,0,0,0,0,0,0,0,0,0,-1,1819,995,0,0
602,29,0,0,0,0,0,0,0,0,0,-1,1826,995,0,0
609,29,0,0,0,0,0,0,0,0,0,-1,1833,995,0,0
616,29,0,0,0,0,0,0,0,0,0,-1,1840,995,0,0
623,29,0,0,0,0,0,0,0,0,0,-1,1847,995,0,0
630,29,0,0,0,0,0,0,0,0,0,-1,1854,995,0,0
637,29,0,0,0,0,0,0,0,0,0,-1,1861,995,0,0
644,29,56.2715,2.63513,0.011837,-0.00509347,-0.0033425,0.012473,-0.00572947,-0.18803,0.0107469,0.0421474,1868,995,56.2715,-2.63514
651,29,56.3047,2.43219,0.00865411,-0.00336734,-0.00294018,0.00933468,-0.00404791,-0.227467,0.00792486,0.0412117,1875,995,56.3047,-2.43222
658,29,56.4387,2.39026,0.00628676,-0.00206379,-0.00223029,0.0068451,-0.00262213,-0.245302,0.00564426,0.0433222,1882,995,56.4388,-2.39028
665,29,56.5892,2.77039,0.00438128,-0.000853311,-0.00133503,0.0047021,-0.00117413,-0.235839,0.00359068,0.0412904,1889,995,56.5892,-2.77038
672,29,56.3286,2.77051,0.00276497,0.000391567,-0.000311978,0.00280529,0.000351244,-0.128539,0.0017648,0.0379656,1896,995,56.3287,-2.77051
679,29,56.2626,2.80835,0.001515,0.00128505,0.000666532,0.0020764,0.00072365,0.699988,0.00121701,0.0376569,1903,995,56.2626,-2.80834
686,29,56.3295,2.72711,0.000650509,0.00170955,0.00141493,0.0026908,-0.000330742,0.964449,0.00191366,0.0371418,1910,995,56.3295,-2.72714
693,29,56.4063,2.55249,4.07267e-05,0.00181128,0.00187797,0.00300217,-0.00115017,1.00565,0.00247556,0.0368874,1917,995,56.4063,-2.55248
700,29,56.3867,2.61603,-0.000647037,0.00190352,0.00209305,0.0030792,-0.00182272,1.05901,0.00286095,0.0333494,1924,995,56.3868,-2.61605
707,29,56.3606,2.63055,-0.00137887,0.00216157,0.00204175,0.00309365,-0.00231095,1.14254,0.00313124,0.0234924,1931,995,56.3606,-2.63057
714,29,56.2871,3.19037,-0.0021731,0.00266366,0.00180949,0.00326568,-0.00277512,1.24961,0.00349149,0.0460395,1938,995,56.2871,-3.19037
721,29,55.8959,5.38196,0,0,0,0,0,0,0,-1,1945,995,55.8959,-5.38193
728,29,56.0071,5.67896,-0.00405301,0.004526,0.00116933,0.00468253,-0.00420954,1.43773,0.00513626,0.0304337,1952,995,56.0071,-5.67894
735,29,55.9873,5.95276,-0.00471129,0.00600188,0.000580077,0.00603319,-0.00474261,1.51686,0.00623627,0.0159464,1959,995,55.9873,-5.95277
742,29,55.9452,6.10785,-0.00547184,0.00774624,-0.000344137,0.00775519,-0.00548079,-1.54478,0.00767931,0.0144717,1966,995,55.9452,-6.10784
749,29,55.9209,6.30725,-0.00623112,0.0106903,-0.00138354,0.0108027,-0.00634349,-1.48975,0.0100103,0.0164864,1973,995,55.9209,-6.30727
756,29,55.8956,6.50049,-0.00656931,0.0148336,-0.0032383,0.0153128,-0.00704854,-1.42387,0.013201,0.0159141,1980,995,55.8957,-6.50049
763,29,55.849,6.62061,-0.00627614,0.0209802,-0.00577038,0.0221515,-0.00744744,-1.37053,0.017778,0.0135309,1987,995,55.849,-6.62058
770,29,55.7632,6.74182,-0.00524631,0.029593,-0.00891072,0.0317398,-0.00739309,-1.33438,0.0240067,0.0173658,1994,995,55.7631,-6.74183
777,29,55.7056,6.97778,-0.00307961,0.0404267,-0.0130443,0.0440379,-0.00669086,-1.30072,0.0318242,0.0290533,2001,995,55.7056,-6.97777
784,29,56.0139,7.12488,0.000514938,0.0529604,-0.0184793,0.0588175,-0.00534215,-1.26386,0.0411082,0.0450035,2008,995,56.0139,-7.12487
791,29,56.4063,7.16425,0.00618877,0.0678545,-0.0259063,0.0772932,-0.00324996,-1.2214,0.0526456,0.0465881,2015,995,56.4061,-7.16423
798,29,55.5276,7.0968,0,0,0,0,0,0,0,-1,2022,995,55.5276,-7.09678
805,29,52.4414,3.14838,0,0,0,0,0,0,0,-1,2029,995,52.4414,-3.14837
812,29,52.4426,2.32715,0,0,0,0,0,0,0,-1,2036,995,52.4427,-2.32716
-700,22,0,0,0,0,0,0,0,0,0,-1,524,1002,0,0
-693,22,-37.263,-1.32507,0,0,0,0,0,0,0,-1,531,1002,-37.263,1.32505
-686,22,-37.9036,-2.87659,0,0,0,0,0,0,0,-1,538,1002,-37.9036,2.87661
-679,22,-39.0222,-2.69202,-0.0264874,0.0908831,0.00119637,0.0908953,-0.0264996,1.5606,0.0710958,0.0473621,545,1002,-39.0222,2.692
-672,22,-39.7863,-1.63733,-0.023732,0.0804142,0.0034927,0.0805312,-0.023849,1.53731,0.0631564,0.0494238,552,1002,-39.7863,1.63735
-665,22,-40.6452,-1.56354,0,0,0,0,0,0,0,-1,559,1002,-40.6452,1.56352
-658,22,-41.0214,-1.16376,0,0,0,0,0,0,0,-1,566,1002,-41.0214,1.16378
-651,22,-41.9367,3.1275,0,0,0,0,0,0,0,-1,573,1002,-41.9367,-3.12748
-644,22,-42.5344,3.4632,-0.012838,0.038043,0.00564079,0.0386609,-0.0134559,1.4617,0.0312406,0.0421039,580,1002,-42.5344,-3.46319
-637,22,-42.9017,3.72333,-0.0103646,0.0291069,0.00459165,0.029634,-0.0108916,1.4565,0.0242172,0.0264467,587,1002,-42.9018,-3.72335
-630,22,-42.8809,3.76654,-0.00797022,0.0206136,0.00374629,0.0210964,-0.00845306,1.44262,0.0175733,0.0143487,594,1002,-42.8808,-3.76652
-623,22,-42.9277,3.71588,-0.00561254,0.0127256,0.00251402,0.013064,-0.00595095,1.43699,0.0112314,0.0120076,601,1002,-42.9277,-3.71587
-616,22,-42.9185,3.57202,-0.00361199,0.00839159,0.000313764,0.00839978,-0.00362019,1.54468,0.00712027,0.0182997,608,1002,-42.9184,-3.57201
-609,22,-42.9721,3.50281,-0.00251248,0.00574422,-0.00151715,0.00601417,-0.00278242,-1.39471,0.00519171,0.0289077,615,1002,-42.9721,-3.50279
-602,22,-43.1187,3.41992,-0.00165369,0.00397302,-0.00279562,0.00512583,-0.00280651,-1.17968,0.00464453,0.0305567,622,1002,-43.1187,-3.41994
-595,22,-43.3157,2.8006,0,0,0,0,0,0,0,-1,629,1002,-43.3157,-2.80058
-588,22,-42.1574,2.54242,0,0,0,0,0,0,0,-1,636,1002,-42.1574,-2.54244
-581,22,-42.2339,1.48999,2.05439e-05,0.00175588,-0.00457108,0.00554091,-0.00376449,-0.879191,0.00540501,0.0484795,643,1002,-42.234,-1.49
-574,22,-42.2886,0.750244,-4.71729e-05,0.00171435,-0.00492813,0.00583981,-0.00417263,-0.873825,0.00580733,0.035793,650,1002,-42.2886,-0.750238
-567,22,-42.2518,0.614685,-0.000308288,0.00201729,-0.00486355,0.00585512,-0.00414612,-0.902737,0.00580225,0.0343892,657,1002,-42.2518,-0.614669
-560,22,-42.3041,0.743347,-0.000791021,0.00260563,-0.00452538,0.00574087,-0.00392626,-0.964911,0.005614,0.0392641,664,1002,-42.3041,-0.743368
-553,22,-42.3598,0.720703,-0.00153431,0.00335643,-0.003971,0.0055746,-0.00375249,-1.06138,0.00541914,0.0427274,671,1002,-42.3598,-0.720729
-546,22,-42.3126,0.624329,-0.00257313,0.00404796,-0.00322215,0.00535715,-0.00388232,-1.18486,0.00535701,0.0432195,678,1002,-42.3126,-0.624312
-539,22,-42.355,0.687927,-0.00387289,0.00458386,-0.00261166,0.00532538,-0.00461442,-1.29415,0.00574364,0.0420964,685,1002,-42.355,-0.687944
-532,22,-42.2501,0.753113,-0.00492737,0.0051767,-0.0031652,0.00608634,-0.00583701,-1.29095,0.00688445,0.0443049,692,1002,-42.2501,-0.753136
-525,22,0,0,0,0,0,0,0,0,0,-1,699,1002,0,0
-518,22,0,0,0,0,0,0,0,0,0,-1,706,1002,0,0
-511,22,0,0,0,0,0,0,0,0,0,-1,713,1002,0,0
-504,22,0,0,0,0,0,0,0,0,0,-1,720,1002,0,0
-497,22,0,0,0,0,0,0,0,0,0,-1,727,1002,0,0
-490,22,0,0,0,0,0,0,0,0,0,-1,734,1002,0,0
-483,22,0,0,0,0,0,0,0,0,0,-1,741,1002,0,0
-476,22,0,0,0,0,0,0,0,0,0,-1,748,1002,0,0
-469,22,0,0,0,0,0,0,0,0,0,-1,755,1002,0,0
-462,22,0,0,0,0,0,0,0,0,0,-1,762,1002,0,0
-455,22,0,0,0,0,0,0,0,0,0,-1,769,1002,0,0
-448,22,0,0,0,0,0,0,0,0,0,-1,776,1002,0,0
-441,22,0,0,0,0,0,0,0,0,0,-1,783,1002,0,0
-434,22,0,0,0,0,0,0,0,0,0,-1,790,1002,0,0
-427,22,0,0,0,0,0,0,0,0,0,-1,797,1002,0,0
-420,22,0,0,0,0,0,0,0,0,0,-1,804,1002,0,0
-413,22,0,0,0,0,0,0,0,0,0,-1,811,1002,0,0
-406,22,0,0,0,0,0,0,0,0,0,-1,818,1002,0,0
-399,22,0,0,0,0,0,0,0,0,0,-1,825,1002,0,0
-392,22,0,0,0,0,0,0,0,0,0,-1,832,1002,0,0
-385,22,0,0,0,0,0,0,0,0,0,-1,839,1002,0,0
-378,22,0,0,0,0,0,0,0,0,0,-1,846,1002,0,0
-371,22,0,0,0,0,0,0,0,0,0,-1,853,1002,0,0
-364,22,0,0,0,0,0,0,0,0,0,-1,860,1002,0,0
-357,22,0,0,0,0,0,0,0,0,0,-1,867,1002,0,0
-350,22,0,0,0,0,0,0,0,0,0,-1,874,1002,0,0
-343,22,0,0,0,0,0,0,0,0,0,-1,881,1002,0,0
-336,22,0,0,0,0,0,0,0,0,0,-1,888,1002,0,0
-329,22,0,0,0,0,0,0,0,0,0,-1,895,1002,0,0
-322,22,0,0,0,0,0,0,0,0,0,-1,902,1002,0,0
-315,22,0,0,0,0,0,0,0,0,0,-1,909,1002,0,0
-308,22,0,0,0,0,0,0,0,0,0,-1,916,1002,0,0
-301,22,0,0,0,0,0,0,0,0,0,-1,923,1002,0,0
-294,22,0,0,0,0,0,0,0,0,0,-1,930,1002,0,0
-287,22,0,0,0,0,0,0,0,0,0,-1,937,1002,0,0
-280,22,0,0,0,0,0,0,0,0,0,-1,944,1002,0,0
-273,22,0,0,0,0,0,0,0,0,0,-1,951,1002,0,0
-266,22,0,0,0,0,0,0,0,0,0,-1,958,1002,0,0
-259,22,0,0,0,0,0,0,0,0,0,-1,965,1002,0,0
-252,22,0,0,0,0,0,0,0,0,0,-1,972,1002,0,0
-245,22,0,0,0,0,0,0,0,0,0,-1,979,1002,0,0
-238,22,0,0,0,0,0,0,0,0,0,-1,986,1002,0,0
-231,22,0,0,0,0,0,0,0,0,0,-1,993,1002,0,0
-224,22,0,0,0,0,0,0,0,0,0,-1,1000,1002,0,0
-217,22,0,0,0,0,0,0,0,0,0,-1,1007,1002,0,0
-210,22,0,0,0,0,0,0,0,0,0,-1,1014,1002,0,0
-203,22,0,0,0,0,0,0,0,0,0,-1,1021,1002,0,0
-196,22,0,0,0,0,0,0,0,0,0,-1,1028,1002,0,0
-189,22,0,0,0,0,0,0,0,0,0,-1,1035,1002,0,0
-182,22,0,0,0,0,0,0,0,0,0,-1,1042,1002,0,0
-175,22,0,0,0,0,0,0,0,0,0,-1,1049,1002,0,0
-168,22,0,0,0,0,0,0,0,0,0,-1,1056,1002,0,0
-161,22,0,0,0,0,0,0,0,0,0,-1,1063,1002,0,0
-154,22,0,0,0,0,0,0,0,0,0,-1,1070,1002,0,0
-147,22,0,0,0,0,0,0,0,0,0,-1,1077,1002,0,0
-140,22,0,0,0,0,0,0,0,0,0,-1,1084,1002,0,0
-133,22,0,0,0,0,0,0,0,0,0,-1,1091,1002,0,0
-126,22,0,0,0,0,0,0,0,0,0,-1,1098,1002,0,0
-119,22,0,0,0,0,0,0,0,0,0,-1,1105,1002,0,0
-112,22,0,0,0,0,0,0,0,0,0,-1,1112,1002,0,0
-105,22,0,0,0,0,0,0,0,0,0,-1,1119,1002,0,0
-98,22,0,0,0,0,0,0,0,0,0,-1,1126,1002,0,0
-91,22,0,0,0,0,0,0,0,0,0,-1,1133,1002,0,0
-84,22,0,0,0,0,0,0,0,0,0,-1,1140,1002,0,0
-77,22,0,0,0,0,0,0,0,0,0,-1,1147,1002,0,0
-70,22,0,0,0,0,0,0,0,0,0,-1,1154,1002,0,0
-63,22,0,0,0,0,0,0,0,0,0,-1,1161,1002,0,0
-56,22,0,0,0,0,0,0,0,0,0,-1,1168,1002,0,0
-49,22,0,0,0,0,0,0,0,0,0,-1,1175,1002,0,0
-42,22,0,0,0,0,0,0,0,0,0,-1,1182,1002,0,0
-35,22,0,0,0,0,0,0,0,0,0,-1,1189,1002,0,0
-28,22,0,0,0,0,0,0,0,0,0,-1,1196,1002,0,0
-21,22,0,0,0,0,0,0,0,0,0,-1,1203,1002,0,0
-14,22,0,0,0,0,0,0,0,0,0,-1,1210,1002,0,0
-7,22,0,0,0,0,0,0,0,0,0,-1,1217,1002,0,0
0,22,0,0,0,0,0,0,0,0,0,-1,1224,1002,0,0
7,22,0,0,0,0,0,0,0,0,0,-1,1231,1002,0,0
14,22,0,0,0,0,0,0,0,0,0,-1,1238,1002,0,0
21,22,0,0,0,0,0,0,0,0,0,-1,1245,1002,0,0
28,22,0,0,0,0,0,0,0,0,0,-1,1252,1002,0,0
35,22,0,0,0,0,0,0,0,0,0,-1,1259,1002,0,0
42,22,0,0,0,0,0,0,0,0,0,-1,1266,1002,0,0
49,22,0,0,0,0,0,0,0,0,0,-1,1273,1002,0,0
56,22,0,0,0,0,0,0,0,0,0,-1,1280,1002,0,0
63,22,0,0,0,0,0,0,0,0,0,-1,1287,1002,0,0
70,22,0,0,0,0,0,0,0,0,0,-1,1294,1002,0,0
77,22,0,0,0,0,0,0,0,0,0,-1,1301,1002,0,0
84,22,0,0,0,0,0,0,0,0,0,-1,1308,1002,0,0
91,22,0,0,0,0,0,0,0,0,0,-1,1315,1002,0,0
98,22,0,0,0,0,0,0,0,0,0,-1,1322,1002,0,0
105,22,0,0,0,0,0,0,0,0,0,-1,1329,1002,0,0
112,22,0,0,0,0,0,0,0,0,0,-1,1336,1002,0,0
119,22,0,0,0,0,0,0,0,0,0,-1,1343,1002,0,0
126,22,0,0,0,0,0,0,0,0,0,-1,1350,1002,0,0
133,22,0,0,0,0,0,0,0,0,0,-1,1357,1002,0,0
140,22,0,0,0,0,0,0,0,0,0,-1,1364,1002,0,0
147,22,0,0,0,0,0,0,0,0,0,-1,1371,1002,0,0
154,22,0,0,0,0,0,0,0,0,0,-1,1378,1002,0,0
161,22,0,0,0,0,0,0,0,0,0,-1,1385,1002,0,0
168,22,0,0,0,0,0,0,0,0,0,-1,1392,1002,0,0
175,22,0,0,0,0,0,0,0,0,0,-1,1399,1002,0,0
182,22,0,0,0,0,0,0,0,0,0,-1,1406,1002,0,0
189,22,0,0,0,0,0,0,0,0,0,-1,1413,1002,0,0
196,22,0,0,0,0,0,0,0,0,0,-1,1420,1002,0,0
203,22,0,0,0,0,0,0,0,0,0,-1,1427,1002,0,0
210,22,0,0,0,0,0,0,0,0,0,-1,1434,1002,0,0
217,22,0,0,0,0,0,0,0,0,0,-1,1441,1002,0,0
224,22,0,0,0,0,0,0,0,0,0,-1,1448,1002,0,0
231,22,0,0,0,0,0,0,0,0,0,-1,1455,1002,0,0
238,22,0,0,0,0,0,0,0,0,0,-1,1462,1002,0,0
245,22,0,0,0,0,0,0,0,0,0,-1,1469,1002,0,0
252,22,0,0,0,0,0,0,0,0,0,-1,1476,1002,0,0
259,22,0,0,0,0,0,0,0,0,0,-1,1483,1002,0,0
266,22,0,0,0,0,0,0,0,0,0,-1,1490,1002,0,0
273,22,0,0,0,0,0,0,0,0,0,-1,1497,1002,0,0
280,22,0,0,0,0,0,0,0,0,0,-1,1504,1002,0,0
287,22,0,0,0,0,0,0,0,0,0,-1,1511,1002,0,0
294,22,0,0,0,0,0,0,0,0,0,-1,1518,1002,0,0
301,22,0,0,0,0,0,0,0,0,0,-1,1525,1002,0,0
308,22,0,0,0,0,0,0,0,0,0,-1,1532,1002,0,0
315,22,0,0,0,0,0,0,0,0,0,-1,1539,1002,0,0
322,22,0,0,0,0,0,0,0,0,0,-1,1546,1002,0,0
329,22,0,0,0,0,0,0,0,0,0,-1,1553,1002,0,0
336,22,0,0,0,0,0,0,0,0,0,-1,1560,1002,0,0
343,22,0,0,0,0,0,0,0,0,0,-1,1567,1002,0,0
350,22,0,0,0,0,0,0,0,0,0,-1,1574,1002,0,0
357,22,0,0,0,0,0,0,0,0,0,-1,1581,1002,0,0
364,22,0,0,0,0,0,0,0,0,0,-1,1588,1002,0,0
371,22,0,0,0,0,0,0,0,0,0,-1,1595,1002,0,0
378,22,0,0,0,0,0,0,0,0,0,-1,1602,1002,0,0
385,22,0,0,0,0,0,0,0,0,0,-1,1609,1002,0,0
392,22,0,0,0,0,0,0,0,0,0,-1,1616,1002,0,0
399,22,0,0,0,0,0,0,0,0,0,-1,1623,1002,0,0
406,22,0,0,0,0,0,0,0,0,0,-1,1630,1002,0,0
413,22,0,0,0,0,0,0,0,0,0,-1,1637,1002,0,0
420,22,0,0,0,0,0,0,0,0,0,-1,1644,1002,0,0
427,22,0,0,0,0,0,0,0,0,0,-1,1651,1002,0,0
434,22,0,0,0,0,0,0,0,0,0,-1,1658,1002,0,0
441,22,0,0,0,0,0,0,0,0,0,-1,1665,1002,0,0
448,22,0,0,0,0,0,0,0,0,0,-1,1672,1002,0,0
455,22,0,0,0,0,0,0,0,0,0,-1,1679,1002,0,0
462,22,0,0,0,0,0,0,0,0,0,-1,1686,1002,0,0
469,22,0,0,0,0,0,0,0,0,0,-1,1693,1002,0,0
476,22,0,0,0,0,0,0,0,0,0,-1,1700,1002,0,0
483,22,0,0,0,0,0,0,0,0,0,-1,1707,1002,0,0
490,22,0,0,0,0,0,0,0,0,0,-1,1714,1002,0,0
497,22,0,0,0,0,0,0,0,0,0,-1,1721,1002,0,0
504,22,0,0,0,0,0,0,0,0,0,-1,1728,1002,0,0
511,22,0,0,0,0,0,0,0,0,0,-1,1735,1002,0,0
518,22,0,0,0,0,0,0,0,0,0,-1,1742,1002,0,0
525,22,0,0,0,0,0,0,0,0,0,-1,1749,1002,0,0
532,22,0,0,0,0,0,0,0,0,0,-1,1756,1002,0,0
539,22,0,0,0,0,0,0,0,0,0,-1,1763,1002,0,0
546,22,0,0,0,0,0,0,0,0,0,-1,1770,1002,0,0
553,22,0,0,0,0,0,0,0,0,0,-1,1777,1002,0,0
560,22,0,0,0,0,0,0,0,0,0,-1,1784,1002,0,0
567,22,0,0,0,0,0,0,0,0,0,-1,1791,1002,0,0
574,22,0,0,0,0,0,0,0,0,0,-1,1798,1002,0,0
581,22,0,0,0,0,0,0,0,0,0,-1,1805,1002,0,0
588,22,0,0,0,0,0,0,0,0,0,-1,1812,1002,0,0
595,22,0,0,0,0,0,0,0,0,0,-1,1819,1002,0,0
602,22,0,0,0,0,0,0,0,0,0,-1,1826,1002,0,0
609,22,0,0,0,0,0,0,0,0,0,-1,1833,1002,0,0
616,22,0,0,0,0,0,0,0,0,0,-1,1840,1002,0,0
623,22,0,0,0,0,0,0,0,0,0,-1,1847,1002,0,0
630,22,0,0,0,0,0,0,0,0,0,-1,1854,1002,0,0
637,22,0,0,0,0,0,0,0,0,0,-1,1861,1002,0,0
644,22,56.1033,2.42175,0.0133834,-0.00570795,-0.00443916,0.0143651,-0.00668967,-0.217647,0.0124223,0.0404211,1868,1002,56.1033,-2.42176
651,22,56.3121,2.3075,0.00966661,-0.0036927,-0.003859,0.0107012,-0.0047273,-0.26194,0.00912751,0.0408838,1875,1002,56.3121,-2.30752
658,22,56.4875,2.71887,0.00693969,-0.0022121,-0.00296736,0.0078176,-0.00309001,-0.287652,0.00649169,0.042728,1882,1002,56.4876,-2.71885
665,22,56.4056,2.80774,0.00482695,-0.000934726,-0.00190892,0.00540201,-0.00150978,-0.292601,0.00419613,0.0402777,1889,1002,56.4057,-2.80775
672,22,56.2944,2.76733,0.00309489,0.00035636,-0.000728493,0.00327662,0.000174629,-0.244472,0.00212859,0.0391265,1896,1002,56.2945,-2.76735
679,22,56.2827,2.78558,0.0017362,0.00132789,0.00041492,0.00199447,0.00106962,0.556771,0.00115252,0.0376733,1903,1002,56.2827,-2.78558
686,22,56.3914,2.69116,0.000727323,0.00179463,0.0013275,0.00269173,-0.000169772,0.976513,0.00185367,0.0367447,1910,1002,56.3914,-2.69117
693,22,56.3809,2.64911,-7.63975e-06,0.00188965,0.00194957,0.00310912,-0.00122711,1.01183,0.00258093,0.0352144,1917,1002,56.3808,-2.64911
700,22,56.3942,2.66803,-0.000738353,0.00193281,0.00227557,0.00323579,-0.00204133,1.05077,0.00307265,0.0327931,1924,1002,56.3942,-2.66804
707,22,56.3159,2.75354,-0.00149379,0.00216157,0.00229099,0.00326459,-0.00259681,1.12209,0.0033914,0.0316089,1931,1002,56.3159,-2.75354
714,22,56.2981,2.84692,-0.00231314,0.00265938,0.00210925,0.00343356,-0.00308732,1.21902,0.0037666,0.0448564,1938,1002,56.298,-2.84695
721,22,56.2915,3.22192,0,0,0,0,0,0,0,-1,1945,1002,56.2915,-3.22195
728,22,55.8862,5.84204,0,0,0,0,0,0,0,-1,1952,1002,55.8862,-5.84207
735,22,56.1345,6.01971,-0.00505955,0.00587078,0.000974646,0.00595701,-0.00514578,1.48256,0.00641589,0.0155622,1959,1002,56.1345,-6.0197
742,22,56.1493,6.14447,-0.00584119,0.00747439,0.000156763,0.00747624,-0.00584303,1.55903,0.00770913,0.0186472,1966,1002,56.1493,-6.14449
749,22,56.101,6.30353,-0.00653101,0.0102153,-0.000863419,0.0102597,-0.0065754,-1.51942,0.00979705,0.0154749,1973,1002,56.101,-6.30355
756,22,56.0897,6.42206,-0.00674422,0.0141041,-0.00275224,0.0144613,-0.00710143,-1.44173,0.0126887,0.0208207,1980,1002,56.0897,-6.42208
763,22,56.0215,6.54297,-0.00630795,0.0197741,-0.00533905,0.0208247,-0.00735854,-1.3765,0.0168794,0.021125,1987,1002,56.0215,-6.54297
770,22,55.8542,6.62079,-0.00505295,0.0277777,-0.00862316,0.0299048,-0.00718006,-1.32895,0.0227114,0.0191491,1994,1002,55.8541,-6.62078
777,22,55.5903,6.62848,-0.00250696,0.038154,-0.013073,0.0419944,-0.0063474,-1.28507,0.0303343,0.0390948,2001,1002,55.5904,-6.62848
784,22,55.3718,6.65698,0,0,0,0,0,0,0,-1,2008,1002,55.3719,-6.65699
791,22,56.3835,6.28864,0,0,0,0,0,0,0,-1,2015,1002,56.3836,-6.28863
798,22,52.8127,5.21808,0,0,0,0,0,0,0,-1,2022,1002,52.8129,-5.21806
805,22,52.9055,4.27399,0,0,0,0,0,0,0,-1,2029,1002,52.9054,-4.27399
812,22,52.6453,2.59845,0,0,0,0,0,0,0,-1,2036,1002,52.6452,-2.59844
-700,15,0,0,0,0,0,0,0,0,0,-1,524,1009,0,0
-693,15,-37.1985,-2.15198,0,0,0,0,0,0,0,-1,531,1009,-37.1985,2.15196
-686,15,-43.5678,1.81671,0,0,0,0,0,0,0,-1,538,1009,-43.5678,-1.81671
-679,15,-38.4412,-4.32367,0,0,0,0,0,0,0,-1,545,1009,-38.4412,4.32367
-672,15,-39.5353,-2.51141,0,0,0,0,0,0,0,-1,552,1009,-39.5353,2.51142
-665,15,-42.6464,2.06732,0,0,0,0,0,0,0,-1,559,1009,-42.6464,-2.06733
-658,15,-42.4041,2.68011,0,0,0,0,0,0,0,-1,566,1009,-42.404,-2.68013
-651,15,-42.1498,2.50879,0,0,0,0,0,0,0,-1,573,1009,-42.1498,-2.50879
-644,15,-42.623,3.27289,-0.0102383,0.0323119,0.00670293,0.0333429,-0.0112692,1.41819,0.0267871,0.0484558,580,1009,-42.623,-3.27291
-637,15,-42.8766,3.6781,-0.00839801,0.0251762,0.00482094,0.0258548,-0.00907653,1.43097,0.0209287,0.0293214,587,1009,-42.8766,-3.6781
-630,15,-42.9266,3.65826,-0.00682768,0.0181575,0.00355073,0.0186523,-0.00732249,1.43233,0.0154648,0.0148112,594,1009,-42.9265,-3.65824
-623,15,-43.0001,3.62286,-0.00515814,0.0114836,0.00218801,0.0117664,-0.00544101,1.44223,0.010156,0.0104229,601,1009,-43,-3.62288
-616,15,-43.0147,3.57886,-0.00339059,0.00754346,7.2432e-05,0.00754394,-0.00339107,1.56417,0.00646331,0.0167317,608,1009,-43.0147,-3.57885
-609,15,-43.0454,3.54956,-0.00241809,0.00531853,-0.00170787,0.00567877,-0.00277833,-1.36291,0.0049775,0.0238955,615,1009,-43.0454,-3.54958
-602,15,-43.1132,3.47595,-0.00162511,0.00381489,-0.00297969,0.00512936,-0.00293958,-1.15533,0.00471544,0.0237819,622,1009,-43.1132,-3.47595
-595,15,-42.8443,2.74603,0,0,0,0,0,0,0,-1,629,1009,-42.8443,-2.74601
-588,15,-42.4511,1.89044,0,0,0,0,0,0,0,-1,636,1009,-42.4511,-1.89044
-581,15,-42.2755,0.81073,5.04365e-05,0.00171852,-0.00463059,0.00558958,-0.00382062,-0.874501,0.00546489,0.0387733,643,1009,-42.2755,-0.810703
-574,15,-42.2698,0.839417,1.05803e-05,0.00170098,-0.00495216,0.00587955,-0.00416799,-0.86992,0.00582894,0.033889,650,1009,-42.2698,-0.839398
-567,15,-42.3738,0.799377,-0.000259001,0.00205956,-0.00489422,0.00592992,-0.00412936,-0.901689,0.00583866,0.0340976,657,1009,-42.3738,-0.79935
-560,15,-42.4628,1.13251,-0.000754564,0.00271368,-0.00457436,0.00587158,-0.00391247,-0.966577,0.00568645,0.0396098,664,1009,-42.4628,-1.13248
-553,15,-42.2132,0.706177,-0.0015397,0.00351348,-0.00404012,0.005752,-0.00377821,-1.06483,0.00554146,0.0429965,671,1009,-42.2132,-0.706186
-546,15,-42.2169,0.547913,-0.00263097,0.00420703,-0.00331394,0.00554952,-0.00397346,-1.1859,0.00552314,0.0418119,678,1009,-42.2168,-0.547899
-539,15,-42.3289,0.431335,-0.00397017,0.00472296,-0.00271908,0.00550339,-0.00475059,-1.29129,0.00592546,0.0416391,685,1009,-42.3289,-0.431309
-532,15,-42.4274,0.805237,-0.00499517,0.0053178,-0.0031369,0.00619699,-0.00587437,-1.29753,0.00697023,0.0426069,692,1009,-42.4273,-0.805236
-525,15,0,0,0,0,0,0,0,0,0,-1,699,1009,0,0
-518,15,0,0,0,0,0,0,0,0,0,-1,706,1009,0,0
-511,15,0,0,0,0,0,0,0,0,0,-1,713,1009,0,0
-504,15,0,0,0,0,0,0,0,0,0,-1,720,1009,0,0
-497,15,0,0,0,0,0,0,0,0,0,-1,727,1009,0,0
-490,15,0,0,0,0,0,0,0,0,0,-1,734,1009,0,0
-483,15,0,0,0,0,0,0,0,0,0,-1,741,1009,0,0
-476,15,0,0,0,0,0,0,0,0,0,-1,748,1009,0,0
-469,15,0,0,0,0,0,0,0,0,0,-1,755,1009,0,0
-462,15,0,0,0,0,0,0,0,0,0,-1,762,1009,0,0
-455,15,0,0,0,0,0,0,0,0,0,-1,769,1009,0,0
-448,15,0,0,0,0,0,0,0,0,0,-1,776,1009,0,0
-441,15,0,0,0,0,0,0,0,0,0,-1,783,1009,0,0
-434,15,0,0,0,0,0,0,0,0,0,-1,790,1009,0,0
-427,15,0,0,0,0,0,0,0,0,0,-1,797,1009,0,0
-420,15,0,0,0,0,0,0,0,0,0,-1,804,1009,0,0
-413,15,0,0,0,0,0,0,0,0,0,-1,811,1009,0,0
-406,15,0,0,0,0,0,0,0,0,0,-1,818,1009,0,0
-399,15,0,0,0,0,0,0,0,0,0,-1,825,1009,0,0
-392,15,0,0,0,0,0,0,0,0,0,-1,832,1009,0,0
-385,15,0,0,0,0,0,0,0,0,0,-1,839,1009,0,0
-378,15,0,0,0,0,0,0,0,0,0,-1,846,1009,0,0
-371,15,0,0,0,0,0,0,0,0,0,-1,853,1009,0,0
-364,15,0,0,0,0,0,0,0,0,0,-1,860,1009,0,0
-357,15,0,0,0,0,0,0,0,0,0,-1,867,1009,0,0
-350,15,0,0,0,0,0,0,0,0,0,-1,874,1009,0,0
-343,15,0,0,0,0,0,0,0,0,0,-1,881,1009,0,0
-336,15,0,0,0,0,0,0,0,0,0,-1,888,1009,0,0
-329,15,0,0,0,0,0,0,0,0,0,-1,895,1009,0,0
-322,15,0,0,0,0,0,0,0,0,0,-1,902,1009,0,0
-315,15,0,0,0,0,0,0,0,0,0,-1,909,1009,0,0
-308,15,0,0,0,0,0,0,0,0,0,-1,916,1009,0,0
-301,15,0,0,0,0,0,0,0,0,0,-1,923,1009,0,0
-294,15,0,0,0,0,0,0,0,0,0,-1,930,1009,0,0
-287,15,0,0,0,0,0,0,0,0,0,-1,937,1009,0,0
-280,15,0,0,0,0,0,0,0,0,0,-1,944,1009,0,0
-273,15,0,0,0,0,0,0,0,0,0,-1,951,1009,0,0
-266,15,0,0,0,0,0,0,0,0,0,-1,958,1009,0,0
-259,15,0,0,0,0,0,0,0,0,0,-1,965,1009,0,0
-252,15,0,0,0,0,0,0,0,0,0,-1,972,1009,0,0
-245,15,0,0,0,0,0,0,0,0,0,-1,979,1009,0,0
-238,15,0,0,0,0,0,0,0,0,0,-1,986,1009,0,0
-231,15,0,0,0,0,0,0,0,0,0,-1,993,1009,0,0
-224,15,0,0,0,0,0,0,0,0,0,-1,1000,1009,0,0
-217,15,0,0,0,0,0,0,0,0,0,-1,1007,1009,0,0
-210,15,0,0,0,0,0,0,0,0,0,-1,1014,1009,0,0
-203,15,0,0,0,0,0,0,0,0,0,-1,1021,1009,0,0
-196,15,0,0,0,0,0,0,0,0,0,-1,1028,1009,0,0
-189,15,0,0,0,0,0,0,0,0,0,-1,1035,1009,0,0
-182,15,0,0,0,0,0,0,0,0,0,-1,1042,1009,0,0
-175,15,0,0,0,0,0,0,0,0,0,-1,1049,1009,0,0
-168,15,0,0,0,0,0,0,0,0,0,-1,1056,1009,0,0
-161,15,0,0,0,0,0,0,0,0,0,-1,1063,1009,0,0
-154,15,0,0,0,0,0,0,0,0,0,-1,1070,1009,0,0
-147,15,0,0,0,0,0,0,0,0,0,-1,1077,1009,0,0
-140,15,0,0,0,0,0,0,0,0,0,-1,1084,1009,0,0
-133,15,0,0,0,0,0,0,0,0,0,-1,1091,1009,0,0
-126,15,0,0,0,0,0,0,0,0,0,-1,1098,1009,0,0
-119,15,0,0,0,0,0,0,0,0,0,-1,1105,1009,0,0
-112,15,0,0,0,0,0,0,0,0,0,-1,1112,1009,0,0
-105,15,0,0,0,0,0,0,0,0,0,-1,1119,1009,0,0
-98,15,0,0,0,0,0,0,0,0,0,-1,1126,1009,0,0
-91,15,0,0,0,0,0,0,0,0,0,-1,1133,1009,0,0
-84,15,0,0,0,0,0,0,0,0,0,-1,1140,1009,0,0
-77,15,0,0,0,0,0,0,0,0,0,-1,1147,1009,0,0
-70,15,0,0,0,0,0,0,0,0,0,-1,1154,1009,0,0
-63,15,0,0,0,0,0,0,0,0,0,-1,1161,1009,0,0
-56,15,0,0,0,0,0,0,0,0,0,-1,1168,1009,0,0
-49,15,0,0,0,0,0,0,0,0,0,-1,1175,1009,0,0
-42,15,0,0,0,0,0,0,0,0,0,-1,1182,1009,0,0
-35,15,0,0,0,0,0,0,0,0,0,-1,1189,1009,0,0
-28,15,0,0,0,0,0,0,0,0,0,-1,1196,1009,0,0
-21,15,0,0,0,0,0,0,0,0,0,-1,1203,1009,0,0
-14,15,0,0,0,0,0,0,0,0,0,-1,1210,1009,0,0
-7,15,0,0,0,0,0,0,0,0,0,-1,1217,1009,0,0
0,15,0,0,0,0,0,0,0,0,0,-1,1224,1009,0,0
7,15,0,0,0,0,0,0,0,0,0,-1,1231,1009,0,0
14,15,0,0,0,0,0,0,0,0,0,-1,1238,1009,0,0
21,15,0,0,0,0,0,0,0,0,0,-1,1245,1009,0,0
28,15,0,0,0,0,0,0,0,0,0,-1,1252,1009,0,0
35,15,0,0,0,0,0,0,0,0,0,-1,1259,1009,0,0
42,15,0,0,0,0,0,0,0,0,0,-1,1266,1009,0,0
49,15,0,0,0,0,0,0,0,0,0,-1,1273,1009,0,0
56,15,0,0,0,0,0,0,0,0,0,-1,1280,1009,0,0
63,15,0,0,0,0,0,0,0,0,0,-1,1287,1009,0,0
70,15,0,0,0,0,0,0,0,0,0,-1,1294,1009,0,0
77,15,0,0,0,0,0,0,0,0,0,-1,1301,1009,0,0
84,15,0,0,0,0,0,0,0,0,0,-1,1308,1009,0,0
91,15,0,0,0,0,0,0,0,0,0,-1,1315,1009,0,0
98,15,0,0,0,0,0,0,0,0,0,-1,1322,1009,0,0
105,15,0,0,0,0,0,0,0,0,0,-1,1329,1009,0,0
112,15,0,0,0,0,0,0,0,0,0,-1,1336,1009,0,0
119,15,0,0,0,0,0,0,0,0,0,-1,1343,1009,0,0
126,15,0,0,0,0,0,0,0,0,0,-1,1350,1009,0,0
133,15,0,0,0,0,0,0,0,0,0,-1,1357,1009,0,0
140,15,0,0,0,0,0,0,0,0,0,-1,1364,1009,0,0
147,15,0,0,0,0,0,0,0,0,0,-1,1371,1009,0,0
154,15,0,0,0,0,0,0,0,0,0,-1,1378,1009,0,0
161,15,0,0,0,0,0,0,0,0,0,-1,1385,1009,0,0
168,15,0,0,0,0,0,0,0,0,0,-1,1392,1009,0,0
175,15,0,0,0,0,0,0,0,0,0,-1,1399,1009,0,0
182,15,0,0,0,0,0,0,0,0,0,-1,1406,1009,0,0
189,15,0,0,0,0,0,0,0,0,0,-1,1413,1009,0,0
196,15,0,0,0,0,0,0,0,0,0,-1,1420,1009,0,0
203,15,0,0,0,0,0,0,0,0,0,-1,1427,1009,0,0
210,15,0,0,0,0,0,0,0,0,0,-1,1434,1009,0,0
217,15,0,0,0,0,0,0,0,0,0,-1,1441,1009,0,0
224,15,0,0,0,0,0,0,0,0,0,-1,1448,1009,0,0
231,15,0,0,0,0,0,0,0,0,0,-1,1455,1009,0,0
238,15,0,0,0,0,0,0,0,0,0,-1,1462,1009,0,0
245,15,0,0,0,0,0,0,0,0,0,-1,1469,1009,0,0
252,15,0,0,0,0,0,0,0,0,0,-1,1476,1009,0,0
259,15,0,0,0,0,0,0,0,0,0,-1,1483,1009,0,0
266,15,0,0,0,0,0,0,0,0,0,-1,1490,1009,0,0
273,15,0,0,0,0,0,0,0,0,0,-1,1497,1009,0,0
280,15,0,0,0,0,0,0,0,0,0,-1,1504,1009,0,0
287,15,0,0,0,0,0,0,0,0,0,-1,1511,1009,0,0
294,15,0,0,0,0,0,0,0,0,0,-1,1518,1009,0,0
301,15,0,0,0,0,0,0,0,0,0,-1,1525,1009,0,0
308,15,0,0,0,0,0,0,0,0,0,-1,1532,1009,0,0
315,15,0,0,0,0,0,0,0,0,0,-1,1539,1009,0,0
322,15,0,0,0,0,0,0,0,0,0,-1,1546,1009,0,0
329,15,0,0,0,0,0,0,0,0,0,-1,1553,1009,0,0
336,15,0,0,0,0,0,0,0,0,0,-1,1560,1009,0,0
343,15,0,0,0,0,0,0,0,0,0,-1,1567,1009,0,0
350,15,0,0,0,0,0,0,0,0,0,-1,1574,1009,0,0
357,15,0,0,0,0,0,0,0,0,0,-1,1581,1009,0,0
364,15,0,0,0,0,0,0,0,0,0,-1,1588,1009,0,0
371,15,0,0,0,0,0,0,0,0,0,-1,1595,1009,0,0
378,15,0,0,0,0,0,0,0,0,0,-1,1602,1009,0,0
385,15,0,0,0,0,0,0,0,0,0,-1,1609,1009,0,0
392,15,0,0,0,0,0,0,0,0,0,-1,1616,1009,0,0
399,15,0,0,0,0,0,0,0,0,0,-1,1623,1009,0,0
406,15,0,0,0,0,0,0,0,0,0,-1,1630,1009,0,0
413,15,0,0,0,0,0,0,0,0,0,-1,1637,1009,0,0
420,15,0,0,0,0,0,0,0,0,0,-1,1644,1009,0,0
427,15,0,0,0,0,0,0,0,0,0,-1,1651,1009,0,0
434,15,0,0,0,0,0,0,0,0,0,-1,1658,1009,0,0
441,15,0,0,0,0,0,0,0,0,0,-1,1665,1009,0,0
448,15,0,0,0,0,0,0,0,0,0,-1,1672,1009,0,0
455,15,0,0,0,0,0,0,0,0,0,-1,1679,1009,0,0
462,15,0,0,0,0,0,0,0,0,0,-1,1686,1009,0,0
469,15,0,0,0,0,0,0,0,0,0,-1,1693,1009,0,0
476,15,0,0,0,0,0,0,0,0,0,-1,1700,1009,0,0
483,15,0,0,0,0,0,0,0,0,0,-1,1707,1009,0,0
490,15,0,0,0,0,0,0,0,0,0,-1,1714,1009,0,0
497,15,0,0,0,0,0,0,0,0,0,-1,1721,1009,0,0
504,15,0,0,0,0,0,0,0,0,0,-1,1728,1009,0,0
511,15,0,0,0,0,0,0,0,0,0,-1,1735,1009,0,0
518,15,0,0,0,0,0,0,0,0,0,-1,1742,1009,0,0
525,15,0,0,0,0,0,0,0,0,0,-1,1749,1009,0,0
532,15,0,0,0,0,0,0,0,0,0,-1,1756,1009,0,0
539,15,0,0,0,0,0,0,0,0,0,-1,1763,1009,0,0
546,15,0,0,0,0,0,0,0,0,0,-1,1770,1009,0,0
553,15,0,0,0,0,0,0,0,0,0,-1,1777,1009,0,0
560,15,0,0,0,0,0,0,0,0,0,-1,1784,1009,0,0
567,15,0,0,0,0,0,0,0,0,0,-1,1791,1009,0,0
574,15,0,0,0,0,0,0,0,0,0,-1,1798,1009,0,0
581,15,0,0,0,0,0,0,0,0,0,-1,1805,1009,0,0
588,15,0,0,0,0,0,0,0,0,0,-1,1812,1009,0,0
595,15,0,0,0,0,0,0,0,0,0,-1,1819,1009,0,0
602,15,0,0,0,0,0,0,0,0,0,-1,1826,1009,0,0
609,15,0,0,0,0,0,0,0,0,0,-1,1833,1009,0,0
616,15,0,0,0,0,0,0,0,0,0,-1,1840,1009,0,0
623,15,0,0,0,0,0,0,0,0,0,-1,1847,1009,0,0
630,15,0,0,0,0,0,0,0,0,0,-1,1854,1009,0,0
637,15,0,0,0,0,0,0,0,0,0,-1,1861,1009,0,0
644,15,56.1154,2.65259,0.0134212,-0.00590837,-0.00601365,0.0151394,-0.00762655,-0.2783,0.0133804,0.0395471,1868,1009,56.1153,-2.6526
651,15,56.4337,2.61377,0.00963192,-0.00353962,-0.00518703,0.0114293,-0.00533703,-0.33357,0.00989078,0.0386621,1875,1009,56.4337,-2.61378
658,15,56.4346,2.5484,0.00687921,-0.00185911,-0.0040263,0.00845148,-0.00343139,-0.372291,0.0070617,0.0391943,1882,1009,56.4346,-2.5484
665,15,56.2421,2.42554,0.00478677,-0.000536846,-0.00273318,0.00594013,-0.0016902,-0.399313,0.00462755,0.0385341,1889,1009,56.242,-2.42551
672,15,56.178,2.47137,0.00310941,0.000735716,-0.00133492,0.0037088,0.000136331,-0.422025,0.00242836,0.0389773,1896,1009,56.178,-2.4714
679,15,56.3748,2.57471,0.00177689,0.00170519,3.60508e-05,0.00179188,0.0016902,0.394094,0.00116218,0.0386226,1903,1009,56.3747,-2.57472
686,15,56.4827,2.46606,0.000722511,0.00214258,0.00115709,0.00279011,7.49751e-05,1.06059,0.00183559,0.0422566,1910,1009,56.4826,-2.46607
693,15,56.3999,2.50739,-6.72604e-05,0.00218087,0.00197468,0.003329,-0.0012154,1.04414,0.00271666,0.0384863,1917,1009,56.3999,-2.50736
700,15,56.4205,2.55609,-0.000795158,0.00213662,0.00243433,0.00351235,-0.00217089,1.05641,0.00331155,0.0297249,1924,1009,56.4205,-2.55607
707,15,56.3563,2.76563,-0.00154292,0.00229803,0.00251773,0.00354413,-0.00278901,1.11121,0.00366509,0.0306797,1931,1009,56.3563,-2.76563
714,15,56.317,2.80072,-0.00236994,0.0027538,0.0023952,0.00369909,-0.00331523,1.1949,0.00405174,0.0360673,1938,1009,56.3171,-2.8007
721,15,56.3187,2.68842,0,0,0,0,0,0,0,-1,1945,1009,56.3187,-2.68842
728,15,56.2917,5.96924,0,0,0,0,0,0,0,-1,1952,1009,56.2918,-5.96925
735,15,56.2145,6.10339,-0.00521243,0.00588371,0.00148241,0.00607834,-0.00540706,1.44025,0.00663487,0.0204345,1959,1009,56.2145,-6.10342
742,15,56.2401,6.28412,-0.0059682,0.00733639,0.000808588,0.00738535,-0.00601716,1.51032,0.00775137,0.0382421,1966,1009,56.2402,-6.2841
749,15,56.243,6.33728,-0.00660083,0.00996444,-0.000145609,0.00996572,-0.00660211,-1.56201,0.00963093,0.0240132,1973,1009,56.243,-6.3373
756,15,56.2334,6.32343,-0.00670287,0.0137041,-0.00195601,0.0138899,-0.00688866,-1.4761,0.0122214,0.0175849,1980,1009,56.2334,-6.32342
763,15,56.1495,6.42511,-0.00612809,0.0190895,-0.00441626,0.0198405,-0.00687913,-1.40235,0.0160202,0.0145339,1987,1009,56.1495,-6.42509
770,15,55.9941,6.45764,-0.00463209,0.0267194,-0.00757135,0.0284521,-0.0063648,-1.34582,0.0214074,0.0189664,1994,1009,55.9941,-6.45764
777,15,55.6626,6.46509,-0.00165355,0.0369366,-0.012021,0.0403749,-0.00509181,-1.29221,0.0287645,0.0422673,2001,1009,55.6625,-6.46507
784,15,55.3813,6.47516,0,0,0,0,0,0,0,-1,2008,1009,55.3813,-6.47516
791,15,53.9351,5.37921,0,0,0,0,0,0,0,-1,2015,1009,53.9352,-5.37919
798,15,53.6814,5.14575,0,0,0,0,0,0,0,-1,2022,1009,53.6814,-5.14577
805,15,52.8821,4.04376,0,0,0,0,0,0,0,-1,2029,1009,52.8821,-4.04377
812,15,52.9155,2.91199,0,0,0,0,0,0,0,-1,2036,1009,52.9156,-2.91201
-700,8,0,0,0,0,0,0,0,0,0,-1,524,1016,0,0
-693,8,-44.752,1.3175,0,0,0,0,0,0,0,-1,531,1016,-44.7521,-1.31753
-686,8,-44.4385,2.01489,-0.00531133,0.0558561,0.0152268,0.0594369,-0.00889219,1.33982,0.042897,0.0428477,538,1016,-44.4385,-2.01488
-679,8,-44.7156,2.13373,-0.00704624,0.0555506,0.0137323,0.0584306,-0.0099263,1.36406,0.0426493,0.0473526,545,1016,-44.7156,-2.13371
-672,8,-42.3891,2.74237,0,0,0,0,0,0,0,-1,552,1016,-42.3891,-2.74239
-665,8,-42.6121,2.66736,-0.00810583,0.0466929,0.0114274,0.0489804,-0.0103933,1.37323,0.0366131,0.0467435,559,1016,-42.6121,-2.66736
-658,8,-42.6492,2.84741,-0.00794268,0.0405554,0.0101939,0.0426109,-0.00999823,1.37182,0.0322607,0.0393796,566,1016,-42.6492,-2.8474
-651,8,-42.3851,3.17694,0,0,0,0,0,0,0,-1,573,1016,-42.3851,-3.17694
-644,8,-42.689,3.23987,0,0,0,0,0,0,0,-1,580,1016,-42.689,-3.23987
-637,8,-42.7486,3.42029,-0.00611512,0.0217803,0.0046798,0.0225444,-0.00687928,1.40894,0.0177722,0.0410901,587,1016,-42.7486,-3.42028
-630,8,-42.9476,3.57312,-0.00546975,0.0160121,0.00301051,0.016426,-0.00588367,1.43416,0.0133513,0.0234519,594,1016,-42.9476,-3.57315
-623,8,-42.9465,3.62238,-0.00460173,0.0104319,0.0015348,0.010587,-0.00475682,1.47009,0.00906942,0.015535,601,1016,-42.9465,-3.62239
-616,8,-42.9788,3.59357,-0.00314213,0.00678,-0.000472923,0.00680249,-0.00316462,-1.52328,0.00588089,0.0163414,608,1016,-42.9788,-3.59359
-609,8,-43.0317,3.51691,-0.00231314,0.00486062,-0.00217625,0.00546919,-0.00292171,-1.29812,0.00491834,0.0194451,615,1016,-43.0317,-3.51689
-602,8,-42.9755,3.53906,-0.00164203,0.00354397,-0.00338372,0.00521397,-0.00331203,-1.11233,0.00496315,0.0234645,622,1016,-42.9755,-3.53904
-595,8,-42.9964,3.47809,0,0,0,0,0,0,0,-1,629,1016,-42.9964,-3.47812
-588,8,-42.2566,0.641479,0,0,0,0,0,0,0,-1,636,1016,-42.2566,-0.641449
-581,8,-42.2659,0.829895,-2.36793e-05,0.00151213,-0.00478622,0.00559165,-0.00410321,-0.86494,0.00561927,0.0322683,643,1016,-42.2659,-0.829867
-574,8,-42.2862,0.871521,-4.89941e-05,0.00151982,-0.00502644,0.00582269,-0.00435186,-0.862802,0.0058947,0.0364032,650,1016,-42.2862,-0.871514
-567,8,-42.237,0.854431,-0.000333792,0.00189902,-0.004933,0.00584037,-0.00427514,-0.89668,0.00586345,0.0395802,657,1016,-42.237,-0.854418
-560,8,-42.3461,0.825684,-0.000855491,0.00258035,-0.00459478,0.00576786,-0.004043,-0.964295,0.00569341,0.0395881,664,1016,-42.3461,-0.82571
-553,8,-42.2966,0.698303,-0.00170334,0.00340154,-0.00405654,0.00564185,-0.00394365,-1.06621,0.00556307,0.0396357,671,1016,-42.2967,-0.698303
-546,8,-42.1675,0.514038,-0.00289566,0.00408771,-0.00335387,0.00543755,-0.00424549,-1.18816,0.00560461,0.0380064,678,1016,-42.1676,-0.514033
-539,8,-42.3127,0.369202,-0.00438706,0.00457912,-0.00286265,0.00541513,-0.00522307,-1.28666,0.0061423,0.041787,685,1016,-42.3127,-0.369182
-532,8,-42.37,0.676575,-0.0056138,0.00517814,-0.00321318,0.00606238,-0.00649804,-1.30225,0.00725322,0.0448309,692,1016,-42.37,-0.676546
-525,8,0,0,0,0,0,0,0,0,0,-1,699,1016,0,0
-518,8,0,0,0,0,0,0,0,0,0,-1,706,1016,0,0
-511,8,0,0,0,0,0,0,0,0,0,-1,713,1016,0,0
-504,8,0,0,0,0,0,0,0,0,0,-1,720,1016,0,0
-497,8,0,0,0,0,0,0,0,0,0,-1,727,1016,0,0
-490,8,0,0,0,0,0,0,0,0,0,-1,734,1016,0,0
-483,8,0,0,0,0,0,0,0,0,0,-1,741,1016,0,0
-476,8,0,0,0,0,0,0,0,0,0,-1,748,1016,0,0
-469,8,0,0,0,0,0,0,0,0,0,-1,755,1016,0,0
-462,8,0,0,0,0,0,0,0,0,0,-1,762,1016,0,0
-455,8,0,0,0,0,0,0,0,0,0,-1,769,1016,0,0
-448,8,0,0,0,0,0,0,0,0,0,-1,776,1016,0,0
-441,8,0,0,0,0,0,0,0,0,0,-1,783,1016,0,0
-434,8,0,0,0,0,0,0,0,0,0,-1,790,1016,0,0
-427,8,0,0,0,0,0,0,0,0,0,-1,797,1016,0,0
-420,8,0,0,0,0,0,0,0,0,0,-1,804,1016,0,0
-413,8,0,0,0,0,0,0,0,0,0,-1,811,1016,0,0
-406,8,0,0,0,0,0,0,0,0,0,-1,818,1016,0,0
-399,8,0,0,0,0,0,0,0,0,0,-1,825,1016,0,0
-392,8,0,0,0,0,0,0,0,0,0,-1,832,1016,0,0
-385,8,0,0,0,0,0,0,0,0,0,-1,839,1016,0,0
-378,8,0,0,0,0,0,0,0,0,0,-1,846,1016,0,0
-371,8,0,0,0,0,0,0,0,0,0,-1,853,1016,0,0
-364,8,0,0,0,0,0,0,0,0,0,-1,860,1016,0,0
-357,8,0,0,0,0,0,0,0,0,0,-1,867,1016,0,0
-350,8,0,0,0,0,0,0,0,0,0,-1,874,1016,0,0
-343,8,0,0,0,0,0,0,0,0,0,-1,881,1016,0,0
-336,8,0,0,0,0,0,0,0,0,0,-1,888,1016,0,0
-329,8,0,0,0,0,0,0,0,0,0,-1,895,1016,0,0
-322,8,0,0,0,0,0,0,0,0,0,-1,902,1016,0,0
-315,8,0,0,0,0,0,0,0,0,0,-1,909,1016,0,0
-308,8,0,0,0,0,0,0,0,0,0,-1,916,1016,0,0
-301,8,0,0,0,0,0,0,0,0,0,-1,923,1016,0,0
-294,8,0,0,0,0,0,0,0,0,0,-1,930,1016,0,0
-287,8,0,0,0,0,0,0,0,0,0,-1,937,1016,0,0
-280,8,0,0,0,0,0,0,0,0,0,-1,944,1016,0,0
-273,8,0,0,0,0,0,0,0,0,0,-1,951,1016,0,0
-266,8,0,0,0,0,0,0,0,0,0,-1,958,1016,0,0
-259,8,0,0,0,0,0,0,0,0,0,-1,965,1016,0,0
-252,8,0,0,0,0,0,0,0,0,0,-1,972,1016,0,0
-245,8,0,0,0,0,0,0,0,0,0,-1,979,1016,0,0
-238,8,0,0,0,0,0,0,0,0,0,-1,986,1016,0,0
-231,8,0,0,0,0,0,0,0,0,0,-1,993,1016,0,0
-224,8,0,0,0,0,0,0,0,0,0,-1,1000,1016,0,0
-217,8,0,0,0,0,0,0,0,0,0,-1,1007,1016,0,0
-210,8,0,0,0,0,0,0,0,0,0,-1,1014,1016,0,0
-203,8,0,0,0,0,0,0,0,0,0,-1,1021,1016,0,0
-196,8,0,0,0,0,0,0,0,0,0,-1,1028,1016,0,0
-189,8,0,0,0,0,0,0,0,0,0,-1,1035,1016,0,0
-182,8,0,0,0,0,0,0,0,0,0,-1,1042,1016,0,0
-175,8,0,0,0,0,0,0,0,0,0,-1,1049,1016,0,0
-168,8,0,0,0,0,0,0,0,0,0,-1,1056,1016,0,0
-161,8,0,0,0,0,0,0,0,0,0,-1,1063,1016,0,0
-154,8,0,0,0,0,0,0,0,0,0,-1,1070,1016,0,0
-147,8,0,0,0,0,0,0,0,0,0,-1,1077,1016,0,0
-140,8,0,0,0,0,0,0,0,0,0,-1,1084,1016,0,0
-133,8,0,0,0,0,0,0,0,0,0,-1,1091,1016,0,0
-126,8,0,0,0,0,0,0,0,0,0,-1,1098,1016,0,0
-119,8,0,0,0,0,0,0,0,0,0,-1,1105,1016,0,0
-112,8,0,0,0,0,0,0,0,0,0,-1,1112,1016,0,0
-105,8,0,0,0,0,0,0,0,0,0,-1,1119,1016,0,0
-98,8,0,0,0,0,0,0,0,0,0,-1,1126,1016,0,0
-91,8,0,0,0,0,0,0,0,0,0,-1,1133,1016,0,0
-84,8,0,0,0,0,0,0,0,0,0,-1,1140,1016,0,0
-77,8,0,0,0,0,0,0,0,0,0,-1,1147,1016,0,0
-70,8,0,0,0,0,0,0,0,0,0,-1,1154,1016,0,0
-63,8,0,0,0,0,0,0,0,0,0,-1,1161,1016,0,0
-56,8,0,0,0,0,0,0,0,0,0,-1,1168,1016,0,0
-49,8,0,0,0,0,0,0,0,0,0,-1,1175,1016,0,0
-42,8,0,0,0,0,0,0,0,0,0,-1,1182,1016,0,0
-35,8,0,0,0,0,0,0,0,0,0,-1,1189,1016,0,0
-28,8,0,0,0,0,0,0,0,0,0,-1,1196,1016,0,0
-21,8,0,0,0,0,0,0,0,0,0,-1,1203,1016,0,0
-14,8,0,0,0,0,0,0,0,0,0,-1,1210,1016,0,0
-7,8,0,0,0,0,0,0,0,0,0,-1,1217,1016,0,0
0,8,0,0,0,0,0,0,0,0,0,-1,1224,1016,0,0
7,8,0,0,0,0,0,0,0,0,0,-1,1231,1016,0,0
14,8,0,0,0,0,0,0,0,0,0,-1,1238,1016,0,0
21,8,0,0,0,0,0,0,0,0,0,-1,1245,1016,0,0
28,8,0,0,0,0,0,0,0,0,0,-1,1252,1016,0,0
35,8,0,0,0,0,0,0,0,0,0,-1,1259,1016,0,0
42,8,0,0,0,0,0,0,0,0,0,-1,1266,1016,0,0
49,8,0,0,0,0,0,0,0,0,0,-1,1273,1016,0,0
56,8,0,0,0,0,0,0,0,0,0,-1,1280,1016,0,0
63,8,0,0,0,0,0,0,0,0,0,-1,1287,1016,0,0
70,8,0,0,0,0,0,0,0,0,0,-1,1294,1016,0,0
77,8,0,0,0,0,0,0,0,0,0,-1,1301,1016,0,0
84,8,0,0,0,0,0,0,0,0,0,-1,1308,1016,0,0
91,8,0,0,0,0,0,0,0,0,0,-1,1315,1016,0,0
98,8,0,0,0,0,0,0,0,0,0,-1,1322,1016,0,0
105,8,0,0,0,0,0,0,0,0,0,-1,1329,1016,0,0
112,8,0,0,0,0,0,0,0,0,0,-1,1336,1016,0,0
119,8,0,0,0,0,0,0,0,0,0,-1,1343,1016,0,0
126,8,0,0,0,0,0,0,0,0,0,-1,1350,1016,0,0
133,8,0,0,0,0,0,0,0,0,0,-1,1357,1016,0,0
140,8,0,0,0,0,0,0,0,0,0,-1,1364,1016,0,0
147,8,0,0,0,0,0,0,0,0,0,-1,1371,1016,0,0
154,8,0,0,0,0,0,0,0,0,0,-1,1378,1016,0,0
161,8,0,0,0,0,0,0,0,0,0,-1,1385,1016,0,0
168,8,0,0,0,0,0,0,0,0,0,-1,1392,1016,0,0
175,8,0,0,0,0,0,0,0,0,0,-1,1399,1016,0,0
182,8,0,0,0,0,0,0,0,0,0,-1,1406,1016,0,0
189,8,0,0,0,0,0,0,0,0,0,-1,1413,1016,0,0
196,8,0,0,0,0,0,0,0,0,0,-1,1420,1016,0,0
203,8,0,0,0,0,0,0,0,0,0,-1,1427,1016,0,0
210,8,0,0,0,0,0,0,0,0,0,-1,1434,1016,0,0
217,8,0,0,0,0,0,0,0,0,0,-1,1441,1016,0,0
224,8,0,0,0,0,0,0,0,0,0,-1,1448,1016,0,0
231,8,0,0,0,0,0,0,0,0,0,-1,1455,1016,0,0
238,8,0,0,0,0,0,0,0,0,0,-1,1462,1016,0,0
245,8,0,0,0,0,0,0,0,0,0,-1,1469,1016,0,0
252,8,0,0,0,0,0,0,0,0,0,-1,1476,1016,0,0
259,8,0,0,0,0,0,0,0,0,0,-1,1483,1016,0,0
266,8,0,0,0,0,0,0,0,0,0,-1,1490,1016,0,0
273,8,0,0,0,0,0,0,0,0,0,-1,1497,1016,0,0
280,8,0,0,0,0,0,0,0,0,0,-1,1504,1016,0,0
287,8,0,0,0,0,0,0,0,0,0,-1,1511,1016,0,0
294,8,0,0,0,0,0,0,0,0,0,-1,1518,1016,0,0
301,8,0,0,0,0,0,0,0,0,0,-1,1525,1016,0,0
308,8,0,0,0,0,0,0,0,0,0,-1,1532,1016,0,0
315,8,0,0,0,0,0,0,0,0,0,-1,1539,1016,0,0
322,8,0,0,0,0,0,0,0,0,0,-1,1546,1016,0,0
329,8,0,0,0,0,0,0,0,0,0,-1,1553,1016,0,0
336,8,0,0,0,0,0,0,0,0,0,-1,1560,1016,0,0
343,8,0,0,0,0,0,0,0,0,0,-1,1567,1016,0,0
350,8,0,0,0,0,0,0,0,0,0,-1,1574,1016,0,0
357,8,0,0,0,0,0,0,0,0,0,-1,1581,1016,0,0
364,8,0,0,0,0,0,0,0,0,0,-1,1588,1016,0,0
371,8,0,0,0,0,0,0,0,0,0,-1,1595,1016,0,0
378,8,0,0,0,0,0,0,0,0,0,-1,1602,1016,0,0
385,8,0,0,0,0,0,0,0,0,0,-1,1609,1016,0,0
392,8,0,0,0,0,0,0,0,0,0,-1,1616,1016,0,0
399,8,0,0,0,0,0,0,0,0,0,-1,1623,1016,0,0
406,8,0,0,0,0,0,0,0,0,0,-1,1630,1016,0,0
413,8,0,0,0,0,0,0,0,0,0,-1,1637,1016,0,0
420,8,0,0,0,0,0,0,0,0,0,-1,1644,1016,0,0
427,8,0,0,0,0,0,0,0,0,0,-1,1651,1016,0,0
434,8,0,0,0,0,0,0,0,0,0,-1,1658,1016,0,0
441,8,0,0,0,0,0,0,0,0,0,-1,1665,1016,0,0
448,8,0,0,0,0,0,0,0,0,0,-1,1672,1016,0,0
455,8,0,0,0,0,0,0,0,0,0,-1,1679,1016,0,0
462,8,0,0,0,0,0,0,0,0,0,-1,1686,1016,0,0
469,8,0,0,0,0,0,0,0,0,0,-1,1693,1016,0,0
476,8,0,0,0,0,0,0,0,0,0,-1,1700,1016,0,0
483,8,0,0,0,0,0,0,0,0,0,-1,1707,1016,0,0
490,8,0,0,0,0,0,0,0,0,0,-1,1714,1016,0,0
497,8,0,0,0,0,0,0,0,0,0,-1,1721,1016,0,0
504,8,0,0,0,0,0,0,0,0,0,-1,1728,1016,0,0
511,8,0,0,0,0,0,0,0,0,0,-1,1735,1016,0,0
518,8,0,0,0,0,0,0,0,0,0,-1,1742,1016,0,0
525,8,0,0,0,0,0,0,0,0,0,-1,1749,1016,0,0
532,8,0,0,0,0,0,0,0,0,0,-1,1756,1016,0,0
539,8,0,0,0,0,0,0,0,0,0,-1,1763,1016,0,0
546,8,0,0,0,0,0,0,0,0,0,-1,1770,1016,0,0
553,8,0,0,0,0,0,0,0,0,0,-1,1777,1016,0,0
560,8,0,0,0,0,0,0,0,0,0,-1,1784,1016,0,0
567,8,0,0,0,0,0,0,0,0,0,-1,1791,1016,0,0
574,8,0,0,0,0,0,0,0,0,0,-1,1798,1016,0,0
581,8,0,0,0,0,0,0,0,0,0,-1,1805,1016,0,0
588,8,0,0,0,0,0,0,0,0,0,-1,1812,1016,0,0
595,8,0,0,0,0,0,0,0,0,0,-1,1819,1016,0,0
602,8,0,0,0,0,0,0,0,0,0,-1,1826,1016,0,0
609,8,0,0,0,0,0,0,0,0,0,-1,1833,1016,0,0
616,8,0,0,0,0,0,0,0,0,0,-1,1840,1016,0,0
623,8,0,0,0,0,0,0,0,0,0,-1,1847,1016,0,0
630,8,0,0,0,0,0,0,0,0,0,-1,1854,1016,0,0
637,8,0,0,0,0,0,0,0,0,0,-1,1861,1016,0,0
644,8,56.0802,2.90503,0.0122497,-0.0049702,-0.0072073,0.0148681,-0.00758863,-0.348476,0.0131905,0.0429476,1868,1016,56.0802,-2.90504
651,8,56.4341,2.93158,0.00878243,-0.00272369,-0.00627478,0.0115423,-0.0054836,-0.414374,0.0100352,0.0417099,1875,1016,56.4341,-2.93156
658,8,56.3809,2.70941,0.00624953,-0.0011723,-0.00491968,0.00870094,-0.0036237,-0.462275,0.00731413,0.0397498,1882,1016,56.3808,-2.70943
665,8,56.2205,2.40472,0.00433201,-2.5222e-05,-0.00344313,0.00622789,-0.0019211,-0.503324,0.00491897,0.0397113,1889,1016,56.2205,-2.40471
672,8,56.2341,2.26288,0.00280039,0.00106143,-0.00188102,0.00400317,-0.000141347,-0.568906,0.00271712,0.0405846,1896,1016,56.2342,-2.26285
679,8,56.3734,2.30273,0.00155433,0.0019047,-0.000327751,0.00210115,0.00135788,-1.03083,0.00123028,0.0384164,1903,1016,56.3734,-2.30272
686,8,56.4188,2.22607,0.000490485,0.00224109,0.000965982,0.00266935,6.22243e-05,1.15349,0.00175919,0.040329,1910,1016,56.4188,-2.22605
693,8,56.411,2.30524,-0.000330263,0.00220178,0.00194672,0.00325794,-0.00138642,1.0737,0.00275303,0.0379721,1917,1016,56.4111,-2.30526
700,8,56.4313,2.4726,-0.0010399,0.0020888,0.0025296,0.00349869,-0.00244979,1.06232,0.0034521,0.0284573,1924,1016,56.4313,-2.4726
707,8,56.3658,2.63861,-0.00177083,0.00219557,0.00267837,0.00354504,-0.00312031,1.10408,0.00385085,0.0256523,1931,1016,56.3659,-2.6386
714,8,56.3373,2.63184,-0.00260039,0.00261804,0.00261641,0.0037039,-0.00368625,1.17741,0.00426671,0.0329952,1938,1016,56.3373,-2.63183
721,8,56.4131,2.54071,0,0,0,0,0,0,0,-1,1945,1016,56.413,-2.54072
728,8,52.1681,5.36774,0,0,0,0,0,0,0,-1,1952,1016,52.168,-5.36773
735,8,56.2802,6.19995,0,0,0,0,0,0,0,-1,1959,1016,56.2802,-6.19996
742,8,56.2137,6.40179,0,0,0,0,0,0,0,-1,1966,1016,56.2137,-6.40179
749,8,56.448,6.30792,0,0,0,0,0,0,0,-1,1973,1016,56.4479,-6.30793
756,8,56.2931,6.22113,-0.00665788,0.0133974,-0.00113127,0.013461,-0.00672149,-1.51463,0.011867,0.0328453,1980,1016,56.2931,-6.22115
763,8,56.2455,6.29523,-0.00595822,0.0185769,-0.0033769,0.0190332,-0.00641452,-1.43649,0.0152825,0.0162617,1987,1016,56.2455,-6.2952
770,8,56.1255,6.27057,-0.00426993,0.0258634,-0.00624746,0.0271073,-0.00551385,-1.37426,0.0201624,0.0200625,1994,1016,56.1256,-6.27057
777,8,55.7861,6.28754,-0.000960342,0.0359034,-0.0104751,0.0386721,-0.003729,-1.3124,0.02711,0.0351827,2001,1016,55.7863,-6.28752
784,8,55.459,6.27643,0,0,0,0,0,0,0,-1,2008,1016,55.4589,-6.27644
791,8,55.1016,6.37103,0,0,0,0,0,0,0,-1,2015,1016,55.1016,-6.37103
798,8,53.6392,6.4906,0,0,0,0,0,0,0,-1,2022,1016,53.6392,-6.4906
805,8,54.6575,7.21863,0,0,0,0,0,0,0,-1,2029,1016,54.6575,-7.21866
812,8,54.9795,6.22845,0,0,0,0,0,0,0,-1,2036,1016,54.9796,-6.22845
-700,1,0,0,0,0,0,0,0,0,0,-1,524,1023,0,0
-693,1,-46.0784,1.86292,0.0137652,0.0290588,0.0271821,0.0496492,-0.00682522,0.922514,0.0355934,0.042226,531,1023,-46.0784,-1.86293
-686,1,-45.4945,2.36792,0.00875983,0.0377415,0.0225418,0.0500483,-0.00354703,1.07106,0.0346086,0.0437,538,1023,-45.4945,-2.36793
-679,1,-44.9922,2.44696,0.00441607,0.0399212,0.0192877,0.0483826,-0.00404528,1.15739,0.0336846,0.0456388,545,1023,-44.9923,-2.44695
-672,1,-43.2354,2.51801,0,0,0,0,0,0,0,-1,552,1023,-43.2354,-2.51803
-665,1,-43.0628,2.77179,-0.000800435,0.0360287,0.0143582,0.0409648,-0.00573653,1.23967,0.0294091,0.0480286,559,1023,-43.0628,-2.77178
-658,1,-42.9324,3.01611,-0.00227202,0.032123,0.0121517,0.035983,-0.00613198,1.26323,0.0262723,0.0387079,566,1023,-42.9324,-3.0161
-651,1,-42.6822,3.23273,-0.00324076,0.0276025,0.00993828,0.0305274,-0.00616569,1.28457,0.0226878,0.0280389,573,1023,-42.6822,-3.2327
-644,1,-42.4136,3.46533,0,0,0,0,0,0,0,-1,580,1023,-42.4136,-3.46532
-637,1,-42.7281,3.37433,-0.00405883,0.0186311,0.00466415,0.0195525,-0.00498018,1.37577,0.0149737,0.0377148,587,1023,-42.7281,-3.37434
-630,1,-42.9935,3.40674,-0.00423,0.014035,0.00264854,0.0144113,-0.0046063,1.42966,0.011456,0.0328011,594,1023,-42.9935,-3.40673
-623,1,-42.8857,3.60614,-0.00403685,0.00946013,0.00109619,0.00954858,-0.0041253,1.49028,0.00809895,0.0152377,601,1023,-42.8857,-3.60612
-616,1,-43.002,3.54297,-0.00284766,0.00602648,-0.00074277,0.00608822,-0.0029094,-1.48786,0.00530174,0.0192302,608,1023,-43.002,-3.543
-609,1,-43.0067,3.59314,-0.00211617,0.00431261,-0.00230548,0.00505392,-0.00285748,-1.2597,0.00462595,0.0215309,615,1023,-43.0066,-3.59313
-602,1,-42.8412,3.68042,-0.00155496,0.00307709,-0.00341671,0.00488876,-0.00336663,-1.08325,0.00479318,0.0156455,622,1023,-42.8412,-3.68044
-595,1,-42.6999,3.69324,0,0,0,0,0,0,0,-1,629,1023,-42.6999,-3.69323
-588,1,-42.5145,3.7157,0,0,0,0,0,0,0,-1,636,1023,-42.5145,-3.7157
-581,1,-42.2866,0.836853,-4.97498e-05,0.00105477,-0.00451446,0.00505062,-0.0040456,-0.846262,0.00526238,0.0294634,643,1023,-42.2866,-0.836851
-574,1,-42.2756,0.948059,-4.57187e-05,0.00106826,-0.00468089,0.00522518,-0.00420264,-0.844616,0.00545382,0.0358771,650,1023,-42.2756,-0.948083
-567,1,-42.1456,0.949097,-0.000322521,0.00146535,-0.00457271,0.00523068,-0.00408786,-0.881927,0.00539353,0.0437526,657,1023,-42.1456,-0.949121
-560,1,-42.1459,0.769775,-0.000836261,0.00215902,-0.00426424,0.00518097,-0.00385821,-0.954274,0.00523737,0.0431449,664,1023,-42.1459,-0.76979
-553,1,-42.2215,0.604248,-0.001674,0.00296324,-0.00380498,0.00510039,-0.00381115,-1.05904,0.00516299,0.0392494,671,1023,-42.2215,-0.604224
-546,1,-42.3414,0.38092,-0.0028388,0.00355587,-0.00325466,0.00492096,-0.00420389,-1.17365,0.00527366,0.0398306,678,1023,-42.3414,-0.380899
-539,1,-42.374,0.34021,-0.00430696,0.00384955,-0.00300257,0.00483564,-0.00529305,-1.25348,0.00584979,0.0425291,685,1023,-42.374,-0.34024
-532,1,-42.3686,0.482727,-0.0055152,0.00418644,-0.00339957,0.00525909,-0.00658785,-1.26516,0.00685416,0.0453542,692,1023,-42.3686,-0.482724
-525,1,0,0,0,0,0,0,0,0,0,-1,699,1023,0,0
-518,1,0,0,0,0,0,0,0,0,0,-1,706,1023,0,0
-511,1,0,0,0,0,0,0,0,0,0,-1,713,1023,0,0
-504,1,0,0,0,0,0,0,0,0,0,-1,720,1023,0,0
-497,1,0,0,0,0,0,0,0,0,0,-1,727,1023,0,0
-490,1,0,0,0,0,0,0,0,0,0,-1,734,1023,0,0
-483,1,0,0,0,0,0,0,0,0,0,-1,741,1023,0,0
-476,1,0,0,0,0,0,0,0,0,0,-1,748,1023,0,0
-469,1,0,0,0,0,0,0,0,0,0,-1,755,1023,0,0
-462,1,0,0,0,0,0,0,0,0,0,-1,762,1023,0,0
-455,1,0,0,0,0,0,0,0,0,0,-1,769,1023,0,0
-448,1,0,0,0,0,0,0,0,0,0,-1,776,1023,0,0
-441,1,0,0,0,0,0,0,0,0,0,-1,783,1023,0,0
-434,1,0,0,0,0,0,0,0,0,0,-1,790,1023,0,0
-427,1,0,0,0,0,0,0,0,0,0,-1,797,1023,0,0
-420,1,0,0,0,0,0,0,0,0,0,-1,804,1023,0,0
-413,1,0,0,0,0,0,0,0,0,0,-1,811,1023,0,0
-406,1,0,0,0,0,0,0,0,0,0,-1,818,1023,0,0
-399,1,0,0,0,0,0,0,0,0,0,-1,825,1023,0,0
-392,1,0,0,0,0,0,0,0,0,0,-1,832,1023,0,0
-385,1,0,0,0,0,0,0,0,0,0,-1,839,1023,0,0
-378,1,0,0,0,0,0,0,0,0,0,-1,846,1023,0,0
-371,1,0,0,0,0,0,0,0,0,0,-1,853,1023,0,0
-364,1,0,0,0,0,0,0,0,0,0,-1,860,1023,0,0
-357,1,0,0,0,0,0,0,0,0,0,-1,867,1023,0,0
-350,1,0,0,0,0,0,0,0,0,0,-1,874,1023,0,0
-343,1,0,0,0,0,0,0,0,0,0,-1,881,1023,0,0
-336,1,0,0,0,0,0,0,0,0,0,-1,888,1023,0,0
-329,1,0,0,0,0,0,0,0,0,0,-1,895,1023,0,0
-322,1,0,0,0,0,0,0,0,0,0,-1,902,1023,0,0
-315,1,0,0,0,0,0,0,0,0,0,-1,909,1023,0,0
-308,1,0,0,0,0,0,0,0,0,0,-1,916,1023,0,0
-301,1,0,0,0,0,0,0,0,0,0,-1,923,1023,0,0
-294,1,0,0,0,0,0,0,0,0,0,-1,930,1023,0,0
-287,1,0,0,0,0,0,0,0,0,0,-1,937,1023,0,0
-280,1,0,0,0,0,0,0,0,0,0,-1,944,1023,0,0
-273,1,0,0,0,0,0,0,0,0,0,-1,951,1023,0,0
-266,1,0,0,0,0,0,0,0,0,0,-1,958,1023,0,0
-259,1,0,0,0,0,0,0,0,0,0,-1,965,1023,0,0
-252,1,0,0,0,0,0,0,0,0,0,-1,972,1023,0,0
-245,1,0,0,0,0,0,0,0,0,0,-1,979,1023,0,0
-238,1,0,0,0,0,0,0,0,0,0,-1,986,1023,0,0
-231,1,0,0,0,0,0,0,0,0,0,-1,993,1023,0,0
-224,1,0,0,0,0,0,0,0,0,0,-1,1000,1023,0,0
-217,1,0,0,0,0,0,0,0,0,0,-1,1007,1023,0,0
-210,1,0,0,0,0,0,0,0,0,0,-1,1014,1023,0,0
-203,1,0,0,0,0,0,0,0,0,0,-1,1021,1023,0,0
-196,1,0,0,0,0,0,0,0,0,0,-1,1028,1023,0,0
-189,1,0,0,0,0,0,0,0,0,0,-1,1035,1023,0,0
-182,1,0,0,0,0,0,0,0,0,0,-1,1042,1023,0,0
-175,1,0,0,0,0,0,0,0,0,0,-1,1049,1023,0,0
-168,1,0,0,0,0,0,0,0,0,0,-1,1056,1023,0,0
-161,1,0,0,0,0,0,0,0,0,0,-1,1063,1023,0,0
-154,1,0,0,0,0,0,0,0,0,0,-1,1070,1023,0,0
-147,1,0,0,0,0,0,0,0,0,0,-1,1077,1023,0,0
-140,1,0,0,0,0,0,0,0,0,0,-1,1084,1023,0,0
-133,1,0,0,0,0,0,0,0,0,0,-1,1091,1023,0,0
-126,1,0,0,0,0,0,0,0,0,0,-1,1098,1023,0,0
-119,1,0,0,0,0,0,0,0,0,0,-1,1105,1023,0,0
-112,1,0,0,0,0,0,0,0,0,0,-1,1112,1023,0,0
-105,1,0,0,0,0,0,0,0,0,0,-1,1119,1023,0,0
-98,1,0,0,0,0,0,0,0,0,0,-1,1126,1023,0,0
-91,1,0,0,0,0,0,0,0,0,0,-1,1133,1023,0,0
-84,1,0,0,0,0,0,0,0,0,0,-1,1140,1023,0,0
-77,1,0,0,0,0,0,0,0,0,0,-1,1147,1023,0,0
-70,1,0,0,0,0,0,0,0,0,0,-1,1154,1023,0,0
-63,1,0,0,0,0,0,0,0,0,0,-1,1161,1023,0,0
-56,1,0,0,0,0,0,0,0,0,0,-1,1168,1023,0,0
-49,1,0,0,0,0,0,0,0,0,0,-1,1175,1023,0,0
-42,1,0,0,0,0,0,0,0,0,0,-1,1182,1023,0,0
-35,1,0,0,0,0,0,0,0,0,0,-1,1189,1023,0,0
-28,1,0,0,0,0,0,0,0,0,0,-1,1196,1023,0,0
-21,1,0,0,0,0,0,0,0,0,0,-1,1203,1023,0,0
-14,1,0,0,0,0,0,0,0,0,0,-1,1210,1023,0,0
-7,1,0,0,0,0,0,0,0,0,0,-1,1217,1023,0,0
0,1,0,0,0,0,0,0,0,0,0,-1,1224,1023,0,0
7,1,0,0,0,0,0,0,0,0,0,-1,1231,1023,0,0
14,1,0,0,0,0,0,0,0,0,0,-1,1238,1023,0,0
21,1,0,0,0,0,0,0,0,0,0,-1,1245,1023,0,0
28,1,0,0,0,0,0,0,0,0,0,-1,1252,1023,0,0
35,1,0,0,0,0,0,0,0,0,0,-1,1259,1023,0,0
42,1,0,0,0,0,0,0,0,0,0,-1,1266,1023,0,0
49,1,0,0,0,0,0,0,0,0,0,-1,1273,1023,0,0
56,1,0,0,0,0,0,0,0,0,0,-1,1280,1023,0,0
63,1,0,0,0,0,0,0,0,0,0,-1,1287,1023,0,0
70,1,0,0,0,0,0,0,0,0,0,-1,1294,1023,0,0
77,1,0,0,0,0,0,0,0,0,0,-1,1301,1023,0,0
84,1,0,0,0,0,0,0,0,0,0,-1,1308,1023,0,0
91,1,0,0,0,0,0,0,0,0,0,-1,1315,1023,0,0
98,1,0,0,0,0,0,0,0,0,0,-1,1322,1023,0,0
105,1,0,0,0,0,0,0,0,0,0,-1,1329,1023,0,0
112,1,0,0,0,0,0,0,0,0,0,-1,1336,1023,0,0
119,1,0,0,0,0,0,0,0,0,0,-1,1343,1023,0,0
126,1,0,0,0,0,0,0,0,0,0,-1,1350,1023,0,0
133,1,0,0,0,0,0,0,0,0,0,-1,1357,1023,0,0
140,1,0,0,0,0,0,0,0,0,0,-1,1364,1023,0,0
147,1,0,0,0,0,0,0,0,0,0,-1,1371,1023,0,0
154,1,0,0,0,0,0,0,0,0,0,-1,1378,1023,0,0
161,1,0,0,0,0,0,0,0,0,0,-1,1385,1023,0,0
168,1,0,0,0,0,0,0,0,0,0,-1,1392,1023,0,0
175,1,0,0,0,0,0,0,0,0,0,-1,1399,1023,0,0
182,1,0,0,0,0,0,0,0,0,0,-1,1406,1023,0,0
189,1,0,0,0,0,0,0,0,0,0,-1,1413,1023,0,0
196,1,0,0,0,0,0,0,0,0,0,-1,1420,1023,0,0
203,1,0,0,0,0,0,0,0,0,0,-1,1427,1023,0,0
210,1,0,0,0,0,0,0,0,0,0,-1,1434,1023,0,0
217,1,0,0,0,0,0,0,0,0,0,-1,1441,1023,0,0
224,1,0,0,0,0,0,0,0,0,0,-1,1448,1023,0,0
231,1,0,0,0,0,0,0,0,0,0,-1,1455,1023,0,0
238,1,0,0,0,0,0,0,0,0,0,-1,1462,1023,0,0
245,1,0,0,0,0,0,0,0,0,0,-1,1469,1023,0,0
252,1,0,0,0,0,0,0,0,0,0,-1,1476,1023,0,0
259,1,0,0,0,0,0,0,0,0,0,-1,1483,1023,0,0
266,1,0,0,0,0,0,0,0,0,0,-1,1490,1023,0,0
273,1,0,0,0,0,0,0,0,0,0,-1,1497,1023,0,0
280,1,0,0,0,0,0,0,0,0,0,-1,1504,1023,0,0
287,1,0,0,0,0,0,0,0,0,0,-1,1511,1023,0,0
294,1,0,0,0,0,0,0,0,0,0,-1,1518,1023,0,0
301,1,0,0,0,0,0,0,0,0,0,-1,1525,1023,0,0
308,1,0,0,0,0,0,0,0,0,0,-1,1532,1023,0,0
315,1,0,0,0,0,0,0,0,0,0,-1,1539,1023,0,0
322,1,0,0,0,0,0,0,0,0,0,-1,1546,1023,0,0
329,1,0,0,0,0,0,0,0,0,0,-1,1553,1023,0,0
336,1,0,0,0,0,0,0,0,0,0,-1,1560,1023,0,0
343,1,0,0,0,0,0,0,0,0,0,-1,1567,1023,0,0
350,1,0,0,0,0,0,0,0,0,0,-1,1574,1023,0,0
357,1,0,0,0,0,0,0,0,0,0,-1,1581,1023,0,0
364,1,0,0,0,0,0,0,0,0,0,-1,1588,1023,0,0
371,1,0,0,0,0,0,0,0,0,0,-1,1595,1023,0,0
378,1,0,0,0,0,0,0,0,0,0,-1,1602,1023,0,0
385,1,0,0,0,0,0,0,0,0,0,-1,1609,1023,0,0
392,1,0,0,0,0,0,0,0,0,0,-1,1616,1023,0,0
399,1,0,0,0,0,0,0,0,0,0,-1,1623,1023,0,0
406,1,0,0,0,0,0,0,0,0,0,-1,1630,1023,0,0
413,1,0,0,0,0,0,0,0,0,0,-1,1637,1023,0,0
420,1,0,0,0,0,0,0,0,0,0,-1,1644,1023,0,0
427,1,0,0,0,0,0,0,0,0,0,-1,1651,1023,0,0
434,1,0,0,0,0,0,0,0,0,0,-1,1658,1023,0,0
441,1,0,0,0,0,0,0,0,0,0,-1,1665,1023,0,0
448,1,0,0,0,0,0,0,0,0,0,-1,1672,1023,0,0
455,1,0,0,0,0,0,0,0,0,0,-1,1679,1023,0,0
462,1,0,0,0,0,0,0,0,0,0,-1,1686,1023,0,0
469,1,0,0,0,0,0,0,0,0,0,-1,1693,1023,0,0
476,1,0,0,0,0,0,0,0,0,0,-1,1700,1023,0,0
483,1,0,0,0,0,0,0,0,0,0,-1,1707,1023,0,0
490,1,0,0,0,0,0,0,0,0,0,-1,1714,1023,0,0
497,1,0,0,0,0,0,0,0,0,0,-1,1721,1023,0,0
504,1,0,0,0,0,0,0,0,0,0,-1,1728,1023,0,0
511,1,0,0,0,0,0,0,0,0,0,-1,1735,1023,0,0
518,1,0,0,0,0,0,0,0,0,0,-1,1742,1023,0,0
525,1,0,0,0,0,0,0,0,0,0,-1,1749,1023,0,0
532,1,0,0,0,0,0,0,0,0,0,-1,1756,1023,0,0
539,1,0,0,0,0,0,0,0,0,0,-1,1763,1023,0,0
546,1,0,0,0,0,0,0,0,0,0,-1,1770,1023,0,0
553,1,0,0,0,0,0,0,0,0,0,-1,1777,1023,0,0
560,1,0,0,0,0,0,0,0,0,0,-1,1784,1023,0,0
567,1,0,0,0,0,0,0,0,0,0,-1,1791,1023,0,0
574,1,0,0,0,0,0,0,0,0,0,-1,1798,1023,0,0
581,1,0,0,0,0,0,0,0,0,0,-1,1805,1023,0,0
588,1,0,0,0,0,0,0,0,0,0,-1,1812,1023,0,0
595,1,0,0,0,0,0,0,0,0,0,-1,1819,1023,0,0
602,1,0,0,0,0,0,0,0,0,0,-1,1826,1023,0,0
609,1,0,0,0,0,0,0,0,0,0,-1,1833,1023,0,0
616,1,0,0,0,0,0,0,0,0,0,-1,1840,1023,0,0
623,1,0,0,0,0,0,0,0,0,0,-1,1847,1023,0,0
630,1,0,0,0,0,0,0,0,0,0,-1,1854,1023,0,0
637,1,0,0,0,0,0,0,0,0,0,-1,1861,1023,0,0
644,1,0,0,0,0,0,0,0,0,0,-1,1868,1023,0,0
651,1,56.292,2.82892,0.00774469,-0.00178506,-0.00704101,0.0114816,-0.00552194,-0.487929,0.010016,0.039946,1875,1023,56.292,-2.82894
658,1,56.4043,2.82373,0.00555278,-0.000624603,-0.00557143,0.0088344,-0.00390622,-0.532298,0.00753699,0.0412213,1882,1023,56.4043,-2.82372
665,1,56.4163,2.5965,0.00387653,0.000211495,-0.00398532,0.00643045,-0.00234243,-0.569904,0.00524513,0.0417756,1889,1023,56.4162,-2.59651
672,1,56.4103,2.26019,0.00252644,0.00103632,-0.00233742,0.00423468,-0.000671915,-0.631113,0.00307168,0.0433101,1896,1023,56.4103,-2.26021
679,1,56.3115,2.30084,0.00138976,0.00170479,-0.00067587,0.00224126,0.000853292,-0.899881,0.00130621,0.0400507,1903,1023,56.3115,-2.30082
686,1,56.278,2.26294,0.00032404,0.00193014,0.000731941,0.00221365,4.05223e-05,1.20124,0.00146245,0.0383412,1910,1023,56.278,-2.26292
693,1,56.3455,2.41199,-0.000526209,0.00184557,0.00182664,0.00283751,-0.00151815,1.07331,0.00255291,0.0353365,1917,1023,56.3454,-2.41196
700,1,56.4022,2.57593,-0.00123245,0.00171833,0.0025081,0.00315281,-0.00266693,1.05127,0.00336393,0.030172,1924,1023,56.4022,-2.5759
707,1,56.3488,2.57959,-0.00195854,0.00181384,0.00272944,0.00324541,-0.00339011,1.08775,0.00383133,0.0259462,1931,1023,56.3487,-2.5796
714,1,56.3156,2.55176,-0.00279068,0.0022319,0.00273576,0.00343423,-0.00399301,1.15672,0.00429216,0.0299117,1938,1023,56.3156,-2.55177
721,1,56.4478,2.52057,0,0,0,0,0,0,0,-1,1945,1023,56.4477,-2.52056
728,1,52.4639,5.59277,0,0,0,0,0,0,0,-1,1952,1023,52.4639,-5.59276
735,1,53.3617,6.10699,0,0,0,0,0,0,0,-1,1959,1023,53.3617,-6.10698
742,1,52.4393,5.81525,0,0,0,0,0,0,0,-1,1966,1023,52.4393,-5.81527
749,1,56.3468,6.12134,0,0,0,0,0,0,0,-1,1973,1023,56.3468,-6.12136
756,1,56.2996,6.25421,-0.00649861,0.0129975,-0.000638053,0.0130183,-0.00651947,-1.53812,0.0114863,0.0342868,1980,1023,56.2996,-6.2542
763,1,56.2059,6.18597,-0.00568722,0.0180495,-0.00279178,0.0183734,-0.00601116,-1.45528,0.0146691,0.0174617,1987,1023,56.2059,-6.18596
770,1,56.1772,6.15271,-0.00386178,0.0250332,-0.00556133,0.0260666,-0.0048952,-1.38707,0.0192184,0.0180931,1994,1023,56.1772,-6.1527
777,1,55.8745,6.07404,-0.000321867,0.0349335,-0.00979236,0.0374707,-0.00285914,-1.31726,0.025986,0.0256831,2001,1023,55.8746,-6.07402
784,1,55.8064,6.37195,0.00439746,0.0460871,-0.0153211,0.051112,-0.000627456,-1.25388,0.0342858,0.0455284,2008,1023,55.8063,-6.37193
791,1,55.8562,6.8197,0,0,0,0,0,0,0,-1,2015,1023,55.8562,-6.81969
798,1,55.0474,7.02649,0,0,0,0,0,0,0,-1,2022,1023,55.0474,-7.02646
805,1,55.259,6.46088,0.0292594,0.0919682,-0.0455124,0.115881,0.00534646,-1.08702,0.075535,0.0484275,2029,1023,55.259,-6.4609
812,1,55.6021,5.50122,0.0417899,0.11301,-0.0627278,0.149531,0.00526913,-1.04356,0.0979779,0.048703,2036,1023,55.6021,-5.50119
-700,-6,0,0,0,0,0,0,0,0,0,-1,524,1030,0,0
-693,-6,-46.2085,2.36511,0.0246985,0.00904462,0.0346833,0.052427,-0.0186839,0.674423,0.0425688,0.0433408,531,1030,-46.2085,-2.36505
-686,-6,-45.8546,2.62146,0.018789,0.0206597,0.0288399,0.0485794,-0.00913074,0.801609,0.0358199,0.0414978,538,1030,-45.8546,-2.62146
-679,-6,-45.281,2.79822,0.0131208,0.0260971,0.0243318,0.044791,-0.00557298,0.915693,0.0318811,0.0437392,545,1030,-45.281,-2.79818
-672,-6,-43.4469,2.66956,0,0,0,0,0,0,0,-1,552,1030,-43.4469,-2.66956
-665,-6,-43.2886,2.9635,0.00503876,0.027916,0.0172469,0.0371727,-0.00421798,1.07821,0.0263008,0.0467005,559,1030,-43.2886,-2.96355
-658,-6,-43.2209,3.40015,0.00228999,0.0262711,0.0141668,0.0328405,-0.00427937,1.13659,0.0234506,0.0392214,566,1030,-43.2209,-3.40015
-651,-6,-42.7845,3.08496,0.000228868,0.0235744,0.0112324,0.028101,-0.00429775,1.18771,0.0203187,0.0444077,573,1030,-42.7845,-3.08501
-644,-6,-42.5775,3.81165,0,0,0,0,0,0,0,-1,580,1030,-42.5775,-3.81166
-637,-6,-42.6935,3.4978,-0.00224844,0.0169819,0.00489413,0.0181558,-0.00342234,1.33538,0.0133912,0.0422426,587,1030,-42.6935,-3.49779
-630,-6,-42.8292,3.45471,-0.00307634,0.0132635,0.0025707,0.0136584,-0.00347123,1.41837,0.0104566,0.0242242,594,1030,-42.8292,-3.45468
-623,-6,-42.8115,3.52026,-0.00341631,0.00924195,0.000947925,0.00931255,-0.0034869,1.49646,0.00764065,0.0170003,601,1030,-42.8115,-3.52026
-616,-6,-42.8615,3.54871,-0.00247198,0.00587581,-0.000718846,0.00593726,-0.00253343,-1.48552,0.00502045,0.0192224,608,1030,-42.8615,-3.54867
-609,-6,-42.8568,3.67017,-0.00182649,0.00395246,-0.00221061,0.0047011,-0.00257512,-1.24426,0.00426028,0.019796,615,1030,-42.8568,-3.67018
-602,-6,-42.7601,3.77612,-0.0013936,0.00258138,-0.00325007,0.00440349,-0.00321571,-1.05982,0.00441673,0.0151221,622,1030,-42.7601,-3.77616
-595,-6,-42.7545,3.84448,0,0,0,0,0,0,0,-1,629,1030,-42.7544,-3.84453
-588,-6,-42.4655,2.11633,0,0,0,0,0,0,0,-1,636,1030,-42.4655,-2.11629
-581,-6,-42.294,0.762207,-0.000163963,0.000554951,-0.00411881,0.00432996,-0.00393897,-0.828924,0.00477585,0.0245178,643,1030,-42.294,-0.762159
-574,-6,-42.3571,0.836304,-0.000160106,0.000588526,-0.00422639,0.00445714,-0.00402872,-0.829566,0.0049014,0.0317953,650,1030,-42.3571,-0.836344
-567,-6,-42.325,0.726318,-0.000455682,0.00101551,-0.0041177,0.0044628,-0.00390298,-0.873787,0.00483359,0.0418624,657,1030,-42.325,-0.72632
-560,-6,-42.076,0.664063,-0.000981721,0.00173337,-0.00385968,0.00446729,-0.00371564,-0.954503,0.00473106,0.0431763,664,1030,-42.076,-0.664073
-553,-6,-42.1733,0.70105,-0.00179776,0.00252921,-0.00351096,0.00448974,-0.00375829,-1.06152,0.00476824,0.0408354,671,1030,-42.1733,-0.701074
-546,-6,-42.3406,0.604614,-0.00287649,0.00305125,-0.00316347,0.00442236,-0.0042476,-1.16182,0.00500594,0.0424731,678,1030,-42.3406,-0.604635
-539,-6,-42.3527,0.395996,-0.00422329,0.00318643,-0.00322187,0.0043914,-0.00542826,-1.2129,0.00567991,0.0447441,685,1030,-42.3527,-0.39605
-532,-6,-42.3816,0.636108,-0.00531243,0.00335133,-0.00369778,0.00471496,-0.00667605,-1.2175,0.00660901,0.0431561,692,1030,-42.3816,-0.636145
-525,-6,0,0,0,0,0,0,0,0,0,-1,699,1030,0,0
-518,-6,0,0,0,0,0,0,0,0,0,-1,706,1030,0,0
-511,-6,0,0,0,0,0,0,0,0,0,-1,713,1030,0,0
-504,-6,0,0,0,0,0,0,0,0,0,-1,720,1030,0,0
-497,-6,0,0,0,0,0,0,0,0,0,-1,727,1030,0,0
-490,-6,0,0,0,0,0,0,0,0,0,-1,734,1030,0,0
-483,-6,0,0,0,0,0,0,0,0,0,-1,741,1030,0,0
-476,-6,0,0,0,0,0,0,0,0,0,-1,748,1030,0,0
-469,-6,0,0,0,0,0,0,0,0,0,-1,755,1030,0,0
-462,-6,0,0,0,0,0,0,0,0,0,-1,762,1030,0,0
-455,-6,0,0,0,0,0,0,0,0,0,-1,769,1030,0,0
-448,-6,0,0,0,0,0,0,0,0,0,-1,776,1030,0,0
-441,-6,0,0,0,0,0,0,0,0,0,-1,783,1030,0,0
-434,-6,0,0,0,0,0,0,0,0,0,-1,790,1030,0,0
-427,-6,0,0,0,0,0,0,0,0,0,-1,797,1030,0,0
-420,-6,0,0,0,0,0,0,0,0,0,-1,804,1030,0,0
-413,-6,0,0,0,0,0,0,0,0,0,-1,811,1030,0,0
-406,-6,0,0,0,0,0,0,0,0,0,-1,818,1030,0,0
-399,-6,0,0,0,0,0,0,0,0,0,-1,825,1030,0,0
-392,-6,0,0,0,0,0,0,0,0,0,-1,832,1030,0,0
-385,-6,0,0,0,0,0,0,0,0,0,-1,839,1030,0,0
-378,-6,0,0,0,0,0,0,0,0,0,-1,846,1030,0,0
-371,-6,0,0,0,0,0,0,0,0,0,-1,853,1030,0,0
-364,-6,0,0,0,0,0,0,0,0,0,-1,860,1030,0,0
-357,-6,0,0,0,0,0,0,0,0,0,-1,867,1030,0,0
-350,-6,0,0,0,0,0,0,0,0,0,-1,874,1030,0,0
-343,-6,0,0,0,0,0,0,0,0,0,-1,881,1030,0,0
-336,-6,0,0,0,0,0,0,0,0,0,-1,888,1030,0,0
-329,-6,0,0,0,0,0,0,0,0,0,-1,895,1030,0,0
-322,-6,0,0,0,0,0,0,0,0,0,-1,902,1030,0,0
-315,-6,0,0,0,0,0,0,0,0,0,-1,909,1030,0,0
-308,-6,0,0,0,0,0,0,0,0,0,-1,916,1030,0,0
-301,-6,0,0,0,0,0,0,0,0,0,-1,923,1030,0,0
-294,-6,0,0,0,0,0,0,0,0,0,-1,930,1030,0,0
-287,-6,0,0,0,0,0,0,0,0,0,-1,937,1030,0,0
-280,-6,0,0,0,0,0,0,0,0,0,-1,944,1030,0,0
-273,-6,0,0,0,0,0,0,0,0,0,-1,951,1030,0,0
-266,-6,0,0,0,0,0,0,0,0,0,-1,958,1030,0,0
-259,-6,0,0,0,0,0,0,0,0,0,-1,965,1030,0,0
-252,-6,0,0,0,0,0,0,0,0,0,-1,972,1030,0,0
-245,-6,0,0,0,0,0,0,0,0,0,-1,979,1030,0,0
-238,-6,0,0,0,0,0,0,0,0,0,-1,986,1030,0,0
-231,-6,0,0,0,0,0,0,0,0,0,-1,993,1030,0,0
-224,-6,0,0,0,0,0,0,0,0,0,-1,1000,1030,0,0
-217,-6,0,0,0,0,0,0,0,0,0,-1,1007,1030,0,0
-210,-6,0,0,0,0,0,0,0,0,0,-1,1014,1030,0,0
-203,-6,0,0,0,0,0,0,0,0,0,-1,1021,1030,0,0
-196,-6,0,0,0,0,0,0,0,0,0,-1,1028,1030,0,0
-189,-6,0,0,0,0,0,0,0,0,0,-1,1035,1030,0,0
-182,-6,0,0,0,0,0,0,0,0,0,-1,1042,1030,0,0
-175,-6,0,0,0,0,0,0,0,0,0,-1,1049,1030,0,0
-168,-6,0,0,0,0,0,0,0,0,0,-1,1056,1030,0,0
-161,-6,0,0,0,0,0,0,0,0,0,-1,1063,1030,0,0
-154,-6,0,0,0,0,0,0,0,0,0,-1,1070,1030,0,0
-147,-6,0,0,0,0,0,0,0,0,0,-1,1077,1030,0,0
-140,-6,0,0,0,0,0,0,0,0,0,-1,1084,1030,0,0
-133,-6,0,0,0,0,0,0,0,0,0,-1,1091,1030,0,0
-126,-6,0,0,0,0,0,0,0,0,0,-1,1098,1030,0,0
-119,-6,0,0,0,0,0,0,0,0,0,-1,1105,1030,0,0
-112,-6,0,0,0,0,0,0,0,0,0,-1,1112,1030,0,0
-105,-6,0,0,0,0,0,0,0,0,0,-1,1119,1030,0,0
-98,-6,0,0,0,0,0,0,0,0,0,-1,1126,1030,0,0
-91,-6,0,0,0,0,0,0,0,0,0,-1,1133,1030,0,0
-84,-6,0,0,0,0,0,0,0,0,0,-1,1140,1030,0,0
-77,-6,0,0,0,0,0,0,0,0,0,-1,1147,1030,0,0
-70,-6,0,0,0,0,0,0,0,0,0,-1,1154,1030,0,0
-63,-6,0,0,0,0,0,0,0,0,0,-1,1161,1030,0,0
-56,-6,0,0,0,0,0,0,0,0,0,-1,1168,1030,0,0
-49,-6,0,0,0,0,0,0,0,0,0,-1,1175,1030,0,0
-42,-6,0,0,0,0,0,0,0,0,0,-1,1182,1030,0,0
-35,-6,0,0,0,0,0,0,0,0,0,-1,1189,1030,0,0
-28,-6,0,0,0,0,0,0,0,0,0,-1,1196,1030,0,0
-21,-6,0,0,0,0,0,0,0,0,0,-1,1203,1030,0,0
-14,-6,0,0,0,0,0,0,0,0,0,-1,1210,1030,0,0
-7,-6,0,0,0,0,0,0,0,0,0,-1,1217,1030,0,0
0,-6,0,0,0,0,0,0,0,0,0,-1,1224,1030,0,0
7,-6,0,0,0,0,0,0,0,0,0,-1,1231,1030,0,0
14,-6,0,0,0,0,0,0,0,0,0,-1,1238,1030,0,0
21,-6,0,0,0,0,0,0,0,0,0,-1,1245,1030,0,0
28,-6,0,0,0,0,0,0,0,0,0,-1,1252,1030,0,0
35,-6,0,0,0,0,0,0,0,0,0,-1,1259,1030,0,0
42,-6,0,0,0,0,0,0,0,0,0,-1,1266,1030,0,0
49,-6,0,0,0,0,0,0,0,0,0,-1,1273,1030,0,0
56,-6,0,0,0,0,0,0,0,0,0,-1,1280,1030,0,0
63,-6,0,0,0,0,0,0,0,0,0,-1,1287,1030,0,0
70,-6,0,0,0,0,0,0,0,0,0,-1,1294,1030,0,0
77,-6,0,0,0,0,0,0,0,0,0,-1,1301,1030,0,0
84,-6,0,0,0,0,0,0,0,0,0,-1,1308,1030,0,0
91,-6,0,0,0,0,0,0,0,0,0,-1,1315,1030,0,0
98,-6,0,0,0,0,0,0,0,0,0,-1,1322,1030,0,0
105,-6,0,0,0,0,0,0,0,0,0,-1,1329,1030,0,0
112,-6,0,0,0,0,0,0,0,0,0,-1,1336,1030,0,0
119,-6,0,0,0,0,0,0,0,0,0,-1,1343,1030,0,0
126,-6,0,0,0,0,0,0,0,0,0,-1,1350,1030,0,0
133,-6,0,0,0,0,0,0,0,0,0,-1,1357,1030,0,0
140,-6,0,0,0,0,0,0,0,0,0,-1,1364,1030,0,0
147,-6,0,0,0,0,0,0,0,0,0,-1,1371,1030,0,0
154,-6,0,0,0,0,0,0,0,0,0,-1,1378,1030,0,0
161,-6,0,0,0,0,0,0,0,0,0,-1,1385,1030,0,0
168,-6,0,0,0,0,0,0,0,0,0,-1,1392,1030,0,0
175,-6,0,0,0,0,0,0,0,0,0,-1,1399,1030,0,0
182,-6,0,0,0,0,0,0,0,0,0,-1,1406,1030,0,0
189,-6,0,0,0,0,0,0,0,0,0,-1,1413,1030,0,0
196,-6,0,0,0,0,0,0,0,0,0,-1,1420,1030,0,0
203,-6,0,0,0,0,0,0,0,0,0,-1,1427,1030,0,0
210,-6,0,0,0,0,0,0,0,0,0,-1,1434,1030,0,0
217,-6,0,0,0,0,0,0,0,0,0,-1,1441,1030,0,0
224,-6,0,0,0,0,0,0,0,0,0,-1,1448,1030,0,0
231,-6,0,0,0,0,0,0,0,0,0,-1,1455,1030,0,0
238,-6,0,0,0,0,0,0,0,0,0,-1,1462,1030,0,0
245,-6,0,0,0,0,0,0,0,0,0,-1,1469,1030,0,0
252,-6,0,0,0,0,0,0,0,0,0,-1,1476,1030,0,0
259,-6,0,0,0,0,0,0,0,0,0,-1,1483,1030,0,0
266,-6,0,0,0,0,0,0,0,0,0,-1,1490,1030,0,0
273,-6,0,0,0,0,0,0,0,0,0,-1,1497,1030,0,0
280,-6,0,0,0,0,0,0,0,0,0,-1,1504,1030,0,0
287,-6,0,0,0,0,0,0,0,0,0,-1,1511,1030,0,0
294,-6,0,0,0,0,0,0,0,0,0,-1,1518,1030,0,0
301,-6,0,0,0,0,0,0,0,0,0,-1,1525,1030,0,0
308,-6,0,0,0,0,0,0,0,0,0,-1,1532,1030,0,0
315,-6,0,0,0,0,0,0,0,0,0,-1,1539,1030,0,0
322,-6,0,0,0,0,0,0,0,0,0,-1,1546,1030,0,0
329,-6,0,0,0,0,0,0,0,0,0,-1,1553,1030,0,0
336,-6,0,0,0,0,0,0,0,0,0,-1,1560,1030,0,0
343,-6,0,0,0,0,0,0,0,0,0,-1,1567,1030,0,0
350,-6,0,0,0,0,0,0,0,0,0,-1,1574,1030,0,0
357,-6,0,0,0,0,0,0,0,0,0,-1,1581,1030,0,0
364,-6,0,0,0,0,0,0,0,0,0,-1,1588,1030,0,0
371,-6,0,0,0,0,0,0,0,0,0,-1,1595,1030,0,0
378,-6,0,0,0,0,0,0,0,0,0,-1,1602,1030,0,0
385,-6,0,0,0,0,0,0,0,0,0,-1,1609,1030,0,0
392,-6,0,0,0,0,0,0,0,0,0,-1,1616,1030,0,0
399,-6,0,0,0,0,0,0,0,0,0,-1,1623,1030,0,0
406,-6,0,0,0,0,0,0,0,0,0,-1,1630,1030,0,0
413,-6,0,0,0,0,0,0,0,0,0,-1,1637,1030,0,0
420,-6,0,0,0,0,0,0,0,0,0,-1,1644,1030,0,0
427,-6,0,0,0,0,0,0,0,0,0,-1,1651,1030,0,0
434,-6,0,0,0,0,0,0,0,0,0,-1,1658,1030,0,0
441,-6,0,0,0,0,0,0,0,0,0,-1,1665,1030,0,0
448,-6,0,0,0,0,0,0,0,0,0,-1,1672,1030,0,0
455,-6,0,0,0,0,0,0,0,0,0,-1,1679,1030,0,0
462,-6,0,0,0,0,0,0,0,0,0,-1,1686,1030,0,0
469,-6,0,0,0,0,0,0,0,0,0,-1,1693,1030,0,0
476,-6,0,0,0,0,0,0,0,0,0,-1,1700,1030,0,0
483,-6,0,0,0,0,0,0,0,0,0,-1,1707,1030,0,0
490,-6,0,0,0,0,0,0,0,0,0,-1,1714,1030,0,0
497,-6,0,0,0,0,0,0,0,0,0,-1,1721,1030,0,0
504,-6,0,0,0,0,0,0,0,0,0,-1,1728,1030,0,0
511,-6,0,0,0,0,0,0,0,0,0,-1,1735,1030,0,0
518,-6,0,0,0,0,0,0,0,0,0,-1,1742,1030,0,0
525,-6,0,0,0,0,0,0,0,0,0,-1,1749,1030,0,0
532,-6,0,0,0,0,0,0,0,0,0,-1,1756,1030,0,0
539,-6,0,0,0,0,0,0,0,0,0,-1,1763,1030,0,0
546,-6,0,0,0,0,0,0,0,0,0,-1,1770,1030,0,0
553,-6,0,0,0,0,0,0,0,0,0,-1,1777,1030,0,0
560,-6,0,0,0,0,0,0,0,0,0,-1,1784,1030,0,0
567,-6,0,0,0,0,0,0,0,0,0,-1,1791,1030,0,0
574,-6,0,0,0,0,0,0,0,0,0,-1,1798,1030,0,0
581,-6,0,0,0,0,0,0,0,0,0,-1,1805,1030,0,0
588,-6,0,0,0,0,0,0,0,0,0,-1,1812,1030,0,0
595,-6,0,0,0,0,0,0,0,0,0,-1,1819,1030,0,0
602,-6,0,0,0,0,0,0,0,0,0,-1,1826,1030,0,0
609,-6,0,0,0,0,0,0,0,0,0,-1,1833,1030,0,0
616,-6,0,0,0,0,0,0,0,0,0,-1,1840,1030,0,0
623,-6,0,0,0,0,0,0,0,0,0,-1,1847,1030,0,0
630,-6,0,0,0,0,0,0,0,0,0,-1,1854,1030,0,0
637,-6,0,0,0,0,0,0,0,0,0,-1,1861,1030,0,0
644,-6,0,0,0,0,0,0,0,0,0,-1,1868,1030,0,0
651,-6,56.2802,2.75793,0.006371,-0.00063179,-0.0078626,0.0114766,-0.00573738,-0.575919,0.0101209,0.0382855,1875,1030,56.2802,-2.75799
658,-6,56.3478,2.88,0.00462089,8.20473e-05,-0.0062476,0.00899847,-0.00429554,-0.611185,0.00783376,0.0405808,1882,1030,56.3478,-2.88002
665,-6,56.5221,2.7124,0.00325482,0.000523667,-0.00453657,0.00662689,-0.0028484,-0.639204,0.00561368,0.0431132,1889,1030,56.5221,-2.71234
672,-6,56.5223,2.51941,0.00212922,0.00102245,-0.00279658,0.00442664,-0.00127498,-0.68772,0.0034554,0.0432117,1896,1030,56.5224,-2.5194
679,-6,56.2654,2.3291,0.00114485,0.00143558,-0.00103146,0.00233187,0.000248563,-0.855401,0.0014787,0.0413239,1903,1030,56.2653,-2.3291
686,-6,56.1785,2.27136,0.000129273,0.00149098,0.000471246,0.00163815,-1.79036e-05,1.26808,0.00109812,0.0378711,1910,1030,56.1784,-2.2713
693,-6,56.2532,2.40625,-0.000703565,0.00132427,0.00165087,0.00224772,-0.00162702,1.06079,0.00224663,0.0368307,1917,1030,56.2532,-2.40625
700,-6,56.3416,2.54797,-0.0013849,0.00117885,0.00241543,0.00263148,-0.00283753,1.02935,0.00315828,0.0326498,1924,1030,56.3415,-2.54795
707,-6,56.3076,2.52246,-0.00209576,0.00127038,0.00271611,0.00278262,-0.003608,1.06277,0.00369987,0.0302304,1931,1030,56.3076,-2.5225
714,-6,56.2837,2.50098,-0.00291924,0.0016905,0.00280349,0.00301495,-0.00424369,1.12945,0.00421075,0.0392799,1938,1030,56.2837,-2.50101
721,-6,56.3386,2.61853,0,0,0,0,0,0,0,-1,1945,1030,56.3386,-2.61848
728,-6,53.1713,6.25494,0,0,0,0,0,0,0,-1,1952,1030,53.1713,-6.25495
735,-6,56.2367,6.38275,0,0,0,0,0,0,0,-1,1959,1030,56.2367,-6.38274
742,-6,56.287,6.45648,0,0,0,0,0,0,0,-1,1966,1030,56.287,-6.45648
749,-6,56.2518,6.38788,0,0,0,0,0,0,0,-1,1973,1030,56.2518,-6.38787
756,-6,56.2509,6.13507,-0.00609424,0.0124309,-0.000148476,0.0124321,-0.00609543,-1.56278,0.0109034,0.0282676,1980,1030,56.2509,-6.13506
763,-6,56.1292,6.01666,-0.00510697,0.0174273,-0.00220644,0.0176413,-0.00532098,-1.47411,0.0138788,0.0203718,1987,1030,56.1292,-6.01667
770,-6,56.0598,5.94971,-0.00304196,0.0241805,-0.00487172,0.0250261,-0.00388754,-1.39894,0.0181194,0.0176356,1994,1030,56.0599,-5.94965
777,-6,55.9453,5.93188,0.000856956,0.0339274,-0.00904352,0.0362389,-0.00145454,-1.32056,0.0246584,0.0197345,2001,1030,55.9453,-5.93186
784,-6,55.887,5.88623,0.00581643,0.0449227,-0.0144735,0.0496967,0.0010425,-1.25219,0.0327891,0.0476166,2008,1030,55.8869,-5.88623
791,-6,56.1328,5.18323,0.0121355,0.0578133,-0.0218043,0.0665503,0.0033984,-1.18968,0.0432786,0.0499937,2015,1030,56.1328,-5.18318
798,-6,55.5559,6.25519,0.0201795,0.0728854,-0.0314647,0.0875752,0.0054897,-1.13401,0.0566423,0.0484121,2022,1030,55.5558,-6.2552
805,-6,55.7942,5.66711,0.0300809,0.0902917,-0.0438141,0.113347,0.00702612,-1.08641,0.0733346,0.0458686,2029,1030,55.7942,-5.66712
812,-6,56.1091,4.90759,0.0417157,0.111117,-0.0603035,0.145991,0.0068415,-1.04648,0.0951289,0.0433558,2036,1030,56.109,-4.90754
-700,-13,0,0,0,0,0,0,0,0,0,-1,524,1037,0,0
-693,-13,-46.271,2.79419,0,0,0,0,0,0,0,-1,531,1037,-46.271,-2.79421
-686,-13,-45.9174,3.16589,0,0,0,0,0,0,0,-1,538,1037,-45.9174,-3.16589
-679,-13,-45.0724,3.14966,0.0177508,0.0194697,0.0239475,0.0425732,-0.00535266,0.803335,0.0303242,0.0458409,545,1037,-45.0724,-3.14963
-672,-13,-44.0008,2.9259,0,0,0,0,0,0,0,-1,552,1037,-44.0008,-2.92595
-665,-13,-43.4985,3.34045,0,0,0,0,0,0,0,-1,559,1037,-43.4985,-3.3405
-658,-13,-43.356,3.81897,0,0,0,0,0,0,0,-1,566,1037,-43.356,-3.81899
-651,-13,-42.7618,2.92114,0,0,0,0,0,0,0,-1,573,1037,-42.7618,-2.92115
-644,-13,-42.3942,3.0686,-7.63738e-05,0.0190213,0.00727252,0.0214753,-0.00253045,1.24535,0.0152306,0.0318832,580,1037,-42.3942,-3.06863
-637,-13,-42.5084,3.22229,-0.00107101,0.0162242,0.00392576,0.0170736,-0.00192039,1.35772,0.0120735,0.0258165,587,1037,-42.5083,-3.2223
-630,-13,-42.6573,3.27515,-0.00229484,0.0129191,0.00180941,0.0131313,-0.00250707,1.45403,0.0096985,0.0165638,594,1037,-42.6573,-3.27517
-623,-13,-42.6976,3.43994,-0.00297793,0.00918328,0.000408935,0.00919702,-0.00299167,1.53722,0.00733484,0.0144284,601,1037,-42.6976,-3.43989
-616,-13,-42.6783,3.599,-0.002165,0.0058746,-0.000980608,0.00599248,-0.00228287,-1.45116,0.0049352,0.0133681,608,1037,-42.6783,-3.59904
-609,-13,-42.6572,3.72864,-0.00149507,0.00371826,-0.00227884,0.00457393,-0.00235075,-1.2116,0.00406607,0.018061,615,1037,-42.6572,-3.72861
-602,-13,-42.6299,3.83142,-0.00115409,0.00223527,-0.00326559,0.00421972,-0.00313854,-1.02474,0.00426355,0.0139483,622,1037,-42.6299,-3.83136
-595,-13,-42.6632,3.92432,0,0,0,0,0,0,0,-1,629,1037,-42.6632,-3.9243
-588,-13,-42.2418,0.841797,0,0,0,0,0,0,0,-1,636,1037,-42.2418,-0.84182
-581,-13,-42.2786,0.681152,-0.000189074,0.000312813,-0.00401175,0.00408146,-0.00395772,-0.816634,0.0046416,0.0237506,643,1037,-42.2786,-0.681159
-574,-13,-42.332,0.784302,-0.000187715,0.000382933,-0.00406315,0.00417077,-0.00397555,-0.820452,0.00470373,0.0332084,650,1037,-42.332,-0.784247
-567,-13,-42.4274,0.742065,-0.000490131,0.00083487,-0.0039482,0.00417576,-0.00383102,-0.868523,0.00462415,0.0399123,657,1037,-42.4274,-0.742027
-560,-13,-42.241,0.430054,-0.00101066,0.00155945,-0.00372233,0.0042123,-0.00366352,-0.951607,0.00455078,0.0431557,664,1037,-42.241,-0.430032
-553,-13,-42.1497,0.663574,-0.00177674,0.002331,-0.00345556,0.00429698,-0.00374273,-1.05353,0.00464541,0.0414238,671,1037,-42.1497,-0.663613
-546,-13,-42.3485,0.73291,-0.00274049,0.00278922,-0.00326636,0.0043038,-0.00425507,-1.13662,0.00494149,0.0408494,678,1037,-42.3485,-0.732914
-539,-13,-42.2323,0.662231,0,0,0,0,0,0,0,-1,685,1037,-42.2323,-0.662188
-532,-13,-42.2797,1.28552,0,0,0,0,0,0,0,-1,692,1037,-42.2797,-1.28554
-525,-13,0,0,0,0,0,0,0,0,0,-1,699,1037,0,0
-518,-13,0,0,0,0,0,0,0,0,0,-1,706,1037,0,0
-511,-13,0,0,0,0,0,0,0,0,0,-1,713,1037,0,0
-504,-13,0,0,0,0,0,0,0,0,0,-1,720,1037,0,0
-497,-13,0,0,0,0,0,0,0,0,0,-1,727,1037,0,0
-490,-13,0,0,0,0,0,0,0,0,0,-1,734,1037,0,0
-483,-13,0,0,0,0,0,0,0,0,0,-1,741,1037,0,0
-476,-13,0,0,0,0,0,0,0,0,0,-1,748,1037,0,0
-469,-13,0,0,0,0,0,0,0,0,0,-1,755,1037,0,0
-462,-13,0,0,0,0,0,0,0,0,0,-1,762,1037,0,0
-455,-13,0,0,0,0,0,0,0,0,0,-1,769,1037,0,0
-448,-13,0,0,0,0,0,0,0,0,0,-1,776,1037,0,0
-441,-13,0,0,0,0,0,0,0,0,0,-1,783,1037,0,0
-434,-13,0,0,0,0,0,0,0,0,0,-1,790,1037,0,0
-427,-13,0,0,0,0,0,0,0,0,0,-1,797,1037,0,0
-420,-13,0,0,0,0,0,0,0,0,0,-1,804,1037,0,0
-413,-13,0,0,0,0,0,0,0,0,0,-1,811,1037,0,0
-406,-13,0,0,0,0,0,0,0,0,0,-1,818,1037,0,0
-399,-13,0,0,0,0,0,0,0,0,0,-1,825,1037,0,0
-392,-13,0,0,0,0,0,0,0,0,0,-1,832,1037,0,0
-385,-13,0,0,0,0,0,0,0,0,0,-1,839,1037,0,0
-378,-13,0,0,0,0,0,0,0,0,0,-1,846,1037,0,0
-371,-13,0,0,0,0,0,0,0,0,0,-1,853,1037,0,0
-364,-13,0,0,0,0,0,0,0,0,0,-1,860,1037,0,0
-357,-13,0,0,0,0,0,0,0,0,0,-1,867,1037,0,0
-350,-13,0,0,0,0,0,0,0,0,0,-1,874,1037,0,0
-343,-13,0,0,0,0,0,0,0,0,0,-1,881,1037,0,0
-336,-13,0,0,0,0,0,0,0,0,0,-1,888,1037,0,0
-329,-13,0,0,0,0,0,0,0,0,0,-1,895,1037,0,0
-322,-13,0,0,0,0,0,0,0,0,0,-1,902,1037,0,0
-315,-13,0,0,0,0,0,0,0,0,0,-1,909,1037,0,0
-308,-13,0,0,0,0,0,0,0,0,0,-1,916,1037,0,0
-301,-13,0,0,0,0,0,0,0,0,0,-1,923,1037,0,0
-294,-13,0,0,0,0,0,0,0,0,0,-1,930,1037,0,0
-287,-13,0,0,0,0,0,0,0,0,0,-1,937,1037,0,0
-280,-13,0,0,0,0,0,0,0,0,0,-1,944,1037,0,0
-273,-13,0,0,0,0,0,0,0,0,0,-1,951,1037,0,0
-266,-13,0,0,0,0,0,0,0,0,0,-1,958,1037,0,0
-259,-13,0,0,0,0,0,0,0,0,0,-1,965,1037,0,0
-252,-13,0,0,0,0,0,0,0,0,0,-1,972,1037,0,0
-245,-13,0,0,0,0,0,0,0,0,0,-1,979,1037,0,0
-238,-13,0,0,0,0,0,0,0,0,0,-1,986,1037,0,0
-231,-13,0,0,0,0,0,0,0,0,0,-1,993,1037,0,0
-224,-13,0,0,0,0,0,0,0,0,0,-1,1000,1037,0,0
-217,-13,0,0,0,0,0,0,0,0,0,-1,1007,1037,0,0
-210,-13,0,0,0,0,0,0,0,0,0,-1,1014,1037,0,0
-203,-13,0,0,0,0,0,0,0,0,0,-1,1021,1037,0,0
-196,-13,0,0,0,0,0,0,0,0,0,-1,1028,1037,0,0
-189,-13,0,0,0,0,0,0,0,0,0,-1,1035,1037,0,0
-182,-13,0,0,0,0,0,0,0,0,0,-1,1042,1037,0,0
-175,-13,0,0,0,0,0,0,0,0,0,-1,1049,1037,0,0
-168,-13,0,0,0,0,0,0,0,0,0,-1,1056,1037,0,0
-161,-13,0,0,0,0,0,0,0,0,0,-1,1063,1037,0,0
-154,-13,0,0,0,0,0,0,0,0,0,-1,1070,1037,0,0
-147,-13,0,0,0,0,0,0,0,0,0,-1,1077,1037,0,0
-140,-13,0,0,0,0,0,0,0,0,0,-1,1084,1037,0,0
-133,-13,0,0,0,0,0,0,0,0,0,-1,1091,1037,0,0
-126,-13,0,0,0,0,0,0,0,0,0,-1,1098,1037,0,0
-119,-13,0,0,0,0,0,0,0,0,0,-1,1105,1037,0,0
-112,-13,0,0,0,0,0,0,0,0,0,-1,1112,1037,0,0
-105,-13,0,0,0,0,0,0,0,0,0,-1,1119,1037,0,0
-98,-13,0,0,0,0,0,0,0,0,0,-1,1126,1037,0,0
-91,-13,0,0,0,0,0,0,0,0,0,-1,1133,1037,0,0
-84,-13,0,0,0,0,0,0,0,0,0,-1,1140,1037,0,0
-77,-13,0,0,0,0,0,0,0,0,0,-1,1147,1037,0,0
-70,-13,0,0,0,0,0,0,0,0,0,-1,1154,1037,0,0
-63,-13,0,0,0,0,0,0,0,0,0,-1,1161,1037,0,0
-56,-13,0,0,0,0,0,0,0,0,0,-1,1168,1037,0,0
-49,-13,0,0,0,0,0,0,0,0,0,-1,1175,1037,0,0
-42,-13,0,0,0,0,0,0,0,0,0,-1,1182,1037,0,0
-35,-13,0,0,0,0,0,0,0,0,0,-1,1189,1037,0,0
-28,-13,0,0,0,0,0,0,0,0,0,-1,1196,1037,0,0
-21,-13,0,0,0,0,0,0,0,0,0,-1,1203,1037,0,0
-14,-13,0,0,0,0,0,0,0,0,0,-1,1210,1037,0,0
-7,-13,0,0,0,0,0,0,0,0,0,-1,1217,1037,0,0
0,-13,0,0,0,0,0,0,0,0,0,-1,1224,1037,0,0
7,-13,0,0,0,0,0,0,0,0,0,-1,1231,1037,0,0
14,-13,0,0,0,0,0,0,0,0,0,-1,1238,1037,0,0
21,-13,0,0,0,0,0,0,0,0,0,-1,1245,1037,0,0
28,-13,0,0,0,0,0,0,0,0,0,-1,1252,1037,0,0
35,-13,0,0,0,0,0,0,0,0,0,-1,1259,1037,0,0
42,-13,0,0,0,0,0,0,0,0,0,-1,1266,1037,0,0
49,-13,0,0,0,0,0,0,0,0,0,-1,1273,1037,0,0
56,-13,0,0,0,0,0,0,0,0,0,-1,1280,1037,0,0
63,-13,0,0,0,0,0,0,0,0,0,-1,1287,1037,0,0
70,-13,0,0,0,0,0,0,0,0,0,-1,1294,1037,0,0
77,-13,0,0,0,0,0,0,0,0,0,-1,1301,1037,0,0
84,-13,0,0,0,0,0,0,0,0,0,-1,1308,1037,0,0
91,-13,0,0,0,0,0,0,0,0,0,-1,1315,1037,0,0
98,-13,0,0,0,0,0,0,0,0,0,-1,1322,1037,0,0
105,-13,0,0,0,0,0,0,0,0,0,-1,1329,1037,0,0
112,-13,0,0,0,0,0,0,0,0,0,-1,1336,1037,0,0
119,-13,0,0,0,0,0,0,0,0,0,-1,1343,1037,0,0
126,-13,0,0,0,0,0,0,0,0,0,-1,1350,1037,0,0
133,-13,0,0,0,0,0,0,0,0,0,-1,1357,1037,0,0
140,-13,0,0,0,0,0,0,0,0,0,-1,1364,1037,0,0
147,-13,0,0,0,0,0,0,0,0,0,-1,1371,1037,0,0
154,-13,0,0,0,0,0,0,0,0,0,-1,1378,1037,0,0
161,-13,0,0,0,0,0,0,0,0,0,-1,1385,1037,0,0
168,-13,0,0,0,0,0,0,0,0,0,-1,1392,1037,0,0
175,-13,0,0,0,0,0,0,0,0,0,-1,1399,1037,0,0
182,-13,0,0,0,0,0,0,0,0,0,-1,1406,1037,0,0
189,-13,0,0,0,0,0,0,0,0,0,-1,1413,1037,0,0
196,-13,0,0,0,0,0,0,0,0,0,-1,1420,1037,0,0
203,-13,0,0,0,0,0,0,0,0,0,-1,1427,1037,0,0
210,-13,0,0,0,0,0,0,0,0,0,-1,1434,1037,0,0
217,-13,0,0,0,0,0,0,0,0,0,-1,1441,1037,0,0
224,-13,0,0,0,0,0,0,0,0,0,-1,1448,1037,0,0
231,-13,0,0,0,0,0,0,0,0,0,-1,1455,1037,0,0
238,-13,0,0,0,0,0,0,0,0,0,-1,1462,1037,0,0
245,-13,0,0,0,0,0,0,0,0,0,-1,1469,1037,0,0
252,-13,0,0,0,0,0,0,0,0,0,-1,1476,1037,0,0
259,-13,0,0,0,0,0,0,0,0,0,-1,1483,1037,0,0
266,-13,0,0,0,0,0,0,0,0,0,-1,1490,1037,0,0
273,-13,0,0,0,0,0,0,0,0,0,-1,1497,1037,0,0
280,-13,0,0,0,0,0,0,0,0,0,-1,1504,1037,0,0
287,-13,0,0,0,0,0,0,0,0,0,-1,1511,1037,0,0
294,-13,0,0,0,0,0,0,0,0,0,-1,1518,1037,0,0
301,-13,0,0,0,0,0,0,0,0,0,-1,1525,1037,0,0
308,-13,0,0,0,0,0,0,0,0,0,-1,1532,1037,0,0
315,-13,0,0,0,0,0,0,0,0,0,-1,1539,1037,0,0
322,-13,0,0,0,0,0,0,0,0,0,-1,1546,1037,0,0
329,-13,0,0,0,0,0,0,0,0,0,-1,1553,1037,0,0
336,-13,0,0,0,0,0,0,0,0,0,-1,1560,1037,0,0
343,-13,0,0,0,0,0,0,0,0,0,-1,1567,1037,0,0
350,-13,0,0,0,0,0,0,0,0,0,-1,1574,1037,0,0
357,-13,0,0,0,0,0,0,0,0,0,-1,1581,1037,0,0
364,-13,0,0,0,0,0,0,0,0,0,-1,1588,1037,0,0
371,-13,0,0,0,0,0,0,0,0,0,-1,1595,1037,0,0
378,-13,0,0,0,0,0,0,0,0,0,-1,1602,1037,0,0
385,-13,0,0,0,0,0,0,0,0,0,-1,1609,1037,0,0
392,-13,0,0,0,0,0,0,0,0,0,-1,1616,1037,0,0
399,-13,0,0,0,0,0,0,0,0,0,-1,1623,1037,0,0
406,-13,0,0,0,0,0,0,0,0,0,-1,1630,1037,0,0
413,-13,0,0,0,0,0,0,0,0,0,-1,1637,1037,0,0
420,-13,0,0,0,0,0,0,0,0,0,-1,1644,1037,0,0
427,-13,0,0,0,0,0,0,0,0,0,-1,1651,1037,0,0
434,-13,0,0,0,0,0,0,0,0,0,-1,1658,1037,0,0
441,-13,0,0,0,0,0,0,0,0,0,-1,1665,1037,0,0
448,-13,0,0,0,0,0,0,0,0,0,-1,1672,1037,0,0
455,-13,0,0,0,0,0,0,0,0,0,-1,1679,1037,0,0
462,-13,0,0,0,0,0,0,0,0,0,-1,1686,1037,0,0
469,-13,0,0,0,0,0,0,0,0,0,-1,1693,1037,0,0
476,-13,0,0,0,0,0,0,0,0,0,-1,1700,1037,0,0
483,-13,0,0,0,0,0,0,0,0,0,-1,1707,1037,0,0
490,-13,0,0,0,0,0,0,0,0,0,-1,1714,1037,0,0
497,-13,0,0,0,0,0,0,0,0,0,-1,1721,1037,0,0
504,-13,0,0,0,0,0,0,0,0,0,-1,1728,1037,0,0
511,-13,0,0,0,0,0,0,0,0,0,-1,1735,1037,0,0
518,-13,0,0,0,0,0,0,0,0,0,-1,1742,1037,0,0
525,-13,0,0,0,0,0,0,0,0,0,-1,1749,1037,0,0
532,-13,0,0,0,0,0,0,0,0,0,-1,1756,1037,0,0
539,-13,0,0,0,0,0,0,0,0,0,-1,1763,1037,0,0
546,-13,0,0,0,0,0,0,0,0,0,-1,1770,1037,0,0
553,-13,0,0,0,0,0,0,0,0,0,-1,1777,1037,0,0
560,-13,0,0,0,0,0,0,0,0,0,-1,1784,1037,0,0
567,-13,0,0,0,0,0,0,0,0,0,-1,1791,1037,0,0
574,-13,0,0,0,0,0,0,0,0,0,-1,1798,1037,0,0
581,-13,0,0,0,0,0,0,0,0,0,-1,1805,1037,0,0
588,-13,0,0,0,0,0,0,0,0,0,-1,1812,1037,0,0
595,-13,0,0,0,0,0,0,0,0,0,-1,1819,1037,0,0
602,-13,0,0,0,0,0,0,0,0,0,-1,1826,1037,0,0
609,-13,0,0,0,0,0,0,0,0,0,-1,1833,1037,0,0
616,-13,0,0,0,0,0,0,0,0,0,-1,1840,1037,0,0
623,-13,0,0,0,0,0,0,0,0,0,-1,1847,1037,0,0
630,-13,0,0,0,0,0,0,0,0,0,-1,1854,1037,0,0
637,-13,0,0,0,0,0,0,0,0,0,-1,1861,1037,0,0
644,-13,0,0,0,0,0,0,0,0,0,-1,1868,1037,0,0
651,-13,56.2468,2.9812,0.00480358,0.0019744,-0.00811344,0.0116248,-0.00484685,-0.69909,0.00977462,0.0417041,1875,1037,56.2468,-2.98118
658,-13,56.0726,2.68445,0.00354818,0.00192852,-0.00640623,0.00919556,-0.00371886,-0.722525,0.00767638,0.0445454,1882,1037,56.0726,-2.68448
665,-13,56.286,2.53613,0.00252558,0.00175239,-0.00462252,0.00677765,-0.00249968,-0.743679,0.00554284,0.0434237,1889,1037,56.2861,-2.53611
672,-13,56.4579,2.5343,0.00164753,0.00173782,-0.00285588,0.00454891,-0.00116357,-0.793301,0.00348581,0.039335,1896,1037,56.4579,-2.53425
679,-13,56.2892,2.39685,0.000844637,0.00172256,-0.00106847,0.00243872,0.00012847,-0.980302,0.00158473,0.0364606,1903,1037,56.2892,-2.39691
686,-13,56.3313,2.21008,-8.82777e-05,0.00147983,0.000443818,0.00159673,-0.000205176,1.31325,0.00113905,0.0372695,1910,1037,56.3313,-2.21002
693,-13,56.3529,2.203,-0.000880056,0.00113633,0.00162786,0.00204292,-0.00178664,1.06266,0.00221265,0.0401704,1917,1037,56.3529,-2.20301
700,-13,56.3075,2.36267,-0.00152194,0.000919099,0.00241748,0.00240669,-0.00300953,1.01917,0.00313351,0.0388018,1924,1037,56.3075,-2.36264
707,-13,56.3373,2.48169,-0.00221079,0.00095761,0.00277439,0.00256824,-0.00382142,1.04481,0.00371265,0.0349316,1931,1037,56.3373,-2.48171
714,-13,56.3075,2.70068,-0.00301385,0.0013221,0.0029146,0.00278662,-0.00447837,1.10517,0.00423218,0.0348363,1938,1037,56.3075,-2.70073
721,-13,56.1992,2.95898,0,0,0,0,0,0,0,-1,1945,1037,56.1992,-2.95904
728,-13,56.2802,6.39539,0,0,0,0,0,0,0,-1,1952,1037,56.2802,-6.39539
735,-13,56.1519,6.36438,-0.00574854,0.00456928,0.00273229,0.00524815,-0.00642741,1.32726,0.00675234,0.03302,1959,1037,56.1518,-6.36436
742,-13,56.0995,6.29028,-0.00609563,0.00587212,0.00254605,0.00639126,-0.00661477,1.36966,0.0075094,0.0199409,1966,1037,56.0995,-6.29024
749,-13,56.1788,6.19507,-0.00625587,0.00821257,0.00179155,0.00843111,-0.00647441,1.44941,0.00863039,0.0270951,1973,1037,56.1788,-6.19501
756,-13,56.1451,6.07568,-0.00584357,0.0116306,0.000305943,0.011636,-0.00584893,1.5533,0.0102776,0.0185896,1980,1037,56.1452,-6.07567
763,-13,56.073,5.94604,-0.00476715,0.0164241,-0.00162781,0.0165484,-0.00489146,-1.49458,0.0129739,0.0270233,1987,1037,56.073,-5.946
770,-13,55.9927,5.86072,-0.00260815,0.0227865,-0.00412086,0.0234384,-0.00326012,-1.41389,0.016818,0.022979,1994,1037,55.9927,-5.86074
777,-13,55.8518,5.74585,0.0014631,0.032096,-0.0081157,0.0341133,-0.00055418,-1.32717,0.0229291,0.0165837,2001,1037,55.8518,-5.74586
784,-13,55.8608,5.56226,0.00652803,0.0426591,-0.0133265,0.0470426,0.00214452,-1.25301,0.0306719,0.0366738,2008,1037,55.8607,-5.56226
791,-13,55.9106,5.32544,0.0128345,0.0550859,-0.0203385,0.0632851,0.00463529,-1.18759,0.040733,0.046785,2015,1037,55.9106,-5.32547
798,-13,55.8931,5.12378,0.0207518,0.0697799,-0.0296238,0.0837172,0.00681446,-1.13104,0.0536843,0.0448776,2022,1037,55.8931,-5.12383
805,-13,56.0518,5.07629,0.0304108,0.0870035,-0.0415352,0.108965,0.00844926,-1.08442,0.0699971,0.0394918,2029,1037,56.0517,-5.07629
812,-13,56.1292,4.80713,0,0,0,0,0,0,0,-1,2036,1037,56.1292,-4.80715
-700,-20,-45.378,2.80469,0,0,0,0,0,0,0,-1,524,1044,-45.378,-2.80474
-693,-20,-45.0559,2.92603,0,0,0,0,0,0,0,-1,531,1044,-45.0559,-2.92606
-686,-20,-44.6684,3.30017,0.0318316,0.0100708,0.0341118,0.0567562,-0.0148537,0.631017,0.0436396,0.0443939,538,1044,-44.6684,-3.30021
-679,-20,-44.1125,3.50415,0.0248014,0.0171494,0.0270593,0.0483039,-0.00635305,0.715167,0.0345157,0.041376,545,1044,-44.1124,-3.50416
-672,-20,-43.612,3.20313,0,0,0,0,0,0,0,-1,552,1044,-43.612,-3.20318
-665,-20,-43.316,3.68762,0,0,0,0,0,0,0,-1,559,1044,-43.316,-3.68758
-658,-20,-42.0326,2.86609,0.00822154,0.0230729,0.0133581,0.0309305,0.000363898,1.03908,0.0205001,0.0483995,566,1044,-42.0326,-2.86605
-651,-20,-42.2079,2.78748,0.00460642,0.0215797,0.0100882,0.0262762,-9.00915e-05,1.13509,0.0175476,0.0398435,573,1044,-42.2079,-2.78747
-644,-20,-42.2346,2.83154,0.00148889,0.0189273,0.00705968,0.021427,-0.0010108,1.23049,0.0146332,0.0271902,580,1044,-42.2345,-2.8316
-637,-20,-42.3272,2.93799,-3.35999e-05,0.0161526,0.00353391,0.0168905,-0.000771513,1.36494,0.0115261,0.0199815,587,1044,-42.3272,-2.93796
-630,-20,-42.4338,3.15222,-0.00164246,0.0127056,0.00144642,0.0128499,-0.00178682,1.47132,0.00922011,0.0161804,594,1044,-42.4338,-3.15227
-623,-20,-42.4898,3.38367,-0.00261271,0.00906845,0.000120874,0.0090697,-0.00261396,1.56045,0.00708049,0.0151579,601,1044,-42.4898,-3.38362
-616,-20,-42.4897,3.57678,-0.00196943,0.00582539,-0.00109844,0.00597722,-0.00212126,-1.43344,0.00484911,0.0146524,608,1044,-42.4897,-3.57678
-609,-20,-42.5065,3.75537,-0.00131151,0.00349942,-0.00225747,0.00439281,-0.00220489,-1.19396,0.00387837,0.0156753,615,1044,-42.5064,-3.75539
-602,-20,-42.4906,3.87451,-0.00102468,0.00192862,-0.00317485,0.00395342,-0.00304949,-1.00307,0.00405434,0.0146823,622,1044,-42.4906,-3.87448
-595,-20,-42.4789,3.95386,-0.00106157,0.000857268,-0.00351546,0.00354188,-0.00374618,-0.918611,0.00420831,0.0359289,629,1044,-42.4789,-3.9539
-588,-20,-42.241,0.809448,0,0,0,0,0,0,0,-1,636,1044,-42.241,-0.809407
-581,-20,-42.2385,0.626831,-0.00025059,1.81545e-05,-0.003789,0.00367517,-0.0039076,-0.803123,0.0043786,0.0306431,643,1044,-42.2385,-0.626791
-574,-20,-42.2775,0.7948,-0.000220374,6.49738e-05,-0.00378545,0.00371044,-0.00386584,-0.804234,0.00437447,0.037741,650,1044,-42.2775,-0.79486
-567,-20,-42.3763,0.869873,-0.000474009,0.000452528,-0.00366477,0.0036832,-0.00370468,-0.84827,0.0042654,0.0428693,657,1044,-42.3763,-0.869867
-560,-20,-42.2371,0.714355,-0.000908063,0.00107729,-0.00346712,0.00369105,-0.00352182,-0.924824,0.00416473,0.0428382,664,1044,-42.2371,-0.714318
-553,-20,-42.104,0.592896,-0.00152109,0.00171246,-0.00326711,0.00374095,-0.00354958,-1.01516,0.00420967,0.0407495,671,1044,-42.104,-0.592911
-546,-20,-42.3022,0.668579,-0.0022399,0.00199821,-0.00319714,0.00371479,-0.00395648,-1.07806,0.00442974,0.0419146,678,1044,-42.3022,-0.6686
-539,-20,-42.4355,0.708618,-0.00314921,0.00170381,-0.00374467,0.00373942,-0.00518482,-1.07288,0.00517489,0.047984,685,1044,-42.4355,-0.708678
-532,-20,-42.3458,0.756836,-0.00398973,0.0016348,-0.00421929,0.00389316,-0.00624809,-1.07935,0.00590744,0.0475411,692,1044,-42.3458,-0.756885
-525,-20,0,0,0,0,0,0,0,0,0,-1,699,1044,0,0
-518,-20,0,0,0,0,0,0,0,0,0,-1,706,1044,0,0
-511,-20,0,0,0,0,0,0,0,0,0,-1,713,1044,0,0
-504,-20,0,0,0,0,0,0,0,0,0,-1,720,1044,0,0
-497,-20,0,0,0,0,0,0,0,0,0,-1,727,1044,0,0
-490,-20,0,0,0,0,0,0,0,0,0,-1,734,1044,0,0
-483,-20,0,0,0,0,0,0,0,0,0,-1,741,1044,0,0
-476,-20,0,0,0,0,0,0,0,0,0,-1,748,1044,0,0
-469,-20,0,0,0,0,0,0,0,0,0,-1,755,1044,0,0
-462,-20,0,0,0,0,0,0,0,0,0,-1,762,1044,0,0
-455,-20,0,0,0,0,0,0,0,0,0,-1,769,1044,0,0
-448,-20,0,0,0,0,0,0,0,0,0,-1,776,1044,0,0
-441,-20,0,0,0,0,0,0,0,0,0,-1,783,1044,0,0
-434,-20,0,0,0,0,0,0,0,0,0,-1,790,1044,0,0
-427,-20,0,0,0,0,0,0,0,0,0,-1,797,1044,0,0
-420,-20,0,0,0,0,0,0,0,0,0,-1,804,1044,0,0
-413,-20,0,0,0,0,0,0,0,0,0,-1,811,1044,0,0
-406,-20,0,0,0,0,0,0,0,0,0,-1,818,1044,0,0
-399,-20,0,0,0,0,0,0,0,0,0,-1,825,1044,0,0
-392,-20,0,0,0,0,0,0,0,0,0,-1,832,1044,0,0
-385,-20,0,0,0,0,0,0,0,0,0,-1,839,1044,0,0
-378,-20,0,0,0,0,0,0,0,0,0,-1,846,1044,0,0
-371,-20,0,0,0,0,0,0,0,0,0,-1,853,1044,0,0
-364,-20,0,0,0,0,0,0,0,0,0,-1,860,1044,0,0
-357,-20,0,0,0,0,0,0,0,0,0,-1,867,1044,0,0
-350,-20,0,0,0,0,0,0,0,0,0,-1,874,1044,0,0
-343,-20,0,0,0,0,0,0,0,0,0,-1,881,1044,0,0
-336,-20,0,0,0,0,0,0,0,0,0,-1,888,1044,0,0
-329,-20,0,0,0,0,0,0,0,0,0,-1,895,1044,0,0
-322,-20,0,0,0,0,0,0,0,0,0,-1,902,1044,0,0
-315,-20,0,0,0,0,0,0,0,0,0,-1,909,1044,0,0
-308,-20,0,0,0,0,0,0,0,0,0,-1,916,1044,0,0
-301,-20,0,0,0,0,0,0,0,0,0,-1,923,1044,0,0
-294,-20,0,0,0,0,0,0,0,0,0,-1,930,1044,0,0
-287,-20,0,0,0,0,0,0,0,0,0,-1,937,1044,0,0
-280,-20,0,0,0,0,0,0,0,0,0,-1,944,1044,0,0
-273,-20,0,0,0,0,0,0,0,0,0,-1,951,1044,0,0
-266,-20,0,0,0,0,0,0,0,0,0,-1,958,1044,0,0
-259,-20,0,0,0,0,0,0,0,0,0,-1,965,1044,0,0
-252,-20,0,0,0,0,0,0,0,0,0,-1,972,1044,0,0
-245,-20,0,0,0,0,0,0,0,0,0,-1,979,1044,0,0
-238,-20,0,0,0,0,0,0,0,0,0,-1,986,1044,0,0
-231,-20,0,0,0,0,0,0,0,0,0,-1,993,1044,0,0
-224,-20,0,0,0,0,0,0,0,0,0,-1,1000,1044,0,0
-217,-20,0,0,0,0,0,0,0,0,0,-1,1007,1044,0,0
-210,-20,0,0,0,0,0,0,0,0,0,-1,1014,1044,0,0
-203,-20,0,0,0,0,0,0,0,0,0,-1,1021,1044,0,0
-196,-20,0,0,0,0,0,0,0,0,0,-1,1028,1044,0,0
-189,-20,0,0,0,0,0,0,0,0,0,-1,1035,1044,0,0
-182,-20,0,0,0,0,0,0,0,0,0,-1,1042,1044,0,0
-175,-20,0,0,0,0,0,0,0,0,0,-1,1049,1044,0,0
-168,-20,0,0,0,0,0,0,0,0,0,-1,1056,1044,0,0
-161,-20,0,0,0,0,0,0,0,0,0,-1,1063,1044,0,0
-154,-20,0,0,0,0,0,0,0,0,0,-1,1070,1044,0,0
-147,-20,0,0,0,0,0,0,0,0,0,-1,1077,1044,0,0
-140,-20,0,0,0,0,0,0,0,0,0,-1,1084,1044,0,0
-133,-20,0,0,0,0,0,0,0,0,0,-1,1091,1044,0,0
-126,-20,0,0,0,0,0,0,0,0,0,-1,1098,1044,0,0
-119,-20,0,0,0,0,0,0,0,0,0,-1,1105,1044,0,0
-112,-20,0,0,0,0,0,0,0,0,0,-1,1112,1044,0,0
-105,-20,0,0,0,0,0,0,0,0,0,-1,1119,1044,0,0
-98,-20,0,0,0,0,0,0,0,0,0,-1,1126,1044,0,0
-91,-20,0,0,0,0,0,0,0,0,0,-1,1133,1044,0,0
-84,-20,0,0,0,0,0,0,0,0,0,-1,1140,1044,0,0
-77,-20,0,0,0,0,0,0,0,0,0,-1,1147,1044,0,0
-70,-20,0,0,0,0,0,0,0,0,0,-1,1154,1044,0,0
-63,-20,0,0,0,0,0,0,0,0,0,-1,1161,1044,0,0
-56,-20,0,0,0,0,0,0,0,0,0,-1,1168,1044,0,0
-49,-20,0,0,0,0,0,0,0,0,0,-1,1175,1044,0,0
-42,-20,0,0,0,0,0,0,0,0,0,-1,1182,1044,0,0
-35,-20,0,0,0,0,0,0,0,0,0,-1,1189,1044,0,0
-28,-20,0,0,0,0,0,0,0,0,0,-1,1196,1044,0,0
-21,-20,0,0,0,0,0,0,0,0,0,-1,1203,1044,0,0
-14,-20,0,0,0,0,0,0,0,0,0,-1,1210,1044,0,0
-7,-20,0,0,0,0,0,0,0,0,0,-1,1217,1044,0,0
0,-20,0,0,0,0,0,0,0,0,0,-1,1224,1044,0,0
7,-20,0,0,0,0,0,0,0,0,0,-1,1231,1044,0,0
14,-20,0,0,0,0,0,0,0,0,0,-1,1238,1044,0,0
21,-20,0,0,0,0,0,0,0,0,0,-1,1245,1044,0,0
28,-20,0,0,0,0,0,0,0,0,0,-1,1252,1044,0,0
35,-20,0,0,0,0,0,0,0,0,0,-1,1259,1044,0,0
42,-20,0,0,0,0,0,0,0,0,0,-1,1266,1044,0,0
49,-20,0,0,0,0,0,0,0,0,0,-1,1273,1044,0,0
56,-20,0,0,0,0,0,0,0,0,0,-1,1280,1044,0,0
63,-20,0,0,0,0,0,0,0,0,0,-1,1287,1044,0,0
70,-20,0,0,0,0,0,0,0,0,0,-1,1294,1044,0,0
77,-20,0,0,0,0,0,0,0,0,0,-1,1301,1044,0,0
84,-20,0,0,0,0,0,0,0,0,0,-1,1308,1044,0,0
91,-20,0,0,0,0,0,0,0,0,0,-1,1315,1044,0,0
98,-20,0,0,0,0,0,0,0,0,0,-1,1322,1044,0,0
105,-20,0,0,0,0,0,0,0,0,0,-1,1329,1044,0,0
112,-20,0,0,0,0,0,0,0,0,0,-1,1336,1044,0,0
119,-20,0,0,0,0,0,0,0,0,0,-1,1343,1044,0,0
126,-20,0,0,0,0,0,0,0,0,0,-1,1350,1044,0,0
133,-20,0,0,0,0,0,0,0,0,0,-1,1357,1044,0,0
140,-20,0,0,0,0,0,0,0,0,0,-1,1364,1044,0,0
147,-20,0,0,0,0,0,0,0,0,0,-1,1371,1044,0,0
154,-20,0,0,0,0,0,0,0,0,0,-1,1378,1044,0,0
161,-20,0,0,0,0,0,0,0,0,0,-1,1385,1044,0,0
168,-20,0,0,0,0,0,0,0,0,0,-1,1392,1044,0,0
175,-20,0,0,0,0,0,0,0,0,0,-1,1399,1044,0,0
182,-20,0,0,0,0,0,0,0,0,0,-1,1406,1044,0,0
189,-20,0,0,0,0,0,0,0,0,0,-1,1413,1044,0,0
196,-20,0,0,0,0,0,0,0,0,0,-1,1420,1044,0,0
203,-20,0,0,0,0,0,0,0,0,0,-1,1427,1044,0,0
210,-20,0,0,0,0,0,0,0,0,0,-1,1434,1044,0,0
217,-20,0,0,0,0,0,0,0,0,0,-1,1441,1044,0,0
224,-20,0,0,0,0,0,0,0,0,0,-1,1448,1044,0,0
231,-20,0,0,0,0,0,0,0,0,0,-1,1455,1044,0,0
238,-20,0,0,0,0,0,0,0,0,0,-1,1462,1044,0,0
245,-20,0,0,0,0,0,0,0,0,0,-1,1469,1044,0,0
252,-20,0,0,0,0,0,0,0,0,0,-1,1476,1044,0,0
259,-20,0,0,0,0,0,0,0,0,0,-1,1483,1044,0,0
266,-20,0,0,0,0,0,0,0,0,0,-1,1490,1044,0,0
273,-20,0,0,0,0,0,0,0,0,0,-1,1497,1044,0,0
280,-20,0,0,0,0,0,0,0,0,0,-1,1504,1044,0,0
287,-20,0,0,0,0,0,0,0,0,0,-1,1511,1044,0,0
294,-20,0,0,0,0,0,0,0,0,0,-1,1518,1044,0,0
301,-20,0,0,0,0,0,0,0,0,0,-1,1525,1044,0,0
308,-20,0,0,0,0,0,0,0,0,0,-1,1532,1044,0,0
315,-20,0,0,0,0,0,0,0,0,0,-1,1539,1044,0,0
322,-20,0,0,0,0,0,0,0,0,0,-1,1546,1044,0,0
329,-20,0,0,0,0,0,0,0,0,0,-1,1553,1044,0,0
336,-20,0,0,0,0,0,0,0,0,0,-1,1560,1044,0,0
343,-20,0,0,0,0,0,0,0,0,0,-1,1567,1044,0,0
350,-20,0,0,0,0,0,0,0,0,0,-1,1574,1044,0,0
357,-20,0,0,0,0,0,0,0,0,0,-1,1581,1044,0,0
364,-20,0,0,0,0,0,0,0,0,0,-1,1588,1044,0,0
371,-20,0,0,0,0,0,0,0,0,0,-1,1595,1044,0,0
378,-20,0,0,0,0,0,0,0,0,0,-1,1602,1044,0,0
385,-20,0,0,0,0,0,0,0,0,0,-1,1609,1044,0,0
392,-20,0,0,0,0,0,0,0,0,0,-1,1616,1044,0,0
399,-20,0,0,0,0,0,0,0,0,0,-1,1623,1044,0,0
406,-20,0,0,0,0,0,0,0,0,0,-1,1630,1044,0,0
413,-20,0,0,0,0,0,0,0,0,0,-1,1637,1044,0,0
420,-20,0,0,0,0,0,0,0,0,0,-1,1644,1044,0,0
427,-20,0,0,0,0,0,0,0,0,0,-1,1651,1044,0,0
434,-20,0,0,0,0,0,0,0,0,0,-1,1658,1044,0,0
441,-20,0,0,0,0,0,0,0,0,0,-1,1665,1044,0,0
448,-20,0,0,0,0,0,0,0,0,0,-1,1672,1044,0,0
455,-20,0,0,0,0,0,0,0,0,0,-1,1679,1044,0,0
462,-20,0,0,0,0,0,0,0,0,0,-1,1686,1044,0,0
469,-20,0,0,0,0,0,0,0,0,0,-1,1693,1044,0,0
476,-20,0,0,0,0,0,0,0,0,0,-1,1700,1044,0,0
483,-20,0,0,0,0,0,0,0,0,0,-1,1707,1044,0,0
490,-20,0,0,0,0,0,0,0,0,0,-1,1714,1044,0,0
497,-20,0,0,0,0,0,0,0,0,0,-1,1721,1044,0,0
504,-20,0,0,0,0,0,0,0,0,0,-1,1728,1044,0,0
511,-20,0,0,0,0,0,0,0,0,0,-1,1735,1044,0,0
518,-20,0,0,0,0,0,0,0,0,0,-1,1742,1044,0,0
525,-20,0,0,0,0,0,0,0,0,0,-1,1749,1044,0,0
532,-20,0,0,0,0,0,0,0,0,0,-1,1756,1044,0,0
539,-20,0,0,0,0,0,0,0,0,0,-1,1763,1044,0,0
546,-20,0,0,0,0,0,0,0,0,0,-1,1770,1044,0,0
553,-20,0,0,0,0,0,0,0,0,0,-1,1777,1044,0,0
560,-20,0,0,0,0,0,0,0,0,0,-1,1784,1044,0,0
567,-20,0,0,0,0,0,0,0,0,0,-1,1791,1044,0,0
574,-20,0,0,0,0,0,0,0,0,0,-1,1798,1044,0,0
581,-20,0,0,0,0,0,0,0,0,0,-1,1805,1044,0,0
588,-20,0,0,0,0,0,0,0,0,0,-1,1812,1044,0,0
595,-20,0,0,0,0,0,0,0,0,0,-1,1819,1044,0,0
602,-20,0,0,0,0,0,0,0,0,0,-1,1826,1044,0,0
609,-20,0,0,0,0,0,0,0,0,0,-1,1833,1044,0,0
616,-20,0,0,0,0,0,0,0,0,0,-1,1840,1044,0,0
623,-20,0,0,0,0,0,0,0,0,0,-1,1847,1044,0,0
630,-20,0,0,0,0,0,0,0,0,0,-1,1854,1044,0,0
637,-20,0,0,0,0,0,0,0,0,0,-1,1861,1044,0,0
644,-20,0,0,0,0,0,0,0,0,0,-1,1868,1044,0,0
651,-20,56.3259,3.06226,0.00312179,0.00488783,-0.00876871,0.0128179,-0.00480825,-0.83558,0.0105209,0.0422332,1875,1044,56.3259,-3.06225
658,-20,56.1836,2.67297,0.00242358,0.00396044,-0.00684085,0.0100759,-0.00369186,-0.841328,0.00822873,0.0429484,1882,1044,56.1836,-2.67296
665,-20,56.228,2.49146,0.00179238,0.00310597,-0.00491315,0.00740603,-0.00250768,-0.851845,0.00595202,0.0392418,1889,1044,56.228,-2.49143
672,-20,56.3046,2.53955,0.00119018,0.00255145,-0.00307613,0.00502134,-0.00127971,-0.894276,0.00384577,0.0258363,1896,1044,56.3046,-2.53958
679,-20,56.3422,2.46033,0.000591067,0.00209222,-0.00125043,0.00280005,-0.000116759,-1.0557,0.00190681,0.0264385,1903,1044,56.3421,-2.46033
686,-20,56.4607,2.2345,-0.000240992,0.00154374,0.000282415,0.00158737,-0.000284615,1.41754,0.00116476,0.0354217,1910,1044,56.4607,-2.23454
693,-20,56.53,2.01501,-0.000991233,0.00102367,0.00147069,0.00179888,-0.00176645,1.0857,0.00205847,0.0438723,1917,1044,56.53,-2.01501
700,-20,56.3652,2.3197,-0.00160173,0.000726756,0.00228277,0.00212504,-0.003,1.02121,0.00297328,0.0424959,1924,1044,56.3653,-2.31974
707,-20,56.3264,2.54456,-0.00225385,0.000701907,0.00270801,0.00230907,-0.00386101,1.03518,0.00359966,0.0350339,1931,1044,56.3265,-2.54453
714,-20,56.319,2.73047,-0.00303706,0.00100171,0.00292827,0.00253939,-0.00457474,1.08726,0.004163,0.0303229,1938,1044,56.319,-2.73045
721,-20,56.2302,2.72473,0,0,0,0,0,0,0,-1,1945,1044,56.2302,-2.72477
728,-20,56.5249,6.40991,0,0,0,0,0,0,0,-1,1952,1044,56.5249,-6.4099
735,-20,56.1848,6.3551,-0.00572609,0.00405266,0.00291134,0.00485379,-0.00652722,1.30227,0.00659447,0.0321693,1959,1044,56.1848,-6.35513
742,-20,55.9542,6.21716,-0.00598998,0.00526047,0.00285329,0.00594273,-0.00667225,1.33609,0.00728732,0.0262536,1966,1044,55.9543,-6.21711
749,-20,56.0454,6.16052,-0.00604719,0.00747234,0.00215854,0.00780861,-0.00638346,1.41625,0.00820755,0.0276889,1973,1044,56.0454,-6.16054
756,-20,56.0377,6.05676,-0.0055605,0.0107039,0.000805947,0.0107438,-0.00560034,1.5214,0.00959077,0.0185731,1980,1044,56.0378,-6.05676
763,-20,55.9474,5.91162,-0.00441907,0.0152576,-0.000942087,0.0153026,-0.00446407,-1.52306,0.0119705,0.0278686,1987,1044,55.9474,-5.91165
770,-20,55.8508,5.84741,-0.00219514,0.0212643,-0.0032081,0.0216951,-0.00262594,-1.43731,0.0154134,0.0237193,1994,1044,55.8508,-5.84743
777,-20,55.7217,5.6571,0.00196518,0.0301824,-0.00692892,0.031792,0.000355557,-1.34254,0.0210772,0.0153946,2001,1044,55.7217,-5.65709
784,-20,55.6978,5.54285,0.00707016,0.0403986,-0.0118043,0.0441559,0.00331289,-1.26264,0.0283975,0.0209617,2008,1044,55.6977,-5.54285
791,-20,55.7903,5.31885,0.0133422,0.0525149,-0.0183669,0.0597794,0.00607776,-1.19416,0.0379894,0.0364064,2015,1044,55.7902,-5.3188
798,-20,56.0186,4.87415,0.0211644,0.0670634,-0.0271331,0.079651,0.0085768,-1.13643,0.0504851,0.0412899,2022,1044,56.0187,-4.87412
805,-20,56.2388,4.41333,0.0306404,0.0843446,-0.0383663,0.104322,0.010663,-1.09072,0.0662803,0.0410041,2029,1044,56.2388,-4.41335
812,-20,56.3711,4.07776,0.0415289,0.105645,-0.0532473,0.13574,0.011434,-1.05637,0.0869331,0.0428596,2036,1044,56.3711,-4.07775
-700,-27,-39.6753,-1.33899,0,0,0,0,0,0,0,-1,524,1051,-39.6753,1.33898
-693,-27,-44.1997,3.07751,0,0,0,0,0,0,0,-1,531,1051,-44.1997,-3.07751
-686,-27,-43.5197,3.25916,0,0,0,0,0,0,0,-1,538,1051,-43.5197,-3.25913
-679,-27,-42.9789,3.57654,0,0,0,0,0,0,0,-1,545,1051,-42.9789,-3.57655
-672,-27,-43.0731,1.41663,0,0,0,0,0,0,0,-1,552,1051,-43.0731,-1.41669
-665,-27,-43.1937,3.99805,0,0,0,0,0,0,0,-1,559,1051,-43.1936,-3.99799
-658,-27,-41.8149,2.69336,0.00976585,0.0231296,0.0133164,0.0313465,0.00154896,1.01793,0.0204009,0.0465908,566,1051,-41.8149,-2.69342
-651,-27,-41.9459,2.66626,0.00583519,0.021597,0.00986077,0.0263393,0.00109297,1.12253,0.0172068,0.0359673,573,1051,-41.9459,-2.66631
-644,-27,-42.061,2.6759,0.00244004,0.0188592,0.00673668,0.0212694,2.98237e-05,1.22721,0.0141697,0.0180349,580,1051,-42.061,-2.67592
-637,-27,-42.1244,2.7876,0.000772638,0.015931,0.00315396,0.016561,0.00014259,1.37363,0.0109935,0.0155759,587,1051,-42.1244,-2.78756
-630,-27,-42.2338,3.12952,-0.000994268,0.0122858,0.00112119,0.0123798,-0.00108826,1.48716,0.00863884,0.0197522,594,1051,-42.2338,-3.12956
-623,-27,-42.2487,3.38171,-0.00216933,0.00873732,-0.000161578,0.00873971,-0.00217172,-1.55599,0.0066693,0.0174667,601,1051,-42.2487,-3.38166
-616,-27,-42.2352,3.60571,-0.00177659,0.00567154,-0.00124055,0.00587273,-0.00197778,-1.41002,0.00471478,0.0154393,608,1051,-42.2352,-3.6057
-609,-27,-42.2493,3.82117,-0.00114969,0.00324533,-0.00225677,0.00419775,-0.00210211,-1.17145,0.0037037,0.0152424,615,1051,-42.2493,-3.8212
-602,-27,-42.2098,4.00427,-0.000921887,0.00160504,-0.00309002,0.00367992,-0.00299677,-0.979469,0.00386151,0.013892,622,1051,-42.2098,-4.00425
-595,-27,-42.2586,4.13904,-0.00101064,0.000547305,-0.00337414,0.00323123,-0.00369456,-0.898843,0.00400158,0.0177915,629,1051,-42.2586,-4.13906
-588,-27,-42.4769,4.21741,0,0,0,0,0,0,0,-1,636,1051,-42.4768,-4.21743
-581,-27,-42.166,0.735718,-0.000301648,-0.000268178,-0.0035595,0.00327463,-0.00384445,-0.787749,0.00411459,0.0235751,643,1051,-42.166,-0.735677
-574,-27,-42.1896,0.834961,-0.000228466,-0.000224807,-0.00348983,0.0032632,-0.00371647,-0.78566,0.00403255,0.0365736,650,1051,-42.1896,-0.834992
-567,-27,-42.2586,0.884033,-0.000393427,0.000106381,-0.00334616,0.00321196,-0.00349901,-0.822671,0.00387576,0.044629,657,1051,-42.2586,-0.884078
-560,-27,-42.1895,1.01843,-0.000690875,0.000631166,-0.00316087,0.0031994,-0.00325911,-0.888476,0.00372887,0.0439363,664,1051,-42.1895,-1.01841
-553,-27,-42.0456,0.562866,-0.00107708,0.00111771,-0.003022,0.00323539,-0.00319477,-0.959563,0.00371248,0.0406166,671,1051,-42.0456,-0.562835
-546,-27,-42.1515,0.655884,-0.00144192,0.00120888,-0.00310434,0.00325892,-0.00349196,-0.987159,0.0038984,0.0425049,678,1051,-42.1515,-0.655937
-539,-27,-42.2329,0.575195,-0.00193098,0.000605297,-0.00398991,0.00352376,-0.00484944,-0.939267,0.00485442,0.0457059,685,1051,-42.2329,-0.575186
-532,-27,-42.2264,0.394775,-0.00248608,0.000382096,-0.00463047,0.00379547,-0.00589945,-0.935567,0.00564113,0.0456854,692,1051,-42.2264,-0.394804
-525,-27,0,0,0,0,0,0,0,0,0,-1,699,1051,0,0
-518,-27,0,0,0,0,0,0,0,0,0,-1,706,1051,0,0
-511,-27,0,0,0,0,0,0,0,0,0,-1,713,1051,0,0
-504,-27,0,0,0,0,0,0,0,0,0,-1,720,1051,0,0
-497,-27,0,0,0,0,0,0,0,0,0,-1,727,1051,0,0
-490,-27,0,0,0,0,0,0,0,0,0,-1,734,1051,0,0
-483,-27,0,0,0,0,0,0,0,0,0,-1,741,1051,0,0
-476,-27,0,0,0,0,0,0,0,0,0,-1,748,1051,0,0
-469,-27,0,0,0,0,0,0,0,0,0,-1,755,1051,0,0
-462,-27,0,0,0,0,0,0,0,0,0,-1,762,1051,0,0
-455,-27,0,0,0,0,0,0,0,0,0,-1,769,1051,0,0
-448,-27,0,0,0,0,0,0,0,0,0,-1,776,1051,0,0
-441,-27,0,0,0,0,0,0,0,0,0,-1,783,1051,0,0
-434,-27,0,0,0,0,0,0,0,0,0,-1,790,1051,0,0
-427,-27,0,0,0,0,0,0,0,0,0,-1,797,1051,0,0
-420,-27,0,0,0,0,0,0,0,0,0,-1,804,1051,0,0
-413,-27,0,0,0,0,0,0,0,0,0,-1,811,1051,0,0
-406,-27,0,0,0,0,0,0,0,0,0,-1,818,1051,0,0
-399,-27,0,0,0,0,0,0,0,0,0,-1,825,1051,0,0
-392,-27,0,0,0,0,0,0,0,0,0,-1,832,1051,0,0
-385,-27,0,0,0,0,0,0,0,0,0,-1,839,1051,0,0
-378,-27,0,0,0,0,0,0,0,0,0,-1,846,1051,0,0
-371,-27,0,0,0,0,0,0,0,0,0,-1,853,1051,0,0
-364,-27,0,0,0,0,0,0,0,0,0,-1,860,1051,0,0
-357,-27,0,0,0,0,0,0,0,0,0,-1,867,1051,0,0
-350,-27,0,0,0,0,0,0,0,0,0,-1,874,1051,0,0
-343,-27,0,0,0,0,0,0,0,0,0,-1,881,1051,0,0
-336,-27,0,0,0,0,0,0,0,0,0,-1,888,1051,0,0
-329,-27,0,0,0,0,0,0,0,0,0,-1,895,1051,0,0
-322,-27,0,0,0,0,0,0,0,0,0,-1,902,1051,0,0
-315,-27,0,0,0,0,0,0,0,0,0,-1,909,1051,0,0
-308,-27,0,0,0,0,0,0,0,0,0,-1,916,1051,0,0
-301,-27,0,0,0,0,0,0,0,0,0,-1,923,1051,0,0
-294,-27,0,0,0,0,0,0,0,0,0,-1,930,1051,0,0
-287,-27,0,0,0,0,0,0,0,0,0,-1,937,1051,0,0
-280,-27,0,0,0,0,0,0,0,0,0,-1,944,1051,0,0
-273,-27,0,0,0,0,0,0,0,0,0,-1,951,1051,0,0
-266,-27,0,0,0,0,0,0,0,0,0,-1,958,1051,0,0
-259,-27,0,0,0,0,0,0,0,0,0,-1,965,1051,0,0
-252,-27,0,0,0,0,0,0,0,0,0,-1,972,1051,0,0
-245,-27,0,0,0,0,0,0,0,0,0,-1,979,1051,0,0
-238,-27,0,0,0,0,0,0,0,0,0,-1,986,1051,0,0
-231,-27,0,0,0,0,0,0,0,0,0,-1,993,1051,0,0
-224,-27,0,0,0,0,0,0,0,0,0,-1,1000,1051,0,0
-217,-27,0,0,0,0,0,0,0,0,0,-1,1007,1051,0,0
-210,-27,0,0,0,0,0,0,0,0,0,-1,1014,1051,0,0
-203,-27,0,0,0,0,0,0,0,0,0,-1,1021,1051,0,0
-196,-27,0,0,0,0,0,0,0,0,0,-1,1028,1051,0,0
-189,-27,0,0,0,0,0,0,0,0,0,-1,1035,1051,0,0
-182,-27,0,0,0,0,0,0,0,0,0,-1,1042,1051,0,0
-175,-27,0,0,0,0,0,0,0,0,0,-1,1049,1051,0,0
-168,-27,0,0,0,0,0,0,0,0,0,-1,1056,1051,0,0
-161,-27,0,0,0,0,0,0,0,0,0,-1,1063,1051,0,0
-154,-27,0,0,0,0,0,0,0,0,0,-1,1070,1051,0,0
-147,-27,0,0,0,0,0,0,0,0,0,-1,1077,1051,0,0
-140,-27,0,0,0,0,0,0,0,0,0,-1,1084,1051,0,0
-133,-27,0,0,0,0,0,0,0,0,0,-1,1091,1051,0,0
-126,-27,0,0,0,0,0,0,0,0,0,-1,1098,1051,0,0
-119,-27,0,0,0,0,0,0,0,0,0,-1,1105,1051,0,0
-112,-27,0,0,0,0,0,0,0,0,0,-1,1112,1051,0,0
-105,-27,0,0,0,0,0,0,0,0,0,-1,1119,1051,0,0
-98,-27,0,0,0,0,0,0,0,0,0,-1,1126,1051,0,0
-91,-27,0,0,0,0,0,0,0,0,0,-1,1133,1051,0,0
-84,-27,0,0,0,0,0,0,0,0,0,-1,1140,1051,0,0
-77,-27,0,0,0,0,0,0,0,0,0,-1,1147,1051,0,0
-70,-27,0,0,0,0,0,0,0,0,0,-1,1154,1051,0,0
-63,-27,0,0,0,0,0,0,0,0,0,-1,1161,1051,0,0
-56,-27,0,0,0,0,0,0,0,0,0,-1,1168,1051,0,0
-49,-27,0,0,0,0,0,0,0,0,0,-1,1175,1051,0,0
-42,-27,0,0,0,0,0,0,0,0,0,-1,1182,1051,0,0
-35,-27,0,0,0,0,0,0,0,0,0,-1,1189,1051,0,0
-28,-27,0,0,0,0,0,0,0,0,0,-1,1196,1051,0,0
-21,-27,0,0,0,0,0,0,0,0,0,-1,1203,1051,0,0
-14,-27,0,0,0,0,0,0,0,0,0,-1,1210,1051,0,0
-7,-27,0,0,0,0,0,0,0,0,0,-1,1217,1051,0,0
0,-27,0,0,0,0,0,0,0,0,0,-1,1224,1051,0,0
7,-27,0,0,0,0,0,0,0,0,0,-1,1231,1051,0,0
14,-27,0,0,0,0,0,0,0,0,0,-1,1238,1051,0,0
21,-27,0,0,0,0,0,0,0,0,0,-1,1245,1051,0,0
28,-27,0,0,0,0,0,0,0,0,0,-1,1252,1051,0,0
35,-27,0,0,0,0,0,0,0,0,0,-1,1259,1051,0,0
42,-27,0,0,0,0,0,0,0,0,0,-1,1266,1051,0,0
49,-27,0,0,0,0,0,0,0,0,0,-1,1273,1051,0,0
56,-27,0,0,0,0,0,0,0,0,0,-1,1280,1051,0,0
63,-27,0,0,0,0,0,0,0,0,0,-1,1287,1051,0,0
70,-27,0,0,0,0,0,0,0,0,0,-1,1294,1051,0,0
77,-27,0,0,0,0,0,0,0,0,0,-1,1301,1051,0,0
84,-27,0,0,0,0,0,0,0,0,0,-1,1308,1051,0,0
91,-27,0,0,0,0,0,0,0,0,0,-1,1315,1051,0,0
98,-27,0,0,0,0,0,0,0,0,0,-1,1322,1051,0,0
105,-27,0,0,0,0,0,0,0,0,0,-1,1329,1051,0,0
112,-27,0,0,0,0,0,0,0,0,0,-1,1336,1051,0,0
119,-27,0,0,0,0,0,0,0,0,0,-1,1343,1051,0,0
126,-27,0,0,0,0,0,0,0,0,0,-1,1350,1051,0,0
133,-27,0,0,0,0,0,0,0,0,0,-1,1357,1051,0,0
140,-27,0,0,0,0,0,0,0,0,0,-1,1364,1051,0,0
147,-27,0,0,0,0,0,0,0,0,0,-1,1371,1051,0,0
154,-27,0,0,0,0,0,0,0,0,0,-1,1378,1051,0,0
161,-27,0,0,0,0,0,0,0,0,0,-1,1385,1051,0,0
168,-27,0,0,0,0,0,0,0,0,0,-1,1392,1051,0,0
175,-27,0,0,0,0,0,0,0,0,0,-1,1399,1051,0,0
182,-27,0,0,0,0,0,0,0,0,0,-1,1406,1051,0,0
189,-27,0,0,0,0,0,0,0,0,0,-1,1413,1051,0,0
196,-27,0,0,0,0,0,0,0,0,0,-1,1420,1051,0,0
203,-27,0,0,0,0,0,0,0,0,0,-1,1427,1051,0,0
210,-27,0,0,0,0,0,0,0,0,0,-1,1434,1051,0,0
217,-27,0,0,0,0,0,0,0,0,0,-1,1441,1051,0,0
224,-27,0,0,0,0,0,0,0,0,0,-1,1448,1051,0,0
231,-27,0,0,0,0,0,0,0,0,0,-1,1455,1051,0,0
238,-27,0,0,0,0,0,0,0,0,0,-1,1462,1051,0,0
245,-27,0,0,0,0,0,0,0,0,0,-1,1469,1051,0,0
252,-27,0,0,0,0,0,0,0,0,0,-1,1476,1051,0,0
259,-27,0,0,0,0,0,0,0,0,0,-1,1483,1051,0,0
266,-27,0,0,0,0,0,0,0,0,0,-1,1490,1051,0,0
273,-27,0,0,0,0,0,0,0,0,0,-1,1497,1051,0,0
280,-27,0,0,0,0,0,0,0,0,0,-1,1504,1051,0,0
287,-27,0,0,0,0,0,0,0,0,0,-1,1511,1051,0,0
294,-27,0,0,0,0,0,0,0,0,0,-1,1518,1051,0,0
301,-27,0,0,0,0,0,0,0,0,0,-1,1525,1051,0,0
308,-27,0,0,0,0,0,0,0,0,0,-1,1532,1051,0,0
315,-27,0,0,0,0,0,0,0,0,0,-1,1539,1051,0,0
322,-27,0,0,0,0,0,0,0,0,0,-1,1546,1051,0,0
329,-27,0,0,0,0,0,0,0,0,0,-1,1553,1051,0,0
336,-27,0,0,0,0,0,0,0,0,0,-1,1560,1051,0,0
343,-27,0,0,0,0,0,0,0,0,0,-1,1567,1051,0,0
350,-27,0,0,0,0,0,0,0,0,0,-1,1574,1051,0,0
357,-27,0,0,0,0,0,0,0,0,0,-1,1581,1051,0,0
364,-27,0,0,0,0,0,0,0,0,0,-1,1588,1051,0,0
371,-27,0,0,0,0,0,0,0,0,0,-1,1595,1051,0,0
378,-27,0,0,0,0,0,0,0,0,0,-1,1602,1051,0,0
385,-27,0,0,0,0,0,0,0,0,0,-1,1609,1051,0,0
392,-27,0,0,0,0,0,0,0,0,0,-1,1616,1051,0,0
399,-27,0,0,0,0,0,0,0,0,0,-1,1623,1051,0,0
406,-27,0,0,0,0,0,0,0,0,0,-1,1630,1051,0,0
413,-27,0,0,0,0,0,0,0,0,0,-1,1637,1051,0,0
420,-27,0,0,0,0,0,0,0,0,0,-1,1644,1051,0,0
427,-27,0,0,0,0,0,0,0,0,0,-1,1651,1051,0,0
434,-27,0,0,0,0,0,0,0,0,0,-1,1658,1051,0,0
441,-27,0,0,0,0,0,0,0,0,0,-1,1665,1051,0,0
448,-27,0,0,0,0,0,0,0,0,0,-1,1672,1051,0,0
455,-27,0,0,0,0,0,0,0,0,0,-1,1679,1051,0,0
462,-27,0,0,0,0,0,0,0,0,0,-1,1686,1051,0,0
469,-27,0,0,0,0,0,0,0,0,0,-1,1693,1051,0,0
476,-27,0,0,0,0,0,0,0,0,0,-1,1700,1051,0,0
483,-27,0,0,0,0,0,0,0,0,0,-1,1707,1051,0,0
490,-27,0,0,0,0,0,0,0,0,0,-1,1714,1051,0,0
497,-27,0,0,0,0,0,0,0,0,0,-1,1721,1051,0,0
504,-27,0,0,0,0,0,0,0,0,0,-1,1728,1051,0,0
511,-27,0,0,0,0,0,0,0,0,0,-1,1735,1051,0,0
518,-27,0,0,0,0,0,0,0,0,0,-1,1742,1051,0,0
525,-27,0,0,0,0,0,0,0,0,0,-1,1749,1051,0,0
532,-27,0,0,0,0,0,0,0,0,0,-1,1756,1051,0,0
539,-27,0,0,0,0,0,0,0,0,0,-1,1763,1051,0,0
546,-27,0,0,0,0,0,0,0,0,0,-1,1770,1051,0,0
553,-27,0,0,0,0,0,0,0,0,0,-1,1777,1051,0,0
560,-27,0,0,0,0,0,0,0,0,0,-1,1784,1051,0,0
567,-27,0,0,0,0,0,0,0,0,0,-1,1791,1051,0,0
574,-27,0,0,0,0,0,0,0,0,0,-1,1798,1051,0,0
581,-27,0,0,0,0,0,0,0,0,0,-1,1805,1051,0,0
588,-27,0,0,0,0,0,0,0,0,0,-1,1812,1051,0,0
595,-27,0,0,0,0,0,0,0,0,0,-1,1819,1051,0,0
602,-27,0,0,0,0,0,0,0,0,0,-1,1826,1051,0,0
609,-27,0,0,0,0,0,0,0,0,0,-1,1833,1051,0,0
616,-27,0,0,0,0,0,0,0,0,0,-1,1840,1051,0,0
623,-27,0,0,0,0,0,0,0,0,0,-1,1847,1051,0,0
630,-27,0,0,0,0,0,0,0,0,0,-1,1854,1051,0,0
637,-27,0,0,0,0,0,0,0,0,0,-1,1861,1051,0,0
644,-27,0,0,0,0,0,0,0,0,0,-1,1868,1051,0,0
651,-27,56.4861,2.87158,0.0021077,0.00686601,-0.00895113,0.0137488,-0.00477507,-0.915292,0.0111052,0.0421299,1875,1051,56.486,-2.87153
658,-27,56.358,2.65869,0.00169548,0.00522721,-0.00682274,0.0105089,-0.00358621,-0.91203,0.00845866,0.0401953,1882,1051,56.358,-2.65875
665,-27,56.297,2.49243,0.00128131,0.00386551,-0.00481893,0.00756256,-0.00241574,-0.916382,0.006011,0.0362718,1889,1051,56.297,-2.49245
672,-27,56.3116,2.50513,0.000846554,0.00288386,-0.00300433,0.00503754,-0.00130712,-0.948847,0.00386839,0.0288164,1896,1051,56.3116,-2.50512
679,-27,56.2366,2.53406,0.000380549,0.00206784,-0.00124981,0.0027321,-0.00028371,-1.08228,0.00192296,0.0278817,1903,1051,56.2366,-2.5341
686,-27,56.3368,2.46948,-0.000337463,0.00128295,0.000198222,0.00130684,-0.000361359,1.45082,0.00101339,0.0385303,1910,1051,56.3368,-2.46949
693,-27,56.5581,2.18188,-0.00100404,0.000637752,0.00129576,0.00135076,-0.00171705,1.06775,0.0017754,0.0438801,1917,1051,56.5581,-2.18187
700,-27,56.265,2.55737,-0.00154464,0.000293904,0.00204167,0.00161371,-0.00286444,0.996931,0.00261886,0.0412536,1924,1051,56.265,-2.55734
707,-27,56.275,2.61157,-0.00213388,0.000222154,0.00250102,0.0018087,-0.00372043,1.00549,0.00325523,0.0270907,1931,1051,56.2751,-2.6116
714,-27,56.3068,2.64539,-0.00286114,0.000467644,0.00278494,0.00204765,-0.00444114,1.05474,0.00383032,0.0241046,1938,1051,56.3068,-2.6454
721,-27,56.2712,2.70874,0,0,0,0,0,0,0,-1,1945,1051,56.2713,-2.70876
728,-27,56.5095,6.52942,0,0,0,0,0,0,0,-1,1952,1051,56.5096,-6.52947
735,-27,56.0031,6.4696,-0.00546303,0.00334768,0.00294569,0.00424179,-0.00635713,1.27611,0.00615978,0.0337062,1959,1051,56.0031,-6.46958
742,-27,55.8115,6.354,-0.00567495,0.004511,0.00302233,0.00534026,-0.00650421,1.30301,0.0068494,0.0211332,1966,1051,55.8115,-6.35397
749,-27,55.8799,6.17932,-0.00569599,0.00666192,0.00244072,0.0071265,-0.00616057,1.3827,0.00767805,0.0160289,1973,1051,55.8799,-6.1793
756,-27,55.8445,5.99963,-0.00525516,0.00967131,0.00129248,0.0097824,-0.00536625,1.48506,0.00886909,0.0151917,1980,1051,55.8445,-5.9996
763,-27,55.777,5.79993,-0.00420725,0.0139496,-0.000173163,0.0139512,-0.0042089,-1.56126,0.0109762,0.0158775,1987,1051,55.777,-5.79996
770,-27,55.7053,5.61047,-0.00215241,0.0196259,-0.00212455,0.0198312,-0.00235773,-1.47445,0.0140727,0.0173527,1994,1051,55.7053,-5.61043
777,-27,55.6042,5.56226,0.00162692,0.0278974,-0.0054096,0.0289677,0.000556591,-1.37546,0.019129,0.01964,2001,1051,55.6042,-5.56228
784,-27,55.5095,5.53906,0.0062222,0.0373734,-0.00971968,0.0401573,0.00343829,-1.29184,0.0257022,0.0283574,2008,1051,55.5096,-5.53901
791,-27,55.5459,5.31982,0.0118161,0.0485841,-0.0154992,0.0542458,0.00615436,-1.22056,0.034297,0.0428177,2015,1051,55.5459,-5.31984
798,-27,55.9417,5.1571,0.0187514,0.0620984,-0.0232794,0.0722317,0.00861815,-1.16024,0.0455543,0.0483263,2022,1051,55.9417,-5.15707
805,-27,56.2468,5.02124,0,0,0,0,0,0,0,-1,2029,1051,56.2467,-5.02127
812,-27,56.4663,3.10474,0,0,0,0,0,0,0,-1,2036,1051,56.4664,-3.10474
-700,-34,-40.1245,-0.739014,0,0,0,0,0,0,0,-1,524,1058,-40.1245,0.738998
-693,-34,-39.1149,-0.218628,0.0474809,-0.000362782,0.0494061,0.0784519,-0.0313337,0.559939,0.0653017,0.0439845,531,1058,-39.1149,0.218667
-686,-34,-42.3441,3.20117,0,0,0,0,0,0,0,-1,538,1058,-42.3441,-3.20119
-679,-34,-42.5045,0.0328369,0,0,0,0,0,0,0,-1,545,1058,-42.5045,-0.0328697
-672,-34,-42.4163,0.485718,0.0230387,0.0211051,0.0222398,0.0443327,-0.000188824,0.763676,0.0296183,0.0481267,552,1058,-42.4163,-0.485746
-665,-34,-42.3668,1.07312,0.0165087,0.0230653,0.0169565,0.0370576,0.00251652,0.880888,0.0239104,0.0465246,559,1058,-42.3668,-1.07308
-658,-34,-42.0202,1.90027,0.0111208,0.023087,0.0127481,0.0311862,0.0030216,1.00481,0.0198604,0.0421028,566,1058,-42.0202,-1.90023
-651,-34,-41.7108,2.35376,0.00694052,0.0215035,0.00929451,0.0260291,0.00241489,1.11767,0.0166064,0.0298987,573,1058,-41.7108,-2.35375
-644,-34,-41.8993,2.52698,0.00337623,0.0186973,0.00622007,0.0209045,0.00116899,1.2298,0.0135635,0.0158486,580,1058,-41.8993,-2.52701
-637,-34,-41.928,2.72205,0.0016262,0.0156509,0.00267016,0.0161421,0.00113503,1.38888,0.0104037,0.0169746,587,1058,-41.928,-2.72207
-630,-34,-41.9638,3.05859,-0.000218934,0.0117666,0.00073701,0.0118118,-0.000264084,1.50961,0.00796402,0.0181797,594,1058,-41.9638,-3.05862
-623,-34,-41.9432,3.33948,-0.00148518,0.00820842,-0.000440964,0.00822844,-0.00150519,-1.52543,0.0060501,0.0148204,601,1058,-41.9432,-3.33951
-616,-34,-41.9318,3.62537,-0.00127971,0.00527247,-0.00138268,0.0055523,-0.00155954,-1.37111,0.00431634,0.0219528,608,1058,-41.9318,-3.62542
-609,-34,-41.9285,3.87146,-0.000683813,0.00273494,-0.00226773,0.00386539,-0.00181426,-1.10836,0.00334966,0.0212021,615,1058,-41.9285,-3.87143
-602,-34,-41.9334,4.05591,-0.000491937,0.00100294,-0.00299673,0.00334404,-0.00283304,-0.907613,0.0035704,0.0161363,622,1058,-41.9334,-4.05587
-595,-34,-42.0451,4.2229,-0.00060294,-2.02108e-05,-0.00323403,0.00293556,-0.00355871,-0.830324,0.00375521,0.0183491,629,1058,-42.0451,-4.22292
-588,-34,-42.3291,4.33545,0,0,0,0,0,0,0,-1,636,1058,-42.3291,-4.33543
-581,-34,-42.1554,0.756836,-1.32539e-05,-0.0007729,-0.00334789,0.00297629,-0.00376245,-0.728914,0.00389943,0.0239224,643,1058,-42.1554,-0.756805
-574,-34,-42.1406,0.822021,7.63957e-05,-0.000696687,-0.00322531,0.00293824,-0.00355853,-0.725759,0.00375661,0.036366,650,1058,-42.1405,-0.822021
-567,-34,-42.1512,0.889282,-2.64538e-05,-0.000342349,-0.00305573,0.00287541,-0.00324421,-0.759577,0.0035353,0.0428677,657,1058,-42.1512,-0.889328
-560,-34,-42.1484,0.783569,-0.00024386,0.00019884,-0.00288662,0.00287258,-0.0029176,-0.823664,0.003343,0.0411431,664,1058,-42.1485,-0.783547
-553,-34,-42.0527,0.570679,-0.000494435,0.000707493,-0.00283331,0.00300288,-0.00278982,-0.889903,0.00334517,0.0413983,671,1058,-42.0527,-0.57064
-546,-34,-42.1144,0.599731,-0.000642683,0.000833468,-0.00312629,0.00330762,-0.00311684,-0.901319,0.00370971,0.0431035,678,1058,-42.1145,-0.599704
-539,-34,-42.1788,0.528076,-0.000821205,0.000149632,-0.00449055,0.00418092,-0.0048525,-0.839238,0.00522025,0.0407584,685,1058,-42.1788,-0.5281
-532,-34,-42.1741,0.098999,-0.00114803,-0.000186694,-0.00564996,0.005003,-0.00633773,-0.827833,0.00656267,0.0401751,692,1058,-42.1741,-0.0990509
-525,-34,0,0,0,0,0,0,0,0,0,-1,699,1058,0,0
-518,-34,0,0,0,0,0,0,0,0,0,-1,706,1058,0,0
-511,-34,0,0,0,0,0,0,0,0,0,-1,713,1058,0,0
-504,-34,0,0,0,0,0,0,0,0,0,-1,720,1058,0,0
-497,-34,0,0,0,0,0,0,0,0,0,-1,727,1058,0,0
-490,-34,0,0,0,0,0,0,0,0,0,-1,734,1058,0,0
-483,-34,0,0,0,0,0,0,0,0,0,-1,741,1058,0,0
-476,-34,0,0,0,0,0,0,0,0,0,-1,748,1058,0,0
-469,-34,0,0,0,0,0,0,0,0,0,-1,755,1058,0,0
-462,-34,0,0,0,0,0,0,0,0,0,-1,762,1058,0,0
-455,-34,0,0,0,0,0,0,0,0,0,-1,769,1058,0,0
-448,-34,0,0,0,0,0,0,0,0,0,-1,776,1058,0,0
-441,-34,0,0,0,0,0,0,0,0,0,-1,783,1058,0,0
-434,-34,0,0,0,0,0,0,0,0,0,-1,790,1058,0,0
-427,-34,0,0,0,0,0,0,0,0,0,-1,797,1058,0,0
-420,-34,0,0,0,0,0,0,0,0,0,-1,804,1058,0,0
-413,-34,0,0,0,0,0,0,0,0,0,-1,811,1058,0,0
-406,-34,0,0,0,0,0,0,0,0,0,-1,818,1058,0,0
-399,-34,0,0,0,0,0,0,0,0,0,-1,825,1058,0,0
-392,-34,0,0,0,0,0,0,0,0,0,-1,832,1058,0,0
-385,-34,0,0,0,0,0,0,0,0,0,-1,839,1058,0,0
-378,-34,0,0,0,0,0,0,0,0,0,-1,846,1058,0,0
-371,-34,0,0,0,0,0,0,0,0,0,-1,853,1058,0,0
-364,-34,0,0,0,0,0,0,0,0,0,-1,860,1058,0,0
-357,-34,0,0,0,0,0,0,0,0,0,-1,867,1058,0,0
-350,-34,0,0,0,0,0,0,0,0,0,-1,874,1058,0,0
-343,-34,0,0,0,0,0,0,0,0,0,-1,881,1058,0,0
-336,-34,0,0,0,0,0,0,0,0,0,-1,888,1058,0,0
-329,-34,0,0,0,0,0,0,0,0,0,-1,895,1058,0,0
-322,-34,0,0,0,0,0,0,0,0,0,-1,902,1058,0,0
-315,-34,0,0,0,0,0,0,0,0,0,-1,909,1058,0,0
-308,-34,0,0,0,0,0,0,0,0,0,-1,916,1058,0,0
-301,-34,0,0,0,0,0,0,0,0,0,-1,923,1058,0,0
-294,-34,0,0,0,0,0,0,0,0,0,-1,930,1058,0,0
-287,-34,0,0,0,0,0,0,0,0,0,-1,937,1058,0,0
-280,-34,0,0,0,0,0,0,0,0,0,-1,944,1058,0,0
-273,-34,0,0,0,0,0,0,0,0,0,-1,951,1058,0,0
-266,-34,0,0,0,0,0,0,0,0,0,-1,958,1058,0,0
-259,-34,0,0,0,0,0,0,0,0,0,-1,965,1058,0,0
-252,-34,0,0,0,0,0,0,0,0,0,-1,972,1058,0,0
-245,-34,0,0,0,0,0,0,0,0,0,-1,979,1058,0,0
-238,-34,0,0,0,0,0,0,0,0,0,-1,986,1058,0,0
-231,-34,0,0,0,0,0,0,0,0,0,-1,993,1058,0,0
-224,-34,0,0,0,0,0,0,0,0,0,-1,1000,1058,0,0
-217,-34,0,0,0,0,0,0,0,0,0,-1,1007,1058,0,0
-210,-34,0,0,0,0,0,0,0,0,0,-1,1014,1058,0,0
-203,-34,0,0,0,0,0,0,0,0,0,-1,1021,1058,0,0
-196,-34,0,0,0,0,0,0,0,0,0,-1,1028,1058,0,0
-189,-34,0,0,0,0,0,0,0,0,0,-1,1035,1058,0,0
-182,-34,0,0,0,0,0,0,0,0,0,-1,1042,1058,0,0
-175,-34,0,0,0,0,0,0,0,0,0,-1,1049,1058,0,0
-168,-34,0,0,0,0,0,0,0,0,0,-1,1056,1058,0,0
-161,-34,0,0,0,0,0,0,0,0,0,-1,1063,1058,0,0
-154,-34,0,0,0,0,0,0,0,0,0,-1,1070,1058,0,0
-147,-34,0,0,0,0,0,0,0,0,0,-1,1077,1058,0,0
-140,-34,0,0,0,0,0,0,0,0,0,-1,1084,1058,0,0
-133,-34,0,0,0,0,0,0,0,0,0,-1,1091,1058,0,0
-126,-34,0,0,0,0,0,0,0,0,0,-1,1098,1058,0,0
-119,-34,0,0,0,0,0,0,0,0,0,-1,1105,1058,0,0
-112,-34,0,0,0,0,0,0,0,0,0,-1,1112,1058,0,0
-105,-34,0,0,0,0,0,0,0,0,0,-1,1119,1058,0,0
-98,-34,0,0,0,0,0,0,0,0,0,-1,1126,1058,0,0
-91,-34,0,0,0,0,0,0,0,0,0,-1,1133,1058,0,0
-84,-34,0,0,0,0,0,0,0,0,0,-1,1140,1058,0,0
-77,-34,0,0,0,0,0,0,0,0,0,-1,1147,1058,0,0
-70,-34,0,0,0,0,0,0,0,0,0,-1,1154,1058,0,0
-63,-34,0,0,0,0,0,0,0,0,0,-1,1161,1058,0,0
-56,-34,0,0,0,0,0,0,0,0,0,-1,1168,1058,0,0
-49,-34,0,0,0,0,0,0,0,0,0,-1,1175,1058,0,0
-42,-34,0,0,0,0,0,0,0,0,0,-1,1182,1058,0,0
-35,-34,0,0,0,0,0,0,0,0,0,-1,1189,1058,0,0
-28,-34,0,0,0,0,0,0,0,0,0,-1,1196,1058,0,0
-21,-34,0,0,0,0,0,0,0,0,0,-1,1203,1058,0,0
-14,-34,0,0,0,0,0,0,0,0,0,-1,1210,1058,0,0
-7,-34,0,0,0,0,0,0,0,0,0,-1,1217,1058,0,0
0,-34,0,0,0,0,0,0,0,0,0,-1,1224,1058,0,0
7,-34,0,0,0,0,0,0,0,0,0,-1,1231,1058,0,0
14,-34,0,0,0,0,0,0,0,0,0,-1,1238,1058,0,0
21,-34,0,0,0,0,0,0,0,0,0,-1,1245,1058,0,0
28,-34,0,0,0,0,0,0,0,0,0,-1,1252,1058,0,0
35,-34,0,0,0,0,0,0,0,0,0,-1,1259,1058,0,0
42,-34,0,0,0,0,0,0,0,0,0,-1,1266,1058,0,0
49,-34,0,0,0,0,0,0,0,0,0,-1,1273,1058,0,0
56,-34,0,0,0,0,0,0,0,0,0,-1,1280,1058,0,0
63,-34,0,0,0,0,0,0,0,0,0,-1,1287,1058,0,0
70,-34,0,0,0,0,0,0,0,0,0,-1,1294,1058,0,0
77,-34,0,0,0,0,0,0,0,0,0,-1,1301,1058,0,0
84,-34,0,0,0,0,0,0,0,0,0,-1,1308,1058,0,0
91,-34,0,0,0,0,0,0,0,0,0,-1,1315,1058,0,0
98,-34,0,0,0,0,0,0,0,0,0,-1,1322,1058,0,0
105,-34,0,0,0,0,0,0,0,0,0,-1,1329,1058,0,0
112,-34,0,0,0,0,0,0,0,0,0,-1,1336,1058,0,0
119,-34,0,0,0,0,0,0,0,0,0,-1,1343,1058,0,0
126,-34,0,0,0,0,0,0,0,0,0,-1,1350,1058,0,0
133,-34,0,0,0,0,0,0,0,0,0,-1,1357,1058,0,0
140,-34,0,0,0,0,0,0,0,0,0,-1,1364,1058,0,0
147,-34,0,0,0,0,0,0,0,0,0,-1,1371,1058,0,0
154,-34,0,0,0,0,0,0,0,0,0,-1,1378,1058,0,0
161,-34,0,0,0,0,0,0,0,0,0,-1,1385,1058,0,0
168,-34,0,0,0,0,0,0,0,0,0,-1,1392,1058,0,0
175,-34,0,0,0,0,0,0,0,0,0,-1,1399,1058,0,0
182,-34,0,0,0,0,0,0,0,0,0,-1,1406,1058,0,0
189,-34,0,0,0,0,0,0,0,0,0,-1,1413,1058,0,0
196,-34,0,0,0,0,0,0,0,0,0,-1,1420,1058,0,0
203,-34,0,0,0,0,0,0,0,0,0,-1,1427,1058,0,0
210,-34,0,0,0,0,0,0,0,0,0,-1,1434,1058,0,0
217,-34,0,0,0,0,0,0,0,0,0,-1,1441,1058,0,0
224,-34,0,0,0,0,0,0,0,0,0,-1,1448,1058,0,0
231,-34,0,0,0,0,0,0,0,0,0,-1,1455,1058,0,0
238,-34,0,0,0,0,0,0,0,0,0,-1,1462,1058,0,0
245,-34,0,0,0,0,0,0,0,0,0,-1,1469,1058,0,0
252,-34,0,0,0,0,0,0,0,0,0,-1,1476,1058,0,0
259,-34,0,0,0,0,0,0,0,0,0,-1,1483,1058,0,0
266,-34,0,0,0,0,0,0,0,0,0,-1,1490,1058,0,0
273,-34,0,0,0,0,0,0,0,0,0,-1,1497,1058,0,0
280,-34,0,0,0,0,0,0,0,0,0,-1,1504,1058,0,0
287,-34,0,0,0,0,0,0,0,0,0,-1,1511,1058,0,0
294,-34,0,0,0,0,0,0,0,0,0,-1,1518,1058,0,0
301,-34,0,0,0,0,0,0,0,0,0,-1,1525,1058,0,0
308,-34,0,0,0,0,0,0,0,0,0,-1,1532,1058,0,0
315,-34,0,0,0,0,0,0,0,0,0,-1,1539,1058,0,0
322,-34,0,0,0,0,0,0,0,0,0,-1,1546,1058,0,0
329,-34,0,0,0,0,0,0,0,0,0,-1,1553,1058,0,0
336,-34,0,0,0,0,0,0,0,0,0,-1,1560,1058,0,0
343,-34,0,0,0,0,0,0,0,0,0,-1,1567,1058,0,0
350,-34,0,0,0,0,0,0,0,0,0,-1,1574,1058,0,0
357,-34,0,0,0,0,0,0,0,0,0,-1,1581,1058,0,0
364,-34,0,0,0,0,0,0,0,0,0,-1,1588,1058,0,0
371,-34,0,0,0,0,0,0,0,0,0,-1,1595,1058,0,0
378,-34,0,0,0,0,0,0,0,0,0,-1,1602,1058,0,0
385,-34,0,0,0,0,0,0,0,0,0,-1,1609,1058,0,0
392,-34,0,0,0,0,0,0,0,0,0,-1,1616,1058,0,0
399,-34,0,0,0,0,0,0,0,0,0,-1,1623,1058,0,0
406,-34,0,0,0,0,0,0,0,0,0,-1,1630,1058,0,0
413,-34,0,0,0,0,0,0,0,0,0,-1,1637,1058,0,0
420,-34,0,0,0,0,0,0,0,0,0,-1,1644,1058,0,0
427,-34,0,0,0,0,0,0,0,0,0,-1,1651,1058,0,0
434,-34,0,0,0,0,0,0,0,0,0,-1,1658,1058,0,0
441,-34,0,0,0,0,0,0,0,0,0,-1,1665,1058,0,0
448,-34,0,0,0,0,0,0,0,0,0,-1,1672,1058,0,0
455,-34,0,0,0,0,0,0,0,0,0,-1,1679,1058,0,0
462,-34,0,0,0,0,0,0,0,0,0,-1,1686,1058,0,0
469,-34,0,0,0,0,0,0,0,0,0,-1,1693,1058,0,0
476,-34,0,0,0,0,0,0,0,0,0,-1,1700,1058,0,0
483,-34,0,0,0,0,0,0,0,0,0,-1,1707,1058,0,0
490,-34,0,0,0,0,0,0,0,0,0,-1,1714,1058,0,0
497,-34,0,0,0,0,0,0,0,0,0,-1,1721,1058,0,0
504,-34,0,0,0,0,0,0,0,0,0,-1,1728,1058,0,0
511,-34,0,0,0,0,0,0,0,0,0,-1,1735,1058,0,0
518,-34,0,0,0,0,0,0,0,0,0,-1,1742,1058,0,0
525,-34,0,0,0,0,0,0,0,0,0,-1,1749,1058,0,0
532,-34,0,0,0,0,0,0,0,0,0,-1,1756,1058,0,0
539,-34,0,0,0,0,0,0,0,0,0,-1,1763,1058,0,0
546,-34,0,0,0,0,0,0,0,0,0,-1,1770,1058,0,0
553,-34,0,0,0,0,0,0,0,0,0,-1,1777,1058,0,0
560,-34,0,0,0,0,0,0,0,0,0,-1,1784,1058,0,0
567,-34,0,0,0,0,0,0,0,0,0,-1,1791,1058,0,0
574,-34,0,0,0,0,0,0,0,0,0,-1,1798,1058,0,0
581,-34,0,0,0,0,0,0,0,0,0,-1,1805,1058,0,0
588,-34,0,0,0,0,0,0,0,0,0,-1,1812,1058,0,0
595,-34,0,0,0,0,0,0,0,0,0,-1,1819,1058,0,0
602,-34,0,0,0,0,0,0,0,0,0,-1,1826,1058,0,0
609,-34,0,0,0,0,0,0,0,0,0,-1,1833,1058,0,0
616,-34,0,0,0,0,0,0,0,0,0,-1,1840,1058,0,0
623,-34,0,0,0,0,0,0,0,0,0,-1,1847,1058,0,0
630,-34,0,0,0,0,0,0,0,0,0,-1,1854,1058,0,0
637,-34,0,0,0,0,0,0,0,0,0,-1,1861,1058,0,0
644,-34,0,0,0,0,0,0,0,0,0,-1,1868,1058,0,0
651,-34,56.4557,2.87915,0.00105161,0.00765966,-0.00867962,0.0136429,-0.00493158,-0.967262,0.0111101,0.0427044,1875,1058,56.4557,-2.87913
658,-34,56.2914,2.60681,0.00092468,0.00551621,-0.00643919,0.0100566,-0.00361576,-0.956638,0.00818052,0.0419711,1882,1058,56.2913,-2.60678
665,-34,56.3062,2.33655,0.000729695,0.00382475,-0.0044454,0.00698428,-0.00242984,-0.952897,0.00564329,0.0388947,1889,1058,56.3061,-2.33653
672,-34,56.3298,2.29517,0.000465788,0.0026017,-0.00269393,0.00443163,-0.00136415,-0.974111,0.00349893,0.0360375,1896,1058,56.3298,-2.29517
679,-34,56.2914,2.37524,0.000139116,0.00160703,-0.00104464,0.00214977,-0.000403628,-1.09163,0.00158495,0.0372903,1903,1058,56.2913,-2.37519
686,-34,56.3663,2.45313,-0.00044621,0.000737137,0.00029455,0.000806401,-0.000515473,1.33984,0.000769321,0.0418876,1910,1058,56.3664,-2.45314
693,-34,56.3232,2.39929,-0.000996848,8.63266e-05,0.00129356,0.000947095,-0.00185762,0.983651,0.0016475,0.0432679,1917,1058,56.3232,-2.39933
700,-34,56.2346,2.53088,-0.00143358,-0.000226012,0.00196725,0.00122803,-0.00288762,0.934294,0.00243971,0.0396245,1924,1058,56.2346,-2.53084
707,-34,56.2729,2.61218,-0.00194122,-0.000316788,0.00244559,0.00144793,-0.00370593,0.945725,0.0030693,0.0242252,1931,1058,56.273,-2.61213
714,-34,56.2686,2.67078,-0.00259235,-9.57984e-05,0.00276453,0.00168921,-0.00437736,0.997462,0.00361534,0.0202155,1938,1058,56.2685,-2.6708
721,-34,56.2313,2.7124,0,0,0,0,0,0,0,-1,1945,1058,56.2313,-2.71236
728,-34,55.8604,6.65698,0,0,0,0,0,0,0,-1,1952,1058,55.8604,-6.65698
735,-34,55.6534,6.54871,-0.00493579,0.00271756,0.00304033,0.00377832,-0.00599656,1.2351,0.00569176,0.0218278,1959,1058,55.6534,-6.54876
742,-34,55.5752,6.37793,-0.00503136,0.00391125,0.00318709,0.00493085,-0.00605097,1.26117,0.00635134,0.0167847,1966,1058,55.5752,-6.37797
749,-34,55.6124,6.18835,-0.00497153,0.00602993,0.00272554,0.00666814,-0.00560974,1.34078,0.00709741,0.0151091,1973,1058,55.6124,-6.18833
756,-34,55.6246,5.95886,-0.00452801,0.00881952,0.00178317,0.00905364,-0.00476213,1.44025,0.00810379,0.0118375,1980,1058,55.6246,-5.95887
763,-34,55.5544,5.74207,-0.00353335,0.0128072,0.000563914,0.0128267,-0.00355278,1.53634,0.00994912,0.0127893,1987,1058,55.5545,-5.74205
770,-34,55.4429,5.55066,-0.00160904,0.0181054,-0.00110161,0.0181668,-0.0016704,-1.51515,0.0127047,0.0185657,1994,1058,55.4428,-5.55065
777,-34,55.3096,5.46069,0.00177732,0.0255984,-0.00390423,0.026222,0.00115375,-1.41242,0.0171097,0.0204796,2001,1058,55.3096,-5.46064
784,-34,55.147,5.3761,0.00586973,0.0341191,-0.00759212,0.0360302,0.00395861,-1.3242,0.0228154,0.0370842,2008,1058,55.1469,-5.37611
791,-34,55.2314,5.26794,0.010835,0.0441099,-0.0125452,0.0483096,0.00663524,-1.24776,0.0302383,0.046619,2015,1058,55.2315,-5.26799
798,-34,55.5466,5.08289,0,0,0,0,0,0,0,-1,2022,1058,55.5467,-5.08287
805,-34,55.1199,6.06372,0,0,0,0,0,0,0,-1,2029,1058,55.1198,-6.06375
812,-34,56.519,2.35828,0,0,0,0,0,0,0,-1,2036,1058,56.5191,-2.35826
-700,-41,-40.3478,-0.337158,0,0,0,0,0,0,0,-1,524,1065,-40.3478,0.337146
-693,-41,-39.2538,-0.185425,0,0,0,0,0,0,0,-1,531,1065,-39.2538,0.185418
-686,-41,-41.8121,-1.45349,0,0,0,0,0,0,0,-1,538,1065,-41.8121,1.45343
-679,-41,-41.7641,-0.934326,0.0325487,0.0203963,0.0311877,0.0582466,-0.00530156,0.68919,0.0407135,0.0470946,545,1065,-41.7641,0.934292
-672,-41,-41.7518,-0.45752,0.0244466,0.0237529,0.0236413,0.0477436,0.000455929,0.778062,0.0316782,0.0440364,552,1065,-41.7518,0.45752
-665,-41,-41.7473,0.150391,0.017567,0.0249056,0.017783,0.0393939,0.00307875,0.88714,0.0252989,0.0425023,559,1065,-41.7472,-0.150341
-658,-41,-41.5413,1.11597,0.0119969,0.0242255,0.0131774,0.032638,0.00358439,1.00262,0.0206678,0.0396801,566,1065,-41.5413,-1.11602
-651,-41,-41.3057,1.99988,0.00771676,0.0220843,0.00949269,0.026805,0.002996,1.10931,0.0169598,0.0321824,573,1065,-41.3057,-1.99985
-644,-41,-41.6087,2.43213,0.0041223,0.0188945,0.00628642,0.0212076,0.00180925,1.21823,0.0135755,0.0177547,580,1065,-41.6087,-2.43211
-637,-41,-41.6503,2.68372,0.00223297,0.0155478,0.0026508,0.0160562,0.00172464,1.38133,0.010178,0.0187165,587,1065,-41.6503,-2.68374
-630,-41,-41.6675,2.98352,0.000347588,0.0113865,0.000643321,0.0114238,0.000310223,1.51278,0.00751461,0.0157296,594,1065,-41.6675,-2.98349
-623,-41,-41.6457,3.28467,-0.000902751,0.0076795,-0.000584039,0.00771907,-0.000942314,-1.50316,0.00548719,0.0136105,601,1065,-41.6457,-3.28466
-616,-41,-41.634,3.61938,-0.000817057,0.00490469,-0.00147712,0.00526352,-0.00117589,-1.33249,0.00395961,0.017272,608,1065,-41.634,-3.61939
-609,-41,-41.5782,3.89893,-0.000295127,0.00226414,-0.00224481,0.00356843,-0.00159941,-1.04445,0.00305499,0.0226977,615,1065,-41.5783,-3.89893
-602,-41,-41.6563,4.11609,-0.000153065,0.000473778,-0.00287889,0.00305626,-0.00273554,-0.839619,0.00334561,0.014757,622,1065,-41.6562,-4.11613
-595,-41,-41.7781,4.29883,-0.000241294,-0.000489461,-0.00310976,0.00274685,-0.00347761,-0.765458,0.00360194,0.0246149,629,1065,-41.7781,-4.29878
-588,-41,-42.0538,2.31506,0,0,0,0,0,0,0,-1,636,1065,-42.0538,-2.3151
-581,-41,-42.2357,0.449951,0,0,0,0,0,0,0,-1,643,1065,-42.2357,-0.449925
-574,-41,-42.1538,0.781006,0.000428285,-0.00115296,-0.00307779,0.00281538,-0.00354005,-0.659677,0.00367725,0.037957,650,1065,-42.1538,-0.780963
-567,-41,-42.2332,0.770874,0.000407511,-0.000813443,-0.00289138,0.00275216,-0.00315809,-0.681358,0.00341497,0.0425854,657,1065,-42.2332,-0.770867
-560,-41,-42.1432,0.702637,0.000294943,-0.00027908,-0.00271537,0.00273843,-0.00272257,-0.732744,0.00315291,0.0406394,664,1065,-42.1432,-0.702673
-553,-41,-42.0836,0.606079,0.000208916,0.000257354,-0.00267973,0.00291297,-0.0024467,-0.789917,0.00309831,0.041618,671,1065,-42.0836,-0.606137
-546,-41,-42.0997,0.733887,0.000302805,0.000465317,-0.00303003,0.00341518,-0.00264705,-0.798803,0.00350938,0.0414933,678,1065,-42.0998,-0.733916
-539,-41,-42.2114,0.746338,0.000552783,-0.000170565,-0.00460635,0.00481163,-0.00442942,-0.74622,0.00533684,0.0398024,685,1065,-42.2114,-0.74629
-532,-41,-42.3411,0.487305,0.000566902,-0.000501495,-0.00607464,0.00613078,-0.00606538,-0.741541,0.00704149,0.0384108,692,1065,-42.3411,-0.487299
-525,-41,0,0,0,0,0,0,0,0,0,-1,699,1065,0,0
-518,-41,0,0,0,0,0,0,0,0,0,-1,706,1065,0,0
-511,-41,0,0,0,0,0,0,0,0,0,-1,713,1065,0,0
-504,-41,0,0,0,0,0,0,0,0,0,-1,720,1065,0,0
-497,-41,0,0,0,0,0,0,0,0,0,-1,727,1065,0,0
-490,-41,0,0,0,0,0,0,0,0,0,-1,734,1065,0,0
-483,-41,0,0,0,0,0,0,0,0,0,-1,741,1065,0,0
-476,-41,0,0,0,0,0,0,0,0,0,-1,748,1065,0,0
-469,-41,0,0,0,0,0,0,0,0,0,-1,755,1065,0,0
-462,-41,0,0,0,0,0,0,0,0,0,-1,762,1065,0,0
-455,-41,0,0,0,0,0,0,0,0,0,-1,769,1065,0,0
-448,-41,0,0,0,0,0,0,0,0,0,-1,776,1065,0,0
-441,-41,0,0,0,0,0,0,0,0,0,-1,783,1065,0,0
-434,-41,0,0,0,0,0,0,0,0,0,-1,790,1065,0,0
-427,-41,0,0,0,0,0,0,0,0,0,-1,797,1065,0,0
-420,-41,0,0,0,0,0,0,0,0,0,-1,804,1065,0,0
-413,-41,0,0,0,0,0,0,0,0,0,-1,811,1065,0,0
-406,-41,0,0,0,0,0,0,0,0,0,-1,818,1065,0,0
-399,-41,0,0,0,0,0,0,0,0,0,-1,825,1065,0,0
-392,-41,0,0,0,0,0,0,0,0,0,-1,832,1065,0,0
-385,-41,0,0,0,0,0,0,0,0,0,-1,839,1065,0,0
-378,-41,0,0,0,0,0,0,0,0,0,-1,846,1065,0,0
-371,-41,0,0,0,0,0,0,0,0,0,-1,853,1065,0,0
-364,-41,0,0,0,0,0,0,0,0,0,-1,860,1065,0,0
-357,-41,0,0,0,0,0,0,0,0,0,-1,867,1065,0,0
-350,-41,0,0,0,0,0,0,0,0,0,-1,874,1065,0,0
-343,-41,0,0,0,0,0,0,0,0,0,-1,881,1065,0,0
-336,-41,0,0,0,0,0,0,0,0,0,-1,888,1065,0,0
-329,-41,0,0,0,0,0,0,0,0,0,-1,895,1065,0,0
-322,-41,0,0,0,0,0,0,0,0,0,-1,902,1065,0,0
-315,-41,0,0,0,0,0,0,0,0,0,-1,909,1065,0,0
-308,-41,0,0,0,0,0,0,0,0,0,-1,916,1065,0,0
-301,-41,0,0,0,0,0,0,0,0,0,-1,923,1065,0,0
-294,-41,0,0,0,0,0,0,0,0,0,-1,930,1065,0,0
-287,-41,0,0,0,0,0,0,0,0,0,-1,937,1065,0,0
-280,-41,0,0,0,0,0,0,0,0,0,-1,944,1065,0,0
-273,-41,0,0,0,0,0,0,0,0,0,-1,951,1065,0,0
-266,-41,0,0,0,0,0,0,0,0,0,-1,958,1065,0,0
-259,-41,0,0,0,0,0,0,0,0,0,-1,965,1065,0,0
-252,-41,0,0,0,0,0,0,0,0,0,-1,972,1065,0,0
-245,-41,0,0,0,0,0,0,0,0,0,-1,979,1065,0,0
-238,-41,0,0,0,0,0,0,0,0,0,-1,986,1065,0,0
-231,-41,0,0,0,0,0,0,0,0,0,-1,993,1065,0,0
-224,-41,0,0,0,0,0,0,0,0,0,-1,1000,1065,0,0
-217,-41,0,0,0,0,0,0,0,0,0,-1,1007,1065,0,0
-210,-41,0,0,0,0,0,0,0,0,0,-1,1014,1065,0,0
-203,-41,0,0,0,0,0,0,0,0,0,-1,1021,1065,0,0
-196,-41,0,0,0,0,0,0,0,0,0,-1,1028,1065,0,0
-189,-41,0,0,0,0,0,0,0,0,0,-1,1035,1065,0,0
-182,-41,0,0,0,0,0,0,0,0,0,-1,1042,1065,0,0
-175,-41,0,0,0,0,0,0,0,0,0,-1,1049,1065,0,0
-168,-41,0,0,0,0,0,0,0,0,0,-1,1056,1065,0,0
-161,-41,0,0,0,0,0,0,0,0,0,-1,1063,1065,0,0
-154,-41,0,0,0,0,0,0,0,0,0,-1,1070,1065,0,0
-147,-41,0,0,0,0,0,0,0,0,0,-1,1077,1065,0,0
-140,-41,0,0,0,0,0,0,0,0,0,-1,1084,1065,0,0
-133,-41,0,0,0,0,0,0,0,0,0,-1,1091,1065,0,0
-126,-41,0,0,0,0,0,0,0,0,0,-1,1098,1065,0,0
-119,-41,0,0,0,0,0,0,0,0,0,-1,1105,1065,0,0
-112,-41,0,0,0,0,0,0,0,0,0,-1,1112,1065,0,0
-105,-41,0,0,0,0,0,0,0,0,0,-1,1119,1065,0,0
-98,-41,0,0,0,0,0,0,0,0,0,-1,1126,1065,0,0
-91,-41,0,0,0,0,0,0,0,0,0,-1,1133,1065,0,0
-84,-41,0,0,0,0,0,0,0,0,0,-1,1140,1065,0,0
-77,-41,0,0,0,0,0,0,0,0,0,-1,1147,1065,0,0
-70,-41,0,0,0,0,0,0,0,0,0,-1,1154,1065,0,0
-63,-41,0,0,0,0,0,0,0,0,0,-1,1161,1065,0,0
-56,-41,0,0,0,0,0,0,0,0,0,-1,1168,1065,0,0
-49,-41,0,0,0,0,0,0,0,0,0,-1,1175,1065,0,0
-42,-41,0,0,0,0,0,0,0,0,0,-1,1182,1065,0,0
-35,-41,0,0,0,0,0,0,0,0,0,-1,1189,1065,0,0
-28,-41,0,0,0,0,0,0,0,0,0,-1,1196,1065,0,0
-21,-41,0,0,0,0,0,0,0,0,0,-1,1203,1065,0,0
-14,-41,0,0,0,0,0,0,0,0,0,-1,1210,1065,0,0
-7,-41,0,0,0,0,0,0,0,0,0,-1,1217,1065,0,0
0,-41,0,0,0,0,0,0,0,0,0,-1,1224,1065,0,0
7,-41,0,0,0,0,0,0,0,0,0,-1,1231,1065,0,0
14,-41,0,0,0,0,0,0,0,0,0,-1,1238,1065,0,0
21,-41,0,0,0,0,0,0,0,0,0,-1,1245,1065,0,0
28,-41,0,0,0,0,0,0,0,0,0,-1,1252,1065,0,0
35,-41,0,0,0,0,0,0,0,0,0,-1,1259,1065,0,0
42,-41,0,0,0,0,0,0,0,0,0,-1,1266,1065,0,0
49,-41,0,0,0,0,0,0,0,0,0,-1,1273,1065,0,0
56,-41,0,0,0,0,0,0,0,0,0,-1,1280,1065,0,0
63,-41,0,0,0,0,0,0,0,0,0,-1,1287,1065,0,0
70,-41,0,0,0,0,0,0,0,0,0,-1,1294,1065,0,0
77,-41,0,0,0,0,0,0,0,0,0,-1,1301,1065,0,0
84,-41,0,0,0,0,0,0,0,0,0,-1,1308,1065,0,0
91,-41,0,0,0,0,0,0,0,0,0,-1,1315,1065,0,0
98,-41,0,0,0,0,0,0,0,0,0,-1,1322,1065,0,0
105,-41,0,0,0,0,0,0,0,0,0,-1,1329,1065,0,0
112,-41,0,0,0,0,0,0,0,0,0,-1,1336,1065,0,0
119,-41,0,0,0,0,0,0,0,0,0,-1,1343,1065,0,0
126,-41,0,0,0,0,0,0,0,0,0,-1,1350,1065,0,0
133,-41,0,0,0,0,0,0,0,0,0,-1,1357,1065,0,0
140,-41,0,0,0,0,0,0,0,0,0,-1,1364,1065,0,0
147,-41,0,0,0,0,0,0,0,0,0,-1,1371,1065,0,0
154,-41,0,0,0,0,0,0,0,0,0,-1,1378,1065,0,0
161,-41,0,0,0,0,0,0,0,0,0,-1,1385,1065,0,0
168,-41,0,0,0,0,0,0,0,0,0,-1,1392,1065,0,0
175,-41,0,0,0,0,0,0,0,0,0,-1,1399,1065,0,0
182,-41,0,0,0,0,0,0,0,0,0,-1,1406,1065,0,0
189,-41,0,0,0,0,0,0,0,0,0,-1,1413,1065,0,0
196,-41,0,0,0,0,0,0,0,0,0,-1,1420,1065,0,0
203,-41,0,0,0,0,0,0,0,0,0,-1,1427,1065,0,0
210,-41,0,0,0,0,0,0,0,0,0,-1,1434,1065,0,0
217,-41,0,0,0,0,0,0,0,0,0,-1,1441,1065,0,0
224,-41,0,0,0,0,0,0,0,0,0,-1,1448,1065,0,0
231,-41,0,0,0,0,0,0,0,0,0,-1,1455,1065,0,0
238,-41,0,0,0,0,0,0,0,0,0,-1,1462,1065,0,0
245,-41,0,0,0,0,0,0,0,0,0,-1,1469,1065,0,0
252,-41,0,0,0,0,0,0,0,0,0,-1,1476,1065,0,0
259,-41,0,0,0,0,0,0,0,0,0,-1,1483,1065,0,0
266,-41,0,0,0,0,0,0,0,0,0,-1,1490,1065,0,0
273,-41,0,0,0,0,0,0,0,0,0,-1,1497,1065,0,0
280,-41,0,0,0,0,0,0,0,0,0,-1,1504,1065,0,0
287,-41,0,0,0,0,0,0,0,0,0,-1,1511,1065,0,0
294,-41,0,0,0,0,0,0,0,0,0,-1,1518,1065,0,0
301,-41,0,0,0,0,0,0,0,0,0,-1,1525,1065,0,0
308,-41,0,0,0,0,0,0,0,0,0,-1,1532,1065,0,0
315,-41,0,0,0,0,0,0,0,0,0,-1,1539,1065,0,0
322,-41,0,0,0,0,0,0,0,0,0,-1,1546,1065,0,0
329,-41,0,0,0,0,0,0,0,0,0,-1,1553,1065,0,0
336,-41,0,0,0,0,0,0,0,0,0,-1,1560,1065,0,0
343,-41,0,0,0,0,0,0,0,0,0,-1,1567,1065,0,0
350,-41,0,0,0,0,0,0,0,0,0,-1,1574,1065,0,0
357,-41,0,0,0,0,0,0,0,0,0,-1,1581,1065,0,0
364,-41,0,0,0,0,0,0,0,0,0,-1,1588,1065,0,0
371,-41,0,0,0,0,0,0,0,0,0,-1,1595,1065,0,0
378,-41,0,0,0,0,0,0,0,0,0,-1,1602,1065,0,0
385,-41,0,0,0,0,0,0,0,0,0,-1,1609,1065,0,0
392,-41,0,0,0,0,0,0,0,0,0,-1,1616,1065,0,0
399,-41,0,0,0,0,0,0,0,0,0,-1,1623,1065,0,0
406,-41,0,0,0,0,0,0,0,0,0,-1,1630,1065,0,0
413,-41,0,0,0,0,0,0,0,0,0,-1,1637,1065,0,0
420,-41,0,0,0,0,0,0,0,0,0,-1,1644,1065,0,0
427,-41,0,0,0,0,0,0,0,0,0,-1,1651,1065,0,0
434,-41,0,0,0,0,0,0,0,0,0,-1,1658,1065,0,0
441,-41,0,0,0,0,0,0,0,0,0,-1,1665,1065,0,0
448,-41,0,0,0,0,0,0,0,0,0,-1,1672,1065,0,0
455,-41,0,0,0,0,0,0,0,0,0,-1,1679,1065,0,0
462,-41,0,0,0,0,0,0,0,0,0,-1,1686,1065,0,0
469,-41,0,0,0,0,0,0,0,0,0,-1,1693,1065,0,0
476,-41,0,0,0,0,0,0,0,0,0,-1,1700,1065,0,0
483,-41,0,0,0,0,0,0,0,0,0,-1,1707,1065,0,0
490,-41,0,0,0,0,0,0,0,0,0,-1,1714,1065,0,0
497,-41,0,0,0,0,0,0,0,0,0,-1,1721,1065,0,0
504,-41,0,0,0,0,0,0,0,0,0,-1,1728,1065,0,0
511,-41,0,0,0,0,0,0,0,0,0,-1,1735,1065,0,0
518,-41,0,0,0,0,0,0,0,0,0,-1,1742,1065,0,0
525,-41,0,0,0,0,0,0,0,0,0,-1,1749,1065,0,0
532,-41,0,0,0,0,0,0,0,0,0,-1,1756,1065,0,0
539,-41,0,0,0,0,0,0,0,0,0,-1,1763,1065,0,0
546,-41,0,0,0,0,0,0,0,0,0,-1,1770,1065,0,0
553,-41,0,0,0,0,0,0,0,0,0,-1,1777,1065,0,0
560,-41,0,0,0,0,0,0,0,0,0,-1,1784,1065,0,0
567,-41,0,0,0,0,0,0,0,0,0,-1,1791,1065,0,0
574,-41,0,0,0,0,0,0,0,0,0,-1,1798,1065,0,0
581,-41,0,0,0,0,0,0,0,0,0,-1,1805,1065,0,0
588,-41,0,0,0,0,0,0,0,0,0,-1,1812,1065,0,0
595,-41,0,0,0,0,0,0,0,0,0,-1,1819,1065,0,0
602,-41,0,0,0,0,0,0,0,0,0,-1,1826,1065,0,0
609,-41,0,0,0,0,0,0,0,0,0,-1,1833,1065,0,0
616,-41,0,0,0,0,0,0,0,0,0,-1,1840,1065,0,0
623,-41,0,0,0,0,0,0,0,0,0,-1,1847,1065,0,0
630,-41,0,0,0,0,0,0,0,0,0,-1,1854,1065,0,0
637,-41,0,0,0,0,0,0,0,0,0,-1,1861,1065,0,0
644,-41,0,0,0,0,0,0,0,0,0,-1,1868,1065,0,0
651,-41,56.3298,2.51831,0.000445693,0.00811231,-0.00774099,0.0129171,-0.00435912,-1.0153,0.0103744,0.0360871,1875,1065,56.3298,-2.51831
658,-41,56.2272,2.37231,0.000513036,0.00550546,-0.00557456,0.00911718,-0.00309868,-0.995904,0.00733261,0.0387378,1882,1065,56.2272,-2.37237
665,-41,56.303,2.21362,0.000435425,0.00352927,-0.00375883,0.00604704,-0.00208235,-0.980607,0.00487602,0.0387872,1889,1065,56.303,-2.21359
672,-41,56.4285,2.20166,0.000258596,0.00212226,-0.00220657,0.00358568,-0.00120483,-0.985188,0.00287741,0.0402788,1896,1065,56.4285,-2.20165
679,-41,56.3856,2.27844,-1.99236e-05,0.0010203,-0.000797823,0.00145257,-0.000452198,-1.07426,0.00114916,0.0418567,1903,1065,56.3856,-2.27843
686,-41,56.3865,2.34241,-0.00054625,0.000136021,0.000326809,0.000267303,-0.000677531,1.18882,0.000562378,0.0416119,1910,1065,56.3865,-2.34245
693,-41,56.2533,2.53931,-0.00100906,-0.000461397,0.00115306,0.000449903,-0.00192036,0.901979,0.0014536,0.04327,1917,1065,56.2533,-2.53926
700,-41,56.2479,2.58984,-0.00135438,-0.000701608,0.00171378,0.000716592,-0.00277258,0.879495,0.00212786,0.0388426,1924,1065,56.2479,-2.58987
707,-41,56.3113,2.60449,-0.00179867,-0.000779565,0.00218362,0.000953168,-0.0035314,0.900023,0.00272807,0.0262455,1931,1065,56.3113,-2.60453
714,-41,56.2828,2.6001,-0.00238004,-0.000560889,0.00251416,0.00120317,-0.0041441,0.958964,0.00323915,0.0234467,1938,1065,56.2829,-2.6001
721,-41,56.2601,2.65601,0,0,0,0,0,0,0,-1,1945,1065,56.2601,-2.65604
728,-41,55.5698,6.69849,0,0,0,0,0,0,0,-1,1952,1065,55.5698,-6.6985
735,-41,55.411,6.53125,-0.00445855,0.00219203,0.00292276,0.00329393,-0.00556045,1.21027,0.00516761,0.0207706,1959,1065,55.411,-6.53119
742,-41,55.3328,6.34412,-0.00447066,0.00340529,0.00314735,0.00450849,-0.00557386,1.23366,0.00583187,0.0164345,1966,1065,55.3328,-6.34411
749,-41,55.3391,6.16345,-0.00437134,0.00548805,0.00281919,0.00623724,-0.00512053,1.31105,0.00656797,0.0157472,1973,1065,55.3392,-6.16348
756,-41,55.3555,5.95923,-0.00388873,0.00806924,0.00208625,0.00842276,-0.00424226,1.40294,0.00744375,0.0150361,1980,1065,55.3555,-5.9592
763,-41,55.2816,5.69824,-0.00284333,0.0118012,0.00108427,0.011881,-0.00292317,1.49729,0.00905376,0.0123788,1987,1065,55.2816,-5.69829
770,-41,55.1665,5.49182,-0.000896631,0.0167662,-0.000367865,0.0167739,-0.000904289,-1.54998,0.0114959,0.0135596,1994,1065,55.1666,-5.49188
777,-41,55.0332,5.28064,0.00243555,0.0236085,-0.00283404,0.0239813,0.00206277,-1.44001,0.0153462,0.0154462,2001,1065,55.0333,-5.28059
784,-41,54.9773,5.0304,0.0065254,0.0313602,-0.00610423,0.0327795,0.00510613,-1.34235,0.0203655,0.0257153,2008,1065,54.9773,-5.03045
791,-41,55.3423,5.25,0.0115792,0.0404029,-0.0105193,0.0438336,0.00814847,-1.25554,0.0269205,0.0424482,2015,1065,55.3423,-5.25
798,-41,55.7744,5.30017,0,0,0,0,0,0,0,-1,2022,1065,55.7743,-5.30016
805,-41,55.126,5.28162,0,0,0,0,0,0,0,-1,2029,1065,55.126,-5.28165
812,-41,55.0339,5.19861,0,0,0,0,0,0,0,-1,2036,1065,55.0339,-5.19857
-700,-48,-40.8164,-0.593506,0.0693327,0.000401582,0.0750238,0.117429,-0.0476946,0.570078,0.098127,0.0468233,524,1072,-40.8164,0.593484
-693,-48,-39.7611,-0.369385,0,0,0,0,0,0,0,-1,531,1072,-39.7611,0.369404
-686,-48,-41.2897,-2.56311,0,0,0,0,0,0,0,-1,538,1072,-41.2897,2.56313
-679,-48,-41.2184,-2.04016,0,0,0,0,0,0,0,-1,545,1072,-41.2184,2.04014
-672,-48,-41.1318,-1.45483,0,0,0,0,0,0,0,-1,552,1072,-41.1318,1.45486
-665,-48,-40.3525,0.459717,0,0,0,0,0,0,0,-1,559,1072,-40.3526,-0.459775
-658,-48,-41.0376,0.430786,0.013909,0.0249654,0.0136424,0.0341571,0.00471729,0.977898,0.0213732,0.0458917,566,1072,-41.0376,-0.430845
-651,-48,-41.053,1.58667,0.00923889,0.0222331,0.00977364,0.0274721,0.00399988,1.07874,0.0171377,0.0375985,573,1072,-41.0531,-1.58661
-644,-48,-41.1974,2.3894,0.00538012,0.0186973,0.00646828,0.0213218,0.00275564,1.18535,0.0133908,0.0228884,580,1072,-41.1974,-2.38939
-637,-48,-41.214,2.59509,0.00314358,0.0151211,0.00279283,0.0157403,0.00252438,1.35261,0.00976151,0.0226197,587,1072,-41.214,-2.59513
-630,-48,-41.2303,2.91736,0.00104669,0.010786,0.000697051,0.0108356,0.000997052,1.49971,0.0069154,0.0250196,594,1072,-41.2303,-2.91737
-623,-48,-41.3448,3.24573,-0.000285813,0.00703714,-0.000637325,0.0070922,-0.000340866,-1.48463,0.00484575,0.0132262,601,1072,-41.3448,-3.24577
-616,-48,-41.3498,3.57007,-0.000381677,0.00452615,-0.00147181,0.00493369,-0.000789215,-1.30067,0.0035813,0.011782,608,1072,-41.3498,-3.57004
-609,-48,-41.3019,3.90149,3.76146e-05,0.00188324,-0.00208439,0.00323996,-0.0013191,-0.993793,0.00270893,0.0133245,615,1072,-41.3019,-3.90152
-602,-48,-41.321,4.1825,0.000196907,0.000150674,-0.00263244,0.00280634,-0.00245875,-0.781008,0.00304201,0.0142771,622,1072,-41.321,-4.18253
-595,-48,-41.3163,4.43286,0.000145454,-0.000692652,-0.00285456,0.00261155,-0.00315875,-0.712518,0.00333648,0.0328727,629,1072,-41.3163,-4.43284
-588,-48,-41.9702,2.33252,0,0,0,0,0,0,0,-1,636,1072,-41.9702,-2.3325
-581,-48,-42.094,0.653198,0,0,0,0,0,0,0,-1,643,1072,-42.094,-0.65325
-574,-48,-42.168,0.737183,0.000830849,-0.00136616,-0.00278975,0.00273058,-0.00326589,-0.597839,0.00346666,0.0392344,650,1072,-42.1679,-0.737187
-567,-48,-42.2906,0.69104,0.00088618,-0.00107928,-0.00258526,0.00266919,-0.00286229,-0.603768,0.00319425,0.0398178,657,1072,-42.2906,-0.691043
-560,-48,-42.2645,0.63855,0.000863049,-0.00060673,-0.00240366,0.00264165,-0.00238533,-0.637042,0.00290359,0.0403534,664,1072,-42.2646,-0.638557
-553,-48,-42.1752,0.582764,0.000908281,-0.000135842,-0.00236737,0.00281047,-0.00203803,-0.676873,0.0028111,0.0424789,671,1072,-42.1752,-0.582738
-546,-48,-42.1069,0.797607,0.00120556,2.35785e-05,-0.0027352,0.00341288,-0.00218375,-0.679,0.00325709,0.0416736,678,1072,-42.1069,-0.797638
-539,-48,-42.1697,0.876953,0.00189282,-0.000726255,-0.00441321,0.00518668,-0.00402012,-0.64117,0.00532975,0.0401712,685,1072,-42.1697,-0.876923
-532,-48,-42.2178,0.725098,0.00224431,-0.00120695,-0.00607113,0.00683029,-0.00579293,-0.646932,0.00729622,0.0385187,692,1072,-42.2178,-0.725087
-525,-48,0,0,0,0,0,0,0,0,0,-1,699,1072,0,0
-518,-48,0,0,0,0,0,0,0,0,0,-1,706,1072,0,0
-511,-48,0,0,0,0,0,0,0,0,0,-1,713,1072,0,0
-504,-48,0,0,0,0,0,0,0,0,0,-1,720,1072,0,0
-497,-48,0,0,0,0,0,0,0,0,0,-1,727,1072,0,0
-490,-48,0,0,0,0,0,0,0,0,0,-1,734,1072,0,0
-483,-48,0,0,0,0,0,0,0,0,0,-1,741,1072,0,0
-476,-48,0,0,0,0,0,0,0,0,0,-1,748,1072,0,0
-469,-48,0,0,0,0,0,0,0,0,0,-1,755,1072,0,0
-462,-48,0,0,0,0,0,0,0,0,0,-1,762,1072,0,0
-455,-48,0,0,0,0,0,0,0,0,0,-1,769,1072,0,0
-448,-48,0,0,0,0,0,0,0,0,0,-1,776,1072,0,0
-441,-48,0,0,0,0,0,0,0,0,0,-1,783,1072,0,0
-434,-48,0,0,0,0,0,0,0,0,0,-1,790,1072,0,0
-427,-48,0,0,0,0,0,0,0,0,0,-1,797,1072,0,0
-420,-48,0,0,0,0,0,0,0,0,0,-1,804,1072,0,0
-413,-48,0,0,0,0,0,0,0,0,0,-1,811,1072,0,0
-406,-48,0,0,0,0,0,0,0,0,0,-1,818,1072,0,0
-399,-48,0,0,0,0,0,0,0,0,0,-1,825,1072,0,0
-392,-48,0,0,0,0,0,0,0,0,0,-1,832,1072,0,0
-385,-48,0,0,0,0,0,0,0,0,0,-1,839,1072,0,0
-378,-48,0,0,0,0,0,0,0,0,0,-1,846,1072,0,0
-371,-48,0,0,0,0,0,0,0,0,0,-1,853,1072,0,0
-364,-48,0,0,0,0,0,0,0,0,0,-1,860,1072,0,0
-357,-48,0,0,0,0,0,0,0,0,0,-1,867,1072,0,0
-350,-48,0,0,0,0,0,0,0,0,0,-1,874,1072,0,0
-343,-48,0,0,0,0,0,0,0,0,0,-1,881,1072,0,0
-336,-48,0,0,0,0,0,0,0,0,0,-1,888,1072,0,0
-329,-48,0,0,0,0,0,0,0,0,0,-1,895,1072,0,0
-322,-48,0,0,0,0,0,0,0,0,0,-1,902,1072,0,0
-315,-48,0,0,0,0,0,0,0,0,0,-1,909,1072,0,0
-308,-48,0,0,0,0,0,0,0,0,0,-1,916,1072,0,0
-301,-48,0,0,0,0,0,0,0,0,0,-1,923,1072,0,0
-294,-48,0,0,0,0,0,0,0,0,0,-1,930,1072,0,0
-287,-48,0,0,0,0,0,0,0,0,0,-1,937,1072,0,0
-280,-48,0,0,0,0,0,0,0,0,0,-1,944,1072,0,0
-273,-48,0,0,0,0,0,0,0,0,0,-1,951,1072,0,0
-266,-48,0,0,0,0,0,0,0,0,0,-1,958,1072,0,0
-259,-48,0,0,0,0,0,0,0,0,0,-1,965,1072,0,0
-252,-48,0,0,0,0,0,0,0,0,0,-1,972,1072,0,0
-245,-48,0,0,0,0,0,0,0,0,0,-1,979,1072,0,0
-238,-48,0,0,0,0,0,0,0,0,0,-1,986,1072,0,0
-231,-48,0,0,0,0,0,0,0,0,0,-1,993,1072,0,0
-224,-48,0,0,0,0,0,0,0,0,0,-1,1000,1072,0,0
-217,-48,0,0,0,0,0,0,0,0,0,-1,1007,1072,0,0
-210,-48,0,0,0,0,0,0,0,0,0,-1,1014,1072,0,0
-203,-48,0,0,0,0,0,0,0,0,0,-1,1021,1072,0,0
-196,-48,0,0,0,0,0,0,0,0,0,-1,1028,1072,0,0
-189,-48,0,0,0,0,0,0,0,0,0,-1,1035,1072,0,0
-182,-48,0,0,0,0,0,0,0,0,0,-1,1042,1072,0,0
-175,-48,0,0,0,0,0,0,0,0,0,-1,1049,1072,0,0
-168,-48,0,0,0,0,0,0,0,0,0,-1,1056,1072,0,0
-161,-48,0,0,0,0,0,0,0,0,0,-1,1063,1072,0,0
-154,-48,0,0,0,0,0,0,0,0,0,-1,1070,1072,0,0
-147,-48,0,0,0,0,0,0,0,0,0,-1,1077,1072,0,0
-140,-48,0,0,0,0,0,0,0,0,0,-1,1084,1072,0,0
-133,-48,0,0,0,0,0,0,0,0,0,-1,1091,1072,0,0
-126,-48,0,0,0,0,0,0,0,0,0,-1,1098,1072,0,0
-119,-48,0,0,0,0,0,0,0,0,0,-1,1105,1072,0,0
-112,-48,0,0,0,0,0,0,0,0,0,-1,1112,1072,0,0
-105,-48,0,0,0,0,0,0,0,0,0,-1,1119,1072,0,0
-98,-48,0,0,0,0,0,0,0,0,0,-1,1126,1072,0,0
-91,-48,0,0,0,0,0,0,0,0,0,-1,1133,1072,0,0
-84,-48,0,0,0,0,0,0,0,0,0,-1,1140,1072,0,0
-77,-48,0,0,0,0,0,0,0,0,0,-1,1147,1072,0,0
-70,-48,0,0,0,0,0,0,0,0,0,-1,1154,1072,0,0
-63,-48,0,0,0,0,0,0,0,0,0,-1,1161,1072,0,0
-56,-48,0,0,0,0,0,0,0,0,0,-1,1168,1072,0,0
-49,-48,0,0,0,0,0,0,0,0,0,-1,1175,1072,0,0
-42,-48,0,0,0,0,0,0,0,0,0,-1,1182,1072,0,0
-35,-48,0,0,0,0,0,0,0,0,0,-1,1189,1072,0,0
-28,-48,0,0,0,0,0,0,0,0,0,-1,1196,1072,0,0
-21,-48,0,0,0,0,0,0,0,0,0,-1,1203,1072,0,0
-14,-48,0,0,0,0,0,0,0,0,0,-1,1210,1072,0,0
-7,-48,0,0,0,0,0,0,0,0,0,-1,1217,1072,0,0
0,-48,0,0,0,0,0,0,0,0,0,-1,1224,1072,0,0
7,-48,0,0,0,0,0,0,0,0,0,-1,1231,1072,0,0
14,-48,0,0,0,0,0,0,0,0,0,-1,1238,1072,0,0
21,-48,0,0,0,0,0,0,0,0,0,-1,1245,1072,0,0
28,-48,0,0,0,0,0,0,0,0,0,-1,1252,1072,0,0
35,-48,0,0,0,0,0,0,0,0,0,-1,1259,1072,0,0
42,-48,0,0,0,0,0,0,0,0,0,-1,1266,1072,0,0
49,-48,0,0,0,0,0,0,0,0,0,-1,1273,1072,0,0
56,-48,0,0,0,0,0,0,0,0,0,-1,1280,1072,0,0
63,-48,0,0,0,0,0,0,0,0,0,-1,1287,1072,0,0
70,-48,0,0,0,0,0,0,0,0,0,-1,1294,1072,0,0
77,-48,0,0,0,0,0,0,0,0,0,-1,1301,1072,0,0
84,-48,0,0,0,0,0,0,0,0,0,-1,1308,1072,0,0
91,-48,0,0,0,0,0,0,0,0,0,-1,1315,1072,0,0
98,-48,0,0,0,0,0,0,0,0,0,-1,1322,1072,0,0
105,-48,0,0,0,0,0,0,0,0,0,-1,1329,1072,0,0
112,-48,0,0,0,0,0,0,0,0,0,-1,1336,1072,0,0
119,-48,0,0,0,0,0,0,0,0,0,-1,1343,1072,0,0
126,-48,0,0,0,0,0,0,0,0,0,-1,1350,1072,0,0
133,-48,0,0,0,0,0,0,0,0,0,-1,1357,1072,0,0
140,-48,0,0,0,0,0,0,0,0,0,-1,1364,1072,0,0
147,-48,0,0,0,0,0,0,0,0,0,-1,1371,1072,0,0
154,-48,0,0,0,0,0,0,0,0,0,-1,1378,1072,0,0
161,-48,0,0,0,0,0,0,0,0,0,-1,1385,1072,0,0
168,-48,0,0,0,0,0,0,0,0,0,-1,1392,1072,0,0
175,-48,0,0,0,0,0,0,0,0,0,-1,1399,1072,0,0
182,-48,0,0,0,0,0,0,0,0,0,-1,1406,1072,0,0
189,-48,0,0,0,0,0,0,0,0,0,-1,1413,1072,0,0
196,-48,0,0,0,0,0,0,0,0,0,-1,1420,1072,0,0
203,-48,0,0,0,0,0,0,0,0,0,-1,1427,1072,0,0
210,-48,0,0,0,0,0,0,0,0,0,-1,1434,1072,0,0
217,-48,0,0,0,0,0,0,0,0,0,-1,1441,1072,0,0
224,-48,0,0,0,0,0,0,0,0,0,-1,1448,1072,0,0
231,-48,0,0,0,0,0,0,0,0,0,-1,1455,1072,0,0
238,-48,0,0,0,0,0,0,0,0,0,-1,1462,1072,0,0
245,-48,0,0,0,0,0,0,0,0,0,-1,1469,1072,0,0
252,-48,0,0,0,0,0,0,0,0,0,-1,1476,1072,0,0
259,-48,0,0,0,0,0,0,0,0,0,-1,1483,1072,0,0
266,-48,0,0,0,0,0,0,0,0,0,-1,1490,1072,0,0
273,-48,0,0,0,0,0,0,0,0,0,-1,1497,1072,0,0
280,-48,0,0,0,0,0,0,0,0,0,-1,1504,1072,0,0
287,-48,0,0,0,0,0,0,0,0,0,-1,1511,1072,0,0
294,-48,0,0,0,0,0,0,0,0,0,-1,1518,1072,0,0
301,-48,0,0,0,0,0,0,0,0,0,-1,1525,1072,0,0
308,-48,0,0,0,0,0,0,0,0,0,-1,1532,1072,0,0
315,-48,0,0,0,0,0,0,0,0,0,-1,1539,1072,0,0
322,-48,0,0,0,0,0,0,0,0,0,-1,1546,1072,0,0
329,-48,0,0,0,0,0,0,0,0,0,-1,1553,1072,0,0
336,-48,0,0,0,0,0,0,0,0,0,-1,1560,1072,0,0
343,-48,0,0,0,0,0,0,0,0,0,-1,1567,1072,0,0
350,-48,0,0,0,0,0,0,0,0,0,-1,1574,1072,0,0
357,-48,0,0,0,0,0,0,0,0,0,-1,1581,1072,0,0
364,-48,0,0,0,0,0,0,0,0,0,-1,1588,1072,0,0
371,-48,0,0,0,0,0,0,0,0,0,-1,1595,1072,0,0
378,-48,0,0,0,0,0,0,0,0,0,-1,1602,1072,0,0
385,-48,0,0,0,0,0,0,0,0,0,-1,1609,1072,0,0
392,-48,0,0,0,0,0,0,0,0,0,-1,1616,1072,0,0
399,-48,0,0,0,0,0,0,0,0,0,-1,1623,1072,0,0
406,-48,0,0,0,0,0,0,0,0,0,-1,1630,1072,0,0
413,-48,0,0,0,0,0,0,0,0,0,-1,1637,1072,0,0
420,-48,0,0,0,0,0,0,0,0,0,-1,1644,1072,0,0
427,-48,0,0,0,0,0,0,0,0,0,-1,1651,1072,0,0
434,-48,0,0,0,0,0,0,0,0,0,-1,1658,1072,0,0
441,-48,0,0,0,0,0,0,0,0,0,-1,1665,1072,0,0
448,-48,0,0,0,0,0,0,0,0,0,-1,1672,1072,0,0
455,-48,0,0,0,0,0,0,0,0,0,-1,1679,1072,0,0
462,-48,0,0,0,0,0,0,0,0,0,-1,1686,1072,0,0
469,-48,0,0,0,0,0,0,0,0,0,-1,1693,1072,0,0
476,-48,0,0,0,0,0,0,0,0,0,-1,1700,1072,0,0
483,-48,0,0,0,0,0,0,0,0,0,-1,1707,1072,0,0
490,-48,0,0,0,0,0,0,0,0,0,-1,1714,1072,0,0
497,-48,0,0,0,0,0,0,0,0,0,-1,1721,1072,0,0
504,-48,0,0,0,0,0,0,0,0,0,-1,1728,1072,0,0
511,-48,0,0,0,0,0,0,0,0,0,-1,1735,1072,0,0
518,-48,0,0,0,0,0,0,0,0,0,-1,1742,1072,0,0
525,-48,0,0,0,0,0,0,0,0,0,-1,1749,1072,0,0
532,-48,0,0,0,0,0,0,0,0,0,-1,1756,1072,0,0
539,-48,0,0,0,0,0,0,0,0,0,-1,1763,1072,0,0
546,-48,0,0,0,0,0,0,0,0,0,-1,1770,1072,0,0
553,-48,0,0,0,0,0,0,0,0,0,-1,1777,1072,0,0
560,-48,0,0,0,0,0,0,0,0,0,-1,1784,1072,0,0
567,-48,0,0,0,0,0,0,0,0,0,-1,1791,1072,0,0
574,-48,0,0,0,0,0,0,0,0,0,-1,1798,1072,0,0
581,-48,0,0,0,0,0,0,0,0,0,-1,1805,1072,0,0
588,-48,0,0,0,0,0,0,0,0,0,-1,1812,1072,0,0
595,-48,0,0,0,0,0,0,0,0,0,-1,1819,1072,0,0
602,-48,0,0,0,0,0,0,0,0,0,-1,1826,1072,0,0
609,-48,0,0,0,0,0,0,0,0,0,-1,1833,1072,0,0
616,-48,0,0,0,0,0,0,0,0,0,-1,1840,1072,0,0
623,-48,0,0,0,0,0,0,0,0,0,-1,1847,1072,0,0
630,-48,0,0,0,0,0,0,0,0,0,-1,1854,1072,0,0
637,-48,0,0,0,0,0,0,0,0,0,-1,1861,1072,0,0
644,-48,0,0,0,0,0,0,0,0,0,-1,1868,1072,0,0
651,-48,56.2233,2.29041,0.00042074,0.00751029,-0.00665421,0.011505,-0.00357398,-1.03013,0.0090984,0.0327449,1875,1072,56.2232,-2.2904
658,-48,56.2179,2.24207,0.000508037,0.0049096,-0.0045924,0.00780132,-0.00238369,-1.00884,0.00615137,0.0362253,1882,1072,56.2178,-2.24201
665,-48,56.1862,2.29871,0.000407087,0.00298911,-0.00298677,0.00495194,-0.00155574,-0.989394,0.00392406,0.0403011,1889,1072,56.1861,-2.29871
672,-48,56.2725,2.40918,0.000210315,0.00162247,-0.00166997,0.00272949,-0.00089671,-0.985405,0.00218091,0.0407741,1896,1072,56.2724,-2.40915
679,-48,56.3479,2.4386,-0.000100778,0.00058865,-0.000545354,0.000889102,-0.00040123,-1.06724,0.000762517,0.0394092,1903,1072,56.3479,-2.43856
686,-48,56.297,2.41553,-0.000597169,-0.000206508,0.000324457,-2.31219e-05,-0.000780555,1.05635,0.000512836,0.0395048,1910,1072,56.297,-2.41547
693,-48,56.3003,2.64685,-0.000982581,-0.000721195,0.000949598,0.000106662,-0.00181044,0.853784,0.00124404,0.041123,1917,1072,56.3003,-2.64689
700,-48,56.3081,2.63062,-0.00123783,-0.000893672,0.00136148,0.000306558,-0.00243806,0.848261,0.0017366,0.0347952,1924,1072,56.3081,-2.63057
707,-48,56.3231,2.57556,-0.00161309,-0.000952242,0.00179718,0.000544636,-0.00310997,0.876311,0.00227668,0.0268604,1931,1072,56.3231,-2.57558
714,-48,56.2961,2.53625,-0.0021073,-0.000768376,0.00211289,0.000778571,-0.00365424,0.938818,0.00273291,0.0404354,1938,1072,56.2961,-2.53628
721,-48,56.3105,2.57397,0,0,0,0,0,0,0,-1,1945,1072,56.3106,-2.57396
728,-48,55.2469,6.948,0,0,0,0,0,0,0,-1,1952,1072,55.2469,-6.94797
735,-48,55.15,6.69214,-0.00389429,0.00173216,0.00259354,0.00274525,-0.00490738,1.1984,0.00447664,0.0219297,1959,1072,55.15,-6.69217
742,-48,55.0431,6.40588,-0.00385628,0.00289318,0.00288981,0.00396141,-0.0049245,1.21672,0.00514031,0.0175783,1966,1072,55.043,-6.40586
749,-48,55.0525,6.14758,-0.00376579,0.00492239,0.00272775,0.0057078,-0.0045512,1.29045,0.00593557,0.0150617,1973,1072,55.0525,-6.14763
756,-48,55.0266,5.91309,-0.00331527,0.00731847,0.00221714,0.00776223,-0.00375903,1.37326,0.00678433,0.0130657,1980,1072,55.0266,-5.91312
763,-48,54.9655,5.66077,-0.00230173,0.0108883,0.00145348,0.0110465,-0.00246,1.46233,0.00830667,0.0127907,1987,1072,54.9655,-5.66071
770,-48,54.9412,5.41101,-0.000477978,0.0156853,0.000241281,0.0156889,-0.000481578,1.55587,0.0106234,0.0139863,1994,1072,54.9412,-5.41097
777,-48,54.8057,5.13342,0.00258089,0.0221544,-0.00184634,0.0223271,0.00240826,-1.47756,0.0141504,0.0128306,2001,1072,54.8057,-5.13336
784,-48,54.7573,4.7887,0.00641852,0.0294804,-0.00465051,0.0303829,0.00551604,-1.37912,0.0186899,0.0237115,2008,1072,54.7573,-4.78869
791,-48,55.1736,4.72656,0.0112635,0.0380187,-0.00847641,0.0404781,0.00880408,-1.28841,0.0245819,0.0380286,2015,1072,55.1735,-4.72655
798,-48,55.4583,4.63696,0.0175856,0.0482453,-0.0137899,0.053535,0.0122959,-1.20451,0.0323792,0.0416749,2022,1072,55.4582,-4.63693
805,-48,55.3584,4.56885,0.0255155,0.0604456,-0.0209289,0.0702394,0.0157217,-1.13311,0.0425648,0.0426805,2029,1072,55.3584,-4.56883
812,-48,55.4697,4.82739,0.0348976,0.0752069,-0.0305037,0.091613,0.0184915,-1.07734,0.0559397,0.0446722,2036,1072,55.4697,-4.8274
-700,-55,-40.9986,-0.850586,0,0,0,0,0,0,0,-1,524,1079,-40.9986,0.850537
-693,-55,-40.3719,-0.27478,0,0,0,0,0,0,0,-1,531,1079,-40.3718,0.274744
-686,-55,-39.8847,1.18909,0,0,0,0,0,0,0,-1,538,1079,-39.8847,-1.18904
-679,-55,-40.7099,-3.06421,0,0,0,0,0,0,0,-1,545,1079,-40.7099,3.06423
-672,-55,-40.594,-0.699219,0.0280234,0.0278721,0.0259501,0.0538979,0.00199757,0.783941,0.0352849,0.0461069,552,1079,-40.594,0.699245
-665,-55,-40.8687,-0.35498,0.0206419,0.0268575,0.0192642,0.0432629,0.00423648,0.865372,0.0275386,0.044464,559,1079,-40.8687,0.354944
-658,-55,-40.9756,0.0942383,0.014588,0.024635,0.0140502,0.0345327,0.00469024,0.957085,0.0216286,0.0483731,566,1079,-40.9757,-0.0942867
-651,-55,-40.8799,1.21814,0.00986905,0.0215402,0.00997243,0.027259,0.00415025,1.05012,0.0169593,0.0411031,573,1079,-40.8799,-1.2181
-644,-55,-40.8836,2.26465,0.00601511,0.0178917,0.00657724,0.0208148,0.00309206,1.15259,0.0129693,0.0258649,580,1079,-40.8836,-2.26464
-637,-55,-40.9026,2.52661,0.00362456,0.0142591,0.00288577,0.0149917,0.00289195,1.32218,0.00918354,0.0205158,587,1079,-40.9027,-2.52659
-630,-55,-40.9083,2.88354,0.00150189,0.0100073,0.000709151,0.010066,0.00144317,1.48818,0.00628507,0.0229916,594,1079,-40.9083,-2.88358
-623,-55,-41.061,3.26855,0.000199324,0.00633789,-0.000670098,0.00641019,0.000127026,-1.46332,0.00423176,0.0192675,601,1079,-41.061,-3.26852
-616,-55,-41.1029,3.58044,-6.67941e-06,0.00408274,-0.0014378,0.00453765,-0.00046159,-1.26437,0.00319011,0.0184947,608,1079,-41.1029,-3.58042
-609,-55,-41.0332,3.95105,0.000360617,0.00154554,-0.00189316,0.00293678,-0.00103062,-0.937045,0.00237707,0.0185405,615,1079,-41.0332,-3.95099
-602,-55,-40.9711,4.26685,0.000575076,-0.00010369,-0.00232035,0.00258073,-0.00210935,-0.712781,0.00271237,0.0159444,622,1079,-40.9711,-4.26685
-595,-55,-40.8386,4.60815,0.000593208,-0.000831091,-0.00249109,0.00247194,-0.00270983,-0.646172,0.00299275,0.0329826,629,1079,-40.8386,-4.60819
-588,-55,-40.8133,5.01526,0,0,0,0,0,0,0,-1,636,1079,-40.8133,-5.01524
-581,-55,-42.1905,0.757446,0,0,0,0,0,0,0,-1,643,1079,-42.1905,-0.757408
-574,-55,-42.2305,0.729004,0.00135061,-0.0015372,-0.00235253,0.002667,-0.0028536,-0.510158,0.00318793,0.0386992,650,1079,-42.2305,-0.728963
-567,-55,-42.3058,0.694336,0.00150512,-0.00129902,-0.00211912,0.002644,-0.00243791,-0.493145,0.00293485,0.039918,657,1079,-42.3059,-0.694291
-560,-55,-42.3693,0.697021,0.00158666,-0.000885581,-0.00191272,0.00262792,-0.00192684,-0.498526,0.00264006,0.0421383,664,1079,-42.3693,-0.69704
-553,-55,-42.127,0.7229,0.00174198,-0.000469216,-0.00184104,0.00278388,-0.00151112,-0.514993,0.00251575,0.0436741,671,1079,-42.127,-0.722916
-546,-55,-42.1422,0.89502,0.00221696,-0.000324797,-0.00215299,0.00344618,-0.00155401,-0.518775,0.00295496,0.041901,678,1079,-42.1422,-0.895043
-539,-55,-42.2156,0.95874,0.00333776,-0.00110331,-0.00374461,0.00547072,-0.00323627,-0.517772,0.00508186,0.0405777,685,1079,-42.2156,-0.958758
-532,-55,-42.1765,0.803223,0,0,0,0,0,0,0,-1,692,1079,-42.1765,-0.803243
-525,-55,0,0,0,0,0,0,0,0,0,-1,699,1079,0,0
-518,-55,0,0,0,0,0,0,0,0,0,-1,706,1079,0,0
-511,-55,0,0,0,0,0,0,0,0,0,-1,713,1079,0,0
-504,-55,0,0,0,0,0,0,0,0,0,-1,720,1079,0,0
-497,-55,0,0,0,0,0,0,0,0,0,-1,727,1079,0,0
-490,-55,0,0,0,0,0,0,0,0,0,-1,734,1079,0,0
-483,-55,0,0,0,0,0,0,0,0,0,-1,741,1079,0,0
-476,-55,0,0,0,0,0,0,0,0,0,-1,748,1079,0,0
-469,-55,0,0,0,0,0,0,0,0,0,-1,755,1079,0,0
-462,-55,0,0,0,0,0,0,0,0,0,-1,762,1079,0,0
-455,-55,0,0,0,0,0,0,0,0,0,-1,769,1079,0,0
-448,-55,0,0,0,0,0,0,0,0,0,-1,776,1079,0,0
-441,-55,0,0,0,0,0,0,0,0,0,-1,783,1079,0,0
-434,-55,0,0,0,0,0,0,0,0,0,-1,790,1079,0,0
-427,-55,0,0,0,0,0,0,0,0,0,-1,797,1079,0,0
-420,-55,0,0,0,0,0,0,0,0,0,-1,804,1079,0,0
-413,-55,0,0,0,0,0,0,0,0,0,-1,811,1079,0,0
-406,-55,0,0,0,0,0,0,0,0,0,-1,818,1079,0,0
-399,-55,0,0,0,0,0,0,0,0,0,-1,825,1079,0,0
-392,-55,0,0,0,0,0,0,0,0,0,-1,832,1079,0,0
-385,-55,0,0,0,0,0,0,0,0,0,-1,839,1079,0,0
-378,-55,0,0,0,0,0,0,0,0,0,-1,846,1079,0,0
-371,-55,0,0,0,0,0,0,0,0,0,-1,853,1079,0,0
-364,-55,0,0,0,0,0,0,0,0,0,-1,860,1079,0,0
-357,-55,0,0,0,0,0,0,0,0,0,-1,867,1079,0,0
-350,-55,0,0,0,0,0,0,0,0,0,-1,874,1079,0,0
-343,-55,0,0,0,0,0,0,0,0,0,-1,881,1079,0,0
-336,-55,0,0,0,0,0,0,0,0,0,-1,888,1079,0,0
-329,-55,0,0,0,0,0,0,0,0,0,-1,895,1079,0,0
-322,-55,0,0,0,0,0,0,0,0,0,-1,902,1079,0,0
-315,-55,0,0,0,0,0,0,0,0,0,-1,909,1079,0,0
-308,-55,0,0,0,0,0,0,0,0,0,-1,916,1079,0,0
-301,-55,0,0,0,0,0,0,0,0,0,-1,923,1079,0,0
-294,-55,0,0,0,0,0,0,0,0,0,-1,930,1079,0,0
-287,-55,0,0,0,0,0,0,0,0,0,-1,937,1079,0,0
-280,-55,0,0,0,0,0,0,0,0,0,-1,944,1079,0,0
-273,-55,0,0,0,0,0,0,0,0,0,-1,951,1079,0,0
-266,-55,0,0,0,0,0,0,0,0,0,-1,958,1079,0,0
-259,-55,0,0,0,0,0,0,0,0,0,-1,965,1079,0,0
-252,-55,0,0,0,0,0,0,0,0,0,-1,972,1079,0,0
-245,-55,0,0,0,0,0,0,0,0,0,-1,979,1079,0,0
-238,-55,0,0,0,0,0,0,0,0,0,-1,986,1079,0,0
-231,-55,0,0,0,0,0,0,0,0,0,-1,993,1079,0,0
-224,-55,0,0,0,0,0,0,0,0,0,-1,1000,1079,0,0
-217,-55,0,0,0,0,0,0,0,0,0,-1,1007,1079,0,0
-210,-55,0,0,0,0,0,0,0,0,0,-1,1014,1079,0,0
-203,-55,0,0,0,0,0,0,0,0,0,-1,1021,1079,0,0
-196,-55,0,0,0,0,0,0,0,0,0,-1,1028,1079,0,0
-189,-55,0,0,0,0,0,0,0,0,0,-1,1035,1079,0,0
-182,-55,0,0,0,0,0,0,0,0,0,-1,1042,1079,0,0
-175,-55,0,0,0,0,0,0,0,0,0,-1,1049,1079,0,0
-168,-55,0,0,0,0,0,0,0,0,0,-1,1056,1079,0,0
-161,-55,0,0,0,0,0,0,0,0,0,-1,1063,1079,0,0
-154,-55,0,0,0,0,0,0,0,0,0,-1,1070,1079,0,0
-147,-55,0,0,0,0,0,0,0,0,0,-1,1077,1079,0,0
-140,-55,0,0,0,0,0,0,0,0,0,-1,1084,1079,0,0
-133,-55,0,0,0,0,0,0,0,0,0,-1,1091,1079,0,0
-126,-55,0,0,0,0,0,0,0,0,0,-1,1098,1079,0,0
-119,-55,0,0,0,0,0,0,0,0,0,-1,1105,1079,0,0
-112,-55,0,0,0,0,0,0,0,0,0,-1,1112,1079,0,0
-105,-55,0,0,0,0,0,0,0,0,0,-1,1119,1079,0,0
-98,-55,0,0,0,0,0,0,0,0,0,-1,1126,1079,0,0
-91,-55,0,0,0,0,0,0,0,0,0,-1,1133,1079,0,0
-84,-55,0,0,0,0,0,0,0,0,0,-1,1140,1079,0,0
-77,-55,0,0,0,0,0,0,0,0,0,-1,1147,1079,0,0
-70,-55,0,0,0,0,0,0,0,0,0,-1,1154,1079,0,0
-63,-55,0,0,0,0,0,0,0,0,0,-1,1161,1079,0,0
-56,-55,0,0,0,0,0,0,0,0,0,-1,1168,1079,0,0
-49,-55,0,0,0,0,0,0,0,0,0,-1,1175,1079,0,0
-42,-55,0,0,0,0,0,0,0,0,0,-1,1182,1079,0,0
-35,-55,0,0,0,0,0,0,0,0,0,-1,1189,1079,0,0
-28,-55,0,0,0,0,0,0,0,0,0,-1,1196,1079,0,0
-21,-55,0,0,0,0,0,0,0,0,0,-1,1203,1079,0,0
-14,-55,0,0,0,0,0,0,0,0,0,-1,1210,1079,0,0
-7,-55,0,0,0,0,0,0,0,0,0,-1,1217,1079,0,0
0,-55,0,0,0,0,0,0,0,0,0,-1,1224,1079,0,0
7,-55,0,0,0,0,0,0,0,0,0,-1,1231,1079,0,0
14,-55,0,0,0,0,0,0,0,0,0,-1,1238,1079,0,0
21,-55,0,0,0,0,0,0,0,0,0,-1,1245,1079,0,0
28,-55,0,0,0,0,0,0,0,0,0,-1,1252,1079,0,0
35,-55,0,0,0,0,0,0,0,0,0,-1,1259,1079,0,0
42,-55,0,0,0,0,0,0,0,0,0,-1,1266,1079,0,0
49,-55,0,0,0,0,0,0,0,0,0,-1,1273,1079,0,0
56,-55,0,0,0,0,0,0,0,0,0,-1,1280,1079,0,0
63,-55,0,0,0,0,0,0,0,0,0,-1,1287,1079,0,0
70,-55,0,0,0,0,0,0,0,0,0,-1,1294,1079,0,0
77,-55,0,0,0,0,0,0,0,0,0,-1,1301,1079,0,0
84,-55,0,0,0,0,0,0,0,0,0,-1,1308,1079,0,0
91,-55,0,0,0,0,0,0,0,0,0,-1,1315,1079,0,0
98,-55,0,0,0,0,0,0,0,0,0,-1,1322,1079,0,0
105,-55,0,0,0,0,0,0,0,0,0,-1,1329,1079,0,0
112,-55,0,0,0,0,0,0,0,0,0,-1,1336,1079,0,0
119,-55,0,0,0,0,0,0,0,0,0,-1,1343,1079,0,0
126,-55,0,0,0,0,0,0,0,0,0,-1,1350,1079,0,0
133,-55,0,0,0,0,0,0,0,0,0,-1,1357,1079,0,0
140,-55,0,0,0,0,0,0,0,0,0,-1,1364,1079,0,0
147,-55,0,0,0,0,0,0,0,0,0,-1,1371,1079,0,0
154,-55,0,0,0,0,0,0,0,0,0,-1,1378,1079,0,0
161,-55,0,0,0,0,0,0,0,0,0,-1,1385,1079,0,0
168,-55,0,0,0,0,0,0,0,0,0,-1,1392,1079,0,0
175,-55,0,0,0,0,0,0,0,0,0,-1,1399,1079,0,0
182,-55,0,0,0,0,0,0,0,0,0,-1,1406,1079,0,0
189,-55,0,0,0,0,0,0,0,0,0,-1,1413,1079,0,0
196,-55,0,0,0,0,0,0,0,0,0,-1,1420,1079,0,0
203,-55,0,0,0,0,0,0,0,0,0,-1,1427,1079,0,0
210,-55,0,0,0,0,0,0,0,0,0,-1,1434,1079,0,0
217,-55,0,0,0,0,0,0,0,0,0,-1,1441,1079,0,0
224,-55,0,0,0,0,0,0,0,0,0,-1,1448,1079,0,0
231,-55,0,0,0,0,0,0,0,0,0,-1,1455,1079,0,0
238,-55,0,0,0,0,0,0,0,0,0,-1,1462,1079,0,0
245,-55,0,0,0,0,0,0,0,0,0,-1,1469,1079,0,0
252,-55,0,0,0,0,0,0,0,0,0,-1,1476,1079,0,0
259,-55,0,0,0,0,0,0,0,0,0,-1,1483,1079,0,0
266,-55,0,0,0,0,0,0,0,0,0,-1,1490,1079,0,0
273,-55,0,0,0,0,0,0,0,0,0,-1,1497,1079,0,0
280,-55,0,0,0,0,0,0,0,0,0,-1,1504,1079,0,0
287,-55,0,0,0,0,0,0,0,0,0,-1,1511,1079,0,0
294,-55,0,0,0,0,0,0,0,0,0,-1,1518,1079,0,0
301,-55,0,0,0,0,0,0,0,0,0,-1,1525,1079,0,0
308,-55,0,0,0,0,0,0,0,0,0,-1,1532,1079,0,0
315,-55,0,0,0,0,0,0,0,0,0,-1,1539,1079,0,0
322,-55,0,0,0,0,0,0,0,0,0,-1,1546,1079,0,0
329,-55,0,0,0,0,0,0,0,0,0,-1,1553,1079,0,0
336,-55,0,0,0,0,0,0,0,0,0,-1,1560,1079,0,0
343,-55,0,0,0,0,0,0,0,0,0,-1,1567,1079,0,0
350,-55,0,0,0,0,0,0,0,0,0,-1,1574,1079,0,0
357,-55,0,0,0,0,0,0,0,0,0,-1,1581,1079,0,0
364,-55,0,0,0,0,0,0,0,0,0,-1,1588,1079,0,0
371,-55,0,0,0,0,0,0,0,0,0,-1,1595,1079,0,0
378,-55,0,0,0,0,0,0,0,0,0,-1,1602,1079,0,0
385,-55,0,0,0,0,0,0,0,0,0,-1,1609,1079,0,0
392,-55,0,0,0,0,0,0,0,0,0,-1,1616,1079,0,0
399,-55,0,0,0,0,0,0,0,0,0,-1,1623,1079,0,0
406,-55,0,0,0,0,0,0,0,0,0,-1,1630,1079,0,0
413,-55,0,0,0,0,0,0,0,0,0,-1,1637,1079,0,0
420,-55,0,0,0,0,0,0,0,0,0,-1,1644,1079,0,0
427,-55,0,0,0,0,0,0,0,0,0,-1,1651,1079,0,0
434,-55,0,0,0,0,0,0,0,0,0,-1,1658,1079,0,0
441,-55,0,0,0,0,0,0,0,0,0,-1,1665,1079,0,0
448,-55,0,0,0,0,0,0,0,0,0,-1,1672,1079,0,0
455,-55,0,0,0,0,0,0,0,0,0,-1,1679,1079,0,0
462,-55,0,0,0,0,0,0,0,0,0,-1,1686,1079,0,0
469,-55,0,0,0,0,0,0,0,0,0,-1,1693,1079,0,0
476,-55,0,0,0,0,0,0,0,0,0,-1,1700,1079,0,0
483,-55,0,0,0,0,0,0,0,0,0,-1,1707,1079,0,0
490,-55,0,0,0,0,0,0,0,0,0,-1,1714,1079,0,0
497,-55,0,0,0,0,0,0,0,0,0,-1,1721,1079,0,0
504,-55,0,0,0,0,0,0,0,0,0,-1,1728,1079,0,0
511,-55,0,0,0,0,0,0,0,0,0,-1,1735,1079,0,0
518,-55,0,0,0,0,0,0,0,0,0,-1,1742,1079,0,0
525,-55,0,0,0,0,0,0,0,0,0,-1,1749,1079,0,0
532,-55,0,0,0,0,0,0,0,0,0,-1,1756,1079,0,0
539,-55,0,0,0,0,0,0,0,0,0,-1,1763,1079,0,0
546,-55,0,0,0,0,0,0,0,0,0,-1,1770,1079,0,0
553,-55,0,0,0,0,0,0,0,0,0,-1,1777,1079,0,0
560,-55,0,0,0,0,0,0,0,0,0,-1,1784,1079,0,0
567,-55,0,0,0,0,0,0,0,0,0,-1,1791,1079,0,0
574,-55,0,0,0,0,0,0,0,0,0,-1,1798,1079,0,0
581,-55,0,0,0,0,0,0,0,0,0,-1,1805,1079,0,0
588,-55,0,0,0,0,0,0,0,0,0,-1,1812,1079,0,0
595,-55,0,0,0,0,0,0,0,0,0,-1,1819,1079,0,0
602,-55,0,0,0,0,0,0,0,0,0,-1,1826,1079,0,0
609,-55,0,0,0,0,0,0,0,0,0,-1,1833,1079,0,0
616,-55,0,0,0,0,0,0,0,0,0,-1,1840,1079,0,0
623,-55,0,0,0,0,0,0,0,0,0,-1,1847,1079,0,0
630,-55,0,0,0,0,0,0,0,0,0,-1,1854,1079,0,0
637,-55,0,0,0,0,0,0,0,0,0,-1,1861,1079,0,0
644,-55,0,0,0,0,0,0,0,0,0,-1,1868,1079,0,0
651,-55,56.3434,2.59387,0,0,0,0,0,0,0,-1,1875,1079,56.3434,-2.59386
658,-55,56.4932,2.53174,0,0,0,0,0,0,0,-1,1882,1079,56.4932,-2.53175
665,-55,56.3336,2.48474,0.000733456,0.00218904,-0.00219831,0.0037769,-0.000854401,-0.945254,0.00284581,0.036344,1889,1079,56.3336,-2.48477
672,-55,56.2853,2.59583,0.000393773,0.00110502,-0.00111704,0.00192168,-0.000422882,-0.939508,0.00144289,0.0374657,1896,1079,56.2853,-2.59586
679,-55,56.3579,2.57605,-3.55992e-05,0.000309684,-0.000252027,0.00044253,-0.000168446,-1.0857,0.000364387,0.0346973,1903,1079,56.3579,-2.57611
686,-55,56.3839,2.56543,-0.000538958,-0.000326596,0.000404683,-1.43959e-05,-0.000851157,0.913697,0.000562701,0.0367985,1910,1079,56.3839,-2.56542
693,-55,56.381,2.62329,-0.000869586,-0.000739656,0.000858683,5.65157e-05,-0.00166576,0.823154,0.00112982,0.0403495,1917,1079,56.381,-2.62326
700,-55,56.3329,2.56396,-0.0010627,-0.000841377,0.00113443,0.000187778,-0.00209186,0.834019,0.00146119,0.0353911,1924,1079,56.3329,-2.56395
707,-55,56.3202,2.54883,-0.0013759,-0.000864807,0.00152487,0.000425784,-0.00266649,0.86842,0.00193527,0.0266512,1931,1079,56.3202,-2.54884
714,-55,56.3483,2.51575,0,0,0,0,0,0,0,-1,1938,1079,56.3483,-2.51575
721,-55,55.775,3.13965,0,0,0,0,0,0,0,-1,1945,1079,55.775,-3.13971
728,-55,54.8983,7.02478,0,0,0,0,0,0,0,-1,1952,1079,54.8983,-7.02483
735,-55,54.8188,6.73779,-0.00335321,0.00142355,0.00231915,0.00236426,-0.00429392,1.18545,0.00389754,0.0215436,1959,1079,54.8188,-6.73779
742,-55,54.8213,6.45813,-0.0033351,0.00244923,0.00264701,0.00347769,-0.00436356,1.20021,0.00453677,0.0217995,1966,1079,54.8213,-6.45807
749,-55,54.8064,6.16589,-0.00332199,0.00437692,0.00262164,0.00518486,-0.00412993,1.27185,0.00538938,0.0139347,1973,1079,54.8064,-6.16589
756,-55,54.6841,5.88708,-0.0029609,0.00651161,0.00233634,0.00705651,-0.0035058,1.34166,0.00621195,0.0114015,1980,1079,54.6841,-5.88706
763,-55,54.6285,5.63391,-0.00202202,0.0098637,0.00184065,0.0101422,-0.00230054,1.42062,0.0076446,0.0148244,1987,1079,54.6286,-5.63391
770,-55,54.6001,5.349,-0.000350148,0.0144289,0.000920876,0.0144861,-0.000407306,1.50881,0.00979599,0.0160996,1994,1079,54.6001,-5.34895
777,-55,54.5173,5.0614,0.00247479,0.0204937,-0.000706776,0.0205214,0.00244711,-1.53165,0.0129426,0.0137297,2001,1079,54.5173,-5.06143
784,-55,54.4619,4.65295,0.00612474,0.0273637,-0.0029117,0.0277556,0.0057328,-1.43699,0.0169197,0.0279328,2008,1079,54.462,-4.6529
791,-55,54.9697,4.20508,0.0108524,0.0353604,-0.00593061,0.0367201,0.00949269,-1.34542,0.0220091,0.041612,2015,1079,54.9697,-4.20504
798,-55,55.6699,3.91748,0.017177,0.0449331,-0.0101476,0.0482474,0.0138628,-1.25512,0.0286833,0.0432898,2022,1079,55.6699,-3.91753
805,-55,56.0369,3.85291,0.025254,0.0563707,-0.0158724,0.0630384,0.0185863,-1.1731,0.0374025,0.0470242,2029,1079,56.0368,-3.85289
812,-55,56.2637,3.92749,0.0350808,0.0702482,-0.0235197,0.0820304,0.0232985,-1.10639,0.0488109,0.0491215,2036,1079,56.2637,-3.92748
-700,-62,-41.0232,-0.968506,0,0,0,0,0,0,0,-1,524,1086,-41.0232,0.968478
-693,-62,-39.7678,0.409668,0,0,0,0,0,0,0,-1,531,1086,-39.7678,-0.409622
-686,-62,-39.6623,0.824829,0.0499822,0.0261273,0.0492089,0.0886886,-0.0125791,0.6665,0.0637339,0.0499492,538,1086,-39.6623,-0.824825
-679,-62,-39.6243,1.33875,0.0398194,0.0269928,0.0375028,0.0714533,-0.00464107,0.700713,0.0492555,0.046591,545,1086,-39.6243,-1.33879
-672,-62,-39.5617,1.58691,0.0309567,0.0264216,0.0282822,0.0570621,0.000316203,0.745396,0.0379365,0.0453029,552,1086,-39.5617,-1.58689
-665,-62,-41.3539,-1.07739,0.0232825,0.0247933,0.0210219,0.0450734,0.00300244,0.803358,0.0290998,0.0461498,559,1086,-41.3539,1.0774
-658,-62,-40.9034,-0.254639,0,0,0,0,0,0,0,-1,566,1086,-40.9034,0.254643
-651,-62,-40.5751,1.33777,0.0117449,0.0193886,0.0108586,0.0270783,0.00405515,0.95461,0.0168638,0.0423016,573,1086,-40.5752,-1.33777
-644,-62,-40.5335,2.12732,0.0076253,0.0160176,0.00722385,0.0201756,0.00346731,1.04852,0.0124565,0.0167323,580,1086,-40.5335,-2.12733
-637,-62,-40.5805,2.53625,0.00475998,0.0126864,0.00337746,0.0139303,0.00351605,1.21791,0.0083649,0.0147314,587,1086,-40.5805,-2.5362
-630,-62,-40.6367,2.90808,0.00237869,0.0088265,0.000987113,0.00897424,0.00223096,1.42224,0.00539518,0.0159329,594,1086,-40.6367,-2.90812
-623,-62,-40.7103,3.28381,0.000978034,0.00542447,-0.000503396,0.00548075,0.000921756,-1.45946,0.00338863,0.0185104,601,1086,-40.7103,-3.28377
-616,-62,-40.7217,3.67029,0.000560639,0.00351363,-0.00128868,0.00399691,7.73552e-05,-1.21201,0.0026392,0.0192214,608,1086,-40.7217,-3.67023
-609,-62,-40.6861,4.00073,0.000774662,0.00117295,-0.00167028,0.00265591,-0.000708304,-0.844731,0.00204795,0.0190115,615,1086,-40.6861,-4.0007
-602,-62,-40.5787,4.323,0.00101592,-0.000364215,-0.00201084,0.0024518,-0.0018001,-0.620108,0.00246443,0.0170266,622,1086,-40.5787,-4.32298
-595,-62,-40.4453,4.71082,0.00105179,-0.000991725,-0.00215932,0.00241889,-0.00235883,-0.564415,0.00275849,0.0372353,629,1086,-40.4453,-4.71079
-588,-62,-40.3744,5.12061,0,0,0,0,0,0,0,-1,636,1086,-40.3744,-5.12058
-581,-62,-42.1488,0.740356,0,0,0,0,0,0,0,-1,643,1086,-42.1488,-0.740383
-574,-62,-42.2591,0.625732,0.00181372,-0.00169871,-0.00206159,0.00276572,-0.00265071,-0.432607,0.00312741,0.0370044,650,1086,-42.2591,-0.62573
-567,-62,-42.3708,0.52771,0.00201719,-0.00149581,-0.0018554,0.00281564,-0.00229427,-0.406387,0.00295532,0.041073,657,1086,-42.3708,-0.527727
-560,-62,-42.3157,0.57312,0.00215134,-0.00111653,-0.001679,0.00286022,-0.00182541,-0.3995,0.00272715,0.0421193,664,1086,-42.3157,-0.573072
-553,-62,-42.2059,0.6698,0.00233253,-0.000692,-0.00162835,0.00304253,-0.001402,-0.411171,0.00262367,0.0391601,671,1086,-42.2059,-0.669779
-546,-62,-42.2335,0.796631,0.00290575,-0.000450715,-0.00191829,0.00377631,-0.00132127,-0.426024,0.00305474,0.0337303,678,1086,-42.2335,-0.796585
-539,-62,-42.2474,0.799805,0.00446032,-0.00103479,-0.00333398,0.00603301,-0.00260747,-0.440764,0.0051176,0.0381283,685,1086,-42.2474,-0.799817
-532,-62,-42.1869,0.794678,0.00546277,-0.00153684,-0.0049371,0.0080147,-0.00408878,-0.477068,0.00710943,0.043397,692,1086,-42.1869,-0.794641
-525,-62,0,0,0,0,0,0,0,0,0,-1,699,1086,0,0
-518,-62,0,0,0,0,0,0,0,0,0,-1,706,1086,0,0
-511,-62,0,0,0,0,0,0,0,0,0,-1,713,1086,0,0
-504,-62,0,0,0,0,0,0,0,0,0,-1,720,1086,0,0
-497,-62,0,0,0,0,0,0,0,0,0,-1,727,1086,0,0
-490,-62,0,0,0,0,0,0,0,0,0,-1,734,1086,0,0
-483,-62,0,0,0,0,0,0,0,0,0,-1,741,1086,0,0
-476,-62,0,0,0,0,0,0,0,0,0,-1,748,1086,0,0
-469,-62,0,0,0,0,0,0,0,0,0,-1,755,1086,0,0
-462,-62,0,0,0,0,0,0,0,0,0,-1,762,1086,0,0
-455,-62,0,0,0,0,0,0,0,0,0,-1,769,1086,0,0
-448,-62,0,0,0,0,0,0,0,0,0,-1,776,1086,0,0
-441,-62,0,0,0,0,0,0,0,0,0,-1,783,1086,0,0
-434,-62,0,0,0,0,0,0,0,0,0,-1,790,1086,0,0
-427,-62,0,0,0,0,0,0,0,0,0,-1,797,1086,0,0
-420,-62,0,0,0,0,0,0,0,0,0,-1,804,1086,0,0
-413,-62,0,0,0,0,0,0,0,0,0,-1,811,1086,0,0
-406,-62,0,0,0,0,0,0,0,0,0,-1,818,1086,0,0
-399,-62,0,0,0,0,0,0,0,0,0,-1,825,1086,0,0
-392,-62,0,0,0,0,0,0,0,0,0,-1,832,1086,0,0
-385,-62,0,0,0,0,0,0,0,0,0,-1,839,1086,0,0
-378,-62,0,0,0,0,0,0,0,0,0,-1,846,1086,0,0
-371,-62,0,0,0,0,0,0,0,0,0,-1,853,1086,0,0
-364,-62,0,0,0,0,0,0,0,0,0,-1,860,1086,0,0
-357,-62,0,0,0,0,0,0,0,0,0,-1,867,1086,0,0
-350,-62,0,0,0,0,0,0,0,0,0,-1,874,1086,0,0
-343,-62,0,0,0,0,0,0,0,0,0,-1,881,1086,0,0
-336,-62,0,0,0,0,0,0,0,0,0,-1,888,1086,0,0
-329,-62,0,0,0,0,0,0,0,0,0,-1,895,1086,0,0
-322,-62,0,0,0,0,0,0,0,0,0,-1,902,1086,0,0
-315,-62,0,0,0,0,0,0,0,0,0,-1,909,1086,0,0
-308,-62,0,0,0,0,0,0,0,0,0,-1,916,1086,0,0
-301,-62,0,0,0,0,0,0,0,0,0,-1,923,1086,0,0
-294,-62,0,0,0,0,0,0,0,0,0,-1,930,1086,0,0
-287,-62,0,0,0,0,0,0,0,0,0,-1,937,1086,0,0
-280,-62,0,0,0,0,0,0,0,0,0,-1,944,1086,0,0
-273,-62,0,0,0,0,0,0,0,0,0,-1,951,1086,0,0
-266,-62,0,0,0,0,0,0,0,0,0,-1,958,1086,0,0
-259,-62,0,0,0,0,0,0,0,0,0,-1,965,1086,0,0
-252,-62,0,0,0,0,0,0,0,0,0,-1,972,1086,0,0
-245,-62,0,0,0,0,0,0,0,0,0,-1,979,1086,0,0
-238,-62,0,0,0,0,0,0,0,0,0,-1,986,1086,0,0
-231,-62,0,0,0,0,0,0,0,0,0,-1,993,1086,0,0
-224,-62,0,0,0,0,0,0,0,0,0,-1,1000,1086,0,0
-217,-62,0,0,0,0,0,0,0,0,0,-1,1007,1086,0,0
-210,-62,0,0,0,0,0,0,0,0,0,-1,1014,1086,0,0
-203,-62,0,0,0,0,0,0,0,0,0,-1,1021,1086,0,0
-196,-62,0,0,0,0,0,0,0,0,0,-1,1028,1086,0,0
-189,-62,0,0,0,0,0,0,0,0,0,-1,1035,1086,0,0
-182,-62,0,0,0,0,0,0,0,0,0,-1,1042,1086,0,0
-175,-62,0,0,0,0,0,0,0,0,0,-1,1049,1086,0,0
-168,-62,0,0,0,0,0,0,0,0,0,-1,1056,1086,0,0
-161,-62,0,0,0,0,0,0,0,0,0,-1,1063,1086,0,0
-154,-62,0,0,0,0,0,0,0,0,0,-1,1070,1086,0,0
-147,-62,0,0,0,0,0,0,0,0,0,-1,1077,1086,0,0
-140,-62,0,0,0,0,0,0,0,0,0,-1,1084,1086,0,0
-133,-62,0,0,0,0,0,0,0,0,0,-1,1091,1086,0,0
-126,-62,0,0,0,0,0,0,0,0,0,-1,1098,1086,0,0
-119,-62,0,0,0,0,0,0,0,0,0,-1,1105,1086,0,0
-112,-62,0,0,0,0,0,0,0,0,0,-1,1112,1086,0,0
-105,-62,0,0,0,0,0,0,0,0,0,-1,1119,1086,0,0
-98,-62,0,0,0,0,0,0,0,0,0,-1,1126,1086,0,0
-91,-62,0,0,0,0,0,0,0,0,0,-1,1133,1086,0,0
-84,-62,0,0,0,0,0,0,0,0,0,-1,1140,1086,0,0
-77,-62,0,0,0,0,0,0,0,0,0,-1,1147,1086,0,0
-70,-62,0,0,0,0,0,0,0,0,0,-1,1154,1086,0,0
-63,-62,0,0,0,0,0,0,0,0,0,-1,1161,1086,0,0
-56,-62,0,0,0,0,0,0,0,0,0,-1,1168,1086,0,0
-49,-62,0,0,0,0,0,0,0,0,0,-1,1175,1086,0,0
-42,-62,0,0,0,0,0,0,0,0,0,-1,1182,1086,0,0
-35,-62,0,0,0,0,0,0,0,0,0,-1,1189,1086,0,0
-28,-62,0,0,0,0,0,0,0,0,0,-1,1196,1086,0,0
-21,-62,0,0,0,0,0,0,0,0,0,-1,1203,1086,0,0
-14,-62,0,0,0,0,0,0,0,0,0,-1,1210,1086,0,0
-7,-62,0,0,0,0,0,0,0,0,0,-1,1217,1086,0,0
0,-62,0,0,0,0,0,0,0,0,0,-1,1224,1086,0,0
7,-62,0,0,0,0,0,0,0,0,0,-1,1231,1086,0,0
14,-62,0,0,0,0,0,0,0,0,0,-1,1238,1086,0,0
21,-62,0,0,0,0,0,0,0,0,0,-1,1245,1086,0,0
28,-62,0,0,0,0,0,0,0,0,0,-1,1252,1086,0,0
35,-62,0,0,0,0,0,0,0,0,0,-1,1259,1086,0,0
42,-62,0,0,0,0,0,0,0,0,0,-1,1266,1086,0,0
49,-62,0,0,0,0,0,0,0,0,0,-1,1273,1086,0,0
56,-62,0,0,0,0,0,0,0,0,0,-1,1280,1086,0,0
63,-62,0,0,0,0,0,0,0,0,0,-1,1287,1086,0,0
70,-62,0,0,0,0,0,0,0,0,0,-1,1294,1086,0,0
77,-62,0,0,0,0,0,0,0,0,0,-1,1301,1086,0,0
84,-62,0,0,0,0,0,0,0,0,0,-1,1308,1086,0,0
91,-62,0,0,0,0,0,0,0,0,0,-1,1315,1086,0,0
98,-62,0,0,0,0,0,0,0,0,0,-1,1322,1086,0,0
105,-62,0,0,0,0,0,0,0,0,0,-1,1329,1086,0,0
112,-62,0,0,0,0,0,0,0,0,0,-1,1336,1086,0,0
119,-62,0,0,0,0,0,0,0,0,0,-1,1343,1086,0,0
126,-62,0,0,0,0,0,0,0,0,0,-1,1350,1086,0,0
133,-62,0,0,0,0,0,0,0,0,0,-1,1357,1086,0,0
140,-62,0,0,0,0,0,0,0,0,0,-1,1364,1086,0,0
147,-62,0,0,0,0,0,0,0,0,0,-1,1371,1086,0,0
154,-62,0,0,0,0,0,0,0,0,0,-1,1378,1086,0,0
161,-62,0,0,0,0,0,0,0,0,0,-1,1385,1086,0,0
168,-62,0,0,0,0,0,0,0,0,0,-1,1392,1086,0,0
175,-62,0,0,0,0,0,0,0,0,0,-1,1399,1086,0,0
182,-62,0,0,0,0,0,0,0,0,0,-1,1406,1086,0,0
189,-62,0,0,0,0,0,0,0,0,0,-1,1413,1086,0,0
196,-62,0,0,0,0,0,0,0,0,0,-1,1420,1086,0,0
203,-62,0,0,0,0,0,0,0,0,0,-1,1427,1086,0,0
210,-62,0,0,0,0,0,0,0,0,0,-1,1434,1086,0,0
217,-62,0,0,0,0,0,0,0,0,0,-1,1441,1086,0,0
224,-62,0,0,0,0,0,0,0,0,0,-1,1448,1086,0,0
231,-62,0,0,0,0,0,0,0,0,0,-1,1455,1086,0,0
238,-62,0,0,0,0,0,0,0,0,0,-1,1462,1086,0,0
245,-62,0,0,0,0,0,0,0,0,0,-1,1469,1086,0,0
252,-62,0,0,0,0,0,0,0,0,0,-1,1476,1086,0,0
259,-62,0,0,0,0,0,0,0,0,0,-1,1483,1086,0,0
266,-62,0,0,0,0,0,0,0,0,0,-1,1490,1086,0,0
273,-62,0,0,0,0,0,0,0,0,0,-1,1497,1086,0,0
280,-62,0,0,0,0,0,0,0,0,0,-1,1504,1086,0,0
287,-62,0,0,0,0,0,0,0,0,0,-1,1511,1086,0,0
294,-62,0,0,0,0,0,0,0,0,0,-1,1518,1086,0,0
301,-62,0,0,0,0,0,0,0,0,0,-1,1525,1086,0,0
308,-62,0,0,0,0,0,0,0,0,0,-1,1532,1086,0,0
315,-62,0,0,0,0,0,0,0,0,0,-1,1539,1086,0,0
322,-62,0,0,0,0,0,0,0,0,0,-1,1546,1086,0,0
329,-62,0,0,0,0,0,0,0,0,0,-1,1553,1086,0,0
336,-62,0,0,0,0,0,0,0,0,0,-1,1560,1086,0,0
343,-62,0,0,0,0,0,0,0,0,0,-1,1567,1086,0,0
350,-62,0,0,0,0,0,0,0,0,0,-1,1574,1086,0,0
357,-62,0,0,0,0,0,0,0,0,0,-1,1581,1086,0,0
364,-62,0,0,0,0,0,0,0,0,0,-1,1588,1086,0,0
371,-62,0,0,0,0,0,0,0,0,0,-1,1595,1086,0,0
378,-62,0,0,0,0,0,0,0,0,0,-1,1602,1086,0,0
385,-62,0,0,0,0,0,0,0,0,0,-1,1609,1086,0,0
392,-62,0,0,0,0,0,0,0,0,0,-1,1616,1086,0,0
399,-62,0,0,0,0,0,0,0,0,0,-1,1623,1086,0,0
406,-62,0,0,0,0,0,0,0,0,0,-1,1630,1086,0,0
413,-62,0,0,0,0,0,0,0,0,0,-1,1637,1086,0,0
420,-62,0,0,0,0,0,0,0,0,0,-1,1644,1086,0,0
427,-62,0,0,0,0,0,0,0,0,0,-1,1651,1086,0,0
434,-62,0,0,0,0,0,0,0,0,0,-1,1658,1086,0,0
441,-62,0,0,0,0,0,0,0,0,0,-1,1665,1086,0,0
448,-62,0,0,0,0,0,0,0,0,0,-1,1672,1086,0,0
455,-62,0,0,0,0,0,0,0,0,0,-1,1679,1086,0,0
462,-62,0,0,0,0,0,0,0,0,0,-1,1686,1086,0,0
469,-62,0,0,0,0,0,0,0,0,0,-1,1693,1086,0,0
476,-62,0,0,0,0,0,0,0,0,0,-1,1700,1086,0,0
483,-62,0,0,0,0,0,0,0,0,0,-1,1707,1086,0,0
490,-62,0,0,0,0,0,0,0,0,0,-1,1714,1086,0,0
497,-62,0,0,0,0,0,0,0,0,0,-1,1721,1086,0,0
504,-62,0,0,0,0,0,0,0,0,0,-1,1728,1086,0,0
511,-62,0,0,0,0,0,0,0,0,0,-1,1735,1086,0,0
518,-62,0,0,0,0,0,0,0,0,0,-1,1742,1086,0,0
525,-62,0,0,0,0,0,0,0,0,0,-1,1749,1086,0,0
532,-62,0,0,0,0,0,0,0,0,0,-1,1756,1086,0,0
539,-62,0,0,0,0,0,0,0,0,0,-1,1763,1086,0,0
546,-62,0,0,0,0,0,0,0,0,0,-1,1770,1086,0,0
553,-62,0,0,0,0,0,0,0,0,0,-1,1777,1086,0,0
560,-62,0,0,0,0,0,0,0,0,0,-1,1784,1086,0,0
567,-62,0,0,0,0,0,0,0,0,0,-1,1791,1086,0,0
574,-62,0,0,0,0,0,0,0,0,0,-1,1798,1086,0,0
581,-62,0,0,0,0,0,0,0,0,0,-1,1805,1086,0,0
588,-62,0,0,0,0,0,0,0,0,0,-1,1812,1086,0,0
595,-62,0,0,0,0,0,0,0,0,0,-1,1819,1086,0,0
602,-62,0,0,0,0,0,0,0,0,0,-1,1826,1086,0,0
609,-62,0,0,0,0,0,0,0,0,0,-1,1833,1086,0,0
616,-62,0,0,0,0,0,0,0,0,0,-1,1840,1086,0,0
623,-62,0,0,0,0,0,0,0,0,0,-1,1847,1086,0,0
630,-62,0,0,0,0,0,0,0,0,0,-1,1854,1086,0,0
637,-62,0,0,0,0,0,0,0,0,0,-1,1861,1086,0,0
644,-62,0,0,0,0,0,0,0,0,0,-1,1868,1086,0,0
651,-62,56.2856,2.40918,0.00266556,0.00554071,-0.0046346,0.00895557,-0.000749301,-0.935784,0.00623517,0.0413577,1875,1086,56.2856,-2.40922
658,-62,56.4601,2.26672,0.0020243,0.00351223,-0.00292176,0.00578326,-0.000246719,-0.910064,0.00394032,0.0387492,1882,1086,56.4601,-2.26676
665,-62,56.3658,2.47778,0.00139446,0.00202392,-0.00168433,0.00342267,-4.28874e-06,-0.877763,0.00228321,0.0368101,1889,1086,56.3659,-2.47783
672,-62,56.3184,2.67761,0.000811963,0.000974357,-0.000739998,0.0016376,0.00014872,-0.840043,0.00104569,0.0361136,1896,1086,56.3184,-2.67765
679,-62,56.4193,2.6416,0.000193486,0.000232543,-4.05333e-05,0.000258007,0.000168022,-1.00989,0.000151215,0.0331859,1903,1086,56.4193,-2.64156
686,-62,56.3811,2.58484,-0.000351814,-0.000355102,0.000472556,0.000119101,-0.000826017,0.783659,0.000594369,0.0349685,1910,1086,56.3811,-2.58478
693,-62,56.3485,2.54907,-0.000650964,-0.000730083,0.00080496,0.000115408,-0.00149646,0.760846,0.00103825,0.037911,1917,1086,56.3485,-2.54907
700,-62,56.3313,2.49951,-0.000805951,-0.000827468,0.000970273,0.000153623,-0.00178704,0.779854,0.00124573,0.0338059,1924,1086,56.3313,-2.49956
707,-62,56.2583,2.57947,-0.00108496,-0.000855191,0.00132927,0.000364152,-0.0023043,0.828504,0.00167087,0.0244167,1931,1086,56.2583,-2.57947
714,-62,56.2849,2.44922,-0.00142859,-0.000690441,0.00159895,0.000581475,-0.00270051,0.898823,0.00202222,0.0410462,1938,1086,56.2849,-2.44924
721,-62,56.3545,2.31702,0,0,0,0,0,0,0,-1,1945,1086,56.3544,-2.31704
728,-62,54.5741,7.15649,0,0,0,0,0,0,0,-1,1952,1086,54.5741,-7.1565
735,-62,54.5062,6.73999,-0.00282277,0.00116537,0.00210331,0.00206962,-0.00372702,1.16477,0.00339198,0.0281544,1959,1086,54.5062,-6.74001
742,-62,54.4568,6.49255,-0.00283242,0.00207464,0.00242979,0.00307418,-0.00383196,1.18053,0.00399525,0.0286079,1966,1086,54.4568,-6.49252
749,-62,54.4238,6.16418,-0.0029205,0.00385174,0.00252549,0.00468982,-0.00375858,1.25038,0.00488755,0.021158,1973,1086,54.4238,-6.16413
756,-62,54.3175,5.9209,-0.00267141,0.00579891,0.00240251,0.0064329,-0.0033054,1.31279,0.00571824,0.0153991,1980,1086,54.3175,-5.9209
763,-62,54.2963,5.61487,-0.00182207,0.00895251,0.00211023,0.00935106,-0.00222062,1.38413,0.00709111,0.0175881,1987,1086,54.2962,-5.61485
770,-62,54.2832,5.29065,-0.000338343,0.0132378,0.0014225,0.0133852,-0.00048579,1.46751,0.00908974,0.0150367,1994,1086,54.2833,-5.29064
777,-62,54.1553,4.94971,0.00220935,0.0188406,0.000137731,0.0188418,0.00220821,1.56252,0.0118936,0.0152788,2001,1086,54.1554,-4.94973
784,-62,54.1003,4.5531,0.00561302,0.0251843,-0.0016428,0.0253212,0.00547608,-1.48763,0.0153839,0.026311,2008,1086,54.1003,-4.55316
791,-62,54.0217,4.13037,0.0101455,0.0325605,-0.00411763,0.033293,0.00941307,-1.39475,0.0198174,0.0444418,2015,1086,54.0218,-4.13043
798,-62,53.9653,3.7113,0,0,0,0,0,0,0,-1,2022,1086,53.9652,-3.71134
805,-62,56.6111,3.06152,0,0,0,0,0,0,0,-1,2029,1086,56.6111,-3.06152
812,-62,56.8572,3.14697,0,0,0,0,0,0,0,-1,2036,1086,56.8573,-3.14693
-700,-69,-41.3457,-0.81958,0,0,0,0,0,0,0,-1,524,1093,-41.3457,0.819564
-693,-69,-40.886,-0.292969,0.0690206,0.017102,0.0695568,0.117304,-0.0311817,0.606798,0.0904074,0.0473505,531,1093,-40.886,0.292956
-686,-69,-40.2435,0.43103,0.0567038,0.0193312,0.0541247,0.0952771,-0.019242,0.619182,0.070809,0.0442155,538,1093,-40.2435,-0.430989
-679,-69,-39.8304,0.731689,0.0456847,0.0201132,0.041721,0.0765351,-0.0107372,0.636712,0.0549533,0.0462594,545,1093,-39.8304,-0.731714
-672,-69,-39.7408,1.22058,0.0359991,0.0198861,0.0317386,0.0606878,-0.00480254,0.661104,0.0421507,0.0469235,552,1093,-39.7409,-1.22057
-665,-69,-39.5702,1.34985,0,0,0,0,0,0,0,-1,559,1093,-39.5702,-1.34983
-658,-69,-39.8486,1.54236,0.0202917,0.0172917,0.017345,0.0362014,0.00138203,0.742265,0.023687,0.0453469,566,1093,-39.8486,-1.54236
-651,-69,-40.0987,1.63062,0.0144882,0.0151895,0.0123036,0.0271474,0.00253017,0.799644,0.0173166,0.0352801,573,1093,-40.0987,-1.63059
-644,-69,-40.103,2.10327,0.00986588,0.0126732,0.00825593,0.0196439,0.00289512,0.869601,0.0122455,0.0114053,580,1093,-40.103,-2.10327
-637,-69,-40.1589,2.54443,0.00626922,0.0101566,0.0041169,0.0127656,0.00366025,1.00595,0.00759041,0.0129843,587,1093,-40.1589,-2.54438
-630,-69,-40.1817,2.90271,0.00337036,0.00710633,0.00134198,0.0075384,0.00293829,1.25931,0.00438741,0.015957,594,1093,-40.1817,-2.90276
-623,-69,-40.187,3.26221,0.001733,0.00422374,-0.000369219,0.00427731,0.00167942,-1.42669,0.00248841,0.0186466,601,1093,-40.1869,-3.26219
-616,-69,-40.2191,3.60657,0.00104731,0.00274252,-0.00118901,0.00335511,0.000434713,-1.09505,0.00210684,0.0218017,608,1093,-40.2191,-3.60662
-609,-69,-40.2403,3.95496,0.00106573,0.000736502,-0.00152228,0.00243227,-0.000630039,-0.731539,0.0018673,0.0196157,615,1093,-40.2403,-3.95493
-602,-69,-40.1934,4.35205,0.00131845,-0.000633538,-0.00176654,0.00236068,-0.00167577,-0.533023,0.0023416,0.0203471,622,1093,-40.1934,-4.35201
-595,-69,-40.0847,4.65356,0.00136929,-0.00115725,-0.00186045,0.00235483,-0.00214278,-0.487147,0.00259766,0.0383627,629,1093,-40.0847,-4.6536
-588,-69,-40.0931,4.96826,0,0,0,0,0,0,0,-1,636,1093,-40.0931,-4.96825
-581,-69,-42.135,0.834229,0,0,0,0,0,0,0,-1,643,1093,-42.135,-0.834251
-574,-69,-42.1965,0.606201,0.00214292,-0.00186796,-0.00174544,0.00279612,-0.00252115,-0.358096,0.0030713,0.0328307,650,1093,-42.1965,-0.606216
-567,-69,-42.3416,0.417603,0.00238779,-0.00172505,-0.00155604,0.00291016,-0.00224742,-0.32388,0.00298591,0.0391038,657,1093,-42.3416,-0.417588
-560,-69,-42.3444,0.459229,0.00256663,-0.00141835,-0.00140007,0.00300934,-0.00186107,-0.30626,0.00283786,0.0418666,664,1093,-42.3444,-0.459204
-553,-69,-42.1982,0.541626,0.00271963,-0.00105916,-0.00137811,0.00316882,-0.00150835,-0.31509,0.0027565,0.0397587,671,1093,-42.1982,-0.541607
-546,-69,-42.1985,0.683716,0.0032687,-0.000838633,-0.00165723,0.00385397,-0.0014239,-0.339486,0.003153,0.0355562,678,1093,-42.1985,-0.683737
-539,-69,-42.1096,0.75415,0.00497241,-0.00139511,-0.00288168,0.00608288,-0.00250557,-0.367818,0.00509991,0.0385274,685,1093,-42.1095,-0.754117
-532,-69,-41.9973,0.803833,0.00614762,-0.00197744,-0.00434309,0.00803207,-0.0038619,-0.409382,0.00700626,0.0439949,692,1093,-41.9973,-0.803822
-525,-69,0,0,0,0,0,0,0,0,0,-1,699,1093,0,0
-518,-69,0,0,0,0,0,0,0,0,0,-1,706,1093,0,0
-511,-69,0,0,0,0,0,0,0,0,0,-1,713,1093,0,0
-504,-69,0,0,0,0,0,0,0,0,0,-1,720,1093,0,0
-497,-69,0,0,0,0,0,0,0,0,0,-1,727,1093,0,0
-490,-69,0,0,0,0,0,0,0,0,0,-1,734,1093,0,0
-483,-69,0,0,0,0,0,0,0,0,0,-1,741,1093,0,0
-476,-69,0,0,0,0,0,0,0,0,0,-1,748,1093,0,0
-469,-69,0,0,0,0,0,0,0,0,0,-1,755,1093,0,0
-462,-69,0,0,0,0,0,0,0,0,0,-1,762,1093,0,0
-455,-69,0,0,0,0,0,0,0,0,0,-1,769,1093,0,0
-448,-69,0,0,0,0,0,0,0,0,0,-1,776,1093,0,0
-441,-69,0,0,0,0,0,0,0,0,0,-1,783,1093,0,0
-434,-69,0,0,0,0,0,0,0,0,0,-1,790,1093,0,0
-427,-69,0,0,0,0,0,0,0,0,0,-1,797,1093,0,0
-420,-69,0,0,0,0,0,0,0,0,0,-1,804,1093,0,0
-413,-69,0,0,0,0,0,0,0,0,0,-1,811,1093,0,0
-406,-69,0,0,0,0,0,0,0,0,0,-1,818,1093,0,0
-399,-69,0,0,0,0,0,0,0,0,0,-1,825,1093,0,0
-392,-69,0,0,0,0,0,0,0,0,0,-1,832,1093,0,0
-385,-69,0,0,0,0,0,0,0,0,0,-1,839,1093,0,0
-378,-69,0,0,0,0,0,0,0,0,0,-1,846,1093,0,0
-371,-69,0,0,0,0,0,0,0,0,0,-1,853,1093,0,0
-364,-69,0,0,0,0,0,0,0,0,0,-1,860,1093,0,0
-357,-69,0,0,0,0,0,0,0,0,0,-1,867,1093,0,0
-350,-69,0,0,0,0,0,0,0,0,0,-1,874,1093,0,0
-343,-69,0,0,0,0,0,0,0,0,0,-1,881,1093,0,0
-336,-69,0,0,0,0,0,0,0,0,0,-1,888,1093,0,0
-329,-69,0,0,0,0,0,0,0,0,0,-1,895,1093,0,0
-322,-69,0,0,0,0,0,0,0,0,0,-1,902,1093,0,0
-315,-69,0,0,0,0,0,0,0,0,0,-1,909,1093,0,0
-308,-69,0,0,0,0,0,0,0,0,0,-1,916,1093,0,0
-301,-69,0,0,0,0,0,0,0,0,0,-1,923,1093,0,0
-294,-69,0,0,0,0,0,0,0,0,0,-1,930,1093,0,0
-287,-69,0,0,0,0,0,0,0,0,0,-1,937,1093,0,0
-280,-69,0,0,0,0,0,0,0,0,0,-1,944,1093,0,0
-273,-69,0,0,0,0,0,0,0,0,0,-1,951,1093,0,0
-266,-69,0,0,0,0,0,0,0,0,0,-1,958,1093,0,0
-259,-69,0,0,0,0,0,0,0,0,0,-1,965,1093,0,0
-252,-69,0,0,0,0,0,0,0,0,0,-1,972,1093,0,0
-245,-69,0,0,0,0,0,0,0,0,0,-1,979,1093,0,0
-238,-69,0,0,0,0,0,0,0,0,0,-1,986,1093,0,0
-231,-69,0,0,0,0,0,0,0,0,0,-1,993,1093,0,0
-224,-69,0,0,0,0,0,0,0,0,0,-1,1000,1093,0,0
-217,-69,0,0,0,0,0,0,0,0,0,-1,1007,1093,0,0
-210,-69,0,0,0,0,0,0,0,0,0,-1,1014,1093,0,0
-203,-69,0,0,0,0,0,0,0,0,0,-1,1021,1093,0,0
-196,-69,0,0,0,0,0,0,0,0,0,-1,1028,1093,0,0
-189,-69,0,0,0,0,0,0,0,0,0,-1,1035,1093,0,0
-182,-69,0,0,0,0,0,0,0,0,0,-1,1042,1093,0,0
-175,-69,0,0,0,0,0,0,0,0,0,-1,1049,1093,0,0
-168,-69,0,0,0,0,0,0,0,0,0,-1,1056,1093,0,0
-161,-69,0,0,0,0,0,0,0,0,0,-1,1063,1093,0,0
-154,-69,0,0,0,0,0,0,0,0,0,-1,1070,1093,0,0
-147,-69,0,0,0,0,0,0,0,0,0,-1,1077,1093,0,0
-140,-69,0,0,0,0,0,0,0,0,0,-1,1084,1093,0,0
-133,-69,0,0,0,0,0,0,0,0,0,-1,1091,1093,0,0
-126,-69,0,0,0,0,0,0,0,0,0,-1,1098,1093,0,0
-119,-69,0,0,0,0,0,0,0,0,0,-1,1105,1093,0,0
-112,-69,0,0,0,0,0,0,0,0,0,-1,1112,1093,0,0
-105,-69,0,0,0,0,0,0,0,0,0,-1,1119,1093,0,0
-98,-69,0,0,0,0,0,0,0,0,0,-1,1126,1093,0,0
-91,-69,0,0,0,0,0,0,0,0,0,-1,1133,1093,0,0
-84,-69,0,0,0,0,0,0,0,0,0,-1,1140,1093,0,0
-77,-69,0,0,0,0,0,0,0,0,0,-1,1147,1093,0,0
-70,-69,0,0,0,0,0,0,0,0,0,-1,1154,1093,0,0
-63,-69,0,0,0,0,0,0,0,0,0,-1,1161,1093,0,0
-56,-69,0,0,0,0,0,0,0,0,0,-1,1168,1093,0,0
-49,-69,0,0,0,0,0,0,0,0,0,-1,1175,1093,0,0
-42,-69,0,0,0,0,0,0,0,0,0,-1,1182,1093,0,0
-35,-69,0,0,0,0,0,0,0,0,0,-1,1189,1093,0,0
-28,-69,0,0,0,0,0,0,0,0,0,-1,1196,1093,0,0
-21,-69,0,0,0,0,0,0,0,0,0,-1,1203,1093,0,0
-14,-69,0,0,0,0,0,0,0,0,0,-1,1210,1093,0,0
-7,-69,0,0,0,0,0,0,0,0,0,-1,1217,1093,0,0
0,-69,0,0,0,0,0,0,0,0,0,-1,1224,1093,0,0
7,-69,0,0,0,0,0,0,0,0,0,-1,1231,1093,0,0
14,-69,0,0,0,0,0,0,0,0,0,-1,1238,1093,0,0
21,-69,0,0,0,0,0,0,0,0,0,-1,1245,1093,0,0
28,-69,0,0,0,0,0,0,0,0,0,-1,1252,1093,0,0
35,-69,0,0,0,0,0,0,0,0,0,-1,1259,1093,0,0
42,-69,0,0,0,0,0,0,0,0,0,-1,1266,1093,0,0
49,-69,0,0,0,0,0,0,0,0,0,-1,1273,1093,0,0
56,-69,0,0,0,0,0,0,0,0,0,-1,1280,1093,0,0
63,-69,0,0,0,0,0,0,0,0,0,-1,1287,1093,0,0
70,-69,0,0,0,0,0,0,0,0,0,-1,1294,1093,0,0
77,-69,0,0,0,0,0,0,0,0,0,-1,1301,1093,0,0
84,-69,0,0,0,0,0,0,0,0,0,-1,1308,1093,0,0
91,-69,0,0,0,0,0,0,0,0,0,-1,1315,1093,0,0
98,-69,0,0,0,0,0,0,0,0,0,-1,1322,1093,0,0
105,-69,0,0,0,0,0,0,0,0,0,-1,1329,1093,0,0
112,-69,0,0,0,0,0,0,0,0,0,-1,1336,1093,0,0
119,-69,0,0,0,0,0,0,0,0,0,-1,1343,1093,0,0
126,-69,0,0,0,0,0,0,0,0,0,-1,1350,1093,0,0
133,-69,0,0,0,0,0,0,0,0,0,-1,1357,1093,0,0
140,-69,0,0,0,0,0,0,0,0,0,-1,1364,1093,0,0
147,-69,0,0,0,0,0,0,0,0,0,-1,1371,1093,0,0
154,-69,0,0,0,0,0,0,0,0,0,-1,1378,1093,0,0
161,-69,0,0,0,0,0,0,0,0,0,-1,1385,1093,0,0
168,-69,0,0,0,0,0,0,0,0,0,-1,1392,1093,0,0
175,-69,0,0,0,0,0,0,0,0,0,-1,1399,1093,0,0
182,-69,0,0,0,0,0,0,0,0,0,-1,1406,1093,0,0
189,-69,0,0,0,0,0,0,0,0,0,-1,1413,1093,0,0
196,-69,0,0,0,0,0,0,0,0,0,-1,1420,1093,0,0
203,-69,0,0,0,0,0,0,0,0,0,-1,1427,1093,0,0
210,-69,0,0,0,0,0,0,0,0,0,-1,1434,1093,0,0
217,-69,0,0,0,0,0,0,0,0,0,-1,1441,1093,0,0
224,-69,0,0,0,0,0,0,0,0,0,-1,1448,1093,0,0
231,-69,0,0,0,0,0,0,0,0,0,-1,1455,1093,0,0
238,-69,0,0,0,0,0,0,0,0,0,-1,1462,1093,0,0
245,-69,0,0,0,0,0,0,0,0,0,-1,1469,1093,0,0
252,-69,0,0,0,0,0,0,0,0,0,-1,1476,1093,0,0
259,-69,0,0,0,0,0,0,0,0,0,-1,1483,1093,0,0
266,-69,0,0,0,0,0,0,0,0,0,-1,1490,1093,0,0
273,-69,0,0,0,0,0,0,0,0,0,-1,1497,1093,0,0
280,-69,0,0,0,0,0,0,0,0,0,-1,1504,1093,0,0
287,-69,0,0,0,0,0,0,0,0,0,-1,1511,1093,0,0
294,-69,0,0,0,0,0,0,0,0,0,-1,1518,1093,0,0
301,-69,0,0,0,0,0,0,0,0,0,-1,1525,1093,0,0
308,-69,0,0,0,0,0,0,0,0,0,-1,1532,1093,0,0
315,-69,0,0,0,0,0,0,0,0,0,-1,1539,1093,0,0
322,-69,0,0,0,0,0,0,0,0,0,-1,1546,1093,0,0
329,-69,0,0,0,0,0,0,0,0,0,-1,1553,1093,0,0
336,-69,0,0,0,0,0,0,0,0,0,-1,1560,1093,0,0
343,-69,0,0,0,0,0,0,0,0,0,-1,1567,1093,0,0
350,-69,0,0,0,0,0,0,0,0,0,-1,1574,1093,0,0
357,-69,0,0,0,0,0,0,0,0,0,-1,1581,1093,0,0
364,-69,0,0,0,0,0,0,0,0,0,-1,1588,1093,0,0
371,-69,0,0,0,0,0,0,0,0,0,-1,1595,1093,0,0
378,-69,0,0,0,0,0,0,0,0,0,-1,1602,1093,0,0
385,-69,0,0,0,0,0,0,0,0,0,-1,1609,1093,0,0
392,-69,0,0,0,0,0,0,0,0,0,-1,1616,1093,0,0
399,-69,0,0,0,0,0,0,0,0,0,-1,1623,1093,0,0
406,-69,0,0,0,0,0,0,0,0,0,-1,1630,1093,0,0
413,-69,0,0,0,0,0,0,0,0,0,-1,1637,1093,0,0
420,-69,0,0,0,0,0,0,0,0,0,-1,1644,1093,0,0
427,-69,0,0,0,0,0,0,0,0,0,-1,1651,1093,0,0
434,-69,0,0,0,0,0,0,0,0,0,-1,1658,1093,0,0
441,-69,0,0,0,0,0,0,0,0,0,-1,1665,1093,0,0
448,-69,0,0,0,0,0,0,0,0,0,-1,1672,1093,0,0
455,-69,0,0,0,0,0,0,0,0,0,-1,1679,1093,0,0
462,-69,0,0,0,0,0,0,0,0,0,-1,1686,1093,0,0
469,-69,0,0,0,0,0,0,0,0,0,-1,1693,1093,0,0
476,-69,0,0,0,0,0,0,0,0,0,-1,1700,1093,0,0
483,-69,0,0,0,0,0,0,0,0,0,-1,1707,1093,0,0
490,-69,0,0,0,0,0,0,0,0,0,-1,1714,1093,0,0
497,-69,0,0,0,0,0,0,0,0,0,-1,1721,1093,0,0
504,-69,0,0,0,0,0,0,0,0,0,-1,1728,1093,0,0
511,-69,0,0,0,0,0,0,0,0,0,-1,1735,1093,0,0
518,-69,0,0,0,0,0,0,0,0,0,-1,1742,1093,0,0
525,-69,0,0,0,0,0,0,0,0,0,-1,1749,1093,0,0
532,-69,0,0,0,0,0,0,0,0,0,-1,1756,1093,0,0
539,-69,0,0,0,0,0,0,0,0,0,-1,1763,1093,0,0
546,-69,0,0,0,0,0,0,0,0,0,-1,1770,1093,0,0
553,-69,0,0,0,0,0,0,0,0,0,-1,1777,1093,0,0
560,-69,0,0,0,0,0,0,0,0,0,-1,1784,1093,0,0
567,-69,0,0,0,0,0,0,0,0,0,-1,1791,1093,0,0
574,-69,0,0,0,0,0,0,0,0,0,-1,1798,1093,0,0
581,-69,0,0,0,0,0,0,0,0,0,-1,1805,1093,0,0
588,-69,0,0,0,0,0,0,0,0,0,-1,1812,1093,0,0
595,-69,0,0,0,0,0,0,0,0,0,-1,1819,1093,0,0
602,-69,0,0,0,0,0,0,0,0,0,-1,1826,1093,0,0
609,-69,0,0,0,0,0,0,0,0,0,-1,1833,1093,0,0
616,-69,0,0,0,0,0,0,0,0,0,-1,1840,1093,0,0
623,-69,0,0,0,0,0,0,0,0,0,-1,1847,1093,0,0
630,-69,0,0,0,0,0,0,0,0,0,-1,1854,1093,0,0
637,-69,0,0,0,0,0,0,0,0,0,-1,1861,1093,0,0
644,-69,0,0,0,0,0,0,0,0,0,-1,1868,1093,0,0
651,-69,56.1937,2.23621,0.00436791,0.00523646,-0.00322698,0.00805825,0.00154611,-0.852284,0.00493815,0.0443544,1875,1093,56.1938,-2.23615
658,-69,56.2496,1.94287,0.00312664,0.00314084,-0.00181548,0.00494923,0.00131824,-0.787353,0.00295961,0.0454553,1882,1093,56.2496,-1.94289
665,-69,56.3542,1.64661,0,0,0,0,0,0,0,-1,1889,1093,56.3542,-1.64659
672,-69,56.2155,2.57593,0.00119921,0.00061625,-0.000139587,0.00123091,0.00058455,-0.22331,0.000710962,0.038178,1896,1093,56.2154,-2.57591
679,-69,56.2516,2.59741,0.000369648,-7.1945e-05,0.00031201,0.000531084,-0.000233381,0.477475,0.000452382,0.0349645,1903,1093,56.2516,-2.59735
686,-69,56.3395,2.55237,-0.000211646,-0.000591635,0.000634082,0.000260294,-0.00106358,0.639836,0.00080988,0.0352091,1910,1093,56.3395,-2.5524
693,-69,56.2903,2.51184,-0.000472394,-0.000907256,0.000815998,0.000154645,-0.00153429,0.655193,0.00107811,0.0347887,1917,1093,56.2903,-2.51183
700,-69,56.2961,2.48218,-0.000600203,-0.00099757,0.000862545,8.62456e-05,-0.00168402,0.6722,0.0011525,0.028763,1924,1093,56.2962,-2.48223
707,-69,56.2469,2.5365,-0.000856825,-0.00100155,0.00116401,0.000237069,-0.00209544,0.754355,0.00148232,0.0226372,1931,1093,56.2469,-2.53655
714,-69,56.248,2.37305,-0.00114435,-0.000793785,0.0014004,0.00044226,-0.0023804,0.847658,0.00175305,0.0309099,1938,1093,56.2481,-2.37304
721,-69,56.2616,2.14319,0,0,0,0,0,0,0,-1,1945,1093,56.2617,-2.14315
728,-69,53.8496,7.33484,0,0,0,0,0,0,0,-1,1952,1093,53.8496,-7.3348
735,-69,54.1183,6.90527,-0.00234432,0.000967889,0.00184503,0.00179106,-0.00316749,1.15114,0.00289935,0.0395841,1959,1093,54.1183,-6.90526
742,-69,54.0487,6.60815,-0.00239666,0.00179459,0.00215492,0.00270485,-0.00330692,1.17112,0.00347669,0.0302838,1966,1093,54.0487,-6.60818
749,-69,54.0133,6.20276,0,0,0,0,0,0,0,-1,1973,1093,54.0133,-6.2028
756,-69,53.964,5.90833,-0.00244471,0.00528237,0.00232852,0.00592981,-0.00309215,1.2996,0.00529402,0.0177766,1980,1093,53.9639,-5.90838
763,-69,53.9585,5.57983,-0.00163964,0.00830117,0.00216601,0.00875262,-0.0020911,1.36531,0.00664274,0.0188243,1987,1093,53.9584,-5.57985
770,-69,53.8848,5.28967,-0.000279086,0.0123933,0.00162219,0.0125977,-0.000483445,1.44548,0.00856415,0.0203545,1994,1093,53.8847,-5.28963
777,-69,53.7573,4.96887,0.00211485,0.0176493,0.000536528,0.0176678,0.00209634,1.53631,0.0111457,0.0248008,2001,1093,53.7574,-4.96885
784,-69,53.7065,4.54309,0.00541952,0.0235786,-0.000991697,0.0236326,0.00536553,-1.5164,0.014306,0.0326119,2008,1093,53.7065,-4.54311
791,-69,53.478,4.42151,0.00993007,0.0304459,-0.00314465,0.0309171,0.00945888,-1.42206,0.0182926,0.0438633,2015,1093,53.4779,-4.42146
798,-69,53.1675,4.39343,0.0162159,0.0385556,-0.00619015,0.0401561,0.0146153,-1.31777,0.0234684,0.0490158,2022,1093,53.1674,-4.39345
805,-69,52.8252,4.35388,0,0,0,0,0,0,0,-1,2029,1093,52.8251,-4.35389
812,-69,52.3877,2.65662,0,0,0,0,0,0,0,-1,2036,1093,52.3877,-2.6566
-700,-76,0,0,0,0,0,0,0,0,0,-1,524,1100,0,0
-693,-76,-41.3325,-0.274536,0.0774969,0.0102633,0.0760642,0.127042,-0.0392815,0.577327,0.100384,0.0433711,531,1100,-41.3325,0.274564
-686,-76,-40.8938,0.238403,0.0643927,0.0122095,0.0598865,0.103625,-0.0270224,0.579955,0.0796338,0.0448943,538,1100,-40.8938,-0.238464
-679,-76,-40.3692,0.827148,0.0524367,0.0132101,0.0466492,0.0834281,-0.0177813,0.586396,0.0623961,0.0447615,545,1100,-40.3692,-0.827093
-672,-76,-39.8049,1.15613,0.0417868,0.01353,0.035801,0.0661464,-0.0108296,0.597461,0.0481155,0.0457784,552,1100,-39.8049,-1.15612
-665,-76,-39.5801,1.30994,0.0323181,0.0132794,0.0269532,0.0513836,-0.00578612,0.615646,0.0363383,0.0456635,559,1100,-39.5802,-1.30995
-658,-76,-39.6723,1.49951,0.0241493,0.0125336,0.0197986,0.0389744,-0.00229147,0.642727,0.0267794,0.0460143,566,1100,-39.6723,-1.4995
-651,-76,-39.5848,1.69067,0.0174971,0.0113108,0.0140982,0.0288375,-2.96123e-05,0.67741,0.0192349,0.0314175,573,1100,-39.5848,-1.69063
-644,-76,-39.6078,2.09351,0.0122043,0.00963809,0.00955497,0.0205619,0.00128045,0.718655,0.0133017,0.0120985,580,1100,-39.6078,-2.0935
-637,-76,-39.6993,2.48035,0.00780656,0.00789793,0.00504713,0.0128996,0.0028049,0.789924,0.00783396,0.0146431,587,1100,-39.6993,-2.48041
-630,-76,-39.7188,2.86169,0.00428664,0.00564196,0.00181201,0.00689888,0.00302972,0.964338,0.00399288,0.0158045,594,1100,-39.7187,-2.86174
-623,-76,-39.7567,3.23694,0.00228478,0.00327998,-0.000137809,0.00329871,0.00226605,-1.43571,0.00194838,0.0196322,601,1100,-39.7567,-3.2369
-616,-76,-39.8373,3.63745,0.0013452,0.00213952,-0.00104157,0.00285708,0.00062764,-0.967542,0.00173379,0.0189972,608,1100,-39.8373,-3.63747
-609,-76,-39.8414,4.01843,0.00119442,0.00044642,-0.00132913,0.00220117,-0.000560328,-0.648251,0.00168556,0.0194918,615,1100,-39.8415,-4.01849
-602,-76,-39.7645,4.4021,0.00144675,-0.000755323,-0.00148179,0.00219179,-0.00150036,-0.46588,0.00214409,0.0196401,622,1100,-39.7645,-4.40209
-595,-76,-39.7294,4.73889,0.00152926,-0.00119534,-0.00151282,0.00220276,-0.00186884,-0.418852,0.00235338,0.0341923,629,1100,-39.7294,-4.73892
-588,-76,-39.7377,5.08911,0,0,0,0,0,0,0,-1,636,1100,-39.7377,-5.08917
-581,-76,-42.1292,0.73999,0,0,0,0,0,0,0,-1,643,1100,-42.1292,-0.740038
-574,-76,-42.1298,0.459595,0.00236135,-0.00202912,-0.0013513,0.00274392,-0.00241169,-0.275891,0.00297865,0.0345063,650,1100,-42.1298,-0.459623
-567,-76,-42.272,0.369141,0.00265521,-0.00198283,-0.00116856,0.002933,-0.00226062,-0.233382,0.0030069,0.041689,657,1100,-42.272,-0.369113
-560,-76,-42.3756,0.428223,0.00289389,-0.00179717,-0.00102087,0.00310643,-0.0020097,-0.205256,0.00297633,0.0439565,664,1100,-42.3756,-0.428241
-553,-76,-42.2966,0.733276,0.00302281,-0.00157179,-0.00101747,0.00323804,-0.00178703,-0.208467,0.00294127,0.0431825,671,1100,-42.2966,-0.733328
-546,-76,-42.1614,0.801025,0.00352476,-0.00148315,-0.00129286,0.00383884,-0.00179722,-0.238312,0.00332438,0.0402076,678,1100,-42.1614,-0.801035
-539,-76,-42.0612,0.77124,0.00530455,-0.00216157,-0.00236518,0.00599075,-0.00284777,-0.282372,0.00520935,0.0393224,685,1100,-42.0612,-0.771257
-532,-76,-41.8102,0.859863,0.00659063,-0.00297066,-0.00373283,0.00787534,-0.00425538,-0.331468,0.00710686,0.0428872,692,1100,-41.8102,-0.859842
-525,-76,0,0,0,0,0,0,0,0,0,-1,699,1100,0,0
-518,-76,0,0,0,0,0,0,0,0,0,-1,706,1100,0,0
-511,-76,0,0,0,0,0,0,0,0,0,-1,713,1100,0,0
-504,-76,0,0,0,0,0,0,0,0,0,-1,720,1100,0,0
-497,-76,0,0,0,0,0,0,0,0,0,-1,727,1100,0,0
-490,-76,0,0,0,0,0,0,0,0,0,-1,734,1100,0,0
-483,-76,0,0,0,0,0,0,0,0,0,-1,741,1100,0,0
-476,-76,0,0,0,0,0,0,0,0,0,-1,748,1100,0,0
-469,-76,0,0,0,0,0,0,0,0,0,-1,755,1100,0,0
-462,-76,0,0,0,0,0,0,0,0,0,-1,762,1100,0,0
-455,-76,0,0,0,0,0,0,0,0,0,-1,769,1100,0,0
-448,-76,0,0,0,0,0,0,0,0,0,-1,776,1100,0,0
-441,-76,0,0,0,0,0,0,0,0,0,-1,783,1100,0,0
-434,-76,0,0,0,0,0,0,0,0,0,-1,790,1100,0,0
-427,-76,0,0,0,0,0,0,0,0,0,-1,797,1100,0,0
-420,-76,0,0,0,0,0,0,0,0,0,-1,804,1100,0,0
-413,-76,0,0,0,0,0,0,0,0,0,-1,811,1100,0,0
-406,-76,0,0,0,0,0,0,0,0,0,-1,818,1100,0,0
-399,-76,0,0,0,0,0,0,0,0,0,-1,825,1100,0,0
-392,-76,0,0,0,0,0,0,0,0,0,-1,832,1100,0,0
-385,-76,0,0,0,0,0,0,0,0,0,-1,839,1100,0,0
-378,-76,0,0,0,0,0,0,0,0,0,-1,846,1100,0,0
-371,-76,0,0,0,0,0,0,0,0,0,-1,853,1100,0,0
-364,-76,0,0,0,0,0,0,0,0,0,-1,860,1100,0,0
-357,-76,0,0,0,0,0,0,0,0,0,-1,867,1100,0,0
-350,-76,0,0,0,0,0,0,0,0,0,-1,874,1100,0,0
-343,-76,0,0,0,0,0,0,0,0,0,-1,881,1100,0,0
-336,-76,0,0,0,0,0,0,0,0,0,-1,888,1100,0,0
-329,-76,0,0,0,0,0,0,0,0,0,-1,895,1100,0,0
-322,-76,0,0,0,0,0,0,0,0,0,-1,902,1100,0,0
-315,-76,0,0,0,0,0,0,0,0,0,-1,909,1100,0,0
-308,-76,0,0,0,0,0,0,0,0,0,-1,916,1100,0,0
-301,-76,0,0,0,0,0,0,0,0,0,-1,923,1100,0,0
-294,-76,0,0,0,0,0,0,0,0,0,-1,930,1100,0,0
-287,-76,0,0,0,0,0,0,0,0,0,-1,937,1100,0,0
-280,-76,0,0,0,0,0,0,0,0,0,-1,944,1100,0,0
-273,-76,0,0,0,0,0,0,0,0,0,-1,951,1100,0,0
-266,-76,0,0,0,0,0,0,0,0,0,-1,958,1100,0,0
-259,-76,0,0,0,0,0,0,0,0,0,-1,965,1100,0,0
-252,-76,0,0,0,0,0,0,0,0,0,-1,972,1100,0,0
-245,-76,0,0,0,0,0,0,0,0,0,-1,979,1100,0,0
-238,-76,0,0,0,0,0,0,0,0,0,-1,986,1100,0,0
-231,-76,0,0,0,0,0,0,0,0,0,-1,993,1100,0,0
-224,-76,0,0,0,0,0,0,0,0,0,-1,1000,1100,0,0
-217,-76,0,0,0,0,0,0,0,0,0,-1,1007,1100,0,0
-210,-76,0,0,0,0,0,0,0,0,0,-1,1014,1100,0,0
-203,-76,0,0,0,0,0,0,0,0,0,-1,1021,1100,0,0
-196,-76,0,0,0,0,0,0,0,0,0,-1,1028,1100,0,0
-189,-76,0,0,0,0,0,0,0,0,0,-1,1035,1100,0,0
-182,-76,0,0,0,0,0,0,0,0,0,-1,1042,1100,0,0
-175,-76,0,0,0,0,0,0,0,0,0,-1,1049,1100,0,0
-168,-76,0,0,0,0,0,0,0,0,0,-1,1056,1100,0,0
-161,-76,0,0,0,0,0,0,0,0,0,-1,1063,1100,0,0
-154,-76,0,0,0,0,0,0,0,0,0,-1,1070,1100,0,0
-147,-76,0,0,0,0,0,0,0,0,0,-1,1077,1100,0,0
-140,-76,0,0,0,0,0,0,0,0,0,-1,1084,1100,0,0
-133,-76,0,0,0,0,0,0,0,0,0,-1,1091,1100,0,0
-126,-76,0,0,0,0,0,0,0,0,0,-1,1098,1100,0,0
-119,-76,0,0,0,0,0,0,0,0,0,-1,1105,1100,0,0
-112,-76,0,0,0,0,0,0,0,0,0,-1,1112,1100,0,0
-105,-76,0,0,0,0,0,0,0,0,0,-1,1119,1100,0,0
-98,-76,0,0,0,0,0,0,0,0,0,-1,1126,1100,0,0
-91,-76,0,0,0,0,0,0,0,0,0,-1,1133,1100,0,0
-84,-76,0,0,0,0,0,0,0,0,0,-1,1140,1100,0,0
-77,-76,0,0,0,0,0,0,0,0,0,-1,1147,1100,0,0
-70,-76,0,0,0,0,0,0,0,0,0,-1,1154,1100,0,0
-63,-76,0,0,0,0,0,0,0,0,0,-1,1161,1100,0,0
-56,-76,0,0,0,0,0,0,0,0,0,-1,1168,1100,0,0
-49,-76,0,0,0,0,0,0,0,0,0,-1,1175,1100,0,0
-42,-76,0,0,0,0,0,0,0,0,0,-1,1182,1100,0,0
-35,-76,0,0,0,0,0,0,0,0,0,-1,1189,1100,0,0
-28,-76,0,0,0,0,0,0,0,0,0,-1,1196,1100,0,0
-21,-76,0,0,0,0,0,0,0,0,0,-1,1203,1100,0,0
-14,-76,0,0,0,0,0,0,0,0,0,-1,1210,1100,0,0
-7,-76,0,0,0,0,0,0,0,0,0,-1,1217,1100,0,0
0,-76,0,0,0,0,0,0,0,0,0,-1,1224,1100,0,0
7,-76,0,0,0,0,0,0,0,0,0,-1,1231,1100,0,0
14,-76,0,0,0,0,0,0,0,0,0,-1,1238,1100,0,0
21,-76,0,0,0,0,0,0,0,0,0,-1,1245,1100,0,0
28,-76,0,0,0,0,0,0,0,0,0,-1,1252,1100,0,0
35,-76,0,0,0,0,0,0,0,0,0,-1,1259,1100,0,0
42,-76,0,0,0,0,0,0,0,0,0,-1,1266,1100,0,0
49,-76,0,0,0,0,0,0,0,0,0,-1,1273,1100,0,0
56,-76,0,0,0,0,0,0,0,0,0,-1,1280,1100,0,0
63,-76,0,0,0,0,0,0,0,0,0,-1,1287,1100,0,0
70,-76,0,0,0,0,0,0,0,0,0,-1,1294,1100,0,0
77,-76,0,0,0,0,0,0,0,0,0,-1,1301,1100,0,0
84,-76,0,0,0,0,0,0,0,0,0,-1,1308,1100,0,0
91,-76,0,0,0,0,0,0,0,0,0,-1,1315,1100,0,0
98,-76,0,0,0,0,0,0,0,0,0,-1,1322,1100,0,0
105,-76,0,0,0,0,0,0,0,0,0,-1,1329,1100,0,0
112,-76,0,0,0,0,0,0,0,0,0,-1,1336,1100,0,0
119,-76,0,0,0,0,0,0,0,0,0,-1,1343,1100,0,0
126,-76,0,0,0,0,0,0,0,0,0,-1,1350,1100,0,0
133,-76,0,0,0,0,0,0,0,0,0,-1,1357,1100,0,0
140,-76,0,0,0,0,0,0,0,0,0,-1,1364,1100,0,0
147,-76,0,0,0,0,0,0,0,0,0,-1,1371,1100,0,0
154,-76,0,0,0,0,0,0,0,0,0,-1,1378,1100,0,0
161,-76,0,0,0,0,0,0,0,0,0,-1,1385,1100,0,0
168,-76,0,0,0,0,0,0,0,0,0,-1,1392,1100,0,0
175,-76,0,0,0,0,0,0,0,0,0,-1,1399,1100,0,0
182,-76,0,0,0,0,0,0,0,0,0,-1,1406,1100,0,0
189,-76,0,0,0,0,0,0,0,0,0,-1,1413,1100,0,0
196,-76,0,0,0,0,0,0,0,0,0,-1,1420,1100,0,0
203,-76,0,0,0,0,0,0,0,0,0,-1,1427,1100,0,0
210,-76,0,0,0,0,0,0,0,0,0,-1,1434,1100,0,0
217,-76,0,0,0,0,0,0,0,0,0,-1,1441,1100,0,0
224,-76,0,0,0,0,0,0,0,0,0,-1,1448,1100,0,0
231,-76,0,0,0,0,0,0,0,0,0,-1,1455,1100,0,0
238,-76,0,0,0,0,0,0,0,0,0,-1,1462,1100,0,0
245,-76,0,0,0,0,0,0,0,0,0,-1,1469,1100,0,0
252,-76,0,0,0,0,0,0,0,0,0,-1,1476,1100,0,0
259,-76,0,0,0,0,0,0,0,0,0,-1,1483,1100,0,0
266,-76,0,0,0,0,0,0,0,0,0,-1,1490,1100,0,0
273,-76,0,0,0,0,0,0,0,0,0,-1,1497,1100,0,0
280,-76,0,0,0,0,0,0,0,0,0,-1,1504,1100,0,0
287,-76,0,0,0,0,0,0,0,0,0,-1,1511,1100,0,0
294,-76,0,0,0,0,0,0,0,0,0,-1,1518,1100,0,0
301,-76,0,0,0,0,0,0,0,0,0,-1,1525,1100,0,0
308,-76,0,0,0,0,0,0,0,0,0,-1,1532,1100,0,0
315,-76,0,0,0,0,0,0,0,0,0,-1,1539,1100,0,0
322,-76,0,0,0,0,0,0,0,0,0,-1,1546,1100,0,0
329,-76,0,0,0,0,0,0,0,0,0,-1,1553,1100,0,0
336,-76,0,0,0,0,0,0,0,0,0,-1,1560,1100,0,0
343,-76,0,0,0,0,0,0,0,0,0,-1,1567,1100,0,0
350,-76,0,0,0,0,0,0,0,0,0,-1,1574,1100,0,0
357,-76,0,0,0,0,0,0,0,0,0,-1,1581,1100,0,0
364,-76,0,0,0,0,0,0,0,0,0,-1,1588,1100,0,0
371,-76,0,0,0,0,0,0,0,0,0,-1,1595,1100,0,0
378,-76,0,0,0,0,0,0,0,0,0,-1,1602,1100,0,0
385,-76,0,0,0,0,0,0,0,0,0,-1,1609,1100,0,0
392,-76,0,0,0,0,0,0,0,0,0,-1,1616,1100,0,0
399,-76,0,0,0,0,0,0,0,0,0,-1,1623,1100,0,0
406,-76,0,0,0,0,0,0,0,0,0,-1,1630,1100,0,0
413,-76,0,0,0,0,0,0,0,0,0,-1,1637,1100,0,0
420,-76,0,0,0,0,0,0,0,0,0,-1,1644,1100,0,0
427,-76,0,0,0,0,0,0,0,0,0,-1,1651,1100,0,0
434,-76,0,0,0,0,0,0,0,0,0,-1,1658,1100,0,0
441,-76,0,0,0,0,0,0,0,0,0,-1,1665,1100,0,0
448,-76,0,0,0,0,0,0,0,0,0,-1,1672,1100,0,0
455,-76,0,0,0,0,0,0,0,0,0,-1,1679,1100,0,0
462,-76,0,0,0,0,0,0,0,0,0,-1,1686,1100,0,0
469,-76,0,0,0,0,0,0,0,0,0,-1,1693,1100,0,0
476,-76,0,0,0,0,0,0,0,0,0,-1,1700,1100,0,0
483,-76,0,0,0,0,0,0,0,0,0,-1,1707,1100,0,0
490,-76,0,0,0,0,0,0,0,0,0,-1,1714,1100,0,0
497,-76,0,0,0,0,0,0,0,0,0,-1,1721,1100,0,0
504,-76,0,0,0,0,0,0,0,0,0,-1,1728,1100,0,0
511,-76,0,0,0,0,0,0,0,0,0,-1,1735,1100,0,0
518,-76,0,0,0,0,0,0,0,0,0,-1,1742,1100,0,0
525,-76,0,0,0,0,0,0,0,0,0,-1,1749,1100,0,0
532,-76,0,0,0,0,0,0,0,0,0,-1,1756,1100,0,0
539,-76,0,0,0,0,0,0,0,0,0,-1,1763,1100,0,0
546,-76,0,0,0,0,0,0,0,0,0,-1,1770,1100,0,0
553,-76,0,0,0,0,0,0,0,0,0,-1,1777,1100,0,0
560,-76,0,0,0,0,0,0,0,0,0,-1,1784,1100,0,0
567,-76,0,0,0,0,0,0,0,0,0,-1,1791,1100,0,0
574,-76,0,0,0,0,0,0,0,0,0,-1,1798,1100,0,0
581,-76,0,0,0,0,0,0,0,0,0,-1,1805,1100,0,0
588,-76,0,0,0,0,0,0,0,0,0,-1,1812,1100,0,0
595,-76,0,0,0,0,0,0,0,0,0,-1,1819,1100,0,0
602,-76,0,0,0,0,0,0,0,0,0,-1,1826,1100,0,0
609,-76,0,0,0,0,0,0,0,0,0,-1,1833,1100,0,0
616,-76,0,0,0,0,0,0,0,0,0,-1,1840,1100,0,0
623,-76,0,0,0,0,0,0,0,0,0,-1,1847,1100,0,0
630,-76,0,0,0,0,0,0,0,0,0,-1,1854,1100,0,0
637,-76,0,0,0,0,0,0,0,0,0,-1,1861,1100,0,0
644,-76,0,0,0,0,0,0,0,0,0,-1,1868,1100,0,0
651,-76,56.3641,2.15784,0.00570094,0.00402599,-0.00113748,0.00627599,0.00345094,-0.468075,0.00362945,0.0409559,1875,1100,56.3641,-2.15786
658,-76,56.5513,2.0072,0.00396845,0.00216302,-0.000240058,0.00399983,0.00213165,-0.129957,0.00231097,0.0444706,1882,1100,56.5513,-2.00718
665,-76,56.403,2.38904,0.0025869,0.000890137,0.000304742,0.00263998,0.000837065,0.172425,0.00155782,0.0390465,1889,1100,56.4029,-2.38899
672,-76,56.2417,2.50732,0.00146226,3.98186e-05,0.000629883,0.00170108,-0.000199007,0.362412,0.00120588,0.0375071,1896,1100,56.2417,-2.50727
679,-76,56.2455,2.47852,0.000475271,-0.000457114,0.00073263,0.000877458,-0.0008593,0.502046,0.00100274,0.0374112,1903,1100,56.2455,-2.47848
686,-76,56.3019,2.52856,-9.44189e-05,-0.000821032,0.00080653,0.000426854,-0.00134231,0.573781,0.00106603,0.0372632,1910,1100,56.3019,-2.52853
693,-76,56.3031,2.57605,-0.000293343,-0.00101531,0.000818797,0.000240512,-0.00154917,0.577779,0.00112158,0.0383851,1917,1100,56.303,-2.57609
700,-76,56.2828,2.53516,-0.000395729,-0.00106262,0.000741968,8.42777e-05,-0.00154262,0.574219,0.00105763,0.0311782,1924,1100,56.2829,-2.53513
707,-76,56.2531,2.56812,-0.000618784,-0.00100843,0.000967571,0.000173382,-0.0018006,0.686049,0.00126217,0.0239001,1931,1100,56.253,-2.56811
714,-76,56.2838,2.53125,0,0,0,0,0,0,0,-1,1938,1100,56.2839,-2.53124
721,-76,45.1713,3.04919,0,0,0,0,0,0,0,-1,1945,1100,45.1713,-3.04915
728,-76,52.9606,7.38293,0,0,0,0,0,0,0,-1,1952,1100,52.9606,-7.38299
735,-76,53.3798,7.07813,-0.00180435,0.000920588,0.00155175,0.00162313,-0.00250689,1.14567,0.00240259,0.045732,1959,1100,53.3798,-7.07813
742,-76,53.6132,6.68665,-0.0018829,0.00164898,0.0018517,0.00244182,-0.00267573,1.16625,0.00295565,0.0306394,1966,1100,53.6131,-6.68659
749,-76,53.5034,6.23669,-0.00216296,0.00323008,0.00211359,0.00395971,-0.00289259,1.2384,0.00397214,0.0283333,1973,1100,53.5034,-6.23669
756,-76,53.5757,5.90161,-0.00209468,0.00491639,0.00220208,0.00555066,-0.00272894,1.29036,0.00487189,0.017267,1980,1100,53.5757,-5.90161
763,-76,53.5608,5.54492,-0.00131879,0.00782429,0.00216856,0.00831256,-0.00180705,1.34933,0.006232,0.0178037,1987,1100,53.5608,-5.54486
770,-76,53.4752,5.24817,-5.81539e-05,0.011766,0.00177732,0.0120274,-0.000319529,1.42478,0.00812684,0.0191555,1994,1100,53.4752,-5.24816
777,-76,53.3438,4.97766,0.0022035,0.0167246,0.000919768,0.0167826,0.00214547,1.50779,0.0105463,0.0224117,2001,1100,53.3436,-4.97771
784,-76,53.3083,4.55237,0.00542142,0.0223454,-0.000321774,0.0223516,0.00541531,-1.55179,0.013464,0.0335865,2008,1100,53.3084,-4.55238
791,-76,53.3845,4.17981,0.00991861,0.0288558,-0.00210222,0.0290864,0.00968805,-1.46156,0.0171021,0.04321,2015,1100,53.3845,-4.17984
798,-76,53.4321,3.80945,0.0162954,0.0364937,-0.00463908,0.0375082,0.0152809,-1.35549,0.0217788,0.0471797,2022,1100,53.4321,-3.80945
805,-76,52.0957,2.84155,0.0247714,0.0453997,-0.00817926,0.0482492,0.0219219,-1.23556,0.0278954,0.0469285,2029,1100,52.0957,-2.84159
812,-76,52.0635,3.51245,0.0357356,0.055847,-0.0128263,0.0620895,0.0294931,-1.11785,0.0358623,0.047354,2036,1100,52.0634,-3.51249
-700,-83,0,0,0,0,0,0,0,0,0,-1,524,1107,0,0
-693,-83,-41.7012,-0.315063,0.087733,0.000950905,0.0802539,0.135575,-0.0468911,0.537571,0.109416,0.0452497,531,1107,-41.7012,0.315072
-686,-83,-41.3519,0.512451,0.073651,0.00331367,0.0637298,0.111272,-0.0343072,0.53327,0.0878783,0.0440163,538,1107,-41.3519,-0.5124
-679,-83,-40.3553,0.790649,0.0605151,0.00516566,0.0500047,0.0899924,-0.0243117,0.532657,0.0695303,0.0439552,545,1107,-40.3552,-0.790645
-672,-83,-39.7493,1.07458,0.0486465,0.00652737,0.038589,0.0715485,-0.0163746,0.535615,0.0539913,0.0428456,552,1107,-39.7493,-1.07464
-665,-83,-39.598,1.32434,0.037951,0.00737739,0.02915,0.0555793,-0.010251,0.543902,0.0409004,0.0432678,559,1107,-39.598,-1.32434
-658,-83,-39.5792,1.33887,0.0286374,0.00770322,0.0214363,0.0420255,-0.00568497,0.558281,0.0300916,0.0425935,566,1107,-39.5792,-1.33892
-651,-83,-39.3088,1.56409,0.0209727,0.00748094,0.0152582,0.0309098,-0.00245614,0.57726,0.0214721,0.0338756,573,1107,-39.3088,-1.56411
-644,-83,-39.1824,2.00488,0.0148721,0.00670557,0.0103703,0.0219341,-0.000356358,0.597845,0.0147429,0.0175023,580,1107,-39.1825,-2.00486
-637,-83,-39.2438,2.41577,0.00961611,0.00573803,0.00563274,0.0136342,0.00171992,0.619629,0.00857387,0.0122753,587,1107,-39.2438,-2.41578
-630,-83,-39.2895,2.84851,0.00537427,0.0042624,0.00212988,0.00701958,0.0026171,0.657738,0.00409622,0.0164876,594,1107,-39.2895,-2.84854
-623,-83,-39.3408,3.22961,0.00290768,0.00244215,2.94017e-05,0.00290953,0.0024403,0.0628257,0.00180374,0.0191683,601,1107,-39.3408,-3.22964
-616,-83,-39.4403,3.64319,0.00167984,0.0015784,-0.000928486,0.00255899,0.00069925,-0.758114,0.00152724,0.0168288,608,1107,-39.4403,-3.64319
-609,-83,-39.4035,4.0238,0.0013064,0.000164238,-0.00117455,0.00204134,-0.000570701,-0.559118,0.00158574,0.0206261,615,1107,-39.4035,-4.02382
-602,-83,-39.3806,4.45911,0.00150023,-0.000878295,-0.00123391,0.0020247,-0.00140276,-0.40191,0.00198968,0.0188174,622,1107,-39.3806,-4.45906
-595,-83,-39.291,4.85693,0.00153625,-0.00126298,-0.00120137,0.00198115,-0.00170787,-0.354664,0.00213181,0.0244912,629,1107,-39.291,-4.8569
-588,-83,-39.2876,5.15173,0,0,0,0,0,0,0,-1,636,1107,-39.2876,-5.15168
-581,-83,-42.1594,0.622437,0,0,0,0,0,0,0,-1,643,1107,-42.1594,-0.622489
-574,-83,-42.1243,0.519653,0.00239872,-0.00222478,-0.000975607,0.00259615,-0.00242222,-0.199672,0.00289794,0.0360347,650,1107,-42.1244,-0.519682
-567,-83,-42.194,0.460938,0.00274798,-0.00226381,-0.000794916,0.00287104,-0.00238687,-0.153589,0.00303995,0.0430843,657,1107,-42.194,-0.460975
-560,-83,-42.3844,0.384033,0.00305878,-0.00217507,-0.000642136,0.00313641,-0.00225271,-0.120312,0.00312532,0.0445691,664,1107,-42.3844,-0.384011
-553,-83,-42.2847,0.75647,0.00316352,-0.0020401,-0.000641148,0.00324136,-0.00211794,-0.120805,0.00311677,0.042419,671,1107,-42.2847,-0.756423
-546,-83,-42.058,0.893066,0.00359788,-0.00200011,-0.000876405,0.00373188,-0.00213411,-0.151722,0.00342835,0.0384779,678,1107,-42.058,-0.89302
-539,-83,-41.946,0.775146,0.00539712,-0.00264965,-0.00173699,0.00575606,-0.00300859,-0.203776,0.00514248,0.0400063,685,1107,-41.946,-0.775182
-532,-83,-41.8682,0.760864,0.00678649,-0.00350558,-0.00290557,0.0075501,-0.0042692,-0.257,0.00691096,0.0432461,692,1107,-41.8682,-0.760884
-525,-83,0,0,0,0,0,0,0,0,0,-1,699,1107,0,0
-518,-83,0,0,0,0,0,0,0,0,0,-1,706,1107,0,0
-511,-83,0,0,0,0,0,0,0,0,0,-1,713,1107,0,0
-504,-83,0,0,0,0,0,0,0,0,0,-1,720,1107,0,0
-497,-83,0,0,0,0,0,0,0,0,0,-1,727,1107,0,0
-490,-83,0,0,0,0,0,0,0,0,0,-1,734,1107,0,0
-483,-83,0,0,0,0,0,0,0,0,0,-1,741,1107,0,0
-476,-83,0,0,0,0,0,0,0,0,0,-1,748,1107,0,0
-469,-83,0,0,0,0,0,0,0,0,0,-1,755,1107,0,0
-462,-83,0,0,0,0,0,0,0,0,0,-1,762,1107,0,0
-455,-83,0,0,0,0,0,0,0,0,0,-1,769,1107,0,0
-448,-83,0,0,0,0,0,0,0,0,0,-1,776,1107,0,0
-441,-83,0,0,0,0,0,0,0,0,0,-1,783,1107,0,0
-434,-83,0,0,0,0,0,0,0,0,0,-1,790,1107,0,0
-427,-83,0,0,0,0,0,0,0,0,0,-1,797,1107,0,0
-420,-83,0,0,0,0,0,0,0,0,0,-1,804,1107,0,0
-413,-83,0,0,0,0,0,0,0,0,0,-1,811,1107,0,0
-406,-83,0,0,0,0,0,0,0,0,0,-1,818,1107,0,0
-399,-83,0,0,0,0,0,0,0,0,0,-1,825,1107,0,0
-392,-83,0,0,0,0,0,0,0,0,0,-1,832,1107,0,0
-385,-83,0,0,0,0,0,0,0,0,0,-1,839,1107,0,0
-378,-83,0,0,0,0,0,0,0,0,0,-1,846,1107,0,0
-371,-83,0,0,0,0,0,0,0,0,0,-1,853,1107,0,0
-364,-83,0,0,0,0,0,0,0,0,0,-1,860,1107,0,0
-357,-83,0,0,0,0,0,0,0,0,0,-1,867,1107,0,0
-350,-83,0,0,0,0,0,0,0,0,0,-1,874,1107,0,0
-343,-83,0,0,0,0,0,0,0,0,0,-1,881,1107,0,0
-336,-83,0,0,0,0,0,0,0,0,0,-1,888,1107,0,0
-329,-83,0,0,0,0,0,0,0,0,0,-1,895,1107,0,0
-322,-83,0,0,0,0,0,0,0,0,0,-1,902,1107,0,0
-315,-83,0,0,0,0,0,0,0,0,0,-1,909,1107,0,0
-308,-83,0,0,0,0,0,0,0,0,0,-1,916,1107,0,0
-301,-83,0,0,0,0,0,0,0,0,0,-1,923,1107,0,0
-294,-83,0,0,0,0,0,0,0,0,0,-1,930,1107,0,0
-287,-83,0,0,0,0,0,0,0,0,0,-1,937,1107,0,0
-280,-83,0,0,0,0,0,0,0,0,0,-1,944,1107,0,0
-273,-83,0,0,0,0,0,0,0,0,0,-1,951,1107,0,0
-266,-83,0,0,0,0,0,0,0,0,0,-1,958,1107,0,0
-259,-83,0,0,0,0,0,0,0,0,0,-1,965,1107,0,0
-252,-83,0,0,0,0,0,0,0,0,0,-1,972,1107,0,0
-245,-83,0,0,0,0,0,0,0,0,0,-1,979,1107,0,0
-238,-83,0,0,0,0,0,0,0,0,0,-1,986,1107,0,0
-231,-83,0,0,0,0,0,0,0,0,0,-1,993,1107,0,0
-224,-83,0,0,0,0,0,0,0,0,0,-1,1000,1107,0,0
-217,-83,0,0,0,0,0,0,0,0,0,-1,1007,1107,0,0
-210,-83,0,0,0,0,0,0,0,0,0,-1,1014,1107,0,0
-203,-83,0,0,0,0,0,0,0,0,0,-1,1021,1107,0,0
-196,-83,0,0,0,0,0,0,0,0,0,-1,1028,1107,0,0
-189,-83,0,0,0,0,0,0,0,0,0,-1,1035,1107,0,0
-182,-83,0,0,0,0,0,0,0,0,0,-1,1042,1107,0,0
-175,-83,0,0,0,0,0,0,0,0,0,-1,1049,1107,0,0
-168,-83,0,0,0,0,0,0,0,0,0,-1,1056,1107,0,0
-161,-83,0,0,0,0,0,0,0,0,0,-1,1063,1107,0,0
-154,-83,0,0,0,0,0,0,0,0,0,-1,1070,1107,0,0
-147,-83,0,0,0,0,0,0,0,0,0,-1,1077,1107,0,0
-140,-83,0,0,0,0,0,0,0,0,0,-1,1084,1107,0,0
-133,-83,0,0,0,0,0,0,0,0,0,-1,1091,1107,0,0
-126,-83,0,0,0,0,0,0,0,0,0,-1,1098,1107,0,0
-119,-83,0,0,0,0,0,0,0,0,0,-1,1105,1107,0,0
-112,-83,0,0,0,0,0,0,0,0,0,-1,1112,1107,0,0
-105,-83,0,0,0,0,0,0,0,0,0,-1,1119,1107,0,0
-98,-83,0,0,0,0,0,0,0,0,0,-1,1126,1107,0,0
-91,-83,0,0,0,0,0,0,0,0,0,-1,1133,1107,0,0
-84,-83,0,0,0,0,0,0,0,0,0,-1,1140,1107,0,0
-77,-83,0,0,0,0,0,0,0,0,0,-1,1147,1107,0,0
-70,-83,0,0,0,0,0,0,0,0,0,-1,1154,1107,0,0
-63,-83,0,0,0,0,0,0,0,0,0,-1,1161,1107,0,0
-56,-83,0,0,0,0,0,0,0,0,0,-1,1168,1107,0,0
-49,-83,0,0,0,0,0,0,0,0,0,-1,1175,1107,0,0
-42,-83,0,0,0,0,0,0,0,0,0,-1,1182,1107,0,0
-35,-83,0,0,0,0,0,0,0,0,0,-1,1189,1107,0,0
-28,-83,0,0,0,0,0,0,0,0,0,-1,1196,1107,0,0
-21,-83,0,0,0,0,0,0,0,0,0,-1,1203,1107,0,0
-14,-83,0,0,0,0,0,0,0,0,0,-1,1210,1107,0,0
-7,-83,0,0,0,0,0,0,0,0,0,-1,1217,1107,0,0
0,-83,0,0,0,0,0,0,0,0,0,-1,1224,1107,0,0
7,-83,0,0,0,0,0,0,0,0,0,-1,1231,1107,0,0
14,-83,0,0,0,0,0,0,0,0,0,-1,1238,1107,0,0
21,-83,0,0,0,0,0,0,0,0,0,-1,1245,1107,0,0
28,-83,0,0,0,0,0,0,0,0,0,-1,1252,1107,0,0
35,-83,0,0,0,0,0,0,0,0,0,-1,1259,1107,0,0
42,-83,0,0,0,0,0,0,0,0,0,-1,1266,1107,0,0
49,-83,0,0,0,0,0,0,0,0,0,-1,1273,1107,0,0
56,-83,0,0,0,0,0,0,0,0,0,-1,1280,1107,0,0
63,-83,0,0,0,0,0,0,0,0,0,-1,1287,1107,0,0
70,-83,0,0,0,0,0,0,0,0,0,-1,1294,1107,0,0
77,-83,0,0,0,0,0,0,0,0,0,-1,1301,1107,0,0
84,-83,0,0,0,0,0,0,0,0,0,-1,1308,1107,0,0
91,-83,0,0,0,0,0,0,0,0,0,-1,1315,1107,0,0
98,-83,0,0,0,0,0,0,0,0,0,-1,1322,1107,0,0
105,-83,0,0,0,0,0,0,0,0,0,-1,1329,1107,0,0
112,-83,0,0,0,0,0,0,0,0,0,-1,1336,1107,0,0
119,-83,0,0,0,0,0,0,0,0,0,-1,1343,1107,0,0
126,-83,0,0,0,0,0,0,0,0,0,-1,1350,1107,0,0
133,-83,0,0,0,0,0,0,0,0,0,-1,1357,1107,0,0
140,-83,0,0,0,0,0,0,0,0,0,-1,1364,1107,0,0
147,-83,0,0,0,0,0,0,0,0,0,-1,1371,1107,0,0
154,-83,0,0,0,0,0,0,0,0,0,-1,1378,1107,0,0
161,-83,0,0,0,0,0,0,0,0,0,-1,1385,1107,0,0
168,-83,0,0,0,0,0,0,0,0,0,-1,1392,1107,0,0
175,-83,0,0,0,0,0,0,0,0,0,-1,1399,1107,0,0
182,-83,0,0,0,0,0,0,0,0,0,-1,1406,1107,0,0
189,-83,0,0,0,0,0,0,0,0,0,-1,1413,1107,0,0
196,-83,0,0,0,0,0,0,0,0,0,-1,1420,1107,0,0
203,-83,0,0,0,0,0,0,0,0,0,-1,1427,1107,0,0
210,-83,0,0,0,0,0,0,0,0,0,-1,1434,1107,0,0
217,-83,0,0,0,0,0,0,0,0,0,-1,1441,1107,0,0
224,-83,0,0,0,0,0,0,0,0,0,-1,1448,1107,0,0
231,-83,0,0,0,0,0,0,0,0,0,-1,1455,1107,0,0
238,-83,0,0,0,0,0,0,0,0,0,-1,1462,1107,0,0
245,-83,0,0,0,0,0,0,0,0,0,-1,1469,1107,0,0
252,-83,0,0,0,0,0,0,0,0,0,-1,1476,1107,0,0
259,-83,0,0,0,0,0,0,0,0,0,-1,1483,1107,0,0
266,-83,0,0,0,0,0,0,0,0,0,-1,1490,1107,0,0
273,-83,0,0,0,0,0,0,0,0,0,-1,1497,1107,0,0
280,-83,0,0,0,0,0,0,0,0,0,-1,1504,1107,0,0
287,-83,0,0,0,0,0,0,0,0,0,-1,1511,1107,0,0
294,-83,0,0,0,0,0,0,0,0,0,-1,1518,1107,0,0
301,-83,0,0,0,0,0,0,0,0,0,-1,1525,1107,0,0
308,-83,0,0,0,0,0,0,0,0,0,-1,1532,1107,0,0
315,-83,0,0,0,0,0,0,0,0,0,-1,1539,1107,0,0
322,-83,0,0,0,0,0,0,0,0,0,-1,1546,1107,0,0
329,-83,0,0,0,0,0,0,0,0,0,-1,1553,1107,0,0
336,-83,0,0,0,0,0,0,0,0,0,-1,1560,1107,0,0
343,-83,0,0,0,0,0,0,0,0,0,-1,1567,1107,0,0
350,-83,0,0,0,0,0,0,0,0,0,-1,1574,1107,0,0
357,-83,0,0,0,0,0,0,0,0,0,-1,1581,1107,0,0
364,-83,0,0,0,0,0,0,0,0,0,-1,1588,1107,0,0
371,-83,0,0,0,0,0,0,0,0,0,-1,1595,1107,0,0
378,-83,0,0,0,0,0,0,0,0,0,-1,1602,1107,0,0
385,-83,0,0,0,0,0,0,0,0,0,-1,1609,1107,0,0
392,-83,0,0,0,0,0,0,0,0,0,-1,1616,1107,0,0
399,-83,0,0,0,0,0,0,0,0,0,-1,1623,1107,0,0
406,-83,0,0,0,0,0,0,0,0,0,-1,1630,1107,0,0
413,-83,0,0,0,0,0,0,0,0,0,-1,1637,1107,0,0
420,-83,0,0,0,0,0,0,0,0,0,-1,1644,1107,0,0
427,-83,0,0,0,0,0,0,0,0,0,-1,1651,1107,0,0
434,-83,0,0,0,0,0,0,0,0,0,-1,1658,1107,0,0
441,-83,0,0,0,0,0,0,0,0,0,-1,1665,1107,0,0
448,-83,0,0,0,0,0,0,0,0,0,-1,1672,1107,0,0
455,-83,0,0,0,0,0,0,0,0,0,-1,1679,1107,0,0
462,-83,0,0,0,0,0,0,0,0,0,-1,1686,1107,0,0
469,-83,0,0,0,0,0,0,0,0,0,-1,1693,1107,0,0
476,-83,0,0,0,0,0,0,0,0,0,-1,1700,1107,0,0
483,-83,0,0,0,0,0,0,0,0,0,-1,1707,1107,0,0
490,-83,0,0,0,0,0,0,0,0,0,-1,1714,1107,0,0
497,-83,0,0,0,0,0,0,0,0,0,-1,1721,1107,0,0
504,-83,0,0,0,0,0,0,0,0,0,-1,1728,1107,0,0
511,-83,0,0,0,0,0,0,0,0,0,-1,1735,1107,0,0
518,-83,0,0,0,0,0,0,0,0,0,-1,1742,1107,0,0
525,-83,0,0,0,0,0,0,0,0,0,-1,1749,1107,0,0
532,-83,0,0,0,0,0,0,0,0,0,-1,1756,1107,0,0
539,-83,0,0,0,0,0,0,0,0,0,-1,1763,1107,0,0
546,-83,0,0,0,0,0,0,0,0,0,-1,1770,1107,0,0
553,-83,0,0,0,0,0,0,0,0,0,-1,1777,1107,0,0
560,-83,0,0,0,0,0,0,0,0,0,-1,1784,1107,0,0
567,-83,0,0,0,0,0,0,0,0,0,-1,1791,1107,0,0
574,-83,0,0,0,0,0,0,0,0,0,-1,1798,1107,0,0
581,-83,0,0,0,0,0,0,0,0,0,-1,1805,1107,0,0
588,-83,0,0,0,0,0,0,0,0,0,-1,1812,1107,0,0
595,-83,0,0,0,0,0,0,0,0,0,-1,1819,1107,0,0
602,-83,0,0,0,0,0,0,0,0,0,-1,1826,1107,0,0
609,-83,0,0,0,0,0,0,0,0,0,-1,1833,1107,0,0
616,-83,0,0,0,0,0,0,0,0,0,-1,1840,1107,0,0
623,-83,0,0,0,0,0,0,0,0,0,-1,1847,1107,0,0
630,-83,0,0,0,0,0,0,0,0,0,-1,1854,1107,0,0
637,-83,0,0,0,0,0,0,0,0,0,-1,1861,1107,0,0
644,-83,56.3518,2.48999,0.00972139,0.00432327,0.000292771,0.00973723,0.00430744,0.0540245,0.00563422,0.0367782,1868,1107,56.3518,-2.48996
651,-83,56.3741,2.35217,0.00671489,0.00215158,0.00085754,0.00687072,0.00199575,0.179754,0.00408126,0.0414236,1875,1107,56.3742,-2.35211
658,-83,56.481,2.32861,0.00465385,0.000705548,0.00117503,0.00497708,0.000382316,0.268444,0.00319824,0.0435643,1882,1107,56.481,-2.32867
665,-83,56.3236,2.41602,0.0030212,-0.000210014,0.0012658,0.00345802,-0.000646832,0.332295,0.00254847,0.0398162,1889,1107,56.3236,-2.41599
672,-83,56.2565,2.52271,0.00169423,-0.000748722,0.00120725,0.00219015,-0.00124464,0.389771,0.00200797,0.0369024,1896,1107,56.2564,-2.52271
679,-83,56.2689,2.49683,0.000561947,-0.000959179,0.000992322,0.00105165,-0.00144888,0.458426,0.00144974,0.0377885,1903,1107,56.2689,-2.49682
686,-83,56.2792,2.50269,-3.31547e-05,-0.00111014,0.000854318,0.00043822,-0.00158152,0.50419,0.00122679,0.0373955,1910,1107,56.2792,-2.50275
693,-83,56.2628,2.53979,-0.000219459,-0.00114566,0.000737666,0.000188425,-0.00155354,0.505097,0.00110388,0.0390179,1917,1107,56.2628,-2.53986
700,-83,56.2484,2.59106,-0.000329069,-0.0011116,0.000571167,-2.80048e-05,-0.00141267,0.485094,0.000932582,0.0331284,1924,1107,56.2485,-2.59104
707,-83,56.2568,2.55176,-0.000534758,-0.000986375,0.000740055,1.31719e-05,-0.0015343,0.637323,0.00102729,0.0248182,1931,1107,56.2568,-2.5518
714,-83,56.2544,2.47925,0,0,0,0,0,0,0,-1,1938,1107,56.2544,-2.47928
721,-83,49.1162,7.36719,0,0,0,0,0,0,0,-1,1945,1107,49.1162,-7.36721
728,-83,52.8038,7.40149,0,0,0,0,0,0,0,-1,1952,1107,52.8039,-7.4015
735,-83,52.973,7.05676,-0.0014616,0.0009109,0.00130455,0.0014879,-0.0020386,1.15437,0.00204428,0.0448277,1959,1107,52.9731,-7.05677
742,-83,53.1223,6.69202,-0.00153384,0.00153256,0.00158938,0.00220771,-0.002209,1.1691,0.00254999,0.0267526,1966,1107,53.1223,-6.69197
749,-83,53.2166,6.26587,-0.00184686,0.00298927,0.00191586,0.00365626,-0.00251384,1.23578,0.00358261,0.0176173,1973,1107,53.2166,-6.2659
756,-83,53.2272,5.89233,-0.00178887,0.00458942,0.00205077,0.00519189,-0.00239134,1.28506,0.00447659,0.0169877,1980,1107,53.2272,-5.89237
763,-83,53.1998,5.51819,-0.000952783,0.00750906,0.0020489,0.00797906,-0.00142278,1.3453,0.00585158,0.0133025,1987,1107,53.1999,-5.51824
770,-83,53.1162,5.21082,0.000331503,0.0114297,0.00169849,0.0116838,7.73817e-05,1.42228,0.00776353,0.0162138,1994,1107,53.1162,-5.21087
777,-83,52.9736,4.87366,0.00259121,0.0163072,0.000940497,0.0163714,0.00252702,1.50265,0.010177,0.0175687,2001,1107,52.9737,-4.87371
784,-83,52.8154,4.51575,0.00582795,0.0219311,-0.000167763,0.0219329,0.00582621,-1.56038,0.0131184,0.027226,2008,1107,52.8153,-4.51576
791,-83,52.5386,4.1427,0.0104004,0.02854,-0.00176175,0.0287095,0.0102309,-1.47487,0.0168019,0.0429818,2015,1107,52.5386,-4.14266
798,-83,52.1248,3.77209,0.0169102,0.0363732,-0.00401636,0.0371694,0.016114,-1.37509,0.0215229,0.0468777,2022,1107,52.1247,-3.77207
805,-83,52.0542,3.78516,0.0255759,0.0455661,-0.00713157,0.0478495,0.0232925,-1.26093,0.0276292,0.0489341,2029,1107,52.0542,-3.78512
812,-83,52.2429,4.00037,0.0368569,0.0563717,-0.0111334,0.0614183,0.0318103,-1.14521,0.0354675,0.0470062,2036,1107,52.243,-4.00038
-700,-90,0,0,0,0,0,0,0,0,0,-1,524,1114,0,0
-693,-90,-42.0475,-0.336792,0.0988986,-0.00640469,0.0840265,0.145407,-0.0529128,0.505521,0.118578,0.0466773,531,1114,-42.0475,0.336847
-686,-90,-41.4063,0.884888,0.083234,-0.00394528,0.0673094,0.119835,-0.0405467,0.498055,0.0962947,0.0423773,538,1114,-41.4063,-0.884946
-679,-90,-40.1458,1.01355,0.0686061,-0.00153207,0.053142,0.0972074,-0.0301333,0.493742,0.0768447,0.0422637,545,1114,-40.1458,-1.0136
-672,-90,-40.1763,1.17957,0.0553879,0.000583668,0.0411677,0.0774393,-0.0214678,0.491758,0.0600746,0.041448,552,1114,-40.1763,-1.17956
-665,-90,-39.6371,1.30042,0.0434404,0.00226036,0.0311384,0.0601806,-0.0144799,0.49328,0.0457179,0.0484765,559,1114,-39.6372,-1.30038
-658,-90,-39.0787,1.06421,0.0329794,0.00342172,0.0228649,0.0454259,-0.00902476,0.498494,0.0336975,0.0455106,566,1114,-39.0787,-1.06418
-651,-90,-39.0319,1.31519,0,0,0,0,0,0,0,-1,573,1114,-39.0318,-1.31514
-644,-90,-38.7907,1.83972,0.0173484,0.00397572,0.0109754,0.0235137,-0.00218963,0.511815,0.0164543,0.0166276,580,1114,-38.7907,-1.83969
-637,-90,-38.8206,2.38208,0.0112001,0.00365609,0.00610428,0.0146037,0.000252408,0.508651,0.00965279,0.0134168,587,1114,-38.8206,-2.38213
-630,-90,-38.8484,2.83179,0.00631486,0.00287679,0.00233263,0.00749346,0.0016982,0.46785,0.00453678,0.0118819,594,1114,-38.8484,-2.83181
-623,-90,-38.8818,3.26819,0.00338968,0.00157953,8.2881e-05,0.00339346,0.00157574,0.0456595,0.00196088,0.0112311,601,1114,-38.8818,-3.26824
-616,-90,-38.9233,3.70947,0.0018861,0.000969263,-0.00090578,0.00244286,0.000412504,-0.551139,0.00150997,0.0141153,608,1114,-38.9233,-3.70947
-609,-90,-38.9098,4.10767,0.00132256,-0.000230176,-0.00112558,0.00191355,-0.000821165,-0.48349,0.00162033,0.0211159,615,1114,-38.9098,-4.10772
-602,-90,-39.0018,4.51208,0.00145806,-0.00113121,-0.00111274,0.00187055,-0.0015437,-0.354993,0.00197423,0.0221261,622,1114,-39.0018,-4.51208
-595,-90,-38.8434,5.00098,0.00140483,-0.00145262,-0.00101218,0.00172704,-0.00177483,-0.308188,0.00202187,0.018525,629,1114,-38.8435,-5.00093
-588,-90,-38.8423,5.37,0,0,0,0,0,0,0,-1,636,1114,-38.8424,-5.36996
-581,-90,-42.2242,0.80957,0,0,0,0,0,0,0,-1,643,1114,-42.2242,-0.809576
-574,-90,-42.1578,0.770752,0.00227451,-0.00235673,-0.000777556,0.00240157,-0.00248379,-0.161979,0.0028207,0.036366,650,1114,-42.1579,-0.770808
-567,-90,-42.1708,0.734985,0.00268176,-0.00240801,-0.000621993,0.00275667,-0.00248292,-0.119855,0.00302646,0.0368778,657,1114,-42.1708,-0.735
-560,-90,-42.2138,0.677124,0.00307245,-0.00232536,-0.000489489,0.00311648,-0.00236939,-0.0897078,0.00317704,0.0424403,664,1114,-42.2138,-0.677077
-553,-90,-42.0844,0.896851,0.0031793,-0.0021643,-0.000522118,0.00322984,-0.00221484,-0.096493,0.00316164,0.0412267,671,1114,-42.0844,-0.896903
-546,-90,-42.0044,0.717529,0.00355559,-0.00202243,-0.000767015,0.00365914,-0.00212597,-0.134189,0.00337891,0.0395185,678,1114,-42.0044,-0.717518
-539,-90,-41.9864,0.618896,0.00529717,-0.00243729,-0.00150435,0.00557946,-0.00271959,-0.185494,0.00488537,0.0408518,685,1114,-41.9864,-0.618918
-532,-90,-42.0256,0.560669,0.00674745,-0.00310116,-0.00252776,0.00735834,-0.00371205,-0.237125,0.00650603,0.0413262,692,1114,-42.0255,-0.56067
-525,-90,0,0,0,0,0,0,0,0,0,-1,699,1114,0,0
-518,-90,0,0,0,0,0,0,0,0,0,-1,706,1114,0,0
-511,-90,0,0,0,0,0,0,0,0,0,-1,713,1114,0,0
-504,-90,0,0,0,0,0,0,0,0,0,-1,720,1114,0,0
-497,-90,0,0,0,0,0,0,0,0,0,-1,727,1114,0,0
-490,-90,0,0,0,0,0,0,0,0,0,-1,734,1114,0,0
-483,-90,0,0,0,0,0,0,0,0,0,-1,741,1114,0,0
-476,-90,0,0,0,0,0,0,0,0,0,-1,748,1114,0,0
-469,-90,0,0,0,0,0,0,0,0,0,-1,755,1114,0,0
-462,-90,0,0,0,0,0,0,0,0,0,-1,762,1114,0,0
-455,-90,0,0,0,0,0,0,0,0,0,-1,769,1114,0,0
-448,-90,0,0,0,0,0,0,0,0,0,-1,776,1114,0,0
-441,-90,0,0,0,0,0,0,0,0,0,-1,783,1114,0,0
-434,-90,0,0,0,0,0,0,0,0,0,-1,790,1114,0,0
-427,-90,0,0,0,0,0,0,0,0,0,-1,797,1114,0,0
-420,-90,0,0,0,0,0,0,0,0,0,-1,804,1114,0,0
-413,-90,0,0,0,0,0,0,0,0,0,-1,811,1114,0,0
-406,-90,0,0,0,0,0,0,0,0,0,-1,818,1114,0,0
-399,-90,0,0,0,0,0,0,0,0,0,-1,825,1114,0,0
-392,-90,0,0,0,0,0,0,0,0,0,-1,832,1114,0,0
-385,-90,0,0,0,0,0,0,0,0,0,-1,839,1114,0,0
-378,-90,0,0,0,0,0,0,0,0,0,-1,846,1114,0,0
-371,-90,0,0,0,0,0,0,0,0,0,-1,853,1114,0,0
-364,-90,0,0,0,0,0,0,0,0,0,-1,860,1114,0,0
-357,-90,0,0,0,0,0,0,0,0,0,-1,867,1114,0,0
-350,-90,0,0,0,0,0,0,0,0,0,-1,874,1114,0,0
-343,-90,0,0,0,0,0,0,0,0,0,-1,881,1114,0,0
-336,-90,0,0,0,0,0,0,0,0,0,-1,888,1114,0,0
-329,-90,0,0,0,0,0,0,0,0,0,-1,895,1114,0,0
-322,-90,0,0,0,0,0,0,0,0,0,-1,902,1114,0,0
-315,-90,0,0,0,0,0,0,0,0,0,-1,909,1114,0,0
-308,-90,0,0,0,0,0,0,0,0,0,-1,916,1114,0,0
-301,-90,0,0,0,0,0,0,0,0,0,-1,923,1114,0,0
-294,-90,0,0,0,0,0,0,0,0,0,-1,930,1114,0,0
-287,-90,0,0,0,0,0,0,0,0,0,-1,937,1114,0,0
-280,-90,0,0,0,0,0,0,0,0,0,-1,944,1114,0,0
-273,-90,0,0,0,0,0,0,0,0,0,-1,951,1114,0,0
-266,-90,0,0,0,0,0,0,0,0,0,-1,958,1114,0,0
-259,-90,0,0,0,0,0,0,0,0,0,-1,965,1114,0,0
-252,-90,0,0,0,0,0,0,0,0,0,-1,972,1114,0,0
-245,-90,0,0,0,0,0,0,0,0,0,-1,979,1114,0,0
-238,-90,0,0,0,0,0,0,0,0,0,-1,986,1114,0,0
-231,-90,0,0,0,0,0,0,0,0,0,-1,993,1114,0,0
-224,-90,0,0,0,0,0,0,0,0,0,-1,1000,1114,0,0
-217,-90,0,0,0,0,0,0,0,0,0,-1,1007,1114,0,0
-210,-90,0,0,0,0,0,0,0,0,0,-1,1014,1114,0,0
-203,-90,0,0,0,0,0,0,0,0,0,-1,1021,1114,0,0
-196,-90,0,0,0,0,0,0,0,0,0,-1,1028,1114,0,0
-189,-90,0,0,0,0,0,0,0,0,0,-1,1035,1114,0,0
-182,-90,0,0,0,0,0,0,0,0,0,-1,1042,1114,0,0
-175,-90,0,0,0,0,0,0,0,0,0,-1,1049,1114,0,0
-168,-90,0,0,0,0,0,0,0,0,0,-1,1056,1114,0,0
-161,-90,0,0,0,0,0,0,0,0,0,-1,1063,1114,0,0
-154,-90,0,0,0,0,0,0,0,0,0,-1,1070,1114,0,0
-147,-90,0,0,0,0,0,0,0,0,0,-1,1077,1114,0,0
-140,-90,0,0,0,0,0,0,0,0,0,-1,1084,1114,0,0
-133,-90,0,0,0,0,0,0,0,0,0,-1,1091,1114,0,0
-126,-90,0,0,0,0,0,0,0,0,0,-1,1098,1114,0,0
-119,-90,0,0,0,0,0,0,0,0,0,-1,1105,1114,0,0
-112,-90,0,0,0,0,0,0,0,0,0,-1,1112,1114,0,0
-105,-90,0,0,0,0,0,0,0,0,0,-1,1119,1114,0,0
-98,-90,0,0,0,0,0,0,0,0,0,-1,1126,1114,0,0
-91,-90,0,0,0,0,0,0,0,0,0,-1,1133,1114,0,0
-84,-90,0,0,0,0,0,0,0,0,0,-1,1140,1114,0,0
-77,-90,0,0,0,0,0,0,0,0,0,-1,1147,1114,0,0
-70,-90,0,0,0,0,0,0,0,0,0,-1,1154,1114,0,0
-63,-90,0,0,0,0,0,0,0,0,0,-1,1161,1114,0,0
-56,-90,0,0,0,0,0,0,0,0,0,-1,1168,1114,0,0
-49,-90,0,0,0,0,0,0,0,0,0,-1,1175,1114,0,0
-42,-90,0,0,0,0,0,0,0,0,0,-1,1182,1114,0,0
-35,-90,0,0,0,0,0,0,0,0,0,-1,1189,1114,0,0
-28,-90,0,0,0,0,0,0,0,0,0,-1,1196,1114,0,0
-21,-90,0,0,0,0,0,0,0,0,0,-1,1203,1114,0,0
-14,-90,0,0,0,0,0,0,0,0,0,-1,1210,1114,0,0
-7,-90,0,0,0,0,0,0,0,0,0,-1,1217,1114,0,0
0,-90,0,0,0,0,0,0,0,0,0,-1,1224,1114,0,0
7,-90,0,0,0,0,0,0,0,0,0,-1,1231,1114,0,0
14,-90,0,0,0,0,0,0,0,0,0,-1,1238,1114,0,0
21,-90,0,0,0,0,0,0,0,0,0,-1,1245,1114,0,0
28,-90,0,0,0,0,0,0,0,0,0,-1,1252,1114,0,0
35,-90,0,0,0,0,0,0,0,0,0,-1,1259,1114,0,0
42,-90,0,0,0,0,0,0,0,0,0,-1,1266,1114,0,0
49,-90,0,0,0,0,0,0,0,0,0,-1,1273,1114,0,0
56,-90,0,0,0,0,0,0,0,0,0,-1,1280,1114,0,0
63,-90,0,0,0,0,0,0,0,0,0,-1,1287,1114,0,0
70,-90,0,0,0,0,0,0,0,0,0,-1,1294,1114,0,0
77,-90,0,0,0,0,0,0,0,0,0,-1,1301,1114,0,0
84,-90,0,0,0,0,0,0,0,0,0,-1,1308,1114,0,0
91,-90,0,0,0,0,0,0,0,0,0,-1,1315,1114,0,0
98,-90,0,0,0,0,0,0,0,0,0,-1,1322,1114,0,0
105,-90,0,0,0,0,0,0,0,0,0,-1,1329,1114,0,0
112,-90,0,0,0,0,0,0,0,0,0,-1,1336,1114,0,0
119,-90,0,0,0,0,0,0,0,0,0,-1,1343,1114,0,0
126,-90,0,0,0,0,0,0,0,0,0,-1,1350,1114,0,0
133,-90,0,0,0,0,0,0,0,0,0,-1,1357,1114,0,0
140,-90,0,0,0,0,0,0,0,0,0,-1,1364,1114,0,0
147,-90,0,0,0,0,0,0,0,0,0,-1,1371,1114,0,0
154,-90,0,0,0,0,0,0,0,0,0,-1,1378,1114,0,0
161,-90,0,0,0,0,0,0,0,0,0,-1,1385,1114,0,0
168,-90,0,0,0,0,0,0,0,0,0,-1,1392,1114,0,0
175,-90,0,0,0,0,0,0,0,0,0,-1,1399,1114,0,0
182,-90,0,0,0,0,0,0,0,0,0,-1,1406,1114,0,0
189,-90,0,0,0,0,0,0,0,0,0,-1,1413,1114,0,0
196,-90,0,0,0,0,0,0,0,0,0,-1,1420,1114,0,0
203,-90,0,0,0,0,0,0,0,0,0,-1,1427,1114,0,0
210,-90,0,0,0,0,0,0,0,0,0,-1,1434,1114,0,0
217,-90,0,0,0,0,0,0,0,0,0,-1,1441,1114,0,0
224,-90,0,0,0,0,0,0,0,0,0,-1,1448,1114,0,0
231,-90,0,0,0,0,0,0,0,0,0,-1,1455,1114,0,0
238,-90,0,0,0,0,0,0,0,0,0,-1,1462,1114,0,0
245,-90,0,0,0,0,0,0,0,0,0,-1,1469,1114,0,0
252,-90,0,0,0,0,0,0,0,0,0,-1,1476,1114,0,0
259,-90,0,0,0,0,0,0,0,0,0,-1,1483,1114,0,0
266,-90,0,0,0,0,0,0,0,0,0,-1,1490,1114,0,0
273,-90,0,0,0,0,0,0,0,0,0,-1,1497,1114,0,0
280,-90,0,0,0,0,0,0,0,0,0,-1,1504,1114,0,0
287,-90,0,0,0,0,0,0,0,0,0,-1,1511,1114,0,0
294,-90,0,0,0,0,0,0,0,0,0,-1,1518,1114,0,0
301,-90,0,0,0,0,0,0,0,0,0,-1,1525,1114,0,0
308,-90,0,0,0,0,0,0,0,0,0,-1,1532,1114,0,0
315,-90,0,0,0,0,0,0,0,0,0,-1,1539,1114,0,0
322,-90,0,0,0,0,0,0,0,0,0,-1,1546,1114,0,0
329,-90,0,0,0,0,0,0,0,0,0,-1,1553,1114,0,0
336,-90,0,0,0,0,0,0,0,0,0,-1,1560,1114,0,0
343,-90,0,0,0,0,0,0,0,0,0,-1,1567,1114,0,0
350,-90,0,0,0,0,0,0,0,0,0,-1,1574,1114,0,0
357,-90,0,0,0,0,0,0,0,0,0,-1,1581,1114,0,0
364,-90,0,0,0,0,0,0,0,0,0,-1,1588,1114,0,0
371,-90,0,0,0,0,0,0,0,0,0,-1,1595,1114,0,0
378,-90,0,0,0,0,0,0,0,0,0,-1,1602,1114,0,0
385,-90,0,0,0,0,0,0,0,0,0,-1,1609,1114,0,0
392,-90,0,0,0,0,0,0,0,0,0,-1,1616,1114,0,0
399,-90,0,0,0,0,0,0,0,0,0,-1,1623,1114,0,0
406,-90,0,0,0,0,0,0,0,0,0,-1,1630,1114,0,0
413,-90,0,0,0,0,0,0,0,0,0,-1,1637,1114,0,0
420,-90,0,0,0,0,0,0,0,0,0,-1,1644,1114,0,0
427,-90,0,0,0,0,0,0,0,0,0,-1,1651,1114,0,0
434,-90,0,0,0,0,0,0,0,0,0,-1,1658,1114,0,0
441,-90,0,0,0,0,0,0,0,0,0,-1,1665,1114,0,0
448,-90,0,0,0,0,0,0,0,0,0,-1,1672,1114,0,0
455,-90,0,0,0,0,0,0,0,0,0,-1,1679,1114,0,0
462,-90,0,0,0,0,0,0,0,0,0,-1,1686,1114,0,0
469,-90,0,0,0,0,0,0,0,0,0,-1,1693,1114,0,0
476,-90,0,0,0,0,0,0,0,0,0,-1,1700,1114,0,0
483,-90,0,0,0,0,0,0,0,0,0,-1,1707,1114,0,0
490,-90,0,0,0,0,0,0,0,0,0,-1,1714,1114,0,0
497,-90,0,0,0,0,0,0,0,0,0,-1,1721,1114,0,0
504,-90,0,0,0,0,0,0,0,0,0,-1,1728,1114,0,0
511,-90,0,0,0,0,0,0,0,0,0,-1,1735,1114,0,0
518,-90,0,0,0,0,0,0,0,0,0,-1,1742,1114,0,0
525,-90,0,0,0,0,0,0,0,0,0,-1,1749,1114,0,0
532,-90,0,0,0,0,0,0,0,0,0,-1,1756,1114,0,0
539,-90,0,0,0,0,0,0,0,0,0,-1,1763,1114,0,0
546,-90,0,0,0,0,0,0,0,0,0,-1,1770,1114,0,0
553,-90,0,0,0,0,0,0,0,0,0,-1,1777,1114,0,0
560,-90,0,0,0,0,0,0,0,0,0,-1,1784,1114,0,0
567,-90,0,0,0,0,0,0,0,0,0,-1,1791,1114,0,0
574,-90,0,0,0,0,0,0,0,0,0,-1,1798,1114,0,0
581,-90,0,0,0,0,0,0,0,0,0,-1,1805,1114,0,0
588,-90,0,0,0,0,0,0,0,0,0,-1,1812,1114,0,0
595,-90,0,0,0,0,0,0,0,0,0,-1,1819,1114,0,0
602,-90,0,0,0,0,0,0,0,0,0,-1,1826,1114,0,0
609,-90,0,0,0,0,0,0,0,0,0,-1,1833,1114,0,0
616,-90,0,0,0,0,0,0,0,0,0,-1,1840,1114,0,0
623,-90,0,0,0,0,0,0,0,0,0,-1,1847,1114,0,0
630,-90,0,0,0,0,0,0,0,0,0,-1,1854,1114,0,0
637,-90,0,0,0,0,0,0,0,0,0,-1,1861,1114,0,0
644,-90,56.2385,2.58032,0.0105579,0.00260249,0.00271608,0.0113968,0.00176364,0.299552,0.00708353,0.0384494,1868,1114,56.2385,-2.58029
651,-90,56.2216,2.60291,0.00725382,0.000734058,0.00261142,0.00817082,-0.000182941,0.337699,0.0055092,0.0423848,1875,1114,56.2216,-2.60286
658,-90,56.2162,2.59058,0.00503473,-0.000421817,0.00241272,0.00594853,-0.00133562,0.362048,0.00447779,0.0413642,1882,1114,56.2162,-2.59058
665,-90,56.2639,2.52246,0.00326403,-0.00107919,0.00210182,0.00411459,-0.00192976,0.384534,0.00356489,0.040978,1889,1114,56.2639,-2.52244
672,-90,56.3016,2.4939,0.00181825,-0.00138156,0.00170937,0.00255964,-0.00212294,0.409232,0.0027074,0.0396685,1896,1114,56.3016,-2.49387
679,-90,56.3604,2.5033,0.000592946,-0.00140732,0.00125483,0.00119746,-0.00201183,0.448936,0.00187266,0.0383951,1903,1114,56.3604,-2.50324
686,-90,56.3434,2.55273,-3.34494e-05,-0.00141542,0.000962066,0.000460062,-0.00190893,0.47397,0.0014505,0.0362721,1910,1114,56.3433,-2.55269
693,-90,56.259,2.53503,-0.000231298,-0.00135215,0.000745513,0.000140943,-0.00172439,0.463094,0.00119934,0.0373024,1917,1114,56.259,-2.53508
700,-90,56.2634,2.59338,-0.000374779,-0.00127896,0.000508599,-0.000146385,-0.00150735,0.422076,0.000959835,0.0332142,1924,1114,56.2634,-2.59335
707,-90,56.2429,2.44214,-0.000593317,-0.00110926,0.000622393,-0.000177551,-0.00152503,0.588934,0.000962971,0.0255466,1931,1114,56.2429,-2.44208
714,-90,56.2008,2.21765,0,0,0,0,0,0,0,-1,1938,1114,56.2008,-2.2176
721,-90,52.7498,7.85706,0,0,0,0,0,0,0,-1,1945,1114,52.7497,-7.85703
728,-90,52.7837,7.53162,-0.00121959,0.000249594,0.000897783,0.000675018,-0.00164502,1.12828,0.00137795,0.0367052,1952,1114,52.7837,-7.5316
735,-90,52.5758,7.10657,-0.00131765,0.000748389,0.00116662,0.00127362,-0.00184288,1.14776,0.00180929,0.037734,1959,1114,52.5758,-7.10655
742,-90,52.6699,6.65515,-0.00138332,0.00127992,0.00144059,0.00191007,-0.00201347,1.15845,0.00226552,0.0319716,1966,1114,52.6699,-6.65509
749,-90,52.9471,6.14697,-0.00168169,0.00257994,0.00181215,0.00324631,-0.00234806,1.21842,0.00324376,0.020517,1973,1114,52.9471,-6.14701
756,-90,52.8904,5.82117,-0.00156952,0.00413416,0.00197749,0.00475269,-0.00218805,1.26765,0.00409741,0.0184891,1980,1114,52.8904,-5.82115
763,-90,52.8167,5.4856,-0.000583508,0.00707259,0.00201472,0.0075704,-0.00108132,1.32856,0.00544329,0.0134856,1987,1114,52.8167,-5.48563
770,-90,52.7501,5.12354,0.000850709,0.0109467,0.00172951,0.0112347,0.000562652,1.40576,0.00730949,0.0163666,1994,1114,52.7501,-5.12357
777,-90,52.6382,4.80957,0.00324449,0.0157456,0.00108959,0.0158399,0.00315023,1.4845,0.00968221,0.0169609,2001,1114,52.6382,-4.80962
784,-90,52.5042,4.56409,0.00663153,0.0214198,0.000119142,0.0214207,0.00663057,1.56274,0.0126628,0.0298235,2008,1114,52.5042,-4.56405
791,-90,52.2947,4.36963,0.0114435,0.028249,-0.00129771,0.0283486,0.0113438,-1.49418,0.0164755,0.0430091,2015,1114,52.2948,-4.36969
798,-90,52.0952,4.14905,0,0,0,0,0,0,0,-1,2022,1114,52.0953,-4.14901
805,-90,51.8396,4.67834,0.0273044,0.0464153,-0.00610074,0.0481968,0.0255229,-1.28669,0.0278426,0.0469606,2029,1114,51.8397,-4.67831
812,-90,53.1003,4.47192,0.0390465,0.0582816,-0.00960088,0.0622535,0.0350745,-1.17853,0.0360383,0.0445736,2036,1114,53.1004,-4.47191
-700,-97,0,0,0,0,0,0,0,0,0,-1,524,1121,0,0
-693,-97,-42.2212,0.107544,0,0,0,0,0,0,0,-1,531,1121,-42.2212,-0.107548
-686,-97,-41.6959,0.550415,0.0864264,-0.00913007,0.07384,0.126598,-0.0493013,0.498248,0.104773,0.0489409,538,1121,-41.6959,-0.550403
-679,-97,-41.1713,0.933594,0.0719601,-0.00628833,0.0583922,0.103124,-0.0374518,0.490237,0.0840615,0.0438335,545,1121,-41.1713,-0.933573
-672,-97,-40.7695,1.37354,0.0586723,-0.00365422,0.0452759,0.0824732,-0.0274551,0.483984,0.0660637,0.0406697,552,1121,-40.7695,-1.37359
-665,-97,-39.7328,0.99707,0.0464827,-0.0014228,0.0342392,0.0643158,-0.0192559,0.480179,0.0505339,0.049372,559,1121,-39.7328,-0.997016
-658,-97,-38.4714,0.619507,0,0,0,0,0,0,0,-1,566,1121,-38.4715,-0.619519
-651,-97,-38.265,1.39795,0.026487,0.00145981,0.0177149,0.0356623,-0.00771543,0.477897,0.0267206,0.033292,573,1121,-38.2649,-1.39794
-644,-97,-38.3509,1.87097,0.0190847,0.00197652,0.0119555,0.0252312,-0.00416996,0.474874,0.0183692,0.0135599,580,1121,-38.3509,-1.87099
-637,-97,-38.3769,2.36304,0.0125166,0.00214464,0.00674286,0.0158371,-0.00117587,0.457589,0.0109711,0.0137823,587,1121,-38.3769,-2.36298
-630,-97,-38.3975,2.80994,0.00718878,0.00189213,0.00271675,0.00833444,0.000746464,0.399075,0.00532494,0.0107894,594,1121,-38.3975,-2.8099
-623,-97,-38.4318,3.23572,0.00389842,0.00106536,0.00032371,0.00393493,0.00102884,0.112333,0.00235644,0.0118473,601,1121,-38.4318,-3.23566
-616,-97,-38.4778,3.69812,0.00217994,0.000600909,-0.000701115,0.00244632,0.000334539,-0.363081,0.00153159,0.0198485,608,1121,-38.4778,-3.69806
-609,-97,-38.5748,4.17334,0.00146743,-0.000408902,-0.000901684,0.00183049,-0.000771963,-0.382786,0.0015434,0.027913,615,1121,-38.5748,-4.17336
-602,-97,-38.6346,4.54163,0.00153053,-0.00117062,-0.00084519,0.00177319,-0.00141328,-0.279587,0.00184362,0.0272686,622,1121,-38.6346,-4.54157
-595,-97,-38.4677,5.03406,0.00137934,-0.00142159,-0.000690626,0.00154037,-0.00158262,-0.229072,0.00180312,0.0211159,629,1121,-38.4677,-5.03405
-588,-97,-38.5013,5.46265,0,0,0,0,0,0,0,-1,636,1121,-38.5013,-5.46268
-581,-97,-40.8881,2.5575,0,0,0,0,0,0,0,-1,643,1121,-40.8881,-2.55753
-574,-97,-42.1814,0.891602,0,0,0,0,0,0,0,-1,650,1121,-42.1814,-0.891636
-567,-97,-42.1057,0.825684,0.00275331,-0.00226281,-0.000513538,0.00280535,-0.00231485,-0.100982,0.00296066,0.0363213,657,1121,-42.1057,-0.825661
-560,-97,-42.1378,1.1261,0.00322593,-0.00218634,-0.000468941,0.00326626,-0.00222667,-0.085792,0.00319022,0.0427617,664,1121,-42.1378,-1.12613
-553,-97,-42.0264,0.717651,0.00332474,-0.00202016,-0.000639122,0.0034001,-0.00209553,-0.117372,0.00320256,0.046874,671,1121,-42.0263,-0.717655
-546,-97,-42.0516,0.598389,0.00367091,-0.00182336,-0.00104136,0.00386167,-0.00201411,-0.181168,0.00344783,0.0436348,678,1121,-42.0516,-0.598344
-539,-97,-42.1131,0.626343,0.00533583,-0.00210598,-0.00185554,0.00577283,-0.00254298,-0.231295,0.00492037,0.0419003,685,1121,-42.1131,-0.626309
-532,-97,-42.1201,0.455078,0.00684913,-0.00268701,-0.00291401,0.00766908,-0.00350696,-0.274289,0.00659996,0.040515,692,1121,-42.1201,-0.455086
-525,-97,0,0,0,0,0,0,0,0,0,-1,699,1121,0,0
-518,-97,0,0,0,0,0,0,0,0,0,-1,706,1121,0,0
-511,-97,0,0,0,0,0,0,0,0,0,-1,713,1121,0,0
-504,-97,0,0,0,0,0,0,0,0,0,-1,720,1121,0,0
-497,-97,0,0,0,0,0,0,0,0,0,-1,727,1121,0,0
-490,-97,0,0,0,0,0,0,0,0,0,-1,734,1121,0,0
-483,-97,0,0,0,0,0,0,0,0,0,-1,741,1121,0,0
-476,-97,0,0,0,0,0,0,0,0,0,-1,748,1121,0,0
-469,-97,0,0,0,0,0,0,0,0,0,-1,755,1121,0,0
-462,-97,0,0,0,0,0,0,0,0,0,-1,762,1121,0,0
-455,-97,0,0,0,0,0,0,0,0,0,-1,769,1121,0,0
-448,-97,0,0,0,0,0,0,0,0,0,-1,776,1121,0,0
-441,-97,0,0,0,0,0,0,0,0,0,-1,783,1121,0,0
-434,-97,0,0,0,0,0,0,0,0,0,-1,790,1121,0,0
-427,-97,0,0,0,0,0,0,0,0,0,-1,797,1121,0,0
-420,-97,0,0,0,0,0,0,0,0,0,-1,804,1121,0,0
-413,-97,0,0,0,0,0,0,0,0,0,-1,811,1121,0,0
-406,-97,0,0,0,0,0,0,0,0,0,-1,818,1121,0,0
-399,-97,0,0,0,0,0,0,0,0,0,-1,825,1121,0,0
-392,-97,0,0,0,0,0,0,0,0,0,-1,832,1121,0,0
-385,-97,0,0,0,0,0,0,0,0,0,-1,839,1121,0,0
-378,-97,0,0,0,0,0,0,0,0,0,-1,846,1121,0,0
-371,-97,0,0,0,0,0,0,0,0,0,-1,853,1121,0,0
-364,-97,0,0,0,0,0,0,0,0,0,-1,860,1121,0,0
-357,-97,0,0,0,0,0,0,0,0,0,-1,867,1121,0,0
-350,-97,0,0,0,0,0,0,0,0,0,-1,874,1121,0,0
-343,-97,0,0,0,0,0,0,0,0,0,-1,881,1121,0,0
-336,-97,0,0,0,0,0,0,0,0,0,-1,888,1121,0,0
-329,-97,0,0,0,0,0,0,0,0,0,-1,895,1121,0,0
-322,-97,0,0,0,0,0,0,0,0,0,-1,902,1121,0,0
-315,-97,0,0,0,0,0,0,0,0,0,-1,909,1121,0,0
-308,-97,0,0,0,0,0,0,0,0,0,-1,916,1121,0,0
-301,-97,0,0,0,0,0,0,0,0,0,-1,923,1121,0,0
-294,-97,0,0,0,0,0,0,0,0,0,-1,930,1121,0,0
-287,-97,0,0,0,0,0,0,0,0,0,-1,937,1121,0,0
-280,-97,0,0,0,0,0,0,0,0,0,-1,944,1121,0,0
-273,-97,0,0,0,0,0,0,0,0,0,-1,951,1121,0,0
-266,-97,0,0,0,0,0,0,0,0,0,-1,958,1121,0,0
-259,-97,0,0,0,0,0,0,0,0,0,-1,965,1121,0,0
-252,-97,0,0,0,0,0,0,0,0,0,-1,972,1121,0,0
-245,-97,0,0,0,0,0,0,0,0,0,-1,979,1121,0,0
-238,-97,0,0,0,0,0,0,0,0,0,-1,986,1121,0,0
-231,-97,0,0,0,0,0,0,0,0,0,-1,993,1121,0,0
-224,-97,0,0,0,0,0,0,0,0,0,-1,1000,1121,0,0
-217,-97,0,0,0,0,0,0,0,0,0,-1,1007,1121,0,0
-210,-97,0,0,0,0,0,0,0,0,0,-1,1014,1121,0,0
-203,-97,0,0,0,0,0,0,0,0,0,-1,1021,1121,0,0
-196,-97,0,0,0,0,0,0,0,0,0,-1,1028,1121,0,0
-189,-97,0,0,0,0,0,0,0,0,0,-1,1035,1121,0,0
-182,-97,0,0,0,0,0,0,0,0,0,-1,1042,1121,0,0
-175,-97,0,0,0,0,0,0,0,0,0,-1,1049,1121,0,0
-168,-97,0,0,0,0,0,0,0,0,0,-1,1056,1121,0,0
-161,-97,0,0,0,0,0,0,0,0,0,-1,1063,1121,0,0
-154,-97,0,0,0,0,0,0,0,0,0,-1,1070,1121,0,0
-147,-97,0,0,0,0,0,0,0,0,0,-1,1077,1121,0,0
-140,-97,0,0,0,0,0,0,0,0,0,-1,1084,1121,0,0
-133,-97,0,0,0,0,0,0,0,0,0,-1,1091,1121,0,0
-126,-97,0,0,0,0,0,0,0,0,0,-1,1098,1121,0,0
-119,-97,0,0,0,0,0,0,0,0,0,-1,1105,1121,0,0
-112,-97,0,0,0,0,0,0,0,0,0,-1,1112,1121,0,0
-105,-97,0,0,0,0,0,0,0,0,0,-1,1119,1121,0,0
-98,-97,0,0,0,0,0,0,0,0,0,-1,1126,1121,0,0
-91,-97,0,0,0,0,0,0,0,0,0,-1,1133,1121,0,0
-84,-97,0,0,0,0,0,0,0,0,0,-1,1140,1121,0,0
-77,-97,0,0,0,0,0,0,0,0,0,-1,1147,1121,0,0
-70,-97,0,0,0,0,0,0,0,0,0,-1,1154,1121,0,0
-63,-97,0,0,0,0,0,0,0,0,0,-1,1161,1121,0,0
-56,-97,0,0,0,0,0,0,0,0,0,-1,1168,1121,0,0
-49,-97,0,0,0,0,0,0,0,0,0,-1,1175,1121,0,0
-42,-97,0,0,0,0,0,0,0,0,0,-1,1182,1121,0,0
-35,-97,0,0,0,0,0,0,0,0,0,-1,1189,1121,0,0
-28,-97,0,0,0,0,0,0,0,0,0,-1,1196,1121,0,0
-21,-97,0,0,0,0,0,0,0,0,0,-1,1203,1121,0,0
-14,-97,0,0,0,0,0,0,0,0,0,-1,1210,1121,0,0
-7,-97,0,0,0,0,0,0,0,0,0,-1,1217,1121,0,0
0,-97,0,0,0,0,0,0,0,0,0,-1,1224,1121,0,0
7,-97,0,0,0,0,0,0,0,0,0,-1,1231,1121,0,0
14,-97,0,0,0,0,0,0,0,0,0,-1,1238,1121,0,0
21,-97,0,0,0,0,0,0,0,0,0,-1,1245,1121,0,0
28,-97,0,0,0,0,0,0,0,0,0,-1,1252,1121,0,0
35,-97,0,0,0,0,0,0,0,0,0,-1,1259,1121,0,0
42,-97,0,0,0,0,0,0,0,0,0,-1,1266,1121,0,0
49,-97,0,0,0,0,0,0,0,0,0,-1,1273,1121,0,0
56,-97,0,0,0,0,0,0,0,0,0,-1,1280,1121,0,0
63,-97,0,0,0,0,0,0,0,0,0,-1,1287,1121,0,0
70,-97,0,0,0,0,0,0,0,0,0,-1,1294,1121,0,0
77,-97,0,0,0,0,0,0,0,0,0,-1,1301,1121,0,0
84,-97,0,0,0,0,0,0,0,0,0,-1,1308,1121,0,0
91,-97,0,0,0,0,0,0,0,0,0,-1,1315,1121,0,0
98,-97,0,0,0,0,0,0,0,0,0,-1,1322,1121,0,0
105,-97,0,0,0,0,0,0,0,0,0,-1,1329,1121,0,0
112,-97,0,0,0,0,0,0,0,0,0,-1,1336,1121,0,0
119,-97,0,0,0,0,0,0,0,0,0,-1,1343,1121,0,0
126,-97,0,0,0,0,0,0,0,0,0,-1,1350,1121,0,0
133,-97,0,0,0,0,0,0,0,0,0,-1,1357,1121,0,0
140,-97,0,0,0,0,0,0,0,0,0,-1,1364,1121,0,0
147,-97,0,0,0,0,0,0,0,0,0,-1,1371,1121,0,0
154,-97,0,0,0,0,0,0,0,0,0,-1,1378,1121,0,0
161,-97,0,0,0,0,0,0,0,0,0,-1,1385,1121,0,0
168,-97,0,0,0,0,0,0,0,0,0,-1,1392,1121,0,0
175,-97,0,0,0,0,0,0,0,0,0,-1,1399,1121,0,0
182,-97,0,0,0,0,0,0,0,0,0,-1,1406,1121,0,0
189,-97,0,0,0,0,0,0,0,0,0,-1,1413,1121,0,0
196,-97,0,0,0,0,0,0,0,0,0,-1,1420,1121,0,0
203,-97,0,0,0,0,0,0,0,0,0,-1,1427,1121,0,0
210,-97,0,0,0,0,0,0,0,0,0,-1,1434,1121,0,0
217,-97,0,0,0,0,0,0,0,0,0,-1,1441,1121,0,0
224,-97,0,0,0,0,0,0,0,0,0,-1,1448,1121,0,0
231,-97,0,0,0,0,0,0,0,0,0,-1,1455,1121,0,0
238,-97,0,0,0,0,0,0,0,0,0,-1,1462,1121,0,0
245,-97,0,0,0,0,0,0,0,0,0,-1,1469,1121,0,0
252,-97,0,0,0,0,0,0,0,0,0,-1,1476,1121,0,0
259,-97,0,0,0,0,0,0,0,0,0,-1,1483,1121,0,0
266,-97,0,0,0,0,0,0,0,0,0,-1,1490,1121,0,0
273,-97,0,0,0,0,0,0,0,0,0,-1,1497,1121,0,0
280,-97,0,0,0,0,0,0,0,0,0,-1,1504,1121,0,0
287,-97,0,0,0,0,0,0,0,0,0,-1,1511,1121,0,0
294,-97,0,0,0,0,0,0,0,0,0,-1,1518,1121,0,0
301,-97,0,0,0,0,0,0,0,0,0,-1,1525,1121,0,0
308,-97,0,0,0,0,0,0,0,0,0,-1,1532,1121,0,0
315,-97,0,0,0,0,0,0,0,0,0,-1,1539,1121,0,0
322,-97,0,0,0,0,0,0,0,0,0,-1,1546,1121,0,0
329,-97,0,0,0,0,0,0,0,0,0,-1,1553,1121,0,0
336,-97,0,0,0,0,0,0,0,0,0,-1,1560,1121,0,0
343,-97,0,0,0,0,0,0,0,0,0,-1,1567,1121,0,0
350,-97,0,0,0,0,0,0,0,0,0,-1,1574,1121,0,0
357,-97,0,0,0,0,0,0,0,0,0,-1,1581,1121,0,0
364,-97,0,0,0,0,0,0,0,0,0,-1,1588,1121,0,0
371,-97,0,0,0,0,0,0,0,0,0,-1,1595,1121,0,0
378,-97,0,0,0,0,0,0,0,0,0,-1,1602,1121,0,0
385,-97,0,0,0,0,0,0,0,0,0,-1,1609,1121,0,0
392,-97,0,0,0,0,0,0,0,0,0,-1,1616,1121,0,0
399,-97,0,0,0,0,0,0,0,0,0,-1,1623,1121,0,0
406,-97,0,0,0,0,0,0,0,0,0,-1,1630,1121,0,0
413,-97,0,0,0,0,0,0,0,0,0,-1,1637,1121,0,0
420,-97,0,0,0,0,0,0,0,0,0,-1,1644,1121,0,0
427,-97,0,0,0,0,0,0,0,0,0,-1,1651,1121,0,0
434,-97,0,0,0,0,0,0,0,0,0,-1,1658,1121,0,0
441,-97,0,0,0,0,0,0,0,0,0,-1,1665,1121,0,0
448,-97,0,0,0,0,0,0,0,0,0,-1,1672,1121,0,0
455,-97,0,0,0,0,0,0,0,0,0,-1,1679,1121,0,0
462,-97,0,0,0,0,0,0,0,0,0,-1,1686,1121,0,0
469,-97,0,0,0,0,0,0,0,0,0,-1,1693,1121,0,0
476,-97,0,0,0,0,0,0,0,0,0,-1,1700,1121,0,0
483,-97,0,0,0,0,0,0,0,0,0,-1,1707,1121,0,0
490,-97,0,0,0,0,0,0,0,0,0,-1,1714,1121,0,0
497,-97,0,0,0,0,0,0,0,0,0,-1,1721,1121,0,0
504,-97,0,0,0,0,0,0,0,0,0,-1,1728,1121,0,0
511,-97,0,0,0,0,0,0,0,0,0,-1,1735,1121,0,0
518,-97,0,0,0,0,0,0,0,0,0,-1,1742,1121,0,0
525,-97,0,0,0,0,0,0,0,0,0,-1,1749,1121,0,0
532,-97,0,0,0,0,0,0,0,0,0,-1,1756,1121,0,0
539,-97,0,0,0,0,0,0,0,0,0,-1,1763,1121,0,0
546,-97,0,0,0,0,0,0,0,0,0,-1,1770,1121,0,0
553,-97,0,0,0,0,0,0,0,0,0,-1,1777,1121,0,0
560,-97,0,0,0,0,0,0,0,0,0,-1,1784,1121,0,0
567,-97,0,0,0,0,0,0,0,0,0,-1,1791,1121,0,0
574,-97,0,0,0,0,0,0,0,0,0,-1,1798,1121,0,0
581,-97,0,0,0,0,0,0,0,0,0,-1,1805,1121,0,0
588,-97,0,0,0,0,0,0,0,0,0,-1,1812,1121,0,0
595,-97,0,0,0,0,0,0,0,0,0,-1,1819,1121,0,0
602,-97,0,0,0,0,0,0,0,0,0,-1,1826,1121,0,0
609,-97,0,0,0,0,0,0,0,0,0,-1,1833,1121,0,0
616,-97,0,0,0,0,0,0,0,0,0,-1,1840,1121,0,0
623,-97,0,0,0,0,0,0,0,0,0,-1,1847,1121,0,0
630,-97,0,0,0,0,0,0,0,0,0,-1,1854,1121,0,0
637,-97,0,0,0,0,0,0,0,0,0,-1,1861,1121,0,0
644,-97,56.1938,2.73462,0.0105125,0.00168401,0.00450447,0.0124051,-0.000208553,0.397756,0.00834045,0.040392,1868,1121,56.1939,-2.73468
651,-97,56.2665,2.82263,0.00719897,0.000163799,0.00388834,0.00892472,-0.00156195,0.417709,0.006533,0.0403172,1875,1121,56.2665,-2.82265
658,-97,56.2673,2.55359,0.00498871,-0.000729905,0.00329544,0.00649238,-0.00223357,0.42807,0.00523412,0.0381191,1882,1121,56.2674,-2.55364
665,-97,56.3099,2.45276,0.00320876,-0.00119593,0.00267052,0.00446791,-0.00245508,0.440591,0.00405291,0.0409207,1889,1121,56.3099,-2.45275
672,-97,56.3373,2.54907,0.00175711,-0.00135626,0.00201798,0.00274905,-0.00234821,0.456867,0.00294594,0.0404182,1896,1121,56.3372,-2.54912
679,-97,56.4242,2.60583,0.00054631,-0.00132054,0.00139819,0.00129402,-0.00206825,0.491075,0.00195829,0.0403564,1903,1121,56.4241,-2.60589
686,-97,56.3337,2.60889,-2.77604e-05,-0.00127355,0.00100218,0.000529333,-0.00183064,0.507346,0.00142991,0.0381342,1910,1121,56.3338,-2.6089
693,-97,56.2987,2.53369,-0.000193253,-0.00119332,0.000727651,0.000189612,-0.00157618,0.484361,0.00111936,0.0366763,1917,1121,56.2987,-2.53373
700,-97,56.2783,2.59863,-0.000351573,-0.00115521,0.000449867,-0.000150201,-0.00135658,0.420878,0.000858708,0.0294932,1924,1121,56.2783,-2.59867
707,-97,56.2272,2.45581,-0.000568167,-0.000998933,0.000517992,-0.000222563,-0.00134454,0.58837,0.000832151,0.0254827,1931,1121,56.2271,-2.45581
714,-97,56.1381,2.15186,0,0,0,0,0,0,0,-1,1938,1121,56.1381,-2.15184
721,-97,52.4799,7.77661,0,0,0,0,0,0,0,-1,1945,1121,52.4799,-7.77666
728,-97,52.4473,7.51086,-0.00104986,0.00023604,0.00080333,0.000622034,-0.00143585,1.12288,0.00121869,0.0279013,1952,1121,52.4473,-7.51083
735,-97,52.4041,7.02405,-0.00109848,0.000628798,0.00110138,0.00116477,-0.00163445,1.1179,0.00162369,0.0289091,1959,1121,52.4041,-7.02403
742,-97,52.3722,6.62463,-0.00118168,0.00104931,0.00138373,0.00171118,-0.00184355,1.12464,0.0020528,0.0231009,1966,1121,52.3722,-6.62464
749,-97,52.4471,6.19775,-0.00148071,0.00212786,0.0017916,0.00286627,-0.00221912,1.17986,0.00294396,0.0236194,1973,1121,52.4471,-6.19774
756,-97,52.4517,5.80688,-0.00135244,0.00356353,0.0019817,0.00426289,-0.0020518,1.23153,0.00371954,0.0179523,1980,1121,52.4516,-5.80683
763,-97,52.3757,5.47388,-0.000287558,0.00643222,0.00205538,0.00701104,-0.000866378,1.29629,0.00498796,0.0131548,1987,1121,52.3757,-5.4739
770,-97,52.3195,5.13611,0.00121466,0.0101144,0.00182092,0.0104726,0.000856508,1.37659,0.00671446,0.0115035,1994,1121,52.3194,-5.13612
777,-97,52.2834,4.76025,0.00363829,0.0146766,0.00125985,0.0148185,0.00349633,1.45858,0.00894434,0.0163167,2001,1121,52.2835,-4.76024
784,-97,52.2468,4.47388,0.00704609,0.0202219,0.000358309,0.0202316,0.00703635,1.54363,0.0118598,0.0370821,2008,1121,52.2468,-4.47388
791,-97,52.1829,4.20691,0.0119174,0.0270597,-0.000981957,0.0271231,0.011854,-1.50631,0.0157009,0.0445628,2015,1121,52.1828,-4.20693
798,-97,52.2493,3.84912,0.0188113,0.0355538,-0.00292089,0.0360488,0.0183164,-1.40294,0.0208137,0.0466391,2022,1121,52.2493,-3.84907
805,-97,52.614,3.52734,0.0278864,0.0459519,-0.0055972,0.0475455,0.0262928,-1.29342,0.0275018,0.0460813,2029,1121,52.6139,-3.5273
812,-97,52.9648,3.35547,0.0396674,0.0587619,-0.00891604,0.0622778,0.0361515,-1.19518,0.0361111,0.0476004,2036,1121,52.9649,-3.35546
-700,-104,0,0,0,0,0,0,0,0,0,-1,524,1128,0,0
-693,-104,-38.1206,-1.92834,0,0,0,0,0,0,0,-1,531,1128,-38.1206,1.9284
-686,-104,-42.3483,0.606323,0,0,0,0,0,0,0,-1,538,1128,-42.3483,-0.606374
-679,-104,-41.7948,1.01648,0,0,0,0,0,0,0,-1,545,1128,-41.7948,-1.01647
-672,-104,-41.4515,1.65833,0,0,0,0,0,0,0,-1,552,1128,-41.4515,-1.65831
-665,-104,-39.8313,0.706787,0,0,0,0,0,0,0,-1,559,1128,-39.8313,-0.706835
-658,-104,-38.195,1.25378,0,0,0,0,0,0,0,-1,566,1128,-38.195,-1.25375
-651,-104,-38.0342,1.54797,0.0281709,0.000984672,0.0188342,0.0378049,-0.00864932,0.472818,0.0285269,0.0416154,573,1128,-38.0342,-1.54801
-644,-104,-37.8895,1.87268,0.0204828,0.00164354,0.0125944,0.0267905,-0.00466414,0.464313,0.0196009,0.0167281,580,1128,-37.8894,-1.87269
-637,-104,-37.8817,2.34167,0.0135939,0.00189015,0.00711343,0.0169532,-0.00146912,0.441197,0.0118223,0.0121761,587,1128,-37.8817,-2.34169
-630,-104,-37.8978,2.75317,0.00789711,0.00177991,0.00286159,0.00902703,0.000649987,0.376066,0.00581348,0.015762,594,1128,-37.8978,-2.75322
-623,-104,-37.9441,3.22595,0.00422935,0.00106923,0.000317428,0.00426092,0.00103766,0.0991284,0.00256565,0.0164407,601,1128,-37.9441,-3.22594
-616,-104,-38.2122,3.75208,0.00226338,0.000564668,-0.000738313,0.00253941,0.000288629,-0.357786,0.00160541,0.0248541,608,1128,-38.2122,-3.75202
-609,-104,-38.4112,4.07666,0.00141894,-0.000373204,-0.000938639,0.00182055,-0.000774818,-0.404298,0.00153845,0.033543,615,1128,-38.4112,-4.07672
-602,-104,-38.1875,4.57642,0.00140565,-0.00101609,-0.000887053,0.0016958,-0.00130625,-0.316128,0.00173809,0.0289518,622,1128,-38.1875,-4.57645
-595,-104,-37.9623,5.12903,0.00116707,-0.00123221,-0.000690725,0.00135171,-0.00141685,-0.261209,0.00159858,0.0206317,629,1128,-37.9623,-5.12903
-588,-104,-37.8516,5.69104,0,0,0,0,0,0,0,-1,636,1128,-37.8515,-5.69108
-581,-104,-23.9373,2.85864,0,0,0,0,0,0,0,-1,643,1128,-23.9373,-2.85861
-574,-104,-42.0495,0.667603,0,0,0,0,0,0,0,-1,650,1128,-42.0495,-0.667622
-567,-104,-42.049,0.799561,0.00270629,-0.00202449,-0.000577046,0.00277566,-0.00209386,-0.11964,0.00282059,0.036197,657,1128,-42.049,-0.799523
-560,-104,-42.0556,0.880005,0.0032934,-0.00199299,-0.000531164,0.00334624,-0.00204583,-0.099157,0.00314314,0.0445474,664,1128,-42.0556,-0.880059
-553,-104,-42.0873,0.488037,0,0,0,0,0,0,0,-1,671,1128,-42.0873,-0.488048
-546,-104,-42.3306,0.614258,0.00370893,-0.00173944,-0.0011495,0.00394152,-0.00197203,-0.199647,0.00347673,0.0446255,678,1128,-42.3306,-0.614312
-539,-104,-42.2558,0.807495,0.00517193,-0.00208592,-0.00193576,0.00565595,-0.00256994,-0.245014,0.00485934,0.0383266,685,1128,-42.2558,-0.807517
-532,-104,-42.1771,0.703979,0.00660784,-0.00279141,-0.00292052,0.00744138,-0.00362495,-0.278016,0.00651457,0.0403396,692,1128,-42.1771,-0.703965
-525,-104,-42.1762,0.598145,0.00763349,-0.00378502,-0.00405046,0.00892436,-0.00507589,-0.308521,0.00818422,0.0392525,699,1128,-42.1762,-0.598203
-518,-104,0,0,0,0,0,0,0,0,0,-1,706,1128,0,0
-511,-104,0,0,0,0,0,0,0,0,0,-1,713,1128,0,0
-504,-104,0,0,0,0,0,0,0,0,0,-1,720,1128,0,0
-497,-104,0,0,0,0,0,0,0,0,0,-1,727,1128,0,0
-490,-104,0,0,0,0,0,0,0,0,0,-1,734,1128,0,0
-483,-104,0,0,0,0,0,0,0,0,0,-1,741,1128,0,0
-476,-104,0,0,0,0,0,0,0,0,0,-1,748,1128,0,0
-469,-104,0,0,0,0,0,0,0,0,0,-1,755,1128,0,0
-462,-104,0,0,0,0,0,0,0,0,0,-1,762,1128,0,0
-455,-104,0,0,0,0,0,0,0,0,0,-1,769,1128,0,0
-448,-104,0,0,0,0,0,0,0,0,0,-1,776,1128,0,0
-441,-104,0,0,0,0,0,0,0,0,0,-1,783,1128,0,0
-434,-104,0,0,0,0,0,0,0,0,0,-1,790,1128,0,0
-427,-104,0,0,0,0,0,0,0,0,0,-1,797,1128,0,0
-420,-104,0,0,0,0,0,0,0,0,0,-1,804,1128,0,0
-413,-104,0,0,0,0,0,0,0,0,0,-1,811,1128,0,0
-406,-104,0,0,0,0,0,0,0,0,0,-1,818,1128,0,0
-399,-104,0,0,0,0,0,0,0,0,0,-1,825,1128,0,0
-392,-104,0,0,0,0,0,0,0,0,0,-1,832,1128,0,0
-385,-104,0,0,0,0,0,0,0,0,0,-1,839,1128,0,0
-378,-104,0,0,0,0,0,0,0,0,0,-1,846,1128,0,0
-371,-104,0,0,0,0,0,0,0,0,0,-1,853,1128,0,0
-364,-104,0,0,0,0,0,0,0,0,0,-1,860,1128,0,0
-357,-104,0,0,0,0,0,0,0,0,0,-1,867,1128,0,0
-350,-104,0,0,0,0,0,0,0,0,0,-1,874,1128,0,0
-343,-104,0,0,0,0,0,0,0,0,0,-1,881,1128,0,0
-336,-104,0,0,0,0,0,0,0,0,0,-1,888,1128,0,0
-329,-104,0,0,0,0,0,0,0,0,0,-1,895,1128,0,0
-322,-104,0,0,0,0,0,0,0,0,0,-1,902,1128,0,0
-315,-104,0,0,0,0,0,0,0,0,0,-1,909,1128,0,0
-308,-104,0,0,0,0,0,0,0,0,0,-1,916,1128,0,0
-301,-104,0,0,0,0,0,0,0,0,0,-1,923,1128,0,0
-294,-104,0,0,0,0,0,0,0,0,0,-1,930,1128,0,0
-287,-104,0,0,0,0,0,0,0,0,0,-1,937,1128,0,0
-280,-104,0,0,0,0,0,0,0,0,0,-1,944,1128,0,0
-273,-104,0,0,0,0,0,0,0,0,0,-1,951,1128,0,0
-266,-104,0,0,0,0,0,0,0,0,0,-1,958,1128,0,0
-259,-104,0,0,0,0,0,0,0,0,0,-1,965,1128,0,0
-252,-104,0,0,0,0,0,0,0,0,0,-1,972,1128,0,0
-245,-104,0,0,0,0,0,0,0,0,0,-1,979,1128,0,0
-238,-104,0,0,0,0,0,0,0,0,0,-1,986,1128,0,0
-231,-104,0,0,0,0,0,0,0,0,0,-1,993,1128,0,0
-224,-104,0,0,0,0,0,0,0,0,0,-1,1000,1128,0,0
-217,-104,0,0,0,0,0,0,0,0,0,-1,1007,1128,0,0
-210,-104,0,0,0,0,0,0,0,0,0,-1,1014,1128,0,0
-203,-104,0,0,0,0,0,0,0,0,0,-1,1021,1128,0,0
-196,-104,0,0,0,0,0,0,0,0,0,-1,1028,1128,0,0
-189,-104,0,0,0,0,0,0,0,0,0,-1,1035,1128,0,0
-182,-104,0,0,0,0,0,0,0,0,0,-1,1042,1128,0,0
-175,-104,0,0,0,0,0,0,0,0,0,-1,1049,1128,0,0
-168,-104,0,0,0,0,0,0,0,0,0,-1,1056,1128,0,0
-161,-104,0,0,0,0,0,0,0,0,0,-1,1063,1128,0,0
-154,-104,0,0,0,0,0,0,0,0,0,-1,1070,1128,0,0
-147,-104,0,0,0,0,0,0,0,0,0,-1,1077,1128,0,0
-140,-104,0,0,0,0,0,0,0,0,0,-1,1084,1128,0,0
-133,-104,0,0,0,0,0,0,0,0,0,-1,1091,1128,0,0
-126,-104,0,0,0,0,0,0,0,0,0,-1,1098,1128,0,0
-119,-104,0,0,0,0,0,0,0,0,0,-1,1105,1128,0,0
-112,-104,0,0,0,0,0,0,0,0,0,-1,1112,1128,0,0
-105,-104,0,0,0,0,0,0,0,0,0,-1,1119,1128,0,0
-98,-104,0,0,0,0,0,0,0,0,0,-1,1126,1128,0,0
-91,-104,0,0,0,0,0,0,0,0,0,-1,1133,1128,0,0
-84,-104,0,0,0,0,0,0,0,0,0,-1,1140,1128,0,0
-77,-104,0,0,0,0,0,0,0,0,0,-1,1147,1128,0,0
-70,-104,0,0,0,0,0,0,0,0,0,-1,1154,1128,0,0
-63,-104,0,0,0,0,0,0,0,0,0,-1,1161,1128,0,0
-56,-104,0,0,0,0,0,0,0,0,0,-1,1168,1128,0,0
-49,-104,0,0,0,0,0,0,0,0,0,-1,1175,1128,0,0
-42,-104,0,0,0,0,0,0,0,0,0,-1,1182,1128,0,0
-35,-104,0,0,0,0,0,0,0,0,0,-1,1189,1128,0,0
-28,-104,0,0,0,0,0,0,0,0,0,-1,1196,1128,0,0
-21,-104,0,0,0,0,0,0,0,0,0,-1,1203,1128,0,0
-14,-104,0,0,0,0,0,0,0,0,0,-1,1210,1128,0,0
-7,-104,0,0,0,0,0,0,0,0,0,-1,1217,1128,0,0
0,-104,0,0,0,0,0,0,0,0,0,-1,1224,1128,0,0
7,-104,0,0,0,0,0,0,0,0,0,-1,1231,1128,0,0
14,-104,0,0,0,0,0,0,0,0,0,-1,1238,1128,0,0
21,-104,0,0,0,0,0,0,0,0,0,-1,1245,1128,0,0
28,-104,0,0,0,0,0,0,0,0,0,-1,1252,1128,0,0
35,-104,0,0,0,0,0,0,0,0,0,-1,1259,1128,0,0
42,-104,0,0,0,0,0,0,0,0,0,-1,1266,1128,0,0
49,-104,0,0,0,0,0,0,0,0,0,-1,1273,1128,0,0
56,-104,0,0,0,0,0,0,0,0,0,-1,1280,1128,0,0
63,-104,0,0,0,0,0,0,0,0,0,-1,1287,1128,0,0
70,-104,0,0,0,0,0,0,0,0,0,-1,1294,1128,0,0
77,-104,0,0,0,0,0,0,0,0,0,-1,1301,1128,0,0
84,-104,0,0,0,0,0,0,0,0,0,-1,1308,1128,0,0
91,-104,0,0,0,0,0,0,0,0,0,-1,1315,1128,0,0
98,-104,0,0,0,0,0,0,0,0,0,-1,1322,1128,0,0
105,-104,0,0,0,0,0,0,0,0,0,-1,1329,1128,0,0
112,-104,0,0,0,0,0,0,0,0,0,-1,1336,1128,0,0
119,-104,0,0,0,0,0,0,0,0,0,-1,1343,1128,0,0
126,-104,0,0,0,0,0,0,0,0,0,-1,1350,1128,0,0
133,-104,0,0,0,0,0,0,0,0,0,-1,1357,1128,0,0
140,-104,0,0,0,0,0,0,0,0,0,-1,1364,1128,0,0
147,-104,0,0,0,0,0,0,0,0,0,-1,1371,1128,0,0
154,-104,0,0,0,0,0,0,0,0,0,-1,1378,1128,0,0
161,-104,0,0,0,0,0,0,0,0,0,-1,1385,1128,0,0
168,-104,0,0,0,0,0,0,0,0,0,-1,1392,1128,0,0
175,-104,0,0,0,0,0,0,0,0,0,-1,1399,1128,0,0
182,-104,0,0,0,0,0,0,0,0,0,-1,1406,1128,0,0
189,-104,0,0,0,0,0,0,0,0,0,-1,1413,1128,0,0
196,-104,0,0,0,0,0,0,0,0,0,-1,1420,1128,0,0
203,-104,0,0,0,0,0,0,0,0,0,-1,1427,1128,0,0
210,-104,0,0,0,0,0,0,0,0,0,-1,1434,1128,0,0
217,-104,0,0,0,0,0,0,0,0,0,-1,1441,1128,0,0
224,-104,0,0,0,0,0,0,0,0,0,-1,1448,1128,0,0
231,-104,0,0,0,0,0,0,0,0,0,-1,1455,1128,0,0
238,-104,0,0,0,0,0,0,0,0,0,-1,1462,1128,0,0
245,-104,0,0,0,0,0,0,0,0,0,-1,1469,1128,0,0
252,-104,0,0,0,0,0,0,0,0,0,-1,1476,1128,0,0
259,-104,0,0,0,0,0,0,0,0,0,-1,1483,1128,0,0
266,-104,0,0,0,0,0,0,0,0,0,-1,1490,1128,0,0
273,-104,0,0,0,0,0,0,0,0,0,-1,1497,1128,0,0
280,-104,0,0,0,0,0,0,0,0,0,-1,1504,1128,0,0
287,-104,0,0,0,0,0,0,0,0,0,-1,1511,1128,0,0
294,-104,0,0,0,0,0,0,0,0,0,-1,1518,1128,0,0
301,-104,0,0,0,0,0,0,0,0,0,-1,1525,1128,0,0
308,-104,0,0,0,0,0,0,0,0,0,-1,1532,1128,0,0
315,-104,0,0,0,0,0,0,0,0,0,-1,1539,1128,0,0
322,-104,0,0,0,0,0,0,0,0,0,-1,1546,1128,0,0
329,-104,0,0,0,0,0,0,0,0,0,-1,1553,1128,0,0
336,-104,0,0,0,0,0,0,0,0,0,-1,1560,1128,0,0
343,-104,0,0,0,0,0,0,0,0,0,-1,1567,1128,0,0
350,-104,0,0,0,0,0,0,0,0,0,-1,1574,1128,0,0
357,-104,0,0,0,0,0,0,0,0,0,-1,1581,1128,0,0
364,-104,0,0,0,0,0,0,0,0,0,-1,1588,1128,0,0
371,-104,0,0,0,0,0,0,0,0,0,-1,1595,1128,0,0
378,-104,0,0,0,0,0,0,0,0,0,-1,1602,1128,0,0
385,-104,0,0,0,0,0,0,0,0,0,-1,1609,1128,0,0
392,-104,0,0,0,0,0,0,0,0,0,-1,1616,1128,0,0
399,-104,0,0,0,0,0,0,0,0,0,-1,1623,1128,0,0
406,-104,0,0,0,0,0,0,0,0,0,-1,1630,1128,0,0
413,-104,0,0,0,0,0,0,0,0,0,-1,1637,1128,0,0
420,-104,0,0,0,0,0,0,0,0,0,-1,1644,1128,0,0
427,-104,0,0,0,0,0,0,0,0,0,-1,1651,1128,0,0
434,-104,0,0,0,0,0,0,0,0,0,-1,1658,1128,0,0
441,-104,0,0,0,0,0,0,0,0,0,-1,1665,1128,0,0
448,-104,0,0,0,0,0,0,0,0,0,-1,1672,1128,0,0
455,-104,0,0,0,0,0,0,0,0,0,-1,1679,1128,0,0
462,-104,0,0,0,0,0,0,0,0,0,-1,1686,1128,0,0
469,-104,0,0,0,0,0,0,0,0,0,-1,1693,1128,0,0
476,-104,0,0,0,0,0,0,0,0,0,-1,1700,1128,0,0
483,-104,0,0,0,0,0,0,0,0,0,-1,1707,1128,0,0
490,-104,0,0,0,0,0,0,0,0,0,-1,1714,1128,0,0
497,-104,0,0,0,0,0,0,0,0,0,-1,1721,1128,0,0
504,-104,0,0,0,0,0,0,0,0,0,-1,1728,1128,0,0
511,-104,0,0,0,0,0,0,0,0,0,-1,1735,1128,0,0
518,-104,0,0,0,0,0,0,0,0,0,-1,1742,1128,0,0
525,-104,0,0,0,0,0,0,0,0,0,-1,1749,1128,0,0
532,-104,0,0,0,0,0,0,0,0,0,-1,1756,1128,0,0
539,-104,0,0,0,0,0,0,0,0,0,-1,1763,1128,0,0
546,-104,0,0,0,0,0,0,0,0,0,-1,1770,1128,0,0
553,-104,0,0,0,0,0,0,0,0,0,-1,1777,1128,0,0
560,-104,0,0,0,0,0,0,0,0,0,-1,1784,1128,0,0
567,-104,0,0,0,0,0,0,0,0,0,-1,1791,1128,0,0
574,-104,0,0,0,0,0,0,0,0,0,-1,1798,1128,0,0
581,-104,0,0,0,0,0,0,0,0,0,-1,1805,1128,0,0
588,-104,0,0,0,0,0,0,0,0,0,-1,1812,1128,0,0
595,-104,0,0,0,0,0,0,0,0,0,-1,1819,1128,0,0
602,-104,0,0,0,0,0,0,0,0,0,-1,1826,1128,0,0
609,-104,0,0,0,0,0,0,0,0,0,-1,1833,1128,0,0
616,-104,0,0,0,0,0,0,0,0,0,-1,1840,1128,0,0
623,-104,0,0,0,0,0,0,0,0,0,-1,1847,1128,0,0
630,-104,0,0,0,0,0,0,0,0,0,-1,1854,1128,0,0
637,-104,0,0,0,0,0,0,0,0,0,-1,1861,1128,0,0
644,-104,56.0363,2.90442,0,0,0,0,0,0,0,-1,1868,1128,56.0363,-2.90446
651,-104,55.8696,3.25781,0,0,0,0,0,0,0,-1,1875,1128,55.8697,-3.25784
658,-104,56.3075,2.62219,0.00480168,-0.000397325,0.00408838,0.007047,-0.00264264,0.502224,0.00578375,0.0406755,1882,1128,56.3075,-2.62225
665,-104,56.432,2.53699,0.0030421,-0.000771924,0.00317644,0.00484001,-0.00256984,0.515056,0.00434449,0.0416377,1889,1128,56.432,-2.53703
672,-104,56.4492,2.67725,0.00161614,-0.000897288,0.00228519,0.00296738,-0.00224853,0.534001,0.00302092,0.0404333,1896,1128,56.4492,-2.67731
679,-104,56.3625,2.60156,0.000445145,-0.000907457,0.00153562,0.00144679,-0.0019091,0.577973,0.00194364,0.0389705,1903,1128,56.3625,-2.60153
686,-104,56.2345,2.58362,-8.04481e-05,-0.000903667,0.00106943,0.000653852,-0.00163797,0.601693,0.00136324,0.0399629,1910,1128,56.2345,-2.58368
693,-104,56.2665,2.62439,-0.000223648,-0.000869035,0.000772868,0.000291189,-0.00138387,0.587636,0.00103341,0.0366653,1917,1128,56.2665,-2.62434
700,-104,56.3126,2.64929,-0.000406028,-0.000897685,0.000482697,-0.000110166,-0.00119355,0.549876,0.000761636,0.0277514,1924,1128,56.3126,-2.64929
707,-104,56.2377,2.48376,0,0,0,0,0,0,0,-1,1931,1128,56.2377,-2.48375
714,-104,45.5221,2.32166,0,0,0,0,0,0,0,-1,1938,1128,45.5221,-2.3216
721,-104,51.965,7.93762,0,0,0,0,0,0,0,-1,1945,1128,51.965,-7.93762
728,-104,52.1028,7.41919,0,0,0,0,0,0,0,-1,1952,1128,52.1028,-7.41923
735,-104,52.2189,6.84546,0,0,0,0,0,0,0,-1,1959,1128,52.2189,-6.84548
742,-104,52.0187,6.6217,-0.00104102,0.000846325,0.00151894,0.00169087,-0.00188556,1.06335,0.00206587,0.021173,1966,1128,52.0187,-6.62166
749,-104,51.9545,6.23999,-0.00130954,0.00175405,0.00200909,0.00274868,-0.00230417,1.1111,0.00292102,0.0212308,1973,1128,51.9545,-6.24001
756,-104,51.9802,5.82727,-0.00115521,0.00308442,0.00226779,0.00406887,-0.00213966,1.16124,0.00364173,0.0181602,1980,1128,51.9802,-5.82728
763,-104,51.9441,5.45178,-1.77119e-05,0.00586445,0.00245754,0.00675605,-0.000909312,1.22276,0.00483572,0.0170734,1987,1128,51.9441,-5.45173
770,-104,51.892,5.11694,0.00153958,0.00936747,0.00238265,0.0100357,0.000871382,1.29738,0.00641972,0.0148415,1994,1128,51.8919,-5.11689
777,-104,51.7903,4.69592,0.00395146,0.0137303,0.00201396,0.0141289,0.00355292,1.37544,0.00848658,0.0223889,2001,1128,51.7904,-4.69597
784,-104,51.8081,4.4845,0.0073094,0.0191642,0.00129722,0.0193045,0.00716912,1.46307,0.0112677,0.0401843,2008,1128,51.808,-4.48445
791,-104,51.8247,4.15356,0.0121157,0.0259957,0.000141287,0.0259971,0.0121143,1.56062,0.015021,0.0476654,2015,1128,51.8247,-4.15362
798,-104,51.6919,3.2677,0.0188672,0.0346411,-0.00163547,0.0348089,0.0186994,-1.46856,0.0201154,0.0495581,2022,1128,51.692,-3.26768
805,-104,52.2805,2.79492,0.0276901,0.0453787,-0.00417892,0.0463163,0.0267525,-1.35009,0.0268479,0.0485781,2029,1128,52.2805,-2.79495
812,-104,52.6052,2.52856,0.0390919,0.0588183,-0.00742198,0.0612988,0.0366114,-1.24825,0.0356134,0.0479828,2036,1128,52.6052,-2.52855
-700,-111,0,0,0,0,0,0,0,0,0,-1,524,1135,0,0
-693,-111,-43.4399,1.02881,0,0,0,0,0,0,0,-1,531,1135,-43.44,-1.02886
-686,-111,-42.9202,1.67993,0,0,0,0,0,0,0,-1,538,1135,-42.9202,-1.67989
-679,-111,-42.6419,1.61719,0,0,0,0,0,0,0,-1,545,1135,-42.6419,-1.61722
-672,-111,-42.1897,2.19763,0.0620912,-0.00512235,0.05251,0.0908279,-0.0338591,0.500739,0.0744506,0.0458715,552,1135,-42.1897,-2.19767
-665,-111,-41.7387,2.79272,0.0503404,-0.00236961,0.0396191,0.0715697,-0.0235988,0.491902,0.057225,0.0455073,559,1135,-41.7387,-2.79275
-658,-111,-38.465,0.937622,0,0,0,0,0,0,0,-1,566,1135,-38.465,-0.937603
-651,-111,-37.82,1.30896,0.0296814,0.00103892,0.020147,0.0400786,-0.00935829,0.476418,0.0303237,0.0441814,573,1135,-37.82,-1.30893
-644,-111,-37.3289,1.8667,0.0215842,0.0017522,0.0133432,0.0282926,-0.00495616,0.465847,0.0207124,0.0274477,580,1135,-37.3289,-1.8667
-637,-111,-37.397,2.34387,0.0143892,0.00200969,0.00753411,0.0179502,-0.00155123,0.441521,0.0125159,0.0115634,587,1135,-37.3969,-2.34389
-630,-111,-37.414,2.75378,0.00833633,0.00195389,0.00300685,0.00952975,0.000760476,0.37783,0.00611545,0.0213995,594,1135,-37.414,-2.75381
-623,-111,-37.4441,3.23682,0.00426391,0.00125955,0.000278031,0.00428942,0.00123403,0.0915069,0.00254983,0.0172265,601,1135,-37.4441,-3.23684
-616,-111,-37.7158,3.69446,0.00205232,0.000631774,-0.00079461,0.00240783,0.000276264,-0.420691,0.00152152,0.0208049,608,1135,-37.7158,-3.69441
-609,-111,-37.9877,4.08008,0.00114805,-0.000249717,-0.000959397,0.00163613,-0.000737797,-0.470612,0.00140292,0.0340003,615,1135,-37.9877,-4.08002
-602,-111,-37.8589,4.58691,0.00107019,-0.000801521,-0.000951133,0.00146868,-0.00120001,-0.396747,0.00154337,0.040155,622,1135,-37.8589,-4.58693
-595,-111,-37.5491,5.15063,0.000805995,-0.000999772,-0.000741196,0.00107126,-0.00126504,-0.343684,0.00135041,0.0188385,629,1135,-37.5491,-5.15064
-588,-111,-37.2491,5.81372,0,0,0,0,0,0,0,-1,636,1135,-37.2491,-5.81373
-581,-111,-21.0555,3.14551,0,0,0,0,0,0,0,-1,643,1135,-21.0555,-3.14548
-574,-111,-41.9531,0.450928,0,0,0,0,0,0,0,-1,650,1135,-41.9531,-0.450984
-567,-111,-42.0254,0.623535,0.00246476,-0.00178386,-0.000645548,0.00256068,-0.00187978,-0.147509,0.00257372,0.0375497,657,1135,-42.0254,-0.623484
-560,-111,-42.1089,0.777954,0.0031591,-0.0018125,-0.00057093,0.00322382,-0.00187722,-0.112881,0.0029791,0.0416267,664,1135,-42.1089,-0.777983
-553,-111,-42.2009,0.594482,0.00330657,-0.00178429,-0.00076413,0.00341879,-0.00189651,-0.145819,0.00311046,0.0464875,671,1135,-42.2009,-0.594427
-546,-111,-42.2238,0.852051,0.00359898,-0.00174573,-0.00116852,0.00384328,-0.00199004,-0.206106,0.00342406,0.0412469,678,1135,-42.2238,-0.852034
-539,-111,-42.1939,0.850586,0.00484738,-0.00223528,-0.0019061,0.00532778,-0.00271568,-0.246887,0.00472481,0.0385254,685,1135,-42.1939,-0.850526
-532,-111,-42.2311,0.788574,0.00619028,-0.00312426,-0.00279443,0.00696431,-0.00389829,-0.270215,0.00635425,0.0395146,692,1135,-42.2311,-0.788538
-525,-111,-42.2117,0.705444,0.0071552,-0.00427346,-0.00375897,0.00828071,-0.00539897,-0.290925,0.00795617,0.0390541,699,1135,-42.2117,-0.705432
-518,-111,0,0,0,0,0,0,0,0,0,-1,706,1135,0,0
-511,-111,0,0,0,0,0,0,0,0,0,-1,713,1135,0,0
-504,-111,0,0,0,0,0,0,0,0,0,-1,720,1135,0,0
-497,-111,0,0,0,0,0,0,0,0,0,-1,727,1135,0,0
-490,-111,0,0,0,0,0,0,0,0,0,-1,734,1135,0,0
-483,-111,0,0,0,0,0,0,0,0,0,-1,741,1135,0,0
-476,-111,0,0,0,0,0,0,0,0,0,-1,748,1135,0,0
-469,-111,0,0,0,0,0,0,0,0,0,-1,755,1135,0,0
-462,-111,0,0,0,0,0,0,0,0,0,-1,762,1135,0,0
-455,-111,0,0,0,0,0,0,0,0,0,-1,769,1135,0,0
-448,-111,0,0,0,0,0,0,0,0,0,-1,776,1135,0,0
-441,-111,0,0,0,0,0,0,0,0,0,-1,783,1135,0,0
-434,-111,0,0,0,0,0,0,0,0,0,-1,790,1135,0,0
-427,-111,0,0,0,0,0,0,0,0,0,-1,797,1135,0,0
-420,-111,0,0,0,0,0,0,0,0,0,-1,804,1135,0,0
-413,-111,0,0,0,0,0,0,0,0,0,-1,811,1135,0,0
-406,-111,0,0,0,0,0,0,0,0,0,-1,818,1135,0,0
-399,-111,0,0,0,0,0,0,0,0,0,-1,825,1135,0,0
-392,-111,0,0,0,0,0,0,0,0,0,-1,832,1135,0,0
-385,-111,0,0,0,0,0,0,0,0,0,-1,839,1135,0,0
-378,-111,0,0,0,0,0,0,0,0,0,-1,846,1135,0,0
-371,-111,0,0,0,0,0,0,0,0,0,-1,853,1135,0,0
-364,-111,0,0,0,0,0,0,0,0,0,-1,860,1135,0,0
-357,-111,0,0,0,0,0,0,0,0,0,-1,867,1135,0,0
-350,-111,0,0,0,0,0,0,0,0,0,-1,874,1135,0,0
-343,-111,0,0,0,0,0,0,0,0,0,-1,881,1135,0,0
-336,-111,0,0,0,0,0,0,0,0,0,-1,888,1135,0,0
-329,-111,0,0,0,0,0,0,0,0,0,-1,895,1135,0,0
-322,-111,0,0,0,0,0,0,0,0,0,-1,902,1135,0,0
-315,-111,0,0,0,0,0,0,0,0,0,-1,909,1135,0,0
-308,-111,0,0,0,0,0,0,0,0,0,-1,916,1135,0,0
-301,-111,0,0,0,0,0,0,0,0,0,-1,923,1135,0,0
-294,-111,0,0,0,0,0,0,0,0,0,-1,930,1135,0,0
-287,-111,0,0,0,0,0,0,0,0,0,-1,937,1135,0,0
-280,-111,0,0,0,0,0,0,0,0,0,-1,944,1135,0,0
-273,-111,0,0,0,0,0,0,0,0,0,-1,951,1135,0,0
-266,-111,0,0,0,0,0,0,0,0,0,-1,958,1135,0,0
-259,-111,0,0,0,0,0,0,0,0,0,-1,965,1135,0,0
-252,-111,0,0,0,0,0,0,0,0,0,-1,972,1135,0,0
-245,-111,0,0,0,0,0,0,0,0,0,-1,979,1135,0,0
-238,-111,0,0,0,0,0,0,0,0,0,-1,986,1135,0,0
-231,-111,0,0,0,0,0,0,0,0,0,-1,993,1135,0,0
-224,-111,0,0,0,0,0,0,0,0,0,-1,1000,1135,0,0
-217,-111,0,0,0,0,0,0,0,0,0,-1,1007,1135,0,0
-210,-111,0,0,0,0,0,0,0,0,0,-1,1014,1135,0,0
-203,-111,0,0,0,0,0,0,0,0,0,-1,1021,1135,0,0
-196,-111,0,0,0,0,0,0,0,0,0,-1,1028,1135,0,0
-189,-111,0,0,0,0,0,0,0,0,0,-1,1035,1135,0,0
-182,-111,0,0,0,0,0,0,0,0,0,-1,1042,1135,0,0
-175,-111,0,0,0,0,0,0,0,0,0,-1,1049,1135,0,0
-168,-111,0,0,0,0,0,0,0,0,0,-1,1056,1135,0,0
-161,-111,0,0,0,0,0,0,0,0,0,-1,1063,1135,0,0
-154,-111,0,0,0,0,0,0,0,0,0,-1,1070,1135,0,0
-147,-111,0,0,0,0,0,0,0,0,0,-1,1077,1135,0,0
-140,-111,0,0,0,0,0,0,0,0,0,-1,1084,1135,0,0
-133,-111,0,0,0,0,0,0,0,0,0,-1,1091,1135,0,0
-126,-111,0,0,0,0,0,0,0,0,0,-1,1098,1135,0,0
-119,-111,0,0,0,0,0,0,0,0,0,-1,1105,1135,0,0
-112,-111,0,0,0,0,0,0,0,0,0,-1,1112,1135,0,0
-105,-111,0,0,0,0,0,0,0,0,0,-1,1119,1135,0,0
-98,-111,0,0,0,0,0,0,0,0,0,-1,1126,1135,0,0
-91,-111,0,0,0,0,0,0,0,0,0,-1,1133,1135,0,0
-84,-111,0,0,0,0,0,0,0,0,0,-1,1140,1135,0,0
-77,-111,0,0,0,0,0,0,0,0,0,-1,1147,1135,0,0
-70,-111,0,0,0,0,0,0,0,0,0,-1,1154,1135,0,0
-63,-111,0,0,0,0,0,0,0,0,0,-1,1161,1135,0,0
-56,-111,0,0,0,0,0,0,0,0,0,-1,1168,1135,0,0
-49,-111,0,0,0,0,0,0,0,0,0,-1,1175,1135,0,0
-42,-111,0,0,0,0,0,0,0,0,0,-1,1182,1135,0,0
-35,-111,0,0,0,0,0,0,0,0,0,-1,1189,1135,0,0
-28,-111,0,0,0,0,0,0,0,0,0,-1,1196,1135,0,0
-21,-111,0,0,0,0,0,0,0,0,0,-1,1203,1135,0,0
-14,-111,0,0,0,0,0,0,0,0,0,-1,1210,1135,0,0
-7,-111,0,0,0,0,0,0,0,0,0,-1,1217,1135,0,0
0,-111,0,0,0,0,0,0,0,0,0,-1,1224,1135,0,0
7,-111,0,0,0,0,0,0,0,0,0,-1,1231,1135,0,0
14,-111,0,0,0,0,0,0,0,0,0,-1,1238,1135,0,0
21,-111,0,0,0,0,0,0,0,0,0,-1,1245,1135,0,0
28,-111,0,0,0,0,0,0,0,0,0,-1,1252,1135,0,0
35,-111,0,0,0,0,0,0,0,0,0,-1,1259,1135,0,0
42,-111,0,0,0,0,0,0,0,0,0,-1,1266,1135,0,0
49,-111,0,0,0,0,0,0,0,0,0,-1,1273,1135,0,0
56,-111,0,0,0,0,0,0,0,0,0,-1,1280,1135,0,0
63,-111,0,0,0,0,0,0,0,0,0,-1,1287,1135,0,0
70,-111,0,0,0,0,0,0,0,0,0,-1,1294,1135,0,0
77,-111,0,0,0,0,0,0,0,0,0,-1,1301,1135,0,0
84,-111,0,0,0,0,0,0,0,0,0,-1,1308,1135,0,0
91,-111,0,0,0,0,0,0,0,0,0,-1,1315,1135,0,0
98,-111,0,0,0,0,0,0,0,0,0,-1,1322,1135,0,0
105,-111,0,0,0,0,0,0,0,0,0,-1,1329,1135,0,0
112,-111,0,0,0,0,0,0,0,0,0,-1,1336,1135,0,0
119,-111,0,0,0,0,0,0,0,0,0,-1,1343,1135,0,0
126,-111,0,0,0,0,0,0,0,0,0,-1,1350,1135,0,0
133,-111,0,0,0,0,0,0,0,0,0,-1,1357,1135,0,0
140,-111,0,0,0,0,0,0,0,0,0,-1,1364,1135,0,0
147,-111,0,0,0,0,0,0,0,0,0,-1,1371,1135,0,0
154,-111,0,0,0,0,0,0,0,0,0,-1,1378,1135,0,0
161,-111,0,0,0,0,0,0,0,0,0,-1,1385,1135,0,0
168,-111,0,0,0,0,0,0,0,0,0,-1,1392,1135,0,0
175,-111,0,0,0,0,0,0,0,0,0,-1,1399,1135,0,0
182,-111,0,0,0,0,0,0,0,0,0,-1,1406,1135,0,0
189,-111,0,0,0,0,0,0,0,0,0,-1,1413,1135,0,0
196,-111,0,0,0,0,0,0,0,0,0,-1,1420,1135,0,0
203,-111,0,0,0,0,0,0,0,0,0,-1,1427,1135,0,0
210,-111,0,0,0,0,0,0,0,0,0,-1,1434,1135,0,0
217,-111,0,0,0,0,0,0,0,0,0,-1,1441,1135,0,0
224,-111,0,0,0,0,0,0,0,0,0,-1,1448,1135,0,0
231,-111,0,0,0,0,0,0,0,0,0,-1,1455,1135,0,0
238,-111,0,0,0,0,0,0,0,0,0,-1,1462,1135,0,0
245,-111,0,0,0,0,0,0,0,0,0,-1,1469,1135,0,0
252,-111,0,0,0,0,0,0,0,0,0,-1,1476,1135,0,0
259,-111,0,0,0,0,0,0,0,0,0,-1,1483,1135,0,0
266,-111,0,0,0,0,0,0,0,0,0,-1,1490,1135,0,0
273,-111,0,0,0,0,0,0,0,0,0,-1,1497,1135,0,0
280,-111,0,0,0,0,0,0,0,0,0,-1,1504,1135,0,0
287,-111,0,0,0,0,0,0,0,0,0,-1,1511,1135,0,0
294,-111,0,0,0,0,0,0,0,0,0,-1,1518,1135,0,0
301,-111,0,0,0,0,0,0,0,0,0,-1,1525,1135,0,0
308,-111,0,0,0,0,0,0,0,0,0,-1,1532,1135,0,0
315,-111,0,0,0,0,0,0,0,0,0,-1,1539,1135,0,0
322,-111,0,0,0,0,0,0,0,0,0,-1,1546,1135,0,0
329,-111,0,0,0,0,0,0,0,0,0,-1,1553,1135,0,0
336,-111,0,0,0,0,0,0,0,0,0,-1,1560,1135,0,0
343,-111,0,0,0,0,0,0,0,0,0,-1,1567,1135,0,0
350,-111,0,0,0,0,0,0,0,0,0,-1,1574,1135,0,0
357,-111,0,0,0,0,0,0,0,0,0,-1,1581,1135,0,0
364,-111,0,0,0,0,0,0,0,0,0,-1,1588,1135,0,0
371,-111,0,0,0,0,0,0,0,0,0,-1,1595,1135,0,0
378,-111,0,0,0,0,0,0,0,0,0,-1,1602,1135,0,0
385,-111,0,0,0,0,0,0,0,0,0,-1,1609,1135,0,0
392,-111,0,0,0,0,0,0,0,0,0,-1,1616,1135,0,0
399,-111,0,0,0,0,0,0,0,0,0,-1,1623,1135,0,0
406,-111,0,0,0,0,0,0,0,0,0,-1,1630,1135,0,0
413,-111,0,0,0,0,0,0,0,0,0,-1,1637,1135,0,0
420,-111,0,0,0,0,0,0,0,0,0,-1,1644,1135,0,0
427,-111,0,0,0,0,0,0,0,0,0,-1,1651,1135,0,0
434,-111,0,0,0,0,0,0,0,0,0,-1,1658,1135,0,0
441,-111,0,0,0,0,0,0,0,0,0,-1,1665,1135,0,0
448,-111,0,0,0,0,0,0,0,0,0,-1,1672,1135,0,0
455,-111,0,0,0,0,0,0,0,0,0,-1,1679,1135,0,0
462,-111,0,0,0,0,0,0,0,0,0,-1,1686,1135,0,0
469,-111,0,0,0,0,0,0,0,0,0,-1,1693,1135,0,0
476,-111,0,0,0,0,0,0,0,0,0,-1,1700,1135,0,0
483,-111,0,0,0,0,0,0,0,0,0,-1,1707,1135,0,0
490,-111,0,0,0,0,0,0,0,0,0,-1,1714,1135,0,0
497,-111,0,0,0,0,0,0,0,0,0,-1,1721,1135,0,0
504,-111,0,0,0,0,0,0,0,0,0,-1,1728,1135,0,0
511,-111,0,0,0,0,0,0,0,0,0,-1,1735,1135,0,0
518,-111,0,0,0,0,0,0,0,0,0,-1,1742,1135,0,0
525,-111,0,0,0,0,0,0,0,0,0,-1,1749,1135,0,0
532,-111,0,0,0,0,0,0,0,0,0,-1,1756,1135,0,0
539,-111,0,0,0,0,0,0,0,0,0,-1,1763,1135,0,0
546,-111,0,0,0,0,0,0,0,0,0,-1,1770,1135,0,0
553,-111,0,0,0,0,0,0,0,0,0,-1,1777,1135,0,0
560,-111,0,0,0,0,0,0,0,0,0,-1,1784,1135,0,0
567,-111,0,0,0,0,0,0,0,0,0,-1,1791,1135,0,0
574,-111,0,0,0,0,0,0,0,0,0,-1,1798,1135,0,0
581,-111,0,0,0,0,0,0,0,0,0,-1,1805,1135,0,0
588,-111,0,0,0,0,0,0,0,0,0,-1,1812,1135,0,0
595,-111,0,0,0,0,0,0,0,0,0,-1,1819,1135,0,0
602,-111,0,0,0,0,0,0,0,0,0,-1,1826,1135,0,0
609,-111,0,0,0,0,0,0,0,0,0,-1,1833,1135,0,0
616,-111,0,0,0,0,0,0,0,0,0,-1,1840,1135,0,0
623,-111,0,0,0,0,0,0,0,0,0,-1,1847,1135,0,0
630,-111,0,0,0,0,0,0,0,0,0,-1,1854,1135,0,0
637,-111,0,0,0,0,0,0,0,0,0,-1,1861,1135,0,0
644,-111,55.8973,2.55408,0.00992752,0.00177314,0.0074788,0.0143683,-0.00266764,0.535836,0.0105808,0.0402918,1868,1135,55.8973,-2.5541
651,-111,56.0265,2.82837,0.00672961,0.000669142,0.00611786,0.0105266,-0.00312781,0.555454,0.00826013,0.0397114,1875,1135,56.0265,-2.82837
658,-111,56.3822,2.55273,0.00458966,1.23669e-05,0.00490529,0.00771394,-0.00311192,0.567126,0.00643581,0.0411557,1882,1135,56.3822,-2.55273
665,-111,56.4246,2.52393,0.00287853,-0.0003617,0.00372809,0.00532332,-0.00280649,0.580424,0.00476813,0.0409885,1889,1135,56.4246,-2.52398
672,-111,56.3861,2.58289,0.00149439,-0.000505748,0.00261389,0.00329299,-0.00230435,0.602691,0.00324838,0.0401506,1896,1135,56.3862,-2.58284
679,-111,56.2507,2.41443,0.000367604,-0.000581742,0.00175325,0.0017093,-0.00192344,0.653198,0.00209858,0.0372232,1903,1135,56.2508,-2.41443
686,-111,56.1532,2.52087,-0.000137626,-0.000660977,0.00123341,0.000861563,-0.00166017,0.68087,0.00148006,0.0370771,1910,1135,56.1532,-2.52086
693,-111,56.1718,2.69189,-0.000308146,-0.000676045,0.000920499,0.000446603,-0.00143079,0.686779,0.00113248,0.0357184,1917,1135,56.1717,-2.69192
700,-111,56.2925,2.63306,-0.000539955,-0.000757643,0.000622918,-1.64429e-05,-0.00128116,0.698905,0.000848675,0.0263348,1924,1135,56.2925,-2.63304
707,-111,56.2316,2.45374,0,0,0,0,0,0,0,-1,1931,1135,56.2315,-2.45374
714,-111,45.1654,7.39746,0,0,0,0,0,0,0,-1,1938,1135,45.1654,-7.39745
721,-111,51.5494,8.03833,0,0,0,0,0,0,0,-1,1945,1135,51.5495,-8.03827
728,-111,51.6478,7.49255,-0.00106103,4.32925e-05,0.000973911,0.000610677,-0.00162842,1.04328,0.00133651,0.0244866,1952,1135,51.6478,-7.49254
735,-111,51.6786,7.08081,-0.00102112,0.000337617,0.00136512,0.00118308,-0.00186658,1.01629,0.0017754,0.0260538,1959,1135,51.6786,-7.08075
742,-111,51.5898,6.69385,-0.00109587,0.000578428,0.00171173,0.00164675,-0.00216419,1.01283,0.002207,0.0164359,1966,1135,51.5898,-6.69391
749,-111,51.5227,6.27319,-0.00136252,0.00140207,0.00229254,0.0026968,-0.00265725,1.05669,0.00309119,0.0173022,1973,1135,51.5227,-6.27319
756,-111,51.5144,5.83984,-0.00123463,0.00270886,0.00265012,0.00404029,-0.00256605,1.10523,0.0038457,0.0177653,1980,1135,51.5143,-5.83982
763,-111,51.522,5.45288,-0.000153846,0.00548333,0.00301276,0.00679041,-0.00146093,1.16145,0.00508437,0.0156272,1987,1135,51.5219,-5.4529
770,-111,51.5032,5.06421,0.00125283,0.00891791,0.00318835,0.0100707,0.0001,1.22385,0.00668074,0.0133092,1994,1135,51.5031,-5.06424
777,-111,51.2971,4.60437,0.00339287,0.0132213,0.00313059,0.0141337,0.00248041,1.28719,0.00871417,0.0270033,2001,1135,51.2971,-4.6044
784,-111,51.335,4.34644,0.00638352,0.0186724,0.00276748,0.0192669,0.00578904,1.3592,0.0114152,0.0422706,2008,1135,51.335,-4.34638
791,-111,51.5969,4.2926,0.0107233,0.0256138,0.00201451,0.0258816,0.0104556,1.43867,0.0150343,0.045952,2015,1135,51.5969,-4.29255
798,-111,51.8813,4.12732,0,0,0,0,0,0,0,-1,2022,1135,51.8813,-4.12738
805,-111,52.012,2.10547,0.02501,0.0457403,-0.00144252,0.0458402,0.0249101,-1.50166,0.0264991,0.0470171,2029,1135,52.0121,-2.10542
812,-111,51.771,1.45898,0.0356376,0.0599669,-0.00429122,0.0607016,0.0349029,-1.40123,0.0351772,0.043448,2036,1135,51.771,-1.45901
-700,-118,0,0,0,0,0,0,0,0,0,-1,524,1142,0,0
-693,-118,-43.9205,0.907593,0,0,0,0,0,0,0,-1,531,1142,-43.9205,-0.907535
-686,-118,-43.5374,1.52185,0.0841984,-0.0101812,0.0875618,0.136477,-0.0624597,0.538245,0.117476,0.0487485,538,1142,-43.5373,-1.52186
-679,-118,-43.1337,2.1543,0.0733108,-0.00625476,0.0702416,0.114253,-0.0471971,0.527736,0.0958559,0.0447355,545,1142,-43.1337,-2.15434
-672,-118,-42.7384,2.71057,0.0622284,-0.00314443,0.0550787,0.0935894,-0.0345054,0.517604,0.076533,0.0433692,552,1142,-42.7384,-2.7106
-665,-118,-42.3698,3.30444,0.0512594,-0.000789435,0.0420386,0.074677,-0.0242071,0.50824,0.0595179,0.0426159,559,1142,-42.3698,-3.30449
-658,-118,-36.9857,0.371094,0,0,0,0,0,0,0,-1,566,1142,-36.9857,-0.371083
-651,-118,-36.7838,1.07068,0.0309141,0.00199061,0.0217731,0.0425907,-0.00968595,0.492251,0.0321131,0.0462991,573,1142,-36.7838,-1.0707
-644,-118,-36.7258,1.82214,0.0225385,0.00250077,0.0144701,0.0301197,-0.00508039,0.4826,0.0219699,0.0318717,580,1142,-36.7258,-1.82218
-637,-118,-36.9041,2.36719,0.015115,0.00256078,0.00832883,0.0192672,-0.00159147,0.462479,0.0134068,0.0175218,587,1142,-36.9041,-2.36715
-630,-118,-36.9356,2.79663,0.00873832,0.00239929,0.00346603,0.0102655,0.000872083,0.415027,0.0065723,0.0232799,594,1142,-36.9356,-2.79661
-623,-118,-36.9265,3.25659,0.00423815,0.00157579,0.000402663,0.00429772,0.00151622,0.146868,0.00251688,0.0185196,601,1142,-36.9264,-3.25653
-616,-118,-37.0701,3.69934,0.00172105,0.00069228,-0.000826659,0.0021803,0.000233035,-0.50709,0.00138242,0.0248781,608,1142,-37.0701,-3.69932
-609,-118,-37.3062,3.97375,0.00078269,-0.000201432,-0.000968802,0.00137723,-0.000795971,-0.550422,0.00126957,0.0402997,615,1142,-37.3062,-3.97375
-602,-118,-37.1775,4.73206,0.000671717,-0.000665537,-0.00103452,0.00123488,-0.0012287,-0.498509,0.00142235,0.041297,622,1142,-37.1775,-4.73212
-595,-118,-37.2201,5.08838,0.000424162,-0.000825467,-0.000837228,0.000844021,-0.00124533,-0.464837,0.00121368,0.0309855,629,1142,-37.2201,-5.08835
-588,-118,-36.6301,5.91101,0,0,0,0,0,0,0,-1,636,1142,-36.6301,-5.91097
-581,-118,-24.6116,3.89648,0,0,0,0,0,0,0,-1,643,1142,-24.6116,-3.89645
-574,-118,-41.9156,0.310669,0,0,0,0,0,0,0,-1,650,1142,-41.9156,-0.310714
-567,-118,-41.9917,0.522705,0.00221942,-0.00152104,-0.000737877,0.00235972,-0.00166134,-0.187894,0.0023332,0.0420884,657,1142,-41.9917,-0.522722
-560,-118,-42.0342,0.76416,0.00300597,-0.00158171,-0.000631543,0.00309132,-0.00166706,-0.134332,0.00278798,0.0375084,664,1142,-42.0342,-0.76422
-553,-118,-41.8876,0.655884,0.00322057,-0.00161605,-0.000797962,0.00334882,-0.0017443,-0.159359,0.00298876,0.039252,671,1142,-41.8877,-0.655938
-546,-118,-41.9119,0.687744,0.00361301,-0.00169449,-0.00114492,0.00384945,-0.00193094,-0.203655,0.00339803,0.0391024,678,1142,-41.912,-0.68773
-539,-118,-42.0498,0.887329,0.00482217,-0.00233469,-0.00180902,0.00525344,-0.00276596,-0.234033,0.00470366,0.0415834,685,1142,-42.0498,-0.887314
-532,-118,-42.2164,0.88208,0.00625907,-0.00340869,-0.00259801,0.006913,-0.00406262,-0.246581,0.00640761,0.0422573,692,1142,-42.2164,-0.882139
-525,-118,-42.2108,0.829224,0.0074104,-0.00469508,-0.00342534,0.00831242,-0.00559709,-0.25749,0.0080815,0.0418041,699,1142,-42.2108,-0.829239
-518,-118,0,0,0,0,0,0,0,0,0,-1,706,1142,0,0
-511,-118,0,0,0,0,0,0,0,0,0,-1,713,1142,0,0
-504,-118,0,0,0,0,0,0,0,0,0,-1,720,1142,0,0
-497,-118,0,0,0,0,0,0,0,0,0,-1,727,1142,0,0
-490,-118,0,0,0,0,0,0,0,0,0,-1,734,1142,0,0
-483,-118,0,0,0,0,0,0,0,0,0,-1,741,1142,0,0
-476,-118,0,0,0,0,0,0,0,0,0,-1,748,1142,0,0
-469,-118,0,0,0,0,0,0,0,0,0,-1,755,1142,0,0
-462,-118,0,0,0,0,0,0,0,0,0,-1,762,1142,0,0
-455,-118,0,0,0,0,0,0,0,0,0,-1,769,1142,0,0
-448,-118,0,0,0,0,0,0,0,0,0,-1,776,1142,0,0
-441,-118,0,0,0,0,0,0,0,0,0,-1,783,1142,0,0
-434,-118,0,0,0,0,0,0,0,0,0,-1,790,1142,0,0
-427,-118,0,0,0,0,0,0,0,0,0,-1,797,1142,0,0
-420,-118,0,0,0,0,0,0,0,0,0,-1,804,1142,0,0
-413,-118,0,0,0,0,0,0,0,0,0,-1,811,1142,0,0
-406,-118,0,0,0,0,0,0,0,0,0,-1,818,1142,0,0
-399,-118,0,0,0,0,0,0,0,0,0,-1,825,1142,0,0
-392,-118,0,0,0,0,0,0,0,0,0,-1,832,1142,0,0
-385,-118,0,0,0,0,0,0,0,0,0,-1,839,1142,0,0
-378,-118,0,0,0,0,0,0,0,0,0,-1,846,1142,0,0
-371,-118,0,0,0,0,0,0,0,0,0,-1,853,1142,0,0
-364,-118,0,0,0,0,0,0,0,0,0,-1,860,1142,0,0
-357,-118,0,0,0,0,0,0,0,0,0,-1,867,1142,0,0
-350,-118,0,0,0,0,0,0,0,0,0,-1,874,1142,0,0
-343,-118,0,0,0,0,0,0,0,0,0,-1,881,1142,0,0
-336,-118,0,0,0,0,0,0,0,0,0,-1,888,1142,0,0
-329,-118,0,0,0,0,0,0,0,0,0,-1,895,1142,0,0
-322,-118,0,0,0,0,0,0,0,0,0,-1,902,1142,0,0
-315,-118,0,0,0,0,0,0,0,0,0,-1,909,1142,0,0
-308,-118,0,0,0,0,0,0,0,0,0,-1,916,1142,0,0
-301,-118,0,0,0,0,0,0,0,0,0,-1,923,1142,0,0
-294,-118,0,0,0,0,0,0,0,0,0,-1,930,1142,0,0
-287,-118,0,0,0,0,0,0,0,0,0,-1,937,1142,0,0
-280,-118,0,0,0,0,0,0,0,0,0,-1,944,1142,0,0
-273,-118,0,0,0,0,0,0,0,0,0,-1,951,1142,0,0
-266,-118,0,0,0,0,0,0,0,0,0,-1,958,1142,0,0
-259,-118,0,0,0,0,0,0,0,0,0,-1,965,1142,0,0
-252,-118,0,0,0,0,0,0,0,0,0,-1,972,1142,0,0
-245,-118,0,0,0,0,0,0,0,0,0,-1,979,1142,0,0
-238,-118,0,0,0,0,0,0,0,0,0,-1,986,1142,0,0
-231,-118,0,0,0,0,0,0,0,0,0,-1,993,1142,0,0
-224,-118,0,0,0,0,0,0,0,0,0,-1,1000,1142,0,0
-217,-118,0,0,0,0,0,0,0,0,0,-1,1007,1142,0,0
-210,-118,0,0,0,0,0,0,0,0,0,-1,1014,1142,0,0
-203,-118,0,0,0,0,0,0,0,0,0,-1,1021,1142,0,0
-196,-118,0,0,0,0,0,0,0,0,0,-1,1028,1142,0,0
-189,-118,0,0,0,0,0,0,0,0,0,-1,1035,1142,0,0
-182,-118,0,0,0,0,0,0,0,0,0,-1,1042,1142,0,0
-175,-118,0,0,0,0,0,0,0,0,0,-1,1049,1142,0,0
-168,-118,0,0,0,0,0,0,0,0,0,-1,1056,1142,0,0
-161,-118,0,0,0,0,0,0,0,0,0,-1,1063,1142,0,0
-154,-118,0,0,0,0,0,0,0,0,0,-1,1070,1142,0,0
-147,-118,0,0,0,0,0,0,0,0,0,-1,1077,1142,0,0
-140,-118,0,0,0,0,0,0,0,0,0,-1,1084,1142,0,0
-133,-118,0,0,0,0,0,0,0,0,0,-1,1091,1142,0,0
-126,-118,0,0,0,0,0,0,0,0,0,-1,1098,1142,0,0
-119,-118,0,0,0,0,0,0,0,0,0,-1,1105,1142,0,0
-112,-118,0,0,0,0,0,0,0,0,0,-1,1112,1142,0,0
-105,-118,0,0,0,0,0,0,0,0,0,-1,1119,1142,0,0
-98,-118,0,0,0,0,0,0,0,0,0,-1,1126,1142,0,0
-91,-118,0,0,0,0,0,0,0,0,0,-1,1133,1142,0,0
-84,-118,0,0,0,0,0,0,0,0,0,-1,1140,1142,0,0
-77,-118,0,0,0,0,0,0,0,0,0,-1,1147,1142,0,0
-70,-118,0,0,0,0,0,0,0,0,0,-1,1154,1142,0,0
-63,-118,0,0,0,0,0,0,0,0,0,-1,1161,1142,0,0
-56,-118,0,0,0,0,0,0,0,0,0,-1,1168,1142,0,0
-49,-118,0,0,0,0,0,0,0,0,0,-1,1175,1142,0,0
-42,-118,0,0,0,0,0,0,0,0,0,-1,1182,1142,0,0
-35,-118,0,0,0,0,0,0,0,0,0,-1,1189,1142,0,0
-28,-118,0,0,0,0,0,0,0,0,0,-1,1196,1142,0,0
-21,-118,0,0,0,0,0,0,0,0,0,-1,1203,1142,0,0
-14,-118,0,0,0,0,0,0,0,0,0,-1,1210,1142,0,0
-7,-118,0,0,0,0,0,0,0,0,0,-1,1217,1142,0,0
0,-118,0,0,0,0,0,0,0,0,0,-1,1224,1142,0,0
7,-118,0,0,0,0,0,0,0,0,0,-1,1231,1142,0,0
14,-118,0,0,0,0,0,0,0,0,0,-1,1238,1142,0,0
21,-118,0,0,0,0,0,0,0,0,0,-1,1245,1142,0,0
28,-118,0,0,0,0,0,0,0,0,0,-1,1252,1142,0,0
35,-118,0,0,0,0,0,0,0,0,0,-1,1259,1142,0,0
42,-118,0,0,0,0,0,0,0,0,0,-1,1266,1142,0,0
49,-118,0,0,0,0,0,0,0,0,0,-1,1273,1142,0,0
56,-118,0,0,0,0,0,0,0,0,0,-1,1280,1142,0,0
63,-118,0,0,0,0,0,0,0,0,0,-1,1287,1142,0,0
70,-118,0,0,0,0,0,0,0,0,0,-1,1294,1142,0,0
77,-118,0,0,0,0,0,0,0,0,0,-1,1301,1142,0,0
84,-118,0,0,0,0,0,0,0,0,0,-1,1308,1142,0,0
91,-118,0,0,0,0,0,0,0,0,0,-1,1315,1142,0,0
98,-118,0,0,0,0,0,0,0,0,0,-1,1322,1142,0,0
105,-118,0,0,0,0,0,0,0,0,0,-1,1329,1142,0,0
112,-118,0,0,0,0,0,0,0,0,0,-1,1336,1142,0,0
119,-118,0,0,0,0,0,0,0,0,0,-1,1343,1142,0,0
126,-118,0,0,0,0,0,0,0,0,0,-1,1350,1142,0,0
133,-118,0,0,0,0,0,0,0,0,0,-1,1357,1142,0,0
140,-118,0,0,0,0,0,0,0,0,0,-1,1364,1142,0,0
147,-118,0,0,0,0,0,0,0,0,0,-1,1371,1142,0,0
154,-118,0,0,0,0,0,0,0,0,0,-1,1378,1142,0,0
161,-118,0,0,0,0,0,0,0,0,0,-1,1385,1142,0,0
168,-118,0,0,0,0,0,0,0,0,0,-1,1392,1142,0,0
175,-118,0,0,0,0,0,0,0,0,0,-1,1399,1142,0,0
182,-118,0,0,0,0,0,0,0,0,0,-1,1406,1142,0,0
189,-118,0,0,0,0,0,0,0,0,0,-1,1413,1142,0,0
196,-118,0,0,0,0,0,0,0,0,0,-1,1420,1142,0,0
203,-118,0,0,0,0,0,0,0,0,0,-1,1427,1142,0,0
210,-118,0,0,0,0,0,0,0,0,0,-1,1434,1142,0,0
217,-118,0,0,0,0,0,0,0,0,0,-1,1441,1142,0,0
224,-118,0,0,0,0,0,0,0,0,0,-1,1448,1142,0,0
231,-118,0,0,0,0,0,0,0,0,0,-1,1455,1142,0,0
238,-118,0,0,0,0,0,0,0,0,0,-1,1462,1142,0,0
245,-118,0,0,0,0,0,0,0,0,0,-1,1469,1142,0,0
252,-118,0,0,0,0,0,0,0,0,0,-1,1476,1142,0,0
259,-118,0,0,0,0,0,0,0,0,0,-1,1483,1142,0,0
266,-118,0,0,0,0,0,0,0,0,0,-1,1490,1142,0,0
273,-118,0,0,0,0,0,0,0,0,0,-1,1497,1142,0,0
280,-118,0,0,0,0,0,0,0,0,0,-1,1504,1142,0,0
287,-118,0,0,0,0,0,0,0,0,0,-1,1511,1142,0,0
294,-118,0,0,0,0,0,0,0,0,0,-1,1518,1142,0,0
301,-118,0,0,0,0,0,0,0,0,0,-1,1525,1142,0,0
308,-118,0,0,0,0,0,0,0,0,0,-1,1532,1142,0,0
315,-118,0,0,0,0,0,0,0,0,0,-1,1539,1142,0,0
322,-118,0,0,0,0,0,0,0,0,0,-1,1546,1142,0,0
329,-118,0,0,0,0,0,0,0,0,0,-1,1553,1142,0,0
336,-118,0,0,0,0,0,0,0,0,0,-1,1560,1142,0,0
343,-118,0,0,0,0,0,0,0,0,0,-1,1567,1142,0,0
350,-118,0,0,0,0,0,0,0,0,0,-1,1574,1142,0,0
357,-118,0,0,0,0,0,0,0,0,0,-1,1581,1142,0,0
364,-118,0,0,0,0,0,0,0,0,0,-1,1588,1142,0,0
371,-118,0,0,0,0,0,0,0,0,0,-1,1595,1142,0,0
378,-118,0,0,0,0,0,0,0,0,0,-1,1602,1142,0,0
385,-118,0,0,0,0,0,0,0,0,0,-1,1609,1142,0,0
392,-118,0,0,0,0,0,0,0,0,0,-1,1616,1142,0,0
399,-118,0,0,0,0,0,0,0,0,0,-1,1623,1142,0,0
406,-118,0,0,0,0,0,0,0,0,0,-1,1630,1142,0,0
413,-118,0,0,0,0,0,0,0,0,0,-1,1637,1142,0,0
420,-118,0,0,0,0,0,0,0,0,0,-1,1644,1142,0,0
427,-118,0,0,0,0,0,0,0,0,0,-1,1651,1142,0,0
434,-118,0,0,0,0,0,0,0,0,0,-1,1658,1142,0,0
441,-118,0,0,0,0,0,0,0,0,0,-1,1665,1142,0,0
448,-118,0,0,0,0,0,0,0,0,0,-1,1672,1142,0,0
455,-118,0,0,0,0,0,0,0,0,0,-1,1679,1142,0,0
462,-118,0,0,0,0,0,0,0,0,0,-1,1686,1142,0,0
469,-118,0,0,0,0,0,0,0,0,0,-1,1693,1142,0,0
476,-118,0,0,0,0,0,0,0,0,0,-1,1700,1142,0,0
483,-118,0,0,0,0,0,0,0,0,0,-1,1707,1142,0,0
490,-118,0,0,0,0,0,0,0,0,0,-1,1714,1142,0,0
497,-118,0,0,0,0,0,0,0,0,0,-1,1721,1142,0,0
504,-118,0,0,0,0,0,0,0,0,0,-1,1728,1142,0,0
511,-118,0,0,0,0,0,0,0,0,0,-1,1735,1142,0,0
518,-118,0,0,0,0,0,0,0,0,0,-1,1742,1142,0,0
525,-118,0,0,0,0,0,0,0,0,0,-1,1749,1142,0,0
532,-118,0,0,0,0,0,0,0,0,0,-1,1756,1142,0,0
539,-118,0,0,0,0,0,0,0,0,0,-1,1763,1142,0,0
546,-118,0,0,0,0,0,0,0,0,0,-1,1770,1142,0,0
553,-118,0,0,0,0,0,0,0,0,0,-1,1777,1142,0,0
560,-118,0,0,0,0,0,0,0,0,0,-1,1784,1142,0,0
567,-118,0,0,0,0,0,0,0,0,0,-1,1791,1142,0,0
574,-118,0,0,0,0,0,0,0,0,0,-1,1798,1142,0,0
581,-118,0,0,0,0,0,0,0,0,0,-1,1805,1142,0,0
588,-118,0,0,0,0,0,0,0,0,0,-1,1812,1142,0,0
595,-118,0,0,0,0,0,0,0,0,0,-1,1819,1142,0,0
602,-118,0,0,0,0,0,0,0,0,0,-1,1826,1142,0,0
609,-118,0,0,0,0,0,0,0,0,0,-1,1833,1142,0,0
616,-118,0,0,0,0,0,0,0,0,0,-1,1840,1142,0,0
623,-118,0,0,0,0,0,0,0,0,0,-1,1847,1142,0,0
630,-118,0,0,0,0,0,0,0,0,0,-1,1854,1142,0,0
637,-118,0,0,0,0,0,0,0,0,0,-1,1861,1142,0,0
644,-118,56.0543,2.03088,0.00927578,0.000872268,0.00839788,0.0144644,-0.00431635,0.55344,0.0113585,0.0403242,1868,1142,56.0543,-2.03093
651,-118,56.3126,2.3208,0.00626085,4.10673e-05,0.00684693,0.0106711,-0.00436914,0.572227,0.00893394,0.0390406,1875,1142,56.3127,-2.32079
658,-118,56.4545,2.42932,0.00422477,-0.000387178,0.00542265,0.00781138,-0.00397379,0.584358,0.00692338,0.0392883,1882,1142,56.4545,-2.42933
665,-118,56.3439,2.44165,0.00260983,-0.000571437,0.0040202,0.00534264,-0.00330424,0.597018,0.00503831,0.039693,1889,1142,56.3438,-2.44163
672,-118,56.1976,2.54565,0.0012975,-0.000546849,0.00271589,0.00324351,-0.00249285,0.621731,0.00332133,0.0435768,1896,1142,56.1976,-2.54564
679,-118,56.1768,2.62585,0.00022402,-0.000529843,0.00177655,0.00166318,-0.001969,0.680863,0.00209952,0.0403307,1903,1142,56.1768,-2.62587
686,-118,56.1467,2.61096,-0.000241863,-0.000568767,0.00123253,0.000838006,-0.00164864,0.719475,0.00146087,0.0363276,1910,1142,56.1468,-2.61096
693,-118,56.1379,2.61951,-0.000424366,-0.000565034,0.000933662,0.000441607,-0.00143101,0.747804,0.00113034,0.0348073,1917,1142,56.1379,-2.61948
700,-118,56.2495,2.62305,-0.000682061,-0.000647385,0.000647395,-1.7096e-05,-0.00131235,0.798786,0.000869258,0.0215133,1924,1142,56.2495,-2.62301
707,-118,56.2859,2.60632,0,0,0,0,0,0,0,-1,1931,1142,56.2859,-2.60627
714,-118,50.4819,8.53809,0,0,0,0,0,0,0,-1,1938,1142,50.4819,-8.53809
721,-118,51.1733,8.04358,0,0,0,0,0,0,0,-1,1945,1142,51.1734,-8.04357
728,-118,51.1908,7.59119,-0.00111767,-6.3217e-05,0.00101011,0.000548978,-0.00172987,1.02593,0.00137331,0.0217561,1952,1142,51.1908,-7.59124
735,-118,51.1576,7.17444,-0.00103454,0.00017439,0.00145158,0.00114233,-0.00200247,0.982688,0.00183815,0.0217216,1959,1142,51.1576,-7.17439
742,-118,51.1383,6.74487,-0.00103862,0.000328818,0.00185186,0.00161914,-0.00232894,0.962239,0.00229168,0.0287978,1966,1142,51.1383,-6.74482
749,-118,51.075,6.30762,-0.00118616,0.00103598,0.00250391,0.00266426,-0.00281444,0.994214,0.00316353,0.0215809,1973,1142,51.0749,-6.30762
756,-118,51.0466,5.86646,-0.000922548,0.00230136,0.00294707,0.00404852,-0.00266971,1.03565,0.0039059,0.0194701,1980,1142,51.0466,-5.8665
763,-118,51.118,5.43896,0.0002926,0.00503463,0.00343121,0.00683433,-0.00150711,1.08773,0.00513288,0.0113306,1987,1142,51.118,-5.43894
770,-118,51.0559,5.05139,0.00179368,0.0083284,0.0037815,0.0100586,6.35064e-05,1.14169,0.00668465,0.0136559,1994,1142,51.0559,-5.05144
777,-118,50.8923,4.58569,0.00389022,0.012447,0.00393438,0.013981,0.00235622,1.19903,0.00864302,0.0294576,2001,1142,50.8922,-4.58563
784,-118,51.0315,4.0946,0.00669549,0.0177172,0.00381306,0.0189078,0.00550493,1.26816,0.0112294,0.0439612,2008,1142,51.0315,-4.09457
791,-118,51.2178,3.61206,0,0,0,0,0,0,0,-1,2015,1142,51.2179,-3.61203
798,-118,51.8167,5.91882,0,0,0,0,0,0,0,-1,2022,1142,51.8166,-5.91877
805,-118,51.6897,1.53491,0,0,0,0,0,0,0,-1,2029,1142,51.6896,-1.53493
812,-118,51.0325,1.25806,0,0,0,0,0,0,0,-1,2036,1142,51.0324,-1.2581
-700,-125,0,0,0,0,0,0,0,0,0,-1,524,1149,0,0
-693,-125,-44.6713,1.19434,0,0,0,0,0,0,0,-1,531,1149,-44.6713,-1.19438
-686,-125,-44.2502,1.87158,0.0793957,-0.00675578,0.0892913,0.135459,-0.0628186,0.560656,0.117008,0.0469639,538,1149,-44.2501,-1.87157
-679,-125,-43.7288,2.55835,0.0701495,-0.00304432,0.0717154,0.114066,-0.0469609,0.549468,0.0956221,0.0440999,545,1149,-43.7288,-2.55832
-672,-125,-43.3155,3.16565,0.0603299,-0.000346911,0.0562916,0.093938,-0.0339551,0.538238,0.0764983,0.0442671,552,1149,-43.3155,-3.16568
-665,-125,-42.9146,3.75745,0,0,0,0,0,0,0,-1,559,1149,-42.9146,-3.75747
-658,-125,-36.2046,0.448608,0,0,0,0,0,0,0,-1,566,1149,-36.2046,-0.448562
-651,-125,-36.1811,1.16858,0.030916,0.00340869,0.0223076,0.043369,-0.00904435,0.50915,0.0323517,0.0453039,573,1149,-36.1811,-1.16854
-644,-125,-36.2748,1.81458,0.0225888,0.00358315,0.0147542,0.0306356,-0.00446365,0.499298,0.0220626,0.0300802,580,1149,-36.2749,-1.81457
-637,-125,-36.4055,2.35352,0.0152484,0.00332723,0.00855733,0.0197165,-0.00114083,0.481196,0.0135406,0.013981,587,1149,-36.4055,-2.35355
-630,-125,-36.4261,2.80725,0.00883242,0.00293218,0.00359001,0.0105289,0.00123565,0.441464,0.00664582,0.0148487,594,1149,-36.4261,-2.80721
-623,-125,-36.4298,3.27234,0.00409246,0.00187235,0.000398489,0.00416182,0.001803,0.172327,0.00240996,0.0136423,601,1149,-36.4298,-3.27229
-616,-125,-36.4881,3.7179,0.00132529,0.000722502,-0.000894179,0.00196751,8.02902e-05,-0.622845,0.00128574,0.0259611,608,1149,-36.4881,-3.71792
-609,-125,-36.6481,4.07312,0.000360592,-0.00017963,-0.000977356,0.00110447,-0.000923513,-0.650579,0.00117241,0.0469498,615,1149,-36.648,-4.07313
-602,-125,-36.6053,4.75708,0.000220427,-0.000506822,-0.00113658,0.00105013,-0.00133652,-0.630579,0.00138124,0.0394077,622,1149,-36.6053,-4.75705
-595,-125,-36.7365,5.22583,2.09474e-06,-0.000595331,-0.000972849,0.000721057,-0.00131429,-0.636442,0.00119163,0.0364541,629,1149,-36.7365,-5.22586
-588,-125,-35.9323,5.82507,0,0,0,0,0,0,0,-1,636,1149,-35.9323,-5.82512
-581,-125,-26.4055,4.83203,0,0,0,0,0,0,0,-1,643,1149,-26.4055,-4.83204
-574,-125,-37.674,0.655151,0,0,0,0,0,0,0,-1,650,1149,-37.674,-0.655195
-567,-125,-41.9673,0.548828,0,0,0,0,0,0,0,-1,657,1149,-41.9673,-0.548879
-560,-125,-42.0522,0.814941,0.00266659,-0.00116378,-0.00078609,0.00282164,-0.00131883,-0.194742,0.00244242,0.037873,664,1149,-42.0522,-0.814902
-553,-125,-42.0619,0.774414,0.00292292,-0.00118401,-0.000917483,0.00311857,-0.00137965,-0.210094,0.00266095,0.0379606,671,1149,-42.0619,-0.774406
-546,-125,-42.1232,0.707886,0.00347302,-0.00129924,-0.00118022,0.00374895,-0.00157517,-0.229666,0.00315813,0.037895,678,1149,-42.1232,-0.707944
-539,-125,-41.9187,0.982666,0.00476227,-0.00203303,-0.00175368,0.00518815,-0.00245892,-0.23824,0.00450779,0.0413122,685,1149,-41.9187,-0.982656
-532,-125,-41.9441,0.945435,0.00641877,-0.00326988,-0.00241707,0.00698829,-0.0038394,-0.231403,0.00633888,0.0414263,692,1149,-41.9441,-0.94548
-525,-125,-41.95,0.954102,0.00789664,-0.00470082,-0.00308292,0.00861064,-0.00541482,-0.227586,0.00816737,0.0438437,699,1149,-41.95,-0.954122
-518,-125,0,0,0,0,0,0,0,0,0,-1,706,1149,0,0
-511,-125,0,0,0,0,0,0,0,0,0,-1,713,1149,0,0
-504,-125,0,0,0,0,0,0,0,0,0,-1,720,1149,0,0
-497,-125,0,0,0,0,0,0,0,0,0,-1,727,1149,0,0
-490,-125,0,0,0,0,0,0,0,0,0,-1,734,1149,0,0
-483,-125,0,0,0,0,0,0,0,0,0,-1,741,1149,0,0
-476,-125,0,0,0,0,0,0,0,0,0,-1,748,1149,0,0
-469,-125,0,0,0,0,0,0,0,0,0,-1,755,1149,0,0
-462,-125,0,0,0,0,0,0,0,0,0,-1,762,1149,0,0
-455,-125,0,0,0,0,0,0,0,0,0,-1,769,1149,0,0
-448,-125,0,0,0,0,0,0,0,0,0,-1,776,1149,0,0
-441,-125,0,0,0,0,0,0,0,0,0,-1,783,1149,0,0
-434,-125,0,0,0,0,0,0,0,0,0,-1,790,1149,0,0
-427,-125,0,0,0,0,0,0,0,0,0,-1,797,1149,0,0
-420,-125,0,0,0,0,0,0,0,0,0,-1,804,1149,0,0
-413,-125,0,0,0,0,0,0,0,0,0,-1,811,1149,0,0
-406,-125,0,0,0,0,0,0,0,0,0,-1,818,1149,0,0
-399,-125,0,0,0,0,0,0,0,0,0,-1,825,1149,0,0
-392,-125,0,0,0,0,0,0,0,0,0,-1,832,1149,0,0
-385,-125,0,0,0,0,0,0,0,0,0,-1,839,1149,0,0
-378,-125,0,0,0,0,0,0,0,0,0,-1,846,1149,0,0
-371,-125,0,0,0,0,0,0,0,0,0,-1,853,1149,0,0
-364,-125,0,0,0,0,0,0,0,0,0,-1,860,1149,0,0
-357,-125,0,0,0,0,0,0,0,0,0,-1,867,1149,0,0
-350,-125,0,0,0,0,0,0,0,0,0,-1,874,1149,0,0
-343,-125,0,0,0,0,0,0,0,0,0,-1,881,1149,0,0
-336,-125,0,0,0,0,0,0,0,0,0,-1,888,1149,0,0
-329,-125,0,0,0,0,0,0,0,0,0,-1,895,1149,0,0
-322,-125,0,0,0,0,0,0,0,0,0,-1,902,1149,0,0
-315,-125,0,0,0,0,0,0,0,0,0,-1,909,1149,0,0
-308,-125,0,0,0,0,0,0,0,0,0,-1,916,1149,0,0
-301,-125,0,0,0,0,0,0,0,0,0,-1,923,1149,0,0
-294,-125,0,0,0,0,0,0,0,0,0,-1,930,1149,0,0
-287,-125,0,0,0,0,0,0,0,0,0,-1,937,1149,0,0
-280,-125,0,0,0,0,0,0,0,0,0,-1,944,1149,0,0
-273,-125,0,0,0,0,0,0,0,0,0,-1,951,1149,0,0
-266,-125,0,0,0,0,0,0,0,0,0,-1,958,1149,0,0
-259,-125,0,0,0,0,0,0,0,0,0,-1,965,1149,0,0
-252,-125,0,0,0,0,0,0,0,0,0,-1,972,1149,0,0
-245,-125,0,0,0,0,0,0,0,0,0,-1,979,1149,0,0
-238,-125,0,0,0,0,0,0,0,0,0,-1,986,1149,0,0
-231,-125,0,0,0,0,0,0,0,0,0,-1,993,1149,0,0
-224,-125,0,0,0,0,0,0,0,0,0,-1,1000,1149,0,0
-217,-125,0,0,0,0,0,0,0,0,0,-1,1007,1149,0,0
-210,-125,0,0,0,0,0,0,0,0,0,-1,1014,1149,0,0
-203,-125,0,0,0,0,0,0,0,0,0,-1,1021,1149,0,0
-196,-125,0,0,0,0,0,0,0,0,0,-1,1028,1149,0,0
-189,-125,0,0,0,0,0,0,0,0,0,-1,1035,1149,0,0
-182,-125,0,0,0,0,0,0,0,0,0,-1,1042,1149,0,0
-175,-125,0,0,0,0,0,0,0,0,0,-1,1049,1149,0,0
-168,-125,0,0,0,0,0,0,0,0,0,-1,1056,1149,0,0
-161,-125,0,0,0,0,0,0,0,0,0,-1,1063,1149,0,0
-154,-125,0,0,0,0,0,0,0,0,0,-1,1070,1149,0,0
-147,-125,0,0,0,0,0,0,0,0,0,-1,1077,1149,0,0
-140,-125,0,0,0,0,0,0,0,0,0,-1,1084,1149,0,0
-133,-125,0,0,0,0,0,0,0,0,0,-1,1091,1149,0,0
-126,-125,0,0,0,0,0,0,0,0,0,-1,1098,1149,0,0
-119,-125,0,0,0,0,0,0,0,0,0,-1,1105,1149,0,0
-112,-125,0,0,0,0,0,0,0,0,0,-1,1112,1149,0,0
-105,-125,0,0,0,0,0,0,0,0,0,-1,1119,1149,0,0
-98,-125,0,0,0,0,0,0,0,0,0,-1,1126,1149,0,0
-91,-125,0,0,0,0,0,0,0,0,0,-1,1133,1149,0,0
-84,-125,0,0,0,0,0,0,0,0,0,-1,1140,1149,0,0
-77,-125,0,0,0,0,0,0,0,0,0,-1,1147,1149,0,0
-70,-125,0,0,0,0,0,0,0,0,0,-1,1154,1149,0,0
-63,-125,0,0,0,0,0,0,0,0,0,-1,1161,1149,0,0
-56,-125,0,0,0,0,0,0,0,0,0,-1,1168,1149,0,0
-49,-125,0,0,0,0,0,0,0,0,0,-1,1175,1149,0,0
-42,-125,0,0,0,0,0,0,0,0,0,-1,1182,1149,0,0
-35,-125,0,0,0,0,0,0,0,0,0,-1,1189,1149,0,0
-28,-125,0,0,0,0,0,0,0,0,0,-1,1196,1149,0,0
-21,-125,0,0,0,0,0,0,0,0,0,-1,1203,1149,0,0
-14,-125,0,0,0,0,0,0,0,0,0,-1,1210,1149,0,0
-7,-125,0,0,0,0,0,0,0,0,0,-1,1217,1149,0,0
0,-125,0,0,0,0,0,0,0,0,0,-1,1224,1149,0,0
7,-125,0,0,0,0,0,0,0,0,0,-1,1231,1149,0,0
14,-125,0,0,0,0,0,0,0,0,0,-1,1238,1149,0,0
21,-125,0,0,0,0,0,0,0,0,0,-1,1245,1149,0,0
28,-125,0,0,0,0,0,0,0,0,0,-1,1252,1149,0,0
35,-125,0,0,0,0,0,0,0,0,0,-1,1259,1149,0,0
42,-125,0,0,0,0,0,0,0,0,0,-1,1266,1149,0,0
49,-125,0,0,0,0,0,0,0,0,0,-1,1273,1149,0,0
56,-125,0,0,0,0,0,0,0,0,0,-1,1280,1149,0,0
63,-125,0,0,0,0,0,0,0,0,0,-1,1287,1149,0,0
70,-125,0,0,0,0,0,0,0,0,0,-1,1294,1149,0,0
77,-125,0,0,0,0,0,0,0,0,0,-1,1301,1149,0,0
84,-125,0,0,0,0,0,0,0,0,0,-1,1308,1149,0,0
91,-125,0,0,0,0,0,0,0,0,0,-1,1315,1149,0,0
98,-125,0,0,0,0,0,0,0,0,0,-1,1322,1149,0,0
105,-125,0,0,0,0,0,0,0,0,0,-1,1329,1149,0,0
112,-125,0,0,0,0,0,0,0,0,0,-1,1336,1149,0,0
119,-125,0,0,0,0,0,0,0,0,0,-1,1343,1149,0,0
126,-125,0,0,0,0,0,0,0,0,0,-1,1350,1149,0,0
133,-125,0,0,0,0,0,0,0,0,0,-1,1357,1149,0,0
140,-125,0,0,0,0,0,0,0,0,0,-1,1364,1149,0,0
147,-125,0,0,0,0,0,0,0,0,0,-1,1371,1149,0,0
154,-125,0,0,0,0,0,0,0,0,0,-1,1378,1149,0,0
161,-125,0,0,0,0,0,0,0,0,0,-1,1385,1149,0,0
168,-125,0,0,0,0,0,0,0,0,0,-1,1392,1149,0,0
175,-125,0,0,0,0,0,0,0,0,0,-1,1399,1149,0,0
182,-125,0,0,0,0,0,0,0,0,0,-1,1406,1149,0,0
189,-125,0,0,0,0,0,0,0,0,0,-1,1413,1149,0,0
196,-125,0,0,0,0,0,0,0,0,0,-1,1420,1149,0,0
203,-125,0,0,0,0,0,0,0,0,0,-1,1427,1149,0,0
210,-125,0,0,0,0,0,0,0,0,0,-1,1434,1149,0,0
217,-125,0,0,0,0,0,0,0,0,0,-1,1441,1149,0,0
224,-125,0,0,0,0,0,0,0,0,0,-1,1448,1149,0,0
231,-125,0,0,0,0,0,0,0,0,0,-1,1455,1149,0,0
238,-125,0,0,0,0,0,0,0,0,0,-1,1462,1149,0,0
245,-125,0,0,0,0,0,0,0,0,0,-1,1469,1149,0,0
252,-125,0,0,0,0,0,0,0,0,0,-1,1476,1149,0,0
259,-125,0,0,0,0,0,0,0,0,0,-1,1483,1149,0,0
266,-125,0,0,0,0,0,0,0,0,0,-1,1490,1149,0,0
273,-125,0,0,0,0,0,0,0,0,0,-1,1497,1149,0,0
280,-125,0,0,0,0,0,0,0,0,0,-1,1504,1149,0,0
287,-125,0,0,0,0,0,0,0,0,0,-1,1511,1149,0,0
294,-125,0,0,0,0,0,0,0,0,0,-1,1518,1149,0,0
301,-125,0,0,0,0,0,0,0,0,0,-1,1525,1149,0,0
308,-125,0,0,0,0,0,0,0,0,0,-1,1532,1149,0,0
315,-125,0,0,0,0,0,0,0,0,0,-1,1539,1149,0,0
322,-125,0,0,0,0,0,0,0,0,0,-1,1546,1149,0,0
329,-125,0,0,0,0,0,0,0,0,0,-1,1553,1149,0,0
336,-125,0,0,0,0,0,0,0,0,0,-1,1560,1149,0,0
343,-125,0,0,0,0,0,0,0,0,0,-1,1567,1149,0,0
350,-125,0,0,0,0,0,0,0,0,0,-1,1574,1149,0,0
357,-125,0,0,0,0,0,0,0,0,0,-1,1581,1149,0,0
364,-125,0,0,0,0,0,0,0,0,0,-1,1588,1149,0,0
371,-125,0,0,0,0,0,0,0,0,0,-1,1595,1149,0,0
378,-125,0,0,0,0,0,0,0,0,0,-1,1602,1149,0,0
385,-125,0,0,0,0,0,0,0,0,0,-1,1609,1149,0,0
392,-125,0,0,0,0,0,0,0,0,0,-1,1616,1149,0,0
399,-125,0,0,0,0,0,0,0,0,0,-1,1623,1149,0,0
406,-125,0,0,0,0,0,0,0,0,0,-1,1630,1149,0,0
413,-125,0,0,0,0,0,0,0,0,0,-1,1637,1149,0,0
420,-125,0,0,0,0,0,0,0,0,0,-1,1644,1149,0,0
427,-125,0,0,0,0,0,0,0,0,0,-1,1651,1149,0,0
434,-125,0,0,0,0,0,0,0,0,0,-1,1658,1149,0,0
441,-125,0,0,0,0,0,0,0,0,0,-1,1665,1149,0,0
448,-125,0,0,0,0,0,0,0,0,0,-1,1672,1149,0,0
455,-125,0,0,0,0,0,0,0,0,0,-1,1679,1149,0,0
462,-125,0,0,0,0,0,0,0,0,0,-1,1686,1149,0,0
469,-125,0,0,0,0,0,0,0,0,0,-1,1693,1149,0,0
476,-125,0,0,0,0,0,0,0,0,0,-1,1700,1149,0,0
483,-125,0,0,0,0,0,0,0,0,0,-1,1707,1149,0,0
490,-125,0,0,0,0,0,0,0,0,0,-1,1714,1149,0,0
497,-125,0,0,0,0,0,0,0,0,0,-1,1721,1149,0,0
504,-125,0,0,0,0,0,0,0,0,0,-1,1728,1149,0,0
511,-125,0,0,0,0,0,0,0,0,0,-1,1735,1149,0,0
518,-125,0,0,0,0,0,0,0,0,0,-1,1742,1149,0,0
525,-125,0,0,0,0,0,0,0,0,0,-1,1749,1149,0,0
532,-125,0,0,0,0,0,0,0,0,0,-1,1756,1149,0,0
539,-125,0,0,0,0,0,0,0,0,0,-1,1763,1149,0,0
546,-125,0,0,0,0,0,0,0,0,0,-1,1770,1149,0,0
553,-125,0,0,0,0,0,0,0,0,0,-1,1777,1149,0,0
560,-125,0,0,0,0,0,0,0,0,0,-1,1784,1149,0,0
567,-125,0,0,0,0,0,0,0,0,0,-1,1791,1149,0,0
574,-125,0,0,0,0,0,0,0,0,0,-1,1798,1149,0,0
581,-125,0,0,0,0,0,0,0,0,0,-1,1805,1149,0,0
588,-125,0,0,0,0,0,0,0,0,0,-1,1812,1149,0,0
595,-125,0,0,0,0,0,0,0,0,0,-1,1819,1149,0,0
602,-125,0,0,0,0,0,0,0,0,0,-1,1826,1149,0,0
609,-125,0,0,0,0,0,0,0,0,0,-1,1833,1149,0,0
616,-125,0,0,0,0,0,0,0,0,0,-1,1840,1149,0,0
623,-125,0,0,0,0,0,0,0,0,0,-1,1847,1149,0,0
630,-125,0,0,0,0,0,0,0,0,0,-1,1854,1149,0,0
637,-125,0,0,0,0,0,0,0,0,0,-1,1861,1149,0,0
644,-125,56.2567,1.64673,0.00824347,-1.34648e-05,0.00936338,0.0143481,-0.00611814,0.577761,0.0121305,0.0410905,1868,1149,56.2567,-1.64676
651,-125,56.458,2.0686,0.00554692,-0.000492948,0.00764625,0.010748,-0.00569403,0.597323,0.00964114,0.0392915,1875,1149,56.458,-2.06855
658,-125,56.4618,2.45752,0.00369745,-0.000644273,0.00599366,0.00790127,-0.00484809,0.61165,0.00743087,0.0410135,1882,1149,56.4617,-2.45758
665,-125,56.1573,2.61084,0.00224634,-0.000599915,0.00433386,0.00538475,-0.00373833,0.626758,0.00529573,0.0433569,1889,1149,56.1574,-2.61079
672,-125,56.0244,2.72595,0.00104908,-0.000380666,0.00281408,0.00323767,-0.00256926,0.661012,0.00336003,0.0441792,1896,1149,56.0244,-2.72598
679,-125,56.1117,2.79077,4.95868e-05,-0.000260181,0.00177287,0.00167432,-0.00188492,0.741827,0.00205612,0.0393686,1903,1149,56.1117,-2.79079
686,-125,56.1975,2.74792,-0.00034813,-0.000249894,0.00120657,0.000908556,-0.00150658,0.805741,0.00140856,0.0370598,1910,1149,56.1975,-2.74788
693,-125,56.1736,2.64478,-0.00050851,-0.000233388,0.000941381,0.00058043,-0.00132233,0.857948,0.00112605,0.0333903,1917,1149,56.1736,-2.64473
700,-125,56.223,2.6405,-0.000773038,-0.00029553,0.000688781,0.000194703,-0.00126327,0.952234,0.000914021,0.0175113,1924,1149,56.223,-2.64054
707,-125,56.2842,2.58862,0,0,0,0,0,0,0,-1,1931,1149,56.2842,-2.58863
714,-125,50.8895,8.5498,0,0,0,0,0,0,0,-1,1938,1149,50.8895,-8.54981
721,-125,50.7439,8.07251,-0.00111948,-5.40402e-05,0.000732554,0.000319014,-0.00149253,1.09977,0.00111665,0.038423,1945,1149,50.7439,-8.0725
728,-125,50.6667,7.6637,-0.00110581,2.79912e-05,0.00100665,0.000616395,-0.00169421,1.04184,0.00138156,0.0208485,1952,1149,50.6668,-7.66373
735,-125,50.6578,7.26514,-0.00100895,0.00021003,0.00148851,0.001209,-0.00200792,0.979717,0.00187629,0.0225284,1959,1149,50.6578,-7.26516
742,-125,50.6824,6.79297,-0.00095544,0.00029112,0.00194024,0.00170573,-0.00237005,0.940812,0.00236355,0.0296834,1966,1149,50.6823,-6.79291
749,-125,50.6141,6.35339,-0.00097953,0.000847661,0.00268275,0.00276811,-0.00289998,0.949511,0.00327277,0.0271576,1973,1149,50.6141,-6.35334
756,-125,50.5719,5.87036,-0.000561514,0.00200917,0.00324614,0.00421518,-0.00276752,0.973908,0.00406024,0.0230389,1980,1149,50.5719,-5.87033
763,-125,50.6498,5.43335,0.000750258,0.00457251,0.00390649,0.0070103,-0.00168753,1.01289,0.00532592,0.0124816,1987,1149,50.6497,-5.43333
770,-125,50.5946,5.00256,0.00228895,0.00758359,0.00450168,0.0101587,-0.000286123,1.0512,0.0068698,0.0152674,1994,1149,50.5945,-5.00258
777,-125,50.4932,4.63123,0.00427769,0.0113452,0.00495056,0.0138938,0.00172905,1.09536,0.00874337,0.0299679,2001,1149,50.4932,-4.63124
784,-125,50.7241,4.14734,0.0068026,0.0161639,0.00519105,0.018473,0.00449358,1.15227,0.0111242,0.0470857,2008,1149,50.7242,-4.14736
791,-125,51.0532,3.64246,0,0,0,0,0,0,0,-1,2015,1149,51.0533,-3.64246
798,-125,50.8596,5.72058,0,0,0,0,0,0,0,-1,2022,1149,50.8597,-5.7206
805,-125,51.0488,5.63391,0,0,0,0,0,0,0,-1,2029,1149,51.0489,-5.63396
812,-125,50.426,1.13391,0,0,0,0,0,0,0,-1,2036,1149,50.426,-1.13397
-700,-132,0,0,0,0,0,0,0,0,0,-1,524,1156,0,0
-693,-132,-38.1208,-0.140991,0,0,0,0,0,0,0,-1,531,1156,-38.1208,0.140991
-686,-132,-44.9663,2.28979,0,0,0,0,0,0,0,-1,538,1156,-44.9663,-2.28981
-679,-132,-44.065,2.67175,0,0,0,0,0,0,0,-1,545,1156,-44.065,-2.67169
-672,-132,-43.8705,3.61133,0,0,0,0,0,0,0,-1,552,1156,-43.8705,-3.61129
-665,-132,-37.1347,0.570801,0,0,0,0,0,0,0,-1,559,1156,-37.1347,-0.570831
-658,-132,-36.9073,0.872437,0,0,0,0,0,0,0,-1,566,1156,-36.9074,-0.872402
-651,-132,-36.3879,1.33789,0.0303125,0.00601434,0.0226025,0.0438241,-0.00749729,0.538796,0.0320092,0.0433512,573,1156,-36.3879,-1.33783
-644,-132,-35.8717,1.80725,0.0222185,0.00542296,0.0148552,0.0308853,-0.00324386,0.528139,0.0217522,0.0238446,580,1156,-35.8717,-1.80721
-637,-132,-35.8962,2.32446,0.0150974,0.00454803,0.0086263,0.0199338,-0.000288438,0.510995,0.0133864,0.0114893,587,1156,-35.8962,-2.32451
-630,-132,-35.8919,2.80237,0.00879528,0.00367455,0.00359832,0.0106512,0.00181866,0.476182,0.0065789,0.00974178,594,1156,-35.8919,-2.80238
-623,-132,-35.9297,3.30408,0.00397156,0.00223835,0.000313717,0.0040266,0.00218331,0.173665,0.00232752,0.016144,601,1156,-35.9297,-3.30402
-616,-132,-36.018,3.71472,0.00100537,0.000772585,-0.0010436,0.00193905,-0.000161092,-0.729862,0.00134961,0.0335349,608,1156,-36.018,-3.71475
-609,-132,-35.9339,4.33252,0,0,0,0,0,0,0,-1,615,1156,-35.9339,-4.3325
-602,-132,-35.9728,4.7428,-8.76458e-05,-0.00030597,-0.0012859,0.00109372,-0.00148733,-0.743054,0.00149593,0.0331945,622,1156,-35.9728,-4.7428
-595,-132,-36.1229,5.22827,-0.000212399,-0.000319617,-0.00115214,0.000887383,-0.0014194,-0.76215,0.00134358,0.0472569,629,1156,-36.1229,-5.22831
-588,-132,-36.0841,5.81543,0,0,0,0,0,0,0,-1,636,1156,-36.0841,-5.81538
-581,-132,-35.9343,6.42957,0,0,0,0,0,0,0,-1,643,1156,-35.9342,-6.42957
-574,-132,-33.2071,2.86963,0,0,0,0,0,0,0,-1,650,1156,-33.2071,-2.86963
-567,-132,-42.0566,0.739014,0,0,0,0,0,0,0,-1,657,1156,-42.0566,-0.738979
-560,-132,-42.0809,0.784424,0.00243009,-0.000715009,-0.00097042,0.00270542,-0.00099033,-0.276449,0.002209,0.0349564,664,1156,-42.0809,-0.784431
-553,-132,-42.194,0.800781,0.00266645,-0.000674264,-0.00106425,0.00297668,-0.000984491,-0.28364,0.00238144,0.037089,671,1156,-42.194,-0.80083
-546,-132,-42.2585,0.817871,0.00333861,-0.000756337,-0.00119606,0.00366236,-0.00108009,-0.264346,0.00287016,0.0399313,678,1156,-42.2585,-0.817921
-539,-132,-41.954,1.03174,0.00468119,-0.00153691,-0.00159542,0.00506664,-0.00192237,-0.237057,0.004169,0.0422239,685,1156,-41.954,-1.03177
-532,-132,-41.8061,0.851563,0.00649687,-0.00288628,-0.0020073,0.00690825,-0.00329766,-0.202142,0.00601404,0.0412691,692,1156,-41.8061,-0.851574
-525,-132,-41.9072,0.938232,0.00823561,-0.0044029,-0.00237892,0.00866856,-0.00483585,-0.180023,0.00790075,0.0415394,699,1156,-41.9072,-0.938229
-518,-132,0,0,0,0,0,0,0,0,0,-1,706,1156,0,0
-511,-132,0,0,0,0,0,0,0,0,0,-1,713,1156,0,0
-504,-132,0,0,0,0,0,0,0,0,0,-1,720,1156,0,0
-497,-132,0,0,0,0,0,0,0,0,0,-1,727,1156,0,0
-490,-132,0,0,0,0,0,0,0,0,0,-1,734,1156,0,0
-483,-132,0,0,0,0,0,0,0,0,0,-1,741,1156,0,0
-476,-132,0,0,0,0,0,0,0,0,0,-1,748,1156,0,0
-469,-132,0,0,0,0,0,0,0,0,0,-1,755,1156,0,0
-462,-132,0,0,0,0,0,0,0,0,0,-1,762,1156,0,0
-455,-132,0,0,0,0,0,0,0,0,0,-1,769,1156,0,0
-448,-132,0,0,0,0,0,0,0,0,0,-1,776,1156,0,0
-441,-132,0,0,0,0,0,0,0,0,0,-1,783,1156,0,0
-434,-132,0,0,0,0,0,0,0,0,0,-1,790,1156,0,0
-427,-132,0,0,0,0,0,0,0,0,0,-1,797,1156,0,0
-420,-132,0,0,0,0,0,0,0,0,0,-1,804,1156,0,0
-413,-132,0,0,0,0,0,0,0,0,0,-1,811,1156,0,0
-406,-132,0,0,0,0,0,0,0,0,0,-1,818,1156,0,0
-399,-132,0,0,0,0,0,0,0,0,0,-1,825,1156,0,0
-392,-132,0,0,0,0,0,0,0,0,0,-1,832,1156,0,0
-385,-132,0,0,0,0,0,0,0,0,0,-1,839,1156,0,0
-378,-132,0,0,0,0,0,0,0,0,0,-1,846,1156,0,0
-371,-132,0,0,0,0,0,0,0,0,0,-1,853,1156,0,0
-364,-132,0,0,0,0,0,0,0,0,0,-1,860,1156,0,0
-357,-132,0,0,0,0,0,0,0,0,0,-1,867,1156,0,0
-350,-132,0,0,0,0,0,0,0,0,0,-1,874,1156,0,0
-343,-132,0,0,0,0,0,0,0,0,0,-1,881,1156,0,0
-336,-132,0,0,0,0,0,0,0,0,0,-1,888,1156,0,0
-329,-132,0,0,0,0,0,0,0,0,0,-1,895,1156,0,0
-322,-132,0,0,0,0,0,0,0,0,0,-1,902,1156,0,0
-315,-132,0,0,0,0,0,0,0,0,0,-1,909,1156,0,0
-308,-132,0,0,0,0,0,0,0,0,0,-1,916,1156,0,0
-301,-132,0,0,0,0,0,0,0,0,0,-1,923,1156,0,0
-294,-132,0,0,0,0,0,0,0,0,0,-1,930,1156,0,0
-287,-132,0,0,0,0,0,0,0,0,0,-1,937,1156,0,0
-280,-132,0,0,0,0,0,0,0,0,0,-1,944,1156,0,0
-273,-132,0,0,0,0,0,0,0,0,0,-1,951,1156,0,0
-266,-132,0,0,0,0,0,0,0,0,0,-1,958,1156,0,0
-259,-132,0,0,0,0,0,0,0,0,0,-1,965,1156,0,0
-252,-132,0,0,0,0,0,0,0,0,0,-1,972,1156,0,0
-245,-132,0,0,0,0,0,0,0,0,0,-1,979,1156,0,0
-238,-132,0,0,0,0,0,0,0,0,0,-1,986,1156,0,0
-231,-132,0,0,0,0,0,0,0,0,0,-1,993,1156,0,0
-224,-132,0,0,0,0,0,0,0,0,0,-1,1000,1156,0,0
-217,-132,0,0,0,0,0,0,0,0,0,-1,1007,1156,0,0
-210,-132,0,0,0,0,0,0,0,0,0,-1,1014,1156,0,0
-203,-132,0,0,0,0,0,0,0,0,0,-1,1021,1156,0,0
-196,-132,0,0,0,0,0,0,0,0,0,-1,1028,1156,0,0
-189,-132,0,0,0,0,0,0,0,0,0,-1,1035,1156,0,0
-182,-132,0,0,0,0,0,0,0,0,0,-1,1042,1156,0,0
-175,-132,0,0,0,0,0,0,0,0,0,-1,1049,1156,0,0
-168,-132,0,0,0,0,0,0,0,0,0,-1,1056,1156,0,0
-161,-132,0,0,0,0,0,0,0,0,0,-1,1063,1156,0,0
-154,-132,0,0,0,0,0,0,0,0,0,-1,1070,1156,0,0
-147,-132,0,0,0,0,0,0,0,0,0,-1,1077,1156,0,0
-140,-132,0,0,0,0,0,0,0,0,0,-1,1084,1156,0,0
-133,-132,0,0,0,0,0,0,0,0,0,-1,1091,1156,0,0
-126,-132,0,0,0,0,0,0,0,0,0,-1,1098,1156,0,0
-119,-132,0,0,0,0,0,0,0,0,0,-1,1105,1156,0,0
-112,-132,0,0,0,0,0,0,0,0,0,-1,1112,1156,0,0
-105,-132,0,0,0,0,0,0,0,0,0,-1,1119,1156,0,0
-98,-132,0,0,0,0,0,0,0,0,0,-1,1126,1156,0,0
-91,-132,0,0,0,0,0,0,0,0,0,-1,1133,1156,0,0
-84,-132,0,0,0,0,0,0,0,0,0,-1,1140,1156,0,0
-77,-132,0,0,0,0,0,0,0,0,0,-1,1147,1156,0,0
-70,-132,0,0,0,0,0,0,0,0,0,-1,1154,1156,0,0
-63,-132,0,0,0,0,0,0,0,0,0,-1,1161,1156,0,0
-56,-132,0,0,0,0,0,0,0,0,0,-1,1168,1156,0,0
-49,-132,0,0,0,0,0,0,0,0,0,-1,1175,1156,0,0
-42,-132,0,0,0,0,0,0,0,0,0,-1,1182,1156,0,0
-35,-132,0,0,0,0,0,0,0,0,0,-1,1189,1156,0,0
-28,-132,0,0,0,0,0,0,0,0,0,-1,1196,1156,0,0
-21,-132,0,0,0,0,0,0,0,0,0,-1,1203,1156,0,0
-14,-132,0,0,0,0,0,0,0,0,0,-1,1210,1156,0,0
-7,-132,0,0,0,0,0,0,0,0,0,-1,1217,1156,0,0
0,-132,0,0,0,0,0,0,0,0,0,-1,1224,1156,0,0
7,-132,0,0,0,0,0,0,0,0,0,-1,1231,1156,0,0
14,-132,0,0,0,0,0,0,0,0,0,-1,1238,1156,0,0
21,-132,0,0,0,0,0,0,0,0,0,-1,1245,1156,0,0
28,-132,0,0,0,0,0,0,0,0,0,-1,1252,1156,0,0
35,-132,0,0,0,0,0,0,0,0,0,-1,1259,1156,0,0
42,-132,0,0,0,0,0,0,0,0,0,-1,1266,1156,0,0
49,-132,0,0,0,0,0,0,0,0,0,-1,1273,1156,0,0
56,-132,0,0,0,0,0,0,0,0,0,-1,1280,1156,0,0
63,-132,0,0,0,0,0,0,0,0,0,-1,1287,1156,0,0
70,-132,0,0,0,0,0,0,0,0,0,-1,1294,1156,0,0
77,-132,0,0,0,0,0,0,0,0,0,-1,1301,1156,0,0
84,-132,0,0,0,0,0,0,0,0,0,-1,1308,1156,0,0
91,-132,0,0,0,0,0,0,0,0,0,-1,1315,1156,0,0
98,-132,0,0,0,0,0,0,0,0,0,-1,1322,1156,0,0
105,-132,0,0,0,0,0,0,0,0,0,-1,1329,1156,0,0
112,-132,0,0,0,0,0,0,0,0,0,-1,1336,1156,0,0
119,-132,0,0,0,0,0,0,0,0,0,-1,1343,1156,0,0
126,-132,0,0,0,0,0,0,0,0,0,-1,1350,1156,0,0
133,-132,0,0,0,0,0,0,0,0,0,-1,1357,1156,0,0
140,-132,0,0,0,0,0,0,0,0,0,-1,1364,1156,0,0
147,-132,0,0,0,0,0,0,0,0,0,-1,1371,1156,0,0
154,-132,0,0,0,0,0,0,0,0,0,-1,1378,1156,0,0
161,-132,0,0,0,0,0,0,0,0,0,-1,1385,1156,0,0
168,-132,0,0,0,0,0,0,0,0,0,-1,1392,1156,0,0
175,-132,0,0,0,0,0,0,0,0,0,-1,1399,1156,0,0
182,-132,0,0,0,0,0,0,0,0,0,-1,1406,1156,0,0
189,-132,0,0,0,0,0,0,0,0,0,-1,1413,1156,0,0
196,-132,0,0,0,0,0,0,0,0,0,-1,1420,1156,0,0
203,-132,0,0,0,0,0,0,0,0,0,-1,1427,1156,0,0
210,-132,0,0,0,0,0,0,0,0,0,-1,1434,1156,0,0
217,-132,0,0,0,0,0,0,0,0,0,-1,1441,1156,0,0
224,-132,0,0,0,0,0,0,0,0,0,-1,1448,1156,0,0
231,-132,0,0,0,0,0,0,0,0,0,-1,1455,1156,0,0
238,-132,0,0,0,0,0,0,0,0,0,-1,1462,1156,0,0
245,-132,0,0,0,0,0,0,0,0,0,-1,1469,1156,0,0
252,-132,0,0,0,0,0,0,0,0,0,-1,1476,1156,0,0
259,-132,0,0,0,0,0,0,0,0,0,-1,1483,1156,0,0
266,-132,0,0,0,0,0,0,0,0,0,-1,1490,1156,0,0
273,-132,0,0,0,0,0,0,0,0,0,-1,1497,1156,0,0
280,-132,0,0,0,0,0,0,0,0,0,-1,1504,1156,0,0
287,-132,0,0,0,0,0,0,0,0,0,-1,1511,1156,0,0
294,-132,0,0,0,0,0,0,0,0,0,-1,1518,1156,0,0
301,-132,0,0,0,0,0,0,0,0,0,-1,1525,1156,0,0
308,-132,0,0,0,0,0,0,0,0,0,-1,1532,1156,0,0
315,-132,0,0,0,0,0,0,0,0,0,-1,1539,1156,0,0
322,-132,0,0,0,0,0,0,0,0,0,-1,1546,1156,0,0
329,-132,0,0,0,0,0,0,0,0,0,-1,1553,1156,0,0
336,-132,0,0,0,0,0,0,0,0,0,-1,1560,1156,0,0
343,-132,0,0,0,0,0,0,0,0,0,-1,1567,1156,0,0
350,-132,0,0,0,0,0,0,0,0,0,-1,1574,1156,0,0
357,-132,0,0,0,0,0,0,0,0,0,-1,1581,1156,0,0
364,-132,0,0,0,0,0,0,0,0,0,-1,1588,1156,0,0
371,-132,0,0,0,0,0,0,0,0,0,-1,1595,1156,0,0
378,-132,0,0,0,0,0,0,0,0,0,-1,1602,1156,0,0
385,-132,0,0,0,0,0,0,0,0,0,-1,1609,1156,0,0
392,-132,0,0,0,0,0,0,0,0,0,-1,1616,1156,0,0
399,-132,0,0,0,0,0,0,0,0,0,-1,1623,1156,0,0
406,-132,0,0,0,0,0,0,0,0,0,-1,1630,1156,0,0
413,-132,0,0,0,0,0,0,0,0,0,-1,1637,1156,0,0
420,-132,0,0,0,0,0,0,0,0,0,-1,1644,1156,0,0
427,-132,0,0,0,0,0,0,0,0,0,-1,1651,1156,0,0
434,-132,0,0,0,0,0,0,0,0,0,-1,1658,1156,0,0
441,-132,0,0,0,0,0,0,0,0,0,-1,1665,1156,0,0
448,-132,0,0,0,0,0,0,0,0,0,-1,1672,1156,0,0
455,-132,0,0,0,0,0,0,0,0,0,-1,1679,1156,0,0
462,-132,0,0,0,0,0,0,0,0,0,-1,1686,1156,0,0
469,-132,0,0,0,0,0,0,0,0,0,-1,1693,1156,0,0
476,-132,0,0,0,0,0,0,0,0,0,-1,1700,1156,0,0
483,-132,0,0,0,0,0,0,0,0,0,-1,1707,1156,0,0
490,-132,0,0,0,0,0,0,0,0,0,-1,1714,1156,0,0
497,-132,0,0,0,0,0,0,0,0,0,-1,1721,1156,0,0
504,-132,0,0,0,0,0,0,0,0,0,-1,1728,1156,0,0
511,-132,0,0,0,0,0,0,0,0,0,-1,1735,1156,0,0
518,-132,0,0,0,0,0,0,0,0,0,-1,1742,1156,0,0
525,-132,0,0,0,0,0,0,0,0,0,-1,1749,1156,0,0
532,-132,0,0,0,0,0,0,0,0,0,-1,1756,1156,0,0
539,-132,0,0,0,0,0,0,0,0,0,-1,1763,1156,0,0
546,-132,0,0,0,0,0,0,0,0,0,-1,1770,1156,0,0
553,-132,0,0,0,0,0,0,0,0,0,-1,1777,1156,0,0
560,-132,0,0,0,0,0,0,0,0,0,-1,1784,1156,0,0
567,-132,0,0,0,0,0,0,0,0,0,-1,1791,1156,0,0
574,-132,0,0,0,0,0,0,0,0,0,-1,1798,1156,0,0
581,-132,0,0,0,0,0,0,0,0,0,-1,1805,1156,0,0
588,-132,0,0,0,0,0,0,0,0,0,-1,1812,1156,0,0
595,-132,0,0,0,0,0,0,0,0,0,-1,1819,1156,0,0
602,-132,0,0,0,0,0,0,0,0,0,-1,1826,1156,0,0
609,-132,0,0,0,0,0,0,0,0,0,-1,1833,1156,0,0
616,-132,0,0,0,0,0,0,0,0,0,-1,1840,1156,0,0
623,-132,0,0,0,0,0,0,0,0,0,-1,1847,1156,0,0
630,-132,0,0,0,0,0,0,0,0,0,-1,1854,1156,0,0
637,-132,0,0,0,0,0,0,0,0,0,-1,1861,1156,0,0
644,-132,56.3285,1.83386,0.00706846,-0.000231188,0.00922898,0.0133431,-0.00650585,0.597099,0.0116842,0.0424927,1868,1156,56.3285,-1.83385
651,-132,56.3726,2.37952,0.00479098,-0.000480111,0.00757131,0.0101723,-0.00586147,0.617909,0.00936799,0.0382209,1875,1156,56.3726,-2.37949
658,-132,56.2921,2.67957,0.00318841,-0.000448042,0.00587566,0.00752074,-0.00478037,0.635346,0.00716055,0.0416884,1882,1156,56.2921,-2.67959
665,-132,56.0859,2.828,0.00194484,-0.000240547,0.00412454,0.00511897,-0.00341468,0.65591,0.00495955,0.0442875,1889,1156,56.0859,-2.82802
672,-132,56.088,2.80029,0.00087973,0.000118811,0.0025288,0.00305653,-0.00205799,0.710733,0.00297157,0.0406127,1896,1156,56.088,-2.80031
679,-132,56.1956,2.75818,-2.7379e-05,0.000276982,0.00148763,0.0016202,-0.00137059,0.836369,0.00172874,0.0374792,1903,1156,56.1956,-2.75819
686,-132,56.2535,2.85461,-0.000394581,0.000245168,0.000993085,0.000968624,-0.00111804,0.941202,0.00120576,0.0352627,1910,1156,56.2536,-2.85463
693,-132,56.2212,2.724,-0.000558293,0.000218282,0.000823322,0.000740284,-0.00108029,1.00574,0.0010572,0.0292635,1917,1156,56.2212,-2.72404
700,-132,56.192,2.52686,-0.00081568,0.000161887,0.000644416,0.000481918,-0.00113571,1.10985,0.000959028,0.0484599,1924,1156,56.192,-2.52683
707,-132,56.1859,2.323,0,0,0,0,0,0,0,-1,1931,1156,56.1859,-2.32295
714,-132,50.2961,8.3894,0,0,0,0,0,0,0,-1,1938,1156,50.2961,-8.3894
721,-132,50.3468,8.02332,-0.00106655,0.000182477,0.000659403,0.000466164,-0.00135024,1.16451,0.00108932,0.0407104,1945,1156,50.3468,-8.02335
728,-132,50.2106,7.6759,-0.00104032,0.000148945,0.000957562,0.000681482,-0.00157286,1.06325,0.00133503,0.0299401,1952,1156,50.2106,-7.67589
735,-132,50.1414,7.31921,-0.000988956,0.000241212,0.00146755,0.00121736,-0.00196511,0.983839,0.00185423,0.0312362,1959,1156,50.1414,-7.31918
742,-132,50.1699,6.80542,-0.000926808,0.000239148,0.0019873,0.00172722,-0.00241488,0.928071,0.0024024,0.0238187,1966,1156,50.1699,-6.80538
749,-132,50.1328,6.34216,-0.000867478,0.000688517,0.00283548,0.0028508,-0.00302976,0.919293,0.00339566,0.0260581,1973,1156,50.1328,-6.34217
756,-132,50.1431,5.88062,-0.000277657,0.00178925,0.00355767,0.00446053,-0.00294894,0.926751,0.00430743,0.0235807,1980,1156,50.1431,-5.88066
763,-132,50.1536,5.44666,0.00113483,0.00426025,0.00441652,0.00738238,-0.00198729,0.955441,0.00570068,0.0136086,1987,1156,50.1536,-5.44659
770,-132,50.1422,5.03735,0.00272289,0.00713141,0.00526523,0.0106352,-0.000780866,0.983635,0.00736421,0.0142309,1994,1156,50.1422,-5.03735
777,-132,50.074,4.63354,0.00464444,0.0107543,0.0060094,0.0144407,0.000958029,1.02055,0.00932419,0.0243271,2001,1156,50.074,-4.63359
784,-132,50.2463,4.19031,0.0069654,0.0154003,0.00660079,0.019016,0.00334977,1.06968,0.0117214,0.0463618,2008,1156,50.2463,-4.19034
791,-132,50.4998,3.7312,0,0,0,0,0,0,0,-1,2015,1156,50.4997,-3.73116
798,-132,50.0659,5.49365,0,0,0,0,0,0,0,-1,2022,1156,50.066,-5.49364
805,-132,50.3525,5.25891,0,0,0,0,0,0,0,-1,2029,1156,50.3526,-5.25897
812,-132,50.3479,4.25354,0,0,0,0,0,0,0,-1,2036,1156,50.3479,-4.25355
-700,-139,0,0,0,0,0,0,0,0,0,-1,524,1163,0,0
-693,-139,-37.64,-0.578491,0,0,0,0,0,0,0,-1,531,1163,-37.64,0.578551
-686,-139,-44.5213,2.33203,0,0,0,0,0,0,0,-1,538,1163,-44.5213,-2.332
-679,-139,-44.0999,2.57007,0,0,0,0,0,0,0,-1,545,1163,-44.0999,-2.57002
-672,-139,-43.6786,2.80798,0,0,0,0,0,0,0,-1,552,1163,-43.6786,-2.80804
-665,-139,-36.8499,0.148682,0.0448543,0.0114018,0.0441028,0.0752961,-0.01904,0.604149,0.0576027,0.0444308,559,1163,-36.8498,-0.148629
-658,-139,-36.7774,1.01733,0,0,0,0,0,0,0,-1,566,1163,-36.7774,-1.01733
-651,-139,-35.9818,1.39612,0.0283795,0.00851318,0.0231489,0.0436364,-0.00674375,0.58273,0.0315798,0.0446399,573,1163,-35.9818,-1.39617
-644,-139,-35.345,1.82898,0.0208549,0.00699139,0.015284,0.0307056,-0.00285932,0.572506,0.021487,0.0252518,580,1163,-35.345,-1.82894
-637,-139,-35.3665,2.30115,0.014227,0.00541958,0.00904057,0.0198794,-0.00023277,0.558758,0.0133312,0.0133128,587,1163,-35.3665,-2.30111
-630,-139,-35.3806,2.80334,0.00829141,0.00402911,0.0039266,0.0106279,0.0016926,0.536769,0.00659389,0.0108849,594,1163,-35.3806,-2.80333
-623,-139,-35.4021,3.30457,0.00358682,0.00226816,0.000489358,0.00374858,0.0021064,0.319246,0.00216977,0.0176613,601,1163,-35.4021,-3.30453
-616,-139,-35.4514,3.79089,0.000470491,0.000596685,-0.00106066,0.00159612,-0.000528946,-0.815107,0.00127744,0.0189986,608,1163,-35.4514,-3.7909
-609,-139,-35.2978,4.31079,-0.000638774,-0.000175699,-0.00108548,0.000702666,-0.00151714,-0.890475,0.00131005,0.0476047,615,1163,-35.2978,-4.31084
-602,-139,-35.399,4.83691,-0.000729565,-0.000284491,-0.00140261,0.000913127,-0.00192718,-0.864072,0.00167433,0.0376991,622,1163,-35.399,-4.83687
-595,-139,-35.5987,5.31567,-0.000709661,-0.000215436,-0.00135678,0.000916554,-0.00184165,-0.875476,0.00162203,0.0460861,629,1163,-35.5987,-5.31564
-588,-139,-35.8469,5.75085,0,0,0,0,0,0,0,-1,636,1163,-35.8468,-5.7509
-581,-139,-34.4892,6.72473,0,0,0,0,0,0,0,-1,643,1163,-34.4892,-6.72476
-574,-139,-23.0725,2.4043,0,0,0,0,0,0,0,-1,650,1163,-23.0725,-2.40433
-567,-139,-42.0566,0.774658,0,0,0,0,0,0,0,-1,657,1163,-42.0566,-0.774685
-560,-139,-42.0541,0.826416,0.00185508,-0.000393797,-0.0012354,0.00240114,-0.000939857,-0.416191,0.00198948,0.0351329,664,1163,-42.0541,-0.826377
-553,-139,-42.0701,0.849976,0.00206547,-0.000249317,-0.00130529,0.00265259,-0.000836441,-0.42269,0.0021034,0.0391243,671,1163,-42.0701,-0.849958
-546,-139,-42.0757,0.845093,0.00297634,-0.000227671,-0.00126455,0.00341529,-0.000666622,-0.334108,0.00252853,0.0414071,678,1163,-42.0757,-0.845073
-539,-139,-42.0259,0.945313,0.00456633,-0.000957382,-0.00140305,0.00490228,-0.00129333,-0.235017,0.0037739,0.0406931,685,1163,-42.0259,-0.9453
-532,-139,-41.8932,0.876709,0.00662363,-0.00238398,-0.00151079,0.00687027,-0.00263062,-0.161826,0.00566446,0.0396342,692,1163,-41.8933,-0.876653
-525,-139,-42.1516,0.824829,0,0,0,0,0,0,0,-1,699,1163,-42.1516,-0.824818
-518,-139,0,0,0,0,0,0,0,0,0,-1,706,1163,0,0
-511,-139,0,0,0,0,0,0,0,0,0,-1,713,1163,0,0
-504,-139,0,0,0,0,0,0,0,0,0,-1,720,1163,0,0
-497,-139,0,0,0,0,0,0,0,0,0,-1,727,1163,0,0
-490,-139,0,0,0,0,0,0,0,0,0,-1,734,1163,0,0
-483,-139,0,0,0,0,0,0,0,0,0,-1,741,1163,0,0
-476,-139,0,0,0,0,0,0,0,0,0,-1,748,1163,0,0
-469,-139,0,0,0,0,0,0,0,0,0,-1,755,1163,0,0
-462,-139,0,0,0,0,0,0,0,0,0,-1,762,1163,0,0
-455,-139,0,0,0,0,0,0,0,0,0,-1,769,1163,0,0
-448,-139,0,0,0,0,0,0,0,0,0,-1,776,1163,0,0
-441,-139,0,0,0,0,0,0,0,0,0,-1,783,1163,0,0
-434,-139,0,0,0,0,0,0,0,0,0,-1,790,1163,0,0
-427,-139,0,0,0,0,0,0,0,0,0,-1,797,1163,0,0
-420,-139,0,0,0,0,0,0,0,0,0,-1,804,1163,0,0
-413,-139,0,0,0,0,0,0,0,0,0,-1,811,1163,0,0
-406,-139,0,0,0,0,0,0,0,0,0,-1,818,1163,0,0
-399,-139,0,0,0,0,0,0,0,0,0,-1,825,1163,0,0
-392,-139,0,0,0,0,0,0,0,0,0,-1,832,1163,0,0
-385,-139,0,0,0,0,0,0,0,0,0,-1,839,1163,0,0
-378,-139,0,0,0,0,0,0,0,0,0,-1,846,1163,0,0
-371,-139,0,0,0,0,0,0,0,0,0,-1,853,1163,0,0
-364,-139,0,0,0,0,0,0,0,0,0,-1,860,1163,0,0
-357,-139,0,0,0,0,0,0,0,0,0,-1,867,1163,0,0
-350,-139,0,0,0,0,0,0,0,0,0,-1,874,1163,0,0
-343,-139,0,0,0,0,0,0,0,0,0,-1,881,1163,0,0
-336,-139,0,0,0,0,0,0,0,0,0,-1,888,1163,0,0
-329,-139,0,0,0,0,0,0,0,0,0,-1,895,1163,0,0
-322,-139,0,0,0,0,0,0,0,0,0,-1,902,1163,0,0
-315,-139,0,0,0,0,0,0,0,0,0,-1,909,1163,0,0
-308,-139,0,0,0,0,0,0,0,0,0,-1,916,1163,0,0
-301,-139,0,0,0,0,0,0,0,0,0,-1,923,1163,0,0
-294,-139,0,0,0,0,0,0,0,0,0,-1,930,1163,0,0
-287,-139,0,0,0,0,0,0,0,0,0,-1,937,1163,0,0
-280,-139,0,0,0,0,0,0,0,0,0,-1,944,1163,0,0
-273,-139,0,0,0,0,0,0,0,0,0,-1,951,1163,0,0
-266,-139,0,0,0,0,0,0,0,0,0,-1,958,1163,0,0
-259,-139,0,0,0,0,0,0,0,0,0,-1,965,1163,0,0
-252,-139,0,0,0,0,0,0,0,0,0,-1,972,1163,0,0
-245,-139,0,0,0,0,0,0,0,0,0,-1,979,1163,0,0
-238,-139,0,0,0,0,0,0,0,0,0,-1,986,1163,0,0
-231,-139,0,0,0,0,0,0,0,0,0,-1,993,1163,0,0
-224,-139,0,0,0,0,0,0,0,0,0,-1,1000,1163,0,0
-217,-139,0,0,0,0,0,0,0,0,0,-1,1007,1163,0,0
-210,-139,0,0,0,0,0,0,0,0,0,-1,1014,1163,0,0
-203,-139,0,0,0,0,0,0,0,0,0,-1,1021,1163,0,0
-196,-139,0,0,0,0,0,0,0,0,0,-1,1028,1163,0,0
-189,-139,0,0,0,0,0,0,0,0,0,-1,1035,1163,0,0
-182,-139,0,0,0,0,0,0,0,0,0,-1,1042,1163,0,0
-175,-139,0,0,0,0,0,0,0,0,0,-1,1049,1163,0,0
-168,-139,0,0,0,0,0,0,0,0,0,-1,1056,1163,0,0
-161,-139,0,0,0,0,0,0,0,0,0,-1,1063,1163,0,0
-154,-139,0,0,0,0,0,0,0,0,0,-1,1070,1163,0,0
-147,-139,0,0,0,0,0,0,0,0,0,-1,1077,1163,0,0
-140,-139,0,0,0,0,0,0,0,0,0,-1,1084,1163,0,0
-133,-139,0,0,0,0,0,0,0,0,0,-1,1091,1163,0,0
-126,-139,0,0,0,0,0,0,0,0,0,-1,1098,1163,0,0
-119,-139,0,0,0,0,0,0,0,0,0,-1,1105,1163,0,0
-112,-139,0,0,0,0,0,0,0,0,0,-1,1112,1163,0,0
-105,-139,0,0,0,0,0,0,0,0,0,-1,1119,1163,0,0
-98,-139,0,0,0,0,0,0,0,0,0,-1,1126,1163,0,0
-91,-139,0,0,0,0,0,0,0,0,0,-1,1133,1163,0,0
-84,-139,0,0,0,0,0,0,0,0,0,-1,1140,1163,0,0
-77,-139,0,0,0,0,0,0,0,0,0,-1,1147,1163,0,0
-70,-139,0,0,0,0,0,0,0,0,0,-1,1154,1163,0,0
-63,-139,0,0,0,0,0,0,0,0,0,-1,1161,1163,0,0
-56,-139,0,0,0,0,0,0,0,0,0,-1,1168,1163,0,0
-49,-139,0,0,0,0,0,0,0,0,0,-1,1175,1163,0,0
-42,-139,0,0,0,0,0,0,0,0,0,-1,1182,1163,0,0
-35,-139,0,0,0,0,0,0,0,0,0,-1,1189,1163,0,0
-28,-139,0,0,0,0,0,0,0,0,0,-1,1196,1163,0,0
-21,-139,0,0,0,0,0,0,0,0,0,-1,1203,1163,0,0
-14,-139,0,0,0,0,0,0,0,0,0,-1,1210,1163,0,0
-7,-139,0,0,0,0,0,0,0,0,0,-1,1217,1163,0,0
0,-139,0,0,0,0,0,0,0,0,0,-1,1224,1163,0,0
7,-139,0,0,0,0,0,0,0,0,0,-1,1231,1163,0,0
14,-139,0,0,0,0,0,0,0,0,0,-1,1238,1163,0,0
21,-139,0,0,0,0,0,0,0,0,0,-1,1245,1163,0,0
28,-139,0,0,0,0,0,0,0,0,0,-1,1252,1163,0,0
35,-139,0,0,0,0,0,0,0,0,0,-1,1259,1163,0,0
42,-139,0,0,0,0,0,0,0,0,0,-1,1266,1163,0,0
49,-139,0,0,0,0,0,0,0,0,0,-1,1273,1163,0,0
56,-139,0,0,0,0,0,0,0,0,0,-1,1280,1163,0,0
63,-139,0,0,0,0,0,0,0,0,0,-1,1287,1163,0,0
70,-139,0,0,0,0,0,0,0,0,0,-1,1294,1163,0,0
77,-139,0,0,0,0,0,0,0,0,0,-1,1301,1163,0,0
84,-139,0,0,0,0,0,0,0,0,0,-1,1308,1163,0,0
91,-139,0,0,0,0,0,0,0,0,0,-1,1315,1163,0,0
98,-139,0,0,0,0,0,0,0,0,0,-1,1322,1163,0,0
105,-139,0,0,0,0,0,0,0,0,0,-1,1329,1163,0,0
112,-139,0,0,0,0,0,0,0,0,0,-1,1336,1163,0,0
119,-139,0,0,0,0,0,0,0,0,0,-1,1343,1163,0,0
126,-139,0,0,0,0,0,0,0,0,0,-1,1350,1163,0,0
133,-139,0,0,0,0,0,0,0,0,0,-1,1357,1163,0,0
140,-139,0,0,0,0,0,0,0,0,0,-1,1364,1163,0,0
147,-139,0,0,0,0,0,0,0,0,0,-1,1371,1163,0,0
154,-139,0,0,0,0,0,0,0,0,0,-1,1378,1163,0,0
161,-139,0,0,0,0,0,0,0,0,0,-1,1385,1163,0,0
168,-139,0,0,0,0,0,0,0,0,0,-1,1392,1163,0,0
175,-139,0,0,0,0,0,0,0,0,0,-1,1399,1163,0,0
182,-139,0,0,0,0,0,0,0,0,0,-1,1406,1163,0,0
189,-139,0,0,0,0,0,0,0,0,0,-1,1413,1163,0,0
196,-139,0,0,0,0,0,0,0,0,0,-1,1420,1163,0,0
203,-139,0,0,0,0,0,0,0,0,0,-1,1427,1163,0,0
210,-139,0,0,0,0,0,0,0,0,0,-1,1434,1163,0,0
217,-139,0,0,0,0,0,0,0,0,0,-1,1441,1163,0,0
224,-139,0,0,0,0,0,0,0,0,0,-1,1448,1163,0,0
231,-139,0,0,0,0,0,0,0,0,0,-1,1455,1163,0,0
238,-139,0,0,0,0,0,0,0,0,0,-1,1462,1163,0,0
245,-139,0,0,0,0,0,0,0,0,0,-1,1469,1163,0,0
252,-139,0,0,0,0,0,0,0,0,0,-1,1476,1163,0,0
259,-139,0,0,0,0,0,0,0,0,0,-1,1483,1163,0,0
266,-139,0,0,0,0,0,0,0,0,0,-1,1490,1163,0,0
273,-139,0,0,0,0,0,0,0,0,0,-1,1497,1163,0,0
280,-139,0,0,0,0,0,0,0,0,0,-1,1504,1163,0,0
287,-139,0,0,0,0,0,0,0,0,0,-1,1511,1163,0,0
294,-139,0,0,0,0,0,0,0,0,0,-1,1518,1163,0,0
301,-139,0,0,0,0,0,0,0,0,0,-1,1525,1163,0,0
308,-139,0,0,0,0,0,0,0,0,0,-1,1532,1163,0,0
315,-139,0,0,0,0,0,0,0,0,0,-1,1539,1163,0,0
322,-139,0,0,0,0,0,0,0,0,0,-1,1546,1163,0,0
329,-139,0,0,0,0,0,0,0,0,0,-1,1553,1163,0,0
336,-139,0,0,0,0,0,0,0,0,0,-1,1560,1163,0,0
343,-139,0,0,0,0,0,0,0,0,0,-1,1567,1163,0,0
350,-139,0,0,0,0,0,0,0,0,0,-1,1574,1163,0,0
357,-139,0,0,0,0,0,0,0,0,0,-1,1581,1163,0,0
364,-139,0,0,0,0,0,0,0,0,0,-1,1588,1163,0,0
371,-139,0,0,0,0,0,0,0,0,0,-1,1595,1163,0,0
378,-139,0,0,0,0,0,0,0,0,0,-1,1602,1163,0,0
385,-139,0,0,0,0,0,0,0,0,0,-1,1609,1163,0,0
392,-139,0,0,0,0,0,0,0,0,0,-1,1616,1163,0,0
399,-139,0,0,0,0,0,0,0,0,0,-1,1623,1163,0,0
406,-139,0,0,0,0,0,0,0,0,0,-1,1630,1163,0,0
413,-139,0,0,0,0,0,0,0,0,0,-1,1637,1163,0,0
420,-139,0,0,0,0,0,0,0,0,0,-1,1644,1163,0,0
427,-139,0,0,0,0,0,0,0,0,0,-1,1651,1163,0,0
434,-139,0,0,0,0,0,0,0,0,0,-1,1658,1163,0,0
441,-139,0,0,0,0,0,0,0,0,0,-1,1665,1163,0,0
448,-139,0,0,0,0,0,0,0,0,0,-1,1672,1163,0,0
455,-139,0,0,0,0,0,0,0,0,0,-1,1679,1163,0,0
462,-139,0,0,0,0,0,0,0,0,0,-1,1686,1163,0,0
469,-139,0,0,0,0,0,0,0,0,0,-1,1693,1163,0,0
476,-139,0,0,0,0,0,0,0,0,0,-1,1700,1163,0,0
483,-139,0,0,0,0,0,0,0,0,0,-1,1707,1163,0,0
490,-139,0,0,0,0,0,0,0,0,0,-1,1714,1163,0,0
497,-139,0,0,0,0,0,0,0,0,0,-1,1721,1163,0,0
504,-139,0,0,0,0,0,0,0,0,0,-1,1728,1163,0,0
511,-139,0,0,0,0,0,0,0,0,0,-1,1735,1163,0,0
518,-139,0,0,0,0,0,0,0,0,0,-1,1742,1163,0,0
525,-139,0,0,0,0,0,0,0,0,0,-1,1749,1163,0,0
532,-139,0,0,0,0,0,0,0,0,0,-1,1756,1163,0,0
539,-139,0,0,0,0,0,0,0,0,0,-1,1763,1163,0,0
546,-139,0,0,0,0,0,0,0,0,0,-1,1770,1163,0,0
553,-139,0,0,0,0,0,0,0,0,0,-1,1777,1163,0,0
560,-139,0,0,0,0,0,0,0,0,0,-1,1784,1163,0,0
567,-139,0,0,0,0,0,0,0,0,0,-1,1791,1163,0,0
574,-139,0,0,0,0,0,0,0,0,0,-1,1798,1163,0,0
581,-139,0,0,0,0,0,0,0,0,0,-1,1805,1163,0,0
588,-139,0,0,0,0,0,0,0,0,0,-1,1812,1163,0,0
595,-139,0,0,0,0,0,0,0,0,0,-1,1819,1163,0,0
602,-139,0,0,0,0,0,0,0,0,0,-1,1826,1163,0,0
609,-139,0,0,0,0,0,0,0,0,0,-1,1833,1163,0,0
616,-139,0,0,0,0,0,0,0,0,0,-1,1840,1163,0,0
623,-139,0,0,0,0,0,0,0,0,0,-1,1847,1163,0,0
630,-139,0,0,0,0,0,0,0,0,0,-1,1854,1163,0,0
637,-139,0,0,0,0,0,0,0,0,0,-1,1861,1163,0,0
644,-139,56.2728,2.26892,0.00596041,-0.000175957,0.00882827,0.0122385,-0.00645401,0.618157,0.010963,0.0396744,1868,1163,56.2728,-2.26896
651,-139,56.1259,2.6521,0.00409653,-0.00022645,0.00720289,0.00945526,-0.00558518,0.63963,0.0087789,0.039874,1875,1163,56.1258,-2.65209
658,-139,56.1467,2.86096,0.00273026,-3.47799e-05,0.00546634,0.0069862,-0.00429071,0.661538,0.00657243,0.0433955,1882,1163,56.1467,-2.86093
665,-139,56.2367,2.85974,0.00172763,0.000313223,0.00367559,0.00476343,-0.00272258,0.690357,0.00437526,0.0418673,1889,1163,56.2367,-2.85973
672,-139,56.2443,2.88318,0.000834268,0.000774265,0.0020609,0.00286538,-0.00125685,0.77812,0.00243962,0.0383813,1896,1163,56.2443,-2.88312
679,-139,56.2706,2.78149,7.24241e-05,0.000918973,0.00106635,0.00164298,-0.000651583,0.974331,0.00136536,0.0335804,1903,1163,56.2707,-2.78147
686,-139,56.1973,2.72253,-0.000211507,0.000791176,0.000701249,0.00115186,-0.000572194,1.09573,0.00101397,0.0322138,1910,1163,56.1973,-2.72248
693,-139,56.2156,2.67029,-0.000352885,0.000684094,0.000646328,0.0009942,-0.000662991,1.12344,0.000963129,0.0238165,1917,1163,56.2155,-2.67034
700,-139,56.2439,2.50928,0,0,0,0,0,0,0,-1,1924,1163,56.2438,-2.50926
707,-139,32.116,6.54346,0,0,0,0,0,0,0,-1,1931,1163,32.116,-6.54343
714,-139,49.7374,8.6897,0,0,0,0,0,0,0,-1,1938,1163,49.7374,-8.68964
721,-139,49.9268,8.0769,-0.000792808,0.000417801,0.000599724,0.000664589,-0.0010396,1.18041,0.000991821,0.0370374,1945,1163,49.9268,-8.07686
728,-139,49.7289,7.78247,-0.000777401,0.000250943,0.00092233,0.000792738,-0.0013192,1.03968,0.00123189,0.0476991,1952,1163,49.7289,-7.78252
735,-139,49.604,7.42017,-0.000804971,0.00020573,0.00144817,0.00123419,-0.00183343,0.953271,0.00178232,0.0354177,1959,1163,49.604,-7.42017
742,-139,49.7118,6.77441,-0.000788131,0.000115829,0.00202099,0.00173476,-0.00240706,0.89541,0.00240176,0.0240181,1966,1163,49.7118,-6.77442
749,-139,49.6803,6.28748,-0.000672594,0.000493124,0.0029739,0.00294074,-0.00312021,0.882167,0.0034998,0.0209133,1973,1163,49.6804,-6.28743
756,-139,49.6526,5.86816,3.18266e-05,0.00155023,0.00383961,0.00470498,-0.00312292,0.883004,0.00455011,0.0113628,1980,1163,49.6526,-5.86822
763,-139,49.6195,5.42456,0.00139114,0.00386969,0.00489752,0.0076823,-0.00242147,0.909318,0.00609129,0.0113847,1987,1163,49.6195,-5.4246
770,-139,49.6334,5.01208,0.00288088,0.00655509,0.00599659,0.0109897,-0.0015537,0.934038,0.00789547,0.0132724,1994,1163,49.6334,-5.01204
777,-139,49.6401,4.66064,0.00454655,0.00995022,0.00704633,0.014795,-0.000298183,0.968472,0.00996419,0.0253688,2001,1163,49.6401,-4.66062
784,-139,49.5344,4.41895,0.00641696,0.0142644,0.00801929,0.0192684,0.00141294,1.01292,0.0124015,0.043049,2008,1163,49.5343,-4.41898
791,-139,49.4731,4.13232,0,0,0,0,0,0,0,-1,2015,1163,49.4731,-4.13238
798,-139,48.3445,4.74841,0,0,0,0,0,0,0,-1,2022,1163,48.3445,-4.74846
805,-139,48.3787,4.92615,0,0,0,0,0,0,0,-1,2029,1163,48.3787,-4.92615
812,-139,0,0,0,0,0,0,0,0,0,-1,2036,1163,0,0
-700,-146,0,0,0,0,0,0,0,0,0,-1,524,1170,0,0
-693,-146,-37.6311,-0.418701,0,0,0,0,0,0,0,-1,531,1170,-37.6311,0.418746
-686,-146,-37.0646,-0.0213623,0,0,0,0,0,0,0,-1,538,1170,-37.0646,0.0213838
-679,-146,-44.1114,2.55164,0,0,0,0,0,0,0,-1,545,1170,-44.1114,-2.55165
-672,-146,-36.4721,-1.29187,0.0475457,0.0190858,0.0565341,0.0916132,-0.0249817,0.662106,0.0708856,0.0424518,552,1170,-36.4721,1.29185
-665,-146,-36.5399,-0.38208,0.0407317,0.016136,0.0437343,0.0738643,-0.0169966,0.64834,0.0557784,0.0445773,559,1170,-36.5399,0.382132
-658,-146,-35.4049,0.974854,0,0,0,0,0,0,0,-1,566,1170,-35.4049,-0.974831
-651,-146,-35.1016,1.37781,0.0260223,0.0106882,0.0232526,0.0428393,-0.00612877,0.626147,0.0308063,0.0425237,573,1170,-35.1016,-1.37778
-644,-146,-34.7704,1.79626,0.0192664,0.00828344,0.0154887,0.0302083,-0.00265848,0.615038,0.021081,0.0239944,580,1170,-34.7704,-1.79624
-637,-146,-34.825,2.30066,0.0133101,0.00608158,0.00938758,0.0197552,-0.000363452,0.601641,0.0132929,0.0118155,587,1170,-34.825,-2.30063
-630,-146,-34.8574,2.80066,0.0078669,0.00426089,0.00428624,0.0107139,0.00141388,0.586309,0.00672107,0.0111038,594,1170,-34.8574,-2.80068
-623,-146,-34.881,3.30359,0.0033841,0.00225688,0.000757562,0.00376472,0.00187627,0.465581,0.00217356,0.0138954,601,1170,-34.881,-3.3036
-616,-146,-34.9683,3.82288,0.00018597,0.000485711,-0.00102336,0.00137012,-0.00069844,-0.858106,0.00121509,0.0179193,608,1170,-34.9683,-3.8229
-609,-146,-34.7396,4.42261,-0.00113917,-8.66206e-05,-0.00110846,0.000614151,-0.00183994,-1.00703,0.00147461,0.0317124,615,1170,-34.7396,-4.42266
-602,-146,-34.8911,4.99023,0,0,0,0,0,0,0,-1,622,1170,-34.8911,-4.9902
-595,-146,-35.1039,5.38416,0,0,0,0,0,0,0,-1,629,1170,-35.1039,-5.38412
-588,-146,-35.3167,5.77808,0,0,0,0,0,0,0,-1,636,1170,-35.3167,-5.77804
-581,-146,-31.7815,6.30347,0,0,0,0,0,0,0,-1,643,1170,-31.7815,-6.3035
-574,-146,-17.9915,3.79114,0,0,0,0,0,0,0,-1,650,1170,-17.9915,-3.79118
-567,-146,-41.9874,0.600586,0,0,0,0,0,0,0,-1,657,1170,-41.9873,-0.60058
-560,-146,-42.0305,0.763916,0.00121613,-0.000109456,-0.00139731,0.00209988,-0.0009932,-0.563945,0.00182349,0.0471171,664,1170,-42.0304,-0.76386
-553,-146,-42.041,0.828003,0.00131614,9.20904e-05,-0.00148874,0.00231374,-0.000905517,-0.590378,0.001917,0.0389293,671,1170,-42.041,-0.828021
-546,-146,-41.9545,0.743164,0.00241892,0.000214505,-0.00132197,0.00303789,-0.000404466,-0.437902,0.00217267,0.040774,678,1170,-41.9545,-0.743216
-539,-146,-41.9306,0.754761,0.00442347,-0.000371092,-0.00117553,0.00469617,-0.000643798,-0.227953,0.00336597,0.0405009,685,1170,-41.9306,-0.754744
-532,-146,-41.6218,0.636475,0.00700832,-0.00169335,-0.000871169,0.00709468,-0.00177971,-0.0988084,0.00542129,0.0393852,692,1170,-41.6218,-0.636446
-525,-146,-41.5781,0.425903,0.00957772,-0.00299867,-0.000482494,0.00959621,-0.00301715,-0.03829,0.00760536,0.0415465,699,1170,-41.5781,-0.425923
-518,-146,0,0,0,0,0,0,0,0,0,-1,706,1170,0,0
-511,-146,0,0,0,0,0,0,0,0,0,-1,713,1170,0,0
-504,-146,0,0,0,0,0,0,0,0,0,-1,720,1170,0,0
-497,-146,0,0,0,0,0,0,0,0,0,-1,727,1170,0,0
-490,-146,0,0,0,0,0,0,0,0,0,-1,734,1170,0,0
-483,-146,0,0,0,0,0,0,0,0,0,-1,741,1170,0,0
-476,-146,0,0,0,0,0,0,0,0,0,-1,748,1170,0,0
-469,-146,0,0,0,0,0,0,0,0,0,-1,755,1170,0,0
-462,-146,0,0,0,0,0,0,0,0,0,-1,762,1170,0,0
-455,-146,0,0,0,0,0,0,0,0,0,-1,769,1170,0,0
-448,-146,0,0,0,0,0,0,0,0,0,-1,776,1170,0,0
-441,-146,0,0,0,0,0,0,0,0,0,-1,783,1170,0,0
-434,-146,0,0,0,0,0,0,0,0,0,-1,790,1170,0,0
-427,-146,0,0,0,0,0,0,0,0,0,-1,797,1170,0,0
-420,-146,0,0,0,0,0,0,0,0,0,-1,804,1170,0,0
-413,-146,0,0,0,0,0,0,0,0,0,-1,811,1170,0,0
-406,-146,0,0,0,0,0,0,0,0,0,-1,818,1170,0,0
-399,-146,0,0,0,0,0,0,0,0,0,-1,825,1170,0,0
-392,-146,0,0,0,0,0,0,0,0,0,-1,832,1170,0,0
-385,-146,0,0,0,0,0,0,0,0,0,-1,839,1170,0,0
-378,-146,0,0,0,0,0,0,0,0,0,-1,846,1170,0,0
-371,-146,0,0,0,0,0,0,0,0,0,-1,853,1170,0,0
-364,-146,0,0,0,0,0,0,0,0,0,-1,860,1170,0,0
-357,-146,0,0,0,0,0,0,0,0,0,-1,867,1170,0,0
-350,-146,0,0,0,0,0,0,0,0,0,-1,874,1170,0,0
-343,-146,0,0,0,0,0,0,0,0,0,-1,881,1170,0,0
-336,-146,0,0,0,0,0,0,0,0,0,-1,888,1170,0,0
-329,-146,0,0,0,0,0,0,0,0,0,-1,895,1170,0,0
-322,-146,0,0,0,0,0,0,0,0,0,-1,902,1170,0,0
-315,-146,0,0,0,0,0,0,0,0,0,-1,909,1170,0,0
-308,-146,0,0,0,0,0,0,0,0,0,-1,916,1170,0,0
-301,-146,0,0,0,0,0,0,0,0,0,-1,923,1170,0,0
-294,-146,0,0,0,0,0,0,0,0,0,-1,930,1170,0,0
-287,-146,0,0,0,0,0,0,0,0,0,-1,937,1170,0,0
-280,-146,0,0,0,0,0,0,0,0,0,-1,944,1170,0,0
-273,-146,0,0,0,0,0,0,0,0,0,-1,951,1170,0,0
-266,-146,0,0,0,0,0,0,0,0,0,-1,958,1170,0,0
-259,-146,0,0,0,0,0,0,0,0,0,-1,965,1170,0,0
-252,-146,0,0,0,0,0,0,0,0,0,-1,972,1170,0,0
-245,-146,0,0,0,0,0,0,0,0,0,-1,979,1170,0,0
-238,-146,0,0,0,0,0,0,0,0,0,-1,986,1170,0,0
-231,-146,0,0,0,0,0,0,0,0,0,-1,993,1170,0,0
-224,-146,0,0,0,0,0,0,0,0,0,-1,1000,1170,0,0
-217,-146,0,0,0,0,0,0,0,0,0,-1,1007,1170,0,0
-210,-146,0,0,0,0,0,0,0,0,0,-1,1014,1170,0,0
-203,-146,0,0,0,0,0,0,0,0,0,-1,1021,1170,0,0
-196,-146,0,0,0,0,0,0,0,0,0,-1,1028,1170,0,0
-189,-146,0,0,0,0,0,0,0,0,0,-1,1035,1170,0,0
-182,-146,0,0,0,0,0,0,0,0,0,-1,1042,1170,0,0
-175,-146,0,0,0,0,0,0,0,0,0,-1,1049,1170,0,0
-168,-146,0,0,0,0,0,0,0,0,0,-1,1056,1170,0,0
-161,-146,0,0,0,0,0,0,0,0,0,-1,1063,1170,0,0
-154,-146,0,0,0,0,0,0,0,0,0,-1,1070,1170,0,0
-147,-146,0,0,0,0,0,0,0,0,0,-1,1077,1170,0,0
-140,-146,0,0,0,0,0,0,0,0,0,-1,1084,1170,0,0
-133,-146,0,0,0,0,0,0,0,0,0,-1,1091,1170,0,0
-126,-146,0,0,0,0,0,0,0,0,0,-1,1098,1170,0,0
-119,-146,0,0,0,0,0,0,0,0,0,-1,1105,1170,0,0
-112,-146,0,0,0,0,0,0,0,0,0,-1,1112,1170,0,0
-105,-146,0,0,0,0,0,0,0,0,0,-1,1119,1170,0,0
-98,-146,0,0,0,0,0,0,0,0,0,-1,1126,1170,0,0
-91,-146,0,0,0,0,0,0,0,0,0,-1,1133,1170,0,0
-84,-146,0,0,0,0,0,0,0,0,0,-1,1140,1170,0,0
-77,-146,0,0,0,0,0,0,0,0,0,-1,1147,1170,0,0
-70,-146,0,0,0,0,0,0,0,0,0,-1,1154,1170,0,0
-63,-146,0,0,0,0,0,0,0,0,0,-1,1161,1170,0,0
-56,-146,0,0,0,0,0,0,0,0,0,-1,1168,1170,0,0
-49,-146,0,0,0,0,0,0,0,0,0,-1,1175,1170,0,0
-42,-146,0,0,0,0,0,0,0,0,0,-1,1182,1170,0,0
-35,-146,0,0,0,0,0,0,0,0,0,-1,1189,1170,0,0
-28,-146,0,0,0,0,0,0,0,0,0,-1,1196,1170,0,0
-21,-146,0,0,0,0,0,0,0,0,0,-1,1203,1170,0,0
-14,-146,0,0,0,0,0,0,0,0,0,-1,1210,1170,0,0
-7,-146,0,0,0,0,0,0,0,0,0,-1,1217,1170,0,0
0,-146,0,0,0,0,0,0,0,0,0,-1,1224,1170,0,0
7,-146,0,0,0,0,0,0,0,0,0,-1,1231,1170,0,0
14,-146,0,0,0,0,0,0,0,0,0,-1,1238,1170,0,0
21,-146,0,0,0,0,0,0,0,0,0,-1,1245,1170,0,0
28,-146,0,0,0,0,0,0,0,0,0,-1,1252,1170,0,0
35,-146,0,0,0,0,0,0,0,0,0,-1,1259,1170,0,0
42,-146,0,0,0,0,0,0,0,0,0,-1,1266,1170,0,0
49,-146,0,0,0,0,0,0,0,0,0,-1,1273,1170,0,0
56,-146,0,0,0,0,0,0,0,0,0,-1,1280,1170,0,0
63,-146,0,0,0,0,0,0,0,0,0,-1,1287,1170,0,0
70,-146,0,0,0,0,0,0,0,0,0,-1,1294,1170,0,0
77,-146,0,0,0,0,0,0,0,0,0,-1,1301,1170,0,0
84,-146,0,0,0,0,0,0,0,0,0,-1,1308,1170,0,0
91,-146,0,0,0,0,0,0,0,0,0,-1,1315,1170,0,0
98,-146,0,0,0,0,0,0,0,0,0,-1,1322,1170,0,0
105,-146,0,0,0,0,0,0,0,0,0,-1,1329,1170,0,0
112,-146,0,0,0,0,0,0,0,0,0,-1,1336,1170,0,0
119,-146,0,0,0,0,0,0,0,0,0,-1,1343,1170,0,0
126,-146,0,0,0,0,0,0,0,0,0,-1,1350,1170,0,0
133,-146,0,0,0,0,0,0,0,0,0,-1,1357,1170,0,0
140,-146,0,0,0,0,0,0,0,0,0,-1,1364,1170,0,0
147,-146,0,0,0,0,0,0,0,0,0,-1,1371,1170,0,0
154,-146,0,0,0,0,0,0,0,0,0,-1,1378,1170,0,0
161,-146,0,0,0,0,0,0,0,0,0,-1,1385,1170,0,0
168,-146,0,0,0,0,0,0,0,0,0,-1,1392,1170,0,0
175,-146,0,0,0,0,0,0,0,0,0,-1,1399,1170,0,0
182,-146,0,0,0,0,0,0,0,0,0,-1,1406,1170,0,0
189,-146,0,0,0,0,0,0,0,0,0,-1,1413,1170,0,0
196,-146,0,0,0,0,0,0,0,0,0,-1,1420,1170,0,0
203,-146,0,0,0,0,0,0,0,0,0,-1,1427,1170,0,0
210,-146,0,0,0,0,0,0,0,0,0,-1,1434,1170,0,0
217,-146,0,0,0,0,0,0,0,0,0,-1,1441,1170,0,0
224,-146,0,0,0,0,0,0,0,0,0,-1,1448,1170,0,0
231,-146,0,0,0,0,0,0,0,0,0,-1,1455,1170,0,0
238,-146,0,0,0,0,0,0,0,0,0,-1,1462,1170,0,0
245,-146,0,0,0,0,0,0,0,0,0,-1,1469,1170,0,0
252,-146,0,0,0,0,0,0,0,0,0,-1,1476,1170,0,0
259,-146,0,0,0,0,0,0,0,0,0,-1,1483,1170,0,0
266,-146,0,0,0,0,0,0,0,0,0,-1,1490,1170,0,0
273,-146,0,0,0,0,0,0,0,0,0,-1,1497,1170,0,0
280,-146,0,0,0,0,0,0,0,0,0,-1,1504,1170,0,0
287,-146,0,0,0,0,0,0,0,0,0,-1,1511,1170,0,0
294,-146,0,0,0,0,0,0,0,0,0,-1,1518,1170,0,0
301,-146,0,0,0,0,0,0,0,0,0,-1,1525,1170,0,0
308,-146,0,0,0,0,0,0,0,0,0,-1,1532,1170,0,0
315,-146,0,0,0,0,0,0,0,0,0,-1,1539,1170,0,0
322,-146,0,0,0,0,0,0,0,0,0,-1,1546,1170,0,0
329,-146,0,0,0,0,0,0,0,0,0,-1,1553,1170,0,0
336,-146,0,0,0,0,0,0,0,0,0,-1,1560,1170,0,0
343,-146,0,0,0,0,0,0,0,0,0,-1,1567,1170,0,0
350,-146,0,0,0,0,0,0,0,0,0,-1,1574,1170,0,0
357,-146,0,0,0,0,0,0,0,0,0,-1,1581,1170,0,0
364,-146,0,0,0,0,0,0,0,0,0,-1,1588,1170,0,0
371,-146,0,0,0,0,0,0,0,0,0,-1,1595,1170,0,0
378,-146,0,0,0,0,0,0,0,0,0,-1,1602,1170,0,0
385,-146,0,0,0,0,0,0,0,0,0,-1,1609,1170,0,0
392,-146,0,0,0,0,0,0,0,0,0,-1,1616,1170,0,0
399,-146,0,0,0,0,0,0,0,0,0,-1,1623,1170,0,0
406,-146,0,0,0,0,0,0,0,0,0,-1,1630,1170,0,0
413,-146,0,0,0,0,0,0,0,0,0,-1,1637,1170,0,0
420,-146,0,0,0,0,0,0,0,0,0,-1,1644,1170,0,0
427,-146,0,0,0,0,0,0,0,0,0,-1,1651,1170,0,0
434,-146,0,0,0,0,0,0,0,0,0,-1,1658,1170,0,0
441,-146,0,0,0,0,0,0,0,0,0,-1,1665,1170,0,0
448,-146,0,0,0,0,0,0,0,0,0,-1,1672,1170,0,0
455,-146,0,0,0,0,0,0,0,0,0,-1,1679,1170,0,0
462,-146,0,0,0,0,0,0,0,0,0,-1,1686,1170,0,0
469,-146,0,0,0,0,0,0,0,0,0,-1,1693,1170,0,0
476,-146,0,0,0,0,0,0,0,0,0,-1,1700,1170,0,0
483,-146,0,0,0,0,0,0,0,0,0,-1,1707,1170,0,0
490,-146,0,0,0,0,0,0,0,0,0,-1,1714,1170,0,0
497,-146,0,0,0,0,0,0,0,0,0,-1,1721,1170,0,0
504,-146,0,0,0,0,0,0,0,0,0,-1,1728,1170,0,0
511,-146,0,0,0,0,0,0,0,0,0,-1,1735,1170,0,0
518,-146,0,0,0,0,0,0,0,0,0,-1,1742,1170,0,0
525,-146,0,0,0,0,0,0,0,0,0,-1,1749,1170,0,0
532,-146,0,0,0,0,0,0,0,0,0,-1,1756,1170,0,0
539,-146,0,0,0,0,0,0,0,0,0,-1,1763,1170,0,0
546,-146,0,0,0,0,0,0,0,0,0,-1,1770,1170,0,0
553,-146,0,0,0,0,0,0,0,0,0,-1,1777,1170,0,0
560,-146,0,0,0,0,0,0,0,0,0,-1,1784,1170,0,0
567,-146,0,0,0,0,0,0,0,0,0,-1,1791,1170,0,0
574,-146,0,0,0,0,0,0,0,0,0,-1,1798,1170,0,0
581,-146,0,0,0,0,0,0,0,0,0,-1,1805,1170,0,0
588,-146,0,0,0,0,0,0,0,0,0,-1,1812,1170,0,0
595,-146,0,0,0,0,0,0,0,0,0,-1,1819,1170,0,0
602,-146,0,0,0,0,0,0,0,0,0,-1,1826,1170,0,0
609,-146,0,0,0,0,0,0,0,0,0,-1,1833,1170,0,0
616,-146,0,0,0,0,0,0,0,0,0,-1,1840,1170,0,0
623,-146,0,0,0,0,0,0,0,0,0,-1,1847,1170,0,0
630,-146,0,0,0,0,0,0,0,0,0,-1,1854,1170,0,0
637,-146,56.2837,2.44543,0.00690335,-0.000346093,0.00906345,0.01304,-0.00648276,0.595176,0.0114815,0.0380457,1861,1170,56.2836,-2.44539
644,-146,56.2681,2.37024,0.00484312,-0.000400096,0.00792466,0.0105686,-0.00612553,0.625656,0.00975145,0.0355677,1868,1170,56.268,-2.37028
651,-146,56.1555,2.64355,0.0033635,-0.00019362,0.0064008,0.00822824,-0.00505837,0.649884,0.00774346,0.0348412,1875,1170,56.1555,-2.64358
658,-146,56.2117,2.75708,0.00226274,0.000213664,0.00470977,0.00605812,-0.00358172,0.678299,0.00562644,0.0398461,1882,1170,56.2117,-2.75713
665,-146,56.2313,2.73755,0.00150569,0.00075836,0.00295266,0.00410823,-0.00184419,0.722457,0.00351852,0.041414,1889,1170,56.2313,-2.73756
672,-146,56.2382,2.84949,0.000806479,0.00133833,0.00139182,0.0024894,-0.000344591,0.879792,0.00178558,0.0387507,1896,1170,56.2382,-2.84943
679,-146,56.2119,2.73315,0.000251167,0.00146392,0.000507322,0.00164815,6.69306e-05,1.22245,0.00107715,0.0300196,1903,1170,56.2119,-2.73312
686,-146,56.1384,2.59631,9.49545e-05,0.00122044,0.000332095,0.00131112,4.27011e-06,1.30423,0.000872661,0.0235255,1910,1170,56.1384,-2.59629
693,-146,56.1967,2.526,-2.71927e-05,0.00102208,0.000427381,0.00117412,-0.000179238,1.229,0.000848826,0.0175438,1917,1170,56.1967,-2.52605
700,-146,56.2354,2.28125,0,0,0,0,0,0,0,-1,1924,1170,56.2354,-2.28126
707,-146,29.9441,6.94653,0,0,0,0,0,0,0,-1,1931,1170,29.9441,-6.94652
714,-146,31.325,6.13245,0,0,0,0,0,0,0,-1,1938,1170,31.325,-6.1325
721,-146,49.4919,7.9574,0,0,0,0,0,0,0,-1,1945,1170,49.4919,-7.95737
728,-146,49.2676,7.96912,0,0,0,0,0,0,0,-1,1952,1170,49.2675,-7.96913
735,-146,49.1949,7.28381,-0.000526564,0.000134671,0.00140312,0.0012456,-0.00163749,0.901103,0.00166967,0.0346334,1959,1170,49.1949,-7.28384
742,-146,49.2732,6.77759,-0.000557086,-2.44554e-05,0.00201312,0.00173989,-0.00232143,0.851161,0.0023528,0.0181636,1966,1170,49.2732,-6.77756
749,-146,49.2119,6.33069,-0.000406485,0.000311345,0.00305886,0.00303228,-0.00312742,0.843799,0.00355644,0.0165837,1973,1170,49.2119,-6.33074
756,-146,49.1847,5.87549,0.000261138,0.00129205,0.00412668,0.00493535,-0.00338216,0.847531,0.00482994,0.0124951,1980,1170,49.1847,-5.87546
763,-146,49.1262,5.41675,0.00124799,0.00325052,0.00549562,0.00783535,-0.00333684,0.875506,0.00662226,0.0115038,1987,1170,49.1262,-5.41673
770,-146,49.1165,4.97681,0.0022426,0.00545316,0.00701412,0.0110433,-0.00334758,0.897893,0.0086956,0.0130586,1994,1170,49.1165,-4.97684
777,-146,49.1616,4.72534,0.00315225,0.00817603,0.00860775,0.0146309,-0.00330263,0.927365,0.011021,0.0241098,2001,1170,49.1616,-4.72528
784,-146,48.9924,4.70056,0.00396104,0.0115273,0.0102658,0.0186848,-0.00319655,0.961935,0.0136474,0.0427797,2008,1170,48.9923,-4.70057
791,-146,49.1309,4.69946,0,0,0,0,0,0,0,-1,2015,1170,49.1307,-4.69944
798,-146,48.9399,4.81213,0.00559261,0.0216069,0.0127916,0.0286908,-0.00149132,1.06504,0.0196432,0.0447541,2022,1170,48.9399,-4.81213
805,-146,48.8879,5.03076,0.00605465,0.0291106,0.0131103,0.0350405,0.000124814,1.14603,0.0233188,0.0460474,2029,1170,48.888,-5.03071
812,-146,0,0,0,0,0,0,0,0,0,-1,2036,1170,0,0
-700,-153,0,0,0,0,0,0,0,0,0,-1,524,1177,0,0
-693,-153,0,0,0,0,0,0,0,0,0,-1,531,1177,0,0
-686,-153,-36.9091,-0.548096,0,0,0,0,0,0,0,-1,538,1177,-36.9091,0.548121
-679,-153,-37.1267,-1.71155,0,0,0,0,0,0,0,-1,545,1177,-37.1267,1.71152
-672,-153,-36.6324,-1.53394,0.0423462,0.026834,0.0549514,0.0900861,-0.020906,0.715289,0.0681042,0.0437452,552,1177,-36.6324,1.5339
-665,-153,-36.3001,-1.07336,0.0364562,0.021689,0.0427254,0.0724313,-0.0142861,0.699836,0.0536869,0.0468926,559,1177,-36.3001,1.07331
-658,-153,-34.4634,0.761963,0,0,0,0,0,0,0,-1,566,1177,-34.4634,-0.761969
-651,-153,-34.4879,1.16541,0.0235147,0.0133037,0.0229628,0.0419328,-0.00511435,0.676008,0.0298066,0.0471707,573,1177,-34.4878,-1.16543
-644,-153,-34.2526,1.72253,0.0176052,0.00991516,0.0154148,0.0296473,-0.00212695,0.663174,0.0205106,0.0306795,580,1177,-34.2526,-1.72258
-637,-153,-34.2871,2.31104,0.0123302,0.00702071,0.00948469,0.0195247,-0.000173736,0.64894,0.0130748,0.0123345,587,1177,-34.2871,-2.31109
-630,-153,-34.3267,2.80676,0.00742823,0.00472958,0.00449037,0.0107676,0.00139018,0.639444,0.00676282,0.0104419,594,1177,-34.3266,-2.80682
-623,-153,-34.3628,3.30762,0.00330849,0.00240592,0.00098009,0.0039362,0.00177821,0.569641,0.00227609,0.0108957,601,1177,-34.3628,-3.30756
-616,-153,-34.4113,3.82703,0.000158132,0.000409816,-0.00107822,0.00136952,-0.00080157,-0.843491,0.00126769,0.0135643,608,1177,-34.4113,-3.82703
-609,-153,-34.3828,4.32019,-0.00141869,-0.000176033,-0.00132819,0.00066897,-0.0022637,-1.00418,0.00177466,0.027647,615,1177,-34.3828,-4.32023
-602,-153,-34.3154,4.75146,0,0,0,0,0,0,0,-1,622,1177,-34.3153,-4.75147
-595,-153,-34.6679,5.49255,0,0,0,0,0,0,0,-1,629,1177,-34.6679,-5.49254
-588,-153,-32.348,5.51038,0,0,0,0,0,0,0,-1,636,1177,-32.348,-5.51034
-581,-153,-33.4568,6.41492,0,0,0,0,0,0,0,-1,643,1177,-33.4568,-6.41497
-574,-153,-25.4814,5.16956,0,0,0,0,0,0,0,-1,650,1177,-25.4814,-5.16961
-567,-153,-35.3121,1.09485,0,0,0,0,0,0,0,-1,657,1177,-35.3121,-1.09482
-560,-153,-42.0631,0.918091,0,0,0,0,0,0,0,-1,664,1177,-42.0631,-0.918099
-553,-153,-42.0173,0.799072,0.000893896,-4.99387e-05,-0.00178357,0.00226693,-0.00142297,-0.656066,0.00214885,0.0379058,671,1177,-42.0173,-0.799085
-546,-153,-41.9319,0.687012,0.00203731,0.000164088,-0.00153966,0.00290286,-0.000701459,-0.512139,0.00220654,0.0402597,678,1177,-41.9319,-0.686972
-539,-153,-41.8629,0.619873,0.00423487,-5.54218e-05,-0.00107236,0.00448798,-0.000308526,-0.231784,0.00309995,0.0422441,685,1177,-41.8629,-0.619823
-532,-153,-41.7222,0.621216,0.00712839,-0.000851392,-0.00022875,0.00713494,-0.000857944,-0.0286348,0.00506688,0.0435634,692,1177,-41.7222,-0.621248
-525,-153,-41.5884,0.659546,0.0100664,-0.00160152,0.000729357,0.0101118,-0.00164693,0.0621871,0.00735192,0.0442284,699,1177,-41.5884,-0.659505
-518,-153,0,0,0,0,0,0,0,0,0,-1,706,1177,0,0
-511,-153,0,0,0,0,0,0,0,0,0,-1,713,1177,0,0
-504,-153,0,0,0,0,0,0,0,0,0,-1,720,1177,0,0
-497,-153,0,0,0,0,0,0,0,0,0,-1,727,1177,0,0
-490,-153,0,0,0,0,0,0,0,0,0,-1,734,1177,0,0
-483,-153,0,0,0,0,0,0,0,0,0,-1,741,1177,0,0
-476,-153,0,0,0,0,0,0,0,0,0,-1,748,1177,0,0
-469,-153,0,0,0,0,0,0,0,0,0,-1,755,1177,0,0
-462,-153,0,0,0,0,0,0,0,0,0,-1,762,1177,0,0
-455,-153,0,0,0,0,0,0,0,0,0,-1,769,1177,0,0
-448,-153,0,0,0,0,0,0,0,0,0,-1,776,1177,0,0
-441,-153,0,0,0,0,0,0,0,0,0,-1,783,1177,0,0
-434,-153,0,0,0,0,0,0,0,0,0,-1,790,1177,0,0
-427,-153,0,0,0,0,0,0,0,0,0,-1,797,1177,0,0
-420,-153,0,0,0,0,0,0,0,0,0,-1,804,1177,0,0
-413,-153,0,0,0,0,0,0,0,0,0,-1,811,1177,0,0
-406,-153,0,0,0,0,0,0,0,0,0,-1,818,1177,0,0
-399,-153,0,0,0,0,0,0,0,0,0,-1,825,1177,0,0
-392,-153,0,0,0,0,0,0,0,0,0,-1,832,1177,0,0
-385,-153,0,0,0,0,0,0,0,0,0,-1,839,1177,0,0
-378,-153,0,0,0,0,0,0,0,0,0,-1,846,1177,0,0
-371,-153,0,0,0,0,0,0,0,0,0,-1,853,1177,0,0
-364,-153,0,0,0,0,0,0,0,0,0,-1,860,1177,0,0
-357,-153,0,0,0,0,0,0,0,0,0,-1,867,1177,0,0
-350,-153,0,0,0,0,0,0,0,0,0,-1,874,1177,0,0
-343,-153,0,0,0,0,0,0,0,0,0,-1,881,1177,0,0
-336,-153,0,0,0,0,0,0,0,0,0,-1,888,1177,0,0
-329,-153,0,0,0,0,0,0,0,0,0,-1,895,1177,0,0
-322,-153,0,0,0,0,0,0,0,0,0,-1,902,1177,0,0
-315,-153,0,0,0,0,0,0,0,0,0,-1,909,1177,0,0
-308,-153,0,0,0,0,0,0,0,0,0,-1,916,1177,0,0
-301,-153,0,0,0,0,0,0,0,0,0,-1,923,1177,0,0
-294,-153,0,0,0,0,0,0,0,0,0,-1,930,1177,0,0
-287,-153,0,0,0,0,0,0,0,0,0,-1,937,1177,0,0
-280,-153,0,0,0,0,0,0,0,0,0,-1,944,1177,0,0
-273,-153,0,0,0,0,0,0,0,0,0,-1,951,1177,0,0
-266,-153,0,0,0,0,0,0,0,0,0,-1,958,1177,0,0
-259,-153,0,0,0,0,0,0,0,0,0,-1,965,1177,0,0
-252,-153,0,0,0,0,0,0,0,0,0,-1,972,1177,0,0
-245,-153,0,0,0,0,0,0,0,0,0,-1,979,1177,0,0
-238,-153,0,0,0,0,0,0,0,0,0,-1,986,1177,0,0
-231,-153,0,0,0,0,0,0,0,0,0,-1,993,1177,0,0
-224,-153,0,0,0,0,0,0,0,0,0,-1,1000,1177,0,0
-217,-153,0,0,0,0,0,0,0,0,0,-1,1007,1177,0,0
-210,-153,0,0,0,0,0,0,0,0,0,-1,1014,1177,0,0
-203,-153,0,0,0,0,0,0,0,0,0,-1,1021,1177,0,0
-196,-153,0,0,0,0,0,0,0,0,0,-1,1028,1177,0,0
-189,-153,0,0,0,0,0,0,0,0,0,-1,1035,1177,0,0
-182,-153,0,0,0,0,0,0,0,0,0,-1,1042,1177,0,0
-175,-153,0,0,0,0,0,0,0,0,0,-1,1049,1177,0,0
-168,-153,0,0,0,0,0,0,0,0,0,-1,1056,1177,0,0
-161,-153,0,0,0,0,0,0,0,0,0,-1,1063,1177,0,0
-154,-153,0,0,0,0,0,0,0,0,0,-1,1070,1177,0,0
-147,-153,0,0,0,0,0,0,0,0,0,-1,1077,1177,0,0
-140,-153,0,0,0,0,0,0,0,0,0,-1,1084,1177,0,0
-133,-153,0,0,0,0,0,0,0,0,0,-1,1091,1177,0,0
-126,-153,0,0,0,0,0,0,0,0,0,-1,1098,1177,0,0
-119,-153,0,0,0,0,0,0,0,0,0,-1,1105,1177,0,0
-112,-153,0,0,0,0,0,0,0,0,0,-1,1112,1177,0,0
-105,-153,0,0,0,0,0,0,0,0,0,-1,1119,1177,0,0
-98,-153,0,0,0,0,0,0,0,0,0,-1,1126,1177,0,0
-91,-153,0,0,0,0,0,0,0,0,0,-1,1133,1177,0,0
-84,-153,0,0,0,0,0,0,0,0,0,-1,1140,1177,0,0
-77,-153,0,0,0,0,0,0,0,0,0,-1,1147,1177,0,0
-70,-153,0,0,0,0,0,0,0,0,0,-1,1154,1177,0,0
-63,-153,0,0,0,0,0,0,0,0,0,-1,1161,1177,0,0
-56,-153,0,0,0,0,0,0,0,0,0,-1,1168,1177,0,0
-49,-153,0,0,0,0,0,0,0,0,0,-1,1175,1177,0,0
-42,-153,0,0,0,0,0,0,0,0,0,-1,1182,1177,0,0
-35,-153,0,0,0,0,0,0,0,0,0,-1,1189,1177,0,0
-28,-153,0,0,0,0,0,0,0,0,0,-1,1196,1177,0,0
-21,-153,0,0,0,0,0,0,0,0,0,-1,1203,1177,0,0
-14,-153,0,0,0,0,0,0,0,0,0,-1,1210,1177,0,0
-7,-153,0,0,0,0,0,0,0,0,0,-1,1217,1177,0,0
0,-153,0,0,0,0,0,0,0,0,0,-1,1224,1177,0,0
7,-153,0,0,0,0,0,0,0,0,0,-1,1231,1177,0,0
14,-153,0,0,0,0,0,0,0,0,0,-1,1238,1177,0,0
21,-153,0,0,0,0,0,0,0,0,0,-1,1245,1177,0,0
28,-153,0,0,0,0,0,0,0,0,0,-1,1252,1177,0,0
35,-153,0,0,0,0,0,0,0,0,0,-1,1259,1177,0,0
42,-153,0,0,0,0,0,0,0,0,0,-1,1266,1177,0,0
49,-153,0,0,0,0,0,0,0,0,0,-1,1273,1177,0,0
56,-153,0,0,0,0,0,0,0,0,0,-1,1280,1177,0,0
63,-153,0,0,0,0,0,0,0,0,0,-1,1287,1177,0,0
70,-153,0,0,0,0,0,0,0,0,0,-1,1294,1177,0,0
77,-153,0,0,0,0,0,0,0,0,0,-1,1301,1177,0,0
84,-153,0,0,0,0,0,0,0,0,0,-1,1308,1177,0,0
91,-153,0,0,0,0,0,0,0,0,0,-1,1315,1177,0,0
98,-153,0,0,0,0,0,0,0,0,0,-1,1322,1177,0,0
105,-153,0,0,0,0,0,0,0,0,0,-1,1329,1177,0,0
112,-153,0,0,0,0,0,0,0,0,0,-1,1336,1177,0,0
119,-153,0,0,0,0,0,0,0,0,0,-1,1343,1177,0,0
126,-153,0,0,0,0,0,0,0,0,0,-1,1350,1177,0,0
133,-153,0,0,0,0,0,0,0,0,0,-1,1357,1177,0,0
140,-153,0,0,0,0,0,0,0,0,0,-1,1364,1177,0,0
147,-153,0,0,0,0,0,0,0,0,0,-1,1371,1177,0,0
154,-153,0,0,0,0,0,0,0,0,0,-1,1378,1177,0,0
161,-153,0,0,0,0,0,0,0,0,0,-1,1385,1177,0,0
168,-153,0,0,0,0,0,0,0,0,0,-1,1392,1177,0,0
175,-153,0,0,0,0,0,0,0,0,0,-1,1399,1177,0,0
182,-153,0,0,0,0,0,0,0,0,0,-1,1406,1177,0,0
189,-153,0,0,0,0,0,0,0,0,0,-1,1413,1177,0,0
196,-153,0,0,0,0,0,0,0,0,0,-1,1420,1177,0,0
203,-153,0,0,0,0,0,0,0,0,0,-1,1427,1177,0,0
210,-153,0,0,0,0,0,0,0,0,0,-1,1434,1177,0,0
217,-153,0,0,0,0,0,0,0,0,0,-1,1441,1177,0,0
224,-153,0,0,0,0,0,0,0,0,0,-1,1448,1177,0,0
231,-153,0,0,0,0,0,0,0,0,0,-1,1455,1177,0,0
238,-153,0,0,0,0,0,0,0,0,0,-1,1462,1177,0,0
245,-153,0,0,0,0,0,0,0,0,0,-1,1469,1177,0,0
252,-153,0,0,0,0,0,0,0,0,0,-1,1476,1177,0,0
259,-153,0,0,0,0,0,0,0,0,0,-1,1483,1177,0,0
266,-153,0,0,0,0,0,0,0,0,0,-1,1490,1177,0,0
273,-153,0,0,0,0,0,0,0,0,0,-1,1497,1177,0,0
280,-153,0,0,0,0,0,0,0,0,0,-1,1504,1177,0,0
287,-153,0,0,0,0,0,0,0,0,0,-1,1511,1177,0,0
294,-153,0,0,0,0,0,0,0,0,0,-1,1518,1177,0,0
301,-153,0,0,0,0,0,0,0,0,0,-1,1525,1177,0,0
308,-153,0,0,0,0,0,0,0,0,0,-1,1532,1177,0,0
315,-153,0,0,0,0,0,0,0,0,0,-1,1539,1177,0,0
322,-153,0,0,0,0,0,0,0,0,0,-1,1546,1177,0,0
329,-153,0,0,0,0,0,0,0,0,0,-1,1553,1177,0,0
336,-153,0,0,0,0,0,0,0,0,0,-1,1560,1177,0,0
343,-153,0,0,0,0,0,0,0,0,0,-1,1567,1177,0,0
350,-153,0,0,0,0,0,0,0,0,0,-1,1574,1177,0,0
357,-153,0,0,0,0,0,0,0,0,0,-1,1581,1177,0,0
364,-153,0,0,0,0,0,0,0,0,0,-1,1588,1177,0,0
371,-153,0,0,0,0,0,0,0,0,0,-1,1595,1177,0,0
378,-153,0,0,0,0,0,0,0,0,0,-1,1602,1177,0,0
385,-153,0,0,0,0,0,0,0,0,0,-1,1609,1177,0,0
392,-153,0,0,0,0,0,0,0,0,0,-1,1616,1177,0,0
399,-153,0,0,0,0,0,0,0,0,0,-1,1623,1177,0,0
406,-153,0,0,0,0,0,0,0,0,0,-1,1630,1177,0,0
413,-153,0,0,0,0,0,0,0,0,0,-1,1637,1177,0,0
420,-153,0,0,0,0,0,0,0,0,0,-1,1644,1177,0,0
427,-153,0,0,0,0,0,0,0,0,0,-1,1651,1177,0,0
434,-153,0,0,0,0,0,0,0,0,0,-1,1658,1177,0,0
441,-153,0,0,0,0,0,0,0,0,0,-1,1665,1177,0,0
448,-153,0,0,0,0,0,0,0,0,0,-1,1672,1177,0,0
455,-153,0,0,0,0,0,0,0,0,0,-1,1679,1177,0,0
462,-153,0,0,0,0,0,0,0,0,0,-1,1686,1177,0,0
469,-153,0,0,0,0,0,0,0,0,0,-1,1693,1177,0,0
476,-153,0,0,0,0,0,0,0,0,0,-1,1700,1177,0,0
483,-153,0,0,0,0,0,0,0,0,0,-1,1707,1177,0,0
490,-153,0,0,0,0,0,0,0,0,0,-1,1714,1177,0,0
497,-153,0,0,0,0,0,0,0,0,0,-1,1721,1177,0,0
504,-153,0,0,0,0,0,0,0,0,0,-1,1728,1177,0,0
511,-153,0,0,0,0,0,0,0,0,0,-1,1735,1177,0,0
518,-153,0,0,0,0,0,0,0,0,0,-1,1742,1177,0,0
525,-153,0,0,0,0,0,0,0,0,0,-1,1749,1177,0,0
532,-153,0,0,0,0,0,0,0,0,0,-1,1756,1177,0,0
539,-153,0,0,0,0,0,0,0,0,0,-1,1763,1177,0,0
546,-153,0,0,0,0,0,0,0,0,0,-1,1770,1177,0,0
553,-153,0,0,0,0,0,0,0,0,0,-1,1777,1177,0,0
560,-153,0,0,0,0,0,0,0,0,0,-1,1784,1177,0,0
567,-153,0,0,0,0,0,0,0,0,0,-1,1791,1177,0,0
574,-153,0,0,0,0,0,0,0,0,0,-1,1798,1177,0,0
581,-153,0,0,0,0,0,0,0,0,0,-1,1805,1177,0,0
588,-153,0,0,0,0,0,0,0,0,0,-1,1812,1177,0,0
595,-153,0,0,0,0,0,0,0,0,0,-1,1819,1177,0,0
602,-153,0,0,0,0,0,0,0,0,0,-1,1826,1177,0,0
609,-153,0,0,0,0,0,0,0,0,0,-1,1833,1177,0,0
616,-153,0,0,0,0,0,0,0,0,0,-1,1840,1177,0,0
623,-153,0,0,0,0,0,0,0,0,0,-1,1847,1177,0,0
630,-153,0,0,0,0,0,0,0,0,0,-1,1854,1177,0,0
637,-153,56.1537,2.51147,0.00538462,-0.000599248,0.00775366,0.0107036,-0.0059182,0.601263,0.00972826,0.0363745,1861,1177,56.1536,-2.51151
644,-153,56.2058,2.45801,0.00383111,-0.000464523,0.00679738,0.00881193,-0.00544534,0.632374,0.00830758,0.0347847,1868,1177,56.2058,-2.45802
651,-153,56.3292,2.63696,0.00270205,-6.88796e-05,0.00540209,0.00689351,-0.00426034,0.65987,0.00649922,0.0287439,1875,1177,56.3292,-2.63698
658,-153,56.2283,2.5387,0.00193005,0.000489022,0.00380418,0.00508135,-0.00266228,0.691807,0.00454292,0.0349171,1882,1177,56.2283,-2.53875
665,-153,56.1895,2.56628,0.00150041,0.00109716,0.00217116,0.00347929,-0.000881716,0.739099,0.00266255,0.0390558,1889,1177,56.1895,-2.56628
672,-153,56.1986,2.66565,0.00109458,0.00162828,0.000778235,0.00218415,0.000538717,0.950563,0.00131387,0.0369896,1896,1177,56.1986,-2.66569
679,-153,56.1549,2.56726,0.000770147,0.00160773,7.91537e-05,0.00161514,0.000762732,1.4774,0.000932982,0.0282908,1903,1177,56.1549,-2.56728
686,-153,56.1768,2.59119,0.000661527,0.00121459,7.38089e-05,0.00122427,0.000651846,1.44038,0.000707329,0.0188206,1910,1177,56.1768,-2.59124
693,-153,56.2247,2.48279,0.000516335,0.000936641,0.000264283,0.00106414,0.000388835,1.1213,0.000621759,0.0372287,1917,1177,56.2247,-2.48277
700,-153,56.2466,2.28369,0,0,0,0,0,0,0,-1,1924,1177,56.2466,-2.28373
707,-153,29.6483,6.6842,0,0,0,0,0,0,0,-1,1931,1177,29.6483,-6.68415
714,-153,36.0046,6.78418,0,0,0,0,0,0,0,-1,1938,1177,36.0046,-6.78418
721,-153,36.4866,6.47595,0,0,0,0,0,0,0,-1,1945,1177,36.4866,-6.47593
728,-153,47.7305,7.37024,0,0,0,0,0,0,0,-1,1952,1177,47.7304,-7.37022
735,-153,48.6981,7.23291,0,0,0,0,0,0,0,-1,1959,1177,48.6981,-7.23295
742,-153,48.7423,6.82739,-0.00014869,-0.000215531,0.00199901,0.00181718,-0.0021814,0.77704,0.00231177,0.0161932,1966,1177,48.7424,-6.82735
749,-153,48.738,6.39636,3.10257e-05,0.000176606,0.0031118,0.00321646,-0.00300883,0.797092,0.00359484,0.0171647,1973,1177,48.738,-6.39633
756,-153,48.7179,5.91321,0.000648477,0.00104818,0.00433632,0.00518925,-0.0034926,0.808426,0.00504427,0.0121307,1980,1177,48.7179,-5.91319
763,-153,48.6715,5.44458,0.00146352,0.00250606,0.00593614,0.00794378,-0.00397419,0.829192,0.00700691,0.0113874,1987,1177,48.6716,-5.44463
770,-153,48.6648,4.98328,0.00224593,0.0040173,0.00779812,0.0109799,-0.00471664,0.841944,0.00929976,0.0115536,1994,1177,48.6647,-4.9833
777,-153,48.6619,4.65295,0.00282952,0.00576172,0.00986096,0.014265,-0.00567373,0.859196,0.0118625,0.0252474,2001,1177,48.6619,-4.653
784,-153,48.6665,4.80127,0.00320287,0.00773437,0.0121106,0.0177893,-0.0068521,0.877873,0.0146864,0.0467921,2008,1177,48.6664,-4.80124
791,-153,48.7205,4.90344,0,0,0,0,0,0,0,-1,2015,1177,48.7204,-4.90338
798,-153,49.387,5.21277,0.00341918,0.0133743,0.0161853,0.0253302,-0.00853666,0.934576,0.0203385,0.0465693,2022,1177,49.3869,-5.21276
805,-153,49.3726,5.24609,0.00275364,0.0175595,0.0173213,0.0289936,-0.00868038,0.987345,0.0227806,0.0446486,2029,1177,49.3725,-5.24604
812,-153,0,0,0,0,0,0,0,0,0,-1,2036,1177,0,0
-700,-160,0,0,0,0,0,0,0,0,0,-1,524,1184,0,0
-693,-160,0,0,0,0,0,0,0,0,0,-1,531,1184,0,0
-686,-160,-36.7539,-1.14587,0,0,0,0,0,0,0,-1,538,1184,-36.7539,1.14582
-679,-160,-36.307,-1.28455,0,0,0,0,0,0,0,-1,545,1184,-36.307,1.28454
-672,-160,-36.288,-2.17944,0,0,0,0,0,0,0,-1,552,1184,-36.288,2.17945
-665,-160,-36.2126,-1.69946,0,0,0,0,0,0,0,-1,559,1184,-36.2126,1.69947
-658,-160,-36.1372,-1.21948,0,0,0,0,0,0,0,-1,566,1184,-36.1372,1.2195
-651,-160,-33.9585,0.792114,0,0,0,0,0,0,0,-1,573,1184,-33.9585,-0.792072
-644,-160,-33.799,1.55371,0.0163331,0.0109191,0.0155889,0.0294483,-0.00219605,0.69943,0.0204036,0.0392087,580,1184,-33.7989,-1.55374
-637,-160,-33.7375,2.31909,0.0115761,0.00748666,0.00979948,0.0195419,-0.000479159,0.682546,0.0131905,0.0150561,587,1184,-33.7376,-2.31911
-630,-160,-33.812,2.79968,0.0070904,0.00485197,0.00487076,0.0109689,0.00097349,0.672468,0.00701066,0.00940173,594,1184,-33.812,-2.79968
-623,-160,-33.8568,3.28943,0.00325466,0.00239607,0.0012976,0.00419213,0.0014586,0.625647,0.00245735,0.0137459,601,1184,-33.8568,-3.2894
-616,-160,-33.8925,3.80969,0.000158036,0.000292412,-0.00104457,0.00127195,-0.000821502,-0.817515,0.00121795,0.0122635,608,1184,-33.8925,-3.80972
-609,-160,-33.9158,4.37842,-0.0016094,-0.00038798,-0.00159649,0.000710617,-0.002708,-0.968078,0.00208301,0.0162547,615,1184,-33.9159,-4.37839
-602,-160,-33.9441,4.96692,0,0,0,0,0,0,0,-1,622,1184,-33.9441,-4.9669
-595,-160,-33.0669,5.93445,0,0,0,0,0,0,0,-1,629,1184,-33.0669,-5.93446
-588,-160,-33.4845,5.66699,0,0,0,0,0,0,0,-1,636,1184,-33.4845,-5.66697
-581,-160,-33.1338,6.41174,0,0,0,0,0,0,0,-1,643,1184,-33.1338,-6.41176
-574,-160,-32.7831,7.15649,0,0,0,0,0,0,0,-1,650,1184,-32.7831,-7.15655
-567,-160,-29.5828,0.643921,0,0,0,0,0,0,0,-1,657,1184,-29.5828,-0.643968
-560,-160,-42.0087,0.884033,0,0,0,0,0,0,0,-1,664,1184,-42.0087,-0.884043
-553,-160,-41.992,0.804565,0.000534522,-0.00033025,-0.00216512,0.00231,-0.00210573,-0.686842,0.00255034,0.038719,671,1184,-41.992,-0.804546
-546,-160,-41.9597,0.759888,0.00161534,-0.000113084,-0.00191866,0.00285543,-0.00135318,-0.573795,0.0024809,0.0371706,678,1184,-41.9597,-0.759901
-539,-160,-41.8539,0.561646,0.00374856,2.70133e-06,-0.00124996,0.00412735,-0.000376093,-0.294249,0.00288511,0.0404238,685,1184,-41.8539,-0.561645
-532,-160,-41.9479,0.549927,0.00664776,-0.000185457,5.24584e-05,0.00664817,-0.000185859,0.00767636,0.00449535,0.0448312,692,1184,-41.9479,-0.549983
-525,-160,-42.0734,0.744263,0.00972889,-0.00031728,0.00155206,0.00996321,-0.000551598,0.14984,0.00683343,0.0453823,699,1184,-42.0734,-0.744315
-518,-160,-41.9054,0.833618,0.0127116,-0.000257611,0.00320991,0.0134625,-0.00100859,0.229822,0.00932941,0.0420002,706,1184,-41.9054,-0.833604
-511,-160,0,0,0,0,0,0,0,0,0,-1,713,1184,0,0
-504,-160,0,0,0,0,0,0,0,0,0,-1,720,1184,0,0
-497,-160,0,0,0,0,0,0,0,0,0,-1,727,1184,0,0
-490,-160,0,0,0,0,0,0,0,0,0,-1,734,1184,0,0
-483,-160,0,0,0,0,0,0,0,0,0,-1,741,1184,0,0
-476,-160,0,0,0,0,0,0,0,0,0,-1,748,1184,0,0
-469,-160,0,0,0,0,0,0,0,0,0,-1,755,1184,0,0
-462,-160,0,0,0,0,0,0,0,0,0,-1,762,1184,0,0
-455,-160,0,0,0,0,0,0,0,0,0,-1,769,1184,0,0
-448,-160,0,0,0,0,0,0,0,0,0,-1,776,1184,0,0
-441,-160,0,0,0,0,0,0,0,0,0,-1,783,1184,0,0
-434,-160,0,0,0,0,0,0,0,0,0,-1,790,1184,0,0
-427,-160,0,0,0,0,0,0,0,0,0,-1,797,1184,0,0
-420,-160,0,0,0,0,0,0,0,0,0,-1,804,1184,0,0
-413,-160,0,0,0,0,0,0,0,0,0,-1,811,1184,0,0
-406,-160,0,0,0,0,0,0,0,0,0,-1,818,1184,0,0
-399,-160,0,0,0,0,0,0,0,0,0,-1,825,1184,0,0
-392,-160,0,0,0,0,0,0,0,0,0,-1,832,1184,0,0
-385,-160,0,0,0,0,0,0,0,0,0,-1,839,1184,0,0
-378,-160,0,0,0,0,0,0,0,0,0,-1,846,1184,0,0
-371,-160,0,0,0,0,0,0,0,0,0,-1,853,1184,0,0
-364,-160,0,0,0,0,0,0,0,0,0,-1,860,1184,0,0
-357,-160,0,0,0,0,0,0,0,0,0,-1,867,1184,0,0
-350,-160,0,0,0,0,0,0,0,0,0,-1,874,1184,0,0
-343,-160,0,0,0,0,0,0,0,0,0,-1,881,1184,0,0
-336,-160,0,0,0,0,0,0,0,0,0,-1,888,1184,0,0
-329,-160,0,0,0,0,0,0,0,0,0,-1,895,1184,0,0
-322,-160,0,0,0,0,0,0,0,0,0,-1,902,1184,0,0
-315,-160,0,0,0,0,0,0,0,0,0,-1,909,1184,0,0
-308,-160,0,0,0,0,0,0,0,0,0,-1,916,1184,0,0
-301,-160,0,0,0,0,0,0,0,0,0,-1,923,1184,0,0
-294,-160,0,0,0,0,0,0,0,0,0,-1,930,1184,0,0
-287,-160,0,0,0,0,0,0,0,0,0,-1,937,1184,0,0
-280,-160,0,0,0,0,0,0,0,0,0,-1,944,1184,0,0
-273,-160,0,0,0,0,0,0,0,0,0,-1,951,1184,0,0
-266,-160,0,0,0,0,0,0,0,0,0,-1,958,1184,0,0
-259,-160,0,0,0,0,0,0,0,0,0,-1,965,1184,0,0
-252,-160,0,0,0,0,0,0,0,0,0,-1,972,1184,0,0
-245,-160,0,0,0,0,0,0,0,0,0,-1,979,1184,0,0
-238,-160,0,0,0,0,0,0,0,0,0,-1,986,1184,0,0
-231,-160,0,0,0,0,0,0,0,0,0,-1,993,1184,0,0
-224,-160,0,0,0,0,0,0,0,0,0,-1,1000,1184,0,0
-217,-160,0,0,0,0,0,0,0,0,0,-1,1007,1184,0,0
-210,-160,0,0,0,0,0,0,0,0,0,-1,1014,1184,0,0
-203,-160,0,0,0,0,0,0,0,0,0,-1,1021,1184,0,0
-196,-160,0,0,0,0,0,0,0,0,0,-1,1028,1184,0,0
-189,-160,0,0,0,0,0,0,0,0,0,-1,1035,1184,0,0
-182,-160,0,0,0,0,0,0,0,0,0,-1,1042,1184,0,0
-175,-160,0,0,0,0,0,0,0,0,0,-1,1049,1184,0,0
-168,-160,0,0,0,0,0,0,0,0,0,-1,1056,1184,0,0
-161,-160,0,0,0,0,0,0,0,0,0,-1,1063,1184,0,0
-154,-160,0,0,0,0,0,0,0,0,0,-1,1070,1184,0,0
-147,-160,0,0,0,0,0,0,0,0,0,-1,1077,1184,0,0
-140,-160,0,0,0,0,0,0,0,0,0,-1,1084,1184,0,0
-133,-160,0,0,0,0,0,0,0,0,0,-1,1091,1184,0,0
-126,-160,0,0,0,0,0,0,0,0,0,-1,1098,1184,0,0
-119,-160,0,0,0,0,0,0,0,0,0,-1,1105,1184,0,0
-112,-160,0,0,0,0,0,0,0,0,0,-1,1112,1184,0,0
-105,-160,0,0,0,0,0,0,0,0,0,-1,1119,1184,0,0
-98,-160,0,0,0,0,0,0,0,0,0,-1,1126,1184,0,0
-91,-160,0,0,0,0,0,0,0,0,0,-1,1133,1184,0,0
-84,-160,0,0,0,0,0,0,0,0,0,-1,1140,1184,0,0
-77,-160,0,0,0,0,0,0,0,0,0,-1,1147,1184,0,0
-70,-160,0,0,0,0,0,0,0,0,0,-1,1154,1184,0,0
-63,-160,0,0,0,0,0,0,0,0,0,-1,1161,1184,0,0
-56,-160,0,0,0,0,0,0,0,0,0,-1,1168,1184,0,0
-49,-160,0,0,0,0,0,0,0,0,0,-1,1175,1184,0,0
-42,-160,0,0,0,0,0,0,0,0,0,-1,1182,1184,0,0
-35,-160,0,0,0,0,0,0,0,0,0,-1,1189,1184,0,0
-28,-160,0,0,0,0,0,0,0,0,0,-1,1196,1184,0,0
-21,-160,0,0,0,0,0,0,0,0,0,-1,1203,1184,0,0
-14,-160,0,0,0,0,0,0,0,0,0,-1,1210,1184,0,0
-7,-160,0,0,0,0,0,0,0,0,0,-1,1217,1184,0,0
0,-160,0,0,0,0,0,0,0,0,0,-1,1224,1184,0,0
7,-160,0,0,0,0,0,0,0,0,0,-1,1231,1184,0,0
14,-160,0,0,0,0,0,0,0,0,0,-1,1238,1184,0,0
21,-160,0,0,0,0,0,0,0,0,0,-1,1245,1184,0,0
28,-160,0,0,0,0,0,0,0,0,0,-1,1252,1184,0,0
35,-160,0,0,0,0,0,0,0,0,0,-1,1259,1184,0,0
42,-160,0,0,0,0,0,0,0,0,0,-1,1266,1184,0,0
49,-160,0,0,0,0,0,0,0,0,0,-1,1273,1184,0,0
56,-160,0,0,0,0,0,0,0,0,0,-1,1280,1184,0,0
63,-160,0,0,0,0,0,0,0,0,0,-1,1287,1184,0,0
70,-160,0,0,0,0,0,0,0,0,0,-1,1294,1184,0,0
77,-160,0,0,0,0,0,0,0,0,0,-1,1301,1184,0,0
84,-160,0,0,0,0,0,0,0,0,0,-1,1308,1184,0,0
91,-160,0,0,0,0,0,0,0,0,0,-1,1315,1184,0,0
98,-160,0,0,0,0,0,0,0,0,0,-1,1322,1184,0,0
105,-160,0,0,0,0,0,0,0,0,0,-1,1329,1184,0,0
112,-160,0,0,0,0,0,0,0,0,0,-1,1336,1184,0,0
119,-160,0,0,0,0,0,0,0,0,0,-1,1343,1184,0,0
126,-160,0,0,0,0,0,0,0,0,0,-1,1350,1184,0,0
133,-160,0,0,0,0,0,0,0,0,0,-1,1357,1184,0,0
140,-160,0,0,0,0,0,0,0,0,0,-1,1364,1184,0,0
147,-160,0,0,0,0,0,0,0,0,0,-1,1371,1184,0,0
154,-160,0,0,0,0,0,0,0,0,0,-1,1378,1184,0,0
161,-160,0,0,0,0,0,0,0,0,0,-1,1385,1184,0,0
168,-160,0,0,0,0,0,0,0,0,0,-1,1392,1184,0,0
175,-160,0,0,0,0,0,0,0,0,0,-1,1399,1184,0,0
182,-160,0,0,0,0,0,0,0,0,0,-1,1406,1184,0,0
189,-160,0,0,0,0,0,0,0,0,0,-1,1413,1184,0,0
196,-160,0,0,0,0,0,0,0,0,0,-1,1420,1184,0,0
203,-160,0,0,0,0,0,0,0,0,0,-1,1427,1184,0,0
210,-160,0,0,0,0,0,0,0,0,0,-1,1434,1184,0,0
217,-160,0,0,0,0,0,0,0,0,0,-1,1441,1184,0,0
224,-160,0,0,0,0,0,0,0,0,0,-1,1448,1184,0,0
231,-160,0,0,0,0,0,0,0,0,0,-1,1455,1184,0,0
238,-160,0,0,0,0,0,0,0,0,0,-1,1462,1184,0,0
245,-160,0,0,0,0,0,0,0,0,0,-1,1469,1184,0,0
252,-160,0,0,0,0,0,0,0,0,0,-1,1476,1184,0,0
259,-160,0,0,0,0,0,0,0,0,0,-1,1483,1184,0,0
266,-160,0,0,0,0,0,0,0,0,0,-1,1490,1184,0,0
273,-160,0,0,0,0,0,0,0,0,0,-1,1497,1184,0,0
280,-160,0,0,0,0,0,0,0,0,0,-1,1504,1184,0,0
287,-160,0,0,0,0,0,0,0,0,0,-1,1511,1184,0,0
294,-160,0,0,0,0,0,0,0,0,0,-1,1518,1184,0,0
301,-160,0,0,0,0,0,0,0,0,0,-1,1525,1184,0,0
308,-160,0,0,0,0,0,0,0,0,0,-1,1532,1184,0,0
315,-160,0,0,0,0,0,0,0,0,0,-1,1539,1184,0,0
322,-160,0,0,0,0,0,0,0,0,0,-1,1546,1184,0,0
329,-160,0,0,0,0,0,0,0,0,0,-1,1553,1184,0,0
336,-160,0,0,0,0,0,0,0,0,0,-1,1560,1184,0,0
343,-160,0,0,0,0,0,0,0,0,0,-1,1567,1184,0,0
350,-160,0,0,0,0,0,0,0,0,0,-1,1574,1184,0,0
357,-160,0,0,0,0,0,0,0,0,0,-1,1581,1184,0,0
364,-160,0,0,0,0,0,0,0,0,0,-1,1588,1184,0,0
371,-160,0,0,0,0,0,0,0,0,0,-1,1595,1184,0,0
378,-160,0,0,0,0,0,0,0,0,0,-1,1602,1184,0,0
385,-160,0,0,0,0,0,0,0,0,0,-1,1609,1184,0,0
392,-160,0,0,0,0,0,0,0,0,0,-1,1616,1184,0,0
399,-160,0,0,0,0,0,0,0,0,0,-1,1623,1184,0,0
406,-160,0,0,0,0,0,0,0,0,0,-1,1630,1184,0,0
413,-160,0,0,0,0,0,0,0,0,0,-1,1637,1184,0,0
420,-160,0,0,0,0,0,0,0,0,0,-1,1644,1184,0,0
427,-160,0,0,0,0,0,0,0,0,0,-1,1651,1184,0,0
434,-160,0,0,0,0,0,0,0,0,0,-1,1658,1184,0,0
441,-160,0,0,0,0,0,0,0,0,0,-1,1665,1184,0,0
448,-160,0,0,0,0,0,0,0,0,0,-1,1672,1184,0,0
455,-160,0,0,0,0,0,0,0,0,0,-1,1679,1184,0,0
462,-160,0,0,0,0,0,0,0,0,0,-1,1686,1184,0,0
469,-160,0,0,0,0,0,0,0,0,0,-1,1693,1184,0,0
476,-160,0,0,0,0,0,0,0,0,0,-1,1700,1184,0,0
483,-160,0,0,0,0,0,0,0,0,0,-1,1707,1184,0,0
490,-160,0,0,0,0,0,0,0,0,0,-1,1714,1184,0,0
497,-160,0,0,0,0,0,0,0,0,0,-1,1721,1184,0,0
504,-160,0,0,0,0,0,0,0,0,0,-1,1728,1184,0,0
511,-160,0,0,0,0,0,0,0,0,0,-1,1735,1184,0,0
518,-160,0,0,0,0,0,0,0,0,0,-1,1742,1184,0,0
525,-160,0,0,0,0,0,0,0,0,0,-1,1749,1184,0,0
532,-160,0,0,0,0,0,0,0,0,0,-1,1756,1184,0,0
539,-160,0,0,0,0,0,0,0,0,0,-1,1763,1184,0,0
546,-160,0,0,0,0,0,0,0,0,0,-1,1770,1184,0,0
553,-160,0,0,0,0,0,0,0,0,0,-1,1777,1184,0,0
560,-160,0,0,0,0,0,0,0,0,0,-1,1784,1184,0,0
567,-160,0,0,0,0,0,0,0,0,0,-1,1791,1184,0,0
574,-160,0,0,0,0,0,0,0,0,0,-1,1798,1184,0,0
581,-160,0,0,0,0,0,0,0,0,0,-1,1805,1184,0,0
588,-160,0,0,0,0,0,0,0,0,0,-1,1812,1184,0,0
595,-160,0,0,0,0,0,0,0,0,0,-1,1819,1184,0,0
602,-160,0,0,0,0,0,0,0,0,0,-1,1826,1184,0,0
609,-160,0,0,0,0,0,0,0,0,0,-1,1833,1184,0,0
616,-160,0,0,0,0,0,0,0,0,0,-1,1840,1184,0,0
623,-160,0,0,0,0,0,0,0,0,0,-1,1847,1184,0,0
630,-160,0,0,0,0,0,0,0,0,0,-1,1854,1184,0,0
637,-160,56.0083,2.54187,0.00423323,-0.00101956,0.0057701,0.00794655,-0.00473288,0.571824,0.00739843,0.0416013,1861,1184,56.0083,-2.54183
644,-160,56.1943,2.48157,0.00311084,-0.000717308,0.00509446,0.00663894,-0.0042454,0.605698,0.00633452,0.0409045,1868,1184,56.1943,-2.48151
651,-160,56.2589,2.53394,0.00229276,-0.000134614,0.00394256,0.00520421,-0.00304607,0.63608,0.00481732,0.0369608,1875,1184,56.2589,-2.53391
658,-160,56.1494,2.37561,0.00183329,0.000559496,0.00257381,0.00384784,-0.00145505,0.664108,0.00316381,0.0413073,1882,1184,56.1494,-2.37566
665,-160,56.1597,2.41809,0.00169375,0.00120098,0.001197,0.00266946,0.000225275,0.683898,0.00170951,0.0411705,1889,1184,56.1596,-2.41809
672,-160,56.1644,2.57361,0.00155053,0.00167153,7.84918e-05,0.00171013,0.00151193,1.11374,0.0010801,0.0346827,1896,1184,56.1644,-2.57356
679,-160,56.1583,2.5686,0.00140974,0.00155382,-0.000399369,0.00188759,0.00107596,-0.874629,0.00109336,0.0258495,1903,1184,56.1583,-2.56863
686,-160,56.1848,2.58997,0.00130008,0.00109893,-0.000318832,0.00153382,0.000865183,-0.632611,0.000887973,0.0170096,1910,1184,56.1848,-2.59
693,-160,56.2147,2.57776,0,0,0,0,0,0,0,-1,1917,1184,56.2147,-2.57772
700,-160,42.8784,2.44617,0,0,0,0,0,0,0,-1,1924,1184,42.8785,-2.4462
707,-160,24.5115,6.27405,0,0,0,0,0,0,0,-1,1931,1184,24.5115,-6.27401
714,-160,35.6892,6.8905,0,0,0,0,0,0,0,-1,1938,1184,35.6892,-6.89048
721,-160,36.2388,6.37878,0,0,0,0,0,0,0,-1,1945,1184,36.2388,-6.37876
728,-160,48.1318,7.85828,0,0,0,0,0,0,0,-1,1952,1184,48.1318,-7.85828
735,-160,48.3542,7.23718,0.000355236,-0.000248614,0.00109043,0.00118477,-0.00107814,0.650338,0.00130698,0.0414758,1959,1184,48.3543,-7.23715
742,-160,48.261,6.80286,0.000298573,-0.000294229,0.00178051,0.00180718,-0.00180284,0.70292,0.00208425,0.0175596,1966,1184,48.2609,-6.80291
749,-160,48.2448,6.36365,0.00050663,0.000175236,0.00303724,0.00338268,-0.00270082,0.758147,0.00351966,0.0191083,1973,1184,48.2448,-6.36367
756,-160,48.224,5.91919,0.0010327,0.000937418,0.00444473,0.00543004,-0.00345992,0.780039,0.00517446,0.0125108,1980,1184,48.224,-5.9192
763,-160,48.175,5.46521,0.00167011,0.00198632,0.00627338,0.00810359,-0.00444716,0.797997,0.00734797,0.0124602,1987,1184,48.1751,-5.46521
770,-160,48.0958,4.96265,0.00226828,0.00296998,0.00845808,0.0110845,-0.00584623,0.806127,0.00992967,0.0251518,1994,1184,48.0958,-4.96268
777,-160,48.1455,4.64417,0.00259216,0.00397061,0.0109509,0.0142539,-0.00769115,0.816826,0.0128575,0.0376684,2001,1184,48.1456,-4.64411
784,-160,48.1418,4.1936,0.00264107,0.00489676,0.0137353,0.0175505,-0.0100126,0.826363,0.0161107,0.0461377,2008,1184,48.1418,-4.1936
791,-160,47.929,3.73755,0.00246616,0.00586785,0.0166269,0.0208807,-0.0125467,0.836368,0.0194982,0.0491489,2015,1184,47.929,-3.73758
798,-160,47.7512,3.8678,0.00180573,0.00698489,0.0192562,0.0238249,-0.0150343,0.852237,0.0226259,0.0471375,2022,1184,47.7513,-3.86775
805,-160,47.3313,3.74316,0,0,0,0,0,0,0,-1,2029,1184,47.3312,-3.74314
812,-160,0,0,0,0,0,0,0,0,0,-1,2036,1184,0,0
-700,-167,0,0,0,0,0,0,0,0,0,-1,524,1191,0,0
-693,-167,0,0,0,0,0,0,0,0,0,-1,531,1191,0,0
-686,-167,-36.4189,-2.02026,0,0,0,0,0,0,0,-1,538,1191,-36.4188,2.02024
-679,-167,-36.1887,-3.67261,0,0,0,0,0,0,0,-1,545,1191,-36.1887,3.67263
-672,-167,-35.855,-2.75549,0.0336792,0.0401322,0.0517211,0.0887274,-0.014916,0.816549,0.0646993,0.0460901,552,1191,-35.855,2.75547
-665,-167,-35.7858,-1.96887,0,0,0,0,0,0,0,-1,559,1191,-35.7858,1.96884
-658,-167,-35.6969,-1.354,0,0,0,0,0,0,0,-1,566,1191,-35.6969,1.35397
-651,-167,-32.9332,0.372192,0,0,0,0,0,0,0,-1,573,1191,-32.9332,-0.372249
-644,-167,-33.0234,1.34973,0,0,0,0,0,0,0,-1,580,1191,-33.0234,-1.34978
-637,-167,-33.1136,2.32727,0,0,0,0,0,0,0,-1,587,1191,-33.1136,-2.32731
-630,-167,-33.274,2.80249,0.00636765,0.00485497,0.00517078,0.0108371,0.000385508,0.712777,0.00709973,0.00981677,594,1191,-33.2741,-2.80251
-623,-167,-33.3035,3.27222,0.00304161,0.00235135,0.0016958,0.00442704,0.000965911,0.685009,0.00268788,0.0134134,601,1191,-33.3036,-3.27218
-616,-167,-33.326,3.80396,0.000277555,0.000182892,-0.000770276,0.00100195,-0.000541505,-0.754713,0.000904237,0.01678,608,1191,-33.3261,-3.80392
-609,-167,-33.3489,4.3905,-0.00149413,-0.000540965,-0.00164457,0.000694681,-0.00272978,-0.926431,0.00209025,0.0145122,615,1191,-33.3489,-4.39046
-602,-167,-33.4089,4.90674,-0.00183906,-0.000613553,-0.00201901,0.000883636,-0.00333625,-0.932727,0.00256986,0.0194393,622,1191,-33.4089,-4.90677
-595,-167,-33.2453,5.34338,0,0,0,0,0,0,0,-1,629,1191,-33.2453,-5.34337
-588,-167,-33.566,5.9093,0,0,0,0,0,0,0,-1,636,1191,-33.566,-5.90925
-581,-167,-32.8646,6.30542,0,0,0,0,0,0,0,-1,643,1191,-32.8646,-6.30537
-574,-167,-32.4808,7.37524,0,0,0,0,0,0,0,-1,650,1191,-32.4808,-7.37525
-567,-167,-27.3643,2.55859,0,0,0,0,0,0,0,-1,657,1191,-27.3643,-2.55864
-560,-167,-41.909,0.87146,0,0,0,0,0,0,0,-1,664,1191,-41.909,-0.8714
-553,-167,-41.9668,0.766479,0.000369922,-0.000604686,-0.00222242,0.00215784,-0.0023926,-0.677472,0.00262836,0.0393312,671,1191,-41.9668,-0.766472
-546,-167,-41.9751,0.75061,0.0012853,-0.000482387,-0.00203933,0.00262407,-0.00182116,-0.580917,0.00258037,0.0315191,678,1191,-41.9751,-0.750556
-539,-167,-41.9315,0.616699,0.00313636,-0.000208946,-0.00136782,0.00362442,-0.000697008,-0.342736,0.00267902,0.0360439,685,1191,-41.9315,-0.616732
-532,-167,-42.1027,0.666992,0.00580967,2.07236e-05,0.000104696,0.00581156,1.88309e-05,0.0180776,0.00386811,0.0443702,692,1191,-42.1027,-0.66696
-525,-167,-42.1682,0.798462,0.00911704,0.000377756,0.00200634,0.00955564,-6.08442e-05,0.215221,0.0063908,0.0451421,699,1191,-42.1681,-0.798457
-518,-167,-41.8406,0.69873,0.0123159,0.000961663,0.0040338,0.0136031,-0.000325497,0.308881,0.00917915,0.0421089,706,1191,-41.8406,-0.698786
-511,-167,0,0,0,0,0,0,0,0,0,-1,713,1191,0,0
-504,-167,0,0,0,0,0,0,0,0,0,-1,720,1191,0,0
-497,-167,0,0,0,0,0,0,0,0,0,-1,727,1191,0,0
-490,-167,0,0,0,0,0,0,0,0,0,-1,734,1191,0,0
-483,-167,0,0,0,0,0,0,0,0,0,-1,741,1191,0,0
-476,-167,0,0,0,0,0,0,0,0,0,-1,748,1191,0,0
-469,-167,0,0,0,0,0,0,0,0,0,-1,755,1191,0,0
-462,-167,0,0,0,0,0,0,0,0,0,-1,762,1191,0,0
-455,-167,0,0,0,0,0,0,0,0,0,-1,769,1191,0,0
-448,-167,0,0,0,0,0,0,0,0,0,-1,776,1191,0,0
-441,-167,0,0,0,0,0,0,0,0,0,-1,783,1191,0,0
-434,-167,0,0,0,0,0,0,0,0,0,-1,790,1191,0,0
-427,-167,0,0,0,0,0,0,0,0,0,-1,797,1191,0,0
-420,-167,0,0,0,0,0,0,0,0,0,-1,804,1191,0,0
-413,-167,0,0,0,0,0,0,0,0,0,-1,811,1191,0,0
-406,-167,0,0,0,0,0,0,0,0,0,-1,818,1191,0,0
-399,-167,0,0,0,0,0,0,0,0,0,-1,825,1191,0,0
-392,-167,0,0,0,0,0,0,0,0,0,-1,832,1191,0,0
-385,-167,0,0,0,0,0,0,0,0,0,-1,839,1191,0,0
-378,-167,0,0,0,0,0,0,0,0,0,-1,846,1191,0,0
-371,-167,0,0,0,0,0,0,0,0,0,-1,853,1191,0,0
-364,-167,0,0,0,0,0,0,0,0,0,-1,860,1191,0,0
-357,-167,0,0,0,0,0,0,0,0,0,-1,867,1191,0,0
-350,-167,0,0,0,0,0,0,0,0,0,-1,874,1191,0,0
-343,-167,0,0,0,0,0,0,0,0,0,-1,881,1191,0,0
-336,-167,0,0,0,0,0,0,0,0,0,-1,888,1191,0,0
-329,-167,0,0,0,0,0,0,0,0,0,-1,895,1191,0,0
-322,-167,0,0,0,0,0,0,0,0,0,-1,902,1191,0,0
-315,-167,0,0,0,0,0,0,0,0,0,-1,909,1191,0,0
-308,-167,0,0,0,0,0,0,0,0,0,-1,916,1191,0,0
-301,-167,0,0,0,0,0,0,0,0,0,-1,923,1191,0,0
-294,-167,0,0,0,0,0,0,0,0,0,-1,930,1191,0,0
-287,-167,0,0,0,0,0,0,0,0,0,-1,937,1191,0,0
-280,-167,0,0,0,0,0,0,0,0,0,-1,944,1191,0,0
-273,-167,0,0,0,0,0,0,0,0,0,-1,951,1191,0,0
-266,-167,0,0,0,0,0,0,0,0,0,-1,958,1191,0,0
-259,-167,0,0,0,0,0,0,0,0,0,-1,965,1191,0,0
-252,-167,0,0,0,0,0,0,0,0,0,-1,972,1191,0,0
-245,-167,0,0,0,0,0,0,0,0,0,-1,979,1191,0,0
-238,-167,0,0,0,0,0,0,0,0,0,-1,986,1191,0,0
-231,-167,0,0,0,0,0,0,0,0,0,-1,993,1191,0,0
-224,-167,0,0,0,0,0,0,0,0,0,-1,1000,1191,0,0
-217,-167,0,0,0,0,0,0,0,0,0,-1,1007,1191,0,0
-210,-167,0,0,0,0,0,0,0,0,0,-1,1014,1191,0,0
-203,-167,0,0,0,0,0,0,0,0,0,-1,1021,1191,0,0
-196,-167,0,0,0,0,0,0,0,0,0,-1,1028,1191,0,0
-189,-167,0,0,0,0,0,0,0,0,0,-1,1035,1191,0,0
-182,-167,0,0,0,0,0,0,0,0,0,-1,1042,1191,0,0
-175,-167,0,0,0,0,0,0,0,0,0,-1,1049,1191,0,0
-168,-167,0,0,0,0,0,0,0,0,0,-1,1056,1191,0,0
-161,-167,0,0,0,0,0,0,0,0,0,-1,1063,1191,0,0
-154,-167,0,0,0,0,0,0,0,0,0,-1,1070,1191,0,0
-147,-167,0,0,0,0,0,0,0,0,0,-1,1077,1191,0,0
-140,-167,0,0,0,0,0,0,0,0,0,-1,1084,1191,0,0
-133,-167,0,0,0,0,0,0,0,0,0,-1,1091,1191,0,0
-126,-167,0,0,0,0,0,0,0,0,0,-1,1098,1191,0,0
-119,-167,0,0,0,0,0,0,0,0,0,-1,1105,1191,0,0
-112,-167,0,0,0,0,0,0,0,0,0,-1,1112,1191,0,0
-105,-167,0,0,0,0,0,0,0,0,0,-1,1119,1191,0,0
-98,-167,0,0,0,0,0,0,0,0,0,-1,1126,1191,0,0
-91,-167,0,0,0,0,0,0,0,0,0,-1,1133,1191,0,0
-84,-167,0,0,0,0,0,0,0,0,0,-1,1140,1191,0,0
-77,-167,0,0,0,0,0,0,0,0,0,-1,1147,1191,0,0
-70,-167,0,0,0,0,0,0,0,0,0,-1,1154,1191,0,0
-63,-167,0,0,0,0,0,0,0,0,0,-1,1161,1191,0,0
-56,-167,0,0,0,0,0,0,0,0,0,-1,1168,1191,0,0
-49,-167,0,0,0,0,0,0,0,0,0,-1,1175,1191,0,0
-42,-167,0,0,0,0,0,0,0,0,0,-1,1182,1191,0,0
-35,-167,0,0,0,0,0,0,0,0,0,-1,1189,1191,0,0
-28,-167,0,0,0,0,0,0,0,0,0,-1,1196,1191,0,0
-21,-167,0,0,0,0,0,0,0,0,0,-1,1203,1191,0,0
-14,-167,0,0,0,0,0,0,0,0,0,-1,1210,1191,0,0
-7,-167,0,0,0,0,0,0,0,0,0,-1,1217,1191,0,0
0,-167,0,0,0,0,0,0,0,0,0,-1,1224,1191,0,0
7,-167,0,0,0,0,0,0,0,0,0,-1,1231,1191,0,0
14,-167,0,0,0,0,0,0,0,0,0,-1,1238,1191,0,0
21,-167,0,0,0,0,0,0,0,0,0,-1,1245,1191,0,0
28,-167,0,0,0,0,0,0,0,0,0,-1,1252,1191,0,0
35,-167,0,0,0,0,0,0,0,0,0,-1,1259,1191,0,0
42,-167,0,0,0,0,0,0,0,0,0,-1,1266,1191,0,0
49,-167,0,0,0,0,0,0,0,0,0,-1,1273,1191,0,0
56,-167,0,0,0,0,0,0,0,0,0,-1,1280,1191,0,0
63,-167,0,0,0,0,0,0,0,0,0,-1,1287,1191,0,0
70,-167,0,0,0,0,0,0,0,0,0,-1,1294,1191,0,0
77,-167,0,0,0,0,0,0,0,0,0,-1,1301,1191,0,0
84,-167,0,0,0,0,0,0,0,0,0,-1,1308,1191,0,0
91,-167,0,0,0,0,0,0,0,0,0,-1,1315,1191,0,0
98,-167,0,0,0,0,0,0,0,0,0,-1,1322,1191,0,0
105,-167,0,0,0,0,0,0,0,0,0,-1,1329,1191,0,0
112,-167,0,0,0,0,0,0,0,0,0,-1,1336,1191,0,0
119,-167,0,0,0,0,0,0,0,0,0,-1,1343,1191,0,0
126,-167,0,0,0,0,0,0,0,0,0,-1,1350,1191,0,0
133,-167,0,0,0,0,0,0,0,0,0,-1,1357,1191,0,0
140,-167,0,0,0,0,0,0,0,0,0,-1,1364,1191,0,0
147,-167,0,0,0,0,0,0,0,0,0,-1,1371,1191,0,0
154,-167,0,0,0,0,0,0,0,0,0,-1,1378,1191,0,0
161,-167,0,0,0,0,0,0,0,0,0,-1,1385,1191,0,0
168,-167,0,0,0,0,0,0,0,0,0,-1,1392,1191,0,0
175,-167,0,0,0,0,0,0,0,0,0,-1,1399,1191,0,0
182,-167,0,0,0,0,0,0,0,0,0,-1,1406,1191,0,0
189,-167,0,0,0,0,0,0,0,0,0,-1,1413,1191,0,0
196,-167,0,0,0,0,0,0,0,0,0,-1,1420,1191,0,0
203,-167,0,0,0,0,0,0,0,0,0,-1,1427,1191,0,0
210,-167,0,0,0,0,0,0,0,0,0,-1,1434,1191,0,0
217,-167,0,0,0,0,0,0,0,0,0,-1,1441,1191,0,0
224,-167,0,0,0,0,0,0,0,0,0,-1,1448,1191,0,0
231,-167,0,0,0,0,0,0,0,0,0,-1,1455,1191,0,0
238,-167,0,0,0,0,0,0,0,0,0,-1,1462,1191,0,0
245,-167,0,0,0,0,0,0,0,0,0,-1,1469,1191,0,0
252,-167,0,0,0,0,0,0,0,0,0,-1,1476,1191,0,0
259,-167,0,0,0,0,0,0,0,0,0,-1,1483,1191,0,0
266,-167,0,0,0,0,0,0,0,0,0,-1,1490,1191,0,0
273,-167,0,0,0,0,0,0,0,0,0,-1,1497,1191,0,0
280,-167,0,0,0,0,0,0,0,0,0,-1,1504,1191,0,0
287,-167,0,0,0,0,0,0,0,0,0,-1,1511,1191,0,0
294,-167,0,0,0,0,0,0,0,0,0,-1,1518,1191,0,0
301,-167,0,0,0,0,0,0,0,0,0,-1,1525,1191,0,0
308,-167,0,0,0,0,0,0,0,0,0,-1,1532,1191,0,0
315,-167,0,0,0,0,0,0,0,0,0,-1,1539,1191,0,0
322,-167,0,0,0,0,0,0,0,0,0,-1,1546,1191,0,0
329,-167,0,0,0,0,0,0,0,0,0,-1,1553,1191,0,0
336,-167,0,0,0,0,0,0,0,0,0,-1,1560,1191,0,0
343,-167,0,0,0,0,0,0,0,0,0,-1,1567,1191,0,0
350,-167,0,0,0,0,0,0,0,0,0,-1,1574,1191,0,0
357,-167,0,0,0,0,0,0,0,0,0,-1,1581,1191,0,0
364,-167,0,0,0,0,0,0,0,0,0,-1,1588,1191,0,0
371,-167,0,0,0,0,0,0,0,0,0,-1,1595,1191,0,0
378,-167,0,0,0,0,0,0,0,0,0,-1,1602,1191,0,0
385,-167,0,0,0,0,0,0,0,0,0,-1,1609,1191,0,0
392,-167,0,0,0,0,0,0,0,0,0,-1,1616,1191,0,0
399,-167,0,0,0,0,0,0,0,0,0,-1,1623,1191,0,0
406,-167,0,0,0,0,0,0,0,0,0,-1,1630,1191,0,0
413,-167,0,0,0,0,0,0,0,0,0,-1,1637,1191,0,0
420,-167,0,0,0,0,0,0,0,0,0,-1,1644,1191,0,0
427,-167,0,0,0,0,0,0,0,0,0,-1,1651,1191,0,0
434,-167,0,0,0,0,0,0,0,0,0,-1,1658,1191,0,0
441,-167,0,0,0,0,0,0,0,0,0,-1,1665,1191,0,0
448,-167,0,0,0,0,0,0,0,0,0,-1,1672,1191,0,0
455,-167,0,0,0,0,0,0,0,0,0,-1,1679,1191,0,0
462,-167,0,0,0,0,0,0,0,0,0,-1,1686,1191,0,0
469,-167,0,0,0,0,0,0,0,0,0,-1,1693,1191,0,0
476,-167,0,0,0,0,0,0,0,0,0,-1,1700,1191,0,0
483,-167,0,0,0,0,0,0,0,0,0,-1,1707,1191,0,0
490,-167,0,0,0,0,0,0,0,0,0,-1,1714,1191,0,0
497,-167,0,0,0,0,0,0,0,0,0,-1,1721,1191,0,0
504,-167,0,0,0,0,0,0,0,0,0,-1,1728,1191,0,0
511,-167,0,0,0,0,0,0,0,0,0,-1,1735,1191,0,0
518,-167,0,0,0,0,0,0,0,0,0,-1,1742,1191,0,0
525,-167,0,0,0,0,0,0,0,0,0,-1,1749,1191,0,0
532,-167,0,0,0,0,0,0,0,0,0,-1,1756,1191,0,0
539,-167,0,0,0,0,0,0,0,0,0,-1,1763,1191,0,0
546,-167,0,0,0,0,0,0,0,0,0,-1,1770,1191,0,0
553,-167,0,0,0,0,0,0,0,0,0,-1,1777,1191,0,0
560,-167,0,0,0,0,0,0,0,0,0,-1,1784,1191,0,0
567,-167,0,0,0,0,0,0,0,0,0,-1,1791,1191,0,0
574,-167,0,0,0,0,0,0,0,0,0,-1,1798,1191,0,0
581,-167,0,0,0,0,0,0,0,0,0,-1,1805,1191,0,0
588,-167,0,0,0,0,0,0,0,0,0,-1,1812,1191,0,0
595,-167,0,0,0,0,0,0,0,0,0,-1,1819,1191,0,0
602,-167,0,0,0,0,0,0,0,0,0,-1,1826,1191,0,0
609,-167,0,0,0,0,0,0,0,0,0,-1,1833,1191,0,0
616,-167,0,0,0,0,0,0,0,0,0,-1,1840,1191,0,0
623,-167,0,0,0,0,0,0,0,0,0,-1,1847,1191,0,0
630,-167,0,0,0,0,0,0,0,0,0,-1,1854,1191,0,0
637,-167,56.031,2.59497,0.00289292,-0.00232535,0.00405236,0.00510346,-0.00453589,0.499376,0.00556849,0.0448988,1861,1191,56.031,-2.59502
644,-167,56.1864,2.45483,0.00227663,-0.00170243,0.00357263,0.00437635,-0.00380215,0.531343,0.00472573,0.0449629,1868,1191,56.1864,-2.4548
651,-167,56.1072,2.52222,0.00188933,-0.000774047,0.00260519,0.00348346,-0.00236817,0.549127,0.00339883,0.0421295,1875,1191,56.1071,-2.52219
658,-167,56.1034,2.50671,0.00180719,0.000192491,0.00143085,0.00264275,-0.000643072,0.528542,0.00201076,0.0451349,1882,1191,56.1034,-2.50676
665,-167,56.2352,2.58105,0.00195666,0.000978467,0.000295194,0.00203884,0.000896289,0.271513,0.00117998,0.0397573,1889,1191,56.2353,-2.58106
672,-167,56.2108,2.6228,0.00202446,0.00147574,-0.000557196,0.00237118,0.00112902,-0.556626,0.00136952,0.0280667,1896,1191,56.2108,-2.62283
679,-167,56.1573,2.61255,0.00196837,0.00137064,-0.000846872,0.00256757,0.000771443,-0.615767,0.00152123,0.0213837,1903,1191,56.1573,-2.61256
686,-167,56.1327,2.52832,0.00179617,0.000938942,-0.000723548,0.00220853,0.000526586,-0.517999,0.00133198,0.0293428,1910,1191,56.1327,-2.52829
693,-167,56.1007,2.44177,0,0,0,0,0,0,0,-1,1917,1191,56.1007,-2.4418
700,-167,28.0459,2.70508,0,0,0,0,0,0,0,-1,1924,1191,28.0459,-2.70513
707,-167,29.4708,7.10168,0,0,0,0,0,0,0,-1,1931,1191,29.4708,-7.10172
714,-167,35.9202,6.84668,0,0,0,0,0,0,0,-1,1938,1191,35.9202,-6.84664
721,-167,36.2072,6.38892,0,0,0,0,0,0,0,-1,1945,1191,36.2072,-6.38891
728,-167,47.7047,7.90527,0,0,0,0,0,0,0,-1,1952,1191,47.7048,-7.90531
735,-167,47.7949,7.44983,0.000697426,-0.000262716,0.000807216,0.00115654,-0.000721829,0.517133,0.00109411,0.023215,1959,1191,47.795,-7.44987
742,-167,47.7382,6.8739,0.000684228,-0.00025077,0.00158012,0.00186455,-0.0014311,0.64157,0.00190822,0.0160797,1966,1191,47.7382,-6.87388
749,-167,47.7288,6.38879,0.000968723,0.000300274,0.00295889,0.00361221,-0.00234321,0.729159,0.00346428,0.0152587,1973,1191,47.7288,-6.38882
756,-167,47.7383,5.94019,0.00154885,0.000956072,0.00449833,0.00576054,-0.00325562,0.752502,0.00527203,0.011876,1980,1191,47.7383,-5.94022
763,-167,47.6722,5.45667,0.002266,0.00175205,0.00650656,0.00852066,-0.00450261,0.765661,0.00763735,0.0133897,1987,1191,47.6723,-5.45663
770,-167,47.5128,5.11035,0.00297713,0.00243605,0.00894491,0.0116556,-0.0062424,0.77028,0.0104898,0.0336683,1994,1191,47.5129,-5.11031
777,-167,47.7773,4.74646,0.00345569,0.0030173,0.011804,0.0150425,-0.00856955,0.776114,0.0138021,0.0493363,2001,1191,47.7774,-4.74651
784,-167,47.8005,4.35645,0,0,0,0,0,0,0,-1,2008,1191,47.8005,-4.35646
791,-167,47.3062,4.00989,0.00387899,0.00348437,0.0186084,0.0222912,-0.0149278,0.780097,0.0216281,0.045792,2015,1191,47.3061,-4.00992
798,-167,47.4712,3.79724,0.00369277,0.00338549,0.0221367,0.0256763,-0.0185981,0.781928,0.0256705,0.0465697,2022,1191,47.4712,-3.79722
805,-167,47.6343,3.5918,0,0,0,0,0,0,0,-1,2029,1191,47.6344,-3.59174
812,-167,0,0,0,0,0,0,0,0,0,-1,2036,1191,0,0
-700,-174,0,0,0,0,0,0,0,0,0,-1,524,1198,0,0
-693,-174,0,0,0,0,0,0,0,0,0,-1,531,1198,0,0
-686,-174,-36.2,-1.89417,0,0,0,0,0,0,0,-1,538,1198,-36.2,1.89418
-679,-174,-35.3768,-4.61035,0,0,0,0,0,0,0,-1,545,1198,-35.3768,4.61036
-672,-174,-35.0184,-3.72437,0,0,0,0,0,0,0,-1,552,1198,-35.0184,3.72436
-665,-174,-35.278,-2.46875,0,0,0,0,0,0,0,-1,559,1198,-35.278,2.46873
-658,-174,-34.0414,0.59314,0,0,0,0,0,0,0,-1,566,1198,-34.0414,-0.593133
-651,-174,-32.4979,0.219482,0,0,0,0,0,0,0,-1,573,1198,-32.4979,-0.219468
-644,-174,-32.5334,1.22778,0,0,0,0,0,0,0,-1,580,1198,-32.5334,-1.22773
-637,-174,-32.5689,2.23596,0,0,0,0,0,0,0,-1,587,1198,-32.5689,-2.23599
-630,-174,-32.7118,2.82043,0.00574659,0.00471435,0.00535733,0.0106126,-0.000151666,0.737377,0.00712617,0.0135091,594,1198,-32.7118,-2.82038
-623,-174,-32.751,3.31714,0.00303534,0.00226592,0.00212561,0.00481077,0.000490485,0.695873,0.00305683,0.0148823,601,1198,-32.751,-3.3171
-616,-174,-32.7706,3.85962,0.000745004,0.000218373,-0.000333047,0.000906253,5.71233e-05,-0.450899,0.000586056,0.0197058,608,1198,-32.7706,-3.85959
-609,-174,-32.7985,4.41846,-0.000907547,-0.000439739,-0.00148934,0.000833958,-0.00218124,-0.863288,0.00179782,0.0204583,615,1198,-32.7984,-4.41841
-602,-174,-32.8708,4.89966,-0.00147543,-0.000479745,-0.00200374,0.00108707,-0.00304225,-0.907161,0.00247154,0.0170977,622,1198,-32.8709,-4.89969
-595,-174,-32.6072,5.32434,0,0,0,0,0,0,0,-1,629,1198,-32.6072,-5.32433
-588,-174,-33.2623,5.87939,0,0,0,0,0,0,0,-1,636,1198,-33.2623,-5.87942
-581,-174,-33.3422,6.47937,0,0,0,0,0,0,0,-1,643,1198,-33.3422,-6.47934
-574,-174,-31.7448,7.09595,0,0,0,0,0,0,0,-1,650,1198,-31.7448,-7.09599
-567,-174,-26.6597,3.04041,0,0,0,0,0,0,0,-1,657,1198,-26.6597,-3.04039
-560,-174,-41.525,0.793213,0,0,0,0,0,0,0,-1,664,1198,-41.525,-0.793258
-553,-174,-41.7875,0.719238,0.000629508,-0.000649721,-0.00223275,0.00231245,-0.00233267,-0.645899,0.00268187,0.048042,671,1198,-41.7875,-0.71925
-546,-174,-41.9296,0.70752,0.00139615,-0.000620813,-0.00210486,0.00272165,-0.00194631,-0.561995,0.00270741,0.0280699,678,1198,-41.9296,-0.707562
-539,-174,-42.0046,0.678955,0.00280143,-0.000379792,-0.00155687,0.00343655,-0.00101491,-0.387339,0.00269383,0.0327909,685,1198,-42.0047,-0.678975
-532,-174,-42.0829,0.644897,0.00497686,5.19612e-06,-0.000172935,0.00498287,-8.1188e-07,-0.0347281,0.00332218,0.0453918,692,1198,-42.083,-0.644934
-525,-174,-42.0372,0.796997,0.00821928,0.000699358,0.00190562,0.00867461,0.000244024,0.234544,0.00570347,0.0464038,699,1198,-42.0372,-0.797009
-518,-174,-41.8283,0.716187,0.011619,0.00174236,0.00420371,0.0131659,0.000195456,0.352607,0.00871285,0.0420761,706,1198,-41.8283,-0.716212
-511,-174,0,0,0,0,0,0,0,0,0,-1,713,1198,0,0
-504,-174,0,0,0,0,0,0,0,0,0,-1,720,1198,0,0
-497,-174,0,0,0,0,0,0,0,0,0,-1,727,1198,0,0
-490,-174,0,0,0,0,0,0,0,0,0,-1,734,1198,0,0
-483,-174,0,0,0,0,0,0,0,0,0,-1,741,1198,0,0
-476,-174,0,0,0,0,0,0,0,0,0,-1,748,1198,0,0
-469,-174,0,0,0,0,0,0,0,0,0,-1,755,1198,0,0
-462,-174,0,0,0,0,0,0,0,0,0,-1,762,1198,0,0
-455,-174,0,0,0,0,0,0,0,0,0,-1,769,1198,0,0
-448,-174,0,0,0,0,0,0,0,0,0,-1,776,1198,0,0
-441,-174,0,0,0,0,0,0,0,0,0,-1,783,1198,0,0
-434,-174,0,0,0,0,0,0,0,0,0,-1,790,1198,0,0
-427,-174,0,0,0,0,0,0,0,0,0,-1,797,1198,0,0
-420,-174,0,0,0,0,0,0,0,0,0,-1,804,1198,0,0
-413,-174,0,0,0,0,0,0,0,0,0,-1,811,1198,0,0
-406,-174,0,0,0,0,0,0,0,0,0,-1,818,1198,0,0
-399,-174,0,0,0,0,0,0,0,0,0,-1,825,1198,0,0
-392,-174,0,0,0,0,0,0,0,0,0,-1,832,1198,0,0
-385,-174,0,0,0,0,0,0,0,0,0,-1,839,1198,0,0
-378,-174,0,0,0,0,0,0,0,0,0,-1,846,1198,0,0
-371,-174,0,0,0,0,0,0,0,0,0,-1,853,1198,0,0
-364,-174,0,0,0,0,0,0,0,0,0,-1,860,1198,0,0
-357,-174,0,0,0,0,0,0,0,0,0,-1,867,1198,0,0
-350,-174,0,0,0,0,0,0,0,0,0,-1,874,1198,0,0
-343,-174,0,0,0,0,0,0,0,0,0,-1,881,1198,0,0
-336,-174,0,0,0,0,0,0,0,0,0,-1,888,1198,0,0
-329,-174,0,0,0,0,0,0,0,0,0,-1,895,1198,0,0
-322,-174,0,0,0,0,0,0,0,0,0,-1,902,1198,0,0
-315,-174,0,0,0,0,0,0,0,0,0,-1,909,1198,0,0
-308,-174,0,0,0,0,0,0,0,0,0,-1,916,1198,0,0
-301,-174,0,0,0,0,0,0,0,0,0,-1,923,1198,0,0
-294,-174,0,0,0,0,0,0,0,0,0,-1,930,1198,0,0
-287,-174,0,0,0,0,0,0,0,0,0,-1,937,1198,0,0
-280,-174,0,0,0,0,0,0,0,0,0,-1,944,1198,0,0
-273,-174,0,0,0,0,0,0,0,0,0,-1,951,1198,0,0
-266,-174,0,0,0,0,0,0,0,0,0,-1,958,1198,0,0
-259,-174,0,0,0,0,0,0,0,0,0,-1,965,1198,0,0
-252,-174,0,0,0,0,0,0,0,0,0,-1,972,1198,0,0
-245,-174,0,0,0,0,0,0,0,0,0,-1,979,1198,0,0
-238,-174,0,0,0,0,0,0,0,0,0,-1,986,1198,0,0
-231,-174,0,0,0,0,0,0,0,0,0,-1,993,1198,0,0
-224,-174,0,0,0,0,0,0,0,0,0,-1,1000,1198,0,0
-217,-174,0,0,0,0,0,0,0,0,0,-1,1007,1198,0,0
-210,-174,0,0,0,0,0,0,0,0,0,-1,1014,1198,0,0
-203,-174,0,0,0,0,0,0,0,0,0,-1,1021,1198,0,0
-196,-174,0,0,0,0,0,0,0,0,0,-1,1028,1198,0,0
-189,-174,0,0,0,0,0,0,0,0,0,-1,1035,1198,0,0
-182,-174,0,0,0,0,0,0,0,0,0,-1,1042,1198,0,0
-175,-174,0,0,0,0,0,0,0,0,0,-1,1049,1198,0,0
-168,-174,0,0,0,0,0,0,0,0,0,-1,1056,1198,0,0
-161,-174,0,0,0,0,0,0,0,0,0,-1,1063,1198,0,0
-154,-174,0,0,0,0,0,0,0,0,0,-1,1070,1198,0,0
-147,-174,0,0,0,0,0,0,0,0,0,-1,1077,1198,0,0
-140,-174,0,0,0,0,0,0,0,0,0,-1,1084,1198,0,0
-133,-174,0,0,0,0,0,0,0,0,0,-1,1091,1198,0,0
-126,-174,0,0,0,0,0,0,0,0,0,-1,1098,1198,0,0
-119,-174,0,0,0,0,0,0,0,0,0,-1,1105,1198,0,0
-112,-174,0,0,0,0,0,0,0,0,0,-1,1112,1198,0,0
-105,-174,0,0,0,0,0,0,0,0,0,-1,1119,1198,0,0
-98,-174,0,0,0,0,0,0,0,0,0,-1,1126,1198,0,0
-91,-174,0,0,0,0,0,0,0,0,0,-1,1133,1198,0,0
-84,-174,0,0,0,0,0,0,0,0,0,-1,1140,1198,0,0
-77,-174,0,0,0,0,0,0,0,0,0,-1,1147,1198,0,0
-70,-174,0,0,0,0,0,0,0,0,0,-1,1154,1198,0,0
-63,-174,0,0,0,0,0,0,0,0,0,-1,1161,1198,0,0
-56,-174,0,0,0,0,0,0,0,0,0,-1,1168,1198,0,0
-49,-174,0,0,0,0,0,0,0,0,0,-1,1175,1198,0,0
-42,-174,0,0,0,0,0,0,0,0,0,-1,1182,1198,0,0
-35,-174,0,0,0,0,0,0,0,0,0,-1,1189,1198,0,0
-28,-174,0,0,0,0,0,0,0,0,0,-1,1196,1198,0,0
-21,-174,0,0,0,0,0,0,0,0,0,-1,1203,1198,0,0
-14,-174,0,0,0,0,0,0,0,0,0,-1,1210,1198,0,0
-7,-174,0,0,0,0,0,0,0,0,0,-1,1217,1198,0,0
0,-174,0,0,0,0,0,0,0,0,0,-1,1224,1198,0,0
7,-174,0,0,0,0,0,0,0,0,0,-1,1231,1198,0,0
14,-174,0,0,0,0,0,0,0,0,0,-1,1238,1198,0,0
21,-174,0,0,0,0,0,0,0,0,0,-1,1245,1198,0,0
28,-174,0,0,0,0,0,0,0,0,0,-1,1252,1198,0,0
35,-174,0,0,0,0,0,0,0,0,0,-1,1259,1198,0,0
42,-174,0,0,0,0,0,0,0,0,0,-1,1266,1198,0,0
49,-174,0,0,0,0,0,0,0,0,0,-1,1273,1198,0,0
56,-174,0,0,0,0,0,0,0,0,0,-1,1280,1198,0,0
63,-174,0,0,0,0,0,0,0,0,0,-1,1287,1198,0,0
70,-174,0,0,0,0,0,0,0,0,0,-1,1294,1198,0,0
77,-174,0,0,0,0,0,0,0,0,0,-1,1301,1198,0,0
84,-174,0,0,0,0,0,0,0,0,0,-1,1308,1198,0,0
91,-174,0,0,0,0,0,0,0,0,0,-1,1315,1198,0,0
98,-174,0,0,0,0,0,0,0,0,0,-1,1322,1198,0,0
105,-174,0,0,0,0,0,0,0,0,0,-1,1329,1198,0,0
112,-174,0,0,0,0,0,0,0,0,0,-1,1336,1198,0,0
119,-174,0,0,0,0,0,0,0,0,0,-1,1343,1198,0,0
126,-174,0,0,0,0,0,0,0,0,0,-1,1350,1198,0,0
133,-174,0,0,0,0,0,0,0,0,0,-1,1357,1198,0,0
140,-174,0,0,0,0,0,0,0,0,0,-1,1364,1198,0,0
147,-174,0,0,0,0,0,0,0,0,0,-1,1371,1198,0,0
154,-174,0,0,0,0,0,0,0,0,0,-1,1378,1198,0,0
161,-174,0,0,0,0,0,0,0,0,0,-1,1385,1198,0,0
168,-174,0,0,0,0,0,0,0,0,0,-1,1392,1198,0,0
175,-174,0,0,0,0,0,0,0,0,0,-1,1399,1198,0,0
182,-174,0,0,0,0,0,0,0,0,0,-1,1406,1198,0,0
189,-174,0,0,0,0,0,0,0,0,0,-1,1413,1198,0,0
196,-174,0,0,0,0,0,0,0,0,0,-1,1420,1198,0,0
203,-174,0,0,0,0,0,0,0,0,0,-1,1427,1198,0,0
210,-174,0,0,0,0,0,0,0,0,0,-1,1434,1198,0,0
217,-174,0,0,0,0,0,0,0,0,0,-1,1441,1198,0,0
224,-174,0,0,0,0,0,0,0,0,0,-1,1448,1198,0,0
231,-174,0,0,0,0,0,0,0,0,0,-1,1455,1198,0,0
238,-174,0,0,0,0,0,0,0,0,0,-1,1462,1198,0,0
245,-174,0,0,0,0,0,0,0,0,0,-1,1469,1198,0,0
252,-174,0,0,0,0,0,0,0,0,0,-1,1476,1198,0,0
259,-174,0,0,0,0,0,0,0,0,0,-1,1483,1198,0,0
266,-174,0,0,0,0,0,0,0,0,0,-1,1490,1198,0,0
273,-174,0,0,0,0,0,0,0,0,0,-1,1497,1198,0,0
280,-174,0,0,0,0,0,0,0,0,0,-1,1504,1198,0,0
287,-174,0,0,0,0,0,0,0,0,0,-1,1511,1198,0,0
294,-174,0,0,0,0,0,0,0,0,0,-1,1518,1198,0,0
301,-174,0,0,0,0,0,0,0,0,0,-1,1525,1198,0,0
308,-174,0,0,0,0,0,0,0,0,0,-1,1532,1198,0,0
315,-174,0,0,0,0,0,0,0,0,0,-1,1539,1198,0,0
322,-174,0,0,0,0,0,0,0,0,0,-1,1546,1198,0,0
329,-174,0,0,0,0,0,0,0,0,0,-1,1553,1198,0,0
336,-174,0,0,0,0,0,0,0,0,0,-1,1560,1198,0,0
343,-174,0,0,0,0,0,0,0,0,0,-1,1567,1198,0,0
350,-174,0,0,0,0,0,0,0,0,0,-1,1574,1198,0,0
357,-174,0,0,0,0,0,0,0,0,0,-1,1581,1198,0,0
364,-174,0,0,0,0,0,0,0,0,0,-1,1588,1198,0,0
371,-174,0,0,0,0,0,0,0,0,0,-1,1595,1198,0,0
378,-174,0,0,0,0,0,0,0,0,0,-1,1602,1198,0,0
385,-174,0,0,0,0,0,0,0,0,0,-1,1609,1198,0,0
392,-174,0,0,0,0,0,0,0,0,0,-1,1616,1198,0,0
399,-174,0,0,0,0,0,0,0,0,0,-1,1623,1198,0,0
406,-174,0,0,0,0,0,0,0,0,0,-1,1630,1198,0,0
413,-174,0,0,0,0,0,0,0,0,0,-1,1637,1198,0,0
420,-174,0,0,0,0,0,0,0,0,0,-1,1644,1198,0,0
427,-174,0,0,0,0,0,0,0,0,0,-1,1651,1198,0,0
434,-174,0,0,0,0,0,0,0,0,0,-1,1658,1198,0,0
441,-174,0,0,0,0,0,0,0,0,0,-1,1665,1198,0,0
448,-174,0,0,0,0,0,0,0,0,0,-1,1672,1198,0,0
455,-174,0,0,0,0,0,0,0,0,0,-1,1679,1198,0,0
462,-174,0,0,0,0,0,0,0,0,0,-1,1686,1198,0,0
469,-174,0,0,0,0,0,0,0,0,0,-1,1693,1198,0,0
476,-174,0,0,0,0,0,0,0,0,0,-1,1700,1198,0,0
483,-174,0,0,0,0,0,0,0,0,0,-1,1707,1198,0,0
490,-174,0,0,0,0,0,0,0,0,0,-1,1714,1198,0,0
497,-174,0,0,0,0,0,0,0,0,0,-1,1721,1198,0,0
504,-174,0,0,0,0,0,0,0,0,0,-1,1728,1198,0,0
511,-174,0,0,0,0,0,0,0,0,0,-1,1735,1198,0,0
518,-174,0,0,0,0,0,0,0,0,0,-1,1742,1198,0,0
525,-174,0,0,0,0,0,0,0,0,0,-1,1749,1198,0,0
532,-174,0,0,0,0,0,0,0,0,0,-1,1756,1198,0,0
539,-174,0,0,0,0,0,0,0,0,0,-1,1763,1198,0,0
546,-174,0,0,0,0,0,0,0,0,0,-1,1770,1198,0,0
553,-174,0,0,0,0,0,0,0,0,0,-1,1777,1198,0,0
560,-174,0,0,0,0,0,0,0,0,0,-1,1784,1198,0,0
567,-174,0,0,0,0,0,0,0,0,0,-1,1791,1198,0,0
574,-174,0,0,0,0,0,0,0,0,0,-1,1798,1198,0,0
581,-174,0,0,0,0,0,0,0,0,0,-1,1805,1198,0,0
588,-174,0,0,0,0,0,0,0,0,0,-1,1812,1198,0,0
595,-174,0,0,0,0,0,0,0,0,0,-1,1819,1198,0,0
602,-174,0,0,0,0,0,0,0,0,0,-1,1826,1198,0,0
609,-174,0,0,0,0,0,0,0,0,0,-1,1833,1198,0,0
616,-174,0,0,0,0,0,0,0,0,0,-1,1840,1198,0,0
623,-174,0,0,0,0,0,0,0,0,0,-1,1847,1198,0,0
630,-174,0,0,0,0,0,0,0,0,0,-1,1854,1198,0,0
637,-174,56.1124,2.55835,0.0018677,-0.00251431,0.00225307,0.00281944,-0.00346605,0.399682,0.00363532,0.0427762,1861,1198,56.1124,-2.55832
644,-174,56.0502,2.51392,0.00170816,-0.00171268,0.0019167,0.00256665,-0.00257117,0.421105,0.00296632,0.041396,1868,1198,56.0502,-2.51392
651,-174,56.0121,2.60193,0.00171086,-0.000617325,0.00114218,0.00217762,-0.00108409,0.38795,0.00191811,0.0408965,1875,1198,56.0121,-2.60195
658,-174,56.0908,2.69385,0.00192035,0.000377631,0.000232168,0.00195453,0.000343448,0.146181,0.00120496,0.0401001,1882,1198,56.0908,-2.69389
665,-174,56.1824,2.62683,0.00222057,0.00105997,-0.000565774,0.00245073,0.000829806,-0.386361,0.0014393,0.0322981,1889,1198,56.1824,-2.62689
672,-174,56.1561,2.57361,0.0023604,0.00141001,-0.00107901,0.00306422,0.000706191,-0.577979,0.00185283,0.0248755,1896,1198,56.1561,-2.57363
679,-174,56.1732,2.60486,0.00231769,0.00125037,-0.00115926,0.00306022,0.000507835,-0.569688,0.00189371,0.0227613,1903,1198,56.1732,-2.6048
686,-174,56.1112,2.44678,0,0,0,0,0,0,0,-1,1910,1198,56.1113,-2.44679
693,-174,51.1324,2.57349,0,0,0,0,0,0,0,-1,1917,1198,51.1325,-2.57343
700,-174,25.4004,6.11792,0,0,0,0,0,0,0,-1,1924,1198,25.4004,-6.11797
707,-174,34.7908,7.34473,0,0,0,0,0,0,0,-1,1931,1198,34.7908,-7.34475
714,-174,40.1135,7.79871,0,0,0,0,0,0,0,-1,1938,1198,40.1135,-7.79875
721,-174,40.8693,7.59863,0,0,0,0,0,0,0,-1,1945,1198,40.8693,-7.59859
728,-174,47.1405,8.08032,0,0,0,0,0,0,0,-1,1952,1198,47.1405,-8.08034
735,-174,47.2416,7.38745,0.000936139,-0.000277731,0.000721814,0.00127228,-0.000613868,0.43582,0.00111086,0.0144402,1959,1198,47.2416,-7.38747
742,-174,47.2375,6.88306,0.000996644,-0.000202512,0.00154373,0.00205314,-0.00125901,0.600167,0.00193051,0.0198964,1966,1198,47.2376,-6.88311
749,-174,47.2479,6.40601,0.0013782,0.000452874,0.00300795,0.00395886,-0.00212779,0.70909,0.00356674,0.0186229,1973,1198,47.2479,-6.40599
756,-174,47.2336,5.9259,0.00203006,0.00109439,0.00458351,0.00616955,-0.0030451,0.73454,0.00542106,0.0117188,1980,1198,47.2336,-5.92594
763,-174,47.1982,5.45435,0.00284035,0.00185825,0.00665485,0.00902224,-0.00432365,0.748571,0.00786282,0.0158158,1987,1198,47.1983,-5.45429
770,-174,47.3602,5.00952,0.00367871,0.00249352,0.00919826,0.0123034,-0.00613121,0.75323,0.0108403,0.0376355,1994,1198,47.3602,-5.00951
777,-174,47.5452,4.78333,0,0,0,0,0,0,0,-1,2001,1198,47.5451,-4.78334
784,-174,46.7341,3.90161,0,0,0,0,0,0,0,-1,2008,1198,46.734,-3.90159
791,-174,46.6746,4.34106,0,0,0,0,0,0,0,-1,2015,1198,46.6747,-4.34108
798,-174,46.7163,4.14954,0.00540038,0.00304325,0.0234626,0.027714,-0.0192704,0.760303,0.0272721,0.0493948,2022,1198,46.7162,-4.1495
805,-174,46.8271,3.98157,0,0,0,0,0,0,0,-1,2029,1198,46.8271,-3.98159
812,-174,0,0,0,0,0,0,0,0,0,-1,2036,1198,0,0
-700,-181,0,0,0,0,0,0,0,0,0,-1,524,1205,0,0
-693,-181,0,0,0,0,0,0,0,0,0,-1,531,1205,0,0
-686,-181,-35.8324,-1.38342,0,0,0,0,0,0,0,-1,538,1205,-35.8324,1.38348
-679,-181,-35.1129,-0.530029,0,0,0,0,0,0,0,-1,545,1205,-35.1129,0.530026
-672,-181,-34.1944,-4.60583,0,0,0,0,0,0,0,-1,552,1205,-34.1944,4.6058
-665,-181,-33.6499,-0.0853271,0,0,0,0,0,0,0,-1,559,1205,-33.6499,0.0853451
-658,-181,-33.4109,0.831665,0,0,0,0,0,0,0,-1,566,1205,-33.4109,-0.831638
-651,-181,-32.1323,0.0456543,0,0,0,0,0,0,0,-1,573,1205,-32.1323,-0.0456226
-644,-181,-32.125,1.09912,0,0,0,0,0,0,0,-1,580,1205,-32.125,-1.09914
-637,-181,-32.1176,2.15271,0,0,0,0,0,0,0,-1,587,1205,-32.1176,-2.15266
-630,-181,-32.184,2.82886,0.00514342,0.00413507,0.00553214,0.0101943,-0.000915827,0.739956,0.00712114,0.0140261,594,1205,-32.184,-2.82885
-623,-181,-32.2357,3.32739,0.00303372,0.00202234,0.00248614,0.00506508,-9.01939e-06,0.685065,0.00337973,0.015861,601,1205,-32.2357,-3.32745
-616,-181,-32.2339,3.86719,0.00121752,0.000213991,9.79262e-05,0.00122699,0.000204525,0.0963705,0.000759056,0.0149486,608,1205,-32.2339,-3.86719
-609,-181,-32.2399,4.43823,-0.000169982,-0.000295729,-0.00124649,0.00101522,-0.00148093,-0.760199,0.00144949,0.0136007,615,1205,-32.2399,-4.43829
-602,-181,-32.2366,4.97937,-0.000815331,-0.000276295,-0.00192506,0.00139802,-0.00248964,-0.854949,0.00227385,0.0150114,622,1205,-32.2366,-4.97937
-595,-181,-32.1439,5.49268,0,0,0,0,0,0,0,-1,629,1205,-32.1439,-5.49266
-588,-181,-32.7606,5.9812,0,0,0,0,0,0,0,-1,636,1205,-32.7606,-5.98114
-581,-181,-32.8237,6.72864,0,0,0,0,0,0,0,-1,643,1205,-32.8237,-6.72865
-574,-181,-31.4653,6.98145,0,0,0,0,0,0,0,-1,650,1205,-31.4653,-6.98148
-567,-181,-25.8839,3.34485,0,0,0,0,0,0,0,-1,657,1205,-25.8839,-3.3449
-560,-181,-31.7396,1.63306,0,0,0,0,0,0,0,-1,664,1205,-31.7396,-1.63303
-553,-181,-41.8185,0.735596,0,0,0,0,0,0,0,-1,671,1205,-41.8185,-0.735573
-546,-181,-41.8954,0.74939,0.00153997,-0.000719372,-0.00216061,0.00284841,-0.00202781,-0.544518,0.00282854,0.0345131,678,1205,-41.8954,-0.749433
-539,-181,-41.985,0.770264,0.00248557,-0.000591452,-0.00177309,0.00329458,-0.00140047,-0.428059,0.00278325,0.0369498,685,1205,-41.985,-0.770316
-532,-181,-41.9924,0.686523,0.00394454,-0.000253041,-0.000653977,0.00404407,-0.00035257,-0.151031,0.00282093,0.0447796,692,1205,-41.9924,-0.68653
-525,-181,-41.8962,0.705322,0.00660871,0.000526752,0.00136017,0.00689904,0.000236422,0.210295,0.00452261,0.0444765,699,1205,-41.8961,-0.705293
-518,-181,-41.8209,0.932495,0.00982239,0.0017982,0.00382055,0.0113505,0.000270125,0.380474,0.00747856,0.0425615,706,1205,-41.8209,-0.932474
-511,-181,0,0,0,0,0,0,0,0,0,-1,713,1205,0,0
-504,-181,0,0,0,0,0,0,0,0,0,-1,720,1205,0,0
-497,-181,0,0,0,0,0,0,0,0,0,-1,727,1205,0,0
-490,-181,0,0,0,0,0,0,0,0,0,-1,734,1205,0,0
-483,-181,0,0,0,0,0,0,0,0,0,-1,741,1205,0,0
-476,-181,0,0,0,0,0,0,0,0,0,-1,748,1205,0,0
-469,-181,0,0,0,0,0,0,0,0,0,-1,755,1205,0,0
-462,-181,0,0,0,0,0,0,0,0,0,-1,762,1205,0,0
-455,-181,0,0,0,0,0,0,0,0,0,-1,769,1205,0,0
-448,-181,0,0,0,0,0,0,0,0,0,-1,776,1205,0,0
-441,-181,0,0,0,0,0,0,0,0,0,-1,783,1205,0,0
-434,-181,0,0,0,0,0,0,0,0,0,-1,790,1205,0,0
-427,-181,0,0,0,0,0,0,0,0,0,-1,797,1205,0,0
-420,-181,0,0,0,0,0,0,0,0,0,-1,804,1205,0,0
-413,-181,0,0,0,0,0,0,0,0,0,-1,811,1205,0,0
-406,-181,0,0,0,0,0,0,0,0,0,-1,818,1205,0,0
-399,-181,0,0,0,0,0,0,0,0,0,-1,825,1205,0,0
-392,-181,0,0,0,0,0,0,0,0,0,-1,832,1205,0,0
-385,-181,0,0,0,0,0,0,0,0,0,-1,839,1205,0,0
-378,-181,0,0,0,0,0,0,0,0,0,-1,846,1205,0,0
-371,-181,0,0,0,0,0,0,0,0,0,-1,853,1205,0,0
-364,-181,0,0,0,0,0,0,0,0,0,-1,860,1205,0,0
-357,-181,0,0,0,0,0,0,0,0,0,-1,867,1205,0,0
-350,-181,0,0,0,0,0,0,0,0,0,-1,874,1205,0,0
-343,-181,0,0,0,0,0,0,0,0,0,-1,881,1205,0,0
-336,-181,0,0,0,0,0,0,0,0,0,-1,888,1205,0,0
-329,-181,0,0,0,0,0,0,0,0,0,-1,895,1205,0,0
-322,-181,0,0,0,0,0,0,0,0,0,-1,902,1205,0,0
-315,-181,0,0,0,0,0,0,0,0,0,-1,909,1205,0,0
-308,-181,0,0,0,0,0,0,0,0,0,-1,916,1205,0,0
-301,-181,0,0,0,0,0,0,0,0,0,-1,923,1205,0,0
-294,-181,0,0,0,0,0,0,0,0,0,-1,930,1205,0,0
-287,-181,0,0,0,0,0,0,0,0,0,-1,937,1205,0,0
-280,-181,0,0,0,0,0,0,0,0,0,-1,944,1205,0,0
-273,-181,0,0,0,0,0,0,0,0,0,-1,951,1205,0,0
-266,-181,0,0,0,0,0,0,0,0,0,-1,958,1205,0,0
-259,-181,0,0,0,0,0,0,0,0,0,-1,965,1205,0,0
-252,-181,0,0,0,0,0,0,0,0,0,-1,972,1205,0,0
-245,-181,0,0,0,0,0,0,0,0,0,-1,979,1205,0,0
-238,-181,0,0,0,0,0,0,0,0,0,-1,986,1205,0,0
-231,-181,0,0,0,0,0,0,0,0,0,-1,993,1205,0,0
-224,-181,0,0,0,0,0,0,0,0,0,-1,1000,1205,0,0
-217,-181,0,0,0,0,0,0,0,0,0,-1,1007,1205,0,0
-210,-181,0,0,0,0,0,0,0,0,0,-1,1014,1205,0,0
-203,-181,0,0,0,0,0,0,0,0,0,-1,1021,1205,0,0
-196,-181,0,0,0,0,0,0,0,0,0,-1,1028,1205,0,0
-189,-181,0,0,0,0,0,0,0,0,0,-1,1035,1205,0,0
-182,-181,0,0,0,0,0,0,0,0,0,-1,1042,1205,0,0
-175,-181,0,0,0,0,0,0,0,0,0,-1,1049,1205,0,0
-168,-181,0,0,0,0,0,0,0,0,0,-1,1056,1205,0,0
-161,-181,0,0,0,0,0,0,0,0,0,-1,1063,1205,0,0
-154,-181,0,0,0,0,0,0,0,0,0,-1,1070,1205,0,0
-147,-181,0,0,0,0,0,0,0,0,0,-1,1077,1205,0,0
-140,-181,0,0,0,0,0,0,0,0,0,-1,1084,1205,0,0
-133,-181,0,0,0,0,0,0,0,0,0,-1,1091,1205,0,0
-126,-181,0,0,0,0,0,0,0,0,0,-1,1098,1205,0,0
-119,-181,0,0,0,0,0,0,0,0,0,-1,1105,1205,0,0
-112,-181,0,0,0,0,0,0,0,0,0,-1,1112,1205,0,0
-105,-181,0,0,0,0,0,0,0,0,0,-1,1119,1205,0,0
-98,-181,0,0,0,0,0,0,0,0,0,-1,1126,1205,0,0
-91,-181,0,0,0,0,0,0,0,0,0,-1,1133,1205,0,0
-84,-181,0,0,0,0,0,0,0,0,0,-1,1140,1205,0,0
-77,-181,0,0,0,0,0,0,0,0,0,-1,1147,1205,0,0
-70,-181,0,0,0,0,0,0,0,0,0,-1,1154,1205,0,0
-63,-181,0,0,0,0,0,0,0,0,0,-1,1161,1205,0,0
-56,-181,0,0,0,0,0,0,0,0,0,-1,1168,1205,0,0
-49,-181,0,0,0,0,0,0,0,0,0,-1,1175,1205,0,0
-42,-181,0,0,0,0,0,0,0,0,0,-1,1182,1205,0,0
-35,-181,0,0,0,0,0,0,0,0,0,-1,1189,1205,0,0
-28,-181,0,0,0,0,0,0,0,0,0,-1,1196,1205,0,0
-21,-181,0,0,0,0,0,0,0,0,0,-1,1203,1205,0,0
-14,-181,0,0,0,0,0,0,0,0,0,-1,1210,1205,0,0
-7,-181,0,0,0,0,0,0,0,0,0,-1,1217,1205,0,0
0,-181,0,0,0,0,0,0,0,0,0,-1,1224,1205,0,0
7,-181,0,0,0,0,0,0,0,0,0,-1,1231,1205,0,0
14,-181,0,0,0,0,0,0,0,0,0,-1,1238,1205,0,0
21,-181,0,0,0,0,0,0,0,0,0,-1,1245,1205,0,0
28,-181,0,0,0,0,0,0,0,0,0,-1,1252,1205,0,0
35,-181,0,0,0,0,0,0,0,0,0,-1,1259,1205,0,0
42,-181,0,0,0,0,0,0,0,0,0,-1,1266,1205,0,0
49,-181,0,0,0,0,0,0,0,0,0,-1,1273,1205,0,0
56,-181,0,0,0,0,0,0,0,0,0,-1,1280,1205,0,0
63,-181,0,0,0,0,0,0,0,0,0,-1,1287,1205,0,0
70,-181,0,0,0,0,0,0,0,0,0,-1,1294,1205,0,0
77,-181,0,0,0,0,0,0,0,0,0,-1,1301,1205,0,0
84,-181,0,0,0,0,0,0,0,0,0,-1,1308,1205,0,0
91,-181,0,0,0,0,0,0,0,0,0,-1,1315,1205,0,0
98,-181,0,0,0,0,0,0,0,0,0,-1,1322,1205,0,0
105,-181,0,0,0,0,0,0,0,0,0,-1,1329,1205,0,0
112,-181,0,0,0,0,0,0,0,0,0,-1,1336,1205,0,0
119,-181,0,0,0,0,0,0,0,0,0,-1,1343,1205,0,0
126,-181,0,0,0,0,0,0,0,0,0,-1,1350,1205,0,0
133,-181,0,0,0,0,0,0,0,0,0,-1,1357,1205,0,0
140,-181,0,0,0,0,0,0,0,0,0,-1,1364,1205,0,0
147,-181,0,0,0,0,0,0,0,0,0,-1,1371,1205,0,0
154,-181,0,0,0,0,0,0,0,0,0,-1,1378,1205,0,0
161,-181,0,0,0,0,0,0,0,0,0,-1,1385,1205,0,0
168,-181,0,0,0,0,0,0,0,0,0,-1,1392,1205,0,0
175,-181,0,0,0,0,0,0,0,0,0,-1,1399,1205,0,0
182,-181,0,0,0,0,0,0,0,0,0,-1,1406,1205,0,0
189,-181,0,0,0,0,0,0,0,0,0,-1,1413,1205,0,0
196,-181,0,0,0,0,0,0,0,0,0,-1,1420,1205,0,0
203,-181,0,0,0,0,0,0,0,0,0,-1,1427,1205,0,0
210,-181,0,0,0,0,0,0,0,0,0,-1,1434,1205,0,0
217,-181,0,0,0,0,0,0,0,0,0,-1,1441,1205,0,0
224,-181,0,0,0,0,0,0,0,0,0,-1,1448,1205,0,0
231,-181,0,0,0,0,0,0,0,0,0,-1,1455,1205,0,0
238,-181,0,0,0,0,0,0,0,0,0,-1,1462,1205,0,0
245,-181,0,0,0,0,0,0,0,0,0,-1,1469,1205,0,0
252,-181,0,0,0,0,0,0,0,0,0,-1,1476,1205,0,0
259,-181,0,0,0,0,0,0,0,0,0,-1,1483,1205,0,0
266,-181,0,0,0,0,0,0,0,0,0,-1,1490,1205,0,0
273,-181,0,0,0,0,0,0,0,0,0,-1,1497,1205,0,0
280,-181,0,0,0,0,0,0,0,0,0,-1,1504,1205,0,0
287,-181,0,0,0,0,0,0,0,0,0,-1,1511,1205,0,0
294,-181,0,0,0,0,0,0,0,0,0,-1,1518,1205,0,0
301,-181,0,0,0,0,0,0,0,0,0,-1,1525,1205,0,0
308,-181,0,0,0,0,0,0,0,0,0,-1,1532,1205,0,0
315,-181,0,0,0,0,0,0,0,0,0,-1,1539,1205,0,0
322,-181,0,0,0,0,0,0,0,0,0,-1,1546,1205,0,0
329,-181,0,0,0,0,0,0,0,0,0,-1,1553,1205,0,0
336,-181,0,0,0,0,0,0,0,0,0,-1,1560,1205,0,0
343,-181,0,0,0,0,0,0,0,0,0,-1,1567,1205,0,0
350,-181,0,0,0,0,0,0,0,0,0,-1,1574,1205,0,0
357,-181,0,0,0,0,0,0,0,0,0,-1,1581,1205,0,0
364,-181,0,0,0,0,0,0,0,0,0,-1,1588,1205,0,0
371,-181,0,0,0,0,0,0,0,0,0,-1,1595,1205,0,0
378,-181,0,0,0,0,0,0,0,0,0,-1,1602,1205,0,0
385,-181,0,0,0,0,0,0,0,0,0,-1,1609,1205,0,0
392,-181,0,0,0,0,0,0,0,0,0,-1,1616,1205,0,0
399,-181,0,0,0,0,0,0,0,0,0,-1,1623,1205,0,0
406,-181,0,0,0,0,0,0,0,0,0,-1,1630,1205,0,0
413,-181,0,0,0,0,0,0,0,0,0,-1,1637,1205,0,0
420,-181,0,0,0,0,0,0,0,0,0,-1,1644,1205,0,0
427,-181,0,0,0,0,0,0,0,0,0,-1,1651,1205,0,0
434,-181,0,0,0,0,0,0,0,0,0,-1,1658,1205,0,0
441,-181,0,0,0,0,0,0,0,0,0,-1,1665,1205,0,0
448,-181,0,0,0,0,0,0,0,0,0,-1,1672,1205,0,0
455,-181,0,0,0,0,0,0,0,0,0,-1,1679,1205,0,0
462,-181,0,0,0,0,0,0,0,0,0,-1,1686,1205,0,0
469,-181,0,0,0,0,0,0,0,0,0,-1,1693,1205,0,0
476,-181,0,0,0,0,0,0,0,0,0,-1,1700,1205,0,0
483,-181,0,0,0,0,0,0,0,0,0,-1,1707,1205,0,0
490,-181,0,0,0,0,0,0,0,0,0,-1,1714,1205,0,0
497,-181,0,0,0,0,0,0,0,0,0,-1,1721,1205,0,0
504,-181,0,0,0,0,0,0,0,0,0,-1,1728,1205,0,0
511,-181,0,0,0,0,0,0,0,0,0,-1,1735,1205,0,0
518,-181,0,0,0,0,0,0,0,0,0,-1,1742,1205,0,0
525,-181,0,0,0,0,0,0,0,0,0,-1,1749,1205,0,0
532,-181,0,0,0,0,0,0,0,0,0,-1,1756,1205,0,0
539,-181,0,0,0,0,0,0,0,0,0,-1,1763,1205,0,0
546,-181,0,0,0,0,0,0,0,0,0,-1,1770,1205,0,0
553,-181,0,0,0,0,0,0,0,0,0,-1,1777,1205,0,0
560,-181,0,0,0,0,0,0,0,0,0,-1,1784,1205,0,0
567,-181,0,0,0,0,0,0,0,0,0,-1,1791,1205,0,0
574,-181,0,0,0,0,0,0,0,0,0,-1,1798,1205,0,0
581,-181,0,0,0,0,0,0,0,0,0,-1,1805,1205,0,0
588,-181,0,0,0,0,0,0,0,0,0,-1,1812,1205,0,0
595,-181,0,0,0,0,0,0,0,0,0,-1,1819,1205,0,0
602,-181,0,0,0,0,0,0,0,0,0,-1,1826,1205,0,0
609,-181,0,0,0,0,0,0,0,0,0,-1,1833,1205,0,0
616,-181,0,0,0,0,0,0,0,0,0,-1,1840,1205,0,0
623,-181,0,0,0,0,0,0,0,0,0,-1,1847,1205,0,0
630,-181,56.2085,2.80505,0.0013089,-0.00137062,0.000139338,0.00131613,-0.00137785,0.0518148,0.0015555,0.0404186,1854,1205,56.2085,-2.80501
637,-181,56.2408,2.69653,0.00138976,-0.00113087,0.000392885,0.00144958,-0.00119069,0.151094,0.0015268,0.0366175,1861,1205,56.2409,-2.69658
644,-181,56.1128,2.56519,0.00152322,-0.000495961,0.000254574,0.00155482,-0.000527563,0.123503,0.00125008,0.0374664,1868,1205,56.1128,-2.56522
651,-181,56.1738,2.55225,0.00177345,0.000389479,-0.000251719,0.00181781,0.000345117,-0.174442,0.00111478,0.0385179,1875,1205,56.1739,-2.55225
658,-181,56.134,2.70203,0.00214587,0.00104249,-0.000832867,0.00259319,0.000595162,-0.492876,0.00156851,0.0336109,1882,1205,56.1341,-2.70207
665,-181,56.1229,2.63037,0.00248471,0.00134417,-0.00127063,0.00330718,0.000521705,-0.574467,0.0020531,0.0295923,1889,1205,56.1229,-2.63037
672,-181,56.1493,2.59448,0.00264244,0.00139978,-0.00147291,0.00361971,0.000422509,-0.585802,0.00228536,0.0231533,1896,1205,56.1493,-2.59453
679,-181,56.1877,2.59534,0.00260859,0.00114891,-0.00139237,0.00345081,0.000306692,-0.544001,0.00220543,0.0305717,1903,1205,56.1878,-2.59538
686,-181,56.2435,2.57507,0,0,0,0,0,0,0,-1,1910,1205,56.2436,-2.57511
693,-181,36.1301,2.91016,0,0,0,0,0,0,0,-1,1917,1205,36.1302,-2.9102
700,-181,29.5845,6.58398,0,0,0,0,0,0,0,-1,1924,1205,29.5844,-6.58395
707,-181,47.4401,9.27161,0,0,0,0,0,0,0,-1,1931,1205,47.44,-9.27163
714,-181,47.6176,9.00049,0,0,0,0,0,0,0,-1,1938,1205,47.6175,-9.00049
721,-181,46.4426,8.53491,0,0,0,0,0,0,0,-1,1945,1205,46.4426,-8.5349
728,-181,46.7717,7.85974,0.00127875,-0.000154036,8.5655e-05,0.00128385,-0.000159138,0.0594998,0.000913577,0.0413132,1952,1205,46.7718,-7.85968
735,-181,46.7992,7.38782,0.00119602,-0.00042428,0.000702624,0.00145826,-0.000686521,0.35722,0.00126473,0.0126907,1959,1205,46.7992,-7.38781
742,-181,46.7799,6.91846,0.00129774,-0.000226442,0.00152879,0.00224386,-0.00117256,0.554178,0.00200454,0.0173745,1966,1205,46.7799,-6.91842
749,-181,46.7682,6.39771,0.00171932,0.000575282,0.00300287,0.00420416,-0.00190956,0.69128,0.00361168,0.0163878,1973,1205,46.7681,-6.39765
756,-181,46.7566,5.89563,0.0024069,0.00128128,0.00453228,0.00641118,-0.002723,0.723625,0.00541503,0.0124124,1980,1205,46.7566,-5.89558
763,-181,46.7498,5.43152,0.00332183,0.00206011,0.00659653,0.00931759,-0.00393566,0.737726,0.00785925,0.0150399,1987,1205,46.7498,-5.43148
770,-181,46.9612,4.84619,0.00430451,0.00266803,0.00918082,0.0127035,-0.00573095,0.740953,0.0108939,0.0409976,1994,1205,46.9611,-4.84617
777,-181,47.2891,4.11389,0,0,0,0,0,0,0,-1,2001,1205,47.289,-4.1139
784,-181,49.4673,-0.801392,0,0,0,0,0,0,0,-1,2008,1205,49.4674,0.801388
791,-181,51.4558,0.762085,0,0,0,0,0,0,0,-1,2015,1205,51.4558,-0.762099
798,-181,45.8289,4.4198,0,0,0,0,0,0,0,-1,2022,1205,45.8288,-4.41985
805,-181,0,0,0,0,0,0,0,0,0,-1,2029,1205,0,0
812,-181,0,0,0,0,0,0,0,0,0,-1,2036,1205,0,0
-700,-188,0,0,0,0,0,0,0,0,0,-1,524,1212,0,0
-693,-188,0,0,0,0,0,0,0,0,0,-1,531,1212,0,0
-686,-188,0,0,0,0,0,0,0,0,0,-1,538,1212,0,0
-679,-188,-34.2984,0.317993,0,0,0,0,0,0,0,-1,545,1212,-34.2984,-0.318004
-672,-188,-33.9442,1.02283,0,0,0,0,0,0,0,-1,552,1212,-33.9441,-1.02287
-665,-188,-32.9136,-0.271851,0,0,0,0,0,0,0,-1,559,1212,-32.9136,0.27183
-658,-188,-31.1147,-1.24182,0,0,0,0,0,0,0,-1,566,1212,-31.1148,1.24187
-651,-188,-31.4035,-0.0125732,0.0102614,0.0139101,0.0214321,0.0335954,-0.0094239,0.827857,0.0261114,0.0475367,573,1212,-31.4035,0.0125795
-644,-188,-31.6546,1.19653,0.00800793,0.0087569,0.0151905,0.0235776,-0.00681273,0.797722,0.0184143,0.0434087,580,1212,-31.6546,-1.19651
-637,-188,-31.6009,2.22461,0,0,0,0,0,0,0,-1,587,1212,-31.6009,-2.22457
-630,-188,-31.6604,2.83972,0.00389146,0.00298256,0.00610168,0.00955559,-0.00268157,0.748227,0.0074274,0.0118024,594,1212,-31.6604,-2.83974
-623,-188,-31.6763,3.37244,0.00234781,0.00150593,0.00301644,0.00497254,-0.0011188,0.716071,0.0037441,0.011947,601,1212,-31.6762,-3.37241
-616,-188,-31.6641,3.91248,0.00105801,3.3366e-05,0.000626237,0.00135479,-0.000263415,0.442559,0.0010026,0.0113104,608,1212,-31.6641,-3.91253
-609,-188,-31.6547,4.47046,0.000166605,-0.00032186,-0.000854592,0.000811179,-0.000966434,-0.646214,0.00102761,0.0135518,615,1212,-31.6547,-4.4704
-602,-188,-31.652,5.03552,-0.00030946,-0.000250189,-0.00167605,0.00139649,-0.00195614,-0.794238,0.00194461,0.0171141,622,1212,-31.652,-5.03553
-595,-188,-31.7808,5.50391,-0.000982807,-0.000332721,-0.00183699,0.00120776,-0.00252328,-0.872964,0.0021983,0.0289345,629,1212,-31.7808,-5.50395
-588,-188,-32.006,6.05383,-0.000813678,-0.000548946,-0.00205958,0.00138252,-0.00274514,-0.817488,0.002426,0.0273021,636,1212,-32.006,-6.05388
-581,-188,-32.0038,6.57678,0,0,0,0,0,0,0,-1,643,1212,-32.0038,-6.57675
-574,-188,-32.3083,7.0271,0,0,0,0,0,0,0,-1,650,1212,-32.3084,-7.0271
-567,-188,-19.5786,4.10388,0,0,0,0,0,0,0,-1,657,1212,-19.5785,-4.10383
-560,-188,-23.9507,0.416626,0,0,0,0,0,0,0,-1,664,1212,-23.9508,-0.416602
-553,-188,-41.778,0.472778,0,0,0,0,0,0,0,-1,671,1212,-41.778,-0.472767
-546,-188,-41.8555,0.738403,0.00159951,-0.00102061,-0.00205117,0.00272329,-0.00214438,-0.501207,0.00281697,0.0426768,678,1212,-41.8556,-0.73838
-539,-188,-41.9619,0.890869,0.00219799,-0.00102355,-0.00184638,0.00303746,-0.00186302,-0.426722,0.00285625,0.035383,685,1212,-41.9619,-0.890817
-532,-188,-41.8753,0.72583,0.00300691,-0.000862489,-0.00113518,0.00331536,-0.00117093,-0.265309,0.00268699,0.0405795,692,1212,-41.8753,-0.725824
-525,-188,-41.8143,0.59729,0.00481999,-0.000280956,0.000431524,0.00485624,-0.000317204,0.0838031,0.00334824,0.0411518,699,1212,-41.8143,-0.597335
-518,-188,-41.8284,0.904907,0.00746504,0.000895553,0.00273504,0.00845463,-9.40422e-05,0.347167,0.00566803,0.0424528,706,1212,-41.8283,-0.904906
-511,-188,-41.8974,1.12244,0.0110708,0.00307403,0.00577499,0.0140965,4.83333e-05,0.482608,0.00938157,0.0413138,713,1212,-41.8974,-1.12249
-504,-188,0,0,0,0,0,0,0,0,0,-1,720,1212,0,0
-497,-188,0,0,0,0,0,0,0,0,0,-1,727,1212,0,0
-490,-188,0,0,0,0,0,0,0,0,0,-1,734,1212,0,0
-483,-188,0,0,0,0,0,0,0,0,0,-1,741,1212,0,0
-476,-188,0,0,0,0,0,0,0,0,0,-1,748,1212,0,0
-469,-188,0,0,0,0,0,0,0,0,0,-1,755,1212,0,0
-462,-188,0,0,0,0,0,0,0,0,0,-1,762,1212,0,0
-455,-188,0,0,0,0,0,0,0,0,0,-1,769,1212,0,0
-448,-188,0,0,0,0,0,0,0,0,0,-1,776,1212,0,0
-441,-188,0,0,0,0,0,0,0,0,0,-1,783,1212,0,0
-434,-188,0,0,0,0,0,0,0,0,0,-1,790,1212,0,0
-427,-188,0,0,0,0,0,0,0,0,0,-1,797,1212,0,0
-420,-188,0,0,0,0,0,0,0,0,0,-1,804,1212,0,0
-413,-188,0,0,0,0,0,0,0,0,0,-1,811,1212,0,0
-406,-188,0,0,0,0,0,0,0,0,0,-1,818,1212,0,0
-399,-188,0,0,0,0,0,0,0,0,0,-1,825,1212,0,0
-392,-188,0,0,0,0,0,0,0,0,0,-1,832,1212,0,0
-385,-188,0,0,0,0,0,0,0,0,0,-1,839,1212,0,0
-378,-188,0,0,0,0,0,0,0,0,0,-1,846,1212,0,0
-371,-188,0,0,0,0,0,0,0,0,0,-1,853,1212,0,0
-364,-188,0,0,0,0,0,0,0,0,0,-1,860,1212,0,0
-357,-188,0,0,0,0,0,0,0,0,0,-1,867,1212,0,0
-350,-188,0,0,0,0,0,0,0,0,0,-1,874,1212,0,0
-343,-188,0,0,0,0,0,0,0,0,0,-1,881,1212,0,0
-336,-188,0,0,0,0,0,0,0,0,0,-1,888,1212,0,0
-329,-188,0,0,0,0,0,0,0,0,0,-1,895,1212,0,0
-322,-188,0,0,0,0,0,0,0,0,0,-1,902,1212,0,0
-315,-188,0,0,0,0,0,0,0,0,0,-1,909,1212,0,0
-308,-188,0,0,0,0,0,0,0,0,0,-1,916,1212,0,0
-301,-188,0,0,0,0,0,0,0,0,0,-1,923,1212,0,0
-294,-188,0,0,0,0,0,0,0,0,0,-1,930,1212,0,0
-287,-188,0,0,0,0,0,0,0,0,0,-1,937,1212,0,0
-280,-188,0,0,0,0,0,0,0,0,0,-1,944,1212,0,0
-273,-188,0,0,0,0,0,0,0,0,0,-1,951,1212,0,0
-266,-188,0,0,0,0,0,0,0,0,0,-1,958,1212,0,0
-259,-188,0,0,0,0,0,0,0,0,0,-1,965,1212,0,0
-252,-188,0,0,0,0,0,0,0,0,0,-1,972,1212,0,0
-245,-188,0,0,0,0,0,0,0,0,0,-1,979,1212,0,0
-238,-188,0,0,0,0,0,0,0,0,0,-1,986,1212,0,0
-231,-188,0,0,0,0,0,0,0,0,0,-1,993,1212,0,0
-224,-188,0,0,0,0,0,0,0,0,0,-1,1000,1212,0,0
-217,-188,0,0,0,0,0,0,0,0,0,-1,1007,1212,0,0
-210,-188,0,0,0,0,0,0,0,0,0,-1,1014,1212,0,0
-203,-188,0,0,0,0,0,0,0,0,0,-1,1021,1212,0,0
-196,-188,0,0,0,0,0,0,0,0,0,-1,1028,1212,0,0
-189,-188,0,0,0,0,0,0,0,0,0,-1,1035,1212,0,0
-182,-188,0,0,0,0,0,0,0,0,0,-1,1042,1212,0,0
-175,-188,0,0,0,0,0,0,0,0,0,-1,1049,1212,0,0
-168,-188,0,0,0,0,0,0,0,0,0,-1,1056,1212,0,0
-161,-188,0,0,0,0,0,0,0,0,0,-1,1063,1212,0,0
-154,-188,0,0,0,0,0,0,0,0,0,-1,1070,1212,0,0
-147,-188,0,0,0,0,0,0,0,0,0,-1,1077,1212,0,0
-140,-188,0,0,0,0,0,0,0,0,0,-1,1084,1212,0,0
-133,-188,0,0,0,0,0,0,0,0,0,-1,1091,1212,0,0
-126,-188,0,0,0,0,0,0,0,0,0,-1,1098,1212,0,0
-119,-188,0,0,0,0,0,0,0,0,0,-1,1105,1212,0,0
-112,-188,0,0,0,0,0,0,0,0,0,-1,1112,1212,0,0
-105,-188,0,0,0,0,0,0,0,0,0,-1,1119,1212,0,0
-98,-188,0,0,0,0,0,0,0,0,0,-1,1126,1212,0,0
-91,-188,0,0,0,0,0,0,0,0,0,-1,1133,1212,0,0
-84,-188,0,0,0,0,0,0,0,0,0,-1,1140,1212,0,0
-77,-188,0,0,0,0,0,0,0,0,0,-1,1147,1212,0,0
-70,-188,0,0,0,0,0,0,0,0,0,-1,1154,1212,0,0
-63,-188,0,0,0,0,0,0,0,0,0,-1,1161,1212,0,0
-56,-188,0,0,0,0,0,0,0,0,0,-1,1168,1212,0,0
-49,-188,0,0,0,0,0,0,0,0,0,-1,1175,1212,0,0
-42,-188,0,0,0,0,0,0,0,0,0,-1,1182,1212,0,0
-35,-188,0,0,0,0,0,0,0,0,0,-1,1189,1212,0,0
-28,-188,0,0,0,0,0,0,0,0,0,-1,1196,1212,0,0
-21,-188,0,0,0,0,0,0,0,0,0,-1,1203,1212,0,0
-14,-188,0,0,0,0,0,0,0,0,0,-1,1210,1212,0,0
-7,-188,0,0,0,0,0,0,0,0,0,-1,1217,1212,0,0
0,-188,0,0,0,0,0,0,0,0,0,-1,1224,1212,0,0
7,-188,0,0,0,0,0,0,0,0,0,-1,1231,1212,0,0
14,-188,0,0,0,0,0,0,0,0,0,-1,1238,1212,0,0
21,-188,0,0,0,0,0,0,0,0,0,-1,1245,1212,0,0
28,-188,0,0,0,0,0,0,0,0,0,-1,1252,1212,0,0
35,-188,0,0,0,0,0,0,0,0,0,-1,1259,1212,0,0
42,-188,0,0,0,0,0,0,0,0,0,-1,1266,1212,0,0
49,-188,0,0,0,0,0,0,0,0,0,-1,1273,1212,0,0
56,-188,0,0,0,0,0,0,0,0,0,-1,1280,1212,0,0
63,-188,0,0,0,0,0,0,0,0,0,-1,1287,1212,0,0
70,-188,0,0,0,0,0,0,0,0,0,-1,1294,1212,0,0
77,-188,0,0,0,0,0,0,0,0,0,-1,1301,1212,0,0
84,-188,0,0,0,0,0,0,0,0,0,-1,1308,1212,0,0
91,-188,0,0,0,0,0,0,0,0,0,-1,1315,1212,0,0
98,-188,0,0,0,0,0,0,0,0,0,-1,1322,1212,0,0
105,-188,0,0,0,0,0,0,0,0,0,-1,1329,1212,0,0
112,-188,0,0,0,0,0,0,0,0,0,-1,1336,1212,0,0
119,-188,0,0,0,0,0,0,0,0,0,-1,1343,1212,0,0
126,-188,0,0,0,0,0,0,0,0,0,-1,1350,1212,0,0
133,-188,0,0,0,0,0,0,0,0,0,-1,1357,1212,0,0
140,-188,0,0,0,0,0,0,0,0,0,-1,1364,1212,0,0
147,-188,0,0,0,0,0,0,0,0,0,-1,1371,1212,0,0
154,-188,0,0,0,0,0,0,0,0,0,-1,1378,1212,0,0
161,-188,0,0,0,0,0,0,0,0,0,-1,1385,1212,0,0
168,-188,0,0,0,0,0,0,0,0,0,-1,1392,1212,0,0
175,-188,0,0,0,0,0,0,0,0,0,-1,1399,1212,0,0
182,-188,0,0,0,0,0,0,0,0,0,-1,1406,1212,0,0
189,-188,0,0,0,0,0,0,0,0,0,-1,1413,1212,0,0
196,-188,0,0,0,0,0,0,0,0,0,-1,1420,1212,0,0
203,-188,0,0,0,0,0,0,0,0,0,-1,1427,1212,0,0
210,-188,0,0,0,0,0,0,0,0,0,-1,1434,1212,0,0
217,-188,0,0,0,0,0,0,0,0,0,-1,1441,1212,0,0
224,-188,0,0,0,0,0,0,0,0,0,-1,1448,1212,0,0
231,-188,0,0,0,0,0,0,0,0,0,-1,1455,1212,0,0
238,-188,0,0,0,0,0,0,0,0,0,-1,1462,1212,0,0
245,-188,0,0,0,0,0,0,0,0,0,-1,1469,1212,0,0
252,-188,0,0,0,0,0,0,0,0,0,-1,1476,1212,0,0
259,-188,0,0,0,0,0,0,0,0,0,-1,1483,1212,0,0
266,-188,0,0,0,0,0,0,0,0,0,-1,1490,1212,0,0
273,-188,0,0,0,0,0,0,0,0,0,-1,1497,1212,0,0
280,-188,0,0,0,0,0,0,0,0,0,-1,1504,1212,0,0
287,-188,0,0,0,0,0,0,0,0,0,-1,1511,1212,0,0
294,-188,0,0,0,0,0,0,0,0,0,-1,1518,1212,0,0
301,-188,0,0,0,0,0,0,0,0,0,-1,1525,1212,0,0
308,-188,0,0,0,0,0,0,0,0,0,-1,1532,1212,0,0
315,-188,0,0,0,0,0,0,0,0,0,-1,1539,1212,0,0
322,-188,0,0,0,0,0,0,0,0,0,-1,1546,1212,0,0
329,-188,0,0,0,0,0,0,0,0,0,-1,1553,1212,0,0
336,-188,0,0,0,0,0,0,0,0,0,-1,1560,1212,0,0
343,-188,0,0,0,0,0,0,0,0,0,-1,1567,1212,0,0
350,-188,0,0,0,0,0,0,0,0,0,-1,1574,1212,0,0
357,-188,0,0,0,0,0,0,0,0,0,-1,1581,1212,0,0
364,-188,0,0,0,0,0,0,0,0,0,-1,1588,1212,0,0
371,-188,0,0,0,0,0,0,0,0,0,-1,1595,1212,0,0
378,-188,0,0,0,0,0,0,0,0,0,-1,1602,1212,0,0
385,-188,0,0,0,0,0,0,0,0,0,-1,1609,1212,0,0
392,-188,0,0,0,0,0,0,0,0,0,-1,1616,1212,0,0
399,-188,0,0,0,0,0,0,0,0,0,-1,1623,1212,0,0
406,-188,0,0,0,0,0,0,0,0,0,-1,1630,1212,0,0
413,-188,0,0,0,0,0,0,0,0,0,-1,1637,1212,0,0
420,-188,0,0,0,0,0,0,0,0,0,-1,1644,1212,0,0
427,-188,0,0,0,0,0,0,0,0,0,-1,1651,1212,0,0
434,-188,0,0,0,0,0,0,0,0,0,-1,1658,1212,0,0
441,-188,0,0,0,0,0,0,0,0,0,-1,1665,1212,0,0
448,-188,0,0,0,0,0,0,0,0,0,-1,1672,1212,0,0
455,-188,0,0,0,0,0,0,0,0,0,-1,1679,1212,0,0
462,-188,0,0,0,0,0,0,0,0,0,-1,1686,1212,0,0
469,-188,0,0,0,0,0,0,0,0,0,-1,1693,1212,0,0
476,-188,0,0,0,0,0,0,0,0,0,-1,1700,1212,0,0
483,-188,0,0,0,0,0,0,0,0,0,-1,1707,1212,0,0
490,-188,0,0,0,0,0,0,0,0,0,-1,1714,1212,0,0
497,-188,0,0,0,0,0,0,0,0,0,-1,1721,1212,0,0
504,-188,0,0,0,0,0,0,0,0,0,-1,1728,1212,0,0
511,-188,0,0,0,0,0,0,0,0,0,-1,1735,1212,0,0
518,-188,0,0,0,0,0,0,0,0,0,-1,1742,1212,0,0
525,-188,0,0,0,0,0,0,0,0,0,-1,1749,1212,0,0
532,-188,0,0,0,0,0,0,0,0,0,-1,1756,1212,0,0
539,-188,0,0,0,0,0,0,0,0,0,-1,1763,1212,0,0
546,-188,0,0,0,0,0,0,0,0,0,-1,1770,1212,0,0
553,-188,0,0,0,0,0,0,0,0,0,-1,1777,1212,0,0
560,-188,0,0,0,0,0,0,0,0,0,-1,1784,1212,0,0
567,-188,0,0,0,0,0,0,0,0,0,-1,1791,1212,0,0
574,-188,0,0,0,0,0,0,0,0,0,-1,1798,1212,0,0
581,-188,0,0,0,0,0,0,0,0,0,-1,1805,1212,0,0
588,-188,0,0,0,0,0,0,0,0,0,-1,1812,1212,0,0
595,-188,0,0,0,0,0,0,0,0,0,-1,1819,1212,0,0
602,-188,0,0,0,0,0,0,0,0,0,-1,1826,1212,0,0
609,-188,0,0,0,0,0,0,0,0,0,-1,1833,1212,0,0
616,-188,0,0,0,0,0,0,0,0,0,-1,1840,1212,0,0
623,-188,0,0,0,0,0,0,0,0,0,-1,1847,1212,0,0
630,-188,56.173,2.59619,0.00100072,0.00058765,-0.001407,0.00221626,-0.000627891,-0.712523,0.00172532,0.0406323,1854,1212,56.173,-2.59613
637,-188,56.1075,2.60803,0.00118578,0.000664258,-0.00100231,0.0019607,-0.000110656,-0.658139,0.00134554,0.0390062,1861,1212,56.1075,-2.60806
644,-188,56.0503,2.65137,0.00145231,0.00104161,-0.000918207,0.00218785,0.000306072,-0.675388,0.001368,0.0353517,1868,1212,56.0503,-2.65142
651,-188,56.0457,2.70313,0.00182923,0.00156519,-0.00115976,0.00286446,0.000529961,-0.728723,0.00175979,0.0324268,1875,1212,56.0456,-2.70314
658,-188,56.0839,2.65723,0.00228878,0.00175719,-0.00146336,0.00351029,0.000535676,-0.695562,0.00218365,0.0310927,1882,1212,56.0839,-2.65718
665,-188,56.1045,2.60913,0.00263526,0.00163005,-0.00164223,0.00385008,0.000415229,-0.636899,0.00244011,0.0286094,1889,1212,56.1044,-2.60911
672,-188,56.1711,2.59729,0.00283084,0.00139963,-0.00167033,0.00393241,0.000298069,-0.583016,0.00252811,0.0240487,1896,1212,56.1712,-2.59727
679,-188,56.1617,2.45642,0.00287203,0.0010573,-0.00152074,0.00373553,0.0001938,-0.516418,0.00242833,0.0495401,1903,1212,56.1617,-2.45642
686,-188,56.1958,2.35205,0,0,0,0,0,0,0,-1,1910,1212,56.1958,-2.35199
693,-188,35.9054,2.18042,0,0,0,0,0,0,0,-1,1917,1212,35.9054,-2.18038
700,-188,46.4529,9.8905,0,0,0,0,0,0,0,-1,1924,1212,46.4529,-9.89047
707,-188,46.4968,9.46582,0.00228036,0.000340876,-0.00103178,0.00272659,-0.000105355,-0.408193,0.00185384,0.0453393,1931,1212,46.4969,-9.4658
714,-188,46.6676,8.94189,0,0,0,0,0,0,0,-1,1938,1212,46.6676,-8.94193
721,-188,46.1246,8.51929,0,0,0,0,0,0,0,-1,1945,1212,46.1246,-8.51923
728,-188,46.2828,7.92725,0.00165391,-0.000510318,8.16398e-05,0.00165698,-0.000513393,0.0376511,0.00130977,0.0195092,1952,1212,46.2829,-7.9272
735,-188,46.2924,7.42139,0.00156814,-0.000631573,0.000698787,0.00177135,-0.000834785,0.283001,0.0015367,0.0133755,1959,1212,46.2923,-7.42133
742,-188,46.2595,6.91626,0.00163357,-0.000279692,0.00154728,0.00249607,-0.00114219,0.508528,0.00214848,0.0149839,1966,1212,46.2595,-6.9163
749,-188,46.2573,6.40955,0.00202534,0.000596129,0.00302205,0.00441612,-0.00179466,0.669299,0.00369073,0.014891,1973,1212,46.2573,-6.40955
756,-188,46.2498,5.89941,0.00271168,0.00130676,0.00451333,0.00657689,-0.00255845,0.708197,0.00544172,0.013833,1980,1212,46.2497,-5.89938
763,-188,46.2371,5.42139,0.00373876,0.0020473,0.00657554,0.00952273,-0.00373668,0.721441,0.00789454,0.0172241,1987,1212,46.237,-5.42138
770,-188,46.2211,4.91211,0.00488794,0.00258805,0.00920124,0.0130108,-0.00553482,0.723232,0.0109935,0.0354623,1994,1212,46.221,-4.91214
777,-188,46.3064,4.40613,0,0,0,0,0,0,0,-1,2001,1212,46.3063,-4.40613
784,-188,50.2876,-0.510742,0,0,0,0,0,0,0,-1,2008,1212,50.2875,0.510762
791,-188,51.6936,0.835083,0,0,0,0,0,0,0,-1,2015,1212,51.6937,-0.835076
798,-188,52.3022,2.24426,0,0,0,0,0,0,0,-1,2022,1212,52.3023,-2.24429
805,-188,0,0,0,0,0,0,0,0,0,-1,2029,1212,0,0
812,-188,0,0,0,0,0,0,0,0,0,-1,2036,1212,0,0
-700,-195,0,0,0,0,0,0,0,0,0,-1,524,1219,0,0
-693,-195,0,0,0,0,0,0,0,0,0,-1,531,1219,0,0
-686,-195,0,0,0,0,0,0,0,0,0,-1,538,1219,0,0
-679,-195,-33.4164,1.099,0,0,0,0,0,0,0,-1,545,1219,-33.4163,-1.09904
-672,-195,-33.5518,2.00549,0,0,0,0,0,0,0,-1,552,1219,-33.5518,-2.00554
-665,-195,-33.4154,2.56287,0,0,0,0,0,0,0,-1,559,1219,-33.4154,-2.56285
-658,-195,-31.1394,-0.526611,0,0,0,0,0,0,0,-1,566,1219,-31.1394,0.52662
-651,-195,-31.0662,0.39563,0.0060176,0.0100834,0.0222811,0.0304241,-0.0143232,0.830891,0.0263865,0.0472329,573,1219,-31.0662,-0.395653
-644,-195,-31.0117,1.33765,0.00413991,0.00605399,0.0158183,0.0209441,-0.0107502,0.815613,0.0186116,0.0410754,580,1219,-31.0117,-1.33769
-637,-195,-30.9576,2.29089,0,0,0,0,0,0,0,-1,587,1219,-30.9576,-2.29095
-630,-195,-31.0831,2.85217,0.00147698,0.0021282,0.00649208,0.00830283,-0.00469766,0.810454,0.00760143,0.00941597,594,1219,-31.0831,-2.8522
-623,-195,-31.0999,3.39172,0.000751101,0.00121362,0.0034338,0.00442394,-0.00245922,0.819021,0.0040276,0.008557,601,1219,-31.0999,-3.39171
-616,-195,-31.0864,3.93726,0.000235093,2.46411e-05,0.00109678,0.00123168,-0.000971949,0.737574,0.00127521,0.00999944,608,1219,-31.0864,-3.93732
-609,-195,-31.1102,4.47534,0.00010419,-0.000220209,-0.000419747,0.000391986,-0.000508005,-0.601025,0.000521047,0.0180164,615,1219,-31.1103,-4.47529
-602,-195,-31.155,5.04224,4.49192e-05,-0.000194805,-0.00136271,0.00129303,-0.00144291,-0.741532,0.00158039,0.0215141,622,1219,-31.155,-5.04228
-595,-195,-31.2105,5.59399,-0.000592401,-0.000296108,-0.00161808,0.0011806,-0.00206911,-0.831049,0.00189945,0.0248732,629,1219,-31.2105,-5.59402
-588,-195,-31.2475,6.23291,-0.000498426,-0.000614093,-0.00185102,0.00129567,-0.00240819,-0.769781,0.00217034,0.0270476,636,1219,-31.2475,-6.23289
-581,-195,-30.9951,6.8573,0,0,0,0,0,0,0,-1,643,1219,-30.9951,-6.85725
-574,-195,-29.8815,6.30896,0,0,0,0,0,0,0,-1,650,1219,-29.8815,-6.30895
-567,-195,-20.6388,3.78369,0,0,0,0,0,0,0,-1,657,1219,-20.6388,-3.78369
-560,-195,-20.878,2.10388,0,0,0,0,0,0,0,-1,664,1219,-20.878,-2.10385
-553,-195,-41.595,0.613281,0,0,0,0,0,0,0,-1,671,1219,-41.595,-0.61334
-546,-195,-41.7202,0.758545,0.00174488,-0.00139438,-0.00185772,0.0026073,-0.0022568,-0.434629,0.00281072,0.0486393,678,1219,-41.7202,-0.758564
-539,-195,-41.9171,0.911865,0.00210597,-0.00145903,-0.00181086,0.00286443,-0.0022175,-0.396645,0.00294197,0.0387975,685,1219,-41.9171,-0.91182
-532,-195,-41.8281,0.687866,0.00249268,-0.00141345,-0.00145192,0.00297324,-0.00189401,-0.319634,0.00283304,0.0358145,692,1219,-41.8281,-0.68788
-525,-195,-41.7178,0.579224,0.00346902,-0.00104231,-0.000431395,0.00350991,-0.0010832,-0.0944838,0.00277246,0.0397113,699,1219,-41.7178,-0.579188
-518,-195,-41.7061,0.747559,0.00522871,-3.04401e-05,0.00150441,0.00562864,-0.000430374,0.259831,0.0039038,0.0415805,706,1219,-41.7061,-0.747551
-511,-195,-41.6929,1.08179,0.00835308,0.00219886,0.00457979,0.0107935,-0.000241558,0.489594,0.00727752,0.0432789,713,1219,-41.6929,-1.08177
-504,-195,0,0,0,0,0,0,0,0,0,-1,720,1219,0,0
-497,-195,0,0,0,0,0,0,0,0,0,-1,727,1219,0,0
-490,-195,0,0,0,0,0,0,0,0,0,-1,734,1219,0,0
-483,-195,0,0,0,0,0,0,0,0,0,-1,741,1219,0,0
-476,-195,0,0,0,0,0,0,0,0,0,-1,748,1219,0,0
-469,-195,0,0,0,0,0,0,0,0,0,-1,755,1219,0,0
-462,-195,0,0,0,0,0,0,0,0,0,-1,762,1219,0,0
-455,-195,0,0,0,0,0,0,0,0,0,-1,769,1219,0,0
-448,-195,0,0,0,0,0,0,0,0,0,-1,776,1219,0,0
-441,-195,0,0,0,0,0,0,0,0,0,-1,783,1219,0,0
-434,-195,0,0,0,0,0,0,0,0,0,-1,790,1219,0,0
-427,-195,0,0,0,0,0,0,0,0,0,-1,797,1219,0,0
-420,-195,0,0,0,0,0,0,0,0,0,-1,804,1219,0,0
-413,-195,0,0,0,0,0,0,0,0,0,-1,811,1219,0,0
-406,-195,0,0,0,0,0,0,0,0,0,-1,818,1219,0,0
-399,-195,0,0,0,0,0,0,0,0,0,-1,825,1219,0,0
-392,-195,0,0,0,0,0,0,0,0,0,-1,832,1219,0,0
-385,-195,0,0,0,0,0,0,0,0,0,-1,839,1219,0,0
-378,-195,0,0,0,0,0,0,0,0,0,-1,846,1219,0,0
-371,-195,0,0,0,0,0,0,0,0,0,-1,853,1219,0,0
-364,-195,0,0,0,0,0,0,0,0,0,-1,860,1219,0,0
-357,-195,0,0,0,0,0,0,0,0,0,-1,867,1219,0,0
-350,-195,0,0,0,0,0,0,0,0,0,-1,874,1219,0,0
-343,-195,0,0,0,0,0,0,0,0,0,-1,881,1219,0,0
-336,-195,0,0,0,0,0,0,0,0,0,-1,888,1219,0,0
-329,-195,0,0,0,0,0,0,0,0,0,-1,895,1219,0,0
-322,-195,0,0,0,0,0,0,0,0,0,-1,902,1219,0,0
-315,-195,0,0,0,0,0,0,0,0,0,-1,909,1219,0,0
-308,-195,0,0,0,0,0,0,0,0,0,-1,916,1219,0,0
-301,-195,0,0,0,0,0,0,0,0,0,-1,923,1219,0,0
-294,-195,0,0,0,0,0,0,0,0,0,-1,930,1219,0,0
-287,-195,0,0,0,0,0,0,0,0,0,-1,937,1219,0,0
-280,-195,0,0,0,0,0,0,0,0,0,-1,944,1219,0,0
-273,-195,0,0,0,0,0,0,0,0,0,-1,951,1219,0,0
-266,-195,0,0,0,0,0,0,0,0,0,-1,958,1219,0,0
-259,-195,0,0,0,0,0,0,0,0,0,-1,965,1219,0,0
-252,-195,0,0,0,0,0,0,0,0,0,-1,972,1219,0,0
-245,-195,0,0,0,0,0,0,0,0,0,-1,979,1219,0,0
-238,-195,0,0,0,0,0,0,0,0,0,-1,986,1219,0,0
-231,-195,0,0,0,0,0,0,0,0,0,-1,993,1219,0,0
-224,-195,0,0,0,0,0,0,0,0,0,-1,1000,1219,0,0
-217,-195,0,0,0,0,0,0,0,0,0,-1,1007,1219,0,0
-210,-195,0,0,0,0,0,0,0,0,0,-1,1014,1219,0,0
-203,-195,0,0,0,0,0,0,0,0,0,-1,1021,1219,0,0
-196,-195,0,0,0,0,0,0,0,0,0,-1,1028,1219,0,0
-189,-195,0,0,0,0,0,0,0,0,0,-1,1035,1219,0,0
-182,-195,0,0,0,0,0,0,0,0,0,-1,1042,1219,0,0
-175,-195,0,0,0,0,0,0,0,0,0,-1,1049,1219,0,0
-168,-195,0,0,0,0,0,0,0,0,0,-1,1056,1219,0,0
-161,-195,0,0,0,0,0,0,0,0,0,-1,1063,1219,0,0
-154,-195,0,0,0,0,0,0,0,0,0,-1,1070,1219,0,0
-147,-195,0,0,0,0,0,0,0,0,0,-1,1077,1219,0,0
-140,-195,0,0,0,0,0,0,0,0,0,-1,1084,1219,0,0
-133,-195,0,0,0,0,0,0,0,0,0,-1,1091,1219,0,0
-126,-195,0,0,0,0,0,0,0,0,0,-1,1098,1219,0,0
-119,-195,0,0,0,0,0,0,0,0,0,-1,1105,1219,0,0
-112,-195,0,0,0,0,0,0,0,0,0,-1,1112,1219,0,0
-105,-195,0,0,0,0,0,0,0,0,0,-1,1119,1219,0,0
-98,-195,0,0,0,0,0,0,0,0,0,-1,1126,1219,0,0
-91,-195,0,0,0,0,0,0,0,0,0,-1,1133,1219,0,0
-84,-195,0,0,0,0,0,0,0,0,0,-1,1140,1219,0,0
-77,-195,0,0,0,0,0,0,0,0,0,-1,1147,1219,0,0
-70,-195,0,0,0,0,0,0,0,0,0,-1,1154,1219,0,0
-63,-195,0,0,0,0,0,0,0,0,0,-1,1161,1219,0,0
-56,-195,0,0,0,0,0,0,0,0,0,-1,1168,1219,0,0
-49,-195,0,0,0,0,0,0,0,0,0,-1,1175,1219,0,0
-42,-195,0,0,0,0,0,0,0,0,0,-1,1182,1219,0,0
-35,-195,0,0,0,0,0,0,0,0,0,-1,1189,1219,0,0
-28,-195,0,0,0,0,0,0,0,0,0,-1,1196,1219,0,0
-21,-195,0,0,0,0,0,0,0,0,0,-1,1203,1219,0,0
-14,-195,0,0,0,0,0,0,0,0,0,-1,1210,1219,0,0
-7,-195,0,0,0,0,0,0,0,0,0,-1,1217,1219,0,0
0,-195,0,0,0,0,0,0,0,0,0,-1,1224,1219,0,0
7,-195,0,0,0,0,0,0,0,0,0,-1,1231,1219,0,0
14,-195,0,0,0,0,0,0,0,0,0,-1,1238,1219,0,0
21,-195,0,0,0,0,0,0,0,0,0,-1,1245,1219,0,0
28,-195,0,0,0,0,0,0,0,0,0,-1,1252,1219,0,0
35,-195,0,0,0,0,0,0,0,0,0,-1,1259,1219,0,0
42,-195,0,0,0,0,0,0,0,0,0,-1,1266,1219,0,0
49,-195,0,0,0,0,0,0,0,0,0,-1,1273,1219,0,0
56,-195,0,0,0,0,0,0,0,0,0,-1,1280,1219,0,0
63,-195,0,0,0,0,0,0,0,0,0,-1,1287,1219,0,0
70,-195,0,0,0,0,0,0,0,0,0,-1,1294,1219,0,0
77,-195,0,0,0,0,0,0,0,0,0,-1,1301,1219,0,0
84,-195,0,0,0,0,0,0,0,0,0,-1,1308,1219,0,0
91,-195,0,0,0,0,0,0,0,0,0,-1,1315,1219,0,0
98,-195,0,0,0,0,0,0,0,0,0,-1,1322,1219,0,0
105,-195,0,0,0,0,0,0,0,0,0,-1,1329,1219,0,0
112,-195,0,0,0,0,0,0,0,0,0,-1,1336,1219,0,0
119,-195,0,0,0,0,0,0,0,0,0,-1,1343,1219,0,0
126,-195,0,0,0,0,0,0,0,0,0,-1,1350,1219,0,0
133,-195,0,0,0,0,0,0,0,0,0,-1,1357,1219,0,0
140,-195,0,0,0,0,0,0,0,0,0,-1,1364,1219,0,0
147,-195,0,0,0,0,0,0,0,0,0,-1,1371,1219,0,0
154,-195,0,0,0,0,0,0,0,0,0,-1,1378,1219,0,0
161,-195,0,0,0,0,0,0,0,0,0,-1,1385,1219,0,0
168,-195,0,0,0,0,0,0,0,0,0,-1,1392,1219,0,0
175,-195,0,0,0,0,0,0,0,0,0,-1,1399,1219,0,0
182,-195,0,0,0,0,0,0,0,0,0,-1,1406,1219,0,0
189,-195,0,0,0,0,0,0,0,0,0,-1,1413,1219,0,0
196,-195,0,0,0,0,0,0,0,0,0,-1,1420,1219,0,0
203,-195,0,0,0,0,0,0,0,0,0,-1,1427,1219,0,0
210,-195,0,0,0,0,0,0,0,0,0,-1,1434,1219,0,0
217,-195,0,0,0,0,0,0,0,0,0,-1,1441,1219,0,0
224,-195,0,0,0,0,0,0,0,0,0,-1,1448,1219,0,0
231,-195,0,0,0,0,0,0,0,0,0,-1,1455,1219,0,0
238,-195,0,0,0,0,0,0,0,0,0,-1,1462,1219,0,0
245,-195,0,0,0,0,0,0,0,0,0,-1,1469,1219,0,0
252,-195,0,0,0,0,0,0,0,0,0,-1,1476,1219,0,0
259,-195,0,0,0,0,0,0,0,0,0,-1,1483,1219,0,0
266,-195,0,0,0,0,0,0,0,0,0,-1,1490,1219,0,0
273,-195,0,0,0,0,0,0,0,0,0,-1,1497,1219,0,0
280,-195,0,0,0,0,0,0,0,0,0,-1,1504,1219,0,0
287,-195,0,0,0,0,0,0,0,0,0,-1,1511,1219,0,0
294,-195,0,0,0,0,0,0,0,0,0,-1,1518,1219,0,0
301,-195,0,0,0,0,0,0,0,0,0,-1,1525,1219,0,0
308,-195,0,0,0,0,0,0,0,0,0,-1,1532,1219,0,0
315,-195,0,0,0,0,0,0,0,0,0,-1,1539,1219,0,0
322,-195,0,0,0,0,0,0,0,0,0,-1,1546,1219,0,0
329,-195,0,0,0,0,0,0,0,0,0,-1,1553,1219,0,0
336,-195,0,0,0,0,0,0,0,0,0,-1,1560,1219,0,0
343,-195,0,0,0,0,0,0,0,0,0,-1,1567,1219,0,0
350,-195,0,0,0,0,0,0,0,0,0,-1,1574,1219,0,0
357,-195,0,0,0,0,0,0,0,0,0,-1,1581,1219,0,0
364,-195,0,0,0,0,0,0,0,0,0,-1,1588,1219,0,0
371,-195,0,0,0,0,0,0,0,0,0,-1,1595,1219,0,0
378,-195,0,0,0,0,0,0,0,0,0,-1,1602,1219,0,0
385,-195,0,0,0,0,0,0,0,0,0,-1,1609,1219,0,0
392,-195,0,0,0,0,0,0,0,0,0,-1,1616,1219,0,0
399,-195,0,0,0,0,0,0,0,0,0,-1,1623,1219,0,0
406,-195,0,0,0,0,0,0,0,0,0,-1,1630,1219,0,0
413,-195,0,0,0,0,0,0,0,0,0,-1,1637,1219,0,0
420,-195,0,0,0,0,0,0,0,0,0,-1,1644,1219,0,0
427,-195,0,0,0,0,0,0,0,0,0,-1,1651,1219,0,0
434,-195,0,0,0,0,0,0,0,0,0,-1,1658,1219,0,0
441,-195,0,0,0,0,0,0,0,0,0,-1,1665,1219,0,0
448,-195,0,0,0,0,0,0,0,0,0,-1,1672,1219,0,0
455,-195,0,0,0,0,0,0,0,0,0,-1,1679,1219,0,0
462,-195,0,0,0,0,0,0,0,0,0,-1,1686,1219,0,0
469,-195,0,0,0,0,0,0,0,0,0,-1,1693,1219,0,0
476,-195,0,0,0,0,0,0,0,0,0,-1,1700,1219,0,0
483,-195,0,0,0,0,0,0,0,0,0,-1,1707,1219,0,0
490,-195,0,0,0,0,0,0,0,0,0,-1,1714,1219,0,0
497,-195,0,0,0,0,0,0,0,0,0,-1,1721,1219,0,0
504,-195,0,0,0,0,0,0,0,0,0,-1,1728,1219,0,0
511,-195,0,0,0,0,0,0,0,0,0,-1,1735,1219,0,0
518,-195,0,0,0,0,0,0,0,0,0,-1,1742,1219,0,0
525,-195,0,0,0,0,0,0,0,0,0,-1,1749,1219,0,0
532,-195,0,0,0,0,0,0,0,0,0,-1,1756,1219,0,0
539,-195,0,0,0,0,0,0,0,0,0,-1,1763,1219,0,0
546,-195,0,0,0,0,0,0,0,0,0,-1,1770,1219,0,0
553,-195,0,0,0,0,0,0,0,0,0,-1,1777,1219,0,0
560,-195,0,0,0,0,0,0,0,0,0,-1,1784,1219,0,0
567,-195,0,0,0,0,0,0,0,0,0,-1,1791,1219,0,0
574,-195,0,0,0,0,0,0,0,0,0,-1,1798,1219,0,0
581,-195,0,0,0,0,0,0,0,0,0,-1,1805,1219,0,0
588,-195,0,0,0,0,0,0,0,0,0,-1,1812,1219,0,0
595,-195,0,0,0,0,0,0,0,0,0,-1,1819,1219,0,0
602,-195,0,0,0,0,0,0,0,0,0,-1,1826,1219,0,0
609,-195,0,0,0,0,0,0,0,0,0,-1,1833,1219,0,0
616,-195,0,0,0,0,0,0,0,0,0,-1,1840,1219,0,0
623,-195,0,0,0,0,0,0,0,0,0,-1,1847,1219,0,0
630,-195,56.2076,2.57581,0.000903441,0.00149552,-0.00216022,0.00337989,-0.000980931,-0.853495,0.00264166,0.0398886,1854,1219,56.2076,-2.57576
637,-195,56.1537,2.5885,0.00106099,0.0016447,-0.00171816,0.00309561,-0.000389925,-0.869527,0.00220524,0.0390748,1861,1219,56.1537,-2.58845
644,-195,56.1494,2.56274,0.00136808,0.00198985,-0.00153309,0.00324326,0.000114665,-0.885433,0.00212498,0.0349915,1868,1219,56.1494,-2.56279
651,-195,56.144,2.63782,0.00181857,0.00233009,-0.00169855,0.00379203,0.000356626,-0.860124,0.00241793,0.0275219,1875,1219,56.1441,-2.63779
658,-195,56.1505,2.65747,0.00233808,0.00220271,-0.00189217,0.00416378,0.000377015,-0.767519,0.0026591,0.0239248,1882,1219,56.1506,-2.65743
665,-195,56.1782,2.59937,0.00270121,0.00177453,-0.0019633,0.0042551,0.000220638,-0.669518,0.00276612,0.0218059,1889,1219,56.1783,-2.59934
672,-195,56.2284,2.47827,0.00294393,0.00133736,-0.00194284,0.004243,3.82948e-05,-0.589371,0.00281599,0.0324427,1896,1219,56.2284,-2.47825
679,-195,56.1597,2.29419,0,0,0,0,0,0,0,-1,1903,1219,56.1597,-2.29424
686,-195,51.2117,1.94312,0,0,0,0,0,0,0,-1,1910,1219,51.2117,-1.9431
693,-195,24.4368,5.68298,0,0,0,0,0,0,0,-1,1917,1219,24.4368,-5.68293
700,-195,45.9084,10.1222,0,0,0,0,0,0,0,-1,1924,1219,45.9085,-10.1222
707,-195,45.8887,9.49023,0,0,0,0,0,0,0,-1,1931,1219,45.8887,-9.49021
714,-195,45.924,8.98376,0,0,0,0,0,0,0,-1,1938,1219,45.924,-8.98375
721,-195,45.7728,8.46033,0.00221282,-0.000583662,-0.000542069,0.00231422,-0.000685059,-0.18492,0.00181479,0.0289855,1945,1219,45.7728,-8.4603
728,-195,45.7899,7.96667,0.00202386,-0.000837397,4.88057e-06,0.00202387,-0.000837406,0.00170574,0.00169864,0.0112591,1952,1219,45.79,-7.96668
735,-195,45.7958,7.42358,0.00188746,-0.000766231,0.000682017,0.00205248,-0.000931253,0.237398,0.00176273,0.0125172,1959,1219,45.7957,-7.42354
742,-195,45.7657,6.91187,0.00188921,-0.00031521,0.00163214,0.00275645,-0.00118246,0.488416,0.00233387,0.0143649,1966,1219,45.7658,-6.91189
749,-195,45.7427,6.42798,0.0022414,0.000507836,0.00314943,0.00464114,-0.00189191,0.651114,0.00388159,0.0156178,1973,1219,45.7427,-6.42796
756,-195,45.7322,5.94336,0.00294673,0.00116394,0.00462557,0.00676601,-0.00265534,0.69021,0.00560935,0.0151394,1980,1219,45.7322,-5.94337
763,-195,45.7188,5.43823,0.00413244,0.00182877,0.00667538,0.00975464,-0.00379342,0.699965,0.00807042,0.0203022,1987,1219,45.7188,-5.43818
770,-195,45.6058,5.03577,0.00551417,0.00228578,0.00932819,0.0133668,-0.00556685,0.699724,0.0112363,0.0395437,1994,1219,45.6058,-5.03577
777,-195,45.5459,4.74805,0,0,0,0,0,0,0,-1,2001,1219,45.5459,-4.74805
784,-195,51.2444,-0.069458,0,0,0,0,0,0,0,-1,2008,1219,51.2443,0.0694704
791,-195,50.6421,1.65222,0,0,0,0,0,0,0,-1,2015,1219,50.6422,-1.65218
798,-195,53.3943,2.08484,0,0,0,0,0,0,0,-1,2022,1219,53.3943,-2.08489
805,-195,0,0,0,0,0,0,0,0,0,-1,2029,1219,0,0
812,-195,0,0,0,0,0,0,0,0,0,-1,2036,1219,0,0
-700,-202,0,0,0,0,0,0,0,0,0,-1,524,1226,0,0
-693,-202,0,0,0,0,0,0,0,0,0,-1,531,1226,0,0
-686,-202,0,0,0,0,0,0,0,0,0,-1,538,1226,0,0
-679,-202,-32.5579,1.78455,0,0,0,0,0,0,0,-1,545,1226,-32.5579,-1.78449
-672,-202,-33.8044,1.64673,0,0,0,0,0,0,0,-1,552,1226,-33.8045,-1.64671
-665,-202,-34.4374,2.63269,0,0,0,0,0,0,0,-1,559,1226,-34.4374,-2.63264
-658,-202,-33.3571,4.02856,0,0,0,0,0,0,0,-1,566,1226,-33.3571,-4.02856
-651,-202,-30.4535,0.454468,0,0,0,0,0,0,0,-1,573,1226,-30.4535,-0.454499
-644,-202,-30.3935,1.39734,0,0,0,0,0,0,0,-1,580,1226,-30.3935,-1.39734
-637,-202,-30.472,2.46521,0,0,0,0,0,0,0,-1,587,1226,-30.472,-2.46522
-630,-202,-30.5305,2.86084,-0.00126522,0.00172604,0.00680621,0.00719902,-0.0067382,0.893552,0.00804812,0.0191207,594,1226,-30.5305,-2.86087
-623,-202,-30.5325,3.38403,-0.00124572,0.00122838,0.00382991,0.00401607,-0.00403341,0.941608,0.00464737,0.00873401,601,1226,-30.5324,-3.38405
-616,-202,-30.5441,3.92407,-0.00106912,0.000221663,0.00161105,0.00131179,-0.00215925,0.975911,0.00202381,0.0084665,608,1226,-30.5441,-3.92413
-609,-202,-30.575,4.50696,-0.000543434,-9.47059e-05,3.32181e-05,-9.22601e-05,-0.000545879,1.4973,0.000337397,0.0205425,615,1226,-30.575,-4.50691
-602,-202,-30.6365,5.03955,-0.000105564,-0.000317428,-0.00106134,0.000855115,-0.00127811,-0.735658,0.00123966,0.0205018,622,1226,-30.6365,-5.0395
-595,-202,-30.6718,5.62268,-0.000492581,-0.000485578,-0.00147339,0.000984318,-0.00196248,-0.786586,0.00173229,0.0150575,629,1226,-30.6718,-5.62267
-588,-202,-30.617,6.16309,-0.000413915,-0.000870157,-0.00166933,0.00104281,-0.00232689,-0.717492,0.00199202,0.0185273,636,1226,-30.617,-6.16307
-581,-202,-30.4806,6.71643,0,0,0,0,0,0,0,-1,643,1226,-30.4806,-6.7164
-574,-202,-26.922,5.99512,0,0,0,0,0,0,0,-1,650,1226,-26.922,-5.99512
-567,-202,-22.1768,4.56995,0,0,0,0,0,0,0,-1,657,1226,-22.1768,-4.56991
-560,-202,-10.929,2.73096,0,0,0,0,0,0,0,-1,664,1226,-10.929,-2.73092
-553,-202,-30.2701,1.474,0,0,0,0,0,0,0,-1,671,1226,-30.2701,-1.47395
-546,-202,-41.586,0.579834,0,0,0,0,0,0,0,-1,678,1226,-41.586,-0.57979
-539,-202,-41.9346,0.949463,0.00203615,-0.00176741,-0.00180432,0.00275589,-0.00248714,-0.379553,0.00302839,0.0441923,685,1226,-41.9346,-0.949479
-532,-202,-41.8588,0.811401,0.0021997,-0.00182406,-0.00175522,0.00285774,-0.0024821,-0.358685,0.0030855,0.030672,692,1226,-41.8587,-0.811384
-525,-202,-41.7488,0.613525,0.00260435,-0.00166496,-0.00130569,0.00297201,-0.00203263,-0.274476,0.00290635,0.0372705,699,1226,-41.7488,-0.613539
-518,-202,-41.6721,0.674072,0.00353081,-0.00087714,9.39654e-05,0.00353282,-0.000879143,0.0213043,0.00269646,0.0422228,706,1226,-41.6721,-0.674055
-511,-202,-41.6982,0.871826,0.00598925,0.00138101,0.00312744,0.00756969,-0.000199439,0.467917,0.00511424,0.0429379,713,1226,-41.6982,-0.87187
-504,-202,0,0,0,0,0,0,0,0,0,-1,720,1226,0,0
-497,-202,0,0,0,0,0,0,0,0,0,-1,727,1226,0,0
-490,-202,0,0,0,0,0,0,0,0,0,-1,734,1226,0,0
-483,-202,0,0,0,0,0,0,0,0,0,-1,741,1226,0,0
-476,-202,0,0,0,0,0,0,0,0,0,-1,748,1226,0,0
-469,-202,0,0,0,0,0,0,0,0,0,-1,755,1226,0,0
-462,-202,0,0,0,0,0,0,0,0,0,-1,762,1226,0,0
-455,-202,0,0,0,0,0,0,0,0,0,-1,769,1226,0,0
-448,-202,0,0,0,0,0,0,0,0,0,-1,776,1226,0,0
-441,-202,0,0,0,0,0,0,0,0,0,-1,783,1226,0,0
-434,-202,0,0,0,0,0,0,0,0,0,-1,790,1226,0,0
-427,-202,0,0,0,0,0,0,0,0,0,-1,797,1226,0,0
-420,-202,0,0,0,0,0,0,0,0,0,-1,804,1226,0,0
-413,-202,0,0,0,0,0,0,0,0,0,-1,811,1226,0,0
-406,-202,0,0,0,0,0,0,0,0,0,-1,818,1226,0,0
-399,-202,0,0,0,0,0,0,0,0,0,-1,825,1226,0,0
-392,-202,0,0,0,0,0,0,0,0,0,-1,832,1226,0,0
-385,-202,0,0,0,0,0,0,0,0,0,-1,839,1226,0,0
-378,-202,0,0,0,0,0,0,0,0,0,-1,846,1226,0,0
-371,-202,0,0,0,0,0,0,0,0,0,-1,853,1226,0,0
-364,-202,0,0,0,0,0,0,0,0,0,-1,860,1226,0,0
-357,-202,0,0,0,0,0,0,0,0,0,-1,867,1226,0,0
-350,-202,0,0,0,0,0,0,0,0,0,-1,874,1226,0,0
-343,-202,0,0,0,0,0,0,0,0,0,-1,881,1226,0,0
-336,-202,0,0,0,0,0,0,0,0,0,-1,888,1226,0,0
-329,-202,0,0,0,0,0,0,0,0,0,-1,895,1226,0,0
-322,-202,0,0,0,0,0,0,0,0,0,-1,902,1226,0,0
-315,-202,0,0,0,0,0,0,0,0,0,-1,909,1226,0,0
-308,-202,0,0,0,0,0,0,0,0,0,-1,916,1226,0,0
-301,-202,0,0,0,0,0,0,0,0,0,-1,923,1226,0,0
-294,-202,0,0,0,0,0,0,0,0,0,-1,930,1226,0,0
-287,-202,0,0,0,0,0,0,0,0,0,-1,937,1226,0,0
-280,-202,0,0,0,0,0,0,0,0,0,-1,944,1226,0,0
-273,-202,0,0,0,0,0,0,0,0,0,-1,951,1226,0,0
-266,-202,0,0,0,0,0,0,0,0,0,-1,958,1226,0,0
-259,-202,0,0,0,0,0,0,0,0,0,-1,965,1226,0,0
-252,-202,0,0,0,0,0,0,0,0,0,-1,972,1226,0,0
-245,-202,0,0,0,0,0,0,0,0,0,-1,979,1226,0,0
-238,-202,0,0,0,0,0,0,0,0,0,-1,986,1226,0,0
-231,-202,0,0,0,0,0,0,0,0,0,-1,993,1226,0,0
-224,-202,0,0,0,0,0,0,0,0,0,-1,1000,1226,0,0
-217,-202,0,0,0,0,0,0,0,0,0,-1,1007,1226,0,0
-210,-202,0,0,0,0,0,0,0,0,0,-1,1014,1226,0,0
-203,-202,0,0,0,0,0,0,0,0,0,-1,1021,1226,0,0
-196,-202,0,0,0,0,0,0,0,0,0,-1,1028,1226,0,0
-189,-202,0,0,0,0,0,0,0,0,0,-1,1035,1226,0,0
-182,-202,0,0,0,0,0,0,0,0,0,-1,1042,1226,0,0
-175,-202,0,0,0,0,0,0,0,0,0,-1,1049,1226,0,0
-168,-202,0,0,0,0,0,0,0,0,0,-1,1056,1226,0,0
-161,-202,0,0,0,0,0,0,0,0,0,-1,1063,1226,0,0
-154,-202,0,0,0,0,0,0,0,0,0,-1,1070,1226,0,0
-147,-202,0,0,0,0,0,0,0,0,0,-1,1077,1226,0,0
-140,-202,0,0,0,0,0,0,0,0,0,-1,1084,1226,0,0
-133,-202,0,0,0,0,0,0,0,0,0,-1,1091,1226,0,0
-126,-202,0,0,0,0,0,0,0,0,0,-1,1098,1226,0,0
-119,-202,0,0,0,0,0,0,0,0,0,-1,1105,1226,0,0
-112,-202,0,0,0,0,0,0,0,0,0,-1,1112,1226,0,0
-105,-202,0,0,0,0,0,0,0,0,0,-1,1119,1226,0,0
-98,-202,0,0,0,0,0,0,0,0,0,-1,1126,1226,0,0
-91,-202,0,0,0,0,0,0,0,0,0,-1,1133,1226,0,0
-84,-202,0,0,0,0,0,0,0,0,0,-1,1140,1226,0,0
-77,-202,0,0,0,0,0,0,0,0,0,-1,1147,1226,0,0
-70,-202,0,0,0,0,0,0,0,0,0,-1,1154,1226,0,0
-63,-202,0,0,0,0,0,0,0,0,0,-1,1161,1226,0,0
-56,-202,0,0,0,0,0,0,0,0,0,-1,1168,1226,0,0
-49,-202,0,0,0,0,0,0,0,0,0,-1,1175,1226,0,0
-42,-202,0,0,0,0,0,0,0,0,0,-1,1182,1226,0,0
-35,-202,0,0,0,0,0,0,0,0,0,-1,1189,1226,0,0
-28,-202,0,0,0,0,0,0,0,0,0,-1,1196,1226,0,0
-21,-202,0,0,0,0,0,0,0,0,0,-1,1203,1226,0,0
-14,-202,0,0,0,0,0,0,0,0,0,-1,1210,1226,0,0
-7,-202,0,0,0,0,0,0,0,0,0,-1,1217,1226,0,0
0,-202,0,0,0,0,0,0,0,0,0,-1,1224,1226,0,0
7,-202,0,0,0,0,0,0,0,0,0,-1,1231,1226,0,0
14,-202,0,0,0,0,0,0,0,0,0,-1,1238,1226,0,0
21,-202,0,0,0,0,0,0,0,0,0,-1,1245,1226,0,0
28,-202,0,0,0,0,0,0,0,0,0,-1,1252,1226,0,0
35,-202,0,0,0,0,0,0,0,0,0,-1,1259,1226,0,0
42,-202,0,0,0,0,0,0,0,0,0,-1,1266,1226,0,0
49,-202,0,0,0,0,0,0,0,0,0,-1,1273,1226,0,0
56,-202,0,0,0,0,0,0,0,0,0,-1,1280,1226,0,0
63,-202,0,0,0,0,0,0,0,0,0,-1,1287,1226,0,0
70,-202,0,0,0,0,0,0,0,0,0,-1,1294,1226,0,0
77,-202,0,0,0,0,0,0,0,0,0,-1,1301,1226,0,0
84,-202,0,0,0,0,0,0,0,0,0,-1,1308,1226,0,0
91,-202,0,0,0,0,0,0,0,0,0,-1,1315,1226,0,0
98,-202,0,0,0,0,0,0,0,0,0,-1,1322,1226,0,0
105,-202,0,0,0,0,0,0,0,0,0,-1,1329,1226,0,0
112,-202,0,0,0,0,0,0,0,0,0,-1,1336,1226,0,0
119,-202,0,0,0,0,0,0,0,0,0,-1,1343,1226,0,0
126,-202,0,0,0,0,0,0,0,0,0,-1,1350,1226,0,0
133,-202,0,0,0,0,0,0,0,0,0,-1,1357,1226,0,0
140,-202,0,0,0,0,0,0,0,0,0,-1,1364,1226,0,0
147,-202,0,0,0,0,0,0,0,0,0,-1,1371,1226,0,0
154,-202,0,0,0,0,0,0,0,0,0,-1,1378,1226,0,0
161,-202,0,0,0,0,0,0,0,0,0,-1,1385,1226,0,0
168,-202,0,0,0,0,0,0,0,0,0,-1,1392,1226,0,0
175,-202,0,0,0,0,0,0,0,0,0,-1,1399,1226,0,0
182,-202,0,0,0,0,0,0,0,0,0,-1,1406,1226,0,0
189,-202,0,0,0,0,0,0,0,0,0,-1,1413,1226,0,0
196,-202,0,0,0,0,0,0,0,0,0,-1,1420,1226,0,0
203,-202,0,0,0,0,0,0,0,0,0,-1,1427,1226,0,0
210,-202,0,0,0,0,0,0,0,0,0,-1,1434,1226,0,0
217,-202,0,0,0,0,0,0,0,0,0,-1,1441,1226,0,0
224,-202,0,0,0,0,0,0,0,0,0,-1,1448,1226,0,0
231,-202,0,0,0,0,0,0,0,0,0,-1,1455,1226,0,0
238,-202,0,0,0,0,0,0,0,0,0,-1,1462,1226,0,0
245,-202,0,0,0,0,0,0,0,0,0,-1,1469,1226,0,0
252,-202,0,0,0,0,0,0,0,0,0,-1,1476,1226,0,0
259,-202,0,0,0,0,0,0,0,0,0,-1,1483,1226,0,0
266,-202,0,0,0,0,0,0,0,0,0,-1,1490,1226,0,0
273,-202,0,0,0,0,0,0,0,0,0,-1,1497,1226,0,0
280,-202,0,0,0,0,0,0,0,0,0,-1,1504,1226,0,0
287,-202,0,0,0,0,0,0,0,0,0,-1,1511,1226,0,0
294,-202,0,0,0,0,0,0,0,0,0,-1,1518,1226,0,0
301,-202,0,0,0,0,0,0,0,0,0,-1,1525,1226,0,0
308,-202,0,0,0,0,0,0,0,0,0,-1,1532,1226,0,0
315,-202,0,0,0,0,0,0,0,0,0,-1,1539,1226,0,0
322,-202,0,0,0,0,0,0,0,0,0,-1,1546,1226,0,0
329,-202,0,0,0,0,0,0,0,0,0,-1,1553,1226,0,0
336,-202,0,0,0,0,0,0,0,0,0,-1,1560,1226,0,0
343,-202,0,0,0,0,0,0,0,0,0,-1,1567,1226,0,0
350,-202,0,0,0,0,0,0,0,0,0,-1,1574,1226,0,0
357,-202,0,0,0,0,0,0,0,0,0,-1,1581,1226,0,0
364,-202,0,0,0,0,0,0,0,0,0,-1,1588,1226,0,0
371,-202,0,0,0,0,0,0,0,0,0,-1,1595,1226,0,0
378,-202,0,0,0,0,0,0,0,0,0,-1,1602,1226,0,0
385,-202,0,0,0,0,0,0,0,0,0,-1,1609,1226,0,0
392,-202,0,0,0,0,0,0,0,0,0,-1,1616,1226,0,0
399,-202,0,0,0,0,0,0,0,0,0,-1,1623,1226,0,0
406,-202,0,0,0,0,0,0,0,0,0,-1,1630,1226,0,0
413,-202,0,0,0,0,0,0,0,0,0,-1,1637,1226,0,0
420,-202,0,0,0,0,0,0,0,0,0,-1,1644,1226,0,0
427,-202,0,0,0,0,0,0,0,0,0,-1,1651,1226,0,0
434,-202,0,0,0,0,0,0,0,0,0,-1,1658,1226,0,0
441,-202,0,0,0,0,0,0,0,0,0,-1,1665,1226,0,0
448,-202,0,0,0,0,0,0,0,0,0,-1,1672,1226,0,0
455,-202,0,0,0,0,0,0,0,0,0,-1,1679,1226,0,0
462,-202,0,0,0,0,0,0,0,0,0,-1,1686,1226,0,0
469,-202,0,0,0,0,0,0,0,0,0,-1,1693,1226,0,0
476,-202,0,0,0,0,0,0,0,0,0,-1,1700,1226,0,0
483,-202,0,0,0,0,0,0,0,0,0,-1,1707,1226,0,0
490,-202,0,0,0,0,0,0,0,0,0,-1,1714,1226,0,0
497,-202,0,0,0,0,0,0,0,0,0,-1,1721,1226,0,0
504,-202,0,0,0,0,0,0,0,0,0,-1,1728,1226,0,0
511,-202,0,0,0,0,0,0,0,0,0,-1,1735,1226,0,0
518,-202,0,0,0,0,0,0,0,0,0,-1,1742,1226,0,0
525,-202,0,0,0,0,0,0,0,0,0,-1,1749,1226,0,0
532,-202,0,0,0,0,0,0,0,0,0,-1,1756,1226,0,0
539,-202,0,0,0,0,0,0,0,0,0,-1,1763,1226,0,0
546,-202,0,0,0,0,0,0,0,0,0,-1,1770,1226,0,0
553,-202,0,0,0,0,0,0,0,0,0,-1,1777,1226,0,0
560,-202,0,0,0,0,0,0,0,0,0,-1,1784,1226,0,0
567,-202,0,0,0,0,0,0,0,0,0,-1,1791,1226,0,0
574,-202,0,0,0,0,0,0,0,0,0,-1,1798,1226,0,0
581,-202,0,0,0,0,0,0,0,0,0,-1,1805,1226,0,0
588,-202,0,0,0,0,0,0,0,0,0,-1,1812,1226,0,0
595,-202,0,0,0,0,0,0,0,0,0,-1,1819,1226,0,0
602,-202,0,0,0,0,0,0,0,0,0,-1,1826,1226,0,0
609,-202,0,0,0,0,0,0,0,0,0,-1,1833,1226,0,0
616,-202,0,0,0,0,0,0,0,0,0,-1,1840,1226,0,0
623,-202,0,0,0,0,0,0,0,0,0,-1,1847,1226,0,0
630,-202,56.1469,2.69067,0.000810837,0.00186317,-0.00250807,0.00389967,-0.00122566,-0.888793,0.00309044,0.0374856,1854,1226,56.1469,-2.6907
637,-202,56.26,2.60498,0.000932039,0.00216444,-0.00205062,0.00368944,-0.000592961,-0.931353,0.00267924,0.0360617,1861,1226,56.26,-2.60504
644,-202,56.2388,2.51526,0.0012837,0.00258613,-0.00182924,0.00387662,-6.78131e-06,-0.956406,0.00258667,0.0346092,1868,1226,56.2387,-2.51523
651,-202,56.207,2.58264,0.00176042,0.00280083,-0.00200157,0.00434869,0.000212561,-0.912535,0.00283093,0.0275007,1875,1226,56.2071,-2.58258
658,-202,56.2113,2.62219,0.00227187,0.0024245,-0.0021345,0.00448405,0.00021232,-0.803267,0.00292117,0.0226685,1882,1226,56.2113,-2.62221
665,-202,56.2418,2.55298,0.00259502,0.00179003,-0.00213057,0.00436077,2.4271e-05,-0.692041,0.00289913,0.02118,1889,1226,56.2418,-2.55295
672,-202,56.3202,2.55029,0.00279425,0.00121665,-0.00207209,0.00422261,-0.000211702,-0.603529,0.00288823,0.0405039,1896,1226,56.3202,-2.55025
679,-202,56.4467,2.57385,0,0,0,0,0,0,0,-1,1903,1226,56.4467,-2.57387
686,-202,49.1708,2.15198,0,0,0,0,0,0,0,-1,1910,1226,49.1708,-2.15195
693,-202,45.1078,10.8365,0,0,0,0,0,0,0,-1,1917,1226,45.1078,-10.8366
700,-202,45.2495,10.1167,0.00267451,-0.000268136,-0.00130561,0.00317027,-0.000763895,-0.362897,0.00240886,0.0459427,1924,1226,45.2495,-10.1167
707,-202,45.3345,9.32373,0.00264379,-0.000708877,-0.00130633,0.00309269,-0.00115777,-0.33099,0.00253735,0.0327271,1931,1226,45.3345,-9.32374
714,-202,45.2798,8.84814,0.00242252,-0.000862171,-0.000992779,0.00269926,-0.00113892,-0.271857,0.00227619,0.0304206,1938,1226,45.2798,-8.84813
721,-202,45.3242,8.51733,0.0020411,-0.00105639,-0.000480716,0.00211399,-0.00112928,-0.150481,0.00190105,0.016651,1945,1226,45.3242,-8.51734
728,-202,45.2981,7.95813,0.00180116,-0.0011336,0.000145272,0.00180833,-0.00114078,0.0493396,0.00171715,0.01134,1952,1226,45.2981,-7.9581
735,-202,45.2728,7.453,0.0016444,-0.000854067,0.000869219,0.00191705,-0.00112672,0.303951,0.00177696,0.0115077,1959,1226,45.2728,-7.45304
742,-202,45.2456,6.93848,0.00167685,-0.000319371,0.00183181,0.00276482,-0.00140735,0.535948,0.00245094,0.0125221,1966,1226,45.2456,-6.93849
749,-202,45.1998,6.43359,0.00208663,0.00052502,0.0033028,0.00469967,-0.00208802,0.669326,0.0040144,0.0137306,1973,1226,45.1998,-6.43354
756,-202,45.2124,5.95288,0.00291636,0.0013063,0.00475054,0.0069296,-0.00270694,0.701465,0.00573895,0.0129722,1980,1226,45.2124,-5.95294
763,-202,45.2661,5.49023,0.00435717,0.00210292,0.00679604,0.0101189,-0.00365883,0.703221,0.0082409,0.022421,1987,1226,45.2661,-5.49025
770,-202,45.241,5.22144,0,0,0,0,0,0,0,-1,1994,1226,45.241,-5.2214
777,-202,53.3003,-4.00098,0,0,0,0,0,0,0,-1,2001,1226,53.3002,4.00099
784,-202,52.9231,-1.28162,0,0,0,0,0,0,0,-1,2008,1226,52.9232,1.28167
791,-202,52.2668,1.22656,0,0,0,0,0,0,0,-1,2015,1226,52.2668,-1.22651
798,-202,51.8999,3.58789,0,0,0,0,0,0,0,-1,2022,1226,51.9,-3.58791
805,-202,0,0,0,0,0,0,0,0,0,-1,2029,1226,0,0
812,-202,0,0,0,0,0,0,0,0,0,-1,2036,1226,0,0
-700,-209,0,0,0,0,0,0,0,0,0,-1,524,1233,0,0
-693,-209,0,0,0,0,0,0,0,0,0,-1,531,1233,0,0
-686,-209,0,0,0,0,0,0,0,0,0,-1,538,1233,0,0
-679,-209,-33.0417,1.2644,0,0,0,0,0,0,0,-1,545,1233,-33.0418,-1.26436
-672,-209,-33.6111,1.4801,0,0,0,0,0,0,0,-1,552,1233,-33.6111,-1.48015
-665,-209,-33.4254,3.1311,0,0,0,0,0,0,0,-1,559,1233,-33.4253,-3.13107
-658,-209,-33.5088,4.32886,0,0,0,0,0,0,0,-1,566,1233,-33.5088,-4.32891
-651,-209,-27.2171,0.730591,0,0,0,0,0,0,0,-1,573,1233,-27.2171,-0.730583
-644,-209,-29.2324,1.63464,0,0,0,0,0,0,0,-1,580,1233,-29.2324,-1.63462
-637,-209,-30.0994,2.53503,0,0,0,0,0,0,0,-1,587,1233,-30.0994,-2.53503
-630,-209,-29.9302,2.9021,-0.00392793,0.00137418,0.00683367,0.006053,-0.00860676,0.970431,0.00850652,0.0306147,594,1233,-29.9303,-2.90206
-623,-209,-29.9597,3.39905,-0.00297499,0.00139809,0.00396453,0.00373907,-0.00531597,1.03741,0.00525429,0.0139846,601,1233,-29.9597,-3.39902
-616,-209,-29.9865,3.96606,-0.00203593,0.000641884,0.00190158,0.00162863,-0.00302268,1.09214,0.00272534,0.0121172,608,1233,-29.9865,-3.9661
-609,-209,-30.017,4.53174,-0.000987408,0.000309502,0.000431121,0.000439737,-0.00111764,1.27743,0.000927114,0.0139059,615,1233,-30.017,-4.5318
-602,-209,-30.0517,5.08801,-0.000168877,-0.000158268,-0.000618402,0.000454852,-0.000781997,-0.789687,0.000722373,0.0164961,622,1233,-30.0517,-5.08796
-595,-209,-30.036,5.61218,-0.00020033,-0.000431315,-0.00113585,0.00082588,-0.00145753,-0.734733,0.00133503,0.0119898,629,1233,-30.036,-5.61216
-588,-209,-30.0228,6.20789,-3.4324e-05,-0.000892034,-0.00133261,0.000936739,-0.0018631,-0.629724,0.00164571,0.0216855,636,1233,-30.0228,-6.20795
-581,-209,-29.6075,6.8999,0,0,0,0,0,0,0,-1,643,1233,-29.6075,-6.89996
-574,-209,-26.2147,6.6123,0,0,0,0,0,0,0,-1,650,1233,-26.2147,-6.61234
-567,-209,-26.2951,6.92981,0,0,0,0,0,0,0,-1,657,1233,-26.2951,-6.92986
-560,-209,-13.9294,4.16626,0,0,0,0,0,0,0,-1,664,1233,-13.9294,-4.16621
-553,-209,-22.7542,0.748779,0,0,0,0,0,0,0,-1,671,1233,-22.7541,-0.748796
-546,-209,-42.3115,1.10034,0,0,0,0,0,0,0,-1,678,1233,-42.3115,-1.10036
-539,-209,-42.0374,0.982788,0.00205841,-0.00195126,-0.00190114,0.00281649,-0.00270934,-0.379428,0.00319054,0.0456559,685,1233,-42.0374,-0.982842
-532,-209,-41.7952,0.875,0.00211649,-0.00213143,-0.00207756,0.00296364,-0.00297858,-0.387177,0.00343074,0.0342416,692,1233,-41.7952,-0.875017
-525,-209,-41.8678,0.808472,0.00219724,-0.002244,-0.00214981,0.00306739,-0.00311415,-0.384599,0.00356894,0.0359064,699,1233,-41.8678,-0.808484
-518,-209,-41.9,0.738037,0.00243474,-0.00190248,-0.00160084,0.00296159,-0.00242934,-0.317949,0.00311751,0.0440797,706,1233,-41.9,-0.738088
-511,-209,-41.9916,0.780029,0.00385531,-0.000225366,0.000453089,0.00390501,-0.000275069,0.10926,0.0026997,0.0435309,713,1233,-41.9916,-0.780041
-504,-209,0,0,0,0,0,0,0,0,0,-1,720,1233,0,0
-497,-209,0,0,0,0,0,0,0,0,0,-1,727,1233,0,0
-490,-209,0,0,0,0,0,0,0,0,0,-1,734,1233,0,0
-483,-209,0,0,0,0,0,0,0,0,0,-1,741,1233,0,0
-476,-209,0,0,0,0,0,0,0,0,0,-1,748,1233,0,0
-469,-209,0,0,0,0,0,0,0,0,0,-1,755,1233,0,0
-462,-209,0,0,0,0,0,0,0,0,0,-1,762,1233,0,0
-455,-209,0,0,0,0,0,0,0,0,0,-1,769,1233,0,0
-448,-209,0,0,0,0,0,0,0,0,0,-1,776,1233,0,0
-441,-209,0,0,0,0,0,0,0,0,0,-1,783,1233,0,0
-434,-209,0,0,0,0,0,0,0,0,0,-1,790,1233,0,0
-427,-209,0,0,0,0,0,0,0,0,0,-1,797,1233,0,0
-420,-209,0,0,0,0,0,0,0,0,0,-1,804,1233,0,0
-413,-209,0,0,0,0,0,0,0,0,0,-1,811,1233,0,0
-406,-209,0,0,0,0,0,0,0,0,0,-1,818,1233,0,0
-399,-209,0,0,0,0,0,0,0,0,0,-1,825,1233,0,0
-392,-209,0,0,0,0,0,0,0,0,0,-1,832,1233,0,0
-385,-209,0,0,0,0,0,0,0,0,0,-1,839,1233,0,0
-378,-209,0,0,0,0,0,0,0,0,0,-1,846,1233,0,0
-371,-209,0,0,0,0,0,0,0,0,0,-1,853,1233,0,0
-364,-209,0,0,0,0,0,0,0,0,0,-1,860,1233,0,0
-357,-209,0,0,0,0,0,0,0,0,0,-1,867,1233,0,0
-350,-209,0,0,0,0,0,0,0,0,0,-1,874,1233,0,0
-343,-209,0,0,0,0,0,0,0,0,0,-1,881,1233,0,0
-336,-209,0,0,0,0,0,0,0,0,0,-1,888,1233,0,0
-329,-209,0,0,0,0,0,0,0,0,0,-1,895,1233,0,0
-322,-209,0,0,0,0,0,0,0,0,0,-1,902,1233,0,0
-315,-209,0,0,0,0,0,0,0,0,0,-1,909,1233,0,0
-308,-209,0,0,0,0,0,0,0,0,0,-1,916,1233,0,0
-301,-209,0,0,0,0,0,0,0,0,0,-1,923,1233,0,0
-294,-209,0,0,0,0,0,0,0,0,0,-1,930,1233,0,0
-287,-209,0,0,0,0,0,0,0,0,0,-1,937,1233,0,0
-280,-209,0,0,0,0,0,0,0,0,0,-1,944,1233,0,0
-273,-209,0,0,0,0,0,0,0,0,0,-1,951,1233,0,0
-266,-209,0,0,0,0,0,0,0,0,0,-1,958,1233,0,0
-259,-209,0,0,0,0,0,0,0,0,0,-1,965,1233,0,0
-252,-209,0,0,0,0,0,0,0,0,0,-1,972,1233,0,0
-245,-209,0,0,0,0,0,0,0,0,0,-1,979,1233,0,0
-238,-209,0,0,0,0,0,0,0,0,0,-1,986,1233,0,0
-231,-209,0,0,0,0,0,0,0,0,0,-1,993,1233,0,0
-224,-209,0,0,0,0,0,0,0,0,0,-1,1000,1233,0,0
-217,-209,0,0,0,0,0,0,0,0,0,-1,1007,1233,0,0
-210,-209,0,0,0,0,0,0,0,0,0,-1,1014,1233,0,0
-203,-209,0,0,0,0,0,0,0,0,0,-1,1021,1233,0,0
-196,-209,0,0,0,0,0,0,0,0,0,-1,1028,1233,0,0
-189,-209,0,0,0,0,0,0,0,0,0,-1,1035,1233,0,0
-182,-209,0,0,0,0,0,0,0,0,0,-1,1042,1233,0,0
-175,-209,0,0,0,0,0,0,0,0,0,-1,1049,1233,0,0
-168,-209,0,0,0,0,0,0,0,0,0,-1,1056,1233,0,0
-161,-209,0,0,0,0,0,0,0,0,0,-1,1063,1233,0,0
-154,-209,0,0,0,0,0,0,0,0,0,-1,1070,1233,0,0
-147,-209,0,0,0,0,0,0,0,0,0,-1,1077,1233,0,0
-140,-209,0,0,0,0,0,0,0,0,0,-1,1084,1233,0,0
-133,-209,0,0,0,0,0,0,0,0,0,-1,1091,1233,0,0
-126,-209,0,0,0,0,0,0,0,0,0,-1,1098,1233,0,0
-119,-209,0,0,0,0,0,0,0,0,0,-1,1105,1233,0,0
-112,-209,0,0,0,0,0,0,0,0,0,-1,1112,1233,0,0
-105,-209,0,0,0,0,0,0,0,0,0,-1,1119,1233,0,0
-98,-209,0,0,0,0,0,0,0,0,0,-1,1126,1233,0,0
-91,-209,0,0,0,0,0,0,0,0,0,-1,1133,1233,0,0
-84,-209,0,0,0,0,0,0,0,0,0,-1,1140,1233,0,0
-77,-209,0,0,0,0,0,0,0,0,0,-1,1147,1233,0,0
-70,-209,0,0,0,0,0,0,0,0,0,-1,1154,1233,0,0
-63,-209,0,0,0,0,0,0,0,0,0,-1,1161,1233,0,0
-56,-209,0,0,0,0,0,0,0,0,0,-1,1168,1233,0,0
-49,-209,0,0,0,0,0,0,0,0,0,-1,1175,1233,0,0
-42,-209,0,0,0,0,0,0,0,0,0,-1,1182,1233,0,0
-35,-209,0,0,0,0,0,0,0,0,0,-1,1189,1233,0,0
-28,-209,0,0,0,0,0,0,0,0,0,-1,1196,1233,0,0
-21,-209,0,0,0,0,0,0,0,0,0,-1,1203,1233,0,0
-14,-209,0,0,0,0,0,0,0,0,0,-1,1210,1233,0,0
-7,-209,0,0,0,0,0,0,0,0,0,-1,1217,1233,0,0
0,-209,0,0,0,0,0,0,0,0,0,-1,1224,1233,0,0
7,-209,0,0,0,0,0,0,0,0,0,-1,1231,1233,0,0
14,-209,0,0,0,0,0,0,0,0,0,-1,1238,1233,0,0
21,-209,0,0,0,0,0,0,0,0,0,-1,1245,1233,0,0
28,-209,0,0,0,0,0,0,0,0,0,-1,1252,1233,0,0
35,-209,0,0,0,0,0,0,0,0,0,-1,1259,1233,0,0
42,-209,0,0,0,0,0,0,0,0,0,-1,1266,1233,0,0
49,-209,0,0,0,0,0,0,0,0,0,-1,1273,1233,0,0
56,-209,0,0,0,0,0,0,0,0,0,-1,1280,1233,0,0
63,-209,0,0,0,0,0,0,0,0,0,-1,1287,1233,0,0
70,-209,0,0,0,0,0,0,0,0,0,-1,1294,1233,0,0
77,-209,0,0,0,0,0,0,0,0,0,-1,1301,1233,0,0
84,-209,0,0,0,0,0,0,0,0,0,-1,1308,1233,0,0
91,-209,0,0,0,0,0,0,0,0,0,-1,1315,1233,0,0
98,-209,0,0,0,0,0,0,0,0,0,-1,1322,1233,0,0
105,-209,0,0,0,0,0,0,0,0,0,-1,1329,1233,0,0
112,-209,0,0,0,0,0,0,0,0,0,-1,1336,1233,0,0
119,-209,0,0,0,0,0,0,0,0,0,-1,1343,1233,0,0
126,-209,0,0,0,0,0,0,0,0,0,-1,1350,1233,0,0
133,-209,0,0,0,0,0,0,0,0,0,-1,1357,1233,0,0
140,-209,0,0,0,0,0,0,0,0,0,-1,1364,1233,0,0
147,-209,0,0,0,0,0,0,0,0,0,-1,1371,1233,0,0
154,-209,0,0,0,0,0,0,0,0,0,-1,1378,1233,0,0
161,-209,0,0,0,0,0,0,0,0,0,-1,1385,1233,0,0
168,-209,0,0,0,0,0,0,0,0,0,-1,1392,1233,0,0
175,-209,0,0,0,0,0,0,0,0,0,-1,1399,1233,0,0
182,-209,0,0,0,0,0,0,0,0,0,-1,1406,1233,0,0
189,-209,0,0,0,0,0,0,0,0,0,-1,1413,1233,0,0
196,-209,0,0,0,0,0,0,0,0,0,-1,1420,1233,0,0
203,-209,0,0,0,0,0,0,0,0,0,-1,1427,1233,0,0
210,-209,0,0,0,0,0,0,0,0,0,-1,1434,1233,0,0
217,-209,0,0,0,0,0,0,0,0,0,-1,1441,1233,0,0
224,-209,0,0,0,0,0,0,0,0,0,-1,1448,1233,0,0
231,-209,0,0,0,0,0,0,0,0,0,-1,1455,1233,0,0
238,-209,0,0,0,0,0,0,0,0,0,-1,1462,1233,0,0
245,-209,0,0,0,0,0,0,0,0,0,-1,1469,1233,0,0
252,-209,0,0,0,0,0,0,0,0,0,-1,1476,1233,0,0
259,-209,0,0,0,0,0,0,0,0,0,-1,1483,1233,0,0
266,-209,0,0,0,0,0,0,0,0,0,-1,1490,1233,0,0
273,-209,0,0,0,0,0,0,0,0,0,-1,1497,1233,0,0
280,-209,0,0,0,0,0,0,0,0,0,-1,1504,1233,0,0
287,-209,0,0,0,0,0,0,0,0,0,-1,1511,1233,0,0
294,-209,0,0,0,0,0,0,0,0,0,-1,1518,1233,0,0
301,-209,0,0,0,0,0,0,0,0,0,-1,1525,1233,0,0
308,-209,0,0,0,0,0,0,0,0,0,-1,1532,1233,0,0
315,-209,0,0,0,0,0,0,0,0,0,-1,1539,1233,0,0
322,-209,0,0,0,0,0,0,0,0,0,-1,1546,1233,0,0
329,-209,0,0,0,0,0,0,0,0,0,-1,1553,1233,0,0
336,-209,0,0,0,0,0,0,0,0,0,-1,1560,1233,0,0
343,-209,0,0,0,0,0,0,0,0,0,-1,1567,1233,0,0
350,-209,0,0,0,0,0,0,0,0,0,-1,1574,1233,0,0
357,-209,0,0,0,0,0,0,0,0,0,-1,1581,1233,0,0
364,-209,0,0,0,0,0,0,0,0,0,-1,1588,1233,0,0
371,-209,0,0,0,0,0,0,0,0,0,-1,1595,1233,0,0
378,-209,0,0,0,0,0,0,0,0,0,-1,1602,1233,0,0
385,-209,0,0,0,0,0,0,0,0,0,-1,1609,1233,0,0
392,-209,0,0,0,0,0,0,0,0,0,-1,1616,1233,0,0
399,-209,0,0,0,0,0,0,0,0,0,-1,1623,1233,0,0
406,-209,0,0,0,0,0,0,0,0,0,-1,1630,1233,0,0
413,-209,0,0,0,0,0,0,0,0,0,-1,1637,1233,0,0
420,-209,0,0,0,0,0,0,0,0,0,-1,1644,1233,0,0
427,-209,0,0,0,0,0,0,0,0,0,-1,1651,1233,0,0
434,-209,0,0,0,0,0,0,0,0,0,-1,1658,1233,0,0
441,-209,0,0,0,0,0,0,0,0,0,-1,1665,1233,0,0
448,-209,0,0,0,0,0,0,0,0,0,-1,1672,1233,0,0
455,-209,0,0,0,0,0,0,0,0,0,-1,1679,1233,0,0
462,-209,0,0,0,0,0,0,0,0,0,-1,1686,1233,0,0
469,-209,0,0,0,0,0,0,0,0,0,-1,1693,1233,0,0
476,-209,0,0,0,0,0,0,0,0,0,-1,1700,1233,0,0
483,-209,0,0,0,0,0,0,0,0,0,-1,1707,1233,0,0
490,-209,0,0,0,0,0,0,0,0,0,-1,1714,1233,0,0
497,-209,0,0,0,0,0,0,0,0,0,-1,1721,1233,0,0
504,-209,0,0,0,0,0,0,0,0,0,-1,1728,1233,0,0
511,-209,0,0,0,0,0,0,0,0,0,-1,1735,1233,0,0
518,-209,0,0,0,0,0,0,0,0,0,-1,1742,1233,0,0
525,-209,0,0,0,0,0,0,0,0,0,-1,1749,1233,0,0
532,-209,0,0,0,0,0,0,0,0,0,-1,1756,1233,0,0
539,-209,0,0,0,0,0,0,0,0,0,-1,1763,1233,0,0
546,-209,0,0,0,0,0,0,0,0,0,-1,1770,1233,0,0
553,-209,0,0,0,0,0,0,0,0,0,-1,1777,1233,0,0
560,-209,0,0,0,0,0,0,0,0,0,-1,1784,1233,0,0
567,-209,0,0,0,0,0,0,0,0,0,-1,1791,1233,0,0
574,-209,0,0,0,0,0,0,0,0,0,-1,1798,1233,0,0
581,-209,0,0,0,0,0,0,0,0,0,-1,1805,1233,0,0
588,-209,0,0,0,0,0,0,0,0,0,-1,1812,1233,0,0
595,-209,0,0,0,0,0,0,0,0,0,-1,1819,1233,0,0
602,-209,0,0,0,0,0,0,0,0,0,-1,1826,1233,0,0
609,-209,0,0,0,0,0,0,0,0,0,-1,1833,1233,0,0
616,-209,0,0,0,0,0,0,0,0,0,-1,1840,1233,0,0
623,-209,56.0197,2.73486,0.000381982,0.00187191,-0.00328895,0.00449921,-0.00224532,-0.896771,0.00396578,0.035138,1847,1233,56.0196,-2.73484
630,-209,56.0768,2.6239,0.000297988,0.00223909,-0.00260868,0.00405192,-0.00151484,-0.963488,0.00332337,0.036855,1854,1233,56.0767,-2.62394
637,-209,56.2267,2.48755,0.000488815,0.00281911,-0.00214866,0.0040982,-0.000790278,-1.03384,0.00303011,0.0368322,1861,1233,56.2267,-2.48756
644,-209,56.186,2.47229,0.00096647,0.00341445,-0.00192576,0.00447228,-9.13555e-05,-1.06849,0.00301243,0.0328546,1868,1233,56.186,-2.47233
651,-209,56.2029,2.55505,0.00146828,0.00348503,-0.00212732,0.00483086,0.000122443,-1.00672,0.00318054,0.0254397,1875,1233,56.2028,-2.55509
658,-209,56.2086,2.59619,0.00195984,0.00287948,-0.00221272,0.00467966,0.000159669,-0.887844,0.00306794,0.0218524,1882,1233,56.2086,-2.59619
665,-209,56.2742,2.51868,0.0022545,0.00209181,-0.002161,0.00433569,1.06259e-05,-0.766586,0.00288692,0.0380076,1889,1233,56.2741,-2.51864
672,-209,56.3806,2.40393,0,0,0,0,0,0,0,-1,1896,1233,56.3806,-2.40394
679,-209,55.2465,2.78674,0,0,0,0,0,0,0,-1,1903,1233,55.2464,-2.78678
686,-209,33.3711,3.89856,0,0,0,0,0,0,0,-1,1910,1233,33.3711,-3.89855
693,-209,44.5399,10.918,0,0,0,0,0,0,0,-1,1917,1233,44.5399,-10.918
700,-209,44.6677,10.1764,0.00255119,-0.000387408,-0.00135795,0.00308261,-0.000918829,-0.373018,0.0024202,0.0433647,1924,1233,44.6677,-10.1764
707,-209,44.7554,9.49377,0.00251282,-0.000982293,-0.00139108,0.00299889,-0.00146836,-0.336153,0.00262914,0.0358189,1931,1233,44.7553,-9.49374
714,-209,44.7577,9.00659,0.00219405,-0.00110578,-0.00100688,0.00247701,-0.00138874,-0.273966,0.00226118,0.0216057,1938,1233,44.7577,-9.00657
721,-209,44.804,8.46143,0.00172442,-0.00120381,-0.000385028,0.0017742,-0.00125359,-0.128577,0.00175669,0.0135873,1945,1233,44.804,-8.46149
728,-209,44.7952,7.97192,0.00143493,-0.00112953,0.000328127,0.00147625,-0.00117085,0.125263,0.00153169,0.0133546,1952,1233,44.7952,-7.97187
735,-209,44.7588,7.47351,0.00126635,-0.000791538,0.00109847,0.00174252,-0.00126771,0.409034,0.00174515,0.0153221,1959,1233,44.7588,-7.47357
742,-209,44.7296,6.94629,0.00131239,-0.000300476,0.00205271,0.0027114,-0.00169948,0.598229,0.00256886,0.0154893,1966,1233,44.7296,-6.94624
749,-209,44.6888,6.44397,0.00174147,0.00027411,0.00335854,0.00444553,-0.00242995,0.677861,0.00402602,0.0143631,1973,1233,44.6888,-6.44401
756,-209,44.6848,5.96265,0.00265855,0.000900235,0.00469339,0.00655441,-0.00299563,0.692812,0.00563989,0.012699,1980,1233,44.6848,-5.96262
763,-209,44.65,5.54102,0.00430911,0.00137296,0.00656256,0.0095658,-0.00388373,0.675358,0.00799275,0.0234196,1987,1233,44.65,-5.54105
770,-209,44.6917,5.23584,0,0,0,0,0,0,0,-1,1994,1233,44.6916,-5.23585
777,-209,49.8105,-3.45435,0,0,0,0,0,0,0,-1,2001,1233,49.8106,3.45429
784,-209,53.6729,-0.603394,0,0,0,0,0,0,0,-1,2008,1233,53.6728,0.603386
791,-209,53.6887,1.53479,0,0,0,0,0,0,0,-1,2015,1233,53.6887,-1.53478
798,-209,53.6404,3.71179,0,0,0,0,0,0,0,-1,2022,1233,53.6404,-3.71185
805,-209,0,0,0,0,0,0,0,0,0,-1,2029,1233,0,0
812,-209,0,0,0,0,0,0,0,0,0,-1,2036,1233,0,0
-700,-216,0,0,0,0,0,0,0,0,0,-1,524,1240,0,0
-693,-216,0,0,0,0,0,0,0,0,0,-1,531,1240,0,0
-686,-216,0,0,0,0,0,0,0,0,0,-1,538,1240,0,0
-679,-216,-37.0311,-5.80054,0,0,0,0,0,0,0,-1,545,1240,-37.0311,5.80055
-672,-216,-33.4537,1.63782,0,0,0,0,0,0,0,-1,552,1240,-33.4537,-1.6378
-665,-216,-33.8674,3.21411,0,0,0,0,0,0,0,-1,559,1240,-33.8674,-3.21407
-658,-216,-34.2813,4.79041,0,0,0,0,0,0,0,-1,566,1240,-34.2812,-4.79035
-651,-216,-37.6235,-3.32495,0,0,0,0,0,0,0,-1,573,1240,-37.6235,3.3249
-644,-216,-27.3541,1.91699,0,0,0,0,0,0,0,-1,580,1240,-27.3541,-1.91702
-637,-216,-29.5405,2.43713,0,0,0,0,0,0,0,-1,587,1240,-29.5405,-2.43718
-630,-216,-29.381,2.93994,-0.00592757,0.00310214,0.00692154,0.00685116,-0.00967659,1.07439,0.00958867,0.037929,594,1240,-29.381,-2.93998
-623,-216,-29.3517,3.46448,-0.00437673,0.00283085,0.00417612,0.00474315,-0.00628903,1.14138,0.00639024,0.0172743,601,1240,-29.3517,-3.46448
-616,-216,-29.4215,4.00952,-0.00296011,0.00180679,0.00220809,0.00267242,-0.00382573,1.19718,0.00377135,0.0140275,608,1240,-29.4215,-4.00948
-609,-216,-29.4479,4.57043,-0.00154628,0.001114,0.000830068,0.00135175,-0.00178403,1.29184,0.00181617,0.0131915,615,1240,-29.4479,-4.57044
-602,-216,-29.4656,5.07153,-0.000370614,0.000316099,-0.000170197,0.000355967,-0.000410482,-1.3407,0.000442882,0.0133081,622,1240,-29.4656,-5.07158
-595,-216,-29.4448,5.60327,1.84635e-05,-0.000197715,-0.000770521,0.00068844,-0.000867691,-0.715713,0.000900417,0.0194837,629,1240,-29.4448,-5.60323
-588,-216,-29.4592,6.2124,0.000397188,-0.0007777,-0.00099021,0.000961094,-0.00134161,-0.517677,0.0013355,0.0225769,636,1240,-29.4592,-6.21246
-581,-216,-29.4569,6.81836,0.00078694,-0.00105776,-0.00151816,0.00164097,-0.00191179,-0.512423,0.00205317,0.040957,643,1240,-29.4569,-6.81834
-574,-216,-29.3655,7.20972,0,0,0,0,0,0,0,-1,650,1240,-29.3655,-7.20973
-567,-216,-30.0659,8.37646,0,0,0,0,0,0,0,-1,657,1240,-30.0659,-8.37648
-560,-216,-16.5087,5.4574,0,0,0,0,0,0,0,-1,664,1240,-16.5087,-5.45746
-553,-216,-16.2355,1.22351,0,0,0,0,0,0,0,-1,671,1240,-16.2356,-1.22356
-546,-216,-37.1617,-0.25415,0,0,0,0,0,0,0,-1,678,1240,-37.1618,0.254161
-539,-216,-42.0471,1.00952,0,0,0,0,0,0,0,-1,685,1240,-42.0471,-1.00947
-532,-216,-41.6779,0.840698,0.00204083,-0.00249621,-0.00238974,0.00306731,-0.00352269,-0.405707,0.00380777,0.0476961,692,1240,-41.6779,-0.840731
-525,-216,-41.7123,0.797363,0.00193897,-0.0028494,-0.00278761,0.00321941,-0.00412984,-0.430588,0.00425393,0.0460156,699,1240,-41.7124,-0.797318
-518,-216,-41.8943,0.862793,0.00176542,-0.00298339,-0.00292976,0.00316213,-0.00438009,-0.44486,0.00437339,0.042519,706,1240,-41.8944,-0.862823
-511,-216,-42.0091,0.868164,0.0022221,-0.00233381,-0.00211589,0.00305318,-0.00316489,-0.374265,0.0035902,0.0428169,713,1240,-42.0091,-0.868181
-504,-216,-41.8636,0.80127,0.00393139,-7.15253e-05,0.000637143,0.00403035,-0.000170492,0.154098,0.0027455,0.0413554,720,1240,-41.8636,-0.801323
-497,-216,0,0,0,0,0,0,0,0,0,-1,727,1240,0,0
-490,-216,0,0,0,0,0,0,0,0,0,-1,734,1240,0,0
-483,-216,0,0,0,0,0,0,0,0,0,-1,741,1240,0,0
-476,-216,0,0,0,0,0,0,0,0,0,-1,748,1240,0,0
-469,-216,0,0,0,0,0,0,0,0,0,-1,755,1240,0,0
-462,-216,0,0,0,0,0,0,0,0,0,-1,762,1240,0,0
-455,-216,0,0,0,0,0,0,0,0,0,-1,769,1240,0,0
-448,-216,0,0,0,0,0,0,0,0,0,-1,776,1240,0,0
-441,-216,0,0,0,0,0,0,0,0,0,-1,783,1240,0,0
-434,-216,0,0,0,0,0,0,0,0,0,-1,790,1240,0,0
-427,-216,0,0,0,0,0,0,0,0,0,-1,797,1240,0,0
-420,-216,0,0,0,0,0,0,0,0,0,-1,804,1240,0,0
-413,-216,0,0,0,0,0,0,0,0,0,-1,811,1240,0,0
-406,-216,0,0,0,0,0,0,0,0,0,-1,818,1240,0,0
-399,-216,0,0,0,0,0,0,0,0,0,-1,825,1240,0,0
-392,-216,0,0,0,0,0,0,0,0,0,-1,832,1240,0,0
-385,-216,0,0,0,0,0,0,0,0,0,-1,839,1240,0,0
-378,-216,0,0,0,0,0,0,0,0,0,-1,846,1240,0,0
-371,-216,0,0,0,0,0,0,0,0,0,-1,853,1240,0,0
-364,-216,0,0,0,0,0,0,0,0,0,-1,860,1240,0,0
-357,-216,0,0,0,0,0,0,0,0,0,-1,867,1240,0,0
-350,-216,0,0,0,0,0,0,0,0,0,-1,874,1240,0,0
-343,-216,0,0,0,0,0,0,0,0,0,-1,881,1240,0,0
-336,-216,0,0,0,0,0,0,0,0,0,-1,888,1240,0,0
-329,-216,0,0,0,0,0,0,0,0,0,-1,895,1240,0,0
-322,-216,0,0,0,0,0,0,0,0,0,-1,902,1240,0,0
-315,-216,0,0,0,0,0,0,0,0,0,-1,909,1240,0,0
-308,-216,0,0,0,0,0,0,0,0,0,-1,916,1240,0,0
-301,-216,0,0,0,0,0,0,0,0,0,-1,923,1240,0,0
-294,-216,0,0,0,0,0,0,0,0,0,-1,930,1240,0,0
-287,-216,0,0,0,0,0,0,0,0,0,-1,937,1240,0,0
-280,-216,0,0,0,0,0,0,0,0,0,-1,944,1240,0,0
-273,-216,0,0,0,0,0,0,0,0,0,-1,951,1240,0,0
-266,-216,0,0,0,0,0,0,0,0,0,-1,958,1240,0,0
-259,-216,0,0,0,0,0,0,0,0,0,-1,965,1240,0,0
-252,-216,0,0,0,0,0,0,0,0,0,-1,972,1240,0,0
-245,-216,0,0,0,0,0,0,0,0,0,-1,979,1240,0,0
-238,-216,0,0,0,0,0,0,0,0,0,-1,986,1240,0,0
-231,-216,0,0,0,0,0,0,0,0,0,-1,993,1240,0,0
-224,-216,0,0,0,0,0,0,0,0,0,-1,1000,1240,0,0
-217,-216,0,0,0,0,0,0,0,0,0,-1,1007,1240,0,0
-210,-216,0,0,0,0,0,0,0,0,0,-1,1014,1240,0,0
-203,-216,0,0,0,0,0,0,0,0,0,-1,1021,1240,0,0
-196,-216,0,0,0,0,0,0,0,0,0,-1,1028,1240,0,0
-189,-216,0,0,0,0,0,0,0,0,0,-1,1035,1240,0,0
-182,-216,0,0,0,0,0,0,0,0,0,-1,1042,1240,0,0
-175,-216,0,0,0,0,0,0,0,0,0,-1,1049,1240,0,0
-168,-216,0,0,0,0,0,0,0,0,0,-1,1056,1240,0,0
-161,-216,0,0,0,0,0,0,0,0,0,-1,1063,1240,0,0
-154,-216,0,0,0,0,0,0,0,0,0,-1,1070,1240,0,0
-147,-216,0,0,0,0,0,0,0,0,0,-1,1077,1240,0,0
-140,-216,0,0,0,0,0,0,0,0,0,-1,1084,1240,0,0
-133,-216,0,0,0,0,0,0,0,0,0,-1,1091,1240,0,0
-126,-216,0,0,0,0,0,0,0,0,0,-1,1098,1240,0,0
-119,-216,0,0,0,0,0,0,0,0,0,-1,1105,1240,0,0
-112,-216,0,0,0,0,0,0,0,0,0,-1,1112,1240,0,0
-105,-216,0,0,0,0,0,0,0,0,0,-1,1119,1240,0,0
-98,-216,0,0,0,0,0,0,0,0,0,-1,1126,1240,0,0
-91,-216,0,0,0,0,0,0,0,0,0,-1,1133,1240,0,0
-84,-216,0,0,0,0,0,0,0,0,0,-1,1140,1240,0,0
-77,-216,0,0,0,0,0,0,0,0,0,-1,1147,1240,0,0
-70,-216,0,0,0,0,0,0,0,0,0,-1,1154,1240,0,0
-63,-216,0,0,0,0,0,0,0,0,0,-1,1161,1240,0,0
-56,-216,0,0,0,0,0,0,0,0,0,-1,1168,1240,0,0
-49,-216,0,0,0,0,0,0,0,0,0,-1,1175,1240,0,0
-42,-216,0,0,0,0,0,0,0,0,0,-1,1182,1240,0,0
-35,-216,0,0,0,0,0,0,0,0,0,-1,1189,1240,0,0
-28,-216,0,0,0,0,0,0,0,0,0,-1,1196,1240,0,0
-21,-216,0,0,0,0,0,0,0,0,0,-1,1203,1240,0,0
-14,-216,0,0,0,0,0,0,0,0,0,-1,1210,1240,0,0
-7,-216,0,0,0,0,0,0,0,0,0,-1,1217,1240,0,0
0,-216,0,0,0,0,0,0,0,0,0,-1,1224,1240,0,0
7,-216,0,0,0,0,0,0,0,0,0,-1,1231,1240,0,0
14,-216,0,0,0,0,0,0,0,0,0,-1,1238,1240,0,0
21,-216,0,0,0,0,0,0,0,0,0,-1,1245,1240,0,0
28,-216,0,0,0,0,0,0,0,0,0,-1,1252,1240,0,0
35,-216,0,0,0,0,0,0,0,0,0,-1,1259,1240,0,0
42,-216,0,0,0,0,0,0,0,0,0,-1,1266,1240,0,0
49,-216,0,0,0,0,0,0,0,0,0,-1,1273,1240,0,0
56,-216,0,0,0,0,0,0,0,0,0,-1,1280,1240,0,0
63,-216,0,0,0,0,0,0,0,0,0,-1,1287,1240,0,0
70,-216,0,0,0,0,0,0,0,0,0,-1,1294,1240,0,0
77,-216,0,0,0,0,0,0,0,0,0,-1,1301,1240,0,0
84,-216,0,0,0,0,0,0,0,0,0,-1,1308,1240,0,0
91,-216,0,0,0,0,0,0,0,0,0,-1,1315,1240,0,0
98,-216,0,0,0,0,0,0,0,0,0,-1,1322,1240,0,0
105,-216,0,0,0,0,0,0,0,0,0,-1,1329,1240,0,0
112,-216,0,0,0,0,0,0,0,0,0,-1,1336,1240,0,0
119,-216,0,0,0,0,0,0,0,0,0,-1,1343,1240,0,0
126,-216,0,0,0,0,0,0,0,0,0,-1,1350,1240,0,0
133,-216,0,0,0,0,0,0,0,0,0,-1,1357,1240,0,0
140,-216,0,0,0,0,0,0,0,0,0,-1,1364,1240,0,0
147,-216,0,0,0,0,0,0,0,0,0,-1,1371,1240,0,0
154,-216,0,0,0,0,0,0,0,0,0,-1,1378,1240,0,0
161,-216,0,0,0,0,0,0,0,0,0,-1,1385,1240,0,0
168,-216,0,0,0,0,0,0,0,0,0,-1,1392,1240,0,0
175,-216,0,0,0,0,0,0,0,0,0,-1,1399,1240,0,0
182,-216,0,0,0,0,0,0,0,0,0,-1,1406,1240,0,0
189,-216,0,0,0,0,0,0,0,0,0,-1,1413,1240,0,0
196,-216,0,0,0,0,0,0,0,0,0,-1,1420,1240,0,0
203,-216,0,0,0,0,0,0,0,0,0,-1,1427,1240,0,0
210,-216,0,0,0,0,0,0,0,0,0,-1,1434,1240,0,0
217,-216,0,0,0,0,0,0,0,0,0,-1,1441,1240,0,0
224,-216,0,0,0,0,0,0,0,0,0,-1,1448,1240,0,0
231,-216,0,0,0,0,0,0,0,0,0,-1,1455,1240,0,0
238,-216,0,0,0,0,0,0,0,0,0,-1,1462,1240,0,0
245,-216,0,0,0,0,0,0,0,0,0,-1,1469,1240,0,0
252,-216,0,0,0,0,0,0,0,0,0,-1,1476,1240,0,0
259,-216,0,0,0,0,0,0,0,0,0,-1,1483,1240,0,0
266,-216,0,0,0,0,0,0,0,0,0,-1,1490,1240,0,0
273,-216,0,0,0,0,0,0,0,0,0,-1,1497,1240,0,0
280,-216,0,0,0,0,0,0,0,0,0,-1,1504,1240,0,0
287,-216,0,0,0,0,0,0,0,0,0,-1,1511,1240,0,0
294,-216,0,0,0,0,0,0,0,0,0,-1,1518,1240,0,0
301,-216,0,0,0,0,0,0,0,0,0,-1,1525,1240,0,0
308,-216,0,0,0,0,0,0,0,0,0,-1,1532,1240,0,0
315,-216,0,0,0,0,0,0,0,0,0,-1,1539,1240,0,0
322,-216,0,0,0,0,0,0,0,0,0,-1,1546,1240,0,0
329,-216,0,0,0,0,0,0,0,0,0,-1,1553,1240,0,0
336,-216,0,0,0,0,0,0,0,0,0,-1,1560,1240,0,0
343,-216,0,0,0,0,0,0,0,0,0,-1,1567,1240,0,0
350,-216,0,0,0,0,0,0,0,0,0,-1,1574,1240,0,0
357,-216,0,0,0,0,0,0,0,0,0,-1,1581,1240,0,0
364,-216,0,0,0,0,0,0,0,0,0,-1,1588,1240,0,0
371,-216,0,0,0,0,0,0,0,0,0,-1,1595,1240,0,0
378,-216,0,0,0,0,0,0,0,0,0,-1,1602,1240,0,0
385,-216,0,0,0,0,0,0,0,0,0,-1,1609,1240,0,0
392,-216,0,0,0,0,0,0,0,0,0,-1,1616,1240,0,0
399,-216,0,0,0,0,0,0,0,0,0,-1,1623,1240,0,0
406,-216,0,0,0,0,0,0,0,0,0,-1,1630,1240,0,0
413,-216,0,0,0,0,0,0,0,0,0,-1,1637,1240,0,0
420,-216,0,0,0,0,0,0,0,0,0,-1,1644,1240,0,0
427,-216,0,0,0,0,0,0,0,0,0,-1,1651,1240,0,0
434,-216,0,0,0,0,0,0,0,0,0,-1,1658,1240,0,0
441,-216,0,0,0,0,0,0,0,0,0,-1,1665,1240,0,0
448,-216,0,0,0,0,0,0,0,0,0,-1,1672,1240,0,0
455,-216,0,0,0,0,0,0,0,0,0,-1,1679,1240,0,0
462,-216,0,0,0,0,0,0,0,0,0,-1,1686,1240,0,0
469,-216,0,0,0,0,0,0,0,0,0,-1,1693,1240,0,0
476,-216,0,0,0,0,0,0,0,0,0,-1,1700,1240,0,0
483,-216,0,0,0,0,0,0,0,0,0,-1,1707,1240,0,0
490,-216,0,0,0,0,0,0,0,0,0,-1,1714,1240,0,0
497,-216,0,0,0,0,0,0,0,0,0,-1,1721,1240,0,0
504,-216,0,0,0,0,0,0,0,0,0,-1,1728,1240,0,0
511,-216,0,0,0,0,0,0,0,0,0,-1,1735,1240,0,0
518,-216,0,0,0,0,0,0,0,0,0,-1,1742,1240,0,0
525,-216,0,0,0,0,0,0,0,0,0,-1,1749,1240,0,0
532,-216,0,0,0,0,0,0,0,0,0,-1,1756,1240,0,0
539,-216,0,0,0,0,0,0,0,0,0,-1,1763,1240,0,0
546,-216,0,0,0,0,0,0,0,0,0,-1,1770,1240,0,0
553,-216,0,0,0,0,0,0,0,0,0,-1,1777,1240,0,0
560,-216,0,0,0,0,0,0,0,0,0,-1,1784,1240,0,0
567,-216,0,0,0,0,0,0,0,0,0,-1,1791,1240,0,0
574,-216,0,0,0,0,0,0,0,0,0,-1,1798,1240,0,0
581,-216,0,0,0,0,0,0,0,0,0,-1,1805,1240,0,0
588,-216,0,0,0,0,0,0,0,0,0,-1,1812,1240,0,0
595,-216,0,0,0,0,0,0,0,0,0,-1,1819,1240,0,0
602,-216,0,0,0,0,0,0,0,0,0,-1,1826,1240,0,0
609,-216,0,0,0,0,0,0,0,0,0,-1,1833,1240,0,0
616,-216,0,0,0,0,0,0,0,0,0,-1,1840,1240,0,0
623,-216,56.1046,2.77173,-6.14536e-05,0.00210565,-0.00293054,0.00414654,-0.00210235,-0.962476,0.00367158,0.0394387,1847,1240,56.1046,-2.77169
630,-216,56.141,2.59949,-0.000190604,0.0029197,-0.0023703,0.00419947,-0.00147038,-1.07572,0.00339754,0.037906,1854,1240,56.1409,-2.59945
637,-216,56.201,2.51392,3.04465e-05,0.0038706,-0.00196165,0.00469548,-0.00079443,-1.17274,0.00342597,0.0327291,1861,1240,56.201,-2.5139
644,-216,56.1538,2.58606,0.000620888,0.00454703,-0.00182801,0.00526636,-9.84417e-05,-1.1959,0.00354418,0.0267493,1868,1240,56.1538,-2.58609
651,-216,56.1603,2.60669,0.00109637,0.00435552,-0.00207572,0.00536491,8.69739e-05,-1.11818,0.00354797,0.0229443,1875,1240,56.1603,-2.60669
658,-216,56.2019,2.60132,0.0015456,0.00354011,-0.0021356,0.00489983,0.000185881,-1.00383,0.00320639,0.0321953,1882,1240,56.2019,-2.60138
665,-216,56.3557,2.52466,0.00180424,0.00266752,-0.00206699,0.00434746,0.000124295,-0.888331,0.00285777,0.0436989,1889,1240,56.3557,-2.52466
672,-216,56.5712,2.45325,0,0,0,0,0,0,0,-1,1896,1240,56.5711,-2.45331
679,-216,47.3159,3.82703,0,0,0,0,0,0,0,-1,1903,1240,47.316,-3.82708
686,-216,21.5172,6.19458,0,0,0,0,0,0,0,-1,1910,1240,21.5172,-6.19453
693,-216,44.7413,10.4927,0,0,0,0,0,0,0,-1,1917,1240,44.7413,-10.4927
700,-216,44.3113,10.1323,0.00242282,-0.000189328,-0.0013874,0.00302219,-0.000788695,-0.407791,0.00232276,0.0413068,1924,1240,44.3113,-10.1323
707,-216,44.2466,9.56091,0.00234811,-0.00094082,-0.00145058,0.00289646,-0.00148917,-0.361418,0.00257514,0.0376435,1931,1240,44.2466,-9.56096
714,-216,44.28,9.02307,0.00192383,-0.00107106,-0.000981679,0.00221692,-0.00136416,-0.29014,0.00208699,0.0155522,1938,1240,44.28,-9.02311
721,-216,44.313,8.52063,0.0013963,-0.00111666,-0.000250039,0.00142094,-0.0011413,-0.0982163,0.00148224,0.0140981,1945,1240,44.313,-8.52067
728,-216,44.3209,8.00342,0.00107463,-0.000976237,0.000575126,0.0012249,-0.00112651,0.255572,0.00135798,0.0135021,1952,1240,44.3209,-8.00344
735,-216,44.314,7.49658,0.000911371,-0.000716157,0.00144393,0.00175506,-0.00155985,0.528796,0.00191497,0.0144476,1959,1240,44.314,-7.49657
742,-216,44.2311,7.00146,0.0010018,-0.000327696,0.00241686,0.00284367,-0.00216956,0.651193,0.0029031,0.0164623,1966,1240,44.231,-7.00144
749,-216,44.1945,6.47461,0.00152065,-9.35606e-05,0.00356562,0.00436938,-0.00294228,0.674095,0.00424811,0.0129477,1973,1240,44.1945,-6.47466
756,-216,44.1671,5.96399,0.0026001,0.000205405,0.00470868,0.00626127,-0.00345577,0.660894,0.00568755,0.0113163,1980,1240,44.1672,-5.96399
763,-216,44.1447,5.52722,0.00462109,0.000114178,0.00625572,0.00901685,-0.00428159,0.612522,0.00783843,0.0201983,1987,1240,44.1446,-5.52721
770,-216,44.344,5.09412,0.00752818,-0.000511805,0.00838341,0.0128056,-0.00578923,0.561834,0.0109875,0.0453945,1994,1240,44.344,-5.09407
777,-216,44.6138,4.64636,0,0,0,0,0,0,0,-1,2001,1240,44.6138,-4.64637
784,-216,51.8208,-0.443726,0,0,0,0,0,0,0,-1,2008,1240,51.8208,0.443779
791,-216,55.1682,1.76636,0,0,0,0,0,0,0,-1,2015,1240,55.1682,-1.76635
798,-216,0,0,0,0,0,0,0,0,0,-1,2022,1240,0,0
805,-216,0,0,0,0,0,0,0,0,0,-1,2029,1240,0,0
812,-216,0,0,0,0,0,0,0,0,0,-1,2036,1240,0,0
-700,-223,0,0,0,0,0,0,0,0,0,-1,524,1247,0,0
-693,-223,0,0,0,0,0,0,0,0,0,-1,531,1247,0,0
-686,-223,0,0,0,0,0,0,0,0,0,-1,538,1247,0,0
-679,-223,0,0,0,0,0,0,0,0,0,-1,545,1247,0,0
-672,-223,-33.4503,2.20239,0,0,0,0,0,0,0,-1,552,1247,-33.4502,-2.20237
-665,-223,-34.4696,3.60889,0,0,0,0,0,0,0,-1,559,1247,-34.4696,-3.60884
-658,-223,-35.5076,5.03894,0,0,0,0,0,0,0,-1,566,1247,-35.5076,-5.03889
-651,-223,-36.411,6.55054,0,0,0,0,0,0,0,-1,573,1247,-36.411,-6.55056
-644,-223,-38.563,-3.12415,0,0,0,0,0,0,0,-1,580,1247,-38.563,3.12416
-637,-223,-37.1149,-1.51843,0,0,0,0,0,0,0,-1,587,1247,-37.1149,1.51847
-630,-223,-28.8412,2.97815,0,0,0,0,0,0,0,-1,594,1247,-28.8412,-2.97815
-623,-223,-28.8755,3.55811,-0.00624806,0.00452236,0.00446805,0.00613457,-0.00786027,1.2245,0.00810037,0.0285906,601,1247,-28.8755,-3.55814
-616,-223,-28.8716,4.00757,-0.00417399,0.00344893,0.00256542,0.00423189,-0.00495694,1.27458,0.00531067,0.0160623,608,1247,-28.8716,-4.00757
-609,-223,-28.8657,4.56262,-0.00234326,0.00226275,0.00125555,0.00258277,-0.00266328,1.32123,0.00302892,0.0119065,615,1247,-28.8657,-4.56267
-602,-223,-28.8899,5.09119,-0.000779609,0.0010657,0.000293967,0.0011114,-0.000825308,1.41658,0.00112222,0.01476,622,1247,-28.8899,-5.09119
-595,-223,-28.8927,5.67786,0.000102001,0.00020604,-0.000372531,0.000530166,-0.000222124,-0.854769,0.000446308,0.0221101,629,1247,-28.8927,-5.67788
-588,-223,-28.9043,6.29333,0.000811079,-0.000578504,-0.000665807,0.00107859,-0.00084602,-0.382049,0.00111388,0.0250103,636,1247,-28.9043,-6.29333
-581,-223,-28.9807,6.85205,0.00136671,-0.000975818,-0.00122099,0.00188739,-0.00149649,-0.403089,0.00195803,0.0243295,643,1247,-28.9807,-6.85209
-574,-223,-29.0378,7.32739,0.00161078,-0.00117347,-0.00150105,0.00226589,-0.00182858,-0.411515,0.00236843,0.0292553,650,1247,-29.0378,-7.32738
-567,-223,-29.0032,8.01758,0.00170088,-0.00150193,-0.00119196,0.00209579,-0.00189684,-0.319928,0.0023061,0.045747,657,1247,-29.0032,-8.01756
-560,-223,-29.1814,8.69275,0,0,0,0,0,0,0,-1,664,1247,-29.1814,-8.69275
-553,-223,-11.4025,4.14722,0,0,0,0,0,0,0,-1,671,1247,-11.4025,-4.14719
-546,-223,-26.9034,-0.148682,0,0,0,0,0,0,0,-1,678,1247,-26.9034,0.14867
-539,-223,-36.7405,0.35376,0,0,0,0,0,0,0,-1,685,1247,-36.7405,-0.353807
-532,-223,-41.5354,0.727173,0,0,0,0,0,0,0,-1,692,1247,-41.5354,-0.727206
-525,-223,-41.5739,0.621582,0,0,0,0,0,0,0,-1,699,1247,-41.5739,-0.621523
-518,-223,-41.835,0.803467,0,0,0,0,0,0,0,-1,706,1247,-41.835,-0.803483
-511,-223,-41.914,0.952881,0.00117738,-0.00427049,-0.00422096,0.00347702,-0.00657014,-0.498854,0.00589165,0.0401872,713,1247,-41.914,-0.952919
-504,-223,-41.8046,0.744141,0.00173217,-0.00303492,-0.00252299,0.00281947,-0.00412222,-0.406906,0.00403125,0.0382633,720,1247,-41.8046,-0.744177
-497,-223,0,0,0,0,0,0,0,0,0,-1,727,1247,0,0
-490,-223,0,0,0,0,0,0,0,0,0,-1,734,1247,0,0
-483,-223,0,0,0,0,0,0,0,0,0,-1,741,1247,0,0
-476,-223,0,0,0,0,0,0,0,0,0,-1,748,1247,0,0
-469,-223,0,0,0,0,0,0,0,0,0,-1,755,1247,0,0
-462,-223,0,0,0,0,0,0,0,0,0,-1,762,1247,0,0
-455,-223,0,0,0,0,0,0,0,0,0,-1,769,1247,0,0
-448,-223,0,0,0,0,0,0,0,0,0,-1,776,1247,0,0
-441,-223,0,0,0,0,0,0,0,0,0,-1,783,1247,0,0
-434,-223,0,0,0,0,0,0,0,0,0,-1,790,1247,0,0
-427,-223,0,0,0,0,0,0,0,0,0,-1,797,1247,0,0
-420,-223,0,0,0,0,0,0,0,0,0,-1,804,1247,0,0
-413,-223,0,0,0,0,0,0,0,0,0,-1,811,1247,0,0
-406,-223,0,0,0,0,0,0,0,0,0,-1,818,1247,0,0
-399,-223,0,0,0,0,0,0,0,0,0,-1,825,1247,0,0
-392,-223,0,0,0,0,0,0,0,0,0,-1,832,1247,0,0
-385,-223,0,0,0,0,0,0,0,0,0,-1,839,1247,0,0
-378,-223,0,0,0,0,0,0,0,0,0,-1,846,1247,0,0
-371,-223,0,0,0,0,0,0,0,0,0,-1,853,1247,0,0
-364,-223,0,0,0,0,0,0,0,0,0,-1,860,1247,0,0
-357,-223,0,0,0,0,0,0,0,0,0,-1,867,1247,0,0
-350,-223,0,0,0,0,0,0,0,0,0,-1,874,1247,0,0
-343,-223,0,0,0,0,0,0,0,0,0,-1,881,1247,0,0
-336,-223,0,0,0,0,0,0,0,0,0,-1,888,1247,0,0
-329,-223,0,0,0,0,0,0,0,0,0,-1,895,1247,0,0
-322,-223,0,0,0,0,0,0,0,0,0,-1,902,1247,0,0
-315,-223,0,0,0,0,0,0,0,0,0,-1,909,1247,0,0
-308,-223,0,0,0,0,0,0,0,0,0,-1,916,1247,0,0
-301,-223,0,0,0,0,0,0,0,0,0,-1,923,1247,0,0
-294,-223,0,0,0,0,0,0,0,0,0,-1,930,1247,0,0
-287,-223,0,0,0,0,0,0,0,0,0,-1,937,1247,0,0
-280,-223,0,0,0,0,0,0,0,0,0,-1,944,1247,0,0
-273,-223,0,0,0,0,0,0,0,0,0,-1,951,1247,0,0
-266,-223,0,0,0,0,0,0,0,0,0,-1,958,1247,0,0
-259,-223,0,0,0,0,0,0,0,0,0,-1,965,1247,0,0
-252,-223,0,0,0,0,0,0,0,0,0,-1,972,1247,0,0
-245,-223,0,0,0,0,0,0,0,0,0,-1,979,1247,0,0
-238,-223,0,0,0,0,0,0,0,0,0,-1,986,1247,0,0
-231,-223,0,0,0,0,0,0,0,0,0,-1,993,1247,0,0
-224,-223,0,0,0,0,0,0,0,0,0,-1,1000,1247,0,0
-217,-223,0,0,0,0,0,0,0,0,0,-1,1007,1247,0,0
-210,-223,0,0,0,0,0,0,0,0,0,-1,1014,1247,0,0
-203,-223,0,0,0,0,0,0,0,0,0,-1,1021,1247,0,0
-196,-223,0,0,0,0,0,0,0,0,0,-1,1028,1247,0,0
-189,-223,0,0,0,0,0,0,0,0,0,-1,1035,1247,0,0
-182,-223,0,0,0,0,0,0,0,0,0,-1,1042,1247,0,0
-175,-223,0,0,0,0,0,0,0,0,0,-1,1049,1247,0,0
-168,-223,0,0,0,0,0,0,0,0,0,-1,1056,1247,0,0
-161,-223,0,0,0,0,0,0,0,0,0,-1,1063,1247,0,0
-154,-223,0,0,0,0,0,0,0,0,0,-1,1070,1247,0,0
-147,-223,0,0,0,0,0,0,0,0,0,-1,1077,1247,0,0
-140,-223,0,0,0,0,0,0,0,0,0,-1,1084,1247,0,0
-133,-223,0,0,0,0,0,0,0,0,0,-1,1091,1247,0,0
-126,-223,0,0,0,0,0,0,0,0,0,-1,1098,1247,0,0
-119,-223,0,0,0,0,0,0,0,0,0,-1,1105,1247,0,0
-112,-223,0,0,0,0,0,0,0,0,0,-1,1112,1247,0,0
-105,-223,0,0,0,0,0,0,0,0,0,-1,1119,1247,0,0
-98,-223,0,0,0,0,0,0,0,0,0,-1,1126,1247,0,0
-91,-223,0,0,0,0,0,0,0,0,0,-1,1133,1247,0,0
-84,-223,0,0,0,0,0,0,0,0,0,-1,1140,1247,0,0
-77,-223,0,0,0,0,0,0,0,0,0,-1,1147,1247,0,0
-70,-223,0,0,0,0,0,0,0,0,0,-1,1154,1247,0,0
-63,-223,0,0,0,0,0,0,0,0,0,-1,1161,1247,0,0
-56,-223,0,0,0,0,0,0,0,0,0,-1,1168,1247,0,0
-49,-223,0,0,0,0,0,0,0,0,0,-1,1175,1247,0,0
-42,-223,0,0,0,0,0,0,0,0,0,-1,1182,1247,0,0
-35,-223,0,0,0,0,0,0,0,0,0,-1,1189,1247,0,0
-28,-223,0,0,0,0,0,0,0,0,0,-1,1196,1247,0,0
-21,-223,0,0,0,0,0,0,0,0,0,-1,1203,1247,0,0
-14,-223,0,0,0,0,0,0,0,0,0,-1,1210,1247,0,0
-7,-223,0,0,0,0,0,0,0,0,0,-1,1217,1247,0,0
0,-223,0,0,0,0,0,0,0,0,0,-1,1224,1247,0,0
7,-223,0,0,0,0,0,0,0,0,0,-1,1231,1247,0,0
14,-223,0,0,0,0,0,0,0,0,0,-1,1238,1247,0,0
21,-223,0,0,0,0,0,0,0,0,0,-1,1245,1247,0,0
28,-223,0,0,0,0,0,0,0,0,0,-1,1252,1247,0,0
35,-223,0,0,0,0,0,0,0,0,0,-1,1259,1247,0,0
42,-223,0,0,0,0,0,0,0,0,0,-1,1266,1247,0,0
49,-223,0,0,0,0,0,0,0,0,0,-1,1273,1247,0,0
56,-223,0,0,0,0,0,0,0,0,0,-1,1280,1247,0,0
63,-223,0,0,0,0,0,0,0,0,0,-1,1287,1247,0,0
70,-223,0,0,0,0,0,0,0,0,0,-1,1294,1247,0,0
77,-223,0,0,0,0,0,0,0,0,0,-1,1301,1247,0,0
84,-223,0,0,0,0,0,0,0,0,0,-1,1308,1247,0,0
91,-223,0,0,0,0,0,0,0,0,0,-1,1315,1247,0,0
98,-223,0,0,0,0,0,0,0,0,0,-1,1322,1247,0,0
105,-223,0,0,0,0,0,0,0,0,0,-1,1329,1247,0,0
112,-223,0,0,0,0,0,0,0,0,0,-1,1336,1247,0,0
119,-223,0,0,0,0,0,0,0,0,0,-1,1343,1247,0,0
126,-223,0,0,0,0,0,0,0,0,0,-1,1350,1247,0,0
133,-223,0,0,0,0,0,0,0,0,0,-1,1357,1247,0,0
140,-223,0,0,0,0,0,0,0,0,0,-1,1364,1247,0,0
147,-223,0,0,0,0,0,0,0,0,0,-1,1371,1247,0,0
154,-223,0,0,0,0,0,0,0,0,0,-1,1378,1247,0,0
161,-223,0,0,0,0,0,0,0,0,0,-1,1385,1247,0,0
168,-223,0,0,0,0,0,0,0,0,0,-1,1392,1247,0,0
175,-223,0,0,0,0,0,0,0,0,0,-1,1399,1247,0,0
182,-223,0,0,0,0,0,0,0,0,0,-1,1406,1247,0,0
189,-223,0,0,0,0,0,0,0,0,0,-1,1413,1247,0,0
196,-223,0,0,0,0,0,0,0,0,0,-1,1420,1247,0,0
203,-223,0,0,0,0,0,0,0,0,0,-1,1427,1247,0,0
210,-223,0,0,0,0,0,0,0,0,0,-1,1434,1247,0,0
217,-223,0,0,0,0,0,0,0,0,0,-1,1441,1247,0,0
224,-223,0,0,0,0,0,0,0,0,0,-1,1448,1247,0,0
231,-223,0,0,0,0,0,0,0,0,0,-1,1455,1247,0,0
238,-223,0,0,0,0,0,0,0,0,0,-1,1462,1247,0,0
245,-223,0,0,0,0,0,0,0,0,0,-1,1469,1247,0,0
252,-223,0,0,0,0,0,0,0,0,0,-1,1476,1247,0,0
259,-223,0,0,0,0,0,0,0,0,0,-1,1483,1247,0,0
266,-223,0,0,0,0,0,0,0,0,0,-1,1490,1247,0,0
273,-223,0,0,0,0,0,0,0,0,0,-1,1497,1247,0,0
280,-223,0,0,0,0,0,0,0,0,0,-1,1504,1247,0,0
287,-223,0,0,0,0,0,0,0,0,0,-1,1511,1247,0,0
294,-223,0,0,0,0,0,0,0,0,0,-1,1518,1247,0,0
301,-223,0,0,0,0,0,0,0,0,0,-1,1525,1247,0,0
308,-223,0,0,0,0,0,0,0,0,0,-1,1532,1247,0,0
315,-223,0,0,0,0,0,0,0,0,0,-1,1539,1247,0,0
322,-223,0,0,0,0,0,0,0,0,0,-1,1546,1247,0,0
329,-223,0,0,0,0,0,0,0,0,0,-1,1553,1247,0,0
336,-223,0,0,0,0,0,0,0,0,0,-1,1560,1247,0,0
343,-223,0,0,0,0,0,0,0,0,0,-1,1567,1247,0,0
350,-223,0,0,0,0,0,0,0,0,0,-1,1574,1247,0,0
357,-223,0,0,0,0,0,0,0,0,0,-1,1581,1247,0,0
364,-223,0,0,0,0,0,0,0,0,0,-1,1588,1247,0,0
371,-223,0,0,0,0,0,0,0,0,0,-1,1595,1247,0,0
378,-223,0,0,0,0,0,0,0,0,0,-1,1602,1247,0,0
385,-223,0,0,0,0,0,0,0,0,0,-1,1609,1247,0,0
392,-223,0,0,0,0,0,0,0,0,0,-1,1616,1247,0,0
399,-223,0,0,0,0,0,0,0,0,0,-1,1623,1247,0,0
406,-223,0,0,0,0,0,0,0,0,0,-1,1630,1247,0,0
413,-223,0,0,0,0,0,0,0,0,0,-1,1637,1247,0,0
420,-223,0,0,0,0,0,0,0,0,0,-1,1644,1247,0,0
427,-223,0,0,0,0,0,0,0,0,0,-1,1651,1247,0,0
434,-223,0,0,0,0,0,0,0,0,0,-1,1658,1247,0,0
441,-223,0,0,0,0,0,0,0,0,0,-1,1665,1247,0,0
448,-223,0,0,0,0,0,0,0,0,0,-1,1672,1247,0,0
455,-223,0,0,0,0,0,0,0,0,0,-1,1679,1247,0,0
462,-223,0,0,0,0,0,0,0,0,0,-1,1686,1247,0,0
469,-223,0,0,0,0,0,0,0,0,0,-1,1693,1247,0,0
476,-223,0,0,0,0,0,0,0,0,0,-1,1700,1247,0,0
483,-223,0,0,0,0,0,0,0,0,0,-1,1707,1247,0,0
490,-223,0,0,0,0,0,0,0,0,0,-1,1714,1247,0,0
497,-223,0,0,0,0,0,0,0,0,0,-1,1721,1247,0,0
504,-223,0,0,0,0,0,0,0,0,0,-1,1728,1247,0,0
511,-223,0,0,0,0,0,0,0,0,0,-1,1735,1247,0,0
518,-223,0,0,0,0,0,0,0,0,0,-1,1742,1247,0,0
525,-223,0,0,0,0,0,0,0,0,0,-1,1749,1247,0,0
532,-223,0,0,0,0,0,0,0,0,0,-1,1756,1247,0,0
539,-223,0,0,0,0,0,0,0,0,0,-1,1763,1247,0,0
546,-223,0,0,0,0,0,0,0,0,0,-1,1770,1247,0,0
553,-223,0,0,0,0,0,0,0,0,0,-1,1777,1247,0,0
560,-223,0,0,0,0,0,0,0,0,0,-1,1784,1247,0,0
567,-223,0,0,0,0,0,0,0,0,0,-1,1791,1247,0,0
574,-223,0,0,0,0,0,0,0,0,0,-1,1798,1247,0,0
581,-223,0,0,0,0,0,0,0,0,0,-1,1805,1247,0,0
588,-223,0,0,0,0,0,0,0,0,0,-1,1812,1247,0,0
595,-223,0,0,0,0,0,0,0,0,0,-1,1819,1247,0,0
602,-223,0,0,0,0,0,0,0,0,0,-1,1826,1247,0,0
609,-223,0,0,0,0,0,0,0,0,0,-1,1833,1247,0,0
616,-223,0,0,0,0,0,0,0,0,0,-1,1840,1247,0,0
623,-223,56.2061,2.69421,-0.00051465,0.00292702,-0.00264348,0.00436043,-0.00194806,-1.07393,0.00372992,0.0382848,1847,1247,56.2061,-2.69426
630,-223,56.1265,2.72217,-0.000796631,0.00434905,-0.00229769,0.00522569,-0.00167327,-1.20631,0.0041554,0.0358062,1854,1247,56.1264,-2.72211
637,-223,56.1644,2.51367,-0.000614639,0.00569988,-0.00200521,0.00628283,-0.00119759,-1.28788,0.00463956,0.0285983,1861,1247,56.1644,-2.51363
644,-223,56.1649,2.599,6.42765e-05,0.00622684,-0.00196677,0.00680103,-0.000509912,-1.28675,0.00471319,0.022302,1868,1247,56.1649,-2.59901
651,-223,56.183,2.59998,0.000531011,0.00559806,-0.00215722,0.00639205,-0.000262976,-1.21812,0.00435167,0.0294576,1875,1247,56.183,-2.59998
658,-223,56.2366,2.55701,0,0,0,0,0,0,0,-1,1882,1247,56.2366,-2.55703
665,-223,56.2854,2.59888,0,0,0,0,0,0,0,-1,1889,1247,56.2854,-2.59893
672,-223,56.4625,2.72424,0,0,0,0,0,0,0,-1,1896,1247,56.4626,-2.72418
679,-223,43.2783,2.46973,0,0,0,0,0,0,0,-1,1903,1247,43.2784,-2.46978
686,-223,40.7926,10.0316,0,0,0,0,0,0,0,-1,1910,1247,40.7926,-10.0316
693,-223,44.3268,10.3224,0,0,0,0,0,0,0,-1,1917,1247,44.3268,-10.3223
700,-223,43.9408,9.97961,0.00228666,6.03524e-05,-0.00128097,0.00287056,-0.000523548,-0.427689,0.00210999,0.0325898,1924,1247,43.9408,-9.97966
707,-223,43.8158,9.51685,0.00214123,-0.000874959,-0.00134362,0.00265296,-0.00138668,-0.363893,0.00237017,0.0279936,1931,1247,43.8158,-9.51686
714,-223,43.7966,9.06299,0.00159366,-0.00106226,-0.000754909,0.00179323,-0.00126184,-0.258458,0.00177272,0.0127184,1938,1247,43.7966,-9.06297
721,-223,43.7834,8.54578,0.000985523,-0.00110265,9.32038e-05,0.000989675,-0.00110681,0.0445161,0.00121103,0.0148384,1945,1247,43.7835,-8.54573
728,-223,43.7725,8.00537,0.000570429,-0.000958597,0.0010267,0.001086,-0.00147416,0.465371,0.00148376,0.0187496,1952,1247,43.7725,-8.00532
735,-223,43.7456,7.52527,0.000340714,-0.000740472,0.00199202,0.00186419,-0.00226395,0.652899,0.0023871,0.0177253,1959,1247,43.7456,-7.52527
742,-223,43.6919,7.05969,0.000344883,-0.000408575,0.00300225,0.00299395,-0.00305764,0.722983,0.00349395,0.0164321,1966,1247,43.6919,-7.0597
749,-223,43.6721,6.48767,0.000735022,-0.000145012,0.00412071,0.00443914,-0.00384913,0.732209,0.00478928,0.0131869,1973,1247,43.6721,-6.48765
756,-223,43.6261,5.96301,0.00165675,0.000267455,0.00520766,0.00621589,-0.00429168,0.719095,0.00610036,0.0143407,1980,1247,43.6261,-5.96298
763,-223,43.6168,5.53467,0.00349607,0.000449001,0.00662153,0.00876708,-0.00482201,0.672322,0.0079551,0.0213991,1987,1247,43.6169,-5.53463
770,-223,43.7654,5.03491,0.00629335,0.000426652,0.00848273,0.0123356,-0.00561559,0.618933,0.0106034,0.0486186,1994,1247,43.7654,-5.03485
777,-223,43.9095,4.50281,0,0,0,0,0,0,0,-1,2001,1247,43.9095,-4.50285
784,-223,54.1208,-0.293457,0,0,0,0,0,0,0,-1,2008,1247,54.1208,0.293477
791,-223,34.7136,2.92554,0,0,0,0,0,0,0,-1,2015,1247,34.7137,-2.92555
798,-223,0,0,0,0,0,0,0,0,0,-1,2022,1247,0,0
805,-223,0,0,0,0,0,0,0,0,0,-1,2029,1247,0,0
812,-223,0,0,0,0,0,0,0,0,0,-1,2036,1247,0,0
-700,-230,0,0,0,0,0,0,0,0,0,-1,524,1254,0,0
-693,-230,0,0,0,0,0,0,0,0,0,-1,531,1254,0,0
-686,-230,0,0,0,0,0,0,0,0,0,-1,538,1254,0,0
-679,-230,0,0,0,0,0,0,0,0,0,-1,545,1254,0,0
-672,-230,-33.895,3.13806,0,0,0,0,0,0,0,-1,552,1254,-33.895,-3.138
-665,-230,-34.9182,4.62256,0,0,0,0,0,0,0,-1,559,1254,-34.9182,-4.62258
-658,-230,-36.3386,5.94019,0,0,0,0,0,0,0,-1,566,1254,-36.3386,-5.9402
-651,-230,-37.3264,7.49634,0,0,0,0,0,0,0,-1,573,1254,-37.3264,-7.49634
-644,-230,-38.0501,9.0769,0,0,0,0,0,0,0,-1,580,1254,-38.0501,-9.07692
-637,-230,-38.0911,-1.91528,0,0,0,0,0,0,0,-1,587,1254,-38.0911,1.91533
-630,-230,-28.4518,2.71667,0,0,0,0,0,0,0,-1,594,1254,-28.4518,-2.71669
-623,-230,-28.3577,3.43689,-0.00757427,0.00729869,0.00506589,0.00886024,-0.00913582,1.27179,0.0103904,0.0345734,601,1254,-28.3576,-3.43692
-616,-230,-28.3121,4.01135,-0.00497328,0.00542015,0.00320431,0.00632864,-0.00588177,1.29453,0.00705125,0.0172795,608,1254,-28.3121,-4.01141
-609,-230,-28.3229,4.58252,-0.00283928,0.00369607,0.00188841,0.00420249,-0.0033457,1.30879,0.0043673,0.0122987,615,1254,-28.3229,-4.58249
-602,-230,-28.306,5.13354,-0.00106526,0.00208071,0.000891687,0.00231587,-0.00130042,1.31294,0.00211513,0.012117,622,1254,-28.306,-5.13352
-595,-230,-28.3339,5.72778,0.000160398,0.000832074,0.000128525,0.000855827,0.000136645,1.38804,0.000530897,0.0196561,629,1254,-28.3339,-5.72783
-588,-230,-28.3359,6.31946,0.00116767,-0.00023033,-0.000271645,0.0012186,-0.000281258,-0.185328,0.000920588,0.027475,636,1254,-28.3359,-6.31945
-581,-230,-28.3776,6.88965,0.00192378,-0.00083914,-0.000824873,0.00215131,-0.00106667,-0.269143,0.00189275,0.0247373,643,1254,-28.3776,-6.88962
-574,-230,-28.3743,7.39014,0.00218513,-0.0011439,-0.00114179,0.00253911,-0.00149787,-0.300621,0.00235645,0.0266094,650,1254,-28.3743,-7.39018
-567,-230,-28.316,7.90051,0.00214613,-0.00145954,-0.000882994,0.00235076,-0.00166417,-0.227719,0.00232929,0.0413953,657,1254,-28.316,-7.9005
-560,-230,-28.4213,8.34692,0,0,0,0,0,0,0,-1,664,1254,-28.4212,-8.34694
-553,-230,-13.1939,4.9718,0,0,0,0,0,0,0,-1,671,1254,-13.1939,-4.97175
-546,-230,-15.23,0.453979,0,0,0,0,0,0,0,-1,678,1254,-15.23,-0.453996
-539,-230,-25.8232,0.512817,0,0,0,0,0,0,0,-1,685,1254,-25.8232,-0.512878
-532,-230,-21.1644,1.52966,0,0,0,0,0,0,0,-1,692,1254,-21.1644,-1.52969
-525,-230,-29.4775,0.731445,0,0,0,0,0,0,0,-1,699,1254,-29.4775,-0.731432
-518,-230,-41.9017,0.97168,0,0,0,0,0,0,0,-1,706,1254,-41.9017,-0.9717
-511,-230,-41.8605,0.829468,0.000726027,-0.00568504,-0.00544755,0.00384119,-0.00880021,-0.519462,0.00748337,0.0410782,713,1254,-41.8605,-0.829487
-504,-230,-41.8191,0.690308,0.000466401,-0.00599724,-0.0055828,0.00368535,-0.00921618,-0.523022,0.00767346,0.0365312,720,1254,-41.8191,-0.690279
-497,-230,0,0,0,0,0,0,0,0,0,-1,727,1254,0,0
-490,-230,0,0,0,0,0,0,0,0,0,-1,734,1254,0,0
-483,-230,0,0,0,0,0,0,0,0,0,-1,741,1254,0,0
-476,-230,0,0,0,0,0,0,0,0,0,-1,748,1254,0,0
-469,-230,0,0,0,0,0,0,0,0,0,-1,755,1254,0,0
-462,-230,0,0,0,0,0,0,0,0,0,-1,762,1254,0,0
-455,-230,0,0,0,0,0,0,0,0,0,-1,769,1254,0,0
-448,-230,0,0,0,0,0,0,0,0,0,-1,776,1254,0,0
-441,-230,0,0,0,0,0,0,0,0,0,-1,783,1254,0,0
-434,-230,0,0,0,0,0,0,0,0,0,-1,790,1254,0,0
-427,-230,0,0,0,0,0,0,0,0,0,-1,797,1254,0,0
-420,-230,0,0,0,0,0,0,0,0,0,-1,804,1254,0,0
-413,-230,0,0,0,0,0,0,0,0,0,-1,811,1254,0,0
-406,-230,0,0,0,0,0,0,0,0,0,-1,818,1254,0,0
-399,-230,0,0,0,0,0,0,0,0,0,-1,825,1254,0,0
-392,-230,0,0,0,0,0,0,0,0,0,-1,832,1254,0,0
-385,-230,0,0,0,0,0,0,0,0,0,-1,839,1254,0,0
-378,-230,0,0,0,0,0,0,0,0,0,-1,846,1254,0,0
-371,-230,0,0,0,0,0,0,0,0,0,-1,853,1254,0,0
-364,-230,0,0,0,0,0,0,0,0,0,-1,860,1254,0,0
-357,-230,0,0,0,0,0,0,0,0,0,-1,867,1254,0,0
-350,-230,0,0,0,0,0,0,0,0,0,-1,874,1254,0,0
-343,-230,0,0,0,0,0,0,0,0,0,-1,881,1254,0,0
-336,-230,0,0,0,0,0,0,0,0,0,-1,888,1254,0,0
-329,-230,0,0,0,0,0,0,0,0,0,-1,895,1254,0,0
-322,-230,0,0,0,0,0,0,0,0,0,-1,902,1254,0,0
-315,-230,0,0,0,0,0,0,0,0,0,-1,909,1254,0,0
-308,-230,0,0,0,0,0,0,0,0,0,-1,916,1254,0,0
-301,-230,0,0,0,0,0,0,0,0,0,-1,923,1254,0,0
-294,-230,0,0,0,0,0,0,0,0,0,-1,930,1254,0,0
-287,-230,0,0,0,0,0,0,0,0,0,-1,937,1254,0,0
-280,-230,0,0,0,0,0,0,0,0,0,-1,944,1254,0,0
-273,-230,0,0,0,0,0,0,0,0,0,-1,951,1254,0,0
-266,-230,0,0,0,0,0,0,0,0,0,-1,958,1254,0,0
-259,-230,0,0,0,0,0,0,0,0,0,-1,965,1254,0,0
-252,-230,0,0,0,0,0,0,0,0,0,-1,972,1254,0,0
-245,-230,0,0,0,0,0,0,0,0,0,-1,979,1254,0,0
-238,-230,0,0,0,0,0,0,0,0,0,-1,986,1254,0,0
-231,-230,0,0,0,0,0,0,0,0,0,-1,993,1254,0,0
-224,-230,0,0,0,0,0,0,0,0,0,-1,1000,1254,0,0
-217,-230,0,0,0,0,0,0,0,0,0,-1,1007,1254,0,0
-210,-230,0,0,0,0,0,0,0,0,0,-1,1014,1254,0,0
-203,-230,0,0,0,0,0,0,0,0,0,-1,1021,1254,0,0
-196,-230,0,0,0,0,0,0,0,0,0,-1,1028,1254,0,0
-189,-230,0,0,0,0,0,0,0,0,0,-1,1035,1254,0,0
-182,-230,0,0,0,0,0,0,0,0,0,-1,1042,1254,0,0
-175,-230,0,0,0,0,0,0,0,0,0,-1,1049,1254,0,0
-168,-230,0,0,0,0,0,0,0,0,0,-1,1056,1254,0,0
-161,-230,0,0,0,0,0,0,0,0,0,-1,1063,1254,0,0
-154,-230,0,0,0,0,0,0,0,0,0,-1,1070,1254,0,0
-147,-230,0,0,0,0,0,0,0,0,0,-1,1077,1254,0,0
-140,-230,0,0,0,0,0,0,0,0,0,-1,1084,1254,0,0
-133,-230,0,0,0,0,0,0,0,0,0,-1,1091,1254,0,0
-126,-230,0,0,0,0,0,0,0,0,0,-1,1098,1254,0,0
-119,-230,0,0,0,0,0,0,0,0,0,-1,1105,1254,0,0
-112,-230,0,0,0,0,0,0,0,0,0,-1,1112,1254,0,0
-105,-230,0,0,0,0,0,0,0,0,0,-1,1119,1254,0,0
-98,-230,0,0,0,0,0,0,0,0,0,-1,1126,1254,0,0
-91,-230,0,0,0,0,0,0,0,0,0,-1,1133,1254,0,0
-84,-230,0,0,0,0,0,0,0,0,0,-1,1140,1254,0,0
-77,-230,0,0,0,0,0,0,0,0,0,-1,1147,1254,0,0
-70,-230,0,0,0,0,0,0,0,0,0,-1,1154,1254,0,0
-63,-230,0,0,0,0,0,0,0,0,0,-1,1161,1254,0,0
-56,-230,0,0,0,0,0,0,0,0,0,-1,1168,1254,0,0
-49,-230,0,0,0,0,0,0,0,0,0,-1,1175,1254,0,0
-42,-230,0,0,0,0,0,0,0,0,0,-1,1182,1254,0,0
-35,-230,0,0,0,0,0,0,0,0,0,-1,1189,1254,0,0
-28,-230,0,0,0,0,0,0,0,0,0,-1,1196,1254,0,0
-21,-230,0,0,0,0,0,0,0,0,0,-1,1203,1254,0,0
-14,-230,0,0,0,0,0,0,0,0,0,-1,1210,1254,0,0
-7,-230,0,0,0,0,0,0,0,0,0,-1,1217,1254,0,0
0,-230,0,0,0,0,0,0,0,0,0,-1,1224,1254,0,0
7,-230,0,0,0,0,0,0,0,0,0,-1,1231,1254,0,0
14,-230,0,0,0,0,0,0,0,0,0,-1,1238,1254,0,0
21,-230,0,0,0,0,0,0,0,0,0,-1,1245,1254,0,0
28,-230,0,0,0,0,0,0,0,0,0,-1,1252,1254,0,0
35,-230,0,0,0,0,0,0,0,0,0,-1,1259,1254,0,0
42,-230,0,0,0,0,0,0,0,0,0,-1,1266,1254,0,0
49,-230,0,0,0,0,0,0,0,0,0,-1,1273,1254,0,0
56,-230,0,0,0,0,0,0,0,0,0,-1,1280,1254,0,0
63,-230,0,0,0,0,0,0,0,0,0,-1,1287,1254,0,0
70,-230,0,0,0,0,0,0,0,0,0,-1,1294,1254,0,0
77,-230,0,0,0,0,0,0,0,0,0,-1,1301,1254,0,0
84,-230,0,0,0,0,0,0,0,0,0,-1,1308,1254,0,0
91,-230,0,0,0,0,0,0,0,0,0,-1,1315,1254,0,0
98,-230,0,0,0,0,0,0,0,0,0,-1,1322,1254,0,0
105,-230,0,0,0,0,0,0,0,0,0,-1,1329,1254,0,0
112,-230,0,0,0,0,0,0,0,0,0,-1,1336,1254,0,0
119,-230,0,0,0,0,0,0,0,0,0,-1,1343,1254,0,0
126,-230,0,0,0,0,0,0,0,0,0,-1,1350,1254,0,0
133,-230,0,0,0,0,0,0,0,0,0,-1,1357,1254,0,0
140,-230,0,0,0,0,0,0,0,0,0,-1,1364,1254,0,0
147,-230,0,0,0,0,0,0,0,0,0,-1,1371,1254,0,0
154,-230,0,0,0,0,0,0,0,0,0,-1,1378,1254,0,0
161,-230,0,0,0,0,0,0,0,0,0,-1,1385,1254,0,0
168,-230,0,0,0,0,0,0,0,0,0,-1,1392,1254,0,0
175,-230,0,0,0,0,0,0,0,0,0,-1,1399,1254,0,0
182,-230,0,0,0,0,0,0,0,0,0,-1,1406,1254,0,0
189,-230,0,0,0,0,0,0,0,0,0,-1,1413,1254,0,0
196,-230,0,0,0,0,0,0,0,0,0,-1,1420,1254,0,0
203,-230,0,0,0,0,0,0,0,0,0,-1,1427,1254,0,0
210,-230,0,0,0,0,0,0,0,0,0,-1,1434,1254,0,0
217,-230,0,0,0,0,0,0,0,0,0,-1,1441,1254,0,0
224,-230,0,0,0,0,0,0,0,0,0,-1,1448,1254,0,0
231,-230,0,0,0,0,0,0,0,0,0,-1,1455,1254,0,0
238,-230,0,0,0,0,0,0,0,0,0,-1,1462,1254,0,0
245,-230,0,0,0,0,0,0,0,0,0,-1,1469,1254,0,0
252,-230,0,0,0,0,0,0,0,0,0,-1,1476,1254,0,0
259,-230,0,0,0,0,0,0,0,0,0,-1,1483,1254,0,0
266,-230,0,0,0,0,0,0,0,0,0,-1,1490,1254,0,0
273,-230,0,0,0,0,0,0,0,0,0,-1,1497,1254,0,0
280,-230,0,0,0,0,0,0,0,0,0,-1,1504,1254,0,0
287,-230,0,0,0,0,0,0,0,0,0,-1,1511,1254,0,0
294,-230,0,0,0,0,0,0,0,0,0,-1,1518,1254,0,0
301,-230,0,0,0,0,0,0,0,0,0,-1,1525,1254,0,0
308,-230,0,0,0,0,0,0,0,0,0,-1,1532,1254,0,0
315,-230,0,0,0,0,0,0,0,0,0,-1,1539,1254,0,0
322,-230,0,0,0,0,0,0,0,0,0,-1,1546,1254,0,0
329,-230,0,0,0,0,0,0,0,0,0,-1,1553,1254,0,0
336,-230,0,0,0,0,0,0,0,0,0,-1,1560,1254,0,0
343,-230,0,0,0,0,0,0,0,0,0,-1,1567,1254,0,0
350,-230,0,0,0,0,0,0,0,0,0,-1,1574,1254,0,0
357,-230,0,0,0,0,0,0,0,0,0,-1,1581,1254,0,0
364,-230,0,0,0,0,0,0,0,0,0,-1,1588,1254,0,0
371,-230,0,0,0,0,0,0,0,0,0,-1,1595,1254,0,0
378,-230,0,0,0,0,0,0,0,0,0,-1,1602,1254,0,0
385,-230,0,0,0,0,0,0,0,0,0,-1,1609,1254,0,0
392,-230,0,0,0,0,0,0,0,0,0,-1,1616,1254,0,0
399,-230,0,0,0,0,0,0,0,0,0,-1,1623,1254,0,0
406,-230,0,0,0,0,0,0,0,0,0,-1,1630,1254,0,0
413,-230,0,0,0,0,0,0,0,0,0,-1,1637,1254,0,0
420,-230,0,0,0,0,0,0,0,0,0,-1,1644,1254,0,0
427,-230,0,0,0,0,0,0,0,0,0,-1,1651,1254,0,0
434,-230,0,0,0,0,0,0,0,0,0,-1,1658,1254,0,0
441,-230,0,0,0,0,0,0,0,0,0,-1,1665,1254,0,0
448,-230,0,0,0,0,0,0,0,0,0,-1,1672,1254,0,0
455,-230,0,0,0,0,0,0,0,0,0,-1,1679,1254,0,0
462,-230,0,0,0,0,0,0,0,0,0,-1,1686,1254,0,0
469,-230,0,0,0,0,0,0,0,0,0,-1,1693,1254,0,0
476,-230,0,0,0,0,0,0,0,0,0,-1,1700,1254,0,0
483,-230,0,0,0,0,0,0,0,0,0,-1,1707,1254,0,0
490,-230,0,0,0,0,0,0,0,0,0,-1,1714,1254,0,0
497,-230,0,0,0,0,0,0,0,0,0,-1,1721,1254,0,0
504,-230,0,0,0,0,0,0,0,0,0,-1,1728,1254,0,0
511,-230,0,0,0,0,0,0,0,0,0,-1,1735,1254,0,0
518,-230,0,0,0,0,0,0,0,0,0,-1,1742,1254,0,0
525,-230,0,0,0,0,0,0,0,0,0,-1,1749,1254,0,0
532,-230,0,0,0,0,0,0,0,0,0,-1,1756,1254,0,0
539,-230,0,0,0,0,0,0,0,0,0,-1,1763,1254,0,0
546,-230,0,0,0,0,0,0,0,0,0,-1,1770,1254,0,0
553,-230,0,0,0,0,0,0,0,0,0,-1,1777,1254,0,0
560,-230,0,0,0,0,0,0,0,0,0,-1,1784,1254,0,0
567,-230,0,0,0,0,0,0,0,0,0,-1,1791,1254,0,0
574,-230,0,0,0,0,0,0,0,0,0,-1,1798,1254,0,0
581,-230,0,0,0,0,0,0,0,0,0,-1,1805,1254,0,0
588,-230,0,0,0,0,0,0,0,0,0,-1,1812,1254,0,0
595,-230,0,0,0,0,0,0,0,0,0,-1,1819,1254,0,0
602,-230,0,0,0,0,0,0,0,0,0,-1,1826,1254,0,0
609,-230,0,0,0,0,0,0,0,0,0,-1,1833,1254,0,0
616,-230,56.2128,2.7019,0.000277384,0.00190172,-0.00249076,0.00370938,-0.00153028,-0.942999,0.0031111,0.0366032,1840,1254,56.2128,-2.70187
623,-230,56.2246,2.73193,-0.000815318,0.00423959,-0.00230117,0.00513023,-0.00170596,-1.20151,0.00410861,0.0351068,1847,1254,56.2246,-2.73199
630,-230,56.161,2.6886,-0.0013026,0.00629601,-0.00213785,0.0068562,-0.00186278,-1.31453,0.00530195,0.0318811,1854,1254,56.161,-2.68856
637,-230,56.1482,2.63257,-0.00120014,0.00786418,-0.00195701,0.00826865,-0.00160462,-1.36699,0.00611786,0.0268606,1861,1254,56.1482,-2.63251
644,-230,56.1324,2.57043,-0.000465086,0.00792241,-0.00200056,0.00837515,-0.000917817,-1.34824,0.00591316,0.0212552,1868,1254,56.1325,-2.57043
651,-230,56.1069,2.52698,-1.07121e-05,0.00681559,-0.00210883,0.00741452,-0.000609641,-1.29407,0.00515825,0.0453178,1875,1254,56.107,-2.52697
658,-230,56.0759,2.49463,0,0,0,0,0,0,0,-1,1882,1254,56.076,-2.49459
665,-230,56.2585,2.51587,0,0,0,0,0,0,0,-1,1889,1254,56.2586,-2.51586
672,-230,43.0962,2.78699,0,0,0,0,0,0,0,-1,1896,1254,43.0962,-2.78698
679,-230,27.9967,2.37708,0,0,0,0,0,0,0,-1,1903,1254,27.9967,-2.3771
686,-230,40.8854,10.1788,0,0,0,0,0,0,0,-1,1910,1254,40.8853,-10.1788
693,-230,43.5488,10.6489,0,0,0,0,0,0,0,-1,1917,1254,43.5488,-10.6489
700,-230,43.3787,10.1167,0.00209209,0.000251517,-0.00114691,0.00264228,-0.000298681,-0.447295,0.00186906,0.0325338,1924,1254,43.3786,-10.1167
707,-230,43.3,9.60095,0.00184981,-0.000824359,-0.00118744,0.00230097,-0.00127552,-0.363097,0.00209299,0.0155995,1931,1254,43.3,-9.60093
714,-230,43.2582,9.09705,0.00116003,-0.00103501,-0.000471208,0.0012569,-0.00113188,-0.202771,0.0013798,0.0138346,1938,1254,43.2581,-9.09703
721,-230,43.2264,8.57129,0.000463154,-0.00107845,0.000478619,0.000599663,-0.00121495,0.277836,0.00106756,0.013639,1945,1254,43.2264,-8.57128
728,-230,43.189,8.05432,-3.79708e-05,-0.000986838,0.00149347,0.00105462,-0.00207943,0.631604,0.0018414,0.0150296,1952,1254,43.189,-8.0543
735,-230,43.1891,7.5553,-0.000357716,-0.000850997,0.0025301,0.00193774,-0.00314645,0.736811,0.00296288,0.0152316,1959,1254,43.1891,-7.55532
742,-230,43.1599,7.02734,-0.000450855,-0.000650235,0.00360178,0.00305261,-0.00415371,0.771563,0.00417673,0.011967,1966,1254,43.1599,-7.02729
749,-230,43.1437,6.48206,-0.00018217,-0.000390082,0.00469461,0.00440963,-0.00498189,0.774328,0.00542555,0.0116456,1973,1254,43.1436,-6.48205
756,-230,43.1093,5.98535,0.00060543,2.83318e-05,0.00577628,0.00610036,-0.0054666,0.760442,0.00668153,0.0161629,1980,1254,43.1093,-5.98531
763,-230,43.1605,5.40247,0.00233805,0.000337159,0.00711329,0.0085209,-0.00584569,0.715534,0.00834235,0.0366626,1987,1254,43.1605,-5.4025
770,-230,43.5349,4.76501,0,0,0,0,0,0,0,-1,1994,1254,43.5349,-4.76502
777,-230,41.8693,3.74707,0,0,0,0,0,0,0,-1,2001,1254,41.8692,-3.74713
784,-230,35.8896,1.80334,0,0,0,0,0,0,0,-1,2008,1254,35.8897,-1.80338
791,-230,35.6028,2.20642,0,0,0,0,0,0,0,-1,2015,1254,35.6027,-2.2064
798,-230,0,0,0,0,0,0,0,0,0,-1,2022,1254,0,0
805,-230,0,0,0,0,0,0,0,0,0,-1,2029,1254,0,0
812,-230,0,0,0,0,0,0,0,0,0,-1,2036,1254,0,0
-700,-237,0,0,0,0,0,0,0,0,0,-1,524,1261,0,0
-693,-237,0,0,0,0,0,0,0,0,0,-1,531,1261,0,0
-686,-237,0,0,0,0,0,0,0,0,0,-1,538,1261,0,0
-679,-237,0,0,0,0,0,0,0,0,0,-1,545,1261,0,0
-672,-237,-34.37,3.95947,0,0,0,0,0,0,0,-1,552,1261,-34.37,-3.95951
-665,-237,-35.3574,5.78271,0,0,0,0,0,0,0,-1,559,1261,-35.3574,-5.78277
-658,-237,-36.8185,7.11401,0,0,0,0,0,0,0,-1,566,1261,-36.8185,-7.11399
-651,-237,-38.1342,8.50635,0,0,0,0,0,0,0,-1,573,1261,-38.1341,-8.5063
-644,-237,-39.1362,10.0416,0,0,0,0,0,0,0,-1,580,1261,-39.1362,-10.0416
-637,-237,-38.7684,-2.22546,0,0,0,0,0,0,0,-1,587,1261,-38.7684,2.22548
-630,-237,-27.3859,2.35999,0,0,0,0,0,0,0,-1,594,1261,-27.3859,-2.35999
-623,-237,-27.5571,3.23035,-0.00925254,0.0101024,0.00565828,0.0116352,-0.0107853,1.30625,0.0129476,0.0334343,601,1261,-27.5571,-3.23031
-616,-237,-27.6872,4.00757,-0.00607186,0.00738658,0.00379475,0.0083828,-0.00706809,1.31406,0.00893134,0.0152492,608,1261,-27.6872,-4.00759
-609,-237,-27.7535,4.58337,-0.00359848,0.00513194,0.00245477,0.00577482,-0.00424135,1.31466,0.00580539,0.0166594,615,1261,-27.7535,-4.58343
-602,-237,-27.751,5.15222,-0.00161449,0.00314112,0.00142013,0.00353292,-0.00200629,1.3016,0.0032383,0.0127362,622,1261,-27.751,-5.15219
-595,-237,-27.7797,5.7356,-0.000134976,0.00156268,0.000586288,0.00174547,-0.00031777,1.26857,0.00128276,0.0163254,629,1261,-27.7797,-5.7356
-588,-237,-27.7943,6.31335,0.00108529,0.000244943,8.16729e-05,0.00109315,0.000237079,0.0959928,0.000664002,0.027483,636,1261,-27.7943,-6.3133
-581,-237,-27.8342,6.88281,0.00200934,-0.000593564,-0.000458583,0.00208777,-0.000671995,-0.169389,0.00166177,0.0241999,643,1261,-27.8342,-6.88283
-574,-237,-27.8072,7.45557,0.0023639,-0.00106337,-0.000824067,0.00255175,-0.00125122,-0.224121,0.00223803,0.0191745,650,1261,-27.8072,-7.45562
-567,-237,-27.8206,8.03198,0.00231016,-0.00141076,-0.000687888,0.00243326,-0.00153385,-0.177076,0.00230995,0.0324684,657,1261,-27.8206,-8.03198
-560,-237,-27.6373,8.29126,0,0,0,0,0,0,0,-1,664,1261,-27.6373,-8.29121
-553,-237,-20.6102,6.92139,0,0,0,0,0,0,0,-1,671,1261,-20.6102,-6.92138
-546,-237,-11.192,1.14014,0,0,0,0,0,0,0,-1,678,1261,-11.192,-1.14011
-539,-237,-16.512,1.53455,0,0,0,0,0,0,0,-1,685,1261,-16.512,-1.53457
-532,-237,-29.7025,1.23621,0,0,0,0,0,0,0,-1,692,1261,-29.7025,-1.23618
-525,-237,-37.9338,0.75708,0,0,0,0,0,0,0,-1,699,1261,-37.9339,-0.757056
-518,-237,-41.7127,1.03711,0,0,0,0,0,0,0,-1,706,1261,-41.7127,-1.03705
-511,-237,-41.7964,0.924438,0.000431999,-0.00688165,-0.0058904,0.00370837,-0.010158,-0.507608,0.00828941,0.0487562,713,1261,-41.7964,-0.924486
-504,-237,-41.9036,0.811157,-8.55151e-05,-0.00834846,-0.00706152,0.00396435,-0.0123983,-0.520714,0.00985643,0.0418108,720,1261,-41.9035,-0.811208
-497,-237,-41.9368,0.744385,-0.000123725,-0.00897109,-0.00716771,0.00387548,-0.0129703,-0.508925,0.0101874,0.04211,727,1261,-41.9368,-0.744394
-490,-237,0,0,0,0,0,0,0,0,0,-1,734,1261,0,0
-483,-237,0,0,0,0,0,0,0,0,0,-1,741,1261,0,0
-476,-237,0,0,0,0,0,0,0,0,0,-1,748,1261,0,0
-469,-237,0,0,0,0,0,0,0,0,0,-1,755,1261,0,0
-462,-237,0,0,0,0,0,0,0,0,0,-1,762,1261,0,0
-455,-237,0,0,0,0,0,0,0,0,0,-1,769,1261,0,0
-448,-237,0,0,0,0,0,0,0,0,0,-1,776,1261,0,0
-441,-237,0,0,0,0,0,0,0,0,0,-1,783,1261,0,0
-434,-237,0,0,0,0,0,0,0,0,0,-1,790,1261,0,0
-427,-237,0,0,0,0,0,0,0,0,0,-1,797,1261,0,0
-420,-237,0,0,0,0,0,0,0,0,0,-1,804,1261,0,0
-413,-237,0,0,0,0,0,0,0,0,0,-1,811,1261,0,0
-406,-237,0,0,0,0,0,0,0,0,0,-1,818,1261,0,0
-399,-237,0,0,0,0,0,0,0,0,0,-1,825,1261,0,0
-392,-237,0,0,0,0,0,0,0,0,0,-1,832,1261,0,0
-385,-237,0,0,0,0,0,0,0,0,0,-1,839,1261,0,0
-378,-237,0,0,0,0,0,0,0,0,0,-1,846,1261,0,0
-371,-237,0,0,0,0,0,0,0,0,0,-1,853,1261,0,0
-364,-237,0,0,0,0,0,0,0,0,0,-1,860,1261,0,0
-357,-237,0,0,0,0,0,0,0,0,0,-1,867,1261,0,0
-350,-237,0,0,0,0,0,0,0,0,0,-1,874,1261,0,0
-343,-237,0,0,0,0,0,0,0,0,0,-1,881,1261,0,0
-336,-237,0,0,0,0,0,0,0,0,0,-1,888,1261,0,0
-329,-237,0,0,0,0,0,0,0,0,0,-1,895,1261,0,0
-322,-237,0,0,0,0,0,0,0,0,0,-1,902,1261,0,0
-315,-237,0,0,0,0,0,0,0,0,0,-1,909,1261,0,0
-308,-237,0,0,0,0,0,0,0,0,0,-1,916,1261,0,0
-301,-237,0,0,0,0,0,0,0,0,0,-1,923,1261,0,0
-294,-237,0,0,0,0,0,0,0,0,0,-1,930,1261,0,0
-287,-237,0,0,0,0,0,0,0,0,0,-1,937,1261,0,0
-280,-237,0,0,0,0,0,0,0,0,0,-1,944,1261,0,0
-273,-237,0,0,0,0,0,0,0,0,0,-1,951,1261,0,0
-266,-237,0,0,0,0,0,0,0,0,0,-1,958,1261,0,0
-259,-237,0,0,0,0,0,0,0,0,0,-1,965,1261,0,0
-252,-237,0,0,0,0,0,0,0,0,0,-1,972,1261,0,0
-245,-237,0,0,0,0,0,0,0,0,0,-1,979,1261,0,0
-238,-237,0,0,0,0,0,0,0,0,0,-1,986,1261,0,0
-231,-237,0,0,0,0,0,0,0,0,0,-1,993,1261,0,0
-224,-237,0,0,0,0,0,0,0,0,0,-1,1000,1261,0,0
-217,-237,0,0,0,0,0,0,0,0,0,-1,1007,1261,0,0
-210,-237,0,0,0,0,0,0,0,0,0,-1,1014,1261,0,0
-203,-237,0,0,0,0,0,0,0,0,0,-1,1021,1261,0,0
-196,-237,0,0,0,0,0,0,0,0,0,-1,1028,1261,0,0
-189,-237,0,0,0,0,0,0,0,0,0,-1,1035,1261,0,0
-182,-237,0,0,0,0,0,0,0,0,0,-1,1042,1261,0,0
-175,-237,0,0,0,0,0,0,0,0,0,-1,1049,1261,0,0
-168,-237,0,0,0,0,0,0,0,0,0,-1,1056,1261,0,0
-161,-237,0,0,0,0,0,0,0,0,0,-1,1063,1261,0,0
-154,-237,0,0,0,0,0,0,0,0,0,-1,1070,1261,0,0
-147,-237,0,0,0,0,0,0,0,0,0,-1,1077,1261,0,0
-140,-237,0,0,0,0,0,0,0,0,0,-1,1084,1261,0,0
-133,-237,0,0,0,0,0,0,0,0,0,-1,1091,1261,0,0
-126,-237,0,0,0,0,0,0,0,0,0,-1,1098,1261,0,0
-119,-237,0,0,0,0,0,0,0,0,0,-1,1105,1261,0,0
-112,-237,0,0,0,0,0,0,0,0,0,-1,1112,1261,0,0
-105,-237,0,0,0,0,0,0,0,0,0,-1,1119,1261,0,0
-98,-237,0,0,0,0,0,0,0,0,0,-1,1126,1261,0,0
-91,-237,0,0,0,0,0,0,0,0,0,-1,1133,1261,0,0
-84,-237,0,0,0,0,0,0,0,0,0,-1,1140,1261,0,0
-77,-237,0,0,0,0,0,0,0,0,0,-1,1147,1261,0,0
-70,-237,0,0,0,0,0,0,0,0,0,-1,1154,1261,0,0
-63,-237,0,0,0,0,0,0,0,0,0,-1,1161,1261,0,0
-56,-237,0,0,0,0,0,0,0,0,0,-1,1168,1261,0,0
-49,-237,0,0,0,0,0,0,0,0,0,-1,1175,1261,0,0
-42,-237,0,0,0,0,0,0,0,0,0,-1,1182,1261,0,0
-35,-237,0,0,0,0,0,0,0,0,0,-1,1189,1261,0,0
-28,-237,0,0,0,0,0,0,0,0,0,-1,1196,1261,0,0
-21,-237,0,0,0,0,0,0,0,0,0,-1,1203,1261,0,0
-14,-237,0,0,0,0,0,0,0,0,0,-1,1210,1261,0,0
-7,-237,0,0,0,0,0,0,0,0,0,-1,1217,1261,0,0
0,-237,0,0,0,0,0,0,0,0,0,-1,1224,1261,0,0
7,-237,0,0,0,0,0,0,0,0,0,-1,1231,1261,0,0
14,-237,0,0,0,0,0,0,0,0,0,-1,1238,1261,0,0
21,-237,0,0,0,0,0,0,0,0,0,-1,1245,1261,0,0
28,-237,0,0,0,0,0,0,0,0,0,-1,1252,1261,0,0
35,-237,0,0,0,0,0,0,0,0,0,-1,1259,1261,0,0
42,-237,0,0,0,0,0,0,0,0,0,-1,1266,1261,0,0
49,-237,0,0,0,0,0,0,0,0,0,-1,1273,1261,0,0
56,-237,0,0,0,0,0,0,0,0,0,-1,1280,1261,0,0
63,-237,0,0,0,0,0,0,0,0,0,-1,1287,1261,0,0
70,-237,0,0,0,0,0,0,0,0,0,-1,1294,1261,0,0
77,-237,0,0,0,0,0,0,0,0,0,-1,1301,1261,0,0
84,-237,0,0,0,0,0,0,0,0,0,-1,1308,1261,0,0
91,-237,0,0,0,0,0,0,0,0,0,-1,1315,1261,0,0
98,-237,0,0,0,0,0,0,0,0,0,-1,1322,1261,0,0
105,-237,0,0,0,0,0,0,0,0,0,-1,1329,1261,0,0
112,-237,0,0,0,0,0,0,0,0,0,-1,1336,1261,0,0
119,-237,0,0,0,0,0,0,0,0,0,-1,1343,1261,0,0
126,-237,0,0,0,0,0,0,0,0,0,-1,1350,1261,0,0
133,-237,0,0,0,0,0,0,0,0,0,-1,1357,1261,0,0
140,-237,0,0,0,0,0,0,0,0,0,-1,1364,1261,0,0
147,-237,0,0,0,0,0,0,0,0,0,-1,1371,1261,0,0
154,-237,0,0,0,0,0,0,0,0,0,-1,1378,1261,0,0
161,-237,0,0,0,0,0,0,0,0,0,-1,1385,1261,0,0
168,-237,0,0,0,0,0,0,0,0,0,-1,1392,1261,0,0
175,-237,0,0,0,0,0,0,0,0,0,-1,1399,1261,0,0
182,-237,0,0,0,0,0,0,0,0,0,-1,1406,1261,0,0
189,-237,0,0,0,0,0,0,0,0,0,-1,1413,1261,0,0
196,-237,0,0,0,0,0,0,0,0,0,-1,1420,1261,0,0
203,-237,0,0,0,0,0,0,0,0,0,-1,1427,1261,0,0
210,-237,0,0,0,0,0,0,0,0,0,-1,1434,1261,0,0
217,-237,0,0,0,0,0,0,0,0,0,-1,1441,1261,0,0
224,-237,0,0,0,0,0,0,0,0,0,-1,1448,1261,0,0
231,-237,0,0,0,0,0,0,0,0,0,-1,1455,1261,0,0
238,-237,0,0,0,0,0,0,0,0,0,-1,1462,1261,0,0
245,-237,0,0,0,0,0,0,0,0,0,-1,1469,1261,0,0
252,-237,0,0,0,0,0,0,0,0,0,-1,1476,1261,0,0
259,-237,0,0,0,0,0,0,0,0,0,-1,1483,1261,0,0
266,-237,0,0,0,0,0,0,0,0,0,-1,1490,1261,0,0
273,-237,0,0,0,0,0,0,0,0,0,-1,1497,1261,0,0
280,-237,0,0,0,0,0,0,0,0,0,-1,1504,1261,0,0
287,-237,0,0,0,0,0,0,0,0,0,-1,1511,1261,0,0
294,-237,0,0,0,0,0,0,0,0,0,-1,1518,1261,0,0
301,-237,0,0,0,0,0,0,0,0,0,-1,1525,1261,0,0
308,-237,0,0,0,0,0,0,0,0,0,-1,1532,1261,0,0
315,-237,0,0,0,0,0,0,0,0,0,-1,1539,1261,0,0
322,-237,0,0,0,0,0,0,0,0,0,-1,1546,1261,0,0
329,-237,0,0,0,0,0,0,0,0,0,-1,1553,1261,0,0
336,-237,0,0,0,0,0,0,0,0,0,-1,1560,1261,0,0
343,-237,0,0,0,0,0,0,0,0,0,-1,1567,1261,0,0
350,-237,0,0,0,0,0,0,0,0,0,-1,1574,1261,0,0
357,-237,0,0,0,0,0,0,0,0,0,-1,1581,1261,0,0
364,-237,0,0,0,0,0,0,0,0,0,-1,1588,1261,0,0
371,-237,0,0,0,0,0,0,0,0,0,-1,1595,1261,0,0
378,-237,0,0,0,0,0,0,0,0,0,-1,1602,1261,0,0
385,-237,0,0,0,0,0,0,0,0,0,-1,1609,1261,0,0
392,-237,0,0,0,0,0,0,0,0,0,-1,1616,1261,0,0
399,-237,0,0,0,0,0,0,0,0,0,-1,1623,1261,0,0
406,-237,0,0,0,0,0,0,0,0,0,-1,1630,1261,0,0
413,-237,0,0,0,0,0,0,0,0,0,-1,1637,1261,0,0
420,-237,0,0,0,0,0,0,0,0,0,-1,1644,1261,0,0
427,-237,0,0,0,0,0,0,0,0,0,-1,1651,1261,0,0
434,-237,0,0,0,0,0,0,0,0,0,-1,1658,1261,0,0
441,-237,0,0,0,0,0,0,0,0,0,-1,1665,1261,0,0
448,-237,0,0,0,0,0,0,0,0,0,-1,1672,1261,0,0
455,-237,0,0,0,0,0,0,0,0,0,-1,1679,1261,0,0
462,-237,0,0,0,0,0,0,0,0,0,-1,1686,1261,0,0
469,-237,0,0,0,0,0,0,0,0,0,-1,1693,1261,0,0
476,-237,0,0,0,0,0,0,0,0,0,-1,1700,1261,0,0
483,-237,0,0,0,0,0,0,0,0,0,-1,1707,1261,0,0
490,-237,0,0,0,0,0,0,0,0,0,-1,1714,1261,0,0
497,-237,0,0,0,0,0,0,0,0,0,-1,1721,1261,0,0
504,-237,0,0,0,0,0,0,0,0,0,-1,1728,1261,0,0
511,-237,0,0,0,0,0,0,0,0,0,-1,1735,1261,0,0
518,-237,0,0,0,0,0,0,0,0,0,-1,1742,1261,0,0
525,-237,0,0,0,0,0,0,0,0,0,-1,1749,1261,0,0
532,-237,0,0,0,0,0,0,0,0,0,-1,1756,1261,0,0
539,-237,0,0,0,0,0,0,0,0,0,-1,1763,1261,0,0
546,-237,0,0,0,0,0,0,0,0,0,-1,1770,1261,0,0
553,-237,0,0,0,0,0,0,0,0,0,-1,1777,1261,0,0
560,-237,0,0,0,0,0,0,0,0,0,-1,1784,1261,0,0
567,-237,0,0,0,0,0,0,0,0,0,-1,1791,1261,0,0
574,-237,0,0,0,0,0,0,0,0,0,-1,1798,1261,0,0
581,-237,0,0,0,0,0,0,0,0,0,-1,1805,1261,0,0
588,-237,0,0,0,0,0,0,0,0,0,-1,1812,1261,0,0
595,-237,0,0,0,0,0,0,0,0,0,-1,1819,1261,0,0
602,-237,0,0,0,0,0,0,0,0,0,-1,1826,1261,0,0
609,-237,0,0,0,0,0,0,0,0,0,-1,1833,1261,0,0
616,-237,56.246,2.54431,-0.000259155,0.00277491,-0.00194745,0.00372647,-0.00121072,-1.1163,0.00297128,0.0380508,1840,1261,56.246,-2.54426
623,-237,56.3132,2.63086,-0.00148922,0.00584111,-0.00206333,0.00638198,-0.0020301,-1.31443,0.00506873,0.032158,1847,1261,56.3132,-2.6308
630,-237,56.1873,2.67932,-0.00216395,0.00866771,-0.00210651,0.00906296,-0.0025592,-1.38532,0.00705158,0.0260172,1854,1261,56.1872,-2.67936
637,-237,56.0996,2.59851,-0.00198592,0.0100829,-0.00202968,0.0104151,-0.00231812,-1.40856,0.00783129,0.0211335,1861,1261,56.0996,-2.59853
644,-237,55.9438,2.39014,-0.00111301,0.00934609,-0.00209423,0.00974984,-0.00151675,-1.38034,0.00705999,0.0407509,1868,1261,55.9438,-2.39008
651,-237,56.0331,2.31787,-0.000631275,0.0077958,-0.00207853,0.00828058,-0.00111605,-1.34166,0.00592753,0.0489804,1875,1261,56.0331,-2.31782
658,-237,55.8817,2.5824,0,0,0,0,0,0,0,-1,1882,1261,55.8818,-2.58236
665,-237,55.6746,2.93689,0,0,0,0,0,0,0,-1,1889,1261,55.6745,-2.93694
672,-237,45.3922,1.95618,0,0,0,0,0,0,0,-1,1896,1261,45.3922,-1.95623
679,-237,23.1501,7.37488,0,0,0,0,0,0,0,-1,1903,1261,23.1502,-7.37493
686,-237,36.8348,9.99426,0,0,0,0,0,0,0,-1,1910,1261,36.8349,-9.99424
693,-237,42.7645,10.6998,0,0,0,0,0,0,0,-1,1917,1261,42.7646,-10.6998
700,-237,42.7588,10.1677,0.00194091,0.000365972,-0.00102736,0.00244788,-0.000140999,-0.458411,0.00168089,0.0160297,1924,1261,42.7588,-10.1678
707,-237,42.7316,9.62903,0.00157801,-0.00078183,-0.0010116,0.00195229,-0.00115611,-0.354372,0.00181416,0.010675,1931,1261,42.7316,-9.62906
714,-237,42.7222,9.10522,0.000756842,-0.000949047,-0.000173745,0.000774359,-0.000966564,-0.100475,0.00100716,0.0156685,1938,1261,42.7221,-9.10523
721,-237,42.637,8.60498,2.23986e-06,-0.000984496,0.000844077,0.000486562,-0.00146882,0.520924,0.00117546,0.0179551,1945,1261,42.6369,-8.60494
728,-237,42.6561,8.06628,-0.000566774,-0.000954288,0.00190712,0.00115641,-0.00267747,0.734774,0.00227082,0.015488,1952,1261,42.6561,-8.06625
735,-237,42.678,7.55139,-0.000978999,-0.000910461,0.00299149,0.00204696,-0.00393642,0.791126,0.00351145,0.0180923,1959,1261,42.678,-7.55133
742,-237,42.6331,7.03406,-0.00118535,-0.000844908,0.00411406,0.00310245,-0.00513272,0.806074,0.0048025,0.0140248,1966,1261,42.6331,-7.03402
749,-237,42.5829,6.53027,-0.00104827,-0.000720199,0.00526167,0.00437999,-0.00614846,0.800981,0.00610712,0.010085,1973,1261,42.5829,-6.5303
756,-237,42.5583,6.02014,-0.000445303,-0.00047493,0.00644012,0.00598002,-0.00690026,0.784248,0.00744276,0.0180277,1980,1261,42.5583,-6.02018
763,-237,42.5787,5.48962,0,0,0,0,0,0,0,-1,1987,1261,42.5788,-5.48958
770,-237,41.8795,4.86743,0,0,0,0,0,0,0,-1,1994,1261,41.8795,-4.86748
777,-237,42.0684,3.92004,0,0,0,0,0,0,0,-1,2001,1261,42.0684,-3.92
784,-237,36.3441,1.68591,0,0,0,0,0,0,0,-1,2008,1261,36.3441,-1.68592
791,-237,32.3025,6.03235,0,0,0,0,0,0,0,-1,2015,1261,32.3025,-6.03229
798,-237,0,0,0,0,0,0,0,0,0,-1,2022,1261,0,0
805,-237,0,0,0,0,0,0,0,0,0,-1,2029,1261,0,0
812,-237,0,0,0,0,0,0,0,0,0,-1,2036,1261,0,0
-700,-244,0,0,0,0,0,0,0,0,0,-1,524,1268,0,0
-693,-244,0,0,0,0,0,0,0,0,0,-1,531,1268,0,0
-686,-244,0,0,0,0,0,0,0,0,0,-1,538,1268,0,0
-679,-244,0,0,0,0,0,0,0,0,0,-1,545,1268,0,0
-672,-244,-37.6608,-8.39966,0,0,0,0,0,0,0,-1,552,1268,-37.6608,8.3996
-665,-244,-37.3451,-7.36536,0,0,0,0,0,0,0,-1,559,1268,-37.3451,7.36536
-658,-244,-37.2944,8.26355,0,0,0,0,0,0,0,-1,566,1268,-37.2944,-8.26352
-651,-244,-38.7541,9.51599,0,0,0,0,0,0,0,-1,573,1268,-38.7541,-9.51598
-644,-244,-39.7151,11.0574,0,0,0,0,0,0,0,-1,580,1268,-39.7152,-11.0574
-637,-244,-26.099,2.27759,0,0,0,0,0,0,0,-1,587,1268,-26.099,-2.27756
-630,-244,-26.5214,2.52698,-0.0162357,0.0180477,0.00779086,0.0197351,-0.0179231,1.3575,0.0217504,0.0452816,594,1268,-26.5214,-2.52703
-623,-244,-26.9841,3.14856,-0.0109335,0.0135941,0.00581253,0.0149018,-0.0122413,1.3495,0.0156961,0.0354964,601,1268,-26.9841,-3.1485
-616,-244,-27.1273,4.05322,-0.00710025,0.0096953,0.00416127,0.0106698,-0.00807471,1.34077,0.0108566,0.0180769,608,1268,-27.1273,-4.05326
-609,-244,-27.1514,4.58838,-0.00427268,0.0067499,0.00291313,0.00747243,-0.00499522,1.32767,0.00724541,0.015344,615,1268,-27.1514,-4.58838
-602,-244,-27.1934,5.16907,-0.00207424,0.00430858,0.00190881,0.00483586,-0.00260152,1.30128,0.00435808,0.0159819,622,1268,-27.1934,-5.16908
-595,-244,-27.2235,5.77148,-0.000391159,0.00235891,0.00108509,0.00273549,-0.000767738,1.23675,0.00212629,0.0169306,629,1268,-27.2235,-5.77146
-588,-244,-27.2331,6.33325,0.00100706,0.000795041,0.000504799,0.00141686,0.000385238,0.681903,0.000845923,0.0211392,636,1268,-27.2331,-6.33319
-581,-244,-27.2547,6.89282,0.00209345,-0.000287856,-3.896e-05,0.00209409,-0.000288494,-0.0163549,0.00150149,0.0178743,643,1268,-27.2547,-6.89287
-574,-244,-27.2744,7.48975,0.00262423,-0.00095819,-0.000441651,0.00267787,-0.00101183,-0.120872,0.00220145,0.0135273,650,1268,-27.2744,-7.48975
-567,-244,-27.26,8.08044,0.00268395,-0.00146264,-0.000426584,0.00272738,-0.00150607,-0.10146,0.00247785,0.0205063,657,1268,-27.26,-8.08047
-560,-244,-27.1492,8.58923,0,0,0,0,0,0,0,-1,664,1268,-27.1493,-8.58926
-553,-244,-26.9717,9.09485,0,0,0,0,0,0,0,-1,671,1268,-26.9717,-9.09481
-546,-244,-11.2686,4.41772,0,0,0,0,0,0,0,-1,678,1268,-11.2686,-4.41767
-539,-244,-12.8706,0.3302,0,0,0,0,0,0,0,-1,685,1268,-12.8706,-0.330156
-532,-244,-18.1502,0.816528,0,0,0,0,0,0,0,-1,692,1268,-18.1502,-0.816514
-525,-244,-33.0835,0.693604,0,0,0,0,0,0,0,-1,699,1268,-33.0835,-0.69365
-518,-244,-38.1713,0.902832,0,0,0,0,0,0,0,-1,706,1268,-38.1713,-0.902888
-511,-244,-41.8069,1.10254,0,0,0,0,0,0,0,-1,713,1268,-41.8069,-1.10253
-504,-244,-41.9323,0.950195,0,0,0,0,0,0,0,-1,720,1268,-41.9323,-0.950205
-497,-244,-41.9564,0.931152,0,0,0,0,0,0,0,-1,727,1268,-41.9563,-0.931185
-490,-244,0,0,0,0,0,0,0,0,0,-1,734,1268,0,0
-483,-244,0,0,0,0,0,0,0,0,0,-1,741,1268,0,0
-476,-244,0,0,0,0,0,0,0,0,0,-1,748,1268,0,0
-469,-244,0,0,0,0,0,0,0,0,0,-1,755,1268,0,0
-462,-244,0,0,0,0,0,0,0,0,0,-1,762,1268,0,0
-455,-244,0,0,0,0,0,0,0,0,0,-1,769,1268,0,0
-448,-244,0,0,0,0,0,0,0,0,0,-1,776,1268,0,0
-441,-244,0,0,0,0,0,0,0,0,0,-1,783,1268,0,0
-434,-244,0,0,0,0,0,0,0,0,0,-1,790,1268,0,0
-427,-244,0,0,0,0,0,0,0,0,0,-1,797,1268,0,0
-420,-244,0,0,0,0,0,0,0,0,0,-1,804,1268,0,0
-413,-244,0,0,0,0,0,0,0,0,0,-1,811,1268,0,0
-406,-244,0,0,0,0,0,0,0,0,0,-1,818,1268,0,0
-399,-244,0,0,0,0,0,0,0,0,0,-1,825,1268,0,0
-392,-244,0,0,0,0,0,0,0,0,0,-1,832,1268,0,0
-385,-244,0,0,0,0,0,0,0,0,0,-1,839,1268,0,0
-378,-244,0,0,0,0,0,0,0,0,0,-1,846,1268,0,0
-371,-244,0,0,0,0,0,0,0,0,0,-1,853,1268,0,0
-364,-244,0,0,0,0,0,0,0,0,0,-1,860,1268,0,0
-357,-244,0,0,0,0,0,0,0,0,0,-1,867,1268,0,0
-350,-244,0,0,0,0,0,0,0,0,0,-1,874,1268,0,0
-343,-244,0,0,0,0,0,0,0,0,0,-1,881,1268,0,0
-336,-244,0,0,0,0,0,0,0,0,0,-1,888,1268,0,0
-329,-244,0,0,0,0,0,0,0,0,0,-1,895,1268,0,0
-322,-244,0,0,0,0,0,0,0,0,0,-1,902,1268,0,0
-315,-244,0,0,0,0,0,0,0,0,0,-1,909,1268,0,0
-308,-244,0,0,0,0,0,0,0,0,0,-1,916,1268,0,0
-301,-244,0,0,0,0,0,0,0,0,0,-1,923,1268,0,0
-294,-244,0,0,0,0,0,0,0,0,0,-1,930,1268,0,0
-287,-244,0,0,0,0,0,0,0,0,0,-1,937,1268,0,0
-280,-244,0,0,0,0,0,0,0,0,0,-1,944,1268,0,0
-273,-244,0,0,0,0,0,0,0,0,0,-1,951,1268,0,0
-266,-244,0,0,0,0,0,0,0,0,0,-1,958,1268,0,0
-259,-244,0,0,0,0,0,0,0,0,0,-1,965,1268,0,0
-252,-244,0,0,0,0,0,0,0,0,0,-1,972,1268,0,0
-245,-244,0,0,0,0,0,0,0,0,0,-1,979,1268,0,0
-238,-244,0,0,0,0,0,0,0,0,0,-1,986,1268,0,0
-231,-244,0,0,0,0,0,0,0,0,0,-1,993,1268,0,0
-224,-244,0,0,0,0,0,0,0,0,0,-1,1000,1268,0,0
-217,-244,0,0,0,0,0,0,0,0,0,-1,1007,1268,0,0
-210,-244,0,0,0,0,0,0,0,0,0,-1,1014,1268,0,0
-203,-244,0,0,0,0,0,0,0,0,0,-1,1021,1268,0,0
-196,-244,0,0,0,0,0,0,0,0,0,-1,1028,1268,0,0
-189,-244,0,0,0,0,0,0,0,0,0,-1,1035,1268,0,0
-182,-244,0,0,0,0,0,0,0,0,0,-1,1042,1268,0,0
-175,-244,0,0,0,0,0,0,0,0,0,-1,1049,1268,0,0
-168,-244,0,0,0,0,0,0,0,0,0,-1,1056,1268,0,0
-161,-244,0,0,0,0,0,0,0,0,0,-1,1063,1268,0,0
-154,-244,0,0,0,0,0,0,0,0,0,-1,1070,1268,0,0
-147,-244,0,0,0,0,0,0,0,0,0,-1,1077,1268,0,0
-140,-244,0,0,0,0,0,0,0,0,0,-1,1084,1268,0,0
-133,-244,0,0,0,0,0,0,0,0,0,-1,1091,1268,0,0
-126,-244,0,0,0,0,0,0,0,0,0,-1,1098,1268,0,0
-119,-244,0,0,0,0,0,0,0,0,0,-1,1105,1268,0,0
-112,-244,0,0,0,0,0,0,0,0,0,-1,1112,1268,0,0
-105,-244,0,0,0,0,0,0,0,0,0,-1,1119,1268,0,0
-98,-244,0,0,0,0,0,0,0,0,0,-1,1126,1268,0,0
-91,-244,0,0,0,0,0,0,0,0,0,-1,1133,1268,0,0
-84,-244,0,0,0,0,0,0,0,0,0,-1,1140,1268,0,0
-77,-244,0,0,0,0,0,0,0,0,0,-1,1147,1268,0,0
-70,-244,0,0,0,0,0,0,0,0,0,-1,1154,1268,0,0
-63,-244,0,0,0,0,0,0,0,0,0,-1,1161,1268,0,0
-56,-244,0,0,0,0,0,0,0,0,0,-1,1168,1268,0,0
-49,-244,0,0,0,0,0,0,0,0,0,-1,1175,1268,0,0
-42,-244,0,0,0,0,0,0,0,0,0,-1,1182,1268,0,0
-35,-244,0,0,0,0,0,0,0,0,0,-1,1189,1268,0,0
-28,-244,0,0,0,0,0,0,0,0,0,-1,1196,1268,0,0
-21,-244,0,0,0,0,0,0,0,0,0,-1,1203,1268,0,0
-14,-244,0,0,0,0,0,0,0,0,0,-1,1210,1268,0,0
-7,-244,0,0,0,0,0,0,0,0,0,-1,1217,1268,0,0
0,-244,0,0,0,0,0,0,0,0,0,-1,1224,1268,0,0
7,-244,0,0,0,0,0,0,0,0,0,-1,1231,1268,0,0
14,-244,0,0,0,0,0,0,0,0,0,-1,1238,1268,0,0
21,-244,0,0,0,0,0,0,0,0,0,-1,1245,1268,0,0
28,-244,0,0,0,0,0,0,0,0,0,-1,1252,1268,0,0
35,-244,0,0,0,0,0,0,0,0,0,-1,1259,1268,0,0
42,-244,0,0,0,0,0,0,0,0,0,-1,1266,1268,0,0
49,-244,0,0,0,0,0,0,0,0,0,-1,1273,1268,0,0
56,-244,0,0,0,0,0,0,0,0,0,-1,1280,1268,0,0
63,-244,0,0,0,0,0,0,0,0,0,-1,1287,1268,0,0
70,-244,0,0,0,0,0,0,0,0,0,-1,1294,1268,0,0
77,-244,0,0,0,0,0,0,0,0,0,-1,1301,1268,0,0
84,-244,0,0,0,0,0,0,0,0,0,-1,1308,1268,0,0
91,-244,0,0,0,0,0,0,0,0,0,-1,1315,1268,0,0
98,-244,0,0,0,0,0,0,0,0,0,-1,1322,1268,0,0
105,-244,0,0,0,0,0,0,0,0,0,-1,1329,1268,0,0
112,-244,0,0,0,0,0,0,0,0,0,-1,1336,1268,0,0
119,-244,0,0,0,0,0,0,0,0,0,-1,1343,1268,0,0
126,-244,0,0,0,0,0,0,0,0,0,-1,1350,1268,0,0
133,-244,0,0,0,0,0,0,0,0,0,-1,1357,1268,0,0
140,-244,0,0,0,0,0,0,0,0,0,-1,1364,1268,0,0
147,-244,0,0,0,0,0,0,0,0,0,-1,1371,1268,0,0
154,-244,0,0,0,0,0,0,0,0,0,-1,1378,1268,0,0
161,-244,0,0,0,0,0,0,0,0,0,-1,1385,1268,0,0
168,-244,0,0,0,0,0,0,0,0,0,-1,1392,1268,0,0
175,-244,0,0,0,0,0,0,0,0,0,-1,1399,1268,0,0
182,-244,0,0,0,0,0,0,0,0,0,-1,1406,1268,0,0
189,-244,0,0,0,0,0,0,0,0,0,-1,1413,1268,0,0
196,-244,0,0,0,0,0,0,0,0,0,-1,1420,1268,0,0
203,-244,0,0,0,0,0,0,0,0,0,-1,1427,1268,0,0
210,-244,0,0,0,0,0,0,0,0,0,-1,1434,1268,0,0
217,-244,0,0,0,0,0,0,0,0,0,-1,1441,1268,0,0
224,-244,0,0,0,0,0,0,0,0,0,-1,1448,1268,0,0
231,-244,0,0,0,0,0,0,0,0,0,-1,1455,1268,0,0
238,-244,0,0,0,0,0,0,0,0,0,-1,1462,1268,0,0
245,-244,0,0,0,0,0,0,0,0,0,-1,1469,1268,0,0
252,-244,0,0,0,0,0,0,0,0,0,-1,1476,1268,0,0
259,-244,0,0,0,0,0,0,0,0,0,-1,1483,1268,0,0
266,-244,0,0,0,0,0,0,0,0,0,-1,1490,1268,0,0
273,-244,0,0,0,0,0,0,0,0,0,-1,1497,1268,0,0
280,-244,0,0,0,0,0,0,0,0,0,-1,1504,1268,0,0
287,-244,0,0,0,0,0,0,0,0,0,-1,1511,1268,0,0
294,-244,0,0,0,0,0,0,0,0,0,-1,1518,1268,0,0
301,-244,0,0,0,0,0,0,0,0,0,-1,1525,1268,0,0
308,-244,0,0,0,0,0,0,0,0,0,-1,1532,1268,0,0
315,-244,0,0,0,0,0,0,0,0,0,-1,1539,1268,0,0
322,-244,0,0,0,0,0,0,0,0,0,-1,1546,1268,0,0
329,-244,0,0,0,0,0,0,0,0,0,-1,1553,1268,0,0
336,-244,0,0,0,0,0,0,0,0,0,-1,1560,1268,0,0
343,-244,0,0,0,0,0,0,0,0,0,-1,1567,1268,0,0
350,-244,0,0,0,0,0,0,0,0,0,-1,1574,1268,0,0
357,-244,0,0,0,0,0,0,0,0,0,-1,1581,1268,0,0
364,-244,0,0,0,0,0,0,0,0,0,-1,1588,1268,0,0
371,-244,0,0,0,0,0,0,0,0,0,-1,1595,1268,0,0
378,-244,0,0,0,0,0,0,0,0,0,-1,1602,1268,0,0
385,-244,0,0,0,0,0,0,0,0,0,-1,1609,1268,0,0
392,-244,0,0,0,0,0,0,0,0,0,-1,1616,1268,0,0
399,-244,0,0,0,0,0,0,0,0,0,-1,1623,1268,0,0
406,-244,0,0,0,0,0,0,0,0,0,-1,1630,1268,0,0
413,-244,0,0,0,0,0,0,0,0,0,-1,1637,1268,0,0
420,-244,0,0,0,0,0,0,0,0,0,-1,1644,1268,0,0
427,-244,0,0,0,0,0,0,0,0,0,-1,1651,1268,0,0
434,-244,0,0,0,0,0,0,0,0,0,-1,1658,1268,0,0
441,-244,0,0,0,0,0,0,0,0,0,-1,1665,1268,0,0
448,-244,0,0,0,0,0,0,0,0,0,-1,1672,1268,0,0
455,-244,0,0,0,0,0,0,0,0,0,-1,1679,1268,0,0
462,-244,0,0,0,0,0,0,0,0,0,-1,1686,1268,0,0
469,-244,0,0,0,0,0,0,0,0,0,-1,1693,1268,0,0
476,-244,0,0,0,0,0,0,0,0,0,-1,1700,1268,0,0
483,-244,0,0,0,0,0,0,0,0,0,-1,1707,1268,0,0
490,-244,0,0,0,0,0,0,0,0,0,-1,1714,1268,0,0
497,-244,0,0,0,0,0,0,0,0,0,-1,1721,1268,0,0
504,-244,0,0,0,0,0,0,0,0,0,-1,1728,1268,0,0
511,-244,0,0,0,0,0,0,0,0,0,-1,1735,1268,0,0
518,-244,0,0,0,0,0,0,0,0,0,-1,1742,1268,0,0
525,-244,0,0,0,0,0,0,0,0,0,-1,1749,1268,0,0
532,-244,0,0,0,0,0,0,0,0,0,-1,1756,1268,0,0
539,-244,0,0,0,0,0,0,0,0,0,-1,1763,1268,0,0
546,-244,0,0,0,0,0,0,0,0,0,-1,1770,1268,0,0
553,-244,0,0,0,0,0,0,0,0,0,-1,1777,1268,0,0
560,-244,0,0,0,0,0,0,0,0,0,-1,1784,1268,0,0
567,-244,0,0,0,0,0,0,0,0,0,-1,1791,1268,0,0
574,-244,0,0,0,0,0,0,0,0,0,-1,1798,1268,0,0
581,-244,0,0,0,0,0,0,0,0,0,-1,1805,1268,0,0
588,-244,0,0,0,0,0,0,0,0,0,-1,1812,1268,0,0
595,-244,0,0,0,0,0,0,0,0,0,-1,1819,1268,0,0
602,-244,0,0,0,0,0,0,0,0,0,-1,1826,1268,0,0
609,-244,0,0,0,0,0,0,0,0,0,-1,1833,1268,0,0
616,-244,56.1216,2.56201,-0.00102367,0.00476199,-0.00187785,0.00531804,-0.00157972,-1.28291,0.00417283,0.0333274,1840,1268,56.1215,-2.56198
623,-244,56.1847,2.62817,-0.0024413,0.00855786,-0.00224342,0.00899784,-0.00288128,-1.37714,0.00715505,0.0271789,1847,1268,56.1847,-2.62822
630,-244,56.1174,2.61035,-0.0032412,0.0114907,-0.00233248,0.0118512,-0.00360167,-1.41746,0.00933585,0.0252475,1854,1268,56.1174,-2.6104
637,-244,56.0527,2.51526,-0.00279,0.0116664,-0.00215126,0.0119797,-0.00310334,-1.42616,0.00919716,0.0391943,1861,1268,56.0528,-2.51522
644,-244,55.776,2.27393,-0.00179819,0.0100836,-0.0021106,0.0104474,-0.00216197,-1.40012,0.00778626,0.0441204,1868,1268,55.776,-2.27392
651,-244,55.8439,2.07056,-0.00125997,0.00831403,-0.00197835,0.00870672,-0.00165267,-1.37485,0.0064266,0.0471917,1875,1268,55.8438,-2.07051
658,-244,55.8999,2.26672,0,0,0,0,0,0,0,-1,1882,1268,55.8999,-2.26675
665,-244,50.7988,1.09888,0,0,0,0,0,0,0,-1,1889,1268,50.7989,-1.09893
672,-244,32.224,3.6123,0,0,0,0,0,0,0,-1,1896,1268,32.224,-3.6123
679,-244,27.2593,7.90649,0,0,0,0,0,0,0,-1,1903,1268,27.2592,-7.9065
686,-244,42.1293,11.4266,0,0,0,0,0,0,0,-1,1910,1268,42.1293,-11.4266
693,-244,42.124,10.8446,0.0015129,0.00136696,-0.000685182,0.00212898,0.000750871,-0.73235,0.00124682,0.0288459,1917,1268,42.124,-10.8446
700,-244,42.1824,10.2256,0.00164542,0.000295729,-0.000804173,0.00202038,-7.92408e-05,-0.43631,0.0013741,0.0103978,1924,1268,42.1824,-10.2256
707,-244,42.189,9.67725,0.00118167,-0.000810608,-0.000726953,0.00141872,-0.00104766,-0.315214,0.00142932,0.0109809,1931,1268,42.189,-9.67722
714,-244,42.2352,9.13489,0.000336291,-0.000881472,0.000150185,0.00035454,-0.000899721,0.120915,0.000746602,0.0146118,1938,1268,42.2352,-9.13487
721,-244,42.1571,8.65613,-0.000398193,-0.000875635,0.00117553,0.00056261,-0.00183644,0.685223,0.00144871,0.0202306,1945,1268,42.1571,-8.6561
728,-244,42.1454,8.09595,-0.000982241,-0.00086783,0.00224239,0.00131809,-0.00316816,0.798151,0.00266254,0.0253959,1952,1268,42.1454,-8.09597
735,-244,42.1172,7.51086,-0.00144459,-0.000896423,0.00335778,0.00219844,-0.00453945,0.826121,0.00396761,0.0253344,1959,1268,42.1172,-7.51085
742,-244,42.0365,7.06738,-0.00171919,-0.000938107,0.00452781,0.00321597,-0.00587327,0.828419,0.00532191,0.0171422,1966,1268,42.0366,-7.06744
749,-244,41.9089,6.65906,-0.00166292,-0.0009235,0.00572693,0.00444564,-0.00703206,0.817632,0.0066825,0.025046,1973,1268,41.909,-6.65906
756,-244,41.7963,6.28345,-0.00118488,-0.000839409,0.00700871,0.0059987,-0.00802298,0.797719,0.00812349,0.0359466,1980,1268,41.7963,-6.28347
763,-244,41.9662,5.88977,0,0,0,0,0,0,0,-1,1987,1268,41.9662,-5.88971
770,-244,42.3571,5.25732,0,0,0,0,0,0,0,-1,1994,1268,42.3571,-5.25737
777,-244,40.9116,3.7749,0,0,0,0,0,0,0,-1,2001,1268,40.9116,-3.77485
784,-244,31.7908,5.20081,0,0,0,0,0,0,0,-1,2008,1268,31.7907,-5.20083
791,-244,0,0,0,0,0,0,0,0,0,-1,2015,1268,0,0
798,-244,0,0,0,0,0,0,0,0,0,-1,2022,1268,0,0
805,-244,0,0,0,0,0,0,0,0,0,-1,2029,1268,0,0
812,-244,0,0,0,0,0,0,0,0,0,-1,2036,1268,0,0
-700,-251,0,0,0,0,0,0,0,0,0,-1,524,1275,0,0
-693,-251,0,0,0,0,0,0,0,0,0,-1,531,1275,0,0
-686,-251,0,0,0,0,0,0,0,0,0,-1,538,1275,0,0
-679,-251,0,0,0,0,0,0,0,0,0,-1,545,1275,0,0
-672,-251,0,0,0,0,0,0,0,0,0,-1,552,1275,0,0
-665,-251,-39.3416,-7.43286,0,0,0,0,0,0,0,-1,559,1275,-39.3415,7.43292
-658,-251,-39.3706,-6.07568,0,0,0,0,0,0,0,-1,566,1275,-39.3706,6.07565
-651,-251,-39.3334,10.5758,0,0,0,0,0,0,0,-1,573,1275,-39.3334,-10.5758
-644,-251,-39.4733,-3.44775,0,0,0,0,0,0,0,-1,580,1275,-39.4733,3.44771
-637,-251,-24.96,1.56836,0,0,0,0,0,0,0,-1,587,1275,-24.96,-1.56832
-630,-251,-25.712,2.1676,-0.0197223,0.023529,0.00863695,0.02519,-0.0213833,1.38081,0.026919,0.0478281,594,1275,-25.712,-2.16755
-623,-251,-26.3397,3.10962,-0.0126481,0.016958,0.00666403,0.0183888,-0.0140789,1.35929,0.0188002,0.0406885,601,1275,-26.3397,-3.10956
-616,-251,-26.5584,4.07349,-0.0079465,0.0117973,0.00490576,0.012949,-0.00909825,1.3402,0.0127935,0.0207312,608,1275,-26.5584,-4.07347
-609,-251,-26.5666,4.62537,-0.00473698,0.00815819,0.00354868,0.00907025,-0.00564905,1.31923,0.00857437,0.0198124,615,1275,-26.5666,-4.6254
-602,-251,-26.5914,5.20239,-0.00238815,0.00529204,0.00244017,0.00600175,-0.00309787,1.28776,0.0053421,0.015307,622,1275,-26.5914,-5.20235
-595,-251,-26.6301,5.78308,-0.000619987,0.00301703,0.0015403,0.00358169,-0.00118465,1.21942,0.0028655,0.01358,629,1275,-26.6301,-5.78303
-588,-251,-26.6459,6.32996,0.000819604,0.00125076,0.000856171,0.00191808,0.000152288,0.908731,0.0012311,0.0155536,636,1275,-26.6459,-6.32992
-581,-251,-26.6552,6.92566,0.00197071,-2.2395e-05,0.000283988,0.00201038,-6.20695e-05,0.138806,0.00136142,0.0146136,643,1275,-26.6552,-6.92567
-574,-251,-26.6734,7.54272,0.00268524,-0.000855629,-0.000137784,0.00269059,-0.000860983,-0.0388342,0.00213927,0.0132529,650,1275,-26.6734,-7.54275
-567,-251,-26.6717,8.14319,0.00292904,-0.00148265,-0.000208455,0.00293886,-0.00149248,-0.0471107,0.00260347,0.0167832,657,1275,-26.6717,-8.14323
-560,-251,-26.6005,8.75989,0,0,0,0,0,0,0,-1,664,1275,-26.6005,-8.75993
-553,-251,-26.1015,9.72998,0,0,0,0,0,0,0,-1,671,1275,-26.1015,-9.73001
-546,-251,-12.995,4.5675,0,0,0,0,0,0,0,-1,678,1275,-12.995,-4.56745
-539,-251,-10.7916,0.366333,0,0,0,0,0,0,0,-1,685,1275,-10.7916,-0.366282
-532,-251,-10.7391,-0.00769043,0,0,0,0,0,0,0,-1,692,1275,-10.7391,0.00773227
-525,-251,-29.4286,-0.250244,0,0,0,0,0,0,0,-1,699,1275,-29.4286,0.250266
-518,-251,-32.6981,0.678833,0,0,0,0,0,0,0,-1,706,1275,-32.6981,-0.678787
-511,-251,-29.4731,0.637085,0,0,0,0,0,0,0,-1,713,1275,-29.4731,-0.637025
-504,-251,-30.6428,0.792358,0,0,0,0,0,0,0,-1,720,1275,-30.6427,-0.792335
-497,-251,-41.946,1.03247,0,0,0,0,0,0,0,-1,727,1275,-41.946,-1.03243
-490,-251,0,0,0,0,0,0,0,0,0,-1,734,1275,0,0
-483,-251,0,0,0,0,0,0,0,0,0,-1,741,1275,0,0
-476,-251,0,0,0,0,0,0,0,0,0,-1,748,1275,0,0
-469,-251,0,0,0,0,0,0,0,0,0,-1,755,1275,0,0
-462,-251,0,0,0,0,0,0,0,0,0,-1,762,1275,0,0
-455,-251,0,0,0,0,0,0,0,0,0,-1,769,1275,0,0
-448,-251,0,0,0,0,0,0,0,0,0,-1,776,1275,0,0
-441,-251,0,0,0,0,0,0,0,0,0,-1,783,1275,0,0
-434,-251,0,0,0,0,0,0,0,0,0,-1,790,1275,0,0
-427,-251,0,0,0,0,0,0,0,0,0,-1,797,1275,0,0
-420,-251,0,0,0,0,0,0,0,0,0,-1,804,1275,0,0
-413,-251,0,0,0,0,0,0,0,0,0,-1,811,1275,0,0
-406,-251,0,0,0,0,0,0,0,0,0,-1,818,1275,0,0
-399,-251,0,0,0,0,0,0,0,0,0,-1,825,1275,0,0
-392,-251,0,0,0,0,0,0,0,0,0,-1,832,1275,0,0
-385,-251,0,0,0,0,0,0,0,0,0,-1,839,1275,0,0
-378,-251,0,0,0,0,0,0,0,0,0,-1,846,1275,0,0
-371,-251,0,0,0,0,0,0,0,0,0,-1,853,1275,0,0
-364,-251,0,0,0,0,0,0,0,0,0,-1,860,1275,0,0
-357,-251,0,0,0,0,0,0,0,0,0,-1,867,1275,0,0
-350,-251,0,0,0,0,0,0,0,0,0,-1,874,1275,0,0
-343,-251,0,0,0,0,0,0,0,0,0,-1,881,1275,0,0
-336,-251,0,0,0,0,0,0,0,0,0,-1,888,1275,0,0
-329,-251,0,0,0,0,0,0,0,0,0,-1,895,1275,0,0
-322,-251,0,0,0,0,0,0,0,0,0,-1,902,1275,0,0
-315,-251,0,0,0,0,0,0,0,0,0,-1,909,1275,0,0
-308,-251,0,0,0,0,0,0,0,0,0,-1,916,1275,0,0
-301,-251,0,0,0,0,0,0,0,0,0,-1,923,1275,0,0
-294,-251,0,0,0,0,0,0,0,0,0,-1,930,1275,0,0
-287,-251,0,0,0,0,0,0,0,0,0,-1,937,1275,0,0
-280,-251,0,0,0,0,0,0,0,0,0,-1,944,1275,0,0
-273,-251,0,0,0,0,0,0,0,0,0,-1,951,1275,0,0
-266,-251,0,0,0,0,0,0,0,0,0,-1,958,1275,0,0
-259,-251,0,0,0,0,0,0,0,0,0,-1,965,1275,0,0
-252,-251,0,0,0,0,0,0,0,0,0,-1,972,1275,0,0
-245,-251,0,0,0,0,0,0,0,0,0,-1,979,1275,0,0
-238,-251,0,0,0,0,0,0,0,0,0,-1,986,1275,0,0
-231,-251,0,0,0,0,0,0,0,0,0,-1,993,1275,0,0
-224,-251,0,0,0,0,0,0,0,0,0,-1,1000,1275,0,0
-217,-251,0,0,0,0,0,0,0,0,0,-1,1007,1275,0,0
-210,-251,0,0,0,0,0,0,0,0,0,-1,1014,1275,0,0
-203,-251,0,0,0,0,0,0,0,0,0,-1,1021,1275,0,0
-196,-251,0,0,0,0,0,0,0,0,0,-1,1028,1275,0,0
-189,-251,0,0,0,0,0,0,0,0,0,-1,1035,1275,0,0
-182,-251,0,0,0,0,0,0,0,0,0,-1,1042,1275,0,0
-175,-251,0,0,0,0,0,0,0,0,0,-1,1049,1275,0,0
-168,-251,0,0,0,0,0,0,0,0,0,-1,1056,1275,0,0
-161,-251,0,0,0,0,0,0,0,0,0,-1,1063,1275,0,0
-154,-251,0,0,0,0,0,0,0,0,0,-1,1070,1275,0,0
-147,-251,0,0,0,0,0,0,0,0,0,-1,1077,1275,0,0
-140,-251,0,0,0,0,0,0,0,0,0,-1,1084,1275,0,0
-133,-251,0,0,0,0,0,0,0,0,0,-1,1091,1275,0,0
-126,-251,0,0,0,0,0,0,0,0,0,-1,1098,1275,0,0
-119,-251,0,0,0,0,0,0,0,0,0,-1,1105,1275,0,0
-112,-251,0,0,0,0,0,0,0,0,0,-1,1112,1275,0,0
-105,-251,0,0,0,0,0,0,0,0,0,-1,1119,1275,0,0
-98,-251,0,0,0,0,0,0,0,0,0,-1,1126,1275,0,0
-91,-251,0,0,0,0,0,0,0,0,0,-1,1133,1275,0,0
-84,-251,0,0,0,0,0,0,0,0,0,-1,1140,1275,0,0
-77,-251,0,0,0,0,0,0,0,0,0,-1,1147,1275,0,0
-70,-251,0,0,0,0,0,0,0,0,0,-1,1154,1275,0,0
-63,-251,0,0,0,0,0,0,0,0,0,-1,1161,1275,0,0
-56,-251,0,0,0,0,0,0,0,0,0,-1,1168,1275,0,0
-49,-251,0,0,0,0,0,0,0,0,0,-1,1175,1275,0,0
-42,-251,0,0,0,0,0,0,0,0,0,-1,1182,1275,0,0
-35,-251,0,0,0,0,0,0,0,0,0,-1,1189,1275,0,0
-28,-251,0,0,0,0,0,0,0,0,0,-1,1196,1275,0,0
-21,-251,0,0,0,0,0,0,0,0,0,-1,1203,1275,0,0
-14,-251,0,0,0,0,0,0,0,0,0,-1,1210,1275,0,0
-7,-251,0,0,0,0,0,0,0,0,0,-1,1217,1275,0,0
0,-251,0,0,0,0,0,0,0,0,0,-1,1224,1275,0,0
7,-251,0,0,0,0,0,0,0,0,0,-1,1231,1275,0,0
14,-251,0,0,0,0,0,0,0,0,0,-1,1238,1275,0,0
21,-251,0,0,0,0,0,0,0,0,0,-1,1245,1275,0,0
28,-251,0,0,0,0,0,0,0,0,0,-1,1252,1275,0,0
35,-251,0,0,0,0,0,0,0,0,0,-1,1259,1275,0,0
42,-251,0,0,0,0,0,0,0,0,0,-1,1266,1275,0,0
49,-251,0,0,0,0,0,0,0,0,0,-1,1273,1275,0,0
56,-251,0,0,0,0,0,0,0,0,0,-1,1280,1275,0,0
63,-251,0,0,0,0,0,0,0,0,0,-1,1287,1275,0,0
70,-251,0,0,0,0,0,0,0,0,0,-1,1294,1275,0,0
77,-251,0,0,0,0,0,0,0,0,0,-1,1301,1275,0,0
84,-251,0,0,0,0,0,0,0,0,0,-1,1308,1275,0,0
91,-251,0,0,0,0,0,0,0,0,0,-1,1315,1275,0,0
98,-251,0,0,0,0,0,0,0,0,0,-1,1322,1275,0,0
105,-251,0,0,0,0,0,0,0,0,0,-1,1329,1275,0,0
112,-251,0,0,0,0,0,0,0,0,0,-1,1336,1275,0,0
119,-251,0,0,0,0,0,0,0,0,0,-1,1343,1275,0,0
126,-251,0,0,0,0,0,0,0,0,0,-1,1350,1275,0,0
133,-251,0,0,0,0,0,0,0,0,0,-1,1357,1275,0,0
140,-251,0,0,0,0,0,0,0,0,0,-1,1364,1275,0,0
147,-251,0,0,0,0,0,0,0,0,0,-1,1371,1275,0,0
154,-251,0,0,0,0,0,0,0,0,0,-1,1378,1275,0,0
161,-251,0,0,0,0,0,0,0,0,0,-1,1385,1275,0,0
168,-251,0,0,0,0,0,0,0,0,0,-1,1392,1275,0,0
175,-251,0,0,0,0,0,0,0,0,0,-1,1399,1275,0,0
182,-251,0,0,0,0,0,0,0,0,0,-1,1406,1275,0,0
189,-251,0,0,0,0,0,0,0,0,0,-1,1413,1275,0,0
196,-251,0,0,0,0,0,0,0,0,0,-1,1420,1275,0,0
203,-251,0,0,0,0,0,0,0,0,0,-1,1427,1275,0,0
210,-251,0,0,0,0,0,0,0,0,0,-1,1434,1275,0,0
217,-251,0,0,0,0,0,0,0,0,0,-1,1441,1275,0,0
224,-251,0,0,0,0,0,0,0,0,0,-1,1448,1275,0,0
231,-251,0,0,0,0,0,0,0,0,0,-1,1455,1275,0,0
238,-251,0,0,0,0,0,0,0,0,0,-1,1462,1275,0,0
245,-251,0,0,0,0,0,0,0,0,0,-1,1469,1275,0,0
252,-251,0,0,0,0,0,0,0,0,0,-1,1476,1275,0,0
259,-251,0,0,0,0,0,0,0,0,0,-1,1483,1275,0,0
266,-251,0,0,0,0,0,0,0,0,0,-1,1490,1275,0,0
273,-251,0,0,0,0,0,0,0,0,0,-1,1497,1275,0,0
280,-251,0,0,0,0,0,0,0,0,0,-1,1504,1275,0,0
287,-251,0,0,0,0,0,0,0,0,0,-1,1511,1275,0,0
294,-251,0,0,0,0,0,0,0,0,0,-1,1518,1275,0,0
301,-251,0,0,0,0,0,0,0,0,0,-1,1525,1275,0,0
308,-251,0,0,0,0,0,0,0,0,0,-1,1532,1275,0,0
315,-251,0,0,0,0,0,0,0,0,0,-1,1539,1275,0,0
322,-251,0,0,0,0,0,0,0,0,0,-1,1546,1275,0,0
329,-251,0,0,0,0,0,0,0,0,0,-1,1553,1275,0,0
336,-251,0,0,0,0,0,0,0,0,0,-1,1560,1275,0,0
343,-251,0,0,0,0,0,0,0,0,0,-1,1567,1275,0,0
350,-251,0,0,0,0,0,0,0,0,0,-1,1574,1275,0,0
357,-251,0,0,0,0,0,0,0,0,0,-1,1581,1275,0,0
364,-251,0,0,0,0,0,0,0,0,0,-1,1588,1275,0,0
371,-251,0,0,0,0,0,0,0,0,0,-1,1595,1275,0,0
378,-251,0,0,0,0,0,0,0,0,0,-1,1602,1275,0,0
385,-251,0,0,0,0,0,0,0,0,0,-1,1609,1275,0,0
392,-251,0,0,0,0,0,0,0,0,0,-1,1616,1275,0,0
399,-251,0,0,0,0,0,0,0,0,0,-1,1623,1275,0,0
406,-251,0,0,0,0,0,0,0,0,0,-1,1630,1275,0,0
413,-251,0,0,0,0,0,0,0,0,0,-1,1637,1275,0,0
420,-251,0,0,0,0,0,0,0,0,0,-1,1644,1275,0,0
427,-251,0,0,0,0,0,0,0,0,0,-1,1651,1275,0,0
434,-251,0,0,0,0,0,0,0,0,0,-1,1658,1275,0,0
441,-251,0,0,0,0,0,0,0,0,0,-1,1665,1275,0,0
448,-251,0,0,0,0,0,0,0,0,0,-1,1672,1275,0,0
455,-251,0,0,0,0,0,0,0,0,0,-1,1679,1275,0,0
462,-251,0,0,0,0,0,0,0,0,0,-1,1686,1275,0,0
469,-251,0,0,0,0,0,0,0,0,0,-1,1693,1275,0,0
476,-251,0,0,0,0,0,0,0,0,0,-1,1700,1275,0,0
483,-251,0,0,0,0,0,0,0,0,0,-1,1707,1275,0,0
490,-251,0,0,0,0,0,0,0,0,0,-1,1714,1275,0,0
497,-251,0,0,0,0,0,0,0,0,0,-1,1721,1275,0,0
504,-251,0,0,0,0,0,0,0,0,0,-1,1728,1275,0,0
511,-251,0,0,0,0,0,0,0,0,0,-1,1735,1275,0,0
518,-251,0,0,0,0,0,0,0,0,0,-1,1742,1275,0,0
525,-251,0,0,0,0,0,0,0,0,0,-1,1749,1275,0,0
532,-251,0,0,0,0,0,0,0,0,0,-1,1756,1275,0,0
539,-251,0,0,0,0,0,0,0,0,0,-1,1763,1275,0,0
546,-251,0,0,0,0,0,0,0,0,0,-1,1770,1275,0,0
553,-251,0,0,0,0,0,0,0,0,0,-1,1777,1275,0,0
560,-251,0,0,0,0,0,0,0,0,0,-1,1784,1275,0,0
567,-251,0,0,0,0,0,0,0,0,0,-1,1791,1275,0,0
574,-251,0,0,0,0,0,0,0,0,0,-1,1798,1275,0,0
581,-251,0,0,0,0,0,0,0,0,0,-1,1805,1275,0,0
588,-251,0,0,0,0,0,0,0,0,0,-1,1812,1275,0,0
595,-251,0,0,0,0,0,0,0,0,0,-1,1819,1275,0,0
602,-251,0,0,0,0,0,0,0,0,0,-1,1826,1275,0,0
609,-251,56.0665,2.59851,-7.30676e-06,0.00338647,-0.00131711,0.00383765,-0.000458488,-1.24077,0.00272415,0.0294731,1833,1275,56.0665,-2.59848
616,-251,56.1018,2.60535,-0.00221799,0.00797781,-0.00213555,0.00840704,-0.00264722,-1.37245,0.00666471,0.0260528,1840,1275,56.1019,-2.60535
623,-251,56.1124,2.64575,-0.00364376,0.011946,-0.0026909,0.0123974,-0.00409516,-1.40459,0.00991595,0.0239541,1847,1275,56.1124,-2.64581
630,-251,56.069,2.5238,-0.00417952,0.0140769,-0.00276446,0.0144863,-0.00458894,-1.42376,0.0114966,0.0365689,1854,1275,56.0689,-2.52378
637,-251,56.0454,2.38574,-0.00329391,0.0127581,-0.00241503,0.0131136,-0.00364938,-1.42465,0.0101793,0.0437292,1861,1275,56.0454,-2.38578
644,-251,56.0304,2.23486,0,0,0,0,0,0,0,-1,1868,1275,56.0304,-2.23492
651,-251,55.4977,1.64978,0,0,0,0,0,0,0,-1,1875,1275,55.4977,-1.64972
658,-251,51.5793,1.25964,0,0,0,0,0,0,0,-1,1882,1275,51.5793,-1.2597
665,-251,32.9579,2.60229,0,0,0,0,0,0,0,-1,1889,1275,32.9579,-2.60231
672,-251,26.0721,4.53064,0,0,0,0,0,0,0,-1,1896,1275,26.0721,-4.53063
679,-251,29.1344,8.63782,0,0,0,0,0,0,0,-1,1903,1275,29.1344,-8.63778
686,-251,41.7312,11.3348,0,0,0,0,0,0,0,-1,1910,1275,41.7312,-11.3348
693,-251,41.6855,10.8156,0.00144094,0.00130114,-0.000447449,0.00182392,0.000918164,-0.707913,0.00105305,0.0167247,1917,1275,41.6856,-10.8155
700,-251,41.6672,10.2609,0.00151061,0.000275975,-0.000536221,0.00171098,7.56047e-05,-0.357606,0.00111631,0.00946833,1924,1275,41.6673,-10.2609
707,-251,41.6603,9.70447,0.0009561,-0.000707364,-0.000368284,0.00103399,-0.000785254,-0.208422,0.00105361,0.0118567,1931,1275,41.6603,-9.70447
714,-251,41.6744,9.15735,0.000114766,-0.000752479,0.000496746,0.000340526,-0.000978239,0.426571,0.000790506,0.014747,1938,1275,41.6745,-9.15739
721,-251,41.5984,8.66211,-0.000606224,-0.000774182,0.00148335,0.00079552,-0.00217593,0.757121,0.0017762,0.0217302,1945,1275,41.5984,-8.66211
728,-251,41.5929,8.17981,-0.00123553,-0.000843038,0.00252669,0.00149501,-0.00357358,0.824155,0.00300726,0.0253833,1952,1275,41.5929,-8.17975
735,-251,41.5809,7.56531,-0.00177733,-0.000967349,0.00364804,0.00229811,-0.00504279,0.84068,0.00433589,0.0204845,1959,1275,41.581,-7.56528
742,-251,41.4894,7.11206,-0.0021485,-0.00112598,0.00484837,0.00323802,-0.0065125,0.837929,0.0057343,0.0186659,1966,1275,41.4893,-7.11211
749,-251,41.2795,6.77759,-0.00220853,-0.00123232,0.00609073,0.00438983,-0.00783068,0.825382,0.00714813,0.038344,1973,1275,41.2795,-6.7776
756,-251,41.0603,6.57788,0,0,0,0,0,0,0,-1,1980,1275,41.0603,-6.57793
763,-251,41.563,6.33252,0,0,0,0,0,0,0,-1,1987,1275,41.563,-6.33253
770,-251,40.5034,4.45117,0,0,0,0,0,0,0,-1,1994,1275,40.5034,-4.45113
777,-251,31.5731,4.33252,0,0,0,0,0,0,0,-1,2001,1275,31.5731,-4.33251
784,-251,32.0776,5.78247,0,0,0,0,0,0,0,-1,2008,1275,32.0776,-5.78247
791,-251,0,0,0,0,0,0,0,0,0,-1,2015,1275,0,0
798,-251,0,0,0,0,0,0,0,0,0,-1,2022,1275,0,0
805,-251,0,0,0,0,0,0,0,0,0,-1,2029,1275,0,0
812,-251,0,0,0,0,0,0,0,0,0,-1,2036,1275,0,0
-700,-258,0,0,0,0,0,0,0,0,0,-1,524,1282,0,0
-693,-258,0,0,0,0,0,0,0,0,0,-1,531,1282,0,0
-686,-258,0,0,0,0,0,0,0,0,0,-1,538,1282,0,0
-679,-258,0,0,0,0,0,0,0,0,0,-1,545,1282,0,0
-672,-258,0,0,0,0,0,0,0,0,0,-1,552,1282,0,0
-665,-258,-35.0007,-0.969238,0,0,0,0,0,0,0,-1,559,1282,-35.0008,0.969225
-658,-258,-39.6628,-6.20264,0,0,0,0,0,0,0,-1,566,1282,-39.6628,6.20262
-651,-258,-39.7765,-4.8811,0,0,0,0,0,0,0,-1,573,1282,-39.7765,4.88109
-644,-258,-39.832,-3.56323,0,0,0,0,0,0,0,-1,580,1282,-39.832,3.56317
-637,-258,-36.0912,-1.18311,0,0,0,0,0,0,0,-1,587,1282,-36.0912,1.18306
-630,-258,-25.1127,1.69128,0,0,0,0,0,0,0,-1,594,1282,-25.1127,-1.69123
-623,-258,-25.7599,2.97852,0,0,0,0,0,0,0,-1,601,1282,-25.7599,-2.97849
-616,-258,-26.01,4.00769,-0.00764546,0.0131688,0.00603615,0.0147926,-0.00926927,1.308,0.0140136,0.0368972,608,1282,-26.01,-4.00764
-609,-258,-25.9543,4.62329,-0.00442875,0.00916987,0.0044056,0.0104724,-0.00573129,1.28333,0.00948775,0.0177348,615,1282,-25.9543,-4.62329
-602,-258,-25.9895,5.23999,-0.00219343,0.00607943,0.00310214,0.00711343,-0.00322743,1.24906,0.0061092,0.0143855,622,1282,-25.9895,-5.23994
-595,-258,-26.0193,5.8114,-0.000583243,0.00365218,0.00205662,0.00448649,-0.00141754,1.18541,0.00355889,0.0121153,629,1282,-26.0193,-5.81136
-588,-258,-26.0261,6.38245,0.000662195,0.00176141,0.0012646,0.00259068,-0.000167069,0.990389,0.00178542,0.0128365,636,1282,-26.0261,-6.38245
-581,-258,-26.0525,6.95752,0.00165875,0.00034893,0.000654041,0.00192941,7.82721e-05,0.392367,0.00126099,0.0153101,643,1282,-26.0525,-6.95754
-574,-258,-26.0581,7.54907,0.00235907,-0.000620018,0.000216314,0.00237469,-0.000635643,0.0721069,0.00183214,0.0153798,650,1282,-26.0581,-7.54909
-567,-258,-26.1003,8.15002,0.00264247,-0.00128406,5.74926e-05,0.00264331,-0.0012849,0.0146379,0.00231271,0.0149414,657,1282,-26.1003,-8.15
-560,-258,-26.0978,8.7821,0.00278307,-0.00157007,-0.000381529,0.00281626,-0.00160326,-0.0867631,0.00258344,0.0419585,664,1282,-26.0978,-8.78215
-553,-258,-25.9887,9.42834,0,0,0,0,0,0,0,-1,671,1282,-25.9887,-9.4283
-546,-258,-14.2231,5.92029,0,0,0,0,0,0,0,-1,678,1282,-14.2231,-5.92028
-539,-258,-10.2228,4.05823,0,0,0,0,0,0,0,-1,685,1282,-10.2228,-4.05823
-532,-258,-10.2173,-0.353882,0,0,0,0,0,0,0,-1,692,1282,-10.2173,0.353836
-525,-258,-21.8661,-1.5929,0,0,0,0,0,0,0,-1,699,1282,-21.8661,1.59285
-518,-258,-29.2484,0.123169,0,0,0,0,0,0,0,-1,706,1282,-29.2484,-0.123186
-511,-258,-23.5061,1.16833,0,0,0,0,0,0,0,-1,713,1282,-23.5061,-1.16833
-504,-258,-22.9178,0.484131,0,0,0,0,0,0,0,-1,720,1282,-22.9178,-0.484106
-497,-258,-17.8047,0.730469,0,0,0,0,0,0,0,-1,727,1282,-17.8048,-0.730489
-490,-258,-15.4346,0.632935,0,0,0,0,0,0,0,-1,734,1282,-15.4346,-0.632917
-483,-258,0,0,0,0,0,0,0,0,0,-1,741,1282,0,0
-476,-258,0,0,0,0,0,0,0,0,0,-1,748,1282,0,0
-469,-258,0,0,0,0,0,0,0,0,0,-1,755,1282,0,0
-462,-258,0,0,0,0,0,0,0,0,0,-1,762,1282,0,0
-455,-258,0,0,0,0,0,0,0,0,0,-1,769,1282,0,0
-448,-258,0,0,0,0,0,0,0,0,0,-1,776,1282,0,0
-441,-258,0,0,0,0,0,0,0,0,0,-1,783,1282,0,0
-434,-258,0,0,0,0,0,0,0,0,0,-1,790,1282,0,0
-427,-258,0,0,0,0,0,0,0,0,0,-1,797,1282,0,0
-420,-258,0,0,0,0,0,0,0,0,0,-1,804,1282,0,0
-413,-258,0,0,0,0,0,0,0,0,0,-1,811,1282,0,0
-406,-258,0,0,0,0,0,0,0,0,0,-1,818,1282,0,0
-399,-258,0,0,0,0,0,0,0,0,0,-1,825,1282,0,0
-392,-258,0,0,0,0,0,0,0,0,0,-1,832,1282,0,0
-385,-258,0,0,0,0,0,0,0,0,0,-1,839,1282,0,0
-378,-258,0,0,0,0,0,0,0,0,0,-1,846,1282,0,0
-371,-258,0,0,0,0,0,0,0,0,0,-1,853,1282,0,0
-364,-258,0,0,0,0,0,0,0,0,0,-1,860,1282,0,0
-357,-258,0,0,0,0,0,0,0,0,0,-1,867,1282,0,0
-350,-258,0,0,0,0,0,0,0,0,0,-1,874,1282,0,0
-343,-258,0,0,0,0,0,0,0,0,0,-1,881,1282,0,0
-336,-258,0,0,0,0,0,0,0,0,0,-1,888,1282,0,0
-329,-258,0,0,0,0,0,0,0,0,0,-1,895,1282,0,0
-322,-258,0,0,0,0,0,0,0,0,0,-1,902,1282,0,0
-315,-258,0,0,0,0,0,0,0,0,0,-1,909,1282,0,0
-308,-258,0,0,0,0,0,0,0,0,0,-1,916,1282,0,0
-301,-258,0,0,0,0,0,0,0,0,0,-1,923,1282,0,0
-294,-258,0,0,0,0,0,0,0,0,0,-1,930,1282,0,0
-287,-258,0,0,0,0,0,0,0,0,0,-1,937,1282,0,0
-280,-258,0,0,0,0,0,0,0,0,0,-1,944,1282,0,0
-273,-258,0,0,0,0,0,0,0,0,0,-1,951,1282,0,0
-266,-258,0,0,0,0,0,0,0,0,0,-1,958,1282,0,0
-259,-258,0,0,0,0,0,0,0,0,0,-1,965,1282,0,0
-252,-258,0,0,0,0,0,0,0,0,0,-1,972,1282,0,0
-245,-258,0,0,0,0,0,0,0,0,0,-1,979,1282,0,0
-238,-258,0,0,0,0,0,0,0,0,0,-1,986,1282,0,0
-231,-258,0,0,0,0,0,0,0,0,0,-1,993,1282,0,0
-224,-258,0,0,0,0,0,0,0,0,0,-1,1000,1282,0,0
-217,-258,0,0,0,0,0,0,0,0,0,-1,1007,1282,0,0
-210,-258,0,0,0,0,0,0,0,0,0,-1,1014,1282,0,0
-203,-258,0,0,0,0,0,0,0,0,0,-1,1021,1282,0,0
-196,-258,0,0,0,0,0,0,0,0,0,-1,1028,1282,0,0
-189,-258,0,0,0,0,0,0,0,0,0,-1,1035,1282,0,0
-182,-258,0,0,0,0,0,0,0,0,0,-1,1042,1282,0,0
-175,-258,0,0,0,0,0,0,0,0,0,-1,1049,1282,0,0
-168,-258,0,0,0,0,0,0,0,0,0,-1,1056,1282,0,0
-161,-258,0,0,0,0,0,0,0,0,0,-1,1063,1282,0,0
-154,-258,0,0,0,0,0,0,0,0,0,-1,1070,1282,0,0
-147,-258,0,0,0,0,0,0,0,0,0,-1,1077,1282,0,0
-140,-258,0,0,0,0,0,0,0,0,0,-1,1084,1282,0,0
-133,-258,0,0,0,0,0,0,0,0,0,-1,1091,1282,0,0
-126,-258,0,0,0,0,0,0,0,0,0,-1,1098,1282,0,0
-119,-258,0,0,0,0,0,0,0,0,0,-1,1105,1282,0,0
-112,-258,0,0,0,0,0,0,0,0,0,-1,1112,1282,0,0
-105,-258,0,0,0,0,0,0,0,0,0,-1,1119,1282,0,0
-98,-258,0,0,0,0,0,0,0,0,0,-1,1126,1282,0,0
-91,-258,0,0,0,0,0,0,0,0,0,-1,1133,1282,0,0
-84,-258,0,0,0,0,0,0,0,0,0,-1,1140,1282,0,0
-77,-258,0,0,0,0,0,0,0,0,0,-1,1147,1282,0,0
-70,-258,0,0,0,0,0,0,0,0,0,-1,1154,1282,0,0
-63,-258,0,0,0,0,0,0,0,0,0,-1,1161,1282,0,0
-56,-258,0,0,0,0,0,0,0,0,0,-1,1168,1282,0,0
-49,-258,0,0,0,0,0,0,0,0,0,-1,1175,1282,0,0
-42,-258,0,0,0,0,0,0,0,0,0,-1,1182,1282,0,0
-35,-258,0,0,0,0,0,0,0,0,0,-1,1189,1282,0,0
-28,-258,0,0,0,0,0,0,0,0,0,-1,1196,1282,0,0
-21,-258,0,0,0,0,0,0,0,0,0,-1,1203,1282,0,0
-14,-258,0,0,0,0,0,0,0,0,0,-1,1210,1282,0,0
-7,-258,0,0,0,0,0,0,0,0,0,-1,1217,1282,0,0
0,-258,0,0,0,0,0,0,0,0,0,-1,1224,1282,0,0
7,-258,0,0,0,0,0,0,0,0,0,-1,1231,1282,0,0
14,-258,0,0,0,0,0,0,0,0,0,-1,1238,1282,0,0
21,-258,0,0,0,0,0,0,0,0,0,-1,1245,1282,0,0
28,-258,0,0,0,0,0,0,0,0,0,-1,1252,1282,0,0
35,-258,0,0,0,0,0,0,0,0,0,-1,1259,1282,0,0
42,-258,0,0,0,0,0,0,0,0,0,-1,1266,1282,0,0
49,-258,0,0,0,0,0,0,0,0,0,-1,1273,1282,0,0
56,-258,0,0,0,0,0,0,0,0,0,-1,1280,1282,0,0
63,-258,0,0,0,0,0,0,0,0,0,-1,1287,1282,0,0
70,-258,0,0,0,0,0,0,0,0,0,-1,1294,1282,0,0
77,-258,0,0,0,0,0,0,0,0,0,-1,1301,1282,0,0
84,-258,0,0,0,0,0,0,0,0,0,-1,1308,1282,0,0
91,-258,0,0,0,0,0,0,0,0,0,-1,1315,1282,0,0
98,-258,0,0,0,0,0,0,0,0,0,-1,1322,1282,0,0
105,-258,0,0,0,0,0,0,0,0,0,-1,1329,1282,0,0
112,-258,0,0,0,0,0,0,0,0,0,-1,1336,1282,0,0
119,-258,0,0,0,0,0,0,0,0,0,-1,1343,1282,0,0
126,-258,0,0,0,0,0,0,0,0,0,-1,1350,1282,0,0
133,-258,0,0,0,0,0,0,0,0,0,-1,1357,1282,0,0
140,-258,0,0,0,0,0,0,0,0,0,-1,1364,1282,0,0
147,-258,0,0,0,0,0,0,0,0,0,-1,1371,1282,0,0
154,-258,0,0,0,0,0,0,0,0,0,-1,1378,1282,0,0
161,-258,0,0,0,0,0,0,0,0,0,-1,1385,1282,0,0
168,-258,0,0,0,0,0,0,0,0,0,-1,1392,1282,0,0
175,-258,0,0,0,0,0,0,0,0,0,-1,1399,1282,0,0
182,-258,0,0,0,0,0,0,0,0,0,-1,1406,1282,0,0
189,-258,0,0,0,0,0,0,0,0,0,-1,1413,1282,0,0
196,-258,0,0,0,0,0,0,0,0,0,-1,1420,1282,0,0
203,-258,0,0,0,0,0,0,0,0,0,-1,1427,1282,0,0
210,-258,0,0,0,0,0,0,0,0,0,-1,1434,1282,0,0
217,-258,0,0,0,0,0,0,0,0,0,-1,1441,1282,0,0
224,-258,0,0,0,0,0,0,0,0,0,-1,1448,1282,0,0
231,-258,0,0,0,0,0,0,0,0,0,-1,1455,1282,0,0
238,-258,0,0,0,0,0,0,0,0,0,-1,1462,1282,0,0
245,-258,0,0,0,0,0,0,0,0,0,-1,1469,1282,0,0
252,-258,0,0,0,0,0,0,0,0,0,-1,1476,1282,0,0
259,-258,0,0,0,0,0,0,0,0,0,-1,1483,1282,0,0
266,-258,0,0,0,0,0,0,0,0,0,-1,1490,1282,0,0
273,-258,0,0,0,0,0,0,0,0,0,-1,1497,1282,0,0
280,-258,0,0,0,0,0,0,0,0,0,-1,1504,1282,0,0
287,-258,0,0,0,0,0,0,0,0,0,-1,1511,1282,0,0
294,-258,0,0,0,0,0,0,0,0,0,-1,1518,1282,0,0
301,-258,0,0,0,0,0,0,0,0,0,-1,1525,1282,0,0
308,-258,0,0,0,0,0,0,0,0,0,-1,1532,1282,0,0
315,-258,0,0,0,0,0,0,0,0,0,-1,1539,1282,0,0
322,-258,0,0,0,0,0,0,0,0,0,-1,1546,1282,0,0
329,-258,0,0,0,0,0,0,0,0,0,-1,1553,1282,0,0
336,-258,0,0,0,0,0,0,0,0,0,-1,1560,1282,0,0
343,-258,0,0,0,0,0,0,0,0,0,-1,1567,1282,0,0
350,-258,0,0,0,0,0,0,0,0,0,-1,1574,1282,0,0
357,-258,0,0,0,0,0,0,0,0,0,-1,1581,1282,0,0
364,-258,0,0,0,0,0,0,0,0,0,-1,1588,1282,0,0
371,-258,0,0,0,0,0,0,0,0,0,-1,1595,1282,0,0
378,-258,0,0,0,0,0,0,0,0,0,-1,1602,1282,0,0
385,-258,0,0,0,0,0,0,0,0,0,-1,1609,1282,0,0
392,-258,0,0,0,0,0,0,0,0,0,-1,1616,1282,0,0
399,-258,0,0,0,0,0,0,0,0,0,-1,1623,1282,0,0
406,-258,0,0,0,0,0,0,0,0,0,-1,1630,1282,0,0
413,-258,0,0,0,0,0,0,0,0,0,-1,1637,1282,0,0
420,-258,0,0,0,0,0,0,0,0,0,-1,1644,1282,0,0
427,-258,0,0,0,0,0,0,0,0,0,-1,1651,1282,0,0
434,-258,0,0,0,0,0,0,0,0,0,-1,1658,1282,0,0
441,-258,0,0,0,0,0,0,0,0,0,-1,1665,1282,0,0
448,-258,0,0,0,0,0,0,0,0,0,-1,1672,1282,0,0
455,-258,0,0,0,0,0,0,0,0,0,-1,1679,1282,0,0
462,-258,0,0,0,0,0,0,0,0,0,-1,1686,1282,0,0
469,-258,0,0,0,0,0,0,0,0,0,-1,1693,1282,0,0
476,-258,0,0,0,0,0,0,0,0,0,-1,1700,1282,0,0
483,-258,0,0,0,0,0,0,0,0,0,-1,1707,1282,0,0
490,-258,0,0,0,0,0,0,0,0,0,-1,1714,1282,0,0
497,-258,0,0,0,0,0,0,0,0,0,-1,1721,1282,0,0
504,-258,0,0,0,0,0,0,0,0,0,-1,1728,1282,0,0
511,-258,0,0,0,0,0,0,0,0,0,-1,1735,1282,0,0
518,-258,0,0,0,0,0,0,0,0,0,-1,1742,1282,0,0
525,-258,0,0,0,0,0,0,0,0,0,-1,1749,1282,0,0
532,-258,0,0,0,0,0,0,0,0,0,-1,1756,1282,0,0
539,-258,0,0,0,0,0,0,0,0,0,-1,1763,1282,0,0
546,-258,0,0,0,0,0,0,0,0,0,-1,1770,1282,0,0
553,-258,0,0,0,0,0,0,0,0,0,-1,1777,1282,0,0
560,-258,0,0,0,0,0,0,0,0,0,-1,1784,1282,0,0
567,-258,0,0,0,0,0,0,0,0,0,-1,1791,1282,0,0
574,-258,0,0,0,0,0,0,0,0,0,-1,1798,1282,0,0
581,-258,0,0,0,0,0,0,0,0,0,-1,1805,1282,0,0
588,-258,0,0,0,0,0,0,0,0,0,-1,1812,1282,0,0
595,-258,0,0,0,0,0,0,0,0,0,-1,1819,1282,0,0
602,-258,0,0,0,0,0,0,0,0,0,-1,1826,1282,0,0
609,-258,56.1761,2.6178,-0.0015808,0.00701423,-0.00180978,0.00737975,-0.00194632,-1.37151,0.00568086,0.0255539,1833,1282,56.1762,-2.61784
616,-258,56.1329,2.64771,-0.00363883,0.0120624,-0.00293103,0.0125917,-0.00416814,-1.39213,0.0100754,0.0253864,1840,1282,56.1329,-2.64768
623,-258,56.0365,2.56555,-0.00470607,0.0153232,-0.00347915,0.0159103,-0.0052932,-1.40361,0.0127431,0.0365139,1847,1282,56.0365,-2.56556
630,-258,56.0164,2.3833,-0.00476843,0.0159106,-0.00334063,0.0164369,-0.0052947,-1.41454,0.0130849,0.0446312,1854,1282,56.0163,-2.38324
637,-258,55.9587,2.24475,0,0,0,0,0,0,0,-1,1861,1282,55.9587,-2.24471
644,-258,54.8489,2.25867,0,0,0,0,0,0,0,-1,1868,1282,54.8489,-2.25862
651,-258,54.5438,2.14331,0,0,0,0,0,0,0,-1,1875,1282,54.5438,-2.14328
658,-258,45.4424,3.1405,0,0,0,0,0,0,0,-1,1882,1282,45.4423,-3.14046
665,-258,35.4747,1.1864,0,0,0,0,0,0,0,-1,1889,1282,35.4747,-1.18637
672,-258,22.703,2.80957,0,0,0,0,0,0,0,-1,1896,1282,22.703,-2.80962
679,-258,26.8693,8.19543,0,0,0,0,0,0,0,-1,1903,1282,26.8692,-8.19548
686,-258,41.2397,11.3687,0,0,0,0,0,0,0,-1,1910,1282,41.2398,-11.3686
693,-258,41.1848,10.8164,0.00122654,0.00132315,-0.000281121,0.00156009,0.000989604,-0.870487,0.000911486,0.0152621,1917,1282,41.1848,-10.8164
700,-258,41.1359,10.2612,0.001228,0.000379897,-0.000308232,0.00132819,0.00027971,-0.314266,0.000808517,0.00921758,1924,1282,41.1359,-10.2612
707,-258,41.1229,9.72168,0.000650903,-0.000503014,-3.10726e-05,0.000651739,-0.00050385,-0.0269019,0.000668999,0.0109073,1931,1282,41.1229,-9.72164
714,-258,41.1188,9.18701,-0.000115811,-0.000615376,0.000828056,0.000499316,-0.0012305,0.638914,0.00102802,0.0118712,1938,1282,41.1188,-9.18701
721,-258,41.0902,8.63782,-0.000801608,-0.000758736,0.00179996,0.00101992,-0.00258026,0.791352,0.00214265,0.0195383,1945,1282,41.0902,-8.63781
728,-258,41.0411,8.14978,-0.0014695,-0.000979536,0.00284374,0.00162975,-0.00407879,0.828366,0.00339542,0.0192044,1952,1282,41.0412,-8.14972
735,-258,41.0555,7.61597,-0.00211257,-0.00126375,0.0039908,0.00232514,-0.00570146,0.838373,0.00476887,0.0175719,1959,1282,41.0555,-7.61596
742,-258,41.011,7.11438,-0.00263311,-0.00161158,0.00524882,0.00315127,-0.00739596,0.833901,0.00625166,0.0192064,1966,1282,41.011,-7.11437
749,-258,40.8594,6.7583,-0.00291252,-0.00192801,0.00657012,0.00416827,-0.0090088,0.82279,0.007777,0.040265,1973,1282,40.8593,-6.75824
756,-258,40.7382,6.27405,0,0,0,0,0,0,0,-1,1980,1282,40.7382,-6.27406
763,-258,39.3638,5.09753,0,0,0,0,0,0,0,-1,1987,1282,39.3638,-5.09751
770,-258,40.3713,4.08325,0,0,0,0,0,0,0,-1,1994,1282,40.3713,-4.08323
777,-258,31.912,4.83093,0,0,0,0,0,0,0,-1,2001,1282,31.912,-4.8309
784,-258,32.6525,6.43091,0,0,0,0,0,0,0,-1,2008,1282,32.6525,-6.43091
791,-258,0,0,0,0,0,0,0,0,0,-1,2015,1282,0,0
798,-258,0,0,0,0,0,0,0,0,0,-1,2022,1282,0,0
805,-258,0,0,0,0,0,0,0,0,0,-1,2029,1282,0,0
812,-258,0,0,0,0,0,0,0,0,0,-1,2036,1282,0,0
-700,-265,0,0,0,0,0,0,0,0,0,-1,524,1289,0,0
-693,-265,0,0,0,0,0,0,0,0,0,-1,531,1289,0,0
-686,-265,0,0,0,0,0,0,0,0,0,-1,538,1289,0,0
-679,-265,0,0,0,0,0,0,0,0,0,-1,545,1289,0,0
-672,-265,0,0,0,0,0,0,0,0,0,-1,552,1289,0,0
-665,-265,-35.2086,-0.556274,0,0,0,0,0,0,0,-1,559,1289,-35.2086,0.556237
-658,-265,-35.6984,-0.362793,0,0,0,0,0,0,0,-1,566,1289,-35.6984,0.362835
-651,-265,-36.0469,-0.512085,0,0,0,0,0,0,0,-1,573,1289,-36.0469,0.51209
-644,-265,-36.3206,-0.629395,0,0,0,0,0,0,0,-1,580,1289,-36.3206,0.629443
-637,-265,-36.59,-0.684814,0,0,0,0,0,0,0,-1,587,1289,-36.59,0.68479
-630,-265,-36.6934,-0.568481,0,0,0,0,0,0,0,-1,594,1289,-36.6934,0.568483
-623,-265,-25.4728,3.16541,0,0,0,0,0,0,0,-1,601,1289,-25.4728,-3.1654
-616,-265,-25.3956,3.8573,-0.00678596,0.0145296,0.0071967,0.0167318,-0.00898823,1.27383,0.0150722,0.0480661,608,1289,-25.3956,-3.85736
-609,-265,-25.3543,4.6073,-0.0037175,0.0101802,0.00527181,0.0119536,-0.00549095,1.24629,0.0102995,0.019985,615,1289,-25.3543,-4.6073
-602,-265,-25.3879,5.25867,-0.00170188,0.00687968,0.00376143,0.00829497,-0.00311716,1.21092,0.0068111,0.0153312,622,1289,-25.3879,-5.25868
-595,-265,-25.412,5.85803,-0.000315418,0.0043099,0.00255839,0.00544597,-0.00145149,1.1529,0.00419895,0.0126913,629,1289,-25.412,-5.85807
-588,-265,-25.4274,6.44031,0.000693899,0.00231776,0.00164989,0.00334468,-0.000333021,1.01406,0.00234868,0.0108228,636,1289,-25.4274,-6.44029
-581,-265,-25.4571,7.0072,0.00147401,0.000777019,0.000968398,0.00215471,9.63195e-05,0.612678,0.00140547,0.0134225,643,1289,-25.4571,-7.00716
-574,-265,-25.511,7.6084,0.00211229,-0.00036475,0.00049825,0.00220876,-0.000461215,0.191241,0.0016479,0.0147786,650,1289,-25.511,-7.6084
-567,-265,-25.5683,8.21472,0.00241236,-0.00109684,0.00028671,0.00243563,-0.00112011,0.0809865,0.00209922,0.0200667,657,1289,-25.5683,-8.21468
-560,-265,-25.5892,8.81396,0.00269808,-0.0014336,-0.000132354,0.00270231,-0.00143784,-0.0319903,0.00242719,0.0242164,664,1289,-25.5892,-8.81394
-553,-265,-25.4575,9.35034,0,0,0,0,0,0,0,-1,671,1289,-25.4575,-9.35034
-546,-265,-24.2283,10.2581,0,0,0,0,0,0,0,-1,678,1289,-24.2283,-10.258
-539,-265,-13.7668,6.39917,0,0,0,0,0,0,0,-1,685,1289,-13.7668,-6.39915
-532,-265,-8.53998,3.41467,0,0,0,0,0,0,0,-1,692,1289,-8.53996,-3.41473
-525,-265,-12.1317,0.514648,0,0,0,0,0,0,0,-1,699,1289,-12.1317,-0.514634
-518,-265,-24.1604,0.712402,0,0,0,0,0,0,0,-1,706,1289,-24.1604,-0.712425
-511,-265,-23.233,0.791626,0,0,0,0,0,0,0,-1,713,1289,-23.233,-0.791617
-504,-265,-22.3056,0.87085,0,0,0,0,0,0,0,-1,720,1289,-22.3056,-0.87081
-497,-265,-18.689,-0.278442,0,0,0,0,0,0,0,-1,727,1289,-18.689,0.278423
-490,-265,-15.1696,0.492676,0,0,0,0,0,0,0,-1,734,1289,-15.1696,-0.492688
-483,-265,0,0,0,0,0,0,0,0,0,-1,741,1289,0,0
-476,-265,0,0,0,0,0,0,0,0,0,-1,748,1289,0,0
-469,-265,0,0,0,0,0,0,0,0,0,-1,755,1289,0,0
-462,-265,0,0,0,0,0,0,0,0,0,-1,762,1289,0,0
-455,-265,0,0,0,0,0,0,0,0,0,-1,769,1289,0,0
-448,-265,0,0,0,0,0,0,0,0,0,-1,776,1289,0,0
-441,-265,0,0,0,0,0,0,0,0,0,-1,783,1289,0,0
-434,-265,0,0,0,0,0,0,0,0,0,-1,790,1289,0,0
-427,-265,0,0,0,0,0,0,0,0,0,-1,797,1289,0,0
-420,-265,0,0,0,0,0,0,0,0,0,-1,804,1289,0,0
-413,-265,0,0,0,0,0,0,0,0,0,-1,811,1289,0,0
-406,-265,0,0,0,0,0,0,0,0,0,-1,818,1289,0,0
-399,-265,0,0,0,0,0,0,0,0,0,-1,825,1289,0,0
-392,-265,0,0,0,0,0,0,0,0,0,-1,832,1289,0,0
-385,-265,0,0,0,0,0,0,0,0,0,-1,839,1289,0,0
-378,-265,0,0,0,0,0,0,0,0,0,-1,846,1289,0,0
-371,-265,0,0,0,0,0,0,0,0,0,-1,853,1289,0,0
-364,-265,0,0,0,0,0,0,0,0,0,-1,860,1289,0,0
-357,-265,0,0,0,0,0,0,0,0,0,-1,867,1289,0,0
-350,-265,0,0,0,0,0,0,0,0,0,-1,874,1289,0,0
-343,-265,0,0,0,0,0,0,0,0,0,-1,881,1289,0,0
-336,-265,0,0,0,0,0,0,0,0,0,-1,888,1289,0,0
-329,-265,0,0,0,0,0,0,0,0,0,-1,895,1289,0,0
-322,-265,0,0,0,0,0,0,0,0,0,-1,902,1289,0,0
-315,-265,0,0,0,0,0,0,0,0,0,-1,909,1289,0,0
-308,-265,0,0,0,0,0,0,0,0,0,-1,916,1289,0,0
-301,-265,0,0,0,0,0,0,0,0,0,-1,923,1289,0,0
-294,-265,0,0,0,0,0,0,0,0,0,-1,930,1289,0,0
-287,-265,0,0,0,0,0,0,0,0,0,-1,937,1289,0,0
-280,-265,0,0,0,0,0,0,0,0,0,-1,944,1289,0,0
-273,-265,0,0,0,0,0,0,0,0,0,-1,951,1289,0,0
-266,-265,0,0,0,0,0,0,0,0,0,-1,958,1289,0,0
-259,-265,0,0,0,0,0,0,0,0,0,-1,965,1289,0,0
-252,-265,0,0,0,0,0,0,0,0,0,-1,972,1289,0,0
-245,-265,0,0,0,0,0,0,0,0,0,-1,979,1289,0,0
-238,-265,0,0,0,0,0,0,0,0,0,-1,986,1289,0,0
-231,-265,0,0,0,0,0,0,0,0,0,-1,993,1289,0,0
-224,-265,0,0,0,0,0,0,0,0,0,-1,1000,1289,0,0
-217,-265,0,0,0,0,0,0,0,0,0,-1,1007,1289,0,0
-210,-265,0,0,0,0,0,0,0,0,0,-1,1014,1289,0,0
-203,-265,0,0,0,0,0,0,0,0,0,-1,1021,1289,0,0
-196,-265,0,0,0,0,0,0,0,0,0,-1,1028,1289,0,0
-189,-265,0,0,0,0,0,0,0,0,0,-1,1035,1289,0,0
-182,-265,0,0,0,0,0,0,0,0,0,-1,1042,1289,0,0
-175,-265,0,0,0,0,0,0,0,0,0,-1,1049,1289,0,0
-168,-265,0,0,0,0,0,0,0,0,0,-1,1056,1289,0,0
-161,-265,0,0,0,0,0,0,0,0,0,-1,1063,1289,0,0
-154,-265,0,0,0,0,0,0,0,0,0,-1,1070,1289,0,0
-147,-265,0,0,0,0,0,0,0,0,0,-1,1077,1289,0,0
-140,-265,0,0,0,0,0,0,0,0,0,-1,1084,1289,0,0
-133,-265,0,0,0,0,0,0,0,0,0,-1,1091,1289,0,0
-126,-265,0,0,0,0,0,0,0,0,0,-1,1098,1289,0,0
-119,-265,0,0,0,0,0,0,0,0,0,-1,1105,1289,0,0
-112,-265,0,0,0,0,0,0,0,0,0,-1,1112,1289,0,0
-105,-265,0,0,0,0,0,0,0,0,0,-1,1119,1289,0,0
-98,-265,0,0,0,0,0,0,0,0,0,-1,1126,1289,0,0
-91,-265,0,0,0,0,0,0,0,0,0,-1,1133,1289,0,0
-84,-265,0,0,0,0,0,0,0,0,0,-1,1140,1289,0,0
-77,-265,0,0,0,0,0,0,0,0,0,-1,1147,1289,0,0
-70,-265,0,0,0,0,0,0,0,0,0,-1,1154,1289,0,0
-63,-265,0,0,0,0,0,0,0,0,0,-1,1161,1289,0,0
-56,-265,0,0,0,0,0,0,0,0,0,-1,1168,1289,0,0
-49,-265,0,0,0,0,0,0,0,0,0,-1,1175,1289,0,0
-42,-265,0,0,0,0,0,0,0,0,0,-1,1182,1289,0,0
-35,-265,0,0,0,0,0,0,0,0,0,-1,1189,1289,0,0
-28,-265,0,0,0,0,0,0,0,0,0,-1,1196,1289,0,0
-21,-265,0,0,0,0,0,0,0,0,0,-1,1203,1289,0,0
-14,-265,0,0,0,0,0,0,0,0,0,-1,1210,1289,0,0
-7,-265,0,0,0,0,0,0,0,0,0,-1,1217,1289,0,0
0,-265,0,0,0,0,0,0,0,0,0,-1,1224,1289,0,0
7,-265,0,0,0,0,0,0,0,0,0,-1,1231,1289,0,0
14,-265,0,0,0,0,0,0,0,0,0,-1,1238,1289,0,0
21,-265,0,0,0,0,0,0,0,0,0,-1,1245,1289,0,0
28,-265,0,0,0,0,0,0,0,0,0,-1,1252,1289,0,0
35,-265,0,0,0,0,0,0,0,0,0,-1,1259,1289,0,0
42,-265,0,0,0,0,0,0,0,0,0,-1,1266,1289,0,0
49,-265,0,0,0,0,0,0,0,0,0,-1,1273,1289,0,0
56,-265,0,0,0,0,0,0,0,0,0,-1,1280,1289,0,0
63,-265,0,0,0,0,0,0,0,0,0,-1,1287,1289,0,0
70,-265,0,0,0,0,0,0,0,0,0,-1,1294,1289,0,0
77,-265,0,0,0,0,0,0,0,0,0,-1,1301,1289,0,0
84,-265,0,0,0,0,0,0,0,0,0,-1,1308,1289,0,0
91,-265,0,0,0,0,0,0,0,0,0,-1,1315,1289,0,0
98,-265,0,0,0,0,0,0,0,0,0,-1,1322,1289,0,0
105,-265,0,0,0,0,0,0,0,0,0,-1,1329,1289,0,0
112,-265,0,0,0,0,0,0,0,0,0,-1,1336,1289,0,0
119,-265,0,0,0,0,0,0,0,0,0,-1,1343,1289,0,0
126,-265,0,0,0,0,0,0,0,0,0,-1,1350,1289,0,0
133,-265,0,0,0,0,0,0,0,0,0,-1,1357,1289,0,0
140,-265,0,0,0,0,0,0,0,0,0,-1,1364,1289,0,0
147,-265,0,0,0,0,0,0,0,0,0,-1,1371,1289,0,0
154,-265,0,0,0,0,0,0,0,0,0,-1,1378,1289,0,0
161,-265,0,0,0,0,0,0,0,0,0,-1,1385,1289,0,0
168,-265,0,0,0,0,0,0,0,0,0,-1,1392,1289,0,0
175,-265,0,0,0,0,0,0,0,0,0,-1,1399,1289,0,0
182,-265,0,0,0,0,0,0,0,0,0,-1,1406,1289,0,0
189,-265,0,0,0,0,0,0,0,0,0,-1,1413,1289,0,0
196,-265,0,0,0,0,0,0,0,0,0,-1,1420,1289,0,0
203,-265,0,0,0,0,0,0,0,0,0,-1,1427,1289,0,0
210,-265,0,0,0,0,0,0,0,0,0,-1,1434,1289,0,0
217,-265,0,0,0,0,0,0,0,0,0,-1,1441,1289,0,0
224,-265,0,0,0,0,0,0,0,0,0,-1,1448,1289,0,0
231,-265,0,0,0,0,0,0,0,0,0,-1,1455,1289,0,0
238,-265,0,0,0,0,0,0,0,0,0,-1,1462,1289,0,0
245,-265,0,0,0,0,0,0,0,0,0,-1,1469,1289,0,0
252,-265,0,0,0,0,0,0,0,0,0,-1,1476,1289,0,0
259,-265,0,0,0,0,0,0,0,0,0,-1,1483,1289,0,0
266,-265,0,0,0,0,0,0,0,0,0,-1,1490,1289,0,0
273,-265,0,0,0,0,0,0,0,0,0,-1,1497,1289,0,0
280,-265,0,0,0,0,0,0,0,0,0,-1,1504,1289,0,0
287,-265,0,0,0,0,0,0,0,0,0,-1,1511,1289,0,0
294,-265,0,0,0,0,0,0,0,0,0,-1,1518,1289,0,0
301,-265,0,0,0,0,0,0,0,0,0,-1,1525,1289,0,0
308,-265,0,0,0,0,0,0,0,0,0,-1,1532,1289,0,0
315,-265,0,0,0,0,0,0,0,0,0,-1,1539,1289,0,0
322,-265,0,0,0,0,0,0,0,0,0,-1,1546,1289,0,0
329,-265,0,0,0,0,0,0,0,0,0,-1,1553,1289,0,0
336,-265,0,0,0,0,0,0,0,0,0,-1,1560,1289,0,0
343,-265,0,0,0,0,0,0,0,0,0,-1,1567,1289,0,0
350,-265,0,0,0,0,0,0,0,0,0,-1,1574,1289,0,0
357,-265,0,0,0,0,0,0,0,0,0,-1,1581,1289,0,0
364,-265,0,0,0,0,0,0,0,0,0,-1,1588,1289,0,0
371,-265,0,0,0,0,0,0,0,0,0,-1,1595,1289,0,0
378,-265,0,0,0,0,0,0,0,0,0,-1,1602,1289,0,0
385,-265,0,0,0,0,0,0,0,0,0,-1,1609,1289,0,0
392,-265,0,0,0,0,0,0,0,0,0,-1,1616,1289,0,0
399,-265,0,0,0,0,0,0,0,0,0,-1,1623,1289,0,0
406,-265,0,0,0,0,0,0,0,0,0,-1,1630,1289,0,0
413,-265,0,0,0,0,0,0,0,0,0,-1,1637,1289,0,0
420,-265,0,0,0,0,0,0,0,0,0,-1,1644,1289,0,0
427,-265,0,0,0,0,0,0,0,0,0,-1,1651,1289,0,0
434,-265,0,0,0,0,0,0,0,0,0,-1,1658,1289,0,0
441,-265,0,0,0,0,0,0,0,0,0,-1,1665,1289,0,0
448,-265,0,0,0,0,0,0,0,0,0,-1,1672,1289,0,0
455,-265,0,0,0,0,0,0,0,0,0,-1,1679,1289,0,0
462,-265,0,0,0,0,0,0,0,0,0,-1,1686,1289,0,0
469,-265,0,0,0,0,0,0,0,0,0,-1,1693,1289,0,0
476,-265,0,0,0,0,0,0,0,0,0,-1,1700,1289,0,0
483,-265,0,0,0,0,0,0,0,0,0,-1,1707,1289,0,0
490,-265,0,0,0,0,0,0,0,0,0,-1,1714,1289,0,0
497,-265,0,0,0,0,0,0,0,0,0,-1,1721,1289,0,0
504,-265,0,0,0,0,0,0,0,0,0,-1,1728,1289,0,0
511,-265,0,0,0,0,0,0,0,0,0,-1,1735,1289,0,0
518,-265,0,0,0,0,0,0,0,0,0,-1,1742,1289,0,0
525,-265,0,0,0,0,0,0,0,0,0,-1,1749,1289,0,0
532,-265,0,0,0,0,0,0,0,0,0,-1,1756,1289,0,0
539,-265,0,0,0,0,0,0,0,0,0,-1,1763,1289,0,0
546,-265,0,0,0,0,0,0,0,0,0,-1,1770,1289,0,0
553,-265,0,0,0,0,0,0,0,0,0,-1,1777,1289,0,0
560,-265,0,0,0,0,0,0,0,0,0,-1,1784,1289,0,0
567,-265,0,0,0,0,0,0,0,0,0,-1,1791,1289,0,0
574,-265,0,0,0,0,0,0,0,0,0,-1,1798,1289,0,0
581,-265,0,0,0,0,0,0,0,0,0,-1,1805,1289,0,0
588,-265,0,0,0,0,0,0,0,0,0,-1,1812,1289,0,0
595,-265,0,0,0,0,0,0,0,0,0,-1,1819,1289,0,0
602,-265,56.1013,2.64111,-0.000645842,0.00585274,-0.00109208,0.00603136,-0.000824455,-1.40868,0.00432201,0.02673,1826,1289,56.1013,-2.64111
609,-265,56.0895,2.60193,-0.00291434,0.0114223,-0.0028662,0.011974,-0.00346612,-1.38061,0.00935461,0.027482,1833,1289,56.0895,-2.60198
616,-265,56.1083,2.62915,-0.00469975,0.0165276,-0.00425151,0.0173475,-0.0055196,-1.3803,0.0137784,0.0336275,1840,1289,56.1083,-2.62912
623,-265,55.8126,2.05579,0,0,0,0,0,0,0,-1,1847,1289,55.8126,-2.05577
630,-265,55.821,2.07739,0,0,0,0,0,0,0,-1,1854,1289,55.821,-2.07743
637,-265,55.8293,2.09912,0,0,0,0,0,0,0,-1,1861,1289,55.8294,-2.09909
644,-265,54.0918,1.96826,0,0,0,0,0,0,0,-1,1868,1289,54.0918,-1.96829
651,-265,53.6781,1.57166,0,0,0,0,0,0,0,-1,1875,1289,53.6781,-1.57167
658,-265,41.7163,3.71619,0,0,0,0,0,0,0,-1,1882,1289,41.7163,-3.71624
665,-265,34.7902,1.43164,0,0,0,0,0,0,0,-1,1889,1289,34.7901,-1.43162
672,-265,20.0045,6.62671,0,0,0,0,0,0,0,-1,1896,1289,20.0045,-6.62668
679,-265,40.559,11.9752,0,0,0,0,0,0,0,-1,1903,1289,40.559,-11.9752
686,-265,40.5963,11.3833,0.000468677,0.00214986,-0.000403876,0.00224185,0.000376685,-1.34685,0.00138617,0.0399769,1910,1289,40.5964,-11.3833
693,-265,40.6226,10.8273,0.00100717,0.00113286,-0.000163789,0.00124545,0.000894582,-0.968587,0.000741548,0.0100016,1917,1289,40.6225,-10.8273
700,-265,40.5897,10.274,0.000938229,0.000273741,-6.1501e-05,0.000943874,0.000268097,-0.0915181,0.000561634,0.0102176,1924,1289,40.5898,-10.2741
707,-265,40.5751,9.72827,0.000389157,-0.000468142,0.000337809,0.000506269,-0.000585254,0.333714,0.000630741,0.0100593,1931,1289,40.5751,-9.72829
714,-265,40.5548,9.19177,-0.000272345,-0.000591764,0.00115988,0.000738767,-0.00160288,0.716981,0.00138229,0.0121773,1938,1289,40.5547,-9.19178
721,-265,40.5009,8.63477,-0.000901525,-0.000780217,0.0020852,0.00124521,-0.00292695,0.799938,0.00247317,0.0138056,1945,1289,40.5008,-8.63476
728,-265,40.4821,8.13635,-0.00157375,-0.00106742,0.00310314,0.00179286,-0.00443404,0.8261,0.00370133,0.0148644,1952,1289,40.482,-8.13639
735,-265,40.5249,7.63403,-0.00226905,-0.0014454,0.0042426,0.00240531,-0.00611977,0.833781,0.0050753,0.0178095,1959,1289,40.5249,-7.63399
742,-265,40.4958,7.14307,-0.00288581,-0.0019364,0.00552212,0.00313138,-0.00795359,0.828275,0.00659868,0.0221584,1966,1289,40.4959,-7.1431
749,-265,40.4749,6.71448,-0.00333754,-0.00244292,0.00688034,0.00400464,-0.0097851,0.817859,0.00819135,0.0473526,1973,1289,40.4748,-6.71445
756,-265,40.532,6.26794,0,0,0,0,0,0,0,-1,1980,1289,40.532,-6.268
763,-265,39.1299,4.9679,0,0,0,0,0,0,0,-1,1987,1289,39.1299,-4.96791
770,-265,35.1674,5.07715,0,0,0,0,0,0,0,-1,1994,1289,35.1673,-5.07718
777,-265,32.1664,5.3457,0,0,0,0,0,0,0,-1,2001,1289,32.1664,-5.34568
784,-265,0,0,0,0,0,0,0,0,0,-1,2008,1289,0,0
791,-265,0,0,0,0,0,0,0,0,0,-1,2015,1289,0,0
798,-265,0,0,0,0,0,0,0,0,0,-1,2022,1289,0,0
805,-265,0,0,0,0,0,0,0,0,0,-1,2029,1289,0,0
812,-265,0,0,0,0,0,0,0,0,0,-1,2036,1289,0,0
-700,-272,0,0,0,0,0,0,0,0,0,-1,524,1296,0,0
-693,-272,0,0,0,0,0,0,0,0,0,-1,531,1296,0,0
-686,-272,0,0,0,0,0,0,0,0,0,-1,538,1296,0,0
-679,-272,0,0,0,0,0,0,0,0,0,-1,545,1296,0,0
-672,-272,0,0,0,0,0,0,0,0,0,-1,552,1296,0,0
-665,-272,0,0,0,0,0,0,0,0,0,-1,559,1296,0,0
-658,-272,-36.5144,0.088501,0,0,0,0,0,0,0,-1,566,1296,-36.5144,-0.0884768
-651,-272,-36.4545,-0.0233154,0,0,0,0,0,0,0,-1,573,1296,-36.4545,0.023367
-644,-272,-37.3553,-1.27917,0,0,0,0,0,0,0,-1,580,1296,-37.3553,1.27916
-637,-272,-37.7366,-2.38599,0,0,0,0,0,0,0,-1,587,1296,-37.7366,2.38599
-630,-272,-37.0609,-0.684937,0,0,0,0,0,0,0,-1,594,1296,-37.0609,0.684889
-623,-272,-24.2695,2.94043,0,0,0,0,0,0,0,-1,601,1296,-24.2695,-2.94045
-616,-272,-24.6601,3.91675,0,0,0,0,0,0,0,-1,608,1296,-24.6601,-3.91671
-609,-272,-24.742,4.77649,-0.00264974,0.0110656,0.0061457,0.0134164,-0.00500062,1.20545,0.0109969,0.026242,615,1296,-24.742,-4.77645
-602,-272,-24.7765,5.26416,-0.000944599,0.00757359,0.00439903,0.00943752,-0.00280852,1.17002,0.00740751,0.0154212,622,1296,-24.7765,-5.26412
-595,-272,-24.8119,5.87134,0.000159926,0.00488434,0.00301493,0.00635226,-0.00130799,1.1177,0.00473149,0.0112903,629,1296,-24.8119,-5.87134
-588,-272,-24.831,6.46741,0.000919621,0.00282878,0.00197879,0.0040712,-0.000322805,1.01013,0.00282789,0.010018,636,1296,-24.831,-6.46737
-581,-272,-24.8743,7.04187,0.0015124,0.00122122,0.00121248,0.002588,0.000145627,0.725646,0.0016789,0.0101324,643,1296,-24.8743,-7.04188
-574,-272,-24.9355,7.63818,0.0021339,-7.20462e-05,0.000696348,0.00233533,-0.000273469,0.281572,0.00165559,0.0154562,650,1296,-24.9355,-7.63822
-567,-272,-24.9784,8.23059,0.00257309,-0.00090328,0.000444651,0.00262907,-0.000959253,0.125221,0.00214518,0.0207368,657,1296,-24.9784,-8.23053
-560,-272,-24.9951,8.82214,0.0030611,-0.00134496,0.000170635,0.00306769,-0.00135156,0.0386502,0.0026148,0.0201826,664,1296,-24.9951,-8.82211
-553,-272,-24.9156,9.40002,0.00382407,-0.0016175,6.10718e-05,0.00382475,-0.00161818,0.0112213,0.00322741,0.0263384,671,1296,-24.9157,-9.40006
-546,-272,-24.8872,10.1058,0,0,0,0,0,0,0,-1,678,1296,-24.8872,-10.1058
-539,-272,-24.1416,11.0325,0,0,0,0,0,0,0,-1,685,1296,-24.1416,-11.0324
-532,-272,-10.5572,4.53943,0,0,0,0,0,0,0,-1,692,1296,-10.5572,-4.53943
-525,-272,-11.9599,0.0393066,0,0,0,0,0,0,0,-1,699,1296,-11.9599,-0.0393577
-518,-272,-21.1357,-1.41382,0,0,0,0,0,0,0,-1,706,1296,-21.1357,1.41379
-511,-272,-23.2565,0.226318,0,0,0,0,0,0,0,-1,713,1296,-23.2565,-0.22626
-504,-272,-19.7397,0.114746,0,0,0,0,0,0,0,-1,720,1296,-19.7397,-0.114701
-497,-272,-19.2225,1.71301,0,0,0,0,0,0,0,-1,727,1296,-19.2225,-1.71302
-490,-272,-20.1948,2.4032,0,0,0,0,0,0,0,-1,734,1296,-20.1948,-2.40322
-483,-272,-15.3736,0.792603,0,0,0,0,0,0,0,-1,741,1296,-15.3736,-0.79263
-476,-272,0,0,0,0,0,0,0,0,0,-1,748,1296,0,0
-469,-272,0,0,0,0,0,0,0,0,0,-1,755,1296,0,0
-462,-272,0,0,0,0,0,0,0,0,0,-1,762,1296,0,0
-455,-272,0,0,0,0,0,0,0,0,0,-1,769,1296,0,0
-448,-272,0,0,0,0,0,0,0,0,0,-1,776,1296,0,0
-441,-272,0,0,0,0,0,0,0,0,0,-1,783,1296,0,0
-434,-272,0,0,0,0,0,0,0,0,0,-1,790,1296,0,0
-427,-272,0,0,0,0,0,0,0,0,0,-1,797,1296,0,0
-420,-272,0,0,0,0,0,0,0,0,0,-1,804,1296,0,0
-413,-272,0,0,0,0,0,0,0,0,0,-1,811,1296,0,0
-406,-272,0,0,0,0,0,0,0,0,0,-1,818,1296,0,0
-399,-272,0,0,0,0,0,0,0,0,0,-1,825,1296,0,0
-392,-272,0,0,0,0,0,0,0,0,0,-1,832,1296,0,0
-385,-272,0,0,0,0,0,0,0,0,0,-1,839,1296,0,0
-378,-272,0,0,0,0,0,0,0,0,0,-1,846,1296,0,0
-371,-272,0,0,0,0,0,0,0,0,0,-1,853,1296,0,0
-364,-272,0,0,0,0,0,0,0,0,0,-1,860,1296,0,0
-357,-272,0,0,0,0,0,0,0,0,0,-1,867,1296,0,0
-350,-272,0,0,0,0,0,0,0,0,0,-1,874,1296,0,0
-343,-272,0,0,0,0,0,0,0,0,0,-1,881,1296,0,0
-336,-272,0,0,0,0,0,0,0,0,0,-1,888,1296,0,0
-329,-272,0,0,0,0,0,0,0,0,0,-1,895,1296,0,0
-322,-272,0,0,0,0,0,0,0,0,0,-1,902,1296,0,0
-315,-272,0,0,0,0,0,0,0,0,0,-1,909,1296,0,0
-308,-272,0,0,0,0,0,0,0,0,0,-1,916,1296,0,0
-301,-272,0,0,0,0,0,0,0,0,0,-1,923,1296,0,0
-294,-272,0,0,0,0,0,0,0,0,0,-1,930,1296,0,0
-287,-272,0,0,0,0,0,0,0,0,0,-1,937,1296,0,0
-280,-272,0,0,0,0,0,0,0,0,0,-1,944,1296,0,0
-273,-272,0,0,0,0,0,0,0,0,0,-1,951,1296,0,0
-266,-272,0,0,0,0,0,0,0,0,0,-1,958,1296,0,0
-259,-272,0,0,0,0,0,0,0,0,0,-1,965,1296,0,0
-252,-272,0,0,0,0,0,0,0,0,0,-1,972,1296,0,0
-245,-272,0,0,0,0,0,0,0,0,0,-1,979,1296,0,0
-238,-272,0,0,0,0,0,0,0,0,0,-1,986,1296,0,0
-231,-272,0,0,0,0,0,0,0,0,0,-1,993,1296,0,0
-224,-272,0,0,0,0,0,0,0,0,0,-1,1000,1296,0,0
-217,-272,0,0,0,0,0,0,0,0,0,-1,1007,1296,0,0
-210,-272,0,0,0,0,0,0,0,0,0,-1,1014,1296,0,0
-203,-272,0,0,0,0,0,0,0,0,0,-1,1021,1296,0,0
-196,-272,0,0,0,0,0,0,0,0,0,-1,1028,1296,0,0
-189,-272,0,0,0,0,0,0,0,0,0,-1,1035,1296,0,0
-182,-272,0,0,0,0,0,0,0,0,0,-1,1042,1296,0,0
-175,-272,0,0,0,0,0,0,0,0,0,-1,1049,1296,0,0
-168,-272,0,0,0,0,0,0,0,0,0,-1,1056,1296,0,0
-161,-272,0,0,0,0,0,0,0,0,0,-1,1063,1296,0,0
-154,-272,0,0,0,0,0,0,0,0,0,-1,1070,1296,0,0
-147,-272,0,0,0,0,0,0,0,0,0,-1,1077,1296,0,0
-140,-272,0,0,0,0,0,0,0,0,0,-1,1084,1296,0,0
-133,-272,0,0,0,0,0,0,0,0,0,-1,1091,1296,0,0
-126,-272,0,0,0,0,0,0,0,0,0,-1,1098,1296,0,0
-119,-272,0,0,0,0,0,0,0,0,0,-1,1105,1296,0,0
-112,-272,0,0,0,0,0,0,0,0,0,-1,1112,1296,0,0
-105,-272,0,0,0,0,0,0,0,0,0,-1,1119,1296,0,0
-98,-272,0,0,0,0,0,0,0,0,0,-1,1126,1296,0,0
-91,-272,0,0,0,0,0,0,0,0,0,-1,1133,1296,0,0
-84,-272,0,0,0,0,0,0,0,0,0,-1,1140,1296,0,0
-77,-272,0,0,0,0,0,0,0,0,0,-1,1147,1296,0,0
-70,-272,0,0,0,0,0,0,0,0,0,-1,1154,1296,0,0
-63,-272,0,0,0,0,0,0,0,0,0,-1,1161,1296,0,0
-56,-272,0,0,0,0,0,0,0,0,0,-1,1168,1296,0,0
-49,-272,0,0,0,0,0,0,0,0,0,-1,1175,1296,0,0
-42,-272,0,0,0,0,0,0,0,0,0,-1,1182,1296,0,0
-35,-272,0,0,0,0,0,0,0,0,0,-1,1189,1296,0,0
-28,-272,0,0,0,0,0,0,0,0,0,-1,1196,1296,0,0
-21,-272,0,0,0,0,0,0,0,0,0,-1,1203,1296,0,0
-14,-272,0,0,0,0,0,0,0,0,0,-1,1210,1296,0,0
-7,-272,0,0,0,0,0,0,0,0,0,-1,1217,1296,0,0
0,-272,0,0,0,0,0,0,0,0,0,-1,1224,1296,0,0
7,-272,0,0,0,0,0,0,0,0,0,-1,1231,1296,0,0
14,-272,0,0,0,0,0,0,0,0,0,-1,1238,1296,0,0
21,-272,0,0,0,0,0,0,0,0,0,-1,1245,1296,0,0
28,-272,0,0,0,0,0,0,0,0,0,-1,1252,1296,0,0
35,-272,0,0,0,0,0,0,0,0,0,-1,1259,1296,0,0
42,-272,0,0,0,0,0,0,0,0,0,-1,1266,1296,0,0
49,-272,0,0,0,0,0,0,0,0,0,-1,1273,1296,0,0
56,-272,0,0,0,0,0,0,0,0,0,-1,1280,1296,0,0
63,-272,0,0,0,0,0,0,0,0,0,-1,1287,1296,0,0
70,-272,0,0,0,0,0,0,0,0,0,-1,1294,1296,0,0
77,-272,0,0,0,0,0,0,0,0,0,-1,1301,1296,0,0
84,-272,0,0,0,0,0,0,0,0,0,-1,1308,1296,0,0
91,-272,0,0,0,0,0,0,0,0,0,-1,1315,1296,0,0
98,-272,0,0,0,0,0,0,0,0,0,-1,1322,1296,0,0
105,-272,0,0,0,0,0,0,0,0,0,-1,1329,1296,0,0
112,-272,0,0,0,0,0,0,0,0,0,-1,1336,1296,0,0
119,-272,0,0,0,0,0,0,0,0,0,-1,1343,1296,0,0
126,-272,0,0,0,0,0,0,0,0,0,-1,1350,1296,0,0
133,-272,0,0,0,0,0,0,0,0,0,-1,1357,1296,0,0
140,-272,0,0,0,0,0,0,0,0,0,-1,1364,1296,0,0
147,-272,0,0,0,0,0,0,0,0,0,-1,1371,1296,0,0
154,-272,0,0,0,0,0,0,0,0,0,-1,1378,1296,0,0
161,-272,0,0,0,0,0,0,0,0,0,-1,1385,1296,0,0
168,-272,0,0,0,0,0,0,0,0,0,-1,1392,1296,0,0
175,-272,0,0,0,0,0,0,0,0,0,-1,1399,1296,0,0
182,-272,0,0,0,0,0,0,0,0,0,-1,1406,1296,0,0
189,-272,0,0,0,0,0,0,0,0,0,-1,1413,1296,0,0
196,-272,0,0,0,0,0,0,0,0,0,-1,1420,1296,0,0
203,-272,0,0,0,0,0,0,0,0,0,-1,1427,1296,0,0
210,-272,0,0,0,0,0,0,0,0,0,-1,1434,1296,0,0
217,-272,0,0,0,0,0,0,0,0,0,-1,1441,1296,0,0
224,-272,0,0,0,0,0,0,0,0,0,-1,1448,1296,0,0
231,-272,0,0,0,0,0,0,0,0,0,-1,1455,1296,0,0
238,-272,0,0,0,0,0,0,0,0,0,-1,1462,1296,0,0
245,-272,0,0,0,0,0,0,0,0,0,-1,1469,1296,0,0
252,-272,0,0,0,0,0,0,0,0,0,-1,1476,1296,0,0
259,-272,0,0,0,0,0,0,0,0,0,-1,1483,1296,0,0
266,-272,0,0,0,0,0,0,0,0,0,-1,1490,1296,0,0
273,-272,0,0,0,0,0,0,0,0,0,-1,1497,1296,0,0
280,-272,0,0,0,0,0,0,0,0,0,-1,1504,1296,0,0
287,-272,0,0,0,0,0,0,0,0,0,-1,1511,1296,0,0
294,-272,0,0,0,0,0,0,0,0,0,-1,1518,1296,0,0
301,-272,0,0,0,0,0,0,0,0,0,-1,1525,1296,0,0
308,-272,0,0,0,0,0,0,0,0,0,-1,1532,1296,0,0
315,-272,0,0,0,0,0,0,0,0,0,-1,1539,1296,0,0
322,-272,0,0,0,0,0,0,0,0,0,-1,1546,1296,0,0
329,-272,0,0,0,0,0,0,0,0,0,-1,1553,1296,0,0
336,-272,0,0,0,0,0,0,0,0,0,-1,1560,1296,0,0
343,-272,0,0,0,0,0,0,0,0,0,-1,1567,1296,0,0
350,-272,0,0,0,0,0,0,0,0,0,-1,1574,1296,0,0
357,-272,0,0,0,0,0,0,0,0,0,-1,1581,1296,0,0
364,-272,0,0,0,0,0,0,0,0,0,-1,1588,1296,0,0
371,-272,0,0,0,0,0,0,0,0,0,-1,1595,1296,0,0
378,-272,0,0,0,0,0,0,0,0,0,-1,1602,1296,0,0
385,-272,0,0,0,0,0,0,0,0,0,-1,1609,1296,0,0
392,-272,0,0,0,0,0,0,0,0,0,-1,1616,1296,0,0
399,-272,0,0,0,0,0,0,0,0,0,-1,1623,1296,0,0
406,-272,0,0,0,0,0,0,0,0,0,-1,1630,1296,0,0
413,-272,0,0,0,0,0,0,0,0,0,-1,1637,1296,0,0
420,-272,0,0,0,0,0,0,0,0,0,-1,1644,1296,0,0
427,-272,0,0,0,0,0,0,0,0,0,-1,1651,1296,0,0
434,-272,0,0,0,0,0,0,0,0,0,-1,1658,1296,0,0
441,-272,0,0,0,0,0,0,0,0,0,-1,1665,1296,0,0
448,-272,0,0,0,0,0,0,0,0,0,-1,1672,1296,0,0
455,-272,0,0,0,0,0,0,0,0,0,-1,1679,1296,0,0
462,-272,0,0,0,0,0,0,0,0,0,-1,1686,1296,0,0
469,-272,0,0,0,0,0,0,0,0,0,-1,1693,1296,0,0
476,-272,0,0,0,0,0,0,0,0,0,-1,1700,1296,0,0
483,-272,0,0,0,0,0,0,0,0,0,-1,1707,1296,0,0
490,-272,0,0,0,0,0,0,0,0,0,-1,1714,1296,0,0
497,-272,0,0,0,0,0,0,0,0,0,-1,1721,1296,0,0
504,-272,0,0,0,0,0,0,0,0,0,-1,1728,1296,0,0
511,-272,0,0,0,0,0,0,0,0,0,-1,1735,1296,0,0
518,-272,0,0,0,0,0,0,0,0,0,-1,1742,1296,0,0
525,-272,0,0,0,0,0,0,0,0,0,-1,1749,1296,0,0
532,-272,0,0,0,0,0,0,0,0,0,-1,1756,1296,0,0
539,-272,0,0,0,0,0,0,0,0,0,-1,1763,1296,0,0
546,-272,0,0,0,0,0,0,0,0,0,-1,1770,1296,0,0
553,-272,0,0,0,0,0,0,0,0,0,-1,1777,1296,0,0
560,-272,0,0,0,0,0,0,0,0,0,-1,1784,1296,0,0
567,-272,0,0,0,0,0,0,0,0,0,-1,1791,1296,0,0
574,-272,0,0,0,0,0,0,0,0,0,-1,1798,1296,0,0
581,-272,0,0,0,0,0,0,0,0,0,-1,1805,1296,0,0
588,-272,0,0,0,0,0,0,0,0,0,-1,1812,1296,0,0
595,-272,0,0,0,0,0,0,0,0,0,-1,1819,1296,0,0
602,-272,56.064,2.56787,-0.00190076,0.0107,-0.00286394,0.0113204,-0.00252114,-1.35747,0.00851266,0.0308019,1826,1296,56.064,-2.56788
609,-272,56.0531,2.50964,-0.0039358,0.0165861,-0.00489822,0.0176953,-0.00504498,-1.34811,0.0137897,0.0381078,1833,1296,56.053,-2.50962
616,-272,56.1166,2.48669,-0.0050231,0.0200525,-0.0059465,0.0213912,-0.0063618,-1.34936,0.0167882,0.0426671,1840,1296,56.1165,-2.48674
623,-272,55.6937,1.92969,-0.00478554,0.0183502,-0.00522307,0.0194747,-0.00591003,-1.35874,0.0153375,0.0436813,1847,1296,55.6937,-1.92965
630,-272,55.6796,1.6897,-0.00435855,0.0161058,-0.00435694,0.0169948,-0.00524754,-1.36952,0.0134254,0.04618,1854,1296,55.6795,-1.68965
637,-272,55.7975,1.68555,0,0,0,0,0,0,0,-1,1861,1296,55.7974,-1.68551
644,-272,53.563,1.44336,0,0,0,0,0,0,0,-1,1868,1296,53.5629,-1.4433
651,-272,41.9225,4.27161,0,0,0,0,0,0,0,-1,1875,1296,41.9225,-4.27157
658,-272,35.1527,2.10571,0,0,0,0,0,0,0,-1,1882,1296,35.1527,-2.10573
665,-272,22.0238,4.14417,0,0,0,0,0,0,0,-1,1889,1296,22.0238,-4.14421
672,-272,22.661,7.21765,0,0,0,0,0,0,0,-1,1896,1296,22.661,-7.21761
679,-272,40.0625,12.015,0,0,0,0,0,0,0,-1,1903,1296,40.0625,-12.0151
686,-272,40.0394,11.4434,0.000330308,0.00184429,-0.00035117,0.00192178,0.00025282,-1.35362,0.00120578,0.0269723,1910,1296,40.0394,-11.4433
693,-272,40.061,10.8662,0.000862302,0.000786472,-5.25917e-05,0.000889221,0.000759553,-0.473079,0.000554667,0.0117158,1917,1296,40.0611,-10.8662
700,-272,40.0433,10.308,0.000766877,2.6693e-05,0.000163197,0.000801262,-7.69171e-06,0.207657,0.000536757,0.0118973,1924,1296,40.0434,-10.308
707,-272,40.0253,9.76135,0.000274311,-0.000549584,0.000638046,0.000621839,-0.000897112,0.498746,0.000881754,0.0108096,1931,1296,40.0253,-9.76136
714,-272,39.9912,9.21521,-0.000327781,-0.000650007,0.00140766,0.000927958,-0.00190575,0.728419,0.00166819,0.0128582,1938,1296,39.9912,-9.21515
721,-272,39.9613,8.69971,-0.000988631,-0.000841999,0.00227884,0.0013647,-0.00319533,0.801479,0.00270253,0.016924,1945,1296,39.9613,-8.69971
728,-272,39.9695,8.14087,-0.00174194,-0.00114834,0.00326299,0.00183132,-0.0047216,0.830753,0.00390407,0.01799,1952,1296,39.9695,-8.14088
735,-272,39.9628,7.64954,-0.00257786,-0.00158194,0.00438431,0.00233259,-0.0064924,0.841945,0.00528042,0.0162681,1959,1296,39.9628,-7.64948
742,-272,39.8955,7.23828,-0.00341688,-0.00220271,0.00567867,0.00290124,-0.00852083,0.838649,0.00685542,0.0262623,1966,1296,39.8956,-7.23823
749,-272,39.8711,6.87451,-0.00425527,-0.00292221,0.00707087,0.00351347,-0.010691,0.832392,0.00854279,0.0473989,1973,1296,39.8711,-6.8745
756,-272,39.9691,6.55566,0,0,0,0,0,0,0,-1,1980,1296,39.9691,-6.55563
763,-272,34.3995,5.88416,0,0,0,0,0,0,0,-1,1987,1296,34.3996,-5.88419
770,-272,25.9485,3.67749,0,0,0,0,0,0,0,-1,1994,1296,25.9485,-3.67744
777,-272,32.3619,6.13257,0,0,0,0,0,0,0,-1,2001,1296,32.362,-6.1326
784,-272,0,0,0,0,0,0,0,0,0,-1,2008,1296,0,0
791,-272,0,0,0,0,0,0,0,0,0,-1,2015,1296,0,0
798,-272,0,0,0,0,0,0,0,0,0,-1,2022,1296,0,0
805,-272,0,0,0,0,0,0,0,0,0,-1,2029,1296,0,0
812,-272,0,0,0,0,0,0,0,0,0,-1,2036,1296,0,0
-700,-279,0,0,0,0,0,0,0,0,0,-1,524,1303,0,0
-693,-279,0,0,0,0,0,0,0,0,0,-1,531,1303,0,0
-686,-279,0,0,0,0,0,0,0,0,0,-1,538,1303,0,0
-679,-279,0,0,0,0,0,0,0,0,0,-1,545,1303,0,0
-672,-279,0,0,0,0,0,0,0,0,0,-1,552,1303,0,0
-665,-279,0,0,0,0,0,0,0,0,0,-1,559,1303,0,0
-658,-279,-37.5104,0.649658,0,0,0,0,0,0,0,-1,566,1303,-37.5105,-0.649669
-651,-279,-37.7213,0.227173,0,0,0,0,0,0,0,-1,573,1303,-37.7213,-0.227215
-644,-279,-37.8957,-0.373413,0,0,0,0,0,0,0,-1,580,1303,-37.8957,0.373419
-637,-279,-37.8995,-1.21082,0,0,0,0,0,0,0,-1,587,1303,-37.8995,1.21076
-630,-279,-37.8927,-1.96741,0,0,0,0,0,0,0,-1,594,1303,-37.8927,1.96745
-623,-279,-22.2665,2.68457,0,0,0,0,0,0,0,-1,601,1303,-22.2665,-2.68451
-616,-279,-24.978,3.76453,0,0,0,0,0,0,0,-1,608,1303,-24.978,-3.7645
-609,-279,-24.5216,4.54675,-0.00113001,0.0117692,0.00699184,0.0148319,-0.00419267,1.15794,0.0115422,0.047553,615,1303,-24.5216,-4.54675
-602,-279,-24.1588,5.27588,0.000147397,0.00813118,0.00501564,0.0105496,-0.00227101,1.12151,0.00789963,0.0158605,622,1303,-24.1588,-5.27593
-595,-279,-24.2163,5.8739,0.000895815,0.0053543,0.00346453,0.00724482,-0.000994708,1.07128,0.0051933,0.0104187,629,1303,-24.2163,-5.87385
-588,-279,-24.2397,6.47742,0.00135489,0.00325725,0.00232207,0.00481541,-0.000203266,0.979787,0.00328013,0.0107121,636,1303,-24.2398,-6.47743
-581,-279,-24.2853,7.05054,0.00171163,0.00162305,0.00149324,0.00316123,0.000173446,0.770572,0.00205212,0.0125859,643,1303,-24.2853,-7.05058
-574,-279,-24.3348,7.63977,0.00217345,0.00026843,0.000928466,0.0025511,-0.000109219,0.386308,0.00173828,0.0137351,650,1303,-24.3348,-7.63976
-567,-279,-24.3741,8.23462,0.00249479,-0.000630792,0.00061775,0.00261245,-0.000748456,0.188218,0.00203747,0.018064,657,1303,-24.3741,-8.23468
-560,-279,-24.3679,8.84375,0.00283408,-0.00123692,0.000454162,0.00288413,-0.00128697,0.109762,0.00246633,0.0171544,664,1303,-24.3679,-8.84369
-553,-279,-24.3511,9.44543,0.00344559,-0.00168115,0.000576926,0.00350971,-0.00174527,0.110688,0.00309044,0.0142888,671,1303,-24.3511,-9.4454
-546,-279,-24.3431,10.0817,0.00375569,-0.00217999,0.000580434,0.00381192,-0.00223622,0.0965682,0.00353117,0.0292507,678,1303,-24.3432,-10.0817
-539,-279,-24.6078,10.7911,0,0,0,0,0,0,0,-1,685,1303,-24.6078,-10.7912
-532,-279,-14.9813,7.89917,0,0,0,0,0,0,0,-1,692,1303,-14.9813,-7.89918
-525,-279,-11.7063,-0.539185,0,0,0,0,0,0,0,-1,699,1303,-11.7063,0.539166
-518,-279,-16.8138,1.11963,0,0,0,0,0,0,0,-1,706,1303,-16.8138,-1.11968
-511,-279,-20.1063,-1.37915,0,0,0,0,0,0,0,-1,713,1303,-20.1062,1.37918
-504,-279,-18.3766,1.04578,0,0,0,0,0,0,0,-1,720,1303,-18.3767,-1.04577
-497,-279,-19.0046,2.08911,0,0,0,0,0,0,0,-1,727,1303,-19.0046,-2.08905
-490,-279,-20.0176,2.55188,0,0,0,0,0,0,0,-1,734,1303,-20.0176,-2.55183
-483,-279,-20.8064,2.99792,0,0,0,0,0,0,0,-1,741,1303,-20.8064,-2.99797
-476,-279,0,0,0,0,0,0,0,0,0,-1,748,1303,0,0
-469,-279,0,0,0,0,0,0,0,0,0,-1,755,1303,0,0
-462,-279,0,0,0,0,0,0,0,0,0,-1,762,1303,0,0
-455,-279,0,0,0,0,0,0,0,0,0,-1,769,1303,0,0
-448,-279,0,0,0,0,0,0,0,0,0,-1,776,1303,0,0
-441,-279,0,0,0,0,0,0,0,0,0,-1,783,1303,0,0
-434,-279,0,0,0,0,0,0,0,0,0,-1,790,1303,0,0
-427,-279,0,0,0,0,0,0,0,0,0,-1,797,1303,0,0
-420,-279,0,0,0,0,0,0,0,0,0,-1,804,1303,0,0
-413,-279,0,0,0,0,0,0,0,0,0,-1,811,1303,0,0
-406,-279,0,0,0,0,0,0,0,0,0,-1,818,1303,0,0
-399,-279,0,0,0,0,0,0,0,0,0,-1,825,1303,0,0
-392,-279,0,0,0,0,0,0,0,0,0,-1,832,1303,0,0
-385,-279,0,0,0,0,0,0,0,0,0,-1,839,1303,0,0
-378,-279,0,0,0,0,0,0,0,0,0,-1,846,1303,0,0
-371,-279,0,0,0,0,0,0,0,0,0,-1,853,1303,0,0
-364,-279,0,0,0,0,0,0,0,0,0,-1,860,1303,0,0
-357,-279,0,0,0,0,0,0,0,0,0,-1,867,1303,0,0
-350,-279,0,0,0,0,0,0,0,0,0,-1,874,1303,0,0
-343,-279,0,0,0,0,0,0,0,0,0,-1,881,1303,0,0
-336,-279,0,0,0,0,0,0,0,0,0,-1,888,1303,0,0
-329,-279,0,0,0,0,0,0,0,0,0,-1,895,1303,0,0
-322,-279,0,0,0,0,0,0,0,0,0,-1,902,1303,0,0
-315,-279,0,0,0,0,0,0,0,0,0,-1,909,1303,0,0
-308,-279,0,0,0,0,0,0,0,0,0,-1,916,1303,0,0
-301,-279,0,0,0,0,0,0,0,0,0,-1,923,1303,0,0
-294,-279,0,0,0,0,0,0,0,0,0,-1,930,1303,0,0
-287,-279,0,0,0,0,0,0,0,0,0,-1,937,1303,0,0
-280,-279,0,0,0,0,0,0,0,0,0,-1,944,1303,0,0
-273,-279,0,0,0,0,0,0,0,0,0,-1,951,1303,0,0
-266,-279,0,0,0,0,0,0,0,0,0,-1,958,1303,0,0
-259,-279,0,0,0,0,0,0,0,0,0,-1,965,1303,0,0
-252,-279,0,0,0,0,0,0,0,0,0,-1,972,1303,0,0
-245,-279,0,0,0,0,0,0,0,0,0,-1,979,1303,0,0
-238,-279,0,0,0,0,0,0,0,0,0,-1,986,1303,0,0
-231,-279,0,0,0,0,0,0,0,0,0,-1,993,1303,0,0
-224,-279,0,0,0,0,0,0,0,0,0,-1,1000,1303,0,0
-217,-279,0,0,0,0,0,0,0,0,0,-1,1007,1303,0,0
-210,-279,0,0,0,0,0,0,0,0,0,-1,1014,1303,0,0
-203,-279,0,0,0,0,0,0,0,0,0,-1,1021,1303,0,0
-196,-279,0,0,0,0,0,0,0,0,0,-1,1028,1303,0,0
-189,-279,0,0,0,0,0,0,0,0,0,-1,1035,1303,0,0
-182,-279,0,0,0,0,0,0,0,0,0,-1,1042,1303,0,0
-175,-279,0,0,0,0,0,0,0,0,0,-1,1049,1303,0,0
-168,-279,0,0,0,0,0,0,0,0,0,-1,1056,1303,0,0
-161,-279,0,0,0,0,0,0,0,0,0,-1,1063,1303,0,0
-154,-279,0,0,0,0,0,0,0,0,0,-1,1070,1303,0,0
-147,-279,0,0,0,0,0,0,0,0,0,-1,1077,1303,0,0
-140,-279,0,0,0,0,0,0,0,0,0,-1,1084,1303,0,0
-133,-279,0,0,0,0,0,0,0,0,0,-1,1091,1303,0,0
-126,-279,0,0,0,0,0,0,0,0,0,-1,1098,1303,0,0
-119,-279,0,0,0,0,0,0,0,0,0,-1,1105,1303,0,0
-112,-279,0,0,0,0,0,0,0,0,0,-1,1112,1303,0,0
-105,-279,0,0,0,0,0,0,0,0,0,-1,1119,1303,0,0
-98,-279,0,0,0,0,0,0,0,0,0,-1,1126,1303,0,0
-91,-279,0,0,0,0,0,0,0,0,0,-1,1133,1303,0,0
-84,-279,0,0,0,0,0,0,0,0,0,-1,1140,1303,0,0
-77,-279,0,0,0,0,0,0,0,0,0,-1,1147,1303,0,0
-70,-279,0,0,0,0,0,0,0,0,0,-1,1154,1303,0,0
-63,-279,0,0,0,0,0,0,0,0,0,-1,1161,1303,0,0
-56,-279,0,0,0,0,0,0,0,0,0,-1,1168,1303,0,0
-49,-279,0,0,0,0,0,0,0,0,0,-1,1175,1303,0,0
-42,-279,0,0,0,0,0,0,0,0,0,-1,1182,1303,0,0
-35,-279,0,0,0,0,0,0,0,0,0,-1,1189,1303,0,0
-28,-279,0,0,0,0,0,0,0,0,0,-1,1196,1303,0,0
-21,-279,0,0,0,0,0,0,0,0,0,-1,1203,1303,0,0
-14,-279,0,0,0,0,0,0,0,0,0,-1,1210,1303,0,0
-7,-279,0,0,0,0,0,0,0,0,0,-1,1217,1303,0,0
0,-279,0,0,0,0,0,0,0,0,0,-1,1224,1303,0,0
7,-279,0,0,0,0,0,0,0,0,0,-1,1231,1303,0,0
14,-279,0,0,0,0,0,0,0,0,0,-1,1238,1303,0,0
21,-279,0,0,0,0,0,0,0,0,0,-1,1245,1303,0,0
28,-279,0,0,0,0,0,0,0,0,0,-1,1252,1303,0,0
35,-279,0,0,0,0,0,0,0,0,0,-1,1259,1303,0,0
42,-279,0,0,0,0,0,0,0,0,0,-1,1266,1303,0,0
49,-279,0,0,0,0,0,0,0,0,0,-1,1273,1303,0,0
56,-279,0,0,0,0,0,0,0,0,0,-1,1280,1303,0,0
63,-279,0,0,0,0,0,0,0,0,0,-1,1287,1303,0,0
70,-279,0,0,0,0,0,0,0,0,0,-1,1294,1303,0,0
77,-279,0,0,0,0,0,0,0,0,0,-1,1301,1303,0,0
84,-279,0,0,0,0,0,0,0,0,0,-1,1308,1303,0,0
91,-279,0,0,0,0,0,0,0,0,0,-1,1315,1303,0,0
98,-279,0,0,0,0,0,0,0,0,0,-1,1322,1303,0,0
105,-279,0,0,0,0,0,0,0,0,0,-1,1329,1303,0,0
112,-279,0,0,0,0,0,0,0,0,0,-1,1336,1303,0,0
119,-279,0,0,0,0,0,0,0,0,0,-1,1343,1303,0,0
126,-279,0,0,0,0,0,0,0,0,0,-1,1350,1303,0,0
133,-279,0,0,0,0,0,0,0,0,0,-1,1357,1303,0,0
140,-279,0,0,0,0,0,0,0,0,0,-1,1364,1303,0,0
147,-279,0,0,0,0,0,0,0,0,0,-1,1371,1303,0,0
154,-279,0,0,0,0,0,0,0,0,0,-1,1378,1303,0,0
161,-279,0,0,0,0,0,0,0,0,0,-1,1385,1303,0,0
168,-279,0,0,0,0,0,0,0,0,0,-1,1392,1303,0,0
175,-279,0,0,0,0,0,0,0,0,0,-1,1399,1303,0,0
182,-279,0,0,0,0,0,0,0,0,0,-1,1406,1303,0,0
189,-279,0,0,0,0,0,0,0,0,0,-1,1413,1303,0,0
196,-279,0,0,0,0,0,0,0,0,0,-1,1420,1303,0,0
203,-279,0,0,0,0,0,0,0,0,0,-1,1427,1303,0,0
210,-279,0,0,0,0,0,0,0,0,0,-1,1434,1303,0,0
217,-279,0,0,0,0,0,0,0,0,0,-1,1441,1303,0,0
224,-279,0,0,0,0,0,0,0,0,0,-1,1448,1303,0,0
231,-279,0,0,0,0,0,0,0,0,0,-1,1455,1303,0,0
238,-279,0,0,0,0,0,0,0,0,0,-1,1462,1303,0,0
245,-279,0,0,0,0,0,0,0,0,0,-1,1469,1303,0,0
252,-279,0,0,0,0,0,0,0,0,0,-1,1476,1303,0,0
259,-279,0,0,0,0,0,0,0,0,0,-1,1483,1303,0,0
266,-279,0,0,0,0,0,0,0,0,0,-1,1490,1303,0,0
273,-279,0,0,0,0,0,0,0,0,0,-1,1497,1303,0,0
280,-279,0,0,0,0,0,0,0,0,0,-1,1504,1303,0,0
287,-279,0,0,0,0,0,0,0,0,0,-1,1511,1303,0,0
294,-279,0,0,0,0,0,0,0,0,0,-1,1518,1303,0,0
301,-279,0,0,0,0,0,0,0,0,0,-1,1525,1303,0,0
308,-279,0,0,0,0,0,0,0,0,0,-1,1532,1303,0,0
315,-279,0,0,0,0,0,0,0,0,0,-1,1539,1303,0,0
322,-279,0,0,0,0,0,0,0,0,0,-1,1546,1303,0,0
329,-279,0,0,0,0,0,0,0,0,0,-1,1553,1303,0,0
336,-279,0,0,0,0,0,0,0,0,0,-1,1560,1303,0,0
343,-279,0,0,0,0,0,0,0,0,0,-1,1567,1303,0,0
350,-279,0,0,0,0,0,0,0,0,0,-1,1574,1303,0,0
357,-279,0,0,0,0,0,0,0,0,0,-1,1581,1303,0,0
364,-279,0,0,0,0,0,0,0,0,0,-1,1588,1303,0,0
371,-279,0,0,0,0,0,0,0,0,0,-1,1595,1303,0,0
378,-279,0,0,0,0,0,0,0,0,0,-1,1602,1303,0,0
385,-279,0,0,0,0,0,0,0,0,0,-1,1609,1303,0,0
392,-279,0,0,0,0,0,0,0,0,0,-1,1616,1303,0,0
399,-279,0,0,0,0,0,0,0,0,0,-1,1623,1303,0,0
406,-279,0,0,0,0,0,0,0,0,0,-1,1630,1303,0,0
413,-279,0,0,0,0,0,0,0,0,0,-1,1637,1303,0,0
420,-279,0,0,0,0,0,0,0,0,0,-1,1644,1303,0,0
427,-279,0,0,0,0,0,0,0,0,0,-1,1651,1303,0,0
434,-279,0,0,0,0,0,0,0,0,0,-1,1658,1303,0,0
441,-279,0,0,0,0,0,0,0,0,0,-1,1665,1303,0,0
448,-279,0,0,0,0,0,0,0,0,0,-1,1672,1303,0,0
455,-279,0,0,0,0,0,0,0,0,0,-1,1679,1303,0,0
462,-279,0,0,0,0,0,0,0,0,0,-1,1686,1303,0,0
469,-279,0,0,0,0,0,0,0,0,0,-1,1693,1303,0,0
476,-279,0,0,0,0,0,0,0,0,0,-1,1700,1303,0,0
483,-279,0,0,0,0,0,0,0,0,0,-1,1707,1303,0,0
490,-279,0,0,0,0,0,0,0,0,0,-1,1714,1303,0,0
497,-279,0,0,0,0,0,0,0,0,0,-1,1721,1303,0,0
504,-279,0,0,0,0,0,0,0,0,0,-1,1728,1303,0,0
511,-279,0,0,0,0,0,0,0,0,0,-1,1735,1303,0,0
518,-279,0,0,0,0,0,0,0,0,0,-1,1742,1303,0,0
525,-279,0,0,0,0,0,0,0,0,0,-1,1749,1303,0,0
532,-279,0,0,0,0,0,0,0,0,0,-1,1756,1303,0,0
539,-279,0,0,0,0,0,0,0,0,0,-1,1763,1303,0,0
546,-279,0,0,0,0,0,0,0,0,0,-1,1770,1303,0,0
553,-279,0,0,0,0,0,0,0,0,0,-1,1777,1303,0,0
560,-279,0,0,0,0,0,0,0,0,0,-1,1784,1303,0,0
567,-279,0,0,0,0,0,0,0,0,0,-1,1791,1303,0,0
574,-279,0,0,0,0,0,0,0,0,0,-1,1798,1303,0,0
581,-279,0,0,0,0,0,0,0,0,0,-1,1805,1303,0,0
588,-279,0,0,0,0,0,0,0,0,0,-1,1812,1303,0,0
595,-279,0,0,0,0,0,0,0,0,0,-1,1819,1303,0,0
602,-279,56.0344,2.45276,0,0,0,0,0,0,0,-1,1826,1303,56.0344,-2.4528
609,-279,55.994,2.4043,0,0,0,0,0,0,0,-1,1833,1303,55.994,-2.4043
616,-279,55.5605,1.60864,0,0,0,0,0,0,0,-1,1840,1303,55.5606,-1.6086
623,-279,55.6414,1.55713,-0.00410571,0.0173705,-0.00553398,0.0187126,-0.00544783,-1.33287,0.014633,0.04759,1847,1303,55.6413,-1.55715
630,-279,55.623,1.47192,-0.00373229,0.0150653,-0.00459174,0.016127,-0.00479396,-1.34358,0.0126557,0.047655,1854,1303,55.6231,-1.47197
637,-279,55.7283,1.41309,0,0,0,0,0,0,0,-1,1861,1303,55.7283,-1.41306
644,-279,33.5021,3.40234,0,0,0,0,0,0,0,-1,1868,1303,33.5021,-3.40237
651,-279,29.8456,2.3562,0,0,0,0,0,0,0,-1,1875,1303,29.8455,-2.35615
658,-279,21.5076,7.65649,0,0,0,0,0,0,0,-1,1882,1303,21.5076,-7.65648
665,-279,18.9794,6.09607,0,0,0,0,0,0,0,-1,1889,1303,18.9793,-6.09601
672,-279,23.5206,8.32507,0,0,0,0,0,0,0,-1,1896,1303,23.5206,-8.32512
679,-279,39.4016,11.986,0,0,0,0,0,0,0,-1,1903,1303,39.4017,-11.9859
686,-279,39.4651,11.4591,0.000594103,0.0012063,-0.000397833,0.00140217,0.000398238,-1.1133,0.000834337,0.0275105,1910,1303,39.4651,-11.4591
693,-279,39.4877,10.8893,0.00100676,0.000304792,-7.50849e-05,0.0010147,0.000296851,-0.105375,0.000602413,0.0167908,1917,1303,39.4877,-10.8893
700,-279,39.4869,10.3572,0.00082033,-0.000223983,0.000248417,0.000876411,-0.000280064,0.222031,0.000696654,0.0125897,1924,1303,39.487,-10.3572
707,-279,39.4581,9.80847,0.000333279,-0.000607497,0.000787065,0.000779808,-0.00105403,0.516054,0.0010627,0.00980894,1931,1303,39.4581,-9.80848
714,-279,39.4349,9.2489,-0.000264247,-0.000709095,0.00152862,0.00105805,-0.00203139,0.713152,0.00181296,0.0106126,1938,1303,39.4349,-9.24889
721,-279,39.463,8.70776,-0.000967589,-0.000932672,0.00238697,0.0014369,-0.00333716,0.789055,0.00282815,0.0147352,1945,1303,39.463,-8.70779
728,-279,39.4653,8.1886,-0.00179549,-0.0012917,0.00338292,0.00184869,-0.00493588,0.82256,0.00404999,0.016408,1952,1303,39.4653,-8.18865
735,-279,39.4012,7.677,-0.00276469,-0.00180988,0.00453458,0.00227235,-0.00684692,0.837845,0.00548138,0.0153569,1959,1303,39.4013,-7.67695
742,-279,39.3025,7.19775,-0.0038331,-0.0025992,0.00590957,0.00272553,-0.00915784,0.837409,0.00718809,0.0291411,1966,1303,39.3025,-7.19774
749,-279,39.2646,6.703,0,0,0,0,0,0,0,-1,1973,1303,39.2646,-6.70296
756,-279,23.2091,4.43433,0,0,0,0,0,0,0,-1,1980,1303,23.2092,-4.43432
763,-279,27.1613,3.46265,0,0,0,0,0,0,0,-1,1987,1303,27.1613,-3.4627
770,-279,21.5828,3.54199,0,0,0,0,0,0,0,-1,1994,1303,21.5827,-3.54198
777,-279,32.5369,6.99609,0,0,0,0,0,0,0,-1,2001,1303,32.5369,-6.99608
784,-279,0,0,0,0,0,0,0,0,0,-1,2008,1303,0,0
791,-279,0,0,0,0,0,0,0,0,0,-1,2015,1303,0,0
798,-279,0,0,0,0,0,0,0,0,0,-1,2022,1303,0,0
805,-279,0,0,0,0,0,0,0,0,0,-1,2029,1303,0,0
812,-279,0,0,0,0,0,0,0,0,0,-1,2036,1303,0,0
-700,-286,0,0,0,0,0,0,0,0,0,-1,524,1310,0,0
-693,-286,0,0,0,0,0,0,0,0,0,-1,531,1310,0,0
-686,-286,0,0,0,0,0,0,0,0,0,-1,538,1310,0,0
-679,-286,0,0,0,0,0,0,0,0,0,-1,545,1310,0,0
-672,-286,0,0,0,0,0,0,0,0,0,-1,552,1310,0,0
-665,-286,0,0,0,0,0,0,0,0,0,-1,559,1310,0,0
-658,-286,-38.3453,0.977295,0,0,0,0,0,0,0,-1,566,1310,-38.3453,-0.977338
-651,-286,-38.598,0.329712,0,0,0,0,0,0,0,-1,573,1310,-38.598,-0.329668
-644,-286,-38.4286,0.334717,0,0,0,0,0,0,0,-1,580,1310,-38.4286,-0.334716
-637,-286,-38.3278,-0.351196,0,0,0,0,0,0,0,-1,587,1310,-38.3278,0.351213
-630,-286,-38.5034,-1.13623,0,0,0,0,0,0,0,-1,594,1310,-38.5034,1.13617
-623,-286,-20.1415,-1.72998,0,0,0,0,0,0,0,-1,601,1310,-20.1415,1.72995
-616,-286,-22.0634,2.37744,0,0,0,0,0,0,0,-1,608,1310,-22.0633,-2.37746
-609,-286,-23.7374,4.49646,0,0,0,0,0,0,0,-1,615,1310,-23.7374,-4.49649
-602,-286,-23.6138,5.24365,0.00136884,0.0083565,0.00547756,0.0113596,-0.00163429,1.06929,0.00817251,0.0222102,622,1310,-23.6139,-5.2436
-595,-286,-23.6486,5.90747,0.00170567,0.005567,0.00377579,0.0078771,-0.000604429,1.02173,0.00546403,0.0130041,629,1310,-23.6485,-5.90748
-588,-286,-23.6766,6.4928,0.00183025,0.00351068,0.00255132,0.00535657,-1.56462e-05,0.944467,0.00357628,0.0134118,636,1310,-23.6766,-6.49284
-581,-286,-23.6678,7.06116,0.00194528,0.0019454,0.00169533,0.00364067,0.000250013,0.785417,0.00234822,0.0153218,643,1310,-23.6678,-7.06113
-574,-286,-23.7078,7.64819,0.00222832,0.000645003,0.00111525,0.00280433,6.89963e-05,0.476745,0.00184698,0.0156819,650,1310,-23.7078,-7.64822
-567,-286,-23.7422,8.26501,0.00242578,-0.000213863,0.000780888,0.00263949,-0.000427572,0.267133,0.00191814,0.0148945,657,1310,-23.7422,-8.26506
-560,-286,-23.7476,8.88147,0.00266739,-0.000866986,0.000669829,0.00279007,-0.000989672,0.181153,0.00226325,0.0141824,664,1310,-23.7476,-8.8815
-553,-286,-23.7501,9.49316,0.00319872,-0.0013433,0.000870229,0.00335974,-0.00150433,0.182966,0.00287557,0.0100368,671,1310,-23.7501,-9.49319
-546,-286,-23.7572,10.1396,0.00359911,-0.00177706,0.00109925,0.00381519,-0.00199313,0.194093,0.00340799,0.0215588,678,1310,-23.7572,-10.1396
-539,-286,-23.7069,10.6724,0,0,0,0,0,0,0,-1,685,1310,-23.7069,-10.6724
-532,-286,-21.6771,10.4924,0,0,0,0,0,0,0,-1,692,1310,-21.6771,-10.4924
-525,-286,-11.4528,-1.11768,0,0,0,0,0,0,0,-1,699,1310,-11.4528,1.11769
-518,-286,-11.0701,1.37329,0,0,0,0,0,0,0,-1,706,1310,-11.0701,-1.37332
-511,-286,-17.7545,-0.0791016,0,0,0,0,0,0,0,-1,713,1310,-17.7544,0.0791606
-504,-286,-18.0455,1.29602,0,0,0,0,0,0,0,-1,720,1310,-18.0455,-1.29601
-497,-286,-18.3367,2.67114,0,0,0,0,0,0,0,-1,727,1310,-18.3366,-2.67118
-490,-286,-19.5795,2.47266,0,0,0,0,0,0,0,-1,734,1310,-19.5795,-2.4727
-483,-286,-19.7277,2.74744,0,0,0,0,0,0,0,-1,741,1310,-19.7277,-2.74747
-476,-286,-20.0391,3.06177,0,0,0,0,0,0,0,-1,748,1310,-20.0391,-3.06178
-469,-286,0,0,0,0,0,0,0,0,0,-1,755,1310,0,0
-462,-286,0,0,0,0,0,0,0,0,0,-1,762,1310,0,0
-455,-286,0,0,0,0,0,0,0,0,0,-1,769,1310,0,0
-448,-286,0,0,0,0,0,0,0,0,0,-1,776,1310,0,0
-441,-286,0,0,0,0,0,0,0,0,0,-1,783,1310,0,0
-434,-286,0,0,0,0,0,0,0,0,0,-1,790,1310,0,0
-427,-286,0,0,0,0,0,0,0,0,0,-1,797,1310,0,0
-420,-286,0,0,0,0,0,0,0,0,0,-1,804,1310,0,0
-413,-286,0,0,0,0,0,0,0,0,0,-1,811,1310,0,0
-406,-286,0,0,0,0,0,0,0,0,0,-1,818,1310,0,0
-399,-286,0,0,0,0,0,0,0,0,0,-1,825,1310,0,0
-392,-286,0,0,0,0,0,0,0,0,0,-1,832,1310,0,0
-385,-286,0,0,0,0,0,0,0,0,0,-1,839,1310,0,0
-378,-286,0,0,0,0,0,0,0,0,0,-1,846,1310,0,0
-371,-286,0,0,0,0,0,0,0,0,0,-1,853,1310,0,0
-364,-286,0,0,0,0,0,0,0,0,0,-1,860,1310,0,0
-357,-286,0,0,0,0,0,0,0,0,0,-1,867,1310,0,0
-350,-286,0,0,0,0,0,0,0,0,0,-1,874,1310,0,0
-343,-286,0,0,0,0,0,0,0,0,0,-1,881,1310,0,0
-336,-286,0,0,0,0,0,0,0,0,0,-1,888,1310,0,0
-329,-286,0,0,0,0,0,0,0,0,0,-1,895,1310,0,0
-322,-286,0,0,0,0,0,0,0,0,0,-1,902,1310,0,0
-315,-286,0,0,0,0,0,0,0,0,0,-1,909,1310,0,0
-308,-286,0,0,0,0,0,0,0,0,0,-1,916,1310,0,0
-301,-286,0,0,0,0,0,0,0,0,0,-1,923,1310,0,0
-294,-286,0,0,0,0,0,0,0,0,0,-1,930,1310,0,0
-287,-286,0,0,0,0,0,0,0,0,0,-1,937,1310,0,0
-280,-286,0,0,0,0,0,0,0,0,0,-1,944,1310,0,0
-273,-286,0,0,0,0,0,0,0,0,0,-1,951,1310,0,0
-266,-286,0,0,0,0,0,0,0,0,0,-1,958,1310,0,0
-259,-286,0,0,0,0,0,0,0,0,0,-1,965,1310,0,0
-252,-286,0,0,0,0,0,0,0,0,0,-1,972,1310,0,0
-245,-286,0,0,0,0,0,0,0,0,0,-1,979,1310,0,0
-238,-286,0,0,0,0,0,0,0,0,0,-1,986,1310,0,0
-231,-286,0,0,0,0,0,0,0,0,0,-1,993,1310,0,0
-224,-286,0,0,0,0,0,0,0,0,0,-1,1000,1310,0,0
-217,-286,0,0,0,0,0,0,0,0,0,-1,1007,1310,0,0
-210,-286,0,0,0,0,0,0,0,0,0,-1,1014,1310,0,0
-203,-286,0,0,0,0,0,0,0,0,0,-1,1021,1310,0,0
-196,-286,0,0,0,0,0,0,0,0,0,-1,1028,1310,0,0
-189,-286,0,0,0,0,0,0,0,0,0,-1,1035,1310,0,0
-182,-286,0,0,0,0,0,0,0,0,0,-1,1042,1310,0,0
-175,-286,0,0,0,0,0,0,0,0,0,-1,1049,1310,0,0
-168,-286,0,0,0,0,0,0,0,0,0,-1,1056,1310,0,0
-161,-286,0,0,0,0,0,0,0,0,0,-1,1063,1310,0,0
-154,-286,0,0,0,0,0,0,0,0,0,-1,1070,1310,0,0
-147,-286,0,0,0,0,0,0,0,0,0,-1,1077,1310,0,0
-140,-286,0,0,0,0,0,0,0,0,0,-1,1084,1310,0,0
-133,-286,0,0,0,0,0,0,0,0,0,-1,1091,1310,0,0
-126,-286,0,0,0,0,0,0,0,0,0,-1,1098,1310,0,0
-119,-286,0,0,0,0,0,0,0,0,0,-1,1105,1310,0,0
-112,-286,0,0,0,0,0,0,0,0,0,-1,1112,1310,0,0
-105,-286,0,0,0,0,0,0,0,0,0,-1,1119,1310,0,0
-98,-286,0,0,0,0,0,0,0,0,0,-1,1126,1310,0,0
-91,-286,0,0,0,0,0,0,0,0,0,-1,1133,1310,0,0
-84,-286,0,0,0,0,0,0,0,0,0,-1,1140,1310,0,0
-77,-286,0,0,0,0,0,0,0,0,0,-1,1147,1310,0,0
-70,-286,0,0,0,0,0,0,0,0,0,-1,1154,1310,0,0
-63,-286,0,0,0,0,0,0,0,0,0,-1,1161,1310,0,0
-56,-286,0,0,0,0,0,0,0,0,0,-1,1168,1310,0,0
-49,-286,0,0,0,0,0,0,0,0,0,-1,1175,1310,0,0
-42,-286,0,0,0,0,0,0,0,0,0,-1,1182,1310,0,0
-35,-286,0,0,0,0,0,0,0,0,0,-1,1189,1310,0,0
-28,-286,0,0,0,0,0,0,0,0,0,-1,1196,1310,0,0
-21,-286,0,0,0,0,0,0,0,0,0,-1,1203,1310,0,0
-14,-286,0,0,0,0,0,0,0,0,0,-1,1210,1310,0,0
-7,-286,0,0,0,0,0,0,0,0,0,-1,1217,1310,0,0
0,-286,0,0,0,0,0,0,0,0,0,-1,1224,1310,0,0
7,-286,0,0,0,0,0,0,0,0,0,-1,1231,1310,0,0
14,-286,0,0,0,0,0,0,0,0,0,-1,1238,1310,0,0
21,-286,0,0,0,0,0,0,0,0,0,-1,1245,1310,0,0
28,-286,0,0,0,0,0,0,0,0,0,-1,1252,1310,0,0
35,-286,0,0,0,0,0,0,0,0,0,-1,1259,1310,0,0
42,-286,0,0,0,0,0,0,0,0,0,-1,1266,1310,0,0
49,-286,0,0,0,0,0,0,0,0,0,-1,1273,1310,0,0
56,-286,0,0,0,0,0,0,0,0,0,-1,1280,1310,0,0
63,-286,0,0,0,0,0,0,0,0,0,-1,1287,1310,0,0
70,-286,0,0,0,0,0,0,0,0,0,-1,1294,1310,0,0
77,-286,0,0,0,0,0,0,0,0,0,-1,1301,1310,0,0
84,-286,0,0,0,0,0,0,0,0,0,-1,1308,1310,0,0
91,-286,0,0,0,0,0,0,0,0,0,-1,1315,1310,0,0
98,-286,0,0,0,0,0,0,0,0,0,-1,1322,1310,0,0
105,-286,0,0,0,0,0,0,0,0,0,-1,1329,1310,0,0
112,-286,0,0,0,0,0,0,0,0,0,-1,1336,1310,0,0
119,-286,0,0,0,0,0,0,0,0,0,-1,1343,1310,0,0
126,-286,0,0,0,0,0,0,0,0,0,-1,1350,1310,0,0
133,-286,0,0,0,0,0,0,0,0,0,-1,1357,1310,0,0
140,-286,0,0,0,0,0,0,0,0,0,-1,1364,1310,0,0
147,-286,0,0,0,0,0,0,0,0,0,-1,1371,1310,0,0
154,-286,0,0,0,0,0,0,0,0,0,-1,1378,1310,0,0
161,-286,0,0,0,0,0,0,0,0,0,-1,1385,1310,0,0
168,-286,0,0,0,0,0,0,0,0,0,-1,1392,1310,0,0
175,-286,0,0,0,0,0,0,0,0,0,-1,1399,1310,0,0
182,-286,0,0,0,0,0,0,0,0,0,-1,1406,1310,0,0
189,-286,0,0,0,0,0,0,0,0,0,-1,1413,1310,0,0
196,-286,0,0,0,0,0,0,0,0,0,-1,1420,1310,0,0
203,-286,0,0,0,0,0,0,0,0,0,-1,1427,1310,0,0
210,-286,0,0,0,0,0,0,0,0,0,-1,1434,1310,0,0
217,-286,0,0,0,0,0,0,0,0,0,-1,1441,1310,0,0
224,-286,0,0,0,0,0,0,0,0,0,-1,1448,1310,0,0
231,-286,0,0,0,0,0,0,0,0,0,-1,1455,1310,0,0
238,-286,0,0,0,0,0,0,0,0,0,-1,1462,1310,0,0
245,-286,0,0,0,0,0,0,0,0,0,-1,1469,1310,0,0
252,-286,0,0,0,0,0,0,0,0,0,-1,1476,1310,0,0
259,-286,0,0,0,0,0,0,0,0,0,-1,1483,1310,0,0
266,-286,0,0,0,0,0,0,0,0,0,-1,1490,1310,0,0
273,-286,0,0,0,0,0,0,0,0,0,-1,1497,1310,0,0
280,-286,0,0,0,0,0,0,0,0,0,-1,1504,1310,0,0
287,-286,0,0,0,0,0,0,0,0,0,-1,1511,1310,0,0
294,-286,0,0,0,0,0,0,0,0,0,-1,1518,1310,0,0
301,-286,0,0,0,0,0,0,0,0,0,-1,1525,1310,0,0
308,-286,0,0,0,0,0,0,0,0,0,-1,1532,1310,0,0
315,-286,0,0,0,0,0,0,0,0,0,-1,1539,1310,0,0
322,-286,0,0,0,0,0,0,0,0,0,-1,1546,1310,0,0
329,-286,0,0,0,0,0,0,0,0,0,-1,1553,1310,0,0
336,-286,0,0,0,0,0,0,0,0,0,-1,1560,1310,0,0
343,-286,0,0,0,0,0,0,0,0,0,-1,1567,1310,0,0
350,-286,0,0,0,0,0,0,0,0,0,-1,1574,1310,0,0
357,-286,0,0,0,0,0,0,0,0,0,-1,1581,1310,0,0
364,-286,0,0,0,0,0,0,0,0,0,-1,1588,1310,0,0
371,-286,0,0,0,0,0,0,0,0,0,-1,1595,1310,0,0
378,-286,0,0,0,0,0,0,0,0,0,-1,1602,1310,0,0
385,-286,0,0,0,0,0,0,0,0,0,-1,1609,1310,0,0
392,-286,0,0,0,0,0,0,0,0,0,-1,1616,1310,0,0
399,-286,0,0,0,0,0,0,0,0,0,-1,1623,1310,0,0
406,-286,0,0,0,0,0,0,0,0,0,-1,1630,1310,0,0
413,-286,0,0,0,0,0,0,0,0,0,-1,1637,1310,0,0
420,-286,0,0,0,0,0,0,0,0,0,-1,1644,1310,0,0
427,-286,0,0,0,0,0,0,0,0,0,-1,1651,1310,0,0
434,-286,0,0,0,0,0,0,0,0,0,-1,1658,1310,0,0
441,-286,0,0,0,0,0,0,0,0,0,-1,1665,1310,0,0
448,-286,0,0,0,0,0,0,0,0,0,-1,1672,1310,0,0
455,-286,0,0,0,0,0,0,0,0,0,-1,1679,1310,0,0
462,-286,0,0,0,0,0,0,0,0,0,-1,1686,1310,0,0
469,-286,0,0,0,0,0,0,0,0,0,-1,1693,1310,0,0
476,-286,0,0,0,0,0,0,0,0,0,-1,1700,1310,0,0
483,-286,0,0,0,0,0,0,0,0,0,-1,1707,1310,0,0
490,-286,0,0,0,0,0,0,0,0,0,-1,1714,1310,0,0
497,-286,0,0,0,0,0,0,0,0,0,-1,1721,1310,0,0
504,-286,0,0,0,0,0,0,0,0,0,-1,1728,1310,0,0
511,-286,0,0,0,0,0,0,0,0,0,-1,1735,1310,0,0
518,-286,0,0,0,0,0,0,0,0,0,-1,1742,1310,0,0
525,-286,0,0,0,0,0,0,0,0,0,-1,1749,1310,0,0
532,-286,0,0,0,0,0,0,0,0,0,-1,1756,1310,0,0
539,-286,0,0,0,0,0,0,0,0,0,-1,1763,1310,0,0
546,-286,0,0,0,0,0,0,0,0,0,-1,1770,1310,0,0
553,-286,0,0,0,0,0,0,0,0,0,-1,1777,1310,0,0
560,-286,0,0,0,0,0,0,0,0,0,-1,1784,1310,0,0
567,-286,0,0,0,0,0,0,0,0,0,-1,1791,1310,0,0
574,-286,0,0,0,0,0,0,0,0,0,-1,1798,1310,0,0
581,-286,0,0,0,0,0,0,0,0,0,-1,1805,1310,0,0
588,-286,0,0,0,0,0,0,0,0,0,-1,1812,1310,0,0
595,-286,55.6378,2.91431,0,0,0,0,0,0,0,-1,1819,1310,55.6379,-2.91437
602,-286,56.0153,2.28162,0,0,0,0,0,0,0,-1,1826,1310,56.0152,-2.28162
609,-286,55.8938,1.09875,0,0,0,0,0,0,0,-1,1833,1310,55.8938,-1.09877
616,-286,55.9348,1.11951,0,0,0,0,0,0,0,-1,1840,1310,55.9348,-1.11957
623,-286,55.7385,1.32117,0,0,0,0,0,0,0,-1,1847,1310,55.7385,-1.32116
630,-286,55.5763,1.22412,0,0,0,0,0,0,0,-1,1854,1310,55.5763,-1.2241
637,-286,47.8409,3.69824,0,0,0,0,0,0,0,-1,1861,1310,47.841,-3.69823
644,-286,25.6433,1.33862,0,0,0,0,0,0,0,-1,1868,1310,25.6433,-1.33858
651,-286,25.2507,1.88245,0,0,0,0,0,0,0,-1,1875,1310,25.2508,-1.88245
658,-286,25.9475,9.43689,0,0,0,0,0,0,0,-1,1882,1310,25.9475,-9.43693
665,-286,24.9838,8.03101,0,0,0,0,0,0,0,-1,1889,1310,24.9837,-8.03104
672,-286,39.2749,12.3563,0,0,0,0,0,0,0,-1,1896,1310,39.2749,-12.3563
679,-286,38.9833,12.0265,0,0,0,0,0,0,0,-1,1903,1310,38.9832,-12.0264
686,-286,38.9755,11.4698,0.000901073,0.000492339,-0.000439278,0.0011812,0.000212215,-0.567673,0.000727123,0.0218413,1910,1310,38.9755,-11.4699
693,-286,38.9467,10.929,0.00110459,-0.000112573,-8.83009e-05,0.00111096,-0.000118945,-0.0720438,0.000783306,0.0166301,1917,1310,38.9467,-10.9289
700,-286,38.932,10.3722,0.000831866,-0.000384088,0.000305349,0.000904237,-0.00045646,0.232718,0.000799652,0.0124249,1924,1310,38.9319,-10.3721
707,-286,38.9077,9.84253,0.000364989,-0.000600128,0.000866667,0.000874385,-0.00110952,0.531374,0.00114809,0.00922428,1931,1310,38.9077,-9.84257
714,-286,38.8892,9.2865,-0.000202874,-0.000719741,0.00158336,0.00114301,-0.00206562,0.704502,0.00187786,0.00923284,1938,1310,38.8892,-9.28653
721,-286,38.8986,8.74451,-0.000878717,-0.000963404,0.00242466,0.00150397,-0.00334609,0.776667,0.00286672,0.0125135,1945,1310,38.8985,-8.7445
728,-286,38.8713,8.20947,-0.00171519,-0.00137005,0.00343912,0.00190082,-0.00498606,0.810466,0.00410699,0.0159416,1952,1310,38.8713,-8.20952
735,-286,38.8799,7.67041,-0.00272897,-0.00196127,0.0046339,0.00230465,-0.00699489,0.826721,0.00559208,0.0184649,1959,1310,38.8799,-7.67043
742,-286,38.8567,7.20801,-0.00389795,-0.00290214,0.00611727,0.00273746,-0.00953755,0.826005,0.00744064,0.0422852,1966,1310,38.8567,-7.20803
749,-286,38.959,6.70129,0,0,0,0,0,0,0,-1,1973,1310,38.9589,-6.70132
756,-286,24.8226,4.43481,0,0,0,0,0,0,0,-1,1980,1310,24.8227,-4.43479
763,-286,20.6671,3.99683,0,0,0,0,0,0,0,-1,1987,1310,20.6671,-3.99683
770,-286,23.9147,4.45679,0,0,0,0,0,0,0,-1,1994,1310,23.9146,-4.45675
777,-286,0,0,0,0,0,0,0,0,0,-1,2001,1310,0,0
784,-286,0,0,0,0,0,0,0,0,0,-1,2008,1310,0,0
791,-286,0,0,0,0,0,0,0,0,0,-1,2015,1310,0,0
798,-286,0,0,0,0,0,0,0,0,0,-1,2022,1310,0,0
805,-286,0,0,0,0,0,0,0,0,0,-1,2029,1310,0,0
812,-286,0,0,0,0,0,0,0,0,0,-1,2036,1310,0,0
-700,-293,0,0,0,0,0,0,0,0,0,-1,524,1317,0,0
-693,-293,0,0,0,0,0,0,0,0,0,-1,531,1317,0,0
-686,-293,0,0,0,0,0,0,0,0,0,-1,538,1317,0,0
-679,-293,0,0,0,0,0,0,0,0,0,-1,545,1317,0,0
-672,-293,0,0,0,0,0,0,0,0,0,-1,552,1317,0,0
-665,-293,0,0,0,0,0,0,0,0,0,-1,559,1317,0,0
-658,-293,0,0,0,0,0,0,0,0,0,-1,566,1317,0,0
-651,-293,-38.4809,1.63257,0,0,0,0,0,0,0,-1,573,1317,-38.4809,-1.63252
-644,-293,-38.8182,0.873047,0,0,0,0,0,0,0,-1,580,1317,-38.8183,-0.873024
-637,-293,-38.7209,0.0534668,0,0,0,0,0,0,0,-1,587,1317,-38.7209,-0.0534282
-630,-293,-24.5684,-3.7887,0,0,0,0,0,0,0,-1,594,1317,-24.5684,3.78869
-623,-293,-15.6058,0.229614,0,0,0,0,0,0,0,-1,601,1317,-15.6058,-0.229666
-616,-293,-15.5056,2.17737,0,0,0,0,0,0,0,-1,608,1317,-15.5055,-2.17742
-609,-293,-22.9199,4.26501,0,0,0,0,0,0,0,-1,615,1317,-22.9199,-4.26502
-602,-293,-22.8885,5.11707,0.00299104,0.00855147,0.00588423,0.0122792,-0.000736723,1.0061,0.00844245,0.0487509,622,1317,-22.8886,-5.11703
-595,-293,-23.076,5.90967,0.00283823,0.00575473,0.00400644,0.00856005,3.29036e-05,0.959934,0.00569577,0.0207869,629,1317,-23.076,-5.90973
-588,-293,-23.0853,6.52258,0.00257361,0.00374626,0.00267301,0.0058965,0.000423371,0.893362,0.00379775,0.0168281,636,1317,-23.0853,-6.52258
-581,-293,-23.0643,7.10315,0.00241985,0.00226458,0.00176979,0.00411371,0.000570723,0.76348,0.00257341,0.0197199,643,1317,-23.0643,-7.10319
-574,-293,-23.0861,7.70264,0.00248071,0.00104266,0.00115453,0.00312181,0.000401564,0.506895,0.0019611,0.0178258,650,1317,-23.0861,-7.7026
-567,-293,-23.1364,8.31982,0.00251666,0.000233225,0.00079569,0.00276658,-1.66899e-05,0.304329,0.00184997,0.0163622,657,1317,-23.1364,-8.31981
-560,-293,-23.154,8.93127,0.00267349,-0.000394284,0.000691419,0.00282212,-0.000542915,0.211744,0.00208607,0.0158129,664,1317,-23.154,-8.93125
-553,-293,-23.1494,9.52246,0.00317233,-0.000803717,0.000888102,0.00336168,-0.000993068,0.210064,0.00263527,0.0108335,671,1317,-23.1494,-9.52246
-546,-293,-23.1798,10.1538,0.00382341,-0.000964442,0.00129974,0.00415349,-0.00129452,0.2487,0.00328661,0.0138178,678,1317,-23.1798,-10.1538
-539,-293,-23.0605,10.759,0.00492968,-0.00123879,0.00215238,0.00560646,-0.00191557,0.304645,0.00451375,0.0424783,685,1317,-23.0605,-10.759
-532,-293,-22.8571,11.3134,0,0,0,0,0,0,0,-1,692,1317,-22.8571,-11.3134
-525,-293,-8.20642,3.62256,0,0,0,0,0,0,0,-1,699,1317,-8.20639,-3.6226
-518,-293,-10.1053,0.314209,0,0,0,0,0,0,0,-1,706,1317,-10.1053,-0.314234
-511,-293,-11.6276,0.235352,0,0,0,0,0,0,0,-1,713,1317,-11.6276,-0.235372
-504,-293,-17.9086,1.25427,0,0,0,0,0,0,0,-1,720,1317,-17.9086,-1.25423
-497,-293,-18.8006,1.62122,0,0,0,0,0,0,0,-1,727,1317,-18.8006,-1.62119
-490,-293,-18.8961,1.99255,0,0,0,0,0,0,0,-1,734,1317,-18.8961,-1.99251
-483,-293,-19.0831,2.35498,0,0,0,0,0,0,0,-1,741,1317,-19.0831,-2.35497
-476,-293,-19.5228,2.61243,0,0,0,0,0,0,0,-1,748,1317,-19.5228,-2.61237
-469,-293,0,0,0,0,0,0,0,0,0,-1,755,1317,0,0
-462,-293,0,0,0,0,0,0,0,0,0,-1,762,1317,0,0
-455,-293,0,0,0,0,0,0,0,0,0,-1,769,1317,0,0
-448,-293,0,0,0,0,0,0,0,0,0,-1,776,1317,0,0
-441,-293,0,0,0,0,0,0,0,0,0,-1,783,1317,0,0
-434,-293,0,0,0,0,0,0,0,0,0,-1,790,1317,0,0
-427,-293,0,0,0,0,0,0,0,0,0,-1,797,1317,0,0
-420,-293,0,0,0,0,0,0,0,0,0,-1,804,1317,0,0
-413,-293,0,0,0,0,0,0,0,0,0,-1,811,1317,0,0
-406,-293,0,0,0,0,0,0,0,0,0,-1,818,1317,0,0
-399,-293,0,0,0,0,0,0,0,0,0,-1,825,1317,0,0
-392,-293,0,0,0,0,0,0,0,0,0,-1,832,1317,0,0
-385,-293,0,0,0,0,0,0,0,0,0,-1,839,1317,0,0
-378,-293,0,0,0,0,0,0,0,0,0,-1,846,1317,0,0
-371,-293,0,0,0,0,0,0,0,0,0,-1,853,1317,0,0
-364,-293,0,0,0,0,0,0,0,0,0,-1,860,1317,0,0
-357,-293,0,0,0,0,0,0,0,0,0,-1,867,1317,0,0
-350,-293,0,0,0,0,0,0,0,0,0,-1,874,1317,0,0
-343,-293,0,0,0,0,0,0,0,0,0,-1,881,1317,0,0
-336,-293,0,0,0,0,0,0,0,0,0,-1,888,1317,0,0
-329,-293,0,0,0,0,0,0,0,0,0,-1,895,1317,0,0
-322,-293,0,0,0,0,0,0,0,0,0,-1,902,1317,0,0
-315,-293,0,0,0,0,0,0,0,0,0,-1,909,1317,0,0
-308,-293,0,0,0,0,0,0,0,0,0,-1,916,1317,0,0
-301,-293,0,0,0,0,0,0,0,0,0,-1,923,1317,0,0
-294,-293,0,0,0,0,0,0,0,0,0,-1,930,1317,0,0
-287,-293,0,0,0,0,0,0,0,0,0,-1,937,1317,0,0
-280,-293,0,0,0,0,0,0,0,0,0,-1,944,1317,0,0
-273,-293,0,0,0,0,0,0,0,0,0,-1,951,1317,0,0
-266,-293,0,0,0,0,0,0,0,0,0,-1,958,1317,0,0
-259,-293,0,0,0,0,0,0,0,0,0,-1,965,1317,0,0
-252,-293,0,0,0,0,0,0,0,0,0,-1,972,1317,0,0
-245,-293,0,0,0,0,0,0,0,0,0,-1,979,1317,0,0
-238,-293,0,0,0,0,0,0,0,0,0,-1,986,1317,0,0
-231,-293,0,0,0,0,0,0,0,0,0,-1,993,1317,0,0
-224,-293,0,0,0,0,0,0,0,0,0,-1,1000,1317,0,0
-217,-293,0,0,0,0,0,0,0,0,0,-1,1007,1317,0,0
-210,-293,0,0,0,0,0,0,0,0,0,-1,1014,1317,0,0
-203,-293,0,0,0,0,0,0,0,0,0,-1,1021,1317,0,0
-196,-293,0,0,0,0,0,0,0,0,0,-1,1028,1317,0,0
-189,-293,0,0,0,0,0,0,0,0,0,-1,1035,1317,0,0
-182,-293,0,0,0,0,0,0,0,0,0,-1,1042,1317,0,0
-175,-293,0,0,0,0,0,0,0,0,0,-1,1049,1317,0,0
-168,-293,0,0,0,0,0,0,0,0,0,-1,1056,1317,0,0
-161,-293,0,0,0,0,0,0,0,0,0,-1,1063,1317,0,0
-154,-293,0,0,0,0,0,0,0,0,0,-1,1070,1317,0,0
-147,-293,0,0,0,0,0,0,0,0,0,-1,1077,1317,0,0
-140,-293,0,0,0,0,0,0,0,0,0,-1,1084,1317,0,0
-133,-293,0,0,0,0,0,0,0,0,0,-1,1091,1317,0,0
-126,-293,0,0,0,0,0,0,0,0,0,-1,1098,1317,0,0
-119,-293,0,0,0,0,0,0,0,0,0,-1,1105,1317,0,0
-112,-293,0,0,0,0,0,0,0,0,0,-1,1112,1317,0,0
-105,-293,0,0,0,0,0,0,0,0,0,-1,1119,1317,0,0
-98,-293,0,0,0,0,0,0,0,0,0,-1,1126,1317,0,0
-91,-293,0,0,0,0,0,0,0,0,0,-1,1133,1317,0,0
-84,-293,0,0,0,0,0,0,0,0,0,-1,1140,1317,0,0
-77,-293,0,0,0,0,0,0,0,0,0,-1,1147,1317,0,0
-70,-293,0,0,0,0,0,0,0,0,0,-1,1154,1317,0,0
-63,-293,0,0,0,0,0,0,0,0,0,-1,1161,1317,0,0
-56,-293,0,0,0,0,0,0,0,0,0,-1,1168,1317,0,0
-49,-293,0,0,0,0,0,0,0,0,0,-1,1175,1317,0,0
-42,-293,0,0,0,0,0,0,0,0,0,-1,1182,1317,0,0
-35,-293,0,0,0,0,0,0,0,0,0,-1,1189,1317,0,0
-28,-293,0,0,0,0,0,0,0,0,0,-1,1196,1317,0,0
-21,-293,0,0,0,0,0,0,0,0,0,-1,1203,1317,0,0
-14,-293,0,0,0,0,0,0,0,0,0,-1,1210,1317,0,0
-7,-293,0,0,0,0,0,0,0,0,0,-1,1217,1317,0,0
0,-293,0,0,0,0,0,0,0,0,0,-1,1224,1317,0,0
7,-293,0,0,0,0,0,0,0,0,0,-1,1231,1317,0,0
14,-293,0,0,0,0,0,0,0,0,0,-1,1238,1317,0,0
21,-293,0,0,0,0,0,0,0,0,0,-1,1245,1317,0,0
28,-293,0,0,0,0,0,0,0,0,0,-1,1252,1317,0,0
35,-293,0,0,0,0,0,0,0,0,0,-1,1259,1317,0,0
42,-293,0,0,0,0,0,0,0,0,0,-1,1266,1317,0,0
49,-293,0,0,0,0,0,0,0,0,0,-1,1273,1317,0,0
56,-293,0,0,0,0,0,0,0,0,0,-1,1280,1317,0,0
63,-293,0,0,0,0,0,0,0,0,0,-1,1287,1317,0,0
70,-293,0,0,0,0,0,0,0,0,0,-1,1294,1317,0,0
77,-293,0,0,0,0,0,0,0,0,0,-1,1301,1317,0,0
84,-293,0,0,0,0,0,0,0,0,0,-1,1308,1317,0,0
91,-293,0,0,0,0,0,0,0,0,0,-1,1315,1317,0,0
98,-293,0,0,0,0,0,0,0,0,0,-1,1322,1317,0,0
105,-293,0,0,0,0,0,0,0,0,0,-1,1329,1317,0,0
112,-293,0,0,0,0,0,0,0,0,0,-1,1336,1317,0,0
119,-293,0,0,0,0,0,0,0,0,0,-1,1343,1317,0,0
126,-293,0,0,0,0,0,0,0,0,0,-1,1350,1317,0,0
133,-293,0,0,0,0,0,0,0,0,0,-1,1357,1317,0,0
140,-293,0,0,0,0,0,0,0,0,0,-1,1364,1317,0,0
147,-293,0,0,0,0,0,0,0,0,0,-1,1371,1317,0,0
154,-293,0,0,0,0,0,0,0,0,0,-1,1378,1317,0,0
161,-293,0,0,0,0,0,0,0,0,0,-1,1385,1317,0,0
168,-293,0,0,0,0,0,0,0,0,0,-1,1392,1317,0,0
175,-293,0,0,0,0,0,0,0,0,0,-1,1399,1317,0,0
182,-293,0,0,0,0,0,0,0,0,0,-1,1406,1317,0,0
189,-293,0,0,0,0,0,0,0,0,0,-1,1413,1317,0,0
196,-293,0,0,0,0,0,0,0,0,0,-1,1420,1317,0,0
203,-293,0,0,0,0,0,0,0,0,0,-1,1427,1317,0,0
210,-293,0,0,0,0,0,0,0,0,0,-1,1434,1317,0,0
217,-293,0,0,0,0,0,0,0,0,0,-1,1441,1317,0,0
224,-293,0,0,0,0,0,0,0,0,0,-1,1448,1317,0,0
231,-293,0,0,0,0,0,0,0,0,0,-1,1455,1317,0,0
238,-293,0,0,0,0,0,0,0,0,0,-1,1462,1317,0,0
245,-293,0,0,0,0,0,0,0,0,0,-1,1469,1317,0,0
252,-293,0,0,0,0,0,0,0,0,0,-1,1476,1317,0,0
259,-293,0,0,0,0,0,0,0,0,0,-1,1483,1317,0,0
266,-293,0,0,0,0,0,0,0,0,0,-1,1490,1317,0,0
273,-293,0,0,0,0,0,0,0,0,0,-1,1497,1317,0,0
280,-293,0,0,0,0,0,0,0,0,0,-1,1504,1317,0,0
287,-293,0,0,0,0,0,0,0,0,0,-1,1511,1317,0,0
294,-293,0,0,0,0,0,0,0,0,0,-1,1518,1317,0,0
301,-293,0,0,0,0,0,0,0,0,0,-1,1525,1317,0,0
308,-293,0,0,0,0,0,0,0,0,0,-1,1532,1317,0,0
315,-293,0,0,0,0,0,0,0,0,0,-1,1539,1317,0,0
322,-293,0,0,0,0,0,0,0,0,0,-1,1546,1317,0,0
329,-293,0,0,0,0,0,0,0,0,0,-1,1553,1317,0,0
336,-293,0,0,0,0,0,0,0,0,0,-1,1560,1317,0,0
343,-293,0,0,0,0,0,0,0,0,0,-1,1567,1317,0,0
350,-293,0,0,0,0,0,0,0,0,0,-1,1574,1317,0,0
357,-293,0,0,0,0,0,0,0,0,0,-1,1581,1317,0,0
364,-293,0,0,0,0,0,0,0,0,0,-1,1588,1317,0,0
371,-293,0,0,0,0,0,0,0,0,0,-1,1595,1317,0,0
378,-293,0,0,0,0,0,0,0,0,0,-1,1602,1317,0,0
385,-293,0,0,0,0,0,0,0,0,0,-1,1609,1317,0,0
392,-293,0,0,0,0,0,0,0,0,0,-1,1616,1317,0,0
399,-293,0,0,0,0,0,0,0,0,0,-1,1623,1317,0,0
406,-293,0,0,0,0,0,0,0,0,0,-1,1630,1317,0,0
413,-293,0,0,0,0,0,0,0,0,0,-1,1637,1317,0,0
420,-293,0,0,0,0,0,0,0,0,0,-1,1644,1317,0,0
427,-293,0,0,0,0,0,0,0,0,0,-1,1651,1317,0,0
434,-293,0,0,0,0,0,0,0,0,0,-1,1658,1317,0,0
441,-293,0,0,0,0,0,0,0,0,0,-1,1665,1317,0,0
448,-293,0,0,0,0,0,0,0,0,0,-1,1672,1317,0,0
455,-293,0,0,0,0,0,0,0,0,0,-1,1679,1317,0,0
462,-293,0,0,0,0,0,0,0,0,0,-1,1686,1317,0,0
469,-293,0,0,0,0,0,0,0,0,0,-1,1693,1317,0,0
476,-293,0,0,0,0,0,0,0,0,0,-1,1700,1317,0,0
483,-293,0,0,0,0,0,0,0,0,0,-1,1707,1317,0,0
490,-293,0,0,0,0,0,0,0,0,0,-1,1714,1317,0,0
497,-293,0,0,0,0,0,0,0,0,0,-1,1721,1317,0,0
504,-293,0,0,0,0,0,0,0,0,0,-1,1728,1317,0,0
511,-293,0,0,0,0,0,0,0,0,0,-1,1735,1317,0,0
518,-293,0,0,0,0,0,0,0,0,0,-1,1742,1317,0,0
525,-293,0,0,0,0,0,0,0,0,0,-1,1749,1317,0,0
532,-293,0,0,0,0,0,0,0,0,0,-1,1756,1317,0,0
539,-293,0,0,0,0,0,0,0,0,0,-1,1763,1317,0,0
546,-293,0,0,0,0,0,0,0,0,0,-1,1770,1317,0,0
553,-293,0,0,0,0,0,0,0,0,0,-1,1777,1317,0,0
560,-293,0,0,0,0,0,0,0,0,0,-1,1784,1317,0,0
567,-293,0,0,0,0,0,0,0,0,0,-1,1791,1317,0,0
574,-293,0,0,0,0,0,0,0,0,0,-1,1798,1317,0,0
581,-293,0,0,0,0,0,0,0,0,0,-1,1805,1317,0,0
588,-293,0,0,0,0,0,0,0,0,0,-1,1812,1317,0,0
595,-293,55.863,2.84778,0,0,0,0,0,0,0,-1,1819,1317,55.8631,-2.84781
602,-293,56.0088,2.59009,0,0,0,0,0,0,0,-1,1826,1317,56.0088,-2.59004
609,-293,54.4138,1.64404,0,0,0,0,0,0,0,-1,1833,1317,54.4138,-1.64401
616,-293,55.9896,0.774536,0,0,0,0,0,0,0,-1,1840,1317,55.9896,-0.774581
623,-293,55.7289,1.06189,0,0,0,0,0,0,0,-1,1847,1317,55.7289,-1.06191
630,-293,46.6716,3.21558,0,0,0,0,0,0,0,-1,1854,1317,46.6716,-3.2156
637,-293,42.7729,4.95544,0,0,0,0,0,0,0,-1,1861,1317,42.773,-4.95546
644,-293,24.4565,0.520752,0,0,0,0,0,0,0,-1,1868,1317,24.4566,-0.520709
651,-293,25.8926,9.51245,0,0,0,0,0,0,0,-1,1875,1317,25.8926,-9.51246
658,-293,25.4904,9.10205,0,0,0,0,0,0,0,-1,1882,1317,25.4904,-9.10209
665,-293,38.8601,12.8278,0,0,0,0,0,0,0,-1,1889,1317,38.8601,-12.8278
672,-293,38.5353,12.6018,-4.28661e-05,0.0041317,-0.00156637,0.00465406,-0.000565233,-1.24891,0.00330726,0.0475417,1896,1317,38.5352,-12.6019
679,-293,38.4541,12.049,0.000820918,0.00152468,-0.000888775,0.00212869,0.0002169,-0.973888,0.00135264,0.0163138,1903,1317,38.4542,-12.0489
686,-293,38.4532,11.5045,0.00110876,-0.000225885,-0.000452267,0.00124758,-0.000364705,-0.297813,0.000976263,0.0173193,1910,1317,38.4533,-11.5045
693,-293,38.4336,10.9451,0.00107398,-0.000465456,-7.03247e-05,0.00107719,-0.000468661,-0.0455557,0.000915256,0.0126287,1917,1317,38.4336,-10.9451
700,-293,38.3893,10.3768,0.000758791,-0.000527038,0.000372657,0.000858986,-0.000627234,0.262656,0.00086154,0.0104498,1924,1317,38.3893,-10.3768
707,-293,38.3652,9.85608,0.000338743,-0.000610332,0.000933082,0.000911023,-0.00118261,0.550158,0.00121215,0.0107783,1931,1317,38.3652,-9.85603
714,-293,38.3502,9.3208,-0.000164171,-0.000713677,0.00159702,0.00118156,-0.0020594,0.700212,0.00189391,0.00806463,1938,1317,38.3503,-9.32074
721,-293,38.3423,8.76355,-0.000769008,-0.000928773,0.0023833,0.00153575,-0.00323353,0.768646,0.0028111,0.0102843,1945,1317,38.3423,-8.76357
728,-293,38.3265,8.19751,-0.0015524,-0.00130931,0.00336144,0.00193278,-0.00479449,0.803469,0.00399942,0.0131549,1952,1317,38.3265,-8.1975
735,-293,38.3198,7.65186,-0.00252133,-0.00186283,0.00451064,0.00233056,-0.00671472,0.821831,0.00542291,0.0243904,1959,1317,38.3198,-7.65183
742,-293,38.4735,7.19214,0,0,0,0,0,0,0,-1,1966,1317,38.4735,-7.19217
749,-293,29.439,5.35339,0,0,0,0,0,0,0,-1,1973,1317,29.4389,-5.35334
756,-293,24.978,3.9718,0,0,0,0,0,0,0,-1,1980,1317,24.978,-3.97186
763,-293,26.6713,4.74097,0,0,0,0,0,0,0,-1,1987,1317,26.6713,-4.74098
770,-293,24.1349,4.69153,0,0,0,0,0,0,0,-1,1994,1317,24.1348,-4.69159
777,-293,0,0,0,0,0,0,0,0,0,-1,2001,1317,0,0
784,-293,0,0,0,0,0,0,0,0,0,-1,2008,1317,0,0
791,-293,0,0,0,0,0,0,0,0,0,-1,2015,1317,0,0
798,-293,0,0,0,0,0,0,0,0,0,-1,2022,1317,0,0
805,-293,0,0,0,0,0,0,0,0,0,-1,2029,1317,0,0
812,-293,0,0,0,0,0,0,0,0,0,-1,2036,1317,0,0
-700,-300,0,0,0,0,0,0,0,0,0,-1,524,1324,0,0
-693,-300,0,0,0,0,0,0,0,0,0,-1,531,1324,0,0
-686,-300,0,0,0,0,0,0,0,0,0,-1,538,1324,0,0
-679,-300,0,0,0,0,0,0,0,0,0,-1,545,1324,0,0
-672,-300,0,0,0,0,0,0,0,0,0,-1,552,1324,0,0
-665,-300,0,0,0,0,0,0,0,0,0,-1,559,1324,0,0
-658,-300,0,0,0,0,0,0,0,0,0,-1,566,1324,0,0
-651,-300,-39.1017,2.25647,0,0,0,0,0,0,0,-1,573,1324,-39.1017,-2.25649
-644,-300,-39.5129,1.53003,0,0,0,0,0,0,0,-1,580,1324,-39.5129,-1.53009
-637,-300,-24.088,-5.12695,0,0,0,0,0,0,0,-1,587,1324,-24.088,5.12694
-630,-300,-21.1108,2.26306,0,0,0,0,0,0,0,-1,594,1324,-21.1109,-2.2631
-623,-300,-12.7067,1.48462,0,0,0,0,0,0,0,-1,601,1324,-12.7067,-1.48462
-616,-300,-14.9988,1.68628,0,0,0,0,0,0,0,-1,608,1324,-14.9988,-1.68627
-609,-300,-15.5027,3.29907,0,0,0,0,0,0,0,-1,615,1324,-15.5027,-3.29902
-602,-300,-22.4653,5.10913,0,0,0,0,0,0,0,-1,622,1324,-22.4654,-5.10912
-595,-300,-22.5105,5.92175,0.00430573,0.0057872,0.00423316,0.00934394,0.000748982,0.872013,0.00599525,0.0352011,629,1324,-22.5105,-5.92178
-588,-300,-22.456,6.56873,0.00347778,0.00387674,0.00278699,0.00647138,0.000883145,0.821126,0.00405208,0.0208392,636,1324,-22.456,-6.56877
-581,-300,-22.4804,7.1908,0.00297664,0.00250408,0.00185131,0.00460669,0.000874031,0.721928,0.00282521,0.0210535,643,1324,-22.4804,-7.19076
-574,-300,-22.4964,7.78491,0.00272129,0.00140018,0.00121504,0.00344372,0.00067775,0.536421,0.00210656,0.0167892,650,1324,-22.4964,-7.78486
-567,-300,-22.5272,8.35181,0.00256574,0.000611158,0.000860472,0.00289057,0.000286333,0.360958,0.00183905,0.0165475,657,1324,-22.5272,-8.3518
-560,-300,-22.5533,8.95972,0.0025622,-2.30873e-05,0.000738639,0.00275835,-0.00021924,0.259569,0.00191617,0.0146131,664,1324,-22.5533,-8.95968
-553,-300,-22.5497,9.55615,0.0028256,-0.000469917,0.000869077,0.00304075,-0.00068506,0.242675,0.00228993,0.0109689,671,1324,-22.5497,-9.55612
-546,-300,-22.5769,10.1561,0.00327054,-0.000714033,0.00123551,0.00362254,-0.00106604,0.277551,0.00283792,0.0101309,678,1324,-22.5769,-10.1561
-539,-300,-22.5438,10.785,0.0040853,-0.00101281,0.00197585,0.00476141,-0.00168892,0.329696,0.00386236,0.0235075,685,1324,-22.5438,-10.7851
-532,-300,-22.4772,11.379,0,0,0,0,0,0,0,-1,692,1324,-22.4772,-11.379
-525,-300,-13.5115,6.27783,0,0,0,0,0,0,0,-1,699,1324,-13.5115,-6.2778
-518,-300,-9.8349,-0.537109,0,0,0,0,0,0,0,-1,706,1324,-9.83487,0.537068
-511,-300,-12.8644,0.081665,0,0,0,0,0,0,0,-1,713,1324,-12.8644,-0.0817016
-504,-300,-13.4829,-0.165527,0,0,0,0,0,0,0,-1,720,1324,-13.4829,0.165544
-497,-300,-18.1063,0.956543,0,0,0,0,0,0,0,-1,727,1324,-18.1063,-0.9565
-490,-300,-18.2293,1.53625,0,0,0,0,0,0,0,-1,734,1324,-18.2293,-1.53626
-483,-300,-18.3522,1.61084,0,0,0,0,0,0,0,-1,741,1324,-18.3522,-1.6108
-476,-300,-18.7489,1.96387,0,0,0,0,0,0,0,-1,748,1324,-18.7489,-1.96387
-469,-300,0,0,0,0,0,0,0,0,0,-1,755,1324,0,0
-462,-300,0,0,0,0,0,0,0,0,0,-1,762,1324,0,0
-455,-300,0,0,0,0,0,0,0,0,0,-1,769,1324,0,0
-448,-300,0,0,0,0,0,0,0,0,0,-1,776,1324,0,0
-441,-300,0,0,0,0,0,0,0,0,0,-1,783,1324,0,0
-434,-300,0,0,0,0,0,0,0,0,0,-1,790,1324,0,0
-427,-300,0,0,0,0,0,0,0,0,0,-1,797,1324,0,0
-420,-300,0,0,0,0,0,0,0,0,0,-1,804,1324,0,0
-413,-300,0,0,0,0,0,0,0,0,0,-1,811,1324,0,0
-406,-300,0,0,0,0,0,0,0,0,0,-1,818,1324,0,0
-399,-300,0,0,0,0,0,0,0,0,0,-1,825,1324,0,0
-392,-300,0,0,0,0,0,0,0,0,0,-1,832,1324,0,0
-385,-300,0,0,0,0,0,0,0,0,0,-1,839,1324,0,0
-378,-300,0,0,0,0,0,0,0,0,0,-1,846,1324,0,0
-371,-300,0,0,0,0,0,0,0,0,0,-1,853,1324,0,0
-364,-300,0,0,0,0,0,0,0,0,0,-1,860,1324,0,0
-357,-300,0,0,0,0,0,0,0,0,0,-1,867,1324,0,0
-350,-300,0,0,0,0,0,0,0,0,0,-1,874,1324,0,0
-343,-300,0,0,0,0,0,0,0,0,0,-1,881,1324,0,0
-336,-300,0,0,0,0,0,0,0,0,0,-1,888,1324,0,0
-329,-300,0,0,0,0,0,0,0,0,0,-1,895,1324,0,0
-322,-300,0,0,0,0,0,0,0,0,0,-1,902,1324,0,0
-315,-300,0,0,0,0,0,0,0,0,0,-1,909,1324,0,0
-308,-300,0,0,0,0,0,0,0,0,0,-1,916,1324,0,0
-301,-300,0,0,0,0,0,0,0,0,0,-1,923,1324,0,0
-294,-300,0,0,0,0,0,0,0,0,0,-1,930,1324,0,0
-287,-300,0,0,0,0,0,0,0,0,0,-1,937,1324,0,0
-280,-300,0,0,0,0,0,0,0,0,0,-1,944,1324,0,0
-273,-300,0,0,0,0,0,0,0,0,0,-1,951,1324,0,0
-266,-300,0,0,0,0,0,0,0,0,0,-1,958,1324,0,0
-259,-300,0,0,0,0,0,0,0,0,0,-1,965,1324,0,0
-252,-300,0,0,0,0,0,0,0,0,0,-1,972,1324,0,0
-245,-300,0,0,0,0,0,0,0,0,0,-1,979,1324,0,0
-238,-300,0,0,0,0,0,0,0,0,0,-1,986,1324,0,0
-231,-300,0,0,0,0,0,0,0,0,0,-1,993,1324,0,0
-224,-300,0,0,0,0,0,0,0,0,0,-1,1000,1324,0,0
-217,-300,0,0,0,0,0,0,0,0,0,-1,1007,1324,0,0
-210,-300,0,0,0,0,0,0,0,0,0,-1,1014,1324,0,0
-203,-300,0,0,0,0,0,0,0,0,0,-1,1021,1324,0,0
-196,-300,0,0,0,0,0,0,0,0,0,-1,1028,1324,0,0
-189,-300,0,0,0,0,0,0,0,0,0,-1,1035,1324,0,0
-182,-300,0,0,0,0,0,0,0,0,0,-1,1042,1324,0,0
-175,-300,0,0,0,0,0,0,0,0,0,-1,1049,1324,0,0
-168,-300,0,0,0,0,0,0,0,0,0,-1,1056,1324,0,0
-161,-300,0,0,0,0,0,0,0,0,0,-1,1063,1324,0,0
-154,-300,0,0,0,0,0,0,0,0,0,-1,1070,1324,0,0
-147,-300,0,0,0,0,0,0,0,0,0,-1,1077,1324,0,0
-140,-300,0,0,0,0,0,0,0,0,0,-1,1084,1324,0,0
-133,-300,0,0,0,0,0,0,0,0,0,-1,1091,1324,0,0
-126,-300,0,0,0,0,0,0,0,0,0,-1,1098,1324,0,0
-119,-300,0,0,0,0,0,0,0,0,0,-1,1105,1324,0,0
-112,-300,0,0,0,0,0,0,0,0,0,-1,1112,1324,0,0
-105,-300,0,0,0,0,0,0,0,0,0,-1,1119,1324,0,0
-98,-300,0,0,0,0,0,0,0,0,0,-1,1126,1324,0,0
-91,-300,0,0,0,0,0,0,0,0,0,-1,1133,1324,0,0
-84,-300,0,0,0,0,0,0,0,0,0,-1,1140,1324,0,0
-77,-300,0,0,0,0,0,0,0,0,0,-1,1147,1324,0,0
-70,-300,0,0,0,0,0,0,0,0,0,-1,1154,1324,0,0
-63,-300,0,0,0,0,0,0,0,0,0,-1,1161,1324,0,0
-56,-300,0,0,0,0,0,0,0,0,0,-1,1168,1324,0,0
-49,-300,0,0,0,0,0,0,0,0,0,-1,1175,1324,0,0
-42,-300,0,0,0,0,0,0,0,0,0,-1,1182,1324,0,0
-35,-300,0,0,0,0,0,0,0,0,0,-1,1189,1324,0,0
-28,-300,0,0,0,0,0,0,0,0,0,-1,1196,1324,0,0
-21,-300,0,0,0,0,0,0,0,0,0,-1,1203,1324,0,0
-14,-300,0,0,0,0,0,0,0,0,0,-1,1210,1324,0,0
-7,-300,0,0,0,0,0,0,0,0,0,-1,1217,1324,0,0
0,-300,0,0,0,0,0,0,0,0,0,-1,1224,1324,0,0
7,-300,0,0,0,0,0,0,0,0,0,-1,1231,1324,0,0
14,-300,0,0,0,0,0,0,0,0,0,-1,1238,1324,0,0
21,-300,0,0,0,0,0,0,0,0,0,-1,1245,1324,0,0
28,-300,0,0,0,0,0,0,0,0,0,-1,1252,1324,0,0
35,-300,0,0,0,0,0,0,0,0,0,-1,1259,1324,0,0
42,-300,0,0,0,0,0,0,0,0,0,-1,1266,1324,0,0
49,-300,0,0,0,0,0,0,0,0,0,-1,1273,1324,0,0
56,-300,0,0,0,0,0,0,0,0,0,-1,1280,1324,0,0
63,-300,0,0,0,0,0,0,0,0,0,-1,1287,1324,0,0
70,-300,0,0,0,0,0,0,0,0,0,-1,1294,1324,0,0
77,-300,0,0,0,0,0,0,0,0,0,-1,1301,1324,0,0
84,-300,0,0,0,0,0,0,0,0,0,-1,1308,1324,0,0
91,-300,0,0,0,0,0,0,0,0,0,-1,1315,1324,0,0
98,-300,0,0,0,0,0,0,0,0,0,-1,1322,1324,0,0
105,-300,0,0,0,0,0,0,0,0,0,-1,1329,1324,0,0
112,-300,0,0,0,0,0,0,0,0,0,-1,1336,1324,0,0
119,-300,0,0,0,0,0,0,0,0,0,-1,1343,1324,0,0
126,-300,0,0,0,0,0,0,0,0,0,-1,1350,1324,0,0
133,-300,0,0,0,0,0,0,0,0,0,-1,1357,1324,0,0
140,-300,0,0,0,0,0,0,0,0,0,-1,1364,1324,0,0
147,-300,0,0,0,0,0,0,0,0,0,-1,1371,1324,0,0
154,-300,0,0,0,0,0,0,0,0,0,-1,1378,1324,0,0
161,-300,0,0,0,0,0,0,0,0,0,-1,1385,1324,0,0
168,-300,0,0,0,0,0,0,0,0,0,-1,1392,1324,0,0
175,-300,0,0,0,0,0,0,0,0,0,-1,1399,1324,0,0
182,-300,0,0,0,0,0,0,0,0,0,-1,1406,1324,0,0
189,-300,0,0,0,0,0,0,0,0,0,-1,1413,1324,0,0
196,-300,0,0,0,0,0,0,0,0,0,-1,1420,1324,0,0
203,-300,0,0,0,0,0,0,0,0,0,-1,1427,1324,0,0
210,-300,0,0,0,0,0,0,0,0,0,-1,1434,1324,0,0
217,-300,0,0,0,0,0,0,0,0,0,-1,1441,1324,0,0
224,-300,0,0,0,0,0,0,0,0,0,-1,1448,1324,0,0
231,-300,0,0,0,0,0,0,0,0,0,-1,1455,1324,0,0
238,-300,0,0,0,0,0,0,0,0,0,-1,1462,1324,0,0
245,-300,0,0,0,0,0,0,0,0,0,-1,1469,1324,0,0
252,-300,0,0,0,0,0,0,0,0,0,-1,1476,1324,0,0
259,-300,0,0,0,0,0,0,0,0,0,-1,1483,1324,0,0
266,-300,0,0,0,0,0,0,0,0,0,-1,1490,1324,0,0
273,-300,0,0,0,0,0,0,0,0,0,-1,1497,1324,0,0
280,-300,0,0,0,0,0,0,0,0,0,-1,1504,1324,0,0
287,-300,0,0,0,0,0,0,0,0,0,-1,1511,1324,0,0
294,-300,0,0,0,0,0,0,0,0,0,-1,1518,1324,0,0
301,-300,0,0,0,0,0,0,0,0,0,-1,1525,1324,0,0
308,-300,0,0,0,0,0,0,0,0,0,-1,1532,1324,0,0
315,-300,0,0,0,0,0,0,0,0,0,-1,1539,1324,0,0
322,-300,0,0,0,0,0,0,0,0,0,-1,1546,1324,0,0
329,-300,0,0,0,0,0,0,0,0,0,-1,1553,1324,0,0
336,-300,0,0,0,0,0,0,0,0,0,-1,1560,1324,0,0
343,-300,0,0,0,0,0,0,0,0,0,-1,1567,1324,0,0
350,-300,0,0,0,0,0,0,0,0,0,-1,1574,1324,0,0
357,-300,0,0,0,0,0,0,0,0,0,-1,1581,1324,0,0
364,-300,0,0,0,0,0,0,0,0,0,-1,1588,1324,0,0
371,-300,0,0,0,0,0,0,0,0,0,-1,1595,1324,0,0
378,-300,0,0,0,0,0,0,0,0,0,-1,1602,1324,0,0
385,-300,0,0,0,0,0,0,0,0,0,-1,1609,1324,0,0
392,-300,0,0,0,0,0,0,0,0,0,-1,1616,1324,0,0
399,-300,0,0,0,0,0,0,0,0,0,-1,1623,1324,0,0
406,-300,0,0,0,0,0,0,0,0,0,-1,1630,1324,0,0
413,-300,0,0,0,0,0,0,0,0,0,-1,1637,1324,0,0
420,-300,0,0,0,0,0,0,0,0,0,-1,1644,1324,0,0
427,-300,0,0,0,0,0,0,0,0,0,-1,1651,1324,0,0
434,-300,0,0,0,0,0,0,0,0,0,-1,1658,1324,0,0
441,-300,0,0,0,0,0,0,0,0,0,-1,1665,1324,0,0
448,-300,0,0,0,0,0,0,0,0,0,-1,1672,1324,0,0
455,-300,0,0,0,0,0,0,0,0,0,-1,1679,1324,0,0
462,-300,0,0,0,0,0,0,0,0,0,-1,1686,1324,0,0
469,-300,0,0,0,0,0,0,0,0,0,-1,1693,1324,0,0
476,-300,0,0,0,0,0,0,0,0,0,-1,1700,1324,0,0
483,-300,0,0,0,0,0,0,0,0,0,-1,1707,1324,0,0
490,-300,0,0,0,0,0,0,0,0,0,-1,1714,1324,0,0
497,-300,0,0,0,0,0,0,0,0,0,-1,1721,1324,0,0
504,-300,0,0,0,0,0,0,0,0,0,-1,1728,1324,0,0
511,-300,0,0,0,0,0,0,0,0,0,-1,1735,1324,0,0
518,-300,0,0,0,0,0,0,0,0,0,-1,1742,1324,0,0
525,-300,0,0,0,0,0,0,0,0,0,-1,1749,1324,0,0
532,-300,0,0,0,0,0,0,0,0,0,-1,1756,1324,0,0
539,-300,0,0,0,0,0,0,0,0,0,-1,1763,1324,0,0
546,-300,0,0,0,0,0,0,0,0,0,-1,1770,1324,0,0
553,-300,0,0,0,0,0,0,0,0,0,-1,1777,1324,0,0
560,-300,0,0,0,0,0,0,0,0,0,-1,1784,1324,0,0
567,-300,0,0,0,0,0,0,0,0,0,-1,1791,1324,0,0
574,-300,0,0,0,0,0,0,0,0,0,-1,1798,1324,0,0
581,-300,0,0,0,0,0,0,0,0,0,-1,1805,1324,0,0
588,-300,54.0984,2.25806,0,0,0,0,0,0,0,-1,1812,1324,54.0984,-2.25804
595,-300,54.0885,1.7854,0,0,0,0,0,0,0,-1,1819,1324,54.0885,-1.78538
602,-300,54.7198,2.45483,0,0,0,0,0,0,0,-1,1826,1324,54.7199,-2.45478
609,-300,54.077,1.57483,0,0,0,0,0,0,0,-1,1833,1324,54.077,-1.5748
616,-300,53.4341,0.694824,0,0,0,0,0,0,0,-1,1840,1324,53.434,-0.694815
623,-300,47.4474,2.43188,0,0,0,0,0,0,0,-1,1847,1324,47.4474,-2.43194
630,-300,42.4099,3.9165,0,0,0,0,0,0,0,-1,1854,1324,42.4099,-3.91649
637,-300,31.1719,4.6366,0,0,0,0,0,0,0,-1,1861,1324,31.1718,-4.63665
644,-300,22.9836,3.44934,0,0,0,0,0,0,0,-1,1868,1324,22.9836,-3.4493
651,-300,25.5004,9.11853,0,0,0,0,0,0,0,-1,1875,1324,25.5004,-9.11851
658,-300,25.4012,9.20032,0,0,0,0,0,0,0,-1,1882,1324,25.4012,-9.20036
665,-300,38.019,13.202,0,0,0,0,0,0,0,-1,1889,1324,38.019,-13.202
672,-300,37.8816,12.692,0.000200299,0.00277359,-0.00123595,0.00327104,-0.00029716,-1.18814,0.0022862,0.026966,1896,1324,37.8815,-12.692
679,-300,37.8972,12.0815,0.000882763,0.000430591,-0.000521368,0.00122495,8.84001e-05,-0.580815,0.000788823,0.0128316,1903,1324,37.8972,-12.0815
686,-300,37.8888,11.5262,0.000992,-0.000754313,-0.000145634,0.00100406,-0.000766374,-0.0826344,0.00102523,0.0140993,1910,1324,37.8888,-11.5262
693,-300,37.8513,10.9684,0.000883478,-0.000668061,0.000125076,0.000893496,-0.000678079,0.0799263,0.000910186,0.0120149,1917,1324,37.8513,-10.9684
700,-300,37.8326,10.3893,0.000658504,-0.000576398,0.000481558,0.000824088,-0.000741982,0.331186,0.000904585,0.0125309,1924,1324,37.8326,-10.3893
707,-300,37.8301,9.83582,0.000386598,-0.000544363,0.000922062,0.000954011,-0.00111178,0.551648,0.00119384,0.00885496,1931,1324,37.8301,-9.83587
714,-300,37.8195,9.31787,1.75209e-05,-0.000597247,0.00146712,0.00120911,-0.00178884,0.682134,0.00174162,0.0105095,1938,1324,37.8195,-9.31792
721,-300,37.8054,8.77112,-0.000455083,-0.000747521,0.00212536,0.00152908,-0.00273168,0.751054,0.0024924,0.012598,1945,1324,37.8055,-8.77113
728,-300,37.8077,8.17822,-0.00112943,-0.00106405,0.00298445,0.00188789,-0.00408137,0.790874,0.00352306,0.0171655,1952,1324,37.8078,-8.17823
735,-300,37.8568,7.66614,0,0,0,0,0,0,0,-1,1959,1324,37.8568,-7.66617
742,-300,36.806,7.30676,0,0,0,0,0,0,0,-1,1966,1324,36.806,-7.30674
749,-300,27.4065,5.9718,0,0,0,0,0,0,0,-1,1973,1324,27.4065,-5.97181
756,-300,22.1423,3.45642,0,0,0,0,0,0,0,-1,1980,1324,22.1423,-3.45638
763,-300,22.6136,5.1571,0,0,0,0,0,0,0,-1,1987,1324,22.6136,-5.15706
770,-300,24.859,4.77979,0,0,0,0,0,0,0,-1,1994,1324,24.859,-4.77972
777,-300,0,0,0,0,0,0,0,0,0,-1,2001,1324,0,0
784,-300,0,0,0,0,0,0,0,0,0,-1,2008,1324,0,0
791,-300,0,0,0,0,0,0,0,0,0,-1,2015,1324,0,0
798,-300,0,0,0,0,0,0,0,0,0,-1,2022,1324,0,0
805,-300,0,0,0,0,0,0,0,0,0,-1,2029,1324,0,0
812,-300,0,0,0,0,0,0,0,0,0,-1,2036,1324,0,0
-700,-307,0,0,0,0,0,0,0,0,0,-1,524,1331,0,0
-693,-307,0,0,0,0,0,0,0,0,0,-1,531,1331,0,0
-686,-307,0,0,0,0,0,0,0,0,0,-1,538,1331,0,0
-679,-307,0,0,0,0,0,0,0,0,0,-1,545,1331,0,0
-672,-307,0,0,0,0,0,0,0,0,0,-1,552,1331,0,0
-665,-307,0,0,0,0,0,0,0,0,0,-1,559,1331,0,0
-658,-307,0,0,0,0,0,0,0,0,0,-1,566,1331,0,0
-651,-307,-39.5316,2.82068,0,0,0,0,0,0,0,-1,573,1331,-39.5316,-2.82062
-644,-307,-39.322,2.05688,0,0,0,0,0,0,0,-1,580,1331,-39.3219,-2.05683
-637,-307,-21.0822,1.21277,0,0,0,0,0,0,0,-1,587,1331,-21.0821,-1.21273
-630,-307,-12.0005,0.767212,0,0,0,0,0,0,0,-1,594,1331,-12.0005,-0.767266
-623,-307,-12.2128,2.93811,0,0,0,0,0,0,0,-1,601,1331,-12.2128,-2.93813
-616,-307,-12.6612,2.08289,0,0,0,0,0,0,0,-1,608,1331,-12.6612,-2.08293
-609,-307,-12.2767,1.83228,0,0,0,0,0,0,0,-1,615,1331,-12.2768,-1.83224
-602,-307,-21.9037,5.16956,0,0,0,0,0,0,0,-1,622,1331,-21.9037,-5.16961
-595,-307,-21.9796,5.93628,0.00613365,0.00555826,0.00424814,0.0101038,0.00158809,0.751588,0.00627388,0.0467806,629,1331,-21.9795,-5.93628
-588,-307,-21.8559,6.62451,0.00459508,0.0037829,0.00279601,0.00701433,0.00136364,0.713283,0.00429446,0.022027,636,1331,-21.8559,-6.62455
-581,-307,-21.8524,7.21472,0.00369265,0.0025498,0.00188739,0.00509322,0.00114923,0.638405,0.00308461,0.0156636,643,1331,-21.8524,-7.21467
-574,-307,-21.9034,7.76685,0.00307271,0.00159054,0.00128207,0.00381247,0.000850779,0.52334,0.00231086,0.0126064,650,1331,-21.9034,-7.76682
-567,-307,-21.9249,8.36536,0.00270811,0.000850794,0.000936381,0.00309824,0.000460658,0.39477,0.00193035,0.0133091,657,1331,-21.9249,-8.36538
-560,-307,-21.9308,8.98364,0.00254342,0.000252129,0.000791318,0.00279014,5.40598e-06,0.302235,0.00185829,0.0143682,664,1331,-21.9308,-8.98361
-553,-307,-21.9615,9.57434,0.00259655,-0.000184962,0.000852818,0.00283721,-0.000425617,0.275036,0.00204814,0.0120598,671,1331,-21.9615,-9.57439
-546,-307,-21.9933,10.1681,0.00285164,-0.000449685,0.00114927,0.00321232,-0.00081037,0.304103,0.00245663,0.0111515,678,1331,-21.9934,-10.1681
-539,-307,-21.9793,10.8009,0.00340706,-0.000706423,0.00175022,0.00405096,-0.00135032,0.352527,0.00324576,0.0166475,685,1331,-21.9793,-10.8009
-532,-307,-21.9556,11.431,0,0,0,0,0,0,0,-1,692,1331,-21.9557,-11.431
-525,-307,-13.2009,6.91309,0,0,0,0,0,0,0,-1,699,1331,-13.2009,-6.9131
-518,-307,-9.77777,-1.56653,0,0,0,0,0,0,0,-1,706,1331,-9.77777,1.56651
-511,-307,-12.5226,0.26709,0,0,0,0,0,0,0,-1,713,1331,-12.5226,-0.267038
-504,-307,-12.5913,-0.308105,0,0,0,0,0,0,0,-1,720,1331,-12.5913,0.308124
-497,-307,-13.8586,-0.115845,0,0,0,0,0,0,0,-1,727,1331,-13.8587,0.115861
-490,-307,-17.9429,0.982178,0,0,0,0,0,0,0,-1,734,1331,-17.9429,-0.982198
-483,-307,-18.1066,0.927612,0,0,0,0,0,0,0,-1,741,1331,-18.1066,-0.927609
-476,-307,-18.1288,1.1228,0,0,0,0,0,0,0,-1,748,1331,-18.1289,-1.12286
-469,-307,-18.2028,0.798584,0,0,0,0,0,0,0,-1,755,1331,-18.2027,-0.798546
-462,-307,0,0,0,0,0,0,0,0,0,-1,762,1331,0,0
-455,-307,0,0,0,0,0,0,0,0,0,-1,769,1331,0,0
-448,-307,0,0,0,0,0,0,0,0,0,-1,776,1331,0,0
-441,-307,0,0,0,0,0,0,0,0,0,-1,783,1331,0,0
-434,-307,0,0,0,0,0,0,0,0,0,-1,790,1331,0,0
-427,-307,0,0,0,0,0,0,0,0,0,-1,797,1331,0,0
-420,-307,0,0,0,0,0,0,0,0,0,-1,804,1331,0,0
-413,-307,0,0,0,0,0,0,0,0,0,-1,811,1331,0,0
-406,-307,0,0,0,0,0,0,0,0,0,-1,818,1331,0,0
-399,-307,0,0,0,0,0,0,0,0,0,-1,825,1331,0,0
-392,-307,0,0,0,0,0,0,0,0,0,-1,832,1331,0,0
-385,-307,0,0,0,0,0,0,0,0,0,-1,839,1331,0,0
-378,-307,0,0,0,0,0,0,0,0,0,-1,846,1331,0,0
-371,-307,0,0,0,0,0,0,0,0,0,-1,853,1331,0,0
-364,-307,0,0,0,0,0,0,0,0,0,-1,860,1331,0,0
-357,-307,0,0,0,0,0,0,0,0,0,-1,867,1331,0,0
-350,-307,0,0,0,0,0,0,0,0,0,-1,874,1331,0,0
-343,-307,0,0,0,0,0,0,0,0,0,-1,881,1331,0,0
-336,-307,0,0,0,0,0,0,0,0,0,-1,888,1331,0,0
-329,-307,0,0,0,0,0,0,0,0,0,-1,895,1331,0,0
-322,-307,0,0,0,0,0,0,0,0,0,-1,902,1331,0,0
-315,-307,0,0,0,0,0,0,0,0,0,-1,909,1331,0,0
-308,-307,0,0,0,0,0,0,0,0,0,-1,916,1331,0,0
-301,-307,0,0,0,0,0,0,0,0,0,-1,923,1331,0,0
-294,-307,0,0,0,0,0,0,0,0,0,-1,930,1331,0,0
-287,-307,0,0,0,0,0,0,0,0,0,-1,937,1331,0,0
-280,-307,0,0,0,0,0,0,0,0,0,-1,944,1331,0,0
-273,-307,0,0,0,0,0,0,0,0,0,-1,951,1331,0,0
-266,-307,0,0,0,0,0,0,0,0,0,-1,958,1331,0,0
-259,-307,0,0,0,0,0,0,0,0,0,-1,965,1331,0,0
-252,-307,0,0,0,0,0,0,0,0,0,-1,972,1331,0,0
-245,-307,0,0,0,0,0,0,0,0,0,-1,979,1331,0,0
-238,-307,0,0,0,0,0,0,0,0,0,-1,986,1331,0,0
-231,-307,0,0,0,0,0,0,0,0,0,-1,993,1331,0,0
-224,-307,0,0,0,0,0,0,0,0,0,-1,1000,1331,0,0
-217,-307,0,0,0,0,0,0,0,0,0,-1,1007,1331,0,0
-210,-307,0,0,0,0,0,0,0,0,0,-1,1014,1331,0,0
-203,-307,0,0,0,0,0,0,0,0,0,-1,1021,1331,0,0
-196,-307,0,0,0,0,0,0,0,0,0,-1,1028,1331,0,0
-189,-307,0,0,0,0,0,0,0,0,0,-1,1035,1331,0,0
-182,-307,0,0,0,0,0,0,0,0,0,-1,1042,1331,0,0
-175,-307,0,0,0,0,0,0,0,0,0,-1,1049,1331,0,0
-168,-307,0,0,0,0,0,0,0,0,0,-1,1056,1331,0,0
-161,-307,0,0,0,0,0,0,0,0,0,-1,1063,1331,0,0
-154,-307,0,0,0,0,0,0,0,0,0,-1,1070,1331,0,0
-147,-307,0,0,0,0,0,0,0,0,0,-1,1077,1331,0,0
-140,-307,0,0,0,0,0,0,0,0,0,-1,1084,1331,0,0
-133,-307,0,0,0,0,0,0,0,0,0,-1,1091,1331,0,0
-126,-307,0,0,0,0,0,0,0,0,0,-1,1098,1331,0,0
-119,-307,0,0,0,0,0,0,0,0,0,-1,1105,1331,0,0
-112,-307,0,0,0,0,0,0,0,0,0,-1,1112,1331,0,0
-105,-307,0,0,0,0,0,0,0,0,0,-1,1119,1331,0,0
-98,-307,0,0,0,0,0,0,0,0,0,-1,1126,1331,0,0
-91,-307,0,0,0,0,0,0,0,0,0,-1,1133,1331,0,0
-84,-307,0,0,0,0,0,0,0,0,0,-1,1140,1331,0,0
-77,-307,0,0,0,0,0,0,0,0,0,-1,1147,1331,0,0
-70,-307,0,0,0,0,0,0,0,0,0,-1,1154,1331,0,0
-63,-307,0,0,0,0,0,0,0,0,0,-1,1161,1331,0,0
-56,-307,0,0,0,0,0,0,0,0,0,-1,1168,1331,0,0
-49,-307,0,0,0,0,0,0,0,0,0,-1,1175,1331,0,0
-42,-307,0,0,0,0,0,0,0,0,0,-1,1182,1331,0,0
-35,-307,0,0,0,0,0,0,0,0,0,-1,1189,1331,0,0
-28,-307,0,0,0,0,0,0,0,0,0,-1,1196,1331,0,0
-21,-307,0,0,0,0,0,0,0,0,0,-1,1203,1331,0,0
-14,-307,0,0,0,0,0,0,0,0,0,-1,1210,1331,0,0
-7,-307,0,0,0,0,0,0,0,0,0,-1,1217,1331,0,0
0,-307,0,0,0,0,0,0,0,0,0,-1,1224,1331,0,0
7,-307,0,0,0,0,0,0,0,0,0,-1,1231,1331,0,0
14,-307,0,0,0,0,0,0,0,0,0,-1,1238,1331,0,0
21,-307,0,0,0,0,0,0,0,0,0,-1,1245,1331,0,0
28,-307,0,0,0,0,0,0,0,0,0,-1,1252,1331,0,0
35,-307,0,0,0,0,0,0,0,0,0,-1,1259,1331,0,0
42,-307,0,0,0,0,0,0,0,0,0,-1,1266,1331,0,0
49,-307,0,0,0,0,0,0,0,0,0,-1,1273,1331,0,0
56,-307,0,0,0,0,0,0,0,0,0,-1,1280,1331,0,0
63,-307,0,0,0,0,0,0,0,0,0,-1,1287,1331,0,0
70,-307,0,0,0,0,0,0,0,0,0,-1,1294,1331,0,0
77,-307,0,0,0,0,0,0,0,0,0,-1,1301,1331,0,0
84,-307,0,0,0,0,0,0,0,0,0,-1,1308,1331,0,0
91,-307,0,0,0,0,0,0,0,0,0,-1,1315,1331,0,0
98,-307,0,0,0,0,0,0,0,0,0,-1,1322,1331,0,0
105,-307,0,0,0,0,0,0,0,0,0,-1,1329,1331,0,0
112,-307,0,0,0,0,0,0,0,0,0,-1,1336,1331,0,0
119,-307,0,0,0,0,0,0,0,0,0,-1,1343,1331,0,0
126,-307,0,0,0,0,0,0,0,0,0,-1,1350,1331,0,0
133,-307,0,0,0,0,0,0,0,0,0,-1,1357,1331,0,0
140,-307,0,0,0,0,0,0,0,0,0,-1,1364,1331,0,0
147,-307,0,0,0,0,0,0,0,0,0,-1,1371,1331,0,0
154,-307,0,0,0,0,0,0,0,0,0,-1,1378,1331,0,0
161,-307,0,0,0,0,0,0,0,0,0,-1,1385,1331,0,0
168,-307,0,0,0,0,0,0,0,0,0,-1,1392,1331,0,0
175,-307,0,0,0,0,0,0,0,0,0,-1,1399,1331,0,0
182,-307,0,0,0,0,0,0,0,0,0,-1,1406,1331,0,0
189,-307,0,0,0,0,0,0,0,0,0,-1,1413,1331,0,0
196,-307,0,0,0,0,0,0,0,0,0,-1,1420,1331,0,0
203,-307,0,0,0,0,0,0,0,0,0,-1,1427,1331,0,0
210,-307,0,0,0,0,0,0,0,0,0,-1,1434,1331,0,0
217,-307,0,0,0,0,0,0,0,0,0,-1,1441,1331,0,0
224,-307,0,0,0,0,0,0,0,0,0,-1,1448,1331,0,0
231,-307,0,0,0,0,0,0,0,0,0,-1,1455,1331,0,0
238,-307,0,0,0,0,0,0,0,0,0,-1,1462,1331,0,0
245,-307,0,0,0,0,0,0,0,0,0,-1,1469,1331,0,0
252,-307,0,0,0,0,0,0,0,0,0,-1,1476,1331,0,0
259,-307,0,0,0,0,0,0,0,0,0,-1,1483,1331,0,0
266,-307,0,0,0,0,0,0,0,0,0,-1,1490,1331,0,0
273,-307,0,0,0,0,0,0,0,0,0,-1,1497,1331,0,0
280,-307,0,0,0,0,0,0,0,0,0,-1,1504,1331,0,0
287,-307,0,0,0,0,0,0,0,0,0,-1,1511,1331,0,0
294,-307,0,0,0,0,0,0,0,0,0,-1,1518,1331,0,0
301,-307,0,0,0,0,0,0,0,0,0,-1,1525,1331,0,0
308,-307,0,0,0,0,0,0,0,0,0,-1,1532,1331,0,0
315,-307,0,0,0,0,0,0,0,0,0,-1,1539,1331,0,0
322,-307,0,0,0,0,0,0,0,0,0,-1,1546,1331,0,0
329,-307,0,0,0,0,0,0,0,0,0,-1,1553,1331,0,0
336,-307,0,0,0,0,0,0,0,0,0,-1,1560,1331,0,0
343,-307,0,0,0,0,0,0,0,0,0,-1,1567,1331,0,0
350,-307,0,0,0,0,0,0,0,0,0,-1,1574,1331,0,0
357,-307,0,0,0,0,0,0,0,0,0,-1,1581,1331,0,0
364,-307,0,0,0,0,0,0,0,0,0,-1,1588,1331,0,0
371,-307,0,0,0,0,0,0,0,0,0,-1,1595,1331,0,0
378,-307,0,0,0,0,0,0,0,0,0,-1,1602,1331,0,0
385,-307,0,0,0,0,0,0,0,0,0,-1,1609,1331,0,0
392,-307,0,0,0,0,0,0,0,0,0,-1,1616,1331,0,0
399,-307,0,0,0,0,0,0,0,0,0,-1,1623,1331,0,0
406,-307,0,0,0,0,0,0,0,0,0,-1,1630,1331,0,0
413,-307,0,0,0,0,0,0,0,0,0,-1,1637,1331,0,0
420,-307,0,0,0,0,0,0,0,0,0,-1,1644,1331,0,0
427,-307,0,0,0,0,0,0,0,0,0,-1,1651,1331,0,0
434,-307,0,0,0,0,0,0,0,0,0,-1,1658,1331,0,0
441,-307,0,0,0,0,0,0,0,0,0,-1,1665,1331,0,0
448,-307,0,0,0,0,0,0,0,0,0,-1,1672,1331,0,0
455,-307,0,0,0,0,0,0,0,0,0,-1,1679,1331,0,0
462,-307,0,0,0,0,0,0,0,0,0,-1,1686,1331,0,0
469,-307,0,0,0,0,0,0,0,0,0,-1,1693,1331,0,0
476,-307,0,0,0,0,0,0,0,0,0,-1,1700,1331,0,0
483,-307,0,0,0,0,0,0,0,0,0,-1,1707,1331,0,0
490,-307,0,0,0,0,0,0,0,0,0,-1,1714,1331,0,0
497,-307,0,0,0,0,0,0,0,0,0,-1,1721,1331,0,0
504,-307,0,0,0,0,0,0,0,0,0,-1,1728,1331,0,0
511,-307,0,0,0,0,0,0,0,0,0,-1,1735,1331,0,0
518,-307,0,0,0,0,0,0,0,0,0,-1,1742,1331,0,0
525,-307,0,0,0,0,0,0,0,0,0,-1,1749,1331,0,0
532,-307,0,0,0,0,0,0,0,0,0,-1,1756,1331,0,0
539,-307,0,0,0,0,0,0,0,0,0,-1,1763,1331,0,0
546,-307,0,0,0,0,0,0,0,0,0,-1,1770,1331,0,0
553,-307,0,0,0,0,0,0,0,0,0,-1,1777,1331,0,0
560,-307,0,0,0,0,0,0,0,0,0,-1,1784,1331,0,0
567,-307,0,0,0,0,0,0,0,0,0,-1,1791,1331,0,0
574,-307,0,0,0,0,0,0,0,0,0,-1,1798,1331,0,0
581,-307,0,0,0,0,0,0,0,0,0,-1,1805,1331,0,0
588,-307,54.2791,1.93567,0,0,0,0,0,0,0,-1,1812,1331,54.279,-1.93565
595,-307,55.3657,4.45007,0,0,0,0,0,0,0,-1,1819,1331,55.3657,-4.45004
602,-307,54.7405,2.89111,0,0,0,0,0,0,0,-1,1826,1331,54.7405,-2.89108
609,-307,54.0002,1.32251,0,0,0,0,0,0,0,-1,1833,1331,54.0003,-1.32251
616,-307,53.2878,0.135498,0,0,0,0,0,0,0,-1,1840,1331,53.2878,-0.135477
623,-307,44.3966,2.84888,0,0,0,0,0,0,0,-1,1847,1331,44.3966,-2.84884
630,-307,29.8116,1.51184,0,0,0,0,0,0,0,-1,1854,1331,29.8116,-1.51188
637,-307,24.6407,4.09106,0,0,0,0,0,0,0,-1,1861,1331,24.6407,-4.09103
644,-307,22.6885,5.80408,0,0,0,0,0,0,0,-1,1868,1331,22.6884,-5.80408
651,-307,17.5013,5.80078,0,0,0,0,0,0,0,-1,1875,1331,17.5014,-5.80072
658,-307,37.4427,13.9775,0,0,0,0,0,0,0,-1,1882,1331,37.4427,-13.9776
665,-307,37.3907,13.1666,0,0,0,0,0,0,0,-1,1889,1331,37.3908,-13.1666
672,-307,37.3573,12.6666,0.000376176,0.00164054,-0.000850198,0.00206783,-5.11189e-05,-1.10508,0.00139591,0.0164855,1896,1331,37.3573,-12.6666
679,-307,37.3304,12.1171,0.000895118,-0.00015768,-0.000263647,0.000957451,-0.000220013,-0.232164,0.000722886,0.0097702,1903,1331,37.3304,-12.117
686,-307,37.3176,11.5586,0.000946366,-0.000840985,1.02106e-06,0.000946366,-0.000840986,0.000571271,0.00103253,0.0101268,1910,1331,37.3176,-11.5586
693,-307,37.2883,10.9928,0.000856899,-0.000655649,0.000197532,0.00088227,-0.00068102,0.127742,0.000905056,0.0127837,1917,1331,37.2883,-10.9928
700,-307,37.2793,10.4033,0.000707517,-0.000539698,0.000492527,0.00087856,-0.000710741,0.334246,0.000919287,0.0140288,1924,1331,37.2793,-10.4033
707,-307,37.2692,9.83606,0.000520326,-0.000470844,0.000862298,0.00101931,-0.000969826,0.524584,0.00114854,0.0141282,1931,1331,37.2692,-9.83608
714,-307,37.2625,9.33484,0.000245865,-0.000482774,0.00133571,0.00126605,-0.00150296,0.65226,0.00160063,0.0121406,1938,1331,37.2625,-9.33487
721,-307,37.2878,8.8125,-0.000113024,-0.000590162,0.00192565,0.00158878,-0.00229197,0.723767,0.00225278,0.0170839,1945,1331,37.2878,-8.81251
728,-307,37.2421,8.44373,-0.000671553,-0.000889958,0.00274962,0.00197103,-0.00353254,0.765551,0.00321984,0.0476379,1952,1331,37.2421,-8.44371
735,-307,37.287,7.77393,0,0,0,0,0,0,0,-1,1959,1331,37.2869,-7.77393
742,-307,26.677,6.09192,0,0,0,0,0,0,0,-1,1966,1331,26.677,-6.0919
749,-307,26.7727,5.9032,0,0,0,0,0,0,0,-1,1973,1331,26.7727,-5.90323
756,-307,27.1556,5.74756,0,0,0,0,0,0,0,-1,1980,1331,27.1557,-5.7475
763,-307,18.7522,3.55298,0,0,0,0,0,0,0,-1,1987,1331,18.7522,-3.55301
770,-307,0,0,0,0,0,0,0,0,0,-1,1994,1331,0,0
777,-307,0,0,0,0,0,0,0,0,0,-1,2001,1331,0,0
784,-307,0,0,0,0,0,0,0,0,0,-1,2008,1331,0,0
791,-307,0,0,0,0,0,0,0,0,0,-1,2015,1331,0,0
798,-307,0,0,0,0,0,0,0,0,0,-1,2022,1331,0,0
805,-307,0,0,0,0,0,0,0,0,0,-1,2029,1331,0,0
812,-307,0,0,0,0,0,0,0,0,0,-1,2036,1331,0,0
-700,-314,0,0,0,0,0,0,0,0,0,-1,524,1338,0,0
-693,-314,0,0,0,0,0,0,0,0,0,-1,531,1338,0,0
-686,-314,0,0,0,0,0,0,0,0,0,-1,538,1338,0,0
-679,-314,0,0,0,0,0,0,0,0,0,-1,545,1338,0,0
-672,-314,0,0,0,0,0,0,0,0,0,-1,552,1338,0,0
-665,-314,0,0,0,0,0,0,0,0,0,-1,559,1338,0,0
-658,-314,0,0,0,0,0,0,0,0,0,-1,566,1338,0,0
-651,-314,0,0,0,0,0,0,0,0,0,-1,573,1338,0,0
-644,-314,-20.9896,-0.0299072,0,0,0,0,0,0,0,-1,580,1338,-20.9896,0.0299587
-637,-314,-18.8677,6.62646,0,0,0,0,0,0,0,-1,587,1338,-18.8677,-6.62651
-630,-314,-13.2771,2.98938,0,0,0,0,0,0,0,-1,594,1338,-13.2771,-2.98943
-623,-314,-13.3542,3.00903,0,0,0,0,0,0,0,-1,601,1338,-13.3542,-3.00907
-616,-314,-9.93311,1.15088,0,0,0,0,0,0,0,-1,608,1338,-9.93308,-1.15093
-609,-314,-9.4361,2.86292,0,0,0,0,0,0,0,-1,615,1338,-9.43612,-2.86286
-602,-314,-11.8027,2.42798,0,0,0,0,0,0,0,-1,622,1338,-11.8027,-2.42802
-595,-314,-21.4914,5.91614,0,0,0,0,0,0,0,-1,629,1338,-21.4914,-5.91615
-588,-314,-21.295,6.56433,0.00503425,0.00364985,0.0029492,0.0073714,0.00131271,0.670131,0.0045404,0.0337542,636,1338,-21.295,-6.56431
-581,-314,-21.2353,7.19849,0.00406023,0.00252251,0.00197347,0.00540932,0.00117342,0.599644,0.00328568,0.0123747,643,1338,-21.2353,-7.19854
-574,-314,-21.301,7.76111,0.00334115,0.00164451,0.00133243,0.00407239,0.000913266,0.501924,0.0024675,0.012305,650,1338,-21.3009,-7.76114
-567,-314,-21.3148,8.37988,0.00286954,0.000982712,0.000959885,0.00327201,0.00058024,0.397026,0.00201596,0.014773,657,1338,-21.3148,-8.37993
-560,-314,-21.3016,9.00793,0.00259878,0.000464545,0.000803346,0.00286736,0.000195958,0.322651,0.00184972,0.0156962,664,1338,-21.3016,-9.00794
-553,-314,-21.3408,9.59778,0.00250112,7.08081e-05,0.000829754,0.00275739,-0.000185462,0.299557,0.0019031,0.0183922,671,1338,-21.3408,-9.59775
-546,-314,-21.3869,10.1976,0.00262851,-0.000179069,0.00108895,0.00300136,-0.000551914,0.32988,0.00220799,0.0188921,678,1338,-21.3869,-10.1976
-539,-314,-21.3828,10.8202,0.00301822,-0.000370343,0.00160587,0.00365834,-0.00101046,0.379306,0.00283635,0.0182887,685,1338,-21.3827,-10.8202
-532,-314,-21.3474,11.401,0,0,0,0,0,0,0,-1,692,1338,-21.3473,-11.401
-525,-314,-13.3017,7.50671,0,0,0,0,0,0,0,-1,699,1338,-13.3017,-7.50669
-518,-314,-8.52753,4.70032,0,0,0,0,0,0,0,-1,706,1338,-8.52755,-4.70034
-511,-314,-11.8597,0.384888,0,0,0,0,0,0,0,-1,713,1338,-11.8597,-0.384927
-504,-314,-11.4322,-0.187378,0,0,0,0,0,0,0,-1,720,1338,-11.4322,0.187381
-497,-314,-11.0047,-0.759644,0,0,0,0,0,0,0,-1,727,1338,-11.0047,0.759689
-490,-314,-18.5143,0.471069,0,0,0,0,0,0,0,-1,734,1338,-18.5143,-0.47103
-483,-314,-17.8528,0.577271,0,0,0,0,0,0,0,-1,741,1338,-17.8528,-0.577327
-476,-314,-17.714,0.665405,0,0,0,0,0,0,0,-1,748,1338,-17.714,-0.665388
-469,-314,-17.7246,0.794678,0,0,0,0,0,0,0,-1,755,1338,-17.7246,-0.794645
-462,-314,0,0,0,0,0,0,0,0,0,-1,762,1338,0,0
-455,-314,0,0,0,0,0,0,0,0,0,-1,769,1338,0,0
-448,-314,0,0,0,0,0,0,0,0,0,-1,776,1338,0,0
-441,-314,0,0,0,0,0,0,0,0,0,-1,783,1338,0,0
-434,-314,0,0,0,0,0,0,0,0,0,-1,790,1338,0,0
-427,-314,0,0,0,0,0,0,0,0,0,-1,797,1338,0,0
-420,-314,0,0,0,0,0,0,0,0,0,-1,804,1338,0,0
-413,-314,0,0,0,0,0,0,0,0,0,-1,811,1338,0,0
-406,-314,0,0,0,0,0,0,0,0,0,-1,818,1338,0,0
-399,-314,0,0,0,0,0,0,0,0,0,-1,825,1338,0,0
-392,-314,0,0,0,0,0,0,0,0,0,-1,832,1338,0,0
-385,-314,0,0,0,0,0,0,0,0,0,-1,839,1338,0,0
-378,-314,0,0,0,0,0,0,0,0,0,-1,846,1338,0,0
-371,-314,0,0,0,0,0,0,0,0,0,-1,853,1338,0,0
-364,-314,0,0,0,0,0,0,0,0,0,-1,860,1338,0,0
-357,-314,0,0,0,0,0,0,0,0,0,-1,867,1338,0,0
-350,-314,0,0,0,0,0,0,0,0,0,-1,874,1338,0,0
-343,-314,0,0,0,0,0,0,0,0,0,-1,881,1338,0,0
-336,-314,0,0,0,0,0,0,0,0,0,-1,888,1338,0,0
-329,-314,0,0,0,0,0,0,0,0,0,-1,895,1338,0,0
-322,-314,0,0,0,0,0,0,0,0,0,-1,902,1338,0,0
-315,-314,0,0,0,0,0,0,0,0,0,-1,909,1338,0,0
-308,-314,0,0,0,0,0,0,0,0,0,-1,916,1338,0,0
-301,-314,0,0,0,0,0,0,0,0,0,-1,923,1338,0,0
-294,-314,0,0,0,0,0,0,0,0,0,-1,930,1338,0,0
-287,-314,0,0,0,0,0,0,0,0,0,-1,937,1338,0,0
-280,-314,0,0,0,0,0,0,0,0,0,-1,944,1338,0,0
-273,-314,0,0,0,0,0,0,0,0,0,-1,951,1338,0,0
-266,-314,0,0,0,0,0,0,0,0,0,-1,958,1338,0,0
-259,-314,0,0,0,0,0,0,0,0,0,-1,965,1338,0,0
-252,-314,0,0,0,0,0,0,0,0,0,-1,972,1338,0,0
-245,-314,0,0,0,0,0,0,0,0,0,-1,979,1338,0,0
-238,-314,0,0,0,0,0,0,0,0,0,-1,986,1338,0,0
-231,-314,0,0,0,0,0,0,0,0,0,-1,993,1338,0,0
-224,-314,0,0,0,0,0,0,0,0,0,-1,1000,1338,0,0
-217,-314,0,0,0,0,0,0,0,0,0,-1,1007,1338,0,0
-210,-314,0,0,0,0,0,0,0,0,0,-1,1014,1338,0,0
-203,-314,0,0,0,0,0,0,0,0,0,-1,1021,1338,0,0
-196,-314,0,0,0,0,0,0,0,0,0,-1,1028,1338,0,0
-189,-314,0,0,0,0,0,0,0,0,0,-1,1035,1338,0,0
-182,-314,0,0,0,0,0,0,0,0,0,-1,1042,1338,0,0
-175,-314,0,0,0,0,0,0,0,0,0,-1,1049,1338,0,0
-168,-314,0,0,0,0,0,0,0,0,0,-1,1056,1338,0,0
-161,-314,0,0,0,0,0,0,0,0,0,-1,1063,1338,0,0
-154,-314,0,0,0,0,0,0,0,0,0,-1,1070,1338,0,0
-147,-314,0,0,0,0,0,0,0,0,0,-1,1077,1338,0,0
-140,-314,0,0,0,0,0,0,0,0,0,-1,1084,1338,0,0
-133,-314,0,0,0,0,0,0,0,0,0,-1,1091,1338,0,0
-126,-314,0,0,0,0,0,0,0,0,0,-1,1098,1338,0,0
-119,-314,0,0,0,0,0,0,0,0,0,-1,1105,1338,0,0
-112,-314,0,0,0,0,0,0,0,0,0,-1,1112,1338,0,0
-105,-314,0,0,0,0,0,0,0,0,0,-1,1119,1338,0,0
-98,-314,0,0,0,0,0,0,0,0,0,-1,1126,1338,0,0
-91,-314,0,0,0,0,0,0,0,0,0,-1,1133,1338,0,0
-84,-314,0,0,0,0,0,0,0,0,0,-1,1140,1338,0,0
-77,-314,0,0,0,0,0,0,0,0,0,-1,1147,1338,0,0
-70,-314,0,0,0,0,0,0,0,0,0,-1,1154,1338,0,0
-63,-314,0,0,0,0,0,0,0,0,0,-1,1161,1338,0,0
-56,-314,0,0,0,0,0,0,0,0,0,-1,1168,1338,0,0
-49,-314,0,0,0,0,0,0,0,0,0,-1,1175,1338,0,0
-42,-314,0,0,0,0,0,0,0,0,0,-1,1182,1338,0,0
-35,-314,0,0,0,0,0,0,0,0,0,-1,1189,1338,0,0
-28,-314,0,0,0,0,0,0,0,0,0,-1,1196,1338,0,0
-21,-314,0,0,0,0,0,0,0,0,0,-1,1203,1338,0,0
-14,-314,0,0,0,0,0,0,0,0,0,-1,1210,1338,0,0
-7,-314,0,0,0,0,0,0,0,0,0,-1,1217,1338,0,0
0,-314,0,0,0,0,0,0,0,0,0,-1,1224,1338,0,0
7,-314,0,0,0,0,0,0,0,0,0,-1,1231,1338,0,0
14,-314,0,0,0,0,0,0,0,0,0,-1,1238,1338,0,0
21,-314,0,0,0,0,0,0,0,0,0,-1,1245,1338,0,0
28,-314,0,0,0,0,0,0,0,0,0,-1,1252,1338,0,0
35,-314,0,0,0,0,0,0,0,0,0,-1,1259,1338,0,0
42,-314,0,0,0,0,0,0,0,0,0,-1,1266,1338,0,0
49,-314,0,0,0,0,0,0,0,0,0,-1,1273,1338,0,0
56,-314,0,0,0,0,0,0,0,0,0,-1,1280,1338,0,0
63,-314,0,0,0,0,0,0,0,0,0,-1,1287,1338,0,0
70,-314,0,0,0,0,0,0,0,0,0,-1,1294,1338,0,0
77,-314,0,0,0,0,0,0,0,0,0,-1,1301,1338,0,0
84,-314,0,0,0,0,0,0,0,0,0,-1,1308,1338,0,0
91,-314,0,0,0,0,0,0,0,0,0,-1,1315,1338,0,0
98,-314,0,0,0,0,0,0,0,0,0,-1,1322,1338,0,0
105,-314,0,0,0,0,0,0,0,0,0,-1,1329,1338,0,0
112,-314,0,0,0,0,0,0,0,0,0,-1,1336,1338,0,0
119,-314,0,0,0,0,0,0,0,0,0,-1,1343,1338,0,0
126,-314,0,0,0,0,0,0,0,0,0,-1,1350,1338,0,0
133,-314,0,0,0,0,0,0,0,0,0,-1,1357,1338,0,0
140,-314,0,0,0,0,0,0,0,0,0,-1,1364,1338,0,0
147,-314,0,0,0,0,0,0,0,0,0,-1,1371,1338,0,0
154,-314,0,0,0,0,0,0,0,0,0,-1,1378,1338,0,0
161,-314,0,0,0,0,0,0,0,0,0,-1,1385,1338,0,0
168,-314,0,0,0,0,0,0,0,0,0,-1,1392,1338,0,0
175,-314,0,0,0,0,0,0,0,0,0,-1,1399,1338,0,0
182,-314,0,0,0,0,0,0,0,0,0,-1,1406,1338,0,0
189,-314,0,0,0,0,0,0,0,0,0,-1,1413,1338,0,0
196,-314,0,0,0,0,0,0,0,0,0,-1,1420,1338,0,0
203,-314,0,0,0,0,0,0,0,0,0,-1,1427,1338,0,0
210,-314,0,0,0,0,0,0,0,0,0,-1,1434,1338,0,0
217,-314,0,0,0,0,0,0,0,0,0,-1,1441,1338,0,0
224,-314,0,0,0,0,0,0,0,0,0,-1,1448,1338,0,0
231,-314,0,0,0,0,0,0,0,0,0,-1,1455,1338,0,0
238,-314,0,0,0,0,0,0,0,0,0,-1,1462,1338,0,0
245,-314,0,0,0,0,0,0,0,0,0,-1,1469,1338,0,0
252,-314,0,0,0,0,0,0,0,0,0,-1,1476,1338,0,0
259,-314,0,0,0,0,0,0,0,0,0,-1,1483,1338,0,0
266,-314,0,0,0,0,0,0,0,0,0,-1,1490,1338,0,0
273,-314,0,0,0,0,0,0,0,0,0,-1,1497,1338,0,0
280,-314,0,0,0,0,0,0,0,0,0,-1,1504,1338,0,0
287,-314,0,0,0,0,0,0,0,0,0,-1,1511,1338,0,0
294,-314,0,0,0,0,0,0,0,0,0,-1,1518,1338,0,0
301,-314,0,0,0,0,0,0,0,0,0,-1,1525,1338,0,0
308,-314,0,0,0,0,0,0,0,0,0,-1,1532,1338,0,0
315,-314,0,0,0,0,0,0,0,0,0,-1,1539,1338,0,0
322,-314,0,0,0,0,0,0,0,0,0,-1,1546,1338,0,0
329,-314,0,0,0,0,0,0,0,0,0,-1,1553,1338,0,0
336,-314,0,0,0,0,0,0,0,0,0,-1,1560,1338,0,0
343,-314,0,0,0,0,0,0,0,0,0,-1,1567,1338,0,0
350,-314,0,0,0,0,0,0,0,0,0,-1,1574,1338,0,0
357,-314,0,0,0,0,0,0,0,0,0,-1,1581,1338,0,0
364,-314,0,0,0,0,0,0,0,0,0,-1,1588,1338,0,0
371,-314,0,0,0,0,0,0,0,0,0,-1,1595,1338,0,0
378,-314,0,0,0,0,0,0,0,0,0,-1,1602,1338,0,0
385,-314,0,0,0,0,0,0,0,0,0,-1,1609,1338,0,0
392,-314,0,0,0,0,0,0,0,0,0,-1,1616,1338,0,0
399,-314,0,0,0,0,0,0,0,0,0,-1,1623,1338,0,0
406,-314,0,0,0,0,0,0,0,0,0,-1,1630,1338,0,0
413,-314,0,0,0,0,0,0,0,0,0,-1,1637,1338,0,0
420,-314,0,0,0,0,0,0,0,0,0,-1,1644,1338,0,0
427,-314,0,0,0,0,0,0,0,0,0,-1,1651,1338,0,0
434,-314,0,0,0,0,0,0,0,0,0,-1,1658,1338,0,0
441,-314,0,0,0,0,0,0,0,0,0,-1,1665,1338,0,0
448,-314,0,0,0,0,0,0,0,0,0,-1,1672,1338,0,0
455,-314,0,0,0,0,0,0,0,0,0,-1,1679,1338,0,0
462,-314,0,0,0,0,0,0,0,0,0,-1,1686,1338,0,0
469,-314,0,0,0,0,0,0,0,0,0,-1,1693,1338,0,0
476,-314,0,0,0,0,0,0,0,0,0,-1,1700,1338,0,0
483,-314,0,0,0,0,0,0,0,0,0,-1,1707,1338,0,0
490,-314,0,0,0,0,0,0,0,0,0,-1,1714,1338,0,0
497,-314,0,0,0,0,0,0,0,0,0,-1,1721,1338,0,0
504,-314,0,0,0,0,0,0,0,0,0,-1,1728,1338,0,0
511,-314,0,0,0,0,0,0,0,0,0,-1,1735,1338,0,0
518,-314,0,0,0,0,0,0,0,0,0,-1,1742,1338,0,0
525,-314,0,0,0,0,0,0,0,0,0,-1,1749,1338,0,0
532,-314,0,0,0,0,0,0,0,0,0,-1,1756,1338,0,0
539,-314,0,0,0,0,0,0,0,0,0,-1,1763,1338,0,0
546,-314,0,0,0,0,0,0,0,0,0,-1,1770,1338,0,0
553,-314,0,0,0,0,0,0,0,0,0,-1,1777,1338,0,0
560,-314,0,0,0,0,0,0,0,0,0,-1,1784,1338,0,0
567,-314,0,0,0,0,0,0,0,0,0,-1,1791,1338,0,0
574,-314,0,0,0,0,0,0,0,0,0,-1,1798,1338,0,0
581,-314,49.7633,3.98621,0,0,0,0,0,0,0,-1,1805,1338,49.7633,-3.9862
588,-314,56.3665,5.37769,0,0,0,0,0,0,0,-1,1812,1338,56.3665,-5.3777
595,-314,55.6843,3.89685,0,0,0,0,0,0,0,-1,1819,1338,55.6843,-3.89691
602,-314,55.0531,2.33179,0,0,0,0,0,0,0,-1,1826,1338,55.0532,-2.33177
609,-314,54.1774,1.05957,0,0,0,0,0,0,0,-1,1833,1338,54.1774,-1.05961
616,-314,48.1149,3.005,0,0,0,0,0,0,0,-1,1840,1338,48.1149,-3.00505
623,-314,38.7728,2.71741,0,0,0,0,0,0,0,-1,1847,1338,38.7728,-2.71737
630,-314,29.4308,6.23206,0,0,0,0,0,0,0,-1,1854,1338,29.4308,-6.23202
637,-314,22.1349,5.16418,0,0,0,0,0,0,0,-1,1861,1338,22.1349,-5.16414
644,-314,18.7517,6.2605,0,0,0,0,0,0,0,-1,1868,1338,18.7517,-6.26053
651,-314,23.1317,8.005,0,0,0,0,0,0,0,-1,1875,1338,23.1317,-8.00506
658,-314,36.896,13.8341,0,0,0,0,0,0,0,-1,1882,1338,36.896,-13.8341
665,-314,36.801,13.2708,-0.000100145,0.00236433,-0.00116127,0.0028253,-0.000561116,-1.19292,0.00209576,0.0295543,1889,1338,36.801,-13.2707
672,-314,36.7892,12.7085,0.00053309,0.000659315,-0.00059997,0.00119948,-7.07794e-06,-0.837802,0.000802025,0.013515,1896,1338,36.7892,-12.7085
679,-314,36.7665,12.1471,0.000903821,-0.000484064,-0.00018036,0.000926876,-0.000507119,-0.12714,0.000839658,0.0110542,1903,1338,36.7664,-12.1471
686,-314,36.7421,11.5961,0.0009775,-0.000759407,5.00833e-06,0.000977514,-0.000759422,0.00288344,0.00100545,0.0129423,1910,1338,36.7421,-11.5961
693,-314,36.7314,11.0059,0.00096672,-0.000559256,0.000156269,0.000982559,-0.000575094,0.101009,0.00090951,0.0131867,1917,1338,36.7315,-11.0058
700,-314,36.7134,10.4152,0.000915504,-0.000418794,0.00039401,0.00102317,-0.000526456,0.266735,0.000909866,0.0143984,1924,1338,36.7134,-10.4152
707,-314,36.7144,9.86975,0.000819282,-0.00030308,0.000695162,0.00115151,-0.000635305,0.44582,0.00104587,0.0134395,1931,1338,36.7143,-9.86971
714,-314,36.6876,9.36438,0.000642586,-0.000260389,0.00110011,0.00138026,-0.000998058,0.590678,0.00137902,0.0113905,1938,1338,36.6876,-9.36442
721,-314,36.6635,8.87524,0.000390341,-0.000311877,0.00163543,0.00171193,-0.00163346,0.679659,0.00193164,0.0266494,1945,1338,36.6635,-8.87529
728,-314,36.7273,8.38892,0,0,0,0,0,0,0,-1,1952,1338,36.7273,-8.38891
735,-314,26.3665,6.21582,0,0,0,0,0,0,0,-1,1959,1338,26.3664,-6.21581
742,-314,26.2235,6.0166,0,0,0,0,0,0,0,-1,1966,1338,26.2235,-6.01662
749,-314,26.2223,5.47046,0,0,0,0,0,0,0,-1,1973,1338,26.2223,-5.47041
756,-314,24.2521,5.93408,0,0,0,0,0,0,0,-1,1980,1338,24.252,-5.93413
763,-314,19.2207,4.07239,0,0,0,0,0,0,0,-1,1987,1338,19.2206,-4.07239
770,-314,0,0,0,0,0,0,0,0,0,-1,1994,1338,0,0
777,-314,0,0,0,0,0,0,0,0,0,-1,2001,1338,0,0
784,-314,0,0,0,0,0,0,0,0,0,-1,2008,1338,0,0
791,-314,0,0,0,0,0,0,0,0,0,-1,2015,1338,0,0
798,-314,0,0,0,0,0,0,0,0,0,-1,2022,1338,0,0
805,-314,0,0,0,0,0,0,0,0,0,-1,2029,1338,0,0
812,-314,0,0,0,0,0,0,0,0,0,-1,2036,1338,0,0
-700,-321,0,0,0,0,0,0,0,0,0,-1,524,1345,0,0
-693,-321,0,0,0,0,0,0,0,0,0,-1,531,1345,0,0
-686,-321,0,0,0,0,0,0,0,0,0,-1,538,1345,0,0
-679,-321,0,0,0,0,0,0,0,0,0,-1,545,1345,0,0
-672,-321,0,0,0,0,0,0,0,0,0,-1,552,1345,0,0
-665,-321,0,0,0,0,0,0,0,0,0,-1,559,1345,0,0
-658,-321,0,0,0,0,0,0,0,0,0,-1,566,1345,0,0
-651,-321,0,0,0,0,0,0,0,0,0,-1,573,1345,0,0
-644,-321,-17.2769,5.65454,0,0,0,0,0,0,0,-1,580,1345,-17.2768,-5.65454
-637,-321,-13.3991,3.59241,0,0,0,0,0,0,0,-1,587,1345,-13.3991,-3.59236
-630,-321,-13.2958,3.65039,0,0,0,0,0,0,0,-1,594,1345,-13.2958,-3.65042
-623,-321,-13.2242,3.14148,0,0,0,0,0,0,0,-1,601,1345,-13.2243,-3.14146
-616,-321,-11.6754,3.13794,0,0,0,0,0,0,0,-1,608,1345,-11.6754,-3.13789
-609,-321,-7.95209,1.14758,0,0,0,0,0,0,0,-1,615,1345,-7.95208,-1.14757
-602,-321,-8.85791,2.50049,0,0,0,0,0,0,0,-1,622,1345,-8.85791,-2.50048
-595,-321,-19.8463,5.36584,0,0,0,0,0,0,0,-1,629,1345,-19.8462,-5.36589
-588,-321,-20.765,6.57532,0,0,0,0,0,0,0,-1,636,1345,-20.765,-6.57534
-581,-321,-20.6808,7.21594,0.00451983,0.00255078,0.00204073,0.00580112,0.0012695,0.560649,0.00352137,0.0137197,643,1345,-20.6809,-7.21588
-574,-321,-20.7112,7.80554,0.00370558,0.00173776,0.00140105,0.00443369,0.00100965,0.479276,0.00268332,0.0150365,650,1345,-20.7112,-7.80552
-567,-321,-20.7073,8.41797,0.00312642,0.00113044,0.00102152,0.00355654,0.000700321,0.398523,0.00217549,0.0224427,657,1345,-20.7073,-8.41798
-560,-321,-20.6575,9.08301,0.0027435,0.000669188,0.000867606,0.00305854,0.000354149,0.348309,0.00193183,0.0262904,664,1345,-20.6575,-9.083
-553,-321,-20.672,9.63342,0.00250096,0.000290094,0.000868927,0.00280159,-1.05373e-05,0.333089,0.00187125,0.0280026,671,1345,-20.672,-9.63347
-546,-321,-20.7126,10.2365,0.00248319,3.52014e-05,0.00108223,0.00289303,-0.000374631,0.362003,0.00206492,0.0278467,678,1345,-20.7126,-10.2365
-539,-321,-20.7587,10.8293,0.0026836,-0.00013625,0.00150692,0.00333734,-0.000789987,0.40932,0.00252968,0.0251814,685,1345,-20.7587,-10.8293
-532,-321,-20.7702,11.4181,0.00319585,-0.000219032,0.00211921,0.00420988,-0.00123306,0.446295,0.00329542,0.0347046,692,1345,-20.7702,-11.418
-525,-321,-20.7996,12.0087,0,0,0,0,0,0,0,-1,699,1345,-20.7996,-12.0087
-518,-321,-10.3564,6.75696,0,0,0,0,0,0,0,-1,706,1345,-10.3564,-6.75694
-511,-321,-9.3302,5.29297,0,0,0,0,0,0,0,-1,713,1345,-9.33023,-5.29294
-504,-321,-10.4713,0.0145264,0,0,0,0,0,0,0,-1,720,1345,-10.4713,-0.0145296
-497,-321,-9.96771,0.313599,0,0,0,0,0,0,0,-1,727,1345,-9.96769,-0.313618
-490,-321,-10.7631,0.973511,0,0,0,0,0,0,0,-1,734,1345,-10.7631,-0.97353
-483,-321,-17.5908,0.2323,0,0,0,0,0,0,0,-1,741,1345,-17.5908,-0.232355
-476,-321,-17.2915,0.297363,0,0,0,0,0,0,0,-1,748,1345,-17.2915,-0.297342
-469,-321,-17.2441,0.478027,0,0,0,0,0,0,0,-1,755,1345,-17.2441,-0.477994
-462,-321,-17.1672,0.526489,0,0,0,0,0,0,0,-1,762,1345,-17.1672,-0.526533
-455,-321,0,0,0,0,0,0,0,0,0,-1,769,1345,0,0
-448,-321,0,0,0,0,0,0,0,0,0,-1,776,1345,0,0
-441,-321,0,0,0,0,0,0,0,0,0,-1,783,1345,0,0
-434,-321,0,0,0,0,0,0,0,0,0,-1,790,1345,0,0
-427,-321,0,0,0,0,0,0,0,0,0,-1,797,1345,0,0
-420,-321,0,0,0,0,0,0,0,0,0,-1,804,1345,0,0
-413,-321,0,0,0,0,0,0,0,0,0,-1,811,1345,0,0
-406,-321,0,0,0,0,0,0,0,0,0,-1,818,1345,0,0
-399,-321,0,0,0,0,0,0,0,0,0,-1,825,1345,0,0
-392,-321,0,0,0,0,0,0,0,0,0,-1,832,1345,0,0
-385,-321,0,0,0,0,0,0,0,0,0,-1,839,1345,0,0
-378,-321,0,0,0,0,0,0,0,0,0,-1,846,1345,0,0
-371,-321,0,0,0,0,0,0,0,0,0,-1,853,1345,0,0
-364,-321,0,0,0,0,0,0,0,0,0,-1,860,1345,0,0
-357,-321,0,0,0,0,0,0,0,0,0,-1,867,1345,0,0
-350,-321,0,0,0,0,0,0,0,0,0,-1,874,1345,0,0
-343,-321,0,0,0,0,0,0,0,0,0,-1,881,1345,0,0
-336,-321,0,0,0,0,0,0,0,0,0,-1,888,1345,0,0
-329,-321,0,0,0,0,0,0,0,0,0,-1,895,1345,0,0
-322,-321,0,0,0,0,0,0,0,0,0,-1,902,1345,0,0
-315,-321,0,0,0,0,0,0,0,0,0,-1,909,1345,0,0
-308,-321,0,0,0,0,0,0,0,0,0,-1,916,1345,0,0
-301,-321,0,0,0,0,0,0,0,0,0,-1,923,1345,0,0
-294,-321,0,0,0,0,0,0,0,0,0,-1,930,1345,0,0
-287,-321,0,0,0,0,0,0,0,0,0,-1,937,1345,0,0
-280,-321,0,0,0,0,0,0,0,0,0,-1,944,1345,0,0
-273,-321,0,0,0,0,0,0,0,0,0,-1,951,1345,0,0
-266,-321,0,0,0,0,0,0,0,0,0,-1,958,1345,0,0
-259,-321,0,0,0,0,0,0,0,0,0,-1,965,1345,0,0
-252,-321,0,0,0,0,0,0,0,0,0,-1,972,1345,0,0
-245,-321,0,0,0,0,0,0,0,0,0,-1,979,1345,0,0
-238,-321,0,0,0,0,0,0,0,0,0,-1,986,1345,0,0
-231,-321,0,0,0,0,0,0,0,0,0,-1,993,1345,0,0
-224,-321,0,0,0,0,0,0,0,0,0,-1,1000,1345,0,0
-217,-321,0,0,0,0,0,0,0,0,0,-1,1007,1345,0,0
-210,-321,0,0,0,0,0,0,0,0,0,-1,1014,1345,0,0
-203,-321,0,0,0,0,0,0,0,0,0,-1,1021,1345,0,0
-196,-321,0,0,0,0,0,0,0,0,0,-1,1028,1345,0,0
-189,-321,0,0,0,0,0,0,0,0,0,-1,1035,1345,0,0
-182,-321,0,0,0,0,0,0,0,0,0,-1,1042,1345,0,0
-175,-321,0,0,0,0,0,0,0,0,0,-1,1049,1345,0,0
-168,-321,0,0,0,0,0,0,0,0,0,-1,1056,1345,0,0
-161,-321,0,0,0,0,0,0,0,0,0,-1,1063,1345,0,0
-154,-321,0,0,0,0,0,0,0,0,0,-1,1070,1345,0,0
-147,-321,0,0,0,0,0,0,0,0,0,-1,1077,1345,0,0
-140,-321,0,0,0,0,0,0,0,0,0,-1,1084,1345,0,0
-133,-321,0,0,0,0,0,0,0,0,0,-1,1091,1345,0,0
-126,-321,0,0,0,0,0,0,0,0,0,-1,1098,1345,0,0
-119,-321,0,0,0,0,0,0,0,0,0,-1,1105,1345,0,0
-112,-321,0,0,0,0,0,0,0,0,0,-1,1112,1345,0,0
-105,-321,0,0,0,0,0,0,0,0,0,-1,1119,1345,0,0
-98,-321,0,0,0,0,0,0,0,0,0,-1,1126,1345,0,0
-91,-321,0,0,0,0,0,0,0,0,0,-1,1133,1345,0,0
-84,-321,0,0,0,0,0,0,0,0,0,-1,1140,1345,0,0
-77,-321,0,0,0,0,0,0,0,0,0,-1,1147,1345,0,0
-70,-321,0,0,0,0,0,0,0,0,0,-1,1154,1345,0,0
-63,-321,0,0,0,0,0,0,0,0,0,-1,1161,1345,0,0
-56,-321,0,0,0,0,0,0,0,0,0,-1,1168,1345,0,0
-49,-321,0,0,0,0,0,0,0,0,0,-1,1175,1345,0,0
-42,-321,0,0,0,0,0,0,0,0,0,-1,1182,1345,0,0
-35,-321,0,0,0,0,0,0,0,0,0,-1,1189,1345,0,0
-28,-321,0,0,0,0,0,0,0,0,0,-1,1196,1345,0,0
-21,-321,0,0,0,0,0,0,0,0,0,-1,1203,1345,0,0
-14,-321,0,0,0,0,0,0,0,0,0,-1,1210,1345,0,0
-7,-321,0,0,0,0,0,0,0,0,0,-1,1217,1345,0,0
0,-321,0,0,0,0,0,0,0,0,0,-1,1224,1345,0,0
7,-321,0,0,0,0,0,0,0,0,0,-1,1231,1345,0,0
14,-321,0,0,0,0,0,0,0,0,0,-1,1238,1345,0,0
21,-321,0,0,0,0,0,0,0,0,0,-1,1245,1345,0,0
28,-321,0,0,0,0,0,0,0,0,0,-1,1252,1345,0,0
35,-321,0,0,0,0,0,0,0,0,0,-1,1259,1345,0,0
42,-321,0,0,0,0,0,0,0,0,0,-1,1266,1345,0,0
49,-321,0,0,0,0,0,0,0,0,0,-1,1273,1345,0,0
56,-321,0,0,0,0,0,0,0,0,0,-1,1280,1345,0,0
63,-321,0,0,0,0,0,0,0,0,0,-1,1287,1345,0,0
70,-321,0,0,0,0,0,0,0,0,0,-1,1294,1345,0,0
77,-321,0,0,0,0,0,0,0,0,0,-1,1301,1345,0,0
84,-321,0,0,0,0,0,0,0,0,0,-1,1308,1345,0,0
91,-321,0,0,0,0,0,0,0,0,0,-1,1315,1345,0,0
98,-321,0,0,0,0,0,0,0,0,0,-1,1322,1345,0,0
105,-321,0,0,0,0,0,0,0,0,0,-1,1329,1345,0,0
112,-321,0,0,0,0,0,0,0,0,0,-1,1336,1345,0,0
119,-321,0,0,0,0,0,0,0,0,0,-1,1343,1345,0,0
126,-321,0,0,0,0,0,0,0,0,0,-1,1350,1345,0,0
133,-321,0,0,0,0,0,0,0,0,0,-1,1357,1345,0,0
140,-321,0,0,0,0,0,0,0,0,0,-1,1364,1345,0,0
147,-321,0,0,0,0,0,0,0,0,0,-1,1371,1345,0,0
154,-321,0,0,0,0,0,0,0,0,0,-1,1378,1345,0,0
161,-321,0,0,0,0,0,0,0,0,0,-1,1385,1345,0,0
168,-321,0,0,0,0,0,0,0,0,0,-1,1392,1345,0,0
175,-321,0,0,0,0,0,0,0,0,0,-1,1399,1345,0,0
182,-321,0,0,0,0,0,0,0,0,0,-1,1406,1345,0,0
189,-321,0,0,0,0,0,0,0,0,0,-1,1413,1345,0,0
196,-321,0,0,0,0,0,0,0,0,0,-1,1420,1345,0,0
203,-321,0,0,0,0,0,0,0,0,0,-1,1427,1345,0,0
210,-321,0,0,0,0,0,0,0,0,0,-1,1434,1345,0,0
217,-321,0,0,0,0,0,0,0,0,0,-1,1441,1345,0,0
224,-321,0,0,0,0,0,0,0,0,0,-1,1448,1345,0,0
231,-321,0,0,0,0,0,0,0,0,0,-1,1455,1345,0,0
238,-321,0,0,0,0,0,0,0,0,0,-1,1462,1345,0,0
245,-321,0,0,0,0,0,0,0,0,0,-1,1469,1345,0,0
252,-321,0,0,0,0,0,0,0,0,0,-1,1476,1345,0,0
259,-321,0,0,0,0,0,0,0,0,0,-1,1483,1345,0,0
266,-321,0,0,0,0,0,0,0,0,0,-1,1490,1345,0,0
273,-321,0,0,0,0,0,0,0,0,0,-1,1497,1345,0,0
280,-321,0,0,0,0,0,0,0,0,0,-1,1504,1345,0,0
287,-321,0,0,0,0,0,0,0,0,0,-1,1511,1345,0,0
294,-321,0,0,0,0,0,0,0,0,0,-1,1518,1345,0,0
301,-321,0,0,0,0,0,0,0,0,0,-1,1525,1345,0,0
308,-321,0,0,0,0,0,0,0,0,0,-1,1532,1345,0,0
315,-321,0,0,0,0,0,0,0,0,0,-1,1539,1345,0,0
322,-321,0,0,0,0,0,0,0,0,0,-1,1546,1345,0,0
329,-321,0,0,0,0,0,0,0,0,0,-1,1553,1345,0,0
336,-321,0,0,0,0,0,0,0,0,0,-1,1560,1345,0,0
343,-321,0,0,0,0,0,0,0,0,0,-1,1567,1345,0,0
350,-321,0,0,0,0,0,0,0,0,0,-1,1574,1345,0,0
357,-321,0,0,0,0,0,0,0,0,0,-1,1581,1345,0,0
364,-321,0,0,0,0,0,0,0,0,0,-1,1588,1345,0,0
371,-321,0,0,0,0,0,0,0,0,0,-1,1595,1345,0,0
378,-321,0,0,0,0,0,0,0,0,0,-1,1602,1345,0,0
385,-321,0,0,0,0,0,0,0,0,0,-1,1609,1345,0,0
392,-321,0,0,0,0,0,0,0,0,0,-1,1616,1345,0,0
399,-321,0,0,0,0,0,0,0,0,0,-1,1623,1345,0,0
406,-321,0,0,0,0,0,0,0,0,0,-1,1630,1345,0,0
413,-321,0,0,0,0,0,0,0,0,0,-1,1637,1345,0,0
420,-321,0,0,0,0,0,0,0,0,0,-1,1644,1345,0,0
427,-321,0,0,0,0,0,0,0,0,0,-1,1651,1345,0,0
434,-321,0,0,0,0,0,0,0,0,0,-1,1658,1345,0,0
441,-321,0,0,0,0,0,0,0,0,0,-1,1665,1345,0,0
448,-321,0,0,0,0,0,0,0,0,0,-1,1672,1345,0,0
455,-321,0,0,0,0,0,0,0,0,0,-1,1679,1345,0,0
462,-321,0,0,0,0,0,0,0,0,0,-1,1686,1345,0,0
469,-321,0,0,0,0,0,0,0,0,0,-1,1693,1345,0,0
476,-321,0,0,0,0,0,0,0,0,0,-1,1700,1345,0,0
483,-321,0,0,0,0,0,0,0,0,0,-1,1707,1345,0,0
490,-321,0,0,0,0,0,0,0,0,0,-1,1714,1345,0,0
497,-321,0,0,0,0,0,0,0,0,0,-1,1721,1345,0,0
504,-321,0,0,0,0,0,0,0,0,0,-1,1728,1345,0,0
511,-321,0,0,0,0,0,0,0,0,0,-1,1735,1345,0,0
518,-321,0,0,0,0,0,0,0,0,0,-1,1742,1345,0,0
525,-321,0,0,0,0,0,0,0,0,0,-1,1749,1345,0,0
532,-321,0,0,0,0,0,0,0,0,0,-1,1756,1345,0,0
539,-321,0,0,0,0,0,0,0,0,0,-1,1763,1345,0,0
546,-321,0,0,0,0,0,0,0,0,0,-1,1770,1345,0,0
553,-321,0,0,0,0,0,0,0,0,0,-1,1777,1345,0,0
560,-321,0,0,0,0,0,0,0,0,0,-1,1784,1345,0,0
567,-321,0,0,0,0,0,0,0,0,0,-1,1791,1345,0,0
574,-321,0,0,0,0,0,0,0,0,0,-1,1798,1345,0,0
581,-321,49.9773,4.13696,0,0,0,0,0,0,0,-1,1805,1345,49.9772,-4.13692
588,-321,56.7845,4.70703,0,0,0,0,0,0,0,-1,1812,1345,56.7845,-4.70701
595,-321,56.1301,3.26428,0,0,0,0,0,0,0,-1,1819,1345,56.1301,-3.26424
602,-321,55.4094,1.73413,0,0,0,0,0,0,0,-1,1826,1345,55.4094,-1.7341
609,-321,48.311,3.39575,0,0,0,0,0,0,0,-1,1833,1345,48.311,-3.39571
616,-321,37.8107,2.58704,0,0,0,0,0,0,0,-1,1840,1345,37.8106,-2.58705
623,-321,37.6854,3.68933,0,0,0,0,0,0,0,-1,1847,1345,37.6854,-3.68931
630,-321,23.6674,4.34106,0,0,0,0,0,0,0,-1,1854,1345,23.6674,-4.34112
637,-321,21.7925,6.79224,0,0,0,0,0,0,0,-1,1861,1345,21.7925,-6.7922
644,-321,16.8844,6.71973,0,0,0,0,0,0,0,-1,1868,1345,16.8844,-6.71971
651,-321,27.4924,10.0319,0,0,0,0,0,0,0,-1,1875,1345,27.4924,-10.0319
658,-321,36.196,13.8541,0,0,0,0,0,0,0,-1,1882,1345,36.196,-13.8541
665,-321,36.2289,13.3069,-0.000102343,0.00133746,-0.000837394,0.00172186,-0.000486746,-1.14044,0.00133995,0.0228582,1889,1345,36.2288,-13.3069
672,-321,36.2413,12.7262,0.000486799,0.000195364,-0.000426819,0.000792089,-0.000109926,-0.6209,0.000568257,0.0145181,1896,1345,36.2413,-12.7261
679,-321,36.2272,12.1713,0.000846985,-0.000490811,-0.000159608,0.000865763,-0.00050959,-0.117117,0.000802887,0.012626,1903,1345,36.2272,-12.1713
686,-321,36.1769,11.6216,0.00102827,-0.000565795,-5.37893e-05,0.00103009,-0.000567608,-0.0336923,0.000935223,0.0129231,1910,1345,36.1769,-11.6216
693,-321,36.1595,11.0581,0.00115439,-0.000333123,2.80436e-05,0.00115492,-0.000333652,0.0188438,0.000901971,0.0130447,1917,1345,36.1595,-11.058
700,-321,36.1674,10.4564,0.00124213,-0.000136229,0.00017881,0.00126495,-0.000159048,0.126928,0.000901009,0.0139561,1924,1345,36.1673,-10.4565
707,-321,36.1627,9.90295,0.00126617,5.32538e-05,0.000386882,0.00137907,-5.96408e-05,0.283923,0.00093989,0.0154151,1931,1345,36.1628,-9.90301
714,-321,36.1256,9.37915,0.0012084,0.000187875,0.000691707,0.00155769,-0.000161412,0.467611,0.00109623,0.0138332,1938,1345,36.1256,-9.37916
721,-321,36.0392,8.82874,0.00106959,0.00024226,0.00114012,0.00186877,-0.000556921,0.61137,0.00146716,0.0420383,1945,1345,36.0391,-8.82879
728,-321,36.036,8.35156,0,0,0,0,0,0,0,-1,1952,1345,36.036,-8.35161
735,-321,22.0081,5.65479,0,0,0,0,0,0,0,-1,1959,1345,22.008,-5.65481
742,-321,24.5398,5.05725,0,0,0,0,0,0,0,-1,1966,1345,24.5398,-5.05729
749,-321,24.0675,5.4458,0,0,0,0,0,0,0,-1,1973,1345,24.0675,-5.44581
756,-321,19.6251,4.98315,0,0,0,0,0,0,0,-1,1980,1345,19.6251,-4.98311
763,-321,19.6747,4.61438,0,0,0,0,0,0,0,-1,1987,1345,19.6747,-4.61436
770,-321,0,0,0,0,0,0,0,0,0,-1,1994,1345,0,0
777,-321,0,0,0,0,0,0,0,0,0,-1,2001,1345,0,0
784,-321,0,0,0,0,0,0,0,0,0,-1,2008,1345,0,0
791,-321,0,0,0,0,0,0,0,0,0,-1,2015,1345,0,0
798,-321,0,0,0,0,0,0,0,0,0,-1,2022,1345,0,0
805,-321,0,0,0,0,0,0,0,0,0,-1,2029,1345,0,0
812,-321,0,0,0,0,0,0,0,0,0,-1,2036,1345,0,0
-700,-328,0,0,0,0,0,0,0,0,0,-1,524,1352,0,0
-693,-328,0,0,0,0,0,0,0,0,0,-1,531,1352,0,0
-686,-328,0,0,0,0,0,0,0,0,0,-1,538,1352,0,0
-679,-328,0,0,0,0,0,0,0,0,0,-1,545,1352,0,0
-672,-328,0,0,0,0,0,0,0,0,0,-1,552,1352,0,0
-665,-328,0,0,0,0,0,0,0,0,0,-1,559,1352,0,0
-658,-328,0,0,0,0,0,0,0,0,0,-1,566,1352,0,0
-651,-328,0,0,0,0,0,0,0,0,0,-1,573,1352,0,0
-644,-328,0,0,0,0,0,0,0,0,0,-1,580,1352,0,0
-637,-328,-12.0695,1.02014,0,0,0,0,0,0,0,-1,587,1352,-12.0694,-1.02017
-630,-328,-13.3971,4.54578,0,0,0,0,0,0,0,-1,594,1352,-13.3971,-4.54572
-623,-328,-10.7739,4.55042,0,0,0,0,0,0,0,-1,601,1352,-10.7739,-4.55041
-616,-328,-8.22198,-0.25708,0,0,0,0,0,0,0,-1,608,1352,-8.22201,0.257067
-609,-328,-7.87439,0.192871,0,0,0,0,0,0,0,-1,615,1352,-7.87441,-0.192822
-602,-328,-7.63062,1.31665,0,0,0,0,0,0,0,-1,622,1352,-7.63064,-1.3166
-595,-328,-9.42639,2.93494,0,0,0,0,0,0,0,-1,629,1352,-9.42638,-2.93499
-588,-328,-20.202,6.36719,0,0,0,0,0,0,0,-1,636,1352,-20.202,-6.3672
-581,-328,-20.1008,7.17224,0.00520195,0.00249777,0.00211535,0.00636041,0.00133931,0.501033,0.00387184,0.0271486,643,1352,-20.1008,-7.17224
-574,-328,-20.101,7.82776,0.00418853,0.00173922,0.00148399,0.00488794,0.00103982,0.440425,0.00297326,0.0151918,650,1352,-20.101,-7.82779
-567,-328,-20.1147,8.44348,0.00343246,0.00118612,0.00110247,0.00388312,0.00073546,0.388048,0.00238175,0.0207032,657,1352,-20.1147,-8.44347
-560,-328,-20.0516,9.10339,0.00289587,0.00077345,0.000954249,0.00326181,0.000407509,0.366189,0.00205223,0.0276941,664,1352,-20.0516,-9.10343
-553,-328,-20.0374,9.70508,0.00250035,0.000437183,0.000952758,0.00287301,6.45181e-05,0.372848,0.0018942,0.0294327,671,1352,-20.0373,-9.70511
-546,-328,-20.0986,10.2867,0.00233898,0.000197377,0.00113626,0.00282949,-0.000293132,0.407523,0.00199125,0.0288821,678,1352,-20.0986,-10.2867
-539,-328,-20.1628,10.8425,0.00237409,4.84192e-05,0.00149364,0.00310417,-0.000681666,0.454644,0.00233015,0.0240797,685,1352,-20.1628,-10.8426
-532,-328,-20.1974,11.4696,0.00269366,-2.64611e-05,0.00202753,0.00377504,-0.00110785,0.48997,0.00295601,0.0189642,692,1352,-20.1975,-11.4696
-525,-328,-20.2444,12.1259,0.00321215,-0.000130952,0.0027124,0.00472669,-0.00164549,0.509252,0.00381966,0.0326458,699,1352,-20.2444,-12.1258
-518,-328,-20.3695,12.7188,0,0,0,0,0,0,0,-1,706,1352,-20.3695,-12.7188
-511,-328,-9.39868,7.16113,0,0,0,0,0,0,0,-1,713,1352,-9.39869,-7.16113
-504,-328,-8.60626,-0.905762,0,0,0,0,0,0,0,-1,720,1352,-8.60623,0.905787
-497,-328,-9.29102,-0.0517578,0,0,0,0,0,0,0,-1,727,1352,-9.29104,0.0518175
-490,-328,-10.0663,0.882813,0,0,0,0,0,0,0,-1,734,1352,-10.0663,-0.882795
-483,-328,-10.8181,1.72375,0,0,0,0,0,0,0,-1,741,1352,-10.8181,-1.72374
-476,-328,-16.8951,-0.150757,0,0,0,0,0,0,0,-1,748,1352,-16.8951,0.150795
-469,-328,-16.8412,0.00158691,0,0,0,0,0,0,0,-1,755,1352,-16.8412,-0.00161515
-462,-328,-16.3546,-0.203491,0,0,0,0,0,0,0,-1,762,1352,-16.3545,0.203532
-455,-328,0,0,0,0,0,0,0,0,0,-1,769,1352,0,0
-448,-328,0,0,0,0,0,0,0,0,0,-1,776,1352,0,0
-441,-328,0,0,0,0,0,0,0,0,0,-1,783,1352,0,0
-434,-328,0,0,0,0,0,0,0,0,0,-1,790,1352,0,0
-427,-328,0,0,0,0,0,0,0,0,0,-1,797,1352,0,0
-420,-328,0,0,0,0,0,0,0,0,0,-1,804,1352,0,0
-413,-328,0,0,0,0,0,0,0,0,0,-1,811,1352,0,0
-406,-328,0,0,0,0,0,0,0,0,0,-1,818,1352,0,0
-399,-328,0,0,0,0,0,0,0,0,0,-1,825,1352,0,0
-392,-328,0,0,0,0,0,0,0,0,0,-1,832,1352,0,0
-385,-328,0,0,0,0,0,0,0,0,0,-1,839,1352,0,0
-378,-328,0,0,0,0,0,0,0,0,0,-1,846,1352,0,0
-371,-328,0,0,0,0,0,0,0,0,0,-1,853,1352,0,0
-364,-328,0,0,0,0,0,0,0,0,0,-1,860,1352,0,0
-357,-328,0,0,0,0,0,0,0,0,0,-1,867,1352,0,0
-350,-328,0,0,0,0,0,0,0,0,0,-1,874,1352,0,0
-343,-328,0,0,0,0,0,0,0,0,0,-1,881,1352,0,0
-336,-328,0,0,0,0,0,0,0,0,0,-1,888,1352,0,0
-329,-328,0,0,0,0,0,0,0,0,0,-1,895,1352,0,0
-322,-328,0,0,0,0,0,0,0,0,0,-1,902,1352,0,0
-315,-328,0,0,0,0,0,0,0,0,0,-1,909,1352,0,0
-308,-328,0,0,0,0,0,0,0,0,0,-1,916,1352,0,0
-301,-328,0,0,0,0,0,0,0,0,0,-1,923,1352,0,0
-294,-328,0,0,0,0,0,0,0,0,0,-1,930,1352,0,0
-287,-328,0,0,0,0,0,0,0,0,0,-1,937,1352,0,0
-280,-328,0,0,0,0,0,0,0,0,0,-1,944,1352,0,0
-273,-328,0,0,0,0,0,0,0,0,0,-1,951,1352,0,0
-266,-328,0,0,0,0,0,0,0,0,0,-1,958,1352,0,0
-259,-328,0,0,0,0,0,0,0,0,0,-1,965,1352,0,0
-252,-328,0,0,0,0,0,0,0,0,0,-1,972,1352,0,0
-245,-328,0,0,0,0,0,0,0,0,0,-1,979,1352,0,0
-238,-328,0,0,0,0,0,0,0,0,0,-1,986,1352,0,0
-231,-328,0,0,0,0,0,0,0,0,0,-1,993,1352,0,0
-224,-328,0,0,0,0,0,0,0,0,0,-1,1000,1352,0,0
-217,-328,0,0,0,0,0,0,0,0,0,-1,1007,1352,0,0
-210,-328,0,0,0,0,0,0,0,0,0,-1,1014,1352,0,0
-203,-328,0,0,0,0,0,0,0,0,0,-1,1021,1352,0,0
-196,-328,0,0,0,0,0,0,0,0,0,-1,1028,1352,0,0
-189,-328,0,0,0,0,0,0,0,0,0,-1,1035,1352,0,0
-182,-328,0,0,0,0,0,0,0,0,0,-1,1042,1352,0,0
-175,-328,0,0,0,0,0,0,0,0,0,-1,1049,1352,0,0
-168,-328,0,0,0,0,0,0,0,0,0,-1,1056,1352,0,0
-161,-328,0,0,0,0,0,0,0,0,0,-1,1063,1352,0,0
-154,-328,0,0,0,0,0,0,0,0,0,-1,1070,1352,0,0
-147,-328,0,0,0,0,0,0,0,0,0,-1,1077,1352,0,0
-140,-328,0,0,0,0,0,0,0,0,0,-1,1084,1352,0,0
-133,-328,0,0,0,0,0,0,0,0,0,-1,1091,1352,0,0
-126,-328,0,0,0,0,0,0,0,0,0,-1,1098,1352,0,0
-119,-328,0,0,0,0,0,0,0,0,0,-1,1105,1352,0,0
-112,-328,0,0,0,0,0,0,0,0,0,-1,1112,1352,0,0
-105,-328,0,0,0,0,0,0,0,0,0,-1,1119,1352,0,0
-98,-328,0,0,0,0,0,0,0,0,0,-1,1126,1352,0,0
-91,-328,0,0,0,0,0,0,0,0,0,-1,1133,1352,0,0
-84,-328,0,0,0,0,0,0,0,0,0,-1,1140,1352,0,0
-77,-328,0,0,0,0,0,0,0,0,0,-1,1147,1352,0,0
-70,-328,0,0,0,0,0,0,0,0,0,-1,1154,1352,0,0
-63,-328,0,0,0,0,0,0,0,0,0,-1,1161,1352,0,0
-56,-328,0,0,0,0,0,0,0,0,0,-1,1168,1352,0,0
-49,-328,0,0,0,0,0,0,0,0,0,-1,1175,1352,0,0
-42,-328,0,0,0,0,0,0,0,0,0,-1,1182,1352,0,0
-35,-328,0,0,0,0,0,0,0,0,0,-1,1189,1352,0,0
-28,-328,0,0,0,0,0,0,0,0,0,-1,1196,1352,0,0
-21,-328,0,0,0,0,0,0,0,0,0,-1,1203,1352,0,0
-14,-328,0,0,0,0,0,0,0,0,0,-1,1210,1352,0,0
-7,-328,0,0,0,0,0,0,0,0,0,-1,1217,1352,0,0
0,-328,0,0,0,0,0,0,0,0,0,-1,1224,1352,0,0
7,-328,0,0,0,0,0,0,0,0,0,-1,1231,1352,0,0
14,-328,0,0,0,0,0,0,0,0,0,-1,1238,1352,0,0
21,-328,0,0,0,0,0,0,0,0,0,-1,1245,1352,0,0
28,-328,0,0,0,0,0,0,0,0,0,-1,1252,1352,0,0
35,-328,0,0,0,0,0,0,0,0,0,-1,1259,1352,0,0
42,-328,0,0,0,0,0,0,0,0,0,-1,1266,1352,0,0
49,-328,0,0,0,0,0,0,0,0,0,-1,1273,1352,0,0
56,-328,0,0,0,0,0,0,0,0,0,-1,1280,1352,0,0
63,-328,0,0,0,0,0,0,0,0,0,-1,1287,1352,0,0
70,-328,0,0,0,0,0,0,0,0,0,-1,1294,1352,0,0
77,-328,0,0,0,0,0,0,0,0,0,-1,1301,1352,0,0
84,-328,0,0,0,0,0,0,0,0,0,-1,1308,1352,0,0
91,-328,0,0,0,0,0,0,0,0,0,-1,1315,1352,0,0
98,-328,0,0,0,0,0,0,0,0,0,-1,1322,1352,0,0
105,-328,0,0,0,0,0,0,0,0,0,-1,1329,1352,0,0
112,-328,0,0,0,0,0,0,0,0,0,-1,1336,1352,0,0
119,-328,0,0,0,0,0,0,0,0,0,-1,1343,1352,0,0
126,-328,0,0,0,0,0,0,0,0,0,-1,1350,1352,0,0
133,-328,0,0,0,0,0,0,0,0,0,-1,1357,1352,0,0
140,-328,0,0,0,0,0,0,0,0,0,-1,1364,1352,0,0
147,-328,0,0,0,0,0,0,0,0,0,-1,1371,1352,0,0
154,-328,0,0,0,0,0,0,0,0,0,-1,1378,1352,0,0
161,-328,0,0,0,0,0,0,0,0,0,-1,1385,1352,0,0
168,-328,0,0,0,0,0,0,0,0,0,-1,1392,1352,0,0
175,-328,0,0,0,0,0,0,0,0,0,-1,1399,1352,0,0
182,-328,0,0,0,0,0,0,0,0,0,-1,1406,1352,0,0
189,-328,0,0,0,0,0,0,0,0,0,-1,1413,1352,0,0
196,-328,0,0,0,0,0,0,0,0,0,-1,1420,1352,0,0
203,-328,0,0,0,0,0,0,0,0,0,-1,1427,1352,0,0
210,-328,0,0,0,0,0,0,0,0,0,-1,1434,1352,0,0
217,-328,0,0,0,0,0,0,0,0,0,-1,1441,1352,0,0
224,-328,0,0,0,0,0,0,0,0,0,-1,1448,1352,0,0
231,-328,0,0,0,0,0,0,0,0,0,-1,1455,1352,0,0
238,-328,0,0,0,0,0,0,0,0,0,-1,1462,1352,0,0
245,-328,0,0,0,0,0,0,0,0,0,-1,1469,1352,0,0
252,-328,0,0,0,0,0,0,0,0,0,-1,1476,1352,0,0
259,-328,0,0,0,0,0,0,0,0,0,-1,1483,1352,0,0
266,-328,0,0,0,0,0,0,0,0,0,-1,1490,1352,0,0
273,-328,0,0,0,0,0,0,0,0,0,-1,1497,1352,0,0
280,-328,0,0,0,0,0,0,0,0,0,-1,1504,1352,0,0
287,-328,0,0,0,0,0,0,0,0,0,-1,1511,1352,0,0
294,-328,0,0,0,0,0,0,0,0,0,-1,1518,1352,0,0
301,-328,0,0,0,0,0,0,0,0,0,-1,1525,1352,0,0
308,-328,0,0,0,0,0,0,0,0,0,-1,1532,1352,0,0
315,-328,0,0,0,0,0,0,0,0,0,-1,1539,1352,0,0
322,-328,0,0,0,0,0,0,0,0,0,-1,1546,1352,0,0
329,-328,0,0,0,0,0,0,0,0,0,-1,1553,1352,0,0
336,-328,0,0,0,0,0,0,0,0,0,-1,1560,1352,0,0
343,-328,0,0,0,0,0,0,0,0,0,-1,1567,1352,0,0
350,-328,0,0,0,0,0,0,0,0,0,-1,1574,1352,0,0
357,-328,0,0,0,0,0,0,0,0,0,-1,1581,1352,0,0
364,-328,0,0,0,0,0,0,0,0,0,-1,1588,1352,0,0
371,-328,0,0,0,0,0,0,0,0,0,-1,1595,1352,0,0
378,-328,0,0,0,0,0,0,0,0,0,-1,1602,1352,0,0
385,-328,0,0,0,0,0,0,0,0,0,-1,1609,1352,0,0
392,-328,0,0,0,0,0,0,0,0,0,-1,1616,1352,0,0
399,-328,0,0,0,0,0,0,0,0,0,-1,1623,1352,0,0
406,-328,0,0,0,0,0,0,0,0,0,-1,1630,1352,0,0
413,-328,0,0,0,0,0,0,0,0,0,-1,1637,1352,0,0
420,-328,0,0,0,0,0,0,0,0,0,-1,1644,1352,0,0
427,-328,0,0,0,0,0,0,0,0,0,-1,1651,1352,0,0
434,-328,0,0,0,0,0,0,0,0,0,-1,1658,1352,0,0
441,-328,0,0,0,0,0,0,0,0,0,-1,1665,1352,0,0
448,-328,0,0,0,0,0,0,0,0,0,-1,1672,1352,0,0
455,-328,0,0,0,0,0,0,0,0,0,-1,1679,1352,0,0
462,-328,0,0,0,0,0,0,0,0,0,-1,1686,1352,0,0
469,-328,0,0,0,0,0,0,0,0,0,-1,1693,1352,0,0
476,-328,0,0,0,0,0,0,0,0,0,-1,1700,1352,0,0
483,-328,0,0,0,0,0,0,0,0,0,-1,1707,1352,0,0
490,-328,0,0,0,0,0,0,0,0,0,-1,1714,1352,0,0
497,-328,0,0,0,0,0,0,0,0,0,-1,1721,1352,0,0
504,-328,0,0,0,0,0,0,0,0,0,-1,1728,1352,0,0
511,-328,0,0,0,0,0,0,0,0,0,-1,1735,1352,0,0
518,-328,0,0,0,0,0,0,0,0,0,-1,1742,1352,0,0
525,-328,0,0,0,0,0,0,0,0,0,-1,1749,1352,0,0
532,-328,0,0,0,0,0,0,0,0,0,-1,1756,1352,0,0
539,-328,0,0,0,0,0,0,0,0,0,-1,1763,1352,0,0
546,-328,0,0,0,0,0,0,0,0,0,-1,1770,1352,0,0
553,-328,0,0,0,0,0,0,0,0,0,-1,1777,1352,0,0
560,-328,0,0,0,0,0,0,0,0,0,-1,1784,1352,0,0
567,-328,0,0,0,0,0,0,0,0,0,-1,1791,1352,0,0
574,-328,44.8926,5.11475,0,0,0,0,0,0,0,-1,1798,1352,44.8926,-5.11469
581,-328,50.5533,4.3905,0,0,0,0,0,0,0,-1,1805,1352,50.5533,-4.39048
588,-328,50.1937,4.06274,0,0,0,0,0,0,0,-1,1812,1352,50.1937,-4.06278
595,-328,56.5437,2.5697,0,0,0,0,0,0,0,-1,1819,1352,56.5437,-2.56974
602,-328,48.7734,3.66785,0,0,0,0,0,0,0,-1,1826,1352,48.7734,-3.66782
609,-328,37.0468,1.17407,0,0,0,0,0,0,0,-1,1833,1352,37.0468,-1.17407
616,-328,36.999,2.42859,0,0,0,0,0,0,0,-1,1840,1352,36.999,-2.42862
623,-328,34.345,5.14722,0,0,0,0,0,0,0,-1,1847,1352,34.3449,-5.14718
630,-328,22.0211,5.026,0,0,0,0,0,0,0,-1,1854,1352,22.0212,-5.02603
637,-328,21.15,5.53699,0,0,0,0,0,0,0,-1,1861,1352,21.15,-5.53704
644,-328,16.9579,6.3396,0,0,0,0,0,0,0,-1,1868,1352,16.9579,-6.33959
651,-328,35.9275,14.4644,0,0,0,0,0,0,0,-1,1875,1352,35.9275,-14.4644
658,-328,35.709,13.915,0.000142268,0.000990103,-0.000549904,0.00126052,-0.000128149,-1.11377,0.000886158,0.048971,1882,1352,35.709,-13.915
665,-328,35.7043,13.3202,0.000397324,1.98056e-05,-0.000285263,0.000550624,-0.000133495,-0.493119,0.000418736,0.0153055,1889,1352,35.7043,-13.3202
672,-328,35.6882,12.7678,0.000687387,-0.000337195,-0.000227268,0.000735536,-0.000385343,-0.208772,0.000657584,0.0127867,1896,1352,35.6882,-12.7678
679,-328,35.6935,12.2,0.000943546,-0.000474092,-0.000168661,0.000963336,-0.000493882,-0.116801,0.000855754,0.0147603,1903,1352,35.6935,-12.1999
686,-328,35.6324,11.6328,0.0011977,-0.000355825,-0.000155901,0.00121319,-0.000371315,-0.0990374,0.00095689,0.01523,1910,1352,35.6325,-11.6328
693,-328,35.5981,11.0897,0.00142139,-0.00010647,-0.000147899,0.00143557,-0.000120655,-0.0956183,0.000999697,0.010491,1917,1352,35.5981,-11.0898
700,-328,35.6099,10.5009,0.00164064,0.000163623,-0.000123671,0.00165092,0.00015334,-0.0829607,0.00105323,0.0148727,1924,1352,35.6099,-10.5008
707,-328,35.6052,9.94824,0.00178715,0.000441953,-5.44881e-05,0.00178935,0.000439749,-0.0404175,0.00107668,0.0169344,1931,1352,35.6052,-9.94823
714,-328,35.583,9.39905,0.00187528,0.000706157,7.06869e-05,0.00187954,0.000701899,0.0601693,0.00109668,0.016214,1938,1352,35.5831,-9.39901
721,-328,35.5667,8.76257,0,0,0,0,0,0,0,-1,1945,1352,35.5666,-8.76253
728,-328,29.2787,6.74695,0,0,0,0,0,0,0,-1,1952,1352,29.2787,-6.74693
735,-328,20.8927,5.23523,0,0,0,0,0,0,0,-1,1959,1352,20.8927,-5.23528
742,-328,20.3547,4.11316,0,0,0,0,0,0,0,-1,1966,1352,20.3547,-4.11321
749,-328,20.0669,5.66321,0,0,0,0,0,0,0,-1,1973,1352,20.0669,-5.66319
756,-328,19.9543,5.50464,0,0,0,0,0,0,0,-1,1980,1352,19.9543,-5.50463
763,-328,0,0,0,0,0,0,0,0,0,-1,1987,1352,0,0
770,-328,0,0,0,0,0,0,0,0,0,-1,1994,1352,0,0
777,-328,0,0,0,0,0,0,0,0,0,-1,2001,1352,0,0
784,-328,0,0,0,0,0,0,0,0,0,-1,2008,1352,0,0
791,-328,0,0,0,0,0,0,0,0,0,-1,2015,1352,0,0
798,-328,0,0,0,0,0,0,0,0,0,-1,2022,1352,0,0
805,-328,0,0,0,0,0,0,0,0,0,-1,2029,1352,0,0
812,-328,0,0,0,0,0,0,0,0,0,-1,2036,1352,0,0
-700,-335,0,0,0,0,0,0,0,0,0,-1,524,1359,0,0
-693,-335,0,0,0,0,0,0,0,0,0,-1,531,1359,0,0
-686,-335,0,0,0,0,0,0,0,0,0,-1,538,1359,0,0
-679,-335,0,0,0,0,0,0,0,0,0,-1,545,1359,0,0
-672,-335,0,0,0,0,0,0,0,0,0,-1,552,1359,0,0
-665,-335,0,0,0,0,0,0,0,0,0,-1,559,1359,0,0
-658,-335,0,0,0,0,0,0,0,0,0,-1,566,1359,0,0
-651,-335,0,0,0,0,0,0,0,0,0,-1,573,1359,0,0
-644,-335,0,0,0,0,0,0,0,0,0,-1,580,1359,0,0
-637,-335,-9.64746,3.53809,0,0,0,0,0,0,0,-1,587,1359,-9.64744,-3.53803
-630,-335,-6.07397,-2.99902,0,0,0,0,0,0,0,-1,594,1359,-6.07397,2.99902
-623,-335,-8.43304,1.09509,0,0,0,0,0,0,0,-1,601,1359,-8.43301,-1.09507
-616,-335,-7.80927,-0.485352,0,0,0,0,0,0,0,-1,608,1359,-7.80926,0.485291
-609,-335,-7.12256,-2.03601,0,0,0,0,0,0,0,-1,615,1359,-7.12253,2.03601
-602,-335,-9.39935,2.25146,0,0,0,0,0,0,0,-1,622,1359,-9.39935,-2.25145
-595,-335,-9.54767,3.01917,0,0,0,0,0,0,0,-1,629,1359,-9.54768,-3.01911
-588,-335,-19.627,6.32104,0,0,0,0,0,0,0,-1,636,1359,-19.627,-6.32108
-581,-335,-19.4839,7.26025,0.00541029,0.00216789,0.00192313,0.00630439,0.00127379,0.43519,0.00384924,0.0443373,643,1359,-19.4839,-7.26024
-574,-335,-19.5068,7.83081,0.00442821,0.00156314,0.00142087,0.00501336,0.000977997,0.390656,0.00306864,0.0142139,650,1359,-19.5068,-7.83081
-567,-335,-19.5034,8.45935,0.00363854,0.00112058,0.00109637,0.00404901,0.000710108,0.358235,0.00249653,0.0170454,657,1359,-19.5034,-8.45938
-560,-335,-19.4787,9.06323,0.00304989,0.000787165,0.000985742,0.00341908,0.000417971,0.358362,0.00215363,0.0243248,664,1359,-19.4787,-9.06319
-553,-335,-19.4847,9.69299,0.00260942,0.000531467,0.00101804,0.00302505,0.00011584,0.38761,0.00197922,0.0274169,671,1359,-19.4847,-9.69296
-546,-335,-19.5415,10.2817,0.00235177,0.000328623,0.00117865,0.00289342,-0.000213028,0.430768,0.00200374,0.0268725,678,1359,-19.5415,-10.2818
-539,-335,-19.6044,10.8694,0.00226128,0.000213498,0.00148089,0.00303777,-0.000563,0.482933,0.00223659,0.020433,685,1359,-19.6044,-10.8694
-532,-335,-19.6358,11.5249,0.00244214,0.000164917,0.00194841,0.00356024,-0.000953183,0.520971,0.00274691,0.014661,692,1359,-19.6358,-11.5249
-525,-335,-19.6044,12.1595,0.00285195,0.000124516,0.00255747,0.00438658,-0.00141011,0.54046,0.00349069,0.0124955,699,1359,-19.6043,-12.1595
-518,-335,-19.6905,12.7146,0,0,0,0,0,0,0,-1,706,1359,-19.6905,-12.7146
-511,-335,-17.3098,11.6718,0,0,0,0,0,0,0,-1,713,1359,-17.3097,-11.6717
-504,-335,-9.35767,5.99695,0,0,0,0,0,0,0,-1,720,1359,-9.35767,-5.99694
-497,-335,-8.75024,-0.650513,0,0,0,0,0,0,0,-1,727,1359,-8.75024,0.650521
-490,-335,-9.51971,0.417603,0,0,0,0,0,0,0,-1,734,1359,-9.51974,-0.41765
-483,-335,-10.2883,1.29224,0,0,0,0,0,0,0,-1,741,1359,-10.2883,-1.2922
-476,-335,-11.9938,-0.173462,0,0,0,0,0,0,0,-1,748,1359,-11.9938,0.173429
-469,-335,-12.8704,-0.204102,0,0,0,0,0,0,0,-1,755,1359,-12.8704,0.204117
-462,-335,-13.486,0.0218506,0,0,0,0,0,0,0,-1,762,1359,-13.4859,-0.0217908
-455,-335,-14.1504,0.549561,0,0,0,0,0,0,0,-1,769,1359,-14.1504,-0.549583
-448,-335,0,0,0,0,0,0,0,0,0,-1,776,1359,0,0
-441,-335,0,0,0,0,0,0,0,0,0,-1,783,1359,0,0
-434,-335,0,0,0,0,0,0,0,0,0,-1,790,1359,0,0
-427,-335,0,0,0,0,0,0,0,0,0,-1,797,1359,0,0
-420,-335,0,0,0,0,0,0,0,0,0,-1,804,1359,0,0
-413,-335,0,0,0,0,0,0,0,0,0,-1,811,1359,0,0
-406,-335,0,0,0,0,0,0,0,0,0,-1,818,1359,0,0
-399,-335,0,0,0,0,0,0,0,0,0,-1,825,1359,0,0
-392,-335,0,0,0,0,0,0,0,0,0,-1,832,1359,0,0
-385,-335,0,0,0,0,0,0,0,0,0,-1,839,1359,0,0
-378,-335,0,0,0,0,0,0,0,0,0,-1,846,1359,0,0
-371,-335,0,0,0,0,0,0,0,0,0,-1,853,1359,0,0
-364,-335,0,0,0,0,0,0,0,0,0,-1,860,1359,0,0
-357,-335,0,0,0,0,0,0,0,0,0,-1,867,1359,0,0
-350,-335,0,0,0,0,0,0,0,0,0,-1,874,1359,0,0
-343,-335,0,0,0,0,0,0,0,0,0,-1,881,1359,0,0
-336,-335,0,0,0,0,0,0,0,0,0,-1,888,1359,0,0
-329,-335,0,0,0,0,0,0,0,0,0,-1,895,1359,0,0
-322,-335,0,0,0,0,0,0,0,0,0,-1,902,1359,0,0
-315,-335,0,0,0,0,0,0,0,0,0,-1,909,1359,0,0
-308,-335,0,0,0,0,0,0,0,0,0,-1,916,1359,0,0
-301,-335,0,0,0,0,0,0,0,0,0,-1,923,1359,0,0
-294,-335,0,0,0,0,0,0,0,0,0,-1,930,1359,0,0
-287,-335,0,0,0,0,0,0,0,0,0,-1,937,1359,0,0
-280,-335,0,0,0,0,0,0,0,0,0,-1,944,1359,0,0
-273,-335,0,0,0,0,0,0,0,0,0,-1,951,1359,0,0
-266,-335,0,0,0,0,0,0,0,0,0,-1,958,1359,0,0
-259,-335,0,0,0,0,0,0,0,0,0,-1,965,1359,0,0
-252,-335,0,0,0,0,0,0,0,0,0,-1,972,1359,0,0
-245,-335,0,0,0,0,0,0,0,0,0,-1,979,1359,0,0
-238,-335,0,0,0,0,0,0,0,0,0,-1,986,1359,0,0
-231,-335,0,0,0,0,0,0,0,0,0,-1,993,1359,0,0
-224,-335,0,0,0,0,0,0,0,0,0,-1,1000,1359,0,0
-217,-335,0,0,0,0,0,0,0,0,0,-1,1007,1359,0,0
-210,-335,0,0,0,0,0,0,0,0,0,-1,1014,1359,0,0
-203,-335,0,0,0,0,0,0,0,0,0,-1,1021,1359,0,0
-196,-335,0,0,0,0,0,0,0,0,0,-1,1028,1359,0,0
-189,-335,0,0,0,0,0,0,0,0,0,-1,1035,1359,0,0
-182,-335,0,0,0,0,0,0,0,0,0,-1,1042,1359,0,0
-175,-335,0,0,0,0,0,0,0,0,0,-1,1049,1359,0,0
-168,-335,0,0,0,0,0,0,0,0,0,-1,1056,1359,0,0
-161,-335,0,0,0,0,0,0,0,0,0,-1,1063,1359,0,0
-154,-335,0,0,0,0,0,0,0,0,0,-1,1070,1359,0,0
-147,-335,0,0,0,0,0,0,0,0,0,-1,1077,1359,0,0
-140,-335,0,0,0,0,0,0,0,0,0,-1,1084,1359,0,0
-133,-335,0,0,0,0,0,0,0,0,0,-1,1091,1359,0,0
-126,-335,0,0,0,0,0,0,0,0,0,-1,1098,1359,0,0
-119,-335,0,0,0,0,0,0,0,0,0,-1,1105,1359,0,0
-112,-335,0,0,0,0,0,0,0,0,0,-1,1112,1359,0,0
-105,-335,0,0,0,0,0,0,0,0,0,-1,1119,1359,0,0
-98,-335,0,0,0,0,0,0,0,0,0,-1,1126,1359,0,0
-91,-335,0,0,0,0,0,0,0,0,0,-1,1133,1359,0,0
-84,-335,0,0,0,0,0,0,0,0,0,-1,1140,1359,0,0
-77,-335,0,0,0,0,0,0,0,0,0,-1,1147,1359,0,0
-70,-335,0,0,0,0,0,0,0,0,0,-1,1154,1359,0,0
-63,-335,0,0,0,0,0,0,0,0,0,-1,1161,1359,0,0
-56,-335,0,0,0,0,0,0,0,0,0,-1,1168,1359,0,0
-49,-335,0,0,0,0,0,0,0,0,0,-1,1175,1359,0,0
-42,-335,0,0,0,0,0,0,0,0,0,-1,1182,1359,0,0
-35,-335,0,0,0,0,0,0,0,0,0,-1,1189,1359,0,0
-28,-335,0,0,0,0,0,0,0,0,0,-1,1196,1359,0,0
-21,-335,0,0,0,0,0,0,0,0,0,-1,1203,1359,0,0
-14,-335,0,0,0,0,0,0,0,0,0,-1,1210,1359,0,0
-7,-335,0,0,0,0,0,0,0,0,0,-1,1217,1359,0,0
0,-335,0,0,0,0,0,0,0,0,0,-1,1224,1359,0,0
7,-335,0,0,0,0,0,0,0,0,0,-1,1231,1359,0,0
14,-335,0,0,0,0,0,0,0,0,0,-1,1238,1359,0,0
21,-335,0,0,0,0,0,0,0,0,0,-1,1245,1359,0,0
28,-335,0,0,0,0,0,0,0,0,0,-1,1252,1359,0,0
35,-335,0,0,0,0,0,0,0,0,0,-1,1259,1359,0,0
42,-335,0,0,0,0,0,0,0,0,0,-1,1266,1359,0,0
49,-335,0,0,0,0,0,0,0,0,0,-1,1273,1359,0,0
56,-335,0,0,0,0,0,0,0,0,0,-1,1280,1359,0,0
63,-335,0,0,0,0,0,0,0,0,0,-1,1287,1359,0,0
70,-335,0,0,0,0,0,0,0,0,0,-1,1294,1359,0,0
77,-335,0,0,0,0,0,0,0,0,0,-1,1301,1359,0,0
84,-335,0,0,0,0,0,0,0,0,0,-1,1308,1359,0,0
91,-335,0,0,0,0,0,0,0,0,0,-1,1315,1359,0,0
98,-335,0,0,0,0,0,0,0,0,0,-1,1322,1359,0,0
105,-335,0,0,0,0,0,0,0,0,0,-1,1329,1359,0,0
112,-335,0,0,0,0,0,0,0,0,0,-1,1336,1359,0,0
119,-335,0,0,0,0,0,0,0,0,0,-1,1343,1359,0,0
126,-335,0,0,0,0,0,0,0,0,0,-1,1350,1359,0,0
133,-335,0,0,0,0,0,0,0,0,0,-1,1357,1359,0,0
140,-335,0,0,0,0,0,0,0,0,0,-1,1364,1359,0,0
147,-335,0,0,0,0,0,0,0,0,0,-1,1371,1359,0,0
154,-335,0,0,0,0,0,0,0,0,0,-1,1378,1359,0,0
161,-335,0,0,0,0,0,0,0,0,0,-1,1385,1359,0,0
168,-335,0,0,0,0,0,0,0,0,0,-1,1392,1359,0,0
175,-335,0,0,0,0,0,0,0,0,0,-1,1399,1359,0,0
182,-335,0,0,0,0,0,0,0,0,0,-1,1406,1359,0,0
189,-335,0,0,0,0,0,0,0,0,0,-1,1413,1359,0,0
196,-335,0,0,0,0,0,0,0,0,0,-1,1420,1359,0,0
203,-335,0,0,0,0,0,0,0,0,0,-1,1427,1359,0,0
210,-335,0,0,0,0,0,0,0,0,0,-1,1434,1359,0,0
217,-335,0,0,0,0,0,0,0,0,0,-1,1441,1359,0,0
224,-335,0,0,0,0,0,0,0,0,0,-1,1448,1359,0,0
231,-335,0,0,0,0,0,0,0,0,0,-1,1455,1359,0,0
238,-335,0,0,0,0,0,0,0,0,0,-1,1462,1359,0,0
245,-335,0,0,0,0,0,0,0,0,0,-1,1469,1359,0,0
252,-335,0,0,0,0,0,0,0,0,0,-1,1476,1359,0,0
259,-335,0,0,0,0,0,0,0,0,0,-1,1483,1359,0,0
266,-335,0,0,0,0,0,0,0,0,0,-1,1490,1359,0,0
273,-335,0,0,0,0,0,0,0,0,0,-1,1497,1359,0,0
280,-335,0,0,0,0,0,0,0,0,0,-1,1504,1359,0,0
287,-335,0,0,0,0,0,0,0,0,0,-1,1511,1359,0,0
294,-335,0,0,0,0,0,0,0,0,0,-1,1518,1359,0,0
301,-335,0,0,0,0,0,0,0,0,0,-1,1525,1359,0,0
308,-335,0,0,0,0,0,0,0,0,0,-1,1532,1359,0,0
315,-335,0,0,0,0,0,0,0,0,0,-1,1539,1359,0,0
322,-335,0,0,0,0,0,0,0,0,0,-1,1546,1359,0,0
329,-335,0,0,0,0,0,0,0,0,0,-1,1553,1359,0,0
336,-335,0,0,0,0,0,0,0,0,0,-1,1560,1359,0,0
343,-335,0,0,0,0,0,0,0,0,0,-1,1567,1359,0,0
350,-335,0,0,0,0,0,0,0,0,0,-1,1574,1359,0,0
357,-335,0,0,0,0,0,0,0,0,0,-1,1581,1359,0,0
364,-335,0,0,0,0,0,0,0,0,0,-1,1588,1359,0,0
371,-335,0,0,0,0,0,0,0,0,0,-1,1595,1359,0,0
378,-335,0,0,0,0,0,0,0,0,0,-1,1602,1359,0,0
385,-335,0,0,0,0,0,0,0,0,0,-1,1609,1359,0,0
392,-335,0,0,0,0,0,0,0,0,0,-1,1616,1359,0,0
399,-335,0,0,0,0,0,0,0,0,0,-1,1623,1359,0,0
406,-335,0,0,0,0,0,0,0,0,0,-1,1630,1359,0,0
413,-335,0,0,0,0,0,0,0,0,0,-1,1637,1359,0,0
420,-335,0,0,0,0,0,0,0,0,0,-1,1644,1359,0,0
427,-335,0,0,0,0,0,0,0,0,0,-1,1651,1359,0,0
434,-335,0,0,0,0,0,0,0,0,0,-1,1658,1359,0,0
441,-335,0,0,0,0,0,0,0,0,0,-1,1665,1359,0,0
448,-335,0,0,0,0,0,0,0,0,0,-1,1672,1359,0,0
455,-335,0,0,0,0,0,0,0,0,0,-1,1679,1359,0,0
462,-335,0,0,0,0,0,0,0,0,0,-1,1686,1359,0,0
469,-335,0,0,0,0,0,0,0,0,0,-1,1693,1359,0,0
476,-335,0,0,0,0,0,0,0,0,0,-1,1700,1359,0,0
483,-335,0,0,0,0,0,0,0,0,0,-1,1707,1359,0,0
490,-335,0,0,0,0,0,0,0,0,0,-1,1714,1359,0,0
497,-335,0,0,0,0,0,0,0,0,0,-1,1721,1359,0,0
504,-335,0,0,0,0,0,0,0,0,0,-1,1728,1359,0,0
511,-335,0,0,0,0,0,0,0,0,0,-1,1735,1359,0,0
518,-335,0,0,0,0,0,0,0,0,0,-1,1742,1359,0,0
525,-335,0,0,0,0,0,0,0,0,0,-1,1749,1359,0,0
532,-335,0,0,0,0,0,0,0,0,0,-1,1756,1359,0,0
539,-335,0,0,0,0,0,0,0,0,0,-1,1763,1359,0,0
546,-335,0,0,0,0,0,0,0,0,0,-1,1770,1359,0,0
553,-335,0,0,0,0,0,0,0,0,0,-1,1777,1359,0,0
560,-335,0,0,0,0,0,0,0,0,0,-1,1784,1359,0,0
567,-335,0,0,0,0,0,0,0,0,0,-1,1791,1359,0,0
574,-335,44.5405,5.74219,0,0,0,0,0,0,0,-1,1798,1359,44.5406,-5.74224
581,-335,44.1571,6.41992,0,0,0,0,0,0,0,-1,1805,1359,44.1571,-6.41989
588,-335,50.7247,4.16223,0,0,0,0,0,0,0,-1,1812,1359,50.7247,-4.16227
595,-335,49.984,3.76465,0,0,0,0,0,0,0,-1,1819,1359,49.984,-3.76467
602,-335,36.5643,0.0861816,0,0,0,0,0,0,0,-1,1826,1359,36.5643,-0.0862283
609,-335,36.2933,0.993896,0,0,0,0,0,0,0,-1,1833,1359,36.2934,-0.993911
616,-335,34.6969,4.82666,0,0,0,0,0,0,0,-1,1840,1359,34.6969,-4.82667
623,-335,26.6051,6.54333,0,0,0,0,0,0,0,-1,1847,1359,26.6051,-6.54339
630,-335,19.1707,1.00952,0,0,0,0,0,0,0,-1,1854,1359,19.1707,-1.00953
637,-335,18.2009,6.65454,0,0,0,0,0,0,0,-1,1861,1359,18.2009,-6.6546
644,-335,28.1042,12.067,0,0,0,0,0,0,0,-1,1868,1359,28.1042,-12.067
651,-335,35.0359,14.6344,0,0,0,0,0,0,0,-1,1875,1359,35.0359,-14.6344
658,-335,35.099,13.9885,5.45787e-05,-0.000325094,-0.000440432,0.000344345,-0.000614861,-0.581918,0.000561091,0.0302674,1882,1359,35.099,-13.9886
665,-335,35.1296,13.3567,0.000357195,-0.00056409,-0.000234637,0.000413511,-0.000620406,-0.235557,0.000600903,0.0151929,1889,1359,35.1296,-13.3567
672,-335,35.1144,12.7876,0.000714877,-0.000532934,-0.000208181,0.000748692,-0.000566749,-0.161029,0.000761888,0.0178711,1896,1359,35.1144,-12.7876
679,-335,35.1051,12.2556,0.00107367,-0.000407721,-0.000213028,0.00110369,-0.000437746,-0.140024,0.000917216,0.0154371,1903,1359,35.1051,-12.2556
686,-335,35.0898,11.6698,0.00145797,-0.000214074,-0.000258336,0.00149698,-0.000253077,-0.149849,0.00109216,0.0137426,1910,1359,35.0899,-11.6698
693,-335,35.0504,11.0948,0.00184414,3.05419e-05,-0.00032362,0.00190015,-2.5475e-05,-0.171396,0.00127535,0.0116676,1917,1359,35.0505,-11.0948
700,-335,35.0281,10.568,0.00224484,0.000330762,-0.00040031,0.00232518,0.000250414,-0.198083,0.00147376,0.0118596,1924,1359,35.0281,-10.568
707,-335,35.0145,10.016,0.00256385,0.000661566,-0.000441213,0.0026612,0.000564214,-0.217167,0.00161917,0.0147077,1931,1359,35.0145,-10.016
714,-335,35.0321,9.31555,0.0028853,0.00101181,-0.000458301,0.0029914,0.000905703,-0.227504,0.00177131,0.035099,1938,1359,35.0321,-9.31553
721,-335,34.9675,8.53503,0,0,0,0,0,0,0,-1,1945,1359,34.9676,-8.53502
728,-335,20.8126,5.21167,0,0,0,0,0,0,0,-1,1952,1359,20.8127,-5.21172
735,-335,20.2725,5.34729,0,0,0,0,0,0,0,-1,1959,1359,20.2724,-5.34734
742,-335,19.8624,4.72229,0,0,0,0,0,0,0,-1,1966,1359,19.8624,-4.72225
749,-335,20.5887,6.05322,0,0,0,0,0,0,0,-1,1973,1359,20.5887,-6.05322
756,-335,20.7832,6.00452,0,0,0,0,0,0,0,-1,1980,1359,20.7832,-6.00447
763,-335,0,0,0,0,0,0,0,0,0,-1,1987,1359,0,0
770,-335,0,0,0,0,0,0,0,0,0,-1,1994,1359,0,0
777,-335,0,0,0,0,0,0,0,0,0,-1,2001,1359,0,0
784,-335,0,0,0,0,0,0,0,0,0,-1,2008,1359,0,0
791,-335,0,0,0,0,0,0,0,0,0,-1,2015,1359,0,0
798,-335,0,0,0,0,0,0,0,0,0,-1,2022,1359,0,0
805,-335,0,0,0,0,0,0,0,0,0,-1,2029,1359,0,0
812,-335,0,0,0,0,0,0,0,0,0,-1,2036,1359,0,0
-700,-342,0,0,0,0,0,0,0,0,0,-1,524,1366,0,0
-693,-342,0,0,0,0,0,0,0,0,0,-1,531,1366,0,0
-686,-342,0,0,0,0,0,0,0,0,0,-1,538,1366,0,0
-679,-342,0,0,0,0,0,0,0,0,0,-1,545,1366,0,0
-672,-342,0,0,0,0,0,0,0,0,0,-1,552,1366,0,0
-665,-342,0,0,0,0,0,0,0,0,0,-1,559,1366,0,0
-658,-342,0,0,0,0,0,0,0,0,0,-1,566,1366,0,0
-651,-342,0,0,0,0,0,0,0,0,0,-1,573,1366,0,0
-644,-342,0,0,0,0,0,0,0,0,0,-1,580,1366,0,0
-637,-342,-8.67786,-4.58557,0,0,0,0,0,0,0,-1,587,1366,-8.67788,4.5856
-630,-342,-8.60132,2.71777,0,0,0,0,0,0,0,-1,594,1366,-8.60135,-2.71779
-623,-342,-8.41168,0.662476,0,0,0,0,0,0,0,-1,601,1366,-8.41168,-0.662442
-616,-342,-6.625,-1.28015,0,0,0,0,0,0,0,-1,608,1366,-6.62499,1.28011
-609,-342,-7.83154,0.674561,0,0,0,0,0,0,0,-1,615,1366,-7.83155,-0.674598
-602,-342,-9.65765,2.25195,0,0,0,0,0,0,0,-1,622,1366,-9.65767,-2.25192
-595,-342,-9.47687,3.00671,0,0,0,0,0,0,0,-1,629,1366,-9.47686,-3.00668
-588,-342,-9.78467,3.57727,0,0,0,0,0,0,0,-1,636,1366,-9.78468,-3.57723
-581,-342,-18.946,7.10742,0,0,0,0,0,0,0,-1,643,1366,-18.946,-7.10741
-574,-342,-18.9316,7.86951,0.0050993,0.00144983,0.00157878,0.00568749,0.000861637,0.35663,0.00353958,0.0163441,650,1366,-18.9316,-7.86956
-567,-342,-18.8495,8.4917,0.00409333,0.00106483,0.00121425,0.00452005,0.000638107,0.337944,0.00282479,0.0175387,657,1366,-18.8496,-8.4917
-560,-342,-18.8917,9.07959,0.00335785,0.00077078,0.0010763,0.00374707,0.000381563,0.346994,0.00238107,0.0247577,664,1366,-18.8917,-9.07961
-553,-342,-18.8907,9.6438,0.00279804,0.000555471,0.00108172,0.00323476,0.000118744,0.383721,0.00211804,0.0280689,671,1366,-18.8907,-9.64379
-546,-342,-18.8947,10.2351,0.00243168,0.000395974,0.00120502,0.0029912,-0.000163544,0.434701,0.00205082,0.0296081,678,1366,-18.8947,-10.2352
-539,-342,-18.9543,10.8967,0.00223362,0.000311171,0.00144828,0.00301063,-0.000465837,0.492424,0.00217903,0.0230359,685,1366,-18.9544,-10.8968
-532,-342,-19.0134,11.5674,0.00229225,0.000292791,0.00183961,0.00338624,-0.000801192,0.536499,0.00256658,0.0168716,692,1366,-19.0134,-11.5673
-525,-342,-18.9833,12.1869,0.00258808,0.000317375,0.00235845,0.00407023,-0.00116477,0.56107,0.00317381,0.0127664,699,1366,-18.9834,-12.1868
-518,-342,-18.9273,12.8279,0.00327232,0.000618055,0.0030315,0.00525445,-0.00136408,0.579075,0.00403526,0.0346366,706,1366,-18.9273,-12.8279
-511,-342,-18.9506,13.4541,0,0,0,0,0,0,0,-1,713,1366,-18.9506,-13.4541
-504,-342,-8.95709,6.5719,0,0,0,0,0,0,0,-1,720,1366,-8.95707,-6.57192
-497,-342,-8.26587,-0.943604,0,0,0,0,0,0,0,-1,727,1366,-8.26586,0.943543
-490,-342,-9.07153,-0.0227051,0,0,0,0,0,0,0,-1,734,1366,-9.07155,0.0227087
-483,-342,-9.87726,0.898071,0,0,0,0,0,0,0,-1,741,1366,-9.87724,-0.898125
-476,-342,-11.6371,-0.736328,0,0,0,0,0,0,0,-1,748,1366,-11.6371,0.736281
-469,-342,-12.6245,-0.987549,0,0,0,0,0,0,0,-1,755,1366,-12.6245,0.987553
-462,-342,-13.0912,-0.533203,0,0,0,0,0,0,0,-1,762,1366,-13.0912,0.533224
-455,-342,-13.7612,0.122925,0,0,0,0,0,0,0,-1,769,1366,-13.7612,-0.122896
-448,-342,-14.5278,0.826904,0,0,0,0,0,0,0,-1,776,1366,-14.5277,-0.826861
-441,-342,0,0,0,0,0,0,0,0,0,-1,783,1366,0,0
-434,-342,0,0,0,0,0,0,0,0,0,-1,790,1366,0,0
-427,-342,0,0,0,0,0,0,0,0,0,-1,797,1366,0,0
-420,-342,0,0,0,0,0,0,0,0,0,-1,804,1366,0,0
-413,-342,0,0,0,0,0,0,0,0,0,-1,811,1366,0,0
-406,-342,0,0,0,0,0,0,0,0,0,-1,818,1366,0,0
-399,-342,0,0,0,0,0,0,0,0,0,-1,825,1366,0,0
-392,-342,0,0,0,0,0,0,0,0,0,-1,832,1366,0,0
-385,-342,0,0,0,0,0,0,0,0,0,-1,839,1366,0,0
-378,-342,0,0,0,0,0,0,0,0,0,-1,846,1366,0,0
-371,-342,0,0,0,0,0,0,0,0,0,-1,853,1366,0,0
-364,-342,0,0,0,0,0,0,0,0,0,-1,860,1366,0,0
-357,-342,0,0,0,0,0,0,0,0,0,-1,867,1366,0,0
-350,-342,0,0,0,0,0,0,0,0,0,-1,874,1366,0,0
-343,-342,0,0,0,0,0,0,0,0,0,-1,881,1366,0,0
-336,-342,0,0,0,0,0,0,0,0,0,-1,888,1366,0,0
-329,-342,0,0,0,0,0,0,0,0,0,-1,895,1366,0,0
-322,-342,0,0,0,0,0,0,0,0,0,-1,902,1366,0,0
-315,-342,0,0,0,0,0,0,0,0,0,-1,909,1366,0,0
-308,-342,0,0,0,0,0,0,0,0,0,-1,916,1366,0,0
-301,-342,0,0,0,0,0,0,0,0,0,-1,923,1366,0,0
-294,-342,0,0,0,0,0,0,0,0,0,-1,930,1366,0,0
-287,-342,0,0,0,0,0,0,0,0,0,-1,937,1366,0,0
-280,-342,0,0,0,0,0,0,0,0,0,-1,944,1366,0,0
-273,-342,0,0,0,0,0,0,0,0,0,-1,951,1366,0,0
-266,-342,0,0,0,0,0,0,0,0,0,-1,958,1366,0,0
-259,-342,0,0,0,0,0,0,0,0,0,-1,965,1366,0,0
-252,-342,0,0,0,0,0,0,0,0,0,-1,972,1366,0,0
-245,-342,0,0,0,0,0,0,0,0,0,-1,979,1366,0,0
-238,-342,0,0,0,0,0,0,0,0,0,-1,986,1366,0,0
-231,-342,0,0,0,0,0,0,0,0,0,-1,993,1366,0,0
-224,-342,0,0,0,0,0,0,0,0,0,-1,1000,1366,0,0
-217,-342,0,0,0,0,0,0,0,0,0,-1,1007,1366,0,0
-210,-342,0,0,0,0,0,0,0,0,0,-1,1014,1366,0,0
-203,-342,0,0,0,0,0,0,0,0,0,-1,1021,1366,0,0
-196,-342,0,0,0,0,0,0,0,0,0,-1,1028,1366,0,0
-189,-342,0,0,0,0,0,0,0,0,0,-1,1035,1366,0,0
-182,-342,0,0,0,0,0,0,0,0,0,-1,1042,1366,0,0
-175,-342,0,0,0,0,0,0,0,0,0,-1,1049,1366,0,0
-168,-342,0,0,0,0,0,0,0,0,0,-1,1056,1366,0,0
-161,-342,0,0,0,0,0,0,0,0,0,-1,1063,1366,0,0
-154,-342,0,0,0,0,0,0,0,0,0,-1,1070,1366,0,0
-147,-342,0,0,0,0,0,0,0,0,0,-1,1077,1366,0,0
-140,-342,0,0,0,0,0,0,0,0,0,-1,1084,1366,0,0
-133,-342,0,0,0,0,0,0,0,0,0,-1,1091,1366,0,0
-126,-342,0,0,0,0,0,0,0,0,0,-1,1098,1366,0,0
-119,-342,0,0,0,0,0,0,0,0,0,-1,1105,1366,0,0
-112,-342,0,0,0,0,0,0,0,0,0,-1,1112,1366,0,0
-105,-342,0,0,0,0,0,0,0,0,0,-1,1119,1366,0,0
-98,-342,0,0,0,0,0,0,0,0,0,-1,1126,1366,0,0
-91,-342,0,0,0,0,0,0,0,0,0,-1,1133,1366,0,0
-84,-342,0,0,0,0,0,0,0,0,0,-1,1140,1366,0,0
-77,-342,0,0,0,0,0,0,0,0,0,-1,1147,1366,0,0
-70,-342,0,0,0,0,0,0,0,0,0,-1,1154,1366,0,0
-63,-342,0,0,0,0,0,0,0,0,0,-1,1161,1366,0,0
-56,-342,0,0,0,0,0,0,0,0,0,-1,1168,1366,0,0
-49,-342,0,0,0,0,0,0,0,0,0,-1,1175,1366,0,0
-42,-342,0,0,0,0,0,0,0,0,0,-1,1182,1366,0,0
-35,-342,0,0,0,0,0,0,0,0,0,-1,1189,1366,0,0
-28,-342,0,0,0,0,0,0,0,0,0,-1,1196,1366,0,0
-21,-342,0,0,0,0,0,0,0,0,0,-1,1203,1366,0,0
-14,-342,0,0,0,0,0,0,0,0,0,-1,1210,1366,0,0
-7,-342,0,0,0,0,0,0,0,0,0,-1,1217,1366,0,0
0,-342,0,0,0,0,0,0,0,0,0,-1,1224,1366,0,0
7,-342,0,0,0,0,0,0,0,0,0,-1,1231,1366,0,0
14,-342,0,0,0,0,0,0,0,0,0,-1,1238,1366,0,0
21,-342,0,0,0,0,0,0,0,0,0,-1,1245,1366,0,0
28,-342,0,0,0,0,0,0,0,0,0,-1,1252,1366,0,0
35,-342,0,0,0,0,0,0,0,0,0,-1,1259,1366,0,0
42,-342,0,0,0,0,0,0,0,0,0,-1,1266,1366,0,0
49,-342,0,0,0,0,0,0,0,0,0,-1,1273,1366,0,0
56,-342,0,0,0,0,0,0,0,0,0,-1,1280,1366,0,0
63,-342,0,0,0,0,0,0,0,0,0,-1,1287,1366,0,0
70,-342,0,0,0,0,0,0,0,0,0,-1,1294,1366,0,0
77,-342,0,0,0,0,0,0,0,0,0,-1,1301,1366,0,0
84,-342,0,0,0,0,0,0,0,0,0,-1,1308,1366,0,0
91,-342,0,0,0,0,0,0,0,0,0,-1,1315,1366,0,0
98,-342,0,0,0,0,0,0,0,0,0,-1,1322,1366,0,0
105,-342,0,0,0,0,0,0,0,0,0,-1,1329,1366,0,0
112,-342,0,0,0,0,0,0,0,0,0,-1,1336,1366,0,0
119,-342,0,0,0,0,0,0,0,0,0,-1,1343,1366,0,0
126,-342,0,0,0,0,0,0,0,0,0,-1,1350,1366,0,0
133,-342,0,0,0,0,0,0,0,0,0,-1,1357,1366,0,0
140,-342,0,0,0,0,0,0,0,0,0,-1,1364,1366,0,0
147,-342,0,0,0,0,0,0,0,0,0,-1,1371,1366,0,0
154,-342,0,0,0,0,0,0,0,0,0,-1,1378,1366,0,0
161,-342,0,0,0,0,0,0,0,0,0,-1,1385,1366,0,0
168,-342,0,0,0,0,0,0,0,0,0,-1,1392,1366,0,0
175,-342,0,0,0,0,0,0,0,0,0,-1,1399,1366,0,0
182,-342,0,0,0,0,0,0,0,0,0,-1,1406,1366,0,0
189,-342,0,0,0,0,0,0,0,0,0,-1,1413,1366,0,0
196,-342,0,0,0,0,0,0,0,0,0,-1,1420,1366,0,0
203,-342,0,0,0,0,0,0,0,0,0,-1,1427,1366,0,0
210,-342,0,0,0,0,0,0,0,0,0,-1,1434,1366,0,0
217,-342,0,0,0,0,0,0,0,0,0,-1,1441,1366,0,0
224,-342,0,0,0,0,0,0,0,0,0,-1,1448,1366,0,0
231,-342,0,0,0,0,0,0,0,0,0,-1,1455,1366,0,0
238,-342,0,0,0,0,0,0,0,0,0,-1,1462,1366,0,0
245,-342,0,0,0,0,0,0,0,0,0,-1,1469,1366,0,0
252,-342,0,0,0,0,0,0,0,0,0,-1,1476,1366,0,0
259,-342,0,0,0,0,0,0,0,0,0,-1,1483,1366,0,0
266,-342,0,0,0,0,0,0,0,0,0,-1,1490,1366,0,0
273,-342,0,0,0,0,0,0,0,0,0,-1,1497,1366,0,0
280,-342,0,0,0,0,0,0,0,0,0,-1,1504,1366,0,0
287,-342,0,0,0,0,0,0,0,0,0,-1,1511,1366,0,0
294,-342,0,0,0,0,0,0,0,0,0,-1,1518,1366,0,0
301,-342,0,0,0,0,0,0,0,0,0,-1,1525,1366,0,0
308,-342,0,0,0,0,0,0,0,0,0,-1,1532,1366,0,0
315,-342,0,0,0,0,0,0,0,0,0,-1,1539,1366,0,0
322,-342,0,0,0,0,0,0,0,0,0,-1,1546,1366,0,0
329,-342,0,0,0,0,0,0,0,0,0,-1,1553,1366,0,0
336,-342,0,0,0,0,0,0,0,0,0,-1,1560,1366,0,0
343,-342,0,0,0,0,0,0,0,0,0,-1,1567,1366,0,0
350,-342,0,0,0,0,0,0,0,0,0,-1,1574,1366,0,0
357,-342,0,0,0,0,0,0,0,0,0,-1,1581,1366,0,0
364,-342,0,0,0,0,0,0,0,0,0,-1,1588,1366,0,0
371,-342,0,0,0,0,0,0,0,0,0,-1,1595,1366,0,0
378,-342,0,0,0,0,0,0,0,0,0,-1,1602,1366,0,0
385,-342,0,0,0,0,0,0,0,0,0,-1,1609,1366,0,0
392,-342,0,0,0,0,0,0,0,0,0,-1,1616,1366,0,0
399,-342,0,0,0,0,0,0,0,0,0,-1,1623,1366,0,0
406,-342,0,0,0,0,0,0,0,0,0,-1,1630,1366,0,0
413,-342,0,0,0,0,0,0,0,0,0,-1,1637,1366,0,0
420,-342,0,0,0,0,0,0,0,0,0,-1,1644,1366,0,0
427,-342,0,0,0,0,0,0,0,0,0,-1,1651,1366,0,0
434,-342,0,0,0,0,0,0,0,0,0,-1,1658,1366,0,0
441,-342,0,0,0,0,0,0,0,0,0,-1,1665,1366,0,0
448,-342,0,0,0,0,0,0,0,0,0,-1,1672,1366,0,0
455,-342,0,0,0,0,0,0,0,0,0,-1,1679,1366,0,0
462,-342,0,0,0,0,0,0,0,0,0,-1,1686,1366,0,0
469,-342,0,0,0,0,0,0,0,0,0,-1,1693,1366,0,0
476,-342,0,0,0,0,0,0,0,0,0,-1,1700,1366,0,0
483,-342,0,0,0,0,0,0,0,0,0,-1,1707,1366,0,0
490,-342,0,0,0,0,0,0,0,0,0,-1,1714,1366,0,0
497,-342,0,0,0,0,0,0,0,0,0,-1,1721,1366,0,0
504,-342,0,0,0,0,0,0,0,0,0,-1,1728,1366,0,0
511,-342,0,0,0,0,0,0,0,0,0,-1,1735,1366,0,0
518,-342,0,0,0,0,0,0,0,0,0,-1,1742,1366,0,0
525,-342,0,0,0,0,0,0,0,0,0,-1,1749,1366,0,0
532,-342,0,0,0,0,0,0,0,0,0,-1,1756,1366,0,0
539,-342,0,0,0,0,0,0,0,0,0,-1,1763,1366,0,0
546,-342,0,0,0,0,0,0,0,0,0,-1,1770,1366,0,0
553,-342,0,0,0,0,0,0,0,0,0,-1,1777,1366,0,0
560,-342,0,0,0,0,0,0,0,0,0,-1,1784,1366,0,0
567,-342,42.6652,5.53748,0,0,0,0,0,0,0,-1,1791,1366,42.6652,-5.53752
574,-342,43.0466,5.95728,0,0,0,0,0,0,0,-1,1798,1366,43.0466,-5.9573
581,-342,43.4904,6.59937,0,0,0,0,0,0,0,-1,1805,1366,43.4903,-6.59938
588,-342,43.9108,7.22559,0,0,0,0,0,0,0,-1,1812,1366,43.9107,-7.22554
595,-342,35.7993,0.709961,0,0,0,0,0,0,0,-1,1819,1366,35.7993,-0.709913
602,-342,36.3618,3.28723,0,0,0,0,0,0,0,-1,1826,1366,36.3619,-3.28719
609,-342,35.3777,4.14978,0,0,0,0,0,0,0,-1,1833,1366,35.3777,-4.14976
616,-342,34.199,5.8158,0,0,0,0,0,0,0,-1,1840,1366,34.199,-5.81579
623,-342,26.0299,6.86865,0,0,0,0,0,0,0,-1,1847,1366,26.0299,-6.86863
630,-342,17.3431,0.773071,0,0,0,0,0,0,0,-1,1854,1366,17.3432,-0.773095
637,-342,16.196,6.76172,0,0,0,0,0,0,0,-1,1861,1366,16.1961,-6.76174
644,-342,31.8916,14.0614,0,0,0,0,0,0,0,-1,1868,1366,31.8916,-14.0613
651,-342,34.5459,14.5455,0,0,0,0,0,0,0,-1,1875,1366,34.5459,-14.5455
658,-342,34.5637,13.9583,-0.000101905,-0.000191676,-0.000426192,0.000281758,-0.000575339,-0.732933,0.000504429,0.0215361,1882,1366,34.5637,-13.9582
665,-342,34.569,13.364,0.000333548,-0.000407795,-0.000233535,0.000400982,-0.000475228,-0.281104,0.000506485,0.0187365,1889,1366,34.569,-13.364
672,-342,34.55,12.8239,0.000801214,-0.00040907,-0.000183337,0.000828377,-0.000436233,-0.147087,0.000741731,0.0142686,1896,1366,34.5501,-12.8239
679,-342,34.5221,12.2981,0.00128188,-0.000341478,-0.000186333,0.00130299,-0.000362591,-0.112828,0.00101143,0.0139195,1903,1366,34.5221,-12.2982
686,-342,34.5341,11.7433,0.00180185,-0.000176816,-0.0002557,0.00183436,-0.000209325,-0.126461,0.00129832,0.0134388,1910,1366,34.5341,-11.7433
693,-342,34.4937,11.1523,0.00232479,4.60039e-05,-0.000354776,0.00237874,-7.95245e-06,-0.150929,0.00158849,0.0139698,1917,1366,34.4937,-11.1523
700,-342,34.4635,10.6055,0.00287283,0.000358243,-0.000497434,0.00296765,0.000263417,-0.188371,0.00189674,0.0151562,1924,1366,34.4635,-10.6055
707,-342,34.4489,10.0077,0.00330564,0.000724834,-0.000619477,0.00344663,0.000583841,-0.223786,0.00212998,0.0143773,1931,1366,34.4489,-10.0077
714,-342,34.5442,9.20581,0,0,0,0,0,0,0,-1,1938,1366,34.5442,-9.20579
721,-342,22.4666,6.08679,0,0,0,0,0,0,0,-1,1945,1366,22.4666,-6.08678
728,-342,19.8912,5.26636,0,0,0,0,0,0,0,-1,1952,1366,19.8913,-5.26636
735,-342,19.481,4.41968,0,0,0,0,0,0,0,-1,1959,1366,19.4809,-4.41962
742,-342,19.309,2.66943,0,0,0,0,0,0,0,-1,1966,1366,19.3089,-2.66948
749,-342,21.0934,6.47729,0,0,0,0,0,0,0,-1,1973,1366,21.0934,-6.4773
756,-342,0,0,0,0,0,0,0,0,0,-1,1980,1366,0,0
763,-342,0,0,0,0,0,0,0,0,0,-1,1987,1366,0,0
770,-342,0,0,0,0,0,0,0,0,0,-1,1994,1366,0,0
777,-342,0,0,0,0,0,0,0,0,0,-1,2001,1366,0,0
784,-342,0,0,0,0,0,0,0,0,0,-1,2008,1366,0,0
791,-342,0,0,0,0,0,0,0,0,0,-1,2015,1366,0,0
798,-342,0,0,0,0,0,0,0,0,0,-1,2022,1366,0,0
805,-342,0,0,0,0,0,0,0,0,0,-1,2029,1366,0,0
812,-342,0,0,0,0,0,0,0,0,0,-1,2036,1366,0,0
-700,-349,0,0,0,0,0,0,0,0,0,-1,524,1373,0,0
-693,-349,0,0,0,0,0,0,0,0,0,-1,531,1373,0,0
-686,-349,0,0,0,0,0,0,0,0,0,-1,538,1373,0,0
-679,-349,0,0,0,0,0,0,0,0,0,-1,545,1373,0,0
-672,-349,0,0,0,0,0,0,0,0,0,-1,552,1373,0,0
-665,-349,0,0,0,0,0,0,0,0,0,-1,559,1373,0,0
-658,-349,0,0,0,0,0,0,0,0,0,-1,566,1373,0,0
-651,-349,0,0,0,0,0,0,0,0,0,-1,573,1373,0,0
-644,-349,0,0,0,0,0,0,0,0,0,-1,580,1373,0,0
-637,-349,0,0,0,0,0,0,0,0,0,-1,587,1373,0,0
-630,-349,-7.64117,-5.06177,0,0,0,0,0,0,0,-1,594,1373,-7.64118,5.0618
-623,-349,-8.63507,0.51123,0,0,0,0,0,0,0,-1,601,1373,-8.63505,-0.511275
-616,-349,-5.2066,-0.188232,0,0,0,0,0,0,0,-1,608,1373,-5.20659,0.188211
-609,-349,-7.12073,1.37048,0,0,0,0,0,0,0,-1,615,1373,-7.12072,-1.37044
-602,-349,-9.00623,3.39587,0,0,0,0,0,0,0,-1,622,1373,-9.0062,-3.39591
-595,-349,-9.50568,2.96912,0,0,0,0,0,0,0,-1,629,1373,-9.50569,-2.96906
-588,-349,-8.60046,3.56042,0,0,0,0,0,0,0,-1,636,1373,-8.60046,-3.56047
-581,-349,-18.2123,7.25452,0,0,0,0,0,0,0,-1,643,1373,-18.2122,-7.25453
-574,-349,-18.2443,7.81238,0.0062519,0.00132762,0.00175315,0.00681229,0.00076723,0.309382,0.00430861,0.0349568,650,1373,-18.2443,-7.81242
-567,-349,-18.2679,8.49683,0.00486637,0.00101234,0.00135542,0.00529531,0.000583397,0.306495,0.00335271,0.0184855,657,1373,-18.2679,-8.49677
-560,-349,-18.2887,9.11206,0.00387873,0.000750148,0.00118677,0.00427796,0.000350914,0.324511,0.0027425,0.020756,664,1373,-18.2887,-9.11212
-553,-349,-18.2394,9.6582,0.00312169,0.000568248,0.00116271,0.00357179,0.000118147,0.369348,0.0023428,0.0268663,671,1373,-18.2395,-9.6582
-546,-349,-18.2527,10.2467,0.00256764,0.000442656,0.00124155,0.00313926,-0.000128971,0.431479,0.00213713,0.0297226,678,1373,-18.2527,-10.2466
-539,-349,-18.344,10.8954,0.00221033,0.000368675,0.00141488,0.00297764,-0.000398632,0.496922,0.00213044,0.0233097,685,1373,-18.344,-10.8954
-532,-349,-18.404,11.5714,0.00210264,0.000357081,0.00171237,0.00315183,-0.000692108,0.549714,0.00236591,0.0175127,692,1373,-18.404,-11.5714
-525,-349,-18.3938,12.2019,0.00223182,0.00040722,0.00211974,0.00362725,-0.000988206,0.582188,0.00280618,0.0138733,699,1373,-18.3938,-12.2019
-518,-349,-18.4007,12.8805,0.00267922,0.000675363,0.00264225,0.00450312,-0.00114854,0.604177,0.00344927,0.0221769,706,1373,-18.4007,-12.8805
-511,-349,-18.3778,13.5715,0,0,0,0,0,0,0,-1,713,1373,-18.3778,-13.5715
-504,-349,-9.60516,7.88831,0,0,0,0,0,0,0,-1,720,1373,-9.60519,-7.88825
-497,-349,-7.9339,5.58789,0,0,0,0,0,0,0,-1,727,1373,-7.93388,-5.58785
-490,-349,-8.73969,-0.503784,0,0,0,0,0,0,0,-1,734,1373,-8.73966,0.503752
-483,-349,-5.66974,3.7395,0,0,0,0,0,0,0,-1,741,1373,-5.66975,-3.73949
-476,-349,-10.8496,1.15759,0,0,0,0,0,0,0,-1,748,1373,-10.8496,-1.15756
-469,-349,-12.3314,-1.74878,0,0,0,0,0,0,0,-1,755,1373,-12.3314,1.74882
-462,-349,-12.6559,-0.995361,0,0,0,0,0,0,0,-1,762,1373,-12.656,0.995351
-455,-349,-13.2897,-0.234253,0,0,0,0,0,0,0,-1,769,1373,-13.2897,0.234261
-448,-349,-14.045,0.712891,0,0,0,0,0,0,0,-1,776,1373,-14.045,-0.712838
-441,-349,0,0,0,0,0,0,0,0,0,-1,783,1373,0,0
-434,-349,0,0,0,0,0,0,0,0,0,-1,790,1373,0,0
-427,-349,0,0,0,0,0,0,0,0,0,-1,797,1373,0,0
-420,-349,0,0,0,0,0,0,0,0,0,-1,804,1373,0,0
-413,-349,0,0,0,0,0,0,0,0,0,-1,811,1373,0,0
-406,-349,0,0,0,0,0,0,0,0,0,-1,818,1373,0,0
-399,-349,0,0,0,0,0,0,0,0,0,-1,825,1373,0,0
-392,-349,0,0,0,0,0,0,0,0,0,-1,832,1373,0,0
-385,-349,0,0,0,0,0,0,0,0,0,-1,839,1373,0,0
-378,-349,0,0,0,0,0,0,0,0,0,-1,846,1373,0,0
-371,-349,0,0,0,0,0,0,0,0,0,-1,853,1373,0,0
-364,-349,0,0,0,0,0,0,0,0,0,-1,860,1373,0,0
-357,-349,0,0,0,0,0,0,0,0,0,-1,867,1373,0,0
-350,-349,0,0,0,0,0,0,0,0,0,-1,874,1373,0,0
-343,-349,0,0,0,0,0,0,0,0,0,-1,881,1373,0,0
-336,-349,0,0,0,0,0,0,0,0,0,-1,888,1373,0,0
-329,-349,0,0,0,0,0,0,0,0,0,-1,895,1373,0,0
-322,-349,0,0,0,0,0,0,0,0,0,-1,902,1373,0,0
-315,-349,0,0,0,0,0,0,0,0,0,-1,909,1373,0,0
-308,-349,0,0,0,0,0,0,0,0,0,-1,916,1373,0,0
-301,-349,0,0,0,0,0,0,0,0,0,-1,923,1373,0,0
-294,-349,0,0,0,0,0,0,0,0,0,-1,930,1373,0,0
-287,-349,0,0,0,0,0,0,0,0,0,-1,937,1373,0,0
-280,-349,0,0,0,0,0,0,0,0,0,-1,944,1373,0,0
-273,-349,0,0,0,0,0,0,0,0,0,-1,951,1373,0,0
-266,-349,0,0,0,0,0,0,0,0,0,-1,958,1373,0,0
-259,-349,0,0,0,0,0,0,0,0,0,-1,965,1373,0,0
-252,-349,0,0,0,0,0,0,0,0,0,-1,972,1373,0,0
-245,-349,0,0,0,0,0,0,0,0,0,-1,979,1373,0,0
-238,-349,0,0,0,0,0,0,0,0,0,-1,986,1373,0,0
-231,-349,0,0,0,0,0,0,0,0,0,-1,993,1373,0,0
-224,-349,0,0,0,0,0,0,0,0,0,-1,1000,1373,0,0
-217,-349,0,0,0,0,0,0,0,0,0,-1,1007,1373,0,0
-210,-349,0,0,0,0,0,0,0,0,0,-1,1014,1373,0,0
-203,-349,0,0,0,0,0,0,0,0,0,-1,1021,1373,0,0
-196,-349,0,0,0,0,0,0,0,0,0,-1,1028,1373,0,0
-189,-349,0,0,0,0,0,0,0,0,0,-1,1035,1373,0,0
-182,-349,0,0,0,0,0,0,0,0,0,-1,1042,1373,0,0
-175,-349,0,0,0,0,0,0,0,0,0,-1,1049,1373,0,0
-168,-349,0,0,0,0,0,0,0,0,0,-1,1056,1373,0,0
-161,-349,0,0,0,0,0,0,0,0,0,-1,1063,1373,0,0
-154,-349,0,0,0,0,0,0,0,0,0,-1,1070,1373,0,0
-147,-349,0,0,0,0,0,0,0,0,0,-1,1077,1373,0,0
-140,-349,0,0,0,0,0,0,0,0,0,-1,1084,1373,0,0
-133,-349,0,0,0,0,0,0,0,0,0,-1,1091,1373,0,0
-126,-349,0,0,0,0,0,0,0,0,0,-1,1098,1373,0,0
-119,-349,0,0,0,0,0,0,0,0,0,-1,1105,1373,0,0
-112,-349,0,0,0,0,0,0,0,0,0,-1,1112,1373,0,0
-105,-349,0,0,0,0,0,0,0,0,0,-1,1119,1373,0,0
-98,-349,0,0,0,0,0,0,0,0,0,-1,1126,1373,0,0
-91,-349,0,0,0,0,0,0,0,0,0,-1,1133,1373,0,0
-84,-349,0,0,0,0,0,0,0,0,0,-1,1140,1373,0,0
-77,-349,0,0,0,0,0,0,0,0,0,-1,1147,1373,0,0
-70,-349,0,0,0,0,0,0,0,0,0,-1,1154,1373,0,0
-63,-349,0,0,0,0,0,0,0,0,0,-1,1161,1373,0,0
-56,-349,0,0,0,0,0,0,0,0,0,-1,1168,1373,0,0
-49,-349,0,0,0,0,0,0,0,0,0,-1,1175,1373,0,0
-42,-349,0,0,0,0,0,0,0,0,0,-1,1182,1373,0,0
-35,-349,0,0,0,0,0,0,0,0,0,-1,1189,1373,0,0
-28,-349,0,0,0,0,0,0,0,0,0,-1,1196,1373,0,0
-21,-349,0,0,0,0,0,0,0,0,0,-1,1203,1373,0,0
-14,-349,0,0,0,0,0,0,0,0,0,-1,1210,1373,0,0
-7,-349,0,0,0,0,0,0,0,0,0,-1,1217,1373,0,0
0,-349,0,0,0,0,0,0,0,0,0,-1,1224,1373,0,0
7,-349,0,0,0,0,0,0,0,0,0,-1,1231,1373,0,0
14,-349,0,0,0,0,0,0,0,0,0,-1,1238,1373,0,0
21,-349,0,0,0,0,0,0,0,0,0,-1,1245,1373,0,0
28,-349,0,0,0,0,0,0,0,0,0,-1,1252,1373,0,0
35,-349,0,0,0,0,0,0,0,0,0,-1,1259,1373,0,0
42,-349,0,0,0,0,0,0,0,0,0,-1,1266,1373,0,0
49,-349,0,0,0,0,0,0,0,0,0,-1,1273,1373,0,0
56,-349,0,0,0,0,0,0,0,0,0,-1,1280,1373,0,0
63,-349,0,0,0,0,0,0,0,0,0,-1,1287,1373,0,0
70,-349,0,0,0,0,0,0,0,0,0,-1,1294,1373,0,0
77,-349,0,0,0,0,0,0,0,0,0,-1,1301,1373,0,0
84,-349,0,0,0,0,0,0,0,0,0,-1,1308,1373,0,0
91,-349,0,0,0,0,0,0,0,0,0,-1,1315,1373,0,0
98,-349,0,0,0,0,0,0,0,0,0,-1,1322,1373,0,0
105,-349,0,0,0,0,0,0,0,0,0,-1,1329,1373,0,0
112,-349,0,0,0,0,0,0,0,0,0,-1,1336,1373,0,0
119,-349,0,0,0,0,0,0,0,0,0,-1,1343,1373,0,0
126,-349,0,0,0,0,0,0,0,0,0,-1,1350,1373,0,0
133,-349,0,0,0,0,0,0,0,0,0,-1,1357,1373,0,0
140,-349,0,0,0,0,0,0,0,0,0,-1,1364,1373,0,0
147,-349,0,0,0,0,0,0,0,0,0,-1,1371,1373,0,0
154,-349,0,0,0,0,0,0,0,0,0,-1,1378,1373,0,0
161,-349,0,0,0,0,0,0,0,0,0,-1,1385,1373,0,0
168,-349,0,0,0,0,0,0,0,0,0,-1,1392,1373,0,0
175,-349,0,0,0,0,0,0,0,0,0,-1,1399,1373,0,0
182,-349,0,0,0,0,0,0,0,0,0,-1,1406,1373,0,0
189,-349,0,0,0,0,0,0,0,0,0,-1,1413,1373,0,0
196,-349,0,0,0,0,0,0,0,0,0,-1,1420,1373,0,0
203,-349,0,0,0,0,0,0,0,0,0,-1,1427,1373,0,0
210,-349,0,0,0,0,0,0,0,0,0,-1,1434,1373,0,0
217,-349,0,0,0,0,0,0,0,0,0,-1,1441,1373,0,0
224,-349,0,0,0,0,0,0,0,0,0,-1,1448,1373,0,0
231,-349,0,0,0,0,0,0,0,0,0,-1,1455,1373,0,0
238,-349,0,0,0,0,0,0,0,0,0,-1,1462,1373,0,0
245,-349,0,0,0,0,0,0,0,0,0,-1,1469,1373,0,0
252,-349,0,0,0,0,0,0,0,0,0,-1,1476,1373,0,0
259,-349,0,0,0,0,0,0,0,0,0,-1,1483,1373,0,0
266,-349,0,0,0,0,0,0,0,0,0,-1,1490,1373,0,0
273,-349,0,0,0,0,0,0,0,0,0,-1,1497,1373,0,0
280,-349,0,0,0,0,0,0,0,0,0,-1,1504,1373,0,0
287,-349,0,0,0,0,0,0,0,0,0,-1,1511,1373,0,0
294,-349,0,0,0,0,0,0,0,0,0,-1,1518,1373,0,0
301,-349,0,0,0,0,0,0,0,0,0,-1,1525,1373,0,0
308,-349,0,0,0,0,0,0,0,0,0,-1,1532,1373,0,0
315,-349,0,0,0,0,0,0,0,0,0,-1,1539,1373,0,0
322,-349,0,0,0,0,0,0,0,0,0,-1,1546,1373,0,0
329,-349,0,0,0,0,0,0,0,0,0,-1,1553,1373,0,0
336,-349,0,0,0,0,0,0,0,0,0,-1,1560,1373,0,0
343,-349,0,0,0,0,0,0,0,0,0,-1,1567,1373,0,0
350,-349,0,0,0,0,0,0,0,0,0,-1,1574,1373,0,0
357,-349,0,0,0,0,0,0,0,0,0,-1,1581,1373,0,0
364,-349,0,0,0,0,0,0,0,0,0,-1,1588,1373,0,0
371,-349,0,0,0,0,0,0,0,0,0,-1,1595,1373,0,0
378,-349,0,0,0,0,0,0,0,0,0,-1,1602,1373,0,0
385,-349,0,0,0,0,0,0,0,0,0,-1,1609,1373,0,0
392,-349,0,0,0,0,0,0,0,0,0,-1,1616,1373,0,0
399,-349,0,0,0,0,0,0,0,0,0,-1,1623,1373,0,0
406,-349,0,0,0,0,0,0,0,0,0,-1,1630,1373,0,0
413,-349,0,0,0,0,0,0,0,0,0,-1,1637,1373,0,0
420,-349,0,0,0,0,0,0,0,0,0,-1,1644,1373,0,0
427,-349,0,0,0,0,0,0,0,0,0,-1,1651,1373,0,0
434,-349,0,0,0,0,0,0,0,0,0,-1,1658,1373,0,0
441,-349,0,0,0,0,0,0,0,0,0,-1,1665,1373,0,0
448,-349,0,0,0,0,0,0,0,0,0,-1,1672,1373,0,0
455,-349,0,0,0,0,0,0,0,0,0,-1,1679,1373,0,0
462,-349,0,0,0,0,0,0,0,0,0,-1,1686,1373,0,0
469,-349,0,0,0,0,0,0,0,0,0,-1,1693,1373,0,0
476,-349,0,0,0,0,0,0,0,0,0,-1,1700,1373,0,0
483,-349,0,0,0,0,0,0,0,0,0,-1,1707,1373,0,0
490,-349,0,0,0,0,0,0,0,0,0,-1,1714,1373,0,0
497,-349,0,0,0,0,0,0,0,0,0,-1,1721,1373,0,0
504,-349,0,0,0,0,0,0,0,0,0,-1,1728,1373,0,0
511,-349,0,0,0,0,0,0,0,0,0,-1,1735,1373,0,0
518,-349,0,0,0,0,0,0,0,0,0,-1,1742,1373,0,0
525,-349,0,0,0,0,0,0,0,0,0,-1,1749,1373,0,0
532,-349,0,0,0,0,0,0,0,0,0,-1,1756,1373,0,0
539,-349,0,0,0,0,0,0,0,0,0,-1,1763,1373,0,0
546,-349,0,0,0,0,0,0,0,0,0,-1,1770,1373,0,0
553,-349,0,0,0,0,0,0,0,0,0,-1,1777,1373,0,0
560,-349,45.6893,3.53845,0,0,0,0,0,0,0,-1,1784,1373,45.6893,-3.5385
567,-349,41.9424,6.03833,0,0,0,0,0,0,0,-1,1791,1373,41.9423,-6.03834
574,-349,42.4165,6.17078,0,0,0,0,0,0,0,-1,1798,1373,42.4165,-6.17072
581,-349,42.8947,6.78381,0,0,0,0,0,0,0,-1,1805,1373,42.8946,-6.78376
588,-349,44.8121,5.06213,0,0,0,0,0,0,0,-1,1812,1373,44.8121,-5.06215
595,-349,44.4338,6.14099,0,0,0,0,0,0,0,-1,1819,1373,44.4338,-6.14095
602,-349,35.6641,3.26465,0,0,0,0,0,0,0,-1,1826,1373,35.6641,-3.26468
609,-349,34.7175,4.401,0,0,0,0,0,0,0,-1,1833,1373,34.7175,-4.40096
616,-349,27.1451,6.68274,0,0,0,0,0,0,0,-1,1840,1373,27.1451,-6.6828
623,-349,18.8478,2.75769,0,0,0,0,0,0,0,-1,1847,1373,18.8478,-2.75774
630,-349,15.4948,6.47644,0,0,0,0,0,0,0,-1,1854,1373,15.4947,-6.4765
637,-349,16.5161,6.92639,0,0,0,0,0,0,0,-1,1861,1373,16.5161,-6.92636
644,-349,34.1426,15.1268,0,0,0,0,0,0,0,-1,1868,1373,34.1425,-15.1269
651,-349,34.1494,14.5426,-0.000358849,0.000255234,-0.000923073,0.000920992,-0.00102461,-0.945957,0.00112382,0.0396053,1875,1373,34.1495,-14.5426
658,-349,34.0297,13.9507,1.62793e-05,-6.12828e-05,-0.000506043,0.000485025,-0.000530028,-0.747155,0.000586233,0.026665,1882,1373,34.0296,-13.9506
665,-349,33.985,13.3702,0.000484871,-0.00029296,-0.000274367,0.000571909,-0.000379999,-0.307193,0.000553295,0.0220824,1889,1373,33.985,-13.3703
672,-349,33.9738,12.8356,0.000990156,-0.000365465,-0.000150752,0.00100672,-0.000382028,-0.109424,0.000828391,0.0153588,1896,1373,33.9738,-12.8356
679,-349,33.9564,12.3036,0.00153282,-0.000390475,-8.88865e-05,0.00153692,-0.000394575,-0.0460848,0.00117837,0.0159303,1903,1373,33.9565,-12.3036
686,-349,34.0029,11.7668,0.0021317,-0.000312292,-0.000103403,0.00213607,-0.000316659,-0.0422085,0.00154048,0.0171647,1910,1373,34.0029,-11.7668
693,-349,33.9354,11.1896,0.00275661,-0.000164737,-0.000163659,0.00276575,-0.000173877,-0.0557891,0.00190444,0.019387,1917,1373,33.9355,-11.1896
700,-349,33.9053,10.6283,0.00343464,0.000103377,-0.00029786,0.00346106,7.69541e-05,-0.0884783,0.00228215,0.0197627,1924,1373,33.9053,-10.6284
707,-349,33.9507,10.0114,0.00396832,0.000442989,-0.000425357,0.00401891,0.000392392,-0.118394,0.00255853,0.0357454,1931,1373,33.9506,-10.0114
714,-349,34.0641,9.30359,0,0,0,0,0,0,0,-1,1938,1373,34.064,-9.30357
721,-349,19.6688,5.93604,0,0,0,0,0,0,0,-1,1945,1373,19.6688,-5.93606
728,-349,18.6333,3.73218,0,0,0,0,0,0,0,-1,1952,1373,18.6333,-3.73214
735,-349,18.1918,3.39954,0,0,0,0,0,0,0,-1,1959,1373,18.1918,-3.3995
742,-349,20.7345,2.07483,0,0,0,0,0,0,0,-1,1966,1373,20.7345,-2.07485
749,-349,21.9037,1.45789,0,0,0,0,0,0,0,-1,1973,1373,21.9037,-1.45788
756,-349,0,0,0,0,0,0,0,0,0,-1,1980,1373,0,0
763,-349,0,0,0,0,0,0,0,0,0,-1,1987,1373,0,0
770,-349,0,0,0,0,0,0,0,0,0,-1,1994,1373,0,0
777,-349,0,0,0,0,0,0,0,0,0,-1,2001,1373,0,0
784,-349,0,0,0,0,0,0,0,0,0,-1,2008,1373,0,0
791,-349,0,0,0,0,0,0,0,0,0,-1,2015,1373,0,0
798,-349,0,0,0,0,0,0,0,0,0,-1,2022,1373,0,0
805,-349,0,0,0,0,0,0,0,0,0,-1,2029,1373,0,0
812,-349,0,0,0,0,0,0,0,0,0,-1,2036,1373,0,0
-700,-356,0,0,0,0,0,0,0,0,0,-1,524,1380,0,0
-693,-356,0,0,0,0,0,0,0,0,0,-1,531,1380,0,0
-686,-356,0,0,0,0,0,0,0,0,0,-1,538,1380,0,0
-679,-356,0,0,0,0,0,0,0,0,0,-1,545,1380,0,0
-672,-356,0,0,0,0,0,0,0,0,0,-1,552,1380,0,0
-665,-356,0,0,0,0,0,0,0,0,0,-1,559,1380,0,0
-658,-356,0,0,0,0,0,0,0,0,0,-1,566,1380,0,0
-651,-356,0,0,0,0,0,0,0,0,0,-1,573,1380,0,0
-644,-356,0,0,0,0,0,0,0,0,0,-1,580,1380,0,0
-637,-356,0,0,0,0,0,0,0,0,0,-1,587,1380,0,0
-630,-356,-8.23126,-5.01917,0,0,0,0,0,0,0,-1,594,1380,-8.23124,5.0192
-623,-356,-0.263855,-0.675781,0,0,0,0,0,0,0,-1,601,1380,-0.263835,0.675841
-616,-356,-8.26532,-3.43945,0,0,0,0,0,0,0,-1,608,1380,-8.2653,3.43948
-609,-356,-4.88483,0.734497,0,0,0,0,0,0,0,-1,615,1380,-4.88485,-0.734532
-602,-356,-9.06635,2.4021,0,0,0,0,0,0,0,-1,622,1380,-9.06634,-2.40206
-595,-356,-8.45703,3.61853,0,0,0,0,0,0,0,-1,629,1380,-8.45706,-3.61848
-588,-356,-9.31738,4.14258,0,0,0,0,0,0,0,-1,636,1380,-9.31736,-4.14255
-581,-356,-16.5185,7.32312,0,0,0,0,0,0,0,-1,643,1380,-16.5185,-7.32306
-574,-356,-17.731,7.85925,0,0,0,0,0,0,0,-1,650,1380,-17.731,-7.85922
-567,-356,-17.7144,8.48242,0.00532988,0.00113051,0.0015597,0.00584579,0.0006146,0.319447,0.00370934,0.0203039,657,1380,-17.7144,-8.48237
-560,-356,-17.6611,9.15552,0.00423024,0.00081819,0.00133188,0.00468857,0.00035986,0.331429,0.00301293,0.0175469,664,1380,-17.6611,-9.1555
-553,-356,-17.6672,9.73364,0.00339543,0.000618443,0.00126719,0.00388674,0.000127127,0.369877,0.00254984,0.0203962,671,1380,-17.6672,-9.73361
-546,-356,-17.7236,10.3083,0.00276536,0.000473602,0.00129216,0.00334654,-0.000107576,0.422664,0.00226774,0.0217678,678,1380,-17.7236,-10.3083
-539,-356,-17.7567,10.9572,0.00234101,0.000385805,0.00140558,0.00307553,-0.000348718,0.481544,0.00217593,0.0156186,685,1380,-17.7566,-10.9572
-532,-356,-17.8021,11.6034,0.00216547,0.000382286,0.00164417,0.00314423,-0.00059648,0.536952,0.00232067,0.0158654,692,1380,-17.8021,-11.6034
-525,-356,-17.8256,12.2164,0.00222146,0.000449436,0.00198217,0.00350663,-0.000835736,0.575225,0.00266045,0.013338,699,1380,-17.8256,-12.2164
-518,-356,-17.8148,12.8551,0.00255671,0.000691941,0.00243011,0.00422716,-0.000978512,0.602219,0.00319463,0.0137727,706,1380,-17.8148,-12.8551
-511,-356,-17.6515,13.5847,0,0,0,0,0,0,0,-1,713,1380,-17.6515,-13.5847
-504,-356,-14.3925,12.3971,0,0,0,0,0,0,0,-1,720,1380,-14.3925,-12.3971
-497,-356,-5.68604,4.96387,0,0,0,0,0,0,0,-1,727,1380,-5.68605,-4.96385
-490,-356,-7.95288,5.5625,0,0,0,0,0,0,0,-1,734,1380,-7.95285,-5.56246
-483,-356,-7.2627,4.07446,0,0,0,0,0,0,0,-1,741,1380,-7.2627,-4.07441
-476,-356,-5.1936,4.16016,0,0,0,0,0,0,0,-1,748,1380,-5.1936,-4.16012
-469,-356,-10.0883,0.536011,0,0,0,0,0,0,0,-1,755,1380,-10.0883,-0.535989
-462,-356,-12.3481,-0.215698,0,0,0,0,0,0,0,-1,762,1380,-12.3481,0.215641
-455,-356,-13.1367,-0.264648,0,0,0,0,0,0,0,-1,769,1380,-13.1367,0.264647
-448,-356,-13.9116,-0.310181,0,0,0,0,0,0,0,-1,776,1380,-13.9115,0.310207
-441,-356,-13.1602,3.05603,0,0,0,0,0,0,0,-1,783,1380,-13.1602,-3.05609
-434,-356,0,0,0,0,0,0,0,0,0,-1,790,1380,0,0
-427,-356,0,0,0,0,0,0,0,0,0,-1,797,1380,0,0
-420,-356,0,0,0,0,0,0,0,0,0,-1,804,1380,0,0
-413,-356,0,0,0,0,0,0,0,0,0,-1,811,1380,0,0
-406,-356,0,0,0,0,0,0,0,0,0,-1,818,1380,0,0
-399,-356,0,0,0,0,0,0,0,0,0,-1,825,1380,0,0
-392,-356,0,0,0,0,0,0,0,0,0,-1,832,1380,0,0
-385,-356,0,0,0,0,0,0,0,0,0,-1,839,1380,0,0
-378,-356,0,0,0,0,0,0,0,0,0,-1,846,1380,0,0
-371,-356,0,0,0,0,0,0,0,0,0,-1,853,1380,0,0
-364,-356,0,0,0,0,0,0,0,0,0,-1,860,1380,0,0
-357,-356,0,0,0,0,0,0,0,0,0,-1,867,1380,0,0
-350,-356,0,0,0,0,0,0,0,0,0,-1,874,1380,0,0
-343,-356,0,0,0,0,0,0,0,0,0,-1,881,1380,0,0
-336,-356,0,0,0,0,0,0,0,0,0,-1,888,1380,0,0
-329,-356,0,0,0,0,0,0,0,0,0,-1,895,1380,0,0
-322,-356,0,0,0,0,0,0,0,0,0,-1,902,1380,0,0
-315,-356,0,0,0,0,0,0,0,0,0,-1,909,1380,0,0
-308,-356,0,0,0,0,0,0,0,0,0,-1,916,1380,0,0
-301,-356,0,0,0,0,0,0,0,0,0,-1,923,1380,0,0
-294,-356,0,0,0,0,0,0,0,0,0,-1,930,1380,0,0
-287,-356,0,0,0,0,0,0,0,0,0,-1,937,1380,0,0
-280,-356,0,0,0,0,0,0,0,0,0,-1,944,1380,0,0
-273,-356,0,0,0,0,0,0,0,0,0,-1,951,1380,0,0
-266,-356,0,0,0,0,0,0,0,0,0,-1,958,1380,0,0
-259,-356,0,0,0,0,0,0,0,0,0,-1,965,1380,0,0
-252,-356,0,0,0,0,0,0,0,0,0,-1,972,1380,0,0
-245,-356,0,0,0,0,0,0,0,0,0,-1,979,1380,0,0
-238,-356,0,0,0,0,0,0,0,0,0,-1,986,1380,0,0
-231,-356,0,0,0,0,0,0,0,0,0,-1,993,1380,0,0
-224,-356,0,0,0,0,0,0,0,0,0,-1,1000,1380,0,0
-217,-356,0,0,0,0,0,0,0,0,0,-1,1007,1380,0,0
-210,-356,0,0,0,0,0,0,0,0,0,-1,1014,1380,0,0
-203,-356,0,0,0,0,0,0,0,0,0,-1,1021,1380,0,0
-196,-356,0,0,0,0,0,0,0,0,0,-1,1028,1380,0,0
-189,-356,0,0,0,0,0,0,0,0,0,-1,1035,1380,0,0
-182,-356,0,0,0,0,0,0,0,0,0,-1,1042,1380,0,0
-175,-356,0,0,0,0,0,0,0,0,0,-1,1049,1380,0,0
-168,-356,0,0,0,0,0,0,0,0,0,-1,1056,1380,0,0
-161,-356,0,0,0,0,0,0,0,0,0,-1,1063,1380,0,0
-154,-356,0,0,0,0,0,0,0,0,0,-1,1070,1380,0,0
-147,-356,0,0,0,0,0,0,0,0,0,-1,1077,1380,0,0
-140,-356,0,0,0,0,0,0,0,0,0,-1,1084,1380,0,0
-133,-356,0,0,0,0,0,0,0,0,0,-1,1091,1380,0,0
-126,-356,0,0,0,0,0,0,0,0,0,-1,1098,1380,0,0
-119,-356,0,0,0,0,0,0,0,0,0,-1,1105,1380,0,0
-112,-356,0,0,0,0,0,0,0,0,0,-1,1112,1380,0,0
-105,-356,0,0,0,0,0,0,0,0,0,-1,1119,1380,0,0
-98,-356,0,0,0,0,0,0,0,0,0,-1,1126,1380,0,0
-91,-356,0,0,0,0,0,0,0,0,0,-1,1133,1380,0,0
-84,-356,0,0,0,0,0,0,0,0,0,-1,1140,1380,0,0
-77,-356,0,0,0,0,0,0,0,0,0,-1,1147,1380,0,0
-70,-356,0,0,0,0,0,0,0,0,0,-1,1154,1380,0,0
-63,-356,0,0,0,0,0,0,0,0,0,-1,1161,1380,0,0
-56,-356,0,0,0,0,0,0,0,0,0,-1,1168,1380,0,0
-49,-356,0,0,0,0,0,0,0,0,0,-1,1175,1380,0,0
-42,-356,0,0,0,0,0,0,0,0,0,-1,1182,1380,0,0
-35,-356,0,0,0,0,0,0,0,0,0,-1,1189,1380,0,0
-28,-356,0,0,0,0,0,0,0,0,0,-1,1196,1380,0,0
-21,-356,0,0,0,0,0,0,0,0,0,-1,1203,1380,0,0
-14,-356,0,0,0,0,0,0,0,0,0,-1,1210,1380,0,0
-7,-356,0,0,0,0,0,0,0,0,0,-1,1217,1380,0,0
0,-356,0,0,0,0,0,0,0,0,0,-1,1224,1380,0,0
7,-356,0,0,0,0,0,0,0,0,0,-1,1231,1380,0,0
14,-356,0,0,0,0,0,0,0,0,0,-1,1238,1380,0,0
21,-356,0,0,0,0,0,0,0,0,0,-1,1245,1380,0,0
28,-356,0,0,0,0,0,0,0,0,0,-1,1252,1380,0,0
35,-356,0,0,0,0,0,0,0,0,0,-1,1259,1380,0,0
42,-356,0,0,0,0,0,0,0,0,0,-1,1266,1380,0,0
49,-356,0,0,0,0,0,0,0,0,0,-1,1273,1380,0,0
56,-356,0,0,0,0,0,0,0,0,0,-1,1280,1380,0,0
63,-356,0,0,0,0,0,0,0,0,0,-1,1287,1380,0,0
70,-356,0,0,0,0,0,0,0,0,0,-1,1294,1380,0,0
77,-356,0,0,0,0,0,0,0,0,0,-1,1301,1380,0,0
84,-356,0,0,0,0,0,0,0,0,0,-1,1308,1380,0,0
91,-356,0,0,0,0,0,0,0,0,0,-1,1315,1380,0,0
98,-356,0,0,0,0,0,0,0,0,0,-1,1322,1380,0,0
105,-356,0,0,0,0,0,0,0,0,0,-1,1329,1380,0,0
112,-356,0,0,0,0,0,0,0,0,0,-1,1336,1380,0,0
119,-356,0,0,0,0,0,0,0,0,0,-1,1343,1380,0,0
126,-356,0,0,0,0,0,0,0,0,0,-1,1350,1380,0,0
133,-356,0,0,0,0,0,0,0,0,0,-1,1357,1380,0,0
140,-356,0,0,0,0,0,0,0,0,0,-1,1364,1380,0,0
147,-356,0,0,0,0,0,0,0,0,0,-1,1371,1380,0,0
154,-356,0,0,0,0,0,0,0,0,0,-1,1378,1380,0,0
161,-356,0,0,0,0,0,0,0,0,0,-1,1385,1380,0,0
168,-356,0,0,0,0,0,0,0,0,0,-1,1392,1380,0,0
175,-356,0,0,0,0,0,0,0,0,0,-1,1399,1380,0,0
182,-356,0,0,0,0,0,0,0,0,0,-1,1406,1380,0,0
189,-356,0,0,0,0,0,0,0,0,0,-1,1413,1380,0,0
196,-356,0,0,0,0,0,0,0,0,0,-1,1420,1380,0,0
203,-356,0,0,0,0,0,0,0,0,0,-1,1427,1380,0,0
210,-356,0,0,0,0,0,0,0,0,0,-1,1434,1380,0,0
217,-356,0,0,0,0,0,0,0,0,0,-1,1441,1380,0,0
224,-356,0,0,0,0,0,0,0,0,0,-1,1448,1380,0,0
231,-356,0,0,0,0,0,0,0,0,0,-1,1455,1380,0,0
238,-356,0,0,0,0,0,0,0,0,0,-1,1462,1380,0,0
245,-356,0,0,0,0,0,0,0,0,0,-1,1469,1380,0,0
252,-356,0,0,0,0,0,0,0,0,0,-1,1476,1380,0,0
259,-356,0,0,0,0,0,0,0,0,0,-1,1483,1380,0,0
266,-356,0,0,0,0,0,0,0,0,0,-1,1490,1380,0,0
273,-356,0,0,0,0,0,0,0,0,0,-1,1497,1380,0,0
280,-356,0,0,0,0,0,0,0,0,0,-1,1504,1380,0,0
287,-356,0,0,0,0,0,0,0,0,0,-1,1511,1380,0,0
294,-356,0,0,0,0,0,0,0,0,0,-1,1518,1380,0,0
301,-356,0,0,0,0,0,0,0,0,0,-1,1525,1380,0,0
308,-356,0,0,0,0,0,0,0,0,0,-1,1532,1380,0,0
315,-356,0,0,0,0,0,0,0,0,0,-1,1539,1380,0,0
322,-356,0,0,0,0,0,0,0,0,0,-1,1546,1380,0,0
329,-356,0,0,0,0,0,0,0,0,0,-1,1553,1380,0,0
336,-356,0,0,0,0,0,0,0,0,0,-1,1560,1380,0,0
343,-356,0,0,0,0,0,0,0,0,0,-1,1567,1380,0,0
350,-356,0,0,0,0,0,0,0,0,0,-1,1574,1380,0,0
357,-356,0,0,0,0,0,0,0,0,0,-1,1581,1380,0,0
364,-356,0,0,0,0,0,0,0,0,0,-1,1588,1380,0,0
371,-356,0,0,0,0,0,0,0,0,0,-1,1595,1380,0,0
378,-356,0,0,0,0,0,0,0,0,0,-1,1602,1380,0,0
385,-356,0,0,0,0,0,0,0,0,0,-1,1609,1380,0,0
392,-356,0,0,0,0,0,0,0,0,0,-1,1616,1380,0,0
399,-356,0,0,0,0,0,0,0,0,0,-1,1623,1380,0,0
406,-356,0,0,0,0,0,0,0,0,0,-1,1630,1380,0,0
413,-356,0,0,0,0,0,0,0,0,0,-1,1637,1380,0,0
420,-356,0,0,0,0,0,0,0,0,0,-1,1644,1380,0,0
427,-356,0,0,0,0,0,0,0,0,0,-1,1651,1380,0,0
434,-356,0,0,0,0,0,0,0,0,0,-1,1658,1380,0,0
441,-356,0,0,0,0,0,0,0,0,0,-1,1665,1380,0,0
448,-356,0,0,0,0,0,0,0,0,0,-1,1672,1380,0,0
455,-356,0,0,0,0,0,0,0,0,0,-1,1679,1380,0,0
462,-356,0,0,0,0,0,0,0,0,0,-1,1686,1380,0,0
469,-356,0,0,0,0,0,0,0,0,0,-1,1693,1380,0,0
476,-356,0,0,0,0,0,0,0,0,0,-1,1700,1380,0,0
483,-356,0,0,0,0,0,0,0,0,0,-1,1707,1380,0,0
490,-356,0,0,0,0,0,0,0,0,0,-1,1714,1380,0,0
497,-356,0,0,0,0,0,0,0,0,0,-1,1721,1380,0,0
504,-356,0,0,0,0,0,0,0,0,0,-1,1728,1380,0,0
511,-356,0,0,0,0,0,0,0,0,0,-1,1735,1380,0,0
518,-356,0,0,0,0,0,0,0,0,0,-1,1742,1380,0,0
525,-356,0,0,0,0,0,0,0,0,0,-1,1749,1380,0,0
532,-356,0,0,0,0,0,0,0,0,0,-1,1756,1380,0,0
539,-356,0,0,0,0,0,0,0,0,0,-1,1763,1380,0,0
546,-356,0,0,0,0,0,0,0,0,0,-1,1770,1380,0,0
553,-356,0,0,0,0,0,0,0,0,0,-1,1777,1380,0,0
560,-356,45.7938,3.65295,0,0,0,0,0,0,0,-1,1784,1380,45.7938,-3.65294
567,-356,45.6788,3.51428,0,0,0,0,0,0,0,-1,1791,1380,45.6788,-3.51422
574,-356,45.5742,3.39575,0,0,0,0,0,0,0,-1,1798,1380,45.5742,-3.39574
581,-356,45.6708,3.64172,0,0,0,0,0,0,0,-1,1805,1380,45.6707,-3.64175
588,-356,44.4739,4.87085,0,0,0,0,0,0,0,-1,1812,1380,44.4739,-4.87086
595,-356,32.0834,5.86084,0,0,0,0,0,0,0,-1,1819,1380,32.0834,-5.86079
602,-356,30.1604,6.07104,0,0,0,0,0,0,0,-1,1826,1380,30.1604,-6.07104
609,-356,28.3435,6.48901,0,0,0,0,0,0,0,-1,1833,1380,28.3435,-6.48899
616,-356,26.9358,6.80872,0,0,0,0,0,0,0,-1,1840,1380,26.9358,-6.80877
623,-356,16.1803,1.07532,0,0,0,0,0,0,0,-1,1847,1380,16.1803,-1.07529
630,-356,16.4138,6.91553,0,0,0,0,0,0,0,-1,1854,1380,16.4138,-6.9155
637,-356,24.8021,12.0151,0,0,0,0,0,0,0,-1,1861,1380,24.8022,-12.0151
644,-356,33.5693,15.2478,0,0,0,0,0,0,0,-1,1868,1380,33.5694,-15.2478
651,-356,33.5096,14.5906,-0.000124794,0.000562334,-0.000993643,0.00127013,-0.000832593,-0.951845,0.00122274,0.0191444,1875,1380,33.5096,-14.5906
658,-356,33.4314,13.9617,0.000193182,0.000132102,-0.000535115,0.000698628,-0.000373344,-0.756893,0.000628329,0.0150451,1882,1380,33.4314,-13.9616
665,-356,33.4091,13.4199,0.000633773,-0.000186103,-0.000248171,0.000703041,-0.000255371,-0.272185,0.000573107,0.0146427,1889,1380,33.4091,-13.4199
672,-356,33.397,12.8993,0.00113197,-0.000396388,-4.24031e-05,0.00113314,-0.000397564,-0.0277159,0.000917136,0.0153112,1896,1380,33.397,-12.8992
679,-356,33.4011,12.3191,0.00172721,-0.000518051,6.39766e-05,0.00172903,-0.000519872,0.0284633,0.00135953,0.018269,1903,1380,33.4011,-12.3191
686,-356,33.3972,11.7428,0.00240823,-0.000535862,8.62962e-05,0.00241076,-0.000538389,0.0292781,0.00181347,0.0187448,1910,1380,33.3973,-11.7428
693,-356,33.3744,11.205,0.00315768,-0.000459634,4.07758e-05,0.00315814,-0.000460094,0.0112705,0.00227436,0.0157585,1917,1380,33.3744,-11.205
700,-356,33.3578,10.6295,0.0040066,-0.000216079,-0.000105041,0.00400921,-0.00021869,-0.0248549,0.00274861,0.0227897,1924,1380,33.3577,-10.6295
707,-356,33.4622,9.86694,0,0,0,0,0,0,0,-1,1931,1380,33.4621,-9.86689
714,-356,19.6907,5.82129,0,0,0,0,0,0,0,-1,1938,1380,19.6907,-5.82132
721,-356,17.2948,4.1958,0,0,0,0,0,0,0,-1,1945,1380,17.2948,-4.19584
728,-356,19.1846,2.31519,0,0,0,0,0,0,0,-1,1952,1380,19.1846,-2.31514
735,-356,20.0731,2.50842,0,0,0,0,0,0,0,-1,1959,1380,20.0731,-2.50844
742,-356,21.0111,2.43762,0,0,0,0,0,0,0,-1,1966,1380,21.0112,-2.43762
749,-356,22.1411,1.83276,0,0,0,0,0,0,0,-1,1973,1380,22.1411,-1.83275
756,-356,0,0,0,0,0,0,0,0,0,-1,1980,1380,0,0
763,-356,0,0,0,0,0,0,0,0,0,-1,1987,1380,0,0
770,-356,0,0,0,0,0,0,0,0,0,-1,1994,1380,0,0
777,-356,0,0,0,0,0,0,0,0,0,-1,2001,1380,0,0
784,-356,0,0,0,0,0,0,0,0,0,-1,2008,1380,0,0
791,-356,0,0,0,0,0,0,0,0,0,-1,2015,1380,0,0
798,-356,0,0,0,0,0,0,0,0,0,-1,2022,1380,0,0
805,-356,0,0,0,0,0,0,0,0,0,-1,2029,1380,0,0
812,-356,0,0,0,0,0,0,0,0,0,-1,2036,1380,0,0
-700,-363,0,0,0,0,0,0,0,0,0,-1,524,1387,0,0
-693,-363,0,0,0,0,0,0,0,0,0,-1,531,1387,0,0
-686,-363,0,0,0,0,0,0,0,0,0,-1,538,1387,0,0
-679,-363,0,0,0,0,0,0,0,0,0,-1,545,1387,0,0
-672,-363,0,0,0,0,0,0,0,0,0,-1,552,1387,0,0
-665,-363,0,0,0,0,0,0,0,0,0,-1,559,1387,0,0
-658,-363,0,0,0,0,0,0,0,0,0,-1,566,1387,0,0
-651,-363,0,0,0,0,0,0,0,0,0,-1,573,1387,0,0
-644,-363,0,0,0,0,0,0,0,0,0,-1,580,1387,0,0
-637,-363,0,0,0,0,0,0,0,0,0,-1,587,1387,0,0
-630,-363,0,0,0,0,0,0,0,0,0,-1,594,1387,0,0
-623,-363,-9.67566,-5.91846,0,0,0,0,0,0,0,-1,601,1387,-9.67563,5.91847
-616,-363,-9.02985,-2.98083,0,0,0,0,0,0,0,-1,608,1387,-9.02987,2.98079
-609,-363,-4.90265,0.195679,0,0,0,0,0,0,0,-1,615,1387,-4.90263,-0.195721
-602,-363,-9.65009,3.5321,0,0,0,0,0,0,0,-1,622,1387,-9.65007,-3.53211
-595,-363,-8.00256,3.48853,0,0,0,0,0,0,0,-1,629,1387,-8.00256,-3.48855
-588,-363,-10.8846,4.49768,0,0,0,0,0,0,0,-1,636,1387,-10.8846,-4.49773
-581,-363,-11.7469,5.15161,0,0,0,0,0,0,0,-1,643,1387,-11.747,-5.15167
-574,-363,-17.0587,7.82397,0,0,0,0,0,0,0,-1,650,1387,-17.0587,-7.82401
-567,-363,-17.1235,8.59644,0.00565625,0.00119326,0.00177882,0.00627849,0.000571023,0.336498,0.0040089,0.0475641,657,1387,-17.1235,-8.59646
-560,-363,-17.0941,9.17395,0.00447903,0.00083931,0.00148632,0.00500887,0.000309479,0.342428,0.00324101,0.0135692,664,1387,-17.0941,-9.17394
-553,-363,-17.1175,9.79358,0.00359919,0.000634194,0.00138106,0.0041428,9.05765e-05,0.374996,0.00273218,0.013113,671,1387,-17.1175,-9.79355
-546,-363,-17.1546,10.3828,0.00291976,0.00047595,0.00134934,0.00351823,-0.00012252,0.417459,0.00238738,0.0136578,678,1387,-17.1546,-10.3829
-539,-363,-17.1342,10.9921,0.00245602,0.00038065,0.00140011,0.00316106,-0.000324391,0.466493,0.0022234,0.0154016,685,1387,-17.1342,-10.992
-532,-363,-17.1841,11.6144,0.00224885,0.000382732,0.00157684,0.003148,-0.000516423,0.518241,0.0022903,0.0136317,692,1387,-17.1841,-11.6144
-525,-363,-17.2083,12.2322,0.00234869,0.000536716,0.00192381,0.00356917,-0.000683768,0.565336,0.00263709,0.0119815,699,1387,-17.2083,-12.2322
-518,-363,-17.1979,12.8602,0.00270748,0.000827882,0.00238243,0.00432877,-0.000793411,0.597533,0.00318345,0.0107185,706,1387,-17.1979,-12.8602
-511,-363,-17.1302,13.5415,0.00350819,0.00120627,0.00307227,0.00563802,-0.000923553,0.606176,0.00410134,0.0274852,713,1387,-17.1302,-13.5415
-504,-363,-17.0243,14.2693,0,0,0,0,0,0,0,-1,720,1387,-17.0243,-14.2693
-497,-363,-7.18842,7.29944,0,0,0,0,0,0,0,-1,727,1387,-7.18839,-7.29945
-490,-363,-5.42413,4.6958,0,0,0,0,0,0,0,-1,734,1387,-5.42412,-4.69583
-483,-363,-6.28375,4.1394,0,0,0,0,0,0,0,-1,741,1387,-6.28374,-4.13944
-476,-363,-5.83807,4.31018,0,0,0,0,0,0,0,-1,748,1387,-5.8381,-4.31013
-469,-363,-10.7125,0.697754,0,0,0,0,0,0,0,-1,755,1387,-10.7125,-0.697811
-462,-363,-9.55951,-0.0830078,0,0,0,0,0,0,0,-1,762,1387,-9.55949,0.0830163
-455,-363,-13.1008,-0.290894,0,0,0,0,0,0,0,-1,769,1387,-13.1008,0.290921
-448,-363,-11.7324,2.46606,0,0,0,0,0,0,0,-1,776,1387,-11.7324,-2.46605
-441,-363,-12.4464,2.5354,0,0,0,0,0,0,0,-1,783,1387,-12.4463,-2.53537
-434,-363,-13.6918,2.14661,0,0,0,0,0,0,0,-1,790,1387,-13.6918,-2.14662
-427,-363,0,0,0,0,0,0,0,0,0,-1,797,1387,0,0
-420,-363,0,0,0,0,0,0,0,0,0,-1,804,1387,0,0
-413,-363,0,0,0,0,0,0,0,0,0,-1,811,1387,0,0
-406,-363,0,0,0,0,0,0,0,0,0,-1,818,1387,0,0
-399,-363,0,0,0,0,0,0,0,0,0,-1,825,1387,0,0
-392,-363,0,0,0,0,0,0,0,0,0,-1,832,1387,0,0
-385,-363,0,0,0,0,0,0,0,0,0,-1,839,1387,0,0
-378,-363,0,0,0,0,0,0,0,0,0,-1,846,1387,0,0
-371,-363,0,0,0,0,0,0,0,0,0,-1,853,1387,0,0
-364,-363,0,0,0,0,0,0,0,0,0,-1,860,1387,0,0
-357,-363,0,0,0,0,0,0,0,0,0,-1,867,1387,0,0
-350,-363,0,0,0,0,0,0,0,0,0,-1,874,1387,0,0
-343,-363,0,0,0,0,0,0,0,0,0,-1,881,1387,0,0
-336,-363,0,0,0,0,0,0,0,0,0,-1,888,1387,0,0
-329,-363,0,0,0,0,0,0,0,0,0,-1,895,1387,0,0
-322,-363,0,0,0,0,0,0,0,0,0,-1,902,1387,0,0
-315,-363,0,0,0,0,0,0,0,0,0,-1,909,1387,0,0
-308,-363,0,0,0,0,0,0,0,0,0,-1,916,1387,0,0
-301,-363,0,0,0,0,0,0,0,0,0,-1,923,1387,0,0
-294,-363,0,0,0,0,0,0,0,0,0,-1,930,1387,0,0
-287,-363,0,0,0,0,0,0,0,0,0,-1,937,1387,0,0
-280,-363,0,0,0,0,0,0,0,0,0,-1,944,1387,0,0
-273,-363,0,0,0,0,0,0,0,0,0,-1,951,1387,0,0
-266,-363,0,0,0,0,0,0,0,0,0,-1,958,1387,0,0
-259,-363,0,0,0,0,0,0,0,0,0,-1,965,1387,0,0
-252,-363,0,0,0,0,0,0,0,0,0,-1,972,1387,0,0
-245,-363,0,0,0,0,0,0,0,0,0,-1,979,1387,0,0
-238,-363,0,0,0,0,0,0,0,0,0,-1,986,1387,0,0
-231,-363,0,0,0,0,0,0,0,0,0,-1,993,1387,0,0
-224,-363,0,0,0,0,0,0,0,0,0,-1,1000,1387,0,0
-217,-363,0,0,0,0,0,0,0,0,0,-1,1007,1387,0,0
-210,-363,0,0,0,0,0,0,0,0,0,-1,1014,1387,0,0
-203,-363,0,0,0,0,0,0,0,0,0,-1,1021,1387,0,0
-196,-363,0,0,0,0,0,0,0,0,0,-1,1028,1387,0,0
-189,-363,0,0,0,0,0,0,0,0,0,-1,1035,1387,0,0
-182,-363,0,0,0,0,0,0,0,0,0,-1,1042,1387,0,0
-175,-363,0,0,0,0,0,0,0,0,0,-1,1049,1387,0,0
-168,-363,0,0,0,0,0,0,0,0,0,-1,1056,1387,0,0
-161,-363,0,0,0,0,0,0,0,0,0,-1,1063,1387,0,0
-154,-363,0,0,0,0,0,0,0,0,0,-1,1070,1387,0,0
-147,-363,0,0,0,0,0,0,0,0,0,-1,1077,1387,0,0
-140,-363,0,0,0,0,0,0,0,0,0,-1,1084,1387,0,0
-133,-363,0,0,0,0,0,0,0,0,0,-1,1091,1387,0,0
-126,-363,0,0,0,0,0,0,0,0,0,-1,1098,1387,0,0
-119,-363,0,0,0,0,0,0,0,0,0,-1,1105,1387,0,0
-112,-363,0,0,0,0,0,0,0,0,0,-1,1112,1387,0,0
-105,-363,0,0,0,0,0,0,0,0,0,-1,1119,1387,0,0
-98,-363,0,0,0,0,0,0,0,0,0,-1,1126,1387,0,0
-91,-363,0,0,0,0,0,0,0,0,0,-1,1133,1387,0,0
-84,-363,0,0,0,0,0,0,0,0,0,-1,1140,1387,0,0
-77,-363,0,0,0,0,0,0,0,0,0,-1,1147,1387,0,0
-70,-363,0,0,0,0,0,0,0,0,0,-1,1154,1387,0,0
-63,-363,0,0,0,0,0,0,0,0,0,-1,1161,1387,0,0
-56,-363,0,0,0,0,0,0,0,0,0,-1,1168,1387,0,0
-49,-363,0,0,0,0,0,0,0,0,0,-1,1175,1387,0,0
-42,-363,0,0,0,0,0,0,0,0,0,-1,1182,1387,0,0
-35,-363,0,0,0,0,0,0,0,0,0,-1,1189,1387,0,0
-28,-363,0,0,0,0,0,0,0,0,0,-1,1196,1387,0,0
-21,-363,0,0,0,0,0,0,0,0,0,-1,1203,1387,0,0
-14,-363,0,0,0,0,0,0,0,0,0,-1,1210,1387,0,0
-7,-363,0,0,0,0,0,0,0,0,0,-1,1217,1387,0,0
0,-363,0,0,0,0,0,0,0,0,0,-1,1224,1387,0,0
7,-363,0,0,0,0,0,0,0,0,0,-1,1231,1387,0,0
14,-363,0,0,0,0,0,0,0,0,0,-1,1238,1387,0,0
21,-363,0,0,0,0,0,0,0,0,0,-1,1245,1387,0,0
28,-363,0,0,0,0,0,0,0,0,0,-1,1252,1387,0,0
35,-363,0,0,0,0,0,0,0,0,0,-1,1259,1387,0,0
42,-363,0,0,0,0,0,0,0,0,0,-1,1266,1387,0,0
49,-363,0,0,0,0,0,0,0,0,0,-1,1273,1387,0,0
56,-363,0,0,0,0,0,0,0,0,0,-1,1280,1387,0,0
63,-363,0,0,0,0,0,0,0,0,0,-1,1287,1387,0,0
70,-363,0,0,0,0,0,0,0,0,0,-1,1294,1387,0,0
77,-363,0,0,0,0,0,0,0,0,0,-1,1301,1387,0,0
84,-363,0,0,0,0,0,0,0,0,0,-1,1308,1387,0,0
91,-363,0,0,0,0,0,0,0,0,0,-1,1315,1387,0,0
98,-363,0,0,0,0,0,0,0,0,0,-1,1322,1387,0,0
105,-363,0,0,0,0,0,0,0,0,0,-1,1329,1387,0,0
112,-363,0,0,0,0,0,0,0,0,0,-1,1336,1387,0,0
119,-363,0,0,0,0,0,0,0,0,0,-1,1343,1387,0,0
126,-363,0,0,0,0,0,0,0,0,0,-1,1350,1387,0,0
133,-363,0,0,0,0,0,0,0,0,0,-1,1357,1387,0,0
140,-363,0,0,0,0,0,0,0,0,0,-1,1364,1387,0,0
147,-363,0,0,0,0,0,0,0,0,0,-1,1371,1387,0,0
154,-363,0,0,0,0,0,0,0,0,0,-1,1378,1387,0,0
161,-363,0,0,0,0,0,0,0,0,0,-1,1385,1387,0,0
168,-363,0,0,0,0,0,0,0,0,0,-1,1392,1387,0,0
175,-363,0,0,0,0,0,0,0,0,0,-1,1399,1387,0,0
182,-363,0,0,0,0,0,0,0,0,0,-1,1406,1387,0,0
189,-363,0,0,0,0,0,0,0,0,0,-1,1413,1387,0,0
196,-363,0,0,0,0,0,0,0,0,0,-1,1420,1387,0,0
203,-363,0,0,0,0,0,0,0,0,0,-1,1427,1387,0,0
210,-363,0,0,0,0,0,0,0,0,0,-1,1434,1387,0,0
217,-363,0,0,0,0,0,0,0,0,0,-1,1441,1387,0,0
224,-363,0,0,0,0,0,0,0,0,0,-1,1448,1387,0,0
231,-363,0,0,0,0,0,0,0,0,0,-1,1455,1387,0,0
238,-363,0,0,0,0,0,0,0,0,0,-1,1462,1387,0,0
245,-363,0,0,0,0,0,0,0,0,0,-1,1469,1387,0,0
252,-363,0,0,0,0,0,0,0,0,0,-1,1476,1387,0,0
259,-363,0,0,0,0,0,0,0,0,0,-1,1483,1387,0,0
266,-363,0,0,0,0,0,0,0,0,0,-1,1490,1387,0,0
273,-363,0,0,0,0,0,0,0,0,0,-1,1497,1387,0,0
280,-363,0,0,0,0,0,0,0,0,0,-1,1504,1387,0,0
287,-363,0,0,0,0,0,0,0,0,0,-1,1511,1387,0,0
294,-363,0,0,0,0,0,0,0,0,0,-1,1518,1387,0,0
301,-363,0,0,0,0,0,0,0,0,0,-1,1525,1387,0,0
308,-363,0,0,0,0,0,0,0,0,0,-1,1532,1387,0,0
315,-363,0,0,0,0,0,0,0,0,0,-1,1539,1387,0,0
322,-363,0,0,0,0,0,0,0,0,0,-1,1546,1387,0,0
329,-363,0,0,0,0,0,0,0,0,0,-1,1553,1387,0,0
336,-363,0,0,0,0,0,0,0,0,0,-1,1560,1387,0,0
343,-363,0,0,0,0,0,0,0,0,0,-1,1567,1387,0,0
350,-363,0,0,0,0,0,0,0,0,0,-1,1574,1387,0,0
357,-363,0,0,0,0,0,0,0,0,0,-1,1581,1387,0,0
364,-363,0,0,0,0,0,0,0,0,0,-1,1588,1387,0,0
371,-363,0,0,0,0,0,0,0,0,0,-1,1595,1387,0,0
378,-363,0,0,0,0,0,0,0,0,0,-1,1602,1387,0,0
385,-363,0,0,0,0,0,0,0,0,0,-1,1609,1387,0,0
392,-363,0,0,0,0,0,0,0,0,0,-1,1616,1387,0,0
399,-363,0,0,0,0,0,0,0,0,0,-1,1623,1387,0,0
406,-363,0,0,0,0,0,0,0,0,0,-1,1630,1387,0,0
413,-363,0,0,0,0,0,0,0,0,0,-1,1637,1387,0,0
420,-363,0,0,0,0,0,0,0,0,0,-1,1644,1387,0,0
427,-363,0,0,0,0,0,0,0,0,0,-1,1651,1387,0,0
434,-363,0,0,0,0,0,0,0,0,0,-1,1658,1387,0,0
441,-363,0,0,0,0,0,0,0,0,0,-1,1665,1387,0,0
448,-363,0,0,0,0,0,0,0,0,0,-1,1672,1387,0,0
455,-363,0,0,0,0,0,0,0,0,0,-1,1679,1387,0,0
462,-363,0,0,0,0,0,0,0,0,0,-1,1686,1387,0,0
469,-363,0,0,0,0,0,0,0,0,0,-1,1693,1387,0,0
476,-363,0,0,0,0,0,0,0,0,0,-1,1700,1387,0,0
483,-363,0,0,0,0,0,0,0,0,0,-1,1707,1387,0,0
490,-363,0,0,0,0,0,0,0,0,0,-1,1714,1387,0,0
497,-363,0,0,0,0,0,0,0,0,0,-1,1721,1387,0,0
504,-363,0,0,0,0,0,0,0,0,0,-1,1728,1387,0,0
511,-363,0,0,0,0,0,0,0,0,0,-1,1735,1387,0,0
518,-363,0,0,0,0,0,0,0,0,0,-1,1742,1387,0,0
525,-363,0,0,0,0,0,0,0,0,0,-1,1749,1387,0,0
532,-363,0,0,0,0,0,0,0,0,0,-1,1756,1387,0,0
539,-363,0,0,0,0,0,0,0,0,0,-1,1763,1387,0,0
546,-363,0,0,0,0,0,0,0,0,0,-1,1770,1387,0,0
553,-363,45.9076,3.64331,0,0,0,0,0,0,0,-1,1777,1387,45.9076,-3.64336
560,-363,45.9459,3.6875,0,0,0,0,0,0,0,-1,1784,1387,45.9459,-3.68756
567,-363,45.9266,3.32825,0,0,0,0,0,0,0,-1,1791,1387,45.9266,-3.32824
574,-363,45.7261,2.8075,0,0,0,0,0,0,0,-1,1798,1387,45.7261,-2.80754
581,-363,39.2413,1.97632,0,0,0,0,0,0,0,-1,1805,1387,39.2413,-1.97636
588,-363,32.5608,6.72131,0,0,0,0,0,0,0,-1,1812,1387,32.5608,-6.72131
595,-363,31.4688,6.95435,0,0,0,0,0,0,0,-1,1819,1387,31.4688,-6.95431
602,-363,25.7437,5.33667,0,0,0,0,0,0,0,-1,1826,1387,25.7437,-5.33667
609,-363,27.7048,7.06885,0,0,0,0,0,0,0,-1,1833,1387,27.7048,-7.06882
616,-363,16.229,1.08704,0,0,0,0,0,0,0,-1,1840,1387,16.229,-1.08706
623,-363,15.7283,7.16663,0,0,0,0,0,0,0,-1,1847,1387,15.7282,-7.16665
630,-363,18.3192,9.27844,0,0,0,0,0,0,0,-1,1854,1387,18.3192,-9.27843
637,-363,32.8817,15.924,0,0,0,0,0,0,0,-1,1861,1387,32.8817,-15.924
644,-363,32.9136,15.2142,5.09066e-05,0.00125877,-0.00161513,0.00237919,-0.00106951,-0.96431,0.00203841,0.0175097,1868,1387,32.9135,-15.2143
651,-363,32.9119,14.5645,2.95682e-05,0.000565336,-0.000919201,0.00125489,-0.000659989,-0.927187,0.0011232,0.0115603,1875,1387,32.9119,-14.5644
658,-363,32.8777,13.9733,0.000389218,0.000123875,-0.000475172,0.000749893,-0.000236799,-0.649261,0.000594788,0.012422,1882,1387,32.8777,-13.9733
665,-363,32.8495,13.4756,0.000860547,-0.000217644,-0.000160345,0.000883887,-0.000240985,-0.14455,0.000683889,0.0125302,1889,1387,32.8495,-13.4756
672,-363,32.8363,12.9414,0.0014141,-0.000505546,9.32882e-05,0.00141862,-0.000510069,0.0484445,0.00115398,0.0139879,1896,1387,32.8363,-12.9415
679,-363,32.8149,12.3601,0.0020998,-0.000670724,0.000226982,0.00211827,-0.000689197,0.0812059,0.00168944,0.0151688,1903,1387,32.8149,-12.3601
686,-363,32.7996,11.7888,0.00288114,-0.000753527,0.000281402,0.00290279,-0.000775184,0.0768116,0.00223878,0.0148044,1910,1387,32.7996,-11.7889
693,-363,32.7809,11.2079,0.00378508,-0.000706781,0.000224379,0.00379626,-0.000717961,0.0497871,0.002801,0.0134281,1917,1387,32.7809,-11.2078
700,-363,32.8989,10.584,0.00485491,-0.000431658,1.3507e-05,0.00485495,-0.000431693,0.00255494,0.00338971,0.026424,1924,1387,32.899,-10.584
707,-363,33.1416,10.0043,0,0,0,0,0,0,0,-1,1931,1387,33.1416,-10.0042
714,-363,16.5782,5.3147,0,0,0,0,0,0,0,-1,1938,1387,16.5783,-5.31472
721,-363,14.4045,4.51685,0,0,0,0,0,0,0,-1,1945,1387,14.4045,-4.51685
728,-363,19.9756,0.853027,0,0,0,0,0,0,0,-1,1952,1387,19.9756,-0.853059
735,-363,21.4297,1.2981,0,0,0,0,0,0,0,-1,1959,1387,21.4297,-1.29811
742,-363,21.3621,2.79663,0,0,0,0,0,0,0,-1,1966,1387,21.362,-2.7966
749,-363,0,0,0,0,0,0,0,0,0,-1,1973,1387,0,0
756,-363,0,0,0,0,0,0,0,0,0,-1,1980,1387,0,0
763,-363,0,0,0,0,0,0,0,0,0,-1,1987,1387,0,0
770,-363,0,0,0,0,0,0,0,0,0,-1,1994,1387,0,0
777,-363,0,0,0,0,0,0,0,0,0,-1,2001,1387,0,0
784,-363,0,0,0,0,0,0,0,0,0,-1,2008,1387,0,0
791,-363,0,0,0,0,0,0,0,0,0,-1,2015,1387,0,0
798,-363,0,0,0,0,0,0,0,0,0,-1,2022,1387,0,0
805,-363,0,0,0,0,0,0,0,0,0,-1,2029,1387,0,0
812,-363,0,0,0,0,0,0,0,0,0,-1,2036,1387,0,0
-700,-370,0,0,0,0,0,0,0,0,0,-1,524,1394,0,0
-693,-370,0,0,0,0,0,0,0,0,0,-1,531,1394,0,0
-686,-370,0,0,0,0,0,0,0,0,0,-1,538,1394,0,0
-679,-370,0,0,0,0,0,0,0,0,0,-1,545,1394,0,0
-672,-370,0,0,0,0,0,0,0,0,0,-1,552,1394,0,0
-665,-370,0,0,0,0,0,0,0,0,0,-1,559,1394,0,0
-658,-370,0,0,0,0,0,0,0,0,0,-1,566,1394,0,0
-651,-370,0,0,0,0,0,0,0,0,0,-1,573,1394,0,0
-644,-370,0,0,0,0,0,0,0,0,0,-1,580,1394,0,0
-637,-370,0,0,0,0,0,0,0,0,0,-1,587,1394,0,0
-630,-370,0,0,0,0,0,0,0,0,0,-1,594,1394,0,0
-623,-370,-10.1758,-7.10486,0,0,0,0,0,0,0,-1,601,1394,-10.1758,7.10483
-616,-370,-8.85925,-1.61475,0,0,0,0,0,0,0,-1,608,1394,-8.85925,1.61476
-609,-370,-5.39325,0.0421143,0,0,0,0,0,0,0,-1,615,1394,-5.39328,-0.0421372
-602,-370,-12.3151,3.44592,0,0,0,0,0,0,0,-1,622,1394,-12.3151,-3.44595
-595,-370,-7.53284,5.44214,0,0,0,0,0,0,0,-1,629,1394,-7.53284,-5.44216
-588,-370,-11.2422,4.50598,0,0,0,0,0,0,0,-1,636,1394,-11.2422,-4.50596
-581,-370,-13.1575,5.84888,0,0,0,0,0,0,0,-1,643,1394,-13.1575,-5.84887
-574,-370,-13.0107,6.69861,0,0,0,0,0,0,0,-1,650,1394,-13.0108,-6.69866
-567,-370,-16.5143,8.43652,0,0,0,0,0,0,0,-1,657,1394,-16.5143,-8.43647
-560,-370,-16.5552,9.13293,0.00485593,0.000926684,0.00166974,0.00546963,0.000312981,0.352219,0.0035467,0.0294204,664,1394,-16.5552,-9.13296
-553,-370,-16.5361,9.81311,0.0038835,0.000726009,0.00151448,0.00449246,0.000117042,0.382313,0.00295673,0.0105838,671,1394,-16.5361,-9.8131
-546,-370,-16.5274,10.4414,0.00312025,0.000548553,0.00141846,0.00374893,-8.01327e-05,0.417199,0.00252642,0.0142184,678,1394,-16.5274,-10.4414
-539,-370,-16.4985,11.0618,0.00258215,0.000436683,0.00139629,0.00327021,-0.000251377,0.457852,0.00226858,0.0183403,685,1394,-16.4985,-11.0618
-532,-370,-16.5718,11.665,0.0023108,0.000423912,0.00149708,0.00313691,-0.000402197,0.504236,0.00223742,0.0208011,692,1394,-16.5718,-11.665
-525,-370,-16.5862,12.2607,0.00236049,0.000607814,0.00179657,0.00348306,-0.000514759,0.558485,0.00251127,0.0173464,699,1394,-16.5862,-12.2608
-518,-370,-16.5873,12.8628,0.00264559,0.000899018,0.00220273,0.00414182,-0.000597221,0.596675,0.0029803,0.012467,706,1394,-16.5873,-12.8627
-511,-370,-16.6102,13.5074,0.00331948,0.00135261,0.00283046,0.00533248,-0.00066039,0.618199,0.00379432,0.0148999,713,1394,-16.6102,-13.5074
-504,-370,-16.6317,14.1689,0,0,0,0,0,0,0,-1,720,1394,-16.6316,-14.1689
-497,-370,-12.3546,11.7982,0,0,0,0,0,0,0,-1,727,1394,-12.3546,-11.7983
-490,-370,-5.30695,4.5271,0,0,0,0,0,0,0,-1,734,1394,-5.30698,-4.52704
-483,-370,-6.02997,4.59253,0,0,0,0,0,0,0,-1,741,1394,-6.02994,-4.5925
-476,-370,-6.75293,4.65796,0,0,0,0,0,0,0,-1,748,1394,-6.7529,-4.65795
-469,-370,-10.584,1.14294,0,0,0,0,0,0,0,-1,755,1394,-10.584,-1.14293
-462,-370,-9.54462,0.387207,0,0,0,0,0,0,0,-1,762,1394,-9.5446,-0.387176
-455,-370,-8.50525,-0.36853,0,0,0,0,0,0,0,-1,769,1394,-8.50523,0.368582
-448,-370,-10.9543,2.28833,0,0,0,0,0,0,0,-1,776,1394,-10.9543,-2.28835
-441,-370,-11.8699,1.8313,0,0,0,0,0,0,0,-1,783,1394,-11.8699,-1.83127
-434,-370,-12.7855,1.37415,0,0,0,0,0,0,0,-1,790,1394,-12.7855,-1.37419
-427,-370,0,0,0,0,0,0,0,0,0,-1,797,1394,0,0
-420,-370,0,0,0,0,0,0,0,0,0,-1,804,1394,0,0
-413,-370,0,0,0,0,0,0,0,0,0,-1,811,1394,0,0
-406,-370,0,0,0,0,0,0,0,0,0,-1,818,1394,0,0
-399,-370,0,0,0,0,0,0,0,0,0,-1,825,1394,0,0
-392,-370,0,0,0,0,0,0,0,0,0,-1,832,1394,0,0
-385,-370,0,0,0,0,0,0,0,0,0,-1,839,1394,0,0
-378,-370,0,0,0,0,0,0,0,0,0,-1,846,1394,0,0
-371,-370,0,0,0,0,0,0,0,0,0,-1,853,1394,0,0
-364,-370,0,0,0,0,0,0,0,0,0,-1,860,1394,0,0
-357,-370,0,0,0,0,0,0,0,0,0,-1,867,1394,0,0
-350,-370,0,0,0,0,0,0,0,0,0,-1,874,1394,0,0
-343,-370,0,0,0,0,0,0,0,0,0,-1,881,1394,0,0
-336,-370,0,0,0,0,0,0,0,0,0,-1,888,1394,0,0
-329,-370,0,0,0,0,0,0,0,0,0,-1,895,1394,0,0
-322,-370,0,0,0,0,0,0,0,0,0,-1,902,1394,0,0
-315,-370,0,0,0,0,0,0,0,0,0,-1,909,1394,0,0
-308,-370,0,0,0,0,0,0,0,0,0,-1,916,1394,0,0
-301,-370,0,0,0,0,0,0,0,0,0,-1,923,1394,0,0
-294,-370,0,0,0,0,0,0,0,0,0,-1,930,1394,0,0
-287,-370,0,0,0,0,0,0,0,0,0,-1,937,1394,0,0
-280,-370,0,0,0,0,0,0,0,0,0,-1,944,1394,0,0
-273,-370,0,0,0,0,0,0,0,0,0,-1,951,1394,0,0
-266,-370,0,0,0,0,0,0,0,0,0,-1,958,1394,0,0
-259,-370,0,0,0,0,0,0,0,0,0,-1,965,1394,0,0
-252,-370,0,0,0,0,0,0,0,0,0,-1,972,1394,0,0
-245,-370,0,0,0,0,0,0,0,0,0,-1,979,1394,0,0
-238,-370,0,0,0,0,0,0,0,0,0,-1,986,1394,0,0
-231,-370,0,0,0,0,0,0,0,0,0,-1,993,1394,0,0
-224,-370,0,0,0,0,0,0,0,0,0,-1,1000,1394,0,0
-217,-370,0,0,0,0,0,0,0,0,0,-1,1007,1394,0,0
-210,-370,0,0,0,0,0,0,0,0,0,-1,1014,1394,0,0
-203,-370,0,0,0,0,0,0,0,0,0,-1,1021,1394,0,0
-196,-370,0,0,0,0,0,0,0,0,0,-1,1028,1394,0,0
-189,-370,0,0,0,0,0,0,0,0,0,-1,1035,1394,0,0
-182,-370,0,0,0,0,0,0,0,0,0,-1,1042,1394,0,0
-175,-370,0,0,0,0,0,0,0,0,0,-1,1049,1394,0,0
-168,-370,0,0,0,0,0,0,0,0,0,-1,1056,1394,0,0
-161,-370,0,0,0,0,0,0,0,0,0,-1,1063,1394,0,0
-154,-370,0,0,0,0,0,0,0,0,0,-1,1070,1394,0,0
-147,-370,0,0,0,0,0,0,0,0,0,-1,1077,1394,0,0
-140,-370,0,0,0,0,0,0,0,0,0,-1,1084,1394,0,0
-133,-370,0,0,0,0,0,0,0,0,0,-1,1091,1394,0,0
-126,-370,0,0,0,0,0,0,0,0,0,-1,1098,1394,0,0
-119,-370,0,0,0,0,0,0,0,0,0,-1,1105,1394,0,0
-112,-370,0,0,0,0,0,0,0,0,0,-1,1112,1394,0,0
-105,-370,0,0,0,0,0,0,0,0,0,-1,1119,1394,0,0
-98,-370,0,0,0,0,0,0,0,0,0,-1,1126,1394,0,0
-91,-370,0,0,0,0,0,0,0,0,0,-1,1133,1394,0,0
-84,-370,0,0,0,0,0,0,0,0,0,-1,1140,1394,0,0
-77,-370,0,0,0,0,0,0,0,0,0,-1,1147,1394,0,0
-70,-370,0,0,0,0,0,0,0,0,0,-1,1154,1394,0,0
-63,-370,0,0,0,0,0,0,0,0,0,-1,1161,1394,0,0
-56,-370,0,0,0,0,0,0,0,0,0,-1,1168,1394,0,0
-49,-370,0,0,0,0,0,0,0,0,0,-1,1175,1394,0,0
-42,-370,0,0,0,0,0,0,0,0,0,-1,1182,1394,0,0
-35,-370,0,0,0,0,0,0,0,0,0,-1,1189,1394,0,0
-28,-370,0,0,0,0,0,0,0,0,0,-1,1196,1394,0,0
-21,-370,0,0,0,0,0,0,0,0,0,-1,1203,1394,0,0
-14,-370,0,0,0,0,0,0,0,0,0,-1,1210,1394,0,0
-7,-370,0,0,0,0,0,0,0,0,0,-1,1217,1394,0,0
0,-370,0,0,0,0,0,0,0,0,0,-1,1224,1394,0,0
7,-370,0,0,0,0,0,0,0,0,0,-1,1231,1394,0,0
14,-370,0,0,0,0,0,0,0,0,0,-1,1238,1394,0,0
21,-370,0,0,0,0,0,0,0,0,0,-1,1245,1394,0,0
28,-370,0,0,0,0,0,0,0,0,0,-1,1252,1394,0,0
35,-370,0,0,0,0,0,0,0,0,0,-1,1259,1394,0,0
42,-370,0,0,0,0,0,0,0,0,0,-1,1266,1394,0,0
49,-370,0,0,0,0,0,0,0,0,0,-1,1273,1394,0,0
56,-370,0,0,0,0,0,0,0,0,0,-1,1280,1394,0,0
63,-370,0,0,0,0,0,0,0,0,0,-1,1287,1394,0,0
70,-370,0,0,0,0,0,0,0,0,0,-1,1294,1394,0,0
77,-370,0,0,0,0,0,0,0,0,0,-1,1301,1394,0,0
84,-370,0,0,0,0,0,0,0,0,0,-1,1308,1394,0,0
91,-370,0,0,0,0,0,0,0,0,0,-1,1315,1394,0,0
98,-370,0,0,0,0,0,0,0,0,0,-1,1322,1394,0,0
105,-370,0,0,0,0,0,0,0,0,0,-1,1329,1394,0,0
112,-370,0,0,0,0,0,0,0,0,0,-1,1336,1394,0,0
119,-370,0,0,0,0,0,0,0,0,0,-1,1343,1394,0,0
126,-370,0,0,0,0,0,0,0,0,0,-1,1350,1394,0,0
133,-370,0,0,0,0,0,0,0,0,0,-1,1357,1394,0,0
140,-370,0,0,0,0,0,0,0,0,0,-1,1364,1394,0,0
147,-370,0,0,0,0,0,0,0,0,0,-1,1371,1394,0,0
154,-370,0,0,0,0,0,0,0,0,0,-1,1378,1394,0,0
161,-370,0,0,0,0,0,0,0,0,0,-1,1385,1394,0,0
168,-370,0,0,0,0,0,0,0,0,0,-1,1392,1394,0,0
175,-370,0,0,0,0,0,0,0,0,0,-1,1399,1394,0,0
182,-370,0,0,0,0,0,0,0,0,0,-1,1406,1394,0,0
189,-370,0,0,0,0,0,0,0,0,0,-1,1413,1394,0,0
196,-370,0,0,0,0,0,0,0,0,0,-1,1420,1394,0,0
203,-370,0,0,0,0,0,0,0,0,0,-1,1427,1394,0,0
210,-370,0,0,0,0,0,0,0,0,0,-1,1434,1394,0,0
217,-370,0,0,0,0,0,0,0,0,0,-1,1441,1394,0,0
224,-370,0,0,0,0,0,0,0,0,0,-1,1448,1394,0,0
231,-370,0,0,0,0,0,0,0,0,0,-1,1455,1394,0,0
238,-370,0,0,0,0,0,0,0,0,0,-1,1462,1394,0,0
245,-370,0,0,0,0,0,0,0,0,0,-1,1469,1394,0,0
252,-370,0,0,0,0,0,0,0,0,0,-1,1476,1394,0,0
259,-370,0,0,0,0,0,0,0,0,0,-1,1483,1394,0,0
266,-370,0,0,0,0,0,0,0,0,0,-1,1490,1394,0,0
273,-370,0,0,0,0,0,0,0,0,0,-1,1497,1394,0,0
280,-370,0,0,0,0,0,0,0,0,0,-1,1504,1394,0,0
287,-370,0,0,0,0,0,0,0,0,0,-1,1511,1394,0,0
294,-370,0,0,0,0,0,0,0,0,0,-1,1518,1394,0,0
301,-370,0,0,0,0,0,0,0,0,0,-1,1525,1394,0,0
308,-370,0,0,0,0,0,0,0,0,0,-1,1532,1394,0,0
315,-370,0,0,0,0,0,0,0,0,0,-1,1539,1394,0,0
322,-370,0,0,0,0,0,0,0,0,0,-1,1546,1394,0,0
329,-370,0,0,0,0,0,0,0,0,0,-1,1553,1394,0,0
336,-370,0,0,0,0,0,0,0,0,0,-1,1560,1394,0,0
343,-370,0,0,0,0,0,0,0,0,0,-1,1567,1394,0,0
350,-370,0,0,0,0,0,0,0,0,0,-1,1574,1394,0,0
357,-370,0,0,0,0,0,0,0,0,0,-1,1581,1394,0,0
364,-370,0,0,0,0,0,0,0,0,0,-1,1588,1394,0,0
371,-370,0,0,0,0,0,0,0,0,0,-1,1595,1394,0,0
378,-370,0,0,0,0,0,0,0,0,0,-1,1602,1394,0,0
385,-370,0,0,0,0,0,0,0,0,0,-1,1609,1394,0,0
392,-370,0,0,0,0,0,0,0,0,0,-1,1616,1394,0,0
399,-370,0,0,0,0,0,0,0,0,0,-1,1623,1394,0,0
406,-370,0,0,0,0,0,0,0,0,0,-1,1630,1394,0,0
413,-370,0,0,0,0,0,0,0,0,0,-1,1637,1394,0,0
420,-370,0,0,0,0,0,0,0,0,0,-1,1644,1394,0,0
427,-370,0,0,0,0,0,0,0,0,0,-1,1651,1394,0,0
434,-370,0,0,0,0,0,0,0,0,0,-1,1658,1394,0,0
441,-370,0,0,0,0,0,0,0,0,0,-1,1665,1394,0,0
448,-370,0,0,0,0,0,0,0,0,0,-1,1672,1394,0,0
455,-370,0,0,0,0,0,0,0,0,0,-1,1679,1394,0,0
462,-370,0,0,0,0,0,0,0,0,0,-1,1686,1394,0,0
469,-370,0,0,0,0,0,0,0,0,0,-1,1693,1394,0,0
476,-370,0,0,0,0,0,0,0,0,0,-1,1700,1394,0,0
483,-370,0,0,0,0,0,0,0,0,0,-1,1707,1394,0,0
490,-370,0,0,0,0,0,0,0,0,0,-1,1714,1394,0,0
497,-370,0,0,0,0,0,0,0,0,0,-1,1721,1394,0,0
504,-370,0,0,0,0,0,0,0,0,0,-1,1728,1394,0,0
511,-370,0,0,0,0,0,0,0,0,0,-1,1735,1394,0,0
518,-370,0,0,0,0,0,0,0,0,0,-1,1742,1394,0,0
525,-370,0,0,0,0,0,0,0,0,0,-1,1749,1394,0,0
532,-370,0,0,0,0,0,0,0,0,0,-1,1756,1394,0,0
539,-370,0,0,0,0,0,0,0,0,0,-1,1763,1394,0,0
546,-370,27.4949,2.81201,0,0,0,0,0,0,0,-1,1770,1394,27.4948,-2.81198
553,-370,26.5985,1.99329,0,0,0,0,0,0,0,-1,1777,1394,26.5985,-1.99327
560,-370,46.0132,3.65686,0,0,0,0,0,0,0,-1,1784,1394,46.0132,-3.65689
567,-370,46.1089,3.11719,0,0,0,0,0,0,0,-1,1791,1394,46.1089,-3.1172
574,-370,38.8953,1.49353,0,0,0,0,0,0,0,-1,1798,1394,38.8952,-1.49348
581,-370,39.178,2.86145,0,0,0,0,0,0,0,-1,1805,1394,39.1779,-2.86145
588,-370,39.2102,4.27661,0,0,0,0,0,0,0,-1,1812,1394,39.2102,-4.27657
595,-370,25.793,4.5271,0,0,0,0,0,0,0,-1,1819,1394,25.793,-4.52711
602,-370,25.1077,5.34937,0,0,0,0,0,0,0,-1,1826,1394,25.1077,-5.34932
609,-370,16.712,0.993286,0,0,0,0,0,0,0,-1,1833,1394,16.7121,-0.99323
616,-370,16.7764,7.23315,0,0,0,0,0,0,0,-1,1840,1394,16.7764,-7.23313
623,-370,17.6625,8.94263,0,0,0,0,0,0,0,-1,1847,1394,17.6624,-8.94258
630,-370,20.9681,11.1785,0,0,0,0,0,0,0,-1,1854,1394,20.9681,-11.1784
637,-370,32.389,15.7589,0,0,0,0,0,0,0,-1,1861,1394,32.3891,-15.7589
644,-370,32.3778,15.1805,0.000128128,0.00105535,-0.00134623,0.00201556,-0.000832082,-0.951226,0.00169075,0.0153158,1868,1394,32.3778,-15.1805
651,-370,32.3511,14.6022,0.000220648,0.000452894,-0.000756341,0.00110197,-0.000428433,-0.86157,0.000911659,0.0130853,1875,1394,32.3511,-14.6021
658,-370,32.3235,14.0349,0.000602742,1.83512e-05,-0.000339781,0.000758686,-0.000137593,-0.430276,0.000557346,0.0128514,1882,1394,32.3235,-14.0349
665,-370,32.2861,13.4918,0.00109028,-0.000344277,-9.84231e-06,0.00109035,-0.000344345,-0.00686044,0.000864841,0.014882,1889,1394,32.2861,-13.4919
672,-370,32.2675,12.9431,0.00167489,-0.000701049,0.000283761,0.00170831,-0.000734469,0.117234,0.00144722,0.0159302,1896,1394,32.2675,-12.9431
679,-370,32.2772,12.3591,0.00241067,-0.000962956,0.000476731,0.00247674,-0.00102903,0.137719,0.00208079,0.0146917,1903,1394,32.2772,-12.3592
686,-370,32.2274,11.7877,0.00325305,-0.00119262,0.000615295,0.00333664,-0.0012762,0.135022,0.00275036,0.014689,1910,1394,32.2275,-11.7878
693,-370,32.1888,11.1949,0.00428116,-0.00130676,0.00062121,0.00434939,-0.00137499,0.109391,0.00345048,0.0137495,1917,1394,32.1888,-11.1949
700,-370,32.3416,10.5477,0.00555219,-0.00122507,0.000465567,0.00558402,-0.0012569,0.0682681,0.00420474,0.0382525,1924,1394,32.3416,-10.5477
707,-370,32.5891,9.83423,0,0,0,0,0,0,0,-1,1931,1394,32.5891,-9.83421
714,-370,16.9116,5.93018,0,0,0,0,0,0,0,-1,1938,1394,16.9116,-5.93014
721,-370,17.2007,4.69153,0,0,0,0,0,0,0,-1,1945,1394,17.2007,-4.69158
728,-370,20.5315,-0.313354,0,0,0,0,0,0,0,-1,1952,1394,20.5315,0.313332
735,-370,22.3652,0.233398,0,0,0,0,0,0,0,-1,1959,1394,22.3652,-0.233355
742,-370,24.1989,0.780029,0,0,0,0,0,0,0,-1,1966,1394,24.1989,-0.780041
749,-370,0,0,0,0,0,0,0,0,0,-1,1973,1394,0,0
756,-370,0,0,0,0,0,0,0,0,0,-1,1980,1394,0,0
763,-370,0,0,0,0,0,0,0,0,0,-1,1987,1394,0,0
770,-370,0,0,0,0,0,0,0,0,0,-1,1994,1394,0,0
777,-370,0,0,0,0,0,0,0,0,0,-1,2001,1394,0,0
784,-370,0,0,0,0,0,0,0,0,0,-1,2008,1394,0,0
791,-370,0,0,0,0,0,0,0,0,0,-1,2015,1394,0,0
798,-370,0,0,0,0,0,0,0,0,0,-1,2022,1394,0,0
805,-370,0,0,0,0,0,0,0,0,0,-1,2029,1394,0,0
812,-370,0,0,0,0,0,0,0,0,0,-1,2036,1394,0,0
-700,-377,0,0,0,0,0,0,0,0,0,-1,524,1401,0,0
-693,-377,0,0,0,0,0,0,0,0,0,-1,531,1401,0,0
-686,-377,0,0,0,0,0,0,0,0,0,-1,538,1401,0,0
-679,-377,0,0,0,0,0,0,0,0,0,-1,545,1401,0,0
-672,-377,0,0,0,0,0,0,0,0,0,-1,552,1401,0,0
-665,-377,0,0,0,0,0,0,0,0,0,-1,559,1401,0,0
-658,-377,0,0,0,0,0,0,0,0,0,-1,566,1401,0,0
-651,-377,0,0,0,0,0,0,0,0,0,-1,573,1401,0,0
-644,-377,0,0,0,0,0,0,0,0,0,-1,580,1401,0,0
-637,-377,0,0,0,0,0,0,0,0,0,-1,587,1401,0,0
-630,-377,0,0,0,0,0,0,0,0,0,-1,594,1401,0,0
-623,-377,0,0,0,0,0,0,0,0,0,-1,601,1401,0,0
-616,-377,-9.43915,-2.4906,0,0,0,0,0,0,0,-1,608,1401,-9.43915,2.49062
-609,-377,-7.2821,-1.35278,0,0,0,0,0,0,0,-1,615,1401,-7.28208,1.35279
-602,-377,-14.9736,3.98279,0,0,0,0,0,0,0,-1,622,1401,-14.9737,-3.98276
-595,-377,-6.9082,1.18201,0,0,0,0,0,0,0,-1,629,1401,-6.90822,-1.18204
-588,-377,-12.8003,3.44751,0,0,0,0,0,0,0,-1,636,1401,-12.8003,-3.44754
-581,-377,-11.8243,6.21521,0,0,0,0,0,0,0,-1,643,1401,-11.8244,-6.21519
-574,-377,-12.2761,6.60547,0,0,0,0,0,0,0,-1,650,1401,-12.2761,-6.60552
-567,-377,-13.4844,7.41931,0,0,0,0,0,0,0,-1,657,1401,-13.4845,-7.41926
-560,-377,-15.9608,9.04846,0,0,0,0,0,0,0,-1,664,1401,-15.9608,-9.04843
-553,-377,-15.9171,9.80774,0.00420463,0.000909221,0.0016879,0.00491572,0.000198129,0.398723,0.00321314,0.0153336,671,1401,-15.9171,-9.80775
-546,-377,-15.9213,10.4938,0.00334215,0.000682791,0.00151777,0.00403031,-5.36884e-06,0.425679,0.00268867,0.0155644,678,1401,-15.9213,-10.4937
-539,-377,-15.9151,11.0701,0.00272362,0.000537078,0.00141884,0.00342153,-0.000160837,0.45714,0.00233648,0.0205387,685,1401,-15.9151,-11.07
-532,-377,-15.9604,11.6461,0.00237575,0.000487307,0.00143501,0.00314932,-0.000286265,0.494413,0.00220119,0.0200805,692,1401,-15.9604,-11.6461
-525,-377,-15.9232,12.2941,0.00236198,0.000662114,0.00166846,0.00338452,-0.000360419,0.549823,0.00238558,0.0215961,699,1401,-15.9232,-12.294
-518,-377,-15.9768,12.8984,0.00256686,0.000926421,0.00201097,0.00391845,-0.000425172,0.591761,0.00276494,0.0140867,706,1401,-15.9768,-12.8984
-511,-377,-16.0159,13.5095,0.00311255,0.0013915,0.00256219,0.00495487,-0.000450811,0.623389,0.00346331,0.0116769,713,1401,-16.0159,-13.5095
-504,-377,-16.0396,14.1542,0.00404872,0.00218445,0.003428,0.00666906,-0.000435884,0.652649,0.00459822,0.0154148,720,1401,-16.0396,-14.1542
-497,-377,-15.8896,14.8422,0,0,0,0,0,0,0,-1,727,1401,-15.8896,-14.8422
-490,-377,-8.88409,10.1245,0,0,0,0,0,0,0,-1,734,1401,-8.8841,-10.1245
-483,-377,-5.6524,5.07324,0,0,0,0,0,0,0,-1,741,1401,-5.6524,-5.07325
-476,-377,-6.11682,5.10535,0,0,0,0,0,0,0,-1,748,1401,-6.11681,-5.10537
-469,-377,-10.3211,1.9281,0,0,0,0,0,0,0,-1,755,1401,-10.3211,-1.92808
-462,-377,-9.2204,1.0022,0,0,0,0,0,0,0,-1,762,1401,-9.22039,-1.00218
-455,-377,-8.11969,0.0762939,0,0,0,0,0,0,0,-1,769,1401,-8.11968,-0.0762759
-448,-377,-9.05334,0.877319,0,0,0,0,0,0,0,-1,776,1401,-9.05332,-0.877324
-441,-377,-11.212,0.763428,0,0,0,0,0,0,0,-1,783,1401,-11.212,-0.763415
-434,-377,-11.0984,0.996216,0,0,0,0,0,0,0,-1,790,1401,-11.0984,-0.996265
-427,-377,-11.1733,1.25732,0,0,0,0,0,0,0,-1,797,1401,-11.1733,-1.25732
-420,-377,0,0,0,0,0,0,0,0,0,-1,804,1401,0,0
-413,-377,0,0,0,0,0,0,0,0,0,-1,811,1401,0,0
-406,-377,0,0,0,0,0,0,0,0,0,-1,818,1401,0,0
-399,-377,0,0,0,0,0,0,0,0,0,-1,825,1401,0,0
-392,-377,0,0,0,0,0,0,0,0,0,-1,832,1401,0,0
-385,-377,0,0,0,0,0,0,0,0,0,-1,839,1401,0,0
-378,-377,0,0,0,0,0,0,0,0,0,-1,846,1401,0,0
-371,-377,0,0,0,0,0,0,0,0,0,-1,853,1401,0,0
-364,-377,0,0,0,0,0,0,0,0,0,-1,860,1401,0,0
-357,-377,0,0,0,0,0,0,0,0,0,-1,867,1401,0,0
-350,-377,0,0,0,0,0,0,0,0,0,-1,874,1401,0,0
-343,-377,0,0,0,0,0,0,0,0,0,-1,881,1401,0,0
-336,-377,0,0,0,0,0,0,0,0,0,-1,888,1401,0,0
-329,-377,0,0,0,0,0,0,0,0,0,-1,895,1401,0,0
-322,-377,0,0,0,0,0,0,0,0,0,-1,902,1401,0,0
-315,-377,0,0,0,0,0,0,0,0,0,-1,909,1401,0,0
-308,-377,0,0,0,0,0,0,0,0,0,-1,916,1401,0,0
-301,-377,0,0,0,0,0,0,0,0,0,-1,923,1401,0,0
-294,-377,0,0,0,0,0,0,0,0,0,-1,930,1401,0,0
-287,-377,0,0,0,0,0,0,0,0,0,-1,937,1401,0,0
-280,-377,0,0,0,0,0,0,0,0,0,-1,944,1401,0,0
-273,-377,0,0,0,0,0,0,0,0,0,-1,951,1401,0,0
-266,-377,0,0,0,0,0,0,0,0,0,-1,958,1401,0,0
-259,-377,0,0,0,0,0,0,0,0,0,-1,965,1401,0,0
-252,-377,0,0,0,0,0,0,0,0,0,-1,972,1401,0,0
-245,-377,0,0,0,0,0,0,0,0,0,-1,979,1401,0,0
-238,-377,0,0,0,0,0,0,0,0,0,-1,986,1401,0,0
-231,-377,0,0,0,0,0,0,0,0,0,-1,993,1401,0,0
-224,-377,0,0,0,0,0,0,0,0,0,-1,1000,1401,0,0
-217,-377,0,0,0,0,0,0,0,0,0,-1,1007,1401,0,0
-210,-377,0,0,0,0,0,0,0,0,0,-1,1014,1401,0,0
-203,-377,0,0,0,0,0,0,0,0,0,-1,1021,1401,0,0
-196,-377,0,0,0,0,0,0,0,0,0,-1,1028,1401,0,0
-189,-377,0,0,0,0,0,0,0,0,0,-1,1035,1401,0,0
-182,-377,0,0,0,0,0,0,0,0,0,-1,1042,1401,0,0
-175,-377,0,0,0,0,0,0,0,0,0,-1,1049,1401,0,0
-168,-377,0,0,0,0,0,0,0,0,0,-1,1056,1401,0,0
-161,-377,0,0,0,0,0,0,0,0,0,-1,1063,1401,0,0
-154,-377,0,0,0,0,0,0,0,0,0,-1,1070,1401,0,0
-147,-377,0,0,0,0,0,0,0,0,0,-1,1077,1401,0,0
-140,-377,0,0,0,0,0,0,0,0,0,-1,1084,1401,0,0
-133,-377,0,0,0,0,0,0,0,0,0,-1,1091,1401,0,0
-126,-377,0,0,0,0,0,0,0,0,0,-1,1098,1401,0,0
-119,-377,0,0,0,0,0,0,0,0,0,-1,1105,1401,0,0
-112,-377,0,0,0,0,0,0,0,0,0,-1,1112,1401,0,0
-105,-377,0,0,0,0,0,0,0,0,0,-1,1119,1401,0,0
-98,-377,0,0,0,0,0,0,0,0,0,-1,1126,1401,0,0
-91,-377,0,0,0,0,0,0,0,0,0,-1,1133,1401,0,0
-84,-377,0,0,0,0,0,0,0,0,0,-1,1140,1401,0,0
-77,-377,0,0,0,0,0,0,0,0,0,-1,1147,1401,0,0
-70,-377,0,0,0,0,0,0,0,0,0,-1,1154,1401,0,0
-63,-377,0,0,0,0,0,0,0,0,0,-1,1161,1401,0,0
-56,-377,0,0,0,0,0,0,0,0,0,-1,1168,1401,0,0
-49,-377,0,0,0,0,0,0,0,0,0,-1,1175,1401,0,0
-42,-377,0,0,0,0,0,0,0,0,0,-1,1182,1401,0,0
-35,-377,0,0,0,0,0,0,0,0,0,-1,1189,1401,0,0
-28,-377,0,0,0,0,0,0,0,0,0,-1,1196,1401,0,0
-21,-377,0,0,0,0,0,0,0,0,0,-1,1203,1401,0,0
-14,-377,0,0,0,0,0,0,0,0,0,-1,1210,1401,0,0
-7,-377,0,0,0,0,0,0,0,0,0,-1,1217,1401,0,0
0,-377,0,0,0,0,0,0,0,0,0,-1,1224,1401,0,0
7,-377,0,0,0,0,0,0,0,0,0,-1,1231,1401,0,0
14,-377,0,0,0,0,0,0,0,0,0,-1,1238,1401,0,0
21,-377,0,0,0,0,0,0,0,0,0,-1,1245,1401,0,0
28,-377,0,0,0,0,0,0,0,0,0,-1,1252,1401,0,0
35,-377,0,0,0,0,0,0,0,0,0,-1,1259,1401,0,0
42,-377,0,0,0,0,0,0,0,0,0,-1,1266,1401,0,0
49,-377,0,0,0,0,0,0,0,0,0,-1,1273,1401,0,0
56,-377,0,0,0,0,0,0,0,0,0,-1,1280,1401,0,0
63,-377,0,0,0,0,0,0,0,0,0,-1,1287,1401,0,0
70,-377,0,0,0,0,0,0,0,0,0,-1,1294,1401,0,0
77,-377,0,0,0,0,0,0,0,0,0,-1,1301,1401,0,0
84,-377,0,0,0,0,0,0,0,0,0,-1,1308,1401,0,0
91,-377,0,0,0,0,0,0,0,0,0,-1,1315,1401,0,0
98,-377,0,0,0,0,0,0,0,0,0,-1,1322,1401,0,0
105,-377,0,0,0,0,0,0,0,0,0,-1,1329,1401,0,0
112,-377,0,0,0,0,0,0,0,0,0,-1,1336,1401,0,0
119,-377,0,0,0,0,0,0,0,0,0,-1,1343,1401,0,0
126,-377,0,0,0,0,0,0,0,0,0,-1,1350,1401,0,0
133,-377,0,0,0,0,0,0,0,0,0,-1,1357,1401,0,0
140,-377,0,0,0,0,0,0,0,0,0,-1,1364,1401,0,0
147,-377,0,0,0,0,0,0,0,0,0,-1,1371,1401,0,0
154,-377,0,0,0,0,0,0,0,0,0,-1,1378,1401,0,0
161,-377,0,0,0,0,0,0,0,0,0,-1,1385,1401,0,0
168,-377,0,0,0,0,0,0,0,0,0,-1,1392,1401,0,0
175,-377,0,0,0,0,0,0,0,0,0,-1,1399,1401,0,0
182,-377,0,0,0,0,0,0,0,0,0,-1,1406,1401,0,0
189,-377,0,0,0,0,0,0,0,0,0,-1,1413,1401,0,0
196,-377,0,0,0,0,0,0,0,0,0,-1,1420,1401,0,0
203,-377,0,0,0,0,0,0,0,0,0,-1,1427,1401,0,0
210,-377,0,0,0,0,0,0,0,0,0,-1,1434,1401,0,0
217,-377,0,0,0,0,0,0,0,0,0,-1,1441,1401,0,0
224,-377,0,0,0,0,0,0,0,0,0,-1,1448,1401,0,0
231,-377,0,0,0,0,0,0,0,0,0,-1,1455,1401,0,0
238,-377,0,0,0,0,0,0,0,0,0,-1,1462,1401,0,0
245,-377,0,0,0,0,0,0,0,0,0,-1,1469,1401,0,0
252,-377,0,0,0,0,0,0,0,0,0,-1,1476,1401,0,0
259,-377,0,0,0,0,0,0,0,0,0,-1,1483,1401,0,0
266,-377,0,0,0,0,0,0,0,0,0,-1,1490,1401,0,0
273,-377,0,0,0,0,0,0,0,0,0,-1,1497,1401,0,0
280,-377,0,0,0,0,0,0,0,0,0,-1,1504,1401,0,0
287,-377,0,0,0,0,0,0,0,0,0,-1,1511,1401,0,0
294,-377,0,0,0,0,0,0,0,0,0,-1,1518,1401,0,0
301,-377,0,0,0,0,0,0,0,0,0,-1,1525,1401,0,0
308,-377,0,0,0,0,0,0,0,0,0,-1,1532,1401,0,0
315,-377,0,0,0,0,0,0,0,0,0,-1,1539,1401,0,0
322,-377,0,0,0,0,0,0,0,0,0,-1,1546,1401,0,0
329,-377,0,0,0,0,0,0,0,0,0,-1,1553,1401,0,0
336,-377,0,0,0,0,0,0,0,0,0,-1,1560,1401,0,0
343,-377,0,0,0,0,0,0,0,0,0,-1,1567,1401,0,0
350,-377,0,0,0,0,0,0,0,0,0,-1,1574,1401,0,0
357,-377,0,0,0,0,0,0,0,0,0,-1,1581,1401,0,0
364,-377,0,0,0,0,0,0,0,0,0,-1,1588,1401,0,0
371,-377,0,0,0,0,0,0,0,0,0,-1,1595,1401,0,0
378,-377,0,0,0,0,0,0,0,0,0,-1,1602,1401,0,0
385,-377,0,0,0,0,0,0,0,0,0,-1,1609,1401,0,0
392,-377,0,0,0,0,0,0,0,0,0,-1,1616,1401,0,0
399,-377,0,0,0,0,0,0,0,0,0,-1,1623,1401,0,0
406,-377,0,0,0,0,0,0,0,0,0,-1,1630,1401,0,0
413,-377,0,0,0,0,0,0,0,0,0,-1,1637,1401,0,0
420,-377,0,0,0,0,0,0,0,0,0,-1,1644,1401,0,0
427,-377,0,0,0,0,0,0,0,0,0,-1,1651,1401,0,0
434,-377,0,0,0,0,0,0,0,0,0,-1,1658,1401,0,0
441,-377,0,0,0,0,0,0,0,0,0,-1,1665,1401,0,0
448,-377,0,0,0,0,0,0,0,0,0,-1,1672,1401,0,0
455,-377,0,0,0,0,0,0,0,0,0,-1,1679,1401,0,0
462,-377,0,0,0,0,0,0,0,0,0,-1,1686,1401,0,0
469,-377,0,0,0,0,0,0,0,0,0,-1,1693,1401,0,0
476,-377,0,0,0,0,0,0,0,0,0,-1,1700,1401,0,0
483,-377,0,0,0,0,0,0,0,0,0,-1,1707,1401,0,0
490,-377,0,0,0,0,0,0,0,0,0,-1,1714,1401,0,0
497,-377,0,0,0,0,0,0,0,0,0,-1,1721,1401,0,0
504,-377,0,0,0,0,0,0,0,0,0,-1,1728,1401,0,0
511,-377,0,0,0,0,0,0,0,0,0,-1,1735,1401,0,0
518,-377,0,0,0,0,0,0,0,0,0,-1,1742,1401,0,0
525,-377,0,0,0,0,0,0,0,0,0,-1,1749,1401,0,0
532,-377,0,0,0,0,0,0,0,0,0,-1,1756,1401,0,0
539,-377,0,0,0,0,0,0,0,0,0,-1,1763,1401,0,0
546,-377,27.8485,2.34094,0,0,0,0,0,0,0,-1,1770,1401,27.8486,-2.34091
553,-377,27.2189,2.42493,0,0,0,0,0,0,0,-1,1777,1401,27.2188,-2.42498
560,-377,38.3577,-2.15015,0,0,0,0,0,0,0,-1,1784,1401,38.3576,2.1501
567,-377,38.4889,-0.285645,0,0,0,0,0,0,0,-1,1791,1401,38.4889,0.2857
574,-377,38.6221,1.61694,0,0,0,0,0,0,0,-1,1798,1401,38.6221,-1.61689
581,-377,39.1818,3.76367,0,0,0,0,0,0,0,-1,1805,1401,39.1818,-3.76366
588,-377,25.882,4.35217,0,0,0,0,0,0,0,-1,1812,1401,25.8819,-4.3522
595,-377,25.5392,5.11804,0,0,0,0,0,0,0,-1,1819,1401,25.5392,-5.11808
602,-377,24.816,5.79126,0,0,0,0,0,0,0,-1,1826,1401,24.816,-5.79124
609,-377,15.0223,4.76135,0,0,0,0,0,0,0,-1,1833,1401,15.0224,-4.76129
616,-377,14.1842,5.78992,0,0,0,0,0,0,0,-1,1840,1401,14.1842,-5.78987
623,-377,15.8248,8.76721,0,0,0,0,0,0,0,-1,1847,1401,15.8248,-8.76725
630,-377,31.2889,16.7607,0,0,0,0,0,0,0,-1,1854,1401,31.2889,-16.7607
637,-377,31.6918,15.8486,0.000422749,0.00110641,-0.00144873,0.0022531,-0.000723934,-0.901255,0.00179278,0.0391151,1861,1401,31.6918,-15.8486
644,-377,31.8156,15.2133,0.000332708,0.000826384,-0.00107818,0.00168562,-0.000526526,-0.897929,0.00133434,0.0148551,1868,1401,31.8155,-15.2133
651,-377,31.783,14.6113,0.00047759,0.000316357,-0.000568161,0.000970826,-0.000176879,-0.714923,0.000713522,0.0151653,1875,1401,31.7829,-14.6113
658,-377,31.7592,14.0757,0.00083633,-0.00010241,-0.000160221,0.000862923,-0.000129003,-0.164476,0.000622752,0.0157736,1882,1401,31.7591,-14.0756
665,-377,31.739,13.4965,0.00133287,-0.000494704,0.000188378,0.00135209,-0.000513919,0.101651,0.00111298,0.0193832,1889,1401,31.739,-13.4965
672,-377,31.7039,12.9408,0.00195466,-0.000930811,0.000532638,0.00204984,-0.00102599,0.176832,0.00180833,0.0194353,1896,1401,31.7039,-12.9408
679,-377,31.6895,12.3875,0.00273602,-0.00131426,0.000812521,0.00289294,-0.00147118,0.190778,0.00256381,0.0190078,1903,1401,31.6894,-12.3875
686,-377,31.632,11.8217,0.00362818,-0.00174328,0.00109085,0.00384126,-0.00195636,0.192905,0.00340571,0.0163812,1910,1401,31.632,-11.8217
693,-377,31.6704,11.2139,0.00477966,-0.00209499,0.00123917,0.00499621,-0.00231153,0.173001,0.00431299,0.0171597,1917,1401,31.6705,-11.2139
700,-377,31.8312,10.5308,0,0,0,0,0,0,0,-1,1924,1401,31.8312,-10.5308
707,-377,28.6234,9.18152,0,0,0,0,0,0,0,-1,1931,1401,28.6234,-9.18151
714,-377,16.5369,5.45959,0,0,0,0,0,0,0,-1,1938,1401,16.5369,-5.4596
721,-377,17.0913,5.42529,0,0,0,0,0,0,0,-1,1945,1401,17.0914,-5.42529
728,-377,14.5396,2.79724,0,0,0,0,0,0,0,-1,1952,1401,14.5396,-2.7972
735,-377,23.2977,-0.991089,0,0,0,0,0,0,0,-1,1959,1401,23.2978,0.991076
742,-377,0,0,0,0,0,0,0,0,0,-1,1966,1401,0,0
749,-377,0,0,0,0,0,0,0,0,0,-1,1973,1401,0,0
756,-377,0,0,0,0,0,0,0,0,0,-1,1980,1401,0,0
763,-377,0,0,0,0,0,0,0,0,0,-1,1987,1401,0,0
770,-377,0,0,0,0,0,0,0,0,0,-1,1994,1401,0,0
777,-377,0,0,0,0,0,0,0,0,0,-1,2001,1401,0,0
784,-377,0,0,0,0,0,0,0,0,0,-1,2008,1401,0,0
791,-377,0,0,0,0,0,0,0,0,0,-1,2015,1401,0,0
798,-377,0,0,0,0,0,0,0,0,0,-1,2022,1401,0,0
805,-377,0,0,0,0,0,0,0,0,0,-1,2029,1401,0,0
812,-377,0,0,0,0,0,0,0,0,0,-1,2036,1401,0,0
-700,-384,0,0,0,0,0,0,0,0,0,-1,524,1408,0,0
-693,-384,0,0,0,0,0,0,0,0,0,-1,531,1408,0,0
-686,-384,0,0,0,0,0,0,0,0,0,-1,538,1408,0,0
-679,-384,0,0,0,0,0,0,0,0,0,-1,545,1408,0,0
-672,-384,0,0,0,0,0,0,0,0,0,-1,552,1408,0,0
-665,-384,0,0,0,0,0,0,0,0,0,-1,559,1408,0,0
-658,-384,0,0,0,0,0,0,0,0,0,-1,566,1408,0,0
-651,-384,0,0,0,0,0,0,0,0,0,-1,573,1408,0,0
-644,-384,0,0,0,0,0,0,0,0,0,-1,580,1408,0,0
-637,-384,0,0,0,0,0,0,0,0,0,-1,587,1408,0,0
-630,-384,0,0,0,0,0,0,0,0,0,-1,594,1408,0,0
-623,-384,0,0,0,0,0,0,0,0,0,-1,601,1408,0,0
-616,-384,-10.019,-3.36646,0,0,0,0,0,0,0,-1,608,1408,-10.019,3.36648
-609,-384,-7.72357,-2.3418,0,0,0,0,0,0,0,-1,615,1408,-7.72358,2.34182
-602,-384,-11.7632,-2.85156,0,0,0,0,0,0,0,-1,622,1408,-11.7632,2.85157
-595,-384,-10.2217,2.8855,0,0,0,0,0,0,0,-1,629,1408,-10.2218,-2.88548
-588,-384,-12.1653,2.29041,0,0,0,0,0,0,0,-1,636,1408,-12.1654,-2.29038
-581,-384,-11.9297,3.60376,0,0,0,0,0,0,0,-1,643,1408,-11.9298,-3.6038
-574,-384,-11.8677,6.02722,0,0,0,0,0,0,0,-1,650,1408,-11.8677,-6.02722
-567,-384,-12.0743,7.04639,0,0,0,0,0,0,0,-1,657,1408,-12.0743,-7.04641
-560,-384,-15.5094,9.10962,0,0,0,0,0,0,0,-1,664,1408,-15.5094,-9.10959
-553,-384,-15.3165,9.82629,0.00437504,0.00109676,0.00183385,0.00519553,0.000276272,0.420702,0.00337537,0.0405829,671,1408,-15.3165,-9.82633
-546,-384,-15.275,10.4957,0.00343976,0.000789715,0.00156541,0.00416563,6.38391e-05,0.434187,0.00275606,0.0140725,678,1408,-15.275,-10.4957
-539,-384,-15.345,11.0651,0.00276872,0.000599442,0.0013817,0.00344065,-7.2488e-05,0.452633,0.00231831,0.0158505,685,1408,-15.345,-11.065
-532,-384,-15.3073,11.6635,0.00236755,0.000505283,0.00130994,0.00304357,-0.00017074,0.476423,0.00208829,0.0213011,692,1408,-15.3073,-11.6634
-525,-384,-15.3234,12.3221,0.00231868,0.000659107,0.00148124,0.00318672,-0.00020893,0.530078,0.00219744,0.0215385,699,1408,-15.3234,-12.3221
-518,-384,-15.4053,12.9329,0.00249181,0.000918471,0.00178371,0.00365462,-0.000244342,0.577714,0.00252181,0.0135372,706,1408,-15.4053,-12.9329
-511,-384,-15.4257,13.5537,0.00297584,0.00140422,0.00229542,0.00461623,-0.000236169,0.620481,0.00315916,0.0106662,713,1408,-15.4257,-13.5538
-504,-384,-15.4254,14.1945,0.00381456,0.00216469,0.00309757,0.00619516,-0.000215915,0.65526,0.00420393,0.0119164,720,1408,-15.4254,-14.1945
-497,-384,-15.4048,14.8298,0.00510876,0.00326557,0.00428908,0.00857414,-0.000199808,0.679573,0.00578385,0.0409537,727,1408,-15.4048,-14.8299
-490,-384,-15.2338,15.5569,0,0,0,0,0,0,0,-1,734,1408,-15.2338,-15.5569
-483,-384,-6.26471,7.61194,0,0,0,0,0,0,0,-1,741,1408,-6.26469,-7.61191
-476,-384,-6.02734,5.67761,0,0,0,0,0,0,0,-1,748,1408,-6.02736,-5.6776
-469,-384,-10.206,2.63721,0,0,0,0,0,0,0,-1,755,1408,-10.206,-2.6372
-462,-384,-9.04291,1.43542,0,0,0,0,0,0,0,-1,762,1408,-9.04293,-1.43545
-455,-384,-7.87988,0.233765,0,0,0,0,0,0,0,-1,769,1408,-7.87986,-0.233709
-448,-384,-9.35529,7.19226,0,0,0,0,0,0,0,-1,776,1408,-9.35531,-7.19226
-441,-384,-10.4697,1.79004,0,0,0,0,0,0,0,-1,783,1408,-10.4697,-1.79003
-434,-384,-10.6449,0.552246,0,0,0,0,0,0,0,-1,790,1408,-10.6449,-0.552216
-427,-384,-10.968,1.10583,0,0,0,0,0,0,0,-1,797,1408,-10.968,-1.10588
-420,-384,-12.5607,4.54858,0,0,0,0,0,0,0,-1,804,1408,-12.5607,-4.54859
-413,-384,0,0,0,0,0,0,0,0,0,-1,811,1408,0,0
-406,-384,0,0,0,0,0,0,0,0,0,-1,818,1408,0,0
-399,-384,0,0,0,0,0,0,0,0,0,-1,825,1408,0,0
-392,-384,0,0,0,0,0,0,0,0,0,-1,832,1408,0,0
-385,-384,0,0,0,0,0,0,0,0,0,-1,839,1408,0,0
-378,-384,0,0,0,0,0,0,0,0,0,-1,846,1408,0,0
-371,-384,0,0,0,0,0,0,0,0,0,-1,853,1408,0,0
-364,-384,0,0,0,0,0,0,0,0,0,-1,860,1408,0,0
-357,-384,0,0,0,0,0,0,0,0,0,-1,867,1408,0,0
-350,-384,0,0,0,0,0,0,0,0,0,-1,874,1408,0,0
-343,-384,0,0,0,0,0,0,0,0,0,-1,881,1408,0,0
-336,-384,0,0,0,0,0,0,0,0,0,-1,888,1408,0,0
-329,-384,0,0,0,0,0,0,0,0,0,-1,895,1408,0,0
-322,-384,0,0,0,0,0,0,0,0,0,-1,902,1408,0,0
-315,-384,0,0,0,0,0,0,0,0,0,-1,909,1408,0,0
-308,-384,0,0,0,0,0,0,0,0,0,-1,916,1408,0,0
-301,-384,0,0,0,0,0,0,0,0,0,-1,923,1408,0,0
-294,-384,0,0,0,0,0,0,0,0,0,-1,930,1408,0,0
-287,-384,0,0,0,0,0,0,0,0,0,-1,937,1408,0,0
-280,-384,0,0,0,0,0,0,0,0,0,-1,944,1408,0,0
-273,-384,0,0,0,0,0,0,0,0,0,-1,951,1408,0,0
-266,-384,0,0,0,0,0,0,0,0,0,-1,958,1408,0,0
-259,-384,0,0,0,0,0,0,0,0,0,-1,965,1408,0,0
-252,-384,0,0,0,0,0,0,0,0,0,-1,972,1408,0,0
-245,-384,0,0,0,0,0,0,0,0,0,-1,979,1408,0,0
-238,-384,0,0,0,0,0,0,0,0,0,-1,986,1408,0,0
-231,-384,0,0,0,0,0,0,0,0,0,-1,993,1408,0,0
-224,-384,0,0,0,0,0,0,0,0,0,-1,1000,1408,0,0
-217,-384,0,0,0,0,0,0,0,0,0,-1,1007,1408,0,0
-210,-384,0,0,0,0,0,0,0,0,0,-1,1014,1408,0,0
-203,-384,0,0,0,0,0,0,0,0,0,-1,1021,1408,0,0
-196,-384,0,0,0,0,0,0,0,0,0,-1,1028,1408,0,0
-189,-384,0,0,0,0,0,0,0,0,0,-1,1035,1408,0,0
-182,-384,0,0,0,0,0,0,0,0,0,-1,1042,1408,0,0
-175,-384,0,0,0,0,0,0,0,0,0,-1,1049,1408,0,0
-168,-384,0,0,0,0,0,0,0,0,0,-1,1056,1408,0,0
-161,-384,0,0,0,0,0,0,0,0,0,-1,1063,1408,0,0
-154,-384,0,0,0,0,0,0,0,0,0,-1,1070,1408,0,0
-147,-384,0,0,0,0,0,0,0,0,0,-1,1077,1408,0,0
-140,-384,0,0,0,0,0,0,0,0,0,-1,1084,1408,0,0
-133,-384,0,0,0,0,0,0,0,0,0,-1,1091,1408,0,0
-126,-384,0,0,0,0,0,0,0,0,0,-1,1098,1408,0,0
-119,-384,0,0,0,0,0,0,0,0,0,-1,1105,1408,0,0
-112,-384,0,0,0,0,0,0,0,0,0,-1,1112,1408,0,0
-105,-384,0,0,0,0,0,0,0,0,0,-1,1119,1408,0,0
-98,-384,0,0,0,0,0,0,0,0,0,-1,1126,1408,0,0
-91,-384,0,0,0,0,0,0,0,0,0,-1,1133,1408,0,0
-84,-384,0,0,0,0,0,0,0,0,0,-1,1140,1408,0,0
-77,-384,0,0,0,0,0,0,0,0,0,-1,1147,1408,0,0
-70,-384,0,0,0,0,0,0,0,0,0,-1,1154,1408,0,0
-63,-384,0,0,0,0,0,0,0,0,0,-1,1161,1408,0,0
-56,-384,0,0,0,0,0,0,0,0,0,-1,1168,1408,0,0
-49,-384,0,0,0,0,0,0,0,0,0,-1,1175,1408,0,0
-42,-384,0,0,0,0,0,0,0,0,0,-1,1182,1408,0,0
-35,-384,0,0,0,0,0,0,0,0,0,-1,1189,1408,0,0
-28,-384,0,0,0,0,0,0,0,0,0,-1,1196,1408,0,0
-21,-384,0,0,0,0,0,0,0,0,0,-1,1203,1408,0,0
-14,-384,0,0,0,0,0,0,0,0,0,-1,1210,1408,0,0
-7,-384,0,0,0,0,0,0,0,0,0,-1,1217,1408,0,0
0,-384,0,0,0,0,0,0,0,0,0,-1,1224,1408,0,0
7,-384,0,0,0,0,0,0,0,0,0,-1,1231,1408,0,0
14,-384,0,0,0,0,0,0,0,0,0,-1,1238,1408,0,0
21,-384,0,0,0,0,0,0,0,0,0,-1,1245,1408,0,0
28,-384,0,0,0,0,0,0,0,0,0,-1,1252,1408,0,0
35,-384,0,0,0,0,0,0,0,0,0,-1,1259,1408,0,0
42,-384,0,0,0,0,0,0,0,0,0,-1,1266,1408,0,0
49,-384,0,0,0,0,0,0,0,0,0,-1,1273,1408,0,0
56,-384,0,0,0,0,0,0,0,0,0,-1,1280,1408,0,0
63,-384,0,0,0,0,0,0,0,0,0,-1,1287,1408,0,0
70,-384,0,0,0,0,0,0,0,0,0,-1,1294,1408,0,0
77,-384,0,0,0,0,0,0,0,0,0,-1,1301,1408,0,0
84,-384,0,0,0,0,0,0,0,0,0,-1,1308,1408,0,0
91,-384,0,0,0,0,0,0,0,0,0,-1,1315,1408,0,0
98,-384,0,0,0,0,0,0,0,0,0,-1,1322,1408,0,0
105,-384,0,0,0,0,0,0,0,0,0,-1,1329,1408,0,0
112,-384,0,0,0,0,0,0,0,0,0,-1,1336,1408,0,0
119,-384,0,0,0,0,0,0,0,0,0,-1,1343,1408,0,0
126,-384,0,0,0,0,0,0,0,0,0,-1,1350,1408,0,0
133,-384,0,0,0,0,0,0,0,0,0,-1,1357,1408,0,0
140,-384,0,0,0,0,0,0,0,0,0,-1,1364,1408,0,0
147,-384,0,0,0,0,0,0,0,0,0,-1,1371,1408,0,0
154,-384,0,0,0,0,0,0,0,0,0,-1,1378,1408,0,0
161,-384,0,0,0,0,0,0,0,0,0,-1,1385,1408,0,0
168,-384,0,0,0,0,0,0,0,0,0,-1,1392,1408,0,0
175,-384,0,0,0,0,0,0,0,0,0,-1,1399,1408,0,0
182,-384,0,0,0,0,0,0,0,0,0,-1,1406,1408,0,0
189,-384,0,0,0,0,0,0,0,0,0,-1,1413,1408,0,0
196,-384,0,0,0,0,0,0,0,0,0,-1,1420,1408,0,0
203,-384,0,0,0,0,0,0,0,0,0,-1,1427,1408,0,0
210,-384,0,0,0,0,0,0,0,0,0,-1,1434,1408,0,0
217,-384,0,0,0,0,0,0,0,0,0,-1,1441,1408,0,0
224,-384,0,0,0,0,0,0,0,0,0,-1,1448,1408,0,0
231,-384,0,0,0,0,0,0,0,0,0,-1,1455,1408,0,0
238,-384,0,0,0,0,0,0,0,0,0,-1,1462,1408,0,0
245,-384,0,0,0,0,0,0,0,0,0,-1,1469,1408,0,0
252,-384,0,0,0,0,0,0,0,0,0,-1,1476,1408,0,0
259,-384,0,0,0,0,0,0,0,0,0,-1,1483,1408,0,0
266,-384,0,0,0,0,0,0,0,0,0,-1,1490,1408,0,0
273,-384,0,0,0,0,0,0,0,0,0,-1,1497,1408,0,0
280,-384,0,0,0,0,0,0,0,0,0,-1,1504,1408,0,0
287,-384,0,0,0,0,0,0,0,0,0,-1,1511,1408,0,0
294,-384,0,0,0,0,0,0,0,0,0,-1,1518,1408,0,0
301,-384,0,0,0,0,0,0,0,0,0,-1,1525,1408,0,0
308,-384,0,0,0,0,0,0,0,0,0,-1,1532,1408,0,0
315,-384,0,0,0,0,0,0,0,0,0,-1,1539,1408,0,0
322,-384,0,0,0,0,0,0,0,0,0,-1,1546,1408,0,0
329,-384,0,0,0,0,0,0,0,0,0,-1,1553,1408,0,0
336,-384,0,0,0,0,0,0,0,0,0,-1,1560,1408,0,0
343,-384,0,0,0,0,0,0,0,0,0,-1,1567,1408,0,0
350,-384,0,0,0,0,0,0,0,0,0,-1,1574,1408,0,0
357,-384,0,0,0,0,0,0,0,0,0,-1,1581,1408,0,0
364,-384,0,0,0,0,0,0,0,0,0,-1,1588,1408,0,0
371,-384,0,0,0,0,0,0,0,0,0,-1,1595,1408,0,0
378,-384,0,0,0,0,0,0,0,0,0,-1,1602,1408,0,0
385,-384,0,0,0,0,0,0,0,0,0,-1,1609,1408,0,0
392,-384,0,0,0,0,0,0,0,0,0,-1,1616,1408,0,0
399,-384,0,0,0,0,0,0,0,0,0,-1,1623,1408,0,0
406,-384,0,0,0,0,0,0,0,0,0,-1,1630,1408,0,0
413,-384,0,0,0,0,0,0,0,0,0,-1,1637,1408,0,0
420,-384,0,0,0,0,0,0,0,0,0,-1,1644,1408,0,0
427,-384,0,0,0,0,0,0,0,0,0,-1,1651,1408,0,0
434,-384,0,0,0,0,0,0,0,0,0,-1,1658,1408,0,0
441,-384,0,0,0,0,0,0,0,0,0,-1,1665,1408,0,0
448,-384,0,0,0,0,0,0,0,0,0,-1,1672,1408,0,0
455,-384,0,0,0,0,0,0,0,0,0,-1,1679,1408,0,0
462,-384,0,0,0,0,0,0,0,0,0,-1,1686,1408,0,0
469,-384,0,0,0,0,0,0,0,0,0,-1,1693,1408,0,0
476,-384,0,0,0,0,0,0,0,0,0,-1,1700,1408,0,0
483,-384,0,0,0,0,0,0,0,0,0,-1,1707,1408,0,0
490,-384,0,0,0,0,0,0,0,0,0,-1,1714,1408,0,0
497,-384,0,0,0,0,0,0,0,0,0,-1,1721,1408,0,0
504,-384,0,0,0,0,0,0,0,0,0,-1,1728,1408,0,0
511,-384,0,0,0,0,0,0,0,0,0,-1,1735,1408,0,0
518,-384,0,0,0,0,0,0,0,0,0,-1,1742,1408,0,0
525,-384,0,0,0,0,0,0,0,0,0,-1,1749,1408,0,0
532,-384,0,0,0,0,0,0,0,0,0,-1,1756,1408,0,0
539,-384,27.6886,2.85803,0,0,0,0,0,0,0,-1,1763,1408,27.6886,-2.85807
546,-384,27.5044,2.9425,0,0,0,0,0,0,0,-1,1770,1408,27.5044,-2.94255
553,-384,27.3052,2.78394,0,0,0,0,0,0,0,-1,1777,1408,27.3051,-2.78394
560,-384,26.833,3.19812,0,0,0,0,0,0,0,-1,1784,1408,26.833,-3.19816
567,-384,38.2566,0.109985,0,0,0,0,0,0,0,-1,1791,1408,38.2566,-0.110044
574,-384,38.4003,2.05945,0,0,0,0,0,0,0,-1,1798,1408,38.4003,-2.05949
581,-384,25.819,3.91846,0,0,0,0,0,0,0,-1,1805,1408,25.8189,-3.91848
588,-384,23.3721,4.25439,0,0,0,0,0,0,0,-1,1812,1408,23.3721,-4.25442
595,-384,24.981,5.59595,0,0,0,0,0,0,0,-1,1819,1408,24.981,-5.59598
602,-384,20.6605,4.17261,0,0,0,0,0,0,0,-1,1826,1408,20.6606,-4.17265
609,-384,14.158,5.49475,0,0,0,0,0,0,0,-1,1833,1408,14.158,-5.49474
616,-384,14.7997,7.6908,0,0,0,0,0,0,0,-1,1840,1408,14.7996,-7.69079
623,-384,16.4293,9.58899,0,0,0,0,0,0,0,-1,1847,1408,16.4294,-9.58901
630,-384,31.1821,16.4669,0,0,0,0,0,0,0,-1,1854,1408,31.1822,-16.4669
637,-384,31.2404,15.8185,0.000613633,0.000963014,-0.00123481,0.00203543,-0.000458781,-0.855668,0.00153294,0.0229116,1861,1408,31.2403,-15.8185
644,-384,31.209,15.2571,0.000539893,0.000654793,-0.000868874,0.00146811,-0.000273428,-0.81841,0.00108147,0.0179779,1868,1408,31.209,-15.257
651,-384,31.1919,14.6571,0.000710256,0.000195259,-0.000407165,0.000934513,-2.89984e-05,-0.50344,0.000632896,0.0174997,1875,1408,31.1919,-14.6571
658,-384,31.176,14.0869,0.00104041,-0.000236426,1.09556e-05,0.0010405,-0.00023652,0.00857944,0.000784484,0.0170033,1882,1408,31.176,-14.0869
665,-384,31.1787,13.5421,0.00152453,-0.000684407,0.000396196,0.00159345,-0.000753319,0.172211,0.00138354,0.0184509,1889,1408,31.1788,-13.5422
672,-384,31.1532,12.9749,0.00214673,-0.00121029,0.000811641,0.00233267,-0.00139622,0.2252,0.00217539,0.0165769,1896,1408,31.1532,-12.9749
679,-384,31.1075,12.411,0.00292846,-0.00174427,0.00121481,0.00322541,-0.00204122,0.239743,0.00306621,0.0169213,1903,1408,31.1076,-12.411
686,-384,31.0745,11.8562,0.00379767,-0.00242182,0.00169789,0.004231,-0.00285514,0.249879,0.00411681,0.0136496,1910,1408,31.0744,-11.8563
693,-384,31.1376,11.3048,0.00496689,-0.00307543,0.0020897,0.00547746,-0.003586,0.239632,0.00527063,0.0261317,1917,1408,31.1376,-11.3049
700,-384,31.2418,10.7781,0,0,0,0,0,0,0,-1,1924,1408,31.2419,-10.7781
707,-384,17.0566,6.62842,0,0,0,0,0,0,0,-1,1931,1408,17.0567,-6.62848
714,-384,16.038,5.0282,0,0,0,0,0,0,0,-1,1938,1408,16.038,-5.02819
721,-384,13.8843,2.8717,0,0,0,0,0,0,0,-1,1945,1408,13.8843,-2.87171
728,-384,15.4409,6.25745,0,0,0,0,0,0,0,-1,1952,1408,15.4409,-6.2574
735,-384,16.7598,6.71289,0,0,0,0,0,0,0,-1,1959,1408,16.7598,-6.71287
742,-384,0,0,0,0,0,0,0,0,0,-1,1966,1408,0,0
749,-384,0,0,0,0,0,0,0,0,0,-1,1973,1408,0,0
756,-384,0,0,0,0,0,0,0,0,0,-1,1980,1408,0,0
763,-384,0,0,0,0,0,0,0,0,0,-1,1987,1408,0,0
770,-384,0,0,0,0,0,0,0,0,0,-1,1994,1408,0,0
777,-384,0,0,0,0,0,0,0,0,0,-1,2001,1408,0,0
784,-384,0,0,0,0,0,0,0,0,0,-1,2008,1408,0,0
791,-384,0,0,0,0,0,0,0,0,0,-1,2015,1408,0,0
798,-384,0,0,0,0,0,0,0,0,0,-1,2022,1408,0,0
805,-384,0,0,0,0,0,0,0,0,0,-1,2029,1408,0,0
812,-384,0,0,0,0,0,0,0,0,0,-1,2036,1408,0,0
-700,-391,0,0,0,0,0,0,0,0,0,-1,524,1415,0,0
-693,-391,0,0,0,0,0,0,0,0,0,-1,531,1415,0,0
-686,-391,0,0,0,0,0,0,0,0,0,-1,538,1415,0,0
-679,-391,0,0,0,0,0,0,0,0,0,-1,545,1415,0,0
-672,-391,0,0,0,0,0,0,0,0,0,-1,552,1415,0,0
-665,-391,0,0,0,0,0,0,0,0,0,-1,559,1415,0,0
-658,-391,0,0,0,0,0,0,0,0,0,-1,566,1415,0,0
-651,-391,0,0,0,0,0,0,0,0,0,-1,573,1415,0,0
-644,-391,0,0,0,0,0,0,0,0,0,-1,580,1415,0,0
-637,-391,0,0,0,0,0,0,0,0,0,-1,587,1415,0,0
-630,-391,0,0,0,0,0,0,0,0,0,-1,594,1415,0,0
-623,-391,0,0,0,0,0,0,0,0,0,-1,601,1415,0,0
-616,-391,0,0,0,0,0,0,0,0,0,-1,608,1415,0,0
-609,-391,-7.71753,-3.69763,0,0,0,0,0,0,0,-1,615,1415,-7.71751,3.69759
-602,-391,-13.9493,-4.12805,0,0,0,0,0,0,0,-1,622,1415,-13.9493,4.12803
-595,-391,-10.8315,1.76172,0,0,0,0,0,0,0,-1,629,1415,-10.8315,-1.76171
-588,-391,-10.265,2.16431,0,0,0,0,0,0,0,-1,636,1415,-10.265,-2.16431
-581,-391,-11.3325,2.44836,0,0,0,0,0,0,0,-1,643,1415,-11.3325,-2.44842
-574,-391,-11.1471,6.19983,0,0,0,0,0,0,0,-1,650,1415,-11.1471,-6.19981
-567,-391,-11.5172,6.82458,0,0,0,0,0,0,0,-1,657,1415,-11.5171,-6.82454
-560,-391,-11.2459,7.37195,0,0,0,0,0,0,0,-1,664,1415,-11.2459,-7.37191
-553,-391,-14.7387,9.84399,0,0,0,0,0,0,0,-1,671,1415,-14.7387,-9.84404
-546,-391,-14.6877,10.4817,0.00368277,0.00108708,0.00179523,0.00460016,0.000169694,0.47242,0.00301181,0.0161086,678,1415,-14.6878,-10.4817
-539,-391,-14.6656,11.1127,0.00289483,0.000787581,0.00149784,0.0036725,9.9059e-06,0.478887,0.00244504,0.0145339,685,1415,-14.6656,-11.1127
-532,-391,-14.6609,11.7307,0.00237193,0.000588171,0.00130185,0.00305811,-9.8007e-05,0.485075,0.00207218,0.0251713,692,1415,-14.6609,-11.7307
-525,-391,-14.7203,12.3766,0.00221977,0.000651864,0.0013638,0.00300888,-0.00013725,0.524545,0.0020532,0.0236567,699,1415,-14.7203,-12.3766
-518,-391,-14.8075,12.98,0.00231737,0.000873292,0.00159796,0.00334885,-0.000158183,0.573202,0.00228712,0.0150488,706,1415,-14.8075,-12.98
-511,-391,-14.7977,13.5848,0.00269448,0.00132733,0.00202634,0.00414944,-0.000127624,0.62272,0.0028098,0.0137536,713,1415,-14.7976,-13.5848
-504,-391,-14.808,14.2147,0.00339613,0.0020252,0.00272038,0.00551608,-9.47432e-05,0.66198,0.00370937,0.012301,720,1415,-14.808,-14.2147
-497,-391,-14.8322,14.819,0.00447715,0.0030436,0.00374847,0.00757676,-5.60116e-05,0.690929,0.00506995,0.0132523,727,1415,-14.8322,-14.819
-490,-391,-14.8196,15.4363,0,0,0,0,0,0,0,-1,734,1415,-14.8197,-15.4362
-483,-391,-11.1018,12.9382,0,0,0,0,0,0,0,-1,741,1415,-11.1018,-12.9382
-476,-391,-6.05731,6.85303,0,0,0,0,0,0,0,-1,748,1415,-6.05728,-6.85304
-469,-391,-3.88953,5.0979,0,0,0,0,0,0,0,-1,755,1415,-3.88955,-5.09794
-462,-391,-8.67688,2.03125,0,0,0,0,0,0,0,-1,762,1415,-8.67685,-2.03121
-455,-391,-8.65576,6.46997,0,0,0,0,0,0,0,-1,769,1415,-8.65579,-6.46999
-448,-391,-8.39618,4.38403,0,0,0,0,0,0,0,-1,776,1415,-8.39617,-4.38405
-441,-391,-9.77704,2.5946,0,0,0,0,0,0,0,-1,783,1415,-9.77702,-2.5946
-434,-391,-11.5403,2.12878,0,0,0,0,0,0,0,-1,790,1415,-11.5403,-2.12881
-427,-391,-10.5311,2.50403,0,0,0,0,0,0,0,-1,797,1415,-10.5311,-2.504
-420,-391,-14.7087,1.24365,0,0,0,0,0,0,0,-1,804,1415,-14.7088,-1.24365
-413,-391,0,0,0,0,0,0,0,0,0,-1,811,1415,0,0
-406,-391,0,0,0,0,0,0,0,0,0,-1,818,1415,0,0
-399,-391,0,0,0,0,0,0,0,0,0,-1,825,1415,0,0
-392,-391,0,0,0,0,0,0,0,0,0,-1,832,1415,0,0
-385,-391,0,0,0,0,0,0,0,0,0,-1,839,1415,0,0
-378,-391,0,0,0,0,0,0,0,0,0,-1,846,1415,0,0
-371,-391,0,0,0,0,0,0,0,0,0,-1,853,1415,0,0
-364,-391,0,0,0,0,0,0,0,0,0,-1,860,1415,0,0
-357,-391,0,0,0,0,0,0,0,0,0,-1,867,1415,0,0
-350,-391,0,0,0,0,0,0,0,0,0,-1,874,1415,0,0
-343,-391,0,0,0,0,0,0,0,0,0,-1,881,1415,0,0
-336,-391,0,0,0,0,0,0,0,0,0,-1,888,1415,0,0
-329,-391,0,0,0,0,0,0,0,0,0,-1,895,1415,0,0
-322,-391,0,0,0,0,0,0,0,0,0,-1,902,1415,0,0
-315,-391,0,0,0,0,0,0,0,0,0,-1,909,1415,0,0
-308,-391,0,0,0,0,0,0,0,0,0,-1,916,1415,0,0
-301,-391,0,0,0,0,0,0,0,0,0,-1,923,1415,0,0
-294,-391,0,0,0,0,0,0,0,0,0,-1,930,1415,0,0
-287,-391,0,0,0,0,0,0,0,0,0,-1,937,1415,0,0
-280,-391,0,0,0,0,0,0,0,0,0,-1,944,1415,0,0
-273,-391,0,0,0,0,0,0,0,0,0,-1,951,1415,0,0
-266,-391,0,0,0,0,0,0,0,0,0,-1,958,1415,0,0
-259,-391,0,0,0,0,0,0,0,0,0,-1,965,1415,0,0
-252,-391,0,0,0,0,0,0,0,0,0,-1,972,1415,0,0
-245,-391,0,0,0,0,0,0,0,0,0,-1,979,1415,0,0
-238,-391,0,0,0,0,0,0,0,0,0,-1,986,1415,0,0
-231,-391,0,0,0,0,0,0,0,0,0,-1,993,1415,0,0
-224,-391,0,0,0,0,0,0,0,0,0,-1,1000,1415,0,0
-217,-391,0,0,0,0,0,0,0,0,0,-1,1007,1415,0,0
-210,-391,0,0,0,0,0,0,0,0,0,-1,1014,1415,0,0
-203,-391,0,0,0,0,0,0,0,0,0,-1,1021,1415,0,0
-196,-391,0,0,0,0,0,0,0,0,0,-1,1028,1415,0,0
-189,-391,0,0,0,0,0,0,0,0,0,-1,1035,1415,0,0
-182,-391,0,0,0,0,0,0,0,0,0,-1,1042,1415,0,0
-175,-391,0,0,0,0,0,0,0,0,0,-1,1049,1415,0,0
-168,-391,0,0,0,0,0,0,0,0,0,-1,1056,1415,0,0
-161,-391,0,0,0,0,0,0,0,0,0,-1,1063,1415,0,0
-154,-391,0,0,0,0,0,0,0,0,0,-1,1070,1415,0,0
-147,-391,0,0,0,0,0,0,0,0,0,-1,1077,1415,0,0
-140,-391,0,0,0,0,0,0,0,0,0,-1,1084,1415,0,0
-133,-391,0,0,0,0,0,0,0,0,0,-1,1091,1415,0,0
-126,-391,0,0,0,0,0,0,0,0,0,-1,1098,1415,0,0
-119,-391,0,0,0,0,0,0,0,0,0,-1,1105,1415,0,0
-112,-391,0,0,0,0,0,0,0,0,0,-1,1112,1415,0,0
-105,-391,0,0,0,0,0,0,0,0,0,-1,1119,1415,0,0
-98,-391,0,0,0,0,0,0,0,0,0,-1,1126,1415,0,0
-91,-391,0,0,0,0,0,0,0,0,0,-1,1133,1415,0,0
-84,-391,0,0,0,0,0,0,0,0,0,-1,1140,1415,0,0
-77,-391,0,0,0,0,0,0,0,0,0,-1,1147,1415,0,0
-70,-391,0,0,0,0,0,0,0,0,0,-1,1154,1415,0,0
-63,-391,0,0,0,0,0,0,0,0,0,-1,1161,1415,0,0
-56,-391,0,0,0,0,0,0,0,0,0,-1,1168,1415,0,0
-49,-391,0,0,0,0,0,0,0,0,0,-1,1175,1415,0,0
-42,-391,0,0,0,0,0,0,0,0,0,-1,1182,1415,0,0
-35,-391,0,0,0,0,0,0,0,0,0,-1,1189,1415,0,0
-28,-391,0,0,0,0,0,0,0,0,0,-1,1196,1415,0,0
-21,-391,0,0,0,0,0,0,0,0,0,-1,1203,1415,0,0
-14,-391,0,0,0,0,0,0,0,0,0,-1,1210,1415,0,0
-7,-391,0,0,0,0,0,0,0,0,0,-1,1217,1415,0,0
0,-391,0,0,0,0,0,0,0,0,0,-1,1224,1415,0,0
7,-391,0,0,0,0,0,0,0,0,0,-1,1231,1415,0,0
14,-391,0,0,0,0,0,0,0,0,0,-1,1238,1415,0,0
21,-391,0,0,0,0,0,0,0,0,0,-1,1245,1415,0,0
28,-391,0,0,0,0,0,0,0,0,0,-1,1252,1415,0,0
35,-391,0,0,0,0,0,0,0,0,0,-1,1259,1415,0,0
42,-391,0,0,0,0,0,0,0,0,0,-1,1266,1415,0,0
49,-391,0,0,0,0,0,0,0,0,0,-1,1273,1415,0,0
56,-391,0,0,0,0,0,0,0,0,0,-1,1280,1415,0,0
63,-391,0,0,0,0,0,0,0,0,0,-1,1287,1415,0,0
70,-391,0,0,0,0,0,0,0,0,0,-1,1294,1415,0,0
77,-391,0,0,0,0,0,0,0,0,0,-1,1301,1415,0,0
84,-391,0,0,0,0,0,0,0,0,0,-1,1308,1415,0,0
91,-391,0,0,0,0,0,0,0,0,0,-1,1315,1415,0,0
98,-391,0,0,0,0,0,0,0,0,0,-1,1322,1415,0,0
105,-391,0,0,0,0,0,0,0,0,0,-1,1329,1415,0,0
112,-391,0,0,0,0,0,0,0,0,0,-1,1336,1415,0,0
119,-391,0,0,0,0,0,0,0,0,0,-1,1343,1415,0,0
126,-391,0,0,0,0,0,0,0,0,0,-1,1350,1415,0,0
133,-391,0,0,0,0,0,0,0,0,0,-1,1357,1415,0,0
140,-391,0,0,0,0,0,0,0,0,0,-1,1364,1415,0,0
147,-391,0,0,0,0,0,0,0,0,0,-1,1371,1415,0,0
154,-391,0,0,0,0,0,0,0,0,0,-1,1378,1415,0,0
161,-391,0,0,0,0,0,0,0,0,0,-1,1385,1415,0,0
168,-391,0,0,0,0,0,0,0,0,0,-1,1392,1415,0,0
175,-391,0,0,0,0,0,0,0,0,0,-1,1399,1415,0,0
182,-391,0,0,0,0,0,0,0,0,0,-1,1406,1415,0,0
189,-391,0,0,0,0,0,0,0,0,0,-1,1413,1415,0,0
196,-391,0,0,0,0,0,0,0,0,0,-1,1420,1415,0,0
203,-391,0,0,0,0,0,0,0,0,0,-1,1427,1415,0,0
210,-391,0,0,0,0,0,0,0,0,0,-1,1434,1415,0,0
217,-391,0,0,0,0,0,0,0,0,0,-1,1441,1415,0,0
224,-391,0,0,0,0,0,0,0,0,0,-1,1448,1415,0,0
231,-391,0,0,0,0,0,0,0,0,0,-1,1455,1415,0,0
238,-391,0,0,0,0,0,0,0,0,0,-1,1462,1415,0,0
245,-391,0,0,0,0,0,0,0,0,0,-1,1469,1415,0,0
252,-391,0,0,0,0,0,0,0,0,0,-1,1476,1415,0,0
259,-391,0,0,0,0,0,0,0,0,0,-1,1483,1415,0,0
266,-391,0,0,0,0,0,0,0,0,0,-1,1490,1415,0,0
273,-391,0,0,0,0,0,0,0,0,0,-1,1497,1415,0,0
280,-391,0,0,0,0,0,0,0,0,0,-1,1504,1415,0,0
287,-391,0,0,0,0,0,0,0,0,0,-1,1511,1415,0,0
294,-391,0,0,0,0,0,0,0,0,0,-1,1518,1415,0,0
301,-391,0,0,0,0,0,0,0,0,0,-1,1525,1415,0,0
308,-391,0,0,0,0,0,0,0,0,0,-1,1532,1415,0,0
315,-391,0,0,0,0,0,0,0,0,0,-1,1539,1415,0,0
322,-391,0,0,0,0,0,0,0,0,0,-1,1546,1415,0,0
329,-391,0,0,0,0,0,0,0,0,0,-1,1553,1415,0,0
336,-391,0,0,0,0,0,0,0,0,0,-1,1560,1415,0,0
343,-391,0,0,0,0,0,0,0,0,0,-1,1567,1415,0,0
350,-391,0,0,0,0,0,0,0,0,0,-1,1574,1415,0,0
357,-391,0,0,0,0,0,0,0,0,0,-1,1581,1415,0,0
364,-391,0,0,0,0,0,0,0,0,0,-1,1588,1415,0,0
371,-391,0,0,0,0,0,0,0,0,0,-1,1595,1415,0,0
378,-391,0,0,0,0,0,0,0,0,0,-1,1602,1415,0,0
385,-391,0,0,0,0,0,0,0,0,0,-1,1609,1415,0,0
392,-391,0,0,0,0,0,0,0,0,0,-1,1616,1415,0,0
399,-391,0,0,0,0,0,0,0,0,0,-1,1623,1415,0,0
406,-391,0,0,0,0,0,0,0,0,0,-1,1630,1415,0,0
413,-391,0,0,0,0,0,0,0,0,0,-1,1637,1415,0,0
420,-391,0,0,0,0,0,0,0,0,0,-1,1644,1415,0,0
427,-391,0,0,0,0,0,0,0,0,0,-1,1651,1415,0,0
434,-391,0,0,0,0,0,0,0,0,0,-1,1658,1415,0,0
441,-391,0,0,0,0,0,0,0,0,0,-1,1665,1415,0,0
448,-391,0,0,0,0,0,0,0,0,0,-1,1672,1415,0,0
455,-391,0,0,0,0,0,0,0,0,0,-1,1679,1415,0,0
462,-391,0,0,0,0,0,0,0,0,0,-1,1686,1415,0,0
469,-391,0,0,0,0,0,0,0,0,0,-1,1693,1415,0,0
476,-391,0,0,0,0,0,0,0,0,0,-1,1700,1415,0,0
483,-391,0,0,0,0,0,0,0,0,0,-1,1707,1415,0,0
490,-391,0,0,0,0,0,0,0,0,0,-1,1714,1415,0,0
497,-391,0,0,0,0,0,0,0,0,0,-1,1721,1415,0,0
504,-391,0,0,0,0,0,0,0,0,0,-1,1728,1415,0,0
511,-391,0,0,0,0,0,0,0,0,0,-1,1735,1415,0,0
518,-391,0,0,0,0,0,0,0,0,0,-1,1742,1415,0,0
525,-391,0,0,0,0,0,0,0,0,0,-1,1749,1415,0,0
532,-391,28.5959,3.02356,0,0,0,0,0,0,0,-1,1756,1415,28.596,-3.02358
539,-391,27.5881,3.25012,0,0,0,0,0,0,0,-1,1763,1415,27.5882,-3.25016
546,-391,27.2837,3.28064,0,0,0,0,0,0,0,-1,1770,1415,27.2837,-3.28064
553,-391,32.5952,5.04553,0,0,0,0,0,0,0,-1,1777,1415,32.5952,-5.04551
560,-391,31.2947,5.67017,0,0,0,0,0,0,0,-1,1784,1415,31.2947,-5.67011
567,-391,30.1473,6.17603,0,0,0,0,0,0,0,-1,1791,1415,30.1473,-6.17602
574,-391,27.5656,5.6842,0,0,0,0,0,0,0,-1,1798,1415,27.5655,-5.68422
581,-391,25.8883,5.76123,0,0,0,0,0,0,0,-1,1805,1415,25.8883,-5.76124
588,-391,24.2717,5.47986,0,0,0,0,0,0,0,-1,1812,1415,24.2717,-5.47982
595,-391,22.8827,6.1991,0,0,0,0,0,0,0,-1,1819,1415,22.8827,-6.19909
602,-391,15.1635,5.69849,0,0,0,0,0,0,0,-1,1826,1415,15.1635,-5.69847
609,-391,14.8285,7.50476,0,0,0,0,0,0,0,-1,1833,1415,14.8285,-7.50479
616,-391,20.7952,12.0503,0,0,0,0,0,0,0,-1,1840,1415,20.7952,-12.0503
623,-391,30.7012,16.88,0,0,0,0,0,0,0,-1,1847,1415,30.7011,-16.88
630,-391,30.8101,16.2952,0.000942794,0.00112244,-0.00142571,0.00246116,-0.000395922,-0.816858,0.00178742,0.0452911,1854,1415,30.8101,-16.2952
637,-391,30.6581,15.8142,0.000777541,0.000796147,-0.00101387,0.00180076,-0.000227069,-0.789986,0.00128291,0.0160389,1861,1415,30.6581,-15.8142
644,-391,30.6224,15.2446,0.000739657,0.000445548,-0.000650615,0.00125963,-7.44247e-05,-0.674254,0.000865629,0.017315,1868,1415,30.6225,-15.2446
651,-391,30.6025,14.7178,0.000930809,2.13599e-05,-0.000233289,0.00098716,-3.49911e-05,-0.23701,0.000670075,0.0188812,1875,1415,30.6025,-14.7178
658,-391,30.5955,14.1534,0.00125663,-0.00041251,0.000175055,0.00127479,-0.000430672,0.103379,0.00102406,0.0185679,1882,1415,30.5955,-14.1535
665,-391,30.6049,13.5779,0.00174147,-0.000906845,0.000591554,0.0018676,-0.00103297,0.210069,0.0016976,0.014715,1889,1415,30.6048,-13.5778
672,-391,30.5837,13.0056,0.00236615,-0.00150539,0.00107638,0.00264529,-0.00178453,0.253738,0.0025736,0.0121429,1896,1415,30.5838,-13.0056
679,-391,30.5428,12.4312,0.00313282,-0.00219301,0.00162336,0.00358863,-0.00264882,0.273731,0.00361479,0.0120459,1903,1415,30.5429,-12.4312
686,-391,30.5333,11.8611,0.003936,-0.00316166,0.00237029,0.00465477,-0.00388043,0.29443,0.00493456,0.0132225,1910,1415,30.5334,-11.861
693,-391,30.5449,11.5203,0.0050499,-0.00420436,0.00311567,0.0060011,-0.00515556,0.296307,0.00644747,0.034066,1917,1415,30.545,-11.5202
700,-391,30.6742,11.1566,0,0,0,0,0,0,0,-1,1924,1415,30.6742,-11.1566
707,-391,12.9524,5.96851,0,0,0,0,0,0,0,-1,1931,1415,12.9524,-5.96849
714,-391,15.6875,7.67896,0,0,0,0,0,0,0,-1,1938,1415,15.6875,-7.67893
721,-391,14.1808,8.08435,0,0,0,0,0,0,0,-1,1945,1415,14.1808,-8.08439
728,-391,13.8102,7.28174,0,0,0,0,0,0,0,-1,1952,1415,13.8102,-7.28174
735,-391,0,0,0,0,0,0,0,0,0,-1,1959,1415,0,0
742,-391,0,0,0,0,0,0,0,0,0,-1,1966,1415,0,0
749,-391,0,0,0,0,0,0,0,0,0,-1,1973,1415,0,0
756,-391,0,0,0,0,0,0,0,0,0,-1,1980,1415,0,0
763,-391,0,0,0,0,0,0,0,0,0,-1,1987,1415,0,0
770,-391,0,0,0,0,0,0,0,0,0,-1,1994,1415,0,0
777,-391,0,0,0,0,0,0,0,0,0,-1,2001,1415,0,0
784,-391,0,0,0,0,0,0,0,0,0,-1,2008,1415,0,0
791,-391,0,0,0,0,0,0,0,0,0,-1,2015,1415,0,0
798,-391,0,0,0,0,0,0,0,0,0,-1,2022,1415,0,0
805,-391,0,0,0,0,0,0,0,0,0,-1,2029,1415,0,0
812,-391,0,0,0,0,0,0,0,0,0,-1,2036,1415,0,0
-700,-398,0,0,0,0,0,0,0,0,0,-1,524,1422,0,0
-693,-398,0,0,0,0,0,0,0,0,0,-1,531,1422,0,0
-686,-398,0,0,0,0,0,0,0,0,0,-1,538,1422,0,0
-679,-398,0,0,0,0,0,0,0,0,0,-1,545,1422,0,0
-672,-398,0,0,0,0,0,0,0,0,0,-1,552,1422,0,0
-665,-398,0,0,0,0,0,0,0,0,0,-1,559,1422,0,0
-658,-398,0,0,0,0,0,0,0,0,0,-1,566,1422,0,0
-651,-398,0,0,0,0,0,0,0,0,0,-1,573,1422,0,0
-644,-398,0,0,0,0,0,0,0,0,0,-1,580,1422,0,0
-637,-398,0,0,0,0,0,0,0,0,0,-1,587,1422,0,0
-630,-398,0,0,0,0,0,0,0,0,0,-1,594,1422,0,0
-623,-398,0,0,0,0,0,0,0,0,0,-1,601,1422,0,0
-616,-398,0,0,0,0,0,0,0,0,0,-1,608,1422,0,0
-609,-398,-7.47125,-4.05322,0,0,0,0,0,0,0,-1,615,1422,-7.47128,4.05317
-602,-398,-4.58868,-2.77026,0,0,0,0,0,0,0,-1,622,1422,-4.58869,2.77023
-595,-398,-12.2224,-1.82007,0,0,0,0,0,0,0,-1,629,1422,-12.2224,1.82006
-588,-398,-10.6939,1.32336,0,0,0,0,0,0,0,-1,636,1422,-10.6939,-1.32337
-581,-398,-10.433,3.1123,0,0,0,0,0,0,0,-1,643,1422,-10.433,-3.11233
-574,-398,-10.4475,5.89807,0,0,0,0,0,0,0,-1,650,1422,-10.4475,-5.89802
-567,-398,-10.4904,6.80115,0,0,0,0,0,0,0,-1,657,1422,-10.4904,-6.80115
-560,-398,-10.5333,7.70435,0,0,0,0,0,0,0,-1,664,1422,-10.5333,-7.70429
-553,-398,-14.1677,9.73413,0,0,0,0,0,0,0,-1,671,1422,-14.1677,-9.73411
-546,-398,-14.1218,10.4841,0.00386251,0.00140962,0.00217014,0.00512879,0.000143342,0.5282,0.00337243,0.0281587,678,1422,-14.1217,-10.4841
-539,-398,-14.0451,11.1678,0.00297282,0.00100684,0.00174314,0.00399103,-1.13656e-05,0.528665,0.00266448,0.0130906,685,1422,-14.0451,-11.1679
-532,-398,-14.0802,11.7853,0.002322,0.000692308,0.00138951,0.00311796,-0.000103654,0.520208,0.00211404,0.0217731,692,1422,-14.0802,-11.7853
-525,-398,-14.144,12.4114,0.00205892,0.000643452,0.00130292,0.00283392,-0.000131545,0.536598,0.00193462,0.0203935,699,1422,-14.144,-12.4114
-518,-398,-14.1404,13.0067,0.0020994,0.000824013,0.00144415,0.00304038,-0.000116974,0.577488,0.00206702,0.0178323,706,1422,-14.1404,-13.0068
-511,-398,-14.1485,13.6027,0.00239086,0.00123462,0.00177342,0.00367802,-5.25325e-05,0.627833,0.00246971,0.0142033,713,1422,-14.1485,-13.6027
-504,-398,-14.1811,14.2377,0.00297225,0.00186323,0.00234179,0.00482428,1.11943e-05,0.669145,0.00321246,0.0143232,720,1422,-14.1811,-14.2377
-497,-398,-14.2131,14.8379,0.00388226,0.00279485,0.00320298,0.00658735,8.97604e-05,0.701325,0.00436195,0.0104719,727,1422,-14.2131,-14.8379
-490,-398,-14.2245,15.4524,0.00528042,0.00417108,0.00444982,0.00921001,0.000241498,0.723393,0.00606111,0.0189241,734,1422,-14.2245,-15.4524
-483,-398,-14.2149,16.0992,0,0,0,0,0,0,0,-1,741,1422,-14.2149,-16.0993
-476,-398,-8.64392,11.9448,0,0,0,0,0,0,0,-1,748,1422,-8.6439,-11.9448
-469,-398,-8.91699,10.6276,0,0,0,0,0,0,0,-1,755,1422,-8.91697,-10.6275
-462,-398,-9.59753,9.32532,0,0,0,0,0,0,0,-1,762,1422,-9.59753,-9.32531
-455,-398,-8.08331,6.75024,0,0,0,0,0,0,0,-1,769,1422,-8.08333,-6.75022
-448,-398,-7.4505,5.25293,0,0,0,0,0,0,0,-1,776,1422,-7.4505,-5.25291
-441,-398,-7.61639,3.32141,0,0,0,0,0,0,0,-1,783,1422,-7.61637,-3.32145
-434,-398,-10.7618,3.297,0,0,0,0,0,0,0,-1,790,1422,-10.7618,-3.29704
-427,-398,-11.9061,2.24939,0,0,0,0,0,0,0,-1,797,1422,-11.9061,-2.24941
-420,-398,-13.467,2.32788,0,0,0,0,0,0,0,-1,804,1422,-13.467,-2.32787
-413,-398,-14.7983,2.15515,0,0,0,0,0,0,0,-1,811,1422,-14.7983,-2.15516
-406,-398,0,0,0,0,0,0,0,0,0,-1,818,1422,0,0
-399,-398,0,0,0,0,0,0,0,0,0,-1,825,1422,0,0
-392,-398,0,0,0,0,0,0,0,0,0,-1,832,1422,0,0
-385,-398,0,0,0,0,0,0,0,0,0,-1,839,1422,0,0
-378,-398,0,0,0,0,0,0,0,0,0,-1,846,1422,0,0
-371,-398,0,0,0,0,0,0,0,0,0,-1,853,1422,0,0
-364,-398,0,0,0,0,0,0,0,0,0,-1,860,1422,0,0
-357,-398,0,0,0,0,0,0,0,0,0,-1,867,1422,0,0
-350,-398,0,0,0,0,0,0,0,0,0,-1,874,1422,0,0
-343,-398,0,0,0,0,0,0,0,0,0,-1,881,1422,0,0
-336,-398,0,0,0,0,0,0,0,0,0,-1,888,1422,0,0
-329,-398,0,0,0,0,0,0,0,0,0,-1,895,1422,0,0
-322,-398,0,0,0,0,0,0,0,0,0,-1,902,1422,0,0
-315,-398,0,0,0,0,0,0,0,0,0,-1,909,1422,0,0
-308,-398,0,0,0,0,0,0,0,0,0,-1,916,1422,0,0
-301,-398,0,0,0,0,0,0,0,0,0,-1,923,1422,0,0
-294,-398,0,0,0,0,0,0,0,0,0,-1,930,1422,0,0
-287,-398,0,0,0,0,0,0,0,0,0,-1,937,1422,0,0
-280,-398,0,0,0,0,0,0,0,0,0,-1,944,1422,0,0
-273,-398,0,0,0,0,0,0,0,0,0,-1,951,1422,0,0
-266,-398,0,0,0,0,0,0,0,0,0,-1,958,1422,0,0
-259,-398,0,0,0,0,0,0,0,0,0,-1,965,1422,0,0
-252,-398,0,0,0,0,0,0,0,0,0,-1,972,1422,0,0
-245,-398,0,0,0,0,0,0,0,0,0,-1,979,1422,0,0
-238,-398,0,0,0,0,0,0,0,0,0,-1,986,1422,0,0
-231,-398,0,0,0,0,0,0,0,0,0,-1,993,1422,0,0
-224,-398,0,0,0,0,0,0,0,0,0,-1,1000,1422,0,0
-217,-398,0,0,0,0,0,0,0,0,0,-1,1007,1422,0,0
-210,-398,0,0,0,0,0,0,0,0,0,-1,1014,1422,0,0
-203,-398,0,0,0,0,0,0,0,0,0,-1,1021,1422,0,0
-196,-398,0,0,0,0,0,0,0,0,0,-1,1028,1422,0,0
-189,-398,0,0,0,0,0,0,0,0,0,-1,1035,1422,0,0
-182,-398,0,0,0,0,0,0,0,0,0,-1,1042,1422,0,0
-175,-398,0,0,0,0,0,0,0,0,0,-1,1049,1422,0,0
-168,-398,0,0,0,0,0,0,0,0,0,-1,1056,1422,0,0
-161,-398,0,0,0,0,0,0,0,0,0,-1,1063,1422,0,0
-154,-398,0,0,0,0,0,0,0,0,0,-1,1070,1422,0,0
-147,-398,0,0,0,0,0,0,0,0,0,-1,1077,1422,0,0
-140,-398,0,0,0,0,0,0,0,0,0,-1,1084,1422,0,0
-133,-398,0,0,0,0,0,0,0,0,0,-1,1091,1422,0,0
-126,-398,0,0,0,0,0,0,0,0,0,-1,1098,1422,0,0
-119,-398,0,0,0,0,0,0,0,0,0,-1,1105,1422,0,0
-112,-398,0,0,0,0,0,0,0,0,0,-1,1112,1422,0,0
-105,-398,0,0,0,0,0,0,0,0,0,-1,1119,1422,0,0
-98,-398,0,0,0,0,0,0,0,0,0,-1,1126,1422,0,0
-91,-398,0,0,0,0,0,0,0,0,0,-1,1133,1422,0,0
-84,-398,0,0,0,0,0,0,0,0,0,-1,1140,1422,0,0
-77,-398,0,0,0,0,0,0,0,0,0,-1,1147,1422,0,0
-70,-398,0,0,0,0,0,0,0,0,0,-1,1154,1422,0,0
-63,-398,0,0,0,0,0,0,0,0,0,-1,1161,1422,0,0
-56,-398,0,0,0,0,0,0,0,0,0,-1,1168,1422,0,0
-49,-398,0,0,0,0,0,0,0,0,0,-1,1175,1422,0,0
-42,-398,0,0,0,0,0,0,0,0,0,-1,1182,1422,0,0
-35,-398,0,0,0,0,0,0,0,0,0,-1,1189,1422,0,0
-28,-398,0,0,0,0,0,0,0,0,0,-1,1196,1422,0,0
-21,-398,0,0,0,0,0,0,0,0,0,-1,1203,1422,0,0
-14,-398,0,0,0,0,0,0,0,0,0,-1,1210,1422,0,0
-7,-398,0,0,0,0,0,0,0,0,0,-1,1217,1422,0,0
0,-398,0,0,0,0,0,0,0,0,0,-1,1224,1422,0,0
7,-398,0,0,0,0,0,0,0,0,0,-1,1231,1422,0,0
14,-398,0,0,0,0,0,0,0,0,0,-1,1238,1422,0,0
21,-398,0,0,0,0,0,0,0,0,0,-1,1245,1422,0,0
28,-398,0,0,0,0,0,0,0,0,0,-1,1252,1422,0,0
35,-398,0,0,0,0,0,0,0,0,0,-1,1259,1422,0,0
42,-398,0,0,0,0,0,0,0,0,0,-1,1266,1422,0,0
49,-398,0,0,0,0,0,0,0,0,0,-1,1273,1422,0,0
56,-398,0,0,0,0,0,0,0,0,0,-1,1280,1422,0,0
63,-398,0,0,0,0,0,0,0,0,0,-1,1287,1422,0,0
70,-398,0,0,0,0,0,0,0,0,0,-1,1294,1422,0,0
77,-398,0,0,0,0,0,0,0,0,0,-1,1301,1422,0,0
84,-398,0,0,0,0,0,0,0,0,0,-1,1308,1422,0,0
91,-398,0,0,0,0,0,0,0,0,0,-1,1315,1422,0,0
98,-398,0,0,0,0,0,0,0,0,0,-1,1322,1422,0,0
105,-398,0,0,0,0,0,0,0,0,0,-1,1329,1422,0,0
112,-398,0,0,0,0,0,0,0,0,0,-1,1336,1422,0,0
119,-398,0,0,0,0,0,0,0,0,0,-1,1343,1422,0,0
126,-398,0,0,0,0,0,0,0,0,0,-1,1350,1422,0,0
133,-398,0,0,0,0,0,0,0,0,0,-1,1357,1422,0,0
140,-398,0,0,0,0,0,0,0,0,0,-1,1364,1422,0,0
147,-398,0,0,0,0,0,0,0,0,0,-1,1371,1422,0,0
154,-398,0,0,0,0,0,0,0,0,0,-1,1378,1422,0,0
161,-398,0,0,0,0,0,0,0,0,0,-1,1385,1422,0,0
168,-398,0,0,0,0,0,0,0,0,0,-1,1392,1422,0,0
175,-398,0,0,0,0,0,0,0,0,0,-1,1399,1422,0,0
182,-398,0,0,0,0,0,0,0,0,0,-1,1406,1422,0,0
189,-398,0,0,0,0,0,0,0,0,0,-1,1413,1422,0,0
196,-398,0,0,0,0,0,0,0,0,0,-1,1420,1422,0,0
203,-398,0,0,0,0,0,0,0,0,0,-1,1427,1422,0,0
210,-398,0,0,0,0,0,0,0,0,0,-1,1434,1422,0,0
217,-398,0,0,0,0,0,0,0,0,0,-1,1441,1422,0,0
224,-398,0,0,0,0,0,0,0,0,0,-1,1448,1422,0,0
231,-398,0,0,0,0,0,0,0,0,0,-1,1455,1422,0,0
238,-398,0,0,0,0,0,0,0,0,0,-1,1462,1422,0,0
245,-398,0,0,0,0,0,0,0,0,0,-1,1469,1422,0,0
252,-398,0,0,0,0,0,0,0,0,0,-1,1476,1422,0,0
259,-398,0,0,0,0,0,0,0,0,0,-1,1483,1422,0,0
266,-398,0,0,0,0,0,0,0,0,0,-1,1490,1422,0,0
273,-398,0,0,0,0,0,0,0,0,0,-1,1497,1422,0,0
280,-398,0,0,0,0,0,0,0,0,0,-1,1504,1422,0,0
287,-398,0,0,0,0,0,0,0,0,0,-1,1511,1422,0,0
294,-398,0,0,0,0,0,0,0,0,0,-1,1518,1422,0,0
301,-398,0,0,0,0,0,0,0,0,0,-1,1525,1422,0,0
308,-398,0,0,0,0,0,0,0,0,0,-1,1532,1422,0,0
315,-398,0,0,0,0,0,0,0,0,0,-1,1539,1422,0,0
322,-398,0,0,0,0,0,0,0,0,0,-1,1546,1422,0,0
329,-398,0,0,0,0,0,0,0,0,0,-1,1553,1422,0,0
336,-398,0,0,0,0,0,0,0,0,0,-1,1560,1422,0,0
343,-398,0,0,0,0,0,0,0,0,0,-1,1567,1422,0,0
350,-398,0,0,0,0,0,0,0,0,0,-1,1574,1422,0,0
357,-398,0,0,0,0,0,0,0,0,0,-1,1581,1422,0,0
364,-398,0,0,0,0,0,0,0,0,0,-1,1588,1422,0,0
371,-398,0,0,0,0,0,0,0,0,0,-1,1595,1422,0,0
378,-398,0,0,0,0,0,0,0,0,0,-1,1602,1422,0,0
385,-398,0,0,0,0,0,0,0,0,0,-1,1609,1422,0,0
392,-398,0,0,0,0,0,0,0,0,0,-1,1616,1422,0,0
399,-398,0,0,0,0,0,0,0,0,0,-1,1623,1422,0,0
406,-398,0,0,0,0,0,0,0,0,0,-1,1630,1422,0,0
413,-398,0,0,0,0,0,0,0,0,0,-1,1637,1422,0,0
420,-398,0,0,0,0,0,0,0,0,0,-1,1644,1422,0,0
427,-398,0,0,0,0,0,0,0,0,0,-1,1651,1422,0,0
434,-398,0,0,0,0,0,0,0,0,0,-1,1658,1422,0,0
441,-398,0,0,0,0,0,0,0,0,0,-1,1665,1422,0,0
448,-398,0,0,0,0,0,0,0,0,0,-1,1672,1422,0,0
455,-398,0,0,0,0,0,0,0,0,0,-1,1679,1422,0,0
462,-398,0,0,0,0,0,0,0,0,0,-1,1686,1422,0,0
469,-398,0,0,0,0,0,0,0,0,0,-1,1693,1422,0,0
476,-398,0,0,0,0,0,0,0,0,0,-1,1700,1422,0,0
483,-398,0,0,0,0,0,0,0,0,0,-1,1707,1422,0,0
490,-398,0,0,0,0,0,0,0,0,0,-1,1714,1422,0,0
497,-398,0,0,0,0,0,0,0,0,0,-1,1721,1422,0,0
504,-398,0,0,0,0,0,0,0,0,0,-1,1728,1422,0,0
511,-398,0,0,0,0,0,0,0,0,0,-1,1735,1422,0,0
518,-398,0,0,0,0,0,0,0,0,0,-1,1742,1422,0,0
525,-398,0,0,0,0,0,0,0,0,0,-1,1749,1422,0,0
532,-398,28.4558,3.84094,0,0,0,0,0,0,0,-1,1756,1422,28.4558,-3.8409
539,-398,27.0594,3.33887,0,0,0,0,0,0,0,-1,1763,1422,27.0595,-3.3389
546,-398,31.6873,5.58582,0,0,0,0,0,0,0,-1,1770,1422,31.6872,-5.58585
553,-398,30.4392,5.92383,0,0,0,0,0,0,0,-1,1777,1422,30.4392,-5.92386
560,-398,29.1621,6.30469,0,0,0,0,0,0,0,-1,1784,1422,29.1621,-6.30469
567,-398,27.8411,6.55029,0,0,0,0,0,0,0,-1,1791,1422,27.8411,-6.55033
574,-398,26.411,6.8916,0,0,0,0,0,0,0,-1,1798,1422,26.411,-6.8916
581,-398,24.75,7.11145,0,0,0,0,0,0,0,-1,1805,1422,24.7499,-7.11142
588,-398,23.1649,7.67969,0,0,0,0,0,0,0,-1,1812,1422,23.1649,-7.67975
595,-398,21.4253,7.86023,0,0,0,0,0,0,0,-1,1819,1422,21.4253,-7.86029
602,-398,19.6857,8.04077,0,0,0,0,0,0,0,-1,1826,1422,19.6856,-8.04083
609,-398,21.1835,13.2628,0,0,0,0,0,0,0,-1,1833,1422,21.1835,-13.2628
616,-398,29.6635,18.0775,0,0,0,0,0,0,0,-1,1840,1422,29.6634,-18.0775
623,-398,30.1831,16.9962,0,0,0,0,0,0,0,-1,1847,1422,30.1831,-16.9962
630,-398,30.1566,16.4144,0.00124622,0.00110218,-0.00138751,0.00256358,-0.000215183,-0.759469,0.00178511,0.01388,1854,1422,30.1566,-16.4144
637,-398,30.1063,15.8419,0.00100087,0.000629776,-0.000895359,0.00172971,-9.90602e-05,-0.683228,0.00118754,0.0132881,1861,1422,30.1064,-15.8419
644,-398,30.0219,15.2953,0.000999304,0.000235191,-0.000511103,0.00125536,-2.08698e-05,-0.464444,0.000843952,0.0199022,1868,1422,30.0218,-15.2953
651,-398,30.0375,14.7739,0.00123291,-0.000154591,-0.000137543,0.00124641,-0.000168095,-0.0978611,0.000892267,0.0300727,1875,1422,30.0374,-14.774
658,-398,30.0406,14.2189,0.00157522,-0.00057766,0.000256342,0.00160532,-0.000607762,0.116892,0.00132028,0.0253404,1882,1422,30.0407,-14.2189
665,-398,30.0281,13.6191,0.0020687,-0.00108675,0.000689553,0.00221281,-0.00123085,0.206018,0.00201496,0.0163992,1889,1422,30.028,-13.6191
672,-398,30.0157,13.0411,0.0026959,-0.00171221,0.00122576,0.00301382,-0.00203013,0.253773,0.00293053,0.0129413,1896,1422,30.0158,-13.0412
679,-398,29.9882,12.4652,0.00343443,-0.00250977,0.00190485,0.00399246,-0.00306781,0.28498,0.00408788,0.0118069,1903,1422,29.9882,-12.4652
686,-398,29.9739,11.8905,0.00413215,-0.0037354,0.00292308,0.00509929,-0.00470254,0.319526,0.00566064,0.0175129,1910,1422,29.9739,-11.8905
693,-398,29.9254,11.6495,0.00511693,-0.00513393,0.00404562,0.00652121,-0.0065382,0.334098,0.00753986,0.0449181,1917,1422,29.9254,-11.6495
700,-398,29.9537,11.4915,0,0,0,0,0,0,0,-1,1924,1422,29.9537,-11.4915
707,-398,10.9731,5.479,0,0,0,0,0,0,0,-1,1931,1422,10.9732,-5.47896
714,-398,11.7313,6.17346,0,0,0,0,0,0,0,-1,1938,1422,11.7313,-6.17348
721,-398,13.9371,8.05103,0,0,0,0,0,0,0,-1,1945,1422,13.9372,-8.05102
728,-398,14.786,7.0282,0,0,0,0,0,0,0,-1,1952,1422,14.786,-7.0282
735,-398,0,0,0,0,0,0,0,0,0,-1,1959,1422,0,0
742,-398,0,0,0,0,0,0,0,0,0,-1,1966,1422,0,0
749,-398,0,0,0,0,0,0,0,0,0,-1,1973,1422,0,0
756,-398,0,0,0,0,0,0,0,0,0,-1,1980,1422,0,0
763,-398,0,0,0,0,0,0,0,0,0,-1,1987,1422,0,0
770,-398,0,0,0,0,0,0,0,0,0,-1,1994,1422,0,0
777,-398,0,0,0,0,0,0,0,0,0,-1,2001,1422,0,0
784,-398,0,0,0,0,0,0,0,0,0,-1,2008,1422,0,0
791,-398,0,0,0,0,0,0,0,0,0,-1,2015,1422,0,0
798,-398,0,0,0,0,0,0,0,0,0,-1,2022,1422,0,0
805,-398,0,0,0,0,0,0,0,0,0,-1,2029,1422,0,0
812,-398,0,0,0,0,0,0,0,0,0,-1,2036,1422,0,0
-700,-405,0,0,0,0,0,0,0,0,0,-1,524,1429,0,0
-693,-405,0,0,0,0,0,0,0,0,0,-1,531,1429,0,0
-686,-405,0,0,0,0,0,0,0,0,0,-1,538,1429,0,0
-679,-405,0,0,0,0,0,0,0,0,0,-1,545,1429,0,0
-672,-405,0,0,0,0,0,0,0,0,0,-1,552,1429,0,0
-665,-405,0,0,0,0,0,0,0,0,0,-1,559,1429,0,0
-658,-405,0,0,0,0,0,0,0,0,0,-1,566,1429,0,0
-651,-405,0,0,0,0,0,0,0,0,0,-1,573,1429,0,0
-644,-405,0,0,0,0,0,0,0,0,0,-1,580,1429,0,0
-637,-405,0,0,0,0,0,0,0,0,0,-1,587,1429,0,0
-630,-405,0,0,0,0,0,0,0,0,0,-1,594,1429,0,0
-623,-405,0,0,0,0,0,0,0,0,0,-1,601,1429,0,0
-616,-405,0,0,0,0,0,0,0,0,0,-1,608,1429,0,0
-609,-405,0,0,0,0,0,0,0,0,0,-1,615,1429,0,0
-602,-405,-5.80988,-3.46594,0,0,0,0,0,0,0,-1,622,1429,-5.80987,3.46592
-595,-405,-9.35413,2.01477,0,0,0,0,0,0,0,-1,629,1429,-9.35411,-2.01476
-588,-405,-7.35693,0.507202,0,0,0,0,0,0,0,-1,636,1429,-7.35696,-0.507187
-581,-405,-10.1284,1.62927,0,0,0,0,0,0,0,-1,643,1429,-10.1284,-1.62922
-574,-405,-9.32074,3.05896,0,0,0,0,0,0,0,-1,650,1429,-9.32077,-3.0589
-567,-405,-9.68781,6.92163,0,0,0,0,0,0,0,-1,657,1429,-9.68782,-6.92166
-560,-405,-9.28674,7.20886,0,0,0,0,0,0,0,-1,664,1429,-9.28675,-7.20885
-553,-405,-13.4479,9.76941,0,0,0,0,0,0,0,-1,671,1429,-13.4479,-9.7694
-546,-405,-13.4634,10.4785,0.00419217,0.00189536,0.00274719,0.00602133,6.61993e-05,0.587423,0.00399234,0.0416799,678,1429,-13.4634,-10.4785
-539,-405,-13.4732,11.1602,0.00320694,0.00141095,0.00218409,0.00467043,-5.25496e-05,0.590357,0.00313129,0.0129743,685,1429,-13.4732,-11.1602
-532,-405,-13.4902,11.7797,0.00242236,0.000970777,0.00164391,0.00349357,-0.000100435,0.577516,0.00236324,0.0165592,692,1429,-13.4902,-11.7797
-525,-405,-13.5275,12.4174,0.00203652,0.000759352,0.00136577,0.00290562,-0.000109746,0.566716,0.00197468,0.015283,699,1429,-13.5275,-12.4173
-518,-405,-13.5269,13.0509,0.00201141,0.000868859,0.00139286,0.0029456,-6.53306e-05,0.590788,0.00198587,0.0154543,706,1429,-13.5269,-13.0508
-511,-405,-13.5511,13.6473,0.00220436,0.00118165,0.00159794,0.00337077,1.52432e-05,0.630542,0.00224212,0.0159556,713,1429,-13.5512,-13.6473
-504,-405,-13.5635,14.2532,0.00264808,0.00168541,0.00201109,0.00423463,9.88522e-05,0.667938,0.00279072,0.0176706,720,1429,-13.5635,-14.2532
-497,-405,-13.5844,14.8767,0.00335833,0.00246515,0.00267544,0.00562419,0.000199277,0.7027,0.00368483,0.0145308,727,1429,-13.5844,-14.8767
-490,-405,-13.6068,15.4805,0.00440752,0.00358188,0.00364839,0.00766637,0.000323024,0.729062,0.00500671,0.0122549,734,1429,-13.6068,-15.4805
-483,-405,-13.5513,16.1946,0.00572813,0.00507254,0.00495366,0.0103648,0.000435846,0.75236,0.00676928,0.0279853,741,1429,-13.5513,-16.1946
-476,-405,-13.236,17.1715,0,0,0,0,0,0,0,-1,748,1429,-13.236,-17.1715
-469,-405,-9.65692,12.8171,0,0,0,0,0,0,0,-1,755,1429,-9.65691,-12.8172
-462,-405,-9.14862,11.3597,0,0,0,0,0,0,0,-1,762,1429,-9.14865,-11.3597
-455,-405,-9.021,9.51111,0,0,0,0,0,0,0,-1,769,1429,-9.021,-9.51109
-448,-405,-8.4649,6.82813,0,0,0,0,0,0,0,-1,776,1429,-8.46492,-6.82817
-441,-405,-6.6712,4.23767,0,0,0,0,0,0,0,-1,783,1429,-6.67121,-4.23764
-434,-405,-9.62549,3.94189,0,0,0,0,0,0,0,-1,790,1429,-9.62546,-3.94191
-427,-405,-10.9764,3.73926,0,0,0,0,0,0,0,-1,797,1429,-10.9764,-3.73923
-420,-405,-12.1187,3.68506,0,0,0,0,0,0,0,-1,804,1429,-12.1187,-3.68512
-413,-405,-13.5353,3.75659,0,0,0,0,0,0,0,-1,811,1429,-13.5353,-3.75655
-406,-405,-14.7374,3.99817,0,0,0,0,0,0,0,-1,818,1429,-14.7374,-3.99814
-399,-405,0,0,0,0,0,0,0,0,0,-1,825,1429,0,0
-392,-405,0,0,0,0,0,0,0,0,0,-1,832,1429,0,0
-385,-405,0,0,0,0,0,0,0,0,0,-1,839,1429,0,0
-378,-405,0,0,0,0,0,0,0,0,0,-1,846,1429,0,0
-371,-405,0,0,0,0,0,0,0,0,0,-1,853,1429,0,0
-364,-405,0,0,0,0,0,0,0,0,0,-1,860,1429,0,0
-357,-405,0,0,0,0,0,0,0,0,0,-1,867,1429,0,0
-350,-405,0,0,0,0,0,0,0,0,0,-1,874,1429,0,0
-343,-405,0,0,0,0,0,0,0,0,0,-1,881,1429,0,0
-336,-405,0,0,0,0,0,0,0,0,0,-1,888,1429,0,0
-329,-405,0,0,0,0,0,0,0,0,0,-1,895,1429,0,0
-322,-405,0,0,0,0,0,0,0,0,0,-1,902,1429,0,0
-315,-405,0,0,0,0,0,0,0,0,0,-1,909,1429,0,0
-308,-405,0,0,0,0,0,0,0,0,0,-1,916,1429,0,0
-301,-405,0,0,0,0,0,0,0,0,0,-1,923,1429,0,0
-294,-405,0,0,0,0,0,0,0,0,0,-1,930,1429,0,0
-287,-405,0,0,0,0,0,0,0,0,0,-1,937,1429,0,0
-280,-405,0,0,0,0,0,0,0,0,0,-1,944,1429,0,0
-273,-405,0,0,0,0,0,0,0,0,0,-1,951,1429,0,0
-266,-405,0,0,0,0,0,0,0,0,0,-1,958,1429,0,0
-259,-405,0,0,0,0,0,0,0,0,0,-1,965,1429,0,0
-252,-405,0,0,0,0,0,0,0,0,0,-1,972,1429,0,0
-245,-405,0,0,0,0,0,0,0,0,0,-1,979,1429,0,0
-238,-405,0,0,0,0,0,0,0,0,0,-1,986,1429,0,0
-231,-405,0,0,0,0,0,0,0,0,0,-1,993,1429,0,0
-224,-405,0,0,0,0,0,0,0,0,0,-1,1000,1429,0,0
-217,-405,0,0,0,0,0,0,0,0,0,-1,1007,1429,0,0
-210,-405,0,0,0,0,0,0,0,0,0,-1,1014,1429,0,0
-203,-405,0,0,0,0,0,0,0,0,0,-1,1021,1429,0,0
-196,-405,0,0,0,0,0,0,0,0,0,-1,1028,1429,0,0
-189,-405,0,0,0,0,0,0,0,0,0,-1,1035,1429,0,0
-182,-405,0,0,0,0,0,0,0,0,0,-1,1042,1429,0,0
-175,-405,0,0,0,0,0,0,0,0,0,-1,1049,1429,0,0
-168,-405,0,0,0,0,0,0,0,0,0,-1,1056,1429,0,0
-161,-405,0,0,0,0,0,0,0,0,0,-1,1063,1429,0,0
-154,-405,0,0,0,0,0,0,0,0,0,-1,1070,1429,0,0
-147,-405,0,0,0,0,0,0,0,0,0,-1,1077,1429,0,0
-140,-405,0,0,0,0,0,0,0,0,0,-1,1084,1429,0,0
-133,-405,0,0,0,0,0,0,0,0,0,-1,1091,1429,0,0
-126,-405,0,0,0,0,0,0,0,0,0,-1,1098,1429,0,0
-119,-405,0,0,0,0,0,0,0,0,0,-1,1105,1429,0,0
-112,-405,0,0,0,0,0,0,0,0,0,-1,1112,1429,0,0
-105,-405,0,0,0,0,0,0,0,0,0,-1,1119,1429,0,0
-98,-405,0,0,0,0,0,0,0,0,0,-1,1126,1429,0,0
-91,-405,0,0,0,0,0,0,0,0,0,-1,1133,1429,0,0
-84,-405,0,0,0,0,0,0,0,0,0,-1,1140,1429,0,0
-77,-405,0,0,0,0,0,0,0,0,0,-1,1147,1429,0,0
-70,-405,0,0,0,0,0,0,0,0,0,-1,1154,1429,0,0
-63,-405,0,0,0,0,0,0,0,0,0,-1,1161,1429,0,0
-56,-405,0,0,0,0,0,0,0,0,0,-1,1168,1429,0,0
-49,-405,0,0,0,0,0,0,0,0,0,-1,1175,1429,0,0
-42,-405,0,0,0,0,0,0,0,0,0,-1,1182,1429,0,0
-35,-405,0,0,0,0,0,0,0,0,0,-1,1189,1429,0,0
-28,-405,0,0,0,0,0,0,0,0,0,-1,1196,1429,0,0
-21,-405,0,0,0,0,0,0,0,0,0,-1,1203,1429,0,0
-14,-405,0,0,0,0,0,0,0,0,0,-1,1210,1429,0,0
-7,-405,0,0,0,0,0,0,0,0,0,-1,1217,1429,0,0
0,-405,0,0,0,0,0,0,0,0,0,-1,1224,1429,0,0
7,-405,0,0,0,0,0,0,0,0,0,-1,1231,1429,0,0
14,-405,0,0,0,0,0,0,0,0,0,-1,1238,1429,0,0
21,-405,0,0,0,0,0,0,0,0,0,-1,1245,1429,0,0
28,-405,0,0,0,0,0,0,0,0,0,-1,1252,1429,0,0
35,-405,0,0,0,0,0,0,0,0,0,-1,1259,1429,0,0
42,-405,0,0,0,0,0,0,0,0,0,-1,1266,1429,0,0
49,-405,0,0,0,0,0,0,0,0,0,-1,1273,1429,0,0
56,-405,0,0,0,0,0,0,0,0,0,-1,1280,1429,0,0
63,-405,0,0,0,0,0,0,0,0,0,-1,1287,1429,0,0
70,-405,0,0,0,0,0,0,0,0,0,-1,1294,1429,0,0
77,-405,0,0,0,0,0,0,0,0,0,-1,1301,1429,0,0
84,-405,0,0,0,0,0,0,0,0,0,-1,1308,1429,0,0
91,-405,0,0,0,0,0,0,0,0,0,-1,1315,1429,0,0
98,-405,0,0,0,0,0,0,0,0,0,-1,1322,1429,0,0
105,-405,0,0,0,0,0,0,0,0,0,-1,1329,1429,0,0
112,-405,0,0,0,0,0,0,0,0,0,-1,1336,1429,0,0
119,-405,0,0,0,0,0,0,0,0,0,-1,1343,1429,0,0
126,-405,0,0,0,0,0,0,0,0,0,-1,1350,1429,0,0
133,-405,0,0,0,0,0,0,0,0,0,-1,1357,1429,0,0
140,-405,0,0,0,0,0,0,0,0,0,-1,1364,1429,0,0
147,-405,0,0,0,0,0,0,0,0,0,-1,1371,1429,0,0
154,-405,0,0,0,0,0,0,0,0,0,-1,1378,1429,0,0
161,-405,0,0,0,0,0,0,0,0,0,-1,1385,1429,0,0
168,-405,0,0,0,0,0,0,0,0,0,-1,1392,1429,0,0
175,-405,0,0,0,0,0,0,0,0,0,-1,1399,1429,0,0
182,-405,0,0,0,0,0,0,0,0,0,-1,1406,1429,0,0
189,-405,0,0,0,0,0,0,0,0,0,-1,1413,1429,0,0
196,-405,0,0,0,0,0,0,0,0,0,-1,1420,1429,0,0
203,-405,0,0,0,0,0,0,0,0,0,-1,1427,1429,0,0
210,-405,0,0,0,0,0,0,0,0,0,-1,1434,1429,0,0
217,-405,0,0,0,0,0,0,0,0,0,-1,1441,1429,0,0
224,-405,0,0,0,0,0,0,0,0,0,-1,1448,1429,0,0
231,-405,0,0,0,0,0,0,0,0,0,-1,1455,1429,0,0
238,-405,0,0,0,0,0,0,0,0,0,-1,1462,1429,0,0
245,-405,0,0,0,0,0,0,0,0,0,-1,1469,1429,0,0
252,-405,0,0,0,0,0,0,0,0,0,-1,1476,1429,0,0
259,-405,0,0,0,0,0,0,0,0,0,-1,1483,1429,0,0
266,-405,0,0,0,0,0,0,0,0,0,-1,1490,1429,0,0
273,-405,0,0,0,0,0,0,0,0,0,-1,1497,1429,0,0
280,-405,0,0,0,0,0,0,0,0,0,-1,1504,1429,0,0
287,-405,0,0,0,0,0,0,0,0,0,-1,1511,1429,0,0
294,-405,0,0,0,0,0,0,0,0,0,-1,1518,1429,0,0
301,-405,0,0,0,0,0,0,0,0,0,-1,1525,1429,0,0
308,-405,0,0,0,0,0,0,0,0,0,-1,1532,1429,0,0
315,-405,0,0,0,0,0,0,0,0,0,-1,1539,1429,0,0
322,-405,0,0,0,0,0,0,0,0,0,-1,1546,1429,0,0
329,-405,0,0,0,0,0,0,0,0,0,-1,1553,1429,0,0
336,-405,0,0,0,0,0,0,0,0,0,-1,1560,1429,0,0
343,-405,0,0,0,0,0,0,0,0,0,-1,1567,1429,0,0
350,-405,0,0,0,0,0,0,0,0,0,-1,1574,1429,0,0
357,-405,0,0,0,0,0,0,0,0,0,-1,1581,1429,0,0
364,-405,0,0,0,0,0,0,0,0,0,-1,1588,1429,0,0
371,-405,0,0,0,0,0,0,0,0,0,-1,1595,1429,0,0
378,-405,0,0,0,0,0,0,0,0,0,-1,1602,1429,0,0
385,-405,0,0,0,0,0,0,0,0,0,-1,1609,1429,0,0
392,-405,0,0,0,0,0,0,0,0,0,-1,1616,1429,0,0
399,-405,0,0,0,0,0,0,0,0,0,-1,1623,1429,0,0
406,-405,0,0,0,0,0,0,0,0,0,-1,1630,1429,0,0
413,-405,0,0,0,0,0,0,0,0,0,-1,1637,1429,0,0
420,-405,0,0,0,0,0,0,0,0,0,-1,1644,1429,0,0
427,-405,0,0,0,0,0,0,0,0,0,-1,1651,1429,0,0
434,-405,0,0,0,0,0,0,0,0,0,-1,1658,1429,0,0
441,-405,0,0,0,0,0,0,0,0,0,-1,1665,1429,0,0
448,-405,0,0,0,0,0,0,0,0,0,-1,1672,1429,0,0
455,-405,0,0,0,0,0,0,0,0,0,-1,1679,1429,0,0
462,-405,0,0,0,0,0,0,0,0,0,-1,1686,1429,0,0
469,-405,0,0,0,0,0,0,0,0,0,-1,1693,1429,0,0
476,-405,0,0,0,0,0,0,0,0,0,-1,1700,1429,0,0
483,-405,0,0,0,0,0,0,0,0,0,-1,1707,1429,0,0
490,-405,0,0,0,0,0,0,0,0,0,-1,1714,1429,0,0
497,-405,0,0,0,0,0,0,0,0,0,-1,1721,1429,0,0
504,-405,0,0,0,0,0,0,0,0,0,-1,1728,1429,0,0
511,-405,0,0,0,0,0,0,0,0,0,-1,1735,1429,0,0
518,-405,0,0,0,0,0,0,0,0,0,-1,1742,1429,0,0
525,-405,31.1563,-1.40942,0,0,0,0,0,0,0,-1,1749,1429,31.1563,1.40937
532,-405,28.156,4.8783,0,0,0,0,0,0,0,-1,1756,1429,28.1561,-4.87833
539,-405,26.5133,3.02454,0,0,0,0,0,0,0,-1,1763,1429,26.5133,-3.0246
546,-405,29.5735,6.53052,0,0,0,0,0,0,0,-1,1770,1429,29.5735,-6.53049
553,-405,28.2911,6.70654,0,0,0,0,0,0,0,-1,1777,1429,28.2912,-6.70656
560,-405,26.9299,7.08472,0,0,0,0,0,0,0,-1,1784,1429,26.9299,-7.08469
567,-405,25.804,7.14661,0,0,0,0,0,0,0,-1,1791,1429,25.8039,-7.14665
574,-405,25.1151,8.07971,0,0,0,0,0,0,0,-1,1798,1429,25.1151,-8.07965
581,-405,23.5055,8.505,0,0,0,0,0,0,0,-1,1805,1429,23.5054,-8.50501
588,-405,21.7491,8.98254,0,0,0,0,0,0,0,-1,1812,1429,21.7491,-8.98254
595,-405,21.6327,10.7795,0,0,0,0,0,0,0,-1,1819,1429,21.6327,-10.7796
602,-405,21.6461,13.9199,0,0,0,0,0,0,0,-1,1826,1429,21.6461,-13.92
609,-405,29.0927,18.5352,0,0,0,0,0,0,0,-1,1833,1429,29.0926,-18.5352
616,-405,29.4609,17.7864,0.00312787,0.0031372,-0.00313587,0.00626841,-3.33251e-06,-0.786142,0.00418005,0.0491431,1840,1429,29.4609,-17.7864
623,-405,29.5364,17.0814,0.00213376,0.0018905,-0.00207482,0.00409052,-6.62557e-05,-0.756122,0.00274936,0.0141708,1847,1429,29.5363,-17.0815
630,-405,29.5389,16.4634,0.00159786,0.00110147,-0.00136559,0.00273762,-3.83024e-05,-0.695505,0.00183798,0.0106217,1854,1429,29.539,-16.4634
637,-405,29.5203,15.8804,0.00134818,0.000513276,-0.000854751,0.00188197,-2.05153e-05,-0.558239,0.00126154,0.0106441,1861,1429,29.5203,-15.8803
644,-405,29.459,15.3545,0.00137365,7.37227e-05,-0.000463367,0.00152191,-7.45375e-05,-0.309669,0.00104034,0.0280454,1868,1429,29.459,-15.3545
651,-405,29.4098,14.8264,0.00161615,-0.000301759,-0.00012397,0.00162413,-0.000309739,-0.0642816,0.00119941,0.0343927,1875,1429,29.4098,-14.8265
658,-405,29.4438,14.2361,0.00194571,-0.000721289,0.00025861,0.00197055,-0.000746134,0.0957778,0.00162071,0.0255211,1882,1429,29.4438,-14.2361
665,-405,29.4382,13.6267,0.00241687,-0.00124548,0.000710014,0.0025497,-0.00137831,0.184945,0.00230121,0.0194539,1889,1429,29.4382,-13.6267
672,-405,29.4398,13.0593,0.0030105,-0.00187635,0.00128935,0.00332982,-0.00219567,0.242773,0.00321246,0.0226939,1896,1429,29.4398,-13.0593
679,-405,29.4983,12.5217,0.0036713,-0.00277359,0.00210373,0.00429721,-0.0033995,0.289183,0.00445376,0.0236416,1903,1429,29.4983,-12.5217
686,-405,29.3914,12.0842,0.00418032,-0.00427112,0.00343157,0.00539816,-0.00548896,0.341028,0.00628575,0.0395565,1910,1429,29.3913,-12.0843
693,-405,29.3364,11.7648,0,0,0,0,0,0,0,-1,1917,1429,29.3365,-11.7648
700,-405,9.1958,4.02026,0,0,0,0,0,0,0,-1,1924,1429,9.19579,-4.02025
707,-405,7.40308,3.83191,0,0,0,0,0,0,0,-1,1931,1429,7.40311,-3.83194
714,-405,7.33252,3.47388,0,0,0,0,0,0,0,-1,1938,1429,7.33255,-3.47383
721,-405,9.23523,0.993896,0,0,0,0,0,0,0,-1,1945,1429,9.23523,-0.993884
728,-405,0,0,0,0,0,0,0,0,0,-1,1952,1429,0,0
735,-405,0,0,0,0,0,0,0,0,0,-1,1959,1429,0,0
742,-405,0,0,0,0,0,0,0,0,0,-1,1966,1429,0,0
749,-405,0,0,0,0,0,0,0,0,0,-1,1973,1429,0,0
756,-405,0,0,0,0,0,0,0,0,0,-1,1980,1429,0,0
763,-405,0,0,0,0,0,0,0,0,0,-1,1987,1429,0,0
770,-405,0,0,0,0,0,0,0,0,0,-1,1994,1429,0,0
777,-405,0,0,0,0,0,0,0,0,0,-1,2001,1429,0,0
784,-405,0,0,0,0,0,0,0,0,0,-1,2008,1429,0,0
791,-405,0,0,0,0,0,0,0,0,0,-1,2015,1429,0,0
798,-405,0,0,0,0,0,0,0,0,0,-1,2022,1429,0,0
805,-405,0,0,0,0,0,0,0,0,0,-1,2029,1429,0,0
812,-405,0,0,0,0,0,0,0,0,0,-1,2036,1429,0,0
-700,-412,0,0,0,0,0,0,0,0,0,-1,524,1436,0,0
-693,-412,0,0,0,0,0,0,0,0,0,-1,531,1436,0,0
-686,-412,0,0,0,0,0,0,0,0,0,-1,538,1436,0,0
-679,-412,0,0,0,0,0,0,0,0,0,-1,545,1436,0,0
-672,-412,0,0,0,0,0,0,0,0,0,-1,552,1436,0,0
-665,-412,0,0,0,0,0,0,0,0,0,-1,559,1436,0,0
-658,-412,0,0,0,0,0,0,0,0,0,-1,566,1436,0,0
-651,-412,0,0,0,0,0,0,0,0,0,-1,573,1436,0,0
-644,-412,0,0,0,0,0,0,0,0,0,-1,580,1436,0,0
-637,-412,0,0,0,0,0,0,0,0,0,-1,587,1436,0,0
-630,-412,0,0,0,0,0,0,0,0,0,-1,594,1436,0,0
-623,-412,0,0,0,0,0,0,0,0,0,-1,601,1436,0,0
-616,-412,0,0,0,0,0,0,0,0,0,-1,608,1436,0,0
-609,-412,0,0,0,0,0,0,0,0,0,-1,615,1436,0,0
-602,-412,-3.72766,-3.50012,0,0,0,0,0,0,0,-1,622,1436,-3.72764,3.50017
-595,-412,-10.3706,0.65564,0,0,0,0,0,0,0,-1,629,1436,-10.3706,-0.655672
-588,-412,-8.17957,1.94934,0,0,0,0,0,0,0,-1,636,1436,-8.17956,-1.94939
-581,-412,-6.60065,-0.0554199,0,0,0,0,0,0,0,-1,643,1436,-6.60063,0.0554733
-574,-412,-8.34131,5.25012,0,0,0,0,0,0,0,-1,650,1436,-8.34129,-5.25012
-567,-412,-7.50354,3.65454,0,0,0,0,0,0,0,-1,657,1436,-7.50356,-3.65452
-560,-412,-8.52448,7.39014,0,0,0,0,0,0,0,-1,664,1436,-8.52447,-7.39019
-553,-412,-7.36761,6.54651,0,0,0,0,0,0,0,-1,671,1436,-7.36763,-6.54654
-546,-412,-12.7986,10.5264,0,0,0,0,0,0,0,-1,678,1436,-12.7986,-10.5263
-539,-412,-12.8238,11.1418,0.00345108,0.00201806,0.00259578,0.00542743,4.17156e-05,0.650737,0.00360446,0.0240475,685,1436,-12.8238,-11.1418
-532,-412,-12.8718,11.8352,0.00255294,0.0013894,0.00190217,0.00396032,-1.79792e-05,0.636993,0.00264623,0.0148149,692,1436,-12.8718,-11.8351
-525,-412,-12.9186,12.4601,0.00204365,0.000951289,0.00144842,0.00304545,-5.05091e-05,0.605099,0.00204734,0.0156284,699,1436,-12.9186,-12.4601
-518,-412,-12.9316,13.0747,0.00196233,0.000958249,0.00139752,0.00294525,-2.46727e-05,0.612959,0.00197178,0.0161641,706,1436,-12.9316,-13.0747
-511,-412,-12.9625,13.6666,0.00206244,0.00115666,0.00150837,0.00318445,3.4655e-05,0.639555,0.00211151,0.0192604,713,1436,-12.9625,-13.6666
-504,-412,-12.9728,14.2982,0.00236209,0.00153357,0.00179463,0.00378965,0.000106004,0.671969,0.00249185,0.0192336,720,1436,-12.9728,-14.2982
-497,-412,-12.9964,14.9158,0.00288076,0.00215524,0.00229855,0.004845,0.000191007,0.707133,0.00316825,0.0152974,727,1436,-12.9964,-14.9158
-490,-412,-13.0175,15.5165,0.00365497,0.00306117,0.00307118,0.00644357,0.00027257,0.737212,0.0042078,0.0126638,734,1436,-13.0175,-15.5165
-483,-412,-13.0362,16.1108,0.00464298,0.00426114,0.00409694,0.00855345,0.000350674,0.762115,0.00558908,0.010271,741,1436,-13.0362,-16.1108
-476,-412,-12.8026,17.0491,0.00580556,0.00571448,0.00542087,0.0111811,0.00033896,0.781198,0.00734367,0.0490682,748,1436,-12.8026,-17.049
-469,-412,-12.6412,18.0142,0,0,0,0,0,0,0,-1,755,1436,-12.6413,-18.0142
-462,-412,-8.94659,13.3385,0,0,0,0,0,0,0,-1,762,1436,-8.94657,-13.3385
-455,-412,-8.25006,11.2572,0,0,0,0,0,0,0,-1,769,1436,-8.25007,-11.2572
-448,-412,-7.38086,8.78186,0,0,0,0,0,0,0,-1,776,1436,-7.38088,-8.78183
-441,-412,-8.79523,9.05286,0,0,0,0,0,0,0,-1,783,1436,-8.79521,-9.0529
-434,-412,-10.6305,8.03577,0,0,0,0,0,0,0,-1,790,1436,-10.6305,-8.0358
-427,-412,-10.0004,5.15271,0,0,0,0,0,0,0,-1,797,1436,-10.0004,-5.15266
-420,-412,-10.4468,4.9043,0,0,0,0,0,0,0,-1,804,1436,-10.4468,-4.90429
-413,-412,-11.5704,4.97766,0,0,0,0,0,0,0,-1,811,1436,-11.5704,-4.97771
-406,-412,-13.1968,5.70093,0,0,0,0,0,0,0,-1,818,1436,-13.1968,-5.70096
-399,-412,-10.5506,0.771973,0,0,0,0,0,0,0,-1,825,1436,-10.5506,-0.771954
-392,-412,0,0,0,0,0,0,0,0,0,-1,832,1436,0,0
-385,-412,0,0,0,0,0,0,0,0,0,-1,839,1436,0,0
-378,-412,0,0,0,0,0,0,0,0,0,-1,846,1436,0,0
-371,-412,0,0,0,0,0,0,0,0,0,-1,853,1436,0,0
-364,-412,0,0,0,0,0,0,0,0,0,-1,860,1436,0,0
-357,-412,0,0,0,0,0,0,0,0,0,-1,867,1436,0,0
-350,-412,0,0,0,0,0,0,0,0,0,-1,874,1436,0,0
-343,-412,0,0,0,0,0,0,0,0,0,-1,881,1436,0,0
-336,-412,0,0,0,0,0,0,0,0,0,-1,888,1436,0,0
-329,-412,0,0,0,0,0,0,0,0,0,-1,895,1436,0,0
-322,-412,0,0,0,0,0,0,0,0,0,-1,902,1436,0,0
-315,-412,0,0,0,0,0,0,0,0,0,-1,909,1436,0,0
-308,-412,0,0,0,0,0,0,0,0,0,-1,916,1436,0,0
-301,-412,0,0,0,0,0,0,0,0,0,-1,923,1436,0,0
-294,-412,0,0,0,0,0,0,0,0,0,-1,930,1436,0,0
-287,-412,0,0,0,0,0,0,0,0,0,-1,937,1436,0,0
-280,-412,0,0,0,0,0,0,0,0,0,-1,944,1436,0,0
-273,-412,0,0,0,0,0,0,0,0,0,-1,951,1436,0,0
-266,-412,0,0,0,0,0,0,0,0,0,-1,958,1436,0,0
-259,-412,0,0,0,0,0,0,0,0,0,-1,965,1436,0,0
-252,-412,0,0,0,0,0,0,0,0,0,-1,972,1436,0,0
-245,-412,0,0,0,0,0,0,0,0,0,-1,979,1436,0,0
-238,-412,0,0,0,0,0,0,0,0,0,-1,986,1436,0,0
-231,-412,0,0,0,0,0,0,0,0,0,-1,993,1436,0,0
-224,-412,0,0,0,0,0,0,0,0,0,-1,1000,1436,0,0
-217,-412,0,0,0,0,0,0,0,0,0,-1,1007,1436,0,0
-210,-412,0,0,0,0,0,0,0,0,0,-1,1014,1436,0,0
-203,-412,0,0,0,0,0,0,0,0,0,-1,1021,1436,0,0
-196,-412,0,0,0,0,0,0,0,0,0,-1,1028,1436,0,0
-189,-412,0,0,0,0,0,0,0,0,0,-1,1035,1436,0,0
-182,-412,0,0,0,0,0,0,0,0,0,-1,1042,1436,0,0
-175,-412,0,0,0,0,0,0,0,0,0,-1,1049,1436,0,0
-168,-412,0,0,0,0,0,0,0,0,0,-1,1056,1436,0,0
-161,-412,0,0,0,0,0,0,0,0,0,-1,1063,1436,0,0
-154,-412,0,0,0,0,0,0,0,0,0,-1,1070,1436,0,0
-147,-412,0,0,0,0,0,0,0,0,0,-1,1077,1436,0,0
-140,-412,0,0,0,0,0,0,0,0,0,-1,1084,1436,0,0
-133,-412,0,0,0,0,0,0,0,0,0,-1,1091,1436,0,0
-126,-412,0,0,0,0,0,0,0,0,0,-1,1098,1436,0,0
-119,-412,0,0,0,0,0,0,0,0,0,-1,1105,1436,0,0
-112,-412,0,0,0,0,0,0,0,0,0,-1,1112,1436,0,0
-105,-412,0,0,0,0,0,0,0,0,0,-1,1119,1436,0,0
-98,-412,0,0,0,0,0,0,0,0,0,-1,1126,1436,0,0
-91,-412,0,0,0,0,0,0,0,0,0,-1,1133,1436,0,0
-84,-412,0,0,0,0,0,0,0,0,0,-1,1140,1436,0,0
-77,-412,0,0,0,0,0,0,0,0,0,-1,1147,1436,0,0
-70,-412,0,0,0,0,0,0,0,0,0,-1,1154,1436,0,0
-63,-412,0,0,0,0,0,0,0,0,0,-1,1161,1436,0,0
-56,-412,0,0,0,0,0,0,0,0,0,-1,1168,1436,0,0
-49,-412,0,0,0,0,0,0,0,0,0,-1,1175,1436,0,0
-42,-412,0,0,0,0,0,0,0,0,0,-1,1182,1436,0,0
-35,-412,0,0,0,0,0,0,0,0,0,-1,1189,1436,0,0
-28,-412,0,0,0,0,0,0,0,0,0,-1,1196,1436,0,0
-21,-412,0,0,0,0,0,0,0,0,0,-1,1203,1436,0,0
-14,-412,0,0,0,0,0,0,0,0,0,-1,1210,1436,0,0
-7,-412,0,0,0,0,0,0,0,0,0,-1,1217,1436,0,0
0,-412,0,0,0,0,0,0,0,0,0,-1,1224,1436,0,0
7,-412,0,0,0,0,0,0,0,0,0,-1,1231,1436,0,0
14,-412,0,0,0,0,0,0,0,0,0,-1,1238,1436,0,0
21,-412,0,0,0,0,0,0,0,0,0,-1,1245,1436,0,0
28,-412,0,0,0,0,0,0,0,0,0,-1,1252,1436,0,0
35,-412,0,0,0,0,0,0,0,0,0,-1,1259,1436,0,0
42,-412,0,0,0,0,0,0,0,0,0,-1,1266,1436,0,0
49,-412,0,0,0,0,0,0,0,0,0,-1,1273,1436,0,0
56,-412,0,0,0,0,0,0,0,0,0,-1,1280,1436,0,0
63,-412,0,0,0,0,0,0,0,0,0,-1,1287,1436,0,0
70,-412,0,0,0,0,0,0,0,0,0,-1,1294,1436,0,0
77,-412,0,0,0,0,0,0,0,0,0,-1,1301,1436,0,0
84,-412,0,0,0,0,0,0,0,0,0,-1,1308,1436,0,0
91,-412,0,0,0,0,0,0,0,0,0,-1,1315,1436,0,0
98,-412,0,0,0,0,0,0,0,0,0,-1,1322,1436,0,0
105,-412,0,0,0,0,0,0,0,0,0,-1,1329,1436,0,0
112,-412,0,0,0,0,0,0,0,0,0,-1,1336,1436,0,0
119,-412,0,0,0,0,0,0,0,0,0,-1,1343,1436,0,0
126,-412,0,0,0,0,0,0,0,0,0,-1,1350,1436,0,0
133,-412,0,0,0,0,0,0,0,0,0,-1,1357,1436,0,0
140,-412,0,0,0,0,0,0,0,0,0,-1,1364,1436,0,0
147,-412,0,0,0,0,0,0,0,0,0,-1,1371,1436,0,0
154,-412,0,0,0,0,0,0,0,0,0,-1,1378,1436,0,0
161,-412,0,0,0,0,0,0,0,0,0,-1,1385,1436,0,0
168,-412,0,0,0,0,0,0,0,0,0,-1,1392,1436,0,0
175,-412,0,0,0,0,0,0,0,0,0,-1,1399,1436,0,0
182,-412,0,0,0,0,0,0,0,0,0,-1,1406,1436,0,0
189,-412,0,0,0,0,0,0,0,0,0,-1,1413,1436,0,0
196,-412,0,0,0,0,0,0,0,0,0,-1,1420,1436,0,0
203,-412,0,0,0,0,0,0,0,0,0,-1,1427,1436,0,0
210,-412,0,0,0,0,0,0,0,0,0,-1,1434,1436,0,0
217,-412,0,0,0,0,0,0,0,0,0,-1,1441,1436,0,0
224,-412,0,0,0,0,0,0,0,0,0,-1,1448,1436,0,0
231,-412,0,0,0,0,0,0,0,0,0,-1,1455,1436,0,0
238,-412,0,0,0,0,0,0,0,0,0,-1,1462,1436,0,0
245,-412,0,0,0,0,0,0,0,0,0,-1,1469,1436,0,0
252,-412,0,0,0,0,0,0,0,0,0,-1,1476,1436,0,0
259,-412,0,0,0,0,0,0,0,0,0,-1,1483,1436,0,0
266,-412,0,0,0,0,0,0,0,0,0,-1,1490,1436,0,0
273,-412,0,0,0,0,0,0,0,0,0,-1,1497,1436,0,0
280,-412,0,0,0,0,0,0,0,0,0,-1,1504,1436,0,0
287,-412,0,0,0,0,0,0,0,0,0,-1,1511,1436,0,0
294,-412,0,0,0,0,0,0,0,0,0,-1,1518,1436,0,0
301,-412,0,0,0,0,0,0,0,0,0,-1,1525,1436,0,0
308,-412,0,0,0,0,0,0,0,0,0,-1,1532,1436,0,0
315,-412,0,0,0,0,0,0,0,0,0,-1,1539,1436,0,0
322,-412,0,0,0,0,0,0,0,0,0,-1,1546,1436,0,0
329,-412,0,0,0,0,0,0,0,0,0,-1,1553,1436,0,0
336,-412,0,0,0,0,0,0,0,0,0,-1,1560,1436,0,0
343,-412,0,0,0,0,0,0,0,0,0,-1,1567,1436,0,0
350,-412,0,0,0,0,0,0,0,0,0,-1,1574,1436,0,0
357,-412,0,0,0,0,0,0,0,0,0,-1,1581,1436,0,0
364,-412,0,0,0,0,0,0,0,0,0,-1,1588,1436,0,0
371,-412,0,0,0,0,0,0,0,0,0,-1,1595,1436,0,0
378,-412,0,0,0,0,0,0,0,0,0,-1,1602,1436,0,0
385,-412,0,0,0,0,0,0,0,0,0,-1,1609,1436,0,0
392,-412,0,0,0,0,0,0,0,0,0,-1,1616,1436,0,0
399,-412,0,0,0,0,0,0,0,0,0,-1,1623,1436,0,0
406,-412,0,0,0,0,0,0,0,0,0,-1,1630,1436,0,0
413,-412,0,0,0,0,0,0,0,0,0,-1,1637,1436,0,0
420,-412,0,0,0,0,0,0,0,0,0,-1,1644,1436,0,0
427,-412,0,0,0,0,0,0,0,0,0,-1,1651,1436,0,0
434,-412,0,0,0,0,0,0,0,0,0,-1,1658,1436,0,0
441,-412,0,0,0,0,0,0,0,0,0,-1,1665,1436,0,0
448,-412,0,0,0,0,0,0,0,0,0,-1,1672,1436,0,0
455,-412,0,0,0,0,0,0,0,0,0,-1,1679,1436,0,0
462,-412,0,0,0,0,0,0,0,0,0,-1,1686,1436,0,0
469,-412,0,0,0,0,0,0,0,0,0,-1,1693,1436,0,0
476,-412,0,0,0,0,0,0,0,0,0,-1,1700,1436,0,0
483,-412,0,0,0,0,0,0,0,0,0,-1,1707,1436,0,0
490,-412,0,0,0,0,0,0,0,0,0,-1,1714,1436,0,0
497,-412,0,0,0,0,0,0,0,0,0,-1,1721,1436,0,0
504,-412,0,0,0,0,0,0,0,0,0,-1,1728,1436,0,0
511,-412,0,0,0,0,0,0,0,0,0,-1,1735,1436,0,0
518,-412,30.1038,-2.43384,0,0,0,0,0,0,0,-1,1742,1436,30.1038,2.43383
525,-412,29.5283,-1.42493,0,0,0,0,0,0,0,-1,1749,1436,29.5283,1.42495
532,-412,28.8533,-0.386597,0,0,0,0,0,0,0,-1,1756,1436,28.8533,0.386632
539,-412,25.8654,2.74683,0,0,0,0,0,0,0,-1,1763,1436,25.8654,-2.74685
546,-412,25.4265,2.4342,0,0,0,0,0,0,0,-1,1770,1436,25.4265,-2.4342
553,-412,26.3595,7.49255,0,0,0,0,0,0,0,-1,1777,1436,26.3595,-7.4925
560,-412,24.9116,7.94324,0,0,0,0,0,0,0,-1,1784,1436,24.9116,-7.94327
567,-412,23.668,7.94531,0,0,0,0,0,0,0,-1,1791,1436,23.6679,-7.94534
574,-412,23.0142,9.17236,0,0,0,0,0,0,0,-1,1798,1436,23.0141,-9.17235
581,-412,22.2615,10.0349,0,0,0,0,0,0,0,-1,1805,1436,22.2615,-10.0349
588,-412,21.6893,10.8069,0,0,0,0,0,0,0,-1,1812,1436,21.6893,-10.8069
595,-412,21.5137,14.3157,0,0,0,0,0,0,0,-1,1819,1436,21.5137,-14.3157
602,-412,28.95,18.8832,0,0,0,0,0,0,0,-1,1826,1436,28.9499,-18.8832
609,-412,28.9977,18.2097,0.00421014,0.00455853,-0.00423598,0.00862389,0.000144776,-0.805948,0.00570162,0.0399358,1833,1436,28.9976,-18.2097
616,-412,29.0078,17.6357,0.003039,0.0029032,-0.00288277,0.00585467,8.75383e-05,-0.773624,0.00387426,0.0124829,1840,1436,29.0078,-17.6357
623,-412,28.9681,17.0715,0.00224676,0.00181961,-0.00197438,0.00401909,4.72839e-05,-0.731522,0.00266377,0.00939183,1847,1436,28.9682,-17.0716
630,-412,28.9508,16.4792,0.00182335,0.00102493,-0.00132727,0.00281015,3.81268e-05,-0.639314,0.00186085,0.0117764,1854,1436,28.9508,-16.4792
637,-412,28.9508,15.8927,0.00160645,0.000388407,-0.000809995,0.00201084,-1.59817e-05,-0.463046,0.00134592,0.0134538,1861,1436,28.9509,-15.8927
644,-412,28.9487,15.3262,0.00168192,-6.79433e-05,-0.000419839,0.00177743,-0.00016346,-0.223701,0.00124303,0.014812,1868,1436,28.9487,-15.3262
651,-412,28.934,14.7168,0.00196286,-0.00042967,-0.000113264,0.00196821,-0.00043502,-0.0471999,0.00147864,0.025877,1875,1436,28.9339,-14.7168
658,-412,28.9078,14.1986,0.00233795,-0.000832967,0.000229034,0.00235441,-0.000849425,0.0717333,0.00191655,0.018157,1882,1436,28.9079,-14.1986
665,-412,28.8745,13.6278,0.00284617,-0.00135662,0.000665515,0.00294904,-0.00145949,0.153354,0.00259324,0.0230976,1889,1436,28.8745,-13.6278
672,-412,28.889,13.053,0.00347376,-0.00195126,0.00122801,0.00373879,-0.00221628,0.212557,0.00347542,0.0291531,1896,1436,28.8891,-13.053
679,-412,29.0073,12.547,0.00413166,-0.0029099,0.00210407,0.00471247,-0.00349071,0.269332,0.00475358,0.0454743,1903,1436,29.0074,-12.5469
686,-412,28.9366,12.2583,0,0,0,0,0,0,0,-1,1910,1436,28.9366,-12.2583
693,-412,11.9346,6.02344,0,0,0,0,0,0,0,-1,1917,1436,11.9346,-6.02343
700,-412,8.82764,5.8844,0,0,0,0,0,0,0,-1,1924,1436,8.82761,-5.88444
707,-412,6.59998,1.68994,0,0,0,0,0,0,0,-1,1931,1436,6.60002,-1.68995
714,-412,4.77283,-2.39832,0,0,0,0,0,0,0,-1,1938,1436,4.77288,2.39835
721,-412,0,0,0,0,0,0,0,0,0,-1,1945,1436,0,0
728,-412,0,0,0,0,0,0,0,0,0,-1,1952,1436,0,0
735,-412,0,0,0,0,0,0,0,0,0,-1,1959,1436,0,0
742,-412,0,0,0,0,0,0,0,0,0,-1,1966,1436,0,0
749,-412,0,0,0,0,0,0,0,0,0,-1,1973,1436,0,0
756,-412,0,0,0,0,0,0,0,0,0,-1,1980,1436,0,0
763,-412,0,0,0,0,0,0,0,0,0,-1,1987,1436,0,0
770,-412,0,0,0,0,0,0,0,0,0,-1,1994,1436,0,0
777,-412,0,0,0,0,0,0,0,0,0,-1,2001,1436,0,0
784,-412,0,0,0,0,0,0,0,0,0,-1,2008,1436,0,0
791,-412,0,0,0,0,0,0,0,0,0,-1,2015,1436,0,0
798,-412,0,0,0,0,0,0,0,0,0,-1,2022,1436,0,0
805,-412,0,0,0,0,0,0,0,0,0,-1,2029,1436,0,0
812,-412,0,0,0,0,0,0,0,0,0,-1,2036,1436,0,0
-700,-419,0,0,0,0,0,0,0,0,0,-1,524,1443,0,0
-693,-419,0,0,0,0,0,0,0,0,0,-1,531,1443,0,0
-686,-419,0,0,0,0,0,0,0,0,0,-1,538,1443,0,0
-679,-419,0,0,0,0,0,0,0,0,0,-1,545,1443,0,0
-672,-419,0,0,0,0,0,0,0,0,0,-1,552,1443,0,0
-665,-419,0,0,0,0,0,0,0,0,0,-1,559,1443,0,0
-658,-419,0,0,0,0,0,0,0,0,0,-1,566,1443,0,0
-651,-419,0,0,0,0,0,0,0,0,0,-1,573,1443,0,0
-644,-419,0,0,0,0,0,0,0,0,0,-1,580,1443,0,0
-637,-419,0,0,0,0,0,0,0,0,0,-1,587,1443,0,0
-630,-419,0,0,0,0,0,0,0,0,0,-1,594,1443,0,0
-623,-419,0,0,0,0,0,0,0,0,0,-1,601,1443,0,0
-616,-419,0,0,0,0,0,0,0,0,0,-1,608,1443,0,0
-609,-419,0,0,0,0,0,0,0,0,0,-1,615,1443,0,0
-602,-419,0,0,0,0,0,0,0,0,0,-1,622,1443,0,0
-595,-419,-11.4904,-0.622681,0,0,0,0,0,0,0,-1,629,1443,-11.4903,0.622714
-588,-419,-9.09369,0.742432,0,0,0,0,0,0,0,-1,636,1443,-9.09366,-0.742482
-581,-419,-6.39172,2.14673,0,0,0,0,0,0,0,-1,643,1443,-6.39175,-2.14668
-574,-419,-4.09772,3.54773,0,0,0,0,0,0,0,-1,650,1443,-4.09772,-3.54767
-567,-419,-6.14038,3.22498,0,0,0,0,0,0,0,-1,657,1443,-6.14037,-3.22497
-560,-419,-4.52814,5.22253,0,0,0,0,0,0,0,-1,664,1443,-4.52816,-5.22251
-553,-419,-5.08331,6.11829,0,0,0,0,0,0,0,-1,671,1443,-5.08331,-6.1183
-546,-419,-10.3732,9.23279,0,0,0,0,0,0,0,-1,678,1443,-10.3732,-9.23275
-539,-419,-12.189,11.1395,0,0,0,0,0,0,0,-1,685,1443,-12.189,-11.1396
-532,-419,-12.2659,11.8356,0.00261226,0.00180369,0.00227873,0.00452229,-0.000106334,0.697603,0.00305092,0.0235757,692,1443,-12.2659,-11.8356
-525,-419,-12.2752,12.4976,0.00191454,0.00108453,0.00158624,0.00313917,-0.000140095,0.657452,0.00214101,0.0134583,699,1443,-12.2752,-12.4976
-518,-419,-12.2898,13.1038,0.00176973,0.000986165,0.00143783,0.0028682,-0.000112304,0.652386,0.00195065,0.0177828,706,1443,-12.2898,-13.1038
-511,-419,-12.3103,13.7241,0.00179235,0.00106892,0.00143907,0.00291447,-5.32013e-05,0.662271,0.00196095,0.0202969,713,1443,-12.3103,-13.7241
-504,-419,-12.3564,14.3251,0.00198604,0.00133474,0.00159758,0.00329082,2.99541e-05,0.684857,0.00218397,0.0193746,720,1443,-12.3564,-14.325
-497,-419,-12.3966,14.9153,0.00237084,0.00181714,0.00194509,0.00405868,0.000129298,0.714706,0.00266374,0.0140398,727,1443,-12.3966,-14.9153
-490,-419,-12.4079,15.5134,0.00296208,0.00254245,0.00252378,0.00528475,0.00021977,0.743926,0.00345224,0.0116264,734,1443,-12.4079,-15.5134
-483,-419,-12.4169,16.1261,0.00374557,0.00352941,0.00330694,0.0069462,0.000328779,0.769063,0.00452519,0.00977837,741,1443,-12.4168,-16.126
-476,-419,-12.4039,16.8043,0.00467257,0.00473334,0.00430975,0.00901281,0.000393094,0.788923,0.00588189,0.0169611,748,1443,-12.4039,-16.8043
-469,-419,-12.3961,17.3842,0,0,0,0,0,0,0,-1,755,1443,-12.3961,-17.3842
-462,-419,-11.5347,18.1563,0,0,0,0,0,0,0,-1,762,1443,-11.5347,-18.1562
-455,-419,-7.35645,11.9451,0,0,0,0,0,0,0,-1,769,1443,-7.35646,-11.9451
-448,-419,-7.49109,9.92444,0,0,0,0,0,0,0,-1,776,1443,-7.49109,-9.92442
-441,-419,-7.65527,8.75574,0,0,0,0,0,0,0,-1,783,1443,-7.65525,-8.75568
-434,-419,-11.3724,12.3643,0,0,0,0,0,0,0,-1,790,1443,-11.3724,-12.3643
-427,-419,-8.23193,7.89404,0,0,0,0,0,0,0,-1,797,1443,-8.23193,-7.89404
-420,-419,-8.74091,6.36597,0,0,0,0,0,0,0,-1,804,1443,-8.74089,-6.366
-413,-419,-9.88391,6.53955,0,0,0,0,0,0,0,-1,811,1443,-9.8839,-6.53955
-406,-419,-10.3372,2.75195,0,0,0,0,0,0,0,-1,818,1443,-10.3372,-2.75201
-399,-419,-11.5999,1.40002,0,0,0,0,0,0,0,-1,825,1443,-11.5999,-1.39998
-392,-419,0,0,0,0,0,0,0,0,0,-1,832,1443,0,0
-385,-419,0,0,0,0,0,0,0,0,0,-1,839,1443,0,0
-378,-419,0,0,0,0,0,0,0,0,0,-1,846,1443,0,0
-371,-419,0,0,0,0,0,0,0,0,0,-1,853,1443,0,0
-364,-419,0,0,0,0,0,0,0,0,0,-1,860,1443,0,0
-357,-419,0,0,0,0,0,0,0,0,0,-1,867,1443,0,0
-350,-419,0,0,0,0,0,0,0,0,0,-1,874,1443,0,0
-343,-419,0,0,0,0,0,0,0,0,0,-1,881,1443,0,0
-336,-419,0,0,0,0,0,0,0,0,0,-1,888,1443,0,0
-329,-419,0,0,0,0,0,0,0,0,0,-1,895,1443,0,0
-322,-419,0,0,0,0,0,0,0,0,0,-1,902,1443,0,0
-315,-419,0,0,0,0,0,0,0,0,0,-1,909,1443,0,0
-308,-419,0,0,0,0,0,0,0,0,0,-1,916,1443,0,0
-301,-419,0,0,0,0,0,0,0,0,0,-1,923,1443,0,0
-294,-419,0,0,0,0,0,0,0,0,0,-1,930,1443,0,0
-287,-419,0,0,0,0,0,0,0,0,0,-1,937,1443,0,0
-280,-419,0,0,0,0,0,0,0,0,0,-1,944,1443,0,0
-273,-419,0,0,0,0,0,0,0,0,0,-1,951,1443,0,0
-266,-419,0,0,0,0,0,0,0,0,0,-1,958,1443,0,0
-259,-419,0,0,0,0,0,0,0,0,0,-1,965,1443,0,0
-252,-419,0,0,0,0,0,0,0,0,0,-1,972,1443,0,0
-245,-419,0,0,0,0,0,0,0,0,0,-1,979,1443,0,0
-238,-419,0,0,0,0,0,0,0,0,0,-1,986,1443,0,0
-231,-419,0,0,0,0,0,0,0,0,0,-1,993,1443,0,0
-224,-419,0,0,0,0,0,0,0,0,0,-1,1000,1443,0,0
-217,-419,0,0,0,0,0,0,0,0,0,-1,1007,1443,0,0
-210,-419,0,0,0,0,0,0,0,0,0,-1,1014,1443,0,0
-203,-419,0,0,0,0,0,0,0,0,0,-1,1021,1443,0,0
-196,-419,0,0,0,0,0,0,0,0,0,-1,1028,1443,0,0
-189,-419,0,0,0,0,0,0,0,0,0,-1,1035,1443,0,0
-182,-419,0,0,0,0,0,0,0,0,0,-1,1042,1443,0,0
-175,-419,0,0,0,0,0,0,0,0,0,-1,1049,1443,0,0
-168,-419,0,0,0,0,0,0,0,0,0,-1,1056,1443,0,0
-161,-419,0,0,0,0,0,0,0,0,0,-1,1063,1443,0,0
-154,-419,0,0,0,0,0,0,0,0,0,-1,1070,1443,0,0
-147,-419,0,0,0,0,0,0,0,0,0,-1,1077,1443,0,0
-140,-419,0,0,0,0,0,0,0,0,0,-1,1084,1443,0,0
-133,-419,0,0,0,0,0,0,0,0,0,-1,1091,1443,0,0
-126,-419,0,0,0,0,0,0,0,0,0,-1,1098,1443,0,0
-119,-419,0,0,0,0,0,0,0,0,0,-1,1105,1443,0,0
-112,-419,0,0,0,0,0,0,0,0,0,-1,1112,1443,0,0
-105,-419,0,0,0,0,0,0,0,0,0,-1,1119,1443,0,0
-98,-419,0,0,0,0,0,0,0,0,0,-1,1126,1443,0,0
-91,-419,0,0,0,0,0,0,0,0,0,-1,1133,1443,0,0
-84,-419,0,0,0,0,0,0,0,0,0,-1,1140,1443,0,0
-77,-419,0,0,0,0,0,0,0,0,0,-1,1147,1443,0,0
-70,-419,0,0,0,0,0,0,0,0,0,-1,1154,1443,0,0
-63,-419,0,0,0,0,0,0,0,0,0,-1,1161,1443,0,0
-56,-419,0,0,0,0,0,0,0,0,0,-1,1168,1443,0,0
-49,-419,0,0,0,0,0,0,0,0,0,-1,1175,1443,0,0
-42,-419,0,0,0,0,0,0,0,0,0,-1,1182,1443,0,0
-35,-419,0,0,0,0,0,0,0,0,0,-1,1189,1443,0,0
-28,-419,0,0,0,0,0,0,0,0,0,-1,1196,1443,0,0
-21,-419,0,0,0,0,0,0,0,0,0,-1,1203,1443,0,0
-14,-419,0,0,0,0,0,0,0,0,0,-1,1210,1443,0,0
-7,-419,0,0,0,0,0,0,0,0,0,-1,1217,1443,0,0
0,-419,0,0,0,0,0,0,0,0,0,-1,1224,1443,0,0
7,-419,0,0,0,0,0,0,0,0,0,-1,1231,1443,0,0
14,-419,0,0,0,0,0,0,0,0,0,-1,1238,1443,0,0
21,-419,0,0,0,0,0,0,0,0,0,-1,1245,1443,0,0
28,-419,0,0,0,0,0,0,0,0,0,-1,1252,1443,0,0
35,-419,0,0,0,0,0,0,0,0,0,-1,1259,1443,0,0
42,-419,0,0,0,0,0,0,0,0,0,-1,1266,1443,0,0
49,-419,0,0,0,0,0,0,0,0,0,-1,1273,1443,0,0
56,-419,0,0,0,0,0,0,0,0,0,-1,1280,1443,0,0
63,-419,0,0,0,0,0,0,0,0,0,-1,1287,1443,0,0
70,-419,0,0,0,0,0,0,0,0,0,-1,1294,1443,0,0
77,-419,0,0,0,0,0,0,0,0,0,-1,1301,1443,0,0
84,-419,0,0,0,0,0,0,0,0,0,-1,1308,1443,0,0
91,-419,0,0,0,0,0,0,0,0,0,-1,1315,1443,0,0
98,-419,0,0,0,0,0,0,0,0,0,-1,1322,1443,0,0
105,-419,0,0,0,0,0,0,0,0,0,-1,1329,1443,0,0
112,-419,0,0,0,0,0,0,0,0,0,-1,1336,1443,0,0
119,-419,0,0,0,0,0,0,0,0,0,-1,1343,1443,0,0
126,-419,0,0,0,0,0,0,0,0,0,-1,1350,1443,0,0
133,-419,0,0,0,0,0,0,0,0,0,-1,1357,1443,0,0
140,-419,0,0,0,0,0,0,0,0,0,-1,1364,1443,0,0
147,-419,0,0,0,0,0,0,0,0,0,-1,1371,1443,0,0
154,-419,0,0,0,0,0,0,0,0,0,-1,1378,1443,0,0
161,-419,0,0,0,0,0,0,0,0,0,-1,1385,1443,0,0
168,-419,0,0,0,0,0,0,0,0,0,-1,1392,1443,0,0
175,-419,0,0,0,0,0,0,0,0,0,-1,1399,1443,0,0
182,-419,0,0,0,0,0,0,0,0,0,-1,1406,1443,0,0
189,-419,0,0,0,0,0,0,0,0,0,-1,1413,1443,0,0
196,-419,0,0,0,0,0,0,0,0,0,-1,1420,1443,0,0
203,-419,0,0,0,0,0,0,0,0,0,-1,1427,1443,0,0
210,-419,0,0,0,0,0,0,0,0,0,-1,1434,1443,0,0
217,-419,0,0,0,0,0,0,0,0,0,-1,1441,1443,0,0
224,-419,0,0,0,0,0,0,0,0,0,-1,1448,1443,0,0
231,-419,0,0,0,0,0,0,0,0,0,-1,1455,1443,0,0
238,-419,0,0,0,0,0,0,0,0,0,-1,1462,1443,0,0
245,-419,0,0,0,0,0,0,0,0,0,-1,1469,1443,0,0
252,-419,0,0,0,0,0,0,0,0,0,-1,1476,1443,0,0
259,-419,0,0,0,0,0,0,0,0,0,-1,1483,1443,0,0
266,-419,0,0,0,0,0,0,0,0,0,-1,1490,1443,0,0
273,-419,0,0,0,0,0,0,0,0,0,-1,1497,1443,0,0
280,-419,0,0,0,0,0,0,0,0,0,-1,1504,1443,0,0
287,-419,0,0,0,0,0,0,0,0,0,-1,1511,1443,0,0
294,-419,0,0,0,0,0,0,0,0,0,-1,1518,1443,0,0
301,-419,0,0,0,0,0,0,0,0,0,-1,1525,1443,0,0
308,-419,0,0,0,0,0,0,0,0,0,-1,1532,1443,0,0
315,-419,0,0,0,0,0,0,0,0,0,-1,1539,1443,0,0
322,-419,0,0,0,0,0,0,0,0,0,-1,1546,1443,0,0
329,-419,0,0,0,0,0,0,0,0,0,-1,1553,1443,0,0
336,-419,0,0,0,0,0,0,0,0,0,-1,1560,1443,0,0
343,-419,0,0,0,0,0,0,0,0,0,-1,1567,1443,0,0
350,-419,0,0,0,0,0,0,0,0,0,-1,1574,1443,0,0
357,-419,0,0,0,0,0,0,0,0,0,-1,1581,1443,0,0
364,-419,0,0,0,0,0,0,0,0,0,-1,1588,1443,0,0
371,-419,0,0,0,0,0,0,0,0,0,-1,1595,1443,0,0
378,-419,0,0,0,0,0,0,0,0,0,-1,1602,1443,0,0
385,-419,0,0,0,0,0,0,0,0,0,-1,1609,1443,0,0
392,-419,0,0,0,0,0,0,0,0,0,-1,1616,1443,0,0
399,-419,0,0,0,0,0,0,0,0,0,-1,1623,1443,0,0
406,-419,0,0,0,0,0,0,0,0,0,-1,1630,1443,0,0
413,-419,0,0,0,0,0,0,0,0,0,-1,1637,1443,0,0
420,-419,0,0,0,0,0,0,0,0,0,-1,1644,1443,0,0
427,-419,0,0,0,0,0,0,0,0,0,-1,1651,1443,0,0
434,-419,0,0,0,0,0,0,0,0,0,-1,1658,1443,0,0
441,-419,0,0,0,0,0,0,0,0,0,-1,1665,1443,0,0
448,-419,0,0,0,0,0,0,0,0,0,-1,1672,1443,0,0
455,-419,0,0,0,0,0,0,0,0,0,-1,1679,1443,0,0
462,-419,0,0,0,0,0,0,0,0,0,-1,1686,1443,0,0
469,-419,0,0,0,0,0,0,0,0,0,-1,1693,1443,0,0
476,-419,0,0,0,0,0,0,0,0,0,-1,1700,1443,0,0
483,-419,0,0,0,0,0,0,0,0,0,-1,1707,1443,0,0
490,-419,0,0,0,0,0,0,0,0,0,-1,1714,1443,0,0
497,-419,0,0,0,0,0,0,0,0,0,-1,1721,1443,0,0
504,-419,0,0,0,0,0,0,0,0,0,-1,1728,1443,0,0
511,-419,20.3005,3.7959,0,0,0,0,0,0,0,-1,1735,1443,20.3005,-3.79584
518,-419,21.3154,2.03027,0,0,0,0,0,0,0,-1,1742,1443,21.3155,-2.03029
525,-419,28.3439,-1.24475,0,0,0,0,0,0,0,-1,1749,1443,28.3438,1.24471
532,-419,27.5902,-0.272583,0,0,0,0,0,0,0,-1,1756,1443,27.5902,0.272526
539,-419,26.5278,1.60583,0,0,0,0,0,0,0,-1,1763,1443,26.5279,-1.60579
546,-419,24.9509,2.77539,0,0,0,0,0,0,0,-1,1770,1443,24.9509,-2.77537
553,-419,24.118,3.75525,0,0,0,0,0,0,0,-1,1777,1443,24.1181,-3.75526
560,-419,11.8199,8.26343,0,0,0,0,0,0,0,-1,1784,1443,11.82,-8.26341
567,-419,21.5143,8.74719,0,0,0,0,0,0,0,-1,1791,1443,21.5143,-8.74722
574,-419,19.5886,6.46155,0,0,0,0,0,0,0,-1,1798,1443,19.5886,-6.46157
581,-419,20.7926,11.4265,0,0,0,0,0,0,0,-1,1805,1443,20.7926,-11.4265
588,-419,19.4242,12.5363,0,0,0,0,0,0,0,-1,1812,1443,19.4242,-12.5362
595,-419,22.9375,16.0151,0,0,0,0,0,0,0,-1,1819,1443,22.9375,-16.0152
602,-419,28.4768,18.8386,0,0,0,0,0,0,0,-1,1826,1443,28.4767,-18.8386
609,-419,28.4551,18.2446,0.00384874,0.0038704,-0.00377167,0.00763126,8.78798e-05,-0.786834,0.00505847,0.0216813,1833,1443,28.4551,-18.2446
616,-419,28.4269,17.6776,0.00292319,0.00256394,-0.00265849,0.00540812,7.9012e-05,-0.751666,0.00357937,0.0114957,1840,1443,28.4268,-17.6777
623,-419,28.4073,17.1035,0.00229776,0.00162884,-0.00183516,0.00382869,9.7911e-05,-0.695262,0.00252046,0.009746,1847,1443,28.4073,-17.1035
630,-419,28.4071,16.5104,0.0019873,0.000869231,-0.00122449,0.00277433,8.21986e-05,-0.571257,0.00182277,0.0126469,1854,1443,28.407,-16.5103
637,-419,28.3932,15.9399,0.00183314,0.000229547,-0.000704657,0.00209878,-3.60924e-05,-0.360502,0.00141137,0.0139582,1861,1443,28.3932,-15.9399
644,-419,28.3771,15.3748,0.00197547,-0.000212432,-0.000318311,0.00202083,-0.000257801,-0.141578,0.00144087,0.0121671,1868,1443,28.3771,-15.3747
651,-419,28.3569,14.8256,0.00230817,-0.000547677,-4.08755e-05,0.00230876,-0.000548262,-0.014309,0.00175078,0.0114065,1875,1443,28.357,-14.8255
658,-419,28.3239,14.2369,0.00276834,-0.000917882,0.000247453,0.00278487,-0.000934419,0.0667301,0.00223417,0.0135129,1882,1443,28.3239,-14.237
665,-419,28.3188,13.6674,0.00335291,-0.00141862,0.00065194,0.00344038,-0.00150609,0.133375,0.00292773,0.0207331,1889,1443,28.3188,-13.6673
672,-419,28.3397,13.0363,0.0040536,-0.00192577,0.00115603,0.00426932,-0.00214149,0.184482,0.00376863,0.0323092,1896,1443,28.3397,-13.0362
679,-419,28.4331,12.4188,0,0,0,0,0,0,0,-1,1903,1443,28.4332,-12.4188
686,-419,17.4127,8.03076,0,0,0,0,0,0,0,-1,1910,1443,17.4127,-8.03071
693,-419,8.76086,5.60535,0,0,0,0,0,0,0,-1,1917,1443,8.76091,-5.6054
700,-419,11.0498,4.85156,0,0,0,0,0,0,0,-1,1924,1443,11.0498,-4.85153
707,-419,9.5752,1.80042,0,0,0,0,0,0,0,-1,1931,1443,9.57523,-1.80037
714,-419,5.77576,-1.25061,0,0,0,0,0,0,0,-1,1938,1443,5.7757,1.25056
721,-419,0,0,0,0,0,0,0,0,0,-1,1945,1443,0,0
728,-419,0,0,0,0,0,0,0,0,0,-1,1952,1443,0,0
735,-419,0,0,0,0,0,0,0,0,0,-1,1959,1443,0,0
742,-419,0,0,0,0,0,0,0,0,0,-1,1966,1443,0,0
749,-419,0,0,0,0,0,0,0,0,0,-1,1973,1443,0,0
756,-419,0,0,0,0,0,0,0,0,0,-1,1980,1443,0,0
763,-419,0,0,0,0,0,0,0,0,0,-1,1987,1443,0,0
770,-419,0,0,0,0,0,0,0,0,0,-1,1994,1443,0,0
777,-419,0,0,0,0,0,0,0,0,0,-1,2001,1443,0,0
784,-419,0,0,0,0,0,0,0,0,0,-1,2008,1443,0,0
791,-419,0,0,0,0,0,0,0,0,0,-1,2015,1443,0,0
798,-419,0,0,0,0,0,0,0,0,0,-1,2022,1443,0,0
805,-419,0,0,0,0,0,0,0,0,0,-1,2029,1443,0,0
812,-419,0,0,0,0,0,0,0,0,0,-1,2036,1443,0,0
-700,-426,0,0,0,0,0,0,0,0,0,-1,524,1450,0,0
-693,-426,0,0,0,0,0,0,0,0,0,-1,531,1450,0,0
-686,-426,0,0,0,0,0,0,0,0,0,-1,538,1450,0,0
-679,-426,0,0,0,0,0,0,0,0,0,-1,545,1450,0,0
-672,-426,0,0,0,0,0,0,0,0,0,-1,552,1450,0,0
-665,-426,0,0,0,0,0,0,0,0,0,-1,559,1450,0,0
-658,-426,0,0,0,0,0,0,0,0,0,-1,566,1450,0,0
-651,-426,0,0,0,0,0,0,0,0,0,-1,573,1450,0,0
-644,-426,0,0,0,0,0,0,0,0,0,-1,580,1450,0,0
-637,-426,0,0,0,0,0,0,0,0,0,-1,587,1450,0,0
-630,-426,0,0,0,0,0,0,0,0,0,-1,594,1450,0,0
-623,-426,0,0,0,0,0,0,0,0,0,-1,601,1450,0,0
-616,-426,0,0,0,0,0,0,0,0,0,-1,608,1450,0,0
-609,-426,0,0,0,0,0,0,0,0,0,-1,615,1450,0,0
-602,-426,0,0,0,0,0,0,0,0,0,-1,622,1450,0,0
-595,-426,0,0,0,0,0,0,0,0,0,-1,629,1450,0,0
-588,-426,-10.184,-0.554321,0,0,0,0,0,0,0,-1,636,1450,-10.184,0.554321
-581,-426,-7.3349,1.48157,0,0,0,0,0,0,0,-1,643,1450,-7.33491,-1.48152
-574,-426,-5.02856,2.89319,0,0,0,0,0,0,0,-1,650,1450,-5.02858,-2.89319
-567,-426,-3.04797,1.72644,0,0,0,0,0,0,0,-1,657,1450,-3.04797,-1.72639
-560,-426,-5.55682,3.44397,0,0,0,0,0,0,0,-1,664,1450,-5.55684,-3.44399
-553,-426,-4.67017,6.66614,0,0,0,0,0,0,0,-1,671,1450,-4.67015,-6.66619
-546,-426,-7.58752,8.28882,0,0,0,0,0,0,0,-1,678,1450,-7.58752,-8.28878
-539,-426,-10.436,10.7441,0,0,0,0,0,0,0,-1,685,1450,-10.436,-10.7441
-532,-426,-11.7687,11.8071,0,0,0,0,0,0,0,-1,692,1450,-11.7687,-11.8071
-525,-426,-11.6939,12.4518,0.00188248,0.00106733,0.00174933,0.00327109,-0.000321274,0.670946,0.00229532,0.0206328,699,1450,-11.6939,-12.4518
-518,-426,-11.6753,13.1205,0.00172159,0.000909274,0.00152758,0.00289609,-0.000265221,0.655463,0.00202493,0.0171167,706,1450,-11.6753,-13.1204
-511,-426,-11.6942,13.7599,0.00168744,0.000920889,0.00143966,0.00279396,-0.000185639,0.655303,0.0019275,0.0165052,713,1450,-11.6942,-13.7599
-504,-426,-11.7293,14.3427,0.00178174,0.0011021,0.00148391,0.00296425,-8.04011e-05,0.672838,0.0020035,0.0150563,720,1450,-11.7293,-14.3426
-497,-426,-11.7628,14.9219,0.00202283,0.00147143,0.00168235,0.00345192,4.23368e-05,0.70418,0.0022873,0.0125512,727,1450,-11.7628,-14.9219
-490,-426,-11.782,15.5273,0.00242393,0.0020497,0.00207742,0.00432265,0.000150981,0.740484,0.00283278,0.0128885,734,1450,-11.782,-15.5273
-483,-426,-11.7975,16.1482,0.00299399,0.00286075,0.00264225,0.00557046,0.000284282,0.772794,0.0036226,0.0126409,741,1450,-11.7975,-16.1482
-476,-426,-11.8126,16.77,0.0037041,0.00387164,0.00340753,0.00719643,0.00037931,0.797688,0.00467631,0.00928493,748,1450,-11.8126,-16.7701
-469,-426,-11.8522,17.3824,0.00458755,0.00502955,0.00430898,0.0091232,0.000493908,0.81102,0.00592436,0.0109662,755,1450,-11.8522,-17.3825
-462,-426,-11.8034,18.0366,0,0,0,0,0,0,0,-1,762,1450,-11.8034,-18.0366
-455,-426,-10.215,17.7007,0,0,0,0,0,0,0,-1,769,1450,-10.215,-17.7007
-448,-426,-6.46545,10.1322,0,0,0,0,0,0,0,-1,776,1450,-6.46543,-10.1322
-441,-426,-10.9547,11.4747,0,0,0,0,0,0,0,-1,783,1450,-10.9546,-11.4748
-434,-426,-10.4998,13.6189,0,0,0,0,0,0,0,-1,790,1450,-10.4997,-13.6189
-427,-426,-9.36627,13.7396,0,0,0,0,0,0,0,-1,797,1450,-9.36628,-13.7396
-420,-426,-5.33765,7.95044,0,0,0,0,0,0,0,-1,804,1450,-5.33766,-7.95041
-413,-426,-10.1148,5.0415,0,0,0,0,0,0,0,-1,811,1450,-10.1148,-5.04152
-406,-426,-11.4199,3.6438,0,0,0,0,0,0,0,-1,818,1450,-11.4198,-3.64382
-399,-426,-12.7595,2.29004,0,0,0,0,0,0,0,-1,825,1450,-12.7595,-2.29003
-392,-426,-12.4147,0.537354,0,0,0,0,0,0,0,-1,832,1450,-12.4147,-0.53731
-385,-426,0,0,0,0,0,0,0,0,0,-1,839,1450,0,0
-378,-426,0,0,0,0,0,0,0,0,0,-1,846,1450,0,0
-371,-426,0,0,0,0,0,0,0,0,0,-1,853,1450,0,0
-364,-426,0,0,0,0,0,0,0,0,0,-1,860,1450,0,0
-357,-426,0,0,0,0,0,0,0,0,0,-1,867,1450,0,0
-350,-426,0,0,0,0,0,0,0,0,0,-1,874,1450,0,0
-343,-426,0,0,0,0,0,0,0,0,0,-1,881,1450,0,0
-336,-426,0,0,0,0,0,0,0,0,0,-1,888,1450,0,0
-329,-426,0,0,0,0,0,0,0,0,0,-1,895,1450,0,0
-322,-426,0,0,0,0,0,0,0,0,0,-1,902,1450,0,0
-315,-426,0,0,0,0,0,0,0,0,0,-1,909,1450,0,0
-308,-426,0,0,0,0,0,0,0,0,0,-1,916,1450,0,0
-301,-426,0,0,0,0,0,0,0,0,0,-1,923,1450,0,0
-294,-426,0,0,0,0,0,0,0,0,0,-1,930,1450,0,0
-287,-426,0,0,0,0,0,0,0,0,0,-1,937,1450,0,0
-280,-426,0,0,0,0,0,0,0,0,0,-1,944,1450,0,0
-273,-426,0,0,0,0,0,0,0,0,0,-1,951,1450,0,0
-266,-426,0,0,0,0,0,0,0,0,0,-1,958,1450,0,0
-259,-426,0,0,0,0,0,0,0,0,0,-1,965,1450,0,0
-252,-426,0,0,0,0,0,0,0,0,0,-1,972,1450,0,0
-245,-426,0,0,0,0,0,0,0,0,0,-1,979,1450,0,0
-238,-426,0,0,0,0,0,0,0,0,0,-1,986,1450,0,0
-231,-426,0,0,0,0,0,0,0,0,0,-1,993,1450,0,0
-224,-426,0,0,0,0,0,0,0,0,0,-1,1000,1450,0,0
-217,-426,0,0,0,0,0,0,0,0,0,-1,1007,1450,0,0
-210,-426,0,0,0,0,0,0,0,0,0,-1,1014,1450,0,0
-203,-426,0,0,0,0,0,0,0,0,0,-1,1021,1450,0,0
-196,-426,0,0,0,0,0,0,0,0,0,-1,1028,1450,0,0
-189,-426,0,0,0,0,0,0,0,0,0,-1,1035,1450,0,0
-182,-426,0,0,0,0,0,0,0,0,0,-1,1042,1450,0,0
-175,-426,0,0,0,0,0,0,0,0,0,-1,1049,1450,0,0
-168,-426,0,0,0,0,0,0,0,0,0,-1,1056,1450,0,0
-161,-426,0,0,0,0,0,0,0,0,0,-1,1063,1450,0,0
-154,-426,0,0,0,0,0,0,0,0,0,-1,1070,1450,0,0
-147,-426,0,0,0,0,0,0,0,0,0,-1,1077,1450,0,0
-140,-426,0,0,0,0,0,0,0,0,0,-1,1084,1450,0,0
-133,-426,0,0,0,0,0,0,0,0,0,-1,1091,1450,0,0
-126,-426,0,0,0,0,0,0,0,0,0,-1,1098,1450,0,0
-119,-426,0,0,0,0,0,0,0,0,0,-1,1105,1450,0,0
-112,-426,0,0,0,0,0,0,0,0,0,-1,1112,1450,0,0
-105,-426,0,0,0,0,0,0,0,0,0,-1,1119,1450,0,0
-98,-426,0,0,0,0,0,0,0,0,0,-1,1126,1450,0,0
-91,-426,0,0,0,0,0,0,0,0,0,-1,1133,1450,0,0
-84,-426,0,0,0,0,0,0,0,0,0,-1,1140,1450,0,0
-77,-426,0,0,0,0,0,0,0,0,0,-1,1147,1450,0,0
-70,-426,0,0,0,0,0,0,0,0,0,-1,1154,1450,0,0
-63,-426,0,0,0,0,0,0,0,0,0,-1,1161,1450,0,0
-56,-426,0,0,0,0,0,0,0,0,0,-1,1168,1450,0,0
-49,-426,0,0,0,0,0,0,0,0,0,-1,1175,1450,0,0
-42,-426,0,0,0,0,0,0,0,0,0,-1,1182,1450,0,0
-35,-426,0,0,0,0,0,0,0,0,0,-1,1189,1450,0,0
-28,-426,0,0,0,0,0,0,0,0,0,-1,1196,1450,0,0
-21,-426,0,0,0,0,0,0,0,0,0,-1,1203,1450,0,0
-14,-426,0,0,0,0,0,0,0,0,0,-1,1210,1450,0,0
-7,-426,0,0,0,0,0,0,0,0,0,-1,1217,1450,0,0
0,-426,0,0,0,0,0,0,0,0,0,-1,1224,1450,0,0
7,-426,0,0,0,0,0,0,0,0,0,-1,1231,1450,0,0
14,-426,0,0,0,0,0,0,0,0,0,-1,1238,1450,0,0
21,-426,0,0,0,0,0,0,0,0,0,-1,1245,1450,0,0
28,-426,0,0,0,0,0,0,0,0,0,-1,1252,1450,0,0
35,-426,0,0,0,0,0,0,0,0,0,-1,1259,1450,0,0
42,-426,0,0,0,0,0,0,0,0,0,-1,1266,1450,0,0
49,-426,0,0,0,0,0,0,0,0,0,-1,1273,1450,0,0
56,-426,0,0,0,0,0,0,0,0,0,-1,1280,1450,0,0
63,-426,0,0,0,0,0,0,0,0,0,-1,1287,1450,0,0
70,-426,0,0,0,0,0,0,0,0,0,-1,1294,1450,0,0
77,-426,0,0,0,0,0,0,0,0,0,-1,1301,1450,0,0
84,-426,0,0,0,0,0,0,0,0,0,-1,1308,1450,0,0
91,-426,0,0,0,0,0,0,0,0,0,-1,1315,1450,0,0
98,-426,0,0,0,0,0,0,0,0,0,-1,1322,1450,0,0
105,-426,0,0,0,0,0,0,0,0,0,-1,1329,1450,0,0
112,-426,0,0,0,0,0,0,0,0,0,-1,1336,1450,0,0
119,-426,0,0,0,0,0,0,0,0,0,-1,1343,1450,0,0
126,-426,0,0,0,0,0,0,0,0,0,-1,1350,1450,0,0
133,-426,0,0,0,0,0,0,0,0,0,-1,1357,1450,0,0
140,-426,0,0,0,0,0,0,0,0,0,-1,1364,1450,0,0
147,-426,0,0,0,0,0,0,0,0,0,-1,1371,1450,0,0
154,-426,0,0,0,0,0,0,0,0,0,-1,1378,1450,0,0
161,-426,0,0,0,0,0,0,0,0,0,-1,1385,1450,0,0
168,-426,0,0,0,0,0,0,0,0,0,-1,1392,1450,0,0
175,-426,0,0,0,0,0,0,0,0,0,-1,1399,1450,0,0
182,-426,0,0,0,0,0,0,0,0,0,-1,1406,1450,0,0
189,-426,0,0,0,0,0,0,0,0,0,-1,1413,1450,0,0
196,-426,0,0,0,0,0,0,0,0,0,-1,1420,1450,0,0
203,-426,0,0,0,0,0,0,0,0,0,-1,1427,1450,0,0
210,-426,0,0,0,0,0,0,0,0,0,-1,1434,1450,0,0
217,-426,0,0,0,0,0,0,0,0,0,-1,1441,1450,0,0
224,-426,0,0,0,0,0,0,0,0,0,-1,1448,1450,0,0
231,-426,0,0,0,0,0,0,0,0,0,-1,1455,1450,0,0
238,-426,0,0,0,0,0,0,0,0,0,-1,1462,1450,0,0
245,-426,0,0,0,0,0,0,0,0,0,-1,1469,1450,0,0
252,-426,0,0,0,0,0,0,0,0,0,-1,1476,1450,0,0
259,-426,0,0,0,0,0,0,0,0,0,-1,1483,1450,0,0
266,-426,0,0,0,0,0,0,0,0,0,-1,1490,1450,0,0
273,-426,0,0,0,0,0,0,0,0,0,-1,1497,1450,0,0
280,-426,0,0,0,0,0,0,0,0,0,-1,1504,1450,0,0
287,-426,0,0,0,0,0,0,0,0,0,-1,1511,1450,0,0
294,-426,0,0,0,0,0,0,0,0,0,-1,1518,1450,0,0
301,-426,0,0,0,0,0,0,0,0,0,-1,1525,1450,0,0
308,-426,0,0,0,0,0,0,0,0,0,-1,1532,1450,0,0
315,-426,0,0,0,0,0,0,0,0,0,-1,1539,1450,0,0
322,-426,0,0,0,0,0,0,0,0,0,-1,1546,1450,0,0
329,-426,0,0,0,0,0,0,0,0,0,-1,1553,1450,0,0
336,-426,0,0,0,0,0,0,0,0,0,-1,1560,1450,0,0
343,-426,0,0,0,0,0,0,0,0,0,-1,1567,1450,0,0
350,-426,0,0,0,0,0,0,0,0,0,-1,1574,1450,0,0
357,-426,0,0,0,0,0,0,0,0,0,-1,1581,1450,0,0
364,-426,0,0,0,0,0,0,0,0,0,-1,1588,1450,0,0
371,-426,0,0,0,0,0,0,0,0,0,-1,1595,1450,0,0
378,-426,0,0,0,0,0,0,0,0,0,-1,1602,1450,0,0
385,-426,0,0,0,0,0,0,0,0,0,-1,1609,1450,0,0
392,-426,0,0,0,0,0,0,0,0,0,-1,1616,1450,0,0
399,-426,0,0,0,0,0,0,0,0,0,-1,1623,1450,0,0
406,-426,0,0,0,0,0,0,0,0,0,-1,1630,1450,0,0
413,-426,0,0,0,0,0,0,0,0,0,-1,1637,1450,0,0
420,-426,0,0,0,0,0,0,0,0,0,-1,1644,1450,0,0
427,-426,0,0,0,0,0,0,0,0,0,-1,1651,1450,0,0
434,-426,0,0,0,0,0,0,0,0,0,-1,1658,1450,0,0
441,-426,0,0,0,0,0,0,0,0,0,-1,1665,1450,0,0
448,-426,0,0,0,0,0,0,0,0,0,-1,1672,1450,0,0
455,-426,0,0,0,0,0,0,0,0,0,-1,1679,1450,0,0
462,-426,0,0,0,0,0,0,0,0,0,-1,1686,1450,0,0
469,-426,0,0,0,0,0,0,0,0,0,-1,1693,1450,0,0
476,-426,0,0,0,0,0,0,0,0,0,-1,1700,1450,0,0
483,-426,0,0,0,0,0,0,0,0,0,-1,1707,1450,0,0
490,-426,0,0,0,0,0,0,0,0,0,-1,1714,1450,0,0
497,-426,0,0,0,0,0,0,0,0,0,-1,1721,1450,0,0
504,-426,20.6873,3.38367,0,0,0,0,0,0,0,-1,1728,1450,20.6873,-3.38361
511,-426,19.6676,3.53748,0,0,0,0,0,0,0,-1,1735,1450,19.6676,-3.53749
518,-426,18.6853,3.32288,0,0,0,0,0,0,0,-1,1742,1450,18.6853,-3.3229
525,-426,18.9552,2.71033,0,0,0,0,0,0,0,-1,1749,1450,18.9552,-2.71034
532,-426,19.4333,2.70764,0,0,0,0,0,0,0,-1,1756,1450,19.4334,-2.70764
539,-426,25.1482,2.56287,0,0,0,0,0,0,0,-1,1763,1450,25.1482,-2.56286
546,-426,24.1136,3.75659,0,0,0,0,0,0,0,-1,1770,1450,24.1136,-3.7566
553,-426,23.0791,4.95032,0,0,0,0,0,0,0,-1,1777,1450,23.0791,-4.95034
560,-426,12.9688,11.8289,0,0,0,0,0,0,0,-1,1784,1450,12.9688,-11.8288
567,-426,13.6388,11.5623,0,0,0,0,0,0,0,-1,1791,1450,13.6388,-11.5623
574,-426,14.3943,11.0286,0,0,0,0,0,0,0,-1,1798,1450,14.3942,-11.0285
581,-426,16.3879,11.4653,0,0,0,0,0,0,0,-1,1805,1450,16.3879,-11.4653
588,-426,18.1212,12.5547,0,0,0,0,0,0,0,-1,1812,1450,18.1212,-12.5547
595,-426,27.613,19.4562,0,0,0,0,0,0,0,-1,1819,1450,27.613,-19.4562
602,-426,27.7827,18.8525,0.00477268,0.00478584,-0.00455425,0.00933352,0.000225,-0.78612,0.00614872,0.043189,1826,1450,27.7827,-18.8526
609,-426,27.8752,18.2366,0.00372913,0.00337441,-0.00335349,0.00690994,0.000193595,-0.758979,0.00454347,0.0136186,1833,1450,27.8752,-18.2365
616,-426,27.8596,17.6779,0.00289458,0.00225597,-0.00239225,0.00498875,0.000161808,-0.719053,0.00327323,0.0143806,1840,1450,27.8596,-17.6779
623,-426,27.8396,17.1067,0.00236994,0.00140332,-0.00165246,0.00360832,0.000164943,-0.643126,0.00235249,0.0109625,1847,1450,27.8396,-17.1067
630,-426,27.8545,16.5427,0.00214287,0.000664528,-0.00109509,0.00272491,8.24899e-05,-0.488528,0.00178974,0.0119313,1854,1450,27.8545,-16.5428
637,-426,27.8331,15.978,0.00204159,3.27592e-05,-0.000610884,0.00221277,-0.000138423,-0.273213,0.00152342,0.0134835,1861,1450,27.8331,-15.978
644,-426,27.7762,15.4142,0.00222986,-0.000391134,-0.000255092,0.00225446,-0.00041573,-0.0961243,0.001659,0.0129543,1868,1450,27.7762,-15.4142
651,-426,27.7384,14.8602,0.00259461,-0.000705481,-2.20731e-05,0.00259476,-0.000705628,-0.00668824,0.00200684,0.01207,1875,1450,27.7384,-14.8602
658,-426,27.7388,14.2495,0.00314072,-0.00104461,0.000196289,0.0031499,-0.0010538,0.0467625,0.00252558,0.0126687,1882,1450,27.7388,-14.2495
665,-426,27.7684,13.5902,0.00380709,-0.0015174,0.000562667,0.0038659,-0.00157621,0.104143,0.00323337,0.0262153,1889,1450,27.7685,-13.5902
672,-426,27.866,13.0355,0,0,0,0,0,0,0,-1,1896,1450,27.866,-13.0355
679,-426,17.1522,8.15784,0,0,0,0,0,0,0,-1,1903,1450,17.1522,-8.15784
686,-426,13.5326,8.03711,0,0,0,0,0,0,0,-1,1910,1450,13.5326,-8.03717
693,-426,11.8607,6.45215,0,0,0,0,0,0,0,-1,1917,1450,11.8607,-6.45215
700,-426,9.24304,2.95447,0,0,0,0,0,0,0,-1,1924,1450,9.24305,-2.95442
707,-426,8.44519,-1.21448,0,0,0,0,0,0,0,-1,1931,1450,8.44514,1.21454
714,-426,0,0,0,0,0,0,0,0,0,-1,1938,1450,0,0
721,-426,0,0,0,0,0,0,0,0,0,-1,1945,1450,0,0
728,-426,0,0,0,0,0,0,0,0,0,-1,1952,1450,0,0
735,-426,0,0,0,0,0,0,0,0,0,-1,1959,1450,0,0
742,-426,0,0,0,0,0,0,0,0,0,-1,1966,1450,0,0
749,-426,0,0,0,0,0,0,0,0,0,-1,1973,1450,0,0
756,-426,0,0,0,0,0,0,0,0,0,-1,1980,1450,0,0
763,-426,0,0,0,0,0,0,0,0,0,-1,1987,1450,0,0
770,-426,0,0,0,0,0,0,0,0,0,-1,1994,1450,0,0
777,-426,0,0,0,0,0,0,0,0,0,-1,2001,1450,0,0
784,-426,0,0,0,0,0,0,0,0,0,-1,2008,1450,0,0
791,-426,0,0,0,0,0,0,0,0,0,-1,2015,1450,0,0
798,-426,0,0,0,0,0,0,0,0,0,-1,2022,1450,0,0
805,-426,0,0,0,0,0,0,0,0,0,-1,2029,1450,0,0
812,-426,0,0,0,0,0,0,0,0,0,-1,2036,1450,0,0
-700,-433,0,0,0,0,0,0,0,0,0,-1,524,1457,0,0
-693,-433,0,0,0,0,0,0,0,0,0,-1,531,1457,0,0
-686,-433,0,0,0,0,0,0,0,0,0,-1,538,1457,0,0
-679,-433,0,0,0,0,0,0,0,0,0,-1,545,1457,0,0
-672,-433,0,0,0,0,0,0,0,0,0,-1,552,1457,0,0
-665,-433,0,0,0,0,0,0,0,0,0,-1,559,1457,0,0
-658,-433,0,0,0,0,0,0,0,0,0,-1,566,1457,0,0
-651,-433,0,0,0,0,0,0,0,0,0,-1,573,1457,0,0
-644,-433,0,0,0,0,0,0,0,0,0,-1,580,1457,0,0
-637,-433,0,0,0,0,0,0,0,0,0,-1,587,1457,0,0
-630,-433,0,0,0,0,0,0,0,0,0,-1,594,1457,0,0
-623,-433,0,0,0,0,0,0,0,0,0,-1,601,1457,0,0
-616,-433,0,0,0,0,0,0,0,0,0,-1,608,1457,0,0
-609,-433,0,0,0,0,0,0,0,0,0,-1,615,1457,0,0
-602,-433,0,0,0,0,0,0,0,0,0,-1,622,1457,0,0
-595,-433,0,0,0,0,0,0,0,0,0,-1,629,1457,0,0
-588,-433,-10.3756,-0.467041,0,0,0,0,0,0,0,-1,636,1457,-10.3756,0.467081
-581,-433,-8.12201,0.884033,0,0,0,0,0,0,0,-1,643,1457,-8.12204,-0.884056
-574,-433,-5.86847,2.23523,0,0,0,0,0,0,0,-1,650,1457,-5.86844,-2.23519
-567,-433,-5.42255,1.16833,0,0,0,0,0,0,0,-1,657,1457,-5.42254,-1.1683
-560,-433,-6.84027,1.86414,0,0,0,0,0,0,0,-1,664,1457,-6.84026,-1.86412
-553,-433,-5.74017,1.79163,0,0,0,0,0,0,0,-1,671,1457,-5.74015,-1.79166
-546,-433,-6.9668,8.25073,0,0,0,0,0,0,0,-1,678,1457,-6.96679,-8.25074
-539,-433,-7.3136,8.75659,0,0,0,0,0,0,0,-1,685,1457,-7.31362,-8.75659
-532,-433,-10.9702,11.734,0,0,0,0,0,0,0,-1,692,1457,-10.9702,-11.734
-525,-433,-11.0361,12.5659,0.00199365,0.00118497,0.0021058,0.00373358,-0.00055496,0.690547,0.00269317,0.0405285,699,1457,-11.0361,-12.5659
-518,-433,-11.0709,13.1453,0.00180858,0.000977908,0.00178553,0.00322644,-0.000439959,0.671125,0.00231161,0.0170051,706,1457,-11.0708,-13.1453
-511,-433,-11.111,13.759,0.00171443,0.000922215,0.00159468,0.00296147,-0.000324817,0.663665,0.00209101,0.0166806,713,1457,-11.111,-13.759
-504,-433,-11.1246,14.3574,0.0017042,0.00100582,0.00150486,0.00289985,-0.000189831,0.671396,0.00199952,0.0134963,720,1457,-11.1246,-14.3574
-497,-433,-11.1339,14.9497,0.00180359,0.00124701,0.00154716,0.0030973,-4.66902e-05,0.696415,0.0020806,0.0139009,727,1457,-11.1339,-14.9497
-490,-433,-11.1888,15.5425,0.00203182,0.00166398,0.00175756,0.00361505,8.0746e-05,0.733265,0.00238358,0.0161187,734,1457,-11.1888,-15.5424
-483,-433,-11.2099,16.1921,0.00240526,0.00227162,0.00211625,0.00445575,0.000221131,0.769616,0.0028996,0.0167051,741,1457,-11.2099,-16.1922
-476,-433,-11.2298,16.822,0.00289702,0.00305425,0.00265887,0.00563567,0.000315596,0.800177,0.00365646,0.0106157,748,1457,-11.2298,-16.822
-469,-433,-11.2606,17.413,0.00351588,0.00395715,0.00331763,0.00706147,0.000411557,0.818601,0.00457663,0.0102573,755,1457,-11.2606,-17.413
-462,-433,-11.3069,18.0132,0,0,0,0,0,0,0,-1,762,1457,-11.307,-18.0132
-455,-433,-10.3182,18.5469,0,0,0,0,0,0,0,-1,769,1457,-10.3182,-18.5469
-448,-433,-6.94812,14.5563,0,0,0,0,0,0,0,-1,776,1457,-6.94809,-14.5562
-441,-433,-9.97485,14.0258,0,0,0,0,0,0,0,-1,783,1457,-9.97488,-14.0257
-434,-433,-9.41205,14.2297,0,0,0,0,0,0,0,-1,790,1457,-9.41205,-14.2297
-427,-433,-8.67419,13.6827,0,0,0,0,0,0,0,-1,797,1457,-8.67422,-13.6827
-420,-433,-5.74658,9.49121,0,0,0,0,0,0,0,-1,804,1457,-5.7466,-9.49119
-413,-433,-3.63074,5.5813,0,0,0,0,0,0,0,-1,811,1457,-3.63072,-5.58129
-406,-433,-12.3472,4.69373,0,0,0,0,0,0,0,-1,818,1457,-12.3472,-4.69374
-399,-433,-12.055,2.83594,0,0,0,0,0,0,0,-1,825,1457,-12.055,-2.83594
-392,-433,-12.9772,1.6228,0,0,0,0,0,0,0,-1,832,1457,-12.9772,-1.62282
-385,-433,-13.7999,0.514771,0,0,0,0,0,0,0,-1,839,1457,-13.7999,-0.514788
-378,-433,0,0,0,0,0,0,0,0,0,-1,846,1457,0,0
-371,-433,0,0,0,0,0,0,0,0,0,-1,853,1457,0,0
-364,-433,0,0,0,0,0,0,0,0,0,-1,860,1457,0,0
-357,-433,0,0,0,0,0,0,0,0,0,-1,867,1457,0,0
-350,-433,0,0,0,0,0,0,0,0,0,-1,874,1457,0,0
-343,-433,0,0,0,0,0,0,0,0,0,-1,881,1457,0,0
-336,-433,0,0,0,0,0,0,0,0,0,-1,888,1457,0,0
-329,-433,0,0,0,0,0,0,0,0,0,-1,895,1457,0,0
-322,-433,0,0,0,0,0,0,0,0,0,-1,902,1457,0,0
-315,-433,0,0,0,0,0,0,0,0,0,-1,909,1457,0,0
-308,-433,0,0,0,0,0,0,0,0,0,-1,916,1457,0,0
-301,-433,0,0,0,0,0,0,0,0,0,-1,923,1457,0,0
-294,-433,0,0,0,0,0,0,0,0,0,-1,930,1457,0,0
-287,-433,0,0,0,0,0,0,0,0,0,-1,937,1457,0,0
-280,-433,0,0,0,0,0,0,0,0,0,-1,944,1457,0,0
-273,-433,0,0,0,0,0,0,0,0,0,-1,951,1457,0,0
-266,-433,0,0,0,0,0,0,0,0,0,-1,958,1457,0,0
-259,-433,0,0,0,0,0,0,0,0,0,-1,965,1457,0,0
-252,-433,0,0,0,0,0,0,0,0,0,-1,972,1457,0,0
-245,-433,0,0,0,0,0,0,0,0,0,-1,979,1457,0,0
-238,-433,0,0,0,0,0,0,0,0,0,-1,986,1457,0,0
-231,-433,0,0,0,0,0,0,0,0,0,-1,993,1457,0,0
-224,-433,0,0,0,0,0,0,0,0,0,-1,1000,1457,0,0
-217,-433,0,0,0,0,0,0,0,0,0,-1,1007,1457,0,0
-210,-433,0,0,0,0,0,0,0,0,0,-1,1014,1457,0,0
-203,-433,0,0,0,0,0,0,0,0,0,-1,1021,1457,0,0
-196,-433,0,0,0,0,0,0,0,0,0,-1,1028,1457,0,0
-189,-433,0,0,0,0,0,0,0,0,0,-1,1035,1457,0,0
-182,-433,0,0,0,0,0,0,0,0,0,-1,1042,1457,0,0
-175,-433,0,0,0,0,0,0,0,0,0,-1,1049,1457,0,0
-168,-433,0,0,0,0,0,0,0,0,0,-1,1056,1457,0,0
-161,-433,0,0,0,0,0,0,0,0,0,-1,1063,1457,0,0
-154,-433,0,0,0,0,0,0,0,0,0,-1,1070,1457,0,0
-147,-433,0,0,0,0,0,0,0,0,0,-1,1077,1457,0,0
-140,-433,0,0,0,0,0,0,0,0,0,-1,1084,1457,0,0
-133,-433,0,0,0,0,0,0,0,0,0,-1,1091,1457,0,0
-126,-433,0,0,0,0,0,0,0,0,0,-1,1098,1457,0,0
-119,-433,0,0,0,0,0,0,0,0,0,-1,1105,1457,0,0
-112,-433,0,0,0,0,0,0,0,0,0,-1,1112,1457,0,0
-105,-433,0,0,0,0,0,0,0,0,0,-1,1119,1457,0,0
-98,-433,0,0,0,0,0,0,0,0,0,-1,1126,1457,0,0
-91,-433,0,0,0,0,0,0,0,0,0,-1,1133,1457,0,0
-84,-433,0,0,0,0,0,0,0,0,0,-1,1140,1457,0,0
-77,-433,0,0,0,0,0,0,0,0,0,-1,1147,1457,0,0
-70,-433,0,0,0,0,0,0,0,0,0,-1,1154,1457,0,0
-63,-433,0,0,0,0,0,0,0,0,0,-1,1161,1457,0,0
-56,-433,0,0,0,0,0,0,0,0,0,-1,1168,1457,0,0
-49,-433,0,0,0,0,0,0,0,0,0,-1,1175,1457,0,0
-42,-433,0,0,0,0,0,0,0,0,0,-1,1182,1457,0,0
-35,-433,0,0,0,0,0,0,0,0,0,-1,1189,1457,0,0
-28,-433,0,0,0,0,0,0,0,0,0,-1,1196,1457,0,0
-21,-433,0,0,0,0,0,0,0,0,0,-1,1203,1457,0,0
-14,-433,0,0,0,0,0,0,0,0,0,-1,1210,1457,0,0
-7,-433,0,0,0,0,0,0,0,0,0,-1,1217,1457,0,0
0,-433,0,0,0,0,0,0,0,0,0,-1,1224,1457,0,0
7,-433,0,0,0,0,0,0,0,0,0,-1,1231,1457,0,0
14,-433,0,0,0,0,0,0,0,0,0,-1,1238,1457,0,0
21,-433,0,0,0,0,0,0,0,0,0,-1,1245,1457,0,0
28,-433,0,0,0,0,0,0,0,0,0,-1,1252,1457,0,0
35,-433,0,0,0,0,0,0,0,0,0,-1,1259,1457,0,0
42,-433,0,0,0,0,0,0,0,0,0,-1,1266,1457,0,0
49,-433,0,0,0,0,0,0,0,0,0,-1,1273,1457,0,0
56,-433,0,0,0,0,0,0,0,0,0,-1,1280,1457,0,0
63,-433,0,0,0,0,0,0,0,0,0,-1,1287,1457,0,0
70,-433,0,0,0,0,0,0,0,0,0,-1,1294,1457,0,0
77,-433,0,0,0,0,0,0,0,0,0,-1,1301,1457,0,0
84,-433,0,0,0,0,0,0,0,0,0,-1,1308,1457,0,0
91,-433,0,0,0,0,0,0,0,0,0,-1,1315,1457,0,0
98,-433,0,0,0,0,0,0,0,0,0,-1,1322,1457,0,0
105,-433,0,0,0,0,0,0,0,0,0,-1,1329,1457,0,0
112,-433,0,0,0,0,0,0,0,0,0,-1,1336,1457,0,0
119,-433,0,0,0,0,0,0,0,0,0,-1,1343,1457,0,0
126,-433,0,0,0,0,0,0,0,0,0,-1,1350,1457,0,0
133,-433,0,0,0,0,0,0,0,0,0,-1,1357,1457,0,0
140,-433,0,0,0,0,0,0,0,0,0,-1,1364,1457,0,0
147,-433,0,0,0,0,0,0,0,0,0,-1,1371,1457,0,0
154,-433,0,0,0,0,0,0,0,0,0,-1,1378,1457,0,0
161,-433,0,0,0,0,0,0,0,0,0,-1,1385,1457,0,0
168,-433,0,0,0,0,0,0,0,0,0,-1,1392,1457,0,0
175,-433,0,0,0,0,0,0,0,0,0,-1,1399,1457,0,0
182,-433,0,0,0,0,0,0,0,0,0,-1,1406,1457,0,0
189,-433,0,0,0,0,0,0,0,0,0,-1,1413,1457,0,0
196,-433,0,0,0,0,0,0,0,0,0,-1,1420,1457,0,0
203,-433,0,0,0,0,0,0,0,0,0,-1,1427,1457,0,0
210,-433,0,0,0,0,0,0,0,0,0,-1,1434,1457,0,0
217,-433,0,0,0,0,0,0,0,0,0,-1,1441,1457,0,0
224,-433,0,0,0,0,0,0,0,0,0,-1,1448,1457,0,0
231,-433,0,0,0,0,0,0,0,0,0,-1,1455,1457,0,0
238,-433,0,0,0,0,0,0,0,0,0,-1,1462,1457,0,0
245,-433,0,0,0,0,0,0,0,0,0,-1,1469,1457,0,0
252,-433,0,0,0,0,0,0,0,0,0,-1,1476,1457,0,0
259,-433,0,0,0,0,0,0,0,0,0,-1,1483,1457,0,0
266,-433,0,0,0,0,0,0,0,0,0,-1,1490,1457,0,0
273,-433,0,0,0,0,0,0,0,0,0,-1,1497,1457,0,0
280,-433,0,0,0,0,0,0,0,0,0,-1,1504,1457,0,0
287,-433,0,0,0,0,0,0,0,0,0,-1,1511,1457,0,0
294,-433,0,0,0,0,0,0,0,0,0,-1,1518,1457,0,0
301,-433,0,0,0,0,0,0,0,0,0,-1,1525,1457,0,0
308,-433,0,0,0,0,0,0,0,0,0,-1,1532,1457,0,0
315,-433,0,0,0,0,0,0,0,0,0,-1,1539,1457,0,0
322,-433,0,0,0,0,0,0,0,0,0,-1,1546,1457,0,0
329,-433,0,0,0,0,0,0,0,0,0,-1,1553,1457,0,0
336,-433,0,0,0,0,0,0,0,0,0,-1,1560,1457,0,0
343,-433,0,0,0,0,0,0,0,0,0,-1,1567,1457,0,0
350,-433,0,0,0,0,0,0,0,0,0,-1,1574,1457,0,0
357,-433,0,0,0,0,0,0,0,0,0,-1,1581,1457,0,0
364,-433,0,0,0,0,0,0,0,0,0,-1,1588,1457,0,0
371,-433,0,0,0,0,0,0,0,0,0,-1,1595,1457,0,0
378,-433,0,0,0,0,0,0,0,0,0,-1,1602,1457,0,0
385,-433,0,0,0,0,0,0,0,0,0,-1,1609,1457,0,0
392,-433,0,0,0,0,0,0,0,0,0,-1,1616,1457,0,0
399,-433,0,0,0,0,0,0,0,0,0,-1,1623,1457,0,0
406,-433,0,0,0,0,0,0,0,0,0,-1,1630,1457,0,0
413,-433,0,0,0,0,0,0,0,0,0,-1,1637,1457,0,0
420,-433,0,0,0,0,0,0,0,0,0,-1,1644,1457,0,0
427,-433,0,0,0,0,0,0,0,0,0,-1,1651,1457,0,0
434,-433,0,0,0,0,0,0,0,0,0,-1,1658,1457,0,0
441,-433,0,0,0,0,0,0,0,0,0,-1,1665,1457,0,0
448,-433,0,0,0,0,0,0,0,0,0,-1,1672,1457,0,0
455,-433,0,0,0,0,0,0,0,0,0,-1,1679,1457,0,0
462,-433,0,0,0,0,0,0,0,0,0,-1,1686,1457,0,0
469,-433,0,0,0,0,0,0,0,0,0,-1,1693,1457,0,0
476,-433,0,0,0,0,0,0,0,0,0,-1,1700,1457,0,0
483,-433,0,0,0,0,0,0,0,0,0,-1,1707,1457,0,0
490,-433,0,0,0,0,0,0,0,0,0,-1,1714,1457,0,0
497,-433,0,0,0,0,0,0,0,0,0,-1,1721,1457,0,0
504,-433,19.9058,3.03662,0,0,0,0,0,0,0,-1,1728,1457,19.9058,-3.03656
511,-433,19.0145,3.07837,0,0,0,0,0,0,0,-1,1735,1457,19.0146,-3.07834
518,-433,18.071,3.06433,0,0,0,0,0,0,0,-1,1742,1457,18.071,-3.06432
525,-433,17.2048,3.37085,0,0,0,0,0,0,0,-1,1749,1457,17.2049,-3.37083
532,-433,16.5637,3.36646,0,0,0,0,0,0,0,-1,1756,1457,16.5637,-3.36643
539,-433,15.9193,3.30396,0,0,0,0,0,0,0,-1,1763,1457,15.9193,-3.30394
546,-433,23.1903,4.81775,0,0,0,0,0,0,0,-1,1770,1457,23.1903,-4.81775
553,-433,13.9674,11.5781,0,0,0,0,0,0,0,-1,1777,1457,13.9674,-11.5781
560,-433,13.9855,11.7341,0,0,0,0,0,0,0,-1,1784,1457,13.9855,-11.7341
567,-433,13.9264,11.3364,0,0,0,0,0,0,0,-1,1791,1457,13.9263,-11.3364
574,-433,15.5305,12.3673,0,0,0,0,0,0,0,-1,1798,1457,15.5305,-12.3673
581,-433,16.6405,12.1898,0,0,0,0,0,0,0,-1,1805,1457,16.6405,-12.1898
588,-433,26.4386,19.7478,0,0,0,0,0,0,0,-1,1812,1457,26.4386,-19.7478
595,-433,27.1729,19.5352,0,0,0,0,0,0,0,-1,1819,1457,27.1729,-19.5351
602,-433,27.3098,18.8773,0.0043083,0.00415125,-0.00395709,0.00818764,0.000271909,-0.775477,0.00537008,0.0257671,1826,1457,27.3098,-18.8773
609,-433,27.3291,18.2368,0.00339146,0.00287255,-0.0028893,0.00603294,0.000231075,-0.740618,0.00394719,0.0163644,1833,1457,27.3291,-18.2368
616,-433,27.3279,17.6957,0.00267419,0.00185914,-0.00202973,0.0043369,0.000196429,-0.686326,0.00282807,0.0133886,1840,1457,27.3279,-17.6957
623,-433,27.2839,17.1127,0.00226928,0.00105097,-0.00134921,0.00314048,0.000179767,-0.573353,0.00203637,0.00996863,1847,1457,27.2839,-17.1126
630,-433,27.2838,16.5413,0.00215811,0.000320121,-0.000828772,0.00247662,1.61224e-06,-0.366911,0.00165054,0.013413,1854,1457,27.2838,-16.5413
637,-433,27.2655,15.9915,0.00217606,-0.000288659,-0.000392107,0.00223694,-0.000349535,-0.154024,0.00162042,0.015345,1861,1457,27.2655,-15.9914
644,-433,27.2159,15.4523,0.00248458,-0.000689162,-8.27254e-05,0.00248673,-0.000691317,-0.026042,0.00192998,0.0155624,1868,1457,27.2159,-15.4523
651,-433,27.1868,14.874,0.00299794,-0.000967549,7.76621e-05,0.00299946,-0.00096907,0.0195745,0.0023891,0.0123819,1875,1457,27.1868,-14.874
658,-433,27.1284,14.2656,0.00376729,-0.00125551,0.000184927,0.00377409,-0.00126231,0.0367511,0.00302591,0.0303231,1882,1457,27.1285,-14.2656
665,-433,27.3337,13.5261,0,0,0,0,0,0,0,-1,1889,1457,27.3338,-13.5261
672,-433,18.115,8.7207,0,0,0,0,0,0,0,-1,1896,1457,18.115,-8.72074
679,-433,17.2969,9.6355,0,0,0,0,0,0,0,-1,1903,1457,17.2968,-9.63548
686,-433,13.6356,8.61694,0,0,0,0,0,0,0,-1,1910,1457,13.6356,-8.61694
693,-433,13.4081,8.39624,0,0,0,0,0,0,0,-1,1917,1457,13.4081,-8.39624
700,-433,7.16809,-1.5166,0,0,0,0,0,0,0,-1,1924,1457,7.16806,1.51656
707,-433,8.68359,-2.82202,0,0,0,0,0,0,0,-1,1931,1457,8.68359,2.82197
714,-433,0,0,0,0,0,0,0,0,0,-1,1938,1457,0,0
721,-433,0,0,0,0,0,0,0,0,0,-1,1945,1457,0,0
728,-433,0,0,0,0,0,0,0,0,0,-1,1952,1457,0,0
735,-433,0,0,0,0,0,0,0,0,0,-1,1959,1457,0,0
742,-433,0,0,0,0,0,0,0,0,0,-1,1966,1457,0,0
749,-433,0,0,0,0,0,0,0,0,0,-1,1973,1457,0,0
756,-433,0,0,0,0,0,0,0,0,0,-1,1980,1457,0,0
763,-433,0,0,0,0,0,0,0,0,0,-1,1987,1457,0,0
770,-433,0,0,0,0,0,0,0,0,0,-1,1994,1457,0,0
777,-433,0,0,0,0,0,0,0,0,0,-1,2001,1457,0,0
784,-433,0,0,0,0,0,0,0,0,0,-1,2008,1457,0,0
791,-433,0,0,0,0,0,0,0,0,0,-1,2015,1457,0,0
798,-433,0,0,0,0,0,0,0,0,0,-1,2022,1457,0,0
805,-433,0,0,0,0,0,0,0,0,0,-1,2029,1457,0,0
812,-433,0,0,0,0,0,0,0,0,0,-1,2036,1457,0,0
-700,-440,0,0,0,0,0,0,0,0,0,-1,524,1464,0,0
-693,-440,0,0,0,0,0,0,0,0,0,-1,531,1464,0,0
-686,-440,0,0,0,0,0,0,0,0,0,-1,538,1464,0,0
-679,-440,0,0,0,0,0,0,0,0,0,-1,545,1464,0,0
-672,-440,0,0,0,0,0,0,0,0,0,-1,552,1464,0,0
-665,-440,0,0,0,0,0,0,0,0,0,-1,559,1464,0,0
-658,-440,0,0,0,0,0,0,0,0,0,-1,566,1464,0,0
-651,-440,0,0,0,0,0,0,0,0,0,-1,573,1464,0,0
-644,-440,0,0,0,0,0,0,0,0,0,-1,580,1464,0,0
-637,-440,0,0,0,0,0,0,0,0,0,-1,587,1464,0,0
-630,-440,0,0,0,0,0,0,0,0,0,-1,594,1464,0,0
-623,-440,0,0,0,0,0,0,0,0,0,-1,601,1464,0,0
-616,-440,0,0,0,0,0,0,0,0,0,-1,608,1464,0,0
-609,-440,0,0,0,0,0,0,0,0,0,-1,615,1464,0,0
-602,-440,0,0,0,0,0,0,0,0,0,-1,622,1464,0,0
-595,-440,0,0,0,0,0,0,0,0,0,-1,629,1464,0,0
-588,-440,0,0,0,0,0,0,0,0,0,-1,636,1464,0,0
-581,-440,-8.97278,0.254517,0,0,0,0,0,0,0,-1,643,1464,-8.97276,-0.254526
-574,-440,-7.00818,-0.918579,0,0,0,0,0,0,0,-1,650,1464,-7.00817,0.918538
-567,-440,-6.12152,-0.0766602,0,0,0,0,0,0,0,-1,657,1464,-6.12151,0.0767097
-560,-440,-5.46747,0.82251,0,0,0,0,0,0,0,-1,664,1464,-5.46748,-0.822551
-553,-440,-6.84729,0.0831299,0,0,0,0,0,0,0,-1,671,1464,-6.84732,-0.083136
-546,-440,-5.63446,-0.153198,0,0,0,0,0,0,0,-1,678,1464,-5.63447,0.153147
-539,-440,-6.80017,8.58252,0,0,0,0,0,0,0,-1,685,1464,-6.80015,-8.58257
-532,-440,-9.69647,11.3262,0,0,0,0,0,0,0,-1,692,1464,-9.69649,-11.3262
-525,-440,-10.549,12.4103,0,0,0,0,0,0,0,-1,699,1464,-10.5489,-12.4103
-518,-440,-10.5177,13.093,0.00200842,0.00104563,0.00214499,0.00372537,-0.000671319,0.675013,0.00273495,0.0234535,706,1464,-10.5177,-13.093
-511,-440,-10.4954,13.7694,0.00183654,0.000909719,0.00184035,0.00327093,-0.00052467,0.662059,0.00237491,0.0165891,713,1464,-10.4954,-13.7694
-504,-440,-10.5173,14.4058,0.00170799,0.000887246,0.00161133,0.00296038,-0.000365144,0.660709,0.00210588,0.0198116,720,1464,-10.5173,-14.4058
-497,-440,-10.5618,15.0157,0.00166249,0.000999977,0.00149971,0.00286709,-0.000204629,0.676704,0.00198313,0.0219669,727,1464,-10.5617,-15.0157
-490,-440,-10.5914,15.5315,0.00172694,0.00127999,0.00154354,0.0030631,-5.61662e-05,0.713507,0.00206105,0.0230599,734,1464,-10.5914,-15.5315
-483,-440,-10.6094,16.1869,0.0019315,0.00173555,0.00173213,0.00356842,9.8631e-05,0.757146,0.00234676,0.0210793,741,1464,-10.6094,-16.1869
-476,-440,-10.6368,16.8169,0.0022584,0.00236031,0.00210443,0.0044144,0.000204313,0.797502,0.00287725,0.0141655,748,1464,-10.6368,-16.8169
-469,-440,-10.6624,17.4275,0.00269898,0.00316127,0.00260366,0.00554402,0.000316226,0.82967,0.00359524,0.0135053,755,1464,-10.6623,-17.4275
-462,-440,-10.7117,18.0249,0.0033091,0.00421057,0.00332521,0.00711545,0.000404216,0.852763,0.0046148,0.0175164,762,1464,-10.7117,-18.0249
-455,-440,-10.6732,18.6471,0,0,0,0,0,0,0,-1,769,1464,-10.6732,-18.6471
-448,-440,-9.44476,19.2422,0,0,0,0,0,0,0,-1,776,1464,-9.44475,-19.2422
-441,-440,-7.28583,14.7465,0,0,0,0,0,0,0,-1,783,1464,-7.28584,-14.7464
-434,-440,-8.33636,14.5024,0,0,0,0,0,0,0,-1,790,1464,-8.33638,-14.5025
-427,-440,-8.28094,14.2512,0,0,0,0,0,0,0,-1,797,1464,-8.28094,-14.2512
-420,-440,-6.86603,8.09216,0,0,0,0,0,0,0,-1,804,1464,-6.86602,-8.09222
-413,-440,-3.46796,5.72278,0,0,0,0,0,0,0,-1,811,1464,-3.46797,-5.72276
-406,-440,-5.2887,5.20264,0,0,0,0,0,0,0,-1,818,1464,-5.2887,-5.20261
-399,-440,-12.7318,3.94421,0,0,0,0,0,0,0,-1,825,1464,-12.7318,-3.94419
-392,-440,-13.5565,2.51855,0,0,0,0,0,0,0,-1,832,1464,-13.5565,-2.51861
-385,-440,-14.6741,1.39795,0,0,0,0,0,0,0,-1,839,1464,-14.6741,-1.39801
-378,-440,-15.8063,0.293457,0,0,0,0,0,0,0,-1,846,1464,-15.8063,-0.293412
-371,-440,0,0,0,0,0,0,0,0,0,-1,853,1464,0,0
-364,-440,0,0,0,0,0,0,0,0,0,-1,860,1464,0,0
-357,-440,0,0,0,0,0,0,0,0,0,-1,867,1464,0,0
-350,-440,0,0,0,0,0,0,0,0,0,-1,874,1464,0,0
-343,-440,0,0,0,0,0,0,0,0,0,-1,881,1464,0,0
-336,-440,0,0,0,0,0,0,0,0,0,-1,888,1464,0,0
-329,-440,0,0,0,0,0,0,0,0,0,-1,895,1464,0,0
-322,-440,0,0,0,0,0,0,0,0,0,-1,902,1464,0,0
-315,-440,0,0,0,0,0,0,0,0,0,-1,909,1464,0,0
-308,-440,0,0,0,0,0,0,0,0,0,-1,916,1464,0,0
-301,-440,0,0,0,0,0,0,0,0,0,-1,923,1464,0,0
-294,-440,0,0,0,0,0,0,0,0,0,-1,930,1464,0,0
-287,-440,0,0,0,0,0,0,0,0,0,-1,937,1464,0,0
-280,-440,0,0,0,0,0,0,0,0,0,-1,944,1464,0,0
-273,-440,0,0,0,0,0,0,0,0,0,-1,951,1464,0,0
-266,-440,0,0,0,0,0,0,0,0,0,-1,958,1464,0,0
-259,-440,0,0,0,0,0,0,0,0,0,-1,965,1464,0,0
-252,-440,0,0,0,0,0,0,0,0,0,-1,972,1464,0,0
-245,-440,0,0,0,0,0,0,0,0,0,-1,979,1464,0,0
-238,-440,0,0,0,0,0,0,0,0,0,-1,986,1464,0,0
-231,-440,0,0,0,0,0,0,0,0,0,-1,993,1464,0,0
-224,-440,0,0,0,0,0,0,0,0,0,-1,1000,1464,0,0
-217,-440,0,0,0,0,0,0,0,0,0,-1,1007,1464,0,0
-210,-440,0,0,0,0,0,0,0,0,0,-1,1014,1464,0,0
-203,-440,0,0,0,0,0,0,0,0,0,-1,1021,1464,0,0
-196,-440,0,0,0,0,0,0,0,0,0,-1,1028,1464,0,0
-189,-440,0,0,0,0,0,0,0,0,0,-1,1035,1464,0,0
-182,-440,0,0,0,0,0,0,0,0,0,-1,1042,1464,0,0
-175,-440,0,0,0,0,0,0,0,0,0,-1,1049,1464,0,0
-168,-440,0,0,0,0,0,0,0,0,0,-1,1056,1464,0,0
-161,-440,0,0,0,0,0,0,0,0,0,-1,1063,1464,0,0
-154,-440,0,0,0,0,0,0,0,0,0,-1,1070,1464,0,0
-147,-440,0,0,0,0,0,0,0,0,0,-1,1077,1464,0,0
-140,-440,0,0,0,0,0,0,0,0,0,-1,1084,1464,0,0
-133,-440,0,0,0,0,0,0,0,0,0,-1,1091,1464,0,0
-126,-440,0,0,0,0,0,0,0,0,0,-1,1098,1464,0,0
-119,-440,0,0,0,0,0,0,0,0,0,-1,1105,1464,0,0
-112,-440,0,0,0,0,0,0,0,0,0,-1,1112,1464,0,0
-105,-440,0,0,0,0,0,0,0,0,0,-1,1119,1464,0,0
-98,-440,0,0,0,0,0,0,0,0,0,-1,1126,1464,0,0
-91,-440,0,0,0,0,0,0,0,0,0,-1,1133,1464,0,0
-84,-440,0,0,0,0,0,0,0,0,0,-1,1140,1464,0,0
-77,-440,0,0,0,0,0,0,0,0,0,-1,1147,1464,0,0
-70,-440,0,0,0,0,0,0,0,0,0,-1,1154,1464,0,0
-63,-440,0,0,0,0,0,0,0,0,0,-1,1161,1464,0,0
-56,-440,0,0,0,0,0,0,0,0,0,-1,1168,1464,0,0
-49,-440,0,0,0,0,0,0,0,0,0,-1,1175,1464,0,0
-42,-440,0,0,0,0,0,0,0,0,0,-1,1182,1464,0,0
-35,-440,0,0,0,0,0,0,0,0,0,-1,1189,1464,0,0
-28,-440,0,0,0,0,0,0,0,0,0,-1,1196,1464,0,0
-21,-440,0,0,0,0,0,0,0,0,0,-1,1203,1464,0,0
-14,-440,0,0,0,0,0,0,0,0,0,-1,1210,1464,0,0
-7,-440,0,0,0,0,0,0,0,0,0,-1,1217,1464,0,0
0,-440,0,0,0,0,0,0,0,0,0,-1,1224,1464,0,0
7,-440,0,0,0,0,0,0,0,0,0,-1,1231,1464,0,0
14,-440,0,0,0,0,0,0,0,0,0,-1,1238,1464,0,0
21,-440,0,0,0,0,0,0,0,0,0,-1,1245,1464,0,0
28,-440,0,0,0,0,0,0,0,0,0,-1,1252,1464,0,0
35,-440,0,0,0,0,0,0,0,0,0,-1,1259,1464,0,0
42,-440,0,0,0,0,0,0,0,0,0,-1,1266,1464,0,0
49,-440,0,0,0,0,0,0,0,0,0,-1,1273,1464,0,0
56,-440,0,0,0,0,0,0,0,0,0,-1,1280,1464,0,0
63,-440,0,0,0,0,0,0,0,0,0,-1,1287,1464,0,0
70,-440,0,0,0,0,0,0,0,0,0,-1,1294,1464,0,0
77,-440,0,0,0,0,0,0,0,0,0,-1,1301,1464,0,0
84,-440,0,0,0,0,0,0,0,0,0,-1,1308,1464,0,0
91,-440,0,0,0,0,0,0,0,0,0,-1,1315,1464,0,0
98,-440,0,0,0,0,0,0,0,0,0,-1,1322,1464,0,0
105,-440,0,0,0,0,0,0,0,0,0,-1,1329,1464,0,0
112,-440,0,0,0,0,0,0,0,0,0,-1,1336,1464,0,0
119,-440,0,0,0,0,0,0,0,0,0,-1,1343,1464,0,0
126,-440,0,0,0,0,0,0,0,0,0,-1,1350,1464,0,0
133,-440,0,0,0,0,0,0,0,0,0,-1,1357,1464,0,0
140,-440,0,0,0,0,0,0,0,0,0,-1,1364,1464,0,0
147,-440,0,0,0,0,0,0,0,0,0,-1,1371,1464,0,0
154,-440,0,0,0,0,0,0,0,0,0,-1,1378,1464,0,0
161,-440,0,0,0,0,0,0,0,0,0,-1,1385,1464,0,0
168,-440,0,0,0,0,0,0,0,0,0,-1,1392,1464,0,0
175,-440,0,0,0,0,0,0,0,0,0,-1,1399,1464,0,0
182,-440,0,0,0,0,0,0,0,0,0,-1,1406,1464,0,0
189,-440,0,0,0,0,0,0,0,0,0,-1,1413,1464,0,0
196,-440,0,0,0,0,0,0,0,0,0,-1,1420,1464,0,0
203,-440,0,0,0,0,0,0,0,0,0,-1,1427,1464,0,0
210,-440,0,0,0,0,0,0,0,0,0,-1,1434,1464,0,0
217,-440,0,0,0,0,0,0,0,0,0,-1,1441,1464,0,0
224,-440,0,0,0,0,0,0,0,0,0,-1,1448,1464,0,0
231,-440,0,0,0,0,0,0,0,0,0,-1,1455,1464,0,0
238,-440,0,0,0,0,0,0,0,0,0,-1,1462,1464,0,0
245,-440,0,0,0,0,0,0,0,0,0,-1,1469,1464,0,0
252,-440,0,0,0,0,0,0,0,0,0,-1,1476,1464,0,0
259,-440,0,0,0,0,0,0,0,0,0,-1,1483,1464,0,0
266,-440,0,0,0,0,0,0,0,0,0,-1,1490,1464,0,0
273,-440,0,0,0,0,0,0,0,0,0,-1,1497,1464,0,0
280,-440,0,0,0,0,0,0,0,0,0,-1,1504,1464,0,0
287,-440,0,0,0,0,0,0,0,0,0,-1,1511,1464,0,0
294,-440,0,0,0,0,0,0,0,0,0,-1,1518,1464,0,0
301,-440,0,0,0,0,0,0,0,0,0,-1,1525,1464,0,0
308,-440,0,0,0,0,0,0,0,0,0,-1,1532,1464,0,0
315,-440,0,0,0,0,0,0,0,0,0,-1,1539,1464,0,0
322,-440,0,0,0,0,0,0,0,0,0,-1,1546,1464,0,0
329,-440,0,0,0,0,0,0,0,0,0,-1,1553,1464,0,0
336,-440,0,0,0,0,0,0,0,0,0,-1,1560,1464,0,0
343,-440,0,0,0,0,0,0,0,0,0,-1,1567,1464,0,0
350,-440,0,0,0,0,0,0,0,0,0,-1,1574,1464,0,0
357,-440,0,0,0,0,0,0,0,0,0,-1,1581,1464,0,0
364,-440,0,0,0,0,0,0,0,0,0,-1,1588,1464,0,0
371,-440,0,0,0,0,0,0,0,0,0,-1,1595,1464,0,0
378,-440,0,0,0,0,0,0,0,0,0,-1,1602,1464,0,0
385,-440,0,0,0,0,0,0,0,0,0,-1,1609,1464,0,0
392,-440,0,0,0,0,0,0,0,0,0,-1,1616,1464,0,0
399,-440,0,0,0,0,0,0,0,0,0,-1,1623,1464,0,0
406,-440,0,0,0,0,0,0,0,0,0,-1,1630,1464,0,0
413,-440,0,0,0,0,0,0,0,0,0,-1,1637,1464,0,0
420,-440,0,0,0,0,0,0,0,0,0,-1,1644,1464,0,0
427,-440,0,0,0,0,0,0,0,0,0,-1,1651,1464,0,0
434,-440,0,0,0,0,0,0,0,0,0,-1,1658,1464,0,0
441,-440,0,0,0,0,0,0,0,0,0,-1,1665,1464,0,0
448,-440,0,0,0,0,0,0,0,0,0,-1,1672,1464,0,0
455,-440,0,0,0,0,0,0,0,0,0,-1,1679,1464,0,0
462,-440,0,0,0,0,0,0,0,0,0,-1,1686,1464,0,0
469,-440,0,0,0,0,0,0,0,0,0,-1,1693,1464,0,0
476,-440,0,0,0,0,0,0,0,0,0,-1,1700,1464,0,0
483,-440,0,0,0,0,0,0,0,0,0,-1,1707,1464,0,0
490,-440,0,0,0,0,0,0,0,0,0,-1,1714,1464,0,0
497,-440,16.965,-0.528442,0,0,0,0,0,0,0,-1,1721,1464,16.965,0.528492
504,-440,15.8052,0.670166,0,0,0,0,0,0,0,-1,1728,1464,15.8052,-0.670145
511,-440,17.5754,2.77832,0,0,0,0,0,0,0,-1,1735,1464,17.5754,-2.77826
518,-440,16.9017,3.07861,0,0,0,0,0,0,0,-1,1742,1464,16.9018,-3.07859
525,-440,18.4495,12.0867,0,0,0,0,0,0,0,-1,1749,1464,18.4495,-12.0867
532,-440,15.4319,3.64392,0,0,0,0,0,0,0,-1,1756,1464,15.4318,-3.64391
539,-440,14.8214,3.41321,0,0,0,0,0,0,0,-1,1763,1464,14.8214,-3.4132
546,-440,14.8651,10.7683,0,0,0,0,0,0,0,-1,1770,1464,14.8651,-10.7683
553,-440,15.1213,11.4121,0,0,0,0,0,0,0,-1,1777,1464,15.1213,-11.4121
560,-440,17.4325,12.5394,0,0,0,0,0,0,0,-1,1784,1464,17.4325,-12.5394
567,-440,16.9025,12.4249,0,0,0,0,0,0,0,-1,1791,1464,16.9025,-12.425
574,-440,19.2841,14.8679,0,0,0,0,0,0,0,-1,1798,1464,19.2841,-14.868
581,-440,26.4432,21.3477,0,0,0,0,0,0,0,-1,1805,1464,26.4432,-21.3476
588,-440,26.6984,20.144,0,0,0,0,0,0,0,-1,1812,1464,26.6983,-20.144
595,-440,26.7104,19.4728,0.00498612,0.00473097,-0.00441885,0.00927924,0.000437859,-0.770967,0.00604549,0.029654,1819,1464,26.7104,-19.4728
602,-440,26.7697,18.8263,0.00392948,0.00341758,-0.00332059,0.00700396,0.000343092,-0.746935,0.00455925,0.0200482,1826,1464,26.7697,-18.8263
609,-440,26.7529,18.2903,0.00314599,0.0022764,-0.00239317,0.00514354,0.00027885,-0.695536,0.00333996,0.0168038,1833,1464,26.7529,-18.2903
616,-440,26.7264,17.7556,0.00254741,0.0013828,-0.00164798,0.00371294,0.000217272,-0.615571,0.00240614,0.0173192,1840,1464,26.7264,-17.7557
623,-440,26.7224,17.1549,0.00225413,0.000635048,-0.00103921,0.0027619,0.000127278,-0.454496,0.00180034,0.0134391,1847,1464,26.7224,-17.155
630,-440,26.6892,16.5511,0.00223962,-5.90137e-05,-0.000561375,0.0023694,-0.000188786,-0.227179,0.00164614,0.0125006,1854,1464,26.6893,-16.5512
637,-440,26.6846,16.0258,0.00236714,-0.000600376,-0.000186249,0.00237878,-0.00061202,-0.062436,0.00182441,0.0178229,1861,1464,26.6846,-16.0258
644,-440,26.6736,15.4932,0.00276478,-0.000946437,7.2872e-05,0.00276621,-0.000947868,0.0196255,0.00222834,0.0151358,1868,1464,26.6736,-15.4932
651,-440,26.6787,14.8778,0.00338103,-0.00117366,0.000173582,0.00338764,-0.00118026,0.038037,0.002738,0.0199864,1875,1464,26.6787,-14.8778
658,-440,26.7527,14.168,0,0,0,0,0,0,0,-1,1882,1464,26.7527,-14.168
665,-440,24.2067,12.5813,0,0,0,0,0,0,0,-1,1889,1464,24.2067,-12.5813
672,-440,18.9385,9.6394,0,0,0,0,0,0,0,-1,1896,1464,18.9384,-9.63939
679,-440,16.9508,10.2336,0,0,0,0,0,0,0,-1,1903,1464,16.9508,-10.2337
686,-440,15.2556,8.44177,0,0,0,0,0,0,0,-1,1910,1464,15.2556,-8.44177
693,-440,9.88635,2.89795,0,0,0,0,0,0,0,-1,1917,1464,9.88638,-2.89798
700,-440,7.07825,-2.62061,0,0,0,0,0,0,0,-1,1924,1464,7.07829,2.62057
707,-440,0,0,0,0,0,0,0,0,0,-1,1931,1464,0,0
714,-440,0,0,0,0,0,0,0,0,0,-1,1938,1464,0,0
721,-440,0,0,0,0,0,0,0,0,0,-1,1945,1464,0,0
728,-440,0,0,0,0,0,0,0,0,0,-1,1952,1464,0,0
735,-440,0,0,0,0,0,0,0,0,0,-1,1959,1464,0,0
742,-440,0,0,0,0,0,0,0,0,0,-1,1966,1464,0,0
749,-440,0,0,0,0,0,0,0,0,0,-1,1973,1464,0,0
756,-440,0,0,0,0,0,0,0,0,0,-1,1980,1464,0,0
763,-440,0,0,0,0,0,0,0,0,0,-1,1987,1464,0,0
770,-440,0,0,0,0,0,0,0,0,0,-1,1994,1464,0,0
777,-440,0,0,0,0,0,0,0,0,0,-1,2001,1464,0,0
784,-440,0,0,0,0,0,0,0,0,0,-1,2008,1464,0,0
791,-440,0,0,0,0,0,0,0,0,0,-1,2015,1464,0,0
798,-440,0,0,0,0,0,0,0,0,0,-1,2022,1464,0,0
805,-440,0,0,0,0,0,0,0,0,0,-1,2029,1464,0,0
812,-440,0,0,0,0,0,0,0,0,0,-1,2036,1464,0,0
-700,-447,0,0,0,0,0,0,0,0,0,-1,524,1471,0,0
-693,-447,0,0,0,0,0,0,0,0,0,-1,531,1471,0,0
-686,-447,0,0,0,0,0,0,0,0,0,-1,538,1471,0,0
-679,-447,0,0,0,0,0,0,0,0,0,-1,545,1471,0,0
-672,-447,0,0,0,0,0,0,0,0,0,-1,552,1471,0,0
-665,-447,0,0,0,0,0,0,0,0,0,-1,559,1471,0,0
-658,-447,0,0,0,0,0,0,0,0,0,-1,566,1471,0,0
-651,-447,0,0,0,0,0,0,0,0,0,-1,573,1471,0,0
-644,-447,0,0,0,0,0,0,0,0,0,-1,580,1471,0,0
-637,-447,0,0,0,0,0,0,0,0,0,-1,587,1471,0,0
-630,-447,0,0,0,0,0,0,0,0,0,-1,594,1471,0,0
-623,-447,0,0,0,0,0,0,0,0,0,-1,601,1471,0,0
-616,-447,0,0,0,0,0,0,0,0,0,-1,608,1471,0,0
-609,-447,0,0,0,0,0,0,0,0,0,-1,615,1471,0,0
-602,-447,0,0,0,0,0,0,0,0,0,-1,622,1471,0,0
-595,-447,0,0,0,0,0,0,0,0,0,-1,629,1471,0,0
-588,-447,0,0,0,0,0,0,0,0,0,-1,636,1471,0,0
-581,-447,-7.06482,-1.50476,0,0,0,0,0,0,0,-1,643,1471,-7.0648,1.50474
-574,-447,-6.88092,-0.00585938,0,0,0,0,0,0,0,-1,650,1471,-6.88095,0.00589852
-567,-447,-6.8205,-1.32178,0,0,0,0,0,0,0,-1,657,1471,-6.82047,1.32172
-560,-447,-8.85748,2.80774,0,0,0,0,0,0,0,-1,664,1471,-8.85748,-2.80775
-553,-447,-7.60486,3.26794,0,0,0,0,0,0,0,-1,671,1471,-7.60487,-3.26799
-546,-447,-3.94501,1.8656,0,0,0,0,0,0,0,-1,678,1471,-3.945,-1.86554
-539,-447,-5.35492,4.50024,0,0,0,0,0,0,0,-1,685,1471,-5.35492,-4.50018
-532,-447,-6.12781,8.81091,0,0,0,0,0,0,0,-1,692,1471,-6.12781,-8.81094
-525,-447,-9.44501,12.098,0,0,0,0,0,0,0,-1,699,1471,-9.44502,-12.098
-518,-447,-9.92841,13.0596,0,0,0,0,0,0,0,-1,706,1471,-9.92841,-13.0596
-511,-447,-9.90747,13.7529,0.00190301,0.000756115,0.0019964,0.00340669,-0.000747563,0.645543,0.002557,0.0227925,713,1471,-9.90744,-13.7529
-504,-447,-9.92175,14.4834,0.00168437,0.000626108,0.00165705,0.00289472,-0.000584242,0.630855,0.00215117,0.020945,720,1471,-9.92172,-14.4834
-497,-447,-9.97559,15.0981,0.00152014,0.000626279,0.00142089,0.00256273,-0.00041631,0.633025,0.00186283,0.0242295,727,1471,-9.97556,-15.0981
-490,-447,-9.96124,15.6101,0.00147318,0.000805567,0.00133914,0.00251949,-0.000240743,0.663253,0.00176539,0.0239072,734,1471,-9.96124,-15.6101
-483,-447,-10.0092,16.2111,0.00157639,0.0011744,0.00141251,0.00280213,-5.13478e-05,0.714724,0.00188544,0.0224655,741,1471,-10.0092,-16.211
-476,-447,-10.0364,16.8147,0.00181499,0.00173019,0.00167819,0.00345131,9.38693e-05,0.772768,0.00227023,0.0156567,748,1471,-10.0364,-16.8147
-469,-447,-10.0515,17.4347,0.00218032,0.00251048,0.00208123,0.00443317,0.000257631,0.824974,0.00287342,0.0148843,755,1471,-10.0515,-17.4347
-462,-447,-10.0634,18.0654,0.00272745,0.00349362,0.00268313,0.00582088,0.000400201,0.856307,0.0037543,0.0151014,762,1471,-10.0634,-18.0654
-455,-447,-10.0994,18.6526,0.00356037,0.00483602,0.00363536,0.00788909,0.000507304,0.872239,0.00509871,0.023138,769,1471,-10.0994,-18.6526
-448,-447,-10.0569,19.4407,0,0,0,0,0,0,0,-1,776,1471,-10.0569,-19.4407
-441,-447,-8.68506,19.0931,0,0,0,0,0,0,0,-1,783,1471,-8.68504,-19.0932
-434,-447,-7.43402,15.6273,0,0,0,0,0,0,0,-1,790,1471,-7.43404,-15.6274
-427,-447,-7.21832,14.691,0,0,0,0,0,0,0,-1,797,1471,-7.21834,-14.6911
-420,-447,-8.0545,12.8055,0,0,0,0,0,0,0,-1,804,1471,-8.05452,-12.8055
-413,-447,-4.27393,6.59705,0,0,0,0,0,0,0,-1,811,1471,-4.27392,-6.59707
-406,-447,-1.04279,6.18591,0,0,0,0,0,0,0,-1,818,1471,-1.04276,-6.18586
-399,-447,0.0134888,0.687622,0,0,0,0,0,0,0,-1,825,1471,0.0134841,-0.68767
-392,-447,-14.0646,3.76147,0,0,0,0,0,0,0,-1,832,1471,-14.0646,-3.7615
-385,-447,-15.1695,2.61865,0,0,0,0,0,0,0,-1,839,1471,-15.1695,-2.61871
-378,-447,-15.9424,1.49316,0,0,0,0,0,0,0,-1,846,1471,-15.9424,-1.49313
-371,-447,-17.3655,0.73291,0,0,0,0,0,0,0,-1,853,1471,-17.3655,-0.732946
-364,-447,0,0,0,0,0,0,0,0,0,-1,860,1471,0,0
-357,-447,0,0,0,0,0,0,0,0,0,-1,867,1471,0,0
-350,-447,0,0,0,0,0,0,0,0,0,-1,874,1471,0,0
-343,-447,0,0,0,0,0,0,0,0,0,-1,881,1471,0,0
-336,-447,0,0,0,0,0,0,0,0,0,-1,888,1471,0,0
-329,-447,0,0,0,0,0,0,0,0,0,-1,895,1471,0,0
-322,-447,0,0,0,0,0,0,0,0,0,-1,902,1471,0,0
-315,-447,0,0,0,0,0,0,0,0,0,-1,909,1471,0,0
-308,-447,0,0,0,0,0,0,0,0,0,-1,916,1471,0,0
-301,-447,0,0,0,0,0,0,0,0,0,-1,923,1471,0,0
-294,-447,0,0,0,0,0,0,0,0,0,-1,930,1471,0,0
-287,-447,0,0,0,0,0,0,0,0,0,-1,937,1471,0,0
-280,-447,0,0,0,0,0,0,0,0,0,-1,944,1471,0,0
-273,-447,0,0,0,0,0,0,0,0,0,-1,951,1471,0,0
-266,-447,0,0,0,0,0,0,0,0,0,-1,958,1471,0,0
-259,-447,0,0,0,0,0,0,0,0,0,-1,965,1471,0,0
-252,-447,0,0,0,0,0,0,0,0,0,-1,972,1471,0,0
-245,-447,0,0,0,0,0,0,0,0,0,-1,979,1471,0,0
-238,-447,0,0,0,0,0,0,0,0,0,-1,986,1471,0,0
-231,-447,0,0,0,0,0,0,0,0,0,-1,993,1471,0,0
-224,-447,0,0,0,0,0,0,0,0,0,-1,1000,1471,0,0
-217,-447,0,0,0,0,0,0,0,0,0,-1,1007,1471,0,0
-210,-447,0,0,0,0,0,0,0,0,0,-1,1014,1471,0,0
-203,-447,0,0,0,0,0,0,0,0,0,-1,1021,1471,0,0
-196,-447,0,0,0,0,0,0,0,0,0,-1,1028,1471,0,0
-189,-447,0,0,0,0,0,0,0,0,0,-1,1035,1471,0,0
-182,-447,0,0,0,0,0,0,0,0,0,-1,1042,1471,0,0
-175,-447,0,0,0,0,0,0,0,0,0,-1,1049,1471,0,0
-168,-447,0,0,0,0,0,0,0,0,0,-1,1056,1471,0,0
-161,-447,0,0,0,0,0,0,0,0,0,-1,1063,1471,0,0
-154,-447,0,0,0,0,0,0,0,0,0,-1,1070,1471,0,0
-147,-447,0,0,0,0,0,0,0,0,0,-1,1077,1471,0,0
-140,-447,0,0,0,0,0,0,0,0,0,-1,1084,1471,0,0
-133,-447,0,0,0,0,0,0,0,0,0,-1,1091,1471,0,0
-126,-447,0,0,0,0,0,0,0,0,0,-1,1098,1471,0,0
-119,-447,0,0,0,0,0,0,0,0,0,-1,1105,1471,0,0
-112,-447,0,0,0,0,0,0,0,0,0,-1,1112,1471,0,0
-105,-447,0,0,0,0,0,0,0,0,0,-1,1119,1471,0,0
-98,-447,0,0,0,0,0,0,0,0,0,-1,1126,1471,0,0
-91,-447,0,0,0,0,0,0,0,0,0,-1,1133,1471,0,0
-84,-447,0,0,0,0,0,0,0,0,0,-1,1140,1471,0,0
-77,-447,0,0,0,0,0,0,0,0,0,-1,1147,1471,0,0
-70,-447,0,0,0,0,0,0,0,0,0,-1,1154,1471,0,0
-63,-447,0,0,0,0,0,0,0,0,0,-1,1161,1471,0,0
-56,-447,0,0,0,0,0,0,0,0,0,-1,1168,1471,0,0
-49,-447,0,0,0,0,0,0,0,0,0,-1,1175,1471,0,0
-42,-447,0,0,0,0,0,0,0,0,0,-1,1182,1471,0,0
-35,-447,0,0,0,0,0,0,0,0,0,-1,1189,1471,0,0
-28,-447,0,0,0,0,0,0,0,0,0,-1,1196,1471,0,0
-21,-447,0,0,0,0,0,0,0,0,0,-1,1203,1471,0,0
-14,-447,0,0,0,0,0,0,0,0,0,-1,1210,1471,0,0
-7,-447,0,0,0,0,0,0,0,0,0,-1,1217,1471,0,0
0,-447,0,0,0,0,0,0,0,0,0,-1,1224,1471,0,0
7,-447,0,0,0,0,0,0,0,0,0,-1,1231,1471,0,0
14,-447,0,0,0,0,0,0,0,0,0,-1,1238,1471,0,0
21,-447,0,0,0,0,0,0,0,0,0,-1,1245,1471,0,0
28,-447,0,0,0,0,0,0,0,0,0,-1,1252,1471,0,0
35,-447,0,0,0,0,0,0,0,0,0,-1,1259,1471,0,0
42,-447,0,0,0,0,0,0,0,0,0,-1,1266,1471,0,0
49,-447,0,0,0,0,0,0,0,0,0,-1,1273,1471,0,0
56,-447,0,0,0,0,0,0,0,0,0,-1,1280,1471,0,0
63,-447,0,0,0,0,0,0,0,0,0,-1,1287,1471,0,0
70,-447,0,0,0,0,0,0,0,0,0,-1,1294,1471,0,0
77,-447,0,0,0,0,0,0,0,0,0,-1,1301,1471,0,0
84,-447,0,0,0,0,0,0,0,0,0,-1,1308,1471,0,0
91,-447,0,0,0,0,0,0,0,0,0,-1,1315,1471,0,0
98,-447,0,0,0,0,0,0,0,0,0,-1,1322,1471,0,0
105,-447,0,0,0,0,0,0,0,0,0,-1,1329,1471,0,0
112,-447,0,0,0,0,0,0,0,0,0,-1,1336,1471,0,0
119,-447,0,0,0,0,0,0,0,0,0,-1,1343,1471,0,0
126,-447,0,0,0,0,0,0,0,0,0,-1,1350,1471,0,0
133,-447,0,0,0,0,0,0,0,0,0,-1,1357,1471,0,0
140,-447,0,0,0,0,0,0,0,0,0,-1,1364,1471,0,0
147,-447,0,0,0,0,0,0,0,0,0,-1,1371,1471,0,0
154,-447,0,0,0,0,0,0,0,0,0,-1,1378,1471,0,0
161,-447,0,0,0,0,0,0,0,0,0,-1,1385,1471,0,0
168,-447,0,0,0,0,0,0,0,0,0,-1,1392,1471,0,0
175,-447,0,0,0,0,0,0,0,0,0,-1,1399,1471,0,0
182,-447,0,0,0,0,0,0,0,0,0,-1,1406,1471,0,0
189,-447,0,0,0,0,0,0,0,0,0,-1,1413,1471,0,0
196,-447,0,0,0,0,0,0,0,0,0,-1,1420,1471,0,0
203,-447,0,0,0,0,0,0,0,0,0,-1,1427,1471,0,0
210,-447,0,0,0,0,0,0,0,0,0,-1,1434,1471,0,0
217,-447,0,0,0,0,0,0,0,0,0,-1,1441,1471,0,0
224,-447,0,0,0,0,0,0,0,0,0,-1,1448,1471,0,0
231,-447,0,0,0,0,0,0,0,0,0,-1,1455,1471,0,0
238,-447,0,0,0,0,0,0,0,0,0,-1,1462,1471,0,0
245,-447,0,0,0,0,0,0,0,0,0,-1,1469,1471,0,0
252,-447,0,0,0,0,0,0,0,0,0,-1,1476,1471,0,0
259,-447,0,0,0,0,0,0,0,0,0,-1,1483,1471,0,0
266,-447,0,0,0,0,0,0,0,0,0,-1,1490,1471,0,0
273,-447,0,0,0,0,0,0,0,0,0,-1,1497,1471,0,0
280,-447,0,0,0,0,0,0,0,0,0,-1,1504,1471,0,0
287,-447,0,0,0,0,0,0,0,0,0,-1,1511,1471,0,0
294,-447,0,0,0,0,0,0,0,0,0,-1,1518,1471,0,0
301,-447,0,0,0,0,0,0,0,0,0,-1,1525,1471,0,0
308,-447,0,0,0,0,0,0,0,0,0,-1,1532,1471,0,0
315,-447,0,0,0,0,0,0,0,0,0,-1,1539,1471,0,0
322,-447,0,0,0,0,0,0,0,0,0,-1,1546,1471,0,0
329,-447,0,0,0,0,0,0,0,0,0,-1,1553,1471,0,0
336,-447,0,0,0,0,0,0,0,0,0,-1,1560,1471,0,0
343,-447,0,0,0,0,0,0,0,0,0,-1,1567,1471,0,0
350,-447,0,0,0,0,0,0,0,0,0,-1,1574,1471,0,0
357,-447,0,0,0,0,0,0,0,0,0,-1,1581,1471,0,0
364,-447,0,0,0,0,0,0,0,0,0,-1,1588,1471,0,0
371,-447,0,0,0,0,0,0,0,0,0,-1,1595,1471,0,0
378,-447,0,0,0,0,0,0,0,0,0,-1,1602,1471,0,0
385,-447,0,0,0,0,0,0,0,0,0,-1,1609,1471,0,0
392,-447,0,0,0,0,0,0,0,0,0,-1,1616,1471,0,0
399,-447,0,0,0,0,0,0,0,0,0,-1,1623,1471,0,0
406,-447,0,0,0,0,0,0,0,0,0,-1,1630,1471,0,0
413,-447,0,0,0,0,0,0,0,0,0,-1,1637,1471,0,0
420,-447,0,0,0,0,0,0,0,0,0,-1,1644,1471,0,0
427,-447,0,0,0,0,0,0,0,0,0,-1,1651,1471,0,0
434,-447,0,0,0,0,0,0,0,0,0,-1,1658,1471,0,0
441,-447,0,0,0,0,0,0,0,0,0,-1,1665,1471,0,0
448,-447,0,0,0,0,0,0,0,0,0,-1,1672,1471,0,0
455,-447,0,0,0,0,0,0,0,0,0,-1,1679,1471,0,0
462,-447,0,0,0,0,0,0,0,0,0,-1,1686,1471,0,0
469,-447,0,0,0,0,0,0,0,0,0,-1,1693,1471,0,0
476,-447,0,0,0,0,0,0,0,0,0,-1,1700,1471,0,0
483,-447,0,0,0,0,0,0,0,0,0,-1,1707,1471,0,0
490,-447,18.2214,-0.810303,0,0,0,0,0,0,0,-1,1714,1471,18.2215,0.810307
497,-447,17.0237,0.352417,0,0,0,0,0,0,0,-1,1721,1471,17.0237,-0.352442
504,-447,15.8998,1.53479,0,0,0,0,0,0,0,-1,1728,1471,15.8997,-1.53478
511,-447,14.7201,2.76111,0,0,0,0,0,0,0,-1,1735,1471,14.7201,-2.76107
518,-447,17.7618,13.2864,0,0,0,0,0,0,0,-1,1742,1471,17.7619,-13.2863
525,-447,17.1191,11.9014,0,0,0,0,0,0,0,-1,1749,1471,17.1191,-11.9013
532,-447,16.3959,10.0455,0,0,0,0,0,0,0,-1,1756,1471,16.3959,-10.0456
539,-447,14.1699,10.0204,0,0,0,0,0,0,0,-1,1763,1471,14.1699,-10.0204
546,-447,16.3715,11.8046,0,0,0,0,0,0,0,-1,1770,1471,16.3714,-11.8046
553,-447,17.5106,13.4012,0,0,0,0,0,0,0,-1,1777,1471,17.5107,-13.4012
560,-447,17.0187,13.168,0,0,0,0,0,0,0,-1,1784,1471,17.0187,-13.168
567,-447,18.9286,15.1703,0,0,0,0,0,0,0,-1,1791,1471,18.9286,-15.1703
574,-447,25.6398,21.6353,0,0,0,0,0,0,0,-1,1798,1471,25.6397,-21.6352
581,-447,26.062,20.9125,0.00705848,0.006335,-0.00536396,0.0120729,0.00132059,-0.751729,0.0076465,0.0495797,1805,1471,26.062,-20.9125
588,-447,26.2201,20.0607,0.00565869,0.00498645,-0.00444267,0.00977793,0.000867209,-0.747642,0.00624964,0.0273459,1812,1471,26.2201,-20.0606
595,-447,26.2244,19.4358,0.00442452,0.00386484,-0.00356485,0.00772049,0.00056887,-0.746228,0.00496824,0.0131231,1819,1471,26.2244,-19.4358
602,-447,26.1914,18.8541,0.0035686,0.00273931,-0.00271108,0.00589656,0.000411343,-0.709514,0.00380135,0.0114228,1826,1471,26.1914,-18.8541
609,-447,26.1687,18.3004,0.00294459,0.00175577,-0.00194834,0.00438718,0.000313185,-0.637341,0.00282618,0.0131674,1833,1471,26.1687,-18.3005
616,-447,26.1693,17.7445,0.00248988,0.000973094,-0.00132544,0.00325856,0.000204414,-0.525541,0.00210754,0.0151245,1840,1471,26.1693,-17.7445
623,-447,26.1643,17.1899,0.00231493,0.000270223,-0.000785351,0.00258175,3.39712e-06,-0.327517,0.00172004,0.0164636,1847,1471,26.1643,-17.19
630,-447,26.1211,16.6121,0.0023851,-0.00039761,-0.00033485,0.00242482,-0.000437337,-0.118087,0.00178033,0.0105322,1854,1471,26.1211,-16.6121
637,-447,26.1193,16.0522,0.00261716,-0.000878699,-1.44996e-05,0.00261722,-0.00087876,-0.00414754,0.00209994,0.011422,1861,1471,26.1193,-16.0522
644,-447,26.1201,15.5011,0.0030932,-0.00120699,0.000196959,0.0031022,-0.001216,0.0456749,0.00257117,0.0118024,1868,1471,26.1201,-15.5011
651,-447,26.1943,14.9041,0.0037844,-0.00143317,0.000255583,0.00379689,-0.00144566,0.0488293,0.00312661,0.0480107,1875,1471,26.1943,-14.904
658,-447,26.4358,14.1958,0,0,0,0,0,0,0,-1,1882,1471,26.4358,-14.1959
665,-447,18.4946,9.79919,0,0,0,0,0,0,0,-1,1889,1471,18.4946,-9.79922
672,-447,18.9784,9.66077,0,0,0,0,0,0,0,-1,1896,1471,18.9784,-9.66081
679,-447,14.844,7.4248,0,0,0,0,0,0,0,-1,1903,1471,14.844,-7.42477
686,-447,9.81079,4.30859,0,0,0,0,0,0,0,-1,1910,1471,9.8108,-4.30864
693,-447,10.48,2.08643,0,0,0,0,0,0,0,-1,1917,1471,10.48,-2.08642
700,-447,0,0,0,0,0,0,0,0,0,-1,1924,1471,0,0
707,-447,0,0,0,0,0,0,0,0,0,-1,1931,1471,0,0
714,-447,0,0,0,0,0,0,0,0,0,-1,1938,1471,0,0
721,-447,0,0,0,0,0,0,0,0,0,-1,1945,1471,0,0
728,-447,0,0,0,0,0,0,0,0,0,-1,1952,1471,0,0
735,-447,0,0,0,0,0,0,0,0,0,-1,1959,1471,0,0
742,-447,0,0,0,0,0,0,0,0,0,-1,1966,1471,0,0
749,-447,0,0,0,0,0,0,0,0,0,-1,1973,1471,0,0
756,-447,0,0,0,0,0,0,0,0,0,-1,1980,1471,0,0
763,-447,0,0,0,0,0,0,0,0,0,-1,1987,1471,0,0
770,-447,0,0,0,0,0,0,0,0,0,-1,1994,1471,0,0
777,-447,0,0,0,0,0,0,0,0,0,-1,2001,1471,0,0
784,-447,0,0,0,0,0,0,0,0,0,-1,2008,1471,0,0
791,-447,0,0,0,0,0,0,0,0,0,-1,2015,1471,0,0
798,-447,0,0,0,0,0,0,0,0,0,-1,2022,1471,0,0
805,-447,0,0,0,0,0,0,0,0,0,-1,2029,1471,0,0
812,-447,0,0,0,0,0,0,0,0,0,-1,2036,1471,0,0
-700,-454,0,0,0,0,0,0,0,0,0,-1,524,1478,0,0
-693,-454,0,0,0,0,0,0,0,0,0,-1,531,1478,0,0
-686,-454,0,0,0,0,0,0,0,0,0,-1,538,1478,0,0
-679,-454,0,0,0,0,0,0,0,0,0,-1,545,1478,0,0
-672,-454,0,0,0,0,0,0,0,0,0,-1,552,1478,0,0
-665,-454,0,0,0,0,0,0,0,0,0,-1,559,1478,0,0
-658,-454,0,0,0,0,0,0,0,0,0,-1,566,1478,0,0
-651,-454,0,0,0,0,0,0,0,0,0,-1,573,1478,0,0
-644,-454,0,0,0,0,0,0,0,0,0,-1,580,1478,0,0
-637,-454,0,0,0,0,0,0,0,0,0,-1,587,1478,0,0
-630,-454,0,0,0,0,0,0,0,0,0,-1,594,1478,0,0
-623,-454,0,0,0,0,0,0,0,0,0,-1,601,1478,0,0
-616,-454,0,0,0,0,0,0,0,0,0,-1,608,1478,0,0
-609,-454,0,0,0,0,0,0,0,0,0,-1,615,1478,0,0
-602,-454,0,0,0,0,0,0,0,0,0,-1,622,1478,0,0
-595,-454,0,0,0,0,0,0,0,0,0,-1,629,1478,0,0
-588,-454,0,0,0,0,0,0,0,0,0,-1,636,1478,0,0
-581,-454,0,0,0,0,0,0,0,0,0,-1,643,1478,0,0
-574,-454,-8.4881,-0.465942,0,0,0,0,0,0,0,-1,650,1478,-8.4881,0.465885
-567,-454,-8.10046,0.922974,0,0,0,0,0,0,0,-1,657,1478,-8.10047,-0.923034
-560,-454,-10.656,3.51172,0,0,0,0,0,0,0,-1,664,1478,-10.656,-3.51176
-553,-454,-9.01129,3.95251,0,0,0,0,0,0,0,-1,671,1478,-9.0113,-3.95256
-546,-454,-9.61896,6.05237,0,0,0,0,0,0,0,-1,678,1478,-9.61897,-6.05239
-539,-454,-7.72589,4.96533,0,0,0,0,0,0,0,-1,685,1478,-7.72592,-4.96532
-532,-454,-7.03931,7.59985,0,0,0,0,0,0,0,-1,692,1478,-7.03929,-7.59981
-525,-454,-5.78723,9.677,0,0,0,0,0,0,0,-1,699,1478,-5.78722,-9.67703
-518,-454,-9.17682,13.1466,0,0,0,0,0,0,0,-1,706,1478,-9.17682,-13.1466
-511,-454,-9.3905,13.6974,0.00194118,0.000658858,0.00213109,0.00352547,-0.000925436,0.639276,0.00271195,0.0469988,713,1478,-9.39049,-13.6974
-504,-454,-9.32849,14.4596,0.00165338,0.000443144,0.00169273,0.00284589,-0.000749373,0.613736,0.00219021,0.0191813,720,1478,-9.32848,-14.4596
-497,-454,-9.34528,15.1265,0.0013835,0.000344508,0.00134137,0.00230245,-0.000574448,0.600648,0.00175802,0.0192361,727,1478,-9.34531,-15.1265
-490,-454,-9.3324,15.6913,0.00124495,0.000422916,0.0011439,0.00204943,-0.000381567,0.612925,0.00150964,0.0169285,734,1478,-9.33242,-15.6913
-483,-454,-9.37579,16.2797,0.00126214,0.000701745,0.00112545,0.00214175,-0.000177861,0.663396,0.00149066,0.0157506,741,1478,-9.37579,-16.2796
-476,-454,-9.43323,16.8386,0.00142956,0.00117674,0.00131051,0.00261974,-1.34344e-05,0.737318,0.00175099,0.014267,748,1478,-9.43324,-16.8386
-469,-454,-9.44507,17.4569,0.00174308,0.00188827,0.00164913,0.0034664,0.000164951,0.807394,0.00225796,0.0108584,755,1478,-9.44505,-17.4569
-462,-454,-9.49054,18.0737,0.00223243,0.00276024,0.00216907,0.0046814,0.000311265,0.845934,0.00302252,0.0114332,762,1478,-9.49052,-18.0737
-455,-454,-9.51886,18.6733,0.00297925,0.00391673,0.00298112,0.00646573,0.000430248,0.863377,0.00417447,0.0129524,769,1478,-9.51884,-18.6733
-448,-454,-9.50525,19.3202,0.00402908,0.00552059,0.00410963,0.00895158,0.000598091,0.875154,0.00577868,0.0213613,776,1478,-9.50528,-19.3202
-441,-454,-9.38904,20.0898,0,0,0,0,0,0,0,-1,783,1478,-9.38904,-20.0898
-434,-454,-7.55743,19.4857,0,0,0,0,0,0,0,-1,790,1478,-7.55746,-19.4858
-427,-454,-6.00183,15.8636,0,0,0,0,0,0,0,-1,797,1478,-6.00184,-15.8637
-420,-454,-6.28088,15.2135,0,0,0,0,0,0,0,-1,804,1478,-6.28087,-15.2135
-413,-454,-5.4408,13.674,0,0,0,0,0,0,0,-1,811,1478,-5.44079,-13.6739
-406,-454,-2.38208,10.0308,0,0,0,0,0,0,0,-1,818,1478,-2.38209,-10.0308
-399,-454,-1.21033,6.95447,0,0,0,0,0,0,0,-1,825,1478,-1.21035,-6.95452
-392,-454,0.0967407,0.985474,0,0,0,0,0,0,0,-1,832,1478,0.0967364,-0.985529
-385,-454,2.38629,3.297,0,0,0,0,0,0,0,-1,839,1478,2.38629,-3.29702
-378,-454,-15.9756,2.83997,0,0,0,0,0,0,0,-1,846,1478,-15.9756,-2.83994
-371,-454,-17.2753,2.01453,0,0,0,0,0,0,0,-1,853,1478,-17.2753,-2.01455
-364,-454,1.08124,0.819458,0,0,0,0,0,0,0,-1,860,1478,1.08124,-0.819513
-357,-454,0,0,0,0,0,0,0,0,0,-1,867,1478,0,0
-350,-454,0,0,0,0,0,0,0,0,0,-1,874,1478,0,0
-343,-454,0,0,0,0,0,0,0,0,0,-1,881,1478,0,0
-336,-454,0,0,0,0,0,0,0,0,0,-1,888,1478,0,0
-329,-454,0,0,0,0,0,0,0,0,0,-1,895,1478,0,0
-322,-454,0,0,0,0,0,0,0,0,0,-1,902,1478,0,0
-315,-454,0,0,0,0,0,0,0,0,0,-1,909,1478,0,0
-308,-454,0,0,0,0,0,0,0,0,0,-1,916,1478,0,0
-301,-454,0,0,0,0,0,0,0,0,0,-1,923,1478,0,0
-294,-454,0,0,0,0,0,0,0,0,0,-1,930,1478,0,0
-287,-454,0,0,0,0,0,0,0,0,0,-1,937,1478,0,0
-280,-454,0,0,0,0,0,0,0,0,0,-1,944,1478,0,0
-273,-454,0,0,0,0,0,0,0,0,0,-1,951,1478,0,0
-266,-454,0,0,0,0,0,0,0,0,0,-1,958,1478,0,0
-259,-454,0,0,0,0,0,0,0,0,0,-1,965,1478,0,0
-252,-454,0,0,0,0,0,0,0,0,0,-1,972,1478,0,0
-245,-454,0,0,0,0,0,0,0,0,0,-1,979,1478,0,0
-238,-454,0,0,0,0,0,0,0,0,0,-1,986,1478,0,0
-231,-454,0,0,0,0,0,0,0,0,0,-1,993,1478,0,0
-224,-454,0,0,0,0,0,0,0,0,0,-1,1000,1478,0,0
-217,-454,0,0,0,0,0,0,0,0,0,-1,1007,1478,0,0
-210,-454,0,0,0,0,0,0,0,0,0,-1,1014,1478,0,0
-203,-454,0,0,0,0,0,0,0,0,0,-1,1021,1478,0,0
-196,-454,0,0,0,0,0,0,0,0,0,-1,1028,1478,0,0
-189,-454,0,0,0,0,0,0,0,0,0,-1,1035,1478,0,0
-182,-454,0,0,0,0,0,0,0,0,0,-1,1042,1478,0,0
-175,-454,0,0,0,0,0,0,0,0,0,-1,1049,1478,0,0
-168,-454,0,0,0,0,0,0,0,0,0,-1,1056,1478,0,0
-161,-454,0,0,0,0,0,0,0,0,0,-1,1063,1478,0,0
-154,-454,0,0,0,0,0,0,0,0,0,-1,1070,1478,0,0
-147,-454,0,0,0,0,0,0,0,0,0,-1,1077,1478,0,0
-140,-454,0,0,0,0,0,0,0,0,0,-1,1084,1478,0,0
-133,-454,0,0,0,0,0,0,0,0,0,-1,1091,1478,0,0
-126,-454,0,0,0,0,0,0,0,0,0,-1,1098,1478,0,0
-119,-454,0,0,0,0,0,0,0,0,0,-1,1105,1478,0,0
-112,-454,0,0,0,0,0,0,0,0,0,-1,1112,1478,0,0
-105,-454,0,0,0,0,0,0,0,0,0,-1,1119,1478,0,0
-98,-454,0,0,0,0,0,0,0,0,0,-1,1126,1478,0,0
-91,-454,0,0,0,0,0,0,0,0,0,-1,1133,1478,0,0
-84,-454,0,0,0,0,0,0,0,0,0,-1,1140,1478,0,0
-77,-454,0,0,0,0,0,0,0,0,0,-1,1147,1478,0,0
-70,-454,0,0,0,0,0,0,0,0,0,-1,1154,1478,0,0
-63,-454,0,0,0,0,0,0,0,0,0,-1,1161,1478,0,0
-56,-454,0,0,0,0,0,0,0,0,0,-1,1168,1478,0,0
-49,-454,0,0,0,0,0,0,0,0,0,-1,1175,1478,0,0
-42,-454,0,0,0,0,0,0,0,0,0,-1,1182,1478,0,0
-35,-454,0,0,0,0,0,0,0,0,0,-1,1189,1478,0,0
-28,-454,0,0,0,0,0,0,0,0,0,-1,1196,1478,0,0
-21,-454,0,0,0,0,0,0,0,0,0,-1,1203,1478,0,0
-14,-454,0,0,0,0,0,0,0,0,0,-1,1210,1478,0,0
-7,-454,0,0,0,0,0,0,0,0,0,-1,1217,1478,0,0
0,-454,0,0,0,0,0,0,0,0,0,-1,1224,1478,0,0
7,-454,0,0,0,0,0,0,0,0,0,-1,1231,1478,0,0
14,-454,0,0,0,0,0,0,0,0,0,-1,1238,1478,0,0
21,-454,0,0,0,0,0,0,0,0,0,-1,1245,1478,0,0
28,-454,0,0,0,0,0,0,0,0,0,-1,1252,1478,0,0
35,-454,0,0,0,0,0,0,0,0,0,-1,1259,1478,0,0
42,-454,0,0,0,0,0,0,0,0,0,-1,1266,1478,0,0
49,-454,0,0,0,0,0,0,0,0,0,-1,1273,1478,0,0
56,-454,0,0,0,0,0,0,0,0,0,-1,1280,1478,0,0
63,-454,0,0,0,0,0,0,0,0,0,-1,1287,1478,0,0
70,-454,0,0,0,0,0,0,0,0,0,-1,1294,1478,0,0
77,-454,0,0,0,0,0,0,0,0,0,-1,1301,1478,0,0
84,-454,0,0,0,0,0,0,0,0,0,-1,1308,1478,0,0
91,-454,0,0,0,0,0,0,0,0,0,-1,1315,1478,0,0
98,-454,0,0,0,0,0,0,0,0,0,-1,1322,1478,0,0
105,-454,0,0,0,0,0,0,0,0,0,-1,1329,1478,0,0
112,-454,0,0,0,0,0,0,0,0,0,-1,1336,1478,0,0
119,-454,0,0,0,0,0,0,0,0,0,-1,1343,1478,0,0
126,-454,0,0,0,0,0,0,0,0,0,-1,1350,1478,0,0
133,-454,0,0,0,0,0,0,0,0,0,-1,1357,1478,0,0
140,-454,0,0,0,0,0,0,0,0,0,-1,1364,1478,0,0
147,-454,0,0,0,0,0,0,0,0,0,-1,1371,1478,0,0
154,-454,0,0,0,0,0,0,0,0,0,-1,1378,1478,0,0
161,-454,0,0,0,0,0,0,0,0,0,-1,1385,1478,0,0
168,-454,0,0,0,0,0,0,0,0,0,-1,1392,1478,0,0
175,-454,0,0,0,0,0,0,0,0,0,-1,1399,1478,0,0
182,-454,0,0,0,0,0,0,0,0,0,-1,1406,1478,0,0
189,-454,0,0,0,0,0,0,0,0,0,-1,1413,1478,0,0
196,-454,0,0,0,0,0,0,0,0,0,-1,1420,1478,0,0
203,-454,0,0,0,0,0,0,0,0,0,-1,1427,1478,0,0
210,-454,0,0,0,0,0,0,0,0,0,-1,1434,1478,0,0
217,-454,0,0,0,0,0,0,0,0,0,-1,1441,1478,0,0
224,-454,0,0,0,0,0,0,0,0,0,-1,1448,1478,0,0
231,-454,0,0,0,0,0,0,0,0,0,-1,1455,1478,0,0
238,-454,0,0,0,0,0,0,0,0,0,-1,1462,1478,0,0
245,-454,0,0,0,0,0,0,0,0,0,-1,1469,1478,0,0
252,-454,0,0,0,0,0,0,0,0,0,-1,1476,1478,0,0
259,-454,0,0,0,0,0,0,0,0,0,-1,1483,1478,0,0
266,-454,0,0,0,0,0,0,0,0,0,-1,1490,1478,0,0
273,-454,0,0,0,0,0,0,0,0,0,-1,1497,1478,0,0
280,-454,0,0,0,0,0,0,0,0,0,-1,1504,1478,0,0
287,-454,0,0,0,0,0,0,0,0,0,-1,1511,1478,0,0
294,-454,0,0,0,0,0,0,0,0,0,-1,1518,1478,0,0
301,-454,0,0,0,0,0,0,0,0,0,-1,1525,1478,0,0
308,-454,0,0,0,0,0,0,0,0,0,-1,1532,1478,0,0
315,-454,0,0,0,0,0,0,0,0,0,-1,1539,1478,0,0
322,-454,0,0,0,0,0,0,0,0,0,-1,1546,1478,0,0
329,-454,0,0,0,0,0,0,0,0,0,-1,1553,1478,0,0
336,-454,0,0,0,0,0,0,0,0,0,-1,1560,1478,0,0
343,-454,0,0,0,0,0,0,0,0,0,-1,1567,1478,0,0
350,-454,0,0,0,0,0,0,0,0,0,-1,1574,1478,0,0
357,-454,0,0,0,0,0,0,0,0,0,-1,1581,1478,0,0
364,-454,0,0,0,0,0,0,0,0,0,-1,1588,1478,0,0
371,-454,0,0,0,0,0,0,0,0,0,-1,1595,1478,0,0
378,-454,0,0,0,0,0,0,0,0,0,-1,1602,1478,0,0
385,-454,0,0,0,0,0,0,0,0,0,-1,1609,1478,0,0
392,-454,0,0,0,0,0,0,0,0,0,-1,1616,1478,0,0
399,-454,0,0,0,0,0,0,0,0,0,-1,1623,1478,0,0
406,-454,0,0,0,0,0,0,0,0,0,-1,1630,1478,0,0
413,-454,0,0,0,0,0,0,0,0,0,-1,1637,1478,0,0
420,-454,0,0,0,0,0,0,0,0,0,-1,1644,1478,0,0
427,-454,0,0,0,0,0,0,0,0,0,-1,1651,1478,0,0
434,-454,0,0,0,0,0,0,0,0,0,-1,1658,1478,0,0
441,-454,0,0,0,0,0,0,0,0,0,-1,1665,1478,0,0
448,-454,0,0,0,0,0,0,0,0,0,-1,1672,1478,0,0
455,-454,0,0,0,0,0,0,0,0,0,-1,1679,1478,0,0
462,-454,0,0,0,0,0,0,0,0,0,-1,1686,1478,0,0
469,-454,0,0,0,0,0,0,0,0,0,-1,1693,1478,0,0
476,-454,0,0,0,0,0,0,0,0,0,-1,1700,1478,0,0
483,-454,14.2399,3.97498,0,0,0,0,0,0,0,-1,1707,1478,14.2399,-3.97502
490,-454,18.1821,-0.175781,0,0,0,0,0,0,0,-1,1714,1478,18.1821,0.175822
497,-454,16.8854,1.01208,0,0,0,0,0,0,0,-1,1721,1478,16.8854,-1.01209
504,-454,15.587,2.05994,0,0,0,0,0,0,0,-1,1728,1478,15.5871,-2.05998
511,-454,17.0273,14.5258,0,0,0,0,0,0,0,-1,1735,1478,17.0273,-14.5258
518,-454,16.4158,13.1039,0,0,0,0,0,0,0,-1,1742,1478,16.4157,-13.1038
525,-454,15.7842,11.6628,0,0,0,0,0,0,0,-1,1749,1478,15.7841,-11.6629
532,-454,15.1094,10.2476,0,0,0,0,0,0,0,-1,1756,1478,15.1094,-10.2475
539,-454,13.7905,10.9373,0,0,0,0,0,0,0,-1,1763,1478,13.7906,-10.9372
546,-454,16.2002,13.2458,0,0,0,0,0,0,0,-1,1770,1478,16.2002,-13.2459
553,-454,15.6747,12.1868,0,0,0,0,0,0,0,-1,1777,1478,15.6747,-12.1868
560,-454,16.3895,14.0527,0,0,0,0,0,0,0,-1,1784,1478,16.3895,-14.0528
567,-454,25.8402,22.0284,0,0,0,0,0,0,0,-1,1791,1478,25.8402,-22.0285
574,-454,25.6862,21.2589,0.00738914,0.00618968,-0.00511106,0.0119355,0.00164329,-0.726996,0.00746975,0.0416054,1798,1478,25.6862,-21.2589
581,-454,25.6401,20.635,0.00601539,0.00514797,-0.00431862,0.00992202,0.00124134,-0.735352,0.00624218,0.0249634,1805,1478,25.6401,-20.635
588,-454,25.6963,20.0172,0.00479949,0.00401017,-0.00352448,0.00795134,0.000858327,-0.729642,0.00503921,0.0141679,1812,1478,25.6962,-20.0172
595,-454,25.6451,19.4673,0.00381712,0.00304296,-0.0028023,0.00625895,0.000601131,-0.716767,0.00398739,0.0115443,1819,1478,25.6451,-19.4673
602,-454,25.6222,18.889,0.00312822,0.00207717,-0.00211848,0.00478538,0.00042001,-0.663819,0.00305987,0.00859001,1826,1478,25.6222,-18.889
609,-454,25.6184,18.3258,0.00264441,0.00122544,-0.00147843,0.00357478,0.00029507,-0.561682,0.00229117,0.0106028,1833,1478,25.6184,-18.3258
616,-454,25.6125,17.7675,0.00232223,0.000519875,-0.000936688,0.00272086,0.000121244,-0.402358,0.00177488,0.0137237,1840,1478,25.6126,-17.7675
623,-454,25.6157,17.2218,0.00226509,-0.000162948,-0.000437367,0.00234147,-0.000239329,-0.172895,0.00164656,0.0141835,1847,1478,25.6157,-17.2218
630,-454,25.5922,16.6649,0.00243384,-0.00080881,4.56228e-06,0.00243385,-0.000808816,0.00140695,0.00194894,0.0139829,1854,1478,25.5922,-16.6649
637,-454,25.5245,16.1051,0.00282176,-0.00120783,0.000264824,0.00283909,-0.00122516,0.0653453,0.00240738,0.0123085,1861,1478,25.5246,-16.1052
644,-454,25.6091,15.5112,0.0034607,-0.00153039,0.000403807,0.00349316,-0.00156285,0.0802103,0.00298916,0.0221151,1868,1478,25.6092,-15.5112
651,-454,25.7831,14.8292,0,0,0,0,0,0,0,-1,1875,1478,25.7831,-14.8293
658,-454,17.2583,10.0765,0,0,0,0,0,0,0,-1,1882,1478,17.2583,-10.0765
665,-454,17.683,9.67566,0,0,0,0,0,0,0,-1,1889,1478,17.683,-9.67572
672,-454,16.5476,6.41931,0,0,0,0,0,0,0,-1,1896,1478,16.5476,-6.41929
679,-454,14.2161,5.45007,0,0,0,0,0,0,0,-1,1903,1478,14.2161,-5.45013
686,-454,10.3767,2.12842,0,0,0,0,0,0,0,-1,1910,1478,10.3767,-2.12839
693,-454,11.1857,1.48486,0,0,0,0,0,0,0,-1,1917,1478,11.1857,-1.48487
700,-454,0,0,0,0,0,0,0,0,0,-1,1924,1478,0,0
707,-454,0,0,0,0,0,0,0,0,0,-1,1931,1478,0,0
714,-454,0,0,0,0,0,0,0,0,0,-1,1938,1478,0,0
721,-454,0,0,0,0,0,0,0,0,0,-1,1945,1478,0,0
728,-454,0,0,0,0,0,0,0,0,0,-1,1952,1478,0,0
735,-454,0,0,0,0,0,0,0,0,0,-1,1959,1478,0,0
742,-454,0,0,0,0,0,0,0,0,0,-1,1966,1478,0,0
749,-454,0,0,0,0,0,0,0,0,0,-1,1973,1478,0,0
756,-454,0,0,0,0,0,0,0,0,0,-1,1980,1478,0,0
763,-454,0,0,0,0,0,0,0,0,0,-1,1987,1478,0,0
770,-454,0,0,0,0,0,0,0,0,0,-1,1994,1478,0,0
777,-454,0,0,0,0,0,0,0,0,0,-1,2001,1478,0,0
784,-454,0,0,0,0,0,0,0,0,0,-1,2008,1478,0,0
791,-454,0,0,0,0,0,0,0,0,0,-1,2015,1478,0,0
798,-454,0,0,0,0,0,0,0,0,0,-1,2022,1478,0,0
805,-454,0,0,0,0,0,0,0,0,0,-1,2029,1478,0,0
812,-454,0,0,0,0,0,0,0,0,0,-1,2036,1478,0,0
-700,-461,0,0,0,0,0,0,0,0,0,-1,524,1485,0,0
-693,-461,0,0,0,0,0,0,0,0,0,-1,531,1485,0,0
-686,-461,0,0,0,0,0,0,0,0,0,-1,538,1485,0,0
-679,-461,0,0,0,0,0,0,0,0,0,-1,545,1485,0,0
-672,-461,0,0,0,0,0,0,0,0,0,-1,552,1485,0,0
-665,-461,0,0,0,0,0,0,0,0,0,-1,559,1485,0,0
-658,-461,0,0,0,0,0,0,0,0,0,-1,566,1485,0,0
-651,-461,0,0,0,0,0,0,0,0,0,-1,573,1485,0,0
-644,-461,0,0,0,0,0,0,0,0,0,-1,580,1485,0,0
-637,-461,0,0,0,0,0,0,0,0,0,-1,587,1485,0,0
-630,-461,0,0,0,0,0,0,0,0,0,-1,594,1485,0,0
-623,-461,0,0,0,0,0,0,0,0,0,-1,601,1485,0,0
-616,-461,0,0,0,0,0,0,0,0,0,-1,608,1485,0,0
-609,-461,0,0,0,0,0,0,0,0,0,-1,615,1485,0,0
-602,-461,0,0,0,0,0,0,0,0,0,-1,622,1485,0,0
-595,-461,0,0,0,0,0,0,0,0,0,-1,629,1485,0,0
-588,-461,0,0,0,0,0,0,0,0,0,-1,636,1485,0,0
-581,-461,0,0,0,0,0,0,0,0,0,-1,643,1485,0,0
-574,-461,0,0,0,0,0,0,0,0,0,-1,650,1485,0,0
-567,-461,-9.69031,0.513306,0,0,0,0,0,0,0,-1,657,1485,-9.69032,-0.513305
-560,-461,-7.28815,1.54004,0,0,0,0,0,0,0,-1,664,1485,-7.28817,-1.54005
-553,-461,-11.9607,5.27783,0,0,0,0,0,0,0,-1,671,1485,-11.9607,-5.27778
-546,-461,-11.4215,4.44666,0,0,0,0,0,0,0,-1,678,1485,-11.4215,-4.4467
-539,-461,-9.36493,5.23438,0,0,0,0,0,0,0,-1,685,1485,-9.3649,-5.23432
-532,-461,-7.82898,6.78357,0,0,0,0,0,0,0,-1,692,1485,-7.829,-6.78363
-525,-461,-6.37878,8.75659,0,0,0,0,0,0,0,-1,699,1485,-6.3788,-8.75659
-518,-461,-6.49695,10.886,0,0,0,0,0,0,0,-1,706,1485,-6.49696,-10.8859
-511,-461,-8.88922,13.8212,0,0,0,0,0,0,0,-1,713,1485,-8.88921,-13.8212
-504,-461,-8.79816,14.3816,0.00126911,0.000500403,0.00180517,0.0027304,-0.00096088,0.680505,0.00221128,0.0306935,720,1485,-8.79817,-14.3816
-497,-461,-8.72284,15.0929,0.000879629,0.00028207,0.00130073,0.00191545,-0.000753752,0.672506,0.00158897,0.0115259,727,1485,-8.72282,-15.0929
-490,-461,-8.73297,15.7012,0.00066631,0.000226544,0.000964117,0.0014353,-0.000542446,0.673283,0.00118,0.0123545,734,1485,-8.73295,-15.7011
-483,-461,-8.77484,16.3047,0.000662044,0.00038083,0.000847918,0.00138093,-0.00033806,0.703233,0.00105158,0.0126289,741,1485,-8.77482,-16.3047
-476,-461,-8.82898,16.9023,0.000847559,0.000727001,0.000946398,0.0017356,-0.000161036,0.753595,0.00121431,0.0112598,748,1485,-8.829,-16.9023
-469,-461,-8.84772,17.4989,0.00120988,0.00131015,0.00121946,0.0024805,3.95315e-05,0.805943,0.00164065,0.0123513,755,1485,-8.84774,-17.4989
-462,-461,-8.875,18.0851,0.00174537,0.00202689,0.00165883,0.00355092,0.000221338,0.827725,0.00229706,0.0174272,762,1485,-8.875,-18.0851
-455,-461,-8.91559,18.657,0.00249449,0.00296782,0.00232262,0.0050658,0.0003965,0.836171,0.0032531,0.0222631,769,1485,-8.91558,-18.657
-448,-461,-8.90332,19.2825,0.00356688,0.00434607,0.00333439,0.00731356,0.0005994,0.843555,0.00468869,0.0202526,776,1485,-8.90334,-19.2824
-441,-461,-8.84021,20.0082,0.00499004,0.0059396,0.004677,0.0101659,0.000763782,0.835982,0.00653753,0.0310559,783,1485,-8.84021,-20.0082
-434,-461,-8.77228,20.6755,0,0,0,0,0,0,0,-1,790,1485,-8.77226,-20.6756
-427,-461,-8.26154,21.546,0,0,0,0,0,0,0,-1,797,1485,-8.26153,-21.5461
-420,-461,-5.70355,16.6116,0,0,0,0,0,0,0,-1,804,1485,-5.70353,-16.6115
-413,-461,-5.98798,16.0605,0,0,0,0,0,0,0,-1,811,1485,-5.98796,-16.0605
-406,-461,-5.52667,14.839,0,0,0,0,0,0,0,-1,818,1485,-5.52666,-14.839
-399,-461,-1.93439,9.82849,0,0,0,0,0,0,0,-1,825,1485,-1.9344,-9.82846
-392,-461,-0.357544,5.55225,0,0,0,0,0,0,0,-1,832,1485,-0.357536,-5.55228
-385,-461,1.71509,3.35254,0,0,0,0,0,0,0,-1,839,1485,1.71511,-3.35255
-378,-461,1.95996,3.01111,0,0,0,0,0,0,0,-1,846,1485,1.95993,-3.01111
-371,-461,0.702881,2.33459,0,0,0,0,0,0,0,-1,853,1485,0.702859,-2.33459
-364,-461,-1.93097,2.56458,0,0,0,0,0,0,0,-1,860,1485,-1.93095,-2.56456
-357,-461,-2.41516,3.49487,0,0,0,0,0,0,0,-1,867,1485,-2.41517,-3.49487
-350,-461,0,0,0,0,0,0,0,0,0,-1,874,1485,0,0
-343,-461,0,0,0,0,0,0,0,0,0,-1,881,1485,0,0
-336,-461,0,0,0,0,0,0,0,0,0,-1,888,1485,0,0
-329,-461,0,0,0,0,0,0,0,0,0,-1,895,1485,0,0
-322,-461,0,0,0,0,0,0,0,0,0,-1,902,1485,0,0
-315,-461,0,0,0,0,0,0,0,0,0,-1,909,1485,0,0
-308,-461,0,0,0,0,0,0,0,0,0,-1,916,1485,0,0
-301,-461,0,0,0,0,0,0,0,0,0,-1,923,1485,0,0
-294,-461,0,0,0,0,0,0,0,0,0,-1,930,1485,0,0
-287,-461,0,0,0,0,0,0,0,0,0,-1,937,1485,0,0
-280,-461,0,0,0,0,0,0,0,0,0,-1,944,1485,0,0
-273,-461,0,0,0,0,0,0,0,0,0,-1,951,1485,0,0
-266,-461,0,0,0,0,0,0,0,0,0,-1,958,1485,0,0
-259,-461,0,0,0,0,0,0,0,0,0,-1,965,1485,0,0
-252,-461,0,0,0,0,0,0,0,0,0,-1,972,1485,0,0
-245,-461,0,0,0,0,0,0,0,0,0,-1,979,1485,0,0
-238,-461,0,0,0,0,0,0,0,0,0,-1,986,1485,0,0
-231,-461,0,0,0,0,0,0,0,0,0,-1,993,1485,0,0
-224,-461,0,0,0,0,0,0,0,0,0,-1,1000,1485,0,0
-217,-461,0,0,0,0,0,0,0,0,0,-1,1007,1485,0,0
-210,-461,0,0,0,0,0,0,0,0,0,-1,1014,1485,0,0
-203,-461,0,0,0,0,0,0,0,0,0,-1,1021,1485,0,0
-196,-461,0,0,0,0,0,0,0,0,0,-1,1028,1485,0,0
-189,-461,0,0,0,0,0,0,0,0,0,-1,1035,1485,0,0
-182,-461,0,0,0,0,0,0,0,0,0,-1,1042,1485,0,0
-175,-461,0,0,0,0,0,0,0,0,0,-1,1049,1485,0,0
-168,-461,0,0,0,0,0,0,0,0,0,-1,1056,1485,0,0
-161,-461,0,0,0,0,0,0,0,0,0,-1,1063,1485,0,0
-154,-461,0,0,0,0,0,0,0,0,0,-1,1070,1485,0,0
-147,-461,0,0,0,0,0,0,0,0,0,-1,1077,1485,0,0
-140,-461,0,0,0,0,0,0,0,0,0,-1,1084,1485,0,0
-133,-461,0,0,0,0,0,0,0,0,0,-1,1091,1485,0,0
-126,-461,0,0,0,0,0,0,0,0,0,-1,1098,1485,0,0
-119,-461,0,0,0,0,0,0,0,0,0,-1,1105,1485,0,0
-112,-461,0,0,0,0,0,0,0,0,0,-1,1112,1485,0,0
-105,-461,0,0,0,0,0,0,0,0,0,-1,1119,1485,0,0
-98,-461,0,0,0,0,0,0,0,0,0,-1,1126,1485,0,0
-91,-461,0,0,0,0,0,0,0,0,0,-1,1133,1485,0,0
-84,-461,0,0,0,0,0,0,0,0,0,-1,1140,1485,0,0
-77,-461,0,0,0,0,0,0,0,0,0,-1,1147,1485,0,0
-70,-461,0,0,0,0,0,0,0,0,0,-1,1154,1485,0,0
-63,-461,0,0,0,0,0,0,0,0,0,-1,1161,1485,0,0
-56,-461,0,0,0,0,0,0,0,0,0,-1,1168,1485,0,0
-49,-461,0,0,0,0,0,0,0,0,0,-1,1175,1485,0,0
-42,-461,0,0,0,0,0,0,0,0,0,-1,1182,1485,0,0
-35,-461,0,0,0,0,0,0,0,0,0,-1,1189,1485,0,0
-28,-461,0,0,0,0,0,0,0,0,0,-1,1196,1485,0,0
-21,-461,0,0,0,0,0,0,0,0,0,-1,1203,1485,0,0
-14,-461,0,0,0,0,0,0,0,0,0,-1,1210,1485,0,0
-7,-461,0,0,0,0,0,0,0,0,0,-1,1217,1485,0,0
0,-461,0,0,0,0,0,0,0,0,0,-1,1224,1485,0,0
7,-461,0,0,0,0,0,0,0,0,0,-1,1231,1485,0,0
14,-461,0,0,0,0,0,0,0,0,0,-1,1238,1485,0,0
21,-461,0,0,0,0,0,0,0,0,0,-1,1245,1485,0,0
28,-461,0,0,0,0,0,0,0,0,0,-1,1252,1485,0,0
35,-461,0,0,0,0,0,0,0,0,0,-1,1259,1485,0,0
42,-461,0,0,0,0,0,0,0,0,0,-1,1266,1485,0,0
49,-461,0,0,0,0,0,0,0,0,0,-1,1273,1485,0,0
56,-461,0,0,0,0,0,0,0,0,0,-1,1280,1485,0,0
63,-461,0,0,0,0,0,0,0,0,0,-1,1287,1485,0,0
70,-461,0,0,0,0,0,0,0,0,0,-1,1294,1485,0,0
77,-461,0,0,0,0,0,0,0,0,0,-1,1301,1485,0,0
84,-461,0,0,0,0,0,0,0,0,0,-1,1308,1485,0,0
91,-461,0,0,0,0,0,0,0,0,0,-1,1315,1485,0,0
98,-461,0,0,0,0,0,0,0,0,0,-1,1322,1485,0,0
105,-461,0,0,0,0,0,0,0,0,0,-1,1329,1485,0,0
112,-461,0,0,0,0,0,0,0,0,0,-1,1336,1485,0,0
119,-461,0,0,0,0,0,0,0,0,0,-1,1343,1485,0,0
126,-461,0,0,0,0,0,0,0,0,0,-1,1350,1485,0,0
133,-461,0,0,0,0,0,0,0,0,0,-1,1357,1485,0,0
140,-461,0,0,0,0,0,0,0,0,0,-1,1364,1485,0,0
147,-461,0,0,0,0,0,0,0,0,0,-1,1371,1485,0,0
154,-461,0,0,0,0,0,0,0,0,0,-1,1378,1485,0,0
161,-461,0,0,0,0,0,0,0,0,0,-1,1385,1485,0,0
168,-461,0,0,0,0,0,0,0,0,0,-1,1392,1485,0,0
175,-461,0,0,0,0,0,0,0,0,0,-1,1399,1485,0,0
182,-461,0,0,0,0,0,0,0,0,0,-1,1406,1485,0,0
189,-461,0,0,0,0,0,0,0,0,0,-1,1413,1485,0,0
196,-461,0,0,0,0,0,0,0,0,0,-1,1420,1485,0,0
203,-461,0,0,0,0,0,0,0,0,0,-1,1427,1485,0,0
210,-461,0,0,0,0,0,0,0,0,0,-1,1434,1485,0,0
217,-461,0,0,0,0,0,0,0,0,0,-1,1441,1485,0,0
224,-461,0,0,0,0,0,0,0,0,0,-1,1448,1485,0,0
231,-461,0,0,0,0,0,0,0,0,0,-1,1455,1485,0,0
238,-461,0,0,0,0,0,0,0,0,0,-1,1462,1485,0,0
245,-461,0,0,0,0,0,0,0,0,0,-1,1469,1485,0,0
252,-461,0,0,0,0,0,0,0,0,0,-1,1476,1485,0,0
259,-461,0,0,0,0,0,0,0,0,0,-1,1483,1485,0,0
266,-461,0,0,0,0,0,0,0,0,0,-1,1490,1485,0,0
273,-461,0,0,0,0,0,0,0,0,0,-1,1497,1485,0,0
280,-461,0,0,0,0,0,0,0,0,0,-1,1504,1485,0,0
287,-461,0,0,0,0,0,0,0,0,0,-1,1511,1485,0,0
294,-461,0,0,0,0,0,0,0,0,0,-1,1518,1485,0,0
301,-461,0,0,0,0,0,0,0,0,0,-1,1525,1485,0,0
308,-461,0,0,0,0,0,0,0,0,0,-1,1532,1485,0,0
315,-461,0,0,0,0,0,0,0,0,0,-1,1539,1485,0,0
322,-461,0,0,0,0,0,0,0,0,0,-1,1546,1485,0,0
329,-461,0,0,0,0,0,0,0,0,0,-1,1553,1485,0,0
336,-461,0,0,0,0,0,0,0,0,0,-1,1560,1485,0,0
343,-461,0,0,0,0,0,0,0,0,0,-1,1567,1485,0,0
350,-461,0,0,0,0,0,0,0,0,0,-1,1574,1485,0,0
357,-461,0,0,0,0,0,0,0,0,0,-1,1581,1485,0,0
364,-461,0,0,0,0,0,0,0,0,0,-1,1588,1485,0,0
371,-461,0,0,0,0,0,0,0,0,0,-1,1595,1485,0,0
378,-461,0,0,0,0,0,0,0,0,0,-1,1602,1485,0,0
385,-461,0,0,0,0,0,0,0,0,0,-1,1609,1485,0,0
392,-461,0,0,0,0,0,0,0,0,0,-1,1616,1485,0,0
399,-461,0,0,0,0,0,0,0,0,0,-1,1623,1485,0,0
406,-461,0,0,0,0,0,0,0,0,0,-1,1630,1485,0,0
413,-461,0,0,0,0,0,0,0,0,0,-1,1637,1485,0,0
420,-461,0,0,0,0,0,0,0,0,0,-1,1644,1485,0,0
427,-461,0,0,0,0,0,0,0,0,0,-1,1651,1485,0,0
434,-461,0,0,0,0,0,0,0,0,0,-1,1658,1485,0,0
441,-461,0,0,0,0,0,0,0,0,0,-1,1665,1485,0,0
448,-461,0,0,0,0,0,0,0,0,0,-1,1672,1485,0,0
455,-461,0,0,0,0,0,0,0,0,0,-1,1679,1485,0,0
462,-461,0,0,0,0,0,0,0,0,0,-1,1686,1485,0,0
469,-461,0,0,0,0,0,0,0,0,0,-1,1693,1485,0,0
476,-461,14.1906,0.690552,0,0,0,0,0,0,0,-1,1700,1485,14.1906,-0.690525
483,-461,10.6361,3.09106,0,0,0,0,0,0,0,-1,1707,1485,10.6361,-3.091
490,-461,17.9972,0.665894,0,0,0,0,0,0,0,-1,1714,1485,17.9972,-0.665876
497,-461,16.6829,1.87732,0,0,0,0,0,0,0,-1,1721,1485,16.6828,-1.87736
504,-461,15.3884,3.09216,0,0,0,0,0,0,0,-1,1728,1485,15.3885,-3.09212
511,-461,15.4292,14.3512,0,0,0,0,0,0,0,-1,1735,1485,15.4292,-14.3512
518,-461,14.8081,10.0085,0,0,0,0,0,0,0,-1,1742,1485,14.8081,-10.0086
525,-461,14.0022,10.8033,0,0,0,0,0,0,0,-1,1749,1485,14.0022,-10.8033
532,-461,17.1704,14.077,0,0,0,0,0,0,0,-1,1756,1485,17.1704,-14.077
539,-461,17.0229,14.7386,0,0,0,0,0,0,0,-1,1763,1485,17.0229,-14.7387
546,-461,16.2106,14.1372,0,0,0,0,0,0,0,-1,1770,1485,16.2106,-14.1372
553,-461,24.5568,22.7848,0,0,0,0,0,0,0,-1,1777,1485,24.5567,-22.7848
560,-461,24.9913,22.0197,0,0,0,0,0,0,0,-1,1784,1485,24.9913,-22.0196
567,-461,25.1569,21.626,0.00763568,0.00596967,-0.00463134,0.0115083,0.00209702,-0.696418,0.00707753,0.0343468,1791,1485,25.1569,-21.626
574,-461,25.167,21.1499,0.0061507,0.00494536,-0.00396713,0.00956068,0.00153538,-0.710017,0.00592864,0.0301915,1798,1485,25.167,-21.1499
581,-461,25.1686,20.5774,0.00497508,0.00403097,-0.00333722,0.00787346,0.00113259,-0.715139,0.00491514,0.0177835,1805,1485,25.1685,-20.5774
588,-461,25.1309,20.0356,0.00396293,0.00305865,-0.00268415,0.00623275,0.000788819,-0.701958,0.00391878,0.0111392,1812,1485,25.1308,-20.0356
595,-461,25.0867,19.5017,0.00322883,0.00221831,-0.00210976,0.00489299,0.000554148,-0.667868,0.00309387,0.00871491,1819,1485,25.0867,-19.5017
602,-461,25.0774,18.9186,0.00271395,0.00139323,-0.00158085,0.00376682,0.000340353,-0.587552,0.0024058,0.00913525,1826,1485,25.0773,-18.9185
609,-461,25.0636,18.348,0.0023759,0.000664702,-0.00105954,0.00288217,0.000158433,-0.445745,0.00187087,0.0110519,1833,1485,25.0636,-18.348
616,-461,25.0544,17.7853,0.00219819,3.49505e-05,-0.00059663,0.00235183,-0.00011869,-0.252038,0.00160891,0.0136069,1840,1485,25.0544,-17.7853
623,-461,25.0634,17.2524,0.00226913,-0.000619844,-0.00014109,0.002276,-0.000626718,-0.0486831,0.00176375,0.0161301,1847,1485,25.0633,-17.2525
630,-461,25.0177,16.7249,0.00255491,-0.00121744,0.000281897,0.00257586,-0.00123839,0.074178,0.00224683,0.0164843,1854,1485,25.0177,-16.7248
637,-461,24.9734,16.1477,0.00316068,-0.00147141,0.000467303,0.00320735,-0.00151808,0.0995473,0.00278573,0.0153762,1861,1485,24.9733,-16.1477
644,-461,25.048,15.6488,0.00400188,-0.001771,0.000600469,0.00406367,-0.0018328,0.102553,0.0034846,0.0291489,1868,1485,25.048,-15.6488
651,-461,25.1646,15.1145,0,0,0,0,0,0,0,-1,1875,1485,25.1645,-15.1145
658,-461,16.8987,10.1084,0,0,0,0,0,0,0,-1,1882,1485,16.8986,-10.1084
665,-461,17.2638,9.81384,0,0,0,0,0,0,0,-1,1889,1485,17.2638,-9.81385
672,-461,14.4877,6.89429,0,0,0,0,0,0,0,-1,1896,1485,14.4876,-6.89431
679,-461,10.0535,2.16321,0,0,0,0,0,0,0,-1,1903,1485,10.0535,-2.16317
686,-461,10.8195,1.84192,0,0,0,0,0,0,0,-1,1910,1485,10.8194,-1.84195
693,-461,0,0,0,0,0,0,0,0,0,-1,1917,1485,0,0
700,-461,0,0,0,0,0,0,0,0,0,-1,1924,1485,0,0
707,-461,0,0,0,0,0,0,0,0,0,-1,1931,1485,0,0
714,-461,0,0,0,0,0,0,0,0,0,-1,1938,1485,0,0
721,-461,0,0,0,0,0,0,0,0,0,-1,1945,1485,0,0
728,-461,0,0,0,0,0,0,0,0,0,-1,1952,1485,0,0
735,-461,0,0,0,0,0,0,0,0,0,-1,1959,1485,0,0
742,-461,0,0,0,0,0,0,0,0,0,-1,1966,1485,0,0
749,-461,0,0,0,0,0,0,0,0,0,-1,1973,1485,0,0
756,-461,0,0,0,0,0,0,0,0,0,-1,1980,1485,0,0
763,-461,0,0,0,0,0,0,0,0,0,-1,1987,1485,0,0
770,-461,0,0,0,0,0,0,0,0,0,-1,1994,1485,0,0
777,-461,0,0,0,0,0,0,0,0,0,-1,2001,1485,0,0
784,-461,0,0,0,0,0,0,0,0,0,-1,2008,1485,0,0
791,-461,0,0,0,0,0,0,0,0,0,-1,2015,1485,0,0
798,-461,0,0,0,0,0,0,0,0,0,-1,2022,1485,0,0
805,-461,0,0,0,0,0,0,0,0,0,-1,2029,1485,0,0
812,-461,0,0,0,0,0,0,0,0,0,-1,2036,1485,0,0
-700,-468,0,0,0,0,0,0,0,0,0,-1,524,1492,0,0
-693,-468,0,0,0,0,0,0,0,0,0,-1,531,1492,0,0
-686,-468,0,0,0,0,0,0,0,0,0,-1,538,1492,0,0
-679,-468,0,0,0,0,0,0,0,0,0,-1,545,1492,0,0
-672,-468,0,0,0,0,0,0,0,0,0,-1,552,1492,0,0
-665,-468,0,0,0,0,0,0,0,0,0,-1,559,1492,0,0
-658,-468,0,0,0,0,0,0,0,0,0,-1,566,1492,0,0
-651,-468,0,0,0,0,0,0,0,0,0,-1,573,1492,0,0
-644,-468,0,0,0,0,0,0,0,0,0,-1,580,1492,0,0
-637,-468,0,0,0,0,0,0,0,0,0,-1,587,1492,0,0
-630,-468,0,0,0,0,0,0,0,0,0,-1,594,1492,0,0
-623,-468,0,0,0,0,0,0,0,0,0,-1,601,1492,0,0
-616,-468,0,0,0,0,0,0,0,0,0,-1,608,1492,0,0
-609,-468,0,0,0,0,0,0,0,0,0,-1,615,1492,0,0
-602,-468,0,0,0,0,0,0,0,0,0,-1,622,1492,0,0
-595,-468,0,0,0,0,0,0,0,0,0,-1,629,1492,0,0
-588,-468,0,0,0,0,0,0,0,0,0,-1,636,1492,0,0
-581,-468,0,0,0,0,0,0,0,0,0,-1,643,1492,0,0
-574,-468,0,0,0,0,0,0,0,0,0,-1,650,1492,0,0
-567,-468,-11.2603,1.8042,0,0,0,0,0,0,0,-1,657,1492,-11.2603,-1.80424
-560,-468,-8.77441,2.23694,0,0,0,0,0,0,0,-1,664,1492,-8.77443,-2.23692
-553,-468,-5.94061,9.26318,0,0,0,0,0,0,0,-1,671,1492,-5.94062,-9.26322
-546,-468,-10.47,5.43237,0,0,0,0,0,0,0,-1,678,1492,-10.47,-5.4324
-539,-468,-10.2468,5.45203,0,0,0,0,0,0,0,-1,685,1492,-10.2468,-5.45197
-532,-468,-8.39795,6.02783,0,0,0,0,0,0,0,-1,692,1492,-8.39793,-6.02789
-525,-468,-6.59332,7.15405,0,0,0,0,0,0,0,-1,699,1492,-6.59331,-7.15411
-518,-468,-6.33588,8.65393,0,0,0,0,0,0,0,-1,706,1492,-6.33588,-8.65397
-511,-468,-8.05835,13.8282,0,0,0,0,0,0,0,-1,713,1492,-8.05835,-13.8283
-504,-468,-8.01782,14.431,0.00122862,0.000421076,0.00214247,0.00300503,-0.00135534,0.69226,0.00257682,0.0489079,720,1492,-8.01784,-14.431
-497,-468,-8.15002,15.059,0.000578685,7.91595e-06,0.00141233,0.00173417,-0.00114757,0.685707,0.00167523,0.0213982,727,1492,-8.15005,-15.059
-490,-468,-8.13953,15.7228,0.000180667,-0.000220954,0.000883026,0.000885429,-0.000925715,0.673594,0.00104575,0.00790785,734,1492,-8.1395,-15.7228
-483,-468,-8.18243,16.3242,6.3561e-05,-0.000180601,0.000628739,0.000581962,-0.000699002,0.689507,0.000740593,0.00863125,741,1492,-8.18246,-16.3243
-476,-468,-8.21973,16.9381,0.000185842,8.04552e-05,0.000606294,0.000741728,-0.000475431,0.742052,0.000708311,0.00930506,748,1492,-8.2197,-16.9381
-469,-468,-8.22845,17.5394,0.000520358,0.000602666,0.000785364,0.00134795,-0.000224929,0.811575,0.000982234,0.0126132,755,1492,-8.22844,-17.5394
-462,-468,-8.22626,18.1244,0.00103719,0.00127639,0.00112852,0.00229164,2.19478e-05,0.838191,0.00152049,0.0220832,762,1492,-8.22627,-18.1244
-455,-468,-8.27625,18.6803,0.00174494,0.00214902,0.00165471,0.00361398,0.000279989,0.846147,0.00232162,0.0230253,769,1492,-8.27626,-18.6803
-448,-468,-8.3136,19.2943,0.00277119,0.00344273,0.00253257,0.00566169,0.000552229,0.851304,0.00360451,0.0141346,776,1492,-8.31362,-19.2943
-441,-468,-8.33154,19.9041,0.00412339,0.005023,0.00374375,0.00834387,0.000802514,0.845186,0.00531531,0.0140314,783,1492,-8.33155,-19.9041
-434,-468,-8.29944,20.5938,0.00583907,0.00715422,0.00538717,0.0119238,0.00106949,0.846129,0.00761776,0.0260055,790,1492,-8.29944,-20.5937
-427,-468,-8.29224,21.2926,0,0,0,0,0,0,0,-1,797,1492,-8.29222,-21.2926
-420,-468,-7.57581,22.0538,0,0,0,0,0,0,0,-1,804,1492,-7.57582,-22.0538
-413,-468,-5.30328,17.3519,0,0,0,0,0,0,0,-1,811,1492,-5.30329,-17.352
-406,-468,-2.2356,9.396,0,0,0,0,0,0,0,-1,818,1492,-2.2356,-9.396
-399,-468,-0.940369,8.1936,0,0,0,0,0,0,0,-1,825,1492,-0.940365,-8.19357
-392,-468,-0.35144,8.14673,0,0,0,0,0,0,0,-1,832,1492,-0.351449,-8.14674
-385,-468,0.465759,5.35864,0,0,0,0,0,0,0,-1,839,1492,0.465732,-5.35864
-378,-468,1.99835,3.25391,0,0,0,0,0,0,0,-1,846,1492,1.99837,-3.2539
-371,-468,-0.31842,3.1532,0,0,0,0,0,0,0,-1,853,1492,-0.318441,-3.15324
-364,-468,-0.966736,2.14563,0,0,0,0,0,0,0,-1,860,1492,-0.966735,-2.14557
-357,-468,-3.06787,3.22742,0,0,0,0,0,0,0,-1,867,1492,-3.06784,-3.2274
-350,-468,-3.18658,4.12659,0,0,0,0,0,0,0,-1,874,1492,-3.18659,-4.12658
-343,-468,0,0,0,0,0,0,0,0,0,-1,881,1492,0,0
-336,-468,0,0,0,0,0,0,0,0,0,-1,888,1492,0,0
-329,-468,0,0,0,0,0,0,0,0,0,-1,895,1492,0,0
-322,-468,0,0,0,0,0,0,0,0,0,-1,902,1492,0,0
-315,-468,0,0,0,0,0,0,0,0,0,-1,909,1492,0,0
-308,-468,0,0,0,0,0,0,0,0,0,-1,916,1492,0,0
-301,-468,0,0,0,0,0,0,0,0,0,-1,923,1492,0,0
-294,-468,0,0,0,0,0,0,0,0,0,-1,930,1492,0,0
-287,-468,0,0,0,0,0,0,0,0,0,-1,937,1492,0,0
-280,-468,0,0,0,0,0,0,0,0,0,-1,944,1492,0,0
-273,-468,0,0,0,0,0,0,0,0,0,-1,951,1492,0,0
-266,-468,0,0,0,0,0,0,0,0,0,-1,958,1492,0,0
-259,-468,0,0,0,0,0,0,0,0,0,-1,965,1492,0,0
-252,-468,0,0,0,0,0,0,0,0,0,-1,972,1492,0,0
-245,-468,0,0,0,0,0,0,0,0,0,-1,979,1492,0,0
-238,-468,0,0,0,0,0,0,0,0,0,-1,986,1492,0,0
-231,-468,0,0,0,0,0,0,0,0,0,-1,993,1492,0,0
-224,-468,0,0,0,0,0,0,0,0,0,-1,1000,1492,0,0
-217,-468,0,0,0,0,0,0,0,0,0,-1,1007,1492,0,0
-210,-468,0,0,0,0,0,0,0,0,0,-1,1014,1492,0,0
-203,-468,0,0,0,0,0,0,0,0,0,-1,1021,1492,0,0
-196,-468,0,0,0,0,0,0,0,0,0,-1,1028,1492,0,0
-189,-468,0,0,0,0,0,0,0,0,0,-1,1035,1492,0,0
-182,-468,0,0,0,0,0,0,0,0,0,-1,1042,1492,0,0
-175,-468,0,0,0,0,0,0,0,0,0,-1,1049,1492,0,0
-168,-468,0,0,0,0,0,0,0,0,0,-1,1056,1492,0,0
-161,-468,0,0,0,0,0,0,0,0,0,-1,1063,1492,0,0
-154,-468,0,0,0,0,0,0,0,0,0,-1,1070,1492,0,0
-147,-468,0,0,0,0,0,0,0,0,0,-1,1077,1492,0,0
-140,-468,0,0,0,0,0,0,0,0,0,-1,1084,1492,0,0
-133,-468,0,0,0,0,0,0,0,0,0,-1,1091,1492,0,0
-126,-468,0,0,0,0,0,0,0,0,0,-1,1098,1492,0,0
-119,-468,0,0,0,0,0,0,0,0,0,-1,1105,1492,0,0
-112,-468,0,0,0,0,0,0,0,0,0,-1,1112,1492,0,0
-105,-468,0,0,0,0,0,0,0,0,0,-1,1119,1492,0,0
-98,-468,0,0,0,0,0,0,0,0,0,-1,1126,1492,0,0
-91,-468,0,0,0,0,0,0,0,0,0,-1,1133,1492,0,0
-84,-468,0,0,0,0,0,0,0,0,0,-1,1140,1492,0,0
-77,-468,0,0,0,0,0,0,0,0,0,-1,1147,1492,0,0
-70,-468,0,0,0,0,0,0,0,0,0,-1,1154,1492,0,0
-63,-468,0,0,0,0,0,0,0,0,0,-1,1161,1492,0,0
-56,-468,0,0,0,0,0,0,0,0,0,-1,1168,1492,0,0
-49,-468,0,0,0,0,0,0,0,0,0,-1,1175,1492,0,0
-42,-468,0,0,0,0,0,0,0,0,0,-1,1182,1492,0,0
-35,-468,0,0,0,0,0,0,0,0,0,-1,1189,1492,0,0
-28,-468,0,0,0,0,0,0,0,0,0,-1,1196,1492,0,0
-21,-468,0,0,0,0,0,0,0,0,0,-1,1203,1492,0,0
-14,-468,0,0,0,0,0,0,0,0,0,-1,1210,1492,0,0
-7,-468,0,0,0,0,0,0,0,0,0,-1,1217,1492,0,0
0,-468,0,0,0,0,0,0,0,0,0,-1,1224,1492,0,0
7,-468,0,0,0,0,0,0,0,0,0,-1,1231,1492,0,0
14,-468,0,0,0,0,0,0,0,0,0,-1,1238,1492,0,0
21,-468,0,0,0,0,0,0,0,0,0,-1,1245,1492,0,0
28,-468,0,0,0,0,0,0,0,0,0,-1,1252,1492,0,0
35,-468,0,0,0,0,0,0,0,0,0,-1,1259,1492,0,0
42,-468,0,0,0,0,0,0,0,0,0,-1,1266,1492,0,0
49,-468,0,0,0,0,0,0,0,0,0,-1,1273,1492,0,0
56,-468,0,0,0,0,0,0,0,0,0,-1,1280,1492,0,0
63,-468,0,0,0,0,0,0,0,0,0,-1,1287,1492,0,0
70,-468,0,0,0,0,0,0,0,0,0,-1,1294,1492,0,0
77,-468,0,0,0,0,0,0,0,0,0,-1,1301,1492,0,0
84,-468,0,0,0,0,0,0,0,0,0,-1,1308,1492,0,0
91,-468,0,0,0,0,0,0,0,0,0,-1,1315,1492,0,0
98,-468,0,0,0,0,0,0,0,0,0,-1,1322,1492,0,0
105,-468,0,0,0,0,0,0,0,0,0,-1,1329,1492,0,0
112,-468,0,0,0,0,0,0,0,0,0,-1,1336,1492,0,0
119,-468,0,0,0,0,0,0,0,0,0,-1,1343,1492,0,0
126,-468,0,0,0,0,0,0,0,0,0,-1,1350,1492,0,0
133,-468,0,0,0,0,0,0,0,0,0,-1,1357,1492,0,0
140,-468,0,0,0,0,0,0,0,0,0,-1,1364,1492,0,0
147,-468,0,0,0,0,0,0,0,0,0,-1,1371,1492,0,0
154,-468,0,0,0,0,0,0,0,0,0,-1,1378,1492,0,0
161,-468,0,0,0,0,0,0,0,0,0,-1,1385,1492,0,0
168,-468,0,0,0,0,0,0,0,0,0,-1,1392,1492,0,0
175,-468,0,0,0,0,0,0,0,0,0,-1,1399,1492,0,0
182,-468,0,0,0,0,0,0,0,0,0,-1,1406,1492,0,0
189,-468,0,0,0,0,0,0,0,0,0,-1,1413,1492,0,0
196,-468,0,0,0,0,0,0,0,0,0,-1,1420,1492,0,0
203,-468,0,0,0,0,0,0,0,0,0,-1,1427,1492,0,0
210,-468,0,0,0,0,0,0,0,0,0,-1,1434,1492,0,0
217,-468,0,0,0,0,0,0,0,0,0,-1,1441,1492,0,0
224,-468,0,0,0,0,0,0,0,0,0,-1,1448,1492,0,0
231,-468,0,0,0,0,0,0,0,0,0,-1,1455,1492,0,0
238,-468,0,0,0,0,0,0,0,0,0,-1,1462,1492,0,0
245,-468,0,0,0,0,0,0,0,0,0,-1,1469,1492,0,0
252,-468,0,0,0,0,0,0,0,0,0,-1,1476,1492,0,0
259,-468,0,0,0,0,0,0,0,0,0,-1,1483,1492,0,0
266,-468,0,0,0,0,0,0,0,0,0,-1,1490,1492,0,0
273,-468,0,0,0,0,0,0,0,0,0,-1,1497,1492,0,0
280,-468,0,0,0,0,0,0,0,0,0,-1,1504,1492,0,0
287,-468,0,0,0,0,0,0,0,0,0,-1,1511,1492,0,0
294,-468,0,0,0,0,0,0,0,0,0,-1,1518,1492,0,0
301,-468,0,0,0,0,0,0,0,0,0,-1,1525,1492,0,0
308,-468,0,0,0,0,0,0,0,0,0,-1,1532,1492,0,0
315,-468,0,0,0,0,0,0,0,0,0,-1,1539,1492,0,0
322,-468,0,0,0,0,0,0,0,0,0,-1,1546,1492,0,0
329,-468,0,0,0,0,0,0,0,0,0,-1,1553,1492,0,0
336,-468,0,0,0,0,0,0,0,0,0,-1,1560,1492,0,0
343,-468,0,0,0,0,0,0,0,0,0,-1,1567,1492,0,0
350,-468,0,0,0,0,0,0,0,0,0,-1,1574,1492,0,0
357,-468,0,0,0,0,0,0,0,0,0,-1,1581,1492,0,0
364,-468,0,0,0,0,0,0,0,0,0,-1,1588,1492,0,0
371,-468,0,0,0,0,0,0,0,0,0,-1,1595,1492,0,0
378,-468,0,0,0,0,0,0,0,0,0,-1,1602,1492,0,0
385,-468,0,0,0,0,0,0,0,0,0,-1,1609,1492,0,0
392,-468,0,0,0,0,0,0,0,0,0,-1,1616,1492,0,0
399,-468,0,0,0,0,0,0,0,0,0,-1,1623,1492,0,0
406,-468,0,0,0,0,0,0,0,0,0,-1,1630,1492,0,0
413,-468,0,0,0,0,0,0,0,0,0,-1,1637,1492,0,0
420,-468,0,0,0,0,0,0,0,0,0,-1,1644,1492,0,0
427,-468,0,0,0,0,0,0,0,0,0,-1,1651,1492,0,0
434,-468,0,0,0,0,0,0,0,0,0,-1,1658,1492,0,0
441,-468,0,0,0,0,0,0,0,0,0,-1,1665,1492,0,0
448,-468,0,0,0,0,0,0,0,0,0,-1,1672,1492,0,0
455,-468,0,0,0,0,0,0,0,0,0,-1,1679,1492,0,0
462,-468,0,0,0,0,0,0,0,0,0,-1,1686,1492,0,0
469,-468,15.6879,1.2677,0,0,0,0,0,0,0,-1,1693,1492,15.6879,-1.26772
476,-468,14.9318,1.61865,0,0,0,0,0,0,0,-1,1700,1492,14.9318,-1.61869
483,-468,11.265,4.64795,0,0,0,0,0,0,0,-1,1707,1492,11.265,-4.64798
490,-468,12.1316,3.51624,0,0,0,0,0,0,0,-1,1714,1492,12.1316,-3.51628
497,-468,16.5355,3.14587,0,0,0,0,0,0,0,-1,1721,1492,16.5356,-3.14583
504,-468,15.0642,4.10437,0,0,0,0,0,0,0,-1,1728,1492,15.0643,-4.10431
511,-468,15.6877,9.4801,0,0,0,0,0,0,0,-1,1735,1492,15.6878,-9.48007
518,-468,13.759,11.0887,0,0,0,0,0,0,0,-1,1742,1492,13.759,-11.0887
525,-468,16.6531,14.2238,0,0,0,0,0,0,0,-1,1749,1492,16.653,-14.2237
532,-468,16.9696,15.9641,0,0,0,0,0,0,0,-1,1756,1492,16.9696,-15.9641
539,-468,21.5308,20.7551,0,0,0,0,0,0,0,-1,1763,1492,21.5308,-20.7551
546,-468,24.2039,23.4702,0,0,0,0,0,0,0,-1,1770,1492,24.2039,-23.4703
553,-468,24.5355,22.7833,0,0,0,0,0,0,0,-1,1777,1492,24.5356,-22.7833
560,-468,24.5861,22.2787,0.0086935,0.00643516,-0.00495298,0.0126444,0.00248427,-0.673324,0.00773563,0.0407254,1784,1492,24.586,-22.2787
567,-468,24.575,21.7455,0.0067601,0.00497181,-0.00387881,0.00984649,0.00188543,-0.672117,0.00603484,0.0222595,1791,1492,24.575,-21.7455
574,-468,24.6113,21.1449,0.00537681,0.00401431,-0.00324531,0.0080116,0.00137952,-0.681941,0.00494578,0.016908,1798,1492,24.6113,-21.1449
581,-468,24.6112,20.6134,0.00426819,0.00318356,-0.00267948,0.00645969,0.000992067,-0.685549,0.00401681,0.0160921,1805,1492,24.6112,-20.6134
588,-468,24.5682,20.0651,0.0033709,0.00234926,-0.0021239,0.00504455,0.00067561,-0.667385,0.00316198,0.0123623,1812,1492,24.5683,-20.065
595,-468,24.5449,19.5068,0.00280519,0.00160961,-0.00164914,0.00396155,0.000453255,-0.611521,0.00250366,0.010505,1819,1492,24.545,-19.5068
602,-468,24.5343,18.9337,0.00241488,0.000899443,-0.00122729,0.00309951,0.00021481,-0.508844,0.00199859,0.00915769,1826,1492,24.5343,-18.9338
609,-468,24.5024,18.3632,0.00219124,0.000272526,-0.000793759,0.00247704,-1.32751e-05,-0.345609,0.0016558,0.00976976,1833,1492,24.5024,-18.3632
616,-468,24.4888,17.7992,0.00213686,-0.000309238,-0.000375804,0.00219329,-0.000365673,-0.149056,0.00159809,0.0102463,1840,1492,24.4888,-17.7991
623,-468,24.4799,17.2584,0.0023094,-0.000970335,7.34855e-05,0.00231104,-0.00097198,0.022391,0.0019473,0.0116226,1847,1492,24.4798,-17.2584
630,-468,24.4634,16.7037,0.00264765,-0.00155465,0.000523525,0.00271189,-0.00161889,0.122094,0.00252678,0.0120819,1854,1492,24.4634,-16.7037
637,-468,24.4341,16.1249,0.0033652,-0.00176458,0.000712362,0.00346229,-0.00186166,0.135454,0.00311974,0.0141187,1861,1492,24.4341,-16.1249
644,-468,24.4902,15.7374,0.00427399,-0.00218613,0.000946528,0.00440982,-0.00232196,0.142528,0.00394841,0.0362144,1868,1492,24.4902,-15.7374
651,-468,24.6827,15.3434,0,0,0,0,0,0,0,-1,1875,1492,24.6828,-15.3434
658,-468,16.4969,10.0774,0,0,0,0,0,0,0,-1,1882,1492,16.497,-10.0774
665,-468,15.4673,8.59546,0,0,0,0,0,0,0,-1,1889,1492,15.4672,-8.59548
672,-468,9.96814,3.61133,0,0,0,0,0,0,0,-1,1896,1492,9.96817,-3.61139
679,-468,11.2191,1.91968,0,0,0,0,0,0,0,-1,1903,1492,11.2191,-1.91965
686,-468,11.9252,1.42285,0,0,0,0,0,0,0,-1,1910,1492,11.9252,-1.42291
693,-468,0,0,0,0,0,0,0,0,0,-1,1917,1492,0,0
700,-468,0,0,0,0,0,0,0,0,0,-1,1924,1492,0,0
707,-468,0,0,0,0,0,0,0,0,0,-1,1931,1492,0,0
714,-468,0,0,0,0,0,0,0,0,0,-1,1938,1492,0,0
721,-468,0,0,0,0,0,0,0,0,0,-1,1945,1492,0,0
728,-468,0,0,0,0,0,0,0,0,0,-1,1952,1492,0,0
735,-468,0,0,0,0,0,0,0,0,0,-1,1959,1492,0,0
742,-468,0,0,0,0,0,0,0,0,0,-1,1966,1492,0,0
749,-468,0,0,0,0,0,0,0,0,0,-1,1973,1492,0,0
756,-468,0,0,0,0,0,0,0,0,0,-1,1980,1492,0,0
763,-468,0,0,0,0,0,0,0,0,0,-1,1987,1492,0,0
770,-468,0,0,0,0,0,0,0,0,0,-1,1994,1492,0,0
777,-468,0,0,0,0,0,0,0,0,0,-1,2001,1492,0,0
784,-468,0,0,0,0,0,0,0,0,0,-1,2008,1492,0,0
791,-468,0,0,0,0,0,0,0,0,0,-1,2015,1492,0,0
798,-468,0,0,0,0,0,0,0,0,0,-1,2022,1492,0,0
805,-468,0,0,0,0,0,0,0,0,0,-1,2029,1492,0,0
812,-468,0,0,0,0,0,0,0,0,0,-1,2036,1492,0,0
-700,-475,0,0,0,0,0,0,0,0,0,-1,524,1499,0,0
-693,-475,0,0,0,0,0,0,0,0,0,-1,531,1499,0,0
-686,-475,0,0,0,0,0,0,0,0,0,-1,538,1499,0,0
-679,-475,0,0,0,0,0,0,0,0,0,-1,545,1499,0,0
-672,-475,0,0,0,0,0,0,0,0,0,-1,552,1499,0,0
-665,-475,0,0,0,0,0,0,0,0,0,-1,559,1499,0,0
-658,-475,0,0,0,0,0,0,0,0,0,-1,566,1499,0,0
-651,-475,0,0,0,0,0,0,0,0,0,-1,573,1499,0,0
-644,-475,0,0,0,0,0,0,0,0,0,-1,580,1499,0,0
-637,-475,0,0,0,0,0,0,0,0,0,-1,587,1499,0,0
-630,-475,0,0,0,0,0,0,0,0,0,-1,594,1499,0,0
-623,-475,0,0,0,0,0,0,0,0,0,-1,601,1499,0,0
-616,-475,0,0,0,0,0,0,0,0,0,-1,608,1499,0,0
-609,-475,0,0,0,0,0,0,0,0,0,-1,615,1499,0,0
-602,-475,0,0,0,0,0,0,0,0,0,-1,622,1499,0,0
-595,-475,0,0,0,0,0,0,0,0,0,-1,629,1499,0,0
-588,-475,0,0,0,0,0,0,0,0,0,-1,636,1499,0,0
-581,-475,0,0,0,0,0,0,0,0,0,-1,643,1499,0,0
-574,-475,0,0,0,0,0,0,0,0,0,-1,650,1499,0,0
-567,-475,0,0,0,0,0,0,0,0,0,-1,657,1499,0,0
-560,-475,-9.42731,9.29517,0,0,0,0,0,0,0,-1,664,1499,-9.42731,-9.29519
-553,-475,-8.15131,8.78369,0,0,0,0,0,0,0,-1,671,1499,-8.15131,-8.78367
-546,-475,-8.41254,8.20654,0,0,0,0,0,0,0,-1,678,1499,-8.41251,-8.20655
-539,-475,-4.7345,4.17419,0,0,0,0,0,0,0,-1,685,1499,-4.73449,-4.17418
-532,-475,-7.07379,4.25024,0,0,0,0,0,0,0,-1,692,1499,-7.07378,-4.2503
-525,-475,-6.13147,5.82166,0,0,0,0,0,0,0,-1,699,1499,-6.1315,-5.8216
-518,-475,-7.28784,9.31506,0,0,0,0,0,0,0,-1,706,1499,-7.28782,-9.315
-511,-475,-6.84851,12.4244,0,0,0,0,0,0,0,-1,713,1499,-6.84851,-12.4244
-504,-475,-7.55475,14.4371,0,0,0,0,0,0,0,-1,720,1499,-7.55476,-14.4372
-497,-475,-7.57434,15.2158,6.23392e-05,-0.000821632,0.0012839,0.0009782,-0.00173749,0.619625,0.0015882,0.0422145,727,1499,-7.57436,-15.2158
-490,-475,-7.5766,15.7393,-0.000323983,-0.00114095,0.000683912,6.41489e-05,-0.00152908,0.516193,0.00104143,0.0137634,734,1499,-7.57661,-15.7392
-483,-475,-7.58502,16.3782,-0.00040628,-0.00112803,0.000392968,-0.000233625,-0.00130069,0.413973,0.000800692,0.00902844,741,1499,-7.58505,-16.3782
-476,-475,-7.61627,16.9612,-0.000260294,-0.000846237,0.000332113,-0.000110398,-0.000996133,0.423967,0.000630519,0.0109807,748,1499,-7.61628,-16.9612
-469,-475,-7.62744,17.566,8.6405e-05,-0.000282443,0.000490993,0.000426468,-0.000622506,0.605744,0.00060914,0.0133604,755,1499,-7.62746,-17.566
-462,-475,-7.60864,18.1675,0.000590135,0.000461417,0.000802904,0.00133126,-0.000279703,0.745405,0.000993944,0.0175324,762,1499,-7.60864,-18.1674
-455,-475,-7.6568,18.7523,0.00123844,0.00138955,0.0012625,0.00257876,4.92331e-05,0.815284,0.001703,0.0149921,769,1499,-7.65681,-18.7523
-448,-475,-7.71753,19.3381,0.00216971,0.00271802,0.00206021,0.00452224,0.000365495,0.851545,0.00290068,0.0129957,776,1499,-7.71755,-19.3382
-441,-475,-7.7464,19.9414,0.00336953,0.00435257,0.00315654,0.00705563,0.000666465,0.862635,0.00449808,0.015513,783,1499,-7.74642,-19.9414
-434,-475,-7.72601,20.5104,0.00483191,0.00647016,0.00461488,0.0103381,0.000964019,0.873231,0.00659423,0.0111757,790,1499,-7.72604,-20.5103
-427,-475,-7.67114,21.2141,0.00652698,0.00893594,0.00639422,0.0142381,0.00122479,0.878492,0.00911131,0.0305915,797,1499,-7.67117,-21.2142
-420,-475,-7.59247,21.9045,0,0,0,0,0,0,0,-1,804,1499,-7.59244,-21.9045
-413,-475,-6.46777,20.8481,0,0,0,0,0,0,0,-1,811,1499,-6.46776,-20.8481
-406,-475,-2.56116,12.4956,0,0,0,0,0,0,0,-1,818,1499,-2.56116,-12.4956
-399,-475,-1.39667,6.1615,0,0,0,0,0,0,0,-1,825,1499,-1.39664,-6.16155
-392,-475,0.217163,8.61389,0,0,0,0,0,0,0,-1,832,1499,0.217167,-8.6139
-385,-475,1.18372,2.73999,0,0,0,0,0,0,0,-1,839,1499,1.18372,-2.73995
-378,-475,1.31409,2.90149,0,0,0,0,0,0,0,-1,846,1499,1.31411,-2.90151
-371,-475,2.3476,3.31116,0,0,0,0,0,0,0,-1,853,1499,2.34761,-3.31121
-364,-475,1.04462,9.05823,0,0,0,0,0,0,0,-1,860,1499,1.04461,-9.05825
-357,-475,-0.262756,7.97205,0,0,0,0,0,0,0,-1,867,1499,-0.262784,-7.97205
-350,-475,-2.77173,4.35486,0,0,0,0,0,0,0,-1,874,1499,-2.77175,-4.35491
-343,-475,-6.38824,-1.48096,0,0,0,0,0,0,0,-1,881,1499,-6.38827,1.48097
-336,-475,0,0,0,0,0,0,0,0,0,-1,888,1499,0,0
-329,-475,0,0,0,0,0,0,0,0,0,-1,895,1499,0,0
-322,-475,0,0,0,0,0,0,0,0,0,-1,902,1499,0,0
-315,-475,0,0,0,0,0,0,0,0,0,-1,909,1499,0,0
-308,-475,0,0,0,0,0,0,0,0,0,-1,916,1499,0,0
-301,-475,0,0,0,0,0,0,0,0,0,-1,923,1499,0,0
-294,-475,0,0,0,0,0,0,0,0,0,-1,930,1499,0,0
-287,-475,0,0,0,0,0,0,0,0,0,-1,937,1499,0,0
-280,-475,0,0,0,0,0,0,0,0,0,-1,944,1499,0,0
-273,-475,0,0,0,0,0,0,0,0,0,-1,951,1499,0,0
-266,-475,0,0,0,0,0,0,0,0,0,-1,958,1499,0,0
-259,-475,0,0,0,0,0,0,0,0,0,-1,965,1499,0,0
-252,-475,0,0,0,0,0,0,0,0,0,-1,972,1499,0,0
-245,-475,0,0,0,0,0,0,0,0,0,-1,979,1499,0,0
-238,-475,0,0,0,0,0,0,0,0,0,-1,986,1499,0,0
-231,-475,0,0,0,0,0,0,0,0,0,-1,993,1499,0,0
-224,-475,0,0,0,0,0,0,0,0,0,-1,1000,1499,0,0
-217,-475,0,0,0,0,0,0,0,0,0,-1,1007,1499,0,0
-210,-475,0,0,0,0,0,0,0,0,0,-1,1014,1499,0,0
-203,-475,0,0,0,0,0,0,0,0,0,-1,1021,1499,0,0
-196,-475,0,0,0,0,0,0,0,0,0,-1,1028,1499,0,0
-189,-475,0,0,0,0,0,0,0,0,0,-1,1035,1499,0,0
-182,-475,0,0,0,0,0,0,0,0,0,-1,1042,1499,0,0
-175,-475,0,0,0,0,0,0,0,0,0,-1,1049,1499,0,0
-168,-475,0,0,0,0,0,0,0,0,0,-1,1056,1499,0,0
-161,-475,0,0,0,0,0,0,0,0,0,-1,1063,1499,0,0
-154,-475,0,0,0,0,0,0,0,0,0,-1,1070,1499,0,0
-147,-475,0,0,0,0,0,0,0,0,0,-1,1077,1499,0,0
-140,-475,0,0,0,0,0,0,0,0,0,-1,1084,1499,0,0
-133,-475,0,0,0,0,0,0,0,0,0,-1,1091,1499,0,0
-126,-475,0,0,0,0,0,0,0,0,0,-1,1098,1499,0,0
-119,-475,0,0,0,0,0,0,0,0,0,-1,1105,1499,0,0
-112,-475,0,0,0,0,0,0,0,0,0,-1,1112,1499,0,0
-105,-475,0,0,0,0,0,0,0,0,0,-1,1119,1499,0,0
-98,-475,0,0,0,0,0,0,0,0,0,-1,1126,1499,0,0
-91,-475,0,0,0,0,0,0,0,0,0,-1,1133,1499,0,0
-84,-475,0,0,0,0,0,0,0,0,0,-1,1140,1499,0,0
-77,-475,0,0,0,0,0,0,0,0,0,-1,1147,1499,0,0
-70,-475,0,0,0,0,0,0,0,0,0,-1,1154,1499,0,0
-63,-475,0,0,0,0,0,0,0,0,0,-1,1161,1499,0,0
-56,-475,0,0,0,0,0,0,0,0,0,-1,1168,1499,0,0
-49,-475,0,0,0,0,0,0,0,0,0,-1,1175,1499,0,0
-42,-475,0,0,0,0,0,0,0,0,0,-1,1182,1499,0,0
-35,-475,0,0,0,0,0,0,0,0,0,-1,1189,1499,0,0
-28,-475,0,0,0,0,0,0,0,0,0,-1,1196,1499,0,0
-21,-475,0,0,0,0,0,0,0,0,0,-1,1203,1499,0,0
-14,-475,0,0,0,0,0,0,0,0,0,-1,1210,1499,0,0
-7,-475,0,0,0,0,0,0,0,0,0,-1,1217,1499,0,0
0,-475,0,0,0,0,0,0,0,0,0,-1,1224,1499,0,0
7,-475,0,0,0,0,0,0,0,0,0,-1,1231,1499,0,0
14,-475,0,0,0,0,0,0,0,0,0,-1,1238,1499,0,0
21,-475,0,0,0,0,0,0,0,0,0,-1,1245,1499,0,0
28,-475,0,0,0,0,0,0,0,0,0,-1,1252,1499,0,0
35,-475,0,0,0,0,0,0,0,0,0,-1,1259,1499,0,0
42,-475,0,0,0,0,0,0,0,0,0,-1,1266,1499,0,0
49,-475,0,0,0,0,0,0,0,0,0,-1,1273,1499,0,0
56,-475,0,0,0,0,0,0,0,0,0,-1,1280,1499,0,0
63,-475,0,0,0,0,0,0,0,0,0,-1,1287,1499,0,0
70,-475,0,0,0,0,0,0,0,0,0,-1,1294,1499,0,0
77,-475,0,0,0,0,0,0,0,0,0,-1,1301,1499,0,0
84,-475,0,0,0,0,0,0,0,0,0,-1,1308,1499,0,0
91,-475,0,0,0,0,0,0,0,0,0,-1,1315,1499,0,0
98,-475,0,0,0,0,0,0,0,0,0,-1,1322,1499,0,0
105,-475,0,0,0,0,0,0,0,0,0,-1,1329,1499,0,0
112,-475,0,0,0,0,0,0,0,0,0,-1,1336,1499,0,0
119,-475,0,0,0,0,0,0,0,0,0,-1,1343,1499,0,0
126,-475,0,0,0,0,0,0,0,0,0,-1,1350,1499,0,0
133,-475,0,0,0,0,0,0,0,0,0,-1,1357,1499,0,0
140,-475,0,0,0,0,0,0,0,0,0,-1,1364,1499,0,0
147,-475,0,0,0,0,0,0,0,0,0,-1,1371,1499,0,0
154,-475,0,0,0,0,0,0,0,0,0,-1,1378,1499,0,0
161,-475,0,0,0,0,0,0,0,0,0,-1,1385,1499,0,0
168,-475,0,0,0,0,0,0,0,0,0,-1,1392,1499,0,0
175,-475,0,0,0,0,0,0,0,0,0,-1,1399,1499,0,0
182,-475,0,0,0,0,0,0,0,0,0,-1,1406,1499,0,0
189,-475,0,0,0,0,0,0,0,0,0,-1,1413,1499,0,0
196,-475,0,0,0,0,0,0,0,0,0,-1,1420,1499,0,0
203,-475,0,0,0,0,0,0,0,0,0,-1,1427,1499,0,0
210,-475,0,0,0,0,0,0,0,0,0,-1,1434,1499,0,0
217,-475,0,0,0,0,0,0,0,0,0,-1,1441,1499,0,0
224,-475,0,0,0,0,0,0,0,0,0,-1,1448,1499,0,0
231,-475,0,0,0,0,0,0,0,0,0,-1,1455,1499,0,0
238,-475,0,0,0,0,0,0,0,0,0,-1,1462,1499,0,0
245,-475,0,0,0,0,0,0,0,0,0,-1,1469,1499,0,0
252,-475,0,0,0,0,0,0,0,0,0,-1,1476,1499,0,0
259,-475,0,0,0,0,0,0,0,0,0,-1,1483,1499,0,0
266,-475,0,0,0,0,0,0,0,0,0,-1,1490,1499,0,0
273,-475,0,0,0,0,0,0,0,0,0,-1,1497,1499,0,0
280,-475,0,0,0,0,0,0,0,0,0,-1,1504,1499,0,0
287,-475,0,0,0,0,0,0,0,0,0,-1,1511,1499,0,0
294,-475,0,0,0,0,0,0,0,0,0,-1,1518,1499,0,0
301,-475,0,0,0,0,0,0,0,0,0,-1,1525,1499,0,0
308,-475,0,0,0,0,0,0,0,0,0,-1,1532,1499,0,0
315,-475,0,0,0,0,0,0,0,0,0,-1,1539,1499,0,0
322,-475,0,0,0,0,0,0,0,0,0,-1,1546,1499,0,0
329,-475,0,0,0,0,0,0,0,0,0,-1,1553,1499,0,0
336,-475,0,0,0,0,0,0,0,0,0,-1,1560,1499,0,0
343,-475,0,0,0,0,0,0,0,0,0,-1,1567,1499,0,0
350,-475,0,0,0,0,0,0,0,0,0,-1,1574,1499,0,0
357,-475,0,0,0,0,0,0,0,0,0,-1,1581,1499,0,0
364,-475,0,0,0,0,0,0,0,0,0,-1,1588,1499,0,0
371,-475,0,0,0,0,0,0,0,0,0,-1,1595,1499,0,0
378,-475,0,0,0,0,0,0,0,0,0,-1,1602,1499,0,0
385,-475,0,0,0,0,0,0,0,0,0,-1,1609,1499,0,0
392,-475,0,0,0,0,0,0,0,0,0,-1,1616,1499,0,0
399,-475,0,0,0,0,0,0,0,0,0,-1,1623,1499,0,0
406,-475,0,0,0,0,0,0,0,0,0,-1,1630,1499,0,0
413,-475,0,0,0,0,0,0,0,0,0,-1,1637,1499,0,0
420,-475,0,0,0,0,0,0,0,0,0,-1,1644,1499,0,0
427,-475,0,0,0,0,0,0,0,0,0,-1,1651,1499,0,0
434,-475,0,0,0,0,0,0,0,0,0,-1,1658,1499,0,0
441,-475,0,0,0,0,0,0,0,0,0,-1,1665,1499,0,0
448,-475,0,0,0,0,0,0,0,0,0,-1,1672,1499,0,0
455,-475,0,0,0,0,0,0,0,0,0,-1,1679,1499,0,0
462,-475,12.6372,0.275391,0,0,0,0,0,0,0,-1,1686,1499,12.6372,-0.27536
469,-475,15.6437,2.28296,0,0,0,0,0,0,0,-1,1693,1499,15.6437,-2.28293
476,-475,15.3302,2.71436,0,0,0,0,0,0,0,-1,1700,1499,15.3303,-2.7143
483,-475,10.7461,5.91479,0,0,0,0,0,0,0,-1,1707,1499,10.7461,-5.91476
490,-475,11.9305,4.4364,0,0,0,0,0,0,0,-1,1714,1499,11.9305,-4.43644
497,-475,15.3451,4.3479,0,0,0,0,0,0,0,-1,1721,1499,15.3451,-4.34789
504,-475,16.9646,7.71265,0,0,0,0,0,0,0,-1,1728,1499,16.9646,-7.71265
511,-475,18.941,12.7572,0,0,0,0,0,0,0,-1,1735,1499,18.941,-12.7572
518,-475,17.0021,13.8564,0,0,0,0,0,0,0,-1,1742,1499,17.0021,-13.8564
525,-475,17.5637,15.2103,0,0,0,0,0,0,0,-1,1749,1499,17.5637,-15.2103
532,-475,20.8623,20.8413,0,0,0,0,0,0,0,-1,1756,1499,20.8623,-20.8413
539,-475,20.5494,20.8519,0,0,0,0,0,0,0,-1,1763,1499,20.5494,-20.852
546,-475,20.4524,19.8799,0,0,0,0,0,0,0,-1,1770,1499,20.4524,-19.8798
553,-475,23.8174,23.0571,0,0,0,0,0,0,0,-1,1777,1499,23.8174,-23.0571
560,-475,23.9191,22.4229,0.00746777,0.00535357,-0.00424611,0.0107864,0.00203495,-0.6634,0.00661773,0.0294041,1784,1499,23.9191,-22.4228
567,-475,24.0818,21.7416,0.00582274,0.0040657,-0.00327369,0.00833374,0.0015547,-0.654308,0.00511694,0.0153517,1791,1499,24.0818,-21.7416
574,-475,24.0431,21.1671,0.00463624,0.0032123,-0.00269374,0.00671051,0.00113802,-0.6562,0.00414672,0.0144211,1798,1499,24.0431,-21.1671
581,-475,24.024,20.6373,0.00367558,0.0024778,-0.00219755,0.00535438,0.000798991,-0.652366,0.00333531,0.0119149,1805,1499,24.024,-20.6373
588,-475,24.0026,20.0825,0.00292317,0.00178486,-0.00173509,0.00418007,0.000527958,-0.626915,0.00262846,0.0103698,1812,1499,24.0025,-20.0825
595,-475,23.9977,19.5127,0.00252291,0.00115618,-0.00135705,0.00335895,0.000320143,-0.55215,0.00214058,0.0121344,1819,1499,23.9977,-19.5127
602,-475,23.9832,18.9303,0.00226282,0.000575172,-0.00104322,0.00276076,7.72275e-05,-0.445337,0.00181531,0.0131006,1826,1499,23.9831,-18.9303
609,-475,23.9485,18.3842,0.00215287,5.96852e-05,-0.000701474,0.0023662,-0.000153652,-0.295239,0.0016311,0.0113529,1833,1499,23.9485,-18.3841
616,-475,23.917,17.8503,0.00222617,-0.000481504,-0.000327921,0.00226532,-0.000520652,-0.11882,0.00171039,0.0112466,1840,1499,23.917,-17.8504
623,-475,23.9221,17.2719,0.00249823,-0.00116266,0.000129947,0.00250283,-0.00116726,0.0354365,0.0021652,0.011268,1847,1499,23.9221,-17.2718
630,-475,23.9205,16.7067,0.0028954,-0.00174078,0.000629027,0.00297923,-0.00182461,0.132488,0.00280007,0.0130066,1854,1499,23.9205,-16.7067
637,-475,23.8562,16.1299,0.00371491,-0.00194456,0.000874679,0.00384701,-0.00207666,0.149894,0.00347057,0.0238258,1861,1499,23.8562,-16.1299
644,-475,23.7687,15.5723,0,0,0,0,0,0,0,-1,1868,1499,23.7687,-15.5723
651,-475,11.7965,7.57593,0,0,0,0,0,0,0,-1,1875,1499,11.7965,-7.5759
658,-475,14.6708,8.80322,0,0,0,0,0,0,0,-1,1882,1499,14.6708,-8.8032
665,-475,9.33435,5.43335,0,0,0,0,0,0,0,-1,1889,1499,9.33439,-5.43332
672,-475,9.38635,1.10474,0,0,0,0,0,0,0,-1,1896,1499,9.38629,-1.10475
679,-475,12.2594,1.31079,0,0,0,0,0,0,0,-1,1903,1499,12.2594,-1.31077
686,-475,0,0,0,0,0,0,0,0,0,-1,1910,1499,0,0
693,-475,0,0,0,0,0,0,0,0,0,-1,1917,1499,0,0
700,-475,0,0,0,0,0,0,0,0,0,-1,1924,1499,0,0
707,-475,0,0,0,0,0,0,0,0,0,-1,1931,1499,0,0
714,-475,0,0,0,0,0,0,0,0,0,-1,1938,1499,0,0
721,-475,0,0,0,0,0,0,0,0,0,-1,1945,1499,0,0
728,-475,0,0,0,0,0,0,0,0,0,-1,1952,1499,0,0
735,-475,0,0,0,0,0,0,0,0,0,-1,1959,1499,0,0
742,-475,0,0,0,0,0,0,0,0,0,-1,1966,1499,0,0
749,-475,0,0,0,0,0,0,0,0,0,-1,1973,1499,0,0
756,-475,0,0,0,0,0,0,0,0,0,-1,1980,1499,0,0
763,-475,0,0,0,0,0,0,0,0,0,-1,1987,1499,0,0
770,-475,0,0,0,0,0,0,0,0,0,-1,1994,1499,0,0
777,-475,0,0,0,0,0,0,0,0,0,-1,2001,1499,0,0
784,-475,0,0,0,0,0,0,0,0,0,-1,2008,1499,0,0
791,-475,0,0,0,0,0,0,0,0,0,-1,2015,1499,0,0
798,-475,0,0,0,0,0,0,0,0,0,-1,2022,1499,0,0
805,-475,0,0,0,0,0,0,0,0,0,-1,2029,1499,0,0
812,-475,0,0,0,0,0,0,0,0,0,-1,2036,1499,0,0
-700,-482,0,0,0,0,0,0,0,0,0,-1,524,1506,0,0
-693,-482,0,0,0,0,0,0,0,0,0,-1,531,1506,0,0
-686,-482,0,0,0,0,0,0,0,0,0,-1,538,1506,0,0
-679,-482,0,0,0,0,0,0,0,0,0,-1,545,1506,0,0
-672,-482,0,0,0,0,0,0,0,0,0,-1,552,1506,0,0
-665,-482,0,0,0,0,0,0,0,0,0,-1,559,1506,0,0
-658,-482,0,0,0,0,0,0,0,0,0,-1,566,1506,0,0
-651,-482,0,0,0,0,0,0,0,0,0,-1,573,1506,0,0
-644,-482,0,0,0,0,0,0,0,0,0,-1,580,1506,0,0
-637,-482,0,0,0,0,0,0,0,0,0,-1,587,1506,0,0
-630,-482,0,0,0,0,0,0,0,0,0,-1,594,1506,0,0
-623,-482,0,0,0,0,0,0,0,0,0,-1,601,1506,0,0
-616,-482,0,0,0,0,0,0,0,0,0,-1,608,1506,0,0
-609,-482,0,0,0,0,0,0,0,0,0,-1,615,1506,0,0
-602,-482,0,0,0,0,0,0,0,0,0,-1,622,1506,0,0
-595,-482,0,0,0,0,0,0,0,0,0,-1,629,1506,0,0
-588,-482,0,0,0,0,0,0,0,0,0,-1,636,1506,0,0
-581,-482,0,0,0,0,0,0,0,0,0,-1,643,1506,0,0
-574,-482,0,0,0,0,0,0,0,0,0,-1,650,1506,0,0
-567,-482,0,0,0,0,0,0,0,0,0,-1,657,1506,0,0
-560,-482,0,0,0,0,0,0,0,0,0,-1,664,1506,0,0
-553,-482,-9.06055,9.34314,0,0,0,0,0,0,0,-1,671,1506,-9.06056,-9.34312
-546,-482,-4.08624,8.34241,0,0,0,0,0,0,0,-1,678,1506,-4.08624,-8.3424
-539,-482,-4.29877,2.73499,0,0,0,0,0,0,0,-1,685,1506,-4.29879,-2.73494
-532,-482,-3.63611,4.23987,0,0,0,0,0,0,0,-1,692,1506,-3.63609,-4.23983
-525,-482,-6.19116,5.24927,0,0,0,0,0,0,0,-1,699,1506,-6.19117,-5.24927
-518,-482,-5.92957,6.39807,0,0,0,0,0,0,0,-1,706,1506,-5.92958,-6.39806
-511,-482,-7.74634,11.9137,0,0,0,0,0,0,0,-1,713,1506,-7.74633,-11.9137
-504,-482,-6.42358,13.4211,0,0,0,0,0,0,0,-1,720,1506,-6.42356,-13.4212
-497,-482,-7.03442,14.9725,0,0,0,0,0,0,0,-1,727,1506,-7.03439,-14.9725
-490,-482,-7.03564,15.7125,-0.00116743,-0.00198991,0.000230059,-0.00110746,-0.00204988,0.255028,0.00118478,0.0387315,734,1506,-7.03565,-15.7125
-483,-482,-7.00677,16.3792,-0.00108994,-0.00196455,-4.45551e-05,-0.00108768,-0.00196681,-0.0507681,0.00113766,0.0104809,741,1506,-7.00675,-16.3792
-476,-482,-7.01752,16.9747,-0.000830737,-0.00166175,-0.000107514,-0.000817053,-0.00167544,-0.1266,0.000967412,0.0107749,748,1506,-7.01755,-16.9747
-469,-482,-7.03912,17.5861,-0.000404421,-0.0010951,7.04238e-05,-0.000397314,-0.00110221,0.100584,0.000644566,0.0121392,755,1506,-7.0391,-17.586
-462,-482,-7.04932,18.1829,0.000136272,-0.000332141,0.000393702,0.000360163,-0.000556033,0.517074,0.00053298,0.0128303,762,1506,-7.04929,-18.1828
-455,-482,-7.07379,18.7584,0.000769896,0.000590292,0.000841067,0.00152594,-0.000165754,0.732214,0.00107681,0.0132027,769,1506,-7.07381,-18.7584
-448,-482,-7.10498,19.3701,0.0016401,0.00186802,0.00160596,0.00336406,0.00014406,0.820819,0.00219626,0.0131376,776,1506,-7.105,-19.3701
-441,-482,-7.12555,19.9629,0.00272156,0.00344984,0.00264568,0.00575632,0.000415079,0.853787,0.00370694,0.0121201,783,1506,-7.12554,-19.9628
-434,-482,-7.13501,20.5497,0.00398031,0.005432,0.00398697,0.00875866,0.000653656,0.875439,0.00563387,0.0151679,790,1506,-7.13499,-20.5497
-427,-482,-7.17365,21.1705,0.00540994,0.00766381,0.0055712,0.0122209,0.000852845,0.885191,0.0078784,0.019054,797,1506,-7.17367,-21.1705
-420,-482,-7.26282,22.0459,0,0,0,0,0,0,0,-1,804,1506,-7.26283,-22.0458
-413,-482,-6.56415,22.3163,0,0,0,0,0,0,0,-1,811,1506,-6.56417,-22.3163
-406,-482,-2.51373,12.7556,0,0,0,0,0,0,0,-1,818,1506,-2.51376,-12.7556
-399,-482,-1.3822,9.22595,0,0,0,0,0,0,0,-1,825,1506,-1.38221,-9.22598
-392,-482,-1.06836,9.22729,0,0,0,0,0,0,0,-1,832,1506,-1.06835,-9.2273
-385,-482,0.0647583,8.90649,0,0,0,0,0,0,0,-1,839,1506,0.0647778,-8.90644
-378,-482,0.215698,5.96948,0,0,0,0,0,0,0,-1,846,1506,0.215681,-5.9695
-371,-482,-0.10907,8.10437,0,0,0,0,0,0,0,-1,853,1506,-0.109063,-8.10433
-364,-482,-0.154968,10.5032,0,0,0,0,0,0,0,-1,860,1506,-0.154976,-10.5032
-357,-482,2.14807,4.60144,0,0,0,0,0,0,0,-1,867,1506,2.14807,-4.60144
-350,-482,-7.5813,-1.45935,0,0,0,0,0,0,0,-1,874,1506,-7.58133,1.45937
-343,-482,-7.19983,-1.26416,0,0,0,0,0,0,0,-1,881,1506,-7.19981,1.26414
-336,-482,-5.14734,-0.157959,0,0,0,0,0,0,0,-1,888,1506,-5.14731,0.157933
-329,-482,0,0,0,0,0,0,0,0,0,-1,895,1506,0,0
-322,-482,0,0,0,0,0,0,0,0,0,-1,902,1506,0,0
-315,-482,0,0,0,0,0,0,0,0,0,-1,909,1506,0,0
-308,-482,0,0,0,0,0,0,0,0,0,-1,916,1506,0,0
-301,-482,0,0,0,0,0,0,0,0,0,-1,923,1506,0,0
-294,-482,0,0,0,0,0,0,0,0,0,-1,930,1506,0,0
-287,-482,0,0,0,0,0,0,0,0,0,-1,937,1506,0,0
-280,-482,0,0,0,0,0,0,0,0,0,-1,944,1506,0,0
-273,-482,0,0,0,0,0,0,0,0,0,-1,951,1506,0,0
-266,-482,0,0,0,0,0,0,0,0,0,-1,958,1506,0,0
-259,-482,0,0,0,0,0,0,0,0,0,-1,965,1506,0,0
-252,-482,0,0,0,0,0,0,0,0,0,-1,972,1506,0,0
-245,-482,0,0,0,0,0,0,0,0,0,-1,979,1506,0,0
-238,-482,0,0,0,0,0,0,0,0,0,-1,986,1506,0,0
-231,-482,0,0,0,0,0,0,0,0,0,-1,993,1506,0,0
-224,-482,0,0,0,0,0,0,0,0,0,-1,1000,1506,0,0
-217,-482,0,0,0,0,0,0,0,0,0,-1,1007,1506,0,0
-210,-482,0,0,0,0,0,0,0,0,0,-1,1014,1506,0,0
-203,-482,0,0,0,0,0,0,0,0,0,-1,1021,1506,0,0
-196,-482,0,0,0,0,0,0,0,0,0,-1,1028,1506,0,0
-189,-482,0,0,0,0,0,0,0,0,0,-1,1035,1506,0,0
-182,-482,0,0,0,0,0,0,0,0,0,-1,1042,1506,0,0
-175,-482,0,0,0,0,0,0,0,0,0,-1,1049,1506,0,0
-168,-482,0,0,0,0,0,0,0,0,0,-1,1056,1506,0,0
-161,-482,0,0,0,0,0,0,0,0,0,-1,1063,1506,0,0
-154,-482,0,0,0,0,0,0,0,0,0,-1,1070,1506,0,0
-147,-482,0,0,0,0,0,0,0,0,0,-1,1077,1506,0,0
-140,-482,0,0,0,0,0,0,0,0,0,-1,1084,1506,0,0
-133,-482,0,0,0,0,0,0,0,0,0,-1,1091,1506,0,0
-126,-482,0,0,0,0,0,0,0,0,0,-1,1098,1506,0,0
-119,-482,0,0,0,0,0,0,0,0,0,-1,1105,1506,0,0
-112,-482,0,0,0,0,0,0,0,0,0,-1,1112,1506,0,0
-105,-482,0,0,0,0,0,0,0,0,0,-1,1119,1506,0,0
-98,-482,0,0,0,0,0,0,0,0,0,-1,1126,1506,0,0
-91,-482,0,0,0,0,0,0,0,0,0,-1,1133,1506,0,0
-84,-482,0,0,0,0,0,0,0,0,0,-1,1140,1506,0,0
-77,-482,0,0,0,0,0,0,0,0,0,-1,1147,1506,0,0
-70,-482,0,0,0,0,0,0,0,0,0,-1,1154,1506,0,0
-63,-482,0,0,0,0,0,0,0,0,0,-1,1161,1506,0,0
-56,-482,0,0,0,0,0,0,0,0,0,-1,1168,1506,0,0
-49,-482,0,0,0,0,0,0,0,0,0,-1,1175,1506,0,0
-42,-482,0,0,0,0,0,0,0,0,0,-1,1182,1506,0,0
-35,-482,0,0,0,0,0,0,0,0,0,-1,1189,1506,0,0
-28,-482,0,0,0,0,0,0,0,0,0,-1,1196,1506,0,0
-21,-482,0,0,0,0,0,0,0,0,0,-1,1203,1506,0,0
-14,-482,0,0,0,0,0,0,0,0,0,-1,1210,1506,0,0
-7,-482,0,0,0,0,0,0,0,0,0,-1,1217,1506,0,0
0,-482,0,0,0,0,0,0,0,0,0,-1,1224,1506,0,0
7,-482,0,0,0,0,0,0,0,0,0,-1,1231,1506,0,0
14,-482,0,0,0,0,0,0,0,0,0,-1,1238,1506,0,0
21,-482,0,0,0,0,0,0,0,0,0,-1,1245,1506,0,0
28,-482,0,0,0,0,0,0,0,0,0,-1,1252,1506,0,0
35,-482,0,0,0,0,0,0,0,0,0,-1,1259,1506,0,0
42,-482,0,0,0,0,0,0,0,0,0,-1,1266,1506,0,0
49,-482,0,0,0,0,0,0,0,0,0,-1,1273,1506,0,0
56,-482,0,0,0,0,0,0,0,0,0,-1,1280,1506,0,0
63,-482,0,0,0,0,0,0,0,0,0,-1,1287,1506,0,0
70,-482,0,0,0,0,0,0,0,0,0,-1,1294,1506,0,0
77,-482,0,0,0,0,0,0,0,0,0,-1,1301,1506,0,0
84,-482,0,0,0,0,0,0,0,0,0,-1,1308,1506,0,0
91,-482,0,0,0,0,0,0,0,0,0,-1,1315,1506,0,0
98,-482,0,0,0,0,0,0,0,0,0,-1,1322,1506,0,0
105,-482,0,0,0,0,0,0,0,0,0,-1,1329,1506,0,0
112,-482,0,0,0,0,0,0,0,0,0,-1,1336,1506,0,0
119,-482,0,0,0,0,0,0,0,0,0,-1,1343,1506,0,0
126,-482,0,0,0,0,0,0,0,0,0,-1,1350,1506,0,0
133,-482,0,0,0,0,0,0,0,0,0,-1,1357,1506,0,0
140,-482,0,0,0,0,0,0,0,0,0,-1,1364,1506,0,0
147,-482,0,0,0,0,0,0,0,0,0,-1,1371,1506,0,0
154,-482,0,0,0,0,0,0,0,0,0,-1,1378,1506,0,0
161,-482,0,0,0,0,0,0,0,0,0,-1,1385,1506,0,0
168,-482,0,0,0,0,0,0,0,0,0,-1,1392,1506,0,0
175,-482,0,0,0,0,0,0,0,0,0,-1,1399,1506,0,0
182,-482,0,0,0,0,0,0,0,0,0,-1,1406,1506,0,0
189,-482,0,0,0,0,0,0,0,0,0,-1,1413,1506,0,0
196,-482,0,0,0,0,0,0,0,0,0,-1,1420,1506,0,0
203,-482,0,0,0,0,0,0,0,0,0,-1,1427,1506,0,0
210,-482,0,0,0,0,0,0,0,0,0,-1,1434,1506,0,0
217,-482,0,0,0,0,0,0,0,0,0,-1,1441,1506,0,0
224,-482,0,0,0,0,0,0,0,0,0,-1,1448,1506,0,0
231,-482,0,0,0,0,0,0,0,0,0,-1,1455,1506,0,0
238,-482,0,0,0,0,0,0,0,0,0,-1,1462,1506,0,0
245,-482,0,0,0,0,0,0,0,0,0,-1,1469,1506,0,0
252,-482,0,0,0,0,0,0,0,0,0,-1,1476,1506,0,0
259,-482,0,0,0,0,0,0,0,0,0,-1,1483,1506,0,0
266,-482,0,0,0,0,0,0,0,0,0,-1,1490,1506,0,0
273,-482,0,0,0,0,0,0,0,0,0,-1,1497,1506,0,0
280,-482,0,0,0,0,0,0,0,0,0,-1,1504,1506,0,0
287,-482,0,0,0,0,0,0,0,0,0,-1,1511,1506,0,0
294,-482,0,0,0,0,0,0,0,0,0,-1,1518,1506,0,0
301,-482,0,0,0,0,0,0,0,0,0,-1,1525,1506,0,0
308,-482,0,0,0,0,0,0,0,0,0,-1,1532,1506,0,0
315,-482,0,0,0,0,0,0,0,0,0,-1,1539,1506,0,0
322,-482,0,0,0,0,0,0,0,0,0,-1,1546,1506,0,0
329,-482,0,0,0,0,0,0,0,0,0,-1,1553,1506,0,0
336,-482,0,0,0,0,0,0,0,0,0,-1,1560,1506,0,0
343,-482,0,0,0,0,0,0,0,0,0,-1,1567,1506,0,0
350,-482,0,0,0,0,0,0,0,0,0,-1,1574,1506,0,0
357,-482,0,0,0,0,0,0,0,0,0,-1,1581,1506,0,0
364,-482,0,0,0,0,0,0,0,0,0,-1,1588,1506,0,0
371,-482,0,0,0,0,0,0,0,0,0,-1,1595,1506,0,0
378,-482,0,0,0,0,0,0,0,0,0,-1,1602,1506,0,0
385,-482,0,0,0,0,0,0,0,0,0,-1,1609,1506,0,0
392,-482,0,0,0,0,0,0,0,0,0,-1,1616,1506,0,0
399,-482,0,0,0,0,0,0,0,0,0,-1,1623,1506,0,0
406,-482,0,0,0,0,0,0,0,0,0,-1,1630,1506,0,0
413,-482,0,0,0,0,0,0,0,0,0,-1,1637,1506,0,0
420,-482,0,0,0,0,0,0,0,0,0,-1,1644,1506,0,0
427,-482,0,0,0,0,0,0,0,0,0,-1,1651,1506,0,0
434,-482,0,0,0,0,0,0,0,0,0,-1,1658,1506,0,0
441,-482,0,0,0,0,0,0,0,0,0,-1,1665,1506,0,0
448,-482,4.24146,1.55383,0,0,0,0,0,0,0,-1,1672,1506,4.24149,-1.55381
455,-482,12.4122,1.09729,0,0,0,0,0,0,0,-1,1679,1506,12.4122,-1.09734
462,-482,15.0673,3.13135,0,0,0,0,0,0,0,-1,1686,1506,15.0672,-3.13134
469,-482,15.3793,3.46301,0,0,0,0,0,0,0,-1,1693,1506,15.3793,-3.46307
476,-482,8.69751,9.18738,0,0,0,0,0,0,0,-1,1700,1506,8.69753,-9.18739
483,-482,10.0902,7.17432,0,0,0,0,0,0,0,-1,1707,1506,10.0902,-7.1743
490,-482,11.6289,5.4928,0,0,0,0,0,0,0,-1,1714,1506,11.6289,-5.49283
497,-482,15.9539,7.40222,0,0,0,0,0,0,0,-1,1721,1506,15.9538,-7.40219
504,-482,20.4233,12.006,0,0,0,0,0,0,0,-1,1728,1506,20.4233,-12.006
511,-482,18.4937,12.9175,0,0,0,0,0,0,0,-1,1735,1506,18.4936,-12.9174
518,-482,16.6002,13.9679,0,0,0,0,0,0,0,-1,1742,1506,16.6003,-13.9679
525,-482,18.495,15.9618,0,0,0,0,0,0,0,-1,1749,1506,18.495,-15.9618
532,-482,19.9375,21.0775,0,0,0,0,0,0,0,-1,1756,1506,19.9375,-21.0775
539,-482,20.2291,20.5577,0,0,0,0,0,0,0,-1,1763,1506,20.2291,-20.5578
546,-482,23.4365,23.7543,0,0,0,0,0,0,0,-1,1770,1506,23.4366,-23.7542
553,-482,23.3829,22.9414,0,0,0,0,0,0,0,-1,1777,1506,23.3829,-22.9414
560,-482,23.4651,22.3281,0.00634815,0.00445799,-0.00364316,0.00916682,0.00163932,-0.658489,0.00564469,0.0162208,1784,1506,23.4651,-22.3281
567,-482,23.5385,21.7506,0.00496118,0.0033437,-0.00278379,0.00705132,0.00125356,-0.644031,0.00434375,0.0150367,1791,1506,23.5385,-21.7506
574,-482,23.5206,21.2068,0.00397153,0.00259023,-0.00226658,0.00565034,0.000911416,-0.637512,0.00350284,0.0139249,1798,1506,23.5206,-21.2068
581,-482,23.4689,20.656,0.00317867,0.0019448,-0.00184911,0.00451105,0.000612421,-0.624387,0.00282544,0.0102616,1805,1506,23.4688,-20.656
588,-482,23.4434,20.0992,0.00259766,0.0013811,-0.00149021,0.00359896,0.000379799,-0.591627,0.00228326,0.0112829,1812,1506,23.4433,-20.0992
595,-482,23.4369,19.5104,0.00238506,0.000866971,-0.00122092,0.00306364,0.000188383,-0.507287,0.00198262,0.0176123,1819,1506,23.4368,-19.5104
602,-482,23.437,18.9377,0.00229397,0.000419475,-0.00103089,0.00274998,-3.65365e-05,-0.416472,0.00184562,0.0208406,1826,1506,23.437,-18.9377
609,-482,23.3982,18.4176,0.00233776,1.33916e-05,-0.000804016,0.00258877,-0.000237617,-0.302605,0.00181026,0.0159039,1833,1506,23.3982,-18.4177
616,-482,23.3534,17.8856,0.00260267,-0.00049303,-0.000498531,0.00268097,-0.000571332,-0.155794,0.00200508,0.0117758,1840,1506,23.3535,-17.8857
623,-482,23.3246,17.3374,0.00303671,-0.00117602,-6.94451e-05,0.00303785,-0.00117716,-0.0164786,0.00251133,0.0160368,1847,1506,23.3246,-17.3374
630,-482,23.3221,16.8265,0.00352597,-0.00172525,0.000448282,0.00356396,-0.00176324,0.084552,0.00313369,0.0353282,1854,1506,23.3221,-16.8266
637,-482,23.2826,16.1259,0,0,0,0,0,0,0,-1,1861,1506,23.2826,-16.1258
644,-482,17.5909,11.6163,0,0,0,0,0,0,0,-1,1868,1506,17.5909,-11.6163
651,-482,4.03845,7.05273,0,0,0,0,0,0,0,-1,1875,1506,4.03843,-7.05279
658,-482,10.0278,5.87903,0,0,0,0,0,0,0,-1,1882,1506,10.0279,-5.87902
665,-482,8.15198,3.22229,0,0,0,0,0,0,0,-1,1889,1506,8.15199,-3.22232
672,-482,9.87415,1.3147,0,0,0,0,0,0,0,-1,1896,1506,9.87416,-1.31473
679,-482,0,0,0,0,0,0,0,0,0,-1,1903,1506,0,0
686,-482,0,0,0,0,0,0,0,0,0,-1,1910,1506,0,0
693,-482,0,0,0,0,0,0,0,0,0,-1,1917,1506,0,0
700,-482,0,0,0,0,0,0,0,0,0,-1,1924,1506,0,0
707,-482,0,0,0,0,0,0,0,0,0,-1,1931,1506,0,0
714,-482,0,0,0,0,0,0,0,0,0,-1,1938,1506,0,0
721,-482,0,0,0,0,0,0,0,0,0,-1,1945,1506,0,0
728,-482,0,0,0,0,0,0,0,0,0,-1,1952,1506,0,0
735,-482,0,0,0,0,0,0,0,0,0,-1,1959,1506,0,0
742,-482,0,0,0,0,0,0,0,0,0,-1,1966,1506,0,0
749,-482,0,0,0,0,0,0,0,0,0,-1,1973,1506,0,0
756,-482,0,0,0,0,0,0,0,0,0,-1,1980,1506,0,0
763,-482,0,0,0,0,0,0,0,0,0,-1,1987,1506,0,0
770,-482,0,0,0,0,0,0,0,0,0,-1,1994,1506,0,0
777,-482,0,0,0,0,0,0,0,0,0,-1,2001,1506,0,0
784,-482,0,0,0,0,0,0,0,0,0,-1,2008,1506,0,0
791,-482,0,0,0,0,0,0,0,0,0,-1,2015,1506,0,0
798,-482,0,0,0,0,0,0,0,0,0,-1,2022,1506,0,0
805,-482,0,0,0,0,0,0,0,0,0,-1,2029,1506,0,0
812,-482,0,0,0,0,0,0,0,0,0,-1,2036,1506,0,0
-700,-489,0,0,0,0,0,0,0,0,0,-1,524,1513,0,0
-693,-489,0,0,0,0,0,0,0,0,0,-1,531,1513,0,0
-686,-489,0,0,0,0,0,0,0,0,0,-1,538,1513,0,0
-679,-489,0,0,0,0,0,0,0,0,0,-1,545,1513,0,0
-672,-489,0,0,0,0,0,0,0,0,0,-1,552,1513,0,0
-665,-489,0,0,0,0,0,0,0,0,0,-1,559,1513,0,0
-658,-489,0,0,0,0,0,0,0,0,0,-1,566,1513,0,0
-651,-489,0,0,0,0,0,0,0,0,0,-1,573,1513,0,0
-644,-489,0,0,0,0,0,0,0,0,0,-1,580,1513,0,0
-637,-489,0,0,0,0,0,0,0,0,0,-1,587,1513,0,0
-630,-489,0,0,0,0,0,0,0,0,0,-1,594,1513,0,0
-623,-489,0,0,0,0,0,0,0,0,0,-1,601,1513,0,0
-616,-489,0,0,0,0,0,0,0,0,0,-1,608,1513,0,0
-609,-489,0,0,0,0,0,0,0,0,0,-1,615,1513,0,0
-602,-489,0,0,0,0,0,0,0,0,0,-1,622,1513,0,0
-595,-489,0,0,0,0,0,0,0,0,0,-1,629,1513,0,0
-588,-489,0,0,0,0,0,0,0,0,0,-1,636,1513,0,0
-581,-489,0,0,0,0,0,0,0,0,0,-1,643,1513,0,0
-574,-489,0,0,0,0,0,0,0,0,0,-1,650,1513,0,0
-567,-489,0,0,0,0,0,0,0,0,0,-1,657,1513,0,0
-560,-489,0,0,0,0,0,0,0,0,0,-1,664,1513,0,0
-553,-489,-9.42206,8.5116,0,0,0,0,0,0,0,-1,671,1513,-9.42205,-8.51158
-546,-489,-7.80951,8.18506,0,0,0,0,0,0,0,-1,678,1513,-7.8095,-8.18503
-539,-489,-3.06879,2.82349,0,0,0,0,0,0,0,-1,685,1513,-3.06881,-2.82354
-532,-489,-3.14215,2.5835,0,0,0,0,0,0,0,-1,692,1513,-3.14213,-2.58353
-525,-489,-2.604,4.06274,0,0,0,0,0,0,0,-1,699,1513,-2.60399,-4.06274
-518,-489,-5.43774,7.48059,0,0,0,0,0,0,0,-1,706,1513,-5.43777,-7.48058
-511,-489,-7.52856,10.951,0,0,0,0,0,0,0,-1,713,1513,-7.52857,-10.951
-504,-489,-7.17352,12.8508,0,0,0,0,0,0,0,-1,720,1513,-7.17352,-12.8508
-497,-489,-5.51678,14.9254,0,0,0,0,0,0,0,-1,727,1513,-5.51681,-14.9254
-490,-489,-6.46912,15.647,0,0,0,0,0,0,0,-1,734,1513,-6.46913,-15.647
-483,-489,-6.42505,16.3043,-0.00173458,-0.00215093,-0.000447905,-0.00144884,-0.00243667,-0.567862,0.00141518,0.0214615,741,1513,-6.42506,-16.3043
-476,-489,-6.43115,16.9779,-0.00134658,-0.00184085,-0.000519249,-0.00101865,-0.00216878,-0.563288,0.00125291,0.0102366,748,1513,-6.43113,-16.9779
-469,-489,-6.44623,17.5933,-0.000851304,-0.0013436,-0.000340549,-0.000677259,-0.00151765,-0.472466,0.000877899,0.0106325,755,1513,-6.44622,-17.5933
-462,-489,-6.47095,18.204,-0.00028222,-0.000657503,-2.13945e-05,-0.000281004,-0.000658718,-0.056764,0.000381675,0.0155451,762,1513,-6.47094,-18.204
-455,-489,-6.50238,18.8079,0.000333816,0.000121999,0.000398058,0.000639814,-0.000183998,0.655379,0.000499307,0.0195059,769,1513,-6.50239,-18.8079
-448,-489,-6.54205,19.3976,0.00113341,0.00116691,0.00109653,0.00224682,5.34982e-05,0.793035,0.00148037,0.0171269,776,1513,-6.54208,-19.3976
-441,-489,-6.54645,20.0021,0.00209463,0.00247878,0.00204387,0.00433958,0.000233834,0.832248,0.00281834,0.0141588,783,1513,-6.54648,-20.002
-434,-489,-6.6062,20.6014,0.0031733,0.00411629,0.00324233,0.00692122,0.000368368,0.857602,0.00449639,0.0170406,790,1513,-6.60618,-20.6015
-427,-489,-6.64514,21.1877,0.00439294,0.00591066,0.0046227,0.00983638,0.000467228,0.866752,0.00640753,0.0190976,797,1513,-6.64516,-21.1877
-420,-489,-6.64154,21.915,0.00579102,0.00820617,0.00629549,0.0134089,0.00058834,0.880155,0.00874972,0.024835,804,1513,-6.64152,-21.915
-413,-489,-6.22876,22.6206,0,0,0,0,0,0,0,-1,811,1513,-6.22875,-22.6206
-406,-489,-3.10559,15.8143,0,0,0,0,0,0,0,-1,818,1513,-3.10556,-15.8143
-399,-489,-1.41241,9.10718,0,0,0,0,0,0,0,-1,825,1513,-1.41244,-9.10722
-392,-489,-1.0368,9.30469,0,0,0,0,0,0,0,-1,832,1513,-1.03682,-9.30466
-385,-489,-1.75165,10.6559,0,0,0,0,0,0,0,-1,839,1513,-1.75165,-10.6559
-378,-489,-0.401428,9.87048,0,0,0,0,0,0,0,-1,846,1513,-0.401415,-9.87047
-371,-489,-1.11633,10.6606,0,0,0,0,0,0,0,-1,853,1513,-1.11633,-10.6606
-364,-489,-0.503113,8.98486,0,0,0,0,0,0,0,-1,860,1513,-0.503097,-8.98482
-357,-489,-0.609924,10.9606,0,0,0,0,0,0,0,-1,867,1513,-0.609947,-10.9605
-350,-489,-7.94659,-0.358887,0,0,0,0,0,0,0,-1,874,1513,-7.94657,0.358912
-343,-489,-7.49323,-0.437866,0,0,0,0,0,0,0,-1,881,1513,-7.49322,0.437823
-336,-489,-7.02332,-0.53125,0,0,0,0,0,0,0,-1,888,1513,-7.0233,0.531295
-329,-489,-12.7423,4.73523,0,0,0,0,0,0,0,-1,895,1513,-12.7423,-4.73521
-322,-489,0,0,0,0,0,0,0,0,0,-1,902,1513,0,0
-315,-489,0,0,0,0,0,0,0,0,0,-1,909,1513,0,0
-308,-489,0,0,0,0,0,0,0,0,0,-1,916,1513,0,0
-301,-489,0,0,0,0,0,0,0,0,0,-1,923,1513,0,0
-294,-489,0,0,0,0,0,0,0,0,0,-1,930,1513,0,0
-287,-489,0,0,0,0,0,0,0,0,0,-1,937,1513,0,0
-280,-489,0,0,0,0,0,0,0,0,0,-1,944,1513,0,0
-273,-489,0,0,0,0,0,0,0,0,0,-1,951,1513,0,0
-266,-489,0,0,0,0,0,0,0,0,0,-1,958,1513,0,0
-259,-489,0,0,0,0,0,0,0,0,0,-1,965,1513,0,0
-252,-489,0,0,0,0,0,0,0,0,0,-1,972,1513,0,0
-245,-489,0,0,0,0,0,0,0,0,0,-1,979,1513,0,0
-238,-489,0,0,0,0,0,0,0,0,0,-1,986,1513,0,0
-231,-489,0,0,0,0,0,0,0,0,0,-1,993,1513,0,0
-224,-489,0,0,0,0,0,0,0,0,0,-1,1000,1513,0,0
-217,-489,0,0,0,0,0,0,0,0,0,-1,1007,1513,0,0
-210,-489,0,0,0,0,0,0,0,0,0,-1,1014,1513,0,0
-203,-489,0,0,0,0,0,0,0,0,0,-1,1021,1513,0,0
-196,-489,0,0,0,0,0,0,0,0,0,-1,1028,1513,0,0
-189,-489,0,0,0,0,0,0,0,0,0,-1,1035,1513,0,0
-182,-489,0,0,0,0,0,0,0,0,0,-1,1042,1513,0,0
-175,-489,0,0,0,0,0,0,0,0,0,-1,1049,1513,0,0
-168,-489,0,0,0,0,0,0,0,0,0,-1,1056,1513,0,0
-161,-489,0,0,0,0,0,0,0,0,0,-1,1063,1513,0,0
-154,-489,0,0,0,0,0,0,0,0,0,-1,1070,1513,0,0
-147,-489,0,0,0,0,0,0,0,0,0,-1,1077,1513,0,0
-140,-489,0,0,0,0,0,0,0,0,0,-1,1084,1513,0,0
-133,-489,0,0,0,0,0,0,0,0,0,-1,1091,1513,0,0
-126,-489,0,0,0,0,0,0,0,0,0,-1,1098,1513,0,0
-119,-489,0,0,0,0,0,0,0,0,0,-1,1105,1513,0,0
-112,-489,0,0,0,0,0,0,0,0,0,-1,1112,1513,0,0
-105,-489,0,0,0,0,0,0,0,0,0,-1,1119,1513,0,0
-98,-489,0,0,0,0,0,0,0,0,0,-1,1126,1513,0,0
-91,-489,0,0,0,0,0,0,0,0,0,-1,1133,1513,0,0
-84,-489,0,0,0,0,0,0,0,0,0,-1,1140,1513,0,0
-77,-489,0,0,0,0,0,0,0,0,0,-1,1147,1513,0,0
-70,-489,0,0,0,0,0,0,0,0,0,-1,1154,1513,0,0
-63,-489,0,0,0,0,0,0,0,0,0,-1,1161,1513,0,0
-56,-489,0,0,0,0,0,0,0,0,0,-1,1168,1513,0,0
-49,-489,0,0,0,0,0,0,0,0,0,-1,1175,1513,0,0
-42,-489,0,0,0,0,0,0,0,0,0,-1,1182,1513,0,0
-35,-489,0,0,0,0,0,0,0,0,0,-1,1189,1513,0,0
-28,-489,0,0,0,0,0,0,0,0,0,-1,1196,1513,0,0
-21,-489,0,0,0,0,0,0,0,0,0,-1,1203,1513,0,0
-14,-489,0,0,0,0,0,0,0,0,0,-1,1210,1513,0,0
-7,-489,0,0,0,0,0,0,0,0,0,-1,1217,1513,0,0
0,-489,0,0,0,0,0,0,0,0,0,-1,1224,1513,0,0
7,-489,0,0,0,0,0,0,0,0,0,-1,1231,1513,0,0
14,-489,0,0,0,0,0,0,0,0,0,-1,1238,1513,0,0
21,-489,0,0,0,0,0,0,0,0,0,-1,1245,1513,0,0
28,-489,0,0,0,0,0,0,0,0,0,-1,1252,1513,0,0
35,-489,0,0,0,0,0,0,0,0,0,-1,1259,1513,0,0
42,-489,0,0,0,0,0,0,0,0,0,-1,1266,1513,0,0
49,-489,0,0,0,0,0,0,0,0,0,-1,1273,1513,0,0
56,-489,0,0,0,0,0,0,0,0,0,-1,1280,1513,0,0
63,-489,0,0,0,0,0,0,0,0,0,-1,1287,1513,0,0
70,-489,0,0,0,0,0,0,0,0,0,-1,1294,1513,0,0
77,-489,0,0,0,0,0,0,0,0,0,-1,1301,1513,0,0
84,-489,0,0,0,0,0,0,0,0,0,-1,1308,1513,0,0
91,-489,0,0,0,0,0,0,0,0,0,-1,1315,1513,0,0
98,-489,0,0,0,0,0,0,0,0,0,-1,1322,1513,0,0
105,-489,0,0,0,0,0,0,0,0,0,-1,1329,1513,0,0
112,-489,0,0,0,0,0,0,0,0,0,-1,1336,1513,0,0
119,-489,0,0,0,0,0,0,0,0,0,-1,1343,1513,0,0
126,-489,0,0,0,0,0,0,0,0,0,-1,1350,1513,0,0
133,-489,0,0,0,0,0,0,0,0,0,-1,1357,1513,0,0
140,-489,0,0,0,0,0,0,0,0,0,-1,1364,1513,0,0
147,-489,0,0,0,0,0,0,0,0,0,-1,1371,1513,0,0
154,-489,0,0,0,0,0,0,0,0,0,-1,1378,1513,0,0
161,-489,0,0,0,0,0,0,0,0,0,-1,1385,1513,0,0
168,-489,0,0,0,0,0,0,0,0,0,-1,1392,1513,0,0
175,-489,0,0,0,0,0,0,0,0,0,-1,1399,1513,0,0
182,-489,0,0,0,0,0,0,0,0,0,-1,1406,1513,0,0
189,-489,0,0,0,0,0,0,0,0,0,-1,1413,1513,0,0
196,-489,0,0,0,0,0,0,0,0,0,-1,1420,1513,0,0
203,-489,0,0,0,0,0,0,0,0,0,-1,1427,1513,0,0
210,-489,0,0,0,0,0,0,0,0,0,-1,1434,1513,0,0
217,-489,0,0,0,0,0,0,0,0,0,-1,1441,1513,0,0
224,-489,0,0,0,0,0,0,0,0,0,-1,1448,1513,0,0
231,-489,0,0,0,0,0,0,0,0,0,-1,1455,1513,0,0
238,-489,0,0,0,0,0,0,0,0,0,-1,1462,1513,0,0
245,-489,0,0,0,0,0,0,0,0,0,-1,1469,1513,0,0
252,-489,0,0,0,0,0,0,0,0,0,-1,1476,1513,0,0
259,-489,0,0,0,0,0,0,0,0,0,-1,1483,1513,0,0
266,-489,0,0,0,0,0,0,0,0,0,-1,1490,1513,0,0
273,-489,0,0,0,0,0,0,0,0,0,-1,1497,1513,0,0
280,-489,0,0,0,0,0,0,0,0,0,-1,1504,1513,0,0
287,-489,0,0,0,0,0,0,0,0,0,-1,1511,1513,0,0
294,-489,0,0,0,0,0,0,0,0,0,-1,1518,1513,0,0
301,-489,0,0,0,0,0,0,0,0,0,-1,1525,1513,0,0
308,-489,0,0,0,0,0,0,0,0,0,-1,1532,1513,0,0
315,-489,0,0,0,0,0,0,0,0,0,-1,1539,1513,0,0
322,-489,0,0,0,0,0,0,0,0,0,-1,1546,1513,0,0
329,-489,0,0,0,0,0,0,0,0,0,-1,1553,1513,0,0
336,-489,0,0,0,0,0,0,0,0,0,-1,1560,1513,0,0
343,-489,0,0,0,0,0,0,0,0,0,-1,1567,1513,0,0
350,-489,0,0,0,0,0,0,0,0,0,-1,1574,1513,0,0
357,-489,0,0,0,0,0,0,0,0,0,-1,1581,1513,0,0
364,-489,0,0,0,0,0,0,0,0,0,-1,1588,1513,0,0
371,-489,0,0,0,0,0,0,0,0,0,-1,1595,1513,0,0
378,-489,0,0,0,0,0,0,0,0,0,-1,1602,1513,0,0
385,-489,0,0,0,0,0,0,0,0,0,-1,1609,1513,0,0
392,-489,0,0,0,0,0,0,0,0,0,-1,1616,1513,0,0
399,-489,0,0,0,0,0,0,0,0,0,-1,1623,1513,0,0
406,-489,0,0,0,0,0,0,0,0,0,-1,1630,1513,0,0
413,-489,0,0,0,0,0,0,0,0,0,-1,1637,1513,0,0
420,-489,0,0,0,0,0,0,0,0,0,-1,1644,1513,0,0
427,-489,0,0,0,0,0,0,0,0,0,-1,1651,1513,0,0
434,-489,0,0,0,0,0,0,0,0,0,-1,1658,1513,0,0
441,-489,11.4602,2.56787,0,0,0,0,0,0,0,-1,1665,1513,11.4602,-2.56786
448,-489,12.4425,1.72351,0,0,0,0,0,0,0,-1,1672,1513,12.4425,-1.72349
455,-489,12.5575,1.37463,0,0,0,0,0,0,0,-1,1679,1513,12.5575,-1.37469
462,-489,14.9784,3.84888,0,0,0,0,0,0,0,-1,1686,1513,14.9784,-3.84892
469,-489,15.1367,4.53101,0,0,0,0,0,0,0,-1,1693,1513,15.1368,-4.531
476,-489,15.5536,5.09338,0,0,0,0,0,0,0,-1,1700,1513,15.5536,-5.09339
483,-489,8.96912,8.37805,0,0,0,0,0,0,0,-1,1707,1513,8.96909,-8.37809
490,-489,10.5366,7.49561,0,0,0,0,0,0,0,-1,1714,1513,10.5367,-7.49558
497,-489,14.6051,11.8397,0,0,0,0,0,0,0,-1,1721,1513,14.6051,-11.8397
504,-489,16.7527,14.1735,0,0,0,0,0,0,0,-1,1728,1513,16.7527,-14.1735
511,-489,17.83,17.7993,0,0,0,0,0,0,0,-1,1735,1513,17.83,-17.7993
518,-489,16.4751,14.3682,0,0,0,0,0,0,0,-1,1742,1513,16.4751,-14.3682
525,-489,17.2606,17.4949,0,0,0,0,0,0,0,-1,1749,1513,17.2606,-17.4949
532,-489,19.397,21.0182,0,0,0,0,0,0,0,-1,1756,1513,19.397,-21.0182
539,-489,22.8098,24.3759,0,0,0,0,0,0,0,-1,1763,1513,22.8098,-24.3758
546,-489,22.9612,23.6407,0.00892859,0.00673134,-0.00576527,0.013699,0.00196095,-0.691248,0.00855425,0.0301151,1770,1513,22.9611,-23.6408
553,-489,22.9619,22.9362,0.00696923,0.0050786,-0.00427608,0.0104032,0.00164459,-0.676612,0.00645749,0.0205707,1777,1513,22.9619,-22.9362
560,-489,22.9625,22.3204,0.005441,0.00376514,-0.00315593,0.00786834,0.0013378,-0.655637,0.00486138,0.0143379,1784,1513,22.9626,-22.3204
567,-489,22.9767,21.7714,0.0042978,0.00278969,-0.0024062,0.00606533,0.00102216,-0.633554,0.00374956,0.0153532,1791,1513,22.9767,-21.7713
574,-489,22.9327,21.2562,0.00349426,0.00210959,-0.00194368,0.00486523,0.000738619,-0.614305,0.00302746,0.0151652,1798,1513,22.9328,-21.2562
581,-489,22.9358,20.6967,0.00287019,0.00153012,-0.0015972,0.00393221,0.000468102,-0.586795,0.0024802,0.0110895,1805,1513,22.9358,-20.6967
588,-489,22.9083,20.1322,0.00246332,0.00108204,-0.00134821,0.00328749,0.000257873,-0.548693,0.00211096,0.0137674,1812,1513,22.9084,-20.1322
595,-489,22.8812,19.5757,0.00242689,0.000683122,-0.00119181,0.00303168,7.83268e-05,-0.469599,0.00199553,0.0204269,1819,1513,22.8813,-19.5757
602,-489,22.8635,19.0146,0.0025101,0.000379975,-0.00112927,0.00299733,-0.00010725,-0.407324,0.00203491,0.025752,1826,1513,22.8635,-19.0147
609,-489,22.8306,18.4489,0.00272132,8.63102e-05,-0.00103688,0.0030804,-0.00027277,-0.333382,0.0021503,0.0182995,1833,1513,22.8305,-18.4488
616,-489,22.8147,17.8732,0.00322116,-0.000353185,-0.000847317,0.00341185,-0.000543873,-0.221361,0.00247585,0.018504,1840,1513,22.8147,-17.8732
623,-489,22.8806,17.3409,0,0,0,0,0,0,0,-1,1847,1513,22.8807,-17.3409
630,-489,22.8911,16.793,0,0,0,0,0,0,0,-1,1854,1513,22.8911,-16.7929
637,-489,17.2048,11.8091,0,0,0,0,0,0,0,-1,1861,1513,17.2048,-11.8091
644,-489,9.67578,8.45874,0,0,0,0,0,0,0,-1,1868,1513,9.67576,-8.45879
651,-489,6.13818,6.85095,0,0,0,0,0,0,0,-1,1875,1513,6.13823,-6.85097
658,-489,5.43848,7.75513,0,0,0,0,0,0,0,-1,1882,1513,5.43844,-7.75509
665,-489,5.48438,8.59912,0,0,0,0,0,0,0,-1,1889,1513,5.48434,-8.59907
672,-489,0,0,0,0,0,0,0,0,0,-1,1896,1513,0,0
679,-489,0,0,0,0,0,0,0,0,0,-1,1903,1513,0,0
686,-489,0,0,0,0,0,0,0,0,0,-1,1910,1513,0,0
693,-489,0,0,0,0,0,0,0,0,0,-1,1917,1513,0,0
700,-489,0,0,0,0,0,0,0,0,0,-1,1924,1513,0,0
707,-489,0,0,0,0,0,0,0,0,0,-1,1931,1513,0,0
714,-489,0,0,0,0,0,0,0,0,0,-1,1938,1513,0,0
721,-489,0,0,0,0,0,0,0,0,0,-1,1945,1513,0,0
728,-489,0,0,0,0,0,0,0,0,0,-1,1952,1513,0,0
735,-489,0,0,0,0,0,0,0,0,0,-1,1959,1513,0,0
742,-489,0,0,0,0,0,0,0,0,0,-1,1966,1513,0,0
749,-489,0,0,0,0,0,0,0,0,0,-1,1973,1513,0,0
756,-489,0,0,0,0,0,0,0,0,0,-1,1980,1513,0,0
763,-489,0,0,0,0,0,0,0,0,0,-1,1987,1513,0,0
770,-489,0,0,0,0,0,0,0,0,0,-1,1994,1513,0,0
777,-489,0,0,0,0,0,0,0,0,0,-1,2001,1513,0,0
784,-489,0,0,0,0,0,0,0,0,0,-1,2008,1513,0,0
791,-489,0,0,0,0,0,0,0,0,0,-1,2015,1513,0,0
798,-489,0,0,0,0,0,0,0,0,0,-1,2022,1513,0,0
805,-489,0,0,0,0,0,0,0,0,0,-1,2029,1513,0,0
812,-489,0,0,0,0,0,0,0,0,0,-1,2036,1513,0,0
-700,-496,0,0,0,0,0,0,0,0,0,-1,524,1520,0,0
-693,-496,0,0,0,0,0,0,0,0,0,-1,531,1520,0,0
-686,-496,0,0,0,0,0,0,0,0,0,-1,538,1520,0,0
-679,-496,0,0,0,0,0,0,0,0,0,-1,545,1520,0,0
-672,-496,0,0,0,0,0,0,0,0,0,-1,552,1520,0,0
-665,-496,0,0,0,0,0,0,0,0,0,-1,559,1520,0,0
-658,-496,0,0,0,0,0,0,0,0,0,-1,566,1520,0,0
-651,-496,0,0,0,0,0,0,0,0,0,-1,573,1520,0,0
-644,-496,0,0,0,0,0,0,0,0,0,-1,580,1520,0,0
-637,-496,0,0,0,0,0,0,0,0,0,-1,587,1520,0,0
-630,-496,0,0,0,0,0,0,0,0,0,-1,594,1520,0,0
-623,-496,0,0,0,0,0,0,0,0,0,-1,601,1520,0,0
-616,-496,0,0,0,0,0,0,0,0,0,-1,608,1520,0,0
-609,-496,0,0,0,0,0,0,0,0,0,-1,615,1520,0,0
-602,-496,0,0,0,0,0,0,0,0,0,-1,622,1520,0,0
-595,-496,0,0,0,0,0,0,0,0,0,-1,629,1520,0,0
-588,-496,0,0,0,0,0,0,0,0,0,-1,636,1520,0,0
-581,-496,0,0,0,0,0,0,0,0,0,-1,643,1520,0,0
-574,-496,0,0,0,0,0,0,0,0,0,-1,650,1520,0,0
-567,-496,0,0,0,0,0,0,0,0,0,-1,657,1520,0,0
-560,-496,0,0,0,0,0,0,0,0,0,-1,664,1520,0,0
-553,-496,0,0,0,0,0,0,0,0,0,-1,671,1520,0,0
-546,-496,-8.09711,7.94836,0,0,0,0,0,0,0,-1,678,1520,-8.09712,-7.94842
-539,-496,-3.20129,1.16052,0,0,0,0,0,0,0,-1,685,1520,-3.20131,-1.16054
-532,-496,-2.98279,2.62146,0,0,0,0,0,0,0,-1,692,1520,-2.98278,-2.62151
-525,-496,-2.75201,4.08032,0,0,0,0,0,0,0,-1,699,1520,-2.75201,-4.08031
-518,-496,-2.6333,5.36072,0,0,0,0,0,0,0,-1,706,1520,-2.63328,-5.36077
-511,-496,-7.92126,9.68604,0,0,0,0,0,0,0,-1,713,1520,-7.92127,-9.68598
-504,-496,-7.51044,11.6274,0,0,0,0,0,0,0,-1,720,1520,-7.51042,-11.6275
-497,-496,-5.30933,14.4291,0,0,0,0,0,0,0,-1,727,1520,-5.30932,-14.4291
-490,-496,-5.6507,15.8168,0,0,0,0,0,0,0,-1,734,1520,-5.65072,-15.8168
-483,-496,-5.7326,16.524,-0.00212316,-0.000991449,-8.61581e-05,-0.000984927,-0.00212968,-1.49525,0.00123072,0.0357852,741,1520,-5.73263,-16.524
-476,-496,-5.85229,17.0059,-0.00154249,-0.000685144,-0.000137357,-0.000663675,-0.00156396,-1.41575,0.000906388,0.016029,748,1520,-5.85227,-17.0059
-469,-496,-5.86749,17.6265,-0.000969771,-0.000330726,8.4214e-06,-0.000330615,-0.000969882,1.55762,0.000569335,0.0102896,755,1520,-5.86748,-17.6265
-462,-496,-5.90106,18.241,-0.000389401,0.000141985,0.000230837,0.000228255,-0.000475672,1.21314,0.000414696,0.0146261,762,1520,-5.90106,-18.241
-455,-496,-5.91193,18.8497,0.000166336,0.000601709,0.000487282,0.000917718,-0.000149673,0.995466,0.000667322,0.0208795,769,1520,-5.91194,-18.8498
-448,-496,-5.92834,19.4481,0.000833866,0.00120759,0.000945161,0.00198419,5.72749e-05,0.882993,0.00130412,0.0203595,776,1520,-5.92834,-19.4481
-441,-496,-5.95331,20.0321,0.00162182,0.00203168,0.00161245,0.00345217,0.00020133,0.848605,0.00223736,0.0147688,783,1520,-5.95333,-20.0321
-434,-496,-6.01074,20.6112,0.002489,0.00312909,0.00249038,0.00531991,0.000298183,0.849305,0.00345151,0.0138353,790,1520,-6.01077,-20.6113
-427,-496,-6.0188,21.1989,0.00348237,0.00434053,0.00351314,0.00745069,0.000372208,0.846165,0.00484782,0.0177159,797,1520,-6.01882,-21.1988
-420,-496,-6.00629,21.7808,0.00463846,0.00591997,0.00479175,0.0101136,0.000444817,0.851864,0.00659914,0.0187135,804,1520,-6.00631,-21.7807
-413,-496,-5.95245,22.4286,0.00614244,0.00768208,0.00657214,0.0135293,0.000295195,0.843699,0.00892278,0.0309389,811,1520,-5.95245,-22.4286
-406,-496,-5.79523,23.0792,0,0,0,0,0,0,0,-1,818,1520,-5.79525,-23.0792
-399,-496,-5.51813,24.1362,0,0,0,0,0,0,0,-1,825,1520,-5.51813,-24.1363
-392,-496,-1.49786,12.387,0,0,0,0,0,0,0,-1,832,1520,-1.49788,-12.387
-385,-496,-1.72437,11.4985,0,0,0,0,0,0,0,-1,839,1520,-1.72436,-11.4985
-378,-496,-1.45532,14.0719,0,0,0,0,0,0,0,-1,846,1520,-1.45533,-14.0719
-371,-496,0.0877075,12.5299,0,0,0,0,0,0,0,-1,853,1520,0.0876896,-12.5299
-364,-496,0.0881348,10.6422,0,0,0,0,0,0,0,-1,860,1520,0.0881368,-10.6423
-357,-496,0.323792,7.56812,0,0,0,0,0,0,0,-1,867,1520,0.323782,-7.56806
-350,-496,2.1535,7.18945,0,0,0,0,0,0,0,-1,874,1520,2.15348,-7.1894
-343,-496,-7.56244,0.335327,0,0,0,0,0,0,0,-1,881,1520,-7.56242,-0.335322
-336,-496,-3.99249,6.02222,0,0,0,0,0,0,0,-1,888,1520,-3.99246,-6.0222
-329,-496,-6.93689,-0.100342,0,0,0,0,0,0,0,-1,895,1520,-6.93686,0.1003
-322,-496,-6.17505,0.494385,0,0,0,0,0,0,0,-1,902,1520,-6.17507,-0.49437
-315,-496,-7.539,5.78638,0,0,0,0,0,0,0,-1,909,1520,-7.53898,-5.78633
-308,-496,0,0,0,0,0,0,0,0,0,-1,916,1520,0,0
-301,-496,0,0,0,0,0,0,0,0,0,-1,923,1520,0,0
-294,-496,0,0,0,0,0,0,0,0,0,-1,930,1520,0,0
-287,-496,0,0,0,0,0,0,0,0,0,-1,937,1520,0,0
-280,-496,0,0,0,0,0,0,0,0,0,-1,944,1520,0,0
-273,-496,0,0,0,0,0,0,0,0,0,-1,951,1520,0,0
-266,-496,0,0,0,0,0,0,0,0,0,-1,958,1520,0,0
-259,-496,0,0,0,0,0,0,0,0,0,-1,965,1520,0,0
-252,-496,0,0,0,0,0,0,0,0,0,-1,972,1520,0,0
-245,-496,0,0,0,0,0,0,0,0,0,-1,979,1520,0,0
-238,-496,0,0,0,0,0,0,0,0,0,-1,986,1520,0,0
-231,-496,0,0,0,0,0,0,0,0,0,-1,993,1520,0,0
-224,-496,0,0,0,0,0,0,0,0,0,-1,1000,1520,0,0
-217,-496,0,0,0,0,0,0,0,0,0,-1,1007,1520,0,0
-210,-496,0,0,0,0,0,0,0,0,0,-1,1014,1520,0,0
-203,-496,0,0,0,0,0,0,0,0,0,-1,1021,1520,0,0
-196,-496,0,0,0,0,0,0,0,0,0,-1,1028,1520,0,0
-189,-496,0,0,0,0,0,0,0,0,0,-1,1035,1520,0,0
-182,-496,0,0,0,0,0,0,0,0,0,-1,1042,1520,0,0
-175,-496,0,0,0,0,0,0,0,0,0,-1,1049,1520,0,0
-168,-496,0,0,0,0,0,0,0,0,0,-1,1056,1520,0,0
-161,-496,0,0,0,0,0,0,0,0,0,-1,1063,1520,0,0
-154,-496,0,0,0,0,0,0,0,0,0,-1,1070,1520,0,0
-147,-496,0,0,0,0,0,0,0,0,0,-1,1077,1520,0,0
-140,-496,0,0,0,0,0,0,0,0,0,-1,1084,1520,0,0
-133,-496,0,0,0,0,0,0,0,0,0,-1,1091,1520,0,0
-126,-496,0,0,0,0,0,0,0,0,0,-1,1098,1520,0,0
-119,-496,0,0,0,0,0,0,0,0,0,-1,1105,1520,0,0
-112,-496,0,0,0,0,0,0,0,0,0,-1,1112,1520,0,0
-105,-496,0,0,0,0,0,0,0,0,0,-1,1119,1520,0,0
-98,-496,0,0,0,0,0,0,0,0,0,-1,1126,1520,0,0
-91,-496,0,0,0,0,0,0,0,0,0,-1,1133,1520,0,0
-84,-496,0,0,0,0,0,0,0,0,0,-1,1140,1520,0,0
-77,-496,0,0,0,0,0,0,0,0,0,-1,1147,1520,0,0
-70,-496,0,0,0,0,0,0,0,0,0,-1,1154,1520,0,0
-63,-496,0,0,0,0,0,0,0,0,0,-1,1161,1520,0,0
-56,-496,0,0,0,0,0,0,0,0,0,-1,1168,1520,0,0
-49,-496,0,0,0,0,0,0,0,0,0,-1,1175,1520,0,0
-42,-496,0,0,0,0,0,0,0,0,0,-1,1182,1520,0,0
-35,-496,0,0,0,0,0,0,0,0,0,-1,1189,1520,0,0
-28,-496,0,0,0,0,0,0,0,0,0,-1,1196,1520,0,0
-21,-496,0,0,0,0,0,0,0,0,0,-1,1203,1520,0,0
-14,-496,0,0,0,0,0,0,0,0,0,-1,1210,1520,0,0
-7,-496,0,0,0,0,0,0,0,0,0,-1,1217,1520,0,0
0,-496,0,0,0,0,0,0,0,0,0,-1,1224,1520,0,0
7,-496,0,0,0,0,0,0,0,0,0,-1,1231,1520,0,0
14,-496,0,0,0,0,0,0,0,0,0,-1,1238,1520,0,0
21,-496,0,0,0,0,0,0,0,0,0,-1,1245,1520,0,0
28,-496,0,0,0,0,0,0,0,0,0,-1,1252,1520,0,0
35,-496,0,0,0,0,0,0,0,0,0,-1,1259,1520,0,0
42,-496,0,0,0,0,0,0,0,0,0,-1,1266,1520,0,0
49,-496,0,0,0,0,0,0,0,0,0,-1,1273,1520,0,0
56,-496,0,0,0,0,0,0,0,0,0,-1,1280,1520,0,0
63,-496,0,0,0,0,0,0,0,0,0,-1,1287,1520,0,0
70,-496,0,0,0,0,0,0,0,0,0,-1,1294,1520,0,0
77,-496,0,0,0,0,0,0,0,0,0,-1,1301,1520,0,0
84,-496,0,0,0,0,0,0,0,0,0,-1,1308,1520,0,0
91,-496,0,0,0,0,0,0,0,0,0,-1,1315,1520,0,0
98,-496,0,0,0,0,0,0,0,0,0,-1,1322,1520,0,0
105,-496,0,0,0,0,0,0,0,0,0,-1,1329,1520,0,0
112,-496,0,0,0,0,0,0,0,0,0,-1,1336,1520,0,0
119,-496,0,0,0,0,0,0,0,0,0,-1,1343,1520,0,0
126,-496,0,0,0,0,0,0,0,0,0,-1,1350,1520,0,0
133,-496,0,0,0,0,0,0,0,0,0,-1,1357,1520,0,0
140,-496,0,0,0,0,0,0,0,0,0,-1,1364,1520,0,0
147,-496,0,0,0,0,0,0,0,0,0,-1,1371,1520,0,0
154,-496,0,0,0,0,0,0,0,0,0,-1,1378,1520,0,0
161,-496,0,0,0,0,0,0,0,0,0,-1,1385,1520,0,0
168,-496,0,0,0,0,0,0,0,0,0,-1,1392,1520,0,0
175,-496,0,0,0,0,0,0,0,0,0,-1,1399,1520,0,0
182,-496,0,0,0,0,0,0,0,0,0,-1,1406,1520,0,0
189,-496,0,0,0,0,0,0,0,0,0,-1,1413,1520,0,0
196,-496,0,0,0,0,0,0,0,0,0,-1,1420,1520,0,0
203,-496,0,0,0,0,0,0,0,0,0,-1,1427,1520,0,0
210,-496,0,0,0,0,0,0,0,0,0,-1,1434,1520,0,0
217,-496,0,0,0,0,0,0,0,0,0,-1,1441,1520,0,0
224,-496,0,0,0,0,0,0,0,0,0,-1,1448,1520,0,0
231,-496,0,0,0,0,0,0,0,0,0,-1,1455,1520,0,0
238,-496,0,0,0,0,0,0,0,0,0,-1,1462,1520,0,0
245,-496,0,0,0,0,0,0,0,0,0,-1,1469,1520,0,0
252,-496,0,0,0,0,0,0,0,0,0,-1,1476,1520,0,0
259,-496,0,0,0,0,0,0,0,0,0,-1,1483,1520,0,0
266,-496,0,0,0,0,0,0,0,0,0,-1,1490,1520,0,0
273,-496,0,0,0,0,0,0,0,0,0,-1,1497,1520,0,0
280,-496,0,0,0,0,0,0,0,0,0,-1,1504,1520,0,0
287,-496,0,0,0,0,0,0,0,0,0,-1,1511,1520,0,0
294,-496,0,0,0,0,0,0,0,0,0,-1,1518,1520,0,0
301,-496,0,0,0,0,0,0,0,0,0,-1,1525,1520,0,0
308,-496,0,0,0,0,0,0,0,0,0,-1,1532,1520,0,0
315,-496,0,0,0,0,0,0,0,0,0,-1,1539,1520,0,0
322,-496,0,0,0,0,0,0,0,0,0,-1,1546,1520,0,0
329,-496,0,0,0,0,0,0,0,0,0,-1,1553,1520,0,0
336,-496,0,0,0,0,0,0,0,0,0,-1,1560,1520,0,0
343,-496,0,0,0,0,0,0,0,0,0,-1,1567,1520,0,0
350,-496,0,0,0,0,0,0,0,0,0,-1,1574,1520,0,0
357,-496,0,0,0,0,0,0,0,0,0,-1,1581,1520,0,0
364,-496,0,0,0,0,0,0,0,0,0,-1,1588,1520,0,0
371,-496,0,0,0,0,0,0,0,0,0,-1,1595,1520,0,0
378,-496,0,0,0,0,0,0,0,0,0,-1,1602,1520,0,0
385,-496,0,0,0,0,0,0,0,0,0,-1,1609,1520,0,0
392,-496,0,0,0,0,0,0,0,0,0,-1,1616,1520,0,0
399,-496,0,0,0,0,0,0,0,0,0,-1,1623,1520,0,0
406,-496,0,0,0,0,0,0,0,0,0,-1,1630,1520,0,0
413,-496,0,0,0,0,0,0,0,0,0,-1,1637,1520,0,0
420,-496,0,0,0,0,0,0,0,0,0,-1,1644,1520,0,0
427,-496,0,0,0,0,0,0,0,0,0,-1,1651,1520,0,0
434,-496,11.0457,3.37732,0,0,0,0,0,0,0,-1,1658,1520,11.0456,-3.37736
441,-496,11.788,2.75488,0,0,0,0,0,0,0,-1,1665,1520,11.7879,-2.75485
448,-496,12.2146,2.18494,0,0,0,0,0,0,0,-1,1672,1520,12.2146,-2.18489
455,-496,12.3489,1.65173,0,0,0,0,0,0,0,-1,1679,1520,12.3489,-1.65178
462,-496,12.1912,1.32361,0,0,0,0,0,0,0,-1,1686,1520,12.1911,-1.32357
469,-496,14.8138,5.77954,0,0,0,0,0,0,0,-1,1693,1520,14.8138,-5.77958
476,-496,15.2449,6.27942,0,0,0,0,0,0,0,-1,1700,1520,15.2449,-6.27936
483,-496,9.19812,6.88367,0,0,0,0,0,0,0,-1,1707,1520,9.19812,-6.88361
490,-496,10.2123,7.97144,0,0,0,0,0,0,0,-1,1714,1520,10.2122,-7.97145
497,-496,13.9297,12.2981,0,0,0,0,0,0,0,-1,1721,1520,13.9297,-12.2982
504,-496,16.3271,16.6501,0,0,0,0,0,0,0,-1,1728,1520,16.3272,-16.6502
511,-496,17.6753,18.0685,0,0,0,0,0,0,0,-1,1735,1520,17.6753,-18.0685
518,-496,17.0537,17.3118,0,0,0,0,0,0,0,-1,1742,1520,17.0538,-17.3118
525,-496,18.2721,19.3259,0,0,0,0,0,0,0,-1,1749,1520,18.2721,-19.3259
532,-496,21.9926,25.1526,0,0,0,0,0,0,0,-1,1756,1520,21.9925,-25.1525
539,-496,22.1255,24.2543,0,0,0,0,0,0,0,-1,1763,1520,22.1255,-24.2543
546,-496,22.3307,23.542,0.00761208,0.0058135,-0.00503165,0.0118242,0.00160141,-0.696968,0.00740691,0.0180569,1770,1520,22.3307,-23.5419
553,-496,22.442,22.8723,0.0059303,0.00431833,-0.00369372,0.00890495,0.00134368,-0.67798,0.00554329,0.0149545,1777,1520,22.442,-22.8723
560,-496,22.4252,22.3455,0.00463444,0.00313303,-0.00269429,0.00668066,0.00108681,-0.64953,0.00413933,0.0139789,1784,1520,22.4252,-22.3455
567,-496,22.3986,21.7924,0.00372319,0.00230101,-0.00207674,0.00520721,0.000816993,-0.620451,0.00323373,0.0112685,1791,1520,22.3985,-21.7924
574,-496,22.376,21.2446,0.00310954,0.00171019,-0.00169894,0.00424724,0.000572486,-0.590066,0.00266127,0.0120679,1798,1520,22.376,-21.2447
581,-496,22.3673,20.7114,0.0026746,0.00122202,-0.00145299,0.00357271,0.000323905,-0.553631,0.00228152,0.0131378,1805,1520,22.3673,-20.7114
588,-496,22.3639,20.1512,0.00246986,0.000917755,-0.00135093,0.00325177,0.000135842,-0.524684,0.00212402,0.0162302,1812,1520,22.3639,-20.1512
595,-496,22.316,19.6217,0.00262427,0.000666208,-0.00133761,0.00330285,-1.23805e-05,-0.469482,0.00220604,0.0178096,1819,1520,22.3161,-19.6218
602,-496,22.2888,19.08,0.00291058,0.000557267,-0.00142929,0.00358524,-0.000117395,-0.44102,0.00243024,0.0190035,1826,1520,22.2888,-19.08
609,-496,22.2977,18.464,0.00331395,0.000421198,-0.00150164,0.0039525,-0.000217352,-0.402071,0.00271036,0.0176594,1833,1520,22.2978,-18.464
616,-496,22.3721,17.7786,0.0041119,0.000109279,-0.00147282,0.00459543,-0.00037425,-0.317216,0.00319568,0.0401707,1840,1520,22.3721,-17.7786
623,-496,22.3527,17.212,0,0,0,0,0,0,0,-1,1847,1520,22.3526,-17.2121
630,-496,18.5656,13.8966,0,0,0,0,0,0,0,-1,1854,1520,18.5655,-13.8967
637,-496,14.6411,10.1016,0,0,0,0,0,0,0,-1,1861,1520,14.6411,-10.1016
644,-496,12.4537,10.087,0,0,0,0,0,0,0,-1,1868,1520,12.4537,-10.0871
651,-496,8.18506,5.47803,0,0,0,0,0,0,0,-1,1875,1520,8.18505,-5.47806
658,-496,7.79993,4.02563,0,0,0,0,0,0,0,-1,1882,1520,7.79997,-4.02568
665,-496,5.47583,7.90625,0,0,0,0,0,0,0,-1,1889,1520,5.47581,-7.90628
672,-496,0,0,0,0,0,0,0,0,0,-1,1896,1520,0,0
679,-496,0,0,0,0,0,0,0,0,0,-1,1903,1520,0,0
686,-496,0,0,0,0,0,0,0,0,0,-1,1910,1520,0,0
693,-496,0,0,0,0,0,0,0,0,0,-1,1917,1520,0,0
700,-496,0,0,0,0,0,0,0,0,0,-1,1924,1520,0,0
707,-496,0,0,0,0,0,0,0,0,0,-1,1931,1520,0,0
714,-496,0,0,0,0,0,0,0,0,0,-1,1938,1520,0,0
721,-496,0,0,0,0,0,0,0,0,0,-1,1945,1520,0,0
728,-496,0,0,0,0,0,0,0,0,0,-1,1952,1520,0,0
735,-496,0,0,0,0,0,0,0,0,0,-1,1959,1520,0,0
742,-496,0,0,0,0,0,0,0,0,0,-1,1966,1520,0,0
749,-496,0,0,0,0,0,0,0,0,0,-1,1973,1520,0,0
756,-496,0,0,0,0,0,0,0,0,0,-1,1980,1520,0,0
763,-496,0,0,0,0,0,0,0,0,0,-1,1987,1520,0,0
770,-496,0,0,0,0,0,0,0,0,0,-1,1994,1520,0,0
777,-496,0,0,0,0,0,0,0,0,0,-1,2001,1520,0,0
784,-496,0,0,0,0,0,0,0,0,0,-1,2008,1520,0,0
791,-496,0,0,0,0,0,0,0,0,0,-1,2015,1520,0,0
798,-496,0,0,0,0,0,0,0,0,0,-1,2022,1520,0,0
805,-496,0,0,0,0,0,0,0,0,0,-1,2029,1520,0,0
812,-496,0,0,0,0,0,0,0,0,0,-1,2036,1520,0,0
-700,-503,0,0,0,0,0,0,0,0,0,-1,524,1527,0,0
-693,-503,0,0,0,0,0,0,0,0,0,-1,531,1527,0,0
-686,-503,0,0,0,0,0,0,0,0,0,-1,538,1527,0,0
-679,-503,0,0,0,0,0,0,0,0,0,-1,545,1527,0,0
-672,-503,0,0,0,0,0,0,0,0,0,-1,552,1527,0,0
-665,-503,0,0,0,0,0,0,0,0,0,-1,559,1527,0,0
-658,-503,0,0,0,0,0,0,0,0,0,-1,566,1527,0,0
-651,-503,0,0,0,0,0,0,0,0,0,-1,573,1527,0,0
-644,-503,0,0,0,0,0,0,0,0,0,-1,580,1527,0,0
-637,-503,0,0,0,0,0,0,0,0,0,-1,587,1527,0,0
-630,-503,0,0,0,0,0,0,0,0,0,-1,594,1527,0,0
-623,-503,0,0,0,0,0,0,0,0,0,-1,601,1527,0,0
-616,-503,0,0,0,0,0,0,0,0,0,-1,608,1527,0,0
-609,-503,0,0,0,0,0,0,0,0,0,-1,615,1527,0,0
-602,-503,0,0,0,0,0,0,0,0,0,-1,622,1527,0,0
-595,-503,0,0,0,0,0,0,0,0,0,-1,629,1527,0,0
-588,-503,0,0,0,0,0,0,0,0,0,-1,636,1527,0,0
-581,-503,0,0,0,0,0,0,0,0,0,-1,643,1527,0,0
-574,-503,0,0,0,0,0,0,0,0,0,-1,650,1527,0,0
-567,-503,0,0,0,0,0,0,0,0,0,-1,657,1527,0,0
-560,-503,0,0,0,0,0,0,0,0,0,-1,664,1527,0,0
-553,-503,0,0,0,0,0,0,0,0,0,-1,671,1527,0,0
-546,-503,0,0,0,0,0,0,0,0,0,-1,678,1527,0,0
-539,-503,3.50177,4.26428,0,0,0,0,0,0,0,-1,685,1527,3.50177,-4.26424
-532,-503,-3.13196,1.05298,0,0,0,0,0,0,0,-1,692,1527,-3.13194,-1.05299
-525,-503,-2.94293,2.59314,0,0,0,0,0,0,0,-1,699,1527,-2.94296,-2.59314
-518,-503,-2.7395,4.05872,0,0,0,0,0,0,0,-1,706,1527,-2.73948,-4.05871
-511,-503,-1.60022,7.23877,0,0,0,0,0,0,0,-1,713,1527,-1.60023,-7.23872
-504,-503,-8.1402,10.1541,0,0,0,0,0,0,0,-1,720,1527,-8.14017,-10.1541
-497,-503,-4.51758,14.0781,0,0,0,0,0,0,0,-1,727,1527,-4.5176,-14.0782
-490,-503,-4.28577,15.8732,0,0,0,0,0,0,0,-1,734,1527,-4.28578,-15.8731
-483,-503,-5.22736,16.5265,0,0,0,0,0,0,0,-1,741,1527,-5.22737,-16.5265
-476,-503,-5.16687,17.1331,-0.00206287,5.05873e-05,-0.000185892,6.68132e-05,-0.00207909,-1.48373,0.00140886,0.0287987,748,1527,-5.16688,-17.133
-469,-503,-5.27991,17.6572,-0.00142673,0.000324164,-5.81784e-05,0.000326095,-0.00142867,-1.53762,0.00107771,0.0121527,755,1527,-5.27993,-17.6572
-462,-503,-5.315,18.2755,-0.000834389,0.000677966,0.000107202,0.000685527,-0.00084195,1.50038,0.00088343,0.0120389,762,1527,-5.31499,-18.2755
-455,-503,-5.30566,18.8721,-0.000294233,0.000983536,0.000300055,0.00105049,-0.000361186,1.35126,0.000846799,0.019163,769,1527,-5.30564,-18.8721
-448,-503,-5.29944,19.4631,0.00031484,0.00134262,0.000639351,0.00164901,8.45495e-06,1.12392,0.00109653,0.0185915,776,1527,-5.29947,-19.4631
-441,-503,-5.31366,20.0437,0.00104136,0.00189703,0.00118168,0.00272594,0.000212451,0.959085,0.00175078,0.0139976,783,1527,-5.31365,-20.0437
-434,-503,-5.37537,20.6124,0.00185102,0.00269974,0.0019302,0.00425168,0.000299078,0.893602,0.00274021,0.0117062,790,1527,-5.37537,-20.6125
-427,-503,-5.44031,21.1708,0.00280016,0.00360751,0.00281477,0.0060474,0.000360264,0.856619,0.00391704,0.0178169,797,1527,-5.44028,-21.1708
-420,-503,-5.41437,21.7683,0.0039205,0.00479452,0.0039381,0.00831979,0.000395231,0.840657,0.00541959,0.0183917,804,1527,-5.41439,-21.7683
-413,-503,-5.43201,22.3694,0.00530736,0.00620669,0.00541489,0.0111906,0.000323493,0.826824,0.00735491,0.0158013,811,1527,-5.43204,-22.3694
-406,-503,-5.43347,22.9536,0.00702862,0.00808773,0.00718935,0.014767,0.000349347,0.822161,0.00973031,0.0251012,818,1527,-5.43348,-22.9536
-399,-503,-5.30988,23.7391,0.00966849,0.012188,0.00983432,0.0208429,0.00101355,0.849099,0.01357,0.0413552,825,1527,-5.3099,-23.7391
-392,-503,-4.9975,24.7917,0,0,0,0,0,0,0,-1,832,1527,-4.99749,-24.7918
-385,-503,-2.00403,14.1218,0,0,0,0,0,0,0,-1,839,1527,-2.00403,-14.1218
-378,-503,-2.07043,13.8632,0,0,0,0,0,0,0,-1,846,1527,-2.07043,-13.8631
-371,-503,-1.67285,13.8081,0,0,0,0,0,0,0,-1,853,1527,-1.67285,-13.8081
-364,-503,0.181396,12.3768,0,0,0,0,0,0,0,-1,860,1527,0.18138,-12.3768
-357,-503,0.558533,9.25452,0,0,0,0,0,0,0,-1,867,1527,0.558542,-9.25446
-350,-503,0.219971,6.84827,0,0,0,0,0,0,0,-1,874,1527,0.21996,-6.84831
-343,-503,-3.5802,4.43274,0,0,0,0,0,0,0,-1,881,1527,-3.58018,-4.43276
-336,-503,-3.2384,6.40637,0,0,0,0,0,0,0,-1,888,1527,-3.2384,-6.40643
-329,-503,-1.70691,11.886,0,0,0,0,0,0,0,-1,895,1527,-1.70689,-11.886
-322,-503,-3.31317,8.81519,0,0,0,0,0,0,0,-1,902,1527,-3.31315,-8.81524
-315,-503,-3.90265,7.73853,0,0,0,0,0,0,0,-1,909,1527,-3.90264,-7.73854
-308,-503,-1.70264,7.35413,0,0,0,0,0,0,0,-1,916,1527,-1.70262,-7.35416
-301,-503,0,0,0,0,0,0,0,0,0,-1,923,1527,0,0
-294,-503,0,0,0,0,0,0,0,0,0,-1,930,1527,0,0
-287,-503,0,0,0,0,0,0,0,0,0,-1,937,1527,0,0
-280,-503,0,0,0,0,0,0,0,0,0,-1,944,1527,0,0
-273,-503,0,0,0,0,0,0,0,0,0,-1,951,1527,0,0
-266,-503,0,0,0,0,0,0,0,0,0,-1,958,1527,0,0
-259,-503,0,0,0,0,0,0,0,0,0,-1,965,1527,0,0
-252,-503,0,0,0,0,0,0,0,0,0,-1,972,1527,0,0
-245,-503,0,0,0,0,0,0,0,0,0,-1,979,1527,0,0
-238,-503,0,0,0,0,0,0,0,0,0,-1,986,1527,0,0
-231,-503,0,0,0,0,0,0,0,0,0,-1,993,1527,0,0
-224,-503,0,0,0,0,0,0,0,0,0,-1,1000,1527,0,0
-217,-503,0,0,0,0,0,0,0,0,0,-1,1007,1527,0,0
-210,-503,0,0,0,0,0,0,0,0,0,-1,1014,1527,0,0
-203,-503,0,0,0,0,0,0,0,0,0,-1,1021,1527,0,0
-196,-503,0,0,0,0,0,0,0,0,0,-1,1028,1527,0,0
-189,-503,0,0,0,0,0,0,0,0,0,-1,1035,1527,0,0
-182,-503,0,0,0,0,0,0,0,0,0,-1,1042,1527,0,0
-175,-503,0,0,0,0,0,0,0,0,0,-1,1049,1527,0,0
-168,-503,0,0,0,0,0,0,0,0,0,-1,1056,1527,0,0
-161,-503,0,0,0,0,0,0,0,0,0,-1,1063,1527,0,0
-154,-503,0,0,0,0,0,0,0,0,0,-1,1070,1527,0,0
-147,-503,0,0,0,0,0,0,0,0,0,-1,1077,1527,0,0
-140,-503,0,0,0,0,0,0,0,0,0,-1,1084,1527,0,0
-133,-503,0,0,0,0,0,0,0,0,0,-1,1091,1527,0,0
-126,-503,0,0,0,0,0,0,0,0,0,-1,1098,1527,0,0
-119,-503,0,0,0,0,0,0,0,0,0,-1,1105,1527,0,0
-112,-503,0,0,0,0,0,0,0,0,0,-1,1112,1527,0,0
-105,-503,0,0,0,0,0,0,0,0,0,-1,1119,1527,0,0
-98,-503,0,0,0,0,0,0,0,0,0,-1,1126,1527,0,0
-91,-503,0,0,0,0,0,0,0,0,0,-1,1133,1527,0,0
-84,-503,0,0,0,0,0,0,0,0,0,-1,1140,1527,0,0
-77,-503,0,0,0,0,0,0,0,0,0,-1,1147,1527,0,0
-70,-503,0,0,0,0,0,0,0,0,0,-1,1154,1527,0,0
-63,-503,0,0,0,0,0,0,0,0,0,-1,1161,1527,0,0
-56,-503,0,0,0,0,0,0,0,0,0,-1,1168,1527,0,0
-49,-503,0,0,0,0,0,0,0,0,0,-1,1175,1527,0,0
-42,-503,0,0,0,0,0,0,0,0,0,-1,1182,1527,0,0
-35,-503,0,0,0,0,0,0,0,0,0,-1,1189,1527,0,0
-28,-503,0,0,0,0,0,0,0,0,0,-1,1196,1527,0,0
-21,-503,0,0,0,0,0,0,0,0,0,-1,1203,1527,0,0
-14,-503,0,0,0,0,0,0,0,0,0,-1,1210,1527,0,0
-7,-503,0,0,0,0,0,0,0,0,0,-1,1217,1527,0,0
0,-503,0,0,0,0,0,0,0,0,0,-1,1224,1527,0,0
7,-503,0,0,0,0,0,0,0,0,0,-1,1231,1527,0,0
14,-503,0,0,0,0,0,0,0,0,0,-1,1238,1527,0,0
21,-503,0,0,0,0,0,0,0,0,0,-1,1245,1527,0,0
28,-503,0,0,0,0,0,0,0,0,0,-1,1252,1527,0,0
35,-503,0,0,0,0,0,0,0,0,0,-1,1259,1527,0,0
42,-503,0,0,0,0,0,0,0,0,0,-1,1266,1527,0,0
49,-503,0,0,0,0,0,0,0,0,0,-1,1273,1527,0,0
56,-503,0,0,0,0,0,0,0,0,0,-1,1280,1527,0,0
63,-503,0,0,0,0,0,0,0,0,0,-1,1287,1527,0,0
70,-503,0,0,0,0,0,0,0,0,0,-1,1294,1527,0,0
77,-503,0,0,0,0,0,0,0,0,0,-1,1301,1527,0,0
84,-503,0,0,0,0,0,0,0,0,0,-1,1308,1527,0,0
91,-503,0,0,0,0,0,0,0,0,0,-1,1315,1527,0,0
98,-503,0,0,0,0,0,0,0,0,0,-1,1322,1527,0,0
105,-503,0,0,0,0,0,0,0,0,0,-1,1329,1527,0,0
112,-503,0,0,0,0,0,0,0,0,0,-1,1336,1527,0,0
119,-503,0,0,0,0,0,0,0,0,0,-1,1343,1527,0,0
126,-503,0,0,0,0,0,0,0,0,0,-1,1350,1527,0,0
133,-503,0,0,0,0,0,0,0,0,0,-1,1357,1527,0,0
140,-503,0,0,0,0,0,0,0,0,0,-1,1364,1527,0,0
147,-503,0,0,0,0,0,0,0,0,0,-1,1371,1527,0,0
154,-503,0,0,0,0,0,0,0,0,0,-1,1378,1527,0,0
161,-503,0,0,0,0,0,0,0,0,0,-1,1385,1527,0,0
168,-503,0,0,0,0,0,0,0,0,0,-1,1392,1527,0,0
175,-503,0,0,0,0,0,0,0,0,0,-1,1399,1527,0,0
182,-503,0,0,0,0,0,0,0,0,0,-1,1406,1527,0,0
189,-503,0,0,0,0,0,0,0,0,0,-1,1413,1527,0,0
196,-503,0,0,0,0,0,0,0,0,0,-1,1420,1527,0,0
203,-503,0,0,0,0,0,0,0,0,0,-1,1427,1527,0,0
210,-503,0,0,0,0,0,0,0,0,0,-1,1434,1527,0,0
217,-503,0,0,0,0,0,0,0,0,0,-1,1441,1527,0,0
224,-503,0,0,0,0,0,0,0,0,0,-1,1448,1527,0,0
231,-503,0,0,0,0,0,0,0,0,0,-1,1455,1527,0,0
238,-503,0,0,0,0,0,0,0,0,0,-1,1462,1527,0,0
245,-503,0,0,0,0,0,0,0,0,0,-1,1469,1527,0,0
252,-503,0,0,0,0,0,0,0,0,0,-1,1476,1527,0,0
259,-503,0,0,0,0,0,0,0,0,0,-1,1483,1527,0,0
266,-503,0,0,0,0,0,0,0,0,0,-1,1490,1527,0,0
273,-503,0,0,0,0,0,0,0,0,0,-1,1497,1527,0,0
280,-503,0,0,0,0,0,0,0,0,0,-1,1504,1527,0,0
287,-503,0,0,0,0,0,0,0,0,0,-1,1511,1527,0,0
294,-503,0,0,0,0,0,0,0,0,0,-1,1518,1527,0,0
301,-503,0,0,0,0,0,0,0,0,0,-1,1525,1527,0,0
308,-503,0,0,0,0,0,0,0,0,0,-1,1532,1527,0,0
315,-503,0,0,0,0,0,0,0,0,0,-1,1539,1527,0,0
322,-503,0,0,0,0,0,0,0,0,0,-1,1546,1527,0,0
329,-503,0,0,0,0,0,0,0,0,0,-1,1553,1527,0,0
336,-503,0,0,0,0,0,0,0,0,0,-1,1560,1527,0,0
343,-503,0,0,0,0,0,0,0,0,0,-1,1567,1527,0,0
350,-503,0,0,0,0,0,0,0,0,0,-1,1574,1527,0,0
357,-503,0,0,0,0,0,0,0,0,0,-1,1581,1527,0,0
364,-503,0,0,0,0,0,0,0,0,0,-1,1588,1527,0,0
371,-503,0,0,0,0,0,0,0,0,0,-1,1595,1527,0,0
378,-503,0,0,0,0,0,0,0,0,0,-1,1602,1527,0,0
385,-503,0,0,0,0,0,0,0,0,0,-1,1609,1527,0,0
392,-503,0,0,0,0,0,0,0,0,0,-1,1616,1527,0,0
399,-503,0,0,0,0,0,0,0,0,0,-1,1623,1527,0,0
406,-503,0,0,0,0,0,0,0,0,0,-1,1630,1527,0,0
413,-503,0,0,0,0,0,0,0,0,0,-1,1637,1527,0,0
420,-503,0,0,0,0,0,0,0,0,0,-1,1644,1527,0,0
427,-503,10.5968,4.9856,0,0,0,0,0,0,0,-1,1651,1527,10.5969,-4.98563
434,-503,11.4329,3.97217,0,0,0,0,0,0,0,-1,1658,1527,11.4328,-3.97222
441,-503,12.0957,2.96509,0,0,0,0,0,0,0,-1,1665,1527,12.0957,-2.96512
448,-503,12.3259,2.53894,0,0,0,0,0,0,0,-1,1672,1527,12.326,-2.53895
455,-503,12.1669,2.18762,0,0,0,0,0,0,0,-1,1679,1527,12.1668,-2.18767
462,-503,11.59,2.60791,0,0,0,0,0,0,0,-1,1686,1527,11.5899,-2.60794
469,-503,11.1625,1.61853,0,0,0,0,0,0,0,-1,1693,1527,11.1625,-1.61856
476,-503,9.07703,5.81042,0,0,0,0,0,0,0,-1,1700,1527,9.07699,-5.81047
483,-503,9.74414,6.92432,0,0,0,0,0,0,0,-1,1707,1527,9.74417,-6.9243
490,-503,10.5033,10.1071,0,0,0,0,0,0,0,-1,1714,1527,10.5032,-10.107
497,-503,15.0057,17.9476,0,0,0,0,0,0,0,-1,1721,1527,15.0058,-17.9476
504,-503,16.4764,18.4486,0,0,0,0,0,0,0,-1,1728,1527,16.4764,-18.4486
511,-503,16.8276,18.3271,0,0,0,0,0,0,0,-1,1735,1527,16.8276,-18.3272
518,-503,17.2533,18.2738,0,0,0,0,0,0,0,-1,1742,1527,17.2533,-18.2738
525,-503,20.9646,25.5166,0,0,0,0,0,0,0,-1,1749,1527,20.9646,-25.5166
532,-503,21.6808,24.7727,0.0103349,0.00850358,-0.00761109,0.0170852,0.00175326,-0.725534,0.010853,0.0468316,1756,1527,21.6808,-24.7727
539,-503,21.8259,24.0945,0.00805397,0.00645674,-0.00569746,0.0130085,0.0015022,-0.715767,0.0082175,0.0237274,1763,1527,21.8259,-24.0944
546,-503,21.8622,23.451,0.00629543,0.0048036,-0.00419365,0.00980898,0.00129005,-0.697384,0.00615454,0.013543,1770,1527,21.8621,-23.451
553,-503,21.8802,22.9159,0.00488594,0.00347244,-0.00302152,0.00728226,0.00107612,-0.670511,0.00453886,0.0134732,1777,1527,21.8803,-22.9159
560,-503,21.8545,22.3754,0.00382767,0.0024172,-0.00215075,0.00538585,0.000859014,-0.626971,0.00334124,0.0129743,1784,1527,21.8545,-22.3754
567,-503,21.8472,21.8103,0.00314885,0.00173721,-0.00167151,0.00425746,0.000628612,-0.585622,0.0026537,0.0119682,1791,1527,21.8472,-21.8103
574,-503,21.8345,21.2598,0.00275076,0.00126981,-0.00140787,0.00360101,0.000419565,-0.543301,0.00227376,0.0126611,1798,1527,21.8344,-21.2598
581,-503,21.7985,20.7268,0.00255735,0.000930778,-0.00130898,0.00328513,0.000203002,-0.507427,0.00212565,0.0140832,1805,1527,21.7984,-20.7268
588,-503,21.7744,20.1698,0.0026338,0.000852311,-0.00142694,0.00342519,6.09139e-05,-0.506375,0.00226343,0.016992,1812,1527,21.7744,-20.1698
595,-503,21.7479,19.6426,0.00305269,0.000845382,-0.00164456,0.0039296,-3.15297e-05,-0.489868,0.00263031,0.0126133,1819,1527,21.7479,-19.6426
602,-503,21.7982,19.052,0.00363345,0.00106417,-0.00199999,0.00472584,-2.82207e-05,-0.499918,0.00316001,0.0256729,1826,1527,21.7982,-19.052
609,-503,21.8613,18.3278,0,0,0,0,0,0,0,-1,1833,1527,21.8613,-18.3277
616,-503,21.9347,17.8491,0,0,0,0,0,0,0,-1,1840,1527,21.9347,-17.8491
623,-503,18.7351,15.5999,0,0,0,0,0,0,0,-1,1847,1527,18.7351,-15.5999
630,-503,20.6721,13.9077,0,0,0,0,0,0,0,-1,1854,1527,20.6721,-13.9077
637,-503,14.5564,9.20496,0,0,0,0,0,0,0,-1,1861,1527,14.5564,-9.2049
644,-503,11.4802,7.57214,0,0,0,0,0,0,0,-1,1868,1527,11.4802,-7.57215
651,-503,11.5718,6.5448,0,0,0,0,0,0,0,-1,1875,1527,11.5718,-6.54476
658,-503,8.25635,3.10498,0,0,0,0,0,0,0,-1,1882,1527,8.2563,-3.10493
665,-503,0,0,0,0,0,0,0,0,0,-1,1889,1527,0,0
672,-503,0,0,0,0,0,0,0,0,0,-1,1896,1527,0,0
679,-503,0,0,0,0,0,0,0,0,0,-1,1903,1527,0,0
686,-503,0,0,0,0,0,0,0,0,0,-1,1910,1527,0,0
693,-503,0,0,0,0,0,0,0,0,0,-1,1917,1527,0,0
700,-503,0,0,0,0,0,0,0,0,0,-1,1924,1527,0,0
707,-503,0,0,0,0,0,0,0,0,0,-1,1931,1527,0,0
714,-503,0,0,0,0,0,0,0,0,0,-1,1938,1527,0,0
721,-503,0,0,0,0,0,0,0,0,0,-1,1945,1527,0,0
728,-503,0,0,0,0,0,0,0,0,0,-1,1952,1527,0,0
735,-503,0,0,0,0,0,0,0,0,0,-1,1959,1527,0,0
742,-503,0,0,0,0,0,0,0,0,0,-1,1966,1527,0,0
749,-503,0,0,0,0,0,0,0,0,0,-1,1973,1527,0,0
756,-503,0,0,0,0,0,0,0,0,0,-1,1980,1527,0,0
763,-503,0,0,0,0,0,0,0,0,0,-1,1987,1527,0,0
770,-503,0,0,0,0,0,0,0,0,0,-1,1994,1527,0,0
777,-503,0,0,0,0,0,0,0,0,0,-1,2001,1527,0,0
784,-503,0,0,0,0,0,0,0,0,0,-1,2008,1527,0,0
791,-503,0,0,0,0,0,0,0,0,0,-1,2015,1527,0,0
798,-503,0,0,0,0,0,0,0,0,0,-1,2022,1527,0,0
805,-503,0,0,0,0,0,0,0,0,0,-1,2029,1527,0,0
812,-503,0,0,0,0,0,0,0,0,0,-1,2036,1527,0,0
-700,-510,0,0,0,0,0,0,0,0,0,-1,524,1534,0,0
-693,-510,0,0,0,0,0,0,0,0,0,-1,531,1534,0,0
-686,-510,0,0,0,0,0,0,0,0,0,-1,538,1534,0,0
-679,-510,0,0,0,0,0,0,0,0,0,-1,545,1534,0,0
-672,-510,0,0,0,0,0,0,0,0,0,-1,552,1534,0,0
-665,-510,0,0,0,0,0,0,0,0,0,-1,559,1534,0,0
-658,-510,0,0,0,0,0,0,0,0,0,-1,566,1534,0,0
-651,-510,0,0,0,0,0,0,0,0,0,-1,573,1534,0,0
-644,-510,0,0,0,0,0,0,0,0,0,-1,580,1534,0,0
-637,-510,0,0,0,0,0,0,0,0,0,-1,587,1534,0,0
-630,-510,0,0,0,0,0,0,0,0,0,-1,594,1534,0,0
-623,-510,0,0,0,0,0,0,0,0,0,-1,601,1534,0,0
-616,-510,0,0,0,0,0,0,0,0,0,-1,608,1534,0,0
-609,-510,0,0,0,0,0,0,0,0,0,-1,615,1534,0,0
-602,-510,0,0,0,0,0,0,0,0,0,-1,622,1534,0,0
-595,-510,0,0,0,0,0,0,0,0,0,-1,629,1534,0,0
-588,-510,0,0,0,0,0,0,0,0,0,-1,636,1534,0,0
-581,-510,0,0,0,0,0,0,0,0,0,-1,643,1534,0,0
-574,-510,0,0,0,0,0,0,0,0,0,-1,650,1534,0,0
-567,-510,0,0,0,0,0,0,0,0,0,-1,657,1534,0,0
-560,-510,0,0,0,0,0,0,0,0,0,-1,664,1534,0,0
-553,-510,0,0,0,0,0,0,0,0,0,-1,671,1534,0,0
-546,-510,0,0,0,0,0,0,0,0,0,-1,678,1534,0,0
-539,-510,0,0,0,0,0,0,0,0,0,-1,685,1534,0,0
-532,-510,-3.95129,4.52014,0,0,0,0,0,0,0,-1,692,1534,-3.95131,-4.5202
-525,-510,-2.77411,0.316772,0,0,0,0,0,0,0,-1,699,1534,-2.77409,-0.3168
-518,-510,-2.86847,2.71423,0,0,0,0,0,0,0,-1,706,1534,-2.86849,-2.71424
-511,-510,-2.28571,4.48083,0,0,0,0,0,0,0,-1,713,1534,-2.28571,-4.48086
-504,-510,-4.86731,10.8224,0,0,0,0,0,0,0,-1,720,1534,-4.8673,-10.8224
-497,-510,-3.57507,15.3401,0,0,0,0,0,0,0,-1,727,1534,-3.57509,-15.3401
-490,-510,-4.28979,15.9021,0,0,0,0,0,0,0,-1,734,1534,-4.2898,-15.9021
-483,-510,-4.23047,16.4478,-0.0032404,0.00125772,0.000130991,0.00126153,-0.00324421,1.54171,0.00268403,0.0451741,741,1534,-4.23046,-16.4478
-476,-510,-4.39014,17.0702,-0.00222458,0.00161787,0.000113855,0.00162124,-0.00222795,1.5412,0.00223151,0.039363,748,1534,-4.39013,-17.0702
-469,-510,-4.67224,17.6957,-0.00148758,0.00175429,0.000214681,0.00176845,-0.00150174,1.50496,0.00189013,0.0154985,755,1534,-4.67225,-17.6957
-462,-510,-4.69971,18.2906,-0.000887434,0.00190016,0.000298324,0.00193173,-0.000919002,1.46537,0.00168013,0.0120771,762,1534,-4.69969,-18.2906
-455,-510,-4.72479,18.9037,-0.000390915,0.00195294,0.000396026,0.00201804,-0.00045602,1.40786,0.00152034,0.0148744,769,1534,-4.72479,-18.9037
-448,-510,-4.7149,19.4941,9.58552e-05,0.00195807,0.00056787,0.00211758,-6.36505e-05,1.29697,0.00143341,0.0134868,776,1534,-4.71488,-19.4942
-441,-510,-4.73456,20.076,0.000676524,0.00213968,0.000928088,0.00258986,0.000226344,1.11917,0.00165629,0.014264,783,1534,-4.73453,-20.0761
-434,-510,-4.80707,20.6407,0.0013368,0.00256674,0.00149153,0.0035651,0.000338438,0.980935,0.00227234,0.0156235,790,1534,-4.80708,-20.6407
-427,-510,-4.87073,21.1586,0.00213642,0.00312277,0.0021861,0.00487064,0.000388554,0.89634,0.00312563,0.02311,797,1534,-4.87073,-21.1585
-420,-510,-4.85291,21.7905,0.00309379,0.00391705,0.00310048,0.00663311,0.000377732,0.851393,0.00430169,0.0215212,804,1534,-4.85291,-21.7906
-413,-510,-4.86566,22.3768,0.00423674,0.00502058,0.00425835,0.00890501,0.00035231,0.831286,0.00582279,0.0109411,811,1534,-4.86568,-22.3768
-406,-510,-4.90088,22.9395,0.00562097,0.00652483,0.00567438,0.0117652,0.000380553,0.825136,0.00771977,0.0109426,818,1534,-4.90086,-22.9395
-399,-510,-4.90808,23.5121,0.00763089,0.00974395,0.00770383,0.0164634,0.00091148,0.853545,0.0106847,0.0151567,825,1534,-4.90809,-23.5121
-392,-510,-4.73584,24.349,0.0100242,0.0132414,0.00986511,0.0216282,0.00163739,0.866218,0.0139052,0.0463782,832,1534,-4.73581,-24.3489
-385,-510,-4.57776,25.2579,0,0,0,0,0,0,0,-1,839,1534,-4.57778,-25.258
-378,-510,-1.78308,13.8044,0,0,0,0,0,0,0,-1,846,1534,-1.78309,-13.8044
-371,-510,-1.74982,13.8027,0,0,0,0,0,0,0,-1,853,1534,-1.74981,-13.8028
-364,-510,-1.3479,13.7771,0,0,0,0,0,0,0,-1,860,1534,-1.34791,-13.7771
-357,-510,-0.254395,8.89575,0,0,0,0,0,0,0,-1,867,1534,-0.254397,-8.89569
-350,-510,0.471191,6.06458,0,0,0,0,0,0,0,-1,874,1534,0.47118,-6.06453
-343,-510,-6.96869,26.3074,0,0,0,0,0,0,0,-1,881,1534,-6.9687,-26.3074
-336,-510,-5.60437,29.5996,0,0,0,0,0,0,0,-1,888,1534,-5.60435,-29.5996
-329,-510,-4.87781,20.6893,0,0,0,0,0,0,0,-1,895,1534,-4.87782,-20.6894
-322,-510,-0.251526,11.973,0,0,0,0,0,0,0,-1,902,1534,-0.251497,-11.9731
-315,-510,-1.73047,10.9796,0,0,0,0,0,0,0,-1,909,1534,-1.73049,-10.9796
-308,-510,-2.05328,9.72034,0,0,0,0,0,0,0,-1,916,1534,-2.05327,-9.72036
-301,-510,-1.85437,11.5869,0,0,0,0,0,0,0,-1,923,1534,-1.85437,-11.5869
-294,-510,0,0,0,0,0,0,0,0,0,-1,930,1534,0,0
-287,-510,0,0,0,0,0,0,0,0,0,-1,937,1534,0,0
-280,-510,0,0,0,0,0,0,0,0,0,-1,944,1534,0,0
-273,-510,0,0,0,0,0,0,0,0,0,-1,951,1534,0,0
-266,-510,0,0,0,0,0,0,0,0,0,-1,958,1534,0,0
-259,-510,0,0,0,0,0,0,0,0,0,-1,965,1534,0,0
-252,-510,0,0,0,0,0,0,0,0,0,-1,972,1534,0,0
-245,-510,0,0,0,0,0,0,0,0,0,-1,979,1534,0,0
-238,-510,0,0,0,0,0,0,0,0,0,-1,986,1534,0,0
-231,-510,0,0,0,0,0,0,0,0,0,-1,993,1534,0,0
-224,-510,0,0,0,0,0,0,0,0,0,-1,1000,1534,0,0
-217,-510,0,0,0,0,0,0,0,0,0,-1,1007,1534,0,0
-210,-510,0,0,0,0,0,0,0,0,0,-1,1014,1534,0,0
-203,-510,0,0,0,0,0,0,0,0,0,-1,1021,1534,0,0
-196,-510,0,0,0,0,0,0,0,0,0,-1,1028,1534,0,0
-189,-510,0,0,0,0,0,0,0,0,0,-1,1035,1534,0,0
-182,-510,0,0,0,0,0,0,0,0,0,-1,1042,1534,0,0
-175,-510,0,0,0,0,0,0,0,0,0,-1,1049,1534,0,0
-168,-510,0,0,0,0,0,0,0,0,0,-1,1056,1534,0,0
-161,-510,0,0,0,0,0,0,0,0,0,-1,1063,1534,0,0
-154,-510,0,0,0,0,0,0,0,0,0,-1,1070,1534,0,0
-147,-510,0,0,0,0,0,0,0,0,0,-1,1077,1534,0,0
-140,-510,0,0,0,0,0,0,0,0,0,-1,1084,1534,0,0
-133,-510,0,0,0,0,0,0,0,0,0,-1,1091,1534,0,0
-126,-510,0,0,0,0,0,0,0,0,0,-1,1098,1534,0,0
-119,-510,0,0,0,0,0,0,0,0,0,-1,1105,1534,0,0
-112,-510,0,0,0,0,0,0,0,0,0,-1,1112,1534,0,0
-105,-510,0,0,0,0,0,0,0,0,0,-1,1119,1534,0,0
-98,-510,0,0,0,0,0,0,0,0,0,-1,1126,1534,0,0
-91,-510,0,0,0,0,0,0,0,0,0,-1,1133,1534,0,0
-84,-510,0,0,0,0,0,0,0,0,0,-1,1140,1534,0,0
-77,-510,0,0,0,0,0,0,0,0,0,-1,1147,1534,0,0
-70,-510,0,0,0,0,0,0,0,0,0,-1,1154,1534,0,0
-63,-510,0,0,0,0,0,0,0,0,0,-1,1161,1534,0,0
-56,-510,0,0,0,0,0,0,0,0,0,-1,1168,1534,0,0
-49,-510,0,0,0,0,0,0,0,0,0,-1,1175,1534,0,0
-42,-510,0,0,0,0,0,0,0,0,0,-1,1182,1534,0,0
-35,-510,0,0,0,0,0,0,0,0,0,-1,1189,1534,0,0
-28,-510,0,0,0,0,0,0,0,0,0,-1,1196,1534,0,0
-21,-510,0,0,0,0,0,0,0,0,0,-1,1203,1534,0,0
-14,-510,0,0,0,0,0,0,0,0,0,-1,1210,1534,0,0
-7,-510,0,0,0,0,0,0,0,0,0,-1,1217,1534,0,0
0,-510,0,0,0,0,0,0,0,0,0,-1,1224,1534,0,0
7,-510,0,0,0,0,0,0,0,0,0,-1,1231,1534,0,0
14,-510,0,0,0,0,0,0,0,0,0,-1,1238,1534,0,0
21,-510,0,0,0,0,0,0,0,0,0,-1,1245,1534,0,0
28,-510,0,0,0,0,0,0,0,0,0,-1,1252,1534,0,0
35,-510,0,0,0,0,0,0,0,0,0,-1,1259,1534,0,0
42,-510,0,0,0,0,0,0,0,0,0,-1,1266,1534,0,0
49,-510,0,0,0,0,0,0,0,0,0,-1,1273,1534,0,0
56,-510,0,0,0,0,0,0,0,0,0,-1,1280,1534,0,0
63,-510,0,0,0,0,0,0,0,0,0,-1,1287,1534,0,0
70,-510,0,0,0,0,0,0,0,0,0,-1,1294,1534,0,0
77,-510,0,0,0,0,0,0,0,0,0,-1,1301,1534,0,0
84,-510,0,0,0,0,0,0,0,0,0,-1,1308,1534,0,0
91,-510,0,0,0,0,0,0,0,0,0,-1,1315,1534,0,0
98,-510,0,0,0,0,0,0,0,0,0,-1,1322,1534,0,0
105,-510,0,0,0,0,0,0,0,0,0,-1,1329,1534,0,0
112,-510,0,0,0,0,0,0,0,0,0,-1,1336,1534,0,0
119,-510,0,0,0,0,0,0,0,0,0,-1,1343,1534,0,0
126,-510,0,0,0,0,0,0,0,0,0,-1,1350,1534,0,0
133,-510,0,0,0,0,0,0,0,0,0,-1,1357,1534,0,0
140,-510,0,0,0,0,0,0,0,0,0,-1,1364,1534,0,0
147,-510,0,0,0,0,0,0,0,0,0,-1,1371,1534,0,0
154,-510,0,0,0,0,0,0,0,0,0,-1,1378,1534,0,0
161,-510,0,0,0,0,0,0,0,0,0,-1,1385,1534,0,0
168,-510,0,0,0,0,0,0,0,0,0,-1,1392,1534,0,0
175,-510,0,0,0,0,0,0,0,0,0,-1,1399,1534,0,0
182,-510,0,0,0,0,0,0,0,0,0,-1,1406,1534,0,0
189,-510,0,0,0,0,0,0,0,0,0,-1,1413,1534,0,0
196,-510,0,0,0,0,0,0,0,0,0,-1,1420,1534,0,0
203,-510,0,0,0,0,0,0,0,0,0,-1,1427,1534,0,0
210,-510,0,0,0,0,0,0,0,0,0,-1,1434,1534,0,0
217,-510,0,0,0,0,0,0,0,0,0,-1,1441,1534,0,0
224,-510,0,0,0,0,0,0,0,0,0,-1,1448,1534,0,0
231,-510,0,0,0,0,0,0,0,0,0,-1,1455,1534,0,0
238,-510,0,0,0,0,0,0,0,0,0,-1,1462,1534,0,0
245,-510,0,0,0,0,0,0,0,0,0,-1,1469,1534,0,0
252,-510,0,0,0,0,0,0,0,0,0,-1,1476,1534,0,0
259,-510,0,0,0,0,0,0,0,0,0,-1,1483,1534,0,0
266,-510,0,0,0,0,0,0,0,0,0,-1,1490,1534,0,0
273,-510,0,0,0,0,0,0,0,0,0,-1,1497,1534,0,0
280,-510,0,0,0,0,0,0,0,0,0,-1,1504,1534,0,0
287,-510,0,0,0,0,0,0,0,0,0,-1,1511,1534,0,0
294,-510,0,0,0,0,0,0,0,0,0,-1,1518,1534,0,0
301,-510,0,0,0,0,0,0,0,0,0,-1,1525,1534,0,0
308,-510,0,0,0,0,0,0,0,0,0,-1,1532,1534,0,0
315,-510,0,0,0,0,0,0,0,0,0,-1,1539,1534,0,0
322,-510,0,0,0,0,0,0,0,0,0,-1,1546,1534,0,0
329,-510,0,0,0,0,0,0,0,0,0,-1,1553,1534,0,0
336,-510,0,0,0,0,0,0,0,0,0,-1,1560,1534,0,0
343,-510,0,0,0,0,0,0,0,0,0,-1,1567,1534,0,0
350,-510,0,0,0,0,0,0,0,0,0,-1,1574,1534,0,0
357,-510,0,0,0,0,0,0,0,0,0,-1,1581,1534,0,0
364,-510,0,0,0,0,0,0,0,0,0,-1,1588,1534,0,0
371,-510,0,0,0,0,0,0,0,0,0,-1,1595,1534,0,0
378,-510,0,0,0,0,0,0,0,0,0,-1,1602,1534,0,0
385,-510,0,0,0,0,0,0,0,0,0,-1,1609,1534,0,0
392,-510,0,0,0,0,0,0,0,0,0,-1,1616,1534,0,0
399,-510,0,0,0,0,0,0,0,0,0,-1,1623,1534,0,0
406,-510,0,0,0,0,0,0,0,0,0,-1,1630,1534,0,0
413,-510,0,0,0,0,0,0,0,0,0,-1,1637,1534,0,0
420,-510,14.1888,6.71936,0,0,0,0,0,0,0,-1,1644,1534,14.1889,-6.71939
427,-510,10.2134,5.59485,0,0,0,0,0,0,0,-1,1651,1534,10.2134,-5.59485
434,-510,11.8219,4.07898,0,0,0,0,0,0,0,-1,1658,1534,11.8219,-4.07895
441,-510,12.6812,3.02991,0,0,0,0,0,0,0,-1,1665,1534,12.6811,-3.0299
448,-510,13.2379,2.2804,0,0,0,0,0,0,0,-1,1672,1534,13.2379,-2.28037
455,-510,9.76892,2.20642,0,0,0,0,0,0,0,-1,1679,1534,9.76894,-2.20647
462,-510,9.84692,2.49182,0,0,0,0,0,0,0,-1,1686,1534,9.84695,-2.49185
469,-510,16.6072,7.26941,0,0,0,0,0,0,0,-1,1693,1534,16.6072,-7.26945
476,-510,15.9199,7.8645,0,0,0,0,0,0,0,-1,1700,1534,15.9199,-7.86455
483,-510,13.0833,8.10938,0,0,0,0,0,0,0,-1,1707,1534,13.0833,-8.10932
490,-510,13.0841,15.3286,0,0,0,0,0,0,0,-1,1714,1534,13.0841,-15.3286
497,-510,15.5652,18.823,0,0,0,0,0,0,0,-1,1721,1534,15.5652,-18.823
504,-510,15.998,18.7478,0,0,0,0,0,0,0,-1,1728,1534,15.998,-18.7478
511,-510,15.9443,18.0476,0,0,0,0,0,0,0,-1,1735,1534,15.9443,-18.0476
518,-510,21.0326,25.9346,0,0,0,0,0,0,0,-1,1742,1534,21.0326,-25.9346
525,-510,21.0563,25.3566,0,0,0,0,0,0,0,-1,1749,1534,21.0563,-25.3566
532,-510,21.3265,24.6125,0.00844467,0.00712143,-0.00633492,0.0141524,0.00141367,-0.733367,0.00900081,0.0250776,1756,1534,21.3265,-24.6126
539,-510,21.3905,23.984,0.00664947,0.00537132,-0.00476382,0.0108169,0.0012039,-0.71872,0.00684534,0.0143217,1763,1534,21.3905,-23.984
546,-510,21.3514,23.4886,0.00523928,0.00390657,-0.00348402,0.00812009,0.00102575,-0.690909,0.00510593,0.0137413,1770,1534,21.3514,-23.4886
553,-510,21.3217,22.943,0.00408806,0.00268809,-0.00244068,0.00592715,0.000848995,-0.645747,0.00370104,0.0131445,1777,1534,21.3216,-22.943
560,-510,21.3048,22.3816,0.00325157,0.00172751,-0.00166257,0.00431843,0.000660655,-0.570512,0.00268596,0.0139428,1784,1534,21.3049,-22.3816
567,-510,21.3004,21.828,0.00277597,0.001162,-0.00127654,0.00347922,0.000458758,-0.503531,0.00218269,0.0140285,1791,1534,21.3004,-21.828
574,-510,21.2832,21.3025,0.0025606,0.000797072,-0.0010906,0.00308131,0.000276368,-0.445442,0.00196856,0.0146057,1798,1534,21.2832,-21.3024
581,-510,21.2444,20.7871,0.00258337,0.000599989,-0.00111085,0.00308079,0.000102571,-0.421006,0.00202054,0.0129169,1805,1534,21.2444,-20.7871
588,-510,21.2222,20.2329,0.00292147,0.00076516,-0.00143225,0.00363601,5.06159e-05,-0.462763,0.00240731,0.0132542,1812,1534,21.2221,-20.2329
595,-510,21.3347,19.5575,0.00355269,0.00104444,-0.0018629,0.00454427,5.28586e-05,-0.489138,0.00301205,0.0223366,1819,1534,21.3348,-19.5575
602,-510,21.3853,18.926,0,0,0,0,0,0,0,-1,1826,1534,21.3853,-18.926
609,-510,20.798,18.4797,0,0,0,0,0,0,0,-1,1833,1534,20.7979,-18.4797
616,-510,18.7024,16.2474,0,0,0,0,0,0,0,-1,1840,1534,18.7024,-16.2474
623,-510,19.6013,14.6211,0,0,0,0,0,0,0,-1,1847,1534,19.6013,-14.6211
630,-510,13.7461,9.30334,0,0,0,0,0,0,0,-1,1854,1534,13.7461,-9.30335
637,-510,11.0155,7.38464,0,0,0,0,0,0,0,-1,1861,1534,11.0155,-7.38463
644,-510,11.5809,7.17126,0,0,0,0,0,0,0,-1,1868,1534,11.5809,-7.17123
651,-510,8.70471,3.5061,0,0,0,0,0,0,0,-1,1875,1534,8.70475,-3.50611
658,-510,0,0,0,0,0,0,0,0,0,-1,1882,1534,0,0
665,-510,0,0,0,0,0,0,0,0,0,-1,1889,1534,0,0
672,-510,0,0,0,0,0,0,0,0,0,-1,1896,1534,0,0
679,-510,0,0,0,0,0,0,0,0,0,-1,1903,1534,0,0
686,-510,0,0,0,0,0,0,0,0,0,-1,1910,1534,0,0
693,-510,0,0,0,0,0,0,0,0,0,-1,1917,1534,0,0
700,-510,0,0,0,0,0,0,0,0,0,-1,1924,1534,0,0
707,-510,0,0,0,0,0,0,0,0,0,-1,1931,1534,0,0
714,-510,0,0,0,0,0,0,0,0,0,-1,1938,1534,0,0
721,-510,0,0,0,0,0,0,0,0,0,-1,1945,1534,0,0
728,-510,0,0,0,0,0,0,0,0,0,-1,1952,1534,0,0
735,-510,0,0,0,0,0,0,0,0,0,-1,1959,1534,0,0
742,-510,0,0,0,0,0,0,0,0,0,-1,1966,1534,0,0
749,-510,0,0,0,0,0,0,0,0,0,-1,1973,1534,0,0
756,-510,0,0,0,0,0,0,0,0,0,-1,1980,1534,0,0
763,-510,0,0,0,0,0,0,0,0,0,-1,1987,1534,0,0
770,-510,0,0,0,0,0,0,0,0,0,-1,1994,1534,0,0
777,-510,0,0,0,0,0,0,0,0,0,-1,2001,1534,0,0
784,-510,0,0,0,0,0,0,0,0,0,-1,2008,1534,0,0
791,-510,0,0,0,0,0,0,0,0,0,-1,2015,1534,0,0
798,-510,0,0,0,0,0,0,0,0,0,-1,2022,1534,0,0
805,-510,0,0,0,0,0,0,0,0,0,-1,2029,1534,0,0
812,-510,0,0,0,0,0,0,0,0,0,-1,2036,1534,0,0
-700,-517,0,0,0,0,0,0,0,0,0,-1,524,1541,0,0
-693,-517,0,0,0,0,0,0,0,0,0,-1,531,1541,0,0
-686,-517,0,0,0,0,0,0,0,0,0,-1,538,1541,0,0
-679,-517,0,0,0,0,0,0,0,0,0,-1,545,1541,0,0
-672,-517,0,0,0,0,0,0,0,0,0,-1,552,1541,0,0
-665,-517,0,0,0,0,0,0,0,0,0,-1,559,1541,0,0
-658,-517,0,0,0,0,0,0,0,0,0,-1,566,1541,0,0
-651,-517,0,0,0,0,0,0,0,0,0,-1,573,1541,0,0
-644,-517,0,0,0,0,0,0,0,0,0,-1,580,1541,0,0
-637,-517,0,0,0,0,0,0,0,0,0,-1,587,1541,0,0
-630,-517,0,0,0,0,0,0,0,0,0,-1,594,1541,0,0
-623,-517,0,0,0,0,0,0,0,0,0,-1,601,1541,0,0
-616,-517,0,0,0,0,0,0,0,0,0,-1,608,1541,0,0
-609,-517,0,0,0,0,0,0,0,0,0,-1,615,1541,0,0
-602,-517,0,0,0,0,0,0,0,0,0,-1,622,1541,0,0
-595,-517,0,0,0,0,0,0,0,0,0,-1,629,1541,0,0
-588,-517,0,0,0,0,0,0,0,0,0,-1,636,1541,0,0
-581,-517,0,0,0,0,0,0,0,0,0,-1,643,1541,0,0
-574,-517,0,0,0,0,0,0,0,0,0,-1,650,1541,0,0
-567,-517,0,0,0,0,0,0,0,0,0,-1,657,1541,0,0
-560,-517,0,0,0,0,0,0,0,0,0,-1,664,1541,0,0
-553,-517,0,0,0,0,0,0,0,0,0,-1,671,1541,0,0
-546,-517,0,0,0,0,0,0,0,0,0,-1,678,1541,0,0
-539,-517,0,0,0,0,0,0,0,0,0,-1,685,1541,0,0
-532,-517,0,0,0,0,0,0,0,0,0,-1,692,1541,0,0
-525,-517,-3.62903,4.3606,0,0,0,0,0,0,0,-1,699,1541,-3.62904,-4.36056
-518,-517,-1.664,2.27209,0,0,0,0,0,0,0,-1,706,1541,-1.66399,-2.27207
-511,-517,-0.999146,5.52063,0,0,0,0,0,0,0,-1,713,1541,-0.999126,-5.52059
-504,-517,-1.06946,8.67432,0,0,0,0,0,0,0,-1,720,1541,-1.06947,-8.6743
-497,-517,-3.87305,15.0215,0,0,0,0,0,0,0,-1,727,1541,-3.87307,-15.0215
-490,-517,-3.73462,15.8436,0,0,0,0,0,0,0,-1,734,1541,-3.73465,-15.8436
-483,-517,-3.62207,16.4216,0,0,0,0,0,0,0,-1,741,1541,-3.62206,-16.4217
-476,-517,-3.74048,17.0071,0,0,0,0,0,0,0,-1,748,1541,-3.74046,-17.007
-469,-517,-4.01904,17.7377,-0.00109258,0.00450844,0.00100066,0.00468185,-0.00126599,1.39921,0.00361783,0.0204913,755,1541,-4.01907,-17.7377
-462,-517,-4.13727,18.3051,-0.000612711,0.00420777,0.000876075,0.00436205,-0.000766991,1.39648,0.00319454,0.0198298,762,1541,-4.13729,-18.305
-455,-517,-4.14575,18.9335,-0.000282978,0.00379007,0.000764564,0.00392886,-0.000421767,1.39122,0.00277055,0.0143976,769,1541,-4.14572,-18.9334
-448,-517,-4.16174,19.5313,2.14508e-06,0.00325404,0.000689644,0.00339425,-0.000138065,1.37022,0.00231023,0.0128812,776,1541,-4.16172,-19.5313
-441,-517,-4.20294,20.0975,0.000379816,0.00290748,0.000812594,0.00314617,0.000141123,1.28509,0.00205203,0.0119099,783,1541,-4.20295,-20.0975
-434,-517,-4.23572,20.6578,0.000859929,0.00283468,0.00115426,0.00336626,0.000328345,1.13921,0.00214313,0.0152587,790,1541,-4.2357,-20.6578
-427,-517,-4.2627,21.2306,0.00150117,0.00296092,0.00164699,0.00403252,0.000429572,0.993971,0.00255721,0.0146712,797,1541,-4.26271,-21.2306
-420,-517,-4.29279,21.8293,0.00230228,0.00332514,0.00235208,0.00522075,0.000406664,0.892451,0.00335318,0.0194797,804,1541,-4.29276,-21.8293
-413,-517,-4.30634,22.387,0.00324137,0.00410044,0.00322949,0.00692884,0.000412969,0.851512,0.00448791,0.0104372,811,1541,-4.30633,-22.3869
-406,-517,-4.32098,22.9604,0.00437228,0.00522955,0.00435129,0.00917327,0.000428568,0.834494,0.00597778,0.0112173,818,1541,-4.32097,-22.9605
-399,-517,-4.32538,23.5417,0.00589401,0.00757504,0.00587505,0.0126694,0.00079966,0.856449,0.00819273,0.0114104,825,1541,-4.32538,-23.5417
-392,-517,-4.31927,24.1376,0.0077767,0.0103796,0.00752438,0.0167143,0.00144206,0.871035,0.0106946,0.0172571,832,1541,-4.31928,-24.1376
-385,-517,-4.22198,25.0225,0.00956867,0.0169737,0.00960454,0.0235647,0.0029777,0.969368,0.0148173,0.0409999,839,1541,-4.222,-25.0225
-378,-517,-4.08362,26.0481,0,0,0,0,0,0,0,-1,846,1541,-4.08362,-26.0481
-371,-517,-1.37585,13.2646,0,0,0,0,0,0,0,-1,853,1541,-1.37586,-13.2647
-364,-517,-1.26245,12.6289,0,0,0,0,0,0,0,-1,860,1541,-1.26243,-12.6289
-357,-517,-1.23889,12.979,0,0,0,0,0,0,0,-1,867,1541,-1.23891,-12.979
-350,-517,-5.40198,23.8954,0,0,0,0,0,0,0,-1,874,1541,-5.40196,-23.8954
-343,-517,-5.45844,29.2598,0,0,0,0,0,0,0,-1,881,1541,-5.45842,-29.2598
-336,-517,-4.53223,29.6708,0,0,0,0,0,0,0,-1,888,1541,-4.53221,-29.6708
-329,-517,-3.60602,30.0817,0,0,0,0,0,0,0,-1,895,1541,-3.60601,-30.0817
-322,-517,-4.21246,19.5819,0,0,0,0,0,0,0,-1,902,1541,-4.21244,-19.5819
-315,-517,-0.987976,7.29749,0,0,0,0,0,0,0,-1,909,1541,-0.987993,-7.29743
-308,-517,3.27911,17.621,0,0,0,0,0,0,0,-1,916,1541,3.27913,-17.621
-301,-517,-1.69141,8.87488,0,0,0,0,0,0,0,-1,923,1541,-1.69141,-8.87485
-294,-517,-1.72583,9.92566,0,0,0,0,0,0,0,-1,930,1541,-1.72584,-9.92571
-287,-517,-3.09045,12.1472,0,0,0,0,0,0,0,-1,937,1541,-3.09043,-12.1472
-280,-517,0,0,0,0,0,0,0,0,0,-1,944,1541,0,0
-273,-517,0,0,0,0,0,0,0,0,0,-1,951,1541,0,0
-266,-517,0,0,0,0,0,0,0,0,0,-1,958,1541,0,0
-259,-517,0,0,0,0,0,0,0,0,0,-1,965,1541,0,0
-252,-517,0,0,0,0,0,0,0,0,0,-1,972,1541,0,0
-245,-517,0,0,0,0,0,0,0,0,0,-1,979,1541,0,0
-238,-517,0,0,0,0,0,0,0,0,0,-1,986,1541,0,0
-231,-517,0,0,0,0,0,0,0,0,0,-1,993,1541,0,0
-224,-517,0,0,0,0,0,0,0,0,0,-1,1000,1541,0,0
-217,-517,0,0,0,0,0,0,0,0,0,-1,1007,1541,0,0
-210,-517,0,0,0,0,0,0,0,0,0,-1,1014,1541,0,0
-203,-517,0,0,0,0,0,0,0,0,0,-1,1021,1541,0,0
-196,-517,0,0,0,0,0,0,0,0,0,-1,1028,1541,0,0
-189,-517,0,0,0,0,0,0,0,0,0,-1,1035,1541,0,0
-182,-517,0,0,0,0,0,0,0,0,0,-1,1042,1541,0,0
-175,-517,0,0,0,0,0,0,0,0,0,-1,1049,1541,0,0
-168,-517,0,0,0,0,0,0,0,0,0,-1,1056,1541,0,0
-161,-517,0,0,0,0,0,0,0,0,0,-1,1063,1541,0,0
-154,-517,0,0,0,0,0,0,0,0,0,-1,1070,1541,0,0
-147,-517,0,0,0,0,0,0,0,0,0,-1,1077,1541,0,0
-140,-517,0,0,0,0,0,0,0,0,0,-1,1084,1541,0,0
-133,-517,0,0,0,0,0,0,0,0,0,-1,1091,1541,0,0
-126,-517,0,0,0,0,0,0,0,0,0,-1,1098,1541,0,0
-119,-517,0,0,0,0,0,0,0,0,0,-1,1105,1541,0,0
-112,-517,0,0,0,0,0,0,0,0,0,-1,1112,1541,0,0
-105,-517,0,0,0,0,0,0,0,0,0,-1,1119,1541,0,0
-98,-517,0,0,0,0,0,0,0,0,0,-1,1126,1541,0,0
-91,-517,0,0,0,0,0,0,0,0,0,-1,1133,1541,0,0
-84,-517,0,0,0,0,0,0,0,0,0,-1,1140,1541,0,0
-77,-517,0,0,0,0,0,0,0,0,0,-1,1147,1541,0,0
-70,-517,0,0,0,0,0,0,0,0,0,-1,1154,1541,0,0
-63,-517,0,0,0,0,0,0,0,0,0,-1,1161,1541,0,0
-56,-517,0,0,0,0,0,0,0,0,0,-1,1168,1541,0,0
-49,-517,0,0,0,0,0,0,0,0,0,-1,1175,1541,0,0
-42,-517,0,0,0,0,0,0,0,0,0,-1,1182,1541,0,0
-35,-517,0,0,0,0,0,0,0,0,0,-1,1189,1541,0,0
-28,-517,0,0,0,0,0,0,0,0,0,-1,1196,1541,0,0
-21,-517,0,0,0,0,0,0,0,0,0,-1,1203,1541,0,0
-14,-517,0,0,0,0,0,0,0,0,0,-1,1210,1541,0,0
-7,-517,0,0,0,0,0,0,0,0,0,-1,1217,1541,0,0
0,-517,0,0,0,0,0,0,0,0,0,-1,1224,1541,0,0
7,-517,0,0,0,0,0,0,0,0,0,-1,1231,1541,0,0
14,-517,0,0,0,0,0,0,0,0,0,-1,1238,1541,0,0
21,-517,0,0,0,0,0,0,0,0,0,-1,1245,1541,0,0
28,-517,0,0,0,0,0,0,0,0,0,-1,1252,1541,0,0
35,-517,0,0,0,0,0,0,0,0,0,-1,1259,1541,0,0
42,-517,0,0,0,0,0,0,0,0,0,-1,1266,1541,0,0
49,-517,0,0,0,0,0,0,0,0,0,-1,1273,1541,0,0
56,-517,0,0,0,0,0,0,0,0,0,-1,1280,1541,0,0
63,-517,0,0,0,0,0,0,0,0,0,-1,1287,1541,0,0
70,-517,0,0,0,0,0,0,0,0,0,-1,1294,1541,0,0
77,-517,0,0,0,0,0,0,0,0,0,-1,1301,1541,0,0
84,-517,0,0,0,0,0,0,0,0,0,-1,1308,1541,0,0
91,-517,0,0,0,0,0,0,0,0,0,-1,1315,1541,0,0
98,-517,0,0,0,0,0,0,0,0,0,-1,1322,1541,0,0
105,-517,0,0,0,0,0,0,0,0,0,-1,1329,1541,0,0
112,-517,0,0,0,0,0,0,0,0,0,-1,1336,1541,0,0
119,-517,0,0,0,0,0,0,0,0,0,-1,1343,1541,0,0
126,-517,0,0,0,0,0,0,0,0,0,-1,1350,1541,0,0
133,-517,0,0,0,0,0,0,0,0,0,-1,1357,1541,0,0
140,-517,0,0,0,0,0,0,0,0,0,-1,1364,1541,0,0
147,-517,0,0,0,0,0,0,0,0,0,-1,1371,1541,0,0
154,-517,0,0,0,0,0,0,0,0,0,-1,1378,1541,0,0
161,-517,0,0,0,0,0,0,0,0,0,-1,1385,1541,0,0
168,-517,0,0,0,0,0,0,0,0,0,-1,1392,1541,0,0
175,-517,0,0,0,0,0,0,0,0,0,-1,1399,1541,0,0
182,-517,0,0,0,0,0,0,0,0,0,-1,1406,1541,0,0
189,-517,0,0,0,0,0,0,0,0,0,-1,1413,1541,0,0
196,-517,0,0,0,0,0,0,0,0,0,-1,1420,1541,0,0
203,-517,0,0,0,0,0,0,0,0,0,-1,1427,1541,0,0
210,-517,0,0,0,0,0,0,0,0,0,-1,1434,1541,0,0
217,-517,0,0,0,0,0,0,0,0,0,-1,1441,1541,0,0
224,-517,0,0,0,0,0,0,0,0,0,-1,1448,1541,0,0
231,-517,0,0,0,0,0,0,0,0,0,-1,1455,1541,0,0
238,-517,0,0,0,0,0,0,0,0,0,-1,1462,1541,0,0
245,-517,0,0,0,0,0,0,0,0,0,-1,1469,1541,0,0
252,-517,0,0,0,0,0,0,0,0,0,-1,1476,1541,0,0
259,-517,0,0,0,0,0,0,0,0,0,-1,1483,1541,0,0
266,-517,0,0,0,0,0,0,0,0,0,-1,1490,1541,0,0
273,-517,0,0,0,0,0,0,0,0,0,-1,1497,1541,0,0
280,-517,0,0,0,0,0,0,0,0,0,-1,1504,1541,0,0
287,-517,0,0,0,0,0,0,0,0,0,-1,1511,1541,0,0
294,-517,0,0,0,0,0,0,0,0,0,-1,1518,1541,0,0
301,-517,0,0,0,0,0,0,0,0,0,-1,1525,1541,0,0
308,-517,0,0,0,0,0,0,0,0,0,-1,1532,1541,0,0
315,-517,0,0,0,0,0,0,0,0,0,-1,1539,1541,0,0
322,-517,0,0,0,0,0,0,0,0,0,-1,1546,1541,0,0
329,-517,0,0,0,0,0,0,0,0,0,-1,1553,1541,0,0
336,-517,0,0,0,0,0,0,0,0,0,-1,1560,1541,0,0
343,-517,0,0,0,0,0,0,0,0,0,-1,1567,1541,0,0
350,-517,0,0,0,0,0,0,0,0,0,-1,1574,1541,0,0
357,-517,0,0,0,0,0,0,0,0,0,-1,1581,1541,0,0
364,-517,0,0,0,0,0,0,0,0,0,-1,1588,1541,0,0
371,-517,0,0,0,0,0,0,0,0,0,-1,1595,1541,0,0
378,-517,0,0,0,0,0,0,0,0,0,-1,1602,1541,0,0
385,-517,0,0,0,0,0,0,0,0,0,-1,1609,1541,0,0
392,-517,0,0,0,0,0,0,0,0,0,-1,1616,1541,0,0
399,-517,0,0,0,0,0,0,0,0,0,-1,1623,1541,0,0
406,-517,13.1395,7.01978,0,0,0,0,0,0,0,-1,1630,1541,13.1396,-7.01981
413,-517,12.8859,6.31592,0,0,0,0,0,0,0,-1,1637,1541,12.8858,-6.31588
420,-517,12.4789,6.20337,0,0,0,0,0,0,0,-1,1644,1541,12.4789,-6.20333
427,-517,11.647,4.66516,0,0,0,0,0,0,0,-1,1651,1541,11.647,-4.66519
434,-517,12.3719,3.92773,0,0,0,0,0,0,0,-1,1658,1541,12.3719,-3.92776
441,-517,13.146,3.14124,0,0,0,0,0,0,0,-1,1665,1541,13.146,-3.14121
448,-517,13.8861,2.36682,0,0,0,0,0,0,0,-1,1672,1541,13.8861,-2.36684
455,-517,13.6012,4.06335,0,0,0,0,0,0,0,-1,1679,1541,13.6012,-4.06335
462,-517,14.8956,7.0752,0,0,0,0,0,0,0,-1,1686,1541,14.8956,-7.07525
469,-517,13.6292,6.87744,0,0,0,0,0,0,0,-1,1693,1541,13.6292,-6.87739
476,-517,17.1632,14.1487,0,0,0,0,0,0,0,-1,1700,1541,17.1632,-14.1487
483,-517,16.5157,15.0776,0,0,0,0,0,0,0,-1,1707,1541,16.5157,-15.0777
490,-517,15.5439,18.0258,0,0,0,0,0,0,0,-1,1714,1541,15.5439,-18.0258
497,-517,16.0292,18.7786,0,0,0,0,0,0,0,-1,1721,1541,16.0291,-18.7786
504,-517,17.3815,22.3873,0,0,0,0,0,0,0,-1,1728,1541,17.3814,-22.3873
511,-517,16.9674,21.8491,0,0,0,0,0,0,0,-1,1735,1541,16.9674,-21.8491
518,-517,20.853,25.6284,0,0,0,0,0,0,0,-1,1742,1541,20.853,-25.6284
525,-517,20.6881,25.1592,0.00899446,0.00779513,-0.00699172,0.0154122,0.00137741,-0.742619,0.00984781,0.0246067,1749,1541,20.6882,-25.1592
532,-517,20.8481,24.5216,0.00705461,0.00601107,-0.00538793,0.011946,0.0011197,-0.737128,0.00761822,0.0127165,1756,1541,20.8481,-24.5216
539,-517,20.8541,23.9877,0.00550153,0.00445924,-0.00399618,0.00901041,0.000950361,-0.720558,0.00571654,0.0136403,1763,1541,20.8541,-23.9877
546,-517,20.8314,23.4756,0.00421272,0.00308946,-0.00278587,0.00649301,0.000809168,-0.685932,0.00408575,0.0143764,1770,1541,20.8314,-23.4756
553,-517,20.7987,22.9418,0.00312876,0.0019034,-0.00173523,0.0043563,0.000675869,-0.615689,0.00270718,0.017896,1777,1541,20.7987,-22.9418
560,-517,20.7841,22.4297,0.00235653,0.000957601,-0.000926251,0.00281775,0.000496379,-0.462001,0.00173685,0.0177556,1784,1541,20.7841,-22.4297
567,-517,20.7777,21.8801,0.00195278,0.000404779,-0.000504121,0.00210248,0.000255083,-0.28865,0.00132484,0.0139647,1791,1541,20.7777,-21.8801
574,-517,20.7452,21.3188,0.0018316,4.66413e-05,-0.000285792,0.00187624,1.99926e-06,-0.154953,0.00125016,0.0145342,1798,1541,20.7452,-21.3189
581,-517,20.7225,20.7826,0.00203536,-0.000100587,-0.000339927,0.00208816,-0.00015338,-0.154076,0.00144594,0.0160824,1805,1541,20.7226,-20.7826
588,-517,20.7094,20.2421,0.00265794,0.000223438,-0.000803709,0.00289934,-1.79572e-05,-0.291779,0.0019389,0.0175982,1812,1541,20.7093,-20.2421
595,-517,20.697,19.6376,0,0,0,0,0,0,0,-1,1819,1541,20.6971,-19.6376
602,-517,15.8027,13.5498,0,0,0,0,0,0,0,-1,1826,1541,15.8027,-13.5498
609,-517,12.6417,10.8751,0,0,0,0,0,0,0,-1,1833,1541,12.6417,-10.8751
616,-517,14.205,10.3193,0,0,0,0,0,0,0,-1,1840,1541,14.205,-10.3194
623,-517,12.578,10.0779,0,0,0,0,0,0,0,-1,1847,1541,12.578,-10.0779
630,-517,11.7035,7.47815,0,0,0,0,0,0,0,-1,1854,1541,11.7035,-7.47812
637,-517,11.5172,5.79822,0,0,0,0,0,0,0,-1,1861,1541,11.5173,-5.79825
644,-517,11.4232,3.30579,0,0,0,0,0,0,0,-1,1868,1541,11.4232,-3.30574
651,-517,0,0,0,0,0,0,0,0,0,-1,1875,1541,0,0
658,-517,0,0,0,0,0,0,0,0,0,-1,1882,1541,0,0
665,-517,0,0,0,0,0,0,0,0,0,-1,1889,1541,0,0
672,-517,0,0,0,0,0,0,0,0,0,-1,1896,1541,0,0
679,-517,0,0,0,0,0,0,0,0,0,-1,1903,1541,0,0
686,-517,0,0,0,0,0,0,0,0,0,-1,1910,1541,0,0
693,-517,0,0,0,0,0,0,0,0,0,-1,1917,1541,0,0
700,-517,0,0,0,0,0,0,0,0,0,-1,1924,1541,0,0
707,-517,0,0,0,0,0,0,0,0,0,-1,1931,1541,0,0
714,-517,0,0,0,0,0,0,0,0,0,-1,1938,1541,0,0
721,-517,0,0,0,0,0,0,0,0,0,-1,1945,1541,0,0
728,-517,0,0,0,0,0,0,0,0,0,-1,1952,1541,0,0
735,-517,0,0,0,0,0,0,0,0,0,-1,1959,1541,0,0
742,-517,0,0,0,0,0,0,0,0,0,-1,1966,1541,0,0
749,-517,0,0,0,0,0,0,0,0,0,-1,1973,1541,0,0
756,-517,0,0,0,0,0,0,0,0,0,-1,1980,1541,0,0
763,-517,0,0,0,0,0,0,0,0,0,-1,1987,1541,0,0
770,-517,0,0,0,0,0,0,0,0,0,-1,1994,1541,0,0
777,-517,0,0,0,0,0,0,0,0,0,-1,2001,1541,0,0
784,-517,0,0,0,0,0,0,0,0,0,-1,2008,1541,0,0
791,-517,0,0,0,0,0,0,0,0,0,-1,2015,1541,0,0
798,-517,0,0,0,0,0,0,0,0,0,-1,2022,1541,0,0
805,-517,0,0,0,0,0,0,0,0,0,-1,2029,1541,0,0
812,-517,0,0,0,0,0,0,0,0,0,-1,2036,1541,0,0
-700,-524,0,0,0,0,0,0,0,0,0,-1,524,1548,0,0
-693,-524,0,0,0,0,0,0,0,0,0,-1,531,1548,0,0
-686,-524,0,0,0,0,0,0,0,0,0,-1,538,1548,0,0
-679,-524,0,0,0,0,0,0,0,0,0,-1,545,1548,0,0
-672,-524,0,0,0,0,0,0,0,0,0,-1,552,1548,0,0
-665,-524,0,0,0,0,0,0,0,0,0,-1,559,1548,0,0
-658,-524,0,0,0,0,0,0,0,0,0,-1,566,1548,0,0
-651,-524,0,0,0,0,0,0,0,0,0,-1,573,1548,0,0
-644,-524,0,0,0,0,0,0,0,0,0,-1,580,1548,0,0
-637,-524,0,0,0,0,0,0,0,0,0,-1,587,1548,0,0
-630,-524,0,0,0,0,0,0,0,0,0,-1,594,1548,0,0
-623,-524,0,0,0,0,0,0,0,0,0,-1,601,1548,0,0
-616,-524,0,0,0,0,0,0,0,0,0,-1,608,1548,0,0
-609,-524,0,0,0,0,0,0,0,0,0,-1,615,1548,0,0
-602,-524,0,0,0,0,0,0,0,0,0,-1,622,1548,0,0
-595,-524,0,0,0,0,0,0,0,0,0,-1,629,1548,0,0
-588,-524,0,0,0,0,0,0,0,0,0,-1,636,1548,0,0
-581,-524,0,0,0,0,0,0,0,0,0,-1,643,1548,0,0
-574,-524,0,0,0,0,0,0,0,0,0,-1,650,1548,0,0
-567,-524,0,0,0,0,0,0,0,0,0,-1,657,1548,0,0
-560,-524,0,0,0,0,0,0,0,0,0,-1,664,1548,0,0
-553,-524,0,0,0,0,0,0,0,0,0,-1,671,1548,0,0
-546,-524,0,0,0,0,0,0,0,0,0,-1,678,1548,0,0
-539,-524,0,0,0,0,0,0,0,0,0,-1,685,1548,0,0
-532,-524,0,0,0,0,0,0,0,0,0,-1,692,1548,0,0
-525,-524,-0.215515,3.97131,0,0,0,0,0,0,0,-1,699,1548,-0.215501,-3.97136
-518,-524,-0.806274,4.35632,0,0,0,0,0,0,0,-1,706,1548,-0.806259,-4.35633
-511,-524,-1.08301,4.29004,0,0,0,0,0,0,0,-1,713,1548,-1.08301,-4.29006
-504,-524,-1.28821,3.98145,0,0,0,0,0,0,0,-1,720,1548,-1.28822,-3.98151
-497,-524,-0.328491,8.63416,0,0,0,0,0,0,0,-1,727,1548,-0.328487,-8.63411
-490,-524,-3.18262,15.3333,0,0,0,0,0,0,0,-1,734,1548,-3.18259,-15.3333
-483,-524,-3.02594,16.3427,0,0,0,0,0,0,0,-1,741,1548,-3.02593,-16.3427
-476,-524,-3.64453,17.6178,0,0,0,0,0,0,0,-1,748,1548,-3.64455,-17.6178
-469,-524,-3.63446,18.1042,-3.60752e-05,0.0091205,0.00242112,0.00972126,-0.000636833,1.32758,0.00670321,0.0365836,755,1548,-3.63444,-18.1043
-462,-524,-3.50867,18.5363,0.000117838,0.00802223,0.00194319,0.0084741,-0.000334039,1.34231,0.00576398,0.0310516,762,1548,-3.50865,-18.5362
-455,-524,-3.6134,18.9839,0.000125688,0.00682571,0.00151768,0.00715346,-0.000202062,1.35811,0.00483774,0.0248252,769,1548,-3.61339,-18.9839
-448,-524,-3.60919,19.5571,8.08737e-05,0.00546585,0.00110267,0.0056829,-0.000136168,1.37645,0.00383479,0.0135492,776,1548,-3.60917,-19.5572
-441,-524,-3.63959,20.1216,0.000194764,0.00436421,0.000927603,0.00456127,-2.29198e-06,1.36147,0.00304161,0.0108303,783,1548,-3.63962,-20.1216
-434,-524,-3.63507,20.6713,0.0004737,0.0036225,0.00100782,0.00391744,0.00017876,1.28609,0.00255413,0.0132499,790,1548,-3.63508,-20.6713
-427,-524,-3.66064,21.2533,0.000951525,0.00321164,0.00128257,0.00379098,0.000372189,1.14653,0.00241284,0.0140845,797,1548,-3.66067,-21.2534
-420,-524,-3.70447,21.8571,0.00159864,0.00308434,0.00177088,0.00426187,0.000421115,0.983991,0.00271179,0.0107848,804,1548,-3.70444,-21.857
-413,-524,-3.71295,22.4298,0.00235805,0.0034811,0.00239034,0.00537498,0.000464171,0.900764,0.00343906,0.0105175,811,1548,-3.71295,-22.4298
-406,-524,-3.73151,22.9962,0.00328527,0.00421209,0.00325224,0.00703377,0.000463586,0.856166,0.00454254,0.0118507,818,1548,-3.73152,-22.9963
-399,-524,-3.74841,23.5587,0.00440471,0.00569493,0.00433509,0.00943264,0.000666994,0.859262,0.00607831,0.00959412,825,1548,-3.74839,-23.5587
-392,-524,-3.75781,24.1263,0.00588664,0.00789781,0.00556606,0.0125484,0.00123607,0.874766,0.00798552,0.010298,832,1548,-3.75783,-24.1264
-385,-524,-3.78644,24.7235,0.00739932,0.0132456,0.00716358,0.0180595,0.00258542,0.979113,0.0112771,0.0155033,839,1548,-3.78641,-24.7235
-378,-524,-3.77356,25.3441,0,0,0,0,0,0,0,-1,846,1548,-3.77354,-25.3442
-371,-524,-3.33826,26.3732,0,0,0,0,0,0,0,-1,853,1548,-3.33826,-26.3732
-364,-524,-0.712097,14.9871,0,0,0,0,0,0,0,-1,860,1548,-0.712116,-14.9871
-357,-524,-1.34052,14.7448,0,0,0,0,0,0,0,-1,867,1548,-1.34054,-14.7447
-350,-524,-4.31909,25.032,0,0,0,0,0,0,0,-1,874,1548,-4.31906,-25.0319
-343,-524,-3.69696,28.6923,0,0,0,0,0,0,0,-1,881,1548,-3.69694,-28.6922
-336,-524,-3.4873,29.655,0,0,0,0,0,0,0,-1,888,1548,-3.48728,-29.6551
-329,-524,-3.21936,30.5509,0,0,0,0,0,0,0,-1,895,1548,-3.21933,-30.5509
-322,-524,-4.31378,25.6389,0,0,0,0,0,0,0,-1,902,1548,-4.31379,-25.639
-315,-524,-1.90839,19.4824,0,0,0,0,0,0,0,-1,909,1548,-1.90838,-19.4824
-308,-524,-2.36938,19.3059,0,0,0,0,0,0,0,-1,916,1548,-2.3694,-19.3058
-301,-524,2.72394,17.7618,0,0,0,0,0,0,0,-1,923,1548,2.72396,-17.7619
-294,-524,-1.52515,9.05408,0,0,0,0,0,0,0,-1,930,1548,-1.52512,-9.05411
-287,-524,-0.962219,10.3199,0,0,0,0,0,0,0,-1,937,1548,-0.962241,-10.32
-280,-524,-1.36255,10.3859,0,0,0,0,0,0,0,-1,944,1548,-1.36253,-10.3859
-273,-524,0,0,0,0,0,0,0,0,0,-1,951,1548,0,0
-266,-524,0,0,0,0,0,0,0,0,0,-1,958,1548,0,0
-259,-524,0,0,0,0,0,0,0,0,0,-1,965,1548,0,0
-252,-524,0,0,0,0,0,0,0,0,0,-1,972,1548,0,0
-245,-524,0,0,0,0,0,0,0,0,0,-1,979,1548,0,0
-238,-524,0,0,0,0,0,0,0,0,0,-1,986,1548,0,0
-231,-524,0,0,0,0,0,0,0,0,0,-1,993,1548,0,0
-224,-524,0,0,0,0,0,0,0,0,0,-1,1000,1548,0,0
-217,-524,0,0,0,0,0,0,0,0,0,-1,1007,1548,0,0
-210,-524,0,0,0,0,0,0,0,0,0,-1,1014,1548,0,0
-203,-524,0,0,0,0,0,0,0,0,0,-1,1021,1548,0,0
-196,-524,0,0,0,0,0,0,0,0,0,-1,1028,1548,0,0
-189,-524,0,0,0,0,0,0,0,0,0,-1,1035,1548,0,0
-182,-524,0,0,0,0,0,0,0,0,0,-1,1042,1548,0,0
-175,-524,0,0,0,0,0,0,0,0,0,-1,1049,1548,0,0
-168,-524,0,0,0,0,0,0,0,0,0,-1,1056,1548,0,0
-161,-524,0,0,0,0,0,0,0,0,0,-1,1063,1548,0,0
-154,-524,0,0,0,0,0,0,0,0,0,-1,1070,1548,0,0
-147,-524,0,0,0,0,0,0,0,0,0,-1,1077,1548,0,0
-140,-524,0,0,0,0,0,0,0,0,0,-1,1084,1548,0,0
-133,-524,0,0,0,0,0,0,0,0,0,-1,1091,1548,0,0
-126,-524,0,0,0,0,0,0,0,0,0,-1,1098,1548,0,0
-119,-524,0,0,0,0,0,0,0,0,0,-1,1105,1548,0,0
-112,-524,0,0,0,0,0,0,0,0,0,-1,1112,1548,0,0
-105,-524,0,0,0,0,0,0,0,0,0,-1,1119,1548,0,0
-98,-524,0,0,0,0,0,0,0,0,0,-1,1126,1548,0,0
-91,-524,0,0,0,0,0,0,0,0,0,-1,1133,1548,0,0
-84,-524,0,0,0,0,0,0,0,0,0,-1,1140,1548,0,0
-77,-524,0,0,0,0,0,0,0,0,0,-1,1147,1548,0,0
-70,-524,0,0,0,0,0,0,0,0,0,-1,1154,1548,0,0
-63,-524,0,0,0,0,0,0,0,0,0,-1,1161,1548,0,0
-56,-524,0,0,0,0,0,0,0,0,0,-1,1168,1548,0,0
-49,-524,0,0,0,0,0,0,0,0,0,-1,1175,1548,0,0
-42,-524,0,0,0,0,0,0,0,0,0,-1,1182,1548,0,0
-35,-524,0,0,0,0,0,0,0,0,0,-1,1189,1548,0,0
-28,-524,0,0,0,0,0,0,0,0,0,-1,1196,1548,0,0
-21,-524,0,0,0,0,0,0,0,0,0,-1,1203,1548,0,0
-14,-524,0,0,0,0,0,0,0,0,0,-1,1210,1548,0,0
-7,-524,0,0,0,0,0,0,0,0,0,-1,1217,1548,0,0
0,-524,0,0,0,0,0,0,0,0,0,-1,1224,1548,0,0
7,-524,0,0,0,0,0,0,0,0,0,-1,1231,1548,0,0
14,-524,0,0,0,0,0,0,0,0,0,-1,1238,1548,0,0
21,-524,0,0,0,0,0,0,0,0,0,-1,1245,1548,0,0
28,-524,0,0,0,0,0,0,0,0,0,-1,1252,1548,0,0
35,-524,0,0,0,0,0,0,0,0,0,-1,1259,1548,0,0
42,-524,0,0,0,0,0,0,0,0,0,-1,1266,1548,0,0
49,-524,0,0,0,0,0,0,0,0,0,-1,1273,1548,0,0
56,-524,0,0,0,0,0,0,0,0,0,-1,1280,1548,0,0
63,-524,0,0,0,0,0,0,0,0,0,-1,1287,1548,0,0
70,-524,0,0,0,0,0,0,0,0,0,-1,1294,1548,0,0
77,-524,0,0,0,0,0,0,0,0,0,-1,1301,1548,0,0
84,-524,0,0,0,0,0,0,0,0,0,-1,1308,1548,0,0
91,-524,0,0,0,0,0,0,0,0,0,-1,1315,1548,0,0
98,-524,0,0,0,0,0,0,0,0,0,-1,1322,1548,0,0
105,-524,0,0,0,0,0,0,0,0,0,-1,1329,1548,0,0
112,-524,0,0,0,0,0,0,0,0,0,-1,1336,1548,0,0
119,-524,0,0,0,0,0,0,0,0,0,-1,1343,1548,0,0
126,-524,0,0,0,0,0,0,0,0,0,-1,1350,1548,0,0
133,-524,0,0,0,0,0,0,0,0,0,-1,1357,1548,0,0
140,-524,0,0,0,0,0,0,0,0,0,-1,1364,1548,0,0
147,-524,0,0,0,0,0,0,0,0,0,-1,1371,1548,0,0
154,-524,0,0,0,0,0,0,0,0,0,-1,1378,1548,0,0
161,-524,0,0,0,0,0,0,0,0,0,-1,1385,1548,0,0
168,-524,0,0,0,0,0,0,0,0,0,-1,1392,1548,0,0
175,-524,0,0,0,0,0,0,0,0,0,-1,1399,1548,0,0
182,-524,0,0,0,0,0,0,0,0,0,-1,1406,1548,0,0
189,-524,0,0,0,0,0,0,0,0,0,-1,1413,1548,0,0
196,-524,0,0,0,0,0,0,0,0,0,-1,1420,1548,0,0
203,-524,0,0,0,0,0,0,0,0,0,-1,1427,1548,0,0
210,-524,0,0,0,0,0,0,0,0,0,-1,1434,1548,0,0
217,-524,0,0,0,0,0,0,0,0,0,-1,1441,1548,0,0
224,-524,0,0,0,0,0,0,0,0,0,-1,1448,1548,0,0
231,-524,0,0,0,0,0,0,0,0,0,-1,1455,1548,0,0
238,-524,0,0,0,0,0,0,0,0,0,-1,1462,1548,0,0
245,-524,0,0,0,0,0,0,0,0,0,-1,1469,1548,0,0
252,-524,0,0,0,0,0,0,0,0,0,-1,1476,1548,0,0
259,-524,0,0,0,0,0,0,0,0,0,-1,1483,1548,0,0
266,-524,0,0,0,0,0,0,0,0,0,-1,1490,1548,0,0
273,-524,0,0,0,0,0,0,0,0,0,-1,1497,1548,0,0
280,-524,0,0,0,0,0,0,0,0,0,-1,1504,1548,0,0
287,-524,0,0,0,0,0,0,0,0,0,-1,1511,1548,0,0
294,-524,0,0,0,0,0,0,0,0,0,-1,1518,1548,0,0
301,-524,0,0,0,0,0,0,0,0,0,-1,1525,1548,0,0
308,-524,0,0,0,0,0,0,0,0,0,-1,1532,1548,0,0
315,-524,0,0,0,0,0,0,0,0,0,-1,1539,1548,0,0
322,-524,0,0,0,0,0,0,0,0,0,-1,1546,1548,0,0
329,-524,0,0,0,0,0,0,0,0,0,-1,1553,1548,0,0
336,-524,0,0,0,0,0,0,0,0,0,-1,1560,1548,0,0
343,-524,0,0,0,0,0,0,0,0,0,-1,1567,1548,0,0
350,-524,0,0,0,0,0,0,0,0,0,-1,1574,1548,0,0
357,-524,0,0,0,0,0,0,0,0,0,-1,1581,1548,0,0
364,-524,0,0,0,0,0,0,0,0,0,-1,1588,1548,0,0
371,-524,0,0,0,0,0,0,0,0,0,-1,1595,1548,0,0
378,-524,0,0,0,0,0,0,0,0,0,-1,1602,1548,0,0
385,-524,0,0,0,0,0,0,0,0,0,-1,1609,1548,0,0
392,-524,0,0,0,0,0,0,0,0,0,-1,1616,1548,0,0
399,-524,8.81848,5.05774,0,0,0,0,0,0,0,-1,1623,1548,8.81843,-5.05769
406,-524,8.64294,6.06799,0,0,0,0,0,0,0,-1,1630,1548,8.6429,-6.06805
413,-524,11.677,6.41858,0,0,0,0,0,0,0,-1,1637,1548,11.677,-6.41864
420,-524,11.4913,6.36401,0,0,0,0,0,0,0,-1,1644,1548,11.4913,-6.36402
427,-524,7.68335,6.17249,0,0,0,0,0,0,0,-1,1651,1548,7.68341,-6.17245
434,-524,10.432,11.6801,0,0,0,0,0,0,0,-1,1658,1548,10.432,-11.68
441,-524,8.78552,4.12305,0,0,0,0,0,0,0,-1,1665,1548,8.78553,-4.12301
448,-524,14.1854,4.78674,0,0,0,0,0,0,0,-1,1672,1548,14.1854,-4.78674
455,-524,12.4784,3.65576,0,0,0,0,0,0,0,-1,1679,1548,12.4784,-3.65572
462,-524,14.7551,9.29395,0,0,0,0,0,0,0,-1,1686,1548,14.7552,-9.29397
469,-524,16.3314,14.3779,0,0,0,0,0,0,0,-1,1693,1548,16.3314,-14.3779
476,-524,15.9106,15.1875,0,0,0,0,0,0,0,-1,1700,1548,15.9107,-15.1876
483,-524,15.2776,16.2268,0,0,0,0,0,0,0,-1,1707,1548,15.2776,-16.2269
490,-524,15.2563,18.5848,0,0,0,0,0,0,0,-1,1714,1548,15.2564,-18.5848
497,-524,17.5173,22.6123,0,0,0,0,0,0,0,-1,1721,1548,17.5174,-22.6123
504,-524,19.9163,27.1355,0,0,0,0,0,0,0,-1,1728,1548,19.9163,-27.1355
511,-524,20.321,26.2136,0,0,0,0,0,0,0,-1,1735,1548,20.321,-26.2136
518,-524,20.326,25.6277,0.00964102,0.00839596,-0.00733508,0.0163799,0.00165704,-0.743065,0.0104117,0.0276308,1742,1548,20.326,-25.6276
525,-524,20.3229,25.1102,0.00764858,0.00647728,-0.00575985,0.0128525,0.00127338,-0.734733,0.00817698,0.0156446,1749,1548,20.3228,-25.1102
532,-524,20.3284,24.5662,0.00579535,0.00484082,-0.0043053,0.00964976,0.000986414,-0.730196,0.00613088,0.010549,1756,1548,20.3283,-24.5661
539,-524,20.3121,24.0072,0.00421684,0.00339836,-0.00299017,0.00682564,0.000789549,-0.71739,0.00431141,0.0109252,1763,1548,20.3121,-24.0072
546,-524,20.2845,23.4822,0.00277954,0.00204596,-0.00175025,0.00420102,0.000624477,-0.682111,0.00261747,0.0145673,1770,1548,20.2845,-23.4822
553,-524,20.2701,22.9941,0.00150376,0.000826439,-0.00060386,0.00185744,0.000472757,-0.529839,0.00111464,0.0250888,1777,1548,20.2702,-22.9942
560,-524,20.2505,22.4755,0.000546321,-0.000170272,0.000328678,0.000674241,-0.000298191,0.371155,0.000575257,0.0333035,1784,1548,20.2505,-22.4755
567,-524,20.226,21.911,-1.86322e-05,-0.00079353,0.000896314,0.00057039,-0.00138255,0.581392,0.00115958,0.017667,1791,1548,20.226,-21.911
574,-524,20.2056,21.3331,-0.000239435,-0.00122486,0.00125101,0.00061239,-0.00207669,0.5978,0.00162746,0.0128905,1798,1548,20.2055,-21.3331
581,-524,20.2065,20.7756,1.0032e-05,-0.00139401,0.00125097,0.000742501,-0.00212648,0.529704,0.00171945,0.0152908,1805,1548,20.2066,-20.7756
588,-524,20.2499,20.2383,0.000860859,-0.000977464,0.000703602,0.00109924,-0.00121585,0.326668,0.00133718,0.0285161,1812,1548,20.2499,-20.2382
595,-524,20.2881,19.5018,0,0,0,0,0,0,0,-1,1819,1548,20.2881,-19.5018
602,-524,13.837,12.0682,0,0,0,0,0,0,0,-1,1826,1548,13.837,-12.0683
609,-524,13.0056,10.5138,0,0,0,0,0,0,0,-1,1833,1548,13.0056,-10.5138
616,-524,11.6941,8.65515,0,0,0,0,0,0,0,-1,1840,1548,11.6941,-8.65514
623,-524,9.38452,5.15356,0,0,0,0,0,0,0,-1,1847,1548,9.38456,-5.15359
630,-524,11.0541,3.57434,0,0,0,0,0,0,0,-1,1854,1548,11.0541,-3.57438
637,-524,11.6067,3.20728,0,0,0,0,0,0,0,-1,1861,1548,11.6067,-3.20724
644,-524,12.2134,0.727173,0,0,0,0,0,0,0,-1,1868,1548,12.2134,-0.727222
651,-524,0,0,0,0,0,0,0,0,0,-1,1875,1548,0,0
658,-524,0,0,0,0,0,0,0,0,0,-1,1882,1548,0,0
665,-524,0,0,0,0,0,0,0,0,0,-1,1889,1548,0,0
672,-524,0,0,0,0,0,0,0,0,0,-1,1896,1548,0,0
679,-524,0,0,0,0,0,0,0,0,0,-1,1903,1548,0,0
686,-524,0,0,0,0,0,0,0,0,0,-1,1910,1548,0,0
693,-524,0,0,0,0,0,0,0,0,0,-1,1917,1548,0,0
700,-524,0,0,0,0,0,0,0,0,0,-1,1924,1548,0,0
707,-524,0,0,0,0,0,0,0,0,0,-1,1931,1548,0,0
714,-524,0,0,0,0,0,0,0,0,0,-1,1938,1548,0,0
721,-524,0,0,0,0,0,0,0,0,0,-1,1945,1548,0,0
728,-524,0,0,0,0,0,0,0,0,0,-1,1952,1548,0,0
735,-524,0,0,0,0,0,0,0,0,0,-1,1959,1548,0,0
742,-524,0,0,0,0,0,0,0,0,0,-1,1966,1548,0,0
749,-524,0,0,0,0,0,0,0,0,0,-1,1973,1548,0,0
756,-524,0,0,0,0,0,0,0,0,0,-1,1980,1548,0,0
763,-524,0,0,0,0,0,0,0,0,0,-1,1987,1548,0,0
770,-524,0,0,0,0,0,0,0,0,0,-1,1994,1548,0,0
777,-524,0,0,0,0,0,0,0,0,0,-1,2001,1548,0,0
784,-524,0,0,0,0,0,0,0,0,0,-1,2008,1548,0,0
791,-524,0,0,0,0,0,0,0,0,0,-1,2015,1548,0,0
798,-524,0,0,0,0,0,0,0,0,0,-1,2022,1548,0,0
805,-524,0,0,0,0,0,0,0,0,0,-1,2029,1548,0,0
812,-524,0,0,0,0,0,0,0,0,0,-1,2036,1548,0,0
-700,-531,0,0,0,0,0,0,0,0,0,-1,524,1555,0,0
-693,-531,0,0,0,0,0,0,0,0,0,-1,531,1555,0,0
-686,-531,0,0,0,0,0,0,0,0,0,-1,538,1555,0,0
-679,-531,0,0,0,0,0,0,0,0,0,-1,545,1555,0,0
-672,-531,0,0,0,0,0,0,0,0,0,-1,552,1555,0,0
-665,-531,0,0,0,0,0,0,0,0,0,-1,559,1555,0,0
-658,-531,0,0,0,0,0,0,0,0,0,-1,566,1555,0,0
-651,-531,0,0,0,0,0,0,0,0,0,-1,573,1555,0,0
-644,-531,0,0,0,0,0,0,0,0,0,-1,580,1555,0,0
-637,-531,0,0,0,0,0,0,0,0,0,-1,587,1555,0,0
-630,-531,0,0,0,0,0,0,0,0,0,-1,594,1555,0,0
-623,-531,0,0,0,0,0,0,0,0,0,-1,601,1555,0,0
-616,-531,0,0,0,0,0,0,0,0,0,-1,608,1555,0,0
-609,-531,0,0,0,0,0,0,0,0,0,-1,615,1555,0,0
-602,-531,0,0,0,0,0,0,0,0,0,-1,622,1555,0,0
-595,-531,0,0,0,0,0,0,0,0,0,-1,629,1555,0,0
-588,-531,0,0,0,0,0,0,0,0,0,-1,636,1555,0,0
-581,-531,0,0,0,0,0,0,0,0,0,-1,643,1555,0,0
-574,-531,0,0,0,0,0,0,0,0,0,-1,650,1555,0,0
-567,-531,0,0,0,0,0,0,0,0,0,-1,657,1555,0,0
-560,-531,0,0,0,0,0,0,0,0,0,-1,664,1555,0,0
-553,-531,0,0,0,0,0,0,0,0,0,-1,671,1555,0,0
-546,-531,0,0,0,0,0,0,0,0,0,-1,678,1555,0,0
-539,-531,0,0,0,0,0,0,0,0,0,-1,685,1555,0,0
-532,-531,0,0,0,0,0,0,0,0,0,-1,692,1555,0,0
-525,-531,0,0,0,0,0,0,0,0,0,-1,699,1555,0,0
-518,-531,-1.63983,4.03821,0,0,0,0,0,0,0,-1,706,1555,-1.63982,-4.03821
-511,-531,-2.9682,8.07483,0,0,0,0,0,0,0,-1,713,1555,-2.9682,-8.07479
-504,-531,-2.95978,0.557861,0,0,0,0,0,0,0,-1,720,1555,-2.95978,-0.557917
-497,-531,-2.46039,8.07422,0,0,0,0,0,0,0,-1,727,1555,-2.46039,-8.07423
-490,-531,-0.423462,7.92065,0,0,0,0,0,0,0,-1,734,1555,-0.42344,-7.92066
-483,-531,-2.43439,16.1902,0,0,0,0,0,0,0,-1,741,1555,-2.43436,-16.1902
-476,-531,-3.55096,18.1407,0,0,0,0,0,0,0,-1,748,1555,-3.55095,-18.1408
-469,-531,-3.42505,18.3668,0,0,0,0,0,0,0,-1,755,1555,-3.42507,-18.3669
-462,-531,-3.24908,18.5859,0,0,0,0,0,0,0,-1,762,1555,-3.24909,-18.5859
-455,-531,-3.10126,19.261,0.000787267,0.0112951,0.00274451,0.0119688,0.000113625,1.3301,0.00794158,0.0390777,769,1555,-3.10123,-19.261
-448,-531,-2.96783,19.5743,0.00031308,0.00869629,0.00185648,0.00908902,-7.96411e-05,1.36233,0.00608606,0.0200487,776,1555,-2.96781,-19.5743
-441,-531,-3.07953,20.1312,9.37211e-05,0.0065407,0.00126289,0.00677926,-0.000144836,1.3841,0.00456855,0.0122528,783,1555,-3.07952,-20.1312
-434,-531,-3.10022,20.7216,0.000135049,0.00492124,0.00101462,0.00512745,-7.11556e-05,1.37029,0.00344226,0.0123759,790,1555,-3.10022,-20.7216
-427,-531,-3.09607,21.3055,0.000435666,0.00385405,0.00104588,0.00414866,0.00014106,1.29623,0.00271997,0.0144604,797,1555,-3.09604,-21.3056
-420,-531,-3.12244,21.8965,0.000924475,0.00317259,0.00131041,0.003775,0.000322066,1.1399,0.00241648,0.0128595,804,1555,-3.12246,-21.8964
-413,-531,-3.14435,22.4579,0.00152108,0.00314699,0.00169752,0.00421618,0.000451885,1.00871,0.00267292,0.0111375,811,1555,-3.14435,-22.4579
-406,-531,-3.16229,23.0144,0.00227999,0.00347058,0.00234065,0.00529046,0.00046012,0.909922,0.00338404,0.0123814,818,1555,-3.1623,-23.0144
-399,-531,-3.15979,23.5663,0.00306675,0.00414019,0.00306025,0.00671043,0.000496512,0.872208,0.00431764,0.0139484,825,1555,-3.15981,-23.5663
-392,-531,-3.16193,24.1436,0.00423825,0.00583106,0.00397247,0.00908617,0.000983146,0.884327,0.00575778,0.0170625,832,1555,-3.1619,-24.1436
-385,-531,-3.21729,24.7214,0.00555831,0.0100707,0.0052104,0.0134924,0.0021366,0.98972,0.00837411,0.0143935,839,1555,-3.21727,-24.7215
-378,-531,-3.258,25.2299,0.00704984,0.0139486,0.00648972,0.0178487,0.00314976,1.02967,0.0110006,0.0174204,846,1555,-3.25803,-25.2298
-371,-531,-3.23956,25.8567,0,0,0,0,0,0,0,-1,853,1555,-3.23955,-25.8567
-364,-531,-3.06079,26.6121,0,0,0,0,0,0,0,-1,860,1555,-3.06079,-26.6121
-357,-531,-3.08466,27.2765,0,0,0,0,0,0,0,-1,867,1555,-3.08463,-27.2765
-350,-531,-3.16101,27.5791,0,0,0,0,0,0,0,-1,874,1555,-3.16099,-27.5791
-343,-531,-2.90552,28.561,0.0190737,0.055551,0.0173146,0.0624608,0.0121639,1.19109,0.0382363,0.0474074,881,1555,-2.90549,-28.5611
-336,-531,-2.6698,29.5398,0.0223815,0.0692185,0.0202632,0.0767681,0.0148319,1.21415,0.0470211,0.0463139,888,1555,-2.66983,-29.5398
-329,-531,-2.45148,30.4781,0,0,0,0,0,0,0,-1,895,1555,-2.45148,-30.4781
-322,-531,-3.25092,28.4921,0,0,0,0,0,0,0,-1,902,1555,-3.25092,-28.4921
-315,-531,-5.51929,31.7814,0,0,0,0,0,0,0,-1,909,1555,-5.51928,-31.7813
-308,-531,-1.66455,19.0624,0,0,0,0,0,0,0,-1,916,1555,-1.66455,-19.0623
-301,-531,-2.02405,18.8912,0,0,0,0,0,0,0,-1,923,1555,-2.02407,-18.8913
-294,-531,-1.3244,8.1825,0,0,0,0,0,0,0,-1,930,1555,-1.3244,-8.18251
-287,-531,-1.78192,10.1661,0,0,0,0,0,0,0,-1,937,1555,-1.78192,-10.1661
-280,-531,-2.14508,10.3945,0,0,0,0,0,0,0,-1,944,1555,-2.14506,-10.3945
-273,-531,-2.50818,10.6229,0,0,0,0,0,0,0,-1,951,1555,-2.5082,-10.6229
-266,-531,-4.97742,17.9215,0,0,0,0,0,0,0,-1,958,1555,-4.97744,-17.9215
-259,-531,0,0,0,0,0,0,0,0,0,-1,965,1555,0,0
-252,-531,0,0,0,0,0,0,0,0,0,-1,972,1555,0,0
-245,-531,0,0,0,0,0,0,0,0,0,-1,979,1555,0,0
-238,-531,0,0,0,0,0,0,0,0,0,-1,986,1555,0,0
-231,-531,0,0,0,0,0,0,0,0,0,-1,993,1555,0,0
-224,-531,0,0,0,0,0,0,0,0,0,-1,1000,1555,0,0
-217,-531,0,0,0,0,0,0,0,0,0,-1,1007,1555,0,0
-210,-531,0,0,0,0,0,0,0,0,0,-1,1014,1555,0,0
-203,-531,0,0,0,0,0,0,0,0,0,-1,1021,1555,0,0
-196,-531,0,0,0,0,0,0,0,0,0,-1,1028,1555,0,0
-189,-531,0,0,0,0,0,0,0,0,0,-1,1035,1555,0,0
-182,-531,0,0,0,0,0,0,0,0,0,-1,1042,1555,0,0
-175,-531,0,0,0,0,0,0,0,0,0,-1,1049,1555,0,0
-168,-531,0,0,0,0,0,0,0,0,0,-1,1056,1555,0,0
-161,-531,0,0,0,0,0,0,0,0,0,-1,1063,1555,0,0
-154,-531,0,0,0,0,0,0,0,0,0,-1,1070,1555,0,0
-147,-531,0,0,0,0,0,0,0,0,0,-1,1077,1555,0,0
-140,-531,0,0,0,0,0,0,0,0,0,-1,1084,1555,0,0
-133,-531,0,0,0,0,0,0,0,0,0,-1,1091,1555,0,0
-126,-531,0,0,0,0,0,0,0,0,0,-1,1098,1555,0,0
-119,-531,0,0,0,0,0,0,0,0,0,-1,1105,1555,0,0
-112,-531,0,0,0,0,0,0,0,0,0,-1,1112,1555,0,0
-105,-531,0,0,0,0,0,0,0,0,0,-1,1119,1555,0,0
-98,-531,0,0,0,0,0,0,0,0,0,-1,1126,1555,0,0
-91,-531,0,0,0,0,0,0,0,0,0,-1,1133,1555,0,0
-84,-531,0,0,0,0,0,0,0,0,0,-1,1140,1555,0,0
-77,-531,0,0,0,0,0,0,0,0,0,-1,1147,1555,0,0
-70,-531,0,0,0,0,0,0,0,0,0,-1,1154,1555,0,0
-63,-531,0,0,0,0,0,0,0,0,0,-1,1161,1555,0,0
-56,-531,0,0,0,0,0,0,0,0,0,-1,1168,1555,0,0
-49,-531,0,0,0,0,0,0,0,0,0,-1,1175,1555,0,0
-42,-531,0,0,0,0,0,0,0,0,0,-1,1182,1555,0,0
-35,-531,0,0,0,0,0,0,0,0,0,-1,1189,1555,0,0
-28,-531,0,0,0,0,0,0,0,0,0,-1,1196,1555,0,0
-21,-531,0,0,0,0,0,0,0,0,0,-1,1203,1555,0,0
-14,-531,0,0,0,0,0,0,0,0,0,-1,1210,1555,0,0
-7,-531,0,0,0,0,0,0,0,0,0,-1,1217,1555,0,0
0,-531,0,0,0,0,0,0,0,0,0,-1,1224,1555,0,0
7,-531,0,0,0,0,0,0,0,0,0,-1,1231,1555,0,0
14,-531,0,0,0,0,0,0,0,0,0,-1,1238,1555,0,0
21,-531,0,0,0,0,0,0,0,0,0,-1,1245,1555,0,0
28,-531,0,0,0,0,0,0,0,0,0,-1,1252,1555,0,0
35,-531,0,0,0,0,0,0,0,0,0,-1,1259,1555,0,0
42,-531,0,0,0,0,0,0,0,0,0,-1,1266,1555,0,0
49,-531,0,0,0,0,0,0,0,0,0,-1,1273,1555,0,0
56,-531,0,0,0,0,0,0,0,0,0,-1,1280,1555,0,0
63,-531,0,0,0,0,0,0,0,0,0,-1,1287,1555,0,0
70,-531,0,0,0,0,0,0,0,0,0,-1,1294,1555,0,0
77,-531,0,0,0,0,0,0,0,0,0,-1,1301,1555,0,0
84,-531,0,0,0,0,0,0,0,0,0,-1,1308,1555,0,0
91,-531,0,0,0,0,0,0,0,0,0,-1,1315,1555,0,0
98,-531,0,0,0,0,0,0,0,0,0,-1,1322,1555,0,0
105,-531,0,0,0,0,0,0,0,0,0,-1,1329,1555,0,0
112,-531,0,0,0,0,0,0,0,0,0,-1,1336,1555,0,0
119,-531,0,0,0,0,0,0,0,0,0,-1,1343,1555,0,0
126,-531,0,0,0,0,0,0,0,0,0,-1,1350,1555,0,0
133,-531,0,0,0,0,0,0,0,0,0,-1,1357,1555,0,0
140,-531,0,0,0,0,0,0,0,0,0,-1,1364,1555,0,0
147,-531,0,0,0,0,0,0,0,0,0,-1,1371,1555,0,0
154,-531,0,0,0,0,0,0,0,0,0,-1,1378,1555,0,0
161,-531,0,0,0,0,0,0,0,0,0,-1,1385,1555,0,0
168,-531,0,0,0,0,0,0,0,0,0,-1,1392,1555,0,0
175,-531,0,0,0,0,0,0,0,0,0,-1,1399,1555,0,0
182,-531,0,0,0,0,0,0,0,0,0,-1,1406,1555,0,0
189,-531,0,0,0,0,0,0,0,0,0,-1,1413,1555,0,0
196,-531,0,0,0,0,0,0,0,0,0,-1,1420,1555,0,0
203,-531,0,0,0,0,0,0,0,0,0,-1,1427,1555,0,0
210,-531,0,0,0,0,0,0,0,0,0,-1,1434,1555,0,0
217,-531,0,0,0,0,0,0,0,0,0,-1,1441,1555,0,0
224,-531,0,0,0,0,0,0,0,0,0,-1,1448,1555,0,0
231,-531,0,0,0,0,0,0,0,0,0,-1,1455,1555,0,0
238,-531,0,0,0,0,0,0,0,0,0,-1,1462,1555,0,0
245,-531,0,0,0,0,0,0,0,0,0,-1,1469,1555,0,0
252,-531,0,0,0,0,0,0,0,0,0,-1,1476,1555,0,0
259,-531,0,0,0,0,0,0,0,0,0,-1,1483,1555,0,0
266,-531,0,0,0,0,0,0,0,0,0,-1,1490,1555,0,0
273,-531,0,0,0,0,0,0,0,0,0,-1,1497,1555,0,0
280,-531,0,0,0,0,0,0,0,0,0,-1,1504,1555,0,0
287,-531,0,0,0,0,0,0,0,0,0,-1,1511,1555,0,0
294,-531,0,0,0,0,0,0,0,0,0,-1,1518,1555,0,0
301,-531,0,0,0,0,0,0,0,0,0,-1,1525,1555,0,0
308,-531,0,0,0,0,0,0,0,0,0,-1,1532,1555,0,0
315,-531,0,0,0,0,0,0,0,0,0,-1,1539,1555,0,0
322,-531,0,0,0,0,0,0,0,0,0,-1,1546,1555,0,0
329,-531,0,0,0,0,0,0,0,0,0,-1,1553,1555,0,0
336,-531,0,0,0,0,0,0,0,0,0,-1,1560,1555,0,0
343,-531,0,0,0,0,0,0,0,0,0,-1,1567,1555,0,0
350,-531,0,0,0,0,0,0,0,0,0,-1,1574,1555,0,0
357,-531,0,0,0,0,0,0,0,0,0,-1,1581,1555,0,0
364,-531,0,0,0,0,0,0,0,0,0,-1,1588,1555,0,0
371,-531,0,0,0,0,0,0,0,0,0,-1,1595,1555,0,0
378,-531,0,0,0,0,0,0,0,0,0,-1,1602,1555,0,0
385,-531,3.48169,1.78625,0,0,0,0,0,0,0,-1,1609,1555,3.48165,-1.78624
392,-531,10.8781,9.09204,0,0,0,0,0,0,0,-1,1616,1555,10.8781,-9.09205
399,-531,8.26306,5.29602,0,0,0,0,0,0,0,-1,1623,1555,8.26302,-5.29607
406,-531,8.26147,5.42712,0,0,0,0,0,0,0,-1,1630,1555,8.26145,-5.42716
413,-531,8.20618,5.75012,0,0,0,0,0,0,0,-1,1637,1555,8.20619,-5.75017
420,-531,7.64868,7.09558,0,0,0,0,0,0,0,-1,1644,1555,7.64867,-7.09564
427,-531,9.93054,11.8412,0,0,0,0,0,0,0,-1,1651,1555,9.93059,-11.8412
434,-531,10.244,11.7072,0,0,0,0,0,0,0,-1,1658,1555,10.244,-11.7071
441,-531,11.4528,12.9397,0,0,0,0,0,0,0,-1,1665,1555,11.4528,-12.9397
448,-531,11.928,18.8029,0,0,0,0,0,0,0,-1,1672,1555,11.928,-18.8028
455,-531,14.4877,9.67065,0,0,0,0,0,0,0,-1,1679,1555,14.4876,-9.67066
462,-531,13.5253,12.2002,0,0,0,0,0,0,0,-1,1686,1555,13.5252,-12.2002
469,-531,15.5087,15.7894,0,0,0,0,0,0,0,-1,1693,1555,15.5086,-15.7895
476,-531,14.6582,16.2264,0,0,0,0,0,0,0,-1,1700,1555,14.6582,-16.2264
483,-531,14.755,18.5994,0,0,0,0,0,0,0,-1,1707,1555,14.7551,-18.5994
490,-531,16.9362,25.4943,0,0,0,0,0,0,0,-1,1714,1555,16.9362,-25.4942
497,-531,19.4598,28.0591,0,0,0,0,0,0,0,-1,1721,1555,19.4599,-28.0591
504,-531,19.6661,26.8525,0.00958247,0.0107446,-0.00798187,0.0181665,0.00216056,-0.821734,0.0114589,0.0411726,1728,1555,19.6661,-26.8525
511,-531,19.7769,26.2128,0.00861455,0.00869826,-0.00693844,0.015595,0.00171784,-0.788414,0.00987398,0.0180383,1735,1555,19.7769,-26.2128
518,-531,19.797,25.6564,0.00702165,0.00664731,-0.00545128,0.012289,0.00137999,-0.768237,0.00777359,0.0162946,1742,1555,19.797,-25.6564
525,-531,19.8022,25.1581,0.0053924,0.00486037,-0.00409904,0.00923405,0.00101872,-0.752995,0.00584612,0.0145505,1749,1555,19.8022,-25.158
532,-531,19.8202,24.6068,0.00387517,0.00331859,-0.00283453,0.00644504,0.000748726,-0.736466,0.00407014,0.0106768,1756,1555,19.8202,-24.6068
539,-531,19.7992,24.0532,0.00254246,0.00195463,-0.00165859,0.00393298,0.000564116,-0.697705,0.00245564,0.0123827,1763,1555,19.7992,-24.0532
546,-531,19.7347,23.504,0.00124103,0.000622901,-0.000472314,0.00149641,0.000367517,-0.495682,0.000900459,0.0158808,1770,1555,19.7347,-23.504
553,-531,19.7625,23.0341,4.74509e-05,-0.000597555,0.000672182,0.000470492,-0.0010206,0.561725,0.000880193,0.0310764,1777,1555,19.7625,-23.0341
560,-531,19.6986,22.5121,-0.000863629,-0.00159936,0.00163533,0.000444702,-0.00290769,0.674765,0.00210243,0.0324889,1784,1555,19.6985,-22.5121
567,-531,19.6459,21.9192,-0.00141546,-0.00225403,0.00228392,0.000487348,-0.00415683,0.694618,0.00294713,0.0189697,1791,1555,19.6459,-21.9192
574,-531,19.6407,21.354,-0.00161743,-0.00271249,0.00273131,0.000620691,-0.00495061,0.686477,0.00352557,0.0149478,1798,1555,19.6407,-21.354
581,-531,19.6827,20.7767,-0.00122484,-0.00282305,0.00274422,0.000834261,-0.00488215,0.643718,0.00356554,0.021766,1805,1555,19.6828,-20.7767
588,-531,19.7382,20.1825,-1.07528e-05,-0.00221496,0.00209831,0.00125728,-0.00348299,0.543584,0.00283558,0.0384511,1812,1555,19.7382,-20.1825
595,-531,19.719,19.5641,0,0,0,0,0,0,0,-1,1819,1555,19.719,-19.5641
602,-531,13.701,11.8346,0,0,0,0,0,0,0,-1,1826,1555,13.701,-11.8347
609,-531,10.9072,8.50903,0,0,0,0,0,0,0,-1,1833,1555,10.9073,-8.50902
616,-531,10.5723,7.17859,0,0,0,0,0,0,0,-1,1840,1555,10.5723,-7.17855
623,-531,10.0674,5.08984,0,0,0,0,0,0,0,-1,1847,1555,10.0674,-5.08981
630,-531,11.672,3.18909,0,0,0,0,0,0,0,-1,1854,1555,11.672,-3.18904
637,-531,13.2546,1.38965,0,0,0,0,0,0,0,-1,1861,1555,13.2547,-1.3896
644,-531,0,0,0,0,0,0,0,0,0,-1,1868,1555,0,0
651,-531,0,0,0,0,0,0,0,0,0,-1,1875,1555,0,0
658,-531,0,0,0,0,0,0,0,0,0,-1,1882,1555,0,0
665,-531,0,0,0,0,0,0,0,0,0,-1,1889,1555,0,0
672,-531,0,0,0,0,0,0,0,0,0,-1,1896,1555,0,0
679,-531,0,0,0,0,0,0,0,0,0,-1,1903,1555,0,0
686,-531,0,0,0,0,0,0,0,0,0,-1,1910,1555,0,0
693,-531,0,0,0,0,0,0,0,0,0,-1,1917,1555,0,0
700,-531,0,0,0,0,0,0,0,0,0,-1,1924,1555,0,0
707,-531,0,0,0,0,0,0,0,0,0,-1,1931,1555,0,0
714,-531,0,0,0,0,0,0,0,0,0,-1,1938,1555,0,0
721,-531,0,0,0,0,0,0,0,0,0,-1,1945,1555,0,0
728,-531,0,0,0,0,0,0,0,0,0,-1,1952,1555,0,0
735,-531,0,0,0,0,0,0,0,0,0,-1,1959,1555,0,0
742,-531,0,0,0,0,0,0,0,0,0,-1,1966,1555,0,0
749,-531,0,0,0,0,0,0,0,0,0,-1,1973,1555,0,0
756,-531,0,0,0,0,0,0,0,0,0,-1,1980,1555,0,0
763,-531,0,0,0,0,0,0,0,0,0,-1,1987,1555,0,0
770,-531,0,0,0,0,0,0,0,0,0,-1,1994,1555,0,0
777,-531,0,0,0,0,0,0,0,0,0,-1,2001,1555,0,0
784,-531,0,0,0,0,0,0,0,0,0,-1,2008,1555,0,0
791,-531,0,0,0,0,0,0,0,0,0,-1,2015,1555,0,0
798,-531,0,0,0,0,0,0,0,0,0,-1,2022,1555,0,0
805,-531,0,0,0,0,0,0,0,0,0,-1,2029,1555,0,0
812,-531,0,0,0,0,0,0,0,0,0,-1,2036,1555,0,0
-700,-538,0,0,0,0,0,0,0,0,0,-1,524,1562,0,0
-693,-538,0,0,0,0,0,0,0,0,0,-1,531,1562,0,0
-686,-538,0,0,0,0,0,0,0,0,0,-1,538,1562,0,0
-679,-538,0,0,0,0,0,0,0,0,0,-1,545,1562,0,0
-672,-538,0,0,0,0,0,0,0,0,0,-1,552,1562,0,0
-665,-538,0,0,0,0,0,0,0,0,0,-1,559,1562,0,0
-658,-538,0,0,0,0,0,0,0,0,0,-1,566,1562,0,0
-651,-538,0,0,0,0,0,0,0,0,0,-1,573,1562,0,0
-644,-538,0,0,0,0,0,0,0,0,0,-1,580,1562,0,0
-637,-538,0,0,0,0,0,0,0,0,0,-1,587,1562,0,0
-630,-538,0,0,0,0,0,0,0,0,0,-1,594,1562,0,0
-623,-538,0,0,0,0,0,0,0,0,0,-1,601,1562,0,0
-616,-538,0,0,0,0,0,0,0,0,0,-1,608,1562,0,0
-609,-538,0,0,0,0,0,0,0,0,0,-1,615,1562,0,0
-602,-538,0,0,0,0,0,0,0,0,0,-1,622,1562,0,0
-595,-538,0,0,0,0,0,0,0,0,0,-1,629,1562,0,0
-588,-538,0,0,0,0,0,0,0,0,0,-1,636,1562,0,0
-581,-538,0,0,0,0,0,0,0,0,0,-1,643,1562,0,0
-574,-538,0,0,0,0,0,0,0,0,0,-1,650,1562,0,0
-567,-538,0,0,0,0,0,0,0,0,0,-1,657,1562,0,0
-560,-538,0,0,0,0,0,0,0,0,0,-1,664,1562,0,0
-553,-538,0,0,0,0,0,0,0,0,0,-1,671,1562,0,0
-546,-538,0,0,0,0,0,0,0,0,0,-1,678,1562,0,0
-539,-538,0,0,0,0,0,0,0,0,0,-1,685,1562,0,0
-532,-538,0,0,0,0,0,0,0,0,0,-1,692,1562,0,0
-525,-538,0,0,0,0,0,0,0,0,0,-1,699,1562,0,0
-518,-538,0,0,0,0,0,0,0,0,0,-1,706,1562,0,0
-511,-538,-2.6582,-1.54321,0,0,0,0,0,0,0,-1,713,1562,-2.65821,1.54327
-504,-538,-2.66455,-0.71167,0,0,0,0,0,0,0,-1,720,1562,-2.66456,0.711667
-497,-538,-0.763855,6.77747,0,0,0,0,0,0,0,-1,727,1562,-0.76385,-6.77743
-490,-538,-2.70453,8.01465,0,0,0,0,0,0,0,-1,734,1562,-2.70451,-8.0147
-483,-538,-0.933533,7.84644,0,0,0,0,0,0,0,-1,741,1562,-0.933548,-7.84638
-476,-538,-3.29962,15.8307,0,0,0,0,0,0,0,-1,748,1562,-3.29962,-15.8306
-469,-538,-2.95062,17.1946,0,0,0,0,0,0,0,-1,755,1562,-2.95063,-17.1946
-462,-538,-2.87415,18.2018,0,0,0,0,0,0,0,-1,762,1562,-2.87414,-18.2018
-455,-538,-2.51422,19.0258,0.00154669,0.017251,0.0044637,0.0184311,0.000366628,1.31234,0.012167,0.0436267,769,1562,-2.51422,-19.0258
-448,-538,-2.33392,19.7152,0.000559271,0.0129599,0.00295366,0.0136275,-0.000108312,1.34851,0.0091213,0.0222705,776,1562,-2.3339,-19.7152
-441,-538,-2.4668,20.2764,-8.89517e-05,0.00945162,0.00182309,0.00978812,-0.000425453,1.38827,0.00667175,0.0240495,783,1562,-2.46681,-20.2764
-434,-538,-2.55035,20.7429,-0.000309309,0.00670262,0.00118342,0.00689696,-0.000503652,1.40803,0.00477472,0.0138641,790,1562,-2.55034,-20.7429
-427,-538,-2.55579,21.343,-0.000171403,0.00486012,0.000955669,0.00503552,-0.000346804,1.38928,0.00347838,0.014862,797,1562,-2.55577,-21.343
-420,-538,-2.59204,21.9303,0.000177905,0.00356426,0.000994907,0.00383492,-9.27635e-05,1.30517,0.00258809,0.0189535,804,1562,-2.59206,-21.9302
-413,-538,-2.63123,22.4987,0.00064597,0.0030708,0.00116853,0.00354225,0.000174516,1.18731,0.00230553,0.0192516,811,1562,-2.63121,-22.4986
-406,-538,-2.60217,23.0535,0.00129164,0.00296494,0.00161784,0.00394966,0.000306915,1.02403,0.002537,0.0154609,818,1562,-2.60219,-23.0534
-399,-538,-2.59967,23.6129,0.00185034,0.00286654,0.00203012,0.00445118,0.000265696,0.908019,0.00288297,0.0139381,825,1562,-2.59968,-23.613
-392,-538,-2.60956,24.1689,0.00283116,0.00410322,0.00269699,0.00623817,0.000696216,0.901197,0.00394723,0.0148763,832,1562,-2.60956,-24.1689
-385,-538,-2.66107,24.7358,0.00406414,0.00734779,0.00366877,0.00972535,0.00168658,0.995791,0.0060009,0.0132635,839,1562,-2.66105,-24.7359
-378,-538,-2.68616,25.2888,0.00538885,0.0104177,0.00468356,0.0132191,0.00258744,1.03175,0.00808938,0.0111422,846,1562,-2.68618,-25.2888
-371,-538,-2.7157,25.834,0.00682863,0.0142318,0.00581967,0.0174273,0.00363309,1.06865,0.0106165,0.0142951,853,1562,-2.71571,-25.8339
-364,-538,-2.65869,26.4594,0.00856685,0.0191525,0.00721823,0.0228105,0.00490888,1.10175,0.0138635,0.018931,860,1562,-2.65869,-26.4594
-357,-538,-2.60132,27.1479,0.0105716,0.0253176,0.0088334,0.0294507,0.00643848,1.13316,0.0178783,0.0422514,867,1562,-2.60132,-27.148
-350,-538,-2.66742,27.5872,0,0,0,0,0,0,0,-1,874,1562,-2.66741,-27.5872
-343,-538,-2.47339,28.3082,0.0153615,0.0416902,0.0129347,0.0469814,0.0100704,1.1825,0.0285622,0.0455723,881,1562,-2.47341,-28.3083
-336,-538,-2.40161,28.5409,0.0180779,0.0521173,0.0154489,0.0580832,0.0121119,1.20227,0.0353827,0.044566,888,1562,-2.40163,-28.541
-329,-538,-2.57159,28.4905,0,0,0,0,0,0,0,-1,895,1562,-2.57161,-28.4905
-322,-538,-2.83783,28.2308,0,0,0,0,0,0,0,-1,902,1562,-2.83783,-28.2308
-315,-538,-2.91827,27.7609,0,0,0,0,0,0,0,-1,909,1562,-2.91829,-27.7608
-308,-538,-4.37433,31.7996,0,0,0,0,0,0,0,-1,916,1562,-4.3743,-31.7995
-301,-538,-0.452393,18.5101,0,0,0,0,0,0,0,-1,923,1562,-0.452367,-18.5102
-294,-538,1.23138,14.0757,0,0,0,0,0,0,0,-1,930,1562,1.23137,-14.0757
-287,-538,-2.60419,10.2361,0,0,0,0,0,0,0,-1,937,1562,-2.6042,-10.2361
-280,-538,-2.93475,10.5106,0,0,0,0,0,0,0,-1,944,1562,-2.93475,-10.5106
-273,-538,-3.26532,10.785,0,0,0,0,0,0,0,-1,951,1562,-3.26531,-10.785
-266,-538,-5.03412,15.9951,0,0,0,0,0,0,0,-1,958,1562,-5.03409,-15.9951
-259,-538,-5.89642,16.5184,0,0,0,0,0,0,0,-1,965,1562,-5.89644,-16.5184
-252,-538,0,0,0,0,0,0,0,0,0,-1,972,1562,0,0
-245,-538,0,0,0,0,0,0,0,0,0,-1,979,1562,0,0
-238,-538,0,0,0,0,0,0,0,0,0,-1,986,1562,0,0
-231,-538,0,0,0,0,0,0,0,0,0,-1,993,1562,0,0
-224,-538,0,0,0,0,0,0,0,0,0,-1,1000,1562,0,0
-217,-538,0,0,0,0,0,0,0,0,0,-1,1007,1562,0,0
-210,-538,0,0,0,0,0,0,0,0,0,-1,1014,1562,0,0
-203,-538,0,0,0,0,0,0,0,0,0,-1,1021,1562,0,0
-196,-538,0,0,0,0,0,0,0,0,0,-1,1028,1562,0,0
-189,-538,0,0,0,0,0,0,0,0,0,-1,1035,1562,0,0
-182,-538,0,0,0,0,0,0,0,0,0,-1,1042,1562,0,0
-175,-538,0,0,0,0,0,0,0,0,0,-1,1049,1562,0,0
-168,-538,0,0,0,0,0,0,0,0,0,-1,1056,1562,0,0
-161,-538,0,0,0,0,0,0,0,0,0,-1,1063,1562,0,0
-154,-538,0,0,0,0,0,0,0,0,0,-1,1070,1562,0,0
-147,-538,0,0,0,0,0,0,0,0,0,-1,1077,1562,0,0
-140,-538,0,0,0,0,0,0,0,0,0,-1,1084,1562,0,0
-133,-538,0,0,0,0,0,0,0,0,0,-1,1091,1562,0,0
-126,-538,0,0,0,0,0,0,0,0,0,-1,1098,1562,0,0
-119,-538,0,0,0,0,0,0,0,0,0,-1,1105,1562,0,0
-112,-538,0,0,0,0,0,0,0,0,0,-1,1112,1562,0,0
-105,-538,0,0,0,0,0,0,0,0,0,-1,1119,1562,0,0
-98,-538,0,0,0,0,0,0,0,0,0,-1,1126,1562,0,0
-91,-538,0,0,0,0,0,0,0,0,0,-1,1133,1562,0,0
-84,-538,0,0,0,0,0,0,0,0,0,-1,1140,1562,0,0
-77,-538,0,0,0,0,0,0,0,0,0,-1,1147,1562,0,0
-70,-538,0,0,0,0,0,0,0,0,0,-1,1154,1562,0,0
-63,-538,0,0,0,0,0,0,0,0,0,-1,1161,1562,0,0
-56,-538,0,0,0,0,0,0,0,0,0,-1,1168,1562,0,0
-49,-538,0,0,0,0,0,0,0,0,0,-1,1175,1562,0,0
-42,-538,0,0,0,0,0,0,0,0,0,-1,1182,1562,0,0
-35,-538,0,0,0,0,0,0,0,0,0,-1,1189,1562,0,0
-28,-538,0,0,0,0,0,0,0,0,0,-1,1196,1562,0,0
-21,-538,0,0,0,0,0,0,0,0,0,-1,1203,1562,0,0
-14,-538,0,0,0,0,0,0,0,0,0,-1,1210,1562,0,0
-7,-538,0,0,0,0,0,0,0,0,0,-1,1217,1562,0,0
0,-538,0,0,0,0,0,0,0,0,0,-1,1224,1562,0,0
7,-538,0,0,0,0,0,0,0,0,0,-1,1231,1562,0,0
14,-538,0,0,0,0,0,0,0,0,0,-1,1238,1562,0,0
21,-538,0,0,0,0,0,0,0,0,0,-1,1245,1562,0,0
28,-538,0,0,0,0,0,0,0,0,0,-1,1252,1562,0,0
35,-538,0,0,0,0,0,0,0,0,0,-1,1259,1562,0,0
42,-538,0,0,0,0,0,0,0,0,0,-1,1266,1562,0,0
49,-538,0,0,0,0,0,0,0,0,0,-1,1273,1562,0,0
56,-538,0,0,0,0,0,0,0,0,0,-1,1280,1562,0,0
63,-538,0,0,0,0,0,0,0,0,0,-1,1287,1562,0,0
70,-538,0,0,0,0,0,0,0,0,0,-1,1294,1562,0,0
77,-538,0,0,0,0,0,0,0,0,0,-1,1301,1562,0,0
84,-538,0,0,0,0,0,0,0,0,0,-1,1308,1562,0,0
91,-538,0,0,0,0,0,0,0,0,0,-1,1315,1562,0,0
98,-538,0,0,0,0,0,0,0,0,0,-1,1322,1562,0,0
105,-538,0,0,0,0,0,0,0,0,0,-1,1329,1562,0,0
112,-538,0,0,0,0,0,0,0,0,0,-1,1336,1562,0,0
119,-538,0,0,0,0,0,0,0,0,0,-1,1343,1562,0,0
126,-538,0,0,0,0,0,0,0,0,0,-1,1350,1562,0,0
133,-538,0,0,0,0,0,0,0,0,0,-1,1357,1562,0,0
140,-538,0,0,0,0,0,0,0,0,0,-1,1364,1562,0,0
147,-538,0,0,0,0,0,0,0,0,0,-1,1371,1562,0,0
154,-538,0,0,0,0,0,0,0,0,0,-1,1378,1562,0,0
161,-538,0,0,0,0,0,0,0,0,0,-1,1385,1562,0,0
168,-538,0,0,0,0,0,0,0,0,0,-1,1392,1562,0,0
175,-538,0,0,0,0,0,0,0,0,0,-1,1399,1562,0,0
182,-538,0,0,0,0,0,0,0,0,0,-1,1406,1562,0,0
189,-538,0,0,0,0,0,0,0,0,0,-1,1413,1562,0,0
196,-538,0,0,0,0,0,0,0,0,0,-1,1420,1562,0,0
203,-538,0,0,0,0,0,0,0,0,0,-1,1427,1562,0,0
210,-538,0,0,0,0,0,0,0,0,0,-1,1434,1562,0,0
217,-538,0,0,0,0,0,0,0,0,0,-1,1441,1562,0,0
224,-538,0,0,0,0,0,0,0,0,0,-1,1448,1562,0,0
231,-538,0,0,0,0,0,0,0,0,0,-1,1455,1562,0,0
238,-538,0,0,0,0,0,0,0,0,0,-1,1462,1562,0,0
245,-538,0,0,0,0,0,0,0,0,0,-1,1469,1562,0,0
252,-538,0,0,0,0,0,0,0,0,0,-1,1476,1562,0,0
259,-538,0,0,0,0,0,0,0,0,0,-1,1483,1562,0,0
266,-538,0,0,0,0,0,0,0,0,0,-1,1490,1562,0,0
273,-538,0,0,0,0,0,0,0,0,0,-1,1497,1562,0,0
280,-538,0,0,0,0,0,0,0,0,0,-1,1504,1562,0,0
287,-538,0,0,0,0,0,0,0,0,0,-1,1511,1562,0,0
294,-538,0,0,0,0,0,0,0,0,0,-1,1518,1562,0,0
301,-538,0,0,0,0,0,0,0,0,0,-1,1525,1562,0,0
308,-538,0,0,0,0,0,0,0,0,0,-1,1532,1562,0,0
315,-538,0,0,0,0,0,0,0,0,0,-1,1539,1562,0,0
322,-538,0,0,0,0,0,0,0,0,0,-1,1546,1562,0,0
329,-538,0,0,0,0,0,0,0,0,0,-1,1553,1562,0,0
336,-538,0,0,0,0,0,0,0,0,0,-1,1560,1562,0,0
343,-538,0,0,0,0,0,0,0,0,0,-1,1567,1562,0,0
350,-538,0,0,0,0,0,0,0,0,0,-1,1574,1562,0,0
357,-538,0,0,0,0,0,0,0,0,0,-1,1581,1562,0,0
364,-538,0,0,0,0,0,0,0,0,0,-1,1588,1562,0,0
371,-538,0,0,0,0,0,0,0,0,0,-1,1595,1562,0,0
378,-538,9.65479,5.82434,0,0,0,0,0,0,0,-1,1602,1562,9.6548,-5.82439
385,-538,10.5449,7.9502,0,0,0,0,0,0,0,-1,1609,1562,10.5449,-7.95014
392,-538,8.20361,7.07214,0,0,0,0,0,0,0,-1,1616,1562,8.20362,-7.07211
399,-538,7.85425,4.70508,0,0,0,0,0,0,0,-1,1623,1562,7.85425,-4.70512
406,-538,7.77734,4.96094,0,0,0,0,0,0,0,-1,1630,1562,7.77729,-4.96097
413,-538,13.0446,13.1765,0,0,0,0,0,0,0,-1,1637,1562,13.0446,-13.1765
420,-538,9.96216,12.7653,0,0,0,0,0,0,0,-1,1644,1562,9.96221,-12.7653
427,-538,10.1732,14.5863,0,0,0,0,0,0,0,-1,1651,1562,10.1732,-14.5863
434,-538,9.64331,14.7745,0,0,0,0,0,0,0,-1,1658,1562,9.64326,-14.7746
441,-538,11.5039,20.5195,0,0,0,0,0,0,0,-1,1665,1562,11.5039,-20.5195
448,-538,12.8766,22.4932,0,0,0,0,0,0,0,-1,1672,1562,12.8766,-22.4932
455,-538,12.5693,17.4128,0,0,0,0,0,0,0,-1,1679,1562,12.5694,-17.4128
462,-538,12.1389,17.017,0,0,0,0,0,0,0,-1,1686,1562,12.1389,-17.017
469,-538,14.3802,16.6945,0,0,0,0,0,0,0,-1,1693,1562,14.3803,-16.6945
476,-538,13.724,19.0608,0,0,0,0,0,0,0,-1,1700,1562,13.724,-19.0608
483,-538,17.088,25.2936,0,0,0,0,0,0,0,-1,1707,1562,17.088,-25.2936
490,-538,18.9623,28.3085,0,0,0,0,0,0,0,-1,1714,1562,18.9623,-28.3084
497,-538,19.1924,27.3893,0.00832532,0.0112402,-0.00749961,0.0174227,0.00214286,-0.88137,0.0109708,0.040509,1721,1562,19.1924,-27.3893
504,-538,19.296,26.6984,0.0073197,0.00872022,-0.00617222,0.0142318,0.00180814,-0.841883,0.00894626,0.0168429,1728,1562,19.296,-26.6984
511,-538,19.2656,26.1846,0.00644873,0.00680652,-0.00520052,0.0118312,0.00142402,-0.802591,0.00745826,0.0105404,1735,1562,19.2656,-26.1846
518,-538,19.2644,25.682,0.00505307,0.00487746,-0.00387461,0.00884087,0.00108966,-0.774069,0.00556636,0.0111797,1742,1562,19.2644,-25.682
525,-538,19.2457,25.1553,0.00360914,0.00319694,-0.00263966,0.00605073,0.000755353,-0.746438,0.0038071,0.012344,1749,1562,19.2457,-25.1553
532,-538,19.2526,24.636,0.00223664,0.00171497,-0.00144915,0.00344824,0.000503374,-0.696355,0.00215076,0.0140883,1756,1562,19.2526,-24.636
539,-538,19.2472,24.106,0.000956269,0.000379851,-0.000293237,0.00107922,0.0002569,-0.397023,0.000650969,0.0167311,1763,1562,19.2472,-24.1059
546,-538,19.1957,23.5391,-0.000394796,-0.000973432,0.000947744,0.000306806,-0.00167503,0.637256,0.00123176,0.0172901,1770,1562,19.1957,-23.5391
553,-538,19.2203,22.9904,-0.0016898,-0.00222964,0.00219199,0.00024883,-0.00416827,0.724136,0.00286539,0.0285734,1777,1562,19.2203,-22.9903
560,-538,19.1382,22.5132,-0.00274933,-0.00327677,0.00329291,0.000290399,-0.0063165,0.74544,0.00431106,0.0302289,1784,1562,19.1382,-22.5131
567,-538,19.062,21.9872,-0.00348461,-0.00401889,0.00414336,0.00040021,-0.00790371,0.753206,0.00540748,0.0235671,1791,1562,19.0621,-21.9871
574,-538,19.0236,21.386,-0.00385912,-0.00454888,0.00479529,0.000603674,-0.00901168,0.7495,0.00621878,0.0283389,1798,1562,19.0235,-21.386
581,-538,19.0908,20.8341,-0.00351015,-0.00460196,0.00489532,0.000869617,-0.00898172,0.72987,0.00629773,0.0394367,1805,1562,19.0909,-20.8341
588,-538,19.1608,20.2527,0,0,0,0,0,0,0,-1,1812,1562,19.1608,-20.2526
595,-538,15.9808,16.0894,0,0,0,0,0,0,0,-1,1819,1562,15.9808,-16.0893
602,-538,10.314,8.94238,0,0,0,0,0,0,0,-1,1826,1562,10.314,-8.94238
609,-538,10.1046,7.05713,0,0,0,0,0,0,0,-1,1833,1562,10.1046,-7.05719
616,-538,9.92249,5.43506,0,0,0,0,0,0,0,-1,1840,1562,9.92254,-5.43507
623,-538,11.1711,4.31604,0,0,0,0,0,0,0,-1,1847,1562,11.1711,-4.316
630,-538,12.6112,2.61633,0,0,0,0,0,0,0,-1,1854,1562,12.6112,-2.61637
637,-538,0,0,0,0,0,0,0,0,0,-1,1861,1562,0,0
644,-538,0,0,0,0,0,0,0,0,0,-1,1868,1562,0,0
651,-538,0,0,0,0,0,0,0,0,0,-1,1875,1562,0,0
658,-538,0,0,0,0,0,0,0,0,0,-1,1882,1562,0,0
665,-538,0,0,0,0,0,0,0,0,0,-1,1889,1562,0,0
672,-538,0,0,0,0,0,0,0,0,0,-1,1896,1562,0,0
679,-538,0,0,0,0,0,0,0,0,0,-1,1903,1562,0,0
686,-538,0,0,0,0,0,0,0,0,0,-1,1910,1562,0,0
693,-538,0,0,0,0,0,0,0,0,0,-1,1917,1562,0,0
700,-538,0,0,0,0,0,0,0,0,0,-1,1924,1562,0,0
707,-538,0,0,0,0,0,0,0,0,0,-1,1931,1562,0,0
714,-538,0,0,0,0,0,0,0,0,0,-1,1938,1562,0,0
721,-538,0,0,0,0,0,0,0,0,0,-1,1945,1562,0,0
728,-538,0,0,0,0,0,0,0,0,0,-1,1952,1562,0,0
735,-538,0,0,0,0,0,0,0,0,0,-1,1959,1562,0,0
742,-538,0,0,0,0,0,0,0,0,0,-1,1966,1562,0,0
749,-538,0,0,0,0,0,0,0,0,0,-1,1973,1562,0,0
756,-538,0,0,0,0,0,0,0,0,0,-1,1980,1562,0,0
763,-538,0,0,0,0,0,0,0,0,0,-1,1987,1562,0,0
770,-538,0,0,0,0,0,0,0,0,0,-1,1994,1562,0,0
777,-538,0,0,0,0,0,0,0,0,0,-1,2001,1562,0,0
784,-538,0,0,0,0,0,0,0,0,0,-1,2008,1562,0,0
791,-538,0,0,0,0,0,0,0,0,0,-1,2015,1562,0,0
798,-538,0,0,0,0,0,0,0,0,0,-1,2022,1562,0,0
805,-538,0,0,0,0,0,0,0,0,0,-1,2029,1562,0,0
812,-538,0,0,0,0,0,0,0,0,0,-1,2036,1562,0,0
-700,-545,0,0,0,0,0,0,0,0,0,-1,524,1569,0,0
-693,-545,0,0,0,0,0,0,0,0,0,-1,531,1569,0,0
-686,-545,0,0,0,0,0,0,0,0,0,-1,538,1569,0,0
-679,-545,0,0,0,0,0,0,0,0,0,-1,545,1569,0,0
-672,-545,0,0,0,0,0,0,0,0,0,-1,552,1569,0,0
-665,-545,0,0,0,0,0,0,0,0,0,-1,559,1569,0,0
-658,-545,0,0,0,0,0,0,0,0,0,-1,566,1569,0,0
-651,-545,0,0,0,0,0,0,0,0,0,-1,573,1569,0,0
-644,-545,0,0,0,0,0,0,0,0,0,-1,580,1569,0,0
-637,-545,0,0,0,0,0,0,0,0,0,-1,587,1569,0,0
-630,-545,0,0,0,0,0,0,0,0,0,-1,594,1569,0,0
-623,-545,0,0,0,0,0,0,0,0,0,-1,601,1569,0,0
-616,-545,0,0,0,0,0,0,0,0,0,-1,608,1569,0,0
-609,-545,0,0,0,0,0,0,0,0,0,-1,615,1569,0,0
-602,-545,0,0,0,0,0,0,0,0,0,-1,622,1569,0,0
-595,-545,0,0,0,0,0,0,0,0,0,-1,629,1569,0,0
-588,-545,0,0,0,0,0,0,0,0,0,-1,636,1569,0,0
-581,-545,0,0,0,0,0,0,0,0,0,-1,643,1569,0,0
-574,-545,0,0,0,0,0,0,0,0,0,-1,650,1569,0,0
-567,-545,0,0,0,0,0,0,0,0,0,-1,657,1569,0,0
-560,-545,0,0,0,0,0,0,0,0,0,-1,664,1569,0,0
-553,-545,0,0,0,0,0,0,0,0,0,-1,671,1569,0,0
-546,-545,0,0,0,0,0,0,0,0,0,-1,678,1569,0,0
-539,-545,0,0,0,0,0,0,0,0,0,-1,685,1569,0,0
-532,-545,0,0,0,0,0,0,0,0,0,-1,692,1569,0,0
-525,-545,0,0,0,0,0,0,0,0,0,-1,699,1569,0,0
-518,-545,0,0,0,0,0,0,0,0,0,-1,706,1569,0,0
-511,-545,0,0,0,0,0,0,0,0,0,-1,713,1569,0,0
-504,-545,-3.55237,-2.5354,0,0,0,0,0,0,0,-1,720,1569,-3.55236,2.53545
-497,-545,2.26575,5.69214,0,0,0,0,0,0,0,-1,727,1569,2.26573,-5.6922
-490,-545,-2.17334,7.81396,0,0,0,0,0,0,0,-1,734,1569,-2.17334,-7.81399
-483,-545,-1.88336,5.8446,0,0,0,0,0,0,0,-1,741,1569,-1.88334,-5.84466
-476,-545,-1.13147,6.5741,0,0,0,0,0,0,0,-1,748,1569,-1.13149,-6.57405
-469,-545,-1.03412,15.8353,0,0,0,0,0,0,0,-1,755,1569,-1.03414,-15.8353
-462,-545,-2.49921,17.8176,0,0,0,0,0,0,0,-1,762,1569,-2.4992,-17.8177
-455,-545,-1.84387,17.7865,0.00249132,0.0254266,0.00696451,0.0273758,0.00054214,1.2979,0.0180725,0.0452861,769,1569,-1.84389,-17.7865
-448,-545,-1.66345,19.4122,0.000835881,0.0186231,0.00454832,0.0197187,-0.000259679,1.33443,0.0132332,0.0334134,776,1569,-1.66343,-19.4122
-441,-545,-1.7605,20.3591,-0.000291812,0.0132393,0.00269677,0.013757,-0.000809477,1.38115,0.0094527,0.0289502,783,1569,-1.76048,-20.3592
-434,-545,-2.02649,20.8318,-0.000821635,0.00893901,0.00152755,0.00917249,-0.00105511,1.41913,0.00649533,0.0254365,790,1569,-2.02649,-20.8318
-427,-545,-1.99762,21.3672,-0.000842449,0.00610279,0.000984898,0.00623975,-0.000979415,1.43262,0.0045218,0.0214267,797,1569,-1.99764,-21.3672
-420,-545,-1.99854,21.9274,-0.00060658,0.00409895,0.000784339,0.00422624,-0.000733874,1.4099,0.0030913,0.0263904,804,1569,-1.99851,-21.9274
-413,-545,-2.03839,22.4725,-0.000242401,0.0030742,0.000750824,0.00323626,-0.000404457,1.35822,0.00230419,0.025433,811,1569,-2.0384,-22.4725
-406,-545,-2.02588,23.0642,0.000311821,0.00251928,0.00102226,0.00291996,-8.88546e-05,1.19725,0.00197692,0.0177718,818,1569,-2.02591,-23.0642
-399,-545,-2.03693,23.6221,0.000691525,0.00172753,0.00117816,0.00249654,-7.74794e-05,0.992514,0.00169078,0.0117171,825,1569,-2.03693,-23.622
-392,-545,-2.06647,24.1685,0.00152608,0.00258504,0.00166802,0.0038056,0.000305523,0.939082,0.00244161,0.0121816,832,1569,-2.06645,-24.1684
-385,-545,-2.09406,24.741,0.00269003,0.00498299,0.00245538,0.00654636,0.00112666,1.00382,0.00404138,0.0110257,839,1569,-2.09407,-24.741
-378,-545,-2.13892,25.3088,0.00388246,0.00743432,0.00329632,0.00940267,0.00191411,1.03249,0.00573784,0.0128328,846,1569,-2.13894,-25.3089
-371,-545,-2.15491,25.894,0.00510895,0.0103719,0.00417112,0.0126722,0.0028086,1.06681,0.00768498,0.0148442,853,1569,-2.1549,-25.894
-364,-545,-2.16315,26.4159,0.00656746,0.0141913,0.00524594,0.016864,0.00389473,1.09959,0.0101955,0.0108877,860,1569,-2.16316,-26.4159
-357,-545,-2.08661,27.0638,0.00823814,0.0188791,0.00650067,0.021959,0.00515825,1.12834,0.0132587,0.0191621,867,1569,-2.0866,-27.0638
-350,-545,-2.03174,27.6735,0.010164,0.0244863,0.0080133,0.028072,0.00657827,1.15005,0.0169528,0.0298803,874,1569,-2.03171,-27.6734
-343,-545,-2.0575,28.139,0.0122788,0.0309976,0.00977158,0.035169,0.00810744,1.16733,0.0212651,0.0496945,881,1569,-2.05749,-28.139
-336,-545,-1.82306,28.4585,0,0,0,0,0,0,0,-1,888,1569,-1.82304,-28.4585
-329,-545,-2.03595,27.8694,0,0,0,0,0,0,0,-1,895,1569,-2.03592,-27.8694
-322,-545,-2.42474,27.9695,0,0,0,0,0,0,0,-1,902,1569,-2.42474,-27.9695
-315,-545,-2.52954,30.1711,0,0,0,0,0,0,0,-1,909,1569,-2.52951,-30.1712
-308,-545,-1.54358,21.4457,0,0,0,0,0,0,0,-1,916,1569,-1.54357,-21.4457
-301,-545,1.52191,17.5009,0,0,0,0,0,0,0,-1,923,1569,1.52192,-17.5008
-294,-545,-2.69287,8.42102,0,0,0,0,0,0,0,-1,930,1569,-2.69287,-8.42097
-287,-545,-3.47784,9.96021,0,0,0,0,0,0,0,-1,937,1569,-3.47785,-9.96021
-280,-545,-3.7879,10.5448,0,0,0,0,0,0,0,-1,944,1569,-3.78793,-10.5448
-273,-545,-5.10333,12.864,0,0,0,0,0,0,0,-1,951,1569,-5.10331,-12.864
-266,-545,-5.78955,13.3704,0,0,0,0,0,0,0,-1,958,1569,-5.78952,-13.3703
-259,-545,-6.32184,13.8101,0,0,0,0,0,0,0,-1,965,1569,-6.32182,-13.81
-252,-545,0.369263,7.54053,0,0,0,0,0,0,0,-1,972,1569,0.369276,-7.54056
-245,-545,-0.236633,6.65564,0,0,0,0,0,0,0,-1,979,1569,-0.236605,-6.65566
-238,-545,0,0,0,0,0,0,0,0,0,-1,986,1569,0,0
-231,-545,0,0,0,0,0,0,0,0,0,-1,993,1569,0,0
-224,-545,0,0,0,0,0,0,0,0,0,-1,1000,1569,0,0
-217,-545,0,0,0,0,0,0,0,0,0,-1,1007,1569,0,0
-210,-545,0,0,0,0,0,0,0,0,0,-1,1014,1569,0,0
-203,-545,0,0,0,0,0,0,0,0,0,-1,1021,1569,0,0
-196,-545,0,0,0,0,0,0,0,0,0,-1,1028,1569,0,0
-189,-545,0,0,0,0,0,0,0,0,0,-1,1035,1569,0,0
-182,-545,0,0,0,0,0,0,0,0,0,-1,1042,1569,0,0
-175,-545,0,0,0,0,0,0,0,0,0,-1,1049,1569,0,0
-168,-545,0,0,0,0,0,0,0,0,0,-1,1056,1569,0,0
-161,-545,0,0,0,0,0,0,0,0,0,-1,1063,1569,0,0
-154,-545,0,0,0,0,0,0,0,0,0,-1,1070,1569,0,0
-147,-545,0,0,0,0,0,0,0,0,0,-1,1077,1569,0,0
-140,-545,0,0,0,0,0,0,0,0,0,-1,1084,1569,0,0
-133,-545,0,0,0,0,0,0,0,0,0,-1,1091,1569,0,0
-126,-545,0,0,0,0,0,0,0,0,0,-1,1098,1569,0,0
-119,-545,0,0,0,0,0,0,0,0,0,-1,1105,1569,0,0
-112,-545,0,0,0,0,0,0,0,0,0,-1,1112,1569,0,0
-105,-545,0,0,0,0,0,0,0,0,0,-1,1119,1569,0,0
-98,-545,0,0,0,0,0,0,0,0,0,-1,1126,1569,0,0
-91,-545,0,0,0,0,0,0,0,0,0,-1,1133,1569,0,0
-84,-545,0,0,0,0,0,0,0,0,0,-1,1140,1569,0,0
-77,-545,0,0,0,0,0,0,0,0,0,-1,1147,1569,0,0
-70,-545,0,0,0,0,0,0,0,0,0,-1,1154,1569,0,0
-63,-545,0,0,0,0,0,0,0,0,0,-1,1161,1569,0,0
-56,-545,0,0,0,0,0,0,0,0,0,-1,1168,1569,0,0
-49,-545,0,0,0,0,0,0,0,0,0,-1,1175,1569,0,0
-42,-545,0,0,0,0,0,0,0,0,0,-1,1182,1569,0,0
-35,-545,0,0,0,0,0,0,0,0,0,-1,1189,1569,0,0
-28,-545,0,0,0,0,0,0,0,0,0,-1,1196,1569,0,0
-21,-545,0,0,0,0,0,0,0,0,0,-1,1203,1569,0,0
-14,-545,0,0,0,0,0,0,0,0,0,-1,1210,1569,0,0
-7,-545,0,0,0,0,0,0,0,0,0,-1,1217,1569,0,0
0,-545,0,0,0,0,0,0,0,0,0,-1,1224,1569,0,0
7,-545,0,0,0,0,0,0,0,0,0,-1,1231,1569,0,0
14,-545,0,0,0,0,0,0,0,0,0,-1,1238,1569,0,0
21,-545,0,0,0,0,0,0,0,0,0,-1,1245,1569,0,0
28,-545,0,0,0,0,0,0,0,0,0,-1,1252,1569,0,0
35,-545,0,0,0,0,0,0,0,0,0,-1,1259,1569,0,0
42,-545,0,0,0,0,0,0,0,0,0,-1,1266,1569,0,0
49,-545,0,0,0,0,0,0,0,0,0,-1,1273,1569,0,0
56,-545,0,0,0,0,0,0,0,0,0,-1,1280,1569,0,0
63,-545,0,0,0,0,0,0,0,0,0,-1,1287,1569,0,0
70,-545,0,0,0,0,0,0,0,0,0,-1,1294,1569,0,0
77,-545,0,0,0,0,0,0,0,0,0,-1,1301,1569,0,0
84,-545,0,0,0,0,0,0,0,0,0,-1,1308,1569,0,0
91,-545,0,0,0,0,0,0,0,0,0,-1,1315,1569,0,0
98,-545,0,0,0,0,0,0,0,0,0,-1,1322,1569,0,0
105,-545,0,0,0,0,0,0,0,0,0,-1,1329,1569,0,0
112,-545,0,0,0,0,0,0,0,0,0,-1,1336,1569,0,0
119,-545,0,0,0,0,0,0,0,0,0,-1,1343,1569,0,0
126,-545,0,0,0,0,0,0,0,0,0,-1,1350,1569,0,0
133,-545,0,0,0,0,0,0,0,0,0,-1,1357,1569,0,0
140,-545,0,0,0,0,0,0,0,0,0,-1,1364,1569,0,0
147,-545,0,0,0,0,0,0,0,0,0,-1,1371,1569,0,0
154,-545,0,0,0,0,0,0,0,0,0,-1,1378,1569,0,0
161,-545,0,0,0,0,0,0,0,0,0,-1,1385,1569,0,0
168,-545,0,0,0,0,0,0,0,0,0,-1,1392,1569,0,0
175,-545,0,0,0,0,0,0,0,0,0,-1,1399,1569,0,0
182,-545,0,0,0,0,0,0,0,0,0,-1,1406,1569,0,0
189,-545,0,0,0,0,0,0,0,0,0,-1,1413,1569,0,0
196,-545,0,0,0,0,0,0,0,0,0,-1,1420,1569,0,0
203,-545,0,0,0,0,0,0,0,0,0,-1,1427,1569,0,0
210,-545,0,0,0,0,0,0,0,0,0,-1,1434,1569,0,0
217,-545,0,0,0,0,0,0,0,0,0,-1,1441,1569,0,0
224,-545,0,0,0,0,0,0,0,0,0,-1,1448,1569,0,0
231,-545,0,0,0,0,0,0,0,0,0,-1,1455,1569,0,0
238,-545,0,0,0,0,0,0,0,0,0,-1,1462,1569,0,0
245,-545,0,0,0,0,0,0,0,0,0,-1,1469,1569,0,0
252,-545,0,0,0,0,0,0,0,0,0,-1,1476,1569,0,0
259,-545,0,0,0,0,0,0,0,0,0,-1,1483,1569,0,0
266,-545,0,0,0,0,0,0,0,0,0,-1,1490,1569,0,0
273,-545,0,0,0,0,0,0,0,0,0,-1,1497,1569,0,0
280,-545,0,0,0,0,0,0,0,0,0,-1,1504,1569,0,0
287,-545,0,0,0,0,0,0,0,0,0,-1,1511,1569,0,0
294,-545,0,0,0,0,0,0,0,0,0,-1,1518,1569,0,0
301,-545,0,0,0,0,0,0,0,0,0,-1,1525,1569,0,0
308,-545,0,0,0,0,0,0,0,0,0,-1,1532,1569,0,0
315,-545,0,0,0,0,0,0,0,0,0,-1,1539,1569,0,0
322,-545,0,0,0,0,0,0,0,0,0,-1,1546,1569,0,0
329,-545,0,0,0,0,0,0,0,0,0,-1,1553,1569,0,0
336,-545,0,0,0,0,0,0,0,0,0,-1,1560,1569,0,0
343,-545,0,0,0,0,0,0,0,0,0,-1,1567,1569,0,0
350,-545,0,0,0,0,0,0,0,0,0,-1,1574,1569,0,0
357,-545,0,0,0,0,0,0,0,0,0,-1,1581,1569,0,0
364,-545,7.19495,4.88098,0,0,0,0,0,0,0,-1,1588,1569,7.19497,-4.88095
371,-545,7.82324,3.84302,0,0,0,0,0,0,0,-1,1595,1569,7.82324,-3.84307
378,-545,7.65674,5.52673,0,0,0,0,0,0,0,-1,1602,1569,7.6567,-5.52667
385,-545,8.58447,1.16125,0,0,0,0,0,0,0,-1,1609,1569,8.5845,-1.1612
392,-545,12.5654,3.89526,0,0,0,0,0,0,0,-1,1616,1569,12.5655,-3.89532
399,-545,11.5869,5.6333,0,0,0,0,0,0,0,-1,1623,1569,11.5869,-5.63326
406,-545,11.234,6.36414,0,0,0,0,0,0,0,-1,1630,1569,11.234,-6.3641
413,-545,12.1521,13.4817,0,0,0,0,0,0,0,-1,1637,1569,12.1521,-13.4817
420,-545,11.1954,13.6047,0,0,0,0,0,0,0,-1,1644,1569,11.1954,-13.6047
427,-545,9.61072,14.9135,0,0,0,0,0,0,0,-1,1651,1569,9.61076,-14.9134
434,-545,13.1598,23.9921,0,0,0,0,0,0,0,-1,1658,1569,13.1598,-23.992
441,-545,12.2833,22.2238,0,0,0,0,0,0,0,-1,1665,1569,12.2833,-22.2237
448,-545,13.0082,21.941,0,0,0,0,0,0,0,-1,1672,1569,13.0082,-21.941
455,-545,13.733,21.6583,0,0,0,0,0,0,0,-1,1679,1569,13.733,-21.6583
462,-545,12.449,20.7413,0,0,0,0,0,0,0,-1,1686,1569,12.4489,-20.7413
469,-545,12.7837,17.7919,0,0,0,0,0,0,0,-1,1693,1569,12.7837,-17.7919
476,-545,15.7562,24.8708,0,0,0,0,0,0,0,-1,1700,1569,15.7563,-24.8709
483,-545,18.663,28.4542,0,0,0,0,0,0,0,-1,1707,1569,18.663,-28.4543
490,-545,18.7247,27.8248,0.0081259,0.0117536,-0.00762011,0.0177727,0.00210673,-0.90224,0.0112124,0.0297675,1714,1569,18.7248,-27.8248
497,-545,18.7437,27.2714,0.00660414,0.00904688,-0.00586851,0.0138198,0.00183125,-0.887995,0.00866749,0.022374,1721,1569,18.7436,-27.2714
504,-545,18.8156,26.7194,0.005679,0.00676442,-0.00469891,0.0109519,0.00149157,-0.842892,0.00685833,0.01581,1728,1569,18.8156,-26.7193
511,-545,18.7659,26.1926,0.0047459,0.00498593,-0.00372301,0.00859086,0.00114097,-0.801511,0.00538734,0.0123311,1735,1569,18.7659,-26.1926
518,-545,18.7534,25.6715,0.00342314,0.00318124,-0.00249497,0.00580009,0.000804296,-0.761178,0.00362846,0.013467,1742,1569,18.7535,-25.6715
525,-545,18.7142,25.1404,0.00202958,0.00158821,-0.00130857,0.00313594,0.000481844,-0.701861,0.00194996,0.0145288,1749,1569,18.7143,-25.1404
532,-545,18.6808,24.6395,0.000662282,0.000133666,-0.000112019,0.00068504,0.000110908,-0.200435,0.00042458,0.0147622,1756,1569,18.6808,-24.6395
539,-545,18.6777,24.1312,-0.000705474,-0.00122547,0.00111767,0.000182043,-0.00211298,0.671119,0.00147309,0.0167565,1763,1569,18.6777,-24.1313
546,-545,18.6451,23.5634,-0.00224476,-0.002654,0.00251079,6.97286e-05,-0.00496849,0.74474,0.00333581,0.0175819,1770,1569,18.6451,-23.5634
553,-545,18.6656,23.0072,-0.00380014,-0.00401089,0.00396564,6.15192e-05,-0.00787255,0.772116,0.00526899,0.0263238,1777,1569,18.6656,-23.0072
560,-545,18.6504,22.4829,-0.00521517,-0.00518969,0.00534594,0.000143531,-0.0105484,0.78659,0.00708059,0.028452,1784,1569,18.6503,-22.4829
567,-545,18.6173,21.8988,0,0,0,0,0,0,0,-1,1791,1569,18.6173,-21.8988
574,-545,18.6102,21.2418,0,0,0,0,0,0,0,-1,1798,1569,18.6102,-21.2419
581,-545,18.6135,20.7488,0,0,0,0,0,0,0,-1,1805,1569,18.6135,-20.7488
588,-545,15.4786,16.7035,0,0,0,0,0,0,0,-1,1812,1569,15.4786,-16.7035
595,-545,10.2859,9.11218,0,0,0,0,0,0,0,-1,1819,1569,10.2858,-9.11215
602,-545,8.82117,6.32214,0,0,0,0,0,0,0,-1,1826,1569,8.82121,-6.32217
609,-545,10.2406,5.22351,0,0,0,0,0,0,0,-1,1833,1569,10.2406,-5.22353
616,-545,11.701,3.93188,0,0,0,0,0,0,0,-1,1840,1569,11.701,-3.93191
623,-545,13.2139,2.32043,0,0,0,0,0,0,0,-1,1847,1569,13.2139,-2.32042
630,-545,0,0,0,0,0,0,0,0,0,-1,1854,1569,0,0
637,-545,0,0,0,0,0,0,0,0,0,-1,1861,1569,0,0
644,-545,0,0,0,0,0,0,0,0,0,-1,1868,1569,0,0
651,-545,0,0,0,0,0,0,0,0,0,-1,1875,1569,0,0
658,-545,0,0,0,0,0,0,0,0,0,-1,1882,1569,0,0
665,-545,0,0,0,0,0,0,0,0,0,-1,1889,1569,0,0
672,-545,0,0,0,0,0,0,0,0,0,-1,1896,1569,0,0
679,-545,0,0,0,0,0,0,0,0,0,-1,1903,1569,0,0
686,-545,0,0,0,0,0,0,0,0,0,-1,1910,1569,0,0
693,-545,0,0,0,0,0,0,0,0,0,-1,1917,1569,0,0
700,-545,0,0,0,0,0,0,0,0,0,-1,1924,1569,0,0
707,-545,0,0,0,0,0,0,0,0,0,-1,1931,1569,0,0
714,-545,0,0,0,0,0,0,0,0,0,-1,1938,1569,0,0
721,-545,0,0,0,0,0,0,0,0,0,-1,1945,1569,0,0
728,-545,0,0,0,0,0,0,0,0,0,-1,1952,1569,0,0
735,-545,0,0,0,0,0,0,0,0,0,-1,1959,1569,0,0
742,-545,0,0,0,0,0,0,0,0,0,-1,1966,1569,0,0
749,-545,0,0,0,0,0,0,0,0,0,-1,1973,1569,0,0
756,-545,0,0,0,0,0,0,0,0,0,-1,1980,1569,0,0
763,-545,0,0,0,0,0,0,0,0,0,-1,1987,1569,0,0
770,-545,0,0,0,0,0,0,0,0,0,-1,1994,1569,0,0
777,-545,0,0,0,0,0,0,0,0,0,-1,2001,1569,0,0
784,-545,0,0,0,0,0,0,0,0,0,-1,2008,1569,0,0
791,-545,0,0,0,0,0,0,0,0,0,-1,2015,1569,0,0
798,-545,0,0,0,0,0,0,0,0,0,-1,2022,1569,0,0
805,-545,0,0,0,0,0,0,0,0,0,-1,2029,1569,0,0
812,-545,0,0,0,0,0,0,0,0,0,-1,2036,1569,0,0
-700,-552,0,0,0,0,0,0,0,0,0,-1,524,1576,0,0
-693,-552,0,0,0,0,0,0,0,0,0,-1,531,1576,0,0
-686,-552,0,0,0,0,0,0,0,0,0,-1,538,1576,0,0
-679,-552,0,0,0,0,0,0,0,0,0,-1,545,1576,0,0
-672,-552,0,0,0,0,0,0,0,0,0,-1,552,1576,0,0
-665,-552,0,0,0,0,0,0,0,0,0,-1,559,1576,0,0
-658,-552,0,0,0,0,0,0,0,0,0,-1,566,1576,0,0
-651,-552,0,0,0,0,0,0,0,0,0,-1,573,1576,0,0
-644,-552,0,0,0,0,0,0,0,0,0,-1,580,1576,0,0
-637,-552,0,0,0,0,0,0,0,0,0,-1,587,1576,0,0
-630,-552,0,0,0,0,0,0,0,0,0,-1,594,1576,0,0
-623,-552,0,0,0,0,0,0,0,0,0,-1,601,1576,0,0
-616,-552,0,0,0,0,0,0,0,0,0,-1,608,1576,0,0
-609,-552,0,0,0,0,0,0,0,0,0,-1,615,1576,0,0
-602,-552,0,0,0,0,0,0,0,0,0,-1,622,1576,0,0
-595,-552,0,0,0,0,0,0,0,0,0,-1,629,1576,0,0
-588,-552,0,0,0,0,0,0,0,0,0,-1,636,1576,0,0
-581,-552,0,0,0,0,0,0,0,0,0,-1,643,1576,0,0
-574,-552,0,0,0,0,0,0,0,0,0,-1,650,1576,0,0
-567,-552,0,0,0,0,0,0,0,0,0,-1,657,1576,0,0
-560,-552,0,0,0,0,0,0,0,0,0,-1,664,1576,0,0
-553,-552,0,0,0,0,0,0,0,0,0,-1,671,1576,0,0
-546,-552,0,0,0,0,0,0,0,0,0,-1,678,1576,0,0
-539,-552,0,0,0,0,0,0,0,0,0,-1,685,1576,0,0
-532,-552,0,0,0,0,0,0,0,0,0,-1,692,1576,0,0
-525,-552,0,0,0,0,0,0,0,0,0,-1,699,1576,0,0
-518,-552,0,0,0,0,0,0,0,0,0,-1,706,1576,0,0
-511,-552,0,0,0,0,0,0,0,0,0,-1,713,1576,0,0
-504,-552,0,0,0,0,0,0,0,0,0,-1,720,1576,0,0
-497,-552,1.51282,3.96924,0,0,0,0,0,0,0,-1,727,1576,1.5128,-3.96924
-490,-552,-3.82312,6.32104,0,0,0,0,0,0,0,-1,734,1576,-3.82314,-6.3211
-483,-552,-3.50586,6.47986,0,0,0,0,0,0,0,-1,741,1576,-3.50587,-6.47983
-476,-552,-1.95129,4.43054,0,0,0,0,0,0,0,-1,748,1576,-1.95128,-4.43054
-469,-552,-1.40491,7.9895,0,0,0,0,0,0,0,-1,755,1576,-1.40491,-7.98947
-462,-552,0.0459595,16.3469,0,0,0,0,0,0,0,-1,762,1576,0.0459611,-16.3469
-455,-552,-1.36194,17.2969,0,0,0,0,0,0,0,-1,769,1576,-1.36196,-17.2969
-448,-552,-0.486145,19.4679,0,0,0,0,0,0,0,-1,776,1576,-0.486148,-19.4678
-441,-552,-0.905151,20.3809,-0.000475716,0.0179879,0.00381059,0.0187434,-0.00123124,1.37506,0.0129256,0.0471617,783,1576,-0.905127,-20.3808
-434,-552,-1.21191,21.0065,-0.00130279,0.011618,0.00202172,0.011927,-0.00161174,1.41915,0.00853942,0.0374334,790,1576,-1.21188,-21.0064
-427,-552,-1.46149,21.2922,-0.00147258,0.0075361,0.00110182,0.00766891,-0.00160538,1.45084,0.00572328,0.0329743,797,1576,-1.46148,-21.2922
-420,-552,-1.422,21.941,-0.00133627,0.00475232,0.000661229,0.0048233,-0.00140725,1.46386,0.00377314,0.0246543,804,1576,-1.42201,-21.9411
-413,-552,-1.44427,22.5002,-0.00105198,0.00316611,0.000442777,0.00321209,-0.00109796,1.46733,0.00258627,0.0187689,811,1576,-1.44425,-22.5003
-406,-552,-1.46527,23.0758,-0.000566355,0.00216061,0.000558138,0.00227043,-0.000676169,1.37653,0.00178229,0.0133468,818,1576,-1.46525,-23.0758
-399,-552,-1.47595,23.6315,-0.000317586,0.000774119,0.000507477,0.000973577,-0.000517045,1.19631,0.000873962,0.0134357,825,1576,-1.47597,-23.6315
-392,-552,-1.52069,24.1875,0.000403618,0.00131609,0.000868478,0.00184087,-0.00012117,1.02725,0.00126957,0.0161057,832,1576,-1.52066,-24.1875
-385,-552,-1.54694,24.7671,0.00149899,0.00300036,0.0015148,0.00394029,0.000559066,1.01545,0.00246175,0.0150282,839,1576,-1.54694,-24.7671
-378,-552,-1.57886,25.3123,0.00256782,0.00494305,0.00222106,0.00627407,0.0012368,1.03091,0.00383747,0.0158538,846,1576,-1.57888,-25.3123
-371,-552,-1.59412,25.8987,0.00361306,0.00718071,0.00290074,0.00880223,0.00199155,1.06107,0.00532981,0.0180208,853,1576,-1.59414,-25.8987
-364,-552,-1.5918,26.444,0.00483875,0.0101012,0.00373954,0.0120425,0.00289751,1.09198,0.00725789,0.0140167,860,1576,-1.5918,-26.444
-357,-552,-1.58777,26.9636,0.00623747,0.0136109,0.0047363,0.0159262,0.00392215,1.11611,0.00958152,0.0105922,867,1576,-1.58778,-26.9637
-350,-552,-1.57629,27.5457,0.0078609,0.0177001,0.00593422,0.0204888,0.00507222,1.13149,0.0123215,0.0134409,874,1576,-1.57629,-27.5457
-343,-552,-1.60547,28.042,0.0096331,0.0224127,0.00736588,0.0257741,0.00627171,1.14268,0.0155205,0.020302,881,1576,-1.60544,-28.042
-336,-552,-1.50885,28.4728,0.0114453,0.0279071,0.00904245,0.0319038,0.00744859,1.15462,0.0192723,0.0391016,888,1576,-1.50883,-28.4728
-329,-552,-1.22644,29.7268,0,0,0,0,0,0,0,-1,895,1576,-1.22646,-29.7269
-322,-552,-1.23962,28.5371,0,0,0,0,0,0,0,-1,902,1576,-1.23964,-28.5371
-315,-552,-0.605347,28.994,0,0,0,0,0,0,0,-1,909,1576,-0.605331,-28.9941
-308,-552,-1.01624,30.3169,0,0,0,0,0,0,0,-1,916,1576,-1.01624,-30.3169
-301,-552,1.39453,18.4995,0,0,0,0,0,0,0,-1,923,1576,1.3945,-18.4995
-294,-552,0.842163,13.7863,0,0,0,0,0,0,0,-1,930,1576,0.842149,-13.7863
-287,-552,-0.663757,13.3474,0,0,0,0,0,0,0,-1,937,1576,-0.663744,-13.3474
-280,-552,-5.47241,8.96765,0,0,0,0,0,0,0,-1,944,1576,-5.47239,-8.96766
-273,-552,1.64587,10.6685,0,0,0,0,0,0,0,-1,951,1576,1.6459,-10.6685
-266,-552,-1.32678,8.05688,0,0,0,0,0,0,0,-1,958,1576,-1.32677,-8.05683
-259,-552,-5.54321,8.31213,0,0,0,0,0,0,0,-1,965,1576,-5.54324,-8.31214
-252,-552,-1.93445,7.81543,0,0,0,0,0,0,0,-1,972,1576,-1.93445,-7.81546
-245,-552,-2.53613,6.92212,0,0,0,0,0,0,0,-1,979,1576,-2.53614,-6.92216
-238,-552,-6.5365,2.81885,0,0,0,0,0,0,0,-1,986,1576,-6.53649,-2.8188
-231,-552,-4.32239,4.34583,0,0,0,0,0,0,0,-1,993,1576,-4.32239,-4.34587
-224,-552,0,0,0,0,0,0,0,0,0,-1,1000,1576,0,0
-217,-552,0,0,0,0,0,0,0,0,0,-1,1007,1576,0,0
-210,-552,0,0,0,0,0,0,0,0,0,-1,1014,1576,0,0
-203,-552,0,0,0,0,0,0,0,0,0,-1,1021,1576,0,0
-196,-552,0,0,0,0,0,0,0,0,0,-1,1028,1576,0,0
-189,-552,0,0,0,0,0,0,0,0,0,-1,1035,1576,0,0
-182,-552,0,0,0,0,0,0,0,0,0,-1,1042,1576,0,0
-175,-552,0,0,0,0,0,0,0,0,0,-1,1049,1576,0,0
-168,-552,0,0,0,0,0,0,0,0,0,-1,1056,1576,0,0
-161,-552,0,0,0,0,0,0,0,0,0,-1,1063,1576,0,0
-154,-552,0,0,0,0,0,0,0,0,0,-1,1070,1576,0,0
-147,-552,0,0,0,0,0,0,0,0,0,-1,1077,1576,0,0
-140,-552,0,0,0,0,0,0,0,0,0,-1,1084,1576,0,0
-133,-552,0,0,0,0,0,0,0,0,0,-1,1091,1576,0,0
-126,-552,0,0,0,0,0,0,0,0,0,-1,1098,1576,0,0
-119,-552,0,0,0,0,0,0,0,0,0,-1,1105,1576,0,0
-112,-552,0,0,0,0,0,0,0,0,0,-1,1112,1576,0,0
-105,-552,0,0,0,0,0,0,0,0,0,-1,1119,1576,0,0
-98,-552,0,0,0,0,0,0,0,0,0,-1,1126,1576,0,0
-91,-552,0,0,0,0,0,0,0,0,0,-1,1133,1576,0,0
-84,-552,0,0,0,0,0,0,0,0,0,-1,1140,1576,0,0
-77,-552,0,0,0,0,0,0,0,0,0,-1,1147,1576,0,0
-70,-552,0,0,0,0,0,0,0,0,0,-1,1154,1576,0,0
-63,-552,0,0,0,0,0,0,0,0,0,-1,1161,1576,0,0
-56,-552,0,0,0,0,0,0,0,0,0,-1,1168,1576,0,0
-49,-552,0,0,0,0,0,0,0,0,0,-1,1175,1576,0,0
-42,-552,0,0,0,0,0,0,0,0,0,-1,1182,1576,0,0
-35,-552,0,0,0,0,0,0,0,0,0,-1,1189,1576,0,0
-28,-552,0,0,0,0,0,0,0,0,0,-1,1196,1576,0,0
-21,-552,0,0,0,0,0,0,0,0,0,-1,1203,1576,0,0
-14,-552,0,0,0,0,0,0,0,0,0,-1,1210,1576,0,0
-7,-552,0,0,0,0,0,0,0,0,0,-1,1217,1576,0,0
0,-552,0,0,0,0,0,0,0,0,0,-1,1224,1576,0,0
7,-552,0,0,0,0,0,0,0,0,0,-1,1231,1576,0,0
14,-552,0,0,0,0,0,0,0,0,0,-1,1238,1576,0,0
21,-552,0,0,0,0,0,0,0,0,0,-1,1245,1576,0,0
28,-552,0,0,0,0,0,0,0,0,0,-1,1252,1576,0,0
35,-552,0,0,0,0,0,0,0,0,0,-1,1259,1576,0,0
42,-552,0,0,0,0,0,0,0,0,0,-1,1266,1576,0,0
49,-552,0,0,0,0,0,0,0,0,0,-1,1273,1576,0,0
56,-552,0,0,0,0,0,0,0,0,0,-1,1280,1576,0,0
63,-552,0,0,0,0,0,0,0,0,0,-1,1287,1576,0,0
70,-552,0,0,0,0,0,0,0,0,0,-1,1294,1576,0,0
77,-552,0,0,0,0,0,0,0,0,0,-1,1301,1576,0,0
84,-552,0,0,0,0,0,0,0,0,0,-1,1308,1576,0,0
91,-552,0,0,0,0,0,0,0,0,0,-1,1315,1576,0,0
98,-552,0,0,0,0,0,0,0,0,0,-1,1322,1576,0,0
105,-552,0,0,0,0,0,0,0,0,0,-1,1329,1576,0,0
112,-552,0,0,0,0,0,0,0,0,0,-1,1336,1576,0,0
119,-552,0,0,0,0,0,0,0,0,0,-1,1343,1576,0,0
126,-552,0,0,0,0,0,0,0,0,0,-1,1350,1576,0,0
133,-552,0,0,0,0,0,0,0,0,0,-1,1357,1576,0,0
140,-552,0,0,0,0,0,0,0,0,0,-1,1364,1576,0,0
147,-552,0,0,0,0,0,0,0,0,0,-1,1371,1576,0,0
154,-552,0,0,0,0,0,0,0,0,0,-1,1378,1576,0,0
161,-552,0,0,0,0,0,0,0,0,0,-1,1385,1576,0,0
168,-552,0,0,0,0,0,0,0,0,0,-1,1392,1576,0,0
175,-552,0,0,0,0,0,0,0,0,0,-1,1399,1576,0,0
182,-552,0,0,0,0,0,0,0,0,0,-1,1406,1576,0,0
189,-552,0,0,0,0,0,0,0,0,0,-1,1413,1576,0,0
196,-552,0,0,0,0,0,0,0,0,0,-1,1420,1576,0,0
203,-552,0,0,0,0,0,0,0,0,0,-1,1427,1576,0,0
210,-552,0,0,0,0,0,0,0,0,0,-1,1434,1576,0,0
217,-552,0,0,0,0,0,0,0,0,0,-1,1441,1576,0,0
224,-552,0,0,0,0,0,0,0,0,0,-1,1448,1576,0,0
231,-552,0,0,0,0,0,0,0,0,0,-1,1455,1576,0,0
238,-552,0,0,0,0,0,0,0,0,0,-1,1462,1576,0,0
245,-552,0,0,0,0,0,0,0,0,0,-1,1469,1576,0,0
252,-552,0,0,0,0,0,0,0,0,0,-1,1476,1576,0,0
259,-552,0,0,0,0,0,0,0,0,0,-1,1483,1576,0,0
266,-552,0,0,0,0,0,0,0,0,0,-1,1490,1576,0,0
273,-552,0,0,0,0,0,0,0,0,0,-1,1497,1576,0,0
280,-552,0,0,0,0,0,0,0,0,0,-1,1504,1576,0,0
287,-552,0,0,0,0,0,0,0,0,0,-1,1511,1576,0,0
294,-552,0,0,0,0,0,0,0,0,0,-1,1518,1576,0,0
301,-552,0,0,0,0,0,0,0,0,0,-1,1525,1576,0,0
308,-552,0,0,0,0,0,0,0,0,0,-1,1532,1576,0,0
315,-552,0,0,0,0,0,0,0,0,0,-1,1539,1576,0,0
322,-552,0,0,0,0,0,0,0,0,0,-1,1546,1576,0,0
329,-552,0,0,0,0,0,0,0,0,0,-1,1553,1576,0,0
336,-552,0,0,0,0,0,0,0,0,0,-1,1560,1576,0,0
343,-552,0,0,0,0,0,0,0,0,0,-1,1567,1576,0,0
350,-552,4.97876,4.09888,0,0,0,0,0,0,0,-1,1574,1576,4.97875,-4.09883
357,-552,5.18469,4.10706,0,0,0,0,0,0,0,-1,1581,1576,5.1847,-4.10702
364,-552,5.80872,5.07031,0,0,0,0,0,0,0,-1,1588,1576,5.80874,-5.07037
371,-552,7.10657,5.64783,0,0,0,0,0,0,0,-1,1595,1576,7.10651,-5.64786
378,-552,6.44446,4.91492,0,0,0,0,0,0,0,-1,1602,1576,6.44448,-4.91496
385,-552,12.8276,3.16504,0,0,0,0,0,0,0,-1,1609,1576,12.8276,-3.16503
392,-552,12.1301,4.3363,0,0,0,0,0,0,0,-1,1616,1576,12.1302,-4.33631
399,-552,11.3486,5.6012,0,0,0,0,0,0,0,-1,1623,1576,11.3486,-5.60115
406,-552,10.7863,6.42542,0,0,0,0,0,0,0,-1,1630,1576,10.7863,-6.42536
413,-552,8.39307,10.365,0,0,0,0,0,0,0,-1,1637,1576,8.3931,-10.365
420,-552,10.2306,12.7225,0,0,0,0,0,0,0,-1,1644,1576,10.2305,-12.7226
427,-552,9.73267,14.783,0,0,0,0,0,0,0,-1,1651,1576,9.73269,-14.783
434,-552,12.0377,20.1364,0,0,0,0,0,0,0,-1,1658,1576,12.0377,-20.1364
441,-552,12.4963,21.5277,0,0,0,0,0,0,0,-1,1665,1576,12.4964,-21.5277
448,-552,12.9141,21.5482,0,0,0,0,0,0,0,-1,1672,1576,12.9141,-21.5482
455,-552,13.3318,21.5687,0,0,0,0,0,0,0,-1,1679,1576,13.3317,-21.5687
462,-552,12.745,20.5947,0,0,0,0,0,0,0,-1,1686,1576,12.745,-20.5947
469,-552,17.7067,29.6902,0,0,0,0,0,0,0,-1,1693,1576,17.7067,-29.6902
476,-552,18.198,29.0273,0,0,0,0,0,0,0,-1,1700,1576,18.198,-29.0273
483,-552,18.3466,28.2186,0.00681966,0.012542,-0.00715978,0.0173911,0.00197054,-0.975487,0.0109963,0.0352109,1707,1576,18.3466,-28.2187
490,-552,18.2999,27.7389,0.00646736,0.00962707,-0.00596352,0.0142164,0.00187798,-0.914884,0.0089178,0.0155964,1714,1576,18.2999,-27.7389
497,-552,18.3818,27.243,0.00520577,0.00721568,-0.00452902,0.0108499,0.00157155,-0.894575,0.00677049,0.0234213,1721,1576,18.3819,-27.243
504,-552,18.3112,26.7415,0.00427678,0.0050746,-0.00346781,0.00816637,0.00118501,-0.842663,0.00509539,0.0246917,1728,1576,18.3112,-26.7414
511,-552,18.257,26.1959,0.00321107,0.00333512,-0.00244231,0.00571619,0.00083,-0.798093,0.00356647,0.0172958,1735,1576,18.2569,-26.196
518,-552,18.2496,25.6661,0.00189873,0.00158184,-0.00126843,0.00301857,0.000462,-0.723263,0.00187743,0.0151077,1742,1576,18.2496,-25.6662
525,-552,18.1948,25.1572,0.000484276,-1.49523e-06,-8.4003e-05,0.000498392,-1.56114e-05,-0.166488,0.000337585,0.0156476,1749,1576,18.1949,-25.1572
532,-552,18.1755,24.6294,-0.000962015,-0.0015101,0.00117625,-2.83062e-05,-0.0024438,0.670951,0.00161985,0.0150915,1756,1576,18.1755,-24.6294
539,-552,18.1722,24.1022,-0.0025168,-0.00298679,0.00255802,-0.000183001,-0.00532059,0.739594,0.00348766,0.0177829,1763,1576,18.1722,-24.1021
546,-552,18.1381,23.5787,-0.0043508,-0.00457966,0.00419585,-0.000267814,-0.00866264,0.771766,0.00568792,0.0215068,1770,1576,18.1381,-23.5787
553,-552,18.1477,22.9987,-0.00630368,-0.00614313,0.0059866,-0.000236265,-0.0122105,0.792102,0.00806276,0.0251304,1777,1576,18.1478,-22.9987
560,-552,18.1157,22.5609,-0.00827563,-0.0075804,0.00781972,-0.000100577,-0.0157555,0.807611,0.0104703,0.0428427,1784,1576,18.1157,-22.561
567,-552,18.1127,21.8032,0,0,0,0,0,0,0,-1,1791,1576,18.1126,-21.8032
574,-552,12.8835,14.8463,0,0,0,0,0,0,0,-1,1798,1576,12.8836,-14.8463
581,-552,9.74841,9.98645,0,0,0,0,0,0,0,-1,1805,1576,9.74847,-9.9864
588,-552,10.5619,9.34924,0,0,0,0,0,0,0,-1,1812,1576,10.5619,-9.34921
595,-552,5.36194,6.62744,0,0,0,0,0,0,0,-1,1819,1576,5.36193,-6.62742
602,-552,10.6863,4.31616,0,0,0,0,0,0,0,-1,1826,1576,10.6862,-4.31619
609,-552,12.146,3.18286,0,0,0,0,0,0,0,-1,1833,1576,12.1459,-3.18281
616,-552,13.8762,2.08167,0,0,0,0,0,0,0,-1,1840,1576,13.8763,-2.08167
623,-552,0,0,0,0,0,0,0,0,0,-1,1847,1576,0,0
630,-552,0,0,0,0,0,0,0,0,0,-1,1854,1576,0,0
637,-552,0,0,0,0,0,0,0,0,0,-1,1861,1576,0,0
644,-552,0,0,0,0,0,0,0,0,0,-1,1868,1576,0,0
651,-552,0,0,0,0,0,0,0,0,0,-1,1875,1576,0,0
658,-552,0,0,0,0,0,0,0,0,0,-1,1882,1576,0,0
665,-552,0,0,0,0,0,0,0,0,0,-1,1889,1576,0,0
672,-552,0,0,0,0,0,0,0,0,0,-1,1896,1576,0,0
679,-552,0,0,0,0,0,0,0,0,0,-1,1903,1576,0,0
686,-552,0,0,0,0,0,0,0,0,0,-1,1910,1576,0,0
693,-552,0,0,0,0,0,0,0,0,0,-1,1917,1576,0,0
700,-552,0,0,0,0,0,0,0,0,0,-1,1924,1576,0,0
707,-552,0,0,0,0,0,0,0,0,0,-1,1931,1576,0,0
714,-552,0,0,0,0,0,0,0,0,0,-1,1938,1576,0,0
721,-552,0,0,0,0,0,0,0,0,0,-1,1945,1576,0,0
728,-552,0,0,0,0,0,0,0,0,0,-1,1952,1576,0,0
735,-552,0,0,0,0,0,0,0,0,0,-1,1959,1576,0,0
742,-552,0,0,0,0,0,0,0,0,0,-1,1966,1576,0,0
749,-552,0,0,0,0,0,0,0,0,0,-1,1973,1576,0,0
756,-552,0,0,0,0,0,0,0,0,0,-1,1980,1576,0,0
763,-552,0,0,0,0,0,0,0,0,0,-1,1987,1576,0,0
770,-552,0,0,0,0,0,0,0,0,0,-1,1994,1576,0,0
777,-552,0,0,0,0,0,0,0,0,0,-1,2001,1576,0,0
784,-552,0,0,0,0,0,0,0,0,0,-1,2008,1576,0,0
791,-552,0,0,0,0,0,0,0,0,0,-1,2015,1576,0,0
798,-552,0,0,0,0,0,0,0,0,0,-1,2022,1576,0,0
805,-552,0,0,0,0,0,0,0,0,0,-1,2029,1576,0,0
812,-552,0,0,0,0,0,0,0,0,0,-1,2036,1576,0,0
-700,-559,0,0,0,0,0,0,0,0,0,-1,524,1583,0,0
-693,-559,0,0,0,0,0,0,0,0,0,-1,531,1583,0,0
-686,-559,0,0,0,0,0,0,0,0,0,-1,538,1583,0,0
-679,-559,0,0,0,0,0,0,0,0,0,-1,545,1583,0,0
-672,-559,0,0,0,0,0,0,0,0,0,-1,552,1583,0,0
-665,-559,0,0,0,0,0,0,0,0,0,-1,559,1583,0,0
-658,-559,0,0,0,0,0,0,0,0,0,-1,566,1583,0,0
-651,-559,0,0,0,0,0,0,0,0,0,-1,573,1583,0,0
-644,-559,0,0,0,0,0,0,0,0,0,-1,580,1583,0,0
-637,-559,0,0,0,0,0,0,0,0,0,-1,587,1583,0,0
-630,-559,0,0,0,0,0,0,0,0,0,-1,594,1583,0,0
-623,-559,0,0,0,0,0,0,0,0,0,-1,601,1583,0,0
-616,-559,0,0,0,0,0,0,0,0,0,-1,608,1583,0,0
-609,-559,0,0,0,0,0,0,0,0,0,-1,615,1583,0,0
-602,-559,0,0,0,0,0,0,0,0,0,-1,622,1583,0,0
-595,-559,0,0,0,0,0,0,0,0,0,-1,629,1583,0,0
-588,-559,0,0,0,0,0,0,0,0,0,-1,636,1583,0,0
-581,-559,0,0,0,0,0,0,0,0,0,-1,643,1583,0,0
-574,-559,0,0,0,0,0,0,0,0,0,-1,650,1583,0,0
-567,-559,0,0,0,0,0,0,0,0,0,-1,657,1583,0,0
-560,-559,0,0,0,0,0,0,0,0,0,-1,664,1583,0,0
-553,-559,0,0,0,0,0,0,0,0,0,-1,671,1583,0,0
-546,-559,0,0,0,0,0,0,0,0,0,-1,678,1583,0,0
-539,-559,0,0,0,0,0,0,0,0,0,-1,685,1583,0,0
-532,-559,0,0,0,0,0,0,0,0,0,-1,692,1583,0,0
-525,-559,0,0,0,0,0,0,0,0,0,-1,699,1583,0,0
-518,-559,0,0,0,0,0,0,0,0,0,-1,706,1583,0,0
-511,-559,0,0,0,0,0,0,0,0,0,-1,713,1583,0,0
-504,-559,0,0,0,0,0,0,0,0,0,-1,720,1583,0,0
-497,-559,0,0,0,0,0,0,0,0,0,-1,727,1583,0,0
-490,-559,-5.49835,4.47424,0,0,0,0,0,0,0,-1,734,1583,-5.49833,-4.4743
-483,-559,-5.24078,4.74561,0,0,0,0,0,0,0,-1,741,1583,-5.24079,-4.74563
-476,-559,-4.98022,4.99316,0,0,0,0,0,0,0,-1,748,1583,-4.98024,-4.99321
-469,-559,-4.6424,5.38062,0,0,0,0,0,0,0,-1,755,1583,-4.64237,-5.38058
-462,-559,-0.161865,6.49438,0,0,0,0,0,0,0,-1,762,1583,-0.161835,-6.49444
-455,-559,1.08826,7.02527,0,0,0,0,0,0,0,-1,769,1583,1.08823,-7.02529
-448,-559,-1.20264,17.3962,0,0,0,0,0,0,0,-1,776,1583,-1.20264,-17.3963
-441,-559,-0.147461,20.3022,0,0,0,0,0,0,0,-1,783,1583,-0.147475,-20.3022
-434,-559,-0.263611,21.0991,0,0,0,0,0,0,0,-1,790,1583,-0.263627,-21.0992
-427,-559,-0.836243,21.1564,0,0,0,0,0,0,0,-1,797,1583,-0.836245,-21.1563
-420,-559,-0.967041,21.949,-0.00207021,0.0057281,0.000784921,0.00580632,-0.00214843,1.47147,0.00475177,0.0467873,804,1583,-0.967055,-21.9489
-413,-559,-0.912903,22.5225,-0.00187387,0.00346042,0.000348974,0.00348316,-0.00189661,1.50575,0.00315071,0.0172677,811,1583,-0.912873,-22.5225
-406,-559,-0.917114,23.116,-0.0014534,0.00194958,0.000277865,0.00197212,-0.00147594,1.48986,0.00199759,0.00988272,818,1583,-0.917106,-23.1159
-399,-559,-0.925232,23.677,-0.00129915,3.48474e-06,2.37068e-05,3.9161e-06,-0.00129959,1.55261,0.000867699,0.0125239,825,1583,-0.925207,-23.677
-392,-559,-0.961121,24.2281,-0.000653248,0.000242393,0.000270184,0.000317585,-0.000728441,1.29936,0.000619257,0.018111,832,1583,-0.961136,-24.2282
-385,-559,-1.00134,24.7937,0.000391272,0.0013147,0.000794809,0.00177217,-6.61993e-05,1.04853,0.00120412,0.0181684,839,1583,-1.00131,-24.7937
-378,-559,-1.01117,25.3635,0.0013656,0.00283942,0.00138362,0.00367013,0.000534891,1.03009,0.00228938,0.015288,846,1583,-1.01115,-25.3635
-371,-559,-1.03131,25.9408,0.00229179,0.00455227,0.00191172,0.00564286,0.0012012,1.05237,0.0034323,0.0212359,853,1583,-1.03132,-25.9408
-364,-559,-1.0434,26.4641,0.00336287,0.00680573,0.00257311,0.00818013,0.00198847,1.08021,0.00492624,0.0187338,860,1583,-1.04338,-26.4641
-357,-559,-1.05322,26.9868,0.0045808,0.00947999,0.0033744,0.0112002,0.00286061,1.09936,0.00671938,0.0116255,867,1583,-1.05322,-26.9868
-350,-559,-1.06567,27.4904,0.00601318,0.0124992,0.00433642,0.0146711,0.00384123,1.10646,0.00878487,0.00955559,874,1583,-1.06567,-27.4904
-343,-559,-1.07697,28.0288,0.00755885,0.0159783,0.00551869,0.0187096,0.00482755,1.11122,0.0112157,0.010469,881,1583,-1.07694,-28.0288
-336,-559,-1.14197,28.5193,0.00907932,0.0199977,0.00687326,0.023316,0.00576101,1.12102,0.0140238,0.0250584,888,1583,-1.14199,-28.5193
-329,-559,-0.97644,29.3219,0.0108676,0.0242189,0.00848241,0.0283375,0.00674901,1.11878,0.0170921,0.0430854,895,1583,-0.976442,-29.3219
-322,-559,-0.516602,30.239,0,0,0,0,0,0,0,-1,902,1583,-0.516618,-30.2391
-315,-559,-0.659607,29.1698,0,0,0,0,0,0,0,-1,909,1583,-0.659577,-29.1698
-308,-559,-0.755493,30.4624,0,0,0,0,0,0,0,-1,916,1583,-0.755509,-30.4625
-301,-559,-1.22174,31.0372,0,0,0,0,0,0,0,-1,923,1583,-1.22176,-31.0372
-294,-559,0.945129,18.5165,0,0,0,0,0,0,0,-1,930,1583,0.945117,-18.5165
-287,-559,-0.11792,15.4912,0,0,0,0,0,0,0,-1,937,1583,-0.117939,-15.4912
-280,-559,0.191467,13.5093,0,0,0,0,0,0,0,-1,944,1583,0.191441,-13.5093
-273,-559,2.12836,10.3059,0,0,0,0,0,0,0,-1,951,1583,2.12839,-10.3059
-266,-559,-0.597046,6.68933,0,0,0,0,0,0,0,-1,958,1583,-0.597031,-6.68937
-259,-559,-7.00311,8.62756,0,0,0,0,0,0,0,-1,965,1583,-7.00312,-8.6275
-252,-559,-9.4483,2.87805,0,0,0,0,0,0,0,-1,972,1583,-9.44829,-2.87805
-245,-559,-4.80804,7.1803,0,0,0,0,0,0,0,-1,979,1583,-4.80804,-7.18027
-238,-559,-8.45764,2.54858,0,0,0,0,0,0,0,-1,986,1583,-8.45763,-2.54862
-231,-559,-5.86914,4.34021,0,0,0,0,0,0,0,-1,993,1583,-5.86914,-4.34019
-224,-559,-3.30505,6.22864,0,0,0,0,0,0,0,-1,1000,1583,-3.30505,-6.22859
-217,-559,0,0,0,0,0,0,0,0,0,-1,1007,1583,0,0
-210,-559,0,0,0,0,0,0,0,0,0,-1,1014,1583,0,0
-203,-559,0,0,0,0,0,0,0,0,0,-1,1021,1583,0,0
-196,-559,0,0,0,0,0,0,0,0,0,-1,1028,1583,0,0
-189,-559,0,0,0,0,0,0,0,0,0,-1,1035,1583,0,0
-182,-559,0,0,0,0,0,0,0,0,0,-1,1042,1583,0,0
-175,-559,0,0,0,0,0,0,0,0,0,-1,1049,1583,0,0
-168,-559,0,0,0,0,0,0,0,0,0,-1,1056,1583,0,0
-161,-559,0,0,0,0,0,0,0,0,0,-1,1063,1583,0,0
-154,-559,0,0,0,0,0,0,0,0,0,-1,1070,1583,0,0
-147,-559,0,0,0,0,0,0,0,0,0,-1,1077,1583,0,0
-140,-559,0,0,0,0,0,0,0,0,0,-1,1084,1583,0,0
-133,-559,0,0,0,0,0,0,0,0,0,-1,1091,1583,0,0
-126,-559,0,0,0,0,0,0,0,0,0,-1,1098,1583,0,0
-119,-559,0,0,0,0,0,0,0,0,0,-1,1105,1583,0,0
-112,-559,0,0,0,0,0,0,0,0,0,-1,1112,1583,0,0
-105,-559,0,0,0,0,0,0,0,0,0,-1,1119,1583,0,0
-98,-559,0,0,0,0,0,0,0,0,0,-1,1126,1583,0,0
-91,-559,0,0,0,0,0,0,0,0,0,-1,1133,1583,0,0
-84,-559,0,0,0,0,0,0,0,0,0,-1,1140,1583,0,0
-77,-559,0,0,0,0,0,0,0,0,0,-1,1147,1583,0,0
-70,-559,0,0,0,0,0,0,0,0,0,-1,1154,1583,0,0
-63,-559,0,0,0,0,0,0,0,0,0,-1,1161,1583,0,0
-56,-559,0,0,0,0,0,0,0,0,0,-1,1168,1583,0,0
-49,-559,0,0,0,0,0,0,0,0,0,-1,1175,1583,0,0
-42,-559,0,0,0,0,0,0,0,0,0,-1,1182,1583,0,0
-35,-559,0,0,0,0,0,0,0,0,0,-1,1189,1583,0,0
-28,-559,0,0,0,0,0,0,0,0,0,-1,1196,1583,0,0
-21,-559,0,0,0,0,0,0,0,0,0,-1,1203,1583,0,0
-14,-559,0,0,0,0,0,0,0,0,0,-1,1210,1583,0,0
-7,-559,0,0,0,0,0,0,0,0,0,-1,1217,1583,0,0
0,-559,0,0,0,0,0,0,0,0,0,-1,1224,1583,0,0
7,-559,0,0,0,0,0,0,0,0,0,-1,1231,1583,0,0
14,-559,0,0,0,0,0,0,0,0,0,-1,1238,1583,0,0
21,-559,0,0,0,0,0,0,0,0,0,-1,1245,1583,0,0
28,-559,0,0,0,0,0,0,0,0,0,-1,1252,1583,0,0
35,-559,0,0,0,0,0,0,0,0,0,-1,1259,1583,0,0
42,-559,0,0,0,0,0,0,0,0,0,-1,1266,1583,0,0
49,-559,0,0,0,0,0,0,0,0,0,-1,1273,1583,0,0
56,-559,0,0,0,0,0,0,0,0,0,-1,1280,1583,0,0
63,-559,0,0,0,0,0,0,0,0,0,-1,1287,1583,0,0
70,-559,0,0,0,0,0,0,0,0,0,-1,1294,1583,0,0
77,-559,0,0,0,0,0,0,0,0,0,-1,1301,1583,0,0
84,-559,0,0,0,0,0,0,0,0,0,-1,1308,1583,0,0
91,-559,0,0,0,0,0,0,0,0,0,-1,1315,1583,0,0
98,-559,0,0,0,0,0,0,0,0,0,-1,1322,1583,0,0
105,-559,0,0,0,0,0,0,0,0,0,-1,1329,1583,0,0
112,-559,0,0,0,0,0,0,0,0,0,-1,1336,1583,0,0
119,-559,0,0,0,0,0,0,0,0,0,-1,1343,1583,0,0
126,-559,0,0,0,0,0,0,0,0,0,-1,1350,1583,0,0
133,-559,0,0,0,0,0,0,0,0,0,-1,1357,1583,0,0
140,-559,0,0,0,0,0,0,0,0,0,-1,1364,1583,0,0
147,-559,0,0,0,0,0,0,0,0,0,-1,1371,1583,0,0
154,-559,0,0,0,0,0,0,0,0,0,-1,1378,1583,0,0
161,-559,0,0,0,0,0,0,0,0,0,-1,1385,1583,0,0
168,-559,0,0,0,0,0,0,0,0,0,-1,1392,1583,0,0
175,-559,0,0,0,0,0,0,0,0,0,-1,1399,1583,0,0
182,-559,0,0,0,0,0,0,0,0,0,-1,1406,1583,0,0
189,-559,0,0,0,0,0,0,0,0,0,-1,1413,1583,0,0
196,-559,0,0,0,0,0,0,0,0,0,-1,1420,1583,0,0
203,-559,0,0,0,0,0,0,0,0,0,-1,1427,1583,0,0
210,-559,0,0,0,0,0,0,0,0,0,-1,1434,1583,0,0
217,-559,0,0,0,0,0,0,0,0,0,-1,1441,1583,0,0
224,-559,0,0,0,0,0,0,0,0,0,-1,1448,1583,0,0
231,-559,0,0,0,0,0,0,0,0,0,-1,1455,1583,0,0
238,-559,0,0,0,0,0,0,0,0,0,-1,1462,1583,0,0
245,-559,0,0,0,0,0,0,0,0,0,-1,1469,1583,0,0
252,-559,0,0,0,0,0,0,0,0,0,-1,1476,1583,0,0
259,-559,0,0,0,0,0,0,0,0,0,-1,1483,1583,0,0
266,-559,0,0,0,0,0,0,0,0,0,-1,1490,1583,0,0
273,-559,0,0,0,0,0,0,0,0,0,-1,1497,1583,0,0
280,-559,0,0,0,0,0,0,0,0,0,-1,1504,1583,0,0
287,-559,0,0,0,0,0,0,0,0,0,-1,1511,1583,0,0
294,-559,0,0,0,0,0,0,0,0,0,-1,1518,1583,0,0
301,-559,0,0,0,0,0,0,0,0,0,-1,1525,1583,0,0
308,-559,0,0,0,0,0,0,0,0,0,-1,1532,1583,0,0
315,-559,0,0,0,0,0,0,0,0,0,-1,1539,1583,0,0
322,-559,0,0,0,0,0,0,0,0,0,-1,1546,1583,0,0
329,-559,0,0,0,0,0,0,0,0,0,-1,1553,1583,0,0
336,-559,5.97668,3.09827,0,0,0,0,0,0,0,-1,1560,1583,5.97667,-3.09824
343,-559,5.44824,2.88696,0,0,0,0,0,0,0,-1,1567,1583,5.44819,-2.88693
350,-559,4.69775,3.27051,0,0,0,0,0,0,0,-1,1574,1583,4.69771,-3.27048
357,-559,3.88025,3.60999,0,0,0,0,0,0,0,-1,1581,1583,3.88027,-3.60998
364,-559,5.00928,5.32605,0,0,0,0,0,0,0,-1,1588,1583,5.00928,-5.32607
371,-559,1.84436,2.52441,0,0,0,0,0,0,0,-1,1595,1583,1.84441,-2.52447
378,-559,6.34753,1.53137,0,0,0,0,0,0,0,-1,1602,1583,6.34752,-1.53139
385,-559,6.95911,1.48181,0,0,0,0,0,0,0,-1,1609,1583,6.95916,-1.48175
392,-559,11.6949,4.77734,0,0,0,0,0,0,0,-1,1616,1583,11.6949,-4.77731
399,-559,11.1104,5.56909,0,0,0,0,0,0,0,-1,1623,1583,11.1103,-5.56905
406,-559,10.3385,6.48657,0,0,0,0,0,0,0,-1,1630,1583,10.3385,-6.48661
413,-559,9.76147,6.97571,0,0,0,0,0,0,0,-1,1637,1583,9.76143,-6.97574
420,-559,7.77124,10.5851,0,0,0,0,0,0,0,-1,1644,1583,7.77128,-10.585
427,-559,10.1022,12.5565,0,0,0,0,0,0,0,-1,1651,1583,10.1021,-12.5565
434,-559,9.62769,14.6309,0,0,0,0,0,0,0,-1,1658,1583,9.62771,-14.6309
441,-559,12.6149,21.3678,0,0,0,0,0,0,0,-1,1665,1583,12.6149,-21.3678
448,-559,13.7046,22.6677,0,0,0,0,0,0,0,-1,1672,1583,13.7046,-22.6677
455,-559,13.9427,23.0509,0,0,0,0,0,0,0,-1,1679,1583,13.9427,-23.0509
462,-559,17.4645,30.3761,0,0,0,0,0,0,0,-1,1686,1583,17.4644,-30.3761
469,-559,17.5874,29.5336,0.00388076,0.0164695,-0.00678896,0.0194331,0.000917212,-1.15921,0.0126607,0.0489958,1693,1583,17.5874,-29.5336
476,-559,17.7294,28.854,0.00458608,0.0131743,-0.00612684,0.016362,0.00139839,-1.09105,0.0104731,0.0218849,1700,1583,17.7293,-28.854
483,-559,17.8007,28.2499,0.00528716,0.0101706,-0.00563515,0.0138703,0.00158747,-0.989838,0.00876574,0.0141476,1707,1583,17.8007,-28.2498
490,-559,17.7761,27.7371,0.00501442,0.00758251,-0.00461076,0.0110847,0.00151225,-0.921201,0.00694084,0.0159259,1714,1583,17.7761,-27.7371
497,-559,17.7947,27.2559,0.00397024,0.00542162,-0.00338796,0.00816074,0.00123111,-0.890902,0.00508009,0.0193768,1721,1583,17.7947,-27.2558
504,-559,17.7458,26.7474,0.00301728,0.00339566,-0.00236929,0.0055833,0.000829635,-0.82524,0.00347879,0.023825,1728,1583,17.7459,-26.7475
511,-559,17.7314,26.2087,0.00179863,0.00166762,-0.00124206,0.00297691,0.000489341,-0.759052,0.00184327,0.0198256,1735,1583,17.7314,-26.2088
518,-559,17.7419,25.6855,0.000474823,-5.18778e-05,-7.47018e-05,0.000485213,-6.22678e-05,-0.1382,0.000346103,0.0136016,1742,1583,17.7419,-25.6855
525,-559,17.7013,25.1687,-0.00098797,-0.00164885,0.00114813,-0.000123677,-0.00251315,0.645281,0.00163576,0.0134749,1749,1583,17.7013,-25.1687
532,-559,17.6698,24.6503,-0.00255957,-0.00324273,0.00251432,-0.000363733,-0.00543856,0.717884,0.00351075,0.0143962,1756,1583,17.6698,-24.6503
539,-559,17.6577,24.1331,-0.00438105,-0.00488872,0.00410387,-0.000523168,-0.0087466,0.754511,0.00566473,0.0184009,1763,1583,17.6577,-24.1331
546,-559,17.6035,23.5941,-0.00663242,-0.00671192,0.00606204,-0.000609998,-0.0127343,0.78212,0.00829371,0.0167963,1770,1583,17.6035,-23.5941
553,-559,17.6635,23.0334,-0.009181,-0.00857177,0.00830204,-0.000568761,-0.017184,0.803736,0.0112712,0.021103,1777,1583,17.6634,-23.0334
560,-559,17.6337,22.6563,-0.0119896,-0.0103984,0.0107339,-0.00043068,-0.0219574,0.82239,0.0144968,0.0398246,1784,1583,17.6336,-22.6562
567,-559,17.532,22.1702,0,0,0,0,0,0,0,-1,1791,1583,17.532,-22.1702
574,-559,10.5109,10.7317,0,0,0,0,0,0,0,-1,1798,1583,10.5108,-10.7317
581,-559,5.97095,5.96179,0,0,0,0,0,0,0,-1,1805,1583,5.97093,-5.96181
588,-559,5.79102,5.89954,0,0,0,0,0,0,0,-1,1812,1583,5.79098,-5.89949
595,-559,5.79089,6.24231,0,0,0,0,0,0,0,-1,1819,1583,5.7909,-6.24227
602,-559,12.478,2.35669,0,0,0,0,0,0,0,-1,1826,1583,12.4781,-2.35675
609,-559,14.0479,1.22681,0,0,0,0,0,0,0,-1,1833,1583,14.0479,-1.22681
616,-559,0,0,0,0,0,0,0,0,0,-1,1840,1583,0,0
623,-559,0,0,0,0,0,0,0,0,0,-1,1847,1583,0,0
630,-559,0,0,0,0,0,0,0,0,0,-1,1854,1583,0,0
637,-559,0,0,0,0,0,0,0,0,0,-1,1861,1583,0,0
644,-559,0,0,0,0,0,0,0,0,0,-1,1868,1583,0,0
651,-559,0,0,0,0,0,0,0,0,0,-1,1875,1583,0,0
658,-559,0,0,0,0,0,0,0,0,0,-1,1882,1583,0,0
665,-559,0,0,0,0,0,0,0,0,0,-1,1889,1583,0,0
672,-559,0,0,0,0,0,0,0,0,0,-1,1896,1583,0,0
679,-559,0,0,0,0,0,0,0,0,0,-1,1903,1583,0,0
686,-559,0,0,0,0,0,0,0,0,0,-1,1910,1583,0,0
693,-559,0,0,0,0,0,0,0,0,0,-1,1917,1583,0,0
700,-559,0,0,0,0,0,0,0,0,0,-1,1924,1583,0,0
707,-559,0,0,0,0,0,0,0,0,0,-1,1931,1583,0,0
714,-559,0,0,0,0,0,0,0,0,0,-1,1938,1583,0,0
721,-559,0,0,0,0,0,0,0,0,0,-1,1945,1583,0,0
728,-559,0,0,0,0,0,0,0,0,0,-1,1952,1583,0,0
735,-559,0,0,0,0,0,0,0,0,0,-1,1959,1583,0,0
742,-559,0,0,0,0,0,0,0,0,0,-1,1966,1583,0,0
749,-559,0,0,0,0,0,0,0,0,0,-1,1973,1583,0,0
756,-559,0,0,0,0,0,0,0,0,0,-1,1980,1583,0,0
763,-559,0,0,0,0,0,0,0,0,0,-1,1987,1583,0,0
770,-559,0,0,0,0,0,0,0,0,0,-1,1994,1583,0,0
777,-559,0,0,0,0,0,0,0,0,0,-1,2001,1583,0,0
784,-559,0,0,0,0,0,0,0,0,0,-1,2008,1583,0,0
791,-559,0,0,0,0,0,0,0,0,0,-1,2015,1583,0,0
798,-559,0,0,0,0,0,0,0,0,0,-1,2022,1583,0,0
805,-559,0,0,0,0,0,0,0,0,0,-1,2029,1583,0,0
812,-559,0,0,0,0,0,0,0,0,0,-1,2036,1583,0,0
-700,-566,0,0,0,0,0,0,0,0,0,-1,524,1590,0,0
-693,-566,0,0,0,0,0,0,0,0,0,-1,531,1590,0,0
-686,-566,0,0,0,0,0,0,0,0,0,-1,538,1590,0,0
-679,-566,0,0,0,0,0,0,0,0,0,-1,545,1590,0,0
-672,-566,0,0,0,0,0,0,0,0,0,-1,552,1590,0,0
-665,-566,0,0,0,0,0,0,0,0,0,-1,559,1590,0,0
-658,-566,0,0,0,0,0,0,0,0,0,-1,566,1590,0,0
-651,-566,0,0,0,0,0,0,0,0,0,-1,573,1590,0,0
-644,-566,0,0,0,0,0,0,0,0,0,-1,580,1590,0,0
-637,-566,0,0,0,0,0,0,0,0,0,-1,587,1590,0,0
-630,-566,0,0,0,0,0,0,0,0,0,-1,594,1590,0,0
-623,-566,0,0,0,0,0,0,0,0,0,-1,601,1590,0,0
-616,-566,0,0,0,0,0,0,0,0,0,-1,608,1590,0,0
-609,-566,0,0,0,0,0,0,0,0,0,-1,615,1590,0,0
-602,-566,0,0,0,0,0,0,0,0,0,-1,622,1590,0,0
-595,-566,0,0,0,0,0,0,0,0,0,-1,629,1590,0,0
-588,-566,0,0,0,0,0,0,0,0,0,-1,636,1590,0,0
-581,-566,0,0,0,0,0,0,0,0,0,-1,643,1590,0,0
-574,-566,0,0,0,0,0,0,0,0,0,-1,650,1590,0,0
-567,-566,0,0,0,0,0,0,0,0,0,-1,657,1590,0,0
-560,-566,0,0,0,0,0,0,0,0,0,-1,664,1590,0,0
-553,-566,0,0,0,0,0,0,0,0,0,-1,671,1590,0,0
-546,-566,0,0,0,0,0,0,0,0,0,-1,678,1590,0,0
-539,-566,0,0,0,0,0,0,0,0,0,-1,685,1590,0,0
-532,-566,0,0,0,0,0,0,0,0,0,-1,692,1590,0,0
-525,-566,0,0,0,0,0,0,0,0,0,-1,699,1590,0,0
-518,-566,0,0,0,0,0,0,0,0,0,-1,706,1590,0,0
-511,-566,0,0,0,0,0,0,0,0,0,-1,713,1590,0,0
-504,-566,0,0,0,0,0,0,0,0,0,-1,720,1590,0,0
-497,-566,0,0,0,0,0,0,0,0,0,-1,727,1590,0,0
-490,-566,0,0,0,0,0,0,0,0,0,-1,734,1590,0,0
-483,-566,-7.17084,2.78613,0,0,0,0,0,0,0,-1,741,1590,-7.17083,-2.78618
-476,-566,-7.13971,2.87183,0,0,0,0,0,0,0,-1,748,1590,-7.13971,-2.87184
-469,-566,-6.43829,3.2998,0,0,0,0,0,0,0,-1,755,1590,-6.43829,-3.2998
-462,-566,-0.459106,3.89343,0,0,0,0,0,0,0,-1,762,1590,-0.459095,-3.89341
-455,-566,0.280212,4.74023,0,0,0,0,0,0,0,-1,769,1590,0.280207,-4.74023
-448,-566,0.436951,5.51306,0,0,0,0,0,0,0,-1,776,1590,0.436971,-5.51301
-441,-566,-0.440735,12.4063,0,0,0,0,0,0,0,-1,783,1590,-0.440753,-12.4062
-434,-566,0.372192,21.2629,0,0,0,0,0,0,0,-1,790,1590,0.372179,-21.2629
-427,-566,-0.204834,21.8718,0,0,0,0,0,0,0,-1,797,1590,-0.204808,-21.8718
-420,-566,-0.482483,21.8979,0,0,0,0,0,0,0,-1,804,1590,-0.48251,-21.898
-413,-566,-0.354858,22.5605,-0.00264708,0.00384651,0.000416428,0.00387311,-0.00267367,1.50702,0.00380087,0.0294262,811,1590,-0.354885,-22.5605
-406,-566,-0.363647,23.139,-0.00228228,0.00180843,0.000144814,0.00181355,-0.0022874,1.53545,0.00237295,0.0126854,818,1590,-0.363647,-23.139
-399,-566,-0.391541,23.7021,-0.00219828,-0.000628779,-0.000299012,-0.000573743,-0.00225332,-1.38877,0.00135217,0.0105111,825,1590,-0.391554,-23.7022
-392,-566,-0.413879,24.2518,-0.00160561,-0.000671422,-0.000151906,-0.000647342,-0.00162969,-1.41358,0.000947506,0.0146298,832,1590,-0.413888,-24.2519
-385,-566,-0.430786,24.83,-0.000617986,-0.000113838,0.000263839,-1.01211e-06,-0.000730812,1.1667,0.000486871,0.0174724,839,1590,-0.430796,-24.8299
-378,-566,-0.468994,25.3926,0.000263169,0.00105713,0.000744325,0.00150372,-0.000183421,1.03038,0.00106888,0.0162117,846,1590,-0.468982,-25.3926
-371,-566,-0.484131,25.9485,0.00109323,0.00236398,0.00115379,0.00304577,0.000411442,1.03708,0.00190821,0.0210575,853,1590,-0.484111,-25.9485
-364,-566,-0.495483,26.4749,0.00203894,0.00411104,0.00168509,0.0050531,0.00109688,1.06103,0.00306916,0.0214673,860,1590,-0.495485,-26.4748
-357,-566,-0.52301,26.9827,0.00311758,0.00617826,0.00234625,0.00744914,0.0018467,1.07438,0.00447927,0.0181131,867,1590,-0.523001,-26.9827
-350,-566,-0.524109,27.5099,0.00439582,0.0084558,0.00313461,0.0101603,0.00269128,1.07274,0.00607842,0.0202771,874,1590,-0.524082,-27.5099
-343,-566,-0.515198,28.0383,0.0057564,0.0110852,0.00412059,0.0133278,0.00351384,1.07239,0.00797622,0.0234532,881,1590,-0.51521,-28.0384
-336,-566,-0.675293,28.5702,0.00708399,0.0141232,0.00526785,0.016939,0.00426814,1.0799,0.0101729,0.0284055,888,1590,-0.675286,-28.5702
-329,-566,-0.564819,29.0082,0.00857356,0.017234,0.00653942,0.020747,0.00506065,1.07784,0.0124909,0.0254715,895,1590,-0.564799,-29.0082
-322,-566,-0.482117,29.7228,0.0101178,0.0207081,0.00803266,0.0250339,0.00579205,1.07681,0.0151327,0.0327519,902,1590,-0.482089,-29.7227
-315,-566,-0.117737,30.4291,0,0,0,0,0,0,0,-1,909,1590,-0.117743,-30.4291
-308,-566,-0.127258,29.7607,0,0,0,0,0,0,0,-1,916,1590,-0.12725,-29.7608
-301,-566,0.424011,30.6545,0,0,0,0,0,0,0,-1,923,1590,0.424036,-30.6546
-294,-566,0.741455,25.3229,0,0,0,0,0,0,0,-1,930,1590,0.741475,-25.3229
-287,-566,1.25391,23.4589,0,0,0,0,0,0,0,-1,937,1590,1.2539,-23.4589
-280,-566,1.59406,17.8762,0,0,0,0,0,0,0,-1,944,1590,1.59405,-17.8762
-273,-566,0.49762,11.2427,0,0,0,0,0,0,0,-1,951,1590,0.497591,-11.2426
-266,-566,0.392151,6.90295,0,0,0,0,0,0,0,-1,958,1590,0.392151,-6.90294
-259,-566,0.343628,6.47437,0,0,0,0,0,0,0,-1,965,1590,0.34363,-6.47438
-252,-566,-7.68311,1.01343,0,0,0,0,0,0,0,-1,972,1590,-7.68308,-1.01348
-245,-566,-11.1835,1.97522,0,0,0,0,0,0,0,-1,979,1590,-11.1835,-1.97527
-238,-566,-10.4883,2.40491,0,0,0,0,0,0,0,-1,986,1590,-10.4883,-2.40487
-231,-566,-7.41827,4.22803,0,0,0,0,0,0,0,-1,993,1590,-7.41827,-4.22803
-224,-566,-4.67188,6.30859,0,0,0,0,0,0,0,-1,1000,1590,-4.67185,-6.30853
-217,-566,-2.82867,7.52527,0,0,0,0,0,0,0,-1,1007,1590,-2.82869,-7.52531
-210,-566,-1.03436,8.67737,0,0,0,0,0,0,0,-1,1014,1590,-1.03439,-8.67733
-203,-566,0,0,0,0,0,0,0,0,0,-1,1021,1590,0,0
-196,-566,0,0,0,0,0,0,0,0,0,-1,1028,1590,0,0
-189,-566,0,0,0,0,0,0,0,0,0,-1,1035,1590,0,0
-182,-566,0,0,0,0,0,0,0,0,0,-1,1042,1590,0,0
-175,-566,0,0,0,0,0,0,0,0,0,-1,1049,1590,0,0
-168,-566,0,0,0,0,0,0,0,0,0,-1,1056,1590,0,0
-161,-566,0,0,0,0,0,0,0,0,0,-1,1063,1590,0,0
-154,-566,0,0,0,0,0,0,0,0,0,-1,1070,1590,0,0
-147,-566,0,0,0,0,0,0,0,0,0,-1,1077,1590,0,0
-140,-566,0,0,0,0,0,0,0,0,0,-1,1084,1590,0,0
-133,-566,0,0,0,0,0,0,0,0,0,-1,1091,1590,0,0
-126,-566,0,0,0,0,0,0,0,0,0,-1,1098,1590,0,0
-119,-566,0,0,0,0,0,0,0,0,0,-1,1105,1590,0,0
-112,-566,0,0,0,0,0,0,0,0,0,-1,1112,1590,0,0
-105,-566,0,0,0,0,0,0,0,0,0,-1,1119,1590,0,0
-98,-566,0,0,0,0,0,0,0,0,0,-1,1126,1590,0,0
-91,-566,0,0,0,0,0,0,0,0,0,-1,1133,1590,0,0
-84,-566,0,0,0,0,0,0,0,0,0,-1,1140,1590,0,0
-77,-566,0,0,0,0,0,0,0,0,0,-1,1147,1590,0,0
-70,-566,0,0,0,0,0,0,0,0,0,-1,1154,1590,0,0
-63,-566,0,0,0,0,0,0,0,0,0,-1,1161,1590,0,0
-56,-566,0,0,0,0,0,0,0,0,0,-1,1168,1590,0,0
-49,-566,0,0,0,0,0,0,0,0,0,-1,1175,1590,0,0
-42,-566,0,0,0,0,0,0,0,0,0,-1,1182,1590,0,0
-35,-566,0,0,0,0,0,0,0,0,0,-1,1189,1590,0,0
-28,-566,0,0,0,0,0,0,0,0,0,-1,1196,1590,0,0
-21,-566,0,0,0,0,0,0,0,0,0,-1,1203,1590,0,0
-14,-566,0,0,0,0,0,0,0,0,0,-1,1210,1590,0,0
-7,-566,0,0,0,0,0,0,0,0,0,-1,1217,1590,0,0
0,-566,0,0,0,0,0,0,0,0,0,-1,1224,1590,0,0
7,-566,0,0,0,0,0,0,0,0,0,-1,1231,1590,0,0
14,-566,0,0,0,0,0,0,0,0,0,-1,1238,1590,0,0
21,-566,0,0,0,0,0,0,0,0,0,-1,1245,1590,0,0
28,-566,0,0,0,0,0,0,0,0,0,-1,1252,1590,0,0
35,-566,0,0,0,0,0,0,0,0,0,-1,1259,1590,0,0
42,-566,0,0,0,0,0,0,0,0,0,-1,1266,1590,0,0
49,-566,0,0,0,0,0,0,0,0,0,-1,1273,1590,0,0
56,-566,0,0,0,0,0,0,0,0,0,-1,1280,1590,0,0
63,-566,0,0,0,0,0,0,0,0,0,-1,1287,1590,0,0
70,-566,0,0,0,0,0,0,0,0,0,-1,1294,1590,0,0
77,-566,0,0,0,0,0,0,0,0,0,-1,1301,1590,0,0
84,-566,0,0,0,0,0,0,0,0,0,-1,1308,1590,0,0
91,-566,0,0,0,0,0,0,0,0,0,-1,1315,1590,0,0
98,-566,0,0,0,0,0,0,0,0,0,-1,1322,1590,0,0
105,-566,0,0,0,0,0,0,0,0,0,-1,1329,1590,0,0
112,-566,0,0,0,0,0,0,0,0,0,-1,1336,1590,0,0
119,-566,0,0,0,0,0,0,0,0,0,-1,1343,1590,0,0
126,-566,0,0,0,0,0,0,0,0,0,-1,1350,1590,0,0
133,-566,0,0,0,0,0,0,0,0,0,-1,1357,1590,0,0
140,-566,0,0,0,0,0,0,0,0,0,-1,1364,1590,0,0
147,-566,0,0,0,0,0,0,0,0,0,-1,1371,1590,0,0
154,-566,0,0,0,0,0,0,0,0,0,-1,1378,1590,0,0
161,-566,0,0,0,0,0,0,0,0,0,-1,1385,1590,0,0
168,-566,0,0,0,0,0,0,0,0,0,-1,1392,1590,0,0
175,-566,0,0,0,0,0,0,0,0,0,-1,1399,1590,0,0
182,-566,0,0,0,0,0,0,0,0,0,-1,1406,1590,0,0
189,-566,0,0,0,0,0,0,0,0,0,-1,1413,1590,0,0
196,-566,0,0,0,0,0,0,0,0,0,-1,1420,1590,0,0
203,-566,0,0,0,0,0,0,0,0,0,-1,1427,1590,0,0
210,-566,0,0,0,0,0,0,0,0,0,-1,1434,1590,0,0
217,-566,0,0,0,0,0,0,0,0,0,-1,1441,1590,0,0
224,-566,0,0,0,0,0,0,0,0,0,-1,1448,1590,0,0
231,-566,0,0,0,0,0,0,0,0,0,-1,1455,1590,0,0
238,-566,0,0,0,0,0,0,0,0,0,-1,1462,1590,0,0
245,-566,0,0,0,0,0,0,0,0,0,-1,1469,1590,0,0
252,-566,0,0,0,0,0,0,0,0,0,-1,1476,1590,0,0
259,-566,0,0,0,0,0,0,0,0,0,-1,1483,1590,0,0
266,-566,0,0,0,0,0,0,0,0,0,-1,1490,1590,0,0
273,-566,0,0,0,0,0,0,0,0,0,-1,1497,1590,0,0
280,-566,0,0,0,0,0,0,0,0,0,-1,1504,1590,0,0
287,-566,0,0,0,0,0,0,0,0,0,-1,1511,1590,0,0
294,-566,0,0,0,0,0,0,0,0,0,-1,1518,1590,0,0
301,-566,0,0,0,0,0,0,0,0,0,-1,1525,1590,0,0
308,-566,0,0,0,0,0,0,0,0,0,-1,1532,1590,0,0
315,-566,0,0,0,0,0,0,0,0,0,-1,1539,1590,0,0
322,-566,6.07983,4.44873,0,0,0,0,0,0,0,-1,1546,1590,6.07983,-4.44873
329,-566,5.77026,3.47534,0,0,0,0,0,0,0,-1,1553,1590,5.77026,-3.47535
336,-566,5.41138,2.62915,0,0,0,0,0,0,0,-1,1560,1590,5.41138,-2.62909
343,-566,4.81873,1.79089,0,0,0,0,0,0,0,-1,1567,1590,4.81878,-1.79095
350,-566,4.41663,2.44214,0,0,0,0,0,0,0,-1,1574,1590,4.41666,-2.44214
357,-566,6.34058,5.18579,0,0,0,0,0,0,0,-1,1581,1590,6.34059,-5.1858
364,-566,6.06262,4.20251,0,0,0,0,0,0,0,-1,1588,1590,6.06259,-4.20246
371,-566,5.78455,3.21912,0,0,0,0,0,0,0,-1,1595,1590,5.7846,-3.21912
378,-566,5.7439,0.695557,0,0,0,0,0,0,0,-1,1602,1590,5.74392,-0.695531
385,-566,5.67615,-0.573975,0,0,0,0,0,0,0,-1,1609,1590,5.67612,0.573956
392,-566,5.78638,1.82434,0,0,0,0,0,0,0,-1,1616,1590,5.78637,-1.82439
399,-566,12.8856,32.293,0,0,0,0,0,0,0,-1,1623,1590,12.8856,-32.293
406,-566,4.30359,5.26868,0,0,0,0,0,0,0,-1,1630,1590,4.30364,-5.26867
413,-566,4.27124,5.79492,0,0,0,0,0,0,0,-1,1637,1590,4.27123,-5.7949
420,-566,18.0121,32.5314,0,0,0,0,0,0,0,-1,1644,1590,18.0121,-32.5313
427,-566,18.4048,32.8311,0,0,0,0,0,0,0,-1,1651,1590,18.4047,-32.831
434,-566,17.9767,32.2983,0,0,0,0,0,0,0,-1,1658,1590,17.9766,-32.2983
441,-566,15.5841,27.5869,0,0,0,0,0,0,0,-1,1665,1590,15.5842,-27.587
448,-566,17.3295,31.6224,0,0,0,0,0,0,0,-1,1672,1590,17.3295,-31.6224
455,-566,16.9888,30.7827,0,0,0,0,0,0,0,-1,1679,1590,16.9888,-30.7827
462,-566,17.0667,30.0829,0.00166409,0.0160149,-0.0055342,0.0179011,-0.000222183,-1.24231,0.0120088,0.0402467,1686,1590,17.0667,-30.0829
469,-566,17.1774,29.2991,0.00290145,0.0132778,-0.00526277,0.0154797,0.000699499,-1.17453,0.0100947,0.0184388,1693,1590,17.1774,-29.299
476,-566,17.2574,28.755,0.00343009,0.0105522,-0.00472909,0.012911,0.00107122,-1.10811,0.00827343,0.0114435,1700,1590,17.2575,-28.755
483,-566,17.2546,28.2394,0.00396793,0.0079054,-0.00432836,0.0106917,0.0011816,-0.998836,0.00676842,0.0116023,1707,1590,17.2547,-28.2393
490,-566,17.2285,27.734,0.00374429,0.0056193,-0.0034542,0.00826096,0.00110263,-0.917911,0.00517904,0.0125871,1714,1590,17.2285,-27.734
497,-566,17.2653,27.2397,0.00289535,0.00368811,-0.00242438,0.0057483,0.000835157,-0.86643,0.00358637,0.0157884,1721,1590,17.2652,-27.2397
504,-566,17.2434,26.7531,0.00193279,0.00178239,-0.00145144,0.00331098,0.000404208,-0.759516,0.00208568,0.0194583,1728,1590,17.2434,-26.753
511,-566,17.2292,26.2534,0.00057495,7.19295e-05,-0.000233749,0.000666799,-1.99199e-05,-0.374406,0.000451319,0.018827,1735,1590,17.2293,-26.2534
518,-566,17.2217,25.7363,-0.00076409,-0.00161034,0.000936239,-0.000159803,-0.00221463,0.573164,0.00142614,0.0119757,1742,1590,17.2216,-25.7364
525,-566,17.1904,25.182,-0.00229959,-0.00324032,0.00222528,-0.0004955,-0.0050444,0.681244,0.00321054,0.0118255,1749,1590,17.1904,-25.182
532,-566,17.1578,24.6534,-0.00406122,-0.0049632,0.00375521,-0.000730021,-0.0082944,0.725636,0.00530304,0.0143561,1756,1590,17.1579,-24.6534
539,-566,17.121,24.1156,-0.00626889,-0.00685085,0.00564592,-0.000906461,-0.0122133,0.759652,0.00785749,0.0178446,1763,1590,17.121,-24.1156
546,-566,17.1421,23.5428,-0.00911525,-0.00901934,0.00806157,-0.00100558,-0.017129,0.788372,0.0110993,0.020204,1770,1590,17.1421,-23.5429
553,-566,17.1567,23.2228,-0.0125004,-0.0112873,0.0109088,-0.000968147,-0.0228195,0.813171,0.0149008,0.0328278,1777,1590,17.1567,-23.2228
560,-566,16.6917,23.0143,-0.0165819,-0.013695,0.0142232,-0.000842187,-0.0294347,0.835968,0.0193485,0.0388572,1784,1590,16.6916,-23.0143
567,-566,16.3505,22.7404,0,0,0,0,0,0,0,-1,1791,1590,16.3505,-22.7403
574,-566,7.99548,3.14514,0,0,0,0,0,0,0,-1,1798,1590,7.99543,-3.14511
581,-566,2.54102,5.1311,0,0,0,0,0,0,0,-1,1805,1590,2.54099,-5.13111
588,-566,-1.91321,8.39197,0,0,0,0,0,0,0,-1,1812,1590,-1.91316,-8.39199
595,-566,9.0271,4.66467,0,0,0,0,0,0,0,-1,1819,1590,9.02705,-4.66468
602,-566,9.953,3.54895,0,0,0,0,0,0,0,-1,1826,1590,9.953,-3.54898
609,-566,0,0,0,0,0,0,0,0,0,-1,1833,1590,0,0
616,-566,0,0,0,0,0,0,0,0,0,-1,1840,1590,0,0
623,-566,0,0,0,0,0,0,0,0,0,-1,1847,1590,0,0
630,-566,0,0,0,0,0,0,0,0,0,-1,1854,1590,0,0
637,-566,0,0,0,0,0,0,0,0,0,-1,1861,1590,0,0
644,-566,0,0,0,0,0,0,0,0,0,-1,1868,1590,0,0
651,-566,0,0,0,0,0,0,0,0,0,-1,1875,1590,0,0
658,-566,0,0,0,0,0,0,0,0,0,-1,1882,1590,0,0
665,-566,0,0,0,0,0,0,0,0,0,-1,1889,1590,0,0
672,-566,0,0,0,0,0,0,0,0,0,-1,1896,1590,0,0
679,-566,0,0,0,0,0,0,0,0,0,-1,1903,1590,0,0
686,-566,0,0,0,0,0,0,0,0,0,-1,1910,1590,0,0
693,-566,0,0,0,0,0,0,0,0,0,-1,1917,1590,0,0
700,-566,0,0,0,0,0,0,0,0,0,-1,1924,1590,0,0
707,-566,0,0,0,0,0,0,0,0,0,-1,1931,1590,0,0
714,-566,0,0,0,0,0,0,0,0,0,-1,1938,1590,0,0
721,-566,0,0,0,0,0,0,0,0,0,-1,1945,1590,0,0
728,-566,0,0,0,0,0,0,0,0,0,-1,1952,1590,0,0
735,-566,0,0,0,0,0,0,0,0,0,-1,1959,1590,0,0
742,-566,0,0,0,0,0,0,0,0,0,-1,1966,1590,0,0
749,-566,0,0,0,0,0,0,0,0,0,-1,1973,1590,0,0
756,-566,0,0,0,0,0,0,0,0,0,-1,1980,1590,0,0
763,-566,0,0,0,0,0,0,0,0,0,-1,1987,1590,0,0
770,-566,0,0,0,0,0,0,0,0,0,-1,1994,1590,0,0
777,-566,0,0,0,0,0,0,0,0,0,-1,2001,1590,0,0
784,-566,0,0,0,0,0,0,0,0,0,-1,2008,1590,0,0
791,-566,0,0,0,0,0,0,0,0,0,-1,2015,1590,0,0
798,-566,0,0,0,0,0,0,0,0,0,-1,2022,1590,0,0
805,-566,0,0,0,0,0,0,0,0,0,-1,2029,1590,0,0
812,-566,0,0,0,0,0,0,0,0,0,-1,2036,1590,0,0
-700,-573,0,0,0,0,0,0,0,0,0,-1,524,1597,0,0
-693,-573,0,0,0,0,0,0,0,0,0,-1,531,1597,0,0
-686,-573,0,0,0,0,0,0,0,0,0,-1,538,1597,0,0
-679,-573,0,0,0,0,0,0,0,0,0,-1,545,1597,0,0
-672,-573,0,0,0,0,0,0,0,0,0,-1,552,1597,0,0
-665,-573,0,0,0,0,0,0,0,0,0,-1,559,1597,0,0
-658,-573,0,0,0,0,0,0,0,0,0,-1,566,1597,0,0
-651,-573,0,0,0,0,0,0,0,0,0,-1,573,1597,0,0
-644,-573,0,0,0,0,0,0,0,0,0,-1,580,1597,0,0
-637,-573,0,0,0,0,0,0,0,0,0,-1,587,1597,0,0
-630,-573,0,0,0,0,0,0,0,0,0,-1,594,1597,0,0
-623,-573,0,0,0,0,0,0,0,0,0,-1,601,1597,0,0
-616,-573,0,0,0,0,0,0,0,0,0,-1,608,1597,0,0
-609,-573,0,0,0,0,0,0,0,0,0,-1,615,1597,0,0
-602,-573,0,0,0,0,0,0,0,0,0,-1,622,1597,0,0
-595,-573,0,0,0,0,0,0,0,0,0,-1,629,1597,0,0
-588,-573,0,0,0,0,0,0,0,0,0,-1,636,1597,0,0
-581,-573,0,0,0,0,0,0,0,0,0,-1,643,1597,0,0
-574,-573,0,0,0,0,0,0,0,0,0,-1,650,1597,0,0
-567,-573,0,0,0,0,0,0,0,0,0,-1,657,1597,0,0
-560,-573,0,0,0,0,0,0,0,0,0,-1,664,1597,0,0
-553,-573,0,0,0,0,0,0,0,0,0,-1,671,1597,0,0
-546,-573,0,0,0,0,0,0,0,0,0,-1,678,1597,0,0
-539,-573,0,0,0,0,0,0,0,0,0,-1,685,1597,0,0
-532,-573,0,0,0,0,0,0,0,0,0,-1,692,1597,0,0
-525,-573,0,0,0,0,0,0,0,0,0,-1,699,1597,0,0
-518,-573,0,0,0,0,0,0,0,0,0,-1,706,1597,0,0
-511,-573,0,0,0,0,0,0,0,0,0,-1,713,1597,0,0
-504,-573,0,0,0,0,0,0,0,0,0,-1,720,1597,0,0
-497,-573,0,0,0,0,0,0,0,0,0,-1,727,1597,0,0
-490,-573,0,0,0,0,0,0,0,0,0,-1,734,1597,0,0
-483,-573,0,0,0,0,0,0,0,0,0,-1,741,1597,0,0
-476,-573,-9.3327,0.972778,0,0,0,0,0,0,0,-1,748,1597,-9.33268,-0.972776
-469,-573,-1.41681,1.13379,0,0,0,0,0,0,0,-1,755,1597,-1.41681,-1.13382
-462,-573,-0.748535,2.02588,0,0,0,0,0,0,0,-1,762,1597,-0.748533,-2.02584
-455,-573,-0.112976,2.70703,0,0,0,0,0,0,0,-1,769,1597,-0.112988,-2.70697
-448,-573,-1.26172,3.33252,0,0,0,0,0,0,0,-1,776,1597,-1.26173,-3.33248
-441,-573,0.108582,5.06726,0,0,0,0,0,0,0,-1,783,1597,0.108584,-5.06721
-434,-573,1.61768,7.05444,0,0,0,0,0,0,0,-1,790,1597,1.61767,-7.05446
-427,-573,-0.277771,21.8344,0,0,0,0,0,0,0,-1,797,1597,-0.27776,-21.8343
-420,-573,0.598328,21.4026,0,0,0,0,0,0,0,-1,804,1597,0.59833,-21.4026
-413,-573,0.131409,22.3438,0,0,0,0,0,0,0,-1,811,1597,0.131415,-22.3438
-406,-573,0.203003,23.0997,-0.00316151,0.0016997,0.000154378,0.00170459,-0.00316641,1.53908,0.00285417,0.0332246,818,1597,0.203033,-23.0997
-399,-573,0.137512,23.7234,-0.00310602,-0.00116121,-0.000463403,-0.00105644,-0.00321079,-1.34844,0.00188953,0.0146843,825,1597,0.137492,-23.7234
-392,-573,0.140076,24.2928,-0.0025196,-0.0014622,-0.000398434,-0.00132888,-0.00265292,-1.24789,0.00153166,0.0132773,832,1597,0.140073,-24.2928
-385,-573,0.126953,24.8506,-0.00156924,-0.00131578,-8.44975e-05,-0.00129019,-0.00159483,-1.27677,0.000977624,0.015228,839,1597,0.12693,-24.8506
-378,-573,0.0970459,25.3944,-0.000767111,-0.000443544,0.000284115,-0.00027838,-0.000932276,1.04422,0.000552613,0.0161384,846,1597,0.097074,-25.3944
-371,-573,0.0863037,25.9414,-1.18495e-05,0.000557181,0.000589162,0.000926929,-0.000381597,1.01034,0.000777039,0.0159506,853,1597,0.0863083,-25.9414
-364,-573,0.0740967,26.4677,0.000832572,0.00191919,0.00100673,0.00251986,0.000231898,1.03284,0.00160819,0.0190469,860,1597,0.0740665,-26.4676
-357,-573,0.0531006,26.9988,0.00180506,0.00354144,0.00155179,0.0044514,0.000895102,1.04044,0.0027188,0.0231021,867,1597,0.0531025,-26.9988
-350,-573,0.041687,27.5658,0.00296142,0.00529181,0.00220035,0.00661644,0.00163679,1.0289,0.0039792,0.0176925,874,1597,0.0417037,-27.5658
-343,-573,0.0621338,28.0881,0.00416507,0.00731717,0.00301453,0.00914278,0.00233946,1.02627,0.0054843,0.021021,881,1597,0.0621147,-28.0882
-336,-573,-0.0136719,28.6213,0.00533374,0.00965467,0.00397467,0.0120181,0.00297031,1.03434,0.00722834,0.0173288,888,1597,-0.0136819,-28.6213
-329,-573,-0.0147095,29.1095,0.00661224,0.0120341,0.00500147,0.0150121,0.00363424,1.03375,0.00904343,0.0178381,895,1597,-0.0146945,-29.1095
-322,-573,-0.0369873,29.6637,0.00787578,0.0146102,0.00614178,0.0182473,0.00423873,1.03615,0.0110269,0.0159127,902,1597,-0.0369667,-29.6637
-315,-573,0.1427,30.397,0.00910727,0.0173893,0.0073717,0.0217034,0.0047931,1.0413,0.0131654,0.037062,909,1597,0.1427,-30.397
-308,-573,0.074646,31.2385,0,0,0,0,0,0,0,-1,916,1597,0.0746538,-31.2385
-301,-573,0.320801,31.6016,0,0,0,0,0,0,0,-1,923,1597,0.320817,-31.6015
-294,-573,1.00702,24.802,0,0,0,0,0,0,0,-1,930,1597,1.00701,-24.802
-287,-573,1.27222,30.7164,0,0,0,0,0,0,0,-1,937,1597,1.27222,-30.7164
-280,-573,1.19684,26.4906,0,0,0,0,0,0,0,-1,944,1597,1.19685,-26.4906
-273,-573,2.24805,25.4375,0,0,0,0,0,0,0,-1,951,1597,2.24803,-25.4374
-266,-573,1.31116,7.1814,0,0,0,0,0,0,0,-1,958,1597,1.31118,-7.18142
-259,-573,1.2514,6.70959,0,0,0,0,0,0,0,-1,965,1597,1.25137,-6.70965
-252,-573,2.07874,5.27161,0,0,0,0,0,0,0,-1,972,1597,2.07875,-5.27157
-245,-573,-10.2592,1.09827,0,0,0,0,0,0,0,-1,979,1597,-10.2592,-1.09823
-238,-573,-11.5463,4.44141,0,0,0,0,0,0,0,-1,986,1597,-11.5463,-4.44146
-231,-573,-9.23431,4.14539,0,0,0,0,0,0,0,-1,993,1597,-9.23431,-4.14534
-224,-573,-6.70044,7.40857,0,0,0,0,0,0,0,-1,1000,1597,-6.70045,-7.40851
-217,-573,-4.25824,8.59119,0,0,0,0,0,0,0,-1,1007,1597,-4.25824,-8.59122
-210,-573,-2.39661,9.73914,0,0,0,0,0,0,0,-1,1014,1597,-2.39658,-9.73915
-203,-573,-0.557373,10.9005,0,0,0,0,0,0,0,-1,1021,1597,-0.557387,-10.9006
-196,-573,-1.65344,9.02246,0,0,0,0,0,0,0,-1,1028,1597,-1.65349,-9.02241
-189,-573,-6.12915,6.66882,0,0,0,0,0,0,0,-1,1035,1597,-6.12913,-6.66884
-182,-573,0,0,0,0,0,0,0,0,0,-1,1042,1597,0,0
-175,-573,0,0,0,0,0,0,0,0,0,-1,1049,1597,0,0
-168,-573,0,0,0,0,0,0,0,0,0,-1,1056,1597,0,0
-161,-573,0,0,0,0,0,0,0,0,0,-1,1063,1597,0,0
-154,-573,0,0,0,0,0,0,0,0,0,-1,1070,1597,0,0
-147,-573,0,0,0,0,0,0,0,0,0,-1,1077,1597,0,0
-140,-573,0,0,0,0,0,0,0,0,0,-1,1084,1597,0,0
-133,-573,0,0,0,0,0,0,0,0,0,-1,1091,1597,0,0
-126,-573,0,0,0,0,0,0,0,0,0,-1,1098,1597,0,0
-119,-573,0,0,0,0,0,0,0,0,0,-1,1105,1597,0,0
-112,-573,0,0,0,0,0,0,0,0,0,-1,1112,1597,0,0
-105,-573,0,0,0,0,0,0,0,0,0,-1,1119,1597,0,0
-98,-573,0,0,0,0,0,0,0,0,0,-1,1126,1597,0,0
-91,-573,0,0,0,0,0,0,0,0,0,-1,1133,1597,0,0
-84,-573,0,0,0,0,0,0,0,0,0,-1,1140,1597,0,0
-77,-573,0,0,0,0,0,0,0,0,0,-1,1147,1597,0,0
-70,-573,0,0,0,0,0,0,0,0,0,-1,1154,1597,0,0
-63,-573,0,0,0,0,0,0,0,0,0,-1,1161,1597,0,0
-56,-573,0,0,0,0,0,0,0,0,0,-1,1168,1597,0,0
-49,-573,0,0,0,0,0,0,0,0,0,-1,1175,1597,0,0
-42,-573,0,0,0,0,0,0,0,0,0,-1,1182,1597,0,0
-35,-573,0,0,0,0,0,0,0,0,0,-1,1189,1597,0,0
-28,-573,0,0,0,0,0,0,0,0,0,-1,1196,1597,0,0
-21,-573,0,0,0,0,0,0,0,0,0,-1,1203,1597,0,0
-14,-573,0,0,0,0,0,0,0,0,0,-1,1210,1597,0,0
-7,-573,0,0,0,0,0,0,0,0,0,-1,1217,1597,0,0
0,-573,0,0,0,0,0,0,0,0,0,-1,1224,1597,0,0
7,-573,0,0,0,0,0,0,0,0,0,-1,1231,1597,0,0
14,-573,0,0,0,0,0,0,0,0,0,-1,1238,1597,0,0
21,-573,0,0,0,0,0,0,0,0,0,-1,1245,1597,0,0
28,-573,0,0,0,0,0,0,0,0,0,-1,1252,1597,0,0
35,-573,0,0,0,0,0,0,0,0,0,-1,1259,1597,0,0
42,-573,0,0,0,0,0,0,0,0,0,-1,1266,1597,0,0
49,-573,0,0,0,0,0,0,0,0,0,-1,1273,1597,0,0
56,-573,0,0,0,0,0,0,0,0,0,-1,1280,1597,0,0
63,-573,0,0,0,0,0,0,0,0,0,-1,1287,1597,0,0
70,-573,0,0,0,0,0,0,0,0,0,-1,1294,1597,0,0
77,-573,0,0,0,0,0,0,0,0,0,-1,1301,1597,0,0
84,-573,0,0,0,0,0,0,0,0,0,-1,1308,1597,0,0
91,-573,0,0,0,0,0,0,0,0,0,-1,1315,1597,0,0
98,-573,0,0,0,0,0,0,0,0,0,-1,1322,1597,0,0
105,-573,0,0,0,0,0,0,0,0,0,-1,1329,1597,0,0
112,-573,0,0,0,0,0,0,0,0,0,-1,1336,1597,0,0
119,-573,0,0,0,0,0,0,0,0,0,-1,1343,1597,0,0
126,-573,0,0,0,0,0,0,0,0,0,-1,1350,1597,0,0
133,-573,0,0,0,0,0,0,0,0,0,-1,1357,1597,0,0
140,-573,0,0,0,0,0,0,0,0,0,-1,1364,1597,0,0
147,-573,0,0,0,0,0,0,0,0,0,-1,1371,1597,0,0
154,-573,0,0,0,0,0,0,0,0,0,-1,1378,1597,0,0
161,-573,0,0,0,0,0,0,0,0,0,-1,1385,1597,0,0
168,-573,0,0,0,0,0,0,0,0,0,-1,1392,1597,0,0
175,-573,0,0,0,0,0,0,0,0,0,-1,1399,1597,0,0
182,-573,0,0,0,0,0,0,0,0,0,-1,1406,1597,0,0
189,-573,0,0,0,0,0,0,0,0,0,-1,1413,1597,0,0
196,-573,0,0,0,0,0,0,0,0,0,-1,1420,1597,0,0
203,-573,0,0,0,0,0,0,0,0,0,-1,1427,1597,0,0
210,-573,0,0,0,0,0,0,0,0,0,-1,1434,1597,0,0
217,-573,0,0,0,0,0,0,0,0,0,-1,1441,1597,0,0
224,-573,0,0,0,0,0,0,0,0,0,-1,1448,1597,0,0
231,-573,0,0,0,0,0,0,0,0,0,-1,1455,1597,0,0
238,-573,0,0,0,0,0,0,0,0,0,-1,1462,1597,0,0
245,-573,0,0,0,0,0,0,0,0,0,-1,1469,1597,0,0
252,-573,0,0,0,0,0,0,0,0,0,-1,1476,1597,0,0
259,-573,0,0,0,0,0,0,0,0,0,-1,1483,1597,0,0
266,-573,0,0,0,0,0,0,0,0,0,-1,1490,1597,0,0
273,-573,0,0,0,0,0,0,0,0,0,-1,1497,1597,0,0
280,-573,0,0,0,0,0,0,0,0,0,-1,1504,1597,0,0
287,-573,0,0,0,0,0,0,0,0,0,-1,1511,1597,0,0
294,-573,0,0,0,0,0,0,0,0,0,-1,1518,1597,0,0
301,-573,0,0,0,0,0,0,0,0,0,-1,1525,1597,0,0
308,-573,5.93042,9.71143,0,0,0,0,0,0,0,-1,1532,1597,5.93046,-9.71144
315,-573,4.34204,11.719,0,0,0,0,0,0,0,-1,1539,1597,4.34205,-11.719
322,-573,10.3269,7.77563,0,0,0,0,0,0,0,-1,1546,1597,10.327,-7.77565
329,-573,4.99573,3.80273,0,0,0,0,0,0,0,-1,1553,1597,4.9957,-3.80273
336,-573,4.85693,2.53455,0,0,0,0,0,0,0,-1,1560,1597,4.8569,-2.53459
343,-573,5.5946,2.15894,0,0,0,0,0,0,0,-1,1567,1597,5.59456,-2.1589
350,-573,2.53748,1.56433,0,0,0,0,0,0,0,-1,1574,1597,2.53753,-1.5643
357,-573,7.40247,4.03613,0,0,0,0,0,0,0,-1,1581,1597,7.40244,-4.03614
364,-573,7.14551,3.02087,0,0,0,0,0,0,0,-1,1588,1597,7.14556,-3.02084
371,-573,6.88867,2.00549,0,0,0,0,0,0,0,-1,1595,1597,6.88868,-2.00553
378,-573,8.62012,6.09106,0,0,0,0,0,0,0,-1,1602,1597,8.62012,-6.09103
385,-573,6.54346,-0.951904,0,0,0,0,0,0,0,-1,1609,1597,6.54349,0.951901
392,-573,14.558,33.3009,0,0,0,0,0,0,0,-1,1616,1597,14.558,-33.3009
399,-573,13.819,32.2833,0,0,0,0,0,0,0,-1,1623,1597,13.8189,-32.2833
406,-573,13.7181,31.6494,0,0,0,0,0,0,0,-1,1630,1597,13.7182,-31.6494
413,-573,18.2855,33.5858,0,0,0,0,0,0,0,-1,1637,1597,18.2855,-33.5858
420,-573,18.1265,33.1552,0,0,0,0,0,0,0,-1,1644,1597,18.1264,-33.1551
427,-573,17.6667,32.6556,-0.0106736,0.0200663,-0.000100009,0.0200666,-0.010674,-1.56754,0.0180221,0.0441624,1651,1597,17.6668,-32.6557
434,-573,17.2147,32.0896,-0.00799077,0.0192258,-0.0013111,0.0192889,-0.00805378,-1.52277,0.0162244,0.045153,1658,1597,17.2148,-32.0897
441,-573,16.8108,31.6951,0,0,0,0,0,0,0,-1,1665,1597,16.8108,-31.6951
448,-573,16.7036,31.1067,-0.00238986,0.0165809,-0.00336722,0.0171608,-0.0029698,-1.40024,0.0125482,0.04555,1672,1597,16.7036,-31.1066
455,-573,16.6898,30.4326,-0.00048602,0.0145028,-0.00393369,0.0154724,-0.00145566,-1.32912,0.0108328,0.0336375,1679,1597,16.6898,-30.4326
462,-573,16.7776,29.7285,0.00107625,0.0126074,-0.00418209,0.0139645,-0.000280795,-1.25703,0.00940465,0.0223887,1686,1597,16.7776,-29.7286
469,-573,16.7728,29.2314,0.00203101,0.0103715,-0.00399391,0.0119755,0.000426983,-1.1889,0.00784524,0.015457,1693,1597,16.7729,-29.2314
476,-573,16.7767,28.7448,0.00238051,0.00808361,-0.00352499,0.00976603,0.000698087,-1.12549,0.00629091,0.0148461,1700,1597,16.7767,-28.7447
483,-573,16.7673,28.2635,0.00273911,0.00574449,-0.00317315,0.00775277,0.000730826,-1.00654,0.00494295,0.0137488,1707,1597,16.7673,-28.2635
490,-573,16.7422,27.761,0.00251753,0.00371277,-0.00240849,0.00559668,0.000633617,-0.907008,0.00353887,0.0140196,1714,1597,16.7422,-27.7609
497,-573,16.7866,27.2589,0.00183163,0.00196896,-0.00154141,0.00344323,0.000357353,-0.807657,0.00218613,0.0212493,1721,1597,16.7866,-27.2589
504,-573,16.7526,26.7521,0.000870974,0.000180676,-0.000614897,0.00123097,-0.000179317,-0.529655,0.000886484,0.0172811,1728,1597,16.7526,-26.7521
511,-573,16.728,26.2424,-0.000600198,-0.0015142,0.000672941,-0.000243749,-0.00187065,0.487115,0.00117431,0.018289,1735,1597,16.7281,-26.2425
518,-573,16.6958,25.7537,-0.00194041,-0.00316124,0.00184154,-0.000610754,-0.0044909,0.625363,0.00281254,0.0149143,1742,1597,16.6958,-25.7537
525,-573,16.679,25.2128,-0.00353901,-0.00484429,0.00320381,-0.00092204,-0.00746126,0.68492,0.00469709,0.0173188,1749,1597,16.679,-25.2128
532,-573,16.6718,24.6823,-0.00549035,-0.00672976,0.00492514,-0.00114608,-0.011074,0.722814,0.00703186,0.0166471,1756,1597,16.6718,-24.6822
539,-573,16.6083,24.1427,-0.00809331,-0.0089242,0.00715943,-0.00133728,-0.0156802,0.756417,0.0100375,0.0232718,1763,1597,16.6083,-24.1427
546,-573,16.6991,23.6848,-0.0115564,-0.0115205,0.0100777,-0.00146076,-0.0216161,0.78629,0.0139493,0.0376851,1770,1597,16.6991,-23.6848
553,-573,16.3513,23.5035,-0.0158959,-0.0143457,0.0136572,-0.00144161,-0.0288,0.813744,0.018738,0.0462165,1777,1597,16.3513,-23.5035
560,-573,15.4991,23.3026,-0.0215152,-0.0175616,0.018071,-0.00135958,-0.0377173,0.839877,0.0247041,0.0448726,1784,1597,15.4991,-23.3026
567,-573,14.7887,23.0382,0,0,0,0,0,0,0,-1,1791,1597,14.7886,-23.0382
574,-573,0.83374,5.7041,0,0,0,0,0,0,0,-1,1798,1597,0.833718,-5.70405
581,-573,-0.224854,7.41602,0,0,0,0,0,0,0,-1,1805,1597,-0.224904,-7.41596
588,-573,-0.134033,7.67065,0,0,0,0,0,0,0,-1,1812,1597,-0.134037,-7.67063
595,-573,-0.0825195,8.35083,0,0,0,0,0,0,0,-1,1819,1597,-0.0824684,-8.35088
602,-573,0,0,0,0,0,0,0,0,0,-1,1826,1597,0,0
609,-573,0,0,0,0,0,0,0,0,0,-1,1833,1597,0,0
616,-573,0,0,0,0,0,0,0,0,0,-1,1840,1597,0,0
623,-573,0,0,0,0,0,0,0,0,0,-1,1847,1597,0,0
630,-573,0,0,0,0,0,0,0,0,0,-1,1854,1597,0,0
637,-573,0,0,0,0,0,0,0,0,0,-1,1861,1597,0,0
644,-573,0,0,0,0,0,0,0,0,0,-1,1868,1597,0,0
651,-573,0,0,0,0,0,0,0,0,0,-1,1875,1597,0,0
658,-573,0,0,0,0,0,0,0,0,0,-1,1882,1597,0,0
665,-573,0,0,0,0,0,0,0,0,0,-1,1889,1597,0,0
672,-573,0,0,0,0,0,0,0,0,0,-1,1896,1597,0,0
679,-573,0,0,0,0,0,0,0,0,0,-1,1903,1597,0,0
686,-573,0,0,0,0,0,0,0,0,0,-1,1910,1597,0,0
693,-573,0,0,0,0,0,0,0,0,0,-1,1917,1597,0,0
700,-573,0,0,0,0,0,0,0,0,0,-1,1924,1597,0,0
707,-573,0,0,0,0,0,0,0,0,0,-1,1931,1597,0,0
714,-573,0,0,0,0,0,0,0,0,0,-1,1938,1597,0,0
721,-573,0,0,0,0,0,0,0,0,0,-1,1945,1597,0,0
728,-573,0,0,0,0,0,0,0,0,0,-1,1952,1597,0,0
735,-573,0,0,0,0,0,0,0,0,0,-1,1959,1597,0,0
742,-573,0,0,0,0,0,0,0,0,0,-1,1966,1597,0,0
749,-573,0,0,0,0,0,0,0,0,0,-1,1973,1597,0,0
756,-573,0,0,0,0,0,0,0,0,0,-1,1980,1597,0,0
763,-573,0,0,0,0,0,0,0,0,0,-1,1987,1597,0,0
770,-573,0,0,0,0,0,0,0,0,0,-1,1994,1597,0,0
777,-573,0,0,0,0,0,0,0,0,0,-1,2001,1597,0,0
784,-573,0,0,0,0,0,0,0,0,0,-1,2008,1597,0,0
791,-573,0,0,0,0,0,0,0,0,0,-1,2015,1597,0,0
798,-573,0,0,0,0,0,0,0,0,0,-1,2022,1597,0,0
805,-573,0,0,0,0,0,0,0,0,0,-1,2029,1597,0,0
812,-573,0,0,0,0,0,0,0,0,0,-1,2036,1597,0,0
-700,-580,0,0,0,0,0,0,0,0,0,-1,524,1604,0,0
-693,-580,0,0,0,0,0,0,0,0,0,-1,531,1604,0,0
-686,-580,0,0,0,0,0,0,0,0,0,-1,538,1604,0,0
-679,-580,0,0,0,0,0,0,0,0,0,-1,545,1604,0,0
-672,-580,0,0,0,0,0,0,0,0,0,-1,552,1604,0,0
-665,-580,0,0,0,0,0,0,0,0,0,-1,559,1604,0,0
-658,-580,0,0,0,0,0,0,0,0,0,-1,566,1604,0,0
-651,-580,0,0,0,0,0,0,0,0,0,-1,573,1604,0,0
-644,-580,0,0,0,0,0,0,0,0,0,-1,580,1604,0,0
-637,-580,0,0,0,0,0,0,0,0,0,-1,587,1604,0,0
-630,-580,0,0,0,0,0,0,0,0,0,-1,594,1604,0,0
-623,-580,0,0,0,0,0,0,0,0,0,-1,601,1604,0,0
-616,-580,0,0,0,0,0,0,0,0,0,-1,608,1604,0,0
-609,-580,0,0,0,0,0,0,0,0,0,-1,615,1604,0,0
-602,-580,0,0,0,0,0,0,0,0,0,-1,622,1604,0,0
-595,-580,0,0,0,0,0,0,0,0,0,-1,629,1604,0,0
-588,-580,0,0,0,0,0,0,0,0,0,-1,636,1604,0,0
-581,-580,0,0,0,0,0,0,0,0,0,-1,643,1604,0,0
-574,-580,0,0,0,0,0,0,0,0,0,-1,650,1604,0,0
-567,-580,0,0,0,0,0,0,0,0,0,-1,657,1604,0,0
-560,-580,0,0,0,0,0,0,0,0,0,-1,664,1604,0,0
-553,-580,0,0,0,0,0,0,0,0,0,-1,671,1604,0,0
-546,-580,0,0,0,0,0,0,0,0,0,-1,678,1604,0,0
-539,-580,0,0,0,0,0,0,0,0,0,-1,685,1604,0,0
-532,-580,0,0,0,0,0,0,0,0,0,-1,692,1604,0,0
-525,-580,0,0,0,0,0,0,0,0,0,-1,699,1604,0,0
-518,-580,0,0,0,0,0,0,0,0,0,-1,706,1604,0,0
-511,-580,0,0,0,0,0,0,0,0,0,-1,713,1604,0,0
-504,-580,0,0,0,0,0,0,0,0,0,-1,720,1604,0,0
-497,-580,0,0,0,0,0,0,0,0,0,-1,727,1604,0,0
-490,-580,0,0,0,0,0,0,0,0,0,-1,734,1604,0,0
-483,-580,0,0,0,0,0,0,0,0,0,-1,741,1604,0,0
-476,-580,0,0,0,0,0,0,0,0,0,-1,748,1604,0,0
-469,-580,-1.69189,-0.38916,0,0,0,0,0,0,0,-1,755,1604,-1.69192,0.389188
-462,-580,-0.859863,0.675293,0,0,0,0,0,0,0,-1,762,1604,-0.859834,-0.675245
-455,-580,-0.730164,0.651978,0,0,0,0,0,0,0,-1,769,1604,-0.730153,-0.651957
-448,-580,-3.31891,2.07544,0,0,0,0,0,0,0,-1,776,1604,-3.3189,-2.07539
-441,-580,-1.63843,3.9469,0,0,0,0,0,0,0,-1,783,1604,-1.63842,-3.94695
-434,-580,0.23291,5.97876,0,0,0,0,0,0,0,-1,790,1604,0.232901,-5.97878
-427,-580,1.62756,8.05493,0,0,0,0,0,0,0,-1,797,1604,1.62758,-8.05488
-420,-580,0.986572,11.2383,0,0,0,0,0,0,0,-1,804,1604,0.986544,-11.2382
-413,-580,0.922913,21.5701,0,0,0,0,0,0,0,-1,811,1604,0.922905,-21.5701
-406,-580,0.715088,23.1594,0,0,0,0,0,0,0,-1,818,1604,0.7151,-23.1594
-399,-580,0.709167,23.7606,-0.00421616,-0.00185891,-0.000761744,-0.00163418,-0.00444089,-1.28391,0.00259357,0.0354267,825,1604,0.709146,-23.7606
-392,-580,0.676697,24.3313,-0.00346391,-0.00228217,-0.000641944,-0.00200056,-0.00374552,-1.1574,0.00216415,0.0179335,832,1604,0.676674,-24.3313
-385,-580,0.671753,24.8812,-0.00244598,-0.00236942,-0.000325072,-0.00208038,-0.00273502,-0.84401,0.00164903,0.0126615,839,1604,0.671767,-24.8812
-378,-580,0.636536,25.4286,-0.00165846,-0.001695,-7.16626e-06,-0.0016571,-0.00169636,-0.186874,0.00111805,0.0151441,846,1604,0.636509,-25.4286
-371,-580,0.612732,25.9916,-0.000930511,-0.000884498,0.000243809,-0.000662612,-0.0011524,0.83244,0.000667826,0.0134227,853,1604,0.612712,-25.9916
-364,-580,0.599426,26.5361,-0.000153277,0.000201079,0.000579268,0.000629659,-0.000581858,0.933813,0.000699651,0.019421,860,1604,0.599401,-26.5362
-357,-580,0.612183,27.0034,0.000736721,0.00150133,0.00103143,0.00221902,1.90249e-05,0.962876,0.00147305,0.0148811,867,1604,0.612194,-27.0035
-350,-580,0.580017,27.5875,0.00177785,0.00288127,0.0015581,0.00398245,0.000676666,0.955555,0.00246063,0.0112062,874,1604,0.580026,-27.5875
-343,-580,0.572327,28.1147,0.00282877,0.00448485,0.00221468,0.00602122,0.00129239,0.964295,0.00366021,0.0120723,881,1604,0.572315,-28.1147
-336,-580,0.559326,28.6016,0.00383738,0.00631821,0.00299022,0.00831509,0.00184051,0.982008,0.00504311,0.0212784,888,1604,0.559347,-28.6015
-329,-580,0.522705,29.155,0.0048921,0.00820469,0.0037821,0.0106773,0.00241952,0.991784,0.00646441,0.0181869,895,1604,0.522731,-29.155
-322,-580,0.506042,29.6835,0.00589465,0.010191,0.00464272,0.0131585,0.00292721,1.00208,0.00797763,0.0199571,902,1604,0.506018,-29.6834
-315,-580,0.537354,30.1881,0.00685596,0.0123061,0.00555334,0.0157669,0.00339511,1.01349,0.00958221,0.0220569,909,1604,0.537363,-30.1881
-308,-580,0.602966,30.8577,0.00793551,0.0143025,0.0064851,0.0183434,0.00389467,1.01357,0.0111596,0.0315103,916,1604,0.602961,-30.8577
-301,-580,0.706787,31.2952,0.00939056,0.0161662,0.007718,0.0212072,0.00434958,0.992213,0.0129344,0.0296394,923,1604,0.706769,-31.2952
-294,-580,0.837219,32.0831,0,0,0,0,0,0,0,-1,930,1604,0.837247,-32.0831
-287,-580,0.89093,33.0355,0,0,0,0,0,0,0,-1,937,1604,0.890913,-33.0356
-280,-580,1.71606,31.5383,0,0,0,0,0,0,0,-1,944,1604,1.71604,-31.5383
-273,-580,1.39575,28.6672,0,0,0,0,0,0,0,-1,951,1604,1.39577,-28.6672
-266,-580,1.71777,25.6515,0,0,0,0,0,0,0,-1,958,1604,1.71775,-25.6515
-259,-580,1.31091,9.11536,0,0,0,0,0,0,0,-1,965,1604,1.31092,-9.11539
-252,-580,1.07629,7.74097,0,0,0,0,0,0,0,-1,972,1604,1.07627,-7.74101
-245,-580,3.80304,9.16028,0,0,0,0,0,0,0,-1,979,1604,3.80306,-9.16034
-238,-580,-10.3588,1.57556,0,0,0,0,0,0,0,-1,986,1604,-10.3588,-1.5755
-231,-580,-10.576,6.43787,0,0,0,0,0,0,0,-1,993,1604,-10.576,-6.43783
-224,-580,-8.27435,7.58972,0,0,0,0,0,0,0,-1,1000,1604,-8.27435,-7.5897
-217,-580,-5.85632,9.51221,0,0,0,0,0,0,0,-1,1007,1604,-5.85632,-9.5122
-210,-580,-3.6684,11.1569,0,0,0,0,0,0,0,-1,1014,1604,-3.66839,-11.1569
-203,-580,-1.92474,12.7845,0,0,0,0,0,0,0,-1,1021,1604,-1.92477,-12.7845
-196,-580,-2.28552,10.3289,0,0,0,0,0,0,0,-1,1028,1604,-2.28552,-10.3288
-189,-580,-4.58252,7.59058,0,0,0,0,0,0,0,-1,1035,1604,-4.58256,-7.59057
-182,-580,-5.45874,7.65942,0,0,0,0,0,0,0,-1,1042,1604,-5.45876,-7.65939
-175,-580,-6.38977,7.55005,0,0,0,0,0,0,0,-1,1049,1604,-6.38981,-7.5501
-168,-580,0,0,0,0,0,0,0,0,0,-1,1056,1604,0,0
-161,-580,0,0,0,0,0,0,0,0,0,-1,1063,1604,0,0
-154,-580,0,0,0,0,0,0,0,0,0,-1,1070,1604,0,0
-147,-580,0,0,0,0,0,0,0,0,0,-1,1077,1604,0,0
-140,-580,0,0,0,0,0,0,0,0,0,-1,1084,1604,0,0
-133,-580,0,0,0,0,0,0,0,0,0,-1,1091,1604,0,0
-126,-580,0,0,0,0,0,0,0,0,0,-1,1098,1604,0,0
-119,-580,0,0,0,0,0,0,0,0,0,-1,1105,1604,0,0
-112,-580,0,0,0,0,0,0,0,0,0,-1,1112,1604,0,0
-105,-580,0,0,0,0,0,0,0,0,0,-1,1119,1604,0,0
-98,-580,0,0,0,0,0,0,0,0,0,-1,1126,1604,0,0
-91,-580,0,0,0,0,0,0,0,0,0,-1,1133,1604,0,0
-84,-580,0,0,0,0,0,0,0,0,0,-1,1140,1604,0,0
-77,-580,0,0,0,0,0,0,0,0,0,-1,1147,1604,0,0
-70,-580,0,0,0,0,0,0,0,0,0,-1,1154,1604,0,0
-63,-580,0,0,0,0,0,0,0,0,0,-1,1161,1604,0,0
-56,-580,0,0,0,0,0,0,0,0,0,-1,1168,1604,0,0
-49,-580,0,0,0,0,0,0,0,0,0,-1,1175,1604,0,0
-42,-580,0,0,0,0,0,0,0,0,0,-1,1182,1604,0,0
-35,-580,0,0,0,0,0,0,0,0,0,-1,1189,1604,0,0
-28,-580,0,0,0,0,0,0,0,0,0,-1,1196,1604,0,0
-21,-580,0,0,0,0,0,0,0,0,0,-1,1203,1604,0,0
-14,-580,0,0,0,0,0,0,0,0,0,-1,1210,1604,0,0
-7,-580,0,0,0,0,0,0,0,0,0,-1,1217,1604,0,0
0,-580,0,0,0,0,0,0,0,0,0,-1,1224,1604,0,0
7,-580,0,0,0,0,0,0,0,0,0,-1,1231,1604,0,0
14,-580,0,0,0,0,0,0,0,0,0,-1,1238,1604,0,0
21,-580,0,0,0,0,0,0,0,0,0,-1,1245,1604,0,0
28,-580,0,0,0,0,0,0,0,0,0,-1,1252,1604,0,0
35,-580,0,0,0,0,0,0,0,0,0,-1,1259,1604,0,0
42,-580,0,0,0,0,0,0,0,0,0,-1,1266,1604,0,0
49,-580,0,0,0,0,0,0,0,0,0,-1,1273,1604,0,0
56,-580,0,0,0,0,0,0,0,0,0,-1,1280,1604,0,0
63,-580,0,0,0,0,0,0,0,0,0,-1,1287,1604,0,0
70,-580,0,0,0,0,0,0,0,0,0,-1,1294,1604,0,0
77,-580,0,0,0,0,0,0,0,0,0,-1,1301,1604,0,0
84,-580,0,0,0,0,0,0,0,0,0,-1,1308,1604,0,0
91,-580,0,0,0,0,0,0,0,0,0,-1,1315,1604,0,0
98,-580,0,0,0,0,0,0,0,0,0,-1,1322,1604,0,0
105,-580,0,0,0,0,0,0,0,0,0,-1,1329,1604,0,0
112,-580,0,0,0,0,0,0,0,0,0,-1,1336,1604,0,0
119,-580,0,0,0,0,0,0,0,0,0,-1,1343,1604,0,0
126,-580,0,0,0,0,0,0,0,0,0,-1,1350,1604,0,0
133,-580,0,0,0,0,0,0,0,0,0,-1,1357,1604,0,0
140,-580,0,0,0,0,0,0,0,0,0,-1,1364,1604,0,0
147,-580,0,0,0,0,0,0,0,0,0,-1,1371,1604,0,0
154,-580,0,0,0,0,0,0,0,0,0,-1,1378,1604,0,0
161,-580,0,0,0,0,0,0,0,0,0,-1,1385,1604,0,0
168,-580,0,0,0,0,0,0,0,0,0,-1,1392,1604,0,0
175,-580,0,0,0,0,0,0,0,0,0,-1,1399,1604,0,0
182,-580,0,0,0,0,0,0,0,0,0,-1,1406,1604,0,0
189,-580,0,0,0,0,0,0,0,0,0,-1,1413,1604,0,0
196,-580,0,0,0,0,0,0,0,0,0,-1,1420,1604,0,0
203,-580,0,0,0,0,0,0,0,0,0,-1,1427,1604,0,0
210,-580,0,0,0,0,0,0,0,0,0,-1,1434,1604,0,0
217,-580,0,0,0,0,0,0,0,0,0,-1,1441,1604,0,0
224,-580,0,0,0,0,0,0,0,0,0,-1,1448,1604,0,0
231,-580,0,0,0,0,0,0,0,0,0,-1,1455,1604,0,0
238,-580,0,0,0,0,0,0,0,0,0,-1,1462,1604,0,0
245,-580,0,0,0,0,0,0,0,0,0,-1,1469,1604,0,0
252,-580,0,0,0,0,0,0,0,0,0,-1,1476,1604,0,0
259,-580,0,0,0,0,0,0,0,0,0,-1,1483,1604,0,0
266,-580,0,0,0,0,0,0,0,0,0,-1,1490,1604,0,0
273,-580,0,0,0,0,0,0,0,0,0,-1,1497,1604,0,0
280,-580,0,0,0,0,0,0,0,0,0,-1,1504,1604,0,0
287,-580,0,0,0,0,0,0,0,0,0,-1,1511,1604,0,0
294,-580,4.0437,0.177368,0,0,0,0,0,0,0,-1,1518,1604,4.04369,-0.177371
301,-580,7.55164,8.05798,0,0,0,0,0,0,0,-1,1525,1604,7.55158,-8.05802
308,-580,5.9126,9.99341,0,0,0,0,0,0,0,-1,1532,1604,5.91255,-9.99337
315,-580,4.27356,11.9287,0,0,0,0,0,0,0,-1,1539,1604,4.27352,-11.9287
322,-580,10.2366,7.50281,0,0,0,0,0,0,0,-1,1546,1604,10.2366,-7.50282
329,-580,10.5962,8.69641,0,0,0,0,0,0,0,-1,1553,1604,10.5962,-8.69642
336,-580,3.66431,1.58862,0,0,0,0,0,0,0,-1,1560,1604,3.6643,-1.58864
343,-580,3.32227,1.39636,0,0,0,0,0,0,0,-1,1567,1604,3.32222,-1.39633
350,-580,8.71277,4.0564,0,0,0,0,0,0,0,-1,1574,1604,8.71271,-4.05638
357,-580,8.52332,3.08154,0,0,0,0,0,0,0,-1,1581,1604,8.52332,-3.08157
364,-580,8.25818,2.07605,0,0,0,0,0,0,0,-1,1588,1604,8.25812,-2.07608
371,-580,7.42114,7.14282,0,0,0,0,0,0,0,-1,1595,1604,7.42119,-7.14281
378,-580,7.9718,6.6731,0,0,0,0,0,0,0,-1,1602,1604,7.9718,-6.67307
385,-580,8.52246,6.20337,0,0,0,0,0,0,0,-1,1609,1604,8.52241,-6.20334
392,-580,15.1675,33.2534,0,0,0,0,0,0,0,-1,1616,1604,15.1675,-33.2535
399,-580,16.5356,34.6405,0,0,0,0,0,0,0,-1,1623,1604,16.5357,-34.6405
406,-580,16.5547,33.4061,0,0,0,0,0,0,0,-1,1630,1604,16.5547,-33.4061
413,-580,16.3738,32.9492,0,0,0,0,0,0,0,-1,1637,1604,16.3737,-32.9492
420,-580,16.7573,33.2249,0,0,0,0,0,0,0,-1,1644,1604,16.7573,-33.2248
427,-580,16.6622,32.6572,-0.00690568,0.0155585,-0.000184904,0.01556,-0.00690721,-1.56257,0.0132882,0.0417603,1651,1604,16.6623,-32.6572
434,-580,16.3654,32.0793,-0.0055362,0.0148158,-0.000918172,0.0148571,-0.00557754,-1.5258,0.0121967,0.0363039,1658,1604,16.3653,-32.0793
441,-580,16.1892,31.3252,-0.00369051,0.0141263,-0.00175055,0.0142967,-0.00386088,-1.47378,0.0110454,0.0207181,1665,1604,16.1893,-31.3252
448,-580,16.2704,30.7263,-0.001873,0.012783,-0.00244588,0.0131804,-0.0022704,-1.40972,0.00963335,0.0164302,1672,1604,16.2704,-30.7263
455,-580,16.2986,30.2571,-0.000549211,0.0110841,-0.00288577,0.0117606,-0.00122572,-1.34053,0.00827929,0.0192476,1679,1604,16.2986,-30.257
462,-580,16.2565,29.7539,0.000599704,0.00948546,-0.00308425,0.0104511,-0.000365909,-1.26738,0.0070925,0.0213845,1686,1604,16.2564,-29.7539
469,-580,16.2633,29.2424,0.00132982,0.00763607,-0.0029436,0.00879653,0.000169362,-1.19527,0.00580872,0.0198227,1693,1604,16.2634,-29.2424
476,-580,16.2766,28.7478,0.00157294,0.00570309,-0.00252752,0.00690189,0.000374144,-1.12792,0.00448175,0.0152144,1700,1604,16.2766,-28.7478
483,-580,16.2532,28.2865,0.0017801,0.00364388,-0.00218795,0.00509014,0.00033385,-0.986722,0.0032878,0.0139092,1707,1604,16.2532,-28.2865
490,-580,16.2233,27.8234,0.00153866,0.00184123,-0.00149634,0.00319392,0.000185976,-0.83578,0.00207007,0.0180468,1714,1604,16.2232,-27.8233
497,-580,16.2197,27.2897,0.000984702,0.000263019,-0.000760579,0.0014657,-0.000217975,-0.563907,0.00105731,0.0146042,1721,1604,16.2197,-27.2897
504,-580,16.2095,26.7649,2.05471e-05,-0.00140301,0.000129431,3.22192e-05,-0.00141469,0.0899376,0.000954045,0.0168122,1728,1604,16.2094,-26.7648
511,-580,16.1936,26.2714,-0.00156626,-0.00308487,0.00147697,-0.000664852,-0.00398629,0.547967,0.00246597,0.0171383,1735,1604,16.1936,-26.2713
518,-580,16.1755,25.762,-0.00294406,-0.00471163,0.0026548,-0.0010298,-0.00662589,0.624717,0.00411715,0.0163362,1742,1604,16.1755,-25.7619
525,-580,16.1714,25.2433,-0.00466652,-0.00648674,0.00411251,-0.00136462,-0.00978864,0.676502,0.0061218,0.0190639,1749,1604,16.1714,-25.2433
532,-580,16.1116,24.7588,-0.00691797,-0.00857312,0.00606765,-0.00162172,-0.0138694,0.71762,0.00875588,0.0259122,1756,1604,16.1116,-24.7588
539,-580,16.0941,24.2889,-0.0100393,-0.0111815,0.00872139,-0.00187032,-0.0193505,0.752703,0.0123243,0.0308008,1763,1604,16.0941,-24.2889
546,-580,16.3781,23.7977,-0.0143056,-0.0143586,0.0122615,-0.00207062,-0.0265936,0.784317,0.0170807,0.0499382,1770,1604,16.3781,-23.7977
553,-580,15.543,23.7209,0,0,0,0,0,0,0,-1,1777,1604,15.543,-23.721
560,-580,14.6399,23.6069,0,0,0,0,0,0,0,-1,1784,1604,14.6399,-23.6069
567,-580,3.87708,4.0647,0,0,0,0,0,0,0,-1,1791,1604,3.87711,-4.06471
574,-580,2.31653,5.62952,0,0,0,0,0,0,0,-1,1798,1604,2.31654,-5.62947
581,-580,1.60876,6.67664,0,0,0,0,0,0,0,-1,1805,1604,1.60873,-6.67667
588,-580,1.38684,7.14441,0,0,0,0,0,0,0,-1,1812,1604,1.38689,-7.14443
595,-580,0,0,0,0,0,0,0,0,0,-1,1819,1604,0,0
602,-580,0,0,0,0,0,0,0,0,0,-1,1826,1604,0,0
609,-580,0,0,0,0,0,0,0,0,0,-1,1833,1604,0,0
616,-580,0,0,0,0,0,0,0,0,0,-1,1840,1604,0,0
623,-580,0,0,0,0,0,0,0,0,0,-1,1847,1604,0,0
630,-580,0,0,0,0,0,0,0,0,0,-1,1854,1604,0,0
637,-580,0,0,0,0,0,0,0,0,0,-1,1861,1604,0,0
644,-580,0,0,0,0,0,0,0,0,0,-1,1868,1604,0,0
651,-580,0,0,0,0,0,0,0,0,0,-1,1875,1604,0,0
658,-580,0,0,0,0,0,0,0,0,0,-1,1882,1604,0,0
665,-580,0,0,0,0,0,0,0,0,0,-1,1889,1604,0,0
672,-580,0,0,0,0,0,0,0,0,0,-1,1896,1604,0,0
679,-580,0,0,0,0,0,0,0,0,0,-1,1903,1604,0,0
686,-580,0,0,0,0,0,0,0,0,0,-1,1910,1604,0,0
693,-580,0,0,0,0,0,0,0,0,0,-1,1917,1604,0,0
700,-580,0,0,0,0,0,0,0,0,0,-1,1924,1604,0,0
707,-580,0,0,0,0,0,0,0,0,0,-1,1931,1604,0,0
714,-580,0,0,0,0,0,0,0,0,0,-1,1938,1604,0,0
721,-580,0,0,0,0,0,0,0,0,0,-1,1945,1604,0,0
728,-580,0,0,0,0,0,0,0,0,0,-1,1952,1604,0,0
735,-580,0,0,0,0,0,0,0,0,0,-1,1959,1604,0,0
742,-580,0,0,0,0,0,0,0,0,0,-1,1966,1604,0,0
749,-580,0,0,0,0,0,0,0,0,0,-1,1973,1604,0,0
756,-580,0,0,0,0,0,0,0,0,0,-1,1980,1604,0,0
763,-580,0,0,0,0,0,0,0,0,0,-1,1987,1604,0,0
770,-580,0,0,0,0,0,0,0,0,0,-1,1994,1604,0,0
777,-580,0,0,0,0,0,0,0,0,0,-1,2001,1604,0,0
784,-580,0,0,0,0,0,0,0,0,0,-1,2008,1604,0,0
791,-580,0,0,0,0,0,0,0,0,0,-1,2015,1604,0,0
798,-580,0,0,0,0,0,0,0,0,0,-1,2022,1604,0,0
805,-580,0,0,0,0,0,0,0,0,0,-1,2029,1604,0,0
812,-580,0,0,0,0,0,0,0,0,0,-1,2036,1604,0,0
-700,-587,0,0,0,0,0,0,0,0,0,-1,524,1611,0,0
-693,-587,0,0,0,0,0,0,0,0,0,-1,531,1611,0,0
-686,-587,0,0,0,0,0,0,0,0,0,-1,538,1611,0,0
-679,-587,0,0,0,0,0,0,0,0,0,-1,545,1611,0,0
-672,-587,0,0,0,0,0,0,0,0,0,-1,552,1611,0,0
-665,-587,0,0,0,0,0,0,0,0,0,-1,559,1611,0,0
-658,-587,0,0,0,0,0,0,0,0,0,-1,566,1611,0,0
-651,-587,0,0,0,0,0,0,0,0,0,-1,573,1611,0,0
-644,-587,0,0,0,0,0,0,0,0,0,-1,580,1611,0,0
-637,-587,0,0,0,0,0,0,0,0,0,-1,587,1611,0,0
-630,-587,0,0,0,0,0,0,0,0,0,-1,594,1611,0,0
-623,-587,0,0,0,0,0,0,0,0,0,-1,601,1611,0,0
-616,-587,0,0,0,0,0,0,0,0,0,-1,608,1611,0,0
-609,-587,0,0,0,0,0,0,0,0,0,-1,615,1611,0,0
-602,-587,0,0,0,0,0,0,0,0,0,-1,622,1611,0,0
-595,-587,0,0,0,0,0,0,0,0,0,-1,629,1611,0,0
-588,-587,0,0,0,0,0,0,0,0,0,-1,636,1611,0,0
-581,-587,0,0,0,0,0,0,0,0,0,-1,643,1611,0,0
-574,-587,0,0,0,0,0,0,0,0,0,-1,650,1611,0,0
-567,-587,0,0,0,0,0,0,0,0,0,-1,657,1611,0,0
-560,-587,0,0,0,0,0,0,0,0,0,-1,664,1611,0,0
-553,-587,0,0,0,0,0,0,0,0,0,-1,671,1611,0,0
-546,-587,0,0,0,0,0,0,0,0,0,-1,678,1611,0,0
-539,-587,0,0,0,0,0,0,0,0,0,-1,685,1611,0,0
-532,-587,0,0,0,0,0,0,0,0,0,-1,692,1611,0,0
-525,-587,0,0,0,0,0,0,0,0,0,-1,699,1611,0,0
-518,-587,0,0,0,0,0,0,0,0,0,-1,706,1611,0,0
-511,-587,0,0,0,0,0,0,0,0,0,-1,713,1611,0,0
-504,-587,0,0,0,0,0,0,0,0,0,-1,720,1611,0,0
-497,-587,0,0,0,0,0,0,0,0,0,-1,727,1611,0,0
-490,-587,0,0,0,0,0,0,0,0,0,-1,734,1611,0,0
-483,-587,0,0,0,0,0,0,0,0,0,-1,741,1611,0,0
-476,-587,0,0,0,0,0,0,0,0,0,-1,748,1611,0,0
-469,-587,0,0,0,0,0,0,0,0,0,-1,755,1611,0,0
-462,-587,-0.714355,-0.418457,0,0,0,0,0,0,0,-1,762,1611,-0.714359,0.418483
-455,-587,-0.619812,-0.522461,0,0,0,0,0,0,0,-1,769,1611,-0.619802,0.522515
-448,-587,-0.461731,-0.686523,0,0,0,0,0,0,0,-1,776,1611,-0.461739,0.686559
-441,-587,-3.56555,2.72253,0,0,0,0,0,0,0,-1,783,1611,-3.56555,-2.72259
-434,-587,-1.77319,4.76318,0,0,0,0,0,0,0,-1,790,1611,-1.77318,-4.76323
-427,-587,0.0346069,6.92944,0,0,0,0,0,0,0,-1,797,1611,0.034587,-6.92941
-420,-587,-0.647156,10.1157,0,0,0,0,0,0,0,-1,804,1611,-0.647128,-10.1158
-413,-587,2.13971,10.3901,0,0,0,0,0,0,0,-1,811,1611,2.13971,-10.3902
-406,-587,2.2525,19.7814,0,0,0,0,0,0,0,-1,818,1611,2.25253,-19.7814
-399,-587,1.19281,23.7196,0,0,0,0,0,0,0,-1,825,1611,1.19281,-23.7196
-392,-587,1.3833,24.2725,-0.00443997,-0.00322838,-0.000889742,-0.00275778,-0.00491057,-1.08428,0.00284228,0.0466975,832,1611,1.38329,-24.2725
-385,-587,1.14771,24.8528,-0.00319489,-0.00308821,-0.00039036,-0.00274756,-0.00353553,-0.8533,0.00214321,0.0222232,839,1611,1.14768,-24.8528
-378,-587,1.1488,25.4507,-0.00238819,-0.00251865,-0.000115206,-0.00232103,-0.00258581,-0.527805,0.00164274,0.0135854,846,1611,1.14878,-25.4507
-371,-587,1.11383,26.0355,-0.00168302,-0.00185685,7.13733e-05,-0.00165747,-0.0018824,0.343762,0.00118708,0.0138727,853,1611,1.11382,-26.0355
-364,-587,1.08875,26.5494,-0.000981607,-0.00104907,0.00029582,-0.0007176,-0.00131307,0.728633,0.000759196,0.0176721,860,1611,1.08876,-26.5494
-357,-587,1.09369,27.0146,-0.000190727,-8.50148e-05,0.000613729,0.00047813,-0.000753872,0.828354,0.000717211,0.0180184,867,1611,1.0937,-27.0147
-350,-587,1.07697,27.5804,0.000708046,0.00091636,0.000972688,0.00179045,-0.000166045,0.838736,0.00125266,0.0105131,874,1611,1.07696,-27.5805
-343,-587,1.05847,28.1038,0.00158991,0.00209019,0.00142948,0.00329125,0.00038884,0.872014,0.00207672,0.0131565,881,1611,1.05846,-28.1037
-336,-587,1.04364,28.5979,0.00243564,0.00343499,0.0019923,0.00498932,0.000881311,0.908265,0.00307484,0.0133484,888,1611,1.04362,-28.5979
-329,-587,1.0152,29.1351,0.00327807,0.00487088,0.00254742,0.00674348,0.00140547,0.9369,0.0041081,0.0152873,895,1611,1.01521,-29.1351
-322,-587,1.01965,29.6724,0.00404429,0.00635655,0.00315751,0.00856293,0.00183791,0.960894,0.00520529,0.0189628,902,1611,1.01966,-29.6723
-315,-587,0.994446,30.1848,0.0047836,0.00795206,0.003809,0.0104931,0.00224251,0.982475,0.00638066,0.0150632,909,1611,0.994466,-30.1848
-308,-587,0.983765,30.699,0.00564707,0.00946061,0.00448881,0.0124308,0.00267683,0.986242,0.00755472,0.0149623,916,1611,0.983768,-30.6989
-301,-587,1.05792,31.2225,0.00685553,0.0109019,0.00543415,0.0146773,0.00308017,0.963604,0.00893685,0.016595,923,1611,1.05792,-31.2226
-294,-587,1.15991,31.8296,0.00840727,0.0122855,0.00666317,0.0172859,0.00340677,0.926996,0.0105729,0.0297696,930,1611,1.1599,-31.8296
-287,-587,1.11176,32.4625,0.0102243,0.0140472,0.00821982,0.0205749,0.00369663,0.899638,0.0126655,0.0462438,937,1611,1.11173,-32.4625
-280,-587,1.42859,33.5006,0,0,0,0,0,0,0,-1,944,1611,1.42859,-33.5006
-273,-587,1.58167,33.4265,0,0,0,0,0,0,0,-1,951,1611,1.58165,-33.4265
-266,-587,1.56232,34.6842,0,0,0,0,0,0,0,-1,958,1611,1.56231,-34.6842
-259,-587,1.76306,28.5784,0,0,0,0,0,0,0,-1,965,1611,1.76307,-28.5784
-252,-587,1.30188,10.3103,0,0,0,0,0,0,0,-1,972,1611,1.30188,-10.3104
-245,-587,1.52075,27.4791,0,0,0,0,0,0,0,-1,979,1611,1.52076,-27.4791
-238,-587,2.87799,9.53821,0,0,0,0,0,0,0,-1,986,1611,2.87797,-9.53823
-231,-587,2.49548,9.14465,0,0,0,0,0,0,0,-1,993,1611,2.49551,-9.14468
-224,-587,-9.72528,9.21069,0,0,0,0,0,0,0,-1,1000,1611,-9.72529,-9.21072
-217,-587,-7.07495,10.7847,0,0,0,0,0,0,0,-1,1007,1611,-7.07495,-10.7847
-210,-587,-4.72308,12.5889,0,0,0,0,0,0,0,-1,1014,1611,-4.72307,-12.5888
-203,-587,-3.2583,13.7289,0,0,0,0,0,0,0,-1,1021,1611,-3.25828,-13.7289
-196,-587,-1.953,14.8145,0,0,0,0,0,0,0,-1,1028,1611,-1.95302,-14.8144
-189,-587,-3.04138,8.66638,0,0,0,0,0,0,0,-1,1035,1611,-3.04136,-8.66635
-182,-587,-3.97095,9.7146,0,0,0,0,0,0,0,-1,1042,1611,-3.97093,-9.71461
-175,-587,-4.80969,8.37878,0,0,0,0,0,0,0,-1,1049,1611,-4.80964,-8.37883
-168,-587,-5.91394,8.72546,0,0,0,0,0,0,0,-1,1056,1611,-5.91398,-8.72542
-161,-587,-7.06946,8.88501,0,0,0,0,0,0,0,-1,1063,1611,-7.06947,-8.885
-154,-587,-2.24731,6.56519,0,0,0,0,0,0,0,-1,1070,1611,-2.24728,-6.56517
-147,-587,0,0,0,0,0,0,0,0,0,-1,1077,1611,0,0
-140,-587,0,0,0,0,0,0,0,0,0,-1,1084,1611,0,0
-133,-587,0,0,0,0,0,0,0,0,0,-1,1091,1611,0,0
-126,-587,0,0,0,0,0,0,0,0,0,-1,1098,1611,0,0
-119,-587,0,0,0,0,0,0,0,0,0,-1,1105,1611,0,0
-112,-587,0,0,0,0,0,0,0,0,0,-1,1112,1611,0,0
-105,-587,0,0,0,0,0,0,0,0,0,-1,1119,1611,0,0
-98,-587,0,0,0,0,0,0,0,0,0,-1,1126,1611,0,0
-91,-587,0,0,0,0,0,0,0,0,0,-1,1133,1611,0,0
-84,-587,0,0,0,0,0,0,0,0,0,-1,1140,1611,0,0
-77,-587,0,0,0,0,0,0,0,0,0,-1,1147,1611,0,0
-70,-587,0,0,0,0,0,0,0,0,0,-1,1154,1611,0,0
-63,-587,0,0,0,0,0,0,0,0,0,-1,1161,1611,0,0
-56,-587,0,0,0,0,0,0,0,0,0,-1,1168,1611,0,0
-49,-587,0,0,0,0,0,0,0,0,0,-1,1175,1611,0,0
-42,-587,0,0,0,0,0,0,0,0,0,-1,1182,1611,0,0
-35,-587,0,0,0,0,0,0,0,0,0,-1,1189,1611,0,0
-28,-587,0,0,0,0,0,0,0,0,0,-1,1196,1611,0,0
-21,-587,0,0,0,0,0,0,0,0,0,-1,1203,1611,0,0
-14,-587,0,0,0,0,0,0,0,0,0,-1,1210,1611,0,0
-7,-587,0,0,0,0,0,0,0,0,0,-1,1217,1611,0,0
0,-587,0,0,0,0,0,0,0,0,0,-1,1224,1611,0,0
7,-587,0,0,0,0,0,0,0,0,0,-1,1231,1611,0,0
14,-587,0,0,0,0,0,0,0,0,0,-1,1238,1611,0,0
21,-587,0,0,0,0,0,0,0,0,0,-1,1245,1611,0,0
28,-587,0,0,0,0,0,0,0,0,0,-1,1252,1611,0,0
35,-587,0,0,0,0,0,0,0,0,0,-1,1259,1611,0,0
42,-587,0,0,0,0,0,0,0,0,0,-1,1266,1611,0,0
49,-587,0,0,0,0,0,0,0,0,0,-1,1273,1611,0,0
56,-587,0,0,0,0,0,0,0,0,0,-1,1280,1611,0,0
63,-587,0,0,0,0,0,0,0,0,0,-1,1287,1611,0,0
70,-587,0,0,0,0,0,0,0,0,0,-1,1294,1611,0,0
77,-587,0,0,0,0,0,0,0,0,0,-1,1301,1611,0,0
84,-587,0,0,0,0,0,0,0,0,0,-1,1308,1611,0,0
91,-587,0,0,0,0,0,0,0,0,0,-1,1315,1611,0,0
98,-587,0,0,0,0,0,0,0,0,0,-1,1322,1611,0,0
105,-587,0,0,0,0,0,0,0,0,0,-1,1329,1611,0,0
112,-587,0,0,0,0,0,0,0,0,0,-1,1336,1611,0,0
119,-587,0,0,0,0,0,0,0,0,0,-1,1343,1611,0,0
126,-587,0,0,0,0,0,0,0,0,0,-1,1350,1611,0,0
133,-587,0,0,0,0,0,0,0,0,0,-1,1357,1611,0,0
140,-587,0,0,0,0,0,0,0,0,0,-1,1364,1611,0,0
147,-587,0,0,0,0,0,0,0,0,0,-1,1371,1611,0,0
154,-587,0,0,0,0,0,0,0,0,0,-1,1378,1611,0,0
161,-587,0,0,0,0,0,0,0,0,0,-1,1385,1611,0,0
168,-587,0,0,0,0,0,0,0,0,0,-1,1392,1611,0,0
175,-587,0,0,0,0,0,0,0,0,0,-1,1399,1611,0,0
182,-587,0,0,0,0,0,0,0,0,0,-1,1406,1611,0,0
189,-587,0,0,0,0,0,0,0,0,0,-1,1413,1611,0,0
196,-587,0,0,0,0,0,0,0,0,0,-1,1420,1611,0,0
203,-587,0,0,0,0,0,0,0,0,0,-1,1427,1611,0,0
210,-587,0,0,0,0,0,0,0,0,0,-1,1434,1611,0,0
217,-587,0,0,0,0,0,0,0,0,0,-1,1441,1611,0,0
224,-587,0,0,0,0,0,0,0,0,0,-1,1448,1611,0,0
231,-587,0,0,0,0,0,0,0,0,0,-1,1455,1611,0,0
238,-587,0,0,0,0,0,0,0,0,0,-1,1462,1611,0,0
245,-587,0,0,0,0,0,0,0,0,0,-1,1469,1611,0,0
252,-587,0,0,0,0,0,0,0,0,0,-1,1476,1611,0,0
259,-587,0,0,0,0,0,0,0,0,0,-1,1483,1611,0,0
266,-587,0,0,0,0,0,0,0,0,0,-1,1490,1611,0,0
273,-587,10.2936,6.35083,0,0,0,0,0,0,0,-1,1497,1611,10.2936,-6.35087
280,-587,2.09204,1.1217,0,0,0,0,0,0,0,-1,1504,1611,2.092,-1.12176
287,-587,3.2865,0.671509,0,0,0,0,0,0,0,-1,1511,1611,3.28656,-0.671538
294,-587,4.24646,1.58765,0,0,0,0,0,0,0,-1,1518,1611,4.24648,-1.58761
301,-587,7.60474,8.37085,0,0,0,0,0,0,0,-1,1525,1611,7.60478,-8.37084
308,-587,5.99316,10.2291,0,0,0,0,0,0,0,-1,1532,1611,5.99315,-10.2291
315,-587,4.34558,12.3289,0,0,0,0,0,0,0,-1,1539,1611,4.34556,-12.3288
322,-587,10.4526,6.38245,0,0,0,0,0,0,0,-1,1546,1611,10.4526,-6.38245
329,-587,10.7738,8.42444,0,0,0,0,0,0,0,-1,1553,1611,10.7738,-8.42438
336,-587,7.5531,5.96619,0,0,0,0,0,0,0,-1,1560,1611,7.55311,-5.96617
343,-587,9.57495,4.38391,0,0,0,0,0,0,0,-1,1567,1611,9.57494,-4.38397
350,-587,9.50378,3.45093,0,0,0,0,0,0,0,-1,1574,1611,9.50376,-3.4509
357,-587,9.40027,2.50806,0,0,0,0,0,0,0,-1,1581,1611,9.40022,-2.50803
364,-587,9.26477,1.34131,0,0,0,0,0,0,0,-1,1588,1611,9.26479,-1.34126
371,-587,6.98926,7.87561,0,0,0,0,0,0,0,-1,1595,1611,6.98928,-7.87564
378,-587,9.25146,13.8358,0,0,0,0,0,0,0,-1,1602,1611,9.2515,-13.8359
385,-587,17.0917,35.9944,0,0,0,0,0,0,0,-1,1609,1611,17.0917,-35.9944
392,-587,15.8361,34.8838,0,0,0,0,0,0,0,-1,1616,1611,15.8361,-34.8838
399,-587,16.2545,33.8802,0,0,0,0,0,0,0,-1,1623,1611,16.2545,-33.8803
406,-587,16.0443,33.5205,-0.000212454,0.0153358,-0.00260489,0.0157606,-0.00063726,-1.40914,0.0107258,0.0445627,1630,1611,16.0444,-33.5205
413,-587,15.925,33.0721,-0.00246142,0.0139096,-0.00131473,0.0140145,-0.00256633,-1.49117,0.0103055,0.0392432,1637,1611,15.9251,-33.0722
420,-587,15.8267,32.6719,-0.00357854,0.0126897,-0.000553017,0.0127084,-0.00359731,-1.53685,0.00989189,0.0365634,1644,1611,15.8266,-32.6719
427,-587,15.7528,32.274,-0.00411038,0.011741,-0.000240058,0.0117447,-0.00411401,-1.55566,0.00950275,0.0299507,1651,1611,15.7528,-32.274
434,-587,15.8193,31.6663,-0.00355508,0.0110433,-0.000639531,0.0110713,-0.00358305,-1.5271,0.00882118,0.0206894,1658,1611,15.8193,-31.6663
441,-587,15.837,31.1455,-0.0024278,0.0105341,-0.00124385,0.0106524,-0.00254608,-1.47599,0.00808507,0.0227775,1665,1611,15.837,-31.1455
448,-587,15.8286,30.7356,-0.00124214,0.009446,-0.00175093,0.00972552,-0.00152167,-1.41249,0.00704589,0.0160924,1672,1611,15.8286,-30.7356
455,-587,15.7963,30.2603,-0.000391147,0.00805384,-0.00206635,0.00853233,-0.000869636,-1.34324,0.00599914,0.0143231,1679,1611,15.7962,-30.2602
462,-587,15.7799,29.781,0.000371966,0.00669673,-0.0021946,0.00738363,-0.000314927,-1.26746,0.00503068,0.0175063,1686,1611,15.7799,-29.7811
469,-587,15.7751,29.3075,0.000846444,0.00514747,-0.00205556,0.00597186,2.2053e-05,-1.18938,0.00397391,0.016362,1693,1611,15.7751,-29.3075
476,-587,15.7667,28.8279,0.000932611,0.00350922,-0.0016629,0.00432448,0.000117355,-1.11497,0.00284468,0.0107091,1700,1611,15.7667,-28.8279
483,-587,15.7369,28.3271,0.000933955,0.00169662,-0.00130119,0.00267121,-4.06344e-05,-0.927938,0.0017945,0.0130173,1707,1611,15.7369,-28.3271
490,-587,15.7111,27.8362,0.000603205,8.7112e-05,-0.000653045,0.00104734,-0.000357021,-0.597242,0.000842826,0.0156366,1714,1611,15.711,-27.8361
497,-587,15.6948,27.3257,0.000121337,-0.00136487,-2.16653e-05,0.000121652,-0.00136519,-0.0145734,0.000953268,0.0130069,1721,1611,15.6948,-27.3257
504,-587,15.6727,26.8258,-0.000848606,-0.00292455,0.000829539,-0.000557849,-0.00321531,0.337124,0.00198391,0.0123986,1728,1611,15.6727,-26.8258
511,-587,15.6566,26.3373,-0.00251569,-0.00460854,0.00220501,-0.00112141,-0.00600283,0.56385,0.0036854,0.0139074,1735,1611,15.6567,-26.3373
518,-587,15.6639,25.8136,-0.00391798,-0.00625477,0.00338141,-0.00150879,-0.00866396,0.619053,0.00534451,0.0138644,1742,1611,15.6639,-25.8136
525,-587,15.684,25.3557,-0.00574761,-0.00813299,0.00494241,-0.00185602,-0.0120246,0.667003,0.00747492,0.0210754,1749,1611,15.6839,-25.3558
532,-587,15.7502,24.9027,-0.00826624,-0.0104266,0.00714478,-0.00212043,-0.0165724,0.710375,0.0104137,0.0339479,1756,1611,15.7503,-24.9027
539,-587,15.8862,24.3069,0,0,0,0,0,0,0,-1,1763,1611,15.8862,-24.3068
546,-587,16.0179,23.7769,0,0,0,0,0,0,0,-1,1770,1611,16.018,-23.7768
553,-587,7.5813,8.45068,0,0,0,0,0,0,0,-1,1777,1611,7.58125,-8.45068
560,-587,4.21179,5.23547,0,0,0,0,0,0,0,-1,1784,1611,4.21185,-5.23553
567,-587,4.03711,5.46387,0,0,0,0,0,0,0,-1,1791,1611,4.03715,-5.46382
574,-587,3.83142,5.68884,0,0,0,0,0,0,0,-1,1798,1611,3.83141,-5.68881
581,-587,3.47168,6.00977,0,0,0,0,0,0,0,-1,1805,1611,3.47167,-6.00983
588,-587,0,0,0,0,0,0,0,0,0,-1,1812,1611,0,0
595,-587,0,0,0,0,0,0,0,0,0,-1,1819,1611,0,0
602,-587,0,0,0,0,0,0,0,0,0,-1,1826,1611,0,0
609,-587,0,0,0,0,0,0,0,0,0,-1,1833,1611,0,0
616,-587,0,0,0,0,0,0,0,0,0,-1,1840,1611,0,0
623,-587,0,0,0,0,0,0,0,0,0,-1,1847,1611,0,0
630,-587,0,0,0,0,0,0,0,0,0,-1,1854,1611,0,0
637,-587,0,0,0,0,0,0,0,0,0,-1,1861,1611,0,0
644,-587,0,0,0,0,0,0,0,0,0,-1,1868,1611,0,0
651,-587,0,0,0,0,0,0,0,0,0,-1,1875,1611,0,0
658,-587,0,0,0,0,0,0,0,0,0,-1,1882,1611,0,0
665,-587,0,0,0,0,0,0,0,0,0,-1,1889,1611,0,0
672,-587,0,0,0,0,0,0,0,0,0,-1,1896,1611,0,0
679,-587,0,0,0,0,0,0,0,0,0,-1,1903,1611,0,0
686,-587,0,0,0,0,0,0,0,0,0,-1,1910,1611,0,0
693,-587,0,0,0,0,0,0,0,0,0,-1,1917,1611,0,0
700,-587,0,0,0,0,0,0,0,0,0,-1,1924,1611,0,0
707,-587,0,0,0,0,0,0,0,0,0,-1,1931,1611,0,0
714,-587,0,0,0,0,0,0,0,0,0,-1,1938,1611,0,0
721,-587,0,0,0,0,0,0,0,0,0,-1,1945,1611,0,0
728,-587,0,0,0,0,0,0,0,0,0,-1,1952,1611,0,0
735,-587,0,0,0,0,0,0,0,0,0,-1,1959,1611,0,0
742,-587,0,0,0,0,0,0,0,0,0,-1,1966,1611,0,0
749,-587,0,0,0,0,0,0,0,0,0,-1,1973,1611,0,0
756,-587,0,0,0,0,0,0,0,0,0,-1,1980,1611,0,0
763,-587,0,0,0,0,0,0,0,0,0,-1,1987,1611,0,0
770,-587,0,0,0,0,0,0,0,0,0,-1,1994,1611,0,0
777,-587,0,0,0,0,0,0,0,0,0,-1,2001,1611,0,0
784,-587,0,0,0,0,0,0,0,0,0,-1,2008,1611,0,0
791,-587,0,0,0,0,0,0,0,0,0,-1,2015,1611,0,0
798,-587,0,0,0,0,0,0,0,0,0,-1,2022,1611,0,0
805,-587,0,0,0,0,0,0,0,0,0,-1,2029,1611,0,0
812,-587,0,0,0,0,0,0,0,0,0,-1,2036,1611,0,0
-700,-594,0,0,0,0,0,0,0,0,0,-1,524,1618,0,0
-693,-594,0,0,0,0,0,0,0,0,0,-1,531,1618,0,0
-686,-594,0,0,0,0,0,0,0,0,0,-1,538,1618,0,0
-679,-594,0,0,0,0,0,0,0,0,0,-1,545,1618,0,0
-672,-594,0,0,0,0,0,0,0,0,0,-1,552,1618,0,0
-665,-594,0,0,0,0,0,0,0,0,0,-1,559,1618,0,0
-658,-594,0,0,0,0,0,0,0,0,0,-1,566,1618,0,0
-651,-594,0,0,0,0,0,0,0,0,0,-1,573,1618,0,0
-644,-594,0,0,0,0,0,0,0,0,0,-1,580,1618,0,0
-637,-594,0,0,0,0,0,0,0,0,0,-1,587,1618,0,0
-630,-594,0,0,0,0,0,0,0,0,0,-1,594,1618,0,0
-623,-594,0,0,0,0,0,0,0,0,0,-1,601,1618,0,0
-616,-594,0,0,0,0,0,0,0,0,0,-1,608,1618,0,0
-609,-594,0,0,0,0,0,0,0,0,0,-1,615,1618,0,0
-602,-594,0,0,0,0,0,0,0,0,0,-1,622,1618,0,0
-595,-594,0,0,0,0,0,0,0,0,0,-1,629,1618,0,0
-588,-594,0,0,0,0,0,0,0,0,0,-1,636,1618,0,0
-581,-594,0,0,0,0,0,0,0,0,0,-1,643,1618,0,0
-574,-594,0,0,0,0,0,0,0,0,0,-1,650,1618,0,0
-567,-594,0,0,0,0,0,0,0,0,0,-1,657,1618,0,0
-560,-594,0,0,0,0,0,0,0,0,0,-1,664,1618,0,0
-553,-594,0,0,0,0,0,0,0,0,0,-1,671,1618,0,0
-546,-594,0,0,0,0,0,0,0,0,0,-1,678,1618,0,0
-539,-594,0,0,0,0,0,0,0,0,0,-1,685,1618,0,0
-532,-594,0,0,0,0,0,0,0,0,0,-1,692,1618,0,0
-525,-594,0,0,0,0,0,0,0,0,0,-1,699,1618,0,0
-518,-594,0,0,0,0,0,0,0,0,0,-1,706,1618,0,0
-511,-594,0,0,0,0,0,0,0,0,0,-1,713,1618,0,0
-504,-594,0,0,0,0,0,0,0,0,0,-1,720,1618,0,0
-497,-594,0,0,0,0,0,0,0,0,0,-1,727,1618,0,0
-490,-594,0,0,0,0,0,0,0,0,0,-1,734,1618,0,0
-483,-594,0,0,0,0,0,0,0,0,0,-1,741,1618,0,0
-476,-594,0,0,0,0,0,0,0,0,0,-1,748,1618,0,0
-469,-594,0,0,0,0,0,0,0,0,0,-1,755,1618,0,0
-462,-594,0,0,0,0,0,0,0,0,0,-1,762,1618,0,0
-455,-594,-0.509216,-1.58411,0,0,0,0,0,0,0,-1,769,1618,-0.509245,1.58415
-448,-594,-7.71887,-0.0559082,0,0,0,0,0,0,0,-1,776,1618,-7.71885,0.055939
-441,-594,-5.78473,1.18298,0,0,0,0,0,0,0,-1,783,1618,-5.78474,-1.18295
-434,-594,-3.93628,3.06213,0,0,0,0,0,0,0,-1,790,1618,-3.93631,-3.06208
-427,-594,-3.97693,6.77759,0,0,0,0,0,0,0,-1,797,1618,-3.97695,-6.77764
-420,-594,-2.53046,7.71606,0,0,0,0,0,0,0,-1,804,1618,-2.53047,-7.71609
-413,-594,-0.860413,8.00391,0,0,0,0,0,0,0,-1,811,1618,-0.860423,-8.00389
-406,-594,2.45746,13.6218,0,0,0,0,0,0,0,-1,818,1618,2.45747,-13.6218
-399,-594,2.51508,22.5181,0,0,0,0,0,0,0,-1,825,1618,2.51507,-22.518
-392,-594,1.92017,24.6682,0,0,0,0,0,0,0,-1,832,1618,1.92018,-24.6682
-385,-594,1.77863,25.0773,-0.00406476,-0.00364594,-0.000669603,-0.00315376,-0.00455693,-0.936951,0.00269488,0.0363369,839,1618,1.7786,-25.0773
-378,-594,1.63055,25.4623,-0.00319358,-0.00299863,-0.000335041,-0.00274717,-0.00344504,-0.926955,0.00210303,0.0166496,846,1618,1.63056,-25.4623
-371,-594,1.64349,26.0374,-0.00246466,-0.00230192,-0.000112346,-0.00224457,-0.00252201,-1.09881,0.00159691,0.012427,853,1618,1.6435,-26.0374
-364,-594,1.63379,26.5518,-0.00177131,-0.00164227,0.000121126,-0.00156955,-0.00184403,1.03013,0.00114884,0.0115907,860,1618,1.63377,-26.5517
-357,-594,1.61322,27.072,-0.000980474,-0.00087805,0.000442607,-0.000483702,-0.00137482,0.842995,0.000805287,0.0119104,867,1618,1.61322,-27.072
-350,-594,1.58826,27.6329,-0.000121937,-0.00012244,0.000780981,0.000658793,-0.00090317,0.785237,0.000905471,0.0161231,874,1618,1.58825,-27.6329
-343,-594,1.55811,28.1835,0.000712444,0.000749675,0.00118342,0.00191462,-0.000452502,0.793263,0.00145096,0.0179794,881,1618,1.55808,-28.1834
-336,-594,1.53253,28.6548,0.00152347,0.00172642,0.00166365,0.00329169,-4.179e-05,0.815858,0.00220852,0.0153482,888,1618,1.5325,-28.6547
-329,-594,1.52661,29.1592,0.00228114,0.00284481,0.00210891,0.00469063,0.000435323,0.851825,0.00299256,0.0154046,895,1618,1.52661,-29.1592
-322,-594,1.54974,29.7087,0.00293474,0.00395687,0.0025719,0.00606799,0.000823617,0.883476,0.00380065,0.0177309,902,1618,1.54976,-29.7087
-315,-594,1.53998,30.2129,0.00354823,0.00512557,0.00302613,0.00746411,0.00120969,0.912872,0.00462587,0.017249,909,1618,1.53996,-30.2129
-308,-594,1.521,30.6974,0.00427137,0.00624911,0.00349085,0.00888845,0.00163203,0.92342,0.00546349,0.0158505,916,1618,1.52102,-30.6974
-301,-594,1.5025,31.1584,0.0052816,0.00735471,0.00416674,0.0106119,0.00202442,0.907308,0.00650564,0.0134106,923,1618,1.50253,-31.1585
-294,-594,1.53705,31.6583,0.00657572,0.00846829,0.00506344,0.0126731,0.0023709,0.877775,0.0077798,0.0152105,930,1618,1.53702,-31.6584
-287,-594,1.4679,32.1602,0.008013,0.00989485,0.00607362,0.0151,0.00280786,0.862247,0.00927351,0.0249763,937,1618,1.46788,-32.1602
-280,-594,1.45752,32.7642,0,0,0,0,0,0,0,-1,944,1618,1.45751,-32.7641
-273,-594,1.55963,33.3545,0,0,0,0,0,0,0,-1,951,1618,1.55963,-33.3545
-266,-594,1.7569,34.0842,0,0,0,0,0,0,0,-1,958,1618,1.75687,-34.0843
-259,-594,1.71112,34.1356,0,0,0,0,0,0,0,-1,965,1618,1.71115,-34.1356
-252,-594,2.13489,34.6427,0,0,0,0,0,0,0,-1,972,1618,2.13487,-34.6427
-245,-594,2.27759,35.1766,0,0,0,0,0,0,0,-1,979,1618,2.27756,-35.1766
-238,-594,2.09015,28.0121,0,0,0,0,0,0,0,-1,986,1618,2.09012,-28.0121
-231,-594,1.93774,9.35388,0,0,0,0,0,0,0,-1,993,1618,1.93776,-9.35393
-224,-594,1.81824,8.62744,0,0,0,0,0,0,0,-1,1000,1618,1.81822,-8.62745
-217,-594,-8.24066,12.0752,0,0,0,0,0,0,0,-1,1007,1618,-8.24068,-12.0751
-210,-594,-5.61438,14.2119,0,0,0,0,0,0,0,-1,1014,1618,-5.6144,-14.212
-203,-594,-3.94507,15.5768,0,0,0,0,0,0,0,-1,1021,1618,-3.94506,-15.5768
-196,-594,2.78613,10.5815,0,0,0,0,0,0,0,-1,1028,1618,2.78612,-10.5815
-189,-594,2.60913,9.48865,0,0,0,0,0,0,0,-1,1035,1618,2.6091,-9.48871
-182,-594,1.2395,9.38806,0,0,0,0,0,0,0,-1,1042,1618,1.23951,-9.38804
-175,-594,0.234863,8.73792,0,0,0,0,0,0,0,-1,1049,1618,0.234812,-8.73786
-168,-594,-0.495483,8.46289,0,0,0,0,0,0,0,-1,1056,1618,-0.495513,-8.46285
-161,-594,-1.39734,8.28699,0,0,0,0,0,0,0,-1,1063,1618,-1.39729,-8.28699
-154,-594,-0.000854492,7.68445,0,0,0,0,0,0,0,-1,1070,1618,-0.000805755,-7.6845
-147,-594,0.348267,9.3385,0,0,0,0,0,0,0,-1,1077,1618,0.348237,-9.33849
-140,-594,0.675171,11.5884,0,0,0,0,0,0,0,-1,1084,1618,0.675204,-11.5884
-133,-594,0,0,0,0,0,0,0,0,0,-1,1091,1618,0,0
-126,-594,0,0,0,0,0,0,0,0,0,-1,1098,1618,0,0
-119,-594,0,0,0,0,0,0,0,0,0,-1,1105,1618,0,0
-112,-594,0,0,0,0,0,0,0,0,0,-1,1112,1618,0,0
-105,-594,0,0,0,0,0,0,0,0,0,-1,1119,1618,0,0
-98,-594,0,0,0,0,0,0,0,0,0,-1,1126,1618,0,0
-91,-594,0,0,0,0,0,0,0,0,0,-1,1133,1618,0,0
-84,-594,0,0,0,0,0,0,0,0,0,-1,1140,1618,0,0
-77,-594,0,0,0,0,0,0,0,0,0,-1,1147,1618,0,0
-70,-594,0,0,0,0,0,0,0,0,0,-1,1154,1618,0,0
-63,-594,0,0,0,0,0,0,0,0,0,-1,1161,1618,0,0
-56,-594,0,0,0,0,0,0,0,0,0,-1,1168,1618,0,0
-49,-594,0,0,0,0,0,0,0,0,0,-1,1175,1618,0,0
-42,-594,0,0,0,0,0,0,0,0,0,-1,1182,1618,0,0
-35,-594,0,0,0,0,0,0,0,0,0,-1,1189,1618,0,0
-28,-594,0,0,0,0,0,0,0,0,0,-1,1196,1618,0,0
-21,-594,0,0,0,0,0,0,0,0,0,-1,1203,1618,0,0
-14,-594,0,0,0,0,0,0,0,0,0,-1,1210,1618,0,0
-7,-594,0,0,0,0,0,0,0,0,0,-1,1217,1618,0,0
0,-594,0,0,0,0,0,0,0,0,0,-1,1224,1618,0,0
7,-594,0,0,0,0,0,0,0,0,0,-1,1231,1618,0,0
14,-594,0,0,0,0,0,0,0,0,0,-1,1238,1618,0,0
21,-594,0,0,0,0,0,0,0,0,0,-1,1245,1618,0,0
28,-594,0,0,0,0,0,0,0,0,0,-1,1252,1618,0,0
35,-594,0,0,0,0,0,0,0,0,0,-1,1259,1618,0,0
42,-594,0,0,0,0,0,0,0,0,0,-1,1266,1618,0,0
49,-594,0,0,0,0,0,0,0,0,0,-1,1273,1618,0,0
56,-594,0,0,0,0,0,0,0,0,0,-1,1280,1618,0,0
63,-594,0,0,0,0,0,0,0,0,0,-1,1287,1618,0,0
70,-594,0,0,0,0,0,0,0,0,0,-1,1294,1618,0,0
77,-594,0,0,0,0,0,0,0,0,0,-1,1301,1618,0,0
84,-594,0,0,0,0,0,0,0,0,0,-1,1308,1618,0,0
91,-594,0,0,0,0,0,0,0,0,0,-1,1315,1618,0,0
98,-594,0,0,0,0,0,0,0,0,0,-1,1322,1618,0,0
105,-594,0,0,0,0,0,0,0,0,0,-1,1329,1618,0,0
112,-594,0,0,0,0,0,0,0,0,0,-1,1336,1618,0,0
119,-594,0,0,0,0,0,0,0,0,0,-1,1343,1618,0,0
126,-594,0,0,0,0,0,0,0,0,0,-1,1350,1618,0,0
133,-594,0,0,0,0,0,0,0,0,0,-1,1357,1618,0,0
140,-594,0,0,0,0,0,0,0,0,0,-1,1364,1618,0,0
147,-594,0,0,0,0,0,0,0,0,0,-1,1371,1618,0,0
154,-594,0,0,0,0,0,0,0,0,0,-1,1378,1618,0,0
161,-594,0,0,0,0,0,0,0,0,0,-1,1385,1618,0,0
168,-594,0,0,0,0,0,0,0,0,0,-1,1392,1618,0,0
175,-594,0,0,0,0,0,0,0,0,0,-1,1399,1618,0,0
182,-594,0,0,0,0,0,0,0,0,0,-1,1406,1618,0,0
189,-594,0,0,0,0,0,0,0,0,0,-1,1413,1618,0,0
196,-594,0,0,0,0,0,0,0,0,0,-1,1420,1618,0,0
203,-594,0,0,0,0,0,0,0,0,0,-1,1427,1618,0,0
210,-594,0,0,0,0,0,0,0,0,0,-1,1434,1618,0,0
217,-594,0,0,0,0,0,0,0,0,0,-1,1441,1618,0,0
224,-594,0,0,0,0,0,0,0,0,0,-1,1448,1618,0,0
231,-594,0,0,0,0,0,0,0,0,0,-1,1455,1618,0,0
238,-594,0,0,0,0,0,0,0,0,0,-1,1462,1618,0,0
245,-594,0,0,0,0,0,0,0,0,0,-1,1469,1618,0,0
252,-594,3.03674,1.20996,0,0,0,0,0,0,0,-1,1476,1618,3.0368,-1.20999
259,-594,4.79834,1.53113,0,0,0,0,0,0,0,-1,1483,1618,4.79837,-1.53118
266,-594,3.71606,2.68152,0,0,0,0,0,0,0,-1,1490,1618,3.71609,-2.68149
273,-594,9.7655,6.33557,0,0,0,0,0,0,0,-1,1497,1618,9.76555,-6.33554
280,-594,3.13281,0.911255,0,0,0,0,0,0,0,-1,1504,1618,3.13277,-0.911207
287,-594,4.42749,1.51563,0,0,0,0,0,0,0,-1,1511,1618,4.42747,-1.51564
294,-594,5.36475,3.34937,0,0,0,0,0,0,0,-1,1518,1618,5.36475,-3.3494
301,-594,7.97144,9.04333,0,0,0,0,0,0,0,-1,1525,1618,7.9714,-9.04328
308,-594,6.30347,10.4633,0,0,0,0,0,0,0,-1,1532,1618,6.30351,-10.4633
315,-594,4.62012,11.934,0,0,0,0,0,0,0,-1,1539,1618,4.62006,-11.934
322,-594,2.91528,13.3134,0,0,0,0,0,0,0,-1,1546,1618,2.91523,-13.3133
329,-594,4.19861,9.77258,0,0,0,0,0,0,0,-1,1553,1618,4.19865,-9.77264
336,-594,10.1353,4.66528,0,0,0,0,0,0,0,-1,1560,1618,10.1353,-4.66533
343,-594,10.5729,3.71228,0,0,0,0,0,0,0,-1,1567,1618,10.5729,-3.71232
350,-594,10.219,2.98792,0,0,0,0,0,0,0,-1,1574,1618,10.219,-2.98797
357,-594,9.83154,1.96326,0,0,0,0,0,0,0,-1,1581,1618,9.8315,-1.96321
364,-594,9.74939,0.700562,0,0,0,0,0,0,0,-1,1588,1618,9.74939,-0.700615
371,-594,8.54297,14.3988,0,0,0,0,0,0,0,-1,1595,1618,8.54296,-14.3989
378,-594,15.0978,35.7245,0,0,0,0,0,0,0,-1,1602,1618,15.0978,-35.7245
385,-594,14.6973,34.5239,0,0,0,0,0,0,0,-1,1609,1618,14.6972,-34.5239
392,-594,15.2042,34.6163,0,0,0,0,0,0,0,-1,1616,1618,15.2042,-34.6163
399,-594,15.3899,34.2007,0.00644443,0.016032,-0.00616567,0.0190482,0.00342822,-1.11583,0.0117243,0.0427419,1623,1618,15.3899,-34.2006
406,-594,15.4557,33.6912,0.0026433,0.0132968,-0.00345357,0.0143184,0.00162172,-1.28319,0.00905359,0.0264783,1630,1618,15.4556,-33.6912
413,-594,15.3912,33.2079,0.00031819,0.0113478,-0.00192811,0.0116751,-9.1535e-06,-1.40263,0.00778648,0.0189251,1637,1618,15.3913,-33.2079
420,-594,15.3696,32.7346,-0.00115894,0.00982324,-0.000858118,0.00988989,-0.00122559,-1.49329,0.00703745,0.0166564,1644,1618,15.3696,-32.7347
427,-594,15.3701,32.238,-0.00210379,0.0087167,-0.000296024,0.00872479,-0.00211188,-1.54347,0.00663351,0.0134321,1651,1618,15.3701,-32.2381
434,-594,15.345,31.7617,-0.00203996,0.00805225,-0.000469709,0.00807406,-0.00206177,-1.52439,0.00618558,0.0179445,1658,1618,15.3449,-31.7617
441,-594,15.3417,31.2518,-0.00139182,0.00766218,-0.000902373,0.00775124,-0.00148088,-1.47242,0.00572532,0.0167534,1665,1618,15.3417,-31.2519
448,-594,15.3756,30.7556,-0.000674067,0.00676683,-0.00124946,0.00697104,-0.00087827,-1.4088,0.00496607,0.0172931,1672,1618,15.3756,-30.7557
455,-594,15.3223,30.2581,-0.000160761,0.00562697,-0.00146744,0.00597777,-0.000511561,-1.33615,0.00416618,0.0126547,1679,1618,15.3223,-30.258
462,-594,15.3064,29.7974,0.000289512,0.00444381,-0.00152028,0.00494072,-0.000207403,-1.25489,0.00336508,0.0135485,1686,1618,15.3064,-29.7973
469,-594,15.2998,29.3383,0.000532137,0.00311588,-0.00136146,0.00370085,-5.2825e-05,-1.16499,0.00248503,0.0125037,1693,1618,15.2998,-29.3383
476,-594,15.2859,28.8542,0.000463911,0.0017001,-0.000969157,0.00223149,-6.74755e-05,-1.06926,0.00151065,0.0127556,1700,1618,15.2859,-28.8542
483,-594,15.2727,28.3561,0.000249336,8.76733e-05,-0.000559986,0.000734295,-0.000397285,-0.71372,0.000662906,0.0155453,1707,1618,15.2727,-28.3561
490,-594,15.249,27.8458,-0.00021252,-0.001382,7.23158e-05,-0.000208065,-0.00138646,0.0615234,0.000863347,0.0136364,1714,1618,15.249,-27.8458
497,-594,15.2244,27.3416,-0.000671384,-0.00276353,0.000631597,-0.000495499,-0.00293942,0.271596,0.00181711,0.0102253,1721,1618,15.2244,-27.3415
504,-594,15.2145,26.8385,-0.00165685,-0.00425339,0.00145252,-0.00100696,-0.00490328,0.420707,0.00299026,0.0107122,1728,1618,15.2145,-26.8384
511,-594,15.2029,26.3127,-0.00341225,-0.00599737,0.00284051,-0.00158404,-0.00782558,0.571877,0.00477739,0.016225,1735,1618,15.2029,-26.3127
518,-594,15.1307,25.7817,-0.00489664,-0.00778312,0.00405187,-0.00203865,-0.0106411,0.614308,0.00652161,0.0215726,1742,1618,15.1307,-25.7817
525,-594,15.0765,25.2932,-0.00686942,-0.00975694,0.00572583,-0.00240813,-0.0142182,0.661898,0.0087868,0.0343253,1749,1618,15.0766,-25.2932
532,-594,15.5459,24.874,0,0,0,0,0,0,0,-1,1756,1618,15.5459,-24.8741
539,-594,17.6633,23.5792,0,0,0,0,0,0,0,-1,1763,1618,17.6634,-23.5792
546,-594,7.48645,8.54785,0,0,0,0,0,0,0,-1,1770,1618,7.48639,-8.54789
553,-594,3.69714,5.68762,0,0,0,0,0,0,0,-1,1777,1618,3.69715,-5.68764
560,-594,6.06616,4.44482,0,0,0,0,0,0,0,-1,1784,1618,6.06621,-4.44477
567,-594,5.97266,4.73303,0,0,0,0,0,0,0,-1,1791,1618,5.97271,-4.73309
574,-594,5.9906,4.96326,0,0,0,0,0,0,0,-1,1798,1618,5.99065,-4.96326
581,-594,0,0,0,0,0,0,0,0,0,-1,1805,1618,0,0
588,-594,0,0,0,0,0,0,0,0,0,-1,1812,1618,0,0
595,-594,0,0,0,0,0,0,0,0,0,-1,1819,1618,0,0
602,-594,0,0,0,0,0,0,0,0,0,-1,1826,1618,0,0
609,-594,0,0,0,0,0,0,0,0,0,-1,1833,1618,0,0
616,-594,0,0,0,0,0,0,0,0,0,-1,1840,1618,0,0
623,-594,0,0,0,0,0,0,0,0,0,-1,1847,1618,0,0
630,-594,0,0,0,0,0,0,0,0,0,-1,1854,1618,0,0
637,-594,0,0,0,0,0,0,0,0,0,-1,1861,1618,0,0
644,-594,0,0,0,0,0,0,0,0,0,-1,1868,1618,0,0
651,-594,0,0,0,0,0,0,0,0,0,-1,1875,1618,0,0
658,-594,0,0,0,0,0,0,0,0,0,-1,1882,1618,0,0
665,-594,0,0,0,0,0,0,0,0,0,-1,1889,1618,0,0
672,-594,0,0,0,0,0,0,0,0,0,-1,1896,1618,0,0
679,-594,0,0,0,0,0,0,0,0,0,-1,1903,1618,0,0
686,-594,0,0,0,0,0,0,0,0,0,-1,1910,1618,0,0
693,-594,0,0,0,0,0,0,0,0,0,-1,1917,1618,0,0
700,-594,0,0,0,0,0,0,0,0,0,-1,1924,1618,0,0
707,-594,0,0,0,0,0,0,0,0,0,-1,1931,1618,0,0
714,-594,0,0,0,0,0,0,0,0,0,-1,1938,1618,0,0
721,-594,0,0,0,0,0,0,0,0,0,-1,1945,1618,0,0
728,-594,0,0,0,0,0,0,0,0,0,-1,1952,1618,0,0
735,-594,0,0,0,0,0,0,0,0,0,-1,1959,1618,0,0
742,-594,0,0,0,0,0,0,0,0,0,-1,1966,1618,0,0
749,-594,0,0,0,0,0,0,0,0,0,-1,1973,1618,0,0
756,-594,0,0,0,0,0,0,0,0,0,-1,1980,1618,0,0
763,-594,0,0,0,0,0,0,0,0,0,-1,1987,1618,0,0
770,-594,0,0,0,0,0,0,0,0,0,-1,1994,1618,0,0
777,-594,0,0,0,0,0,0,0,0,0,-1,2001,1618,0,0
784,-594,0,0,0,0,0,0,0,0,0,-1,2008,1618,0,0
791,-594,0,0,0,0,0,0,0,0,0,-1,2015,1618,0,0
798,-594,0,0,0,0,0,0,0,0,0,-1,2022,1618,0,0
805,-594,0,0,0,0,0,0,0,0,0,-1,2029,1618,0,0
812,-594,0,0,0,0,0,0,0,0,0,-1,2036,1618,0,0
-700,-601,0,0,0,0,0,0,0,0,0,-1,524,1625,0,0
-693,-601,0,0,0,0,0,0,0,0,0,-1,531,1625,0,0
-686,-601,0,0,0,0,0,0,0,0,0,-1,538,1625,0,0
-679,-601,0,0,0,0,0,0,0,0,0,-1,545,1625,0,0
-672,-601,0,0,0,0,0,0,0,0,0,-1,552,1625,0,0
-665,-601,0,0,0,0,0,0,0,0,0,-1,559,1625,0,0
-658,-601,0,0,0,0,0,0,0,0,0,-1,566,1625,0,0
-651,-601,0,0,0,0,0,0,0,0,0,-1,573,1625,0,0
-644,-601,0,0,0,0,0,0,0,0,0,-1,580,1625,0,0
-637,-601,0,0,0,0,0,0,0,0,0,-1,587,1625,0,0
-630,-601,0,0,0,0,0,0,0,0,0,-1,594,1625,0,0
-623,-601,0,0,0,0,0,0,0,0,0,-1,601,1625,0,0
-616,-601,0,0,0,0,0,0,0,0,0,-1,608,1625,0,0
-609,-601,0,0,0,0,0,0,0,0,0,-1,615,1625,0,0
-602,-601,0,0,0,0,0,0,0,0,0,-1,622,1625,0,0
-595,-601,0,0,0,0,0,0,0,0,0,-1,629,1625,0,0
-588,-601,0,0,0,0,0,0,0,0,0,-1,636,1625,0,0
-581,-601,0,0,0,0,0,0,0,0,0,-1,643,1625,0,0
-574,-601,0,0,0,0,0,0,0,0,0,-1,650,1625,0,0
-567,-601,0,0,0,0,0,0,0,0,0,-1,657,1625,0,0
-560,-601,0,0,0,0,0,0,0,0,0,-1,664,1625,0,0
-553,-601,0,0,0,0,0,0,0,0,0,-1,671,1625,0,0
-546,-601,0,0,0,0,0,0,0,0,0,-1,678,1625,0,0
-539,-601,0,0,0,0,0,0,0,0,0,-1,685,1625,0,0
-532,-601,0,0,0,0,0,0,0,0,0,-1,692,1625,0,0
-525,-601,0,0,0,0,0,0,0,0,0,-1,699,1625,0,0
-518,-601,0,0,0,0,0,0,0,0,0,-1,706,1625,0,0
-511,-601,0,0,0,0,0,0,0,0,0,-1,713,1625,0,0
-504,-601,0,0,0,0,0,0,0,0,0,-1,720,1625,0,0
-497,-601,0,0,0,0,0,0,0,0,0,-1,727,1625,0,0
-490,-601,0,0,0,0,0,0,0,0,0,-1,734,1625,0,0
-483,-601,0,0,0,0,0,0,0,0,0,-1,741,1625,0,0
-476,-601,0,0,0,0,0,0,0,0,0,-1,748,1625,0,0
-469,-601,0,0,0,0,0,0,0,0,0,-1,755,1625,0,0
-462,-601,0,0,0,0,0,0,0,0,0,-1,762,1625,0,0
-455,-601,0,0,0,0,0,0,0,0,0,-1,769,1625,0,0
-448,-601,-7.07623,2.7616,0,0,0,0,0,0,0,-1,776,1625,-7.07626,-2.76161
-441,-601,-6.06689,3.33447,0,0,0,0,0,0,0,-1,783,1625,-6.06691,-3.33448
-434,-601,-5.02655,3.8468,0,0,0,0,0,0,0,-1,790,1625,-5.02657,-3.84674
-427,-601,-5.78601,4.2406,0,0,0,0,0,0,0,-1,797,1625,-5.786,-4.24058
-420,-601,-5.5191,5.60364,0,0,0,0,0,0,0,-1,804,1625,-5.51907,-5.60368
-413,-601,-4.30756,5.86047,0,0,0,0,0,0,0,-1,811,1625,-4.30757,-5.86046
-406,-601,-1.67493,7.20422,0,0,0,0,0,0,0,-1,818,1625,-1.67493,-7.20428
-399,-601,1.40094,15.3108,0,0,0,0,0,0,0,-1,825,1625,1.40096,-15.3107
-392,-601,2.09515,24.6663,0,0,0,0,0,0,0,-1,832,1625,2.09513,-24.6662
-385,-601,2.17896,25.2292,-0.00491853,-0.00464018,-0.000841923,-0.00392601,-0.0056327,-0.867311,0.00333512,0.04996,839,1625,2.17893,-25.2293
-378,-601,2.20819,25.6101,-0.00395274,-0.00378836,-0.000464274,-0.00339906,-0.00434204,-0.873003,0.00263718,0.0462636,846,1625,2.20816,-25.6101
-371,-601,2.13873,25.9967,-0.00330945,-0.00273713,-0.000174182,-0.00268829,-0.00335829,-1.2974,0.00205231,0.0249813,853,1625,2.13872,-25.9967
-364,-601,2.14874,26.5479,-0.00266206,-0.00201947,7.24508e-05,-0.0020114,-0.00267012,1.4599,0.00160618,0.0138862,860,1625,2.14872,-26.5478
-357,-601,2.12183,27.0829,-0.00186781,-0.00124584,0.000380922,-0.00106508,-0.00204857,1.12773,0.00118306,0.0114869,867,1625,2.12186,-27.0829
-350,-601,2.14294,27.682,-0.00105779,-0.000523338,0.000679372,-6.0525e-05,-0.0015206,0.972775,0.000994174,0.0222188,874,1625,2.14294,-27.6819
-343,-601,2.06812,28.2358,-0.000263052,0.000256525,0.00100408,0.00103388,-0.00104041,0.911988,0.0011976,0.0245317,881,1625,2.06813,-28.2359
-336,-601,2.01019,28.7372,0.00053846,0.00105496,0.0013848,0.00220538,-0.000611961,0.877584,0.00171111,0.0210934,888,1625,2.01017,-28.7372
-329,-601,2.02472,29.2361,0.00125119,0.00202998,0.00172412,0.00340813,-0.000126956,0.89646,0.00231556,0.017137,895,1625,2.02475,-29.2361
-322,-601,2.05243,29.739,0.00185562,0.00291552,0.00205701,0.00450975,0.000261386,0.911472,0.00292327,0.0133352,902,1625,2.05242,-29.739
-315,-601,2.05103,30.1971,0.0024199,0.00377644,0.00234437,0.00553868,0.000657655,0.926212,0.00349393,0.0133879,909,1625,2.05104,-30.1972
-308,-601,2.02539,30.6852,0.00308131,0.00459738,0.00262914,0.00657559,0.0011031,0.925752,0.00406621,0.0127776,916,1625,2.02538,-30.6852
-301,-601,2.02264,31.1823,0.00397458,0.0054145,0.00308624,0.00786365,0.00152543,0.899989,0.00481518,0.0112616,923,1625,2.02267,-31.1822
-294,-601,1.99951,31.6743,0.00509943,0.00628205,0.00373425,0.00947152,0.00190996,0.86392,0.00578379,0.0111459,930,1625,1.99951,-31.6744
-287,-601,1.95856,32.1952,0.00627763,0.00738366,0.00442428,0.0112894,0.00237194,0.847573,0.00687339,0.0117035,937,1625,1.95854,-32.1952
-280,-601,1.9801,32.6903,0.00772319,0.0084921,0.00524233,0.0133641,0.00285124,0.822001,0.00812742,0.0157089,944,1625,1.9801,-32.6904
-273,-601,1.98834,33.2091,0.00929933,0.009296,0.00607963,0.0153773,0.00321804,0.785261,0.009365,0.0176812,951,1625,1.98835,-33.2091
-266,-601,2.05048,33.729,0.0109718,0.0104217,0.00707239,0.0177745,0.00361902,0.765963,0.0108465,0.0199271,958,1625,2.05046,-33.729
-259,-601,2.11847,34.1249,0.0130257,0.0111151,0.00819892,0.0203248,0.003816,0.7274,0.012474,0.028398,965,1625,2.1185,-34.1249
-252,-601,2.38422,34.6344,0.01559,0.0118512,0.0095169,0.0234193,0.0040218,0.688418,0.0144599,0.0448925,972,1625,2.38423,-34.6344
-245,-601,2.54712,35.1956,0.018097,0.0125522,0.0109105,0.0265819,0.00406738,0.66098,0.0165331,0.049903,979,1625,2.54712,-35.1955
-238,-601,2.75482,35.777,0,0,0,0,0,0,0,-1,986,1625,2.75481,-35.777
-231,-601,2.66772,13.7051,0,0,0,0,0,0,0,-1,993,1625,2.6677,-13.7051
-224,-601,-0.0305176,9.13684,0,0,0,0,0,0,0,-1,1000,1625,-0.030498,-9.13681
-217,-601,3.39429,10.3898,0,0,0,0,0,0,0,-1,1007,1625,3.39431,-10.3898
-210,-601,-6.53699,15.7931,0,0,0,0,0,0,0,-1,1014,1625,-6.53697,-15.7931
-203,-601,2.69348,15.9099,0,0,0,0,0,0,0,-1,1021,1625,2.69351,-15.91
-196,-601,2.66992,16.1815,0,0,0,0,0,0,0,-1,1028,1625,2.66995,-16.1815
-189,-601,2.849,16.6105,0,0,0,0,0,0,0,-1,1035,1625,2.84902,-16.6104
-182,-601,1.82153,13.9752,0,0,0,0,0,0,0,-1,1042,1625,1.82155,-13.9752
-175,-601,0.544922,9.28687,0,0,0,0,0,0,0,-1,1049,1625,0.544879,-9.28685
-168,-601,-0.247559,8.97461,0,0,0,0,0,0,0,-1,1056,1625,-0.247598,-8.97466
-161,-601,-1.16833,8.80078,0,0,0,0,0,0,0,-1,1063,1625,-1.16837,-8.80081
-154,-601,1.12756,7.94861,0,0,0,0,0,0,0,-1,1070,1625,1.12762,-7.94855
-147,-601,1.35352,9.55432,0,0,0,0,0,0,0,-1,1077,1625,1.35351,-9.55429
-140,-601,1.72437,11.1498,0,0,0,0,0,0,0,-1,1084,1625,1.72432,-11.1498
-133,-601,2.13281,12.8347,0,0,0,0,0,0,0,-1,1091,1625,2.13287,-12.8348
-126,-601,3.09534,15.427,0,0,0,0,0,0,0,-1,1098,1625,3.0953,-15.4271
-119,-601,1.22485,9.43457,0,0,0,0,0,0,0,-1,1105,1625,1.22489,-9.43456
-112,-601,0,0,0,0,0,0,0,0,0,-1,1112,1625,0,0
-105,-601,0,0,0,0,0,0,0,0,0,-1,1119,1625,0,0
-98,-601,0,0,0,0,0,0,0,0,0,-1,1126,1625,0,0
-91,-601,0,0,0,0,0,0,0,0,0,-1,1133,1625,0,0
-84,-601,0,0,0,0,0,0,0,0,0,-1,1140,1625,0,0
-77,-601,0,0,0,0,0,0,0,0,0,-1,1147,1625,0,0
-70,-601,0,0,0,0,0,0,0,0,0,-1,1154,1625,0,0
-63,-601,0,0,0,0,0,0,0,0,0,-1,1161,1625,0,0
-56,-601,0,0,0,0,0,0,0,0,0,-1,1168,1625,0,0
-49,-601,0,0,0,0,0,0,0,0,0,-1,1175,1625,0,0
-42,-601,0,0,0,0,0,0,0,0,0,-1,1182,1625,0,0
-35,-601,0,0,0,0,0,0,0,0,0,-1,1189,1625,0,0
-28,-601,0,0,0,0,0,0,0,0,0,-1,1196,1625,0,0
-21,-601,0,0,0,0,0,0,0,0,0,-1,1203,1625,0,0
-14,-601,0,0,0,0,0,0,0,0,0,-1,1210,1625,0,0
-7,-601,0,0,0,0,0,0,0,0,0,-1,1217,1625,0,0
0,-601,0,0,0,0,0,0,0,0,0,-1,1224,1625,0,0
7,-601,0,0,0,0,0,0,0,0,0,-1,1231,1625,0,0
14,-601,0,0,0,0,0,0,0,0,0,-1,1238,1625,0,0
21,-601,0,0,0,0,0,0,0,0,0,-1,1245,1625,0,0
28,-601,0,0,0,0,0,0,0,0,0,-1,1252,1625,0,0
35,-601,0,0,0,0,0,0,0,0,0,-1,1259,1625,0,0
42,-601,0,0,0,0,0,0,0,0,0,-1,1266,1625,0,0
49,-601,0,0,0,0,0,0,0,0,0,-1,1273,1625,0,0
56,-601,0,0,0,0,0,0,0,0,0,-1,1280,1625,0,0
63,-601,0,0,0,0,0,0,0,0,0,-1,1287,1625,0,0
70,-601,0,0,0,0,0,0,0,0,0,-1,1294,1625,0,0
77,-601,0,0,0,0,0,0,0,0,0,-1,1301,1625,0,0
84,-601,0,0,0,0,0,0,0,0,0,-1,1308,1625,0,0
91,-601,0,0,0,0,0,0,0,0,0,-1,1315,1625,0,0
98,-601,0,0,0,0,0,0,0,0,0,-1,1322,1625,0,0
105,-601,0,0,0,0,0,0,0,0,0,-1,1329,1625,0,0
112,-601,0,0,0,0,0,0,0,0,0,-1,1336,1625,0,0
119,-601,0,0,0,0,0,0,0,0,0,-1,1343,1625,0,0
126,-601,0,0,0,0,0,0,0,0,0,-1,1350,1625,0,0
133,-601,0,0,0,0,0,0,0,0,0,-1,1357,1625,0,0
140,-601,0,0,0,0,0,0,0,0,0,-1,1364,1625,0,0
147,-601,0,0,0,0,0,0,0,0,0,-1,1371,1625,0,0
154,-601,0,0,0,0,0,0,0,0,0,-1,1378,1625,0,0
161,-601,0,0,0,0,0,0,0,0,0,-1,1385,1625,0,0
168,-601,0,0,0,0,0,0,0,0,0,-1,1392,1625,0,0
175,-601,0,0,0,0,0,0,0,0,0,-1,1399,1625,0,0
182,-601,0,0,0,0,0,0,0,0,0,-1,1406,1625,0,0
189,-601,0,0,0,0,0,0,0,0,0,-1,1413,1625,0,0
196,-601,0,0,0,0,0,0,0,0,0,-1,1420,1625,0,0
203,-601,0,0,0,0,0,0,0,0,0,-1,1427,1625,0,0
210,-601,0,0,0,0,0,0,0,0,0,-1,1434,1625,0,0
217,-601,0,0,0,0,0,0,0,0,0,-1,1441,1625,0,0
224,-601,0,0,0,0,0,0,0,0,0,-1,1448,1625,0,0
231,-601,-0.0371094,0.525879,0,0,0,0,0,0,0,-1,1455,1625,-0.0371518,-0.525824
238,-601,2.03369,-1.32861,0,0,0,0,0,0,0,-1,1462,1625,2.03364,1.32858
245,-601,2.71375,2.44983,0,0,0,0,0,0,0,-1,1469,1625,2.71371,-2.44979
252,-601,4.66943,2.28381,0,0,0,0,0,0,0,-1,1476,1625,4.66947,-2.28376
259,-601,6.42712,2.61987,0,0,0,0,0,0,0,-1,1483,1625,6.42711,-2.61985
266,-601,6.75317,1.68701,0,0,0,0,0,0,0,-1,1490,1625,6.75323,-1.687
273,-601,5.4314,2.92053,0,0,0,0,0,0,0,-1,1497,1625,5.43144,-2.92051
280,-601,4.64722,1.17786,0,0,0,0,0,0,0,-1,1504,1625,4.64722,-1.1779
287,-601,5.32532,2.6217,0,0,0,0,0,0,0,-1,1511,1625,5.32535,-2.62171
294,-601,5.97693,4.22693,0,0,0,0,0,0,0,-1,1518,1625,5.97697,-4.22694
301,-601,7.28162,9.50024,0,0,0,0,0,0,0,-1,1525,1625,7.28162,-9.50025
308,-601,6.53528,10.3927,0,0,0,0,0,0,0,-1,1532,1625,6.53529,-10.3927
315,-601,4.88013,11.7184,0,0,0,0,0,0,0,-1,1539,1625,4.88015,-11.7184
322,-601,3.38098,12.7864,0,0,0,0,0,0,0,-1,1546,1625,3.38104,-12.7864
329,-601,1.8772,13.8768,0,0,0,0,0,0,0,-1,1553,1625,1.87716,-13.8768
336,-601,4.67847,9.53308,0,0,0,0,0,0,0,-1,1560,1625,4.67848,-9.53309
343,-601,11.1404,3.14575,0,0,0,0,0,0,0,-1,1567,1625,11.1404,-3.1458
350,-601,10.9462,2.37769,0,0,0,0,0,0,0,-1,1574,1625,10.9461,-2.37764
357,-601,10.7518,1.6095,0,0,0,0,0,0,0,-1,1581,1625,10.7518,-1.60948
364,-601,5.33643,9.74426,0,0,0,0,0,0,0,-1,1588,1625,5.33637,-9.74429
371,-601,13.8409,37.1213,0,0,0,0,0,0,0,-1,1595,1625,13.841,-37.1214
378,-601,14.6521,35.9287,0,0,0,0,0,0,0,-1,1602,1625,14.6521,-35.9287
385,-601,14.6863,34.7701,0.0171794,0.0224652,-0.0144041,0.0344668,0.00517777,-0.876129,0.0214612,0.047062,1609,1625,14.6863,-34.7701
392,-601,14.7103,34.5201,0.0117268,0.0175948,-0.00979706,0.0248877,0.0044338,-0.930887,0.0153291,0.0427218,1616,1625,14.7104,-34.5201
399,-601,14.8411,34.1086,0.00737129,0.0139478,-0.00614009,0.0176247,0.00369439,-1.03123,0.0107324,0.0219762,1623,1625,14.8411,-34.1087
406,-601,14.9161,33.5754,0.00412784,0.0112547,-0.00371826,0.0128414,0.00254118,-1.16747,0.00785215,0.0134599,1630,1625,14.9162,-33.5754
413,-601,14.8738,33.1198,0.00194542,0.00924724,-0.00220196,0.00985987,0.00133279,-1.29944,0.0061771,0.0127148,1637,1625,14.8738,-33.1197
420,-601,14.885,32.6373,0.000361422,0.00762265,-0.00102429,0.00776437,0.000219698,-1.43331,0.00510459,0.0109803,1644,1625,14.885,-32.6373
427,-601,14.8954,32.1812,-0.000773764,0.00646115,-0.000354428,0.00647848,-0.000791085,-1.52196,0.00460538,0.0141942,1651,1625,14.8954,-32.1811
434,-601,14.8713,31.7227,-0.00103209,0.00581675,-0.000380406,0.00583782,-0.00105315,-1.51548,0.00428628,0.0152757,1658,1625,14.8714,-31.7226
441,-601,14.8834,31.2355,-0.00074657,0.00547775,-0.000676862,0.0055505,-0.000819324,-1.46372,0.0040015,0.0168133,1665,1625,14.8834,-31.2355
448,-601,14.8887,30.7482,-0.000376469,0.00469381,-0.00090069,0.00484905,-0.000531715,-1.40011,0.00342373,0.0145814,1672,1625,14.8887,-30.7482
455,-601,14.8616,30.2592,-0.000127403,0.00371806,-0.00103592,0.00397937,-0.000388713,-1.3237,0.00279152,0.013257,1679,1625,14.8616,-30.2592
462,-601,14.8408,29.8044,5.78798e-05,0.00261863,-0.00100539,0.00296619,-0.000289679,-1.23796,0.00208075,0.0118227,1686,1625,14.8408,-29.8045
469,-601,14.8328,29.3497,9.61102e-05,0.00141349,-0.000808559,0.0017977,-0.000288099,-1.1272,0.00130514,0.0119711,1693,1625,14.8328,-29.3497
476,-601,14.8058,28.8613,-0.000107626,0.000131211,-0.000395783,0.000425199,-0.000401614,-0.931919,0.000477426,0.0143079,1700,1625,14.8058,-28.8613
483,-601,14.7794,28.3666,-0.000520196,-0.0013393,8.45622e-05,-0.000511557,-0.00134794,0.101806,0.000785732,0.0174191,1707,1625,14.7795,-28.3665
490,-601,14.7618,27.8762,-0.00112029,-0.00272233,0.000730586,-0.000837157,-0.00300546,0.369722,0.00179104,0.0138999,1714,1625,14.7619,-27.8762
497,-601,14.7515,27.3685,-0.00157117,-0.00406463,0.0012522,-0.00105088,-0.00458492,0.393793,0.00277349,0.0112011,1721,1625,14.7515,-27.3685
504,-601,14.7832,26.8428,-0.00255215,-0.00551039,0.00206875,-0.00148814,-0.00657441,0.475043,0.00398072,0.0212383,1728,1625,14.7832,-26.8428
511,-601,14.6617,26.4091,-0.00435876,-0.00738683,0.00346435,-0.00209205,-0.00965354,0.579389,0.00586408,0.0365723,1735,1625,14.6617,-26.4091
518,-601,14.5588,25.8381,-0.00602069,-0.00934189,0.00472471,-0.00267325,-0.0126893,0.616406,0.00772424,0.0456324,1742,1625,14.5588,-25.8381
525,-601,14.4509,25.1395,0,0,0,0,0,0,0,-1,1749,1625,14.4509,-25.1396
532,-601,16.1193,20.8458,0,0,0,0,0,0,0,-1,1756,1625,16.1192,-20.8458
539,-601,7.77112,11.4299,0,0,0,0,0,0,0,-1,1763,1625,7.77116,-11.4299
546,-601,6.56873,3.62354,0,0,0,0,0,0,0,-1,1770,1625,6.56867,-3.62352
553,-601,7.03015,4.25049,0,0,0,0,0,0,0,-1,1777,1625,7.03011,-4.25048
560,-601,7.50745,4.83374,0,0,0,0,0,0,0,-1,1784,1625,7.50744,-4.83376
567,-601,7.82043,3.83301,0,0,0,0,0,0,0,-1,1791,1625,7.82041,-3.83303
574,-601,0,0,0,0,0,0,0,0,0,-1,1798,1625,0,0
581,-601,0,0,0,0,0,0,0,0,0,-1,1805,1625,0,0
588,-601,0,0,0,0,0,0,0,0,0,-1,1812,1625,0,0
595,-601,0,0,0,0,0,0,0,0,0,-1,1819,1625,0,0
602,-601,0,0,0,0,0,0,0,0,0,-1,1826,1625,0,0
609,-601,0,0,0,0,0,0,0,0,0,-1,1833,1625,0,0
616,-601,0,0,0,0,0,0,0,0,0,-1,1840,1625,0,0
623,-601,0,0,0,0,0,0,0,0,0,-1,1847,1625,0,0
630,-601,0,0,0,0,0,0,0,0,0,-1,1854,1625,0,0
637,-601,0,0,0,0,0,0,0,0,0,-1,1861,1625,0,0
644,-601,0,0,0,0,0,0,0,0,0,-1,1868,1625,0,0
651,-601,0,0,0,0,0,0,0,0,0,-1,1875,1625,0,0
658,-601,0,0,0,0,0,0,0,0,0,-1,1882,1625,0,0
665,-601,0,0,0,0,0,0,0,0,0,-1,1889,1625,0,0
672,-601,0,0,0,0,0,0,0,0,0,-1,1896,1625,0,0
679,-601,0,0,0,0,0,0,0,0,0,-1,1903,1625,0,0
686,-601,0,0,0,0,0,0,0,0,0,-1,1910,1625,0,0
693,-601,0,0,0,0,0,0,0,0,0,-1,1917,1625,0,0
700,-601,0,0,0,0,0,0,0,0,0,-1,1924,1625,0,0
707,-601,0,0,0,0,0,0,0,0,0,-1,1931,1625,0,0
714,-601,0,0,0,0,0,0,0,0,0,-1,1938,1625,0,0
721,-601,0,0,0,0,0,0,0,0,0,-1,1945,1625,0,0
728,-601,0,0,0,0,0,0,0,0,0,-1,1952,1625,0,0
735,-601,0,0,0,0,0,0,0,0,0,-1,1959,1625,0,0
742,-601,0,0,0,0,0,0,0,0,0,-1,1966,1625,0,0
749,-601,0,0,0,0,0,0,0,0,0,-1,1973,1625,0,0
756,-601,0,0,0,0,0,0,0,0,0,-1,1980,1625,0,0
763,-601,0,0,0,0,0,0,0,0,0,-1,1987,1625,0,0
770,-601,0,0,0,0,0,0,0,0,0,-1,1994,1625,0,0
777,-601,0,0,0,0,0,0,0,0,0,-1,2001,1625,0,0
784,-601,0,0,0,0,0,0,0,0,0,-1,2008,1625,0,0
791,-601,0,0,0,0,0,0,0,0,0,-1,2015,1625,0,0
798,-601,0,0,0,0,0,0,0,0,0,-1,2022,1625,0,0
805,-601,0,0,0,0,0,0,0,0,0,-1,2029,1625,0,0
812,-601,0,0,0,0,0,0,0,0,0,-1,2036,1625,0,0
-700,-608,0,0,0,0,0,0,0,0,0,-1,524,1632,0,0
-693,-608,0,0,0,0,0,0,0,0,0,-1,531,1632,0,0
-686,-608,0,0,0,0,0,0,0,0,0,-1,538,1632,0,0
-679,-608,0,0,0,0,0,0,0,0,0,-1,545,1632,0,0
-672,-608,0,0,0,0,0,0,0,0,0,-1,552,1632,0,0
-665,-608,0,0,0,0,0,0,0,0,0,-1,559,1632,0,0
-658,-608,0,0,0,0,0,0,0,0,0,-1,566,1632,0,0
-651,-608,0,0,0,0,0,0,0,0,0,-1,573,1632,0,0
-644,-608,0,0,0,0,0,0,0,0,0,-1,580,1632,0,0
-637,-608,0,0,0,0,0,0,0,0,0,-1,587,1632,0,0
-630,-608,0,0,0,0,0,0,0,0,0,-1,594,1632,0,0
-623,-608,0,0,0,0,0,0,0,0,0,-1,601,1632,0,0
-616,-608,0,0,0,0,0,0,0,0,0,-1,608,1632,0,0
-609,-608,0,0,0,0,0,0,0,0,0,-1,615,1632,0,0
-602,-608,0,0,0,0,0,0,0,0,0,-1,622,1632,0,0
-595,-608,0,0,0,0,0,0,0,0,0,-1,629,1632,0,0
-588,-608,0,0,0,0,0,0,0,0,0,-1,636,1632,0,0
-581,-608,0,0,0,0,0,0,0,0,0,-1,643,1632,0,0
-574,-608,0,0,0,0,0,0,0,0,0,-1,650,1632,0,0
-567,-608,0,0,0,0,0,0,0,0,0,-1,657,1632,0,0
-560,-608,0,0,0,0,0,0,0,0,0,-1,664,1632,0,0
-553,-608,0,0,0,0,0,0,0,0,0,-1,671,1632,0,0
-546,-608,0,0,0,0,0,0,0,0,0,-1,678,1632,0,0
-539,-608,0,0,0,0,0,0,0,0,0,-1,685,1632,0,0
-532,-608,0,0,0,0,0,0,0,0,0,-1,692,1632,0,0
-525,-608,0,0,0,0,0,0,0,0,0,-1,699,1632,0,0
-518,-608,0,0,0,0,0,0,0,0,0,-1,706,1632,0,0
-511,-608,0,0,0,0,0,0,0,0,0,-1,713,1632,0,0
-504,-608,0,0,0,0,0,0,0,0,0,-1,720,1632,0,0
-497,-608,0,0,0,0,0,0,0,0,0,-1,727,1632,0,0
-490,-608,0,0,0,0,0,0,0,0,0,-1,734,1632,0,0
-483,-608,0,0,0,0,0,0,0,0,0,-1,741,1632,0,0
-476,-608,0,0,0,0,0,0,0,0,0,-1,748,1632,0,0
-469,-608,0,0,0,0,0,0,0,0,0,-1,755,1632,0,0
-462,-608,0,0,0,0,0,0,0,0,0,-1,762,1632,0,0
-455,-608,0,0,0,0,0,0,0,0,0,-1,769,1632,0,0
-448,-608,0,0,0,0,0,0,0,0,0,-1,776,1632,0,0
-441,-608,-7.34601,2.78052,0,0,0,0,0,0,0,-1,783,1632,-7.346,-2.78056
-434,-608,-6.34558,3.27405,0,0,0,0,0,0,0,-1,790,1632,-6.34555,-3.27406
-427,-608,-7.74335,4.17688,0,0,0,0,0,0,0,-1,797,1632,-7.74334,-4.17693
-420,-608,-6.82794,4.34839,0,0,0,0,0,0,0,-1,804,1632,-6.82794,-4.34838
-413,-608,-5.41919,5.66138,0,0,0,0,0,0,0,-1,811,1632,-5.41917,-5.66133
-406,-608,-4.79681,4.98999,0,0,0,0,0,0,0,-1,818,1632,-4.79684,-4.98997
-399,-608,-2.60645,6.34167,0,0,0,0,0,0,0,-1,825,1632,-2.60643,-6.34169
-392,-608,2.08356,15.437,0,0,0,0,0,0,0,-1,832,1632,2.08354,-15.437
-385,-608,2.65057,25.3531,0,0,0,0,0,0,0,-1,839,1632,2.6506,-25.3532
-378,-608,2.80853,25.6603,0,0,0,0,0,0,0,-1,846,1632,2.80851,-25.6603
-371,-608,2.58569,25.8335,0,0,0,0,0,0,0,-1,853,1632,2.5857,-25.8335
-364,-608,2.72028,26.4458,-0.00330409,-0.00230948,4.753e-05,-0.00230722,-0.00330635,1.52315,0.00195809,0.0307871,860,1632,2.72026,-26.4458
-357,-608,2.6427,27.0609,-0.0024704,-0.00145616,0.000387688,-0.00132495,-0.00260162,1.24444,0.00150213,0.0207227,867,1632,2.64267,-27.0609
-350,-608,2.65222,27.6182,-0.00171657,-0.000761021,0.000651331,-0.00043102,-0.00204657,1.10184,0.00124581,0.0197888,874,1632,2.65221,-27.6182
-343,-608,2.60413,28.1722,-0.000970105,-4.56502e-05,0.000914019,0.000516371,-0.00153213,1.0195,0.00123021,0.0246985,881,1632,2.6041,-28.1723
-336,-608,2.55927,28.7452,-0.00019333,0.000603421,0.00120938,0.00147835,-0.00106826,0.944504,0.00147662,0.0176387,888,1632,2.55928,-28.7452
-329,-608,2.51746,29.2765,0.000453444,0.00146965,0.00146955,0.00251645,-0.000593362,0.951842,0.00190646,0.0160294,895,1632,2.51744,-29.2765
-322,-608,2.508,29.7524,0.000981997,0.00218242,0.00170376,0.0033886,-0.000224182,0.954753,0.00233738,0.0157487,902,1632,2.50803,-29.7524
-315,-608,2.53735,30.2047,0.00146325,0.00281728,0.00187062,0.00412962,0.000150899,0.959025,0.00270419,0.0146981,909,1632,2.53734,-30.2047
-308,-608,2.51111,30.7135,0.00202441,0.00343001,0.00203045,0.00487585,0.000578574,0.952011,0.0030759,0.0149488,916,1632,2.51108,-30.7135
-301,-608,2.49725,31.2244,0.00277198,0.0040477,0.00233154,0.00582706,0.000992618,0.918921,0.00359975,0.0116617,923,1632,2.49725,-31.2244
-294,-608,2.49835,31.7006,0.00373582,0.00474938,0.00281248,0.00710038,0.00138483,0.874536,0.00434615,0.0113983,930,1632,2.49835,-31.7005
-287,-608,2.4751,32.171,0.00471972,0.00562558,0.00330213,0.0085057,0.0018396,0.853554,0.00516759,0.0109345,937,1632,2.47507,-32.171
-280,-608,2.48352,32.6399,0.0059078,0.00646648,0.0039033,0.0101004,0.00227385,0.82112,0.00611817,0.00908121,944,1632,2.48349,-32.6399
-273,-608,2.46539,33.1307,0.00720132,0.00709195,0.00454032,0.0116873,0.00260599,0.779376,0.00708447,0.010273,951,1632,2.46541,-33.1308
-266,-608,2.49054,33.6511,0.00852829,0.00796134,0.00528038,0.0135328,0.00295683,0.758582,0.00821557,0.0111977,958,1632,2.49056,-33.6511
-259,-608,2.54547,34.1422,0.0101744,0.00868022,0.00614287,0.0156154,0.00323916,0.724887,0.00951613,0.0150863,965,1632,2.54547,-34.1422
-252,-608,2.65942,34.6011,0.0121386,0.00944086,0.00712774,0.018044,0.00353547,0.691884,0.0110411,0.0279058,972,1632,2.65941,-34.601
-245,-608,2.84991,35.1305,0.013975,0.010034,0.00809389,0.0203348,0.00367419,0.665991,0.0125129,0.0425195,979,1632,2.84992,-35.1306
-238,-608,3.06232,35.769,0,0,0,0,0,0,0,-1,986,1632,3.06233,-35.769
-231,-608,3.26025,27.5262,0,0,0,0,0,0,0,-1,993,1632,3.26023,-27.5263
-224,-608,2.51642,15.3452,0,0,0,0,0,0,0,-1,1000,1632,2.5164,-15.3452
-217,-608,1.04419,12.8451,0,0,0,0,0,0,0,-1,1007,1632,1.04418,-12.8451
-210,-608,2.75903,15.9414,0,0,0,0,0,0,0,-1,1014,1632,2.75903,-15.9414
-203,-608,2.76776,16.217,0,0,0,0,0,0,0,-1,1021,1632,2.76773,-16.217
-196,-608,1.53955,18.6058,0,0,0,0,0,0,0,-1,1028,1632,1.53959,-18.6058
-189,-608,1.37634,19.119,0,0,0,0,0,0,0,-1,1035,1632,1.37634,-19.1191
-182,-608,2.89221,16.7092,0,0,0,0,0,0,0,-1,1042,1632,2.89224,-16.7093
-175,-608,0.219116,15.1643,0,0,0,0,0,0,0,-1,1049,1632,0.219173,-15.1644
-168,-608,0.000366211,9.48645,0,0,0,0,0,0,0,-1,1056,1632,0.000317105,-9.48648
-161,-608,2.27832,15.4423,0,0,0,0,0,0,0,-1,1063,1632,2.27826,-15.4423
-154,-608,1.3999,16.4037,0,0,0,0,0,0,0,-1,1070,1632,1.39987,-16.4037
-147,-608,2.4386,9.50317,0,0,0,0,0,0,0,-1,1077,1632,2.43858,-9.50313
-140,-608,2.60132,10.8401,0,0,0,0,0,0,0,-1,1084,1632,2.60134,-10.8401
-133,-608,3.2312,12.4738,0,0,0,0,0,0,0,-1,1091,1632,3.23116,-12.4738
-126,-608,3.76465,13.9644,0,0,0,0,0,0,0,-1,1098,1632,3.76466,-13.9644
-119,-608,4.28906,15.4196,0,0,0,0,0,0,0,-1,1105,1632,4.28911,-15.4195
-112,-608,0.745117,10.5587,0,0,0,0,0,0,0,-1,1112,1632,0.745145,-10.5587
-105,-608,-0.252319,1.42419,0,0,0,0,0,0,0,-1,1119,1632,-0.252331,-1.42418
-98,-608,-2.8595,3.0863,0,0,0,0,0,0,0,-1,1126,1632,-2.85948,-3.08625
-91,-608,-3.71948,1.73608,0,0,0,0,0,0,0,-1,1133,1632,-3.7195,-1.73607
-84,-608,0,0,0,0,0,0,0,0,0,-1,1140,1632,0,0
-77,-608,0,0,0,0,0,0,0,0,0,-1,1147,1632,0,0
-70,-608,0,0,0,0,0,0,0,0,0,-1,1154,1632,0,0
-63,-608,0,0,0,0,0,0,0,0,0,-1,1161,1632,0,0
-56,-608,0,0,0,0,0,0,0,0,0,-1,1168,1632,0,0
-49,-608,0,0,0,0,0,0,0,0,0,-1,1175,1632,0,0
-42,-608,0,0,0,0,0,0,0,0,0,-1,1182,1632,0,0
-35,-608,0,0,0,0,0,0,0,0,0,-1,1189,1632,0,0
-28,-608,0,0,0,0,0,0,0,0,0,-1,1196,1632,0,0
-21,-608,0,0,0,0,0,0,0,0,0,-1,1203,1632,0,0
-14,-608,0,0,0,0,0,0,0,0,0,-1,1210,1632,0,0
-7,-608,0,0,0,0,0,0,0,0,0,-1,1217,1632,0,0
0,-608,0,0,0,0,0,0,0,0,0,-1,1224,1632,0,0
7,-608,0,0,0,0,0,0,0,0,0,-1,1231,1632,0,0
14,-608,0,0,0,0,0,0,0,0,0,-1,1238,1632,0,0
21,-608,0,0,0,0,0,0,0,0,0,-1,1245,1632,0,0
28,-608,0,0,0,0,0,0,0,0,0,-1,1252,1632,0,0
35,-608,0,0,0,0,0,0,0,0,0,-1,1259,1632,0,0
42,-608,0,0,0,0,0,0,0,0,0,-1,1266,1632,0,0
49,-608,0,0,0,0,0,0,0,0,0,-1,1273,1632,0,0
56,-608,0,0,0,0,0,0,0,0,0,-1,1280,1632,0,0
63,-608,0,0,0,0,0,0,0,0,0,-1,1287,1632,0,0
70,-608,0,0,0,0,0,0,0,0,0,-1,1294,1632,0,0
77,-608,0,0,0,0,0,0,0,0,0,-1,1301,1632,0,0
84,-608,0,0,0,0,0,0,0,0,0,-1,1308,1632,0,0
91,-608,0,0,0,0,0,0,0,0,0,-1,1315,1632,0,0
98,-608,0,0,0,0,0,0,0,0,0,-1,1322,1632,0,0
105,-608,0,0,0,0,0,0,0,0,0,-1,1329,1632,0,0
112,-608,0,0,0,0,0,0,0,0,0,-1,1336,1632,0,0
119,-608,0,0,0,0,0,0,0,0,0,-1,1343,1632,0,0
126,-608,0,0,0,0,0,0,0,0,0,-1,1350,1632,0,0
133,-608,0,0,0,0,0,0,0,0,0,-1,1357,1632,0,0
140,-608,0,0,0,0,0,0,0,0,0,-1,1364,1632,0,0
147,-608,0,0,0,0,0,0,0,0,0,-1,1371,1632,0,0
154,-608,0,0,0,0,0,0,0,0,0,-1,1378,1632,0,0
161,-608,0,0,0,0,0,0,0,0,0,-1,1385,1632,0,0
168,-608,0,0,0,0,0,0,0,0,0,-1,1392,1632,0,0
175,-608,0,0,0,0,0,0,0,0,0,-1,1399,1632,0,0
182,-608,0,0,0,0,0,0,0,0,0,-1,1406,1632,0,0
189,-608,0,0,0,0,0,0,0,0,0,-1,1413,1632,0,0
196,-608,0,0,0,0,0,0,0,0,0,-1,1420,1632,0,0
203,-608,0,0,0,0,0,0,0,0,0,-1,1427,1632,0,0
210,-608,5.7157,-0.333008,0,0,0,0,0,0,0,-1,1434,1632,5.71566,0.333004
217,-608,4.49402,-0.831787,0,0,0,0,0,0,0,-1,1441,1632,4.49396,0.831738
224,-608,4.18018,-1.11792,0,0,0,0,0,0,0,-1,1448,1632,4.1802,1.11796
231,-608,0.361816,0.825195,0,0,0,0,0,0,0,-1,1455,1632,0.36185,-0.825226
238,-608,2.85388,-0.28833,0,0,0,0,0,0,0,-1,1462,1632,2.85391,0.288282
245,-608,3.87537,4.02173,0,0,0,0,0,0,0,-1,1469,1632,3.87538,-4.02168
252,-608,5.66956,3.5282,0,0,0,0,0,0,0,-1,1476,1632,5.6696,-3.52815
259,-608,7.47437,3.07178,0,0,0,0,0,0,0,-1,1483,1632,7.4744,-3.07172
266,-608,9.46936,2.34766,0,0,0,0,0,0,0,-1,1490,1632,9.46932,-2.34764
273,-608,6.03003,3.34241,0,0,0,0,0,0,0,-1,1497,1632,6.02997,-3.34245
280,-608,5.72461,2.0769,0,0,0,0,0,0,0,-1,1504,1632,5.72457,-2.07688
287,-608,6.20581,3.59338,0,0,0,0,0,0,0,-1,1511,1632,6.20585,-3.59341
294,-608,6.94922,5.17151,0,0,0,0,0,0,0,-1,1518,1632,6.94925,-5.17151
301,-608,7.60083,6.68018,0,0,0,0,0,0,0,-1,1525,1632,7.60086,-6.68013
308,-608,7.64746,9.93848,0,0,0,0,0,0,0,-1,1532,1632,7.64745,-9.93842
315,-608,5.30688,11.2054,0,0,0,0,0,0,0,-1,1539,1632,5.30694,-11.2054
322,-608,5.32617,13.7581,0,0,0,0,0,0,0,-1,1546,1632,5.32613,-13.758
329,-608,7.12231,13.9607,0,0,0,0,0,0,0,-1,1553,1632,7.12231,-13.9607
336,-608,5.48633,7.82446,0,0,0,0,0,0,0,-1,1560,1632,5.48634,-7.82446
343,-608,5.47192,5.61047,0,0,0,0,0,0,0,-1,1567,1632,5.47192,-5.61045
350,-608,11.6957,1.71387,0,0,0,0,0,0,0,-1,1574,1632,11.6957,-1.71388
357,-608,3.77002,5.10046,0,0,0,0,0,0,0,-1,1581,1632,3.77002,-5.10043
364,-608,13.2876,37.6302,0,0,0,0,0,0,0,-1,1588,1632,13.2877,-37.6302
371,-608,13.6918,36.7493,0.0264337,0.0297956,-0.0224405,0.0506181,0.00561127,-0.822782,0.0320392,0.0468131,1595,1632,13.6918,-36.7492
378,-608,14.2468,35.6433,0.0202123,0.0241901,-0.016874,0.039192,0.00521037,-0.844062,0.024576,0.0398832,1602,1632,14.2468,-35.6434
385,-608,14.4574,35.0667,0.0149633,0.0192588,-0.0123704,0.0296664,0.00455562,-0.871351,0.0184476,0.0359224,1609,1632,14.4574,-35.0667
392,-608,14.3694,34.4999,0.0107669,0.0151245,-0.00876491,0.0219774,0.00391406,-0.907221,0.0135369,0.0254776,1616,1632,14.3694,-34.4999
399,-608,14.4023,33.9886,0.00719881,0.0118043,-0.00571902,0.0156668,0.00333634,-0.976791,0.00952912,0.0112063,1623,1632,14.4023,-33.9886
406,-608,14.4351,33.5101,0.0044446,0.0093371,-0.0036296,0.0112679,0.00251385,-1.08192,0.00682995,0.00923032,1630,1632,14.4351,-33.5101
413,-608,14.4215,33.0724,0.00249521,0.00740915,-0.00221558,0.00826058,0.00164378,-1.2039,0.00504912,0.0104101,1637,1632,14.4215,-33.0724
420,-608,14.4164,32.6296,0.00097093,0.00579993,-0.00104309,0.00601561,0.000755249,-1.3669,0.00378387,0.0174545,1644,1632,14.4164,-32.6296
427,-608,14.4308,32.1644,-0.000172409,0.00465084,-0.000348067,0.00467583,-0.000197397,-1.49913,0.00318506,0.0178527,1651,1632,14.4307,-32.1644
434,-608,14.3962,31.7118,-0.0005758,0.00403687,-0.000278193,0.00405359,-0.000592517,-1.51078,0.00292001,0.0149031,1658,1632,14.3962,-31.7118
441,-608,14.3932,31.2412,-0.000491001,0.00371625,-0.000471003,0.00376833,-0.000543086,-1.46066,0.00271144,0.0132029,1665,1632,14.3931,-31.2412
448,-608,14.4121,30.7849,-0.000317801,0.00301641,-0.000600504,0.00312127,-0.000422657,-1.39793,0.00223509,0.0151629,1672,1632,14.4121,-30.7849
455,-608,14.4128,30.3016,-0.000205084,0.00216764,-0.000666532,0.00234206,-0.000379501,-1.31486,0.00170203,0.0120507,1679,1632,14.4128,-30.3016
462,-608,14.3787,29.827,-0.000184136,0.00112237,-0.000559444,0.00132918,-0.000390951,-1.2167,0.0010412,0.0114821,1686,1632,14.3786,-29.827
469,-608,14.3367,29.3705,-0.000280125,-2.09802e-06,-0.000321358,0.000209025,-0.000491249,-0.989536,0.000415104,0.00906226,1693,1632,14.3366,-29.3705
476,-608,14.3071,28.8765,-0.000579503,-0.0012016,0.000124867,-0.000555376,-0.00122573,0.190873,0.000708713,0.00956205,1700,1632,14.3072,-28.8765
483,-608,14.2872,28.3828,-0.0011766,-0.00255018,0.000691985,-0.000888439,-0.00283834,0.394583,0.00167648,0.00901962,1707,1632,14.2872,-28.3828
490,-608,14.2953,27.8993,-0.00193695,-0.00390399,0.00138671,-0.00122039,-0.00462055,0.476945,0.00276486,0.0100329,1714,1632,14.2953,-27.8992
497,-608,14.3048,27.3857,-0.00242223,-0.00523293,0.00190087,-0.00146362,-0.00619154,0.467082,0.00373662,0.021094,1721,1632,14.3049,-27.3857
504,-608,14.2404,26.9272,-0.00349328,-0.00670341,0.00278959,-0.00187996,-0.00831674,0.52434,0.00503619,0.0487863,1728,1632,14.2403,-26.9273
511,-608,14.0935,26.6036,-0.00545826,-0.00879878,0.00424465,-0.00256707,-0.01169,0.597954,0.00709417,0.0499304,1735,1632,14.0935,-26.6037
518,-608,13.9094,26.1552,0,0,0,0,0,0,0,-1,1742,1632,13.9094,-26.1552
525,-608,11.2109,16.2579,0,0,0,0,0,0,0,-1,1749,1632,11.2109,-16.2579
532,-608,8.27917,11.6693,0,0,0,0,0,0,0,-1,1756,1632,8.27919,-11.6694
539,-608,9.40796,1.43457,0,0,0,0,0,0,0,-1,1763,1632,9.40801,-1.43463
546,-608,9.94031,2.1134,0,0,0,0,0,0,0,-1,1770,1632,9.94031,-2.11346
553,-608,10.363,2.81335,0,0,0,0,0,0,0,-1,1777,1632,10.3631,-2.81333
560,-608,9.23999,4.5636,0,0,0,0,0,0,0,-1,1784,1632,9.24,-4.56354
567,-608,0,0,0,0,0,0,0,0,0,-1,1791,1632,0,0
574,-608,0,0,0,0,0,0,0,0,0,-1,1798,1632,0,0
581,-608,0,0,0,0,0,0,0,0,0,-1,1805,1632,0,0
588,-608,0,0,0,0,0,0,0,0,0,-1,1812,1632,0,0
595,-608,0,0,0,0,0,0,0,0,0,-1,1819,1632,0,0
602,-608,0,0,0,0,0,0,0,0,0,-1,1826,1632,0,0
609,-608,0,0,0,0,0,0,0,0,0,-1,1833,1632,0,0
616,-608,0,0,0,0,0,0,0,0,0,-1,1840,1632,0,0
623,-608,0,0,0,0,0,0,0,0,0,-1,1847,1632,0,0
630,-608,0,0,0,0,0,0,0,0,0,-1,1854,1632,0,0
637,-608,0,0,0,0,0,0,0,0,0,-1,1861,1632,0,0
644,-608,0,0,0,0,0,0,0,0,0,-1,1868,1632,0,0
651,-608,0,0,0,0,0,0,0,0,0,-1,1875,1632,0,0
658,-608,0,0,0,0,0,0,0,0,0,-1,1882,1632,0,0
665,-608,0,0,0,0,0,0,0,0,0,-1,1889,1632,0,0
672,-608,0,0,0,0,0,0,0,0,0,-1,1896,1632,0,0
679,-608,0,0,0,0,0,0,0,0,0,-1,1903,1632,0,0
686,-608,0,0,0,0,0,0,0,0,0,-1,1910,1632,0,0
693,-608,0,0,0,0,0,0,0,0,0,-1,1917,1632,0,0
700,-608,0,0,0,0,0,0,0,0,0,-1,1924,1632,0,0
707,-608,0,0,0,0,0,0,0,0,0,-1,1931,1632,0,0
714,-608,0,0,0,0,0,0,0,0,0,-1,1938,1632,0,0
721,-608,0,0,0,0,0,0,0,0,0,-1,1945,1632,0,0
728,-608,0,0,0,0,0,0,0,0,0,-1,1952,1632,0,0
735,-608,0,0,0,0,0,0,0,0,0,-1,1959,1632,0,0
742,-608,0,0,0,0,0,0,0,0,0,-1,1966,1632,0,0
749,-608,0,0,0,0,0,0,0,0,0,-1,1973,1632,0,0
756,-608,0,0,0,0,0,0,0,0,0,-1,1980,1632,0,0
763,-608,0,0,0,0,0,0,0,0,0,-1,1987,1632,0,0
770,-608,0,0,0,0,0,0,0,0,0,-1,1994,1632,0,0
777,-608,0,0,0,0,0,0,0,0,0,-1,2001,1632,0,0
784,-608,0,0,0,0,0,0,0,0,0,-1,2008,1632,0,0
791,-608,0,0,0,0,0,0,0,0,0,-1,2015,1632,0,0
798,-608,0,0,0,0,0,0,0,0,0,-1,2022,1632,0,0
805,-608,0,0,0,0,0,0,0,0,0,-1,2029,1632,0,0
812,-608,0,0,0,0,0,0,0,0,0,-1,2036,1632,0,0
-700,-615,0,0,0,0,0,0,0,0,0,-1,524,1639,0,0
-693,-615,0,0,0,0,0,0,0,0,0,-1,531,1639,0,0
-686,-615,0,0,0,0,0,0,0,0,0,-1,538,1639,0,0
-679,-615,0,0,0,0,0,0,0,0,0,-1,545,1639,0,0
-672,-615,0,0,0,0,0,0,0,0,0,-1,552,1639,0,0
-665,-615,0,0,0,0,0,0,0,0,0,-1,559,1639,0,0
-658,-615,0,0,0,0,0,0,0,0,0,-1,566,1639,0,0
-651,-615,0,0,0,0,0,0,0,0,0,-1,573,1639,0,0
-644,-615,0,0,0,0,0,0,0,0,0,-1,580,1639,0,0
-637,-615,0,0,0,0,0,0,0,0,0,-1,587,1639,0,0
-630,-615,0,0,0,0,0,0,0,0,0,-1,594,1639,0,0
-623,-615,0,0,0,0,0,0,0,0,0,-1,601,1639,0,0
-616,-615,0,0,0,0,0,0,0,0,0,-1,608,1639,0,0
-609,-615,0,0,0,0,0,0,0,0,0,-1,615,1639,0,0
-602,-615,0,0,0,0,0,0,0,0,0,-1,622,1639,0,0
-595,-615,0,0,0,0,0,0,0,0,0,-1,629,1639,0,0
-588,-615,0,0,0,0,0,0,0,0,0,-1,636,1639,0,0
-581,-615,0,0,0,0,0,0,0,0,0,-1,643,1639,0,0
-574,-615,0,0,0,0,0,0,0,0,0,-1,650,1639,0,0
-567,-615,0,0,0,0,0,0,0,0,0,-1,657,1639,0,0
-560,-615,0,0,0,0,0,0,0,0,0,-1,664,1639,0,0
-553,-615,0,0,0,0,0,0,0,0,0,-1,671,1639,0,0
-546,-615,0,0,0,0,0,0,0,0,0,-1,678,1639,0,0
-539,-615,0,0,0,0,0,0,0,0,0,-1,685,1639,0,0
-532,-615,0,0,0,0,0,0,0,0,0,-1,692,1639,0,0
-525,-615,0,0,0,0,0,0,0,0,0,-1,699,1639,0,0
-518,-615,0,0,0,0,0,0,0,0,0,-1,706,1639,0,0
-511,-615,0,0,0,0,0,0,0,0,0,-1,713,1639,0,0
-504,-615,0,0,0,0,0,0,0,0,0,-1,720,1639,0,0
-497,-615,0,0,0,0,0,0,0,0,0,-1,727,1639,0,0
-490,-615,0,0,0,0,0,0,0,0,0,-1,734,1639,0,0
-483,-615,0,0,0,0,0,0,0,0,0,-1,741,1639,0,0
-476,-615,0,0,0,0,0,0,0,0,0,-1,748,1639,0,0
-469,-615,0,0,0,0,0,0,0,0,0,-1,755,1639,0,0
-462,-615,0,0,0,0,0,0,0,0,0,-1,762,1639,0,0
-455,-615,0,0,0,0,0,0,0,0,0,-1,769,1639,0,0
-448,-615,0,0,0,0,0,0,0,0,0,-1,776,1639,0,0
-441,-615,0,0,0,0,0,0,0,0,0,-1,783,1639,0,0
-434,-615,-7.64508,2.98596,0,0,0,0,0,0,0,-1,790,1639,-7.64505,-2.98594
-427,-615,-9.0011,2.89404,0,0,0,0,0,0,0,-1,797,1639,-9.00107,-2.89399
-420,-615,-8.07568,3.0752,0,0,0,0,0,0,0,-1,804,1639,-8.07569,-3.07514
-413,-615,-7.09149,3.396,0,0,0,0,0,0,0,-1,811,1639,-7.09147,-3.39599
-406,-615,-6.21368,3.7312,0,0,0,0,0,0,0,-1,818,1639,-6.21366,-3.73114
-399,-615,-4.84875,3.91907,0,0,0,0,0,0,0,-1,825,1639,-4.84877,-3.91901
-392,-615,1.7395,13.3127,0,0,0,0,0,0,0,-1,832,1639,1.73953,-13.3128
-385,-615,3.42297,14.9401,0,0,0,0,0,0,0,-1,839,1639,3.42296,-14.94
-378,-615,2.54102,17.2609,0,0,0,0,0,0,0,-1,846,1639,2.54099,-17.2608
-371,-615,3.26471,25.8972,0,0,0,0,0,0,0,-1,853,1639,3.2647,-25.8972
-364,-615,3.151,26.6958,0,0,0,0,0,0,0,-1,860,1639,3.15097,-26.6959
-357,-615,3.2655,27.1146,0,0,0,0,0,0,0,-1,867,1639,3.26552,-27.1146
-350,-615,3.16205,27.6915,-0.00224297,-0.000564314,0.000897048,-0.000175161,-0.00263213,1.16148,0.00169938,0.0312168,874,1639,3.16204,-27.6916
-343,-615,3.08893,28.1833,-0.00155171,6.61413e-05,0.00105643,0.000587785,-0.00207335,1.11214,0.00161424,0.0190263,881,1639,3.08894,-28.1833
-336,-615,3.0744,28.7283,-0.00082343,0.00052194,0.00121413,0.00123728,-0.00153877,1.03837,0.0016059,0.0106198,888,1639,3.07438,-28.7282
-329,-615,3.03412,29.2507,-0.000252996,0.00124165,0.00135794,0.00204432,-0.00105567,1.03695,0.00181987,0.010716,895,1639,3.03414,-29.2508
-322,-615,3.0257,29.7578,0.000205157,0.00175253,0.00146788,0.00263814,-0.00068045,1.02794,0.00202407,0.0120197,902,1639,3.02568,-29.7578
-315,-615,3.0304,30.2566,0.000614035,0.00214473,0.0015039,0.00306683,-0.000308064,1.02077,0.00215459,0.0147078,909,1639,3.03037,-30.2566
-308,-615,2.96802,30.7787,0.00109085,0.00254513,0.00154465,0.00352524,0.000110742,1.00538,0.00231413,0.0216455,916,1639,2.968,-30.7787
-301,-615,2.98114,31.25,0.00171741,0.0029568,0.00170613,0.0041523,0.000521917,0.959597,0.00261167,0.0136408,923,1639,2.98111,-31.25
-294,-615,2.987,31.7347,0.00255273,0.00348359,0.00204957,0.00511991,0.000916408,0.897049,0.00315252,0.0104202,930,1639,2.98698,-31.7347
-287,-615,2.95966,32.1954,0.00338583,0.00415369,0.00240312,0.00620336,0.00133617,0.86461,0.00376996,0.00779361,937,1639,2.95964,-32.1954
-280,-615,2.95721,32.6528,0.00437084,0.00479731,0.00287027,0.00746225,0.0017059,0.822476,0.00451494,0.00965707,944,1639,2.9572,-32.6528
-273,-615,2.93896,33.1361,0.00546019,0.00529096,0.00338594,0.00876257,0.00198858,0.772905,0.00530459,0.0113479,951,1639,2.93895,-33.1361
-266,-615,2.91962,33.5974,0.00653456,0.0059511,0.00394771,0.0102013,0.00228436,0.748516,0.00618175,0.011188,958,1639,2.91962,-33.5974
-259,-615,2.93622,34.0604,0.00782225,0.00660391,0.00460254,0.0118558,0.0025704,0.719603,0.0072016,0.0126524,965,1639,2.93624,-34.0604
-252,-615,2.95087,34.5892,0.0092948,0.00731897,0.00532438,0.0137221,0.00289163,0.693668,0.00835276,0.0168195,972,1639,2.95089,-34.5892
-245,-615,3.07855,35.1729,0.0106418,0.00788854,0.00600448,0.0154254,0.0031049,0.672712,0.00942078,0.0282444,979,1639,3.07855,-35.1728
-238,-615,3.125,35.6659,0.0125975,0.00829381,0.00647188,0.0172659,0.00362542,0.624901,0.0105126,0.0419882,986,1639,3.12501,-35.6658
-231,-615,3.1778,36.2458,0,0,0,0,0,0,0,-1,993,1639,3.17778,-36.2458
-224,-615,3.37482,36.3005,0,0,0,0,0,0,0,-1,1000,1639,3.37485,-36.3005
-217,-615,3.99097,27.3737,0,0,0,0,0,0,0,-1,1007,1639,3.99096,-27.3736
-210,-615,2.48901,18.9324,0,0,0,0,0,0,0,-1,1014,1639,2.48902,-18.9323
-203,-615,2.13684,18.6173,0,0,0,0,0,0,0,-1,1021,1639,2.13683,-18.6173
-196,-615,4.27161,21.3264,0,0,0,0,0,0,0,-1,1028,1639,4.27165,-21.3264
-189,-615,1.8269,19.6761,0,0,0,0,0,0,0,-1,1035,1639,1.82691,-19.6761
-182,-615,1.63489,20.2278,0,0,0,0,0,0,0,-1,1042,1639,1.63492,-20.2277
-175,-615,-0.609985,13.8434,0,0,0,0,0,0,0,-1,1049,1639,-0.610016,-13.8434
-168,-615,3.85754,15.472,0,0,0,0,0,0,0,-1,1056,1639,3.85757,-15.472
-161,-615,5.38062,36.9541,0,0,0,0,0,0,0,-1,1063,1639,5.38058,-36.9541
-154,-615,3.72876,41.363,0,0,0,0,0,0,0,-1,1070,1639,3.72876,-41.363
-147,-615,1.52502,17.3442,0,0,0,0,0,0,0,-1,1077,1639,1.52501,-17.3442
-140,-615,3.73401,10.2349,0,0,0,0,0,0,0,-1,1084,1639,3.73402,-10.2348
-133,-615,2.6178,17.45,0,0,0,0,0,0,0,-1,1091,1639,2.61776,-17.4499
-126,-615,4.43408,12.5017,0,0,0,0,0,0,0,-1,1098,1639,4.43403,-12.5018
-119,-615,4.82983,13.9279,0,0,0,0,0,0,0,-1,1105,1639,4.82986,-13.9278
-112,-615,3.65698,14.4874,0,0,0,0,0,0,0,-1,1112,1639,3.65695,-14.4875
-105,-615,0.958496,2.45398,0,0,0,0,0,0,0,-1,1119,1639,0.958452,-2.45398
-98,-615,-0.647705,2.12109,0,0,0,0,0,0,0,-1,1126,1639,-0.647756,-2.12105
-91,-615,-3.07983,2.97375,0,0,0,0,0,0,0,-1,1133,1639,-3.07989,-2.97376
-84,-615,-2.46509,0.703247,0,0,0,0,0,0,0,-1,1140,1639,-2.46505,-0.703273
-77,-615,-3.17859,1.23755,0,0,0,0,0,0,0,-1,1147,1639,-3.17865,-1.23752
-70,-615,-4.03943,1.43335,0,0,0,0,0,0,0,-1,1154,1639,-4.03942,-1.43339
-63,-615,-4.8877,1.45544,0,0,0,0,0,0,0,-1,1161,1639,-4.88766,-1.45549
-56,-615,0,0,0,0,0,0,0,0,0,-1,1168,1639,0,0
-49,-615,0,0,0,0,0,0,0,0,0,-1,1175,1639,0,0
-42,-615,0,0,0,0,0,0,0,0,0,-1,1182,1639,0,0
-35,-615,0,0,0,0,0,0,0,0,0,-1,1189,1639,0,0
-28,-615,0,0,0,0,0,0,0,0,0,-1,1196,1639,0,0
-21,-615,0,0,0,0,0,0,0,0,0,-1,1203,1639,0,0
-14,-615,0,0,0,0,0,0,0,0,0,-1,1210,1639,0,0
-7,-615,0,0,0,0,0,0,0,0,0,-1,1217,1639,0,0
0,-615,0,0,0,0,0,0,0,0,0,-1,1224,1639,0,0
7,-615,0,0,0,0,0,0,0,0,0,-1,1231,1639,0,0
14,-615,0,0,0,0,0,0,0,0,0,-1,1238,1639,0,0
21,-615,0,0,0,0,0,0,0,0,0,-1,1245,1639,0,0
28,-615,0,0,0,0,0,0,0,0,0,-1,1252,1639,0,0
35,-615,0,0,0,0,0,0,0,0,0,-1,1259,1639,0,0
42,-615,0,0,0,0,0,0,0,0,0,-1,1266,1639,0,0
49,-615,0,0,0,0,0,0,0,0,0,-1,1273,1639,0,0
56,-615,0,0,0,0,0,0,0,0,0,-1,1280,1639,0,0
63,-615,0,0,0,0,0,0,0,0,0,-1,1287,1639,0,0
70,-615,0,0,0,0,0,0,0,0,0,-1,1294,1639,0,0
77,-615,0,0,0,0,0,0,0,0,0,-1,1301,1639,0,0
84,-615,0,0,0,0,0,0,0,0,0,-1,1308,1639,0,0
91,-615,0,0,0,0,0,0,0,0,0,-1,1315,1639,0,0
98,-615,0,0,0,0,0,0,0,0,0,-1,1322,1639,0,0
105,-615,0,0,0,0,0,0,0,0,0,-1,1329,1639,0,0
112,-615,0,0,0,0,0,0,0,0,0,-1,1336,1639,0,0
119,-615,0,0,0,0,0,0,0,0,0,-1,1343,1639,0,0
126,-615,0,0,0,0,0,0,0,0,0,-1,1350,1639,0,0
133,-615,0,0,0,0,0,0,0,0,0,-1,1357,1639,0,0
140,-615,0,0,0,0,0,0,0,0,0,-1,1364,1639,0,0
147,-615,0,0,0,0,0,0,0,0,0,-1,1371,1639,0,0
154,-615,0,0,0,0,0,0,0,0,0,-1,1378,1639,0,0
161,-615,0,0,0,0,0,0,0,0,0,-1,1385,1639,0,0
168,-615,0,0,0,0,0,0,0,0,0,-1,1392,1639,0,0
175,-615,5.39648,-2.00879,0,0,0,0,0,0,0,-1,1399,1639,5.3965,2.00881
182,-615,5.65393,-1.51025,0,0,0,0,0,0,0,-1,1406,1639,5.65388,1.51028
189,-615,5.58972,-1.35608,0,0,0,0,0,0,0,-1,1413,1639,5.58967,1.35607
196,-615,5.49915,-0.693604,0,0,0,0,0,0,0,-1,1420,1639,5.4991,0.693602
203,-615,5.33411,-0.226685,0,0,0,0,0,0,0,-1,1427,1639,5.33414,0.226689
210,-615,5.60278,0.108276,0,0,0,0,0,0,0,-1,1434,1639,5.60284,-0.10831
217,-615,6.26331,-0.307373,0,0,0,0,0,0,0,-1,1441,1639,6.26331,0.307372
224,-615,5.45422,-0.333984,0,0,0,0,0,0,0,-1,1448,1639,5.45422,0.333992
231,-615,4.92542,1.80298,0,0,0,0,0,0,0,-1,1455,1639,4.92537,-1.80297
238,-615,4.76355,1.96729,0,0,0,0,0,0,0,-1,1462,1639,4.76357,-1.96734
245,-615,4.08643,3.15906,0,0,0,0,0,0,0,-1,1469,1639,4.08638,-3.159
252,-615,6.37805,3.73889,0,0,0,0,0,0,0,-1,1476,1639,6.37806,-3.73891
259,-615,8.35974,3.16443,0,0,0,0,0,0,0,-1,1483,1639,8.35975,-3.16444
266,-615,10.3414,2.58997,0,0,0,0,0,0,0,-1,1490,1639,10.3414,-2.58996
273,-615,6.57043,1.84766,0,0,0,0,0,0,0,-1,1497,1639,6.5704,-1.84771
280,-615,7.10449,3.23438,0,0,0,0,0,0,0,-1,1504,1639,7.10447,-3.23435
287,-615,7.35779,4.68542,0,0,0,0,0,0,0,-1,1511,1639,7.35776,-4.68546
294,-615,7.63733,6.29114,0,0,0,0,0,0,0,-1,1518,1639,7.63735,-6.29109
301,-615,8.47925,11.452,0,0,0,0,0,0,0,-1,1525,1639,8.47922,-11.452
308,-615,6.8114,10.9059,0,0,0,0,0,0,0,-1,1532,1639,6.81137,-10.9058
315,-615,5.1427,14.7251,0,0,0,0,0,0,0,-1,1539,1639,5.14269,-14.7251
322,-615,7.17981,17.6864,0,0,0,0,0,0,0,-1,1546,1639,7.17985,-17.6864
329,-615,7.62134,20.4354,0,0,0,0,0,0,0,-1,1553,1639,7.62139,-20.4354
336,-615,6.45007,14.1138,0,0,0,0,0,0,0,-1,1560,1639,6.45011,-14.1138
343,-615,2.40491,6.50134,0,0,0,0,0,0,0,-1,1567,1639,2.40489,-6.50137
350,-615,12.8768,37.0074,0,0,0,0,0,0,0,-1,1574,1639,12.8768,-37.0074
357,-615,12.765,37.6638,0,0,0,0,0,0,0,-1,1581,1639,12.765,-37.6638
364,-615,13.0868,37.0476,0.0247725,0.0293777,-0.0214652,0.0486634,0.00548672,-0.838829,0.0307768,0.048742,1588,1639,13.0868,-37.0476
371,-615,13.5956,36.2413,0.0207881,0.0242809,-0.0175925,0.0402134,0.00485552,-0.83487,0.025346,0.0414728,1595,1639,13.5956,-36.2414
378,-615,13.9423,35.3029,0.0164238,0.0199879,-0.013668,0.0319895,0.00442221,-0.850224,0.0200158,0.0217919,1602,1639,13.9423,-35.3028
385,-615,13.9332,34.8198,0.0125758,0.0160389,-0.0103259,0.0247774,0.00383724,-0.868471,0.0153994,0.0134873,1609,1639,13.9332,-34.8198
392,-615,13.9673,34.3934,0.00933052,0.0125809,-0.00752296,0.0186522,0.0032592,-0.891778,0.0115033,0.0116364,1616,1639,13.9673,-34.3934
399,-615,13.9711,33.9562,0.00639763,0.00962839,-0.00500858,0.0132756,0.00275038,-0.941393,0.00809099,0.0120164,1623,1639,13.971,-33.9562
406,-615,13.9812,33.5311,0.00405843,0.00742988,-0.00322772,0.00938557,0.00210274,-1.02605,0.00568722,0.0110788,1630,1639,13.9812,-33.5311
413,-615,13.9716,33.1066,0.00234642,0.00566737,-0.00195758,0.00657385,0.00143994,-1.13713,0.00399016,0.0119802,1637,1639,13.9716,-33.1066
420,-615,13.9705,32.6489,0.000928723,0.0041442,-0.000851779,0.0043559,0.000717025,-1.3272,0.00269689,0.0135796,1644,1639,13.9704,-32.6489
427,-615,13.9694,32.1757,-0.000149655,0.00306435,-0.000188366,0.00307536,-0.000160657,-1.51245,0.00210583,0.0152829,1651,1639,13.9694,-32.1757
434,-615,13.9457,31.7096,-0.000620387,0.00248861,-5.93132e-05,0.00248974,-0.000621518,-1.55173,0.00190117,0.0143165,1658,1639,13.9457,-31.7095
441,-615,13.9534,31.2404,-0.000661895,0.00218641,-0.000176228,0.00219728,-0.000672757,-1.50924,0.00173319,0.0139351,1665,1639,13.9534,-31.2403
448,-615,13.9445,30.8104,-0.000611068,0.00157903,-0.000241917,0.00160544,-0.000637472,-1.46208,0.00133454,0.0152018,1672,1639,13.9444,-30.8105
455,-615,13.9376,30.3461,-0.000564937,0.000873457,-0.000265889,0.000921033,-0.000612514,-1.39374,0.000891346,0.0151517,1679,1639,13.9377,-30.346
462,-615,13.9098,29.8833,-0.000624358,-8.17e-05,-0.0001153,-5.82181e-05,-0.00064784,-1.36988,0.000413854,0.0155121,1686,1639,13.9098,-29.8833
469,-615,13.8717,29.4045,-0.000766054,-0.00108814,0.00013093,-0.000719546,-0.00113465,0.341313,0.000662902,0.013032,1693,1639,13.8718,-29.4046
476,-615,13.8605,28.8943,-0.001052,-0.00217721,0.000570644,-0.000813257,-0.00241595,0.396245,0.00141946,0.0122939,1700,1639,13.8605,-28.8943
483,-615,13.9026,28.3448,-0.00169029,-0.00330567,0.00115571,-0.00108801,-0.00390795,0.480415,0.00232895,0.0225453,1707,1639,13.9025,-28.3449
490,-615,13.8575,27.8824,-0.00253618,-0.00459644,0.00189694,-0.00140771,-0.00572492,0.536653,0.00344463,0.031523,1714,1639,13.8576,-27.8825
497,-615,13.7273,27.5282,-0.00299817,-0.0058962,0.00242482,-0.0016224,-0.00727197,0.51608,0.00440785,0.0401353,1721,1639,13.7273,-27.5282
504,-615,13.4218,27.007,0,0,0,0,0,0,0,-1,1728,1639,13.4218,-27.0069
511,-615,13.6268,26.7631,0,0,0,0,0,0,0,-1,1735,1639,13.6269,-26.7631
518,-615,13.2416,9.81812,0,0,0,0,0,0,0,-1,1742,1639,13.2416,-9.81813
525,-615,4.37524,3.90491,0,0,0,0,0,0,0,-1,1749,1639,4.37518,-3.90495
532,-615,7.3645,0.848145,0,0,0,0,0,0,0,-1,1756,1639,7.36451,-0.848093
539,-615,12.8112,-0.0476074,0,0,0,0,0,0,0,-1,1763,1639,12.8111,0.0475553
546,-615,8.33813,2.94556,0,0,0,0,0,0,0,-1,1770,1639,8.33813,-2.9455
553,-615,5.82532,-2.04199,0,0,0,0,0,0,0,-1,1777,1639,5.82534,2.04195
560,-615,0,0,0,0,0,0,0,0,0,-1,1784,1639,0,0
567,-615,0,0,0,0,0,0,0,0,0,-1,1791,1639,0,0
574,-615,0,0,0,0,0,0,0,0,0,-1,1798,1639,0,0
581,-615,0,0,0,0,0,0,0,0,0,-1,1805,1639,0,0
588,-615,0,0,0,0,0,0,0,0,0,-1,1812,1639,0,0
595,-615,0,0,0,0,0,0,0,0,0,-1,1819,1639,0,0
602,-615,0,0,0,0,0,0,0,0,0,-1,1826,1639,0,0
609,-615,0,0,0,0,0,0,0,0,0,-1,1833,1639,0,0
616,-615,0,0,0,0,0,0,0,0,0,-1,1840,1639,0,0
623,-615,0,0,0,0,0,0,0,0,0,-1,1847,1639,0,0
630,-615,0,0,0,0,0,0,0,0,0,-1,1854,1639,0,0
637,-615,0,0,0,0,0,0,0,0,0,-1,1861,1639,0,0
644,-615,0,0,0,0,0,0,0,0,0,-1,1868,1639,0,0
651,-615,0,0,0,0,0,0,0,0,0,-1,1875,1639,0,0
658,-615,0,0,0,0,0,0,0,0,0,-1,1882,1639,0,0
665,-615,0,0,0,0,0,0,0,0,0,-1,1889,1639,0,0
672,-615,0,0,0,0,0,0,0,0,0,-1,1896,1639,0,0
679,-615,0,0,0,0,0,0,0,0,0,-1,1903,1639,0,0
686,-615,0,0,0,0,0,0,0,0,0,-1,1910,1639,0,0
693,-615,0,0,0,0,0,0,0,0,0,-1,1917,1639,0,0
700,-615,0,0,0,0,0,0,0,0,0,-1,1924,1639,0,0
707,-615,0,0,0,0,0,0,0,0,0,-1,1931,1639,0,0
714,-615,0,0,0,0,0,0,0,0,0,-1,1938,1639,0,0
721,-615,0,0,0,0,0,0,0,0,0,-1,1945,1639,0,0
728,-615,0,0,0,0,0,0,0,0,0,-1,1952,1639,0,0
735,-615,0,0,0,0,0,0,0,0,0,-1,1959,1639,0,0
742,-615,0,0,0,0,0,0,0,0,0,-1,1966,1639,0,0
749,-615,0,0,0,0,0,0,0,0,0,-1,1973,1639,0,0
756,-615,0,0,0,0,0,0,0,0,0,-1,1980,1639,0,0
763,-615,0,0,0,0,0,0,0,0,0,-1,1987,1639,0,0
770,-615,0,0,0,0,0,0,0,0,0,-1,1994,1639,0,0
777,-615,0,0,0,0,0,0,0,0,0,-1,2001,1639,0,0
784,-615,0,0,0,0,0,0,0,0,0,-1,2008,1639,0,0
791,-615,0,0,0,0,0,0,0,0,0,-1,2015,1639,0,0
798,-615,0,0,0,0,0,0,0,0,0,-1,2022,1639,0,0
805,-615,0,0,0,0,0,0,0,0,0,-1,2029,1639,0,0
812,-615,0,0,0,0,0,0,0,0,0,-1,2036,1639,0,0
-700,-622,0,0,0,0,0,0,0,0,0,-1,524,1646,0,0
-693,-622,0,0,0,0,0,0,0,0,0,-1,531,1646,0,0
-686,-622,0,0,0,0,0,0,0,0,0,-1,538,1646,0,0
-679,-622,0,0,0,0,0,0,0,0,0,-1,545,1646,0,0
-672,-622,0,0,0,0,0,0,0,0,0,-1,552,1646,0,0
-665,-622,0,0,0,0,0,0,0,0,0,-1,559,1646,0,0
-658,-622,0,0,0,0,0,0,0,0,0,-1,566,1646,0,0
-651,-622,0,0,0,0,0,0,0,0,0,-1,573,1646,0,0
-644,-622,0,0,0,0,0,0,0,0,0,-1,580,1646,0,0
-637,-622,0,0,0,0,0,0,0,0,0,-1,587,1646,0,0
-630,-622,0,0,0,0,0,0,0,0,0,-1,594,1646,0,0
-623,-622,0,0,0,0,0,0,0,0,0,-1,601,1646,0,0
-616,-622,0,0,0,0,0,0,0,0,0,-1,608,1646,0,0
-609,-622,0,0,0,0,0,0,0,0,0,-1,615,1646,0,0
-602,-622,0,0,0,0,0,0,0,0,0,-1,622,1646,0,0
-595,-622,0,0,0,0,0,0,0,0,0,-1,629,1646,0,0
-588,-622,0,0,0,0,0,0,0,0,0,-1,636,1646,0,0
-581,-622,0,0,0,0,0,0,0,0,0,-1,643,1646,0,0
-574,-622,0,0,0,0,0,0,0,0,0,-1,650,1646,0,0
-567,-622,0,0,0,0,0,0,0,0,0,-1,657,1646,0,0
-560,-622,0,0,0,0,0,0,0,0,0,-1,664,1646,0,0
-553,-622,0,0,0,0,0,0,0,0,0,-1,671,1646,0,0
-546,-622,0,0,0,0,0,0,0,0,0,-1,678,1646,0,0
-539,-622,0,0,0,0,0,0,0,0,0,-1,685,1646,0,0
-532,-622,0,0,0,0,0,0,0,0,0,-1,692,1646,0,0
-525,-622,0,0,0,0,0,0,0,0,0,-1,699,1646,0,0
-518,-622,0,0,0,0,0,0,0,0,0,-1,706,1646,0,0
-511,-622,0,0,0,0,0,0,0,0,0,-1,713,1646,0,0
-504,-622,0,0,0,0,0,0,0,0,0,-1,720,1646,0,0
-497,-622,0,0,0,0,0,0,0,0,0,-1,727,1646,0,0
-490,-622,0,0,0,0,0,0,0,0,0,-1,734,1646,0,0
-483,-622,0,0,0,0,0,0,0,0,0,-1,741,1646,0,0
-476,-622,0,0,0,0,0,0,0,0,0,-1,748,1646,0,0
-469,-622,0,0,0,0,0,0,0,0,0,-1,755,1646,0,0
-462,-622,0,0,0,0,0,0,0,0,0,-1,762,1646,0,0
-455,-622,0,0,0,0,0,0,0,0,0,-1,769,1646,0,0
-448,-622,0,0,0,0,0,0,0,0,0,-1,776,1646,0,0
-441,-622,0,0,0,0,0,0,0,0,0,-1,783,1646,0,0
-434,-622,0,0,0,0,0,0,0,0,0,-1,790,1646,0,0
-427,-622,-7.62891,3.48096,0,0,0,0,0,0,0,-1,797,1646,-7.62892,-3.48092
-420,-622,-9.35791,1.77185,0,0,0,0,0,0,0,-1,804,1646,-9.35789,-1.77183
-413,-622,-8.46075,1.96777,0,0,0,0,0,0,0,-1,811,1646,-8.46074,-1.96774
-406,-622,-4.44318,2.16858,0,0,0,0,0,0,0,-1,818,1646,-4.44315,-2.16859
-399,-622,-7.06976,1.51001,0,0,0,0,0,0,0,-1,825,1646,-7.06976,-1.51005
-392,-622,3.89551,5.85376,0,0,0,0,0,0,0,-1,832,1646,3.8955,-5.85379
-385,-622,2.00543,14.0448,0,0,0,0,0,0,0,-1,839,1646,2.00544,-14.0448
-378,-622,1.49036,15.3436,0,0,0,0,0,0,0,-1,846,1646,1.49033,-15.3436
-371,-622,3.23883,20.4496,0,0,0,0,0,0,0,-1,853,1646,3.23886,-20.4496
-364,-622,3.37775,26.6425,0,0,0,0,0,0,0,-1,860,1646,3.37774,-26.6425
-357,-622,3.81244,27.2504,0,0,0,0,0,0,0,-1,867,1646,3.81246,-27.2503
-350,-622,3.71234,27.7908,-0.00268379,-4.9357e-06,0.00125908,0.000493937,-0.00318266,1.19355,0.00230413,0.0494645,874,1646,3.71235,-27.7908
-343,-622,3.58752,28.2412,-0.00202147,0.000579079,0.00137297,0.00116977,-0.00261216,1.1645,0.00223581,0.0244831,881,1646,3.58755,-28.2412
-336,-622,3.57428,28.7473,-0.00131637,0.000841855,0.00140081,0.001531,-0.00200551,1.1136,0.00204793,0.00935212,888,1646,3.57426,-28.7474
-329,-622,3.53058,29.2452,-0.000804416,0.00140827,0.0014277,0.00210812,-0.00150426,1.11503,0.0020953,0.00786333,895,1646,3.53057,-29.2453
-322,-622,3.51178,29.751,-0.000401419,0.00170815,0.00141428,0.00241767,-0.00111094,1.1058,0.00208329,0.009691,902,1646,3.5118,-29.751
-315,-622,3.50269,30.2611,-5.96713e-05,0.0018502,0.0013165,0.00252163,-0.000731103,1.09917,0.00197053,0.01366,909,1646,3.50266,-30.2611
-308,-622,3.49261,30.7482,0.000327628,0.00202348,0.00123355,0.00267242,-0.000321317,1.0865,0.00189781,0.014835,916,1646,3.49264,-30.7481
-301,-622,3.47803,31.2361,0.000832265,0.00221402,0.00125302,0.002954,9.22822e-05,1.03735,0.0019393,0.0140282,923,1646,3.47801,-31.2361
-294,-622,3.45941,31.7463,0.00153883,0.0025474,0.00145878,0.0035866,0.000499627,0.951814,0.00224315,0.0104275,930,1646,3.45939,-31.7463
-287,-622,3.43896,32.2104,0.00223151,0.00301391,0.00169489,0.00436216,0.000883257,0.898817,0.00266297,0.00759555,937,1646,3.43899,-32.2104
-280,-622,3.41925,32.6646,0.00302583,0.00348808,0.00203749,0.00530751,0.0012064,0.841875,0.00321262,0.00889654,944,1646,3.41925,-32.6646
-273,-622,3.42053,33.1149,0.00392018,0.00382976,0.00243228,0.00630767,0.00144227,0.776105,0.00381631,0.0136822,951,1646,3.42054,-33.1148
-266,-622,3.39001,33.5826,0.00481658,0.00432083,0.00287206,0.00745144,0.00168597,0.742352,0.00451189,0.0125984,958,1646,3.39002,-33.5826
-259,-622,3.39221,34.0607,0.0058306,0.00490712,0.00336953,0.00876988,0.00196784,0.717305,0.00531353,0.0113388,965,1646,3.39221,-34.0606
-252,-622,3.39496,34.5103,0.00694834,0.00557579,0.00390404,0.010226,0.00229817,0.698394,0.00619501,0.0127011,972,1646,3.39497,-34.5102
-245,-622,3.44928,34.9705,0.00797681,0.0061365,0.00438924,0.0115413,0.002572,0.682075,0.00699628,0.011754,979,1646,3.44926,-34.9705
-238,-622,3.45605,35.4236,0.00953955,0.00654207,0.00467966,0.0129546,0.00312701,0.630425,0.00780572,0.0160532,986,1646,3.45608,-35.4236
-231,-622,3.54871,35.9586,0.0124928,0.0061982,0.00571415,0.0158691,0.00282193,0.533673,0.00977547,0.0296883,993,1646,3.54872,-35.9587
-224,-622,3.62891,36.2727,0.0150663,0.00523934,0.00818736,0.0197014,0.000604251,0.515141,0.0129375,0.0453113,1000,1646,3.62893,-36.2726
-217,-622,3.74481,36.8575,0,0,0,0,0,0,0,-1,1007,1646,3.7448,-36.8576
-210,-622,3.87927,28.0903,0,0,0,0,0,0,0,-1,1014,1646,3.87925,-28.0903
-203,-622,4.21375,20.9574,0,0,0,0,0,0,0,-1,1021,1646,4.21375,-20.9574
-196,-622,4.18518,21.2491,0,0,0,0,0,0,0,-1,1028,1646,4.18521,-21.2491
-189,-622,4.98254,25.8979,0,0,0,0,0,0,0,-1,1035,1646,4.98255,-25.8979
-182,-622,2.21411,20.6752,0,0,0,0,0,0,0,-1,1042,1646,2.21416,-20.6751
-175,-622,2.56091,11.0195,0,0,0,0,0,0,0,-1,1049,1646,2.56095,-11.0195
-168,-622,5.73315,39.0438,0,0,0,0,0,0,0,-1,1056,1646,5.73311,-39.0438
-161,-622,4.05786,40.103,0,0,0,0,0,0,0,-1,1063,1646,4.05784,-40.1031
-154,-622,4.09668,40.9131,0,0,0,0,0,0,0,-1,1070,1646,4.09668,-40.9131
-147,-622,4.91284,42.2523,0,0,0,0,0,0,0,-1,1077,1646,4.91284,-42.2523
-140,-622,3.27515,16.0353,0,0,0,0,0,0,0,-1,1084,1646,3.27519,-16.0353
-133,-622,3.09644,17.677,0,0,0,0,0,0,0,-1,1091,1646,3.09638,-17.677
-126,-622,3.5061,19.5251,0,0,0,0,0,0,0,-1,1098,1646,3.50616,-19.5252
-119,-622,4.06384,13.1715,0,0,0,0,0,0,0,-1,1105,1646,4.06379,-13.1716
-112,-622,4.33276,14.6605,0,0,0,0,0,0,0,-1,1112,1646,4.33281,-14.6605
-105,-622,0.306519,4.38159,0,0,0,0,0,0,0,-1,1119,1646,0.306536,-4.38159
-98,-622,-0.510376,3.5033,0,0,0,0,0,0,0,-1,1126,1646,-0.510393,-3.50324
-91,-622,-1.146,0.975952,0,0,0,0,0,0,0,-1,1133,1646,-1.14599,-0.97597
-84,-622,-2.04895,1.31787,0,0,0,0,0,0,0,-1,1140,1646,-2.0489,-1.31781
-77,-622,-1.80627,0.332275,0,0,0,0,0,0,0,-1,1147,1646,-1.80622,-0.33223
-70,-622,-3.65588,2.28149,0,0,0,0,0,0,0,-1,1154,1646,-3.65589,-2.28155
-63,-622,-2.49683,1.27087,0,0,0,0,0,0,0,-1,1161,1646,-2.49679,-1.27093
-56,-622,-2.44238,-0.575562,0,0,0,0,0,0,0,-1,1168,1646,-2.44242,0.575508
-49,-622,-2.41089,1.38818,0,0,0,0,0,0,0,-1,1175,1646,-2.41088,-1.38815
-42,-622,-2.71497,2.85242,0,0,0,0,0,0,0,-1,1182,1646,-2.71491,-2.85247
-35,-622,-3.0177,4.25842,0,0,0,0,0,0,0,-1,1189,1646,-3.01773,-4.25838
-28,-622,-0.896606,0.678833,0,0,0,0,0,0,0,-1,1196,1646,-0.89661,-0.678835
-21,-622,16.4141,36.2849,0,0,0,0,0,0,0,-1,1203,1646,16.4141,-36.285
-14,-622,12.7726,35.3608,0,0,0,0,0,0,0,-1,1210,1646,12.7726,-35.3609
-7,-622,5.90784,51.5118,0,0,0,0,0,0,0,-1,1217,1646,5.90783,-51.5119
0,-622,0,0,0,0,0,0,0,0,0,-1,1224,1646,0,0
7,-622,0,0,0,0,0,0,0,0,0,-1,1231,1646,0,0
14,-622,0,0,0,0,0,0,0,0,0,-1,1238,1646,0,0
21,-622,0,0,0,0,0,0,0,0,0,-1,1245,1646,0,0
28,-622,0,0,0,0,0,0,0,0,0,-1,1252,1646,0,0
35,-622,0,0,0,0,0,0,0,0,0,-1,1259,1646,0,0
42,-622,0,0,0,0,0,0,0,0,0,-1,1266,1646,0,0
49,-622,0,0,0,0,0,0,0,0,0,-1,1273,1646,0,0
56,-622,0,0,0,0,0,0,0,0,0,-1,1280,1646,0,0
63,-622,0,0,0,0,0,0,0,0,0,-1,1287,1646,0,0
70,-622,0,0,0,0,0,0,0,0,0,-1,1294,1646,0,0
77,-622,0,0,0,0,0,0,0,0,0,-1,1301,1646,0,0
84,-622,0,0,0,0,0,0,0,0,0,-1,1308,1646,0,0
91,-622,0,0,0,0,0,0,0,0,0,-1,1315,1646,0,0
98,-622,0,0,0,0,0,0,0,0,0,-1,1322,1646,0,0
105,-622,0,0,0,0,0,0,0,0,0,-1,1329,1646,0,0
112,-622,0,0,0,0,0,0,0,0,0,-1,1336,1646,0,0
119,-622,0,0,0,0,0,0,0,0,0,-1,1343,1646,0,0
126,-622,15.2455,40.0402,0,0,0,0,0,0,0,-1,1350,1646,15.2455,-40.0402
133,-622,16.0253,39.874,0,0,0,0,0,0,0,-1,1357,1646,16.0252,-39.874
140,-622,16.6608,39.7794,0,0,0,0,0,0,0,-1,1364,1646,16.6608,-39.7795
147,-622,17.6626,39.6259,0,0,0,0,0,0,0,-1,1371,1646,17.6626,-39.6259
154,-622,18.7136,39.5732,0,0,0,0,0,0,0,-1,1378,1646,18.7137,-39.5732
161,-622,10.6884,6.46448,0,0,0,0,0,0,0,-1,1385,1646,10.6883,-6.46442
168,-622,12.2402,5.18091,0,0,0,0,0,0,0,-1,1392,1646,12.2403,-5.1809
175,-622,5.64355,-1.77075,0,0,0,0,0,0,0,-1,1399,1646,5.64351,1.77077
182,-622,5.88586,-1.32251,0,0,0,0,0,0,0,-1,1406,1646,5.88587,1.32256
189,-622,5.97986,-1.18005,0,0,0,0,0,0,0,-1,1413,1646,5.97986,1.18003
196,-622,5.85022,-0.244507,0,0,0,0,0,0,0,-1,1420,1646,5.85026,0.244478
203,-622,5.25159,0.138794,0,0,0,0,0,0,0,-1,1427,1646,5.25162,-0.138822
210,-622,6.66833,0.0397949,0,0,0,0,0,0,0,-1,1434,1646,6.6684,-0.0398278
217,-622,6.12061,0.0506592,0,0,0,0,0,0,0,-1,1441,1646,6.12058,-0.0507181
224,-622,5.57275,0.0616455,0,0,0,0,0,0,0,-1,1448,1646,5.57276,-0.0616084
231,-622,5.31348,1.3949,0,0,0,0,0,0,0,-1,1455,1646,5.31342,-1.39495
238,-622,3.76477,2.90686,0,0,0,0,0,0,0,-1,1462,1646,3.7648,-2.90686
245,-622,5.13794,2.67993,0,0,0,0,0,0,0,-1,1469,1646,5.13796,-2.67992
252,-622,6.66528,2.53992,0,0,0,0,0,0,0,-1,1476,1646,6.66522,-2.53991
259,-622,8.93787,3.31458,0,0,0,0,0,0,0,-1,1483,1646,8.93791,-3.31454
266,-622,5.72644,3.11926,0,0,0,0,0,0,0,-1,1490,1646,5.72647,-3.1192
273,-622,7.28076,3.61218,0,0,0,0,0,0,0,-1,1497,1646,7.28071,-3.61212
280,-622,8.43127,4.4447,0,0,0,0,0,0,0,-1,1504,1646,8.43123,-4.44467
287,-622,8.60315,5.94617,0,0,0,0,0,0,0,-1,1511,1646,8.60319,-5.94622
294,-622,7.62756,11.5143,0,0,0,0,0,0,0,-1,1518,1646,7.62762,-11.5143
301,-622,7.36548,11.6569,0,0,0,0,0,0,0,-1,1525,1646,7.36549,-11.6569
308,-622,7.10339,11.7994,0,0,0,0,0,0,0,-1,1532,1646,7.10335,-11.7995
315,-622,8.28687,16.5842,0,0,0,0,0,0,0,-1,1539,1646,8.28689,-16.5843
322,-622,7.43689,20.5786,0,0,0,0,0,0,0,-1,1546,1646,7.43685,-20.5786
329,-622,9.76477,26.4202,0,0,0,0,0,0,0,-1,1553,1646,9.7648,-26.4202
336,-622,10.4526,28.8552,0,0,0,0,0,0,0,-1,1560,1646,10.4526,-28.8552
343,-622,12.5027,37.9943,0,0,0,0,0,0,0,-1,1567,1646,12.5026,-37.9942
350,-622,13.3669,37.0991,0,0,0,0,0,0,0,-1,1574,1646,13.367,-37.0992
357,-622,13.3491,36.931,0.0214589,0.0268607,-0.0186435,0.0429979,0.0053217,-0.857333,0.0270663,0.046632,1581,1646,13.3492,-36.931
364,-622,13.4302,36.3735,0.0188272,0.0229524,-0.0161503,0.0371712,0.00460833,-0.848912,0.0233965,0.0391182,1588,1646,13.4302,-36.3735
371,-622,13.5143,35.7665,0.0160477,0.0192452,-0.0134975,0.0312383,0.00405463,-0.844347,0.0196142,0.0240757,1595,1646,13.5143,-35.7665
378,-622,13.5338,35.2711,0.0129597,0.0159847,-0.0107484,0.0253265,0.00361783,-0.855299,0.0158169,0.0111133,1602,1646,13.5338,-35.2711
385,-622,13.5302,34.8066,0.0101124,0.0128488,-0.00828737,0.0198802,0.00308105,-0.867209,0.0123552,0.00980139,1609,1646,13.5301,-34.8067
392,-622,13.5161,34.3981,0.00757678,0.00997088,-0.00612334,0.0150131,0.00253458,-0.881926,0.00927996,0.0116681,1616,1646,13.5161,-34.3981
399,-622,13.5049,33.9749,0.00515525,0.00739117,-0.00407889,0.0105025,0.00204389,-0.919155,0.00642961,0.0117558,1623,1646,13.5049,-33.9749
406,-622,13.5157,33.5227,0.0031713,0.00548394,-0.00259362,0.00716733,0.00148792,-0.99509,0.00436756,0.0143814,1630,1646,13.5157,-33.5227
413,-622,13.5116,33.0864,0.00167994,0.00393083,-0.00148065,0.00466521,0.000945557,-1.11037,0.00284777,0.0151485,1637,1646,13.5116,-33.0864
420,-622,13.5093,32.6687,0.000424178,0.00258513,-0.000511388,0.00270003,0.000309268,-1.34977,0.0017063,0.0154411,1644,1646,13.5092,-32.6686
427,-622,13.4979,32.192,-0.000517435,0.0016436,5.95943e-05,0.00164525,-0.000519077,1.54325,0.00130474,0.0131062,1651,1646,13.4979,-32.192
434,-622,13.4983,31.7245,-0.000989233,0.00114905,0.000206796,0.00116886,-0.00100905,1.47526,0.00125854,0.0139416,1658,1646,13.4983,-31.7245
441,-622,13.4934,31.2582,-0.00110577,0.000903266,0.000139642,0.000912926,-0.00111543,1.50173,0.00117302,0.0148266,1665,1646,13.4934,-31.2582
448,-622,13.4628,30.814,-0.00112766,0.000440445,0.000110827,0.000448239,-0.00113546,1.50059,0.000942606,0.0142117,1672,1646,13.4627,-30.814
455,-622,13.4355,30.3357,-0.00109595,-5.54543e-05,9.47829e-05,-4.68905e-05,-0.00110451,1.48069,0.000721218,0.0171703,1679,1646,13.4355,-30.3357
462,-622,13.4292,29.8661,-0.0011663,-0.000837476,0.00024152,-0.000709718,-0.00129406,1.08424,0.000748293,0.0182959,1686,1646,13.4291,-29.866
469,-622,13.4099,29.4059,-0.0012812,-0.00163534,0.000443156,-0.000981048,-0.00193549,0.595332,0.00111749,0.0191869,1693,1646,13.41,-29.4059
476,-622,13.486,28.9181,-0.00150233,-0.00255056,0.000831062,-0.00104392,-0.00300897,0.50407,0.00176416,0.0289275,1700,1646,13.4859,-28.9181
483,-622,13.3976,28.5159,-0.00212338,-0.00337992,0.00138158,-0.00123393,-0.00426938,0.572002,0.00253702,0.0431475,1707,1646,13.3976,-28.5158
490,-622,13.4409,27.9325,0,0,0,0,0,0,0,-1,1714,1646,13.4409,-27.9325
497,-622,13.3009,27.8496,0,0,0,0,0,0,0,-1,1721,1646,13.3009,-27.8496
504,-622,10.8306,19.8021,0,0,0,0,0,0,0,-1,1728,1646,10.8306,-19.8022
511,-622,5.29004,4.14587,0,0,0,0,0,0,0,-1,1735,1646,5.29008,-4.14589
518,-622,5.6001,1.55359,0,0,0,0,0,0,0,-1,1742,1646,5.60015,-1.5536
525,-622,5.83093,2.01807,0,0,0,0,0,0,0,-1,1749,1646,5.83097,-2.01802
532,-622,5.44202,0.57373,0,0,0,0,0,0,0,-1,1756,1646,5.44196,-0.573705
539,-622,9.32129,1.06116,0,0,0,0,0,0,0,-1,1763,1646,9.32131,-1.0612
546,-622,6.50977,-3.45618,0,0,0,0,0,0,0,-1,1770,1646,6.50981,3.4562
553,-622,0,0,0,0,0,0,0,0,0,-1,1777,1646,0,0
560,-622,0,0,0,0,0,0,0,0,0,-1,1784,1646,0,0
567,-622,0,0,0,0,0,0,0,0,0,-1,1791,1646,0,0
574,-622,0,0,0,0,0,0,0,0,0,-1,1798,1646,0,0
581,-622,0,0,0,0,0,0,0,0,0,-1,1805,1646,0,0
588,-622,0,0,0,0,0,0,0,0,0,-1,1812,1646,0,0
595,-622,0,0,0,0,0,0,0,0,0,-1,1819,1646,0,0
602,-622,0,0,0,0,0,0,0,0,0,-1,1826,1646,0,0
609,-622,0,0,0,0,0,0,0,0,0,-1,1833,1646,0,0
616,-622,0,0,0,0,0,0,0,0,0,-1,1840,1646,0,0
623,-622,0,0,0,0,0,0,0,0,0,-1,1847,1646,0,0
630,-622,0,0,0,0,0,0,0,0,0,-1,1854,1646,0,0
637,-622,0,0,0,0,0,0,0,0,0,-1,1861,1646,0,0
644,-622,0,0,0,0,0,0,0,0,0,-1,1868,1646,0,0
651,-622,0,0,0,0,0,0,0,0,0,-1,1875,1646,0,0
658,-622,0,0,0,0,0,0,0,0,0,-1,1882,1646,0,0
665,-622,0,0,0,0,0,0,0,0,0,-1,1889,1646,0,0
672,-622,0,0,0,0,0,0,0,0,0,-1,1896,1646,0,0
679,-622,0,0,0,0,0,0,0,0,0,-1,1903,1646,0,0
686,-622,0,0,0,0,0,0,0,0,0,-1,1910,1646,0,0
693,-622,0,0,0,0,0,0,0,0,0,-1,1917,1646,0,0
700,-622,0,0,0,0,0,0,0,0,0,-1,1924,1646,0,0
707,-622,0,0,0,0,0,0,0,0,0,-1,1931,1646,0,0
714,-622,0,0,0,0,0,0,0,0,0,-1,1938,1646,0,0
721,-622,0,0,0,0,0,0,0,0,0,-1,1945,1646,0,0
728,-622,0,0,0,0,0,0,0,0,0,-1,1952,1646,0,0
735,-622,0,0,0,0,0,0,0,0,0,-1,1959,1646,0,0
742,-622,0,0,0,0,0,0,0,0,0,-1,1966,1646,0,0
749,-622,0,0,0,0,0,0,0,0,0,-1,1973,1646,0,0
756,-622,0,0,0,0,0,0,0,0,0,-1,1980,1646,0,0
763,-622,0,0,0,0,0,0,0,0,0,-1,1987,1646,0,0
770,-622,0,0,0,0,0,0,0,0,0,-1,1994,1646,0,0
777,-622,0,0,0,0,0,0,0,0,0,-1,2001,1646,0,0
784,-622,0,0,0,0,0,0,0,0,0,-1,2008,1646,0,0
791,-622,0,0,0,0,0,0,0,0,0,-1,2015,1646,0,0
798,-622,0,0,0,0,0,0,0,0,0,-1,2022,1646,0,0
805,-622,0,0,0,0,0,0,0,0,0,-1,2029,1646,0,0
812,-622,0,0,0,0,0,0,0,0,0,-1,2036,1646,0,0
-700,-629,0,0,0,0,0,0,0,0,0,-1,524,1653,0,0
-693,-629,0,0,0,0,0,0,0,0,0,-1,531,1653,0,0
-686,-629,0,0,0,0,0,0,0,0,0,-1,538,1653,0,0
-679,-629,0,0,0,0,0,0,0,0,0,-1,545,1653,0,0
-672,-629,0,0,0,0,0,0,0,0,0,-1,552,1653,0,0
-665,-629,0,0,0,0,0,0,0,0,0,-1,559,1653,0,0
-658,-629,0,0,0,0,0,0,0,0,0,-1,566,1653,0,0
-651,-629,0,0,0,0,0,0,0,0,0,-1,573,1653,0,0
-644,-629,0,0,0,0,0,0,0,0,0,-1,580,1653,0,0
-637,-629,0,0,0,0,0,0,0,0,0,-1,587,1653,0,0
-630,-629,0,0,0,0,0,0,0,0,0,-1,594,1653,0,0
-623,-629,0,0,0,0,0,0,0,0,0,-1,601,1653,0,0
-616,-629,0,0,0,0,0,0,0,0,0,-1,608,1653,0,0
-609,-629,0,0,0,0,0,0,0,0,0,-1,615,1653,0,0
-602,-629,0,0,0,0,0,0,0,0,0,-1,622,1653,0,0
-595,-629,0,0,0,0,0,0,0,0,0,-1,629,1653,0,0
-588,-629,0,0,0,0,0,0,0,0,0,-1,636,1653,0,0
-581,-629,0,0,0,0,0,0,0,0,0,-1,643,1653,0,0
-574,-629,0,0,0,0,0,0,0,0,0,-1,650,1653,0,0
-567,-629,0,0,0,0,0,0,0,0,0,-1,657,1653,0,0
-560,-629,0,0,0,0,0,0,0,0,0,-1,664,1653,0,0
-553,-629,0,0,0,0,0,0,0,0,0,-1,671,1653,0,0
-546,-629,0,0,0,0,0,0,0,0,0,-1,678,1653,0,0
-539,-629,0,0,0,0,0,0,0,0,0,-1,685,1653,0,0
-532,-629,0,0,0,0,0,0,0,0,0,-1,692,1653,0,0
-525,-629,0,0,0,0,0,0,0,0,0,-1,699,1653,0,0
-518,-629,0,0,0,0,0,0,0,0,0,-1,706,1653,0,0
-511,-629,0,0,0,0,0,0,0,0,0,-1,713,1653,0,0
-504,-629,0,0,0,0,0,0,0,0,0,-1,720,1653,0,0
-497,-629,0,0,0,0,0,0,0,0,0,-1,727,1653,0,0
-490,-629,0,0,0,0,0,0,0,0,0,-1,734,1653,0,0
-483,-629,0,0,0,0,0,0,0,0,0,-1,741,1653,0,0
-476,-629,0,0,0,0,0,0,0,0,0,-1,748,1653,0,0
-469,-629,0,0,0,0,0,0,0,0,0,-1,755,1653,0,0
-462,-629,0,0,0,0,0,0,0,0,0,-1,762,1653,0,0
-455,-629,0,0,0,0,0,0,0,0,0,-1,769,1653,0,0
-448,-629,0,0,0,0,0,0,0,0,0,-1,776,1653,0,0
-441,-629,0,0,0,0,0,0,0,0,0,-1,783,1653,0,0
-434,-629,0,0,0,0,0,0,0,0,0,-1,790,1653,0,0
-427,-629,0,0,0,0,0,0,0,0,0,-1,797,1653,0,0
-420,-629,-3.87103,3.37634,0,0,0,0,0,0,0,-1,804,1653,-3.87101,-3.37633
-413,-629,-5.69751,1.33582,0,0,0,0,0,0,0,-1,811,1653,-5.69754,-1.3358
-406,-629,2.85406,6.01501,0,0,0,0,0,0,0,-1,818,1653,2.85405,-6.01507
-399,-629,-0.455627,10.8687,0,0,0,0,0,0,0,-1,825,1653,-0.455625,-10.8687
-392,-629,1.15369,11.1295,0,0,0,0,0,0,0,-1,832,1653,1.1537,-11.1295
-385,-629,1.81976,11.6935,0,0,0,0,0,0,0,-1,839,1653,1.81975,-11.6935
-378,-629,2.19452,14.7941,0,0,0,0,0,0,0,-1,846,1653,2.19451,-14.7941
-371,-629,3.60114,14.7299,0,0,0,0,0,0,0,-1,853,1653,3.60113,-14.7299
-364,-629,3.26898,21.0801,0,0,0,0,0,0,0,-1,860,1653,3.26895,-21.08
-357,-629,4.38782,16.3444,0,0,0,0,0,0,0,-1,867,1653,4.38783,-16.3443
-350,-629,4.30048,27.9868,0,0,0,0,0,0,0,-1,874,1653,4.30046,-27.9868
-343,-629,3.9881,28.319,-0.00231038,0.001667,0.00193419,0.00245248,-0.00309585,1.18504,0.0032105,0.0398267,881,1653,3.9881,-28.319
-336,-629,4.03802,28.7609,-0.00166952,0.00168666,0.00181262,0.00247871,-0.00246156,1.15884,0.00285227,0.0199837,888,1653,4.03804,-28.7609
-329,-629,4.05139,29.2645,-0.00127637,0.00197605,0.00167054,0.00268121,-0.00198153,1.17137,0.00270212,0.0115863,895,1653,4.05139,-29.2645
-322,-629,4.01221,29.7727,-0.000972029,0.00197174,0.00147861,0.00258618,-0.00158647,1.17696,0.00243202,0.0118632,902,1653,4.0122,-29.7727
-315,-629,3.98163,30.2855,-0.000735856,0.00180334,0.00121136,0.00228853,-0.00122104,1.18983,0.00205726,0.0150225,909,1653,3.98163,-30.2855
-308,-629,3.9693,30.7755,-0.00046274,0.00168884,0.000982434,0.00206993,-0.000843831,1.20076,0.0017312,0.012502,916,1653,3.96929,-30.7755
-301,-629,3.9682,31.2834,-8.53633e-05,0.00162197,0.000841933,0.0019673,-0.000430696,1.18156,0.00147619,0.0116362,923,1653,3.96821,-31.2835
-294,-629,3.9502,31.7583,0.000493083,0.00174293,0.000897946,0.00221201,2.40071e-05,1.0894,0.00146673,0.0126244,930,1653,3.95019,-31.7584
-287,-629,3.91571,32.2289,0.00107161,0.00200938,0.00102012,0.00266321,0.000417782,1.00082,0.0016539,0.0100186,937,1653,3.91573,-32.2288
-280,-629,3.90002,32.6981,0.00171941,0.00234052,0.00125748,0.00332522,0.000734707,0.90646,0.00201702,0.0100011,944,1653,3.9,-32.6981
-273,-629,3.88629,33.1372,0.00246921,0.00255628,0.00155522,0.00406857,0.000956917,0.799391,0.00245635,0.0128831,951,1653,3.88628,-33.1372
-266,-629,3.87195,33.6111,0.00327069,0.00292267,0.00190929,0.00501388,0.00117948,0.739954,0.00302702,0.0126213,958,1653,3.87197,-33.6111
-259,-629,3.8714,34.1007,0.0041246,0.00347377,0.00232442,0.00614627,0.0014521,0.715851,0.00370946,0.013443,965,1653,3.8714,-34.1007
-252,-629,3.87726,34.5228,0.00501393,0.00410923,0.00275668,0.00735513,0.00176803,0.704077,0.0044332,0.0112414,972,1653,3.87726,-34.5228
-245,-629,3.89465,34.985,0.00585626,0.00468118,0.00315094,0.00847397,0.00206347,0.693224,0.00510252,0.00845745,979,1653,3.89467,-34.985
-238,-629,3.88879,35.4331,0.00715478,0.00509755,0.00336963,0.0096493,0.00260303,0.63726,0.00576454,0.0112925,986,1653,3.88881,-35.4332
-231,-629,3.8573,35.8586,0.00954293,0.00491866,0.0042063,0.0120307,0.00243091,0.534098,0.00734548,0.0183764,993,1653,3.85731,-35.8586
-224,-629,3.95648,36.4338,0.0116077,0.00418795,0.00614812,0.0150785,0.000717115,0.513934,0.00982205,0.022853,1000,1653,3.95647,-36.4339
-217,-629,3.88745,36.7776,0.0118403,0.00318015,0.0084686,0.0170217,-0.00200116,0.54907,0.0120702,0.0369907,1007,1653,3.88744,-36.7775
-210,-629,4.0802,37.3273,0,0,0,0,0,0,0,-1,1014,1653,4.0802,-37.3272
-203,-629,4.29248,38.3395,0,0,0,0,0,0,0,-1,1021,1653,4.29252,-38.3395
-196,-629,4.4856,38.2406,0,0,0,0,0,0,0,-1,1028,1653,4.48562,-38.2406
-189,-629,4.37769,38.4032,0,0,0,0,0,0,0,-1,1035,1653,4.37766,-38.4032
-182,-629,5.81189,38.371,0,0,0,0,0,0,0,-1,1042,1653,5.81189,-38.371
-175,-629,6.81274,38.3777,0,0,0,0,0,0,0,-1,1049,1653,6.81273,-38.3776
-168,-629,5.39075,39.3019,0,0,0,0,0,0,0,-1,1056,1653,5.39079,-39.3018
-161,-629,4.33215,40.0394,-0.0195886,-0.00436778,0.0335416,0.022416,-0.0463724,0.896957,0.0405099,0.0494463,1063,1653,4.33215,-40.0395
-154,-629,4.2478,40.4528,0,0,0,0,0,0,0,-1,1070,1653,4.2478,-40.4528
-147,-629,4.13574,40.9161,0,0,0,0,0,0,0,-1,1077,1653,4.13575,-40.9161
-140,-629,2.34851,19.2911,0,0,0,0,0,0,0,-1,1084,1653,2.34853,-19.2911
-133,-629,3.41248,17.6686,0,0,0,0,0,0,0,-1,1091,1653,3.41243,-17.6686
-126,-629,4.01025,19.5328,0,0,0,0,0,0,0,-1,1098,1653,4.01022,-19.5328
-119,-629,4.94177,13.5525,0,0,0,0,0,0,0,-1,1105,1653,4.94172,-13.5525
-112,-629,5.63123,15.9187,0,0,0,0,0,0,0,-1,1112,1653,5.63118,-15.9187
-105,-629,2.15881,4.38342,0,0,0,0,0,0,0,-1,1119,1653,2.15878,-4.38347
-98,-629,0.825806,4.19385,0,0,0,0,0,0,0,-1,1126,1653,0.825779,-4.1939
-91,-629,-0.452271,3.64465,0,0,0,0,0,0,0,-1,1133,1653,-0.452278,-3.6446
-84,-629,-2.6084,0.466797,0,0,0,0,0,0,0,-1,1140,1653,-2.6084,-0.466786
-77,-629,-3.50903,2.10706,0,0,0,0,0,0,0,-1,1147,1653,-3.509,-2.10707
-70,-629,-1.20886,2.52502,0,0,0,0,0,0,0,-1,1154,1653,-1.20886,-2.525
-63,-629,-0.960693,4.30212,0,0,0,0,0,0,0,-1,1161,1653,-0.960691,-4.30215
-56,-629,-1.31934,5.64343,0,0,0,0,0,0,0,-1,1168,1653,-1.31928,-5.6434
-49,-629,-2.15662,2.57458,0,0,0,0,0,0,0,-1,1175,1653,-2.15656,-2.57459
-42,-629,-2.46326,3.91467,0,0,0,0,0,0,0,-1,1182,1653,-2.4633,-3.91466
-35,-629,-2.67261,5.24292,0,0,0,0,0,0,0,-1,1189,1653,-2.67257,-5.24298
-28,-629,-0.402954,-0.866577,0,0,0,0,0,0,0,-1,1196,1653,-0.402943,0.866612
-21,-629,3.45508,27.0596,0,0,0,0,0,0,0,-1,1203,1653,3.45508,-27.0596
-14,-629,6.25012,50.6627,0,0,0,0,0,0,0,-1,1210,1653,6.25017,-50.6627
-7,-629,13.8059,52.1747,0,0,0,0,0,0,0,-1,1217,1653,13.8059,-52.1746
0,-629,12.8167,51.5664,-0.128022,-0.0575219,-0.0249244,-0.0496003,-0.135944,-1.26307,0.079437,0.0485194,1224,1653,12.8167,-51.5664
7,-629,11.6869,51.0791,-0.114431,-0.0341104,-0.0289468,-0.0247655,-0.123776,-1.25853,0.0756262,0.0436093,1231,1653,11.6868,-51.0791
14,-629,10.7704,50.3004,-0.110095,-0.0122625,-0.0327504,-0.00231119,-0.120046,-1.27581,0.0792718,0.0438277,1238,1653,10.7704,-50.3004
21,-629,10.0625,49.7889,-0.108362,0.0104532,-0.0368983,0.0209795,-0.118888,-1.2929,0.0870981,0.0466111,1245,1653,10.0625,-49.7889
28,-629,9.53113,49.6906,0,0,0,0,0,0,0,-1,1252,1653,9.53116,-49.6906
35,-629,8.94763,49.4677,0,0,0,0,0,0,0,-1,1259,1653,8.94766,-49.4676
42,-629,8.60107,49.0542,-0.109772,0.0725389,-0.0525503,0.0866016,-0.123835,-1.30932,0.122128,0.0476221,1266,1653,8.60108,-49.0542
49,-629,7.61926,48.8082,0,0,0,0,0,0,0,-1,1273,1653,7.61927,-48.8082
56,-629,7.32983,49.2545,0,0,0,0,0,0,0,-1,1280,1653,7.32988,-49.2545
63,-629,6.74597,48.879,-0.131866,0.120747,-0.0688111,0.138275,-0.149393,-1.32138,0.166127,0.0485366,1287,1653,6.74602,-48.8791
70,-629,6.16187,48.5571,-0.138591,0.129413,-0.0745308,0.148745,-0.157923,-1.317,0.177081,0.0473881,1294,1653,6.16187,-48.5571
77,-629,5.50049,46.4766,0,0,0,0,0,0,0,-1,1301,1653,5.50051,-46.4765
84,-629,4.18262,46.411,-0.157797,0.124832,-0.0865856,0.149249,-0.182213,-1.29594,0.191685,0.0440302,1308,1653,4.1826,-46.4111
91,-629,2.85083,46.3687,-0.171299,0.118508,-0.0911249,0.144779,-0.19757,-1.29011,0.198437,0.0432919,1315,1653,2.85085,-46.3687
98,-629,1.66199,45.947,-0.18722,0.111998,-0.0959724,0.140135,-0.215356,-1.28561,0.206769,0.0451351,1322,1653,1.66199,-45.947
105,-629,0.879761,45.4481,0,0,0,0,0,0,0,-1,1329,1653,0.879817,-45.4481
112,-629,0.22229,44.9824,0,0,0,0,0,0,0,-1,1336,1653,0.222339,-44.9824
119,-629,13.1476,40.0026,0,0,0,0,0,0,0,-1,1343,1653,13.1476,-40.0026
126,-629,14.1638,40.1765,0,0,0,0,0,0,0,-1,1350,1653,14.1638,-40.1766
133,-629,15.0887,40.2295,0,0,0,0,0,0,0,-1,1357,1653,15.0887,-40.2295
140,-629,15.9175,40.1821,0,0,0,0,0,0,0,-1,1364,1653,15.9175,-40.1821
147,-629,16.7604,40.0328,0,0,0,0,0,0,0,-1,1371,1653,16.7603,-40.0329
154,-629,1.58569,52.5651,0,0,0,0,0,0,0,-1,1378,1653,1.58564,-52.5651
161,-629,10.5461,6.83752,0,0,0,0,0,0,0,-1,1385,1653,10.5461,-6.83758
168,-629,12.0059,5.56348,0,0,0,0,0,0,0,-1,1392,1653,12.0059,-5.56352
175,-629,5.84485,-1.78845,0,0,0,0,0,0,0,-1,1399,1653,5.84479,1.7884
182,-629,5.99036,-1.27783,0,0,0,0,0,0,0,-1,1406,1653,5.99041,1.27778
189,-629,5.97668,-0.748535,0,0,0,0,0,0,0,-1,1413,1653,5.97671,0.748544
196,-629,4.52869,9.24695,0,0,0,0,0,0,0,-1,1420,1653,4.52869,-9.2469
203,-629,3.75085,6.88037,0,0,0,0,0,0,0,-1,1427,1653,3.75087,-6.88032
210,-629,3.5907,6.52637,0,0,0,0,0,0,0,-1,1434,1653,3.59067,-6.52642
217,-629,2.4585,4.84448,0,0,0,0,0,0,0,-1,1441,1653,2.45855,-4.84448
224,-629,1.31982,3.68481,0,0,0,0,0,0,0,-1,1448,1653,1.31986,-3.68487
231,-629,3.63025,1.73499,0,0,0,0,0,0,0,-1,1455,1653,3.6303,-1.735
238,-629,4.26428,2.11255,0,0,0,0,0,0,0,-1,1462,1653,4.26429,-2.11253
245,-629,5.61816,1.95361,0,0,0,0,0,0,0,-1,1469,1653,5.61815,-1.95359
252,-629,7.27136,2.18982,0,0,0,0,0,0,0,-1,1476,1653,7.27131,-2.18985
259,-629,8.67334,2.18628,0,0,0,0,0,0,0,-1,1483,1653,8.6733,-2.18633
266,-629,6.86475,3.72058,0,0,0,0,0,0,0,-1,1490,1653,6.86479,-3.72063
273,-629,7.9021,3.8717,0,0,0,0,0,0,0,-1,1497,1653,7.90205,-3.87171
280,-629,9.70837,4.39087,0,0,0,0,0,0,0,-1,1504,1653,9.7084,-4.39082
287,-629,9.82947,7.19348,0,0,0,0,0,0,0,-1,1511,1653,9.8295,-7.19347
294,-629,6.56555,11.6359,0,0,0,0,0,0,0,-1,1518,1653,6.5656,-11.6358
301,-629,12.677,38.8341,0,0,0,0,0,0,0,-1,1525,1653,12.6771,-38.8341
308,-629,6.08264,12.1423,0,0,0,0,0,0,0,-1,1532,1653,6.08263,-12.1423
315,-629,6.82043,18.2764,0,0,0,0,0,0,0,-1,1539,1653,6.82049,-18.2764
322,-629,10.3922,29.9829,0,0,0,0,0,0,0,-1,1546,1653,10.3922,-29.9829
329,-629,12.8889,38.2427,0,0,0,0,0,0,0,-1,1553,1653,12.8889,-38.2427
336,-629,12.4962,38.2869,0,0,0,0,0,0,0,-1,1560,1653,12.4962,-38.2868
343,-629,12.5944,37.6738,0.0183726,0.0264812,-0.0158636,0.0388004,0.00605347,-0.910506,0.0241038,0.0435843,1567,1653,12.5944,-37.6738
350,-629,12.99,37.0081,0.0174607,0.0228727,-0.0150621,0.0354699,0.00486341,-0.874278,0.0222037,0.0280915,1574,1653,12.99,-37.0081
357,-629,13.1173,36.4946,0.0157767,0.020266,-0.0135368,0.031743,0.00429973,-0.867558,0.0198843,0.0165658,1581,1653,13.1173,-36.4947
364,-629,13.0864,36.0841,0.0140086,0.0174687,-0.0119265,0.02779,0.00368726,-0.857426,0.0174281,0.014296,1588,1653,13.0864,-36.084
371,-629,13.0809,35.6833,0.0120498,0.0147469,-0.0101092,0.0235971,0.00319958,-0.851704,0.0147808,0.0117946,1595,1653,13.0809,-35.6833
378,-629,13.0986,35.2515,0.0099123,0.0122481,-0.00820656,0.0193694,0.00279094,-0.856079,0.0120905,0.0102278,1602,1653,13.0986,-35.2515
385,-629,13.1036,34.8329,0.00785105,0.00974151,-0.0064062,0.0152718,0.00232072,-0.858644,0.00950259,0.0119639,1609,1653,13.1037,-34.8329
392,-629,13.0948,34.4133,0.00586699,0.00731616,-0.0047269,0.0113737,0.00180946,-0.861451,0.00705706,0.0111251,1616,1653,13.0948,-34.4133
399,-629,13.0818,33.9812,0.00386911,0.00503602,-0.00306063,0.00756831,0.00133681,-0.879584,0.00466424,0.0114603,1623,1653,13.0818,-33.9811
406,-629,13.0742,33.5149,0.0021722,0.00337533,-0.00180857,0.00467976,0.00086777,-0.945951,0.00287458,0.0146463,1630,1653,13.0743,-33.5149
413,-629,13.0564,33.1033,0.000875053,0.00206927,-0.000861718,0.00252054,0.000423783,-1.08838,0.00155842,0.0231691,1637,1653,13.0564,-33.1033
420,-629,13.0326,32.6904,-0.000236004,0.000951308,-5.28446e-05,0.000953655,-0.000238351,-1.52641,0.000728339,0.0221329,1644,1653,13.0326,-32.6904
427,-629,13.0354,32.2336,-0.00106988,0.000202885,0.000409046,0.000323009,-0.00119,1.28516,0.000920103,0.0141747,1651,1653,13.0354,-32.2337
434,-629,13.0325,31.7679,-0.00158538,-0.00015048,0.000557845,4.08746e-05,-0.00177673,1.24035,0.00119835,0.0115755,1658,1653,13.0325,-31.768
441,-629,13.0292,31.301,-0.00184317,-0.000258933,0.000528711,-9.86931e-05,-0.00200341,1.27652,0.00130396,0.0159697,1665,1653,13.0292,-31.301
448,-629,13.0096,30.818,-0.00201002,-0.00046679,0.000514206,-0.000311153,-0.00216566,1.27689,0.00135204,0.0159807,1672,1653,13.0096,-30.818
455,-629,12.9723,30.3239,-0.00206849,-0.000606701,0.000484745,-0.000460564,-0.00221463,1.27799,0.00134936,0.0151192,1679,1653,12.9723,-30.3238
462,-629,12.98,29.8885,-0.00221875,-0.00106458,0.000619173,-0.000795256,-0.00248807,1.16051,0.00146731,0.0177276,1686,1653,12.9799,-29.8886
469,-629,12.973,29.4047,-0.00236523,-0.00149195,0.000767884,-0.00104524,-0.00281194,1.04392,0.00164119,0.0235097,1693,1653,12.9731,-29.4046
476,-629,13.1475,29.0598,-0.00256227,-0.00214007,0.00111261,-0.00121871,-0.00348363,0.87915,0.00204128,0.0465505,1700,1653,13.1475,-29.0598
483,-629,13.3026,28.5983,0,0,0,0,0,0,0,-1,1707,1653,13.3026,-28.5982
490,-629,13.3649,26.5394,0,0,0,0,0,0,0,-1,1714,1653,13.3649,-26.5395
497,-629,10.3662,19.8605,0,0,0,0,0,0,0,-1,1721,1653,10.3662,-19.8605
504,-629,7.89453,15.5316,0,0,0,0,0,0,0,-1,1728,1653,7.89447,-15.5316
511,-629,6.29138,3.40295,0,0,0,0,0,0,0,-1,1735,1653,6.29137,-3.403
518,-629,5.84387,1.41858,0,0,0,0,0,0,0,-1,1742,1653,5.84391,-1.4186
525,-629,6.4729,1.02319,0,0,0,0,0,0,0,-1,1749,1653,6.47284,-1.02316
532,-629,6.86511,0.903687,0,0,0,0,0,0,0,-1,1756,1653,6.86514,-0.903691
539,-629,6.60803,0.746704,0,0,0,0,0,0,0,-1,1763,1653,6.60809,-0.746691
546,-629,0,0,0,0,0,0,0,0,0,-1,1770,1653,0,0
553,-629,0,0,0,0,0,0,0,0,0,-1,1777,1653,0,0
560,-629,0,0,0,0,0,0,0,0,0,-1,1784,1653,0,0
567,-629,0,0,0,0,0,0,0,0,0,-1,1791,1653,0,0
574,-629,0,0,0,0,0,0,0,0,0,-1,1798,1653,0,0
581,-629,0,0,0,0,0,0,0,0,0,-1,1805,1653,0,0
588,-629,0,0,0,0,0,0,0,0,0,-1,1812,1653,0,0
595,-629,0,0,0,0,0,0,0,0,0,-1,1819,1653,0,0
602,-629,0,0,0,0,0,0,0,0,0,-1,1826,1653,0,0
609,-629,0,0,0,0,0,0,0,0,0,-1,1833,1653,0,0
616,-629,0,0,0,0,0,0,0,0,0,-1,1840,1653,0,0
623,-629,0,0,0,0,0,0,0,0,0,-1,1847,1653,0,0
630,-629,0,0,0,0,0,0,0,0,0,-1,1854,1653,0,0
637,-629,0,0,0,0,0,0,0,0,0,-1,1861,1653,0,0
644,-629,0,0,0,0,0,0,0,0,0,-1,1868,1653,0,0
651,-629,0,0,0,0,0,0,0,0,0,-1,1875,1653,0,0
658,-629,0,0,0,0,0,0,0,0,0,-1,1882,1653,0,0
665,-629,0,0,0,0,0,0,0,0,0,-1,1889,1653,0,0
672,-629,0,0,0,0,0,0,0,0,0,-1,1896,1653,0,0
679,-629,0,0,0,0,0,0,0,0,0,-1,1903,1653,0,0
686,-629,0,0,0,0,0,0,0,0,0,-1,1910,1653,0,0
693,-629,0,0,0,0,0,0,0,0,0,-1,1917,1653,0,0
700,-629,0,0,0,0,0,0,0,0,0,-1,1924,1653,0,0
707,-629,0,0,0,0,0,0,0,0,0,-1,1931,1653,0,0
714,-629,0,0,0,0,0,0,0,0,0,-1,1938,1653,0,0
721,-629,0,0,0,0,0,0,0,0,0,-1,1945,1653,0,0
728,-629,0,0,0,0,0,0,0,0,0,-1,1952,1653,0,0
735,-629,0,0,0,0,0,0,0,0,0,-1,1959,1653,0,0
742,-629,0,0,0,0,0,0,0,0,0,-1,1966,1653,0,0
749,-629,0,0,0,0,0,0,0,0,0,-1,1973,1653,0,0
756,-629,0,0,0,0,0,0,0,0,0,-1,1980,1653,0,0
763,-629,0,0,0,0,0,0,0,0,0,-1,1987,1653,0,0
770,-629,0,0,0,0,0,0,0,0,0,-1,1994,1653,0,0
777,-629,0,0,0,0,0,0,0,0,0,-1,2001,1653,0,0
784,-629,0,0,0,0,0,0,0,0,0,-1,2008,1653,0,0
791,-629,0,0,0,0,0,0,0,0,0,-1,2015,1653,0,0
798,-629,0,0,0,0,0,0,0,0,0,-1,2022,1653,0,0
805,-629,0,0,0,0,0,0,0,0,0,-1,2029,1653,0,0
812,-629,0,0,0,0,0,0,0,0,0,-1,2036,1653,0,0
-700,-636,0,0,0,0,0,0,0,0,0,-1,524,1660,0,0
-693,-636,0,0,0,0,0,0,0,0,0,-1,531,1660,0,0
-686,-636,0,0,0,0,0,0,0,0,0,-1,538,1660,0,0
-679,-636,0,0,0,0,0,0,0,0,0,-1,545,1660,0,0
-672,-636,0,0,0,0,0,0,0,0,0,-1,552,1660,0,0
-665,-636,0,0,0,0,0,0,0,0,0,-1,559,1660,0,0
-658,-636,0,0,0,0,0,0,0,0,0,-1,566,1660,0,0
-651,-636,0,0,0,0,0,0,0,0,0,-1,573,1660,0,0
-644,-636,0,0,0,0,0,0,0,0,0,-1,580,1660,0,0
-637,-636,0,0,0,0,0,0,0,0,0,-1,587,1660,0,0
-630,-636,0,0,0,0,0,0,0,0,0,-1,594,1660,0,0
-623,-636,0,0,0,0,0,0,0,0,0,-1,601,1660,0,0
-616,-636,0,0,0,0,0,0,0,0,0,-1,608,1660,0,0
-609,-636,0,0,0,0,0,0,0,0,0,-1,615,1660,0,0
-602,-636,0,0,0,0,0,0,0,0,0,-1,622,1660,0,0
-595,-636,0,0,0,0,0,0,0,0,0,-1,629,1660,0,0
-588,-636,0,0,0,0,0,0,0,0,0,-1,636,1660,0,0
-581,-636,0,0,0,0,0,0,0,0,0,-1,643,1660,0,0
-574,-636,0,0,0,0,0,0,0,0,0,-1,650,1660,0,0
-567,-636,0,0,0,0,0,0,0,0,0,-1,657,1660,0,0
-560,-636,0,0,0,0,0,0,0,0,0,-1,664,1660,0,0
-553,-636,0,0,0,0,0,0,0,0,0,-1,671,1660,0,0
-546,-636,0,0,0,0,0,0,0,0,0,-1,678,1660,0,0
-539,-636,0,0,0,0,0,0,0,0,0,-1,685,1660,0,0
-532,-636,0,0,0,0,0,0,0,0,0,-1,692,1660,0,0
-525,-636,0,0,0,0,0,0,0,0,0,-1,699,1660,0,0
-518,-636,0,0,0,0,0,0,0,0,0,-1,706,1660,0,0
-511,-636,0,0,0,0,0,0,0,0,0,-1,713,1660,0,0
-504,-636,0,0,0,0,0,0,0,0,0,-1,720,1660,0,0
-497,-636,0,0,0,0,0,0,0,0,0,-1,727,1660,0,0
-490,-636,0,0,0,0,0,0,0,0,0,-1,734,1660,0,0
-483,-636,0,0,0,0,0,0,0,0,0,-1,741,1660,0,0
-476,-636,0,0,0,0,0,0,0,0,0,-1,748,1660,0,0
-469,-636,0,0,0,0,0,0,0,0,0,-1,755,1660,0,0
-462,-636,0,0,0,0,0,0,0,0,0,-1,762,1660,0,0
-455,-636,0,0,0,0,0,0,0,0,0,-1,769,1660,0,0
-448,-636,0,0,0,0,0,0,0,0,0,-1,776,1660,0,0
-441,-636,0,0,0,0,0,0,0,0,0,-1,783,1660,0,0
-434,-636,0,0,0,0,0,0,0,0,0,-1,790,1660,0,0
-427,-636,0,0,0,0,0,0,0,0,0,-1,797,1660,0,0
-420,-636,0,0,0,0,0,0,0,0,0,-1,804,1660,0,0
-413,-636,0,0,0,0,0,0,0,0,0,-1,811,1660,0,0
-406,-636,-0.591125,10.6943,0,0,0,0,0,0,0,-1,818,1660,-0.59115,-10.6943
-399,-636,0.0766602,11.2408,0,0,0,0,0,0,0,-1,825,1660,0.076685,-11.2409
-392,-636,0.75946,11.9233,0,0,0,0,0,0,0,-1,832,1660,0.759481,-11.9233
-385,-636,1.68878,12.517,0,0,0,0,0,0,0,-1,839,1660,1.6888,-12.5169
-378,-636,2.22107,13.0013,0,0,0,0,0,0,0,-1,846,1660,2.22107,-13.0014
-371,-636,2.52185,11.9684,0,0,0,0,0,0,0,-1,853,1660,2.52184,-11.9684
-364,-636,4.51947,14.8503,0,0,0,0,0,0,0,-1,860,1660,4.51949,-14.8504
-357,-636,4.55682,15.8809,0,0,0,0,0,0,0,-1,867,1660,4.55681,-15.8808
-350,-636,4.0307,28.4362,0,0,0,0,0,0,0,-1,874,1660,4.03072,-28.4361
-343,-636,4.42004,28.4758,0,0,0,0,0,0,0,-1,881,1660,4.42007,-28.4758
-336,-636,4.42291,28.8531,-0.00194791,0.00329647,0.00244599,0.00426019,-0.00291163,1.19547,0.00416498,0.0360499,888,1660,4.42291,-28.8532
-329,-636,4.54187,29.2717,-0.00161773,0.00309031,0.00193078,0.00378085,-0.00230827,1.22733,0.00354965,0.0192294,895,1660,4.54189,-29.2717
-322,-636,4.50806,29.7867,-0.00139975,0.00259606,0.00140293,0.00303943,-0.00184312,1.2647,0.002847,0.0121053,902,1660,4.50806,-29.7867
-315,-636,4.46021,30.2935,-0.00131305,0.00201745,0.000877394,0.00223445,-0.00153005,1.32833,0.00218608,0.0126747,909,1660,4.46018,-30.2934
-308,-636,4.44928,30.7998,-0.00118854,0.00153495,0.000453252,0.0016084,-0.00126199,1.41014,0.00166124,0.0108349,916,1660,4.44931,-30.7998
-301,-636,4.43518,31.2849,-0.000948556,0.00116933,0.000122592,0.0011764,-0.000955628,1.51317,0.00123312,0.011306,923,1660,4.43519,-31.2849
-294,-636,4.40601,31.7587,-0.000510534,0.00107878,1.61181e-05,0.00107895,-0.000510698,1.56066,0.000937125,0.0146739,930,1660,4.40601,-31.7587
-287,-636,4.38763,32.2422,-5.40792e-05,0.00116112,3.26655e-05,0.001162,-5.49565e-05,1.54394,0.000793621,0.0134375,937,1660,4.38766,-32.2422
-280,-636,4.37347,32.7225,0.000449648,0.0013689,0.000200079,0.00141056,0.000407988,1.36551,0.000838156,0.0130048,944,1660,4.37349,-32.7225
-273,-636,4.36383,33.1646,0.00106846,0.00149561,0.000455748,0.00178534,0.000778725,1.00451,0.00103356,0.0133291,951,1660,4.36384,-33.1646
-266,-636,4.35193,33.6311,0.0017962,0.00176129,0.000794164,0.0025731,0.000984387,0.774409,0.00149917,0.0141526,958,1660,4.3519,-33.6311
-259,-636,4.34406,34.1006,0.00252077,0.00226564,0.00120839,0.00360831,0.00117809,0.73281,0.00212466,0.0153709,965,1660,4.34403,-34.1006
-252,-636,4.34406,34.5381,0.00326273,0.00287201,0.0016562,0.00473505,0.00139969,0.726691,0.0028089,0.0120993,972,1660,4.34408,-34.5381
-245,-636,4.33313,34.9969,0.00400737,0.00344235,0.0020788,0.00582276,0.00162695,0.717862,0.00346911,0.0110114,979,1660,4.33314,-34.997
-238,-636,4.3349,35.4352,0.00513491,0.00384161,0.00233967,0.00691565,0.00206088,0.650572,0.00409992,0.0120109,986,1660,4.33489,-35.4351
-231,-636,4.34448,35.8583,0.00710257,0.0037673,0.00309415,0.00894987,0.00192,0.538233,0.0054407,0.0116725,993,1660,4.3445,-35.8583
-224,-636,4.35437,36.2761,0.0088165,0.00322952,0.00464981,0.0114474,0.000598594,0.514903,0.00744012,0.00961429,1000,1660,4.35438,-36.2761
-217,-636,4.3183,36.7703,0.00908794,0.00250188,0.00644143,0.0130293,-0.00143946,0.549104,0.0092036,0.0182411,1007,1660,4.31831,-36.7702
-210,-636,4.30402,37.2039,0.00771031,0.0021124,0.00814659,0.0135254,-0.00370265,0.619929,0.0104716,0.0328709,1014,1660,4.30403,-37.2038
-203,-636,4.3988,37.6982,0.00732228,0.00124271,0.0102018,0.0149276,-0.00636257,0.640604,0.0126191,0.0383119,1021,1660,4.39882,-37.6983
-196,-636,4.56311,37.9991,0.00618555,0.000238811,0.012582,0.0161407,-0.00971637,0.669367,0.0150814,0.0367384,1028,1660,4.56312,-37.9991
-189,-636,4.56592,38.3214,0.00414884,-0.00105575,0.0153517,0.0171173,-0.0140242,0.70144,0.0180091,0.0318915,1035,1660,4.56592,-38.3214
-182,-636,5.47644,38.4841,0.00137873,-0.00231436,0.0183516,0.0179764,-0.0189121,0.735257,0.0212999,0.0448921,1042,1660,5.47643,-38.4841
-175,-636,6.2583,38.7244,-0.00258687,-0.00277106,0.0211238,0.018445,-0.023803,0.783218,0.0244572,0.0465199,1049,1660,6.25835,-38.7243
-168,-636,5.57617,39.3284,-0.00693601,-0.00238886,0.0234849,0.0189322,-0.0282571,0.833653,0.0274215,0.0488551,1056,1660,5.57615,-39.3283
-161,-636,4.57349,39.9354,-0.0118031,-0.00147755,0.0249927,0.01888,-0.0321606,0.887251,0.029799,0.0495629,1063,1660,4.57346,-39.9354
-154,-636,4.50012,40.2451,0,0,0,0,0,0,0,-1,1070,1660,4.50017,-40.2452
-147,-636,4.32129,31.4845,0,0,0,0,0,0,0,-1,1077,1660,4.32127,-31.4845
-140,-636,3.4729,27.1271,0,0,0,0,0,0,0,-1,1084,1660,3.47287,-27.1271
-133,-636,4.68311,18.0922,0,0,0,0,0,0,0,-1,1091,1660,4.68316,-18.0921
-126,-636,3.79028,18.2225,0,0,0,0,0,0,0,-1,1098,1660,3.79025,-18.2226
-119,-636,1.8667,13.8916,0,0,0,0,0,0,0,-1,1105,1660,1.86668,-13.8916
-112,-636,-1.24963,9.7998,0,0,0,0,0,0,0,-1,1112,1660,-1.24968,-9.79978
-105,-636,3.51624,4.72791,0,0,0,0,0,0,0,-1,1119,1660,3.51618,-4.7279
-98,-636,1.54504,5.11914,0,0,0,0,0,0,0,-1,1126,1660,1.54503,-5.11912
-91,-636,-1.87964,-2.25012,0,0,0,0,0,0,0,-1,1133,1660,-1.87966,2.25016
-84,-636,-2.84143,0.133667,0,0,0,0,0,0,0,-1,1140,1660,-2.84144,-0.133701
-77,-636,-3.57349,2.45935,0,0,0,0,0,0,0,-1,1147,1660,-3.57345,-2.45939
-70,-636,-4.23682,4.82312,0,0,0,0,0,0,0,-1,1154,1660,-4.23681,-4.82307
-63,-636,-2.21033,6.97168,0,0,0,0,0,0,0,-1,1161,1660,-2.21034,-6.97165
-56,-636,-2.51917,8.80359,0,0,0,0,0,0,0,-1,1168,1660,-2.51916,-8.80361
-49,-636,-3.13,10.4113,0,0,0,0,0,0,0,-1,1175,1660,-3.12996,-10.4112
-42,-636,-2.27771,4.90173,0,0,0,0,0,0,0,-1,1182,1660,-2.27775,-4.90173
-35,-636,-2.27698,5.89685,0,0,0,0,0,0,0,-1,1189,1660,-2.27695,-5.89686
-28,-636,-1.70654,4.83936,0,0,0,0,0,0,0,-1,1196,1660,-1.70656,-4.8393
-21,-636,4.24683,27.7834,0,0,0,0,0,0,0,-1,1203,1660,4.24687,-27.7835
-14,-636,6.48218,50.4292,0,0,0,0,0,0,0,-1,1210,1660,6.48212,-50.4292
-7,-636,13.2853,52.6375,0,0,0,0,0,0,0,-1,1217,1660,13.2853,-52.6374
0,-636,12.321,51.9159,-0.0908043,-0.044992,-0.0229698,-0.0354589,-0.100337,-1.1774,0.058754,0.0496354,1224,1660,12.321,-51.9159
7,-636,11.4324,51.1602,-0.077936,-0.0216726,-0.026293,-0.0112983,-0.0883104,-1.19498,0.0554922,0.0448976,1231,1660,11.4323,-51.1601
14,-636,10.8435,50.621,-0.0735649,-0.000818031,-0.0292598,0.00949003,-0.0838729,-1.23208,0.0593321,0.0417041,1238,1660,10.8435,-50.621
21,-636,9.69958,50.262,-0.0725963,0.0197153,-0.0326738,0.0301098,-0.0829908,-1.26279,0.0676359,0.0462398,1245,1660,9.69955,-50.2619
28,-636,10.5839,50.7611,0,0,0,0,0,0,0,-1,1252,1660,10.5838,-50.7611
35,-636,11.6947,50.629,0,0,0,0,0,0,0,-1,1259,1660,11.6947,-50.629
42,-636,8.9126,48.3978,0,0,0,0,0,0,0,-1,1266,1660,8.91254,-48.3978
49,-636,7.99731,48.0825,0,0,0,0,0,0,0,-1,1273,1660,7.99733,-48.0825
56,-636,7.37097,47.9193,-0.0960127,0.0997379,-0.0563053,0.114778,-0.111053,-1.30978,0.130389,0.0450479,1280,1660,7.37103,-47.9193
63,-636,6.91516,47.7925,-0.102565,0.109112,-0.0614788,0.125672,-0.119125,-1.30768,0.141351,0.0465785,1287,1660,6.9152,-47.7924
70,-636,6.30359,47.2715,-0.108871,0.114412,-0.0670989,0.133024,-0.127484,-1.30021,0.150416,0.0484195,1294,1660,6.30363,-47.2715
77,-636,5.66602,46.8927,-0.11603,0.114981,-0.0734809,0.136373,-0.137422,-1.2875,0.158076,0.0474281,1301,1660,5.66603,-46.8927
84,-636,4.79968,46.4238,-0.125962,0.108827,-0.0786682,0.132748,-0.149883,-1.2756,0.163277,0.0454577,1308,1660,4.79971,-46.4239
91,-636,3.87036,46.04,-0.137308,0.10327,-0.0829358,0.12909,-0.163128,-1.26898,0.169093,0.0411339,1315,1660,3.87034,-46.04
98,-636,2.86609,45.5508,-0.151413,0.0976149,-0.0871562,0.125088,-0.178885,-1.26544,0.176413,0.0457659,1322,1660,2.86611,-45.5508
105,-636,2.07239,45.1984,0,0,0,0,0,0,0,-1,1329,1660,2.07245,-45.1984
112,-636,1.4613,45.6006,0,0,0,0,0,0,0,-1,1336,1660,1.46132,-45.6005
119,-636,0.725098,45.5098,0,0,0,0,0,0,0,-1,1343,1660,0.725124,-45.5097
126,-636,13.4247,40.5181,0,0,0,0,0,0,0,-1,1350,1660,13.4247,-40.518
133,-636,5.8822,45.2129,0,0,0,0,0,0,0,-1,1357,1660,5.88222,-45.2129
140,-636,15.1503,40.4651,0,0,0,0,0,0,0,-1,1364,1660,15.1503,-40.4651
147,-636,3.44751,43.4615,0,0,0,0,0,0,0,-1,1371,1660,3.44755,-43.4616
154,-636,16.7125,40.2991,0,0,0,0,0,0,0,-1,1378,1660,16.7125,-40.299
161,-636,10.2961,7.13025,0,0,0,0,0,0,0,-1,1385,1660,10.2961,-7.13021
168,-636,11.7659,5.83899,0,0,0,0,0,0,0,-1,1392,1660,11.7658,-5.83899
175,-636,5.94592,-1.72888,0,0,0,0,0,0,0,-1,1399,1660,5.94598,1.72886
182,-636,5.93994,-1.11938,0,0,0,0,0,0,0,-1,1406,1660,5.93998,1.11936
189,-636,5.32544,11.9595,0,0,0,0,0,0,0,-1,1413,1660,5.32542,-11.9595
196,-636,5.3623,9.38025,0,0,0,0,0,0,0,-1,1420,1660,5.36225,-9.38027
203,-636,5.18542,9.02429,0,0,0,0,0,0,0,-1,1427,1660,5.18547,-9.0243
210,-636,4.09167,7.17041,0,0,0,0,0,0,0,-1,1434,1660,4.09173,-7.17041
217,-636,2.94897,5.28992,0,0,0,0,0,0,0,-1,1441,1660,2.94899,-5.28991
224,-636,1.49194,3.63916,0,0,0,0,0,0,0,-1,1448,1660,1.49197,-3.63918
231,-636,0.17749,2.24854,0,0,0,0,0,0,0,-1,1455,1660,0.177501,-2.24855
238,-636,-0.764648,1.00598,0,0,0,0,0,0,0,-1,1462,1660,-0.764704,-1.00595
245,-636,6.21204,1.18005,0,0,0,0,0,0,0,-1,1469,1660,6.21206,-1.18001
252,-636,7.70251,0.865723,0,0,0,0,0,0,0,-1,1476,1660,7.7025,-0.865692
259,-636,9.03601,0.787231,0,0,0,0,0,0,0,-1,1483,1660,9.03598,-0.787243
266,-636,10.1071,3.24109,0,0,0,0,0,0,0,-1,1490,1660,10.1071,-3.24103
273,-636,8.48535,5.02466,0,0,0,0,0,0,0,-1,1497,1660,8.48533,-5.02472
280,-636,11.908,32.0698,0,0,0,0,0,0,0,-1,1504,1660,11.9079,-32.0698
287,-636,12.1218,36.4158,0,0,0,0,0,0,0,-1,1511,1660,12.1218,-36.4158
294,-636,12.5818,41.1538,0,0,0,0,0,0,0,-1,1518,1660,12.5818,-41.1538
301,-636,12.7008,40.6168,0,0,0,0,0,0,0,-1,1525,1660,12.7008,-40.6168
308,-636,12.7188,39.8799,0,0,0,0,0,0,0,-1,1532,1660,12.7187,-39.8799
315,-636,12.5629,39.2611,0,0,0,0,0,0,0,-1,1539,1660,12.5629,-39.2612
322,-636,12.5823,38.5226,0,0,0,0,0,0,0,-1,1546,1660,12.5823,-38.5226
329,-636,12.5657,38.0626,0.0130663,0.0223182,-0.00864695,0.0274988,0.00788564,-1.03102,0.0163506,0.036495,1553,1660,12.5657,-38.0627
336,-636,12.6149,37.6921,0.013405,0.0209425,-0.0101765,0.0280257,0.00632178,-0.962737,0.0169736,0.024793,1560,1660,12.6149,-37.6921
343,-636,12.6268,37.369,0.0131664,0.0192243,-0.0108011,0.0274132,0.00497758,-0.922102,0.0168629,0.020499,1567,1660,12.6268,-37.369
350,-636,12.6284,36.9279,0.0125468,0.0166103,-0.0105169,0.0252899,0.00386715,-0.880818,0.0157301,0.0126688,1574,1660,12.6284,-36.9279
357,-636,12.6674,36.4821,0.0113661,0.0148137,-0.00960367,0.022847,0.00333273,-0.874199,0.0142509,0.0110642,1581,1660,12.6674,-36.482
364,-636,12.6671,36.0782,0.010137,0.0127619,-0.00857272,0.0201221,0.00277686,-0.861354,0.0125916,0.011218,1588,1660,12.6671,-36.0782
371,-636,12.6664,35.6847,0.0087157,0.0107156,-0.00730935,0.0170931,0.00233821,-0.853378,0.0107015,0.00962247,1595,1660,12.6663,-35.6846
378,-636,12.6853,35.2704,0.00716903,0.00871785,-0.00594316,0.0139368,0.00195004,-0.850184,0.00871425,0.00950096,1602,1660,12.6853,-35.2704
385,-636,12.6874,34.8535,0.00561802,0.00665358,-0.00457786,0.0107428,0.00152875,-0.841711,0.00671062,0.0141989,1609,1660,12.6874,-34.8536
392,-636,12.6764,34.4293,0.00403923,0.0045549,-0.00322344,0.0075308,0.00106333,-0.825307,0.00470631,0.0154444,1616,1660,12.6763,-34.4293
399,-636,12.6592,33.9927,0.00237333,0.00254992,-0.0018548,0.00431853,0.000604723,-0.809182,0.00270011,0.0121875,1623,1660,12.6592,-33.9927
406,-636,12.6577,33.5532,0.000908892,0.00112326,-0.000797427,0.00182067,0.000211478,-0.852204,0.00114979,0.014632,1630,1660,12.6578,-33.5532
413,-636,12.6376,33.1233,-0.000227001,9.12691e-05,-8.03906e-06,9.14721e-05,-0.000227204,-1.54556,0.000189469,0.0241764,1637,1660,12.6375,-33.1233
420,-636,12.598,32.6936,-0.00121808,-0.000749521,0.000628431,-0.000313119,-0.00165448,0.963818,0.00101484,0.0255498,1644,1660,12.5981,-32.6936
427,-636,12.6034,32.2473,-0.00196297,-0.00122779,0.000964945,-0.000562793,-0.00262797,0.967383,0.00159777,0.0152347,1651,1660,12.6034,-32.2474
434,-636,12.5708,31.7982,-0.00252802,-0.00133421,0.00108907,-0.000689194,-0.00317303,1.03609,0.00192715,0.0125506,1658,1660,12.5708,-31.7982
441,-636,12.5741,31.3342,-0.00292412,-0.00121063,0.00105703,-0.000706738,-0.00342801,1.12596,0.00208998,0.012555,1665,1660,12.5741,-31.3342
448,-636,12.5751,30.8651,-0.00323238,-0.00106855,0.000982584,-0.000688958,-0.00361198,1.20214,0.00221435,0.0152267,1672,1660,12.575,-30.8651
455,-636,12.5121,30.4032,-0.00344451,-0.000677888,0.000900209,-0.000410767,-0.00371163,1.28234,0.0023495,0.0157106,1679,1660,12.5121,-30.4032
462,-636,12.5085,29.9327,-0.00380582,-0.000666317,0.0010678,-0.000337568,-0.00413457,1.27213,0.00265103,0.0204402,1686,1660,12.5085,-29.9327
469,-636,12.5787,29.4132,-0.00398397,-0.000615518,0.00118331,-0.000241383,-0.00435811,1.26457,0.00282838,0.0353673,1693,1660,12.5787,-29.4132
476,-636,12.7295,28.8792,0,0,0,0,0,0,0,-1,1700,1660,12.7295,-28.8792
483,-636,11.3833,24.3958,0,0,0,0,0,0,0,-1,1707,1660,11.3833,-24.3957
490,-636,10.8951,23.9569,0,0,0,0,0,0,0,-1,1714,1660,10.8951,-23.9569
497,-636,9.55579,18.0111,0,0,0,0,0,0,0,-1,1721,1660,9.55574,-18.0111
504,-636,6.26428,19.4268,0,0,0,0,0,0,0,-1,1728,1660,6.26433,-19.4268
511,-636,5.65466,9.23218,0,0,0,0,0,0,0,-1,1735,1660,5.65461,-9.23216
518,-636,6.72791,1.07605,0,0,0,0,0,0,0,-1,1742,1660,6.7279,-1.0761
525,-636,7.04309,0.93335,0,0,0,0,0,0,0,-1,1749,1660,7.04308,-0.933298
532,-636,0,0,0,0,0,0,0,0,0,-1,1756,1660,0,0
539,-636,0,0,0,0,0,0,0,0,0,-1,1763,1660,0,0
546,-636,0,0,0,0,0,0,0,0,0,-1,1770,1660,0,0
553,-636,0,0,0,0,0,0,0,0,0,-1,1777,1660,0,0
560,-636,0,0,0,0,0,0,0,0,0,-1,1784,1660,0,0
567,-636,0,0,0,0,0,0,0,0,0,-1,1791,1660,0,0
574,-636,0,0,0,0,0,0,0,0,0,-1,1798,1660,0,0
581,-636,0,0,0,0,0,0,0,0,0,-1,1805,1660,0,0
588,-636,0,0,0,0,0,0,0,0,0,-1,1812,1660,0,0
595,-636,0,0,0,0,0,0,0,0,0,-1,1819,1660,0,0
602,-636,0,0,0,0,0,0,0,0,0,-1,1826,1660,0,0
609,-636,0,0,0,0,0,0,0,0,0,-1,1833,1660,0,0
616,-636,0,0,0,0,0,0,0,0,0,-1,1840,1660,0,0
623,-636,0,0,0,0,0,0,0,0,0,-1,1847,1660,0,0
630,-636,0,0,0,0,0,0,0,0,0,-1,1854,1660,0,0
637,-636,0,0,0,0,0,0,0,0,0,-1,1861,1660,0,0
644,-636,0,0,0,0,0,0,0,0,0,-1,1868,1660,0,0
651,-636,0,0,0,0,0,0,0,0,0,-1,1875,1660,0,0
658,-636,0,0,0,0,0,0,0,0,0,-1,1882,1660,0,0
665,-636,0,0,0,0,0,0,0,0,0,-1,1889,1660,0,0
672,-636,0,0,0,0,0,0,0,0,0,-1,1896,1660,0,0
679,-636,0,0,0,0,0,0,0,0,0,-1,1903,1660,0,0
686,-636,0,0,0,0,0,0,0,0,0,-1,1910,1660,0,0
693,-636,0,0,0,0,0,0,0,0,0,-1,1917,1660,0,0
700,-636,0,0,0,0,0,0,0,0,0,-1,1924,1660,0,0
707,-636,0,0,0,0,0,0,0,0,0,-1,1931,1660,0,0
714,-636,0,0,0,0,0,0,0,0,0,-1,1938,1660,0,0
721,-636,0,0,0,0,0,0,0,0,0,-1,1945,1660,0,0
728,-636,0,0,0,0,0,0,0,0,0,-1,1952,1660,0,0
735,-636,0,0,0,0,0,0,0,0,0,-1,1959,1660,0,0
742,-636,0,0,0,0,0,0,0,0,0,-1,1966,1660,0,0
749,-636,0,0,0,0,0,0,0,0,0,-1,1973,1660,0,0
756,-636,0,0,0,0,0,0,0,0,0,-1,1980,1660,0,0
763,-636,0,0,0,0,0,0,0,0,0,-1,1987,1660,0,0
770,-636,0,0,0,0,0,0,0,0,0,-1,1994,1660,0,0
777,-636,0,0,0,0,0,0,0,0,0,-1,2001,1660,0,0
784,-636,0,0,0,0,0,0,0,0,0,-1,2008,1660,0,0
791,-636,0,0,0,0,0,0,0,0,0,-1,2015,1660,0,0
798,-636,0,0,0,0,0,0,0,0,0,-1,2022,1660,0,0
805,-636,0,0,0,0,0,0,0,0,0,-1,2029,1660,0,0
812,-636,0,0,0,0,0,0,0,0,0,-1,2036,1660,0,0
-700,-643,0,0,0,0,0,0,0,0,0,-1,524,1667,0,0
-693,-643,0,0,0,0,0,0,0,0,0,-1,531,1667,0,0
-686,-643,0,0,0,0,0,0,0,0,0,-1,538,1667,0,0
-679,-643,0,0,0,0,0,0,0,0,0,-1,545,1667,0,0
-672,-643,0,0,0,0,0,0,0,0,0,-1,552,1667,0,0
-665,-643,0,0,0,0,0,0,0,0,0,-1,559,1667,0,0
-658,-643,0,0,0,0,0,0,0,0,0,-1,566,1667,0,0
-651,-643,0,0,0,0,0,0,0,0,0,-1,573,1667,0,0
-644,-643,0,0,0,0,0,0,0,0,0,-1,580,1667,0,0
-637,-643,0,0,0,0,0,0,0,0,0,-1,587,1667,0,0
-630,-643,0,0,0,0,0,0,0,0,0,-1,594,1667,0,0
-623,-643,0,0,0,0,0,0,0,0,0,-1,601,1667,0,0
-616,-643,0,0,0,0,0,0,0,0,0,-1,608,1667,0,0
-609,-643,0,0,0,0,0,0,0,0,0,-1,615,1667,0,0
-602,-643,0,0,0,0,0,0,0,0,0,-1,622,1667,0,0
-595,-643,0,0,0,0,0,0,0,0,0,-1,629,1667,0,0
-588,-643,0,0,0,0,0,0,0,0,0,-1,636,1667,0,0
-581,-643,0,0,0,0,0,0,0,0,0,-1,643,1667,0,0
-574,-643,0,0,0,0,0,0,0,0,0,-1,650,1667,0,0
-567,-643,0,0,0,0,0,0,0,0,0,-1,657,1667,0,0
-560,-643,0,0,0,0,0,0,0,0,0,-1,664,1667,0,0
-553,-643,0,0,0,0,0,0,0,0,0,-1,671,1667,0,0
-546,-643,0,0,0,0,0,0,0,0,0,-1,678,1667,0,0
-539,-643,0,0,0,0,0,0,0,0,0,-1,685,1667,0,0
-532,-643,0,0,0,0,0,0,0,0,0,-1,692,1667,0,0
-525,-643,0,0,0,0,0,0,0,0,0,-1,699,1667,0,0
-518,-643,0,0,0,0,0,0,0,0,0,-1,706,1667,0,0
-511,-643,0,0,0,0,0,0,0,0,0,-1,713,1667,0,0
-504,-643,0,0,0,0,0,0,0,0,0,-1,720,1667,0,0
-497,-643,0,0,0,0,0,0,0,0,0,-1,727,1667,0,0
-490,-643,0,0,0,0,0,0,0,0,0,-1,734,1667,0,0
-483,-643,0,0,0,0,0,0,0,0,0,-1,741,1667,0,0
-476,-643,0,0,0,0,0,0,0,0,0,-1,748,1667,0,0
-469,-643,0,0,0,0,0,0,0,0,0,-1,755,1667,0,0
-462,-643,0,0,0,0,0,0,0,0,0,-1,762,1667,0,0
-455,-643,0,0,0,0,0,0,0,0,0,-1,769,1667,0,0
-448,-643,0,0,0,0,0,0,0,0,0,-1,776,1667,0,0
-441,-643,0,0,0,0,0,0,0,0,0,-1,783,1667,0,0
-434,-643,0,0,0,0,0,0,0,0,0,-1,790,1667,0,0
-427,-643,0,0,0,0,0,0,0,0,0,-1,797,1667,0,0
-420,-643,0,0,0,0,0,0,0,0,0,-1,804,1667,0,0
-413,-643,0,0,0,0,0,0,0,0,0,-1,811,1667,0,0
-406,-643,0,0,0,0,0,0,0,0,0,-1,818,1667,0,0
-399,-643,0.589417,11.6465,0,0,0,0,0,0,0,-1,825,1667,0.58939,-11.6465
-392,-643,0.865295,12.6523,0,0,0,0,0,0,0,-1,832,1667,0.865315,-12.6523
-385,-643,1.72968,13.2692,0,0,0,0,0,0,0,-1,839,1667,1.72967,-13.2692
-378,-643,2.66522,13.8193,0,0,0,0,0,0,0,-1,846,1667,2.66524,-13.8193
-371,-643,0.466125,3.35095,0,0,0,0,0,0,0,-1,853,1667,0.466148,-3.351
-364,-643,1.69513,9.922,0,0,0,0,0,0,0,-1,860,1667,1.69511,-9.92205
-357,-643,1.14227,10.8429,0,0,0,0,0,0,0,-1,867,1667,1.14228,-10.8429
-350,-643,2.50061,9.96948,0,0,0,0,0,0,0,-1,874,1667,2.50059,-9.96954
-343,-643,4.8772,28.634,0,0,0,0,0,0,0,-1,881,1667,4.87719,-28.634
-336,-643,4.98883,28.5721,0,0,0,0,0,0,0,-1,888,1667,4.98885,-28.5721
-329,-643,4.99127,29.1033,-0.00206094,0.00506512,0.00226739,0.00572539,-0.00272121,1.28743,0.0049784,0.0418042,895,1667,4.99126,-29.1032
-322,-643,5.008,29.8081,-0.00193326,0.00383694,0.00118696,0.00407157,-0.00216788,1.37564,0.00365781,0.0270276,902,1667,5.00797,-29.8081
-315,-643,4.89014,30.3328,-0.00197368,0.0027041,0.000309085,0.00272443,-0.00199401,1.5051,0.00273505,0.0180591,909,1667,4.89013,-30.3327
-308,-643,4.9184,30.7954,-0.00197131,0.00173332,-0.000376758,0.00177124,-0.00200924,-1.47047,0.0021841,0.0133301,916,1667,4.91841,-30.7954
-301,-643,4.90784,31.2853,-0.00183744,0.000969468,-0.000930543,0.00124994,-0.00211791,-1.27805,0.00196583,0.0143804,923,1667,4.90783,-31.2853
-294,-643,4.87457,31.7699,-0.00149027,0.000633429,-0.00120088,0.00117459,-0.00203143,-1.14741,0.0018729,0.0128966,930,1667,4.8746,-31.7699
-287,-643,4.86511,32.2465,-0.00112339,0.000513363,-0.00127872,0.00121317,-0.00182319,-1.07005,0.00176479,0.0112023,937,1667,4.86509,-32.2465
-280,-643,4.84357,32.7333,-0.000748068,0.000584468,-0.0011381,0.00123698,-0.00140058,-1.05021,0.00152377,0.0153558,944,1667,4.84357,-32.7332
-273,-643,4.82013,33.1926,-0.000246343,0.000631591,-0.000875103,0.00117165,-0.000786405,-1.01787,0.00113776,0.013461,951,1667,4.82011,-33.1926
-266,-643,4.80713,33.6444,0.000422037,0.000813923,-0.000493634,0.00114908,8.68788e-05,-0.974331,0.000738799,0.0127914,958,1667,4.80713,-33.6445
-259,-643,4.80841,34.103,0.00103065,0.00127658,-2.60621e-05,0.00127931,0.00102792,-1.46637,0.000782651,0.0128574,965,1667,4.80841,-34.103
-252,-643,4.79968,34.5704,0.00164378,0.0018595,0.000492205,0.00225553,0.00124776,0.893261,0.00130468,0.013979,972,1667,4.79971,-34.5705
-245,-643,4.76178,35.0167,0.00231135,0.00243912,0.000999123,0.0033764,0.00137407,0.817324,0.00196058,0.0121857,979,1667,4.76179,-35.0167
-238,-643,4.78784,35.4314,0.00329984,0.00283314,0.00134504,0.00443162,0.00170136,0.699508,0.00258148,0.0149693,986,1667,4.78785,-35.4315
-231,-643,4.77502,35.8784,0.00492856,0.00286009,0.00205774,0.00619735,0.0015913,0.552532,0.00371648,0.0109999,993,1667,4.77502,-35.8784
-224,-643,4.7771,36.2717,0.00637073,0.00248209,0.00334164,0.00829253,0.000560285,0.521916,0.00535138,0.00920542,1000,1667,4.77709,-36.2717
-217,-643,4.76636,36.6577,0.00671801,0.00196108,0.00475268,0.00965415,-0.000975057,0.553396,0.00678451,0.00852168,1007,1667,4.76638,-36.6577
-210,-643,4.75092,37.1029,0.00588691,0.00170159,0.00607431,0.0102189,-0.00263043,0.619511,0.00783797,0.0115802,1014,1667,4.75094,-37.1029
-203,-643,4.75989,37.5986,0.00579212,0.0010967,0.00759594,0.0113949,-0.00450606,0.635518,0.00946324,0.0158535,1021,1667,4.75989,-37.5987
-196,-643,4.78137,37.9998,0.0051369,0.000436909,0.00936899,0.0124461,-0.00687231,0.66252,0.0113072,0.0170233,1028,1667,4.78137,-37.9997
-189,-643,4.88379,38.3444,0.00382341,-0.000387916,0.0114095,0.0133199,-0.00988439,0.694148,0.0134458,0.0161396,1035,1667,4.88379,-38.3443
-182,-643,4.97131,38.7649,0.00195533,-0.00105605,0.0135148,0.0140481,-0.0131488,0.729922,0.015705,0.0230736,1042,1667,4.97137,-38.7649
-175,-643,5.39783,39.1813,-0.000689355,-0.00113558,0.0154859,0.014575,-0.0164,0.778195,0.0178938,0.034982,1049,1667,5.39782,-39.1813
-168,-643,5.44958,39.5204,-0.003367,-0.000607433,0.0171377,0.015206,-0.0191804,0.825567,0.0198971,0.0410394,1056,1667,5.44957,-39.5204
-161,-643,4.8739,39.8569,-0.00634873,0.000330645,0.0182267,0.0155211,-0.0215392,0.876008,0.0214906,0.0470359,1063,1667,4.87389,-39.8569
-154,-643,4.79822,40.1949,0,0,0,0,0,0,0,-1,1070,1667,4.79824,-40.1949
-147,-643,5.62976,41.7164,0,0,0,0,0,0,0,-1,1077,1667,5.62976,-41.7165
-140,-643,4.30322,22.9166,0,0,0,0,0,0,0,-1,1084,1667,4.30327,-22.9167
-133,-643,3.66748,21.6034,0,0,0,0,0,0,0,-1,1091,1667,3.66743,-21.6034
-126,-643,3.13904,17.689,0,0,0,0,0,0,0,-1,1098,1667,3.13909,-17.689
-119,-643,3.76282,14.1458,0,0,0,0,0,0,0,-1,1105,1667,3.76283,-14.1458
-112,-643,3.81458,16.2069,0,0,0,0,0,0,0,-1,1112,1667,3.81463,-16.2069
-105,-643,-2.23413,10.0996,0,0,0,0,0,0,0,-1,1119,1667,-2.23415,-10.0996
-98,-643,3.11035,4.68066,0,0,0,0,0,0,0,-1,1126,1667,3.11041,-4.68071
-91,-643,-1.74146,-2.5885,0,0,0,0,0,0,0,-1,1133,1667,-1.74146,2.58856
-84,-643,-3.07446,-0.199341,0,0,0,0,0,0,0,-1,1140,1667,-3.07449,0.199383
-77,-643,-3.63794,2.81165,0,0,0,0,0,0,0,-1,1147,1667,-3.63791,-2.8117
-70,-643,-3.36938,4.45203,0,0,0,0,0,0,0,-1,1154,1667,-3.36941,-4.452
-63,-643,-3.67822,6.26855,0,0,0,0,0,0,0,-1,1161,1667,-3.67823,-6.26856
-56,-643,-3.95142,8.1073,0,0,0,0,0,0,0,-1,1168,1667,-3.95139,-8.10732
-49,-643,-4.23535,9.90552,0,0,0,0,0,0,0,-1,1175,1667,-4.23537,-9.90557
-42,-643,-4.25195,10.7059,0,0,0,0,0,0,0,-1,1182,1667,-4.25192,-10.706
-35,-643,-4.10986,11.6588,0,0,0,0,0,0,0,-1,1189,1667,-4.10982,-11.6589
-28,-643,-1.38513,5.604,0,0,0,0,0,0,0,-1,1196,1667,-1.3851,-5.60403
-21,-643,1.61011,23.1276,0,0,0,0,0,0,0,-1,1203,1667,1.61011,-23.1275
-14,-643,4.11682,43.7566,0,0,0,0,0,0,0,-1,1210,1667,4.11685,-43.7567
-7,-643,7.04883,50.2225,0,0,0,0,0,0,0,-1,1217,1667,7.04889,-50.2226
0,-643,12.0995,51.7628,0,0,0,0,0,0,0,-1,1224,1667,12.0995,-51.7629
7,-643,11.1987,51.1995,0,0,0,0,0,0,0,-1,1231,1667,11.1987,-51.1995
14,-643,11.1709,50.8365,0,0,0,0,0,0,0,-1,1238,1667,11.1709,-50.8365
21,-643,9.65161,49.6414,0,0,0,0,0,0,0,-1,1245,1667,9.65164,-49.6413
28,-643,10.7319,49.457,-0.0444231,0.0458185,-0.0307859,0.0553206,-0.0539252,-1.27142,0.0630748,0.045565,1252,1667,10.732,-49.457
35,-643,11.8383,49.2667,0,0,0,0,0,0,0,-1,1259,1667,11.8383,-49.2667
42,-643,9.18481,47.7332,-0.0532488,0.0723347,-0.0384086,0.0831502,-0.0640643,-1.29631,0.0852321,0.0436445,1266,1667,9.18476,-47.7331
49,-643,8.55957,47.5242,-0.0606722,0.0820712,-0.042979,0.0940129,-0.0726139,-1.29978,0.0964661,0.0420622,1273,1667,8.55962,-47.5242
56,-643,7.97107,47.3958,-0.066561,0.0917566,-0.0481242,0.105237,-0.0800415,-1.29768,0.1073,0.0436468,1280,1667,7.97103,-47.3958
63,-643,7.28882,46.9038,-0.0724763,0.0970425,-0.0529836,0.11224,-0.087674,-1.29146,0.115711,0.0454084,1287,1667,7.28885,-46.9038
70,-643,6.32458,45.9818,-0.0778701,0.0992036,-0.0581967,0.116618,-0.0952844,-1.28005,0.122548,0.0457907,1294,1667,6.32454,-45.9819
77,-643,6.38086,45.7494,-0.0834988,0.0984531,-0.0640531,0.11874,-0.103786,-1.26407,0.128572,0.0473245,1301,1667,6.38085,-45.7494
84,-643,5.47253,45.3406,-0.0914266,0.0927134,-0.0690057,0.115703,-0.114416,-1.24921,0.13286,0.0471366,1308,1667,5.47252,-45.3406
91,-643,5.07581,44.6108,-0.100074,0.0877371,-0.0729829,0.112763,-0.1251,-1.24046,0.137392,0.0432806,1315,1667,5.07586,-44.6109
98,-643,3.98999,45.175,-0.111661,0.0828682,-0.0765718,0.109392,-0.138185,-1.23734,0.143261,0.0447602,1322,1667,3.98999,-45.1751
105,-643,3.21851,45.0741,-0.128552,0.0781961,-0.0779495,0.104291,-0.154648,-1.24775,0.150438,0.0451892,1329,1667,3.21849,-45.0741
112,-643,2.39844,45.0786,0,0,0,0,0,0,0,-1,1336,1667,2.3985,-45.0786
119,-643,1.63599,44.9827,0,0,0,0,0,0,0,-1,1343,1667,1.63595,-44.9827
126,-643,0.805542,44.8944,0,0,0,0,0,0,0,-1,1350,1667,0.805545,-44.8944
133,-643,6.1178,44.6079,0,0,0,0,0,0,0,-1,1357,1667,6.11783,-44.6079
140,-643,4.88391,43.7212,0,0,0,0,0,0,0,-1,1364,1667,4.88395,-43.7212
147,-643,3.65454,43.0404,0,0,0,0,0,0,0,-1,1371,1667,3.65458,-43.0404
154,-643,2.3866,42.4182,0,0,0,0,0,0,0,-1,1378,1667,2.38655,-42.4182
161,-643,5.57935,26.2754,0,0,0,0,0,0,0,-1,1385,1667,5.57931,-26.2754
168,-643,10.5563,10.9818,0,0,0,0,0,0,0,-1,1392,1667,10.5562,-10.9819
175,-643,5.88525,-1.1698,0,0,0,0,0,0,0,-1,1399,1667,5.88526,1.16977
182,-643,5.80945,-0.418701,0,0,0,0,0,0,0,-1,1406,1667,5.80949,0.418712
189,-643,5.42297,12.9208,0,0,0,0,0,0,0,-1,1413,1667,5.42298,-12.9208
196,-643,5.51953,11.2415,0,0,0,0,0,0,0,-1,1420,1667,5.51948,-11.2414
203,-643,5.60828,9.82153,0,0,0,0,0,0,0,-1,1427,1667,5.60833,-9.82148
210,-643,4.73218,7.58728,0,0,0,0,0,0,0,-1,1434,1667,4.73222,-7.58728
217,-643,3.8031,5.28955,0,0,0,0,0,0,0,-1,1441,1667,3.80305,-5.28955
224,-643,2.96436,2.97095,0,0,0,0,0,0,0,-1,1448,1667,2.96432,-2.97095
231,-643,2.13403,1.08472,0,0,0,0,0,0,0,-1,1455,1667,2.13403,-1.08467
238,-643,1.18152,-0.261963,0,0,0,0,0,0,0,-1,1462,1667,1.18152,0.26192
245,-643,-0.157471,-1.79016,0,0,0,0,0,0,0,-1,1469,1667,-0.157517,1.7901
252,-643,8.08789,0.0202637,0,0,0,0,0,0,0,-1,1476,1667,8.08791,-0.0203056
259,-643,9.02979,-0.46936,0,0,0,0,0,0,0,-1,1483,1667,9.02974,0.46933
266,-643,4.55066,5.17554,0,0,0,0,0,0,0,-1,1490,1667,4.55063,-5.17556
273,-643,10.74,31.432,0,0,0,0,0,0,0,-1,1497,1667,10.7399,-31.4319
280,-643,13.2443,39.9858,0,0,0,0,0,0,0,-1,1504,1667,13.2442,-39.9859
287,-643,12.688,39.8738,0,0,0,0,0,0,0,-1,1511,1667,12.688,-39.8738
294,-643,12.1874,40.6389,0.00425257,0.0185469,0.00876843,0.022712,8.74698e-05,1.12734,0.0151123,0.0470953,1518,1667,12.1874,-40.6389
301,-643,12.1934,40.1315,0,0,0,0,0,0,0,-1,1525,1667,12.1934,-40.1315
308,-643,12.2314,39.4718,0.0061025,0.0169502,0.00238927,0.0174532,0.00559957,1.36333,0.01029,0.0395986,1532,1667,12.2315,-39.4718
315,-643,12.1877,38.9658,0.00714194,0.0168165,-0.000907583,0.0169009,0.00705753,-1.47806,0.00980185,0.0305758,1539,1667,12.1878,-38.9658
322,-643,12.2217,38.3867,0.00837546,0.0165169,-0.00355633,0.0178515,0.00704079,-1.21177,0.0103829,0.0195684,1546,1667,12.2216,-38.3867
329,-643,12.233,37.9836,0.0090563,0.0157599,-0.00520275,0.018597,0.00621913,-1.07155,0.0109315,0.0143806,1553,1667,12.233,-37.9837
336,-643,12.1908,37.6699,0.00931792,0.0149514,-0.00657546,0.019288,0.00498128,-0.987758,0.0115616,0.012626,1560,1667,12.1908,-37.6699
343,-643,12.2174,37.3223,0.00915914,0.0137232,-0.00721888,0.0190121,0.00387016,-0.938486,0.0116019,0.0145949,1567,1667,12.2174,-37.3223
350,-643,12.2614,36.8966,0.00874708,0.0116898,-0.00716025,0.0175283,0.00290857,-0.886732,0.0108468,0.0137237,1574,1667,12.2614,-36.8966
357,-643,12.2537,36.4988,0.00801616,0.0103901,-0.00664701,0.0159553,0.00245097,-0.873753,0.0099213,0.0115941,1581,1667,12.2536,-36.4988
364,-643,12.2518,36.0946,0.00719113,0.00880618,-0.00597458,0.0140276,0.00196975,-0.852572,0.00876918,0.00992293,1588,1667,12.2518,-36.0946
371,-643,12.2563,35.7017,0.00617903,0.00720068,-0.00507492,0.0117904,0.00158929,-0.835557,0.00738772,0.00800104,1595,1667,12.2563,-35.7016
378,-643,12.2622,35.2977,0.00501352,0.00552362,-0.00403668,0.0093133,0.00122384,-0.816948,0.0058438,0.00966958,1602,1667,12.2622,-35.2977
385,-643,12.2637,34.8749,0.00378387,0.00378458,-0.0029642,0.00674842,0.000820028,-0.785458,0.00425204,0.0153122,1609,1667,12.2636,-34.8748
392,-643,12.2507,34.4492,0.0024501,0.00194778,-0.00184827,0.0040642,0.000333684,-0.717868,0.00260537,0.0169287,1616,1667,12.2507,-34.4493
399,-643,12.2274,34.033,0.000985368,0.000201925,-0.000714933,0.00140886,-0.000221568,-0.534778,0.00102114,0.0148467,1623,1667,12.2274,-34.0329
406,-643,12.2288,33.5862,-0.000378288,-0.00101028,0.000203634,-0.000318358,-0.00107021,0.286222,0.000634555,0.0135164,1630,1667,12.2287,-33.5862
413,-643,12.2219,33.1348,-0.00147704,-0.00179622,0.000887999,-0.000734403,-0.00253886,0.696487,0.00150858,0.0203982,1637,1667,12.2219,-33.1347
420,-643,12.1815,32.709,-0.00247613,-0.0023829,0.00139255,-0.00103619,-0.00382285,0.802129,0.00228295,0.0194496,1644,1667,12.1816,-32.709
427,-643,12.1791,32.2695,-0.0032554,-0.00262663,0.00165614,-0.0012553,-0.00462673,0.879197,0.00276281,0.0156998,1651,1667,12.1791,-32.2695
434,-643,12.1573,31.8242,-0.00396011,-0.00247704,0.00180881,-0.00126367,-0.00517348,0.979928,0.00311443,0.0164327,1658,1667,12.1574,-31.8242
441,-643,12.139,31.3593,-0.00454908,-0.00217161,0.00183361,-0.00117512,-0.00554557,1.07299,0.00337425,0.0156225,1665,1667,12.139,-31.3592
448,-643,12.0636,30.8732,-0.00503979,-0.0017102,0.00176017,-0.000952241,-0.00579775,1.16418,0.0035901,0.019567,1672,1667,12.0636,-30.8731
455,-643,11.916,30.3071,-0.00542853,-0.000795926,0.00167746,-0.000252313,-0.00597215,1.25741,0.00390005,0.029948,1679,1667,11.916,-30.3071
462,-643,11.9534,29.5947,-0.00596566,-0.000244466,0.00190181,0.000330033,-0.00654016,1.27743,0.00447418,0.0442772,1686,1667,11.9533,-29.5947
469,-643,12.2219,28.9993,0,0,0,0,0,0,0,-1,1693,1667,12.2219,-28.9993
476,-643,10.5598,24.5066,0,0,0,0,0,0,0,-1,1700,1667,10.5598,-24.5065
483,-643,10.4502,24.3062,0,0,0,0,0,0,0,-1,1707,1667,10.4502,-24.3062
490,-643,10.6885,24.1522,0,0,0,0,0,0,0,-1,1714,1667,10.6884,-24.1522
497,-643,10.9073,23.9465,0,0,0,0,0,0,0,-1,1721,1667,10.9074,-23.9465
504,-643,8.05591,19.0656,0,0,0,0,0,0,0,-1,1728,1667,8.0559,-19.0655
511,-643,7.74719,18.1564,0,0,0,0,0,0,0,-1,1735,1667,7.74724,-18.1563
518,-643,7.40564,0.922607,0,0,0,0,0,0,0,-1,1742,1667,7.4057,-0.922598
525,-643,0,0,0,0,0,0,0,0,0,-1,1749,1667,0,0
532,-643,0,0,0,0,0,0,0,0,0,-1,1756,1667,0,0
539,-643,0,0,0,0,0,0,0,0,0,-1,1763,1667,0,0
546,-643,0,0,0,0,0,0,0,0,0,-1,1770,1667,0,0
553,-643,0,0,0,0,0,0,0,0,0,-1,1777,1667,0,0
560,-643,0,0,0,0,0,0,0,0,0,-1,1784,1667,0,0
567,-643,0,0,0,0,0,0,0,0,0,-1,1791,1667,0,0
574,-643,0,0,0,0,0,0,0,0,0,-1,1798,1667,0,0
581,-643,0,0,0,0,0,0,0,0,0,-1,1805,1667,0,0
588,-643,0,0,0,0,0,0,0,0,0,-1,1812,1667,0,0
595,-643,0,0,0,0,0,0,0,0,0,-1,1819,1667,0,0
602,-643,0,0,0,0,0,0,0,0,0,-1,1826,1667,0,0
609,-643,0,0,0,0,0,0,0,0,0,-1,1833,1667,0,0
616,-643,0,0,0,0,0,0,0,0,0,-1,1840,1667,0,0
623,-643,0,0,0,0,0,0,0,0,0,-1,1847,1667,0,0
630,-643,0,0,0,0,0,0,0,0,0,-1,1854,1667,0,0
637,-643,0,0,0,0,0,0,0,0,0,-1,1861,1667,0,0
644,-643,0,0,0,0,0,0,0,0,0,-1,1868,1667,0,0
651,-643,0,0,0,0,0,0,0,0,0,-1,1875,1667,0,0
658,-643,0,0,0,0,0,0,0,0,0,-1,1882,1667,0,0
665,-643,0,0,0,0,0,0,0,0,0,-1,1889,1667,0,0
672,-643,0,0,0,0,0,0,0,0,0,-1,1896,1667,0,0
679,-643,0,0,0,0,0,0,0,0,0,-1,1903,1667,0,0
686,-643,0,0,0,0,0,0,0,0,0,-1,1910,1667,0,0
693,-643,0,0,0,0,0,0,0,0,0,-1,1917,1667,0,0
700,-643,0,0,0,0,0,0,0,0,0,-1,1924,1667,0,0
707,-643,0,0,0,0,0,0,0,0,0,-1,1931,1667,0,0
714,-643,0,0,0,0,0,0,0,0,0,-1,1938,1667,0,0
721,-643,0,0,0,0,0,0,0,0,0,-1,1945,1667,0,0
728,-643,0,0,0,0,0,0,0,0,0,-1,1952,1667,0,0
735,-643,0,0,0,0,0,0,0,0,0,-1,1959,1667,0,0
742,-643,0,0,0,0,0,0,0,0,0,-1,1966,1667,0,0
749,-643,0,0,0,0,0,0,0,0,0,-1,1973,1667,0,0
756,-643,0,0,0,0,0,0,0,0,0,-1,1980,1667,0,0
763,-643,0,0,0,0,0,0,0,0,0,-1,1987,1667,0,0
770,-643,0,0,0,0,0,0,0,0,0,-1,1994,1667,0,0
777,-643,0,0,0,0,0,0,0,0,0,-1,2001,1667,0,0
784,-643,0,0,0,0,0,0,0,0,0,-1,2008,1667,0,0
791,-643,0,0,0,0,0,0,0,0,0,-1,2015,1667,0,0
798,-643,0,0,0,0,0,0,0,0,0,-1,2022,1667,0,0
805,-643,0,0,0,0,0,0,0,0,0,-1,2029,1667,0,0
812,-643,0,0,0,0,0,0,0,0,0,-1,2036,1667,0,0
-700,-650,0,0,0,0,0,0,0,0,0,-1,524,1674,0,0
-693,-650,0,0,0,0,0,0,0,0,0,-1,531,1674,0,0
-686,-650,0,0,0,0,0,0,0,0,0,-1,538,1674,0,0
-679,-650,0,0,0,0,0,0,0,0,0,-1,545,1674,0,0
-672,-650,0,0,0,0,0,0,0,0,0,-1,552,1674,0,0
-665,-650,0,0,0,0,0,0,0,0,0,-1,559,1674,0,0
-658,-650,0,0,0,0,0,0,0,0,0,-1,566,1674,0,0
-651,-650,0,0,0,0,0,0,0,0,0,-1,573,1674,0,0
-644,-650,0,0,0,0,0,0,0,0,0,-1,580,1674,0,0
-637,-650,0,0,0,0,0,0,0,0,0,-1,587,1674,0,0
-630,-650,0,0,0,0,0,0,0,0,0,-1,594,1674,0,0
-623,-650,0,0,0,0,0,0,0,0,0,-1,601,1674,0,0
-616,-650,0,0,0,0,0,0,0,0,0,-1,608,1674,0,0
-609,-650,0,0,0,0,0,0,0,0,0,-1,615,1674,0,0
-602,-650,0,0,0,0,0,0,0,0,0,-1,622,1674,0,0
-595,-650,0,0,0,0,0,0,0,0,0,-1,629,1674,0,0
-588,-650,0,0,0,0,0,0,0,0,0,-1,636,1674,0,0
-581,-650,0,0,0,0,0,0,0,0,0,-1,643,1674,0,0
-574,-650,0,0,0,0,0,0,0,0,0,-1,650,1674,0,0
-567,-650,0,0,0,0,0,0,0,0,0,-1,657,1674,0,0
-560,-650,0,0,0,0,0,0,0,0,0,-1,664,1674,0,0
-553,-650,0,0,0,0,0,0,0,0,0,-1,671,1674,0,0
-546,-650,0,0,0,0,0,0,0,0,0,-1,678,1674,0,0
-539,-650,0,0,0,0,0,0,0,0,0,-1,685,1674,0,0
-532,-650,0,0,0,0,0,0,0,0,0,-1,692,1674,0,0
-525,-650,0,0,0,0,0,0,0,0,0,-1,699,1674,0,0
-518,-650,0,0,0,0,0,0,0,0,0,-1,706,1674,0,0
-511,-650,0,0,0,0,0,0,0,0,0,-1,713,1674,0,0
-504,-650,0,0,0,0,0,0,0,0,0,-1,720,1674,0,0
-497,-650,0,0,0,0,0,0,0,0,0,-1,727,1674,0,0
-490,-650,0,0,0,0,0,0,0,0,0,-1,734,1674,0,0
-483,-650,0,0,0,0,0,0,0,0,0,-1,741,1674,0,0
-476,-650,0,0,0,0,0,0,0,0,0,-1,748,1674,0,0
-469,-650,0,0,0,0,0,0,0,0,0,-1,755,1674,0,0
-462,-650,0,0,0,0,0,0,0,0,0,-1,762,1674,0,0
-455,-650,0,0,0,0,0,0,0,0,0,-1,769,1674,0,0
-448,-650,0,0,0,0,0,0,0,0,0,-1,776,1674,0,0
-441,-650,0,0,0,0,0,0,0,0,0,-1,783,1674,0,0
-434,-650,0,0,0,0,0,0,0,0,0,-1,790,1674,0,0
-427,-650,0,0,0,0,0,0,0,0,0,-1,797,1674,0,0
-420,-650,0,0,0,0,0,0,0,0,0,-1,804,1674,0,0
-413,-650,0,0,0,0,0,0,0,0,0,-1,811,1674,0,0
-406,-650,0,0,0,0,0,0,0,0,0,-1,818,1674,0,0
-399,-650,0,0,0,0,0,0,0,0,0,-1,825,1674,0,0
-392,-650,5.44415,6.85669,0,0,0,0,0,0,0,-1,832,1674,5.44414,-6.85674
-385,-650,1.74451,14.0183,0,0,0,0,0,0,0,-1,839,1674,1.74453,-14.0183
-378,-650,0.997986,4.11108,0,0,0,0,0,0,0,-1,846,1674,0.998006,-4.11113
-371,-650,-1.80096,3.78625,0,0,0,0,0,0,0,-1,853,1674,-1.80094,-3.78625
-364,-650,-2.95679,2.57507,0,0,0,0,0,0,0,-1,860,1674,-2.95681,-2.57506
-357,-650,1.97833,10.8362,0,0,0,0,0,0,0,-1,867,1674,1.97835,-10.8362
-350,-650,-5.30243,0.159912,0,0,0,0,0,0,0,-1,874,1674,-5.30244,-0.159866
-343,-650,-6.21338,-1.4425,0,0,0,0,0,0,0,-1,881,1674,-6.21341,1.44248
-336,-650,5.5885,27.6781,0,0,0,0,0,0,0,-1,888,1674,5.5885,-27.6781
-329,-650,5.45941,28.931,0,0,0,0,0,0,0,-1,895,1674,5.45942,-28.9311
-322,-650,5.6734,29.4753,-0.00265857,0.00519524,0.000575709,0.00523722,-0.00270055,1.49801,0.00466022,0.0444777,902,1674,5.67338,-29.4754
-315,-650,5.31396,30.2483,-0.00280055,0.0034774,-0.000616655,0.0035374,-0.00286054,-1.47381,0.00370074,0.042771,909,1674,5.31397,-30.2483
-308,-650,5.35895,30.7173,-0.00288807,0.00199532,-0.00149575,0.00241704,-0.00330979,-1.29598,0.00331975,0.0262248,916,1674,5.35893,-30.7172
-301,-650,5.38916,31.3259,-0.00281568,0.000839922,-0.00220411,0.0018755,-0.00385126,-1.13157,0.0033713,0.0151146,923,1674,5.38917,-31.3259
-294,-650,5.33569,31.7935,-0.00252975,0.000263489,-0.00257713,0.00179811,-0.00406437,-1.03371,0.00346798,0.0116498,930,1674,5.33566,-31.7935
-287,-650,5.31,32.2509,-0.00222707,-4.21801e-05,-0.00269913,0.0017772,-0.00404645,-0.977691,0.00344632,0.0138618,937,1674,5.30997,-32.2509
-280,-650,5.29565,32.7223,-0.00196096,-5.61383e-05,-0.00249841,0.00166523,-0.00368233,-0.967499,0.00315978,0.0153723,944,1674,5.29564,-32.7223
-273,-650,5.26886,33.2195,-0.00155227,-6.06496e-05,-0.00216723,0.00148551,-0.00309843,-0.951117,0.0027006,0.0139937,951,1674,5.26889,-33.2195
-266,-650,5.24652,33.6805,-0.000913642,5.85371e-05,-0.00167749,0.00131894,-0.00217405,-0.926422,0.00203672,0.0112374,958,1674,5.24654,-33.6805
-259,-650,5.25543,34.1256,-0.000385003,0.000487707,-0.00109966,0.00123442,-0.00113172,-0.974275,0.00136652,0.0142175,965,1674,5.2554,-34.1257
-252,-650,5.23804,34.5842,0.000136159,0.0010557,-0.000470427,0.00125373,-6.1862e-05,-1.17237,0.000857182,0.0135582,972,1674,5.23804,-34.5842
-245,-650,5.19995,35.0107,0.000754507,0.00165498,0.000149512,0.00167916,0.000730332,1.41049,0.000972193,0.0126979,979,1674,5.19993,-35.0108
-238,-650,5.18518,35.4742,0.00163292,0.00204785,0.00059691,0.00247232,0.00120845,0.952651,0.00142752,0.0134663,986,1674,5.18517,-35.4742
-231,-650,5.1665,35.9292,0.00297686,0.00215612,0.00127837,0.00390911,0.00122388,0.630088,0.0023089,0.017904,993,1674,5.16649,-35.9292
-224,-650,5.17499,36.3212,0.00418563,0.00192578,0.00237137,0.00568251,0.000428891,0.563068,0.00365378,0.0144627,1000,1674,5.17498,-36.3212
-217,-650,5.17328,36.6943,0.0045954,0.00159089,0.00348932,0.00689211,-0.000705816,0.582126,0.00484717,0.0099648,1007,1674,5.17325,-36.6944
-210,-650,5.18365,37.0907,0.00419009,0.00141535,0.0044893,0.00750151,-0.00189607,0.635534,0.00573841,0.00951888,1014,1674,5.18368,-37.0907
-203,-650,5.2218,37.5121,0.00429087,0.00100403,0.00557942,0.00846387,-0.00316897,0.642173,0.00694426,0.0135118,1021,1674,5.22175,-37.5121
-196,-650,5.22888,37.9261,0.00395636,0.000575512,0.00685536,0.00932664,-0.00479477,0.664518,0.00829177,0.0133222,1028,1674,5.22888,-37.9262
-189,-650,5.21912,38.3149,0.0031539,1.2919e-05,0.00829085,0.0100217,-0.00685487,0.691795,0.0098007,0.0116545,1035,1674,5.21914,-38.3149
-182,-650,5.28723,38.735,0.0020035,-0.000306515,0.00970762,0.0106246,-0.00892759,0.726187,0.0113026,0.011451,1042,1674,5.28721,-38.735
-175,-650,5.3291,39.0627,0.000388474,-0.00012872,0.0110744,0.0112073,-0.0109476,0.773725,0.0127914,0.0169651,1049,1674,5.32913,-39.0627
-168,-650,5.32227,39.4246,-0.00108159,0.000466414,0.0122036,0.0119206,-0.0125357,0.817068,0.0141213,0.0216843,1056,1674,5.32229,-39.4246
-161,-650,5.26099,39.8044,-0.00274458,0.00134287,0.0129725,0.0124316,-0.0138333,0.863528,0.0151712,0.0312663,1063,1674,5.26102,-39.8045
-154,-650,5.27417,40.1129,-0.00407011,0.00280602,0.0132372,0.0130444,-0.0143085,0.912454,0.0157978,0.036637,1070,1674,5.27414,-40.1129
-147,-650,5.35974,40.6755,0,0,0,0,0,0,0,-1,1077,1674,5.35978,-40.6755
-140,-650,4.9696,36.0964,0,0,0,0,0,0,0,-1,1084,1674,4.96957,-36.0964
-133,-650,4.69751,37.2125,0,0,0,0,0,0,0,-1,1091,1674,4.69756,-37.2125
-126,-650,4.56946,39.0813,0,0,0,0,0,0,0,-1,1098,1674,4.5695,-39.0813
-119,-650,5.16663,20.6232,0,0,0,0,0,0,0,-1,1105,1674,5.16665,-20.6232
-112,-650,3.86292,14.4513,0,0,0,0,0,0,0,-1,1112,1674,3.8629,-14.4513
-105,-650,7.92102,38.1313,0,0,0,0,0,0,0,-1,1119,1674,7.92104,-38.1314
-98,-650,3.3761,6.78003,0,0,0,0,0,0,0,-1,1126,1674,3.37611,-6.78009
-91,-650,3.66809,7.04443,0,0,0,0,0,0,0,-1,1133,1674,3.66806,-7.04439
-84,-650,-3.82666,-1.59521,0,0,0,0,0,0,0,-1,1140,1674,-3.82661,1.59517
-77,-650,-4.70557,1.90198,0,0,0,0,0,0,0,-1,1147,1674,-4.7056,-1.90194
-70,-650,-4.88171,3.81653,0,0,0,0,0,0,0,-1,1154,1674,-4.88176,-3.81651
-63,-650,-5.14612,5.56543,0,0,0,0,0,0,0,-1,1161,1674,-5.14612,-5.56547
-56,-650,-5.38367,7.41101,0,0,0,0,0,0,0,-1,1168,1674,-5.38361,-7.41102
-49,-650,-5.11316,8.23706,0,0,0,0,0,0,0,-1,1175,1674,-5.11317,-8.23708
-42,-650,-4.99487,9.6792,0,0,0,0,0,0,0,-1,1182,1674,-4.99484,-9.67921
-35,-650,-4.77771,11.3369,0,0,0,0,0,0,0,-1,1189,1674,-4.77769,-11.3369
-28,-650,-4.1936,13.1501,0,0,0,0,0,0,0,-1,1196,1674,-4.19358,-13.1501
-21,-650,7.49512,36.2162,0,0,0,0,0,0,0,-1,1203,1674,7.49515,-36.2162
-14,-650,3.5813,48.1384,0,0,0,0,0,0,0,-1,1210,1674,3.58132,-48.1385
-7,-650,4.54492,47.8065,0,0,0,0,0,0,0,-1,1217,1674,4.54489,-47.8065
0,-650,7.52942,50.4045,0,0,0,0,0,0,0,-1,1224,1674,7.52941,-50.4046
7,-650,8.21423,50.8203,0,0,0,0,0,0,0,-1,1231,1674,8.21426,-50.8204
14,-650,8.39014,47.6238,0,0,0,0,0,0,0,-1,1238,1674,8.39011,-47.6238
21,-650,10.1903,48.7997,0,0,0,0,0,0,0,-1,1245,1674,10.1903,-48.7997
28,-650,10.7374,48.3516,0,0,0,0,0,0,0,-1,1252,1674,10.7374,-48.3515
35,-650,11.5751,48.1115,0,0,0,0,0,0,0,-1,1259,1674,11.575,-48.1115
42,-650,9.66296,47.2075,-0.033016,0.0696545,-0.0309712,0.0782736,-0.041635,-1.29937,0.0702983,0.0447669,1266,1674,9.66301,-47.2075
49,-650,9.07935,47.0582,-0.0386129,0.0764728,-0.0351092,0.086338,-0.048478,-1.29688,0.0788525,0.044536,1273,1674,9.07935,-47.0583
56,-650,8.50635,46.9364,-0.042883,0.0825071,-0.0398054,0.094076,-0.0544519,-1.28795,0.0867639,0.0454456,1280,1674,8.50639,-46.9364
63,-650,7.68616,46.1466,-0.0478865,0.0847564,-0.0442246,0.0981491,-0.0612793,-1.27674,0.0928629,0.0436359,1287,1674,7.68612,-46.1466
70,-650,6.06189,44.5394,-0.0522657,0.0847523,-0.0488887,0.100407,-0.0679207,-1.2609,0.0977857,0.0443022,1294,1674,6.06188,-44.5394
77,-650,6.79456,46.6227,0,0,0,0,0,0,0,-1,1301,1674,6.79454,-46.6227
84,-650,6.6228,45.9412,0,0,0,0,0,0,0,-1,1308,1674,6.62277,-45.9412
91,-650,5.88416,44.9971,-0.0688382,0.0733904,-0.0622709,0.0968007,-0.0922486,-1.2112,0.109158,0.0449302,1315,1674,5.88415,-44.9971
98,-650,5.24109,44.9364,-0.0781792,0.0692074,-0.0652738,0.0939589,-0.102931,-1.20835,0.113714,0.0439953,1322,1674,5.2411,-44.9364
105,-650,4.31628,44.5288,-0.0918907,0.0653985,-0.0670711,0.0901149,-0.116607,-1.21773,0.119677,0.0457106,1329,1674,4.31631,-44.5288
112,-650,3.46619,44.1915,0,0,0,0,0,0,0,-1,1336,1674,3.46622,-44.1915
119,-650,2.54675,44.4557,0,0,0,0,0,0,0,-1,1343,1674,2.54677,-44.4557
126,-650,7.79993,44.9329,-0.162969,0.0598425,-0.0679405,0.0789249,-0.182051,-1.29698,0.154546,0.0443818,1350,1674,7.79987,-44.9328
133,-650,6.40332,44.0219,-0.190942,0.0616664,-0.0684896,0.079041,-0.208316,-1.32236,0.171411,0.0475189,1357,1674,6.40331,-44.0218
140,-650,5.16626,43.1829,-0.213648,0.0642704,-0.0704954,0.0811293,-0.230507,-1.33606,0.186686,0.0453754,1364,1674,5.16626,-43.1828
147,-650,3.87305,42.5498,0,0,0,0,0,0,0,-1,1371,1674,3.87309,-42.5498
154,-650,2.5531,41.9286,0,0,0,0,0,0,0,-1,1378,1674,2.55305,-41.9285
161,-650,4.09106,30.3021,0,0,0,0,0,0,0,-1,1385,1674,4.09104,-30.3021
168,-650,11.2113,7.87231,0,0,0,0,0,0,0,-1,1392,1674,11.2113,-7.87236
175,-650,5.62537,-0.230713,0,0,0,0,0,0,0,-1,1399,1674,5.62538,0.230745
182,-650,5.56006,0.421631,0,0,0,0,0,0,0,-1,1406,1674,5.56,-0.421652
189,-650,4.81543,11.0654,0,0,0,0,0,0,0,-1,1413,1674,4.81542,-11.0654
196,-650,5.39575,11.9077,0,0,0,0,0,0,0,-1,1420,1674,5.39575,-11.9078
203,-650,3.93628,11.8215,0,0,0,0,0,0,0,-1,1427,1674,3.93624,-11.8216
210,-650,5.40955,8.08594,0,0,0,0,0,0,0,-1,1434,1674,5.40958,-8.086
217,-650,5.12451,4.69739,0,0,0,0,0,0,0,-1,1441,1674,5.12451,-4.69738
224,-650,4.79041,1.45813,0,0,0,0,0,0,0,-1,1448,1674,4.79046,-1.45816
231,-650,4.04102,-0.642212,0,0,0,0,0,0,0,-1,1455,1674,4.04101,0.642209
238,-650,3.23022,-1.43396,0,0,0,0,0,0,0,-1,1462,1674,3.23023,1.43394
245,-650,1.65894,-2.55042,0,0,0,0,0,0,0,-1,1469,1674,1.65889,2.55036
252,-650,8.75342,0.355103,0,0,0,0,0,0,0,-1,1476,1674,8.75337,-0.355147
259,-650,5.61255,3.17566,0,0,0,0,0,0,0,-1,1483,1674,5.61257,-3.17572
266,-650,4.00403,6.10229,0,0,0,0,0,0,0,-1,1490,1674,4.00401,-6.10225
273,-650,11.8997,40.0619,0,0,0,0,0,0,0,-1,1497,1674,11.8997,-40.0619
280,-650,12.0741,40.1047,0.00336453,0.0120046,0.0123229,0.0207428,-0.00537366,0.953989,0.0159249,0.0474566,1504,1674,12.0741,-40.1048
287,-650,11.9136,40.0892,0.00348216,0.0124303,0.00980256,0.0187315,-0.0028191,0.999487,0.0135257,0.0451845,1511,1674,11.9136,-40.0892
294,-650,11.8699,39.9486,0.00414376,0.0128509,0.00680042,0.0165719,0.000422711,1.07012,0.0109098,0.0411955,1518,1674,11.8699,-39.9486
301,-650,11.686,39.6462,0,0,0,0,0,0,0,-1,1525,1674,11.6861,-39.6462
308,-650,11.7672,39.194,0.00504141,0.0119714,0.00225486,0.0126404,0.00437232,1.28234,0.0074126,0.0195275,1532,1674,11.7672,-39.1939
315,-650,11.8192,38.8025,0.00556782,0.0118198,-4.03888e-05,0.0118201,0.00556756,-1.56434,0.00682816,0.012909,1539,1674,11.8192,-38.8024
322,-650,11.8114,38.4418,0.00615732,0.011532,-0.00187005,0.0121186,0.00557069,-1.26682,0.00700426,0.0120376,1546,1674,11.8114,-38.4418
329,-650,11.8287,38.0276,0.00647241,0.0109141,-0.00311015,0.0125149,0.00487159,-1.09545,0.00728434,0.0170075,1553,1674,11.8287,-38.0275
336,-650,11.8385,37.667,0.00653355,0.0103365,-0.00426844,0.0131078,0.0037622,-0.994937,0.00779329,0.0150469,1560,1674,11.8384,-37.667
343,-650,11.8638,37.298,0.00629784,0.00936346,-0.00480346,0.0128727,0.00278856,-0.939844,0.00781984,0.0142894,1567,1674,11.8638,-37.298
350,-650,11.8766,36.899,0.00595667,0.00772216,-0.00474957,0.0116703,0.00200851,-0.877279,0.00720464,0.0166007,1574,1674,11.8766,-36.8991
357,-650,11.8475,36.5048,0.00546488,0.00669154,-0.00431531,0.0104369,0.00171953,-0.85599,0.00646147,0.0140329,1581,1674,11.8476,-36.5048
364,-650,11.8441,36.1039,0.00488307,0.00539951,-0.0037013,0.00885159,0.001431,-0.820224,0.00548662,0.00973586,1588,1674,11.8441,-36.1039
371,-650,11.8427,35.6875,0.00417533,0.00410757,-0.00287646,0.00701811,0.0012648,-0.779509,0.00431931,0.0116718,1595,1674,11.8426,-35.6876
378,-650,11.8293,35.2778,0.00333399,0.00269145,-0.00189053,0.00493035,0.00109509,-0.701235,0.00298949,0.0123151,1602,1674,11.8293,-35.2778
385,-650,11.8207,34.8707,0.00240905,0.00123467,-0.000881148,0.00288074,0.000762987,-0.491492,0.00172341,0.0137781,1609,1674,11.8207,-34.8707
392,-650,11.8242,34.4498,0.00131035,-0.000386169,0.000179368,0.00132911,-0.000404926,0.104192,0.00104747,0.0181217,1616,1674,11.8242,-34.4499
399,-650,11.8198,34.0397,4.62667e-05,-0.00190168,0.00121423,0.000628881,-0.0024843,0.447377,0.00190082,0.0167734,1623,1674,11.8199,-34.0397
406,-650,11.7909,33.6223,-0.00122068,-0.00294799,0.00207152,0.000160019,-0.00432869,0.587895,0.00294058,0.0150039,1630,1674,11.7909,-33.6224
413,-650,11.7889,33.1761,-0.0022965,-0.00352884,0.00268694,-0.000155982,-0.00566936,0.672687,0.00372866,0.0158704,1637,1674,11.789,-33.1762
420,-650,11.7505,32.7405,-0.0033306,-0.00389227,0.00304344,-0.000555063,-0.00666781,0.739391,0.00427222,0.0157291,1644,1674,11.7505,-32.7405
427,-650,11.7507,32.295,-0.00423005,-0.00395868,0.00320429,-0.000887198,-0.00730153,0.806558,0.00460056,0.0142257,1651,1674,11.7507,-32.295
434,-650,11.7216,31.8761,-0.00518071,-0.00362443,0.0033277,-0.000985103,-0.00782004,0.900252,0.00491799,0.0168592,1658,1674,11.7216,-31.8761
441,-650,11.6251,31.472,-0.00625403,-0.00328448,0.0032041,-0.00123785,-0.00830066,1.00237,0.00517078,0.0269131,1665,1674,11.6251,-31.472
448,-650,11.3917,30.9509,-0.00727493,-0.00263101,0.00282297,-0.00129775,-0.00860819,1.12956,0.00535885,0.0388813,1672,1674,11.3917,-30.9509
455,-650,11.0863,30.2153,-0.00801625,-0.0011391,0.00269897,-0.000206374,-0.00894898,1.23806,0.0058984,0.0464933,1679,1674,11.0863,-30.2153
462,-650,11.3314,29.2474,0,0,0,0,0,0,0,-1,1686,1674,11.3314,-29.2474
469,-650,12.004,28.7467,0,0,0,0,0,0,0,-1,1693,1674,12.004,-28.7467
476,-650,10.9189,27.1289,0,0,0,0,0,0,0,-1,1700,1674,10.919,-27.1289
483,-650,10.2426,24.5127,0,0,0,0,0,0,0,-1,1707,1674,10.2425,-24.5127
490,-650,10.4818,24.3475,0,0,0,0,0,0,0,-1,1714,1674,10.4818,-24.3475
497,-650,10.4985,20.1362,0,0,0,0,0,0,0,-1,1721,1674,10.4986,-20.1362
504,-650,9.69458,18.7721,0,0,0,0,0,0,0,-1,1728,1674,9.6946,-18.772
511,-650,9.37158,17.7506,0,0,0,0,0,0,0,-1,1735,1674,9.37159,-17.7506
518,-650,0,0,0,0,0,0,0,0,0,-1,1742,1674,0,0
525,-650,0,0,0,0,0,0,0,0,0,-1,1749,1674,0,0
532,-650,0,0,0,0,0,0,0,0,0,-1,1756,1674,0,0
539,-650,0,0,0,0,0,0,0,0,0,-1,1763,1674,0,0
546,-650,0,0,0,0,0,0,0,0,0,-1,1770,1674,0,0
553,-650,0,0,0,0,0,0,0,0,0,-1,1777,1674,0,0
560,-650,0,0,0,0,0,0,0,0,0,-1,1784,1674,0,0
567,-650,0,0,0,0,0,0,0,0,0,-1,1791,1674,0,0
574,-650,0,0,0,0,0,0,0,0,0,-1,1798,1674,0,0
581,-650,0,0,0,0,0,0,0,0,0,-1,1805,1674,0,0
588,-650,0,0,0,0,0,0,0,0,0,-1,1812,1674,0,0
595,-650,0,0,0,0,0,0,0,0,0,-1,1819,1674,0,0
602,-650,0,0,0,0,0,0,0,0,0,-1,1826,1674,0,0
609,-650,0,0,0,0,0,0,0,0,0,-1,1833,1674,0,0
616,-650,0,0,0,0,0,0,0,0,0,-1,1840,1674,0,0
623,-650,0,0,0,0,0,0,0,0,0,-1,1847,1674,0,0
630,-650,0,0,0,0,0,0,0,0,0,-1,1854,1674,0,0
637,-650,0,0,0,0,0,0,0,0,0,-1,1861,1674,0,0
644,-650,0,0,0,0,0,0,0,0,0,-1,1868,1674,0,0
651,-650,0,0,0,0,0,0,0,0,0,-1,1875,1674,0,0
658,-650,0,0,0,0,0,0,0,0,0,-1,1882,1674,0,0
665,-650,0,0,0,0,0,0,0,0,0,-1,1889,1674,0,0
672,-650,0,0,0,0,0,0,0,0,0,-1,1896,1674,0,0
679,-650,0,0,0,0,0,0,0,0,0,-1,1903,1674,0,0
686,-650,0,0,0,0,0,0,0,0,0,-1,1910,1674,0,0
693,-650,0,0,0,0,0,0,0,0,0,-1,1917,1674,0,0
700,-650,0,0,0,0,0,0,0,0,0,-1,1924,1674,0,0
707,-650,0,0,0,0,0,0,0,0,0,-1,1931,1674,0,0
714,-650,0,0,0,0,0,0,0,0,0,-1,1938,1674,0,0
721,-650,0,0,0,0,0,0,0,0,0,-1,1945,1674,0,0
728,-650,0,0,0,0,0,0,0,0,0,-1,1952,1674,0,0
735,-650,0,0,0,0,0,0,0,0,0,-1,1959,1674,0,0
742,-650,0,0,0,0,0,0,0,0,0,-1,1966,1674,0,0
749,-650,0,0,0,0,0,0,0,0,0,-1,1973,1674,0,0
756,-650,0,0,0,0,0,0,0,0,0,-1,1980,1674,0,0
763,-650,0,0,0,0,0,0,0,0,0,-1,1987,1674,0,0
770,-650,0,0,0,0,0,0,0,0,0,-1,1994,1674,0,0
777,-650,0,0,0,0,0,0,0,0,0,-1,2001,1674,0,0
784,-650,0,0,0,0,0,0,0,0,0,-1,2008,1674,0,0
791,-650,0,0,0,0,0,0,0,0,0,-1,2015,1674,0,0
798,-650,0,0,0,0,0,0,0,0,0,-1,2022,1674,0,0
805,-650,0,0,0,0,0,0,0,0,0,-1,2029,1674,0,0
812,-650,0,0,0,0,0,0,0,0,0,-1,2036,1674,0,0
-700,-657,0,0,0,0,0,0,0,0,0,-1,524,1681,0,0
-693,-657,0,0,0,0,0,0,0,0,0,-1,531,1681,0,0
-686,-657,0,0,0,0,0,0,0,0,0,-1,538,1681,0,0
-679,-657,0,0,0,0,0,0,0,0,0,-1,545,1681,0,0
-672,-657,0,0,0,0,0,0,0,0,0,-1,552,1681,0,0
-665,-657,0,0,0,0,0,0,0,0,0,-1,559,1681,0,0
-658,-657,0,0,0,0,0,0,0,0,0,-1,566,1681,0,0
-651,-657,0,0,0,0,0,0,0,0,0,-1,573,1681,0,0
-644,-657,0,0,0,0,0,0,0,0,0,-1,580,1681,0,0
-637,-657,0,0,0,0,0,0,0,0,0,-1,587,1681,0,0
-630,-657,0,0,0,0,0,0,0,0,0,-1,594,1681,0,0
-623,-657,0,0,0,0,0,0,0,0,0,-1,601,1681,0,0
-616,-657,0,0,0,0,0,0,0,0,0,-1,608,1681,0,0
-609,-657,0,0,0,0,0,0,0,0,0,-1,615,1681,0,0
-602,-657,0,0,0,0,0,0,0,0,0,-1,622,1681,0,0
-595,-657,0,0,0,0,0,0,0,0,0,-1,629,1681,0,0
-588,-657,0,0,0,0,0,0,0,0,0,-1,636,1681,0,0
-581,-657,0,0,0,0,0,0,0,0,0,-1,643,1681,0,0
-574,-657,0,0,0,0,0,0,0,0,0,-1,650,1681,0,0
-567,-657,0,0,0,0,0,0,0,0,0,-1,657,1681,0,0
-560,-657,0,0,0,0,0,0,0,0,0,-1,664,1681,0,0
-553,-657,0,0,0,0,0,0,0,0,0,-1,671,1681,0,0
-546,-657,0,0,0,0,0,0,0,0,0,-1,678,1681,0,0
-539,-657,0,0,0,0,0,0,0,0,0,-1,685,1681,0,0
-532,-657,0,0,0,0,0,0,0,0,0,-1,692,1681,0,0
-525,-657,0,0,0,0,0,0,0,0,0,-1,699,1681,0,0
-518,-657,0,0,0,0,0,0,0,0,0,-1,706,1681,0,0
-511,-657,0,0,0,0,0,0,0,0,0,-1,713,1681,0,0
-504,-657,0,0,0,0,0,0,0,0,0,-1,720,1681,0,0
-497,-657,0,0,0,0,0,0,0,0,0,-1,727,1681,0,0
-490,-657,0,0,0,0,0,0,0,0,0,-1,734,1681,0,0
-483,-657,0,0,0,0,0,0,0,0,0,-1,741,1681,0,0
-476,-657,0,0,0,0,0,0,0,0,0,-1,748,1681,0,0
-469,-657,0,0,0,0,0,0,0,0,0,-1,755,1681,0,0
-462,-657,0,0,0,0,0,0,0,0,0,-1,762,1681,0,0
-455,-657,0,0,0,0,0,0,0,0,0,-1,769,1681,0,0
-448,-657,0,0,0,0,0,0,0,0,0,-1,776,1681,0,0
-441,-657,0,0,0,0,0,0,0,0,0,-1,783,1681,0,0
-434,-657,0,0,0,0,0,0,0,0,0,-1,790,1681,0,0
-427,-657,0,0,0,0,0,0,0,0,0,-1,797,1681,0,0
-420,-657,0,0,0,0,0,0,0,0,0,-1,804,1681,0,0
-413,-657,0,0,0,0,0,0,0,0,0,-1,811,1681,0,0
-406,-657,0,0,0,0,0,0,0,0,0,-1,818,1681,0,0
-399,-657,0,0,0,0,0,0,0,0,0,-1,825,1681,0,0
-392,-657,0,0,0,0,0,0,0,0,0,-1,832,1681,0,0
-385,-657,1.09814,6.18896,0,0,0,0,0,0,0,-1,839,1681,1.09814,-6.18894
-378,-657,0.31488,4.46753,0,0,0,0,0,0,0,-1,846,1681,0.31487,-4.46755
-371,-657,-0.519043,2.69421,0,0,0,0,0,0,0,-1,853,1681,-0.519064,-2.69422
-364,-657,-3.42017,4.18323,0,0,0,0,0,0,0,-1,860,1681,-3.42019,-4.18319
-357,-657,-4.41913,2.97168,0,0,0,0,0,0,0,-1,867,1681,-4.41913,-2.97165
-350,-657,-5.42291,1.70276,0,0,0,0,0,0,0,-1,874,1681,-5.42291,-1.70277
-343,-657,-6.51294,0.397339,0,0,0,0,0,0,0,-1,881,1681,-6.51295,-0.397335
-336,-657,3.08527,26.0612,0,0,0,0,0,0,0,-1,888,1681,3.08528,-26.0611
-329,-657,5.56702,28.6906,0,0,0,0,0,0,0,-1,895,1681,5.56699,-28.6905
-322,-657,6.33514,29.4536,0,0,0,0,0,0,0,-1,902,1681,6.33515,-29.4536
-315,-657,5.89307,30.1453,-0.00371446,0.00428638,-0.00239658,0.00494932,-0.0043774,-1.30092,0.00538816,0.0485061,909,1681,5.89307,-30.1452
-308,-657,5.93817,30.7164,-0.00385474,0.00223306,-0.00345774,0.00379582,-0.0054175,-1.14631,0.00534671,0.0403649,916,1681,5.9382,-30.7164
-301,-657,5.94257,31.4264,-0.00380509,0.000670984,-0.00424424,0.00323111,-0.00636522,-1.02803,0.00563808,0.034376,923,1681,5.94255,-31.4263
-294,-657,5.79889,31.8816,-0.00357361,-0.000111154,-0.00462289,0.00309404,-0.0067788,-0.96456,0.00583091,0.022647,930,1681,5.79886,-31.8816
-287,-657,5.75244,32.3204,-0.00336007,-0.000569168,-0.00469839,0.00293662,-0.00686586,-0.929752,0.00580904,0.0144087,937,1681,5.75246,-32.3204
-280,-657,5.72626,32.7535,-0.00321665,-0.000640553,-0.00434351,0.00260187,-0.00645907,-0.92954,0.00538702,0.0141481,944,1681,5.72625,-32.7535
-273,-657,5.71594,33.2322,-0.00290959,-0.000656898,-0.00384419,0.00222255,-0.00578904,-0.92791,0.00477583,0.00979558,951,1681,5.71594,-33.2322
-266,-657,5.67725,33.6805,-0.00228201,-0.000582145,-0.00311498,0.00179677,-0.00466093,-0.918583,0.00384865,0.0134442,958,1681,5.67726,-33.6805
-259,-657,5.6618,34.1279,-0.00177819,-0.000195164,-0.00230898,0.0014542,-0.00342756,-0.95052,0.00289423,0.0177327,965,1681,5.66182,-34.128
-252,-657,5.63983,34.5719,-0.00127985,0.000358233,-0.00148421,0.00123439,-0.00215601,-1.03752,0.00198141,0.0131439,972,1681,5.63984,-34.5719
-245,-657,5.63123,34.9938,-0.000665186,0.000968254,-0.000670896,0.00120848,-0.000905412,-1.22695,0.00122463,0.0153433,979,1681,5.63121,-34.9938
-238,-657,5.63641,35.4868,0.000151824,0.00135742,-4.05169e-05,0.00135878,0.000150463,-1.53724,0.000860097,0.0202366,986,1681,5.63641,-35.4868
-231,-657,5.62958,35.9454,0.00128617,0.00153527,0.000698978,0.00212071,0.000700729,0.873569,0.00124764,0.0210305,993,1681,5.62958,-35.9455
-224,-657,5.61523,36.3517,0.0023182,0.00144902,0.00172455,0.00366208,0.000105141,0.661967,0.0024071,0.0160931,1000,1681,5.61523,-36.3517
-217,-657,5.59961,36.7583,0.002804,0.00128351,0.00266772,0.00481769,-0.000730178,0.646589,0.00348081,0.0103157,1007,1681,5.59962,-36.7583
-210,-657,5.59845,37.1406,0.00275325,0.00116724,0.00343739,0.00548793,-0.00156743,0.672031,0.00427791,0.0107957,1014,1681,5.59847,-37.1406
-203,-657,5.62207,37.5559,0.00299692,0.000898024,0.00420926,0.00628558,-0.00239064,0.663229,0.00517474,0.0127188,1021,1681,5.62202,-37.5559
-196,-657,5.62476,37.9506,0.0028795,0.000624652,0.00510829,0.0069833,-0.00347915,0.676787,0.00615239,0.0137325,1028,1681,5.62473,-37.9505
-189,-657,5.62427,38.3168,0.00242252,0.000225201,0.00607423,0.00749665,-0.00484893,0.695929,0.00718216,0.0101682,1035,1681,5.6243,-38.3168
-182,-657,5.62817,38.6992,0.00175702,9.98569e-05,0.0069646,0.00794215,-0.00608527,0.726191,0.00812236,0.00849897,1042,1681,5.62814,-38.6992
-175,-657,5.66675,39.0605,0.000858151,0.000380307,0.00780717,0.00843006,-0.0071916,0.770101,0.00902861,0.0110596,1049,1681,5.66674,-39.0605
-168,-657,5.64441,39.4368,0.000177922,0.000976031,0.00851713,0.00910345,-0.0079495,0.808808,0.00985303,0.014302,1056,1681,5.64441,-39.4368
-161,-657,5.64844,39.8458,-0.00063385,0.0017243,0.00901574,0.00963774,-0.00854729,0.850419,0.0105054,0.0140385,1063,1681,5.64838,-39.8458
-154,-657,5.71973,40.161,-0.00108383,0.00287168,0.00920281,0.0103069,-0.008519,0.891242,0.0108854,0.0159727,1070,1681,5.71967,-40.161
-147,-657,5.70056,40.5388,-0.000968143,0.004483,0.00912813,0.0112838,-0.00776893,0.93048,0.0110623,0.0340539,1077,1681,5.70053,-40.5388
-140,-657,5.771,41.1067,0,0,0,0,0,0,0,-1,1084,1681,5.77096,-41.1067
-133,-657,5.6084,42.0236,0,0,0,0,0,0,0,-1,1091,1681,5.60838,-42.0235
-126,-657,5.66943,42.4082,0,0,0,0,0,0,0,-1,1098,1681,5.66949,-42.4082
-119,-657,5.84912,42.3448,0,0,0,0,0,0,0,-1,1105,1681,5.84908,-42.3449
-112,-657,6.67578,41.9827,0,0,0,0,0,0,0,-1,1112,1681,6.67577,-41.9826
-105,-657,7.37256,41.0361,0,0,0,0,0,0,0,-1,1119,1681,7.37254,-41.0362
-98,-657,8.14404,38.4435,0,0,0,0,0,0,0,-1,1126,1681,8.14405,-38.4435
-91,-657,3.6521,16.6017,0,0,0,0,0,0,0,-1,1133,1681,3.65215,-16.6017
-84,-657,4.08008,10.4579,0,0,0,0,0,0,0,-1,1140,1681,4.08006,-10.4579
-77,-657,-5.29846,0.396606,0,0,0,0,0,0,0,-1,1147,1681,-5.29842,-0.396573
-70,-657,-4.14893,2.14575,0,0,0,0,0,0,0,-1,1154,1681,-4.14893,-2.1458
-63,-657,-4.1239,3.177,0,0,0,0,0,0,0,-1,1161,1681,-4.12391,-3.17698
-56,-657,-6.40576,5.73987,0,0,0,0,0,0,0,-1,1168,1681,-6.40577,-5.7399
-49,-657,-5.98462,7.54053,0,0,0,0,0,0,0,-1,1175,1681,-5.98466,-7.5405
-42,-657,-5.71948,9.28955,0,0,0,0,0,0,0,-1,1182,1681,-5.71951,-9.2895
-35,-657,-5.44556,11.015,0,0,0,0,0,0,0,-1,1189,1681,-5.44555,-11.015
-28,-657,-1.3446,8.92847,0,0,0,0,0,0,0,-1,1196,1681,-1.34459,-8.92848
-21,-657,4.35278,47.088,0,0,0,0,0,0,0,-1,1203,1681,4.35281,-47.0881
-14,-657,4.98792,46.9188,0,0,0,0,0,0,0,-1,1210,1681,4.98792,-46.9189
-7,-657,5.48303,46.8441,0,0,0,0,0,0,0,-1,1217,1681,5.48301,-46.8441
0,-657,7.17358,47.9817,0,0,0,0,0,0,0,-1,1224,1681,7.17361,-47.9817
7,-657,7.82898,47.6547,0,0,0,0,0,0,0,-1,1231,1681,7.82895,-47.6546
14,-657,8.49329,47.2393,0,0,0,0,0,0,0,-1,1238,1681,8.49334,-47.2393
21,-657,9.15771,46.824,0,0,0,0,0,0,0,-1,1245,1681,9.15774,-46.824
28,-657,10.7058,47.1356,-0.00694893,0.0494864,-0.0189983,0.055286,-0.0127485,-1.27451,0.0417606,0.045323,1252,1681,10.7058,-47.1356
35,-657,11.6929,46.9346,0,0,0,0,0,0,0,-1,1259,1681,11.6928,-46.9346
42,-657,13.0538,46.8304,0,0,0,0,0,0,0,-1,1266,1681,13.0538,-46.8304
49,-657,9.66382,46.6046,0,0,0,0,0,0,0,-1,1273,1681,9.66387,-46.6047
56,-657,9.0575,46.4108,-0.0244359,0.0724248,-0.0319475,0.0820129,-0.034024,-1.27923,0.0688772,0.0448665,1280,1681,9.05754,-46.4108
63,-657,8.28235,46.1794,-0.0285119,0.0726253,-0.0358851,0.0840642,-0.0399508,-1.26222,0.0730944,0.0447343,1287,1681,8.28232,-46.1794
70,-657,7.1991,47.5192,0,0,0,0,0,0,0,-1,1294,1681,7.19911,-47.5192
77,-657,7.10083,46.7233,0,0,0,0,0,0,0,-1,1301,1681,7.10087,-46.7233
84,-657,6.98914,45.9877,-0.0393087,0.0644094,-0.0486318,0.0836447,-0.058544,-1.19415,0.082518,0.0456028,1308,1681,6.98913,-45.9877
91,-657,6.92871,45.207,-0.043897,0.0604905,-0.0517967,0.0818296,-0.0652362,-1.18001,0.0850884,0.0439086,1315,1681,6.92869,-45.207
98,-657,6.53528,44.6971,-0.0513488,0.0569216,-0.0542904,0.0794549,-0.0738821,-1.17738,0.0885487,0.045782,1322,1681,6.53526,-44.6971
105,-657,5.8335,44.1143,0,0,0,0,0,0,0,-1,1329,1681,5.83348,-44.1142
112,-657,10.5574,45.7615,-0.0775315,0.0514581,-0.0567409,0.0728651,-0.0989385,-1.21003,0.0995708,0.043206,1336,1681,10.5573,-45.7614
119,-657,9.33435,45.2948,-0.0972341,0.0495113,-0.0567384,0.0688899,-0.116613,-1.24168,0.108275,0.0466344,1343,1681,9.33435,-45.2948
126,-657,7.87024,44.4905,-0.120092,0.0491961,-0.0566038,0.0663784,-0.137274,-1.27608,0.11993,0.045757,1350,1681,7.87021,-44.4905
133,-657,6.58289,43.5502,-0.143022,0.0505249,-0.0568293,0.0659774,-0.158475,-1.3053,0.133205,0.0473376,1357,1681,6.58284,-43.5501
140,-657,5.34924,42.7205,-0.160808,0.0524806,-0.0582078,0.0673318,-0.175659,-1.32098,0.144863,0.047463,1364,1681,5.34926,-42.7204
147,-657,4.1228,41.9379,0,0,0,0,0,0,0,-1,1371,1681,4.12282,-41.9378
154,-657,10.5236,41.9224,0,0,0,0,0,0,0,-1,1378,1681,10.5236,-41.9224
161,-657,4.2926,24.9226,0,0,0,0,0,0,0,-1,1385,1681,4.29264,-24.9226
168,-657,5.21643,0.70105,0,0,0,0,0,0,0,-1,1392,1681,5.21648,-0.7011
175,-657,5.52771,0.649048,0,0,0,0,0,0,0,-1,1399,1681,5.52774,-0.649019
182,-657,5.73999,1.02612,0,0,0,0,0,0,0,-1,1406,1681,5.73995,-1.02611
189,-657,5.92126,1.44116,0,0,0,0,0,0,0,-1,1413,1681,5.92126,-1.44115
196,-657,4.92834,9.59021,0,0,0,0,0,0,0,-1,1420,1681,4.9284,-9.59018
203,-657,6.26343,5.16492,0,0,0,0,0,0,0,-1,1427,1681,6.26345,-5.16488
210,-657,3.9856,5.28088,0,0,0,0,0,0,0,-1,1434,1681,3.98555,-5.28084
217,-657,3.95178,5.2843,0,0,0,0,0,0,0,-1,1441,1681,3.95174,-5.28431
224,-657,6.66736,-0.250244,0,0,0,0,0,0,0,-1,1448,1681,6.66737,0.250229
231,-657,6.85498,-1.70752,0,0,0,0,0,0,0,-1,1455,1681,6.855,1.70758
238,-657,5.34143,-2.89819,0,0,0,0,0,0,0,-1,1462,1681,5.34143,2.89813
245,-657,8.66003,-0.102783,0,0,0,0,0,0,0,-1,1469,1681,8.66,0.102824
252,-657,4.78955,0.623779,0,0,0,0,0,0,0,-1,1476,1681,4.7895,-0.623826
259,-657,2.61523,4.31909,0,0,0,0,0,0,0,-1,1483,1681,2.61523,-4.31908
266,-657,5.35437,11.4742,0,0,0,0,0,0,0,-1,1490,1681,5.35441,-11.4742
273,-657,11.1798,40.592,0,0,0,0,0,0,0,-1,1497,1681,11.1798,-40.592
280,-657,11.0831,40.4205,0.00366488,0.00791042,0.0088209,0.0148604,-0.00328508,0.903479,0.0111642,0.0442366,1504,1681,11.0832,-40.4206
287,-657,11.1752,40.1919,0.00363128,0.00815771,0.0072044,0.013446,-0.00165703,0.937589,0.00956432,0.0360646,1511,1681,11.1751,-40.1918
294,-657,11.3502,39.8826,0.00387199,0.00858033,0.00522006,0.0119525,0.0004998,0.997235,0.00780708,0.0314921,1518,1681,11.3503,-39.8826
301,-657,11.3915,39.5459,0.00400315,0.00839041,0.00345797,0.0102918,0.00210171,1.06805,0.00627902,0.0221397,1525,1681,11.3915,-39.5458
308,-657,11.4064,39.1761,0.00403891,0.00822795,0.00190943,0.00896767,0.00329919,1.20119,0.00523738,0.0147429,1532,1681,11.4064,-39.1761
315,-657,11.4304,38.7986,0.00420171,0.0081008,0.000338237,0.00812992,0.00417259,1.4849,0.00469436,0.0114054,1539,1681,11.4305,-38.7986
322,-657,11.4493,38.4205,0.00440724,0.00786832,-0.000929761,0.00810227,0.00417329,-1.32429,0.00467856,0.0133903,1546,1681,11.4493,-38.4205
329,-657,11.4636,38.0649,0.00449199,0.00733827,-0.00184542,0.00824555,0.0035847,-1.11386,0.00477407,0.0199123,1553,1681,11.4636,-38.0649
336,-657,11.4746,37.6691,0.00448192,0.00696239,-0.00270389,0.00869691,0.0027474,-1.00042,0.00513336,0.0174768,1560,1681,11.4746,-37.669
343,-657,11.4993,37.2944,0.0042782,0.00621537,-0.00297371,0.00837426,0.00211931,-0.942838,0.00502757,0.0133836,1567,1681,11.4992,-37.2945
350,-657,11.494,36.903,0.00402223,0.0048559,-0.00276434,0.00723466,0.00164348,-0.86023,0.00437931,0.0154438,1574,1681,11.494,-36.903
357,-657,11.4537,36.5023,0.00374118,0.00397409,-0.0022327,0.00609336,0.0016219,-0.811453,0.00364398,0.0151496,1581,1681,11.4537,-36.5024
364,-657,11.4487,36.1199,0.00335415,0.00285525,-0.00150201,0.00462728,0.00158212,-0.703111,0.00271571,0.0113233,1588,1681,11.4487,-36.1199
371,-657,11.4534,35.7183,0.00289133,0.00175979,-0.000576368,0.0031332,0.00151791,-0.397339,0.00180925,0.0159576,1595,1681,11.4533,-35.7183
378,-657,11.4214,35.2986,0.00229358,0.000479333,0.000531731,0.00243794,0.000334976,0.265095,0.00152594,0.0148978,1602,1681,11.4214,-35.2986
385,-657,11.3959,34.8691,0.00159997,-0.00080466,0.00165001,0.00243925,-0.00164394,0.470543,0.00237229,0.0124732,1609,1681,11.3959,-34.8692
392,-657,11.3862,34.4462,0.000683883,-0.00232893,0.00281041,0.00236615,-0.0040112,0.539378,0.00372258,0.0131575,1616,1681,11.3862,-34.4461
399,-657,11.3871,34.0479,-0.000431953,-0.00369721,0.00386619,0.00213219,-0.00626135,0.585614,0.00503768,0.0130631,1623,1681,11.3871,-34.0479
406,-657,11.3872,33.6338,-0.00166356,-0.00467041,0.00475261,0.00181775,-0.00815172,0.63221,0.00613089,0.0148034,1630,1681,11.3872,-33.6338
413,-657,11.3687,33.2025,-0.00277915,-0.00511117,0.00539932,0.00157863,-0.00946895,0.679054,0.00689931,0.0148009,1637,1681,11.3687,-33.2025
420,-657,11.3455,32.7286,-0.00389586,-0.00531753,0.00569358,0.00113109,-0.0103445,0.723295,0.00730261,0.015268,1644,1681,11.3455,-32.7287
427,-657,11.3126,32.2489,-0.00497443,-0.00523832,0.00580393,0.000699061,-0.0109118,0.774033,0.0075184,0.0183969,1651,1681,11.3126,-32.2489
434,-657,11.3186,31.8617,-0.00624838,-0.0046948,0.00592387,0.000502998,-0.0114462,0.850591,0.00780385,0.0265471,1658,1681,11.3186,-31.8617
441,-657,11.1102,31.6777,-0.00799827,-0.00432802,0.00545888,-0.000404058,-0.0119222,0.94755,0.00781695,0.0433126,1665,1681,11.1102,-31.6778
448,-657,10.9237,31.4351,0,0,0,0,0,0,0,-1,1672,1681,10.9237,-31.4351
455,-657,10.3499,30.1553,0,0,0,0,0,0,0,-1,1679,1681,10.3498,-30.1552
462,-657,10.9337,29.0739,0,0,0,0,0,0,0,-1,1686,1681,10.9337,-29.0739
469,-657,9.22205,26.4175,0,0,0,0,0,0,0,-1,1693,1681,9.2221,-26.4175
476,-657,8.9519,20.5712,0,0,0,0,0,0,0,-1,1700,1681,8.95194,-20.5712
483,-657,10.0663,21.8628,0,0,0,0,0,0,0,-1,1707,1681,10.0663,-21.8628
490,-657,11.6039,21.2185,0,0,0,0,0,0,0,-1,1714,1681,11.6038,-21.2185
497,-657,9.20862,17.8127,0,0,0,0,0,0,0,-1,1721,1681,9.2086,-17.8127
504,-657,0,0,0,0,0,0,0,0,0,-1,1728,1681,0,0
511,-657,0,0,0,0,0,0,0,0,0,-1,1735,1681,0,0
518,-657,0,0,0,0,0,0,0,0,0,-1,1742,1681,0,0
525,-657,0,0,0,0,0,0,0,0,0,-1,1749,1681,0,0
532,-657,0,0,0,0,0,0,0,0,0,-1,1756,1681,0,0
539,-657,0,0,0,0,0,0,0,0,0,-1,1763,1681,0,0
546,-657,0,0,0,0,0,0,0,0,0,-1,1770,1681,0,0
553,-657,0,0,0,0,0,0,0,0,0,-1,1777,1681,0,0
560,-657,0,0,0,0,0,0,0,0,0,-1,1784,1681,0,0
567,-657,0,0,0,0,0,0,0,0,0,-1,1791,1681,0,0
574,-657,0,0,0,0,0,0,0,0,0,-1,1798,1681,0,0
581,-657,0,0,0,0,0,0,0,0,0,-1,1805,1681,0,0
588,-657,0,0,0,0,0,0,0,0,0,-1,1812,1681,0,0
595,-657,0,0,0,0,0,0,0,0,0,-1,1819,1681,0,0
602,-657,0,0,0,0,0,0,0,0,0,-1,1826,1681,0,0
609,-657,0,0,0,0,0,0,0,0,0,-1,1833,1681,0,0
616,-657,0,0,0,0,0,0,0,0,0,-1,1840,1681,0,0
623,-657,0,0,0,0,0,0,0,0,0,-1,1847,1681,0,0
630,-657,0,0,0,0,0,0,0,0,0,-1,1854,1681,0,0
637,-657,0,0,0,0,0,0,0,0,0,-1,1861,1681,0,0
644,-657,0,0,0,0,0,0,0,0,0,-1,1868,1681,0,0
651,-657,0,0,0,0,0,0,0,0,0,-1,1875,1681,0,0
658,-657,0,0,0,0,0,0,0,0,0,-1,1882,1681,0,0
665,-657,0,0,0,0,0,0,0,0,0,-1,1889,1681,0,0
672,-657,0,0,0,0,0,0,0,0,0,-1,1896,1681,0,0
679,-657,0,0,0,0,0,0,0,0,0,-1,1903,1681,0,0
686,-657,0,0,0,0,0,0,0,0,0,-1,1910,1681,0,0
693,-657,0,0,0,0,0,0,0,0,0,-1,1917,1681,0,0
700,-657,0,0,0,0,0,0,0,0,0,-1,1924,1681,0,0
707,-657,0,0,0,0,0,0,0,0,0,-1,1931,1681,0,0
714,-657,0,0,0,0,0,0,0,0,0,-1,1938,1681,0,0
721,-657,0,0,0,0,0,0,0,0,0,-1,1945,1681,0,0
728,-657,0,0,0,0,0,0,0,0,0,-1,1952,1681,0,0
735,-657,0,0,0,0,0,0,0,0,0,-1,1959,1681,0,0
742,-657,0,0,0,0,0,0,0,0,0,-1,1966,1681,0,0
749,-657,0,0,0,0,0,0,0,0,0,-1,1973,1681,0,0
756,-657,0,0,0,0,0,0,0,0,0,-1,1980,1681,0,0
763,-657,0,0,0,0,0,0,0,0,0,-1,1987,1681,0,0
770,-657,0,0,0,0,0,0,0,0,0,-1,1994,1681,0,0
777,-657,0,0,0,0,0,0,0,0,0,-1,2001,1681,0,0
784,-657,0,0,0,0,0,0,0,0,0,-1,2008,1681,0,0
791,-657,0,0,0,0,0,0,0,0,0,-1,2015,1681,0,0
798,-657,0,0,0,0,0,0,0,0,0,-1,2022,1681,0,0
805,-657,0,0,0,0,0,0,0,0,0,-1,2029,1681,0,0
812,-657,0,0,0,0,0,0,0,0,0,-1,2036,1681,0,0
-700,-664,0,0,0,0,0,0,0,0,0,-1,524,1688,0,0
-693,-664,0,0,0,0,0,0,0,0,0,-1,531,1688,0,0
-686,-664,0,0,0,0,0,0,0,0,0,-1,538,1688,0,0
-679,-664,0,0,0,0,0,0,0,0,0,-1,545,1688,0,0
-672,-664,0,0,0,0,0,0,0,0,0,-1,552,1688,0,0
-665,-664,0,0,0,0,0,0,0,0,0,-1,559,1688,0,0
-658,-664,0,0,0,0,0,0,0,0,0,-1,566,1688,0,0
-651,-664,0,0,0,0,0,0,0,0,0,-1,573,1688,0,0
-644,-664,0,0,0,0,0,0,0,0,0,-1,580,1688,0,0
-637,-664,0,0,0,0,0,0,0,0,0,-1,587,1688,0,0
-630,-664,0,0,0,0,0,0,0,0,0,-1,594,1688,0,0
-623,-664,0,0,0,0,0,0,0,0,0,-1,601,1688,0,0
-616,-664,0,0,0,0,0,0,0,0,0,-1,608,1688,0,0
-609,-664,0,0,0,0,0,0,0,0,0,-1,615,1688,0,0
-602,-664,0,0,0,0,0,0,0,0,0,-1,622,1688,0,0
-595,-664,0,0,0,0,0,0,0,0,0,-1,629,1688,0,0
-588,-664,0,0,0,0,0,0,0,0,0,-1,636,1688,0,0
-581,-664,0,0,0,0,0,0,0,0,0,-1,643,1688,0,0
-574,-664,0,0,0,0,0,0,0,0,0,-1,650,1688,0,0
-567,-664,0,0,0,0,0,0,0,0,0,-1,657,1688,0,0
-560,-664,0,0,0,0,0,0,0,0,0,-1,664,1688,0,0
-553,-664,0,0,0,0,0,0,0,0,0,-1,671,1688,0,0
-546,-664,0,0,0,0,0,0,0,0,0,-1,678,1688,0,0
-539,-664,0,0,0,0,0,0,0,0,0,-1,685,1688,0,0
-532,-664,0,0,0,0,0,0,0,0,0,-1,692,1688,0,0
-525,-664,0,0,0,0,0,0,0,0,0,-1,699,1688,0,0
-518,-664,0,0,0,0,0,0,0,0,0,-1,706,1688,0,0
-511,-664,0,0,0,0,0,0,0,0,0,-1,713,1688,0,0
-504,-664,0,0,0,0,0,0,0,0,0,-1,720,1688,0,0
-497,-664,0,0,0,0,0,0,0,0,0,-1,727,1688,0,0
-490,-664,0,0,0,0,0,0,0,0,0,-1,734,1688,0,0
-483,-664,0,0,0,0,0,0,0,0,0,-1,741,1688,0,0
-476,-664,0,0,0,0,0,0,0,0,0,-1,748,1688,0,0
-469,-664,0,0,0,0,0,0,0,0,0,-1,755,1688,0,0
-462,-664,0,0,0,0,0,0,0,0,0,-1,762,1688,0,0
-455,-664,0,0,0,0,0,0,0,0,0,-1,769,1688,0,0
-448,-664,0,0,0,0,0,0,0,0,0,-1,776,1688,0,0
-441,-664,0,0,0,0,0,0,0,0,0,-1,783,1688,0,0
-434,-664,0,0,0,0,0,0,0,0,0,-1,790,1688,0,0
-427,-664,0,0,0,0,0,0,0,0,0,-1,797,1688,0,0
-420,-664,0,0,0,0,0,0,0,0,0,-1,804,1688,0,0
-413,-664,0,0,0,0,0,0,0,0,0,-1,811,1688,0,0
-406,-664,0,0,0,0,0,0,0,0,0,-1,818,1688,0,0
-399,-664,0,0,0,0,0,0,0,0,0,-1,825,1688,0,0
-392,-664,0,0,0,0,0,0,0,0,0,-1,832,1688,0,0
-385,-664,0,0,0,0,0,0,0,0,0,-1,839,1688,0,0
-378,-664,0,0,0,0,0,0,0,0,0,-1,846,1688,0,0
-371,-664,-1.61676,5.92737,0,0,0,0,0,0,0,-1,853,1688,-1.61675,-5.92735
-364,-664,-3.901,5.87024,0,0,0,0,0,0,0,-1,860,1688,-3.90097,-5.87027
-357,-664,-4.81012,4.53479,0,0,0,0,0,0,0,-1,867,1688,-4.81012,-4.5348
-350,-664,-5.7193,3.19934,0,0,0,0,0,0,0,-1,874,1688,-5.71927,-3.19932
-343,-664,2.13544,25.5537,0,0,0,0,0,0,0,-1,881,1688,2.13546,-25.5537
-336,-664,3.50238,26.167,0,0,0,0,0,0,0,-1,888,1688,3.50241,-26.167
-329,-664,5.55524,29.2793,0,0,0,0,0,0,0,-1,895,1688,5.55522,-29.2793
-322,-664,5.82025,29.3121,0,0,0,0,0,0,0,-1,902,1688,5.82022,-29.3121
-315,-664,6.48859,30.2076,0,0,0,0,0,0,0,-1,909,1688,6.48856,-30.2076
-308,-664,6.46405,30.6934,0,0,0,0,0,0,0,-1,916,1688,6.46402,-30.6934
-301,-664,6.87024,31.905,0,0,0,0,0,0,0,-1,923,1688,6.87027,-31.905
-294,-664,6.3269,31.9678,0,0,0,0,0,0,0,-1,930,1688,6.32691,-31.9678
-287,-664,6.21515,32.4115,-0.00456277,-0.00114763,-0.00752437,0.00486049,-0.0105709,-0.896977,0.00911038,0.034556,937,1688,6.21513,-32.4115
-280,-664,6.15295,32.7832,-0.00451879,-0.00120568,-0.00684756,0.00418285,-0.00990732,-0.904077,0.00835576,0.01982,944,1688,6.15294,-32.7833
-273,-664,6.16992,33.2223,-0.00428549,-0.00116918,-0.00602157,0.00349256,-0.00894723,-0.912002,0.00740869,0.0146877,951,1688,6.16994,-33.2222
-266,-664,6.14777,33.6809,-0.00364645,-0.00107909,-0.00490997,0.00271223,-0.00743777,-0.913258,0.00606812,0.0208543,958,1688,6.14779,-33.6809
-259,-664,6.09564,34.1481,-0.00314175,-0.000697093,-0.00374921,0.00202401,-0.00586285,-0.942976,0.00472987,0.0184477,965,1688,6.09564,-34.148
-252,-664,6.07928,34.5708,-0.00264094,-0.000140063,-0.00261682,0.00150973,-0.00429073,-1.00828,0.00347483,0.0160806,972,1688,6.07928,-34.5707
-245,-664,6.09509,35.0071,-0.00201002,0.000476813,-0.00151868,0.00119617,-0.00272938,-1.12843,0.00232332,0.0196812,979,1688,6.09507,-35.0071
-238,-664,6.1142,35.5033,-0.00122413,0.000865466,-0.000613342,0.00103219,-0.00139085,-1.30538,0.00140405,0.0231981,986,1688,6.11422,-35.5033
-231,-664,6.10309,35.9435,-0.000241559,0.00109178,0.000260101,0.00114072,-0.000290501,1.3848,0.000873568,0.0203181,993,1688,6.10311,-35.9434
-224,-664,6.06177,36.3698,0.000691607,0.00110595,0.00131807,0.00223303,-0.000435469,0.86335,0.00165307,0.0139118,1000,1688,6.06177,-36.3697
-217,-664,6.03088,36.7734,0.00130595,0.00106461,0.00217348,0.00336211,-0.00099155,0.757667,0.00263487,0.0104408,1007,1688,6.03086,-36.7735
-210,-664,6.01184,37.1544,0.00159759,0.000968859,0.00278544,0.00408635,-0.0015199,0.729205,0.00334791,0.0113086,1014,1688,6.01187,-37.1545
-203,-664,6.00793,37.5555,0.00198342,0.000807169,0.00332776,0.00477463,-0.00198403,0.697934,0.00401145,0.0137695,1021,1688,6.00789,-37.5555
-196,-664,6.01611,37.9308,0.0020454,0.000631729,0.00394257,0.005344,-0.00266687,0.696699,0.00471038,0.0145674,1028,1688,6.01609,-37.9308
-189,-664,6.01538,38.3087,0.00185749,0.000318449,0.00456607,0.00571843,-0.00354249,0.701917,0.00539576,0.00994614,1035,1688,6.01541,-38.3087
-182,-664,6.00891,38.7017,0.00153801,0.000299837,0.00508993,0.00604636,-0.00420851,0.724881,0.00595226,0.00923306,1042,1688,6.00895,-38.7017
-175,-664,6.02515,39.021,0.00110949,0.000619198,0.00555807,0.00642781,-0.00469913,0.763359,0.00644993,0.0128042,1049,1688,6.02509,-39.021
-168,-664,6.0343,39.3583,0.000884103,0.00120082,0.00597658,0.00702114,-0.00493621,0.798643,0.00693847,0.0147841,1056,1688,6.03426,-39.3583
-161,-664,6.0116,39.759,0.00053585,0.00186751,0.00622632,0.0074635,-0.00506014,0.838665,0.00727477,0.0109862,1063,1688,6.0116,-39.759
-154,-664,6.0675,40.1135,0.00051103,0.00281776,0.00628033,0.00804976,-0.00472097,0.87621,0.00745621,0.0113417,1070,1688,6.06756,-40.1136
-147,-664,6.07751,40.4523,0.000932408,0.00408834,0.00616255,0.00887174,-0.00385099,0.910734,0.00753371,0.0204953,1077,1688,6.07746,-40.4522
-140,-664,6.1355,40.76,0,0,0,0,0,0,0,-1,1084,1688,6.13549,-40.76
-133,-664,6.03577,41.2994,0.00288395,0.0072765,0.00591332,0.0113882,-0.00122778,0.963209,0.00803275,0.0264997,1091,1688,6.03574,-41.2995
-126,-664,6.18384,41.7297,0.00396307,0.00917995,0.00531531,0.0124924,0.000650662,1.0135,0.00812005,0.0378828,1098,1688,6.18378,-41.7298
-119,-664,6.31946,42.0756,0.00607817,0.0111209,0.00398821,0.0133179,0.00388114,1.06728,0.00790894,0.0433026,1105,1688,6.31951,-42.0755
-112,-664,6.89844,42.1859,0,0,0,0,0,0,0,-1,1112,1688,6.89845,-42.1859
-105,-664,7.35327,42.235,0,0,0,0,0,0,0,-1,1119,1688,7.35331,-42.235
-98,-664,7.69324,41.3359,0,0,0,0,0,0,0,-1,1126,1688,7.69321,-41.3359
-91,-664,5.41931,25.6302,0,0,0,0,0,0,0,-1,1133,1688,5.41932,-25.6302
-84,-664,3.48389,16.6913,0,0,0,0,0,0,0,-1,1140,1688,3.4839,-16.6913
-77,-664,4.52014,11.2122,0,0,0,0,0,0,0,-1,1147,1688,4.5202,-11.2122
-70,-664,4.20374,8.24524,0,0,0,0,0,0,0,-1,1154,1688,4.20379,-8.24519
-63,-664,-4.677,2.40503,0,0,0,0,0,0,0,-1,1161,1688,-4.67702,-2.40498
-56,-664,-4.66504,3.32727,0,0,0,0,0,0,0,-1,1168,1688,-4.6651,-3.32724
-49,-664,-2.54297,3.31848,0,0,0,0,0,0,0,-1,1175,1688,-2.54297,-3.31852
-42,-664,-0.359253,4.38684,0,0,0,0,0,0,0,-1,1182,1688,-0.359261,-4.38685
-35,-664,-0.705566,3.55017,0,0,0,0,0,0,0,-1,1189,1688,-0.705567,-3.55023
-28,-664,-1.54236,10.2538,0,0,0,0,0,0,0,-1,1196,1688,-1.54236,-10.2538
-21,-664,6.10535,45.6749,0,0,0,0,0,0,0,-1,1203,1688,6.10532,-45.6749
-14,-664,7.24414,43.62,0,0,0,0,0,0,0,-1,1210,1688,7.24411,-43.62
-7,-664,7.41699,43.8767,0,0,0,0,0,0,0,-1,1217,1688,7.41702,-43.8767
0,-664,7.22095,47.4824,0,0,0,0,0,0,0,-1,1224,1688,7.22091,-47.4825
7,-664,7.88892,47.1532,0.00979285,0.017894,-0.0111279,0.0256856,0.00200119,-0.959944,0.0164972,0.0448502,1231,1688,7.8889,-47.1532
14,-664,8.59998,46.7865,0.00955783,0.0282171,-0.0117331,0.0338778,0.00389717,-1.12129,0.0214047,0.0438686,1238,1688,8.60004,-46.7865
21,-664,9.34192,46.479,0.00765798,0.038793,-0.0125912,0.0432476,0.00320334,-1.23075,0.0278255,0.0473028,1245,1688,9.34188,-46.479
28,-664,10.5568,46.1996,0.00409848,0.0473696,-0.0137031,0.0513441,0.000124026,-1.2885,0.0341881,0.0452686,1252,1688,10.5567,-46.1996
35,-664,8.24512,47.9786,0,0,0,0,0,0,0,-1,1259,1688,8.24515,-47.9787
42,-664,8.40552,47.1963,-0.00704266,0.058152,-0.0178765,0.062732,-0.0116227,-1.31999,0.0461857,0.0472853,1266,1688,8.4055,-47.1963
49,-664,10.8055,46.1841,-0.00918142,0.060831,-0.0212358,0.0667686,-0.015119,-1.29816,0.050315,0.0412143,1273,1688,10.8056,-46.1841
56,-664,9.77759,46.1526,-0.0105087,0.0621029,-0.0248592,0.0697981,-0.0182039,-1.2706,0.0536398,0.0464484,1280,1688,9.77757,-46.1526
63,-664,8.14392,46.8887,-0.0137053,0.061052,-0.0283157,0.0705663,-0.0232196,-1.24664,0.0564004,0.04676,1287,1688,8.14392,-46.8887
70,-664,8.78345,47.0676,-0.0163471,0.0590008,-0.0318021,0.070629,-0.0279753,-1.22026,0.0586778,0.046212,1294,1688,8.78343,-47.0676
77,-664,7.97632,45.8937,0,0,0,0,0,0,0,-1,1301,1688,7.97626,-45.8937
84,-664,7.46338,45.8435,-0.0213496,0.0524951,-0.0393325,0.06952,-0.0383745,-1.1623,0.0631521,0.0448716,1308,1688,7.46339,-45.8434
91,-664,7.56091,45.1945,-0.0245523,0.0490844,-0.0420724,0.0681738,-0.0436417,-1.14485,0.0650726,0.0424431,1315,1688,7.56087,-45.1945
98,-664,7.67993,44.6223,0,0,0,0,0,0,0,-1,1322,1688,7.67996,-44.6224
105,-664,11.7745,45.9618,-0.0391031,0.0434861,-0.0461082,0.0640883,-0.0597053,-1.15059,0.0714872,0.0469747,1329,1688,11.7746,-45.9618
112,-664,10.7042,45.5648,-0.0509981,0.0416321,-0.0465474,0.060981,-0.0703469,-1.17685,0.0758864,0.0432361,1336,1688,10.7043,-45.5649
119,-664,9.88062,45.6155,-0.0666624,0.0402303,-0.0463928,0.0575568,-0.083989,-1.21336,0.0821951,0.0493514,1343,1688,9.88063,-45.6155
126,-664,7.98792,44.0186,0,0,0,0,0,0,0,-1,1350,1688,7.98796,-44.0185
133,-664,6.70483,43.0468,0,0,0,0,0,0,0,-1,1357,1688,6.70484,-43.0468
140,-664,5.22217,42.438,0,0,0,0,0,0,0,-1,1364,1688,5.22215,-42.438
147,-664,4.13708,41.2965,0,0,0,0,0,0,0,-1,1371,1688,4.13714,-41.2965
154,-664,11.5098,42.1732,0,0,0,0,0,0,0,-1,1378,1688,11.5097,-42.1732
161,-664,4.60132,1.56238,0,0,0,0,0,0,0,-1,1385,1688,4.60134,-1.56233
168,-664,5.172,1.25488,0,0,0,0,0,0,0,-1,1392,1688,5.17203,-1.25484
175,-664,5.58313,1.16467,0,0,0,0,0,0,0,-1,1399,1688,5.58317,-1.16466
182,-664,5.74268,1.41113,0,0,0,0,0,0,0,-1,1406,1688,5.74263,-1.41115
189,-664,5.87744,1.87061,0,0,0,0,0,0,0,-1,1413,1688,5.87745,-1.87065
196,-664,6.7594,5.97473,0,0,0,0,0,0,0,-1,1420,1688,6.75943,-5.97478
203,-664,5.38452,5.22034,0,0,0,0,0,0,0,-1,1427,1688,5.38453,-5.2203
210,-664,5.25549,6.45715,0,0,0,0,0,0,0,-1,1434,1688,5.25549,-6.45721
217,-664,5.72009,6.73975,0,0,0,0,0,0,0,-1,1441,1688,5.72014,-6.73972
224,-664,5.05725,7.42908,0,0,0,0,0,0,0,-1,1448,1688,5.05723,-7.42912
231,-664,5.13318,7.60864,0,0,0,0,0,0,0,-1,1455,1688,5.13313,-7.60862
238,-664,4.23193,6.45471,0,0,0,0,0,0,0,-1,1462,1688,4.23197,-6.45476
245,-664,4.42004,6.80896,0,0,0,0,0,0,0,-1,1469,1688,4.4201,-6.80901
252,-664,3.67346,6.85461,0,0,0,0,0,0,0,-1,1476,1688,3.6734,-6.85462
259,-664,4.55823,11.7435,0,0,0,0,0,0,0,-1,1483,1688,4.55826,-11.7435
266,-664,10.645,40.8097,0,0,0,0,0,0,0,-1,1490,1688,10.645,-40.8097
273,-664,10.8925,40.8898,0,0,0,0,0,0,0,-1,1497,1688,10.8924,-40.8897
280,-664,10.8945,40.5582,0.00331676,0.00476933,0.00626234,0.0103474,-0.00226127,0.843128,0.00776257,0.0271039,1504,1688,10.8945,-40.5583
287,-664,10.886,40.1744,0.00320142,0.00510841,0.00519333,0.00943505,-0.00112522,0.876187,0.0066967,0.026747,1511,1688,10.886,-40.1744
294,-664,10.9894,39.8256,0.00324785,0.00557656,0.0038366,0.00842159,0.000402818,0.932724,0.00548506,0.019414,1518,1688,10.9894,-39.8256
301,-664,11.0624,39.4758,0.00322326,0.00564715,0.00255807,0.00726585,0.00160456,1.00662,0.0044075,0.0125536,1525,1688,11.0624,-39.4758
308,-664,11.0836,39.1362,0.00314222,0.00566167,0.00140721,0.00629063,0.00251326,1.15048,0.00365626,0.0119673,1532,1688,11.0837,-39.1362
315,-664,11.0833,38.7725,0.00313239,0.00558925,0.000311594,0.00562815,0.00309348,1.44659,0.00325475,0.012272,1539,1688,11.0832,-38.7724
322,-664,11.1023,38.4413,0.00307961,0.0053566,-0.000513792,0.00546717,0.00296904,-1.35883,0.00316037,0.0150371,1546,1688,11.1023,-38.4413
329,-664,11.1052,38.1123,0.00297828,0.00479427,-0.00113318,0.00533836,0.0024342,-1.12316,0.00308608,0.0174233,1553,1688,11.1052,-38.1123
336,-664,11.0929,37.6982,0.00290318,0.0044253,-0.00157989,0.00541788,0.0019106,-1.00986,0.00317297,0.0143319,1560,1688,11.0929,-37.6983
343,-664,11.0936,37.3047,0.00271723,0.00374612,-0.00142552,0.00474718,0.00171617,-0.958567,0.00277561,0.0119695,1567,1688,11.0937,-37.3046
350,-664,11.0793,36.9136,0.00249858,0.00248322,-0.000946819,0.00343775,0.00154405,-0.781341,0.0019882,0.0143731,1574,1688,11.0793,-36.9136
357,-664,11.057,36.507,0.00236105,0.00159199,-0.000227248,0.00242318,0.00152986,-0.266879,0.00141502,0.0135085,1581,1688,11.057,-36.5069
364,-664,11.0615,36.1316,0.00212011,0.000515115,0.000700837,0.00238306,0.000252166,0.358939,0.00151168,0.0108866,1588,1688,11.0615,-36.1316
371,-664,11.0729,35.7615,0.0018711,-0.000501234,0.00179952,0.00284022,-0.00147035,0.494005,0.00253025,0.0138534,1595,1688,11.0729,-35.7615
378,-664,11.0444,35.3442,0.00150467,-0.00175151,0.00310121,0.00337917,-0.00362602,0.54368,0.00404529,0.0129526,1602,1688,11.0444,-35.3443
385,-664,11.0029,34.916,0.00109276,-0.00288481,0.00434187,0.00387965,-0.00567171,0.570635,0.00554674,0.01294,1609,1688,11.003,-34.916
392,-664,10.963,34.4946,0.000433485,-0.00429428,0.00560976,0.00415708,-0.00801787,0.585995,0.00714604,0.0162575,1616,1688,10.963,-34.4946
399,-664,10.9814,34.0652,-0.000441694,-0.00548807,0.00670113,0.00419554,-0.0101253,0.605342,0.00850112,0.013908,1623,1688,10.9814,-34.0652
406,-664,10.989,33.6488,-0.00154859,-0.00636881,0.00764199,0.00405433,-0.0119717,0.632646,0.00962167,0.0121757,1630,1688,10.9891,-33.6488
413,-664,10.9572,33.1985,-0.00263942,-0.00666819,0.00835944,0.00394492,-0.0132525,0.667166,0.0104024,0.0121184,1637,1688,10.9572,-33.1985
420,-664,10.9282,32.7321,-0.00382368,-0.0067172,0.00864087,0.0034907,-0.0140316,0.702452,0.0107093,0.0293907,1644,1688,10.9282,-32.7321
427,-664,10.7142,32.5525,-0.00530342,-0.00665663,0.00889755,0.00294321,-0.0149033,0.747449,0.011048,0.0486697,1651,1688,10.7142,-32.5525
434,-664,10.6108,32.2268,0,0,0,0,0,0,0,-1,1658,1688,10.6109,-32.2268
441,-664,10.5836,31.8174,0,0,0,0,0,0,0,-1,1665,1688,10.5836,-31.8174
448,-664,7.27502,19.7417,0,0,0,0,0,0,0,-1,1672,1688,7.27505,-19.7417
455,-664,7.53198,11.3838,0,0,0,0,0,0,0,-1,1679,1688,7.53195,-11.3838
462,-664,4.3147,4.25439,0,0,0,0,0,0,0,-1,1686,1688,4.31467,-4.25435
469,-664,6.05469,7.49341,0,0,0,0,0,0,0,-1,1693,1688,6.05474,-7.49339
476,-664,10.2377,22.7128,0,0,0,0,0,0,0,-1,1700,1688,10.2377,-22.7128
483,-664,8.41895,10.9768,0,0,0,0,0,0,0,-1,1707,1688,8.41897,-10.9769
490,-664,3.90771,13.2842,0,0,0,0,0,0,0,-1,1714,1688,3.90776,-13.2841
497,-664,0,0,0,0,0,0,0,0,0,-1,1721,1688,0,0
504,-664,0,0,0,0,0,0,0,0,0,-1,1728,1688,0,0
511,-664,0,0,0,0,0,0,0,0,0,-1,1735,1688,0,0
518,-664,0,0,0,0,0,0,0,0,0,-1,1742,1688,0,0
525,-664,0,0,0,0,0,0,0,0,0,-1,1749,1688,0,0
532,-664,0,0,0,0,0,0,0,0,0,-1,1756,1688,0,0
539,-664,0,0,0,0,0,0,0,0,0,-1,1763,1688,0,0
546,-664,0,0,0,0,0,0,0,0,0,-1,1770,1688,0,0
553,-664,0,0,0,0,0,0,0,0,0,-1,1777,1688,0,0
560,-664,0,0,0,0,0,0,0,0,0,-1,1784,1688,0,0
567,-664,0,0,0,0,0,0,0,0,0,-1,1791,1688,0,0
574,-664,0,0,0,0,0,0,0,0,0,-1,1798,1688,0,0
581,-664,0,0,0,0,0,0,0,0,0,-1,1805,1688,0,0
588,-664,0,0,0,0,0,0,0,0,0,-1,1812,1688,0,0
595,-664,0,0,0,0,0,0,0,0,0,-1,1819,1688,0,0
602,-664,0,0,0,0,0,0,0,0,0,-1,1826,1688,0,0
609,-664,0,0,0,0,0,0,0,0,0,-1,1833,1688,0,0
616,-664,0,0,0,0,0,0,0,0,0,-1,1840,1688,0,0
623,-664,0,0,0,0,0,0,0,0,0,-1,1847,1688,0,0
630,-664,0,0,0,0,0,0,0,0,0,-1,1854,1688,0,0
637,-664,0,0,0,0,0,0,0,0,0,-1,1861,1688,0,0
644,-664,0,0,0,0,0,0,0,0,0,-1,1868,1688,0,0
651,-664,0,0,0,0,0,0,0,0,0,-1,1875,1688,0,0
658,-664,0,0,0,0,0,0,0,0,0,-1,1882,1688,0,0
665,-664,0,0,0,0,0,0,0,0,0,-1,1889,1688,0,0
672,-664,0,0,0,0,0,0,0,0,0,-1,1896,1688,0,0
679,-664,0,0,0,0,0,0,0,0,0,-1,1903,1688,0,0
686,-664,0,0,0,0,0,0,0,0,0,-1,1910,1688,0,0
693,-664,0,0,0,0,0,0,0,0,0,-1,1917,1688,0,0
700,-664,0,0,0,0,0,0,0,0,0,-1,1924,1688,0,0
707,-664,0,0,0,0,0,0,0,0,0,-1,1931,1688,0,0
714,-664,0,0,0,0,0,0,0,0,0,-1,1938,1688,0,0
721,-664,0,0,0,0,0,0,0,0,0,-1,1945,1688,0,0
728,-664,0,0,0,0,0,0,0,0,0,-1,1952,1688,0,0
735,-664,0,0,0,0,0,0,0,0,0,-1,1959,1688,0,0
742,-664,0,0,0,0,0,0,0,0,0,-1,1966,1688,0,0
749,-664,0,0,0,0,0,0,0,0,0,-1,1973,1688,0,0
756,-664,0,0,0,0,0,0,0,0,0,-1,1980,1688,0,0
763,-664,0,0,0,0,0,0,0,0,0,-1,1987,1688,0,0
770,-664,0,0,0,0,0,0,0,0,0,-1,1994,1688,0,0
777,-664,0,0,0,0,0,0,0,0,0,-1,2001,1688,0,0
784,-664,0,0,0,0,0,0,0,0,0,-1,2008,1688,0,0
791,-664,0,0,0,0,0,0,0,0,0,-1,2015,1688,0,0
798,-664,0,0,0,0,0,0,0,0,0,-1,2022,1688,0,0
805,-664,0,0,0,0,0,0,0,0,0,-1,2029,1688,0,0
812,-664,0,0,0,0,0,0,0,0,0,-1,2036,1688,0,0
-700,-671,0,0,0,0,0,0,0,0,0,-1,524,1695,0,0
-693,-671,0,0,0,0,0,0,0,0,0,-1,531,1695,0,0
-686,-671,0,0,0,0,0,0,0,0,0,-1,538,1695,0,0
-679,-671,0,0,0,0,0,0,0,0,0,-1,545,1695,0,0
-672,-671,0,0,0,0,0,0,0,0,0,-1,552,1695,0,0
-665,-671,0,0,0,0,0,0,0,0,0,-1,559,1695,0,0
-658,-671,0,0,0,0,0,0,0,0,0,-1,566,1695,0,0
-651,-671,0,0,0,0,0,0,0,0,0,-1,573,1695,0,0
-644,-671,0,0,0,0,0,0,0,0,0,-1,580,1695,0,0
-637,-671,0,0,0,0,0,0,0,0,0,-1,587,1695,0,0
-630,-671,0,0,0,0,0,0,0,0,0,-1,594,1695,0,0
-623,-671,0,0,0,0,0,0,0,0,0,-1,601,1695,0,0
-616,-671,0,0,0,0,0,0,0,0,0,-1,608,1695,0,0
-609,-671,0,0,0,0,0,0,0,0,0,-1,615,1695,0,0
-602,-671,0,0,0,0,0,0,0,0,0,-1,622,1695,0,0
-595,-671,0,0,0,0,0,0,0,0,0,-1,629,1695,0,0
-588,-671,0,0,0,0,0,0,0,0,0,-1,636,1695,0,0
-581,-671,0,0,0,0,0,0,0,0,0,-1,643,1695,0,0
-574,-671,0,0,0,0,0,0,0,0,0,-1,650,1695,0,0
-567,-671,0,0,0,0,0,0,0,0,0,-1,657,1695,0,0
-560,-671,0,0,0,0,0,0,0,0,0,-1,664,1695,0,0
-553,-671,0,0,0,0,0,0,0,0,0,-1,671,1695,0,0
-546,-671,0,0,0,0,0,0,0,0,0,-1,678,1695,0,0
-539,-671,0,0,0,0,0,0,0,0,0,-1,685,1695,0,0
-532,-671,0,0,0,0,0,0,0,0,0,-1,692,1695,0,0
-525,-671,0,0,0,0,0,0,0,0,0,-1,699,1695,0,0
-518,-671,0,0,0,0,0,0,0,0,0,-1,706,1695,0,0
-511,-671,0,0,0,0,0,0,0,0,0,-1,713,1695,0,0
-504,-671,0,0,0,0,0,0,0,0,0,-1,720,1695,0,0
-497,-671,0,0,0,0,0,0,0,0,0,-1,727,1695,0,0
-490,-671,0,0,0,0,0,0,0,0,0,-1,734,1695,0,0
-483,-671,0,0,0,0,0,0,0,0,0,-1,741,1695,0,0
-476,-671,0,0,0,0,0,0,0,0,0,-1,748,1695,0,0
-469,-671,0,0,0,0,0,0,0,0,0,-1,755,1695,0,0
-462,-671,0,0,0,0,0,0,0,0,0,-1,762,1695,0,0
-455,-671,0,0,0,0,0,0,0,0,0,-1,769,1695,0,0
-448,-671,0,0,0,0,0,0,0,0,0,-1,776,1695,0,0
-441,-671,0,0,0,0,0,0,0,0,0,-1,783,1695,0,0
-434,-671,0,0,0,0,0,0,0,0,0,-1,790,1695,0,0
-427,-671,0,0,0,0,0,0,0,0,0,-1,797,1695,0,0
-420,-671,0,0,0,0,0,0,0,0,0,-1,804,1695,0,0
-413,-671,0,0,0,0,0,0,0,0,0,-1,811,1695,0,0
-406,-671,0,0,0,0,0,0,0,0,0,-1,818,1695,0,0
-399,-671,0,0,0,0,0,0,0,0,0,-1,825,1695,0,0
-392,-671,0,0,0,0,0,0,0,0,0,-1,832,1695,0,0
-385,-671,0,0,0,0,0,0,0,0,0,-1,839,1695,0,0
-378,-671,0,0,0,0,0,0,0,0,0,-1,846,1695,0,0
-371,-671,0,0,0,0,0,0,0,0,0,-1,853,1695,0,0
-364,-671,-4.18738,7.51416,0,0,0,0,0,0,0,-1,860,1695,-4.18739,-7.51419
-357,-671,-5.02393,6.07129,0,0,0,0,0,0,0,-1,867,1695,-5.0239,-6.07135
-350,-671,-5.72333,4.58386,0,0,0,0,0,0,0,-1,874,1695,-5.72333,-4.58386
-343,-671,2.99432,25.8125,0,0,0,0,0,0,0,-1,881,1695,2.9943,-25.8125
-336,-671,4.1355,26.2717,0,0,0,0,0,0,0,-1,888,1695,4.13547,-26.2718
-329,-671,5.27954,26.6194,0,0,0,0,0,0,0,-1,895,1695,5.27955,-26.6194
-322,-671,6.58679,29.3051,0,0,0,0,0,0,0,-1,902,1695,6.58682,-29.3051
-315,-671,9.38641,30.7329,0,0,0,0,0,0,0,-1,909,1695,9.38644,-30.7329
-308,-671,8.55444,31.682,0,0,0,0,0,0,0,-1,916,1695,8.55447,-31.682
-301,-671,7.604,32.5782,0,0,0,0,0,0,0,-1,923,1695,7.604,-32.5782
-294,-671,6.7984,32.0458,0,0,0,0,0,0,0,-1,930,1695,6.79837,-32.0458
-287,-671,6.69568,32.4945,-0.00599355,-0.00169203,-0.0114741,0.00783119,-0.0155168,-0.878045,0.0137212,0.0468841,937,1695,6.6957,-32.4944
-280,-671,6.70056,32.7378,-0.00601172,-0.00166674,-0.0102272,0.00661619,-0.0142947,-0.890054,0.0123412,0.0373064,944,1695,6.70056,-32.7378
-273,-671,6.68793,33.1967,-0.00581148,-0.00152008,-0.00884436,0.00543515,-0.0127667,-0.904402,0.0107893,0.0326342,951,1695,6.68792,-33.1967
-266,-671,6.67328,33.7476,-0.00510704,-0.00138237,-0.007112,0.00410709,-0.0105965,-0.913452,0.00876038,0.0249412,958,1695,6.67329,-33.7475
-259,-671,6.54468,34.1565,-0.00452448,-0.00100795,-0.00539223,0.00290544,-0.00843787,-0.942999,0.00680376,0.0223026,965,1695,6.54465,-34.1565
-252,-671,6.4975,34.6007,-0.00394227,-0.00045804,-0.00379982,0.00197999,-0.0063803,-1.00034,0.00504475,0.0173071,972,1695,6.49752,-34.6008
-245,-671,6.51379,35.0393,-0.00324249,0.000130318,-0.00229984,0.0012958,-0.00440797,-1.10175,0.00345261,0.0195892,979,1695,6.51381,-35.0393
-238,-671,6.51154,35.4884,-0.002445,0.000482511,-0.00103705,0.000812647,-0.00277514,-1.2626,0.00217225,0.0209289,986,1695,6.51155,-35.4884
-231,-671,6.47888,35.9413,-0.00154405,0.000697743,3.07474e-05,0.000698165,-0.00154448,1.55708,0.00132516,0.0161516,993,1695,6.4789,-35.9413
-224,-671,6.44714,36.345,-0.00063468,0.000730703,0.00116948,0.00140217,-0.00130615,1.04959,0.00156398,0.0116201,1000,1695,6.44712,-36.3449
-217,-671,6.42694,36.7384,0.000118815,0.000732641,0.00197405,0.0024235,-0.00157204,0.862517,0.00232422,0.0112087,1007,1695,6.42693,-36.7384
-210,-671,6.41772,37.1451,0.000702804,0.000590005,0.00246007,0.00310712,-0.00181431,0.773937,0.00287388,0.0107663,1014,1695,6.41775,-37.1451
-203,-671,6.38623,37.5138,0.00121702,0.000479474,0.00281152,0.00368385,-0.00198736,0.720188,0.00332275,0.0185185,1021,1695,6.38623,-37.5138
-196,-671,6.38733,37.9105,0.00141065,0.000346121,0.00319642,0.00411882,-0.00236205,0.702896,0.00378727,0.0164447,1028,1695,6.3873,-37.9105
-189,-671,6.39514,38.3403,0.00140863,7.98917e-05,0.00355998,0.0043657,-0.00287718,0.693148,0.00421101,0.0118731,1035,1695,6.39508,-38.3403
-182,-671,6.38989,38.7092,0.00132977,0.000136568,0.00382681,0.0046062,-0.00313986,0.708071,0.00449882,0.00951045,1042,1695,6.38986,-38.7093
-175,-671,6.39209,39.0416,0.0012072,0.000469076,0.00402606,0.00488108,-0.0032048,0.739692,0.00470171,0.0129217,1049,1695,6.39208,-39.0417
-168,-671,6.38965,39.3745,0.00122458,0.00105198,0.00425076,0.00538991,-0.00311335,0.775248,0.00496767,0.0141361,1056,1695,6.38969,-39.3745
-161,-671,6.37488,39.7593,0.00110799,0.00169861,0.00433093,0.00574429,-0.00293769,0.819438,0.0050991,0.00967699,1063,1695,6.37491,-39.7593
-154,-671,6.39136,40.1133,0.00126336,0.00255547,0.00429938,0.00625707,-0.00243824,0.859974,0.00517911,0.00868238,1070,1695,6.39133,-40.1133
-147,-671,6.40356,40.462,0.00177168,0.00361961,0.00416607,0.00696295,-0.00157166,0.894523,0.00524494,0.0105565,1077,1695,6.40362,-40.4621
-140,-671,6.44019,40.7739,0.00257111,0.00481784,0.00397048,0.00782081,-0.000431867,0.92326,0.00536363,0.0138021,1084,1695,6.44019,-40.7739
-133,-671,6.43994,41.0652,0.00355216,0.00611923,0.00386273,0.00890609,0.000765301,0.945803,0.00569945,0.0189614,1091,1695,6.43998,-41.0652
-126,-671,6.51111,41.4731,0.00457426,0.00747288,0.00341706,0.00973528,0.00231186,0.985969,0.00587325,0.0278171,1098,1695,6.51109,-41.4731
-119,-671,6.573,42.0221,0.00630261,0.00866389,0.00247579,0.0102261,0.00474036,1.00789,0.00590929,0.0482723,1105,1695,6.57295,-42.0221
-112,-671,6.5658,42.6991,0,0,0,0,0,0,0,-1,1112,1695,6.56583,-42.6991
-105,-671,7.33252,41.3418,0,0,0,0,0,0,0,-1,1119,1695,7.33247,-41.3418
-98,-671,6.45398,43.1781,0,0,0,0,0,0,0,-1,1126,1695,6.45403,-43.1781
-91,-671,6.40063,38.2443,0,0,0,0,0,0,0,-1,1133,1695,6.40059,-38.2442
-84,-671,5.4209,26.2415,0,0,0,0,0,0,0,-1,1140,1695,5.42096,-26.2414
-77,-671,4.31763,16.489,0,0,0,0,0,0,0,-1,1147,1695,4.31757,-16.489
-70,-671,3.06067,10.7737,0,0,0,0,0,0,0,-1,1154,1695,3.0607,-10.7737
-63,-671,2.94592,6.90198,0,0,0,0,0,0,0,-1,1161,1695,2.94594,-6.90198
-56,-671,-3.07678,2.87976,0,0,0,0,0,0,0,-1,1168,1695,-3.07675,-2.87979
-49,-671,-1.05957,4.76917,0,0,0,0,0,0,0,-1,1175,1695,-1.05958,-4.76921
-42,-671,0.539307,3.7865,0,0,0,0,0,0,0,-1,1182,1695,0.539266,-3.78648
-35,-671,-0.272461,0.347534,0,0,0,0,0,0,0,-1,1189,1695,-0.272434,-0.347569
-28,-671,-10.4878,17.2009,0,0,0,0,0,0,0,-1,1196,1695,-10.4878,-17.2009
-21,-671,7.18066,43.6025,0,0,0,0,0,0,0,-1,1203,1695,7.18065,-43.6025
-14,-671,7.51111,43.8872,0.0111304,-0.00475211,-0.00665774,0.013552,-0.00717373,-0.348853,0.0121534,0.0449878,1210,1695,7.51113,-43.8872
-7,-671,7.83313,44.1725,0.0146252,0.00323308,-0.00739184,0.018261,-0.000402761,-0.457125,0.0123105,0.049328,1217,1695,7.83308,-44.1725
0,-671,7.26929,46.6055,0,0,0,0,0,0,0,-1,1224,1695,7.26934,-46.6055
7,-671,7.92358,46.5327,0.0183618,0.0208277,-0.00725526,0.026954,0.0122355,-0.869562,0.0155839,0.0449974,1231,1695,7.92353,-46.5327
14,-671,8.62488,46.4155,0.0170958,0.0286698,-0.00767915,0.0324983,0.0132673,-1.1083,0.0188679,0.0450508,1238,1695,8.62491,-46.4155
21,-671,9.39307,46.406,0.0147111,0.0368713,-0.00829527,0.0396325,0.01195,-1.24947,0.0234751,0.0475488,1245,1695,9.39306,-46.406
28,-671,10.2443,46.4496,0,0,0,0,0,0,0,-1,1252,1695,10.2443,-46.4496
35,-671,8.27356,47.2102,0.00598335,0.047367,-0.010511,0.0498836,0.00346673,-1.33579,0.0321625,0.0457116,1259,1695,8.27353,-47.2102
42,-671,8.1228,46.5852,0.0003356,0.0505391,-0.0125858,0.0535175,-0.00264289,-1.33842,0.0365912,0.0463077,1266,1695,8.12277,-46.5853
49,-671,7.80005,46.0393,-0.000325518,0.0520113,-0.0155919,0.0563043,-0.00461845,-1.30212,0.0391665,0.0463873,1273,1695,7.80003,-46.0393
56,-671,7.52209,46.4102,-0.000521731,0.0520392,-0.0186905,0.0580077,-0.00649028,-1.2617,0.0410068,0.0417085,1280,1695,7.52213,-46.4102
63,-671,8.16528,46.6281,-0.00291611,0.0503386,-0.0216792,0.0580478,-0.0106254,-1.22914,0.0426835,0.0432887,1287,1695,8.16526,-46.628
70,-671,9.02661,46.5947,-0.00487949,0.0480067,-0.0246161,0.057691,-0.0145638,-1.19598,0.0441238,0.043556,1294,1695,9.02661,-46.5947
77,-671,8.14856,45.7684,-0.00599448,0.0458831,-0.0279959,0.0581097,-0.018221,-1.15904,0.0460317,0.0438523,1301,1695,8.14859,-45.7684
84,-671,7.71277,45.6527,-0.00801188,0.0420811,-0.0310152,0.0569002,-0.0228311,-1.12506,0.047413,0.0467236,1308,1695,7.71275,-45.6527
91,-671,7.29724,45.3054,0,0,0,0,0,0,0,-1,1315,1695,7.29728,-45.3054
98,-671,6.87939,46.0387,-0.014536,0.0365723,-0.0349741,0.0543333,-0.032297,-1.1009,0.0505525,0.0400014,1322,1695,6.87935,-46.0387
105,-671,11.8794,45.6543,-0.0212361,0.0344348,-0.0368621,0.0527905,-0.0395918,-1.10878,0.0535181,0.0431727,1329,1695,11.8794,-45.6543
112,-671,10.8412,45.3008,-0.0303126,0.0329125,-0.0372441,0.0501516,-0.0475517,-1.13729,0.0564156,0.0408184,1336,1695,10.8411,-45.3008
119,-671,9.68384,45.3899,-0.0424165,0.0318208,-0.0369858,0.047102,-0.0576977,-1.17899,0.0606092,0.0474747,1343,1695,9.68385,-45.3899
126,-671,7.95349,45.6945,0,0,0,0,0,0,0,-1,1350,1695,7.95353,-45.6944
133,-671,8.65259,45.1349,0,0,0,0,0,0,0,-1,1357,1695,8.6526,-45.1349
140,-671,8.70068,44.549,0,0,0,0,0,0,0,-1,1364,1695,8.70071,-44.5489
147,-671,10.5673,42.8361,0,0,0,0,0,0,0,-1,1371,1695,10.5672,-42.836
154,-671,10.5885,42.8883,0,0,0,0,0,0,0,-1,1378,1695,10.5884,-42.8883
161,-671,4.49292,4.91272,0,0,0,0,0,0,0,-1,1385,1695,4.49297,-4.91273
168,-671,5.17639,6.1416,0,0,0,0,0,0,0,-1,1392,1695,5.1764,-6.14164
175,-671,5.6731,1.64685,0,0,0,0,0,0,0,-1,1399,1695,5.67313,-1.64691
182,-671,5.56812,1.71692,0,0,0,0,0,0,0,-1,1406,1695,5.56809,-1.71686
189,-671,6.98315,6.36169,0,0,0,0,0,0,0,-1,1413,1695,6.98312,-6.36175
196,-671,5.38123,5.69775,0,0,0,0,0,0,0,-1,1420,1695,5.38125,-5.69769
203,-671,5.95117,8.11658,0,0,0,0,0,0,0,-1,1427,1695,5.9512,-8.11662
210,-671,4.73596,8.39624,0,0,0,0,0,0,0,-1,1434,1695,4.736,-8.39618
217,-671,5.37097,11.863,0,0,0,0,0,0,0,-1,1441,1695,5.37094,-11.863
224,-671,5.08167,13.6694,0,0,0,0,0,0,0,-1,1448,1695,5.08165,-13.6695
231,-671,5.66663,15.3348,0,0,0,0,0,0,0,-1,1455,1695,5.66667,-15.3349
238,-671,6.32959,16.2036,0,0,0,0,0,0,0,-1,1462,1695,6.32961,-16.2037
245,-671,10.6449,40.4673,0,0,0,0,0,0,0,-1,1469,1695,10.6449,-40.4673
252,-671,10.5638,41.483,0,0,0,0,0,0,0,-1,1476,1695,10.5638,-41.4831
259,-671,10.5498,41.4646,0,0,0,0,0,0,0,-1,1483,1695,10.5498,-41.4646
266,-671,10.5518,41.048,0.00340141,0.00183717,0.00521703,0.00789463,-0.00265604,0.710994,0.00633677,0.033363,1490,1695,10.5517,-41.048
273,-671,10.6366,40.7915,0.00314409,0.00225831,0.00480696,0.00752852,-0.00212612,0.73946,0.00585778,0.00997673,1497,1695,10.6366,-40.7915
280,-671,10.6508,40.4813,0.00295909,0.00283884,0.00414271,0.00704211,-0.00124418,0.778142,0.00515971,0.00921063,1504,1695,10.6507,-40.4813
287,-671,10.6615,40.08,0.0027866,0.00327096,0.00340396,0.00644135,-0.000383782,0.820912,0.00442771,0.0114041,1511,1695,10.6615,-40.0799
294,-671,10.6759,39.7454,0.00270666,0.00377324,0.00244821,0.00574557,0.000734332,0.892637,0.00361058,0.0115457,1518,1695,10.6759,-39.7453
301,-671,10.6984,39.4543,0.00257337,0.00401361,0.00151696,0.0049727,0.00161429,1.00701,0.00292926,0.0110078,1525,1695,10.6984,-39.4543
308,-671,10.7106,39.1342,0.00239464,0.00412326,0.000669213,0.00435205,0.00216585,1.24137,0.00251267,0.0120707,1532,1695,10.7106,-39.1342
315,-671,10.723,38.7813,0.00219654,0.00399997,5.75659e-06,0.00399998,0.00219652,1.5676,0.00231311,0.013855,1539,1695,10.723,-38.7813
322,-671,10.7179,38.4524,0.00200848,0.00373948,-0.000494874,0.00387097,0.00187699,-1.31109,0.00223525,0.0159365,1546,1695,10.7179,-38.4524
329,-671,10.6859,38.1399,0.00181371,0.00308782,-0.000859791,0.00352085,0.00138068,-1.10424,0.00204847,0.0145575,1553,1695,10.6859,-38.1399
336,-671,10.6948,37.7245,0.00174104,0.00264319,-0.000865569,0.00316817,0.00121606,-1.0256,0.00184552,0.0110186,1560,1695,10.6948,-37.7244
343,-671,10.7098,37.3097,0.00163433,0.00197429,-0.00020788,0.00207283,0.00153578,-1.12811,0.00124219,0.011378,1567,1695,10.7099,-37.3097
350,-671,10.7039,36.9534,0.0015147,0.000742814,0.000614458,0.00185437,0.000403146,0.504985,0.00112618,0.0120771,1574,1695,10.7038,-36.9534
357,-671,10.6721,36.5281,0.00159988,-0.000190521,0.00160882,0.00254579,-0.00113643,0.531513,0.00217721,0.0109388,1581,1695,10.6721,-36.5281
364,-671,10.6733,36.1344,0.00159581,-0.00123364,0.00284559,0.00335895,-0.00299679,0.55471,0.00367147,0.0117296,1588,1695,10.6734,-36.1344
371,-671,10.6658,35.7836,0.00164742,-0.0021922,0.00426885,0.00440829,-0.00495307,0.574085,0.00540783,0.0135953,1595,1695,10.6657,-35.7836
378,-671,10.6418,35.3784,0.0015798,-0.00338608,0.0059115,0.00550864,-0.00731491,0.586577,0.00742812,0.0120548,1602,1695,10.6418,-35.3785
385,-671,10.5903,34.9354,0.00150805,-0.00436017,0.00745675,0.00658719,-0.00943932,0.59796,0.00930162,0.0144456,1609,1695,10.5903,-34.9354
392,-671,10.5626,34.5229,0.00117257,-0.00564219,0.00901593,0.00740351,-0.0118731,0.60473,0.0112287,0.0192344,1616,1695,10.5626,-34.523
399,-671,10.5562,34.0829,0.000597872,-0.00664049,0.0103268,0.00792134,-0.013964,0.616854,0.012795,0.0147796,1623,1695,10.5562,-34.0829
406,-671,10.5349,33.6553,-0.000336757,-0.00744023,0.0114995,0.00814698,-0.015924,0.635615,0.0141371,0.0184915,1630,1695,10.5349,-33.6553
413,-671,10.4183,33.295,-0.00137247,-0.00762339,0.0124843,0.00837161,-0.0173675,0.662743,0.01516,0.0308166,1637,1695,10.4184,-33.295
420,-671,10.484,32.8232,0,0,0,0,0,0,0,-1,1644,1695,10.484,-32.8233
427,-671,10.1387,33.025,0,0,0,0,0,0,0,-1,1651,1695,10.1387,-33.0251
434,-671,9.66528,26.177,0,0,0,0,0,0,0,-1,1658,1695,9.66528,-26.177
441,-671,8.34961,20.6522,0,0,0,0,0,0,0,-1,1665,1695,8.34964,-20.6522
448,-671,7.44873,20.2306,0,0,0,0,0,0,0,-1,1672,1695,7.44872,-20.2306
455,-671,6.62805,19.8612,0,0,0,0,0,0,0,-1,1679,1695,6.62811,-19.8612
462,-671,5.86255,4.47961,0,0,0,0,0,0,0,-1,1686,1695,5.8625,-4.4796
469,-671,3.71301,3.76978,0,0,0,0,0,0,0,-1,1693,1695,3.71297,-3.76974
476,-671,3.75574,3.18848,0,0,0,0,0,0,0,-1,1700,1695,3.7558,-3.18847
483,-671,7.81824,12.1041,0,0,0,0,0,0,0,-1,1707,1695,7.81826,-12.1041
490,-671,0,0,0,0,0,0,0,0,0,-1,1714,1695,0,0
497,-671,0,0,0,0,0,0,0,0,0,-1,1721,1695,0,0
504,-671,0,0,0,0,0,0,0,0,0,-1,1728,1695,0,0
511,-671,0,0,0,0,0,0,0,0,0,-1,1735,1695,0,0
518,-671,0,0,0,0,0,0,0,0,0,-1,1742,1695,0,0
525,-671,0,0,0,0,0,0,0,0,0,-1,1749,1695,0,0
532,-671,0,0,0,0,0,0,0,0,0,-1,1756,1695,0,0
539,-671,0,0,0,0,0,0,0,0,0,-1,1763,1695,0,0
546,-671,0,0,0,0,0,0,0,0,0,-1,1770,1695,0,0
553,-671,0,0,0,0,0,0,0,0,0,-1,1777,1695,0,0
560,-671,0,0,0,0,0,0,0,0,0,-1,1784,1695,0,0
567,-671,0,0,0,0,0,0,0,0,0,-1,1791,1695,0,0
574,-671,0,0,0,0,0,0,0,0,0,-1,1798,1695,0,0
581,-671,0,0,0,0,0,0,0,0,0,-1,1805,1695,0,0
588,-671,0,0,0,0,0,0,0,0,0,-1,1812,1695,0,0
595,-671,0,0,0,0,0,0,0,0,0,-1,1819,1695,0,0
602,-671,0,0,0,0,0,0,0,0,0,-1,1826,1695,0,0
609,-671,0,0,0,0,0,0,0,0,0,-1,1833,1695,0,0
616,-671,0,0,0,0,0,0,0,0,0,-1,1840,1695,0,0
623,-671,0,0,0,0,0,0,0,0,0,-1,1847,1695,0,0
630,-671,0,0,0,0,0,0,0,0,0,-1,1854,1695,0,0
637,-671,0,0,0,0,0,0,0,0,0,-1,1861,1695,0,0
644,-671,0,0,0,0,0,0,0,0,0,-1,1868,1695,0,0
651,-671,0,0,0,0,0,0,0,0,0,-1,1875,1695,0,0
658,-671,0,0,0,0,0,0,0,0,0,-1,1882,1695,0,0
665,-671,0,0,0,0,0,0,0,0,0,-1,1889,1695,0,0
672,-671,0,0,0,0,0,0,0,0,0,-1,1896,1695,0,0
679,-671,0,0,0,0,0,0,0,0,0,-1,1903,1695,0,0
686,-671,0,0,0,0,0,0,0,0,0,-1,1910,1695,0,0
693,-671,0,0,0,0,0,0,0,0,0,-1,1917,1695,0,0
700,-671,0,0,0,0,0,0,0,0,0,-1,1924,1695,0,0
707,-671,0,0,0,0,0,0,0,0,0,-1,1931,1695,0,0
714,-671,0,0,0,0,0,0,0,0,0,-1,1938,1695,0,0
721,-671,0,0,0,0,0,0,0,0,0,-1,1945,1695,0,0
728,-671,0,0,0,0,0,0,0,0,0,-1,1952,1695,0,0
735,-671,0,0,0,0,0,0,0,0,0,-1,1959,1695,0,0
742,-671,0,0,0,0,0,0,0,0,0,-1,1966,1695,0,0
749,-671,0,0,0,0,0,0,0,0,0,-1,1973,1695,0,0
756,-671,0,0,0,0,0,0,0,0,0,-1,1980,1695,0,0
763,-671,0,0,0,0,0,0,0,0,0,-1,1987,1695,0,0
770,-671,0,0,0,0,0,0,0,0,0,-1,1994,1695,0,0
777,-671,0,0,0,0,0,0,0,0,0,-1,2001,1695,0,0
784,-671,0,0,0,0,0,0,0,0,0,-1,2008,1695,0,0
791,-671,0,0,0,0,0,0,0,0,0,-1,2015,1695,0,0
798,-671,0,0,0,0,0,0,0,0,0,-1,2022,1695,0,0
805,-671,0,0,0,0,0,0,0,0,0,-1,2029,1695,0,0
812,-671,0,0,0,0,0,0,0,0,0,-1,2036,1695,0,0
-700,-678,0,0,0,0,0,0,0,0,0,-1,524,1702,0,0
-693,-678,0,0,0,0,0,0,0,0,0,-1,531,1702,0,0
-686,-678,0,0,0,0,0,0,0,0,0,-1,538,1702,0,0
-679,-678,0,0,0,0,0,0,0,0,0,-1,545,1702,0,0
-672,-678,0,0,0,0,0,0,0,0,0,-1,552,1702,0,0
-665,-678,0,0,0,0,0,0,0,0,0,-1,559,1702,0,0
-658,-678,0,0,0,0,0,0,0,0,0,-1,566,1702,0,0
-651,-678,0,0,0,0,0,0,0,0,0,-1,573,1702,0,0
-644,-678,0,0,0,0,0,0,0,0,0,-1,580,1702,0,0
-637,-678,0,0,0,0,0,0,0,0,0,-1,587,1702,0,0
-630,-678,0,0,0,0,0,0,0,0,0,-1,594,1702,0,0
-623,-678,0,0,0,0,0,0,0,0,0,-1,601,1702,0,0
-616,-678,0,0,0,0,0,0,0,0,0,-1,608,1702,0,0
-609,-678,0,0,0,0,0,0,0,0,0,-1,615,1702,0,0
-602,-678,0,0,0,0,0,0,0,0,0,-1,622,1702,0,0
-595,-678,0,0,0,0,0,0,0,0,0,-1,629,1702,0,0
-588,-678,0,0,0,0,0,0,0,0,0,-1,636,1702,0,0
-581,-678,0,0,0,0,0,0,0,0,0,-1,643,1702,0,0
-574,-678,0,0,0,0,0,0,0,0,0,-1,650,1702,0,0
-567,-678,0,0,0,0,0,0,0,0,0,-1,657,1702,0,0
-560,-678,0,0,0,0,0,0,0,0,0,-1,664,1702,0,0
-553,-678,0,0,0,0,0,0,0,0,0,-1,671,1702,0,0
-546,-678,0,0,0,0,0,0,0,0,0,-1,678,1702,0,0
-539,-678,0,0,0,0,0,0,0,0,0,-1,685,1702,0,0
-532,-678,0,0,0,0,0,0,0,0,0,-1,692,1702,0,0
-525,-678,0,0,0,0,0,0,0,0,0,-1,699,1702,0,0
-518,-678,0,0,0,0,0,0,0,0,0,-1,706,1702,0,0
-511,-678,0,0,0,0,0,0,0,0,0,-1,713,1702,0,0
-504,-678,0,0,0,0,0,0,0,0,0,-1,720,1702,0,0
-497,-678,0,0,0,0,0,0,0,0,0,-1,727,1702,0,0
-490,-678,0,0,0,0,0,0,0,0,0,-1,734,1702,0,0
-483,-678,0,0,0,0,0,0,0,0,0,-1,741,1702,0,0
-476,-678,0,0,0,0,0,0,0,0,0,-1,748,1702,0,0
-469,-678,0,0,0,0,0,0,0,0,0,-1,755,1702,0,0
-462,-678,0,0,0,0,0,0,0,0,0,-1,762,1702,0,0
-455,-678,0,0,0,0,0,0,0,0,0,-1,769,1702,0,0
-448,-678,0,0,0,0,0,0,0,0,0,-1,776,1702,0,0
-441,-678,0,0,0,0,0,0,0,0,0,-1,783,1702,0,0
-434,-678,0,0,0,0,0,0,0,0,0,-1,790,1702,0,0
-427,-678,0,0,0,0,0,0,0,0,0,-1,797,1702,0,0
-420,-678,0,0,0,0,0,0,0,0,0,-1,804,1702,0,0
-413,-678,0,0,0,0,0,0,0,0,0,-1,811,1702,0,0
-406,-678,0,0,0,0,0,0,0,0,0,-1,818,1702,0,0
-399,-678,0,0,0,0,0,0,0,0,0,-1,825,1702,0,0
-392,-678,0,0,0,0,0,0,0,0,0,-1,832,1702,0,0
-385,-678,0,0,0,0,0,0,0,0,0,-1,839,1702,0,0
-378,-678,0,0,0,0,0,0,0,0,0,-1,846,1702,0,0
-371,-678,0,0,0,0,0,0,0,0,0,-1,853,1702,0,0
-364,-678,0,0,0,0,0,0,0,0,0,-1,860,1702,0,0
-357,-678,0,0,0,0,0,0,0,0,0,-1,867,1702,0,0
-350,-678,-5.79944,6.11865,0,0,0,0,0,0,0,-1,874,1702,-5.79942,-6.11864
-343,-678,-6.44891,4.52759,0,0,0,0,0,0,0,-1,881,1702,-6.4489,-4.52758
-336,-678,4.8537,26.4368,0,0,0,0,0,0,0,-1,888,1702,4.85368,-26.4368
-329,-678,5.70953,26.5249,0,0,0,0,0,0,0,-1,895,1702,5.70955,-26.5249
-322,-678,3.78455,20.3917,0,0,0,0,0,0,0,-1,902,1702,3.78457,-20.3917
-315,-678,4.74176,22.3245,0,0,0,0,0,0,0,-1,909,1702,4.74178,-22.3244
-308,-678,9.00586,32.427,0,0,0,0,0,0,0,-1,916,1702,9.00588,-32.427
-301,-678,8.15631,33.149,0,0,0,0,0,0,0,-1,923,1702,8.1563,-33.1491
-294,-678,7.2973,31.5217,0,0,0,0,0,0,0,-1,930,1702,7.29732,-31.5217
-287,-678,7.16125,32.5842,0,0,0,0,0,0,0,-1,937,1702,7.16123,-32.5842
-280,-678,7.31464,32.8424,-0.00774746,-0.00208799,-0.0149139,0.0102623,-0.0200977,-0.879153,0.0178323,0.0459695,944,1702,7.31461,-32.8424
-273,-678,7.17889,33.249,-0.00755468,-0.00178086,-0.0126725,0.00832942,-0.017665,-0.897391,0.0153271,0.0422974,951,1702,7.17892,-33.2491
-266,-678,7.10181,33.7249,-0.00673663,-0.00153041,-0.00995374,0.00615497,-0.014422,-0.913294,0.0121955,0.0353702,958,1702,7.10179,-33.7249
-259,-678,6.94086,34.2257,-0.0059906,-0.00113856,-0.0073647,0.00418942,-0.0113186,-0.944507,0.00926354,0.0221508,965,1702,6.94085,-34.2257
-252,-678,6.9519,34.6423,-0.00524239,-0.000576781,-0.00508036,0.00268077,-0.00849994,-1.00063,0.00674032,0.0167692,972,1702,6.95193,-34.6423
-245,-678,6.93964,35.0665,-0.0044221,-2.62504e-05,-0.00300488,0.00149875,-0.0059471,-1.10116,0.0045474,0.0170611,979,1702,6.93965,-35.0665
-238,-678,6.8822,35.4884,-0.00356367,0.000287189,-0.00125694,0.000661145,-0.00393763,-1.28162,0.00287095,0.0150037,986,1702,6.88219,-35.4884
-231,-678,6.83746,35.9233,-0.00268306,0.0004719,7.87627e-05,0.000473865,-0.00268502,1.54585,0.00196709,0.0130559,993,1702,6.83749,-35.9233
-224,-678,6.81335,36.3317,-0.00179793,0.00043442,0.0013329,0.00105677,-0.00242028,1.13397,0.00205829,0.0126402,1000,1702,6.81334,-36.3316
-217,-678,6.82172,36.7427,-0.000996158,0.000374992,0.00210904,0.00190708,-0.00252825,0.942544,0.0025691,0.0133447,1007,1702,6.82172,-36.7426
-210,-678,6.80774,37.1823,-0.000321593,8.60688e-05,0.00248409,0.00237467,-0.0026102,0.826334,0.00287909,0.0137302,1014,1702,6.80776,-37.1822
-203,-678,6.75854,37.5281,0.000217851,-5.67563e-05,0.00265706,0.00274115,-0.00258005,0.759584,0.00307267,0.0178566,1021,1702,6.75853,-37.528
-196,-678,6.75012,37.9229,0.000429446,-0.000232062,0.00283422,0.00295215,-0.00275476,0.727311,0.00329554,0.0182879,1028,1702,6.75007,-37.9228
-189,-678,6.75232,38.343,0.000503704,-0.000507029,0.00298655,0.00302735,-0.00303067,0.701585,0.0034976,0.00997916,1035,1702,6.75227,-38.343
-182,-678,6.76331,38.7218,0.000560432,-0.00045065,0.00305945,0.00315582,-0.00304604,0.703518,0.00358084,0.00936672,1042,1702,6.76334,-38.7218
-175,-678,6.74243,39.0861,0.000645223,-0.00012972,0.00305392,0.00333616,-0.00282065,0.722297,0.00355879,0.0107709,1049,1702,6.74244,-39.0861
-168,-678,6.724,39.4344,0.00083612,0.000443818,0.00314162,0.00378771,-0.00250777,0.75422,0.00365965,0.010585,1056,1702,6.72398,-39.4344
-161,-678,6.72681,39.7836,0.000921154,0.00110035,0.00310721,0.00411925,-0.00209775,0.799812,0.00365209,0.00929345,1063,1702,6.72677,-39.7836
-154,-678,6.73706,40.1351,0.00126906,0.00191801,0.0030294,0.00464027,-0.00145319,0.838749,0.00367496,0.00852723,1070,1702,6.73707,-40.1351
-147,-678,6.7334,40.4858,0.00192655,0.00284558,0.00290698,0.00532914,-0.000557001,0.863786,0.00375223,0.0106932,1077,1702,6.73338,-40.4858
-140,-678,6.76904,40.7955,0.00277888,0.0038396,0.00271384,0.00607442,0.000544063,0.881895,0.00388099,0.0127924,1084,1702,6.76909,-40.7955
-133,-678,6.78711,41.0923,0.00373204,0.00484726,0.00256243,0.00691205,0.00166726,0.892533,0.00416504,0.0133435,1091,1702,6.78715,-41.0922
-126,-678,6.79846,41.4194,0.00468456,0.00579886,0.00218434,0.00749599,0.00298743,0.910268,0.00435741,0.0130639,1098,1702,6.79851,-41.4195
-119,-678,6.88989,41.954,0.00595737,0.00644364,0.00146798,0.00768849,0.00471252,0.867465,0.00447653,0.0361267,1105,1702,6.8899,-41.954
-112,-678,6.89502,41.9567,0,0,0,0,0,0,0,-1,1112,1702,6.89502,-41.9567
-105,-678,6.77393,42.7986,0,0,0,0,0,0,0,-1,1119,1702,6.77395,-42.7986
-98,-678,6.85437,42.7859,0,0,0,0,0,0,0,-1,1126,1702,6.85435,-42.7858
-91,-678,6.98767,42.7847,0,0,0,0,0,0,0,-1,1133,1702,6.98772,-42.7847
-84,-678,6.58545,36.5073,0,0,0,0,0,0,0,-1,1140,1702,6.58544,-36.5073
-77,-678,5.95154,29.1879,0,0,0,0,0,0,0,-1,1147,1702,5.95156,-29.1878
-70,-678,4.75891,19.6552,0,0,0,0,0,0,0,-1,1154,1702,4.75895,-19.6551
-63,-678,3.41687,11.0365,0,0,0,0,0,0,0,-1,1161,1702,3.41682,-11.0365
-56,-678,1.72388,6.13159,0,0,0,0,0,0,0,-1,1168,1702,1.72388,-6.13157
-49,-678,-0.241699,5.29895,0,0,0,0,0,0,0,-1,1175,1702,-0.241682,-5.29897
-42,-678,0.297119,3.90649,0,0,0,0,0,0,0,-1,1182,1702,0.297139,-3.90655
-35,-678,0.498413,3.64038,0,0,0,0,0,0,0,-1,1189,1702,0.498471,-3.64038
-28,-678,0.132446,3.55994,0,0,0,0,0,0,0,-1,1196,1702,0.132432,-3.55993
-21,-678,7.46094,44.2579,0,0,0,0,0,0,0,-1,1203,1702,7.46091,-44.2579
-14,-678,7.79724,44.3669,0.018992,0.000975089,-0.00375309,0.0197426,0.000224551,-0.197375,0.0130875,0.0402928,1210,1702,7.79718,-44.3669
-7,-678,8.19995,44.4603,0.0211278,0.00737206,-0.00471186,0.022587,0.00591287,-0.300319,0.013525,0.0441276,1217,1702,8.19994,-44.4604
0,-678,8.67615,44.5602,0,0,0,0,0,0,0,-1,1224,1702,8.67614,-44.5602
7,-678,8.13379,45.5938,0.0220217,0.0209665,-0.00397952,0.0255084,0.0174797,-0.71949,0.0150605,0.0481507,1231,1702,8.13384,-45.5938
14,-678,8.48523,45.9027,0.0203213,0.0268127,-0.00429106,0.0289473,0.0181867,-1.10919,0.0168951,0.0469734,1238,1702,8.48522,-45.9027
21,-678,8.55115,46.5099,0,0,0,0,0,0,0,-1,1245,1702,8.5511,-46.5099
28,-678,8.15857,46.6144,0.0143193,0.0375496,-0.00534426,0.0387201,0.0131488,-1.35518,0.0227353,0.0464852,1252,1702,8.15861,-46.6143
35,-678,8.31824,46.4738,0.00984793,0.0403636,-0.00651515,0.0416964,0.00851515,-1.36901,0.0254388,0.0401242,1259,1702,8.31826,-46.4738
42,-678,8.23425,46.3821,0.00489693,0.0424704,-0.00826328,0.0442074,0.00315994,-1.36361,0.0284768,0.0455407,1266,1702,8.23421,-46.3821
49,-678,6.97229,46.0631,0.00541751,0.0431961,-0.0108984,0.0461146,0.00249901,-1.30914,0.0299449,0.0473594,1273,1702,6.97227,-46.0631
56,-678,7.58459,46.093,0.00606173,0.0425447,-0.013492,0.0469921,0.00161433,-1.25238,0.030804,0.0447331,1280,1702,7.58457,-46.093
63,-678,8.29443,46.2123,0.00437812,0.0406075,-0.0160249,0.0466784,-0.00169273,-1.20867,0.0316982,0.045023,1287,1702,8.29445,-46.2123
70,-678,8.75989,45.9065,0.00298099,0.0382756,-0.0184567,0.0461641,-0.00490751,-1.16689,0.0325355,0.0402438,1294,1702,8.75985,-45.9065
77,-678,8.30127,45.7095,0.00245026,0.0363042,-0.0212671,0.0465583,-0.00780382,-1.12152,0.0339405,0.0408184,1301,1702,8.30133,-45.7095
84,-678,7.89563,45.6741,0.00129116,0.0330366,-0.0237662,0.0457432,-0.0114154,-1.07982,0.034928,0.0452834,1308,1702,7.89566,-45.6741
91,-678,7.25623,45.8057,0,0,0,0,0,0,0,-1,1315,1702,7.25623,-45.8057
98,-678,6.89966,45.9557,-0.00320669,0.02839,-0.0269585,0.0438382,-0.018655,-1.05044,0.0370441,0.04033,1322,1702,6.8997,-45.9557
105,-678,11.6649,45.443,-0.0081697,0.0266016,-0.0286479,0.0427266,-0.0242947,-1.05813,0.0391795,0.0424498,1329,1702,11.6649,-45.443
112,-678,10.6147,45.3018,-0.0148747,0.0253196,-0.0289438,0.0404593,-0.0300145,-1.08886,0.0408368,0.0411469,1336,1702,10.6148,-45.3018
119,-678,9.37695,45.3879,-0.023959,0.0244073,-0.0286013,0.0376789,-0.0372306,-1.13634,0.0432493,0.0432856,1343,1702,9.37701,-45.388
126,-678,8.29712,45.5154,-0.0342113,0.0231212,-0.028,0.0345269,-0.0456169,-1.18398,0.0464185,0.0461401,1350,1702,8.29716,-45.5154
133,-678,8.5658,45.2555,0,0,0,0,0,0,0,-1,1357,1702,8.56574,-45.2555
140,-678,8.3562,44.9979,0,0,0,0,0,0,0,-1,1364,1702,8.35619,-44.9979
147,-678,8.32617,44.7465,0,0,0,0,0,0,0,-1,1371,1702,8.32619,-44.7465
154,-678,10.0942,43.4054,0,0,0,0,0,0,0,-1,1378,1702,10.0942,-43.4054
161,-678,8.81226,34.8624,0,0,0,0,0,0,0,-1,1385,1702,8.81229,-34.8624
168,-678,4.21863,5.25781,0,0,0,0,0,0,0,-1,1392,1702,4.21865,-5.25781
175,-678,5.21899,5.9635,0,0,0,0,0,0,0,-1,1399,1702,5.21894,-5.96346
182,-678,7.31262,6.75122,0,0,0,0,0,0,0,-1,1406,1702,7.3126,-6.75123
189,-678,5.96021,6.36853,0,0,0,0,0,0,0,-1,1413,1702,5.96018,-6.36851
196,-678,5.01599,8.15771,0,0,0,0,0,0,0,-1,1420,1702,5.01596,-8.15767
203,-678,4.64771,13.0559,0,0,0,0,0,0,0,-1,1427,1702,4.64766,-13.0559
210,-678,5.6532,18.5957,0,0,0,0,0,0,0,-1,1434,1702,5.65318,-18.5958
217,-678,6.88049,23.4835,0,0,0,0,0,0,0,-1,1441,1702,6.88047,-23.4835
224,-678,8.521,32.0977,0,0,0,0,0,0,0,-1,1448,1702,8.52098,-32.0977
231,-678,9.96838,42.3734,0,0,0,0,0,0,0,-1,1455,1702,9.96844,-42.3734
238,-678,10.1617,42.3873,0,0,0,0,0,0,0,-1,1462,1702,10.1617,-42.3873
245,-678,10.2629,41.9708,0,0,0,0,0,0,0,-1,1469,1702,10.263,-41.9708
252,-678,10.2771,41.6656,0.00321292,2.05728e-05,0.00391423,0.00584391,-0.00261042,0.591797,0.0049987,0.0278785,1476,1702,10.2771,-41.6657
259,-678,10.2822,41.42,0.00299558,0.00067007,0.00360564,0.00562132,-0.00195566,0.629422,0.00454201,0.0177532,1483,1702,10.2822,-41.42
266,-678,10.3279,41.1058,0.00279864,0.00110581,0.00326206,0.00532231,-0.00141786,0.658461,0.00410331,0.0122261,1490,1702,10.3279,-41.1058
273,-678,10.3458,40.8168,0.00256758,0.00145281,0.00297012,0.00503216,-0.00101178,0.692645,0.00373796,0.0111753,1497,1702,10.3459,-40.8168
280,-678,10.3328,40.5042,0.00239041,0.00191664,0.00246958,0.00463445,-0.000327394,0.737583,0.00320434,0.0117389,1504,1702,10.3328,-40.5041
287,-678,10.3549,40.155,0.00221627,0.0023476,0.00189303,0.0041761,0.000387774,0.802735,0.00266423,0.0119085,1511,1702,10.3548,-40.155
294,-678,10.3607,39.8116,0.00209041,0.00279865,0.00116204,0.00365933,0.00122974,0.933298,0.00215024,0.0126366,1518,1702,10.3608,-39.8117
301,-678,10.3511,39.4814,0.00192313,0.00309899,0.000462956,0.00325939,0.00176273,1.23728,0.0018839,0.0122917,1525,1702,10.351,-39.4814
308,-678,10.347,39.1414,0.00169911,0.00318396,-0.000151047,0.00319917,0.0016839,-1.47044,0.00184789,0.0137478,1532,1702,10.3471,-39.1414
315,-678,10.3273,38.7922,0.00145127,0.00303594,-0.000546511,0.00320614,0.00128107,-1.26889,0.00186347,0.0155487,1539,1702,10.3272,-38.7923
322,-678,10.2904,38.4736,0.0012667,0.00278641,-0.000846648,0.00316418,0.000888925,-1.15111,0.00188438,0.0187641,1546,1702,10.2904,-38.4736
329,-678,10.286,38.1072,0.00107962,0.00206511,-0.00103541,0.00271904,0.000425693,-1.00749,0.00168878,0.0159359,1553,1702,10.286,-38.1072
336,-678,10.2987,37.7198,0.00111752,0.00159734,-0.000598821,0.00200252,0.000712336,-0.975929,0.00117209,0.0126672,1560,1702,10.2986,-37.7199
343,-678,10.309,37.3405,0.00119705,0.00098986,0.000631512,0.00173341,0.000453503,0.704101,0.001038,0.0126964,1567,1702,10.3089,-37.3404
350,-678,10.3176,36.953,0.0012519,-0.000184132,0.00187554,0.00254217,-0.0014744,0.602588,0.00234612,0.0128707,1574,1702,10.3176,-36.953
357,-678,10.301,36.5494,0.00160749,-0.00113183,0.0032737,0.0037865,-0.00331084,0.587272,0.00410072,0.00971204,1581,1702,10.3011,-36.5494
364,-678,10.2773,36.1627,0.00188668,-0.00212222,0.00500286,0.0052717,-0.00550724,0.59486,0.00622372,0.0105725,1588,1702,10.2774,-36.1627
371,-678,10.2543,35.7867,0.00227174,-0.0030314,0.00699811,0.00710377,-0.00786344,0.604306,0.00864503,0.0114389,1595,1702,10.2543,-35.7868
378,-678,10.2224,35.3789,0.00252139,-0.00420839,0.00928422,0.00903168,-0.0107187,0.611545,0.0114167,0.0129145,1602,1702,10.2224,-35.3789
385,-678,10.2068,34.9586,0.00281822,-0.00504871,0.0114477,0.0109894,-0.0132199,0.619916,0.013997,0.0135251,1609,1702,10.2068,-34.9587
392,-678,10.2206,34.5865,0.002845,-0.00623738,0.0136156,0.0126567,-0.0160491,0.624435,0.0166119,0.0227883,1616,1702,10.2206,-34.5865
399,-678,10.1136,34.238,0.00259862,-0.00707095,0.0154632,0.0139652,-0.0184376,0.633881,0.0187671,0.0335324,1623,1702,10.1137,-34.2381
406,-678,10.0748,33.7716,0.00187408,-0.00784498,0.0171665,0.0148557,-0.0208266,0.647466,0.0206971,0.0374045,1630,1702,10.0749,-33.7716
413,-678,9.97717,33.4734,0.000896053,-0.00810989,0.0187266,0.0156534,-0.0228673,0.667409,0.0223696,0.0488697,1637,1702,9.97718,-33.4733
420,-678,9.59827,33.0675,0,0,0,0,0,0,0,-1,1644,1702,9.59823,-33.0676
427,-678,4.57483,10.1555,0,0,0,0,0,0,0,-1,1651,1702,4.57485,-10.1555
434,-678,9.48169,21.6665,0,0,0,0,0,0,0,-1,1658,1702,9.48169,-21.6665
441,-678,8.64539,21.1864,0,0,0,0,0,0,0,-1,1665,1702,8.64536,-21.1865
448,-678,7.62244,20.7195,0,0,0,0,0,0,0,-1,1672,1702,7.6224,-20.7195
455,-678,5.44678,5.54297,0,0,0,0,0,0,0,-1,1679,1702,5.44676,-5.54294
462,-678,3.86792,2.87402,0,0,0,0,0,0,0,-1,1686,1702,3.86796,-2.87406
469,-678,2.26587,1.98755,0,0,0,0,0,0,0,-1,1693,1702,2.26592,-1.98755
476,-678,0,0,0,0,0,0,0,0,0,-1,1700,1702,0,0
483,-678,0,0,0,0,0,0,0,0,0,-1,1707,1702,0,0
490,-678,0,0,0,0,0,0,0,0,0,-1,1714,1702,0,0
497,-678,0,0,0,0,0,0,0,0,0,-1,1721,1702,0,0
504,-678,0,0,0,0,0,0,0,0,0,-1,1728,1702,0,0
511,-678,0,0,0,0,0,0,0,0,0,-1,1735,1702,0,0
518,-678,0,0,0,0,0,0,0,0,0,-1,1742,1702,0,0
525,-678,0,0,0,0,0,0,0,0,0,-1,1749,1702,0,0
532,-678,0,0,0,0,0,0,0,0,0,-1,1756,1702,0,0
539,-678,0,0,0,0,0,0,0,0,0,-1,1763,1702,0,0
546,-678,0,0,0,0,0,0,0,0,0,-1,1770,1702,0,0
553,-678,0,0,0,0,0,0,0,0,0,-1,1777,1702,0,0
560,-678,0,0,0,0,0,0,0,0,0,-1,1784,1702,0,0
567,-678,0,0,0,0,0,0,0,0,0,-1,1791,1702,0,0
574,-678,0,0,0,0,0,0,0,0,0,-1,1798,1702,0,0
581,-678,0,0,0,0,0,0,0,0,0,-1,1805,1702,0,0
588,-678,0,0,0,0,0,0,0,0,0,-1,1812,1702,0,0
595,-678,0,0,0,0,0,0,0,0,0,-1,1819,1702,0,0
602,-678,0,0,0,0,0,0,0,0,0,-1,1826,1702,0,0
609,-678,0,0,0,0,0,0,0,0,0,-1,1833,1702,0,0
616,-678,0,0,0,0,0,0,0,0,0,-1,1840,1702,0,0
623,-678,0,0,0,0,0,0,0,0,0,-1,1847,1702,0,0
630,-678,0,0,0,0,0,0,0,0,0,-1,1854,1702,0,0
637,-678,0,0,0,0,0,0,0,0,0,-1,1861,1702,0,0
644,-678,0,0,0,0,0,0,0,0,0,-1,1868,1702,0,0
651,-678,0,0,0,0,0,0,0,0,0,-1,1875,1702,0,0
658,-678,0,0,0,0,0,0,0,0,0,-1,1882,1702,0,0
665,-678,0,0,0,0,0,0,0,0,0,-1,1889,1702,0,0
672,-678,0,0,0,0,0,0,0,0,0,-1,1896,1702,0,0
679,-678,0,0,0,0,0,0,0,0,0,-1,1903,1702,0,0
686,-678,0,0,0,0,0,0,0,0,0,-1,1910,1702,0,0
693,-678,0,0,0,0,0,0,0,0,0,-1,1917,1702,0,0
700,-678,0,0,0,0,0,0,0,0,0,-1,1924,1702,0,0
707,-678,0,0,0,0,0,0,0,0,0,-1,1931,1702,0,0
714,-678,0,0,0,0,0,0,0,0,0,-1,1938,1702,0,0
721,-678,0,0,0,0,0,0,0,0,0,-1,1945,1702,0,0
728,-678,0,0,0,0,0,0,0,0,0,-1,1952,1702,0,0
735,-678,0,0,0,0,0,0,0,0,0,-1,1959,1702,0,0
742,-678,0,0,0,0,0,0,0,0,0,-1,1966,1702,0,0
749,-678,0,0,0,0,0,0,0,0,0,-1,1973,1702,0,0
756,-678,0,0,0,0,0,0,0,0,0,-1,1980,1702,0,0
763,-678,0,0,0,0,0,0,0,0,0,-1,1987,1702,0,0
770,-678,0,0,0,0,0,0,0,0,0,-1,1994,1702,0,0
777,-678,0,0,0,0,0,0,0,0,0,-1,2001,1702,0,0
784,-678,0,0,0,0,0,0,0,0,0,-1,2008,1702,0,0
791,-678,0,0,0,0,0,0,0,0,0,-1,2015,1702,0,0
798,-678,0,0,0,0,0,0,0,0,0,-1,2022,1702,0,0
805,-678,0,0,0,0,0,0,0,0,0,-1,2029,1702,0,0
812,-678,0,0,0,0,0,0,0,0,0,-1,2036,1702,0,0
-700,-685,0,0,0,0,0,0,0,0,0,-1,524,1709,0,0
-693,-685,0,0,0,0,0,0,0,0,0,-1,531,1709,0,0
-686,-685,0,0,0,0,0,0,0,0,0,-1,538,1709,0,0
-679,-685,0,0,0,0,0,0,0,0,0,-1,545,1709,0,0
-672,-685,0,0,0,0,0,0,0,0,0,-1,552,1709,0,0
-665,-685,0,0,0,0,0,0,0,0,0,-1,559,1709,0,0
-658,-685,0,0,0,0,0,0,0,0,0,-1,566,1709,0,0
-651,-685,0,0,0,0,0,0,0,0,0,-1,573,1709,0,0
-644,-685,0,0,0,0,0,0,0,0,0,-1,580,1709,0,0
-637,-685,0,0,0,0,0,0,0,0,0,-1,587,1709,0,0
-630,-685,0,0,0,0,0,0,0,0,0,-1,594,1709,0,0
-623,-685,0,0,0,0,0,0,0,0,0,-1,601,1709,0,0
-616,-685,0,0,0,0,0,0,0,0,0,-1,608,1709,0,0
-609,-685,0,0,0,0,0,0,0,0,0,-1,615,1709,0,0
-602,-685,0,0,0,0,0,0,0,0,0,-1,622,1709,0,0
-595,-685,0,0,0,0,0,0,0,0,0,-1,629,1709,0,0
-588,-685,0,0,0,0,0,0,0,0,0,-1,636,1709,0,0
-581,-685,0,0,0,0,0,0,0,0,0,-1,643,1709,0,0
-574,-685,0,0,0,0,0,0,0,0,0,-1,650,1709,0,0
-567,-685,0,0,0,0,0,0,0,0,0,-1,657,1709,0,0
-560,-685,0,0,0,0,0,0,0,0,0,-1,664,1709,0,0
-553,-685,0,0,0,0,0,0,0,0,0,-1,671,1709,0,0
-546,-685,0,0,0,0,0,0,0,0,0,-1,678,1709,0,0
-539,-685,0,0,0,0,0,0,0,0,0,-1,685,1709,0,0
-532,-685,0,0,0,0,0,0,0,0,0,-1,692,1709,0,0
-525,-685,0,0,0,0,0,0,0,0,0,-1,699,1709,0,0
-518,-685,0,0,0,0,0,0,0,0,0,-1,706,1709,0,0
-511,-685,0,0,0,0,0,0,0,0,0,-1,713,1709,0,0
-504,-685,0,0,0,0,0,0,0,0,0,-1,720,1709,0,0
-497,-685,0,0,0,0,0,0,0,0,0,-1,727,1709,0,0
-490,-685,0,0,0,0,0,0,0,0,0,-1,734,1709,0,0
-483,-685,0,0,0,0,0,0,0,0,0,-1,741,1709,0,0
-476,-685,0,0,0,0,0,0,0,0,0,-1,748,1709,0,0
-469,-685,0,0,0,0,0,0,0,0,0,-1,755,1709,0,0
-462,-685,0,0,0,0,0,0,0,0,0,-1,762,1709,0,0
-455,-685,0,0,0,0,0,0,0,0,0,-1,769,1709,0,0
-448,-685,0,0,0,0,0,0,0,0,0,-1,776,1709,0,0
-441,-685,0,0,0,0,0,0,0,0,0,-1,783,1709,0,0
-434,-685,0,0,0,0,0,0,0,0,0,-1,790,1709,0,0
-427,-685,0,0,0,0,0,0,0,0,0,-1,797,1709,0,0
-420,-685,0,0,0,0,0,0,0,0,0,-1,804,1709,0,0
-413,-685,0,0,0,0,0,0,0,0,0,-1,811,1709,0,0
-406,-685,0,0,0,0,0,0,0,0,0,-1,818,1709,0,0
-399,-685,0,0,0,0,0,0,0,0,0,-1,825,1709,0,0
-392,-685,0,0,0,0,0,0,0,0,0,-1,832,1709,0,0
-385,-685,0,0,0,0,0,0,0,0,0,-1,839,1709,0,0
-378,-685,0,0,0,0,0,0,0,0,0,-1,846,1709,0,0
-371,-685,0,0,0,0,0,0,0,0,0,-1,853,1709,0,0
-364,-685,0,0,0,0,0,0,0,0,0,-1,860,1709,0,0
-357,-685,0,0,0,0,0,0,0,0,0,-1,867,1709,0,0
-350,-685,0,0,0,0,0,0,0,0,0,-1,874,1709,0,0
-343,-685,-5.98505,6.56335,0,0,0,0,0,0,0,-1,881,1709,-5.98505,-6.56329
-336,-685,-6.51312,5.10571,0,0,0,0,0,0,0,-1,888,1709,-6.51311,-5.10575
-329,-685,-6.81384,3.34106,0,0,0,0,0,0,0,-1,895,1709,-6.81385,-3.341
-322,-685,3.83191,16.7219,0,0,0,0,0,0,0,-1,902,1709,3.8319,-16.7219
-315,-685,5.15784,21.4388,0,0,0,0,0,0,0,-1,909,1709,5.15783,-21.4389
-308,-685,6.36969,21.0303,0,0,0,0,0,0,0,-1,916,1709,6.36968,-21.0302
-301,-685,6.08997,31.184,0,0,0,0,0,0,0,-1,923,1709,6.08999,-31.1839
-294,-685,8.48956,32.8141,0,0,0,0,0,0,0,-1,930,1709,8.48954,-32.814
-287,-685,8.14886,33.1309,0,0,0,0,0,0,0,-1,937,1709,8.14885,-33.1308
-280,-685,7.96625,33.1675,-0.00981584,-0.00269586,-0.0211957,0.0152367,-0.0277484,-0.868601,0.0251655,0.0464881,944,1709,7.96624,-33.1675
-273,-685,8.0451,33.3877,-0.00964799,-0.00204931,-0.0176993,0.0122539,-0.0239512,-0.891124,0.0212635,0.0460208,951,1709,8.04512,-33.3877
-266,-685,7.83496,33.6969,-0.00869307,-0.00161967,-0.0136074,0.00890315,-0.0192159,-0.91254,0.0165945,0.0440341,958,1709,7.83494,-33.6969
-259,-685,7.44702,34.3088,-0.00766217,-0.00119704,-0.00976453,0.00585609,-0.0147153,-0.945246,0.0122385,0.0418278,965,1709,7.447,-34.3089
-252,-685,7.42822,34.6764,-0.00662637,-0.000607849,-0.00651442,0.00355877,-0.010793,-1.00177,0.00862975,0.0372756,972,1709,7.4282,-34.6764
-245,-685,7.43311,35.0695,-0.00560218,-0.000106053,-0.00366098,0.0017235,-0.00743174,-1.10735,0.00561782,0.032384,979,1709,7.43311,-35.0694
-238,-685,7.37842,35.5137,-0.00460166,0.000169521,-0.00127903,0.000490768,-0.00492291,-1.32472,0.00345716,0.0269289,986,1709,7.3784,-35.5136
-231,-685,7.28638,35.9757,-0.00363716,0.000295387,0.000404043,0.000336471,-0.00367824,1.46946,0.00257167,0.0184563,993,1709,7.28636,-35.9757
-224,-685,7.21716,36.3469,-0.00274355,3.00503e-05,0.00181492,0.000927355,-0.00364085,1.11163,0.00278824,0.0156368,1000,1709,7.21715,-36.347
-217,-685,7.20514,36.7625,-0.00191669,-0.000248801,0.00258029,0.00162896,-0.00379445,0.941699,0.00321333,0.0111514,1007,1709,7.20511,-36.7624
-210,-685,7.1853,37.2003,-0.00117916,-0.00074736,0.00285537,0.00190026,-0.00382678,0.823133,0.00336829,0.0149548,1014,1709,7.18528,-37.2003
-203,-685,7.1665,37.5763,-0.000636665,-0.00100044,0.00285978,0.00204701,-0.00368411,0.75364,0.00335356,0.0163183,1021,1709,7.16647,-37.5763
-196,-685,7.12695,37.9574,-0.000448905,-0.00129351,0.00284808,0.00200801,-0.00375042,0.711796,0.00337499,0.0144655,1028,1709,7.12691,-37.9574
-189,-685,7.13525,38.3341,-0.000366537,-0.00164482,0.00281451,0.00188048,-0.00389184,0.673747,0.00339943,0.00960525,1035,1709,7.13531,-38.3341
-182,-685,7.11584,38.724,-0.00029281,-0.00163439,0.00271232,0.00183044,-0.00375764,0.664174,0.00328961,0.013336,1042,1709,7.11583,-38.724
-175,-685,7.09521,39.0988,-0.000147017,-0.00133926,0.00252505,0.00185133,-0.00333761,0.669479,0.00303652,0.0134879,1049,1709,7.09523,-39.0987
-168,-685,7.07312,39.4542,6.97027e-05,-0.000743281,0.00250623,0.00220219,-0.00287577,0.705002,0.00294034,0.0108982,1056,1709,7.07312,-39.4543
-161,-685,7.09033,39.8135,0.000203843,-3.6111e-05,0.00237023,0.00245713,-0.0022894,0.760111,0.00274098,0.0118107,1063,1709,7.09036,-39.8135
-154,-685,7.10828,40.1593,0.000585909,0.000811679,0.00225848,0.0029601,-0.00156251,0.810369,0.00265236,0.0107597,1070,1709,7.10831,-40.1593
-147,-685,7.08887,40.4822,0.0012557,0.00170095,0.00215911,0.00364888,-0.000692229,0.836772,0.00269315,0.00956441,1077,1709,7.08886,-40.4822
-140,-685,7.11096,40.7772,0.00208307,0.0026227,0.00198841,0.00435952,0.000346254,0.852834,0.00279808,0.0121908,1084,1709,7.11095,-40.7772
-133,-685,7.11694,41.0902,0.00297187,0.00349662,0.00182588,0.00507888,0.00138962,0.856758,0.00303083,0.0114404,1091,1709,7.11697,-41.0902
-126,-685,7.12183,41.4175,0.00384181,0.0042558,0.00152045,0.00558328,0.00251433,0.853052,0.0032288,0.009027,1098,1709,7.12182,-41.4174
-119,-685,7.16064,41.7096,0.00482677,0.00464961,0.00101048,0.00575254,0.00372384,0.74168,0.00336896,0.0128715,1105,1709,7.16058,-41.7096
-112,-685,7.16235,42.004,0.00596737,0.00469922,0.000554268,0.00617547,0.00449111,0.35917,0.00368612,0.0133485,1112,1709,7.16231,-42.004
-105,-685,7.13428,42.2811,0.00699138,0.0044113,0.000373313,0.00704431,0.00435838,0.140843,0.00410507,0.0143339,1119,1709,7.13428,-42.2811
-98,-685,7.2052,42.5497,0.0074215,0.00414186,0.000170711,0.00743036,0.004133,0.0518651,0.00429895,0.0203093,1126,1709,7.20525,-42.5496
-91,-685,7.2428,42.7548,0.00774748,0.00361855,-0.00019755,0.00775691,0.00360912,-0.0477001,0.00448205,0.0363639,1133,1709,7.24276,-42.7548
-84,-685,7.25049,42.9797,0,0,0,0,0,0,0,-1,1140,1709,7.25047,-42.9797
-77,-685,7.25061,43.317,0,0,0,0,0,0,0,-1,1147,1709,7.25056,-43.317
-70,-685,7.37732,43.5714,0,0,0,0,0,0,0,-1,1154,1709,7.37727,-43.5714
-63,-685,6.03015,29.7728,0,0,0,0,0,0,0,-1,1161,1709,6.0302,-29.7728
-56,-685,3.93909,15.8704,0,0,0,0,0,0,0,-1,1168,1709,3.93905,-15.8704
-49,-685,3.07471,9.86011,0,0,0,0,0,0,0,-1,1175,1709,3.07467,-9.86009
-42,-685,2.70618,7.54504,0,0,0,0,0,0,0,-1,1182,1709,2.7062,-7.54504
-35,-685,2.95264,7.91516,0,0,0,0,0,0,0,-1,1189,1709,2.95262,-7.91517
-28,-685,7.67883,43.5864,0,0,0,0,0,0,0,-1,1196,1709,7.67879,-43.5864
-21,-685,7.80347,44.6539,0,0,0,0,0,0,0,-1,1203,1709,7.80351,-44.6539
-14,-685,7.86694,44.8212,0.0266961,0.0056345,-0.00116654,0.0267605,0.00557009,-0.0551624,0.0163039,0.0314678,1210,1709,7.86693,-44.8212
-7,-685,7.94409,45.0173,0.0281424,0.0108467,-0.00222254,0.0284234,0.0105657,-0.12578,0.0165893,0.0435401,1217,1709,7.94415,-45.0174
0,-685,7.97693,45.0709,0,0,0,0,0,0,0,-1,1224,1709,7.97693,-45.071
7,-685,8.12988,45.3805,0.0265615,0.0213417,-0.00124571,0.0268435,0.0210596,-0.222663,0.0163132,0.0461816,1231,1709,8.12993,-45.3805
14,-685,8.21973,45.6957,0.0242779,0.025421,-0.00152498,0.026478,0.0232209,-0.964686,0.0166727,0.0493537,1238,1709,8.21967,-45.6957
21,-685,8.44971,45.9384,0.0215204,0.0297411,-0.00191203,0.030164,0.0210974,-1.3531,0.017871,0.0458974,1245,1709,8.44974,-45.9383
28,-685,8.32166,46.0304,0.0178463,0.0326579,-0.00239873,0.0330367,0.0174675,-1.41418,0.0190842,0.046412,1252,1709,8.32161,-46.0305
35,-685,8.37195,45.7239,0,0,0,0,0,0,0,-1,1259,1709,8.372,-45.7239
42,-685,8.44775,46.0651,0,0,0,0,0,0,0,-1,1266,1709,8.44774,-46.065
49,-685,8.60461,45.9944,0,0,0,0,0,0,0,-1,1273,1709,8.60457,-45.9943
56,-685,8.50684,45.7576,0,0,0,0,0,0,0,-1,1280,1709,8.50684,-45.7576
63,-685,8.43457,45.8069,0.0102522,0.0320482,-0.0113452,0.0368817,0.0054187,-1.16804,0.0229954,0.0483226,1287,1709,8.43457,-45.8068
70,-685,8.63464,45.8004,0.00925228,0.0297312,-0.0133431,0.0363109,0.00267255,-1.11267,0.0233674,0.0483308,1294,1709,8.63461,-45.8004
77,-685,8.78979,45.7638,0,0,0,0,0,0,0,-1,1301,1709,8.78977,-45.7638
84,-685,8.16895,45.7107,0,0,0,0,0,0,0,-1,1308,1709,8.169,-45.7107
91,-685,7.46765,45.8158,0,0,0,0,0,0,0,-1,1315,1709,7.46761,-45.8158
98,-685,8.68982,45.5477,0,0,0,0,0,0,0,-1,1322,1709,8.68983,-45.5477
105,-685,8.8634,45.4185,0,0,0,0,0,0,0,-1,1329,1709,8.86342,-45.4185
112,-685,8.99072,45.2441,0,0,0,0,0,0,0,-1,1336,1709,8.99078,-45.2441
119,-685,9.06897,45.1517,-0.0097978,0.0180029,-0.021299,0.0295361,-0.021331,-1.07451,0.0294952,0.0452383,1343,1709,9.06893,-45.1518
126,-685,8.72974,45.186,-0.017412,0.0167741,-0.0205669,0.0264237,-0.0270615,-1.13211,0.0308805,0.0470843,1350,1709,8.72969,-45.186
133,-685,9.34558,44.9441,0,0,0,0,0,0,0,-1,1357,1709,9.34557,-44.9441
140,-685,9.44336,44.959,0,0,0,0,0,0,0,-1,1364,1709,9.4433,-44.959
147,-685,9.54102,44.8629,0,0,0,0,0,0,0,-1,1371,1709,9.54101,-44.863
154,-685,9.47571,44.7693,0,0,0,0,0,0,0,-1,1378,1709,9.47569,-44.7693
161,-685,9.72473,44.6727,0,0,0,0,0,0,0,-1,1385,1709,9.72478,-44.6727
168,-685,4.37524,10.8778,0,0,0,0,0,0,0,-1,1392,1709,4.37525,-10.8778
175,-685,3.97522,8.94324,0,0,0,0,0,0,0,-1,1399,1709,3.97519,-8.94328
182,-685,3.98218,9.19739,0,0,0,0,0,0,0,-1,1406,1709,3.98221,-9.1974
189,-685,4.53479,15.2343,0,0,0,0,0,0,0,-1,1413,1709,4.53474,-15.2343
196,-685,9.7168,43.9094,0,0,0,0,0,0,0,-1,1420,1709,9.7168,-43.9095
203,-685,9.80359,43.5371,0,0,0,0,0,0,0,-1,1427,1709,9.80358,-43.5371
210,-685,9.98828,43.2646,0,0,0,0,0,0,0,-1,1434,1709,9.98827,-43.2647
217,-685,9.90576,42.9177,0,0,0,0,0,0,0,-1,1441,1709,9.90575,-42.9178
224,-685,9.85352,42.7428,0,0,0,0,0,0,0,-1,1448,1709,9.85355,-42.7428
231,-685,9.84192,42.7012,0,0,0,0,0,0,0,-1,1455,1709,9.84194,-42.7012
238,-685,9.95959,42.2362,0.00287096,-0.00146666,0.00228762,0.00385444,-0.00245015,0.406026,0.00366993,0.0215767,1462,1709,9.95963,-42.2362
245,-685,9.96814,41.9323,0.00266571,-0.000385465,0.00223845,0.00384902,-0.00156877,0.486285,0.00321898,0.0180237,1469,1709,9.96816,-41.9323
252,-685,9.97278,41.6836,0.00247883,-8.71474e-05,0.0021812,0.00372639,-0.00133471,0.519548,0.00302883,0.0145648,1476,1709,9.97283,-41.6836
259,-685,9.99463,41.4222,0.00231591,0.000407896,0.0019836,0.00356299,-0.000839187,0.561253,0.0026989,0.0113617,1483,1709,9.99464,-41.4223
266,-685,10.0336,41.1283,0.0021383,0.00075538,0.00175425,0.00333244,-0.000438764,0.597666,0.00238139,0.0123631,1490,1709,10.0335,-41.1283
273,-685,10.0347,40.808,0.00195373,0.00111899,0.00150796,0.00310101,-2.82933e-05,0.650388,0.00207684,0.0152875,1497,1709,10.0346,-40.808
280,-685,10.0072,40.48,0.00179028,0.00152863,0.00109343,0.00276068,0.00055823,0.725857,0.00168548,0.0169292,1504,1709,10.0072,-40.48
287,-685,10.0005,40.1744,0.00161539,0.0020008,0.00059844,0.00243679,0.00117939,0.941162,0.00140712,0.0123641,1511,1709,10.0005,-40.1744
294,-685,10.0143,39.859,0.00143207,0.0024028,1.32295e-05,0.00240298,0.00143189,1.55717,0.00139584,0.0109212,1518,1709,10.0143,-39.859
301,-685,10.0304,39.5066,0.00123758,0.00274966,-0.000518747,0.00291051,0.00107673,-1.27012,0.00169923,0.0132923,1525,1709,10.0304,-39.5066
308,-685,10.031,39.1577,0.000998445,0.00282465,-0.000986479,0.00325576,0.000567339,-1.15879,0.00200829,0.0143496,1532,1709,10.031,-39.1577
315,-685,10.0004,38.8149,0.000729376,0.00271076,-0.00123056,0.00329986,0.000140277,-1.12431,0.00215467,0.0129151,1539,1709,10.0003,-38.8149
322,-685,9.93896,38.4442,0.000581714,0.00253938,-0.00142243,0.00328723,-0.000166133,-1.08676,0.00224891,0.0206695,1546,1709,9.93897,-38.4442
329,-685,9.94629,38.0968,0.000447554,0.00176822,-0.0014918,0.0027393,-0.000523521,-0.993758,0.00202341,0.0192246,1553,1709,9.94628,-38.0968
336,-685,9.96545,37.7251,0.000677436,0.00131974,-0.000596826,0.00167633,0.000320841,-1.03223,0.00102744,0.0130691,1560,1709,9.96544,-37.7251
343,-685,9.94141,37.351,0.00104094,0.000803742,0.00130446,0.00223218,-0.000387503,0.740064,0.00163269,0.0116196,1567,1709,9.94146,-37.351
350,-685,9.93445,36.9534,0.00136333,-0.000317987,0.00308814,0.0037232,-0.00267785,0.652507,0.00371204,0.0124358,1574,1709,9.9345,-36.9533
357,-685,9.91846,36.5778,0.00210065,-0.00128561,0.00507223,0.00575487,-0.00493984,0.624311,0.00618057,0.0101345,1581,1709,9.9185,-36.5777
364,-685,9.88538,36.2076,0.00281219,-0.00222053,0.00754905,0.00825324,-0.00766157,0.624522,0.00919054,0.0109107,1588,1709,9.88539,-36.2077
371,-685,9.87744,35.8129,0.00369029,-0.00311365,0.0104586,0.0112863,-0.0107096,0.628155,0.0127008,0.0183877,1595,1709,9.8775,-35.8128
378,-685,9.86902,35.391,0.00441495,-0.00431183,0.0137863,0.0145119,-0.0144088,0.632135,0.0166974,0.0222705,1602,1709,9.86901,-35.391
385,-685,9.79565,35.0449,0.00527768,-0.00501548,0.0169711,0.0178654,-0.0176032,0.638178,0.020478,0.0335043,1609,1709,9.79564,-35.0449
392,-685,9.5188,34.8149,0.00588477,-0.00610609,0.020158,0.02092,-0.0211413,0.640853,0.0242843,0.0358749,1616,1709,9.51886,-34.815
399,-685,9.32214,34.6196,0.00603397,-0.00682722,0.022984,0.02347,-0.0242633,0.648993,0.0275601,0.041971,1623,1709,9.32212,-34.6196
406,-685,9.61304,33.8954,0.00559418,-0.0075727,0.025563,0.0254079,-0.0273864,0.659368,0.0304879,0.0483738,1630,1709,9.61308,-33.8954
413,-685,9.76465,33.3903,0,0,0,0,0,0,0,-1,1637,1709,9.76463,-33.3903
420,-685,4.84631,10.3781,0,0,0,0,0,0,0,-1,1644,1709,4.84634,-10.378
427,-685,6.05151,9.21155,0,0,0,0,0,0,0,-1,1651,1709,6.05156,-9.21156
434,-685,4.87769,8.91418,0,0,0,0,0,0,0,-1,1658,1709,4.87768,-8.91413
441,-685,5.62,8.75549,0,0,0,0,0,0,0,-1,1665,1709,5.61996,-8.75545
448,-685,6.4043,8.58972,0,0,0,0,0,0,0,-1,1672,1709,6.40435,-8.58971
455,-685,2.31958,4.09802,0,0,0,0,0,0,0,-1,1679,1709,2.31957,-4.09803
462,-685,0,0,0,0,0,0,0,0,0,-1,1686,1709,0,0
469,-685,0,0,0,0,0,0,0,0,0,-1,1693,1709,0,0
476,-685,0,0,0,0,0,0,0,0,0,-1,1700,1709,0,0
483,-685,0,0,0,0,0,0,0,0,0,-1,1707,1709,0,0
490,-685,0,0,0,0,0,0,0,0,0,-1,1714,1709,0,0
497,-685,0,0,0,0,0,0,0,0,0,-1,1721,1709,0,0
504,-685,0,0,0,0,0,0,0,0,0,-1,1728,1709,0,0
511,-685,0,0,0,0,0,0,0,0,0,-1,1735,1709,0,0
518,-685,0,0,0,0,0,0,0,0,0,-1,1742,1709,0,0
525,-685,0,0,0,0,0,0,0,0,0,-1,1749,1709,0,0
532,-685,0,0,0,0,0,0,0,0,0,-1,1756,1709,0,0
539,-685,0,0,0,0,0,0,0,0,0,-1,1763,1709,0,0
546,-685,0,0,0,0,0,0,0,0,0,-1,1770,1709,0,0
553,-685,0,0,0,0,0,0,0,0,0,-1,1777,1709,0,0
560,-685,0,0,0,0,0,0,0,0,0,-1,1784,1709,0,0
567,-685,0,0,0,0,0,0,0,0,0,-1,1791,1709,0,0
574,-685,0,0,0,0,0,0,0,0,0,-1,1798,1709,0,0
581,-685,0,0,0,0,0,0,0,0,0,-1,1805,1709,0,0
588,-685,0,0,0,0,0,0,0,0,0,-1,1812,1709,0,0
595,-685,0,0,0,0,0,0,0,0,0,-1,1819,1709,0,0
602,-685,0,0,0,0,0,0,0,0,0,-1,1826,1709,0,0
609,-685,0,0,0,0,0,0,0,0,0,-1,1833,1709,0,0
616,-685,0,0,0,0,0,0,0,0,0,-1,1840,1709,0,0
623,-685,0,0,0,0,0,0,0,0,0,-1,1847,1709,0,0
630,-685,0,0,0,0,0,0,0,0,0,-1,1854,1709,0,0
637,-685,0,0,0,0,0,0,0,0,0,-1,1861,1709,0,0
644,-685,0,0,0,0,0,0,0,0,0,-1,1868,1709,0,0
651,-685,0,0,0,0,0,0,0,0,0,-1,1875,1709,0,0
658,-685,0,0,0,0,0,0,0,0,0,-1,1882,1709,0,0
665,-685,0,0,0,0,0,0,0,0,0,-1,1889,1709,0,0
672,-685,0,0,0,0,0,0,0,0,0,-1,1896,1709,0,0
679,-685,0,0,0,0,0,0,0,0,0,-1,1903,1709,0,0
686,-685,0,0,0,0,0,0,0,0,0,-1,1910,1709,0,0
693,-685,0,0,0,0,0,0,0,0,0,-1,1917,1709,0,0
700,-685,0,0,0,0,0,0,0,0,0,-1,1924,1709,0,0
707,-685,0,0,0,0,0,0,0,0,0,-1,1931,1709,0,0
714,-685,0,0,0,0,0,0,0,0,0,-1,1938,1709,0,0
721,-685,0,0,0,0,0,0,0,0,0,-1,1945,1709,0,0
728,-685,0,0,0,0,0,0,0,0,0,-1,1952,1709,0,0
735,-685,0,0,0,0,0,0,0,0,0,-1,1959,1709,0,0
742,-685,0,0,0,0,0,0,0,0,0,-1,1966,1709,0,0
749,-685,0,0,0,0,0,0,0,0,0,-1,1973,1709,0,0
756,-685,0,0,0,0,0,0,0,0,0,-1,1980,1709,0,0
763,-685,0,0,0,0,0,0,0,0,0,-1,1987,1709,0,0
770,-685,0,0,0,0,0,0,0,0,0,-1,1994,1709,0,0
777,-685,0,0,0,0,0,0,0,0,0,-1,2001,1709,0,0
784,-685,0,0,0,0,0,0,0,0,0,-1,2008,1709,0,0
791,-685,0,0,0,0,0,0,0,0,0,-1,2015,1709,0,0
798,-685,0,0,0,0,0,0,0,0,0,-1,2022,1709,0,0
805,-685,0,0,0,0,0,0,0,0,0,-1,2029,1709,0,0
812,-685,0,0,0,0,0,0,0,0,0,-1,2036,1709,0,0
-700,-692,0,0,0,0,0,0,0,0,0,-1,524,1716,0,0
-693,-692,0,0,0,0,0,0,0,0,0,-1,531,1716,0,0
-686,-692,0,0,0,0,0,0,0,0,0,-1,538,1716,0,0
-679,-692,0,0,0,0,0,0,0,0,0,-1,545,1716,0,0
-672,-692,0,0,0,0,0,0,0,0,0,-1,552,1716,0,0
-665,-692,0,0,0,0,0,0,0,0,0,-1,559,1716,0,0
-658,-692,0,0,0,0,0,0,0,0,0,-1,566,1716,0,0
-651,-692,0,0,0,0,0,0,0,0,0,-1,573,1716,0,0
-644,-692,0,0,0,0,0,0,0,0,0,-1,580,1716,0,0
-637,-692,0,0,0,0,0,0,0,0,0,-1,587,1716,0,0
-630,-692,0,0,0,0,0,0,0,0,0,-1,594,1716,0,0
-623,-692,0,0,0,0,0,0,0,0,0,-1,601,1716,0,0
-616,-692,0,0,0,0,0,0,0,0,0,-1,608,1716,0,0
-609,-692,0,0,0,0,0,0,0,0,0,-1,615,1716,0,0
-602,-692,0,0,0,0,0,0,0,0,0,-1,622,1716,0,0
-595,-692,0,0,0,0,0,0,0,0,0,-1,629,1716,0,0
-588,-692,0,0,0,0,0,0,0,0,0,-1,636,1716,0,0
-581,-692,0,0,0,0,0,0,0,0,0,-1,643,1716,0,0
-574,-692,0,0,0,0,0,0,0,0,0,-1,650,1716,0,0
-567,-692,0,0,0,0,0,0,0,0,0,-1,657,1716,0,0
-560,-692,0,0,0,0,0,0,0,0,0,-1,664,1716,0,0
-553,-692,0,0,0,0,0,0,0,0,0,-1,671,1716,0,0
-546,-692,0,0,0,0,0,0,0,0,0,-1,678,1716,0,0
-539,-692,0,0,0,0,0,0,0,0,0,-1,685,1716,0,0
-532,-692,0,0,0,0,0,0,0,0,0,-1,692,1716,0,0
-525,-692,0,0,0,0,0,0,0,0,0,-1,699,1716,0,0
-518,-692,0,0,0,0,0,0,0,0,0,-1,706,1716,0,0
-511,-692,0,0,0,0,0,0,0,0,0,-1,713,1716,0,0
-504,-692,0,0,0,0,0,0,0,0,0,-1,720,1716,0,0
-497,-692,0,0,0,0,0,0,0,0,0,-1,727,1716,0,0
-490,-692,0,0,0,0,0,0,0,0,0,-1,734,1716,0,0
-483,-692,0,0,0,0,0,0,0,0,0,-1,741,1716,0,0
-476,-692,0,0,0,0,0,0,0,0,0,-1,748,1716,0,0
-469,-692,0,0,0,0,0,0,0,0,0,-1,755,1716,0,0
-462,-692,0,0,0,0,0,0,0,0,0,-1,762,1716,0,0
-455,-692,0,0,0,0,0,0,0,0,0,-1,769,1716,0,0
-448,-692,0,0,0,0,0,0,0,0,0,-1,776,1716,0,0
-441,-692,0,0,0,0,0,0,0,0,0,-1,783,1716,0,0
-434,-692,0,0,0,0,0,0,0,0,0,-1,790,1716,0,0
-427,-692,0,0,0,0,0,0,0,0,0,-1,797,1716,0,0
-420,-692,0,0,0,0,0,0,0,0,0,-1,804,1716,0,0
-413,-692,0,0,0,0,0,0,0,0,0,-1,811,1716,0,0
-406,-692,0,0,0,0,0,0,0,0,0,-1,818,1716,0,0
-399,-692,0,0,0,0,0,0,0,0,0,-1,825,1716,0,0
-392,-692,0,0,0,0,0,0,0,0,0,-1,832,1716,0,0
-385,-692,0,0,0,0,0,0,0,0,0,-1,839,1716,0,0
-378,-692,0,0,0,0,0,0,0,0,0,-1,846,1716,0,0
-371,-692,0,0,0,0,0,0,0,0,0,-1,853,1716,0,0
-364,-692,0,0,0,0,0,0,0,0,0,-1,860,1716,0,0
-357,-692,0,0,0,0,0,0,0,0,0,-1,867,1716,0,0
-350,-692,0,0,0,0,0,0,0,0,0,-1,874,1716,0,0
-343,-692,0,0,0,0,0,0,0,0,0,-1,881,1716,0,0
-336,-692,0,0,0,0,0,0,0,0,0,-1,888,1716,0,0
-329,-692,3.03107,4.10266,0,0,0,0,0,0,0,-1,895,1716,3.03105,-4.10267
-322,-692,4.43713,18.5242,0,0,0,0,0,0,0,-1,902,1716,4.43711,-18.5241
-315,-692,5.38965,17.975,0,0,0,0,0,0,0,-1,909,1716,5.38963,-17.975
-308,-692,5.86938,17.4392,0,0,0,0,0,0,0,-1,916,1716,5.86937,-17.4392
-301,-692,8.65558,20.7662,0,0,0,0,0,0,0,-1,923,1716,8.65556,-20.7663
-294,-692,7.04529,27.412,0,0,0,0,0,0,0,-1,930,1716,7.04529,-27.412
-287,-692,9.32043,32.2643,0,0,0,0,0,0,0,-1,937,1716,9.32045,-32.2642
-280,-692,9.13916,33.1484,-0.0121704,-0.00321252,-0.0293446,0.021993,-0.0373759,-0.86113,0.0346581,0.04691,944,1716,9.13917,-33.1485
-273,-692,9.04224,33.604,-0.0120851,-0.00205227,-0.0241467,0.0175936,-0.031731,-0.887815,0.0288649,0.0471403,951,1716,9.04225,-33.604
-266,-692,8.69006,33.6898,0,0,0,0,0,0,0,-1,958,1716,8.69005,-33.6898
-259,-692,7.96741,34.439,0,0,0,0,0,0,0,-1,965,1716,7.96738,-34.4389
-252,-692,8.12811,34.3245,0,0,0,0,0,0,0,-1,972,1716,8.12809,-34.3244
-245,-692,8.1236,34.816,-0.00661753,3.15751e-05,-0.00423821,0.00209359,-0.00867954,-1.11798,0.00659592,0.0470415,979,1716,8.12359,-34.8161
-238,-692,8.16522,35.4309,-0.00528895,0.000244178,-0.00105107,0.000437113,-0.00548189,-1.38926,0.00380867,0.0429829,986,1716,8.16525,-35.4309
-231,-692,7.9212,35.9967,-0.0039642,0.000193196,0.00115065,0.000490417,-0.00426142,1.31802,0.00301773,0.0380902,993,1716,7.92121,-35.9967
-224,-692,7.64001,36.3899,-0.0030057,-0.000500611,0.00284866,0.00135871,-0.00486502,0.992524,0.00377858,0.0187425,1000,1716,7.64004,-36.3899
-217,-692,7.57208,36.7693,-0.00234465,-0.00111505,0.00364837,0.00196996,-0.00542966,0.86887,0.00442509,0.0120815,1007,1716,7.57209,-36.7692
-210,-692,7.56122,37.1748,-0.00182634,-0.0018683,0.00379767,0.00195041,-0.00564504,0.782636,0.00455489,0.0132453,1014,1716,7.56119,-37.1749
-203,-692,7.54712,37.5675,-0.00140944,-0.00223304,0.00355421,0.00175675,-0.00539923,0.727724,0.00430622,0.0162526,1021,1716,7.54713,-37.5675
-196,-692,7.50854,37.9791,-0.00136648,-0.0026199,0.00326799,0.00133435,-0.00532073,0.690662,0.00406559,0.0191853,1028,1716,7.50859,-37.9791
-189,-692,7.48486,38.3346,-0.00137316,-0.00298876,0.00297334,0.000900156,-0.00526208,0.65276,0.0038434,0.00989664,1035,1716,7.4848,-38.3346
-182,-692,7.46277,38.7224,-0.00134647,-0.00296284,0.00261978,0.000586954,-0.00489627,0.635783,0.00347639,0.0137068,1042,1716,7.46272,-38.7224
-175,-692,7.43872,39.1061,-0.00118318,-0.00265468,0.00218225,0.000384011,-0.00422187,0.622807,0.00295093,0.0149283,1049,1716,7.43868,-39.106
-168,-692,7.44788,39.4714,-0.000960413,-0.00200832,0.00200417,0.000587157,-0.00355589,0.657544,0.0025886,0.0118009,1056,1716,7.44791,-39.4714
-161,-692,7.46631,39.8533,-0.000782259,-0.00123476,0.00174059,0.00074672,-0.00276374,0.720767,0.00213538,0.014089,1063,1716,7.46635,-39.8532
-154,-692,7.4541,40.205,-0.000370338,-0.000350316,0.00157594,0.00121565,-0.0019363,0.788574,0.00183557,0.0148074,1070,1716,7.45414,-40.2049
-147,-692,7.427,40.495,0.000315386,0.00050515,0.00150752,0.00192078,-0.00110024,0.816826,0.0017655,0.0142987,1077,1716,7.42695,-40.495
-140,-692,7.40588,40.7843,0.00112601,0.00137355,0.00138986,0.00264514,-0.000145584,0.829808,0.00181391,0.0111421,1084,1716,7.40594,-40.7843
-133,-692,7.41296,41.0955,0.0019719,0.00215672,0.00126264,0.00333032,0.000798291,0.821927,0.00200774,0.00975304,1091,1716,7.41299,-41.0955
-126,-692,7.42017,41.4127,0.00278796,0.00280189,0.00110362,0.00389856,0.00169128,0.788554,0.0022574,0.00742569,1098,1716,7.42011,-41.4127
-119,-692,7.42627,41.7111,0.00353627,0.00313701,0.000870998,0.00423022,0.00244306,0.672747,0.00245209,0.0111731,1105,1716,7.42628,-41.7111
-112,-692,7.44214,42.0077,0.00422896,0.00321364,0.000620252,0.00452282,0.00291978,0.442448,0.00264788,0.0112392,1112,1716,7.44215,-42.0077
-105,-692,7.47229,42.2838,0.00471488,0.00300954,0.000456173,0.00482924,0.00289518,0.245625,0.00280651,0.0158498,1119,1716,7.47228,-42.2838
-98,-692,7.52869,42.5564,0.00506158,0.00277899,0.000252158,0.00508911,0.00275146,0.108723,0.00294143,0.01818,1126,1716,7.52867,-42.5563
-91,-692,7.51147,42.7758,0.00534971,0.00240468,-6.15681e-05,0.00535099,0.00240339,-0.0208936,0.00309472,0.0197335,1133,1716,7.51153,-42.7757
-84,-692,7.5155,42.9874,0.00552858,0.00216148,-0.000418645,0.00557985,0.00211021,-0.121862,0.00325324,0.0220294,1140,1716,7.51544,-42.9874
-77,-692,7.52478,43.2651,0.0054277,0.0014329,-0.000868955,0.00560853,0.00125207,-0.205173,0.00339941,0.0188228,1147,1716,7.52483,-43.2651
-70,-692,7.58813,43.4828,0.0051669,0.000288126,-0.00133779,0.00550966,-5.46267e-05,-0.250812,0.00369145,0.0341687,1154,1716,7.58813,-43.4827
-63,-692,7.62207,43.6719,0,0,0,0,0,0,0,-1,1161,1716,7.62212,-43.6718
-56,-692,7.59937,43.8551,0,0,0,0,0,0,0,-1,1168,1716,7.59933,-43.8551
-49,-692,7.64392,44.1436,0,0,0,0,0,0,0,-1,1175,1716,7.64398,-44.1436
-42,-692,7.69458,44.4573,0,0,0,0,0,0,0,-1,1182,1716,7.69464,-44.4572
-35,-692,7.7666,44.6215,0,0,0,0,0,0,0,-1,1189,1716,7.76662,-44.6214
-28,-692,7.80005,44.5839,0,0,0,0,0,0,0,-1,1196,1716,7.8,-44.5839
-21,-692,7.88867,44.6921,0.0244811,0.00312333,0.00082028,0.0245125,0.00309187,0.0383314,0.0154148,0.035493,1203,1716,7.88867,-44.6921
-14,-692,7.94385,44.8176,0.0260503,0.00665228,0.000666686,0.0260732,0.0066294,0.0343148,0.0156476,0.0173818,1210,1716,7.94384,-44.8176
-7,-692,7.98486,45.0095,0.0271777,0.010819,-0.000225347,0.0271808,0.0108159,-0.0137719,0.0158015,0.015855,1217,1716,7.98484,-45.0095
0,-692,8.04724,45.1079,0.0270547,0.0150938,0.000546503,0.0270796,0.0150688,0.0455643,0.0156676,0.0196183,1224,1716,8.04724,-45.1079
7,-692,8.11401,45.2267,0.0254761,0.0189272,0.000743476,0.0255595,0.0188439,0.111634,0.0153005,0.0246607,1231,1716,8.11403,-45.2267
14,-692,8.203,45.49,0.0234886,0.0218569,0.000522673,0.0236417,0.0217039,0.284894,0.0151565,0.027977,1238,1716,8.20306,-45.49
21,-692,8.32043,45.5781,0.021118,0.0248243,0.000221152,0.0248375,0.0211048,1.51141,0.015465,0.0291831,1245,1716,8.32048,-45.5781
28,-692,8.33765,45.5287,0.018052,0.0266136,-0.000117458,0.0266152,0.0180504,-1.55708,0.0156882,0.0300383,1252,1716,8.33771,-45.5287
35,-692,8.36548,45.5981,0.0146123,0.0274168,-0.00087618,0.0274765,0.0145526,-1.50279,0.0158728,0.0284416,1259,1716,8.36545,-45.5981
42,-692,8.43115,45.7697,0.0111322,0.0278682,-0.00195026,0.0280925,0.0109079,-1.45631,0.0163536,0.0268038,1266,1716,8.43116,-45.7696
49,-692,8.54272,45.7712,0.0129302,0.0274744,-0.00373626,0.0283781,0.0120265,-1.33349,0.0164474,0.0349764,1273,1716,8.5427,-45.7713
56,-692,8.57507,45.6892,0.0142419,0.0259097,-0.00541043,0.0280323,0.0121192,-1.19692,0.0162338,0.0450108,1280,1716,8.57512,-45.6892
63,-692,8.53577,45.7013,0.0135489,0.0237509,-0.00708813,0.0273827,0.00991706,-1.0973,0.0160084,0.0432442,1287,1716,8.53578,-45.7013
70,-692,8.66467,45.8322,0.0128917,0.0215292,-0.00866226,0.0268897,0.0075313,-1.01665,0.0160175,0.0371556,1294,1716,8.66465,-45.8322
77,-692,8.81482,45.7727,0.0129663,0.0198154,-0.0104679,0.0274047,0.00537696,-0.943485,0.0167673,0.0428767,1301,1716,8.8148,-45.7728
84,-692,8.73169,45.4989,0,0,0,0,0,0,0,-1,1308,1716,8.73174,-45.4989
91,-692,8.83386,45.5409,0.0125266,0.0158404,-0.0132541,0.0275408,0.000826253,-0.847582,0.0180914,0.0472975,1315,1716,8.8339,-45.5409
98,-692,8.854,45.524,0.0109221,0.0143969,-0.0139455,0.0267128,-0.00139381,-0.847371,0.0182909,0.0370407,1322,1716,8.85395,-45.524
105,-692,8.89587,45.4286,0.00829325,0.0132392,-0.0151717,0.0261382,-0.00460573,-0.866187,0.0191463,0.0437088,1329,1716,8.89585,-45.4286
112,-692,8.98706,45.3109,0.0046545,0.0124265,-0.0152861,0.0243129,-0.00723185,-0.90987,0.0190816,0.0439147,1336,1716,8.98703,-45.3109
119,-692,8.99231,45.1995,-0.000488276,0.0119151,-0.0148289,0.0217869,-0.0103601,-0.983453,0.0189469,0.0363281,1343,1716,8.99229,-45.1995
126,-692,9.09058,45.085,-0.0061376,0.0109771,-0.0141085,0.0189206,-0.0140811,-1.058,0.0191217,0.0382391,1350,1716,9.09062,-45.0849
133,-692,9.20154,45.0122,-0.0111983,0.0108668,-0.0132409,0.0170691,-0.0174005,-1.13273,0.0199013,0.0287682,1357,1716,9.20156,-45.0122
140,-692,9.24976,45.0084,-0.0152061,0.0107663,-0.0121957,0.0155951,-0.0200349,-1.19379,0.0206242,0.0323868,1364,1716,9.2497,-45.0085
147,-692,9.31885,44.8851,-0.0173407,0.0106635,-0.01086,0.0143814,-0.0210587,-1.24095,0.0205821,0.0377834,1371,1716,9.31881,-44.8851
154,-692,9.29883,44.748,-0.024113,0.00989492,-0.00889421,0.0120806,-0.0262986,-1.32983,0.0226594,0.0325927,1378,1716,9.2988,-44.748
161,-692,9.45215,44.6547,-0.0252119,0.00861888,-0.00746162,0.0101915,-0.0267845,-1.36308,0.022053,0.0413826,1385,1716,9.45213,-44.6546
168,-692,9.40332,44.4933,0,0,0,0,0,0,0,-1,1392,1716,9.40337,-44.4933
175,-692,9.53137,44.2596,0,0,0,0,0,0,0,-1,1399,1716,9.5314,-44.2596
182,-692,9.5238,44.0271,0,0,0,0,0,0,0,-1,1406,1716,9.52374,-44.0272
189,-692,9.52258,43.8607,0,0,0,0,0,0,0,-1,1413,1716,9.52257,-43.8607
196,-692,9.54297,43.6688,0.00478232,0.000272517,0.00226097,0.00572063,-0.000665786,0.393371,0.00405394,0.0381038,1420,1716,9.54301,-43.6688
203,-692,9.5968,43.479,0.00432595,-0.000291106,0.0020123,0.00507988,-0.00104504,0.358473,0.00378335,0.0252479,1427,1716,9.59686,-43.479
210,-692,9.65955,43.2698,0.00386111,-0.000572471,0.00158918,0.0043719,-0.00108325,0.310984,0.00333485,0.0206252,1434,1716,9.65956,-43.2698
217,-692,9.63489,42.9862,0.00330317,-0.000878846,0.00103364,0.0035447,-0.00112038,0.229549,0.002812,0.0181993,1441,1716,9.63485,-42.9863
224,-692,9.64966,42.7753,0.0029895,-0.000867844,0.000792055,0.00314581,-0.00102415,0.194837,0.00250925,0.0144042,1448,1716,9.64971,-42.7753
231,-692,9.64001,42.5331,0.0025713,-0.00103191,0.000952256,0.00280748,-0.00126809,0.243117,0.00240833,0.0123216,1455,1716,9.64001,-42.533
238,-692,9.651,42.2239,0.00233147,-0.000863675,0.00103383,0.0026368,-0.001169,0.287176,0.0022511,0.01729,1462,1716,9.65099,-42.2239
245,-692,9.65833,41.9419,0.00210164,-0.000166843,0.00101005,0.00248618,-0.000551385,0.363773,0.00186857,0.0198715,1469,1716,9.6583,-41.9419
252,-692,9.68506,41.6685,0.00186397,0.000136236,0.000965236,0.00229546,-0.000295253,0.420381,0.00163762,0.0196086,1476,1716,9.68511,-41.6684
259,-692,9.69385,41.4309,0.00162044,0.000517937,0.000849566,0.00208192,5.64487e-05,0.497612,0.00136952,0.0102495,1483,1716,9.69381,-41.4309
266,-692,9.68933,41.1388,0.00137635,0.000826086,0.000686354,0.00184067,0.000361774,0.594773,0.00112606,0.00986124,1490,1716,9.68933,-41.1388
273,-692,9.68359,40.8014,0.00120058,0.00125263,0.000420755,0.00164816,0.000805046,0.816288,0.000951653,0.0150003,1497,1716,9.68364,-40.8014
280,-692,9.70569,40.4601,0.00103612,0.00164587,2.3777e-05,0.00164679,0.00103519,1.53188,0.000961203,0.0144876,1504,1716,9.7057,-40.46
287,-692,9.69019,40.1672,0.000867382,0.0021966,-0.000468498,0.00234513,0.000718852,-1.26378,0.00138734,0.0106347,1511,1716,9.69016,-40.1672
294,-692,9.68701,39.8811,0.000717163,0.00261803,-0.00104753,0.00308204,0.00025316,-1.15382,0.00197572,0.0107906,1518,1716,9.68701,-39.8811
301,-692,9.70007,39.5336,0.000588567,0.00303604,-0.00151838,0.00376244,-0.000137825,-1.12458,0.00255547,0.0141617,1525,1716,9.70005,-39.5336
308,-692,9.68677,39.2012,0.000430234,0.00309093,-0.00194783,0.00411936,-0.0005982,-1.08501,0.00296582,0.0165054,1532,1716,9.68678,-39.2012
315,-692,9.67517,38.8534,0.000212429,0.00303464,-0.00214498,0.00419105,-0.000943981,-1.07634,0.00315611,0.0149959,1539,1716,9.67519,-38.8533
322,-692,9.63,38.455,0.000132363,0.00296519,-0.00227668,0.00423011,-0.00113255,-1.06367,0.00326376,0.0198208,1546,1716,9.63004,-38.455
329,-692,9.62451,38.0967,6.90363e-05,0.00215346,-0.00224393,0.0035854,-0.0013629,-1.0028,0.00295139,0.0178938,1553,1716,9.6245,-38.0966
336,-692,9.61194,37.738,0.000544815,0.00174102,-0.000815217,0.00215401,0.000131827,-1.10188,0.00139414,0.0122127,1560,1716,9.61191,-37.7381
343,-692,9.58826,37.3879,0.00125805,0.00131996,0.00194075,0.00323,-0.000651994,0.793373,0.00240036,0.0132452,1567,1716,9.58831,-37.388
350,-692,9.5874,37.0134,0.00189645,0.000220853,0.00448469,0.00562092,-0.00350362,0.693056,0.00531512,0.0172101,1574,1716,9.58746,-37.0134
357,-692,9.53552,36.5297,0.003095,-0.000791804,0.00735311,0.00875719,-0.006454,0.656204,0.00881567,0.0255664,1581,1716,9.53547,-36.5297
364,-692,9.49792,36.0859,0.00437959,-0.00166051,0.0109627,0.0127307,-0.0100116,0.65099,0.0131615,0.0314648,1588,1716,9.49789,-36.0859
371,-692,9.71948,35.8184,0.00591083,-0.0025477,0.0152685,0.0175249,-0.0141618,0.650289,0.0183287,0.0393233,1595,1716,9.71951,-35.8184
378,-692,9.83362,35.7949,0.00727876,-0.00375939,0.0201706,0.0226717,-0.0191523,0.651857,0.0241756,0.0459572,1602,1716,9.83365,-35.7949
385,-692,8.20569,34.8849,0,0,0,0,0,0,0,-1,1609,1716,8.20574,-34.8848
392,-692,8.46106,34.7048,0,0,0,0,0,0,0,-1,1616,1716,8.4611,-34.7048
399,-692,8.51941,34.8605,0,0,0,0,0,0,0,-1,1623,1716,8.51938,-34.8605
406,-692,9.07373,33.9771,0,0,0,0,0,0,0,-1,1630,1716,9.07379,-33.9771
413,-692,8.40808,32.6432,0,0,0,0,0,0,0,-1,1637,1716,8.40802,-32.6432
420,-692,5.48901,10.4845,0,0,0,0,0,0,0,-1,1644,1716,5.48906,-10.4845
427,-692,3.79578,8.60339,0,0,0,0,0,0,0,-1,1651,1716,3.79577,-8.6034
434,-692,4.78516,8.64636,0,0,0,0,0,0,0,-1,1658,1716,4.78512,-8.64634
441,-692,5.8208,8.74036,0,0,0,0,0,0,0,-1,1665,1716,5.82084,-8.7404
448,-692,6.73792,8.51013,0,0,0,0,0,0,0,-1,1672,1716,6.73793,-8.5101
455,-692,0,0,0,0,0,0,0,0,0,-1,1679,1716,0,0
462,-692,0,0,0,0,0,0,0,0,0,-1,1686,1716,0,0
469,-692,0,0,0,0,0,0,0,0,0,-1,1693,1716,0,0
476,-692,0,0,0,0,0,0,0,0,0,-1,1700,1716,0,0
483,-692,0,0,0,0,0,0,0,0,0,-1,1707,1716,0,0
490,-692,0,0,0,0,0,0,0,0,0,-1,1714,1716,0,0
497,-692,0,0,0,0,0,0,0,0,0,-1,1721,1716,0,0
504,-692,0,0,0,0,0,0,0,0,0,-1,1728,1716,0,0
511,-692,0,0,0,0,0,0,0,0,0,-1,1735,1716,0,0
518,-692,0,0,0,0,0,0,0,0,0,-1,1742,1716,0,0
525,-692,0,0,0,0,0,0,0,0,0,-1,1749,1716,0,0
532,-692,0,0,0,0,0,0,0,0,0,-1,1756,1716,0,0
539,-692,0,0,0,0,0,0,0,0,0,-1,1763,1716,0,0
546,-692,0,0,0,0,0,0,0,0,0,-1,1770,1716,0,0
553,-692,0,0,0,0,0,0,0,0,0,-1,1777,1716,0,0
560,-692,0,0,0,0,0,0,0,0,0,-1,1784,1716,0,0
567,-692,0,0,0,0,0,0,0,0,0,-1,1791,1716,0,0
574,-692,0,0,0,0,0,0,0,0,0,-1,1798,1716,0,0
581,-692,0,0,0,0,0,0,0,0,0,-1,1805,1716,0,0
588,-692,0,0,0,0,0,0,0,0,0,-1,1812,1716,0,0
595,-692,0,0,0,0,0,0,0,0,0,-1,1819,1716,0,0
602,-692,0,0,0,0,0,0,0,0,0,-1,1826,1716,0,0
609,-692,0,0,0,0,0,0,0,0,0,-1,1833,1716,0,0
616,-692,0,0,0,0,0,0,0,0,0,-1,1840,1716,0,0
623,-692,0,0,0,0,0,0,0,0,0,-1,1847,1716,0,0
630,-692,0,0,0,0,0,0,0,0,0,-1,1854,1716,0,0
637,-692,0,0,0,0,0,0,0,0,0,-1,1861,1716,0,0
644,-692,0,0,0,0,0,0,0,0,0,-1,1868,1716,0,0
651,-692,0,0,0,0,0,0,0,0,0,-1,1875,1716,0,0
658,-692,0,0,0,0,0,0,0,0,0,-1,1882,1716,0,0
665,-692,0,0,0,0,0,0,0,0,0,-1,1889,1716,0,0
672,-692,0,0,0,0,0,0,0,0,0,-1,1896,1716,0,0
679,-692,0,0,0,0,0,0,0,0,0,-1,1903,1716,0,0
686,-692,0,0,0,0,0,0,0,0,0,-1,1910,1716,0,0
693,-692,0,0,0,0,0,0,0,0,0,-1,1917,1716,0,0
700,-692,0,0,0,0,0,0,0,0,0,-1,1924,1716,0,0
707,-692,0,0,0,0,0,0,0,0,0,-1,1931,1716,0,0
714,-692,0,0,0,0,0,0,0,0,0,-1,1938,1716,0,0
721,-692,0,0,0,0,0,0,0,0,0,-1,1945,1716,0,0
728,-692,0,0,0,0,0,0,0,0,0,-1,1952,1716,0,0
735,-692,0,0,0,0,0,0,0,0,0,-1,1959,1716,0,0
742,-692,0,0,0,0,0,0,0,0,0,-1,1966,1716,0,0
749,-692,0,0,0,0,0,0,0,0,0,-1,1973,1716,0,0
756,-692,0,0,0,0,0,0,0,0,0,-1,1980,1716,0,0
763,-692,0,0,0,0,0,0,0,0,0,-1,1987,1716,0,0
770,-692,0,0,0,0,0,0,0,0,0,-1,1994,1716,0,0
777,-692,0,0,0,0,0,0,0,0,0,-1,2001,1716,0,0
784,-692,0,0,0,0,0,0,0,0,0,-1,2008,1716,0,0
791,-692,0,0,0,0,0,0,0,0,0,-1,2015,1716,0,0
798,-692,0,0,0,0,0,0,0,0,0,-1,2022,1716,0,0
805,-692,0,0,0,0,0,0,0,0,0,-1,2029,1716,0,0
812,-692,0,0,0,0,0,0,0,0,0,-1,2036,1716,0,0
-700,-699,0,0,0,0,0,0,0,0,0,-1,524,1723,0,0
-693,-699,0,0,0,0,0,0,0,0,0,-1,531,1723,0,0
-686,-699,0,0,0,0,0,0,0,0,0,-1,538,1723,0,0
-679,-699,0,0,0,0,0,0,0,0,0,-1,545,1723,0,0
-672,-699,0,0,0,0,0,0,0,0,0,-1,552,1723,0,0
-665,-699,0,0,0,0,0,0,0,0,0,-1,559,1723,0,0
-658,-699,0,0,0,0,0,0,0,0,0,-1,566,1723,0,0
-651,-699,0,0,0,0,0,0,0,0,0,-1,573,1723,0,0
-644,-699,0,0,0,0,0,0,0,0,0,-1,580,1723,0,0
-637,-699,0,0,0,0,0,0,0,0,0,-1,587,1723,0,0
-630,-699,0,0,0,0,0,0,0,0,0,-1,594,1723,0,0
-623,-699,0,0,0,0,0,0,0,0,0,-1,601,1723,0,0
-616,-699,0,0,0,0,0,0,0,0,0,-1,608,1723,0,0
-609,-699,0,0,0,0,0,0,0,0,0,-1,615,1723,0,0
-602,-699,0,0,0,0,0,0,0,0,0,-1,622,1723,0,0
-595,-699,0,0,0,0,0,0,0,0,0,-1,629,1723,0,0
-588,-699,0,0,0,0,0,0,0,0,0,-1,636,1723,0,0
-581,-699,0,0,0,0,0,0,0,0,0,-1,643,1723,0,0
-574,-699,0,0,0,0,0,0,0,0,0,-1,650,1723,0,0
-567,-699,0,0,0,0,0,0,0,0,0,-1,657,1723,0,0
-560,-699,0,0,0,0,0,0,0,0,0,-1,664,1723,0,0
-553,-699,0,0,0,0,0,0,0,0,0,-1,671,1723,0,0
-546,-699,0,0,0,0,0,0,0,0,0,-1,678,1723,0,0
-539,-699,0,0,0,0,0,0,0,0,0,-1,685,1723,0,0
-532,-699,0,0,0,0,0,0,0,0,0,-1,692,1723,0,0
-525,-699,0,0,0,0,0,0,0,0,0,-1,699,1723,0,0
-518,-699,0,0,0,0,0,0,0,0,0,-1,706,1723,0,0
-511,-699,0,0,0,0,0,0,0,0,0,-1,713,1723,0,0
-504,-699,0,0,0,0,0,0,0,0,0,-1,720,1723,0,0
-497,-699,0,0,0,0,0,0,0,0,0,-1,727,1723,0,0
-490,-699,0,0,0,0,0,0,0,0,0,-1,734,1723,0,0
-483,-699,0,0,0,0,0,0,0,0,0,-1,741,1723,0,0
-476,-699,0,0,0,0,0,0,0,0,0,-1,748,1723,0,0
-469,-699,0,0,0,0,0,0,0,0,0,-1,755,1723,0,0
-462,-699,0,0,0,0,0,0,0,0,0,-1,762,1723,0,0
-455,-699,0,0,0,0,0,0,0,0,0,-1,769,1723,0,0
-448,-699,0,0,0,0,0,0,0,0,0,-1,776,1723,0,0
-441,-699,0,0,0,0,0,0,0,0,0,-1,783,1723,0,0
-434,-699,0,0,0,0,0,0,0,0,0,-1,790,1723,0,0
-427,-699,0,0,0,0,0,0,0,0,0,-1,797,1723,0,0
-420,-699,0,0,0,0,0,0,0,0,0,-1,804,1723,0,0
-413,-699,0,0,0,0,0,0,0,0,0,-1,811,1723,0,0
-406,-699,0,0,0,0,0,0,0,0,0,-1,818,1723,0,0
-399,-699,0,0,0,0,0,0,0,0,0,-1,825,1723,0,0
-392,-699,0,0,0,0,0,0,0,0,0,-1,832,1723,0,0
-385,-699,0,0,0,0,0,0,0,0,0,-1,839,1723,0,0
-378,-699,0,0,0,0,0,0,0,0,0,-1,846,1723,0,0
-371,-699,0,0,0,0,0,0,0,0,0,-1,853,1723,0,0
-364,-699,0,0,0,0,0,0,0,0,0,-1,860,1723,0,0
-357,-699,0,0,0,0,0,0,0,0,0,-1,867,1723,0,0
-350,-699,0,0,0,0,0,0,0,0,0,-1,874,1723,0,0
-343,-699,0,0,0,0,0,0,0,0,0,-1,881,1723,0,0
-336,-699,0,0,0,0,0,0,0,0,0,-1,888,1723,0,0
-329,-699,0,0,0,0,0,0,0,0,0,-1,895,1723,0,0
-322,-699,0,0,0,0,0,0,0,0,0,-1,902,1723,0,0
-315,-699,6.20001,19.5193,0,0,0,0,0,0,0,-1,909,1723,6.20001,-19.5193
-308,-699,6.98151,18.9218,0,0,0,0,0,0,0,-1,916,1723,6.98151,-18.9217
-301,-699,4.72729,12.8752,0,0,0,0,0,0,0,-1,923,1723,4.72732,-12.8752
-294,-699,6.90332,19.8601,0,0,0,0,0,0,0,-1,930,1723,6.90332,-19.8601
-287,-699,7.71405,27.0637,0,0,0,0,0,0,0,-1,937,1723,7.71407,-27.0637
-280,-699,10.3964,33.2278,0,0,0,0,0,0,0,-1,944,1723,10.3963,-33.2278
-273,-699,10.2987,33.8755,0,0,0,0,0,0,0,-1,951,1723,10.2987,-33.8755
-266,-699,6.81915,20.8951,0,0,0,0,0,0,0,-1,958,1723,6.81914,-20.8952
-259,-699,5.39758,14.5466,0,0,0,0,0,0,0,-1,965,1723,5.39759,-14.5466
-252,-699,8.3866,31.6284,0,0,0,0,0,0,0,-1,972,1723,8.38657,-31.6284
-245,-699,8.80194,34.7277,0,0,0,0,0,0,0,-1,979,1723,8.80191,-34.7276
-238,-699,8.36853,35.9756,0,0,0,0,0,0,0,-1,986,1723,8.36855,-35.9756
-231,-699,8.03387,36.0745,-0.0039463,6.6911e-05,0.00248247,0.00125235,-0.00513174,1.12529,0.00390611,0.043577,993,1723,8.03385,-36.0745
-224,-699,7.88446,36.4712,-0.00292552,-0.00129629,0.00447054,0.00243325,-0.00665506,0.875519,0.00543257,0.0400452,1000,1723,7.88446,-36.4712
-217,-699,7.87793,36.8457,-0.00256841,-0.00242731,0.00531084,0.00281345,-0.00780917,0.79204,0.00635503,0.027096,1007,1723,7.87792,-36.8457
-210,-699,7.92352,37.2061,-0.00245662,-0.00353605,0.00531777,0.00234876,-0.00834142,0.734825,0.00648718,0.0178028,1014,1723,7.92353,-37.206
-203,-699,7.93115,37.5695,-0.0022159,-0.00410245,0.00480449,0.00173703,-0.00805538,0.688465,0.0060332,0.0203376,1021,1723,7.9312,-37.5694
-196,-699,7.89124,37.9883,-0.00239156,-0.00467218,0.00424314,0.000861824,-0.00792556,0.654129,0.00559316,0.017238,1028,1723,7.89122,-37.9883
-189,-699,7.85608,38.3737,-0.00257681,-0.00511075,0.00371552,8.18195e-05,-0.00776938,0.621084,0.00520707,0.00893817,1035,1723,7.85611,-38.3737
-182,-699,7.82764,38.7424,-0.00272283,-0.00510342,0.00313718,-0.00055773,-0.00726852,0.60408,0.00467088,0.0115044,1042,1723,7.82769,-38.7425
-175,-699,7.81213,39.1333,-0.00268484,-0.0047866,0.00248265,-0.00103981,-0.00643163,0.585187,0.00398661,0.0143993,1049,1723,7.81209,-39.1333
-168,-699,7.81995,39.5089,-0.0025815,-0.00406703,0.00217024,-0.00103044,-0.00561809,0.620521,0.00345355,0.0156503,1056,1723,7.81996,-39.5089
-161,-699,7.80359,39.8506,-0.00246724,-0.00316484,0.00180485,-0.000977794,-0.00465429,0.689946,0.00283373,0.0135368,1063,1723,7.8036,-39.8506
-154,-699,7.77783,40.187,-0.00210944,-0.00215049,0.00159769,-0.000532144,-0.00372779,0.778975,0.00232818,0.0136504,1070,1723,7.77781,-40.187
-147,-699,7.74292,40.4858,-0.00145389,-0.00120789,0.00154721,0.000221204,-0.00288298,0.825063,0.0019998,0.0160585,1077,1723,7.74293,-40.4859
-140,-699,7.7135,40.7856,-0.000645728,-0.00024762,0.00145046,0.00101738,-0.00191073,0.85359,0.00171657,0.0109452,1084,1723,7.71345,-40.7856
-133,-699,7.7168,41.114,0.000167891,0.0005929,0.00132588,0.0017232,-0.000962409,0.864859,0.00157114,0.00921631,1091,1723,7.71675,-41.114
-126,-699,7.72131,41.4076,0.000918963,0.00130154,0.00121426,0.00233948,-0.000118983,0.863524,0.00160079,0.0111053,1098,1723,7.72133,-41.4076
-119,-699,7.73682,41.7168,0.00160349,0.00179687,0.00111257,0.00281694,0.000583413,0.828742,0.00171686,0.0166805,1105,1723,7.73679,-41.7168
-112,-699,7.73059,42.0178,0.00226778,0.00207974,0.000960625,0.00313898,0.00120855,0.736617,0.00182819,0.0115621,1112,1723,7.73062,-42.0178
-105,-699,7.73853,42.3003,0.00271325,0.00200352,0.000740192,0.00317924,0.00153752,0.561872,0.00183587,0.0118197,1119,1723,7.73848,-42.3003
-98,-699,7.78772,42.5592,0.00300999,0.0018405,0.000549585,0.00322772,0.00162277,0.377206,0.00186354,0.0140259,1126,1723,7.78768,-42.5592
-91,-699,7.79102,42.7809,0.00329166,0.00161078,0.000285381,0.00333879,0.00156365,0.163673,0.00192894,0.0192813,1133,1723,7.79102,-42.7809
-84,-699,7.77014,43.0099,0.0035106,0.00143567,-1.09849e-05,0.00351066,0.00143561,-0.0052939,0.00203805,0.0234143,1140,1723,7.77011,-43.0099
-77,-699,7.797,43.2416,0.00356628,0.000982871,-0.000353301,0.00361372,0.000935426,-0.133493,0.00216576,0.0166297,1147,1723,7.797,-43.2416
-70,-699,7.80786,43.475,0.00351552,0.000272465,-0.000696145,0.00365864,0.000129348,-0.20276,0.00239714,0.0178739,1154,1723,7.80787,-43.475
-63,-699,7.82031,43.7185,0.00451298,-0.0023632,-0.00078012,0.00460038,-0.0024506,-0.111563,0.00413347,0.0147381,1161,1723,7.82026,-43.7185
-56,-699,7.8147,43.9137,0.00619914,-0.00423395,-0.000311189,0.00620841,-0.00424322,-0.0297919,0.0060697,0.0101858,1168,1723,7.81472,-43.9137
-49,-699,7.84485,44.1666,0.00720717,-0.00539161,7.60946e-06,0.00720717,-0.00539162,0.000603984,0.00729905,0.0233674,1175,1723,7.84483,-44.1667
-42,-699,7.87756,44.3757,0.0096072,-0.00336088,0.000343258,0.00961628,-0.00336996,0.0264447,0.00778134,0.0288066,1182,1723,7.87761,-44.3757
-35,-699,7.90088,44.5133,0.0121236,-0.00183597,0.00088933,0.0121801,-0.0018924,0.063366,0.00881879,0.0272115,1189,1723,7.90086,-44.5133
-28,-699,7.96631,44.634,0.0143907,-0.000710636,0.00104074,0.0144621,-0.000782022,0.0684853,0.00991237,0.0221028,1196,1723,7.96628,-44.634
-21,-699,8.00415,44.7201,0.016423,0.00184883,0.00105936,0.0164996,0.00177223,0.072182,0.0104592,0.0143776,1203,1723,8.00419,-44.7201
-14,-699,8.03711,44.8798,0.0175934,0.0043256,0.00100169,0.0176686,0.0042504,0.0749318,0.0106488,0.0118325,1210,1723,8.03711,-44.8798
-7,-699,8.0675,45.0348,0.0187226,0.00719938,0.000511059,0.0187452,0.00717676,0.0442345,0.0109211,0.00895094,1217,1723,8.06749,-45.0348
0,-699,8.11707,45.1421,0.019048,0.0103141,0.00120884,0.0192122,0.0101499,0.135027,0.0110981,0.0108703,1224,1723,8.11703,-45.1421
7,-699,8.17651,45.25,0.0184564,0.0132038,0.00153463,0.0188719,0.0127883,0.264408,0.0111226,0.0166814,1231,1723,8.17646,-45.25
14,-699,8.2384,45.3533,0.0176182,0.015486,0.00154346,0.018428,0.0146762,0.483159,0.0112453,0.0177582,1238,1723,8.23839,-45.3533
21,-699,8.28528,45.3967,0.0164245,0.0176873,0.00145677,0.0186436,0.0154682,0.989881,0.0115174,0.0171217,1245,1723,8.28534,-45.3967
28,-699,8.32422,45.425,0.0146562,0.0189796,0.00135046,0.0193668,0.0142691,1.2916,0.0115918,0.0165805,1252,1723,8.32422,-45.4251
35,-699,8.37158,45.5182,0.0125741,0.0195175,0.000916782,0.0196365,0.012455,1.44171,0.0114726,0.0146418,1259,1723,8.3716,-45.5181
42,-699,8.41248,45.5745,0.0104346,0.0197869,0.000245379,0.0197933,0.0104281,1.54458,0.0114332,0.014254,1266,1723,8.41253,-45.5745
49,-699,8.48975,45.6241,0.0128583,0.0194103,-0.00107604,0.0195825,0.0126861,-1.41212,0.0114695,0.0165726,1273,1723,8.48974,-45.6242
56,-699,8.56982,45.6703,0.0146988,0.0180785,-0.00228962,0.0192344,0.013543,-1.1033,0.0114092,0.0161696,1280,1723,8.56983,-45.6703
63,-699,8.60132,45.6476,0.0146057,0.0162047,-0.003561,0.0190548,0.0117556,-0.895827,0.0111011,0.0141111,1287,1723,8.60131,-45.6476
70,-699,8.64539,45.6451,0.0143585,0.0143203,-0.00478368,0.0191231,0.00955568,-0.783398,0.0110407,0.0126457,1294,1723,8.64542,-45.6452
77,-699,8.67639,45.6136,0.0146607,0.0128994,-0.00622669,0.0200687,0.00749143,-0.715149,0.0117101,0.0123623,1301,1723,8.67633,-45.6136
84,-699,8.70166,45.5544,0.0149543,0.0110279,-0.00744669,0.0206922,0.00528996,-0.656515,0.0124131,0.0141353,1308,1723,8.70161,-45.5545
91,-699,8.78467,45.5342,0.0147744,0.00974939,-0.00841232,0.0210414,0.00348237,-0.640281,0.0130229,0.013886,1315,1723,8.7847,-45.5341
98,-699,8.86011,45.517,0.0135582,0.00865412,-0.00895298,0.0203889,0.00182348,-0.651735,0.0130274,0.0124605,1322,1723,8.86008,-45.517
105,-699,8.8833,45.4707,0.0115389,0.00781619,-0.00996703,0.0198169,-0.00046178,-0.693085,0.0133679,0.0169538,1329,1723,8.88325,-45.4708
112,-699,8.91821,45.3817,0.00875123,0.00727515,-0.0100651,0.0181053,-0.00207895,-0.748801,0.0128195,0.0216168,1336,1723,8.91825,-45.3817
119,-699,8.91296,45.2993,0.00483469,0.00695526,-0.00967936,0.0156322,-0.00384228,-0.839951,0.0119107,0.0159466,1343,1723,8.91295,-45.2993
126,-699,9.00781,45.1946,0.000653483,0.00636285,-0.00904929,0.0129971,-0.00598072,-0.938187,0.0112037,0.0185478,1350,1723,9.00776,-45.1945
133,-699,9.08508,45.0969,-0.00298244,0.00637826,-0.0082985,0.0112253,-0.00782945,-1.04216,0.0110593,0.0171555,1357,1723,9.08512,-45.0969
140,-699,9.13086,45.0027,-0.00583619,0.00638101,-0.00737396,0.00984791,-0.00930309,-1.13131,0.0110583,0.0178191,1364,1723,9.13081,-45.0026
147,-699,9.15515,44.8912,-0.00749224,0.00629251,-0.00629078,0.00873174,-0.00993146,-1.2009,0.0107826,0.0141633,1371,1723,9.15515,-44.8913
154,-699,9.14661,44.762,-0.013046,0.00573598,-0.00477585,0.00688062,-0.0141906,-1.33556,0.0124071,0.0140582,1378,1723,9.14658,-44.762
161,-699,9.19189,44.6207,-0.0138358,0.00501342,-0.00383343,0.00576321,-0.0145856,-1.37764,0.0121108,0.0106335,1385,1723,9.19188,-44.6207
168,-699,9.23364,44.4634,-0.00936417,0.00445714,-0.00307734,0.00511135,-0.0100184,-1.36133,0.00888697,0.012439,1392,1723,9.23362,-44.4634
175,-699,9.29846,44.2933,-0.00442333,0.00417985,-0.00249147,0.00484929,-0.00509277,-1.3083,0.00574062,0.015104,1399,1723,9.29847,-44.2933
182,-699,9.31104,44.084,-0.000961845,0.00257177,-0.000604232,0.00267223,-0.00106231,-1.40604,0.00222192,0.0154132,1406,1723,9.31107,-44.084
189,-699,9.31616,43.8809,0.00149374,0.00155342,0.000580738,0.00210508,0.000942074,0.811064,0.0012176,0.0178023,1413,1723,9.31612,-43.8809
196,-699,9.33044,43.6831,0.00347821,0.000492966,0.00144473,0.00406289,-9.17125e-05,0.384549,0.00273967,0.0172244,1420,1723,9.33047,-43.6831
203,-699,9.33472,43.4852,0.0031241,0.000147544,0.00123597,0.0035704,-0.000298756,0.346523,0.00248584,0.0139457,1427,1723,9.33472,-43.4853
210,-699,9.36499,43.2682,0.00274727,-1.66673e-06,0.00092908,0.00303182,-0.00028622,0.297203,0.00212306,0.0142167,1434,1723,9.365,-43.2682
217,-699,9.38342,43.0289,0.00228418,-0.00016512,0.000536628,0.00239659,-0.000277532,0.206494,0.00169782,0.0144613,1441,1723,9.38346,-43.0289
224,-699,9.40674,42.7789,0.00199197,-0.000104506,0.000339086,0.00204545,-0.000157986,0.156429,0.00141923,0.0154231,1448,1723,9.40677,-42.7789
231,-699,9.40833,42.5283,0.00164405,-0.000102321,0.000337911,0.00170715,-0.000165424,0.184619,0.00119706,0.0122367,1455,1723,9.40828,-42.5283
238,-699,9.38696,42.2312,0.00142355,7.14948e-05,0.000342255,0.00150526,-1.02054e-05,0.234326,0.00100692,0.0110096,1462,1723,9.38694,-42.2312
245,-699,9.39514,41.9547,0.00123792,0.000381157,0.000320878,0.00134477,0.000274306,0.321446,0.000820505,0.0130481,1469,1723,9.3952,-41.9548
252,-699,9.39319,41.6992,0.00102057,0.000615507,0.000248585,0.00113868,0.000497393,0.443567,0.000659166,0.0115878,1476,1723,9.3932,-41.6992
259,-699,9.39368,41.4343,0.000780508,0.000808659,0.000148671,0.000943919,0.000645248,0.832596,0.000557082,0.0113125,1483,1723,9.39369,-41.4343
266,-699,9.38647,41.1244,0.000546657,0.00103193,-1.8219e-05,0.00103261,0.000545974,-1.53332,0.000596506,0.0119536,1490,1723,9.38645,-41.1243
273,-699,9.36914,40.8218,0.000439705,0.00152295,-0.000377503,0.00164152,0.000321128,-1.26645,0.00100456,0.0111961,1497,1723,9.36915,-40.8218
280,-699,9.39587,40.4868,0.00031086,0.00194898,-0.00083601,0.0023003,-4.04516e-05,-1.17298,0.00154719,0.0117268,1504,1723,9.39581,-40.4868
287,-699,9.37646,40.1537,0.000162972,0.00266214,-0.00139982,0.00328898,-0.000463868,-1.14977,0.00236251,0.010108,1511,1723,9.37647,-40.1537
294,-699,9.36963,39.8579,4.61255e-05,0.00323443,-0.00206583,0.00424968,-0.000969124,-1.11401,0.00320537,0.0109344,1518,1723,9.36965,-39.858
301,-699,9.36792,39.5372,-1.32358e-05,0.00385376,-0.00255529,0.00512462,-0.0012841,-1.10927,0.00391528,0.0132023,1525,1723,9.36788,-39.5373
308,-699,9.35803,39.1993,-8.67934e-05,0.00400521,-0.00301928,0.00560642,-0.00168801,-1.08318,0.00440934,0.0173099,1532,1723,9.35797,-39.1993
315,-699,9.35583,38.8573,-0.000257965,0.00412396,-0.00325004,0.00585257,-0.00198658,-1.08198,0.00470582,0.0185523,1539,1723,9.35584,-38.8573
322,-699,9.31287,38.4899,-0.00026957,0.00426039,-0.00338655,0.00606958,-0.00207876,-1.08014,0.00488891,0.0188432,1546,1723,9.31289,-38.4898
329,-699,9.26746,38.1169,-0.000250587,0.00345155,-0.00327373,0.00536131,-0.00216034,-1.0427,0.00447178,0.0175434,1553,1723,9.26746,-38.117
336,-699,9.24036,37.7823,0.000555049,0.00308983,-0.00118612,0.00355829,8.65916e-05,-1.19465,0.00234386,0.0219743,1560,1723,9.24033,-37.7824
343,-699,9.29114,37.4352,0.00174863,0.00275434,0.00270955,0.0050073,-0.00050433,0.877148,0.00351838,0.0323335,1567,1723,9.29109,-37.4352
350,-699,9.29382,36.991,0.00282148,0.00153741,0.0063246,0.00853655,-0.00417766,0.734815,0.00748297,0.0448945,1574,1723,9.29377,-36.9909
357,-699,9.16077,36.5699,0.00466539,0.000482873,0.0104765,0.0132573,-0.00810904,0.686886,0.0124547,0.046173,1581,1723,9.1608,-36.57
364,-699,8.92371,36.3448,0.00677662,-0.000296275,0.0156824,0.0193164,-0.0128361,0.674501,0.0186885,0.0426414,1588,1723,8.92374,-36.3449
371,-699,9.53186,36.0984,0,0,0,0,0,0,0,-1,1595,1723,9.5319,-36.0984
378,-699,6.45435,35.0493,0,0,0,0,0,0,0,-1,1602,1723,6.45437,-35.0493
385,-699,6.7666,34.809,0.0141627,-0.00223621,0.0356465,0.0425407,-0.0306141,0.672354,0.0424226,0.0498593,1609,1723,6.76655,-34.8089
392,-699,7.21423,34.6031,0.016786,-0.0026269,0.0421585,0.050341,-0.0361819,0.672251,0.0501765,0.0476737,1616,1723,7.21422,-34.6032
399,-699,7.5188,34.3782,0,0,0,0,0,0,0,-1,1623,1723,7.51885,-34.3782
406,-699,8.66675,34.332,0,0,0,0,0,0,0,-1,1630,1723,8.66669,-34.332
413,-699,9.31396,23.2781,0,0,0,0,0,0,0,-1,1637,1723,9.31396,-23.278
420,-699,2.15076,7.65527,0,0,0,0,0,0,0,-1,1644,1723,2.15079,-7.65522
427,-699,3.36328,8.2428,0,0,0,0,0,0,0,-1,1651,1723,3.36332,-8.24283
434,-699,4.66455,8.90222,0,0,0,0,0,0,0,-1,1658,1723,4.66456,-8.90223
441,-699,0,0,0,0,0,0,0,0,0,-1,1665,1723,0,0
448,-699,0,0,0,0,0,0,0,0,0,-1,1672,1723,0,0
455,-699,0,0,0,0,0,0,0,0,0,-1,1679,1723,0,0
462,-699,0,0,0,0,0,0,0,0,0,-1,1686,1723,0,0
469,-699,0,0,0,0,0,0,0,0,0,-1,1693,1723,0,0
476,-699,0,0,0,0,0,0,0,0,0,-1,1700,1723,0,0
483,-699,0,0,0,0,0,0,0,0,0,-1,1707,1723,0,0
490,-699,0,0,0,0,0,0,0,0,0,-1,1714,1723,0,0
497,-699,0,0,0,0,0,0,0,0,0,-1,1721,1723,0,0
504,-699,0,0,0,0,0,0,0,0,0,-1,1728,1723,0,0
511,-699,0,0,0,0,0,0,0,0,0,-1,1735,1723,0,0
518,-699,0,0,0,0,0,0,0,0,0,-1,1742,1723,0,0
525,-699,0,0,0,0,0,0,0,0,0,-1,1749,1723,0,0
532,-699,0,0,0,0,0,0,0,0,0,-1,1756,1723,0,0
539,-699,0,0,0,0,0,0,0,0,0,-1,1763,1723,0,0
546,-699,0,0,0,0,0,0,0,0,0,-1,1770,1723,0,0
553,-699,0,0,0,0,0,0,0,0,0,-1,1777,1723,0,0
560,-699,0,0,0,0,0,0,0,0,0,-1,1784,1723,0,0
567,-699,0,0,0,0,0,0,0,0,0,-1,1791,1723,0,0
574,-699,0,0,0,0,0,0,0,0,0,-1,1798,1723,0,0
581,-699,0,0,0,0,0,0,0,0,0,-1,1805,1723,0,0
588,-699,0,0,0,0,0,0,0,0,0,-1,1812,1723,0,0
595,-699,0,0,0,0,0,0,0,0,0,-1,1819,1723,0,0
602,-699,0,0,0,0,0,0,0,0,0,-1,1826,1723,0,0
609,-699,0,0,0,0,0,0,0,0,0,-1,1833,1723,0,0
616,-699,0,0,0,0,0,0,0,0,0,-1,1840,1723,0,0
623,-699,0,0,0,0,0,0,0,0,0,-1,1847,1723,0,0
630,-699,0,0,0,0,0,0,0,0,0,-1,1854,1723,0,0
637,-699,0,0,0,0,0,0,0,0,0,-1,1861,1723,0,0
644,-699,0,0,0,0,0,0,0,0,0,-1,1868,1723,0,0
651,-699,0,0,0,0,0,0,0,0,0,-1,1875,1723,0,0
658,-699,0,0,0,0,0,0,0,0,0,-1,1882,1723,0,0
665,-699,0,0,0,0,0,0,0,0,0,-1,1889,1723,0,0
672,-699,0,0,0,0,0,0,0,0,0,-1,1896,1723,0,0
679,-699,0,0,0,0,0,0,0,0,0,-1,1903,1723,0,0
686,-699,0,0,0,0,0,0,0,0,0,-1,1910,1723,0,0
693,-699,0,0,0,0,0,0,0,0,0,-1,1917,1723,0,0
700,-699,0,0,0,0,0,0,0,0,0,-1,1924,1723,0,0
707,-699,0,0,0,0,0,0,0,0,0,-1,1931,1723,0,0
714,-699,0,0,0,0,0,0,0,0,0,-1,1938,1723,0,0
721,-699,0,0,0,0,0,0,0,0,0,-1,1945,1723,0,0
728,-699,0,0,0,0,0,0,0,0,0,-1,1952,1723,0,0
735,-699,0,0,0,0,0,0,0,0,0,-1,1959,1723,0,0
742,-699,0,0,0,0,0,0,0,0,0,-1,1966,1723,0,0
749,-699,0,0,0,0,0,0,0,0,0,-1,1973,1723,0,0
756,-699,0,0,0,0,0,0,0,0,0,-1,1980,1723,0,0
763,-699,0,0,0,0,0,0,0,0,0,-1,1987,1723,0,0
770,-699,0,0,0,0,0,0,0,0,0,-1,1994,1723,0,0
777,-699,0,0,0,0,0,0,0,0,0,-1,2001,1723,0,0
784,-699,0,0,0,0,0,0,0,0,0,-1,2008,1723,0,0
791,-699,0,0,0,0,0,0,0,0,0,-1,2015,1723,0,0
798,-699,0,0,0,0,0,0,0,0,0,-1,2022,1723,0,0
805,-699,0,0,0,0,0,0,0,0,0,-1,2029,1723,0,0
812,-699,0,0,0,0,0,0,0,0,0,-1,2036,1723,0,0
-700,-706,0,0,0,0,0,0,0,0,0,-1,524,1730,0,0
-693,-706,0,0,0,0,0,0,0,0,0,-1,531,1730,0,0
-686,-706,0,0,0,0,0,0,0,0,0,-1,538,1730,0,0
-679,-706,0,0,0,0,0,0,0,0,0,-1,545,1730,0,0
-672,-706,0,0,0,0,0,0,0,0,0,-1,552,1730,0,0
-665,-706,0,0,0,0,0,0,0,0,0,-1,559,1730,0,0
-658,-706,0,0,0,0,0,0,0,0,0,-1,566,1730,0,0
-651,-706,0,0,0,0,0,0,0,0,0,-1,573,1730,0,0
-644,-706,0,0,0,0,0,0,0,0,0,-1,580,1730,0,0
-637,-706,0,0,0,0,0,0,0,0,0,-1,587,1730,0,0
-630,-706,0,0,0,0,0,0,0,0,0,-1,594,1730,0,0
-623,-706,0,0,0,0,0,0,0,0,0,-1,601,1730,0,0
-616,-706,0,0,0,0,0,0,0,0,0,-1,608,1730,0,0
-609,-706,0,0,0,0,0,0,0,0,0,-1,615,1730,0,0
-602,-706,0,0,0,0,0,0,0,0,0,-1,622,1730,0,0
-595,-706,0,0,0,0,0,0,0,0,0,-1,629,1730,0,0
-588,-706,0,0,0,0,0,0,0,0,0,-1,636,1730,0,0
-581,-706,0,0,0,0,0,0,0,0,0,-1,643,1730,0,0
-574,-706,0,0,0,0,0,0,0,0,0,-1,650,1730,0,0
-567,-706,0,0,0,0,0,0,0,0,0,-1,657,1730,0,0
-560,-706,0,0,0,0,0,0,0,0,0,-1,664,1730,0,0
-553,-706,0,0,0,0,0,0,0,0,0,-1,671,1730,0,0
-546,-706,0,0,0,0,0,0,0,0,0,-1,678,1730,0,0
-539,-706,0,0,0,0,0,0,0,0,0,-1,685,1730,0,0
-532,-706,0,0,0,0,0,0,0,0,0,-1,692,1730,0,0
-525,-706,0,0,0,0,0,0,0,0,0,-1,699,1730,0,0
-518,-706,0,0,0,0,0,0,0,0,0,-1,706,1730,0,0
-511,-706,0,0,0,0,0,0,0,0,0,-1,713,1730,0,0
-504,-706,0,0,0,0,0,0,0,0,0,-1,720,1730,0,0
-497,-706,0,0,0,0,0,0,0,0,0,-1,727,1730,0,0
-490,-706,0,0,0,0,0,0,0,0,0,-1,734,1730,0,0
-483,-706,0,0,0,0,0,0,0,0,0,-1,741,1730,0,0
-476,-706,0,0,0,0,0,0,0,0,0,-1,748,1730,0,0
-469,-706,0,0,0,0,0,0,0,0,0,-1,755,1730,0,0
-462,-706,0,0,0,0,0,0,0,0,0,-1,762,1730,0,0
-455,-706,0,0,0,0,0,0,0,0,0,-1,769,1730,0,0
-448,-706,0,0,0,0,0,0,0,0,0,-1,776,1730,0,0
-441,-706,0,0,0,0,0,0,0,0,0,-1,783,1730,0,0
-434,-706,0,0,0,0,0,0,0,0,0,-1,790,1730,0,0
-427,-706,0,0,0,0,0,0,0,0,0,-1,797,1730,0,0
-420,-706,0,0,0,0,0,0,0,0,0,-1,804,1730,0,0
-413,-706,0,0,0,0,0,0,0,0,0,-1,811,1730,0,0
-406,-706,0,0,0,0,0,0,0,0,0,-1,818,1730,0,0
-399,-706,0,0,0,0,0,0,0,0,0,-1,825,1730,0,0
-392,-706,0,0,0,0,0,0,0,0,0,-1,832,1730,0,0
-385,-706,0,0,0,0,0,0,0,0,0,-1,839,1730,0,0
-378,-706,0,0,0,0,0,0,0,0,0,-1,846,1730,0,0
-371,-706,0,0,0,0,0,0,0,0,0,-1,853,1730,0,0
-364,-706,0,0,0,0,0,0,0,0,0,-1,860,1730,0,0
-357,-706,0,0,0,0,0,0,0,0,0,-1,867,1730,0,0
-350,-706,0,0,0,0,0,0,0,0,0,-1,874,1730,0,0
-343,-706,0,0,0,0,0,0,0,0,0,-1,881,1730,0,0
-336,-706,0,0,0,0,0,0,0,0,0,-1,888,1730,0,0
-329,-706,0,0,0,0,0,0,0,0,0,-1,895,1730,0,0
-322,-706,0,0,0,0,0,0,0,0,0,-1,902,1730,0,0
-315,-706,0,0,0,0,0,0,0,0,0,-1,909,1730,0,0
-308,-706,5.08191,14.6245,0,0,0,0,0,0,0,-1,916,1730,5.08188,-14.6245
-301,-706,7.45007,21.1975,0,0,0,0,0,0,0,-1,923,1730,7.45005,-21.1976
-294,-706,11.8603,21.026,0,0,0,0,0,0,0,-1,930,1730,11.8603,-21.026
-287,-706,10.3292,20.8425,0,0,0,0,0,0,0,-1,937,1730,10.3292,-20.8425
-280,-706,7.9162,21.8951,0,0,0,0,0,0,0,-1,944,1730,7.9162,-21.8952
-273,-706,7.38953,20.6355,0,0,0,0,0,0,0,-1,951,1730,7.38955,-20.6355
-266,-706,9.66724,22.8231,0,0,0,0,0,0,0,-1,958,1730,9.66722,-22.8231
-259,-706,3.47852,20.7363,0,0,0,0,0,0,0,-1,965,1730,3.47851,-20.7364
-252,-706,3.84259,20.1979,0,0,0,0,0,0,0,-1,972,1730,3.84256,-20.1979
-245,-706,4.698,19.2992,0,0,0,0,0,0,0,-1,979,1730,4.69799,-19.2991
-238,-706,8.12567,36.8694,0,0,0,0,0,0,0,-1,986,1730,8.12568,-36.8694
-231,-706,7.66205,35.6974,0,0,0,0,0,0,0,-1,993,1730,7.66203,-35.6974
-224,-706,7.6778,36.7654,0,0,0,0,0,0,0,-1,1000,1730,7.67778,-36.7654
-217,-706,7.77289,36.9889,-0.00278465,-0.00453963,0.00720647,0.00359755,-0.0109218,0.724814,0.00873106,0.0424251,1007,1730,7.77289,-36.9889
-210,-706,7.90863,37.3533,-0.00325438,-0.00605652,0.00704162,0.00252421,-0.0118351,0.687196,0.00885226,0.0373449,1014,1730,7.90864,-37.3532
-203,-706,8.27209,37.5117,-0.0032911,-0.00687151,0.00622644,0.00139738,-0.01156,0.645415,0.00821218,0.0320048,1021,1730,8.27211,-37.5117
-196,-706,8.26489,37.9359,-0.0037824,-0.0076518,0.00539528,1.45757e-05,-0.0114488,0.613244,0.00763738,0.0233372,1028,1730,8.26495,-37.9359
-189,-706,8.17896,38.3792,-0.00422593,-0.00814668,0.00467045,-0.00112111,-0.0112515,0.586695,0.00715662,0.020146,1035,1730,8.17895,-38.3792
-182,-706,8.14392,38.7722,-0.00462855,-0.00812124,0.00390426,-0.00209787,-0.0106519,0.575098,0.00651556,0.0168663,1042,1730,8.14389,-38.7723
-175,-706,8.15088,39.1611,-0.00478709,-0.00772922,0.00308054,-0.00284439,-0.00967192,0.562641,0.00573976,0.0172721,1049,1730,8.15082,-39.1611
-168,-706,8.14575,39.5127,-0.00483146,-0.00684709,0.00267571,-0.00298006,-0.00869849,0.605288,0.00510435,0.0172588,1056,1730,8.14579,-39.5127
-161,-706,8.11609,39.8319,-0.0047756,-0.00570684,0.00224443,-0.002949,-0.00753344,0.683121,0.00438347,0.0135494,1063,1730,8.11608,-39.832
-154,-706,8.08801,40.178,-0.00444335,-0.00443149,0.00201401,-0.0024234,-0.00645143,0.78687,0.00376294,0.0135114,1070,1730,8.08803,-40.178
-147,-706,8.05713,40.4846,-0.00376778,-0.00325936,0.00197711,-0.00152018,-0.00550695,0.849336,0.00328403,0.0129896,1077,1730,8.05719,-40.4846
-140,-706,8.06152,40.8275,-0.00289234,-0.00206077,0.00188813,-0.000543183,-0.00440993,0.893772,0.00277666,0.0114025,1084,1730,8.06157,-40.8275
-133,-706,8.05286,41.1177,-0.00202662,-0.00102545,0.00174957,0.000293741,-0.0033458,0.924735,0.00233462,0.00920931,1091,1730,8.05288,-41.1177
-126,-706,8.04089,41.4012,-0.00126364,-0.000120696,0.0016411,0.00104559,-0.00242992,0.952944,0.00205896,0.0141214,1098,1730,8.04086,-41.4012
-119,-706,8.00928,41.6896,-0.000542284,0.000678403,0.00160895,0.00178888,-0.00165276,0.966685,0.00198755,0.0187188,1105,1730,8.0093,-41.6896
-112,-706,8.02368,42.0435,0.00028947,0.00129166,0.00151681,0.00238801,-0.000806877,0.944934,0.00191838,0.0128763,1112,1730,8.02373,-42.0435
-105,-706,8.01587,42.2959,0.000936341,0.0013763,0.0012352,0.00241096,-9.83167e-05,0.87352,0.00164106,0.0089316,1119,1730,8.01592,-42.2959
-98,-706,8.03833,42.5398,0.00120398,0.00129377,0.00106021,0.00231003,0.000187719,0.806557,0.00148142,0.0107678,1126,1730,8.03832,-42.5398
-91,-706,8.03955,42.792,0.00150391,0.00119988,0.000835893,0.0022015,0.000502291,0.695452,0.00133218,0.0140894,1133,1730,8.03953,-42.792
-84,-706,8.01904,43.0288,0.00176061,0.00107106,0.000580241,0.00209078,0.000740892,0.517328,0.00122406,0.0174112,1140,1730,8.01902,-43.0288
-77,-706,8.0376,43.2566,0.00197736,0.00083636,0.000320914,0.00206143,0.000752295,0.256199,0.00120455,0.0170002,1147,1730,8.03755,-43.2565
-70,-706,8.02734,43.4985,0.00210216,0.000425124,2.14705e-05,0.00210243,0.000424849,0.0127999,0.00128366,0.0186627,1154,1730,8.0274,-43.4985
-63,-706,8.00818,43.7239,0.00273376,-0.000963343,-0.000132416,0.00273849,-0.00096808,-0.035755,0.00221987,0.0137768,1161,1730,8.0082,-43.7239
-56,-706,8.0304,43.9426,0.00377253,-0.00204731,6.95016e-05,0.00377336,-0.00204814,0.0119399,0.00340988,0.0129187,1168,1730,8.03045,-43.9426
-49,-706,8.03394,44.1694,0.00448415,-0.00279142,0.000207124,0.00449004,-0.00279731,0.0284377,0.00424502,0.013204,1175,1730,8.03393,-44.1695
-42,-706,8.05847,44.3392,0.00597092,-0.00187038,0.000428585,0.00599428,-0.00189373,0.0544412,0.00475484,0.017613,1182,1730,8.05845,-44.3393
-35,-706,8.08289,44.4783,0.00762165,-0.00106158,0.000791473,0.0076932,-0.00113313,0.0901596,0.00554524,0.0166914,1189,1730,8.08283,-44.4783
-28,-706,8.12476,44.6188,0.00913348,-0.000365048,0.000920443,0.00922185,-0.00045342,0.0957172,0.00630448,0.0105404,1196,1730,8.12472,-44.6188
-21,-706,8.13977,44.7573,0.0104905,0.00123688,0.000970012,0.0105911,0.00113629,0.103329,0.00671409,0.0106102,1203,1730,8.13971,-44.7574
-14,-706,8.17444,44.9055,0.0113907,0.00290349,0.000991091,0.0115049,0.00278929,0.114718,0.0069299,0.0106134,1210,1730,8.17446,-44.9055
-7,-706,8.20959,45.0508,0.0123397,0.00475176,0.000852752,0.0124343,0.00465711,0.110546,0.00725391,0.0092384,1217,1730,8.20959,-45.0508
0,-706,8.23584,45.1782,0.0128441,0.00691086,0.00144653,0.013178,0.00657699,0.22684,0.00760831,0.0125894,1224,1730,8.23589,-45.1782
7,-706,8.26147,45.2809,0.0128494,0.008964,0.001856,0.0135935,0.00821991,0.381289,0.00790534,0.0140596,1231,1730,8.26153,-45.2808
14,-706,8.29675,45.366,0.0127468,0.0106768,0.00207774,0.014033,0.00939051,0.554318,0.00825511,0.0142719,1238,1730,8.29672,-45.366
21,-706,8.33826,45.4032,0.0124227,0.0121863,0.00224699,0.0145546,0.0100544,0.759116,0.00860465,0.0124237,1245,1730,8.33822,-45.4031
28,-706,8.37683,45.4578,0.0115645,0.0131141,0.00231919,0.0147845,0.00989411,0.946613,0.00869726,0.0127409,1252,1730,8.37689,-45.4577
35,-706,8.41003,45.5454,0.010455,0.0135021,0.00212939,0.0145969,0.00936028,1.09592,0.00853887,0.0150494,1259,1730,8.40999,-45.5454
42,-706,8.44824,45.5898,0.00934224,0.013728,0.00181028,0.0143787,0.00869155,1.22574,0.00836171,0.0130846,1266,1730,8.44828,-45.5898
49,-706,8.4823,45.6295,0.0117553,0.0134447,0.000960919,0.0138795,0.0113206,1.14596,0.00852895,0.0144712,1273,1730,8.48234,-45.6295
56,-706,8.54309,45.6615,0.0136472,0.012445,0.00016934,0.0136706,0.0124216,0.137304,0.00872723,0.0132054,1280,1730,8.54312,-45.6614
63,-706,8.58777,45.6499,0.0138907,0.0110083,-0.000744195,0.0140715,0.0108275,-0.23833,0.00850836,0.0115544,1287,1730,8.58775,-45.6499
70,-706,8.61157,45.6395,0.0138786,0.00958555,-0.0016737,0.014454,0.00901016,-0.331131,0.00842924,0.0126819,1294,1730,8.61152,-45.6395
77,-706,8.62915,45.6285,0.0143691,0.0084983,-0.00277292,0.0154717,0.00739567,-0.378473,0.00893546,0.0108825,1301,1730,8.6291,-45.6286
84,-706,8.66565,45.6016,0.0149101,0.00703104,-0.0036618,0.0163491,0.00559204,-0.374437,0.00959492,0.00892324,1308,1730,8.66571,-45.6016
91,-706,8.72937,45.5837,0.0150632,0.00600883,-0.00437319,0.0168305,0.00424156,-0.384048,0.0101076,0.0102431,1315,1730,8.72936,-45.5838
98,-706,8.75854,45.561,0.0142993,0.0051501,-0.00480096,0.0163562,0.00309325,-0.404767,0.0100333,0.014588,1322,1730,8.75854,-45.561
105,-706,8.78455,45.5184,0.0129429,0.00441941,-0.00552877,0.0156618,0.00170047,-0.45705,0.00992306,0.0168632,1329,1730,8.7846,-45.5185
112,-706,8.7771,45.4531,0.0110165,0.00390086,-0.00555216,0.0140529,0.00086439,-0.500459,0.0090942,0.0151866,1336,1730,8.77708,-45.4532
119,-706,8.80688,45.3773,0.00829478,0.00348459,-0.00520326,0.0116219,0.000157465,-0.56891,0.00769599,0.0126924,1343,1730,8.80684,-45.3773
126,-706,8.8656,45.2618,0.00540431,0.00298795,-0.00467403,0.00902379,-0.000631529,-0.658923,0.00623703,0.0144887,1350,1730,8.86556,-45.2618
133,-706,8.92224,45.13,0.00302836,0.00283237,-0.00400448,0.00693604,-0.00107531,-0.773165,0.00502099,0.0123364,1357,1730,8.92225,-45.1299
140,-706,8.974,44.9902,0.00114592,0.00274251,-0.00321175,0.00525368,-0.00136525,-0.907207,0.00403527,0.0121349,1364,1730,8.97399,-44.9903
147,-706,9.01855,44.8572,-0.000178746,0.00261751,-0.00245137,0.00404144,-0.00160267,-1.04456,0.0033585,0.0214439,1371,1730,9.01854,-44.8572
154,-706,9.03516,44.7504,-0.00448871,0.00231981,-0.00147234,0.00262456,-0.00479346,-1.36669,0.00434339,0.0208532,1378,1730,9.03513,-44.7503
161,-706,9.03735,44.6127,-0.00520173,0.00204834,-0.00100799,0.00218588,-0.00533927,-1.43519,0.00446999,0.0109238,1385,1730,9.0374,-44.6126
168,-706,9.04907,44.4539,-0.00236723,0.00181185,-0.000608835,0.00189874,-0.00245412,-1.42903,0.00251994,0.010436,1392,1730,9.04905,-44.4538
175,-706,9.08948,44.2843,0.000447556,0.00172799,-0.000368168,0.0018263,0.000349244,-1.30985,0.00111943,0.0110978,1399,1730,9.08942,-44.2843
182,-706,9.08887,44.0869,0.00160383,0.00109172,0.000406285,0.00182802,0.000867536,0.504219,0.00105586,0.0117949,1406,1730,9.08888,-44.0869
189,-706,9.09216,43.8726,0.0019678,0.000934877,0.000599671,0.00224275,0.000659923,0.429907,0.0013309,0.0149078,1413,1730,9.09218,-43.8726
196,-706,9.10278,43.6635,0.00218914,0.000680626,0.000679634,0.00245017,0.000419597,0.366701,0.0015131,0.0127199,1420,1730,9.10278,-43.6634
203,-706,9.1012,43.4626,0.0019233,0.000624649,0.000518799,0.00210511,0.000442845,0.337059,0.00128155,0.0133304,1427,1730,9.10124,-43.4626
210,-706,9.11963,43.2507,0.00162476,0.000682534,0.000341006,0.00173522,0.000572069,0.313271,0.00102102,0.0126611,1434,1730,9.11962,-43.2508
217,-706,9.13721,43.0403,0.00126911,0.000679591,9.5765e-05,0.00128428,0.000664424,0.157067,0.000741625,0.0132432,1441,1730,9.1372,-43.0403
224,-706,9.13232,42.7885,0.000999577,0.000819038,-4.83707e-05,0.00101172,0.000806895,-0.245956,0.000617631,0.0180723,1448,1730,9.13232,-42.7885
231,-706,9.14673,42.5051,0.000708748,0.000967374,-0.000160694,0.00104432,0.000631798,-1.1242,0.000607355,0.0136664,1455,1730,9.14672,-42.5051
238,-706,9.13037,42.2411,0.000516244,0.00115788,-0.000213143,0.00122223,0.000451894,-1.27759,0.000713594,0.0095324,1462,1730,9.13039,-42.2411
245,-706,9.1355,41.9611,0.000374019,0.00138462,-0.000278895,0.00145648,0.000302162,-1.31863,0.000887579,0.0124134,1469,1730,9.13546,-41.9611
252,-706,9.12585,41.6959,0.000173697,0.00160429,-0.000379634,0.00169879,7.91971e-05,-1.32683,0.00110707,0.0121947,1476,1730,9.12586,-41.6959
259,-706,9.13684,41.413,-8.35421e-05,0.00171325,-0.000476517,0.0018318,-0.000202095,-1.32696,0.00129384,0.0133205,1483,1730,9.13686,-41.413
266,-706,9.12085,41.1382,-0.000317649,0.0019231,-0.000661974,0.00210405,-0.0004986,-1.30396,0.00159509,0.0128304,1490,1730,9.12082,-41.1382
273,-706,9.10083,40.8412,-0.000362481,0.00250828,-0.00111524,0.00289062,-0.000744815,-1.24053,0.00221745,0.0116409,1497,1730,9.10079,-40.8412
280,-706,9.0885,40.5013,-0.000476912,0.00299267,-0.00161699,0.00362941,-0.00111365,-1.19566,0.00286393,0.00965775,1504,1730,9.08851,-40.5013
287,-706,9.05066,40.1802,-0.000628622,0.00388386,-0.00223002,0.00479993,-0.0015447,-1.18102,0.00382041,0.0105763,1511,1730,9.05066,-40.1802
294,-706,9.0531,39.8785,-0.000734188,0.00462296,-0.0029607,0.00593694,-0.00204817,-1.1531,0.00478898,0.0110603,1518,1730,9.05306,-39.8785
301,-706,9.0387,39.5436,-0.000725557,0.00545432,-0.00344875,0.00699489,-0.00226612,-1.15069,0.00557435,0.0107725,1525,1730,9.03866,-39.5435
308,-706,9.03406,39.192,-0.000679341,0.00567312,-0.00394698,0.00756316,-0.00256938,-1.12421,0.00608224,0.0127246,1532,1730,9.03409,-39.192
315,-706,9.00793,38.8683,-0.000768051,0.00598822,-0.00425401,0.00804225,-0.00282208,-1.12097,0.0065094,0.0188033,1539,1730,9.00799,-38.8683
322,-706,8.95764,38.5621,-0.000692767,0.00637691,-0.00441794,0.00850009,-0.00281595,-1.1228,0.00680252,0.0276384,1546,1730,8.95768,-38.5621
329,-706,9.01099,38.0939,-0.000550906,0.00556957,-0.00422948,0.00772982,-0.00271116,-1.09858,0.00625593,0.0317463,1553,1730,9.01098,-38.0939
336,-706,8.86511,37.5071,0.000759523,0.00533431,-0.00144346,0.00575168,0.000342152,-1.28933,0.00372565,0.0481773,1560,1730,8.86506,-37.5071
343,-706,8.90515,37.4082,0,0,0,0,0,0,0,-1,1567,1730,8.9052,-37.4082
350,-706,8.69507,37.0082,0.00430253,0.00378044,0.00877379,0.0128192,-0.00473618,0.770526,0.0104876,0.0454407,1574,1730,8.69512,-37.0081
357,-706,8.8302,36.8046,0.00702491,0.00277379,0.0147092,0.0197613,-0.00996261,0.713642,0.0174692,0.0498827,1581,1730,8.83019,-36.8046
364,-706,8.23694,36.6747,0,0,0,0,0,0,0,-1,1588,1730,8.23688,-36.6746
371,-706,6.27881,24.0759,0,0,0,0,0,0,0,-1,1595,1730,6.27883,-24.0759
378,-706,5.35144,34.8915,0,0,0,0,0,0,0,-1,1602,1730,5.35143,-34.8914
385,-706,5.52905,34.6678,0.0214272,0.00180517,0.0501631,0.0627297,-0.0394973,0.688826,0.0595267,0.0466804,1609,1730,5.52901,-34.6679
392,-706,5.71912,34.559,0.0256399,0.00234182,0.0591892,0.0743154,-0.0463338,0.688235,0.0702785,0.0423013,1616,1730,5.71918,-34.559
399,-706,6.15833,33.9858,0,0,0,0,0,0,0,-1,1623,1730,6.15833,-33.9858
406,-706,6.04211,18.8085,0,0,0,0,0,0,0,-1,1630,1730,6.04216,-18.8085
413,-706,6.23413,20.7725,0,0,0,0,0,0,0,-1,1637,1730,6.23413,-20.7725
420,-706,6.51294,21.9171,0,0,0,0,0,0,0,-1,1644,1730,6.51292,-21.9171
427,-706,0,0,0,0,0,0,0,0,0,-1,1651,1730,0,0
434,-706,0,0,0,0,0,0,0,0,0,-1,1658,1730,0,0
441,-706,0,0,0,0,0,0,0,0,0,-1,1665,1730,0,0
448,-706,0,0,0,0,0,0,0,0,0,-1,1672,1730,0,0
455,-706,0,0,0,0,0,0,0,0,0,-1,1679,1730,0,0
462,-706,0,0,0,0,0,0,0,0,0,-1,1686,1730,0,0
469,-706,0,0,0,0,0,0,0,0,0,-1,1693,1730,0,0
476,-706,0,0,0,0,0,0,0,0,0,-1,1700,1730,0,0
483,-706,0,0,0,0,0,0,0,0,0,-1,1707,1730,0,0
490,-706,0,0,0,0,0,0,0,0,0,-1,1714,1730,0,0
497,-706,0,0,0,0,0,0,0,0,0,-1,1721,1730,0,0
504,-706,0,0,0,0,0,0,0,0,0,-1,1728,1730,0,0
511,-706,0,0,0,0,0,0,0,0,0,-1,1735,1730,0,0
518,-706,0,0,0,0,0,0,0,0,0,-1,1742,1730,0,0
525,-706,0,0,0,0,0,0,0,0,0,-1,1749,1730,0,0
532,-706,0,0,0,0,0,0,0,0,0,-1,1756,1730,0,0
539,-706,0,0,0,0,0,0,0,0,0,-1,1763,1730,0,0
546,-706,0,0,0,0,0,0,0,0,0,-1,1770,1730,0,0
553,-706,0,0,0,0,0,0,0,0,0,-1,1777,1730,0,0
560,-706,0,0,0,0,0,0,0,0,0,-1,1784,1730,0,0
567,-706,0,0,0,0,0,0,0,0,0,-1,1791,1730,0,0
574,-706,0,0,0,0,0,0,0,0,0,-1,1798,1730,0,0
581,-706,0,0,0,0,0,0,0,0,0,-1,1805,1730,0,0
588,-706,0,0,0,0,0,0,0,0,0,-1,1812,1730,0,0
595,-706,0,0,0,0,0,0,0,0,0,-1,1819,1730,0,0
602,-706,0,0,0,0,0,0,0,0,0,-1,1826,1730,0,0
609,-706,0,0,0,0,0,0,0,0,0,-1,1833,1730,0,0
616,-706,0,0,0,0,0,0,0,0,0,-1,1840,1730,0,0
623,-706,0,0,0,0,0,0,0,0,0,-1,1847,1730,0,0
630,-706,0,0,0,0,0,0,0,0,0,-1,1854,1730,0,0
637,-706,0,0,0,0,0,0,0,0,0,-1,1861,1730,0,0
644,-706,0,0,0,0,0,0,0,0,0,-1,1868,1730,0,0
651,-706,0,0,0,0,0,0,0,0,0,-1,1875,1730,0,0
658,-706,0,0,0,0,0,0,0,0,0,-1,1882,1730,0,0
665,-706,0,0,0,0,0,0,0,0,0,-1,1889,1730,0,0
672,-706,0,0,0,0,0,0,0,0,0,-1,1896,1730,0,0
679,-706,0,0,0,0,0,0,0,0,0,-1,1903,1730,0,0
686,-706,0,0,0,0,0,0,0,0,0,-1,1910,1730,0,0
693,-706,0,0,0,0,0,0,0,0,0,-1,1917,1730,0,0
700,-706,0,0,0,0,0,0,0,0,0,-1,1924,1730,0,0
707,-706,0,0,0,0,0,0,0,0,0,-1,1931,1730,0,0
714,-706,0,0,0,0,0,0,0,0,0,-1,1938,1730,0,0
721,-706,0,0,0,0,0,0,0,0,0,-1,1945,1730,0,0
728,-706,0,0,0,0,0,0,0,0,0,-1,1952,1730,0,0
735,-706,0,0,0,0,0,0,0,0,0,-1,1959,1730,0,0
742,-706,0,0,0,0,0,0,0,0,0,-1,1966,1730,0,0
749,-706,0,0,0,0,0,0,0,0,0,-1,1973,1730,0,0
756,-706,0,0,0,0,0,0,0,0,0,-1,1980,1730,0,0
763,-706,0,0,0,0,0,0,0,0,0,-1,1987,1730,0,0
770,-706,0,0,0,0,0,0,0,0,0,-1,1994,1730,0,0
777,-706,0,0,0,0,0,0,0,0,0,-1,2001,1730,0,0
784,-706,0,0,0,0,0,0,0,0,0,-1,2008,1730,0,0
791,-706,0,0,0,0,0,0,0,0,0,-1,2015,1730,0,0
798,-706,0,0,0,0,0,0,0,0,0,-1,2022,1730,0,0
805,-706,0,0,0,0,0,0,0,0,0,-1,2029,1730,0,0
812,-706,0,0,0,0,0,0,0,0,0,-1,2036,1730,0,0
-700,-713,0,0,0,0,0,0,0,0,0,-1,524,1737,0,0
-693,-713,0,0,0,0,0,0,0,0,0,-1,531,1737,0,0
-686,-713,0,0,0,0,0,0,0,0,0,-1,538,1737,0,0
-679,-713,0,0,0,0,0,0,0,0,0,-1,545,1737,0,0
-672,-713,0,0,0,0,0,0,0,0,0,-1,552,1737,0,0
-665,-713,0,0,0,0,0,0,0,0,0,-1,559,1737,0,0
-658,-713,0,0,0,0,0,0,0,0,0,-1,566,1737,0,0
-651,-713,0,0,0,0,0,0,0,0,0,-1,573,1737,0,0
-644,-713,0,0,0,0,0,0,0,0,0,-1,580,1737,0,0
-637,-713,0,0,0,0,0,0,0,0,0,-1,587,1737,0,0
-630,-713,0,0,0,0,0,0,0,0,0,-1,594,1737,0,0
-623,-713,0,0,0,0,0,0,0,0,0,-1,601,1737,0,0
-616,-713,0,0,0,0,0,0,0,0,0,-1,608,1737,0,0
-609,-713,0,0,0,0,0,0,0,0,0,-1,615,1737,0,0
-602,-713,0,0,0,0,0,0,0,0,0,-1,622,1737,0,0
-595,-713,0,0,0,0,0,0,0,0,0,-1,629,1737,0,0
-588,-713,0,0,0,0,0,0,0,0,0,-1,636,1737,0,0
-581,-713,0,0,0,0,0,0,0,0,0,-1,643,1737,0,0
-574,-713,0,0,0,0,0,0,0,0,0,-1,650,1737,0,0
-567,-713,0,0,0,0,0,0,0,0,0,-1,657,1737,0,0
-560,-713,0,0,0,0,0,0,0,0,0,-1,664,1737,0,0
-553,-713,0,0,0,0,0,0,0,0,0,-1,671,1737,0,0
-546,-713,0,0,0,0,0,0,0,0,0,-1,678,1737,0,0
-539,-713,0,0,0,0,0,0,0,0,0,-1,685,1737,0,0
-532,-713,0,0,0,0,0,0,0,0,0,-1,692,1737,0,0
-525,-713,0,0,0,0,0,0,0,0,0,-1,699,1737,0,0
-518,-713,0,0,0,0,0,0,0,0,0,-1,706,1737,0,0
-511,-713,0,0,0,0,0,0,0,0,0,-1,713,1737,0,0
-504,-713,0,0,0,0,0,0,0,0,0,-1,720,1737,0,0
-497,-713,0,0,0,0,0,0,0,0,0,-1,727,1737,0,0
-490,-713,0,0,0,0,0,0,0,0,0,-1,734,1737,0,0
-483,-713,0,0,0,0,0,0,0,0,0,-1,741,1737,0,0
-476,-713,0,0,0,0,0,0,0,0,0,-1,748,1737,0,0
-469,-713,0,0,0,0,0,0,0,0,0,-1,755,1737,0,0
-462,-713,0,0,0,0,0,0,0,0,0,-1,762,1737,0,0
-455,-713,0,0,0,0,0,0,0,0,0,-1,769,1737,0,0
-448,-713,0,0,0,0,0,0,0,0,0,-1,776,1737,0,0
-441,-713,0,0,0,0,0,0,0,0,0,-1,783,1737,0,0
-434,-713,0,0,0,0,0,0,0,0,0,-1,790,1737,0,0
-427,-713,0,0,0,0,0,0,0,0,0,-1,797,1737,0,0
-420,-713,0,0,0,0,0,0,0,0,0,-1,804,1737,0,0
-413,-713,0,0,0,0,0,0,0,0,0,-1,811,1737,0,0
-406,-713,0,0,0,0,0,0,0,0,0,-1,818,1737,0,0
-399,-713,0,0,0,0,0,0,0,0,0,-1,825,1737,0,0
-392,-713,0,0,0,0,0,0,0,0,0,-1,832,1737,0,0
-385,-713,0,0,0,0,0,0,0,0,0,-1,839,1737,0,0
-378,-713,0,0,0,0,0,0,0,0,0,-1,846,1737,0,0
-371,-713,0,0,0,0,0,0,0,0,0,-1,853,1737,0,0
-364,-713,0,0,0,0,0,0,0,0,0,-1,860,1737,0,0
-357,-713,0,0,0,0,0,0,0,0,0,-1,867,1737,0,0
-350,-713,0,0,0,0,0,0,0,0,0,-1,874,1737,0,0
-343,-713,0,0,0,0,0,0,0,0,0,-1,881,1737,0,0
-336,-713,0,0,0,0,0,0,0,0,0,-1,888,1737,0,0
-329,-713,0,0,0,0,0,0,0,0,0,-1,895,1737,0,0
-322,-713,0,0,0,0,0,0,0,0,0,-1,902,1737,0,0
-315,-713,0,0,0,0,0,0,0,0,0,-1,909,1737,0,0
-308,-713,0,0,0,0,0,0,0,0,0,-1,916,1737,0,0
-301,-713,0,0,0,0,0,0,0,0,0,-1,923,1737,0,0
-294,-713,7.17883,22.0453,0,0,0,0,0,0,0,-1,930,1737,7.17881,-22.0453
-287,-713,11.8916,21.5834,0,0,0,0,0,0,0,-1,937,1737,11.8916,-21.5833
-280,-713,10.2786,21.3551,0,0,0,0,0,0,0,-1,944,1737,10.2787,-21.3551
-273,-713,11.1981,23.8683,0,0,0,0,0,0,0,-1,951,1737,11.198,-23.8683
-266,-713,3.17981,19.8851,0,0,0,0,0,0,0,-1,958,1737,3.17983,-19.8851
-259,-713,3.5921,19.6868,0,0,0,0,0,0,0,-1,965,1737,3.59207,-19.6868
-252,-713,4.55469,20.5758,0,0,0,0,0,0,0,-1,972,1737,4.55466,-20.5758
-245,-713,3.89014,25.9825,0,0,0,0,0,0,0,-1,979,1737,3.89013,-25.9826
-238,-713,6.62506,30.5463,0,0,0,0,0,0,0,-1,986,1737,6.62509,-30.5462
-231,-713,7.31439,35.574,0,0,0,0,0,0,0,-1,993,1737,7.31436,-35.574
-224,-713,7.59491,25.9907,0,0,0,0,0,0,0,-1,1000,1737,7.59488,-25.9908
-217,-713,7.70526,37.0728,0,0,0,0,0,0,0,-1,1007,1737,7.70527,-37.0728
-210,-713,7.66925,37.5398,0,0,0,0,0,0,0,-1,1014,1737,7.66926,-37.5397
-203,-713,8.56812,37.4255,0,0,0,0,0,0,0,-1,1021,1737,8.56816,-37.4256
-196,-713,8.56128,37.998,0,0,0,0,0,0,0,-1,1028,1737,8.56123,-37.9981
-189,-713,8.32874,38.2854,-0.00663609,-0.0125453,0.00560512,-0.00325453,-0.0159269,0.542842,0.00971649,0.0441445,1035,1737,8.32868,-38.2854
-182,-713,8.33704,38.6848,-0.00734352,-0.012362,0.00465255,-0.0045667,-0.0151389,0.538091,0.00896673,0.0298946,1042,1737,8.33698,-38.6848
-175,-713,8.48486,38.9926,-0.00771514,-0.011728,0.0036935,-0.00551827,-0.0139249,0.536582,0.00809696,0.0288103,1049,1737,8.48483,-38.9926
-168,-713,8.64478,39.3447,-0.00785885,-0.0105063,0.00323725,-0.00568516,-0.01268,0.591316,0.00733383,0.0357884,1056,1737,8.64482,-39.3447
-161,-713,8.4845,39.8151,-0.0077716,-0.00894675,0.00278503,-0.00551283,-0.0112055,0.681435,0.00646978,0.0173137,1063,1737,8.48445,-39.815
-154,-713,8.40137,40.179,-0.00735643,-0.0072248,0.00257035,-0.00471943,-0.0098618,0.798198,0.00569546,0.0127175,1070,1737,8.40133,-40.1789
-147,-713,8.37585,40.5493,-0.00654696,-0.00564235,0.00256728,-0.00348783,-0.00870147,0.872593,0.00505663,0.0192409,1077,1737,8.37584,-40.5493
-140,-713,8.39294,40.8816,-0.00548895,-0.00404134,0.00250381,-0.00215881,-0.00737148,0.926104,0.00437597,0.0179313,1084,1737,8.39294,-40.8816
-133,-713,8.34973,41.13,-0.00446165,-0.00266983,0.00236845,-0.0010335,-0.00609798,0.966214,0.00376836,0.0120534,1091,1737,8.34975,-41.13
-126,-713,8.33325,41.3862,-0.00358608,-0.0014575,0.00227411,-1.09577e-05,-0.00503263,1.00426,0.00335144,0.0188338,1098,1737,8.33329,-41.3862
-119,-713,8.29797,41.6626,-0.00271739,-0.000240862,0.00231492,0.00114616,-0.00410441,1.03099,0.00318777,0.0272041,1105,1737,8.29801,-41.6626
-112,-713,8.29187,42.0393,-0.00160592,0.000812547,0.00227402,0.00217885,-0.00297223,1.02976,0.00298571,0.014187,1112,1737,8.29189,-42.0393
-105,-713,8.28943,42.2954,-0.000679328,0.00109214,0.00193301,0.00233268,-0.00191987,1.00023,0.00245907,0.0111549,1119,1737,8.28939,-42.2954
-98,-713,8.27527,42.5381,-0.000408605,0.00111035,0.00177947,0.00228563,-0.00158389,0.987096,0.00224628,0.0104262,1126,1737,8.27521,-42.538
-91,-713,8.25488,42.7908,-6.89373e-05,0.00113959,0.00158148,0.00222831,-0.00115766,0.967883,0.0019872,0.0102219,1133,1737,8.25482,-42.7907
-84,-713,8.2478,43.0408,0.000226331,0.00103577,0.00134346,0.00203414,-0.000772044,0.9317,0.00167388,0.0101593,1140,1737,8.24775,-43.0408
-77,-713,8.25354,43.2931,0.000607102,0.000966466,0.00113886,0.00193973,-0.000366163,0.86364,0.00143091,0.0133416,1147,1737,8.25356,-43.293
-70,-713,8.23828,43.5101,0.000878545,0.00075016,0.000819925,0.00163679,-8.08103e-06,0.746332,0.00109389,0.0148084,1154,1737,8.23834,-43.5102
-63,-713,8.2323,43.7217,0.00117868,0.000195364,0.000509222,0.00139486,-2.08154e-05,0.401472,0.000936923,0.013032,1161,1737,8.23231,-43.7217
-56,-713,8.25586,43.9487,0.00169985,-0.000268771,0.000487832,0.0018141,-0.000383027,0.230064,0.00135524,0.013023,1168,1737,8.25588,-43.9487
-49,-713,8.22192,44.1621,0.00217617,-0.000724403,0.000469329,0.00225022,-0.000798453,0.156488,0.00182546,0.0152833,1175,1737,8.22197,-44.1621
-42,-713,8.2345,44.3197,0.00300847,-0.000548223,0.000556187,0.00309342,-0.00063317,0.151559,0.00230254,0.0179693,1182,1737,8.23453,-44.3197
-35,-713,8.26685,44.4628,0.00402184,-0.000308382,0.000746783,0.00414701,-0.000433552,0.16607,0.00291994,0.0150063,1189,1737,8.26685,-44.4628
-28,-713,8.29822,44.6368,0.00500315,-8.50168e-06,0.000847124,0.00514247,-0.000147819,0.163,0.00347863,0.0125701,1196,1737,8.29822,-44.6369
-21,-713,8.27844,44.7855,0.0058573,0.000743725,0.000953089,0.00602916,0.00057186,0.178406,0.00384303,0.00905058,1203,1737,8.27839,-44.7855
-14,-713,8.29138,44.9125,0.00656688,0.00172275,0.00107629,0.00679525,0.00149438,0.209081,0.00412332,0.0107094,1210,1737,8.29141,-44.9125
-7,-713,8.34229,45.0513,0.00723798,0.00282962,0.00107736,0.00748718,0.00258041,0.227316,0.00439173,0.0100283,1217,1737,8.34233,-45.0513
0,-713,8.35986,45.175,0.00766269,0.00424923,0.00152137,0.00824233,0.00366959,0.364021,0.00476823,0.0143023,1224,1737,8.35984,-45.175
7,-713,8.3678,45.2621,0.00788575,0.00563109,0.00190269,0.00897,0.00454684,0.517957,0.005179,0.0163083,1231,1737,8.3678,-45.2621
14,-713,8.3811,45.3635,0.00805976,0.00691169,0.00213296,0.00969458,0.00527687,0.65395,0.00560449,0.0120242,1238,1737,8.38115,-45.3635
21,-713,8.41162,45.4209,0.0080273,0.00802146,0.00228427,0.0103087,0.00574011,0.78476,0.0059645,0.0112051,1245,1737,8.41158,-45.4209
28,-713,8.4209,45.4841,0.00764607,0.00874078,0.00232643,0.0105834,0.00580348,0.900936,0.00611983,0.0118898,1252,1737,8.42086,-45.4841
35,-713,8.45276,45.5587,0.00713355,0.00910924,0.00222659,0.0105573,0.00568551,0.994183,0.00610128,0.0117379,1259,1737,8.45273,-45.5588
42,-713,8.49963,45.621,0.00659859,0.00935652,0.00206083,0.0104572,0.00549793,1.08025,0.00604013,0.011548,1266,1737,8.49967,-45.621
49,-713,8.52356,45.6135,0.00858688,0.00918344,0.00151872,0.0104329,0.00733742,0.882365,0.00618717,0.0114344,1273,1737,8.52361,-45.6135
56,-713,8.55164,45.6223,0.0101678,0.0085328,0.000984382,0.0106299,0.00807073,0.438867,0.00640627,0.012082,1280,1737,8.55159,-45.6223
63,-713,8.56848,45.6523,0.0106732,0.00752217,0.000376598,0.0107176,0.00747779,0.117314,0.00634702,0.0126476,1287,1737,8.56844,-45.6524
70,-713,8.59033,45.6577,0.0109853,0.00654777,-0.000217058,0.0109959,0.00653718,-0.0487591,0.00638617,0.0122856,1294,1737,8.59031,-45.6577
77,-713,8.61035,45.653,0.0116624,0.00571769,-0.000924672,0.0118029,0.00557718,-0.1508,0.00681785,0.0118235,1301,1737,8.6104,-45.6529
84,-713,8.64368,45.6523,0.0124463,0.00462276,-0.00142437,0.0126975,0.0043715,-0.174602,0.00744849,0.0120171,1308,1737,8.64362,-45.6523
91,-713,8.67664,45.6168,0.0128982,0.00371819,-0.00179392,0.0132363,0.00338008,-0.186289,0.00794106,0.0125453,1315,1737,8.67667,-45.6169
98,-713,8.698,45.5553,0.012644,0.0029275,-0.00194724,0.0130197,0.00255179,-0.190602,0.00796663,0.0126099,1322,1737,8.69794,-45.5553
105,-713,8.71448,45.5048,0.0119535,0.00223115,-0.00234683,0.0124904,0.00169431,-0.224884,0.00782354,0.0139583,1329,1737,8.71445,-45.5048
112,-713,8.7196,45.4591,0.0107412,0.00171838,-0.00228111,0.0112851,0.00117447,-0.234071,0.00716407,0.0133333,1336,1737,8.71965,-45.459
119,-713,8.73889,45.3789,0.00898616,0.001205,-0.00192978,0.00943847,0.000752688,-0.230227,0.00605703,0.0141566,1343,1737,8.73884,-45.3789
126,-713,8.75476,45.2793,0.00714919,0.000723993,-0.00148198,0.00747454,0.000398646,-0.216107,0.0048556,0.0134932,1350,1737,8.7547,-45.2793
133,-713,8.77344,45.1483,0.00553259,0.000537053,-0.000994784,0.0057234,0.000346245,-0.189507,0.00370558,0.0113894,1357,1737,8.77345,-45.1483
140,-713,8.84058,45.0249,0.00412297,0.000473513,-0.000513314,0.0041938,0.000402688,-0.137111,0.00267177,0.012892,1364,1737,8.84063,-45.0249
147,-713,8.85522,44.8915,0.00294044,0.000409943,-0.000158805,0.00295037,0.000400016,-0.0624299,0.00184806,0.0148887,1371,1737,8.85522,-44.8915
154,-713,8.83472,44.78,-5.88108e-05,0.00033262,0.000269782,0.000470202,-0.000196392,1.0992,0.000395533,0.0147025,1378,1737,8.83477,-44.7801
161,-713,8.86597,44.6038,-0.000654174,0.000310578,0.000409148,0.000460728,-0.000804324,1.21907,0.000739303,0.0106509,1385,1737,8.86595,-44.6037
168,-713,8.87427,44.4368,0.000547885,0.000326438,0.000433067,0.000884158,-9.83579e-06,0.660243,0.000592745,0.00979073,1392,1737,8.87424,-44.4368
175,-713,8.89099,44.2639,0.00150522,0.000363611,0.000324104,0.00159081,0.000278016,0.258204,0.00098109,0.0133606,1399,1737,8.89096,-44.2639
182,-713,8.88867,44.0826,0.00150492,0.000289,0.000439644,0.00164722,0.000146691,0.313047,0.00105267,0.0129087,1406,1737,8.88864,-44.0826
189,-713,8.88135,43.8741,0.00120424,0.000527169,0.000252968,0.00128831,0.000443094,0.320868,0.000755789,0.0119034,1413,1737,8.88132,-43.8741
196,-713,8.8988,43.6754,0.000957623,0.000716882,4.20545e-05,0.000964758,0.000709747,0.168059,0.00057726,0.0128404,1420,1737,8.89884,-43.6754
203,-713,8.88525,43.4785,0.000735655,0.00114176,-0.000138264,0.00118437,0.000693051,-1.27189,0.000687093,0.0167678,1427,1737,8.88522,-43.4785
210,-713,8.89148,43.2319,0.00049041,0.00150674,-0.0001766,0.00153655,0.000460598,-1.40356,0.000910532,0.0136217,1434,1737,8.89145,-43.2319
217,-713,8.91223,43.0109,0.000241868,0.00168298,-0.000279369,0.00173524,0.000189605,-1.38586,0.00109909,0.0109364,1441,1737,8.91218,-43.0109
224,-713,8.9032,42.7754,-7.85613e-06,0.00193954,-0.000356492,0.00200275,-7.10643e-05,-1.39531,0.00135947,0.0118258,1448,1737,8.90319,-42.7754
231,-713,8.90112,42.5193,-0.000326335,0.00218082,-0.000390291,0.00224017,-0.000385687,-1.41988,0.00163722,0.0111521,1455,1737,8.90108,-42.5193
238,-713,8.87793,42.2488,-0.000544552,0.00239239,-0.00036827,0.00243787,-0.000590026,-1.44794,0.00185349,0.00873613,1462,1737,8.87794,-42.2487
245,-713,8.87854,41.9834,-0.000680759,0.00263753,-0.000398348,0.00268468,-0.00072791,-1.45298,0.00207542,0.0114735,1469,1737,8.87851,-41.9834
252,-713,8.87793,41.6927,-0.000881919,0.00285254,-0.000479498,0.00291312,-0.000942503,-1.44511,0.00232094,0.0122132,1476,1737,8.87798,-41.6927
259,-713,8.88245,41.385,-0.00115412,0.00290925,-0.00054948,0.00298224,-0.00122712,-1.43873,0.0024997,0.0129122,1483,1737,8.88247,-41.385
266,-713,8.84045,41.1492,-0.0013658,0.00313061,-0.000757407,0.00325477,-0.00148996,-1.40832,0.00280182,0.0119314,1490,1737,8.84042,-41.1492
273,-713,8.80713,40.861,-0.0013031,0.00382661,-0.00133963,0.00415538,-0.00163188,-1.33013,0.00344553,0.00926956,1497,1737,8.80717,-40.861
280,-713,8.76941,40.5345,-0.00133595,0.00439823,-0.00195333,0.00500039,-0.00193811,-1.27177,0.00413395,0.00970419,1504,1737,8.7694,-40.5346
287,-713,8.7478,40.2177,-0.00141139,0.00550477,-0.0027167,0.00644428,-0.0023509,-1.23784,0.00525802,0.0108973,1511,1737,8.74775,-40.2177
294,-713,8.75403,39.9119,-0.00142067,0.00646517,-0.00363667,0.0078862,-0.0028417,-1.19829,0.00641795,0.0162695,1518,1737,8.754,-39.9119
301,-713,8.75391,39.5758,-0.00125605,0.00757152,-0.00424197,0.00927949,-0.00296402,-1.18802,0.0073756,0.0176598,1525,1737,8.75393,-39.5758
308,-713,8.74878,39.2223,-0.000971778,0.00787186,-0.00489965,0.01005,-0.00314989,-1.15249,0.00796046,0.0195421,1532,1737,8.74882,-39.2223
315,-713,8.66357,38.8334,-0.00088219,0.00849222,-0.00545627,0.0109981,-0.00338809,-1.14026,0.00868461,0.0285103,1539,1737,8.6636,-38.8334
322,-713,8.86389,38.126,-0.000696574,0.00928833,-0.00575351,0.0119135,-0.00332169,-1.14275,0.00925051,0.0435808,1546,1737,8.8639,-38.1259
329,-713,8.8689,37.9757,0,0,0,0,0,0,0,-1,1553,1737,8.86884,-37.9757
336,-713,8.76489,37.3818,0,0,0,0,0,0,0,-1,1560,1737,8.76489,-37.3818
343,-713,8.10034,36.9757,0,0,0,0,0,0,0,-1,1567,1737,8.10036,-36.9757
350,-713,7.7467,37.0846,0,0,0,0,0,0,0,-1,1574,1737,7.74672,-37.0846
357,-713,7.92981,36.8632,0,0,0,0,0,0,0,-1,1581,1737,7.92981,-36.8631
364,-713,7.35474,20.9537,0,0,0,0,0,0,0,-1,1588,1737,7.35472,-20.9537
371,-713,3.07507,25.4108,0,0,0,0,0,0,0,-1,1595,1737,3.07502,-25.4107
378,-713,4.21838,25.306,0,0,0,0,0,0,0,-1,1602,1737,4.21837,-25.306
385,-713,4.26318,34.4578,0,0,0,0,0,0,0,-1,1609,1737,4.26314,-34.4578
392,-713,4.18164,34.6691,0,0,0,0,0,0,0,-1,1616,1737,4.18164,-34.669
399,-713,3.14368,25.2808,0,0,0,0,0,0,0,-1,1623,1737,3.14369,-25.2808
406,-713,1.82678,26.7354,0,0,0,0,0,0,0,-1,1630,1737,1.82679,-26.7354
413,-713,3.24731,18.2787,0,0,0,0,0,0,0,-1,1637,1737,3.24726,-18.2787
420,-713,0,0,0,0,0,0,0,0,0,-1,1644,1737,0,0
427,-713,0,0,0,0,0,0,0,0,0,-1,1651,1737,0,0
434,-713,0,0,0,0,0,0,0,0,0,-1,1658,1737,0,0
441,-713,0,0,0,0,0,0,0,0,0,-1,1665,1737,0,0
448,-713,0,0,0,0,0,0,0,0,0,-1,1672,1737,0,0
455,-713,0,0,0,0,0,0,0,0,0,-1,1679,1737,0,0
462,-713,0,0,0,0,0,0,0,0,0,-1,1686,1737,0,0
469,-713,0,0,0,0,0,0,0,0,0,-1,1693,1737,0,0
476,-713,0,0,0,0,0,0,0,0,0,-1,1700,1737,0,0
483,-713,0,0,0,0,0,0,0,0,0,-1,1707,1737,0,0
490,-713,0,0,0,0,0,0,0,0,0,-1,1714,1737,0,0
497,-713,0,0,0,0,0,0,0,0,0,-1,1721,1737,0,0
504,-713,0,0,0,0,0,0,0,0,0,-1,1728,1737,0,0
511,-713,0,0,0,0,0,0,0,0,0,-1,1735,1737,0,0
518,-713,0,0,0,0,0,0,0,0,0,-1,1742,1737,0,0
525,-713,0,0,0,0,0,0,0,0,0,-1,1749,1737,0,0
532,-713,0,0,0,0,0,0,0,0,0,-1,1756,1737,0,0
539,-713,0,0,0,0,0,0,0,0,0,-1,1763,1737,0,0
546,-713,0,0,0,0,0,0,0,0,0,-1,1770,1737,0,0
553,-713,0,0,0,0,0,0,0,0,0,-1,1777,1737,0,0
560,-713,0,0,0,0,0,0,0,0,0,-1,1784,1737,0,0
567,-713,0,0,0,0,0,0,0,0,0,-1,1791,1737,0,0
574,-713,0,0,0,0,0,0,0,0,0,-1,1798,1737,0,0
581,-713,0,0,0,0,0,0,0,0,0,-1,1805,1737,0,0
588,-713,0,0,0,0,0,0,0,0,0,-1,1812,1737,0,0
595,-713,0,0,0,0,0,0,0,0,0,-1,1819,1737,0,0
602,-713,0,0,0,0,0,0,0,0,0,-1,1826,1737,0,0
609,-713,0,0,0,0,0,0,0,0,0,-1,1833,1737,0,0
616,-713,0,0,0,0,0,0,0,0,0,-1,1840,1737,0,0
623,-713,0,0,0,0,0,0,0,0,0,-1,1847,1737,0,0
630,-713,0,0,0,0,0,0,0,0,0,-1,1854,1737,0,0
637,-713,0,0,0,0,0,0,0,0,0,-1,1861,1737,0,0
644,-713,0,0,0,0,0,0,0,0,0,-1,1868,1737,0,0
651,-713,0,0,0,0,0,0,0,0,0,-1,1875,1737,0,0
658,-713,0,0,0,0,0,0,0,0,0,-1,1882,1737,0,0
665,-713,0,0,0,0,0,0,0,0,0,-1,1889,1737,0,0
672,-713,0,0,0,0,0,0,0,0,0,-1,1896,1737,0,0
679,-713,0,0,0,0,0,0,0,0,0,-1,1903,1737,0,0
686,-713,0,0,0,0,0,0,0,0,0,-1,1910,1737,0,0
693,-713,0,0,0,0,0,0,0,0,0,-1,1917,1737,0,0
700,-713,0,0,0,0,0,0,0,0,0,-1,1924,1737,0,0
707,-713,0,0,0,0,0,0,0,0,0,-1,1931,1737,0,0
714,-713,0,0,0,0,0,0,0,0,0,-1,1938,1737,0,0
721,-713,0,0,0,0,0,0,0,0,0,-1,1945,1737,0,0
728,-713,0,0,0,0,0,0,0,0,0,-1,1952,1737,0,0
735,-713,0,0,0,0,0,0,0,0,0,-1,1959,1737,0,0
742,-713,0,0,0,0,0,0,0,0,0,-1,1966,1737,0,0
749,-713,0,0,0,0,0,0,0,0,0,-1,1973,1737,0,0
756,-713,0,0,0,0,0,0,0,0,0,-1,1980,1737,0,0
763,-713,0,0,0,0,0,0,0,0,0,-1,1987,1737,0,0
770,-713,0,0,0,0,0,0,0,0,0,-1,1994,1737,0,0
777,-713,0,0,0,0,0,0,0,0,0,-1,2001,1737,0,0
784,-713,0,0,0,0,0,0,0,0,0,-1,2008,1737,0,0
791,-713,0,0,0,0,0,0,0,0,0,-1,2015,1737,0,0
798,-713,0,0,0,0,0,0,0,0,0,-1,2022,1737,0,0
805,-713,0,0,0,0,0,0,0,0,0,-1,2029,1737,0,0
812,-713,0,0,0,0,0,0,0,0,0,-1,2036,1737,0,0
-700,-720,0,0,0,0,0,0,0,0,0,-1,524,1744,0,0
-693,-720,0,0,0,0,0,0,0,0,0,-1,531,1744,0,0
-686,-720,0,0,0,0,0,0,0,0,0,-1,538,1744,0,0
-679,-720,0,0,0,0,0,0,0,0,0,-1,545,1744,0,0
-672,-720,0,0,0,0,0,0,0,0,0,-1,552,1744,0,0
-665,-720,0,0,0,0,0,0,0,0,0,-1,559,1744,0,0
-658,-720,0,0,0,0,0,0,0,0,0,-1,566,1744,0,0
-651,-720,0,0,0,0,0,0,0,0,0,-1,573,1744,0,0
-644,-720,0,0,0,0,0,0,0,0,0,-1,580,1744,0,0
-637,-720,0,0,0,0,0,0,0,0,0,-1,587,1744,0,0
-630,-720,0,0,0,0,0,0,0,0,0,-1,594,1744,0,0
-623,-720,0,0,0,0,0,0,0,0,0,-1,601,1744,0,0
-616,-720,0,0,0,0,0,0,0,0,0,-1,608,1744,0,0
-609,-720,0,0,0,0,0,0,0,0,0,-1,615,1744,0,0
-602,-720,0,0,0,0,0,0,0,0,0,-1,622,1744,0,0
-595,-720,0,0,0,0,0,0,0,0,0,-1,629,1744,0,0
-588,-720,0,0,0,0,0,0,0,0,0,-1,636,1744,0,0
-581,-720,0,0,0,0,0,0,0,0,0,-1,643,1744,0,0
-574,-720,0,0,0,0,0,0,0,0,0,-1,650,1744,0,0
-567,-720,0,0,0,0,0,0,0,0,0,-1,657,1744,0,0
-560,-720,0,0,0,0,0,0,0,0,0,-1,664,1744,0,0
-553,-720,0,0,0,0,0,0,0,0,0,-1,671,1744,0,0
-546,-720,0,0,0,0,0,0,0,0,0,-1,678,1744,0,0
-539,-720,0,0,0,0,0,0,0,0,0,-1,685,1744,0,0
-532,-720,0,0,0,0,0,0,0,0,0,-1,692,1744,0,0
-525,-720,0,0,0,0,0,0,0,0,0,-1,699,1744,0,0
-518,-720,0,0,0,0,0,0,0,0,0,-1,706,1744,0,0
-511,-720,0,0,0,0,0,0,0,0,0,-1,713,1744,0,0
-504,-720,0,0,0,0,0,0,0,0,0,-1,720,1744,0,0
-497,-720,0,0,0,0,0,0,0,0,0,-1,727,1744,0,0
-490,-720,0,0,0,0,0,0,0,0,0,-1,734,1744,0,0
-483,-720,0,0,0,0,0,0,0,0,0,-1,741,1744,0,0
-476,-720,0,0,0,0,0,0,0,0,0,-1,748,1744,0,0
-469,-720,0,0,0,0,0,0,0,0,0,-1,755,1744,0,0
-462,-720,0,0,0,0,0,0,0,0,0,-1,762,1744,0,0
-455,-720,0,0,0,0,0,0,0,0,0,-1,769,1744,0,0
-448,-720,0,0,0,0,0,0,0,0,0,-1,776,1744,0,0
-441,-720,0,0,0,0,0,0,0,0,0,-1,783,1744,0,0
-434,-720,0,0,0,0,0,0,0,0,0,-1,790,1744,0,0
-427,-720,0,0,0,0,0,0,0,0,0,-1,797,1744,0,0
-420,-720,0,0,0,0,0,0,0,0,0,-1,804,1744,0,0
-413,-720,0,0,0,0,0,0,0,0,0,-1,811,1744,0,0
-406,-720,0,0,0,0,0,0,0,0,0,-1,818,1744,0,0
-399,-720,0,0,0,0,0,0,0,0,0,-1,825,1744,0,0
-392,-720,0,0,0,0,0,0,0,0,0,-1,832,1744,0,0
-385,-720,0,0,0,0,0,0,0,0,0,-1,839,1744,0,0
-378,-720,0,0,0,0,0,0,0,0,0,-1,846,1744,0,0
-371,-720,0,0,0,0,0,0,0,0,0,-1,853,1744,0,0
-364,-720,0,0,0,0,0,0,0,0,0,-1,860,1744,0,0
-357,-720,0,0,0,0,0,0,0,0,0,-1,867,1744,0,0
-350,-720,0,0,0,0,0,0,0,0,0,-1,874,1744,0,0
-343,-720,0,0,0,0,0,0,0,0,0,-1,881,1744,0,0
-336,-720,0,0,0,0,0,0,0,0,0,-1,888,1744,0,0
-329,-720,0,0,0,0,0,0,0,0,0,-1,895,1744,0,0
-322,-720,0,0,0,0,0,0,0,0,0,-1,902,1744,0,0
-315,-720,0,0,0,0,0,0,0,0,0,-1,909,1744,0,0
-308,-720,0,0,0,0,0,0,0,0,0,-1,916,1744,0,0
-301,-720,0,0,0,0,0,0,0,0,0,-1,923,1744,0,0
-294,-720,0,0,0,0,0,0,0,0,0,-1,930,1744,0,0
-287,-720,0,0,0,0,0,0,0,0,0,-1,937,1744,0,0
-280,-720,6.46796,22.6417,0,0,0,0,0,0,0,-1,944,1744,6.46793,-22.6417
-273,-720,8.54633,13.262,0,0,0,0,0,0,0,-1,951,1744,8.54636,-13.2619
-266,-720,7.28027,13.3165,0,0,0,0,0,0,0,-1,958,1744,7.28026,-13.3166
-259,-720,3.70563,18.6372,0,0,0,0,0,0,0,-1,965,1744,3.70564,-18.6372
-252,-720,4.00989,18.5059,0,0,0,0,0,0,0,-1,972,1744,4.00988,-18.5058
-245,-720,7.05634,33.8489,0,0,0,0,0,0,0,-1,979,1744,7.05634,-33.8489
-238,-720,5.02216,24.1455,0,0,0,0,0,0,0,-1,986,1744,5.02217,-24.1455
-231,-720,7.35455,28.3225,0,0,0,0,0,0,0,-1,993,1744,7.35453,-28.3225
-224,-720,7.65991,19.4061,0,0,0,0,0,0,0,-1,1000,1744,7.6599,-19.4061
-217,-720,4.77637,30.7196,0,0,0,0,0,0,0,-1,1007,1744,4.77636,-30.7197
-210,-720,7.49414,37.8065,0,0,0,0,0,0,0,-1,1014,1744,7.49412,-37.8065
-203,-720,7.89978,34.8447,0,0,0,0,0,0,0,-1,1021,1744,7.89975,-34.8447
-196,-720,8.20789,37.1249,0,0,0,0,0,0,0,-1,1028,1744,8.20787,-37.1249
-189,-720,8.54053,38.3923,0,0,0,0,0,0,0,-1,1035,1744,8.54055,-38.3924
-182,-720,8.69788,38.7961,-0.0112156,-0.0182264,0.00529076,-0.00837435,-0.0210677,0.492823,0.0122483,0.0420606,1042,1744,8.69784,-38.7961
-175,-720,8.7644,39.2476,-0.0117427,-0.0170691,0.00426429,-0.00937832,-0.0194335,0.50627,0.0112222,0.0387702,1049,1744,8.76445,-39.2476
-168,-720,9.02417,39.5005,-0.0118131,-0.0152668,0.00381156,-0.00935546,-0.0177244,0.572705,0.0102385,0.0441589,1056,1744,9.02418,-39.5005
-161,-720,8.54297,39.8375,-0.0115386,-0.0130184,0.00339874,-0.00880019,-0.0157569,0.678222,0.00911797,0.0358024,1063,1744,8.54297,-39.8376
-154,-720,8.75122,40.2589,-0.0108698,-0.0105737,0.00325677,-0.00746164,-0.0139819,0.808112,0.00807855,0.0268661,1070,1744,8.75126,-40.2589
-147,-720,8.68372,40.6385,-0.00975949,-0.00831681,0.0033227,-0.00563805,-0.0124382,0.892287,0.00719167,0.0231599,1077,1744,8.68369,-40.6386
-140,-720,8.69263,40.9432,-0.00836085,-0.00608214,0.00331595,-0.00371526,-0.0107277,0.950878,0.00629042,0.0187539,1084,1744,8.69263,-40.9432
-133,-720,8.63293,41.1445,-0.00702752,-0.00418468,0.00321371,-0.00209208,-0.00912013,0.993613,0.00551658,0.0140513,1091,1744,8.63297,-41.1445
-126,-720,8.60205,41.4331,-0.00591111,-0.00252719,0.0031523,-0.000641483,-0.00779682,1.0317,0.00499779,0.0137721,1098,1744,8.60211,-41.4332
-119,-720,8.5769,41.7294,-0.00476361,-0.000762844,0.00327874,0.00107756,-0.00660402,1.05931,0.00480233,0.0152324,1105,1744,8.57685,-41.7294
-112,-720,8.552,42.0164,-0.00326747,0.000838224,0.00328934,0.00266274,-0.00509198,1.06437,0.00454983,0.0140526,1112,1744,8.55201,-42.0163
-105,-720,8.53235,42.3108,-0.00201526,0.00131025,0.00287985,0.0029729,-0.00367791,1.04721,0.00384703,0.0149596,1119,1744,8.53233,-42.3108
-98,-720,8.50244,42.5421,-0.00173915,0.00140367,0.00273003,0.00298224,-0.00331772,1.04654,0.003639,0.0116707,1126,1744,8.50239,-42.5421
-91,-720,8.48169,42.8008,-0.00135392,0.00150712,0.00253378,0.00298632,-0.00283312,1.04238,0.00336024,0.0101375,1133,1744,8.48167,-42.8008
-84,-720,8.47742,43.0732,-0.00104649,0.00137674,0.00228152,0.0027484,-0.00241815,1.02949,0.00298494,0.0111784,1140,1744,8.47746,-43.0732
-77,-720,8.47119,43.3378,-0.000534214,0.00137689,0.00209083,0.00272018,-0.0018775,0.999736,0.00266929,0.013556,1147,1744,8.4712,-43.3377
-70,-720,8.44897,43.5326,-0.000168256,0.0012361,0.00168965,0.00236367,-0.00129582,0.982329,0.00214258,0.0121171,1154,1744,8.44897,-43.5325
-63,-720,8.43188,43.7363,-0.000190137,0.00120007,0.00115882,0.00185627,-0.000846339,1.05555,0.00159626,0.0117899,1161,1744,8.4319,-43.7363
-56,-720,8.44995,43.9651,-6.74856e-05,0.00123488,0.000981839,0.00176185,-0.000594457,1.07821,0.00141497,0.0128365,1168,1744,8.44998,-43.9651
-49,-720,8.41516,44.1584,0.000241869,0.000980494,0.000856172,0.00154361,-0.000321247,0.989018,0.00115119,0.0181348,1175,1744,8.41519,-44.1585
-42,-720,8.42346,44.2974,0.000597762,0.000639968,0.000861492,0.00148062,-0.000242885,0.797644,0.0010772,0.0204054,1182,1744,8.42341,-44.2974
-35,-720,8.44836,44.4619,0.00108972,0.000365376,0.000959046,0.0017527,-0.000297603,0.604857,0.00127926,0.0182644,1189,1744,8.44836,-44.4619
-28,-720,8.45032,44.6417,0.00159379,0.000249411,0.00104432,0.00216355,-0.000320355,0.499446,0.00156016,0.0108817,1196,1744,8.45028,-44.6418
-21,-720,8.427,44.8082,0.00205276,0.000360883,0.00121686,0.00268883,-0.000275191,0.481656,0.00189097,0.00909086,1203,1744,8.42702,-44.8082
-14,-720,8.43042,44.921,0.00258835,0.000787435,0.00149241,0.00343091,-5.51239e-05,0.513955,0.00230587,0.0111673,1210,1744,8.43039,-44.9211
-7,-720,8.46326,45.053,0.00289447,0.00125556,0.0016568,0.00392339,0.000226641,0.555739,0.00254341,0.0119924,1217,1744,8.46329,-45.0529
0,-720,8.47546,45.1691,0.00307755,0.00203527,0.00198733,0.00461093,0.000501878,0.65717,0.00292107,0.0123482,1224,1744,8.47544,-45.1691
7,-720,8.47266,45.2598,0.00326329,0.00286646,0.00229494,0.00536838,0.000761371,0.742276,0.00335406,0.0147225,1231,1744,8.47261,-45.2598
14,-720,8.48267,45.3684,0.00344015,0.00374426,0.00244843,0.00604535,0.00113906,0.81641,0.00370931,0.0135437,1238,1744,8.48269,-45.3684
21,-720,8.48303,45.4474,0.00347752,0.00449622,0.00250376,0.00654191,0.00143183,0.885746,0.003971,0.0111378,1245,1744,8.48307,-45.4473
28,-720,8.49536,45.5048,0.00333343,0.00499697,0.00239157,0.00669728,0.00163312,0.952751,0.00403227,0.0115191,1252,1744,8.49536,-45.5047
35,-720,8.51331,45.5776,0.00312421,0.0052743,0.00217372,0.00662428,0.00177423,1.01504,0.00395958,0.0112635,1259,1744,8.51331,-45.5776
42,-720,8.51465,45.6322,0.00288981,0.00547341,0.00195229,0.00652259,0.00184063,1.07767,0.00388309,0.0117923,1266,1744,8.51461,-45.6322
49,-720,8.53577,45.6271,0.00442363,0.00553694,0.00147172,0.00655376,0.0034068,0.966199,0.00378481,0.0116958,1273,1744,8.53574,-45.627
56,-720,8.56165,45.636,0.00584728,0.00517924,0.00101905,0.00658565,0.00444086,0.627028,0.00387849,0.0106782,1280,1744,8.56168,-45.636
63,-720,8.56824,45.6652,0.00653507,0.00458836,0.000505855,0.00665867,0.00446476,0.239643,0.0039182,0.012921,1287,1744,8.56819,-45.6652
70,-720,8.59387,45.6707,0.00708184,0.00403451,4.65037e-05,0.00708255,0.0040338,0.0152557,0.00410227,0.0133385,1294,1744,8.59389,-45.6706
77,-720,8.61169,45.6754,0.0078202,0.00353322,-0.000426846,0.00786229,0.00349113,-0.0982825,0.00454876,0.0147255,1301,1744,8.61174,-45.6754
84,-720,8.62488,45.641,0.00856941,0.00287079,-0.000718012,0.00865849,0.00278171,-0.123428,0.00510433,0.01421,1308,1744,8.62484,-45.641
91,-720,8.64185,45.5864,0.00889382,0.00219883,-0.000933248,0.00902148,0.00207117,-0.135943,0.00545657,0.0139252,1315,1744,8.64184,-45.5865
98,-720,8.62781,45.5504,0.00888997,0.00163203,-0.000960774,0.009015,0.001507,-0.129407,0.00557597,0.0133389,1322,1744,8.62784,-45.5504
105,-720,8.64624,45.4973,0.00840942,0.00110944,-0.00108559,0.00856744,0.000951418,-0.144545,0.00542238,0.0122586,1329,1744,8.64622,-45.4973
112,-720,8.65747,45.4407,0.00738465,0.000651908,-0.00100131,0.00753041,0.000506147,-0.144555,0.00486035,0.0109802,1336,1744,8.65749,-45.4406
119,-720,8.65869,45.3594,0.00604761,0.000123825,-0.000755587,0.00614247,2.89672e-05,-0.124888,0.00408536,0.0114773,1343,1744,8.65864,-45.3594
126,-720,8.66711,45.2581,0.00470459,-0.000308664,-0.000478342,0.00474982,-0.000353897,-0.0942818,0.00329086,0.0112157,1350,1744,8.66707,-45.258
133,-720,8.67798,45.1538,0.00344105,-0.000550352,-0.000175263,0.00344874,-0.000558033,-0.0437978,0.00250596,0.0117668,1357,1744,8.67803,-45.1538
140,-720,8.72375,45.0745,0.0022968,-0.000678614,8.36858e-05,0.00229915,-0.000680966,0.0280961,0.00180314,0.0188555,1364,1744,8.7237,-45.0745
147,-720,8.71692,44.9382,0.00137303,-0.000790532,0.000232682,0.00139777,-0.000815273,0.105932,0.00129237,0.0204959,1371,1744,8.71688,-44.9382
154,-720,8.68164,44.7745,-0.000127923,-0.000922857,0.000390206,3.16025e-05,-0.00108238,0.38809,0.00073235,0.0138191,1378,1744,8.68166,-44.7745
161,-720,8.70776,44.6077,-0.000435683,-0.000784768,0.000407217,-0.000167178,-0.00105327,0.582931,0.000653622,0.00998615,1385,1744,8.70781,-44.6077
168,-720,8.70398,44.447,-6.66689e-05,-0.000679931,0.000369892,0.000107161,-0.000853761,0.439318,0.00060805,0.00980339,1392,1744,8.70402,-44.4471
175,-720,8.71191,44.2559,0.000104941,-0.000545578,0.000244526,0.000186605,-0.000627242,0.322322,0.000492296,0.0154429,1399,1744,8.71196,-44.2558
182,-720,8.71765,44.0796,-4.70318e-05,-0.000383017,9.16867e-05,-2.36401e-05,-0.000406409,0.249798,0.000263413,0.0153383,1406,1744,8.71762,-44.0796
189,-720,8.71228,43.8904,-0.00014669,5.05894e-05,-0.000160084,0.000139983,-0.000236084,-1.06151,0.000219473,0.0127691,1413,1744,8.71234,-43.8904
196,-720,8.71216,43.6853,-0.000241201,0.000637062,-0.000479688,0.000848267,-0.000452406,-1.15604,0.000762449,0.0146249,1420,1744,8.71214,-43.6853
203,-720,8.69641,43.4537,-0.000445404,0.00173126,-0.000739362,0.00195865,-0.000672793,-1.27243,0.00157857,0.0171439,1427,1744,8.69643,-43.4538
210,-720,8.67883,43.2512,-0.000669952,0.00248944,-0.000617304,0.00260577,-0.000786282,-1.38453,0.00205016,0.0141983,1434,1744,8.6788,-43.2512
217,-720,8.68848,43.0164,-0.000815607,0.00287377,-0.000577953,0.00296219,-0.000904026,-1.41899,0.00233521,0.0132331,1441,1744,8.68853,-43.0163
224,-720,8.66736,42.7515,-0.00105329,0.00329566,-0.000569779,0.00336907,-0.0011267,-1.44266,0.00270111,0.00979298,1448,1744,8.6674,-42.7515
231,-720,8.66028,42.5081,-0.00140584,0.00364889,-0.000490954,0.00369614,-0.00145309,-1.47486,0.00306549,0.00974158,1455,1744,8.66033,-42.5081
238,-720,8.63757,42.2461,-0.0016428,0.00392051,-0.000370333,0.00394505,-0.00166734,-1.50462,0.00332808,0.00860738,1462,1744,8.63757,-42.2461
245,-720,8.61072,41.9977,-0.00176759,0.00421647,-0.000341763,0.00423592,-0.00178704,-1.51393,0.00357189,0.0107438,1469,1744,8.61072,-41.9976
252,-720,8.60095,41.7235,-0.00197131,0.00445031,-0.000390579,0.00447398,-0.00199498,-1.51027,0.00382518,0.0115253,1476,1744,8.60094,-41.7235
259,-720,8.5874,41.4359,-0.00225698,0.00447201,-0.000437532,0.00450034,-0.0022853,-1.50614,0.00398666,0.0110968,1483,1744,8.58736,-41.436
266,-720,8.55554,41.1492,-0.00244251,0.00471955,-0.000688555,0.00478514,-0.0025081,-1.47582,0.00427862,0.00874438,1490,1744,8.55551,-41.1492
273,-720,8.51074,40.8409,-0.00226942,0.0055404,-0.00143724,0.00579649,-0.00252552,-1.39446,0.00492687,0.0128695,1497,1744,8.51072,-40.8409
280,-720,8.42871,40.546,-0.00221465,0.00624839,-0.00223186,0.0068009,-0.00276716,-1.32812,0.0056854,0.0176485,1504,1744,8.42867,-40.546
287,-720,8.3468,40.1688,-0.00220735,0.0076356,-0.00324098,0.0086069,-0.00317865,-1.27962,0.00704087,0.0312277,1511,1744,8.34676,-40.1688
294,-720,8.4834,39.7314,-0.00212292,0.00892191,-0.00446461,0.0105009,-0.0037019,-1.23086,0.00850741,0.0370242,1518,1744,8.48346,-39.7314
301,-720,8.56372,39.4138,-0.00178915,0.010426,-0.00528772,0.0123969,-0.00376009,-1.21401,0.00976241,0.042566,1525,1744,8.56373,-39.4138
308,-720,8.37744,39.1952,-0.00117668,0.010863,-0.00621225,0.0134936,-0.00380731,-1.17023,0.0104975,0.0418955,1532,1744,8.37739,-39.1952
315,-720,8.26526,38.6683,-0.000809836,0.0119999,-0.0072058,0.0152358,-0.00404582,-1.14871,0.0117405,0.0446363,1539,1744,8.26525,-38.6683
322,-720,8.89673,37.5891,0,0,0,0,0,0,0,-1,1546,1744,8.89668,-37.5891
329,-720,9.15906,34.7668,0,0,0,0,0,0,0,-1,1553,1744,9.1591,-34.7669
336,-720,6.14148,26.5682,0,0,0,0,0,0,0,-1,1560,1744,6.14151,-26.5683
343,-720,6.78552,21.3625,0,0,0,0,0,0,0,-1,1567,1744,6.78551,-21.3625
350,-720,4.0741,11.1836,0,0,0,0,0,0,0,-1,1574,1744,4.07412,-11.1836
357,-720,6.90833,21.4504,0,0,0,0,0,0,0,-1,1581,1744,6.90827,-21.4505
364,-720,5.83777,24.1599,0,0,0,0,0,0,0,-1,1588,1744,5.83773,-24.1599
371,-720,5.46997,23.6176,0,0,0,0,0,0,0,-1,1595,1744,5.47001,-23.6176
378,-720,3.88257,25.5404,0,0,0,0,0,0,0,-1,1602,1744,3.88262,-25.5404
385,-720,4.63611,25.6746,0,0,0,0,0,0,0,-1,1609,1744,4.63612,-25.6746
392,-720,3.49377,23.5042,0,0,0,0,0,0,0,-1,1616,1744,3.4938,-23.5042
399,-720,2.37317,24.7166,0,0,0,0,0,0,0,-1,1623,1744,2.37317,-24.7166
406,-720,0,0,0,0,0,0,0,0,0,-1,1630,1744,0,0
413,-720,0,0,0,0,0,0,0,0,0,-1,1637,1744,0,0
420,-720,0,0,0,0,0,0,0,0,0,-1,1644,1744,0,0
427,-720,0,0,0,0,0,0,0,0,0,-1,1651,1744,0,0
434,-720,0,0,0,0,0,0,0,0,0,-1,1658,1744,0,0
441,-720,0,0,0,0,0,0,0,0,0,-1,1665,1744,0,0
448,-720,0,0,0,0,0,0,0,0,0,-1,1672,1744,0,0
455,-720,0,0,0,0,0,0,0,0,0,-1,1679,1744,0,0
462,-720,0,0,0,0,0,0,0,0,0,-1,1686,1744,0,0
469,-720,0,0,0,0,0,0,0,0,0,-1,1693,1744,0,0
476,-720,0,0,0,0,0,0,0,0,0,-1,1700,1744,0,0
483,-720,0,0,0,0,0,0,0,0,0,-1,1707,1744,0,0
490,-720,0,0,0,0,0,0,0,0,0,-1,1714,1744,0,0
497,-720,0,0,0,0,0,0,0,0,0,-1,1721,1744,0,0
504,-720,0,0,0,0,0,0,0,0,0,-1,1728,1744,0,0
511,-720,0,0,0,0,0,0,0,0,0,-1,1735,1744,0,0
518,-720,0,0,0,0,0,0,0,0,0,-1,1742,1744,0,0
525,-720,0,0,0,0,0,0,0,0,0,-1,1749,1744,0,0
532,-720,0,0,0,0,0,0,0,0,0,-1,1756,1744,0,0
539,-720,0,0,0,0,0,0,0,0,0,-1,1763,1744,0,0
546,-720,0,0,0,0,0,0,0,0,0,-1,1770,1744,0,0
553,-720,0,0,0,0,0,0,0,0,0,-1,1777,1744,0,0
560,-720,0,0,0,0,0,0,0,0,0,-1,1784,1744,0,0
567,-720,0,0,0,0,0,0,0,0,0,-1,1791,1744,0,0
574,-720,0,0,0,0,0,0,0,0,0,-1,1798,1744,0,0
581,-720,0,0,0,0,0,0,0,0,0,-1,1805,1744,0,0
588,-720,0,0,0,0,0,0,0,0,0,-1,1812,1744,0,0
595,-720,0,0,0,0,0,0,0,0,0,-1,1819,1744,0,0
602,-720,0,0,0,0,0,0,0,0,0,-1,1826,1744,0,0
609,-720,0,0,0,0,0,0,0,0,0,-1,1833,1744,0,0
616,-720,0,0,0,0,0,0,0,0,0,-1,1840,1744,0,0
623,-720,0,0,0,0,0,0,0,0,0,-1,1847,1744,0,0
630,-720,0,0,0,0,0,0,0,0,0,-1,1854,1744,0,0
637,-720,0,0,0,0,0,0,0,0,0,-1,1861,1744,0,0
644,-720,0,0,0,0,0,0,0,0,0,-1,1868,1744,0,0
651,-720,0,0,0,0,0,0,0,0,0,-1,1875,1744,0,0
658,-720,0,0,0,0,0,0,0,0,0,-1,1882,1744,0,0
665,-720,0,0,0,0,0,0,0,0,0,-1,1889,1744,0,0
672,-720,0,0,0,0,0,0,0,0,0,-1,1896,1744,0,0
679,-720,0,0,0,0,0,0,0,0,0,-1,1903,1744,0,0
686,-720,0,0,0,0,0,0,0,0,0,-1,1910,1744,0,0
693,-720,0,0,0,0,0,0,0,0,0,-1,1917,1744,0,0
700,-720,0,0,0,0,0,0,0,0,0,-1,1924,1744,0,0
707,-720,0,0,0,0,0,0,0,0,0,-1,1931,1744,0,0
714,-720,0,0,0,0,0,0,0,0,0,-1,1938,1744,0,0
721,-720,0,0,0,0,0,0,0,0,0,-1,1945,1744,0,0
728,-720,0,0,0,0,0,0,0,0,0,-1,1952,1744,0,0
735,-720,0,0,0,0,0,0,0,0,0,-1,1959,1744,0,0
742,-720,0,0,0,0,0,0,0,0,0,-1,1966,1744,0,0
749,-720,0,0,0,0,0,0,0,0,0,-1,1973,1744,0,0
756,-720,0,0,0,0,0,0,0,0,0,-1,1980,1744,0,0
763,-720,0,0,0,0,0,0,0,0,0,-1,1987,1744,0,0
770,-720,0,0,0,0,0,0,0,0,0,-1,1994,1744,0,0
777,-720,0,0,0,0,0,0,0,0,0,-1,2001,1744,0,0
784,-720,0,0,0,0,0,0,0,0,0,-1,2008,1744,0,0
791,-720,0,0,0,0,0,0,0,0,0,-1,2015,1744,0,0
798,-720,0,0,0,0,0,0,0,0,0,-1,2022,1744,0,0
805,-720,0,0,0,0,0,0,0,0,0,-1,2029,1744,0,0
812,-720,0,0,0,0,0,0,0,0,0,-1,2036,1744,0,0
-700,-727,0,0,0,0,0,0,0,0,0,-1,524,1751,0,0
-693,-727,0,0,0,0,0,0,0,0,0,-1,531,1751,0,0
-686,-727,0,0,0,0,0,0,0,0,0,-1,538,1751,0,0
-679,-727,0,0,0,0,0,0,0,0,0,-1,545,1751,0,0
-672,-727,0,0,0,0,0,0,0,0,0,-1,552,1751,0,0
-665,-727,0,0,0,0,0,0,0,0,0,-1,559,1751,0,0
-658,-727,0,0,0,0,0,0,0,0,0,-1,566,1751,0,0
-651,-727,0,0,0,0,0,0,0,0,0,-1,573,1751,0,0
-644,-727,0,0,0,0,0,0,0,0,0,-1,580,1751,0,0
-637,-727,0,0,0,0,0,0,0,0,0,-1,587,1751,0,0
-630,-727,0,0,0,0,0,0,0,0,0,-1,594,1751,0,0
-623,-727,0,0,0,0,0,0,0,0,0,-1,601,1751,0,0
-616,-727,0,0,0,0,0,0,0,0,0,-1,608,1751,0,0
-609,-727,0,0,0,0,0,0,0,0,0,-1,615,1751,0,0
-602,-727,0,0,0,0,0,0,0,0,0,-1,622,1751,0,0
-595,-727,0,0,0,0,0,0,0,0,0,-1,629,1751,0,0
-588,-727,0,0,0,0,0,0,0,0,0,-1,636,1751,0,0
-581,-727,0,0,0,0,0,0,0,0,0,-1,643,1751,0,0
-574,-727,0,0,0,0,0,0,0,0,0,-1,650,1751,0,0
-567,-727,0,0,0,0,0,0,0,0,0,-1,657,1751,0,0
-560,-727,0,0,0,0,0,0,0,0,0,-1,664,1751,0,0
-553,-727,0,0,0,0,0,0,0,0,0,-1,671,1751,0,0
-546,-727,0,0,0,0,0,0,0,0,0,-1,678,1751,0,0
-539,-727,0,0,0,0,0,0,0,0,0,-1,685,1751,0,0
-532,-727,0,0,0,0,0,0,0,0,0,-1,692,1751,0,0
-525,-727,0,0,0,0,0,0,0,0,0,-1,699,1751,0,0
-518,-727,0,0,0,0,0,0,0,0,0,-1,706,1751,0,0
-511,-727,0,0,0,0,0,0,0,0,0,-1,713,1751,0,0
-504,-727,0,0,0,0,0,0,0,0,0,-1,720,1751,0,0
-497,-727,0,0,0,0,0,0,0,0,0,-1,727,1751,0,0
-490,-727,0,0,0,0,0,0,0,0,0,-1,734,1751,0,0
-483,-727,0,0,0,0,0,0,0,0,0,-1,741,1751,0,0
-476,-727,0,0,0,0,0,0,0,0,0,-1,748,1751,0,0
-469,-727,0,0,0,0,0,0,0,0,0,-1,755,1751,0,0
-462,-727,0,0,0,0,0,0,0,0,0,-1,762,1751,0,0
-455,-727,0,0,0,0,0,0,0,0,0,-1,769,1751,0,0
-448,-727,0,0,0,0,0,0,0,0,0,-1,776,1751,0,0
-441,-727,0,0,0,0,0,0,0,0,0,-1,783,1751,0,0
-434,-727,0,0,0,0,0,0,0,0,0,-1,790,1751,0,0
-427,-727,0,0,0,0,0,0,0,0,0,-1,797,1751,0,0
-420,-727,0,0,0,0,0,0,0,0,0,-1,804,1751,0,0
-413,-727,0,0,0,0,0,0,0,0,0,-1,811,1751,0,0
-406,-727,0,0,0,0,0,0,0,0,0,-1,818,1751,0,0
-399,-727,0,0,0,0,0,0,0,0,0,-1,825,1751,0,0
-392,-727,0,0,0,0,0,0,0,0,0,-1,832,1751,0,0
-385,-727,0,0,0,0,0,0,0,0,0,-1,839,1751,0,0
-378,-727,0,0,0,0,0,0,0,0,0,-1,846,1751,0,0
-371,-727,0,0,0,0,0,0,0,0,0,-1,853,1751,0,0
-364,-727,0,0,0,0,0,0,0,0,0,-1,860,1751,0,0
-357,-727,0,0,0,0,0,0,0,0,0,-1,867,1751,0,0
-350,-727,0,0,0,0,0,0,0,0,0,-1,874,1751,0,0
-343,-727,0,0,0,0,0,0,0,0,0,-1,881,1751,0,0
-336,-727,0,0,0,0,0,0,0,0,0,-1,888,1751,0,0
-329,-727,0,0,0,0,0,0,0,0,0,-1,895,1751,0,0
-322,-727,0,0,0,0,0,0,0,0,0,-1,902,1751,0,0
-315,-727,0,0,0,0,0,0,0,0,0,-1,909,1751,0,0
-308,-727,0,0,0,0,0,0,0,0,0,-1,916,1751,0,0
-301,-727,0,0,0,0,0,0,0,0,0,-1,923,1751,0,0
-294,-727,0,0,0,0,0,0,0,0,0,-1,930,1751,0,0
-287,-727,0,0,0,0,0,0,0,0,0,-1,937,1751,0,0
-280,-727,0,0,0,0,0,0,0,0,0,-1,944,1751,0,0
-273,-727,0,0,0,0,0,0,0,0,0,-1,951,1751,0,0
-266,-727,4.24805,7.61145,0,0,0,0,0,0,0,-1,958,1751,4.24802,-7.6115
-259,-727,3.65228,5.4082,0,0,0,0,0,0,0,-1,965,1751,3.65229,-5.40818
-252,-727,5.8797,32.9292,0,0,0,0,0,0,0,-1,972,1751,5.87972,-32.9292
-245,-727,6.59198,32.2588,0,0,0,0,0,0,0,-1,979,1751,6.59195,-32.2587
-238,-727,6.6189,30.4597,0,0,0,0,0,0,0,-1,986,1751,6.61889,-30.4598
-231,-727,6.70105,28.9473,0,0,0,0,0,0,0,-1,993,1751,6.70103,-28.9472
-224,-727,7.0614,27.79,0,0,0,0,0,0,0,-1,1000,1751,7.06139,-27.79
-217,-727,4.72937,32.0111,0,0,0,0,0,0,0,-1,1007,1751,4.72935,-32.0111
-210,-727,5.0921,32.4524,0,0,0,0,0,0,0,-1,1014,1751,5.09209,-32.4523
-203,-727,10.5354,32.1929,0,0,0,0,0,0,0,-1,1021,1751,10.5354,-32.1928
-196,-727,8.03845,37.6969,0,0,0,0,0,0,0,-1,1028,1751,8.03841,-37.6969
-189,-727,8.28052,38.5197,0,0,0,0,0,0,0,-1,1035,1751,8.28055,-38.5196
-182,-727,9.64233,39.2646,0,0,0,0,0,0,0,-1,1042,1751,9.64231,-39.2647
-175,-727,9.59717,39.5256,-0.017548,-0.0248878,0.00475495,-0.0152114,-0.0272243,0.456743,0.0157541,0.0441274,1049,1751,9.59716,-39.5256
-168,-727,9.31616,39.8469,-0.0174205,-0.022091,0.00444664,-0.0147332,-0.0247783,0.543606,0.0143909,0.0466282,1056,1751,9.31611,-39.8469
-161,-727,8.50439,40.1171,-0.0167207,-0.0187132,0.00417241,-0.0134273,-0.0220067,0.668206,0.0128079,0.0475771,1063,1751,8.50445,-40.1171
-154,-727,8.75281,40.3292,0,0,0,0,0,0,0,-1,1070,1751,8.75282,-40.3292
-147,-727,8.65173,40.5515,0,0,0,0,0,0,0,-1,1077,1751,8.65172,-40.5515
-140,-727,8.84619,40.7347,-0.0118949,-0.00850109,0.00449367,-0.0053946,-0.0150014,0.965931,0.00877412,0.031152,1084,1751,8.84616,-40.7347
-133,-727,8.93628,41.0361,-0.010044,-0.00577189,0.0044717,-0.00295226,-0.0128636,1.00821,0.00778065,0.0234021,1091,1751,8.93631,-41.0361
-126,-727,8.83423,41.4054,-0.00849909,-0.00345144,0.00447207,-0.00084018,-0.0111104,1.0423,0.00714333,0.0164782,1098,1751,8.83426,-41.4054
-119,-727,8.8092,41.7512,-0.00690635,-0.000961498,0.0046953,0.00162316,-0.009491,1.06759,0.00693202,0.013352,1105,1751,8.80915,-41.7512
-112,-727,8.81433,42.0045,-0.0049011,0.0013392,0.00475099,0.003903,-0.0074649,1.07595,0.00666978,0.0143659,1112,1751,8.81428,-42.0045
-105,-727,8.7522,42.3051,-0.00326239,0.00201618,0.00425463,0.00438366,-0.00562987,1.06302,0.00579622,0.0151591,1119,1751,8.75222,-42.3051
-98,-727,8.75146,42.573,-0.00294693,0.00217109,0.00406392,0.00441458,-0.00519042,1.06638,0.00555147,0.0125929,1126,1751,8.75148,-42.5731
-91,-727,8.74524,42.8107,-0.00248878,0.00231606,0.00381788,0.00442449,-0.00459722,1.06622,0.005209,0.0113214,1133,1751,8.74529,-42.8107
-84,-727,8.69397,43.0607,-0.00214876,0.00211407,0.00348544,0.00406814,-0.00410284,1.05982,0.00471753,0.0118203,1140,1751,8.69393,-43.0607
-77,-727,8.66541,43.3108,-0.00148987,0.00208031,0.00323139,0.00398688,-0.00339645,1.03775,0.00426731,0.0127093,1147,1751,8.66538,-43.3108
-70,-727,8.65723,43.5448,-0.00105673,0.00187991,0.00265044,0.00344157,-0.00261839,1.03835,0.00350946,0.0138394,1154,1751,8.65725,-43.5448
-63,-727,8.63013,43.7563,-0.00135347,0.00200258,0.00181721,0.00279802,-0.00214891,1.1582,0.00286429,0.0114795,1161,1751,8.63014,-43.7563
-56,-727,8.6095,43.9537,-0.00115185,0.00235322,0.00170944,0.00304886,-0.00184749,1.18432,0.00285513,0.0108782,1168,1751,8.6095,-43.9538
-49,-727,8.59668,44.1383,-0.00086156,0.00238471,0.00157249,0.00302151,-0.00149836,1.18602,0.00265848,0.0129429,1175,1751,8.59671,-44.1384
-42,-727,8.61755,44.3174,-0.000816379,0.00187829,0.00158256,0.00260936,-0.00154746,1.13804,0.00242591,0.0161524,1182,1751,8.61754,-44.3174
-35,-727,8.60889,44.4783,-0.00071189,0.00134728,0.00165235,0.00226457,-0.00162918,1.06401,0.00225801,0.0149166,1189,1751,8.60886,-44.4782
-28,-727,8.58423,44.6367,-0.000591967,0.00100101,0.00167248,0.00205697,-0.00164793,1.00762,0.00214337,0.00908394,1196,1751,8.58418,-44.6368
-21,-727,8.56934,44.7999,-0.000398363,0.000766568,0.00187305,0.00214563,-0.00177742,0.936144,0.0022683,0.0104021,1203,1751,8.56937,-44.8
-14,-727,8.57324,44.9216,-1.95002e-05,0.000865035,0.00224453,0.00271046,-0.00186492,0.882673,0.00265659,0.0117137,1210,1751,8.57321,-44.9216
-7,-727,8.5835,45.0604,0.00019601,0.000912787,0.00246617,0.00304648,-0.00193768,0.857554,0.00290124,0.0141103,1217,1751,8.58349,-45.0604
0,-727,8.57837,45.1833,0.000325111,0.00124825,0.00274721,0.00357239,-0.00199904,0.868627,0.00325914,0.013978,1224,1751,8.57835,-45.1834
7,-727,8.57471,45.2463,0.000486768,0.00162721,0.00297615,0.00408727,-0.00197329,0.88005,0.00356931,0.0148753,1231,1751,8.5747,-45.2463
14,-727,8.56396,45.354,0.000670825,0.00207037,0.00305738,0.00450704,-0.00176585,0.8979,0.00373514,0.0147621,1238,1751,8.56394,-45.3539
21,-727,8.55505,45.4501,0.000841331,0.00241515,0.00302673,0.00475559,-0.00149911,0.912576,0.00377077,0.0126797,1245,1751,8.55505,-45.4501
28,-727,8.57227,45.5059,0.000951678,0.00260469,0.00280913,0.00470637,-0.00115001,0.928471,0.00358297,0.0115276,1252,1751,8.57221,-45.5058
35,-727,8.58472,45.5773,0.00103559,0.00265444,0.00247564,0.00444962,-0.000759592,0.943398,0.00324934,0.0119013,1259,1751,8.58472,-45.5772
42,-727,8.5636,45.6133,0.00104441,0.00265879,0.00210342,0.00410459,-0.000401382,0.968608,0.00287953,0.0126809,1266,1751,8.56365,-45.6133
49,-727,8.55908,45.6208,0.00173387,0.00288403,0.0016623,0.00406792,0.000549983,0.951932,0.00254848,0.0112591,1273,1751,8.5591,-45.6208
56,-727,8.55908,45.662,0.00248706,0.00298278,0.00132093,0.0040789,0.00139094,0.878141,0.00239431,0.0103118,1280,1751,8.55913,-45.662
63,-727,8.56567,45.674,0.00284659,0.00291659,0.000858933,0.00374124,0.00202194,0.805763,0.00216236,0.0128831,1287,1751,8.56563,-45.674
70,-727,8.58789,45.6589,0.00307076,0.00285551,0.000461619,0.00343713,0.00248914,0.670868,0.00204985,0.0142071,1294,1751,8.58794,-45.6589
77,-727,8.59998,45.684,0.00336697,0.00282546,0.000165927,0.00341377,0.00277866,0.274898,0.00209646,0.016218,1301,1751,8.6,-45.6839
84,-727,8.6156,45.6067,0.00354871,0.00265198,-6.50921e-06,0.00354876,0.00265193,-0.00725827,0.00213077,0.0163467,1308,1751,8.61556,-45.6066
91,-727,8.61426,45.5342,0.00344613,0.00236713,-0.000153365,0.0034675,0.00234576,-0.138483,0.00204312,0.0170354,1315,1751,8.61428,-45.5342
98,-727,8.58643,45.5389,0.0032751,0.0020561,-8.35352e-05,0.0032808,0.0020504,-0.0681032,0.00191379,0.01485,1322,1751,8.58644,-45.5389
105,-727,8.59583,45.4758,0.00293648,0.00167925,-6.34487e-05,0.00293968,0.00167606,-0.0502967,0.00170278,0.0138034,1329,1751,8.5958,-45.4758
112,-727,8.59631,45.4178,0.0023484,0.0012365,4.37319e-05,0.00235012,0.00123479,0.03925,0.00135743,0.0119572,1336,1751,8.59626,-45.4178
119,-727,8.59033,45.3529,0.0016208,0.000614959,0.00020238,0.00166,0.000575767,0.191291,0.00097327,0.00997844,1343,1751,8.59039,-45.3529
126,-727,8.59802,45.2517,0.000905062,2.48766e-06,0.000369107,0.00103678,-0.000129235,0.34278,0.000738049,0.0109112,1350,1751,8.59802,-45.2517
133,-727,8.60291,45.1583,0.000243932,-0.00051643,0.000563801,0.000543757,-0.000816256,0.488757,0.00079044,0.0149436,1357,1751,8.60288,-45.1583
140,-727,8.60828,45.0709,-0.000336231,-0.000963755,0.000716391,0.000132095,-0.00143208,0.578993,0.00100166,0.0228067,1364,1751,8.60827,-45.0709
147,-727,8.59204,44.9446,-0.000737588,-0.00136761,0.00080039,-0.00019245,-0.00191275,0.597922,0.0012161,0.0194148,1371,1751,8.59205,-44.9446
154,-727,8.55823,44.7537,-0.00115065,-0.001919,0.000667069,-0.000765042,-0.00230462,0.524138,0.00135539,0.0122084,1378,1751,8.55827,-44.7537
161,-727,8.55261,44.5989,-0.00132944,-0.00209138,0.000510535,-0.0010734,-0.00234743,0.46486,0.00135694,0.00956896,1385,1751,8.55265,-44.5988
168,-727,8.54004,44.4474,-0.00131962,-0.00199301,0.000468432,-0.00107943,-0.0022332,0.47379,0.00128958,0.0122135,1392,1751,8.54009,-44.4474
175,-727,8.55737,44.269,-0.00140463,-0.00174655,0.000343002,-0.00119234,-0.00195884,0.554206,0.00113981,0.0172767,1399,1751,8.55742,-44.269
182,-727,8.55798,44.082,-0.00160854,-0.00138509,-3.21655e-05,-0.00138055,-0.00161308,-1.43064,0.00100687,0.0179125,1406,1751,8.55795,-44.082
189,-727,8.51709,43.8859,-0.0014784,-0.0006864,-0.000388925,-0.000527352,-0.00163745,-1.1826,0.000965133,0.0114215,1413,1751,8.51707,-43.8859
196,-727,8.50793,43.697,-0.0014064,0.000422985,-0.000873493,0.000773066,-0.00175648,-1.18962,0.00149677,0.0141609,1420,1751,8.50792,-43.697
203,-727,8.48743,43.4646,-0.00163061,0.00239759,-0.0012781,0.00276889,-0.00200191,-1.28807,0.00276627,0.0179703,1427,1751,8.48747,-43.4646
210,-727,8.46484,43.2615,-0.00187334,0.0036507,-0.000972239,0.00381682,-0.00203946,-1.40157,0.00343264,0.0170906,1434,1751,8.46479,-43.2614
217,-727,8.4447,43.0298,-0.00191353,0.0042759,-0.000791989,0.00437563,-0.00201326,-1.44553,0.00377175,0.0133466,1441,1751,8.44469,-43.0298
224,-727,8.42517,42.7479,-0.00214345,0.00492541,-0.000675535,0.00498938,-0.00220743,-1.47637,0.0042573,0.0133252,1448,1751,8.42519,-42.748
231,-727,8.39722,42.507,-0.00254524,0.00546505,-0.000476021,0.00549324,-0.00257343,-1.51165,0.0047579,0.0103947,1455,1751,8.39721,-42.507
238,-727,8.38586,42.2377,-0.00281665,0.00585807,-0.000252261,0.0058654,-0.00282398,-1.54175,0.00511823,0.0107971,1462,1751,8.38584,-42.2376
245,-727,8.3634,41.9897,-0.00294948,0.00624046,-0.000147046,0.00624281,-0.00295184,-1.5548,0.00542069,0.0103921,1469,1751,8.36338,-41.9897
252,-727,8.33142,41.7158,-0.00316857,0.00651298,-0.000139779,0.006515,-0.00317059,-1.55636,0.00570202,0.0115748,1476,1751,8.33143,-41.7158
259,-727,8.3241,41.4255,-0.00346824,0.00650997,-0.000147488,0.00651215,-0.00347042,-1.55602,0.00585195,0.015585,1483,1751,8.32407,-41.4256
266,-727,8.33716,41.1783,-0.00362352,0.006774,-0.000427506,0.00679155,-0.00364107,-1.52977,0.00611414,0.0196932,1490,1751,8.33714,-41.1783
273,-727,8.36963,40.9076,-0.00333512,0.0076951,-0.00132822,0.00785279,-0.0034928,-1.45263,0.00670967,0.0328975,1497,1751,8.36968,-40.9075
280,-727,8.0697,40.5662,0,0,0,0,0,0,0,-1,1504,1751,8.06965,-40.5661
287,-727,7.9292,40.1149,0,0,0,0,0,0,0,-1,1511,1751,7.92921,-40.1148
294,-727,8.11841,39.5227,0,0,0,0,0,0,0,-1,1518,1751,8.11847,-39.5227
301,-727,8.32446,39.374,0,0,0,0,0,0,0,-1,1525,1751,8.32442,-39.374
308,-727,7.99646,39.3391,0,0,0,0,0,0,0,-1,1532,1751,7.99648,-39.3391
315,-727,7.81226,38.6388,0,0,0,0,0,0,0,-1,1539,1751,7.8123,-38.6388
322,-727,7.55579,38.0198,0,0,0,0,0,0,0,-1,1546,1751,7.55577,-38.0198
329,-727,5.54419,31.0325,0,0,0,0,0,0,0,-1,1553,1751,5.54425,-31.0325
336,-727,5.55823,20.2439,0,0,0,0,0,0,0,-1,1560,1751,5.55829,-20.2438
343,-727,2.41699,8.72095,0,0,0,0,0,0,0,-1,1567,1751,2.41702,-8.72098
350,-727,3.89783,7.50195,0,0,0,0,0,0,0,-1,1574,1751,3.89782,-7.50193
357,-727,4.48462,10.2948,0,0,0,0,0,0,0,-1,1581,1751,4.48464,-10.2948
364,-727,6.96729,17.2365,0,0,0,0,0,0,0,-1,1588,1751,6.96732,-17.2365
371,-727,5.04565,23.2227,0,0,0,0,0,0,0,-1,1595,1751,5.04564,-23.2227
378,-727,4.56726,23.0574,0,0,0,0,0,0,0,-1,1602,1751,4.56727,-23.0574
385,-727,3.52307,22.6431,0,0,0,0,0,0,0,-1,1609,1751,3.52303,-22.643
392,-727,0,0,0,0,0,0,0,0,0,-1,1616,1751,0,0
399,-727,0,0,0,0,0,0,0,0,0,-1,1623,1751,0,0
406,-727,0,0,0,0,0,0,0,0,0,-1,1630,1751,0,0
413,-727,0,0,0,0,0,0,0,0,0,-1,1637,1751,0,0
420,-727,0,0,0,0,0,0,0,0,0,-1,1644,1751,0,0
427,-727,0,0,0,0,0,0,0,0,0,-1,1651,1751,0,0
434,-727,0,0,0,0,0,0,0,0,0,-1,1658,1751,0,0
441,-727,0,0,0,0,0,0,0,0,0,-1,1665,1751,0,0
448,-727,0,0,0,0,0,0,0,0,0,-1,1672,1751,0,0
455,-727,0,0,0,0,0,0,0,0,0,-1,1679,1751,0,0
462,-727,0,0,0,0,0,0,0,0,0,-1,1686,1751,0,0
469,-727,0,0,0,0,0,0,0,0,0,-1,1693,1751,0,0
476,-727,0,0,0,0,0,0,0,0,0,-1,1700,1751,0,0
483,-727,0,0,0,0,0,0,0,0,0,-1,1707,1751,0,0
490,-727,0,0,0,0,0,0,0,0,0,-1,1714,1751,0,0
497,-727,0,0,0,0,0,0,0,0,0,-1,1721,1751,0,0
504,-727,0,0,0,0,0,0,0,0,0,-1,1728,1751,0,0
511,-727,0,0,0,0,0,0,0,0,0,-1,1735,1751,0,0
518,-727,0,0,0,0,0,0,0,0,0,-1,1742,1751,0,0
525,-727,0,0,0,0,0,0,0,0,0,-1,1749,1751,0,0
532,-727,0,0,0,0,0,0,0,0,0,-1,1756,1751,0,0
539,-727,0,0,0,0,0,0,0,0,0,-1,1763,1751,0,0
546,-727,0,0,0,0,0,0,0,0,0,-1,1770,1751,0,0
553,-727,0,0,0,0,0,0,0,0,0,-1,1777,1751,0,0
560,-727,0,0,0,0,0,0,0,0,0,-1,1784,1751,0,0
567,-727,0,0,0,0,0,0,0,0,0,-1,1791,1751,0,0
574,-727,0,0,0,0,0,0,0,0,0,-1,1798,1751,0,0
581,-727,0,0,0,0,0,0,0,0,0,-1,1805,1751,0,0
588,-727,0,0,0,0,0,0,0,0,0,-1,1812,1751,0,0
595,-727,0,0,0,0,0,0,0,0,0,-1,1819,1751,0,0
602,-727,0,0,0,0,0,0,0,0,0,-1,1826,1751,0,0
609,-727,0,0,0,0,0,0,0,0,0,-1,1833,1751,0,0
616,-727,0,0,0,0,0,0,0,0,0,-1,1840,1751,0,0
623,-727,0,0,0,0,0,0,0,0,0,-1,1847,1751,0,0
630,-727,0,0,0,0,0,0,0,0,0,-1,1854,1751,0,0
637,-727,0,0,0,0,0,0,0,0,0,-1,1861,1751,0,0
644,-727,0,0,0,0,0,0,0,0,0,-1,1868,1751,0,0
651,-727,0,0,0,0,0,0,0,0,0,-1,1875,1751,0,0
658,-727,0,0,0,0,0,0,0,0,0,-1,1882,1751,0,0
665,-727,0,0,0,0,0,0,0,0,0,-1,1889,1751,0,0
672,-727,0,0,0,0,0,0,0,0,0,-1,1896,1751,0,0
679,-727,0,0,0,0,0,0,0,0,0,-1,1903,1751,0,0
686,-727,0,0,0,0,0,0,0,0,0,-1,1910,1751,0,0
693,-727,0,0,0,0,0,0,0,0,0,-1,1917,1751,0,0
700,-727,0,0,0,0,0,0,0,0,0,-1,1924,1751,0,0
707,-727,0,0,0,0,0,0,0,0,0,-1,1931,1751,0,0
714,-727,0,0,0,0,0,0,0,0,0,-1,1938,1751,0,0
721,-727,0,0,0,0,0,0,0,0,0,-1,1945,1751,0,0
728,-727,0,0,0,0,0,0,0,0,0,-1,1952,1751,0,0
735,-727,0,0,0,0,0,0,0,0,0,-1,1959,1751,0,0
742,-727,0,0,0,0,0,0,0,0,0,-1,1966,1751,0,0
749,-727,0,0,0,0,0,0,0,0,0,-1,1973,1751,0,0
756,-727,0,0,0,0,0,0,0,0,0,-1,1980,1751,0,0
763,-727,0,0,0,0,0,0,0,0,0,-1,1987,1751,0,0
770,-727,0,0,0,0,0,0,0,0,0,-1,1994,1751,0,0
777,-727,0,0,0,0,0,0,0,0,0,-1,2001,1751,0,0
784,-727,0,0,0,0,0,0,0,0,0,-1,2008,1751,0,0
791,-727,0,0,0,0,0,0,0,0,0,-1,2015,1751,0,0
798,-727,0,0,0,0,0,0,0,0,0,-1,2022,1751,0,0
805,-727,0,0,0,0,0,0,0,0,0,-1,2029,1751,0,0
812,-727,0,0,0,0,0,0,0,0,0,-1,2036,1751,0,0
-700,-734,0,0,0,0,0,0,0,0,0,-1,524,1758,0,0
-693,-734,0,0,0,0,0,0,0,0,0,-1,531,1758,0,0
-686,-734,0,0,0,0,0,0,0,0,0,-1,538,1758,0,0
-679,-734,0,0,0,0,0,0,0,0,0,-1,545,1758,0,0
-672,-734,0,0,0,0,0,0,0,0,0,-1,552,1758,0,0
-665,-734,0,0,0,0,0,0,0,0,0,-1,559,1758,0,0
-658,-734,0,0,0,0,0,0,0,0,0,-1,566,1758,0,0
-651,-734,0,0,0,0,0,0,0,0,0,-1,573,1758,0,0
-644,-734,0,0,0,0,0,0,0,0,0,-1,580,1758,0,0
-637,-734,0,0,0,0,0,0,0,0,0,-1,587,1758,0,0
-630,-734,0,0,0,0,0,0,0,0,0,-1,594,1758,0,0
-623,-734,0,0,0,0,0,0,0,0,0,-1,601,1758,0,0
-616,-734,0,0,0,0,0,0,0,0,0,-1,608,1758,0,0
-609,-734,0,0,0,0,0,0,0,0,0,-1,615,1758,0,0
-602,-734,0,0,0,0,0,0,0,0,0,-1,622,1758,0,0
-595,-734,0,0,0,0,0,0,0,0,0,-1,629,1758,0,0
-588,-734,0,0,0,0,0,0,0,0,0,-1,636,1758,0,0
-581,-734,0,0,0,0,0,0,0,0,0,-1,643,1758,0,0
-574,-734,0,0,0,0,0,0,0,0,0,-1,650,1758,0,0
-567,-734,0,0,0,0,0,0,0,0,0,-1,657,1758,0,0
-560,-734,0,0,0,0,0,0,0,0,0,-1,664,1758,0,0
-553,-734,0,0,0,0,0,0,0,0,0,-1,671,1758,0,0
-546,-734,0,0,0,0,0,0,0,0,0,-1,678,1758,0,0
-539,-734,0,0,0,0,0,0,0,0,0,-1,685,1758,0,0
-532,-734,0,0,0,0,0,0,0,0,0,-1,692,1758,0,0
-525,-734,0,0,0,0,0,0,0,0,0,-1,699,1758,0,0
-518,-734,0,0,0,0,0,0,0,0,0,-1,706,1758,0,0
-511,-734,0,0,0,0,0,0,0,0,0,-1,713,1758,0,0
-504,-734,0,0,0,0,0,0,0,0,0,-1,720,1758,0,0
-497,-734,0,0,0,0,0,0,0,0,0,-1,727,1758,0,0
-490,-734,0,0,0,0,0,0,0,0,0,-1,734,1758,0,0
-483,-734,0,0,0,0,0,0,0,0,0,-1,741,1758,0,0
-476,-734,0,0,0,0,0,0,0,0,0,-1,748,1758,0,0
-469,-734,0,0,0,0,0,0,0,0,0,-1,755,1758,0,0
-462,-734,0,0,0,0,0,0,0,0,0,-1,762,1758,0,0
-455,-734,0,0,0,0,0,0,0,0,0,-1,769,1758,0,0
-448,-734,0,0,0,0,0,0,0,0,0,-1,776,1758,0,0
-441,-734,0,0,0,0,0,0,0,0,0,-1,783,1758,0,0
-434,-734,0,0,0,0,0,0,0,0,0,-1,790,1758,0,0
-427,-734,0,0,0,0,0,0,0,0,0,-1,797,1758,0,0
-420,-734,0,0,0,0,0,0,0,0,0,-1,804,1758,0,0
-413,-734,0,0,0,0,0,0,0,0,0,-1,811,1758,0,0
-406,-734,0,0,0,0,0,0,0,0,0,-1,818,1758,0,0
-399,-734,0,0,0,0,0,0,0,0,0,-1,825,1758,0,0
-392,-734,0,0,0,0,0,0,0,0,0,-1,832,1758,0,0
-385,-734,0,0,0,0,0,0,0,0,0,-1,839,1758,0,0
-378,-734,0,0,0,0,0,0,0,0,0,-1,846,1758,0,0
-371,-734,0,0,0,0,0,0,0,0,0,-1,853,1758,0,0
-364,-734,0,0,0,0,0,0,0,0,0,-1,860,1758,0,0
-357,-734,0,0,0,0,0,0,0,0,0,-1,867,1758,0,0
-350,-734,0,0,0,0,0,0,0,0,0,-1,874,1758,0,0
-343,-734,0,0,0,0,0,0,0,0,0,-1,881,1758,0,0
-336,-734,0,0,0,0,0,0,0,0,0,-1,888,1758,0,0
-329,-734,0,0,0,0,0,0,0,0,0,-1,895,1758,0,0
-322,-734,0,0,0,0,0,0,0,0,0,-1,902,1758,0,0
-315,-734,0,0,0,0,0,0,0,0,0,-1,909,1758,0,0
-308,-734,0,0,0,0,0,0,0,0,0,-1,916,1758,0,0
-301,-734,0,0,0,0,0,0,0,0,0,-1,923,1758,0,0
-294,-734,0,0,0,0,0,0,0,0,0,-1,930,1758,0,0
-287,-734,0,0,0,0,0,0,0,0,0,-1,937,1758,0,0
-280,-734,0,0,0,0,0,0,0,0,0,-1,944,1758,0,0
-273,-734,0,0,0,0,0,0,0,0,0,-1,951,1758,0,0
-266,-734,0,0,0,0,0,0,0,0,0,-1,958,1758,0,0
-259,-734,0,0,0,0,0,0,0,0,0,-1,965,1758,0,0
-252,-734,5.73883,31.5245,0,0,0,0,0,0,0,-1,972,1758,5.73884,-31.5246
-245,-734,6.32513,30.9761,0,0,0,0,0,0,0,-1,979,1758,6.32511,-30.9761
-238,-734,6.82385,30.0449,0,0,0,0,0,0,0,-1,986,1758,6.82387,-30.0449
-231,-734,7.1958,29.1666,0,0,0,0,0,0,0,-1,993,1758,7.19578,-29.1666
-224,-734,7.36169,28.5652,0,0,0,0,0,0,0,-1,1000,1758,7.36172,-28.5651
-217,-734,7.45984,28.4386,0,0,0,0,0,0,0,-1,1007,1758,7.45986,-28.4386
-210,-734,7.45483,28.4388,0,0,0,0,0,0,0,-1,1014,1758,7.45482,-28.4388
-203,-734,7.93079,29.6151,0,0,0,0,0,0,0,-1,1021,1758,7.93076,-29.6151
-196,-734,11.3601,34.9989,0,0,0,0,0,0,0,-1,1028,1758,11.3601,-34.9989
-189,-734,10.9413,39.0085,0,0,0,0,0,0,0,-1,1035,1758,10.9412,-39.0085
-182,-734,10.2732,39.4908,0,0,0,0,0,0,0,-1,1042,1758,10.2732,-39.4909
-175,-734,9.93445,39.972,-0.0257949,-0.0361013,0.00496372,-0.0237931,-0.0381031,0.383336,0.0222248,0.0462755,1049,1758,9.93445,-39.972
-168,-734,9.67981,40.3744,-0.0251831,-0.0317081,0.00498939,-0.0224842,-0.034407,0.495845,0.0201744,0.0459481,1056,1758,9.67977,-40.3744
-161,-734,8.64563,40.5753,0,0,0,0,0,0,0,-1,1063,1758,8.64565,-40.5754
-154,-734,9.5885,39.8105,0,0,0,0,0,0,0,-1,1070,1758,9.58847,-39.8106
-147,-734,9.27185,40.163,0,0,0,0,0,0,0,-1,1077,1758,9.27179,-40.163
-140,-734,9.46118,40.9503,0,0,0,0,0,0,0,-1,1084,1758,9.46118,-40.9503
-133,-734,9.224,41.087,-0.0134989,-0.00752242,0.0061283,-0.00369263,-0.0173287,1.01224,0.0105395,0.0454171,1091,1758,9.22399,-41.087
-126,-734,9.00891,41.3497,-0.011293,-0.00428695,0.00621408,-0.00065653,-0.0149234,1.04206,0.00973746,0.0412581,1098,1758,9.00889,-41.3497
-119,-734,8.87097,41.7051,-0.00905857,-0.000895434,0.00652149,0.00271644,-0.0126704,1.06501,0.00948303,0.0428324,1105,1758,8.87096,-41.7051
-112,-734,8.99756,41.9852,-0.00644282,0.00225057,0.00661005,0.00581503,-0.0100073,1.07624,0.00924129,0.038914,1112,1758,8.9976,-41.9853
-105,-734,8.96655,42.2798,-0.00439889,0.00313681,0.00601761,0.00646884,-0.00773092,1.06511,0.00820902,0.0346939,1119,1758,8.9666,-42.2798
-98,-734,8.96985,42.3933,0,0,0,0,0,0,0,-1,1126,1758,8.96988,-42.3932
-91,-734,9.00696,42.8163,0,0,0,0,0,0,0,-1,1133,1758,9.00692,-42.8162
-84,-734,8.89795,43.0439,0,0,0,0,0,0,0,-1,1140,1758,8.89798,-43.0439
-77,-734,8.85754,43.2999,0,0,0,0,0,0,0,-1,1147,1758,8.85754,-43.2999
-70,-734,8.86987,43.5594,0,0,0,0,0,0,0,-1,1154,1758,8.86992,-43.5595
-63,-734,8.75867,43.5477,-0.00230552,0.00263734,0.00246032,0.00365319,-0.00332137,1.17922,0.00402828,0.0352086,1161,1758,8.75872,-43.5477
-56,-734,8.7981,43.9071,-0.000820304,0.00304902,0.00260705,0.00436084,-0.00213212,1.10461,0.00382161,0.0170315,1168,1758,8.79808,-43.9071
-49,-734,8.77551,44.1331,-0.00029057,0.00357573,0.00260169,0.00488386,-0.0015987,1.10491,0.00389961,0.0130022,1175,1758,8.77554,-44.1331
-42,-734,8.76941,44.3374,-0.000684898,0.00337253,0.00277046,0.00477764,-0.00209001,1.10142,0.00406499,0.0140193,1182,1758,8.76941,-44.3374
-35,-734,8.77356,44.4874,-0.000969902,0.00282429,0.00288968,0.00438396,-0.00252958,1.07587,0.00403911,0.0143061,1189,1758,8.77356,-44.4874
-28,-734,8.74841,44.6326,-0.00126557,0.00242713,0.00278847,0.00392512,-0.00276356,1.07783,0.00388107,0.00969588,1196,1758,8.74847,-44.6325
-21,-734,8.77478,44.7913,-0.00138682,0.00206293,0.00294637,0.00375219,-0.00307608,1.05021,0.00394874,0.0152156,1203,1758,8.77479,-44.7913
-14,-734,8.71497,44.9648,-0.00123532,0.002039,0.00332539,0.00410839,-0.00330472,1.01414,0.00428833,0.016178,1210,1758,8.71495,-44.9649
-7,-734,8.69556,45.0966,-0.00121031,0.00180043,0.00351346,0.00411743,-0.00352731,0.987796,0.00441807,0.0174598,1217,1758,8.6956,-45.0965
0,-734,8.68115,45.1879,-0.00117817,0.00174341,0.00356031,0.00413096,-0.00356572,0.980074,0.00444767,0.0170016,1224,1758,8.68113,-45.1879
7,-734,8.6637,45.2668,-0.00109463,0.00170016,0.00366326,0.0042235,-0.00361798,0.96761,0.00453178,0.0136176,1231,1758,8.66368,-45.2668
14,-734,8.63452,45.3582,-0.000926263,0.00170605,0.00360179,0.00422463,-0.00344484,0.96057,0.00443559,0.0145277,1238,1758,8.63449,-45.3581
21,-734,8.60828,45.4371,-0.000696882,0.00163853,0.00340714,0.00407251,-0.00313086,0.950487,0.0041707,0.0130981,1245,1758,8.60825,-45.4371
28,-734,8.61926,45.514,-0.000479537,0.00145631,0.00300492,0.00364535,-0.00266858,0.941207,0.00365986,0.0117957,1252,1758,8.61928,-45.5141
35,-734,8.625,45.5935,-0.000289286,0.00127319,0.00241249,0.00302778,-0.00204389,0.941984,0.00294644,0.0139551,1259,1758,8.62501,-45.5935
42,-734,8.61877,45.623,-0.000218161,0.00110906,0.00177264,0.00233823,-0.00144733,0.964505,0.00220568,0.012712,1266,1758,8.61883,-45.623
49,-734,8.58557,45.6387,-0.000141846,0.0014819,0.00122937,0.00214328,-0.000803228,1.07722,0.00175883,0.0104381,1273,1758,8.58558,-45.6386
56,-734,8.57129,45.6724,0.000229318,0.00250124,0.000788507,0.00274808,-1.75262e-05,1.26741,0.00183793,0.00998479,1280,1758,8.57125,-45.6724
63,-734,8.56567,45.6748,0.000420166,0.00304743,0.000229266,0.00306729,0.000400309,1.4844,0.00192534,0.0132453,1287,1758,8.5657,-45.6748
70,-734,8.55701,45.673,0.000425997,0.00369378,-0.000216033,0.003708,0.000411777,-1.50507,0.00234681,0.0131713,1294,1758,8.55702,-45.673
77,-734,8.55371,45.7042,0.000454905,0.00440047,-0.000438634,0.00444865,0.000406729,-1.4614,0.00283991,0.0176045,1301,1758,8.5537,-45.7042
84,-734,8.56555,45.635,0.000290292,0.00498316,-0.000555407,0.005048,0.000225455,-1.45458,0.00329276,0.0167274,1308,1758,8.56561,-45.635
91,-734,8.57678,45.575,-5.83407e-05,0.00525055,-0.000639539,0.00532651,-0.000134296,-1.45258,0.00359661,0.0188552,1315,1758,8.57679,-45.575
98,-734,8.55579,45.5684,-0.000286685,0.00531737,-0.000429999,0.00535017,-0.000319487,-1.49466,0.0036779,0.0146248,1322,1758,8.55576,-45.5683
105,-734,8.55859,45.4973,-0.000456317,0.00518027,-0.000149102,0.00518421,-0.000460258,-1.54437,0.00361933,0.0156723,1329,1758,8.55857,-45.4974
112,-734,8.55347,45.4038,-0.000656781,0.00472521,1.92733e-05,0.00472528,-0.00065685,1.56722,0.00339042,0.013535,1336,1758,8.55345,-45.4037
119,-734,8.51831,45.3103,-0.0009494,0.00386719,0.000246802,0.0038798,-0.000962013,1.51973,0.00295979,0.0144301,1343,1758,8.51828,-45.3102
126,-734,8.50732,45.2227,-0.00123761,0.00280318,0.000502072,0.00286463,-0.00129906,1.44901,0.0024599,0.0162879,1350,1758,8.50737,-45.2227
133,-734,8.48706,45.1146,-0.00152493,0.00172466,0.000787009,0.00190523,-0.0017055,1.34526,0.00208572,0.0149038,1357,1758,8.48704,-45.1146
140,-734,8.49036,45.0288,-0.00181563,0.00057707,0.00106656,0.000983467,-0.00222203,1.20674,0.00189619,0.0203789,1364,1758,8.49038,-45.0289
147,-734,8.45532,44.87,-0.00203838,-0.000496456,0.0012547,0.00020522,-0.00274006,1.06089,0.00189881,0.0146292,1371,1758,8.45537,-44.87
154,-734,8.43787,44.7468,-0.00257485,-0.001919,0.00105719,-0.00114005,-0.00335381,0.935786,0.00196912,0.00990497,1378,1758,8.43785,-44.7469
161,-734,8.41833,44.6046,-0.00316282,-0.00370868,0.000812798,-0.00257835,-0.00429315,0.623415,0.00249531,0.00891311,1385,1758,8.41834,-44.6046
168,-734,8.38025,44.4456,-0.00316331,-0.0036234,0.000777799,-0.00258225,-0.00420446,0.641615,0.00244845,0.0141217,1392,1758,8.38024,-44.4456
175,-734,8.37134,44.2737,-0.00311148,-0.00329034,0.000630499,-0.0025641,-0.00383772,0.714946,0.00225708,0.0176433,1399,1758,8.37129,-44.2737
182,-734,8.38513,44.066,-0.00320396,-0.00280795,0.000113142,-0.0027779,-0.003234,1.31123,0.00202119,0.0149389,1406,1758,8.38513,-44.066
189,-734,8.33716,43.879,-0.00280686,-0.00177026,-0.000389982,-0.00163993,-0.00293719,-1.24827,0.00169963,0.0114618,1413,1758,8.33715,-43.879
196,-734,8.29871,43.7024,-0.00254593,1.86123e-05,-0.0011038,0.00042826,-0.00295558,-1.21543,0.00212755,0.0142375,1420,1758,8.29869,-43.7024
203,-734,8.3064,43.4585,-0.00283999,0.00313684,-0.0017407,0.00360685,-0.00331,-1.30708,0.00399467,0.0203781,1427,1758,8.30638,-43.4585
210,-734,8.31226,43.2083,-0.00315218,0.00501065,-0.0012229,0.00518992,-0.00333145,-1.42524,0.00495866,0.0344956,1434,1758,8.31222,-43.2082
217,-734,8.22559,43.0402,0,0,0,0,0,0,0,-1,1441,1758,8.22553,-43.0402
224,-734,8.18604,42.8044,0,0,0,0,0,0,0,-1,1448,1758,8.18604,-42.8044
231,-734,8.11682,42.5176,0,0,0,0,0,0,0,-1,1455,1758,8.11677,-42.5176
238,-734,8.11768,42.0862,-0.00419702,0.00836004,0.000101376,0.00836086,-0.00419784,1.56272,0.00738236,0.0471308,1462,1758,8.11769,-42.0861
245,-734,8.17993,41.8781,-0.00439328,0.00886726,0.000331799,0.00887556,-0.00440158,1.5458,0.00780928,0.0313562,1469,1758,8.17994,-41.8781
252,-734,8.15051,41.5895,-0.00467561,0.0091966,0.000446925,0.00921098,-0.00468999,1.53862,0.00816599,0.0308723,1476,1758,8.15056,-41.5895
259,-734,8.1134,41.4263,-0.00502343,0.0091711,0.000521386,0.00919022,-0.00504255,1.53413,0.00833279,0.037848,1483,1758,8.11339,-41.4262
266,-734,8.15454,41.3051,-0.0051849,0.0094167,0.000252349,0.00942106,-0.00518926,1.55352,0.0085524,0.0471299,1490,1758,8.15458,-41.305
273,-734,8.22998,41.0647,0,0,0,0,0,0,0,-1,1497,1758,8.22994,-41.0647
280,-734,8.60669,40.2765,0,0,0,0,0,0,0,-1,1504,1758,8.60665,-40.2765
287,-734,7.49524,39.9406,0,0,0,0,0,0,0,-1,1511,1758,7.49526,-39.9406
294,-734,7.03406,36.0077,0,0,0,0,0,0,0,-1,1518,1758,7.03407,-36.0077
301,-734,6.88904,37.8728,0,0,0,0,0,0,0,-1,1525,1758,6.88907,-37.8729
308,-734,7.677,40.0679,0,0,0,0,0,0,0,-1,1532,1758,7.67705,-40.0678
315,-734,7.12585,39.0027,0,0,0,0,0,0,0,-1,1539,1758,7.12583,-39.0027
322,-734,6.57458,37.9376,0,0,0,0,0,0,0,-1,1546,1758,6.5746,-37.9376
329,-734,5.73267,19.656,0,0,0,0,0,0,0,-1,1553,1758,5.73262,-19.656
336,-734,6.71375,23.7469,0,0,0,0,0,0,0,-1,1560,1758,6.71372,-23.7469
343,-734,5.54968,5.14221,0,0,0,0,0,0,0,-1,1567,1758,5.54973,-5.14225
350,-734,5.07397,6.73242,0,0,0,0,0,0,0,-1,1574,1758,5.07402,-6.73243
357,-734,5.05542,7.19189,0,0,0,0,0,0,0,-1,1581,1758,5.05541,-7.19184
364,-734,4.43896,10.4904,0,0,0,0,0,0,0,-1,1588,1758,4.43893,-10.4904
371,-734,7.36975,17.4751,0,0,0,0,0,0,0,-1,1595,1758,7.36972,-17.4752
378,-734,0,0,0,0,0,0,0,0,0,-1,1602,1758,0,0
385,-734,0,0,0,0,0,0,0,0,0,-1,1609,1758,0,0
392,-734,0,0,0,0,0,0,0,0,0,-1,1616,1758,0,0
399,-734,0,0,0,0,0,0,0,0,0,-1,1623,1758,0,0
406,-734,0,0,0,0,0,0,0,0,0,-1,1630,1758,0,0
413,-734,0,0,0,0,0,0,0,0,0,-1,1637,1758,0,0
420,-734,0,0,0,0,0,0,0,0,0,-1,1644,1758,0,0
427,-734,0,0,0,0,0,0,0,0,0,-1,1651,1758,0,0
434,-734,0,0,0,0,0,0,0,0,0,-1,1658,1758,0,0
441,-734,0,0,0,0,0,0,0,0,0,-1,1665,1758,0,0
448,-734,0,0,0,0,0,0,0,0,0,-1,1672,1758,0,0
455,-734,0,0,0,0,0,0,0,0,0,-1,1679,1758,0,0
462,-734,0,0,0,0,0,0,0,0,0,-1,1686,1758,0,0
469,-734,0,0,0,0,0,0,0,0,0,-1,1693,1758,0,0
476,-734,0,0,0,0,0,0,0,0,0,-1,1700,1758,0,0
483,-734,0,0,0,0,0,0,0,0,0,-1,1707,1758,0,0
490,-734,0,0,0,0,0,0,0,0,0,-1,1714,1758,0,0
497,-734,0,0,0,0,0,0,0,0,0,-1,1721,1758,0,0
504,-734,0,0,0,0,0,0,0,0,0,-1,1728,1758,0,0
511,-734,0,0,0,0,0,0,0,0,0,-1,1735,1758,0,0
518,-734,0,0,0,0,0,0,0,0,0,-1,1742,1758,0,0
525,-734,0,0,0,0,0,0,0,0,0,-1,1749,1758,0,0
532,-734,0,0,0,0,0,0,0,0,0,-1,1756,1758,0,0
539,-734,0,0,0,0,0,0,0,0,0,-1,1763,1758,0,0
546,-734,0,0,0,0,0,0,0,0,0,-1,1770,1758,0,0
553,-734,0,0,0,0,0,0,0,0,0,-1,1777,1758,0,0
560,-734,0,0,0,0,0,0,0,0,0,-1,1784,1758,0,0
567,-734,0,0,0,0,0,0,0,0,0,-1,1791,1758,0,0
574,-734,0,0,0,0,0,0,0,0,0,-1,1798,1758,0,0
581,-734,0,0,0,0,0,0,0,0,0,-1,1805,1758,0,0
588,-734,0,0,0,0,0,0,0,0,0,-1,1812,1758,0,0
595,-734,0,0,0,0,0,0,0,0,0,-1,1819,1758,0,0
602,-734,0,0,0,0,0,0,0,0,0,-1,1826,1758,0,0
609,-734,0,0,0,0,0,0,0,0,0,-1,1833,1758,0,0
616,-734,0,0,0,0,0,0,0,0,0,-1,1840,1758,0,0
623,-734,0,0,0,0,0,0,0,0,0,-1,1847,1758,0,0
630,-734,0,0,0,0,0,0,0,0,0,-1,1854,1758,0,0
637,-734,0,0,0,0,0,0,0,0,0,-1,1861,1758,0,0
644,-734,0,0,0,0,0,0,0,0,0,-1,1868,1758,0,0
651,-734,0,0,0,0,0,0,0,0,0,-1,1875,1758,0,0
658,-734,0,0,0,0,0,0,0,0,0,-1,1882,1758,0,0
665,-734,0,0,0,0,0,0,0,0,0,-1,1889,1758,0,0
672,-734,0,0,0,0,0,0,0,0,0,-1,1896,1758,0,0
679,-734,0,0,0,0,0,0,0,0,0,-1,1903,1758,0,0
686,-734,0,0,0,0,0,0,0,0,0,-1,1910,1758,0,0
693,-734,0,0,0,0,0,0,0,0,0,-1,1917,1758,0,0
700,-734,0,0,0,0,0,0,0,0,0,-1,1924,1758,0,0
707,-734,0,0,0,0,0,0,0,0,0,-1,1931,1758,0,0
714,-734,0,0,0,0,0,0,0,0,0,-1,1938,1758,0,0
721,-734,0,0,0,0,0,0,0,0,0,-1,1945,1758,0,0
728,-734,0,0,0,0,0,0,0,0,0,-1,1952,1758,0,0
735,-734,0,0,0,0,0,0,0,0,0,-1,1959,1758,0,0
742,-734,0,0,0,0,0,0,0,0,0,-1,1966,1758,0,0
749,-734,0,0,0,0,0,0,0,0,0,-1,1973,1758,0,0
756,-734,0,0,0,0,0,0,0,0,0,-1,1980,1758,0,0
763,-734,0,0,0,0,0,0,0,0,0,-1,1987,1758,0,0
770,-734,0,0,0,0,0,0,0,0,0,-1,1994,1758,0,0
777,-734,0,0,0,0,0,0,0,0,0,-1,2001,1758,0,0
784,-734,0,0,0,0,0,0,0,0,0,-1,2008,1758,0,0
791,-734,0,0,0,0,0,0,0,0,0,-1,2015,1758,0,0
798,-734,0,0,0,0,0,0,0,0,0,-1,2022,1758,0,0
805,-734,0,0,0,0,0,0,0,0,0,-1,2029,1758,0,0
812,-734,0,0,0,0,0,0,0,0,0,-1,2036,1758,0,0
-700,-741,0,0,0,0,0,0,0,0,0,-1,524,1765,0,0
-693,-741,0,0,0,0,0,0,0,0,0,-1,531,1765,0,0
-686,-741,0,0,0,0,0,0,0,0,0,-1,538,1765,0,0
-679,-741,0,0,0,0,0,0,0,0,0,-1,545,1765,0,0
-672,-741,0,0,0,0,0,0,0,0,0,-1,552,1765,0,0
-665,-741,0,0,0,0,0,0,0,0,0,-1,559,1765,0,0
-658,-741,0,0,0,0,0,0,0,0,0,-1,566,1765,0,0
-651,-741,0,0,0,0,0,0,0,0,0,-1,573,1765,0,0
-644,-741,0,0,0,0,0,0,0,0,0,-1,580,1765,0,0
-637,-741,0,0,0,0,0,0,0,0,0,-1,587,1765,0,0
-630,-741,0,0,0,0,0,0,0,0,0,-1,594,1765,0,0
-623,-741,0,0,0,0,0,0,0,0,0,-1,601,1765,0,0
-616,-741,0,0,0,0,0,0,0,0,0,-1,608,1765,0,0
-609,-741,0,0,0,0,0,0,0,0,0,-1,615,1765,0,0
-602,-741,0,0,0,0,0,0,0,0,0,-1,622,1765,0,0
-595,-741,0,0,0,0,0,0,0,0,0,-1,629,1765,0,0
-588,-741,0,0,0,0,0,0,0,0,0,-1,636,1765,0,0
-581,-741,0,0,0,0,0,0,0,0,0,-1,643,1765,0,0
-574,-741,0,0,0,0,0,0,0,0,0,-1,650,1765,0,0
-567,-741,0,0,0,0,0,0,0,0,0,-1,657,1765,0,0
-560,-741,0,0,0,0,0,0,0,0,0,-1,664,1765,0,0
-553,-741,0,0,0,0,0,0,0,0,0,-1,671,1765,0,0
-546,-741,0,0,0,0,0,0,0,0,0,-1,678,1765,0,0
-539,-741,0,0,0,0,0,0,0,0,0,-1,685,1765,0,0
-532,-741,0,0,0,0,0,0,0,0,0,-1,692,1765,0,0
-525,-741,0,0,0,0,0,0,0,0,0,-1,699,1765,0,0
-518,-741,0,0,0,0,0,0,0,0,0,-1,706,1765,0,0
-511,-741,0,0,0,0,0,0,0,0,0,-1,713,1765,0,0
-504,-741,0,0,0,0,0,0,0,0,0,-1,720,1765,0,0
-497,-741,0,0,0,0,0,0,0,0,0,-1,727,1765,0,0
-490,-741,0,0,0,0,0,0,0,0,0,-1,734,1765,0,0
-483,-741,0,0,0,0,0,0,0,0,0,-1,741,1765,0,0
-476,-741,0,0,0,0,0,0,0,0,0,-1,748,1765,0,0
-469,-741,0,0,0,0,0,0,0,0,0,-1,755,1765,0,0
-462,-741,0,0,0,0,0,0,0,0,0,-1,762,1765,0,0
-455,-741,0,0,0,0,0,0,0,0,0,-1,769,1765,0,0
-448,-741,0,0,0,0,0,0,0,0,0,-1,776,1765,0,0
-441,-741,0,0,0,0,0,0,0,0,0,-1,783,1765,0,0
-434,-741,0,0,0,0,0,0,0,0,0,-1,790,1765,0,0
-427,-741,0,0,0,0,0,0,0,0,0,-1,797,1765,0,0
-420,-741,0,0,0,0,0,0,0,0,0,-1,804,1765,0,0
-413,-741,0,0,0,0,0,0,0,0,0,-1,811,1765,0,0
-406,-741,0,0,0,0,0,0,0,0,0,-1,818,1765,0,0
-399,-741,0,0,0,0,0,0,0,0,0,-1,825,1765,0,0
-392,-741,0,0,0,0,0,0,0,0,0,-1,832,1765,0,0
-385,-741,0,0,0,0,0,0,0,0,0,-1,839,1765,0,0
-378,-741,0,0,0,0,0,0,0,0,0,-1,846,1765,0,0
-371,-741,0,0,0,0,0,0,0,0,0,-1,853,1765,0,0
-364,-741,0,0,0,0,0,0,0,0,0,-1,860,1765,0,0
-357,-741,0,0,0,0,0,0,0,0,0,-1,867,1765,0,0
-350,-741,0,0,0,0,0,0,0,0,0,-1,874,1765,0,0
-343,-741,0,0,0,0,0,0,0,0,0,-1,881,1765,0,0
-336,-741,0,0,0,0,0,0,0,0,0,-1,888,1765,0,0
-329,-741,0,0,0,0,0,0,0,0,0,-1,895,1765,0,0
-322,-741,0,0,0,0,0,0,0,0,0,-1,902,1765,0,0
-315,-741,0,0,0,0,0,0,0,0,0,-1,909,1765,0,0
-308,-741,0,0,0,0,0,0,0,0,0,-1,916,1765,0,0
-301,-741,0,0,0,0,0,0,0,0,0,-1,923,1765,0,0
-294,-741,0,0,0,0,0,0,0,0,0,-1,930,1765,0,0
-287,-741,0,0,0,0,0,0,0,0,0,-1,937,1765,0,0
-280,-741,0,0,0,0,0,0,0,0,0,-1,944,1765,0,0
-273,-741,0,0,0,0,0,0,0,0,0,-1,951,1765,0,0
-266,-741,0,0,0,0,0,0,0,0,0,-1,958,1765,0,0
-259,-741,0,0,0,0,0,0,0,0,0,-1,965,1765,0,0
-252,-741,0,0,0,0,0,0,0,0,0,-1,972,1765,0,0
-245,-741,0,0,0,0,0,0,0,0,0,-1,979,1765,0,0
-238,-741,7.13855,29.8348,0,0,0,0,0,0,0,-1,986,1765,7.13856,-29.8348
-231,-741,7.74182,29.3066,0,0,0,0,0,0,0,-1,993,1765,7.74183,-29.3066
-224,-741,7.80078,29.0964,0,0,0,0,0,0,0,-1,1000,1765,7.80079,-29.0964
-217,-741,8.15863,29.113,0,0,0,0,0,0,0,-1,1007,1765,8.15863,-29.1131
-210,-741,8.37024,29.3896,0,0,0,0,0,0,0,-1,1014,1765,8.37022,-29.3896
-203,-741,8.33801,29.8871,0,0,0,0,0,0,0,-1,1021,1765,8.33805,-29.8871
-196,-741,8.75513,30.84,0,0,0,0,0,0,0,-1,1028,1765,8.75516,-30.8399
-189,-741,9.16321,31.9888,0,0,0,0,0,0,0,-1,1035,1765,9.16327,-31.9888
-182,-741,10.6545,39.5505,0,0,0,0,0,0,0,-1,1042,1765,10.6545,-39.5505
-175,-741,10.3236,40.2167,0,0,0,0,0,0,0,-1,1049,1765,10.3236,-40.2167
-168,-741,10.0679,40.8369,0,0,0,0,0,0,0,-1,1056,1765,10.0679,-40.8369
-161,-741,9.60486,39.6904,0,0,0,0,0,0,0,-1,1063,1765,9.60487,-39.6904
-154,-741,9.98474,39.991,0,0,0,0,0,0,0,-1,1070,1765,9.98477,-39.991
-147,-741,9.67957,40.3275,0,0,0,0,0,0,0,-1,1077,1765,9.67958,-40.3276
-140,-741,9.37439,40.6642,0,0,0,0,0,0,0,-1,1084,1765,9.3744,-40.6641
-133,-741,9.58435,41.3429,0,0,0,0,0,0,0,-1,1091,1765,9.58439,-41.3429
-126,-741,9.21655,41.4622,0,0,0,0,0,0,0,-1,1098,1765,9.21654,-41.4622
-119,-741,8.91711,41.7042,0,0,0,0,0,0,0,-1,1105,1765,8.91717,-41.7042
-112,-741,9.15735,41.9399,0,0,0,0,0,0,0,-1,1112,1765,9.15732,-41.94
-105,-741,9.24487,42.1686,0,0,0,0,0,0,0,-1,1119,1765,9.24487,-42.1685
-98,-741,9.19971,40.25,0,0,0,0,0,0,0,-1,1126,1765,9.19971,-40.25
-91,-741,8.40002,36.3687,0,0,0,0,0,0,0,-1,1133,1765,8.40002,-36.3687
-84,-741,7.8877,35.0892,0,0,0,0,0,0,0,-1,1140,1765,7.88776,-35.0892
-77,-741,7.73303,34.1174,0,0,0,0,0,0,0,-1,1147,1765,7.73304,-34.1174
-70,-741,7.5437,32.0275,0,0,0,0,0,0,0,-1,1154,1765,7.5437,-32.0275
-63,-741,8.72815,43.1775,0,0,0,0,0,0,0,-1,1161,1765,8.7281,-43.1775
-56,-741,8.995,43.8126,0,0,0,0,0,0,0,-1,1168,1765,8.99494,-43.8126
-49,-741,8.95569,44.1843,0,0,0,0,0,0,0,-1,1175,1765,8.9557,-44.1844
-42,-741,8.89709,44.3665,0,0,0,0,0,0,0,-1,1182,1765,8.89712,-44.3665
-35,-741,8.91052,44.4878,-0.00213564,0.00505979,0.00521243,0.00779556,-0.0048714,1.08746,0.00737794,0.0243978,1189,1765,8.91052,-44.4878
-28,-741,8.91406,44.6429,-0.00281058,0.00471422,0.0050003,0.00720951,-0.00530587,1.10793,0.00725357,0.0148066,1196,1765,8.9141,-44.6429
-21,-741,8.90161,44.8013,-0.0032479,0.00431682,0.00508088,0.00686862,-0.0057997,1.10536,0.00732273,0.0181614,1203,1765,8.90162,-44.8013
-14,-741,8.83252,44.9492,-0.00327778,0.0041847,0.00521624,0.00686683,-0.00595991,1.09586,0.00741169,0.0187118,1210,1765,8.83257,-44.9493
-7,-741,8.79993,45.0587,-0.00340097,0.00375584,0.00505366,0.00636973,-0.00601486,1.09346,0.00715122,0.0160352,1217,1765,8.79995,-45.0587
0,-741,8.7915,45.1479,-0.00342728,0.00334012,0.00454707,0.00562434,-0.0057115,1.10527,0.00654481,0.0158956,1224,1765,8.79145,-45.148
7,-741,8.75842,45.2595,-0.00333601,0.00296239,0.00425414,0.00510613,-0.00547974,1.10402,0.00611303,0.0179815,1231,1765,8.75847,-45.2596
14,-741,8.7251,45.3636,-0.00307496,0.00263144,0.00374994,0.00449022,-0.00493375,1.11061,0.00544294,0.0170602,1238,1765,8.72506,-45.3637
21,-741,8.68628,45.427,-0.00270743,0.0022526,0.00308418,0.00373019,-0.00418502,1.12402,0.00457236,0.013641,1245,1765,8.68633,-45.427
28,-741,8.66284,45.52,-0.00236245,0.00182052,0.0021105,0.00270032,-0.00324225,1.17583,0.0034357,0.0137342,1252,1765,8.6629,-45.5201
35,-741,8.66809,45.5723,-0.00207318,0.00149347,0.000929366,0.00172111,-0.00230082,1.33059,0.00233009,0.0149051,1259,1765,8.66806,-45.5722
42,-741,8.66846,45.6041,-0.00193575,0.00120836,-0.000196221,0.00122056,-0.00194795,-1.50871,0.00184534,0.0161233,1266,1765,8.66849,-45.6041
49,-741,8.61194,45.6296,-0.00178253,0.00181564,-0.00106686,0.00210818,-0.00207507,-1.30317,0.00241523,0.0106307,1273,1765,8.61192,-45.6296
56,-741,8.57483,45.6702,-0.00115354,0.00352248,-0.00166963,0.00405744,-0.0016885,-1.26073,0.00341011,0.00995241,1280,1765,8.57479,-45.6701
63,-741,8.55554,45.6827,-0.000752029,0.00457139,-0.00236805,0.00547232,-0.00165295,-1.20726,0.00430627,0.0138759,1287,1765,8.55552,-45.6827
70,-741,8.53882,45.6957,-0.00056146,0.00581107,-0.00282344,0.00688204,-0.00163244,-1.20825,0.005218,0.0163369,1294,1765,8.53884,-45.6957
77,-741,8.51892,45.689,-0.000433626,0.00723887,-0.00278499,0.00814319,-0.00133794,-1.25683,0.00592534,0.014152,1301,1765,8.51894,-45.6889
84,-741,8.48767,45.6727,-0.000606754,0.0084937,-0.00259414,0.00918123,-0.00129429,-1.31172,0.00659472,0.0159028,1308,1765,8.48771,-45.6728
91,-741,8.48425,45.6476,-0.000989891,0.00917673,-0.00230697,0.00967572,-0.00148889,-1.35778,0.00699976,0.0134084,1315,1765,8.48422,-45.6476
98,-741,8.48047,45.5542,-0.00116527,0.00951345,-0.00162701,0.00975584,-0.00140766,-1.42291,0.00702032,0.0112407,1322,1765,8.48045,-45.5541
105,-741,8.48315,45.4562,-0.00127302,0.00958261,-0.00083845,0.00964699,-0.0013374,-1.49417,0.00692034,0.0114495,1329,1765,8.4831,-45.4562
112,-741,8.49268,45.3875,-0.00145557,0.00895353,-0.000458335,0.00897367,-0.00147571,-1.52688,0.00653017,0.0113213,1336,1765,8.49269,-45.3874
119,-741,8.4458,45.3113,-0.00179683,0.00769194,-1.95788e-06,0.00769194,-0.00179683,-1.57059,0.0058201,0.0134725,1343,1765,8.44585,-45.3113
126,-741,8.40991,45.234,-0.00219789,0.00600155,0.000489821,0.00603071,-0.00222704,1.51134,0.00493333,0.0174398,1350,1765,8.40996,-45.234
133,-741,8.38123,45.0951,-0.00261833,0.00419694,0.00108089,0.00436426,-0.00278566,1.41722,0.00416141,0.0135161,1357,1765,8.38127,-45.095
140,-741,8.35352,44.9758,-0.00306513,0.00219028,0.00164712,0.00266384,-0.00353869,1.29084,0.00359288,0.0108322,1364,1765,8.35354,-44.9758
147,-741,8.34521,44.8728,-0.00346598,0.000320308,0.00198173,0.00116783,-0.0043135,1.16667,0.00333384,0.0103005,1371,1765,8.34519,-44.8728
154,-741,8.31763,44.7777,-0.00439303,-0.00219197,0.0017008,-0.00126669,-0.0053183,1.07255,0.00320778,0.00890487,1378,1765,8.31758,-44.7777
161,-741,8.29211,44.6154,-0.00538538,-0.00578312,0.00131716,-0.00425216,-0.00691634,0.710472,0.00402808,0.0107323,1385,1765,8.29209,-44.6154
168,-741,8.25415,44.4628,-0.00531705,-0.00576484,0.00132865,-0.00419356,-0.00688832,0.701926,0.00400823,0.0249424,1392,1765,8.25418,-44.4627
175,-741,8.21252,44.3363,0,0,0,0,0,0,0,-1,1399,1765,8.21249,-44.3363
182,-741,8.21985,44.0566,0,0,0,0,0,0,0,-1,1406,1765,8.21979,-44.0566
189,-741,8.14832,43.902,0,0,0,0,0,0,0,-1,1413,1765,8.14832,-43.902
196,-741,8.09778,43.7152,0,0,0,0,0,0,0,-1,1420,1765,8.09776,-43.7151
203,-741,8.09387,43.3945,0,0,0,0,0,0,0,-1,1427,1765,8.09392,-43.3946
210,-741,8.07971,42.936,0,0,0,0,0,0,0,-1,1434,1765,8.07966,-42.9361
217,-741,8.4032,40.1213,0,0,0,0,0,0,0,-1,1441,1765,8.40325,-40.1214
224,-741,8.0719,38.4249,0,0,0,0,0,0,0,-1,1448,1765,8.07187,-38.4249
231,-741,7.95923,39.0671,0,0,0,0,0,0,0,-1,1455,1765,7.9592,-39.0671
238,-741,7.8717,41.9395,0,0,0,0,0,0,0,-1,1462,1765,7.87171,-41.9394
245,-741,8.2511,41.5455,0,0,0,0,0,0,0,-1,1469,1765,8.25111,-41.5455
252,-741,8.06799,41.266,-0.00665984,0.0130255,0.00163814,0.0131609,-0.00679523,1.48834,0.0117154,0.0476919,1476,1765,8.06796,-41.266
259,-741,7.84717,41.3232,-0.00710276,0.0130085,0.00188021,0.0131828,-0.00727703,1.47837,0.0119754,0.0464049,1483,1765,7.84719,-41.3232
266,-741,7.88208,41.5449,0,0,0,0,0,0,0,-1,1490,1765,7.8821,-41.5449
273,-741,8.05688,40.4602,0,0,0,0,0,0,0,-1,1497,1765,8.05687,-40.4602
280,-741,8.22986,40.8604,0,0,0,0,0,0,0,-1,1504,1765,8.22988,-40.8604
287,-741,7.92236,41.7656,0,0,0,0,0,0,0,-1,1511,1765,7.92231,-41.7656
294,-741,6.55676,41.248,0,0,0,0,0,0,0,-1,1518,1765,6.55675,-41.248
301,-741,6.20667,38.5165,0,0,0,0,0,0,0,-1,1525,1765,6.20667,-38.5165
308,-741,6.57507,40.9431,0,0,0,0,0,0,0,-1,1532,1765,6.57504,-40.9431
315,-741,6.30457,39.5544,0,0,0,0,0,0,0,-1,1539,1765,6.30452,-39.5544
322,-741,6.03406,38.1658,0,0,0,0,0,0,0,-1,1546,1765,6.034,-38.1658
329,-741,4.74414,17.928,0,0,0,0,0,0,0,-1,1553,1765,4.74414,-17.928
336,-741,5.74304,22.0945,0,0,0,0,0,0,0,-1,1560,1765,5.74306,-22.0945
343,-741,7.09888,26.501,0,0,0,0,0,0,0,-1,1567,1765,7.09885,-26.501
350,-741,4.90369,5.44666,0,0,0,0,0,0,0,-1,1574,1765,4.90368,-5.44664
357,-741,4.02063,5.16626,0,0,0,0,0,0,0,-1,1581,1765,4.02058,-5.1662
364,-741,0,0,0,0,0,0,0,0,0,-1,1588,1765,0,0
371,-741,0,0,0,0,0,0,0,0,0,-1,1595,1765,0,0
378,-741,0,0,0,0,0,0,0,0,0,-1,1602,1765,0,0
385,-741,0,0,0,0,0,0,0,0,0,-1,1609,1765,0,0
392,-741,0,0,0,0,0,0,0,0,0,-1,1616,1765,0,0
399,-741,0,0,0,0,0,0,0,0,0,-1,1623,1765,0,0
406,-741,0,0,0,0,0,0,0,0,0,-1,1630,1765,0,0
413,-741,0,0,0,0,0,0,0,0,0,-1,1637,1765,0,0
420,-741,0,0,0,0,0,0,0,0,0,-1,1644,1765,0,0
427,-741,0,0,0,0,0,0,0,0,0,-1,1651,1765,0,0
434,-741,0,0,0,0,0,0,0,0,0,-1,1658,1765,0,0
441,-741,0,0,0,0,0,0,0,0,0,-1,1665,1765,0,0
448,-741,0,0,0,0,0,0,0,0,0,-1,1672,1765,0,0
455,-741,0,0,0,0,0,0,0,0,0,-1,1679,1765,0,0
462,-741,0,0,0,0,0,0,0,0,0,-1,1686,1765,0,0
469,-741,0,0,0,0,0,0,0,0,0,-1,1693,1765,0,0
476,-741,0,0,0,0,0,0,0,0,0,-1,1700,1765,0,0
483,-741,0,0,0,0,0,0,0,0,0,-1,1707,1765,0,0
490,-741,0,0,0,0,0,0,0,0,0,-1,1714,1765,0,0
497,-741,0,0,0,0,0,0,0,0,0,-1,1721,1765,0,0
504,-741,0,0,0,0,0,0,0,0,0,-1,1728,1765,0,0
511,-741,0,0,0,0,0,0,0,0,0,-1,1735,1765,0,0
518,-741,0,0,0,0,0,0,0,0,0,-1,1742,1765,0,0
525,-741,0,0,0,0,0,0,0,0,0,-1,1749,1765,0,0
532,-741,0,0,0,0,0,0,0,0,0,-1,1756,1765,0,0
539,-741,0,0,0,0,0,0,0,0,0,-1,1763,1765,0,0
546,-741,0,0,0,0,0,0,0,0,0,-1,1770,1765,0,0
553,-741,0,0,0,0,0,0,0,0,0,-1,1777,1765,0,0
560,-741,0,0,0,0,0,0,0,0,0,-1,1784,1765,0,0
567,-741,0,0,0,0,0,0,0,0,0,-1,1791,1765,0,0
574,-741,0,0,0,0,0,0,0,0,0,-1,1798,1765,0,0
581,-741,0,0,0,0,0,0,0,0,0,-1,1805,1765,0,0
588,-741,0,0,0,0,0,0,0,0,0,-1,1812,1765,0,0
595,-741,0,0,0,0,0,0,0,0,0,-1,1819,1765,0,0
602,-741,0,0,0,0,0,0,0,0,0,-1,1826,1765,0,0
609,-741,0,0,0,0,0,0,0,0,0,-1,1833,1765,0,0
616,-741,0,0,0,0,0,0,0,0,0,-1,1840,1765,0,0
623,-741,0,0,0,0,0,0,0,0,0,-1,1847,1765,0,0
630,-741,0,0,0,0,0,0,0,0,0,-1,1854,1765,0,0
637,-741,0,0,0,0,0,0,0,0,0,-1,1861,1765,0,0
644,-741,0,0,0,0,0,0,0,0,0,-1,1868,1765,0,0
651,-741,0,0,0,0,0,0,0,0,0,-1,1875,1765,0,0
658,-741,0,0,0,0,0,0,0,0,0,-1,1882,1765,0,0
665,-741,0,0,0,0,0,0,0,0,0,-1,1889,1765,0,0
672,-741,0,0,0,0,0,0,0,0,0,-1,1896,1765,0,0
679,-741,0,0,0,0,0,0,0,0,0,-1,1903,1765,0,0
686,-741,0,0,0,0,0,0,0,0,0,-1,1910,1765,0,0
693,-741,0,0,0,0,0,0,0,0,0,-1,1917,1765,0,0
700,-741,0,0,0,0,0,0,0,0,0,-1,1924,1765,0,0
707,-741,0,0,0,0,0,0,0,0,0,-1,1931,1765,0,0
714,-741,0,0,0,0,0,0,0,0,0,-1,1938,1765,0,0
721,-741,0,0,0,0,0,0,0,0,0,-1,1945,1765,0,0
728,-741,0,0,0,0,0,0,0,0,0,-1,1952,1765,0,0
735,-741,0,0,0,0,0,0,0,0,0,-1,1959,1765,0,0
742,-741,0,0,0,0,0,0,0,0,0,-1,1966,1765,0,0
749,-741,0,0,0,0,0,0,0,0,0,-1,1973,1765,0,0
756,-741,0,0,0,0,0,0,0,0,0,-1,1980,1765,0,0
763,-741,0,0,0,0,0,0,0,0,0,-1,1987,1765,0,0
770,-741,0,0,0,0,0,0,0,0,0,-1,1994,1765,0,0
777,-741,0,0,0,0,0,0,0,0,0,-1,2001,1765,0,0
784,-741,0,0,0,0,0,0,0,0,0,-1,2008,1765,0,0
791,-741,0,0,0,0,0,0,0,0,0,-1,2015,1765,0,0
798,-741,0,0,0,0,0,0,0,0,0,-1,2022,1765,0,0
805,-741,0,0,0,0,0,0,0,0,0,-1,2029,1765,0,0
812,-741,0,0,0,0,0,0,0,0,0,-1,2036,1765,0,0
-700,-748,0,0,0,0,0,0,0,0,0,-1,524,1772,0,0
-693,-748,0,0,0,0,0,0,0,0,0,-1,531,1772,0,0
-686,-748,0,0,0,0,0,0,0,0,0,-1,538,1772,0,0
-679,-748,0,0,0,0,0,0,0,0,0,-1,545,1772,0,0
-672,-748,0,0,0,0,0,0,0,0,0,-1,552,1772,0,0
-665,-748,0,0,0,0,0,0,0,0,0,-1,559,1772,0,0
-658,-748,0,0,0,0,0,0,0,0,0,-1,566,1772,0,0
-651,-748,0,0,0,0,0,0,0,0,0,-1,573,1772,0,0
-644,-748,0,0,0,0,0,0,0,0,0,-1,580,1772,0,0
-637,-748,0,0,0,0,0,0,0,0,0,-1,587,1772,0,0
-630,-748,0,0,0,0,0,0,0,0,0,-1,594,1772,0,0
-623,-748,0,0,0,0,0,0,0,0,0,-1,601,1772,0,0
-616,-748,0,0,0,0,0,0,0,0,0,-1,608,1772,0,0
-609,-748,0,0,0,0,0,0,0,0,0,-1,615,1772,0,0
-602,-748,0,0,0,0,0,0,0,0,0,-1,622,1772,0,0
-595,-748,0,0,0,0,0,0,0,0,0,-1,629,1772,0,0
-588,-748,0,0,0,0,0,0,0,0,0,-1,636,1772,0,0
-581,-748,0,0,0,0,0,0,0,0,0,-1,643,1772,0,0
-574,-748,0,0,0,0,0,0,0,0,0,-1,650,1772,0,0
-567,-748,0,0,0,0,0,0,0,0,0,-1,657,1772,0,0
-560,-748,0,0,0,0,0,0,0,0,0,-1,664,1772,0,0
-553,-748,0,0,0,0,0,0,0,0,0,-1,671,1772,0,0
-546,-748,0,0,0,0,0,0,0,0,0,-1,678,1772,0,0
-539,-748,0,0,0,0,0,0,0,0,0,-1,685,1772,0,0
-532,-748,0,0,0,0,0,0,0,0,0,-1,692,1772,0,0
-525,-748,0,0,0,0,0,0,0,0,0,-1,699,1772,0,0
-518,-748,0,0,0,0,0,0,0,0,0,-1,706,1772,0,0
-511,-748,0,0,0,0,0,0,0,0,0,-1,713,1772,0,0
-504,-748,0,0,0,0,0,0,0,0,0,-1,720,1772,0,0
-497,-748,0,0,0,0,0,0,0,0,0,-1,727,1772,0,0
-490,-748,0,0,0,0,0,0,0,0,0,-1,734,1772,0,0
-483,-748,0,0,0,0,0,0,0,0,0,-1,741,1772,0,0
-476,-748,0,0,0,0,0,0,0,0,0,-1,748,1772,0,0
-469,-748,0,0,0,0,0,0,0,0,0,-1,755,1772,0,0
-462,-748,0,0,0,0,0,0,0,0,0,-1,762,1772,0,0
-455,-748,0,0,0,0,0,0,0,0,0,-1,769,1772,0,0
-448,-748,0,0,0,0,0,0,0,0,0,-1,776,1772,0,0
-441,-748,0,0,0,0,0,0,0,0,0,-1,783,1772,0,0
-434,-748,0,0,0,0,0,0,0,0,0,-1,790,1772,0,0
-427,-748,0,0,0,0,0,0,0,0,0,-1,797,1772,0,0
-420,-748,0,0,0,0,0,0,0,0,0,-1,804,1772,0,0
-413,-748,0,0,0,0,0,0,0,0,0,-1,811,1772,0,0
-406,-748,0,0,0,0,0,0,0,0,0,-1,818,1772,0,0
-399,-748,0,0,0,0,0,0,0,0,0,-1,825,1772,0,0
-392,-748,0,0,0,0,0,0,0,0,0,-1,832,1772,0,0
-385,-748,0,0,0,0,0,0,0,0,0,-1,839,1772,0,0
-378,-748,0,0,0,0,0,0,0,0,0,-1,846,1772,0,0
-371,-748,0,0,0,0,0,0,0,0,0,-1,853,1772,0,0
-364,-748,0,0,0,0,0,0,0,0,0,-1,860,1772,0,0
-357,-748,0,0,0,0,0,0,0,0,0,-1,867,1772,0,0
-350,-748,0,0,0,0,0,0,0,0,0,-1,874,1772,0,0
-343,-748,0,0,0,0,0,0,0,0,0,-1,881,1772,0,0
-336,-748,0,0,0,0,0,0,0,0,0,-1,888,1772,0,0
-329,-748,0,0,0,0,0,0,0,0,0,-1,895,1772,0,0
-322,-748,0,0,0,0,0,0,0,0,0,-1,902,1772,0,0
-315,-748,0,0,0,0,0,0,0,0,0,-1,909,1772,0,0
-308,-748,0,0,0,0,0,0,0,0,0,-1,916,1772,0,0
-301,-748,0,0,0,0,0,0,0,0,0,-1,923,1772,0,0
-294,-748,0,0,0,0,0,0,0,0,0,-1,930,1772,0,0
-287,-748,0,0,0,0,0,0,0,0,0,-1,937,1772,0,0
-280,-748,0,0,0,0,0,0,0,0,0,-1,944,1772,0,0
-273,-748,0,0,0,0,0,0,0,0,0,-1,951,1772,0,0
-266,-748,0,0,0,0,0,0,0,0,0,-1,958,1772,0,0
-259,-748,0,0,0,0,0,0,0,0,0,-1,965,1772,0,0
-252,-748,0,0,0,0,0,0,0,0,0,-1,972,1772,0,0
-245,-748,0,0,0,0,0,0,0,0,0,-1,979,1772,0,0
-238,-748,0,0,0,0,0,0,0,0,0,-1,986,1772,0,0
-231,-748,0,0,0,0,0,0,0,0,0,-1,993,1772,0,0
-224,-748,0,0,0,0,0,0,0,0,0,-1,1000,1772,0,0
-217,-748,8.97742,29.9884,0,0,0,0,0,0,0,-1,1007,1772,8.97744,-29.9884
-210,-748,8.8941,30.14,0,0,0,0,0,0,0,-1,1014,1772,8.8941,-30.14
-203,-748,8.57703,30.2961,0,0,0,0,0,0,0,-1,1021,1772,8.57706,-30.2962
-196,-748,8.01953,29.9611,0,0,0,0,0,0,0,-1,1028,1772,8.01957,-29.9611
-189,-748,9.63245,31.4406,0,0,0,0,0,0,0,-1,1035,1772,9.6325,-31.4406
-182,-748,3.94958,20.8662,0,0,0,0,0,0,0,-1,1042,1772,3.94959,-20.8662
-175,-748,3.56726,19.4518,0,0,0,0,0,0,0,-1,1049,1772,3.5673,-19.4518
-168,-748,3.04858,18.0109,0,0,0,0,0,0,0,-1,1056,1772,3.04853,-18.0108
-161,-748,3.50562,13.2729,0,0,0,0,0,0,0,-1,1063,1772,3.5056,-13.2729
-154,-748,-3.38562,10.6989,0,0,0,0,0,0,0,-1,1070,1772,-3.38564,-10.6989
-147,-748,10.1709,40.5962,0,0,0,0,0,0,0,-1,1077,1772,10.1709,-40.5962
-140,-748,10.5353,40.1616,0,0,0,0,0,0,0,-1,1084,1772,10.5353,-40.1616
-133,-748,7.44727,22.0308,0,0,0,0,0,0,0,-1,1091,1772,7.44728,-22.0308
-126,-748,5.98035,22.6067,0,0,0,0,0,0,0,-1,1098,1772,5.9803,-22.6067
-119,-748,6.63342,26.309,0,0,0,0,0,0,0,-1,1105,1772,6.6334,-26.3089
-112,-748,6.91333,24.923,0,0,0,0,0,0,0,-1,1112,1772,6.91339,-24.923
-105,-748,6.83313,25.0537,0,0,0,0,0,0,0,-1,1119,1772,6.83311,-25.0537
-98,-748,8.13623,30.8743,0,0,0,0,0,0,0,-1,1126,1772,8.13628,-30.8742
-91,-748,4.85352,15.3033,0,0,0,0,0,0,0,-1,1133,1772,4.85351,-15.3033
-84,-748,-0.192017,7.26196,0,0,0,0,0,0,0,-1,1140,1772,-0.192047,-7.26201
-77,-748,4.42615,13.5537,0,0,0,0,0,0,0,-1,1147,1772,4.4261,-13.5538
-70,-748,4.46191,13.7446,0,0,0,0,0,0,0,-1,1154,1772,4.4619,-13.7446
-63,-748,4.49768,13.9355,0,0,0,0,0,0,0,-1,1161,1772,4.49769,-13.9355
-56,-748,3.05762,7.87817,0,0,0,0,0,0,0,-1,1168,1772,3.05768,-7.87822
-49,-748,3.04102,7.82471,0,0,0,0,0,0,0,-1,1175,1772,3.04096,-7.82468
-42,-748,0.793457,14.9474,0,0,0,0,0,0,0,-1,1182,1772,0.793413,-14.9474
-35,-748,9.09729,44.4293,0,0,0,0,0,0,0,-1,1189,1772,9.09731,-44.4293
-28,-748,9.07324,44.6752,-0.00311038,0.00681092,0.00737952,0.0107421,-0.0070416,1.08132,0.0103413,0.0497546,1196,1772,9.07328,-44.6752
-21,-748,9.05457,44.8252,-0.00393302,0.0063543,0.00732421,0.0101606,-0.0077393,1.09153,0.010366,0.0237537,1203,1772,9.05452,-44.8252
-14,-748,8.96826,44.9001,-0.00428919,0.0060756,0.00696126,0.00957171,-0.0077853,1.10537,0.0100387,0.0168412,1210,1772,8.9683,-44.9002
-7,-748,8.92627,45.0096,-0.00465683,0.0055214,0.00624628,0.00848927,-0.00762471,1.12723,0.00930787,0.0160143,1217,1772,8.92628,-45.0097
0,-748,8.8833,45.1233,-0.00480573,0.00478485,0.00497703,0.00690083,-0.00692171,1.1688,0.00798045,0.0160733,1224,1772,8.88326,-45.1233
7,-748,8.85876,45.213,-0.00475556,0.00424357,0.00394406,0.00572746,-0.00623945,1.21094,0.00691121,0.015684,1231,1772,8.85877,-45.213
14,-748,8.80469,45.3419,-0.00442651,0.00381959,0.00258036,0.00456047,-0.00516738,1.2912,0.00562002,0.0162448,1238,1772,8.80463,-45.3419
21,-748,8.76514,45.4176,-0.00392286,0.00343737,0.000960627,0.00356068,-0.00404617,1.44313,0.0043948,0.0118132,1245,1772,8.76511,-45.4176
28,-748,8.72205,45.5033,-0.00347319,0.00305204,-0.000979493,0.0031959,-0.00361705,-1.42497,0.00393596,0.011905,1252,1772,8.72209,-45.5033
35,-748,8.69836,45.5497,-0.00314975,0.00289791,-0.00309212,0.00419898,-0.00445082,-1.17251,0.00499467,0.01275,1259,1772,8.69835,-45.5497
42,-748,8.7041,45.5809,-0.00299591,0.00277737,-0.00497579,0.00564322,-0.00586177,-1.04824,0.00664281,0.0140875,1266,1772,8.70406,-45.581
49,-748,8.65161,45.6058,-0.00282158,0.00383759,-0.00637658,0.00770154,-0.00668553,-1.02601,0.00831328,0.0111285,1273,1772,8.65165,-45.6058
56,-748,8.59985,45.65,-0.00201896,0.00641932,-0.00720794,0.0105522,-0.00615179,-1.05019,0.00975494,0.0107873,1280,1772,8.5998,-45.65
63,-748,8.5813,45.6555,-0.00150337,0.008143,-0.00806678,0.0127185,-0.00607891,-1.05484,0.0110761,0.0119218,1287,1772,8.58127,-45.6555
70,-748,8.54773,45.6636,-0.00127005,0.00991645,-0.00835792,0.01438,-0.0057336,-1.08028,0.0119649,0.0140559,1294,1772,8.54778,-45.6636
77,-748,8.50854,45.6592,-0.00112556,0.0120628,-0.00784889,0.0157199,-0.00478264,-1.13477,0.0123858,0.0134208,1301,1772,8.5085,-45.6592
84,-748,8.46667,45.6497,-0.00135762,0.0139631,-0.00700723,0.0166846,-0.00407909,-1.20035,0.012703,0.0149002,1308,1772,8.46672,-45.6496
91,-748,8.44946,45.6284,-0.00182362,0.0151432,-0.00596258,0.017029,-0.00370942,-1.26448,0.01277,0.0120273,1315,1772,8.44945,-45.6285
98,-748,8.41577,45.5421,-0.00200809,0.0157849,-0.00443905,0.0168309,-0.00305407,-1.33939,0.012365,0.0114216,1322,1772,8.41572,-45.5422
105,-748,8.38586,45.4434,-0.00211594,0.0161566,-0.00278612,0.016572,-0.00253131,-1.4228,0.0119812,0.0122905,1329,1772,8.38584,-45.4434
112,-748,8.40662,45.3887,-0.00231612,0.0152721,-0.00181322,0.015457,-0.0025011,-1.46913,0.0112316,0.0146312,1336,1772,8.40657,-45.3887
119,-748,8.36755,45.3311,-0.00272238,0.0134771,-0.000795044,0.013516,-0.0027613,-1.52187,0.0100582,0.0120251,1343,1772,8.3675,-45.331
126,-748,8.30859,45.266,-0.00323005,0.0109471,0.000215631,0.0109504,-0.00323333,1.55559,0.00858347,0.0138341,1350,1772,8.30859,-45.266
133,-748,8.2561,45.1239,-0.00372589,0.00816766,0.00130502,0.00830917,-0.0038674,1.46278,0.00718436,0.0089239,1357,1772,8.25605,-45.1239
140,-748,8.2467,45.0049,-0.0042053,0.00494975,0.00241444,0.00554748,-0.00480303,1.32811,0.00598102,0.0122061,1364,1772,8.24675,-45.0049
147,-748,8.24902,44.8837,-0.00471163,0.00188803,0.00302688,0.00306603,-0.00588962,1.19966,0.00525551,0.0141,1371,1772,8.24901,-44.8836
154,-748,8.19482,44.7671,-0.00605985,-0.00224696,0.00274391,-0.000812214,-0.0074946,1.08901,0.00474887,0.0121849,1378,1772,8.19481,-44.7671
161,-748,8.13757,44.6331,-0.00756336,-0.00896122,0.00224206,-0.00591381,-0.0106108,0.634303,0.00613954,0.0184007,1385,1772,8.13752,-44.6331
168,-748,8.13574,44.4967,0,0,0,0,0,0,0,-1,1392,1772,8.1357,-44.4967
175,-748,11.6235,16.8242,0,0,0,0,0,0,0,-1,1399,1772,11.6236,-16.8242
182,-748,7.62476,10.3058,0,0,0,0,0,0,0,-1,1406,1772,7.62476,-10.3058
189,-748,6.15857,6.95898,0,0,0,0,0,0,0,-1,1413,1772,6.15862,-6.95896
196,-748,3.9425,8.46021,0,0,0,0,0,0,0,-1,1420,1772,3.9425,-8.46026
203,-748,3.9668,12.9835,0,0,0,0,0,0,0,-1,1427,1772,3.96678,-12.9836
210,-748,4.71472,16.8318,0,0,0,0,0,0,0,-1,1434,1772,4.71471,-16.8317
217,-748,5.38452,21.5551,0,0,0,0,0,0,0,-1,1441,1772,5.38455,-21.555
224,-748,6.14258,25.2345,0,0,0,0,0,0,0,-1,1448,1772,6.14263,-25.2345
231,-748,6.46045,29.7867,0,0,0,0,0,0,0,-1,1455,1772,6.46049,-29.7867
238,-748,7.41565,32.8574,0,0,0,0,0,0,0,-1,1462,1772,7.41562,-32.8574
245,-748,7.84912,32.0914,0,0,0,0,0,0,0,-1,1469,1772,7.84914,-32.0914
252,-748,8.03845,40.9707,0,0,0,0,0,0,0,-1,1476,1772,8.03849,-40.9707
259,-748,7.67871,41.2324,0,0,0,0,0,0,0,-1,1483,1772,7.67872,-41.2324
266,-748,8.25952,39.3665,0,0,0,0,0,0,0,-1,1490,1772,8.25952,-39.3664
273,-748,8.50684,39.9956,0,0,0,0,0,0,0,-1,1497,1772,8.50682,-39.9957
280,-748,8.76538,40.4501,0,0,0,0,0,0,0,-1,1504,1772,8.76537,-40.45
287,-748,14.161,8.32813,0,0,0,0,0,0,0,-1,1511,1772,14.161,-8.32808
294,-748,6.38525,32.4724,0,0,0,0,0,0,0,-1,1518,1772,6.38521,-32.4725
301,-748,5.40393,38.9807,0,0,0,0,0,0,0,-1,1525,1772,5.40397,-38.9807
308,-748,5.95227,37.1827,0,0,0,0,0,0,0,-1,1532,1772,5.95229,-37.1827
315,-748,5.78125,40.1671,0,0,0,0,0,0,0,-1,1539,1772,5.78121,-40.1671
322,-748,4.27344,28.8549,0,0,0,0,0,0,0,-1,1546,1772,4.27338,-28.8549
329,-748,3.87256,16.1473,0,0,0,0,0,0,0,-1,1553,1772,3.87259,-16.1474
336,-748,4.81006,19.6141,0,0,0,0,0,0,0,-1,1560,1772,4.81011,-19.6141
343,-748,0,0,0,0,0,0,0,0,0,-1,1567,1772,0,0
350,-748,0,0,0,0,0,0,0,0,0,-1,1574,1772,0,0
357,-748,0,0,0,0,0,0,0,0,0,-1,1581,1772,0,0
364,-748,0,0,0,0,0,0,0,0,0,-1,1588,1772,0,0
371,-748,0,0,0,0,0,0,0,0,0,-1,1595,1772,0,0
378,-748,0,0,0,0,0,0,0,0,0,-1,1602,1772,0,0
385,-748,0,0,0,0,0,0,0,0,0,-1,1609,1772,0,0
392,-748,0,0,0,0,0,0,0,0,0,-1,1616,1772,0,0
399,-748,0,0,0,0,0,0,0,0,0,-1,1623,1772,0,0
406,-748,0,0,0,0,0,0,0,0,0,-1,1630,1772,0,0
413,-748,0,0,0,0,0,0,0,0,0,-1,1637,1772,0,0
420,-748,0,0,0,0,0,0,0,0,0,-1,1644,1772,0,0
427,-748,0,0,0,0,0,0,0,0,0,-1,1651,1772,0,0
434,-748,0,0,0,0,0,0,0,0,0,-1,1658,1772,0,0
441,-748,0,0,0,0,0,0,0,0,0,-1,1665,1772,0,0
448,-748,0,0,0,0,0,0,0,0,0,-1,1672,1772,0,0
455,-748,0,0,0,0,0,0,0,0,0,-1,1679,1772,0,0
462,-748,0,0,0,0,0,0,0,0,0,-1,1686,1772,0,0
469,-748,0,0,0,0,0,0,0,0,0,-1,1693,1772,0,0
476,-748,0,0,0,0,0,0,0,0,0,-1,1700,1772,0,0
483,-748,0,0,0,0,0,0,0,0,0,-1,1707,1772,0,0
490,-748,0,0,0,0,0,0,0,0,0,-1,1714,1772,0,0
497,-748,0,0,0,0,0,0,0,0,0,-1,1721,1772,0,0
504,-748,0,0,0,0,0,0,0,0,0,-1,1728,1772,0,0
511,-748,0,0,0,0,0,0,0,0,0,-1,1735,1772,0,0
518,-748,0,0,0,0,0,0,0,0,0,-1,1742,1772,0,0
525,-748,0,0,0,0,0,0,0,0,0,-1,1749,1772,0,0
532,-748,0,0,0,0,0,0,0,0,0,-1,1756,1772,0,0
539,-748,0,0,0,0,0,0,0,0,0,-1,1763,1772,0,0
546,-748,0,0,0,0,0,0,0,0,0,-1,1770,1772,0,0
553,-748,0,0,0,0,0,0,0,0,0,-1,1777,1772,0,0
560,-748,0,0,0,0,0,0,0,0,0,-1,1784,1772,0,0
567,-748,0,0,0,0,0,0,0,0,0,-1,1791,1772,0,0
574,-748,0,0,0,0,0,0,0,0,0,-1,1798,1772,0,0
581,-748,0,0,0,0,0,0,0,0,0,-1,1805,1772,0,0
588,-748,0,0,0,0,0,0,0,0,0,-1,1812,1772,0,0
595,-748,0,0,0,0,0,0,0,0,0,-1,1819,1772,0,0
602,-748,0,0,0,0,0,0,0,0,0,-1,1826,1772,0,0
609,-748,0,0,0,0,0,0,0,0,0,-1,1833,1772,0,0
616,-748,0,0,0,0,0,0,0,0,0,-1,1840,1772,0,0
623,-748,0,0,0,0,0,0,0,0,0,-1,1847,1772,0,0
630,-748,0,0,0,0,0,0,0,0,0,-1,1854,1772,0,0
637,-748,0,0,0,0,0,0,0,0,0,-1,1861,1772,0,0
644,-748,0,0,0,0,0,0,0,0,0,-1,1868,1772,0,0
651,-748,0,0,0,0,0,0,0,0,0,-1,1875,1772,0,0
658,-748,0,0,0,0,0,0,0,0,0,-1,1882,1772,0,0
665,-748,0,0,0,0,0,0,0,0,0,-1,1889,1772,0,0
672,-748,0,0,0,0,0,0,0,0,0,-1,1896,1772,0,0
679,-748,0,0,0,0,0,0,0,0,0,-1,1903,1772,0,0
686,-748,0,0,0,0,0,0,0,0,0,-1,1910,1772,0,0
693,-748,0,0,0,0,0,0,0,0,0,-1,1917,1772,0,0
700,-748,0,0,0,0,0,0,0,0,0,-1,1924,1772,0,0
707,-748,0,0,0,0,0,0,0,0,0,-1,1931,1772,0,0
714,-748,0,0,0,0,0,0,0,0,0,-1,1938,1772,0,0
721,-748,0,0,0,0,0,0,0,0,0,-1,1945,1772,0,0
728,-748,0,0,0,0,0,0,0,0,0,-1,1952,1772,0,0
735,-748,0,0,0,0,0,0,0,0,0,-1,1959,1772,0,0
742,-748,0,0,0,0,0,0,0,0,0,-1,1966,1772,0,0
749,-748,0,0,0,0,0,0,0,0,0,-1,1973,1772,0,0
756,-748,0,0,0,0,0,0,0,0,0,-1,1980,1772,0,0
763,-748,0,0,0,0,0,0,0,0,0,-1,1987,1772,0,0
770,-748,0,0,0,0,0,0,0,0,0,-1,1994,1772,0,0
777,-748,0,0,0,0,0,0,0,0,0,-1,2001,1772,0,0
784,-748,0,0,0,0,0,0,0,0,0,-1,2008,1772,0,0
791,-748,0,0,0,0,0,0,0,0,0,-1,2015,1772,0,0
798,-748,0,0,0,0,0,0,0,0,0,-1,2022,1772,0,0
805,-748,0,0,0,0,0,0,0,0,0,-1,2029,1772,0,0
812,-748,0,0,0,0,0,0,0,0,0,-1,2036,1772,0,0
-700,-755,0,0,0,0,0,0,0,0,0,-1,524,1779,0,0
-693,-755,0,0,0,0,0,0,0,0,0,-1,531,1779,0,0
-686,-755,0,0,0,0,0,0,0,0,0,-1,538,1779,0,0
-679,-755,0,0,0,0,0,0,0,0,0,-1,545,1779,0,0
-672,-755,0,0,0,0,0,0,0,0,0,-1,552,1779,0,0
-665,-755,0,0,0,0,0,0,0,0,0,-1,559,1779,0,0
-658,-755,0,0,0,0,0,0,0,0,0,-1,566,1779,0,0
-651,-755,0,0,0,0,0,0,0,0,0,-1,573,1779,0,0
-644,-755,0,0,0,0,0,0,0,0,0,-1,580,1779,0,0
-637,-755,0,0,0,0,0,0,0,0,0,-1,587,1779,0,0
-630,-755,0,0,0,0,0,0,0,0,0,-1,594,1779,0,0
-623,-755,0,0,0,0,0,0,0,0,0,-1,601,1779,0,0
-616,-755,0,0,0,0,0,0,0,0,0,-1,608,1779,0,0
-609,-755,0,0,0,0,0,0,0,0,0,-1,615,1779,0,0
-602,-755,0,0,0,0,0,0,0,0,0,-1,622,1779,0,0
-595,-755,0,0,0,0,0,0,0,0,0,-1,629,1779,0,0
-588,-755,0,0,0,0,0,0,0,0,0,-1,636,1779,0,0
-581,-755,0,0,0,0,0,0,0,0,0,-1,643,1779,0,0
-574,-755,0,0,0,0,0,0,0,0,0,-1,650,1779,0,0
-567,-755,0,0,0,0,0,0,0,0,0,-1,657,1779,0,0
-560,-755,0,0,0,0,0,0,0,0,0,-1,664,1779,0,0
-553,-755,0,0,0,0,0,0,0,0,0,-1,671,1779,0,0
-546,-755,0,0,0,0,0,0,0,0,0,-1,678,1779,0,0
-539,-755,0,0,0,0,0,0,0,0,0,-1,685,1779,0,0
-532,-755,0,0,0,0,0,0,0,0,0,-1,692,1779,0,0
-525,-755,0,0,0,0,0,0,0,0,0,-1,699,1779,0,0
-518,-755,0,0,0,0,0,0,0,0,0,-1,706,1779,0,0
-511,-755,0,0,0,0,0,0,0,0,0,-1,713,1779,0,0
-504,-755,0,0,0,0,0,0,0,0,0,-1,720,1779,0,0
-497,-755,0,0,0,0,0,0,0,0,0,-1,727,1779,0,0
-490,-755,0,0,0,0,0,0,0,0,0,-1,734,1779,0,0
-483,-755,0,0,0,0,0,0,0,0,0,-1,741,1779,0,0
-476,-755,0,0,0,0,0,0,0,0,0,-1,748,1779,0,0
-469,-755,0,0,0,0,0,0,0,0,0,-1,755,1779,0,0
-462,-755,0,0,0,0,0,0,0,0,0,-1,762,1779,0,0
-455,-755,0,0,0,0,0,0,0,0,0,-1,769,1779,0,0
-448,-755,0,0,0,0,0,0,0,0,0,-1,776,1779,0,0
-441,-755,0,0,0,0,0,0,0,0,0,-1,783,1779,0,0
-434,-755,0,0,0,0,0,0,0,0,0,-1,790,1779,0,0
-427,-755,0,0,0,0,0,0,0,0,0,-1,797,1779,0,0
-420,-755,0,0,0,0,0,0,0,0,0,-1,804,1779,0,0
-413,-755,0,0,0,0,0,0,0,0,0,-1,811,1779,0,0
-406,-755,0,0,0,0,0,0,0,0,0,-1,818,1779,0,0
-399,-755,0,0,0,0,0,0,0,0,0,-1,825,1779,0,0
-392,-755,0,0,0,0,0,0,0,0,0,-1,832,1779,0,0
-385,-755,0,0,0,0,0,0,0,0,0,-1,839,1779,0,0
-378,-755,0,0,0,0,0,0,0,0,0,-1,846,1779,0,0
-371,-755,0,0,0,0,0,0,0,0,0,-1,853,1779,0,0
-364,-755,0,0,0,0,0,0,0,0,0,-1,860,1779,0,0
-357,-755,0,0,0,0,0,0,0,0,0,-1,867,1779,0,0
-350,-755,0,0,0,0,0,0,0,0,0,-1,874,1779,0,0
-343,-755,0,0,0,0,0,0,0,0,0,-1,881,1779,0,0
-336,-755,0,0,0,0,0,0,0,0,0,-1,888,1779,0,0
-329,-755,0,0,0,0,0,0,0,0,0,-1,895,1779,0,0
-322,-755,0,0,0,0,0,0,0,0,0,-1,902,1779,0,0
-315,-755,0,0,0,0,0,0,0,0,0,-1,909,1779,0,0
-308,-755,0,0,0,0,0,0,0,0,0,-1,916,1779,0,0
-301,-755,0,0,0,0,0,0,0,0,0,-1,923,1779,0,0
-294,-755,0,0,0,0,0,0,0,0,0,-1,930,1779,0,0
-287,-755,0,0,0,0,0,0,0,0,0,-1,937,1779,0,0
-280,-755,0,0,0,0,0,0,0,0,0,-1,944,1779,0,0
-273,-755,0,0,0,0,0,0,0,0,0,-1,951,1779,0,0
-266,-755,0,0,0,0,0,0,0,0,0,-1,958,1779,0,0
-259,-755,0,0,0,0,0,0,0,0,0,-1,965,1779,0,0
-252,-755,0,0,0,0,0,0,0,0,0,-1,972,1779,0,0
-245,-755,0,0,0,0,0,0,0,0,0,-1,979,1779,0,0
-238,-755,0,0,0,0,0,0,0,0,0,-1,986,1779,0,0
-231,-755,0,0,0,0,0,0,0,0,0,-1,993,1779,0,0
-224,-755,0,0,0,0,0,0,0,0,0,-1,1000,1779,0,0
-217,-755,0,0,0,0,0,0,0,0,0,-1,1007,1779,0,0
-210,-755,0,0,0,0,0,0,0,0,0,-1,1014,1779,0,0
-203,-755,8.97363,30.5414,0,0,0,0,0,0,0,-1,1021,1779,8.97362,-30.5414
-196,-755,8.34436,29.0909,0,0,0,0,0,0,0,-1,1028,1779,8.3443,-29.091
-189,-755,4.8175,22.4788,0,0,0,0,0,0,0,-1,1035,1779,4.81745,-22.4788
-182,-755,4.021,20.8032,0,0,0,0,0,0,0,-1,1042,1779,4.02094,-20.8032
-175,-755,3.79993,18.8242,0,0,0,0,0,0,0,-1,1049,1779,3.79995,-18.8242
-168,-755,3.14294,16.9865,0,0,0,0,0,0,0,-1,1056,1779,3.14291,-16.9864
-161,-755,-2.85889,11.5868,0,0,0,0,0,0,0,-1,1063,1779,-2.85887,-11.5868
-154,-755,-5.39026,8.51416,0,0,0,0,0,0,0,-1,1070,1779,-5.3903,-8.51417
-147,-755,-6.45593,10.2422,0,0,0,0,0,0,0,-1,1077,1779,-6.45594,-10.2422
-140,-755,1.33521,21.3856,0,0,0,0,0,0,0,-1,1084,1779,1.33522,-21.3857
-133,-755,2.89417,21.0964,0,0,0,0,0,0,0,-1,1091,1779,2.89422,-21.0964
-126,-755,3.26404,20.9304,0,0,0,0,0,0,0,-1,1098,1779,3.26399,-20.9305
-119,-755,5.17761,21.9325,0,0,0,0,0,0,0,-1,1105,1779,5.17761,-21.9325
-112,-755,5.40247,24.5646,0,0,0,0,0,0,0,-1,1112,1779,5.40244,-24.5646
-105,-755,7.01294,20.1539,0,0,0,0,0,0,0,-1,1119,1779,7.01295,-20.154
-98,-755,5.50708,16.9628,0,0,0,0,0,0,0,-1,1126,1779,5.5071,-16.9628
-91,-755,5.51025,12.0438,0,0,0,0,0,0,0,-1,1133,1779,5.51022,-12.0439
-84,-755,0.169312,8.66443,0,0,0,0,0,0,0,-1,1140,1779,0.16932,-8.66446
-77,-755,-0.0491943,6.87439,0,0,0,0,0,0,0,-1,1147,1779,-0.0491385,-6.87443
-70,-755,4.5686,13.2169,0,0,0,0,0,0,0,-1,1154,1779,4.56865,-13.2169
-63,-755,-1.36316,7.3147,0,0,0,0,0,0,0,-1,1161,1779,-1.36312,-7.31473
-56,-755,0.0483398,5.06079,0,0,0,0,0,0,0,-1,1168,1779,0.0483138,-5.06084
-49,-755,-1.32263,5.33716,0,0,0,0,0,0,0,-1,1175,1779,-1.32264,-5.33718
-42,-755,-2.03613,4.01672,0,0,0,0,0,0,0,-1,1182,1779,-2.0361,-4.01671
-35,-755,-2.72498,2.37476,0,0,0,0,0,0,0,-1,1189,1779,-2.72502,-2.37473
-28,-755,9.11414,44.7465,0,0,0,0,0,0,0,-1,1196,1779,9.11408,-44.7465
-21,-755,9.17322,44.9128,0,0,0,0,0,0,0,-1,1203,1779,9.17325,-44.9128
-14,-755,9.18677,44.8928,-0.00521568,0.00892609,0.00936363,0.0135887,-0.0098783,1.10879,0.013605,0.0345796,1210,1779,9.18673,-44.8929
-7,-755,9.02368,44.986,-0.00604273,0.00824431,0.0081956,0.0119727,-0.00977109,1.14386,0.0125752,0.0237848,1217,1779,9.02372,-44.986
0,-755,8.95337,45.0983,-0.00642727,0.00721264,0.00618962,0.00960263,-0.00881727,1.2023,0.010638,0.0146102,1224,1779,8.95341,-45.0983
7,-755,8.93494,45.2247,-0.00645019,0.00656902,0.00421216,0.00781295,-0.00769412,1.28364,0.0089531,0.0129456,1231,1779,8.93499,-45.2247
14,-755,8.88538,45.3296,-0.0060299,0.0061227,0.00169813,0.00635552,-0.00626273,1.43454,0.00728521,0.0115582,1238,1779,8.88543,-45.3296
21,-755,8.80334,45.447,-0.00536364,0.00583118,-0.00120645,0.00595972,-0.00549219,-1.46465,0.0066136,0.01579,1245,1779,8.80337,-45.447
28,-755,8.74878,45.4948,-0.0048244,0.00558613,-0.00439839,0.0071956,-0.00643387,-1.22001,0.00787307,0.0191353,1252,1779,8.74873,-45.4948
35,-755,8.72815,45.5781,-0.00443526,0.00564314,-0.00766789,0.00977946,-0.00857158,-1.0761,0.0106026,0.0199891,1259,1779,8.7281,-45.5781
42,-755,8.71655,45.589,-0.00425674,0.00572956,-0.0105222,0.0123832,-0.0109104,-1.00693,0.0134575,0.0147125,1266,1779,8.71659,-45.589
49,-755,8.69641,45.5778,-0.00407318,0.00729725,-0.0126118,0.015446,-0.012222,-0.997151,0.0160102,0.0101711,1273,1779,8.69639,-45.5778
56,-755,8.6322,45.6139,-0.00306283,0.0109049,-0.0137999,0.0193875,-0.0115454,-1.01965,0.0180494,0.00965269,1280,1779,8.63221,-45.6138
63,-755,8.61206,45.6371,-0.00239582,0.0133395,-0.0149441,0.0223605,-0.0114168,-1.0277,0.0198396,0.00976772,1287,1779,8.61201,-45.6371
70,-755,8.57849,45.6287,-0.00209102,0.0157567,-0.0151892,0.0244495,-0.0107838,-1.05099,0.0208458,0.0136765,1294,1779,8.5785,-45.6287
77,-755,8.51172,45.5974,-0.00192781,0.0187469,-0.014208,0.0259802,-0.00916109,-1.09989,0.0210492,0.0128979,1301,1779,8.51175,-45.5975
84,-755,8.48962,45.5752,-0.00219595,0.0214423,-0.0126597,0.0269425,-0.00769618,-1.16093,0.0210025,0.0135891,1308,1779,8.48962,-45.5752
91,-755,8.44519,45.5294,-0.00269193,0.0233162,-0.0108342,0.027238,-0.00661374,-1.22348,0.0207182,0.0138475,1315,1779,8.44522,-45.5294
98,-755,8.36499,45.4937,-0.0028295,0.0244394,-0.00839864,0.0268185,-0.00520865,-1.29475,0.0198444,0.014195,1322,1779,8.36501,-45.4936
105,-755,8.34998,45.4634,-0.00289038,0.025276,-0.00574648,0.0264033,-0.00401765,-1.37709,0.0190829,0.0170531,1329,1779,8.35003,-45.4633
112,-755,8.31738,45.3776,-0.003061,0.0242426,-0.00390408,0.0247899,-0.00360826,-1.43153,0.0178513,0.021764,1336,1779,8.31743,-45.3776
119,-755,8.25354,45.2921,-0.00350121,0.0219088,-0.00202486,0.0220692,-0.00366156,-1.49177,0.0160729,0.022264,1343,1779,8.25358,-45.2921
126,-755,8.22461,45.2662,-0.00405662,0.0183669,-0.000197018,0.0183686,-0.00405835,-1.56201,0.0137989,0.02642,1350,1779,8.22455,-45.2662
133,-755,8.12891,45.1327,-0.00452287,0.0143569,0.00165876,0.0145015,-0.0046675,1.48382,0.0115425,0.0264377,1357,1779,8.12886,-45.1326
140,-755,8.00281,45.0267,-0.00507797,0.00956234,0.00353001,0.010369,-0.00588466,1.34613,0.00950238,0.0332479,1364,1779,8.00277,-45.0267
147,-755,8.15063,44.9457,-0.00577522,0.00487622,0.00462124,0.00660168,-0.00750069,1.21345,0.00814752,0.0372873,1371,1779,8.15069,-44.9457
154,-755,8.10474,44.9121,-0.00778106,-0.00149313,0.00445461,0.00081525,-0.0100894,1.09269,0.00701386,0.0353229,1378,1779,8.10472,-44.9121
161,-755,7.93921,44.8298,0,0,0,0,0,0,0,-1,1385,1779,7.93919,-44.8298
168,-755,3.98181,7.35901,0,0,0,0,0,0,0,-1,1392,1779,3.98184,-7.35904
175,-755,8.17065,1.34363,0,0,0,0,0,0,0,-1,1399,1779,8.1706,-1.34368
182,-755,8.09216,2.96924,0,0,0,0,0,0,0,-1,1406,1779,8.09213,-2.9693
189,-755,8.04419,4.68042,0,0,0,0,0,0,0,-1,1413,1779,8.04419,-4.68046
196,-755,7.74841,7.4541,0,0,0,0,0,0,0,-1,1420,1779,7.74842,-7.45405
203,-755,4.80554,6.88696,0,0,0,0,0,0,0,-1,1427,1779,4.80554,-6.88697
210,-755,25.1694,7.35693,0,0,0,0,0,0,0,-1,1434,1779,25.1694,-7.35688
217,-755,5.01648,16.411,0,0,0,0,0,0,0,-1,1441,1779,5.01646,-16.411
224,-755,5.18103,22.6283,0,0,0,0,0,0,0,-1,1448,1779,5.18101,-22.6283
231,-755,5.7489,30.15,0,0,0,0,0,0,0,-1,1455,1779,5.74885,-30.15
238,-755,6.56323,29.2726,0,0,0,0,0,0,0,-1,1462,1779,6.56327,-29.2726
245,-755,5.76453,29.2085,0,0,0,0,0,0,0,-1,1469,1779,5.76455,-29.2085
252,-755,5.57678,29.0841,0,0,0,0,0,0,0,-1,1476,1779,5.57682,-29.0841
259,-755,5.37292,29.1577,0,0,0,0,0,0,0,-1,1483,1779,5.37293,-29.1577
266,-755,17.255,7.86096,0,0,0,0,0,0,0,-1,1490,1779,17.255,-7.86092
273,-755,15.7932,7.59778,0,0,0,0,0,0,0,-1,1497,1779,15.7932,-7.59777
280,-755,14.6255,7.34802,0,0,0,0,0,0,0,-1,1504,1779,14.6254,-7.34806
287,-755,13.8279,7.83105,0,0,0,0,0,0,0,-1,1511,1779,13.8279,-7.83104
294,-755,12.5695,7.96814,0,0,0,0,0,0,0,-1,1518,1779,12.5694,-7.9682
301,-755,11.2659,8.27087,0,0,0,0,0,0,0,-1,1525,1779,11.2658,-8.27087
308,-755,5.17737,37.2896,0,0,0,0,0,0,0,-1,1532,1779,5.17742,-37.2896
315,-755,0.828613,31.032,0,0,0,0,0,0,0,-1,1539,1779,0.828668,-31.032
322,-755,0,0,0,0,0,0,0,0,0,-1,1546,1779,0,0
329,-755,0,0,0,0,0,0,0,0,0,-1,1553,1779,0,0
336,-755,0,0,0,0,0,0,0,0,0,-1,1560,1779,0,0
343,-755,0,0,0,0,0,0,0,0,0,-1,1567,1779,0,0
350,-755,0,0,0,0,0,0,0,0,0,-1,1574,1779,0,0
357,-755,0,0,0,0,0,0,0,0,0,-1,1581,1779,0,0
364,-755,0,0,0,0,0,0,0,0,0,-1,1588,1779,0,0
371,-755,0,0,0,0,0,0,0,0,0,-1,1595,1779,0,0
378,-755,0,0,0,0,0,0,0,0,0,-1,1602,1779,0,0
385,-755,0,0,0,0,0,0,0,0,0,-1,1609,1779,0,0
392,-755,0,0,0,0,0,0,0,0,0,-1,1616,1779,0,0
399,-755,0,0,0,0,0,0,0,0,0,-1,1623,1779,0,0
406,-755,0,0,0,0,0,0,0,0,0,-1,1630,1779,0,0
413,-755,0,0,0,0,0,0,0,0,0,-1,1637,1779,0,0
420,-755,0,0,0,0,0,0,0,0,0,-1,1644,1779,0,0
427,-755,0,0,0,0,0,0,0,0,0,-1,1651,1779,0,0
434,-755,0,0,0,0,0,0,0,0,0,-1,1658,1779,0,0
441,-755,0,0,0,0,0,0,0,0,0,-1,1665,1779,0,0
448,-755,0,0,0,0,0,0,0,0,0,-1,1672,1779,0,0
455,-755,0,0,0,0,0,0,0,0,0,-1,1679,1779,0,0
462,-755,0,0,0,0,0,0,0,0,0,-1,1686,1779,0,0
469,-755,0,0,0,0,0,0,0,0,0,-1,1693,1779,0,0
476,-755,0,0,0,0,0,0,0,0,0,-1,1700,1779,0,0
483,-755,0,0,0,0,0,0,0,0,0,-1,1707,1779,0,0
490,-755,0,0,0,0,0,0,0,0,0,-1,1714,1779,0,0
497,-755,0,0,0,0,0,0,0,0,0,-1,1721,1779,0,0
504,-755,0,0,0,0,0,0,0,0,0,-1,1728,1779,0,0
511,-755,0,0,0,0,0,0,0,0,0,-1,1735,1779,0,0
518,-755,0,0,0,0,0,0,0,0,0,-1,1742,1779,0,0
525,-755,0,0,0,0,0,0,0,0,0,-1,1749,1779,0,0
532,-755,0,0,0,0,0,0,0,0,0,-1,1756,1779,0,0
539,-755,0,0,0,0,0,0,0,0,0,-1,1763,1779,0,0
546,-755,0,0,0,0,0,0,0,0,0,-1,1770,1779,0,0
553,-755,0,0,0,0,0,0,0,0,0,-1,1777,1779,0,0
560,-755,0,0,0,0,0,0,0,0,0,-1,1784,1779,0,0
567,-755,0,0,0,0,0,0,0,0,0,-1,1791,1779,0,0
574,-755,0,0,0,0,0,0,0,0,0,-1,1798,1779,0,0
581,-755,0,0,0,0,0,0,0,0,0,-1,1805,1779,0,0
588,-755,0,0,0,0,0,0,0,0,0,-1,1812,1779,0,0
595,-755,0,0,0,0,0,0,0,0,0,-1,1819,1779,0,0
602,-755,0,0,0,0,0,0,0,0,0,-1,1826,1779,0,0
609,-755,0,0,0,0,0,0,0,0,0,-1,1833,1779,0,0
616,-755,0,0,0,0,0,0,0,0,0,-1,1840,1779,0,0
623,-755,0,0,0,0,0,0,0,0,0,-1,1847,1779,0,0
630,-755,0,0,0,0,0,0,0,0,0,-1,1854,1779,0,0
637,-755,0,0,0,0,0,0,0,0,0,-1,1861,1779,0,0
644,-755,0,0,0,0,0,0,0,0,0,-1,1868,1779,0,0
651,-755,0,0,0,0,0,0,0,0,0,-1,1875,1779,0,0
658,-755,0,0,0,0,0,0,0,0,0,-1,1882,1779,0,0
665,-755,0,0,0,0,0,0,0,0,0,-1,1889,1779,0,0
672,-755,0,0,0,0,0,0,0,0,0,-1,1896,1779,0,0
679,-755,0,0,0,0,0,0,0,0,0,-1,1903,1779,0,0
686,-755,0,0,0,0,0,0,0,0,0,-1,1910,1779,0,0
693,-755,0,0,0,0,0,0,0,0,0,-1,1917,1779,0,0
700,-755,0,0,0,0,0,0,0,0,0,-1,1924,1779,0,0
707,-755,0,0,0,0,0,0,0,0,0,-1,1931,1779,0,0
714,-755,0,0,0,0,0,0,0,0,0,-1,1938,1779,0,0
721,-755,0,0,0,0,0,0,0,0,0,-1,1945,1779,0,0
728,-755,0,0,0,0,0,0,0,0,0,-1,1952,1779,0,0
735,-755,0,0,0,0,0,0,0,0,0,-1,1959,1779,0,0
742,-755,0,0,0,0,0,0,0,0,0,-1,1966,1779,0,0
749,-755,0,0,0,0,0,0,0,0,0,-1,1973,1779,0,0
756,-755,0,0,0,0,0,0,0,0,0,-1,1980,1779,0,0
763,-755,0,0,0,0,0,0,0,0,0,-1,1987,1779,0,0
770,-755,0,0,0,0,0,0,0,0,0,-1,1994,1779,0,0
777,-755,0,0,0,0,0,0,0,0,0,-1,2001,1779,0,0
784,-755,0,0,0,0,0,0,0,0,0,-1,2008,1779,0,0
791,-755,0,0,0,0,0,0,0,0,0,-1,2015,1779,0,0
798,-755,0,0,0,0,0,0,0,0,0,-1,2022,1779,0,0
805,-755,0,0,0,0,0,0,0,0,0,-1,2029,1779,0,0
812,-755,0,0,0,0,0,0,0,0,0,-1,2036,1779,0,0
-700,-762,0,0,0,0,0,0,0,0,0,-1,524,1786,0,0
-693,-762,0,0,0,0,0,0,0,0,0,-1,531,1786,0,0
-686,-762,0,0,0,0,0,0,0,0,0,-1,538,1786,0,0
-679,-762,0,0,0,0,0,0,0,0,0,-1,545,1786,0,0
-672,-762,0,0,0,0,0,0,0,0,0,-1,552,1786,0,0
-665,-762,0,0,0,0,0,0,0,0,0,-1,559,1786,0,0
-658,-762,0,0,0,0,0,0,0,0,0,-1,566,1786,0,0
-651,-762,0,0,0,0,0,0,0,0,0,-1,573,1786,0,0
-644,-762,0,0,0,0,0,0,0,0,0,-1,580,1786,0,0
-637,-762,0,0,0,0,0,0,0,0,0,-1,587,1786,0,0
-630,-762,0,0,0,0,0,0,0,0,0,-1,594,1786,0,0
-623,-762,0,0,0,0,0,0,0,0,0,-1,601,1786,0,0
-616,-762,0,0,0,0,0,0,0,0,0,-1,608,1786,0,0
-609,-762,0,0,0,0,0,0,0,0,0,-1,615,1786,0,0
-602,-762,0,0,0,0,0,0,0,0,0,-1,622,1786,0,0
-595,-762,0,0,0,0,0,0,0,0,0,-1,629,1786,0,0
-588,-762,0,0,0,0,0,0,0,0,0,-1,636,1786,0,0
-581,-762,0,0,0,0,0,0,0,0,0,-1,643,1786,0,0
-574,-762,0,0,0,0,0,0,0,0,0,-1,650,1786,0,0
-567,-762,0,0,0,0,0,0,0,0,0,-1,657,1786,0,0
-560,-762,0,0,0,0,0,0,0,0,0,-1,664,1786,0,0
-553,-762,0,0,0,0,0,0,0,0,0,-1,671,1786,0,0
-546,-762,0,0,0,0,0,0,0,0,0,-1,678,1786,0,0
-539,-762,0,0,0,0,0,0,0,0,0,-1,685,1786,0,0
-532,-762,0,0,0,0,0,0,0,0,0,-1,692,1786,0,0
-525,-762,0,0,0,0,0,0,0,0,0,-1,699,1786,0,0
-518,-762,0,0,0,0,0,0,0,0,0,-1,706,1786,0,0
-511,-762,0,0,0,0,0,0,0,0,0,-1,713,1786,0,0
-504,-762,0,0,0,0,0,0,0,0,0,-1,720,1786,0,0
-497,-762,0,0,0,0,0,0,0,0,0,-1,727,1786,0,0
-490,-762,0,0,0,0,0,0,0,0,0,-1,734,1786,0,0
-483,-762,0,0,0,0,0,0,0,0,0,-1,741,1786,0,0
-476,-762,0,0,0,0,0,0,0,0,0,-1,748,1786,0,0
-469,-762,0,0,0,0,0,0,0,0,0,-1,755,1786,0,0
-462,-762,0,0,0,0,0,0,0,0,0,-1,762,1786,0,0
-455,-762,0,0,0,0,0,0,0,0,0,-1,769,1786,0,0
-448,-762,0,0,0,0,0,0,0,0,0,-1,776,1786,0,0
-441,-762,0,0,0,0,0,0,0,0,0,-1,783,1786,0,0
-434,-762,0,0,0,0,0,0,0,0,0,-1,790,1786,0,0
-427,-762,0,0,0,0,0,0,0,0,0,-1,797,1786,0,0
-420,-762,0,0,0,0,0,0,0,0,0,-1,804,1786,0,0
-413,-762,0,0,0,0,0,0,0,0,0,-1,811,1786,0,0
-406,-762,0,0,0,0,0,0,0,0,0,-1,818,1786,0,0
-399,-762,0,0,0,0,0,0,0,0,0,-1,825,1786,0,0
-392,-762,0,0,0,0,0,0,0,0,0,-1,832,1786,0,0
-385,-762,0,0,0,0,0,0,0,0,0,-1,839,1786,0,0
-378,-762,0,0,0,0,0,0,0,0,0,-1,846,1786,0,0
-371,-762,0,0,0,0,0,0,0,0,0,-1,853,1786,0,0
-364,-762,0,0,0,0,0,0,0,0,0,-1,860,1786,0,0
-357,-762,0,0,0,0,0,0,0,0,0,-1,867,1786,0,0
-350,-762,0,0,0,0,0,0,0,0,0,-1,874,1786,0,0
-343,-762,0,0,0,0,0,0,0,0,0,-1,881,1786,0,0
-336,-762,0,0,0,0,0,0,0,0,0,-1,888,1786,0,0
-329,-762,0,0,0,0,0,0,0,0,0,-1,895,1786,0,0
-322,-762,0,0,0,0,0,0,0,0,0,-1,902,1786,0,0
-315,-762,0,0,0,0,0,0,0,0,0,-1,909,1786,0,0
-308,-762,0,0,0,0,0,0,0,0,0,-1,916,1786,0,0
-301,-762,0,0,0,0,0,0,0,0,0,-1,923,1786,0,0
-294,-762,0,0,0,0,0,0,0,0,0,-1,930,1786,0,0
-287,-762,0,0,0,0,0,0,0,0,0,-1,937,1786,0,0
-280,-762,0,0,0,0,0,0,0,0,0,-1,944,1786,0,0
-273,-762,0,0,0,0,0,0,0,0,0,-1,951,1786,0,0
-266,-762,0,0,0,0,0,0,0,0,0,-1,958,1786,0,0
-259,-762,0,0,0,0,0,0,0,0,0,-1,965,1786,0,0
-252,-762,0,0,0,0,0,0,0,0,0,-1,972,1786,0,0
-245,-762,0,0,0,0,0,0,0,0,0,-1,979,1786,0,0
-238,-762,0,0,0,0,0,0,0,0,0,-1,986,1786,0,0
-231,-762,0,0,0,0,0,0,0,0,0,-1,993,1786,0,0
-224,-762,0,0,0,0,0,0,0,0,0,-1,1000,1786,0,0
-217,-762,0,0,0,0,0,0,0,0,0,-1,1007,1786,0,0
-210,-762,0,0,0,0,0,0,0,0,0,-1,1014,1786,0,0
-203,-762,0,0,0,0,0,0,0,0,0,-1,1021,1786,0,0
-196,-762,0,0,0,0,0,0,0,0,0,-1,1028,1786,0,0
-189,-762,0,0,0,0,0,0,0,0,0,-1,1035,1786,0,0
-182,-762,4.44226,13.2462,0,0,0,0,0,0,0,-1,1042,1786,4.44227,-13.2462
-175,-762,4.3219,18.3975,0,0,0,0,0,0,0,-1,1049,1786,4.32192,-18.3974
-168,-762,-2.08618,13.0768,0,0,0,0,0,0,0,-1,1056,1786,-2.08623,-13.0768
-161,-762,-3.29077,11.9508,0,0,0,0,0,0,0,-1,1063,1786,-3.29076,-11.9508
-154,-762,-4.55823,11.1176,0,0,0,0,0,0,0,-1,1070,1786,-4.55828,-11.1175
-147,-762,-6.52454,9.41418,0,0,0,0,0,0,0,-1,1077,1786,-6.52458,-9.41419
-140,-762,4.99792,5.28589,0,0,0,0,0,0,0,-1,1084,1786,4.99793,-5.28587
-133,-762,0.689819,19.2172,0,0,0,0,0,0,0,-1,1091,1786,0.689867,-19.2171
-126,-762,1.48743,19.9288,0,0,0,0,0,0,0,-1,1098,1786,1.48738,-19.9289
-119,-762,2.65637,20.208,0,0,0,0,0,0,0,-1,1105,1786,2.65632,-20.208
-112,-762,6.84705,25.5554,0,0,0,0,0,0,0,-1,1112,1786,6.84706,-25.5554
-105,-762,5.57947,21.618,0,0,0,0,0,0,0,-1,1119,1786,5.57948,-21.618
-98,-762,5.0636,17.9901,0,0,0,0,0,0,0,-1,1126,1786,5.06361,-17.9901
-91,-762,4.54773,14.3622,0,0,0,0,0,0,0,-1,1133,1786,4.54774,-14.3622
-84,-762,3.96375,10.4547,0,0,0,0,0,0,0,-1,1140,1786,3.96371,-10.4548
-77,-762,0.305054,8.49365,0,0,0,0,0,0,0,-1,1147,1786,0.305008,-8.49362
-70,-762,0.183716,6.74622,0,0,0,0,0,0,0,-1,1154,1786,0.183696,-6.74621
-63,-762,-0.883057,9.08813,0,0,0,0,0,0,0,-1,1161,1786,-0.88311,-9.08808
-56,-762,-0.578979,5.10254,0,0,0,0,0,0,0,-1,1168,1786,-0.578951,-5.10249
-49,-762,-2.04541,3.66321,0,0,0,0,0,0,0,-1,1175,1786,-2.0454,-3.66319
-42,-762,-2.23462,3.474,0,0,0,0,0,0,0,-1,1182,1786,-2.23459,-3.47399
-35,-762,-3.28992,1.68164,0,0,0,0,0,0,0,-1,1189,1786,-3.28998,-1.68164
-28,-762,-3.75378,1.37769,0,0,0,0,0,0,0,-1,1196,1786,-3.75373,-1.37767
-21,-762,9.71899,44.7078,0,0,0,0,0,0,0,-1,1203,1786,9.71896,-44.7078
-14,-762,8.99377,44.6,0,0,0,0,0,0,0,-1,1210,1786,8.9938,-44.6
-7,-762,8.85291,44.6897,-0.00736456,0.0115983,0.0102749,0.0160979,-0.0118642,1.15803,0.0162055,0.0470818,1217,1786,8.85292,-44.6897
0,-762,8.90613,45.0894,-0.00812397,0.0102865,0.00733698,0.0128528,-0.0106902,1.23433,0.0136116,0.0363181,1224,1786,8.90612,-45.0893
7,-762,8.96326,45.2555,-0.0082894,0.00951726,0.0041195,0.0104241,-0.00919625,1.35412,0.0113352,0.0208412,1231,1786,8.96323,-45.2555
14,-762,8.88232,45.5382,-0.00779289,0.00901592,0.000124144,0.00901684,-0.0077938,1.56341,0.00971419,0.0336618,1238,1786,8.88229,-45.5383
21,-762,8.75244,45.5765,-0.0069241,0.00878723,-0.00439407,0.00993263,-0.00806951,-1.3158,0.0104121,0.0445742,1245,1786,8.7525,-45.5765
28,-762,8.48352,45.6024,-0.00623672,0.00866166,-0.00910208,0.0129742,-0.0105493,-1.12833,0.0136053,0.0447236,1252,1786,8.48352,-45.6024
35,-762,8.54346,45.6633,-0.00575925,0.00893881,-0.0137495,0.0171801,-0.0140005,-1.03083,0.0180333,0.0450899,1259,1786,8.5434,-45.6633
42,-762,8.74097,45.6554,-0.00553066,0.00921127,-0.0177256,0.0210374,-0.0173568,-0.98244,0.0222008,0.0495706,1266,1786,8.74097,-45.6554
49,-762,8.72949,45.6344,-0.00531981,0.0113015,-0.0205601,0.0251671,-0.0191854,-0.977464,0.0256844,0.0409084,1273,1786,8.72947,-45.6345
56,-762,8.67065,45.6489,-0.00403553,0.0161664,-0.022117,0.0303799,-0.018249,-0.999606,0.0283656,0.0296355,1280,1786,8.67062,-45.649
63,-762,8.61731,45.6563,-0.00315576,0.0194883,-0.023587,0.0343299,-0.0179973,-1.00916,0.0306977,0.0268407,1287,1786,8.61732,-45.6562
70,-762,8.58862,45.6569,-0.00273525,0.0227281,-0.0237674,0.0369591,-0.0169662,-1.03129,0.0318391,0.0277053,1294,1786,8.58863,-45.6569
77,-762,8.55005,45.5471,-0.00254071,0.0268775,-0.0221567,0.038763,-0.0144263,-1.07843,0.0317623,0.0349702,1301,1786,8.55003,-45.5471
84,-762,8.56921,45.5912,-0.00283913,0.0307643,-0.0197193,0.0398691,-0.0119439,-1.13824,0.031329,0.0429429,1308,1786,8.56924,-45.5912
91,-762,8.52332,45.4055,0,0,0,0,0,0,0,-1,1315,1786,8.52331,-45.4055
98,-762,8.2926,45.4138,0,0,0,0,0,0,0,-1,1322,1786,8.29265,-45.4138
105,-762,8.47827,45.578,-0.00338849,0.0375224,-0.00953072,0.0396337,-0.00549983,-1.35279,0.0284336,0.0435914,1329,1786,8.47822,-45.578
112,-762,8.4707,45.499,-0.00349889,0.0366151,-0.00670761,0.037707,-0.00459077,-1.40943,0.0267996,0.0422053,1336,1786,8.47071,-45.4991
119,-762,8.28528,45.3928,-0.00395286,0.0339275,-0.00381291,0.0343075,-0.00433284,-1.47147,0.0244443,0.0466785,1343,1786,8.28534,-45.3928
126,-762,8.14343,45.2665,0,0,0,0,0,0,0,-1,1350,1786,8.14344,-45.2664
133,-762,7.98584,45.2461,-0.00499402,0.0241095,0.0019221,0.0242359,-0.00512042,1.50513,0.0181071,0.046129,1357,1786,7.98588,-45.2461
140,-762,7.77661,45.4514,-0.00557986,0.0174272,0.00498617,0.0184613,-0.00661399,1.36629,0.0150062,0.040815,1364,1786,7.77658,-45.4515
147,-762,7.62097,45.3352,-0.00653359,0.0106222,0.00682548,0.0130064,-0.00891779,1.23474,0.0127311,0.0415627,1371,1786,7.621,-45.3352
154,-762,7.94678,45.1394,0,0,0,0,0,0,0,-1,1378,1786,7.94675,-45.1394
161,-762,8.65051,34.8102,0,0,0,0,0,0,0,-1,1385,1786,8.65054,-34.8101
168,-762,8.19287,0.880615,0,0,0,0,0,0,0,-1,1392,1786,8.19291,-0.880603
175,-762,8.33997,1.95947,0,0,0,0,0,0,0,-1,1399,1786,8.33997,-1.95942
182,-762,8.28418,3.56482,0,0,0,0,0,0,0,-1,1406,1786,8.28415,-3.56485
189,-762,8.21179,5.23389,0,0,0,0,0,0,0,-1,1413,1786,8.21183,-5.23383
196,-762,8.05969,6.95483,0,0,0,0,0,0,0,-1,1420,1786,8.05972,-6.9548
203,-762,24.0077,7.10425,0,0,0,0,0,0,0,-1,1427,1786,24.0077,-7.10426
210,-762,23.8073,7.6499,0,0,0,0,0,0,0,-1,1434,1786,23.8073,-7.64987
217,-762,23.3193,8.24426,0,0,0,0,0,0,0,-1,1441,1786,23.3194,-8.2442
224,-762,2.65149,20.6106,0,0,0,0,0,0,0,-1,1448,1786,2.65153,-20.6106
231,-762,5.46655,23.521,0,0,0,0,0,0,0,-1,1455,1786,5.46653,-23.521
238,-762,5.35632,29.7203,0,0,0,0,0,0,0,-1,1462,1786,5.35629,-29.7203
245,-762,5.84509,28.6954,0,0,0,0,0,0,0,-1,1469,1786,5.84509,-28.6954
252,-762,5.82837,27.7246,0,0,0,0,0,0,0,-1,1476,1786,5.82839,-27.7247
259,-762,10.7311,18.3031,0,0,0,0,0,0,0,-1,1483,1786,10.7311,-18.3031
266,-762,16.451,7.67773,0,0,0,0,0,0,0,-1,1490,1786,16.4511,-7.67773
273,-762,15.287,7.5304,0,0,0,0,0,0,0,-1,1497,1786,15.2869,-7.53044
280,-762,14.1501,7.38379,0,0,0,0,0,0,0,-1,1504,1786,14.1502,-7.38376
287,-762,12.6891,7.99133,0,0,0,0,0,0,0,-1,1511,1786,12.6891,-7.99135
294,-762,12.6959,8.30371,0,0,0,0,0,0,0,-1,1518,1786,12.6959,-8.30368
301,-762,11.4222,8.84143,0,0,0,0,0,0,0,-1,1525,1786,11.4223,-8.84149
308,-762,0,0,0,0,0,0,0,0,0,-1,1532,1786,0,0
315,-762,0,0,0,0,0,0,0,0,0,-1,1539,1786,0,0
322,-762,0,0,0,0,0,0,0,0,0,-1,1546,1786,0,0
329,-762,0,0,0,0,0,0,0,0,0,-1,1553,1786,0,0
336,-762,0,0,0,0,0,0,0,0,0,-1,1560,1786,0,0
343,-762,0,0,0,0,0,0,0,0,0,-1,1567,1786,0,0
350,-762,0,0,0,0,0,0,0,0,0,-1,1574,1786,0,0
357,-762,0,0,0,0,0,0,0,0,0,-1,1581,1786,0,0
364,-762,0,0,0,0,0,0,0,0,0,-1,1588,1786,0,0
371,-762,0,0,0,0,0,0,0,0,0,-1,1595,1786,0,0
378,-762,0,0,0,0,0,0,0,0,0,-1,1602,1786,0,0
385,-762,0,0,0,0,0,0,0,0,0,-1,1609,1786,0,0
392,-762,0,0,0,0,0,0,0,0,0,-1,1616,1786,0,0
399,-762,0,0,0,0,0,0,0,0,0,-1,1623,1786,0,0
406,-762,0,0,0,0,0,0,0,0,0,-1,1630,1786,0,0
413,-762,0,0,0,0,0,0,0,0,0,-1,1637,1786,0,0
420,-762,0,0,0,0,0,0,0,0,0,-1,1644,1786,0,0
427,-762,0,0,0,0,0,0,0,0,0,-1,1651,1786,0,0
434,-762,0,0,0,0,0,0,0,0,0,-1,1658,1786,0,0
441,-762,0,0,0,0,0,0,0,0,0,-1,1665,1786,0,0
448,-762,0,0,0,0,0,0,0,0,0,-1,1672,1786,0,0
455,-762,0,0,0,0,0,0,0,0,0,-1,1679,1786,0,0
462,-762,0,0,0,0,0,0,0,0,0,-1,1686,1786,0,0
469,-762,0,0,0,0,0,0,0,0,0,-1,1693,1786,0,0
476,-762,0,0,0,0,0,0,0,0,0,-1,1700,1786,0,0
483,-762,0,0,0,0,0,0,0,0,0,-1,1707,1786,0,0
490,-762,0,0,0,0,0,0,0,0,0,-1,1714,1786,0,0
497,-762,0,0,0,0,0,0,0,0,0,-1,1721,1786,0,0
504,-762,0,0,0,0,0,0,0,0,0,-1,1728,1786,0,0
511,-762,0,0,0,0,0,0,0,0,0,-1,1735,1786,0,0
518,-762,0,0,0,0,0,0,0,0,0,-1,1742,1786,0,0
525,-762,0,0,0,0,0,0,0,0,0,-1,1749,1786,0,0
532,-762,0,0,0,0,0,0,0,0,0,-1,1756,1786,0,0
539,-762,0,0,0,0,0,0,0,0,0,-1,1763,1786,0,0
546,-762,0,0,0,0,0,0,0,0,0,-1,1770,1786,0,0
553,-762,0,0,0,0,0,0,0,0,0,-1,1777,1786,0,0
560,-762,0,0,0,0,0,0,0,0,0,-1,1784,1786,0,0
567,-762,0,0,0,0,0,0,0,0,0,-1,1791,1786,0,0
574,-762,0,0,0,0,0,0,0,0,0,-1,1798,1786,0,0
581,-762,0,0,0,0,0,0,0,0,0,-1,1805,1786,0,0
588,-762,0,0,0,0,0,0,0,0,0,-1,1812,1786,0,0
595,-762,0,0,0,0,0,0,0,0,0,-1,1819,1786,0,0
602,-762,0,0,0,0,0,0,0,0,0,-1,1826,1786,0,0
609,-762,0,0,0,0,0,0,0,0,0,-1,1833,1786,0,0
616,-762,0,0,0,0,0,0,0,0,0,-1,1840,1786,0,0
623,-762,0,0,0,0,0,0,0,0,0,-1,1847,1786,0,0
630,-762,0,0,0,0,0,0,0,0,0,-1,1854,1786,0,0
637,-762,0,0,0,0,0,0,0,0,0,-1,1861,1786,0,0
644,-762,0,0,0,0,0,0,0,0,0,-1,1868,1786,0,0
651,-762,0,0,0,0,0,0,0,0,0,-1,1875,1786,0,0
658,-762,0,0,0,0,0,0,0,0,0,-1,1882,1786,0,0
665,-762,0,0,0,0,0,0,0,0,0,-1,1889,1786,0,0
672,-762,0,0,0,0,0,0,0,0,0,-1,1896,1786,0,0
679,-762,0,0,0,0,0,0,0,0,0,-1,1903,1786,0,0
686,-762,0,0,0,0,0,0,0,0,0,-1,1910,1786,0,0
693,-762,0,0,0,0,0,0,0,0,0,-1,1917,1786,0,0
700,-762,0,0,0,0,0,0,0,0,0,-1,1924,1786,0,0
707,-762,0,0,0,0,0,0,0,0,0,-1,1931,1786,0,0
714,-762,0,0,0,0,0,0,0,0,0,-1,1938,1786,0,0
721,-762,0,0,0,0,0,0,0,0,0,-1,1945,1786,0,0
728,-762,0,0,0,0,0,0,0,0,0,-1,1952,1786,0,0
735,-762,0,0,0,0,0,0,0,0,0,-1,1959,1786,0,0
742,-762,0,0,0,0,0,0,0,0,0,-1,1966,1786,0,0
749,-762,0,0,0,0,0,0,0,0,0,-1,1973,1786,0,0
756,-762,0,0,0,0,0,0,0,0,0,-1,1980,1786,0,0
763,-762,0,0,0,0,0,0,0,0,0,-1,1987,1786,0,0
770,-762,0,0,0,0,0,0,0,0,0,-1,1994,1786,0,0
777,-762,0,0,0,0,0,0,0,0,0,-1,2001,1786,0,0
784,-762,0,0,0,0,0,0,0,0,0,-1,2008,1786,0,0
791,-762,0,0,0,0,0,0,0,0,0,-1,2015,1786,0,0
798,-762,0,0,0,0,0,0,0,0,0,-1,2022,1786,0,0
805,-762,0,0,0,0,0,0,0,0,0,-1,2029,1786,0,0
812,-762,0,0,0,0,0,0,0,0,0,-1,2036,1786,0,0
-700,-769,0,0,0,0,0,0,0,0,0,-1,524,1793,0,0
-693,-769,0,0,0,0,0,0,0,0,0,-1,531,1793,0,0
-686,-769,0,0,0,0,0,0,0,0,0,-1,538,1793,0,0
-679,-769,0,0,0,0,0,0,0,0,0,-1,545,1793,0,0
-672,-769,0,0,0,0,0,0,0,0,0,-1,552,1793,0,0
-665,-769,0,0,0,0,0,0,0,0,0,-1,559,1793,0,0
-658,-769,0,0,0,0,0,0,0,0,0,-1,566,1793,0,0
-651,-769,0,0,0,0,0,0,0,0,0,-1,573,1793,0,0
-644,-769,0,0,0,0,0,0,0,0,0,-1,580,1793,0,0
-637,-769,0,0,0,0,0,0,0,0,0,-1,587,1793,0,0
-630,-769,0,0,0,0,0,0,0,0,0,-1,594,1793,0,0
-623,-769,0,0,0,0,0,0,0,0,0,-1,601,1793,0,0
-616,-769,0,0,0,0,0,0,0,0,0,-1,608,1793,0,0
-609,-769,0,0,0,0,0,0,0,0,0,-1,615,1793,0,0
-602,-769,0,0,0,0,0,0,0,0,0,-1,622,1793,0,0
-595,-769,0,0,0,0,0,0,0,0,0,-1,629,1793,0,0
-588,-769,0,0,0,0,0,0,0,0,0,-1,636,1793,0,0
-581,-769,0,0,0,0,0,0,0,0,0,-1,643,1793,0,0
-574,-769,0,0,0,0,0,0,0,0,0,-1,650,1793,0,0
-567,-769,0,0,0,0,0,0,0,0,0,-1,657,1793,0,0
-560,-769,0,0,0,0,0,0,0,0,0,-1,664,1793,0,0
-553,-769,0,0,0,0,0,0,0,0,0,-1,671,1793,0,0
-546,-769,0,0,0,0,0,0,0,0,0,-1,678,1793,0,0
-539,-769,0,0,0,0,0,0,0,0,0,-1,685,1793,0,0
-532,-769,0,0,0,0,0,0,0,0,0,-1,692,1793,0,0
-525,-769,0,0,0,0,0,0,0,0,0,-1,699,1793,0,0
-518,-769,0,0,0,0,0,0,0,0,0,-1,706,1793,0,0
-511,-769,0,0,0,0,0,0,0,0,0,-1,713,1793,0,0
-504,-769,0,0,0,0,0,0,0,0,0,-1,720,1793,0,0
-497,-769,0,0,0,0,0,0,0,0,0,-1,727,1793,0,0
-490,-769,0,0,0,0,0,0,0,0,0,-1,734,1793,0,0
-483,-769,0,0,0,0,0,0,0,0,0,-1,741,1793,0,0
-476,-769,0,0,0,0,0,0,0,0,0,-1,748,1793,0,0
-469,-769,0,0,0,0,0,0,0,0,0,-1,755,1793,0,0
-462,-769,0,0,0,0,0,0,0,0,0,-1,762,1793,0,0
-455,-769,0,0,0,0,0,0,0,0,0,-1,769,1793,0,0
-448,-769,0,0,0,0,0,0,0,0,0,-1,776,1793,0,0
-441,-769,0,0,0,0,0,0,0,0,0,-1,783,1793,0,0
-434,-769,0,0,0,0,0,0,0,0,0,-1,790,1793,0,0
-427,-769,0,0,0,0,0,0,0,0,0,-1,797,1793,0,0
-420,-769,0,0,0,0,0,0,0,0,0,-1,804,1793,0,0
-413,-769,0,0,0,0,0,0,0,0,0,-1,811,1793,0,0
-406,-769,0,0,0,0,0,0,0,0,0,-1,818,1793,0,0
-399,-769,0,0,0,0,0,0,0,0,0,-1,825,1793,0,0
-392,-769,0,0,0,0,0,0,0,0,0,-1,832,1793,0,0
-385,-769,0,0,0,0,0,0,0,0,0,-1,839,1793,0,0
-378,-769,0,0,0,0,0,0,0,0,0,-1,846,1793,0,0
-371,-769,0,0,0,0,0,0,0,0,0,-1,853,1793,0,0
-364,-769,0,0,0,0,0,0,0,0,0,-1,860,1793,0,0
-357,-769,0,0,0,0,0,0,0,0,0,-1,867,1793,0,0
-350,-769,0,0,0,0,0,0,0,0,0,-1,874,1793,0,0
-343,-769,0,0,0,0,0,0,0,0,0,-1,881,1793,0,0
-336,-769,0,0,0,0,0,0,0,0,0,-1,888,1793,0,0
-329,-769,0,0,0,0,0,0,0,0,0,-1,895,1793,0,0
-322,-769,0,0,0,0,0,0,0,0,0,-1,902,1793,0,0
-315,-769,0,0,0,0,0,0,0,0,0,-1,909,1793,0,0
-308,-769,0,0,0,0,0,0,0,0,0,-1,916,1793,0,0
-301,-769,0,0,0,0,0,0,0,0,0,-1,923,1793,0,0
-294,-769,0,0,0,0,0,0,0,0,0,-1,930,1793,0,0
-287,-769,0,0,0,0,0,0,0,0,0,-1,937,1793,0,0
-280,-769,0,0,0,0,0,0,0,0,0,-1,944,1793,0,0
-273,-769,0,0,0,0,0,0,0,0,0,-1,951,1793,0,0
-266,-769,0,0,0,0,0,0,0,0,0,-1,958,1793,0,0
-259,-769,0,0,0,0,0,0,0,0,0,-1,965,1793,0,0
-252,-769,0,0,0,0,0,0,0,0,0,-1,972,1793,0,0
-245,-769,0,0,0,0,0,0,0,0,0,-1,979,1793,0,0
-238,-769,0,0,0,0,0,0,0,0,0,-1,986,1793,0,0
-231,-769,0,0,0,0,0,0,0,0,0,-1,993,1793,0,0
-224,-769,0,0,0,0,0,0,0,0,0,-1,1000,1793,0,0
-217,-769,0,0,0,0,0,0,0,0,0,-1,1007,1793,0,0
-210,-769,0,0,0,0,0,0,0,0,0,-1,1014,1793,0,0
-203,-769,0,0,0,0,0,0,0,0,0,-1,1021,1793,0,0
-196,-769,0,0,0,0,0,0,0,0,0,-1,1028,1793,0,0
-189,-769,0,0,0,0,0,0,0,0,0,-1,1035,1793,0,0
-182,-769,0,0,0,0,0,0,0,0,0,-1,1042,1793,0,0
-175,-769,0,0,0,0,0,0,0,0,0,-1,1049,1793,0,0
-168,-769,0,0,0,0,0,0,0,0,0,-1,1056,1793,0,0
-161,-769,-3.61145,12.4761,0,0,0,0,0,0,0,-1,1063,1793,-3.6114,-12.476
-154,-769,-0.813232,5.32874,0,0,0,0,0,0,0,-1,1070,1793,-0.813269,-5.32872
-147,-769,4.26587,4.7002,0,0,0,0,0,0,0,-1,1077,1793,4.26593,-4.70022
-140,-769,4.10376,5.28589,0,0,0,0,0,0,0,-1,1084,1793,4.10371,-5.28584
-133,-769,6.422,8.21777,0,0,0,0,0,0,0,-1,1091,1793,6.42198,-8.21773
-126,-769,-0.352295,19.326,0,0,0,0,0,0,0,-1,1098,1793,-0.352235,-19.326
-119,-769,6.01685,16.2577,0,0,0,0,0,0,0,-1,1105,1793,6.01689,-16.2576
-112,-769,5.76416,27.2615,0,0,0,0,0,0,0,-1,1112,1793,5.7642,-27.2615
-105,-769,4.97009,22.8479,0,0,0,0,0,0,0,-1,1119,1793,4.97006,-22.8479
-98,-769,4.69373,18.9142,0,0,0,0,0,0,0,-1,1126,1793,4.69376,-18.9142
-91,-769,4.41748,14.9805,0,0,0,0,0,0,0,-1,1133,1793,4.41746,-14.9805
-84,-769,3.2207,12.4565,0,0,0,0,0,0,0,-1,1140,1793,3.22066,-12.4565
-77,-769,2.48816,8.98486,0,0,0,0,0,0,0,-1,1147,1793,2.48815,-8.98489
-70,-769,1.04944,11.9852,0,0,0,0,0,0,0,-1,1154,1793,1.04947,-11.9852
-63,-769,-2.39709,9.60339,0,0,0,0,0,0,0,-1,1161,1793,-2.39706,-9.6034
-56,-769,-5.84363,7.22156,0,0,0,0,0,0,0,-1,1168,1793,-5.84359,-7.22157
-49,-769,-2.41443,3.95471,0,0,0,0,0,0,0,-1,1175,1793,-2.41446,-3.95471
-42,-769,-3.1991,2.64941,0,0,0,0,0,0,0,-1,1182,1793,-3.19914,-2.64944
-35,-769,-3.50183,1.73389,0,0,0,0,0,0,0,-1,1189,1793,-3.50189,-1.7339
-28,-769,-3.96985,1.14075,0,0,0,0,0,0,0,-1,1196,1793,-3.96985,-1.14078
-21,-769,9.57654,44.5348,0,0,0,0,0,0,0,-1,1203,1793,9.57657,-44.5348
-14,-769,9.00122,44.2173,0,0,0,0,0,0,0,-1,1210,1793,9.00116,-44.2173
-7,-769,8.73608,44.3403,0,0,0,0,0,0,0,-1,1217,1793,8.73614,-44.3404
0,-769,8.83606,45.0616,0,0,0,0,0,0,0,-1,1224,1793,8.83604,-45.0616
7,-769,8.83972,45.3956,-0.0103017,0.0131425,0.00333157,0.0136067,-0.010766,1.43234,0.0141034,0.0446369,1231,1793,8.83973,-45.3957
14,-769,8.63953,45.7788,-0.0097172,0.0126443,-0.00272833,0.0129724,-0.0100453,-1.45112,0.013325,0.0410642,1238,1793,8.63949,-45.7788
21,-769,8.73059,45.6448,0,0,0,0,0,0,0,-1,1245,1793,8.73058,-45.6448
28,-769,8.1947,45.5977,0,0,0,0,0,0,0,-1,1252,1793,8.19474,-45.5977
35,-769,7.83167,45.3157,-0.00715166,0.0133438,-0.022284,0.0276234,-0.0214313,-1.00091,0.0283969,0.044233,1259,1793,7.83167,-45.3157
42,-769,8.6897,45.7018,-0.00683927,0.013908,-0.0275651,0.0329868,-0.0259181,-0.965368,0.0340903,0.0466865,1266,1793,8.68969,-45.7017
49,-769,8.55066,45.7631,-0.00661408,0.0165478,-0.0312489,0.0382927,-0.028359,-0.962853,0.0386236,0.0465079,1273,1793,8.5507,-45.7631
56,-769,8.42957,45.7767,-0.00506891,0.0227634,-0.0332399,0.0448826,-0.0271881,-0.983642,0.042026,0.0445785,1280,1793,8.4296,-45.7767
63,-769,8.45349,45.5498,-0.00397967,0.0271257,-0.0350816,0.0499476,-0.0268015,-0.994044,0.0449778,0.0435421,1287,1793,8.45344,-45.5498
70,-769,9.0083,45.936,0,0,0,0,0,0,0,-1,1294,1793,9.00833,-45.936
77,-769,8.89307,45.9169,-0.00327265,0.0368829,-0.0327346,0.0552066,-0.0215963,-1.06049,0.0457356,0.0486244,1301,1793,8.89306,-45.9168
84,-769,8.61169,45.7758,-0.00359939,0.0423266,-0.0291909,0.056504,-0.0177768,-1.11867,0.0447868,0.0484755,1308,1793,8.61168,-45.7758
91,-769,8.1864,45.5417,-0.00401783,0.0469375,-0.0252,0.0572949,-0.0143752,-1.18084,0.0437822,0.045361,1315,1793,8.18641,-45.5418
98,-769,8.16187,45.6775,-0.00393515,0.0502925,-0.0203641,0.0570882,-0.0107308,-1.24871,0.0420942,0.0462618,1322,1793,8.16181,-45.6775
105,-769,8.63794,45.8611,-0.00383645,0.0534784,-0.0150931,0.05721,-0.00756805,-1.32842,0.0408968,0.0443789,1329,1793,8.63788,-45.8611
112,-769,8.95544,45.7771,-0.00384573,0.0531908,-0.011023,0.055247,-0.00590194,-1.38638,0.038948,0.0461296,1336,1793,8.95547,-45.7771
119,-769,8.38025,45.4098,-0.00426698,0.0506305,-0.00679832,0.0514599,-0.00509633,-1.4494,0.0361254,0.0444863,1343,1793,8.38024,-45.4098
126,-769,8.37402,45.3806,0,0,0,0,0,0,0,-1,1350,1793,8.37403,-45.3807
133,-769,7.88916,45.2761,0,0,0,0,0,0,0,-1,1357,1793,7.88921,-45.2761
140,-769,7.7196,45.7858,0,0,0,0,0,0,0,-1,1364,1793,7.71956,-45.7858
147,-769,7.11829,45.6129,0,0,0,0,0,0,0,-1,1371,1793,7.11828,-45.6129
154,-769,7.76904,34.4832,0,0,0,0,0,0,0,-1,1378,1793,7.7691,-34.4832
161,-769,6.57019,1.53223,0,0,0,0,0,0,0,-1,1385,1793,6.57019,-1.53226
168,-769,8.27637,0.756958,0,0,0,0,0,0,0,-1,1392,1793,8.27639,-0.756944
175,-769,8.47144,2.41174,0,0,0,0,0,0,0,-1,1399,1793,8.47147,-2.4118
182,-769,8.41479,4.05994,0,0,0,0,0,0,0,-1,1406,1793,8.41479,-4.05997
189,-769,8.25049,5.68433,0,0,0,0,0,0,0,-1,1413,1793,8.25054,-5.68428
196,-769,7.97729,7.42847,0,0,0,0,0,0,0,-1,1420,1793,7.9773,-7.42848
203,-769,22.0977,6.73889,0,0,0,0,0,0,0,-1,1427,1793,22.0977,-6.7389
210,-769,22.1115,7.77246,0,0,0,0,0,0,0,-1,1434,1793,22.1115,-7.77248
217,-769,22.4723,8.79102,0,0,0,0,0,0,0,-1,1441,1793,22.4723,-8.79099
224,-769,22.1348,9.35278,0,0,0,0,0,0,0,-1,1448,1793,22.1348,-9.35283
231,-769,3.13318,19.7184,0,0,0,0,0,0,0,-1,1455,1793,3.13323,-19.7184
238,-769,5.74512,18.6597,0,0,0,0,0,0,0,-1,1462,1793,5.74512,-18.6596
245,-769,5.80798,22.87,0,0,0,0,0,0,0,-1,1469,1793,5.80796,-22.87
252,-769,8.39099,20.3199,0,0,0,0,0,0,0,-1,1476,1793,8.39098,-20.3199
259,-769,10.974,17.7698,0,0,0,0,0,0,0,-1,1483,1793,10.974,-17.7698
266,-769,15.8488,7.3905,0,0,0,0,0,0,0,-1,1490,1793,15.8488,-7.39046
273,-769,14.8075,7.56152,0,0,0,0,0,0,0,-1,1497,1793,14.8075,-7.56152
280,-769,13.6519,7.43054,0,0,0,0,0,0,0,-1,1504,1793,13.6518,-7.43058
287,-769,0,0,0,0,0,0,0,0,0,-1,1511,1793,0,0
294,-769,0,0,0,0,0,0,0,0,0,-1,1518,1793,0,0
301,-769,0,0,0,0,0,0,0,0,0,-1,1525,1793,0,0
308,-769,0,0,0,0,0,0,0,0,0,-1,1532,1793,0,0
315,-769,0,0,0,0,0,0,0,0,0,-1,1539,1793,0,0
322,-769,0,0,0,0,0,0,0,0,0,-1,1546,1793,0,0
329,-769,0,0,0,0,0,0,0,0,0,-1,1553,1793,0,0
336,-769,0,0,0,0,0,0,0,0,0,-1,1560,1793,0,0
343,-769,0,0,0,0,0,0,0,0,0,-1,1567,1793,0,0
350,-769,0,0,0,0,0,0,0,0,0,-1,1574,1793,0,0
357,-769,0,0,0,0,0,0,0,0,0,-1,1581,1793,0,0
364,-769,0,0,0,0,0,0,0,0,0,-1,1588,1793,0,0
371,-769,0,0,0,0,0,0,0,0,0,-1,1595,1793,0,0
378,-769,0,0,0,0,0,0,0,0,0,-1,1602,1793,0,0
385,-769,0,0,0,0,0,0,0,0,0,-1,1609,1793,0,0
392,-769,0,0,0,0,0,0,0,0,0,-1,1616,1793,0,0
399,-769,0,0,0,0,0,0,0,0,0,-1,1623,1793,0,0
406,-769,0,0,0,0,0,0,0,0,0,-1,1630,1793,0,0
413,-769,0,0,0,0,0,0,0,0,0,-1,1637,1793,0,0
420,-769,0,0,0,0,0,0,0,0,0,-1,1644,1793,0,0
427,-769,0,0,0,0,0,0,0,0,0,-1,1651,1793,0,0
434,-769,0,0,0,0,0,0,0,0,0,-1,1658,1793,0,0
441,-769,0,0,0,0,0,0,0,0,0,-1,1665,1793,0,0
448,-769,0,0,0,0,0,0,0,0,0,-1,1672,1793,0,0
455,-769,0,0,0,0,0,0,0,0,0,-1,1679,1793,0,0
462,-769,0,0,0,0,0,0,0,0,0,-1,1686,1793,0,0
469,-769,0,0,0,0,0,0,0,0,0,-1,1693,1793,0,0
476,-769,0,0,0,0,0,0,0,0,0,-1,1700,1793,0,0
483,-769,0,0,0,0,0,0,0,0,0,-1,1707,1793,0,0
490,-769,0,0,0,0,0,0,0,0,0,-1,1714,1793,0,0
497,-769,0,0,0,0,0,0,0,0,0,-1,1721,1793,0,0
504,-769,0,0,0,0,0,0,0,0,0,-1,1728,1793,0,0
511,-769,0,0,0,0,0,0,0,0,0,-1,1735,1793,0,0
518,-769,0,0,0,0,0,0,0,0,0,-1,1742,1793,0,0
525,-769,0,0,0,0,0,0,0,0,0,-1,1749,1793,0,0
532,-769,0,0,0,0,0,0,0,0,0,-1,1756,1793,0,0
539,-769,0,0,0,0,0,0,0,0,0,-1,1763,1793,0,0
546,-769,0,0,0,0,0,0,0,0,0,-1,1770,1793,0,0
553,-769,0,0,0,0,0,0,0,0,0,-1,1777,1793,0,0
560,-769,0,0,0,0,0,0,0,0,0,-1,1784,1793,0,0
567,-769,0,0,0,0,0,0,0,0,0,-1,1791,1793,0,0
574,-769,0,0,0,0,0,0,0,0,0,-1,1798,1793,0,0
581,-769,0,0,0,0,0,0,0,0,0,-1,1805,1793,0,0
588,-769,0,0,0,0,0,0,0,0,0,-1,1812,1793,0,0
595,-769,0,0,0,0,0,0,0,0,0,-1,1819,1793,0,0
602,-769,0,0,0,0,0,0,0,0,0,-1,1826,1793,0,0
609,-769,0,0,0,0,0,0,0,0,0,-1,1833,1793,0,0
616,-769,0,0,0,0,0,0,0,0,0,-1,1840,1793,0,0
623,-769,0,0,0,0,0,0,0,0,0,-1,1847,1793,0,0
630,-769,0,0,0,0,0,0,0,0,0,-1,1854,1793,0,0
637,-769,0,0,0,0,0,0,0,0,0,-1,1861,1793,0,0
644,-769,0,0,0,0,0,0,0,0,0,-1,1868,1793,0,0
651,-769,0,0,0,0,0,0,0,0,0,-1,1875,1793,0,0
658,-769,0,0,0,0,0,0,0,0,0,-1,1882,1793,0,0
665,-769,0,0,0,0,0,0,0,0,0,-1,1889,1793,0,0
672,-769,0,0,0,0,0,0,0,0,0,-1,1896,1793,0,0
679,-769,0,0,0,0,0,0,0,0,0,-1,1903,1793,0,0
686,-769,0,0,0,0,0,0,0,0,0,-1,1910,1793,0,0
693,-769,0,0,0,0,0,0,0,0,0,-1,1917,1793,0,0
700,-769,0,0,0,0,0,0,0,0,0,-1,1924,1793,0,0
707,-769,0,0,0,0,0,0,0,0,0,-1,1931,1793,0,0
714,-769,0,0,0,0,0,0,0,0,0,-1,1938,1793,0,0
721,-769,0,0,0,0,0,0,0,0,0,-1,1945,1793,0,0
728,-769,0,0,0,0,0,0,0,0,0,-1,1952,1793,0,0
735,-769,0,0,0,0,0,0,0,0,0,-1,1959,1793,0,0
742,-769,0,0,0,0,0,0,0,0,0,-1,1966,1793,0,0
749,-769,0,0,0,0,0,0,0,0,0,-1,1973,1793,0,0
756,-769,0,0,0,0,0,0,0,0,0,-1,1980,1793,0,0
763,-769,0,0,0,0,0,0,0,0,0,-1,1987,1793,0,0
770,-769,0,0,0,0,0,0,0,0,0,-1,1994,1793,0,0
777,-769,0,0,0,0,0,0,0,0,0,-1,2001,1793,0,0
784,-769,0,0,0,0,0,0,0,0,0,-1,2008,1793,0,0
791,-769,0,0,0,0,0,0,0,0,0,-1,2015,1793,0,0
798,-769,0,0,0,0,0,0,0,0,0,-1,2022,1793,0,0
805,-769,0,0,0,0,0,0,0,0,0,-1,2029,1793,0,0
812,-769,0,0,0,0,0,0,0,0,0,-1,2036,1793,0,0
-700,-776,0,0,0,0,0,0,0,0,0,-1,524,1800,0,0
-693,-776,0,0,0,0,0,0,0,0,0,-1,531,1800,0,0
-686,-776,0,0,0,0,0,0,0,0,0,-1,538,1800,0,0
-679,-776,0,0,0,0,0,0,0,0,0,-1,545,1800,0,0
-672,-776,0,0,0,0,0,0,0,0,0,-1,552,1800,0,0
-665,-776,0,0,0,0,0,0,0,0,0,-1,559,1800,0,0
-658,-776,0,0,0,0,0,0,0,0,0,-1,566,1800,0,0
-651,-776,0,0,0,0,0,0,0,0,0,-1,573,1800,0,0
-644,-776,0,0,0,0,0,0,0,0,0,-1,580,1800,0,0
-637,-776,0,0,0,0,0,0,0,0,0,-1,587,1800,0,0
-630,-776,0,0,0,0,0,0,0,0,0,-1,594,1800,0,0
-623,-776,0,0,0,0,0,0,0,0,0,-1,601,1800,0,0
-616,-776,0,0,0,0,0,0,0,0,0,-1,608,1800,0,0
-609,-776,0,0,0,0,0,0,0,0,0,-1,615,1800,0,0
-602,-776,0,0,0,0,0,0,0,0,0,-1,622,1800,0,0
-595,-776,0,0,0,0,0,0,0,0,0,-1,629,1800,0,0
-588,-776,0,0,0,0,0,0,0,0,0,-1,636,1800,0,0
-581,-776,0,0,0,0,0,0,0,0,0,-1,643,1800,0,0
-574,-776,0,0,0,0,0,0,0,0,0,-1,650,1800,0,0
-567,-776,0,0,0,0,0,0,0,0,0,-1,657,1800,0,0
-560,-776,0,0,0,0,0,0,0,0,0,-1,664,1800,0,0
-553,-776,0,0,0,0,0,0,0,0,0,-1,671,1800,0,0
-546,-776,0,0,0,0,0,0,0,0,0,-1,678,1800,0,0
-539,-776,0,0,0,0,0,0,0,0,0,-1,685,1800,0,0
-532,-776,0,0,0,0,0,0,0,0,0,-1,692,1800,0,0
-525,-776,0,0,0,0,0,0,0,0,0,-1,699,1800,0,0
-518,-776,0,0,0,0,0,0,0,0,0,-1,706,1800,0,0
-511,-776,0,0,0,0,0,0,0,0,0,-1,713,1800,0,0
-504,-776,0,0,0,0,0,0,0,0,0,-1,720,1800,0,0
-497,-776,0,0,0,0,0,0,0,0,0,-1,727,1800,0,0
-490,-776,0,0,0,0,0,0,0,0,0,-1,734,1800,0,0
-483,-776,0,0,0,0,0,0,0,0,0,-1,741,1800,0,0
-476,-776,0,0,0,0,0,0,0,0,0,-1,748,1800,0,0
-469,-776,0,0,0,0,0,0,0,0,0,-1,755,1800,0,0
-462,-776,0,0,0,0,0,0,0,0,0,-1,762,1800,0,0
-455,-776,0,0,0,0,0,0,0,0,0,-1,769,1800,0,0
-448,-776,0,0,0,0,0,0,0,0,0,-1,776,1800,0,0
-441,-776,0,0,0,0,0,0,0,0,0,-1,783,1800,0,0
-434,-776,0,0,0,0,0,0,0,0,0,-1,790,1800,0,0
-427,-776,0,0,0,0,0,0,0,0,0,-1,797,1800,0,0
-420,-776,0,0,0,0,0,0,0,0,0,-1,804,1800,0,0
-413,-776,0,0,0,0,0,0,0,0,0,-1,811,1800,0,0
-406,-776,0,0,0,0,0,0,0,0,0,-1,818,1800,0,0
-399,-776,0,0,0,0,0,0,0,0,0,-1,825,1800,0,0
-392,-776,0,0,0,0,0,0,0,0,0,-1,832,1800,0,0
-385,-776,0,0,0,0,0,0,0,0,0,-1,839,1800,0,0
-378,-776,0,0,0,0,0,0,0,0,0,-1,846,1800,0,0
-371,-776,0,0,0,0,0,0,0,0,0,-1,853,1800,0,0
-364,-776,0,0,0,0,0,0,0,0,0,-1,860,1800,0,0
-357,-776,0,0,0,0,0,0,0,0,0,-1,867,1800,0,0
-350,-776,0,0,0,0,0,0,0,0,0,-1,874,1800,0,0
-343,-776,0,0,0,0,0,0,0,0,0,-1,881,1800,0,0
-336,-776,0,0,0,0,0,0,0,0,0,-1,888,1800,0,0
-329,-776,0,0,0,0,0,0,0,0,0,-1,895,1800,0,0
-322,-776,0,0,0,0,0,0,0,0,0,-1,902,1800,0,0
-315,-776,0,0,0,0,0,0,0,0,0,-1,909,1800,0,0
-308,-776,0,0,0,0,0,0,0,0,0,-1,916,1800,0,0
-301,-776,0,0,0,0,0,0,0,0,0,-1,923,1800,0,0
-294,-776,0,0,0,0,0,0,0,0,0,-1,930,1800,0,0
-287,-776,0,0,0,0,0,0,0,0,0,-1,937,1800,0,0
-280,-776,0,0,0,0,0,0,0,0,0,-1,944,1800,0,0
-273,-776,0,0,0,0,0,0,0,0,0,-1,951,1800,0,0
-266,-776,0,0,0,0,0,0,0,0,0,-1,958,1800,0,0
-259,-776,0,0,0,0,0,0,0,0,0,-1,965,1800,0,0
-252,-776,0,0,0,0,0,0,0,0,0,-1,972,1800,0,0
-245,-776,0,0,0,0,0,0,0,0,0,-1,979,1800,0,0
-238,-776,0,0,0,0,0,0,0,0,0,-1,986,1800,0,0
-231,-776,0,0,0,0,0,0,0,0,0,-1,993,1800,0,0
-224,-776,0,0,0,0,0,0,0,0,0,-1,1000,1800,0,0
-217,-776,0,0,0,0,0,0,0,0,0,-1,1007,1800,0,0
-210,-776,0,0,0,0,0,0,0,0,0,-1,1014,1800,0,0
-203,-776,0,0,0,0,0,0,0,0,0,-1,1021,1800,0,0
-196,-776,0,0,0,0,0,0,0,0,0,-1,1028,1800,0,0
-189,-776,0,0,0,0,0,0,0,0,0,-1,1035,1800,0,0
-182,-776,0,0,0,0,0,0,0,0,0,-1,1042,1800,0,0
-175,-776,0,0,0,0,0,0,0,0,0,-1,1049,1800,0,0
-168,-776,0,0,0,0,0,0,0,0,0,-1,1056,1800,0,0
-161,-776,0,0,0,0,0,0,0,0,0,-1,1063,1800,0,0
-154,-776,0,0,0,0,0,0,0,0,0,-1,1070,1800,0,0
-147,-776,0,0,0,0,0,0,0,0,0,-1,1077,1800,0,0
-140,-776,2.98499,5.20911,0,0,0,0,0,0,0,-1,1084,1800,2.98493,-5.2091
-133,-776,6.72363,9.35828,0,0,0,0,0,0,0,-1,1091,1800,6.72358,-9.35824
-126,-776,6.55029,13.7832,0,0,0,0,0,0,0,-1,1098,1800,6.55029,-13.7832
-119,-776,5.72107,13.7787,0,0,0,0,0,0,0,-1,1105,1800,5.72106,-13.7787
-112,-776,6.84998,20.4421,0,0,0,0,0,0,0,-1,1112,1800,6.84993,-20.4421
-105,-776,4.46863,24.6742,0,0,0,0,0,0,0,-1,1119,1800,4.46868,-24.6742
-98,-776,4.31616,19.7659,0,0,0,0,0,0,0,-1,1126,1800,4.31619,-19.7659
-91,-776,3.30225,18.134,0,0,0,0,0,0,0,-1,1133,1800,3.30222,-18.134
-84,-776,2.67932,14.3162,0,0,0,0,0,0,0,-1,1140,1800,2.67926,-14.3161
-77,-776,0.580078,11.1272,0,0,0,0,0,0,0,-1,1147,1800,0.58002,-11.1272
-70,-776,-0.562866,12.3163,0,0,0,0,0,0,0,-1,1154,1800,-0.562897,-12.3163
-63,-776,-3.96106,9.97656,0,0,0,0,0,0,0,-1,1161,1800,-3.961,-9.97654
-56,-776,-7.35913,7.63672,0,0,0,0,0,0,0,-1,1168,1800,-7.3591,-7.63676
-49,-776,-7.62952,3.1908,0,0,0,0,0,0,0,-1,1175,1800,-7.62955,-3.19076
-42,-776,-3.41272,3.0249,0,0,0,0,0,0,0,-1,1182,1800,-3.41269,-3.02488
-35,-776,-3.71753,1.63635,0,0,0,0,0,0,0,-1,1189,1800,-3.71755,-1.63631
-28,-776,-4.03979,0.716064,0,0,0,0,0,0,0,-1,1196,1800,-4.03977,-0.716055
-21,-776,9.50159,44.3264,0,0,0,0,0,0,0,-1,1203,1800,9.50165,-44.3264
-14,-776,8.91223,44.1033,0,0,0,0,0,0,0,-1,1210,1800,8.91221,-44.1033
-7,-776,8.74243,44.3579,-0.00964342,0.0200149,0.0146842,0.026055,-0.0156836,1.18055,0.0243445,0.0498537,1217,1800,8.74244,-44.3579
0,-776,9.25342,44.9644,-0.0118734,0.0183311,0.00911891,0.0208707,-0.014413,1.29919,0.0204844,0.0470977,1224,1800,9.25337,-44.9644
7,-776,8.76636,45.4531,-0.012524,0.017416,0.00162014,0.0175034,-0.0126114,1.51689,0.0174631,0.0463388,1231,1800,8.76632,-45.4532
14,-776,8.42566,45.7856,-0.0118309,0.0170262,-0.00719446,0.0187204,-0.0135251,-1.33952,0.0186973,0.0434764,1238,1800,8.42565,-45.7856
21,-776,7.90942,45.8668,-0.0104266,0.0173033,-0.016588,0.0250577,-0.018181,-1.13351,0.0250689,0.0422377,1245,1800,7.90946,-45.8668
28,-776,7.1001,45.5905,0,0,0,0,0,0,0,-1,1252,1800,7.10012,-45.5905
35,-776,7.31519,44.8695,0,0,0,0,0,0,0,-1,1259,1800,7.31521,-44.8695
42,-776,8.62646,45.7047,0,0,0,0,0,0,0,-1,1266,1800,8.62645,-45.7047
49,-776,8.53491,55.0099,0,0,0,0,0,0,0,-1,1273,1800,8.53488,-55.0099
56,-776,8.19739,51.8406,0,0,0,0,0,0,0,-1,1280,1800,8.19745,-51.8406
63,-776,8.3457,45.2601,0,0,0,0,0,0,0,-1,1287,1800,8.34569,-45.2601
70,-776,8.63965,45.3312,0,0,0,0,0,0,0,-1,1294,1800,8.63962,-45.3312
77,-776,9.28564,45.9694,0,0,0,0,0,0,0,-1,1301,1800,9.28568,-45.9693
84,-776,8.70129,45.8185,0,0,0,0,0,0,0,-1,1308,1800,8.70128,-45.8185
91,-776,7.59473,45.6527,-0.00490249,0.0629359,-0.0358661,0.0783816,-0.0203482,-1.16415,0.0601947,0.0431396,1315,1800,7.59479,-45.6528
98,-776,7.0968,44.1189,-0.00461557,0.0682329,-0.0296168,0.0787542,-0.0151368,-1.22946,0.0582082,0.043689,1322,1800,7.09676,-44.1189
105,-776,8.74243,46.0413,-0.0043871,0.0734916,-0.0228781,0.0797151,-0.0106106,-1.3052,0.0570103,0.0459948,1329,1800,8.74243,-46.0413
112,-776,8.46631,45.5929,-0.0042701,0.074613,-0.0173647,0.0782663,-0.00792345,-1.36343,0.0550092,0.0468381,1336,1800,8.46628,-45.5929
119,-776,8.3927,45.4583,-0.0046161,0.0730724,-0.011529,0.0747472,-0.00629091,-1.42654,0.0520553,0.0423163,1343,1800,8.39272,-45.4583
126,-776,8.48132,45.3804,0,0,0,0,0,0,0,-1,1350,1800,8.48135,-45.3804
133,-776,7.26074,46.1783,0,0,0,0,0,0,0,-1,1357,1800,7.26076,-46.1784
140,-776,7.14673,45.3269,0,0,0,0,0,0,0,-1,1364,1800,7.14675,-45.3269
147,-776,7.03271,44.5519,0,0,0,0,0,0,0,-1,1371,1800,7.03276,-44.5519
154,-776,38.4338,21.854,0,0,0,0,0,0,0,-1,1378,1800,38.4339,-21.854
161,-776,6.50293,1.1731,0,0,0,0,0,0,0,-1,1385,1800,6.5029,-1.17313
168,-776,8.44971,1.22913,0,0,0,0,0,0,0,-1,1392,1800,8.44974,-1.22915
175,-776,8.61523,2.87061,0,0,0,0,0,0,0,-1,1399,1800,8.6152,-2.87063
182,-776,8.54065,4.60645,0,0,0,0,0,0,0,-1,1406,1800,8.5407,-4.60643
189,-776,8.35303,6.28223,0,0,0,0,0,0,0,-1,1413,1800,8.35297,-6.28225
196,-776,8.0387,8.21704,0,0,0,0,0,0,0,-1,1420,1800,8.03865,-8.217
203,-776,7.91736,9.79919,0,0,0,0,0,0,0,-1,1427,1800,7.91735,-9.79922
210,-776,20.2479,7.85718,0,0,0,0,0,0,0,-1,1434,1800,20.248,-7.85719
217,-776,21.5171,9.3418,0,0,0,0,0,0,0,-1,1441,1800,21.5171,-9.34182
224,-776,3.09253,14.9313,0,0,0,0,0,0,0,-1,1448,1800,3.09254,-14.9313
231,-776,20.8671,9.21057,0,0,0,0,0,0,0,-1,1455,1800,20.867,-9.21054
238,-776,20.7511,9.05847,0,0,0,0,0,0,0,-1,1462,1800,20.7511,-9.05848
245,-776,3.80823,15.4108,0,0,0,0,0,0,0,-1,1469,1800,3.80826,-15.4108
252,-776,8.57837,20.2009,0,0,0,0,0,0,0,-1,1476,1800,8.57841,-20.2009
259,-776,14.1882,7.69055,0,0,0,0,0,0,0,-1,1483,1800,14.1882,-7.69061
266,-776,0,0,0,0,0,0,0,0,0,-1,1490,1800,0,0
273,-776,0,0,0,0,0,0,0,0,0,-1,1497,1800,0,0
280,-776,0,0,0,0,0,0,0,0,0,-1,1504,1800,0,0
287,-776,0,0,0,0,0,0,0,0,0,-1,1511,1800,0,0
294,-776,0,0,0,0,0,0,0,0,0,-1,1518,1800,0,0
301,-776,0,0,0,0,0,0,0,0,0,-1,1525,1800,0,0
308,-776,0,0,0,0,0,0,0,0,0,-1,1532,1800,0,0
315,-776,0,0,0,0,0,0,0,0,0,-1,1539,1800,0,0
322,-776,0,0,0,0,0,0,0,0,0,-1,1546,1800,0,0
329,-776,0,0,0,0,0,0,0,0,0,-1,1553,1800,0,0
336,-776,0,0,0,0,0,0,0,0,0,-1,1560,1800,0,0
343,-776,0,0,0,0,0,0,0,0,0,-1,1567,1800,0,0
350,-776,0,0,0,0,0,0,0,0,0,-1,1574,1800,0,0
357,-776,0,0,0,0,0,0,0,0,0,-1,1581,1800,0,0
364,-776,0,0,0,0,0,0,0,0,0,-1,1588,1800,0,0
371,-776,0,0,0,0,0,0,0,0,0,-1,1595,1800,0,0
378,-776,0,0,0,0,0,0,0,0,0,-1,1602,1800,0,0
385,-776,0,0,0,0,0,0,0,0,0,-1,1609,1800,0,0
392,-776,0,0,0,0,0,0,0,0,0,-1,1616,1800,0,0
399,-776,0,0,0,0,0,0,0,0,0,-1,1623,1800,0,0
406,-776,0,0,0,0,0,0,0,0,0,-1,1630,1800,0,0
413,-776,0,0,0,0,0,0,0,0,0,-1,1637,1800,0,0
420,-776,0,0,0,0,0,0,0,0,0,-1,1644,1800,0,0
427,-776,0,0,0,0,0,0,0,0,0,-1,1651,1800,0,0
434,-776,0,0,0,0,0,0,0,0,0,-1,1658,1800,0,0
441,-776,0,0,0,0,0,0,0,0,0,-1,1665,1800,0,0
448,-776,0,0,0,0,0,0,0,0,0,-1,1672,1800,0,0
455,-776,0,0,0,0,0,0,0,0,0,-1,1679,1800,0,0
462,-776,0,0,0,0,0,0,0,0,0,-1,1686,1800,0,0
469,-776,0,0,0,0,0,0,0,0,0,-1,1693,1800,0,0
476,-776,0,0,0,0,0,0,0,0,0,-1,1700,1800,0,0
483,-776,0,0,0,0,0,0,0,0,0,-1,1707,1800,0,0
490,-776,0,0,0,0,0,0,0,0,0,-1,1714,1800,0,0
497,-776,0,0,0,0,0,0,0,0,0,-1,1721,1800,0,0
504,-776,0,0,0,0,0,0,0,0,0,-1,1728,1800,0,0
511,-776,0,0,0,0,0,0,0,0,0,-1,1735,1800,0,0
518,-776,0,0,0,0,0,0,0,0,0,-1,1742,1800,0,0
525,-776,0,0,0,0,0,0,0,0,0,-1,1749,1800,0,0
532,-776,0,0,0,0,0,0,0,0,0,-1,1756,1800,0,0
539,-776,0,0,0,0,0,0,0,0,0,-1,1763,1800,0,0
546,-776,0,0,0,0,0,0,0,0,0,-1,1770,1800,0,0
553,-776,0,0,0,0,0,0,0,0,0,-1,1777,1800,0,0
560,-776,0,0,0,0,0,0,0,0,0,-1,1784,1800,0,0
567,-776,0,0,0,0,0,0,0,0,0,-1,1791,1800,0,0
574,-776,0,0,0,0,0,0,0,0,0,-1,1798,1800,0,0
581,-776,0,0,0,0,0,0,0,0,0,-1,1805,1800,0,0
588,-776,0,0,0,0,0,0,0,0,0,-1,1812,1800,0,0
595,-776,0,0,0,0,0,0,0,0,0,-1,1819,1800,0,0
602,-776,0,0,0,0,0,0,0,0,0,-1,1826,1800,0,0
609,-776,0,0,0,0,0,0,0,0,0,-1,1833,1800,0,0
616,-776,0,0,0,0,0,0,0,0,0,-1,1840,1800,0,0
623,-776,0,0,0,0,0,0,0,0,0,-1,1847,1800,0,0
630,-776,0,0,0,0,0,0,0,0,0,-1,1854,1800,0,0
637,-776,0,0,0,0,0,0,0,0,0,-1,1861,1800,0,0
644,-776,0,0,0,0,0,0,0,0,0,-1,1868,1800,0,0
651,-776,0,0,0,0,0,0,0,0,0,-1,1875,1800,0,0
658,-776,0,0,0,0,0,0,0,0,0,-1,1882,1800,0,0
665,-776,0,0,0,0,0,0,0,0,0,-1,1889,1800,0,0
672,-776,0,0,0,0,0,0,0,0,0,-1,1896,1800,0,0
679,-776,0,0,0,0,0,0,0,0,0,-1,1903,1800,0,0
686,-776,0,0,0,0,0,0,0,0,0,-1,1910,1800,0,0
693,-776,0,0,0,0,0,0,0,0,0,-1,1917,1800,0,0
700,-776,0,0,0,0,0,0,0,0,0,-1,1924,1800,0,0
707,-776,0,0,0,0,0,0,0,0,0,-1,1931,1800,0,0
714,-776,0,0,0,0,0,0,0,0,0,-1,1938,1800,0,0
721,-776,0,0,0,0,0,0,0,0,0,-1,1945,1800,0,0
728,-776,0,0,0,0,0,0,0,0,0,-1,1952,1800,0,0
735,-776,0,0,0,0,0,0,0,0,0,-1,1959,1800,0,0
742,-776,0,0,0,0,0,0,0,0,0,-1,1966,1800,0,0
749,-776,0,0,0,0,0,0,0,0,0,-1,1973,1800,0,0
756,-776,0,0,0,0,0,0,0,0,0,-1,1980,1800,0,0
763,-776,0,0,0,0,0,0,0,0,0,-1,1987,1800,0,0
770,-776,0,0,0,0,0,0,0,0,0,-1,1994,1800,0,0
777,-776,0,0,0,0,0,0,0,0,0,-1,2001,1800,0,0
784,-776,0,0,0,0,0,0,0,0,0,-1,2008,1800,0,0
791,-776,0,0,0,0,0,0,0,0,0,-1,2015,1800,0,0
798,-776,0,0,0,0,0,0,0,0,0,-1,2022,1800,0,0
805,-776,0,0,0,0,0,0,0,0,0,-1,2029,1800,0,0
812,-776,0,0,0,0,0,0,0,0,0,-1,2036,1800,0,0
-700,-783,0,0,0,0,0,0,0,0,0,-1,524,1807,0,0
-693,-783,0,0,0,0,0,0,0,0,0,-1,531,1807,0,0
-686,-783,0,0,0,0,0,0,0,0,0,-1,538,1807,0,0
-679,-783,0,0,0,0,0,0,0,0,0,-1,545,1807,0,0
-672,-783,0,0,0,0,0,0,0,0,0,-1,552,1807,0,0
-665,-783,0,0,0,0,0,0,0,0,0,-1,559,1807,0,0
-658,-783,0,0,0,0,0,0,0,0,0,-1,566,1807,0,0
-651,-783,0,0,0,0,0,0,0,0,0,-1,573,1807,0,0
-644,-783,0,0,0,0,0,0,0,0,0,-1,580,1807,0,0
-637,-783,0,0,0,0,0,0,0,0,0,-1,587,1807,0,0
-630,-783,0,0,0,0,0,0,0,0,0,-1,594,1807,0,0
-623,-783,0,0,0,0,0,0,0,0,0,-1,601,1807,0,0
-616,-783,0,0,0,0,0,0,0,0,0,-1,608,1807,0,0
-609,-783,0,0,0,0,0,0,0,0,0,-1,615,1807,0,0
-602,-783,0,0,0,0,0,0,0,0,0,-1,622,1807,0,0
-595,-783,0,0,0,0,0,0,0,0,0,-1,629,1807,0,0
-588,-783,0,0,0,0,0,0,0,0,0,-1,636,1807,0,0
-581,-783,0,0,0,0,0,0,0,0,0,-1,643,1807,0,0
-574,-783,0,0,0,0,0,0,0,0,0,-1,650,1807,0,0
-567,-783,0,0,0,0,0,0,0,0,0,-1,657,1807,0,0
-560,-783,0,0,0,0,0,0,0,0,0,-1,664,1807,0,0
-553,-783,0,0,0,0,0,0,0,0,0,-1,671,1807,0,0
-546,-783,0,0,0,0,0,0,0,0,0,-1,678,1807,0,0
-539,-783,0,0,0,0,0,0,0,0,0,-1,685,1807,0,0
-532,-783,0,0,0,0,0,0,0,0,0,-1,692,1807,0,0
-525,-783,0,0,0,0,0,0,0,0,0,-1,699,1807,0,0
-518,-783,0,0,0,0,0,0,0,0,0,-1,706,1807,0,0
-511,-783,0,0,0,0,0,0,0,0,0,-1,713,1807,0,0
-504,-783,0,0,0,0,0,0,0,0,0,-1,720,1807,0,0
-497,-783,0,0,0,0,0,0,0,0,0,-1,727,1807,0,0
-490,-783,0,0,0,0,0,0,0,0,0,-1,734,1807,0,0
-483,-783,0,0,0,0,0,0,0,0,0,-1,741,1807,0,0
-476,-783,0,0,0,0,0,0,0,0,0,-1,748,1807,0,0
-469,-783,0,0,0,0,0,0,0,0,0,-1,755,1807,0,0
-462,-783,0,0,0,0,0,0,0,0,0,-1,762,1807,0,0
-455,-783,0,0,0,0,0,0,0,0,0,-1,769,1807,0,0
-448,-783,0,0,0,0,0,0,0,0,0,-1,776,1807,0,0
-441,-783,0,0,0,0,0,0,0,0,0,-1,783,1807,0,0
-434,-783,0,0,0,0,0,0,0,0,0,-1,790,1807,0,0
-427,-783,0,0,0,0,0,0,0,0,0,-1,797,1807,0,0
-420,-783,0,0,0,0,0,0,0,0,0,-1,804,1807,0,0
-413,-783,0,0,0,0,0,0,0,0,0,-1,811,1807,0,0
-406,-783,0,0,0,0,0,0,0,0,0,-1,818,1807,0,0
-399,-783,0,0,0,0,0,0,0,0,0,-1,825,1807,0,0
-392,-783,0,0,0,0,0,0,0,0,0,-1,832,1807,0,0
-385,-783,0,0,0,0,0,0,0,0,0,-1,839,1807,0,0
-378,-783,0,0,0,0,0,0,0,0,0,-1,846,1807,0,0
-371,-783,0,0,0,0,0,0,0,0,0,-1,853,1807,0,0
-364,-783,0,0,0,0,0,0,0,0,0,-1,860,1807,0,0
-357,-783,0,0,0,0,0,0,0,0,0,-1,867,1807,0,0
-350,-783,0,0,0,0,0,0,0,0,0,-1,874,1807,0,0
-343,-783,0,0,0,0,0,0,0,0,0,-1,881,1807,0,0
-336,-783,0,0,0,0,0,0,0,0,0,-1,888,1807,0,0
-329,-783,0,0,0,0,0,0,0,0,0,-1,895,1807,0,0
-322,-783,0,0,0,0,0,0,0,0,0,-1,902,1807,0,0
-315,-783,0,0,0,0,0,0,0,0,0,-1,909,1807,0,0
-308,-783,0,0,0,0,0,0,0,0,0,-1,916,1807,0,0
-301,-783,0,0,0,0,0,0,0,0,0,-1,923,1807,0,0
-294,-783,0,0,0,0,0,0,0,0,0,-1,930,1807,0,0
-287,-783,0,0,0,0,0,0,0,0,0,-1,937,1807,0,0
-280,-783,0,0,0,0,0,0,0,0,0,-1,944,1807,0,0
-273,-783,0,0,0,0,0,0,0,0,0,-1,951,1807,0,0
-266,-783,0,0,0,0,0,0,0,0,0,-1,958,1807,0,0
-259,-783,0,0,0,0,0,0,0,0,0,-1,965,1807,0,0
-252,-783,0,0,0,0,0,0,0,0,0,-1,972,1807,0,0
-245,-783,0,0,0,0,0,0,0,0,0,-1,979,1807,0,0
-238,-783,0,0,0,0,0,0,0,0,0,-1,986,1807,0,0
-231,-783,0,0,0,0,0,0,0,0,0,-1,993,1807,0,0
-224,-783,0,0,0,0,0,0,0,0,0,-1,1000,1807,0,0
-217,-783,0,0,0,0,0,0,0,0,0,-1,1007,1807,0,0
-210,-783,0,0,0,0,0,0,0,0,0,-1,1014,1807,0,0
-203,-783,0,0,0,0,0,0,0,0,0,-1,1021,1807,0,0
-196,-783,0,0,0,0,0,0,0,0,0,-1,1028,1807,0,0
-189,-783,0,0,0,0,0,0,0,0,0,-1,1035,1807,0,0
-182,-783,0,0,0,0,0,0,0,0,0,-1,1042,1807,0,0
-175,-783,0,0,0,0,0,0,0,0,0,-1,1049,1807,0,0
-168,-783,0,0,0,0,0,0,0,0,0,-1,1056,1807,0,0
-161,-783,0,0,0,0,0,0,0,0,0,-1,1063,1807,0,0
-154,-783,0,0,0,0,0,0,0,0,0,-1,1070,1807,0,0
-147,-783,0,0,0,0,0,0,0,0,0,-1,1077,1807,0,0
-140,-783,0,0,0,0,0,0,0,0,0,-1,1084,1807,0,0
-133,-783,0,0,0,0,0,0,0,0,0,-1,1091,1807,0,0
-126,-783,0,0,0,0,0,0,0,0,0,-1,1098,1807,0,0
-119,-783,0,0,0,0,0,0,0,0,0,-1,1105,1807,0,0
-112,-783,5.33936,14.7699,0,0,0,0,0,0,0,-1,1112,1807,5.33931,-14.7699
-105,-783,6.44263,21.2224,0,0,0,0,0,0,0,-1,1119,1807,6.44263,-21.2224
-98,-783,5.54773,20.5695,0,0,0,0,0,0,0,-1,1126,1807,5.54772,-20.5695
-91,-783,2.6106,20.2491,0,0,0,0,0,0,0,-1,1133,1807,2.61056,-20.2492
-84,-783,-0.0491943,14.5743,0,0,0,0,0,0,0,-1,1140,1807,-0.0491562,-14.5743
-77,-783,0.332764,12.7788,0,0,0,0,0,0,0,-1,1147,1807,0.332743,-12.7788
-70,-783,-1.93176,5.12817,0,0,0,0,0,0,0,-1,1154,1807,-1.93171,-5.12813
-63,-783,-5.31702,10.54,0,0,0,0,0,0,0,-1,1161,1807,-5.31703,-10.54
-56,-783,-6.26135,6.9679,0,0,0,0,0,0,0,-1,1168,1807,-6.26136,-6.96785
-49,-783,-3.17688,4.59705,0,0,0,0,0,0,0,-1,1175,1807,-3.17685,-4.5971
-42,-783,-3.72876,3.1405,0,0,0,0,0,0,0,-1,1182,1807,-3.72874,-3.14055
-35,-783,-3.97046,1.59399,0,0,0,0,0,0,0,-1,1189,1807,-3.97041,-1.59401
-28,-783,-4.12195,0.270386,0,0,0,0,0,0,0,-1,1196,1807,-4.12197,-0.270408
-21,-783,9.47388,43.9495,0,0,0,0,0,0,0,-1,1203,1807,9.47384,-43.9494
-14,-783,8.73413,44.0985,0,0,0,0,0,0,0,-1,1210,1807,8.73407,-44.0985
-7,-783,8.70837,44.41,-0.0104461,0.0246438,0.0172177,0.0316809,-0.0174832,1.1828,0.0287767,0.0492574,1217,1807,8.70836,-44.41
0,-783,9.62476,44.5363,-0.0139932,0.0230836,0.00962106,0.0254315,-0.0163411,1.33144,0.024307,0.0453456,1224,1807,9.62471,-44.5362
7,-783,8.65979,45.5037,-0.0149793,0.0222453,-0.00131229,0.0222915,-0.0150255,-1.5356,0.0216807,0.046854,1231,1807,8.65975,-45.5036
14,-783,8.34131,45.6344,-0.0141429,0.0221391,-0.0136337,0.0266911,-0.018695,-1.24855,0.0263389,0.0457205,1238,1807,8.34133,-45.6344
21,-783,8.12329,45.6951,-0.0124152,0.0229591,-0.0262121,0.0368933,-0.0263494,-1.08219,0.036682,0.0429887,1245,1807,8.12326,-45.6951
28,-783,9.54114,62.8032,0,0,0,0,0,0,0,-1,1252,1807,9.54115,-62.8032
35,-783,9.14368,60.8088,0,0,0,0,0,0,0,-1,1259,1807,9.14369,-60.8089
42,-783,8.745,58.8362,0,0,0,0,0,0,0,-1,1266,1807,8.74503,-58.8362
49,-783,8.00208,55.2881,-0.00940851,0.0310714,-0.0612328,0.0753226,-0.0536597,-0.945016,0.0748172,0.0479699,1273,1807,8.00205,-55.288
56,-783,7.57886,52.0889,0,0,0,0,0,0,0,-1,1280,1807,7.57881,-52.0889
63,-783,7.94299,53.0337,0,0,0,0,0,0,0,-1,1287,1807,7.94305,-53.0337
70,-783,9.33508,45.7649,0,0,0,0,0,0,0,-1,1294,1807,9.33504,-45.7649
77,-783,7.93774,49.0667,0,0,0,0,0,0,0,-1,1301,1807,7.93771,-49.0666
84,-783,7.44397,47.2712,-0.00619219,0.0722036,-0.055795,0.101193,-0.035182,-1.09161,0.0817532,0.0484864,1308,1807,7.44403,-47.2713
91,-783,6.95801,45.4603,-0.00618842,0.081757,-0.0489392,0.103577,-0.0280081,-1.1514,0.0800378,0.0433677,1315,1807,6.95804,-45.4603
98,-783,6.60596,43.871,-0.00563321,0.0896818,-0.0412812,0.105075,-0.0210263,-1.21388,0.078009,0.0433459,1322,1807,6.60602,-43.871
105,-783,6.49194,42.1366,-0.00523431,0.097659,-0.0332424,0.107464,-0.0150397,-1.28396,0.0771464,0.0471004,1329,1807,6.4919,-42.1366
112,-783,6.63586,40.493,0,0,0,0,0,0,0,-1,1336,1807,6.63589,-40.493
119,-783,8.47522,45.8613,0,0,0,0,0,0,0,-1,1343,1807,8.47516,-45.8614
126,-783,8.12219,45.9073,0,0,0,0,0,0,0,-1,1350,1807,8.12213,-45.9073
133,-783,6.40686,46.9073,0,0,0,0,0,0,0,-1,1357,1807,6.40682,-46.9074
140,-783,6.51721,45.7751,0,0,0,0,0,0,0,-1,1364,1807,6.5172,-45.7751
147,-783,6.49988,44.8658,0,0,0,0,0,0,0,-1,1371,1807,6.49991,-44.8659
154,-783,38.2109,17.545,0,0,0,0,0,0,0,-1,1378,1807,38.2109,-17.545
161,-783,39.5087,17.5449,0,0,0,0,0,0,0,-1,1385,1807,39.5087,-17.545
168,-783,8.62561,1.79944,0,0,0,0,0,0,0,-1,1392,1807,8.62561,-1.79946
175,-783,8.78699,3.40857,0,0,0,0,0,0,0,-1,1399,1807,8.78697,-3.40854
182,-783,8.70984,5.14661,0,0,0,0,0,0,0,-1,1406,1807,8.70989,-5.14666
189,-783,8.55762,6.79871,0,0,0,0,0,0,0,-1,1413,1807,8.55766,-6.79872
196,-783,8.25488,8.66626,0,0,0,0,0,0,0,-1,1420,1807,8.25492,-8.66628
203,-783,7.86755,10.5735,0,0,0,0,0,0,0,-1,1427,1807,7.8676,-10.5734
210,-783,5.6969,8.99231,0,0,0,0,0,0,0,-1,1434,1807,5.69693,-8.99234
217,-783,5.28503,3.80872,0,0,0,0,0,0,0,-1,1441,1807,5.285,-3.80868
224,-783,3.22571,6.62903,0,0,0,0,0,0,0,-1,1448,1807,3.2257,-6.62907
231,-783,4.27942,4.56262,0,0,0,0,0,0,0,-1,1455,1807,4.27948,-4.56267
238,-783,0,0,0,0,0,0,0,0,0,-1,1462,1807,0,0
245,-783,0,0,0,0,0,0,0,0,0,-1,1469,1807,0,0
252,-783,0,0,0,0,0,0,0,0,0,-1,1476,1807,0,0
259,-783,0,0,0,0,0,0,0,0,0,-1,1483,1807,0,0
266,-783,0,0,0,0,0,0,0,0,0,-1,1490,1807,0,0
273,-783,0,0,0,0,0,0,0,0,0,-1,1497,1807,0,0
280,-783,0,0,0,0,0,0,0,0,0,-1,1504,1807,0,0
287,-783,0,0,0,0,0,0,0,0,0,-1,1511,1807,0,0
294,-783,0,0,0,0,0,0,0,0,0,-1,1518,1807,0,0
301,-783,0,0,0,0,0,0,0,0,0,-1,1525,1807,0,0
308,-783,0,0,0,0,0,0,0,0,0,-1,1532,1807,0,0
315,-783,0,0,0,0,0,0,0,0,0,-1,1539,1807,0,0
322,-783,0,0,0,0,0,0,0,0,0,-1,1546,1807,0,0
329,-783,0,0,0,0,0,0,0,0,0,-1,1553,1807,0,0
336,-783,0,0,0,0,0,0,0,0,0,-1,1560,1807,0,0
343,-783,0,0,0,0,0,0,0,0,0,-1,1567,1807,0,0
350,-783,0,0,0,0,0,0,0,0,0,-1,1574,1807,0,0
357,-783,0,0,0,0,0,0,0,0,0,-1,1581,1807,0,0
364,-783,0,0,0,0,0,0,0,0,0,-1,1588,1807,0,0
371,-783,0,0,0,0,0,0,0,0,0,-1,1595,1807,0,0
378,-783,0,0,0,0,0,0,0,0,0,-1,1602,1807,0,0
385,-783,0,0,0,0,0,0,0,0,0,-1,1609,1807,0,0
392,-783,0,0,0,0,0,0,0,0,0,-1,1616,1807,0,0
399,-783,0,0,0,0,0,0,0,0,0,-1,1623,1807,0,0
406,-783,0,0,0,0,0,0,0,0,0,-1,1630,1807,0,0
413,-783,0,0,0,0,0,0,0,0,0,-1,1637,1807,0,0
420,-783,0,0,0,0,0,0,0,0,0,-1,1644,1807,0,0
427,-783,0,0,0,0,0,0,0,0,0,-1,1651,1807,0,0
434,-783,0,0,0,0,0,0,0,0,0,-1,1658,1807,0,0
441,-783,0,0,0,0,0,0,0,0,0,-1,1665,1807,0,0
448,-783,0,0,0,0,0,0,0,0,0,-1,1672,1807,0,0
455,-783,0,0,0,0,0,0,0,0,0,-1,1679,1807,0,0
462,-783,0,0,0,0,0,0,0,0,0,-1,1686,1807,0,0
469,-783,0,0,0,0,0,0,0,0,0,-1,1693,1807,0,0
476,-783,0,0,0,0,0,0,0,0,0,-1,1700,1807,0,0
483,-783,0,0,0,0,0,0,0,0,0,-1,1707,1807,0,0
490,-783,0,0,0,0,0,0,0,0,0,-1,1714,1807,0,0
497,-783,0,0,0,0,0,0,0,0,0,-1,1721,1807,0,0
504,-783,0,0,0,0,0,0,0,0,0,-1,1728,1807,0,0
511,-783,0,0,0,0,0,0,0,0,0,-1,1735,1807,0,0
518,-783,0,0,0,0,0,0,0,0,0,-1,1742,1807,0,0
525,-783,0,0,0,0,0,0,0,0,0,-1,1749,1807,0,0
532,-783,0,0,0,0,0,0,0,0,0,-1,1756,1807,0,0
539,-783,0,0,0,0,0,0,0,0,0,-1,1763,1807,0,0
546,-783,0,0,0,0,0,0,0,0,0,-1,1770,1807,0,0
553,-783,0,0,0,0,0,0,0,0,0,-1,1777,1807,0,0
560,-783,0,0,0,0,0,0,0,0,0,-1,1784,1807,0,0
567,-783,0,0,0,0,0,0,0,0,0,-1,1791,1807,0,0
574,-783,0,0,0,0,0,0,0,0,0,-1,1798,1807,0,0
581,-783,0,0,0,0,0,0,0,0,0,-1,1805,1807,0,0
588,-783,0,0,0,0,0,0,0,0,0,-1,1812,1807,0,0
595,-783,0,0,0,0,0,0,0,0,0,-1,1819,1807,0,0
602,-783,0,0,0,0,0,0,0,0,0,-1,1826,1807,0,0
609,-783,0,0,0,0,0,0,0,0,0,-1,1833,1807,0,0
616,-783,0,0,0,0,0,0,0,0,0,-1,1840,1807,0,0
623,-783,0,0,0,0,0,0,0,0,0,-1,1847,1807,0,0
630,-783,0,0,0,0,0,0,0,0,0,-1,1854,1807,0,0
637,-783,0,0,0,0,0,0,0,0,0,-1,1861,1807,0,0
644,-783,0,0,0,0,0,0,0,0,0,-1,1868,1807,0,0
651,-783,0,0,0,0,0,0,0,0,0,-1,1875,1807,0,0
658,-783,0,0,0,0,0,0,0,0,0,-1,1882,1807,0,0
665,-783,0,0,0,0,0,0,0,0,0,-1,1889,1807,0,0
672,-783,0,0,0,0,0,0,0,0,0,-1,1896,1807,0,0
679,-783,0,0,0,0,0,0,0,0,0,-1,1903,1807,0,0
686,-783,0,0,0,0,0,0,0,0,0,-1,1910,1807,0,0
693,-783,0,0,0,0,0,0,0,0,0,-1,1917,1807,0,0
700,-783,0,0,0,0,0,0,0,0,0,-1,1924,1807,0,0
707,-783,0,0,0,0,0,0,0,0,0,-1,1931,1807,0,0
714,-783,0,0,0,0,0,0,0,0,0,-1,1938,1807,0,0
721,-783,0,0,0,0,0,0,0,0,0,-1,1945,1807,0,0
728,-783,0,0,0,0,0,0,0,0,0,-1,1952,1807,0,0
735,-783,0,0,0,0,0,0,0,0,0,-1,1959,1807,0,0
742,-783,0,0,0,0,0,0,0,0,0,-1,1966,1807,0,0
749,-783,0,0,0,0,0,0,0,0,0,-1,1973,1807,0,0
756,-783,0,0,0,0,0,0,0,0,0,-1,1980,1807,0,0
763,-783,0,0,0,0,0,0,0,0,0,-1,1987,1807,0,0
770,-783,0,0,0,0,0,0,0,0,0,-1,1994,1807,0,0
777,-783,0,0,0,0,0,0,0,0,0,-1,2001,1807,0,0
784,-783,0,0,0,0,0,0,0,0,0,-1,2008,1807,0,0
791,-783,0,0,0,0,0,0,0,0,0,-1,2015,1807,0,0
798,-783,0,0,0,0,0,0,0,0,0,-1,2022,1807,0,0
805,-783,0,0,0,0,0,0,0,0,0,-1,2029,1807,0,0
812,-783,0,0,0,0,0,0,0,0,0,-1,2036,1807,0,0
-700,-790,0,0,0,0,0,0,0,0,0,-1,524,1814,0,0
-693,-790,0,0,0,0,0,0,0,0,0,-1,531,1814,0,0
-686,-790,0,0,0,0,0,0,0,0,0,-1,538,1814,0,0
-679,-790,0,0,0,0,0,0,0,0,0,-1,545,1814,0,0
-672,-790,0,0,0,0,0,0,0,0,0,-1,552,1814,0,0
-665,-790,0,0,0,0,0,0,0,0,0,-1,559,1814,0,0
-658,-790,0,0,0,0,0,0,0,0,0,-1,566,1814,0,0
-651,-790,0,0,0,0,0,0,0,0,0,-1,573,1814,0,0
-644,-790,0,0,0,0,0,0,0,0,0,-1,580,1814,0,0
-637,-790,0,0,0,0,0,0,0,0,0,-1,587,1814,0,0
-630,-790,0,0,0,0,0,0,0,0,0,-1,594,1814,0,0
-623,-790,0,0,0,0,0,0,0,0,0,-1,601,1814,0,0
-616,-790,0,0,0,0,0,0,0,0,0,-1,608,1814,0,0
-609,-790,0,0,0,0,0,0,0,0,0,-1,615,1814,0,0
-602,-790,0,0,0,0,0,0,0,0,0,-1,622,1814,0,0
-595,-790,0,0,0,0,0,0,0,0,0,-1,629,1814,0,0
-588,-790,0,0,0,0,0,0,0,0,0,-1,636,1814,0,0
-581,-790,0,0,0,0,0,0,0,0,0,-1,643,1814,0,0
-574,-790,0,0,0,0,0,0,0,0,0,-1,650,1814,0,0
-567,-790,0,0,0,0,0,0,0,0,0,-1,657,1814,0,0
-560,-790,0,0,0,0,0,0,0,0,0,-1,664,1814,0,0
-553,-790,0,0,0,0,0,0,0,0,0,-1,671,1814,0,0
-546,-790,0,0,0,0,0,0,0,0,0,-1,678,1814,0,0
-539,-790,0,0,0,0,0,0,0,0,0,-1,685,1814,0,0
-532,-790,0,0,0,0,0,0,0,0,0,-1,692,1814,0,0
-525,-790,0,0,0,0,0,0,0,0,0,-1,699,1814,0,0
-518,-790,0,0,0,0,0,0,0,0,0,-1,706,1814,0,0
-511,-790,0,0,0,0,0,0,0,0,0,-1,713,1814,0,0
-504,-790,0,0,0,0,0,0,0,0,0,-1,720,1814,0,0
-497,-790,0,0,0,0,0,0,0,0,0,-1,727,1814,0,0
-490,-790,0,0,0,0,0,0,0,0,0,-1,734,1814,0,0
-483,-790,0,0,0,0,0,0,0,0,0,-1,741,1814,0,0
-476,-790,0,0,0,0,0,0,0,0,0,-1,748,1814,0,0
-469,-790,0,0,0,0,0,0,0,0,0,-1,755,1814,0,0
-462,-790,0,0,0,0,0,0,0,0,0,-1,762,1814,0,0
-455,-790,0,0,0,0,0,0,0,0,0,-1,769,1814,0,0
-448,-790,0,0,0,0,0,0,0,0,0,-1,776,1814,0,0
-441,-790,0,0,0,0,0,0,0,0,0,-1,783,1814,0,0
-434,-790,0,0,0,0,0,0,0,0,0,-1,790,1814,0,0
-427,-790,0,0,0,0,0,0,0,0,0,-1,797,1814,0,0
-420,-790,0,0,0,0,0,0,0,0,0,-1,804,1814,0,0
-413,-790,0,0,0,0,0,0,0,0,0,-1,811,1814,0,0
-406,-790,0,0,0,0,0,0,0,0,0,-1,818,1814,0,0
-399,-790,0,0,0,0,0,0,0,0,0,-1,825,1814,0,0
-392,-790,0,0,0,0,0,0,0,0,0,-1,832,1814,0,0
-385,-790,0,0,0,0,0,0,0,0,0,-1,839,1814,0,0
-378,-790,0,0,0,0,0,0,0,0,0,-1,846,1814,0,0
-371,-790,0,0,0,0,0,0,0,0,0,-1,853,1814,0,0
-364,-790,0,0,0,0,0,0,0,0,0,-1,860,1814,0,0
-357,-790,0,0,0,0,0,0,0,0,0,-1,867,1814,0,0
-350,-790,0,0,0,0,0,0,0,0,0,-1,874,1814,0,0
-343,-790,0,0,0,0,0,0,0,0,0,-1,881,1814,0,0
-336,-790,0,0,0,0,0,0,0,0,0,-1,888,1814,0,0
-329,-790,0,0,0,0,0,0,0,0,0,-1,895,1814,0,0
-322,-790,0,0,0,0,0,0,0,0,0,-1,902,1814,0,0
-315,-790,0,0,0,0,0,0,0,0,0,-1,909,1814,0,0
-308,-790,0,0,0,0,0,0,0,0,0,-1,916,1814,0,0
-301,-790,0,0,0,0,0,0,0,0,0,-1,923,1814,0,0
-294,-790,0,0,0,0,0,0,0,0,0,-1,930,1814,0,0
-287,-790,0,0,0,0,0,0,0,0,0,-1,937,1814,0,0
-280,-790,0,0,0,0,0,0,0,0,0,-1,944,1814,0,0
-273,-790,0,0,0,0,0,0,0,0,0,-1,951,1814,0,0
-266,-790,0,0,0,0,0,0,0,0,0,-1,958,1814,0,0
-259,-790,0,0,0,0,0,0,0,0,0,-1,965,1814,0,0
-252,-790,0,0,0,0,0,0,0,0,0,-1,972,1814,0,0
-245,-790,0,0,0,0,0,0,0,0,0,-1,979,1814,0,0
-238,-790,0,0,0,0,0,0,0,0,0,-1,986,1814,0,0
-231,-790,0,0,0,0,0,0,0,0,0,-1,993,1814,0,0
-224,-790,0,0,0,0,0,0,0,0,0,-1,1000,1814,0,0
-217,-790,0,0,0,0,0,0,0,0,0,-1,1007,1814,0,0
-210,-790,0,0,0,0,0,0,0,0,0,-1,1014,1814,0,0
-203,-790,0,0,0,0,0,0,0,0,0,-1,1021,1814,0,0
-196,-790,0,0,0,0,0,0,0,0,0,-1,1028,1814,0,0
-189,-790,0,0,0,0,0,0,0,0,0,-1,1035,1814,0,0
-182,-790,0,0,0,0,0,0,0,0,0,-1,1042,1814,0,0
-175,-790,0,0,0,0,0,0,0,0,0,-1,1049,1814,0,0
-168,-790,0,0,0,0,0,0,0,0,0,-1,1056,1814,0,0
-161,-790,0,0,0,0,0,0,0,0,0,-1,1063,1814,0,0
-154,-790,0,0,0,0,0,0,0,0,0,-1,1070,1814,0,0
-147,-790,0,0,0,0,0,0,0,0,0,-1,1077,1814,0,0
-140,-790,0,0,0,0,0,0,0,0,0,-1,1084,1814,0,0
-133,-790,0,0,0,0,0,0,0,0,0,-1,1091,1814,0,0
-126,-790,0,0,0,0,0,0,0,0,0,-1,1098,1814,0,0
-119,-790,0,0,0,0,0,0,0,0,0,-1,1105,1814,0,0
-112,-790,0,0,0,0,0,0,0,0,0,-1,1112,1814,0,0
-105,-790,0,0,0,0,0,0,0,0,0,-1,1119,1814,0,0
-98,-790,0,0,0,0,0,0,0,0,0,-1,1126,1814,0,0
-91,-790,0,0,0,0,0,0,0,0,0,-1,1133,1814,0,0
-84,-790,0,0,0,0,0,0,0,0,0,-1,1140,1814,0,0
-77,-790,-0.969238,5.30847,0,0,0,0,0,0,0,-1,1147,1814,-0.969277,-5.3085
-70,-790,-1.23169,4.98914,0,0,0,0,0,0,0,-1,1154,1814,-1.23163,-4.98916
-63,-790,-1.69128,4.32263,0,0,0,0,0,0,0,-1,1161,1814,-1.69128,-4.32258
-56,-790,-2.24756,3.75305,0,0,0,0,0,0,0,-1,1168,1814,-2.24758,-3.75302
-49,-790,-3.11011,3.35779,0,0,0,0,0,0,0,-1,1175,1814,-3.11006,-3.35781
-42,-790,0.593262,1.19165,0,0,0,0,0,0,0,-1,1182,1814,0.593225,-1.19165
-35,-790,0.307129,-0.20105,0,0,0,0,0,0,0,-1,1189,1814,0.307178,0.201006
-28,-790,-2.78467,0.785156,0,0,0,0,0,0,0,-1,1196,1814,-2.78471,-0.785183
-21,-790,9.1217,41.4879,0,0,0,0,0,0,0,-1,1203,1814,9.1217,-41.4879
-14,-790,9.84021,44.1638,0,0,0,0,0,0,0,-1,1210,1814,9.84024,-44.1638
-7,-790,10.1357,43.6998,0,0,0,0,0,0,0,-1,1217,1814,10.1357,-43.6998
0,-790,9.72009,43.9979,-0.0163456,0.0280449,0.00950864,0.029996,-0.0182967,1.36842,0.0281532,0.047593,1224,1814,9.72015,-43.9979
7,-790,9.30859,44.3107,-0.0176876,0.0275025,-0.00603532,0.0282947,-0.0184797,-1.44029,0.0272027,0.0431047,1231,1814,9.30863,-44.3107
14,-790,8.38916,45.4208,-0.0166508,0.0279542,-0.0225541,0.0373706,-0.0260672,-1.17529,0.0368191,0.0452388,1238,1814,8.38922,-45.4208
21,-790,9.28137,64.5751,0,0,0,0,0,0,0,-1,1245,1814,9.28132,-64.5751
28,-790,9.05176,62.5878,0,0,0,0,0,0,0,-1,1252,1814,9.05177,-62.5878
35,-790,8.76965,60.6199,-0.0119384,0.0341453,-0.0639248,0.0790542,-0.0568473,-0.958376,0.0788112,0.045658,1259,1814,8.76971,-60.6199
42,-790,8.44031,58.6749,-0.01099,0.0364338,-0.07373,0.090171,-0.0647272,-0.940977,0.0898318,0.0437881,1266,1814,8.44025,-58.675
49,-790,7.72961,55.6183,-0.0109036,0.0404478,-0.0804979,0.0992656,-0.0697214,-0.939778,0.0980605,0.0489224,1273,1814,7.72964,-55.6183
56,-790,7.8396,54.4181,0,0,0,0,0,0,0,-1,1280,1814,7.83955,-54.4181
63,-790,7.55798,52.4474,0,0,0,0,0,0,0,-1,1287,1814,7.55793,-52.4474
70,-790,7.77942,50.2969,0,0,0,0,0,0,0,-1,1294,1814,7.77938,-50.2969
77,-790,7.30823,48.5634,-0.00787985,0.0776266,-0.0802689,0.125818,-0.0560713,-1.0301,0.107557,0.0439536,1301,1814,7.30824,-48.5633
84,-790,6.83228,46.8398,-0.0085014,0.0903497,-0.0726912,0.128827,-0.0469786,-1.08397,0.105104,0.045718,1308,1814,6.83222,-46.8398
91,-790,6.29834,45.1139,0,0,0,0,0,0,0,-1,1315,1814,6.29829,-45.1139
98,-790,5.91077,43.8019,0,0,0,0,0,0,0,-1,1322,1814,5.91076,-43.8019
105,-790,5.74329,42.092,0,0,0,0,0,0,0,-1,1329,1814,5.74323,-42.092
112,-790,8.70557,45.9019,0,0,0,0,0,0,0,-1,1336,1814,8.70552,-45.9018
119,-790,8.53906,46.0837,0,0,0,0,0,0,0,-1,1343,1814,8.53903,-46.0837
126,-790,8.18726,46.1599,0,0,0,0,0,0,0,-1,1350,1814,8.18727,-46.1599
133,-790,5.6416,47.558,0,0,0,0,0,0,0,-1,1357,1814,5.64155,-47.558
140,-790,5.94641,46.3134,0,0,0,0,0,0,0,-1,1364,1814,5.94646,-46.3133
147,-790,-1.02405,53.5978,0,0,0,0,0,0,0,-1,1371,1814,-1.02405,-53.5978
154,-790,40.215,13.2396,0,0,0,0,0,0,0,-1,1378,1814,40.2149,-13.2396
161,-790,39.3429,13.0336,0,0,0,0,0,0,0,-1,1385,1814,39.3429,-13.0336
168,-790,7.04077,2.23279,0,0,0,0,0,0,0,-1,1392,1814,7.04082,-2.23275
175,-790,9.03918,3.98535,0,0,0,0,0,0,0,-1,1399,1814,9.0392,-3.98535
182,-790,8.96997,5.67896,0,0,0,0,0,0,0,-1,1406,1814,8.97001,-5.6789
189,-790,8.59729,6.86975,0,0,0,0,0,0,0,-1,1413,1814,8.59728,-6.86972
196,-790,8.21924,9.29053,0,0,0,0,0,0,0,-1,1420,1814,8.21924,-9.29048
203,-790,0,0,0,0,0,0,0,0,0,-1,1427,1814,0,0
210,-790,0,0,0,0,0,0,0,0,0,-1,1434,1814,0,0
217,-790,0,0,0,0,0,0,0,0,0,-1,1441,1814,0,0
224,-790,0,0,0,0,0,0,0,0,0,-1,1448,1814,0,0
231,-790,0,0,0,0,0,0,0,0,0,-1,1455,1814,0,0
238,-790,0,0,0,0,0,0,0,0,0,-1,1462,1814,0,0
245,-790,0,0,0,0,0,0,0,0,0,-1,1469,1814,0,0
252,-790,0,0,0,0,0,0,0,0,0,-1,1476,1814,0,0
259,-790,0,0,0,0,0,0,0,0,0,-1,1483,1814,0,0
266,-790,0,0,0,0,0,0,0,0,0,-1,1490,1814,0,0
273,-790,0,0,0,0,0,0,0,0,0,-1,1497,1814,0,0
280,-790,0,0,0,0,0,0,0,0,0,-1,1504,1814,0,0
287,-790,0,0,0,0,0,0,0,0,0,-1,1511,1814,0,0
294,-790,0,0,0,0,0,0,0,0,0,-1,1518,1814,0,0
301,-790,0,0,0,0,0,0,0,0,0,-1,1525,1814,0,0
308,-790,0,0,0,0,0,0,0,0,0,-1,1532,1814,0,0
315,-790,0,0,0,0,0,0,0,0,0,-1,1539,1814,0,0
322,-790,0,0,0,0,0,0,0,0,0,-1,1546,1814,0,0
329,-790,0,0,0,0,0,0,0,0,0,-1,1553,1814,0,0
336,-790,0,0,0,0,0,0,0,0,0,-1,1560,1814,0,0
343,-790,0,0,0,0,0,0,0,0,0,-1,1567,1814,0,0
350,-790,0,0,0,0,0,0,0,0,0,-1,1574,1814,0,0
357,-790,0,0,0,0,0,0,0,0,0,-1,1581,1814,0,0
364,-790,0,0,0,0,0,0,0,0,0,-1,1588,1814,0,0
371,-790,0,0,0,0,0,0,0,0,0,-1,1595,1814,0,0
378,-790,0,0,0,0,0,0,0,0,0,-1,1602,1814,0,0
385,-790,0,0,0,0,0,0,0,0,0,-1,1609,1814,0,0
392,-790,0,0,0,0,0,0,0,0,0,-1,1616,1814,0,0
399,-790,0,0,0,0,0,0,0,0,0,-1,1623,1814,0,0
406,-790,0,0,0,0,0,0,0,0,0,-1,1630,1814,0,0
413,-790,0,0,0,0,0,0,0,0,0,-1,1637,1814,0,0
420,-790,0,0,0,0,0,0,0,0,0,-1,1644,1814,0,0
427,-790,0,0,0,0,0,0,0,0,0,-1,1651,1814,0,0
434,-790,0,0,0,0,0,0,0,0,0,-1,1658,1814,0,0
441,-790,0,0,0,0,0,0,0,0,0,-1,1665,1814,0,0
448,-790,0,0,0,0,0,0,0,0,0,-1,1672,1814,0,0
455,-790,0,0,0,0,0,0,0,0,0,-1,1679,1814,0,0
462,-790,0,0,0,0,0,0,0,0,0,-1,1686,1814,0,0
469,-790,0,0,0,0,0,0,0,0,0,-1,1693,1814,0,0
476,-790,0,0,0,0,0,0,0,0,0,-1,1700,1814,0,0
483,-790,0,0,0,0,0,0,0,0,0,-1,1707,1814,0,0
490,-790,0,0,0,0,0,0,0,0,0,-1,1714,1814,0,0
497,-790,0,0,0,0,0,0,0,0,0,-1,1721,1814,0,0
504,-790,0,0,0,0,0,0,0,0,0,-1,1728,1814,0,0
511,-790,0,0,0,0,0,0,0,0,0,-1,1735,1814,0,0
518,-790,0,0,0,0,0,0,0,0,0,-1,1742,1814,0,0
525,-790,0,0,0,0,0,0,0,0,0,-1,1749,1814,0,0
532,-790,0,0,0,0,0,0,0,0,0,-1,1756,1814,0,0
539,-790,0,0,0,0,0,0,0,0,0,-1,1763,1814,0,0
546,-790,0,0,0,0,0,0,0,0,0,-1,1770,1814,0,0
553,-790,0,0,0,0,0,0,0,0,0,-1,1777,1814,0,0
560,-790,0,0,0,0,0,0,0,0,0,-1,1784,1814,0,0
567,-790,0,0,0,0,0,0,0,0,0,-1,1791,1814,0,0
574,-790,0,0,0,0,0,0,0,0,0,-1,1798,1814,0,0
581,-790,0,0,0,0,0,0,0,0,0,-1,1805,1814,0,0
588,-790,0,0,0,0,0,0,0,0,0,-1,1812,1814,0,0
595,-790,0,0,0,0,0,0,0,0,0,-1,1819,1814,0,0
602,-790,0,0,0,0,0,0,0,0,0,-1,1826,1814,0,0
609,-790,0,0,0,0,0,0,0,0,0,-1,1833,1814,0,0
616,-790,0,0,0,0,0,0,0,0,0,-1,1840,1814,0,0
623,-790,0,0,0,0,0,0,0,0,0,-1,1847,1814,0,0
630,-790,0,0,0,0,0,0,0,0,0,-1,1854,1814,0,0
637,-790,0,0,0,0,0,0,0,0,0,-1,1861,1814,0,0
644,-790,0,0,0,0,0,0,0,0,0,-1,1868,1814,0,0
651,-790,0,0,0,0,0,0,0,0,0,-1,1875,1814,0,0
658,-790,0,0,0,0,0,0,0,0,0,-1,1882,1814,0,0
665,-790,0,0,0,0,0,0,0,0,0,-1,1889,1814,0,0
672,-790,0,0,0,0,0,0,0,0,0,-1,1896,1814,0,0
679,-790,0,0,0,0,0,0,0,0,0,-1,1903,1814,0,0
686,-790,0,0,0,0,0,0,0,0,0,-1,1910,1814,0,0
693,-790,0,0,0,0,0,0,0,0,0,-1,1917,1814,0,0
700,-790,0,0,0,0,0,0,0,0,0,-1,1924,1814,0,0
707,-790,0,0,0,0,0,0,0,0,0,-1,1931,1814,0,0
714,-790,0,0,0,0,0,0,0,0,0,-1,1938,1814,0,0
721,-790,0,0,0,0,0,0,0,0,0,-1,1945,1814,0,0
728,-790,0,0,0,0,0,0,0,0,0,-1,1952,1814,0,0
735,-790,0,0,0,0,0,0,0,0,0,-1,1959,1814,0,0
742,-790,0,0,0,0,0,0,0,0,0,-1,1966,1814,0,0
749,-790,0,0,0,0,0,0,0,0,0,-1,1973,1814,0,0
756,-790,0,0,0,0,0,0,0,0,0,-1,1980,1814,0,0
763,-790,0,0,0,0,0,0,0,0,0,-1,1987,1814,0,0
770,-790,0,0,0,0,0,0,0,0,0,-1,1994,1814,0,0
777,-790,0,0,0,0,0,0,0,0,0,-1,2001,1814,0,0
784,-790,0,0,0,0,0,0,0,0,0,-1,2008,1814,0,0
791,-790,0,0,0,0,0,0,0,0,0,-1,2015,1814,0,0
798,-790,0,0,0,0,0,0,0,0,0,-1,2022,1814,0,0
805,-790,0,0,0,0,0,0,0,0,0,-1,2029,1814,0,0
812,-790,0,0,0,0,0,0,0,0,0,-1,2036,1814,0,0
-700,-797,0,0,0,0,0,0,0,0,0,-1,524,1821,0,0
-693,-797,0,0,0,0,0,0,0,0,0,-1,531,1821,0,0
-686,-797,0,0,0,0,0,0,0,0,0,-1,538,1821,0,0
-679,-797,0,0,0,0,0,0,0,0,0,-1,545,1821,0,0
-672,-797,0,0,0,0,0,0,0,0,0,-1,552,1821,0,0
-665,-797,0,0,0,0,0,0,0,0,0,-1,559,1821,0,0
-658,-797,0,0,0,0,0,0,0,0,0,-1,566,1821,0,0
-651,-797,0,0,0,0,0,0,0,0,0,-1,573,1821,0,0
-644,-797,0,0,0,0,0,0,0,0,0,-1,580,1821,0,0
-637,-797,0,0,0,0,0,0,0,0,0,-1,587,1821,0,0
-630,-797,0,0,0,0,0,0,0,0,0,-1,594,1821,0,0
-623,-797,0,0,0,0,0,0,0,0,0,-1,601,1821,0,0
-616,-797,0,0,0,0,0,0,0,0,0,-1,608,1821,0,0
-609,-797,0,0,0,0,0,0,0,0,0,-1,615,1821,0,0
-602,-797,0,0,0,0,0,0,0,0,0,-1,622,1821,0,0
-595,-797,0,0,0,0,0,0,0,0,0,-1,629,1821,0,0
-588,-797,0,0,0,0,0,0,0,0,0,-1,636,1821,0,0
-581,-797,0,0,0,0,0,0,0,0,0,-1,643,1821,0,0
-574,-797,0,0,0,0,0,0,0,0,0,-1,650,1821,0,0
-567,-797,0,0,0,0,0,0,0,0,0,-1,657,1821,0,0
-560,-797,0,0,0,0,0,0,0,0,0,-1,664,1821,0,0
-553,-797,0,0,0,0,0,0,0,0,0,-1,671,1821,0,0
-546,-797,0,0,0,0,0,0,0,0,0,-1,678,1821,0,0
-539,-797,0,0,0,0,0,0,0,0,0,-1,685,1821,0,0
-532,-797,0,0,0,0,0,0,0,0,0,-1,692,1821,0,0
-525,-797,0,0,0,0,0,0,0,0,0,-1,699,1821,0,0
-518,-797,0,0,0,0,0,0,0,0,0,-1,706,1821,0,0
-511,-797,0,0,0,0,0,0,0,0,0,-1,713,1821,0,0
-504,-797,0,0,0,0,0,0,0,0,0,-1,720,1821,0,0
-497,-797,0,0,0,0,0,0,0,0,0,-1,727,1821,0,0
-490,-797,0,0,0,0,0,0,0,0,0,-1,734,1821,0,0
-483,-797,0,0,0,0,0,0,0,0,0,-1,741,1821,0,0
-476,-797,0,0,0,0,0,0,0,0,0,-1,748,1821,0,0
-469,-797,0,0,0,0,0,0,0,0,0,-1,755,1821,0,0
-462,-797,0,0,0,0,0,0,0,0,0,-1,762,1821,0,0
-455,-797,0,0,0,0,0,0,0,0,0,-1,769,1821,0,0
-448,-797,0,0,0,0,0,0,0,0,0,-1,776,1821,0,0
-441,-797,0,0,0,0,0,0,0,0,0,-1,783,1821,0,0
-434,-797,0,0,0,0,0,0,0,0,0,-1,790,1821,0,0
-427,-797,0,0,0,0,0,0,0,0,0,-1,797,1821,0,0
-420,-797,0,0,0,0,0,0,0,0,0,-1,804,1821,0,0
-413,-797,0,0,0,0,0,0,0,0,0,-1,811,1821,0,0
-406,-797,0,0,0,0,0,0,0,0,0,-1,818,1821,0,0
-399,-797,0,0,0,0,0,0,0,0,0,-1,825,1821,0,0
-392,-797,0,0,0,0,0,0,0,0,0,-1,832,1821,0,0
-385,-797,0,0,0,0,0,0,0,0,0,-1,839,1821,0,0
-378,-797,0,0,0,0,0,0,0,0,0,-1,846,1821,0,0
-371,-797,0,0,0,0,0,0,0,0,0,-1,853,1821,0,0
-364,-797,0,0,0,0,0,0,0,0,0,-1,860,1821,0,0
-357,-797,0,0,0,0,0,0,0,0,0,-1,867,1821,0,0
-350,-797,0,0,0,0,0,0,0,0,0,-1,874,1821,0,0
-343,-797,0,0,0,0,0,0,0,0,0,-1,881,1821,0,0
-336,-797,0,0,0,0,0,0,0,0,0,-1,888,1821,0,0
-329,-797,0,0,0,0,0,0,0,0,0,-1,895,1821,0,0
-322,-797,0,0,0,0,0,0,0,0,0,-1,902,1821,0,0
-315,-797,0,0,0,0,0,0,0,0,0,-1,909,1821,0,0
-308,-797,0,0,0,0,0,0,0,0,0,-1,916,1821,0,0
-301,-797,0,0,0,0,0,0,0,0,0,-1,923,1821,0,0
-294,-797,0,0,0,0,0,0,0,0,0,-1,930,1821,0,0
-287,-797,0,0,0,0,0,0,0,0,0,-1,937,1821,0,0
-280,-797,0,0,0,0,0,0,0,0,0,-1,944,1821,0,0
-273,-797,0,0,0,0,0,0,0,0,0,-1,951,1821,0,0
-266,-797,0,0,0,0,0,0,0,0,0,-1,958,1821,0,0
-259,-797,0,0,0,0,0,0,0,0,0,-1,965,1821,0,0
-252,-797,0,0,0,0,0,0,0,0,0,-1,972,1821,0,0
-245,-797,0,0,0,0,0,0,0,0,0,-1,979,1821,0,0
-238,-797,0,0,0,0,0,0,0,0,0,-1,986,1821,0,0
-231,-797,0,0,0,0,0,0,0,0,0,-1,993,1821,0,0
-224,-797,0,0,0,0,0,0,0,0,0,-1,1000,1821,0,0
-217,-797,0,0,0,0,0,0,0,0,0,-1,1007,1821,0,0
-210,-797,0,0,0,0,0,0,0,0,0,-1,1014,1821,0,0
-203,-797,0,0,0,0,0,0,0,0,0,-1,1021,1821,0,0
-196,-797,0,0,0,0,0,0,0,0,0,-1,1028,1821,0,0
-189,-797,0,0,0,0,0,0,0,0,0,-1,1035,1821,0,0
-182,-797,0,0,0,0,0,0,0,0,0,-1,1042,1821,0,0
-175,-797,0,0,0,0,0,0,0,0,0,-1,1049,1821,0,0
-168,-797,0,0,0,0,0,0,0,0,0,-1,1056,1821,0,0
-161,-797,0,0,0,0,0,0,0,0,0,-1,1063,1821,0,0
-154,-797,0,0,0,0,0,0,0,0,0,-1,1070,1821,0,0
-147,-797,0,0,0,0,0,0,0,0,0,-1,1077,1821,0,0
-140,-797,0,0,0,0,0,0,0,0,0,-1,1084,1821,0,0
-133,-797,0,0,0,0,0,0,0,0,0,-1,1091,1821,0,0
-126,-797,0,0,0,0,0,0,0,0,0,-1,1098,1821,0,0
-119,-797,0,0,0,0,0,0,0,0,0,-1,1105,1821,0,0
-112,-797,0,0,0,0,0,0,0,0,0,-1,1112,1821,0,0
-105,-797,0,0,0,0,0,0,0,0,0,-1,1119,1821,0,0
-98,-797,0,0,0,0,0,0,0,0,0,-1,1126,1821,0,0
-91,-797,0,0,0,0,0,0,0,0,0,-1,1133,1821,0,0
-84,-797,0,0,0,0,0,0,0,0,0,-1,1140,1821,0,0
-77,-797,0,0,0,0,0,0,0,0,0,-1,1147,1821,0,0
-70,-797,0,0,0,0,0,0,0,0,0,-1,1154,1821,0,0
-63,-797,0,0,0,0,0,0,0,0,0,-1,1161,1821,0,0
-56,-797,0,0,0,0,0,0,0,0,0,-1,1168,1821,0,0
-49,-797,0,0,0,0,0,0,0,0,0,-1,1175,1821,0,0
-42,-797,0.579834,0.692871,0,0,0,0,0,0,0,-1,1182,1821,0.579856,-0.692816
-35,-797,-0.185425,5.55396,0,0,0,0,0,0,0,-1,1189,1821,-0.18542,-5.55396
-28,-797,-0.310181,4.71509,0,0,0,0,0,0,0,-1,1196,1821,-0.310228,-4.71503
-21,-797,9.08179,40.7666,0,0,0,0,0,0,0,-1,1203,1821,9.08179,-40.7666
-14,-797,6.00769,41.7832,0,0,0,0,0,0,0,-1,1210,1821,6.00767,-41.7832
-7,-797,9.15173,45.3787,0,0,0,0,0,0,0,-1,1217,1821,9.15179,-45.3787
0,-797,10.0051,43.6799,0,0,0,0,0,0,0,-1,1224,1821,10.0051,-43.6799
7,-797,8.75623,45.1984,-0.0206543,0.0332007,-0.013888,0.0365712,-0.0240247,-1.33271,0.0352342,0.0491985,1231,1821,8.75628,-45.1984
14,-797,8.75525,44.9955,-0.019334,0.0346265,-0.0348979,0.0517574,-0.036465,-1.11446,0.0511897,0.0446876,1238,1821,8.75521,-44.9955
21,-797,8.96143,44.4756,0,0,0,0,0,0,0,-1,1245,1821,8.96147,-44.4755
28,-797,8.81702,62.6652,0,0,0,0,0,0,0,-1,1252,1821,8.81706,-62.6652
35,-797,8.46765,60.4901,-0.0137995,0.0440605,-0.0833165,0.103327,-0.0730658,-0.952501,0.102339,0.0493255,1259,1821,8.46769,-60.4901
42,-797,8.09387,58.2767,-0.0124098,0.0472963,-0.0946725,0.116711,-0.0818245,-0.938129,0.115213,0.0472404,1266,1821,8.09393,-58.2767
49,-797,7.68738,55.8517,-0.0124737,0.0515158,-0.102684,0.127074,-0.0880321,-0.936423,0.124872,0.0488973,1273,1821,7.6874,-55.8517
56,-797,7.43518,53.8533,-0.0107719,0.0611722,-0.107221,0.138294,-0.0878941,-0.947245,0.131666,0.0464111,1280,1821,7.43519,-53.8533
63,-797,7.19604,51.8651,-0.00964284,0.0710298,-0.1102,0.148043,-0.0866564,-0.96084,0.13704,0.0400589,1287,1821,7.19602,-51.8651
70,-797,6.97229,49.855,-0.00984006,0.0806307,-0.108233,0.152701,-0.0819104,-0.983338,0.137493,0.0389057,1294,1821,6.97226,-49.855
77,-797,6.73962,48.1353,-0.0110834,0.0946892,-0.10065,0.155501,-0.0718956,-1.0273,0.134213,0.0420479,1301,1821,6.73958,-48.1353
84,-797,6.22083,46.4163,-0.0120382,0.110743,-0.0916443,0.159659,-0.060954,-1.08051,0.131552,0.0477314,1308,1821,6.2208,-46.4163
91,-797,5.65845,44.7358,0,0,0,0,0,0,0,-1,1315,1821,5.65843,-44.7359
98,-797,5.66296,43.9166,0,0,0,0,0,0,0,-1,1322,1821,5.66302,-43.9166
105,-797,5.71631,42.2898,0,0,0,0,0,0,0,-1,1329,1821,5.7163,-42.2898
112,-797,8.71716,45.3634,0,0,0,0,0,0,0,-1,1336,1821,8.71711,-45.3634
119,-797,8.63635,46.248,0,0,0,0,0,0,0,-1,1343,1821,8.63639,-46.2481
126,-797,1.19409,49.5975,0,0,0,0,0,0,0,-1,1350,1821,1.19413,-49.5975
133,-797,0.4646,50.7323,0,0,0,0,0,0,0,-1,1357,1821,0.464631,-50.7323
140,-797,-0.303955,51.6664,0,0,0,0,0,0,0,-1,1364,1821,-0.303898,-51.6664
147,-797,-1.03394,52.619,0,0,0,0,0,0,0,-1,1371,1821,-1.03394,-52.619
154,-797,40.2623,8.88733,0,0,0,0,0,0,0,-1,1378,1821,40.2623,-8.88731
161,-797,42.2798,8.17371,0,0,0,0,0,0,0,-1,1385,1821,42.2798,-8.17367
168,-797,0,0,0,0,0,0,0,0,0,-1,1392,1821,0,0
175,-797,0,0,0,0,0,0,0,0,0,-1,1399,1821,0,0
182,-797,0,0,0,0,0,0,0,0,0,-1,1406,1821,0,0
189,-797,0,0,0,0,0,0,0,0,0,-1,1413,1821,0,0
196,-797,0,0,0,0,0,0,0,0,0,-1,1420,1821,0,0
203,-797,0,0,0,0,0,0,0,0,0,-1,1427,1821,0,0
210,-797,0,0,0,0,0,0,0,0,0,-1,1434,1821,0,0
217,-797,0,0,0,0,0,0,0,0,0,-1,1441,1821,0,0
224,-797,0,0,0,0,0,0,0,0,0,-1,1448,1821,0,0
231,-797,0,0,0,0,0,0,0,0,0,-1,1455,1821,0,0
238,-797,0,0,0,0,0,0,0,0,0,-1,1462,1821,0,0
245,-797,0,0,0,0,0,0,0,0,0,-1,1469,1821,0,0
252,-797,0,0,0,0,0,0,0,0,0,-1,1476,1821,0,0
259,-797,0,0,0,0,0,0,0,0,0,-1,1483,1821,0,0
266,-797,0,0,0,0,0,0,0,0,0,-1,1490,1821,0,0
273,-797,0,0,0,0,0,0,0,0,0,-1,1497,1821,0,0
280,-797,0,0,0,0,0,0,0,0,0,-1,1504,1821,0,0
287,-797,0,0,0,0,0,0,0,0,0,-1,1511,1821,0,0
294,-797,0,0,0,0,0,0,0,0,0,-1,1518,1821,0,0
301,-797,0,0,0,0,0,0,0,0,0,-1,1525,1821,0,0
308,-797,0,0,0,0,0,0,0,0,0,-1,1532,1821,0,0
315,-797,0,0,0,0,0,0,0,0,0,-1,1539,1821,0,0
322,-797,0,0,0,0,0,0,0,0,0,-1,1546,1821,0,0
329,-797,0,0,0,0,0,0,0,0,0,-1,1553,1821,0,0
336,-797,0,0,0,0,0,0,0,0,0,-1,1560,1821,0,0
343,-797,0,0,0,0,0,0,0,0,0,-1,1567,1821,0,0
350,-797,0,0,0,0,0,0,0,0,0,-1,1574,1821,0,0
357,-797,0,0,0,0,0,0,0,0,0,-1,1581,1821,0,0
364,-797,0,0,0,0,0,0,0,0,0,-1,1588,1821,0,0
371,-797,0,0,0,0,0,0,0,0,0,-1,1595,1821,0,0
378,-797,0,0,0,0,0,0,0,0,0,-1,1602,1821,0,0
385,-797,0,0,0,0,0,0,0,0,0,-1,1609,1821,0,0
392,-797,0,0,0,0,0,0,0,0,0,-1,1616,1821,0,0
399,-797,0,0,0,0,0,0,0,0,0,-1,1623,1821,0,0
406,-797,0,0,0,0,0,0,0,0,0,-1,1630,1821,0,0
413,-797,0,0,0,0,0,0,0,0,0,-1,1637,1821,0,0
420,-797,0,0,0,0,0,0,0,0,0,-1,1644,1821,0,0
427,-797,0,0,0,0,0,0,0,0,0,-1,1651,1821,0,0
434,-797,0,0,0,0,0,0,0,0,0,-1,1658,1821,0,0
441,-797,0,0,0,0,0,0,0,0,0,-1,1665,1821,0,0
448,-797,0,0,0,0,0,0,0,0,0,-1,1672,1821,0,0
455,-797,0,0,0,0,0,0,0,0,0,-1,1679,1821,0,0
462,-797,0,0,0,0,0,0,0,0,0,-1,1686,1821,0,0
469,-797,0,0,0,0,0,0,0,0,0,-1,1693,1821,0,0
476,-797,0,0,0,0,0,0,0,0,0,-1,1700,1821,0,0
483,-797,0,0,0,0,0,0,0,0,0,-1,1707,1821,0,0
490,-797,0,0,0,0,0,0,0,0,0,-1,1714,1821,0,0
497,-797,0,0,0,0,0,0,0,0,0,-1,1721,1821,0,0
504,-797,0,0,0,0,0,0,0,0,0,-1,1728,1821,0,0
511,-797,0,0,0,0,0,0,0,0,0,-1,1735,1821,0,0
518,-797,0,0,0,0,0,0,0,0,0,-1,1742,1821,0,0
525,-797,0,0,0,0,0,0,0,0,0,-1,1749,1821,0,0
532,-797,0,0,0,0,0,0,0,0,0,-1,1756,1821,0,0
539,-797,0,0,0,0,0,0,0,0,0,-1,1763,1821,0,0
546,-797,0,0,0,0,0,0,0,0,0,-1,1770,1821,0,0
553,-797,0,0,0,0,0,0,0,0,0,-1,1777,1821,0,0
560,-797,0,0,0,0,0,0,0,0,0,-1,1784,1821,0,0
567,-797,0,0,0,0,0,0,0,0,0,-1,1791,1821,0,0
574,-797,0,0,0,0,0,0,0,0,0,-1,1798,1821,0,0
581,-797,0,0,0,0,0,0,0,0,0,-1,1805,1821,0,0
588,-797,0,0,0,0,0,0,0,0,0,-1,1812,1821,0,0
595,-797,0,0,0,0,0,0,0,0,0,-1,1819,1821,0,0
602,-797,0,0,0,0,0,0,0,0,0,-1,1826,1821,0,0
609,-797,0,0,0,0,0,0,0,0,0,-1,1833,1821,0,0
616,-797,0,0,0,0,0,0,0,0,0,-1,1840,1821,0,0
623,-797,0,0,0,0,0,0,0,0,0,-1,1847,1821,0,0
630,-797,0,0,0,0,0,0,0,0,0,-1,1854,1821,0,0
637,-797,0,0,0,0,0,0,0,0,0,-1,1861,1821,0,0
644,-797,0,0,0,0,0,0,0,0,0,-1,1868,1821,0,0
651,-797,0,0,0,0,0,0,0,0,0,-1,1875,1821,0,0
658,-797,0,0,0,0,0,0,0,0,0,-1,1882,1821,0,0
665,-797,0,0,0,0,0,0,0,0,0,-1,1889,1821,0,0
672,-797,0,0,0,0,0,0,0,0,0,-1,1896,1821,0,0
679,-797,0,0,0,0,0,0,0,0,0,-1,1903,1821,0,0
686,-797,0,0,0,0,0,0,0,0,0,-1,1910,1821,0,0
693,-797,0,0,0,0,0,0,0,0,0,-1,1917,1821,0,0
700,-797,0,0,0,0,0,0,0,0,0,-1,1924,1821,0,0
707,-797,0,0,0,0,0,0,0,0,0,-1,1931,1821,0,0
714,-797,0,0,0,0,0,0,0,0,0,-1,1938,1821,0,0
721,-797,0,0,0,0,0,0,0,0,0,-1,1945,1821,0,0
728,-797,0,0,0,0,0,0,0,0,0,-1,1952,1821,0,0
735,-797,0,0,0,0,0,0,0,0,0,-1,1959,1821,0,0
742,-797,0,0,0,0,0,0,0,0,0,-1,1966,1821,0,0
749,-797,0,0,0,0,0,0,0,0,0,-1,1973,1821,0,0
756,-797,0,0,0,0,0,0,0,0,0,-1,1980,1821,0,0
763,-797,0,0,0,0,0,0,0,0,0,-1,1987,1821,0,0
770,-797,0,0,0,0,0,0,0,0,0,-1,1994,1821,0,0
777,-797,0,0,0,0,0,0,0,0,0,-1,2001,1821,0,0
784,-797,0,0,0,0,0,0,0,0,0,-1,2008,1821,0,0
791,-797,0,0,0,0,0,0,0,0,0,-1,2015,1821,0,0
798,-797,0,0,0,0,0,0,0,0,0,-1,2022,1821,0,0
805,-797,0,0,0,0,0,0,0,0,0,-1,2029,1821,0,0
812,-797,0,0,0,0,0,0,0,0,0,-1,2036,1821,0,0
-700,-804,0,0,0,0,0,0,0,0,0,-1,524,1828,0,0
-693,-804,0,0,0,0,0,0,0,0,0,-1,531,1828,0,0
-686,-804,0,0,0,0,0,0,0,0,0,-1,538,1828,0,0
-679,-804,0,0,0,0,0,0,0,0,0,-1,545,1828,0,0
-672,-804,0,0,0,0,0,0,0,0,0,-1,552,1828,0,0
-665,-804,0,0,0,0,0,0,0,0,0,-1,559,1828,0,0
-658,-804,0,0,0,0,0,0,0,0,0,-1,566,1828,0,0
-651,-804,0,0,0,0,0,0,0,0,0,-1,573,1828,0,0
-644,-804,0,0,0,0,0,0,0,0,0,-1,580,1828,0,0
-637,-804,0,0,0,0,0,0,0,0,0,-1,587,1828,0,0
-630,-804,0,0,0,0,0,0,0,0,0,-1,594,1828,0,0
-623,-804,0,0,0,0,0,0,0,0,0,-1,601,1828,0,0
-616,-804,0,0,0,0,0,0,0,0,0,-1,608,1828,0,0
-609,-804,0,0,0,0,0,0,0,0,0,-1,615,1828,0,0
-602,-804,0,0,0,0,0,0,0,0,0,-1,622,1828,0,0
-595,-804,0,0,0,0,0,0,0,0,0,-1,629,1828,0,0
-588,-804,0,0,0,0,0,0,0,0,0,-1,636,1828,0,0
-581,-804,0,0,0,0,0,0,0,0,0,-1,643,1828,0,0
-574,-804,0,0,0,0,0,0,0,0,0,-1,650,1828,0,0
-567,-804,0,0,0,0,0,0,0,0,0,-1,657,1828,0,0
-560,-804,0,0,0,0,0,0,0,0,0,-1,664,1828,0,0
-553,-804,0,0,0,0,0,0,0,0,0,-1,671,1828,0,0
-546,-804,0,0,0,0,0,0,0,0,0,-1,678,1828,0,0
-539,-804,0,0,0,0,0,0,0,0,0,-1,685,1828,0,0
-532,-804,0,0,0,0,0,0,0,0,0,-1,692,1828,0,0
-525,-804,0,0,0,0,0,0,0,0,0,-1,699,1828,0,0
-518,-804,0,0,0,0,0,0,0,0,0,-1,706,1828,0,0
-511,-804,0,0,0,0,0,0,0,0,0,-1,713,1828,0,0
-504,-804,0,0,0,0,0,0,0,0,0,-1,720,1828,0,0
-497,-804,0,0,0,0,0,0,0,0,0,-1,727,1828,0,0
-490,-804,0,0,0,0,0,0,0,0,0,-1,734,1828,0,0
-483,-804,0,0,0,0,0,0,0,0,0,-1,741,1828,0,0
-476,-804,0,0,0,0,0,0,0,0,0,-1,748,1828,0,0
-469,-804,0,0,0,0,0,0,0,0,0,-1,755,1828,0,0
-462,-804,0,0,0,0,0,0,0,0,0,-1,762,1828,0,0
-455,-804,0,0,0,0,0,0,0,0,0,-1,769,1828,0,0
-448,-804,0,0,0,0,0,0,0,0,0,-1,776,1828,0,0
-441,-804,0,0,0,0,0,0,0,0,0,-1,783,1828,0,0
-434,-804,0,0,0,0,0,0,0,0,0,-1,790,1828,0,0
-427,-804,0,0,0,0,0,0,0,0,0,-1,797,1828,0,0
-420,-804,0,0,0,0,0,0,0,0,0,-1,804,1828,0,0
-413,-804,0,0,0,0,0,0,0,0,0,-1,811,1828,0,0
-406,-804,0,0,0,0,0,0,0,0,0,-1,818,1828,0,0
-399,-804,0,0,0,0,0,0,0,0,0,-1,825,1828,0,0
-392,-804,0,0,0,0,0,0,0,0,0,-1,832,1828,0,0
-385,-804,0,0,0,0,0,0,0,0,0,-1,839,1828,0,0
-378,-804,0,0,0,0,0,0,0,0,0,-1,846,1828,0,0
-371,-804,0,0,0,0,0,0,0,0,0,-1,853,1828,0,0
-364,-804,0,0,0,0,0,0,0,0,0,-1,860,1828,0,0
-357,-804,0,0,0,0,0,0,0,0,0,-1,867,1828,0,0
-350,-804,0,0,0,0,0,0,0,0,0,-1,874,1828,0,0
-343,-804,0,0,0,0,0,0,0,0,0,-1,881,1828,0,0
-336,-804,0,0,0,0,0,0,0,0,0,-1,888,1828,0,0
-329,-804,0,0,0,0,0,0,0,0,0,-1,895,1828,0,0
-322,-804,0,0,0,0,0,0,0,0,0,-1,902,1828,0,0
-315,-804,0,0,0,0,0,0,0,0,0,-1,909,1828,0,0
-308,-804,0,0,0,0,0,0,0,0,0,-1,916,1828,0,0
-301,-804,0,0,0,0,0,0,0,0,0,-1,923,1828,0,0
-294,-804,0,0,0,0,0,0,0,0,0,-1,930,1828,0,0
-287,-804,0,0,0,0,0,0,0,0,0,-1,937,1828,0,0
-280,-804,0,0,0,0,0,0,0,0,0,-1,944,1828,0,0
-273,-804,0,0,0,0,0,0,0,0,0,-1,951,1828,0,0
-266,-804,0,0,0,0,0,0,0,0,0,-1,958,1828,0,0
-259,-804,0,0,0,0,0,0,0,0,0,-1,965,1828,0,0
-252,-804,0,0,0,0,0,0,0,0,0,-1,972,1828,0,0
-245,-804,0,0,0,0,0,0,0,0,0,-1,979,1828,0,0
-238,-804,0,0,0,0,0,0,0,0,0,-1,986,1828,0,0
-231,-804,0,0,0,0,0,0,0,0,0,-1,993,1828,0,0
-224,-804,0,0,0,0,0,0,0,0,0,-1,1000,1828,0,0
-217,-804,0,0,0,0,0,0,0,0,0,-1,1007,1828,0,0
-210,-804,0,0,0,0,0,0,0,0,0,-1,1014,1828,0,0
-203,-804,0,0,0,0,0,0,0,0,0,-1,1021,1828,0,0
-196,-804,0,0,0,0,0,0,0,0,0,-1,1028,1828,0,0
-189,-804,0,0,0,0,0,0,0,0,0,-1,1035,1828,0,0
-182,-804,0,0,0,0,0,0,0,0,0,-1,1042,1828,0,0
-175,-804,0,0,0,0,0,0,0,0,0,-1,1049,1828,0,0
-168,-804,0,0,0,0,0,0,0,0,0,-1,1056,1828,0,0
-161,-804,0,0,0,0,0,0,0,0,0,-1,1063,1828,0,0
-154,-804,0,0,0,0,0,0,0,0,0,-1,1070,1828,0,0
-147,-804,0,0,0,0,0,0,0,0,0,-1,1077,1828,0,0
-140,-804,0,0,0,0,0,0,0,0,0,-1,1084,1828,0,0
-133,-804,0,0,0,0,0,0,0,0,0,-1,1091,1828,0,0
-126,-804,0,0,0,0,0,0,0,0,0,-1,1098,1828,0,0
-119,-804,0,0,0,0,0,0,0,0,0,-1,1105,1828,0,0
-112,-804,0,0,0,0,0,0,0,0,0,-1,1112,1828,0,0
-105,-804,0,0,0,0,0,0,0,0,0,-1,1119,1828,0,0
-98,-804,0,0,0,0,0,0,0,0,0,-1,1126,1828,0,0
-91,-804,0,0,0,0,0,0,0,0,0,-1,1133,1828,0,0
-84,-804,0,0,0,0,0,0,0,0,0,-1,1140,1828,0,0
-77,-804,0,0,0,0,0,0,0,0,0,-1,1147,1828,0,0
-70,-804,0,0,0,0,0,0,0,0,0,-1,1154,1828,0,0
-63,-804,0,0,0,0,0,0,0,0,0,-1,1161,1828,0,0
-56,-804,0,0,0,0,0,0,0,0,0,-1,1168,1828,0,0
-49,-804,0,0,0,0,0,0,0,0,0,-1,1175,1828,0,0
-42,-804,0,0,0,0,0,0,0,0,0,-1,1182,1828,0,0
-35,-804,0,0,0,0,0,0,0,0,0,-1,1189,1828,0,0
-28,-804,0,0,0,0,0,0,0,0,0,-1,1196,1828,0,0
-21,-804,0,0,0,0,0,0,0,0,0,-1,1203,1828,0,0
-14,-804,0,0,0,0,0,0,0,0,0,-1,1210,1828,0,0
-7,-804,0,0,0,0,0,0,0,0,0,-1,1217,1828,0,0
0,-804,0,0,0,0,0,0,0,0,0,-1,1224,1828,0,0
7,-804,0,0,0,0,0,0,0,0,0,-1,1231,1828,0,0
14,-804,0,0,0,0,0,0,0,0,0,-1,1238,1828,0,0
21,-804,0,0,0,0,0,0,0,0,0,-1,1245,1828,0,0
28,-804,0,0,0,0,0,0,0,0,0,-1,1252,1828,0,0
35,-804,8.12488,60.0964,0,0,0,0,0,0,0,-1,1259,1828,8.12487,-60.0964
42,-804,7.76111,57.8787,0,0,0,0,0,0,0,-1,1266,1828,7.76111,-57.8787
49,-804,7.23535,55.2198,0,0,0,0,0,0,0,-1,1273,1828,7.2354,-55.2198
56,-804,7.03088,53.2091,-0.0129707,0.073492,-0.133474,0.170562,-0.11004,-0.942013,0.163257,0.0449311,1280,1828,7.03085,-53.2091
63,-804,6.82153,51.228,-0.0124114,0.085063,-0.136135,0.180922,-0.10827,-0.957293,0.168712,0.0443606,1287,1828,6.82158,-51.228
70,-804,6.60693,49.2107,-0.013618,0.0967166,-0.132317,0.184906,-0.101807,-0.982908,0.167835,0.0457589,1294,1828,6.60697,-49.2106
77,-804,5.95313,47.7225,-0.0161286,0.113812,-0.122696,0.187677,-0.0899942,-1.02889,0.163587,0.0441846,1301,1828,5.95307,-47.7225
84,-804,5.60706,45.9653,0,0,0,0,0,0,0,-1,1308,1828,5.607,-45.9653
91,-804,0,0,0,0,0,0,0,0,0,-1,1315,1828,0,0
98,-804,0,0,0,0,0,0,0,0,0,-1,1322,1828,0,0
105,-804,0,0,0,0,0,0,0,0,0,-1,1329,1828,0,0
112,-804,0,0,0,0,0,0,0,0,0,-1,1336,1828,0,0
119,-804,0,0,0,0,0,0,0,0,0,-1,1343,1828,0,0
126,-804,0,0,0,0,0,0,0,0,0,-1,1350,1828,0,0
133,-804,0,0,0,0,0,0,0,0,0,-1,1357,1828,0,0
140,-804,0,0,0,0,0,0,0,0,0,-1,1364,1828,0,0
147,-804,0,0,0,0,0,0,0,0,0,-1,1371,1828,0,0
154,-804,0,0,0,0,0,0,0,0,0,-1,1378,1828,0,0
161,-804,0,0,0,0,0,0,0,0,0,-1,1385,1828,0,0
168,-804,0,0,0,0,0,0,0,0,0,-1,1392,1828,0,0
175,-804,0,0,0,0,0,0,0,0,0,-1,1399,1828,0,0
182,-804,0,0,0,0,0,0,0,0,0,-1,1406,1828,0,0
189,-804,0,0,0,0,0,0,0,0,0,-1,1413,1828,0,0
196,-804,0,0,0,0,0,0,0,0,0,-1,1420,1828,0,0
203,-804,0,0,0,0,0,0,0,0,0,-1,1427,1828,0,0
210,-804,0,0,0,0,0,0,0,0,0,-1,1434,1828,0,0
217,-804,0,0,0,0,0,0,0,0,0,-1,1441,1828,0,0
224,-804,0,0,0,0,0,0,0,0,0,-1,1448,1828,0,0
231,-804,0,0,0,0,0,0,0,0,0,-1,1455,1828,0,0
238,-804,0,0,0,0,0,0,0,0,0,-1,1462,1828,0,0
245,-804,0,0,0,0,0,0,0,0,0,-1,1469,1828,0,0
252,-804,0,0,0,0,0,0,0,0,0,-1,1476,1828,0,0
259,-804,0,0,0,0,0,0,0,0,0,-1,1483,1828,0,0
266,-804,0,0,0,0,0,0,0,0,0,-1,1490,1828,0,0
273,-804,0,0,0,0,0,0,0,0,0,-1,1497,1828,0,0
280,-804,0,0,0,0,0,0,0,0,0,-1,1504,1828,0,0
287,-804,0,0,0,0,0,0,0,0,0,-1,1511,1828,0,0
294,-804,0,0,0,0,0,0,0,0,0,-1,1518,1828,0,0
301,-804,0,0,0,0,0,0,0,0,0,-1,1525,1828,0,0
308,-804,0,0,0,0,0,0,0,0,0,-1,1532,1828,0,0
315,-804,0,0,0,0,0,0,0,0,0,-1,1539,1828,0,0
322,-804,0,0,0,0,0,0,0,0,0,-1,1546,1828,0,0
329,-804,0,0,0,0,0,0,0,0,0,-1,1553,1828,0,0
336,-804,0,0,0,0,0,0,0,0,0,-1,1560,1828,0,0
343,-804,0,0,0,0,0,0,0,0,0,-1,1567,1828,0,0
350,-804,0,0,0,0,0,0,0,0,0,-1,1574,1828,0,0
357,-804,0,0,0,0,0,0,0,0,0,-1,1581,1828,0,0
364,-804,0,0,0,0,0,0,0,0,0,-1,1588,1828,0,0
371,-804,0,0,0,0,0,0,0,0,0,-1,1595,1828,0,0
378,-804,0,0,0,0,0,0,0,0,0,-1,1602,1828,0,0
385,-804,0,0,0,0,0,0,0,0,0,-1,1609,1828,0,0
392,-804,0,0,0,0,0,0,0,0,0,-1,1616,1828,0,0
399,-804,0,0,0,0,0,0,0,0,0,-1,1623,1828,0,0
406,-804,0,0,0,0,0,0,0,0,0,-1,1630,1828,0,0
413,-804,0,0,0,0,0,0,0,0,0,-1,1637,1828,0,0
420,-804,0,0,0,0,0,0,0,0,0,-1,1644,1828,0,0
427,-804,0,0,0,0,0,0,0,0,0,-1,1651,1828,0,0
434,-804,0,0,0,0,0,0,0,0,0,-1,1658,1828,0,0
441,-804,0,0,0,0,0,0,0,0,0,-1,1665,1828,0,0
448,-804,0,0,0,0,0,0,0,0,0,-1,1672,1828,0,0
455,-804,0,0,0,0,0,0,0,0,0,-1,1679,1828,0,0
462,-804,0,0,0,0,0,0,0,0,0,-1,1686,1828,0,0
469,-804,0,0,0,0,0,0,0,0,0,-1,1693,1828,0,0
476,-804,0,0,0,0,0,0,0,0,0,-1,1700,1828,0,0
483,-804,0,0,0,0,0,0,0,0,0,-1,1707,1828,0,0
490,-804,0,0,0,0,0,0,0,0,0,-1,1714,1828,0,0
497,-804,0,0,0,0,0,0,0,0,0,-1,1721,1828,0,0
504,-804,0,0,0,0,0,0,0,0,0,-1,1728,1828,0,0
511,-804,0,0,0,0,0,0,0,0,0,-1,1735,1828,0,0
518,-804,0,0,0,0,0,0,0,0,0,-1,1742,1828,0,0
525,-804,0,0,0,0,0,0,0,0,0,-1,1749,1828,0,0
532,-804,0,0,0,0,0,0,0,0,0,-1,1756,1828,0,0
539,-804,0,0,0,0,0,0,0,0,0,-1,1763,1828,0,0
546,-804,0,0,0,0,0,0,0,0,0,-1,1770,1828,0,0
553,-804,0,0,0,0,0,0,0,0,0,-1,1777,1828,0,0
560,-804,0,0,0,0,0,0,0,0,0,-1,1784,1828,0,0
567,-804,0,0,0,0,0,0,0,0,0,-1,1791,1828,0,0
574,-804,0,0,0,0,0,0,0,0,0,-1,1798,1828,0,0
581,-804,0,0,0,0,0,0,0,0,0,-1,1805,1828,0,0
588,-804,0,0,0,0,0,0,0,0,0,-1,1812,1828,0,0
595,-804,0,0,0,0,0,0,0,0,0,-1,1819,1828,0,0
602,-804,0,0,0,0,0,0,0,0,0,-1,1826,1828,0,0
609,-804,0,0,0,0,0,0,0,0,0,-1,1833,1828,0,0
616,-804,0,0,0,0,0,0,0,0,0,-1,1840,1828,0,0
623,-804,0,0,0,0,0,0,0,0,0,-1,1847,1828,0,0
630,-804,0,0,0,0,0,0,0,0,0,-1,1854,1828,0,0
637,-804,0,0,0,0,0,0,0,0,0,-1,1861,1828,0,0
644,-804,0,0,0,0,0,0,0,0,0,-1,1868,1828,0,0
651,-804,0,0,0,0,0,0,0,0,0,-1,1875,1828,0,0
658,-804,0,0,0,0,0,0,0,0,0,-1,1882,1828,0,0
665,-804,0,0,0,0,0,0,0,0,0,-1,1889,1828,0,0
672,-804,0,0,0,0,0,0,0,0,0,-1,1896,1828,0,0
679,-804,0,0,0,0,0,0,0,0,0,-1,1903,1828,0,0
686,-804,0,0,0,0,0,0,0,0,0,-1,1910,1828,0,0
693,-804,0,0,0,0,0,0,0,0,0,-1,1917,1828,0,0
700,-804,0,0,0,0,0,0,0,0,0,-1,1924,1828,0,0
707,-804,0,0,0,0,0,0,0,0,0,-1,1931,1828,0,0
714,-804,0,0,0,0,0,0,0,0,0,-1,1938,1828,0,0
721,-804,0,0,0,0,0,0,0,0,0,-1,1945,1828,0,0
728,-804,0,0,0,0,0,0,0,0,0,-1,1952,1828,0,0
735,-804,0,0,0,0,0,0,0,0,0,-1,1959,1828,0,0
742,-804,0,0,0,0,0,0,0,0,0,-1,1966,1828,0,0
749,-804,0,0,0,0,0,0,0,0,0,-1,1973,1828,0,0
756,-804,0,0,0,0,0,0,0,0,0,-1,1980,1828,0,0
763,-804,0,0,0,0,0,0,0,0,0,-1,1987,1828,0,0
770,-804,0,0,0,0,0,0,0,0,0,-1,1994,1828,0,0
777,-804,0,0,0,0,0,0,0,0,0,-1,2001,1828,0,0
784,-804,0,0,0,0,0,0,0,0,0,-1,2008,1828,0,0
791,-804,0,0,0,0,0,0,0,0,0,-1,2015,1828,0,0
798,-804,0,0,0,0,0,0,0,0,0,-1,2022,1828,0,0
805,-804,0,0,0,0,0,0,0,0,0,-1,2029,1828,0,0
812,-804,0,0,0,0,0,0,0,0,0,-1,2036,1828,0,0

