 "x_c",  "y_c",  "u_c",  "v_c",  "exx",  "eyy",  "exy",  "e1",  "e2",  "gamma",  "e_vonmises",  "sigma",  "x",  "y",  "u",  "v"
-700,715,0,0,0,0,0,0,0,0,0,-1,524,309,0,0
-693,715,0,0,0,0,0,0,0,0,0,-1,531,309,0,0
-686,715,0,0,0,0,0,0,0,0,0,-1,538,309,0,0
-679,715,0,0,0,0,0,0,0,0,0,-1,545,309,0,0
-672,715,0,0,0,0,0,0,0,0,0,-1,552,309,0,0
-665,715,0,0,0,0,0,0,0,0,0,-1,559,309,0,0
-658,715,0,0,0,0,0,0,0,0,0,-1,566,309,0,0
-651,715,0,0,0,0,0,0,0,0,0,-1,573,309,0,0
-644,715,0,0,0,0,0,0,0,0,0,-1,580,309,0,0
-637,715,0,0,0,0,0,0,0,0,0,-1,587,309,0,0
-630,715,0,0,0,0,0,0,0,0,0,-1,594,309,0,0
-623,715,0,0,0,0,0,0,0,0,0,-1,601,309,0,0
-616,715,0,0,0,0,0,0,0,0,0,-1,608,309,0,0
-609,715,0,0,0,0,0,0,0,0,0,-1,615,309,0,0
-602,715,0,0,0,0,0,0,0,0,0,-1,622,309,0,0
-595,715,0,0,0,0,0,0,0,0,0,-1,629,309,0,0
-588,715,0,0,0,0,0,0,0,0,0,-1,636,309,0,0
-581,715,0,0,0,0,0,0,0,0,0,-1,643,309,0,0
-574,715,0,0,0,0,0,0,0,0,0,-1,650,309,0,0
-567,715,0,0,0,0,0,0,0,0,0,-1,657,309,0,0
-560,715,0,0,0,0,0,0,0,0,0,-1,664,309,0,0
-553,715,0,0,0,0,0,0,0,0,0,-1,671,309,0,0
-546,715,0,0,0,0,0,0,0,0,0,-1,678,309,0,0
-539,715,0,0,0,0,0,0,0,0,0,-1,685,309,0,0
-532,715,0,0,0,0,0,0,0,0,0,-1,692,309,0,0
-525,715,0,0,0,0,0,0,0,0,0,-1,699,309,0,0
-518,715,0,0,0,0,0,0,0,0,0,-1,706,309,0,0
-511,715,0,0,0,0,0,0,0,0,0,-1,713,309,0,0
-504,715,0,0,0,0,0,0,0,0,0,-1,720,309,0,0
-497,715,0,0,0,0,0,0,0,0,0,-1,727,309,0,0
-490,715,0,0,0,0,0,0,0,0,0,-1,734,309,0,0
-483,715,0,0,0,0,0,0,0,0,0,-1,741,309,0,0
-476,715,0,0,0,0,0,0,0,0,0,-1,748,309,0,0
-469,715,0,0,0,0,0,0,0,0,0,-1,755,309,0,0
-462,715,0,0,0,0,0,0,0,0,0,-1,762,309,0,0
-455,715,0,0,0,0,0,0,0,0,0,-1,769,309,0,0
-448,715,0,0,0,0,0,0,0,0,0,-1,776,309,0,0
-441,715,0,0,0,0,0,0,0,0,0,-1,783,309,0,0
-434,715,0,0,0,0,0,0,0,0,0,-1,790,309,0,0
-427,715,0,0,0,0,0,0,0,0,0,-1,797,309,0,0
-420,715,0,0,0,0,0,0,0,0,0,-1,804,309,0,0
-413,715,0,0,0,0,0,0,0,0,0,-1,811,309,0,0
-406,715,0,0,0,0,0,0,0,0,0,-1,818,309,0,0
-399,715,0,0,0,0,0,0,0,0,0,-1,825,309,0,0
-392,715,0,0,0,0,0,0,0,0,0,-1,832,309,0,0
-385,715,0,0,0,0,0,0,0,0,0,-1,839,309,0,0
-378,715,0,0,0,0,0,0,0,0,0,-1,846,309,0,0
-371,715,0,0,0,0,0,0,0,0,0,-1,853,309,0,0
-364,715,0,0,0,0,0,0,0,0,0,-1,860,309,0,0
-357,715,0,0,0,0,0,0,0,0,0,-1,867,309,0,0
-350,715,0,0,0,0,0,0,0,0,0,-1,874,309,0,0
-343,715,0,0,0,0,0,0,0,0,0,-1,881,309,0,0
-336,715,0,0,0,0,0,0,0,0,0,-1,888,309,0,0
-329,715,0,0,0,0,0,0,0,0,0,-1,895,309,0,0
-322,715,0,0,0,0,0,0,0,0,0,-1,902,309,0,0
-315,715,0,0,0,0,0,0,0,0,0,-1,909,309,0,0
-308,715,0,0,0,0,0,0,0,0,0,-1,916,309,0,0
-301,715,0,0,0,0,0,0,0,0,0,-1,923,309,0,0
-294,715,0,0,0,0,0,0,0,0,0,-1,930,309,0,0
-287,715,0,0,0,0,0,0,0,0,0,-1,937,309,0,0
-280,715,0,0,0,0,0,0,0,0,0,-1,944,309,0,0
-273,715,0,0,0,0,0,0,0,0,0,-1,951,309,0,0
-266,715,0,0,0,0,0,0,0,0,0,-1,958,309,0,0
-259,715,0,0,0,0,0,0,0,0,0,-1,965,309,0,0
-252,715,0,0,0,0,0,0,0,0,0,-1,972,309,0,0
-245,715,0,0,0,0,0,0,0,0,0,-1,979,309,0,0
-238,715,0,0,0,0,0,0,0,0,0,-1,986,309,0,0
-231,715,0,0,0,0,0,0,0,0,0,-1,993,309,0,0
-224,715,0,0,0,0,0,0,0,0,0,-1,1000,309,0,0
-217,715,0,0,0,0,0,0,0,0,0,-1,1007,309,0,0
-210,715,0,0,0,0,0,0,0,0,0,-1,1014,309,0,0
-203,715,0,0,0,0,0,0,0,0,0,-1,1021,309,0,0
-196,715,0,0,0,0,0,0,0,0,0,-1,1028,309,0,0
-189,715,0,0,0,0,0,0,0,0,0,-1,1035,309,0,0
-182,715,0,0,0,0,0,0,0,0,0,-1,1042,309,0,0
-175,715,0,0,0,0,0,0,0,0,0,-1,1049,309,0,0
-168,715,0,0,0,0,0,0,0,0,0,-1,1056,309,0,0
-161,715,0,0,0,0,0,0,0,0,0,-1,1063,309,0,0
-154,715,0,0,0,0,0,0,0,0,0,-1,1070,309,0,0
-147,715,0,0,0,0,0,0,0,0,0,-1,1077,309,0,0
-140,715,0,0,0,0,0,0,0,0,0,-1,1084,309,0,0
-133,715,0,0,0,0,0,0,0,0,0,-1,1091,309,0,0
-126,715,0,0,0,0,0,0,0,0,0,-1,1098,309,0,0
-119,715,0,0,0,0,0,0,0,0,0,-1,1105,309,0,0
-112,715,0,0,0,0,0,0,0,0,0,-1,1112,309,0,0
-105,715,0,0,0,0,0,0,0,0,0,-1,1119,309,0,0
-98,715,0,0,0,0,0,0,0,0,0,-1,1126,309,0,0
-91,715,0,0,0,0,0,0,0,0,0,-1,1133,309,0,0
-84,715,0,0,0,0,0,0,0,0,0,-1,1140,309,0,0
-77,715,0,0,0,0,0,0,0,0,0,-1,1147,309,0,0
-70,715,0,0,0,0,0,0,0,0,0,-1,1154,309,0,0
-63,715,0,0,0,0,0,0,0,0,0,-1,1161,309,0,0
-56,715,0,0,0,0,0,0,0,0,0,-1,1168,309,0,0
-49,715,0,0,0,0,0,0,0,0,0,-1,1175,309,0,0
-42,715,0,0,0,0,0,0,0,0,0,-1,1182,309,0,0
-35,715,0,0,0,0,0,0,0,0,0,-1,1189,309,0,0
-28,715,0,0,0,0,0,0,0,0,0,-1,1196,309,0,0
-21,715,0,0,0,0,0,0,0,0,0,-1,1203,309,0,0
-14,715,0,0,0,0,0,0,0,0,0,-1,1210,309,0,0
-7,715,0,0,0,0,0,0,0,0,0,-1,1217,309,0,0
0,715,0,0,0,0,0,0,0,0,0,-1,1224,309,0,0
7,715,0,0,0,0,0,0,0,0,0,-1,1231,309,0,0
14,715,0,0,0,0,0,0,0,0,0,-1,1238,309,0,0
21,715,0,0,0,0,0,0,0,0,0,-1,1245,309,0,0
28,715,0,0,0,0,0,0,0,0,0,-1,1252,309,0,0
35,715,0,0,0,0,0,0,0,0,0,-1,1259,309,0,0
42,715,0,0,0,0,0,0,0,0,0,-1,1266,309,0,0
49,715,0,0,0,0,0,0,0,0,0,-1,1273,309,0,0
56,715,0,0,0,0,0,0,0,0,0,-1,1280,309,0,0
63,715,4.98767,-15.4769,0.0639476,0.0468035,-0.0143877,0.0721232,0.0386278,-0.51674,0.0416755,0.0433979,1287,309,4.98769,15.4769
70,715,4.5564,-16.4641,0.0751092,0.0440369,-0.0124997,0.0795133,0.0396327,-0.338757,0.0459071,0.0432499,1294,309,4.55641,16.4641
77,715,0,0,0,0,0,0,0,0,0,-1,1301,309,0,0
84,715,0,0,0,0,0,0,0,0,0,-1,1308,309,0,0
91,715,0,0,0,0,0,0,0,0,0,-1,1315,309,0,0
98,715,0,0,0,0,0,0,0,0,0,-1,1322,309,0,0
105,715,0,0,0,0,0,0,0,0,0,-1,1329,309,0,0
112,715,0,0,0,0,0,0,0,0,0,-1,1336,309,0,0
119,715,0,0,0,0,0,0,0,0,0,-1,1343,309,0,0
126,715,0,0,0,0,0,0,0,0,0,-1,1350,309,0,0
133,715,0,0,0,0,0,0,0,0,0,-1,1357,309,0,0
140,715,0,0,0,0,0,0,0,0,0,-1,1364,309,0,0
147,715,0,0,0,0,0,0,0,0,0,-1,1371,309,0,0
154,715,0,0,0,0,0,0,0,0,0,-1,1378,309,0,0
161,715,0,0,0,0,0,0,0,0,0,-1,1385,309,0,0
168,715,0,0,0,0,0,0,0,0,0,-1,1392,309,0,0
175,715,0,0,0,0,0,0,0,0,0,-1,1399,309,0,0
182,715,0,0,0,0,0,0,0,0,0,-1,1406,309,0,0
189,715,0,0,0,0,0,0,0,0,0,-1,1413,309,0,0
196,715,0,0,0,0,0,0,0,0,0,-1,1420,309,0,0
203,715,0,0,0,0,0,0,0,0,0,-1,1427,309,0,0
210,715,0,0,0,0,0,0,0,0,0,-1,1434,309,0,0
217,715,0,0,0,0,0,0,0,0,0,-1,1441,309,0,0
224,715,0,0,0,0,0,0,0,0,0,-1,1448,309,0,0
231,715,0,0,0,0,0,0,0,0,0,-1,1455,309,0,0
238,715,0,0,0,0,0,0,0,0,0,-1,1462,309,0,0
245,715,0,0,0,0,0,0,0,0,0,-1,1469,309,0,0
252,715,0,0,0,0,0,0,0,0,0,-1,1476,309,0,0
259,715,0,0,0,0,0,0,0,0,0,-1,1483,309,0,0
266,715,0,0,0,0,0,0,0,0,0,-1,1490,309,0,0
273,715,0,0,0,0,0,0,0,0,0,-1,1497,309,0,0
280,715,0,0,0,0,0,0,0,0,0,-1,1504,309,0,0
287,715,0,0,0,0,0,0,0,0,0,-1,1511,309,0,0
294,715,0,0,0,0,0,0,0,0,0,-1,1518,309,0,0
301,715,0,0,0,0,0,0,0,0,0,-1,1525,309,0,0
308,715,0,0,0,0,0,0,0,0,0,-1,1532,309,0,0
315,715,0,0,0,0,0,0,0,0,0,-1,1539,309,0,0
322,715,0,0,0,0,0,0,0,0,0,-1,1546,309,0,0
329,715,0,0,0,0,0,0,0,0,0,-1,1553,309,0,0
336,715,0,0,0,0,0,0,0,0,0,-1,1560,309,0,0
343,715,0,0,0,0,0,0,0,0,0,-1,1567,309,0,0
350,715,0,0,0,0,0,0,0,0,0,-1,1574,309,0,0
357,715,0,0,0,0,0,0,0,0,0,-1,1581,309,0,0
364,715,0,0,0,0,0,0,0,0,0,-1,1588,309,0,0
371,715,0,0,0,0,0,0,0,0,0,-1,1595,309,0,0
378,715,0,0,0,0,0,0,0,0,0,-1,1602,309,0,0
385,715,0,0,0,0,0,0,0,0,0,-1,1609,309,0,0
392,715,0,0,0,0,0,0,0,0,0,-1,1616,309,0,0
399,715,0,0,0,0,0,0,0,0,0,-1,1623,309,0,0
406,715,0,0,0,0,0,0,0,0,0,-1,1630,309,0,0
413,715,0,0,0,0,0,0,0,0,0,-1,1637,309,0,0
420,715,0,0,0,0,0,0,0,0,0,-1,1644,309,0,0
427,715,0,0,0,0,0,0,0,0,0,-1,1651,309,0,0
434,715,0,0,0,0,0,0,0,0,0,-1,1658,309,0,0
441,715,0,0,0,0,0,0,0,0,0,-1,1665,309,0,0
448,715,0,0,0,0,0,0,0,0,0,-1,1672,309,0,0
455,715,0,0,0,0,0,0,0,0,0,-1,1679,309,0,0
462,715,0,0,0,0,0,0,0,0,0,-1,1686,309,0,0
469,715,0,0,0,0,0,0,0,0,0,-1,1693,309,0,0
476,715,0,0,0,0,0,0,0,0,0,-1,1700,309,0,0
483,715,0,0,0,0,0,0,0,0,0,-1,1707,309,0,0
490,715,0,0,0,0,0,0,0,0,0,-1,1714,309,0,0
497,715,0,0,0,0,0,0,0,0,0,-1,1721,309,0,0
504,715,0,0,0,0,0,0,0,0,0,-1,1728,309,0,0
511,715,0,0,0,0,0,0,0,0,0,-1,1735,309,0,0
518,715,0,0,0,0,0,0,0,0,0,-1,1742,309,0,0
525,715,0,0,0,0,0,0,0,0,0,-1,1749,309,0,0
532,715,0,0,0,0,0,0,0,0,0,-1,1756,309,0,0
539,715,0,0,0,0,0,0,0,0,0,-1,1763,309,0,0
546,715,0,0,0,0,0,0,0,0,0,-1,1770,309,0,0
553,715,0,0,0,0,0,0,0,0,0,-1,1777,309,0,0
560,715,0,0,0,0,0,0,0,0,0,-1,1784,309,0,0
567,715,0,0,0,0,0,0,0,0,0,-1,1791,309,0,0
574,715,0,0,0,0,0,0,0,0,0,-1,1798,309,0,0
581,715,0,0,0,0,0,0,0,0,0,-1,1805,309,0,0
588,715,0,0,0,0,0,0,0,0,0,-1,1812,309,0,0
595,715,0,0,0,0,0,0,0,0,0,-1,1819,309,0,0
602,715,0,0,0,0,0,0,0,0,0,-1,1826,309,0,0
609,715,0,0,0,0,0,0,0,0,0,-1,1833,309,0,0
616,715,0,0,0,0,0,0,0,0,0,-1,1840,309,0,0
623,715,0,0,0,0,0,0,0,0,0,-1,1847,309,0,0
630,715,0,0,0,0,0,0,0,0,0,-1,1854,309,0,0
637,715,0,0,0,0,0,0,0,0,0,-1,1861,309,0,0
644,715,0,0,0,0,0,0,0,0,0,-1,1868,309,0,0
651,715,0,0,0,0,0,0,0,0,0,-1,1875,309,0,0
658,715,0,0,0,0,0,0,0,0,0,-1,1882,309,0,0
665,715,0,0,0,0,0,0,0,0,0,-1,1889,309,0,0
672,715,0,0,0,0,0,0,0,0,0,-1,1896,309,0,0
679,715,0,0,0,0,0,0,0,0,0,-1,1903,309,0,0
686,715,0,0,0,0,0,0,0,0,0,-1,1910,309,0,0
693,715,0,0,0,0,0,0,0,0,0,-1,1917,309,0,0
700,715,0,0,0,0,0,0,0,0,0,-1,1924,309,0,0
707,715,0,0,0,0,0,0,0,0,0,-1,1931,309,0,0
714,715,0,0,0,0,0,0,0,0,0,-1,1938,309,0,0
721,715,0,0,0,0,0,0,0,0,0,-1,1945,309,0,0
728,715,0,0,0,0,0,0,0,0,0,-1,1952,309,0,0
735,715,0,0,0,0,0,0,0,0,0,-1,1959,309,0,0
742,715,0,0,0,0,0,0,0,0,0,-1,1966,309,0,0
749,715,0,0,0,0,0,0,0,0,0,-1,1973,309,0,0
756,715,0,0,0,0,0,0,0,0,0,-1,1980,309,0,0
763,715,0,0,0,0,0,0,0,0,0,-1,1987,309,0,0
770,715,0,0,0,0,0,0,0,0,0,-1,1994,309,0,0
777,715,0,0,0,0,0,0,0,0,0,-1,2001,309,0,0
784,715,0,0,0,0,0,0,0,0,0,-1,2008,309,0,0
791,715,0,0,0,0,0,0,0,0,0,-1,2015,309,0,0
798,715,0,0,0,0,0,0,0,0,0,-1,2022,309,0,0
805,715,0,0,0,0,0,0,0,0,0,-1,2029,309,0,0
812,715,0,0,0,0,0,0,0,0,0,-1,2036,309,0,0
-700,708,0,0,0,0,0,0,0,0,0,-1,524,316,0,0
-693,708,0,0,0,0,0,0,0,0,0,-1,531,316,0,0
-686,708,0,0,0,0,0,0,0,0,0,-1,538,316,0,0
-679,708,0,0,0,0,0,0,0,0,0,-1,545,316,0,0
-672,708,0,0,0,0,0,0,0,0,0,-1,552,316,0,0
-665,708,0,0,0,0,0,0,0,0,0,-1,559,316,0,0
-658,708,0,0,0,0,0,0,0,0,0,-1,566,316,0,0
-651,708,0,0,0,0,0,0,0,0,0,-1,573,316,0,0
-644,708,0,0,0,0,0,0,0,0,0,-1,580,316,0,0
-637,708,0,0,0,0,0,0,0,0,0,-1,587,316,0,0
-630,708,0,0,0,0,0,0,0,0,0,-1,594,316,0,0
-623,708,0,0,0,0,0,0,0,0,0,-1,601,316,0,0
-616,708,0,0,0,0,0,0,0,0,0,-1,608,316,0,0
-609,708,0,0,0,0,0,0,0,0,0,-1,615,316,0,0
-602,708,0,0,0,0,0,0,0,0,0,-1,622,316,0,0
-595,708,0,0,0,0,0,0,0,0,0,-1,629,316,0,0
-588,708,0,0,0,0,0,0,0,0,0,-1,636,316,0,0
-581,708,0,0,0,0,0,0,0,0,0,-1,643,316,0,0
-574,708,0,0,0,0,0,0,0,0,0,-1,650,316,0,0
-567,708,0,0,0,0,0,0,0,0,0,-1,657,316,0,0
-560,708,0,0,0,0,0,0,0,0,0,-1,664,316,0,0
-553,708,0,0,0,0,0,0,0,0,0,-1,671,316,0,0
-546,708,0,0,0,0,0,0,0,0,0,-1,678,316,0,0
-539,708,0,0,0,0,0,0,0,0,0,-1,685,316,0,0
-532,708,0,0,0,0,0,0,0,0,0,-1,692,316,0,0
-525,708,0,0,0,0,0,0,0,0,0,-1,699,316,0,0
-518,708,0,0,0,0,0,0,0,0,0,-1,706,316,0,0
-511,708,0,0,0,0,0,0,0,0,0,-1,713,316,0,0
-504,708,0,0,0,0,0,0,0,0,0,-1,720,316,0,0
-497,708,0,0,0,0,0,0,0,0,0,-1,727,316,0,0
-490,708,0,0,0,0,0,0,0,0,0,-1,734,316,0,0
-483,708,0,0,0,0,0,0,0,0,0,-1,741,316,0,0
-476,708,0,0,0,0,0,0,0,0,0,-1,748,316,0,0
-469,708,0,0,0,0,0,0,0,0,0,-1,755,316,0,0
-462,708,0,0,0,0,0,0,0,0,0,-1,762,316,0,0
-455,708,0,0,0,0,0,0,0,0,0,-1,769,316,0,0
-448,708,0,0,0,0,0,0,0,0,0,-1,776,316,0,0
-441,708,0,0,0,0,0,0,0,0,0,-1,783,316,0,0
-434,708,0,0,0,0,0,0,0,0,0,-1,790,316,0,0
-427,708,0,0,0,0,0,0,0,0,0,-1,797,316,0,0
-420,708,0,0,0,0,0,0,0,0,0,-1,804,316,0,0
-413,708,0,0,0,0,0,0,0,0,0,-1,811,316,0,0
-406,708,0,0,0,0,0,0,0,0,0,-1,818,316,0,0
-399,708,0,0,0,0,0,0,0,0,0,-1,825,316,0,0
-392,708,0,0,0,0,0,0,0,0,0,-1,832,316,0,0
-385,708,0,0,0,0,0,0,0,0,0,-1,839,316,0,0
-378,708,0,0,0,0,0,0,0,0,0,-1,846,316,0,0
-371,708,0,0,0,0,0,0,0,0,0,-1,853,316,0,0
-364,708,0,0,0,0,0,0,0,0,0,-1,860,316,0,0
-357,708,0,0,0,0,0,0,0,0,0,-1,867,316,0,0
-350,708,0,0,0,0,0,0,0,0,0,-1,874,316,0,0
-343,708,0,0,0,0,0,0,0,0,0,-1,881,316,0,0
-336,708,0,0,0,0,0,0,0,0,0,-1,888,316,0,0
-329,708,0,0,0,0,0,0,0,0,0,-1,895,316,0,0
-322,708,0,0,0,0,0,0,0,0,0,-1,902,316,0,0
-315,708,0,0,0,0,0,0,0,0,0,-1,909,316,0,0
-308,708,0,0,0,0,0,0,0,0,0,-1,916,316,0,0
-301,708,0,0,0,0,0,0,0,0,0,-1,923,316,0,0
-294,708,0,0,0,0,0,0,0,0,0,-1,930,316,0,0
-287,708,0,0,0,0,0,0,0,0,0,-1,937,316,0,0
-280,708,0,0,0,0,0,0,0,0,0,-1,944,316,0,0
-273,708,0,0,0,0,0,0,0,0,0,-1,951,316,0,0
-266,708,0,0,0,0,0,0,0,0,0,-1,958,316,0,0
-259,708,0,0,0,0,0,0,0,0,0,-1,965,316,0,0
-252,708,0,0,0,0,0,0,0,0,0,-1,972,316,0,0
-245,708,0,0,0,0,0,0,0,0,0,-1,979,316,0,0
-238,708,0,0,0,0,0,0,0,0,0,-1,986,316,0,0
-231,708,0,0,0,0,0,0,0,0,0,-1,993,316,0,0
-224,708,0,0,0,0,0,0,0,0,0,-1,1000,316,0,0
-217,708,0,0,0,0,0,0,0,0,0,-1,1007,316,0,0
-210,708,0,0,0,0,0,0,0,0,0,-1,1014,316,0,0
-203,708,0,0,0,0,0,0,0,0,0,-1,1021,316,0,0
-196,708,0,0,0,0,0,0,0,0,0,-1,1028,316,0,0
-189,708,0,0,0,0,0,0,0,0,0,-1,1035,316,0,0
-182,708,0,0,0,0,0,0,0,0,0,-1,1042,316,0,0
-175,708,0,0,0,0,0,0,0,0,0,-1,1049,316,0,0
-168,708,0,0,0,0,0,0,0,0,0,-1,1056,316,0,0
-161,708,0,0,0,0,0,0,0,0,0,-1,1063,316,0,0
-154,708,0,0,0,0,0,0,0,0,0,-1,1070,316,0,0
-147,708,0,0,0,0,0,0,0,0,0,-1,1077,316,0,0
-140,708,0,0,0,0,0,0,0,0,0,-1,1084,316,0,0
-133,708,0,0,0,0,0,0,0,0,0,-1,1091,316,0,0
-126,708,0,0,0,0,0,0,0,0,0,-1,1098,316,0,0
-119,708,0,0,0,0,0,0,0,0,0,-1,1105,316,0,0
-112,708,0,0,0,0,0,0,0,0,0,-1,1112,316,0,0
-105,708,0,0,0,0,0,0,0,0,0,-1,1119,316,0,0
-98,708,0,0,0,0,0,0,0,0,0,-1,1126,316,0,0
-91,708,0,0,0,0,0,0,0,0,0,-1,1133,316,0,0
-84,708,0,0,0,0,0,0,0,0,0,-1,1140,316,0,0
-77,708,0,0,0,0,0,0,0,0,0,-1,1147,316,0,0
-70,708,0,0,0,0,0,0,0,0,0,-1,1154,316,0,0
-63,708,0,0,0,0,0,0,0,0,0,-1,1161,316,0,0
-56,708,0,0,0,0,0,0,0,0,0,-1,1168,316,0,0
-49,708,0,0,0,0,0,0,0,0,0,-1,1175,316,0,0
-42,708,0,0,0,0,0,0,0,0,0,-1,1182,316,0,0
-35,708,-2.71204,-6.31558,0,0,0,0,0,0,0,-1,1189,316,-2.712,6.3156
-28,708,-2.92371,-5.53253,0,0,0,0,0,0,0,-1,1196,316,-2.92375,5.53254
-21,708,-10.6349,-7.11816,0,0,0,0,0,0,0,-1,1203,316,-10.6349,7.11818
-14,708,3.20532,-17.442,0,0,0,0,0,0,0,-1,1210,316,3.20535,17.442
-7,708,2.5127,-17.4412,0,0,0,0,0,0,0,-1,1217,316,2.51267,17.4412
0,708,2.65991,-16.1986,0,0,0,0,0,0,0,-1,1224,316,2.6599,16.1986
7,708,2.34656,-16.1671,-0.00840119,0.0412047,-0.0473421,0.0698477,-0.0370441,-1.02669,0.0626752,0.0445341,1231,316,2.3465,16.1671
14,708,1.89697,-16.3816,-0.00161621,0.0419989,-0.0431048,0.0684986,-0.0281159,-1.01958,0.0573816,0.0428965,1238,316,1.89701,16.3816
21,708,1.3717,-16.9885,0.0025048,0.0412682,-0.0375675,0.064159,-0.0203861,-1.02355,0.0509463,0.0422698,1245,316,1.37172,16.9885
28,708,1.90613,-17.3334,0.00805427,0.0414841,-0.0303498,0.0594174,-0.00987906,-1.0371,0.0432821,0.0447881,1252,316,1.90615,17.3334
35,708,2.52161,-17.5376,0.0162159,0.0441332,-0.0246092,0.0584669,0.00188218,-1.04338,0.0383659,0.0459638,1259,316,2.52157,17.5376
42,708,3.68555,-18.7414,0,0,0,0,0,0,0,-1,1266,316,3.68553,18.7414
49,708,3.79187,-18.1124,0.0364672,0.0448195,-0.013714,0.0549791,0.0263076,-0.933196,0.031752,0.0452724,1273,316,3.79187,18.1124
56,708,1.54858,-16.2039,0.0471401,0.0432865,-0.00932107,0.0547314,0.0356952,-0.683478,0.0320834,0.0453923,1280,316,1.54852,16.2038
63,708,4.60095,-15.877,0.0581735,0.0404212,-0.0064471,0.0602678,0.0383269,-0.314094,0.0352217,0.0438772,1287,316,4.60095,15.877
70,708,4.54688,-16.538,0.0682593,0.0377372,-0.0043647,0.0688712,0.0371253,-0.139283,0.0398032,0.0435834,1294,316,4.54686,16.538
77,708,4.45361,-16.3604,0.0776518,0.0343698,-0.0032451,0.0778937,0.0341278,-0.0744212,0.0450866,0.0444795,1301,316,4.45358,16.3604
84,708,4.28015,-16.1551,0.0847187,0.0293327,-0.00373277,0.0849691,0.0290823,-0.0669918,0.049864,0.0449329,1308,316,4.28014,16.1551
91,708,6.27966,-17.915,0.0907146,0.0222713,-0.00430813,0.0909847,0.0220012,-0.0626152,0.0548148,0.047156,1315,316,6.27961,17.9151
98,708,6.4574,-18.6987,0,0,0,0,0,0,0,-1,1322,316,6.45737,18.6987
105,708,6.83496,-18.2196,0.0967747,0.00698989,-0.00734218,0.0973711,0.00639344,-0.0810577,0.0628914,0.0462313,1329,316,6.835,18.2196
112,708,7.39502,-18.1354,0.0931512,2.1071e-05,-0.00649071,0.0936013,-0.000429124,-0.0692489,0.0625444,0.0477686,1336,316,7.395,18.1354
119,708,7.97095,-18.451,0.0913135,-0.00560945,-0.00482062,0.0915526,-0.00584862,-0.0495736,0.0630751,0.0470167,1343,316,7.97098,18.451
126,708,8.52856,-18.8172,0,0,0,0,0,0,0,-1,1350,316,8.52859,18.8172
133,708,9.19006,-18.8368,0,0,0,0,0,0,0,-1,1357,316,9.19007,18.8368
140,708,9.89282,-18.7733,0,0,0,0,0,0,0,-1,1364,316,9.89286,18.7733
147,708,1.32983,-16.7514,0,0,0,0,0,0,0,-1,1371,316,1.32982,16.7514
154,708,0,0,0,0,0,0,0,0,0,-1,1378,316,0,0
161,708,0,0,0,0,0,0,0,0,0,-1,1385,316,0,0
168,708,0,0,0,0,0,0,0,0,0,-1,1392,316,0,0
175,708,0,0,0,0,0,0,0,0,0,-1,1399,316,0,0
182,708,0,0,0,0,0,0,0,0,0,-1,1406,316,0,0
189,708,0,0,0,0,0,0,0,0,0,-1,1413,316,0,0
196,708,0,0,0,0,0,0,0,0,0,-1,1420,316,0,0
203,708,0,0,0,0,0,0,0,0,0,-1,1427,316,0,0
210,708,0,0,0,0,0,0,0,0,0,-1,1434,316,0,0
217,708,0,0,0,0,0,0,0,0,0,-1,1441,316,0,0
224,708,0,0,0,0,0,0,0,0,0,-1,1448,316,0,0
231,708,0,0,0,0,0,0,0,0,0,-1,1455,316,0,0
238,708,0,0,0,0,0,0,0,0,0,-1,1462,316,0,0
245,708,0,0,0,0,0,0,0,0,0,-1,1469,316,0,0
252,708,0,0,0,0,0,0,0,0,0,-1,1476,316,0,0
259,708,0,0,0,0,0,0,0,0,0,-1,1483,316,0,0
266,708,0,0,0,0,0,0,0,0,0,-1,1490,316,0,0
273,708,0,0,0,0,0,0,0,0,0,-1,1497,316,0,0
280,708,0,0,0,0,0,0,0,0,0,-1,1504,316,0,0
287,708,0,0,0,0,0,0,0,0,0,-1,1511,316,0,0
294,708,0,0,0,0,0,0,0,0,0,-1,1518,316,0,0
301,708,0,0,0,0,0,0,0,0,0,-1,1525,316,0,0
308,708,0,0,0,0,0,0,0,0,0,-1,1532,316,0,0
315,708,0,0,0,0,0,0,0,0,0,-1,1539,316,0,0
322,708,0,0,0,0,0,0,0,0,0,-1,1546,316,0,0
329,708,0,0,0,0,0,0,0,0,0,-1,1553,316,0,0
336,708,0,0,0,0,0,0,0,0,0,-1,1560,316,0,0
343,708,0,0,0,0,0,0,0,0,0,-1,1567,316,0,0
350,708,0,0,0,0,0,0,0,0,0,-1,1574,316,0,0
357,708,0,0,0,0,0,0,0,0,0,-1,1581,316,0,0
364,708,0,0,0,0,0,0,0,0,0,-1,1588,316,0,0
371,708,0,0,0,0,0,0,0,0,0,-1,1595,316,0,0
378,708,0,0,0,0,0,0,0,0,0,-1,1602,316,0,0
385,708,0,0,0,0,0,0,0,0,0,-1,1609,316,0,0
392,708,0,0,0,0,0,0,0,0,0,-1,1616,316,0,0
399,708,0,0,0,0,0,0,0,0,0,-1,1623,316,0,0
406,708,0,0,0,0,0,0,0,0,0,-1,1630,316,0,0
413,708,0,0,0,0,0,0,0,0,0,-1,1637,316,0,0
420,708,0,0,0,0,0,0,0,0,0,-1,1644,316,0,0
427,708,0,0,0,0,0,0,0,0,0,-1,1651,316,0,0
434,708,0,0,0,0,0,0,0,0,0,-1,1658,316,0,0
441,708,0,0,0,0,0,0,0,0,0,-1,1665,316,0,0
448,708,0,0,0,0,0,0,0,0,0,-1,1672,316,0,0
455,708,0,0,0,0,0,0,0,0,0,-1,1679,316,0,0
462,708,0,0,0,0,0,0,0,0,0,-1,1686,316,0,0
469,708,0,0,0,0,0,0,0,0,0,-1,1693,316,0,0
476,708,0,0,0,0,0,0,0,0,0,-1,1700,316,0,0
483,708,0,0,0,0,0,0,0,0,0,-1,1707,316,0,0
490,708,0,0,0,0,0,0,0,0,0,-1,1714,316,0,0
497,708,0,0,0,0,0,0,0,0,0,-1,1721,316,0,0
504,708,0,0,0,0,0,0,0,0,0,-1,1728,316,0,0
511,708,0,0,0,0,0,0,0,0,0,-1,1735,316,0,0
518,708,0,0,0,0,0,0,0,0,0,-1,1742,316,0,0
525,708,0,0,0,0,0,0,0,0,0,-1,1749,316,0,0
532,708,0,0,0,0,0,0,0,0,0,-1,1756,316,0,0
539,708,0,0,0,0,0,0,0,0,0,-1,1763,316,0,0
546,708,0,0,0,0,0,0,0,0,0,-1,1770,316,0,0
553,708,0,0,0,0,0,0,0,0,0,-1,1777,316,0,0
560,708,0,0,0,0,0,0,0,0,0,-1,1784,316,0,0
567,708,0,0,0,0,0,0,0,0,0,-1,1791,316,0,0
574,708,0,0,0,0,0,0,0,0,0,-1,1798,316,0,0
581,708,0,0,0,0,0,0,0,0,0,-1,1805,316,0,0
588,708,0,0,0,0,0,0,0,0,0,-1,1812,316,0,0
595,708,0,0,0,0,0,0,0,0,0,-1,1819,316,0,0
602,708,0,0,0,0,0,0,0,0,0,-1,1826,316,0,0
609,708,0,0,0,0,0,0,0,0,0,-1,1833,316,0,0
616,708,0,0,0,0,0,0,0,0,0,-1,1840,316,0,0
623,708,0,0,0,0,0,0,0,0,0,-1,1847,316,0,0
630,708,0,0,0,0,0,0,0,0,0,-1,1854,316,0,0
637,708,0,0,0,0,0,0,0,0,0,-1,1861,316,0,0
644,708,0,0,0,0,0,0,0,0,0,-1,1868,316,0,0
651,708,0,0,0,0,0,0,0,0,0,-1,1875,316,0,0
658,708,0,0,0,0,0,0,0,0,0,-1,1882,316,0,0
665,708,0,0,0,0,0,0,0,0,0,-1,1889,316,0,0
672,708,0,0,0,0,0,0,0,0,0,-1,1896,316,0,0
679,708,0,0,0,0,0,0,0,0,0,-1,1903,316,0,0
686,708,0,0,0,0,0,0,0,0,0,-1,1910,316,0,0
693,708,0,0,0,0,0,0,0,0,0,-1,1917,316,0,0
700,708,0,0,0,0,0,0,0,0,0,-1,1924,316,0,0
707,708,0,0,0,0,0,0,0,0,0,-1,1931,316,0,0
714,708,0,0,0,0,0,0,0,0,0,-1,1938,316,0,0
721,708,0,0,0,0,0,0,0,0,0,-1,1945,316,0,0
728,708,0,0,0,0,0,0,0,0,0,-1,1952,316,0,0
735,708,0,0,0,0,0,0,0,0,0,-1,1959,316,0,0
742,708,0,0,0,0,0,0,0,0,0,-1,1966,316,0,0
749,708,0,0,0,0,0,0,0,0,0,-1,1973,316,0,0
756,708,0,0,0,0,0,0,0,0,0,-1,1980,316,0,0
763,708,0,0,0,0,0,0,0,0,0,-1,1987,316,0,0
770,708,0,0,0,0,0,0,0,0,0,-1,1994,316,0,0
777,708,0,0,0,0,0,0,0,0,0,-1,2001,316,0,0
784,708,0,0,0,0,0,0,0,0,0,-1,2008,316,0,0
791,708,0,0,0,0,0,0,0,0,0,-1,2015,316,0,0
798,708,0,0,0,0,0,0,0,0,0,-1,2022,316,0,0
805,708,0,0,0,0,0,0,0,0,0,-1,2029,316,0,0
812,708,0,0,0,0,0,0,0,0,0,-1,2036,316,0,0
-700,701,0,0,0,0,0,0,0,0,0,-1,524,323,0,0
-693,701,0,0,0,0,0,0,0,0,0,-1,531,323,0,0
-686,701,0,0,0,0,0,0,0,0,0,-1,538,323,0,0
-679,701,0,0,0,0,0,0,0,0,0,-1,545,323,0,0
-672,701,0,0,0,0,0,0,0,0,0,-1,552,323,0,0
-665,701,0,0,0,0,0,0,0,0,0,-1,559,323,0,0
-658,701,0,0,0,0,0,0,0,0,0,-1,566,323,0,0
-651,701,0,0,0,0,0,0,0,0,0,-1,573,323,0,0
-644,701,0,0,0,0,0,0,0,0,0,-1,580,323,0,0
-637,701,0,0,0,0,0,0,0,0,0,-1,587,323,0,0
-630,701,0,0,0,0,0,0,0,0,0,-1,594,323,0,0
-623,701,0,0,0,0,0,0,0,0,0,-1,601,323,0,0
-616,701,0,0,0,0,0,0,0,0,0,-1,608,323,0,0
-609,701,0,0,0,0,0,0,0,0,0,-1,615,323,0,0
-602,701,0,0,0,0,0,0,0,0,0,-1,622,323,0,0
-595,701,0,0,0,0,0,0,0,0,0,-1,629,323,0,0
-588,701,0,0,0,0,0,0,0,0,0,-1,636,323,0,0
-581,701,0,0,0,0,0,0,0,0,0,-1,643,323,0,0
-574,701,0,0,0,0,0,0,0,0,0,-1,650,323,0,0
-567,701,0,0,0,0,0,0,0,0,0,-1,657,323,0,0
-560,701,0,0,0,0,0,0,0,0,0,-1,664,323,0,0
-553,701,0,0,0,0,0,0,0,0,0,-1,671,323,0,0
-546,701,0,0,0,0,0,0,0,0,0,-1,678,323,0,0
-539,701,0,0,0,0,0,0,0,0,0,-1,685,323,0,0
-532,701,0,0,0,0,0,0,0,0,0,-1,692,323,0,0
-525,701,0,0,0,0,0,0,0,0,0,-1,699,323,0,0
-518,701,0,0,0,0,0,0,0,0,0,-1,706,323,0,0
-511,701,0,0,0,0,0,0,0,0,0,-1,713,323,0,0
-504,701,0,0,0,0,0,0,0,0,0,-1,720,323,0,0
-497,701,0,0,0,0,0,0,0,0,0,-1,727,323,0,0
-490,701,0,0,0,0,0,0,0,0,0,-1,734,323,0,0
-483,701,0,0,0,0,0,0,0,0,0,-1,741,323,0,0
-476,701,0,0,0,0,0,0,0,0,0,-1,748,323,0,0
-469,701,0,0,0,0,0,0,0,0,0,-1,755,323,0,0
-462,701,0,0,0,0,0,0,0,0,0,-1,762,323,0,0
-455,701,0,0,0,0,0,0,0,0,0,-1,769,323,0,0
-448,701,0,0,0,0,0,0,0,0,0,-1,776,323,0,0
-441,701,0,0,0,0,0,0,0,0,0,-1,783,323,0,0
-434,701,0,0,0,0,0,0,0,0,0,-1,790,323,0,0
-427,701,0,0,0,0,0,0,0,0,0,-1,797,323,0,0
-420,701,0,0,0,0,0,0,0,0,0,-1,804,323,0,0
-413,701,0,0,0,0,0,0,0,0,0,-1,811,323,0,0
-406,701,0,0,0,0,0,0,0,0,0,-1,818,323,0,0
-399,701,0,0,0,0,0,0,0,0,0,-1,825,323,0,0
-392,701,0,0,0,0,0,0,0,0,0,-1,832,323,0,0
-385,701,0,0,0,0,0,0,0,0,0,-1,839,323,0,0
-378,701,0,0,0,0,0,0,0,0,0,-1,846,323,0,0
-371,701,0,0,0,0,0,0,0,0,0,-1,853,323,0,0
-364,701,0,0,0,0,0,0,0,0,0,-1,860,323,0,0
-357,701,0,0,0,0,0,0,0,0,0,-1,867,323,0,0
-350,701,0,0,0,0,0,0,0,0,0,-1,874,323,0,0
-343,701,0,0,0,0,0,0,0,0,0,-1,881,323,0,0
-336,701,0,0,0,0,0,0,0,0,0,-1,888,323,0,0
-329,701,0,0,0,0,0,0,0,0,0,-1,895,323,0,0
-322,701,0,0,0,0,0,0,0,0,0,-1,902,323,0,0
-315,701,0,0,0,0,0,0,0,0,0,-1,909,323,0,0
-308,701,0,0,0,0,0,0,0,0,0,-1,916,323,0,0
-301,701,0,0,0,0,0,0,0,0,0,-1,923,323,0,0
-294,701,0,0,0,0,0,0,0,0,0,-1,930,323,0,0
-287,701,0,0,0,0,0,0,0,0,0,-1,937,323,0,0
-280,701,0,0,0,0,0,0,0,0,0,-1,944,323,0,0
-273,701,0,0,0,0,0,0,0,0,0,-1,951,323,0,0
-266,701,0,0,0,0,0,0,0,0,0,-1,958,323,0,0
-259,701,0,0,0,0,0,0,0,0,0,-1,965,323,0,0
-252,701,0,0,0,0,0,0,0,0,0,-1,972,323,0,0
-245,701,0,0,0,0,0,0,0,0,0,-1,979,323,0,0
-238,701,0,0,0,0,0,0,0,0,0,-1,986,323,0,0
-231,701,0,0,0,0,0,0,0,0,0,-1,993,323,0,0
-224,701,0,0,0,0,0,0,0,0,0,-1,1000,323,0,0
-217,701,0,0,0,0,0,0,0,0,0,-1,1007,323,0,0
-210,701,0,0,0,0,0,0,0,0,0,-1,1014,323,0,0
-203,701,0,0,0,0,0,0,0,0,0,-1,1021,323,0,0
-196,701,0,0,0,0,0,0,0,0,0,-1,1028,323,0,0
-189,701,0,0,0,0,0,0,0,0,0,-1,1035,323,0,0
-182,701,0,0,0,0,0,0,0,0,0,-1,1042,323,0,0
-175,701,0,0,0,0,0,0,0,0,0,-1,1049,323,0,0
-168,701,0,0,0,0,0,0,0,0,0,-1,1056,323,0,0
-161,701,0,0,0,0,0,0,0,0,0,-1,1063,323,0,0
-154,701,0,0,0,0,0,0,0,0,0,-1,1070,323,0,0
-147,701,0,0,0,0,0,0,0,0,0,-1,1077,323,0,0
-140,701,0,0,0,0,0,0,0,0,0,-1,1084,323,0,0
-133,701,0,0,0,0,0,0,0,0,0,-1,1091,323,0,0
-126,701,0,0,0,0,0,0,0,0,0,-1,1098,323,0,0
-119,701,0,0,0,0,0,0,0,0,0,-1,1105,323,0,0
-112,701,0,0,0,0,0,0,0,0,0,-1,1112,323,0,0
-105,701,0,0,0,0,0,0,0,0,0,-1,1119,323,0,0
-98,701,0,0,0,0,0,0,0,0,0,-1,1126,323,0,0
-91,701,0,0,0,0,0,0,0,0,0,-1,1133,323,0,0
-84,701,0,0,0,0,0,0,0,0,0,-1,1140,323,0,0
-77,701,0,0,0,0,0,0,0,0,0,-1,1147,323,0,0
-70,701,-2.36731,-1.49271,0,0,0,0,0,0,0,-1,1154,323,-2.36729,1.4927
-63,701,-2.479,-0.295959,0,0,0,0,0,0,0,-1,1161,323,-2.47895,0.295961
-56,701,-0.420166,-0.101776,0,0,0,0,0,0,0,-1,1168,323,-0.420119,0.101777
-49,701,-1.09021,-0.155762,0,0,0,0,0,0,0,-1,1175,323,-1.09024,0.155768
-42,701,-0.210327,-0.299133,0,0,0,0,0,0,0,-1,1182,323,-0.210379,0.29914
-35,701,-2.9635,-7.98676,0,0,0,0,0,0,0,-1,1189,323,-2.9635,7.98676
-28,701,-6.64417,-5.4917,0,0,0,0,0,0,0,-1,1196,323,-6.64411,5.4917
-21,701,3.07043,-17.2656,0,0,0,0,0,0,0,-1,1203,323,3.07041,17.2656
-14,701,3.20251,-17.4131,-0.0149004,0.027965,-0.0333997,0.0462173,-0.0331528,-1.07066,0.0460308,0.0460144,1210,323,3.20254,17.4131
-7,701,2.87537,-17.677,-0.0119036,0.0319125,-0.0370485,0.0530458,-0.0330368,-1.05241,0.0501454,0.0463683,1217,323,2.87532,17.677
0,701,3.08691,-16.9561,0,0,0,0,0,0,0,-1,1224,323,3.08689,16.9561
7,701,2.86389,-16.8192,-0.00808604,0.0345262,-0.0357343,0.054824,-0.0283839,-1.05422,0.0488419,0.0471398,1231,323,2.86388,16.8192
14,701,2.44019,-16.7535,-0.00305669,0.0353918,-0.0324306,0.0538679,-0.0215328,-1.05295,0.0448471,0.0462613,1238,323,2.44019,16.7536
21,701,2.31372,-17.0659,0.000767761,0.0352687,-0.0278463,0.0507748,-0.0147384,-1.06271,0.0396857,0.0452333,1245,323,2.31374,17.066
28,701,2.5542,-17.3723,0.0059305,0.035712,-0.0220391,0.0474192,-0.00577679,-1.0825,0.0337039,0.0489884,1252,323,2.55421,17.3723
35,701,3.90283,-17.5877,0.0133051,0.0379778,-0.0173128,0.0468999,0.00438308,-1.09495,0.0299128,0.0454392,1259,323,3.90289,17.5877
42,701,3.36633,-18.4107,0.0224692,0.0382354,-0.0128446,0.0454231,0.0152816,-1.06062,0.0266887,0.0471264,1266,323,3.3663,18.4107
49,701,3.26135,-18.1198,0.0309835,0.0383249,-0.00810177,0.0435487,0.0257597,-0.998103,0.0252829,0.0466835,1273,323,3.26137,18.1197
56,701,2.01514,-16.7532,0.0403884,0.0369809,-0.00432132,0.0433297,0.0340396,-0.597624,0.0263416,0.0439737,1280,323,2.01515,16.7532
63,701,4.35974,-16.3947,0.0500861,0.0344756,-0.00178246,0.050287,0.0342746,-0.112258,0.0296645,0.044348,1287,323,4.35976,16.3946
70,701,4.50195,-16.5776,0.0588859,0.0321274,0.000235917,0.058888,0.0321253,0.0088156,0.0340459,0.0462129,1294,323,4.5019,16.5776
77,701,4.49951,-16.7615,0.0667151,0.0292817,0.00140586,0.0667679,0.029229,0.0374857,0.0386478,0.0473665,1301,323,4.49952,16.7615
84,701,5.255,-17.5866,0.0721709,0.0252808,0.00115507,0.0721993,0.0252523,0.0246135,0.0423069,0.0497363,1308,323,5.25496,17.5866
91,701,5.79797,-17.717,0.0763299,0.019784,0.000586899,0.076336,0.0197779,0.0103777,0.0457461,0.0456284,1315,323,5.79797,17.7171
98,701,6.14978,-17.9876,0.078875,0.0140566,-0.00109058,0.0788933,0.0140382,-0.0168188,0.0485968,0.0430886,1322,323,6.1498,17.9876
105,701,6.57654,-17.847,0.0803009,0.00854784,-0.00278981,0.0804092,0.00843954,-0.0388027,0.0510261,0.0470002,1329,323,6.57656,17.847
112,701,7.15845,-18.0811,0.0772329,0.00335878,-0.00287313,0.0773445,0.00324721,-0.0388141,0.0505154,0.0450993,1336,323,7.15847,18.0811
119,701,7.71863,-18.3921,0.0746523,-0.000945364,-0.00222065,0.0747175,-0.00101054,-0.0293409,0.0501519,0.0442213,1343,323,7.71859,18.3921
126,701,7.97791,-19.1193,0,0,0,0,0,0,0,-1,1350,323,7.9779,19.1193
133,701,8.63562,-18.4935,0,0,0,0,0,0,0,-1,1357,323,8.63566,18.4935
140,701,9.32166,-18.4447,0,0,0,0,0,0,0,-1,1364,323,9.32166,18.4447
147,701,2.0188,-16.2118,0,0,0,0,0,0,0,-1,1371,323,2.01886,16.2118
154,701,3.55212,-14.7139,0,0,0,0,0,0,0,-1,1378,323,3.5521,14.7139
161,701,4.85034,-13.1579,0,0,0,0,0,0,0,-1,1385,323,4.85033,13.1579
168,701,6.88513,-0.0237427,0,0,0,0,0,0,0,-1,1392,323,6.88517,0.0237498
175,701,6.94556,0.0693054,0,0,0,0,0,0,0,-1,1399,323,6.94555,-0.0692958
182,701,8.80652,5.42807,0,0,0,0,0,0,0,-1,1406,323,8.8065,-5.42808
189,701,8.58081,4.24493,0,0,0,0,0,0,0,-1,1413,323,8.58082,-4.24494
196,701,0,0,0,0,0,0,0,0,0,-1,1420,323,0,0
203,701,0,0,0,0,0,0,0,0,0,-1,1427,323,0,0
210,701,0,0,0,0,0,0,0,0,0,-1,1434,323,0,0
217,701,0,0,0,0,0,0,0,0,0,-1,1441,323,0,0
224,701,0,0,0,0,0,0,0,0,0,-1,1448,323,0,0
231,701,0,0,0,0,0,0,0,0,0,-1,1455,323,0,0
238,701,0,0,0,0,0,0,0,0,0,-1,1462,323,0,0
245,701,0,0,0,0,0,0,0,0,0,-1,1469,323,0,0
252,701,0,0,0,0,0,0,0,0,0,-1,1476,323,0,0
259,701,0,0,0,0,0,0,0,0,0,-1,1483,323,0,0
266,701,0,0,0,0,0,0,0,0,0,-1,1490,323,0,0
273,701,0,0,0,0,0,0,0,0,0,-1,1497,323,0,0
280,701,0,0,0,0,0,0,0,0,0,-1,1504,323,0,0
287,701,0,0,0,0,0,0,0,0,0,-1,1511,323,0,0
294,701,0,0,0,0,0,0,0,0,0,-1,1518,323,0,0
301,701,0,0,0,0,0,0,0,0,0,-1,1525,323,0,0
308,701,0,0,0,0,0,0,0,0,0,-1,1532,323,0,0
315,701,0,0,0,0,0,0,0,0,0,-1,1539,323,0,0
322,701,0,0,0,0,0,0,0,0,0,-1,1546,323,0,0
329,701,0,0,0,0,0,0,0,0,0,-1,1553,323,0,0
336,701,0,0,0,0,0,0,0,0,0,-1,1560,323,0,0
343,701,0,0,0,0,0,0,0,0,0,-1,1567,323,0,0
350,701,0,0,0,0,0,0,0,0,0,-1,1574,323,0,0
357,701,0,0,0,0,0,0,0,0,0,-1,1581,323,0,0
364,701,0,0,0,0,0,0,0,0,0,-1,1588,323,0,0
371,701,0,0,0,0,0,0,0,0,0,-1,1595,323,0,0
378,701,0,0,0,0,0,0,0,0,0,-1,1602,323,0,0
385,701,0,0,0,0,0,0,0,0,0,-1,1609,323,0,0
392,701,0,0,0,0,0,0,0,0,0,-1,1616,323,0,0
399,701,0,0,0,0,0,0,0,0,0,-1,1623,323,0,0
406,701,0,0,0,0,0,0,0,0,0,-1,1630,323,0,0
413,701,0,0,0,0,0,0,0,0,0,-1,1637,323,0,0
420,701,0,0,0,0,0,0,0,0,0,-1,1644,323,0,0
427,701,0,0,0,0,0,0,0,0,0,-1,1651,323,0,0
434,701,0,0,0,0,0,0,0,0,0,-1,1658,323,0,0
441,701,0,0,0,0,0,0,0,0,0,-1,1665,323,0,0
448,701,0,0,0,0,0,0,0,0,0,-1,1672,323,0,0
455,701,0,0,0,0,0,0,0,0,0,-1,1679,323,0,0
462,701,0,0,0,0,0,0,0,0,0,-1,1686,323,0,0
469,701,0,0,0,0,0,0,0,0,0,-1,1693,323,0,0
476,701,0,0,0,0,0,0,0,0,0,-1,1700,323,0,0
483,701,0,0,0,0,0,0,0,0,0,-1,1707,323,0,0
490,701,0,0,0,0,0,0,0,0,0,-1,1714,323,0,0
497,701,0,0,0,0,0,0,0,0,0,-1,1721,323,0,0
504,701,0,0,0,0,0,0,0,0,0,-1,1728,323,0,0
511,701,0,0,0,0,0,0,0,0,0,-1,1735,323,0,0
518,701,0,0,0,0,0,0,0,0,0,-1,1742,323,0,0
525,701,0,0,0,0,0,0,0,0,0,-1,1749,323,0,0
532,701,0,0,0,0,0,0,0,0,0,-1,1756,323,0,0
539,701,0,0,0,0,0,0,0,0,0,-1,1763,323,0,0
546,701,0,0,0,0,0,0,0,0,0,-1,1770,323,0,0
553,701,0,0,0,0,0,0,0,0,0,-1,1777,323,0,0
560,701,0,0,0,0,0,0,0,0,0,-1,1784,323,0,0
567,701,0,0,0,0,0,0,0,0,0,-1,1791,323,0,0
574,701,0,0,0,0,0,0,0,0,0,-1,1798,323,0,0
581,701,0,0,0,0,0,0,0,0,0,-1,1805,323,0,0
588,701,0,0,0,0,0,0,0,0,0,-1,1812,323,0,0
595,701,0,0,0,0,0,0,0,0,0,-1,1819,323,0,0
602,701,0,0,0,0,0,0,0,0,0,-1,1826,323,0,0
609,701,0,0,0,0,0,0,0,0,0,-1,1833,323,0,0
616,701,0,0,0,0,0,0,0,0,0,-1,1840,323,0,0
623,701,0,0,0,0,0,0,0,0,0,-1,1847,323,0,0
630,701,0,0,0,0,0,0,0,0,0,-1,1854,323,0,0
637,701,0,0,0,0,0,0,0,0,0,-1,1861,323,0,0
644,701,0,0,0,0,0,0,0,0,0,-1,1868,323,0,0
651,701,0,0,0,0,0,0,0,0,0,-1,1875,323,0,0
658,701,0,0,0,0,0,0,0,0,0,-1,1882,323,0,0
665,701,0,0,0,0,0,0,0,0,0,-1,1889,323,0,0
672,701,0,0,0,0,0,0,0,0,0,-1,1896,323,0,0
679,701,0,0,0,0,0,0,0,0,0,-1,1903,323,0,0
686,701,0,0,0,0,0,0,0,0,0,-1,1910,323,0,0
693,701,0,0,0,0,0,0,0,0,0,-1,1917,323,0,0
700,701,0,0,0,0,0,0,0,0,0,-1,1924,323,0,0
707,701,0,0,0,0,0,0,0,0,0,-1,1931,323,0,0
714,701,0,0,0,0,0,0,0,0,0,-1,1938,323,0,0
721,701,0,0,0,0,0,0,0,0,0,-1,1945,323,0,0
728,701,0,0,0,0,0,0,0,0,0,-1,1952,323,0,0
735,701,0,0,0,0,0,0,0,0,0,-1,1959,323,0,0
742,701,0,0,0,0,0,0,0,0,0,-1,1966,323,0,0
749,701,0,0,0,0,0,0,0,0,0,-1,1973,323,0,0
756,701,0,0,0,0,0,0,0,0,0,-1,1980,323,0,0
763,701,0,0,0,0,0,0,0,0,0,-1,1987,323,0,0
770,701,0,0,0,0,0,0,0,0,0,-1,1994,323,0,0
777,701,0,0,0,0,0,0,0,0,0,-1,2001,323,0,0
784,701,0,0,0,0,0,0,0,0,0,-1,2008,323,0,0
791,701,0,0,0,0,0,0,0,0,0,-1,2015,323,0,0
798,701,0,0,0,0,0,0,0,0,0,-1,2022,323,0,0
805,701,0,0,0,0,0,0,0,0,0,-1,2029,323,0,0
812,701,0,0,0,0,0,0,0,0,0,-1,2036,323,0,0
-700,694,0,0,0,0,0,0,0,0,0,-1,524,330,0,0
-693,694,0,0,0,0,0,0,0,0,0,-1,531,330,0,0
-686,694,0,0,0,0,0,0,0,0,0,-1,538,330,0,0
-679,694,0,0,0,0,0,0,0,0,0,-1,545,330,0,0
-672,694,0,0,0,0,0,0,0,0,0,-1,552,330,0,0
-665,694,0,0,0,0,0,0,0,0,0,-1,559,330,0,0
-658,694,0,0,0,0,0,0,0,0,0,-1,566,330,0,0
-651,694,0,0,0,0,0,0,0,0,0,-1,573,330,0,0
-644,694,0,0,0,0,0,0,0,0,0,-1,580,330,0,0
-637,694,0,0,0,0,0,0,0,0,0,-1,587,330,0,0
-630,694,0,0,0,0,0,0,0,0,0,-1,594,330,0,0
-623,694,0,0,0,0,0,0,0,0,0,-1,601,330,0,0
-616,694,0,0,0,0,0,0,0,0,0,-1,608,330,0,0
-609,694,0,0,0,0,0,0,0,0,0,-1,615,330,0,0
-602,694,0,0,0,0,0,0,0,0,0,-1,622,330,0,0
-595,694,0,0,0,0,0,0,0,0,0,-1,629,330,0,0
-588,694,0,0,0,0,0,0,0,0,0,-1,636,330,0,0
-581,694,0,0,0,0,0,0,0,0,0,-1,643,330,0,0
-574,694,0,0,0,0,0,0,0,0,0,-1,650,330,0,0
-567,694,0,0,0,0,0,0,0,0,0,-1,657,330,0,0
-560,694,0,0,0,0,0,0,0,0,0,-1,664,330,0,0
-553,694,0,0,0,0,0,0,0,0,0,-1,671,330,0,0
-546,694,0,0,0,0,0,0,0,0,0,-1,678,330,0,0
-539,694,0,0,0,0,0,0,0,0,0,-1,685,330,0,0
-532,694,0,0,0,0,0,0,0,0,0,-1,692,330,0,0
-525,694,0,0,0,0,0,0,0,0,0,-1,699,330,0,0
-518,694,0,0,0,0,0,0,0,0,0,-1,706,330,0,0
-511,694,0,0,0,0,0,0,0,0,0,-1,713,330,0,0
-504,694,0,0,0,0,0,0,0,0,0,-1,720,330,0,0
-497,694,0,0,0,0,0,0,0,0,0,-1,727,330,0,0
-490,694,0,0,0,0,0,0,0,0,0,-1,734,330,0,0
-483,694,0,0,0,0,0,0,0,0,0,-1,741,330,0,0
-476,694,0,0,0,0,0,0,0,0,0,-1,748,330,0,0
-469,694,0,0,0,0,0,0,0,0,0,-1,755,330,0,0
-462,694,0,0,0,0,0,0,0,0,0,-1,762,330,0,0
-455,694,0,0,0,0,0,0,0,0,0,-1,769,330,0,0
-448,694,0,0,0,0,0,0,0,0,0,-1,776,330,0,0
-441,694,0,0,0,0,0,0,0,0,0,-1,783,330,0,0
-434,694,0,0,0,0,0,0,0,0,0,-1,790,330,0,0
-427,694,0,0,0,0,0,0,0,0,0,-1,797,330,0,0
-420,694,0,0,0,0,0,0,0,0,0,-1,804,330,0,0
-413,694,0,0,0,0,0,0,0,0,0,-1,811,330,0,0
-406,694,0,0,0,0,0,0,0,0,0,-1,818,330,0,0
-399,694,0,0,0,0,0,0,0,0,0,-1,825,330,0,0
-392,694,0,0,0,0,0,0,0,0,0,-1,832,330,0,0
-385,694,0,0,0,0,0,0,0,0,0,-1,839,330,0,0
-378,694,0,0,0,0,0,0,0,0,0,-1,846,330,0,0
-371,694,0,0,0,0,0,0,0,0,0,-1,853,330,0,0
-364,694,0,0,0,0,0,0,0,0,0,-1,860,330,0,0
-357,694,0,0,0,0,0,0,0,0,0,-1,867,330,0,0
-350,694,0,0,0,0,0,0,0,0,0,-1,874,330,0,0
-343,694,0,0,0,0,0,0,0,0,0,-1,881,330,0,0
-336,694,0,0,0,0,0,0,0,0,0,-1,888,330,0,0
-329,694,0,0,0,0,0,0,0,0,0,-1,895,330,0,0
-322,694,0,0,0,0,0,0,0,0,0,-1,902,330,0,0
-315,694,0,0,0,0,0,0,0,0,0,-1,909,330,0,0
-308,694,0,0,0,0,0,0,0,0,0,-1,916,330,0,0
-301,694,0,0,0,0,0,0,0,0,0,-1,923,330,0,0
-294,694,0,0,0,0,0,0,0,0,0,-1,930,330,0,0
-287,694,0,0,0,0,0,0,0,0,0,-1,937,330,0,0
-280,694,0,0,0,0,0,0,0,0,0,-1,944,330,0,0
-273,694,0,0,0,0,0,0,0,0,0,-1,951,330,0,0
-266,694,0,0,0,0,0,0,0,0,0,-1,958,330,0,0
-259,694,0,0,0,0,0,0,0,0,0,-1,965,330,0,0
-252,694,0,0,0,0,0,0,0,0,0,-1,972,330,0,0
-245,694,0,0,0,0,0,0,0,0,0,-1,979,330,0,0
-238,694,0,0,0,0,0,0,0,0,0,-1,986,330,0,0
-231,694,0,0,0,0,0,0,0,0,0,-1,993,330,0,0
-224,694,0,0,0,0,0,0,0,0,0,-1,1000,330,0,0
-217,694,0,0,0,0,0,0,0,0,0,-1,1007,330,0,0
-210,694,0,0,0,0,0,0,0,0,0,-1,1014,330,0,0
-203,694,0,0,0,0,0,0,0,0,0,-1,1021,330,0,0
-196,694,0,0,0,0,0,0,0,0,0,-1,1028,330,0,0
-189,694,0,0,0,0,0,0,0,0,0,-1,1035,330,0,0
-182,694,0,0,0,0,0,0,0,0,0,-1,1042,330,0,0
-175,694,0,0,0,0,0,0,0,0,0,-1,1049,330,0,0
-168,694,0,0,0,0,0,0,0,0,0,-1,1056,330,0,0
-161,694,0,0,0,0,0,0,0,0,0,-1,1063,330,0,0
-154,694,0,0,0,0,0,0,0,0,0,-1,1070,330,0,0
-147,694,0,0,0,0,0,0,0,0,0,-1,1077,330,0,0
-140,694,0,0,0,0,0,0,0,0,0,-1,1084,330,0,0
-133,694,0,0,0,0,0,0,0,0,0,-1,1091,330,0,0
-126,694,0,0,0,0,0,0,0,0,0,-1,1098,330,0,0
-119,694,0,0,0,0,0,0,0,0,0,-1,1105,330,0,0
-112,694,0,0,0,0,0,0,0,0,0,-1,1112,330,0,0
-105,694,2.5188,-19.3963,0,0,0,0,0,0,0,-1,1119,330,2.51882,19.3963
-98,694,1.34875,-10.1051,0,0,0,0,0,0,0,-1,1126,330,1.34874,10.1051
-91,694,1.35474,-9.22229,0,0,0,0,0,0,0,-1,1133,330,1.35476,9.22229
-84,694,-4.39136,-4.62332,0,0,0,0,0,0,0,-1,1140,330,-4.3914,4.62331
-77,694,-4.93396,-10.2672,0,0,0,0,0,0,0,-1,1147,330,-4.9339,10.2672
-70,694,-6.49402,-10.0714,0,0,0,0,0,0,0,-1,1154,330,-6.49399,10.0714
-63,694,-5.80835,-4.75275,0,0,0,0,0,0,0,-1,1161,330,-5.80834,4.75274
-56,694,-6.50623,-0.649139,0,0,0,0,0,0,0,-1,1168,330,-6.5062,0.649126
-49,694,-1.11426,0.0341797,0,0,0,0,0,0,0,-1,1175,330,-1.11424,-0.0341846
-42,694,-0.346313,-0.709595,0,0,0,0,0,0,0,-1,1182,330,-0.346298,0.709581
-35,694,-0.459106,-1.24713,0,0,0,0,0,0,0,-1,1189,330,-0.459142,1.24714
-28,694,-6.48413,-3.95972,0,0,0,0,0,0,0,-1,1196,330,-6.48414,3.9597
-21,694,3.00635,-17.2782,0,0,0,0,0,0,0,-1,1203,330,3.00633,17.2782
-14,694,3.14526,-17.4884,-0.0110047,0.0234927,-0.0261696,0.0375867,-0.0250986,-1.07678,0.03643,0.0473591,1210,330,3.14521,17.4884
-7,694,3.23633,-17.6895,-0.00949486,0.0261958,-0.0281972,0.0417202,-0.0250192,-1.06752,0.0389321,0.0484037,1217,330,3.23636,17.6896
0,694,3.32385,-17.825,0,0,0,0,0,0,0,-1,1224,330,3.32386,17.8249
7,694,2.60107,-16.8166,0,0,0,0,0,0,0,-1,1231,330,2.60102,16.8165
14,694,2.7207,-17.0525,-0.00394118,0.0293881,-0.0239849,0.0419294,-0.0164824,-1.08901,0.0347745,0.0496054,1238,330,2.72069,17.0525
21,694,2.83459,-17.3017,-0.000620936,0.0296292,-0.0203479,0.0398577,-0.0108494,-1.10501,0.0308313,0.0457124,1245,330,2.83454,17.3017
28,694,2.96082,-17.522,0.00390974,0.0301721,-0.0158253,0.0376047,-0.00352285,-1.13171,0.0263228,0.048869,1252,330,2.96085,17.522
35,694,3.69043,-18.106,0.0102843,0.03205,-0.0120417,0.037398,0.00493636,-1.15284,0.0234603,0.0430374,1259,330,3.69042,18.106
42,694,3.01746,-18.3279,0.0179799,0.0322263,-0.00833915,0.0360703,0.0141358,-1.13886,0.0209868,0.0482289,1266,330,3.01743,18.3279
49,694,2.745,-18.2294,0.0252142,0.0322019,-0.00443819,0.0343564,0.0230596,-1.11885,0.0202195,0.0486386,1273,330,2.74502,18.2294
56,694,2.44885,-17.1642,0.0331978,0.0310839,-0.00128143,0.033802,0.0304798,-0.440544,0.0215129,0.0450153,1280,330,2.44883,17.1642
63,694,2.09155,-17.1557,0,0,0,0,0,0,0,-1,1287,330,2.09154,17.1557
70,694,4.01892,-17.162,0.048951,0.0270337,0.00274581,0.0492897,0.0266949,0.122753,0.0284903,0.042894,1294,330,4.01898,17.162
77,694,4.23096,-17.1365,0.0553365,0.0247313,0.00389638,0.0558248,0.024243,0.124662,0.0323232,0.0467977,1301,330,4.23099,17.1365
84,694,4.76709,-17.424,0.0594903,0.0216623,0.0038285,0.0598739,0.0212787,0.0998589,0.0350468,0.0467318,1308,330,4.76705,17.424
91,694,5.34802,-17.5489,0.0623184,0.0175053,0.00333886,0.0625658,0.0172579,0.0739622,0.0373129,0.046785,1315,330,5.34806,17.5489
98,694,5.95984,-17.5306,0.0639709,0.013353,0.00182429,0.0640365,0.0132873,0.0359782,0.0390234,0.0452242,1322,330,5.95985,17.5306
105,694,6.4613,-17.8149,0.0649564,0.00938933,3.96444e-05,0.0649564,0.00938931,0.000713451,0.0405386,0.0423822,1329,330,6.46129,17.8149
112,694,6.78589,-17.9877,0.0624024,0.00549375,-0.000508618,0.062407,0.0054892,-0.00893649,0.039901,0.0406434,1336,330,6.78583,17.9877
119,694,6.87048,-18.5078,0.0594327,0.00222151,-0.000419895,0.0594358,0.00221843,-0.00733885,0.0389055,0.0425583,1343,330,6.87046,18.5078
126,694,7.01306,-19.0982,0,0,0,0,0,0,0,-1,1350,330,7.01302,19.0982
133,694,7.18347,-19.5739,0,0,0,0,0,0,0,-1,1357,330,7.18347,19.5739
140,694,2.53772,-16.8741,0,0,0,0,0,0,0,-1,1364,330,2.53768,16.8741
147,694,2.72351,-15.7183,0,0,0,0,0,0,0,-1,1371,330,2.72354,15.7183
154,694,3.04565,-14.5061,0,0,0,0,0,0,0,-1,1378,330,3.04564,14.5061
161,694,2.12781,-15.6165,0,0,0,0,0,0,0,-1,1385,330,2.12786,15.6165
168,694,6.77161,1.01288,0,0,0,0,0,0,0,-1,1392,330,6.77156,-1.01287
175,694,6.72839,0.473175,0,0,0,0,0,0,0,-1,1399,330,6.72838,-0.473182
182,694,8.29028,5.75238,0,0,0,0,0,0,0,-1,1406,330,8.29034,-5.75237
189,694,7.9801,4.46118,0,0,0,0,0,0,0,-1,1413,330,7.9801,-4.46118
196,694,7.39331,3.32632,0,0,0,0,0,0,0,-1,1420,330,7.39329,-3.32633
203,694,7.04492,2.20529,0,0,0,0,0,0,0,-1,1427,330,7.04496,-2.20529
210,694,6.44714,0.646912,0,0,0,0,0,0,0,-1,1434,330,6.44717,-0.646903
217,694,7.12061,-0.644958,0,0,0,0,0,0,0,-1,1441,330,7.12059,0.644961
224,694,6.74011,-1.70544,0,0,0,0,0,0,0,-1,1448,330,6.74013,1.70546
231,694,0,0,0,0,0,0,0,0,0,-1,1455,330,0,0
238,694,0,0,0,0,0,0,0,0,0,-1,1462,330,0,0
245,694,0,0,0,0,0,0,0,0,0,-1,1469,330,0,0
252,694,0,0,0,0,0,0,0,0,0,-1,1476,330,0,0
259,694,0,0,0,0,0,0,0,0,0,-1,1483,330,0,0
266,694,0,0,0,0,0,0,0,0,0,-1,1490,330,0,0
273,694,0,0,0,0,0,0,0,0,0,-1,1497,330,0,0
280,694,0,0,0,0,0,0,0,0,0,-1,1504,330,0,0
287,694,0,0,0,0,0,0,0,0,0,-1,1511,330,0,0
294,694,0,0,0,0,0,0,0,0,0,-1,1518,330,0,0
301,694,0,0,0,0,0,0,0,0,0,-1,1525,330,0,0
308,694,0,0,0,0,0,0,0,0,0,-1,1532,330,0,0
315,694,0,0,0,0,0,0,0,0,0,-1,1539,330,0,0
322,694,0,0,0,0,0,0,0,0,0,-1,1546,330,0,0
329,694,0,0,0,0,0,0,0,0,0,-1,1553,330,0,0
336,694,0,0,0,0,0,0,0,0,0,-1,1560,330,0,0
343,694,0,0,0,0,0,0,0,0,0,-1,1567,330,0,0
350,694,0,0,0,0,0,0,0,0,0,-1,1574,330,0,0
357,694,0,0,0,0,0,0,0,0,0,-1,1581,330,0,0
364,694,0,0,0,0,0,0,0,0,0,-1,1588,330,0,0
371,694,0,0,0,0,0,0,0,0,0,-1,1595,330,0,0
378,694,0,0,0,0,0,0,0,0,0,-1,1602,330,0,0
385,694,0,0,0,0,0,0,0,0,0,-1,1609,330,0,0
392,694,0,0,0,0,0,0,0,0,0,-1,1616,330,0,0
399,694,0,0,0,0,0,0,0,0,0,-1,1623,330,0,0
406,694,0,0,0,0,0,0,0,0,0,-1,1630,330,0,0
413,694,0,0,0,0,0,0,0,0,0,-1,1637,330,0,0
420,694,0,0,0,0,0,0,0,0,0,-1,1644,330,0,0
427,694,0,0,0,0,0,0,0,0,0,-1,1651,330,0,0
434,694,0,0,0,0,0,0,0,0,0,-1,1658,330,0,0
441,694,0,0,0,0,0,0,0,0,0,-1,1665,330,0,0
448,694,0,0,0,0,0,0,0,0,0,-1,1672,330,0,0
455,694,0,0,0,0,0,0,0,0,0,-1,1679,330,0,0
462,694,0,0,0,0,0,0,0,0,0,-1,1686,330,0,0
469,694,0,0,0,0,0,0,0,0,0,-1,1693,330,0,0
476,694,0,0,0,0,0,0,0,0,0,-1,1700,330,0,0
483,694,0,0,0,0,0,0,0,0,0,-1,1707,330,0,0
490,694,0,0,0,0,0,0,0,0,0,-1,1714,330,0,0
497,694,0,0,0,0,0,0,0,0,0,-1,1721,330,0,0
504,694,0,0,0,0,0,0,0,0,0,-1,1728,330,0,0
511,694,0,0,0,0,0,0,0,0,0,-1,1735,330,0,0
518,694,0,0,0,0,0,0,0,0,0,-1,1742,330,0,0
525,694,0,0,0,0,0,0,0,0,0,-1,1749,330,0,0
532,694,0,0,0,0,0,0,0,0,0,-1,1756,330,0,0
539,694,0,0,0,0,0,0,0,0,0,-1,1763,330,0,0
546,694,0,0,0,0,0,0,0,0,0,-1,1770,330,0,0
553,694,0,0,0,0,0,0,0,0,0,-1,1777,330,0,0
560,694,0,0,0,0,0,0,0,0,0,-1,1784,330,0,0
567,694,0,0,0,0,0,0,0,0,0,-1,1791,330,0,0
574,694,0,0,0,0,0,0,0,0,0,-1,1798,330,0,0
581,694,0,0,0,0,0,0,0,0,0,-1,1805,330,0,0
588,694,0,0,0,0,0,0,0,0,0,-1,1812,330,0,0
595,694,0,0,0,0,0,0,0,0,0,-1,1819,330,0,0
602,694,0,0,0,0,0,0,0,0,0,-1,1826,330,0,0
609,694,0,0,0,0,0,0,0,0,0,-1,1833,330,0,0
616,694,0,0,0,0,0,0,0,0,0,-1,1840,330,0,0
623,694,0,0,0,0,0,0,0,0,0,-1,1847,330,0,0
630,694,0,0,0,0,0,0,0,0,0,-1,1854,330,0,0
637,694,0,0,0,0,0,0,0,0,0,-1,1861,330,0,0
644,694,0,0,0,0,0,0,0,0,0,-1,1868,330,0,0
651,694,0,0,0,0,0,0,0,0,0,-1,1875,330,0,0
658,694,0,0,0,0,0,0,0,0,0,-1,1882,330,0,0
665,694,0,0,0,0,0,0,0,0,0,-1,1889,330,0,0
672,694,0,0,0,0,0,0,0,0,0,-1,1896,330,0,0
679,694,0,0,0,0,0,0,0,0,0,-1,1903,330,0,0
686,694,0,0,0,0,0,0,0,0,0,-1,1910,330,0,0
693,694,0,0,0,0,0,0,0,0,0,-1,1917,330,0,0
700,694,0,0,0,0,0,0,0,0,0,-1,1924,330,0,0
707,694,0,0,0,0,0,0,0,0,0,-1,1931,330,0,0
714,694,0,0,0,0,0,0,0,0,0,-1,1938,330,0,0
721,694,0,0,0,0,0,0,0,0,0,-1,1945,330,0,0
728,694,0,0,0,0,0,0,0,0,0,-1,1952,330,0,0
735,694,0,0,0,0,0,0,0,0,0,-1,1959,330,0,0
742,694,0,0,0,0,0,0,0,0,0,-1,1966,330,0,0
749,694,0,0,0,0,0,0,0,0,0,-1,1973,330,0,0
756,694,0,0,0,0,0,0,0,0,0,-1,1980,330,0,0
763,694,0,0,0,0,0,0,0,0,0,-1,1987,330,0,0
770,694,0,0,0,0,0,0,0,0,0,-1,1994,330,0,0
777,694,0,0,0,0,0,0,0,0,0,-1,2001,330,0,0
784,694,0,0,0,0,0,0,0,0,0,-1,2008,330,0,0
791,694,0,0,0,0,0,0,0,0,0,-1,2015,330,0,0
798,694,0,0,0,0,0,0,0,0,0,-1,2022,330,0,0
805,694,0,0,0,0,0,0,0,0,0,-1,2029,330,0,0
812,694,0,0,0,0,0,0,0,0,0,-1,2036,330,0,0
-700,687,0,0,0,0,0,0,0,0,0,-1,524,337,0,0
-693,687,0,0,0,0,0,0,0,0,0,-1,531,337,0,0
-686,687,0,0,0,0,0,0,0,0,0,-1,538,337,0,0
-679,687,0,0,0,0,0,0,0,0,0,-1,545,337,0,0
-672,687,0,0,0,0,0,0,0,0,0,-1,552,337,0,0
-665,687,0,0,0,0,0,0,0,0,0,-1,559,337,0,0
-658,687,0,0,0,0,0,0,0,0,0,-1,566,337,0,0
-651,687,0,0,0,0,0,0,0,0,0,-1,573,337,0,0
-644,687,0,0,0,0,0,0,0,0,0,-1,580,337,0,0
-637,687,0,0,0,0,0,0,0,0,0,-1,587,337,0,0
-630,687,0,0,0,0,0,0,0,0,0,-1,594,337,0,0
-623,687,0,0,0,0,0,0,0,0,0,-1,601,337,0,0
-616,687,0,0,0,0,0,0,0,0,0,-1,608,337,0,0
-609,687,0,0,0,0,0,0,0,0,0,-1,615,337,0,0
-602,687,0,0,0,0,0,0,0,0,0,-1,622,337,0,0
-595,687,0,0,0,0,0,0,0,0,0,-1,629,337,0,0
-588,687,0,0,0,0,0,0,0,0,0,-1,636,337,0,0
-581,687,0,0,0,0,0,0,0,0,0,-1,643,337,0,0
-574,687,0,0,0,0,0,0,0,0,0,-1,650,337,0,0
-567,687,0,0,0,0,0,0,0,0,0,-1,657,337,0,0
-560,687,0,0,0,0,0,0,0,0,0,-1,664,337,0,0
-553,687,0,0,0,0,0,0,0,0,0,-1,671,337,0,0
-546,687,0,0,0,0,0,0,0,0,0,-1,678,337,0,0
-539,687,0,0,0,0,0,0,0,0,0,-1,685,337,0,0
-532,687,0,0,0,0,0,0,0,0,0,-1,692,337,0,0
-525,687,0,0,0,0,0,0,0,0,0,-1,699,337,0,0
-518,687,0,0,0,0,0,0,0,0,0,-1,706,337,0,0
-511,687,0,0,0,0,0,0,0,0,0,-1,713,337,0,0
-504,687,0,0,0,0,0,0,0,0,0,-1,720,337,0,0
-497,687,0,0,0,0,0,0,0,0,0,-1,727,337,0,0
-490,687,0,0,0,0,0,0,0,0,0,-1,734,337,0,0
-483,687,0,0,0,0,0,0,0,0,0,-1,741,337,0,0
-476,687,0,0,0,0,0,0,0,0,0,-1,748,337,0,0
-469,687,0,0,0,0,0,0,0,0,0,-1,755,337,0,0
-462,687,0,0,0,0,0,0,0,0,0,-1,762,337,0,0
-455,687,0,0,0,0,0,0,0,0,0,-1,769,337,0,0
-448,687,0,0,0,0,0,0,0,0,0,-1,776,337,0,0
-441,687,0,0,0,0,0,0,0,0,0,-1,783,337,0,0
-434,687,0,0,0,0,0,0,0,0,0,-1,790,337,0,0
-427,687,0,0,0,0,0,0,0,0,0,-1,797,337,0,0
-420,687,0,0,0,0,0,0,0,0,0,-1,804,337,0,0
-413,687,0,0,0,0,0,0,0,0,0,-1,811,337,0,0
-406,687,0,0,0,0,0,0,0,0,0,-1,818,337,0,0
-399,687,0,0,0,0,0,0,0,0,0,-1,825,337,0,0
-392,687,0,0,0,0,0,0,0,0,0,-1,832,337,0,0
-385,687,0,0,0,0,0,0,0,0,0,-1,839,337,0,0
-378,687,0,0,0,0,0,0,0,0,0,-1,846,337,0,0
-371,687,0,0,0,0,0,0,0,0,0,-1,853,337,0,0
-364,687,0,0,0,0,0,0,0,0,0,-1,860,337,0,0
-357,687,0,0,0,0,0,0,0,0,0,-1,867,337,0,0
-350,687,0,0,0,0,0,0,0,0,0,-1,874,337,0,0
-343,687,0,0,0,0,0,0,0,0,0,-1,881,337,0,0
-336,687,0,0,0,0,0,0,0,0,0,-1,888,337,0,0
-329,687,0,0,0,0,0,0,0,0,0,-1,895,337,0,0
-322,687,0,0,0,0,0,0,0,0,0,-1,902,337,0,0
-315,687,0,0,0,0,0,0,0,0,0,-1,909,337,0,0
-308,687,0,0,0,0,0,0,0,0,0,-1,916,337,0,0
-301,687,0,0,0,0,0,0,0,0,0,-1,923,337,0,0
-294,687,0,0,0,0,0,0,0,0,0,-1,930,337,0,0
-287,687,0,0,0,0,0,0,0,0,0,-1,937,337,0,0
-280,687,0,0,0,0,0,0,0,0,0,-1,944,337,0,0
-273,687,0,0,0,0,0,0,0,0,0,-1,951,337,0,0
-266,687,0,0,0,0,0,0,0,0,0,-1,958,337,0,0
-259,687,0,0,0,0,0,0,0,0,0,-1,965,337,0,0
-252,687,0,0,0,0,0,0,0,0,0,-1,972,337,0,0
-245,687,0,0,0,0,0,0,0,0,0,-1,979,337,0,0
-238,687,0,0,0,0,0,0,0,0,0,-1,986,337,0,0
-231,687,0,0,0,0,0,0,0,0,0,-1,993,337,0,0
-224,687,0,0,0,0,0,0,0,0,0,-1,1000,337,0,0
-217,687,0,0,0,0,0,0,0,0,0,-1,1007,337,0,0
-210,687,0,0,0,0,0,0,0,0,0,-1,1014,337,0,0
-203,687,0,0,0,0,0,0,0,0,0,-1,1021,337,0,0
-196,687,0,0,0,0,0,0,0,0,0,-1,1028,337,0,0
-189,687,0,0,0,0,0,0,0,0,0,-1,1035,337,0,0
-182,687,0,0,0,0,0,0,0,0,0,-1,1042,337,0,0
-175,687,0,0,0,0,0,0,0,0,0,-1,1049,337,0,0
-168,687,0,0,0,0,0,0,0,0,0,-1,1056,337,0,0
-161,687,0,0,0,0,0,0,0,0,0,-1,1063,337,0,0
-154,687,0,0,0,0,0,0,0,0,0,-1,1070,337,0,0
-147,687,0,0,0,0,0,0,0,0,0,-1,1077,337,0,0
-140,687,0,0,0,0,0,0,0,0,0,-1,1084,337,0,0
-133,687,2.16895,-19.4911,0,0,0,0,0,0,0,-1,1091,337,2.16889,19.4911
-126,687,3.54932,-20.9862,0,0,0,0,0,0,0,-1,1098,337,3.54935,20.9862
-119,687,3.40247,-20.072,0,0,0,0,0,0,0,-1,1105,337,3.40244,20.072
-112,687,3.25354,-19.1665,0,0,0,0,0,0,0,-1,1112,337,3.25353,19.1665
-105,687,3.19421,-17.4308,0,0,0,0,0,0,0,-1,1119,337,3.19424,17.4308
-98,687,3.33679,-15.4141,0,0,0,0,0,0,0,-1,1126,337,3.33683,15.4141
-91,687,2.28162,-7.72437,0,0,0,0,0,0,0,-1,1133,337,2.28167,7.72437
-84,687,-0.867676,-5.7392,0,0,0,0,0,0,0,-1,1140,337,-0.867619,5.73919
-77,687,-3.63806,-12.9185,0,0,0,0,0,0,0,-1,1147,337,-3.6381,12.9185
-70,687,-6.24756,-13.2618,0,0,0,0,0,0,0,-1,1154,337,-6.24752,13.2618
-63,687,-8.37585,-12.8959,0,0,0,0,0,0,0,-1,1161,337,-8.3758,12.8959
-56,687,-12.91,-10.9161,0,0,0,0,0,0,0,-1,1168,337,-12.91,10.9161
-49,687,-15.6449,-9.94391,0,0,0,0,0,0,0,-1,1175,337,-15.6449,9.94392
-42,687,-4.2019,-0.405609,0,0,0,0,0,0,0,-1,1182,337,-4.20192,0.405614
-35,687,-4.42273,-0.688171,0,0,0,0,0,0,0,-1,1189,337,-4.42276,0.688178
-28,687,-1.14038,-1.39072,0,0,0,0,0,0,0,-1,1196,337,-1.14035,1.3907
-21,687,2.95654,-17.4742,0,0,0,0,0,0,0,-1,1203,337,2.95659,17.4742
-14,687,3.07202,-17.6025,-0.00836161,0.0193674,-0.019822,0.0296925,-0.0186867,-1.09058,0.0281716,0.0445353,1210,337,3.07208,17.6026
-7,687,3.2124,-17.7185,-0.00773121,0.0212248,-0.020914,0.0321831,-0.0186896,-1.08816,0.0297138,0.0474004,1217,337,3.21243,17.7185
0,687,3.33032,-17.8092,0,0,0,0,0,0,0,-1,1224,337,3.33037,17.8092
7,687,3.4137,-17.5297,0,0,0,0,0,0,0,-1,1231,337,3.41372,17.5297
14,687,3.23267,-17.4236,-0.00439427,0.0240485,-0.017325,0.0322415,-0.0125872,-1.12906,0.0266982,0.0453472,1238,337,3.23264,17.4236
21,687,2.90564,-17.5279,-0.001633,0.0244895,-0.0145536,0.0309834,-0.0081269,-1.1511,0.023831,0.0458541,1245,337,2.90564,17.5279
28,687,2.3324,-17.6339,0.00217742,0.0250478,-0.011151,0.0295847,-0.00235949,-1.18439,0.0205548,0.0440242,1252,337,2.33243,17.634
35,687,3.18567,-18.0639,0,0,0,0,0,0,0,-1,1259,337,3.18562,18.0639
42,687,2.91541,-18.1232,0,0,0,0,0,0,0,-1,1266,337,2.91537,18.1232
49,687,2.71558,-18.0237,0,0,0,0,0,0,0,-1,1273,337,2.71562,18.0237
56,687,2.79089,-17.4235,0.0262725,0.0256923,0.00049552,0.0265566,0.0254082,0.520585,0.0173343,0.0456529,1280,337,2.79085,17.4235
63,687,2.3374,-17.1789,0,0,0,0,0,0,0,-1,1287,337,2.33741,17.1789
70,687,1.65552,-16.8382,0.0393288,0.0224444,0.00396339,0.0402129,0.0215603,0.219465,0.0232371,0.0410858,1294,337,1.65549,16.8382
77,687,3.62573,-17.3216,0.0444168,0.020653,0.00505841,0.0454487,0.0196211,0.201242,0.0263213,0.0438978,1301,337,3.62569,17.3216
84,687,4.20239,-17.3347,0.0475144,0.0183795,0.00513256,0.0483921,0.0175018,0.169375,0.0282934,0.0463073,1308,337,4.20245,17.3347
91,687,4.25854,-18.3836,0,0,0,0,0,0,0,-1,1315,337,4.25855,18.3836
98,687,5.79016,-17.4694,0,0,0,0,0,0,0,-1,1322,337,5.7902,17.4694
105,687,6.39246,-17.9195,0,0,0,0,0,0,0,-1,1329,337,6.39246,17.9195
112,687,6.55103,-17.967,0,0,0,0,0,0,0,-1,1336,337,6.55107,17.967
119,687,6.04639,-18.7497,0,0,0,0,0,0,0,-1,1343,337,6.04633,18.7497
126,687,2.92175,-17.294,0,0,0,0,0,0,0,-1,1350,337,2.92179,17.294
133,687,2.88953,-17.2176,0,0,0,0,0,0,0,-1,1357,337,2.88948,17.2176
140,687,3.13721,-16.5121,0,0,0,0,0,0,0,-1,1364,337,3.13715,16.5121
147,687,3.47546,-15.6097,0,0,0,0,0,0,0,-1,1371,337,3.47546,15.6098
154,687,2.59363,-17.1599,0,0,0,0,0,0,0,-1,1378,337,2.5936,17.1599
161,687,2.44641,-15.2103,0,0,0,0,0,0,0,-1,1385,337,2.44636,15.2103
168,687,6.66968,1.37039,0,0,0,0,0,0,0,-1,1392,337,6.6697,-1.37039
175,687,6.64075,0.771606,0,0,0,0,0,0,0,-1,1399,337,6.64073,-0.771595
182,687,6.67249,0.289917,0,0,0,0,0,0,0,-1,1406,337,6.67247,-0.289916
189,687,7.76062,4.53635,0,0,0,0,0,0,0,-1,1413,337,7.76064,-4.53636
196,687,6.99048,3.2966,0,0,0,0,0,0,0,-1,1420,337,6.99046,-3.2966
203,687,6.36499,2.1445,0,0,0,0,0,0,0,-1,1427,337,6.36499,-2.14451
210,687,6.68066,0.674652,0,0,0,0,0,0,0,-1,1434,337,6.68062,-0.674655
217,687,5.99683,-0.630493,0,0,0,0,0,0,0,-1,1441,337,5.99684,0.630497
224,687,5.52917,0.524902,0,0,0,0,0,0,0,-1,1448,337,5.5292,-0.524915
231,687,5.85583,-1.73651,0,0,0,0,0,0,0,-1,1455,337,5.85577,1.73651
238,687,5.96582,-2.96774,0,0,0,0,0,0,0,-1,1462,337,5.96577,2.96773
245,687,1.28259,2.32211,0,0,0,0,0,0,0,-1,1469,337,1.28258,-2.32211
252,687,1.97278,3.88422,0,0,0,0,0,0,0,-1,1476,337,1.97281,-3.88421
259,687,0,0,0,0,0,0,0,0,0,-1,1483,337,0,0
266,687,0,0,0,0,0,0,0,0,0,-1,1490,337,0,0
273,687,0,0,0,0,0,0,0,0,0,-1,1497,337,0,0
280,687,0,0,0,0,0,0,0,0,0,-1,1504,337,0,0
287,687,0,0,0,0,0,0,0,0,0,-1,1511,337,0,0
294,687,0,0,0,0,0,0,0,0,0,-1,1518,337,0,0
301,687,0,0,0,0,0,0,0,0,0,-1,1525,337,0,0
308,687,0,0,0,0,0,0,0,0,0,-1,1532,337,0,0
315,687,0,0,0,0,0,0,0,0,0,-1,1539,337,0,0
322,687,0,0,0,0,0,0,0,0,0,-1,1546,337,0,0
329,687,0,0,0,0,0,0,0,0,0,-1,1553,337,0,0
336,687,0,0,0,0,0,0,0,0,0,-1,1560,337,0,0
343,687,0,0,0,0,0,0,0,0,0,-1,1567,337,0,0
350,687,0,0,0,0,0,0,0,0,0,-1,1574,337,0,0
357,687,0,0,0,0,0,0,0,0,0,-1,1581,337,0,0
364,687,0,0,0,0,0,0,0,0,0,-1,1588,337,0,0
371,687,0,0,0,0,0,0,0,0,0,-1,1595,337,0,0
378,687,0,0,0,0,0,0,0,0,0,-1,1602,337,0,0
385,687,0,0,0,0,0,0,0,0,0,-1,1609,337,0,0
392,687,0,0,0,0,0,0,0,0,0,-1,1616,337,0,0
399,687,0,0,0,0,0,0,0,0,0,-1,1623,337,0,0
406,687,0,0,0,0,0,0,0,0,0,-1,1630,337,0,0
413,687,0,0,0,0,0,0,0,0,0,-1,1637,337,0,0
420,687,0,0,0,0,0,0,0,0,0,-1,1644,337,0,0
427,687,0,0,0,0,0,0,0,0,0,-1,1651,337,0,0
434,687,0,0,0,0,0,0,0,0,0,-1,1658,337,0,0
441,687,0,0,0,0,0,0,0,0,0,-1,1665,337,0,0
448,687,0,0,0,0,0,0,0,0,0,-1,1672,337,0,0
455,687,0,0,0,0,0,0,0,0,0,-1,1679,337,0,0
462,687,0,0,0,0,0,0,0,0,0,-1,1686,337,0,0
469,687,0,0,0,0,0,0,0,0,0,-1,1693,337,0,0
476,687,0,0,0,0,0,0,0,0,0,-1,1700,337,0,0
483,687,0,0,0,0,0,0,0,0,0,-1,1707,337,0,0
490,687,0,0,0,0,0,0,0,0,0,-1,1714,337,0,0
497,687,0,0,0,0,0,0,0,0,0,-1,1721,337,0,0
504,687,0,0,0,0,0,0,0,0,0,-1,1728,337,0,0
511,687,0,0,0,0,0,0,0,0,0,-1,1735,337,0,0
518,687,0,0,0,0,0,0,0,0,0,-1,1742,337,0,0
525,687,0,0,0,0,0,0,0,0,0,-1,1749,337,0,0
532,687,0,0,0,0,0,0,0,0,0,-1,1756,337,0,0
539,687,0,0,0,0,0,0,0,0,0,-1,1763,337,0,0
546,687,0,0,0,0,0,0,0,0,0,-1,1770,337,0,0
553,687,0,0,0,0,0,0,0,0,0,-1,1777,337,0,0
560,687,0,0,0,0,0,0,0,0,0,-1,1784,337,0,0
567,687,0,0,0,0,0,0,0,0,0,-1,1791,337,0,0
574,687,0,0,0,0,0,0,0,0,0,-1,1798,337,0,0
581,687,0,0,0,0,0,0,0,0,0,-1,1805,337,0,0
588,687,0,0,0,0,0,0,0,0,0,-1,1812,337,0,0
595,687,0,0,0,0,0,0,0,0,0,-1,1819,337,0,0
602,687,0,0,0,0,0,0,0,0,0,-1,1826,337,0,0
609,687,0,0,0,0,0,0,0,0,0,-1,1833,337,0,0
616,687,0,0,0,0,0,0,0,0,0,-1,1840,337,0,0
623,687,0,0,0,0,0,0,0,0,0,-1,1847,337,0,0
630,687,0,0,0,0,0,0,0,0,0,-1,1854,337,0,0
637,687,0,0,0,0,0,0,0,0,0,-1,1861,337,0,0
644,687,0,0,0,0,0,0,0,0,0,-1,1868,337,0,0
651,687,0,0,0,0,0,0,0,0,0,-1,1875,337,0,0
658,687,0,0,0,0,0,0,0,0,0,-1,1882,337,0,0
665,687,0,0,0,0,0,0,0,0,0,-1,1889,337,0,0
672,687,0,0,0,0,0,0,0,0,0,-1,1896,337,0,0
679,687,0,0,0,0,0,0,0,0,0,-1,1903,337,0,0
686,687,0,0,0,0,0,0,0,0,0,-1,1910,337,0,0
693,687,0,0,0,0,0,0,0,0,0,-1,1917,337,0,0
700,687,0,0,0,0,0,0,0,0,0,-1,1924,337,0,0
707,687,0,0,0,0,0,0,0,0,0,-1,1931,337,0,0
714,687,0,0,0,0,0,0,0,0,0,-1,1938,337,0,0
721,687,0,0,0,0,0,0,0,0,0,-1,1945,337,0,0
728,687,0,0,0,0,0,0,0,0,0,-1,1952,337,0,0
735,687,0,0,0,0,0,0,0,0,0,-1,1959,337,0,0
742,687,0,0,0,0,0,0,0,0,0,-1,1966,337,0,0
749,687,0,0,0,0,0,0,0,0,0,-1,1973,337,0,0
756,687,0,0,0,0,0,0,0,0,0,-1,1980,337,0,0
763,687,0,0,0,0,0,0,0,0,0,-1,1987,337,0,0
770,687,0,0,0,0,0,0,0,0,0,-1,1994,337,0,0
777,687,0,0,0,0,0,0,0,0,0,-1,2001,337,0,0
784,687,0,0,0,0,0,0,0,0,0,-1,2008,337,0,0
791,687,0,0,0,0,0,0,0,0,0,-1,2015,337,0,0
798,687,0,0,0,0,0,0,0,0,0,-1,2022,337,0,0
805,687,0,0,0,0,0,0,0,0,0,-1,2029,337,0,0
812,687,0,0,0,0,0,0,0,0,0,-1,2036,337,0,0
-700,680,0,0,0,0,0,0,0,0,0,-1,524,344,0,0
-693,680,0,0,0,0,0,0,0,0,0,-1,531,344,0,0
-686,680,0,0,0,0,0,0,0,0,0,-1,538,344,0,0
-679,680,0,0,0,0,0,0,0,0,0,-1,545,344,0,0
-672,680,0,0,0,0,0,0,0,0,0,-1,552,344,0,0
-665,680,0,0,0,0,0,0,0,0,0,-1,559,344,0,0
-658,680,0,0,0,0,0,0,0,0,0,-1,566,344,0,0
-651,680,0,0,0,0,0,0,0,0,0,-1,573,344,0,0
-644,680,0,0,0,0,0,0,0,0,0,-1,580,344,0,0
-637,680,0,0,0,0,0,0,0,0,0,-1,587,344,0,0
-630,680,0,0,0,0,0,0,0,0,0,-1,594,344,0,0
-623,680,0,0,0,0,0,0,0,0,0,-1,601,344,0,0
-616,680,0,0,0,0,0,0,0,0,0,-1,608,344,0,0
-609,680,0,0,0,0,0,0,0,0,0,-1,615,344,0,0
-602,680,0,0,0,0,0,0,0,0,0,-1,622,344,0,0
-595,680,0,0,0,0,0,0,0,0,0,-1,629,344,0,0
-588,680,0,0,0,0,0,0,0,0,0,-1,636,344,0,0
-581,680,0,0,0,0,0,0,0,0,0,-1,643,344,0,0
-574,680,0,0,0,0,0,0,0,0,0,-1,650,344,0,0
-567,680,0,0,0,0,0,0,0,0,0,-1,657,344,0,0
-560,680,0,0,0,0,0,0,0,0,0,-1,664,344,0,0
-553,680,0,0,0,0,0,0,0,0,0,-1,671,344,0,0
-546,680,0,0,0,0,0,0,0,0,0,-1,678,344,0,0
-539,680,0,0,0,0,0,0,0,0,0,-1,685,344,0,0
-532,680,0,0,0,0,0,0,0,0,0,-1,692,344,0,0
-525,680,0,0,0,0,0,0,0,0,0,-1,699,344,0,0
-518,680,0,0,0,0,0,0,0,0,0,-1,706,344,0,0
-511,680,0,0,0,0,0,0,0,0,0,-1,713,344,0,0
-504,680,0,0,0,0,0,0,0,0,0,-1,720,344,0,0
-497,680,0,0,0,0,0,0,0,0,0,-1,727,344,0,0
-490,680,0,0,0,0,0,0,0,0,0,-1,734,344,0,0
-483,680,0,0,0,0,0,0,0,0,0,-1,741,344,0,0
-476,680,0,0,0,0,0,0,0,0,0,-1,748,344,0,0
-469,680,0,0,0,0,0,0,0,0,0,-1,755,344,0,0
-462,680,0,0,0,0,0,0,0,0,0,-1,762,344,0,0
-455,680,0,0,0,0,0,0,0,0,0,-1,769,344,0,0
-448,680,0,0,0,0,0,0,0,0,0,-1,776,344,0,0
-441,680,0,0,0,0,0,0,0,0,0,-1,783,344,0,0
-434,680,0,0,0,0,0,0,0,0,0,-1,790,344,0,0
-427,680,0,0,0,0,0,0,0,0,0,-1,797,344,0,0
-420,680,0,0,0,0,0,0,0,0,0,-1,804,344,0,0
-413,680,0,0,0,0,0,0,0,0,0,-1,811,344,0,0
-406,680,0,0,0,0,0,0,0,0,0,-1,818,344,0,0
-399,680,0,0,0,0,0,0,0,0,0,-1,825,344,0,0
-392,680,0,0,0,0,0,0,0,0,0,-1,832,344,0,0
-385,680,0,0,0,0,0,0,0,0,0,-1,839,344,0,0
-378,680,0,0,0,0,0,0,0,0,0,-1,846,344,0,0
-371,680,0,0,0,0,0,0,0,0,0,-1,853,344,0,0
-364,680,0,0,0,0,0,0,0,0,0,-1,860,344,0,0
-357,680,0,0,0,0,0,0,0,0,0,-1,867,344,0,0
-350,680,0,0,0,0,0,0,0,0,0,-1,874,344,0,0
-343,680,0,0,0,0,0,0,0,0,0,-1,881,344,0,0
-336,680,0,0,0,0,0,0,0,0,0,-1,888,344,0,0
-329,680,0,0,0,0,0,0,0,0,0,-1,895,344,0,0
-322,680,0,0,0,0,0,0,0,0,0,-1,902,344,0,0
-315,680,0,0,0,0,0,0,0,0,0,-1,909,344,0,0
-308,680,0,0,0,0,0,0,0,0,0,-1,916,344,0,0
-301,680,0,0,0,0,0,0,0,0,0,-1,923,344,0,0
-294,680,0,0,0,0,0,0,0,0,0,-1,930,344,0,0
-287,680,0,0,0,0,0,0,0,0,0,-1,937,344,0,0
-280,680,0,0,0,0,0,0,0,0,0,-1,944,344,0,0
-273,680,0,0,0,0,0,0,0,0,0,-1,951,344,0,0
-266,680,0,0,0,0,0,0,0,0,0,-1,958,344,0,0
-259,680,0,0,0,0,0,0,0,0,0,-1,965,344,0,0
-252,680,0,0,0,0,0,0,0,0,0,-1,972,344,0,0
-245,680,0,0,0,0,0,0,0,0,0,-1,979,344,0,0
-238,680,0,0,0,0,0,0,0,0,0,-1,986,344,0,0
-231,680,0,0,0,0,0,0,0,0,0,-1,993,344,0,0
-224,680,0,0,0,0,0,0,0,0,0,-1,1000,344,0,0
-217,680,0,0,0,0,0,0,0,0,0,-1,1007,344,0,0
-210,680,0,0,0,0,0,0,0,0,0,-1,1014,344,0,0
-203,680,0,0,0,0,0,0,0,0,0,-1,1021,344,0,0
-196,680,0,0,0,0,0,0,0,0,0,-1,1028,344,0,0
-189,680,0,0,0,0,0,0,0,0,0,-1,1035,344,0,0
-182,680,0,0,0,0,0,0,0,0,0,-1,1042,344,0,0
-175,680,0,0,0,0,0,0,0,0,0,-1,1049,344,0,0
-168,680,0,0,0,0,0,0,0,0,0,-1,1056,344,0,0
-161,680,0,0,0,0,0,0,0,0,0,-1,1063,344,0,0
-154,680,2.93018,-16.3629,0,0,0,0,0,0,0,-1,1070,344,2.93013,16.3629
-147,680,3.84229,-19.9126,0,0,0,0,0,0,0,-1,1077,344,3.84227,19.9126
-140,680,4.02417,-18.4484,0,0,0,0,0,0,0,-1,1084,344,4.02421,18.4484
-133,680,1.7467,-18.0083,0,0,0,0,0,0,0,-1,1091,344,1.74676,18.0083
-126,680,5.55103,-18.3308,0,0,0,0,0,0,0,-1,1098,344,5.55104,18.3308
-119,680,5.63428,-16.5967,0,0,0,0,0,0,0,-1,1105,344,5.63423,16.5967
-112,680,6.32458,-16.2364,0,0,0,0,0,0,0,-1,1112,344,6.32459,16.2363
-105,680,3.49292,-16.3635,0,0,0,0,0,0,0,-1,1119,344,3.49287,16.3635
-98,680,2.9574,-16.4481,0,0,0,0,0,0,0,-1,1126,344,2.95743,16.4481
-91,680,2.73938,-14.278,0,0,0,0,0,0,0,-1,1133,344,2.73941,14.278
-84,680,1.92285,-8.71033,0,0,0,0,0,0,0,-1,1140,344,1.92286,8.71034
-77,680,-2.41516,-7.36899,0,0,0,0,0,0,0,-1,1147,344,-2.41511,7.36899
-70,680,-5.54321,-14.526,0,0,0,0,0,0,0,-1,1154,344,-5.54317,14.526
-63,680,-5.41333,-13.0013,0,0,0,0,0,0,0,-1,1161,344,-5.41332,13.0013
-56,680,-6.96912,-8.83356,0,0,0,0,0,0,0,-1,1168,344,-6.96907,8.83354
-49,680,-6.7677,-2.24063,0,0,0,0,0,0,0,-1,1175,344,-6.76772,2.24063
-42,680,-1.02368,0.618805,0,0,0,0,0,0,0,-1,1182,344,-1.0237,-0.618797
-35,680,-0.947876,-0.942719,0,0,0,0,0,0,0,-1,1189,344,-0.947842,0.942731
-28,680,-1.46118,-1.10574,0,0,0,0,0,0,0,-1,1196,344,-1.4612,1.10575
-21,680,3.10071,-17.6547,0,0,0,0,0,0,0,-1,1203,344,3.10069,17.6547
-14,680,3.12036,-17.6955,-0.00654319,0.0156567,-0.0144287,0.0227611,-0.0136476,-1.11327,0.0212389,0.045906,1210,344,3.12031,17.6955
-7,680,3.18823,-17.739,-0.00638927,0.0169327,-0.0150059,0.0242758,-0.0137324,-1.11571,0.0222237,0.0481789,1217,344,3.18829,17.739
0,680,3.26489,-17.7973,0,0,0,0,0,0,0,-1,1224,344,3.26489,17.7973
7,680,3.724,-17.4978,-0.00626365,0.018645,-0.0134382,0.0245127,-0.0121313,-1.15911,0.0215552,0.0425758,1231,344,3.72402,17.4978
14,680,3.62891,-17.2003,-0.00447958,0.0193533,-0.0121547,0.0244585,-0.00958483,-1.17315,0.0202706,0.0396675,1238,344,3.62892,17.2003
21,680,3.02576,-17.6715,-0.00226472,0.0198801,-0.0101265,0.0238125,-0.00619713,-1.20039,0.018294,0.0453291,1245,344,3.0257,17.6715
28,680,2.67773,-17.8256,0.000819267,0.0203998,-0.00765786,0.0230391,-0.00181995,-1.2389,0.0160006,0.045058,1252,344,2.67771,17.8256
35,680,3.14563,-18.0201,0.0051037,0.0215708,-0.00543632,0.0232036,0.0034709,-1.27902,0.0144517,0.04796,1259,344,3.14566,18.0201
42,680,3.03699,-17.9942,0.0100639,0.0216288,-0.0030665,0.0223916,0.00930116,-1.32699,0.0129893,0.0481738,1266,344,3.03703,17.9942
49,680,2.93188,-17.8881,0.0147932,0.0215188,-0.00060265,0.0215724,0.0147396,-1.48213,0.0127306,0.0410191,1273,344,2.93194,17.8881
56,680,2.86658,-17.6941,0.0199956,0.0208445,0.00143479,0.0219163,0.0189238,0.929214,0.0137226,0.038585,1280,344,2.8666,17.6941
63,680,2.89868,-17.6336,0,0,0,0,0,0,0,-1,1287,344,2.89863,17.6336
70,680,3.04663,-17.6215,0,0,0,0,0,0,0,-1,1294,344,3.04667,17.6215
77,680,2.91809,-17.8002,0,0,0,0,0,0,0,-1,1301,344,2.91808,17.8002
84,680,3.61108,-17.7292,0.036673,0.0153793,0.00554244,0.0380292,0.014023,0.239984,0.0222069,0.0464333,1308,344,3.61105,17.7291
91,680,3.84888,-18.214,0.0377981,0.0132104,0.00525807,0.0388753,0.0121332,0.202078,0.0229669,0.0478579,1315,344,3.84886,18.214
98,680,2.90796,-17.9,0,0,0,0,0,0,0,-1,1322,344,2.90796,17.9
105,680,2.85828,-17.6088,0,0,0,0,0,0,0,-1,1329,344,2.85825,17.6088
112,680,2.39026,-17.1042,0,0,0,0,0,0,0,-1,1336,344,2.39023,17.1043
119,680,2.95691,-17.37,0,0,0,0,0,0,0,-1,1343,344,2.95695,17.37
126,680,2.86816,-17.3652,0,0,0,0,0,0,0,-1,1350,344,2.86818,17.3652
133,680,2.35034,-17.1808,0,0,0,0,0,0,0,-1,1357,344,2.35036,17.1808
140,680,2.22583,-17.3703,0,0,0,0,0,0,0,-1,1364,344,2.22588,17.3703
147,680,1.91846,-17.5278,0,0,0,0,0,0,0,-1,1371,344,1.91843,17.5278
154,680,2.44983,-17.2408,0,0,0,0,0,0,0,-1,1378,344,2.44984,17.2408
161,680,2.57458,-17.108,0,0,0,0,0,0,0,-1,1385,344,2.57459,17.108
168,680,6.85046,1.69257,0,0,0,0,0,0,0,-1,1392,344,6.85045,-1.69257
175,680,6.66541,0.942078,0,0,0,0,0,0,0,-1,1399,344,6.66538,-0.942088
182,680,6.52917,0.532379,0,0,0,0,0,0,0,-1,1406,344,6.52922,-0.532385
189,680,7.55884,4.77695,0,0,0,0,0,0,0,-1,1413,344,7.55886,-4.77694
196,680,6.55627,3.35254,0,0,0,0,0,0,0,-1,1420,344,6.55622,-3.35255
203,680,5.7334,1.90753,0,0,0,0,0,0,0,-1,1427,344,5.73341,-1.90754
210,680,5.27515,0.493622,0,0,0,0,0,0,0,-1,1434,344,5.27514,-0.493632
217,680,6.56384,-0.374176,0,0,0,0,0,0,0,-1,1441,344,6.56379,0.374176
224,680,3.9491,-0.640228,0,0,0,0,0,0,0,-1,1448,344,3.94908,0.64024
231,680,4.24866,-1.96881,0,0,0,0,0,0,0,-1,1455,344,4.2486,1.96882
238,680,4.29333,-3.23984,0,0,0,0,0,0,0,-1,1462,344,4.29332,3.23984
245,680,2.44397,0.985382,0,0,0,0,0,0,0,-1,1469,344,2.44402,-0.985394
252,680,3.07349,2.18951,0,0,0,0,0,0,0,-1,1476,344,3.0735,-2.18952
259,680,2.82971,1.30682,0,0,0,0,0,0,0,-1,1483,344,2.82972,-1.30684
266,680,2.67554,1.44067,0,0,0,0,0,0,0,-1,1490,344,2.67551,-1.44066
273,680,2.46411,1.54666,0,0,0,0,0,0,0,-1,1497,344,2.46407,-1.54666
280,680,0,0,0,0,0,0,0,0,0,-1,1504,344,0,0
287,680,0,0,0,0,0,0,0,0,0,-1,1511,344,0,0
294,680,0,0,0,0,0,0,0,0,0,-1,1518,344,0,0
301,680,0,0,0,0,0,0,0,0,0,-1,1525,344,0,0
308,680,0,0,0,0,0,0,0,0,0,-1,1532,344,0,0
315,680,0,0,0,0,0,0,0,0,0,-1,1539,344,0,0
322,680,0,0,0,0,0,0,0,0,0,-1,1546,344,0,0
329,680,0,0,0,0,0,0,0,0,0,-1,1553,344,0,0
336,680,0,0,0,0,0,0,0,0,0,-1,1560,344,0,0
343,680,0,0,0,0,0,0,0,0,0,-1,1567,344,0,0
350,680,0,0,0,0,0,0,0,0,0,-1,1574,344,0,0
357,680,0,0,0,0,0,0,0,0,0,-1,1581,344,0,0
364,680,0,0,0,0,0,0,0,0,0,-1,1588,344,0,0
371,680,0,0,0,0,0,0,0,0,0,-1,1595,344,0,0
378,680,0,0,0,0,0,0,0,0,0,-1,1602,344,0,0
385,680,0,0,0,0,0,0,0,0,0,-1,1609,344,0,0
392,680,0,0,0,0,0,0,0,0,0,-1,1616,344,0,0
399,680,0,0,0,0,0,0,0,0,0,-1,1623,344,0,0
406,680,0,0,0,0,0,0,0,0,0,-1,1630,344,0,0
413,680,0,0,0,0,0,0,0,0,0,-1,1637,344,0,0
420,680,0,0,0,0,0,0,0,0,0,-1,1644,344,0,0
427,680,0,0,0,0,0,0,0,0,0,-1,1651,344,0,0
434,680,0,0,0,0,0,0,0,0,0,-1,1658,344,0,0
441,680,0,0,0,0,0,0,0,0,0,-1,1665,344,0,0
448,680,0,0,0,0,0,0,0,0,0,-1,1672,344,0,0
455,680,0,0,0,0,0,0,0,0,0,-1,1679,344,0,0
462,680,0,0,0,0,0,0,0,0,0,-1,1686,344,0,0
469,680,0,0,0,0,0,0,0,0,0,-1,1693,344,0,0
476,680,0,0,0,0,0,0,0,0,0,-1,1700,344,0,0
483,680,0,0,0,0,0,0,0,0,0,-1,1707,344,0,0
490,680,0,0,0,0,0,0,0,0,0,-1,1714,344,0,0
497,680,0,0,0,0,0,0,0,0,0,-1,1721,344,0,0
504,680,0,0,0,0,0,0,0,0,0,-1,1728,344,0,0
511,680,0,0,0,0,0,0,0,0,0,-1,1735,344,0,0
518,680,0,0,0,0,0,0,0,0,0,-1,1742,344,0,0
525,680,0,0,0,0,0,0,0,0,0,-1,1749,344,0,0
532,680,0,0,0,0,0,0,0,0,0,-1,1756,344,0,0
539,680,0,0,0,0,0,0,0,0,0,-1,1763,344,0,0
546,680,0,0,0,0,0,0,0,0,0,-1,1770,344,0,0
553,680,0,0,0,0,0,0,0,0,0,-1,1777,344,0,0
560,680,0,0,0,0,0,0,0,0,0,-1,1784,344,0,0
567,680,0,0,0,0,0,0,0,0,0,-1,1791,344,0,0
574,680,0,0,0,0,0,0,0,0,0,-1,1798,344,0,0
581,680,0,0,0,0,0,0,0,0,0,-1,1805,344,0,0
588,680,0,0,0,0,0,0,0,0,0,-1,1812,344,0,0
595,680,0,0,0,0,0,0,0,0,0,-1,1819,344,0,0
602,680,0,0,0,0,0,0,0,0,0,-1,1826,344,0,0
609,680,0,0,0,0,0,0,0,0,0,-1,1833,344,0,0
616,680,0,0,0,0,0,0,0,0,0,-1,1840,344,0,0
623,680,0,0,0,0,0,0,0,0,0,-1,1847,344,0,0
630,680,0,0,0,0,0,0,0,0,0,-1,1854,344,0,0
637,680,0,0,0,0,0,0,0,0,0,-1,1861,344,0,0
644,680,0,0,0,0,0,0,0,0,0,-1,1868,344,0,0
651,680,0,0,0,0,0,0,0,0,0,-1,1875,344,0,0
658,680,0,0,0,0,0,0,0,0,0,-1,1882,344,0,0
665,680,0,0,0,0,0,0,0,0,0,-1,1889,344,0,0
672,680,0,0,0,0,0,0,0,0,0,-1,1896,344,0,0
679,680,0,0,0,0,0,0,0,0,0,-1,1903,344,0,0
686,680,0,0,0,0,0,0,0,0,0,-1,1910,344,0,0
693,680,0,0,0,0,0,0,0,0,0,-1,1917,344,0,0
700,680,0,0,0,0,0,0,0,0,0,-1,1924,344,0,0
707,680,0,0,0,0,0,0,0,0,0,-1,1931,344,0,0
714,680,0,0,0,0,0,0,0,0,0,-1,1938,344,0,0
721,680,0,0,0,0,0,0,0,0,0,-1,1945,344,0,0
728,680,0,0,0,0,0,0,0,0,0,-1,1952,344,0,0
735,680,0,0,0,0,0,0,0,0,0,-1,1959,344,0,0
742,680,0,0,0,0,0,0,0,0,0,-1,1966,344,0,0
749,680,0,0,0,0,0,0,0,0,0,-1,1973,344,0,0
756,680,0,0,0,0,0,0,0,0,0,-1,1980,344,0,0
763,680,0,0,0,0,0,0,0,0,0,-1,1987,344,0,0
770,680,0,0,0,0,0,0,0,0,0,-1,1994,344,0,0
777,680,0,0,0,0,0,0,0,0,0,-1,2001,344,0,0
784,680,0,0,0,0,0,0,0,0,0,-1,2008,344,0,0
791,680,0,0,0,0,0,0,0,0,0,-1,2015,344,0,0
798,680,0,0,0,0,0,0,0,0,0,-1,2022,344,0,0
805,680,0,0,0,0,0,0,0,0,0,-1,2029,344,0,0
812,680,0,0,0,0,0,0,0,0,0,-1,2036,344,0,0
-700,673,0,0,0,0,0,0,0,0,0,-1,524,351,0,0
-693,673,0,0,0,0,0,0,0,0,0,-1,531,351,0,0
-686,673,0,0,0,0,0,0,0,0,0,-1,538,351,0,0
-679,673,0,0,0,0,0,0,0,0,0,-1,545,351,0,0
-672,673,0,0,0,0,0,0,0,0,0,-1,552,351,0,0
-665,673,0,0,0,0,0,0,0,0,0,-1,559,351,0,0
-658,673,0,0,0,0,0,0,0,0,0,-1,566,351,0,0
-651,673,0,0,0,0,0,0,0,0,0,-1,573,351,0,0
-644,673,0,0,0,0,0,0,0,0,0,-1,580,351,0,0
-637,673,0,0,0,0,0,0,0,0,0,-1,587,351,0,0
-630,673,0,0,0,0,0,0,0,0,0,-1,594,351,0,0
-623,673,0,0,0,0,0,0,0,0,0,-1,601,351,0,0
-616,673,0,0,0,0,0,0,0,0,0,-1,608,351,0,0
-609,673,0,0,0,0,0,0,0,0,0,-1,615,351,0,0
-602,673,0,0,0,0,0,0,0,0,0,-1,622,351,0,0
-595,673,0,0,0,0,0,0,0,0,0,-1,629,351,0,0
-588,673,0,0,0,0,0,0,0,0,0,-1,636,351,0,0
-581,673,0,0,0,0,0,0,0,0,0,-1,643,351,0,0
-574,673,0,0,0,0,0,0,0,0,0,-1,650,351,0,0
-567,673,0,0,0,0,0,0,0,0,0,-1,657,351,0,0
-560,673,0,0,0,0,0,0,0,0,0,-1,664,351,0,0
-553,673,0,0,0,0,0,0,0,0,0,-1,671,351,0,0
-546,673,0,0,0,0,0,0,0,0,0,-1,678,351,0,0
-539,673,0,0,0,0,0,0,0,0,0,-1,685,351,0,0
-532,673,0,0,0,0,0,0,0,0,0,-1,692,351,0,0
-525,673,0,0,0,0,0,0,0,0,0,-1,699,351,0,0
-518,673,0,0,0,0,0,0,0,0,0,-1,706,351,0,0
-511,673,0,0,0,0,0,0,0,0,0,-1,713,351,0,0
-504,673,0,0,0,0,0,0,0,0,0,-1,720,351,0,0
-497,673,0,0,0,0,0,0,0,0,0,-1,727,351,0,0
-490,673,0,0,0,0,0,0,0,0,0,-1,734,351,0,0
-483,673,0,0,0,0,0,0,0,0,0,-1,741,351,0,0
-476,673,0,0,0,0,0,0,0,0,0,-1,748,351,0,0
-469,673,0,0,0,0,0,0,0,0,0,-1,755,351,0,0
-462,673,0,0,0,0,0,0,0,0,0,-1,762,351,0,0
-455,673,0,0,0,0,0,0,0,0,0,-1,769,351,0,0
-448,673,0,0,0,0,0,0,0,0,0,-1,776,351,0,0
-441,673,0,0,0,0,0,0,0,0,0,-1,783,351,0,0
-434,673,0,0,0,0,0,0,0,0,0,-1,790,351,0,0
-427,673,0,0,0,0,0,0,0,0,0,-1,797,351,0,0
-420,673,0,0,0,0,0,0,0,0,0,-1,804,351,0,0
-413,673,0,0,0,0,0,0,0,0,0,-1,811,351,0,0
-406,673,0,0,0,0,0,0,0,0,0,-1,818,351,0,0
-399,673,0,0,0,0,0,0,0,0,0,-1,825,351,0,0
-392,673,0,0,0,0,0,0,0,0,0,-1,832,351,0,0
-385,673,0,0,0,0,0,0,0,0,0,-1,839,351,0,0
-378,673,0,0,0,0,0,0,0,0,0,-1,846,351,0,0
-371,673,0,0,0,0,0,0,0,0,0,-1,853,351,0,0
-364,673,0,0,0,0,0,0,0,0,0,-1,860,351,0,0
-357,673,0,0,0,0,0,0,0,0,0,-1,867,351,0,0
-350,673,0,0,0,0,0,0,0,0,0,-1,874,351,0,0
-343,673,0,0,0,0,0,0,0,0,0,-1,881,351,0,0
-336,673,0,0,0,0,0,0,0,0,0,-1,888,351,0,0
-329,673,0,0,0,0,0,0,0,0,0,-1,895,351,0,0
-322,673,0,0,0,0,0,0,0,0,0,-1,902,351,0,0
-315,673,0,0,0,0,0,0,0,0,0,-1,909,351,0,0
-308,673,0,0,0,0,0,0,0,0,0,-1,916,351,0,0
-301,673,0,0,0,0,0,0,0,0,0,-1,923,351,0,0
-294,673,0,0,0,0,0,0,0,0,0,-1,930,351,0,0
-287,673,0,0,0,0,0,0,0,0,0,-1,937,351,0,0
-280,673,0,0,0,0,0,0,0,0,0,-1,944,351,0,0
-273,673,0,0,0,0,0,0,0,0,0,-1,951,351,0,0
-266,673,0,0,0,0,0,0,0,0,0,-1,958,351,0,0
-259,673,0,0,0,0,0,0,0,0,0,-1,965,351,0,0
-252,673,0,0,0,0,0,0,0,0,0,-1,972,351,0,0
-245,673,0,0,0,0,0,0,0,0,0,-1,979,351,0,0
-238,673,0,0,0,0,0,0,0,0,0,-1,986,351,0,0
-231,673,0,0,0,0,0,0,0,0,0,-1,993,351,0,0
-224,673,0,0,0,0,0,0,0,0,0,-1,1000,351,0,0
-217,673,0,0,0,0,0,0,0,0,0,-1,1007,351,0,0
-210,673,0,0,0,0,0,0,0,0,0,-1,1014,351,0,0
-203,673,0,0,0,0,0,0,0,0,0,-1,1021,351,0,0
-196,673,0,0,0,0,0,0,0,0,0,-1,1028,351,0,0
-189,673,0,0,0,0,0,0,0,0,0,-1,1035,351,0,0
-182,673,0,0,0,0,0,0,0,0,0,-1,1042,351,0,0
-175,673,2.65991,-15.9225,0,0,0,0,0,0,0,-1,1049,351,2.65986,15.9225
-168,673,0.9375,-13.6093,0,0,0,0,0,0,0,-1,1056,351,0.937509,13.6093
-161,673,2.07959,-14.7435,0,0,0,0,0,0,0,-1,1063,351,2.07955,14.7435
-154,673,3.45386,-20.6111,0,0,0,0,0,0,0,-1,1070,351,3.45391,20.6111
-147,673,3.68518,-19.2616,0,0,0,0,0,0,0,-1,1077,351,3.68523,19.2616
-140,673,3.86206,-17.8354,0,0,0,0,0,0,0,-1,1084,351,3.8621,17.8354
-133,673,3.67053,-16.5452,0,0,0,0,0,0,0,-1,1091,351,3.67058,16.5452
-126,673,4.24463,-16.7849,0,0,0,0,0,0,0,-1,1098,351,4.2446,16.7849
-119,673,4.9624,-16.5957,0.0685683,-0.00875096,0.0346926,0.0818523,-0.022035,0.365685,0.0632067,0.0422026,1105,351,4.96237,16.5957
-112,673,5.83801,-16.3368,0,0,0,0,0,0,0,-1,1112,351,5.838,16.3368
-105,673,6.73413,-15.8689,0,0,0,0,0,0,0,-1,1119,351,6.73417,15.8689
-98,673,2.98828,-16.3643,0,0,0,0,0,0,0,-1,1126,351,2.98825,16.3643
-91,673,2.69482,-15.6822,0,0,0,0,0,0,0,-1,1133,351,2.69488,15.6822
-84,673,2.31641,-13.7224,0,0,0,0,0,0,0,-1,1140,351,2.31642,13.7223
-77,673,1.60266,-8.87473,0,0,0,0,0,0,0,-1,1147,351,1.60268,8.87474
-70,673,1.88684,-4.7381,0,0,0,0,0,0,0,-1,1154,351,1.88682,4.73809
-63,673,1.11719,-2.95016,0,0,0,0,0,0,0,-1,1161,351,1.11724,2.95016
-56,673,-6.18872,-9.52338,0,0,0,0,0,0,0,-1,1168,351,-6.18874,9.52336
-49,673,-0.926758,-0.115448,0,0,0,0,0,0,0,-1,1175,351,-0.926732,0.115444
-42,673,-1.15015,0.289917,0,0,0,0,0,0,0,-1,1182,351,-1.15017,-0.289932
-35,673,-0.919556,-1.00711,0,0,0,0,0,0,0,-1,1189,351,-0.919514,1.00711
-28,673,1.03564,-2.58228,0,0,0,0,0,0,0,-1,1196,351,1.0356,2.58229
-21,673,3.41882,-17.6663,0,0,0,0,0,0,0,-1,1203,351,3.41885,17.6663
-14,673,3.34387,-17.7564,-0.00522462,0.0123685,-0.010042,0.0169219,-0.00977799,-1.14509,0.015598,0.0443401,1210,351,3.34383,17.7564
-7,673,3.16992,-17.7807,-0.00529874,0.0132371,-0.0103428,0.0178569,-0.00991854,-1.15072,0.016253,0.0418182,1217,351,3.16987,17.7807
0,673,3.26001,-17.9272,-0.00586297,0.0138472,-0.00978192,0.0178777,-0.00989344,-1.17996,0.016253,0.0442409,1224,351,3.26004,17.9272
7,673,3.34692,-17.7382,-0.00545721,0.0146482,-0.00909088,0.0181491,-0.00895813,-1.2032,0.0159474,0.0447008,1231,351,3.34697,17.7382
14,673,3.31104,-17.7487,-0.00425905,0.0152509,-0.00823058,0.0182592,-0.00726738,-1.22037,0.0151864,0.0357045,1238,351,3.31108,17.7488
21,673,3.13806,-17.8902,-0.00254147,0.0157911,-0.0068077,0.0180426,-0.00479296,-1.25139,0.0139042,0.0245128,1245,351,3.13807,17.8902
28,673,3.13391,-17.9211,-0.000135622,0.016247,-0.00508864,0.0176989,-0.00158754,-1.29286,0.0123625,0.0176085,1252,351,3.13395,17.9211
35,673,3.13586,-17.9531,0.00320169,0.0171306,-0.00346839,0.0179465,0.00238582,-1.33977,0.0112537,0.0248558,1259,351,3.13587,17.9531
42,673,3.04395,-17.9213,0.00699283,0.0171509,-0.00164675,0.0174111,0.00673254,-1.41403,0.010138,0.0288987,1266,351,3.04394,17.9213
49,673,3.00159,-17.9239,0.0106153,0.0170386,0.000236255,0.0170473,0.0106066,1.53408,0.00993972,0.0171468,1273,351,3.00164,17.9239
56,673,2.99036,-17.9021,0.0145978,0.0165504,0.00180763,0.0176285,0.0135197,1.033,0.0106503,0.0135008,1280,351,2.99034,17.9021
63,673,3.02319,-17.8405,0.0188211,0.0155676,0.00297295,0.0205832,0.0138054,0.53506,0.0121124,0.0176579,1287,351,3.02318,17.8405
70,673,2.95483,-17.803,0.0227435,0.0146922,0.00420107,0.0245363,0.0128994,0.40336,0.0141723,0.0281342,1294,351,2.9548,17.803
77,673,2.95447,-17.8516,0.0256862,0.0137266,0.00510876,0.0275714,0.0118414,0.353502,0.015971,0.0382597,1301,351,2.95444,17.8516
84,673,3.21631,-17.9777,0.0272334,0.0126142,0.00534462,0.0289789,0.0108687,0.315674,0.0169042,0.0429855,1308,351,3.21626,17.9777
91,673,3.40479,-18.1094,0.0278269,0.0111308,0.00514486,0.029285,0.00967275,0.276157,0.0172293,0.0449459,1315,351,3.40477,18.1094
98,673,2.89417,-17.9,0.0280572,0.0097713,0.00431326,0.0290235,0.00880496,0.2204,0.0171832,0.047276,1322,351,2.89421,17.9
105,673,2.82361,-17.7252,0.0280694,0.00842445,0.00311759,0.0285523,0.00794157,0.153668,0.017017,0.0426974,1329,351,2.82365,17.7252
112,673,2.73828,-17.6825,0,0,0,0,0,0,0,-1,1336,351,2.73834,17.6825
119,673,2.79626,-17.1235,0,0,0,0,0,0,0,-1,1343,351,2.79622,17.1235
126,673,2.76978,-17.4276,0.0214901,0.00454798,0.00141545,0.0216076,0.00443054,0.0827811,0.0131788,0.040707,1350,351,2.7698,17.4276
133,673,2.53198,-17.3204,0.0190304,0.00369143,0.00089059,0.0190819,0.0036399,0.0578018,0.0116983,0.0388987,1357,351,2.53197,17.3204
140,673,2.43018,-17.4179,0.0159655,0.0020053,0.0010542,0.0160447,0.00192615,0.0749481,0.0101157,0.0416009,1364,351,2.43022,17.4179
147,673,2.2417,-17.4758,0.0122799,0.0028056,0.000631178,0.0123218,0.00276373,0.0662297,0.00746579,0.0419885,1371,351,2.24171,17.4758
154,673,2.48083,-17.2191,0.0108218,0.00374065,0.000134387,0.0108244,0.0037381,0.018969,0.00634832,0.0386312,1378,351,2.48082,17.2191
161,673,2.68262,-17.0352,0,0,0,0,0,0,0,-1,1385,351,2.68265,17.0352
168,673,6.87061,1.83954,0,0,0,0,0,0,0,-1,1392,351,6.87063,-1.83953
175,673,6.6228,1.1459,0,0,0,0,0,0,0,-1,1399,351,6.62276,-1.14591
182,673,6.37244,0.796112,0,0,0,0,0,0,0,-1,1406,351,6.3724,-0.796102
189,673,6.12097,0.265472,0,0,0,0,0,0,0,-1,1413,351,6.121,-0.265482
196,673,6.02173,3.12717,0,0,0,0,0,0,0,-1,1420,351,6.02176,-3.12717
203,673,5.04456,1.6351,0,0,0,0,0,0,0,-1,1427,351,5.04455,-1.63509
210,673,4.79224,0.447479,0,0,0,0,0,0,0,-1,1434,351,4.79229,-0.447469
217,673,2.01648,0.972687,0,0,0,0,0,0,0,-1,1441,351,2.01644,-0.972691
224,673,2.3689,-1.80539,0,0,0,0,0,0,0,-1,1448,351,2.36896,1.80539
231,673,2.65857,-2.18497,0,0,0,0,0,0,0,-1,1455,351,2.65852,2.18496
238,673,3.77844,-2.06088,0,0,0,0,0,0,0,-1,1462,351,3.77839,2.06088
245,673,3.5376,-0.190399,0,0,0,0,0,0,0,-1,1469,351,3.53759,0.1904
252,673,3.80518,0.55603,0,0,0,0,0,0,0,-1,1476,351,3.80519,-0.556022
259,673,3.88562,1.29617,0,0,0,0,0,0,0,-1,1483,351,3.88562,-1.29618
266,673,4.22424,2.04834,0,0,0,0,0,0,0,-1,1490,351,4.22429,-2.04834
273,673,6.07886,0.385895,0,0,0,0,0,0,0,-1,1497,351,6.0789,-0.385906
280,673,6.97534,-0.0820007,0,0,0,0,0,0,0,-1,1504,351,6.97536,0.0820122
287,673,7.66968,-0.348541,0,0,0,0,0,0,0,-1,1511,351,7.66969,0.348534
294,673,8.20996,0.28537,0,0,0,0,0,0,0,-1,1518,351,8.20993,-0.28536
301,673,0,0,0,0,0,0,0,0,0,-1,1525,351,0,0
308,673,0,0,0,0,0,0,0,0,0,-1,1532,351,0,0
315,673,0,0,0,0,0,0,0,0,0,-1,1539,351,0,0
322,673,0,0,0,0,0,0,0,0,0,-1,1546,351,0,0
329,673,0,0,0,0,0,0,0,0,0,-1,1553,351,0,0
336,673,0,0,0,0,0,0,0,0,0,-1,1560,351,0,0
343,673,0,0,0,0,0,0,0,0,0,-1,1567,351,0,0
350,673,0,0,0,0,0,0,0,0,0,-1,1574,351,0,0
357,673,0,0,0,0,0,0,0,0,0,-1,1581,351,0,0
364,673,0,0,0,0,0,0,0,0,0,-1,1588,351,0,0
371,673,0,0,0,0,0,0,0,0,0,-1,1595,351,0,0
378,673,0,0,0,0,0,0,0,0,0,-1,1602,351,0,0
385,673,0,0,0,0,0,0,0,0,0,-1,1609,351,0,0
392,673,0,0,0,0,0,0,0,0,0,-1,1616,351,0,0
399,673,0,0,0,0,0,0,0,0,0,-1,1623,351,0,0
406,673,0,0,0,0,0,0,0,0,0,-1,1630,351,0,0
413,673,0,0,0,0,0,0,0,0,0,-1,1637,351,0,0
420,673,0,0,0,0,0,0,0,0,0,-1,1644,351,0,0
427,673,0,0,0,0,0,0,0,0,0,-1,1651,351,0,0
434,673,0,0,0,0,0,0,0,0,0,-1,1658,351,0,0
441,673,0,0,0,0,0,0,0,0,0,-1,1665,351,0,0
448,673,0,0,0,0,0,0,0,0,0,-1,1672,351,0,0
455,673,0,0,0,0,0,0,0,0,0,-1,1679,351,0,0
462,673,0,0,0,0,0,0,0,0,0,-1,1686,351,0,0
469,673,0,0,0,0,0,0,0,0,0,-1,1693,351,0,0
476,673,0,0,0,0,0,0,0,0,0,-1,1700,351,0,0
483,673,0,0,0,0,0,0,0,0,0,-1,1707,351,0,0
490,673,0,0,0,0,0,0,0,0,0,-1,1714,351,0,0
497,673,0,0,0,0,0,0,0,0,0,-1,1721,351,0,0
504,673,0,0,0,0,0,0,0,0,0,-1,1728,351,0,0
511,673,0,0,0,0,0,0,0,0,0,-1,1735,351,0,0
518,673,0,0,0,0,0,0,0,0,0,-1,1742,351,0,0
525,673,0,0,0,0,0,0,0,0,0,-1,1749,351,0,0
532,673,0,0,0,0,0,0,0,0,0,-1,1756,351,0,0
539,673,0,0,0,0,0,0,0,0,0,-1,1763,351,0,0
546,673,0,0,0,0,0,0,0,0,0,-1,1770,351,0,0
553,673,0,0,0,0,0,0,0,0,0,-1,1777,351,0,0
560,673,0,0,0,0,0,0,0,0,0,-1,1784,351,0,0
567,673,0,0,0,0,0,0,0,0,0,-1,1791,351,0,0
574,673,0,0,0,0,0,0,0,0,0,-1,1798,351,0,0
581,673,0,0,0,0,0,0,0,0,0,-1,1805,351,0,0
588,673,0,0,0,0,0,0,0,0,0,-1,1812,351,0,0
595,673,0,0,0,0,0,0,0,0,0,-1,1819,351,0,0
602,673,0,0,0,0,0,0,0,0,0,-1,1826,351,0,0
609,673,0,0,0,0,0,0,0,0,0,-1,1833,351,0,0
616,673,0,0,0,0,0,0,0,0,0,-1,1840,351,0,0
623,673,0,0,0,0,0,0,0,0,0,-1,1847,351,0,0
630,673,0,0,0,0,0,0,0,0,0,-1,1854,351,0,0
637,673,0,0,0,0,0,0,0,0,0,-1,1861,351,0,0
644,673,0,0,0,0,0,0,0,0,0,-1,1868,351,0,0
651,673,0,0,0,0,0,0,0,0,0,-1,1875,351,0,0
658,673,0,0,0,0,0,0,0,0,0,-1,1882,351,0,0
665,673,0,0,0,0,0,0,0,0,0,-1,1889,351,0,0
672,673,0,0,0,0,0,0,0,0,0,-1,1896,351,0,0
679,673,0,0,0,0,0,0,0,0,0,-1,1903,351,0,0
686,673,0,0,0,0,0,0,0,0,0,-1,1910,351,0,0
693,673,0,0,0,0,0,0,0,0,0,-1,1917,351,0,0
700,673,0,0,0,0,0,0,0,0,0,-1,1924,351,0,0
707,673,0,0,0,0,0,0,0,0,0,-1,1931,351,0,0
714,673,0,0,0,0,0,0,0,0,0,-1,1938,351,0,0
721,673,0,0,0,0,0,0,0,0,0,-1,1945,351,0,0
728,673,0,0,0,0,0,0,0,0,0,-1,1952,351,0,0
735,673,0,0,0,0,0,0,0,0,0,-1,1959,351,0,0
742,673,0,0,0,0,0,0,0,0,0,-1,1966,351,0,0
749,673,0,0,0,0,0,0,0,0,0,-1,1973,351,0,0
756,673,0,0,0,0,0,0,0,0,0,-1,1980,351,0,0
763,673,0,0,0,0,0,0,0,0,0,-1,1987,351,0,0
770,673,0,0,0,0,0,0,0,0,0,-1,1994,351,0,0
777,673,0,0,0,0,0,0,0,0,0,-1,2001,351,0,0
784,673,0,0,0,0,0,0,0,0,0,-1,2008,351,0,0
791,673,0,0,0,0,0,0,0,0,0,-1,2015,351,0,0
798,673,0,0,0,0,0,0,0,0,0,-1,2022,351,0,0
805,673,0,0,0,0,0,0,0,0,0,-1,2029,351,0,0
812,673,0,0,0,0,0,0,0,0,0,-1,2036,351,0,0
-700,666,0,0,0,0,0,0,0,0,0,-1,524,358,0,0
-693,666,0,0,0,0,0,0,0,0,0,-1,531,358,0,0
-686,666,0,0,0,0,0,0,0,0,0,-1,538,358,0,0
-679,666,0,0,0,0,0,0,0,0,0,-1,545,358,0,0
-672,666,0,0,0,0,0,0,0,0,0,-1,552,358,0,0
-665,666,0,0,0,0,0,0,0,0,0,-1,559,358,0,0
-658,666,0,0,0,0,0,0,0,0,0,-1,566,358,0,0
-651,666,0,0,0,0,0,0,0,0,0,-1,573,358,0,0
-644,666,0,0,0,0,0,0,0,0,0,-1,580,358,0,0
-637,666,0,0,0,0,0,0,0,0,0,-1,587,358,0,0
-630,666,0,0,0,0,0,0,0,0,0,-1,594,358,0,0
-623,666,0,0,0,0,0,0,0,0,0,-1,601,358,0,0
-616,666,0,0,0,0,0,0,0,0,0,-1,608,358,0,0
-609,666,0,0,0,0,0,0,0,0,0,-1,615,358,0,0
-602,666,0,0,0,0,0,0,0,0,0,-1,622,358,0,0
-595,666,0,0,0,0,0,0,0,0,0,-1,629,358,0,0
-588,666,0,0,0,0,0,0,0,0,0,-1,636,358,0,0
-581,666,0,0,0,0,0,0,0,0,0,-1,643,358,0,0
-574,666,0,0,0,0,0,0,0,0,0,-1,650,358,0,0
-567,666,0,0,0,0,0,0,0,0,0,-1,657,358,0,0
-560,666,0,0,0,0,0,0,0,0,0,-1,664,358,0,0
-553,666,0,0,0,0,0,0,0,0,0,-1,671,358,0,0
-546,666,0,0,0,0,0,0,0,0,0,-1,678,358,0,0
-539,666,0,0,0,0,0,0,0,0,0,-1,685,358,0,0
-532,666,0,0,0,0,0,0,0,0,0,-1,692,358,0,0
-525,666,0,0,0,0,0,0,0,0,0,-1,699,358,0,0
-518,666,0,0,0,0,0,0,0,0,0,-1,706,358,0,0
-511,666,0,0,0,0,0,0,0,0,0,-1,713,358,0,0
-504,666,0,0,0,0,0,0,0,0,0,-1,720,358,0,0
-497,666,0,0,0,0,0,0,0,0,0,-1,727,358,0,0
-490,666,0,0,0,0,0,0,0,0,0,-1,734,358,0,0
-483,666,0,0,0,0,0,0,0,0,0,-1,741,358,0,0
-476,666,0,0,0,0,0,0,0,0,0,-1,748,358,0,0
-469,666,0,0,0,0,0,0,0,0,0,-1,755,358,0,0
-462,666,0,0,0,0,0,0,0,0,0,-1,762,358,0,0
-455,666,0,0,0,0,0,0,0,0,0,-1,769,358,0,0
-448,666,0,0,0,0,0,0,0,0,0,-1,776,358,0,0
-441,666,0,0,0,0,0,0,0,0,0,-1,783,358,0,0
-434,666,0,0,0,0,0,0,0,0,0,-1,790,358,0,0
-427,666,0,0,0,0,0,0,0,0,0,-1,797,358,0,0
-420,666,0,0,0,0,0,0,0,0,0,-1,804,358,0,0
-413,666,0,0,0,0,0,0,0,0,0,-1,811,358,0,0
-406,666,0,0,0,0,0,0,0,0,0,-1,818,358,0,0
-399,666,0,0,0,0,0,0,0,0,0,-1,825,358,0,0
-392,666,0,0,0,0,0,0,0,0,0,-1,832,358,0,0
-385,666,0,0,0,0,0,0,0,0,0,-1,839,358,0,0
-378,666,0,0,0,0,0,0,0,0,0,-1,846,358,0,0
-371,666,0,0,0,0,0,0,0,0,0,-1,853,358,0,0
-364,666,0,0,0,0,0,0,0,0,0,-1,860,358,0,0
-357,666,0,0,0,0,0,0,0,0,0,-1,867,358,0,0
-350,666,0,0,0,0,0,0,0,0,0,-1,874,358,0,0
-343,666,0,0,0,0,0,0,0,0,0,-1,881,358,0,0
-336,666,0,0,0,0,0,0,0,0,0,-1,888,358,0,0
-329,666,0,0,0,0,0,0,0,0,0,-1,895,358,0,0
-322,666,0,0,0,0,0,0,0,0,0,-1,902,358,0,0
-315,666,0,0,0,0,0,0,0,0,0,-1,909,358,0,0
-308,666,0,0,0,0,0,0,0,0,0,-1,916,358,0,0
-301,666,0,0,0,0,0,0,0,0,0,-1,923,358,0,0
-294,666,0,0,0,0,0,0,0,0,0,-1,930,358,0,0
-287,666,0,0,0,0,0,0,0,0,0,-1,937,358,0,0
-280,666,0,0,0,0,0,0,0,0,0,-1,944,358,0,0
-273,666,0,0,0,0,0,0,0,0,0,-1,951,358,0,0
-266,666,0,0,0,0,0,0,0,0,0,-1,958,358,0,0
-259,666,0,0,0,0,0,0,0,0,0,-1,965,358,0,0
-252,666,0,0,0,0,0,0,0,0,0,-1,972,358,0,0
-245,666,0,0,0,0,0,0,0,0,0,-1,979,358,0,0
-238,666,0,0,0,0,0,0,0,0,0,-1,986,358,0,0
-231,666,0,0,0,0,0,0,0,0,0,-1,993,358,0,0
-224,666,0,0,0,0,0,0,0,0,0,-1,1000,358,0,0
-217,666,0,0,0,0,0,0,0,0,0,-1,1007,358,0,0
-210,666,0,0,0,0,0,0,0,0,0,-1,1014,358,0,0
-203,666,0,0,0,0,0,0,0,0,0,-1,1021,358,0,0
-196,666,6.60352,-18.3707,0,0,0,0,0,0,0,-1,1028,358,6.60355,18.3707
-189,666,6.39758,-18.0365,0,0,0,0,0,0,0,-1,1035,358,6.39754,18.0365
-182,666,6.09619,-17.953,0,0,0,0,0,0,0,-1,1042,358,6.09622,17.953
-175,666,5.36121,-18.2244,0,0,0,0,0,0,0,-1,1049,358,5.36126,18.2244
-168,666,5.07251,-18.701,0,0,0,0,0,0,0,-1,1056,358,5.07251,18.701
-161,666,4.92566,-19.2557,0,0,0,0,0,0,0,-1,1063,358,4.9257,19.2557
-154,666,3.41333,-19.5693,0,0,0,0,0,0,0,-1,1070,358,3.41332,19.5693
-147,666,3.57068,-18.6125,0,0,0,0,0,0,0,-1,1077,358,3.57072,18.6125
-140,666,3.23242,-16.9683,0,0,0,0,0,0,0,-1,1084,358,3.23237,16.9683
-133,666,3.14624,-16.7573,0.0580637,-0.0128416,0.0179515,0.0623495,-0.0171275,0.234358,0.0482986,0.0413279,1091,358,3.14629,16.7573
-126,666,3.52661,-16.822,0.0538524,-0.01065,0.0199438,0.0595207,-0.0163184,0.276915,0.0460931,0.0432068,1098,358,3.52663,16.822
-119,666,4.20691,-16.6929,0.0485697,-0.00803945,0.0216515,0.0559013,-0.0153711,0.3265,0.0433102,0.0435714,1105,358,4.20691,16.6929
-112,666,4.76733,-16.6876,0,0,0,0,0,0,0,-1,1112,358,4.7673,16.6876
-105,666,4.03943,-16.4791,0,0,0,0,0,0,0,-1,1119,358,4.03941,16.4791
-98,666,3.302,-16.476,0,0,0,0,0,0,0,-1,1126,358,3.30196,16.476
-91,666,3.02649,-15.9357,0,0,0,0,0,0,0,-1,1133,358,3.02644,15.9357
-84,666,2.5249,-14.169,0,0,0,0,0,0,0,-1,1140,358,2.52485,14.169
-77,666,0.964722,-10.3601,0,0,0,0,0,0,0,-1,1147,358,0.964669,10.3601
-70,666,2.05957,-6.51086,0,0,0,0,0,0,0,-1,1154,358,2.05959,6.51088
-63,666,1.47485,-3.79593,0,0,0,0,0,0,0,-1,1161,358,1.47481,3.79593
-56,666,0.424683,-2.04132,0,0,0,0,0,0,0,-1,1168,358,0.424665,2.04132
-49,666,0.754395,-2.23169,0,0,0,0,0,0,0,-1,1175,358,0.754383,2.23169
-42,666,1.34473,-3.53897,0,0,0,0,0,0,0,-1,1182,358,1.34476,3.53896
-35,666,2.97168,-17.8554,0,0,0,0,0,0,0,-1,1189,358,2.97163,17.8554
-28,666,3.31372,-17.6013,0,0,0,0,0,0,0,-1,1196,358,3.31367,17.6013
-21,666,3.29407,-17.6915,-0.00450345,0.00849441,-0.0060965,0.0109063,-0.00691538,-1.19407,0.010375,0.031587,1203,358,3.29409,17.6915
-14,666,3.20911,-17.7811,-0.00420719,0.00947819,-0.00661452,0.0121526,-0.00688155,-1.18657,0.0111289,0.0264412,1210,358,3.20905,17.7811
-7,666,3.15698,-17.8216,-0.0043541,0.0100875,-0.00678355,0.0127741,-0.0070407,-1.1937,0.0115986,0.0173631,1217,358,3.15703,17.8216
0,666,3.17957,-17.846,-0.0047991,0.0105616,-0.0063571,0.0128512,-0.00708873,-1.22509,0.0116715,0.0114835,1224,358,3.17958,17.846
7,666,3.14099,-17.8835,-0.00457177,0.0112313,-0.00589131,0.0131858,-0.00652629,-1.25046,0.0115953,0.0147383,1231,358,3.14104,17.8836
14,666,3.11719,-17.905,-0.00378408,0.0117239,-0.00534839,0.0133896,-0.00544973,-1.26889,0.0111943,0.0139409,1238,358,3.11722,17.905
21,666,3.09033,-17.9507,-0.00249469,0.0122246,-0.00439772,0.0134384,-0.00370851,-1.30149,0.0104175,0.010453,1245,358,3.0903,17.9507
28,666,3.06921,-17.9758,-0.000683935,0.0125985,-0.00325483,0.0133532,-0.00143864,-1.34295,0.00941837,0.0108384,1252,358,3.0692,17.9758
35,666,3.07227,-17.9688,0.00182554,0.0132376,-0.00211787,0.013618,0.00144518,-1.39309,0.00863731,0.00999124,1259,358,3.07231,17.9688
42,666,3.03833,-17.9909,0.00461832,0.013226,-0.000761489,0.0132929,0.00455147,-1.48324,0.00780069,0.0119314,1266,358,3.03832,17.9909
49,666,2.99744,-17.9913,0.00728051,0.0131171,0.000633873,0.0131852,0.00721246,1.46385,0.00762367,0.0104135,1273,358,2.99749,17.9913
56,666,2.96924,-17.9849,0.0102094,0.0127746,0.00180936,0.0137098,0.00927418,1.09372,0.00807802,0.0112068,1280,358,2.96921,17.9849
63,666,2.96021,-17.996,0.0133411,0.0120604,0.00270649,0.015482,0.00991957,0.669234,0.00905576,0.0128481,1287,358,2.96017,17.996
70,666,2.95203,-17.9685,0.0162707,0.0114433,0.00371619,0.0182883,0.00942572,0.49738,0.0105604,0.0138921,1294,358,2.952,17.9685
77,666,2.94092,-17.9308,0.0183706,0.0107804,0.00449835,0.0204609,0.00869013,0.434996,0.0118577,0.0187653,1301,358,2.94087,17.9308
84,666,2.93958,-17.9391,0.0193709,0.010059,0.00475407,0.0213692,0.00806073,0.397913,0.0124609,0.0252373,1308,358,2.93953,17.9391
91,666,2.91296,-17.917,0.0195896,0.00909842,0.00461718,0.0213322,0.00735584,0.360884,0.0125123,0.0221283,1315,358,2.91294,17.917
98,666,2.84326,-17.8576,0.0195726,0.00823185,0.00399264,0.0208372,0.00696721,0.306745,0.0122484,0.0180077,1322,358,2.8432,17.8576
105,666,2.7771,-17.7911,0.0193724,0.00735499,0.00307529,0.0201136,0.00661373,0.236524,0.0118373,0.0190542,1329,358,2.77711,17.7911
112,666,2.79675,-17.5962,0.0180149,0.0062668,0.00248716,0.0185197,0.00576194,0.200264,0.0109437,0.0361986,1336,358,2.79678,17.5962
119,666,2.79883,-17.4537,0.0156844,0.00544238,0.00203483,0.0160739,0.00505292,0.18911,0.00949107,0.0391604,1343,358,2.79884,17.4537
126,666,2.70203,-17.4944,0.0135354,0.00467166,0.00146889,0.0137725,0.00443457,0.160022,0.00811779,0.0247066,1350,358,2.70208,17.4944
133,666,2.71326,-17.4596,0.0113534,0.00409295,0.000956853,0.0114774,0.00396897,0.128859,0.0067307,0.0223592,1357,358,2.71324,17.4596
140,666,2.64856,-17.4745,0.00889442,0.00297063,0.000840129,0.00901127,0.00285378,0.138193,0.00531793,0.022731,1364,358,2.64857,17.4745
147,666,2.58875,-17.4186,0.00637319,0.00354346,0.000339509,0.00641336,0.00350329,0.117753,0.00370803,0.02137,1371,358,2.5888,17.4186
154,666,2.62427,-17.2321,0.00537757,0.00403563,-7.13968e-05,0.00538136,0.00403184,-0.0530044,0.00323302,0.0182074,1378,358,2.6243,17.2322
161,666,2.69543,-17.1389,0.00386355,0.00410555,-0.000386,0.00438907,0.00358003,-0.937281,0.00269712,0.0242194,1385,358,2.69543,17.1388
168,666,2.6842,-17.2209,0,0,0,0,0,0,0,-1,1392,358,2.68422,17.2209
175,666,2.85437,-17.2589,0,0,0,0,0,0,0,-1,1399,358,2.85436,17.2588
182,666,2.60876,-5.17068,0,0,0,0,0,0,0,-1,1406,358,2.6088,5.17068
189,666,2.46973,-5.49979,0,0,0,0,0,0,0,-1,1413,358,2.46975,5.49979
196,666,2.32458,-5.23651,0,0,0,0,0,0,0,-1,1420,358,2.32461,5.23653
203,666,2.28064,-3.88004,0,0,0,0,0,0,0,-1,1427,358,2.28059,3.88003
210,666,3.02576,-5.83548,0,0,0,0,0,0,0,-1,1434,358,3.02581,5.83547
217,666,2.30444,-5.36011,0,0,0,0,0,0,0,-1,1441,358,2.30447,5.3601
224,666,1.82324,-6.03101,0,0,0,0,0,0,0,-1,1448,358,1.82322,6.031
231,666,2.29797,-10.1093,0,0,0,0,0,0,0,-1,1455,358,2.29801,10.1093
238,666,2.52429,-6.10568,0,0,0,0,0,0,0,-1,1462,358,2.52423,6.10567
245,666,4.53345,-1.38205,0,0,0,0,0,0,0,-1,1469,358,4.53349,1.38204
252,666,4.77405,-0.246979,0,0,0,0,0,0,0,-1,1476,358,4.77405,0.246993
259,666,4.83655,1.14087,0,0,0,0,0,0,0,-1,1483,358,4.83652,-1.14087
266,666,6.14148,0.749512,0,0,0,0,0,0,0,-1,1490,358,6.14144,-0.749519
273,666,2.61304,-1.53772,0,0,0,0,0,0,0,-1,1497,358,2.613,1.53773
280,666,8.70898,-0.836975,0,0,0,0,0,0,0,-1,1504,358,8.70894,0.836988
287,666,2.27039,-4.09058,0,0,0,0,0,0,0,-1,1511,358,2.27042,4.09059
294,666,5.04211,-6.10623,0,0,0,0,0,0,0,-1,1518,358,5.04208,6.10623
301,666,1.35095,-11.8304,0,0,0,0,0,0,0,-1,1525,358,1.3509,11.8304
308,666,1.08496,-1.87576,0,0,0,0,0,0,0,-1,1532,358,1.08491,1.87575
315,666,1.76294,-0.284027,0,0,0,0,0,0,0,-1,1539,358,1.76291,0.284016
322,666,0,0,0,0,0,0,0,0,0,-1,1546,358,0,0
329,666,0,0,0,0,0,0,0,0,0,-1,1553,358,0,0
336,666,0,0,0,0,0,0,0,0,0,-1,1560,358,0,0
343,666,0,0,0,0,0,0,0,0,0,-1,1567,358,0,0
350,666,0,0,0,0,0,0,0,0,0,-1,1574,358,0,0
357,666,0,0,0,0,0,0,0,0,0,-1,1581,358,0,0
364,666,0,0,0,0,0,0,0,0,0,-1,1588,358,0,0
371,666,0,0,0,0,0,0,0,0,0,-1,1595,358,0,0
378,666,0,0,0,0,0,0,0,0,0,-1,1602,358,0,0
385,666,0,0,0,0,0,0,0,0,0,-1,1609,358,0,0
392,666,0,0,0,0,0,0,0,0,0,-1,1616,358,0,0
399,666,0,0,0,0,0,0,0,0,0,-1,1623,358,0,0
406,666,0,0,0,0,0,0,0,0,0,-1,1630,358,0,0
413,666,0,0,0,0,0,0,0,0,0,-1,1637,358,0,0
420,666,0,0,0,0,0,0,0,0,0,-1,1644,358,0,0
427,666,0,0,0,0,0,0,0,0,0,-1,1651,358,0,0
434,666,0,0,0,0,0,0,0,0,0,-1,1658,358,0,0
441,666,0,0,0,0,0,0,0,0,0,-1,1665,358,0,0
448,666,0,0,0,0,0,0,0,0,0,-1,1672,358,0,0
455,666,0,0,0,0,0,0,0,0,0,-1,1679,358,0,0
462,666,0,0,0,0,0,0,0,0,0,-1,1686,358,0,0
469,666,0,0,0,0,0,0,0,0,0,-1,1693,358,0,0
476,666,0,0,0,0,0,0,0,0,0,-1,1700,358,0,0
483,666,0,0,0,0,0,0,0,0,0,-1,1707,358,0,0
490,666,0,0,0,0,0,0,0,0,0,-1,1714,358,0,0
497,666,0,0,0,0,0,0,0,0,0,-1,1721,358,0,0
504,666,0,0,0,0,0,0,0,0,0,-1,1728,358,0,0
511,666,0,0,0,0,0,0,0,0,0,-1,1735,358,0,0
518,666,0,0,0,0,0,0,0,0,0,-1,1742,358,0,0
525,666,0,0,0,0,0,0,0,0,0,-1,1749,358,0,0
532,666,0,0,0,0,0,0,0,0,0,-1,1756,358,0,0
539,666,0,0,0,0,0,0,0,0,0,-1,1763,358,0,0
546,666,0,0,0,0,0,0,0,0,0,-1,1770,358,0,0
553,666,0,0,0,0,0,0,0,0,0,-1,1777,358,0,0
560,666,0,0,0,0,0,0,0,0,0,-1,1784,358,0,0
567,666,0,0,0,0,0,0,0,0,0,-1,1791,358,0,0
574,666,0,0,0,0,0,0,0,0,0,-1,1798,358,0,0
581,666,0,0,0,0,0,0,0,0,0,-1,1805,358,0,0
588,666,0,0,0,0,0,0,0,0,0,-1,1812,358,0,0
595,666,0,0,0,0,0,0,0,0,0,-1,1819,358,0,0
602,666,0,0,0,0,0,0,0,0,0,-1,1826,358,0,0
609,666,0,0,0,0,0,0,0,0,0,-1,1833,358,0,0
616,666,0,0,0,0,0,0,0,0,0,-1,1840,358,0,0
623,666,0,0,0,0,0,0,0,0,0,-1,1847,358,0,0
630,666,0,0,0,0,0,0,0,0,0,-1,1854,358,0,0
637,666,0,0,0,0,0,0,0,0,0,-1,1861,358,0,0
644,666,0,0,0,0,0,0,0,0,0,-1,1868,358,0,0
651,666,0,0,0,0,0,0,0,0,0,-1,1875,358,0,0
658,666,0,0,0,0,0,0,0,0,0,-1,1882,358,0,0
665,666,0,0,0,0,0,0,0,0,0,-1,1889,358,0,0
672,666,0,0,0,0,0,0,0,0,0,-1,1896,358,0,0
679,666,0,0,0,0,0,0,0,0,0,-1,1903,358,0,0
686,666,0,0,0,0,0,0,0,0,0,-1,1910,358,0,0
693,666,0,0,0,0,0,0,0,0,0,-1,1917,358,0,0
700,666,0,0,0,0,0,0,0,0,0,-1,1924,358,0,0
707,666,0,0,0,0,0,0,0,0,0,-1,1931,358,0,0
714,666,0,0,0,0,0,0,0,0,0,-1,1938,358,0,0
721,666,0,0,0,0,0,0,0,0,0,-1,1945,358,0,0
728,666,0,0,0,0,0,0,0,0,0,-1,1952,358,0,0
735,666,0,0,0,0,0,0,0,0,0,-1,1959,358,0,0
742,666,0,0,0,0,0,0,0,0,0,-1,1966,358,0,0
749,666,0,0,0,0,0,0,0,0,0,-1,1973,358,0,0
756,666,0,0,0,0,0,0,0,0,0,-1,1980,358,0,0
763,666,0,0,0,0,0,0,0,0,0,-1,1987,358,0,0
770,666,0,0,0,0,0,0,0,0,0,-1,1994,358,0,0
777,666,0,0,0,0,0,0,0,0,0,-1,2001,358,0,0
784,666,0,0,0,0,0,0,0,0,0,-1,2008,358,0,0
791,666,0,0,0,0,0,0,0,0,0,-1,2015,358,0,0
798,666,0,0,0,0,0,0,0,0,0,-1,2022,358,0,0
805,666,0,0,0,0,0,0,0,0,0,-1,2029,358,0,0
812,666,0,0,0,0,0,0,0,0,0,-1,2036,358,0,0
-700,659,0,0,0,0,0,0,0,0,0,-1,524,365,0,0
-693,659,0,0,0,0,0,0,0,0,0,-1,531,365,0,0
-686,659,0,0,0,0,0,0,0,0,0,-1,538,365,0,0
-679,659,0,0,0,0,0,0,0,0,0,-1,545,365,0,0
-672,659,0,0,0,0,0,0,0,0,0,-1,552,365,0,0
-665,659,0,0,0,0,0,0,0,0,0,-1,559,365,0,0
-658,659,0,0,0,0,0,0,0,0,0,-1,566,365,0,0
-651,659,0,0,0,0,0,0,0,0,0,-1,573,365,0,0
-644,659,0,0,0,0,0,0,0,0,0,-1,580,365,0,0
-637,659,0,0,0,0,0,0,0,0,0,-1,587,365,0,0
-630,659,0,0,0,0,0,0,0,0,0,-1,594,365,0,0
-623,659,0,0,0,0,0,0,0,0,0,-1,601,365,0,0
-616,659,0,0,0,0,0,0,0,0,0,-1,608,365,0,0
-609,659,0,0,0,0,0,0,0,0,0,-1,615,365,0,0
-602,659,0,0,0,0,0,0,0,0,0,-1,622,365,0,0
-595,659,0,0,0,0,0,0,0,0,0,-1,629,365,0,0
-588,659,0,0,0,0,0,0,0,0,0,-1,636,365,0,0
-581,659,0,0,0,0,0,0,0,0,0,-1,643,365,0,0
-574,659,0,0,0,0,0,0,0,0,0,-1,650,365,0,0
-567,659,0,0,0,0,0,0,0,0,0,-1,657,365,0,0
-560,659,0,0,0,0,0,0,0,0,0,-1,664,365,0,0
-553,659,0,0,0,0,0,0,0,0,0,-1,671,365,0,0
-546,659,0,0,0,0,0,0,0,0,0,-1,678,365,0,0
-539,659,0,0,0,0,0,0,0,0,0,-1,685,365,0,0
-532,659,0,0,0,0,0,0,0,0,0,-1,692,365,0,0
-525,659,0,0,0,0,0,0,0,0,0,-1,699,365,0,0
-518,659,0,0,0,0,0,0,0,0,0,-1,706,365,0,0
-511,659,0,0,0,0,0,0,0,0,0,-1,713,365,0,0
-504,659,0,0,0,0,0,0,0,0,0,-1,720,365,0,0
-497,659,0,0,0,0,0,0,0,0,0,-1,727,365,0,0
-490,659,0,0,0,0,0,0,0,0,0,-1,734,365,0,0
-483,659,0,0,0,0,0,0,0,0,0,-1,741,365,0,0
-476,659,0,0,0,0,0,0,0,0,0,-1,748,365,0,0
-469,659,0,0,0,0,0,0,0,0,0,-1,755,365,0,0
-462,659,0,0,0,0,0,0,0,0,0,-1,762,365,0,0
-455,659,0,0,0,0,0,0,0,0,0,-1,769,365,0,0
-448,659,0,0,0,0,0,0,0,0,0,-1,776,365,0,0
-441,659,0,0,0,0,0,0,0,0,0,-1,783,365,0,0
-434,659,0,0,0,0,0,0,0,0,0,-1,790,365,0,0
-427,659,0,0,0,0,0,0,0,0,0,-1,797,365,0,0
-420,659,0,0,0,0,0,0,0,0,0,-1,804,365,0,0
-413,659,0,0,0,0,0,0,0,0,0,-1,811,365,0,0
-406,659,0,0,0,0,0,0,0,0,0,-1,818,365,0,0
-399,659,0,0,0,0,0,0,0,0,0,-1,825,365,0,0
-392,659,0,0,0,0,0,0,0,0,0,-1,832,365,0,0
-385,659,0,0,0,0,0,0,0,0,0,-1,839,365,0,0
-378,659,0,0,0,0,0,0,0,0,0,-1,846,365,0,0
-371,659,0,0,0,0,0,0,0,0,0,-1,853,365,0,0
-364,659,0,0,0,0,0,0,0,0,0,-1,860,365,0,0
-357,659,0,0,0,0,0,0,0,0,0,-1,867,365,0,0
-350,659,0,0,0,0,0,0,0,0,0,-1,874,365,0,0
-343,659,0,0,0,0,0,0,0,0,0,-1,881,365,0,0
-336,659,0,0,0,0,0,0,0,0,0,-1,888,365,0,0
-329,659,0,0,0,0,0,0,0,0,0,-1,895,365,0,0
-322,659,0,0,0,0,0,0,0,0,0,-1,902,365,0,0
-315,659,0,0,0,0,0,0,0,0,0,-1,909,365,0,0
-308,659,0,0,0,0,0,0,0,0,0,-1,916,365,0,0
-301,659,0,0,0,0,0,0,0,0,0,-1,923,365,0,0
-294,659,0,0,0,0,0,0,0,0,0,-1,930,365,0,0
-287,659,0,0,0,0,0,0,0,0,0,-1,937,365,0,0
-280,659,0,0,0,0,0,0,0,0,0,-1,944,365,0,0
-273,659,0,0,0,0,0,0,0,0,0,-1,951,365,0,0
-266,659,0,0,0,0,0,0,0,0,0,-1,958,365,0,0
-259,659,0,0,0,0,0,0,0,0,0,-1,965,365,0,0
-252,659,0,0,0,0,0,0,0,0,0,-1,972,365,0,0
-245,659,0,0,0,0,0,0,0,0,0,-1,979,365,0,0
-238,659,0,0,0,0,0,0,0,0,0,-1,986,365,0,0
-231,659,0,0,0,0,0,0,0,0,0,-1,993,365,0,0
-224,659,0,0,0,0,0,0,0,0,0,-1,1000,365,0,0
-217,659,0.806091,-15.796,0,0,0,0,0,0,0,-1,1007,365,0.806085,15.796
-210,659,1.66937,-16.0386,0,0,0,0,0,0,0,-1,1014,365,1.6694,16.0386
-203,659,0.876404,-18.097,0,0,0,0,0,0,0,-1,1021,365,0.876398,18.097
-196,659,2.38367,-17.2749,0,0,0,0,0,0,0,-1,1028,365,2.38372,17.2749
-189,659,5.37476,-16.5301,0,0,0,0,0,0,0,-1,1035,365,5.37481,16.5301
-182,659,5.19678,-16.6499,0,0,0,0,0,0,0,-1,1042,365,5.19673,16.6499
-175,659,4.92114,-17.0037,0,0,0,0,0,0,0,-1,1049,365,4.9212,17.0037
-168,659,4.6908,-17.4607,0,0,0,0,0,0,0,-1,1056,365,4.69076,17.4607
-161,659,4.52612,-17.9608,0,0,0,0,0,0,0,-1,1063,365,4.52607,17.9608
-154,659,4.70068,-17.0898,0,0,0,0,0,0,0,-1,1070,365,4.70064,17.0898
-147,659,4.28625,-16.8828,0,0,0,0,0,0,0,-1,1077,365,4.28621,16.8828
-140,659,1.59521,-16.3861,0,0,0,0,0,0,0,-1,1084,365,1.59527,16.3861
-133,659,2.83032,-16.9175,0.0404049,-0.0101135,0.0101008,0.0423497,-0.0120582,0.190204,0.0329953,0.0436029,1091,365,2.83027,16.9176
-126,659,3.16309,-16.7201,0.0375826,-0.00853858,0.011662,0.0403637,-0.0113197,0.234103,0.0313707,0.0431848,1098,365,3.16305,16.7201
-119,659,3.52441,-16.4991,0.0338399,-0.00656972,0.0130534,0.0376897,-0.0104195,0.286797,0.0292255,0.0430285,1105,365,3.5244,16.4991
-112,659,3.74927,-16.5098,0.0294467,-0.00447986,0.0139156,0.0344242,-0.00945732,0.343509,0.0266669,0.0386293,1112,365,3.7493,16.5098
-105,659,3.69275,-16.4585,0.0247552,-0.00233051,0.0141314,0.0307854,-0.00836074,0.403331,0.0238051,0.0393558,1119,365,3.69269,16.4585
-98,659,3.41406,-16.487,0.0199625,-0.000624784,0.0134341,0.0265932,-0.00725546,0.458492,0.0205782,0.0406497,1126,365,3.41407,16.487
-91,659,3.52551,-16.6918,0,0,0,0,0,0,0,-1,1133,365,3.52547,16.6918
-84,659,3.03967,-16.7429,0,0,0,0,0,0,0,-1,1140,365,3.03971,16.7429
-77,659,2.80139,-15.3457,0,0,0,0,0,0,0,-1,1147,365,2.80139,15.3457
-70,659,2.9353,-12.7028,0,0,0,0,0,0,0,-1,1154,365,2.93533,12.7028
-63,659,2.11267,-9.7796,0,0,0,0,0,0,0,-1,1161,365,2.11266,9.7796
-56,659,2.11182,-9.91541,0,0,0,0,0,0,0,-1,1168,365,2.11178,9.91541
-49,659,3.21765,-17.3896,0,0,0,0,0,0,0,-1,1175,365,3.21764,17.3896
-42,659,3.23071,-17.5381,0,0,0,0,0,0,0,-1,1182,365,3.23074,17.5381
-35,659,3.1665,-17.7218,-0.00346494,0.00514546,-0.00287191,0.00601545,-0.00433493,-1.27665,0.006002,0.0457774,1189,365,3.16655,17.7218
-28,659,3.20154,-17.717,-0.00373428,0.00577745,-0.00338209,0.0068574,-0.00481424,-1.26171,0.00677296,0.0164728,1196,365,3.20159,17.717
-21,659,3.18042,-17.7438,-0.00352849,0.00635436,-0.00373026,0.00760426,-0.00477839,-1.24748,0.00721091,0.0117519,1203,365,3.18037,17.7438
-14,659,3.15332,-17.8216,-0.00332782,0.00702883,-0.00408711,0.00844744,-0.00474642,-1.23671,0.00771673,0.00994481,1210,365,3.15327,17.8216
-7,659,3.13745,-17.8587,-0.00345406,0.00742761,-0.00419678,0.00885814,-0.00488459,-1.24228,0.00804416,0.00960051,1217,365,3.13751,17.8587
0,659,3.12207,-17.882,-0.00375289,0.0077559,-0.00391684,0.00896244,-0.00495943,-1.27198,0.0081478,0.00800797,1224,365,3.12212,17.882
7,659,3.1012,-17.9028,-0.00361753,0.00826363,-0.00363526,0.00928764,-0.00464154,-1.29622,0.00818978,0.00719395,1231,365,3.10121,17.9028
14,659,3.08472,-17.9422,-0.0030801,0.00860618,-0.00329494,0.00947116,-0.00394508,-1.31407,0.00796189,0.00981978,1238,365,3.08473,17.9422
21,659,3.06995,-17.9737,-0.00209878,0.00901868,-0.00263657,0.00961226,-0.00269236,-1.34935,0.00746917,0.0101645,1245,365,3.06989,17.9737
28,659,3.05762,-17.9952,-0.000745139,0.00928612,-0.00186002,0.0096199,-0.00107892,-1.39324,0.0068015,0.00902145,1252,365,3.05765,17.9953
35,659,3.03821,-18.0114,0.00112667,0.00972093,-0.00104118,0.00984526,0.00100233,-1.45194,0.00625622,0.00963362,1259,365,3.03818,18.0114
42,659,3.02258,-18.0179,0.00317051,0.00968666,-6.59902e-06,0.00968667,0.0031705,-1.56978,0.00570271,0.010712,1266,365,3.02259,18.0179
49,659,2.98853,-18.0417,0.00510975,0.00959331,0.00105311,0.00982835,0.00487471,1.35121,0.00567446,0.0107696,1273,365,2.98854,18.0417
56,659,2.95837,-18.0389,0.00723039,0.00936758,0.00194648,0.0105195,0.00607847,1.03643,0.00609791,0.0141703,1280,365,2.95837,18.0389
63,659,2.95056,-18.0227,0.00950043,0.00887345,0.00264165,0.0118471,0.00652676,0.726339,0.00685175,0.015692,1287,365,2.95051,18.0227
70,659,2.9458,-18.0096,0.011621,0.00847177,0.00345022,0.0138389,0.00625384,0.571324,0.00800223,0.0172032,1294,365,2.94577,18.0096
77,659,2.91101,-17.9722,0.0130557,0.00805697,0.00408075,0.0153416,0.005771,0.510628,0.00894758,0.018045,1301,365,2.91096,17.9722
84,659,2.89832,-17.9755,0.0136258,0.0076359,0.00428297,0.0158571,0.00540461,0.48028,0.00930844,0.0130837,1308,365,2.89826,17.9755
91,659,2.86243,-17.9555,0.0135574,0.00706568,0.00412974,0.0155642,0.00505889,0.452335,0.00916753,0.0107284,1315,365,2.86243,17.9555
98,659,2.86853,-17.9098,0.0133276,0.00655629,0.00361271,0.0148931,0.00499075,0.408916,0.00875304,0.00756355,1322,365,2.86857,17.9098
105,659,2.86548,-17.8308,0.0129528,0.00602791,0.00288796,0.0139991,0.00498161,0.347588,0.0081936,0.00885845,1329,365,2.8655,17.8308
112,659,2.84937,-17.7733,0.0117802,0.00533022,0.00238132,0.0125641,0.00454631,0.318017,0.0073456,0.0119269,1336,365,2.84939,17.7733
119,659,2.83777,-17.7016,0.00983091,0.00486076,0.00190836,0.0104791,0.00421256,0.327439,0.00608873,0.0131773,1343,365,2.83778,17.7016
126,659,2.79846,-17.6348,0.00792764,0.00433378,0.0013412,0.00837298,0.00388844,0.320592,0.00483822,0.0128038,1350,365,2.7985,17.6348
133,659,2.75916,-17.5756,0.00621267,0.00397491,0.000915917,0.00653975,0.00364783,0.342991,0.00378412,0.0117714,1357,365,2.75916,17.5756
140,659,2.73486,-17.5215,0.00444273,0.00327684,0.000700437,0.00477106,0.0029485,0.438346,0.00278003,0.00984191,1364,365,2.73481,17.5215
147,659,2.71887,-17.4371,0.00289017,0.00365599,0.000261551,0.00373679,0.00280937,1.27116,0.00224679,0.00892738,1371,365,2.71882,17.4371
154,659,2.70178,-17.3274,0.00232514,0.00388085,-3.01278e-05,0.00388143,0.00232455,-1.55144,0.00225551,0.00922081,1378,365,2.70183,17.3274
161,659,2.7113,-17.2402,0.00146098,0.00375964,-0.000213049,0.00377921,0.0014414,-1.47915,0.0022023,0.0105667,1385,365,2.71127,17.2402
168,659,2.72131,-17.1647,0.000508571,0.00339948,-0.000219726,0.00341608,0.000491966,-1.49537,0.0021324,0.0191868,1392,365,2.72126,17.1647
175,659,2.7179,-17.0912,-0.000495734,0.00268938,-0.000234878,0.00270661,-0.000512961,-1.49758,0.00199747,0.0428451,1399,365,2.71789,17.0913
182,659,2.60547,-16.9499,0,0,0,0,0,0,0,-1,1406,365,2.60549,16.9499
189,659,2.65173,-16.785,0,0,0,0,0,0,0,-1,1413,365,2.65174,16.785
196,659,2.41248,-13.4371,0,0,0,0,0,0,0,-1,1420,365,2.41243,13.4371
203,659,2.38623,-12.2163,0,0,0,0,0,0,0,-1,1427,365,2.38617,12.2163
210,659,2.20789,-13.9792,0,0,0,0,0,0,0,-1,1434,365,2.20794,13.9792
217,659,2.24121,-13.487,0,0,0,0,0,0,0,-1,1441,365,2.24116,13.487
224,659,2.3479,-15.2926,0,0,0,0,0,0,0,-1,1448,365,2.34793,15.2926
231,659,2.44739,-15.9272,0,0,0,0,0,0,0,-1,1455,365,2.4474,15.9272
238,659,2.8551,-16.0358,0,0,0,0,0,0,0,-1,1462,365,2.85516,16.0358
245,659,2.49915,-16.2723,0,0,0,0,0,0,0,-1,1469,365,2.49914,16.2723
252,659,2.02734,-16.3987,0,0,0,0,0,0,0,-1,1476,365,2.02732,16.3987
259,659,2.33069,-3.36703,0,0,0,0,0,0,0,-1,1483,365,2.33073,3.36702
266,659,2.36133,-14.8105,0,0,0,0,0,0,0,-1,1490,365,2.3613,14.8105
273,659,2.4375,-14.5841,0,0,0,0,0,0,0,-1,1497,365,2.43748,14.5841
280,659,1.70947,-9.4129,0,0,0,0,0,0,0,-1,1504,365,1.70952,9.4129
287,659,5.63684,-10.0938,0,0,0,0,0,0,0,-1,1511,365,5.63681,10.0938
294,659,5.19153,-7.84253,0,0,0,0,0,0,0,-1,1518,365,5.19151,7.84252
301,659,4.35144,-3.54773,0,0,0,0,0,0,0,-1,1525,365,4.35145,3.54772
308,659,4.05139,-0.799072,0,0,0,0,0,0,0,-1,1532,365,4.05138,0.799059
315,659,2.17102,-2.98474,0,0,0,0,0,0,0,-1,1539,365,2.171,2.98473
322,659,0.382813,-2.2424,0,0,0,0,0,0,0,-1,1546,365,0.382801,2.2424
329,659,0.604004,-1.75998,0,0,0,0,0,0,0,-1,1553,365,0.603966,1.75998
336,659,2.09851,-1.17941,0,0,0,0,0,0,0,-1,1560,365,2.09857,1.17942
343,659,0,0,0,0,0,0,0,0,0,-1,1567,365,0,0
350,659,0,0,0,0,0,0,0,0,0,-1,1574,365,0,0
357,659,0,0,0,0,0,0,0,0,0,-1,1581,365,0,0
364,659,0,0,0,0,0,0,0,0,0,-1,1588,365,0,0
371,659,0,0,0,0,0,0,0,0,0,-1,1595,365,0,0
378,659,0,0,0,0,0,0,0,0,0,-1,1602,365,0,0
385,659,0,0,0,0,0,0,0,0,0,-1,1609,365,0,0
392,659,0,0,0,0,0,0,0,0,0,-1,1616,365,0,0
399,659,0,0,0,0,0,0,0,0,0,-1,1623,365,0,0
406,659,0,0,0,0,0,0,0,0,0,-1,1630,365,0,0
413,659,0,0,0,0,0,0,0,0,0,-1,1637,365,0,0
420,659,0,0,0,0,0,0,0,0,0,-1,1644,365,0,0
427,659,0,0,0,0,0,0,0,0,0,-1,1651,365,0,0
434,659,0,0,0,0,0,0,0,0,0,-1,1658,365,0,0
441,659,0,0,0,0,0,0,0,0,0,-1,1665,365,0,0
448,659,0,0,0,0,0,0,0,0,0,-1,1672,365,0,0
455,659,0,0,0,0,0,0,0,0,0,-1,1679,365,0,0
462,659,0,0,0,0,0,0,0,0,0,-1,1686,365,0,0
469,659,0,0,0,0,0,0,0,0,0,-1,1693,365,0,0
476,659,0,0,0,0,0,0,0,0,0,-1,1700,365,0,0
483,659,0,0,0,0,0,0,0,0,0,-1,1707,365,0,0
490,659,0,0,0,0,0,0,0,0,0,-1,1714,365,0,0
497,659,0,0,0,0,0,0,0,0,0,-1,1721,365,0,0
504,659,0,0,0,0,0,0,0,0,0,-1,1728,365,0,0
511,659,0,0,0,0,0,0,0,0,0,-1,1735,365,0,0
518,659,0,0,0,0,0,0,0,0,0,-1,1742,365,0,0
525,659,0,0,0,0,0,0,0,0,0,-1,1749,365,0,0
532,659,0,0,0,0,0,0,0,0,0,-1,1756,365,0,0
539,659,0,0,0,0,0,0,0,0,0,-1,1763,365,0,0
546,659,0,0,0,0,0,0,0,0,0,-1,1770,365,0,0
553,659,0,0,0,0,0,0,0,0,0,-1,1777,365,0,0
560,659,0,0,0,0,0,0,0,0,0,-1,1784,365,0,0
567,659,0,0,0,0,0,0,0,0,0,-1,1791,365,0,0
574,659,0,0,0,0,0,0,0,0,0,-1,1798,365,0,0
581,659,0,0,0,0,0,0,0,0,0,-1,1805,365,0,0
588,659,0,0,0,0,0,0,0,0,0,-1,1812,365,0,0
595,659,0,0,0,0,0,0,0,0,0,-1,1819,365,0,0
602,659,0,0,0,0,0,0,0,0,0,-1,1826,365,0,0
609,659,0,0,0,0,0,0,0,0,0,-1,1833,365,0,0
616,659,0,0,0,0,0,0,0,0,0,-1,1840,365,0,0
623,659,0,0,0,0,0,0,0,0,0,-1,1847,365,0,0
630,659,0,0,0,0,0,0,0,0,0,-1,1854,365,0,0
637,659,0,0,0,0,0,0,0,0,0,-1,1861,365,0,0
644,659,0,0,0,0,0,0,0,0,0,-1,1868,365,0,0
651,659,0,0,0,0,0,0,0,0,0,-1,1875,365,0,0
658,659,0,0,0,0,0,0,0,0,0,-1,1882,365,0,0
665,659,0,0,0,0,0,0,0,0,0,-1,1889,365,0,0
672,659,0,0,0,0,0,0,0,0,0,-1,1896,365,0,0
679,659,0,0,0,0,0,0,0,0,0,-1,1903,365,0,0
686,659,0,0,0,0,0,0,0,0,0,-1,1910,365,0,0
693,659,0,0,0,0,0,0,0,0,0,-1,1917,365,0,0
700,659,0,0,0,0,0,0,0,0,0,-1,1924,365,0,0
707,659,0,0,0,0,0,0,0,0,0,-1,1931,365,0,0
714,659,0,0,0,0,0,0,0,0,0,-1,1938,365,0,0
721,659,0,0,0,0,0,0,0,0,0,-1,1945,365,0,0
728,659,0,0,0,0,0,0,0,0,0,-1,1952,365,0,0
735,659,0,0,0,0,0,0,0,0,0,-1,1959,365,0,0
742,659,0,0,0,0,0,0,0,0,0,-1,1966,365,0,0
749,659,0,0,0,0,0,0,0,0,0,-1,1973,365,0,0
756,659,0,0,0,0,0,0,0,0,0,-1,1980,365,0,0
763,659,0,0,0,0,0,0,0,0,0,-1,1987,365,0,0
770,659,0,0,0,0,0,0,0,0,0,-1,1994,365,0,0
777,659,0,0,0,0,0,0,0,0,0,-1,2001,365,0,0
784,659,0,0,0,0,0,0,0,0,0,-1,2008,365,0,0
791,659,0,0,0,0,0,0,0,0,0,-1,2015,365,0,0
798,659,0,0,0,0,0,0,0,0,0,-1,2022,365,0,0
805,659,0,0,0,0,0,0,0,0,0,-1,2029,365,0,0
812,659,0,0,0,0,0,0,0,0,0,-1,2036,365,0,0
-700,652,0,0,0,0,0,0,0,0,0,-1,524,372,0,0
-693,652,0,0,0,0,0,0,0,0,0,-1,531,372,0,0
-686,652,0,0,0,0,0,0,0,0,0,-1,538,372,0,0
-679,652,0,0,0,0,0,0,0,0,0,-1,545,372,0,0
-672,652,0,0,0,0,0,0,0,0,0,-1,552,372,0,0
-665,652,0,0,0,0,0,0,0,0,0,-1,559,372,0,0
-658,652,0,0,0,0,0,0,0,0,0,-1,566,372,0,0
-651,652,0,0,0,0,0,0,0,0,0,-1,573,372,0,0
-644,652,0,0,0,0,0,0,0,0,0,-1,580,372,0,0
-637,652,0,0,0,0,0,0,0,0,0,-1,587,372,0,0
-630,652,0,0,0,0,0,0,0,0,0,-1,594,372,0,0
-623,652,0,0,0,0,0,0,0,0,0,-1,601,372,0,0
-616,652,0,0,0,0,0,0,0,0,0,-1,608,372,0,0
-609,652,0,0,0,0,0,0,0,0,0,-1,615,372,0,0
-602,652,0,0,0,0,0,0,0,0,0,-1,622,372,0,0
-595,652,0,0,0,0,0,0,0,0,0,-1,629,372,0,0
-588,652,0,0,0,0,0,0,0,0,0,-1,636,372,0,0
-581,652,0,0,0,0,0,0,0,0,0,-1,643,372,0,0
-574,652,0,0,0,0,0,0,0,0,0,-1,650,372,0,0
-567,652,0,0,0,0,0,0,0,0,0,-1,657,372,0,0
-560,652,0,0,0,0,0,0,0,0,0,-1,664,372,0,0
-553,652,0,0,0,0,0,0,0,0,0,-1,671,372,0,0
-546,652,0,0,0,0,0,0,0,0,0,-1,678,372,0,0
-539,652,0,0,0,0,0,0,0,0,0,-1,685,372,0,0
-532,652,0,0,0,0,0,0,0,0,0,-1,692,372,0,0
-525,652,0,0,0,0,0,0,0,0,0,-1,699,372,0,0
-518,652,0,0,0,0,0,0,0,0,0,-1,706,372,0,0
-511,652,0,0,0,0,0,0,0,0,0,-1,713,372,0,0
-504,652,0,0,0,0,0,0,0,0,0,-1,720,372,0,0
-497,652,0,0,0,0,0,0,0,0,0,-1,727,372,0,0
-490,652,0,0,0,0,0,0,0,0,0,-1,734,372,0,0
-483,652,0,0,0,0,0,0,0,0,0,-1,741,372,0,0
-476,652,0,0,0,0,0,0,0,0,0,-1,748,372,0,0
-469,652,0,0,0,0,0,0,0,0,0,-1,755,372,0,0
-462,652,0,0,0,0,0,0,0,0,0,-1,762,372,0,0
-455,652,0,0,0,0,0,0,0,0,0,-1,769,372,0,0
-448,652,0,0,0,0,0,0,0,0,0,-1,776,372,0,0
-441,652,0,0,0,0,0,0,0,0,0,-1,783,372,0,0
-434,652,0,0,0,0,0,0,0,0,0,-1,790,372,0,0
-427,652,0,0,0,0,0,0,0,0,0,-1,797,372,0,0
-420,652,0,0,0,0,0,0,0,0,0,-1,804,372,0,0
-413,652,0,0,0,0,0,0,0,0,0,-1,811,372,0,0
-406,652,0,0,0,0,0,0,0,0,0,-1,818,372,0,0
-399,652,0,0,0,0,0,0,0,0,0,-1,825,372,0,0
-392,652,0,0,0,0,0,0,0,0,0,-1,832,372,0,0
-385,652,0,0,0,0,0,0,0,0,0,-1,839,372,0,0
-378,652,0,0,0,0,0,0,0,0,0,-1,846,372,0,0
-371,652,0,0,0,0,0,0,0,0,0,-1,853,372,0,0
-364,652,0,0,0,0,0,0,0,0,0,-1,860,372,0,0
-357,652,0,0,0,0,0,0,0,0,0,-1,867,372,0,0
-350,652,0,0,0,0,0,0,0,0,0,-1,874,372,0,0
-343,652,0,0,0,0,0,0,0,0,0,-1,881,372,0,0
-336,652,0,0,0,0,0,0,0,0,0,-1,888,372,0,0
-329,652,0,0,0,0,0,0,0,0,0,-1,895,372,0,0
-322,652,0,0,0,0,0,0,0,0,0,-1,902,372,0,0
-315,652,0,0,0,0,0,0,0,0,0,-1,909,372,0,0
-308,652,0,0,0,0,0,0,0,0,0,-1,916,372,0,0
-301,652,0,0,0,0,0,0,0,0,0,-1,923,372,0,0
-294,652,0,0,0,0,0,0,0,0,0,-1,930,372,0,0
-287,652,0,0,0,0,0,0,0,0,0,-1,937,372,0,0
-280,652,0,0,0,0,0,0,0,0,0,-1,944,372,0,0
-273,652,0,0,0,0,0,0,0,0,0,-1,951,372,0,0
-266,652,0,0,0,0,0,0,0,0,0,-1,958,372,0,0
-259,652,0,0,0,0,0,0,0,0,0,-1,965,372,0,0
-252,652,0,0,0,0,0,0,0,0,0,-1,972,372,0,0
-245,652,0,0,0,0,0,0,0,0,0,-1,979,372,0,0
-238,652,0,0,0,0,0,0,0,0,0,-1,986,372,0,0
-231,652,-0.0509033,-13.1051,0,0,0,0,0,0,0,-1,993,372,-0.0509221,13.1051
-224,652,1.83624,-9.07111,0,0,0,0,0,0,0,-1,1000,372,1.83626,9.0711
-217,652,2.88489,-16.6299,0,0,0,0,0,0,0,-1,1007,372,2.88488,16.6299
-210,652,3.10815,-16.6885,0,0,0,0,0,0,0,-1,1014,372,3.10813,16.6885
-203,652,1.35736,-17.4617,0,0,0,0,0,0,0,-1,1021,372,1.35736,17.4617
-196,652,2.57312,-16.9845,0,0,0,0,0,0,0,-1,1028,372,2.57306,16.9845
-189,652,3.03674,-16.0751,0,0,0,0,0,0,0,-1,1035,372,3.0368,16.0751
-182,652,4.71582,-15.2441,0,0,0,0,0,0,0,-1,1042,372,4.71577,15.2441
-175,652,4.4906,-15.7271,0,0,0,0,0,0,0,-1,1049,372,4.49057,15.7271
-168,652,4.19482,-16.0774,0,0,0,0,0,0,0,-1,1056,372,4.19488,16.0774
-161,652,3.2843,-15.7191,0,0,0,0,0,0,0,-1,1063,372,3.28427,15.7191
-154,652,3.46277,-15.9021,0,0,0,0,0,0,0,-1,1070,372,3.46273,15.9021
-147,652,3.43005,-15.8118,0,0,0,0,0,0,0,-1,1077,372,3.43004,15.8118
-140,652,2.09192,-16.0296,0.0285587,-0.00826604,0.00402518,0.0289935,-0.00870088,0.107613,0.0227899,0.0431047,1084,372,2.09193,16.0296
-133,652,2.94507,-16.3553,0.0274697,-0.00751112,0.00513357,0.0282075,-0.00824893,0.142745,0.0220745,0.0428709,1091,372,2.94504,16.3553
-126,652,3.24719,-16.3093,0.0256613,-0.00644032,0.00632262,0.0268617,-0.00764071,0.187624,0.020925,0.040693,1098,372,3.24718,16.3093
-119,652,3.34363,-16.3879,0.0231123,-0.00500765,0.00744824,0.0249633,-0.00685865,0.24358,0.0193382,0.0347728,1105,372,3.34364,16.3879
-112,652,3.32727,-16.4175,0.0200326,-0.00346072,0.00819432,0.0226083,-0.00603645,0.304553,0.0174362,0.0259768,1112,372,3.32727,16.4175
-105,652,3.31653,-16.4364,0.0166511,-0.00178912,0.0084792,0.0199573,-0.00509527,0.37178,0.015289,0.0221493,1119,372,3.31656,16.4364
-98,652,3.31934,-16.6041,0.0131632,-0.000450639,0.00812529,0.016956,-0.00424346,0.43673,0.0129523,0.0234215,1126,372,3.31928,16.6041
-91,652,3.34949,-16.7636,0.00998406,0.000531524,0.00733573,0.0139842,-0.00346864,0.499226,0.0106687,0.026865,1133,372,3.34945,16.7636
-84,652,3.26257,-16.9369,0.00665593,0.000918721,0.00670545,0.0110806,-0.00350595,0.583277,0.0087919,0.043977,1140,372,3.26252,16.9369
-77,652,3.18164,-16.9799,0,0,0,0,0,0,0,-1,1147,372,3.18168,16.9799
-70,652,3.25159,-17.174,0,0,0,0,0,0,0,-1,1154,372,3.25163,17.174
-63,652,3.2467,-17.2883,0,0,0,0,0,0,0,-1,1161,372,3.24665,17.2883
-56,652,3.22205,-17.3741,0,0,0,0,0,0,0,-1,1168,372,3.22207,17.3741
-49,652,3.20935,-17.4535,-0.00264882,0.00285487,-0.0015968,0.0032846,-0.00307855,-1.30791,0.00367441,0.0360004,1175,372,3.20934,17.4535
-42,652,3.16235,-17.5376,-0.00212373,0.00302759,-0.00122363,0.00330347,-0.00239961,-1.34904,0.00330643,0.0117346,1182,372,3.16238,17.5376
-35,652,3.16089,-17.6175,-0.0023281,0.0034928,-0.00138153,0.00380405,-0.00263935,-1.3492,0.0037403,0.00954933,1189,372,3.1609,17.6174
-28,652,3.15137,-17.6968,-0.00251059,0.00385369,-0.00151772,0.0041971,-0.002854,-1.34828,0.0040955,0.0078497,1196,372,3.15134,17.6968
-21,652,3.11108,-17.7615,-0.00244845,0.00416834,-0.00166556,0.00456394,-0.00284405,-1.3376,0.00431526,0.00850209,1203,372,3.11113,17.7615
-14,652,3.10071,-17.8035,-0.00238141,0.00451335,-0.00175786,0.00493566,-0.00280372,-1.33502,0.00452449,0.0112931,1210,372,3.10073,17.8035
-7,652,3.10303,-17.8673,-0.00249496,0.00471484,-0.00177836,0.00512962,-0.00290975,-1.34165,0.00470014,0.0138086,1217,372,3.10304,17.8673
0,652,3.07007,-17.9017,-0.00259965,0.00491735,-0.00166299,0.00526882,-0.00295113,-1.36251,0.00480826,0.0121859,1224,372,3.07009,17.9017
7,652,3.05542,-17.905,-0.00261372,0.005267,-0.00153725,0.00555625,-0.00290296,-1.38481,0.00496336,0.0123711,1231,372,3.0554,17.905
14,652,3.04382,-17.9461,-0.00245754,0.00549363,-0.00138145,0.00572681,-0.00269072,-1.40358,0.00496412,0.0108556,1238,372,3.04382,17.9461
21,652,3.02954,-17.9939,-0.00186907,0.0058369,-0.000995419,0.00596341,-0.00199558,-1.44439,0.00478168,0.010476,1245,372,3.02957,17.9939
28,652,3.03113,-18.0221,-0.000978119,0.00602477,-0.000548665,0.0060675,-0.00102085,-1.49308,0.00442471,0.00959918,1252,372,3.03109,18.0221
35,652,3.01184,-18.0338,0.000233918,0.00623124,3.77759e-06,0.00623124,0.000233916,1.57017,0.00407843,0.00928633,1259,372,3.0118,18.0339
42,652,2.99536,-18.0286,0.00140557,0.00619497,0.000751519,0.00631012,0.00129042,1.41875,0.0038494,0.010138,1266,372,2.99533,18.0286
49,652,3.00562,-18.0545,0.00260108,0.00611793,0.00149763,0.00666926,0.00204975,1.21806,0.00394463,0.0132256,1273,372,3.00567,18.0545
56,652,2.98291,-18.059,0.00390716,0.0059983,0.00211884,0.0073155,0.00258995,1.0146,0.00428318,0.0155867,1280,372,2.98297,18.059
63,652,2.94446,-18.0333,0.00528199,0.00569507,0.00261235,0.00810903,0.00286803,0.824847,0.0047481,0.0184713,1287,372,2.94451,18.0333
70,652,2.96423,-18.011,0.00656505,0.00545649,0.0032386,0.00929647,0.00272508,0.700645,0.00551832,0.0163919,1294,372,2.96418,18.011
77,652,2.91406,-17.9878,0.00736816,0.00522236,0.0037203,0.0101672,0.00242335,0.645012,0.00613208,0.016035,1301,372,2.91411,17.9878
84,652,2.91687,-17.99,0.00755915,0.00503069,0.00387065,0.0103668,0.00222304,0.62755,0.00630227,0.0137422,1308,372,2.91687,17.99
91,652,2.89063,-18.0028,0.00727754,0.0047803,0.00368633,0.00992098,0.00213686,0.622105,0.00602927,0.0155166,1315,372,2.89068,18.0028
98,652,2.91357,-17.9241,0.00691061,0.00456947,0.00329427,0.00923611,0.00224397,0.614688,0.00556239,0.0124664,1322,372,2.91359,17.9241
105,652,2.89587,-17.8275,0.00637908,0.00433349,0.00279638,0.00833385,0.00237872,0.610076,0.00495703,0.0106253,1329,372,2.89591,17.8275
112,652,2.89087,-17.7965,0.00556073,0.00401137,0.00234935,0.00725983,0.00231227,0.62614,0.00428252,0.00887748,1336,372,2.89093,17.7965
119,652,2.87927,-17.7404,0.00434121,0.00385063,0.00187965,0.00599151,0.00220034,0.720516,0.00349961,0.00978613,1343,372,2.87929,17.7404
126,652,2.84143,-17.6697,0.00293526,0.00357105,0.00132656,0.00461728,0.00188904,0.903,0.00268042,0.0127202,1350,372,2.84137,17.6697
133,652,2.80786,-17.604,0.00178198,0.00346369,0.00092284,0.0038713,0.00137437,1.15487,0.0022662,0.0127697,1357,372,2.80785,17.604
140,652,2.79944,-17.5306,0.000881387,0.00326056,0.000540142,0.00337745,0.000764501,1.35768,0.002045,0.00928703,1364,372,2.79949,17.5306
147,652,2.79346,-17.4301,0.000471972,0.00348068,0.000125368,0.0034859,0.000466757,1.52922,0.00218503,0.00883972,1371,372,2.79346,17.4301
154,652,2.78357,-17.3276,0.000319799,0.00360749,-3.28559e-05,0.00360781,0.000319471,-1.5608,0.00230611,0.00904393,1378,372,2.78363,17.3276
161,652,2.77795,-17.2304,6.64675e-05,0.00341032,-6.1646e-05,0.00341146,6.53315e-05,-1.55237,0.00225284,0.0109872,1385,372,2.77789,17.2304
168,652,2.76025,-17.142,-0.00028067,0.0030984,1.83779e-05,0.0030985,-0.00028077,1.56536,0.00216533,0.0124746,1392,372,2.76027,17.142
175,652,2.72754,-17.0345,-0.000620726,0.00260105,9.51571e-05,0.00260386,-0.000623534,1.5413,0.00197681,0.0121681,1399,372,2.72749,17.0345
182,652,2.7063,-16.9546,-0.000209971,0.00269655,0.000218414,0.00271288,-0.000226292,1.49621,0.00188854,0.0174742,1406,372,2.70626,16.9545
189,652,2.73181,-16.8488,-7.16106e-05,0.00260659,0.000670538,0.00276509,-0.000230112,1.33868,0.00192469,0.0284404,1413,372,2.73181,16.8488
196,652,2.70715,-16.6656,0,0,0,0,0,0,0,-1,1420,372,2.70713,16.6656
203,652,2.67126,-16.5322,0,0,0,0,0,0,0,-1,1427,372,2.67129,16.5322
210,652,2.70508,-16.372,0,0,0,0,0,0,0,-1,1434,372,2.70508,16.3721
217,652,2.67944,-16.2468,0,0,0,0,0,0,0,-1,1441,372,2.67941,16.2468
224,652,2.60266,-16.1516,0,0,0,0,0,0,0,-1,1448,372,2.6027,16.1516
231,652,2.5918,-15.8571,-0.00180409,0.0031012,0.00122666,0.00339085,-0.00209374,1.33892,0.00319591,0.0435065,1455,372,2.59175,15.8571
238,652,2.74011,-15.8006,-0.00167184,0.0037456,0.00170907,0.0042397,-0.00216595,1.28936,0.00376235,0.0437266,1462,372,2.74006,15.8006
245,652,2.57422,-15.8223,-0.00179053,0.0040249,0.00201164,0.00465293,-0.00241856,1.26819,0.0041501,0.0423719,1469,372,2.57418,15.8223
252,652,2.32263,-15.7274,0,0,0,0,0,0,0,-1,1476,372,2.32259,15.7274
259,652,2.13464,-15.4933,0,0,0,0,0,0,0,-1,1483,372,2.13463,15.4933
266,652,2.46033,-14.9589,0,0,0,0,0,0,0,-1,1490,372,2.46029,14.9589
273,652,2.46106,-14.9161,0,0,0,0,0,0,0,-1,1497,372,2.46105,14.9161
280,652,2.47961,-14.9797,0,0,0,0,0,0,0,-1,1504,372,2.47958,14.9797
287,652,6.36182,-12.2355,0,0,0,0,0,0,0,-1,1511,372,6.3618,12.2355
294,652,5.29248,-8.064,0,0,0,0,0,0,0,-1,1518,372,5.29254,8.064
301,652,5.11084,-5.37704,0,0,0,0,0,0,0,-1,1525,372,5.11087,5.37705
308,652,4.90649,-2.59174,0,0,0,0,0,0,0,-1,1532,372,4.90647,2.59174
315,652,4.6604,0.376923,0,0,0,0,0,0,0,-1,1539,372,4.66041,-0.376925
322,652,3.10327,-14.0434,0,0,0,0,0,0,0,-1,1546,372,3.10324,14.0434
329,652,2.7074,-13.3513,0,0,0,0,0,0,0,-1,1553,372,2.70745,13.3513
336,652,1.76904,-14.9183,0,0,0,0,0,0,0,-1,1560,372,1.7691,14.9183
343,652,4.18225,-6.7092,0,0,0,0,0,0,0,-1,1567,372,4.18231,6.70921
350,652,4.64563,-7.2074,0,0,0,0,0,0,0,-1,1574,372,4.6456,7.2074
357,652,0,0,0,0,0,0,0,0,0,-1,1581,372,0,0
364,652,0,0,0,0,0,0,0,0,0,-1,1588,372,0,0
371,652,0,0,0,0,0,0,0,0,0,-1,1595,372,0,0
378,652,0,0,0,0,0,0,0,0,0,-1,1602,372,0,0
385,652,0,0,0,0,0,0,0,0,0,-1,1609,372,0,0
392,652,0,0,0,0,0,0,0,0,0,-1,1616,372,0,0
399,652,0,0,0,0,0,0,0,0,0,-1,1623,372,0,0
406,652,0,0,0,0,0,0,0,0,0,-1,1630,372,0,0
413,652,0,0,0,0,0,0,0,0,0,-1,1637,372,0,0
420,652,0,0,0,0,0,0,0,0,0,-1,1644,372,0,0
427,652,0,0,0,0,0,0,0,0,0,-1,1651,372,0,0
434,652,0,0,0,0,0,0,0,0,0,-1,1658,372,0,0
441,652,0,0,0,0,0,0,0,0,0,-1,1665,372,0,0
448,652,0,0,0,0,0,0,0,0,0,-1,1672,372,0,0
455,652,0,0,0,0,0,0,0,0,0,-1,1679,372,0,0
462,652,0,0,0,0,0,0,0,0,0,-1,1686,372,0,0
469,652,0,0,0,0,0,0,0,0,0,-1,1693,372,0,0
476,652,0,0,0,0,0,0,0,0,0,-1,1700,372,0,0
483,652,0,0,0,0,0,0,0,0,0,-1,1707,372,0,0
490,652,0,0,0,0,0,0,0,0,0,-1,1714,372,0,0
497,652,0,0,0,0,0,0,0,0,0,-1,1721,372,0,0
504,652,0,0,0,0,0,0,0,0,0,-1,1728,372,0,0
511,652,0,0,0,0,0,0,0,0,0,-1,1735,372,0,0
518,652,0,0,0,0,0,0,0,0,0,-1,1742,372,0,0
525,652,0,0,0,0,0,0,0,0,0,-1,1749,372,0,0
532,652,0,0,0,0,0,0,0,0,0,-1,1756,372,0,0
539,652,0,0,0,0,0,0,0,0,0,-1,1763,372,0,0
546,652,0,0,0,0,0,0,0,0,0,-1,1770,372,0,0
553,652,0,0,0,0,0,0,0,0,0,-1,1777,372,0,0
560,652,0,0,0,0,0,0,0,0,0,-1,1784,372,0,0
567,652,0,0,0,0,0,0,0,0,0,-1,1791,372,0,0
574,652,0,0,0,0,0,0,0,0,0,-1,1798,372,0,0
581,652,0,0,0,0,0,0,0,0,0,-1,1805,372,0,0
588,652,0,0,0,0,0,0,0,0,0,-1,1812,372,0,0
595,652,0,0,0,0,0,0,0,0,0,-1,1819,372,0,0
602,652,0,0,0,0,0,0,0,0,0,-1,1826,372,0,0
609,652,0,0,0,0,0,0,0,0,0,-1,1833,372,0,0
616,652,0,0,0,0,0,0,0,0,0,-1,1840,372,0,0
623,652,0,0,0,0,0,0,0,0,0,-1,1847,372,0,0
630,652,0,0,0,0,0,0,0,0,0,-1,1854,372,0,0
637,652,0,0,0,0,0,0,0,0,0,-1,1861,372,0,0
644,652,0,0,0,0,0,0,0,0,0,-1,1868,372,0,0
651,652,0,0,0,0,0,0,0,0,0,-1,1875,372,0,0
658,652,0,0,0,0,0,0,0,0,0,-1,1882,372,0,0
665,652,0,0,0,0,0,0,0,0,0,-1,1889,372,0,0
672,652,0,0,0,0,0,0,0,0,0,-1,1896,372,0,0
679,652,0,0,0,0,0,0,0,0,0,-1,1903,372,0,0
686,652,0,0,0,0,0,0,0,0,0,-1,1910,372,0,0
693,652,0,0,0,0,0,0,0,0,0,-1,1917,372,0,0
700,652,0,0,0,0,0,0,0,0,0,-1,1924,372,0,0
707,652,0,0,0,0,0,0,0,0,0,-1,1931,372,0,0
714,652,0,0,0,0,0,0,0,0,0,-1,1938,372,0,0
721,652,0,0,0,0,0,0,0,0,0,-1,1945,372,0,0
728,652,0,0,0,0,0,0,0,0,0,-1,1952,372,0,0
735,652,0,0,0,0,0,0,0,0,0,-1,1959,372,0,0
742,652,0,0,0,0,0,0,0,0,0,-1,1966,372,0,0
749,652,0,0,0,0,0,0,0,0,0,-1,1973,372,0,0
756,652,0,0,0,0,0,0,0,0,0,-1,1980,372,0,0
763,652,0,0,0,0,0,0,0,0,0,-1,1987,372,0,0
770,652,0,0,0,0,0,0,0,0,0,-1,1994,372,0,0
777,652,0,0,0,0,0,0,0,0,0,-1,2001,372,0,0
784,652,0,0,0,0,0,0,0,0,0,-1,2008,372,0,0
791,652,0,0,0,0,0,0,0,0,0,-1,2015,372,0,0
798,652,0,0,0,0,0,0,0,0,0,-1,2022,372,0,0
805,652,0,0,0,0,0,0,0,0,0,-1,2029,372,0,0
812,652,0,0,0,0,0,0,0,0,0,-1,2036,372,0,0
-700,645,0,0,0,0,0,0,0,0,0,-1,524,379,0,0
-693,645,0,0,0,0,0,0,0,0,0,-1,531,379,0,0
-686,645,0,0,0,0,0,0,0,0,0,-1,538,379,0,0
-679,645,0,0,0,0,0,0,0,0,0,-1,545,379,0,0
-672,645,0,0,0,0,0,0,0,0,0,-1,552,379,0,0
-665,645,0,0,0,0,0,0,0,0,0,-1,559,379,0,0
-658,645,0,0,0,0,0,0,0,0,0,-1,566,379,0,0
-651,645,0,0,0,0,0,0,0,0,0,-1,573,379,0,0
-644,645,0,0,0,0,0,0,0,0,0,-1,580,379,0,0
-637,645,0,0,0,0,0,0,0,0,0,-1,587,379,0,0
-630,645,0,0,0,0,0,0,0,0,0,-1,594,379,0,0
-623,645,0,0,0,0,0,0,0,0,0,-1,601,379,0,0
-616,645,0,0,0,0,0,0,0,0,0,-1,608,379,0,0
-609,645,0,0,0,0,0,0,0,0,0,-1,615,379,0,0
-602,645,0,0,0,0,0,0,0,0,0,-1,622,379,0,0
-595,645,0,0,0,0,0,0,0,0,0,-1,629,379,0,0
-588,645,0,0,0,0,0,0,0,0,0,-1,636,379,0,0
-581,645,0,0,0,0,0,0,0,0,0,-1,643,379,0,0
-574,645,0,0,0,0,0,0,0,0,0,-1,650,379,0,0
-567,645,0,0,0,0,0,0,0,0,0,-1,657,379,0,0
-560,645,0,0,0,0,0,0,0,0,0,-1,664,379,0,0
-553,645,0,0,0,0,0,0,0,0,0,-1,671,379,0,0
-546,645,0,0,0,0,0,0,0,0,0,-1,678,379,0,0
-539,645,0,0,0,0,0,0,0,0,0,-1,685,379,0,0
-532,645,0,0,0,0,0,0,0,0,0,-1,692,379,0,0
-525,645,0,0,0,0,0,0,0,0,0,-1,699,379,0,0
-518,645,0,0,0,0,0,0,0,0,0,-1,706,379,0,0
-511,645,0,0,0,0,0,0,0,0,0,-1,713,379,0,0
-504,645,0,0,0,0,0,0,0,0,0,-1,720,379,0,0
-497,645,0,0,0,0,0,0,0,0,0,-1,727,379,0,0
-490,645,0,0,0,0,0,0,0,0,0,-1,734,379,0,0
-483,645,0,0,0,0,0,0,0,0,0,-1,741,379,0,0
-476,645,0,0,0,0,0,0,0,0,0,-1,748,379,0,0
-469,645,0,0,0,0,0,0,0,0,0,-1,755,379,0,0
-462,645,0,0,0,0,0,0,0,0,0,-1,762,379,0,0
-455,645,0,0,0,0,0,0,0,0,0,-1,769,379,0,0
-448,645,0,0,0,0,0,0,0,0,0,-1,776,379,0,0
-441,645,0,0,0,0,0,0,0,0,0,-1,783,379,0,0
-434,645,0,0,0,0,0,0,0,0,0,-1,790,379,0,0
-427,645,0,0,0,0,0,0,0,0,0,-1,797,379,0,0
-420,645,0,0,0,0,0,0,0,0,0,-1,804,379,0,0
-413,645,0,0,0,0,0,0,0,0,0,-1,811,379,0,0
-406,645,0,0,0,0,0,0,0,0,0,-1,818,379,0,0
-399,645,0,0,0,0,0,0,0,0,0,-1,825,379,0,0
-392,645,0,0,0,0,0,0,0,0,0,-1,832,379,0,0
-385,645,0,0,0,0,0,0,0,0,0,-1,839,379,0,0
-378,645,0,0,0,0,0,0,0,0,0,-1,846,379,0,0
-371,645,0,0,0,0,0,0,0,0,0,-1,853,379,0,0
-364,645,0,0,0,0,0,0,0,0,0,-1,860,379,0,0
-357,645,0,0,0,0,0,0,0,0,0,-1,867,379,0,0
-350,645,0,0,0,0,0,0,0,0,0,-1,874,379,0,0
-343,645,0,0,0,0,0,0,0,0,0,-1,881,379,0,0
-336,645,0,0,0,0,0,0,0,0,0,-1,888,379,0,0
-329,645,0,0,0,0,0,0,0,0,0,-1,895,379,0,0
-322,645,0,0,0,0,0,0,0,0,0,-1,902,379,0,0
-315,645,0,0,0,0,0,0,0,0,0,-1,909,379,0,0
-308,645,0,0,0,0,0,0,0,0,0,-1,916,379,0,0
-301,645,0,0,0,0,0,0,0,0,0,-1,923,379,0,0
-294,645,0,0,0,0,0,0,0,0,0,-1,930,379,0,0
-287,645,0,0,0,0,0,0,0,0,0,-1,937,379,0,0
-280,645,0,0,0,0,0,0,0,0,0,-1,944,379,0,0
-273,645,0,0,0,0,0,0,0,0,0,-1,951,379,0,0
-266,645,0,0,0,0,0,0,0,0,0,-1,958,379,0,0
-259,645,0,0,0,0,0,0,0,0,0,-1,965,379,0,0
-252,645,3.57031,-12.7438,0,0,0,0,0,0,0,-1,972,379,3.57033,12.7438
-245,645,2.27789,-13.5026,-0.121437,0.00918538,-0.086863,0.0525514,-0.164803,-1.10775,0.130949,0.0421899,979,379,2.2779,13.5026
-238,645,0.993347,-14.2849,-0.113926,0.0109951,-0.0782532,0.048659,-0.15159,-1.12221,0.120597,0.0454551,986,379,0.993334,14.2848
-231,645,-0.223816,-14.7755,0,0,0,0,0,0,0,-1,993,379,-0.223788,14.7755
-224,645,-1.1792,-15.2079,0,0,0,0,0,0,0,-1,1000,379,-1.17918,15.2079
-217,645,3.3772,-12.1184,0,0,0,0,0,0,0,-1,1007,379,3.37718,12.1184
-210,645,5.05524,-17.6685,0,0,0,0,0,0,0,-1,1014,379,5.05522,17.6685
-203,645,4.50842,-16.9673,0,0,0,0,0,0,0,-1,1021,379,4.50848,16.9673
-196,645,2.53796,-16.0215,0,0,0,0,0,0,0,-1,1028,379,2.53799,16.0215
-189,645,2.90051,-15.2841,0,0,0,0,0,0,0,-1,1035,379,2.90053,15.2841
-182,645,3.27551,-14.5877,0,0,0,0,0,0,0,-1,1042,379,3.27557,14.5877
-175,645,3.37878,-14.5512,0,0,0,0,0,0,0,-1,1049,379,3.37881,14.5512
-168,645,3.22998,-15.1242,0,0,0,0,0,0,0,-1,1056,379,3.22997,15.1242
-161,645,3.26489,-15.5046,0.0156141,-0.00507114,0.000625943,0.015633,-0.00509006,0.0302235,0.0124699,0.0473408,1063,379,3.2649,15.5046
-154,645,3.33521,-15.6564,0.0174382,-0.0054631,0.000383053,0.0174446,-0.0054695,0.0167201,0.0138185,0.0441809,1070,379,3.3352,15.6564
-147,645,3.33545,-15.686,0.0184008,-0.00570577,0.000646486,0.0184181,-0.0057231,0.0267922,0.0145661,0.0427916,1077,379,3.33544,15.686
-140,645,2.79065,-15.8111,0.0187733,-0.00569282,0.00135393,0.018848,-0.00576751,0.0551147,0.0148656,0.036832,1084,379,2.79069,15.8111
-133,645,3.11108,-15.9569,0.0181966,-0.00526578,0.00214274,0.0183906,-0.00545986,0.0903311,0.0144289,0.0327146,1091,379,3.11108,15.9569
-126,645,3.35962,-16.0831,0.0171405,-0.00458783,0.00300069,0.0175473,-0.00499461,0.134741,0.0136707,0.0249331,1098,379,3.35958,16.0831
-119,645,3.32996,-16.268,0.0155137,-0.00355229,0.00386451,0.0162672,-0.00430581,0.192569,0.0125292,0.0165508,1105,379,3.32994,16.268
-112,645,3.28186,-16.4474,0.0134136,-0.0024166,0.00448464,0.0145958,-0.00359879,0.257746,0.0111259,0.0122768,1112,379,3.28182,16.4474
-105,645,3.25891,-16.5758,0.0110329,-0.00111941,0.00478624,0.0126916,-0.00277809,0.3336,0.00952315,0.0121263,1119,379,3.25894,16.5758
-98,645,3.22375,-16.7016,0.00856242,-7.05783e-05,0.0046441,0.0105863,-0.00209441,0.410971,0.00784934,0.0122683,1126,379,3.22377,16.7016
-91,645,3.1936,-16.8285,0.00637706,0.000683952,0.00421758,0.00861881,-0.0015578,0.488549,0.00632937,0.0131711,1133,379,3.19358,16.8285
-84,645,3.18994,-16.954,0.00401666,0.00103813,0.00407097,0.00686222,-0.00180742,0.610047,0.0052814,0.0141683,1140,379,3.1899,16.954
-77,645,3.17078,-17.0876,0.0014756,0.00154281,0.00332752,0.0048369,-0.00181849,0.790447,0.00397203,0.0134818,1147,379,3.1708,17.0876
-70,645,3.16785,-17.1855,-0.000661467,0.00220718,0.00231716,0.00349802,-0.00195231,1.06253,0.00318865,0.0126364,1154,379,3.16787,17.1854
-63,645,3.15625,-17.2772,-0.00286162,0.00251494,0.000219158,0.00252386,-0.00287054,1.53012,0.0031166,0.0122198,1161,379,3.15621,17.2772
-56,645,3.13611,-17.3538,-0.00232107,0.00254552,-0.0005665,0.00261059,-0.00238614,-1.45643,0.00288584,0.0126441,1168,379,3.13613,17.3538
-49,645,3.13599,-17.4435,-0.00165877,0.00215714,-0.000859022,0.0023416,-0.00184323,-1.35927,0.00242182,0.010725,1175,379,3.13602,17.4434
-42,645,3.1095,-17.5467,-0.00107978,0.00205592,-0.000441404,0.00211687,-0.00114073,-1.43358,0.00190871,0.0100728,1182,379,3.10948,17.5467
-35,645,3.09155,-17.6258,-0.00109909,0.00219928,-0.000395597,0.00224606,-0.00114588,-1.45308,0.00199238,0.00989029,1189,379,3.09158,17.6258
-28,645,3.07666,-17.7217,-0.00119462,0.00225937,-0.000348789,0.00229424,-0.00122949,-1.47115,0.00206515,0.00834148,1196,379,3.07664,17.7217
-21,645,3.05847,-17.7757,-0.00126339,0.00229536,-0.000403111,0.00234045,-0.00130848,-1.4594,0.00213461,0.0101442,1203,379,3.05847,17.7757
-14,645,3.05396,-17.8133,-0.00133633,0.00230211,-0.000388722,0.00234317,-0.0013774,-1.46554,0.00217206,0.0111783,1210,379,3.05395,17.8133
-7,645,3.07751,-17.8755,-0.00147719,0.00230561,-0.000387726,0.00234494,-0.00151652,-1.4697,0.00224645,0.0141477,1217,379,3.07754,17.8755
0,645,3.01819,-17.9005,-0.00160684,0.002357,-0.000362409,0.00238986,-0.0016397,-1.48037,0.00233987,0.0230621,1224,379,3.01817,17.9006
7,645,3.01453,-17.9425,-0.00179844,0.00258931,-0.000325511,0.00261333,-0.00182246,-1.49715,0.00257453,0.0155644,1231,379,3.01448,17.9425
14,645,3.01941,-17.9731,-0.00194092,0.00273313,-0.000268694,0.00274853,-0.00195632,-1.51356,0.00272915,0.0149043,1238,379,3.01947,17.9731
21,645,2.98547,-18.0131,-0.00170703,0.00301701,-4.21614e-05,0.00301739,-0.00170741,-1.56187,0.00276259,0.0107631,1245,379,2.98543,18.013
28,645,2.9978,-18.0483,-0.00124008,0.00317875,0.000244447,0.00319223,-0.00125356,1.5157,0.00264688,0.00944626,1252,379,2.99782,18.0483
35,645,2.99414,-18.0569,-0.000530764,0.00333601,0.000595802,0.00342573,-0.000620485,1.42133,0.00251628,0.00828371,1259,379,2.99416,18.0568
42,645,2.9906,-18.0578,0.000134461,0.00335691,0.00107211,0.00368101,-0.000189636,1.27723,0.0025196,0.00794961,1266,379,2.99057,18.0578
49,645,3.01648,-18.0712,0.000812164,0.00340419,0.0015311,0.00411415,0.000102207,1.13662,0.00270934,0.0117212,1273,379,3.01646,18.0712
56,645,3.00427,-18.0644,0.00159827,0.00341893,0.00191277,0.00462695,0.000390255,1.0075,0.00296312,0.0122561,1280,379,3.0043,18.0644
63,645,2.99207,-18.0519,0.00238905,0.00325699,0.00216582,0.0050319,0.000614152,0.884275,0.00316977,0.0118622,1287,379,2.9921,18.0519
70,645,2.97083,-18.031,0.00311527,0.00310164,0.00252287,0.00563134,0.000585574,0.784047,0.00357506,0.0151636,1294,379,2.97083,18.031
77,645,2.94861,-18.0063,0.00355496,0.00297862,0.00276613,0.00604789,0.000485692,0.733497,0.00388018,0.0184653,1301,379,2.94863,18.0063
84,645,2.96436,-17.9989,0.00361947,0.00289523,0.00274701,0.00602813,0.000486574,0.719865,0.00386678,0.013965,1308,379,2.96432,17.9989
91,645,2.94775,-17.9893,0.00329009,0.00281816,0.00247636,0.0055417,0.000566548,0.737899,0.00352084,0.0143616,1315,379,2.94777,17.9893
98,645,2.95068,-17.911,0.002902,0.00270935,0.00216271,0.00497053,0.000640819,0.763142,0.00312208,0.0126813,1322,379,2.95066,17.911
105,645,2.92383,-17.839,0.00251254,0.00258585,0.00182663,0.00437619,0.000722194,0.79543,0.00270901,0.0102615,1329,379,2.92384,17.839
112,645,2.92261,-17.8094,0.00208434,0.00241604,0.00146327,0.00372283,0.000777549,0.841828,0.00226758,0.00817953,1336,379,2.92261,17.8094
119,645,2.93164,-17.7431,0.00145057,0.00241224,0.00108931,0.00312212,0.000740686,0.993244,0.0018837,0.00825595,1343,379,2.93168,17.7431
126,645,2.90161,-17.6636,0.000586946,0.00229766,0.000649478,0.00251629,0.000368312,1.24608,0.00156923,0.0114249,1350,379,2.90156,17.6636
133,645,2.90295,-17.6032,-3.09397e-05,0.00231403,0.000318178,0.00235644,-7.33448e-05,1.4383,0.00159597,0.0121148,1357,379,2.90297,17.6032
140,645,2.90112,-17.5399,-0.000411312,0.00227946,4.68267e-05,0.00228028,-0.000412127,1.5534,0.00167455,0.0110847,1364,379,2.90117,17.5399
147,645,2.87402,-17.4432,-0.000436202,0.00241777,-0.000163029,0.00242705,-0.000445484,-1.51392,0.00178515,0.0113811,1371,379,2.87407,17.4433
154,645,2.87854,-17.3426,-0.000290471,0.00247432,-0.000204879,0.00248942,-0.00030557,-1.49723,0.00177029,0.011084,1378,379,2.87849,17.3426
161,645,2.86621,-17.2357,-0.000241388,0.00243998,-0.000150728,0.00244842,-0.000249835,-1.51482,0.00172161,0.0147142,1385,379,2.86626,17.2358
168,645,2.82581,-17.1243,-0.000326392,0.00229005,-6.20302e-05,0.00229152,-0.000327861,-1.54711,0.00164787,0.0172969,1392,379,2.8258,17.1243
175,645,2.82605,-17.0417,-0.00046026,0.00207357,7.73749e-05,0.00207593,-0.00046262,1.5403,0.00156118,0.014634,1399,379,2.82599,17.0418
182,645,2.82703,-16.9474,-0.000273252,0.00226079,0.000200804,0.0022766,-0.000289066,1.49221,0.00162269,0.0101623,1406,379,2.82708,16.9475
189,645,2.84094,-16.8226,-0.000277081,0.00227382,0.000549015,0.00238697,-0.000390224,1.36756,0.00173607,0.0105392,1413,379,2.84095,16.8226
196,645,2.81055,-16.7134,-0.00061829,0.00195548,0.000824709,0.00219706,-0.000859875,1.28584,0.00182034,0.0110804,1420,379,2.8106,16.7134
203,645,2.7749,-16.5721,-0.000955794,0.0020582,0.00110178,0.002418,-0.0013156,1.25515,0.0021867,0.0113234,1427,379,2.77486,16.5721
210,645,2.79944,-16.4083,-0.0015053,0.0020543,0.00107767,0.00235514,-0.00180614,1.29857,0.00240947,0.0146577,1434,379,2.79943,16.4083
217,645,2.77161,-16.2963,-0.00173633,0.00208096,0.000978869,0.00231734,-0.0019727,1.33385,0.00247952,0.0138885,1441,379,2.77165,16.2963
224,645,2.72021,-16.155,-0.0018167,0.0024723,0.00100685,0.00269689,-0.0020413,1.35132,0.00274431,0.0124102,1448,379,2.7202,16.155
231,645,2.70972,-15.9436,-0.00159055,0.00269845,0.00117086,0.00299727,-0.00188936,1.32092,0.00284536,0.014701,1455,379,2.70977,15.9436
238,645,2.69824,-15.7978,-0.00144228,0.00332409,0.00164936,0.00383917,-0.00195736,1.2681,0.00340491,0.0126363,1462,379,2.69823,15.7978
245,645,2.6842,-15.6417,-0.00151861,0.00360721,0.00196496,0.00427379,-0.00218519,1.24375,0.00379352,0.0132666,1469,379,2.68419,15.6417
252,645,2.6178,-15.0561,0,0,0,0,0,0,0,-1,1476,379,2.61786,15.0561
259,645,2.63953,-15.2263,-0.000787041,0.0048629,0.00292998,0.00610797,-0.00203211,1.16897,0.00489212,0.0284925,1483,379,2.6395,15.2264
266,645,2.61157,-15.0381,-0.000399244,0.00477721,0.00372829,0.00672761,-0.00234964,1.08881,0.00544014,0.0256926,1490,379,2.61155,15.0381
273,645,2.61804,-14.886,-0.000890298,0.00390987,0.00596011,0.007935,-0.00491542,0.97681,0.00748716,0.0260387,1497,379,2.61809,14.886
280,645,2.69873,-14.769,-0.00077308,0.00336893,0.0077444,0.00931446,-0.0067186,0.916051,0.00929705,0.0480283,1504,379,2.69871,14.7691
287,645,2.77893,-14.7268,0,0,0,0,0,0,0,-1,1511,379,2.77896,14.7268
294,645,2.90942,-14.7388,0,0,0,0,0,0,0,-1,1518,379,2.90941,14.7388
301,645,5.87024,-7.20639,0,0,0,0,0,0,0,-1,1525,379,5.8703,7.20638
308,645,5.7616,-4.38443,0,0,0,0,0,0,0,-1,1532,379,5.76156,4.38443
315,645,2.95154,-14.3629,0,0,0,0,0,0,0,-1,1539,379,2.95158,14.3629
322,645,3.02393,-13.845,-0.00383383,-0.0117825,0.0271476,0.0196288,-0.0352451,0.712716,0.0321063,0.0442338,1546,379,3.02389,13.845
329,645,2.63159,-12.9685,0,0,0,0,0,0,0,-1,1553,379,2.63156,12.9685
336,645,2.35303,-12.1996,0,0,0,0,0,0,0,-1,1560,379,2.35297,12.1996
343,645,0.977295,-13.792,0,0,0,0,0,0,0,-1,1567,379,0.977251,13.792
350,645,3.93213,-5.72198,0,0,0,0,0,0,0,-1,1574,379,3.9321,5.72198
357,645,1.63928,-6.465,0,0,0,0,0,0,0,-1,1581,379,1.63926,6.46499
364,645,-0.0794678,-3.22021,0,0,0,0,0,0,0,-1,1588,379,-0.0794987,3.22021
371,645,0,0,0,0,0,0,0,0,0,-1,1595,379,0,0
378,645,0,0,0,0,0,0,0,0,0,-1,1602,379,0,0
385,645,0,0,0,0,0,0,0,0,0,-1,1609,379,0,0
392,645,0,0,0,0,0,0,0,0,0,-1,1616,379,0,0
399,645,0,0,0,0,0,0,0,0,0,-1,1623,379,0,0
406,645,0,0,0,0,0,0,0,0,0,-1,1630,379,0,0
413,645,0,0,0,0,0,0,0,0,0,-1,1637,379,0,0
420,645,0,0,0,0,0,0,0,0,0,-1,1644,379,0,0
427,645,0,0,0,0,0,0,0,0,0,-1,1651,379,0,0
434,645,0,0,0,0,0,0,0,0,0,-1,1658,379,0,0
441,645,0,0,0,0,0,0,0,0,0,-1,1665,379,0,0
448,645,0,0,0,0,0,0,0,0,0,-1,1672,379,0,0
455,645,0,0,0,0,0,0,0,0,0,-1,1679,379,0,0
462,645,0,0,0,0,0,0,0,0,0,-1,1686,379,0,0
469,645,0,0,0,0,0,0,0,0,0,-1,1693,379,0,0
476,645,0,0,0,0,0,0,0,0,0,-1,1700,379,0,0
483,645,0,0,0,0,0,0,0,0,0,-1,1707,379,0,0
490,645,0,0,0,0,0,0,0,0,0,-1,1714,379,0,0
497,645,0,0,0,0,0,0,0,0,0,-1,1721,379,0,0
504,645,0,0,0,0,0,0,0,0,0,-1,1728,379,0,0
511,645,0,0,0,0,0,0,0,0,0,-1,1735,379,0,0
518,645,0,0,0,0,0,0,0,0,0,-1,1742,379,0,0
525,645,0,0,0,0,0,0,0,0,0,-1,1749,379,0,0
532,645,0,0,0,0,0,0,0,0,0,-1,1756,379,0,0
539,645,0,0,0,0,0,0,0,0,0,-1,1763,379,0,0
546,645,0,0,0,0,0,0,0,0,0,-1,1770,379,0,0
553,645,0,0,0,0,0,0,0,0,0,-1,1777,379,0,0
560,645,0,0,0,0,0,0,0,0,0,-1,1784,379,0,0
567,645,0,0,0,0,0,0,0,0,0,-1,1791,379,0,0
574,645,0,0,0,0,0,0,0,0,0,-1,1798,379,0,0
581,645,0,0,0,0,0,0,0,0,0,-1,1805,379,0,0
588,645,0,0,0,0,0,0,0,0,0,-1,1812,379,0,0
595,645,0,0,0,0,0,0,0,0,0,-1,1819,379,0,0
602,645,0,0,0,0,0,0,0,0,0,-1,1826,379,0,0
609,645,0,0,0,0,0,0,0,0,0,-1,1833,379,0,0
616,645,0,0,0,0,0,0,0,0,0,-1,1840,379,0,0
623,645,0,0,0,0,0,0,0,0,0,-1,1847,379,0,0
630,645,0,0,0,0,0,0,0,0,0,-1,1854,379,0,0
637,645,0,0,0,0,0,0,0,0,0,-1,1861,379,0,0
644,645,0,0,0,0,0,0,0,0,0,-1,1868,379,0,0
651,645,0,0,0,0,0,0,0,0,0,-1,1875,379,0,0
658,645,0,0,0,0,0,0,0,0,0,-1,1882,379,0,0
665,645,0,0,0,0,0,0,0,0,0,-1,1889,379,0,0
672,645,0,0,0,0,0,0,0,0,0,-1,1896,379,0,0
679,645,0,0,0,0,0,0,0,0,0,-1,1903,379,0,0
686,645,0,0,0,0,0,0,0,0,0,-1,1910,379,0,0
693,645,0,0,0,0,0,0,0,0,0,-1,1917,379,0,0
700,645,0,0,0,0,0,0,0,0,0,-1,1924,379,0,0
707,645,0,0,0,0,0,0,0,0,0,-1,1931,379,0,0
714,645,0,0,0,0,0,0,0,0,0,-1,1938,379,0,0
721,645,0,0,0,0,0,0,0,0,0,-1,1945,379,0,0
728,645,0,0,0,0,0,0,0,0,0,-1,1952,379,0,0
735,645,0,0,0,0,0,0,0,0,0,-1,1959,379,0,0
742,645,0,0,0,0,0,0,0,0,0,-1,1966,379,0,0
749,645,0,0,0,0,0,0,0,0,0,-1,1973,379,0,0
756,645,0,0,0,0,0,0,0,0,0,-1,1980,379,0,0
763,645,0,0,0,0,0,0,0,0,0,-1,1987,379,0,0
770,645,0,0,0,0,0,0,0,0,0,-1,1994,379,0,0
777,645,0,0,0,0,0,0,0,0,0,-1,2001,379,0,0
784,645,0,0,0,0,0,0,0,0,0,-1,2008,379,0,0
791,645,0,0,0,0,0,0,0,0,0,-1,2015,379,0,0
798,645,0,0,0,0,0,0,0,0,0,-1,2022,379,0,0
805,645,0,0,0,0,0,0,0,0,0,-1,2029,379,0,0
812,645,0,0,0,0,0,0,0,0,0,-1,2036,379,0,0
-700,638,0,0,0,0,0,0,0,0,0,-1,524,386,0,0
-693,638,0,0,0,0,0,0,0,0,0,-1,531,386,0,0
-686,638,0,0,0,0,0,0,0,0,0,-1,538,386,0,0
-679,638,0,0,0,0,0,0,0,0,0,-1,545,386,0,0
-672,638,0,0,0,0,0,0,0,0,0,-1,552,386,0,0
-665,638,0,0,0,0,0,0,0,0,0,-1,559,386,0,0
-658,638,0,0,0,0,0,0,0,0,0,-1,566,386,0,0
-651,638,0,0,0,0,0,0,0,0,0,-1,573,386,0,0
-644,638,0,0,0,0,0,0,0,0,0,-1,580,386,0,0
-637,638,0,0,0,0,0,0,0,0,0,-1,587,386,0,0
-630,638,0,0,0,0,0,0,0,0,0,-1,594,386,0,0
-623,638,0,0,0,0,0,0,0,0,0,-1,601,386,0,0
-616,638,0,0,0,0,0,0,0,0,0,-1,608,386,0,0
-609,638,0,0,0,0,0,0,0,0,0,-1,615,386,0,0
-602,638,0,0,0,0,0,0,0,0,0,-1,622,386,0,0
-595,638,0,0,0,0,0,0,0,0,0,-1,629,386,0,0
-588,638,0,0,0,0,0,0,0,0,0,-1,636,386,0,0
-581,638,0,0,0,0,0,0,0,0,0,-1,643,386,0,0
-574,638,0,0,0,0,0,0,0,0,0,-1,650,386,0,0
-567,638,0,0,0,0,0,0,0,0,0,-1,657,386,0,0
-560,638,0,0,0,0,0,0,0,0,0,-1,664,386,0,0
-553,638,0,0,0,0,0,0,0,0,0,-1,671,386,0,0
-546,638,0,0,0,0,0,0,0,0,0,-1,678,386,0,0
-539,638,0,0,0,0,0,0,0,0,0,-1,685,386,0,0
-532,638,0,0,0,0,0,0,0,0,0,-1,692,386,0,0
-525,638,0,0,0,0,0,0,0,0,0,-1,699,386,0,0
-518,638,0,0,0,0,0,0,0,0,0,-1,706,386,0,0
-511,638,0,0,0,0,0,0,0,0,0,-1,713,386,0,0
-504,638,0,0,0,0,0,0,0,0,0,-1,720,386,0,0
-497,638,0,0,0,0,0,0,0,0,0,-1,727,386,0,0
-490,638,0,0,0,0,0,0,0,0,0,-1,734,386,0,0
-483,638,0,0,0,0,0,0,0,0,0,-1,741,386,0,0
-476,638,0,0,0,0,0,0,0,0,0,-1,748,386,0,0
-469,638,0,0,0,0,0,0,0,0,0,-1,755,386,0,0
-462,638,0,0,0,0,0,0,0,0,0,-1,762,386,0,0
-455,638,0,0,0,0,0,0,0,0,0,-1,769,386,0,0
-448,638,0,0,0,0,0,0,0,0,0,-1,776,386,0,0
-441,638,0,0,0,0,0,0,0,0,0,-1,783,386,0,0
-434,638,0,0,0,0,0,0,0,0,0,-1,790,386,0,0
-427,638,0,0,0,0,0,0,0,0,0,-1,797,386,0,0
-420,638,0,0,0,0,0,0,0,0,0,-1,804,386,0,0
-413,638,0,0,0,0,0,0,0,0,0,-1,811,386,0,0
-406,638,0,0,0,0,0,0,0,0,0,-1,818,386,0,0
-399,638,0,0,0,0,0,0,0,0,0,-1,825,386,0,0
-392,638,0,0,0,0,0,0,0,0,0,-1,832,386,0,0
-385,638,0,0,0,0,0,0,0,0,0,-1,839,386,0,0
-378,638,0,0,0,0,0,0,0,0,0,-1,846,386,0,0
-371,638,0,0,0,0,0,0,0,0,0,-1,853,386,0,0
-364,638,0,0,0,0,0,0,0,0,0,-1,860,386,0,0
-357,638,0,0,0,0,0,0,0,0,0,-1,867,386,0,0
-350,638,0,0,0,0,0,0,0,0,0,-1,874,386,0,0
-343,638,0,0,0,0,0,0,0,0,0,-1,881,386,0,0
-336,638,0,0,0,0,0,0,0,0,0,-1,888,386,0,0
-329,638,0,0,0,0,0,0,0,0,0,-1,895,386,0,0
-322,638,0,0,0,0,0,0,0,0,0,-1,902,386,0,0
-315,638,0,0,0,0,0,0,0,0,0,-1,909,386,0,0
-308,638,0,0,0,0,0,0,0,0,0,-1,916,386,0,0
-301,638,0,0,0,0,0,0,0,0,0,-1,923,386,0,0
-294,638,0,0,0,0,0,0,0,0,0,-1,930,386,0,0
-287,638,0,0,0,0,0,0,0,0,0,-1,937,386,0,0
-280,638,0,0,0,0,0,0,0,0,0,-1,944,386,0,0
-273,638,0,0,0,0,0,0,0,0,0,-1,951,386,0,0
-266,638,5.203,-11.6631,0,0,0,0,0,0,0,-1,958,386,5.203,11.6631
-259,638,4.63385,-11.2466,0,0,0,0,0,0,0,-1,965,386,4.63383,11.2465
-252,638,3.03979,-12.6195,0,0,0,0,0,0,0,-1,972,386,3.03981,12.6195
-245,638,2.12054,-13.6139,-0.0915409,0.00360288,-0.0726024,0.0428307,-0.130769,-1.07542,0.104426,0.0454965,979,386,2.12052,13.6139
-238,638,1.24243,-14.6881,-0.0844646,0.00500382,-0.0649761,0.0391559,-0.118617,-1.08687,0.0948628,0.0485116,986,386,1.24246,14.6881
-231,638,-0.396667,-16.4459,0,0,0,0,0,0,0,-1,993,386,-0.396653,16.4459
-224,638,3.90192,-12.6979,0,0,0,0,0,0,0,-1,1000,386,3.90192,12.6979
-217,638,4.58875,-13.7002,0,0,0,0,0,0,0,-1,1007,386,4.58873,13.7002
-210,638,6.30249,-17.7497,0,0,0,0,0,0,0,-1,1014,386,6.3025,17.7497
-203,638,1.64349,-16.5565,0,0,0,0,0,0,0,-1,1021,386,1.64348,16.5566
-196,638,3.84961,-15.0923,0,0,0,0,0,0,0,-1,1028,386,3.84963,15.0923
-189,638,3.64514,-14.6886,0,0,0,0,0,0,0,-1,1035,386,3.64518,14.6886
-182,638,4.08142,-14.5505,0,0,0,0,0,0,0,-1,1042,386,4.08143,14.5505
-175,638,3.58594,-14.8974,0,0,0,0,0,0,0,-1,1049,386,3.58593,14.8974
-168,638,3.29565,-15.0903,0.00715634,-0.00158506,0.000111534,0.00715776,-0.00158648,0.0127565,0.00537922,0.0338749,1056,386,3.2957,15.0903
-161,638,3.26099,-15.3227,0.00905503,-0.00278754,-0.000290614,0.00906216,-0.00279466,-0.0245201,0.00715723,0.0273704,1063,386,3.26094,15.3227
-154,638,3.24194,-15.5247,0.0105955,-0.00320261,-0.000627944,0.0106241,-0.00323113,-0.0453842,0.00837029,0.0220334,1070,386,3.242,15.5247
-147,638,3.22803,-15.6743,0.0114991,-0.00352626,-0.000553944,0.0115195,-0.00354666,-0.0368007,0.00909538,0.0191859,1077,386,3.22806,15.6743
-140,638,3.21436,-15.8279,0.0119835,-0.00366288,-0.000100858,0.0119841,-0.00366353,-0.00644576,0.00945034,0.015551,1084,386,3.2144,15.8279
-133,638,3.20557,-16.0247,0.011762,-0.00346221,0.000422456,0.0117737,-0.00347392,0.0277206,0.00922771,0.0120817,1091,386,3.20554,16.0247
-126,638,3.19702,-16.1725,0.011196,-0.003074,0.00100756,0.0112668,-0.00314479,0.0701434,0.0087499,0.0130297,1098,386,3.19703,16.1725
-119,638,3.16992,-16.3314,0.0102106,-0.00233853,0.00163826,0.0104209,-0.00254888,0.127697,0.00793456,0.0143166,1105,386,3.16996,16.3314
-112,638,3.15723,-16.4772,0.008818,-0.00151469,0.00212427,0.00923768,-0.00193437,0.195051,0.0068943,0.0130136,1112,386,3.15722,16.4772
-105,638,3.11426,-16.6144,0.0071763,-0.000512675,0.00238545,0.00785624,-0.00119262,0.277673,0.00567695,0.0157019,1119,386,3.11428,16.6144
-98,638,3.09705,-16.7555,0.00546599,0.000309398,0.00233513,0.00636626,-0.000590872,0.367974,0.00445421,0.0155032,1126,386,3.09704,16.7555
-91,638,3.08459,-16.885,0.00400406,0.000895986,0.00209519,0.00505863,-0.000158587,0.466309,0.00342651,0.0120329,1133,386,3.0846,16.885
-84,638,3.0509,-17.0007,0.00241219,0.00118845,0.00214587,0.00403172,-0.000431074,0.646514,0.00284242,0.0141464,1140,386,3.05093,17.0007
-77,638,3.04675,-17.1053,0.000742248,0.0015605,0.00172596,0.00292515,-0.000622411,0.901771,0.00218729,0.0115396,1147,386,3.04678,17.1053
-70,638,3.06836,-17.1887,-0.000523236,0.00191086,0.00115008,0.0023683,-0.000980672,1.19224,0.00198808,0.0110543,1154,386,3.06834,17.1887
-63,638,3.06702,-17.2849,-0.00175034,0.00194255,2.07247e-05,0.00194267,-0.00175046,1.56518,0.00213319,0.0116097,1161,386,3.06706,17.2849
-56,638,3.04871,-17.3814,-0.00143427,0.00180572,-0.000358953,0.00184502,-0.00147356,-1.46177,0.00191998,0.0139538,1168,386,3.04875,17.3814
-49,638,3.04834,-17.4811,-0.000998999,0.00141452,-0.000476153,0.00150506,-0.00108954,-1.38289,0.00150439,0.0124427,1175,386,3.04836,17.4811
-42,638,3.03369,-17.5651,-0.000613576,0.00116752,-0.000164426,0.00118258,-0.000628628,-1.47951,0.00106188,0.0115555,1182,386,3.03372,17.5651
-35,638,3.02258,-17.6359,-0.000651154,0.00101217,-4.72597e-05,0.00101351,-0.000652495,-1.54241,0.00096937,0.0102132,1189,386,3.02262,17.6359
-28,638,3.01575,-17.717,-0.000753809,0.000781698,1.59112e-05,0.000781863,-0.000753973,1.56044,0.000886765,0.00990446,1196,386,3.01577,17.717
-21,638,2.99646,-17.7764,-0.000905196,0.000569213,-2.7816e-05,0.000569737,-0.00090572,-1.55194,0.000859186,0.0114935,1203,386,2.99643,17.7764
-14,638,2.98938,-17.8266,-0.00100529,0.000265072,-9.66012e-06,0.000265145,-0.00100537,-1.56319,0.000773916,0.0117187,1210,386,2.98938,17.8266
-7,638,3.01526,-17.8969,-0.00102729,0.000101876,-4.34952e-05,0.000103549,-0.00102896,-1.53235,0.000722969,0.0162575,1217,386,3.01529,17.8969
0,638,2.97522,-17.9076,-0.00101005,4.03259e-05,-0.000110019,5.17258e-05,-0.00102145,-1.46755,0.000698848,0.0280162,1224,386,2.97521,17.9076
7,638,2.96252,-17.962,-0.000427407,0.00078971,-0.000664693,0.00108235,-0.000720048,-1.15607,0.0010476,0.0216551,1231,386,2.96252,17.962
14,638,2.97131,-17.9911,0.0012292,0.00113123,-0.00117524,0.00235648,3.95346e-06,-0.764569,0.00156967,0.0118944,1238,386,2.97129,17.9911
21,638,2.95313,-18.0167,0.00257333,0.00172414,-0.00153471,0.0037411,0.000556369,-0.650442,0.00233085,0.0103128,1245,386,2.95314,18.0167
28,638,2.96558,-18.0589,0.00420458,0.00217236,-0.00185645,0.00530481,0.00107214,-0.534998,0.00323886,0.0086927,1252,386,2.96553,18.0589
35,638,2.97668,-18.0602,0.00598478,0.00258688,-0.00216925,0.00704121,0.00153045,-0.453193,0.00427627,0.0101786,1259,386,2.97666,18.0602
42,638,2.99487,-18.0599,0.00764593,0.00278686,-0.00217963,0.00848035,0.00195243,-0.365615,0.00512818,0.0087989,1266,386,2.99492,18.0599
49,638,3.01648,-18.0766,0.00903633,0.00331486,-0.00204414,0.0096916,0.00265959,-0.310212,0.00578215,0.00778778,1273,386,3.01642,18.0766
56,638,2.99963,-18.0719,0.0100618,0.00347098,-0.00184982,0.0105455,0.00298729,-0.255751,0.0062762,0.0108537,1280,386,2.99962,18.0719
63,638,2.99915,-18.0632,0.0105651,0.00335335,-0.00152457,0.0108742,0.0030443,-0.200002,0.00647771,0.0134395,1287,386,2.9991,18.0632
70,638,2.98767,-18.052,0.0104534,0.00307041,-0.000976342,0.0105804,0.00294348,-0.129281,0.00630574,0.0173604,1294,386,2.98762,18.052
77,638,2.97473,-18.0262,0.00977699,0.0027924,-0.000397423,0.00979953,0.00276986,-0.0566562,0.00583322,0.0180964,1301,386,2.97476,18.0262
84,638,2.99426,-17.9912,0.00847305,0.00251372,3.378e-05,0.00847324,0.00251353,0.00566817,0.00502509,0.0134605,1308,386,2.99421,17.9912
91,638,2.99768,-17.95,0.00669231,0.00226484,0.000257272,0.00670721,0.00224994,0.0578486,0.00394169,0.0133755,1315,386,2.99764,17.95
98,638,2.99048,-17.9096,0.00493119,0.0019162,0.000471135,0.0050031,0.00184429,0.151455,0.00292159,0.0117316,1322,386,2.99049,17.9096
105,638,2.96167,-17.8667,0.00350208,0.00158631,0.000612777,0.00368131,0.00140708,0.284557,0.00214497,0.00938944,1329,386,2.96168,17.8667
112,638,2.97412,-17.83,0.00188655,0.000819221,0.000941916,0.00243547,0.000270293,0.52766,0.00154147,0.00856054,1336,386,2.97407,17.83
119,638,2.98547,-17.7575,0.000173123,0.00091733,0.000791919,0.00142021,-0.000329758,1.00503,0.00107374,0.0102162,1343,386,2.98542,17.7575
126,638,2.98608,-17.6696,-0.00032917,0.000812682,0.000387362,0.000931688,-0.000448176,1.27273,0.000812805,0.0149443,1350,386,2.98606,17.6696
133,638,2.99341,-17.6062,-0.000642193,0.000820521,3.14208e-05,0.000821195,-0.000642867,1.54933,0.000847364,0.0157038,1357,386,2.99339,17.6062
140,638,2.9762,-17.5447,-0.000768128,0.000729835,-0.000192258,0.000754117,-0.00079241,-1.44516,0.000892979,0.0150911,1364,386,2.97625,17.5447
147,638,2.95972,-17.4709,-0.000664958,0.000735808,-0.000395512,0.000839767,-0.000768916,-1.31376,0.000929074,0.0158219,1371,386,2.95968,17.4709
154,638,2.96545,-17.3887,-0.000376085,0.000626831,-0.000443334,0.000794705,-0.000543959,-1.20882,0.000777384,0.0146924,1378,386,2.96546,17.3887
161,638,2.95044,-17.2639,-0.000118127,0.000766424,-0.000375153,0.000904104,-0.000255806,-1.21906,0.000703677,0.0183802,1385,386,2.95041,17.2639
168,638,2.96521,-17.1298,-2.09829e-05,0.000893445,-0.000263247,0.000963814,-9.13515e-05,-1.30959,0.000675056,0.0240523,1392,386,2.9652,17.1297
175,638,2.98254,-17.0401,-2.44149e-05,0.000985304,-0.000156556,0.00100902,-4.81317e-05,-1.42045,0.000689285,0.0195719,1399,386,2.98259,17.0401
182,638,2.96948,-16.9444,8.37966e-05,0.00127668,-4.99656e-05,0.00127877,8.17074e-05,-1.52901,0.000826622,0.0126766,1406,386,2.96952,16.9444
189,638,2.95862,-16.8428,-2.13098e-05,0.00145251,0.000230813,0.00148781,-5.66116e-05,1.41903,0.00101127,0.010848,1413,386,2.95863,16.8428
196,638,2.95093,-16.7195,-0.000334302,0.00137384,0.000471641,0.00149542,-0.000455876,1.31852,0.00117867,0.0144628,1420,386,2.95093,16.7195
203,638,2.93933,-16.6069,-0.000651469,0.00153392,0.000717444,0.0017484,-0.00086595,1.2803,0.00153779,0.0210285,1427,386,2.93937,16.6069
210,638,2.91699,-16.4774,-0.00106611,0.00163948,0.000790814,0.00185367,-0.0012803,1.3063,0.00181946,0.0161515,1434,386,2.91696,16.4774
217,638,2.90137,-16.3288,-0.00127624,0.00176252,0.000819339,0.00196936,-0.00148308,1.32352,0.00199985,0.0106401,1441,386,2.90131,16.3288
224,638,2.86914,-16.1636,-0.00136257,0.00207861,0.000911498,0.00230514,-0.0015891,1.32721,0.00226097,0.0098403,1448,386,2.86917,16.1636
231,638,2.83679,-15.9894,-0.00118846,0.00226681,0.00112001,0.00259809,-0.00151974,1.28321,0.00240445,0.0111572,1455,386,2.83684,15.9894
238,638,2.83362,-15.8413,-0.00106117,0.00281532,0.00156643,0.00336916,-0.00161501,1.23095,0.00293642,0.012064,1462,386,2.83358,15.8413
245,638,2.83728,-15.6718,-0.001121,0.00306764,0.00187149,0.003782,-0.00183536,1.20616,0.00330746,0.0137709,1469,386,2.83728,15.6718
252,638,2.81763,-15.4917,-0.000918014,0.00355056,0.00225055,0.00448755,-0.00185501,1.17628,0.00376555,0.0154116,1476,386,2.81757,15.4917
259,638,2.80737,-15.3206,-0.000600669,0.00413174,0.00270446,0.00535901,-0.00182794,1.14479,0.00431309,0.0145335,1483,386,2.80737,15.3206
266,638,2.78467,-15.1266,-0.000355759,0.00407501,0.00335109,0.0058768,-0.00215755,1.07747,0.00480145,0.0110808,1490,386,2.78467,15.1266
273,638,2.76477,-14.9632,-0.000676833,0.00352054,0.00495981,0.0068074,-0.0039637,0.985545,0.00629053,0.0110753,1497,386,2.76479,14.9632
280,638,2.80872,-14.7086,-0.000524882,0.0031955,0.00626224,0.00786799,-0.00519738,0.929771,0.00759564,0.0230052,1504,386,2.8087,14.7086
287,638,3.1001,-14.2887,-0.000535561,0.00225742,0.00805527,0.00903635,-0.00731449,0.871227,0.00945759,0.0403951,1511,386,3.10006,14.2887
294,638,2.93652,-14.3952,-0.000637106,0.00118714,0.00996113,0.0102778,-0.00972778,0.831055,0.0115517,0.04941,1518,386,2.93652,14.3952
301,638,2.68665,-14.0158,0,0,0,0,0,0,0,-1,1525,386,2.68659,14.0158
308,638,2.83472,-13.7682,0,0,0,0,0,0,0,-1,1532,386,2.83471,13.7682
315,638,2.96326,-13.98,-0.00119001,-0.00460805,0.0175488,0.0147328,-0.0205308,0.736858,0.020451,0.0425983,1539,386,2.96327,13.98
322,638,2.93213,-13.6306,-0.00148581,-0.00693752,0.0203726,0.0163424,-0.0247658,0.718893,0.0238993,0.0460793,1546,386,2.9321,13.6305
329,638,2.94116,-13.1618,0,0,0,0,0,0,0,-1,1553,386,2.94113,13.1618
336,638,0.717896,-12.9545,0,0,0,0,0,0,0,-1,1560,386,0.717945,12.9545
343,638,-0.128174,-12.1073,0,0,0,0,0,0,0,-1,1567,386,-0.128176,12.1073
350,638,2.3783,-11.33,0,0,0,0,0,0,0,-1,1574,386,2.37831,11.33
357,638,0.130371,-3.02618,0,0,0,0,0,0,0,-1,1581,386,0.130345,3.0262
364,638,3.78149,-6.45215,0,0,0,0,0,0,0,-1,1588,386,3.78155,6.45216
371,638,4.18604,-6.71164,0,0,0,0,0,0,0,-1,1595,386,4.18598,6.71164
378,638,4.59045,-6.97113,0,0,0,0,0,0,0,-1,1602,386,4.5904,6.97112
385,638,0,0,0,0,0,0,0,0,0,-1,1609,386,0,0
392,638,0,0,0,0,0,0,0,0,0,-1,1616,386,0,0
399,638,0,0,0,0,0,0,0,0,0,-1,1623,386,0,0
406,638,0,0,0,0,0,0,0,0,0,-1,1630,386,0,0
413,638,0,0,0,0,0,0,0,0,0,-1,1637,386,0,0
420,638,0,0,0,0,0,0,0,0,0,-1,1644,386,0,0
427,638,0,0,0,0,0,0,0,0,0,-1,1651,386,0,0
434,638,0,0,0,0,0,0,0,0,0,-1,1658,386,0,0
441,638,0,0,0,0,0,0,0,0,0,-1,1665,386,0,0
448,638,0,0,0,0,0,0,0,0,0,-1,1672,386,0,0
455,638,0,0,0,0,0,0,0,0,0,-1,1679,386,0,0
462,638,0,0,0,0,0,0,0,0,0,-1,1686,386,0,0
469,638,0,0,0,0,0,0,0,0,0,-1,1693,386,0,0
476,638,0,0,0,0,0,0,0,0,0,-1,1700,386,0,0
483,638,0,0,0,0,0,0,0,0,0,-1,1707,386,0,0
490,638,0,0,0,0,0,0,0,0,0,-1,1714,386,0,0
497,638,0,0,0,0,0,0,0,0,0,-1,1721,386,0,0
504,638,0,0,0,0,0,0,0,0,0,-1,1728,386,0,0
511,638,0,0,0,0,0,0,0,0,0,-1,1735,386,0,0
518,638,0,0,0,0,0,0,0,0,0,-1,1742,386,0,0
525,638,0,0,0,0,0,0,0,0,0,-1,1749,386,0,0
532,638,0,0,0,0,0,0,0,0,0,-1,1756,386,0,0
539,638,0,0,0,0,0,0,0,0,0,-1,1763,386,0,0
546,638,0,0,0,0,0,0,0,0,0,-1,1770,386,0,0
553,638,0,0,0,0,0,0,0,0,0,-1,1777,386,0,0
560,638,0,0,0,0,0,0,0,0,0,-1,1784,386,0,0
567,638,0,0,0,0,0,0,0,0,0,-1,1791,386,0,0
574,638,0,0,0,0,0,0,0,0,0,-1,1798,386,0,0
581,638,0,0,0,0,0,0,0,0,0,-1,1805,386,0,0
588,638,0,0,0,0,0,0,0,0,0,-1,1812,386,0,0
595,638,0,0,0,0,0,0,0,0,0,-1,1819,386,0,0
602,638,0,0,0,0,0,0,0,0,0,-1,1826,386,0,0
609,638,0,0,0,0,0,0,0,0,0,-1,1833,386,0,0
616,638,0,0,0,0,0,0,0,0,0,-1,1840,386,0,0
623,638,0,0,0,0,0,0,0,0,0,-1,1847,386,0,0
630,638,0,0,0,0,0,0,0,0,0,-1,1854,386,0,0
637,638,0,0,0,0,0,0,0,0,0,-1,1861,386,0,0
644,638,0,0,0,0,0,0,0,0,0,-1,1868,386,0,0
651,638,0,0,0,0,0,0,0,0,0,-1,1875,386,0,0
658,638,0,0,0,0,0,0,0,0,0,-1,1882,386,0,0
665,638,0,0,0,0,0,0,0,0,0,-1,1889,386,0,0
672,638,0,0,0,0,0,0,0,0,0,-1,1896,386,0,0
679,638,0,0,0,0,0,0,0,0,0,-1,1903,386,0,0
686,638,0,0,0,0,0,0,0,0,0,-1,1910,386,0,0
693,638,0,0,0,0,0,0,0,0,0,-1,1917,386,0,0
700,638,0,0,0,0,0,0,0,0,0,-1,1924,386,0,0
707,638,0,0,0,0,0,0,0,0,0,-1,1931,386,0,0
714,638,0,0,0,0,0,0,0,0,0,-1,1938,386,0,0
721,638,0,0,0,0,0,0,0,0,0,-1,1945,386,0,0
728,638,0,0,0,0,0,0,0,0,0,-1,1952,386,0,0
735,638,0,0,0,0,0,0,0,0,0,-1,1959,386,0,0
742,638,0,0,0,0,0,0,0,0,0,-1,1966,386,0,0
749,638,0,0,0,0,0,0,0,0,0,-1,1973,386,0,0
756,638,0,0,0,0,0,0,0,0,0,-1,1980,386,0,0
763,638,0,0,0,0,0,0,0,0,0,-1,1987,386,0,0
770,638,0,0,0,0,0,0,0,0,0,-1,1994,386,0,0
777,638,0,0,0,0,0,0,0,0,0,-1,2001,386,0,0
784,638,0,0,0,0,0,0,0,0,0,-1,2008,386,0,0
791,638,0,0,0,0,0,0,0,0,0,-1,2015,386,0,0
798,638,0,0,0,0,0,0,0,0,0,-1,2022,386,0,0
805,638,0,0,0,0,0,0,0,0,0,-1,2029,386,0,0
812,638,0,0,0,0,0,0,0,0,0,-1,2036,386,0,0
-700,631,0,0,0,0,0,0,0,0,0,-1,524,393,0,0
-693,631,0,0,0,0,0,0,0,0,0,-1,531,393,0,0
-686,631,0,0,0,0,0,0,0,0,0,-1,538,393,0,0
-679,631,0,0,0,0,0,0,0,0,0,-1,545,393,0,0
-672,631,0,0,0,0,0,0,0,0,0,-1,552,393,0,0
-665,631,0,0,0,0,0,0,0,0,0,-1,559,393,0,0
-658,631,0,0,0,0,0,0,0,0,0,-1,566,393,0,0
-651,631,0,0,0,0,0,0,0,0,0,-1,573,393,0,0
-644,631,0,0,0,0,0,0,0,0,0,-1,580,393,0,0
-637,631,0,0,0,0,0,0,0,0,0,-1,587,393,0,0
-630,631,0,0,0,0,0,0,0,0,0,-1,594,393,0,0
-623,631,0,0,0,0,0,0,0,0,0,-1,601,393,0,0
-616,631,0,0,0,0,0,0,0,0,0,-1,608,393,0,0
-609,631,0,0,0,0,0,0,0,0,0,-1,615,393,0,0
-602,631,0,0,0,0,0,0,0,0,0,-1,622,393,0,0
-595,631,0,0,0,0,0,0,0,0,0,-1,629,393,0,0
-588,631,0,0,0,0,0,0,0,0,0,-1,636,393,0,0
-581,631,0,0,0,0,0,0,0,0,0,-1,643,393,0,0
-574,631,0,0,0,0,0,0,0,0,0,-1,650,393,0,0
-567,631,0,0,0,0,0,0,0,0,0,-1,657,393,0,0
-560,631,0,0,0,0,0,0,0,0,0,-1,664,393,0,0
-553,631,0,0,0,0,0,0,0,0,0,-1,671,393,0,0
-546,631,0,0,0,0,0,0,0,0,0,-1,678,393,0,0
-539,631,0,0,0,0,0,0,0,0,0,-1,685,393,0,0
-532,631,0,0,0,0,0,0,0,0,0,-1,692,393,0,0
-525,631,0,0,0,0,0,0,0,0,0,-1,699,393,0,0
-518,631,0,0,0,0,0,0,0,0,0,-1,706,393,0,0
-511,631,0,0,0,0,0,0,0,0,0,-1,713,393,0,0
-504,631,0,0,0,0,0,0,0,0,0,-1,720,393,0,0
-497,631,0,0,0,0,0,0,0,0,0,-1,727,393,0,0
-490,631,0,0,0,0,0,0,0,0,0,-1,734,393,0,0
-483,631,0,0,0,0,0,0,0,0,0,-1,741,393,0,0
-476,631,0,0,0,0,0,0,0,0,0,-1,748,393,0,0
-469,631,0,0,0,0,0,0,0,0,0,-1,755,393,0,0
-462,631,0,0,0,0,0,0,0,0,0,-1,762,393,0,0
-455,631,0,0,0,0,0,0,0,0,0,-1,769,393,0,0
-448,631,0,0,0,0,0,0,0,0,0,-1,776,393,0,0
-441,631,0,0,0,0,0,0,0,0,0,-1,783,393,0,0
-434,631,0,0,0,0,0,0,0,0,0,-1,790,393,0,0
-427,631,0,0,0,0,0,0,0,0,0,-1,797,393,0,0
-420,631,0,0,0,0,0,0,0,0,0,-1,804,393,0,0
-413,631,0,0,0,0,0,0,0,0,0,-1,811,393,0,0
-406,631,0,0,0,0,0,0,0,0,0,-1,818,393,0,0
-399,631,0,0,0,0,0,0,0,0,0,-1,825,393,0,0
-392,631,0,0,0,0,0,0,0,0,0,-1,832,393,0,0
-385,631,0,0,0,0,0,0,0,0,0,-1,839,393,0,0
-378,631,0,0,0,0,0,0,0,0,0,-1,846,393,0,0
-371,631,0,0,0,0,0,0,0,0,0,-1,853,393,0,0
-364,631,0,0,0,0,0,0,0,0,0,-1,860,393,0,0
-357,631,0,0,0,0,0,0,0,0,0,-1,867,393,0,0
-350,631,0,0,0,0,0,0,0,0,0,-1,874,393,0,0
-343,631,0,0,0,0,0,0,0,0,0,-1,881,393,0,0
-336,631,0,0,0,0,0,0,0,0,0,-1,888,393,0,0
-329,631,0,0,0,0,0,0,0,0,0,-1,895,393,0,0
-322,631,0,0,0,0,0,0,0,0,0,-1,902,393,0,0
-315,631,0,0,0,0,0,0,0,0,0,-1,909,393,0,0
-308,631,0,0,0,0,0,0,0,0,0,-1,916,393,0,0
-301,631,0,0,0,0,0,0,0,0,0,-1,923,393,0,0
-294,631,0,0,0,0,0,0,0,0,0,-1,930,393,0,0
-287,631,0,0,0,0,0,0,0,0,0,-1,937,393,0,0
-280,631,1.38763,-14.3453,0,0,0,0,0,0,0,-1,944,393,1.38762,14.3453
-273,631,2.6192,-11.8094,0,0,0,0,0,0,0,-1,951,393,2.61918,11.8094
-266,631,0.616394,-9.4404,0,0,0,0,0,0,0,-1,958,393,0.616411,9.4404
-259,631,3.48328,-12.1518,0,0,0,0,0,0,0,-1,965,393,3.48325,12.1518
-252,631,3.14685,-12.495,0,0,0,0,0,0,0,-1,972,393,3.14685,12.495
-245,631,2.27789,-13.5737,-0.0677592,0.000910068,-0.0583599,0.0342861,-0.101135,-1.05129,0.0812989,0.045045,979,393,2.27788,13.5737
-238,631,1.39111,-14.6543,-0.0614475,0.00205643,-0.0517682,0.0310344,-0.0904255,-1.06049,0.0728658,0.0483518,986,393,1.3911,14.6543
-231,631,0.490295,-15.6698,0,0,0,0,0,0,0,-1,993,393,0.490318,15.6698
-224,631,3.33148,-11.726,0,0,0,0,0,0,0,-1,1000,393,3.33146,11.726
-217,631,2.8056,-11.3224,0,0,0,0,0,0,0,-1,1007,393,2.80559,11.3224
-210,631,3.90906,-14.3908,0,0,0,0,0,0,0,-1,1014,393,3.90906,14.3908
-203,631,3.63428,-14.237,0,0,0,0,0,0,0,-1,1021,393,3.63423,14.237
-196,631,3.45679,-14.2904,0,0,0,0,0,0,0,-1,1028,393,3.45674,14.2904
-189,631,3.38293,-14.6086,-0.00980563,0.00432114,-0.00490238,0.00585571,-0.0113402,-1.26743,0.010095,0.0459467,1035,393,3.38294,14.6086
-182,631,3.58398,-14.6901,-0.00129994,0.00365714,0.00096895,0.0038398,-0.00148261,1.38446,0.00317176,0.0431674,1042,393,3.58394,14.6901
-175,631,3.34863,-14.9694,0.000957316,0.0014327,-0.000124135,0.00146317,0.000926853,-1.33015,0.000854731,0.0347931,1049,393,3.34863,14.9694
-168,631,3.14148,-15.1744,0.00341559,-6.00675e-05,-0.000191648,0.00342613,-7.06031e-05,-0.0549181,0.00230798,0.0185175,1056,393,3.14149,15.1744
-161,631,3.10791,-15.3833,0.00489745,-0.00113764,-0.000602869,0.00495708,-0.00119727,-0.0985957,0.00376777,0.00891353,1063,393,3.10788,15.3833
-154,631,3.09436,-15.5718,0.00614837,-0.00157142,-0.000977458,0.00627021,-0.00169326,-0.12401,0.00484423,0.00911648,1070,393,3.09432,15.5718
-147,631,3.09351,-15.7186,0.00695178,-0.00197923,-0.00102269,0.00706739,-0.00209484,-0.112569,0.00554342,0.0100527,1077,393,3.09348,15.7186
-140,631,3.06494,-15.8911,0.00747427,-0.00225997,-0.000761245,0.00753344,-0.00231914,-0.0775744,0.00594801,0.00932807,1084,393,3.06498,15.8912
-133,631,3.04346,-16.0677,0.00746162,-0.0022371,-0.000439178,0.00748147,-0.00225695,-0.0451588,0.00588601,0.00835845,1091,393,3.04346,16.0677
-126,631,3.05176,-16.1943,0.00720575,-0.00206751,-6.62815e-05,0.00720622,-0.00206798,-0.00714711,0.00562173,0.0127824,1098,393,3.05177,16.1943
-119,631,3.04187,-16.3341,0.00665239,-0.00155347,0.00036732,0.0066688,-0.00156988,0.0446441,0.00505115,0.0150254,1105,393,3.04182,16.3341
-112,631,3.04163,-16.4801,0.00575975,-0.000955224,0.000723695,0.00583686,-0.00103233,0.106149,0.00427708,0.0128841,1112,393,3.04158,16.4801
-105,631,3.02661,-16.6163,0.00465844,-0.000179527,0.000912694,0.00482489,-0.000345982,0.180395,0.0033379,0.017675,1119,393,3.02667,16.6163
-98,631,2.96521,-16.7767,0.00351234,0.00046609,0.000880253,0.0037484,0.000230023,0.262015,0.0024259,0.0162649,1126,393,2.96525,16.7767
-91,631,2.95874,-16.9256,0.00257532,0.000927095,0.000718232,0.00284438,0.000658039,0.358428,0.0017194,0.0159013,1133,393,2.9587,16.9256
-84,631,2.96729,-17.0276,0.00159126,0.00114642,0.000798008,0.00219726,0.000540413,0.649488,0.00132205,0.0151686,1140,393,2.96725,17.0276
-77,631,2.94275,-17.111,0.000619834,0.00137521,0.000572332,0.00168324,0.000311802,1.07705,0.00103402,0.0104131,1147,393,2.94271,17.111
-70,631,2.96191,-17.1844,-3.00351e-06,0.0014777,0.000310118,0.00154003,-6.53312e-05,1.37246,0.00104914,0.0109073,1154,393,2.96186,17.1844
-63,631,2.9707,-17.2919,-0.000535742,0.00134326,-0.000169299,0.0013584,-0.000550874,-1.48165,0.00113471,0.0106667,1161,393,2.97076,17.2919
-56,631,2.94836,-17.425,-0.000324148,0.00107788,-0.000275663,0.00113013,-0.000376401,-1.38347,0.000905355,0.0121682,1168,393,2.94834,17.425
-49,631,2.94019,-17.5071,-4.60775e-05,0.000674314,-0.00025265,0.000754087,-0.000125851,-1.26496,0.0005495,0.0110191,1175,393,2.94019,17.5071
-42,631,2.94263,-17.5712,9.04793e-05,0.000133274,-0.000132413,0.000246007,-2.22538e-05,-0.865504,0.000171904,0.00875424,1182,393,2.94266,17.5712
-35,631,2.94507,-17.6352,1.82678e-05,-0.00030202,-6.81777e-05,3.21764e-05,-0.000315929,-0.201243,0.000222123,0.00956816,1189,393,2.9451,17.6352
-28,631,2.95093,-17.7002,-7.64476e-05,-0.000823852,-5.96813e-05,-7.1712e-05,-0.000828588,-0.0791827,0.000530107,0.0122267,1196,393,2.95089,17.7002
-21,631,2.93481,-17.7765,-0.000156136,-0.00122829,-8.37637e-05,-0.000149632,-0.00123479,-0.0775,0.000778128,0.0115728,1203,393,2.93478,17.7765
-14,631,2.927,-17.8496,-8.73871e-05,-0.00171853,-1.2228e-05,-8.72955e-05,-0.00171862,-0.00749602,0.00111779,0.0140311,1210,393,2.92694,17.8496
-7,631,2.95544,-17.9348,0.000181165,-0.00193306,-1.71994e-05,0.000181305,-0.0019332,-0.00813437,0.00135329,0.0194514,1217,393,2.95544,17.9348
0,631,2.96765,-17.958,0.00155489,-0.00192634,-0.000176251,0.00156379,-0.00193524,-0.0504568,0.00202396,0.0202195,1224,393,2.96762,17.958
7,631,2.95813,-17.9903,0.00440988,0.00076564,-0.00216019,0.00541381,-0.000238291,-0.435045,0.0036912,0.0163027,1231,393,2.95818,17.9903
14,631,2.92615,-18.008,0.00837161,0.00182405,-0.00343667,0.00984423,0.000351427,-0.404833,0.00644887,0.00956194,1238,393,2.9262,18.008
21,631,2.94104,-18.0359,0.0113658,0.00325606,-0.00455896,0.0134123,0.00120961,-0.421926,0.00856682,0.0119629,1245,393,2.94098,18.0359
28,631,2.9585,-18.0577,0.0145424,0.00453073,-0.00568844,0.0171139,0.00195917,-0.424571,0.0108155,0.0138558,1252,393,2.95849,18.0577
35,631,2.9718,-18.0539,0.0175976,0.00561016,-0.00684073,0.020699,0.00250882,-0.425648,0.0130437,0.0128672,1259,393,2.9718,18.0539
42,631,2.9928,-18.053,0.0202982,0.00621023,-0.00743428,0.0234956,0.00301282,-0.406174,0.0147623,0.0109477,1266,393,2.99277,18.053
49,631,3.01599,-18.0682,0.0222751,0.00721918,-0.0074851,0.025363,0.00413126,-0.391271,0.0157137,0.0100957,1273,393,3.01596,18.0682
56,631,3.00391,-18.0819,0.0231863,0.0073221,-0.00734135,0.0260623,0.00444617,-0.373369,0.0160988,0.0119278,1280,393,3.00389,18.0819
63,631,3.00122,-18.092,0.0230224,0.00681364,-0.0067249,0.0254492,0.00438686,-0.34632,0.0157093,0.0141323,1287,393,3.00119,18.092
70,631,3.00623,-18.0594,0.0217345,0.005821,-0.00564207,0.0235319,0.00402363,-0.308401,0.0145336,0.0142072,1294,393,3.0062,18.0595
77,631,2.99219,-18.0247,0.0196646,0.00472031,-0.00433891,0.020833,0.0035519,-0.263046,0.0128691,0.0142502,1301,393,2.99215,18.0246
84,631,3.0033,-17.9973,0.0165896,0.0035302,-0.00305703,0.0172698,0.00285002,-0.218931,0.0106906,0.0122796,1308,393,3.00335,17.9973
91,631,3.01355,-17.9723,0.0130091,0.00242856,-0.00196937,0.0133638,0.00207389,-0.178184,0.00830468,0.0145384,1315,393,3.01351,17.9723
98,631,3.02112,-17.9391,0.00960262,0.0013165,-0.000937211,0.00970731,0.00121182,-0.111234,0.0061078,0.0119886,1322,393,3.02109,17.939
105,631,3.0127,-17.8897,0.00599928,0.000336779,-3.06904e-05,0.00599945,0.000336613,-0.00541972,0.00389228,0.0100161,1329,393,3.01264,17.8897
112,631,3.02551,-17.84,0.00239039,-0.00230687,0.00182722,0.00301746,-0.00293394,0.330589,0.00343616,0.0106169,1336,393,3.02555,17.84
119,631,3.03406,-17.7736,-0.000308169,-0.00173818,0.00166633,0.000790081,-0.00283643,0.582733,0.00220208,0.0114418,1343,393,3.0341,17.7736
126,631,3.03149,-17.6746,-0.000548241,-0.00152366,0.00100326,7.95685e-05,-0.00215147,0.559154,0.00146156,0.0160672,1350,393,3.03148,17.6746
133,631,3.05371,-17.6154,-0.000786819,-0.00128836,0.000432437,-0.000537703,-0.00153748,0.522643,0.000900927,0.0173874,1357,393,3.05376,17.6154
140,631,3.05591,-17.5639,-0.000946554,-0.00119378,8.81276e-05,-0.000918356,-0.00122198,0.309674,0.000734666,0.0177069,1364,393,3.05588,17.5639
147,631,3.02844,-17.4858,-0.00107364,-0.00110961,-0.000347938,-0.000743221,-0.00144003,-0.759574,0.000831543,0.0197165,1371,393,3.02846,17.4858
154,631,3.03247,-17.3977,-0.000952836,-0.00151189,-0.000638637,-0.00053523,-0.00192949,-0.579113,0.00115021,0.0187272,1378,393,3.03243,17.3977
161,631,3.03979,-17.2762,-0.000539961,-0.00117712,-0.000563092,-0.000211575,-0.00150551,-0.527964,0.000941108,0.0221699,1385,393,3.03981,17.2761
168,631,3.08606,-17.1261,-0.000243882,-0.000716029,-0.000435582,1.54858e-05,-0.000975397,-0.537068,0.000655488,0.0273601,1392,393,3.08601,17.1261
175,631,3.11584,-17.0412,-0.000120111,-0.000328317,-0.000437497,0.000225498,-0.000673926,-0.668595,0.000540368,0.0201215,1399,393,3.11588,17.0412
182,631,3.07336,-16.9515,1.18608e-05,9.21585e-05,-0.000382973,0.000437081,-0.000333062,-0.837625,0.000445992,0.0112022,1406,393,3.07335,16.9515
189,631,3.07581,-16.8265,5.3574e-05,0.000421019,-0.000194999,0.000505212,-3.06187e-05,-1.16321,0.000347464,0.0104228,1413,393,3.07583,16.8265
196,631,3.06396,-16.7142,-3.51737e-05,0.000639393,-1.32563e-05,0.000639653,-3.54341e-05,-1.55115,0.000438724,0.011597,1420,393,3.06398,16.7142
203,631,3.05786,-16.6095,-0.000218022,0.000978811,0.000172453,0.00100316,-0.000242375,1.43051,0.000762518,0.0137078,1427,393,3.05788,16.6095
210,631,3.04211,-16.4684,-0.000540477,0.00123669,0.000314015,0.00129054,-0.00059433,1.40095,0.0011127,0.0150493,1434,393,3.0421,16.4685
217,631,3.04919,-16.3486,-0.000728417,0.00147441,0.000451413,0.00156332,-0.000817334,1.37631,0.00139679,0.0148806,1441,393,3.04913,16.3486
224,631,3.01099,-16.1949,-0.000802133,0.00175375,0.000597826,0.00188667,-0.000935053,1.35202,0.00165972,0.0121469,1448,393,3.01095,16.1949
231,631,2.98401,-16.014,-0.000672926,0.00193421,0.000845658,0.00218449,-0.0009232,1.28306,0.00184282,0.0115553,1455,393,2.98407,16.014
238,631,2.97705,-15.8445,-0.00056477,0.00240136,0.00126603,0.00286824,-0.00103165,1.21749,0.00233335,0.0167189,1462,393,2.9771,15.8445
245,631,2.9873,-15.6891,-0.000601893,0.00262828,0.00157178,0.00326685,-0.00124047,1.18489,0.00268854,0.0172075,1469,393,2.9873,15.6891
252,631,2.99268,-15.5339,-0.000447899,0.00303861,0.00192073,0.00388922,-0.00129851,1.1539,0.00311714,0.0167922,1476,393,2.99266,15.5339
259,631,2.97083,-15.3441,-0.000232814,0.00349308,0.00231856,0.0046044,-0.00134414,1.12383,0.00360223,0.0129759,1483,393,2.97087,15.3441
266,631,2.97937,-15.1477,-0.000102278,0.00344409,0.00284614,0.00502422,-0.0016824,1.06398,0.00402912,0.0116971,1490,393,2.97938,15.1477
273,631,2.9718,-14.9542,-0.00034779,0.00308332,0.00400368,0.00572352,-0.00298799,0.987812,0.00511158,0.0138398,1497,393,2.97179,14.9541
280,631,2.94104,-14.7898,-0.0002696,0.00287303,0.00496381,0.00650829,-0.00390486,0.938685,0.00607434,0.0129908,1504,393,2.94099,14.7898
287,631,2.92456,-14.5727,-0.000234626,0.00220165,0.00629932,0.00739953,-0.00543251,0.880907,0.00743754,0.0149257,1511,393,2.92461,14.5726
294,631,2.90491,-14.3161,-0.000248445,0.00146842,0.00767044,0.00832832,-0.00710834,0.841123,0.00892163,0.019486,1518,393,2.90495,14.3161
301,631,2.85669,-14.0391,-0.000127757,0.000643629,0.00936341,0.00962928,-0.00911341,0.805982,0.0108225,0.0277551,1525,393,2.85667,14.0391
308,631,2.96826,-13.8231,-0.00018809,-0.000750755,0.0111426,0.0106768,-0.0116156,0.772777,0.0128743,0.0326907,1532,393,2.96831,13.8231
315,631,3.04785,-13.731,-0.000236957,-0.00228577,0.0131047,0.0118833,-0.014406,0.746392,0.0152014,0.0342827,1539,393,3.04788,13.731
322,631,2.97156,-13.5372,-0.000288208,-0.00367399,0.015099,0.0132126,-0.0171748,0.729572,0.0175938,0.0406865,1546,393,2.9716,13.5372
329,631,2.90649,-13.275,0,0,0,0,0,0,0,-1,1553,393,2.90649,13.275
336,631,3.69873,-13.3763,0,0,0,0,0,0,0,-1,1560,393,3.69879,13.3763
343,631,2.45703,-11.5554,0,0,0,0,0,0,0,-1,1567,393,2.45703,11.5554
350,631,2.1344,-9.23401,0,0,0,0,0,0,0,-1,1574,393,2.13439,9.23401
357,631,2.6449,-9.60303,0,0,0,0,0,0,0,-1,1581,393,2.64491,9.60304
364,631,3.39136,-5.7594,0,0,0,0,0,0,0,-1,1588,393,3.39137,5.75939
371,631,3.72839,-6.0574,0,0,0,0,0,0,0,-1,1595,393,3.72845,6.05742
378,631,4.06555,-6.35544,0,0,0,0,0,0,0,-1,1602,393,4.06553,6.35544
385,631,3.90442,-3.58298,0,0,0,0,0,0,0,-1,1609,393,3.90437,3.58299
392,631,0.352295,-2.21301,0,0,0,0,0,0,0,-1,1616,393,0.352345,2.213
399,631,0,0,0,0,0,0,0,0,0,-1,1623,393,0,0
406,631,0,0,0,0,0,0,0,0,0,-1,1630,393,0,0
413,631,0,0,0,0,0,0,0,0,0,-1,1637,393,0,0
420,631,0,0,0,0,0,0,0,0,0,-1,1644,393,0,0
427,631,0,0,0,0,0,0,0,0,0,-1,1651,393,0,0
434,631,0,0,0,0,0,0,0,0,0,-1,1658,393,0,0
441,631,0,0,0,0,0,0,0,0,0,-1,1665,393,0,0
448,631,0,0,0,0,0,0,0,0,0,-1,1672,393,0,0
455,631,0,0,0,0,0,0,0,0,0,-1,1679,393,0,0
462,631,0,0,0,0,0,0,0,0,0,-1,1686,393,0,0
469,631,0,0,0,0,0,0,0,0,0,-1,1693,393,0,0
476,631,0,0,0,0,0,0,0,0,0,-1,1700,393,0,0
483,631,0,0,0,0,0,0,0,0,0,-1,1707,393,0,0
490,631,0,0,0,0,0,0,0,0,0,-1,1714,393,0,0
497,631,0,0,0,0,0,0,0,0,0,-1,1721,393,0,0
504,631,0,0,0,0,0,0,0,0,0,-1,1728,393,0,0
511,631,0,0,0,0,0,0,0,0,0,-1,1735,393,0,0
518,631,0,0,0,0,0,0,0,0,0,-1,1742,393,0,0
525,631,0,0,0,0,0,0,0,0,0,-1,1749,393,0,0
532,631,0,0,0,0,0,0,0,0,0,-1,1756,393,0,0
539,631,0,0,0,0,0,0,0,0,0,-1,1763,393,0,0
546,631,0,0,0,0,0,0,0,0,0,-1,1770,393,0,0
553,631,0,0,0,0,0,0,0,0,0,-1,1777,393,0,0
560,631,0,0,0,0,0,0,0,0,0,-1,1784,393,0,0
567,631,0,0,0,0,0,0,0,0,0,-1,1791,393,0,0
574,631,0,0,0,0,0,0,0,0,0,-1,1798,393,0,0
581,631,0,0,0,0,0,0,0,0,0,-1,1805,393,0,0
588,631,0,0,0,0,0,0,0,0,0,-1,1812,393,0,0
595,631,0,0,0,0,0,0,0,0,0,-1,1819,393,0,0
602,631,0,0,0,0,0,0,0,0,0,-1,1826,393,0,0
609,631,0,0,0,0,0,0,0,0,0,-1,1833,393,0,0
616,631,0,0,0,0,0,0,0,0,0,-1,1840,393,0,0
623,631,0,0,0,0,0,0,0,0,0,-1,1847,393,0,0
630,631,0,0,0,0,0,0,0,0,0,-1,1854,393,0,0
637,631,0,0,0,0,0,0,0,0,0,-1,1861,393,0,0
644,631,0,0,0,0,0,0,0,0,0,-1,1868,393,0,0
651,631,0,0,0,0,0,0,0,0,0,-1,1875,393,0,0
658,631,0,0,0,0,0,0,0,0,0,-1,1882,393,0,0
665,631,0,0,0,0,0,0,0,0,0,-1,1889,393,0,0
672,631,0,0,0,0,0,0,0,0,0,-1,1896,393,0,0
679,631,0,0,0,0,0,0,0,0,0,-1,1903,393,0,0
686,631,0,0,0,0,0,0,0,0,0,-1,1910,393,0,0
693,631,0,0,0,0,0,0,0,0,0,-1,1917,393,0,0
700,631,0,0,0,0,0,0,0,0,0,-1,1924,393,0,0
707,631,0,0,0,0,0,0,0,0,0,-1,1931,393,0,0
714,631,0,0,0,0,0,0,0,0,0,-1,1938,393,0,0
721,631,0,0,0,0,0,0,0,0,0,-1,1945,393,0,0
728,631,0,0,0,0,0,0,0,0,0,-1,1952,393,0,0
735,631,0,0,0,0,0,0,0,0,0,-1,1959,393,0,0
742,631,0,0,0,0,0,0,0,0,0,-1,1966,393,0,0
749,631,0,0,0,0,0,0,0,0,0,-1,1973,393,0,0
756,631,0,0,0,0,0,0,0,0,0,-1,1980,393,0,0
763,631,0,0,0,0,0,0,0,0,0,-1,1987,393,0,0
770,631,0,0,0,0,0,0,0,0,0,-1,1994,393,0,0
777,631,0,0,0,0,0,0,0,0,0,-1,2001,393,0,0
784,631,0,0,0,0,0,0,0,0,0,-1,2008,393,0,0
791,631,0,0,0,0,0,0,0,0,0,-1,2015,393,0,0
798,631,0,0,0,0,0,0,0,0,0,-1,2022,393,0,0
805,631,0,0,0,0,0,0,0,0,0,-1,2029,393,0,0
812,631,0,0,0,0,0,0,0,0,0,-1,2036,393,0,0
-700,624,0,0,0,0,0,0,0,0,0,-1,524,400,0,0
-693,624,0,0,0,0,0,0,0,0,0,-1,531,400,0,0
-686,624,0,0,0,0,0,0,0,0,0,-1,538,400,0,0
-679,624,0,0,0,0,0,0,0,0,0,-1,545,400,0,0
-672,624,0,0,0,0,0,0,0,0,0,-1,552,400,0,0
-665,624,0,0,0,0,0,0,0,0,0,-1,559,400,0,0
-658,624,0,0,0,0,0,0,0,0,0,-1,566,400,0,0
-651,624,0,0,0,0,0,0,0,0,0,-1,573,400,0,0
-644,624,0,0,0,0,0,0,0,0,0,-1,580,400,0,0
-637,624,0,0,0,0,0,0,0,0,0,-1,587,400,0,0
-630,624,0,0,0,0,0,0,0,0,0,-1,594,400,0,0
-623,624,0,0,0,0,0,0,0,0,0,-1,601,400,0,0
-616,624,0,0,0,0,0,0,0,0,0,-1,608,400,0,0
-609,624,0,0,0,0,0,0,0,0,0,-1,615,400,0,0
-602,624,0,0,0,0,0,0,0,0,0,-1,622,400,0,0
-595,624,0,0,0,0,0,0,0,0,0,-1,629,400,0,0
-588,624,0,0,0,0,0,0,0,0,0,-1,636,400,0,0
-581,624,0,0,0,0,0,0,0,0,0,-1,643,400,0,0
-574,624,0,0,0,0,0,0,0,0,0,-1,650,400,0,0
-567,624,0,0,0,0,0,0,0,0,0,-1,657,400,0,0
-560,624,0,0,0,0,0,0,0,0,0,-1,664,400,0,0
-553,624,0,0,0,0,0,0,0,0,0,-1,671,400,0,0
-546,624,0,0,0,0,0,0,0,0,0,-1,678,400,0,0
-539,624,0,0,0,0,0,0,0,0,0,-1,685,400,0,0
-532,624,0,0,0,0,0,0,0,0,0,-1,692,400,0,0
-525,624,0,0,0,0,0,0,0,0,0,-1,699,400,0,0
-518,624,0,0,0,0,0,0,0,0,0,-1,706,400,0,0
-511,624,0,0,0,0,0,0,0,0,0,-1,713,400,0,0
-504,624,0,0,0,0,0,0,0,0,0,-1,720,400,0,0
-497,624,0,0,0,0,0,0,0,0,0,-1,727,400,0,0
-490,624,0,0,0,0,0,0,0,0,0,-1,734,400,0,0
-483,624,0,0,0,0,0,0,0,0,0,-1,741,400,0,0
-476,624,0,0,0,0,0,0,0,0,0,-1,748,400,0,0
-469,624,0,0,0,0,0,0,0,0,0,-1,755,400,0,0
-462,624,0,0,0,0,0,0,0,0,0,-1,762,400,0,0
-455,624,0,0,0,0,0,0,0,0,0,-1,769,400,0,0
-448,624,0,0,0,0,0,0,0,0,0,-1,776,400,0,0
-441,624,0,0,0,0,0,0,0,0,0,-1,783,400,0,0
-434,624,0,0,0,0,0,0,0,0,0,-1,790,400,0,0
-427,624,0,0,0,0,0,0,0,0,0,-1,797,400,0,0
-420,624,0,0,0,0,0,0,0,0,0,-1,804,400,0,0
-413,624,0,0,0,0,0,0,0,0,0,-1,811,400,0,0
-406,624,0,0,0,0,0,0,0,0,0,-1,818,400,0,0
-399,624,0,0,0,0,0,0,0,0,0,-1,825,400,0,0
-392,624,0,0,0,0,0,0,0,0,0,-1,832,400,0,0
-385,624,0,0,0,0,0,0,0,0,0,-1,839,400,0,0
-378,624,0,0,0,0,0,0,0,0,0,-1,846,400,0,0
-371,624,0,0,0,0,0,0,0,0,0,-1,853,400,0,0
-364,624,0,0,0,0,0,0,0,0,0,-1,860,400,0,0
-357,624,0,0,0,0,0,0,0,0,0,-1,867,400,0,0
-350,624,0,0,0,0,0,0,0,0,0,-1,874,400,0,0
-343,624,0,0,0,0,0,0,0,0,0,-1,881,400,0,0
-336,624,0,0,0,0,0,0,0,0,0,-1,888,400,0,0
-329,624,0,0,0,0,0,0,0,0,0,-1,895,400,0,0
-322,624,0,0,0,0,0,0,0,0,0,-1,902,400,0,0
-315,624,0,0,0,0,0,0,0,0,0,-1,909,400,0,0
-308,624,0,0,0,0,0,0,0,0,0,-1,916,400,0,0
-301,624,0,0,0,0,0,0,0,0,0,-1,923,400,0,0
-294,624,-0.912903,-12.9461,0,0,0,0,0,0,0,-1,930,400,-0.912926,12.9461
-287,624,0.12146,-15.0862,0,0,0,0,0,0,0,-1,937,400,0.121451,15.0862
-280,624,1.44836,-13.0475,0,0,0,0,0,0,0,-1,944,400,1.44835,13.0475
-273,624,2.56573,-11.0646,0,0,0,0,0,0,0,-1,951,400,2.56571,11.0646
-266,624,4.63965,-10.4106,0,0,0,0,0,0,0,-1,958,400,4.63965,10.4106
-259,624,3.94147,-11.5439,0,0,0,0,0,0,0,-1,965,400,3.94147,11.5439
-252,624,3.05292,-12.3682,0,0,0,0,0,0,0,-1,972,400,3.0529,12.3682
-245,624,2.41187,-13.5573,-0.0486546,-0.000375946,-0.0452258,0.0267496,-0.0757801,-1.03054,0.0614103,0.0417251,979,400,2.41186,13.5572
-238,624,2.71802,-14.2098,-0.043459,0.000622512,-0.0397306,0.0240165,-0.066853,-1.03864,0.054372,0.048386,986,400,2.71802,14.2098
-231,624,2.65784,-14.627,0,0,0,0,0,0,0,-1,993,400,2.65784,14.627
-224,624,3.35748,-13.0299,0,0,0,0,0,0,0,-1,1000,400,3.35747,13.0299
-217,624,3.33331,-13.3938,0,0,0,0,0,0,0,-1,1007,400,3.33332,13.3938
-210,624,3.46008,-14.1785,-0.022158,0.0040346,-0.0153606,0.011124,-0.0292474,-1.1384,0.0240786,0.0441643,1014,400,3.46007,14.1785
-203,624,3.2738,-14.2278,-0.0170237,0.00395615,-0.0104403,0.0082662,-0.0213338,-1.17928,0.0176359,0.0394525,1021,400,3.27377,14.2277
-196,624,3.18335,-14.3504,-0.0129947,0.00398131,-0.00655319,0.00621667,-0.0152301,-1.24206,0.0127416,0.035869,1028,400,3.18338,14.3504
-189,624,3.07678,-14.5613,-0.00714525,0.00405921,-0.00287371,0.00475327,-0.00783931,-1.33382,0.00734274,0.0340239,1035,400,3.07673,14.5613
-182,624,3.02588,-14.7964,-0.00195565,0.00378872,0.000891026,0.00392376,-0.00209068,1.42039,0.00352579,0.0283235,1042,400,3.02582,14.7964
-175,624,3.00964,-15.0197,-0.000411651,0.00203378,9.41345e-06,0.00203381,-0.000411687,1.56695,0.0015119,0.018041,1049,400,3.00959,15.0197
-168,624,2.98877,-15.2212,0.00127952,0.000725386,-0.000222011,0.00135749,0.000647411,-0.337764,0.000784028,0.0116777,1056,400,2.98879,15.2212
-161,624,2.95703,-15.4103,0.00241291,-0.000236432,-0.000600511,0.00254267,-0.000366191,-0.212809,0.00182944,0.00969808,1063,400,2.95704,15.4103
-154,624,2.94775,-15.5812,0.00342079,-0.000681181,-0.000968849,0.00363811,-0.000898501,-0.220655,0.00277385,0.00976574,1070,400,2.94772,15.5813
-147,624,2.94495,-15.7402,0.00412206,-0.00114076,-0.00108048,0.00433525,-0.00135395,-0.19481,0.0034317,0.010409,1077,400,2.94489,15.7402
-140,624,2.91956,-15.9071,0.00461561,-0.00150767,-0.000952601,0.00476038,-0.00165245,-0.150823,0.00384466,0.00936568,1084,400,2.91952,15.9071
-133,624,2.91248,-16.0755,0.00470579,-0.001593,-0.000777646,0.00480038,-0.00168759,-0.121038,0.00388688,0.0107387,1091,400,2.9125,16.0755
-126,624,2.91357,-16.2032,0.00462081,-0.00156281,-0.000565956,0.00467218,-0.00161418,-0.0905228,0.00376986,0.0130241,1098,400,2.91362,16.2032
-119,624,2.90222,-16.3403,0.00433504,-0.00119567,-0.000301287,0.0043514,-0.00121203,-0.0542613,0.00337822,0.0147225,1105,400,2.90217,16.3403
-112,624,2.89392,-16.4786,0.00378517,-0.000752384,-7.18932e-05,0.0037863,-0.000753523,-0.0158388,0.00280927,0.015632,1112,400,2.89393,16.4786
-105,624,2.91626,-16.6119,0.00308356,-0.000147963,2.54364e-05,0.00308376,-0.000148163,0.0078707,0.00210696,0.0114665,1119,400,2.91626,16.6119
-98,624,2.85596,-16.7735,0.00236684,0.000363195,-3.21534e-05,0.00236735,0.000362679,-0.016042,0.00147231,0.0127073,1126,400,2.85595,16.7735
-91,624,2.84607,-16.8976,0.00182404,0.000741661,-0.000177548,0.00185242,0.000713281,-0.158504,0.00107887,0.0177415,1133,400,2.84602,16.8976
-84,624,2.87183,-16.9888,0.00133015,0.000905285,-0.000153847,0.00138001,0.000855427,-0.313397,0.000804345,0.0157424,1140,400,2.87183,16.9888
-77,624,2.85938,-17.1004,0.000922158,0.00102543,-0.000263268,0.00124208,0.000705512,-0.88224,0.000719323,0.0118818,1147,400,2.85932,17.1004
-70,624,2.87561,-17.203,0.000784044,0.000960039,-0.000294265,0.00117918,0.000564901,-0.930687,0.000681,0.0117348,1154,400,2.87558,17.203
-63,624,2.89111,-17.2906,0.000758937,0.000720657,-0.000323605,0.00106397,0.000415626,-0.755859,0.000619161,0.0118548,1161,400,2.89111,17.2906
-56,624,2.87817,-17.4116,0.000945698,0.000446355,-0.000183715,0.00100601,0.000386048,-0.317184,0.000586027,0.0108099,1168,400,2.87813,17.4116
-49,624,2.86694,-17.5075,0.00113143,5.93557e-05,-2.66814e-05,0.0011321,5.86921e-05,-0.0248671,0.000735947,0.0106514,1175,400,2.86695,17.5075
-42,624,2.87549,-17.5625,0.00100304,-0.000824695,-0.000118079,0.00101064,-0.000832292,-0.0642478,0.00106568,0.00988032,1182,400,2.87554,17.5625
-35,624,2.90186,-17.6397,0.000797931,-0.00151189,-0.000160474,0.000809027,-0.00152298,-0.0690327,0.00136726,0.0148295,1189,400,2.90183,17.6397
-28,624,2.90173,-17.7469,0.000592221,-0.00230723,-0.000240903,0.0006121,-0.00232711,-0.0823335,0.00179066,0.0189614,1196,400,2.90174,17.7469
-21,624,2.89868,-17.7889,0.000472921,-0.00286154,-0.000257607,0.000492705,-0.00288132,-0.0766499,0.00210443,0.0134814,1203,400,2.89865,17.7889
-14,624,2.89819,-17.8452,0.000648354,-0.00353699,-0.000135396,0.00065273,-0.00354136,-0.0323051,0.00260588,0.0150603,1210,400,2.8982,17.8452
-7,624,2.89746,-17.8914,0.00122204,-0.00368809,-0.000140146,0.00122604,-0.00369209,-0.0285113,0.00295607,0.0185552,1217,400,2.89742,17.8914
0,624,2.92432,-17.9201,0.00380204,-0.00344854,-0.000406377,0.00382475,-0.00347125,-0.0558145,0.00421399,0.0177632,1224,400,2.92433,17.9201
7,624,2.90112,-17.9633,0.00858937,0.00110793,-0.00372132,0.0101251,-0.000427831,-0.391399,0.00689712,0.0128359,1231,400,2.90116,17.9632
14,624,2.90234,-18.0129,0.0146252,0.00255791,-0.00559986,0.0168234,0.00035971,-0.374064,0.0110976,0.0105586,1238,400,2.90231,18.013
21,624,2.92151,-18.03,0.0189727,0.00447153,-0.00721668,0.021952,0.00149218,-0.391527,0.0141635,0.0121567,1245,400,2.92155,18.03
28,624,2.94031,-18.0478,0.0233728,0.00610367,-0.0088151,0.0270777,0.0023988,-0.397872,0.0173077,0.0115526,1252,400,2.94033,18.0478
35,624,2.94824,-18.0624,0.0274113,0.00732843,-0.0104234,0.0318432,0.00289653,-0.40203,0.0203322,0.013582,1259,400,2.9482,18.0624
42,624,2.98254,-18.0671,0.0309243,0.00781038,-0.0112143,0.0354708,0.00326382,-0.385175,0.0226378,0.0150466,1266,400,2.98249,18.0671
49,624,3.00293,-18.0638,0.0333647,0.00887821,-0.0111582,0.0376866,0.00455634,-0.369533,0.0237517,0.0167437,1273,400,3.00299,18.0638
56,624,3.0105,-18.0727,0.0339697,0.00864391,-0.0108158,0.03796,0.00465357,-0.353444,0.0239069,0.0168838,1280,400,3.01045,18.0727
63,624,3.03723,-18.0715,0.0330533,0.00761659,-0.00978059,0.0363792,0.00429074,-0.327779,0.0229566,0.0134415,1287,400,3.03721,18.0715
70,624,3.01917,-18.073,0.0304799,0.00587945,-0.00814227,0.0329307,0.00342868,-0.292369,0.0209048,0.0115988,1294,400,3.01914,18.073
77,624,3.02075,-18.0265,0.0269504,0.00404526,-0.00617048,0.0285069,0.00248875,-0.247096,0.0182317,0.0123442,1301,400,3.02073,18.0265
84,624,3.03357,-17.9921,0.0220043,0.00218136,-0.00417444,0.0228475,0.00133815,-0.199312,0.0148058,0.0118252,1308,400,3.03352,17.9921
91,624,3.04565,-17.9743,0.0164941,0.000580873,-0.00243462,0.0168583,0.000216727,-0.14847,0.0111673,0.0123875,1315,400,3.0456,17.9743
98,624,3.05164,-17.9556,0.0112385,-0.00100017,-0.000834343,0.0112951,-0.00105679,-0.0677549,0.00790592,0.0123667,1322,400,3.05162,17.9556
105,624,3.06042,-17.9114,0.00555192,-0.00234734,0.000534018,0.00558786,-0.00238327,0.0671961,0.00472448,0.0132321,1329,400,3.06045,17.9114
112,624,3.08276,-17.8364,6.35934e-05,-0.00612156,0.00340201,0.00156859,-0.00762656,0.416503,0.0056799,0.0139397,1336,400,3.08274,17.8364
119,624,3.09851,-17.7636,-0.00385927,-0.00491189,0.00313616,-0.00120557,-0.00756559,0.702263,0.00469377,0.0149108,1343,400,3.09852,17.7636
126,624,3.11353,-17.6631,-0.00408826,-0.00429992,0.00211467,-0.00207677,-0.0063114,0.760396,0.0037142,0.0170827,1350,400,3.11357,17.6631
133,624,3.1394,-17.5941,-0.00427223,-0.00378577,0.00122593,-0.00277917,-0.00527883,0.883329,0.00304916,0.0170647,1357,400,3.13939,17.5941
140,624,3.13867,-17.559,-0.00430003,-0.00348567,0.000636971,-0.00313685,-0.00464885,1.06979,0.00273812,0.0166422,1364,400,3.1387,17.559
147,624,3.08643,-17.4728,-0.0043602,-0.00329459,-0.000153357,-0.00327296,-0.00438183,-1.43067,0.00263069,0.0200216,1371,400,3.08641,17.4728
154,624,3.11963,-17.3835,-0.00405985,-0.00412619,-0.000807393,-0.00328495,-0.00490109,-0.764867,0.00288381,0.0222514,1378,400,3.11968,17.3835
161,624,3.14941,-17.2904,-0.00308531,-0.00369778,-0.000715472,-0.00261329,-0.0041698,-0.583186,0.00243307,0.0218217,1385,400,3.14939,17.2904
168,624,3.16638,-17.1665,-0.0022124,-0.00291181,-0.000557491,-0.00190401,-0.0032202,-0.505278,0.00186948,0.0220823,1392,400,3.16632,17.1665
175,624,3.19336,-17.0626,-0.00156795,-0.00214781,-0.0006711,-0.00112683,-0.00258893,-0.581494,0.00149889,0.0167651,1399,400,3.19337,17.0625
182,624,3.17908,-16.9517,-0.00109429,-0.00150232,-0.000712515,-0.000557155,-0.00203945,-0.645962,0.00121719,0.0109222,1406,400,3.17902,16.9517
189,624,3.17383,-16.831,-0.000505915,-0.000940549,-0.000688791,-9.7201e-07,-0.00144549,-0.632588,0.000963338,0.0107162,1413,400,3.17382,16.831
196,624,3.15808,-16.7217,-4.96259e-05,-0.000329301,-0.000641071,0.000466682,-0.000845609,-0.678015,0.000768108,0.0110238,1420,400,3.15804,16.7217
203,624,3.16589,-16.5982,1.20623e-05,0.000348772,-0.000559151,0.000764363,-0.000403529,-0.931626,0.000684926,0.0133011,1427,400,3.16589,16.5982
210,624,3.16504,-16.4567,-0.000287111,0.00085801,-0.000378906,0.000972032,-0.000401133,-1.27849,0.000815316,0.0169887,1434,400,3.16501,16.4567
217,624,3.15002,-16.3212,-0.00055841,0.00126174,-0.000151651,0.00127429,-0.000570959,-1.48824,0.00109085,0.0195997,1441,400,3.15005,16.3212
224,624,3.14429,-16.1685,-0.000656297,0.00155756,4.04857e-05,0.0015583,-0.000657037,1.55252,0.00131383,0.015847,1448,400,3.14431,16.1685
231,624,3.14526,-16.0417,-0.000575359,0.00177542,0.000331843,0.00182136,-0.000621305,1.43321,0.00146591,0.0127565,1455,400,3.14532,16.0417
238,624,3.12256,-15.8848,-0.00046566,0.00218546,0.000744876,0.00238041,-0.00066061,1.31482,0.00184695,0.0166068,1462,400,3.12257,15.8848
245,624,3.12891,-15.72,-0.000448821,0.00241315,0.00107108,0.0027696,-0.000805274,1.24953,0.00216533,0.0169208,1469,400,3.12886,15.72
252,624,3.14294,-15.5375,-0.000299297,0.0027704,0.00141605,0.00332384,-0.000852737,1.19822,0.00254815,0.013347,1476,400,3.14293,15.5375
259,624,3.12109,-15.3525,-0.00012952,0.00313034,0.00178998,0.0039213,-0.000920481,1.15471,0.00296898,0.00959476,1483,400,3.12111,15.3525
266,624,3.13245,-15.1483,-3.78642e-05,0.00309775,0.00224693,0.00426978,-0.0012099,1.09001,0.00332404,0.0132987,1490,400,3.13245,15.1483
273,624,3.1322,-14.9619,-0.00019149,0.00286041,0.00310611,0.00479516,-0.00212624,1.01372,0.00409391,0.0164426,1497,400,3.13218,14.9619
280,624,3.08984,-14.8015,-9.47013e-05,0.0027091,0.00387037,0.00542364,-0.00280924,0.959155,0.00483249,0.0147212,1504,400,3.08985,14.8015
287,624,3.07068,-14.6079,-5.39076e-06,0.00222992,0.00488513,0.00612361,-0.00389909,0.897856,0.00583392,0.0109969,1511,400,3.07072,14.6079
294,624,3.04675,-14.3881,2.15872e-05,0.00171989,0.00588255,0.00681426,-0.00507279,0.857078,0.0068875,0.00966376,1518,400,3.04675,14.3881
301,624,3.02832,-14.1862,0.000146848,0.0011241,0.00709142,0.00774371,-0.00647276,0.819796,0.00821881,0.0116986,1525,400,3.02837,14.1862
308,624,3.05957,-13.9408,0.000190143,0.000206709,0.00836683,0.00856526,-0.0081684,0.785893,0.00966209,0.0148508,1532,400,3.05954,13.9408
315,624,3.07495,-13.7335,0.000235752,-0.000747255,0.00975223,0.00950885,-0.0100204,0.76022,0.0112765,0.0162572,1539,400,3.075,13.7335
322,624,3.06165,-13.5328,0.00025241,-0.00151446,0.0111164,0.0105205,-0.0117825,0.745746,0.0128835,0.0237684,1546,400,3.0616,13.5328
329,624,3.23071,-13.33,0.000307303,-0.00222364,0.0124711,0.011577,-0.0134933,0.734835,0.0144884,0.0381824,1553,400,3.23071,13.3299
336,624,3.45483,-13.1801,0.000190405,-0.00247824,0.0136566,0.0125777,-0.0148655,0.7367,0.0158627,0.0420606,1560,400,3.45489,13.1801
343,624,3.59338,-12.6643,0,0,0,0,0,0,0,-1,1567,400,3.59343,12.6643
350,624,1.99194,-7.29742,0,0,0,0,0,0,0,-1,1574,400,1.99198,7.29741
357,624,2.64075,-3.13092,0,0,0,0,0,0,0,-1,1581,400,2.64076,3.13091
364,624,3.16565,-4.9458,0,0,0,0,0,0,0,-1,1588,400,3.16564,4.94579
371,624,3.37561,-5.23529,0,0,0,0,0,0,0,-1,1595,400,3.37563,5.23529
378,624,1.50439,-5.22165,0,0,0,0,0,0,0,-1,1602,400,1.50438,5.22164
385,624,1.2301,-10.5866,0,0,0,0,0,0,0,-1,1609,400,1.2301,10.5866
392,624,4.26819,-5.14236,0,0,0,0,0,0,0,-1,1616,400,4.26818,5.14236
399,624,3.86841,-2.36917,0,0,0,0,0,0,0,-1,1623,400,3.86838,2.36916
406,624,4.35376,-2.6962,0,0,0,0,0,0,0,-1,1630,400,4.35373,2.69619
413,624,0,0,0,0,0,0,0,0,0,-1,1637,400,0,0
420,624,0,0,0,0,0,0,0,0,0,-1,1644,400,0,0
427,624,0,0,0,0,0,0,0,0,0,-1,1651,400,0,0
434,624,0,0,0,0,0,0,0,0,0,-1,1658,400,0,0
441,624,0,0,0,0,0,0,0,0,0,-1,1665,400,0,0
448,624,0,0,0,0,0,0,0,0,0,-1,1672,400,0,0
455,624,0,0,0,0,0,0,0,0,0,-1,1679,400,0,0
462,624,0,0,0,0,0,0,0,0,0,-1,1686,400,0,0
469,624,0,0,0,0,0,0,0,0,0,-1,1693,400,0,0
476,624,0,0,0,0,0,0,0,0,0,-1,1700,400,0,0
483,624,0,0,0,0,0,0,0,0,0,-1,1707,400,0,0
490,624,0,0,0,0,0,0,0,0,0,-1,1714,400,0,0
497,624,0,0,0,0,0,0,0,0,0,-1,1721,400,0,0
504,624,0,0,0,0,0,0,0,0,0,-1,1728,400,0,0
511,624,0,0,0,0,0,0,0,0,0,-1,1735,400,0,0
518,624,0,0,0,0,0,0,0,0,0,-1,1742,400,0,0
525,624,0,0,0,0,0,0,0,0,0,-1,1749,400,0,0
532,624,0,0,0,0,0,0,0,0,0,-1,1756,400,0,0
539,624,0,0,0,0,0,0,0,0,0,-1,1763,400,0,0
546,624,0,0,0,0,0,0,0,0,0,-1,1770,400,0,0
553,624,0,0,0,0,0,0,0,0,0,-1,1777,400,0,0
560,624,0,0,0,0,0,0,0,0,0,-1,1784,400,0,0
567,624,0,0,0,0,0,0,0,0,0,-1,1791,400,0,0
574,624,0,0,0,0,0,0,0,0,0,-1,1798,400,0,0
581,624,0,0,0,0,0,0,0,0,0,-1,1805,400,0,0
588,624,0,0,0,0,0,0,0,0,0,-1,1812,400,0,0
595,624,0,0,0,0,0,0,0,0,0,-1,1819,400,0,0
602,624,0,0,0,0,0,0,0,0,0,-1,1826,400,0,0
609,624,0,0,0,0,0,0,0,0,0,-1,1833,400,0,0
616,624,0,0,0,0,0,0,0,0,0,-1,1840,400,0,0
623,624,0,0,0,0,0,0,0,0,0,-1,1847,400,0,0
630,624,0,0,0,0,0,0,0,0,0,-1,1854,400,0,0
637,624,0,0,0,0,0,0,0,0,0,-1,1861,400,0,0
644,624,0,0,0,0,0,0,0,0,0,-1,1868,400,0,0
651,624,0,0,0,0,0,0,0,0,0,-1,1875,400,0,0
658,624,0,0,0,0,0,0,0,0,0,-1,1882,400,0,0
665,624,0,0,0,0,0,0,0,0,0,-1,1889,400,0,0
672,624,0,0,0,0,0,0,0,0,0,-1,1896,400,0,0
679,624,0,0,0,0,0,0,0,0,0,-1,1903,400,0,0
686,624,0,0,0,0,0,0,0,0,0,-1,1910,400,0,0
693,624,0,0,0,0,0,0,0,0,0,-1,1917,400,0,0
700,624,0,0,0,0,0,0,0,0,0,-1,1924,400,0,0
707,624,0,0,0,0,0,0,0,0,0,-1,1931,400,0,0
714,624,0,0,0,0,0,0,0,0,0,-1,1938,400,0,0
721,624,0,0,0,0,0,0,0,0,0,-1,1945,400,0,0
728,624,0,0,0,0,0,0,0,0,0,-1,1952,400,0,0
735,624,0,0,0,0,0,0,0,0,0,-1,1959,400,0,0
742,624,0,0,0,0,0,0,0,0,0,-1,1966,400,0,0
749,624,0,0,0,0,0,0,0,0,0,-1,1973,400,0,0
756,624,0,0,0,0,0,0,0,0,0,-1,1980,400,0,0
763,624,0,0,0,0,0,0,0,0,0,-1,1987,400,0,0
770,624,0,0,0,0,0,0,0,0,0,-1,1994,400,0,0
777,624,0,0,0,0,0,0,0,0,0,-1,2001,400,0,0
784,624,0,0,0,0,0,0,0,0,0,-1,2008,400,0,0
791,624,0,0,0,0,0,0,0,0,0,-1,2015,400,0,0
798,624,0,0,0,0,0,0,0,0,0,-1,2022,400,0,0
805,624,0,0,0,0,0,0,0,0,0,-1,2029,400,0,0
812,624,0,0,0,0,0,0,0,0,0,-1,2036,400,0,0
-700,617,0,0,0,0,0,0,0,0,0,-1,524,407,0,0
-693,617,0,0,0,0,0,0,0,0,0,-1,531,407,0,0
-686,617,0,0,0,0,0,0,0,0,0,-1,538,407,0,0
-679,617,0,0,0,0,0,0,0,0,0,-1,545,407,0,0
-672,617,0,0,0,0,0,0,0,0,0,-1,552,407,0,0
-665,617,0,0,0,0,0,0,0,0,0,-1,559,407,0,0
-658,617,0,0,0,0,0,0,0,0,0,-1,566,407,0,0
-651,617,0,0,0,0,0,0,0,0,0,-1,573,407,0,0
-644,617,0,0,0,0,0,0,0,0,0,-1,580,407,0,0
-637,617,0,0,0,0,0,0,0,0,0,-1,587,407,0,0
-630,617,0,0,0,0,0,0,0,0,0,-1,594,407,0,0
-623,617,0,0,0,0,0,0,0,0,0,-1,601,407,0,0
-616,617,0,0,0,0,0,0,0,0,0,-1,608,407,0,0
-609,617,0,0,0,0,0,0,0,0,0,-1,615,407,0,0
-602,617,0,0,0,0,0,0,0,0,0,-1,622,407,0,0
-595,617,0,0,0,0,0,0,0,0,0,-1,629,407,0,0
-588,617,0,0,0,0,0,0,0,0,0,-1,636,407,0,0
-581,617,0,0,0,0,0,0,0,0,0,-1,643,407,0,0
-574,617,0,0,0,0,0,0,0,0,0,-1,650,407,0,0
-567,617,0,0,0,0,0,0,0,0,0,-1,657,407,0,0
-560,617,0,0,0,0,0,0,0,0,0,-1,664,407,0,0
-553,617,0,0,0,0,0,0,0,0,0,-1,671,407,0,0
-546,617,0,0,0,0,0,0,0,0,0,-1,678,407,0,0
-539,617,0,0,0,0,0,0,0,0,0,-1,685,407,0,0
-532,617,0,0,0,0,0,0,0,0,0,-1,692,407,0,0
-525,617,0,0,0,0,0,0,0,0,0,-1,699,407,0,0
-518,617,0,0,0,0,0,0,0,0,0,-1,706,407,0,0
-511,617,0,0,0,0,0,0,0,0,0,-1,713,407,0,0
-504,617,0,0,0,0,0,0,0,0,0,-1,720,407,0,0
-497,617,0,0,0,0,0,0,0,0,0,-1,727,407,0,0
-490,617,0,0,0,0,0,0,0,0,0,-1,734,407,0,0
-483,617,0,0,0,0,0,0,0,0,0,-1,741,407,0,0
-476,617,0,0,0,0,0,0,0,0,0,-1,748,407,0,0
-469,617,0,0,0,0,0,0,0,0,0,-1,755,407,0,0
-462,617,0,0,0,0,0,0,0,0,0,-1,762,407,0,0
-455,617,0,0,0,0,0,0,0,0,0,-1,769,407,0,0
-448,617,0,0,0,0,0,0,0,0,0,-1,776,407,0,0
-441,617,0,0,0,0,0,0,0,0,0,-1,783,407,0,0
-434,617,0,0,0,0,0,0,0,0,0,-1,790,407,0,0
-427,617,0,0,0,0,0,0,0,0,0,-1,797,407,0,0
-420,617,0,0,0,0,0,0,0,0,0,-1,804,407,0,0
-413,617,0,0,0,0,0,0,0,0,0,-1,811,407,0,0
-406,617,0,0,0,0,0,0,0,0,0,-1,818,407,0,0
-399,617,0,0,0,0,0,0,0,0,0,-1,825,407,0,0
-392,617,0,0,0,0,0,0,0,0,0,-1,832,407,0,0
-385,617,0,0,0,0,0,0,0,0,0,-1,839,407,0,0
-378,617,0,0,0,0,0,0,0,0,0,-1,846,407,0,0
-371,617,0,0,0,0,0,0,0,0,0,-1,853,407,0,0
-364,617,0,0,0,0,0,0,0,0,0,-1,860,407,0,0
-357,617,0,0,0,0,0,0,0,0,0,-1,867,407,0,0
-350,617,0,0,0,0,0,0,0,0,0,-1,874,407,0,0
-343,617,0,0,0,0,0,0,0,0,0,-1,881,407,0,0
-336,617,0,0,0,0,0,0,0,0,0,-1,888,407,0,0
-329,617,0,0,0,0,0,0,0,0,0,-1,895,407,0,0
-322,617,0,0,0,0,0,0,0,0,0,-1,902,407,0,0
-315,617,0,0,0,0,0,0,0,0,0,-1,909,407,0,0
-308,617,0,0,0,0,0,0,0,0,0,-1,916,407,0,0
-301,617,3.0321,-13.8866,0,0,0,0,0,0,0,-1,923,407,3.03209,13.8866
-294,617,-0.867493,-11.1655,0,0,0,0,0,0,0,-1,930,407,-0.867487,11.1655
-287,617,-0.212524,-10.7744,0,0,0,0,0,0,0,-1,937,407,-0.212541,10.7743
-280,617,2.19739,-11.6377,0,0,0,0,0,0,0,-1,944,407,2.19737,11.6377
-273,617,2.36188,-10.5736,0,0,0,0,0,0,0,-1,951,407,2.36188,10.5736
-266,617,1.75769,-13.3046,0,0,0,0,0,0,0,-1,958,407,1.75769,13.3046
-259,617,4.39972,-10.936,0,0,0,0,0,0,0,-1,965,407,4.39969,10.936
-252,617,2.45624,-12.7162,0,0,0,0,0,0,0,-1,972,407,2.45622,12.7162
-245,617,2.50116,-13.2844,-0.0336359,-0.000789651,-0.033648,0.0202293,-0.0546548,-1.01243,0.0447313,0.0438049,979,407,2.50118,13.2843
-238,617,2.43579,-13.7698,-0.0296915,7.50498e-05,-0.0293142,0.0180678,-0.0476842,-1.0203,0.0392246,0.0443852,986,407,2.43581,13.7698
-231,617,3.13422,-13.0979,0,0,0,0,0,0,0,-1,993,407,3.13424,13.0979
-224,617,3.04205,-13.279,-0.022139,0.00207094,-0.0194998,0.0129175,-0.0329856,-1.06318,0.0273333,0.0465095,1000,407,3.04205,13.279
-217,617,3.02264,-13.6118,-0.0183785,0.00296828,-0.0147524,0.0105035,-0.0259137,-1.09856,0.0216439,0.0361213,1007,407,3.02263,13.6119
-210,617,2.94348,-14.0377,-0.0146315,0.00317511,-0.0106244,0.00813352,-0.0195899,-1.13414,0.0164554,0.0246881,1014,407,2.94348,14.0377
-203,617,2.93567,-14.2555,-0.0113247,0.00326698,-0.00703397,0.00610553,-0.0141633,-1.18723,0.0120065,0.0194599,1021,407,2.93568,14.2555
-196,617,2.90491,-14.431,-0.00875055,0.00339066,-0.00429982,0.00475919,-0.0101191,-1.26266,0.0087738,0.0151164,1028,407,2.90491,14.431
-189,617,2.85413,-14.6534,-0.00514446,0.00350099,-0.00165961,0.00380863,-0.00545209,-1.38751,0.00537467,0.0126819,1035,407,2.85409,14.6533
-182,617,2.84167,-14.8444,-0.00200176,0.00340895,0.000739803,0.00350828,-0.00210109,1.43733,0.00327236,0.0135348,1042,407,2.84171,14.8444
-175,617,2.8374,-15.0286,-0.000922464,0.00201833,8.62578e-05,0.00202085,-0.000924992,1.5415,0.00173957,0.0115994,1049,407,2.83742,15.0286
-168,617,2.81738,-15.2286,0.00013517,0.000911645,-0.000250455,0.00098542,6.13944e-05,-1.28433,0.000637468,0.00988501,1056,407,2.81733,15.2286
-161,617,2.79077,-15.4168,0.000966859,9.16222e-05,-0.000585608,0.0012603,-0.000201818,-0.464516,0.000914922,0.0108477,1063,407,2.79075,15.4168
-154,617,2.77161,-15.5974,0.00173692,-0.000326622,-0.00092247,0.00208916,-0.000678868,-0.364763,0.00166583,0.0108478,1070,407,2.77164,15.5974
-147,617,2.76123,-15.7805,0.00229914,-0.000788898,-0.00105921,0.00262753,-0.00111729,-0.300636,0.0022199,0.0146799,1077,407,2.76121,15.7805
-140,617,2.77563,-15.9305,0.00270928,-0.00119556,-0.00101359,0.0029567,-0.00144298,-0.239422,0.00258979,0.0115011,1084,407,2.77565,15.9304
-133,617,2.76953,-16.0833,0.00283163,-0.00134646,-0.000931358,0.00302984,-0.00154467,-0.20969,0.00268709,0.0135981,1091,407,2.76953,16.0832
-126,617,2.75159,-16.2137,0.00283898,-0.00141668,-0.000819604,0.00299137,-0.00156907,-0.183834,0.00267531,0.0131545,1098,407,2.75159,16.2138
-119,617,2.73694,-16.3722,0.00273457,-0.0011632,-0.000674963,0.00284815,-0.00127677,-0.166702,0.00243844,0.0134185,1105,407,2.73692,16.3722
-112,617,2.73767,-16.5059,0.00245413,-0.000841708,-0.000541184,0.00254072,-0.000928296,-0.158654,0.0020737,0.0150414,1112,407,2.73763,16.5059
-105,617,2.73242,-16.6139,0.00209006,-0.000374175,-0.000516947,0.00219411,-0.000478227,-0.198627,0.00164548,0.0147955,1119,407,2.73241,16.6139
-98,617,2.73987,-16.7656,0.00174654,2.19155e-05,-0.000591987,0.00193019,-0.000161731,-0.300808,0.00134395,0.0124125,1126,407,2.73989,16.7656
-91,617,2.74072,-16.8809,0.00155348,0.000341319,-0.000735212,0.00190022,-5.42263e-06,-0.440688,0.00126863,0.017657,1133,407,2.74074,16.8809
-84,617,2.75281,-16.9872,0.00149955,0.000462274,-0.000804623,0.0019382,2.36231e-05,-0.499122,0.00128433,0.0172752,1140,407,2.75276,16.9872
-77,617,2.76147,-17.1134,0.00158054,0.000558405,-0.00086217,0.00207174,6.72126e-05,-0.517855,0.00135931,0.0128929,1147,407,2.76149,17.1134
-70,617,2.7865,-17.217,0.00181738,0.000370173,-0.000707736,0.00210595,8.16047e-05,-0.387156,0.00137757,0.0126063,1154,407,2.78649,17.217
-63,617,2.80762,-17.2989,0.00210583,4.38328e-05,-0.000449377,0.00219951,-4.98454e-05,-0.205519,0.00148323,0.0140964,1161,407,2.80764,17.2989
-56,617,2.81335,-17.4044,0.0023,-0.000181326,-8.51202e-05,0.00230292,-0.000184243,-0.0342506,0.00160023,0.0113325,1168,407,2.81331,17.4044
-49,617,2.79968,-17.4879,0.00243484,-0.00055332,0.000200054,0.00244817,-0.000566654,0.0665532,0.00185015,0.0101541,1175,407,2.7997,17.4879
-42,617,2.82056,-17.5694,0.00210842,-0.00197406,-3.18268e-05,0.00210866,-0.0019743,-0.00779534,0.00235773,0.0115425,1182,407,2.82058,17.5694
-35,617,2.86597,-17.6451,0.0018452,-0.00302043,-5.9193e-05,0.00184592,-0.00302115,-0.0121631,0.00283718,0.0159701,1189,407,2.86598,17.6451
-28,617,2.84058,-17.7316,0.00162719,-0.00426461,-6.97767e-05,0.00162802,-0.00426544,-0.0118408,0.00351432,0.0180534,1196,407,2.84058,17.7316
-21,617,2.85181,-17.777,0.00157137,-0.00505608,-1.09851e-05,0.00157138,-0.0050561,-0.00165751,0.0039988,0.0128701,1203,407,2.85186,17.777
-14,617,2.83423,-17.8202,0.0019677,-0.00600558,0.000237348,0.00197476,-0.00601264,0.0297329,0.00480393,0.0142646,1210,407,2.83427,17.8202
-7,617,2.8114,-17.8413,0.00300812,-0.00595321,0.000256001,0.00301543,-0.00596052,0.0285363,0.00527443,0.0165741,1217,407,2.81135,17.8413
0,617,2.8512,-17.8758,0.00713009,-0.00528857,-0.000141565,0.00713171,-0.00529018,-0.0113974,0.007198,0.0140516,1224,407,2.85115,17.8758
7,617,2.87122,-17.9608,0.0141702,0.00151155,-0.00500819,0.0159119,-0.000230206,-0.334697,0.0106855,0.0100547,1231,407,2.87128,17.9607
14,617,2.896,-18.0013,0.0223877,0.00344391,-0.00758499,0.0250505,0.000781191,-0.337611,0.0164461,0.0121182,1238,407,2.89594,18.0013
21,617,2.89893,-18.0225,0.0281663,0.00591111,-0.00983369,0.0318888,0.00218863,-0.361874,0.0205685,0.0120083,1245,407,2.89888,18.0225
28,617,2.93201,-18.0487,0.0337631,0.00792831,-0.0120619,0.0385191,0.00317232,-0.375582,0.02469,0.0112088,1252,407,2.93205,18.0487
35,617,2.94055,-18.0767,0.0386576,0.00926224,-0.0142515,0.0444325,0.00348735,-0.384993,0.0285304,0.0125867,1259,407,2.94054,18.0767
42,617,3.02136,-18.0699,0.0427299,0.00946337,-0.0153343,0.0487198,0.00347349,-0.372393,0.0313862,0.0179928,1266,407,3.02133,18.0699
49,617,3.03345,-18.0578,0.0452037,0.0104298,-0.0152097,0.0509174,0.00471609,-0.359352,0.0324872,0.0187283,1273,407,3.03348,18.0578
56,617,3.00696,-18.0526,0.0450055,0.00963174,-0.0146444,0.0502813,0.00435595,-0.345786,0.0321674,0.0137098,1280,407,3.00701,18.0527
63,617,3.03418,-18.0656,0.042825,0.00787853,-0.0132015,0.0472514,0.00345211,-0.323516,0.0304156,0.00987341,1287,407,3.03417,18.0656
70,617,3.02893,-18.0709,0.0384504,0.00520185,-0.0109556,0.0417357,0.00191655,-0.291342,0.0272075,0.0135029,1294,407,3.02898,18.0709
77,617,3.05737,-18.0216,0.0327622,0.00243662,-0.0082291,0.0348514,0.000347504,-0.248617,0.0231193,0.0121876,1301,407,3.05743,18.0216
84,617,3.06909,-17.9816,0.0255136,-0.000210494,-0.00539121,0.0265978,-0.00129468,-0.198455,0.0181788,0.0103464,1308,407,3.06909,17.9816
91,617,3.08936,-17.958,0.0178693,-0.00230146,-0.00292883,0.018286,-0.00271813,-0.141315,0.0131904,0.0100025,1315,407,3.08935,17.958
98,617,3.10596,-17.9398,0.0106397,-0.00433773,-0.000742615,0.0106764,-0.00437446,-0.0494207,0.00893994,0.0109336,1322,407,3.10591,17.9398
105,617,3.1272,-17.8999,0.00278968,-0.00598345,0.00109677,0.00292471,-0.00611848,0.122504,0.00532852,0.0121198,1329,407,3.12714,17.8999
112,617,3.1554,-17.834,-0.00452203,-0.0106888,0.00495944,-0.00176561,-0.0134452,0.507279,0.00843675,0.0161251,1336,407,3.15543,17.834
119,617,3.17871,-17.7452,-0.00956915,-0.00869293,0.00461247,-0.00449781,-0.0137643,0.832748,0.00810422,0.019489,1343,407,3.17875,17.7452
126,617,3.17664,-17.6691,-0.00977641,-0.00754112,0.003276,-0.00519737,-0.0121202,0.949788,0.00702118,0.0208787,1350,407,3.17665,17.6691
133,617,3.17932,-17.5923,-0.00986123,-0.00666271,0.00209711,-0.00562464,-0.0108993,1.11116,0.00629379,0.0178043,1357,407,3.17932,17.5922
140,617,3.21448,-17.5495,-0.00970833,-0.00612419,0.00123998,-0.00573702,-0.0100955,1.26815,0.00584672,0.0151297,1364,407,3.21445,17.5495
147,617,3.16626,-17.47,-0.00965925,-0.00578747,5.35746e-05,-0.00578673,-0.00965999,1.55696,0.00561355,0.0179384,1371,407,3.16624,17.47
154,617,3.22229,-17.3757,-0.00913476,-0.00717418,-0.00102053,-0.00673939,-0.00956955,-1.16804,0.00567657,0.0207093,1378,407,3.22228,17.3757
161,617,3.27515,-17.2769,-0.00750524,-0.0068013,-0.000962037,-0.00612887,-0.00817767,-0.960764,0.00491336,0.0216126,1385,407,3.27516,17.2769
168,617,3.2793,-17.2072,-0.00591618,-0.00574748,-0.000784066,-0.00504324,-0.00662042,-0.838983,0.0039931,0.0200356,1392,407,3.2793,17.2072
175,617,3.28381,-17.0998,-0.00454387,-0.0045557,-0.00103091,-0.00351886,-0.00558072,-0.782528,0.00325843,0.0166516,1399,407,3.28385,17.0998
182,617,3.29517,-16.9843,-0.00343073,-0.0036193,-0.00116782,-0.0023534,-0.00469663,-0.745118,0.0027116,0.0113564,1406,407,3.29519,16.9843
189,617,3.2782,-16.8476,-0.00206078,-0.00277311,-0.00132029,-0.00104946,-0.00378444,-0.653653,0.00225603,0.0117915,1413,407,3.27819,16.8476
196,617,3.28271,-16.7375,-0.000775269,-0.00167736,-0.00143299,0.000275986,-0.00272861,-0.632928,0.0019177,0.0155698,1420,407,3.28277,16.7375
203,617,3.29065,-16.6069,-0.000102743,-0.000431576,-0.00147304,0.00121503,-0.00174935,-0.72982,0.00172073,0.0152713,1427,407,3.29064,16.6069
210,617,3.28638,-16.4736,-0.000160468,0.0004867,-0.00124117,0.00144577,-0.00111954,-0.912914,0.00148507,0.0148231,1434,407,3.28639,16.4736
217,617,3.27734,-16.3064,-0.000556304,0.00109828,-0.000912751,0.00150287,-0.000960891,-1.15356,0.00143388,0.019975,1441,407,3.2774,16.3064
224,617,3.28748,-16.1724,-0.000676935,0.00143653,-0.000667369,0.00162963,-0.000870029,-1.28915,0.00146522,0.0196331,1448,407,3.28744,16.1724
231,617,3.31738,-16.0578,-0.00062788,0.00170734,-0.000318176,0.00174991,-0.000670455,-1.43778,0.00144298,0.014652,1455,407,3.31733,16.0578
238,617,3.30823,-15.914,-0.000486033,0.00205589,0.000105512,0.00206026,-0.000490406,1.52938,0.00156284,0.0142978,1462,407,3.30824,15.914
245,617,3.30518,-15.7594,-0.000384512,0.00227893,0.00046796,0.00235876,-0.000464339,1.40184,0.00174797,0.0125383,1469,407,3.30515,15.7594
252,617,3.30139,-15.553,-0.000204731,0.00257099,0.000827984,0.00279921,-0.000432951,1.30184,0.00202593,0.0143391,1476,407,3.30135,15.553
259,617,3.28088,-15.3541,-4.37063e-05,0.00282332,0.00119726,0.00325753,-0.000477917,1.22288,0.00234727,0.0121847,1483,407,3.28093,15.3541
266,617,3.2749,-15.1694,4.79632e-05,0.00278547,0.00160558,0.00352655,-0.000693109,1.13837,0.00261289,0.0144658,1490,407,3.27489,15.1694
273,617,3.27295,-14.9854,-1.46736e-05,0.00262099,0.00223987,0.00390195,-0.00129563,1.0513,0.00312405,0.0153529,1497,407,3.27299,14.9855
280,617,3.25708,-14.7953,0.000112012,0.00249128,0.00287197,0.00441025,-0.00180696,0.981751,0.00369291,0.0137054,1504,407,3.25706,14.7953
287,617,3.24329,-14.5962,0.000229151,0.00215085,0.00363978,0.00495447,-0.00257447,0.914447,0.00441864,0.012489,1511,407,3.24334,14.5962
294,617,3.22668,-14.3953,0.00026948,0.00179534,0.00436352,0.00546212,-0.0033973,0.871945,0.00516109,0.00991584,1518,407,3.22671,14.3953
301,617,3.21619,-14.2013,0.000371665,0.00135678,0.00522579,0.00611317,-0.00438473,0.832387,0.00608828,0.00746099,1525,407,3.21623,14.2013
308,617,3.2052,-13.9827,0.000444842,0.000764994,0.00614505,0.00675205,-0.00554221,0.79842,0.00710954,0.00764691,1532,407,3.20522,13.9827
315,617,3.19946,-13.7604,0.000508145,0.000203099,0.00712732,0.00748458,-0.00677333,0.7747,0.00823522,0.00927793,1539,407,3.1995,13.7604
322,617,3.18604,-13.5347,0.000517199,-0.000167081,0.00806565,0.00824796,-0.00789785,0.764201,0.00932252,0.0118331,1546,407,3.18603,13.5347
329,617,3.18604,-13.3136,0.000552168,-0.00049495,0.0089868,0.00903065,-0.00897343,0.756302,0.0103947,0.0117518,1553,407,3.18603,13.3136
336,617,3.21899,-13.0854,0.000440552,-0.000465167,0.00975722,0.00975541,-0.00978003,0.762208,0.0112788,0.0229886,1560,407,3.21895,13.0854
343,617,3.29724,-12.7743,0,0,0,0,0,0,0,-1,1567,407,3.29727,12.7743
350,617,2.88098,-10.0063,0,0,0,0,0,0,0,-1,1574,407,2.88098,10.0063
357,617,2.1748,-7.16504,0,0,0,0,0,0,0,-1,1581,407,2.1748,7.16505
364,617,2.30127,-7.60257,0,0,0,0,0,0,0,-1,1588,407,2.30125,7.60258
371,617,2.60266,-6.20667,0,0,0,0,0,0,0,-1,1595,407,2.60261,6.20668
378,617,1.56921,-10.3601,0,0,0,0,0,0,0,-1,1602,407,1.56918,10.3601
385,617,1.74146,-10.3561,0,0,0,0,0,0,0,-1,1609,407,1.7414,10.3561
392,617,1.91357,-10.3521,0,0,0,0,0,0,0,-1,1616,407,1.91362,10.3521
399,617,3.25,-2.14835,0,0,0,0,0,0,0,-1,1623,407,3.25006,2.14836
406,617,3.02429,-3.19577,0,0,0,0,0,0,0,-1,1630,407,3.02431,3.19577
413,617,2.92786,-3.80649,0,0,0,0,0,0,0,-1,1637,407,2.92788,3.8065
420,617,3.42737,-4.47391,0,0,0,0,0,0,0,-1,1644,407,3.42737,4.47391
427,617,0,0,0,0,0,0,0,0,0,-1,1651,407,0,0
434,617,0,0,0,0,0,0,0,0,0,-1,1658,407,0,0
441,617,0,0,0,0,0,0,0,0,0,-1,1665,407,0,0
448,617,0,0,0,0,0,0,0,0,0,-1,1672,407,0,0
455,617,0,0,0,0,0,0,0,0,0,-1,1679,407,0,0
462,617,0,0,0,0,0,0,0,0,0,-1,1686,407,0,0
469,617,0,0,0,0,0,0,0,0,0,-1,1693,407,0,0
476,617,0,0,0,0,0,0,0,0,0,-1,1700,407,0,0
483,617,0,0,0,0,0,0,0,0,0,-1,1707,407,0,0
490,617,0,0,0,0,0,0,0,0,0,-1,1714,407,0,0
497,617,0,0,0,0,0,0,0,0,0,-1,1721,407,0,0
504,617,0,0,0,0,0,0,0,0,0,-1,1728,407,0,0
511,617,0,0,0,0,0,0,0,0,0,-1,1735,407,0,0
518,617,0,0,0,0,0,0,0,0,0,-1,1742,407,0,0
525,617,0,0,0,0,0,0,0,0,0,-1,1749,407,0,0
532,617,0,0,0,0,0,0,0,0,0,-1,1756,407,0,0
539,617,0,0,0,0,0,0,0,0,0,-1,1763,407,0,0
546,617,0,0,0,0,0,0,0,0,0,-1,1770,407,0,0
553,617,0,0,0,0,0,0,0,0,0,-1,1777,407,0,0
560,617,0,0,0,0,0,0,0,0,0,-1,1784,407,0,0
567,617,0,0,0,0,0,0,0,0,0,-1,1791,407,0,0
574,617,0,0,0,0,0,0,0,0,0,-1,1798,407,0,0
581,617,0,0,0,0,0,0,0,0,0,-1,1805,407,0,0
588,617,0,0,0,0,0,0,0,0,0,-1,1812,407,0,0
595,617,0,0,0,0,0,0,0,0,0,-1,1819,407,0,0
602,617,0,0,0,0,0,0,0,0,0,-1,1826,407,0,0
609,617,0,0,0,0,0,0,0,0,0,-1,1833,407,0,0
616,617,0,0,0,0,0,0,0,0,0,-1,1840,407,0,0
623,617,0,0,0,0,0,0,0,0,0,-1,1847,407,0,0
630,617,0,0,0,0,0,0,0,0,0,-1,1854,407,0,0
637,617,0,0,0,0,0,0,0,0,0,-1,1861,407,0,0
644,617,0,0,0,0,0,0,0,0,0,-1,1868,407,0,0
651,617,0,0,0,0,0,0,0,0,0,-1,1875,407,0,0
658,617,0,0,0,0,0,0,0,0,0,-1,1882,407,0,0
665,617,0,0,0,0,0,0,0,0,0,-1,1889,407,0,0
672,617,0,0,0,0,0,0,0,0,0,-1,1896,407,0,0
679,617,0,0,0,0,0,0,0,0,0,-1,1903,407,0,0
686,617,0,0,0,0,0,0,0,0,0,-1,1910,407,0,0
693,617,0,0,0,0,0,0,0,0,0,-1,1917,407,0,0
700,617,0,0,0,0,0,0,0,0,0,-1,1924,407,0,0
707,617,0,0,0,0,0,0,0,0,0,-1,1931,407,0,0
714,617,0,0,0,0,0,0,0,0,0,-1,1938,407,0,0
721,617,0,0,0,0,0,0,0,0,0,-1,1945,407,0,0
728,617,0,0,0,0,0,0,0,0,0,-1,1952,407,0,0
735,617,0,0,0,0,0,0,0,0,0,-1,1959,407,0,0
742,617,0,0,0,0,0,0,0,0,0,-1,1966,407,0,0
749,617,0,0,0,0,0,0,0,0,0,-1,1973,407,0,0
756,617,0,0,0,0,0,0,0,0,0,-1,1980,407,0,0
763,617,0,0,0,0,0,0,0,0,0,-1,1987,407,0,0
770,617,0,0,0,0,0,0,0,0,0,-1,1994,407,0,0
777,617,0,0,0,0,0,0,0,0,0,-1,2001,407,0,0
784,617,0,0,0,0,0,0,0,0,0,-1,2008,407,0,0
791,617,0,0,0,0,0,0,0,0,0,-1,2015,407,0,0
798,617,0,0,0,0,0,0,0,0,0,-1,2022,407,0,0
805,617,0,0,0,0,0,0,0,0,0,-1,2029,407,0,0
812,617,0,0,0,0,0,0,0,0,0,-1,2036,407,0,0
-700,610,0,0,0,0,0,0,0,0,0,-1,524,414,0,0
-693,610,0,0,0,0,0,0,0,0,0,-1,531,414,0,0
-686,610,0,0,0,0,0,0,0,0,0,-1,538,414,0,0
-679,610,0,0,0,0,0,0,0,0,0,-1,545,414,0,0
-672,610,0,0,0,0,0,0,0,0,0,-1,552,414,0,0
-665,610,0,0,0,0,0,0,0,0,0,-1,559,414,0,0
-658,610,0,0,0,0,0,0,0,0,0,-1,566,414,0,0
-651,610,0,0,0,0,0,0,0,0,0,-1,573,414,0,0
-644,610,0,0,0,0,0,0,0,0,0,-1,580,414,0,0
-637,610,0,0,0,0,0,0,0,0,0,-1,587,414,0,0
-630,610,0,0,0,0,0,0,0,0,0,-1,594,414,0,0
-623,610,0,0,0,0,0,0,0,0,0,-1,601,414,0,0
-616,610,0,0,0,0,0,0,0,0,0,-1,608,414,0,0
-609,610,0,0,0,0,0,0,0,0,0,-1,615,414,0,0
-602,610,0,0,0,0,0,0,0,0,0,-1,622,414,0,0
-595,610,0,0,0,0,0,0,0,0,0,-1,629,414,0,0
-588,610,0,0,0,0,0,0,0,0,0,-1,636,414,0,0
-581,610,0,0,0,0,0,0,0,0,0,-1,643,414,0,0
-574,610,0,0,0,0,0,0,0,0,0,-1,650,414,0,0
-567,610,0,0,0,0,0,0,0,0,0,-1,657,414,0,0
-560,610,0,0,0,0,0,0,0,0,0,-1,664,414,0,0
-553,610,0,0,0,0,0,0,0,0,0,-1,671,414,0,0
-546,610,0,0,0,0,0,0,0,0,0,-1,678,414,0,0
-539,610,0,0,0,0,0,0,0,0,0,-1,685,414,0,0
-532,610,0,0,0,0,0,0,0,0,0,-1,692,414,0,0
-525,610,0,0,0,0,0,0,0,0,0,-1,699,414,0,0
-518,610,0,0,0,0,0,0,0,0,0,-1,706,414,0,0
-511,610,0,0,0,0,0,0,0,0,0,-1,713,414,0,0
-504,610,0,0,0,0,0,0,0,0,0,-1,720,414,0,0
-497,610,0,0,0,0,0,0,0,0,0,-1,727,414,0,0
-490,610,0,0,0,0,0,0,0,0,0,-1,734,414,0,0
-483,610,0,0,0,0,0,0,0,0,0,-1,741,414,0,0
-476,610,0,0,0,0,0,0,0,0,0,-1,748,414,0,0
-469,610,0,0,0,0,0,0,0,0,0,-1,755,414,0,0
-462,610,0,0,0,0,0,0,0,0,0,-1,762,414,0,0
-455,610,0,0,0,0,0,0,0,0,0,-1,769,414,0,0
-448,610,0,0,0,0,0,0,0,0,0,-1,776,414,0,0
-441,610,0,0,0,0,0,0,0,0,0,-1,783,414,0,0
-434,610,0,0,0,0,0,0,0,0,0,-1,790,414,0,0
-427,610,0,0,0,0,0,0,0,0,0,-1,797,414,0,0
-420,610,0,0,0,0,0,0,0,0,0,-1,804,414,0,0
-413,610,0,0,0,0,0,0,0,0,0,-1,811,414,0,0
-406,610,0,0,0,0,0,0,0,0,0,-1,818,414,0,0
-399,610,0,0,0,0,0,0,0,0,0,-1,825,414,0,0
-392,610,0,0,0,0,0,0,0,0,0,-1,832,414,0,0
-385,610,0,0,0,0,0,0,0,0,0,-1,839,414,0,0
-378,610,0,0,0,0,0,0,0,0,0,-1,846,414,0,0
-371,610,0,0,0,0,0,0,0,0,0,-1,853,414,0,0
-364,610,0,0,0,0,0,0,0,0,0,-1,860,414,0,0
-357,610,0,0,0,0,0,0,0,0,0,-1,867,414,0,0
-350,610,0,0,0,0,0,0,0,0,0,-1,874,414,0,0
-343,610,0,0,0,0,0,0,0,0,0,-1,881,414,0,0
-336,610,0,0,0,0,0,0,0,0,0,-1,888,414,0,0
-329,610,0,0,0,0,0,0,0,0,0,-1,895,414,0,0
-322,610,0,0,0,0,0,0,0,0,0,-1,902,414,0,0
-315,610,1.74609,-13.6603,0,0,0,0,0,0,0,-1,909,414,1.74607,13.6603
-308,610,2.05853,-13.3974,0,0,0,0,0,0,0,-1,916,414,2.05856,13.3974
-301,610,2.2345,-13.0041,0,0,0,0,0,0,0,-1,923,414,2.2345,13.0041
-294,610,2.37964,-12.4347,0,0,0,0,0,0,0,-1,930,414,2.37964,12.4347
-287,610,2.08557,-11.9136,0,0,0,0,0,0,0,-1,937,414,2.08555,11.9136
-280,610,2.25854,-11.0924,0,0,0,0,0,0,0,-1,944,414,2.25856,11.0924
-273,610,0.750854,-12.2343,0,0,0,0,0,0,0,-1,951,414,0.750827,12.2343
-266,610,3.43835,-11.2487,0,0,0,0,0,0,0,-1,958,414,3.43834,11.2487
-259,610,2.59949,-12.2763,0,0,0,0,0,0,0,-1,965,414,2.59952,12.2763
-252,610,2.94916,-13.1627,0,0,0,0,0,0,0,-1,972,414,2.94917,13.1627
-245,610,2.61761,-13.1833,-0.0223118,-0.000671405,-0.0239616,0.0147998,-0.037783,-0.997475,0.0313104,0.0431874,979,414,2.61762,13.1832
-238,610,2.6933,-13.3586,-0.0195391,4.53682e-05,-0.0207528,0.0132002,-0.0326939,-1.00584,0.0272821,0.0389698,986,414,2.69331,13.3586
-231,610,2.8996,-13.1058,-0.0168763,0.00083024,-0.0171548,0.0112816,-0.0273277,-1.02361,0.0229238,0.0353759,993,414,2.89962,13.1058
-224,610,2.73486,-13.5552,-0.0143422,0.00160383,-0.0135336,0.00933836,-0.0220767,-1.05159,0.0186279,0.0252615,1000,414,2.73486,13.5552
-217,610,2.72882,-13.8343,-0.0118313,0.00232517,-0.0100865,0.00756925,-0.0170754,-1.09135,0.0145772,0.0158141,1007,414,2.72885,13.8343
-210,610,2.73157,-14.0562,-0.00943329,0.00250711,-0.00715807,0.00585792,-0.0127841,-1.13298,0.0110078,0.0105724,1014,414,2.73155,14.0562
-203,610,2.72473,-14.2599,-0.00736128,0.00264704,-0.00464314,0.00446933,-0.00918356,-1.1968,0.00803761,0.0126966,1021,414,2.72471,14.2599
-196,610,2.70337,-14.4607,-0.005736,0.00280335,-0.00278937,0.00363375,-0.0065664,-1.28145,0.00596964,0.0128544,1028,414,2.7034,14.4607
-189,610,2.68628,-14.686,-0.00354264,0.00291323,-0.000944472,0.00304857,-0.00367798,-1.42847,0.00388924,0.0108303,1035,414,2.68626,14.686
-182,610,2.67969,-14.8726,-0.00169863,0.00282848,0.000571353,0.00289947,-0.00176963,1.44717,0.00272189,0.0112575,1042,414,2.67967,14.8726
-175,610,2.65686,-15.0408,-0.000986646,0.00172186,6.27664e-05,0.00172331,-0.000988099,1.54764,0.0015845,0.0112488,1049,414,2.65688,15.0408
-168,610,2.63269,-15.2232,-0.000291742,0.00083037,-0.000270286,0.000892081,-0.000353453,-1.34633,0.000741184,0.0115133,1056,414,2.63272,15.2232
-161,610,2.61621,-15.4314,0.000310575,0.000154821,-0.000560897,0.000798975,-0.000333579,-0.716417,0.000672031,0.011651,1063,414,2.61624,15.4314
-154,610,2.6134,-15.6124,0.00088963,-0.000217051,-0.000848261,0.00134907,-0.000676495,-0.496395,0.00119076,0.0139252,1070,414,2.61342,15.6124
-147,610,2.61975,-15.769,0.00133535,-0.000646706,-0.000974534,0.00173423,-0.00104559,-0.388504,0.00162126,0.0152774,1077,414,2.61974,15.769
-140,610,2.6156,-15.9255,0.00167896,-0.00105014,-0.00096173,0.00198382,-0.00135499,-0.306969,0.00193903,0.0115772,1084,414,2.61558,15.9255
-133,610,2.61255,-16.0738,0.00183847,-0.00122467,-0.000909894,0.00208836,-0.00147457,-0.268032,0.00206721,0.0122521,1091,414,2.61259,16.0738
-126,610,2.59546,-16.2109,0.00193916,-0.00135272,-0.000822257,0.00213311,-0.00154667,-0.231651,0.0021335,0.0115466,1098,414,2.59543,16.2109
-119,610,2.61169,-16.3704,0.002002,-0.00120431,-0.000735979,0.00216286,-0.00136518,-0.21519,0.0020542,0.01083,1105,414,2.6117,16.3704
-112,610,2.62512,-16.5117,0.0019709,-0.00100559,-0.000653388,0.00210801,-0.0011427,-0.206848,0.00190418,0.0185291,1112,414,2.62508,16.5117
-105,610,2.61316,-16.623,0.00190265,-0.000679539,-0.000666765,0.00206466,-0.000841545,-0.238354,0.00172672,0.0173775,1119,414,2.61318,16.6231
-98,610,2.61438,-16.7587,0.0018775,-0.000422916,-0.000738628,0.00209424,-0.000639657,-0.285426,0.00165121,0.0119254,1126,414,2.61438,16.7587
-91,610,2.62695,-16.8841,0.0019961,-0.000198876,-0.000911631,0.00232534,-0.000528114,-0.346576,0.00175299,0.0132442,1133,414,2.62693,16.8841
-84,610,2.63855,-17,0.00231289,-0.000157058,-0.00112229,0.00274665,-0.000590823,-0.368815,0.00205653,0.014851,1140,414,2.63861,17
-77,610,2.65564,-17.1295,0.00272006,-6.5759e-05,-0.0011879,0.0031578,-0.000503505,-0.353064,0.00229155,0.0114176,1147,414,2.65568,17.1296
-70,610,2.67542,-17.2178,0.00313603,-0.000323988,-0.000924905,0.00336775,-0.000555708,-0.245481,0.00245149,0.0126552,1154,414,2.67544,17.2178
-63,610,2.69031,-17.3052,0.00349432,-0.000720777,-0.00053375,0.00356086,-0.000787314,-0.12402,0.00267525,0.0124245,1161,414,2.69033,17.3052
-56,610,2.72351,-17.4025,0.00368964,-0.000772727,5.82338e-05,0.0036904,-0.000773487,0.013047,0.00275454,0.0107341,1168,414,2.72351,17.4025
-49,610,2.71692,-17.4659,0.0037971,-0.00108161,0.000481061,0.00384409,-0.00112859,0.0973549,0.00301029,0.0115378,1175,414,2.71695,17.4659
-42,610,2.72571,-17.5526,0.00322106,-0.00329591,0.000173507,0.00322567,-0.00330053,0.0265987,0.00376799,0.0148094,1182,414,2.7257,17.5526
-35,610,2.7312,-17.6463,0.00287501,-0.00482771,0.000363058,0.00289208,-0.00484479,0.0469948,0.00451406,0.0143815,1189,414,2.73121,17.6463
-28,610,2.73962,-17.731,0.00262584,-0.00669216,0.000653327,0.00267143,-0.00673774,0.0696603,0.00559893,0.0119328,1196,414,2.73962,17.7311
-21,610,2.76685,-17.7795,0.00263632,-0.00777327,0.00086803,0.00270821,-0.00784516,0.0826271,0.00632902,0.0102625,1203,414,2.76689,17.7795
-14,610,2.77747,-17.8209,0.00323649,-0.00901981,0.00127988,0.00336872,-0.00915203,0.102946,0.00748149,0.0117001,1210,414,2.77743,17.8209
-7,610,2.79321,-17.8438,0.00470638,-0.00876327,0.00131659,0.00483386,-0.00889075,0.0965278,0.00803847,0.0129361,1217,414,2.79319,17.8438
0,610,2.81763,-17.8952,0.010512,-0.00768634,0.000748579,0.0105427,-0.00771708,0.041042,0.0105843,0.0100519,1224,414,2.81759,17.8952
7,610,2.84509,-17.946,0.019885,0.00133672,-0.00577845,0.0215379,-0.000316173,-0.278605,0.0144652,0.0101642,1231,414,2.84515,17.946
14,610,2.87573,-17.9672,0.0303076,0.00371307,-0.00913276,0.0331419,0.000878863,-0.300911,0.0218075,0.0125368,1238,414,2.87577,17.9672
21,610,2.88647,-17.987,0.0376203,0.00662092,-0.0121657,0.0418246,0.00241667,-0.332733,0.0271134,0.0119944,1245,414,2.88645,17.987
28,610,2.90466,-18.021,0.0444464,0.00889055,-0.0151981,0.0500573,0.00327967,-0.353661,0.0323338,0.0126099,1252,414,2.90471,18.021
35,610,2.96289,-18.0354,0.0501211,0.010149,-0.0180993,0.0570985,0.00317156,-0.36795,0.0370537,0.01558,1259,414,2.96292,18.0354
42,610,2.98962,-18.0261,0.0545259,0.00981663,-0.0195201,0.0618489,0.00249361,-0.358905,0.040427,0.0141798,1266,414,2.98962,18.0261
49,610,3.01355,-18.048,0.0567199,0.0103369,-0.0193505,0.0637325,0.00332433,-0.347678,0.0414247,0.0145794,1273,414,3.0136,18.048
56,610,3.04651,-18.0596,0.0555083,0.00869142,-0.0185631,0.0619754,0.00222437,-0.335232,0.0405958,0.0133509,1280,414,3.04649,18.0596
63,610,3.03552,-18.0177,0.0516351,0.00588567,-0.0166294,0.0570409,0.000479834,-0.314301,0.0378684,0.0163774,1287,414,3.03548,18.0177
70,610,3.07922,-17.9703,0.0450029,0.00198417,-0.0136756,0.0489823,-0.00199517,-0.283163,0.0333398,0.0227711,1294,414,3.07916,17.9703
77,610,3.10413,-17.9432,0.0366954,-0.0019285,-0.0100914,0.0391731,-0.00440616,-0.24076,0.0277012,0.0269008,1301,414,3.10415,17.9432
84,610,3.0874,-17.9406,0.0267742,-0.00545306,-0.00629886,0.0279616,-0.00664043,-0.18632,0.021204,0.0282306,1308,414,3.08743,17.9405
91,610,3.12671,-17.9565,0.0168314,-0.008001,-0.00308474,0.0172089,-0.00837846,-0.121757,0.0150632,0.0240913,1315,414,3.12676,17.9565
98,610,3.20435,-17.9244,0.00762102,-0.010363,-0.000371953,0.00762871,-0.0103707,-0.0206706,0.0104321,0.0221827,1322,414,3.20433,17.9244
105,610,3.2179,-17.8808,-0.00228476,-0.012108,0.00184274,-0.00195046,-0.0124423,0.179464,0.00772722,0.0176318,1329,414,3.21788,17.8808
112,610,3.18848,-17.8141,-0.0113016,-0.0174157,0.00654746,-0.00713266,-0.0215846,0.566986,0.0126985,0.0132443,1336,414,3.18846,17.814
119,610,3.19153,-17.7573,-0.0174367,-0.0145289,0.00605791,-0.00975283,-0.0222127,0.90317,0.0128562,0.0186135,1343,414,3.19158,17.7573
126,610,3.24207,-17.6999,-0.0177449,-0.0126349,0.00440677,-0.010096,-0.0202838,1.04811,0.0117109,0.0250277,1350,414,3.24209,17.6999
133,610,3.2666,-17.6076,-0.0178158,-0.0112107,0.0029319,-0.010097,-0.0189294,1.20779,0.010937,0.0195176,1357,414,3.26665,17.6076
140,610,3.30066,-17.5543,-0.0175229,-0.0102628,0.00176112,-0.00985815,-0.0179275,1.34495,0.0103676,0.0152392,1364,414,3.30065,17.5543
147,610,3.255,-17.4688,-0.0173921,-0.00963128,0.000135633,-0.00962891,-0.0173945,1.55333,0.0100619,0.0161772,1371,414,3.25506,17.4688
154,610,3.27917,-17.3625,-0.0166807,-0.0113417,-0.00136082,-0.0110148,-0.0170076,-1.33508,0.00996099,0.0207066,1378,414,3.27913,17.3625
161,610,3.34985,-17.273,-0.0144441,-0.0109794,-0.00136676,-0.0105052,-0.0149184,-1.23681,0.00884927,0.025089,1385,414,3.34986,17.273
168,610,3.39197,-17.1873,-0.0119901,-0.00959668,-0.00124206,-0.00906862,-0.0125181,-1.1688,0.00746611,0.0258343,1392,414,3.39195,17.1873
175,610,3.40515,-17.0981,-0.00967272,-0.0078786,-0.00163836,-0.00690779,-0.0106435,-1.03587,0.00623535,0.0207817,1399,414,3.40515,17.0981
182,610,3.43018,-16.9925,-0.00763066,-0.00655351,-0.0018268,-0.00518754,-0.00899662,-0.928747,0.00521449,0.0146236,1406,414,3.43013,16.9925
189,610,3.41809,-16.8395,-0.00516557,-0.00533152,-0.00216501,-0.00308194,-0.00741515,-0.766245,0.00430141,0.0139389,1413,414,3.41809,16.8395
196,610,3.40771,-16.7304,-0.00267776,-0.00362787,-0.00245238,-0.000654844,-0.00565079,-0.689727,0.00356899,0.0142436,1420,414,3.40767,16.7304
203,610,3.39124,-16.6151,-0.00082518,-0.0014354,-0.00262476,0.00151215,-0.00377272,-0.727537,0.00314289,0.0150569,1427,414,3.39127,16.6151
210,610,3.41589,-16.4796,-0.000231393,0.000145865,-0.00230773,0.00227266,-0.00235819,-0.826176,0.00267378,0.0113468,1434,414,3.41591,16.4796
217,610,3.42505,-16.3092,-0.000791154,0.00101638,-0.0018607,0.00218119,-0.00195597,-1.01147,0.00238977,0.0174113,1441,414,3.42508,16.3092
224,610,3.43359,-16.1837,-0.000926531,0.00142279,-0.00154956,0.0021926,-0.00169634,-1.10972,0.00225137,0.0208721,1448,414,3.43361,16.1837
231,610,3.45227,-16.0605,-0.000882344,0.00176187,-0.00112154,0.0021735,-0.00129397,-1.21904,0.00202329,0.0154722,1455,414,3.45222,16.0605
238,610,3.4679,-15.8987,-0.000669399,0.00205496,-0.000659307,0.00220612,-0.000820567,-1.34541,0.00180746,0.0105936,1462,414,3.46787,15.8988
245,610,3.46057,-15.7408,-0.000446068,0.00227083,-0.000236625,0.00229129,-0.000466522,-1.48457,0.00170445,0.0120553,1469,414,3.46063,15.7409
252,610,3.46497,-15.5467,-0.000194619,0.00248597,0.000167621,0.00249641,-0.00020506,1.50859,0.00173667,0.0143087,1476,414,3.46497,15.5467
259,610,3.46387,-15.3491,-7.49532e-07,0.00261521,0.000557263,0.00272898,-0.000114512,1.36942,0.00185866,0.0131166,1483,414,3.46383,15.3491
266,610,3.45178,-15.158,0.000131748,0.00254709,0.000940195,0.00286992,-0.000191084,1.24004,0.00198005,0.0133122,1490,414,3.45174,15.158
273,610,3.44177,-14.9885,0.000164997,0.00239758,0.00141053,0.0030801,-0.000517519,1.12013,0.00224587,0.0104116,1497,414,3.44174,14.9885
280,610,3.44189,-14.7953,0.000338667,0.00224331,0.00196489,0.0034745,-0.000892523,1.01105,0.00266415,0.0099257,1504,414,3.4419,14.7953
287,610,3.43176,-14.5756,0.000470569,0.0019874,0.00254277,0.00388245,-0.00142448,0.93033,0.00317161,0.0127955,1511,414,3.43173,14.5756
294,610,3.42847,-14.3856,0.000507352,0.00171922,0.00306886,0.0042414,-0.00201482,0.882868,0.00368749,0.0105794,1518,414,3.42852,14.3856
301,610,3.44275,-14.2103,0.000571409,0.00136368,0.00368761,0.00467637,-0.00274129,0.838904,0.00433089,0.00968891,1525,414,3.44275,14.2103
308,610,3.45337,-13.9946,0.000635175,0.000971136,0.00436151,0.0051679,-0.00356159,0.804646,0.00506834,0.011486,1532,414,3.45341,13.9946
315,610,3.41626,-13.7866,0.000679834,0.000653628,0.00507277,0.00573952,-0.00440606,0.784107,0.0058744,0.0124387,1539,414,3.41631,13.7866
322,610,3.39246,-13.5726,0.000650975,0.000524766,0.00573834,0.00632656,-0.00515082,0.7799,0.00663804,0.0122362,1546,414,3.39241,13.5726
329,610,3.36829,-13.3226,0.000636919,0.000434896,0.0063878,0.0069245,-0.00585269,0.777492,0.00738556,0.0112007,1553,414,3.36824,13.3226
336,610,3.37366,-13.0693,0.000502974,0.000629035,0.006912,0.00747829,-0.00634628,0.789958,0.00799054,0.010433,1560,414,3.37367,13.0693
343,610,3.37195,-12.8334,0.000349869,0.000786943,0.00726316,0.00783485,-0.00669804,0.800438,0.00839912,0.0223314,1567,414,3.37197,12.8334
350,610,3.39099,-12.5853,0,0,0,0,0,0,0,-1,1574,414,3.39103,12.5853
357,610,3.43823,-12.1157,0,0,0,0,0,0,0,-1,1581,414,3.43823,12.1157
364,610,3.53662,-11.9385,0,0,0,0,0,0,0,-1,1588,414,3.53664,11.9385
371,610,3.28967,-11.5148,0,0,0,0,0,0,0,-1,1595,414,3.28969,11.5148
378,610,3.44189,-11.2237,0,0,0,0,0,0,0,-1,1602,414,3.4419,11.2237
385,610,2.57104,-10.3878,0,0,0,0,0,0,0,-1,1609,414,2.57109,10.3878
392,610,2.35229,-10.3207,0,0,0,0,0,0,0,-1,1616,414,2.35227,10.3207
399,610,3.03833,-2.82547,0,0,0,0,0,0,0,-1,1623,414,3.03827,2.82546
406,610,2.91687,-2.9166,0,0,0,0,0,0,0,-1,1630,414,2.91688,2.91659
413,610,3.01929,-3.20306,0,0,0,0,0,0,0,-1,1637,414,3.01929,3.20306
420,610,4.78149,-3.64041,0,0,0,0,0,0,0,-1,1644,414,4.78152,3.64042
427,610,5.20764,-4.67545,0,0,0,0,0,0,0,-1,1651,414,5.20759,4.67545
434,610,5.39233,-5.45441,0,0,0,0,0,0,0,-1,1658,414,5.39228,5.4544
441,610,0,0,0,0,0,0,0,0,0,-1,1665,414,0,0
448,610,0,0,0,0,0,0,0,0,0,-1,1672,414,0,0
455,610,0,0,0,0,0,0,0,0,0,-1,1679,414,0,0
462,610,0,0,0,0,0,0,0,0,0,-1,1686,414,0,0
469,610,0,0,0,0,0,0,0,0,0,-1,1693,414,0,0
476,610,0,0,0,0,0,0,0,0,0,-1,1700,414,0,0
483,610,0,0,0,0,0,0,0,0,0,-1,1707,414,0,0
490,610,0,0,0,0,0,0,0,0,0,-1,1714,414,0,0
497,610,0,0,0,0,0,0,0,0,0,-1,1721,414,0,0
504,610,0,0,0,0,0,0,0,0,0,-1,1728,414,0,0
511,610,0,0,0,0,0,0,0,0,0,-1,1735,414,0,0
518,610,0,0,0,0,0,0,0,0,0,-1,1742,414,0,0
525,610,0,0,0,0,0,0,0,0,0,-1,1749,414,0,0
532,610,0,0,0,0,0,0,0,0,0,-1,1756,414,0,0
539,610,0,0,0,0,0,0,0,0,0,-1,1763,414,0,0
546,610,0,0,0,0,0,0,0,0,0,-1,1770,414,0,0
553,610,0,0,0,0,0,0,0,0,0,-1,1777,414,0,0
560,610,0,0,0,0,0,0,0,0,0,-1,1784,414,0,0
567,610,0,0,0,0,0,0,0,0,0,-1,1791,414,0,0
574,610,0,0,0,0,0,0,0,0,0,-1,1798,414,0,0
581,610,0,0,0,0,0,0,0,0,0,-1,1805,414,0,0
588,610,0,0,0,0,0,0,0,0,0,-1,1812,414,0,0
595,610,0,0,0,0,0,0,0,0,0,-1,1819,414,0,0
602,610,0,0,0,0,0,0,0,0,0,-1,1826,414,0,0
609,610,0,0,0,0,0,0,0,0,0,-1,1833,414,0,0
616,610,0,0,0,0,0,0,0,0,0,-1,1840,414,0,0
623,610,0,0,0,0,0,0,0,0,0,-1,1847,414,0,0
630,610,0,0,0,0,0,0,0,0,0,-1,1854,414,0,0
637,610,0,0,0,0,0,0,0,0,0,-1,1861,414,0,0
644,610,0,0,0,0,0,0,0,0,0,-1,1868,414,0,0
651,610,0,0,0,0,0,0,0,0,0,-1,1875,414,0,0
658,610,0,0,0,0,0,0,0,0,0,-1,1882,414,0,0
665,610,0,0,0,0,0,0,0,0,0,-1,1889,414,0,0
672,610,0,0,0,0,0,0,0,0,0,-1,1896,414,0,0
679,610,0,0,0,0,0,0,0,0,0,-1,1903,414,0,0
686,610,0,0,0,0,0,0,0,0,0,-1,1910,414,0,0
693,610,0,0,0,0,0,0,0,0,0,-1,1917,414,0,0
700,610,0,0,0,0,0,0,0,0,0,-1,1924,414,0,0
707,610,0,0,0,0,0,0,0,0,0,-1,1931,414,0,0
714,610,0,0,0,0,0,0,0,0,0,-1,1938,414,0,0
721,610,0,0,0,0,0,0,0,0,0,-1,1945,414,0,0
728,610,0,0,0,0,0,0,0,0,0,-1,1952,414,0,0
735,610,0,0,0,0,0,0,0,0,0,-1,1959,414,0,0
742,610,0,0,0,0,0,0,0,0,0,-1,1966,414,0,0
749,610,0,0,0,0,0,0,0,0,0,-1,1973,414,0,0
756,610,0,0,0,0,0,0,0,0,0,-1,1980,414,0,0
763,610,0,0,0,0,0,0,0,0,0,-1,1987,414,0,0
770,610,0,0,0,0,0,0,0,0,0,-1,1994,414,0,0
777,610,0,0,0,0,0,0,0,0,0,-1,2001,414,0,0
784,610,0,0,0,0,0,0,0,0,0,-1,2008,414,0,0
791,610,0,0,0,0,0,0,0,0,0,-1,2015,414,0,0
798,610,0,0,0,0,0,0,0,0,0,-1,2022,414,0,0
805,610,0,0,0,0,0,0,0,0,0,-1,2029,414,0,0
812,610,0,0,0,0,0,0,0,0,0,-1,2036,414,0,0
-700,603,0,0,0,0,0,0,0,0,0,-1,524,421,0,0
-693,603,0,0,0,0,0,0,0,0,0,-1,531,421,0,0
-686,603,0,0,0,0,0,0,0,0,0,-1,538,421,0,0
-679,603,0,0,0,0,0,0,0,0,0,-1,545,421,0,0
-672,603,0,0,0,0,0,0,0,0,0,-1,552,421,0,0
-665,603,0,0,0,0,0,0,0,0,0,-1,559,421,0,0
-658,603,0,0,0,0,0,0,0,0,0,-1,566,421,0,0
-651,603,0,0,0,0,0,0,0,0,0,-1,573,421,0,0
-644,603,0,0,0,0,0,0,0,0,0,-1,580,421,0,0
-637,603,0,0,0,0,0,0,0,0,0,-1,587,421,0,0
-630,603,0,0,0,0,0,0,0,0,0,-1,594,421,0,0
-623,603,0,0,0,0,0,0,0,0,0,-1,601,421,0,0
-616,603,0,0,0,0,0,0,0,0,0,-1,608,421,0,0
-609,603,0,0,0,0,0,0,0,0,0,-1,615,421,0,0
-602,603,0,0,0,0,0,0,0,0,0,-1,622,421,0,0
-595,603,0,0,0,0,0,0,0,0,0,-1,629,421,0,0
-588,603,0,0,0,0,0,0,0,0,0,-1,636,421,0,0
-581,603,0,0,0,0,0,0,0,0,0,-1,643,421,0,0
-574,603,0,0,0,0,0,0,0,0,0,-1,650,421,0,0
-567,603,0,0,0,0,0,0,0,0,0,-1,657,421,0,0
-560,603,0,0,0,0,0,0,0,0,0,-1,664,421,0,0
-553,603,0,0,0,0,0,0,0,0,0,-1,671,421,0,0
-546,603,0,0,0,0,0,0,0,0,0,-1,678,421,0,0
-539,603,0,0,0,0,0,0,0,0,0,-1,685,421,0,0
-532,603,0,0,0,0,0,0,0,0,0,-1,692,421,0,0
-525,603,0,0,0,0,0,0,0,0,0,-1,699,421,0,0
-518,603,0,0,0,0,0,0,0,0,0,-1,706,421,0,0
-511,603,0,0,0,0,0,0,0,0,0,-1,713,421,0,0
-504,603,0,0,0,0,0,0,0,0,0,-1,720,421,0,0
-497,603,0,0,0,0,0,0,0,0,0,-1,727,421,0,0
-490,603,0,0,0,0,0,0,0,0,0,-1,734,421,0,0
-483,603,0,0,0,0,0,0,0,0,0,-1,741,421,0,0
-476,603,0,0,0,0,0,0,0,0,0,-1,748,421,0,0
-469,603,0,0,0,0,0,0,0,0,0,-1,755,421,0,0
-462,603,0,0,0,0,0,0,0,0,0,-1,762,421,0,0
-455,603,0,0,0,0,0,0,0,0,0,-1,769,421,0,0
-448,603,0,0,0,0,0,0,0,0,0,-1,776,421,0,0
-441,603,0,0,0,0,0,0,0,0,0,-1,783,421,0,0
-434,603,0,0,0,0,0,0,0,0,0,-1,790,421,0,0
-427,603,0,0,0,0,0,0,0,0,0,-1,797,421,0,0
-420,603,0,0,0,0,0,0,0,0,0,-1,804,421,0,0
-413,603,0,0,0,0,0,0,0,0,0,-1,811,421,0,0
-406,603,0,0,0,0,0,0,0,0,0,-1,818,421,0,0
-399,603,0,0,0,0,0,0,0,0,0,-1,825,421,0,0
-392,603,0,0,0,0,0,0,0,0,0,-1,832,421,0,0
-385,603,0,0,0,0,0,0,0,0,0,-1,839,421,0,0
-378,603,0,0,0,0,0,0,0,0,0,-1,846,421,0,0
-371,603,0,0,0,0,0,0,0,0,0,-1,853,421,0,0
-364,603,0,0,0,0,0,0,0,0,0,-1,860,421,0,0
-357,603,0,0,0,0,0,0,0,0,0,-1,867,421,0,0
-350,603,0,0,0,0,0,0,0,0,0,-1,874,421,0,0
-343,603,0,0,0,0,0,0,0,0,0,-1,881,421,0,0
-336,603,0,0,0,0,0,0,0,0,0,-1,888,421,0,0
-329,603,4.6095,-8.85309,0,0,0,0,0,0,0,-1,895,421,4.60952,8.8531
-322,603,0.71051,-13.0377,0,0,0,0,0,0,0,-1,902,421,0.710527,13.0377
-315,603,0.859131,-12.5952,0,0,0,0,0,0,0,-1,909,421,0.85915,12.5952
-308,603,1.1261,-12.3507,0,0,0,0,0,0,0,-1,916,421,1.12607,12.3507
-301,603,1.61816,-10.6029,0,0,0,0,0,0,0,-1,923,421,1.61814,10.6029
-294,603,1.34601,-10.8072,0,0,0,0,0,0,0,-1,930,421,1.34599,10.8072
-287,603,3.80811,-9.60947,0,0,0,0,0,0,0,-1,937,421,3.80809,9.60946
-280,603,2.37079,-10.1415,0,0,0,0,0,0,0,-1,944,421,2.37081,10.1416
-273,603,3.05261,-11.3686,0,0,0,0,0,0,0,-1,951,421,3.05263,11.3686
-266,603,3.02484,-11.4795,0,0,0,0,0,0,0,-1,958,421,3.02487,11.4795
-259,603,2.66577,-12.3097,0,0,0,0,0,0,0,-1,965,421,2.6658,12.3097
-252,603,2.69727,-12.9239,-0.0158913,-0.00056992,-0.0182084,0.0115237,-0.0279849,-0.98452,0.0234609,0.045087,972,421,2.69728,12.9239
-245,603,2.5451,-13.1201,-0.0142177,-0.000269477,-0.0163511,0.0105327,-0.0250198,-0.986978,0.0210866,0.0306677,979,421,2.54512,13.1202
-238,603,2.60095,-13.1275,-0.0124108,0.000266883,-0.0141308,0.00941543,-0.0215594,-0.996237,0.0183357,0.0187884,986,421,2.60096,13.1275
-231,603,2.5575,-13.4004,-0.0106859,0.00078724,-0.0116157,0.00800568,-0.0179043,-1.01476,0.0153187,0.0133173,993,421,2.55748,13.4004
-224,603,2.52844,-13.6704,-0.00903007,0.00129167,-0.00909941,0.00659186,-0.0143303,-1.04336,0.0123517,0.0133586,1000,421,2.52845,13.6704
-217,603,2.53528,-13.8634,-0.00740152,0.00176411,-0.00670118,0.00529966,-0.0109371,-1.08531,0.00956078,0.012247,1007,421,2.53528,13.8634
-210,603,2.52979,-14.0704,-0.00586593,0.00181454,-0.00470009,0.00404376,-0.00809515,-1.12793,0.00713733,0.0105441,1014,421,2.52981,14.0704
-203,603,2.53387,-14.2915,-0.00454453,0.00190316,-0.00300725,0.00308803,-0.0057294,-1.19547,0.00516632,0.0160814,1021,421,2.53387,14.2915
-196,603,2.53064,-14.5219,-0.00349716,0.00203563,-0.00178919,0.00256379,-0.00402532,-1.28375,0.0038353,0.0171562,1028,421,2.53061,14.5219
-189,603,2.52026,-14.7079,-0.00215815,0.00212303,-0.00053492,0.00218886,-0.00222397,-1.44836,0.00254778,0.0145398,1035,421,2.52021,14.708
-182,603,2.49377,-14.8904,-0.00105625,0.00203669,0.000408691,0.00208978,-0.00110934,1.44161,0.00187571,0.0104081,1042,421,2.4938,14.8904
-175,603,2.45337,-15.068,-0.000551005,0.00116201,2.99437e-05,0.00116253,-0.000551528,1.55332,0.00101035,0.0107267,1049,421,2.45336,15.068
-168,603,2.44946,-15.2213,-6.66509e-05,0.000480591,-0.000247241,0.000575747,-0.000161807,-1.2034,0.000447624,0.0140744,1056,421,2.44944,15.2213
-161,603,2.43896,-15.4172,0.000342997,-4.32109e-05,-0.000503468,0.000689123,-0.000389337,-0.602276,0.000630617,0.014122,1063,421,2.43902,15.4172
-154,603,2.43884,-15.6117,0.000770641,-0.000357478,-0.000745559,0.00114147,-0.00072831,-0.461555,0.00108827,0.013323,1070,421,2.43889,15.6117
-147,603,2.45557,-15.7606,0.00114034,-0.000744884,-0.000854866,0.00147025,-0.0010748,-0.368311,0.00147528,0.0140091,1077,421,2.45561,15.7606
-140,603,2.47192,-15.909,0.00143457,-0.00114206,-0.000862318,0.00169652,-0.00140401,-0.294926,0.00179275,0.0114087,1084,421,2.47192,15.909
-133,603,2.46228,-16.0601,0.00162977,-0.0013392,-0.000812109,0.00183739,-0.00154682,-0.250293,0.00195628,0.0106876,1091,421,2.4623,16.0601
-126,603,2.46606,-16.1826,0.00181097,-0.00151951,-0.000706171,0.00195452,-0.00166306,-0.200539,0.00209086,0.010242,1098,421,2.46606,16.1826
-119,603,2.49219,-16.3412,0.00201895,-0.00151541,-0.000629014,0.00212756,-0.00162402,-0.170979,0.00217247,0.0110985,1105,421,2.4922,16.3412
-112,603,2.4845,-16.5115,0.00218744,-0.00147753,-0.000548015,0.00226763,-0.00155772,-0.145295,0.0022212,0.0156135,1112,421,2.48447,16.5115
-105,603,2.49438,-16.6562,0.00233853,-0.00132473,-0.000550623,0.00241951,-0.00140571,-0.146012,0.00223419,0.0151596,1119,421,2.49443,16.6562
-98,603,2.4884,-16.7699,0.00255601,-0.00122053,-0.00054777,0.00263386,-0.00129838,-0.141171,0.00231351,0.0124604,1126,421,2.48837,16.7699
-91,603,2.50024,-16.8836,0.00290004,-0.00115901,-0.000701467,0.00301785,-0.00127682,-0.166389,0.00254654,0.00929536,1133,421,2.50026,16.8836
-84,603,2.51978,-16.9922,0.00343877,-0.00118857,-0.00104736,0.00366479,-0.00141459,-0.212541,0.00302698,0.00976335,1140,421,2.51976,16.9922
-77,603,2.55676,-17.1309,0.00399155,-0.000987497,-0.00117593,0.00425531,-0.00125125,-0.220643,0.00333318,0.0130588,1147,421,2.55677,17.1309
-70,603,2.63806,-17.3773,0.00447793,-0.0012406,-0.000857741,0.00460381,-0.00136648,-0.145722,0.00361192,0.0382136,1154,421,2.63806,17.3773
-63,603,2.57117,-17.2772,0,0,0,0,0,0,0,-1,1161,421,2.57113,17.2772
-56,603,2.60815,-17.3978,0,0,0,0,0,0,0,-1,1168,421,2.60821,17.3978
-49,603,2.63538,-17.4598,0,0,0,0,0,0,0,-1,1175,421,2.63534,17.4598
-42,603,2.63599,-17.5165,0,0,0,0,0,0,0,-1,1182,421,2.636,17.5165
-35,603,2.547,-17.5753,0.004119,-0.00696384,0.00120707,0.00424894,-0.00709378,0.107238,0.00661703,0.0417572,1189,421,2.54703,17.5753
-28,603,2.58044,-17.6609,0.00388951,-0.00964065,0.00213487,0.00421837,-0.00996951,0.152841,0.00841271,0.0242344,1196,421,2.58041,17.6609
-21,603,2.64685,-17.7208,0.00398856,-0.0110324,0.00257494,0.00441771,-0.0114616,0.165143,0.00946378,0.0190683,1203,421,2.64687,17.7208
-14,603,2.70349,-17.758,0.00475522,-0.0125696,0.0031493,0.00530994,-0.0131243,0.174352,0.0109571,0.0197424,1210,421,2.70353,17.7579
-7,603,2.78357,-17.815,0.0066464,-0.012008,0.00315797,0.00716651,-0.0125281,0.163231,0.0115103,0.0221129,1217,421,2.78359,17.815
0,603,2.83105,-17.8479,0.0141355,-0.0104334,0.00238364,0.0143647,-0.0106625,0.0958275,0.014502,0.0257653,1224,421,2.83105,17.8479
7,603,2.85791,-17.8299,0.025537,0.000441133,-0.00561183,0.0267348,-0.000756597,-0.210274,0.0180806,0.029714,1231,421,2.8579,17.8299
14,603,2.89587,-17.8018,0.0376917,0.00322517,-0.00971494,0.0402414,0.000675477,-0.256662,0.0266053,0.0274703,1238,421,2.89589,17.8018
21,603,2.89233,-17.8431,0.0467678,0.00678417,-0.0137108,0.0510177,0.00253432,-0.300573,0.0331993,0.0222839,1245,421,2.89235,17.8431
28,603,2.95215,-17.8898,0.0546864,0.00928726,-0.0176986,0.0607707,0.00320298,-0.331116,0.0394894,0.0259281,1252,421,2.95214,17.8898
35,603,2.91418,-17.8714,0.0608368,0.0103774,-0.0214107,0.0686972,0.00251698,-0.351849,0.0449826,0.0346119,1259,421,2.91421,17.8714
42,603,2.9259,-17.9169,0.0652173,0.00941782,-0.0232708,0.0736483,0.000986807,-0.347591,0.0487733,0.028807,1266,421,2.92588,17.9169
49,603,2.98999,-17.9854,0.0667933,0.00930852,-0.0231691,0.0749688,0.00113301,-0.339223,0.0496059,0.0154894,1273,421,2.98999,17.9854
56,603,2.98218,-17.9689,0.0642144,0.00667213,-0.0222039,0.0717859,-0.000899415,-0.328636,0.0481599,0.0300144,1280,421,2.98216,17.9689
63,603,3.01392,-17.8417,0.0583065,0.00261202,-0.0197655,0.0646081,-0.00368961,-0.308631,0.0443531,0.0439916,1287,421,3.01386,17.8417
70,603,2.67554,-17.7635,0.0492686,-0.00257023,-0.0162203,0.0539256,-0.00722716,-0.279585,0.0385857,0.047277,1294,421,2.67555,17.7635
77,603,2.50085,-17.7579,0.0381513,-0.00771854,-0.0118439,0.0410289,-0.0105962,-0.238345,0.0314848,0.0474328,1301,421,2.50088,17.7579
84,603,3.08716,-17.9203,0.0254251,-0.0121749,-0.00718873,0.0267526,-0.0135025,-0.182612,0.0236573,0.0454556,1308,421,3.08717,17.9203
91,603,3.22937,-18.0764,0.0132689,-0.0151959,-0.003409,0.0136715,-0.0155985,-0.117547,0.0169112,0.0441467,1315,421,3.22935,18.0764
98,603,3.40381,-18.0439,0.00239519,-0.017854,-0.000416706,0.00240376,-0.0178626,-0.0205673,0.0127852,0.0445541,1322,421,3.40381,18.0438
105,603,3.56885,-17.798,-0.00909963,-0.0196399,0.00188411,-0.00877296,-0.0199666,0.171673,0.0115559,0.0404729,1329,421,3.5689,17.798
112,603,3.39941,-17.6695,-0.0193428,-0.025285,0.00700073,-0.0147088,-0.029919,0.584719,0.0172746,0.0332848,1336,421,3.39945,17.6695
119,603,3.39539,-17.6632,-0.0260678,-0.021604,0.0060814,-0.0173579,-0.0303139,0.961269,0.0175631,0.0350455,1343,421,3.39536,17.6632
126,603,3.48926,-17.6063,-0.0263342,-0.0191223,0.00391602,-0.0174049,-0.0280516,1.1575,0.0163515,0.0410454,1350,421,3.48921,17.6063
133,603,3.51257,-17.5521,-0.0262719,-0.017236,0.00201411,-0.0168074,-0.0267005,1.36112,0.0155869,0.0354962,1357,421,3.51258,17.5521
140,603,3.46228,-17.4572,-0.0257996,-0.015984,0.000433777,-0.0159649,-0.0258187,1.52672,0.015045,0.0222841,1364,421,3.46233,17.4572
147,603,3.34692,-17.3916,-0.0255593,-0.0152024,-0.00157482,-0.0149682,-0.0257935,-1.42319,0.0149558,0.0175136,1371,421,3.34692,17.3916
154,603,3.30994,-17.3407,-0.0247456,-0.0169433,-0.00332238,-0.0157202,-0.0259686,-1.21807,0.0151035,0.0258015,1378,421,3.3099,17.3407
161,603,3.37024,-17.2442,-0.0222298,-0.0166231,-0.00338825,-0.0150288,-0.0238241,-1.13101,0.0139109,0.0305135,1385,421,3.37026,17.2442
168,603,3.4668,-17.1394,-0.0193481,-0.0149345,-0.0033076,-0.0131651,-0.0211175,-1.07958,0.0123154,0.0302687,1392,421,3.46678,17.1394
175,603,3.63232,-17.0647,-0.0163622,-0.0126825,-0.00364304,-0.0104411,-0.0186036,-1.01923,0.0107676,0.0310191,1399,421,3.63232,17.0647
182,603,3.69055,-16.951,-0.0134568,-0.0108209,-0.00363188,-0.00827525,-0.0160025,-0.959452,0.00924085,0.0369488,1406,421,3.69058,16.951
189,603,3.67529,-16.7956,-0.00983394,-0.00904037,-0.00383284,-0.00558383,-0.0132905,-0.836976,0.00770582,0.0338586,1413,421,3.67526,16.7956
196,603,3.57153,-16.6371,-0.00589607,-0.00645367,-0.00403558,-0.00212967,-0.0102201,-0.750911,0.00622611,0.0257779,1420,421,3.57151,16.6372
203,603,3.53491,-16.5839,-0.00237381,-0.00282129,-0.00420737,0.00161576,-0.00681086,-0.758834,0.00516412,0.0147296,1427,421,3.53489,16.5839
210,603,3.57874,-16.5018,-0.000585032,-0.000141926,-0.00361844,0.00326173,-0.00398869,-0.815974,0.00419304,0.0119651,1434,421,3.57874,16.5018
217,603,3.5675,-16.3036,-0.00134652,0.00104266,-0.00303003,0.00310509,-0.00340894,-0.973168,0.00376224,0.0140442,1441,421,3.56751,16.3036
224,603,3.57996,-16.1535,-0.00147971,0.00154426,-0.00263544,0.00307064,-0.00300608,-1.04583,0.00350846,0.0176342,1448,421,3.58,16.1535
231,603,3.58545,-16.0214,-0.00140133,0.00196722,-0.00210047,0.0029753,-0.0024094,-1.12333,0.00311457,0.0146988,1455,421,3.58542,16.0214
238,603,3.61353,-15.8768,-0.00106144,0.00220807,-0.00156428,0.00283592,-0.00168929,-1.18911,0.00264044,0.0101718,1462,421,3.61349,15.8768
245,603,3.62903,-15.7316,-0.000665784,0.00240962,-0.00105089,0.00273442,-0.000990582,-1.27104,0.0022278,0.0114133,1469,421,3.62899,15.7316
252,603,3.62512,-15.5471,-0.000291394,0.00253613,-0.000571155,0.00264714,-0.000402408,-1.37882,0.00191306,0.0109754,1476,421,3.62512,15.5471
259,603,3.63733,-15.3653,-1.48714e-05,0.00252908,-0.000132618,0.00253598,-2.17662e-05,-1.51885,0.00169795,0.0112502,1483,421,3.63729,15.3653
266,603,3.62634,-15.171,0.000202082,0.00240439,0.000253013,0.00243308,0.000173389,1.45787,0.00156746,0.0121593,1490,421,3.62635,15.171
273,603,3.62329,-14.9891,0.000330585,0.00219279,0.000606959,0.00237315,0.000150224,1.28195,0.00153448,0.0106712,1497,421,3.62332,14.9891
280,603,3.63745,-14.7929,0.000563139,0.00195346,0.00112334,0.00257934,-6.27378e-05,1.06247,0.00174085,0.0119592,1504,421,3.63748,14.7929
287,603,3.64209,-14.5824,0.000698648,0.00172764,0.00154157,0.00283831,-0.000412021,0.946459,0.00204344,0.0114034,1511,421,3.64215,14.5824
294,603,3.62732,-14.3931,0.000716955,0.00149094,0.00191599,0.00305863,-0.000850731,0.885048,0.00237403,0.00966409,1518,421,3.62729,14.3931
301,603,3.63367,-14.1951,0.000731623,0.00115892,0.00235514,0.00331008,-0.00141954,0.830632,0.00280242,0.0116804,1525,421,3.63361,14.1951
308,603,3.6427,-13.9995,0.000765384,0.000880649,0.00285554,0.00367914,-0.0020331,0.795488,0.00334329,0.0172454,1532,421,3.64268,13.9995
315,603,3.61682,-13.7996,0.00078181,0.000712473,0.00338911,0.00413643,-0.00264215,0.780284,0.00394518,0.0151706,1539,421,3.61678,13.7996
322,603,3.60706,-13.5673,0.000720721,0.000727918,0.00389892,0.00462324,-0.0031746,0.78586,0.0045279,0.0146249,1546,421,3.60709,13.5673
329,603,3.58276,-13.3173,0.000673714,0.000791713,0.00440938,0.00514249,-0.00367706,0.792088,0.00511534,0.0111648,1553,421,3.58279,13.3173
336,603,3.58789,-13.099,0.00053597,0.00108076,0.00482969,0.00564573,-0.004029,0.813568,0.00561164,0.00872939,1560,421,3.58784,13.099
343,603,3.59509,-12.8723,0.000354502,0.00136206,0.00512844,0.00601141,-0.00429485,0.834357,0.00597777,0.0104321,1567,421,3.59513,12.8723
350,603,3.56238,-12.6211,0.000177361,0.00224983,0.00549058,0.0068011,-0.00437391,0.878666,0.00650243,0.0221508,1574,421,3.56233,12.6211
357,603,3.58435,-12.3019,-0.000211486,0.00310558,0.00576488,0.00744576,-0.00455167,0.925463,0.00699357,0.0309901,1581,421,3.58431,12.302
364,603,3.57251,-12.0114,-0.000801229,0.00413703,0.00586249,0.00802914,-0.00469334,0.984711,0.00742901,0.0355266,1588,421,3.57248,12.0114
371,603,3.48413,-11.7378,-0.001317,0.00578849,0.00585496,0.00908428,-0.0046128,1.0581,0.00804725,0.0426792,1595,421,3.48417,11.7378
378,603,3.50049,-11.6579,0,0,0,0,0,0,0,-1,1602,421,3.50043,11.6579
385,603,3.42102,-11.2784,0,0,0,0,0,0,0,-1,1609,421,3.42099,11.2784
392,603,3.48218,-11.0768,0,0,0,0,0,0,0,-1,1616,421,3.48214,11.0768
399,603,2.38013,-5.37076,0,0,0,0,0,0,0,-1,1623,421,2.38016,5.37075
406,603,3.01917,-2.37219,0,0,0,0,0,0,0,-1,1630,421,3.01915,2.37219
413,603,2.38928,-2.41275,0,0,0,0,0,0,0,-1,1637,421,2.38926,2.41274
420,603,2.74866,-2.30066,0,0,0,0,0,0,0,-1,1644,421,2.74867,2.30065
427,603,7.11548,-3.35352,0,0,0,0,0,0,0,-1,1651,421,7.11549,3.35351
434,603,7.32153,-4.50525,0,0,0,0,0,0,0,-1,1658,421,7.32149,4.50525
441,603,3.18213,-0.250946,0,0,0,0,0,0,0,-1,1665,421,3.18212,0.250944
448,603,2.95667,-0.066925,0,0,0,0,0,0,0,-1,1672,421,2.95662,0.0669226
455,603,0,0,0,0,0,0,0,0,0,-1,1679,421,0,0
462,603,0,0,0,0,0,0,0,0,0,-1,1686,421,0,0
469,603,0,0,0,0,0,0,0,0,0,-1,1693,421,0,0
476,603,0,0,0,0,0,0,0,0,0,-1,1700,421,0,0
483,603,0,0,0,0,0,0,0,0,0,-1,1707,421,0,0
490,603,0,0,0,0,0,0,0,0,0,-1,1714,421,0,0
497,603,0,0,0,0,0,0,0,0,0,-1,1721,421,0,0
504,603,0,0,0,0,0,0,0,0,0,-1,1728,421,0,0
511,603,0,0,0,0,0,0,0,0,0,-1,1735,421,0,0
518,603,0,0,0,0,0,0,0,0,0,-1,1742,421,0,0
525,603,0,0,0,0,0,0,0,0,0,-1,1749,421,0,0
532,603,0,0,0,0,0,0,0,0,0,-1,1756,421,0,0
539,603,0,0,0,0,0,0,0,0,0,-1,1763,421,0,0
546,603,0,0,0,0,0,0,0,0,0,-1,1770,421,0,0
553,603,0,0,0,0,0,0,0,0,0,-1,1777,421,0,0
560,603,0,0,0,0,0,0,0,0,0,-1,1784,421,0,0
567,603,0,0,0,0,0,0,0,0,0,-1,1791,421,0,0
574,603,0,0,0,0,0,0,0,0,0,-1,1798,421,0,0
581,603,0,0,0,0,0,0,0,0,0,-1,1805,421,0,0
588,603,0,0,0,0,0,0,0,0,0,-1,1812,421,0,0
595,603,0,0,0,0,0,0,0,0,0,-1,1819,421,0,0
602,603,0,0,0,0,0,0,0,0,0,-1,1826,421,0,0
609,603,0,0,0,0,0,0,0,0,0,-1,1833,421,0,0
616,603,0,0,0,0,0,0,0,0,0,-1,1840,421,0,0
623,603,0,0,0,0,0,0,0,0,0,-1,1847,421,0,0
630,603,0,0,0,0,0,0,0,0,0,-1,1854,421,0,0
637,603,0,0,0,0,0,0,0,0,0,-1,1861,421,0,0
644,603,0,0,0,0,0,0,0,0,0,-1,1868,421,0,0
651,603,0,0,0,0,0,0,0,0,0,-1,1875,421,0,0
658,603,0,0,0,0,0,0,0,0,0,-1,1882,421,0,0
665,603,0,0,0,0,0,0,0,0,0,-1,1889,421,0,0
672,603,0,0,0,0,0,0,0,0,0,-1,1896,421,0,0
679,603,0,0,0,0,0,0,0,0,0,-1,1903,421,0,0
686,603,0,0,0,0,0,0,0,0,0,-1,1910,421,0,0
693,603,0,0,0,0,0,0,0,0,0,-1,1917,421,0,0
700,603,0,0,0,0,0,0,0,0,0,-1,1924,421,0,0
707,603,0,0,0,0,0,0,0,0,0,-1,1931,421,0,0
714,603,0,0,0,0,0,0,0,0,0,-1,1938,421,0,0
721,603,0,0,0,0,0,0,0,0,0,-1,1945,421,0,0
728,603,0,0,0,0,0,0,0,0,0,-1,1952,421,0,0
735,603,0,0,0,0,0,0,0,0,0,-1,1959,421,0,0
742,603,0,0,0,0,0,0,0,0,0,-1,1966,421,0,0
749,603,0,0,0,0,0,0,0,0,0,-1,1973,421,0,0
756,603,0,0,0,0,0,0,0,0,0,-1,1980,421,0,0
763,603,0,0,0,0,0,0,0,0,0,-1,1987,421,0,0
770,603,0,0,0,0,0,0,0,0,0,-1,1994,421,0,0
777,603,0,0,0,0,0,0,0,0,0,-1,2001,421,0,0
784,603,0,0,0,0,0,0,0,0,0,-1,2008,421,0,0
791,603,0,0,0,0,0,0,0,0,0,-1,2015,421,0,0
798,603,0,0,0,0,0,0,0,0,0,-1,2022,421,0,0
805,603,0,0,0,0,0,0,0,0,0,-1,2029,421,0,0
812,603,0,0,0,0,0,0,0,0,0,-1,2036,421,0,0
-700,596,0,0,0,0,0,0,0,0,0,-1,524,428,0,0
-693,596,0,0,0,0,0,0,0,0,0,-1,531,428,0,0
-686,596,0,0,0,0,0,0,0,0,0,-1,538,428,0,0
-679,596,0,0,0,0,0,0,0,0,0,-1,545,428,0,0
-672,596,0,0,0,0,0,0,0,0,0,-1,552,428,0,0
-665,596,0,0,0,0,0,0,0,0,0,-1,559,428,0,0
-658,596,0,0,0,0,0,0,0,0,0,-1,566,428,0,0
-651,596,0,0,0,0,0,0,0,0,0,-1,573,428,0,0
-644,596,0,0,0,0,0,0,0,0,0,-1,580,428,0,0
-637,596,0,0,0,0,0,0,0,0,0,-1,587,428,0,0
-630,596,0,0,0,0,0,0,0,0,0,-1,594,428,0,0
-623,596,0,0,0,0,0,0,0,0,0,-1,601,428,0,0
-616,596,0,0,0,0,0,0,0,0,0,-1,608,428,0,0
-609,596,0,0,0,0,0,0,0,0,0,-1,615,428,0,0
-602,596,0,0,0,0,0,0,0,0,0,-1,622,428,0,0
-595,596,0,0,0,0,0,0,0,0,0,-1,629,428,0,0
-588,596,0,0,0,0,0,0,0,0,0,-1,636,428,0,0
-581,596,0,0,0,0,0,0,0,0,0,-1,643,428,0,0
-574,596,0,0,0,0,0,0,0,0,0,-1,650,428,0,0
-567,596,0,0,0,0,0,0,0,0,0,-1,657,428,0,0
-560,596,0,0,0,0,0,0,0,0,0,-1,664,428,0,0
-553,596,0,0,0,0,0,0,0,0,0,-1,671,428,0,0
-546,596,0,0,0,0,0,0,0,0,0,-1,678,428,0,0
-539,596,0,0,0,0,0,0,0,0,0,-1,685,428,0,0
-532,596,0,0,0,0,0,0,0,0,0,-1,692,428,0,0
-525,596,0,0,0,0,0,0,0,0,0,-1,699,428,0,0
-518,596,0,0,0,0,0,0,0,0,0,-1,706,428,0,0
-511,596,0,0,0,0,0,0,0,0,0,-1,713,428,0,0
-504,596,0,0,0,0,0,0,0,0,0,-1,720,428,0,0
-497,596,0,0,0,0,0,0,0,0,0,-1,727,428,0,0
-490,596,0,0,0,0,0,0,0,0,0,-1,734,428,0,0
-483,596,0,0,0,0,0,0,0,0,0,-1,741,428,0,0
-476,596,0,0,0,0,0,0,0,0,0,-1,748,428,0,0
-469,596,0,0,0,0,0,0,0,0,0,-1,755,428,0,0
-462,596,0,0,0,0,0,0,0,0,0,-1,762,428,0,0
-455,596,0,0,0,0,0,0,0,0,0,-1,769,428,0,0
-448,596,0,0,0,0,0,0,0,0,0,-1,776,428,0,0
-441,596,0,0,0,0,0,0,0,0,0,-1,783,428,0,0
-434,596,0,0,0,0,0,0,0,0,0,-1,790,428,0,0
-427,596,0,0,0,0,0,0,0,0,0,-1,797,428,0,0
-420,596,0,0,0,0,0,0,0,0,0,-1,804,428,0,0
-413,596,0,0,0,0,0,0,0,0,0,-1,811,428,0,0
-406,596,0,0,0,0,0,0,0,0,0,-1,818,428,0,0
-399,596,0,0,0,0,0,0,0,0,0,-1,825,428,0,0
-392,596,0,0,0,0,0,0,0,0,0,-1,832,428,0,0
-385,596,0,0,0,0,0,0,0,0,0,-1,839,428,0,0
-378,596,0,0,0,0,0,0,0,0,0,-1,846,428,0,0
-371,596,0,0,0,0,0,0,0,0,0,-1,853,428,0,0
-364,596,0,0,0,0,0,0,0,0,0,-1,860,428,0,0
-357,596,0,0,0,0,0,0,0,0,0,-1,867,428,0,0
-350,596,0,0,0,0,0,0,0,0,0,-1,874,428,0,0
-343,596,0,0,0,0,0,0,0,0,0,-1,881,428,0,0
-336,596,-2.27789,-15.8111,0,0,0,0,0,0,0,-1,888,428,-2.27789,15.8111
-329,596,-0.936462,-13.5532,0,0,0,0,0,0,0,-1,895,428,-0.936434,13.5532
-322,596,-0.406311,-12.5136,0,0,0,0,0,0,0,-1,902,428,-0.406284,12.5136
-315,596,3.67957,-9.47427,0,0,0,0,0,0,0,-1,909,428,3.67957,9.47429
-308,596,1.21112,-9.53857,0,0,0,0,0,0,0,-1,916,428,1.2111,9.53857
-301,596,1.93604,-11.1467,0,0,0,0,0,0,0,-1,923,428,1.93602,11.1467
-294,596,1.34821,-10.6815,0,0,0,0,0,0,0,-1,930,428,1.34819,10.6815
-287,596,2.34351,-11.3387,0,0,0,0,0,0,0,-1,937,428,2.34352,11.3387
-280,596,2.65167,-11.3672,0,0,0,0,0,0,0,-1,944,428,2.65168,11.3672
-273,596,2.63916,-11.6812,0,0,0,0,0,0,0,-1,951,428,2.63914,11.6812
-266,596,2.60779,-11.9652,-0.00944371,-8.6107e-05,-0.0142666,0.0102493,-0.0197791,-0.943849,0.0176256,0.0353152,958,428,2.6078,11.9652
-259,596,2.41718,-12.4114,-0.0100324,7.54825e-07,-0.0129438,0.00886613,-0.0188978,-0.970269,0.0163746,0.0332368,965,428,2.4172,12.4114
-252,596,2.3866,-12.7505,-0.00975266,-4.90968e-05,-0.0119331,0.0079808,-0.0177826,-0.978483,0.0152291,0.0173784,972,428,2.38661,12.7506
-245,596,2.38086,-12.9837,-0.00872878,9.15141e-05,-0.0107402,0.00729173,-0.015929,-0.980213,0.0137122,0.0127151,979,428,2.38089,12.9837
-238,596,2.37744,-13.2158,-0.00761605,0.000420734,-0.00927388,0.00650939,-0.0137047,-0.989839,0.0119145,0.0114791,986,428,2.37743,13.2158
-231,596,2.33569,-13.4499,-0.00651238,0.000633027,-0.00758089,0.0054409,-0.0113203,-1.0056,0.00987351,0.0131409,993,428,2.33572,13.4499
-224,596,2.32617,-13.6822,-0.00541575,0.000864432,-0.00586707,0.00437886,-0.00893019,-1.03111,0.00783232,0.0134159,1000,428,2.32617,13.6822
-217,596,2.33411,-13.901,-0.00432294,0.00107283,-0.00422121,0.00338466,-0.00663477,-1.06974,0.00588529,0.0141012,1007,428,2.33413,13.901
-210,596,2.34271,-14.0992,-0.00327184,0.000959365,-0.00286905,0.00240848,-0.00472096,-1.10309,0.00418774,0.012264,1014,428,2.34273,14.0992
-203,596,2.32843,-14.2974,-0.00237801,0.000938427,-0.00179755,0.00172579,-0.00316538,-1.15795,0.0028644,0.015045,1021,428,2.32842,14.2974
-196,596,2.32556,-14.512,-0.00167892,0.00104169,-0.00106103,0.00140655,-0.00204378,-1.23958,0.00200334,0.0147088,1028,428,2.32555,14.512
-189,596,2.31299,-14.7065,-0.000934684,0.00112619,-0.00022724,0.00115095,-0.000959443,-1.46227,0.00122011,0.0118067,1035,428,2.31299,14.7065
-182,596,2.29504,-14.8692,-0.000321278,0.00104001,0.000332175,0.00111674,-0.000398008,1.34378,0.000906764,0.0109159,1042,428,2.29507,14.8692
-175,596,2.27527,-15.0539,1.44765e-05,0.000392034,4.36447e-05,0.000397014,9.49697e-06,1.45719,0.000261568,0.0137375,1049,428,2.27527,15.0539
-168,596,2.29163,-15.2444,0.000310451,-8.12729e-05,-0.000188113,0.000386156,-0.000156978,-0.382611,0.000322749,0.0166791,1056,428,2.29166,15.2444
-161,596,2.30237,-15.4128,0.000533182,-0.000455227,-0.00041568,0.000684755,-0.0006068,-0.349655,0.000746132,0.0152401,1063,428,2.3024,15.4127
-154,596,2.28198,-15.596,0.000801923,-0.000714673,-0.000613989,0.00101933,-0.000932079,-0.340312,0.00112702,0.0133033,1070,428,2.28196,15.596
-147,596,2.2926,-15.7516,0.00108534,-0.00107618,-0.000702493,0.00129359,-0.00128443,-0.288187,0.00148842,0.0134731,1077,428,2.29264,15.7516
-140,596,2.31323,-15.8884,0.00133256,-0.00150748,-0.00073836,0.00151305,-0.00168797,-0.239745,0.00184903,0.0133239,1084,428,2.31318,15.8884
-133,596,2.31555,-16.0415,0.0015607,-0.00175756,-0.000698281,0.00170165,-0.00189852,-0.199184,0.00207959,0.013038,1091,428,2.31555,16.0415
-126,596,2.32043,-16.186,0.00190327,-0.00206076,-0.000596409,0.00199106,-0.00214855,-0.146146,0.00239058,0.0111479,1098,428,2.32038,16.186
-119,596,2.36145,-16.3507,0.00233198,-0.00225497,-0.000567944,0.00240125,-0.00232425,-0.121376,0.00272839,0.0140631,1105,428,2.36147,16.3507
-112,596,2.3584,-16.492,0.00278013,-0.00242628,-0.000553287,0.00283828,-0.00248443,-0.104712,0.00307533,0.0154182,1112,428,2.35843,16.492
-105,596,2.34021,-16.6603,0.00321759,-0.00247754,-0.000620843,0.00328448,-0.00254443,-0.107333,0.00337436,0.0156626,1119,428,2.34025,16.6603
-98,596,2.38086,-16.7599,0.00378701,-0.00249321,-0.000524302,0.00383048,-0.00253668,-0.0827216,0.00370129,0.0104977,1126,428,2.38089,16.7599
-91,596,2.38318,-16.8869,0.00448344,-0.00269545,-0.000696753,0.00455044,-0.00276245,-0.0958636,0.00426396,0.01226,1133,428,2.38322,16.8869
-84,596,2.45654,-17.1111,0.00498806,-0.00275111,-0.00111897,0.0051466,-0.00290965,-0.140746,0.00471067,0.0264455,1140,428,2.45649,17.1111
-77,596,2.52063,-17.363,0,0,0,0,0,0,0,-1,1147,428,2.52059,17.363
-70,596,2.53137,-17.6326,0,0,0,0,0,0,0,-1,1154,428,2.53138,17.6326
-63,596,1.95569,-12.2758,0,0,0,0,0,0,0,-1,1161,428,1.95563,12.2759
-56,596,1.60107,-10.5827,0,0,0,0,0,0,0,-1,1168,428,1.60108,10.5827
-49,596,1.59473,-10.0393,0,0,0,0,0,0,0,-1,1175,428,1.59472,10.0393
-42,596,1.99585,-6.6246,0,0,0,0,0,0,0,-1,1182,428,1.99586,6.62459
-35,596,2.21655,-17.4021,0,0,0,0,0,0,0,-1,1189,428,2.21658,17.4021
-28,596,2.42175,-17.5641,0,0,0,0,0,0,0,-1,1196,428,2.42178,17.5641
-21,596,2.46399,-17.5916,0.00582565,-0.0146458,0.00515691,0.00705133,-0.0158715,0.233347,0.0135571,0.0479828,1203,428,2.46393,17.5915
-14,596,2.58301,-17.6605,0.00673271,-0.016473,0.00583027,0.00811517,-0.0178554,0.232817,0.0153416,0.0445109,1210,428,2.58301,17.6605
-7,596,2.67322,-17.6682,0.00905982,-0.0155024,0.00571384,0.010324,-0.0167666,0.217733,0.0157875,0.0482261,1217,428,2.67323,17.6682
0,596,2.77441,-17.7141,0,0,0,0,0,0,0,-1,1224,428,2.77441,17.7141
7,596,3.20825,-17.3866,0.0316479,-0.000807833,-0.00463717,0.0322975,-0.00145738,-0.139168,0.0220335,0.0423946,1231,428,3.20821,17.3866
14,596,2.97839,-17.6295,0.0455629,0.00268345,-0.0096595,0.0476385,0.000607906,-0.211652,0.0315583,0.0426789,1238,428,2.97844,17.6295
21,596,2.93677,-17.7673,0.056688,0.00704346,-0.0148578,0.0607949,0.00293653,-0.269682,0.0395874,0.0423461,1245,428,2.93682,17.7673
28,596,2.61328,-17.9214,0.0660431,0.00998122,-0.0200794,0.0724929,0.00353149,-0.310801,0.0471955,0.0413976,1252,428,2.6133,17.9214
35,596,2.56128,-17.5152,0.0729328,0.011025,-0.0248343,0.0816637,0.00229406,-0.338071,0.0536941,0.0432185,1259,428,2.56129,17.5152
42,596,2.81653,-17.7764,0.077462,0.00946041,-0.0273365,0.0870885,-0.00016607,-0.338586,0.0581144,0.0443584,1266,428,2.81654,17.7764
49,596,3.02991,-18.0552,0.0785173,0.00866676,-0.0274422,0.0880088,-0.000824723,-0.332993,0.0589494,0.041836,1273,428,3.02996,18.0552
56,596,2.77185,-18.0346,0.0744114,0.00490933,-0.0263156,0.0832511,-0.0039303,-0.324066,0.0568561,0.0437075,1280,428,2.77183,18.0346
63,596,2.97168,-17.6973,0,0,0,0,0,0,0,-1,1287,428,2.97168,17.6973
70,596,2.17749,-17.7603,0,0,0,0,0,0,0,-1,1294,428,2.17749,17.7603
77,596,8.75708,-23.1223,0,0,0,0,0,0,0,-1,1301,428,8.75713,23.1222
84,596,8.11292,-22.4179,0,0,0,0,0,0,0,-1,1308,428,8.11291,22.4179
91,596,7.52502,-21.6857,0,0,0,0,0,0,0,-1,1315,428,7.525,21.6857
98,596,3.54346,-18.4541,0,0,0,0,0,0,0,-1,1322,428,3.5434,18.4541
105,596,5.92993,-13.9565,0,0,0,0,0,0,0,-1,1329,428,5.92995,13.9565
112,596,3.60156,-17.3049,-0.0280925,-0.03296,0.00713634,-0.0229864,-0.0380662,0.621064,0.022135,0.0426055,1336,428,3.60156,17.3049
119,596,3.52954,-17.2038,-0.0353436,-0.0284126,0.0055694,-0.0253185,-0.0384377,1.06371,0.0225615,0.0441474,1343,428,3.52957,17.2038
126,596,3.72876,-17.4963,0,0,0,0,0,0,0,-1,1350,428,3.72875,17.4963
133,596,3.69397,-17.4652,0,0,0,0,0,0,0,-1,1357,428,3.69399,17.4652
140,596,3.61621,-17.2303,-0.0345938,-0.0219486,-0.00210675,-0.0216068,-0.0349355,-1.40998,0.0203579,0.0445693,1364,428,3.61627,17.2304
147,596,3.29907,-17.1737,-0.0341517,-0.0213909,-0.00455602,-0.0199312,-0.0356114,-1.26074,0.020609,0.039843,1371,428,3.29901,17.1737
154,596,3.45862,-17.049,-0.0330878,-0.0230647,-0.00648772,-0.0198783,-0.0362742,-1.11426,0.0209751,0.0443737,1378,428,3.4586,17.049
161,596,3.71082,-16.9606,-0.0305215,-0.0228889,-0.00675958,-0.0189427,-0.0344677,-1.04238,0.0199325,0.0489595,1385,428,3.71086,16.9606
168,596,3.59082,-16.9611,0,0,0,0,0,0,0,-1,1392,428,3.59076,16.9611
175,596,3.78137,-16.7998,0,0,0,0,0,0,0,-1,1399,428,3.78139,16.7998
182,596,3.89844,-16.8485,0,0,0,0,0,0,0,-1,1406,428,3.89845,16.8485
189,596,3.83374,-16.7737,0,0,0,0,0,0,0,-1,1413,428,3.83372,16.7737
196,596,3.73535,-16.4941,0,0,0,0,0,0,0,-1,1420,428,3.73534,16.4941
203,596,3.67542,-16.5625,0,0,0,0,0,0,0,-1,1427,428,3.67545,16.5625
210,596,3.6958,-16.5345,0,0,0,0,0,0,0,-1,1434,428,3.69583,16.5345
217,596,3.66699,-16.3537,-0.00238279,0.00112908,-0.00457894,0.00427723,-0.00553094,-0.96849,0.00567814,0.0268981,1441,428,3.66704,16.3537
224,596,3.71631,-16.2075,-0.00248736,0.00176235,-0.0040493,0.00421044,-0.00493545,-1.02702,0.00528591,0.0130588,1448,428,3.71628,16.2075
231,596,3.76074,-16.035,-0.00231563,0.00229963,-0.00334696,0.00405738,-0.00407337,-1.08721,0.0046943,0.0117238,1455,428,3.7607,16.035
238,596,3.78882,-15.8773,-0.00176086,0.00249338,-0.00267214,0.00378166,-0.00304915,-1.12156,0.00395132,0.0140367,1462,428,3.78884,15.8773
245,596,3.81421,-15.7314,-0.00111303,0.00267792,-0.00201346,0.00354774,-0.00198285,-1.16301,0.00323542,0.0132802,1469,428,3.81416,15.7314
252,596,3.81042,-15.5482,-0.000541164,0.00270502,-0.00140618,0.00322943,-0.00106558,-1.21384,0.00258249,0.0106256,1476,428,3.8104,15.5482
259,596,3.80737,-15.3671,-0.000113873,0.00255023,-0.000876831,0.00281292,-0.00037656,-1.27972,0.00201258,0.00912939,1483,428,3.80732,15.3671
266,596,3.80188,-15.1881,0.000244835,0.00235008,-0.000452946,0.00244339,0.00015152,-1.36762,0.00158085,0.0103806,1490,428,3.80184,15.1881
273,596,3.80652,-15.0016,0.000494004,0.0020427,-0.000159375,0.00205893,0.000477773,-1.4693,0.00124432,0.0121594,1497,428,3.80648,15.0016
280,596,3.82629,-14.8079,0.000821919,0.00169205,0.000368962,0.00182744,0.000686533,1.21911,0.00106589,0.0130607,1504,428,3.82629,14.8079
287,596,3.82544,-14.6053,0.000954684,0.00146562,0.000632926,0.00189269,0.000527612,0.977212,0.00112784,0.0114838,1511,428,3.82549,14.6053
294,596,3.8042,-14.4009,0.000932322,0.00120572,0.00087152,0.00195119,0.000186844,0.863189,0.0012432,0.00895209,1518,428,3.80415,14.401
301,596,3.81702,-14.1963,0.000867949,0.000843075,0.00116022,0.0020158,-0.000304771,0.780039,0.00145612,0.0106318,1525,428,3.81703,14.1963
308,596,3.82703,-13.9939,0.000846164,0.000603927,0.00151801,0.00224788,-0.000797787,0.745589,0.00182364,0.0166666,1532,428,3.82704,13.9939
315,596,3.79956,-13.7832,0.000815658,0.000498241,0.00191587,0.00257938,-0.00126549,0.744073,0.00226263,0.0164195,1539,428,3.79955,13.7832
322,596,3.81262,-13.5558,0.000713472,0.000567744,0.0023228,0.00296455,-0.00168334,0.769719,0.00271723,0.0133233,1546,428,3.81262,13.5558
329,596,3.81091,-13.3408,0.000632738,0.000698972,0.00275567,0.00342173,-0.00209002,0.791407,0.00321302,0.0103946,1553,428,3.81086,13.3408
336,596,3.79578,-13.122,0.000495782,0.0010088,0.00313925,0.003902,-0.00239742,0.826163,0.00367139,0.0088697,1560,428,3.79578,13.122
343,596,3.79761,-12.8884,0.000309052,0.00133867,0.00344982,0.00431188,-0.00266416,0.859465,0.00406489,0.0107609,1567,428,3.79765,12.8884
350,596,3.78809,-12.6427,0.000125082,0.00211885,0.00381154,0.00506172,-0.00281778,0.913305,0.00461031,0.0117388,1574,428,3.78806,12.6427
357,596,3.78235,-12.3754,-0.000199336,0.00287909,0.00411124,0.00572981,-0.00305005,0.964517,0.00514716,0.00917829,1581,428,3.78235,12.3754
364,596,3.771,-12.1102,-0.000671471,0.00376667,0.00426018,0.00635108,-0.00325588,1.02551,0.00564173,0.0101338,1588,428,3.77099,12.1102
371,596,3.77197,-11.864,-0.00111915,0.0049872,0.00433882,0.00723942,-0.00337138,1.092,0.00626036,0.0125902,1595,428,3.77193,11.864
378,596,3.75049,-11.6244,-0.00158739,0.00622406,0.00405525,0.00794859,-0.00331192,1.16871,0.00668245,0.0171593,1602,428,3.75046,11.6244
385,596,3.73828,-11.3188,-0.00265072,0.00698451,0.00376281,0.00827984,-0.00394606,1.23926,0.00720493,0.0276789,1609,428,3.73831,11.3188
392,596,3.71973,-11.0302,-0.00371038,0.00804863,0.00316441,0.00884611,-0.00450786,1.32392,0.00784436,0.0387465,1616,428,3.71967,11.0301
399,596,3.60571,-10.8024,0,0,0,0,0,0,0,-1,1623,428,3.60572,10.8024
406,596,3.60034,-10.1525,0,0,0,0,0,0,0,-1,1630,428,3.60028,10.1525
413,596,3.39124,-2.63528,0,0,0,0,0,0,0,-1,1637,428,3.39122,2.6353
420,596,2.6344,-3.06308,0,0,0,0,0,0,0,-1,1644,428,2.63439,3.06308
427,596,2.99329,-1.90512,0,0,0,0,0,0,0,-1,1651,428,2.99327,1.90512
434,596,3.80896,-0.253998,0,0,0,0,0,0,0,-1,1658,428,3.80902,0.254004
441,596,3.86401,-0.131622,0,0,0,0,0,0,0,-1,1665,428,3.86406,0.131613
448,596,1.0769,0.0083313,0,0,0,0,0,0,0,-1,1672,428,1.07684,-0.00832231
455,596,2.00769,-1.43329,0,0,0,0,0,0,0,-1,1679,428,2.00765,1.4333
462,596,0,0,0,0,0,0,0,0,0,-1,1686,428,0,0
469,596,0,0,0,0,0,0,0,0,0,-1,1693,428,0,0
476,596,0,0,0,0,0,0,0,0,0,-1,1700,428,0,0
483,596,0,0,0,0,0,0,0,0,0,-1,1707,428,0,0
490,596,0,0,0,0,0,0,0,0,0,-1,1714,428,0,0
497,596,0,0,0,0,0,0,0,0,0,-1,1721,428,0,0
504,596,0,0,0,0,0,0,0,0,0,-1,1728,428,0,0
511,596,0,0,0,0,0,0,0,0,0,-1,1735,428,0,0
518,596,0,0,0,0,0,0,0,0,0,-1,1742,428,0,0
525,596,0,0,0,0,0,0,0,0,0,-1,1749,428,0,0
532,596,0,0,0,0,0,0,0,0,0,-1,1756,428,0,0
539,596,0,0,0,0,0,0,0,0,0,-1,1763,428,0,0
546,596,0,0,0,0,0,0,0,0,0,-1,1770,428,0,0
553,596,0,0,0,0,0,0,0,0,0,-1,1777,428,0,0
560,596,0,0,0,0,0,0,0,0,0,-1,1784,428,0,0
567,596,0,0,0,0,0,0,0,0,0,-1,1791,428,0,0
574,596,0,0,0,0,0,0,0,0,0,-1,1798,428,0,0
581,596,0,0,0,0,0,0,0,0,0,-1,1805,428,0,0
588,596,0,0,0,0,0,0,0,0,0,-1,1812,428,0,0
595,596,0,0,0,0,0,0,0,0,0,-1,1819,428,0,0
602,596,0,0,0,0,0,0,0,0,0,-1,1826,428,0,0
609,596,0,0,0,0,0,0,0,0,0,-1,1833,428,0,0
616,596,0,0,0,0,0,0,0,0,0,-1,1840,428,0,0
623,596,0,0,0,0,0,0,0,0,0,-1,1847,428,0,0
630,596,0,0,0,0,0,0,0,0,0,-1,1854,428,0,0
637,596,0,0,0,0,0,0,0,0,0,-1,1861,428,0,0
644,596,0,0,0,0,0,0,0,0,0,-1,1868,428,0,0
651,596,0,0,0,0,0,0,0,0,0,-1,1875,428,0,0
658,596,0,0,0,0,0,0,0,0,0,-1,1882,428,0,0
665,596,0,0,0,0,0,0,0,0,0,-1,1889,428,0,0
672,596,0,0,0,0,0,0,0,0,0,-1,1896,428,0,0
679,596,0,0,0,0,0,0,0,0,0,-1,1903,428,0,0
686,596,0,0,0,0,0,0,0,0,0,-1,1910,428,0,0
693,596,0,0,0,0,0,0,0,0,0,-1,1917,428,0,0
700,596,0,0,0,0,0,0,0,0,0,-1,1924,428,0,0
707,596,0,0,0,0,0,0,0,0,0,-1,1931,428,0,0
714,596,0,0,0,0,0,0,0,0,0,-1,1938,428,0,0
721,596,0,0,0,0,0,0,0,0,0,-1,1945,428,0,0
728,596,0,0,0,0,0,0,0,0,0,-1,1952,428,0,0
735,596,0,0,0,0,0,0,0,0,0,-1,1959,428,0,0
742,596,0,0,0,0,0,0,0,0,0,-1,1966,428,0,0
749,596,0,0,0,0,0,0,0,0,0,-1,1973,428,0,0
756,596,0,0,0,0,0,0,0,0,0,-1,1980,428,0,0
763,596,0,0,0,0,0,0,0,0,0,-1,1987,428,0,0
770,596,0,0,0,0,0,0,0,0,0,-1,1994,428,0,0
777,596,0,0,0,0,0,0,0,0,0,-1,2001,428,0,0
784,596,0,0,0,0,0,0,0,0,0,-1,2008,428,0,0
791,596,0,0,0,0,0,0,0,0,0,-1,2015,428,0,0
798,596,0,0,0,0,0,0,0,0,0,-1,2022,428,0,0
805,596,0,0,0,0,0,0,0,0,0,-1,2029,428,0,0
812,596,0,0,0,0,0,0,0,0,0,-1,2036,428,0,0
-700,589,0,0,0,0,0,0,0,0,0,-1,524,435,0,0
-693,589,0,0,0,0,0,0,0,0,0,-1,531,435,0,0
-686,589,0,0,0,0,0,0,0,0,0,-1,538,435,0,0
-679,589,0,0,0,0,0,0,0,0,0,-1,545,435,0,0
-672,589,0,0,0,0,0,0,0,0,0,-1,552,435,0,0
-665,589,0,0,0,0,0,0,0,0,0,-1,559,435,0,0
-658,589,0,0,0,0,0,0,0,0,0,-1,566,435,0,0
-651,589,0,0,0,0,0,0,0,0,0,-1,573,435,0,0
-644,589,0,0,0,0,0,0,0,0,0,-1,580,435,0,0
-637,589,0,0,0,0,0,0,0,0,0,-1,587,435,0,0
-630,589,0,0,0,0,0,0,0,0,0,-1,594,435,0,0
-623,589,0,0,0,0,0,0,0,0,0,-1,601,435,0,0
-616,589,0,0,0,0,0,0,0,0,0,-1,608,435,0,0
-609,589,0,0,0,0,0,0,0,0,0,-1,615,435,0,0
-602,589,0,0,0,0,0,0,0,0,0,-1,622,435,0,0
-595,589,0,0,0,0,0,0,0,0,0,-1,629,435,0,0
-588,589,0,0,0,0,0,0,0,0,0,-1,636,435,0,0
-581,589,0,0,0,0,0,0,0,0,0,-1,643,435,0,0
-574,589,0,0,0,0,0,0,0,0,0,-1,650,435,0,0
-567,589,0,0,0,0,0,0,0,0,0,-1,657,435,0,0
-560,589,0,0,0,0,0,0,0,0,0,-1,664,435,0,0
-553,589,0,0,0,0,0,0,0,0,0,-1,671,435,0,0
-546,589,0,0,0,0,0,0,0,0,0,-1,678,435,0,0
-539,589,0,0,0,0,0,0,0,0,0,-1,685,435,0,0
-532,589,0,0,0,0,0,0,0,0,0,-1,692,435,0,0
-525,589,0,0,0,0,0,0,0,0,0,-1,699,435,0,0
-518,589,0,0,0,0,0,0,0,0,0,-1,706,435,0,0
-511,589,0,0,0,0,0,0,0,0,0,-1,713,435,0,0
-504,589,0,0,0,0,0,0,0,0,0,-1,720,435,0,0
-497,589,0,0,0,0,0,0,0,0,0,-1,727,435,0,0
-490,589,0,0,0,0,0,0,0,0,0,-1,734,435,0,0
-483,589,0,0,0,0,0,0,0,0,0,-1,741,435,0,0
-476,589,0,0,0,0,0,0,0,0,0,-1,748,435,0,0
-469,589,0,0,0,0,0,0,0,0,0,-1,755,435,0,0
-462,589,0,0,0,0,0,0,0,0,0,-1,762,435,0,0
-455,589,0,0,0,0,0,0,0,0,0,-1,769,435,0,0
-448,589,0,0,0,0,0,0,0,0,0,-1,776,435,0,0
-441,589,0,0,0,0,0,0,0,0,0,-1,783,435,0,0
-434,589,0,0,0,0,0,0,0,0,0,-1,790,435,0,0
-427,589,0,0,0,0,0,0,0,0,0,-1,797,435,0,0
-420,589,0,0,0,0,0,0,0,0,0,-1,804,435,0,0
-413,589,0,0,0,0,0,0,0,0,0,-1,811,435,0,0
-406,589,0,0,0,0,0,0,0,0,0,-1,818,435,0,0
-399,589,0,0,0,0,0,0,0,0,0,-1,825,435,0,0
-392,589,0,0,0,0,0,0,0,0,0,-1,832,435,0,0
-385,589,0,0,0,0,0,0,0,0,0,-1,839,435,0,0
-378,589,0,0,0,0,0,0,0,0,0,-1,846,435,0,0
-371,589,0,0,0,0,0,0,0,0,0,-1,853,435,0,0
-364,589,0,0,0,0,0,0,0,0,0,-1,860,435,0,0
-357,589,0,0,0,0,0,0,0,0,0,-1,867,435,0,0
-350,589,-5.74323,-18.0391,0,0,0,0,0,0,0,-1,874,435,-5.74325,18.0391
-343,589,-4.7887,-16.4395,0,0,0,0,0,0,0,-1,881,435,-4.78868,16.4395
-336,589,-3.74249,-14.758,0,0,0,0,0,0,0,-1,888,435,-3.74249,14.758
-329,589,-3.14648,-14.0188,0,0,0,0,0,0,0,-1,895,435,-3.14648,14.0188
-322,589,0.811951,-10.451,0,0,0,0,0,0,0,-1,902,435,0.811949,10.4511
-315,589,1.21869,-10.618,0,0,0,0,0,0,0,-1,909,435,1.21866,10.618
-308,589,1.89972,-10.8184,0,0,0,0,0,0,0,-1,916,435,1.89972,10.8184
-301,589,1.71313,-11.0771,0,0,0,0,0,0,0,-1,923,435,1.71312,11.0771
-294,589,2.25122,-11.0912,0,0,0,0,0,0,0,-1,930,435,2.25121,11.0912
-287,589,2.22479,-11.4098,0.00288952,-0.00194861,-0.00894009,0.00973205,-0.00879114,-0.653269,0.010699,0.0422497,937,435,2.22481,11.4098
-280,589,2.26947,-11.6937,8.48615e-05,-0.00111914,-0.00882737,0.00833074,-0.00936501,-0.751352,0.0102225,0.0321254,944,435,2.26949,11.6937
-273,589,2.22565,-11.9939,0,0,0,0,0,0,0,-1,951,435,2.22565,11.9939
-266,589,2.20099,-12.2534,-0.00354231,1.10658e-05,-0.0087784,0.00719077,-0.010722,-0.885246,0.0104087,0.0159729,958,435,2.20096,12.2534
-259,589,2.164,-12.4841,-0.00422636,5.83685e-05,-0.00785838,0.00606117,-0.0102292,-0.918475,0.0095073,0.0141544,965,435,2.16397,12.4841
-252,589,2.18005,-12.754,-0.00430758,-8.99845e-05,-0.00722821,0.00533076,-0.00972833,-0.927332,0.00881707,0.0099592,972,435,2.18003,12.754
-245,589,2.18365,-13.001,-0.00381929,-9.43599e-05,-0.00650271,0.00480735,-0.008721,-0.924871,0.00791879,0.00997627,979,435,2.18365,13.001
-238,589,2.15979,-13.2377,-0.00330052,5.07949e-05,-0.0055856,0.00420667,-0.0074564,-0.931125,0.00682025,0.0135532,986,435,2.15977,13.2377
-231,589,2.14099,-13.4509,-0.00278516,4.1222e-05,-0.0044839,0.00332936,-0.0060733,-0.938056,0.00550514,0.0144953,993,435,2.14097,13.4509
-224,589,2.11377,-13.6769,-0.00225025,9.24993e-05,-0.00335032,0.00247031,-0.00462806,-0.953571,0.00416089,0.0145226,1000,435,2.11378,13.6769
-217,589,2.11371,-13.905,-0.00169794,0.000131263,-0.00225404,0.00164919,-0.00321586,-0.978129,0.00285697,0.015904,1007,435,2.1137,13.905
-210,589,2.14105,-14.1039,-0.00111188,-5.72516e-05,-0.00137146,0.000884778,-0.00205391,-0.968931,0.00174083,0.0147933,1014,435,2.14106,14.1039
-203,589,2.12866,-14.287,-0.000616184,-0.000123454,-0.000787639,0.000455451,-0.00119509,-0.936972,0.000984317,0.0104436,1021,435,2.12867,14.287
-196,589,2.11157,-14.4824,-0.000224511,1.49689e-05,-0.000431536,0.00034307,-0.000552611,-0.92073,0.000521817,0.0122104,1028,435,2.11154,14.4824
-189,589,2.10632,-14.6919,0.000153764,0.000129573,4.43065e-06,0.00015455,0.000128787,0.175563,9.56095e-05,0.0153611,1035,435,2.10628,14.6919
-182,589,2.09863,-14.8503,0.000481504,3.869e-05,0.000225489,0.000576113,-5.59195e-05,0.397266,0.000404008,0.0117051,1042,435,2.09858,14.8502
-175,589,2.10803,-15.0327,0.000775599,-0.000425078,-3.63561e-05,0.000776699,-0.000426178,-0.0302427,0.000704242,0.015352,1049,435,2.10799,15.0327
-168,589,2.13708,-15.2476,0.00101575,-0.000728855,-0.00027,0.00105658,-0.000769686,-0.150087,0.00105872,0.0133805,1056,435,2.13704,15.2476
-161,589,2.14148,-15.425,0.00117492,-0.00100088,-0.000502135,0.00128522,-0.00111117,-0.216214,0.00138477,0.0124376,1063,435,2.14149,15.4251
-154,589,2.12793,-15.592,0.00138017,-0.00124358,-0.00067526,0.00154376,-0.00140717,-0.237681,0.00170433,0.0126476,1070,435,2.12791,15.592
-147,589,2.12378,-15.7443,0.00164193,-0.00164571,-0.00074942,0.0018047,-0.00180849,-0.213875,0.00208607,0.0125609,1077,435,2.12383,15.7443
-140,589,2.14026,-15.8811,0.00186108,-0.00215445,-0.000822853,0.00202315,-0.00231652,-0.194478,0.00250742,0.012669,1084,435,2.14029,15.8811
-133,589,2.15527,-16.0243,0.00203811,-0.00247936,-0.000785203,0.0021707,-0.00261195,-0.167281,0.00276518,0.0122677,1091,435,2.15529,16.0243
-126,589,2.1825,-16.1951,0.00240354,-0.00289766,-0.000672962,0.00248763,-0.00298175,-0.124318,0.00316205,0.0107494,1098,435,2.18255,16.1951
-119,589,2.2052,-16.3527,0.00290247,-0.00329035,-0.000690876,0.00297861,-0.00336648,-0.109763,0.00366562,0.0171348,1105,435,2.20525,16.3527
-112,589,2.20337,-16.4834,0.00347779,-0.00364572,-0.00076002,0.00355797,-0.0037259,-0.105115,0.00420572,0.0183042,1112,435,2.20333,16.4834
-105,589,2.22754,-16.6152,0.00403469,-0.00381144,-0.000905714,0.00413788,-0.00391464,-0.113447,0.00464972,0.0177129,1119,435,2.22759,16.6152
-98,589,2.29907,-16.6988,0.00484577,-0.00387048,-0.00070823,0.00490294,-0.00392765,-0.0805498,0.0051087,0.0185707,1126,435,2.29911,16.6988
-91,589,2.36438,-16.8103,0.0060058,-0.00441938,-0.000903039,0.00608344,-0.00449703,-0.0857697,0.00613148,0.0302727,1133,435,2.36433,16.8103
-84,589,2.38025,-17.2146,0,0,0,0,0,0,0,-1,1140,435,2.38022,17.2146
-77,589,2.18152,-14.8023,0,0,0,0,0,0,0,-1,1147,435,2.18155,14.8023
-70,589,1.48267,-9.90961,0,0,0,0,0,0,0,-1,1154,435,1.48264,9.9096
-63,589,0.880127,-5.50586,0,0,0,0,0,0,0,-1,1161,435,0.880186,5.50587
-56,589,-2.78052,-7.28082,0,0,0,0,0,0,0,-1,1168,435,-2.78053,7.28082
-49,589,-0.525757,-2.76703,0,0,0,0,0,0,0,-1,1175,435,-0.525771,2.76702
-42,589,-2.7738,-2.87921,0,0,0,0,0,0,0,-1,1182,435,-2.77383,2.87922
-35,589,-2.55225,-3.27551,0,0,0,0,0,0,0,-1,1189,435,-2.55223,3.27552
-28,589,-0.0632324,-3.42938,0,0,0,0,0,0,0,-1,1196,435,-0.063241,3.42938
-21,589,2.2981,-17.4422,0,0,0,0,0,0,0,-1,1203,435,2.29804,17.4422
-14,589,2.49597,-17.6122,0,0,0,0,0,0,0,-1,1210,435,2.49598,17.6122
-7,589,2.70923,-17.4132,0,0,0,0,0,0,0,-1,1217,435,2.70926,17.4132
0,589,3.05188,-16.2515,0,0,0,0,0,0,0,-1,1224,435,3.05189,16.2515
7,589,3.50916,-16.7768,0.0360971,-0.00417922,-0.00141663,0.0361469,-0.00422899,-0.0351149,0.0256242,0.0458577,1231,435,3.50916,16.7768
14,589,3.04187,-17.5226,0.050882,0.00013439,-0.0072934,0.0519094,-0.000893012,-0.139946,0.0349077,0.0492729,1238,435,3.0419,17.5226
21,589,3.03674,-17.6111,0.064011,0.0053181,-0.0138233,0.0671037,0.00222541,-0.220105,0.0440128,0.0455141,1245,435,3.03678,17.6111
28,589,2.98059,-17.7116,0,0,0,0,0,0,0,-1,1252,435,2.98058,17.7116
35,589,1.63879,-17.3724,0.0819093,0.00952358,-0.0263485,0.0904844,0.000948496,-0.314637,0.0600093,0.044966,1259,435,1.63877,17.3724
42,589,2.33704,-17.7794,0.0862256,0.00728016,-0.029706,0.0961547,-0.00264896,-0.322572,0.0650041,0.0473048,1266,435,2.33701,17.7794
49,589,3.0249,-18.1808,0.0864934,0.00554605,-0.0303169,0.0965888,-0.00454934,-0.321447,0.0659613,0.0467014,1273,435,3.02491,18.1808
56,589,3.4906,-19.0795,0.080662,0.00054344,-0.0292492,0.0902038,-0.0089983,-0.315337,0.0633487,0.0426274,1280,435,3.49064,19.0795
63,589,11.3127,-24.7866,0.0703972,-0.00604787,-0.0260189,0.0784125,-0.0140633,-0.298835,0.0575385,0.0443687,1287,435,11.3127,24.7866
70,589,10.0261,-22.6017,0,0,0,0,0,0,0,-1,1294,435,10.0262,22.6017
77,589,9.46216,-21.8771,0.0384157,-0.021481,-0.015358,0.042124,-0.0251893,-0.236924,0.0392712,0.0451618,1301,435,9.46221,21.8771
84,589,8.84326,-21.1477,0.019379,-0.0276796,-0.00875318,0.0209544,-0.029255,-0.178074,0.0291202,0.0396821,1308,435,8.84325,21.1477
91,589,8.26526,-20.3913,0.00240224,-0.0313389,-0.0037541,0.00281488,-0.0317516,-0.109478,0.0221657,0.040479,1315,435,8.26524,20.3913
98,589,7.18127,-13.2418,-0.0117684,-0.0342155,-0.00038543,-0.0117618,-0.0342221,-0.0171639,0.0200774,0.0464088,1322,435,7.18128,13.2418
105,589,6.3999,-14.1706,0,0,0,0,0,0,0,-1,1329,435,6.39988,14.1706
112,589,5.41492,-15.0734,0,0,0,0,0,0,0,-1,1336,435,5.41487,15.0734
119,589,4.41833,-15.6715,0,0,0,0,0,0,0,-1,1343,435,4.41837,15.6715
126,589,5.41968,-17.7125,0,0,0,0,0,0,0,-1,1350,435,5.41965,17.7125
133,589,4.41956,-17.5171,-0.0459823,-0.0296558,-0.00149988,-0.0295192,-0.0461189,-1.47994,0.0269728,0.0484606,1357,435,4.41959,17.5171
140,589,3.6582,-17.1527,-0.0450179,-0.0283854,-0.00439208,-0.0272968,-0.0461065,-1.32785,0.0267695,0.0456863,1364,435,3.65821,17.1527
147,589,3.27527,-16.9273,-0.0441684,-0.0281402,-0.00730304,-0.0253118,-0.0469969,-1.20129,0.0271606,0.0478192,1371,435,3.27522,16.9273
154,589,2.85754,-16.8148,0,0,0,0,0,0,0,-1,1378,435,2.85757,16.8148
161,589,4.30176,-16.5713,0,0,0,0,0,0,0,-1,1385,435,4.30175,16.5713
168,589,4.66797,-16.5305,0,0,0,0,0,0,0,-1,1392,435,4.66792,16.5306
175,589,8.66992,-7.65527,0,0,0,0,0,0,0,-1,1399,435,8.66994,7.65528
182,589,3.8136,-2.45389,0,0,0,0,0,0,0,-1,1406,435,3.81363,2.4539
189,589,3.69983,-3.68149,0,0,0,0,0,0,0,-1,1413,435,3.69987,3.68147
196,589,3.31055,-5.31677,0,0,0,0,0,0,0,-1,1420,435,3.31059,5.31678
203,589,2.72559,-8.84338,0,0,0,0,0,0,0,-1,1427,435,2.72558,8.84338
210,589,3.62378,-14.4032,0,0,0,0,0,0,0,-1,1434,435,3.62378,14.4032
217,589,3.91895,-16.438,0,0,0,0,0,0,0,-1,1441,435,3.91889,16.4381
224,589,3.91357,-16.2287,-0.00430061,0.0024622,-0.0059031,0.00588377,-0.00772218,-1.04549,0.00787927,0.0260887,1448,435,3.91355,16.2287
231,589,3.9563,-16.0898,-0.0038685,0.00307885,-0.00496216,0.00566235,-0.00645201,-1.09077,0.00699918,0.0201426,1455,435,3.95625,16.0898
238,589,3.98071,-15.9235,-0.00291137,0.00315052,-0.00406928,0.00519359,-0.00495444,-1.10549,0.00585951,0.0238142,1462,435,3.98075,15.9235
245,589,3.97388,-15.6919,-0.00185617,0.00325152,-0.00319626,0.00478891,-0.00339356,-1.12247,0.00474699,0.0209778,1469,435,3.97389,15.6919
252,589,3.9751,-15.5143,-0.000966735,0.00309535,-0.00239539,0.00420486,-0.00207624,-1.13703,0.00369516,0.012846,1476,435,3.97512,15.5143
259,589,3.9751,-15.3524,-0.00029753,0.00271643,-0.00172413,0.00349934,-0.00108044,-1.14454,0.00276435,0.00978475,1483,435,3.9751,15.3524
266,589,3.97864,-15.164,0.000268624,0.00238212,-0.00122044,0.00293974,-0.000288997,-1.14222,0.00206292,0.00987185,1490,435,3.97859,15.164
273,589,3.99756,-14.9903,0.000624578,0.0018774,-0.000899704,0.00234728,0.000154696,-1.0895,0.00151592,0.0120324,1497,435,3.99758,14.9903
280,589,4.00464,-14.8045,0.00106826,0.00135765,-0.000303688,0.00154935,0.000876556,-1.00772,0.000897093,0.0130209,1504,435,4.00468,14.8045
287,589,4.02295,-14.6299,0.00114779,0.00110691,-0.000168175,0.00129676,0.000957936,-0.724924,0.000776607,0.0115685,1511,435,4.02293,14.6299
294,589,4.01538,-14.4163,0.0010434,0.000767649,-4.37043e-05,0.00105016,0.000760887,-0.153484,0.000626358,0.0099644,1518,435,4.01544,14.4163
301,589,4.02124,-14.2106,0.000912346,0.000354411,0.000111546,0.00093382,0.000332937,0.190189,0.00054649,0.0108438,1525,435,4.02129,14.2106
308,589,4.03674,-14.0036,0.000811564,9.9662e-05,0.00031203,0.000928967,-1.77408e-05,0.35987,0.000625309,0.0107571,1532,435,4.03679,14.0036
315,589,4.02637,-13.7801,0.000729028,1.84268e-05,0.000556315,0.00103382,-0.000286367,0.501214,0.0008019,0.0106129,1539,435,4.02637,13.7801
322,589,4.04529,-13.5631,0.000602351,0.000117532,0.000846549,0.00124051,-0.000520631,0.645954,0.00104473,0.01161,1546,435,4.04525,13.5632
329,589,4.0415,-13.3539,0.000518491,0.000305747,0.00118984,0.0016067,-0.000782462,0.740816,0.00140648,0.0105292,1553,435,4.04148,13.3539
336,589,4.02148,-13.1295,0.000416042,0.000633497,0.00152885,0.00205749,-0.00100795,0.820897,0.00180407,0.00962219,1560,435,4.02146,13.1295
343,589,4.0177,-12.9005,0.000263672,0.00101273,0.00184931,0.00252506,-0.00124866,0.885309,0.00221991,0.0109302,1567,435,4.01774,12.9005
350,589,4.01465,-12.6618,0.00013399,0.00172211,0.00222642,0.00329183,-0.00143574,0.956693,0.00279871,0.0162834,1574,435,4.01462,12.6618
357,589,4.00708,-12.3911,-7.82328e-05,0.00242699,0.00257316,0.00403623,-0.00168747,1.01191,0.00339605,0.0130935,1581,435,4.00707,12.3911
364,589,4.00793,-12.1248,-0.000399624,0.00322247,0.00280876,0.00475343,-0.00193059,1.07175,0.00397208,0.010852,1588,435,4.00795,12.1249
371,589,4.00916,-11.8768,-0.000727532,0.00417182,0.0030061,0.00559997,-0.00215568,1.12728,0.00462257,0.0108593,1595,435,4.0091,11.8768
378,589,3.99634,-11.6067,-0.00120557,0.00501579,0.00307113,0.0062764,-0.00246618,1.1813,0.00520487,0.0122451,1602,435,3.99637,11.6067
385,589,3.9978,-11.3472,-0.00193305,0.0055823,0.00290177,0.00657229,-0.00292305,1.24201,0.00561547,0.0151046,1609,435,3.99775,11.3472
392,589,3.95728,-11.0263,-0.00264392,0.00628469,0.00253179,0.00695264,-0.00331187,1.31285,0.0060492,0.0180844,1616,435,3.95728,11.0263
399,589,3.89941,-10.6338,-0.00274841,0.00661418,0.00266239,0.00731831,-0.00345254,1.31224,0.00635066,0.0269121,1623,435,3.89935,10.6338
406,589,3.89331,-10.3178,0,0,0,0,0,0,0,-1,1630,435,3.89334,10.3178
413,589,3.65393,-10.1816,0,0,0,0,0,0,0,-1,1637,435,3.65396,10.1816
420,589,2.79724,-5.79956,0,0,0,0,0,0,0,-1,1644,435,2.7973,5.79955
427,589,2.87976,-5.28177,0,0,0,0,0,0,0,-1,1651,435,2.87972,5.28177
434,589,2.52734,-2.73029,0,0,0,0,0,0,0,-1,1658,435,2.52736,2.73029
441,589,3.17639,-2.02435,0,0,0,0,0,0,0,-1,1665,435,3.17643,2.02435
448,589,0.453735,-3.2868,0,0,0,0,0,0,0,-1,1672,435,0.453701,3.28681
455,589,0.664307,-3.46848,0,0,0,0,0,0,0,-1,1679,435,0.66425,3.46846
462,589,3.46716,-4.41891,0,0,0,0,0,0,0,-1,1686,435,3.4672,4.41891
469,589,0.0238037,-3.81497,0,0,0,0,0,0,0,-1,1693,435,0.0237965,3.81498
476,589,0,0,0,0,0,0,0,0,0,-1,1700,435,0,0
483,589,0,0,0,0,0,0,0,0,0,-1,1707,435,0,0
490,589,0,0,0,0,0,0,0,0,0,-1,1714,435,0,0
497,589,0,0,0,0,0,0,0,0,0,-1,1721,435,0,0
504,589,0,0,0,0,0,0,0,0,0,-1,1728,435,0,0
511,589,0,0,0,0,0,0,0,0,0,-1,1735,435,0,0
518,589,0,0,0,0,0,0,0,0,0,-1,1742,435,0,0
525,589,0,0,0,0,0,0,0,0,0,-1,1749,435,0,0
532,589,0,0,0,0,0,0,0,0,0,-1,1756,435,0,0
539,589,0,0,0,0,0,0,0,0,0,-1,1763,435,0,0
546,589,0,0,0,0,0,0,0,0,0,-1,1770,435,0,0
553,589,0,0,0,0,0,0,0,0,0,-1,1777,435,0,0
560,589,0,0,0,0,0,0,0,0,0,-1,1784,435,0,0
567,589,0,0,0,0,0,0,0,0,0,-1,1791,435,0,0
574,589,0,0,0,0,0,0,0,0,0,-1,1798,435,0,0
581,589,0,0,0,0,0,0,0,0,0,-1,1805,435,0,0
588,589,0,0,0,0,0,0,0,0,0,-1,1812,435,0,0
595,589,0,0,0,0,0,0,0,0,0,-1,1819,435,0,0
602,589,0,0,0,0,0,0,0,0,0,-1,1826,435,0,0
609,589,0,0,0,0,0,0,0,0,0,-1,1833,435,0,0
616,589,0,0,0,0,0,0,0,0,0,-1,1840,435,0,0
623,589,0,0,0,0,0,0,0,0,0,-1,1847,435,0,0
630,589,0,0,0,0,0,0,0,0,0,-1,1854,435,0,0
637,589,0,0,0,0,0,0,0,0,0,-1,1861,435,0,0
644,589,0,0,0,0,0,0,0,0,0,-1,1868,435,0,0
651,589,0,0,0,0,0,0,0,0,0,-1,1875,435,0,0
658,589,0,0,0,0,0,0,0,0,0,-1,1882,435,0,0
665,589,0,0,0,0,0,0,0,0,0,-1,1889,435,0,0
672,589,0,0,0,0,0,0,0,0,0,-1,1896,435,0,0
679,589,0,0,0,0,0,0,0,0,0,-1,1903,435,0,0
686,589,0,0,0,0,0,0,0,0,0,-1,1910,435,0,0
693,589,0,0,0,0,0,0,0,0,0,-1,1917,435,0,0
700,589,0,0,0,0,0,0,0,0,0,-1,1924,435,0,0
707,589,0,0,0,0,0,0,0,0,0,-1,1931,435,0,0
714,589,0,0,0,0,0,0,0,0,0,-1,1938,435,0,0
721,589,0,0,0,0,0,0,0,0,0,-1,1945,435,0,0
728,589,0,0,0,0,0,0,0,0,0,-1,1952,435,0,0
735,589,0,0,0,0,0,0,0,0,0,-1,1959,435,0,0
742,589,0,0,0,0,0,0,0,0,0,-1,1966,435,0,0
749,589,0,0,0,0,0,0,0,0,0,-1,1973,435,0,0
756,589,0,0,0,0,0,0,0,0,0,-1,1980,435,0,0
763,589,0,0,0,0,0,0,0,0,0,-1,1987,435,0,0
770,589,0,0,0,0,0,0,0,0,0,-1,1994,435,0,0
777,589,0,0,0,0,0,0,0,0,0,-1,2001,435,0,0
784,589,0,0,0,0,0,0,0,0,0,-1,2008,435,0,0
791,589,0,0,0,0,0,0,0,0,0,-1,2015,435,0,0
798,589,0,0,0,0,0,0,0,0,0,-1,2022,435,0,0
805,589,0,0,0,0,0,0,0,0,0,-1,2029,435,0,0
812,589,0,0,0,0,0,0,0,0,0,-1,2036,435,0,0
-700,582,0,0,0,0,0,0,0,0,0,-1,524,442,0,0
-693,582,0,0,0,0,0,0,0,0,0,-1,531,442,0,0
-686,582,0,0,0,0,0,0,0,0,0,-1,538,442,0,0
-679,582,0,0,0,0,0,0,0,0,0,-1,545,442,0,0
-672,582,0,0,0,0,0,0,0,0,0,-1,552,442,0,0
-665,582,0,0,0,0,0,0,0,0,0,-1,559,442,0,0
-658,582,0,0,0,0,0,0,0,0,0,-1,566,442,0,0
-651,582,0,0,0,0,0,0,0,0,0,-1,573,442,0,0
-644,582,0,0,0,0,0,0,0,0,0,-1,580,442,0,0
-637,582,0,0,0,0,0,0,0,0,0,-1,587,442,0,0
-630,582,0,0,0,0,0,0,0,0,0,-1,594,442,0,0
-623,582,0,0,0,0,0,0,0,0,0,-1,601,442,0,0
-616,582,0,0,0,0,0,0,0,0,0,-1,608,442,0,0
-609,582,0,0,0,0,0,0,0,0,0,-1,615,442,0,0
-602,582,0,0,0,0,0,0,0,0,0,-1,622,442,0,0
-595,582,0,0,0,0,0,0,0,0,0,-1,629,442,0,0
-588,582,0,0,0,0,0,0,0,0,0,-1,636,442,0,0
-581,582,0,0,0,0,0,0,0,0,0,-1,643,442,0,0
-574,582,0,0,0,0,0,0,0,0,0,-1,650,442,0,0
-567,582,0,0,0,0,0,0,0,0,0,-1,657,442,0,0
-560,582,0,0,0,0,0,0,0,0,0,-1,664,442,0,0
-553,582,0,0,0,0,0,0,0,0,0,-1,671,442,0,0
-546,582,0,0,0,0,0,0,0,0,0,-1,678,442,0,0
-539,582,0,0,0,0,0,0,0,0,0,-1,685,442,0,0
-532,582,0,0,0,0,0,0,0,0,0,-1,692,442,0,0
-525,582,0,0,0,0,0,0,0,0,0,-1,699,442,0,0
-518,582,0,0,0,0,0,0,0,0,0,-1,706,442,0,0
-511,582,0,0,0,0,0,0,0,0,0,-1,713,442,0,0
-504,582,0,0,0,0,0,0,0,0,0,-1,720,442,0,0
-497,582,0,0,0,0,0,0,0,0,0,-1,727,442,0,0
-490,582,0,0,0,0,0,0,0,0,0,-1,734,442,0,0
-483,582,0,0,0,0,0,0,0,0,0,-1,741,442,0,0
-476,582,0,0,0,0,0,0,0,0,0,-1,748,442,0,0
-469,582,0,0,0,0,0,0,0,0,0,-1,755,442,0,0
-462,582,0,0,0,0,0,0,0,0,0,-1,762,442,0,0
-455,582,0,0,0,0,0,0,0,0,0,-1,769,442,0,0
-448,582,0,0,0,0,0,0,0,0,0,-1,776,442,0,0
-441,582,0,0,0,0,0,0,0,0,0,-1,783,442,0,0
-434,582,0,0,0,0,0,0,0,0,0,-1,790,442,0,0
-427,582,0,0,0,0,0,0,0,0,0,-1,797,442,0,0
-420,582,0,0,0,0,0,0,0,0,0,-1,804,442,0,0
-413,582,0,0,0,0,0,0,0,0,0,-1,811,442,0,0
-406,582,0,0,0,0,0,0,0,0,0,-1,818,442,0,0
-399,582,0,0,0,0,0,0,0,0,0,-1,825,442,0,0
-392,582,0,0,0,0,0,0,0,0,0,-1,832,442,0,0
-385,582,0,0,0,0,0,0,0,0,0,-1,839,442,0,0
-378,582,0,0,0,0,0,0,0,0,0,-1,846,442,0,0
-371,582,0,0,0,0,0,0,0,0,0,-1,853,442,0,0
-364,582,0,0,0,0,0,0,0,0,0,-1,860,442,0,0
-357,582,6.4043,-4.18127,0,0,0,0,0,0,0,-1,867,442,6.40427,4.18126
-350,582,-1.12933,-15.713,0,0,0,0,0,0,0,-1,874,442,-1.12935,15.713
-343,582,-6.46735,-15.7183,0,0,0,0,0,0,0,-1,881,442,-6.46737,15.7183
-336,582,-6.42596,-13.6619,0,0,0,0,0,0,0,-1,888,442,-6.42598,13.6619
-329,582,0.824951,-10.3539,0,0,0,0,0,0,0,-1,895,442,0.824936,10.3539
-322,582,1.07269,-10.5278,0,0,0,0,0,0,0,-1,902,442,1.0727,10.5278
-315,582,1.41241,-10.6263,0.0199925,-0.00681441,-0.00377285,0.0205134,-0.00733528,-0.137192,0.0166677,0.0453506,909,442,1.41243,10.6263
-308,582,1.85248,-10.7174,0.0148063,-0.00379477,-0.00390637,0.0155934,-0.00458183,-0.198821,0.0122128,0.048908,916,442,1.85245,10.7174
-301,582,1.95197,-11.1715,0,0,0,0,0,0,0,-1,923,442,1.95194,11.1715
-294,582,2.03406,-11.3865,0.00627345,-0.00116852,-0.00421465,0.00817466,-0.00306973,-0.423763,0.00671126,0.044559,930,442,2.03407,11.3865
-287,582,2.08246,-11.463,0.00356871,-0.00113957,-0.0050352,0.00677291,-0.00434378,-0.566728,0.0064691,0.034218,937,442,2.08245,11.463
-280,582,2.05853,-11.7094,0.00157602,-0.000431343,-0.0049126,0.00558641,-0.00444174,-0.684631,0.00580232,0.0164084,944,442,2.0585,11.7094
-273,582,2.00677,-11.9662,-0.000306389,0.000361939,-0.00486582,0.00490505,-0.0048495,-0.819682,0.00563183,0.0104818,951,442,2.00676,11.9662
-266,582,1.97839,-12.2532,-0.00117427,0.000387796,-0.00492996,0.00459821,-0.00538468,-0.863958,0.00576958,0.00965613,958,442,1.97838,12.2532
-259,582,1.96661,-12.5219,-0.00170246,0.000305276,-0.0042547,0.00367293,-0.00507011,-0.901251,0.00506923,0.00820412,965,442,1.96663,12.5219
-252,582,1.96222,-12.7601,-0.00184152,2.00553e-05,-0.00385141,0.00305156,-0.00487302,-0.903962,0.00461537,0.00796183,972,442,1.96221,12.7601
-245,582,1.96063,-12.983,-0.00154809,-0.000181007,-0.00340822,0.00261154,-0.00434064,-0.884364,0.00405501,0.0108445,979,442,1.96064,12.983
-238,582,1.95135,-13.2125,-0.00121955,-0.000291754,-0.00285085,0.0021327,-0.003644,-0.866053,0.00337301,0.0150467,986,442,1.95136,13.2125
-231,582,1.95288,-13.4307,-0.000912003,-0.000576761,-0.00216038,0.00142249,-0.00291125,-0.824115,0.00255083,0.0125179,993,442,1.95286,13.4307
-224,582,1.94397,-13.6536,-0.000579402,-0.000753772,-0.00143642,0.000772472,-0.00210565,-0.755087,0.00172008,0.0108568,1000,442,1.944,13.6536
-217,582,1.93079,-13.8822,-0.000220757,-0.00093345,-0.000733905,0.000238739,-0.00139295,-0.559388,0.00101759,0.0130553,1007,442,1.93077,13.8822
-210,582,1.94739,-14.0851,0.00023247,-0.00126046,-0.000192681,0.000256936,-0.00128492,-0.126305,0.000953867,0.0129535,1014,442,1.94736,14.0851
-203,582,1.94434,-14.2892,0.00061443,-0.0014445,-8.98434e-06,0.000614469,-0.00144454,-0.00436349,0.00122054,0.0101926,1021,442,1.94436,14.2892
-196,582,1.93274,-14.4956,0.000877132,-0.00129863,3.61725e-05,0.000877733,-0.00129923,0.0166191,0.0012647,0.0158955,1028,442,1.93269,14.4956
-189,582,1.9259,-14.6979,0.00113088,-0.00117481,0.000126663,0.00113782,-0.00118175,0.0547156,0.00133928,0.0213204,1035,442,1.92592,14.6979
-182,582,1.91492,-14.8621,0.00137018,-0.00130286,6.20795e-05,0.00137162,-0.0013043,0.0232076,0.00154511,0.0137301,1042,442,1.91497,14.8621
-175,582,1.93286,-15.0284,0.00162356,-0.00157747,-0.000247549,0.00164259,-0.0015965,-0.0767264,0.00187015,0.0115878,1049,442,1.93286,15.0284
-168,582,1.95276,-15.226,0.00179,-0.00168207,-0.000560441,0.00187822,-0.00177029,-0.156133,0.00210678,0.0103547,1056,442,1.9528,15.226
-161,582,1.95068,-15.4201,0.00185201,-0.00182331,-0.000872736,0.00204872,-0.00202002,-0.22169,0.00234911,0.0119597,1063,442,1.95065,15.4201
-154,582,1.9436,-15.5893,0.00195485,-0.00199248,-0.00109262,0.00223711,-0.00227474,-0.2528,0.00260494,0.0117016,1070,442,1.94355,15.5893
-147,582,1.95142,-15.7458,0.00214603,-0.00235773,-0.00120537,0.00244833,-0.00266003,-0.245733,0.00295016,0.0117193,1077,442,1.95147,15.7457
-140,582,1.97339,-15.8741,0.00226851,-0.00286224,-0.00134492,0.00259968,-0.00319341,-0.241433,0.00335049,0.0125821,1084,442,1.97337,15.8741
-133,582,2.01074,-16.0224,0.0023147,-0.00317428,-0.00130546,0.00260937,-0.00346895,-0.221996,0.00352099,0.0140864,1091,442,2.0107,16.0224
-126,582,2.03735,-16.1557,0.00265965,-0.00362815,-0.00114638,0.00286214,-0.00383063,-0.174827,0.00387754,0.0121663,1098,442,2.03732,16.1557
-119,582,2.04395,-16.2578,0.00320466,-0.00417882,-0.0011574,0.00338184,-0.004356,-0.151903,0.00447923,0.0163493,1105,442,2.044,16.2578
-112,582,2.03662,-16.4027,0.00388912,-0.00469254,-0.00123921,0.00406448,-0.0048679,-0.140577,0.00516406,0.0249823,1112,442,2.03666,16.4027
-105,582,2.08167,-16.5344,0.00455193,-0.0049466,-0.00137484,0.00474692,-0.00514159,-0.140891,0.00571065,0.0333659,1119,442,2.0817,16.5344
-98,582,2.16541,-16.6531,0.00567557,-0.00500503,-0.000847601,0.00574241,-0.00507187,-0.0787025,0.00624763,0.0378496,1126,442,2.16541,16.6531
-91,582,2.20752,-16.7735,0,0,0,0,0,0,0,-1,1133,442,2.20749,16.7735
-84,582,2.10278,-16.7533,0,0,0,0,0,0,0,-1,1140,442,2.10279,16.7533
-77,582,2.30212,-11.4907,0,0,0,0,0,0,0,-1,1147,442,2.30207,11.4907
-70,582,1.49255,-6.36548,0,0,0,0,0,0,0,-1,1154,442,1.49251,6.36549
-63,582,-4.62915,-4.0347,0,0,0,0,0,0,0,-1,1161,442,-4.6292,4.03471
-56,582,-5.81714,-5.24149,0,0,0,0,0,0,0,-1,1168,442,-5.81718,5.24149
-49,582,-3.88672,-10.1064,0,0,0,0,0,0,0,-1,1175,442,-3.88678,10.1064
-42,582,-0.948975,1.13968,0,0,0,0,0,0,0,-1,1182,442,-0.949003,-1.13969
-35,582,-2.58435,-3.86911,0,0,0,0,0,0,0,-1,1189,442,-2.58437,3.86912
-28,582,-0.825317,-3.45941,0,0,0,0,0,0,0,-1,1196,442,-0.825377,3.45942
-21,582,2.19885,-17.6495,0,0,0,0,0,0,0,-1,1203,442,2.19882,17.6495
-14,582,2.46143,-17.4695,0,0,0,0,0,0,0,-1,1210,442,2.46148,17.4695
-7,582,2.72412,-17.2894,0,0,0,0,0,0,0,-1,1217,442,2.72415,17.2894
0,582,3.27417,-15.659,0,0,0,0,0,0,0,-1,1224,442,3.27411,15.659
7,582,3.69604,-16.2096,0,0,0,0,0,0,0,-1,1231,442,3.69599,16.2096
14,582,3.09485,-17.3969,0,0,0,0,0,0,0,-1,1238,442,3.09481,17.3969
21,582,3.11096,-17.5095,0,0,0,0,0,0,0,-1,1245,442,3.11092,17.5095
28,582,0.317627,-17.034,0.0782151,0.00411704,-0.0177178,0.0822338,9.8411e-05,-0.223039,0.0547897,0.0473136,1252,442,0.317623,17.034
35,582,0.975586,-17.4319,0.0854207,0.00467915,-0.0248353,0.0924482,-0.00234829,-0.275753,0.0624296,0.0481496,1259,442,0.975604,17.4319
42,582,1.61792,-17.8881,0.0889742,0.00167567,-0.0292418,0.0978639,-0.00721399,-0.295128,0.0677754,0.0494326,1266,442,1.61794,17.8881
49,582,2.34412,-18.3813,0.088121,-0.00128638,-0.0307348,0.0976672,-0.0108326,-0.301152,0.0690063,0.0466058,1273,442,2.34416,18.3813
56,582,12.6179,-24.4343,0.0804697,-0.00759119,-0.0300743,0.0897604,-0.0168819,-0.299624,0.0661891,0.0454076,1280,442,12.6179,24.4343
63,582,11.6814,-23.3069,0.06824,-0.0153151,-0.026993,0.0762016,-0.0232768,-0.286819,0.0600822,0.0419825,1287,442,11.6814,23.3069
70,582,10.9136,-22.1862,0.0515025,-0.0241578,-0.0224545,0.0576647,-0.03032,-0.267836,0.0516093,0.0430833,1294,442,10.9136,22.1861
77,582,10.1102,-20.6925,0.031651,-0.0325477,-0.0162066,0.0355103,-0.036407,-0.233776,0.0415225,0.0448261,1301,442,10.1102,20.6925
84,582,9.47632,-19.7961,0.0100012,-0.0392818,-0.00888703,0.0115548,-0.0408354,-0.173067,0.0317832,0.0413529,1308,442,9.47636,19.796
91,582,8.86377,-18.9795,-0.0087353,-0.0428415,-0.00350921,-0.00837799,-0.0431988,-0.101474,0.0264526,0.0431147,1315,442,8.86378,18.9795
98,582,9.26514,-15.4802,-0.0237137,-0.0453394,-0.000236634,-0.0237111,-0.045342,-0.0109405,0.0261874,0.0425846,1322,442,9.26514,15.4802
105,582,6.59875,-14.7236,0,0,0,0,0,0,0,-1,1329,442,6.59873,14.7236
112,582,5.60107,-14.7433,0,0,0,0,0,0,0,-1,1336,442,5.60111,14.7433
119,582,4.56067,-14.7604,0,0,0,0,0,0,0,-1,1343,442,4.56066,14.7604
126,582,5.68506,-18.0642,0,0,0,0,0,0,0,-1,1350,442,5.68503,18.0642
133,582,4.82739,-17.6354,-0.0572822,-0.0368994,-0.00420142,-0.0360673,-0.0581142,-1.37528,0.0338762,0.0498471,1357,442,4.82739,17.6354
140,582,4.01599,-17.059,-0.0558184,-0.0356934,-0.00789135,-0.0329681,-0.0585436,-1.23827,0.0338899,0.0483296,1364,442,4.016,17.0589
147,582,3.27197,-16.7045,0,0,0,0,0,0,0,-1,1371,442,3.27202,16.7045
154,582,1.78906,-16.3923,0,0,0,0,0,0,0,-1,1378,442,1.78901,16.3923
161,582,0.790283,-16.3468,0,0,0,0,0,0,0,-1,1385,442,0.790267,16.3468
168,582,23.4153,-14.5689,0,0,0,0,0,0,0,-1,1392,442,23.4152,14.5689
175,582,6.50549,-2.00424,0,0,0,0,0,0,0,-1,1399,442,6.50546,2.00425
182,582,5.18958,-2.18652,0,0,0,0,0,0,0,-1,1406,442,5.1896,2.18652
189,582,6.19751,-0.880951,0,0,0,0,0,0,0,-1,1413,442,6.19754,0.88096
196,582,4.87354,-2.22327,0,0,0,0,0,0,0,-1,1420,442,4.87348,2.22325
203,582,3.11401,-4.48257,0,0,0,0,0,0,0,-1,1427,442,3.11404,4.48259
210,582,2.93115,-11.0731,0,0,0,0,0,0,0,-1,1434,442,2.93113,11.0731
217,582,4.94092,-16.5476,0,0,0,0,0,0,0,-1,1441,442,4.94087,16.5476
224,582,4.73425,-16.256,-0.00741041,0.00376833,-0.00849922,0.00835137,-0.0119934,-1.07626,0.0118087,0.0474558,1448,442,4.7343,16.256
231,582,4.28491,-16.0005,-0.00641617,0.00449695,-0.00711611,0.00800772,-0.00992695,-1.11248,0.0103743,0.0408884,1455,442,4.28495,16.0005
238,582,4.13611,-15.8717,-0.00472885,0.00448666,-0.0057966,0.00728377,-0.00752595,-1.12121,0.00855078,0.044106,1462,442,4.13606,15.8717
245,582,4.13879,-15.8907,-0.00307561,0.00440296,-0.00460614,0.00659653,-0.00526918,-1.12635,0.00686494,0.0460505,1469,442,4.13876,15.8907
252,582,4.22595,-15.647,-0.00166613,0.00394867,-0.00348546,0.00561675,-0.00333421,-1.12443,0.00522355,0.0314764,1476,442,4.22596,15.647
259,582,4.13635,-15.4433,-0.000602988,0.00323059,-0.00258791,0.00453426,-0.00190666,-1.10415,0.00382042,0.0253167,1483,442,4.13636,15.4433
266,582,4.13123,-15.2379,0.000268948,0.00261585,-0.00193976,0.00370948,-0.000824685,-1.05742,0.00278883,0.0188188,1490,442,4.13126,15.2378
273,582,4.19836,-15.0274,0.00077771,0.00175289,-0.00155427,0.00289426,-0.000363656,-0.937392,0.00206144,0.0152761,1497,442,4.1984,15.0274
280,582,4.20166,-14.8393,0.00137309,0.000951864,-0.000853031,0.00204113,0.000283832,-0.664367,0.0012767,0.0119534,1504,442,4.2016,14.8393
287,582,4.23975,-14.6212,0.00138426,0.00060633,-0.000860374,0.00193951,5.10833e-05,-0.573103,0.00127632,0.011302,1511,442,4.23973,14.6212
294,582,4.24536,-14.4096,0.00117222,0.000135076,-0.000842687,0.00164311,-0.000335815,-0.509573,0.00122281,0.0092927,1518,442,4.2453,14.4096
301,582,4.25037,-14.2176,0.000940744,-0.000360254,-0.000791651,0.00131487,-0.000734382,-0.441482,0.00119886,0.0101645,1525,442,4.25039,14.2176
308,582,4.26367,-14.0037,0.000728986,-0.000653357,-0.000710671,0.00102916,-0.000953534,-0.399653,0.00114499,0.0128847,1532,442,4.26366,14.0037
315,582,4.2572,-13.7808,0.000539937,-0.000723286,-0.000576426,0.000763428,-0.000946777,-0.369874,0.000989277,0.0126049,1539,442,4.25722,13.7807
322,582,4.26978,-13.5571,0.000326249,-0.000598731,-0.000352701,0.00044539,-0.000717872,-0.325762,0.000677724,0.0102003,1546,442,4.26983,13.5571
329,582,4.26062,-13.3456,0.000181753,-0.000361035,-5.67719e-05,0.000187628,-0.000366909,-0.103106,0.000325692,0.0101758,1553,442,4.26059,13.3456
336,582,4.25659,-13.1172,6.12507e-05,-1.32853e-05,0.000272245,0.000298767,-0.000250801,0.717375,0.000317696,0.0106876,1560,442,4.25657,13.1172
343,582,4.26123,-12.8743,-9.91127e-05,0.000411758,0.000610528,0.000818132,-0.000505487,0.983525,0.000771265,0.0131563,1567,442,4.26123,12.8743
350,582,4.25427,-12.6404,-0.000217896,0.00102751,0.000992959,0.00157686,-0.000767254,1.06546,0.00138002,0.0158089,1574,442,4.2543,12.6404
357,582,4.25452,-12.3794,-0.000344581,0.00165671,0.00136977,0.0023524,-0.00104027,1.10086,0.00200699,0.0133056,1581,442,4.25452,12.3794
364,582,4.24768,-12.1286,-0.000535526,0.00235304,0.00166994,0.00311662,-0.0012991,1.14193,0.00262041,0.010575,1588,442,4.24772,12.1286
371,582,4.22888,-11.8714,-0.000739859,0.00306642,0.0019603,0.00389545,-0.00156889,1.1707,0.00324876,0.0138108,1595,442,4.22889,11.8714
378,582,4.21851,-11.6231,-0.0010518,0.00371664,0.00214788,0.00454145,-0.00187661,1.20415,0.00381045,0.0149221,1602,442,4.21854,11.6231
385,582,4.21216,-11.3666,-0.00151073,0.00416196,0.00208811,0.00484769,-0.00219646,1.25349,0.00416185,0.0110942,1609,442,4.21212,11.3666
392,582,4.18188,-11.1013,-0.00190186,0.00462438,0.00191132,0.00514293,-0.00242041,1.30586,0.00446001,0.0100369,1616,442,4.18191,11.1013
399,582,4.14429,-10.83,-0.00188106,0.0048582,0.00208118,0.00544909,-0.00247195,1.29416,0.00467965,0.0152823,1623,442,4.14431,10.83
406,582,4.14258,-10.4592,-0.00155869,0.00564448,0.00272772,0.00656084,-0.00247505,1.2467,0.00539172,0.0243689,1630,442,4.14255,10.4592
413,582,4.05688,-10.1713,-0.00150115,0.00611625,0.00307851,0.00720484,-0.00258974,1.23091,0.00586042,0.0405153,1637,442,4.05683,10.1713
420,582,4.01758,-9.84445,0,0,0,0,0,0,0,-1,1644,442,4.01763,9.84445
427,582,4.01575,-9.66815,0,0,0,0,0,0,0,-1,1651,442,4.01571,9.66816
434,582,3.71667,-9.44888,0,0,0,0,0,0,0,-1,1658,442,3.71666,9.44889
441,582,3.68677,-8.97913,0,0,0,0,0,0,0,-1,1665,442,3.68682,8.97912
448,582,1.52722,-2.85928,0,0,0,0,0,0,0,-1,1672,442,1.52724,2.85927
455,582,3.6698,-4.4032,0,0,0,0,0,0,0,-1,1679,442,3.66983,4.40319
462,582,1.38074,-3.94418,0,0,0,0,0,0,0,-1,1686,442,1.38074,3.94419
469,582,2.78467,-8.67245,0,0,0,0,0,0,0,-1,1693,442,2.78466,8.67245
476,582,1.93579,-8.53891,0,0,0,0,0,0,0,-1,1700,442,1.93579,8.53892
483,582,0,0,0,0,0,0,0,0,0,-1,1707,442,0,0
490,582,0,0,0,0,0,0,0,0,0,-1,1714,442,0,0
497,582,0,0,0,0,0,0,0,0,0,-1,1721,442,0,0
504,582,0,0,0,0,0,0,0,0,0,-1,1728,442,0,0
511,582,0,0,0,0,0,0,0,0,0,-1,1735,442,0,0
518,582,0,0,0,0,0,0,0,0,0,-1,1742,442,0,0
525,582,0,0,0,0,0,0,0,0,0,-1,1749,442,0,0
532,582,0,0,0,0,0,0,0,0,0,-1,1756,442,0,0
539,582,0,0,0,0,0,0,0,0,0,-1,1763,442,0,0
546,582,0,0,0,0,0,0,0,0,0,-1,1770,442,0,0
553,582,0,0,0,0,0,0,0,0,0,-1,1777,442,0,0
560,582,0,0,0,0,0,0,0,0,0,-1,1784,442,0,0
567,582,0,0,0,0,0,0,0,0,0,-1,1791,442,0,0
574,582,0,0,0,0,0,0,0,0,0,-1,1798,442,0,0
581,582,0,0,0,0,0,0,0,0,0,-1,1805,442,0,0
588,582,0,0,0,0,0,0,0,0,0,-1,1812,442,0,0
595,582,0,0,0,0,0,0,0,0,0,-1,1819,442,0,0
602,582,0,0,0,0,0,0,0,0,0,-1,1826,442,0,0
609,582,0,0,0,0,0,0,0,0,0,-1,1833,442,0,0
616,582,0,0,0,0,0,0,0,0,0,-1,1840,442,0,0
623,582,0,0,0,0,0,0,0,0,0,-1,1847,442,0,0
630,582,0,0,0,0,0,0,0,0,0,-1,1854,442,0,0
637,582,0,0,0,0,0,0,0,0,0,-1,1861,442,0,0
644,582,0,0,0,0,0,0,0,0,0,-1,1868,442,0,0
651,582,0,0,0,0,0,0,0,0,0,-1,1875,442,0,0
658,582,0,0,0,0,0,0,0,0,0,-1,1882,442,0,0
665,582,0,0,0,0,0,0,0,0,0,-1,1889,442,0,0
672,582,0,0,0,0,0,0,0,0,0,-1,1896,442,0,0
679,582,0,0,0,0,0,0,0,0,0,-1,1903,442,0,0
686,582,0,0,0,0,0,0,0,0,0,-1,1910,442,0,0
693,582,0,0,0,0,0,0,0,0,0,-1,1917,442,0,0
700,582,0,0,0,0,0,0,0,0,0,-1,1924,442,0,0
707,582,0,0,0,0,0,0,0,0,0,-1,1931,442,0,0
714,582,0,0,0,0,0,0,0,0,0,-1,1938,442,0,0
721,582,0,0,0,0,0,0,0,0,0,-1,1945,442,0,0
728,582,0,0,0,0,0,0,0,0,0,-1,1952,442,0,0
735,582,0,0,0,0,0,0,0,0,0,-1,1959,442,0,0
742,582,0,0,0,0,0,0,0,0,0,-1,1966,442,0,0
749,582,0,0,0,0,0,0,0,0,0,-1,1973,442,0,0
756,582,0,0,0,0,0,0,0,0,0,-1,1980,442,0,0
763,582,0,0,0,0,0,0,0,0,0,-1,1987,442,0,0
770,582,0,0,0,0,0,0,0,0,0,-1,1994,442,0,0
777,582,0,0,0,0,0,0,0,0,0,-1,2001,442,0,0
784,582,0,0,0,0,0,0,0,0,0,-1,2008,442,0,0
791,582,0,0,0,0,0,0,0,0,0,-1,2015,442,0,0
798,582,0,0,0,0,0,0,0,0,0,-1,2022,442,0,0
805,582,0,0,0,0,0,0,0,0,0,-1,2029,442,0,0
812,582,0,0,0,0,0,0,0,0,0,-1,2036,442,0,0
-700,575,0,0,0,0,0,0,0,0,0,-1,524,449,0,0
-693,575,0,0,0,0,0,0,0,0,0,-1,531,449,0,0
-686,575,0,0,0,0,0,0,0,0,0,-1,538,449,0,0
-679,575,0,0,0,0,0,0,0,0,0,-1,545,449,0,0
-672,575,0,0,0,0,0,0,0,0,0,-1,552,449,0,0
-665,575,0,0,0,0,0,0,0,0,0,-1,559,449,0,0
-658,575,0,0,0,0,0,0,0,0,0,-1,566,449,0,0
-651,575,0,0,0,0,0,0,0,0,0,-1,573,449,0,0
-644,575,0,0,0,0,0,0,0,0,0,-1,580,449,0,0
-637,575,0,0,0,0,0,0,0,0,0,-1,587,449,0,0
-630,575,0,0,0,0,0,0,0,0,0,-1,594,449,0,0
-623,575,0,0,0,0,0,0,0,0,0,-1,601,449,0,0
-616,575,0,0,0,0,0,0,0,0,0,-1,608,449,0,0
-609,575,0,0,0,0,0,0,0,0,0,-1,615,449,0,0
-602,575,0,0,0,0,0,0,0,0,0,-1,622,449,0,0
-595,575,0,0,0,0,0,0,0,0,0,-1,629,449,0,0
-588,575,0,0,0,0,0,0,0,0,0,-1,636,449,0,0
-581,575,0,0,0,0,0,0,0,0,0,-1,643,449,0,0
-574,575,0,0,0,0,0,0,0,0,0,-1,650,449,0,0
-567,575,0,0,0,0,0,0,0,0,0,-1,657,449,0,0
-560,575,0,0,0,0,0,0,0,0,0,-1,664,449,0,0
-553,575,0,0,0,0,0,0,0,0,0,-1,671,449,0,0
-546,575,0,0,0,0,0,0,0,0,0,-1,678,449,0,0
-539,575,0,0,0,0,0,0,0,0,0,-1,685,449,0,0
-532,575,0,0,0,0,0,0,0,0,0,-1,692,449,0,0
-525,575,0,0,0,0,0,0,0,0,0,-1,699,449,0,0
-518,575,0,0,0,0,0,0,0,0,0,-1,706,449,0,0
-511,575,0,0,0,0,0,0,0,0,0,-1,713,449,0,0
-504,575,0,0,0,0,0,0,0,0,0,-1,720,449,0,0
-497,575,0,0,0,0,0,0,0,0,0,-1,727,449,0,0
-490,575,0,0,0,0,0,0,0,0,0,-1,734,449,0,0
-483,575,0,0,0,0,0,0,0,0,0,-1,741,449,0,0
-476,575,0,0,0,0,0,0,0,0,0,-1,748,449,0,0
-469,575,0,0,0,0,0,0,0,0,0,-1,755,449,0,0
-462,575,0,0,0,0,0,0,0,0,0,-1,762,449,0,0
-455,575,0,0,0,0,0,0,0,0,0,-1,769,449,0,0
-448,575,0,0,0,0,0,0,0,0,0,-1,776,449,0,0
-441,575,0,0,0,0,0,0,0,0,0,-1,783,449,0,0
-434,575,0,0,0,0,0,0,0,0,0,-1,790,449,0,0
-427,575,0,0,0,0,0,0,0,0,0,-1,797,449,0,0
-420,575,0,0,0,0,0,0,0,0,0,-1,804,449,0,0
-413,575,0,0,0,0,0,0,0,0,0,-1,811,449,0,0
-406,575,0,0,0,0,0,0,0,0,0,-1,818,449,0,0
-399,575,0,0,0,0,0,0,0,0,0,-1,825,449,0,0
-392,575,0,0,0,0,0,0,0,0,0,-1,832,449,0,0
-385,575,0,0,0,0,0,0,0,0,0,-1,839,449,0,0
-378,575,0,0,0,0,0,0,0,0,0,-1,846,449,0,0
-371,575,0.56897,-3.52304,0,0,0,0,0,0,0,-1,853,449,0.568955,3.52306
-364,575,1.49805,-4.67191,0,0,0,0,0,0,0,-1,860,449,1.49803,4.6719
-357,575,3.15521,-8.29892,0,0,0,0,0,0,0,-1,867,449,3.15521,8.29891
-350,575,2.76715,-7.23752,0,0,0,0,0,0,0,-1,874,449,2.76717,7.2375
-343,575,0.6922,-9.68082,0,0,0,0,0,0,0,-1,881,449,0.692185,9.68081
-336,575,2.71558,-9.66815,0,0,0,0,0,0,0,-1,888,449,2.7156,9.66814
-329,575,1.4303,-10.6958,0,0,0,0,0,0,0,-1,895,449,1.43032,10.6958
-322,575,1.89929,-10.5552,0,0,0,0,0,0,0,-1,902,449,1.89929,10.5552
-315,575,1.88934,-10.5486,0.0139011,-0.00576925,-0.00192394,0.0140875,-0.00595567,-0.0965896,0.0118852,0.0437652,909,449,1.88937,10.5486
-308,575,1.89514,-10.7675,0.0103971,-0.00340019,-0.00229268,0.0107681,-0.00377119,-0.160428,0.00871223,0.0438479,916,449,1.89515,10.7675
-301,575,1.88916,-10.9946,0.0072414,-0.00183455,-0.00226719,0.00777623,-0.00236938,-0.231666,0.00612857,0.0330257,923,449,1.88918,10.9946
-294,575,1.85852,-11.2303,0.00489295,-0.000947757,-0.00250797,0.00582206,-0.00187687,-0.354787,0.00463543,0.0242157,930,449,1.85855,11.2303
-287,575,1.83966,-11.4787,0.00327704,-0.000541168,-0.00278181,0.00474183,-0.00200595,-0.484668,0.00400115,0.0173243,937,449,1.83969,11.4787
-280,575,1.81293,-11.7383,0.00193799,-2.78108e-06,-0.00262348,0.0037648,-0.00182959,-0.608259,0.0032937,0.0130375,944,449,1.81294,11.7383
-273,575,1.78082,-11.9904,0.000560638,0.000584795,-0.00251464,0.00308739,-0.00194195,-0.7878,0.00292869,0.0109776,951,449,1.78083,11.9903
-266,575,1.776,-12.2831,-3.99097e-05,0.000498363,-0.00252017,0.00276372,-0.00230527,-0.838593,0.00293057,0.0118212,958,449,1.77599,12.2831
-259,575,1.76648,-12.5423,-0.000384875,0.000302424,-0.00194654,0.00193541,-0.00201787,-0.87277,0.00228259,0.0118571,965,449,1.7665,12.5423
-252,575,1.74066,-12.759,-0.000505396,-8.25571e-05,-0.00161438,0.00133419,-0.00192214,-0.850508,0.00189023,0.0108455,972,449,1.74069,12.759
-245,575,1.73584,-12.9742,-0.000306532,-0.000434076,-0.00127284,0.000904135,-0.00164474,-0.760368,0.00149216,0.0137125,979,449,1.73585,12.9742
-238,575,1.7522,-13.1908,-5.23592e-05,-0.00077162,-0.000908488,0.00056509,-0.00138907,-0.596934,0.00116118,0.0140818,986,449,1.7522,13.1908
-231,575,1.745,-13.4157,0.00016449,-0.00131355,-0.000481951,0.000307755,-0.00145681,-0.288942,0.0010884,0.0124118,993,449,1.74502,13.4158
-224,575,1.71722,-13.6445,0.000419263,-0.00170572,-2.57432e-05,0.000419575,-0.00170604,-0.0121122,0.00129998,0.012424,1000,449,1.7172,13.6445
-217,575,1.72571,-13.8595,0.000712635,-0.00209375,0.000414143,0.000772475,-0.00215359,0.143497,0.00175097,0.0100678,1007,449,1.72573,13.8595
-210,575,1.74481,-14.0967,0.00115438,-0.00256955,0.000715807,0.00128724,-0.0027024,0.183509,0.00235122,0.00856095,1014,449,1.7448,14.0967
-203,575,1.7464,-14.29,0.00152424,-0.00289451,0.000564229,0.00159515,-0.00296542,0.125018,0.00267237,0.0119061,1021,449,1.74638,14.29
-196,575,1.74707,-14.4872,0.00174158,-0.00273697,0.00035068,0.00176887,-0.00276426,0.0776713,0.00263815,0.0164721,1028,449,1.74705,14.4872
-189,575,1.74878,-14.6953,0.00199287,-0.00259591,0.000160109,0.00199845,-0.00260149,0.0348349,0.00266338,0.0174589,1035,449,1.74884,14.6953
-182,575,1.72534,-14.8683,0.00222539,-0.00273426,-0.000148831,0.00222985,-0.00273872,-0.0299724,0.00287362,0.0144141,1042,449,1.72536,14.8683
-175,575,1.74548,-15.0499,0.00242068,-0.00281649,-0.000562496,0.00248042,-0.00287622,-0.105797,0.00309547,0.0118493,1049,449,1.7455,15.0499
-168,575,1.75586,-15.2272,0.00247916,-0.00269691,-0.00101847,0.00267235,-0.00289009,-0.187458,0.0032123,0.0102362,1056,449,1.75581,15.2272
-161,575,1.76709,-15.4127,0.00239509,-0.00265033,-0.00148017,0.00279727,-0.0030525,-0.265305,0.00337844,0.0138155,1063,449,1.76709,15.4127
-154,575,1.77966,-15.5557,0.00232981,-0.0026625,-0.00181026,0.00291713,-0.00324982,-0.313726,0.00356222,0.0161431,1070,449,1.77972,15.5557
-147,575,1.82446,-15.6488,0.00238091,-0.00292345,-0.00200254,0.00305201,-0.00359455,-0.323364,0.00384166,0.0167965,1077,449,1.82447,15.6488
-140,575,1.81274,-15.7503,0.00231805,-0.00336021,-0.0022378,0.00309395,-0.00413611,-0.333752,0.00418871,0.026809,1084,449,1.81276,15.7503
-133,575,1.90735,-15.9326,0.00207345,-0.00358476,-0.00219157,0.002823,-0.00433431,-0.329546,0.00416287,0.0350065,1091,449,1.90733,15.9326
-126,575,1.95667,-15.9333,0.0023423,-0.00407752,-0.00197403,0.00290072,-0.00463594,-0.275681,0.00438957,0.0390611,1098,449,1.95661,15.9333
-119,575,1.99939,-16.0519,0,0,0,0,0,0,0,-1,1105,449,1.99934,16.0519
-112,575,1.92944,-16.2596,0,0,0,0,0,0,0,-1,1112,449,1.92949,16.2596
-105,575,1.92969,-16.4659,0,0,0,0,0,0,0,-1,1119,449,1.92975,16.4659
-98,575,2.05688,-16.5475,0,0,0,0,0,0,0,-1,1126,449,2.05691,16.5475
-91,575,1.60803,-16.4247,0,0,0,0,0,0,0,-1,1133,449,1.60802,16.4247
-84,575,1.16553,-11.9056,0,0,0,0,0,0,0,-1,1140,449,1.16558,11.9056
-77,575,0.205078,-11.2584,0,0,0,0,0,0,0,-1,1147,449,0.205117,11.2584
-70,575,-4.2467,-1.78738,0,0,0,0,0,0,0,-1,1154,449,-4.24674,1.78739
-63,575,-4.52209,-3.48798,0,0,0,0,0,0,0,-1,1161,449,-4.5221,3.48796
-56,575,-5.5968,-5.4928,0,0,0,0,0,0,0,-1,1168,449,-5.59683,5.49281
-49,575,-5.96863,-7.17612,0,0,0,0,0,0,0,-1,1175,449,-5.96868,7.1761
-42,575,-0.830322,0.773499,0,0,0,0,0,0,0,-1,1182,449,-0.83038,-0.77351
-35,575,-0.62085,0.205139,0,0,0,0,0,0,0,-1,1189,449,-0.620855,-0.205126
-28,575,0.49292,-3.87988,0,0,0,0,0,0,0,-1,1196,449,0.492941,3.87989
-21,575,4.17065,-17.2032,0,0,0,0,0,0,0,-1,1203,449,4.17064,17.2032
-14,575,2.38428,-17.2812,0,0,0,0,0,0,0,-1,1210,449,2.38433,17.2812
-7,575,2.41675,-18.3665,0.0160128,-0.0299334,0.0213403,0.0243953,-0.0383159,0.374285,0.0365024,0.0435566,1217,449,2.41676,18.3665
0,575,2.36902,-18.1282,0,0,0,0,0,0,0,-1,1224,449,2.369,18.1282
7,575,3.90198,-15.6399,0,0,0,0,0,0,0,-1,1231,449,3.902,15.6399
14,575,14.4169,-27.9909,0,0,0,0,0,0,0,-1,1238,449,14.4169,27.9909
21,575,-0.960571,-16.7368,0,0,0,0,0,0,0,-1,1245,449,-0.960548,16.7368
28,575,-0.361694,-17.0908,0,0,0,0,0,0,0,-1,1252,449,-0.361722,17.0908
35,575,0.325195,-17.5168,0,0,0,0,0,0,0,-1,1259,449,0.325244,17.5168
42,575,0.907227,-18.3292,0.0827972,-0.00879334,-0.0246945,0.089031,-0.0150272,-0.247271,0.0649452,0.0446069,1266,449,0.907279,18.3292
49,575,1.57214,-19.1665,0.0802838,-0.013352,-0.0274483,0.0877368,-0.020805,-0.265134,0.0665197,0.0448823,1273,449,1.5722,19.1665
56,575,2.28491,-19.9305,0,0,0,0,0,0,0,-1,1280,449,2.28486,19.9305
63,575,12.1312,-21.846,0.0569969,-0.0295939,-0.0253057,0.06385,-0.036447,-0.264468,0.0586225,0.0424912,1287,449,12.1312,21.846
70,575,11.3817,-20.7506,0.0390333,-0.0389357,-0.0217132,0.0446723,-0.0445747,-0.254089,0.0515268,0.0426379,1294,449,11.3817,20.7506
77,575,10.4866,-19.66,0.0179692,-0.0475369,-0.0160669,0.0216977,-0.0512655,-0.228029,0.0432629,0.043149,1301,449,10.4865,19.66
84,575,9.82129,-18.6545,-0.00526203,-0.0543152,-0.00853908,-0.00381807,-0.0557591,-0.167516,0.0359677,0.0419746,1308,449,9.82124,18.6545
91,575,9.08459,-17.5669,-0.0247141,-0.0572721,-0.00320898,-0.0244008,-0.0575853,-0.0973143,0.0333756,0.0447236,1315,449,9.08458,17.5669
98,575,8.1637,-14.5891,-0.0394331,-0.0588844,-0.000418852,-0.0394241,-0.0588935,-0.0215201,0.0346466,0.0406551,1322,449,8.16374,14.5891
105,575,6.78369,-14.5744,-0.0540717,-0.0584943,0.000925451,-0.0538858,-0.0586801,0.198181,0.0376239,0.0438673,1329,449,6.78374,14.5744
112,575,5.79016,-14.4991,-0.0660966,-0.0618672,0.00547465,-0.058113,-0.0698508,0.969705,0.0431896,0.0465355,1336,449,5.79022,14.499
119,575,4.77942,-14.5599,-0.0716645,-0.0539684,0.00161181,-0.0538228,-0.0718101,1.4807,0.0431461,0.0450762,1343,449,4.77936,14.5599
126,575,5.70679,-17.8689,0,0,0,0,0,0,0,-1,1350,449,5.70673,17.8689
133,575,4.95276,-17.3726,-0.0685844,-0.0449141,-0.00825028,-0.0423222,-0.0711763,-1.26641,0.0413381,0.0499786,1357,449,4.95274,17.3726
140,575,4.22864,-16.8953,-0.0663657,-0.0438151,-0.0128285,-0.038011,-0.0721698,-1.14592,0.041687,0.0498245,1364,449,4.22869,16.8953
147,575,3.06335,-16.2552,-0.0637818,-0.0449163,-0.0166048,-0.035252,-0.0734461,-1.04371,0.0424155,0.0487741,1371,449,3.06331,16.2552
154,575,2.12476,-15.9286,-0.0597915,-0.0448049,-0.0182465,-0.032573,-0.0720235,-0.980233,0.0416459,0.0458909,1378,449,2.12474,15.9286
161,575,1.45227,-15.7781,0,0,0,0,0,0,0,-1,1385,449,1.45227,15.7781
168,575,0.931152,-15.5912,0,0,0,0,0,0,0,-1,1392,449,0.931185,15.5912
175,575,4.32617,1.93634,0,0,0,0,0,0,0,-1,1399,449,4.32612,-1.93634
182,575,6.3147,-2.88345,0,0,0,0,0,0,0,-1,1406,449,6.31466,2.88346
189,575,6.10449,-1.30817,0,0,0,0,0,0,0,-1,1413,449,6.10455,1.30817
196,575,5.79895,0.818359,0,0,0,0,0,0,0,-1,1420,449,5.79895,-0.81837
203,575,3.29724,-1.46378,0,0,0,0,0,0,0,-1,1427,449,3.29722,1.46377
210,575,2.32739,-7.74503,0,0,0,0,0,0,0,-1,1434,449,2.32741,7.74502
217,575,3.33618,-11.5521,0,0,0,0,0,0,0,-1,1441,449,3.3362,11.5521
224,575,5.51709,-16.3903,0,0,0,0,0,0,0,-1,1448,449,5.51713,16.3903
231,575,4.66418,-16.0732,0,0,0,0,0,0,0,-1,1455,449,4.6642,16.0732
238,575,4.52087,-15.9547,0,0,0,0,0,0,0,-1,1462,449,4.52092,15.9547
245,575,4.44092,-16.2373,0,0,0,0,0,0,0,-1,1469,449,4.44088,16.2373
252,575,4.47864,-15.9652,0,0,0,0,0,0,0,-1,1476,449,4.4786,15.9652
259,575,4.3551,-15.7409,0,0,0,0,0,0,0,-1,1483,449,4.35508,15.7409
266,575,4.29712,-15.4452,0,0,0,0,0,0,0,-1,1490,449,4.29716,15.4452
273,575,4.36096,-15.1244,0,0,0,0,0,0,0,-1,1497,449,4.36092,15.1244
280,575,4.37781,-14.8646,0,0,0,0,0,0,0,-1,1504,449,4.37782,14.8646
287,575,4.38892,-14.6315,0.00162257,0.000143804,-0.00148414,0.00254131,-0.000774936,-0.5543,0.00200312,0.0190004,1511,449,4.38895,14.6315
294,575,4.45508,-14.4132,0.00126628,-0.000563217,-0.00159606,0.00219115,-0.00148808,-0.525184,0.00213709,0.0106691,1518,449,4.45507,14.4132
301,575,4.47205,-14.2153,0.000912917,-0.00122127,-0.00165393,0.00181412,-0.00212247,-0.498906,0.00227511,0.00987996,1525,449,4.472,14.2153
308,575,4.48254,-14.0061,0.000556862,-0.00164224,-0.00169567,0.00147827,-0.00256365,-0.497757,0.00236149,0.0105062,1532,449,4.48258,14.0061
315,575,4.47803,-13.7823,0.000244232,-0.00177029,-0.00165836,0.00117726,-0.00270333,-0.512482,0.00229748,0.0106624,1539,449,4.47802,13.7823
322,575,4.50037,-13.5725,-5.76001e-05,-0.00166389,-0.0014828,0.000825593,-0.00254708,-0.537197,0.00203001,0.00946417,1546,449,4.50035,13.5725
329,575,4.4978,-13.3467,-0.000262914,-0.00139616,-0.00121755,0.000513405,-0.00217248,-0.567614,0.00164636,0.0103048,1553,449,4.49774,13.3467
336,575,4.4762,-13.1119,-0.000411908,-0.00102171,-0.000891489,0.00022538,-0.00165899,-0.620628,0.00118827,0.0122978,1560,449,4.4762,13.1119
343,575,4.50293,-12.8637,-0.000582107,-0.000540048,-0.000531847,-2.88152e-05,-0.00109334,-0.805158,0.000719481,0.0122264,1567,449,4.50287,12.8637
350,575,4.51379,-12.6263,-0.000659569,3.8597e-05,-0.000119226,5.8396e-05,-0.000679368,-1.40624,0.000473579,0.011534,1574,449,4.51382,12.6262
357,575,4.51233,-12.3808,-0.000702121,0.000655095,0.000291276,0.000714966,-0.000761991,1.36807,0.000852866,0.0110289,1581,449,4.51237,12.3808
364,575,4.49976,-12.1281,-0.00077227,0.00132296,0.000656519,0.00151167,-0.000960987,1.29089,0.00143934,0.0105905,1588,449,4.49971,12.1281
371,575,4.48816,-11.8707,-0.000861137,0.00194461,0.00101812,0.00227512,-0.00119165,1.2569,0.00203386,0.0184102,1595,449,4.48816,11.8707
378,575,4.47388,-11.6164,-0.00103178,0.00254041,0.00128774,0.00295622,-0.0014476,1.25846,0.0025918,0.0174137,1602,449,4.47385,11.6164
385,575,4.45508,-11.3646,-0.00128681,0.00294486,0.00133253,0.00332951,-0.00167145,1.28978,0.00293973,0.0114257,1609,449,4.45505,11.3646
392,575,4.43079,-11.1076,-0.00145195,0.0032867,0.00131374,0.00362654,-0.0017918,1.31766,0.0031875,0.00933969,1616,449,4.43084,11.1076
399,575,4.41565,-10.8586,-0.00134143,0.00349173,0.00152325,0.00393175,-0.00178144,1.28958,0.00337549,0.0100546,1623,449,4.41568,10.8586
406,575,4.40942,-10.5563,-0.00103034,0.00412059,0.00211993,0.00488086,-0.00179061,1.22645,0.00398713,0.0114003,1630,449,4.40945,10.5563
413,575,4.40881,-10.2626,-0.000933711,0.00452123,0.00247856,0.00547918,-0.00189167,1.20198,0.00442039,0.012674,1637,449,4.4088,10.2626
420,575,4.38684,-9.97464,-0.00117734,0.00511772,0.00269378,0.00611307,-0.00217269,1.21686,0.00496082,0.0135035,1644,449,4.38689,9.97465
427,575,4.32886,-9.69281,-0.00181791,0.00472137,0.00322258,0.00604254,-0.00313908,1.18172,0.00538863,0.0200067,1651,449,4.32889,9.69281
434,575,4.21375,-9.50095,-0.00207255,0.0050077,0.00380709,0.00666627,-0.00373112,1.15994,0.00608214,0.0307064,1658,449,4.21372,9.50096
441,575,4.11426,-9.314,0,0,0,0,0,0,0,-1,1665,449,4.11428,9.314
448,575,4.70032,-8.66489,0,0,0,0,0,0,0,-1,1672,449,4.70032,8.6649
455,575,5.10657,-8.05942,0,0,0,0,0,0,0,-1,1679,449,5.10654,8.05943
462,575,3.7063,-8.76251,0,0,0,0,0,0,0,-1,1686,449,3.70635,8.76252
469,575,4.05762,-7.59705,0,0,0,0,0,0,0,-1,1693,449,4.0576,7.59706
476,575,4.03528,-7.84467,0,0,0,0,0,0,0,-1,1700,449,4.03526,7.84467
483,575,3.72876,-7.32928,0,0,0,0,0,0,0,-1,1707,449,3.72874,7.32929
490,575,4.52332,-6.82611,0,0,0,0,0,0,0,-1,1714,449,4.52333,6.8261
497,575,0,0,0,0,0,0,0,0,0,-1,1721,449,0,0
504,575,0,0,0,0,0,0,0,0,0,-1,1728,449,0,0
511,575,0,0,0,0,0,0,0,0,0,-1,1735,449,0,0
518,575,0,0,0,0,0,0,0,0,0,-1,1742,449,0,0
525,575,0,0,0,0,0,0,0,0,0,-1,1749,449,0,0
532,575,0,0,0,0,0,0,0,0,0,-1,1756,449,0,0
539,575,0,0,0,0,0,0,0,0,0,-1,1763,449,0,0
546,575,0,0,0,0,0,0,0,0,0,-1,1770,449,0,0
553,575,0,0,0,0,0,0,0,0,0,-1,1777,449,0,0
560,575,0,0,0,0,0,0,0,0,0,-1,1784,449,0,0
567,575,0,0,0,0,0,0,0,0,0,-1,1791,449,0,0
574,575,0,0,0,0,0,0,0,0,0,-1,1798,449,0,0
581,575,0,0,0,0,0,0,0,0,0,-1,1805,449,0,0
588,575,0,0,0,0,0,0,0,0,0,-1,1812,449,0,0
595,575,0,0,0,0,0,0,0,0,0,-1,1819,449,0,0
602,575,0,0,0,0,0,0,0,0,0,-1,1826,449,0,0
609,575,0,0,0,0,0,0,0,0,0,-1,1833,449,0,0
616,575,0,0,0,0,0,0,0,0,0,-1,1840,449,0,0
623,575,0,0,0,0,0,0,0,0,0,-1,1847,449,0,0
630,575,0,0,0,0,0,0,0,0,0,-1,1854,449,0,0
637,575,0,0,0,0,0,0,0,0,0,-1,1861,449,0,0
644,575,0,0,0,0,0,0,0,0,0,-1,1868,449,0,0
651,575,0,0,0,0,0,0,0,0,0,-1,1875,449,0,0
658,575,0,0,0,0,0,0,0,0,0,-1,1882,449,0,0
665,575,0,0,0,0,0,0,0,0,0,-1,1889,449,0,0
672,575,0,0,0,0,0,0,0,0,0,-1,1896,449,0,0
679,575,0,0,0,0,0,0,0,0,0,-1,1903,449,0,0
686,575,0,0,0,0,0,0,0,0,0,-1,1910,449,0,0
693,575,0,0,0,0,0,0,0,0,0,-1,1917,449,0,0
700,575,0,0,0,0,0,0,0,0,0,-1,1924,449,0,0
707,575,0,0,0,0,0,0,0,0,0,-1,1931,449,0,0
714,575,0,0,0,0,0,0,0,0,0,-1,1938,449,0,0
721,575,0,0,0,0,0,0,0,0,0,-1,1945,449,0,0
728,575,0,0,0,0,0,0,0,0,0,-1,1952,449,0,0
735,575,0,0,0,0,0,0,0,0,0,-1,1959,449,0,0
742,575,0,0,0,0,0,0,0,0,0,-1,1966,449,0,0
749,575,0,0,0,0,0,0,0,0,0,-1,1973,449,0,0
756,575,0,0,0,0,0,0,0,0,0,-1,1980,449,0,0
763,575,0,0,0,0,0,0,0,0,0,-1,1987,449,0,0
770,575,0,0,0,0,0,0,0,0,0,-1,1994,449,0,0
777,575,0,0,0,0,0,0,0,0,0,-1,2001,449,0,0
784,575,0,0,0,0,0,0,0,0,0,-1,2008,449,0,0
791,575,0,0,0,0,0,0,0,0,0,-1,2015,449,0,0
798,575,0,0,0,0,0,0,0,0,0,-1,2022,449,0,0
805,575,0,0,0,0,0,0,0,0,0,-1,2029,449,0,0
812,575,0,0,0,0,0,0,0,0,0,-1,2036,449,0,0
-700,568,0,0,0,0,0,0,0,0,0,-1,524,456,0,0
-693,568,0,0,0,0,0,0,0,0,0,-1,531,456,0,0
-686,568,0,0,0,0,0,0,0,0,0,-1,538,456,0,0
-679,568,0,0,0,0,0,0,0,0,0,-1,545,456,0,0
-672,568,0,0,0,0,0,0,0,0,0,-1,552,456,0,0
-665,568,0,0,0,0,0,0,0,0,0,-1,559,456,0,0
-658,568,0,0,0,0,0,0,0,0,0,-1,566,456,0,0
-651,568,0,0,0,0,0,0,0,0,0,-1,573,456,0,0
-644,568,0,0,0,0,0,0,0,0,0,-1,580,456,0,0
-637,568,0,0,0,0,0,0,0,0,0,-1,587,456,0,0
-630,568,0,0,0,0,0,0,0,0,0,-1,594,456,0,0
-623,568,0,0,0,0,0,0,0,0,0,-1,601,456,0,0
-616,568,0,0,0,0,0,0,0,0,0,-1,608,456,0,0
-609,568,0,0,0,0,0,0,0,0,0,-1,615,456,0,0
-602,568,0,0,0,0,0,0,0,0,0,-1,622,456,0,0
-595,568,0,0,0,0,0,0,0,0,0,-1,629,456,0,0
-588,568,0,0,0,0,0,0,0,0,0,-1,636,456,0,0
-581,568,0,0,0,0,0,0,0,0,0,-1,643,456,0,0
-574,568,0,0,0,0,0,0,0,0,0,-1,650,456,0,0
-567,568,0,0,0,0,0,0,0,0,0,-1,657,456,0,0
-560,568,0,0,0,0,0,0,0,0,0,-1,664,456,0,0
-553,568,0,0,0,0,0,0,0,0,0,-1,671,456,0,0
-546,568,0,0,0,0,0,0,0,0,0,-1,678,456,0,0
-539,568,0,0,0,0,0,0,0,0,0,-1,685,456,0,0
-532,568,0,0,0,0,0,0,0,0,0,-1,692,456,0,0
-525,568,0,0,0,0,0,0,0,0,0,-1,699,456,0,0
-518,568,0,0,0,0,0,0,0,0,0,-1,706,456,0,0
-511,568,0,0,0,0,0,0,0,0,0,-1,713,456,0,0
-504,568,0,0,0,0,0,0,0,0,0,-1,720,456,0,0
-497,568,0,0,0,0,0,0,0,0,0,-1,727,456,0,0
-490,568,0,0,0,0,0,0,0,0,0,-1,734,456,0,0
-483,568,0,0,0,0,0,0,0,0,0,-1,741,456,0,0
-476,568,0,0,0,0,0,0,0,0,0,-1,748,456,0,0
-469,568,0,0,0,0,0,0,0,0,0,-1,755,456,0,0
-462,568,0,0,0,0,0,0,0,0,0,-1,762,456,0,0
-455,568,0,0,0,0,0,0,0,0,0,-1,769,456,0,0
-448,568,0,0,0,0,0,0,0,0,0,-1,776,456,0,0
-441,568,0,0,0,0,0,0,0,0,0,-1,783,456,0,0
-434,568,0,0,0,0,0,0,0,0,0,-1,790,456,0,0
-427,568,0,0,0,0,0,0,0,0,0,-1,797,456,0,0
-420,568,0,0,0,0,0,0,0,0,0,-1,804,456,0,0
-413,568,0,0,0,0,0,0,0,0,0,-1,811,456,0,0
-406,568,0,0,0,0,0,0,0,0,0,-1,818,456,0,0
-399,568,0,0,0,0,0,0,0,0,0,-1,825,456,0,0
-392,568,0,0,0,0,0,0,0,0,0,-1,832,456,0,0
-385,568,0,0,0,0,0,0,0,0,0,-1,839,456,0,0
-378,568,0.321777,-7.29929,0,0,0,0,0,0,0,-1,846,456,0.321806,7.29927
-371,568,1.09595,-7.46707,0,0,0,0,0,0,0,-1,853,456,1.09597,7.46707
-364,568,1.87787,-7.61115,0,0,0,0,0,0,0,-1,860,456,1.87784,7.61116
-357,568,2.14166,-7.67645,0,0,0,0,0,0,0,-1,867,456,2.14167,7.67646
-350,568,2.40472,-8.64417,0,0,0,0,0,0,0,-1,874,456,2.4047,8.64415
-343,568,2.67731,-8.79678,0,0,0,0,0,0,0,-1,881,456,2.67729,8.79678
-336,568,0.855103,-10.0656,0,0,0,0,0,0,0,-1,888,456,0.855106,10.0656
-329,568,1.26196,-10.3527,0.0143008,-0.00915971,0.000581516,0.0143152,-0.00917411,0.0247667,0.0136694,0.0478017,895,456,1.26197,10.3527
-322,568,1.91925,-10.2198,0.01196,-0.00697381,-0.00024029,0.011963,-0.00697686,-0.0126884,0.0110605,0.0435087,902,456,1.91927,10.2197
-315,568,1.85236,-10.4243,0.00940436,-0.00471576,-0.000824452,0.00945234,-0.00476374,-0.0581251,0.00835513,0.0373686,909,456,1.85233,10.4243
-308,568,1.68719,-10.7283,0.00710336,-0.00288119,-0.00126856,0.00726201,-0.00303985,-0.124419,0.00611203,0.0267224,916,456,1.68721,10.7283
-301,568,1.6322,-10.9962,0.00504277,-0.00164652,-0.00139076,0.0053204,-0.00192414,-0.197034,0.00433314,0.0151177,923,456,1.63223,10.9962
-294,568,1.58569,-11.2224,0.00338148,-0.000837012,-0.00150081,0.00386093,-0.00131646,-0.309214,0.00310717,0.0113695,930,456,1.58572,11.2224
-287,568,1.57263,-11.5022,0.00218948,-0.000315793,-0.00157152,0.00294652,-0.00107283,-0.448918,0.00240315,0.0106985,937,456,1.57265,11.5022
-280,568,1.5592,-11.7665,0.0012267,6.44258e-05,-0.0014159,0.00217608,-0.000884955,-0.590663,0.00181894,0.0109158,944,456,1.55919,11.7665
-273,568,1.54462,-12.0186,0.00017683,0.000463222,-0.00126974,0.00159781,-0.000957762,-0.841549,0.00149081,0.0116836,951,456,1.54461,12.0186
-266,568,1.53961,-12.2858,-0.000249516,0.000283118,-0.00121678,0.00126238,-0.00122878,-0.893135,0.00143832,0.011304,958,456,1.53962,12.2858
-259,568,1.52911,-12.5352,-0.000428911,-1.07007e-05,-0.000739284,0.000548482,-0.000988094,-0.923222,0.000899164,0.0119835,965,456,1.52912,12.5352
-252,568,1.50189,-12.7507,-0.000468791,-0.000471413,-0.00044925,-2.08502e-05,-0.000919353,-0.783939,0.000606072,0.011637,972,456,1.50192,12.7507
-245,568,1.50696,-12.9627,-0.000236303,-0.000942099,-0.000132243,-0.000212338,-0.000966064,-0.179269,0.000586225,0.0132953,979,456,1.50696,12.9627
-238,568,1.53027,-13.1936,0.000154021,-0.0014988,0.000161186,0.000169594,-0.00151437,0.0963128,0.0010706,0.0129207,986,456,1.53026,13.1936
-231,568,1.51251,-13.4133,0.000482349,-0.00227644,0.000471263,0.000560631,-0.00235472,0.164606,0.00178626,0.0115816,993,456,1.51251,13.4133
-224,568,1.48773,-13.6497,0.000847283,-0.00287473,0.000820521,0.00102014,-0.00304758,0.207631,0.00244381,0.0131061,1000,456,1.48771,13.6497
-217,568,1.51196,-13.859,0.00126122,-0.00346524,0.00116817,0.00153417,-0.00373819,0.229543,0.0031314,0.010713,1007,456,1.51198,13.859
-210,568,1.52527,-14.0692,0.00184377,-0.00409346,0.00138514,0.00215102,-0.00440071,0.218284,0.00385626,0.0102575,1014,456,1.52528,14.0692
-203,568,1.52551,-14.2771,0.00227829,-0.00456614,0.00100825,0.00242373,-0.00471158,0.143256,0.00418956,0.00969652,1021,456,1.52552,14.2771
-196,568,1.552,-14.4654,0.00248118,-0.00437164,0.000621415,0.00253707,-0.00442753,0.0897052,0.0040701,0.0136825,1028,456,1.55199,14.4654
-189,568,1.55359,-14.652,0.00275918,-0.00419065,0.000247671,0.002768,-0.00419947,0.0355768,0.00405087,0.0145768,1035,456,1.55356,14.652
-182,568,1.5448,-14.8513,0.00296659,-0.00429038,-0.000256235,0.00297562,-0.00429942,-0.0352503,0.00422336,0.0155018,1042,456,1.54484,14.8513
-175,568,1.56445,-15.0503,0.0030475,-0.00414927,-0.000848472,0.00314618,-0.00424795,-0.115781,0.00428477,0.013096,1049,456,1.56443,15.0503
-168,568,1.56665,-15.1984,0.00293363,-0.00375314,-0.00155054,0.00327568,-0.00409519,-0.21712,0.00426433,0.0166519,1056,456,1.56663,15.1984
-161,568,1.55225,-15.3383,0.00262575,-0.0034617,-0.00228833,0.00339001,-0.00422595,-0.322332,0.0044059,0.026721,1063,456,1.55226,15.3383
-154,568,1.70129,-15.6278,0.00232019,-0.00321713,-0.00287759,0.00354478,-0.00444172,-0.402344,0.00462069,0.0357088,1070,456,1.70133,15.6278
-147,568,1.82739,-15.7701,0.00216263,-0.00331659,-0.00326816,0.00368756,-0.00484153,-0.436575,0.00493927,0.0421623,1077,456,1.82744,15.7701
-140,568,1.87207,-15.85,0.001828,-0.00363735,-0.00369958,0.00369472,-0.00550407,-0.467301,0.00534505,0.0454669,1084,456,1.87204,15.85
-133,568,1.83533,-15.5979,0.00117287,-0.00371529,-0.00365919,0.00312915,-0.00567158,-0.49096,0.00515129,0.0468942,1091,456,1.83532,15.5979
-126,568,2.02307,-15.7096,0,0,0,0,0,0,0,-1,1098,456,2.02302,15.7096
-119,568,1.62964,-15.6684,0,0,0,0,0,0,0,-1,1105,456,1.62967,15.6684
-112,568,1.82056,-16.0516,0,0,0,0,0,0,0,-1,1112,456,1.82061,16.0516
-105,568,0.272095,-16.297,0,0,0,0,0,0,0,-1,1119,456,0.272141,16.297
-98,568,1.58618,-14.7874,0,0,0,0,0,0,0,-1,1126,456,1.58617,14.7874
-91,568,1.11621,-11.1853,0,0,0,0,0,0,0,-1,1133,456,1.11626,11.1853
-84,568,0.461792,-9.7959,0,0,0,0,0,0,0,-1,1140,456,0.461793,9.7959
-77,568,-1.13806,-8.57822,0,0,0,0,0,0,0,-1,1147,456,-1.13807,8.57821
-70,568,-4.09766,-1.42911,0,0,0,0,0,0,0,-1,1154,456,-4.09767,1.4291
-63,568,-5.92273,-3.70752,0,0,0,0,0,0,0,-1,1161,456,-5.92272,3.70751
-56,568,-5.24158,-6.01385,0,0,0,0,0,0,0,-1,1168,456,-5.24161,6.01386
-49,568,-5.24365,-8.33557,0,0,0,0,0,0,0,-1,1175,456,-5.24371,8.33557
-42,568,-0.664795,0.521973,0,0,0,0,0,0,0,-1,1182,456,-0.664829,-0.521984
-35,568,-0.153076,-1.67731,0,0,0,0,0,0,0,-1,1189,456,-0.153068,1.67731
-28,568,1.25439,-4.48798,0,0,0,0,0,0,0,-1,1196,456,1.2544,4.48797
-21,568,2.14453,-19.06,0,0,0,0,0,0,0,-1,1203,456,2.14453,19.06
-14,568,2.33618,-19.0958,0,0,0,0,0,0,0,-1,1210,456,2.33618,19.0958
-7,568,2.40808,-18.7881,0,0,0,0,0,0,0,-1,1217,456,2.40809,18.7881
0,568,14.7848,-30.6679,0,0,0,0,0,0,0,-1,1224,456,14.7848,30.6679
7,568,14.7595,-29.029,0.0246681,-0.0369839,0.0284103,0.0357632,-0.0480791,0.37232,0.0485802,0.0476213,1231,456,14.7595,29.029
14,568,14.9688,-27.4877,0.0352762,-0.0286003,0.0208997,0.0415066,-0.0348308,0.289723,0.0441295,0.0454551,1238,456,14.9687,27.4877
21,568,15.2251,-26.1925,0.0522749,-0.0215657,0.0106914,0.0537917,-0.0230825,0.140935,0.0455485,0.0403986,1245,456,15.2251,26.1925
28,568,-1.00757,-17.1479,0,0,0,0,0,0,0,-1,1252,456,-1.00762,17.148
35,568,-0.46814,-18.2553,0,0,0,0,0,0,0,-1,1259,456,-0.468082,18.2553
42,568,0.133667,-19.1105,0.0640964,-0.0259714,-0.0146201,0.0664101,-0.0282852,-0.156956,0.0561299,0.0428478,1266,456,0.133641,19.1105
49,568,0.729126,-20.0393,0.0590055,-0.0326342,-0.0189415,0.0627663,-0.036395,-0.195998,0.0579218,0.0465735,1273,456,0.72914,20.0393
56,568,1.42493,-20.8965,0,0,0,0,0,0,0,-1,1280,456,1.42496,20.8965
63,568,12.5985,-20.3083,0.0327195,-0.0508073,-0.0196321,0.0371036,-0.0551915,-0.219712,0.0536266,0.0429292,1287,456,12.5985,20.3083
70,568,11.9614,-19.1696,0.0149815,-0.0599071,-0.0181903,0.019166,-0.0640917,-0.226111,0.0503475,0.0434897,1294,456,11.9615,19.1696
77,568,11.3209,-18.1879,-0.00536737,-0.0678694,-0.0144239,-0.0021993,-0.0710375,-0.216208,0.0466425,0.0426841,1301,456,11.3209,18.1879
84,568,10.2546,-17.2975,-0.0283647,-0.0738917,-0.00754885,-0.0271457,-0.0751107,-0.160104,0.043917,0.043066,1308,456,10.2546,17.2975
91,568,9.26514,-16.3258,-0.0467414,-0.0754639,-0.00297853,-0.0464358,-0.0757695,-0.102251,0.0441154,0.0419628,1315,456,9.26518,16.3258
98,568,8.17212,-15.6515,-0.0595564,-0.0754615,-0.00123654,-0.0594609,-0.075557,-0.0771275,0.0459554,0.0452426,1322,456,8.17217,15.6515
105,568,7.14197,-15.0805,-0.0719009,-0.0732287,-0.000953667,-0.0714028,-0.0737268,-0.481333,0.0483951,0.0493016,1329,456,7.14191,15.0805
112,568,6.15662,-14.689,-0.0815062,-0.0738004,0.00203165,-0.0732975,-0.082009,1.32817,0.0520126,0.0498804,1336,456,6.15666,14.689
119,568,5.14624,-14.3118,-0.0846739,-0.064618,-0.00271574,-0.0642568,-0.0850351,-1.43856,0.0511895,0.0450033,1343,456,5.14622,14.3118
126,568,4.11963,-13.91,-0.0822581,-0.0578537,-0.0084392,-0.0552197,-0.0848921,-1.26826,0.0497468,0.0457112,1350,456,4.11964,13.91
133,568,5.16138,-17.1821,0,0,0,0,0,0,0,-1,1357,456,5.16139,17.1821
140,568,4.46692,-16.7238,0,0,0,0,0,0,0,-1,1364,456,4.46693,16.7238
147,568,3.39392,-15.802,-0.0720042,-0.0548411,-0.0235935,-0.038317,-0.0885283,-0.959823,0.0512654,0.0465021,1371,456,3.39386,15.802
154,568,2.63977,-15.586,-0.0660247,-0.0535843,-0.024765,-0.0342703,-0.0853387,-0.908437,0.0495875,0.0452126,1378,456,2.63973,15.586
161,568,1.75684,-15.3354,0,0,0,0,0,0,0,-1,1385,456,1.75686,15.3355
168,568,-0.458252,-13.0519,0,0,0,0,0,0,0,-1,1392,456,-0.458298,13.0519
175,568,10.5151,0.747498,0,0,0,0,0,0,0,-1,1399,456,10.5152,-0.747501
182,568,6.35095,-3.63361,0,0,0,0,0,0,0,-1,1406,456,6.35093,3.63359
189,568,6.17493,-1.70911,0,0,0,0,0,0,0,-1,1413,456,6.17497,1.70911
196,568,6.04724,0.200836,0,0,0,0,0,0,0,-1,1420,456,6.04724,-0.200835
203,568,5.9281,2.08649,0,0,0,0,0,0,0,-1,1427,456,5.92812,-2.08648
210,568,1.46216,-2.50446,0,0,0,0,0,0,0,-1,1434,456,1.46219,2.50446
217,568,2.62366,-7.86703,0,0,0,0,0,0,0,-1,1441,456,2.62365,7.86704
224,568,3.43494,-12.1555,0,0,0,0,0,0,0,-1,1448,456,3.43492,12.1555
231,568,4.38245,-9.3205,0,0,0,0,0,0,0,-1,1455,456,4.38244,9.32048
238,568,3.88123,-9.43616,0,0,0,0,0,0,0,-1,1462,456,3.88117,9.43617
245,568,3.34387,-10.6774,0,0,0,0,0,0,0,-1,1469,456,3.34389,10.6774
252,568,3.56946,-9.28928,0,0,0,0,0,0,0,-1,1476,456,3.56948,9.28928
259,568,3.38843,-8.73068,0,0,0,0,0,0,0,-1,1483,456,3.38842,8.73068
266,568,3.104,-9.16876,0,0,0,0,0,0,0,-1,1490,456,3.10397,9.16876
273,568,3.77869,-13.1147,0,0,0,0,0,0,0,-1,1497,456,3.77869,13.1147
280,568,4.40002,-14.9322,0,0,0,0,0,0,0,-1,1504,456,4.4,14.9322
287,568,4.63586,-14.5594,0.00203841,-0.000487216,-0.00203157,0.00316765,-0.00161646,-0.507325,0.00281009,0.0499062,1511,456,4.63587,14.5594
294,568,4.68152,-14.3943,0.00150092,-0.0014866,-0.00227715,0.00273053,-0.00271621,-0.495115,0.00314468,0.0293322,1518,456,4.68154,14.3944
301,568,4.68225,-14.1814,0.000998853,-0.00231785,-0.00244686,0.00229638,-0.00361538,-0.487581,0.00344136,0.0203482,1525,456,4.6823,14.1814
308,568,4.68872,-13.9579,0.000431447,-0.00288596,-0.00263888,0.00188963,-0.00434414,-0.504819,0.00369089,0.0125017,1532,456,4.68876,13.9579
315,568,4.69312,-13.767,-8.39136e-05,-0.0030649,-0.00272534,0.00153188,-0.0046807,-0.535167,0.00373725,0.00823339,1539,456,4.69309,13.767
322,568,4.70996,-13.5672,-0.000541585,-0.00295197,-0.00261796,0.00113527,-0.00462883,-0.569682,0.00352577,0.0100381,1546,456,4.70996,13.5672
329,568,4.71948,-13.3349,-0.000857931,-0.00262604,-0.00240207,0.000817601,-0.00430157,-0.609071,0.00317553,0.0107981,1553,456,4.71942,13.3349
336,568,4.71448,-13.0949,-0.00106993,-0.00219533,-0.00209047,0.000532249,-0.00379751,-0.653927,0.00272647,0.0116458,1560,456,4.71451,13.0949
343,568,4.73938,-12.8625,-0.00126536,-0.00163424,-0.00172217,0.000282218,-0.00318181,-0.732052,0.00222127,0.0117593,1567,456,4.73934,12.8625
350,568,4.75195,-12.637,-0.001307,-0.00105961,-0.00129597,0.000118553,-0.00248516,-0.832977,0.00169767,0.0106495,1574,456,4.75197,12.637
357,568,4.74622,-12.38,-0.00126571,-0.000418643,-0.000846018,0.000103936,-0.00178829,-1.01747,0.0012283,0.00990525,1581,456,4.74623,12.38
364,568,4.76135,-12.1401,-0.00121186,0.000263595,-0.00039719,0.000363723,-0.00131198,-1.32385,0.0010178,0.0120951,1588,456,4.76135,12.1401
371,568,4.72559,-11.8693,-0.00116258,0.000876715,4.99117e-05,0.000877935,-0.0011638,1.54634,0.00118264,0.0209185,1595,456,4.7256,11.8693
378,568,4.70386,-11.5976,-0.00115694,0.00149035,0.000415755,0.00155411,-0.0012207,1.41863,0.00160589,0.0189655,1602,456,4.70383,11.5976
385,568,4.69373,-11.3655,-0.00120298,0.00190931,0.000590869,0.00201771,-0.00131138,1.38935,0.00193642,0.0093273,1609,456,4.69368,11.3655
392,568,4.6759,-11.1046,-0.00115433,0.00219959,0.000751356,0.00236022,-0.00131495,1.36018,0.00215028,0.0101205,1616,456,4.67596,11.1046
399,568,4.6521,-10.886,-0.000973093,0.00243392,0.00101746,0.00271464,-0.00125382,1.30159,0.00234236,0.0165902,1623,456,4.65209,10.886
406,568,4.67737,-10.5941,-0.000684666,0.00294867,0.001573,0.00353504,-0.00127104,1.21398,0.00287559,0.0159282,1630,456,4.67739,10.5942
413,568,4.68518,-10.2777,-0.000554875,0.00331761,0.00195122,0.00413024,-0.0013675,1.17617,0.00330502,0.0129271,1637,456,4.68513,10.2777
420,568,4.66321,-9.978,-0.000710593,0.00381276,0.0022233,0.00472256,-0.00162039,1.18237,0.0038053,0.0110324,1644,456,4.6632,9.97799
427,568,4.64502,-9.66132,-0.00122034,0.00359588,0.00272926,0.00482753,-0.002452,1.14688,0.00427678,0.0124987,1651,456,4.64503,9.66132
434,568,4.64478,-9.38968,-0.00143676,0.0038169,0.00328625,0.00539717,-0.00301703,1.12257,0.0049223,0.0164311,1658,456,4.64479,9.38969
441,568,4.60388,-9.17316,-0.00191383,0.00401415,0.00393972,0.00598034,-0.00388001,1.10789,0.00573576,0.02448,1665,456,4.60392,9.17317
448,568,4.84314,-8.76642,-0.00274837,0.00416136,0.00458825,0.00645003,-0.00503703,1.1081,0.00664876,0.039652,1672,456,4.84316,8.76641
455,568,5.08594,-8.1778,-0.00408361,0.00375353,0.00515267,0.00630838,-0.00663846,1.11049,0.00747567,0.0471196,1679,456,5.08596,8.17779
462,568,5.17883,-7.64392,0,0,0,0,0,0,0,-1,1686,456,5.17881,7.64393
469,568,4.44226,-7.72717,-0.00811793,0.00246269,0.00623466,0.00534908,-0.0110043,1.13722,0.00962798,0.0483125,1693,456,4.44228,7.72717
476,568,4.3103,-7.72565,-0.0108682,0.00096338,0.00626776,0.00366626,-0.0135711,1.16366,0.0104853,0.0484361,1700,456,4.31032,7.72564
483,568,4.04541,-7.39053,0,0,0,0,0,0,0,-1,1707,456,4.04543,7.39053
490,568,6.71924,-6.0177,0,0,0,0,0,0,0,-1,1714,456,6.71927,6.01771
497,568,6.58289,-3.47745,0,0,0,0,0,0,0,-1,1721,456,6.58294,3.47744
504,568,0,0,0,0,0,0,0,0,0,-1,1728,456,0,0
511,568,0,0,0,0,0,0,0,0,0,-1,1735,456,0,0
518,568,0,0,0,0,0,0,0,0,0,-1,1742,456,0,0
525,568,0,0,0,0,0,0,0,0,0,-1,1749,456,0,0
532,568,0,0,0,0,0,0,0,0,0,-1,1756,456,0,0
539,568,0,0,0,0,0,0,0,0,0,-1,1763,456,0,0
546,568,0,0,0,0,0,0,0,0,0,-1,1770,456,0,0
553,568,0,0,0,0,0,0,0,0,0,-1,1777,456,0,0
560,568,0,0,0,0,0,0,0,0,0,-1,1784,456,0,0
567,568,0,0,0,0,0,0,0,0,0,-1,1791,456,0,0
574,568,0,0,0,0,0,0,0,0,0,-1,1798,456,0,0
581,568,0,0,0,0,0,0,0,0,0,-1,1805,456,0,0
588,568,0,0,0,0,0,0,0,0,0,-1,1812,456,0,0
595,568,0,0,0,0,0,0,0,0,0,-1,1819,456,0,0
602,568,0,0,0,0,0,0,0,0,0,-1,1826,456,0,0
609,568,0,0,0,0,0,0,0,0,0,-1,1833,456,0,0
616,568,0,0,0,0,0,0,0,0,0,-1,1840,456,0,0
623,568,0,0,0,0,0,0,0,0,0,-1,1847,456,0,0
630,568,0,0,0,0,0,0,0,0,0,-1,1854,456,0,0
637,568,0,0,0,0,0,0,0,0,0,-1,1861,456,0,0
644,568,0,0,0,0,0,0,0,0,0,-1,1868,456,0,0
651,568,0,0,0,0,0,0,0,0,0,-1,1875,456,0,0
658,568,0,0,0,0,0,0,0,0,0,-1,1882,456,0,0
665,568,0,0,0,0,0,0,0,0,0,-1,1889,456,0,0
672,568,0,0,0,0,0,0,0,0,0,-1,1896,456,0,0
679,568,0,0,0,0,0,0,0,0,0,-1,1903,456,0,0
686,568,0,0,0,0,0,0,0,0,0,-1,1910,456,0,0
693,568,0,0,0,0,0,0,0,0,0,-1,1917,456,0,0
700,568,0,0,0,0,0,0,0,0,0,-1,1924,456,0,0
707,568,0,0,0,0,0,0,0,0,0,-1,1931,456,0,0
714,568,0,0,0,0,0,0,0,0,0,-1,1938,456,0,0
721,568,0,0,0,0,0,0,0,0,0,-1,1945,456,0,0
728,568,0,0,0,0,0,0,0,0,0,-1,1952,456,0,0
735,568,0,0,0,0,0,0,0,0,0,-1,1959,456,0,0
742,568,0,0,0,0,0,0,0,0,0,-1,1966,456,0,0
749,568,0,0,0,0,0,0,0,0,0,-1,1973,456,0,0
756,568,0,0,0,0,0,0,0,0,0,-1,1980,456,0,0
763,568,0,0,0,0,0,0,0,0,0,-1,1987,456,0,0
770,568,0,0,0,0,0,0,0,0,0,-1,1994,456,0,0
777,568,0,0,0,0,0,0,0,0,0,-1,2001,456,0,0
784,568,0,0,0,0,0,0,0,0,0,-1,2008,456,0,0
791,568,0,0,0,0,0,0,0,0,0,-1,2015,456,0,0
798,568,0,0,0,0,0,0,0,0,0,-1,2022,456,0,0
805,568,0,0,0,0,0,0,0,0,0,-1,2029,456,0,0
812,568,0,0,0,0,0,0,0,0,0,-1,2036,456,0,0
-700,561,0,0,0,0,0,0,0,0,0,-1,524,463,0,0
-693,561,0,0,0,0,0,0,0,0,0,-1,531,463,0,0
-686,561,0,0,0,0,0,0,0,0,0,-1,538,463,0,0
-679,561,0,0,0,0,0,0,0,0,0,-1,545,463,0,0
-672,561,0,0,0,0,0,0,0,0,0,-1,552,463,0,0
-665,561,0,0,0,0,0,0,0,0,0,-1,559,463,0,0
-658,561,0,0,0,0,0,0,0,0,0,-1,566,463,0,0
-651,561,0,0,0,0,0,0,0,0,0,-1,573,463,0,0
-644,561,0,0,0,0,0,0,0,0,0,-1,580,463,0,0
-637,561,0,0,0,0,0,0,0,0,0,-1,587,463,0,0
-630,561,0,0,0,0,0,0,0,0,0,-1,594,463,0,0
-623,561,0,0,0,0,0,0,0,0,0,-1,601,463,0,0
-616,561,0,0,0,0,0,0,0,0,0,-1,608,463,0,0
-609,561,0,0,0,0,0,0,0,0,0,-1,615,463,0,0
-602,561,0,0,0,0,0,0,0,0,0,-1,622,463,0,0
-595,561,0,0,0,0,0,0,0,0,0,-1,629,463,0,0
-588,561,0,0,0,0,0,0,0,0,0,-1,636,463,0,0
-581,561,0,0,0,0,0,0,0,0,0,-1,643,463,0,0
-574,561,0,0,0,0,0,0,0,0,0,-1,650,463,0,0
-567,561,0,0,0,0,0,0,0,0,0,-1,657,463,0,0
-560,561,0,0,0,0,0,0,0,0,0,-1,664,463,0,0
-553,561,0,0,0,0,0,0,0,0,0,-1,671,463,0,0
-546,561,0,0,0,0,0,0,0,0,0,-1,678,463,0,0
-539,561,0,0,0,0,0,0,0,0,0,-1,685,463,0,0
-532,561,0,0,0,0,0,0,0,0,0,-1,692,463,0,0
-525,561,0,0,0,0,0,0,0,0,0,-1,699,463,0,0
-518,561,0,0,0,0,0,0,0,0,0,-1,706,463,0,0
-511,561,0,0,0,0,0,0,0,0,0,-1,713,463,0,0
-504,561,0,0,0,0,0,0,0,0,0,-1,720,463,0,0
-497,561,0,0,0,0,0,0,0,0,0,-1,727,463,0,0
-490,561,0,0,0,0,0,0,0,0,0,-1,734,463,0,0
-483,561,0,0,0,0,0,0,0,0,0,-1,741,463,0,0
-476,561,0,0,0,0,0,0,0,0,0,-1,748,463,0,0
-469,561,0,0,0,0,0,0,0,0,0,-1,755,463,0,0
-462,561,0,0,0,0,0,0,0,0,0,-1,762,463,0,0
-455,561,0,0,0,0,0,0,0,0,0,-1,769,463,0,0
-448,561,0,0,0,0,0,0,0,0,0,-1,776,463,0,0
-441,561,0,0,0,0,0,0,0,0,0,-1,783,463,0,0
-434,561,0,0,0,0,0,0,0,0,0,-1,790,463,0,0
-427,561,0,0,0,0,0,0,0,0,0,-1,797,463,0,0
-420,561,0,0,0,0,0,0,0,0,0,-1,804,463,0,0
-413,561,0,0,0,0,0,0,0,0,0,-1,811,463,0,0
-406,561,0,0,0,0,0,0,0,0,0,-1,818,463,0,0
-399,561,0,0,0,0,0,0,0,0,0,-1,825,463,0,0
-392,561,4.92407,-2.54578,0,0,0,0,0,0,0,-1,832,463,4.92408,2.54576
-385,561,5.55634,-1.02338,0,0,0,0,0,0,0,-1,839,463,5.55634,1.02338
-378,561,0.160522,-4.51785,0,0,0,0,0,0,0,-1,846,463,0.160542,4.51785
-371,561,1.06299,-7.56818,0,0,0,0,0,0,0,-1,853,463,1.06297,7.56817
-364,561,1.45264,-7.57684,0,0,0,0,0,0,0,-1,860,463,1.45264,7.57684
-357,561,1.29395,-8.94031,0,0,0,0,0,0,0,-1,867,463,1.29393,8.94031
-350,561,1.61902,-9.08127,0,0,0,0,0,0,0,-1,874,463,1.61905,9.08126
-343,561,1.87616,-9.40292,0,0,0,0,0,0,0,-1,881,463,1.87616,9.40292
-336,561,1.19604,-9.82153,0,0,0,0,0,0,0,-1,888,463,1.19604,9.82152
-329,561,1.19879,-10.0457,0.00914888,-0.00694887,0.000988543,0.00920936,-0.00700934,0.0611028,0.00939254,0.0365541,895,463,1.19879,10.0457
-322,561,1.31793,-10.1842,0.00776446,-0.00537192,0.00033886,0.0077732,-0.00538066,0.0257727,0.00763614,0.029494,902,463,1.31793,10.1842
-315,561,1.40314,-10.3458,0.00620476,-0.00371912,-0.000176577,0.0062079,-0.00372227,-0.0177856,0.00579274,0.0201278,909,463,1.40315,10.3458
-308,561,1.4007,-10.6644,0.00478338,-0.00234513,-0.000597786,0.00483316,-0.00239491,-0.0830853,0.00425153,0.0154211,916,463,1.40072,10.6644
-301,561,1.36426,-10.9895,0.00347722,-0.00139951,-0.000768439,0.00359544,-0.00151773,-0.152646,0.00303224,0.0122981,923,463,1.36426,10.9895
-294,561,1.33569,-11.2416,0.00241474,-0.000744867,-0.000824635,0.00261701,-0.000947142,-0.240541,0.00213172,0.0107465,930,463,1.33567,11.2416
-287,561,1.32111,-11.5021,0.00165648,-0.000283459,-0.000837048,0.00196772,-0.000594697,-0.355986,0.00154859,0.00945053,937,463,1.32109,11.5021
-280,561,1.30463,-11.7547,0.00103483,-8.74773e-05,-0.000697559,0.00136893,-0.000421579,-0.446673,0.00108091,0.0114524,944,463,1.30464,11.7547
-273,561,1.29883,-11.9998,0.000306274,5.53114e-05,-0.000536077,0.000731359,-0.000369774,-0.670431,0.000647064,0.0144182,951,463,1.29885,11.9998
-266,561,1.29742,-12.2631,5.76234e-05,-0.000282361,-0.00042693,0.00034716,-0.000571898,-0.595933,0.00053588,0.00963902,958,463,1.29741,12.2631
-259,561,1.27942,-12.5089,3.1709e-06,-0.000752037,5.48542e-08,3.17092e-06,-0.000752037,7.26345e-05,0.000502419,0.0102218,965,463,1.27941,12.5089
-252,561,1.26672,-12.7368,-1.17024e-05,-0.00133106,0.00029241,5.02004e-05,-0.00139296,0.208618,0.000945818,0.0138015,972,463,1.26675,12.7368
-245,561,1.27911,-12.9775,0.000179934,-0.00193387,0.00065565,0.000366784,-0.00212072,0.277625,0.0015506,0.0162493,979,463,1.27913,12.9775
-238,561,1.28998,-13.208,0.000636859,-0.00272336,0.000960475,0.000892021,-0.00297853,0.259665,0.00234039,0.0134243,986,463,1.28996,13.208
-231,561,1.28253,-13.4289,0.000989295,-0.0037185,0.00125234,0.0013017,-0.00403091,0.24447,0.00321038,0.0111323,993,463,1.28255,13.4289
-224,561,1.27722,-13.6527,0.00136539,-0.00450068,0.00160231,0.00177452,-0.00490982,0.249998,0.00399821,0.0107201,1000,463,1.27723,13.6527
-217,561,1.29761,-13.8553,0.00182234,-0.00524365,0.00194711,0.00232336,-0.00574468,0.251852,0.00479566,0.010748,1007,463,1.29761,13.8553
-210,561,1.30322,-14.0626,0.0024977,-0.00597508,0.00215065,0.00301234,-0.00648973,0.234879,0.00560714,0.012127,1014,463,1.30324,14.0626
-203,561,1.31012,-14.2842,0.0029502,-0.00657002,0.00155635,0.00319817,-0.00681799,0.158,0.00590737,0.0138252,1021,463,1.31012,14.2842
-196,561,1.3269,-14.4706,0.00309389,-0.00627534,0.000976616,0.00319461,-0.00637606,0.102765,0.00562647,0.0145096,1028,463,1.32691,14.4706
-189,561,1.32874,-14.6413,0.0033791,-0.00599542,0.00039537,0.00339575,-0.00601207,0.0420753,0.00550117,0.0169523,1035,463,1.32874,14.6413
-182,561,1.34192,-14.846,0.00354167,-0.00596604,-0.000380991,0.00355691,-0.00598129,-0.0399863,0.00556586,0.019331,1042,463,1.34187,14.846
-175,561,1.32874,-15.0471,0.0034618,-0.00556184,-0.00127483,0.00363844,-0.00573848,-0.137687,0.00545884,0.0294136,1049,463,1.32873,15.0471
-168,561,1.34753,-15.2014,0.00310967,-0.00486389,-0.00236462,0.00375818,-0.00551239,-0.267671,0.00538421,0.0443485,1056,463,1.34748,15.2014
-161,561,1.35999,-15.3155,0.00248473,-0.00430316,-0.00353752,0.00399312,-0.00581155,-0.403055,0.00569309,0.0473709,1063,463,1.35997,15.3155
-154,561,1.73035,-15.8642,0.00180203,-0.00369389,-0.00454078,0.00436161,-0.00625347,-0.513291,0.00616098,0.0471624,1070,463,1.73039,15.8642
-147,561,1.76575,-16.0041,0.00128361,-0.00355533,-0.00526791,0.0046611,-0.00693282,-0.570124,0.00673645,0.0432677,1077,463,1.7657,16.0041
-140,561,1.71631,-16.0081,0.0005026,-0.0036712,-0.00602769,0.00479442,-0.00796303,-0.618747,0.00744086,0.0429122,1084,463,1.71627,16.008
-133,561,1.78516,-15.2047,0,0,0,0,0,0,0,-1,1091,463,1.78517,15.2048
-126,561,0.452637,-13.7199,0,0,0,0,0,0,0,-1,1098,463,0.452665,13.7199
-119,561,1.01758,-14.6627,0,0,0,0,0,0,0,-1,1105,463,1.01758,14.6626
-112,561,1.58252,-15.6054,0,0,0,0,0,0,0,-1,1112,463,1.58249,15.6054
-105,561,0.530518,-13.5379,0,0,0,0,0,0,0,-1,1119,463,0.530477,13.5379
-98,561,1.5387,-7.54352,0,0,0,0,0,0,0,-1,1126,463,1.53871,7.54351
-91,561,1.29553,-6.57968,0,0,0,0,0,0,0,-1,1133,463,1.29549,6.5797
-84,561,1.23364,-5.84555,0,0,0,0,0,0,0,-1,1140,463,1.23363,5.84556
-77,561,-2.36023,1.00204,0,0,0,0,0,0,0,-1,1147,463,-2.3602,-1.00205
-70,561,-3.90015,-1.41541,0,0,0,0,0,0,0,-1,1154,463,-3.90009,1.4154
-63,561,-6.95691,-4.02756,0,0,0,0,0,0,0,-1,1161,463,-6.95696,4.02756
-56,561,-5.37988,-6.66855,0,0,0,0,0,0,0,-1,1168,463,-5.37988,6.66854
-49,561,-5.7439,-9.11029,0,0,0,0,0,0,0,-1,1175,463,-5.74387,9.1103
-42,561,-1.72644,-5.63065,0,0,0,0,0,0,0,-1,1182,463,-1.72648,5.63064
-35,561,-1.65674,-4.87994,0,0,0,0,0,0,0,-1,1189,463,-1.6567,4.87993
-28,561,-1.91418,-3.86896,0,0,0,0,0,0,0,-1,1196,463,-1.91414,3.86895
-21,561,3.07019,-17.9616,0,0,0,0,0,0,0,-1,1203,463,3.07014,17.9616
-14,561,1.92029,-19.7653,0,0,0,0,0,0,0,-1,1210,463,1.92028,19.7653
-7,561,2.29333,-19.3559,0,0,0,0,0,0,0,-1,1217,463,2.29331,19.3559
0,561,15.7958,-29.9773,0,0,0,0,0,0,0,-1,1224,463,15.7958,29.9772
7,561,15.7014,-28.5305,0.00856432,-0.0580412,0.046281,0.0322792,-0.0817561,0.473526,0.0678725,0.0475543,1231,463,15.7014,28.5306
14,561,15.6501,-27.0968,0.0152425,-0.0476971,0.0387702,0.0337074,-0.066162,0.444481,0.0586657,0.0422948,1238,463,15.6501,27.0968
21,561,15.5924,-25.7338,0.0310924,-0.04122,0.0282571,0.0408244,-0.0509521,0.331688,0.0530946,0.0425224,1245,463,15.5925,25.7338
28,561,16.0491,-24.6414,0,0,0,0,0,0,0,-1,1252,463,16.049,24.6414
35,561,15.5266,-23.567,0,0,0,0,0,0,0,-1,1259,463,15.5266,23.567
42,561,-0.657471,-19.7827,0,0,0,0,0,0,0,-1,1266,463,-0.657525,19.7827
49,561,-0.170288,-20.676,0,0,0,0,0,0,0,-1,1273,463,-0.170307,20.676
56,561,13.7969,-20.2667,0.00430565,-0.0725302,-0.00627124,0.00481413,-0.0730387,-0.0809051,0.0503739,0.0423989,1280,463,13.7969,20.2667
63,561,13.3337,-18.994,-0.0105447,-0.0818934,-0.00801589,-0.0096552,-0.0827829,-0.110513,0.0522683,0.0425734,1287,463,13.3338,18.994
70,561,12.9053,-17.4769,-0.0259832,-0.0896909,-0.0104118,-0.0243247,-0.0913493,-0.157958,0.0546274,0.0455155,1294,463,12.9053,17.4769
77,561,12.3347,-16.6895,-0.0427995,-0.0958612,-0.010427,-0.0408241,-0.0978366,-0.187235,0.0567432,0.0448277,1301,463,12.3347,16.6895
84,561,11.0171,-15.9118,-0.0624815,-0.0998317,-0.00564329,-0.0616475,-0.100666,-0.146729,0.0586068,0.0431734,1308,463,11.0171,15.9118
91,561,9.43042,-15.0501,-0.0767484,-0.0987808,-0.00301492,-0.0763433,-0.0991859,-0.13357,0.0599776,0.0409894,1315,463,9.43042,15.0501
98,561,8.5835,-14.7182,-0.0850451,-0.0960525,-0.00319207,-0.0841864,-0.0969112,-0.262787,0.0608113,0.0462933,1322,463,8.58354,14.7182
105,561,7.60181,-14.7007,0,0,0,0,0,0,0,-1,1329,463,7.60175,14.7007
112,561,6.59192,-14.3087,-0.097496,-0.0872838,-0.00414011,-0.0858163,-0.0989635,-1.23014,0.0620592,0.0490496,1336,463,6.59186,14.3087
119,561,5.29358,-13.7437,-0.0969034,-0.0767684,-0.0096865,-0.0728651,-0.100807,-1.18774,0.0600963,0.0449845,1343,463,5.29353,13.7437
126,561,4.64368,-13.6855,-0.0928557,-0.068654,-0.0157513,-0.060892,-0.100618,-1.11294,0.0585186,0.0436248,1350,463,4.64373,13.6856
133,561,4.24451,-14.3221,0,0,0,0,0,0,0,-1,1357,463,4.24449,14.3221
140,561,3.69153,-14.8051,0,0,0,0,0,0,0,-1,1364,463,3.69149,14.8051
147,561,3.83496,-15.3135,-0.078078,-0.0655783,-0.0324798,-0.0387525,-0.104904,-0.880448,0.061251,0.0463116,1371,463,3.8349,15.3135
154,561,3.05396,-15.2211,-0.0696353,-0.0629572,-0.0330121,-0.0331157,-0.0994768,-0.8358,0.0584923,0.0467431,1378,463,3.05396,15.2211
161,561,2.49927,-15.2041,0,0,0,0,0,0,0,-1,1385,463,2.4993,15.2041
168,561,4.58069,-15.7031,0,0,0,0,0,0,0,-1,1392,463,4.58072,15.7031
175,561,10.4185,0.276398,0,0,0,0,0,0,0,-1,1399,463,10.4185,-0.276394
182,561,6.45703,-4.02127,0,0,0,0,0,0,0,-1,1406,463,6.45704,4.02127
189,561,6.50854,-2.08685,0,0,0,0,0,0,0,-1,1413,463,6.50851,2.08686
196,561,6.44775,-0.27182,0,0,0,0,0,0,0,-1,1420,463,6.44773,0.271814
203,561,6.18591,1.1301,0,0,0,0,0,0,0,-1,1427,463,6.18592,-1.13009
210,561,5.68713,2.68427,0,0,0,0,0,0,0,-1,1434,463,5.6871,-2.68425
217,561,3.61743,-7.33582,0,0,0,0,0,0,0,-1,1441,463,3.61738,7.33581
224,561,4.27466,-8.59171,0,0,0,0,0,0,0,-1,1448,463,4.27466,8.59171
231,561,4.93188,-9.8476,0,0,0,0,0,0,0,-1,1455,463,4.93193,9.84761
238,561,2.18018,-5.18359,0,0,0,0,0,0,0,-1,1462,463,2.18023,5.18359
245,561,3.07568,-3.50238,0,0,0,0,0,0,0,-1,1469,463,3.0757,3.50238
252,561,3.47412,-3.71109,0,0,0,0,0,0,0,-1,1476,463,3.47413,3.71109
259,561,3.42212,-3.2334,0,0,0,0,0,0,0,-1,1483,463,3.42214,3.2334
266,561,4.44373,-5.90027,0,0,0,0,0,0,0,-1,1490,463,4.44372,5.90026
273,561,2.59485,-3.65268,0,0,0,0,0,0,0,-1,1497,463,2.5948,3.65268
280,561,3.10767,-6.38235,0,0,0,0,0,0,0,-1,1504,463,3.10766,6.38235
287,561,4.91809,-14.429,0,0,0,0,0,0,0,-1,1511,463,4.9181,14.429
294,561,4.9093,-14.3721,0,0,0,0,0,0,0,-1,1518,463,4.90935,14.3721
301,561,4.89111,-14.1667,0.000552536,-0.00382464,-0.00345481,0.00245365,-0.00572575,-0.503057,0.0048467,0.0401621,1525,463,4.89111,14.1667
308,561,4.89941,-13.924,-0.000205097,-0.00450333,-0.00378547,0.00199877,-0.0067072,-0.527222,0.00526573,0.0324539,1532,463,4.89946,13.924
315,561,4.91296,-13.7731,-0.000870849,-0.00467747,-0.00396398,0.00162308,-0.0071714,-0.561577,0.00540383,0.022695,1539,463,4.91302,13.7731
322,561,4.95044,-13.6003,-0.00140301,-0.00450443,-0.003882,0.00122655,-0.00713399,-0.595377,0.00521316,0.0237983,1546,463,4.9504,13.6003
329,561,4.94165,-13.3337,-0.00174569,-0.00408419,-0.0036787,0.000945105,-0.00677499,-0.631525,0.00486241,0.0158593,1553,463,4.94162,13.3337
336,561,4.95911,-13.0796,-0.00194025,-0.00356246,-0.00334279,0.000688431,-0.00619114,-0.666377,0.004375,0.0114683,1560,463,4.9591,13.0796
343,561,4.96362,-12.8635,-0.00209272,-0.0028801,-0.00293181,0.000471713,-0.00544453,-0.718656,0.00379671,0.0107186,1567,463,4.96357,12.8635
350,561,4.96729,-12.6242,-0.00204376,-0.0022735,-0.00246242,0.000306471,-0.00462373,-0.762091,0.00318955,0.00996984,1574,463,4.96728,12.6242
357,561,4.97595,-12.3613,-0.00188609,-0.00157523,-0.0019527,0.000228214,-0.00368953,-0.825112,0.00253918,0.0102415,1581,463,4.9759,12.3613
364,561,4.99207,-12.1319,-0.00166914,-0.000824642,-0.00139241,0.000208137,-0.00270192,-0.932616,0.00187451,0.00983854,1588,463,4.99209,12.1319
371,561,4.9718,-11.8735,-0.00145682,-0.000155157,-0.000849819,0.00026442,-0.0018764,-1.11218,0.00134774,0.0161088,1595,463,4.97175,11.8735
378,561,4.95447,-11.6045,-0.00127964,0.000537077,-0.000380698,0.000613628,-0.00135619,-1.37236,0.0011639,0.0115033,1602,463,4.95449,11.6045
385,561,4.95532,-11.3529,-0.00115482,0.00102971,-7.98129e-05,0.00103262,-0.00115773,-1.53433,0.00126529,0.00966102,1609,463,4.95532,11.3529
392,561,4.94702,-11.0769,-0.000951412,0.00134134,0.000231521,0.00136448,-0.000974558,1.47116,0.00135669,0.0133202,1616,463,4.947,11.0769
399,561,4.93396,-10.8616,-0.000717717,0.00164114,0.000542172,0.00175979,-0.000836365,1.35535,0.00153017,0.0196068,1623,463,4.93393,10.8616
406,561,4.95435,-10.5994,-0.000470706,0.0020628,0.00103484,0.00243176,-0.000839665,1.22831,0.0019619,0.0188163,1630,463,4.95433,10.5994
413,561,4.95056,-10.2972,-0.000330607,0.00241393,0.00140962,0.00300893,-0.000925608,1.17138,0.00237538,0.0169868,1637,463,4.95055,10.2972
420,561,4.93188,-9.97635,-0.000425387,0.00282912,0.00170748,0.00356056,-0.00115682,1.16607,0.002839,0.0137222,1644,463,4.93183,9.97634
427,561,4.92004,-9.66769,-0.000832548,0.00275138,0.00217534,0.00377779,-0.00185896,1.12993,0.00331664,0.0108972,1651,463,4.92003,9.66769
434,561,4.91736,-9.38559,-0.00103151,0.00292173,0.00268828,0.00428185,-0.00239163,1.1024,0.00390412,0.0118322,1658,463,4.91735,9.38558
441,561,4.94495,-9.10876,-0.00144271,0.00313641,0.00329539,0.00485954,-0.00316584,1.089,0.00466772,0.0142672,1665,463,4.94489,9.10877
448,561,4.96484,-8.82339,-0.00214112,0.00328609,0.00389533,0.00531983,-0.00417486,1.08963,0.00549503,0.018869,1672,463,4.96488,8.82339
455,561,5.0332,-8.51434,-0.00319717,0.00308437,0.00442383,0.00536897,-0.00548178,1.09409,0.0062648,0.036142,1679,463,5.03319,8.51435
462,561,4.89502,-8.07642,-0.00452616,0.0027701,0.00492871,0.00525394,-0.00701,1.10399,0.00710475,0.038241,1686,463,4.895,8.07642
469,561,4.82532,-7.86465,-0.00594803,0.00218931,0.00545931,0.00492933,-0.00868804,1.10563,0.0079612,0.025009,1693,463,4.82528,7.86464
476,561,4.46118,-7.39838,-0.00769385,0.00111664,0.00563175,0.00386141,-0.0104386,1.1173,0.00854227,0.0406679,1700,463,4.46114,7.39839
483,561,4.02051,-6.81876,0,0,0,0,0,0,0,-1,1707,463,4.02056,6.81877
490,561,6.13135,-2.58374,0,0,0,0,0,0,0,-1,1714,463,6.13139,2.58373
497,561,7.30652,-2.46649,0,0,0,0,0,0,0,-1,1721,463,7.30649,2.4665
504,561,6.45044,-2.35263,0,0,0,0,0,0,0,-1,1728,463,6.4504,2.35263
511,561,0,0,0,0,0,0,0,0,0,-1,1735,463,0,0
518,561,0,0,0,0,0,0,0,0,0,-1,1742,463,0,0
525,561,0,0,0,0,0,0,0,0,0,-1,1749,463,0,0
532,561,0,0,0,0,0,0,0,0,0,-1,1756,463,0,0
539,561,0,0,0,0,0,0,0,0,0,-1,1763,463,0,0
546,561,0,0,0,0,0,0,0,0,0,-1,1770,463,0,0
553,561,0,0,0,0,0,0,0,0,0,-1,1777,463,0,0
560,561,0,0,0,0,0,0,0,0,0,-1,1784,463,0,0
567,561,0,0,0,0,0,0,0,0,0,-1,1791,463,0,0
574,561,0,0,0,0,0,0,0,0,0,-1,1798,463,0,0
581,561,0,0,0,0,0,0,0,0,0,-1,1805,463,0,0
588,561,0,0,0,0,0,0,0,0,0,-1,1812,463,0,0
595,561,0,0,0,0,0,0,0,0,0,-1,1819,463,0,0
602,561,0,0,0,0,0,0,0,0,0,-1,1826,463,0,0
609,561,0,0,0,0,0,0,0,0,0,-1,1833,463,0,0
616,561,0,0,0,0,0,0,0,0,0,-1,1840,463,0,0
623,561,0,0,0,0,0,0,0,0,0,-1,1847,463,0,0
630,561,0,0,0,0,0,0,0,0,0,-1,1854,463,0,0
637,561,0,0,0,0,0,0,0,0,0,-1,1861,463,0,0
644,561,0,0,0,0,0,0,0,0,0,-1,1868,463,0,0
651,561,0,0,0,0,0,0,0,0,0,-1,1875,463,0,0
658,561,0,0,0,0,0,0,0,0,0,-1,1882,463,0,0
665,561,0,0,0,0,0,0,0,0,0,-1,1889,463,0,0
672,561,0,0,0,0,0,0,0,0,0,-1,1896,463,0,0
679,561,0,0,0,0,0,0,0,0,0,-1,1903,463,0,0
686,561,0,0,0,0,0,0,0,0,0,-1,1910,463,0,0
693,561,0,0,0,0,0,0,0,0,0,-1,1917,463,0,0
700,561,0,0,0,0,0,0,0,0,0,-1,1924,463,0,0
707,561,0,0,0,0,0,0,0,0,0,-1,1931,463,0,0
714,561,0,0,0,0,0,0,0,0,0,-1,1938,463,0,0
721,561,0,0,0,0,0,0,0,0,0,-1,1945,463,0,0
728,561,0,0,0,0,0,0,0,0,0,-1,1952,463,0,0
735,561,0,0,0,0,0,0,0,0,0,-1,1959,463,0,0
742,561,0,0,0,0,0,0,0,0,0,-1,1966,463,0,0
749,561,0,0,0,0,0,0,0,0,0,-1,1973,463,0,0
756,561,0,0,0,0,0,0,0,0,0,-1,1980,463,0,0
763,561,0,0,0,0,0,0,0,0,0,-1,1987,463,0,0
770,561,0,0,0,0,0,0,0,0,0,-1,1994,463,0,0
777,561,0,0,0,0,0,0,0,0,0,-1,2001,463,0,0
784,561,0,0,0,0,0,0,0,0,0,-1,2008,463,0,0
791,561,0,0,0,0,0,0,0,0,0,-1,2015,463,0,0
798,561,0,0,0,0,0,0,0,0,0,-1,2022,463,0,0
805,561,0,0,0,0,0,0,0,0,0,-1,2029,463,0,0
812,561,0,0,0,0,0,0,0,0,0,-1,2036,463,0,0
-700,554,0,0,0,0,0,0,0,0,0,-1,524,470,0,0
-693,554,0,0,0,0,0,0,0,0,0,-1,531,470,0,0
-686,554,0,0,0,0,0,0,0,0,0,-1,538,470,0,0
-679,554,0,0,0,0,0,0,0,0,0,-1,545,470,0,0
-672,554,0,0,0,0,0,0,0,0,0,-1,552,470,0,0
-665,554,0,0,0,0,0,0,0,0,0,-1,559,470,0,0
-658,554,0,0,0,0,0,0,0,0,0,-1,566,470,0,0
-651,554,0,0,0,0,0,0,0,0,0,-1,573,470,0,0
-644,554,0,0,0,0,0,0,0,0,0,-1,580,470,0,0
-637,554,0,0,0,0,0,0,0,0,0,-1,587,470,0,0
-630,554,0,0,0,0,0,0,0,0,0,-1,594,470,0,0
-623,554,0,0,0,0,0,0,0,0,0,-1,601,470,0,0
-616,554,0,0,0,0,0,0,0,0,0,-1,608,470,0,0
-609,554,0,0,0,0,0,0,0,0,0,-1,615,470,0,0
-602,554,0,0,0,0,0,0,0,0,0,-1,622,470,0,0
-595,554,0,0,0,0,0,0,0,0,0,-1,629,470,0,0
-588,554,0,0,0,0,0,0,0,0,0,-1,636,470,0,0
-581,554,0,0,0,0,0,0,0,0,0,-1,643,470,0,0
-574,554,0,0,0,0,0,0,0,0,0,-1,650,470,0,0
-567,554,0,0,0,0,0,0,0,0,0,-1,657,470,0,0
-560,554,0,0,0,0,0,0,0,0,0,-1,664,470,0,0
-553,554,0,0,0,0,0,0,0,0,0,-1,671,470,0,0
-546,554,0,0,0,0,0,0,0,0,0,-1,678,470,0,0
-539,554,0,0,0,0,0,0,0,0,0,-1,685,470,0,0
-532,554,0,0,0,0,0,0,0,0,0,-1,692,470,0,0
-525,554,0,0,0,0,0,0,0,0,0,-1,699,470,0,0
-518,554,0,0,0,0,0,0,0,0,0,-1,706,470,0,0
-511,554,0,0,0,0,0,0,0,0,0,-1,713,470,0,0
-504,554,0,0,0,0,0,0,0,0,0,-1,720,470,0,0
-497,554,0,0,0,0,0,0,0,0,0,-1,727,470,0,0
-490,554,0,0,0,0,0,0,0,0,0,-1,734,470,0,0
-483,554,0,0,0,0,0,0,0,0,0,-1,741,470,0,0
-476,554,0,0,0,0,0,0,0,0,0,-1,748,470,0,0
-469,554,0,0,0,0,0,0,0,0,0,-1,755,470,0,0
-462,554,0,0,0,0,0,0,0,0,0,-1,762,470,0,0
-455,554,0,0,0,0,0,0,0,0,0,-1,769,470,0,0
-448,554,0,0,0,0,0,0,0,0,0,-1,776,470,0,0
-441,554,0,0,0,0,0,0,0,0,0,-1,783,470,0,0
-434,554,0,0,0,0,0,0,0,0,0,-1,790,470,0,0
-427,554,0,0,0,0,0,0,0,0,0,-1,797,470,0,0
-420,554,0,0,0,0,0,0,0,0,0,-1,804,470,0,0
-413,554,0,0,0,0,0,0,0,0,0,-1,811,470,0,0
-406,554,0,0,0,0,0,0,0,0,0,-1,818,470,0,0
-399,554,-1.32275,-3.95142,0,0,0,0,0,0,0,-1,825,470,-1.32275,3.95141
-392,554,-1.35632,-3.7406,0,0,0,0,0,0,0,-1,832,470,-1.35632,3.7406
-385,554,-0.849243,-4.14447,0,0,0,0,0,0,0,-1,839,470,-0.849262,4.14446
-378,554,-0.982666,-4.55084,0,0,0,0,0,0,0,-1,846,470,-0.982671,4.55084
-371,554,-1.74542,-4.63467,0,0,0,0,0,0,0,-1,853,470,-1.74541,4.63468
-364,554,1.04883,-7.68756,0,0,0,0,0,0,0,-1,860,470,1.0488,7.68757
-357,554,-0.0963745,-9.06607,0,0,0,0,0,0,0,-1,867,470,-0.0963828,9.06609
-350,554,1.4541,-9.41559,0,0,0,0,0,0,0,-1,874,470,1.45409,9.41559
-343,554,1.40247,-9.48532,0.00735297,-0.00758083,0.0018903,0.00758853,-0.00781639,0.123974,0.00889436,0.0470349,881,470,1.40247,9.48533
-336,554,1.25653,-9.62735,0.00665406,-0.00616719,0.00136798,0.00679839,-0.00631152,0.10512,0.00757075,0.0353743,888,470,1.25653,9.62735
-329,554,1.1236,-9.92471,0.00570004,-0.00520309,0.00106889,0.00580384,-0.00530689,0.0968073,0.00641692,0.0161098,895,470,1.1236,9.92473
-322,554,1.1192,-10.1859,0.00489162,-0.00405645,0.00058151,0.00492925,-0.00409408,0.0646249,0.00521706,0.0106778,902,470,1.11922,10.1858
-315,554,1.13263,-10.4532,0.00396387,-0.00283738,0.000166005,0.00396792,-0.00284143,0.0243887,0.00394927,0.0108504,909,470,1.13262,10.4532
-308,554,1.09357,-10.73,0.00313233,-0.00181492,-0.000193658,0.0031399,-0.00182249,-0.0390648,0.00289849,0.0129178,916,470,1.09356,10.73
-301,554,1.09955,-10.9974,0.00235019,-0.00111664,-0.000355297,0.00238623,-0.00115267,-0.101085,0.00208415,0.0139039,923,470,1.09955,10.9974
-294,554,1.06946,-11.2589,0.00170138,-0.000658502,-0.000375181,0.00175959,-0.000716713,-0.153928,0.00147135,0.0120232,930,470,1.06944,11.2588
-287,554,1.04523,-11.4928,0.00124468,-0.000374211,-0.000338274,0.00131252,-0.000442052,-0.197925,0.00105374,0.0111626,937,470,1.04525,11.4928
-280,554,1.0517,-11.7413,0.000883756,-0.000419582,-0.000209133,0.000916492,-0.000452317,-0.155268,0.000805286,0.0108787,944,470,1.05172,11.7413
-273,554,1.05499,-11.9978,0.000435481,-0.000566167,-2.65494e-05,0.000436185,-0.000566871,-0.0264809,0.00058075,0.0147233,951,470,1.05499,11.9978
-266,554,1.05487,-12.267,0.000332713,-0.00108811,0.00014849,0.000348066,-0.00110347,0.103027,0.000875053,0.0119134,958,470,1.05486,12.267
-259,554,1.04614,-12.485,0.000371235,-0.00178725,0.000547344,0.000502095,-0.00191812,0.234677,0.00147488,0.0113958,965,470,1.04615,12.485
-252,554,1.03552,-12.708,0.000364912,-0.0025167,0.000865592,0.000604931,-0.00275672,0.270493,0.00206914,0.0138361,972,470,1.03553,12.708
-245,554,1.02936,-12.9433,0.000506694,-0.00325988,0.0013139,0.000919731,-0.00367292,0.304578,0.00280589,0.0159814,979,470,1.02936,12.9433
-238,554,1.03979,-13.1861,0.0010381,-0.00427155,0.00167593,0.00152284,-0.00475628,0.28155,0.00378208,0.0120684,986,470,1.0398,13.1861
-231,554,1.04968,-13.4243,0.00142752,-0.0054621,0.00200625,0.00196916,-0.00600374,0.263688,0.00479559,0.0103192,993,470,1.04967,13.4243
-224,554,1.06079,-13.6257,0.00183398,-0.00640581,0.00241666,0.00249047,-0.0070623,0.265248,0.00572196,0.00975907,1000,470,1.06081,13.6257
-217,554,1.08563,-13.8305,0.00235707,-0.00727391,0.00281785,0.00312093,-0.00803778,0.264719,0.00664769,0.00987262,1007,470,1.08563,13.8305
-210,554,1.10565,-14.0797,0.0031506,-0.00808788,0.00305924,0.00392939,-0.00886667,0.249275,0.0075689,0.0138105,1014,470,1.10567,14.0797
-203,554,1.10065,-14.3277,0.00359461,-0.00881283,0.00222319,0.00398094,-0.00919915,0.172053,0.0078058,0.0229701,1021,470,1.10068,14.3277
-196,554,1.04626,-14.4118,0.00362801,-0.00837595,0.00140031,0.0037892,-0.00853714,0.114604,0.00729047,0.0291387,1028,470,1.04622,14.4118
-189,554,1.22412,-14.4615,0.00387433,-0.00797406,0.000544099,0.00389926,-0.007999,0.0457933,0.00700407,0.031907,1035,470,1.22414,14.4615
-182,554,1.40955,-14.4041,0.00390196,-0.00774543,-0.000631019,0.00393605,-0.00777952,-0.0539663,0.00688425,0.0385007,1042,470,1.40958,14.4041
-175,554,1.43079,-14.4087,0,0,0,0,0,0,0,-1,1049,470,1.4308,14.4087
-168,554,1.13708,-15.2042,0,0,0,0,0,0,0,-1,1056,470,1.1371,15.2042
-161,554,2.15637,-15.8287,0,0,0,0,0,0,0,-1,1063,470,2.15633,15.8287
-154,554,1.73706,-15.861,0.000472663,-0.00416227,-0.00702868,0.00555607,-0.00924568,-0.626152,0.00863384,0.045381,1070,470,1.73706,15.861
-147,554,1.56213,-16.1956,-0.000613604,-0.00371463,-0.00828102,0.00626081,-0.010589,-0.692851,0.00983467,0.0461856,1077,470,1.56217,16.1956
-140,554,1.35522,-16.2363,0,0,0,0,0,0,0,-1,1084,470,1.35525,16.2363
-133,554,1.33167,-16.1823,0,0,0,0,0,0,0,-1,1091,470,1.33166,16.1823
-126,554,-0.195923,-8.76236,0,0,0,0,0,0,0,-1,1098,470,-0.195888,8.76235
-119,554,0.493042,-14.0712,0,0,0,0,0,0,0,-1,1105,470,0.493001,14.0712
-112,554,0.837524,-12.4395,0,0,0,0,0,0,0,-1,1112,470,0.837493,12.4395
-105,554,2.82129,-9.46112,0,0,0,0,0,0,0,-1,1119,470,2.82127,9.46112
-98,554,1.51929,-7.3624,0,0,0,0,0,0,0,-1,1126,470,1.51928,7.36241
-91,554,1.41089,-6.5864,0,0,0,0,0,0,0,-1,1133,470,1.41093,6.58638
-84,554,1.62305,-5.87186,0,0,0,0,0,0,0,-1,1140,470,1.62299,5.87186
-77,554,-2.56958,1.33258,0,0,0,0,0,0,0,-1,1147,470,-2.56959,-1.33257
-70,554,-3.68164,-1.18332,0,0,0,0,0,0,0,-1,1154,470,-3.68158,1.18331
-63,554,-4.86853,-3.88708,0,0,0,0,0,0,0,-1,1161,470,-4.86853,3.88708
-56,554,-5.69958,-6.45422,0,0,0,0,0,0,0,-1,1168,470,-5.69955,6.45422
-49,554,-6.23645,-8.8569,0,0,0,0,0,0,0,-1,1175,470,-6.23643,8.85689
-42,554,-6.62524,-11.5382,0,0,0,0,0,0,0,-1,1182,470,-6.62522,11.5382
-35,554,-2.40173,-4.59482,0,0,0,0,0,0,0,-1,1189,470,-2.40169,4.59481
-28,554,-0.760132,-1.65555,0,0,0,0,0,0,0,-1,1196,470,-0.760095,1.65556
-21,554,2.11389,-16.8645,0,0,0,0,0,0,0,-1,1203,470,2.11394,16.8645
-14,554,2.40259,-17.369,0,0,0,0,0,0,0,-1,1210,470,2.40258,17.369
-7,554,2.66235,-17.8922,0,0,0,0,0,0,0,-1,1217,470,2.66234,17.8922
0,554,2.81299,-18.4621,0,0,0,0,0,0,0,-1,1224,470,2.81298,18.4621
7,554,16.4508,-28.0635,0,0,0,0,0,0,0,-1,1231,470,16.4508,28.0635
14,554,16.3853,-26.6356,-0.0162385,-0.0745045,0.0622722,0.0233785,-0.114121,0.566606,0.0849529,0.0457336,1238,470,16.3853,26.6356
21,554,16.2813,-25.2343,-0.00513147,-0.0706342,0.0529308,0.0243612,-0.100127,0.508349,0.0761813,0.0411826,1245,470,16.2813,25.2343
28,554,16.2435,-23.7717,0,0,0,0,0,0,0,-1,1252,470,16.2435,23.7717
35,554,16.21,-22.4848,0,0,0,0,0,0,0,-1,1259,470,16.21,22.4848
42,554,15.6233,-21.3688,0,0,0,0,0,0,0,-1,1266,470,15.6233,21.3688
49,554,15.089,-20.2627,0,0,0,0,0,0,0,-1,1273,470,15.0889,20.2627
56,554,14.5192,-19.1461,-0.068879,-0.119136,0.0187573,-0.0626502,-0.125364,0.320615,0.0723792,0.0450626,1280,470,14.5192,19.1461
63,554,13.8663,-17.9225,-0.0831901,-0.128158,0.0132865,-0.0795577,-0.131791,0.266862,0.0766325,0.043982,1287,470,13.8663,17.9225
70,554,13.754,-15.8213,0,0,0,0,0,0,0,-1,1294,470,13.754,15.8212
77,554,13.2102,-15.1734,-0.102426,-0.13577,-0.00230806,-0.102267,-0.135929,-0.068781,0.0817427,0.0455226,1301,470,13.2101,15.1734
84,554,11.7983,-14.4524,-0.113371,-0.135471,-0.00223059,-0.113148,-0.135694,-0.0995927,0.0839625,0.0460856,1308,470,11.7984,14.4524
91,554,9.72803,-14.0585,-0.118168,-0.129708,-0.0036782,-0.117096,-0.130781,-0.283752,0.0830025,0.0398063,1315,470,9.72804,14.0585
98,554,9.09998,-13.7584,-0.11749,-0.122411,-0.00729199,-0.112254,-0.127646,-0.622688,0.0804591,0.0420948,1322,470,9.09997,13.7584
105,554,8.41382,-13.706,0,0,0,0,0,0,0,-1,1329,470,8.41377,13.706
112,554,6.11316,-12.8739,-0.112785,-0.102758,-0.0149607,-0.0919931,-0.12355,-0.947065,0.0741217,0.0467881,1336,470,6.11321,12.8739
119,554,5.6875,-13.1593,-0.106476,-0.0909692,-0.0210596,-0.0762811,-0.121164,-0.961784,0.0707328,0.0418186,1343,470,5.68752,13.1593
126,554,5.1449,-13.437,-0.10031,-0.0812386,-0.0268939,-0.0622399,-0.119308,-0.955764,0.0689043,0.0425578,1350,470,5.14488,13.437
133,554,4.60754,-13.7469,-0.0936962,-0.0750155,-0.032982,-0.0500769,-0.118635,-0.923383,0.0687704,0.0447501,1357,470,4.6075,13.7469
140,554,4.31348,-14.2115,-0.0875716,-0.0732935,-0.0396431,-0.0401518,-0.120713,-0.874485,0.0709836,0.0485785,1364,470,4.31347,14.2115
147,554,3.89771,-14.4558,-0.0803621,-0.0771022,-0.0440378,-0.0346642,-0.1228,-0.803896,0.0731048,0.0479573,1371,470,3.8977,14.4558
154,554,3.52576,-14.7541,-0.0693771,-0.0728858,-0.0436674,-0.0274288,-0.114834,-0.765321,0.0692482,0.0460641,1378,470,3.52581,14.7541
161,554,3.11731,-15.0448,0,0,0,0,0,0,0,-1,1385,470,3.11732,15.0448
168,554,2.88318,-15.3832,0,0,0,0,0,0,0,-1,1392,470,2.88313,15.3832
175,554,10.663,0.286957,0,0,0,0,0,0,0,-1,1399,470,10.663,-0.286966
182,554,6.71106,-4.50217,0,0,0,0,0,0,0,-1,1406,470,6.71107,4.50215
189,554,6.90479,-2.50348,0,0,0,0,0,0,0,-1,1413,470,6.90477,2.50348
196,554,6.96216,-0.740906,0,0,0,0,0,0,0,-1,1420,470,6.96214,0.740912
203,554,6.43518,0.414154,0,0,0,0,0,0,0,-1,1427,470,6.43523,-0.414141
210,554,6.21167,1.96707,0,0,0,0,0,0,0,-1,1434,470,6.21165,-1.96706
217,554,5.64551,3.4989,0,0,0,0,0,0,0,-1,1441,470,5.64555,-3.49891
224,554,4.85144,-8.85172,0,0,0,0,0,0,0,-1,1448,470,4.85146,8.85173
231,554,3.25073,-5.29642,0,0,0,0,0,0,0,-1,1455,470,3.25078,5.29642
238,554,4.28625,-3.25253,0,0,0,0,0,0,0,-1,1462,470,4.28622,3.25252
245,554,4.0752,-2.90033,0,0,0,0,0,0,0,-1,1469,470,4.07515,2.90032
252,554,3.52112,-0.934998,0,0,0,0,0,0,0,-1,1476,470,3.52113,0.934996
259,554,3.96448,-2.16425,0,0,0,0,0,0,0,-1,1483,470,3.96446,2.16424
266,554,3.0592,-2.71716,0,0,0,0,0,0,0,-1,1490,470,3.05923,2.71718
273,554,2.58521,-3.06876,0,0,0,0,0,0,0,-1,1497,470,2.58524,3.06874
280,554,2.83301,-0.991699,0,0,0,0,0,0,0,-1,1504,470,2.83303,0.991704
287,554,3.54126,-4.12277,0,0,0,0,0,0,0,-1,1511,470,3.54123,4.12277
294,554,3.62036,-8.50146,0,0,0,0,0,0,0,-1,1518,470,3.62031,8.50145
301,554,5.05322,-13.9721,0,0,0,0,0,0,0,-1,1525,470,5.05322,13.9721
308,554,5.11719,-13.9426,0,0,0,0,0,0,0,-1,1532,470,5.11717,13.9426
315,554,5.1554,-13.5564,0,0,0,0,0,0,0,-1,1539,470,5.15538,13.5564
322,554,5.27148,-13.3842,-0.0028873,-0.00632218,-0.00554106,0.00119638,-0.0104059,-0.635119,0.00736847,0.048851,1546,470,5.27142,13.3842
329,554,5.20947,-13.1913,-0.00319268,-0.00575956,-0.00527365,0.000951456,-0.00990369,-0.666034,0.00694139,0.0306897,1553,470,5.2095,13.1913
336,554,5.17554,-13.0747,-0.00329517,-0.00510092,-0.0048339,0.000719456,-0.00911554,-0.693072,0.00633049,0.0151419,1560,470,5.1756,13.0747
343,554,5.18066,-12.869,-0.00332681,-0.00424319,-0.00430706,0.000546362,-0.00811637,-0.732407,0.00560192,0.0109177,1567,470,5.18064,12.8689
350,554,5.21277,-12.6163,-0.00311549,-0.00356989,-0.00374054,0.000404748,-0.00709013,-0.755066,0.00486728,0.00957747,1574,470,5.21278,12.6163
357,554,5.24365,-12.3632,-0.00278237,-0.00276842,-0.00312572,0.000350332,-0.00590113,-0.786514,0.00405591,0.0107456,1581,470,5.24362,12.3631
364,554,5.23877,-12.1222,-0.00235477,-0.00190995,-0.00242128,0.00029911,-0.00456383,-0.831198,0.003147,0.00873728,1588,470,5.23882,12.1222
371,554,5.22754,-11.8657,-0.00194448,-0.00112146,-0.00175434,0.000268989,-0.00333493,-0.900599,0.00231816,0.00824693,1595,470,5.22751,11.8657
378,554,5.23511,-11.6031,-0.00157139,-0.000314344,-0.0011693,0.000384647,-0.00227038,-1.03201,0.00165676,0.00958782,1602,470,5.23507,11.6031
385,554,5.24194,-11.353,-0.00126182,0.000292178,-0.000730489,0.000581641,-0.00155128,-1.19352,0.00127315,0.00923786,1609,470,5.24192,11.353
392,554,5.22717,-11.0765,-0.00089886,0.00067242,-0.000267969,0.000716863,-0.000943303,-1.40644,0.000961465,0.0129123,1616,470,5.22723,11.0765
399,554,5.21851,-10.815,-0.000599905,0.0010692,9.36975e-05,0.00107444,-0.000605148,1.51489,0.000982247,0.0173208,1623,470,5.21853,10.815
406,554,5.20813,-10.5661,-0.00037263,0.00141871,0.000530098,0.00156382,-0.000517743,1.3036,0.00125136,0.0161638,1630,470,5.20811,10.5661
413,554,5.21741,-10.2707,-0.000195284,0.00176837,0.000910396,0.0021255,-0.000552414,1.19696,0.00163259,0.0152263,1637,470,5.2174,10.2707
420,554,5.21802,-9.97491,-0.000204018,0.00212384,0.00123349,0.00265585,-0.000736038,1.16359,0.00206022,0.016518,1644,470,5.218,9.97493
427,554,5.19434,-9.68579,-0.000490409,0.00215427,0.00166669,0.00295948,-0.00129562,1.12075,0.00251851,0.0123041,1651,470,5.19434,9.68578
434,554,5.17566,-9.41415,-0.000652619,0.00228717,0.00213843,0.00341216,-0.00177762,1.0865,0.00304546,0.0109204,1658,470,5.17562,9.41415
441,554,5.20508,-9.11868,-0.000983122,0.00250314,0.00269393,0.00396871,-0.00244869,1.07255,0.00373957,0.0114585,1665,470,5.20509,9.11869
448,554,5.19958,-8.79413,-0.00153658,0.00263604,0.00323439,0.00439862,-0.00329916,1.07184,0.0044594,0.0130736,1672,470,5.19964,8.79413
455,554,5.17053,-8.49503,-0.00233174,0.00254879,0.00371467,0.00455304,-0.00433599,1.07601,0.00513259,0.0152682,1679,470,5.17055,8.49503
462,554,5.12488,-8.2301,-0.00323667,0.0023098,0.00416218,0.00453802,-0.00546489,1.07927,0.00578344,0.0179891,1686,470,5.12487,8.23009
469,554,5.10657,-7.88501,-0.00411124,0.00190169,0.00465102,0.00443334,-0.00664289,1.07232,0.00643714,0.0231125,1693,470,5.10655,7.88501
476,554,4.93579,-7.15414,-0.00529895,0.00117075,0.00488448,0.00379443,-0.00792263,1.07788,0.00690339,0.0447368,1700,470,4.93585,7.15413
483,554,4.73535,-6.39816,0,0,0,0,0,0,0,-1,1707,470,4.7353,6.39818
490,554,7.31543,-3.51794,0,0,0,0,0,0,0,-1,1714,470,7.3154,3.51794
497,554,7.9751,-2.43454,0,0,0,0,0,0,0,-1,1721,470,7.97505,2.43453
504,554,2.13257,-3.81628,0,0,0,0,0,0,0,-1,1728,470,2.1326,3.8163
511,554,1.31396,-4.02713,0,0,0,0,0,0,0,-1,1735,470,1.31398,4.02712
518,554,3.73145,-6.43094,0,0,0,0,0,0,0,-1,1742,470,3.73141,6.43095
525,554,0,0,0,0,0,0,0,0,0,-1,1749,470,0,0
532,554,0,0,0,0,0,0,0,0,0,-1,1756,470,0,0
539,554,0,0,0,0,0,0,0,0,0,-1,1763,470,0,0
546,554,0,0,0,0,0,0,0,0,0,-1,1770,470,0,0
553,554,0,0,0,0,0,0,0,0,0,-1,1777,470,0,0
560,554,0,0,0,0,0,0,0,0,0,-1,1784,470,0,0
567,554,0,0,0,0,0,0,0,0,0,-1,1791,470,0,0
574,554,0,0,0,0,0,0,0,0,0,-1,1798,470,0,0
581,554,0,0,0,0,0,0,0,0,0,-1,1805,470,0,0
588,554,0,0,0,0,0,0,0,0,0,-1,1812,470,0,0
595,554,0,0,0,0,0,0,0,0,0,-1,1819,470,0,0
602,554,0,0,0,0,0,0,0,0,0,-1,1826,470,0,0
609,554,0,0,0,0,0,0,0,0,0,-1,1833,470,0,0
616,554,0,0,0,0,0,0,0,0,0,-1,1840,470,0,0
623,554,0,0,0,0,0,0,0,0,0,-1,1847,470,0,0
630,554,0,0,0,0,0,0,0,0,0,-1,1854,470,0,0
637,554,0,0,0,0,0,0,0,0,0,-1,1861,470,0,0
644,554,0,0,0,0,0,0,0,0,0,-1,1868,470,0,0
651,554,0,0,0,0,0,0,0,0,0,-1,1875,470,0,0
658,554,0,0,0,0,0,0,0,0,0,-1,1882,470,0,0
665,554,0,0,0,0,0,0,0,0,0,-1,1889,470,0,0
672,554,0,0,0,0,0,0,0,0,0,-1,1896,470,0,0
679,554,0,0,0,0,0,0,0,0,0,-1,1903,470,0,0
686,554,0,0,0,0,0,0,0,0,0,-1,1910,470,0,0
693,554,0,0,0,0,0,0,0,0,0,-1,1917,470,0,0
700,554,0,0,0,0,0,0,0,0,0,-1,1924,470,0,0
707,554,0,0,0,0,0,0,0,0,0,-1,1931,470,0,0
714,554,0,0,0,0,0,0,0,0,0,-1,1938,470,0,0
721,554,0,0,0,0,0,0,0,0,0,-1,1945,470,0,0
728,554,0,0,0,0,0,0,0,0,0,-1,1952,470,0,0
735,554,0,0,0,0,0,0,0,0,0,-1,1959,470,0,0
742,554,0,0,0,0,0,0,0,0,0,-1,1966,470,0,0
749,554,0,0,0,0,0,0,0,0,0,-1,1973,470,0,0
756,554,0,0,0,0,0,0,0,0,0,-1,1980,470,0,0
763,554,0,0,0,0,0,0,0,0,0,-1,1987,470,0,0
770,554,0,0,0,0,0,0,0,0,0,-1,1994,470,0,0
777,554,0,0,0,0,0,0,0,0,0,-1,2001,470,0,0
784,554,0,0,0,0,0,0,0,0,0,-1,2008,470,0,0
791,554,0,0,0,0,0,0,0,0,0,-1,2015,470,0,0
798,554,0,0,0,0,0,0,0,0,0,-1,2022,470,0,0
805,554,0,0,0,0,0,0,0,0,0,-1,2029,470,0,0
812,554,0,0,0,0,0,0,0,0,0,-1,2036,470,0,0
-700,547,0,0,0,0,0,0,0,0,0,-1,524,477,0,0
-693,547,0,0,0,0,0,0,0,0,0,-1,531,477,0,0
-686,547,0,0,0,0,0,0,0,0,0,-1,538,477,0,0
-679,547,0,0,0,0,0,0,0,0,0,-1,545,477,0,0
-672,547,0,0,0,0,0,0,0,0,0,-1,552,477,0,0
-665,547,0,0,0,0,0,0,0,0,0,-1,559,477,0,0
-658,547,0,0,0,0,0,0,0,0,0,-1,566,477,0,0
-651,547,0,0,0,0,0,0,0,0,0,-1,573,477,0,0
-644,547,0,0,0,0,0,0,0,0,0,-1,580,477,0,0
-637,547,0,0,0,0,0,0,0,0,0,-1,587,477,0,0
-630,547,0,0,0,0,0,0,0,0,0,-1,594,477,0,0
-623,547,0,0,0,0,0,0,0,0,0,-1,601,477,0,0
-616,547,0,0,0,0,0,0,0,0,0,-1,608,477,0,0
-609,547,0,0,0,0,0,0,0,0,0,-1,615,477,0,0
-602,547,0,0,0,0,0,0,0,0,0,-1,622,477,0,0
-595,547,0,0,0,0,0,0,0,0,0,-1,629,477,0,0
-588,547,0,0,0,0,0,0,0,0,0,-1,636,477,0,0
-581,547,0,0,0,0,0,0,0,0,0,-1,643,477,0,0
-574,547,0,0,0,0,0,0,0,0,0,-1,650,477,0,0
-567,547,0,0,0,0,0,0,0,0,0,-1,657,477,0,0
-560,547,0,0,0,0,0,0,0,0,0,-1,664,477,0,0
-553,547,0,0,0,0,0,0,0,0,0,-1,671,477,0,0
-546,547,0,0,0,0,0,0,0,0,0,-1,678,477,0,0
-539,547,0,0,0,0,0,0,0,0,0,-1,685,477,0,0
-532,547,0,0,0,0,0,0,0,0,0,-1,692,477,0,0
-525,547,0,0,0,0,0,0,0,0,0,-1,699,477,0,0
-518,547,0,0,0,0,0,0,0,0,0,-1,706,477,0,0
-511,547,0,0,0,0,0,0,0,0,0,-1,713,477,0,0
-504,547,0,0,0,0,0,0,0,0,0,-1,720,477,0,0
-497,547,0,0,0,0,0,0,0,0,0,-1,727,477,0,0
-490,547,0,0,0,0,0,0,0,0,0,-1,734,477,0,0
-483,547,0,0,0,0,0,0,0,0,0,-1,741,477,0,0
-476,547,0,0,0,0,0,0,0,0,0,-1,748,477,0,0
-469,547,0,0,0,0,0,0,0,0,0,-1,755,477,0,0
-462,547,0,0,0,0,0,0,0,0,0,-1,762,477,0,0
-455,547,0,0,0,0,0,0,0,0,0,-1,769,477,0,0
-448,547,0,0,0,0,0,0,0,0,0,-1,776,477,0,0
-441,547,0,0,0,0,0,0,0,0,0,-1,783,477,0,0
-434,547,0,0,0,0,0,0,0,0,0,-1,790,477,0,0
-427,547,0,0,0,0,0,0,0,0,0,-1,797,477,0,0
-420,547,0,0,0,0,0,0,0,0,0,-1,804,477,0,0
-413,547,0,0,0,0,0,0,0,0,0,-1,811,477,0,0
-406,547,-0.938843,-4.6098,0,0,0,0,0,0,0,-1,818,477,-0.938822,4.6098
-399,547,-1.16168,-4.28796,0,0,0,0,0,0,0,-1,825,477,-1.1617,4.28797
-392,547,-1.52271,-4.41675,0,0,0,0,0,0,0,-1,832,477,-1.52273,4.41674
-385,547,-1.73743,-4.6431,0,0,0,0,0,0,0,-1,839,477,-1.73743,4.64308
-378,547,-2.41339,-4.60071,0,0,0,0,0,0,0,-1,846,477,-2.41337,4.60071
-371,547,-3.15997,-4.6044,0,0,0,0,0,0,0,-1,853,477,-3.15997,4.60439
-364,547,0.271729,-4.58582,0,0,0,0,0,0,0,-1,860,477,0.271753,4.5858
-357,547,1.13318,-6.4292,0,0,0,0,0,0,0,-1,867,477,1.1332,6.4292
-350,547,0.99231,-9.04312,0,0,0,0,0,0,0,-1,874,477,0.992327,9.04311
-343,547,0.914368,-9.26535,0.00431333,-0.0052826,0.00128106,0.00448141,-0.00545068,0.130458,0.00574339,0.0393735,881,477,0.914346,9.26534
-336,547,0.909424,-9.60898,0.0039714,-0.00434451,0.00103175,0.0040975,-0.00447061,0.121613,0.00494836,0.0168232,888,477,0.90943,9.60899
-329,547,0.862854,-9.8779,0.00339178,-0.00377847,0.000939365,0.0035128,-0.00389949,0.128128,0.00428143,0.00849231,895,477,0.86284,9.87791
-322,547,0.865479,-10.1609,0.00293309,-0.00295354,0.000607367,0.00299511,-0.00301555,0.101749,0.00347026,0.0104781,902,477,0.865474,10.1609
-315,547,0.859009,-10.4728,0.00241524,-0.00205711,0.000308119,0.00243636,-0.00207824,0.0684631,0.00260924,0.0104791,909,477,0.859007,10.4728
-308,547,0.839233,-10.7421,0.00199046,-0.00131645,3.54691e-05,0.00199084,-0.00131683,0.0107241,0.00192286,0.0115232,916,477,0.839243,10.7421
-301,547,0.83667,-10.9994,0.00159365,-0.000817766,-8.9497e-05,0.00159697,-0.000821083,-0.0370459,0.00141982,0.0113549,923,477,0.836687,10.9994
-294,547,0.808899,-11.2554,0.00126117,-0.000543102,-5.85667e-05,0.00126307,-0.000545001,-0.0324146,0.00107098,0.00971925,930,477,0.808919,11.2554
-287,547,0.790588,-11.4899,0.00105318,-0.000488134,5.77174e-05,0.00105534,-0.000490292,0.0373771,0.000912031,0.0108412,937,477,0.790593,11.4899
-280,547,0.798523,-11.7273,0.000917158,-0.000755895,0.000220809,0.00094581,-0.000784546,0.129037,0.00100047,0.0131299,944,477,0.798546,11.7273
-273,547,0.817627,-12.0084,0.000720869,-0.00120294,0.000443242,0.000818079,-0.00130015,0.215898,0.00123347,0.0143035,951,477,0.817633,12.0084
-266,547,0.813477,-12.2599,0.000751789,-0.00192791,0.000718548,0.000932304,-0.00210842,0.246128,0.00179881,0.0130241,958,477,0.813486,12.2599
-259,547,0.812012,-12.4784,0.000858182,-0.00289204,0.00113032,0.00117251,-0.00320637,0.271238,0.00261747,0.0106005,965,477,0.812016,12.4784
-252,547,0.819153,-12.7116,0.0008324,-0.00381956,0.00150738,0.00127813,-0.00426529,0.287506,0.00335181,0.010867,972,477,0.819151,12.7116
-245,547,0.823486,-12.9601,0.000890671,-0.00474336,0.0020667,0.00156748,-0.00542017,0.316477,0.00423379,0.0125035,979,477,0.823472,12.9601
-238,547,0.823303,-13.1887,0.00146095,-0.00602359,0.00251741,0.00222888,-0.00679152,0.296083,0.00542546,0.00896392,986,477,0.82328,13.1887
-231,547,0.81189,-13.4158,0.00184395,-0.00744899,0.00292159,0.00268614,-0.00829118,0.280655,0.00660741,0.00829752,993,477,0.811881,13.4158
-224,547,0.831604,-13.6022,0.00223136,-0.00860997,0.00342788,0.00322427,-0.00960288,0.281942,0.00770493,0.0101927,1000,477,0.831628,13.6022
-217,547,0.871887,-13.8294,0.00278928,-0.00964285,0.00390702,0.00391517,-0.0107687,0.280569,0.00878017,0.014639,1007,477,0.871868,13.8294
-210,547,0.880737,-14.0141,0.00367752,-0.0105805,0.00420641,0.00482599,-0.0117289,0.266533,0.00983106,0.0278892,1014,477,0.88074,14.0141
-203,547,0.787842,-13.9987,0.00404468,-0.011484,0.0030663,0.00462823,-0.0120675,0.18806,0.00995315,0.0388378,1021,477,0.787811,13.9987
-196,547,0.693726,-14.2383,0.00390988,-0.010818,0.00190597,0.00415254,-0.0110607,0.126633,0.00908017,0.0418249,1028,477,0.693687,14.2383
-189,547,1.22778,-14.1893,0.00407103,-0.0102766,0.000660767,0.00410139,-0.010307,0.0459245,0.008572,0.0435072,1035,477,1.22775,14.1893
-182,547,1.83936,-14.0882,0,0,0,0,0,0,0,-1,1042,477,1.83937,14.0882
-175,547,-0.350098,-12.3584,0,0,0,0,0,0,0,-1,1049,477,-0.350098,12.3584
-168,547,1.12463,-8.66785,0,0,0,0,0,0,0,-1,1056,477,1.12461,8.66786
-161,547,2.13,-15.5284,0,0,0,0,0,0,0,-1,1063,477,2.13006,15.5284
-154,547,1.71252,-15.5424,-0.00208696,-0.0046859,-0.0106041,0.00729701,-0.0140699,-0.72443,0.0125411,0.0461994,1070,477,1.71254,15.5424
-147,547,1.46704,-16.3223,-0.00402864,-0.003856,-0.012662,0.00871998,-0.0166046,-0.788807,0.0148555,0.0437988,1077,477,1.46701,16.3223
-140,547,1.25037,-16.3478,0,0,0,0,0,0,0,-1,1084,477,1.25038,16.3478
-133,547,1.08337,-16.4468,0,0,0,0,0,0,0,-1,1091,477,1.08333,16.4468
-126,547,0.784302,-9.76431,0,0,0,0,0,0,0,-1,1098,477,0.78428,9.76432
-119,547,-0.531006,-10.0229,0,0,0,0,0,0,0,-1,1105,477,-0.530984,10.0229
-112,547,4.36194,-9.23029,0,0,0,0,0,0,0,-1,1112,477,4.36195,9.23029
-105,547,4.448,-9.17819,0,0,0,0,0,0,0,-1,1119,477,4.44799,9.1782
-98,547,1.50391,-7.20621,0,0,0,0,0,0,0,-1,1126,477,1.50395,7.20621
-91,547,1.37805,-7.12024,0,0,0,0,0,0,0,-1,1133,477,1.37804,7.12025
-84,547,1.94202,-6.66241,0,0,0,0,0,0,0,-1,1140,477,1.94201,6.66241
-77,547,-2.28357,1.8588,0,0,0,0,0,0,0,-1,1147,477,-2.28356,-1.85879
-70,547,-3.70178,-0.874908,0,0,0,0,0,0,0,-1,1154,477,-3.70182,0.874918
-63,547,-5.12012,-3.60861,0,0,0,0,0,0,0,-1,1161,477,-5.12009,3.60862
-56,547,-6.01917,-6.2399,0,0,0,0,0,0,0,-1,1168,477,-6.01921,6.23991
-49,547,-6.729,-8.60349,0,0,0,0,0,0,0,-1,1175,477,-6.72899,8.60348
-42,547,-2.41736,-5.53012,0,0,0,0,0,0,0,-1,1182,477,-2.41734,5.53011
-35,547,-2.96838,-4.45734,0,0,0,0,0,0,0,-1,1189,477,-2.96839,4.45734
-28,547,-0.869141,-1.29901,0,0,0,0,0,0,0,-1,1196,477,-0.869135,1.29901
-21,547,4.6062,-17.7772,0,0,0,0,0,0,0,-1,1203,477,4.60625,17.7771
-14,547,2.55115,-17.2508,0,0,0,0,0,0,0,-1,1210,477,2.55111,17.2508
-7,547,2.83936,-17.6929,0,0,0,0,0,0,0,-1,1217,477,2.83933,17.6929
0,547,3.04553,-17.9765,0,0,0,0,0,0,0,-1,1224,477,3.04557,17.9765
7,547,3.25427,-18.2566,0,0,0,0,0,0,0,-1,1231,477,3.25425,18.2566
14,547,0,0,0,0,0,0,0,0,0,-1,1238,477,0,0
21,547,0,0,0,0,0,0,0,0,0,-1,1245,477,0,0
28,547,0,0,0,0,0,0,0,0,0,-1,1252,477,0,0
35,547,0,0,0,0,0,0,0,0,0,-1,1259,477,0,0
42,547,0,0,0,0,0,0,0,0,0,-1,1266,477,0,0
49,547,0,0,0,0,0,0,0,0,0,-1,1273,477,0,0
56,547,0,0,0,0,0,0,0,0,0,-1,1280,477,0,0
63,547,0,0,0,0,0,0,0,0,0,-1,1287,477,0,0
70,547,0,0,0,0,0,0,0,0,0,-1,1294,477,0,0
77,547,0,0,0,0,0,0,0,0,0,-1,1301,477,0,0
84,547,0,0,0,0,0,0,0,0,0,-1,1308,477,0,0
91,547,0,0,0,0,0,0,0,0,0,-1,1315,477,0,0
98,547,0,0,0,0,0,0,0,0,0,-1,1322,477,0,0
105,547,8.66895,-12.7888,0,0,0,0,0,0,0,-1,1329,477,8.66898,12.7888
112,547,6.75891,-12.2686,0,0,0,0,0,0,0,-1,1336,477,6.75888,12.2685
119,547,6.2699,-12.5533,-0.107989,-0.109079,-0.041298,-0.0672324,-0.149836,-0.778803,0.0866592,0.0430714,1343,477,6.26986,12.5533
126,547,5.34595,-12.7434,-0.099091,-0.0976196,-0.0457728,-0.0525765,-0.144134,-0.793434,0.0842241,0.0422716,1350,477,5.34594,12.7435
133,547,5.23718,-13.3125,-0.0900664,-0.0896624,-0.051012,-0.038852,-0.140877,-0.787378,0.0840169,0.0482564,1357,477,5.23723,13.3125
140,547,4.92249,-13.6237,-0.0823682,-0.0867445,-0.0570893,-0.0274252,-0.141688,-0.766243,0.0867735,0.0465843,1364,477,4.92242,13.6237
147,547,4.55847,-13.8656,-0.0739549,-0.0906614,-0.0603625,-0.0213704,-0.143246,-0.716643,0.0892309,0.0455104,1371,477,4.55851,13.8656
154,547,4.01746,-14.2372,-0.0621713,-0.0843439,-0.0581171,-0.0140925,-0.132423,-0.691151,0.0839793,0.0469854,1378,477,4.01747,14.2372
161,547,3.46155,-14.268,0,0,0,0,0,0,0,-1,1385,477,3.46154,14.268
168,547,-1.09973,-17.3397,0,0,0,0,0,0,0,-1,1392,477,-1.09977,17.3397
175,547,3.35034,-0.26532,0,0,0,0,0,0,0,-1,1399,477,3.3503,0.265306
182,547,4.26038,3.72672,0,0,0,0,0,0,0,-1,1406,477,4.26039,-3.7267
189,547,3.40454,1.28671,0,0,0,0,0,0,0,-1,1413,477,3.40457,-1.28673
196,547,3.53931,1.87793,0,0,0,0,0,0,0,-1,1420,477,3.53928,-1.87794
203,547,6.49414,-0.425842,0,0,0,0,0,0,0,-1,1427,477,6.4941,0.425844
210,547,4.82092,0.53595,0,0,0,0,0,0,0,-1,1434,477,4.82096,-0.535942
217,547,4.68579,0.480072,0,0,0,0,0,0,0,-1,1441,477,4.68577,-0.480069
224,547,4.55615,0.739807,0,0,0,0,0,0,0,-1,1448,477,4.55613,-0.73981
231,547,5.90869,-3.57721,0,0,0,0,0,0,0,-1,1455,477,5.90871,3.57722
238,547,5.50049,-3.15356,0,0,0,0,0,0,0,-1,1462,477,5.50045,3.15356
245,547,5.13708,-2.65213,0,0,0,0,0,0,0,-1,1469,477,5.13708,2.65212
252,547,3.73511,-0.645233,0,0,0,0,0,0,0,-1,1476,477,3.73515,0.645237
259,547,5.86816,-3.20816,0,0,0,0,0,0,0,-1,1483,477,5.86815,3.20816
266,547,5.40222,-2.45731,0,0,0,0,0,0,0,-1,1490,477,5.40221,2.45732
273,547,3.05737,0.495789,0,0,0,0,0,0,0,-1,1497,477,3.05742,-0.49578
280,547,2.0885,1.47797,0,0,0,0,0,0,0,-1,1504,477,2.08848,-1.47795
287,547,2.31177,-2.21716,0,0,0,0,0,0,0,-1,1511,477,2.31174,2.21717
294,547,2.4823,-3.03659,0,0,0,0,0,0,0,-1,1518,477,2.48229,3.0366
301,547,4.72119,-3.93454,0,0,0,0,0,0,0,-1,1525,477,4.72119,3.93453
308,547,4.07471,-5.42175,0,0,0,0,0,0,0,-1,1532,477,4.07468,5.42174
315,547,3.58496,-6.62112,0,0,0,0,0,0,0,-1,1539,477,3.58497,6.62113
322,547,5.53247,-13.3545,0,0,0,0,0,0,0,-1,1546,477,5.53242,13.3545
329,547,5.69019,-13.179,0,0,0,0,0,0,0,-1,1553,477,5.69021,13.179
336,547,5.62195,-13.0142,-0.0054804,-0.00672998,-0.00666608,0.000590106,-0.0128005,-0.738671,0.00873701,0.0387217,1560,477,5.62191,13.0142
343,547,5.51721,-12.9155,-0.00525457,-0.00561663,-0.0059412,0.000508359,-0.0113796,-0.770168,0.00776137,0.030374,1567,477,5.51726,12.9155
350,547,5.50012,-12.6713,-0.00474489,-0.00484682,-0.00521607,0.00042046,-0.0100122,-0.780513,0.00681926,0.0222136,1574,477,5.50009,12.6713
357,547,5.48938,-12.4047,-0.0041195,-0.00389672,-0.00443776,0.000431043,-0.00844727,-0.797946,0.00578055,0.0155258,1581,477,5.48942,12.4047
364,547,5.47595,-12.1277,-0.0033613,-0.00289246,-0.00352883,0.000409727,-0.00666348,-0.818565,0.004585,0.00959006,1588,477,5.47593,12.1276
371,547,5.4834,-11.8619,-0.00265928,-0.00196416,-0.00270515,0.00041567,-0.00503911,-0.849289,0.00350619,0.00844947,1595,477,5.48335,11.8619
378,547,5.51111,-11.6154,-0.0020799,-0.00106272,-0.00201592,0.000507779,-0.0036504,-0.908964,0.00261932,0.00972651,1602,477,5.5111,11.6154
385,547,5.51721,-11.3534,-0.00158681,-0.000376907,-0.00144381,0.000583563,-0.00254728,-0.983786,0.00192246,0.0105898,1609,477,5.51718,11.3534
392,547,5.48596,-11.0836,-0.00106447,6.55236e-05,-0.000832534,0.000506674,-0.00150563,-1.08352,0.00120858,0.0117835,1616,477,5.48594,11.0836
399,547,5.46509,-10.7986,-0.000701258,0.00055785,-0.000423873,0.000687247,-0.000830656,-1.27451,0.000877664,0.013053,1623,477,5.4651,10.7986
406,547,5.47388,-10.5115,-0.000483173,0.000839921,-4.19027e-05,0.000841247,-0.000484499,-1.53917,0.000774602,0.012778,1630,477,5.47389,10.5115
413,547,5.49695,-10.2451,-0.000255419,0.00119742,0.000350571,0.00127759,-0.000335588,1.34598,0.000982877,0.012843,1637,477,5.49699,10.2451
420,547,5.50366,-10.0038,-0.000168763,0.00151357,0.000701135,0.00176746,-0.000422654,1.22337,0.00134157,0.0158127,1644,477,5.50369,10.0038
427,547,5.49072,-9.70358,-0.000328066,0.0016335,0.00110805,0.00213249,-0.000827054,1.14767,0.00176323,0.0155195,1651,477,5.49068,9.70357
434,547,5.44958,-9.40659,-0.00042915,0.00174889,0.00155696,0.0025599,-0.00124016,1.09058,0.00223763,0.0103132,1658,477,5.44964,9.40659
441,547,5.45569,-9.14453,-0.000651965,0.00196875,0.0020783,0.00311529,-0.00179851,1.06667,0.00287074,0.0106561,1665,477,5.45567,9.14455
448,547,5.44641,-8.81644,-0.00103807,0.00209382,0.00257946,0.00354546,-0.00248971,1.0582,0.00350213,0.0115181,1672,477,5.44644,8.81642
455,547,5.44556,-8.50793,-0.0015763,0.00209205,0.00303269,0.00380208,-0.00328633,1.05737,0.00409611,0.011172,1679,477,5.44552,8.50794
462,547,5.42126,-8.21689,-0.00211664,0.00191809,0.00344918,0.00389655,-0.0040951,1.05001,0.00461445,0.0107299,1686,477,5.42123,8.21688
469,547,5.38062,-7.88867,-0.00257438,0.00163603,0.00391355,0.00397468,-0.00491303,1.03216,0.00514084,0.0185637,1693,477,5.38058,7.88867
476,547,5.38464,-7.4537,-0.00331033,0.00112814,0.0041666,0.00362966,-0.00581185,1.0301,0.00549938,0.0420299,1700,477,5.38464,7.45369
483,547,5.36121,-7.5798,0,0,0,0,0,0,0,-1,1707,477,5.36121,7.57982
490,547,3.65271,-3.71707,0,0,0,0,0,0,0,-1,1714,477,3.65277,3.71708
497,547,2.55481,-3.81421,0,0,0,0,0,0,0,-1,1721,477,2.55476,3.8142
504,547,4.01953,-2.22714,0,0,0,0,0,0,0,-1,1728,477,4.0195,2.22713
511,547,3.474,-7.0578,0,0,0,0,0,0,0,-1,1735,477,3.47394,7.05779
518,547,6.04382,-4.81958,0,0,0,0,0,0,0,-1,1742,477,6.04384,4.81958
525,547,4.79004,-6.03943,0,0,0,0,0,0,0,-1,1749,477,4.79007,6.03942
532,547,0,0,0,0,0,0,0,0,0,-1,1756,477,0,0
539,547,0,0,0,0,0,0,0,0,0,-1,1763,477,0,0
546,547,0,0,0,0,0,0,0,0,0,-1,1770,477,0,0
553,547,0,0,0,0,0,0,0,0,0,-1,1777,477,0,0
560,547,0,0,0,0,0,0,0,0,0,-1,1784,477,0,0
567,547,0,0,0,0,0,0,0,0,0,-1,1791,477,0,0
574,547,0,0,0,0,0,0,0,0,0,-1,1798,477,0,0
581,547,0,0,0,0,0,0,0,0,0,-1,1805,477,0,0
588,547,0,0,0,0,0,0,0,0,0,-1,1812,477,0,0
595,547,0,0,0,0,0,0,0,0,0,-1,1819,477,0,0
602,547,0,0,0,0,0,0,0,0,0,-1,1826,477,0,0
609,547,0,0,0,0,0,0,0,0,0,-1,1833,477,0,0
616,547,0,0,0,0,0,0,0,0,0,-1,1840,477,0,0
623,547,0,0,0,0,0,0,0,0,0,-1,1847,477,0,0
630,547,0,0,0,0,0,0,0,0,0,-1,1854,477,0,0
637,547,0,0,0,0,0,0,0,0,0,-1,1861,477,0,0
644,547,0,0,0,0,0,0,0,0,0,-1,1868,477,0,0
651,547,0,0,0,0,0,0,0,0,0,-1,1875,477,0,0
658,547,0,0,0,0,0,0,0,0,0,-1,1882,477,0,0
665,547,0,0,0,0,0,0,0,0,0,-1,1889,477,0,0
672,547,0,0,0,0,0,0,0,0,0,-1,1896,477,0,0
679,547,0,0,0,0,0,0,0,0,0,-1,1903,477,0,0
686,547,0,0,0,0,0,0,0,0,0,-1,1910,477,0,0
693,547,0,0,0,0,0,0,0,0,0,-1,1917,477,0,0
700,547,0,0,0,0,0,0,0,0,0,-1,1924,477,0,0
707,547,0,0,0,0,0,0,0,0,0,-1,1931,477,0,0
714,547,0,0,0,0,0,0,0,0,0,-1,1938,477,0,0
721,547,0,0,0,0,0,0,0,0,0,-1,1945,477,0,0
728,547,0,0,0,0,0,0,0,0,0,-1,1952,477,0,0
735,547,0,0,0,0,0,0,0,0,0,-1,1959,477,0,0
742,547,0,0,0,0,0,0,0,0,0,-1,1966,477,0,0
749,547,0,0,0,0,0,0,0,0,0,-1,1973,477,0,0
756,547,0,0,0,0,0,0,0,0,0,-1,1980,477,0,0
763,547,0,0,0,0,0,0,0,0,0,-1,1987,477,0,0
770,547,0,0,0,0,0,0,0,0,0,-1,1994,477,0,0
777,547,0,0,0,0,0,0,0,0,0,-1,2001,477,0,0
784,547,0,0,0,0,0,0,0,0,0,-1,2008,477,0,0
791,547,0,0,0,0,0,0,0,0,0,-1,2015,477,0,0
798,547,0,0,0,0,0,0,0,0,0,-1,2022,477,0,0
805,547,0,0,0,0,0,0,0,0,0,-1,2029,477,0,0
812,547,0,0,0,0,0,0,0,0,0,-1,2036,477,0,0
-700,540,0,0,0,0,0,0,0,0,0,-1,524,484,0,0
-693,540,0,0,0,0,0,0,0,0,0,-1,531,484,0,0
-686,540,0,0,0,0,0,0,0,0,0,-1,538,484,0,0
-679,540,0,0,0,0,0,0,0,0,0,-1,545,484,0,0
-672,540,0,0,0,0,0,0,0,0,0,-1,552,484,0,0
-665,540,0,0,0,0,0,0,0,0,0,-1,559,484,0,0
-658,540,0,0,0,0,0,0,0,0,0,-1,566,484,0,0
-651,540,0,0,0,0,0,0,0,0,0,-1,573,484,0,0
-644,540,0,0,0,0,0,0,0,0,0,-1,580,484,0,0
-637,540,0,0,0,0,0,0,0,0,0,-1,587,484,0,0
-630,540,0,0,0,0,0,0,0,0,0,-1,594,484,0,0
-623,540,0,0,0,0,0,0,0,0,0,-1,601,484,0,0
-616,540,0,0,0,0,0,0,0,0,0,-1,608,484,0,0
-609,540,0,0,0,0,0,0,0,0,0,-1,615,484,0,0
-602,540,0,0,0,0,0,0,0,0,0,-1,622,484,0,0
-595,540,0,0,0,0,0,0,0,0,0,-1,629,484,0,0
-588,540,0,0,0,0,0,0,0,0,0,-1,636,484,0,0
-581,540,0,0,0,0,0,0,0,0,0,-1,643,484,0,0
-574,540,0,0,0,0,0,0,0,0,0,-1,650,484,0,0
-567,540,0,0,0,0,0,0,0,0,0,-1,657,484,0,0
-560,540,0,0,0,0,0,0,0,0,0,-1,664,484,0,0
-553,540,0,0,0,0,0,0,0,0,0,-1,671,484,0,0
-546,540,0,0,0,0,0,0,0,0,0,-1,678,484,0,0
-539,540,0,0,0,0,0,0,0,0,0,-1,685,484,0,0
-532,540,0,0,0,0,0,0,0,0,0,-1,692,484,0,0
-525,540,0,0,0,0,0,0,0,0,0,-1,699,484,0,0
-518,540,0,0,0,0,0,0,0,0,0,-1,706,484,0,0
-511,540,0,0,0,0,0,0,0,0,0,-1,713,484,0,0
-504,540,0,0,0,0,0,0,0,0,0,-1,720,484,0,0
-497,540,0,0,0,0,0,0,0,0,0,-1,727,484,0,0
-490,540,0,0,0,0,0,0,0,0,0,-1,734,484,0,0
-483,540,0,0,0,0,0,0,0,0,0,-1,741,484,0,0
-476,540,0,0,0,0,0,0,0,0,0,-1,748,484,0,0
-469,540,0,0,0,0,0,0,0,0,0,-1,755,484,0,0
-462,540,0,0,0,0,0,0,0,0,0,-1,762,484,0,0
-455,540,0,0,0,0,0,0,0,0,0,-1,769,484,0,0
-448,540,0,0,0,0,0,0,0,0,0,-1,776,484,0,0
-441,540,0,0,0,0,0,0,0,0,0,-1,783,484,0,0
-434,540,0,0,0,0,0,0,0,0,0,-1,790,484,0,0
-427,540,0,0,0,0,0,0,0,0,0,-1,797,484,0,0
-420,540,0.274902,-6.11426,0,0,0,0,0,0,0,-1,804,484,0.274913,6.11427
-413,540,-0.588379,-5.12802,0,0,0,0,0,0,0,-1,811,484,-0.588381,5.12801
-406,540,-0.790405,-5.03632,0,0,0,0,0,0,0,-1,818,484,-0.790385,5.03632
-399,540,-1.11127,-4.94391,0,0,0,0,0,0,0,-1,825,484,-1.11127,4.94392
-392,540,-1.72046,-4.99387,0,0,0,0,0,0,0,-1,832,484,-1.72049,4.99385
-385,540,-2.29407,-5.03418,0,0,0,0,0,0,0,-1,839,484,-2.29408,5.03418
-378,540,-3.78162,-4.68256,0,0,0,0,0,0,0,-1,846,484,-3.78161,4.68257
-371,540,-0.0177002,-4.21246,0,0,0,0,0,0,0,-1,853,484,-0.0176722,4.21247
-364,540,0.887512,-8.64587,0,0,0,0,0,0,0,-1,860,484,0.887504,8.64588
-357,540,0.906067,-8.87601,0,0,0,0,0,0,0,-1,867,484,0.906095,8.87601
-350,540,0.673462,-9.02734,0.00254362,-0.0045401,0.000639444,0.00260088,-0.00459736,0.0893075,0.00420885,0.0335956,874,484,0.673453,9.02733
-343,540,0.610901,-9.30389,0.00247072,-0.00355028,0.00073722,0.00255967,-0.00363923,0.120079,0.00359698,0.015715,881,484,0.610905,9.30389
-336,540,0.590027,-9.61945,0.00229944,-0.00293733,0.000673962,0.00238478,-0.00302268,0.125964,0.00312923,0.0125521,888,484,0.59004,9.61945
-329,540,0.575684,-9.86496,0.00192558,-0.00264606,0.000724751,0.00203772,-0.00275821,0.153519,0.00277933,0.00973812,895,484,0.575654,9.86497
-322,540,0.576294,-10.1369,0.00166433,-0.00206042,0.000517597,0.00173492,-0.00213101,0.135541,0.00223589,0.0146624,902,484,0.576279,10.1369
-315,540,0.576355,-10.4503,0.0014193,-0.001429,0.000327298,0.00145643,-0.00146612,0.112948,0.00168734,0.0133887,909,484,0.57636,10.4503
-308,540,0.582336,-10.7178,0.00128017,-0.000924113,0.00015344,0.0012908,-0.000934742,0.0691652,0.00129039,0.0119975,916,484,0.582311,10.7178
-301,540,0.571106,-10.9799,0.00113845,-0.000611909,9.26137e-05,0.00114333,-0.000616795,0.0527152,0.00103126,0.0116636,923,484,0.571107,10.9799
-294,540,0.566467,-11.2401,0.00102072,-0.000512785,0.000200291,0.00104644,-0.000538513,0.127755,0.000930607,0.0108759,930,484,0.566467,11.2401
-287,540,0.57428,-11.4888,0.000986606,-0.000697692,0.000429159,0.00108965,-0.000800737,0.235649,0.00109566,0.00829656,937,484,0.57431,11.4888
-280,540,0.580994,-11.7445,0.00101756,-0.00116744,0.000656781,0.00119978,-0.00134967,0.270641,0.00147277,0.0101994,944,484,0.58099,11.7445
-273,540,0.570801,-12.0172,0.00102918,-0.00191506,0.000942199,0.00130488,-0.00219076,0.284666,0.0020397,0.0135873,951,484,0.570782,12.0173
-266,540,0.580078,-12.2637,0.00116356,-0.00285638,0.00134979,0.00157473,-0.00326755,0.295688,0.00285207,0.0141696,958,484,0.580077,12.2637
-259,540,0.587158,-12.4838,0.0013082,-0.0040948,0.00180054,0.00185325,-0.00463984,0.293942,0.00386215,0.0114436,965,484,0.587142,12.4838
-252,540,0.593201,-12.7021,0.00124054,-0.0052458,0.00224943,0.00194428,-0.00594953,0.303205,0.00474902,0.0115466,972,484,0.593171,12.7021
-245,540,0.60144,-12.9478,0.00118954,-0.00638953,0.00293121,0.00219088,-0.00739088,0.329187,0.00579723,0.0128267,979,484,0.601471,12.9478
-238,540,0.582886,-13.1686,0.00177734,-0.00798808,0.00348796,0.00289519,-0.00910593,0.310146,0.00723152,0.00961673,986,484,0.582869,13.1686
-231,540,0.575012,-13.3708,0.00212989,-0.00969678,0.00398914,0.00334963,-0.0109165,0.296738,0.00861411,0.0113735,993,484,0.575024,13.3708
-224,540,0.579346,-13.5899,0.00246898,-0.011153,0.00462067,0.00388843,-0.0125725,0.298045,0.00993478,0.0163669,1000,484,0.579365,13.5899
-217,540,0.556641,-13.739,0.00305567,-0.0124097,0.00519542,0.00463893,-0.013993,0.2958,0.0111999,0.0297317,1007,484,0.556653,13.7391
-210,540,0.598145,-13.8488,0.00406439,-0.0135964,0.00557396,0.00567645,-0.0152085,0.281531,0.0124695,0.0450646,1014,484,0.598155,13.8488
-203,540,0.591003,-14.1737,0.00426543,-0.0147584,0.0040821,0.00510437,-0.0155973,0.202693,0.0124534,0.0449252,1021,484,0.590984,14.1737
-196,540,0.341309,-14.3336,0.0038052,-0.0138052,0.00250638,0.00415497,-0.014155,0.138656,0.0110844,0.0476064,1028,484,0.341269,14.3336
-189,540,1.07458,-14.0911,0,0,0,0,0,0,0,-1,1035,484,1.07456,14.0911
-182,540,0.14563,-13.9557,0,0,0,0,0,0,0,-1,1042,484,0.145587,13.9558
-175,540,1.73413,-10.728,0,0,0,0,0,0,0,-1,1049,484,1.73414,10.728
-168,540,1.18164,-7.65347,0,0,0,0,0,0,0,-1,1056,484,1.18163,7.65347
-161,540,-1.31653,-9.93869,0,0,0,0,0,0,0,-1,1063,484,-1.31651,9.93868
-154,540,1.69177,-15.2222,0,0,0,0,0,0,0,-1,1070,484,1.69172,15.2222
-147,540,1.38843,-16.4672,0,0,0,0,0,0,0,-1,1077,484,1.38841,16.4672
-140,540,1.22876,-16.482,0,0,0,0,0,0,0,-1,1084,484,1.22875,16.482
-133,540,0.790405,-16.175,0,0,0,0,0,0,0,-1,1091,484,0.79038,16.175
-126,540,1.46765,-17.5085,0,0,0,0,0,0,0,-1,1098,484,1.46764,17.5085
-119,540,6.18579,-10.4846,0,0,0,0,0,0,0,-1,1105,484,6.18582,10.4846
-112,540,5.8468,-9.65106,0,0,0,0,0,0,0,-1,1112,484,5.84681,9.65106
-105,540,5.50781,-8.81754,0,0,0,0,0,0,0,-1,1119,484,5.5078,8.81753
-98,540,0.73877,-3.08093,0,0,0,0,0,0,0,-1,1126,484,0.738754,3.08092
-91,540,1.56519,-7.48666,0,0,0,0,0,0,0,-1,1133,484,1.56514,7.48667
-84,540,-0.945923,4.43073,0,0,0,0,0,0,0,-1,1140,484,-0.945891,-4.43074
-77,540,-2.28894,2.14368,0,0,0,0,0,0,0,-1,1147,484,-2.28894,-2.14368
-70,540,-3.75244,-0.452576,0,0,0,0,0,0,0,-1,1154,484,-3.75244,0.452576
-63,540,-5.26257,-3.04767,0,0,0,0,0,0,0,-1,1161,484,-5.26262,3.04766
-56,540,-5.19055,-6.12595,0,0,0,0,0,0,0,-1,1168,484,-5.19057,6.12595
-49,540,-5.63867,-8.52298,0,0,0,0,0,0,0,-1,1175,484,-5.63871,8.52298
-42,540,0,0,0,0,0,0,0,0,0,-1,1182,484,0,0
-35,540,0,0,0,0,0,0,0,0,0,-1,1189,484,0,0
-28,540,0,0,0,0,0,0,0,0,0,-1,1196,484,0,0
-21,540,0,0,0,0,0,0,0,0,0,-1,1203,484,0,0
-14,540,0,0,0,0,0,0,0,0,0,-1,1210,484,0,0
-7,540,0,0,0,0,0,0,0,0,0,-1,1217,484,0,0
0,540,0,0,0,0,0,0,0,0,0,-1,1224,484,0,0
7,540,0,0,0,0,0,0,0,0,0,-1,1231,484,0,0
14,540,0,0,0,0,0,0,0,0,0,-1,1238,484,0,0
21,540,0,0,0,0,0,0,0,0,0,-1,1245,484,0,0
28,540,0,0,0,0,0,0,0,0,0,-1,1252,484,0,0
35,540,0,0,0,0,0,0,0,0,0,-1,1259,484,0,0
42,540,0,0,0,0,0,0,0,0,0,-1,1266,484,0,0
49,540,0,0,0,0,0,0,0,0,0,-1,1273,484,0,0
56,540,0,0,0,0,0,0,0,0,0,-1,1280,484,0,0
63,540,0,0,0,0,0,0,0,0,0,-1,1287,484,0,0
70,540,0,0,0,0,0,0,0,0,0,-1,1294,484,0,0
77,540,0,0,0,0,0,0,0,0,0,-1,1301,484,0,0
84,540,0,0,0,0,0,0,0,0,0,-1,1308,484,0,0
91,540,0,0,0,0,0,0,0,0,0,-1,1315,484,0,0
98,540,0,0,0,0,0,0,0,0,0,-1,1322,484,0,0
105,540,0,0,0,0,0,0,0,0,0,-1,1329,484,0,0
112,540,0,0,0,0,0,0,0,0,0,-1,1336,484,0,0
119,540,0,0,0,0,0,0,0,0,0,-1,1343,484,0,0
126,540,0,0,0,0,0,0,0,0,0,-1,1350,484,0,0
133,540,0,0,0,0,0,0,0,0,0,-1,1357,484,0,0
140,540,0,0,0,0,0,0,0,0,0,-1,1364,484,0,0
147,540,0,0,0,0,0,0,0,0,0,-1,1371,484,0,0
154,540,0,0,0,0,0,0,0,0,0,-1,1378,484,0,0
161,540,0,0,0,0,0,0,0,0,0,-1,1385,484,0,0
168,540,3.05078,-0.0010376,0,0,0,0,0,0,0,-1,1392,484,3.05084,0.00102554
175,540,3.37708,0.617035,0,0,0,0,0,0,0,-1,1399,484,3.37707,-0.617046
182,540,3.32678,1.23267,0,0,0,0,0,0,0,-1,1406,484,3.32678,-1.23266
189,540,3.5813,2.15619,0,0,0,0,0,0,0,-1,1413,484,3.58129,-2.1562
196,540,1.84448,-0.801483,0,0,0,0,0,0,0,-1,1420,484,1.84446,0.80148
203,540,4.14648,0.702087,0,0,0,0,0,0,0,-1,1427,484,4.14645,-0.702089
210,540,4.50671,-0.56076,0,0,0,0,0,0,0,-1,1434,484,4.50667,0.560771
217,540,5.00452,-0.278717,0,0,0,0,0,0,0,-1,1441,484,5.00452,0.278709
224,540,6.44458,-2.83527,0,0,0,0,0,0,0,-1,1448,484,6.44457,2.83525
231,540,6.9231,-3.10504,0,0,0,0,0,0,0,-1,1455,484,6.92307,3.10505
238,540,6.4823,-2.58365,0,0,0,0,0,0,0,-1,1462,484,6.48225,2.58363
245,540,6.02087,-1.97916,0,0,0,0,0,0,0,-1,1469,484,6.02088,1.97915
252,540,6.50647,-3.56006,0,0,0,0,0,0,0,-1,1476,484,6.50649,3.56006
259,540,6.01941,-2.798,0,0,0,0,0,0,0,-1,1483,484,6.01941,2.79801
266,540,5.5332,-2.02853,0,0,0,0,0,0,0,-1,1490,484,5.53323,2.02855
273,540,5.06787,-1.28137,0,0,0,0,0,0,0,-1,1497,484,5.06786,1.28136
280,540,1.62903,-2.14609,0,0,0,0,0,0,0,-1,1504,484,1.62906,2.1461
287,540,1.97156,-2.45053,0,0,0,0,0,0,0,-1,1511,484,1.97159,2.45053
294,540,2.44165,-2.6185,0,0,0,0,0,0,0,-1,1518,484,2.44167,2.6185
301,540,4.36169,-2.54272,0,0,0,0,0,0,0,-1,1525,484,4.36165,2.54272
308,540,4.2019,-4.30469,0,0,0,0,0,0,0,-1,1532,484,4.20193,4.3047
315,540,4.45923,-5.32101,0,0,0,0,0,0,0,-1,1539,484,4.45923,5.32103
322,540,4.71655,-6.33737,0,0,0,0,0,0,0,-1,1546,484,4.71653,6.33736
329,540,5.8949,-12.9383,0,0,0,0,0,0,0,-1,1553,484,5.89492,12.9383
336,540,6.17017,-13.0124,-0.00871348,-0.00869788,-0.00907893,0.000373255,-0.0177846,-0.785828,0.0119828,0.0493178,1560,484,6.1702,13.0124
343,540,5.98901,-12.6666,-0.00807622,-0.00724174,-0.00804128,0.000393116,-0.0157111,-0.811318,0.0106075,0.0493621,1567,484,5.98903,12.6666
350,540,5.74292,-12.772,0,0,0,0,0,0,0,-1,1574,484,5.74288,12.772
357,540,5.90198,-12.2295,-0.00601756,-0.00511422,-0.00601627,0.000467312,-0.0115991,-0.822865,0.00789311,0.0453934,1581,484,5.90204,12.2295
364,540,5.72668,-12.0316,-0.00476517,-0.00385854,-0.00479132,0.000500865,-0.00912457,-0.832564,0.00625669,0.0254573,1588,484,5.72669,12.0316
371,540,5.71167,-11.8619,-0.00365405,-0.0026906,-0.00373611,0.000594713,-0.00693936,-0.849513,0.00483668,0.0156438,1595,484,5.71173,11.8619
378,540,5.76514,-11.6122,-0.00278922,-0.00164863,-0.00289387,0.000730606,-0.00516846,-0.882686,0.00371321,0.0122603,1602,484,5.76508,11.6122
385,540,5.77966,-11.3536,-0.00211598,-0.000942713,-0.00221423,0.000761282,-0.00381997,-0.914891,0.00283469,0.0140177,1609,484,5.77966,11.3536
392,540,5.74927,-11.0754,-0.00144179,-0.000442637,-0.00147022,0.000610563,-0.00249499,-0.949176,0.00189984,0.0123314,1616,484,5.74933,11.0754
399,540,5.75256,-10.807,-0.00100594,0.000125993,-0.00102776,0.000733315,-0.00161327,-1.03708,0.00138619,0.0160976,1623,484,5.75256,10.807
406,540,5.77148,-10.5237,-0.00078247,0.000325455,-0.000707701,0.000670223,-0.00112724,-1.11747,0.00104889,0.0175669,1630,484,5.77148,10.5237
413,540,5.76208,-10.2209,-0.000498921,0.000664692,-0.000314633,0.000744318,-0.000578546,-1.32293,0.000765752,0.0131741,1637,484,5.76207,10.2209
420,540,5.77649,-9.95358,-0.000314783,0.000921743,4.86501e-05,0.000923654,-0.000316694,1.53153,0.000744147,0.0116183,1644,484,5.77646,9.95357
427,540,5.7572,-9.68088,-0.000348491,0.00107525,0.000431138,0.00119563,-0.00046887,1.29852,0.000991063,0.0128961,1651,484,5.75725,9.68087
434,540,5.75,-9.397,-0.00039433,0.00117556,0.000868285,0.00156111,-0.00077988,1.15291,0.00137643,0.0156946,1658,484,5.74994,9.397
441,540,5.77246,-9.09686,-0.000513011,0.00139525,0.00136929,0.00211005,-0.00122781,1.08969,0.00194942,0.018871,1665,484,5.77251,9.09685
448,540,5.75574,-8.82227,-0.000741359,0.00152047,0.0018544,0.0025616,-0.00178249,1.05921,0.00252147,0.0118358,1672,484,5.75572,8.82225
455,540,5.7428,-8.51614,-0.00105688,0.00159584,0.00230779,0.00293127,-0.00239232,1.04621,0.00307882,0.0103762,1679,484,5.74277,8.51616
462,540,5.70813,-8.21136,-0.00131193,0.00149157,0.00272148,0.00315109,-0.00297145,1.02321,0.00353536,0.0100558,1686,484,5.70817,8.21136
469,540,5.69214,-7.91275,-0.00147446,0.00131561,0.00317624,0.00338967,-0.00354851,0.992321,0.00400611,0.0125812,1693,484,5.69214,7.91275
476,540,5.68286,-7.64615,-0.00188999,0.000981975,0.00345108,0.00328391,-0.00419192,0.98255,0.00432677,0.0207621,1700,484,5.6828,7.64615
483,540,5.7146,-7.41583,-0.00230008,0.000303703,0.00354634,0.00277957,-0.00477594,0.961315,0.00441264,0.0419029,1707,484,5.71464,7.41584
490,540,5.92151,-7.04959,0,0,0,0,0,0,0,-1,1714,484,5.92153,7.04959
497,540,4.27393,-2.67752,0,0,0,0,0,0,0,-1,1721,484,4.27395,2.67751
504,540,5.52747,-4.4433,0,0,0,0,0,0,0,-1,1728,484,5.5275,4.44329
511,540,6.15503,-5.38013,0,0,0,0,0,0,0,-1,1735,484,6.15505,5.38012
518,540,6.64124,-5.80139,0,0,0,0,0,0,0,-1,1742,484,6.64118,5.80138
525,540,6.18396,-4.81177,0,0,0,0,0,0,0,-1,1749,484,6.18394,4.81178
532,540,2.84265,-1.07925,0,0,0,0,0,0,0,-1,1756,484,2.84269,1.07927
539,540,0,0,0,0,0,0,0,0,0,-1,1763,484,0,0
546,540,0,0,0,0,0,0,0,0,0,-1,1770,484,0,0
553,540,0,0,0,0,0,0,0,0,0,-1,1777,484,0,0
560,540,0,0,0,0,0,0,0,0,0,-1,1784,484,0,0
567,540,0,0,0,0,0,0,0,0,0,-1,1791,484,0,0
574,540,0,0,0,0,0,0,0,0,0,-1,1798,484,0,0
581,540,0,0,0,0,0,0,0,0,0,-1,1805,484,0,0
588,540,0,0,0,0,0,0,0,0,0,-1,1812,484,0,0
595,540,0,0,0,0,0,0,0,0,0,-1,1819,484,0,0
602,540,0,0,0,0,0,0,0,0,0,-1,1826,484,0,0
609,540,0,0,0,0,0,0,0,0,0,-1,1833,484,0,0
616,540,0,0,0,0,0,0,0,0,0,-1,1840,484,0,0
623,540,0,0,0,0,0,0,0,0,0,-1,1847,484,0,0
630,540,0,0,0,0,0,0,0,0,0,-1,1854,484,0,0
637,540,0,0,0,0,0,0,0,0,0,-1,1861,484,0,0
644,540,0,0,0,0,0,0,0,0,0,-1,1868,484,0,0
651,540,0,0,0,0,0,0,0,0,0,-1,1875,484,0,0
658,540,0,0,0,0,0,0,0,0,0,-1,1882,484,0,0
665,540,0,0,0,0,0,0,0,0,0,-1,1889,484,0,0
672,540,0,0,0,0,0,0,0,0,0,-1,1896,484,0,0
679,540,0,0,0,0,0,0,0,0,0,-1,1903,484,0,0
686,540,0,0,0,0,0,0,0,0,0,-1,1910,484,0,0
693,540,0,0,0,0,0,0,0,0,0,-1,1917,484,0,0
700,540,0,0,0,0,0,0,0,0,0,-1,1924,484,0,0
707,540,0,0,0,0,0,0,0,0,0,-1,1931,484,0,0
714,540,0,0,0,0,0,0,0,0,0,-1,1938,484,0,0
721,540,0,0,0,0,0,0,0,0,0,-1,1945,484,0,0
728,540,0,0,0,0,0,0,0,0,0,-1,1952,484,0,0
735,540,0,0,0,0,0,0,0,0,0,-1,1959,484,0,0
742,540,0,0,0,0,0,0,0,0,0,-1,1966,484,0,0
749,540,0,0,0,0,0,0,0,0,0,-1,1973,484,0,0
756,540,0,0,0,0,0,0,0,0,0,-1,1980,484,0,0
763,540,0,0,0,0,0,0,0,0,0,-1,1987,484,0,0
770,540,0,0,0,0,0,0,0,0,0,-1,1994,484,0,0
777,540,0,0,0,0,0,0,0,0,0,-1,2001,484,0,0
784,540,0,0,0,0,0,0,0,0,0,-1,2008,484,0,0
791,540,0,0,0,0,0,0,0,0,0,-1,2015,484,0,0
798,540,0,0,0,0,0,0,0,0,0,-1,2022,484,0,0
805,540,0,0,0,0,0,0,0,0,0,-1,2029,484,0,0
812,540,0,0,0,0,0,0,0,0,0,-1,2036,484,0,0
-700,533,0,0,0,0,0,0,0,0,0,-1,524,491,0,0
-693,533,0,0,0,0,0,0,0,0,0,-1,531,491,0,0
-686,533,0,0,0,0,0,0,0,0,0,-1,538,491,0,0
-679,533,0,0,0,0,0,0,0,0,0,-1,545,491,0,0
-672,533,0,0,0,0,0,0,0,0,0,-1,552,491,0,0
-665,533,0,0,0,0,0,0,0,0,0,-1,559,491,0,0
-658,533,0,0,0,0,0,0,0,0,0,-1,566,491,0,0
-651,533,0,0,0,0,0,0,0,0,0,-1,573,491,0,0
-644,533,0,0,0,0,0,0,0,0,0,-1,580,491,0,0
-637,533,0,0,0,0,0,0,0,0,0,-1,587,491,0,0
-630,533,0,0,0,0,0,0,0,0,0,-1,594,491,0,0
-623,533,0,0,0,0,0,0,0,0,0,-1,601,491,0,0
-616,533,0,0,0,0,0,0,0,0,0,-1,608,491,0,0
-609,533,0,0,0,0,0,0,0,0,0,-1,615,491,0,0
-602,533,0,0,0,0,0,0,0,0,0,-1,622,491,0,0
-595,533,0,0,0,0,0,0,0,0,0,-1,629,491,0,0
-588,533,0,0,0,0,0,0,0,0,0,-1,636,491,0,0
-581,533,0,0,0,0,0,0,0,0,0,-1,643,491,0,0
-574,533,0,0,0,0,0,0,0,0,0,-1,650,491,0,0
-567,533,0,0,0,0,0,0,0,0,0,-1,657,491,0,0
-560,533,0,0,0,0,0,0,0,0,0,-1,664,491,0,0
-553,533,0,0,0,0,0,0,0,0,0,-1,671,491,0,0
-546,533,0,0,0,0,0,0,0,0,0,-1,678,491,0,0
-539,533,0,0,0,0,0,0,0,0,0,-1,685,491,0,0
-532,533,0,0,0,0,0,0,0,0,0,-1,692,491,0,0
-525,533,0,0,0,0,0,0,0,0,0,-1,699,491,0,0
-518,533,0,0,0,0,0,0,0,0,0,-1,706,491,0,0
-511,533,0,0,0,0,0,0,0,0,0,-1,713,491,0,0
-504,533,0,0,0,0,0,0,0,0,0,-1,720,491,0,0
-497,533,0,0,0,0,0,0,0,0,0,-1,727,491,0,0
-490,533,0,0,0,0,0,0,0,0,0,-1,734,491,0,0
-483,533,0,0,0,0,0,0,0,0,0,-1,741,491,0,0
-476,533,0,0,0,0,0,0,0,0,0,-1,748,491,0,0
-469,533,0,0,0,0,0,0,0,0,0,-1,755,491,0,0
-462,533,0,0,0,0,0,0,0,0,0,-1,762,491,0,0
-455,533,0,0,0,0,0,0,0,0,0,-1,769,491,0,0
-448,533,0,0,0,0,0,0,0,0,0,-1,776,491,0,0
-441,533,0,0,0,0,0,0,0,0,0,-1,783,491,0,0
-434,533,0,0,0,0,0,0,0,0,0,-1,790,491,0,0
-427,533,-0.122925,-6.00681,0,0,0,0,0,0,0,-1,797,491,-0.12292,6.0068
-420,533,0.0593872,-5.87881,0,0,0,0,0,0,0,-1,804,491,0.0593684,5.87882
-413,533,-0.394592,-5.69675,0,0,0,0,0,0,0,-1,811,491,-0.394571,5.69676
-406,533,-0.692749,-5.52145,0,0,0,0,0,0,0,-1,818,491,-0.692735,5.52145
-399,533,-1.07166,-5.44293,0,0,0,0,0,0,0,-1,825,491,-1.07166,5.44295
-392,533,-1.50049,-5.9238,0,0,0,0,0,0,0,-1,832,491,-1.50049,5.92381
-385,533,-1.69116,-6.64645,0,0,0,0,0,0,0,-1,839,491,-1.69115,6.64645
-378,533,-0.761414,-5.15549,0,0,0,0,0,0,0,-1,846,491,-0.761387,5.15549
-371,533,0.236511,-8.14404,0,0,0,0,0,0,0,-1,853,491,0.236528,8.14404
-364,533,0.529419,-8.58279,0.00213692,-0.00429146,-0.00091861,0.00226561,-0.00442015,-0.139189,0.00392627,0.0426732,860,491,0.529425,8.58278
-357,533,0.450745,-8.78128,0.00149649,-0.00350641,-0.000224155,0.00150652,-0.00351643,-0.0446857,0.00297638,0.0247189,867,491,0.450752,8.78128
-350,533,0.37384,-9.02896,0.00127738,-0.00309926,0.000169299,0.00128391,-0.0031058,0.0386055,0.00260615,0.0104855,874,491,0.373819,9.02896
-343,533,0.372437,-9.33792,0.00132546,-0.00230546,0.000328431,0.00135492,-0.00233493,0.0894861,0.00215524,0.010839,881,491,0.372429,9.33792
-336,533,0.346558,-9.63257,0.00130195,-0.00190905,0.000356059,0.00134096,-0.00194806,0.109121,0.00190967,0.0152854,888,491,0.346543,9.63257
-329,533,0.337341,-9.88315,0.0011059,-0.00178322,0.000464316,0.00117869,-0.00185601,0.155497,0.00176657,0.0134954,895,491,0.337318,9.88316
-322,533,0.31665,-10.138,0.000997204,-0.0013601,0.000324911,0.00104117,-0.00140407,0.134491,0.00141693,0.0121315,902,491,0.316666,10.138
-315,533,0.306213,-10.4243,0.000927414,-0.000891089,0.000202533,0.000949698,-0.000913372,0.109584,0.00107571,0.013658,909,491,0.30624,10.4243
-308,533,0.310608,-10.7135,0.000970652,-0.000554872,0.000107887,0.000978244,-0.000562464,0.0702556,0.00090026,0.0122653,916,491,0.310637,10.7135
-301,533,0.305298,-10.9736,0.000990467,-0.000384226,0.000109786,0.00099918,-0.000392938,0.079193,0.000828754,0.0125962,923,491,0.305305,10.9736
-294,533,0.315674,-11.2288,0.00100422,-0.000425359,0.000298787,0.00106415,-0.000485294,0.197967,0.000915145,0.0111456,930,491,0.315694,11.2288
-287,533,0.323914,-11.4883,0.00107327,-0.000823739,0.000659178,0.00127983,-0.0010303,0.30367,0.00133634,0.00904808,937,491,0.323897,11.4883
-280,533,0.31897,-11.7488,0.00122244,-0.00147908,0.000979494,0.0015402,-0.00179684,0.313701,0.00192854,0.00900254,944,491,0.318986,11.7488
-273,533,0.299744,-12.0148,0.0014073,-0.00252844,0.00136629,0.0018351,-0.00295625,0.303444,0.00279142,0.0123394,951,491,0.299757,12.0148
-266,533,0.308838,-12.2585,0.00162106,-0.00373497,0.00198259,0.00227508,-0.00438899,0.318638,0.00391149,0.0113988,958,491,0.308832,12.2585
-259,533,0.336731,-12.4862,0.00181717,-0.00529613,0.00251814,0.00261836,-0.00609732,0.30804,0.00516389,0.0109787,965,491,0.336737,12.4862
-252,533,0.355225,-12.6901,0.00171943,-0.00675351,0.00308507,0.0027237,-0.00775777,0.314707,0.00627982,0.0139412,972,491,0.355223,12.6901
-245,533,0.419128,-12.9015,0.00154961,-0.00822266,0.00393489,0.00293705,-0.0096101,0.338988,0.00757791,0.020782,979,491,0.41912,12.9015
-238,533,0.363159,-13.0247,0.00213958,-0.0102573,0.00464771,0.00368851,-0.0118063,0.321692,0.00934619,0.0221113,986,491,0.363148,13.0247
-231,533,0.47937,-13.1359,0.00241334,-0.0123432,0.00530256,0.00412111,-0.014051,0.311574,0.0110014,0.0299107,993,491,0.479381,13.1359
-224,533,0.467163,-13.2913,0.00262526,-0.0142074,0.00610756,0.00460782,-0.01619,0.313877,0.012613,0.0425773,1000,491,0.467183,13.2913
-217,533,0.520386,-13.5098,0,0,0,0,0,0,0,-1,1007,491,0.520367,13.5098
-210,533,0.382568,-13.7148,0,0,0,0,0,0,0,-1,1014,491,0.382593,13.7148
-203,533,0.364624,-14.3118,0,0,0,0,0,0,0,-1,1021,491,0.364622,14.3118
-196,533,0.0174561,-14.4288,0,0,0,0,0,0,0,-1,1028,491,0.0174183,14.4288
-189,533,-0.358765,-14.4412,0,0,0,0,0,0,0,-1,1035,491,-0.358754,14.4412
-182,533,1.26123,-11.4969,0,0,0,0,0,0,0,-1,1042,491,1.26128,11.4969
-175,533,0.937744,-7.36966,0,0,0,0,0,0,0,-1,1049,491,0.937769,7.36965
-168,533,2.64807,-2.7543,0,0,0,0,0,0,0,-1,1056,491,2.64812,2.7543
-161,533,1.91833,-1.76553,0,0,0,0,0,0,0,-1,1063,491,1.91836,1.76554
-154,533,-1.24805,-5.92294,0,0,0,0,0,0,0,-1,1070,491,-1.24806,5.92295
-147,533,0.383789,-12.1586,0,0,0,0,0,0,0,-1,1077,491,0.383829,12.1586
-140,533,-0.360107,-14.8449,0,0,0,0,0,0,0,-1,1084,491,-0.36005,14.8449
-133,533,0.189941,-16.0795,0,0,0,0,0,0,0,-1,1091,491,0.18994,16.0795
-126,533,2.89612,-2.59003,0,0,0,0,0,0,0,-1,1098,491,2.89608,2.59003
-119,533,3.00842,-12.8239,0,0,0,0,0,0,0,-1,1105,491,3.00841,12.8239
-112,533,7.05884,-10.21,0,0,0,0,0,0,0,-1,1112,491,7.0588,10.21
-105,533,3.84839,1.12769,0,0,0,0,0,0,0,-1,1119,491,3.84843,-1.12769
-98,533,-1.39392,-5.16367,0,0,0,0,0,0,0,-1,1126,491,-1.39394,5.16367
-91,533,0.367432,4.49753,0,0,0,0,0,0,0,-1,1133,491,0.367468,-4.49754
-84,533,-0.88623,3.03604,0,0,0,0,0,0,0,-1,1140,491,-0.886288,-3.03605
-77,533,0,0,0,0,0,0,0,0,0,-1,1147,491,0,0
-70,533,0,0,0,0,0,0,0,0,0,-1,1154,491,0,0
-63,533,0,0,0,0,0,0,0,0,0,-1,1161,491,0,0
-56,533,0,0,0,0,0,0,0,0,0,-1,1168,491,0,0
-49,533,0,0,0,0,0,0,0,0,0,-1,1175,491,0,0
-42,533,0,0,0,0,0,0,0,0,0,-1,1182,491,0,0
-35,533,0,0,0,0,0,0,0,0,0,-1,1189,491,0,0
-28,533,0,0,0,0,0,0,0,0,0,-1,1196,491,0,0
-21,533,0,0,0,0,0,0,0,0,0,-1,1203,491,0,0
-14,533,0,0,0,0,0,0,0,0,0,-1,1210,491,0,0
-7,533,0,0,0,0,0,0,0,0,0,-1,1217,491,0,0
0,533,0,0,0,0,0,0,0,0,0,-1,1224,491,0,0
7,533,0,0,0,0,0,0,0,0,0,-1,1231,491,0,0
14,533,0,0,0,0,0,0,0,0,0,-1,1238,491,0,0
21,533,0,0,0,0,0,0,0,0,0,-1,1245,491,0,0
28,533,0,0,0,0,0,0,0,0,0,-1,1252,491,0,0
35,533,0,0,0,0,0,0,0,0,0,-1,1259,491,0,0
42,533,0,0,0,0,0,0,0,0,0,-1,1266,491,0,0
49,533,0,0,0,0,0,0,0,0,0,-1,1273,491,0,0
56,533,0,0,0,0,0,0,0,0,0,-1,1280,491,0,0
63,533,0,0,0,0,0,0,0,0,0,-1,1287,491,0,0
70,533,0,0,0,0,0,0,0,0,0,-1,1294,491,0,0
77,533,0,0,0,0,0,0,0,0,0,-1,1301,491,0,0
84,533,0,0,0,0,0,0,0,0,0,-1,1308,491,0,0
91,533,0,0,0,0,0,0,0,0,0,-1,1315,491,0,0
98,533,0,0,0,0,0,0,0,0,0,-1,1322,491,0,0
105,533,0,0,0,0,0,0,0,0,0,-1,1329,491,0,0
112,533,0,0,0,0,0,0,0,0,0,-1,1336,491,0,0
119,533,0,0,0,0,0,0,0,0,0,-1,1343,491,0,0
126,533,0,0,0,0,0,0,0,0,0,-1,1350,491,0,0
133,533,0,0,0,0,0,0,0,0,0,-1,1357,491,0,0
140,533,0,0,0,0,0,0,0,0,0,-1,1364,491,0,0
147,533,0,0,0,0,0,0,0,0,0,-1,1371,491,0,0
154,533,0,0,0,0,0,0,0,0,0,-1,1378,491,0,0
161,533,0,0,0,0,0,0,0,0,0,-1,1385,491,0,0
168,533,0,0,0,0,0,0,0,0,0,-1,1392,491,0,0
175,533,0,0,0,0,0,0,0,0,0,-1,1399,491,0,0
182,533,0,0,0,0,0,0,0,0,0,-1,1406,491,0,0
189,533,0,0,0,0,0,0,0,0,0,-1,1413,491,0,0
196,533,0,0,0,0,0,0,0,0,0,-1,1420,491,0,0
203,533,3.7887,1.16193,0,0,0,0,0,0,0,-1,1427,491,3.78872,-1.16193
210,533,5.09558,-0.216034,0,0,0,0,0,0,0,-1,1434,491,5.09559,0.216028
217,533,6.91614,-2.46814,0,0,0,0,0,0,0,-1,1441,491,6.91618,2.46814
224,533,7.23621,-2.1857,0,0,0,0,0,0,0,-1,1448,491,7.23621,2.1857
231,533,7.23474,-1.92282,0,0,0,0,0,0,0,-1,1455,491,7.2347,1.92282
238,533,7.23535,-1.67258,0,0,0,0,0,0,0,-1,1462,491,7.23539,1.67258
245,533,6.86682,-1.2301,0,0,0,0,0,0,0,-1,1469,491,6.86686,1.23011
252,533,6.63354,-3.07825,0,0,0,0,0,0,0,-1,1476,491,6.6335,3.07824
259,533,6.16431,-2.35037,0,0,0,0,0,0,0,-1,1483,491,6.1643,2.35037
266,533,5.68884,-1.6214,0,0,0,0,0,0,0,-1,1490,491,5.68885,1.6214
273,533,5.21399,-0.864227,0,0,0,0,0,0,0,-1,1497,491,5.21403,0.864227
280,533,1.41089,-1.97946,0,0,0,0,0,0,0,-1,1504,491,1.41087,1.97946
287,533,1.6814,-2.44443,0,0,0,0,0,0,0,-1,1511,491,1.6814,2.44444
294,533,2.2384,-2.57626,0,0,0,0,0,0,0,-1,1518,491,2.23839,2.57625
301,533,3.39941,-4.0817,0,0,0,0,0,0,0,-1,1525,491,3.3994,4.08171
308,533,4.13733,-4.14752,0,0,0,0,0,0,0,-1,1532,491,4.13727,4.14752
315,533,4.80762,-5.29349,0,0,0,0,0,0,0,-1,1539,491,4.80762,5.29347
322,533,5.47803,-6.43942,0,0,0,0,0,0,0,-1,1546,491,5.47798,6.43943
329,533,3.88477,-3.86301,0,0,0,0,0,0,0,-1,1553,491,3.88475,3.86299
336,533,6.70923,-13.2003,0,0,0,0,0,0,0,-1,1560,491,6.70926,13.2004
343,533,6.12988,-12.4567,0,0,0,0,0,0,0,-1,1567,491,6.12994,12.4567
350,533,5.62915,-8.02426,0,0,0,0,0,0,0,-1,1574,491,5.6291,8.02426
357,533,6.23267,-12.1271,0,0,0,0,0,0,0,-1,1581,491,6.23273,12.1271
364,533,6.02783,-12.0021,-0.0067207,-0.00473771,-0.00611601,0.00046665,-0.0119251,-0.865757,0.00811007,0.0490334,1588,491,6.02786,12.0021
371,533,5.89343,-11.8575,-0.0050268,-0.00318729,-0.00475086,0.000732027,-0.00894612,-0.881014,0.00622246,0.0392667,1595,491,5.89344,11.8575
378,533,6.02112,-11.5965,0,0,0,0,0,0,0,-1,1602,491,6.02114,11.5965
385,533,6.04651,-11.3298,-0.00289349,-0.00128973,-0.00296212,0.000977135,-0.00516035,-0.917586,0.00380797,0.0247941,1609,491,6.04654,11.3298
392,533,6.03711,-11.0774,-0.0020166,-0.000751113,-0.00209417,0.000803821,-0.00357153,-0.93211,0.00268931,0.013954,1616,491,6.03707,11.0774
399,533,6.04248,-10.8242,-0.00147071,-0.000163411,-0.00164289,0.000951084,-0.00258521,-0.974731,0.00211309,0.0128426,1623,491,6.04244,10.8242
406,533,6.05994,-10.5431,-0.00119828,-8.56422e-05,-0.0013924,0.000857461,-0.00214138,-0.975453,0.00178349,0.0161025,1630,491,6.05999,10.5431
413,533,6.05603,-10.2325,-0.00082802,0.000201725,-0.00100683,0.000817689,-0.00144398,-1.02175,0.00132236,0.0128953,1637,491,6.05604,10.2324
420,533,6.03442,-9.94144,-0.000535782,0.00037473,-0.000639331,0.000704332,-0.000865383,-1.09479,0.000907864,0.0113057,1644,491,6.03444,9.94143
427,533,6.06653,-9.67218,-0.000449942,0.000513783,-0.000279578,0.000589016,-0.000525175,-1.30793,0.00064363,0.0124845,1651,491,6.06649,9.67218
434,533,6.04993,-9.40472,-0.000445474,0.000600198,0.000146574,0.000620355,-0.000465631,1.43413,0.000629112,0.0127437,1658,491,6.04995,9.40473
441,533,6.06079,-9.11102,-0.000472383,0.000807966,0.000627461,0.00106419,-0.000728608,1.18311,0.0010411,0.0147709,1665,491,6.06079,9.11101
448,533,6.06445,-8.81699,-0.000569106,0.00093378,0.00110269,0.00151672,-0.00115205,1.08449,0.0015456,0.015752,1672,491,6.0645,8.81699
455,533,6.03259,-8.49551,-0.00071654,0.00107423,0.00156237,0.0019796,-0.00162191,1.0456,0.00208275,0.0152045,1679,491,6.03255,8.49551
462,533,5.9928,-8.17117,-0.000773669,0.00102227,0.00197014,0.00228943,-0.00204083,0.999227,0.00250145,0.0144405,1686,491,5.99277,8.17118
469,533,5.99792,-7.89697,-0.000760172,0.000913396,0.00240414,0.00262222,-0.00246899,0.952871,0.00293985,0.00981582,1693,491,5.99797,7.89697
476,533,6.01733,-7.57016,-0.000993704,0.000691163,0.00268323,0.0026611,-0.00296364,0.937507,0.00324901,0.0115029,1700,491,6.01729,7.57015
483,533,6.05664,-7.25095,-0.0012205,0.000211146,0.0027992,0.0023846,-0.00339395,0.910577,0.00335317,0.0219794,1707,491,6.05661,7.25095
490,533,6.16052,-6.68726,0,0,0,0,0,0,0,-1,1714,491,6.16058,6.68725
497,533,6.13464,-6.56787,0,0,0,0,0,0,0,-1,1721,491,6.13466,6.56788
504,533,6.0957,-6.16461,0,0,0,0,0,0,0,-1,1728,491,6.09567,6.16462
511,533,6.33557,-6.01053,0,0,0,0,0,0,0,-1,1735,491,6.33552,6.01053
518,533,6.68579,-5.77454,0,0,0,0,0,0,0,-1,1742,491,6.68579,5.77455
525,533,7.00195,-5.35413,0,0,0,0,0,0,0,-1,1749,491,7.00191,5.35412
532,533,3.24243,0.0737,0,0,0,0,0,0,0,-1,1756,491,3.24239,-0.0737072
539,533,3.61609,1.62427,0,0,0,0,0,0,0,-1,1763,491,3.61606,-1.62426
546,533,3.59607,1.65799,0,0,0,0,0,0,0,-1,1770,491,3.59605,-1.658
553,533,0,0,0,0,0,0,0,0,0,-1,1777,491,0,0
560,533,0,0,0,0,0,0,0,0,0,-1,1784,491,0,0
567,533,0,0,0,0,0,0,0,0,0,-1,1791,491,0,0
574,533,0,0,0,0,0,0,0,0,0,-1,1798,491,0,0
581,533,0,0,0,0,0,0,0,0,0,-1,1805,491,0,0
588,533,0,0,0,0,0,0,0,0,0,-1,1812,491,0,0
595,533,0,0,0,0,0,0,0,0,0,-1,1819,491,0,0
602,533,0,0,0,0,0,0,0,0,0,-1,1826,491,0,0
609,533,0,0,0,0,0,0,0,0,0,-1,1833,491,0,0
616,533,0,0,0,0,0,0,0,0,0,-1,1840,491,0,0
623,533,0,0,0,0,0,0,0,0,0,-1,1847,491,0,0
630,533,0,0,0,0,0,0,0,0,0,-1,1854,491,0,0
637,533,0,0,0,0,0,0,0,0,0,-1,1861,491,0,0
644,533,0,0,0,0,0,0,0,0,0,-1,1868,491,0,0
651,533,0,0,0,0,0,0,0,0,0,-1,1875,491,0,0
658,533,0,0,0,0,0,0,0,0,0,-1,1882,491,0,0
665,533,0,0,0,0,0,0,0,0,0,-1,1889,491,0,0
672,533,0,0,0,0,0,0,0,0,0,-1,1896,491,0,0
679,533,0,0,0,0,0,0,0,0,0,-1,1903,491,0,0
686,533,0,0,0,0,0,0,0,0,0,-1,1910,491,0,0
693,533,0,0,0,0,0,0,0,0,0,-1,1917,491,0,0
700,533,0,0,0,0,0,0,0,0,0,-1,1924,491,0,0
707,533,0,0,0,0,0,0,0,0,0,-1,1931,491,0,0
714,533,0,0,0,0,0,0,0,0,0,-1,1938,491,0,0
721,533,0,0,0,0,0,0,0,0,0,-1,1945,491,0,0
728,533,0,0,0,0,0,0,0,0,0,-1,1952,491,0,0
735,533,0,0,0,0,0,0,0,0,0,-1,1959,491,0,0
742,533,0,0,0,0,0,0,0,0,0,-1,1966,491,0,0
749,533,0,0,0,0,0,0,0,0,0,-1,1973,491,0,0
756,533,0,0,0,0,0,0,0,0,0,-1,1980,491,0,0
763,533,0,0,0,0,0,0,0,0,0,-1,1987,491,0,0
770,533,0,0,0,0,0,0,0,0,0,-1,1994,491,0,0
777,533,0,0,0,0,0,0,0,0,0,-1,2001,491,0,0
784,533,0,0,0,0,0,0,0,0,0,-1,2008,491,0,0
791,533,0,0,0,0,0,0,0,0,0,-1,2015,491,0,0
798,533,0,0,0,0,0,0,0,0,0,-1,2022,491,0,0
805,533,0,0,0,0,0,0,0,0,0,-1,2029,491,0,0
812,533,0,0,0,0,0,0,0,0,0,-1,2036,491,0,0
-700,526,0,0,0,0,0,0,0,0,0,-1,524,498,0,0
-693,526,0,0,0,0,0,0,0,0,0,-1,531,498,0,0
-686,526,0,0,0,0,0,0,0,0,0,-1,538,498,0,0
-679,526,0,0,0,0,0,0,0,0,0,-1,545,498,0,0
-672,526,0,0,0,0,0,0,0,0,0,-1,552,498,0,0
-665,526,0,0,0,0,0,0,0,0,0,-1,559,498,0,0
-658,526,0,0,0,0,0,0,0,0,0,-1,566,498,0,0
-651,526,0,0,0,0,0,0,0,0,0,-1,573,498,0,0
-644,526,0,0,0,0,0,0,0,0,0,-1,580,498,0,0
-637,526,0,0,0,0,0,0,0,0,0,-1,587,498,0,0
-630,526,0,0,0,0,0,0,0,0,0,-1,594,498,0,0
-623,526,0,0,0,0,0,0,0,0,0,-1,601,498,0,0
-616,526,0,0,0,0,0,0,0,0,0,-1,608,498,0,0
-609,526,0,0,0,0,0,0,0,0,0,-1,615,498,0,0
-602,526,0,0,0,0,0,0,0,0,0,-1,622,498,0,0
-595,526,0,0,0,0,0,0,0,0,0,-1,629,498,0,0
-588,526,0,0,0,0,0,0,0,0,0,-1,636,498,0,0
-581,526,0,0,0,0,0,0,0,0,0,-1,643,498,0,0
-574,526,0,0,0,0,0,0,0,0,0,-1,650,498,0,0
-567,526,0,0,0,0,0,0,0,0,0,-1,657,498,0,0
-560,526,0,0,0,0,0,0,0,0,0,-1,664,498,0,0
-553,526,0,0,0,0,0,0,0,0,0,-1,671,498,0,0
-546,526,0,0,0,0,0,0,0,0,0,-1,678,498,0,0
-539,526,0,0,0,0,0,0,0,0,0,-1,685,498,0,0
-532,526,0,0,0,0,0,0,0,0,0,-1,692,498,0,0
-525,526,0,0,0,0,0,0,0,0,0,-1,699,498,0,0
-518,526,0,0,0,0,0,0,0,0,0,-1,706,498,0,0
-511,526,0,0,0,0,0,0,0,0,0,-1,713,498,0,0
-504,526,0,0,0,0,0,0,0,0,0,-1,720,498,0,0
-497,526,0,0,0,0,0,0,0,0,0,-1,727,498,0,0
-490,526,0,0,0,0,0,0,0,0,0,-1,734,498,0,0
-483,526,0,0,0,0,0,0,0,0,0,-1,741,498,0,0
-476,526,0,0,0,0,0,0,0,0,0,-1,748,498,0,0
-469,526,0,0,0,0,0,0,0,0,0,-1,755,498,0,0
-462,526,0,0,0,0,0,0,0,0,0,-1,762,498,0,0
-455,526,0,0,0,0,0,0,0,0,0,-1,769,498,0,0
-448,526,0,0,0,0,0,0,0,0,0,-1,776,498,0,0
-441,526,0,0,0,0,0,0,0,0,0,-1,783,498,0,0
-434,526,-0.153564,-5.96649,0,0,0,0,0,0,0,-1,790,498,-0.153589,5.9665
-427,526,0.0078125,-5.84042,0,0,0,0,0,0,0,-1,797,498,0.00779806,5.84041
-420,526,0.137146,-5.72488,0,0,0,0,0,0,0,-1,804,498,0.137154,5.7249
-413,526,-0.392944,-6.06012,0,0,0,0,0,0,0,-1,811,498,-0.392959,6.06011
-406,526,-1.00818,-7.29846,0,0,0,0,0,0,0,-1,818,498,-1.00815,7.29847
-399,526,-1.00378,-5.6951,0,0,0,0,0,0,0,-1,825,498,-1.00381,5.69511
-392,526,-1.10022,-6.7597,0,0,0,0,0,0,0,-1,832,498,-1.10022,6.75971
-385,526,-0.594116,-6.92062,0,0,0,0,0,0,0,-1,839,498,-0.59414,6.92064
-378,526,0.0275269,-7.84433,0,0,0,0,0,0,0,-1,846,498,0.0275043,7.84433
-371,526,0.0752563,-8.15591,0.00184634,-0.0034913,-0.00213704,0.00259652,-0.00424147,-0.337597,0.00398581,0.0418605,853,498,0.0752641,8.15592
-364,526,0.158325,-8.50385,0.00124235,-0.0028934,-0.00126197,0.00159701,-0.00324806,-0.273971,0.00285093,0.0223074,860,498,0.158316,8.50384
-357,526,0.074707,-8.7291,0.000593987,-0.0023484,-0.000524568,0.00068471,-0.00243913,-0.171253,0.00189599,0.0135536,867,498,0.07473,8.7291
-350,526,0.0888062,-9.02164,0.000437991,-0.00208712,-0.000111884,0.000442939,-0.00209207,-0.0441933,0.00156341,0.0101524,874,498,0.0888173,9.02164
-343,526,0.09552,-9.3255,0.00053006,-0.00142335,7.76955e-05,0.000533145,-0.00142644,0.0396906,0.0011699,0.0136401,881,498,0.0954959,9.32549
-336,526,0.0819702,-9.6058,0.000584894,-0.00115607,0.000149224,0.000597592,-0.00116877,0.0848881,0.00103743,0.0143285,888,498,0.0819899,9.60582
-329,526,0.0829468,-9.86282,0.000523602,-0.00110624,0.000267558,0.000566401,-0.00114904,0.158618,0.00100927,0.0145716,895,498,0.0829415,9.86284
-322,526,0.0656738,-10.1374,0.000547813,-0.000788118,0.000161934,0.000567162,-0.000807466,0.11892,0.000797674,0.0103167,902,498,0.0656553,10.1374
-315,526,0.05896,-10.4388,0.000645183,-0.000419685,7.7034e-05,0.000650727,-0.000425229,0.0718428,0.000625735,0.00944038,909,498,0.0589627,10.4388
-308,526,0.0582275,-10.7337,0.000879568,-0.000212915,3.44978e-05,0.000880657,-0.000214003,0.0315355,0.000669931,0.00913924,916,498,0.0582057,10.7337
-301,526,0.041687,-10.968,0.00108958,-0.00015315,7.14697e-05,0.00109368,-0.000157247,0.0572584,0.000786792,0.0103234,923,498,0.0417075,10.968
-294,526,0.0386963,-11.2141,0.00126377,-0.000315262,0.000321297,0.00132664,-0.000378135,0.193244,0.00103379,0.00890108,930,498,0.0387101,11.2141
-287,526,0.0428467,-11.4832,0.0014501,-0.000927908,0.000813637,0.00170184,-0.00117965,0.300056,0.00167271,0.00891903,937,498,0.0428237,11.4832
-280,526,0.0650635,-11.7393,0.00172156,-0.00178939,0.00124437,0.00211787,-0.0021857,0.308321,0.00248477,0.012426,944,498,0.0650693,11.7393
-273,526,0.0582886,-11.9911,0.00209582,-0.0031914,0.00174714,0.00262099,-0.00371657,0.291997,0.00367717,0.0103161,951,498,0.0583037,11.9911
-266,526,0.0390015,-12.2379,0.00239485,-0.00474152,0.00261679,0.00325154,-0.00559821,0.316386,0.00516894,0.00972422,958,498,0.038989,12.2378
-259,526,0.0795288,-12.458,0.0025354,-0.00669579,0.00333324,0.00361315,-0.00777355,0.312725,0.00671879,0.0156951,965,498,0.0795116,12.458
-252,526,0.135559,-12.619,0.00226885,-0.008579,0.00407444,0.00362873,-0.00993888,0.322133,0.00811075,0.0302338,972,498,0.135555,12.619
-245,526,0.0575562,-12.787,0.00193642,-0.0105246,0.0051382,0.00378183,-0.01237,0.344807,0.00975475,0.0410947,979,498,0.0575688,12.7871
-238,526,0.0303345,-12.7896,0.00246611,-0.0130722,0.00601901,0.00452489,-0.0151309,0.329572,0.0118862,0.041883,986,498,0.0303454,12.7896
-231,526,0.407532,-12.746,0,0,0,0,0,0,0,-1,993,498,0.407544,12.746
-224,526,0.380676,-12.8889,0,0,0,0,0,0,0,-1,1000,498,0.380676,12.8889
-217,526,0.330933,-13.3446,0,0,0,0,0,0,0,-1,1007,498,0.330913,13.3446
-210,526,0.171021,-8.39801,0,0,0,0,0,0,0,-1,1014,498,0.170997,8.398
-203,526,1.29535,-12.9261,0,0,0,0,0,0,0,-1,1021,498,1.29535,12.9261
-196,526,-0.328247,-12.179,0,0,0,0,0,0,0,-1,1028,498,-0.328238,12.179
-189,526,0.401245,-5.96826,0,0,0,0,0,0,0,-1,1035,498,0.401197,5.96826
-182,526,1.7323,-2.99405,0,0,0,0,0,0,0,-1,1042,498,1.73226,2.99404
-175,526,2.27637,-2.07983,0,0,0,0,0,0,0,-1,1049,498,2.27639,2.07984
-168,526,2.12036,-1.66049,0,0,0,0,0,0,0,-1,1056,498,2.12035,1.66048
-161,526,2.09082,-1.20572,0,0,0,0,0,0,0,-1,1063,498,2.09086,1.2057
-154,526,-1.3446,-5.37799,0,0,0,0,0,0,0,-1,1070,498,-1.34457,5.37799
-147,526,-0.472656,-6.64996,0,0,0,0,0,0,0,-1,1077,498,-0.472659,6.64997
-140,526,0.422852,-8.03339,0,0,0,0,0,0,0,-1,1084,498,0.422844,8.0334
-133,526,1.09583,-9.2215,0,0,0,0,0,0,0,-1,1091,498,1.09581,9.2215
-126,526,3.42529,-2.36053,0,0,0,0,0,0,0,-1,1098,498,3.42523,2.36052
-119,526,2.7771,-0.764099,0,0,0,0,0,0,0,-1,1105,498,2.7771,0.764107
-112,526,2.57715,-1.1893,0,0,0,0,0,0,0,-1,1112,498,2.57718,1.1893
-105,526,0,0,0,0,0,0,0,0,0,-1,1119,498,0,0
-98,526,0,0,0,0,0,0,0,0,0,-1,1126,498,0,0
-91,526,0,0,0,0,0,0,0,0,0,-1,1133,498,0,0
-84,526,0,0,0,0,0,0,0,0,0,-1,1140,498,0,0
-77,526,0,0,0,0,0,0,0,0,0,-1,1147,498,0,0
-70,526,0,0,0,0,0,0,0,0,0,-1,1154,498,0,0
-63,526,0,0,0,0,0,0,0,0,0,-1,1161,498,0,0
-56,526,0,0,0,0,0,0,0,0,0,-1,1168,498,0,0
-49,526,0,0,0,0,0,0,0,0,0,-1,1175,498,0,0
-42,526,0,0,0,0,0,0,0,0,0,-1,1182,498,0,0
-35,526,0,0,0,0,0,0,0,0,0,-1,1189,498,0,0
-28,526,0,0,0,0,0,0,0,0,0,-1,1196,498,0,0
-21,526,0,0,0,0,0,0,0,0,0,-1,1203,498,0,0
-14,526,0,0,0,0,0,0,0,0,0,-1,1210,498,0,0
-7,526,0,0,0,0,0,0,0,0,0,-1,1217,498,0,0
0,526,0,0,0,0,0,0,0,0,0,-1,1224,498,0,0
7,526,0,0,0,0,0,0,0,0,0,-1,1231,498,0,0
14,526,0,0,0,0,0,0,0,0,0,-1,1238,498,0,0
21,526,0,0,0,0,0,0,0,0,0,-1,1245,498,0,0
28,526,0,0,0,0,0,0,0,0,0,-1,1252,498,0,0
35,526,0,0,0,0,0,0,0,0,0,-1,1259,498,0,0
42,526,0,0,0,0,0,0,0,0,0,-1,1266,498,0,0
49,526,0,0,0,0,0,0,0,0,0,-1,1273,498,0,0
56,526,0,0,0,0,0,0,0,0,0,-1,1280,498,0,0
63,526,0,0,0,0,0,0,0,0,0,-1,1287,498,0,0
70,526,0,0,0,0,0,0,0,0,0,-1,1294,498,0,0
77,526,0,0,0,0,0,0,0,0,0,-1,1301,498,0,0
84,526,0,0,0,0,0,0,0,0,0,-1,1308,498,0,0
91,526,0,0,0,0,0,0,0,0,0,-1,1315,498,0,0
98,526,0,0,0,0,0,0,0,0,0,-1,1322,498,0,0
105,526,0,0,0,0,0,0,0,0,0,-1,1329,498,0,0
112,526,0,0,0,0,0,0,0,0,0,-1,1336,498,0,0
119,526,0,0,0,0,0,0,0,0,0,-1,1343,498,0,0
126,526,0,0,0,0,0,0,0,0,0,-1,1350,498,0,0
133,526,0,0,0,0,0,0,0,0,0,-1,1357,498,0,0
140,526,0,0,0,0,0,0,0,0,0,-1,1364,498,0,0
147,526,0,0,0,0,0,0,0,0,0,-1,1371,498,0,0
154,526,0,0,0,0,0,0,0,0,0,-1,1378,498,0,0
161,526,0,0,0,0,0,0,0,0,0,-1,1385,498,0,0
168,526,0,0,0,0,0,0,0,0,0,-1,1392,498,0,0
175,526,0,0,0,0,0,0,0,0,0,-1,1399,498,0,0
182,526,0,0,0,0,0,0,0,0,0,-1,1406,498,0,0
189,526,0,0,0,0,0,0,0,0,0,-1,1413,498,0,0
196,526,0,0,0,0,0,0,0,0,0,-1,1420,498,0,0
203,526,0,0,0,0,0,0,0,0,0,-1,1427,498,0,0
210,526,0,0,0,0,0,0,0,0,0,-1,1434,498,0,0
217,526,0,0,0,0,0,0,0,0,0,-1,1441,498,0,0
224,526,0,0,0,0,0,0,0,0,0,-1,1448,498,0,0
231,526,7.93237,-1.30618,0,0,0,0,0,0,0,-1,1455,498,7.93238,1.30618
238,526,7.97717,-1.08197,0,0,0,0,0,0,0,-1,1462,498,7.97723,1.08196
245,526,7.2793,-0.792938,0,0,0,0,0,0,0,-1,1469,498,7.27931,0.792926
252,526,6.73523,-2.23608,0,0,0,0,0,0,0,-1,1476,498,6.73525,2.23608
259,526,6.22949,-1.84967,0,0,0,0,0,0,0,-1,1483,498,6.22953,1.84968
266,526,5.72375,-1.46329,0,0,0,0,0,0,0,-1,1490,498,5.72381,1.46328
273,526,4.33984,0.49173,0,0,0,0,0,0,0,-1,1497,498,4.33979,-0.491727
280,526,1.4585,-1.59897,0,0,0,0,0,0,0,-1,1504,498,1.45846,1.59895
287,526,1.46411,-2.40134,0,0,0,0,0,0,0,-1,1511,498,1.46406,2.40133
294,526,5.57471,-4.59085,0,0,0,0,0,0,0,-1,1518,498,5.57466,4.59084
301,526,4.42786,-3.99677,0,0,0,0,0,0,0,-1,1525,498,4.42788,3.99676
308,526,5.79529,-4.19366,0,0,0,0,0,0,0,-1,1532,498,5.79528,4.19368
315,526,5.09851,-5.20068,0,0,0,0,0,0,0,-1,1539,498,5.09851,5.20068
322,526,5.50708,-4.72348,0,0,0,0,0,0,0,-1,1546,498,5.50713,4.72347
329,526,3.88672,-4.345,0,0,0,0,0,0,0,-1,1553,498,3.88674,4.34501
336,526,4.97876,-2.23828,0,0,0,0,0,0,0,-1,1560,498,4.97877,2.23828
343,526,3.31665,-2.69696,0,0,0,0,0,0,0,-1,1567,498,3.31667,2.69696
350,526,6.06287,-6.12015,0,0,0,0,0,0,0,-1,1574,498,6.06286,6.12014
357,526,5.79736,-7.7854,0,0,0,0,0,0,0,-1,1581,498,5.79734,7.78539
364,526,6.22827,-12.2236,0,0,0,0,0,0,0,-1,1588,498,6.22822,12.2236
371,526,6.08374,-12.2745,0,0,0,0,0,0,0,-1,1595,498,6.08372,12.2745
378,526,5.96716,-11.8669,0,0,0,0,0,0,0,-1,1602,498,5.96712,11.8669
385,526,6.3324,-11.5811,0,0,0,0,0,0,0,-1,1609,498,6.33241,11.581
392,526,6.37634,-11.1227,-0.00297056,-0.000908473,-0.00286843,0.00110859,-0.00498762,-0.957931,0.00374964,0.0367004,1616,498,6.37633,11.1227
399,526,6.29761,-10.8348,-0.00223923,-0.000347203,-0.00238173,0.00126952,-0.00385595,-0.974441,0.00308222,0.0203009,1623,498,6.29764,10.8349
406,526,6.34741,-10.5169,-0.00184744,-0.000429701,-0.0021706,0.00114485,-0.00342199,-0.943227,0.00274375,0.0136938,1630,498,6.34745,10.517
413,526,6.33081,-10.249,-0.00134203,-0.000212318,-0.00176031,0.00107155,-0.00262589,-0.94065,0.00219669,0.0141594,1637,498,6.33081,10.249
420,526,6.32361,-9.95462,-0.00091311,-0.000138813,-0.00136561,0.000893461,-0.00194538,-0.923524,0.0016761,0.0134149,1644,498,6.3236,9.95461
427,526,6.36011,-9.67157,-0.000692569,-4.33544e-05,-0.00100586,0.000688983,-0.00142491,-0.94148,0.00124486,0.0128218,1651,498,6.36013,9.67158
434,526,6.3512,-9.4072,-0.000622109,3.77562e-05,-0.000572993,0.000369017,-0.00095337,-1.04662,0.000787936,0.0118015,1658,498,6.35121,9.40721
441,526,6.3324,-9.10825,-0.00054957,0.000235543,-9.63368e-05,0.000247191,-0.000561218,-1.45047,0.000478329,0.0108085,1665,498,6.3324,9.10826
448,526,6.33765,-8.82208,-0.000516557,0.000373741,0.00038401,0.000516487,-0.000659304,1.2149,0.000680511,0.0100549,1672,498,6.33771,8.82207
455,526,6.29932,-8.50354,-0.00051551,0.000571665,0.000859626,0.00104515,-0.000988999,1.06733,0.00117457,0.0127703,1679,498,6.29937,8.50353
462,526,6.29883,-8.17493,-0.000427455,0.000587408,0.00126906,0.00144673,-0.00128677,0.975586,0.00157909,0.0103169,1686,498,6.29879,8.17492
469,526,6.31799,-7.87726,-0.000312887,0.000544747,0.00167805,0.0018479,-0.00161604,0.910494,0.0020014,0.00780882,1693,498,6.318,7.87727
476,526,6.31799,-7.57388,-0.000436748,0.000404022,0.00194928,0.00197773,-0.00201046,0.891602,0.00230261,0.00965793,1700,498,6.31804,7.57389
483,526,6.33472,-7.23618,-0.000562935,6.57897e-05,0.00206671,0.00184191,-0.00233905,0.860873,0.00241956,0.0126129,1707,498,6.33474,7.23617
490,526,6.3938,-6.8588,-0.000778843,-0.000616548,0.00215079,0.00145462,-0.00285001,0.804254,0.00252843,0.025015,1714,498,6.39378,6.85879
497,526,6.29858,-6.67725,-0.00108493,-0.00125882,0.00221859,0.00104842,-0.00339216,0.765813,0.00268016,0.0299187,1721,498,6.29862,6.67725
504,526,6.26672,-6.32782,-0.00139866,-0.00210578,0.00212997,0.000406897,-0.00391134,0.703151,0.00275323,0.0304863,1728,498,6.26671,6.32781
511,526,6.42859,-6.05783,-0.00173343,-0.00318501,0.0019087,-0.000417186,-0.00450125,0.603713,0.00287189,0.0375062,1735,498,6.42858,6.05783
518,526,6.59363,-5.74417,-0.0018942,-0.00403195,0.00195624,-0.000733865,-0.00519229,0.535364,0.00324469,0.0455518,1742,498,6.59365,5.74416
525,526,6.72327,-5.38843,0,0,0,0,0,0,0,-1,1749,498,6.72324,5.38844
532,526,3.54285,-2.81274,0,0,0,0,0,0,0,-1,1756,498,3.54284,2.81273
539,526,3.29407,0.932312,0,0,0,0,0,0,0,-1,1763,498,3.2941,-0.93232
546,526,3.36731,1.07721,0,0,0,0,0,0,0,-1,1770,498,3.36735,-1.07719
553,526,3.40796,1.37137,0,0,0,0,0,0,0,-1,1777,498,3.40792,-1.37138
560,526,0,0,0,0,0,0,0,0,0,-1,1784,498,0,0
567,526,0,0,0,0,0,0,0,0,0,-1,1791,498,0,0
574,526,0,0,0,0,0,0,0,0,0,-1,1798,498,0,0
581,526,0,0,0,0,0,0,0,0,0,-1,1805,498,0,0
588,526,0,0,0,0,0,0,0,0,0,-1,1812,498,0,0
595,526,0,0,0,0,0,0,0,0,0,-1,1819,498,0,0
602,526,0,0,0,0,0,0,0,0,0,-1,1826,498,0,0
609,526,0,0,0,0,0,0,0,0,0,-1,1833,498,0,0
616,526,0,0,0,0,0,0,0,0,0,-1,1840,498,0,0
623,526,0,0,0,0,0,0,0,0,0,-1,1847,498,0,0
630,526,0,0,0,0,0,0,0,0,0,-1,1854,498,0,0
637,526,0,0,0,0,0,0,0,0,0,-1,1861,498,0,0
644,526,0,0,0,0,0,0,0,0,0,-1,1868,498,0,0
651,526,0,0,0,0,0,0,0,0,0,-1,1875,498,0,0
658,526,0,0,0,0,0,0,0,0,0,-1,1882,498,0,0
665,526,0,0,0,0,0,0,0,0,0,-1,1889,498,0,0
672,526,0,0,0,0,0,0,0,0,0,-1,1896,498,0,0
679,526,0,0,0,0,0,0,0,0,0,-1,1903,498,0,0
686,526,0,0,0,0,0,0,0,0,0,-1,1910,498,0,0
693,526,0,0,0,0,0,0,0,0,0,-1,1917,498,0,0
700,526,0,0,0,0,0,0,0,0,0,-1,1924,498,0,0
707,526,0,0,0,0,0,0,0,0,0,-1,1931,498,0,0
714,526,0,0,0,0,0,0,0,0,0,-1,1938,498,0,0
721,526,0,0,0,0,0,0,0,0,0,-1,1945,498,0,0
728,526,0,0,0,0,0,0,0,0,0,-1,1952,498,0,0
735,526,0,0,0,0,0,0,0,0,0,-1,1959,498,0,0
742,526,0,0,0,0,0,0,0,0,0,-1,1966,498,0,0
749,526,0,0,0,0,0,0,0,0,0,-1,1973,498,0,0
756,526,0,0,0,0,0,0,0,0,0,-1,1980,498,0,0
763,526,0,0,0,0,0,0,0,0,0,-1,1987,498,0,0
770,526,0,0,0,0,0,0,0,0,0,-1,1994,498,0,0
777,526,0,0,0,0,0,0,0,0,0,-1,2001,498,0,0
784,526,0,0,0,0,0,0,0,0,0,-1,2008,498,0,0
791,526,0,0,0,0,0,0,0,0,0,-1,2015,498,0,0
798,526,0,0,0,0,0,0,0,0,0,-1,2022,498,0,0
805,526,0,0,0,0,0,0,0,0,0,-1,2029,498,0,0
812,526,0,0,0,0,0,0,0,0,0,-1,2036,498,0,0
-700,519,0,0,0,0,0,0,0,0,0,-1,524,505,0,0
-693,519,0,0,0,0,0,0,0,0,0,-1,531,505,0,0
-686,519,0,0,0,0,0,0,0,0,0,-1,538,505,0,0
-679,519,0,0,0,0,0,0,0,0,0,-1,545,505,0,0
-672,519,0,0,0,0,0,0,0,0,0,-1,552,505,0,0
-665,519,0,0,0,0,0,0,0,0,0,-1,559,505,0,0
-658,519,0,0,0,0,0,0,0,0,0,-1,566,505,0,0
-651,519,0,0,0,0,0,0,0,0,0,-1,573,505,0,0
-644,519,0,0,0,0,0,0,0,0,0,-1,580,505,0,0
-637,519,0,0,0,0,0,0,0,0,0,-1,587,505,0,0
-630,519,0,0,0,0,0,0,0,0,0,-1,594,505,0,0
-623,519,0,0,0,0,0,0,0,0,0,-1,601,505,0,0
-616,519,0,0,0,0,0,0,0,0,0,-1,608,505,0,0
-609,519,0,0,0,0,0,0,0,0,0,-1,615,505,0,0
-602,519,0,0,0,0,0,0,0,0,0,-1,622,505,0,0
-595,519,0,0,0,0,0,0,0,0,0,-1,629,505,0,0
-588,519,0,0,0,0,0,0,0,0,0,-1,636,505,0,0
-581,519,0,0,0,0,0,0,0,0,0,-1,643,505,0,0
-574,519,0,0,0,0,0,0,0,0,0,-1,650,505,0,0
-567,519,0,0,0,0,0,0,0,0,0,-1,657,505,0,0
-560,519,0,0,0,0,0,0,0,0,0,-1,664,505,0,0
-553,519,0,0,0,0,0,0,0,0,0,-1,671,505,0,0
-546,519,0,0,0,0,0,0,0,0,0,-1,678,505,0,0
-539,519,0,0,0,0,0,0,0,0,0,-1,685,505,0,0
-532,519,0,0,0,0,0,0,0,0,0,-1,692,505,0,0
-525,519,0,0,0,0,0,0,0,0,0,-1,699,505,0,0
-518,519,0,0,0,0,0,0,0,0,0,-1,706,505,0,0
-511,519,0,0,0,0,0,0,0,0,0,-1,713,505,0,0
-504,519,0,0,0,0,0,0,0,0,0,-1,720,505,0,0
-497,519,0,0,0,0,0,0,0,0,0,-1,727,505,0,0
-490,519,0,0,0,0,0,0,0,0,0,-1,734,505,0,0
-483,519,0,0,0,0,0,0,0,0,0,-1,741,505,0,0
-476,519,0,0,0,0,0,0,0,0,0,-1,748,505,0,0
-469,519,0,0,0,0,0,0,0,0,0,-1,755,505,0,0
-462,519,0,0,0,0,0,0,0,0,0,-1,762,505,0,0
-455,519,0,0,0,0,0,0,0,0,0,-1,769,505,0,0
-448,519,0,0,0,0,0,0,0,0,0,-1,776,505,0,0
-441,519,1.34839,-5.29346,0,0,0,0,0,0,0,-1,783,505,1.3484,5.29347
-434,519,0.949585,-5.77313,0,0,0,0,0,0,0,-1,790,505,0.949598,5.77315
-427,519,0.138489,-5.67401,0,0,0,0,0,0,0,-1,797,505,0.138516,5.67402
-420,519,0.334229,-4.94653,0,0,0,0,0,0,0,-1,804,505,0.334216,4.94654
-413,519,-1.01056,-7.55743,0,0,0,0,0,0,0,-1,811,505,-1.01059,7.55743
-406,519,-0.78595,-7.30505,0,0,0,0,0,0,0,-1,818,505,-0.785942,7.30508
-399,519,-0.239136,-7.40021,0,0,0,0,0,0,0,-1,825,505,-0.239154,7.4002
-392,519,-0.617859,-6.93448,0,0,0,0,0,0,0,-1,832,505,-0.617831,6.93449
-385,519,-0.516296,-7.20966,-0.00422685,-0.00155306,-0.00933065,0.00653598,-0.0123159,-0.856554,0.0110533,0.0462156,839,505,-0.516293,7.20968
-378,519,-0.262085,-7.71741,-0.000387772,-0.00110661,-0.00539935,0.00466411,-0.00615849,-0.752163,0.00626825,0.0362916,846,505,-0.262066,7.7174
-371,519,-0.16571,-8.09778,0.00135865,-0.00230336,-0.00231447,0.00247881,-0.00342351,-0.450749,0.00342222,0.0209162,853,505,-0.165694,8.09781
-364,519,-0.201843,-8.39697,0.000954745,-0.00189933,-0.00149007,0.0015909,-0.00253548,-0.403502,0.00240308,0.0120446,860,505,-0.201818,8.39699
-357,519,-0.172302,-8.7243,0.000482537,-0.00150482,-0.000794609,0.000761179,-0.00178346,-0.337268,0.00150815,0.00885354,867,505,-0.172283,8.72428
-350,519,-0.174622,-9.0177,0.000425574,-0.00135163,-0.000408767,0.000515084,-0.00144114,-0.215574,0.00117085,0.0100921,874,505,-0.174612,9.01772
-343,519,-0.194885,-9.30505,0.000582732,-0.000824772,-0.000218555,0.000615888,-0.000857928,-0.150556,0.000854724,0.0129499,881,505,-0.194889,9.30506
-336,519,-0.211304,-9.58887,0.000710771,-0.000656917,-0.000132951,0.000723575,-0.000669721,-0.0960105,0.00080462,0.014282,888,505,-0.211311,9.58888
-329,519,-0.20459,-9.84985,0.000758613,-0.000639776,-4.16178e-05,0.00075985,-0.000641014,-0.0297262,0.000809759,0.0129579,895,505,-0.204586,9.84983
-322,519,-0.205811,-10.1335,0.000855901,-0.000397188,-0.000134324,0.000870138,-0.000411425,-0.105596,0.000755544,0.0105425,902,505,-0.205818,10.1335
-315,519,-0.203491,-10.4409,0.00102767,-0.000107989,-0.000196842,0.00106082,-0.00014114,-0.166847,0.000758646,0.00883971,909,505,-0.203476,10.4409
-308,519,-0.206848,-10.7288,0.00133283,-9.06006e-06,-0.000190941,0.00135947,-3.57007e-05,-0.138628,0.000918445,0.0082152,916,505,-0.206823,10.7288
-301,519,-0.224548,-10.9713,0.00159397,-3.2051e-05,-0.000121031,0.00160293,-4.10104e-05,-0.0738911,0.00108255,0.0132707,923,505,-0.224558,10.9713
-294,519,-0.233704,-11.1884,0.00178436,-0.000290535,0.000187231,0.00180112,-0.000307295,0.0892757,0.0013152,0.0152089,930,505,-0.233716,11.1883
-287,519,-0.241943,-11.4788,0.00195348,-0.00108159,0.000821007,0.00216133,-0.00128944,0.247959,0.00201339,0.0104654,937,505,-0.24197,11.4788
-280,519,-0.230042,-11.7469,0.00226425,-0.00214802,0.00138208,0.00266142,-0.00254519,0.279827,0.00300628,0.0150066,944,505,-0.230023,11.7469
-273,519,-0.208374,-12.0037,0.00277474,-0.00392851,0.00203666,0.00334502,-0.00449879,0.273018,0.00454493,0.0232283,951,505,-0.208385,12.0037
-266,519,-0.228943,-12.264,0.00311949,-0.00590008,0.00325676,0.0041725,-0.00695309,0.31272,0.00648989,0.0314523,958,505,-0.228973,12.264
-259,519,-0.119385,-12.3658,0.00325093,-0.00826636,0.00424995,0.00464939,-0.00966482,0.317892,0.00843171,0.0488102,965,505,-0.119357,12.3658
-252,519,-0.110535,-12.5865,0,0,0,0,0,0,0,-1,972,505,-0.110542,12.5865
-245,519,-0.352112,-12.6793,0,0,0,0,0,0,0,-1,979,505,-0.352137,12.6793
-238,519,-0.316895,-12.5383,0,0,0,0,0,0,0,-1,986,505,-0.316865,12.5383
-231,519,0.337585,-11.2798,0,0,0,0,0,0,0,-1,993,505,0.337568,11.2798
-224,519,-0.0494995,-7.97394,0,0,0,0,0,0,0,-1,1000,505,-0.0495123,7.97392
-217,519,-2.97125,-4.84393,0,0,0,0,0,0,0,-1,1007,505,-2.97128,4.84393
-210,519,-2.14398,-4.74774,0,0,0,0,0,0,0,-1,1014,505,-2.14397,4.74775
-203,519,-0.513611,-5.39017,0,0,0,0,0,0,0,-1,1021,505,-0.513585,5.39017
-196,519,-0.374023,-5.41635,0,0,0,0,0,0,0,-1,1028,505,-0.374047,5.41635
-189,519,-0.234497,-5.44254,0,0,0,0,0,0,0,-1,1035,505,-0.234508,5.44253
-182,519,2.76697,-1.19659,0,0,0,0,0,0,0,-1,1042,505,2.76696,1.19661
-175,519,2.31323,-0.960938,0,0,0,0,0,0,0,-1,1049,505,2.31319,0.960941
-168,519,2.01074,-0.721405,0,0,0,0,0,0,0,-1,1056,505,2.01072,0.721407
-161,519,2.32056,-0.522339,0,0,0,0,0,0,0,-1,1063,505,2.32057,0.522328
-154,519,2.55566,0.116669,0,0,0,0,0,0,0,-1,1070,505,2.55563,-0.116661
-147,519,-0.55127,-6.14001,0,0,0,0,0,0,0,-1,1077,505,-0.551252,6.14001
-140,519,0.240601,-7.53503,0,0,0,0,0,0,0,-1,1084,505,0.240653,7.53501
-133,519,2.70911,-4.4516,0,0,0,0,0,0,0,-1,1091,505,2.70915,4.45161
-126,519,0,0,0,0,0,0,0,0,0,-1,1098,505,0,0
-119,519,0,0,0,0,0,0,0,0,0,-1,1105,505,0,0
-112,519,0,0,0,0,0,0,0,0,0,-1,1112,505,0,0
-105,519,0,0,0,0,0,0,0,0,0,-1,1119,505,0,0
-98,519,0,0,0,0,0,0,0,0,0,-1,1126,505,0,0
-91,519,0,0,0,0,0,0,0,0,0,-1,1133,505,0,0
-84,519,0,0,0,0,0,0,0,0,0,-1,1140,505,0,0
-77,519,0,0,0,0,0,0,0,0,0,-1,1147,505,0,0
-70,519,0,0,0,0,0,0,0,0,0,-1,1154,505,0,0
-63,519,0,0,0,0,0,0,0,0,0,-1,1161,505,0,0
-56,519,0,0,0,0,0,0,0,0,0,-1,1168,505,0,0
-49,519,0,0,0,0,0,0,0,0,0,-1,1175,505,0,0
-42,519,0,0,0,0,0,0,0,0,0,-1,1182,505,0,0
-35,519,0,0,0,0,0,0,0,0,0,-1,1189,505,0,0
-28,519,0,0,0,0,0,0,0,0,0,-1,1196,505,0,0
-21,519,0,0,0,0,0,0,0,0,0,-1,1203,505,0,0
-14,519,0,0,0,0,0,0,0,0,0,-1,1210,505,0,0
-7,519,0,0,0,0,0,0,0,0,0,-1,1217,505,0,0
0,519,0,0,0,0,0,0,0,0,0,-1,1224,505,0,0
7,519,0,0,0,0,0,0,0,0,0,-1,1231,505,0,0
14,519,0,0,0,0,0,0,0,0,0,-1,1238,505,0,0
21,519,0,0,0,0,0,0,0,0,0,-1,1245,505,0,0
28,519,0,0,0,0,0,0,0,0,0,-1,1252,505,0,0
35,519,0,0,0,0,0,0,0,0,0,-1,1259,505,0,0
42,519,0,0,0,0,0,0,0,0,0,-1,1266,505,0,0
49,519,0,0,0,0,0,0,0,0,0,-1,1273,505,0,0
56,519,0,0,0,0,0,0,0,0,0,-1,1280,505,0,0
63,519,0,0,0,0,0,0,0,0,0,-1,1287,505,0,0
70,519,0,0,0,0,0,0,0,0,0,-1,1294,505,0,0
77,519,0,0,0,0,0,0,0,0,0,-1,1301,505,0,0
84,519,0,0,0,0,0,0,0,0,0,-1,1308,505,0,0
91,519,0,0,0,0,0,0,0,0,0,-1,1315,505,0,0
98,519,0,0,0,0,0,0,0,0,0,-1,1322,505,0,0
105,519,0,0,0,0,0,0,0,0,0,-1,1329,505,0,0
112,519,0,0,0,0,0,0,0,0,0,-1,1336,505,0,0
119,519,0,0,0,0,0,0,0,0,0,-1,1343,505,0,0
126,519,0,0,0,0,0,0,0,0,0,-1,1350,505,0,0
133,519,0,0,0,0,0,0,0,0,0,-1,1357,505,0,0
140,519,0,0,0,0,0,0,0,0,0,-1,1364,505,0,0
147,519,0,0,0,0,0,0,0,0,0,-1,1371,505,0,0
154,519,0,0,0,0,0,0,0,0,0,-1,1378,505,0,0
161,519,0,0,0,0,0,0,0,0,0,-1,1385,505,0,0
168,519,0,0,0,0,0,0,0,0,0,-1,1392,505,0,0
175,519,0,0,0,0,0,0,0,0,0,-1,1399,505,0,0
182,519,0,0,0,0,0,0,0,0,0,-1,1406,505,0,0
189,519,0,0,0,0,0,0,0,0,0,-1,1413,505,0,0
196,519,0,0,0,0,0,0,0,0,0,-1,1420,505,0,0
203,519,0,0,0,0,0,0,0,0,0,-1,1427,505,0,0
210,519,0,0,0,0,0,0,0,0,0,-1,1434,505,0,0
217,519,0,0,0,0,0,0,0,0,0,-1,1441,505,0,0
224,519,0,0,0,0,0,0,0,0,0,-1,1448,505,0,0
231,519,0,0,0,0,0,0,0,0,0,-1,1455,505,0,0
238,519,0,0,0,0,0,0,0,0,0,-1,1462,505,0,0
245,519,0,0,0,0,0,0,0,0,0,-1,1469,505,0,0
252,519,5.26208,0.0938416,0,0,0,0,0,0,0,-1,1476,505,5.26207,-0.0938493
259,519,6.14246,-1.36441,0,0,0,0,0,0,0,-1,1483,505,6.14241,1.36441
266,519,5.31909,-0.400787,0,0,0,0,0,0,0,-1,1490,505,5.31912,0.400773
273,519,4.02393,0.325531,0,0,0,0,0,0,0,-1,1497,505,4.0239,-0.325522
280,519,4.68848,0.53006,0,0,0,0,0,0,0,-1,1504,505,4.68842,-0.530073
287,519,7.9519,-3.80801,0,0,0,0,0,0,0,-1,1511,505,7.95193,3.808
294,519,6.92273,-3.38889,0,0,0,0,0,0,0,-1,1518,505,6.92268,3.38888
301,519,5.35669,-2.92661,0,0,0,0,0,0,0,-1,1525,505,5.35675,2.9266
308,519,7.37549,-5.64529,0,0,0,0,0,0,0,-1,1532,505,7.3755,5.64529
315,519,6.30029,-4.53754,0,0,0,0,0,0,0,-1,1539,505,6.30024,4.53753
322,519,5.84302,-5.45117,0,0,0,0,0,0,0,-1,1546,505,5.84303,5.45116
329,519,4.92407,0.62384,0,0,0,0,0,0,0,-1,1553,505,4.92403,-0.623832
336,519,3.10095,-0.329285,0,0,0,0,0,0,0,-1,1560,505,3.1009,0.329283
343,519,2.49146,-2.31119,0,0,0,0,0,0,0,-1,1567,505,2.49145,2.31119
350,519,3.47729,-2.22516,0,0,0,0,0,0,0,-1,1574,505,3.47726,2.22515
357,519,4.51917,-4.51691,0,0,0,0,0,0,0,-1,1581,505,4.51914,4.51691
364,519,3.54626,-7.20673,0,0,0,0,0,0,0,-1,1588,505,3.54622,7.20675
371,519,5.349,-8.20068,0,0,0,0,0,0,0,-1,1595,505,5.34898,8.20068
378,519,6.36597,-10.0967,0,0,0,0,0,0,0,-1,1602,505,6.36597,10.0967
385,519,6.24756,-9.72186,0,0,0,0,0,0,0,-1,1609,505,6.24752,9.72183
392,519,6.75,-10.8463,0,0,0,0,0,0,0,-1,1616,505,6.75005,10.8463
399,519,6.67627,-10.72,-0.00352086,-0.000771861,-0.0035019,0.00161563,-0.00590835,-0.972411,0.00457357,0.0455491,1623,505,6.67629,10.72
406,519,6.6217,-10.583,-0.00290825,-0.000965452,-0.00326426,0.00146888,-0.00534259,-0.930019,0.00413916,0.0283938,1630,505,6.6217,10.583
413,519,6.64209,-10.2736,-0.00218655,-0.000769605,-0.00276106,0.00137242,-0.00432858,-0.910987,0.00343581,0.0157281,1637,505,6.64204,10.2735
420,519,6.62695,-9.96008,-0.00156012,-0.000744341,-0.00227659,0.00116061,-0.00346507,-0.874041,0.00277891,0.0157762,1644,505,6.62698,9.96009
427,519,6.65186,-9.68188,-0.00113762,-0.000663743,-0.00184641,0.000960874,-0.00276223,-0.849211,0.00223183,0.0139231,1651,505,6.65189,9.68191
434,519,6.63953,-9.39136,-0.000946229,-0.000531931,-0.00134843,0.000625169,-0.00210333,-0.861613,0.00165056,0.0127202,1658,505,6.63952,9.39136
441,519,6.60522,-9.09344,-0.000735925,-0.000314995,-0.000833664,0.000334361,-0.00138528,-0.909043,0.00105282,0.0116739,1665,505,6.60526,9.09345
448,519,6.60718,-8.80615,-0.000547451,-0.000134944,-0.000310511,3.15733e-05,-0.000713967,-1.07856,0.000486844,0.00935457,1672,505,6.60716,8.80616
455,519,6.58862,-8.5144,-0.000394368,0.000134731,0.000207511,0.000206407,-0.000466043,1.23822,0.000397768,0.0106206,1679,505,6.58863,8.51442
462,519,6.60132,-8.19507,-0.000183357,0.000232875,0.000638972,0.000696769,-0.000647251,0.942833,0.000776146,0.00988856,1686,505,6.60128,8.19508
469,519,6.61816,-7.88391,-7.09421e-06,0.000263411,0.00104216,0.00117905,-0.000922737,0.849928,0.00121647,0.00988143,1693,505,6.61815,7.88391
476,519,6.6189,-7.57202,-7.05509e-05,0.000201622,0.00131799,0.00139053,-0.00125946,0.836843,0.00153059,0.0123815,1700,505,6.61888,7.57203
483,519,6.61072,-7.26166,-0.00016019,-1.58916e-05,0.00144064,0.0013544,-0.00153048,0.810418,0.00166662,0.0146224,1707,505,6.61066,7.26168
490,519,6.59595,-6.90704,-0.000396494,-0.000545643,0.00150745,0.00103823,-0.00198036,0.760683,0.00177085,0.0125058,1714,505,6.596,6.90703
497,519,6.59631,-6.61246,-0.000788639,-0.00104191,0.00154374,0.000633646,-0.0024642,0.744473,0.00188976,0.0140022,1721,505,6.59628,6.61245
504,519,6.56812,-6.28726,-0.00123639,-0.00168122,0.00142949,-1.21114e-05,-0.0029055,0.708222,0.00193298,0.0141505,1728,505,6.56814,6.28727
511,519,6.57129,-5.95578,-0.00179722,-0.0024351,0.00119596,-0.000878405,-0.00335391,0.655092,0.00200823,0.0192962,1735,505,6.57124,5.95578
518,519,6.60339,-5.82797,-0.00239601,-0.00305553,0.00110747,-0.00157025,-0.00388129,0.6407,0.00225443,0.0425514,1742,505,6.60345,5.82796
525,519,6.71729,-5.67334,0,0,0,0,0,0,0,-1,1749,505,6.71727,5.67335
532,519,3.5155,-2.86511,0,0,0,0,0,0,0,-1,1756,505,3.51554,2.8651
539,519,3.30005,0.0229797,0,0,0,0,0,0,0,-1,1763,505,3.30008,-0.0229869
546,519,4.62024,-2.89774,0,0,0,0,0,0,0,-1,1770,505,4.62023,2.89775
553,519,4.14136,0.0667419,0,0,0,0,0,0,0,-1,1777,505,4.14141,-0.0667503
560,519,3.77856,0.279724,0,0,0,0,0,0,0,-1,1784,505,3.77861,-0.279731
567,519,0,0,0,0,0,0,0,0,0,-1,1791,505,0,0
574,519,0,0,0,0,0,0,0,0,0,-1,1798,505,0,0
581,519,0,0,0,0,0,0,0,0,0,-1,1805,505,0,0
588,519,0,0,0,0,0,0,0,0,0,-1,1812,505,0,0
595,519,0,0,0,0,0,0,0,0,0,-1,1819,505,0,0
602,519,0,0,0,0,0,0,0,0,0,-1,1826,505,0,0
609,519,0,0,0,0,0,0,0,0,0,-1,1833,505,0,0
616,519,0,0,0,0,0,0,0,0,0,-1,1840,505,0,0
623,519,0,0,0,0,0,0,0,0,0,-1,1847,505,0,0
630,519,0,0,0,0,0,0,0,0,0,-1,1854,505,0,0
637,519,0,0,0,0,0,0,0,0,0,-1,1861,505,0,0
644,519,0,0,0,0,0,0,0,0,0,-1,1868,505,0,0
651,519,0,0,0,0,0,0,0,0,0,-1,1875,505,0,0
658,519,0,0,0,0,0,0,0,0,0,-1,1882,505,0,0
665,519,0,0,0,0,0,0,0,0,0,-1,1889,505,0,0
672,519,0,0,0,0,0,0,0,0,0,-1,1896,505,0,0
679,519,0,0,0,0,0,0,0,0,0,-1,1903,505,0,0
686,519,0,0,0,0,0,0,0,0,0,-1,1910,505,0,0
693,519,0,0,0,0,0,0,0,0,0,-1,1917,505,0,0
700,519,0,0,0,0,0,0,0,0,0,-1,1924,505,0,0
707,519,0,0,0,0,0,0,0,0,0,-1,1931,505,0,0
714,519,0,0,0,0,0,0,0,0,0,-1,1938,505,0,0
721,519,0,0,0,0,0,0,0,0,0,-1,1945,505,0,0
728,519,0,0,0,0,0,0,0,0,0,-1,1952,505,0,0
735,519,0,0,0,0,0,0,0,0,0,-1,1959,505,0,0
742,519,0,0,0,0,0,0,0,0,0,-1,1966,505,0,0
749,519,0,0,0,0,0,0,0,0,0,-1,1973,505,0,0
756,519,0,0,0,0,0,0,0,0,0,-1,1980,505,0,0
763,519,0,0,0,0,0,0,0,0,0,-1,1987,505,0,0
770,519,0,0,0,0,0,0,0,0,0,-1,1994,505,0,0
777,519,0,0,0,0,0,0,0,0,0,-1,2001,505,0,0
784,519,0,0,0,0,0,0,0,0,0,-1,2008,505,0,0
791,519,0,0,0,0,0,0,0,0,0,-1,2015,505,0,0
798,519,0,0,0,0,0,0,0,0,0,-1,2022,505,0,0
805,519,0,0,0,0,0,0,0,0,0,-1,2029,505,0,0
812,519,0,0,0,0,0,0,0,0,0,-1,2036,505,0,0
-700,512,0,0,0,0,0,0,0,0,0,-1,524,512,0,0
-693,512,0,0,0,0,0,0,0,0,0,-1,531,512,0,0
-686,512,0,0,0,0,0,0,0,0,0,-1,538,512,0,0
-679,512,0,0,0,0,0,0,0,0,0,-1,545,512,0,0
-672,512,0,0,0,0,0,0,0,0,0,-1,552,512,0,0
-665,512,0,0,0,0,0,0,0,0,0,-1,559,512,0,0
-658,512,0,0,0,0,0,0,0,0,0,-1,566,512,0,0
-651,512,0,0,0,0,0,0,0,0,0,-1,573,512,0,0
-644,512,0,0,0,0,0,0,0,0,0,-1,580,512,0,0
-637,512,0,0,0,0,0,0,0,0,0,-1,587,512,0,0
-630,512,0,0,0,0,0,0,0,0,0,-1,594,512,0,0
-623,512,0,0,0,0,0,0,0,0,0,-1,601,512,0,0
-616,512,0,0,0,0,0,0,0,0,0,-1,608,512,0,0
-609,512,0,0,0,0,0,0,0,0,0,-1,615,512,0,0
-602,512,0,0,0,0,0,0,0,0,0,-1,622,512,0,0
-595,512,0,0,0,0,0,0,0,0,0,-1,629,512,0,0
-588,512,0,0,0,0,0,0,0,0,0,-1,636,512,0,0
-581,512,0,0,0,0,0,0,0,0,0,-1,643,512,0,0
-574,512,0,0,0,0,0,0,0,0,0,-1,650,512,0,0
-567,512,0,0,0,0,0,0,0,0,0,-1,657,512,0,0
-560,512,0,0,0,0,0,0,0,0,0,-1,664,512,0,0
-553,512,0,0,0,0,0,0,0,0,0,-1,671,512,0,0
-546,512,0,0,0,0,0,0,0,0,0,-1,678,512,0,0
-539,512,0,0,0,0,0,0,0,0,0,-1,685,512,0,0
-532,512,0,0,0,0,0,0,0,0,0,-1,692,512,0,0
-525,512,0,0,0,0,0,0,0,0,0,-1,699,512,0,0
-518,512,0,0,0,0,0,0,0,0,0,-1,706,512,0,0
-511,512,0,0,0,0,0,0,0,0,0,-1,713,512,0,0
-504,512,0,0,0,0,0,0,0,0,0,-1,720,512,0,0
-497,512,0,0,0,0,0,0,0,0,0,-1,727,512,0,0
-490,512,0,0,0,0,0,0,0,0,0,-1,734,512,0,0
-483,512,0,0,0,0,0,0,0,0,0,-1,741,512,0,0
-476,512,0,0,0,0,0,0,0,0,0,-1,748,512,0,0
-469,512,0,0,0,0,0,0,0,0,0,-1,755,512,0,0
-462,512,0,0,0,0,0,0,0,0,0,-1,762,512,0,0
-455,512,0,0,0,0,0,0,0,0,0,-1,769,512,0,0
-448,512,1.96283,-4.15674,0,0,0,0,0,0,0,-1,776,512,1.96285,4.15677
-441,512,1.78198,-4.88824,0,0,0,0,0,0,0,-1,783,512,1.78201,4.88826
-434,512,1.32996,-7.28003,0,0,0,0,0,0,0,-1,790,512,1.32993,7.28003
-427,512,0.26355,-7.0896,0,0,0,0,0,0,0,-1,797,512,0.26356,7.08957
-420,512,-0.775513,-7.6698,0,0,0,0,0,0,0,-1,804,512,-0.775541,7.66978
-413,512,-0.704224,-7.52869,-0.0274524,0.000887992,-0.03203,0.0217423,-0.0483067,-0.993658,0.0414008,0.0469441,811,512,-0.704249,7.52871
-406,512,-0.512268,-7.31628,0,0,0,0,0,0,0,-1,818,512,-0.512296,7.31628
-399,512,-0.359314,-7.25598,-0.0107684,-0.000299367,-0.0170707,0.0123214,-0.0233892,-0.934166,0.020945,0.0464039,825,512,-0.359286,7.256
-392,512,-0.428284,-7.32092,-0.00629944,-0.000500175,-0.0118955,0.00884398,-0.0156436,-0.904946,0.0143184,0.0370644,832,512,-0.428282,7.32089
-385,512,-0.418945,-7.47913,-0.00348949,-0.000488844,-0.00815155,0.0062993,-0.0102776,-0.876406,0.00966214,0.0192805,839,512,-0.418956,7.47914
-378,512,-0.447571,-7.78815,-0.000611184,-0.00012178,-0.00486441,0.00450408,-0.00523704,-0.810529,0.00562934,0.0150773,846,512,-0.447583,7.78814
-371,512,-0.460022,-8.10028,0.00081184,-0.00125823,-0.00239553,0.00238637,-0.00283276,-0.581477,0.00301694,0.0120426,853,512,-0.460042,8.10028
-364,512,-0.456238,-8.42462,0.000597396,-0.00109948,-0.00170322,0.0016518,-0.00215388,-0.554321,0.00220358,0.00914829,860,512,-0.456261,8.42462
-357,512,-0.439331,-8.72034,0.000318149,-0.000915065,-0.00108175,0.000946686,-0.0015436,-0.52636,0.00145147,0.0101922,867,512,-0.439351,8.72036
-350,512,-0.444824,-9.02008,0.000395786,-0.000952959,-0.0007239,0.000710761,-0.00126793,-0.410402,0.0011574,0.0105781,874,512,-0.444852,9.0201
-343,512,-0.478638,-9.31079,0.000667961,-0.000679984,-0.000526185,0.000849038,-0.00086106,-0.331437,0.000987334,0.0114361,881,512,-0.478616,9.3108
-336,512,-0.490417,-9.60431,0.000941871,-0.000699381,-0.000407657,0.00103755,-0.000795058,-0.230527,0.00106114,0.0125001,888,512,-0.490439,9.60431
-329,512,-0.482971,-9.85767,0.00119747,-0.000768982,-0.000322972,0.00124915,-0.000820669,-0.158689,0.00120352,0.0130604,895,512,-0.483001,9.85769
-322,512,-0.483582,-10.1375,0.00148626,-0.000645909,-0.00036941,0.00154845,-0.000708098,-0.166782,0.00133259,0.0103923,902,512,-0.483605,10.1375
-315,512,-0.481079,-10.4421,0.00184533,-0.000463338,-0.000370709,0.00190339,-0.000521403,-0.155371,0.0014738,0.00984126,909,512,-0.48109,10.4421
-308,512,-0.487244,-10.726,0.00231103,-0.000478651,-0.00026591,0.00233615,-0.000503771,-0.0941887,0.0017497,0.0105852,916,512,-0.487253,10.726
-301,512,-0.479675,-10.9781,0.00268465,-0.000568228,-0.000105897,0.0026881,-0.000571672,-0.0325089,0.00200991,0.015045,923,512,-0.479691,10.9781
-294,512,-0.47876,-11.2086,0.0028952,-0.000850372,0.000299468,0.002919,-0.000874164,0.0792814,0.0022936,0.0157652,930,512,-0.478784,11.2085
-287,512,-0.556519,-11.4179,0.00300162,-0.00167899,0.0010649,0.00323251,-0.00190987,0.213513,0.00300151,0.0227602,937,512,-0.556538,11.4179
-280,512,-0.480286,-11.7524,0.00322069,-0.00272884,0.00173358,0.00368896,-0.00319712,0.263823,0.00397906,0.0328412,944,512,-0.480278,11.7524
-273,512,-0.382446,-12.0593,0,0,0,0,0,0,0,-1,951,512,-0.382442,12.0593
-266,512,-0.447937,-12.3666,0,0,0,0,0,0,0,-1,958,512,-0.447927,12.3666
-259,512,-0.384033,-12.4559,0,0,0,0,0,0,0,-1,965,512,-0.384013,12.4559
-252,512,1.45941,-3.43475,0,0,0,0,0,0,0,-1,972,512,1.45938,3.43475
-245,512,4.12927,-11.272,0,0,0,0,0,0,0,-1,979,512,4.1293,11.272
-238,512,0.227051,-8.92969,0,0,0,0,0,0,0,-1,986,512,0.227073,8.92968
-231,512,-2.54437,-10.169,0,0,0,0,0,0,0,-1,993,512,-2.54439,10.169
-224,512,-4.84601,-7.52783,0,0,0,0,0,0,0,-1,1000,512,-4.84602,7.52786
-217,512,-7.37274,-3.89563,0,0,0,0,0,0,0,-1,1007,512,-7.37274,3.89561
-210,512,-3.76642,-1.94702,0,0,0,0,0,0,0,-1,1014,512,-3.76641,1.94702
-203,512,-2.48328,-5.19061,0,0,0,0,0,0,0,-1,1021,512,-2.48328,5.19059
-196,512,-1.14929,-4.63202,0,0,0,0,0,0,0,-1,1028,512,-1.14934,4.632
-189,512,0.197998,4.55505,0,0,0,0,0,0,0,-1,1035,512,0.197996,-4.55506
-182,512,2.73938,0.0778503,0,0,0,0,0,0,0,-1,1042,512,2.73944,-0.077852
-175,512,2.29565,0.209808,0,0,0,0,0,0,0,-1,1049,512,2.29565,-0.209813
-168,512,2.09399,-0.302856,0,0,0,0,0,0,0,-1,1056,512,2.09403,0.302826
-161,512,2.76636,0.0921021,0,0,0,0,0,0,0,-1,1063,512,2.76633,-0.0921104
-154,512,3.41382,0.466187,0,0,0,0,0,0,0,-1,1070,512,3.41382,-0.466178
-147,512,0,0,0,0,0,0,0,0,0,-1,1077,512,0,0
-140,512,0,0,0,0,0,0,0,0,0,-1,1084,512,0,0
-133,512,0,0,0,0,0,0,0,0,0,-1,1091,512,0,0
-126,512,0,0,0,0,0,0,0,0,0,-1,1098,512,0,0
-119,512,0,0,0,0,0,0,0,0,0,-1,1105,512,0,0
-112,512,0,0,0,0,0,0,0,0,0,-1,1112,512,0,0
-105,512,0,0,0,0,0,0,0,0,0,-1,1119,512,0,0
-98,512,0,0,0,0,0,0,0,0,0,-1,1126,512,0,0
-91,512,0,0,0,0,0,0,0,0,0,-1,1133,512,0,0
-84,512,0,0,0,0,0,0,0,0,0,-1,1140,512,0,0
-77,512,0,0,0,0,0,0,0,0,0,-1,1147,512,0,0
-70,512,0,0,0,0,0,0,0,0,0,-1,1154,512,0,0
-63,512,0,0,0,0,0,0,0,0,0,-1,1161,512,0,0
-56,512,0,0,0,0,0,0,0,0,0,-1,1168,512,0,0
-49,512,0,0,0,0,0,0,0,0,0,-1,1175,512,0,0
-42,512,0,0,0,0,0,0,0,0,0,-1,1182,512,0,0
-35,512,0,0,0,0,0,0,0,0,0,-1,1189,512,0,0
-28,512,0,0,0,0,0,0,0,0,0,-1,1196,512,0,0
-21,512,0,0,0,0,0,0,0,0,0,-1,1203,512,0,0
-14,512,0,0,0,0,0,0,0,0,0,-1,1210,512,0,0
-7,512,0,0,0,0,0,0,0,0,0,-1,1217,512,0,0
0,512,0,0,0,0,0,0,0,0,0,-1,1224,512,0,0
7,512,0,0,0,0,0,0,0,0,0,-1,1231,512,0,0
14,512,0,0,0,0,0,0,0,0,0,-1,1238,512,0,0
21,512,0,0,0,0,0,0,0,0,0,-1,1245,512,0,0
28,512,0,0,0,0,0,0,0,0,0,-1,1252,512,0,0
35,512,0,0,0,0,0,0,0,0,0,-1,1259,512,0,0
42,512,0,0,0,0,0,0,0,0,0,-1,1266,512,0,0
49,512,0,0,0,0,0,0,0,0,0,-1,1273,512,0,0
56,512,0,0,0,0,0,0,0,0,0,-1,1280,512,0,0
63,512,0,0,0,0,0,0,0,0,0,-1,1287,512,0,0
70,512,0,0,0,0,0,0,0,0,0,-1,1294,512,0,0
77,512,0,0,0,0,0,0,0,0,0,-1,1301,512,0,0
84,512,0,0,0,0,0,0,0,0,0,-1,1308,512,0,0
91,512,0,0,0,0,0,0,0,0,0,-1,1315,512,0,0
98,512,0,0,0,0,0,0,0,0,0,-1,1322,512,0,0
105,512,0,0,0,0,0,0,0,0,0,-1,1329,512,0,0
112,512,0,0,0,0,0,0,0,0,0,-1,1336,512,0,0
119,512,0,0,0,0,0,0,0,0,0,-1,1343,512,0,0
126,512,0,0,0,0,0,0,0,0,0,-1,1350,512,0,0
133,512,0,0,0,0,0,0,0,0,0,-1,1357,512,0,0
140,512,0,0,0,0,0,0,0,0,0,-1,1364,512,0,0
147,512,0,0,0,0,0,0,0,0,0,-1,1371,512,0,0
154,512,0,0,0,0,0,0,0,0,0,-1,1378,512,0,0
161,512,0,0,0,0,0,0,0,0,0,-1,1385,512,0,0
168,512,0,0,0,0,0,0,0,0,0,-1,1392,512,0,0
175,512,0,0,0,0,0,0,0,0,0,-1,1399,512,0,0
182,512,0,0,0,0,0,0,0,0,0,-1,1406,512,0,0
189,512,0,0,0,0,0,0,0,0,0,-1,1413,512,0,0
196,512,0,0,0,0,0,0,0,0,0,-1,1420,512,0,0
203,512,0,0,0,0,0,0,0,0,0,-1,1427,512,0,0
210,512,0,0,0,0,0,0,0,0,0,-1,1434,512,0,0
217,512,0,0,0,0,0,0,0,0,0,-1,1441,512,0,0
224,512,0,0,0,0,0,0,0,0,0,-1,1448,512,0,0
231,512,0,0,0,0,0,0,0,0,0,-1,1455,512,0,0
238,512,0,0,0,0,0,0,0,0,0,-1,1462,512,0,0
245,512,0,0,0,0,0,0,0,0,0,-1,1469,512,0,0
252,512,0,0,0,0,0,0,0,0,0,-1,1476,512,0,0
259,512,0,0,0,0,0,0,0,0,0,-1,1483,512,0,0
266,512,0,0,0,0,0,0,0,0,0,-1,1490,512,0,0
273,512,4.00745,0.618622,0,0,0,0,0,0,0,-1,1497,512,4.00747,-0.618611
280,512,4.49609,0.649841,0,0,0,0,0,0,0,-1,1504,512,4.49612,-0.649834
287,512,4.77234,0.458069,0,0,0,0,0,0,0,-1,1511,512,4.77233,-0.458083
294,512,8.54956,-2.36273,0,0,0,0,0,0,0,-1,1518,512,8.54952,2.36274
301,512,6.302,-1.69092,0,0,0,0,0,0,0,-1,1525,512,6.30196,1.69093
308,512,8.2439,-6.22754,0,0,0,0,0,0,0,-1,1532,512,8.24394,6.22757
315,512,7.53687,-6.04211,0,0,0,0,0,0,0,-1,1539,512,7.53691,6.04211
322,512,6.82983,-5.85663,0,0,0,0,0,0,0,-1,1546,512,6.82988,5.85666
329,512,4.38147,-0.329651,0,0,0,0,0,0,0,-1,1553,512,4.38144,0.329662
336,512,4.41467,-0.741455,0,0,0,0,0,0,0,-1,1560,512,4.41467,0.741442
343,512,4.44727,-1.21667,0,0,0,0,0,0,0,-1,1567,512,4.44732,1.21666
350,512,4.55469,-1.65082,0,0,0,0,0,0,0,-1,1574,512,4.5547,1.65083
357,512,5.79993,-2.67456,0,0,0,0,0,0,0,-1,1581,512,5.79991,2.67454
364,512,5.18298,-6.80133,0,0,0,0,0,0,0,-1,1588,512,5.18296,6.80132
371,512,5.28467,-7.69269,0,0,0,0,0,0,0,-1,1595,512,5.28464,7.69269
378,512,6.29407,-9.88055,0,0,0,0,0,0,0,-1,1602,512,6.29412,9.88057
385,512,6.45569,-9.32233,0,0,0,0,0,0,0,-1,1609,512,6.45565,9.3223
392,512,6.35522,-8.98425,0,0,0,0,0,0,0,-1,1616,512,6.35526,8.98422
399,512,7.08167,-10.4414,0,0,0,0,0,0,0,-1,1623,512,7.08166,10.4414
406,512,6.9762,-10.7101,0,0,0,0,0,0,0,-1,1630,512,6.97614,10.7101
413,512,6.85962,-10.342,-0.00297855,-0.00146519,-0.00380184,0.00165454,-0.00609828,-0.883629,0.00471482,0.0431237,1637,512,6.85964,10.3421
420,512,6.95142,-9.9967,-0.00224303,-0.00142956,-0.00329178,0.00148052,-0.00515311,-0.846867,0.00402082,0.0205605,1644,512,6.95147,9.99672
427,512,6.94678,-9.68311,-0.00171773,-0.00142702,-0.0028209,0.00125226,-0.00439702,-0.811139,0.00342592,0.0152648,1651,512,6.94681,9.68312
434,512,6.93359,-9.38763,-0.00141774,-0.00117796,-0.00221758,0.000922967,-0.00351867,-0.812403,0.00270641,0.0115149,1658,512,6.9336,9.3876
441,512,6.90356,-9.08917,-0.00108471,-0.000922397,-0.00164149,0.000639938,-0.00264704,-0.810098,0.00201222,0.0127227,1665,512,6.90356,9.08917
448,512,6.89246,-8.81061,-0.00075904,-0.000664457,-0.00104486,0.00033418,-0.00175768,-0.808013,0.0012976,0.00957403,1672,512,6.89244,8.8106
455,512,6.89282,-8.50684,-0.000464605,-0.000300088,-0.000448084,7.32253e-05,-0.000837919,-0.876177,0.000584552,0.00897889,1679,512,6.89278,8.50683
462,512,6.90198,-8.18756,-0.000133961,-9.93451e-05,4.74754e-05,-6.6121e-05,-0.000167185,0.960193,9.72244e-05,0.00919943,1686,512,6.90195,8.18754
469,512,6.8927,-7.88904,0.000109639,2.05409e-05,0.000489065,0.000556179,-0.000426,0.739978,0.000568719,0.010483,1693,512,6.89275,7.88902
476,512,6.89368,-7.58679,0.000125727,5.02245e-05,0.000808365,0.000897222,-0.00072127,0.762065,0.000936276,0.0138431,1700,512,6.8937,7.58678
483,512,6.90991,-7.25403,9.83599e-05,-3.77573e-05,0.000976504,0.00100917,-0.000948571,0.750606,0.00113049,0.0133297,1707,512,6.90993,7.25402
490,512,6.91296,-6.92206,-0.000127738,-0.000405645,0.0010635,0.000805853,-0.00133924,0.720438,0.00125116,0.0104002,1714,512,6.913,6.92205
497,512,6.90161,-6.59351,-0.000579845,-0.000791114,0.00106696,0.000386695,-0.00175765,0.736056,0.00131969,0.0115301,1721,512,6.90167,6.59352
504,512,6.87585,-6.24994,-0.00111871,-0.00126056,0.000939545,-0.000247421,-0.00213186,0.747725,0.00134636,0.0125023,1728,512,6.87582,6.24994
511,512,6.85864,-5.91571,-0.00184001,-0.00174242,0.000715342,-0.00107421,-0.00250822,0.81945,0.00145308,0.013093,1735,512,6.8586,5.91568
518,512,6.89722,-5.6048,-0.00276899,-0.00221614,0.000494733,-0.00192584,-0.00305928,1.04016,0.00178592,0.0208782,1742,512,6.89723,5.60477
525,512,6.53064,-5.1853,0,0,0,0,0,0,0,-1,1749,512,6.53058,5.18532
532,512,5.73535,-4.92993,0,0,0,0,0,0,0,-1,1756,512,5.73534,4.92994
539,512,4.39929,-3.11737,0,0,0,0,0,0,0,-1,1763,512,4.3993,3.11735
546,512,2.77551,-0.66449,0,0,0,0,0,0,0,-1,1770,512,2.77548,0.664503
553,512,3.927,-0.448853,0,0,0,0,0,0,0,-1,1777,512,3.92704,0.448843
560,512,3.55762,-0.201233,0,0,0,0,0,0,0,-1,1784,512,3.55768,0.201259
567,512,3.09045,0.191193,0,0,0,0,0,0,0,-1,1791,512,3.09045,-0.191203
574,512,0,0,0,0,0,0,0,0,0,-1,1798,512,0,0
581,512,0,0,0,0,0,0,0,0,0,-1,1805,512,0,0
588,512,0,0,0,0,0,0,0,0,0,-1,1812,512,0,0
595,512,0,0,0,0,0,0,0,0,0,-1,1819,512,0,0
602,512,0,0,0,0,0,0,0,0,0,-1,1826,512,0,0
609,512,0,0,0,0,0,0,0,0,0,-1,1833,512,0,0
616,512,0,0,0,0,0,0,0,0,0,-1,1840,512,0,0
623,512,0,0,0,0,0,0,0,0,0,-1,1847,512,0,0
630,512,0,0,0,0,0,0,0,0,0,-1,1854,512,0,0
637,512,0,0,0,0,0,0,0,0,0,-1,1861,512,0,0
644,512,0,0,0,0,0,0,0,0,0,-1,1868,512,0,0
651,512,0,0,0,0,0,0,0,0,0,-1,1875,512,0,0
658,512,0,0,0,0,0,0,0,0,0,-1,1882,512,0,0
665,512,0,0,0,0,0,0,0,0,0,-1,1889,512,0,0
672,512,0,0,0,0,0,0,0,0,0,-1,1896,512,0,0
679,512,0,0,0,0,0,0,0,0,0,-1,1903,512,0,0
686,512,0,0,0,0,0,0,0,0,0,-1,1910,512,0,0
693,512,0,0,0,0,0,0,0,0,0,-1,1917,512,0,0
700,512,0,0,0,0,0,0,0,0,0,-1,1924,512,0,0
707,512,0,0,0,0,0,0,0,0,0,-1,1931,512,0,0
714,512,0,0,0,0,0,0,0,0,0,-1,1938,512,0,0
721,512,0,0,0,0,0,0,0,0,0,-1,1945,512,0,0
728,512,0,0,0,0,0,0,0,0,0,-1,1952,512,0,0
735,512,0,0,0,0,0,0,0,0,0,-1,1959,512,0,0
742,512,0,0,0,0,0,0,0,0,0,-1,1966,512,0,0
749,512,0,0,0,0,0,0,0,0,0,-1,1973,512,0,0
756,512,0,0,0,0,0,0,0,0,0,-1,1980,512,0,0
763,512,0,0,0,0,0,0,0,0,0,-1,1987,512,0,0
770,512,0,0,0,0,0,0,0,0,0,-1,1994,512,0,0
777,512,0,0,0,0,0,0,0,0,0,-1,2001,512,0,0
784,512,0,0,0,0,0,0,0,0,0,-1,2008,512,0,0
791,512,0,0,0,0,0,0,0,0,0,-1,2015,512,0,0
798,512,0,0,0,0,0,0,0,0,0,-1,2022,512,0,0
805,512,0,0,0,0,0,0,0,0,0,-1,2029,512,0,0
812,512,0,0,0,0,0,0,0,0,0,-1,2036,512,0,0
-700,505,0,0,0,0,0,0,0,0,0,-1,524,519,0,0
-693,505,0,0,0,0,0,0,0,0,0,-1,531,519,0,0
-686,505,0,0,0,0,0,0,0,0,0,-1,538,519,0,0
-679,505,0,0,0,0,0,0,0,0,0,-1,545,519,0,0
-672,505,0,0,0,0,0,0,0,0,0,-1,552,519,0,0
-665,505,0,0,0,0,0,0,0,0,0,-1,559,519,0,0
-658,505,0,0,0,0,0,0,0,0,0,-1,566,519,0,0
-651,505,0,0,0,0,0,0,0,0,0,-1,573,519,0,0
-644,505,0,0,0,0,0,0,0,0,0,-1,580,519,0,0
-637,505,0,0,0,0,0,0,0,0,0,-1,587,519,0,0
-630,505,0,0,0,0,0,0,0,0,0,-1,594,519,0,0
-623,505,0,0,0,0,0,0,0,0,0,-1,601,519,0,0
-616,505,0,0,0,0,0,0,0,0,0,-1,608,519,0,0
-609,505,0,0,0,0,0,0,0,0,0,-1,615,519,0,0
-602,505,0,0,0,0,0,0,0,0,0,-1,622,519,0,0
-595,505,0,0,0,0,0,0,0,0,0,-1,629,519,0,0
-588,505,0,0,0,0,0,0,0,0,0,-1,636,519,0,0
-581,505,0,0,0,0,0,0,0,0,0,-1,643,519,0,0
-574,505,0,0,0,0,0,0,0,0,0,-1,650,519,0,0
-567,505,0,0,0,0,0,0,0,0,0,-1,657,519,0,0
-560,505,0,0,0,0,0,0,0,0,0,-1,664,519,0,0
-553,505,0,0,0,0,0,0,0,0,0,-1,671,519,0,0
-546,505,0,0,0,0,0,0,0,0,0,-1,678,519,0,0
-539,505,0,0,0,0,0,0,0,0,0,-1,685,519,0,0
-532,505,0,0,0,0,0,0,0,0,0,-1,692,519,0,0
-525,505,0,0,0,0,0,0,0,0,0,-1,699,519,0,0
-518,505,0,0,0,0,0,0,0,0,0,-1,706,519,0,0
-511,505,0,0,0,0,0,0,0,0,0,-1,713,519,0,0
-504,505,0,0,0,0,0,0,0,0,0,-1,720,519,0,0
-497,505,0,0,0,0,0,0,0,0,0,-1,727,519,0,0
-490,505,0,0,0,0,0,0,0,0,0,-1,734,519,0,0
-483,505,0,0,0,0,0,0,0,0,0,-1,741,519,0,0
-476,505,0,0,0,0,0,0,0,0,0,-1,748,519,0,0
-469,505,0,0,0,0,0,0,0,0,0,-1,755,519,0,0
-462,505,0,0,0,0,0,0,0,0,0,-1,762,519,0,0
-455,505,2.72137,-3.26379,0,0,0,0,0,0,0,-1,769,519,2.72135,3.26377
-448,505,2.51111,-3.94989,0,0,0,0,0,0,0,-1,776,519,2.51112,3.94986
-441,505,2.80212,-6.8902,0,0,0,0,0,0,0,-1,783,519,2.80209,6.89019
-434,505,1.74475,-7.23358,-0.0598047,0.00666534,-0.0559571,0.0385131,-0.0916525,-1.05337,0.0772104,0.0497357,790,519,1.74474,7.23358
-427,505,0.761292,-7.4801,-0.0445847,0.00500015,-0.0447319,0.0313507,-0.0709352,-1.03845,0.0605109,0.0479488,797,519,0.761287,7.48008
-420,505,-0.11438,-7.49133,0,0,0,0,0,0,0,-1,804,519,-0.114381,7.49132
-413,505,-0.37738,-7.4494,0,0,0,0,0,0,0,-1,811,519,-0.377355,7.4494
-406,505,-0.681885,-6.35339,0,0,0,0,0,0,0,-1,818,519,-0.681901,6.35338
-399,505,-0.513428,-6.66766,-0.00862509,0.000639238,-0.014104,0.0108523,-0.0188381,-0.944063,0.0173472,0.0448944,825,519,-0.513441,6.66765
-392,505,-0.636658,-7.10724,-0.0050188,0.000321392,-0.00994454,0.00794806,-0.0126455,-0.916554,0.0119923,0.0225911,832,519,-0.636641,7.10722
-385,505,-0.714294,-7.50171,-0.00271228,0.00014899,-0.00688757,0.00575294,-0.00831623,-0.887798,0.00816765,0.00986944,839,519,-0.714319,7.50169
-378,505,-0.748291,-7.82556,-0.000384129,0.000295125,-0.00413864,0.00410805,-0.00419705,-0.826338,0.00479504,0.0110594,846,519,-0.748321,7.82559
-371,505,-0.746399,-8.16132,0.000868569,-0.000826926,-0.00213331,0.00231641,-0.00227476,-0.596273,0.00265075,0.0137597,853,519,-0.746418,8.16134
-364,505,-0.748657,-8.44971,0.000839831,-0.00097768,-0.00152798,0.00170887,-0.00184672,-0.517126,0.00205334,0.0141653,860,519,-0.748637,8.44969
-357,505,-0.725281,-8.71906,0.000756353,-0.00107319,-0.000956726,0.00116526,-0.0014821,-0.403906,0.0015321,0.0118294,867,519,-0.725293,8.71903
-350,505,-0.743896,-9.01385,0.000963569,-0.00135848,-0.000612837,0.00111538,-0.00151029,-0.242836,0.00152164,0.0112261,874,519,-0.743889,9.01385
-343,505,-0.755615,-9.31525,0.0013217,-0.00140326,-0.00040794,0.00138146,-0.00146302,-0.145458,0.00164249,0.00902131,881,519,-0.755635,9.31528
-336,505,-0.759094,-9.59204,0.00168681,-0.00165257,-0.000274984,0.0017093,-0.00167507,-0.0816132,0.001954,0.0110305,888,519,-0.759074,9.59202
-329,505,-0.773193,-9.84937,0.0020899,-0.00182206,-0.000234028,0.00210385,-0.00183601,-0.0595409,0.00227643,0.0138223,895,519,-0.773188,9.84938
-322,505,-0.790588,-10.1336,0.00250955,-0.00181674,-0.000283918,0.0025281,-0.00183529,-0.0652533,0.00252977,0.0144976,902,519,-0.790589,10.1336
-315,505,-0.776428,-10.4346,0.00300282,-0.00172965,-0.000281827,0.00301954,-0.00174638,-0.0592725,0.00278414,0.0125136,909,519,-0.776439,10.4346
-308,505,-0.763916,-10.7095,0.00359414,-0.00184273,-0.000131058,0.0035973,-0.00184588,-0.0240868,0.00319639,0.0119056,916,519,-0.763933,10.7095
-301,505,-0.73291,-10.9868,0.00405347,-0.00195139,5.81831e-05,0.00405404,-0.00195195,0.00968812,0.00353764,0.0176652,923,519,-0.732889,10.9868
-294,505,-0.731323,-11.2267,0,0,0,0,0,0,0,-1,930,519,-0.731341,11.2267
-287,505,-0.79071,-11.5239,0,0,0,0,0,0,0,-1,937,519,-0.790718,11.5239
-280,505,-0.696411,-11.9553,0,0,0,0,0,0,0,-1,944,519,-0.696403,11.9553
-273,505,-0.0680542,-9.44867,0,0,0,0,0,0,0,-1,951,519,-0.0680462,9.44866
-266,505,-0.036377,-9.07922,0,0,0,0,0,0,0,-1,958,519,-0.0364055,9.0792
-259,505,0.10321,-6.69824,0,0,0,0,0,0,0,-1,965,519,0.103235,6.69826
-252,505,6.82312,-15.6972,0,0,0,0,0,0,0,-1,972,519,6.82314,15.6972
-245,505,4.26727,-12.9861,0,0,0,0,0,0,0,-1,979,519,4.2673,12.9861
-238,505,1.67432,-11.2307,0,0,0,0,0,0,0,-1,986,519,1.67429,11.2307
-231,505,-0.958435,-8.3075,0,0,0,0,0,0,0,-1,993,519,-0.958421,8.30751
-224,505,-3.69653,-5.12732,0,0,0,0,0,0,0,-1,1000,519,-3.69653,5.12733
-217,505,-6.34302,-1.65533,0,0,0,0,0,0,0,-1,1007,519,-6.34299,1.65535
-210,505,-3.06128,-0.396301,0,0,0,0,0,0,0,-1,1014,519,-3.06129,0.396294
-203,505,-4.26465,2.03607,0,0,0,0,0,0,0,-1,1021,519,-4.26462,-2.03606
-196,505,-5.47595,4.27295,0,0,0,0,0,0,0,-1,1028,519,-5.47597,-4.27292
-189,505,1.51526,5.56207,0,0,0,0,0,0,0,-1,1035,519,1.51523,-5.56209
-182,505,2.97815,7.5097,0,0,0,0,0,0,0,-1,1042,519,2.97812,-7.5097
-175,505,-2.38416,-2.17548,0,0,0,0,0,0,0,-1,1049,519,-2.38411,2.1755
-168,505,0,0,0,0,0,0,0,0,0,-1,1056,519,0,0
-161,505,0,0,0,0,0,0,0,0,0,-1,1063,519,0,0
-154,505,0,0,0,0,0,0,0,0,0,-1,1070,519,0,0
-147,505,0,0,0,0,0,0,0,0,0,-1,1077,519,0,0
-140,505,0,0,0,0,0,0,0,0,0,-1,1084,519,0,0
-133,505,0,0,0,0,0,0,0,0,0,-1,1091,519,0,0
-126,505,0,0,0,0,0,0,0,0,0,-1,1098,519,0,0
-119,505,0,0,0,0,0,0,0,0,0,-1,1105,519,0,0
-112,505,0,0,0,0,0,0,0,0,0,-1,1112,519,0,0
-105,505,0,0,0,0,0,0,0,0,0,-1,1119,519,0,0
-98,505,0,0,0,0,0,0,0,0,0,-1,1126,519,0,0
-91,505,0,0,0,0,0,0,0,0,0,-1,1133,519,0,0
-84,505,0,0,0,0,0,0,0,0,0,-1,1140,519,0,0
-77,505,0,0,0,0,0,0,0,0,0,-1,1147,519,0,0
-70,505,0,0,0,0,0,0,0,0,0,-1,1154,519,0,0
-63,505,0,0,0,0,0,0,0,0,0,-1,1161,519,0,0
-56,505,0,0,0,0,0,0,0,0,0,-1,1168,519,0,0
-49,505,0,0,0,0,0,0,0,0,0,-1,1175,519,0,0
-42,505,0,0,0,0,0,0,0,0,0,-1,1182,519,0,0
-35,505,0,0,0,0,0,0,0,0,0,-1,1189,519,0,0
-28,505,0,0,0,0,0,0,0,0,0,-1,1196,519,0,0
-21,505,0,0,0,0,0,0,0,0,0,-1,1203,519,0,0
-14,505,0,0,0,0,0,0,0,0,0,-1,1210,519,0,0
-7,505,0,0,0,0,0,0,0,0,0,-1,1217,519,0,0
0,505,0,0,0,0,0,0,0,0,0,-1,1224,519,0,0
7,505,0,0,0,0,0,0,0,0,0,-1,1231,519,0,0
14,505,0,0,0,0,0,0,0,0,0,-1,1238,519,0,0
21,505,0,0,0,0,0,0,0,0,0,-1,1245,519,0,0
28,505,0,0,0,0,0,0,0,0,0,-1,1252,519,0,0
35,505,0,0,0,0,0,0,0,0,0,-1,1259,519,0,0
42,505,0,0,0,0,0,0,0,0,0,-1,1266,519,0,0
49,505,0,0,0,0,0,0,0,0,0,-1,1273,519,0,0
56,505,0,0,0,0,0,0,0,0,0,-1,1280,519,0,0
63,505,0,0,0,0,0,0,0,0,0,-1,1287,519,0,0
70,505,0,0,0,0,0,0,0,0,0,-1,1294,519,0,0
77,505,0,0,0,0,0,0,0,0,0,-1,1301,519,0,0
84,505,0,0,0,0,0,0,0,0,0,-1,1308,519,0,0
91,505,0,0,0,0,0,0,0,0,0,-1,1315,519,0,0
98,505,0,0,0,0,0,0,0,0,0,-1,1322,519,0,0
105,505,0,0,0,0,0,0,0,0,0,-1,1329,519,0,0
112,505,0,0,0,0,0,0,0,0,0,-1,1336,519,0,0
119,505,0,0,0,0,0,0,0,0,0,-1,1343,519,0,0
126,505,0,0,0,0,0,0,0,0,0,-1,1350,519,0,0
133,505,0,0,0,0,0,0,0,0,0,-1,1357,519,0,0
140,505,0,0,0,0,0,0,0,0,0,-1,1364,519,0,0
147,505,0,0,0,0,0,0,0,0,0,-1,1371,519,0,0
154,505,0,0,0,0,0,0,0,0,0,-1,1378,519,0,0
161,505,0,0,0,0,0,0,0,0,0,-1,1385,519,0,0
168,505,0,0,0,0,0,0,0,0,0,-1,1392,519,0,0
175,505,0,0,0,0,0,0,0,0,0,-1,1399,519,0,0
182,505,0,0,0,0,0,0,0,0,0,-1,1406,519,0,0
189,505,0,0,0,0,0,0,0,0,0,-1,1413,519,0,0
196,505,0,0,0,0,0,0,0,0,0,-1,1420,519,0,0
203,505,0,0,0,0,0,0,0,0,0,-1,1427,519,0,0
210,505,0,0,0,0,0,0,0,0,0,-1,1434,519,0,0
217,505,0,0,0,0,0,0,0,0,0,-1,1441,519,0,0
224,505,0,0,0,0,0,0,0,0,0,-1,1448,519,0,0
231,505,0,0,0,0,0,0,0,0,0,-1,1455,519,0,0
238,505,0,0,0,0,0,0,0,0,0,-1,1462,519,0,0
245,505,0,0,0,0,0,0,0,0,0,-1,1469,519,0,0
252,505,0,0,0,0,0,0,0,0,0,-1,1476,519,0,0
259,505,0,0,0,0,0,0,0,0,0,-1,1483,519,0,0
266,505,0,0,0,0,0,0,0,0,0,-1,1490,519,0,0
273,505,0,0,0,0,0,0,0,0,0,-1,1497,519,0,0
280,505,0,0,0,0,0,0,0,0,0,-1,1504,519,0,0
287,505,4.39478,0.499512,0,0,0,0,0,0,0,-1,1511,519,4.39476,-0.499506
294,505,4.88867,0.0822754,0,0,0,0,0,0,0,-1,1518,519,4.88871,-0.0822748
301,505,4.82153,-0.0704346,0,0,0,0,0,0,0,-1,1525,519,4.82156,0.0704312
308,505,4.67761,-0.29187,0,0,0,0,0,0,0,-1,1532,519,4.67762,0.291845
315,505,8.44055,-6.54352,0,0,0,0,0,0,0,-1,1539,519,8.44059,6.54349
322,505,4.78955,-0.594116,0,0,0,0,0,0,0,-1,1546,519,4.78957,0.594096
329,505,5.16321,0.434631,0,0,0,0,0,0,0,-1,1553,519,5.16316,-0.434614
336,505,4.94495,-0.920471,0,0,0,0,0,0,0,-1,1560,519,4.945,0.920495
343,505,5.01855,-1.4823,0,0,0,0,0,0,0,-1,1567,519,5.01851,1.48227
350,505,5.33154,-1.77838,0,0,0,0,0,0,0,-1,1574,519,5.33152,1.77838
357,505,5.56567,-1.9425,0,0,0,0,0,0,0,-1,1581,519,5.56562,1.94248
364,505,5.85205,-2.6579,0,0,0,0,0,0,0,-1,1588,519,5.85211,2.65788
371,505,5.88477,-7.00922,0,0,0,0,0,0,0,-1,1595,519,5.88473,7.00924
378,505,5.44104,-7.10162,0,0,0,0,0,0,0,-1,1602,519,5.44099,7.10162
385,505,6.64661,-8.65015,0,0,0,0,0,0,0,-1,1609,519,6.64662,8.65014
392,505,6.34558,-8.3429,0,0,0,0,0,0,0,-1,1616,519,6.34554,8.34288
399,505,7.45898,-9.70386,0,0,0,0,0,0,0,-1,1623,519,7.45899,9.70388
406,505,7.08679,-9.4928,0,0,0,0,0,0,0,-1,1630,519,7.08678,9.49278
413,505,7.08337,-10.4421,0,0,0,0,0,0,0,-1,1637,519,7.08333,10.4421
420,505,7.28857,-10.0717,-0.00355448,-0.00236183,-0.00453151,0.00161242,-0.00752873,-0.85082,0.00563407,0.0479312,1644,519,7.28858,10.0717
427,505,7.23804,-9.70892,-0.00285664,-0.0024215,-0.00391672,0.00128369,-0.00656182,-0.813144,0.0048593,0.0164507,1651,519,7.23803,9.70895
434,505,7.21924,-9.383,-0.00229396,-0.0019781,-0.00315471,0.00102263,-0.00529469,-0.810408,0.00391544,0.0100648,1658,519,7.2193,9.38298
441,505,7.22363,-9.07617,-0.00169726,-0.00163728,-0.00248209,0.000815002,-0.00414954,-0.79144,0.00307425,0.0100038,1665,519,7.22365,9.07616
448,505,7.224,-8.7804,-0.00111259,-0.00123211,-0.00177748,0.000606139,-0.00295084,-0.768594,0.00219732,0.0104324,1672,519,7.22394,8.78039
455,505,7.21106,-8.47864,-0.00057823,-0.00073431,-0.00108868,0.000435203,-0.00174774,-0.749618,0.0013341,0.0107237,1679,519,7.21105,8.47863
462,505,7.19556,-8.17212,-6.01735e-05,-0.000401066,-0.00053135,0.000327399,-0.000788638,-0.630193,0.000662433,0.0108208,1686,519,7.1956,8.17211
469,505,7.1875,-7.8772,0.000299717,-0.000171915,-5.77493e-05,0.000306686,-0.000178883,-0.120082,0.000283561,0.0110579,1693,519,7.18745,7.87718
476,505,7.19812,-7.58105,0.000442383,-4.51249e-05,0.000298431,0.000583956,-0.000186698,0.442952,0.000464224,0.0117391,1700,519,7.19812,7.58108
483,505,7.22217,-7.26447,0.000509625,-3.78403e-06,0.000518919,0.000831863,-0.000326022,0.555703,0.000689441,0.0127528,1707,519,7.22221,7.26447
490,505,7.22754,-6.92865,0.000327671,-0.000203432,0.000647661,0.000762107,-0.000637868,0.590843,0.000809336,0.0118242,1714,519,7.22748,6.92862
497,505,7.21545,-6.5976,-0.00015512,-0.000498517,0.000643162,0.000338867,-0.000992505,0.65496,0.00079895,0.0117221,1721,519,7.21547,6.59758
504,505,7.18323,-6.25958,-0.000761891,-0.000840742,0.000512419,-0.000287383,-0.00131525,0.747004,0.000798468,0.0121519,1728,519,7.18319,6.25961
511,505,7.18176,-5.95355,-0.00159347,-0.00116854,0.000289382,-0.00102201,-0.00174001,1.10205,0.00100969,0.0134029,1735,519,7.18176,5.95353
518,505,7.24622,-5.64404,-0.00266483,-0.0014998,2.53017e-05,-0.00149925,-0.00266538,1.54909,0.00154286,0.0241942,1742,519,7.24616,5.64406
525,505,6.93311,-5.34216,-0.00393966,-0.00174542,-0.000305076,-0.0017038,-0.00398128,-1.43519,0.00230654,0.0385144,1749,519,6.93305,5.34216
532,505,6.8158,-4.80988,0,0,0,0,0,0,0,-1,1756,519,6.81575,4.80987
539,505,6.5022,-5.04047,0,0,0,0,0,0,0,-1,1763,519,6.50225,5.04046
546,505,4.69727,-1.47705,0,0,0,0,0,0,0,-1,1770,519,4.69723,1.47703
553,505,2.82837,0.162659,0,0,0,0,0,0,0,-1,1777,519,2.82841,-0.162672
560,505,3.66223,-0.479797,0,0,0,0,0,0,0,-1,1784,519,3.66219,0.47982
567,505,4.65271,-0.950256,0,0,0,0,0,0,0,-1,1791,519,4.65274,0.95028
574,505,5.54443,-1.19977,0,0,0,0,0,0,0,-1,1798,519,5.54443,1.19974
581,505,0,0,0,0,0,0,0,0,0,-1,1805,519,0,0
588,505,0,0,0,0,0,0,0,0,0,-1,1812,519,0,0
595,505,0,0,0,0,0,0,0,0,0,-1,1819,519,0,0
602,505,0,0,0,0,0,0,0,0,0,-1,1826,519,0,0
609,505,0,0,0,0,0,0,0,0,0,-1,1833,519,0,0
616,505,0,0,0,0,0,0,0,0,0,-1,1840,519,0,0
623,505,0,0,0,0,0,0,0,0,0,-1,1847,519,0,0
630,505,0,0,0,0,0,0,0,0,0,-1,1854,519,0,0
637,505,0,0,0,0,0,0,0,0,0,-1,1861,519,0,0
644,505,0,0,0,0,0,0,0,0,0,-1,1868,519,0,0
651,505,0,0,0,0,0,0,0,0,0,-1,1875,519,0,0
658,505,0,0,0,0,0,0,0,0,0,-1,1882,519,0,0
665,505,0,0,0,0,0,0,0,0,0,-1,1889,519,0,0
672,505,0,0,0,0,0,0,0,0,0,-1,1896,519,0,0
679,505,0,0,0,0,0,0,0,0,0,-1,1903,519,0,0
686,505,0,0,0,0,0,0,0,0,0,-1,1910,519,0,0
693,505,0,0,0,0,0,0,0,0,0,-1,1917,519,0,0
700,505,0,0,0,0,0,0,0,0,0,-1,1924,519,0,0
707,505,0,0,0,0,0,0,0,0,0,-1,1931,519,0,0
714,505,0,0,0,0,0,0,0,0,0,-1,1938,519,0,0
721,505,0,0,0,0,0,0,0,0,0,-1,1945,519,0,0
728,505,0,0,0,0,0,0,0,0,0,-1,1952,519,0,0
735,505,0,0,0,0,0,0,0,0,0,-1,1959,519,0,0
742,505,0,0,0,0,0,0,0,0,0,-1,1966,519,0,0
749,505,0,0,0,0,0,0,0,0,0,-1,1973,519,0,0
756,505,0,0,0,0,0,0,0,0,0,-1,1980,519,0,0
763,505,0,0,0,0,0,0,0,0,0,-1,1987,519,0,0
770,505,0,0,0,0,0,0,0,0,0,-1,1994,519,0,0
777,505,0,0,0,0,0,0,0,0,0,-1,2001,519,0,0
784,505,0,0,0,0,0,0,0,0,0,-1,2008,519,0,0
791,505,0,0,0,0,0,0,0,0,0,-1,2015,519,0,0
798,505,0,0,0,0,0,0,0,0,0,-1,2022,519,0,0
805,505,0,0,0,0,0,0,0,0,0,-1,2029,519,0,0
812,505,0,0,0,0,0,0,0,0,0,-1,2036,519,0,0
-700,498,0,0,0,0,0,0,0,0,0,-1,524,526,0,0
-693,498,0,0,0,0,0,0,0,0,0,-1,531,526,0,0
-686,498,0,0,0,0,0,0,0,0,0,-1,538,526,0,0
-679,498,0,0,0,0,0,0,0,0,0,-1,545,526,0,0
-672,498,0,0,0,0,0,0,0,0,0,-1,552,526,0,0
-665,498,0,0,0,0,0,0,0,0,0,-1,559,526,0,0
-658,498,0,0,0,0,0,0,0,0,0,-1,566,526,0,0
-651,498,0,0,0,0,0,0,0,0,0,-1,573,526,0,0
-644,498,0,0,0,0,0,0,0,0,0,-1,580,526,0,0
-637,498,0,0,0,0,0,0,0,0,0,-1,587,526,0,0
-630,498,0,0,0,0,0,0,0,0,0,-1,594,526,0,0
-623,498,0,0,0,0,0,0,0,0,0,-1,601,526,0,0
-616,498,0,0,0,0,0,0,0,0,0,-1,608,526,0,0
-609,498,0,0,0,0,0,0,0,0,0,-1,615,526,0,0
-602,498,0,0,0,0,0,0,0,0,0,-1,622,526,0,0
-595,498,0,0,0,0,0,0,0,0,0,-1,629,526,0,0
-588,498,0,0,0,0,0,0,0,0,0,-1,636,526,0,0
-581,498,0,0,0,0,0,0,0,0,0,-1,643,526,0,0
-574,498,0,0,0,0,0,0,0,0,0,-1,650,526,0,0
-567,498,0,0,0,0,0,0,0,0,0,-1,657,526,0,0
-560,498,0,0,0,0,0,0,0,0,0,-1,664,526,0,0
-553,498,0,0,0,0,0,0,0,0,0,-1,671,526,0,0
-546,498,0,0,0,0,0,0,0,0,0,-1,678,526,0,0
-539,498,0,0,0,0,0,0,0,0,0,-1,685,526,0,0
-532,498,0,0,0,0,0,0,0,0,0,-1,692,526,0,0
-525,498,0,0,0,0,0,0,0,0,0,-1,699,526,0,0
-518,498,0,0,0,0,0,0,0,0,0,-1,706,526,0,0
-511,498,0,0,0,0,0,0,0,0,0,-1,713,526,0,0
-504,498,0,0,0,0,0,0,0,0,0,-1,720,526,0,0
-497,498,0,0,0,0,0,0,0,0,0,-1,727,526,0,0
-490,498,0,0,0,0,0,0,0,0,0,-1,734,526,0,0
-483,498,0,0,0,0,0,0,0,0,0,-1,741,526,0,0
-476,498,0,0,0,0,0,0,0,0,0,-1,748,526,0,0
-469,498,0,0,0,0,0,0,0,0,0,-1,755,526,0,0
-462,498,6.81024,1.15515,0,0,0,0,0,0,0,-1,762,526,6.81026,-1.15514
-455,498,3.25757,-3.0592,0,0,0,0,0,0,0,-1,769,526,3.25754,3.05921
-448,498,3.05939,-3.74298,0,0,0,0,0,0,0,-1,776,526,3.05939,3.74296
-441,498,2.77191,-6.08209,0,0,0,0,0,0,0,-1,783,526,2.77189,6.08207
-434,498,2.10681,-6.95929,-0.0457313,0.00750631,-0.0455006,0.0336025,-0.0718275,-1.05006,0.0621893,0.0446921,790,526,2.10682,6.9593
-427,498,1.56458,-7.92676,-0.033994,0.00576819,-0.0361593,0.0271515,-0.0553774,-1.03675,0.0485681,0.0477468,797,526,1.56456,7.92674
-420,498,0.318115,-7.6297,0,0,0,0,0,0,0,-1,804,526,0.318136,7.62972
-413,498,-1.06561,-6.03723,0,0,0,0,0,0,0,-1,811,526,-1.06559,6.03725
-406,498,-0.998047,-6.43768,-0.0107656,0.00181069,-0.0156808,0.0124172,-0.0213721,-0.976086,0.0197353,0.0477661,818,526,-0.99804,6.43769
-399,498,-0.925049,-6.79242,-0.00663435,0.00115792,-0.0113439,0.00925609,-0.0147325,-0.950815,0.0139696,0.0258101,825,526,-0.925054,6.7924
-392,498,-0.989014,-7.1825,-0.00379168,0.000652248,-0.00806786,0.00679853,-0.00993796,-0.919772,0.00971932,0.0127154,832,526,-0.989043,7.18249
-385,498,-1.01929,-7.49841,-0.00187416,0.000266578,-0.00561595,0.00491326,-0.00652084,-0.879566,0.00662319,0.00850356,839,526,-1.0193,7.49844
-378,498,-1.03241,-7.80231,3.63092e-05,0.000185358,-0.00334408,0.00345575,-0.00323408,-0.796539,0.00386308,0.0112344,846,526,-1.03242,7.8023
-371,498,-1.00775,-8.11798,0.00115958,-0.000884548,-0.00172952,0.00214646,-0.00187142,-0.518527,0.00232153,0.0172752,853,526,-1.00773,8.11799
-364,498,-1.0246,-8.42505,0.00130841,-0.00125256,-0.00119234,0.00177759,-0.00172174,-0.374884,0.00202042,0.016108,860,526,-1.0246,8.42503
-357,498,-1.0368,-8.71466,0.00142134,-0.00155941,-0.000678997,0.00156872,-0.0017068,-0.213746,0.00189168,0.0108747,867,526,-1.03683,8.71467
-350,498,-1.04004,-9.00964,0.00175979,-0.00202192,-0.000359405,0.00179364,-0.00205578,-0.0939174,0.00222418,0.010566,874,526,-1.04005,9.00962
-343,498,-1.03467,-9.31104,0.00219634,-0.0023421,-0.000156237,0.00220172,-0.00234747,-0.034371,0.00262692,0.0108607,881,526,-1.03467,9.31103
-336,498,-1.02826,-9.60309,0.00262705,-0.00280081,-1.70614e-05,0.0026271,-0.00280086,-0.00314327,0.00313437,0.0137473,888,526,-1.02824,9.60307
-329,498,-1.05005,-9.85541,0.00314279,-0.00307005,-2.99425e-05,0.00314293,-0.0030702,-0.0048193,0.00358724,0.0180895,895,526,-1.05002,9.85541
-322,498,-1.07928,-10.1352,0.00365418,-0.0032027,-9.66636e-05,0.00365554,-0.00320406,-0.0140936,0.00396325,0.0183032,902,526,-1.07931,10.1352
-315,498,-1.06372,-10.4164,0.00423956,-0.00325903,-0.000107921,0.00424111,-0.00326058,-0.0143882,0.00434342,0.0163656,909,526,-1.06371,10.4164
-308,498,-1.02405,-10.6976,0.00492098,-0.00353521,4.95212e-05,0.00492127,-0.0035355,0.00585594,0.00490432,0.0206393,916,526,-1.02407,10.6976
-301,498,-0.986145,-11.0237,0,0,0,0,0,0,0,-1,923,526,-0.986115,11.0237
-294,498,-0.827881,-11.4131,0,0,0,0,0,0,0,-1,930,526,-0.827892,11.4131
-287,498,-0.894226,-11.2529,0,0,0,0,0,0,0,-1,937,526,-0.894239,11.2529
-280,498,-0.341614,-8.66608,0,0,0,0,0,0,0,-1,944,526,-0.341589,8.66606
-273,498,-0.988892,-8.62921,0,0,0,0,0,0,0,-1,951,526,-0.988906,8.62922
-266,498,0.362488,-6.33545,0,0,0,0,0,0,0,-1,958,526,0.362478,6.33547
-259,498,10.9454,-17.3615,0,0,0,0,0,0,0,-1,965,526,10.9454,17.3614
-252,498,8.56586,-14.6886,0,0,0,0,0,0,0,-1,972,526,8.56584,14.6886
-245,498,5.97382,-11.928,0,0,0,0,0,0,0,-1,979,526,5.97381,11.928
-238,498,2.24841,-13.8145,0,0,0,0,0,0,0,-1,986,526,2.24838,13.8145
-231,498,0.665894,-10.4898,0,0,0,0,0,0,0,-1,993,526,0.665863,10.4898
-224,498,-2.11243,-4.76312,0,0,0,0,0,0,0,-1,1000,526,-2.11245,4.76314
-217,498,-3.82239,-1.42841,0,0,0,0,0,0,0,-1,1007,526,-3.82241,1.42843
-210,498,-1.80591,-0.358215,0,0,0,0,0,0,0,-1,1014,526,-1.8059,0.3582
-203,498,-3.17316,1.06641,0,0,0,0,0,0,0,-1,1021,526,-3.17313,-1.0664
-196,498,-0.103271,5.40527,0,0,0,0,0,0,0,-1,1028,526,-0.103285,-5.40528
-189,498,3.00256,6.47137,0,0,0,0,0,0,0,-1,1035,526,3.00256,-6.47139
-182,498,0,0,0,0,0,0,0,0,0,-1,1042,526,0,0
-175,498,0,0,0,0,0,0,0,0,0,-1,1049,526,0,0
-168,498,0,0,0,0,0,0,0,0,0,-1,1056,526,0,0
-161,498,0,0,0,0,0,0,0,0,0,-1,1063,526,0,0
-154,498,0,0,0,0,0,0,0,0,0,-1,1070,526,0,0
-147,498,0,0,0,0,0,0,0,0,0,-1,1077,526,0,0
-140,498,0,0,0,0,0,0,0,0,0,-1,1084,526,0,0
-133,498,0,0,0,0,0,0,0,0,0,-1,1091,526,0,0
-126,498,0,0,0,0,0,0,0,0,0,-1,1098,526,0,0
-119,498,0,0,0,0,0,0,0,0,0,-1,1105,526,0,0
-112,498,0,0,0,0,0,0,0,0,0,-1,1112,526,0,0
-105,498,0,0,0,0,0,0,0,0,0,-1,1119,526,0,0
-98,498,0,0,0,0,0,0,0,0,0,-1,1126,526,0,0
-91,498,0,0,0,0,0,0,0,0,0,-1,1133,526,0,0
-84,498,0,0,0,0,0,0,0,0,0,-1,1140,526,0,0
-77,498,0,0,0,0,0,0,0,0,0,-1,1147,526,0,0
-70,498,0,0,0,0,0,0,0,0,0,-1,1154,526,0,0
-63,498,0,0,0,0,0,0,0,0,0,-1,1161,526,0,0
-56,498,0,0,0,0,0,0,0,0,0,-1,1168,526,0,0
-49,498,0,0,0,0,0,0,0,0,0,-1,1175,526,0,0
-42,498,0,0,0,0,0,0,0,0,0,-1,1182,526,0,0
-35,498,0,0,0,0,0,0,0,0,0,-1,1189,526,0,0
-28,498,0,0,0,0,0,0,0,0,0,-1,1196,526,0,0
-21,498,0,0,0,0,0,0,0,0,0,-1,1203,526,0,0
-14,498,0,0,0,0,0,0,0,0,0,-1,1210,526,0,0
-7,498,0,0,0,0,0,0,0,0,0,-1,1217,526,0,0
0,498,0,0,0,0,0,0,0,0,0,-1,1224,526,0,0
7,498,0,0,0,0,0,0,0,0,0,-1,1231,526,0,0
14,498,0,0,0,0,0,0,0,0,0,-1,1238,526,0,0
21,498,0,0,0,0,0,0,0,0,0,-1,1245,526,0,0
28,498,0,0,0,0,0,0,0,0,0,-1,1252,526,0,0
35,498,0,0,0,0,0,0,0,0,0,-1,1259,526,0,0
42,498,0,0,0,0,0,0,0,0,0,-1,1266,526,0,0
49,498,0,0,0,0,0,0,0,0,0,-1,1273,526,0,0
56,498,0,0,0,0,0,0,0,0,0,-1,1280,526,0,0
63,498,0,0,0,0,0,0,0,0,0,-1,1287,526,0,0
70,498,0,0,0,0,0,0,0,0,0,-1,1294,526,0,0
77,498,0,0,0,0,0,0,0,0,0,-1,1301,526,0,0
84,498,0,0,0,0,0,0,0,0,0,-1,1308,526,0,0
91,498,0,0,0,0,0,0,0,0,0,-1,1315,526,0,0
98,498,0,0,0,0,0,0,0,0,0,-1,1322,526,0,0
105,498,0,0,0,0,0,0,0,0,0,-1,1329,526,0,0
112,498,0,0,0,0,0,0,0,0,0,-1,1336,526,0,0
119,498,0,0,0,0,0,0,0,0,0,-1,1343,526,0,0
126,498,0,0,0,0,0,0,0,0,0,-1,1350,526,0,0
133,498,0,0,0,0,0,0,0,0,0,-1,1357,526,0,0
140,498,0,0,0,0,0,0,0,0,0,-1,1364,526,0,0
147,498,0,0,0,0,0,0,0,0,0,-1,1371,526,0,0
154,498,0,0,0,0,0,0,0,0,0,-1,1378,526,0,0
161,498,0,0,0,0,0,0,0,0,0,-1,1385,526,0,0
168,498,0,0,0,0,0,0,0,0,0,-1,1392,526,0,0
175,498,0,0,0,0,0,0,0,0,0,-1,1399,526,0,0
182,498,0,0,0,0,0,0,0,0,0,-1,1406,526,0,0
189,498,0,0,0,0,0,0,0,0,0,-1,1413,526,0,0
196,498,0,0,0,0,0,0,0,0,0,-1,1420,526,0,0
203,498,0,0,0,0,0,0,0,0,0,-1,1427,526,0,0
210,498,0,0,0,0,0,0,0,0,0,-1,1434,526,0,0
217,498,0,0,0,0,0,0,0,0,0,-1,1441,526,0,0
224,498,0,0,0,0,0,0,0,0,0,-1,1448,526,0,0
231,498,0,0,0,0,0,0,0,0,0,-1,1455,526,0,0
238,498,0,0,0,0,0,0,0,0,0,-1,1462,526,0,0
245,498,0,0,0,0,0,0,0,0,0,-1,1469,526,0,0
252,498,0,0,0,0,0,0,0,0,0,-1,1476,526,0,0
259,498,0,0,0,0,0,0,0,0,0,-1,1483,526,0,0
266,498,0,0,0,0,0,0,0,0,0,-1,1490,526,0,0
273,498,0,0,0,0,0,0,0,0,0,-1,1497,526,0,0
280,498,0,0,0,0,0,0,0,0,0,-1,1504,526,0,0
287,498,0,0,0,0,0,0,0,0,0,-1,1511,526,0,0
294,498,0,0,0,0,0,0,0,0,0,-1,1518,526,0,0
301,498,0,0,0,0,0,0,0,0,0,-1,1525,526,0,0
308,498,4.77942,-0.293884,0,0,0,0,0,0,0,-1,1532,526,4.77939,0.293899
315,498,4.56091,-0.564148,0,0,0,0,0,0,0,-1,1539,526,4.56097,0.564142
322,498,4.52344,-0.447266,0,0,0,0,0,0,0,-1,1546,526,4.52341,0.447295
329,498,4.63232,-0.156982,0,0,0,0,0,0,0,-1,1553,526,4.63238,0.156991
336,498,5.22644,0.0925903,0,0,0,0,0,0,0,-1,1560,526,5.22648,-0.0926188
343,498,6.22607,-1.67615,0,0,0,0,0,0,0,-1,1567,526,6.22605,1.67617
350,498,6.19373,-1.59906,0,0,0,0,0,0,0,-1,1574,526,6.19367,1.59906
357,498,6.21472,-1.58929,0,0,0,0,0,0,0,-1,1581,526,6.21476,1.58927
364,498,5.73547,-1.2019,0,0,0,0,0,0,0,-1,1588,526,5.73547,1.20192
371,498,3.27087,-4.55334,0,0,0,0,0,0,0,-1,1595,526,3.27089,4.55332
378,498,8.42944,-4.70624,0,0,0,0,0,0,0,-1,1602,526,8.42942,4.70624
385,498,4.7793,-5.15314,0,0,0,0,0,0,0,-1,1609,526,4.77935,5.15311
392,498,9.12439,-8.57953,0,0,0,0,0,0,0,-1,1616,526,9.12443,8.57955
399,498,7.98938,-9.46021,0,0,0,0,0,0,0,-1,1623,526,7.98936,9.4602
406,498,7.58081,-9.26819,0,0,0,0,0,0,0,-1,1630,526,7.58085,9.26817
413,498,7.17236,-9.07611,0,0,0,0,0,0,0,-1,1637,526,7.17234,9.07614
420,498,7.95825,-9.86835,0,0,0,0,0,0,0,-1,1644,526,7.95826,9.86836
427,498,7.76624,-9.58099,-0.00440116,-0.00379522,-0.00519887,0.0011095,-0.00930588,-0.814503,0.00660489,0.043443,1651,526,7.76622,9.58102
434,498,7.55493,-9.362,-0.00344776,-0.00296984,-0.00415166,0.000949728,-0.00736733,-0.814145,0.00525681,0.0170339,1658,526,7.55494,9.36203
441,498,7.52954,-9.05988,-0.00251958,-0.00243959,-0.00330246,0.000823116,-0.00578229,-0.791454,0.00415649,0.00930847,1665,526,7.52957,9.0599
448,498,7.54565,-8.75769,-0.00164116,-0.00179666,-0.00243113,0.000713464,-0.00415128,-0.769413,0.00303344,0.00992461,1672,526,7.5456,8.7577
455,498,7.52771,-8.45563,-0.000842291,-0.00110078,-0.00160582,0.000639477,-0.00258255,-0.745242,0.00196977,0.013847,1679,526,7.52771,8.45562
462,498,7.51489,-8.16827,-0.000146637,-0.000600903,-0.000958897,0.00061166,-0.0013592,-0.669107,0.00116484,0.0157875,1686,526,7.5149,8.16828
469,498,7.50146,-7.87848,0.000314773,-0.000250941,-0.00044137,0.000556145,-0.000492312,-0.500436,0.000605701,0.0134564,1693,526,7.50151,7.87849
476,498,7.51379,-7.56879,0.000570974,-3.62159e-05,-3.79876e-05,0.000573341,-3.85833e-05,-0.0622396,0.000395716,0.0101981,1700,526,7.51381,7.56877
483,498,7.52014,-7.24799,0.000715933,0.000110616,0.000245617,0.000803057,2.34923e-05,0.340866,0.000527715,0.00904417,1707,526,7.52009,7.24796
490,498,7.51685,-6.92645,0.000574574,5.37135e-05,0.000423332,0.000811168,-0.000182881,0.509641,0.000610933,0.0111953,1714,526,7.51688,6.92644
497,498,7.52368,-6.59863,7.76274e-05,-0.000187879,0.000419409,0.000384791,-0.000495043,0.632124,0.0005093,0.0122552,1721,526,7.52365,6.59861
504,498,7.50037,-6.27307,-0.000564008,-0.000447464,0.000294232,-0.00020579,-0.000805683,0.883158,0.000483355,0.0144268,1728,526,7.50042,6.27306
511,498,7.50732,-5.95752,-0.00143638,-0.000700222,7.07697e-05,-0.00069348,-0.00144312,1.47582,0.000833399,0.0151411,1735,526,7.50727,5.95749
518,498,7.54187,-5.61621,-0.00253028,-0.000963475,-0.000192299,-0.000940219,-0.00255353,-1.45044,0.00149126,0.0164929,1742,526,7.5419,5.61618
525,498,7.40601,-5.28815,-0.00379473,-0.00115482,-0.00050158,-0.00106273,-0.00388682,-1.38922,0.00231959,0.0297465,1749,526,7.40602,5.28816
532,498,7.20654,-5.07654,-0.00514275,-0.0011681,-0.000763171,-0.0010266,-0.00528424,-1.38747,0.00323538,0.046098,1756,526,7.20659,5.07651
539,498,7.18188,-4.91437,0,0,0,0,0,0,0,-1,1763,526,7.18187,4.9144
546,498,7.43152,-4.06592,0,0,0,0,0,0,0,-1,1770,526,7.43155,4.06593
553,498,5.93958,-1.71448,0,0,0,0,0,0,0,-1,1777,526,5.93956,1.71447
560,498,3.69385,-0.615112,0,0,0,0,0,0,0,-1,1784,526,3.69381,0.615118
567,498,5.12695,-0.581604,0,0,0,0,0,0,0,-1,1791,526,5.12699,0.58159
574,498,3.88,0.0286255,0,0,0,0,0,0,0,-1,1798,526,3.87999,-0.0286535
581,498,10.8722,2.58551,0,0,0,0,0,0,0,-1,1805,526,10.8723,-2.58551
588,498,0,0,0,0,0,0,0,0,0,-1,1812,526,0,0
595,498,0,0,0,0,0,0,0,0,0,-1,1819,526,0,0
602,498,0,0,0,0,0,0,0,0,0,-1,1826,526,0,0
609,498,0,0,0,0,0,0,0,0,0,-1,1833,526,0,0
616,498,0,0,0,0,0,0,0,0,0,-1,1840,526,0,0
623,498,0,0,0,0,0,0,0,0,0,-1,1847,526,0,0
630,498,0,0,0,0,0,0,0,0,0,-1,1854,526,0,0
637,498,0,0,0,0,0,0,0,0,0,-1,1861,526,0,0
644,498,0,0,0,0,0,0,0,0,0,-1,1868,526,0,0
651,498,0,0,0,0,0,0,0,0,0,-1,1875,526,0,0
658,498,0,0,0,0,0,0,0,0,0,-1,1882,526,0,0
665,498,0,0,0,0,0,0,0,0,0,-1,1889,526,0,0
672,498,0,0,0,0,0,0,0,0,0,-1,1896,526,0,0
679,498,0,0,0,0,0,0,0,0,0,-1,1903,526,0,0
686,498,0,0,0,0,0,0,0,0,0,-1,1910,526,0,0
693,498,0,0,0,0,0,0,0,0,0,-1,1917,526,0,0
700,498,0,0,0,0,0,0,0,0,0,-1,1924,526,0,0
707,498,0,0,0,0,0,0,0,0,0,-1,1931,526,0,0
714,498,0,0,0,0,0,0,0,0,0,-1,1938,526,0,0
721,498,0,0,0,0,0,0,0,0,0,-1,1945,526,0,0
728,498,0,0,0,0,0,0,0,0,0,-1,1952,526,0,0
735,498,0,0,0,0,0,0,0,0,0,-1,1959,526,0,0
742,498,0,0,0,0,0,0,0,0,0,-1,1966,526,0,0
749,498,0,0,0,0,0,0,0,0,0,-1,1973,526,0,0
756,498,0,0,0,0,0,0,0,0,0,-1,1980,526,0,0
763,498,0,0,0,0,0,0,0,0,0,-1,1987,526,0,0
770,498,0,0,0,0,0,0,0,0,0,-1,1994,526,0,0
777,498,0,0,0,0,0,0,0,0,0,-1,2001,526,0,0
784,498,0,0,0,0,0,0,0,0,0,-1,2008,526,0,0
791,498,0,0,0,0,0,0,0,0,0,-1,2015,526,0,0
798,498,0,0,0,0,0,0,0,0,0,-1,2022,526,0,0
805,498,0,0,0,0,0,0,0,0,0,-1,2029,526,0,0
812,498,0,0,0,0,0,0,0,0,0,-1,2036,526,0,0
-700,491,0,0,0,0,0,0,0,0,0,-1,524,533,0,0
-693,491,0,0,0,0,0,0,0,0,0,-1,531,533,0,0
-686,491,0,0,0,0,0,0,0,0,0,-1,538,533,0,0
-679,491,0,0,0,0,0,0,0,0,0,-1,545,533,0,0
-672,491,0,0,0,0,0,0,0,0,0,-1,552,533,0,0
-665,491,0,0,0,0,0,0,0,0,0,-1,559,533,0,0
-658,491,0,0,0,0,0,0,0,0,0,-1,566,533,0,0
-651,491,0,0,0,0,0,0,0,0,0,-1,573,533,0,0
-644,491,0,0,0,0,0,0,0,0,0,-1,580,533,0,0
-637,491,0,0,0,0,0,0,0,0,0,-1,587,533,0,0
-630,491,0,0,0,0,0,0,0,0,0,-1,594,533,0,0
-623,491,0,0,0,0,0,0,0,0,0,-1,601,533,0,0
-616,491,0,0,0,0,0,0,0,0,0,-1,608,533,0,0
-609,491,0,0,0,0,0,0,0,0,0,-1,615,533,0,0
-602,491,0,0,0,0,0,0,0,0,0,-1,622,533,0,0
-595,491,0,0,0,0,0,0,0,0,0,-1,629,533,0,0
-588,491,0,0,0,0,0,0,0,0,0,-1,636,533,0,0
-581,491,0,0,0,0,0,0,0,0,0,-1,643,533,0,0
-574,491,0,0,0,0,0,0,0,0,0,-1,650,533,0,0
-567,491,0,0,0,0,0,0,0,0,0,-1,657,533,0,0
-560,491,0,0,0,0,0,0,0,0,0,-1,664,533,0,0
-553,491,0,0,0,0,0,0,0,0,0,-1,671,533,0,0
-546,491,0,0,0,0,0,0,0,0,0,-1,678,533,0,0
-539,491,0,0,0,0,0,0,0,0,0,-1,685,533,0,0
-532,491,0,0,0,0,0,0,0,0,0,-1,692,533,0,0
-525,491,0,0,0,0,0,0,0,0,0,-1,699,533,0,0
-518,491,0,0,0,0,0,0,0,0,0,-1,706,533,0,0
-511,491,0,0,0,0,0,0,0,0,0,-1,713,533,0,0
-504,491,0,0,0,0,0,0,0,0,0,-1,720,533,0,0
-497,491,0,0,0,0,0,0,0,0,0,-1,727,533,0,0
-490,491,0,0,0,0,0,0,0,0,0,-1,734,533,0,0
-483,491,0,0,0,0,0,0,0,0,0,-1,741,533,0,0
-476,491,0,0,0,0,0,0,0,0,0,-1,748,533,0,0
-469,491,-5.85913,4.55011,0,0,0,0,0,0,0,-1,755,533,-5.8591,-4.55009
-462,491,-9.93713,4.90381,0,0,0,0,0,0,0,-1,762,533,-9.93716,-4.9038
-455,491,1.9494,-0.27887,0,0,0,0,0,0,0,-1,769,533,1.94941,0.27885
-448,491,2.68909,-1.8999,0,0,0,0,0,0,0,-1,776,533,2.6891,1.89988
-441,491,3.46069,-3.51855,0,0,0,0,0,0,0,-1,783,533,3.46071,3.51854
-434,491,2.67145,-7.44061,0,0,0,0,0,0,0,-1,790,533,2.67146,7.44061
-427,491,2.27136,-8.34546,0,0,0,0,0,0,0,-1,797,533,2.27136,8.34546
-420,491,-1.09424,-5.67303,0,0,0,0,0,0,0,-1,804,533,-1.09426,5.67301
-413,491,-1.47485,-6.24603,-0.0121022,0.00328772,-0.0164972,0.0137963,-0.0226108,-1.00362,0.021224,0.0488113,811,533,-1.47485,6.24605
-406,491,-1.25195,-6.55511,-0.00788642,0.00225102,-0.0122166,0.0104087,-0.0160441,-0.982042,0.0153876,0.0263371,818,533,-1.25198,6.55511
-399,491,-1.27576,-6.88519,-0.0048397,0.00146831,-0.00882872,0.00768949,-0.0110609,-0.956955,0.0108837,0.0112598,825,533,-1.27576,6.88518
-392,491,-1.3172,-7.19147,-0.00269132,0.000719962,-0.00623971,0.00548296,-0.00745431,-0.918815,0.00749818,0.00921429,832,533,-1.31722,7.19145
-385,491,-1.32538,-7.48511,-0.00115645,7.40603e-05,-0.00427432,0.00377717,-0.00485956,-0.856878,0.00499946,0.00887978,839,533,-1.32536,7.48508
-378,491,-1.315,-7.78485,0.000350276,-0.000310395,-0.00242243,0.00246479,-0.00242491,-0.717634,0.0028231,0.014502,846,533,-1.31503,7.78487
-371,491,-1.30273,-8.09564,0.00131528,-0.00142816,-0.00115013,0.00173364,-0.00184653,-0.348877,0.00206736,0.016492,853,533,-1.30275,8.09567
-364,491,-1.30981,-8.41345,0.00159631,-0.00207861,-0.000661452,0.00171174,-0.00219404,-0.17277,0.00226073,0.0145054,860,533,-1.30984,8.41348
-357,491,-1.33716,-8.71033,0.001894,-0.00267171,-0.000200487,0.00190279,-0.00268049,-0.043799,0.00265883,0.0117259,867,533,-1.33716,8.71036
-350,491,-1.33801,-8.98798,0.0023851,-0.00337436,9.37258e-05,0.00238663,-0.00337589,0.0162676,0.00334329,0.0134346,874,533,-1.338,8.98796
-343,491,-1.30896,-9.27087,0.0029456,-0.00402926,0.000289422,0.00295759,-0.00404125,0.0414002,0.00405689,0.0220858,881,533,-1.30896,9.27089
-336,491,-1.31915,-9.56866,0.00351116,-0.00474899,0.000422992,0.00353276,-0.0047706,0.0510308,0.00481167,0.0225259,888,533,-1.31918,9.56866
-329,491,-1.37579,-9.86603,0.00423043,-0.0051752,0.000345409,0.0042431,-0.00518787,0.0366579,0.00545407,0.0230716,895,533,-1.37579,9.866
-322,491,-1.36792,-10.1364,0.00495084,-0.00550726,0.000245339,0.00495659,-0.00551301,0.023442,0.00604747,0.022914,902,533,-1.3679,10.1364
-315,491,-1.36414,-10.3813,0.0057833,-0.00575375,0.000209499,0.00578711,-0.00575756,0.0181508,0.00666532,0.0221937,909,533,-1.36413,10.3814
-308,491,-1.25598,-10.7901,0,0,0,0,0,0,0,-1,916,533,-1.25597,10.7901
-301,491,-1.151,-11.5555,0,0,0,0,0,0,0,-1,923,533,-1.15099,11.5555
-294,491,-0.777283,-8.60913,0,0,0,0,0,0,0,-1,930,533,-0.777288,8.6091
-287,491,-0.26123,-8.69055,0,0,0,0,0,0,0,-1,937,533,-0.261204,8.69053
-280,491,0.2948,-5.99219,0,0,0,0,0,0,0,-1,944,533,0.294811,5.99221
-273,491,0.369995,-5.33691,0,0,0,0,0,0,0,-1,951,533,0.369985,5.33693
-266,491,1.1167,-5.0321,0,0,0,0,0,0,0,-1,958,533,1.11668,5.0321
-259,491,12.0862,-16.9615,0,0,0,0,0,0,0,-1,965,533,12.0862,16.9615
-252,491,9.72443,-13.8417,0,0,0,0,0,0,0,-1,972,533,9.72444,13.8418
-245,491,5.27258,-14.3619,0,0,0,0,0,0,0,-1,979,533,5.27255,14.3619
-238,491,3.65381,-11.1472,0,0,0,0,0,0,0,-1,986,533,3.6538,11.1472
-231,491,2.17719,-7.86835,0,0,0,0,0,0,0,-1,993,533,2.17719,7.86832
-224,491,0.554626,-4.61725,0,0,0,0,0,0,0,-1,1000,533,0.554608,4.61727
-217,491,-2.92743,-1.0766,0,0,0,0,0,0,0,-1,1007,533,-2.92743,1.07659
-210,491,-0.92395,0.374512,0,0,0,0,0,0,0,-1,1014,533,-0.923959,-0.374531
-203,491,0.417419,4.77161,0,0,0,0,0,0,0,-1,1021,533,0.417446,-4.77162
-196,491,0,0,0,0,0,0,0,0,0,-1,1028,533,0,0
-189,491,0,0,0,0,0,0,0,0,0,-1,1035,533,0,0
-182,491,0,0,0,0,0,0,0,0,0,-1,1042,533,0,0
-175,491,0,0,0,0,0,0,0,0,0,-1,1049,533,0,0
-168,491,0,0,0,0,0,0,0,0,0,-1,1056,533,0,0
-161,491,0,0,0,0,0,0,0,0,0,-1,1063,533,0,0
-154,491,0,0,0,0,0,0,0,0,0,-1,1070,533,0,0
-147,491,0,0,0,0,0,0,0,0,0,-1,1077,533,0,0
-140,491,0,0,0,0,0,0,0,0,0,-1,1084,533,0,0
-133,491,0,0,0,0,0,0,0,0,0,-1,1091,533,0,0
-126,491,0,0,0,0,0,0,0,0,0,-1,1098,533,0,0
-119,491,0,0,0,0,0,0,0,0,0,-1,1105,533,0,0
-112,491,0,0,0,0,0,0,0,0,0,-1,1112,533,0,0
-105,491,0,0,0,0,0,0,0,0,0,-1,1119,533,0,0
-98,491,0,0,0,0,0,0,0,0,0,-1,1126,533,0,0
-91,491,0,0,0,0,0,0,0,0,0,-1,1133,533,0,0
-84,491,0,0,0,0,0,0,0,0,0,-1,1140,533,0,0
-77,491,0,0,0,0,0,0,0,0,0,-1,1147,533,0,0
-70,491,0,0,0,0,0,0,0,0,0,-1,1154,533,0,0
-63,491,0,0,0,0,0,0,0,0,0,-1,1161,533,0,0
-56,491,0,0,0,0,0,0,0,0,0,-1,1168,533,0,0
-49,491,0,0,0,0,0,0,0,0,0,-1,1175,533,0,0
-42,491,0,0,0,0,0,0,0,0,0,-1,1182,533,0,0
-35,491,0,0,0,0,0,0,0,0,0,-1,1189,533,0,0
-28,491,0,0,0,0,0,0,0,0,0,-1,1196,533,0,0
-21,491,0,0,0,0,0,0,0,0,0,-1,1203,533,0,0
-14,491,0,0,0,0,0,0,0,0,0,-1,1210,533,0,0
-7,491,0,0,0,0,0,0,0,0,0,-1,1217,533,0,0
0,491,0,0,0,0,0,0,0,0,0,-1,1224,533,0,0
7,491,0,0,0,0,0,0,0,0,0,-1,1231,533,0,0
14,491,0,0,0,0,0,0,0,0,0,-1,1238,533,0,0
21,491,0,0,0,0,0,0,0,0,0,-1,1245,533,0,0
28,491,0,0,0,0,0,0,0,0,0,-1,1252,533,0,0
35,491,0,0,0,0,0,0,0,0,0,-1,1259,533,0,0
42,491,0,0,0,0,0,0,0,0,0,-1,1266,533,0,0
49,491,0,0,0,0,0,0,0,0,0,-1,1273,533,0,0
56,491,0,0,0,0,0,0,0,0,0,-1,1280,533,0,0
63,491,0,0,0,0,0,0,0,0,0,-1,1287,533,0,0
70,491,0,0,0,0,0,0,0,0,0,-1,1294,533,0,0
77,491,0,0,0,0,0,0,0,0,0,-1,1301,533,0,0
84,491,0,0,0,0,0,0,0,0,0,-1,1308,533,0,0
91,491,0,0,0,0,0,0,0,0,0,-1,1315,533,0,0
98,491,0,0,0,0,0,0,0,0,0,-1,1322,533,0,0
105,491,0,0,0,0,0,0,0,0,0,-1,1329,533,0,0
112,491,0,0,0,0,0,0,0,0,0,-1,1336,533,0,0
119,491,0,0,0,0,0,0,0,0,0,-1,1343,533,0,0
126,491,0,0,0,0,0,0,0,0,0,-1,1350,533,0,0
133,491,0,0,0,0,0,0,0,0,0,-1,1357,533,0,0
140,491,0,0,0,0,0,0,0,0,0,-1,1364,533,0,0
147,491,0,0,0,0,0,0,0,0,0,-1,1371,533,0,0
154,491,0,0,0,0,0,0,0,0,0,-1,1378,533,0,0
161,491,0,0,0,0,0,0,0,0,0,-1,1385,533,0,0
168,491,0,0,0,0,0,0,0,0,0,-1,1392,533,0,0
175,491,0,0,0,0,0,0,0,0,0,-1,1399,533,0,0
182,491,0,0,0,0,0,0,0,0,0,-1,1406,533,0,0
189,491,0,0,0,0,0,0,0,0,0,-1,1413,533,0,0
196,491,0,0,0,0,0,0,0,0,0,-1,1420,533,0,0
203,491,0,0,0,0,0,0,0,0,0,-1,1427,533,0,0
210,491,0,0,0,0,0,0,0,0,0,-1,1434,533,0,0
217,491,0,0,0,0,0,0,0,0,0,-1,1441,533,0,0
224,491,0,0,0,0,0,0,0,0,0,-1,1448,533,0,0
231,491,0,0,0,0,0,0,0,0,0,-1,1455,533,0,0
238,491,0,0,0,0,0,0,0,0,0,-1,1462,533,0,0
245,491,0,0,0,0,0,0,0,0,0,-1,1469,533,0,0
252,491,0,0,0,0,0,0,0,0,0,-1,1476,533,0,0
259,491,0,0,0,0,0,0,0,0,0,-1,1483,533,0,0
266,491,0,0,0,0,0,0,0,0,0,-1,1490,533,0,0
273,491,0,0,0,0,0,0,0,0,0,-1,1497,533,0,0
280,491,0,0,0,0,0,0,0,0,0,-1,1504,533,0,0
287,491,0,0,0,0,0,0,0,0,0,-1,1511,533,0,0
294,491,0,0,0,0,0,0,0,0,0,-1,1518,533,0,0
301,491,0,0,0,0,0,0,0,0,0,-1,1525,533,0,0
308,491,0,0,0,0,0,0,0,0,0,-1,1532,533,0,0
315,491,0,0,0,0,0,0,0,0,0,-1,1539,533,0,0
322,491,4.26331,-0.734314,0,0,0,0,0,0,0,-1,1546,533,4.26326,0.734324
329,491,4.25354,-0.783752,0,0,0,0,0,0,0,-1,1553,533,4.25359,0.783734
336,491,4.81604,-0.722107,0,0,0,0,0,0,0,-1,1560,533,4.81605,0.722115
343,491,6.14478,-1.44281,0,0,0,0,0,0,0,-1,1567,533,6.14474,1.44281
350,491,6.36353,-1.30792,0,0,0,0,0,0,0,-1,1574,533,6.36352,1.3079
357,491,6.69482,-1.06018,0,0,0,0,0,0,0,-1,1581,533,6.69489,1.06018
364,491,8.01086,-1.69604,0,0,0,0,0,0,0,-1,1588,533,8.01087,1.69607
371,491,8.2135,-0.539307,0,0,0,0,0,0,0,-1,1595,533,8.21348,0.53929
378,491,13.3589,2.17267,0,0,0,0,0,0,0,-1,1602,533,13.3589,-2.17264
385,491,8.08228,-4.95471,0,0,0,0,0,0,0,-1,1609,533,8.08227,4.95474
392,491,2.88721,-4.30988,0,0,0,0,0,0,0,-1,1616,533,2.88716,4.30986
399,491,8.95862,-8.55518,0,0,0,0,0,0,0,-1,1623,533,8.95864,8.55516
406,491,8.16541,-9.00806,0,0,0,0,0,0,0,-1,1630,533,8.16535,9.00807
413,491,5.31848,-3.7124,0,0,0,0,0,0,0,-1,1637,533,5.31849,3.7124
420,491,4.86389,-3.95892,0,0,0,0,0,0,0,-1,1644,533,4.86387,3.95893
427,491,8.29248,-9.31244,0,0,0,0,0,0,0,-1,1651,533,8.29248,9.31246
434,491,8.02686,-9.05988,-0.00480353,-0.0040954,-0.00543673,0.000998779,-0.00989771,-0.817914,0.00695535,0.046605,1658,533,8.02684,9.05988
441,491,7.85425,-9.02759,-0.0034252,-0.00324033,-0.0042661,0.000934338,-0.00759987,-0.79623,0.00540501,0.0214587,1665,533,7.85428,9.02761
448,491,7.84351,-8.75421,-0.00219017,-0.00224533,-0.00310868,0.000891056,-0.00532656,-0.780962,0.00388229,0.0119242,1672,533,7.8435,8.75418
455,491,7.83325,-8.45459,-0.00109481,-0.00130354,-0.00206088,0.000864349,-0.0032627,-0.760099,0.00251329,0.0122913,1679,533,7.83331,8.45458
462,491,7.83435,-8.17877,-0.000192593,-0.000621025,-0.00124269,0.000854211,-0.00166783,-0.700047,0.00148114,0.015461,1686,533,7.83434,8.17878
469,491,7.82617,-7.88647,0.000382145,-0.000159317,-0.000630207,0.000797312,-0.000574484,-0.582522,0.000795482,0.0137727,1693,533,7.82621,7.88646
476,491,7.83972,-7.55847,0.000762894,0.000119988,-0.000139733,0.000791951,9.09312e-05,-0.205026,0.000500418,0.00972176,1700,533,7.83973,7.55846
483,491,7.84119,-7.20453,0.000993582,0.000339813,0.000237689,0.00107086,0.000262532,0.314353,0.000644475,0.0116771,1707,533,7.84119,7.20455
490,491,7.83838,-6.92377,0.000909678,0.000397425,0.000474325,0.00119261,0.000114492,0.537839,0.000759791,0.0106643,1714,533,7.83839,6.92376
497,491,7.84473,-6.61273,0.000429088,0.000170492,0.000468663,0.000785962,-0.000186382,0.650803,0.000595899,0.0121854,1721,533,7.84469,6.61274
504,491,7.83313,-6.28674,-0.00020583,-4.39196e-05,0.000346108,0.000230575,-0.000480324,0.900284,0.000418796,0.0141597,1728,533,7.83319,6.28674
511,491,7.81885,-5.95337,-0.00106668,-0.000258349,0.00011966,-0.000241008,-0.00108402,1.42687,0.000657242,0.0126106,1735,533,7.8188,5.95337
518,491,7.81519,-5.63165,-0.00212563,-0.000497446,-0.000143989,-0.000484811,-0.00213826,-1.48327,0.00129453,0.00963743,1742,533,7.8152,5.63168
525,491,7.83752,-5.28894,-0.00330523,-0.00065483,-0.000450739,-0.000580272,-0.00337979,-1.40687,0.00208683,0.00994068,1749,533,7.83754,5.28896
532,491,7.8407,-4.97351,-0.0045276,-0.00057942,-0.000713953,-0.000454282,-0.00465274,-1.39728,0.00296204,0.021443,1756,533,7.84064,4.97351
539,491,7.70349,-4.75262,-0.00568065,-3.13079e-05,-0.000815606,8.40856e-05,-0.00579605,-1.43025,0.00389236,0.0329619,1763,533,7.70346,4.75262
546,491,7.58459,-4.17816,-0.00671789,0.000790483,-0.000792948,0.000873312,-0.00680072,-1.46672,0.00485119,0.0422847,1770,533,7.58464,4.17817
553,491,7.59521,-3.46246,0,0,0,0,0,0,0,-1,1777,533,7.59524,3.46248
560,491,6.28455,-1.43585,0,0,0,0,0,0,0,-1,1784,533,6.28458,1.43586
567,491,5.67651,-1.3562,0,0,0,0,0,0,0,-1,1791,533,5.67649,1.3562
574,491,8.0719,1.58325,0,0,0,0,0,0,0,-1,1798,533,8.07195,-1.58326
581,491,9.44812,1.60931,0,0,0,0,0,0,0,-1,1805,533,9.44808,-1.60933
588,491,11.0497,1.54962,0,0,0,0,0,0,0,-1,1812,533,11.0496,-1.54963
595,491,0,0,0,0,0,0,0,0,0,-1,1819,533,0,0
602,491,0,0,0,0,0,0,0,0,0,-1,1826,533,0,0
609,491,0,0,0,0,0,0,0,0,0,-1,1833,533,0,0
616,491,0,0,0,0,0,0,0,0,0,-1,1840,533,0,0
623,491,0,0,0,0,0,0,0,0,0,-1,1847,533,0,0
630,491,0,0,0,0,0,0,0,0,0,-1,1854,533,0,0
637,491,0,0,0,0,0,0,0,0,0,-1,1861,533,0,0
644,491,0,0,0,0,0,0,0,0,0,-1,1868,533,0,0
651,491,0,0,0,0,0,0,0,0,0,-1,1875,533,0,0
658,491,0,0,0,0,0,0,0,0,0,-1,1882,533,0,0
665,491,0,0,0,0,0,0,0,0,0,-1,1889,533,0,0
672,491,0,0,0,0,0,0,0,0,0,-1,1896,533,0,0
679,491,0,0,0,0,0,0,0,0,0,-1,1903,533,0,0
686,491,0,0,0,0,0,0,0,0,0,-1,1910,533,0,0
693,491,0,0,0,0,0,0,0,0,0,-1,1917,533,0,0
700,491,0,0,0,0,0,0,0,0,0,-1,1924,533,0,0
707,491,0,0,0,0,0,0,0,0,0,-1,1931,533,0,0
714,491,0,0,0,0,0,0,0,0,0,-1,1938,533,0,0
721,491,0,0,0,0,0,0,0,0,0,-1,1945,533,0,0
728,491,0,0,0,0,0,0,0,0,0,-1,1952,533,0,0
735,491,0,0,0,0,0,0,0,0,0,-1,1959,533,0,0
742,491,0,0,0,0,0,0,0,0,0,-1,1966,533,0,0
749,491,0,0,0,0,0,0,0,0,0,-1,1973,533,0,0
756,491,0,0,0,0,0,0,0,0,0,-1,1980,533,0,0
763,491,0,0,0,0,0,0,0,0,0,-1,1987,533,0,0
770,491,0,0,0,0,0,0,0,0,0,-1,1994,533,0,0
777,491,0,0,0,0,0,0,0,0,0,-1,2001,533,0,0
784,491,0,0,0,0,0,0,0,0,0,-1,2008,533,0,0
791,491,0,0,0,0,0,0,0,0,0,-1,2015,533,0,0
798,491,0,0,0,0,0,0,0,0,0,-1,2022,533,0,0
805,491,0,0,0,0,0,0,0,0,0,-1,2029,533,0,0
812,491,0,0,0,0,0,0,0,0,0,-1,2036,533,0,0
-700,484,0,0,0,0,0,0,0,0,0,-1,524,540,0,0
-693,484,0,0,0,0,0,0,0,0,0,-1,531,540,0,0
-686,484,0,0,0,0,0,0,0,0,0,-1,538,540,0,0
-679,484,0,0,0,0,0,0,0,0,0,-1,545,540,0,0
-672,484,0,0,0,0,0,0,0,0,0,-1,552,540,0,0
-665,484,0,0,0,0,0,0,0,0,0,-1,559,540,0,0
-658,484,0,0,0,0,0,0,0,0,0,-1,566,540,0,0
-651,484,0,0,0,0,0,0,0,0,0,-1,573,540,0,0
-644,484,0,0,0,0,0,0,0,0,0,-1,580,540,0,0
-637,484,0,0,0,0,0,0,0,0,0,-1,587,540,0,0
-630,484,0,0,0,0,0,0,0,0,0,-1,594,540,0,0
-623,484,0,0,0,0,0,0,0,0,0,-1,601,540,0,0
-616,484,0,0,0,0,0,0,0,0,0,-1,608,540,0,0
-609,484,0,0,0,0,0,0,0,0,0,-1,615,540,0,0
-602,484,0,0,0,0,0,0,0,0,0,-1,622,540,0,0
-595,484,0,0,0,0,0,0,0,0,0,-1,629,540,0,0
-588,484,0,0,0,0,0,0,0,0,0,-1,636,540,0,0
-581,484,0,0,0,0,0,0,0,0,0,-1,643,540,0,0
-574,484,0,0,0,0,0,0,0,0,0,-1,650,540,0,0
-567,484,0,0,0,0,0,0,0,0,0,-1,657,540,0,0
-560,484,0,0,0,0,0,0,0,0,0,-1,664,540,0,0
-553,484,0,0,0,0,0,0,0,0,0,-1,671,540,0,0
-546,484,0,0,0,0,0,0,0,0,0,-1,678,540,0,0
-539,484,0,0,0,0,0,0,0,0,0,-1,685,540,0,0
-532,484,0,0,0,0,0,0,0,0,0,-1,692,540,0,0
-525,484,0,0,0,0,0,0,0,0,0,-1,699,540,0,0
-518,484,0,0,0,0,0,0,0,0,0,-1,706,540,0,0
-511,484,0,0,0,0,0,0,0,0,0,-1,713,540,0,0
-504,484,0,0,0,0,0,0,0,0,0,-1,720,540,0,0
-497,484,0,0,0,0,0,0,0,0,0,-1,727,540,0,0
-490,484,0,0,0,0,0,0,0,0,0,-1,734,540,0,0
-483,484,0,0,0,0,0,0,0,0,0,-1,741,540,0,0
-476,484,-8.46552,1.44702,0,0,0,0,0,0,0,-1,748,540,-8.46554,-1.44702
-469,484,-7.82343,1.70355,0,0,0,0,0,0,0,-1,755,540,-7.82345,-1.70355
-462,484,-8.36987,3.08612,0,0,0,0,0,0,0,-1,762,540,-8.36988,-3.0861
-455,484,-6.77197,2.07092,0,0,0,0,0,0,0,-1,769,540,-6.77197,-2.07094
-448,484,3.54895,-1.40106,0,0,0,0,0,0,0,-1,776,540,3.54897,1.40106
-441,484,4.28906,-3.05884,0,0,0,0,0,0,0,-1,783,540,4.28905,3.05883
-434,484,-2.17548,-5.07245,0,0,0,0,0,0,0,-1,790,540,-2.17546,5.07243
-427,484,-1.44556,-5.21466,0,0,0,0,0,0,0,-1,797,540,-1.44558,5.21468
-420,484,-1.46411,-5.70837,-0.0125546,0.00458586,-0.0165115,0.0146188,-0.0225876,-1.02478,0.0216447,0.0415398,804,540,-1.46412,5.70837
-413,484,-1.51514,-6.14923,-0.00851946,0.00349776,-0.0125105,0.0113678,-0.0163895,-1.00927,0.0161129,0.0257517,811,540,-1.51513,6.14924
-406,484,-1.52643,-6.55609,-0.00554983,0.00239913,-0.00926354,0.00850481,-0.0116555,-0.988044,0.0116868,0.0154306,818,540,-1.52642,6.55609
-399,484,-1.58154,-6.8869,-0.00336047,0.00144496,-0.00663339,0.00609738,-0.00801288,-0.959156,0.00817155,0.0156738,825,540,-1.58152,6.88691
-392,484,-1.6048,-7.17236,-0.0017668,0.000395686,-0.00455131,0.00399242,-0.00536354,-0.90202,0.00542097,0.0169128,832,540,-1.6048,7.17236
-385,484,-1.617,-7.47845,-0.000547074,-0.000583484,-0.00293087,0.00236565,-0.00349621,-0.782292,0.00340526,0.0125085,839,540,-1.61702,7.47848
-378,484,-1.6308,-7.79889,0.000616215,-0.00135782,-0.00138787,0.00133225,-0.00207385,-0.476305,0.00198199,0.013306,846,540,-1.63082,7.79889
-371,484,-1.62231,-8.09631,0.00143254,-0.00265217,-0.000352458,0.00146273,-0.00268236,-0.0854455,0.00242746,0.0150845,853,540,-1.62233,8.09629
-364,484,-1.61792,-8.38849,0.00181637,-0.00367717,0.000150351,0.00182048,-0.00368128,0.0273414,0.00323644,0.0112177,860,540,-1.61791,8.38847
-357,484,-1.64429,-8.69373,0.00228069,-0.00465987,0.00060288,0.00233267,-0.00471185,0.0860048,0.00414375,0.011533,867,540,-1.6443,8.6937
-350,484,-1.65186,-8.97296,0.00292294,-0.00569914,0.000906118,0.00301713,-0.00579334,0.103585,0.00517022,0.0136334,874,540,-1.65187,8.97298
-343,484,-1.62579,-9.263,0.00361657,-0.00677798,0.00111889,0.00373564,-0.00689706,0.106024,0.00622859,0.0215128,881,540,-1.62579,9.263
-336,484,-1.58887,-9.54712,0.0043334,-0.00785248,0.00126372,0.00446307,-0.00798215,0.102254,0.00728037,0.0254436,888,540,-1.58888,9.54712
-329,484,-1.60291,-9.81464,0.00528409,-0.00854421,0.00113749,0.00537703,-0.00863715,0.081528,0.00816374,0.0326087,895,540,-1.6029,9.81462
-322,484,-1.45074,-10.2123,0.00626252,-0.00915812,0.0009678,0.00632302,-0.00921862,0.0624335,0.00902473,0.0477103,902,540,-1.45075,10.2123
-315,484,-1.41382,-10.5087,0,0,0,0,0,0,0,-1,909,540,-1.41379,10.5087
-308,484,-1.32623,-8.9317,0,0,0,0,0,0,0,-1,916,540,-1.32626,8.93173
-301,484,-1.33453,-6.52667,0,0,0,0,0,0,0,-1,923,540,-1.33454,6.5267
-294,484,-1.61224,-8.17059,0,0,0,0,0,0,0,-1,930,540,-1.61227,8.17058
-287,484,-0.715759,-5.62103,0,0,0,0,0,0,0,-1,937,540,-0.715772,5.62105
-280,484,2.66742,-1.6795,0,0,0,0,0,0,0,-1,944,540,2.6674,1.67949
-273,484,2.53125,-2.22296,0,0,0,0,0,0,0,-1,951,540,2.53128,2.22295
-266,484,2.6778,-2.72058,0,0,0,0,0,0,0,-1,958,540,2.6778,2.72061
-259,484,2.41718,-2.59894,0,0,0,0,0,0,0,-1,965,540,2.41717,2.59892
-252,484,10.6069,-11.696,0,0,0,0,0,0,0,-1,972,540,10.6069,11.696
-245,484,6.34106,-11.6107,0,0,0,0,0,0,0,-1,979,540,6.34104,11.6107
-238,484,4.89319,-8.54059,0,0,0,0,0,0,0,-1,986,540,4.89321,8.5406
-231,484,3.47675,-5.22064,0,0,0,0,0,0,0,-1,993,540,3.47676,5.22067
-224,484,1.71344,-2.03473,0,0,0,0,0,0,0,-1,1000,540,1.71342,2.03472
-217,484,-0.745056,1.17358,0,0,0,0,0,0,0,-1,1007,540,-0.745043,-1.17359
-210,484,0,0,0,0,0,0,0,0,0,-1,1014,540,0,0
-203,484,0,0,0,0,0,0,0,0,0,-1,1021,540,0,0
-196,484,0,0,0,0,0,0,0,0,0,-1,1028,540,0,0
-189,484,0,0,0,0,0,0,0,0,0,-1,1035,540,0,0
-182,484,0,0,0,0,0,0,0,0,0,-1,1042,540,0,0
-175,484,0,0,0,0,0,0,0,0,0,-1,1049,540,0,0
-168,484,0,0,0,0,0,0,0,0,0,-1,1056,540,0,0
-161,484,0,0,0,0,0,0,0,0,0,-1,1063,540,0,0
-154,484,0,0,0,0,0,0,0,0,0,-1,1070,540,0,0
-147,484,0,0,0,0,0,0,0,0,0,-1,1077,540,0,0
-140,484,0,0,0,0,0,0,0,0,0,-1,1084,540,0,0
-133,484,0,0,0,0,0,0,0,0,0,-1,1091,540,0,0
-126,484,0,0,0,0,0,0,0,0,0,-1,1098,540,0,0
-119,484,0,0,0,0,0,0,0,0,0,-1,1105,540,0,0
-112,484,0,0,0,0,0,0,0,0,0,-1,1112,540,0,0
-105,484,0,0,0,0,0,0,0,0,0,-1,1119,540,0,0
-98,484,0,0,0,0,0,0,0,0,0,-1,1126,540,0,0
-91,484,0,0,0,0,0,0,0,0,0,-1,1133,540,0,0
-84,484,0,0,0,0,0,0,0,0,0,-1,1140,540,0,0
-77,484,0,0,0,0,0,0,0,0,0,-1,1147,540,0,0
-70,484,0,0,0,0,0,0,0,0,0,-1,1154,540,0,0
-63,484,0,0,0,0,0,0,0,0,0,-1,1161,540,0,0
-56,484,0,0,0,0,0,0,0,0,0,-1,1168,540,0,0
-49,484,0,0,0,0,0,0,0,0,0,-1,1175,540,0,0
-42,484,0,0,0,0,0,0,0,0,0,-1,1182,540,0,0
-35,484,0,0,0,0,0,0,0,0,0,-1,1189,540,0,0
-28,484,0,0,0,0,0,0,0,0,0,-1,1196,540,0,0
-21,484,0,0,0,0,0,0,0,0,0,-1,1203,540,0,0
-14,484,0,0,0,0,0,0,0,0,0,-1,1210,540,0,0
-7,484,0,0,0,0,0,0,0,0,0,-1,1217,540,0,0
0,484,0,0,0,0,0,0,0,0,0,-1,1224,540,0,0
7,484,0,0,0,0,0,0,0,0,0,-1,1231,540,0,0
14,484,0,0,0,0,0,0,0,0,0,-1,1238,540,0,0
21,484,0,0,0,0,0,0,0,0,0,-1,1245,540,0,0
28,484,0,0,0,0,0,0,0,0,0,-1,1252,540,0,0
35,484,0,0,0,0,0,0,0,0,0,-1,1259,540,0,0
42,484,0,0,0,0,0,0,0,0,0,-1,1266,540,0,0
49,484,0,0,0,0,0,0,0,0,0,-1,1273,540,0,0
56,484,0,0,0,0,0,0,0,0,0,-1,1280,540,0,0
63,484,0,0,0,0,0,0,0,0,0,-1,1287,540,0,0
70,484,0,0,0,0,0,0,0,0,0,-1,1294,540,0,0
77,484,0,0,0,0,0,0,0,0,0,-1,1301,540,0,0
84,484,0,0,0,0,0,0,0,0,0,-1,1308,540,0,0
91,484,0,0,0,0,0,0,0,0,0,-1,1315,540,0,0
98,484,0,0,0,0,0,0,0,0,0,-1,1322,540,0,0
105,484,0,0,0,0,0,0,0,0,0,-1,1329,540,0,0
112,484,0,0,0,0,0,0,0,0,0,-1,1336,540,0,0
119,484,0,0,0,0,0,0,0,0,0,-1,1343,540,0,0
126,484,0,0,0,0,0,0,0,0,0,-1,1350,540,0,0
133,484,0,0,0,0,0,0,0,0,0,-1,1357,540,0,0
140,484,0,0,0,0,0,0,0,0,0,-1,1364,540,0,0
147,484,0,0,0,0,0,0,0,0,0,-1,1371,540,0,0
154,484,0,0,0,0,0,0,0,0,0,-1,1378,540,0,0
161,484,0,0,0,0,0,0,0,0,0,-1,1385,540,0,0
168,484,0,0,0,0,0,0,0,0,0,-1,1392,540,0,0
175,484,0,0,0,0,0,0,0,0,0,-1,1399,540,0,0
182,484,0,0,0,0,0,0,0,0,0,-1,1406,540,0,0
189,484,0,0,0,0,0,0,0,0,0,-1,1413,540,0,0
196,484,0,0,0,0,0,0,0,0,0,-1,1420,540,0,0
203,484,0,0,0,0,0,0,0,0,0,-1,1427,540,0,0
210,484,0,0,0,0,0,0,0,0,0,-1,1434,540,0,0
217,484,0,0,0,0,0,0,0,0,0,-1,1441,540,0,0
224,484,0,0,0,0,0,0,0,0,0,-1,1448,540,0,0
231,484,0,0,0,0,0,0,0,0,0,-1,1455,540,0,0
238,484,0,0,0,0,0,0,0,0,0,-1,1462,540,0,0
245,484,0,0,0,0,0,0,0,0,0,-1,1469,540,0,0
252,484,0,0,0,0,0,0,0,0,0,-1,1476,540,0,0
259,484,0,0,0,0,0,0,0,0,0,-1,1483,540,0,0
266,484,0,0,0,0,0,0,0,0,0,-1,1490,540,0,0
273,484,0,0,0,0,0,0,0,0,0,-1,1497,540,0,0
280,484,0,0,0,0,0,0,0,0,0,-1,1504,540,0,0
287,484,0,0,0,0,0,0,0,0,0,-1,1511,540,0,0
294,484,0,0,0,0,0,0,0,0,0,-1,1518,540,0,0
301,484,0,0,0,0,0,0,0,0,0,-1,1525,540,0,0
308,484,0,0,0,0,0,0,0,0,0,-1,1532,540,0,0
315,484,0,0,0,0,0,0,0,0,0,-1,1539,540,0,0
322,484,0,0,0,0,0,0,0,0,0,-1,1546,540,0,0
329,484,0,0,0,0,0,0,0,0,0,-1,1553,540,0,0
336,484,4.38708,-1.64136,0,0,0,0,0,0,0,-1,1560,540,4.38704,1.64138
343,484,7.57996,-1.05457,0,0,0,0,0,0,0,-1,1567,540,7.57995,1.05454
350,484,8.10425,-1.18878,0,0,0,0,0,0,0,-1,1574,540,8.1043,1.18877
357,484,7.74902,-3.80286,0,0,0,0,0,0,0,-1,1581,540,7.74901,3.80287
364,484,6.31262,-3.87213,0,0,0,0,0,0,0,-1,1588,540,6.31263,3.87215
371,484,7.21008,0.973511,0,0,0,0,0,0,0,-1,1595,540,7.21014,-0.973541
378,484,11.0563,1.5014,0,0,0,0,0,0,0,-1,1602,540,11.0563,-1.5014
385,484,14.3469,2.5545,0,0,0,0,0,0,0,-1,1609,540,14.3469,-2.55453
392,484,7.39453,-4.95026,0,0,0,0,0,0,0,-1,1616,540,7.39448,4.95023
399,484,7.14417,-2.5639,0,0,0,0,0,0,0,-1,1623,540,7.14417,2.56391
406,484,7.88953,-2.47321,0,0,0,0,0,0,0,-1,1630,540,7.88954,2.47323
413,484,4.4895,-1.08673,0,0,0,0,0,0,0,-1,1637,540,4.48952,1.08674
420,484,4.50012,-2.11255,0,0,0,0,0,0,0,-1,1644,540,4.50012,2.11256
427,484,5.28601,-3.54053,0,0,0,0,0,0,0,-1,1651,540,5.28599,3.54051
434,484,8.57239,-8.77118,0,0,0,0,0,0,0,-1,1658,540,8.57243,8.77116
441,484,8.21082,-8.97284,0,0,0,0,0,0,0,-1,1665,540,8.21082,8.97283
448,484,8.16467,-8.66241,-0.00271823,-0.00290109,-0.00395053,0.00114193,-0.00676125,-0.773828,0.00493241,0.0377534,1672,540,8.16462,8.66243
455,484,8.11877,-8.43951,-0.00124625,-0.00156625,-0.00256588,0.00116462,-0.00397712,-0.75426,0.0031131,0.0201995,1679,540,8.11876,8.43953
462,484,8.14038,-8.16638,-0.000107952,-0.000603398,-0.00149373,0.00115846,-0.00186981,-0.703225,0.00176437,0.0148017,1686,540,8.14038,8.16636
469,484,8.15845,-7.87476,0.000584512,3.76978e-05,-0.000733072,0.0010935,-0.000471293,-0.606907,0.000926936,0.0156751,1693,540,8.1584,7.87477
476,484,8.15552,-7.54004,0.00110119,0.000434692,-0.000110413,0.001119,0.000416877,-0.159971,0.000653016,0.014808,1700,540,8.15547,7.54005
483,484,8.15759,-7.21259,0.00142184,0.000748904,0.000390183,0.0016006,0.000570151,0.429591,0.000936756,0.0119082,1707,540,8.15759,7.21257
490,484,8.1604,-6.91986,0.00140504,0.000932253,0.000694691,0.00190246,0.000434838,0.6214,0.00115107,0.0118642,1714,540,8.16038,6.91986
497,484,8.15039,-6.62109,0.000953669,0.000704364,0.000687861,0.00152808,0.000129952,0.695762,0.000978285,0.0140241,1721,540,8.15042,6.6211
504,484,8.14685,-6.28229,0.00033819,0.000496343,0.000565947,0.000988711,-0.000154178,0.854811,0.000716088,0.0168135,1728,540,8.1468,6.28226
511,484,8.14783,-5.92896,-0.000487003,0.000269954,0.000337129,0.000398331,-0.000615379,1.20696,0.000589721,0.0188575,1735,540,8.14785,5.92897
518,484,8.15515,-5.61176,-0.00147628,1.06462e-05,7.20274e-05,1.41271e-05,-0.00147977,1.52251,0.000991253,0.0154182,1742,540,8.1551,5.61176
525,484,8.14563,-5.29279,-0.00254498,-0.000166338,-0.000241062,-0.000142154,-0.00256917,-1.47081,0.00166742,0.0136224,1749,540,8.14558,5.29278
532,484,8.14404,-4.96466,-0.0036217,-0.000117362,-0.000512816,-4.38597e-05,-0.00369521,-1.42843,0.00244898,0.0156407,1756,540,8.14404,4.96468
539,484,8.09229,-4.57123,-0.00459733,0.000215265,-0.000652581,0.000302185,-0.00468425,-1.43838,0.00322828,0.0255382,1763,540,8.0923,4.57125
546,484,7.90039,-4.31451,-0.00544098,0.000935761,-0.000610118,0.000993611,-0.00549883,-1.47626,0.00403805,0.0284671,1770,540,7.90042,4.31452
553,484,7.88062,-3.77234,-0.00625794,0.00200124,-0.000446363,0.0020253,-0.006282,-1.51696,0.0050017,0.0426621,1777,540,7.88063,3.77236
560,484,7.91785,-3.23395,0,0,0,0,0,0,0,-1,1784,540,7.91786,3.23395
567,484,7.78223,-1.38312,0,0,0,0,0,0,0,-1,1791,540,7.78224,1.38311
574,484,5.74463,1.50922,0,0,0,0,0,0,0,-1,1798,540,5.74463,-1.50924
581,484,10.34,2.9491,0,0,0,0,0,0,0,-1,1805,540,10.34,-2.94912
588,484,10.6669,2.88568,0,0,0,0,0,0,0,-1,1812,540,10.6669,-2.88567
595,484,10.7233,1.04767,0,0,0,0,0,0,0,-1,1819,540,10.7233,-1.04766
602,484,0,0,0,0,0,0,0,0,0,-1,1826,540,0,0
609,484,0,0,0,0,0,0,0,0,0,-1,1833,540,0,0
616,484,0,0,0,0,0,0,0,0,0,-1,1840,540,0,0
623,484,0,0,0,0,0,0,0,0,0,-1,1847,540,0,0
630,484,0,0,0,0,0,0,0,0,0,-1,1854,540,0,0
637,484,0,0,0,0,0,0,0,0,0,-1,1861,540,0,0
644,484,0,0,0,0,0,0,0,0,0,-1,1868,540,0,0
651,484,0,0,0,0,0,0,0,0,0,-1,1875,540,0,0
658,484,0,0,0,0,0,0,0,0,0,-1,1882,540,0,0
665,484,0,0,0,0,0,0,0,0,0,-1,1889,540,0,0
672,484,0,0,0,0,0,0,0,0,0,-1,1896,540,0,0
679,484,0,0,0,0,0,0,0,0,0,-1,1903,540,0,0
686,484,0,0,0,0,0,0,0,0,0,-1,1910,540,0,0
693,484,0,0,0,0,0,0,0,0,0,-1,1917,540,0,0
700,484,0,0,0,0,0,0,0,0,0,-1,1924,540,0,0
707,484,0,0,0,0,0,0,0,0,0,-1,1931,540,0,0
714,484,0,0,0,0,0,0,0,0,0,-1,1938,540,0,0
721,484,0,0,0,0,0,0,0,0,0,-1,1945,540,0,0
728,484,0,0,0,0,0,0,0,0,0,-1,1952,540,0,0
735,484,0,0,0,0,0,0,0,0,0,-1,1959,540,0,0
742,484,0,0,0,0,0,0,0,0,0,-1,1966,540,0,0
749,484,0,0,0,0,0,0,0,0,0,-1,1973,540,0,0
756,484,0,0,0,0,0,0,0,0,0,-1,1980,540,0,0
763,484,0,0,0,0,0,0,0,0,0,-1,1987,540,0,0
770,484,0,0,0,0,0,0,0,0,0,-1,1994,540,0,0
777,484,0,0,0,0,0,0,0,0,0,-1,2001,540,0,0
784,484,0,0,0,0,0,0,0,0,0,-1,2008,540,0,0
791,484,0,0,0,0,0,0,0,0,0,-1,2015,540,0,0
798,484,0,0,0,0,0,0,0,0,0,-1,2022,540,0,0
805,484,0,0,0,0,0,0,0,0,0,-1,2029,540,0,0
812,484,0,0,0,0,0,0,0,0,0,-1,2036,540,0,0
-700,477,0,0,0,0,0,0,0,0,0,-1,524,547,0,0
-693,477,0,0,0,0,0,0,0,0,0,-1,531,547,0,0
-686,477,0,0,0,0,0,0,0,0,0,-1,538,547,0,0
-679,477,0,0,0,0,0,0,0,0,0,-1,545,547,0,0
-672,477,0,0,0,0,0,0,0,0,0,-1,552,547,0,0
-665,477,0,0,0,0,0,0,0,0,0,-1,559,547,0,0
-658,477,0,0,0,0,0,0,0,0,0,-1,566,547,0,0
-651,477,0,0,0,0,0,0,0,0,0,-1,573,547,0,0
-644,477,0,0,0,0,0,0,0,0,0,-1,580,547,0,0
-637,477,0,0,0,0,0,0,0,0,0,-1,587,547,0,0
-630,477,0,0,0,0,0,0,0,0,0,-1,594,547,0,0
-623,477,0,0,0,0,0,0,0,0,0,-1,601,547,0,0
-616,477,0,0,0,0,0,0,0,0,0,-1,608,547,0,0
-609,477,0,0,0,0,0,0,0,0,0,-1,615,547,0,0
-602,477,0,0,0,0,0,0,0,0,0,-1,622,547,0,0
-595,477,0,0,0,0,0,0,0,0,0,-1,629,547,0,0
-588,477,0,0,0,0,0,0,0,0,0,-1,636,547,0,0
-581,477,0,0,0,0,0,0,0,0,0,-1,643,547,0,0
-574,477,0,0,0,0,0,0,0,0,0,-1,650,547,0,0
-567,477,0,0,0,0,0,0,0,0,0,-1,657,547,0,0
-560,477,0,0,0,0,0,0,0,0,0,-1,664,547,0,0
-553,477,0,0,0,0,0,0,0,0,0,-1,671,547,0,0
-546,477,0,0,0,0,0,0,0,0,0,-1,678,547,0,0
-539,477,0,0,0,0,0,0,0,0,0,-1,685,547,0,0
-532,477,0,0,0,0,0,0,0,0,0,-1,692,547,0,0
-525,477,0,0,0,0,0,0,0,0,0,-1,699,547,0,0
-518,477,0,0,0,0,0,0,0,0,0,-1,706,547,0,0
-511,477,0,0,0,0,0,0,0,0,0,-1,713,547,0,0
-504,477,0,0,0,0,0,0,0,0,0,-1,720,547,0,0
-497,477,0,0,0,0,0,0,0,0,0,-1,727,547,0,0
-490,477,0,0,0,0,0,0,0,0,0,-1,734,547,0,0
-483,477,-7.73151,-0.224182,0,0,0,0,0,0,0,-1,741,547,-7.73152,0.224176
-476,477,-6.25806,-0.310547,0,0,0,0,0,0,0,-1,748,547,-6.25804,0.310549
-469,477,-7.26617,0.525085,0,0,0,0,0,0,0,-1,755,547,-7.2662,-0.525111
-462,477,-6.65143,1.06042,0,0,0,0,0,0,0,-1,762,547,-6.65143,-1.06043
-455,477,-5.31757,0.429016,0,0,0,0,0,0,0,-1,769,547,-5.31756,-0.42902
-448,477,-4.0697,0.273376,0,0,0,0,0,0,0,-1,776,547,-4.06971,-0.273363
-441,477,-2.47504,-4.76971,0,0,0,0,0,0,0,-1,783,547,-2.47505,4.76973
-434,477,-2.13635,-5.22351,-0.015665,0.00702023,-0.0198566,0.0185455,-0.0271903,-1.04489,0.0265624,0.0487555,790,547,-2.13636,5.22351
-427,477,-1.8053,-5.52161,-0.011672,0.00557648,-0.0157766,0.0149322,-0.0210277,-1.03553,0.0208607,0.0271078,797,547,-1.8053,5.5216
-420,477,-1.87012,-5.76129,-0.00846019,0.00429673,-0.0121676,0.0116564,-0.0158199,-1.02681,0.015924,0.022539,804,547,-1.87009,5.76127
-413,477,-1.8689,-6.18298,-0.00580907,0.0032111,-0.00920255,0.00894932,-0.0115473,-1.01324,0.0118654,0.0170802,811,547,-1.86888,6.18299
-406,477,-1.9021,-6.54059,-0.00376393,0.00209561,-0.00675594,0.00652969,-0.00819801,-0.989989,0.00852121,0.0112212,818,547,-1.9021,6.5406
-399,477,-1.89911,-6.88025,-0.00223847,0.0010339,-0.00469764,0.00437214,-0.00557672,-0.952978,0.00575799,0.0188051,825,547,-1.89912,6.88023
-392,477,-1.92767,-7.18378,-0.0010859,-0.000225934,-0.00299078,0.00236561,-0.00367745,-0.856794,0.00351626,0.0180692,832,547,-1.9277,7.18376
-385,477,-1.91394,-7.46625,-0.000118458,-0.0014663,-0.00162226,0.00096429,-0.00254905,-0.588533,0.00209609,0.0151179,839,547,-1.91395,7.46626
-378,477,-1.92047,-7.79211,0.000766492,-0.0025774,-0.000318081,0.00079648,-0.00260739,-0.0939998,0.00205584,0.0126442,846,547,-1.92046,7.79208
-371,477,-1.92731,-8.07092,0.0014617,-0.00405165,0.000547002,0.00151545,-0.0041054,0.0979418,0.00335807,0.0123722,853,547,-1.92733,8.07093
-364,477,-1.9364,-8.3493,0.00194686,-0.00545199,0.0010973,0.00210617,-0.0056113,0.144173,0.00460632,0.0127159,860,547,-1.93642,8.3493
-357,477,-1.93115,-8.66522,0.00258946,-0.00689019,0.00158015,0.00284591,-0.00714665,0.160895,0.00594465,0.0104155,867,547,-1.93117,8.66525
-350,477,-1.94617,-8.96368,0.00341405,-0.00838899,0.0019423,0.00372545,-0.0087004,0.158976,0.00736324,0.00991549,874,547,-1.94618,8.96368
-343,477,-1.88452,-9.27411,0.00428597,-0.0100766,0.00223522,0.00462579,-0.0104164,0.150876,0.00889652,0.0180353,881,547,-1.88454,9.2741
-336,477,-1.79517,-9.573,0.00521381,-0.0117494,0.00245685,0.00556248,-0.0120981,0.140975,0.0104265,0.0287182,888,547,-1.79514,9.57298
-329,477,-1.67151,-9.85626,0,0,0,0,0,0,0,-1,895,547,-1.67153,9.85628
-322,477,-1.71582,-10.4543,0,0,0,0,0,0,0,-1,902,547,-1.71584,10.4544
-315,477,-1.67358,-9.15253,0,0,0,0,0,0,0,-1,909,547,-1.67356,9.15253
-308,477,-1.30127,-6.55188,0,0,0,0,0,0,0,-1,916,547,-1.30128,6.55185
-301,477,-1.21185,-6.28351,0,0,0,0,0,0,0,-1,923,547,-1.21184,6.28352
-294,477,-0.352905,3.27142,0,0,0,0,0,0,0,-1,930,547,-0.35292,-3.27144
-287,477,3.54364,2.15399,0,0,0,0,0,0,0,-1,937,547,3.54362,-2.15396
-280,477,1.97308,-0.954163,0,0,0,0,0,0,0,-1,944,547,1.9731,0.954178
-273,477,2.11621,-3.76709,0,0,0,0,0,0,0,-1,951,547,2.11619,3.76706
-266,477,2.04669,-3.42389,0,0,0,0,0,0,0,-1,958,547,2.04671,3.42391
-259,477,-1.33478,-3.41205,0,0,0,0,0,0,0,-1,965,547,-1.3348,3.41206
-252,477,0.597168,-5.32922,0,0,0,0,0,0,0,-1,972,547,0.597144,5.32924
-245,477,8.2309,-8.48492,0,0,0,0,0,0,0,-1,979,547,8.23091,8.48494
-238,477,6.60938,-5.64063,0,0,0,0,0,0,0,-1,986,547,6.60938,5.64063
-231,477,4.71716,-2.52484,0,0,0,0,0,0,0,-1,993,547,4.71716,2.52483
-224,477,0,0,0,0,0,0,0,0,0,-1,1000,547,0,0
-217,477,0,0,0,0,0,0,0,0,0,-1,1007,547,0,0
-210,477,0,0,0,0,0,0,0,0,0,-1,1014,547,0,0
-203,477,0,0,0,0,0,0,0,0,0,-1,1021,547,0,0
-196,477,0,0,0,0,0,0,0,0,0,-1,1028,547,0,0
-189,477,0,0,0,0,0,0,0,0,0,-1,1035,547,0,0
-182,477,0,0,0,0,0,0,0,0,0,-1,1042,547,0,0
-175,477,0,0,0,0,0,0,0,0,0,-1,1049,547,0,0
-168,477,0,0,0,0,0,0,0,0,0,-1,1056,547,0,0
-161,477,0,0,0,0,0,0,0,0,0,-1,1063,547,0,0
-154,477,0,0,0,0,0,0,0,0,0,-1,1070,547,0,0
-147,477,0,0,0,0,0,0,0,0,0,-1,1077,547,0,0
-140,477,0,0,0,0,0,0,0,0,0,-1,1084,547,0,0
-133,477,0,0,0,0,0,0,0,0,0,-1,1091,547,0,0
-126,477,0,0,0,0,0,0,0,0,0,-1,1098,547,0,0
-119,477,0,0,0,0,0,0,0,0,0,-1,1105,547,0,0
-112,477,0,0,0,0,0,0,0,0,0,-1,1112,547,0,0
-105,477,0,0,0,0,0,0,0,0,0,-1,1119,547,0,0
-98,477,0,0,0,0,0,0,0,0,0,-1,1126,547,0,0
-91,477,0,0,0,0,0,0,0,0,0,-1,1133,547,0,0
-84,477,0,0,0,0,0,0,0,0,0,-1,1140,547,0,0
-77,477,0,0,0,0,0,0,0,0,0,-1,1147,547,0,0
-70,477,0,0,0,0,0,0,0,0,0,-1,1154,547,0,0
-63,477,0,0,0,0,0,0,0,0,0,-1,1161,547,0,0
-56,477,0,0,0,0,0,0,0,0,0,-1,1168,547,0,0
-49,477,0,0,0,0,0,0,0,0,0,-1,1175,547,0,0
-42,477,0,0,0,0,0,0,0,0,0,-1,1182,547,0,0
-35,477,0,0,0,0,0,0,0,0,0,-1,1189,547,0,0
-28,477,0,0,0,0,0,0,0,0,0,-1,1196,547,0,0
-21,477,0,0,0,0,0,0,0,0,0,-1,1203,547,0,0
-14,477,0,0,0,0,0,0,0,0,0,-1,1210,547,0,0
-7,477,0,0,0,0,0,0,0,0,0,-1,1217,547,0,0
0,477,0,0,0,0,0,0,0,0,0,-1,1224,547,0,0
7,477,0,0,0,0,0,0,0,0,0,-1,1231,547,0,0
14,477,0,0,0,0,0,0,0,0,0,-1,1238,547,0,0
21,477,0,0,0,0,0,0,0,0,0,-1,1245,547,0,0
28,477,0,0,0,0,0,0,0,0,0,-1,1252,547,0,0
35,477,0,0,0,0,0,0,0,0,0,-1,1259,547,0,0
42,477,0,0,0,0,0,0,0,0,0,-1,1266,547,0,0
49,477,0,0,0,0,0,0,0,0,0,-1,1273,547,0,0
56,477,0,0,0,0,0,0,0,0,0,-1,1280,547,0,0
63,477,0,0,0,0,0,0,0,0,0,-1,1287,547,0,0
70,477,0,0,0,0,0,0,0,0,0,-1,1294,547,0,0
77,477,0,0,0,0,0,0,0,0,0,-1,1301,547,0,0
84,477,0,0,0,0,0,0,0,0,0,-1,1308,547,0,0
91,477,0,0,0,0,0,0,0,0,0,-1,1315,547,0,0
98,477,0,0,0,0,0,0,0,0,0,-1,1322,547,0,0
105,477,0,0,0,0,0,0,0,0,0,-1,1329,547,0,0
112,477,0,0,0,0,0,0,0,0,0,-1,1336,547,0,0
119,477,0,0,0,0,0,0,0,0,0,-1,1343,547,0,0
126,477,0,0,0,0,0,0,0,0,0,-1,1350,547,0,0
133,477,0,0,0,0,0,0,0,0,0,-1,1357,547,0,0
140,477,0,0,0,0,0,0,0,0,0,-1,1364,547,0,0
147,477,0,0,0,0,0,0,0,0,0,-1,1371,547,0,0
154,477,0,0,0,0,0,0,0,0,0,-1,1378,547,0,0
161,477,0,0,0,0,0,0,0,0,0,-1,1385,547,0,0
168,477,0,0,0,0,0,0,0,0,0,-1,1392,547,0,0
175,477,0,0,0,0,0,0,0,0,0,-1,1399,547,0,0
182,477,0,0,0,0,0,0,0,0,0,-1,1406,547,0,0
189,477,0,0,0,0,0,0,0,0,0,-1,1413,547,0,0
196,477,0,0,0,0,0,0,0,0,0,-1,1420,547,0,0
203,477,0,0,0,0,0,0,0,0,0,-1,1427,547,0,0
210,477,0,0,0,0,0,0,0,0,0,-1,1434,547,0,0
217,477,0,0,0,0,0,0,0,0,0,-1,1441,547,0,0
224,477,0,0,0,0,0,0,0,0,0,-1,1448,547,0,0
231,477,0,0,0,0,0,0,0,0,0,-1,1455,547,0,0
238,477,0,0,0,0,0,0,0,0,0,-1,1462,547,0,0
245,477,0,0,0,0,0,0,0,0,0,-1,1469,547,0,0
252,477,0,0,0,0,0,0,0,0,0,-1,1476,547,0,0
259,477,0,0,0,0,0,0,0,0,0,-1,1483,547,0,0
266,477,0,0,0,0,0,0,0,0,0,-1,1490,547,0,0
273,477,0,0,0,0,0,0,0,0,0,-1,1497,547,0,0
280,477,0,0,0,0,0,0,0,0,0,-1,1504,547,0,0
287,477,0,0,0,0,0,0,0,0,0,-1,1511,547,0,0
294,477,0,0,0,0,0,0,0,0,0,-1,1518,547,0,0
301,477,0,0,0,0,0,0,0,0,0,-1,1525,547,0,0
308,477,0,0,0,0,0,0,0,0,0,-1,1532,547,0,0
315,477,0,0,0,0,0,0,0,0,0,-1,1539,547,0,0
322,477,0,0,0,0,0,0,0,0,0,-1,1546,547,0,0
329,477,0,0,0,0,0,0,0,0,0,-1,1553,547,0,0
336,477,0,0,0,0,0,0,0,0,0,-1,1560,547,0,0
343,477,0,0,0,0,0,0,0,0,0,-1,1567,547,0,0
350,477,1.7699,-3.32275,0,0,0,0,0,0,0,-1,1574,547,1.7699,3.32272
357,477,3.073,-4.83313,0,0,0,0,0,0,0,-1,1581,547,3.07303,4.83316
364,477,4.30127,-4.22864,0,0,0,0,0,0,0,-1,1588,547,4.30125,4.22865
371,477,4.57703,0.283264,0,0,0,0,0,0,0,-1,1595,547,4.57706,-0.283262
378,477,8.57947,1.05969,0,0,0,0,0,0,0,-1,1602,547,8.5795,-1.05972
385,477,12.3726,2.02356,0,0,0,0,0,0,0,-1,1609,547,12.3725,-2.02355
392,477,16.4678,2.76843,0,0,0,0,0,0,0,-1,1616,547,16.4678,-2.76845
399,477,8.00037,-2.29523,0,0,0,0,0,0,0,-1,1623,547,8.00031,2.2952
406,477,4.82495,2.7475,0,0,0,0,0,0,0,-1,1630,547,4.825,-2.74752
413,477,4.88171,-0.336426,0,0,0,0,0,0,0,-1,1637,547,4.88169,0.336398
420,477,3.34875,0.102722,0,0,0,0,0,0,0,-1,1644,547,3.34871,-0.1027
427,477,1.66772,-0.373108,0,0,0,0,0,0,0,-1,1651,547,1.66768,0.373104
434,477,3.76978,-2.30798,0,0,0,0,0,0,0,-1,1658,547,3.76974,2.30801
441,477,4.05444,-2.80402,0,0,0,0,0,0,0,-1,1665,547,4.05444,2.804
448,477,8.49792,-8.59692,0,0,0,0,0,0,0,-1,1672,547,8.49792,8.59692
455,477,8.39014,-8.39642,0,0,0,0,0,0,0,-1,1679,547,8.39009,8.39643
462,477,8.49377,-8.21423,0.0002483,-0.000500039,-0.00150827,0.00142812,-0.00167985,-0.663813,0.00179635,0.041009,1686,547,8.49375,8.21422
469,477,8.47864,-7.84167,0.00104453,0.000314771,-0.000634037,0.00141119,-5.18811e-05,-0.524297,0.000958553,0.0252175,1693,547,8.47863,7.8417
476,477,8.47583,-7.526,0.00170846,0.000845816,0.00012664,0.00172667,0.000827609,0.142791,0.000997179,0.0178956,1700,547,8.47587,7.52602
483,477,8.49353,-7.22479,0.00212373,0.00124265,0.000743676,0.00254755,0.000818823,0.518,0.00150178,0.0118437,1707,547,8.4935,7.2248
490,477,8.47522,-6.92804,0.00217603,0.0015385,0.00109097,0.00299385,0.000720678,0.643261,0.0018043,0.011247,1714,547,8.47524,6.92805
497,477,8.46216,-6.58777,0.00174944,0.00128427,0.00106529,0.00260724,0.00042647,0.67792,0.00161488,0.0128397,1721,547,8.46214,6.58777
504,477,8.45361,-6.24908,0.00113915,0.0010435,0.000929434,0.00202199,0.000160661,0.759692,0.00129776,0.0178834,1728,547,8.45365,6.24906
511,477,8.5238,-5.94238,0.000332624,0.000764584,0.000683567,0.00126548,-0.000168272,0.938415,0.000904974,0.0221391,1735,547,8.52385,5.94237
518,477,8.48816,-5.57153,-0.000611683,0.000462396,0.000398248,0.000593947,-0.000743234,1.25176,0.000773624,0.0195282,1742,547,8.48813,5.5715
525,477,8.44067,-5.25751,-0.00160953,0.000242647,6.03339e-05,0.00024461,-0.00161149,1.53827,0.00116446,0.0170465,1749,547,8.44066,5.25753
532,477,8.43555,-4.98895,-0.00260203,0.000225641,-0.000241883,0.000246182,-0.00262258,-1.48608,0.00183595,0.0203793,1756,547,8.43558,4.98892
539,477,8.39331,-4.53503,-0.00349021,0.000373307,-0.000439663,0.000422708,-0.00353962,-1.4589,0.00251253,0.0172555,1763,547,8.39327,4.53502
546,477,8.3512,-4.23145,-0.00423179,0.000959543,-0.000426913,0.000994416,-0.00426666,-1.48929,0.00322739,0.0226898,1770,547,8.35124,4.23144
553,477,8.35205,-3.90503,-0.00492075,0.00175487,-0.00034247,0.0017724,-0.00493827,-1.51967,0.00401556,0.0267921,1777,547,8.35211,3.90502
560,477,8.29956,-3.4046,-0.00537813,0.00282749,-4.70865e-05,0.00282776,-0.0053784,-1.56506,0.00481351,0.0452679,1784,547,8.29954,3.4046
567,477,8.32483,-2.93958,0,0,0,0,0,0,0,-1,1791,547,8.32479,2.93955
574,477,6.82593,-0.916992,0,0,0,0,0,0,0,-1,1798,547,6.82598,0.916977
581,477,9.29321,-0.557007,0,0,0,0,0,0,0,-1,1805,547,9.29324,0.55703
588,477,9.75195,0.422729,0,0,0,0,0,0,0,-1,1812,547,9.75198,-0.42273
595,477,9.89172,1.21326,0,0,0,0,0,0,0,-1,1819,547,9.89174,-1.21328
602,477,6.5271,-0.964417,0,0,0,0,0,0,0,-1,1826,547,6.52706,0.964427
609,477,0,0,0,0,0,0,0,0,0,-1,1833,547,0,0
616,477,0,0,0,0,0,0,0,0,0,-1,1840,547,0,0
623,477,0,0,0,0,0,0,0,0,0,-1,1847,547,0,0
630,477,0,0,0,0,0,0,0,0,0,-1,1854,547,0,0
637,477,0,0,0,0,0,0,0,0,0,-1,1861,547,0,0
644,477,0,0,0,0,0,0,0,0,0,-1,1868,547,0,0
651,477,0,0,0,0,0,0,0,0,0,-1,1875,547,0,0
658,477,0,0,0,0,0,0,0,0,0,-1,1882,547,0,0
665,477,0,0,0,0,0,0,0,0,0,-1,1889,547,0,0
672,477,0,0,0,0,0,0,0,0,0,-1,1896,547,0,0
679,477,0,0,0,0,0,0,0,0,0,-1,1903,547,0,0
686,477,0,0,0,0,0,0,0,0,0,-1,1910,547,0,0
693,477,0,0,0,0,0,0,0,0,0,-1,1917,547,0,0
700,477,0,0,0,0,0,0,0,0,0,-1,1924,547,0,0
707,477,0,0,0,0,0,0,0,0,0,-1,1931,547,0,0
714,477,0,0,0,0,0,0,0,0,0,-1,1938,547,0,0
721,477,0,0,0,0,0,0,0,0,0,-1,1945,547,0,0
728,477,0,0,0,0,0,0,0,0,0,-1,1952,547,0,0
735,477,0,0,0,0,0,0,0,0,0,-1,1959,547,0,0
742,477,0,0,0,0,0,0,0,0,0,-1,1966,547,0,0
749,477,0,0,0,0,0,0,0,0,0,-1,1973,547,0,0
756,477,0,0,0,0,0,0,0,0,0,-1,1980,547,0,0
763,477,0,0,0,0,0,0,0,0,0,-1,1987,547,0,0
770,477,0,0,0,0,0,0,0,0,0,-1,1994,547,0,0
777,477,0,0,0,0,0,0,0,0,0,-1,2001,547,0,0
784,477,0,0,0,0,0,0,0,0,0,-1,2008,547,0,0
791,477,0,0,0,0,0,0,0,0,0,-1,2015,547,0,0
798,477,0,0,0,0,0,0,0,0,0,-1,2022,547,0,0
805,477,0,0,0,0,0,0,0,0,0,-1,2029,547,0,0
812,477,0,0,0,0,0,0,0,0,0,-1,2036,547,0,0
-700,470,0,0,0,0,0,0,0,0,0,-1,524,554,0,0
-693,470,0,0,0,0,0,0,0,0,0,-1,531,554,0,0
-686,470,0,0,0,0,0,0,0,0,0,-1,538,554,0,0
-679,470,0,0,0,0,0,0,0,0,0,-1,545,554,0,0
-672,470,0,0,0,0,0,0,0,0,0,-1,552,554,0,0
-665,470,0,0,0,0,0,0,0,0,0,-1,559,554,0,0
-658,470,0,0,0,0,0,0,0,0,0,-1,566,554,0,0
-651,470,0,0,0,0,0,0,0,0,0,-1,573,554,0,0
-644,470,0,0,0,0,0,0,0,0,0,-1,580,554,0,0
-637,470,0,0,0,0,0,0,0,0,0,-1,587,554,0,0
-630,470,0,0,0,0,0,0,0,0,0,-1,594,554,0,0
-623,470,0,0,0,0,0,0,0,0,0,-1,601,554,0,0
-616,470,0,0,0,0,0,0,0,0,0,-1,608,554,0,0
-609,470,0,0,0,0,0,0,0,0,0,-1,615,554,0,0
-602,470,0,0,0,0,0,0,0,0,0,-1,622,554,0,0
-595,470,0,0,0,0,0,0,0,0,0,-1,629,554,0,0
-588,470,0,0,0,0,0,0,0,0,0,-1,636,554,0,0
-581,470,0,0,0,0,0,0,0,0,0,-1,643,554,0,0
-574,470,0,0,0,0,0,0,0,0,0,-1,650,554,0,0
-567,470,0,0,0,0,0,0,0,0,0,-1,657,554,0,0
-560,470,0,0,0,0,0,0,0,0,0,-1,664,554,0,0
-553,470,0,0,0,0,0,0,0,0,0,-1,671,554,0,0
-546,470,0,0,0,0,0,0,0,0,0,-1,678,554,0,0
-539,470,0,0,0,0,0,0,0,0,0,-1,685,554,0,0
-532,470,0,0,0,0,0,0,0,0,0,-1,692,554,0,0
-525,470,0,0,0,0,0,0,0,0,0,-1,699,554,0,0
-518,470,0,0,0,0,0,0,0,0,0,-1,706,554,0,0
-511,470,0,0,0,0,0,0,0,0,0,-1,713,554,0,0
-504,470,0,0,0,0,0,0,0,0,0,-1,720,554,0,0
-497,470,0,0,0,0,0,0,0,0,0,-1,727,554,0,0
-490,470,-9.13263,-1.03125,0,0,0,0,0,0,0,-1,734,554,-9.1326,1.03127
-483,470,-7.68677,-1.03955,0,0,0,0,0,0,0,-1,741,554,-7.68678,1.03958
-476,470,-6.17969,-1.03394,0,0,0,0,0,0,0,-1,748,554,-6.17971,1.03395
-469,470,-6.23016,-0.651855,0,0,0,0,0,0,0,-1,755,554,-6.23014,0.651829
-462,470,-4.87915,-1.03705,0,0,0,0,0,0,0,-1,762,554,-4.87914,1.03702
-455,470,-3.55457,-1.53186,0,0,0,0,0,0,0,-1,769,554,-3.55456,1.53187
-448,470,-2.03723,-3.90936,0,0,0,0,0,0,0,-1,776,554,-2.03724,3.90939
-441,470,-2.03693,-4.86926,0,0,0,0,0,0,0,-1,783,554,-2.0369,4.86924
-434,470,-2.06549,-5.27008,-0.00977539,0.0065599,-0.0143915,0.01494,-0.0181555,-1.0435,0.0191377,0.0300991,790,554,-2.06551,5.27007
-427,470,-2.18146,-5.5661,-0.00744102,0.00510939,-0.011365,0.0118165,-0.0141481,-1.03765,0.0150108,0.0147362,797,554,-2.18145,5.5661
-420,470,-2.16754,-5.90259,-0.00553955,0.00381342,-0.00865299,0.00897278,-0.0106989,-1.03314,0.011372,0.013353,804,554,-2.16752,5.90261
-413,470,-2.19025,-6.24713,-0.00390006,0.00270348,-0.00644437,0.00664268,-0.00783925,-1.02214,0.00837065,0.0131968,811,554,-2.19027,6.2471
-406,470,-2.22083,-6.54022,-0.00255966,0.00155186,-0.00457196,0.00450898,-0.00551678,-0.996678,0.00579812,0.00992764,818,554,-2.22083,6.54024
-399,470,-2.21497,-6.86279,-0.00156099,0.000367203,-0.00292517,0.00248306,-0.00367685,-0.944585,0.00357862,0.0135733,825,554,-2.215,6.86276
-392,470,-2.21552,-7.18341,-0.000769687,-0.00110819,-0.00148054,0.000551243,-0.00242912,-0.728487,0.00183103,0.0144124,832,554,-2.21553,7.18341
-385,470,-2.20941,-7.46344,-1.50776e-05,-0.00263624,-0.000280552,1.46144e-05,-0.00266594,-0.105442,0.00178218,0.0117079,839,554,-2.20944,7.46344
-378,470,-2.20471,-7.77692,0.000639824,-0.00412528,0.000854919,0.000788564,-0.00427402,0.172257,0.00314533,0.0152878,846,554,-2.2047,7.7769
-371,470,-2.22693,-8.05096,0.00123756,-0.0058792,0.0016191,0.0015886,-0.00623024,0.213506,0.004772,0.0125087,853,554,-2.22691,8.05096
-364,470,-2.23798,-8.33093,0.00182824,-0.00774614,0.00224598,0.00232893,-0.00824683,0.219338,0.00641665,0.0131532,860,554,-2.23799,8.33096
-357,470,-2.23792,-8.6322,0.00267608,-0.00978,0.00278923,0.00327214,-0.0103761,0.210533,0.0082279,0.0131463,867,554,-2.23794,8.63221
-350,470,-2.21393,-8.95367,0.00374598,-0.0119299,0.00324685,0.00439187,-0.0125758,0.196364,0.010169,0.0101534,874,554,-2.21393,8.95367
-343,470,-2.10974,-9.25482,0.00490448,-0.014458,0.0036568,0.00557209,-0.0151256,0.180577,0.0123668,0.0252631,881,554,-2.10975,9.25483
-336,470,-1.95679,-9.60498,0,0,0,0,0,0,0,-1,888,554,-1.95676,9.60498
-329,470,-2.08862,-9.10834,0,0,0,0,0,0,0,-1,895,554,-2.0886,9.10836
-322,470,-1.94629,-9.47327,0,0,0,0,0,0,0,-1,902,554,-1.94628,9.47329
-315,470,-1.04797,-8.29529,0,0,0,0,0,0,0,-1,909,554,-1.04797,8.29526
-308,470,-1.39368,-6.68152,0,0,0,0,0,0,0,-1,916,554,-1.39369,6.68149
-301,470,-0.0340576,3.34888,0,0,0,0,0,0,0,-1,923,554,-0.0340496,-3.3489
-294,470,-1.18378,3.22266,0,0,0,0,0,0,0,-1,930,554,-1.18376,-3.22268
-287,470,-2.15454,3.2204,0,0,0,0,0,0,0,-1,937,554,-2.15452,-3.22037
-280,470,-3.00537,3.099,0,0,0,0,0,0,0,-1,944,554,-3.00536,-3.09898
-273,470,-12.3932,3.65009,0,0,0,0,0,0,0,-1,951,554,-12.3932,-3.65011
-266,470,-11.5706,1.16028,0,0,0,0,0,0,0,-1,958,554,-11.5706,-1.16031
-259,470,-7.50415,-2.77167,0,0,0,0,0,0,0,-1,965,554,-7.50413,2.7717
-252,470,-0.144348,-5.13593,0,0,0,0,0,0,0,-1,972,554,-0.144336,5.13594
-245,470,1.33221,-6.81122,0,0,0,0,0,0,0,-1,979,554,1.33223,6.8112
-238,470,0,0,0,0,0,0,0,0,0,-1,986,554,0,0
-231,470,0,0,0,0,0,0,0,0,0,-1,993,554,0,0
-224,470,0,0,0,0,0,0,0,0,0,-1,1000,554,0,0
-217,470,0,0,0,0,0,0,0,0,0,-1,1007,554,0,0
-210,470,0,0,0,0,0,0,0,0,0,-1,1014,554,0,0
-203,470,0,0,0,0,0,0,0,0,0,-1,1021,554,0,0
-196,470,0,0,0,0,0,0,0,0,0,-1,1028,554,0,0
-189,470,0,0,0,0,0,0,0,0,0,-1,1035,554,0,0
-182,470,0,0,0,0,0,0,0,0,0,-1,1042,554,0,0
-175,470,0,0,0,0,0,0,0,0,0,-1,1049,554,0,0
-168,470,0,0,0,0,0,0,0,0,0,-1,1056,554,0,0
-161,470,0,0,0,0,0,0,0,0,0,-1,1063,554,0,0
-154,470,0,0,0,0,0,0,0,0,0,-1,1070,554,0,0
-147,470,0,0,0,0,0,0,0,0,0,-1,1077,554,0,0
-140,470,0,0,0,0,0,0,0,0,0,-1,1084,554,0,0
-133,470,0,0,0,0,0,0,0,0,0,-1,1091,554,0,0
-126,470,0,0,0,0,0,0,0,0,0,-1,1098,554,0,0
-119,470,0,0,0,0,0,0,0,0,0,-1,1105,554,0,0
-112,470,0,0,0,0,0,0,0,0,0,-1,1112,554,0,0
-105,470,0,0,0,0,0,0,0,0,0,-1,1119,554,0,0
-98,470,0,0,0,0,0,0,0,0,0,-1,1126,554,0,0
-91,470,0,0,0,0,0,0,0,0,0,-1,1133,554,0,0
-84,470,0,0,0,0,0,0,0,0,0,-1,1140,554,0,0
-77,470,0,0,0,0,0,0,0,0,0,-1,1147,554,0,0
-70,470,0,0,0,0,0,0,0,0,0,-1,1154,554,0,0
-63,470,0,0,0,0,0,0,0,0,0,-1,1161,554,0,0
-56,470,0,0,0,0,0,0,0,0,0,-1,1168,554,0,0
-49,470,0,0,0,0,0,0,0,0,0,-1,1175,554,0,0
-42,470,0,0,0,0,0,0,0,0,0,-1,1182,554,0,0
-35,470,0,0,0,0,0,0,0,0,0,-1,1189,554,0,0
-28,470,0,0,0,0,0,0,0,0,0,-1,1196,554,0,0
-21,470,0,0,0,0,0,0,0,0,0,-1,1203,554,0,0
-14,470,0,0,0,0,0,0,0,0,0,-1,1210,554,0,0
-7,470,0,0,0,0,0,0,0,0,0,-1,1217,554,0,0
0,470,0,0,0,0,0,0,0,0,0,-1,1224,554,0,0
7,470,0,0,0,0,0,0,0,0,0,-1,1231,554,0,0
14,470,0,0,0,0,0,0,0,0,0,-1,1238,554,0,0
21,470,0,0,0,0,0,0,0,0,0,-1,1245,554,0,0
28,470,0,0,0,0,0,0,0,0,0,-1,1252,554,0,0
35,470,0,0,0,0,0,0,0,0,0,-1,1259,554,0,0
42,470,0,0,0,0,0,0,0,0,0,-1,1266,554,0,0
49,470,0,0,0,0,0,0,0,0,0,-1,1273,554,0,0
56,470,0,0,0,0,0,0,0,0,0,-1,1280,554,0,0
63,470,0,0,0,0,0,0,0,0,0,-1,1287,554,0,0
70,470,0,0,0,0,0,0,0,0,0,-1,1294,554,0,0
77,470,0,0,0,0,0,0,0,0,0,-1,1301,554,0,0
84,470,0,0,0,0,0,0,0,0,0,-1,1308,554,0,0
91,470,0,0,0,0,0,0,0,0,0,-1,1315,554,0,0
98,470,0,0,0,0,0,0,0,0,0,-1,1322,554,0,0
105,470,0,0,0,0,0,0,0,0,0,-1,1329,554,0,0
112,470,0,0,0,0,0,0,0,0,0,-1,1336,554,0,0
119,470,0,0,0,0,0,0,0,0,0,-1,1343,554,0,0
126,470,0,0,0,0,0,0,0,0,0,-1,1350,554,0,0
133,470,0,0,0,0,0,0,0,0,0,-1,1357,554,0,0
140,470,0,0,0,0,0,0,0,0,0,-1,1364,554,0,0
147,470,0,0,0,0,0,0,0,0,0,-1,1371,554,0,0
154,470,0,0,0,0,0,0,0,0,0,-1,1378,554,0,0
161,470,0,0,0,0,0,0,0,0,0,-1,1385,554,0,0
168,470,0,0,0,0,0,0,0,0,0,-1,1392,554,0,0
175,470,0,0,0,0,0,0,0,0,0,-1,1399,554,0,0
182,470,0,0,0,0,0,0,0,0,0,-1,1406,554,0,0
189,470,0,0,0,0,0,0,0,0,0,-1,1413,554,0,0
196,470,0,0,0,0,0,0,0,0,0,-1,1420,554,0,0
203,470,0,0,0,0,0,0,0,0,0,-1,1427,554,0,0
210,470,0,0,0,0,0,0,0,0,0,-1,1434,554,0,0
217,470,0,0,0,0,0,0,0,0,0,-1,1441,554,0,0
224,470,0,0,0,0,0,0,0,0,0,-1,1448,554,0,0
231,470,0,0,0,0,0,0,0,0,0,-1,1455,554,0,0
238,470,0,0,0,0,0,0,0,0,0,-1,1462,554,0,0
245,470,0,0,0,0,0,0,0,0,0,-1,1469,554,0,0
252,470,0,0,0,0,0,0,0,0,0,-1,1476,554,0,0
259,470,0,0,0,0,0,0,0,0,0,-1,1483,554,0,0
266,470,0,0,0,0,0,0,0,0,0,-1,1490,554,0,0
273,470,0,0,0,0,0,0,0,0,0,-1,1497,554,0,0
280,470,0,0,0,0,0,0,0,0,0,-1,1504,554,0,0
287,470,0,0,0,0,0,0,0,0,0,-1,1511,554,0,0
294,470,0,0,0,0,0,0,0,0,0,-1,1518,554,0,0
301,470,0,0,0,0,0,0,0,0,0,-1,1525,554,0,0
308,470,0,0,0,0,0,0,0,0,0,-1,1532,554,0,0
315,470,0,0,0,0,0,0,0,0,0,-1,1539,554,0,0
322,470,0,0,0,0,0,0,0,0,0,-1,1546,554,0,0
329,470,0,0,0,0,0,0,0,0,0,-1,1553,554,0,0
336,470,0,0,0,0,0,0,0,0,0,-1,1560,554,0,0
343,470,0,0,0,0,0,0,0,0,0,-1,1567,554,0,0
350,470,0,0,0,0,0,0,0,0,0,-1,1574,554,0,0
357,470,0,0,0,0,0,0,0,0,0,-1,1581,554,0,0
364,470,1.33423,0.293335,0,0,0,0,0,0,0,-1,1588,554,1.33422,-0.293348
371,470,2.22498,-0.0305176,0,0,0,0,0,0,0,-1,1595,554,2.22494,0.0305046
378,470,6.27051,0.710083,0,0,0,0,0,0,0,-1,1602,554,6.27054,-0.710093
385,470,10.3657,1.47296,0,0,0,0,0,0,0,-1,1609,554,10.3657,-1.47299
392,470,15.3881,3.01935,0,0,0,0,0,0,0,-1,1616,554,15.388,-3.01937
399,470,18.4479,2.93793,0,0,0,0,0,0,0,-1,1623,554,18.4479,-2.93792
406,470,15.1896,1.36676,0,0,0,0,0,0,0,-1,1630,554,15.1896,-1.36679
413,470,6.55383,1.99207,0,0,0,0,0,0,0,-1,1637,554,6.5538,-1.99208
420,470,4.47095,0.845703,0,0,0,0,0,0,0,-1,1644,554,4.47098,-0.845718
427,470,3.51038,1.19684,0,0,0,0,0,0,0,-1,1651,554,3.51039,-1.19684
434,470,3.31775,-1.37427,0,0,0,0,0,0,0,-1,1658,554,3.31781,1.37426
441,470,2.55457,-2.05902,0,0,0,0,0,0,0,-1,1665,554,2.55461,2.05904
448,470,3.27258,-2.64032,0,0,0,0,0,0,0,-1,1672,554,3.27257,2.64029
455,470,9.25012,-8.28564,0,0,0,0,0,0,0,-1,1679,554,9.25016,8.28566
462,470,8.88452,-8.19672,0,0,0,0,0,0,0,-1,1686,554,8.88458,8.19674
469,470,8.67297,-7.93774,0,0,0,0,0,0,0,-1,1693,554,8.67294,7.93777
476,470,8.72986,-7.51898,0.00280448,0.00142684,0.000755061,0.00313771,0.00109361,0.415623,0.00183905,0.0338283,1700,554,8.72985,7.51901
483,470,8.81079,-7.2254,0.00331195,0.00185656,0.00145211,0.0042085,0.000960013,0.553124,0.00254671,0.0151161,1707,554,8.81083,7.22538
490,470,8.78735,-6.93628,0.00338516,0.00223563,0.00176756,0.00466905,0.000951736,0.628204,0.00284895,0.0121138,1714,554,8.78735,6.93628
497,470,8.79382,-6.60028,0.00288708,0.00189943,0.00164197,0.00410788,0.000678634,0.639325,0.00254274,0.0122534,1721,554,8.79377,6.6003
504,470,8.80933,-6.26923,0.00217122,0.00157876,0.00141746,0.00332307,0.000426909,0.682388,0.00208768,0.0190561,1728,554,8.80936,6.26921
511,470,8.8916,-5.99591,0.00128112,0.00121404,0.00109082,0.00233892,0.000156249,0.77003,0.00150989,0.0269226,1735,554,8.89158,5.99588
518,470,8.87048,-5.62579,0.000291539,0.000860233,0.000736585,0.00136545,-0.000213678,0.969603,0.000989249,0.0265239,1742,554,8.87048,5.6258
525,470,8.77722,-5.22253,-0.000719615,0.000595804,0.000344287,0.000680466,-0.000804277,1.32968,0.00085821,0.016575,1749,554,8.77721,5.22253
532,470,8.76953,-4.88037,-0.00170324,0.000511819,-5.6897e-06,0.000511834,-0.00170326,-1.56823,0.00133913,0.0144309,1756,554,8.76958,4.88038
539,470,8.74341,-4.55505,-0.00257179,0.000505089,-0.000263981,0.000527573,-0.00259428,-1.48583,0.00192957,0.0154694,1763,554,8.74343,4.55507
546,470,8.73193,-4.24023,-0.00326461,0.00097658,-0.000277652,0.00099468,-0.00328271,-1.5057,0.00258464,0.0143846,1770,554,8.73193,4.24022
553,470,8.77026,-3.92291,-0.00388685,0.00154629,-0.000248215,0.0015576,-0.00389816,-1.52524,0.00324507,0.0131745,1777,554,8.77028,3.92289
560,470,8.79333,-3.54718,-0.00431497,0.00235563,-1.49527e-05,0.00235566,-0.004315,-1.56855,0.0039063,0.0187472,1784,554,8.79328,3.5472
567,470,8.76172,-3.20966,-0.00450701,0.00341453,0.000519398,0.00344844,-0.00454092,1.5056,0.00462701,0.0201348,1791,554,8.7617,3.20967
574,470,8.86731,-2.74054,0,0,0,0,0,0,0,-1,1798,554,8.86732,2.74054
581,470,8.24646,-4.06317,0,0,0,0,0,0,0,-1,1805,554,8.24648,4.06318
588,470,11.1803,1.74927,0,0,0,0,0,0,0,-1,1812,554,11.1803,-1.74926
595,470,4.72192,3.44116,0,0,0,0,0,0,0,-1,1819,554,4.72191,-3.44116
602,470,14.4307,2.76141,0,0,0,0,0,0,0,-1,1826,554,14.4306,-2.76139
609,470,20.9181,4.41058,0,0,0,0,0,0,0,-1,1833,554,20.9181,-4.4106
616,470,0,0,0,0,0,0,0,0,0,-1,1840,554,0,0
623,470,0,0,0,0,0,0,0,0,0,-1,1847,554,0,0
630,470,0,0,0,0,0,0,0,0,0,-1,1854,554,0,0
637,470,0,0,0,0,0,0,0,0,0,-1,1861,554,0,0
644,470,0,0,0,0,0,0,0,0,0,-1,1868,554,0,0
651,470,0,0,0,0,0,0,0,0,0,-1,1875,554,0,0
658,470,0,0,0,0,0,0,0,0,0,-1,1882,554,0,0
665,470,0,0,0,0,0,0,0,0,0,-1,1889,554,0,0
672,470,0,0,0,0,0,0,0,0,0,-1,1896,554,0,0
679,470,0,0,0,0,0,0,0,0,0,-1,1903,554,0,0
686,470,0,0,0,0,0,0,0,0,0,-1,1910,554,0,0
693,470,0,0,0,0,0,0,0,0,0,-1,1917,554,0,0
700,470,0,0,0,0,0,0,0,0,0,-1,1924,554,0,0
707,470,0,0,0,0,0,0,0,0,0,-1,1931,554,0,0
714,470,0,0,0,0,0,0,0,0,0,-1,1938,554,0,0
721,470,0,0,0,0,0,0,0,0,0,-1,1945,554,0,0
728,470,0,0,0,0,0,0,0,0,0,-1,1952,554,0,0
735,470,0,0,0,0,0,0,0,0,0,-1,1959,554,0,0
742,470,0,0,0,0,0,0,0,0,0,-1,1966,554,0,0
749,470,0,0,0,0,0,0,0,0,0,-1,1973,554,0,0
756,470,0,0,0,0,0,0,0,0,0,-1,1980,554,0,0
763,470,0,0,0,0,0,0,0,0,0,-1,1987,554,0,0
770,470,0,0,0,0,0,0,0,0,0,-1,1994,554,0,0
777,470,0,0,0,0,0,0,0,0,0,-1,2001,554,0,0
784,470,0,0,0,0,0,0,0,0,0,-1,2008,554,0,0
791,470,0,0,0,0,0,0,0,0,0,-1,2015,554,0,0
798,470,0,0,0,0,0,0,0,0,0,-1,2022,554,0,0
805,470,0,0,0,0,0,0,0,0,0,-1,2029,554,0,0
812,470,0,0,0,0,0,0,0,0,0,-1,2036,554,0,0
-700,463,0,0,0,0,0,0,0,0,0,-1,524,561,0,0
-693,463,0,0,0,0,0,0,0,0,0,-1,531,561,0,0
-686,463,0,0,0,0,0,0,0,0,0,-1,538,561,0,0
-679,463,0,0,0,0,0,0,0,0,0,-1,545,561,0,0
-672,463,0,0,0,0,0,0,0,0,0,-1,552,561,0,0
-665,463,0,0,0,0,0,0,0,0,0,-1,559,561,0,0
-658,463,0,0,0,0,0,0,0,0,0,-1,566,561,0,0
-651,463,0,0,0,0,0,0,0,0,0,-1,573,561,0,0
-644,463,0,0,0,0,0,0,0,0,0,-1,580,561,0,0
-637,463,0,0,0,0,0,0,0,0,0,-1,587,561,0,0
-630,463,0,0,0,0,0,0,0,0,0,-1,594,561,0,0
-623,463,0,0,0,0,0,0,0,0,0,-1,601,561,0,0
-616,463,0,0,0,0,0,0,0,0,0,-1,608,561,0,0
-609,463,0,0,0,0,0,0,0,0,0,-1,615,561,0,0
-602,463,0,0,0,0,0,0,0,0,0,-1,622,561,0,0
-595,463,0,0,0,0,0,0,0,0,0,-1,629,561,0,0
-588,463,0,0,0,0,0,0,0,0,0,-1,636,561,0,0
-581,463,0,0,0,0,0,0,0,0,0,-1,643,561,0,0
-574,463,0,0,0,0,0,0,0,0,0,-1,650,561,0,0
-567,463,0,0,0,0,0,0,0,0,0,-1,657,561,0,0
-560,463,0,0,0,0,0,0,0,0,0,-1,664,561,0,0
-553,463,0,0,0,0,0,0,0,0,0,-1,671,561,0,0
-546,463,0,0,0,0,0,0,0,0,0,-1,678,561,0,0
-539,463,0,0,0,0,0,0,0,0,0,-1,685,561,0,0
-532,463,0,0,0,0,0,0,0,0,0,-1,692,561,0,0
-525,463,0,0,0,0,0,0,0,0,0,-1,699,561,0,0
-518,463,0,0,0,0,0,0,0,0,0,-1,706,561,0,0
-511,463,0,0,0,0,0,0,0,0,0,-1,713,561,0,0
-504,463,0,0,0,0,0,0,0,0,0,-1,720,561,0,0
-497,463,-9.81451,-1.67126,0,0,0,0,0,0,0,-1,727,561,-9.81452,1.67127
-490,463,-8.57043,-1.58942,0,0,0,0,0,0,0,-1,734,561,-8.57045,1.58944
-483,463,-7.29224,-1.7226,0,0,0,0,0,0,0,-1,741,561,-7.29226,1.72261
-476,463,-5.77704,-1.7312,0,0,0,0,0,0,0,-1,748,561,-5.77703,1.73121
-469,463,-5.14545,-2.138,0,0,0,0,0,0,0,-1,755,561,-5.14546,2.13799
-462,463,-3.13672,-3.07977,0,0,0,0,0,0,0,-1,762,561,-3.13672,3.07974
-455,463,-2.10474,-3.72888,0,0,0,0,0,0,0,-1,769,561,-2.10475,3.72887
-448,463,-2.26349,-4.22742,-0.0085026,0.00982386,-0.016223,0.0192926,-0.0179713,-1.04248,0.0215189,0.0469752,776,561,-2.26349,4.2274
-441,463,-2.33093,-4.86975,-0.00719085,0.00764058,-0.0129489,0.0151469,-0.0146972,-1.04545,0.0172311,0.0366096,783,561,-2.33091,4.86973
-434,463,-2.48468,-5.26147,-0.00578636,0.00592914,-0.0102432,0.0118713,-0.0117285,-1.04514,0.0136254,0.0158712,790,561,-2.48467,5.2615
-427,463,-2.48871,-5.57349,-0.00461446,0.00445299,-0.00794678,0.00906837,-0.00922983,-1.04463,0.0105646,0.0102036,797,561,-2.48872,5.5735
-420,463,-2.46649,-5.88684,-0.00364857,0.00308569,-0.00584043,0.00646008,-0.00702296,-1.04689,0.0077867,0.0104836,804,561,-2.46652,5.88683
-413,463,-2.49042,-6.20642,-0.00277768,0.00184561,-0.00410403,0.00424425,-0.00517631,-1.04188,0.00544783,0.00913394,811,561,-2.4904,6.20639
-406,463,-2.51239,-6.52948,-0.00198353,0.000580115,-0.00258184,0.00218082,-0.00358424,-1.01581,0.00336117,0.00812068,818,561,-2.51237,6.52949
-399,463,-2.51331,-6.84912,-0.00140347,-0.000793583,-0.0011776,0.000117913,-0.00231497,-0.912092,0.00158408,0.0093663,825,561,-2.51328,6.84912
-392,463,-2.52594,-7.15991,-0.00090471,-0.00252179,0.000125502,-0.000895027,-0.00253147,0.0769958,0.00148229,0.00929918,832,561,-2.52592,7.15994
-385,463,-2.53284,-7.47357,-0.000323165,-0.00437371,0.00124456,2.86747e-05,-0.00472555,0.275512,0.00315997,0.0104235,839,561,-2.53286,7.47359
-378,463,-2.53021,-7.78754,0.000160677,-0.00627964,0.00228488,0.000888946,-0.00700791,0.308555,0.0049947,0.0111427,846,561,-2.53023,7.78755
-371,463,-2.52454,-8.08551,0.000703777,-0.0084009,0.00300677,0.00160712,-0.00930424,0.291857,0.00680212,0.010878,853,561,-2.52454,8.0855
-364,463,-2.50568,-8.33337,0.00141758,-0.010799,0.00371279,0.00245743,-0.0118389,0.273077,0.00882651,0.0135956,860,561,-2.50567,8.3334
-357,463,-2.52155,-8.604,0.00250387,-0.0135369,0.00431363,0.0035903,-0.0146233,0.246728,0.0111402,0.0170728,867,561,-2.52157,8.60402
-350,463,-2.48999,-8.96124,0.00389515,-0.0164979,0.00485641,0.0049926,-0.0175954,0.222246,0.0137011,0.0208092,874,561,-2.48997,8.96121
-343,463,-2.36047,-9.07379,0.00547847,-0.0200782,0.00535954,0.00655692,-0.0211567,0.198569,0.0167242,0.0387107,881,561,-2.3605,9.07381
-336,463,-2.30975,-9.24023,0.00738208,-0.0238319,0.00578058,0.0084182,-0.0248681,0.177359,0.0199848,0.0381491,888,561,-2.30978,9.24022
-329,463,-2.0036,-9.19171,0,0,0,0,0,0,0,-1,895,561,-2.0036,9.19172
-322,463,-1.82898,-9.11957,0,0,0,0,0,0,0,-1,902,561,-1.829,9.11957
-315,463,-0.944763,-5.96234,0,0,0,0,0,0,0,-1,909,561,-0.94479,5.96237
-308,463,-1.1535,-3.17889,0,0,0,0,0,0,0,-1,916,561,-1.15352,3.17889
-301,463,-1.50366,-3.15338,0,0,0,0,0,0,0,-1,923,561,-1.50364,3.15341
-294,463,-2.35889,-3.93463,0,0,0,0,0,0,0,-1,930,561,-2.35886,3.93465
-287,463,-2.80322,2.73999,0,0,0,0,0,0,0,-1,937,561,-2.80322,-2.74
-280,463,-12.864,5.25146,0,0,0,0,0,0,0,-1,944,561,-12.864,-5.25149
-273,463,-12.4598,3.39178,0,0,0,0,0,0,0,-1,951,561,-12.4598,-3.3918
-266,463,-8.91321,-0.697021,0,0,0,0,0,0,0,-1,958,561,-8.9132,0.697008
-259,463,-6.22968,-3.88293,0,0,0,0,0,0,0,-1,965,561,-6.22966,3.88295
-252,463,0,0,0,0,0,0,0,0,0,-1,972,561,0,0
-245,463,0,0,0,0,0,0,0,0,0,-1,979,561,0,0
-238,463,0,0,0,0,0,0,0,0,0,-1,986,561,0,0
-231,463,0,0,0,0,0,0,0,0,0,-1,993,561,0,0
-224,463,0,0,0,0,0,0,0,0,0,-1,1000,561,0,0
-217,463,0,0,0,0,0,0,0,0,0,-1,1007,561,0,0
-210,463,0,0,0,0,0,0,0,0,0,-1,1014,561,0,0
-203,463,0,0,0,0,0,0,0,0,0,-1,1021,561,0,0
-196,463,0,0,0,0,0,0,0,0,0,-1,1028,561,0,0
-189,463,0,0,0,0,0,0,0,0,0,-1,1035,561,0,0
-182,463,0,0,0,0,0,0,0,0,0,-1,1042,561,0,0
-175,463,0,0,0,0,0,0,0,0,0,-1,1049,561,0,0
-168,463,0,0,0,0,0,0,0,0,0,-1,1056,561,0,0
-161,463,0,0,0,0,0,0,0,0,0,-1,1063,561,0,0
-154,463,0,0,0,0,0,0,0,0,0,-1,1070,561,0,0
-147,463,0,0,0,0,0,0,0,0,0,-1,1077,561,0,0
-140,463,0,0,0,0,0,0,0,0,0,-1,1084,561,0,0
-133,463,0,0,0,0,0,0,0,0,0,-1,1091,561,0,0
-126,463,0,0,0,0,0,0,0,0,0,-1,1098,561,0,0
-119,463,0,0,0,0,0,0,0,0,0,-1,1105,561,0,0
-112,463,0,0,0,0,0,0,0,0,0,-1,1112,561,0,0
-105,463,0,0,0,0,0,0,0,0,0,-1,1119,561,0,0
-98,463,0,0,0,0,0,0,0,0,0,-1,1126,561,0,0
-91,463,0,0,0,0,0,0,0,0,0,-1,1133,561,0,0
-84,463,0,0,0,0,0,0,0,0,0,-1,1140,561,0,0
-77,463,0,0,0,0,0,0,0,0,0,-1,1147,561,0,0
-70,463,0,0,0,0,0,0,0,0,0,-1,1154,561,0,0
-63,463,0,0,0,0,0,0,0,0,0,-1,1161,561,0,0
-56,463,0,0,0,0,0,0,0,0,0,-1,1168,561,0,0
-49,463,0,0,0,0,0,0,0,0,0,-1,1175,561,0,0
-42,463,0,0,0,0,0,0,0,0,0,-1,1182,561,0,0
-35,463,0,0,0,0,0,0,0,0,0,-1,1189,561,0,0
-28,463,0,0,0,0,0,0,0,0,0,-1,1196,561,0,0
-21,463,0,0,0,0,0,0,0,0,0,-1,1203,561,0,0
-14,463,0,0,0,0,0,0,0,0,0,-1,1210,561,0,0
-7,463,0,0,0,0,0,0,0,0,0,-1,1217,561,0,0
0,463,0,0,0,0,0,0,0,0,0,-1,1224,561,0,0
7,463,0,0,0,0,0,0,0,0,0,-1,1231,561,0,0
14,463,0,0,0,0,0,0,0,0,0,-1,1238,561,0,0
21,463,0,0,0,0,0,0,0,0,0,-1,1245,561,0,0
28,463,0,0,0,0,0,0,0,0,0,-1,1252,561,0,0
35,463,0,0,0,0,0,0,0,0,0,-1,1259,561,0,0
42,463,0,0,0,0,0,0,0,0,0,-1,1266,561,0,0
49,463,0,0,0,0,0,0,0,0,0,-1,1273,561,0,0
56,463,0,0,0,0,0,0,0,0,0,-1,1280,561,0,0
63,463,0,0,0,0,0,0,0,0,0,-1,1287,561,0,0
70,463,0,0,0,0,0,0,0,0,0,-1,1294,561,0,0
77,463,0,0,0,0,0,0,0,0,0,-1,1301,561,0,0
84,463,0,0,0,0,0,0,0,0,0,-1,1308,561,0,0
91,463,0,0,0,0,0,0,0,0,0,-1,1315,561,0,0
98,463,0,0,0,0,0,0,0,0,0,-1,1322,561,0,0
105,463,0,0,0,0,0,0,0,0,0,-1,1329,561,0,0
112,463,0,0,0,0,0,0,0,0,0,-1,1336,561,0,0
119,463,0,0,0,0,0,0,0,0,0,-1,1343,561,0,0
126,463,0,0,0,0,0,0,0,0,0,-1,1350,561,0,0
133,463,0,0,0,0,0,0,0,0,0,-1,1357,561,0,0
140,463,0,0,0,0,0,0,0,0,0,-1,1364,561,0,0
147,463,0,0,0,0,0,0,0,0,0,-1,1371,561,0,0
154,463,0,0,0,0,0,0,0,0,0,-1,1378,561,0,0
161,463,0,0,0,0,0,0,0,0,0,-1,1385,561,0,0
168,463,0,0,0,0,0,0,0,0,0,-1,1392,561,0,0
175,463,0,0,0,0,0,0,0,0,0,-1,1399,561,0,0
182,463,0,0,0,0,0,0,0,0,0,-1,1406,561,0,0
189,463,0,0,0,0,0,0,0,0,0,-1,1413,561,0,0
196,463,0,0,0,0,0,0,0,0,0,-1,1420,561,0,0
203,463,0,0,0,0,0,0,0,0,0,-1,1427,561,0,0
210,463,0,0,0,0,0,0,0,0,0,-1,1434,561,0,0
217,463,0,0,0,0,0,0,0,0,0,-1,1441,561,0,0
224,463,0,0,0,0,0,0,0,0,0,-1,1448,561,0,0
231,463,0,0,0,0,0,0,0,0,0,-1,1455,561,0,0
238,463,0,0,0,0,0,0,0,0,0,-1,1462,561,0,0
245,463,0,0,0,0,0,0,0,0,0,-1,1469,561,0,0
252,463,0,0,0,0,0,0,0,0,0,-1,1476,561,0,0
259,463,0,0,0,0,0,0,0,0,0,-1,1483,561,0,0
266,463,0,0,0,0,0,0,0,0,0,-1,1490,561,0,0
273,463,0,0,0,0,0,0,0,0,0,-1,1497,561,0,0
280,463,0,0,0,0,0,0,0,0,0,-1,1504,561,0,0
287,463,0,0,0,0,0,0,0,0,0,-1,1511,561,0,0
294,463,0,0,0,0,0,0,0,0,0,-1,1518,561,0,0
301,463,0,0,0,0,0,0,0,0,0,-1,1525,561,0,0
308,463,0,0,0,0,0,0,0,0,0,-1,1532,561,0,0
315,463,0,0,0,0,0,0,0,0,0,-1,1539,561,0,0
322,463,0,0,0,0,0,0,0,0,0,-1,1546,561,0,0
329,463,0,0,0,0,0,0,0,0,0,-1,1553,561,0,0
336,463,0,0,0,0,0,0,0,0,0,-1,1560,561,0,0
343,463,0,0,0,0,0,0,0,0,0,-1,1567,561,0,0
350,463,0,0,0,0,0,0,0,0,0,-1,1574,561,0,0
357,463,0,0,0,0,0,0,0,0,0,-1,1581,561,0,0
364,463,0,0,0,0,0,0,0,0,0,-1,1588,561,0,0
371,463,1.75842,0.152588,0,0,0,0,0,0,0,-1,1595,561,1.75844,-0.152558
378,463,4.58813,-0.0444336,0,0,0,0,0,0,0,-1,1602,561,4.58809,0.0444505
385,463,8.88574,1.65057,0,0,0,0,0,0,0,-1,1609,561,8.88575,-1.65055
392,463,14.0912,2.50513,0,0,0,0,0,0,0,-1,1616,561,14.0912,-2.5051
399,463,19.6376,3.51965,0,0,0,0,0,0,0,-1,1623,561,19.6376,-3.51966
406,463,26.2987,4.32318,0,0,0,0,0,0,0,-1,1630,561,26.2987,-4.3232
413,463,26.5011,2.65222,0,0,0,0,0,0,0,-1,1637,561,26.5011,-2.65224
420,463,8.849,2.26611,0,0,0,0,0,0,0,-1,1644,561,8.84899,-2.26613
427,463,5.12207,1.69183,0,0,0,0,0,0,0,-1,1651,561,5.12206,-1.69184
434,463,4.59814,1.81995,0,0,0,0,0,0,0,-1,1658,561,4.59812,-1.81994
441,463,1.76392,-5.99225,0,0,0,0,0,0,0,-1,1665,561,1.7639,5.99225
448,463,2.49939,-4.30536,0,0,0,0,0,0,0,-1,1672,561,2.49941,4.30536
455,463,4.40295,-3.02557,0,0,0,0,0,0,0,-1,1679,561,4.40299,3.02558
462,463,5.38293,-4.06445,0,0,0,0,0,0,0,-1,1686,561,5.38289,4.06444
469,463,5.94373,-4.50647,0,0,0,0,0,0,0,-1,1693,561,5.94368,4.50646
476,463,8.91199,-7.75055,0,0,0,0,0,0,0,-1,1700,561,8.91201,7.75056
483,463,8.97583,-7.40912,0.00467609,0.0025677,0.00239836,0.00624171,0.00100208,0.578335,0.0038706,0.0438396,1707,561,8.9758,7.40909
490,463,9.12708,-6.92621,0.0047901,0.00303717,0.00265922,0.00671357,0.0011137,0.626207,0.00415454,0.0216689,1714,561,9.12707,6.9262
497,463,9.11536,-6.58368,0.00423311,0.00258694,0.00241609,0.00596247,0.000857582,0.62123,0.0037222,0.0128216,1721,561,9.11535,6.58366
504,463,9.11414,-6.24976,0.00341531,0.00216127,0.00209612,0.00497619,0.000600392,0.640067,0.00313654,0.0163513,1728,561,9.11419,6.24973
511,463,9.17175,-5.96875,0.00245999,0.00169059,0.00169439,0.00381281,0.000337776,0.673768,0.00243709,0.0238475,1735,561,9.1718,5.96874
518,463,9.23206,-5.62885,0.0014471,0.00128626,0.0012838,0.002653,8.03663e-05,0.754117,0.00174249,0.0240779,1742,561,9.23208,5.62883
525,463,9.14099,-5.2558,0.000439958,0.000984816,0.000851744,0.00160664,-0.000181865,0.940181,0.00113657,0.0181658,1749,561,9.141,5.25577
532,463,9.15442,-4.91272,-0.000529311,0.000831379,0.000458157,0.000971264,-0.000669196,1.27447,0.000952457,0.0161175,1756,561,9.15436,4.91269
539,463,9.11694,-4.54126,-0.00139038,0.000684258,0.000133378,0.000692798,-0.00139892,1.50686,0.00123038,0.0169941,1763,561,9.11691,4.54125
546,463,9.08521,-4.25031,-0.00205579,0.00104008,7.04307e-05,0.00104168,-0.00205739,1.54806,0.001821,0.0135327,1770,561,9.08527,4.2503
553,463,9.09375,-3.89642,-0.00263843,0.00142268,2.84754e-05,0.00142288,-0.00263863,1.56379,0.00237967,0.0115964,1777,561,9.09377,3.89642
560,463,9.12012,-3.49255,-0.00309212,0.00202125,0.000173841,0.00202716,-0.00309802,1.53685,0.00298048,0.0132661,1784,561,9.12016,3.49254
567,463,9.05579,-3.17004,-0.00335765,0.00283238,0.000579872,0.00288624,-0.00341151,1.47819,0.00364022,0.0197249,1791,561,9.05578,3.17005
574,463,9.11694,-2.83008,0,0,0,0,0,0,0,-1,1798,561,9.117,2.83007
581,463,7.77832,-2.18085,0,0,0,0,0,0,0,-1,1805,561,7.77828,2.18082
588,463,1.97424,2.16016,0,0,0,0,0,0,0,-1,1812,561,1.97422,-2.16013
595,463,9.98657,2.99854,0,0,0,0,0,0,0,-1,1819,561,9.98662,-2.99856
602,463,17.2202,4.91302,0,0,0,0,0,0,0,-1,1826,561,17.2202,-4.91305
609,463,17.96,4.03131,0,0,0,0,0,0,0,-1,1833,561,17.96,-4.03132
616,463,20.8352,3.15131,0,0,0,0,0,0,0,-1,1840,561,20.8352,-3.1513
623,463,0,0,0,0,0,0,0,0,0,-1,1847,561,0,0
630,463,0,0,0,0,0,0,0,0,0,-1,1854,561,0,0
637,463,0,0,0,0,0,0,0,0,0,-1,1861,561,0,0
644,463,0,0,0,0,0,0,0,0,0,-1,1868,561,0,0
651,463,0,0,0,0,0,0,0,0,0,-1,1875,561,0,0
658,463,0,0,0,0,0,0,0,0,0,-1,1882,561,0,0
665,463,0,0,0,0,0,0,0,0,0,-1,1889,561,0,0
672,463,0,0,0,0,0,0,0,0,0,-1,1896,561,0,0
679,463,0,0,0,0,0,0,0,0,0,-1,1903,561,0,0
686,463,0,0,0,0,0,0,0,0,0,-1,1910,561,0,0
693,463,0,0,0,0,0,0,0,0,0,-1,1917,561,0,0
700,463,0,0,0,0,0,0,0,0,0,-1,1924,561,0,0
707,463,0,0,0,0,0,0,0,0,0,-1,1931,561,0,0
714,463,0,0,0,0,0,0,0,0,0,-1,1938,561,0,0
721,463,0,0,0,0,0,0,0,0,0,-1,1945,561,0,0
728,463,0,0,0,0,0,0,0,0,0,-1,1952,561,0,0
735,463,0,0,0,0,0,0,0,0,0,-1,1959,561,0,0
742,463,0,0,0,0,0,0,0,0,0,-1,1966,561,0,0
749,463,0,0,0,0,0,0,0,0,0,-1,1973,561,0,0
756,463,0,0,0,0,0,0,0,0,0,-1,1980,561,0,0
763,463,0,0,0,0,0,0,0,0,0,-1,1987,561,0,0
770,463,0,0,0,0,0,0,0,0,0,-1,1994,561,0,0
777,463,0,0,0,0,0,0,0,0,0,-1,2001,561,0,0
784,463,0,0,0,0,0,0,0,0,0,-1,2008,561,0,0
791,463,0,0,0,0,0,0,0,0,0,-1,2015,561,0,0
798,463,0,0,0,0,0,0,0,0,0,-1,2022,561,0,0
805,463,0,0,0,0,0,0,0,0,0,-1,2029,561,0,0
812,463,0,0,0,0,0,0,0,0,0,-1,2036,561,0,0
-700,456,0,0,0,0,0,0,0,0,0,-1,524,568,0,0
-693,456,0,0,0,0,0,0,0,0,0,-1,531,568,0,0
-686,456,0,0,0,0,0,0,0,0,0,-1,538,568,0,0
-679,456,0,0,0,0,0,0,0,0,0,-1,545,568,0,0
-672,456,0,0,0,0,0,0,0,0,0,-1,552,568,0,0
-665,456,0,0,0,0,0,0,0,0,0,-1,559,568,0,0
-658,456,0,0,0,0,0,0,0,0,0,-1,566,568,0,0
-651,456,0,0,0,0,0,0,0,0,0,-1,573,568,0,0
-644,456,0,0,0,0,0,0,0,0,0,-1,580,568,0,0
-637,456,0,0,0,0,0,0,0,0,0,-1,587,568,0,0
-630,456,0,0,0,0,0,0,0,0,0,-1,594,568,0,0
-623,456,0,0,0,0,0,0,0,0,0,-1,601,568,0,0
-616,456,0,0,0,0,0,0,0,0,0,-1,608,568,0,0
-609,456,0,0,0,0,0,0,0,0,0,-1,615,568,0,0
-602,456,0,0,0,0,0,0,0,0,0,-1,622,568,0,0
-595,456,0,0,0,0,0,0,0,0,0,-1,629,568,0,0
-588,456,0,0,0,0,0,0,0,0,0,-1,636,568,0,0
-581,456,0,0,0,0,0,0,0,0,0,-1,643,568,0,0
-574,456,0,0,0,0,0,0,0,0,0,-1,650,568,0,0
-567,456,0,0,0,0,0,0,0,0,0,-1,657,568,0,0
-560,456,0,0,0,0,0,0,0,0,0,-1,664,568,0,0
-553,456,0,0,0,0,0,0,0,0,0,-1,671,568,0,0
-546,456,0,0,0,0,0,0,0,0,0,-1,678,568,0,0
-539,456,0,0,0,0,0,0,0,0,0,-1,685,568,0,0
-532,456,0,0,0,0,0,0,0,0,0,-1,692,568,0,0
-525,456,0,0,0,0,0,0,0,0,0,-1,699,568,0,0
-518,456,0,0,0,0,0,0,0,0,0,-1,706,568,0,0
-511,456,0,0,0,0,0,0,0,0,0,-1,713,568,0,0
-504,456,-10.3994,-2.34839,0,0,0,0,0,0,0,-1,720,568,-10.3994,2.3484
-497,456,-9.21375,-2.38068,0,0,0,0,0,0,0,-1,727,568,-9.21372,2.38069
-490,456,-8.09058,-2.31824,0,0,0,0,0,0,0,-1,734,568,-8.09057,2.31821
-483,456,-6.66119,-2.24329,0,0,0,0,0,0,0,-1,741,568,-6.66121,2.24331
-476,456,-5.1499,-2.21185,0,0,0,0,0,0,0,-1,748,568,-5.14992,2.21184
-469,456,-2.81238,-3.51501,0,0,0,0,0,0,0,-1,755,568,-2.81237,3.51501
-462,456,-2.91895,-4.18488,0,0,0,0,0,0,0,-1,762,568,-2.91892,4.18488
-455,456,-2.58868,-3.83276,0,0,0,0,0,0,0,-1,769,568,-2.5887,3.83279
-448,456,-2.62036,-4.39069,-0.00436766,0.0089693,-0.0117758,0.0158337,-0.011232,-1.04303,0.0157015,0.0377084,776,568,-2.62035,4.39068
-441,456,-2.73993,-4.91406,-0.00395671,0.00708557,-0.00940845,0.0124732,-0.00934437,-1.05074,0.0126395,0.0185035,783,568,-2.73996,4.91404
-434,456,-2.81372,-5.25134,-0.0033845,0.00542726,-0.00734509,0.00958655,-0.00754379,-1.05555,0.00991362,0.0111426,790,568,-2.81373,5.25133
-427,456,-2.797,-5.56287,-0.00288779,0.00396946,-0.00551778,0.00703709,-0.00595542,-1.06339,0.00750989,0.0089236,797,568,-2.797,5.56289
-420,456,-2.78955,-5.8783,-0.00249354,0.00253269,-0.00378351,0.00456168,-0.00452253,-1.07855,0.00524479,0.00915781,804,568,-2.78954,5.8783
-413,456,-2.80383,-6.1922,-0.00211143,0.00114227,-0.00232325,0.00235164,-0.00332079,-1.09084,0.00329088,0.00807546,811,568,-2.80383,6.19217
-406,456,-2.83289,-6.50958,-0.0016676,-0.000271815,-0.000998087,0.000248173,-0.00218759,-1.0905,0.00154776,0.00796404,818,568,-2.83288,6.5096
-399,456,-2.84033,-6.84174,-0.00137913,-0.0018918,0.000288695,-0.0012494,-0.00202154,0.42235,0.00117793,0.00930328,825,568,-2.84031,6.84172
-392,456,-2.83588,-7.14716,-0.00111176,-0.00394785,0.00155518,-0.000425176,-0.00463443,0.415745,0.0029581,0.00862671,832,568,-2.83588,7.14713
-385,456,-2.83441,-7.45416,-0.000698665,-0.00624644,0.00269944,0.000398034,-0.00734314,0.385899,0.00503336,0.0088634,839,568,-2.83442,7.45415
-378,456,-2.84619,-7.78436,-0.000404455,-0.00874438,0.00376975,0.00104693,-0.0101958,0.367517,0.00717167,0.0104307,846,568,-2.8462,7.78435
-371,456,-2.83362,-8.08429,1.37813e-05,-0.0114904,0.00459518,0.00162391,-0.0131005,0.337027,0.00932224,0.0114019,853,568,-2.83359,8.08429
-364,456,-2.79834,-8.3371,0.000733903,-0.0146933,0.00551127,0.00250048,-0.0164598,0.310192,0.0118947,0.0151269,860,568,-2.79835,8.3371
-357,456,-2.78613,-8.61224,0.00189975,-0.0184206,0.00630959,0.00369951,-0.0202204,0.277863,0.0148676,0.0207059,867,568,-2.78613,8.61225
-350,456,-2.62531,-8.66473,0.00351273,-0.0225783,0.00707219,0.0053064,-0.024372,0.248386,0.0182754,0.0413318,874,568,-2.62531,8.66475
-343,456,-2.7793,-8.61121,0.00550584,-0.0273384,0.00776694,0.00724993,-0.0290825,0.22089,0.0222031,0.0471715,881,568,-2.77927,8.61121
-336,456,-2.60785,-8.82831,0.00804931,-0.0325271,0.00836391,0.00970572,-0.0341835,0.195513,0.0266207,0.0472436,888,568,-2.60788,8.82832
-329,456,-1.91858,-9.27509,0,0,0,0,0,0,0,-1,895,568,-1.9186,9.27508
-322,456,-0.662537,-7.66632,0,0,0,0,0,0,0,-1,902,568,-0.662564,7.66633
-315,456,-0.675476,-3.38397,0,0,0,0,0,0,0,-1,909,568,-0.675473,3.38399
-308,456,-1.1618,-3.15314,0,0,0,0,0,0,0,-1,916,568,-1.16178,3.15314
-301,456,-1.83551,-3.26447,0,0,0,0,0,0,0,-1,923,568,-1.8355,3.26449
-294,456,-2.93414,-3.35449,0,0,0,0,0,0,0,-1,930,568,-2.93413,3.35451
-287,456,-3.7569,-3.53101,0,0,0,0,0,0,0,-1,937,568,-3.75692,3.53101
-280,456,-13.072,4.52856,0,0,0,0,0,0,0,-1,944,568,-13.072,-4.52855
-273,456,-9.17694,0.506409,0,0,0,0,0,0,0,-1,951,568,-9.17694,-0.506423
-266,456,-5.78632,-2.51526,0,0,0,0,0,0,0,-1,958,568,-5.78634,2.51525
-259,456,0,0,0,0,0,0,0,0,0,-1,965,568,0,0
-252,456,0,0,0,0,0,0,0,0,0,-1,972,568,0,0
-245,456,0,0,0,0,0,0,0,0,0,-1,979,568,0,0
-238,456,0,0,0,0,0,0,0,0,0,-1,986,568,0,0
-231,456,0,0,0,0,0,0,0,0,0,-1,993,568,0,0
-224,456,0,0,0,0,0,0,0,0,0,-1,1000,568,0,0
-217,456,0,0,0,0,0,0,0,0,0,-1,1007,568,0,0
-210,456,0,0,0,0,0,0,0,0,0,-1,1014,568,0,0
-203,456,0,0,0,0,0,0,0,0,0,-1,1021,568,0,0
-196,456,0,0,0,0,0,0,0,0,0,-1,1028,568,0,0
-189,456,0,0,0,0,0,0,0,0,0,-1,1035,568,0,0
-182,456,0,0,0,0,0,0,0,0,0,-1,1042,568,0,0
-175,456,0,0,0,0,0,0,0,0,0,-1,1049,568,0,0
-168,456,0,0,0,0,0,0,0,0,0,-1,1056,568,0,0
-161,456,0,0,0,0,0,0,0,0,0,-1,1063,568,0,0
-154,456,0,0,0,0,0,0,0,0,0,-1,1070,568,0,0
-147,456,0,0,0,0,0,0,0,0,0,-1,1077,568,0,0
-140,456,0,0,0,0,0,0,0,0,0,-1,1084,568,0,0
-133,456,0,0,0,0,0,0,0,0,0,-1,1091,568,0,0
-126,456,0,0,0,0,0,0,0,0,0,-1,1098,568,0,0
-119,456,0,0,0,0,0,0,0,0,0,-1,1105,568,0,0
-112,456,0,0,0,0,0,0,0,0,0,-1,1112,568,0,0
-105,456,0,0,0,0,0,0,0,0,0,-1,1119,568,0,0
-98,456,0,0,0,0,0,0,0,0,0,-1,1126,568,0,0
-91,456,0,0,0,0,0,0,0,0,0,-1,1133,568,0,0
-84,456,0,0,0,0,0,0,0,0,0,-1,1140,568,0,0
-77,456,0,0,0,0,0,0,0,0,0,-1,1147,568,0,0
-70,456,0,0,0,0,0,0,0,0,0,-1,1154,568,0,0
-63,456,0,0,0,0,0,0,0,0,0,-1,1161,568,0,0
-56,456,0,0,0,0,0,0,0,0,0,-1,1168,568,0,0
-49,456,0,0,0,0,0,0,0,0,0,-1,1175,568,0,0
-42,456,0,0,0,0,0,0,0,0,0,-1,1182,568,0,0
-35,456,0,0,0,0,0,0,0,0,0,-1,1189,568,0,0
-28,456,0,0,0,0,0,0,0,0,0,-1,1196,568,0,0
-21,456,0,0,0,0,0,0,0,0,0,-1,1203,568,0,0
-14,456,0,0,0,0,0,0,0,0,0,-1,1210,568,0,0
-7,456,0,0,0,0,0,0,0,0,0,-1,1217,568,0,0
0,456,0,0,0,0,0,0,0,0,0,-1,1224,568,0,0
7,456,0,0,0,0,0,0,0,0,0,-1,1231,568,0,0
14,456,0,0,0,0,0,0,0,0,0,-1,1238,568,0,0
21,456,0,0,0,0,0,0,0,0,0,-1,1245,568,0,0
28,456,0,0,0,0,0,0,0,0,0,-1,1252,568,0,0
35,456,0,0,0,0,0,0,0,0,0,-1,1259,568,0,0
42,456,0,0,0,0,0,0,0,0,0,-1,1266,568,0,0
49,456,0,0,0,0,0,0,0,0,0,-1,1273,568,0,0
56,456,0,0,0,0,0,0,0,0,0,-1,1280,568,0,0
63,456,0,0,0,0,0,0,0,0,0,-1,1287,568,0,0
70,456,0,0,0,0,0,0,0,0,0,-1,1294,568,0,0
77,456,0,0,0,0,0,0,0,0,0,-1,1301,568,0,0
84,456,0,0,0,0,0,0,0,0,0,-1,1308,568,0,0
91,456,0,0,0,0,0,0,0,0,0,-1,1315,568,0,0
98,456,0,0,0,0,0,0,0,0,0,-1,1322,568,0,0
105,456,0,0,0,0,0,0,0,0,0,-1,1329,568,0,0
112,456,0,0,0,0,0,0,0,0,0,-1,1336,568,0,0
119,456,0,0,0,0,0,0,0,0,0,-1,1343,568,0,0
126,456,0,0,0,0,0,0,0,0,0,-1,1350,568,0,0
133,456,0,0,0,0,0,0,0,0,0,-1,1357,568,0,0
140,456,0,0,0,0,0,0,0,0,0,-1,1364,568,0,0
147,456,0,0,0,0,0,0,0,0,0,-1,1371,568,0,0
154,456,0,0,0,0,0,0,0,0,0,-1,1378,568,0,0
161,456,0,0,0,0,0,0,0,0,0,-1,1385,568,0,0
168,456,0,0,0,0,0,0,0,0,0,-1,1392,568,0,0
175,456,0,0,0,0,0,0,0,0,0,-1,1399,568,0,0
182,456,0,0,0,0,0,0,0,0,0,-1,1406,568,0,0
189,456,0,0,0,0,0,0,0,0,0,-1,1413,568,0,0
196,456,0,0,0,0,0,0,0,0,0,-1,1420,568,0,0
203,456,0,0,0,0,0,0,0,0,0,-1,1427,568,0,0
210,456,0,0,0,0,0,0,0,0,0,-1,1434,568,0,0
217,456,0,0,0,0,0,0,0,0,0,-1,1441,568,0,0
224,456,0,0,0,0,0,0,0,0,0,-1,1448,568,0,0
231,456,0,0,0,0,0,0,0,0,0,-1,1455,568,0,0
238,456,0,0,0,0,0,0,0,0,0,-1,1462,568,0,0
245,456,0,0,0,0,0,0,0,0,0,-1,1469,568,0,0
252,456,0,0,0,0,0,0,0,0,0,-1,1476,568,0,0
259,456,0,0,0,0,0,0,0,0,0,-1,1483,568,0,0
266,456,0,0,0,0,0,0,0,0,0,-1,1490,568,0,0
273,456,0,0,0,0,0,0,0,0,0,-1,1497,568,0,0
280,456,0,0,0,0,0,0,0,0,0,-1,1504,568,0,0
287,456,0,0,0,0,0,0,0,0,0,-1,1511,568,0,0
294,456,0,0,0,0,0,0,0,0,0,-1,1518,568,0,0
301,456,0,0,0,0,0,0,0,0,0,-1,1525,568,0,0
308,456,0,0,0,0,0,0,0,0,0,-1,1532,568,0,0
315,456,0,0,0,0,0,0,0,0,0,-1,1539,568,0,0
322,456,0,0,0,0,0,0,0,0,0,-1,1546,568,0,0
329,456,0,0,0,0,0,0,0,0,0,-1,1553,568,0,0
336,456,0,0,0,0,0,0,0,0,0,-1,1560,568,0,0
343,456,0,0,0,0,0,0,0,0,0,-1,1567,568,0,0
350,456,0,0,0,0,0,0,0,0,0,-1,1574,568,0,0
357,456,0,0,0,0,0,0,0,0,0,-1,1581,568,0,0
364,456,0,0,0,0,0,0,0,0,0,-1,1588,568,0,0
371,456,0,0,0,0,0,0,0,0,0,-1,1595,568,0,0
378,456,0,0,0,0,0,0,0,0,0,-1,1602,568,0,0
385,456,5.66284,0.660645,0,0,0,0,0,0,0,-1,1609,568,5.66285,-0.660615
392,456,16.7321,4.45581,0,0,0,0,0,0,0,-1,1616,568,16.732,-4.45581
399,456,24.1917,5.99652,0,0,0,0,0,0,0,-1,1623,568,24.1916,-5.99651
406,456,24.446,4.53003,0,0,0,0,0,0,0,-1,1630,568,24.446,-4.53005
413,456,24.9418,2.90521,0,0,0,0,0,0,0,-1,1637,568,24.9418,-2.90524
420,456,25.3048,1.04712,0,0,0,0,0,0,0,-1,1644,568,25.3048,-1.04713
427,456,6.21375,2.02905,0,0,0,0,0,0,0,-1,1651,568,6.21372,-2.02904
434,456,3.0719,-4.86285,0,0,0,0,0,0,0,-1,1658,568,3.07184,4.86287
441,456,2.90344,-4.70459,0,0,0,0,0,0,0,-1,1665,568,2.90346,4.7046
448,456,3.06995,-4.93689,0,0,0,0,0,0,0,-1,1672,568,3.06991,4.93687
455,456,3.46582,-3.43701,0,0,0,0,0,0,0,-1,1679,568,3.46585,3.43698
462,456,4.68445,-4.45831,0,0,0,0,0,0,0,-1,1686,568,4.68439,4.45833
469,456,4.93201,-2.289,0,0,0,0,0,0,0,-1,1693,568,4.93197,2.28903
476,456,4.8363,-2.79364,0,0,0,0,0,0,0,-1,1700,568,4.83636,2.79363
483,456,8.99463,-7.82788,0,0,0,0,0,0,0,-1,1707,568,8.99466,7.82789
490,456,9.43054,-6.96844,0,0,0,0,0,0,0,-1,1714,568,9.43056,6.96845
497,456,9.4751,-6.65015,0.00575144,0.00338081,0.00332737,0.00809832,0.00103393,0.614291,0.00508936,0.0407567,1721,568,9.47506,6.65018
504,456,9.42126,-6.23718,0.0047418,0.0027801,0.00285566,0.00678037,0.000741536,0.619973,0.00429446,0.0116846,1728,568,9.42124,6.23721
511,456,9.46155,-5.91632,0.00365614,0.00214474,0.00233724,0.00535681,0.000444059,0.629038,0.00343278,0.0138516,1735,568,9.46156,5.91629
518,456,9.49341,-5.57587,0.00257788,0.00165982,0.00183888,0.00401416,0.000223542,0.663085,0.00260479,0.0160493,1742,568,9.49337,5.57585
525,456,9.46729,-5.24384,0.00154304,0.00131338,0.00135098,0.00278406,7.23567e-05,0.743001,0.0018324,0.0155195,1749,568,9.46731,5.24383
532,456,9.47595,-4.88879,0.000561802,0.00108327,0.000904592,0.00176395,-0.000118884,0.925711,0.00121753,0.0156468,1756,568,9.47595,4.88882
539,456,9.45776,-4.52197,-0.000310592,0.000818773,0.000511335,0.00101588,-0.000507703,1.20287,0.000895805,0.0195465,1763,568,9.45771,4.52196
546,456,9.41907,-4.19574,-0.000967612,0.00106445,0.000393573,0.00113801,-0.00104118,1.38601,0.00125857,0.0215703,1770,568,9.41909,4.19575
553,456,9.40808,-3.84094,-0.00152932,0.00131312,0.000305379,0.00134556,-0.00156176,1.46497,0.00168009,0.0139961,1777,568,9.40805,3.84093
560,456,9.43579,-3.52136,-0.00200323,0.00176111,0.000400345,0.00180321,-0.00204534,1.46601,0.00222343,0.0103206,1784,568,9.43577,3.52137
567,456,9.44434,-3.15839,-0.002303,0.00244198,0.00075243,0.00255844,-0.00241946,1.41724,0.00287436,0.0143665,1791,568,9.44434,3.15838
574,456,9.39429,-2.96588,-0.00258436,0.00339513,0.00133507,0.00367967,-0.0028689,1.36081,0.00379047,0.0442011,1798,568,9.39431,2.9659
581,456,9.41553,-2.75146,0,0,0,0,0,0,0,-1,1805,568,9.41553,2.75144
588,456,5.23901,-0.0901489,0,0,0,0,0,0,0,-1,1812,568,5.23906,0.0901656
595,456,6.90063,3.14886,0,0,0,0,0,0,0,-1,1819,568,6.90066,-3.14887
602,456,16.894,4.10938,0,0,0,0,0,0,0,-1,1826,568,16.8941,-4.1094
609,456,14.9966,3.5708,0,0,0,0,0,0,0,-1,1833,568,14.9966,-3.57083
616,456,17.7407,2.6579,0,0,0,0,0,0,0,-1,1840,568,17.7408,-2.6579
623,456,20.6838,1.7121,0,0,0,0,0,0,0,-1,1847,568,20.6838,-1.71208
630,456,0,0,0,0,0,0,0,0,0,-1,1854,568,0,0
637,456,0,0,0,0,0,0,0,0,0,-1,1861,568,0,0
644,456,0,0,0,0,0,0,0,0,0,-1,1868,568,0,0
651,456,0,0,0,0,0,0,0,0,0,-1,1875,568,0,0
658,456,0,0,0,0,0,0,0,0,0,-1,1882,568,0,0
665,456,0,0,0,0,0,0,0,0,0,-1,1889,568,0,0
672,456,0,0,0,0,0,0,0,0,0,-1,1896,568,0,0
679,456,0,0,0,0,0,0,0,0,0,-1,1903,568,0,0
686,456,0,0,0,0,0,0,0,0,0,-1,1910,568,0,0
693,456,0,0,0,0,0,0,0,0,0,-1,1917,568,0,0
700,456,0,0,0,0,0,0,0,0,0,-1,1924,568,0,0
707,456,0,0,0,0,0,0,0,0,0,-1,1931,568,0,0
714,456,0,0,0,0,0,0,0,0,0,-1,1938,568,0,0
721,456,0,0,0,0,0,0,0,0,0,-1,1945,568,0,0
728,456,0,0,0,0,0,0,0,0,0,-1,1952,568,0,0
735,456,0,0,0,0,0,0,0,0,0,-1,1959,568,0,0
742,456,0,0,0,0,0,0,0,0,0,-1,1966,568,0,0
749,456,0,0,0,0,0,0,0,0,0,-1,1973,568,0,0
756,456,0,0,0,0,0,0,0,0,0,-1,1980,568,0,0
763,456,0,0,0,0,0,0,0,0,0,-1,1987,568,0,0
770,456,0,0,0,0,0,0,0,0,0,-1,1994,568,0,0
777,456,0,0,0,0,0,0,0,0,0,-1,2001,568,0,0
784,456,0,0,0,0,0,0,0,0,0,-1,2008,568,0,0
791,456,0,0,0,0,0,0,0,0,0,-1,2015,568,0,0
798,456,0,0,0,0,0,0,0,0,0,-1,2022,568,0,0
805,456,0,0,0,0,0,0,0,0,0,-1,2029,568,0,0
812,456,0,0,0,0,0,0,0,0,0,-1,2036,568,0,0
-700,449,0,0,0,0,0,0,0,0,0,-1,524,575,0,0
-693,449,0,0,0,0,0,0,0,0,0,-1,531,575,0,0
-686,449,0,0,0,0,0,0,0,0,0,-1,538,575,0,0
-679,449,0,0,0,0,0,0,0,0,0,-1,545,575,0,0
-672,449,0,0,0,0,0,0,0,0,0,-1,552,575,0,0
-665,449,0,0,0,0,0,0,0,0,0,-1,559,575,0,0
-658,449,0,0,0,0,0,0,0,0,0,-1,566,575,0,0
-651,449,0,0,0,0,0,0,0,0,0,-1,573,575,0,0
-644,449,0,0,0,0,0,0,0,0,0,-1,580,575,0,0
-637,449,0,0,0,0,0,0,0,0,0,-1,587,575,0,0
-630,449,0,0,0,0,0,0,0,0,0,-1,594,575,0,0
-623,449,0,0,0,0,0,0,0,0,0,-1,601,575,0,0
-616,449,0,0,0,0,0,0,0,0,0,-1,608,575,0,0
-609,449,0,0,0,0,0,0,0,0,0,-1,615,575,0,0
-602,449,0,0,0,0,0,0,0,0,0,-1,622,575,0,0
-595,449,0,0,0,0,0,0,0,0,0,-1,629,575,0,0
-588,449,0,0,0,0,0,0,0,0,0,-1,636,575,0,0
-581,449,0,0,0,0,0,0,0,0,0,-1,643,575,0,0
-574,449,0,0,0,0,0,0,0,0,0,-1,650,575,0,0
-567,449,0,0,0,0,0,0,0,0,0,-1,657,575,0,0
-560,449,0,0,0,0,0,0,0,0,0,-1,664,575,0,0
-553,449,0,0,0,0,0,0,0,0,0,-1,671,575,0,0
-546,449,0,0,0,0,0,0,0,0,0,-1,678,575,0,0
-539,449,0,0,0,0,0,0,0,0,0,-1,685,575,0,0
-532,449,0,0,0,0,0,0,0,0,0,-1,692,575,0,0
-525,449,0,0,0,0,0,0,0,0,0,-1,699,575,0,0
-518,449,0,0,0,0,0,0,0,0,0,-1,706,575,0,0
-511,449,-0.941345,-4.4519,0,0,0,0,0,0,0,-1,713,575,-0.941356,4.45191
-504,449,-14.1078,0.318237,0,0,0,0,0,0,0,-1,720,575,-14.1078,-0.318231
-497,449,-8.61292,-3.09009,0,0,0,0,0,0,0,-1,727,575,-8.61291,3.09011
-490,449,-7.50995,-2.96252,0,0,0,0,0,0,0,-1,734,575,-7.50995,2.96251
-483,449,-5.77789,-2.50061,0,0,0,0,0,0,0,-1,741,575,-5.77792,2.50059
-476,449,-4.1723,-2.07739,0,0,0,0,0,0,0,-1,748,575,-4.17228,2.0774
-469,449,-3.01874,-3.77667,0,0,0,0,0,0,0,-1,755,575,-3.01872,3.77667
-462,449,-2.88147,-3.80493,0,0,0,0,0,0,0,-1,762,575,-2.88147,3.80493
-455,449,-3.22931,-4.13324,0,0,0,0,0,0,0,-1,769,575,-3.22932,4.13324
-448,449,-3.06195,-4.55975,0.000288025,0.00762106,-0.00809734,0.0128433,-0.00493423,-0.99799,0.010597,0.0265373,776,575,-3.06197,4.55972
-441,449,-3.0755,-4.96228,-0.000125286,0.00598106,-0.00633118,0.00995681,-0.00410103,-1.01007,0.00834771,0.0145436,783,575,-3.07553,4.9623
-434,449,-3.12744,-5.24731,-0.000410473,0.00439766,-0.00471595,0.00728696,-0.00329977,-1.02112,0.00625508,0.0120417,790,575,-3.12746,5.24731
-427,449,-3.11517,-5.55756,-0.000689483,0.00295964,-0.00321456,0.00483135,-0.0025612,-1.04352,0.00433465,0.0119817,797,575,-3.11518,5.55755
-420,449,-3.11102,-5.89331,-0.00101041,0.00146987,-0.00175775,0.00238092,-0.00192146,-1.09261,0.00248869,0.012296,804,575,-3.11104,5.89334
-413,449,-3.12292,-6.20758,-0.00128327,-5.04075e-05,-0.000507173,0.000131417,-0.00146509,-1.22656,0.00102335,0.00967114,811,575,-3.1229,6.20759
-406,449,-3.14935,-6.51685,-0.00138445,-0.00158949,0.000665693,-0.00081343,-0.00216051,0.708995,0.00125999,0.0086497,818,575,-3.14935,6.51684
-399,449,-3.16248,-6.83881,-0.00158291,-0.00342602,0.00186233,-0.000426601,-0.00458233,0.555643,0.00292308,0.00822522,825,575,-3.16248,6.83881
-392,449,-3.14124,-7.14587,-0.00172458,-0.00577787,0.00310935,-3.97111e-05,-0.00746274,0.496582,0.00496197,0.00923206,832,575,-3.14121,7.14588
-385,449,-3.13495,-7.45154,-0.00164042,-0.00852359,0.00430068,0.000426203,-0.0105902,0.447954,0.00720641,0.0105231,839,575,-3.13493,7.45152
-378,449,-3.14752,-7.75629,-0.00161197,-0.0116299,0.00545348,0.000783808,-0.0140257,0.413929,0.00962237,0.0103477,846,575,-3.1475,7.75626
-371,449,-3.14264,-8.05914,-0.00132792,-0.0151356,0.00648416,0.00123965,-0.0177031,0.377031,0.0122362,0.0112764,853,575,-3.14263,8.05912
-364,449,-3.14166,-8.35822,-0.000702311,-0.0193029,0.00767221,0.00205386,-0.022059,0.344884,0.0154363,0.0215018,860,575,-3.14164,8.35819
-357,449,-3.09985,-8.49982,0.000497375,-0.0243217,0.00875628,0.00327563,-0.0271,0.30724,0.0192517,0.0444909,867,575,-3.09985,8.49979
-350,449,-2.8819,-8.69141,0,0,0,0,0,0,0,-1,874,575,-2.88187,8.69139
-343,449,-3.20105,-8.25446,0,0,0,0,0,0,0,-1,881,575,-3.20102,8.25447
-336,449,-3.06061,-8.43689,0,0,0,0,0,0,0,-1,888,575,-3.06063,8.43688
-329,449,-0.733398,-7.78937,0,0,0,0,0,0,0,-1,895,575,-0.733398,7.78937
-322,449,-0.628845,-3.16669,0,0,0,0,0,0,0,-1,902,575,-0.628861,3.16667
-315,449,-0.540344,-3.21918,0,0,0,0,0,0,0,-1,909,575,-0.540336,3.21917
-308,449,-1.04413,-2.99341,0,0,0,0,0,0,0,-1,916,575,-1.04415,2.99338
-301,449,-1.58691,-2.80725,0,0,0,0,0,0,0,-1,923,575,-1.58692,2.80728
-294,449,-3.71118,-2.76086,0,0,0,0,0,0,0,-1,930,575,-3.71119,2.76087
-287,449,-4.4082,-2.69525,0,0,0,0,0,0,0,-1,937,575,-4.40822,2.69526
-280,449,-5.09955,-2.96295,0,0,0,0,0,0,0,-1,944,575,-5.09953,2.96297
-273,449,0,0,0,0,0,0,0,0,0,-1,951,575,0,0
-266,449,0,0,0,0,0,0,0,0,0,-1,958,575,0,0
-259,449,0,0,0,0,0,0,0,0,0,-1,965,575,0,0
-252,449,0,0,0,0,0,0,0,0,0,-1,972,575,0,0
-245,449,0,0,0,0,0,0,0,0,0,-1,979,575,0,0
-238,449,0,0,0,0,0,0,0,0,0,-1,986,575,0,0
-231,449,0,0,0,0,0,0,0,0,0,-1,993,575,0,0
-224,449,0,0,0,0,0,0,0,0,0,-1,1000,575,0,0
-217,449,0,0,0,0,0,0,0,0,0,-1,1007,575,0,0
-210,449,0,0,0,0,0,0,0,0,0,-1,1014,575,0,0
-203,449,0,0,0,0,0,0,0,0,0,-1,1021,575,0,0
-196,449,0,0,0,0,0,0,0,0,0,-1,1028,575,0,0
-189,449,0,0,0,0,0,0,0,0,0,-1,1035,575,0,0
-182,449,0,0,0,0,0,0,0,0,0,-1,1042,575,0,0
-175,449,0,0,0,0,0,0,0,0,0,-1,1049,575,0,0
-168,449,0,0,0,0,0,0,0,0,0,-1,1056,575,0,0
-161,449,0,0,0,0,0,0,0,0,0,-1,1063,575,0,0
-154,449,0,0,0,0,0,0,0,0,0,-1,1070,575,0,0
-147,449,0,0,0,0,0,0,0,0,0,-1,1077,575,0,0
-140,449,0,0,0,0,0,0,0,0,0,-1,1084,575,0,0
-133,449,0,0,0,0,0,0,0,0,0,-1,1091,575,0,0
-126,449,0,0,0,0,0,0,0,0,0,-1,1098,575,0,0
-119,449,0,0,0,0,0,0,0,0,0,-1,1105,575,0,0
-112,449,0,0,0,0,0,0,0,0,0,-1,1112,575,0,0
-105,449,0,0,0,0,0,0,0,0,0,-1,1119,575,0,0
-98,449,0,0,0,0,0,0,0,0,0,-1,1126,575,0,0
-91,449,0,0,0,0,0,0,0,0,0,-1,1133,575,0,0
-84,449,0,0,0,0,0,0,0,0,0,-1,1140,575,0,0
-77,449,0,0,0,0,0,0,0,0,0,-1,1147,575,0,0
-70,449,0,0,0,0,0,0,0,0,0,-1,1154,575,0,0
-63,449,0,0,0,0,0,0,0,0,0,-1,1161,575,0,0
-56,449,0,0,0,0,0,0,0,0,0,-1,1168,575,0,0
-49,449,0,0,0,0,0,0,0,0,0,-1,1175,575,0,0
-42,449,0,0,0,0,0,0,0,0,0,-1,1182,575,0,0
-35,449,0,0,0,0,0,0,0,0,0,-1,1189,575,0,0
-28,449,0,0,0,0,0,0,0,0,0,-1,1196,575,0,0
-21,449,0,0,0,0,0,0,0,0,0,-1,1203,575,0,0
-14,449,0,0,0,0,0,0,0,0,0,-1,1210,575,0,0
-7,449,0,0,0,0,0,0,0,0,0,-1,1217,575,0,0
0,449,0,0,0,0,0,0,0,0,0,-1,1224,575,0,0
7,449,0,0,0,0,0,0,0,0,0,-1,1231,575,0,0
14,449,0,0,0,0,0,0,0,0,0,-1,1238,575,0,0
21,449,0,0,0,0,0,0,0,0,0,-1,1245,575,0,0
28,449,0,0,0,0,0,0,0,0,0,-1,1252,575,0,0
35,449,0,0,0,0,0,0,0,0,0,-1,1259,575,0,0
42,449,0,0,0,0,0,0,0,0,0,-1,1266,575,0,0
49,449,0,0,0,0,0,0,0,0,0,-1,1273,575,0,0
56,449,0,0,0,0,0,0,0,0,0,-1,1280,575,0,0
63,449,0,0,0,0,0,0,0,0,0,-1,1287,575,0,0
70,449,0,0,0,0,0,0,0,0,0,-1,1294,575,0,0
77,449,0,0,0,0,0,0,0,0,0,-1,1301,575,0,0
84,449,0,0,0,0,0,0,0,0,0,-1,1308,575,0,0
91,449,0,0,0,0,0,0,0,0,0,-1,1315,575,0,0
98,449,0,0,0,0,0,0,0,0,0,-1,1322,575,0,0
105,449,0,0,0,0,0,0,0,0,0,-1,1329,575,0,0
112,449,0,0,0,0,0,0,0,0,0,-1,1336,575,0,0
119,449,0,0,0,0,0,0,0,0,0,-1,1343,575,0,0
126,449,0,0,0,0,0,0,0,0,0,-1,1350,575,0,0
133,449,0,0,0,0,0,0,0,0,0,-1,1357,575,0,0
140,449,0,0,0,0,0,0,0,0,0,-1,1364,575,0,0
147,449,0,0,0,0,0,0,0,0,0,-1,1371,575,0,0
154,449,0,0,0,0,0,0,0,0,0,-1,1378,575,0,0
161,449,0,0,0,0,0,0,0,0,0,-1,1385,575,0,0
168,449,0,0,0,0,0,0,0,0,0,-1,1392,575,0,0
175,449,0,0,0,0,0,0,0,0,0,-1,1399,575,0,0
182,449,0,0,0,0,0,0,0,0,0,-1,1406,575,0,0
189,449,0,0,0,0,0,0,0,0,0,-1,1413,575,0,0
196,449,0,0,0,0,0,0,0,0,0,-1,1420,575,0,0
203,449,0,0,0,0,0,0,0,0,0,-1,1427,575,0,0
210,449,0,0,0,0,0,0,0,0,0,-1,1434,575,0,0
217,449,0,0,0,0,0,0,0,0,0,-1,1441,575,0,0
224,449,0,0,0,0,0,0,0,0,0,-1,1448,575,0,0
231,449,0,0,0,0,0,0,0,0,0,-1,1455,575,0,0
238,449,0,0,0,0,0,0,0,0,0,-1,1462,575,0,0
245,449,0,0,0,0,0,0,0,0,0,-1,1469,575,0,0
252,449,0,0,0,0,0,0,0,0,0,-1,1476,575,0,0
259,449,0,0,0,0,0,0,0,0,0,-1,1483,575,0,0
266,449,0,0,0,0,0,0,0,0,0,-1,1490,575,0,0
273,449,0,0,0,0,0,0,0,0,0,-1,1497,575,0,0
280,449,0,0,0,0,0,0,0,0,0,-1,1504,575,0,0
287,449,0,0,0,0,0,0,0,0,0,-1,1511,575,0,0
294,449,0,0,0,0,0,0,0,0,0,-1,1518,575,0,0
301,449,0,0,0,0,0,0,0,0,0,-1,1525,575,0,0
308,449,0,0,0,0,0,0,0,0,0,-1,1532,575,0,0
315,449,0,0,0,0,0,0,0,0,0,-1,1539,575,0,0
322,449,0,0,0,0,0,0,0,0,0,-1,1546,575,0,0
329,449,0,0,0,0,0,0,0,0,0,-1,1553,575,0,0
336,449,0,0,0,0,0,0,0,0,0,-1,1560,575,0,0
343,449,0,0,0,0,0,0,0,0,0,-1,1567,575,0,0
350,449,0,0,0,0,0,0,0,0,0,-1,1574,575,0,0
357,449,0,0,0,0,0,0,0,0,0,-1,1581,575,0,0
364,449,0,0,0,0,0,0,0,0,0,-1,1588,575,0,0
371,449,0,0,0,0,0,0,0,0,0,-1,1595,575,0,0
378,449,0,0,0,0,0,0,0,0,0,-1,1602,575,0,0
385,449,0,0,0,0,0,0,0,0,0,-1,1609,575,0,0
392,449,7.95471,3.66217,0,0,0,0,0,0,0,-1,1616,575,7.95471,-3.66218
399,449,19.9791,5.565,0,0,0,0,0,0,0,-1,1623,575,19.9791,-5.56499
406,449,22.5933,4.73688,0,0,0,0,0,0,0,-1,1630,575,22.5933,-4.7369
413,449,23.5795,3.19586,0,0,0,0,0,0,0,-1,1637,575,23.5795,-3.19584
420,449,23.9675,1.29718,0,0,0,0,0,0,0,-1,1644,575,23.9675,-1.29721
427,449,24.4276,-0.596558,0,0,0,0,0,0,0,-1,1651,575,24.4277,0.596569
434,449,25.61,-2.96594,0,0,0,0,0,0,0,-1,1658,575,25.61,2.96595
441,449,3.89856,-6.06458,0,0,0,0,0,0,0,-1,1665,575,3.89855,6.06459
448,449,4.03198,-5.18207,0,0,0,0,0,0,0,-1,1672,575,4.03197,5.18207
455,449,4.21948,-4.09467,0,0,0,0,0,0,0,-1,1679,575,4.21952,4.09465
462,449,4.23181,-2.96924,0,0,0,0,0,0,0,-1,1686,575,4.23185,2.96926
469,449,4.51672,-2.95135,0,0,0,0,0,0,0,-1,1693,575,4.51672,2.95135
476,449,4.71838,-1.86688,0,0,0,0,0,0,0,-1,1700,575,4.71842,1.86689
483,449,4.87878,-1.73126,0,0,0,0,0,0,0,-1,1707,575,4.87875,1.73128
490,449,5.73279,-2.74573,0,0,0,0,0,0,0,-1,1714,575,5.73282,2.74575
497,449,9.73767,-6.84485,0,0,0,0,0,0,0,-1,1721,575,9.73772,6.84486
504,449,9.72192,-6.27734,0.00574293,0.003551,0.0036489,0.0084569,0.000837034,0.639507,0.00538067,0.0428927,1728,575,9.72192,6.27733
511,449,9.79065,-5.91376,0.00457384,0.00268125,0.0029976,0.00677096,0.000484131,0.632506,0.00436156,0.0112489,1735,575,9.79067,5.91375
518,449,9.81665,-5.56909,0.0034876,0.00207191,0.00239948,0.00528146,0.000278047,0.641967,0.00343205,0.0133105,1742,575,9.81665,5.56911
525,449,9.78491,-5.22955,0.00246528,0.00166208,0.00185303,0.00395972,0.000167636,0.678686,0.00258575,0.0126414,1749,575,9.78486,5.22958
532,449,9.74988,-4.89648,0.00150516,0.00133634,0.00135126,0.00277464,6.68528e-05,0.754206,0.00182789,0.0104401,1756,575,9.74993,4.8965
539,449,9.73511,-4.54218,0.00064678,0.00096711,0.000887774,0.00170905,-9.51612e-05,0.874644,0.00117238,0.0138665,1763,575,9.73514,4.5422
546,449,9.73682,-4.185,5.63131e-06,0.0010814,0.000696747,0.00142373,-0.000336697,1.11411,0.00107904,0.0238929,1770,575,9.73685,4.18501
553,449,9.73743,-3.85577,-0.00053368,0.00120878,0.000555209,0.00137066,-0.000695551,1.28711,0.00121396,0.0167121,1777,575,9.73744,3.85575
560,449,9.77466,-3.53735,-0.00101985,0.00152431,0.000584221,0.00165206,-0.0011476,1.35553,0.0016251,0.0130024,1784,575,9.77463,3.53738
567,449,9.7561,-3.1958,-0.00135284,0.00208292,0.000849493,0.00228148,-0.0015514,1.34118,0.00222626,0.00959549,1791,575,9.7561,3.19578
574,449,9.74109,-2.83002,-0.001629,0.00287295,0.00131959,0.00323123,-0.00198728,1.30568,0.00304131,0.0216356,1798,575,9.74114,2.82999
581,449,9.7511,-2.40723,0,0,0,0,0,0,0,-1,1805,575,9.75106,2.40725
588,449,9.67969,-1.81689,0,0,0,0,0,0,0,-1,1812,575,9.67969,1.81692
595,449,9.97876,-0.909241,0,0,0,0,0,0,0,-1,1819,575,9.97877,0.909253
602,449,9.46167,4.17444,0,0,0,0,0,0,0,-1,1826,575,9.46164,-4.17442
609,449,12.2028,3.18652,0,0,0,0,0,0,0,-1,1833,575,12.2027,-3.18655
616,449,14.9438,2.19867,0,0,0,0,0,0,0,-1,1840,575,14.9438,-2.19867
623,449,9.83789,-0.0820313,0,0,0,0,0,0,0,-1,1847,575,9.83794,0.0820443
630,449,8.90686,4.99329,0,0,0,0,0,0,0,-1,1854,575,8.90685,-4.99327
637,449,0,0,0,0,0,0,0,0,0,-1,1861,575,0,0
644,449,0,0,0,0,0,0,0,0,0,-1,1868,575,0,0
651,449,0,0,0,0,0,0,0,0,0,-1,1875,575,0,0
658,449,0,0,0,0,0,0,0,0,0,-1,1882,575,0,0
665,449,0,0,0,0,0,0,0,0,0,-1,1889,575,0,0
672,449,0,0,0,0,0,0,0,0,0,-1,1896,575,0,0
679,449,0,0,0,0,0,0,0,0,0,-1,1903,575,0,0
686,449,0,0,0,0,0,0,0,0,0,-1,1910,575,0,0
693,449,0,0,0,0,0,0,0,0,0,-1,1917,575,0,0
700,449,0,0,0,0,0,0,0,0,0,-1,1924,575,0,0
707,449,0,0,0,0,0,0,0,0,0,-1,1931,575,0,0
714,449,0,0,0,0,0,0,0,0,0,-1,1938,575,0,0
721,449,0,0,0,0,0,0,0,0,0,-1,1945,575,0,0
728,449,0,0,0,0,0,0,0,0,0,-1,1952,575,0,0
735,449,0,0,0,0,0,0,0,0,0,-1,1959,575,0,0
742,449,0,0,0,0,0,0,0,0,0,-1,1966,575,0,0
749,449,0,0,0,0,0,0,0,0,0,-1,1973,575,0,0
756,449,0,0,0,0,0,0,0,0,0,-1,1980,575,0,0
763,449,0,0,0,0,0,0,0,0,0,-1,1987,575,0,0
770,449,0,0,0,0,0,0,0,0,0,-1,1994,575,0,0
777,449,0,0,0,0,0,0,0,0,0,-1,2001,575,0,0
784,449,0,0,0,0,0,0,0,0,0,-1,2008,575,0,0
791,449,0,0,0,0,0,0,0,0,0,-1,2015,575,0,0
798,449,0,0,0,0,0,0,0,0,0,-1,2022,575,0,0
805,449,0,0,0,0,0,0,0,0,0,-1,2029,575,0,0
812,449,0,0,0,0,0,0,0,0,0,-1,2036,575,0,0
-700,442,0,0,0,0,0,0,0,0,0,-1,524,582,0,0
-693,442,0,0,0,0,0,0,0,0,0,-1,531,582,0,0
-686,442,0,0,0,0,0,0,0,0,0,-1,538,582,0,0
-679,442,0,0,0,0,0,0,0,0,0,-1,545,582,0,0
-672,442,0,0,0,0,0,0,0,0,0,-1,552,582,0,0
-665,442,0,0,0,0,0,0,0,0,0,-1,559,582,0,0
-658,442,0,0,0,0,0,0,0,0,0,-1,566,582,0,0
-651,442,0,0,0,0,0,0,0,0,0,-1,573,582,0,0
-644,442,0,0,0,0,0,0,0,0,0,-1,580,582,0,0
-637,442,0,0,0,0,0,0,0,0,0,-1,587,582,0,0
-630,442,0,0,0,0,0,0,0,0,0,-1,594,582,0,0
-623,442,0,0,0,0,0,0,0,0,0,-1,601,582,0,0
-616,442,0,0,0,0,0,0,0,0,0,-1,608,582,0,0
-609,442,0,0,0,0,0,0,0,0,0,-1,615,582,0,0
-602,442,0,0,0,0,0,0,0,0,0,-1,622,582,0,0
-595,442,0,0,0,0,0,0,0,0,0,-1,629,582,0,0
-588,442,0,0,0,0,0,0,0,0,0,-1,636,582,0,0
-581,442,0,0,0,0,0,0,0,0,0,-1,643,582,0,0
-574,442,0,0,0,0,0,0,0,0,0,-1,650,582,0,0
-567,442,0,0,0,0,0,0,0,0,0,-1,657,582,0,0
-560,442,0,0,0,0,0,0,0,0,0,-1,664,582,0,0
-553,442,0,0,0,0,0,0,0,0,0,-1,671,582,0,0
-546,442,0,0,0,0,0,0,0,0,0,-1,678,582,0,0
-539,442,0,0,0,0,0,0,0,0,0,-1,685,582,0,0
-532,442,0,0,0,0,0,0,0,0,0,-1,692,582,0,0
-525,442,0,0,0,0,0,0,0,0,0,-1,699,582,0,0
-518,442,-0.493774,-5.72943,0,0,0,0,0,0,0,-1,706,582,-0.493791,5.72946
-511,442,-1.33008,-6.18512,0,0,0,0,0,0,0,-1,713,582,-1.33006,6.18511
-504,442,-3.20807,-6.34082,0,0,0,0,0,0,0,-1,720,582,-3.2081,6.34083
-497,442,-13.6886,-0.250122,0,0,0,0,0,0,0,-1,727,582,-13.6886,0.250143
-490,442,-9.09039,-3.64862,0,0,0,0,0,0,0,-1,734,582,-9.09037,3.64861
-483,442,-7.3457,-0.569519,0,0,0,0,0,0,0,-1,741,582,-7.34569,0.5695
-476,442,-3.43018,-2.74347,0,0,0,0,0,0,0,-1,748,582,-3.43019,2.74346
-469,442,-3.49329,-3.33691,0,0,0,0,0,0,0,-1,755,582,-3.49326,3.3369
-462,442,-3.25775,-3.88605,0.00386235,0.0104044,-0.0086643,0.0163946,-0.00212781,-0.965892,0.0117036,0.0371054,762,582,-3.25775,3.88606
-455,442,-3.44824,-4.26111,0.00259675,0.00804562,-0.00663336,0.0124922,-0.00184987,-0.980254,0.00900832,0.0285328,769,582,-3.44826,4.2611
-448,442,-3.38654,-4.604,0.00160433,0.00621644,-0.00496963,0.00938899,-0.00156822,-1.00263,0.00684224,0.0144285,776,582,-3.38651,4.60402
-441,442,-3.40009,-4.94476,0.000947193,0.00475017,-0.00363985,0.00695528,-0.00125792,-1.02611,0.00510805,0.0137008,783,582,-3.40007,4.94479
-434,442,-3.42444,-5.2453,0.000347539,0.00322071,-0.00237542,0.00456016,-0.000991914,-1.05736,0.00341905,0.0134326,790,582,-3.42444,5.24531
-427,442,-3.44269,-5.56122,-0.000230938,0.00178952,-0.00115089,0.00231067,-0.000752082,-1.1456,0.00184302,0.0127882,797,582,-3.44268,5.5612
-420,442,-3.43604,-5.89453,-0.000853735,0.000237116,5.04207e-05,0.000239442,-0.000856061,1.52471,0.000665048,0.0133917,804,582,-3.43601,5.89453
-413,442,-3.43304,-6.19983,-0.00145223,-0.00144004,0.0011187,-0.000327417,-0.00256485,0.788121,0.00161189,0.0112638,811,582,-3.43304,6.19983
-406,442,-3.44653,-6.51538,-0.00186064,-0.00313546,0.00217008,-0.000236292,-0.00475981,0.642553,0.00309745,0.00905682,818,582,-3.44656,6.5154
-399,442,-3.46008,-6.83429,-0.00237067,-0.00521798,0.00331169,-0.000189593,-0.00739905,0.582396,0.00487073,0.00803885,825,582,-3.46011,6.8343
-392,442,-3.45599,-7.14136,-0.00282676,-0.00788969,0.00458645,-0.000119536,-0.0105969,0.533231,0.0070251,0.0106085,832,582,-3.45599,7.14135
-385,442,-3.45215,-7.44257,-0.00303729,-0.0111309,0.00589621,6.72597e-05,-0.0142355,0.484648,0.00951282,0.0127835,839,582,-3.45214,7.44258
-378,442,-3.44824,-7.74762,-0.00325567,-0.0149072,0.00729121,0.000251374,-0.0184142,0.44833,0.0123608,0.0132676,846,582,-3.44824,7.74761
-371,442,-3.42291,-8.05731,-0.00314519,-0.0193622,0.0087798,0.000697576,-0.0232049,0.412564,0.0157076,0.0249949,853,582,-3.42291,8.0573
-364,442,-3.58539,-8.27496,-0.00272913,-0.0247324,0.0103947,0.0014048,-0.0288664,0.378519,0.0197292,0.0409254,860,582,-3.58542,8.27493
-357,442,-3.69849,-8.513,0,0,0,0,0,0,0,-1,867,582,-3.69851,8.51302
-350,442,-1.75372,-6.27618,0,0,0,0,0,0,0,-1,874,582,-1.75371,6.27618
-343,442,-1.4599,-4.63605,0,0,0,0,0,0,0,-1,881,582,-1.4599,4.63607
-336,442,-1.4054,-2.64313,0,0,0,0,0,0,0,-1,888,582,-1.40539,2.64315
-329,442,-0.952576,-2.76923,0,0,0,0,0,0,0,-1,895,582,-0.952571,2.7692
-322,442,-0.972534,-2.63208,0,0,0,0,0,0,0,-1,902,582,-0.972512,2.6321
-315,442,-0.445557,-2.89764,0,0,0,0,0,0,0,-1,909,582,-0.445582,2.89765
-308,442,-0.654175,-3.07831,0,0,0,0,0,0,0,-1,916,582,-0.654145,3.07832
-301,442,-1.37427,-2.41455,0,0,0,0,0,0,0,-1,923,582,-1.37425,2.41453
-294,442,-2.99963,-2.07855,0,0,0,0,0,0,0,-1,930,582,-2.99964,2.07857
-287,442,-5.62799,-2.76422,0,0,0,0,0,0,0,-1,937,582,-5.628,2.76424
-280,442,0,0,0,0,0,0,0,0,0,-1,944,582,0,0
-273,442,0,0,0,0,0,0,0,0,0,-1,951,582,0,0
-266,442,0,0,0,0,0,0,0,0,0,-1,958,582,0,0
-259,442,0,0,0,0,0,0,0,0,0,-1,965,582,0,0
-252,442,0,0,0,0,0,0,0,0,0,-1,972,582,0,0
-245,442,0,0,0,0,0,0,0,0,0,-1,979,582,0,0
-238,442,0,0,0,0,0,0,0,0,0,-1,986,582,0,0
-231,442,0,0,0,0,0,0,0,0,0,-1,993,582,0,0
-224,442,0,0,0,0,0,0,0,0,0,-1,1000,582,0,0
-217,442,0,0,0,0,0,0,0,0,0,-1,1007,582,0,0
-210,442,0,0,0,0,0,0,0,0,0,-1,1014,582,0,0
-203,442,0,0,0,0,0,0,0,0,0,-1,1021,582,0,0
-196,442,0,0,0,0,0,0,0,0,0,-1,1028,582,0,0
-189,442,0,0,0,0,0,0,0,0,0,-1,1035,582,0,0
-182,442,0,0,0,0,0,0,0,0,0,-1,1042,582,0,0
-175,442,0,0,0,0,0,0,0,0,0,-1,1049,582,0,0
-168,442,0,0,0,0,0,0,0,0,0,-1,1056,582,0,0
-161,442,0,0,0,0,0,0,0,0,0,-1,1063,582,0,0
-154,442,0,0,0,0,0,0,0,0,0,-1,1070,582,0,0
-147,442,0,0,0,0,0,0,0,0,0,-1,1077,582,0,0
-140,442,0,0,0,0,0,0,0,0,0,-1,1084,582,0,0
-133,442,0,0,0,0,0,0,0,0,0,-1,1091,582,0,0
-126,442,0,0,0,0,0,0,0,0,0,-1,1098,582,0,0
-119,442,0,0,0,0,0,0,0,0,0,-1,1105,582,0,0
-112,442,0,0,0,0,0,0,0,0,0,-1,1112,582,0,0
-105,442,0,0,0,0,0,0,0,0,0,-1,1119,582,0,0
-98,442,0,0,0,0,0,0,0,0,0,-1,1126,582,0,0
-91,442,0,0,0,0,0,0,0,0,0,-1,1133,582,0,0
-84,442,0,0,0,0,0,0,0,0,0,-1,1140,582,0,0
-77,442,0,0,0,0,0,0,0,0,0,-1,1147,582,0,0
-70,442,0,0,0,0,0,0,0,0,0,-1,1154,582,0,0
-63,442,0,0,0,0,0,0,0,0,0,-1,1161,582,0,0
-56,442,0,0,0,0,0,0,0,0,0,-1,1168,582,0,0
-49,442,0,0,0,0,0,0,0,0,0,-1,1175,582,0,0
-42,442,0,0,0,0,0,0,0,0,0,-1,1182,582,0,0
-35,442,0,0,0,0,0,0,0,0,0,-1,1189,582,0,0
-28,442,0,0,0,0,0,0,0,0,0,-1,1196,582,0,0
-21,442,0,0,0,0,0,0,0,0,0,-1,1203,582,0,0
-14,442,0,0,0,0,0,0,0,0,0,-1,1210,582,0,0
-7,442,0,0,0,0,0,0,0,0,0,-1,1217,582,0,0
0,442,0,0,0,0,0,0,0,0,0,-1,1224,582,0,0
7,442,0,0,0,0,0,0,0,0,0,-1,1231,582,0,0
14,442,0,0,0,0,0,0,0,0,0,-1,1238,582,0,0
21,442,0,0,0,0,0,0,0,0,0,-1,1245,582,0,0
28,442,0,0,0,0,0,0,0,0,0,-1,1252,582,0,0
35,442,0,0,0,0,0,0,0,0,0,-1,1259,582,0,0
42,442,0,0,0,0,0,0,0,0,0,-1,1266,582,0,0
49,442,0,0,0,0,0,0,0,0,0,-1,1273,582,0,0
56,442,0,0,0,0,0,0,0,0,0,-1,1280,582,0,0
63,442,0,0,0,0,0,0,0,0,0,-1,1287,582,0,0
70,442,0,0,0,0,0,0,0,0,0,-1,1294,582,0,0
77,442,0,0,0,0,0,0,0,0,0,-1,1301,582,0,0
84,442,0,0,0,0,0,0,0,0,0,-1,1308,582,0,0
91,442,0,0,0,0,0,0,0,0,0,-1,1315,582,0,0
98,442,0,0,0,0,0,0,0,0,0,-1,1322,582,0,0
105,442,0,0,0,0,0,0,0,0,0,-1,1329,582,0,0
112,442,0,0,0,0,0,0,0,0,0,-1,1336,582,0,0
119,442,0,0,0,0,0,0,0,0,0,-1,1343,582,0,0
126,442,0,0,0,0,0,0,0,0,0,-1,1350,582,0,0
133,442,0,0,0,0,0,0,0,0,0,-1,1357,582,0,0
140,442,0,0,0,0,0,0,0,0,0,-1,1364,582,0,0
147,442,0,0,0,0,0,0,0,0,0,-1,1371,582,0,0
154,442,0,0,0,0,0,0,0,0,0,-1,1378,582,0,0
161,442,0,0,0,0,0,0,0,0,0,-1,1385,582,0,0
168,442,0,0,0,0,0,0,0,0,0,-1,1392,582,0,0
175,442,0,0,0,0,0,0,0,0,0,-1,1399,582,0,0
182,442,0,0,0,0,0,0,0,0,0,-1,1406,582,0,0
189,442,0,0,0,0,0,0,0,0,0,-1,1413,582,0,0
196,442,0,0,0,0,0,0,0,0,0,-1,1420,582,0,0
203,442,0,0,0,0,0,0,0,0,0,-1,1427,582,0,0
210,442,0,0,0,0,0,0,0,0,0,-1,1434,582,0,0
217,442,0,0,0,0,0,0,0,0,0,-1,1441,582,0,0
224,442,0,0,0,0,0,0,0,0,0,-1,1448,582,0,0
231,442,0,0,0,0,0,0,0,0,0,-1,1455,582,0,0
238,442,0,0,0,0,0,0,0,0,0,-1,1462,582,0,0
245,442,0,0,0,0,0,0,0,0,0,-1,1469,582,0,0
252,442,0,0,0,0,0,0,0,0,0,-1,1476,582,0,0
259,442,0,0,0,0,0,0,0,0,0,-1,1483,582,0,0
266,442,0,0,0,0,0,0,0,0,0,-1,1490,582,0,0
273,442,0,0,0,0,0,0,0,0,0,-1,1497,582,0,0
280,442,0,0,0,0,0,0,0,0,0,-1,1504,582,0,0
287,442,0,0,0,0,0,0,0,0,0,-1,1511,582,0,0
294,442,0,0,0,0,0,0,0,0,0,-1,1518,582,0,0
301,442,0,0,0,0,0,0,0,0,0,-1,1525,582,0,0
308,442,0,0,0,0,0,0,0,0,0,-1,1532,582,0,0
315,442,0,0,0,0,0,0,0,0,0,-1,1539,582,0,0
322,442,0,0,0,0,0,0,0,0,0,-1,1546,582,0,0
329,442,0,0,0,0,0,0,0,0,0,-1,1553,582,0,0
336,442,0,0,0,0,0,0,0,0,0,-1,1560,582,0,0
343,442,0,0,0,0,0,0,0,0,0,-1,1567,582,0,0
350,442,0,0,0,0,0,0,0,0,0,-1,1574,582,0,0
357,442,0,0,0,0,0,0,0,0,0,-1,1581,582,0,0
364,442,0,0,0,0,0,0,0,0,0,-1,1588,582,0,0
371,442,0,0,0,0,0,0,0,0,0,-1,1595,582,0,0
378,442,0,0,0,0,0,0,0,0,0,-1,1602,582,0,0
385,442,0,0,0,0,0,0,0,0,0,-1,1609,582,0,0
392,442,0,0,0,0,0,0,0,0,0,-1,1616,582,0,0
399,442,0,0,0,0,0,0,0,0,0,-1,1623,582,0,0
406,442,17.6321,4.08295,0,0,0,0,0,0,0,-1,1630,582,17.6321,-4.08293
413,442,22.1273,3.56525,0,0,0,0,0,0,0,-1,1637,582,22.1273,-3.56525
420,442,22.7478,1.55011,0,0,0,0,0,0,0,-1,1644,582,22.7478,-1.55009
427,442,23.2969,-0.456787,0,0,0,0,0,0,0,-1,1651,582,23.2968,0.456769
434,442,23.9512,-2.49365,0,0,0,0,0,0,0,-1,1658,582,23.9512,2.49366
441,442,24.8251,-4.43958,0,0,0,0,0,0,0,-1,1665,582,24.8251,4.43956
448,442,4.7749,-5.88562,0,0,0,0,0,0,0,-1,1672,582,4.7749,5.8856
455,442,4.87024,-4.60687,0,0,0,0,0,0,0,-1,1679,582,4.87019,4.60686
462,442,5.02307,-3.72821,0,0,0,0,0,0,0,-1,1686,582,5.02311,3.7282
469,442,5.12976,-2.98834,0,0,0,0,0,0,0,-1,1693,582,5.12971,2.98834
476,442,5.4624,1.76947,0,0,0,0,0,0,0,-1,1700,582,5.46234,-1.76944
483,442,5.98486,1.87042,0,0,0,0,0,0,0,-1,1707,582,5.98492,-1.87045
490,442,5.04407,-2.35834,0,0,0,0,0,0,0,-1,1714,582,5.04411,2.35837
497,442,6.20984,-3.07831,0,0,0,0,0,0,0,-1,1721,582,6.2098,3.07833
504,442,9.98669,-6.30817,0,0,0,0,0,0,0,-1,1728,582,9.98675,6.30819
511,442,10.049,-5.92242,0.0054382,0.00319373,0.00353189,0.00802185,0.000610068,0.631571,0.00515659,0.0269893,1735,582,10.0489,5.92245
518,442,10.1458,-5.54633,0.00431925,0.00244785,0.00286124,0.00639391,0.000373193,0.627367,0.00414381,0.0110623,1742,582,10.1458,5.54631
525,442,10.1116,-5.22479,0.00328008,0.00197795,0.00228165,0.00500173,0.000256291,0.646418,0.00325243,0.00975941,1749,582,10.1116,5.2248
532,442,10.0935,-4.89752,0.00231601,0.00155664,0.00174477,0.00372193,0.000150717,0.678263,0.00243261,0.0100197,1756,582,10.0935,4.89751
539,442,10.0798,-4.54126,0.00145081,0.00111113,0.00122786,0.00252052,4.14188e-05,0.716673,0.00166671,0.0120474,1763,582,10.0798,4.54126
546,442,10.0886,-4.18243,0.000795008,0.00109002,0.000962488,0.00191624,-3.121e-05,0.861435,0.00128802,0.0158044,1770,582,10.0886,4.18242
553,442,10.0833,-3.86792,0.00024482,0.0011259,0.000776793,0.00157837,-0.00020766,1.04335,0.00112786,0.0158152,1777,582,10.0833,3.86793
560,442,10.1125,-3.52747,-0.000278405,0.00134614,0.000746523,0.00163708,-0.000569347,1.19917,0.00132267,0.0150242,1784,582,10.1126,3.52746
567,442,10.0787,-3.19385,-0.000666671,0.00181426,0.00093455,0.0021269,-0.000979311,1.24796,0.00183371,0.0107798,1791,582,10.0787,3.19385
574,442,10.0714,-2.85663,-0.000956784,0.00249862,0.00131581,0.00294263,-0.00140079,1.24536,0.0025598,0.013243,1798,582,10.0715,2.85663
581,442,10.1339,-2.43616,-0.00120364,0.00355114,0.00199098,0.00427472,-0.00192721,1.22221,0.00366519,0.0208143,1805,582,10.1339,2.43616
588,442,10.0564,-2.20685,-0.00125667,0.00498152,0.00299819,0.00618884,-0.002464,1.18798,0.0051477,0.0348867,1812,582,10.0564,2.20684
595,442,10.0576,-1.4903,-0.00116027,0.00715858,0.00434877,0.00901685,-0.00301854,1.16697,0.00723058,0.0498145,1819,582,10.0576,1.49032
602,442,10.2236,-0.435059,0,0,0,0,0,0,0,-1,1826,582,10.2236,0.435037
609,442,12.761,2.97223,0,0,0,0,0,0,0,-1,1833,582,12.761,-2.97221
616,442,9.78345,-0.103394,0,0,0,0,0,0,0,-1,1840,582,9.78341,0.103424
623,442,9.23828,0.326721,0,0,0,0,0,0,0,-1,1847,582,9.23829,-0.326727
630,442,7.74304,2.3924,0,0,0,0,0,0,0,-1,1854,582,7.7431,-2.39238
637,442,5.87805,1.84027,0,0,0,0,0,0,0,-1,1861,582,5.87807,-1.84025
644,442,0,0,0,0,0,0,0,0,0,-1,1868,582,0,0
651,442,0,0,0,0,0,0,0,0,0,-1,1875,582,0,0
658,442,0,0,0,0,0,0,0,0,0,-1,1882,582,0,0
665,442,0,0,0,0,0,0,0,0,0,-1,1889,582,0,0
672,442,0,0,0,0,0,0,0,0,0,-1,1896,582,0,0
679,442,0,0,0,0,0,0,0,0,0,-1,1903,582,0,0
686,442,0,0,0,0,0,0,0,0,0,-1,1910,582,0,0
693,442,0,0,0,0,0,0,0,0,0,-1,1917,582,0,0
700,442,0,0,0,0,0,0,0,0,0,-1,1924,582,0,0
707,442,0,0,0,0,0,0,0,0,0,-1,1931,582,0,0
714,442,0,0,0,0,0,0,0,0,0,-1,1938,582,0,0
721,442,0,0,0,0,0,0,0,0,0,-1,1945,582,0,0
728,442,0,0,0,0,0,0,0,0,0,-1,1952,582,0,0
735,442,0,0,0,0,0,0,0,0,0,-1,1959,582,0,0
742,442,0,0,0,0,0,0,0,0,0,-1,1966,582,0,0
749,442,0,0,0,0,0,0,0,0,0,-1,1973,582,0,0
756,442,0,0,0,0,0,0,0,0,0,-1,1980,582,0,0
763,442,0,0,0,0,0,0,0,0,0,-1,1987,582,0,0
770,442,0,0,0,0,0,0,0,0,0,-1,1994,582,0,0
777,442,0,0,0,0,0,0,0,0,0,-1,2001,582,0,0
784,442,0,0,0,0,0,0,0,0,0,-1,2008,582,0,0
791,442,0,0,0,0,0,0,0,0,0,-1,2015,582,0,0
798,442,0,0,0,0,0,0,0,0,0,-1,2022,582,0,0
805,442,0,0,0,0,0,0,0,0,0,-1,2029,582,0,0
812,442,0,0,0,0,0,0,0,0,0,-1,2036,582,0,0
-700,435,0,0,0,0,0,0,0,0,0,-1,524,589,0,0
-693,435,0,0,0,0,0,0,0,0,0,-1,531,589,0,0
-686,435,0,0,0,0,0,0,0,0,0,-1,538,589,0,0
-679,435,0,0,0,0,0,0,0,0,0,-1,545,589,0,0
-672,435,0,0,0,0,0,0,0,0,0,-1,552,589,0,0
-665,435,0,0,0,0,0,0,0,0,0,-1,559,589,0,0
-658,435,0,0,0,0,0,0,0,0,0,-1,566,589,0,0
-651,435,0,0,0,0,0,0,0,0,0,-1,573,589,0,0
-644,435,0,0,0,0,0,0,0,0,0,-1,580,589,0,0
-637,435,0,0,0,0,0,0,0,0,0,-1,587,589,0,0
-630,435,0,0,0,0,0,0,0,0,0,-1,594,589,0,0
-623,435,0,0,0,0,0,0,0,0,0,-1,601,589,0,0
-616,435,0,0,0,0,0,0,0,0,0,-1,608,589,0,0
-609,435,0,0,0,0,0,0,0,0,0,-1,615,589,0,0
-602,435,0,0,0,0,0,0,0,0,0,-1,622,589,0,0
-595,435,0,0,0,0,0,0,0,0,0,-1,629,589,0,0
-588,435,0,0,0,0,0,0,0,0,0,-1,636,589,0,0
-581,435,0,0,0,0,0,0,0,0,0,-1,643,589,0,0
-574,435,0,0,0,0,0,0,0,0,0,-1,650,589,0,0
-567,435,0,0,0,0,0,0,0,0,0,-1,657,589,0,0
-560,435,0,0,0,0,0,0,0,0,0,-1,664,589,0,0
-553,435,0,0,0,0,0,0,0,0,0,-1,671,589,0,0
-546,435,0,0,0,0,0,0,0,0,0,-1,678,589,0,0
-539,435,0,0,0,0,0,0,0,0,0,-1,685,589,0,0
-532,435,0,0,0,0,0,0,0,0,0,-1,692,589,0,0
-525,435,-10.0776,10.0547,0,0,0,0,0,0,0,-1,699,589,-10.0776,-10.0547
-518,435,-1.83093,-5.82367,0,0,0,0,0,0,0,-1,706,589,-1.83093,5.8237
-511,435,-2.45154,-5.33118,0,0,0,0,0,0,0,-1,713,589,-2.45151,5.33115
-504,435,-3.07208,-4.83862,0,0,0,0,0,0,0,-1,720,589,-3.0721,4.8386
-497,435,-6.31012,-5.84698,0,0,0,0,0,0,0,-1,727,589,-6.31012,5.84697
-490,435,-5.81903,-0.458679,0,0,0,0,0,0,0,-1,734,589,-5.81902,0.458684
-483,435,-6.2019,-1.34552,0,0,0,0,0,0,0,-1,741,589,-6.20193,1.34554
-476,435,-3.86353,-3.10028,0,0,0,0,0,0,0,-1,748,589,-3.86351,3.10026
-469,435,-3.73749,-3.47729,0.005107,0.0110383,-0.00926475,0.0178005,-0.00165516,-0.940296,0.0124554,0.0307461,755,589,-3.73751,3.4773
-462,435,-3.66827,-3.94287,0.00351207,0.00862505,-0.00709301,0.0136082,-0.0014711,-0.958364,0.00960016,0.0165761,762,589,-3.66827,3.9429
-455,435,-3.75061,-4.24768,0.00239868,0.00661864,-0.00541728,0.0103223,-0.00130503,-0.971105,0.00735527,0.0147215,769,589,-3.75063,4.24767
-448,435,-3.73102,-4.60352,0.00146071,0.00499755,-0.00395489,0.00756139,-0.00110313,-0.995637,0.00544601,0.0124065,776,589,-3.73102,4.60351
-441,435,-3.73187,-4.92584,0.000758684,0.00369014,-0.00274665,0.00533769,-0.000888857,-1.0305,0.00388875,0.011209,783,589,-3.73188,4.92585
-434,435,-3.74335,-5.22467,3.25065e-05,0.00221161,-0.00151402,0.00298737,-0.000743247,-1.09729,0.00228007,0.0121922,790,589,-3.74337,5.22465
-427,435,-3.7514,-5.56311,-0.000659306,0.000776095,-0.000259662,0.000821624,-0.000704835,-1.39722,0.000882161,0.00966142,797,589,-3.75138,5.5631
-420,435,-3.75049,-5.8819,-0.00140069,-0.000859179,0.000978109,-0.000115042,-0.00214482,0.920424,0.00139312,0.0101222,804,589,-3.75048,5.88192
-413,435,-3.75067,-6.19482,-0.002176,-0.00274793,0.0021503,-0.000292731,-0.0046312,0.719292,0.00299466,0.0110573,811,589,-3.75065,6.1948
-406,435,-3.75507,-6.5116,-0.00279255,-0.00468272,0.00335391,-0.000253118,-0.00722216,0.648066,0.00473266,0.0112781,818,589,-3.75506,6.51163
-399,435,-3.77148,-6.82385,-0.0035379,-0.00711197,0.00468437,-0.00031127,-0.0103386,0.603175,0.00679102,0.00935935,825,589,-3.77146,6.82385
-392,435,-3.78412,-7.13556,-0.00428009,-0.0102215,0.00619252,-0.000382568,-0.014119,0.561751,0.00928776,0.0104617,832,589,-3.7841,7.13557
-385,435,-3.76337,-7.45526,-0.00481197,-0.0141121,0.00780992,-0.000372577,-0.0185514,0.516882,0.0122453,0.0132862,839,589,-3.76339,7.45524
-378,435,-3.7561,-7.72992,-0.00538985,-0.0188223,0.00960849,-0.000382988,-0.0238292,0.480375,0.01576,0.022448,846,589,-3.75607,7.72989
-371,435,-3.63098,-7.6037,-0.00561245,-0.0244779,0.0116083,-8.76077e-05,-0.0300027,0.444214,0.0199727,0.0408147,853,589,-3.63097,7.60368
-364,435,-3.89423,-7.55231,-0.00554365,-0.0314469,0.0138136,0.000440393,-0.0374309,0.408796,0.025102,0.0461549,860,589,-3.89425,7.55229
-357,435,-4.31946,-7.87048,0,0,0,0,0,0,0,-1,867,589,-4.31947,7.87047
-350,435,-0.86676,-3.69836,0,0,0,0,0,0,0,-1,874,589,-0.866784,3.69834
-343,435,-1.60706,-2.36835,0,0,0,0,0,0,0,-1,881,589,-1.60706,2.36838
-336,435,-2.07263,-1.94012,0,0,0,0,0,0,0,-1,888,589,-2.07265,1.94014
-329,435,-2.55963,-1.5517,0,0,0,0,0,0,0,-1,895,589,-2.5596,1.55168
-322,435,-3.08545,-1.55255,0,0,0,0,0,0,0,-1,902,589,-3.08544,1.55254
-315,435,-0.404297,-2.63763,0,0,0,0,0,0,0,-1,909,589,-0.404276,2.63761
-308,435,-1.70056,-1.90369,0,0,0,0,0,0,0,-1,916,589,-1.70056,1.90367
-301,435,-1.25232,-2.05511,0,0,0,0,0,0,0,-1,923,589,-1.25234,2.05514
-294,435,-1.79974,-1.97321,0,0,0,0,0,0,0,-1,930,589,-1.79973,1.97322
-287,435,0,0,0,0,0,0,0,0,0,-1,937,589,0,0
-280,435,0,0,0,0,0,0,0,0,0,-1,944,589,0,0
-273,435,0,0,0,0,0,0,0,0,0,-1,951,589,0,0
-266,435,0,0,0,0,0,0,0,0,0,-1,958,589,0,0
-259,435,0,0,0,0,0,0,0,0,0,-1,965,589,0,0
-252,435,0,0,0,0,0,0,0,0,0,-1,972,589,0,0
-245,435,0,0,0,0,0,0,0,0,0,-1,979,589,0,0
-238,435,0,0,0,0,0,0,0,0,0,-1,986,589,0,0
-231,435,0,0,0,0,0,0,0,0,0,-1,993,589,0,0
-224,435,0,0,0,0,0,0,0,0,0,-1,1000,589,0,0
-217,435,0,0,0,0,0,0,0,0,0,-1,1007,589,0,0
-210,435,0,0,0,0,0,0,0,0,0,-1,1014,589,0,0
-203,435,0,0,0,0,0,0,0,0,0,-1,1021,589,0,0
-196,435,0,0,0,0,0,0,0,0,0,-1,1028,589,0,0
-189,435,0,0,0,0,0,0,0,0,0,-1,1035,589,0,0
-182,435,0,0,0,0,0,0,0,0,0,-1,1042,589,0,0
-175,435,0,0,0,0,0,0,0,0,0,-1,1049,589,0,0
-168,435,0,0,0,0,0,0,0,0,0,-1,1056,589,0,0
-161,435,0,0,0,0,0,0,0,0,0,-1,1063,589,0,0
-154,435,0,0,0,0,0,0,0,0,0,-1,1070,589,0,0
-147,435,0,0,0,0,0,0,0,0,0,-1,1077,589,0,0
-140,435,0,0,0,0,0,0,0,0,0,-1,1084,589,0,0
-133,435,0,0,0,0,0,0,0,0,0,-1,1091,589,0,0
-126,435,0,0,0,0,0,0,0,0,0,-1,1098,589,0,0
-119,435,0,0,0,0,0,0,0,0,0,-1,1105,589,0,0
-112,435,0,0,0,0,0,0,0,0,0,-1,1112,589,0,0
-105,435,0,0,0,0,0,0,0,0,0,-1,1119,589,0,0
-98,435,0,0,0,0,0,0,0,0,0,-1,1126,589,0,0
-91,435,0,0,0,0,0,0,0,0,0,-1,1133,589,0,0
-84,435,0,0,0,0,0,0,0,0,0,-1,1140,589,0,0
-77,435,0,0,0,0,0,0,0,0,0,-1,1147,589,0,0
-70,435,0,0,0,0,0,0,0,0,0,-1,1154,589,0,0
-63,435,0,0,0,0,0,0,0,0,0,-1,1161,589,0,0
-56,435,0,0,0,0,0,0,0,0,0,-1,1168,589,0,0
-49,435,0,0,0,0,0,0,0,0,0,-1,1175,589,0,0
-42,435,0,0,0,0,0,0,0,0,0,-1,1182,589,0,0
-35,435,0,0,0,0,0,0,0,0,0,-1,1189,589,0,0
-28,435,0,0,0,0,0,0,0,0,0,-1,1196,589,0,0
-21,435,0,0,0,0,0,0,0,0,0,-1,1203,589,0,0
-14,435,0,0,0,0,0,0,0,0,0,-1,1210,589,0,0
-7,435,0,0,0,0,0,0,0,0,0,-1,1217,589,0,0
0,435,0,0,0,0,0,0,0,0,0,-1,1224,589,0,0
7,435,0,0,0,0,0,0,0,0,0,-1,1231,589,0,0
14,435,0,0,0,0,0,0,0,0,0,-1,1238,589,0,0
21,435,0,0,0,0,0,0,0,0,0,-1,1245,589,0,0
28,435,0,0,0,0,0,0,0,0,0,-1,1252,589,0,0
35,435,0,0,0,0,0,0,0,0,0,-1,1259,589,0,0
42,435,0,0,0,0,0,0,0,0,0,-1,1266,589,0,0
49,435,0,0,0,0,0,0,0,0,0,-1,1273,589,0,0
56,435,0,0,0,0,0,0,0,0,0,-1,1280,589,0,0
63,435,0,0,0,0,0,0,0,0,0,-1,1287,589,0,0
70,435,0,0,0,0,0,0,0,0,0,-1,1294,589,0,0
77,435,0,0,0,0,0,0,0,0,0,-1,1301,589,0,0
84,435,0,0,0,0,0,0,0,0,0,-1,1308,589,0,0
91,435,0,0,0,0,0,0,0,0,0,-1,1315,589,0,0
98,435,0,0,0,0,0,0,0,0,0,-1,1322,589,0,0
105,435,0,0,0,0,0,0,0,0,0,-1,1329,589,0,0
112,435,0,0,0,0,0,0,0,0,0,-1,1336,589,0,0
119,435,0,0,0,0,0,0,0,0,0,-1,1343,589,0,0
126,435,0,0,0,0,0,0,0,0,0,-1,1350,589,0,0
133,435,0,0,0,0,0,0,0,0,0,-1,1357,589,0,0
140,435,0,0,0,0,0,0,0,0,0,-1,1364,589,0,0
147,435,0,0,0,0,0,0,0,0,0,-1,1371,589,0,0
154,435,0,0,0,0,0,0,0,0,0,-1,1378,589,0,0
161,435,0,0,0,0,0,0,0,0,0,-1,1385,589,0,0
168,435,0,0,0,0,0,0,0,0,0,-1,1392,589,0,0
175,435,0,0,0,0,0,0,0,0,0,-1,1399,589,0,0
182,435,0,0,0,0,0,0,0,0,0,-1,1406,589,0,0
189,435,0,0,0,0,0,0,0,0,0,-1,1413,589,0,0
196,435,0,0,0,0,0,0,0,0,0,-1,1420,589,0,0
203,435,0,0,0,0,0,0,0,0,0,-1,1427,589,0,0
210,435,0,0,0,0,0,0,0,0,0,-1,1434,589,0,0
217,435,0,0,0,0,0,0,0,0,0,-1,1441,589,0,0
224,435,0,0,0,0,0,0,0,0,0,-1,1448,589,0,0
231,435,0,0,0,0,0,0,0,0,0,-1,1455,589,0,0
238,435,0,0,0,0,0,0,0,0,0,-1,1462,589,0,0
245,435,0,0,0,0,0,0,0,0,0,-1,1469,589,0,0
252,435,0,0,0,0,0,0,0,0,0,-1,1476,589,0,0
259,435,0,0,0,0,0,0,0,0,0,-1,1483,589,0,0
266,435,0,0,0,0,0,0,0,0,0,-1,1490,589,0,0
273,435,0,0,0,0,0,0,0,0,0,-1,1497,589,0,0
280,435,0,0,0,0,0,0,0,0,0,-1,1504,589,0,0
287,435,0,0,0,0,0,0,0,0,0,-1,1511,589,0,0
294,435,0,0,0,0,0,0,0,0,0,-1,1518,589,0,0
301,435,0,0,0,0,0,0,0,0,0,-1,1525,589,0,0
308,435,0,0,0,0,0,0,0,0,0,-1,1532,589,0,0
315,435,0,0,0,0,0,0,0,0,0,-1,1539,589,0,0
322,435,0,0,0,0,0,0,0,0,0,-1,1546,589,0,0
329,435,0,0,0,0,0,0,0,0,0,-1,1553,589,0,0
336,435,0,0,0,0,0,0,0,0,0,-1,1560,589,0,0
343,435,0,0,0,0,0,0,0,0,0,-1,1567,589,0,0
350,435,0,0,0,0,0,0,0,0,0,-1,1574,589,0,0
357,435,0,0,0,0,0,0,0,0,0,-1,1581,589,0,0
364,435,0,0,0,0,0,0,0,0,0,-1,1588,589,0,0
371,435,0,0,0,0,0,0,0,0,0,-1,1595,589,0,0
378,435,0,0,0,0,0,0,0,0,0,-1,1602,589,0,0
385,435,0,0,0,0,0,0,0,0,0,-1,1609,589,0,0
392,435,0,0,0,0,0,0,0,0,0,-1,1616,589,0,0
399,435,0,0,0,0,0,0,0,0,0,-1,1623,589,0,0
406,435,0,0,0,0,0,0,0,0,0,-1,1630,589,0,0
413,435,20.4565,3.49835,0,0,0,0,0,0,0,-1,1637,589,20.4565,-3.49836
420,435,21.4015,1.49609,0,0,0,0,0,0,0,-1,1644,589,21.4015,-1.49609
427,435,22.0464,-0.373962,0,0,0,0,0,0,0,-1,1651,589,22.0464,0.373972
434,435,22.1863,-1.54407,0,0,0,0,0,0,0,-1,1658,589,22.1862,1.54405
441,435,22.3992,-2.38287,0,0,0,0,0,0,0,-1,1665,589,22.3992,2.38289
448,435,7.4585,-0.00292969,0,0,0,0,0,0,0,-1,1672,589,7.45848,0.00294131
455,435,5.49915,-5.047,0,0,0,0,0,0,0,-1,1679,589,5.49914,5.04703
462,435,5.60669,-4.71466,0,0,0,0,0,0,0,-1,1686,589,5.60675,4.71469
469,435,5.87708,1.22351,0,0,0,0,0,0,0,-1,1693,589,5.87703,-1.22351
476,435,6.14136,1.37714,0,0,0,0,0,0,0,-1,1700,589,6.14138,-1.37712
483,435,6.49243,1.36169,0,0,0,0,0,0,0,-1,1707,589,6.49242,-1.36171
490,435,4.38391,-1.36218,0,0,0,0,0,0,0,-1,1714,589,4.38389,1.3622
497,435,7.23499,-3.64551,0,0,0,0,0,0,0,-1,1721,589,7.23495,3.64551
504,435,7.31189,-3.75909,0,0,0,0,0,0,0,-1,1728,589,7.31184,3.75911
511,435,10.3392,-6.00281,0,0,0,0,0,0,0,-1,1735,589,10.3392,6.00284
518,435,10.4685,-5.55298,0.00500191,0.00289312,0.00346167,0.00756621,0.000328827,0.637567,0.00493818,0.0227811,1742,589,10.4685,5.55298
525,435,10.4512,-5.22473,0.00386768,0.00234308,0.00274492,0.00595418,0.000256576,0.649956,0.00388676,0.0119672,1749,589,10.4511,5.22476
532,435,10.4462,-4.88831,0.0028535,0.0018016,0.00208591,0.00447875,0.000176357,0.661899,0.00292881,0.0126378,1756,589,10.4461,4.88832
539,435,10.4471,-4.5304,0.00196576,0.00128195,0.00144925,0.00311289,0.000134821,0.669555,0.00203181,0.0141758,1763,589,10.4471,4.5304
546,435,10.438,-4.18726,0.00129415,0.00109235,0.00105505,0.00225312,0.000133387,0.737725,0.00145965,0.0145465,1770,589,10.438,4.18725
553,435,10.4308,-3.875,0.000751775,0.00103126,0.000803885,0.00170746,7.55778e-05,0.871455,0.00111397,0.0105553,1777,589,10.4308,3.87498
560,435,10.4342,-3.53992,0.0002351,0.00115278,0.000713219,0.00154201,-0.000154126,1.07124,0.00108304,0.00957172,1784,589,10.4342,3.53992
567,435,10.4431,-3.1828,-0.000155202,0.00152501,0.000837978,0.00187149,-0.000501682,1.17873,0.00144423,0.00902236,1791,589,10.4432,3.1828
574,435,10.4229,-2.84058,-0.000401364,0.00209919,0.00115186,0.00254891,-0.000851078,1.19857,0.00204294,0.0101891,1798,589,10.4229,2.84056
581,435,10.4094,-2.5036,-0.000559846,0.00295689,0.00170788,0.00364979,-0.00125275,1.18538,0.0029411,0.016379,1805,589,10.4095,2.50357
588,435,10.3945,-2.16931,-0.000574421,0.00413985,0.00252479,0.00523679,-0.00167136,1.16093,0.00416173,0.0265561,1812,589,10.3945,2.16934
595,435,10.3312,-1.82288,-0.000416775,0.00585607,0.00363962,0.00752423,-0.00208494,1.14103,0.00583661,0.0298523,1819,589,10.3312,1.82287
602,435,10.3668,-1.37885,0,0,0,0,0,0,0,-1,1826,589,10.3668,1.37887
609,435,10.209,-1.02911,0,0,0,0,0,0,0,-1,1833,589,10.209,1.02911
616,435,5.05151,-2.75269,0,0,0,0,0,0,0,-1,1840,589,5.05157,2.7527
623,435,11.7588,3.9704,0,0,0,0,0,0,0,-1,1847,589,11.7587,-3.97043
630,435,4.72742,-0.87561,0,0,0,0,0,0,0,-1,1854,589,4.7274,0.875636
637,435,5.05286,1.48792,0,0,0,0,0,0,0,-1,1861,589,5.05291,-1.48792
644,435,0,0,0,0,0,0,0,0,0,-1,1868,589,0,0
651,435,0,0,0,0,0,0,0,0,0,-1,1875,589,0,0
658,435,0,0,0,0,0,0,0,0,0,-1,1882,589,0,0
665,435,0,0,0,0,0,0,0,0,0,-1,1889,589,0,0
672,435,0,0,0,0,0,0,0,0,0,-1,1896,589,0,0
679,435,0,0,0,0,0,0,0,0,0,-1,1903,589,0,0
686,435,0,0,0,0,0,0,0,0,0,-1,1910,589,0,0
693,435,0,0,0,0,0,0,0,0,0,-1,1917,589,0,0
700,435,0,0,0,0,0,0,0,0,0,-1,1924,589,0,0
707,435,0,0,0,0,0,0,0,0,0,-1,1931,589,0,0
714,435,0,0,0,0,0,0,0,0,0,-1,1938,589,0,0
721,435,0,0,0,0,0,0,0,0,0,-1,1945,589,0,0
728,435,0,0,0,0,0,0,0,0,0,-1,1952,589,0,0
735,435,0,0,0,0,0,0,0,0,0,-1,1959,589,0,0
742,435,0,0,0,0,0,0,0,0,0,-1,1966,589,0,0
749,435,0,0,0,0,0,0,0,0,0,-1,1973,589,0,0
756,435,0,0,0,0,0,0,0,0,0,-1,1980,589,0,0
763,435,0,0,0,0,0,0,0,0,0,-1,1987,589,0,0
770,435,0,0,0,0,0,0,0,0,0,-1,1994,589,0,0
777,435,0,0,0,0,0,0,0,0,0,-1,2001,589,0,0
784,435,0,0,0,0,0,0,0,0,0,-1,2008,589,0,0
791,435,0,0,0,0,0,0,0,0,0,-1,2015,589,0,0
798,435,0,0,0,0,0,0,0,0,0,-1,2022,589,0,0
805,435,0,0,0,0,0,0,0,0,0,-1,2029,589,0,0
812,435,0,0,0,0,0,0,0,0,0,-1,2036,589,0,0
-700,428,0,0,0,0,0,0,0,0,0,-1,524,596,0,0
-693,428,0,0,0,0,0,0,0,0,0,-1,531,596,0,0
-686,428,0,0,0,0,0,0,0,0,0,-1,538,596,0,0
-679,428,0,0,0,0,0,0,0,0,0,-1,545,596,0,0
-672,428,0,0,0,0,0,0,0,0,0,-1,552,596,0,0
-665,428,0,0,0,0,0,0,0,0,0,-1,559,596,0,0
-658,428,0,0,0,0,0,0,0,0,0,-1,566,596,0,0
-651,428,0,0,0,0,0,0,0,0,0,-1,573,596,0,0
-644,428,0,0,0,0,0,0,0,0,0,-1,580,596,0,0
-637,428,0,0,0,0,0,0,0,0,0,-1,587,596,0,0
-630,428,0,0,0,0,0,0,0,0,0,-1,594,596,0,0
-623,428,0,0,0,0,0,0,0,0,0,-1,601,596,0,0
-616,428,0,0,0,0,0,0,0,0,0,-1,608,596,0,0
-609,428,0,0,0,0,0,0,0,0,0,-1,615,596,0,0
-602,428,0,0,0,0,0,0,0,0,0,-1,622,596,0,0
-595,428,0,0,0,0,0,0,0,0,0,-1,629,596,0,0
-588,428,0,0,0,0,0,0,0,0,0,-1,636,596,0,0
-581,428,0,0,0,0,0,0,0,0,0,-1,643,596,0,0
-574,428,0,0,0,0,0,0,0,0,0,-1,650,596,0,0
-567,428,0,0,0,0,0,0,0,0,0,-1,657,596,0,0
-560,428,0,0,0,0,0,0,0,0,0,-1,664,596,0,0
-553,428,0,0,0,0,0,0,0,0,0,-1,671,596,0,0
-546,428,0,0,0,0,0,0,0,0,0,-1,678,596,0,0
-539,428,0,0,0,0,0,0,0,0,0,-1,685,596,0,0
-532,428,0,0,0,0,0,0,0,0,0,-1,692,596,0,0
-525,428,-9.59918,7.58618,0,0,0,0,0,0,0,-1,699,596,-9.59918,-7.5862
-518,428,-2.92285,-4.81854,0,0,0,0,0,0,0,-1,706,596,-2.92285,4.81856
-511,428,-3.68811,-4.79474,0,0,0,0,0,0,0,-1,713,596,-3.68811,4.79474
-504,428,-4.45337,-4.77094,0,0,0,0,0,0,0,-1,720,596,-4.45337,4.77092
-497,428,-2.85516,-3.52179,0,0,0,0,0,0,0,-1,727,596,-2.85517,3.52181
-490,428,-4.45392,-1.88556,0,0,0,0,0,0,0,-1,734,596,-4.45389,1.88555
-483,428,-4.87732,-2.22064,0,0,0,0,0,0,0,-1,741,596,-4.87732,2.22065
-476,428,-4.43872,-2.88934,0.00617153,0.0111655,-0.00944696,0.0184399,-0.00110288,-0.9146,0.0126769,0.0458888,748,596,-4.43873,2.88936
-469,428,-3.98706,-3.58545,0.00445657,0.00887544,-0.00742119,0.0144091,-0.0010771,-0.93008,0.00998449,0.0202454,755,596,-3.98705,3.58544
-462,428,-4.03241,-3.89423,0.00319097,0.00691188,-0.00569816,0.0110456,-0.000942764,-0.943192,0.00769726,0.0185256,762,596,-4.03239,3.89423
-455,428,-4.07581,-4.24689,0.00225888,0.00523265,-0.00432451,0.00831875,-0.000827229,-0.95098,0.00584114,0.0127343,769,596,-4.07578,4.24688
-448,428,-4.0788,-4.57068,0.00140066,0.0038007,-0.00303574,0.005865,-0.000663635,-0.973622,0.00414894,0.0113461,776,596,-4.07882,4.57069
-441,428,-4.06555,-4.90479,0.000673842,0.00262699,-0.00192441,0.00380844,-0.000507605,-1.0202,0.00272397,0.0137646,783,596,-4.06558,4.90478
-434,428,-4.07269,-5.24384,-0.000163995,0.0011822,-0.000706691,0.00148505,-0.000466844,-1.16593,0.00117693,0.0102722,790,596,-4.07271,5.24382
-427,428,-4.05255,-5.58142,-0.000977445,-0.000264913,0.00058713,6.55862e-05,-0.00130794,1.0581,0.000894627,0.0102,797,596,-4.05256,5.58143
-420,428,-4.04468,-5.88037,-0.00186346,-0.00198013,0.0018765,-4.43863e-05,-0.0037992,0.76986,0.00251813,0.0104247,804,596,-4.04467,5.88036
-413,428,-4.05261,-6.17731,-0.00287241,-0.00409465,0.00318807,-0.000237417,-0.00672965,0.690702,0.00440943,0.0130035,811,596,-4.05264,6.17732
-406,428,-4.06781,-6.48541,-0.00381423,-0.00631741,0.00460332,-0.00029539,-0.00983625,0.652662,0.00646129,0.0164034,818,596,-4.06784,6.48541
-399,428,-4.07123,-6.79987,-0.00493929,-0.00915879,0.00619241,-0.0005071,-0.013591,0.621216,0.00889644,0.0147006,825,596,-4.07123,6.7999
-392,428,-4.06763,-7.13507,-0.00615829,-0.0128065,0.0080262,-0.000795062,-0.0181697,0.589073,0.011857,0.0151099,832,596,-4.06761,7.13506
-385,428,-4.09235,-7.422,-0.00726004,-0.0175185,0.0100774,-0.00108158,-0.0236969,0.549995,0.0154501,0.026009,839,596,-4.09236,7.42202
-378,428,-4.27521,-7.47589,-0.00847956,-0.0233893,0.0124234,-0.00144596,-0.0304229,0.515164,0.0198175,0.0463749,846,596,-4.2752,7.47589
-371,428,-4.29657,-7.43915,0,0,0,0,0,0,0,-1,853,596,-4.29655,7.43914
-364,428,-3.92859,-6.67749,0,0,0,0,0,0,0,-1,860,596,-3.92859,6.67747
-357,428,-3.20996,-4.70966,0,0,0,0,0,0,0,-1,867,596,-3.20997,4.70965
-350,428,-1.62793,-3.94055,0,0,0,0,0,0,0,-1,874,596,-1.62794,3.94055
-343,428,-0.0567017,-4.80994,0,0,0,0,0,0,0,-1,881,596,-0.0567096,4.80996
-336,428,-3.29175,-1.39569,0,0,0,0,0,0,0,-1,888,596,-3.29172,1.39568
-329,428,-3.71564,-0.791321,0,0,0,0,0,0,0,-1,895,596,-3.71564,0.791299
-322,428,-5.52863,-3.59827,0,0,0,0,0,0,0,-1,902,596,-5.52865,3.59829
-315,428,-4.57172,-1.22052,0,0,0,0,0,0,0,-1,909,596,-4.57171,1.22052
-308,428,-5.94324,-0.810791,0,0,0,0,0,0,0,-1,916,596,-5.94321,0.810803
-301,428,0,0,0,0,0,0,0,0,0,-1,923,596,0,0
-294,428,0,0,0,0,0,0,0,0,0,-1,930,596,0,0
-287,428,0,0,0,0,0,0,0,0,0,-1,937,596,0,0
-280,428,0,0,0,0,0,0,0,0,0,-1,944,596,0,0
-273,428,0,0,0,0,0,0,0,0,0,-1,951,596,0,0
-266,428,0,0,0,0,0,0,0,0,0,-1,958,596,0,0
-259,428,0,0,0,0,0,0,0,0,0,-1,965,596,0,0
-252,428,0,0,0,0,0,0,0,0,0,-1,972,596,0,0
-245,428,0,0,0,0,0,0,0,0,0,-1,979,596,0,0
-238,428,0,0,0,0,0,0,0,0,0,-1,986,596,0,0
-231,428,0,0,0,0,0,0,0,0,0,-1,993,596,0,0
-224,428,0,0,0,0,0,0,0,0,0,-1,1000,596,0,0
-217,428,0,0,0,0,0,0,0,0,0,-1,1007,596,0,0
-210,428,0,0,0,0,0,0,0,0,0,-1,1014,596,0,0
-203,428,0,0,0,0,0,0,0,0,0,-1,1021,596,0,0
-196,428,0,0,0,0,0,0,0,0,0,-1,1028,596,0,0
-189,428,0,0,0,0,0,0,0,0,0,-1,1035,596,0,0
-182,428,0,0,0,0,0,0,0,0,0,-1,1042,596,0,0
-175,428,0,0,0,0,0,0,0,0,0,-1,1049,596,0,0
-168,428,0,0,0,0,0,0,0,0,0,-1,1056,596,0,0
-161,428,0,0,0,0,0,0,0,0,0,-1,1063,596,0,0
-154,428,0,0,0,0,0,0,0,0,0,-1,1070,596,0,0
-147,428,0,0,0,0,0,0,0,0,0,-1,1077,596,0,0
-140,428,0,0,0,0,0,0,0,0,0,-1,1084,596,0,0
-133,428,0,0,0,0,0,0,0,0,0,-1,1091,596,0,0
-126,428,0,0,0,0,0,0,0,0,0,-1,1098,596,0,0
-119,428,0,0,0,0,0,0,0,0,0,-1,1105,596,0,0
-112,428,0,0,0,0,0,0,0,0,0,-1,1112,596,0,0
-105,428,0,0,0,0,0,0,0,0,0,-1,1119,596,0,0
-98,428,0,0,0,0,0,0,0,0,0,-1,1126,596,0,0
-91,428,0,0,0,0,0,0,0,0,0,-1,1133,596,0,0
-84,428,0,0,0,0,0,0,0,0,0,-1,1140,596,0,0
-77,428,0,0,0,0,0,0,0,0,0,-1,1147,596,0,0
-70,428,0,0,0,0,0,0,0,0,0,-1,1154,596,0,0
-63,428,0,0,0,0,0,0,0,0,0,-1,1161,596,0,0
-56,428,0,0,0,0,0,0,0,0,0,-1,1168,596,0,0
-49,428,0,0,0,0,0,0,0,0,0,-1,1175,596,0,0
-42,428,0,0,0,0,0,0,0,0,0,-1,1182,596,0,0
-35,428,0,0,0,0,0,0,0,0,0,-1,1189,596,0,0
-28,428,0,0,0,0,0,0,0,0,0,-1,1196,596,0,0
-21,428,0,0,0,0,0,0,0,0,0,-1,1203,596,0,0
-14,428,0,0,0,0,0,0,0,0,0,-1,1210,596,0,0
-7,428,0,0,0,0,0,0,0,0,0,-1,1217,596,0,0
0,428,0,0,0,0,0,0,0,0,0,-1,1224,596,0,0
7,428,0,0,0,0,0,0,0,0,0,-1,1231,596,0,0
14,428,0,0,0,0,0,0,0,0,0,-1,1238,596,0,0
21,428,0,0,0,0,0,0,0,0,0,-1,1245,596,0,0
28,428,0,0,0,0,0,0,0,0,0,-1,1252,596,0,0
35,428,0,0,0,0,0,0,0,0,0,-1,1259,596,0,0
42,428,0,0,0,0,0,0,0,0,0,-1,1266,596,0,0
49,428,0,0,0,0,0,0,0,0,0,-1,1273,596,0,0
56,428,0,0,0,0,0,0,0,0,0,-1,1280,596,0,0
63,428,0,0,0,0,0,0,0,0,0,-1,1287,596,0,0
70,428,0,0,0,0,0,0,0,0,0,-1,1294,596,0,0
77,428,0,0,0,0,0,0,0,0,0,-1,1301,596,0,0
84,428,0,0,0,0,0,0,0,0,0,-1,1308,596,0,0
91,428,0,0,0,0,0,0,0,0,0,-1,1315,596,0,0
98,428,0,0,0,0,0,0,0,0,0,-1,1322,596,0,0
105,428,0,0,0,0,0,0,0,0,0,-1,1329,596,0,0
112,428,0,0,0,0,0,0,0,0,0,-1,1336,596,0,0
119,428,0,0,0,0,0,0,0,0,0,-1,1343,596,0,0
126,428,0,0,0,0,0,0,0,0,0,-1,1350,596,0,0
133,428,0,0,0,0,0,0,0,0,0,-1,1357,596,0,0
140,428,0,0,0,0,0,0,0,0,0,-1,1364,596,0,0
147,428,0,0,0,0,0,0,0,0,0,-1,1371,596,0,0
154,428,0,0,0,0,0,0,0,0,0,-1,1378,596,0,0
161,428,0,0,0,0,0,0,0,0,0,-1,1385,596,0,0
168,428,0,0,0,0,0,0,0,0,0,-1,1392,596,0,0
175,428,0,0,0,0,0,0,0,0,0,-1,1399,596,0,0
182,428,0,0,0,0,0,0,0,0,0,-1,1406,596,0,0
189,428,0,0,0,0,0,0,0,0,0,-1,1413,596,0,0
196,428,0,0,0,0,0,0,0,0,0,-1,1420,596,0,0
203,428,0,0,0,0,0,0,0,0,0,-1,1427,596,0,0
210,428,0,0,0,0,0,0,0,0,0,-1,1434,596,0,0
217,428,0,0,0,0,0,0,0,0,0,-1,1441,596,0,0
224,428,0,0,0,0,0,0,0,0,0,-1,1448,596,0,0
231,428,0,0,0,0,0,0,0,0,0,-1,1455,596,0,0
238,428,0,0,0,0,0,0,0,0,0,-1,1462,596,0,0
245,428,0,0,0,0,0,0,0,0,0,-1,1469,596,0,0
252,428,0,0,0,0,0,0,0,0,0,-1,1476,596,0,0
259,428,0,0,0,0,0,0,0,0,0,-1,1483,596,0,0
266,428,0,0,0,0,0,0,0,0,0,-1,1490,596,0,0
273,428,0,0,0,0,0,0,0,0,0,-1,1497,596,0,0
280,428,0,0,0,0,0,0,0,0,0,-1,1504,596,0,0
287,428,0,0,0,0,0,0,0,0,0,-1,1511,596,0,0
294,428,0,0,0,0,0,0,0,0,0,-1,1518,596,0,0
301,428,0,0,0,0,0,0,0,0,0,-1,1525,596,0,0
308,428,0,0,0,0,0,0,0,0,0,-1,1532,596,0,0
315,428,0,0,0,0,0,0,0,0,0,-1,1539,596,0,0
322,428,0,0,0,0,0,0,0,0,0,-1,1546,596,0,0
329,428,0,0,0,0,0,0,0,0,0,-1,1553,596,0,0
336,428,0,0,0,0,0,0,0,0,0,-1,1560,596,0,0
343,428,0,0,0,0,0,0,0,0,0,-1,1567,596,0,0
350,428,0,0,0,0,0,0,0,0,0,-1,1574,596,0,0
357,428,0,0,0,0,0,0,0,0,0,-1,1581,596,0,0
364,428,0,0,0,0,0,0,0,0,0,-1,1588,596,0,0
371,428,0,0,0,0,0,0,0,0,0,-1,1595,596,0,0
378,428,0,0,0,0,0,0,0,0,0,-1,1602,596,0,0
385,428,0,0,0,0,0,0,0,0,0,-1,1609,596,0,0
392,428,0,0,0,0,0,0,0,0,0,-1,1616,596,0,0
399,428,0,0,0,0,0,0,0,0,0,-1,1623,596,0,0
406,428,0,0,0,0,0,0,0,0,0,-1,1630,596,0,0
413,428,0,0,0,0,0,0,0,0,0,-1,1637,596,0,0
420,428,19.8469,1.3399,0,0,0,0,0,0,0,-1,1644,596,19.8469,-1.33992
427,428,20.7299,-0.225281,0,0,0,0,0,0,0,-1,1651,596,20.7299,0.225262
434,428,19.8915,-0.583069,0,0,0,0,0,0,0,-1,1658,596,19.8915,0.583075
441,428,8.17993,0.607483,0,0,0,0,0,0,0,-1,1665,596,8.17997,-0.607513
448,428,7.84338,-0.385986,0,0,0,0,0,0,0,-1,1672,596,7.84336,0.385978
455,428,6.64038,2.1123,0,0,0,0,0,0,0,-1,1679,596,6.64037,-2.11229
462,428,4.84106,4.12341,0,0,0,0,0,0,0,-1,1686,596,4.84107,-4.12339
469,428,7.83789,3.10083,0,0,0,0,0,0,0,-1,1693,596,7.83785,-3.10086
476,428,7.61255,1.73956,0,0,0,0,0,0,0,-1,1700,596,7.61252,-1.73958
483,428,7.22766,1.05121,0,0,0,0,0,0,0,-1,1707,596,7.2277,-1.05121
490,428,5.4071,-3.2793,0,0,0,0,0,0,0,-1,1714,596,5.40707,3.27929
497,428,7.84106,-3.65491,0,0,0,0,0,0,0,-1,1721,596,7.84107,3.65491
504,428,6.92139,-2.83356,0,0,0,0,0,0,0,-1,1728,596,6.92137,2.83353
511,428,7.88501,-3.78723,0,0,0,0,0,0,0,-1,1735,596,7.88502,3.78722
518,428,10.7648,-5.57043,0,0,0,0,0,0,0,-1,1742,596,10.7648,5.57043
525,428,10.6899,-5.31177,0.00401634,0.00295704,0.00322094,0.00675089,0.000222498,0.703908,0.00442829,0.0442611,1749,596,10.6899,5.31178
532,428,10.7678,-4.8623,0.002944,0.00223873,0.0023957,0.00501288,0.000169856,0.712325,0.00328677,0.0184775,1756,596,10.7679,4.86228
539,428,10.8126,-4.51062,0.00204571,0.00161231,0.00161883,0.00346228,0.000195735,0.718863,0.00224579,0.0189687,1763,596,10.8126,4.51063
546,428,10.7977,-4.19373,0.00137568,0.00119204,0.00108618,0.00237392,0.000193805,0.743233,0.00152213,0.0156165,1770,596,10.7977,4.19373
553,428,10.7733,-3.87054,0.000871792,0.000996488,0.000775733,0.00171237,0.000155905,0.825499,0.00109333,0.0110843,1777,596,10.7734,3.87056
560,428,10.7905,-3.53455,0.000412514,0.000984325,0.000635781,0.00139553,1.31119e-06,0.996697,0.000929915,0.0117067,1784,596,10.7905,3.53452
567,428,10.7887,-3.19257,8.68422e-05,0.00122394,0.000708469,0.00156378,-0.000253001,1.12353,0.00113628,0.0107719,1791,596,10.7887,3.19256
574,428,10.7761,-2.85126,-6.13665e-05,0.0016519,0.000966671,0.00208689,-0.00049635,1.14796,0.00158286,0.012954,1798,596,10.7761,2.85125
581,428,10.7568,-2.50507,-0.000103867,0.00229874,0.00142828,0.00296375,-0.000768871,1.13505,0.00227583,0.0114827,1805,596,10.7568,2.50504
588,428,10.7372,-2.13208,-3.02955e-05,0.00324244,0.00210453,0.00427192,-0.00105978,1.11585,0.00325916,0.0151659,1812,596,10.7371,2.13206
595,428,10.7197,-1.76367,0.000212686,0.00456741,0.00302042,0.00611347,-0.00133337,1.0977,0.00458519,0.0109155,1819,596,10.7197,1.76368
602,428,10.7098,-1.42792,0.000431488,0.00626024,0.00409591,0.0083728,-0.00168107,1.09461,0.00621844,0.0204381,1826,596,10.7098,1.42791
609,428,10.7094,-1.02087,0,0,0,0,0,0,0,-1,1833,596,10.7093,1.02085
616,428,5.88977,-0.239319,0,0,0,0,0,0,0,-1,1840,596,5.88983,0.239293
623,428,9.02405,1.30554,0,0,0,0,0,0,0,-1,1847,596,9.02407,-1.30554
630,428,7.07996,6.88562,0,0,0,0,0,0,0,-1,1854,596,7.0799,-6.88565
637,428,3.95435,1.90857,0,0,0,0,0,0,0,-1,1861,596,3.95439,-1.90858
644,428,5.75476,0.888977,0,0,0,0,0,0,0,-1,1868,596,5.75472,-0.888955
651,428,0,0,0,0,0,0,0,0,0,-1,1875,596,0,0
658,428,0,0,0,0,0,0,0,0,0,-1,1882,596,0,0
665,428,0,0,0,0,0,0,0,0,0,-1,1889,596,0,0
672,428,0,0,0,0,0,0,0,0,0,-1,1896,596,0,0
679,428,0,0,0,0,0,0,0,0,0,-1,1903,596,0,0
686,428,0,0,0,0,0,0,0,0,0,-1,1910,596,0,0
693,428,0,0,0,0,0,0,0,0,0,-1,1917,596,0,0
700,428,0,0,0,0,0,0,0,0,0,-1,1924,596,0,0
707,428,0,0,0,0,0,0,0,0,0,-1,1931,596,0,0
714,428,0,0,0,0,0,0,0,0,0,-1,1938,596,0,0
721,428,0,0,0,0,0,0,0,0,0,-1,1945,596,0,0
728,428,0,0,0,0,0,0,0,0,0,-1,1952,596,0,0
735,428,0,0,0,0,0,0,0,0,0,-1,1959,596,0,0
742,428,0,0,0,0,0,0,0,0,0,-1,1966,596,0,0
749,428,0,0,0,0,0,0,0,0,0,-1,1973,596,0,0
756,428,0,0,0,0,0,0,0,0,0,-1,1980,596,0,0
763,428,0,0,0,0,0,0,0,0,0,-1,1987,596,0,0
770,428,0,0,0,0,0,0,0,0,0,-1,1994,596,0,0
777,428,0,0,0,0,0,0,0,0,0,-1,2001,596,0,0
784,428,0,0,0,0,0,0,0,0,0,-1,2008,596,0,0
791,428,0,0,0,0,0,0,0,0,0,-1,2015,596,0,0
798,428,0,0,0,0,0,0,0,0,0,-1,2022,596,0,0
805,428,0,0,0,0,0,0,0,0,0,-1,2029,596,0,0
812,428,0,0,0,0,0,0,0,0,0,-1,2036,596,0,0
-700,421,0,0,0,0,0,0,0,0,0,-1,524,603,0,0
-693,421,0,0,0,0,0,0,0,0,0,-1,531,603,0,0
-686,421,0,0,0,0,0,0,0,0,0,-1,538,603,0,0
-679,421,0,0,0,0,0,0,0,0,0,-1,545,603,0,0
-672,421,0,0,0,0,0,0,0,0,0,-1,552,603,0,0
-665,421,0,0,0,0,0,0,0,0,0,-1,559,603,0,0
-658,421,0,0,0,0,0,0,0,0,0,-1,566,603,0,0
-651,421,0,0,0,0,0,0,0,0,0,-1,573,603,0,0
-644,421,0,0,0,0,0,0,0,0,0,-1,580,603,0,0
-637,421,0,0,0,0,0,0,0,0,0,-1,587,603,0,0
-630,421,0,0,0,0,0,0,0,0,0,-1,594,603,0,0
-623,421,0,0,0,0,0,0,0,0,0,-1,601,603,0,0
-616,421,0,0,0,0,0,0,0,0,0,-1,608,603,0,0
-609,421,0,0,0,0,0,0,0,0,0,-1,615,603,0,0
-602,421,0,0,0,0,0,0,0,0,0,-1,622,603,0,0
-595,421,0,0,0,0,0,0,0,0,0,-1,629,603,0,0
-588,421,0,0,0,0,0,0,0,0,0,-1,636,603,0,0
-581,421,0,0,0,0,0,0,0,0,0,-1,643,603,0,0
-574,421,0,0,0,0,0,0,0,0,0,-1,650,603,0,0
-567,421,0,0,0,0,0,0,0,0,0,-1,657,603,0,0
-560,421,0,0,0,0,0,0,0,0,0,-1,664,603,0,0
-553,421,0,0,0,0,0,0,0,0,0,-1,671,603,0,0
-546,421,0,0,0,0,0,0,0,0,0,-1,678,603,0,0
-539,421,0,0,0,0,0,0,0,0,0,-1,685,603,0,0
-532,421,-8.97382,6.95636,0,0,0,0,0,0,0,-1,692,603,-8.97384,-6.95634
-525,421,-2.11481,-8.04272,0,0,0,0,0,0,0,-1,699,603,-2.11483,8.0427
-518,421,-3.05908,-5.07233,0,0,0,0,0,0,0,-1,706,603,-3.0591,5.07235
-511,421,-4.63525,-4.08447,0,0,0,0,0,0,0,-1,713,603,-4.63524,4.08449
-504,421,-4.97272,-4.38385,0,0,0,0,0,0,0,-1,720,603,-4.9727,4.38383
-497,421,-4.67682,-1.86725,0,0,0,0,0,0,0,-1,727,603,-4.6768,1.86727
-490,421,-4.59967,-1.96857,0,0,0,0,0,0,0,-1,734,603,-4.59965,1.96854
-483,421,-4.52014,-2.68274,0.00600658,0.0106072,-0.00879349,0.0173963,-0.00078249,-0.913328,0.011867,0.0486654,741,603,-4.52017,2.68274
-476,421,-4.32336,-3.27997,0.00463471,0.00866406,-0.00721127,0.0141368,-0.000838023,-0.921614,0.00971592,0.0260164,748,603,-4.32335,3.27996
-469,421,-4.3783,-3.56311,0.00348119,0.00689097,-0.00574517,0.0111789,-0.000806723,-0.929635,0.00773553,0.0186917,755,603,-4.37828,3.56313
-462,421,-4.37653,-3.92407,0.00255645,0.00532779,-0.00442663,0.00858056,-0.000696321,-0.937082,0.00596604,0.0173365,762,603,-4.37654,3.92409
-455,421,-4.38373,-4.24536,0.00182325,0.00396823,-0.00333672,0.00640059,-0.000609108,-0.940894,0.00448391,0.0187883,769,603,-4.38376,4.24537
-448,421,-4.39996,-4.5675,0.00109075,0.00271729,-0.00222851,0.00427629,-0.000468248,-0.960359,0.00301907,0.0189315,776,603,-4.39995,4.56752
-441,421,-4.39368,-4.91577,0.000397758,0.00165832,-0.00122186,0.00240289,-0.000346804,-1.02352,0.00172916,0.0149184,783,603,-4.39367,4.91579
-434,421,-4.39691,-5.24811,-0.000485986,0.000243958,-3.50795e-05,0.00024564,-0.000487668,-1.52289,0.000430993,0.0106337,790,603,-4.39693,5.24812
-427,421,-4.37354,-5.56183,-0.00136698,-0.00121176,0.00128403,-3.0034e-06,-0.00257574,0.815582,0.00171616,0.00957769,797,603,-4.37353,5.56181
-420,421,-4.36499,-5.8587,-0.00235003,-0.00299561,0.00262889,-2.41906e-05,-0.00532145,0.724312,0.0035396,0.0105986,804,603,-4.36502,5.85872
-413,421,-4.37524,-6.14893,-0.0035718,-0.00534566,0.00412016,-0.000244192,-0.00867327,0.679383,0.00570253,0.013336,811,603,-4.37527,6.14892
-406,421,-4.40289,-6.48828,-0.00487882,-0.00790822,0.00582769,-0.000372199,-0.0124148,0.658255,0.00815533,0.0198155,818,603,-4.40292,6.48825
-399,421,-4.36505,-6.8493,-0.00645863,-0.0112382,0.00778552,-0.00070437,-0.0169924,0.636487,0.011101,0.0205325,825,603,-4.36505,6.84933
-392,421,-4.43542,-7.08716,-0.00830528,-0.0155547,0.0101173,-0.00118298,-0.022677,0.613387,0.0147395,0.024608,832,603,-4.43543,7.08713
-385,421,-4.64087,-7.33716,-0.0102462,-0.0213409,0.0128538,-0.00179384,-0.0297933,0.581685,0.0192921,0.0466485,839,603,-4.64089,7.33719
-378,421,-4.82513,-7.65863,0,0,0,0,0,0,0,-1,846,603,-4.82515,7.65862
-371,421,-5.65082,-7.01849,0,0,0,0,0,0,0,-1,853,603,-5.65082,7.0185
-364,421,-5.94189,-7.09875,0,0,0,0,0,0,0,-1,860,603,-5.94192,7.09878
-357,421,-7.62531,-8.26337,0,0,0,0,0,0,0,-1,867,603,-7.62532,8.26337
-350,421,-5.38019,-3.75024,0,0,0,0,0,0,0,-1,874,603,-5.38017,3.75026
-343,421,-6.22797,-2.57123,0,0,0,0,0,0,0,-1,881,603,-6.22798,2.57121
-336,421,-6.22882,-2.59369,0,0,0,0,0,0,0,-1,888,603,-6.22883,2.5937
-329,421,-4.50134,-1.49469,0,0,0,0,0,0,0,-1,895,603,-4.50137,1.49468
-322,421,-6.30377,-0.285339,0,0,0,0,0,0,0,-1,902,603,-6.30379,0.285355
-315,421,-4.47821,-1.26733,0,0,0,0,0,0,0,-1,909,603,-4.47824,1.26732
-308,421,0,0,0,0,0,0,0,0,0,-1,916,603,0,0
-301,421,0,0,0,0,0,0,0,0,0,-1,923,603,0,0
-294,421,0,0,0,0,0,0,0,0,0,-1,930,603,0,0
-287,421,0,0,0,0,0,0,0,0,0,-1,937,603,0,0
-280,421,0,0,0,0,0,0,0,0,0,-1,944,603,0,0
-273,421,0,0,0,0,0,0,0,0,0,-1,951,603,0,0
-266,421,0,0,0,0,0,0,0,0,0,-1,958,603,0,0
-259,421,0,0,0,0,0,0,0,0,0,-1,965,603,0,0
-252,421,0,0,0,0,0,0,0,0,0,-1,972,603,0,0
-245,421,0,0,0,0,0,0,0,0,0,-1,979,603,0,0
-238,421,0,0,0,0,0,0,0,0,0,-1,986,603,0,0
-231,421,0,0,0,0,0,0,0,0,0,-1,993,603,0,0
-224,421,0,0,0,0,0,0,0,0,0,-1,1000,603,0,0
-217,421,0,0,0,0,0,0,0,0,0,-1,1007,603,0,0
-210,421,0,0,0,0,0,0,0,0,0,-1,1014,603,0,0
-203,421,0,0,0,0,0,0,0,0,0,-1,1021,603,0,0
-196,421,0,0,0,0,0,0,0,0,0,-1,1028,603,0,0
-189,421,0,0,0,0,0,0,0,0,0,-1,1035,603,0,0
-182,421,0,0,0,0,0,0,0,0,0,-1,1042,603,0,0
-175,421,0,0,0,0,0,0,0,0,0,-1,1049,603,0,0
-168,421,0,0,0,0,0,0,0,0,0,-1,1056,603,0,0
-161,421,0,0,0,0,0,0,0,0,0,-1,1063,603,0,0
-154,421,0,0,0,0,0,0,0,0,0,-1,1070,603,0,0
-147,421,0,0,0,0,0,0,0,0,0,-1,1077,603,0,0
-140,421,0,0,0,0,0,0,0,0,0,-1,1084,603,0,0
-133,421,0,0,0,0,0,0,0,0,0,-1,1091,603,0,0
-126,421,0,0,0,0,0,0,0,0,0,-1,1098,603,0,0
-119,421,0,0,0,0,0,0,0,0,0,-1,1105,603,0,0
-112,421,0,0,0,0,0,0,0,0,0,-1,1112,603,0,0
-105,421,0,0,0,0,0,0,0,0,0,-1,1119,603,0,0
-98,421,0,0,0,0,0,0,0,0,0,-1,1126,603,0,0
-91,421,0,0,0,0,0,0,0,0,0,-1,1133,603,0,0
-84,421,0,0,0,0,0,0,0,0,0,-1,1140,603,0,0
-77,421,0,0,0,0,0,0,0,0,0,-1,1147,603,0,0
-70,421,0,0,0,0,0,0,0,0,0,-1,1154,603,0,0
-63,421,0,0,0,0,0,0,0,0,0,-1,1161,603,0,0
-56,421,0,0,0,0,0,0,0,0,0,-1,1168,603,0,0
-49,421,0,0,0,0,0,0,0,0,0,-1,1175,603,0,0
-42,421,0,0,0,0,0,0,0,0,0,-1,1182,603,0,0
-35,421,0,0,0,0,0,0,0,0,0,-1,1189,603,0,0
-28,421,0,0,0,0,0,0,0,0,0,-1,1196,603,0,0
-21,421,0,0,0,0,0,0,0,0,0,-1,1203,603,0,0
-14,421,0,0,0,0,0,0,0,0,0,-1,1210,603,0,0
-7,421,0,0,0,0,0,0,0,0,0,-1,1217,603,0,0
0,421,0,0,0,0,0,0,0,0,0,-1,1224,603,0,0
7,421,0,0,0,0,0,0,0,0,0,-1,1231,603,0,0
14,421,0,0,0,0,0,0,0,0,0,-1,1238,603,0,0
21,421,0,0,0,0,0,0,0,0,0,-1,1245,603,0,0
28,421,0,0,0,0,0,0,0,0,0,-1,1252,603,0,0
35,421,0,0,0,0,0,0,0,0,0,-1,1259,603,0,0
42,421,0,0,0,0,0,0,0,0,0,-1,1266,603,0,0
49,421,0,0,0,0,0,0,0,0,0,-1,1273,603,0,0
56,421,0,0,0,0,0,0,0,0,0,-1,1280,603,0,0
63,421,0,0,0,0,0,0,0,0,0,-1,1287,603,0,0
70,421,0,0,0,0,0,0,0,0,0,-1,1294,603,0,0
77,421,0,0,0,0,0,0,0,0,0,-1,1301,603,0,0
84,421,0,0,0,0,0,0,0,0,0,-1,1308,603,0,0
91,421,0,0,0,0,0,0,0,0,0,-1,1315,603,0,0
98,421,0,0,0,0,0,0,0,0,0,-1,1322,603,0,0
105,421,0,0,0,0,0,0,0,0,0,-1,1329,603,0,0
112,421,0,0,0,0,0,0,0,0,0,-1,1336,603,0,0
119,421,0,0,0,0,0,0,0,0,0,-1,1343,603,0,0
126,421,0,0,0,0,0,0,0,0,0,-1,1350,603,0,0
133,421,0,0,0,0,0,0,0,0,0,-1,1357,603,0,0
140,421,0,0,0,0,0,0,0,0,0,-1,1364,603,0,0
147,421,0,0,0,0,0,0,0,0,0,-1,1371,603,0,0
154,421,0,0,0,0,0,0,0,0,0,-1,1378,603,0,0
161,421,0,0,0,0,0,0,0,0,0,-1,1385,603,0,0
168,421,0,0,0,0,0,0,0,0,0,-1,1392,603,0,0
175,421,0,0,0,0,0,0,0,0,0,-1,1399,603,0,0
182,421,0,0,0,0,0,0,0,0,0,-1,1406,603,0,0
189,421,0,0,0,0,0,0,0,0,0,-1,1413,603,0,0
196,421,0,0,0,0,0,0,0,0,0,-1,1420,603,0,0
203,421,0,0,0,0,0,0,0,0,0,-1,1427,603,0,0
210,421,0,0,0,0,0,0,0,0,0,-1,1434,603,0,0
217,421,0,0,0,0,0,0,0,0,0,-1,1441,603,0,0
224,421,0,0,0,0,0,0,0,0,0,-1,1448,603,0,0
231,421,0,0,0,0,0,0,0,0,0,-1,1455,603,0,0
238,421,0,0,0,0,0,0,0,0,0,-1,1462,603,0,0
245,421,0,0,0,0,0,0,0,0,0,-1,1469,603,0,0
252,421,0,0,0,0,0,0,0,0,0,-1,1476,603,0,0
259,421,0,0,0,0,0,0,0,0,0,-1,1483,603,0,0
266,421,0,0,0,0,0,0,0,0,0,-1,1490,603,0,0
273,421,0,0,0,0,0,0,0,0,0,-1,1497,603,0,0
280,421,0,0,0,0,0,0,0,0,0,-1,1504,603,0,0
287,421,0,0,0,0,0,0,0,0,0,-1,1511,603,0,0
294,421,0,0,0,0,0,0,0,0,0,-1,1518,603,0,0
301,421,0,0,0,0,0,0,0,0,0,-1,1525,603,0,0
308,421,0,0,0,0,0,0,0,0,0,-1,1532,603,0,0
315,421,0,0,0,0,0,0,0,0,0,-1,1539,603,0,0
322,421,0,0,0,0,0,0,0,0,0,-1,1546,603,0,0
329,421,0,0,0,0,0,0,0,0,0,-1,1553,603,0,0
336,421,0,0,0,0,0,0,0,0,0,-1,1560,603,0,0
343,421,0,0,0,0,0,0,0,0,0,-1,1567,603,0,0
350,421,0,0,0,0,0,0,0,0,0,-1,1574,603,0,0
357,421,0,0,0,0,0,0,0,0,0,-1,1581,603,0,0
364,421,0,0,0,0,0,0,0,0,0,-1,1588,603,0,0
371,421,0,0,0,0,0,0,0,0,0,-1,1595,603,0,0
378,421,0,0,0,0,0,0,0,0,0,-1,1602,603,0,0
385,421,0,0,0,0,0,0,0,0,0,-1,1609,603,0,0
392,421,0,0,0,0,0,0,0,0,0,-1,1616,603,0,0
399,421,0,0,0,0,0,0,0,0,0,-1,1623,603,0,0
406,421,0,0,0,0,0,0,0,0,0,-1,1630,603,0,0
413,421,0,0,0,0,0,0,0,0,0,-1,1637,603,0,0
420,421,0,0,0,0,0,0,0,0,0,-1,1644,603,0,0
427,421,0,0,0,0,0,0,0,0,0,-1,1651,603,0,0
434,421,3.68176,-0.0327759,0,0,0,0,0,0,0,-1,1658,603,3.6818,0.0328037
441,421,8.06689,0.527832,0,0,0,0,0,0,0,-1,1665,603,8.06693,-0.527851
448,421,6.93921,0.802246,0,0,0,0,0,0,0,-1,1672,603,6.93923,-0.802251
455,421,7.29456,2.14825,0,0,0,0,0,0,0,-1,1679,603,7.29461,-2.14827
462,421,7.86902,3.53174,0,0,0,0,0,0,0,-1,1686,603,7.869,-3.53173
469,421,8.06604,2.81213,0,0,0,0,0,0,0,-1,1693,603,8.06606,-2.81212
476,421,8.26306,2.09253,0,0,0,0,0,0,0,-1,1700,603,8.26312,-2.09251
483,421,8.05322,0.798096,0,0,0,0,0,0,0,-1,1707,603,8.05323,-0.7981
490,421,7.51233,0.213074,0,0,0,0,0,0,0,-1,1714,603,7.51235,-0.213043
497,421,7.49634,-2.86688,0,0,0,0,0,0,0,-1,1721,603,7.4963,2.86688
504,421,6.90491,-2.18671,0,0,0,0,0,0,0,-1,1728,603,6.90491,2.18669
511,421,6.31348,-1.50653,0,0,0,0,0,0,0,-1,1735,603,6.31353,1.5065
518,421,6.27588,-2.49878,0,0,0,0,0,0,0,-1,1742,603,6.2759,2.4988
525,421,10.8773,-5.47656,0,0,0,0,0,0,0,-1,1749,603,10.8773,5.47655
532,421,11.0233,-4.896,0.00276163,0.00301865,0.00278291,0.00567601,0.000104269,0.808471,0.00374973,0.0378766,1756,603,11.0233,4.89599
539,421,11.155,-4.50867,0.00185105,0.0022426,0.00185977,0.00391687,0.000176778,0.837839,0.00255436,0.0211337,1763,603,11.155,4.50867
546,421,11.1362,-4.18341,0.00118627,0.00153527,0.00118853,0.00256205,0.000159498,0.858287,0.00165743,0.0128321,1770,603,11.1362,4.18341
553,421,11.1312,-3.83392,0.000727558,0.0011668,0.000815668,0.0017919,0.000102461,0.916906,0.00116195,0.0117092,1777,603,11.1312,3.83395
560,421,11.1315,-3.51141,0.000337037,0.000985777,0.000614181,0.00135598,-3.31674e-05,1.02835,0.000915244,0.0136324,1784,603,11.1314,3.51142
567,421,11.1237,-3.20422,8.53007e-05,0.00105178,0.000615895,0.00135139,-0.000214304,1.11804,0.000980202,0.0160655,1791,603,11.1236,3.20422
574,421,11.1066,-2.86896,2.9101e-05,0.00130087,0.00079842,0.00168568,-0.000355712,1.12168,0.00125922,0.0182659,1798,603,11.1065,2.86894
581,421,11.1124,-2.48877,9.10263e-05,0.00171783,0.00114579,0.00230958,-0.000500729,1.09407,0.00173094,0.0147016,1805,603,11.1124,2.48879
588,421,11.0807,-2.1452,0.000259003,0.00240527,0.00167577,0.00332206,-0.000657792,1.07019,0.00246342,0.0100466,1812,603,11.0807,2.14521
595,421,11.0881,-1.76483,0.000625027,0.00339468,0.00242761,0.00480467,-0.000784965,1.0446,0.00349429,0.0143494,1819,603,11.0881,1.76482
602,421,11.0619,-1.45776,0.00103373,0.0046648,0.00330733,0.00662215,-0.000923612,1.03641,0.00475265,0.015924,1826,603,11.0619,1.45774
609,421,11.0088,-1.07318,0,0,0,0,0,0,0,-1,1833,603,11.0088,1.07316
616,421,11.2607,-0.580444,0,0,0,0,0,0,0,-1,1840,603,11.2607,0.580467
623,421,6.19885,0.376648,0,0,0,0,0,0,0,-1,1847,603,6.19881,-0.376624
630,421,6.54993,0.778748,0,0,0,0,0,0,0,-1,1854,603,6.54991,-0.778744
637,421,3.74512,1.65405,0,0,0,0,0,0,0,-1,1861,603,3.74517,-1.65407
644,421,3.58081,0.354675,0,0,0,0,0,0,0,-1,1868,603,3.58082,-0.354704
651,421,3.28687,3.66351,0,0,0,0,0,0,0,-1,1875,603,3.28688,-3.66353
658,421,0,0,0,0,0,0,0,0,0,-1,1882,603,0,0
665,421,0,0,0,0,0,0,0,0,0,-1,1889,603,0,0
672,421,0,0,0,0,0,0,0,0,0,-1,1896,603,0,0
679,421,0,0,0,0,0,0,0,0,0,-1,1903,603,0,0
686,421,0,0,0,0,0,0,0,0,0,-1,1910,603,0,0
693,421,0,0,0,0,0,0,0,0,0,-1,1917,603,0,0
700,421,0,0,0,0,0,0,0,0,0,-1,1924,603,0,0
707,421,0,0,0,0,0,0,0,0,0,-1,1931,603,0,0
714,421,0,0,0,0,0,0,0,0,0,-1,1938,603,0,0
721,421,0,0,0,0,0,0,0,0,0,-1,1945,603,0,0
728,421,0,0,0,0,0,0,0,0,0,-1,1952,603,0,0
735,421,0,0,0,0,0,0,0,0,0,-1,1959,603,0,0
742,421,0,0,0,0,0,0,0,0,0,-1,1966,603,0,0
749,421,0,0,0,0,0,0,0,0,0,-1,1973,603,0,0
756,421,0,0,0,0,0,0,0,0,0,-1,1980,603,0,0
763,421,0,0,0,0,0,0,0,0,0,-1,1987,603,0,0
770,421,0,0,0,0,0,0,0,0,0,-1,1994,603,0,0
777,421,0,0,0,0,0,0,0,0,0,-1,2001,603,0,0
784,421,0,0,0,0,0,0,0,0,0,-1,2008,603,0,0
791,421,0,0,0,0,0,0,0,0,0,-1,2015,603,0,0
798,421,0,0,0,0,0,0,0,0,0,-1,2022,603,0,0
805,421,0,0,0,0,0,0,0,0,0,-1,2029,603,0,0
812,421,0,0,0,0,0,0,0,0,0,-1,2036,603,0,0
-700,414,0,0,0,0,0,0,0,0,0,-1,524,610,0,0
-693,414,0,0,0,0,0,0,0,0,0,-1,531,610,0,0
-686,414,0,0,0,0,0,0,0,0,0,-1,538,610,0,0
-679,414,0,0,0,0,0,0,0,0,0,-1,545,610,0,0
-672,414,0,0,0,0,0,0,0,0,0,-1,552,610,0,0
-665,414,0,0,0,0,0,0,0,0,0,-1,559,610,0,0
-658,414,0,0,0,0,0,0,0,0,0,-1,566,610,0,0
-651,414,0,0,0,0,0,0,0,0,0,-1,573,610,0,0
-644,414,0,0,0,0,0,0,0,0,0,-1,580,610,0,0
-637,414,0,0,0,0,0,0,0,0,0,-1,587,610,0,0
-630,414,0,0,0,0,0,0,0,0,0,-1,594,610,0,0
-623,414,0,0,0,0,0,0,0,0,0,-1,601,610,0,0
-616,414,0,0,0,0,0,0,0,0,0,-1,608,610,0,0
-609,414,0,0,0,0,0,0,0,0,0,-1,615,610,0,0
-602,414,0,0,0,0,0,0,0,0,0,-1,622,610,0,0
-595,414,0,0,0,0,0,0,0,0,0,-1,629,610,0,0
-588,414,0,0,0,0,0,0,0,0,0,-1,636,610,0,0
-581,414,0,0,0,0,0,0,0,0,0,-1,643,610,0,0
-574,414,0,0,0,0,0,0,0,0,0,-1,650,610,0,0
-567,414,0,0,0,0,0,0,0,0,0,-1,657,610,0,0
-560,414,0,0,0,0,0,0,0,0,0,-1,664,610,0,0
-553,414,0,0,0,0,0,0,0,0,0,-1,671,610,0,0
-546,414,0,0,0,0,0,0,0,0,0,-1,678,610,0,0
-539,414,-7.50146,5.65619,0,0,0,0,0,0,0,-1,685,610,-7.50149,-5.65617
-532,414,-8.15204,4.01605,0,0,0,0,0,0,0,-1,692,610,-8.15206,-4.01606
-525,414,-3.47137,-3.27924,0,0,0,0,0,0,0,-1,699,610,-3.47136,3.27922
-518,414,-3.41998,-4.42413,0,0,0,0,0,0,0,-1,706,610,-3.42001,4.4241
-511,414,-3.92542,-4.97021,0,0,0,0,0,0,0,-1,713,610,-3.92542,4.97023
-504,414,-1.62408,-3.64496,0,0,0,0,0,0,0,-1,720,610,-1.62406,3.64499
-497,414,-4.89648,-2.0274,0,0,0,0,0,0,0,-1,727,610,-4.89646,2.02743
-490,414,-4.80243,-2.3847,0.00469228,0.009657,-0.00743382,0.015012,-0.00066269,-0.946541,0.010236,0.0405216,734,610,-4.80242,2.38467
-483,414,-4.64288,-2.90387,0.00410653,0.00804057,-0.00644432,0.0128114,-0.000664286,-0.933524,0.00877074,0.0214246,741,610,-4.64287,2.90389
-476,414,-4.68939,-3.27325,0.00345118,0.00659948,-0.00540691,0.0106567,-0.00060607,-0.927051,0.00731488,0.0139788,748,610,-4.68941,3.27327
-469,414,-4.71674,-3.57037,0.00281706,0.00525333,-0.00438406,0.00858534,-0.000514952,-0.920908,0.0059027,0.0114536,755,610,-4.71674,3.57039
-462,414,-4.70319,-3.89587,0.00224516,0.00403545,-0.00340961,0.00666547,-0.000384852,-0.913769,0.00457732,0.0209371,762,610,-4.70316,3.89586
-455,414,-4.67639,-4.26459,0.00169167,0.00293484,-0.00253731,0.00492559,-0.000299084,-0.905522,0.00338783,0.0244401,769,610,-4.67638,4.26458
-448,414,-4.70819,-4.58984,0.00105284,0.00182842,-0.00156533,0.00305328,-0.000172019,-0.906821,0.00209522,0.0240818,776,610,-4.70821,4.58986
-441,414,-4.71899,-4.90698,0.000349264,0.000847125,-0.000623935,0.00126995,-7.35652e-05,-0.975207,0.000872192,0.017101,783,610,-4.719,4.90701
-434,414,-4.71466,-5.22858,-0.000629939,-0.000551054,0.00055196,-3.71287e-05,-0.00114386,0.821067,0.000750506,0.00902868,790,610,-4.71466,5.2286
-427,414,-4.70917,-5.53461,-0.00165207,-0.00202822,0.0019043,7.34277e-05,-0.00375371,0.736176,0.0025273,0.00948028,797,610,-4.70914,5.5346
-420,414,-4.70807,-5.85382,-0.00282045,-0.00388678,0.00331807,7.01472e-06,-0.00671425,0.705736,0.00447851,0.00976224,804,610,-4.7081,5.85383
-413,414,-4.72638,-6.18237,-0.00436525,-0.00649947,0.00502847,-0.000291908,-0.0105728,0.680842,0.00695328,0.010908,811,610,-4.72637,6.18235
-406,414,-4.72174,-6.59406,-0.00620517,-0.00946985,0.0070939,-0.000558231,-0.0151168,0.672314,0.00989703,0.0185306,818,610,-4.72172,6.59403
-399,414,-4.76532,-6.78204,-0.00845508,-0.013385,0.00951997,-0.00108614,-0.020754,0.658717,0.0134885,0.0291342,825,610,-4.76532,6.78206
-392,414,-4.88434,-6.84949,-0.0112355,-0.0185227,0.0125262,-0.00183368,-0.0279245,0.643865,0.0180362,0.0341818,832,610,-4.88434,6.84951
-385,414,-5.08282,-6.98718,-0.0143137,-0.0255504,0.0161148,-0.00286596,-0.0369981,0.617664,0.0237678,0.044576,839,610,-5.0828,6.98717
-378,414,-5.24377,-7.17267,0,0,0,0,0,0,0,-1,846,610,-5.24377,7.17267
-371,414,-6.52948,-6.48608,0,0,0,0,0,0,0,-1,853,610,-6.52945,6.48606
-364,414,-6.76282,-6.58759,0,0,0,0,0,0,0,-1,860,610,-6.7628,6.58756
-357,414,-9.08685,-8.86188,0,0,0,0,0,0,0,-1,867,610,-9.08688,8.86187
-350,414,-6.4502,-2.41821,0,0,0,0,0,0,0,-1,874,610,-6.45021,2.41822
-343,414,-6.80249,-2.32117,0,0,0,0,0,0,0,-1,881,610,-6.80252,2.32116
-336,414,-7.11017,-2.52026,0,0,0,0,0,0,0,-1,888,610,-7.11016,2.52026
-329,414,-7.59747,-2.70313,0,0,0,0,0,0,0,-1,895,610,-7.59747,2.70315
-322,414,-4.42236,-1.29163,0,0,0,0,0,0,0,-1,902,610,-4.42238,1.2916
-315,414,0,0,0,0,0,0,0,0,0,-1,909,610,0,0
-308,414,0,0,0,0,0,0,0,0,0,-1,916,610,0,0
-301,414,0,0,0,0,0,0,0,0,0,-1,923,610,0,0
-294,414,0,0,0,0,0,0,0,0,0,-1,930,610,0,0
-287,414,0,0,0,0,0,0,0,0,0,-1,937,610,0,0
-280,414,0,0,0,0,0,0,0,0,0,-1,944,610,0,0
-273,414,0,0,0,0,0,0,0,0,0,-1,951,610,0,0
-266,414,0,0,0,0,0,0,0,0,0,-1,958,610,0,0
-259,414,0,0,0,0,0,0,0,0,0,-1,965,610,0,0
-252,414,0,0,0,0,0,0,0,0,0,-1,972,610,0,0
-245,414,0,0,0,0,0,0,0,0,0,-1,979,610,0,0
-238,414,0,0,0,0,0,0,0,0,0,-1,986,610,0,0
-231,414,0,0,0,0,0,0,0,0,0,-1,993,610,0,0
-224,414,0,0,0,0,0,0,0,0,0,-1,1000,610,0,0
-217,414,0,0,0,0,0,0,0,0,0,-1,1007,610,0,0
-210,414,0,0,0,0,0,0,0,0,0,-1,1014,610,0,0
-203,414,0,0,0,0,0,0,0,0,0,-1,1021,610,0,0
-196,414,0,0,0,0,0,0,0,0,0,-1,1028,610,0,0
-189,414,0,0,0,0,0,0,0,0,0,-1,1035,610,0,0
-182,414,0,0,0,0,0,0,0,0,0,-1,1042,610,0,0
-175,414,0,0,0,0,0,0,0,0,0,-1,1049,610,0,0
-168,414,0,0,0,0,0,0,0,0,0,-1,1056,610,0,0
-161,414,0,0,0,0,0,0,0,0,0,-1,1063,610,0,0
-154,414,0,0,0,0,0,0,0,0,0,-1,1070,610,0,0
-147,414,0,0,0,0,0,0,0,0,0,-1,1077,610,0,0
-140,414,0,0,0,0,0,0,0,0,0,-1,1084,610,0,0
-133,414,0,0,0,0,0,0,0,0,0,-1,1091,610,0,0
-126,414,0,0,0,0,0,0,0,0,0,-1,1098,610,0,0
-119,414,0,0,0,0,0,0,0,0,0,-1,1105,610,0,0
-112,414,0,0,0,0,0,0,0,0,0,-1,1112,610,0,0
-105,414,0,0,0,0,0,0,0,0,0,-1,1119,610,0,0
-98,414,0,0,0,0,0,0,0,0,0,-1,1126,610,0,0
-91,414,0,0,0,0,0,0,0,0,0,-1,1133,610,0,0
-84,414,0,0,0,0,0,0,0,0,0,-1,1140,610,0,0
-77,414,0,0,0,0,0,0,0,0,0,-1,1147,610,0,0
-70,414,0,0,0,0,0,0,0,0,0,-1,1154,610,0,0
-63,414,0,0,0,0,0,0,0,0,0,-1,1161,610,0,0
-56,414,0,0,0,0,0,0,0,0,0,-1,1168,610,0,0
-49,414,0,0,0,0,0,0,0,0,0,-1,1175,610,0,0
-42,414,0,0,0,0,0,0,0,0,0,-1,1182,610,0,0
-35,414,0,0,0,0,0,0,0,0,0,-1,1189,610,0,0
-28,414,0,0,0,0,0,0,0,0,0,-1,1196,610,0,0
-21,414,0,0,0,0,0,0,0,0,0,-1,1203,610,0,0
-14,414,0,0,0,0,0,0,0,0,0,-1,1210,610,0,0
-7,414,0,0,0,0,0,0,0,0,0,-1,1217,610,0,0
0,414,0,0,0,0,0,0,0,0,0,-1,1224,610,0,0
7,414,0,0,0,0,0,0,0,0,0,-1,1231,610,0,0
14,414,0,0,0,0,0,0,0,0,0,-1,1238,610,0,0
21,414,0,0,0,0,0,0,0,0,0,-1,1245,610,0,0
28,414,0,0,0,0,0,0,0,0,0,-1,1252,610,0,0
35,414,0,0,0,0,0,0,0,0,0,-1,1259,610,0,0
42,414,0,0,0,0,0,0,0,0,0,-1,1266,610,0,0
49,414,0,0,0,0,0,0,0,0,0,-1,1273,610,0,0
56,414,0,0,0,0,0,0,0,0,0,-1,1280,610,0,0
63,414,0,0,0,0,0,0,0,0,0,-1,1287,610,0,0
70,414,0,0,0,0,0,0,0,0,0,-1,1294,610,0,0
77,414,0,0,0,0,0,0,0,0,0,-1,1301,610,0,0
84,414,0,0,0,0,0,0,0,0,0,-1,1308,610,0,0
91,414,0,0,0,0,0,0,0,0,0,-1,1315,610,0,0
98,414,0,0,0,0,0,0,0,0,0,-1,1322,610,0,0
105,414,0,0,0,0,0,0,0,0,0,-1,1329,610,0,0
112,414,0,0,0,0,0,0,0,0,0,-1,1336,610,0,0
119,414,0,0,0,0,0,0,0,0,0,-1,1343,610,0,0
126,414,0,0,0,0,0,0,0,0,0,-1,1350,610,0,0
133,414,0,0,0,0,0,0,0,0,0,-1,1357,610,0,0
140,414,0,0,0,0,0,0,0,0,0,-1,1364,610,0,0
147,414,0,0,0,0,0,0,0,0,0,-1,1371,610,0,0
154,414,0,0,0,0,0,0,0,0,0,-1,1378,610,0,0
161,414,0,0,0,0,0,0,0,0,0,-1,1385,610,0,0
168,414,0,0,0,0,0,0,0,0,0,-1,1392,610,0,0
175,414,0,0,0,0,0,0,0,0,0,-1,1399,610,0,0
182,414,0,0,0,0,0,0,0,0,0,-1,1406,610,0,0
189,414,0,0,0,0,0,0,0,0,0,-1,1413,610,0,0
196,414,0,0,0,0,0,0,0,0,0,-1,1420,610,0,0
203,414,0,0,0,0,0,0,0,0,0,-1,1427,610,0,0
210,414,0,0,0,0,0,0,0,0,0,-1,1434,610,0,0
217,414,0,0,0,0,0,0,0,0,0,-1,1441,610,0,0
224,414,0,0,0,0,0,0,0,0,0,-1,1448,610,0,0
231,414,0,0,0,0,0,0,0,0,0,-1,1455,610,0,0
238,414,0,0,0,0,0,0,0,0,0,-1,1462,610,0,0
245,414,0,0,0,0,0,0,0,0,0,-1,1469,610,0,0
252,414,0,0,0,0,0,0,0,0,0,-1,1476,610,0,0
259,414,0,0,0,0,0,0,0,0,0,-1,1483,610,0,0
266,414,0,0,0,0,0,0,0,0,0,-1,1490,610,0,0
273,414,0,0,0,0,0,0,0,0,0,-1,1497,610,0,0
280,414,0,0,0,0,0,0,0,0,0,-1,1504,610,0,0
287,414,0,0,0,0,0,0,0,0,0,-1,1511,610,0,0
294,414,0,0,0,0,0,0,0,0,0,-1,1518,610,0,0
301,414,0,0,0,0,0,0,0,0,0,-1,1525,610,0,0
308,414,0,0,0,0,0,0,0,0,0,-1,1532,610,0,0
315,414,0,0,0,0,0,0,0,0,0,-1,1539,610,0,0
322,414,0,0,0,0,0,0,0,0,0,-1,1546,610,0,0
329,414,0,0,0,0,0,0,0,0,0,-1,1553,610,0,0
336,414,0,0,0,0,0,0,0,0,0,-1,1560,610,0,0
343,414,0,0,0,0,0,0,0,0,0,-1,1567,610,0,0
350,414,0,0,0,0,0,0,0,0,0,-1,1574,610,0,0
357,414,0,0,0,0,0,0,0,0,0,-1,1581,610,0,0
364,414,0,0,0,0,0,0,0,0,0,-1,1588,610,0,0
371,414,0,0,0,0,0,0,0,0,0,-1,1595,610,0,0
378,414,0,0,0,0,0,0,0,0,0,-1,1602,610,0,0
385,414,0,0,0,0,0,0,0,0,0,-1,1609,610,0,0
392,414,0,0,0,0,0,0,0,0,0,-1,1616,610,0,0
399,414,0,0,0,0,0,0,0,0,0,-1,1623,610,0,0
406,414,0,0,0,0,0,0,0,0,0,-1,1630,610,0,0
413,414,0,0,0,0,0,0,0,0,0,-1,1637,610,0,0
420,414,0,0,0,0,0,0,0,0,0,-1,1644,610,0,0
427,414,0,0,0,0,0,0,0,0,0,-1,1651,610,0,0
434,414,0,0,0,0,0,0,0,0,0,-1,1658,610,0,0
441,414,7.84375,0.584412,0,0,0,0,0,0,0,-1,1665,610,7.84379,-0.584394
448,414,7.40808,1.25446,0,0,0,0,0,0,0,-1,1672,610,7.40807,-1.25446
455,414,6.3512,1.73846,0,0,0,0,0,0,0,-1,1679,610,6.3512,-1.73847
462,414,8.18103,3.22113,0,0,0,0,0,0,0,-1,1686,610,8.18108,-3.22112
469,414,8.38513,2.49579,0,0,0,0,0,0,0,-1,1693,610,8.38516,-2.49576
476,414,8.64099,1.71161,0,0,0,0,0,0,0,-1,1700,610,8.64097,-1.71164
483,414,8.62744,0.687622,0,0,0,0,0,0,0,-1,1707,610,8.62749,-0.687615
490,414,8.38831,-0.0302734,0,0,0,0,0,0,0,-1,1714,610,8.38835,0.0302913
497,414,4.71094,-0.110046,0,0,0,0,0,0,0,-1,1721,610,4.71089,0.110024
504,414,7.19568,-1.43835,0,0,0,0,0,0,0,-1,1728,610,7.19563,1.43836
511,414,5.94153,-1.28772,0,0,0,0,0,0,0,-1,1735,610,5.94151,1.28769
518,414,4.53381,-0.0996704,0,0,0,0,0,0,0,-1,1742,610,4.53378,0.0996819
525,414,6.18811,-1.64056,0,0,0,0,0,0,0,-1,1749,610,6.18814,1.64055
532,414,11.3472,-5.09912,0,0,0,0,0,0,0,-1,1756,610,11.3472,5.09912
539,414,11.4218,-4.6225,0.00148761,0.00279874,0.00198927,0.00423768,4.86709e-05,0.944569,0.00280904,0.0477052,1763,610,11.4217,4.62252
546,414,11.4757,-4.17017,0.000822166,0.0018136,0.0011946,0.00261125,2.45166e-05,0.982069,0.00173272,0.0139077,1770,610,11.4757,4.17015
553,414,11.4824,-3.82544,0.000408695,0.00131137,0.000781155,0.0017622,-4.21355e-05,1.04736,0.0011891,0.012321,1777,610,11.4824,3.82545
560,414,11.4821,-3.48633,8.74373e-05,0.00101658,0.000539374,0.00126387,-0.000159856,1.14091,0.000900608,0.0142462,1784,610,11.482,3.48633
567,414,11.4667,-3.18896,-9.15036e-05,0.000960467,0.000492853,0.00115529,-0.000286327,1.19435,0.000881279,0.023271,1791,610,11.4667,3.18894
574,414,11.4457,-2.85352,-6.71948e-05,0.00109882,0.000627034,0.00137201,-0.000340382,1.15991,0.00104674,0.0213067,1798,610,11.4457,2.8535
581,414,11.4635,-2.47943,7.87682e-05,0.00137722,0.000898608,0.00183659,-0.000380605,1.09822,0.00136901,0.015663,1805,610,11.4635,2.47946
588,414,11.4315,-2.13458,0.000318281,0.00190611,0.00132427,0.00265622,-0.000431825,1.05543,0.00193092,0.0143746,1812,610,11.4315,2.13457
595,414,11.4492,-1.73566,0.000755041,0.00268928,0.00194879,0.00389773,-0.000453406,1.01573,0.00276205,0.0201548,1819,610,11.4492,1.73564
602,414,11.4397,-1.40338,0.00126858,0.00371105,0.00268678,0.00544112,-0.000461487,0.998708,0.00379062,0.0246268,1826,610,11.4396,1.40337
609,414,11.4358,-1.08478,0,0,0,0,0,0,0,-1,1833,610,11.4358,1.08475
616,414,11.6744,-0.515564,0,0,0,0,0,0,0,-1,1840,610,11.6745,0.515568
623,414,9.6969,0.0378418,0,0,0,0,0,0,0,-1,1847,610,9.69685,-0.0378644
630,414,5.47144,0.499329,0,0,0,0,0,0,0,-1,1854,610,5.47142,-0.499303
637,414,7.65186,3.90131,0,0,0,0,0,0,0,-1,1861,610,7.65181,-3.90128
644,414,5.87073,1.51422,0,0,0,0,0,0,0,-1,1868,610,5.87076,-1.51424
651,414,3.6377,0.820557,0,0,0,0,0,0,0,-1,1875,610,3.6377,-0.820543
658,414,2.29761,3.87323,0,0,0,0,0,0,0,-1,1882,610,2.29758,-3.87325
665,414,0,0,0,0,0,0,0,0,0,-1,1889,610,0,0
672,414,0,0,0,0,0,0,0,0,0,-1,1896,610,0,0
679,414,0,0,0,0,0,0,0,0,0,-1,1903,610,0,0
686,414,0,0,0,0,0,0,0,0,0,-1,1910,610,0,0
693,414,0,0,0,0,0,0,0,0,0,-1,1917,610,0,0
700,414,0,0,0,0,0,0,0,0,0,-1,1924,610,0,0
707,414,0,0,0,0,0,0,0,0,0,-1,1931,610,0,0
714,414,0,0,0,0,0,0,0,0,0,-1,1938,610,0,0
721,414,0,0,0,0,0,0,0,0,0,-1,1945,610,0,0
728,414,0,0,0,0,0,0,0,0,0,-1,1952,610,0,0
735,414,0,0,0,0,0,0,0,0,0,-1,1959,610,0,0
742,414,0,0,0,0,0,0,0,0,0,-1,1966,610,0,0
749,414,0,0,0,0,0,0,0,0,0,-1,1973,610,0,0
756,414,0,0,0,0,0,0,0,0,0,-1,1980,610,0,0
763,414,0,0,0,0,0,0,0,0,0,-1,1987,610,0,0
770,414,0,0,0,0,0,0,0,0,0,-1,1994,610,0,0
777,414,0,0,0,0,0,0,0,0,0,-1,2001,610,0,0
784,414,0,0,0,0,0,0,0,0,0,-1,2008,610,0,0
791,414,0,0,0,0,0,0,0,0,0,-1,2015,610,0,0
798,414,0,0,0,0,0,0,0,0,0,-1,2022,610,0,0
805,414,0,0,0,0,0,0,0,0,0,-1,2029,610,0,0
812,414,0,0,0,0,0,0,0,0,0,-1,2036,610,0,0
-700,407,0,0,0,0,0,0,0,0,0,-1,524,617,0,0
-693,407,0,0,0,0,0,0,0,0,0,-1,531,617,0,0
-686,407,0,0,0,0,0,0,0,0,0,-1,538,617,0,0
-679,407,0,0,0,0,0,0,0,0,0,-1,545,617,0,0
-672,407,0,0,0,0,0,0,0,0,0,-1,552,617,0,0
-665,407,0,0,0,0,0,0,0,0,0,-1,559,617,0,0
-658,407,0,0,0,0,0,0,0,0,0,-1,566,617,0,0
-651,407,0,0,0,0,0,0,0,0,0,-1,573,617,0,0
-644,407,0,0,0,0,0,0,0,0,0,-1,580,617,0,0
-637,407,0,0,0,0,0,0,0,0,0,-1,587,617,0,0
-630,407,0,0,0,0,0,0,0,0,0,-1,594,617,0,0
-623,407,0,0,0,0,0,0,0,0,0,-1,601,617,0,0
-616,407,0,0,0,0,0,0,0,0,0,-1,608,617,0,0
-609,407,0,0,0,0,0,0,0,0,0,-1,615,617,0,0
-602,407,0,0,0,0,0,0,0,0,0,-1,622,617,0,0
-595,407,0,0,0,0,0,0,0,0,0,-1,629,617,0,0
-588,407,0,0,0,0,0,0,0,0,0,-1,636,617,0,0
-581,407,0,0,0,0,0,0,0,0,0,-1,643,617,0,0
-574,407,0,0,0,0,0,0,0,0,0,-1,650,617,0,0
-567,407,0,0,0,0,0,0,0,0,0,-1,657,617,0,0
-560,407,0,0,0,0,0,0,0,0,0,-1,664,617,0,0
-553,407,0,0,0,0,0,0,0,0,0,-1,671,617,0,0
-546,407,-8.54517,-0.658142,0,0,0,0,0,0,0,-1,678,617,-8.54515,0.658112
-539,407,-6.09442,-1.01154,0,0,0,0,0,0,0,-1,685,617,-6.09441,1.01155
-532,407,-7.75665,1.62152,0,0,0,0,0,0,0,-1,692,617,-7.75667,-1.62154
-525,407,-3.78247,-2.67639,0,0,0,0,0,0,0,-1,699,617,-3.78246,2.67638
-518,407,-4.77777,-6.01947,0,0,0,0,0,0,0,-1,706,617,-4.77777,6.01945
-511,407,-4.26392,-4.37659,0,0,0,0,0,0,0,-1,713,617,-4.26393,4.37658
-504,407,-4.99908,-2.36676,0,0,0,0,0,0,0,-1,720,617,-4.99911,2.36674
-497,407,-4.93884,-2.51086,0.00407903,0.00824044,-0.00679361,0.0132648,-0.000945374,-0.933999,0.0091746,0.0408614,727,617,-4.93883,2.51088
-490,407,-4.94983,-2.60712,0.00330955,0.00704525,-0.00553365,0.0110178,-0.000662989,-0.948166,0.00757587,0.0244949,734,617,-4.94982,2.60712
-483,407,-4.96704,-2.90826,0.0028956,0.00595182,-0.00468364,0.00935033,-0.00050291,-0.943086,0.00640777,0.015448,741,617,-4.96707,2.90828
-476,407,-4.99561,-3.23871,0.00254864,0.00487252,-0.00391579,0.00779512,-0.000373965,-0.929626,0.00532578,0.0116909,748,617,-4.99561,3.23872
-469,407,-5.02332,-3.55524,0.00224754,0.00386148,-0.003232,0.00638574,-0.00027671,-0.907737,0.00435233,0.0126864,755,617,-5.02334,3.55526
-462,407,-5.02301,-3.88635,0.00194191,0.00292512,-0.00253953,0.00502019,-0.000153159,-0.881006,0.003399,0.0209794,762,617,-5.02302,3.88635
-455,407,-5.00128,-4.26404,0.00152754,0.00204499,-0.00183981,0.00364418,-7.16473e-05,-0.855253,0.00245369,0.0223331,769,617,-5.00129,4.26401
-448,407,-5.00275,-4.59717,0.000967199,0.00107793,-0.000992959,0.00201706,2.80613e-05,-0.813248,0.00133545,0.0185168,776,617,-5.00277,4.59714
-441,407,-5.0387,-4.85773,0.000248101,0.00016625,-0.000110269,0.000324794,8.95569e-05,-0.607707,0.000193705,0.0142379,783,617,-5.03869,4.85772
-434,407,-5.04291,-5.17578,-0.000818849,-0.0011926,0.00104179,5.26939e-05,-0.00206415,0.696652,0.00139399,0.00969997,790,617,-5.04293,5.1758
-427,407,-5.03217,-5.50848,-0.00198553,-0.00267312,0.00240519,0.000100315,-0.00475896,0.71441,0.0032066,0.0101616,797,617,-5.03218,5.50848
-420,407,-5.01941,-5.84393,-0.00335614,-0.00459247,0.00387383,-5.1464e-05,-0.00789715,0.706278,0.0052477,0.0103109,804,617,-5.01943,5.84391
-413,407,-5.02197,-6.17426,-0.00526688,-0.00749021,0.00582783,-0.000445636,-0.0123115,0.691155,0.0080632,0.01187,811,617,-5.02195,6.17428
-406,407,-5.08533,-6.43201,-0.00776422,-0.010962,0.00832423,-0.000886719,-0.0178395,0.690516,0.0116087,0.0255042,818,617,-5.08534,6.43203
-399,407,-5.20654,-6.4798,-0.0109071,-0.0156032,0.0113529,-0.00166199,-0.0248483,0.683425,0.0160403,0.0418573,825,617,-5.20655,6.47979
-392,407,-5.24152,-6.54797,0,0,0,0,0,0,0,-1,832,617,-5.24149,6.54797
-385,407,-5.55005,-6.75806,0,0,0,0,0,0,0,-1,839,617,-5.55005,6.75806
-378,407,-7.28882,-5.95453,0,0,0,0,0,0,0,-1,846,617,-7.28881,5.95453
-371,407,-7.4007,-5.79449,0,0,0,0,0,0,0,-1,853,617,-7.40072,5.79447
-364,407,-10.0638,-6.6228,0,0,0,0,0,0,0,-1,860,617,-10.0639,6.62279
-357,407,-6.64447,-1.83337,0,0,0,0,0,0,0,-1,867,617,-6.64446,1.8334
-350,407,-7.03351,-1.77551,0,0,0,0,0,0,0,-1,874,617,-7.03349,1.77551
-343,407,-7.40967,-1.95026,0,0,0,0,0,0,0,-1,881,617,-7.40969,1.95026
-336,407,-8.10229,-2.40662,0,0,0,0,0,0,0,-1,888,617,-8.10229,2.40664
-329,407,-8.81232,-2.76331,0,0,0,0,0,0,0,-1,895,617,-8.81235,2.76331
-322,407,0,0,0,0,0,0,0,0,0,-1,902,617,0,0
-315,407,0,0,0,0,0,0,0,0,0,-1,909,617,0,0
-308,407,0,0,0,0,0,0,0,0,0,-1,916,617,0,0
-301,407,0,0,0,0,0,0,0,0,0,-1,923,617,0,0
-294,407,0,0,0,0,0,0,0,0,0,-1,930,617,0,0
-287,407,0,0,0,0,0,0,0,0,0,-1,937,617,0,0
-280,407,0,0,0,0,0,0,0,0,0,-1,944,617,0,0
-273,407,0,0,0,0,0,0,0,0,0,-1,951,617,0,0
-266,407,0,0,0,0,0,0,0,0,0,-1,958,617,0,0
-259,407,0,0,0,0,0,0,0,0,0,-1,965,617,0,0
-252,407,0,0,0,0,0,0,0,0,0,-1,972,617,0,0
-245,407,0,0,0,0,0,0,0,0,0,-1,979,617,0,0
-238,407,0,0,0,0,0,0,0,0,0,-1,986,617,0,0
-231,407,0,0,0,0,0,0,0,0,0,-1,993,617,0,0
-224,407,0,0,0,0,0,0,0,0,0,-1,1000,617,0,0
-217,407,0,0,0,0,0,0,0,0,0,-1,1007,617,0,0
-210,407,0,0,0,0,0,0,0,0,0,-1,1014,617,0,0
-203,407,0,0,0,0,0,0,0,0,0,-1,1021,617,0,0
-196,407,0,0,0,0,0,0,0,0,0,-1,1028,617,0,0
-189,407,0,0,0,0,0,0,0,0,0,-1,1035,617,0,0
-182,407,0,0,0,0,0,0,0,0,0,-1,1042,617,0,0
-175,407,0,0,0,0,0,0,0,0,0,-1,1049,617,0,0
-168,407,0,0,0,0,0,0,0,0,0,-1,1056,617,0,0
-161,407,0,0,0,0,0,0,0,0,0,-1,1063,617,0,0
-154,407,0,0,0,0,0,0,0,0,0,-1,1070,617,0,0
-147,407,0,0,0,0,0,0,0,0,0,-1,1077,617,0,0
-140,407,0,0,0,0,0,0,0,0,0,-1,1084,617,0,0
-133,407,0,0,0,0,0,0,0,0,0,-1,1091,617,0,0
-126,407,0,0,0,0,0,0,0,0,0,-1,1098,617,0,0
-119,407,0,0,0,0,0,0,0,0,0,-1,1105,617,0,0
-112,407,0,0,0,0,0,0,0,0,0,-1,1112,617,0,0
-105,407,0,0,0,0,0,0,0,0,0,-1,1119,617,0,0
-98,407,0,0,0,0,0,0,0,0,0,-1,1126,617,0,0
-91,407,0,0,0,0,0,0,0,0,0,-1,1133,617,0,0
-84,407,0,0,0,0,0,0,0,0,0,-1,1140,617,0,0
-77,407,0,0,0,0,0,0,0,0,0,-1,1147,617,0,0
-70,407,0,0,0,0,0,0,0,0,0,-1,1154,617,0,0
-63,407,0,0,0,0,0,0,0,0,0,-1,1161,617,0,0
-56,407,0,0,0,0,0,0,0,0,0,-1,1168,617,0,0
-49,407,0,0,0,0,0,0,0,0,0,-1,1175,617,0,0
-42,407,0,0,0,0,0,0,0,0,0,-1,1182,617,0,0
-35,407,0,0,0,0,0,0,0,0,0,-1,1189,617,0,0
-28,407,0,0,0,0,0,0,0,0,0,-1,1196,617,0,0
-21,407,0,0,0,0,0,0,0,0,0,-1,1203,617,0,0
-14,407,0,0,0,0,0,0,0,0,0,-1,1210,617,0,0
-7,407,0,0,0,0,0,0,0,0,0,-1,1217,617,0,0
0,407,0,0,0,0,0,0,0,0,0,-1,1224,617,0,0
7,407,0,0,0,0,0,0,0,0,0,-1,1231,617,0,0
14,407,0,0,0,0,0,0,0,0,0,-1,1238,617,0,0
21,407,0,0,0,0,0,0,0,0,0,-1,1245,617,0,0
28,407,0,0,0,0,0,0,0,0,0,-1,1252,617,0,0
35,407,0,0,0,0,0,0,0,0,0,-1,1259,617,0,0
42,407,0,0,0,0,0,0,0,0,0,-1,1266,617,0,0
49,407,0,0,0,0,0,0,0,0,0,-1,1273,617,0,0
56,407,0,0,0,0,0,0,0,0,0,-1,1280,617,0,0
63,407,0,0,0,0,0,0,0,0,0,-1,1287,617,0,0
70,407,0,0,0,0,0,0,0,0,0,-1,1294,617,0,0
77,407,0,0,0,0,0,0,0,0,0,-1,1301,617,0,0
84,407,0,0,0,0,0,0,0,0,0,-1,1308,617,0,0
91,407,0,0,0,0,0,0,0,0,0,-1,1315,617,0,0
98,407,0,0,0,0,0,0,0,0,0,-1,1322,617,0,0
105,407,0,0,0,0,0,0,0,0,0,-1,1329,617,0,0
112,407,0,0,0,0,0,0,0,0,0,-1,1336,617,0,0
119,407,0,0,0,0,0,0,0,0,0,-1,1343,617,0,0
126,407,0,0,0,0,0,0,0,0,0,-1,1350,617,0,0
133,407,0,0,0,0,0,0,0,0,0,-1,1357,617,0,0
140,407,0,0,0,0,0,0,0,0,0,-1,1364,617,0,0
147,407,0,0,0,0,0,0,0,0,0,-1,1371,617,0,0
154,407,0,0,0,0,0,0,0,0,0,-1,1378,617,0,0
161,407,0,0,0,0,0,0,0,0,0,-1,1385,617,0,0
168,407,0,0,0,0,0,0,0,0,0,-1,1392,617,0,0
175,407,0,0,0,0,0,0,0,0,0,-1,1399,617,0,0
182,407,0,0,0,0,0,0,0,0,0,-1,1406,617,0,0
189,407,0,0,0,0,0,0,0,0,0,-1,1413,617,0,0
196,407,0,0,0,0,0,0,0,0,0,-1,1420,617,0,0
203,407,0,0,0,0,0,0,0,0,0,-1,1427,617,0,0
210,407,0,0,0,0,0,0,0,0,0,-1,1434,617,0,0
217,407,0,0,0,0,0,0,0,0,0,-1,1441,617,0,0
224,407,0,0,0,0,0,0,0,0,0,-1,1448,617,0,0
231,407,0,0,0,0,0,0,0,0,0,-1,1455,617,0,0
238,407,0,0,0,0,0,0,0,0,0,-1,1462,617,0,0
245,407,0,0,0,0,0,0,0,0,0,-1,1469,617,0,0
252,407,0,0,0,0,0,0,0,0,0,-1,1476,617,0,0
259,407,0,0,0,0,0,0,0,0,0,-1,1483,617,0,0
266,407,0,0,0,0,0,0,0,0,0,-1,1490,617,0,0
273,407,0,0,0,0,0,0,0,0,0,-1,1497,617,0,0
280,407,0,0,0,0,0,0,0,0,0,-1,1504,617,0,0
287,407,0,0,0,0,0,0,0,0,0,-1,1511,617,0,0
294,407,0,0,0,0,0,0,0,0,0,-1,1518,617,0,0
301,407,0,0,0,0,0,0,0,0,0,-1,1525,617,0,0
308,407,0,0,0,0,0,0,0,0,0,-1,1532,617,0,0
315,407,0,0,0,0,0,0,0,0,0,-1,1539,617,0,0
322,407,0,0,0,0,0,0,0,0,0,-1,1546,617,0,0
329,407,0,0,0,0,0,0,0,0,0,-1,1553,617,0,0
336,407,0,0,0,0,0,0,0,0,0,-1,1560,617,0,0
343,407,0,0,0,0,0,0,0,0,0,-1,1567,617,0,0
350,407,0,0,0,0,0,0,0,0,0,-1,1574,617,0,0
357,407,0,0,0,0,0,0,0,0,0,-1,1581,617,0,0
364,407,0,0,0,0,0,0,0,0,0,-1,1588,617,0,0
371,407,0,0,0,0,0,0,0,0,0,-1,1595,617,0,0
378,407,0,0,0,0,0,0,0,0,0,-1,1602,617,0,0
385,407,0,0,0,0,0,0,0,0,0,-1,1609,617,0,0
392,407,0,0,0,0,0,0,0,0,0,-1,1616,617,0,0
399,407,0,0,0,0,0,0,0,0,0,-1,1623,617,0,0
406,407,0,0,0,0,0,0,0,0,0,-1,1630,617,0,0
413,407,0,0,0,0,0,0,0,0,0,-1,1637,617,0,0
420,407,0,0,0,0,0,0,0,0,0,-1,1644,617,0,0
427,407,0,0,0,0,0,0,0,0,0,-1,1651,617,0,0
434,407,0,0,0,0,0,0,0,0,0,-1,1658,617,0,0
441,407,0,0,0,0,0,0,0,0,0,-1,1665,617,0,0
448,407,7.02893,2.13843,0,0,0,0,0,0,0,-1,1672,617,7.02899,-2.13844
455,407,7.55237,2.29242,0,0,0,0,0,0,0,-1,1679,617,7.55236,-2.29244
462,407,8.2926,2.46173,0,0,0,0,0,0,0,-1,1686,617,8.29261,-2.46174
469,407,8.71509,2.22681,0,0,0,0,0,0,0,-1,1693,617,8.71511,-2.22681
476,407,8.89917,1.47766,0,0,0,0,0,0,0,-1,1700,617,8.89914,-1.47768
483,407,9.02612,0.682983,0,0,0,0,0,0,0,-1,1707,617,9.02608,-0.683004
490,407,9.12659,0.000671387,0,0,0,0,0,0,0,-1,1714,617,9.12653,-0.000675931
497,407,7.76819,0.855835,0,0,0,0,0,0,0,-1,1721,617,7.7682,-0.855865
504,407,4.69336,0.160706,0,0,0,0,0,0,0,-1,1728,617,4.69337,-0.1607
511,407,4.07104,-0.00140381,0,0,0,0,0,0,0,-1,1735,617,4.07109,0.00141425
518,407,6.09534,1.9411,0,0,0,0,0,0,0,-1,1742,617,6.09532,-1.94113
525,407,5.72534,-1.35986,0,0,0,0,0,0,0,-1,1749,617,5.72529,1.35988
532,407,11.54,-4.37921,0,0,0,0,0,0,0,-1,1756,617,11.5401,4.37919
539,407,11.6407,-4.72418,0,0,0,0,0,0,0,-1,1763,617,11.6407,4.72418
546,407,11.8336,-4.1535,-0.000114941,0.00209989,0.00107489,0.00253577,-0.000550823,1.18555,0.00190091,0.0168646,1770,617,11.8337,4.15351
553,407,11.8186,-3.81097,-0.000410331,0.00146087,0.000605579,0.00163976,-0.000589214,1.28357,0.00133369,0.0147716,1777,617,11.8186,3.81096
560,407,11.8173,-3.4552,-0.000598088,0.00104961,0.000321824,0.00111023,-0.000658715,1.38459,0.00103233,0.016096,1784,617,11.8172,3.45519
567,407,11.7611,-3.17395,-0.000638756,0.000866328,0.000234341,0.000901971,-0.000674398,1.41986,0.000913273,0.0285001,1791,617,11.7611,3.17394
574,407,11.7953,-2.83887,-0.000472003,0.000908338,0.000341686,0.000988288,-0.000551952,1.34095,0.000901074,0.0258667,1798,617,11.7953,2.83888
581,407,11.7994,-2.43823,-0.000181265,0.00109241,0.000573092,0.0013123,-0.000401164,1.20441,0.00103484,0.0169687,1805,617,11.7994,2.43824
588,407,11.767,-2.11316,0.000200373,0.00151626,0.000943067,0.00200822,-0.000291581,1.08998,0.00144584,0.0112593,1812,617,11.767,2.11317
595,407,11.7916,-1.77844,0.000784186,0.00215537,0.00150077,0.00311973,-0.000180176,0.999656,0.00214241,0.0213342,1819,617,11.7916,1.77844
602,407,11.7958,-1.41315,0.00143048,0.00300689,0.00217024,0.00452763,-9.02563e-05,0.959585,0.00304895,0.0179503,1826,617,11.7958,1.41313
609,407,11.7394,-1.04346,0.00210905,0.00395251,0.00290101,0.0060747,-1.31421e-05,0.939219,0.00405419,0.015161,1833,617,11.7394,1.04347
616,407,11.7952,-0.578186,0.00263513,0.00543804,0.00380967,0.00809586,-2.26866e-05,0.96165,0.00540482,0.0282078,1840,617,11.7952,0.5782
623,407,12.0247,-0.0222778,0,0,0,0,0,0,0,-1,1847,617,12.0247,0.0222821
630,407,7.06177,0.814575,0,0,0,0,0,0,0,-1,1854,617,7.06178,-0.814579
637,407,6.27808,1.17114,0,0,0,0,0,0,0,-1,1861,617,6.27803,-1.17116
644,407,5.09766,2.27747,0,0,0,0,0,0,0,-1,1868,617,5.09764,-2.27746
651,407,7.37524,0.0513916,0,0,0,0,0,0,0,-1,1875,617,7.3752,-0.0513923
658,407,3.76685,0.594177,0,0,0,0,0,0,0,-1,1882,617,3.76683,-0.594184
665,407,5.76123,0.375061,0,0,0,0,0,0,0,-1,1889,617,5.76118,-0.37509
672,407,0,0,0,0,0,0,0,0,0,-1,1896,617,0,0
679,407,0,0,0,0,0,0,0,0,0,-1,1903,617,0,0
686,407,0,0,0,0,0,0,0,0,0,-1,1910,617,0,0
693,407,0,0,0,0,0,0,0,0,0,-1,1917,617,0,0
700,407,0,0,0,0,0,0,0,0,0,-1,1924,617,0,0
707,407,0,0,0,0,0,0,0,0,0,-1,1931,617,0,0
714,407,0,0,0,0,0,0,0,0,0,-1,1938,617,0,0
721,407,0,0,0,0,0,0,0,0,0,-1,1945,617,0,0
728,407,0,0,0,0,0,0,0,0,0,-1,1952,617,0,0
735,407,0,0,0,0,0,0,0,0,0,-1,1959,617,0,0
742,407,0,0,0,0,0,0,0,0,0,-1,1966,617,0,0
749,407,0,0,0,0,0,0,0,0,0,-1,1973,617,0,0
756,407,0,0,0,0,0,0,0,0,0,-1,1980,617,0,0
763,407,0,0,0,0,0,0,0,0,0,-1,1987,617,0,0
770,407,0,0,0,0,0,0,0,0,0,-1,1994,617,0,0
777,407,0,0,0,0,0,0,0,0,0,-1,2001,617,0,0
784,407,0,0,0,0,0,0,0,0,0,-1,2008,617,0,0
791,407,0,0,0,0,0,0,0,0,0,-1,2015,617,0,0
798,407,0,0,0,0,0,0,0,0,0,-1,2022,617,0,0
805,407,0,0,0,0,0,0,0,0,0,-1,2029,617,0,0
812,407,0,0,0,0,0,0,0,0,0,-1,2036,617,0,0
-700,400,0,0,0,0,0,0,0,0,0,-1,524,624,0,0
-693,400,0,0,0,0,0,0,0,0,0,-1,531,624,0,0
-686,400,0,0,0,0,0,0,0,0,0,-1,538,624,0,0
-679,400,0,0,0,0,0,0,0,0,0,-1,545,624,0,0
-672,400,0,0,0,0,0,0,0,0,0,-1,552,624,0,0
-665,400,0,0,0,0,0,0,0,0,0,-1,559,624,0,0
-658,400,0,0,0,0,0,0,0,0,0,-1,566,624,0,0
-651,400,0,0,0,0,0,0,0,0,0,-1,573,624,0,0
-644,400,0,0,0,0,0,0,0,0,0,-1,580,624,0,0
-637,400,0,0,0,0,0,0,0,0,0,-1,587,624,0,0
-630,400,0,0,0,0,0,0,0,0,0,-1,594,624,0,0
-623,400,0,0,0,0,0,0,0,0,0,-1,601,624,0,0
-616,400,0,0,0,0,0,0,0,0,0,-1,608,624,0,0
-609,400,0,0,0,0,0,0,0,0,0,-1,615,624,0,0
-602,400,0,0,0,0,0,0,0,0,0,-1,622,624,0,0
-595,400,0,0,0,0,0,0,0,0,0,-1,629,624,0,0
-588,400,0,0,0,0,0,0,0,0,0,-1,636,624,0,0
-581,400,0,0,0,0,0,0,0,0,0,-1,643,624,0,0
-574,400,0,0,0,0,0,0,0,0,0,-1,650,624,0,0
-567,400,0,0,0,0,0,0,0,0,0,-1,657,624,0,0
-560,400,0,0,0,0,0,0,0,0,0,-1,664,624,0,0
-553,400,0,0,0,0,0,0,0,0,0,-1,671,624,0,0
-546,400,-8.41174,-1.4599,0,0,0,0,0,0,0,-1,678,624,-8.41173,1.45989
-539,400,-5.69104,-1.7337,0,0,0,0,0,0,0,-1,685,624,-5.69103,1.7337
-532,400,-3.03632,-2.03912,0,0,0,0,0,0,0,-1,692,624,-3.03632,2.03909
-525,400,-6.20813,-7.04071,0,0,0,0,0,0,0,-1,699,624,-6.20814,7.04071
-518,400,-4.9964,-5.26758,0,0,0,0,0,0,0,-1,706,624,-4.99638,5.26759
-511,400,-4.61243,-0.918152,0,0,0,0,0,0,0,-1,713,624,-4.6124,0.918166
-504,400,-5.35114,-2.35364,0,0,0,0,0,0,0,-1,720,624,-5.35114,2.35365
-497,400,-5.21802,-2.35962,0.00317813,0.00605099,-0.00566333,0.0104572,-0.0012281,-0.909598,0.00741482,0.0353554,727,624,-5.21804,2.35961
-490,400,-5.28784,-2.53326,0.00224891,0.00521435,-0.00417671,0.00816371,-0.000700451,-0.955959,0.00569035,0.0181263,734,624,-5.28783,2.53329
-483,400,-5.33984,-2.89856,0.00190026,0.00435055,-0.00335566,0.00669772,-0.00044691,-0.960429,0.00462132,0.0151569,741,624,-5.33986,2.89855
-476,400,-5.32166,-3.23486,0.00177791,0.00351546,-0.00277435,0.00555388,-0.000260515,-0.937134,0.00379241,0.0138236,748,624,-5.32164,3.23488
-469,400,-5.33215,-3.56793,0.001747,0.0027633,-0.00235884,0.0046681,-0.000157804,-0.891489,0.00316598,0.0154996,755,624,-5.33214,3.56793
-462,400,-5.32599,-3.91602,0.00164766,0.00204522,-0.00190489,0.00376168,-6.87949e-05,-0.837386,0.00253103,0.0210509,762,624,-5.32599,3.916
-455,400,-5.32446,-4.25677,0.00133292,0.00135202,-0.00135141,0.00269391,-8.97911e-06,-0.788931,0.00179894,0.0205734,769,624,-5.32448,4.2568
-448,400,-5.34351,-4.58124,0.000837279,0.000515743,-0.000617338,0.00131444,3.85824e-05,-0.658017,0.00086372,0.0148207,776,624,-5.34349,4.58121
-441,400,-5.354,-4.85333,0.000100509,-0.000342488,0.000223041,0.000193349,-0.000435328,0.394434,0.000371821,0.014411,783,624,-5.35402,4.85332
-434,400,-5.37128,-5.15009,-0.00104031,-0.00163565,0.00135155,4.59614e-05,-0.00272192,0.677006,0.00183013,0.0117931,790,624,-5.3713,5.15007
-427,400,-5.36377,-5.47614,-0.00234119,-0.0030851,0.00271933,3.15069e-05,-0.00545779,0.717429,0.00364908,0.0104081,797,624,-5.36376,5.47611
-420,400,-5.31305,-5.83716,-0.00391591,-0.00501992,0.00424011,-0.000192019,-0.0087438,0.720669,0.00576626,0.0143476,804,624,-5.31307,5.83715
-413,400,-5.36896,-6.12311,-0.00621956,-0.00817153,0.00646209,-0.000660171,-0.0137309,0.710448,0.00894201,0.0309438,811,624,-5.36894,6.12314
-406,400,-5.7121,-6.32031,-0.00947316,-0.0121506,0.00944659,-0.00127088,-0.0203528,0.71501,0.0131654,0.0403364,818,624,-5.71212,6.32031
-399,400,-5.83362,-6.60437,0,0,0,0,0,0,0,-1,825,624,-5.8336,6.60438
-392,400,-4.92285,-6.63354,0,0,0,0,0,0,0,-1,832,624,-4.92285,6.63354
-385,400,-3.68738,-5.04205,0,0,0,0,0,0,0,-1,839,624,-3.68736,5.04207
-378,400,-6.84064,-1.28662,0,0,0,0,0,0,0,-1,846,624,-6.84062,1.28662
-371,400,-6.98865,-1.2572,0,0,0,0,0,0,0,-1,853,624,-6.98865,1.25721
-364,400,-6.97247,-1.24133,0,0,0,0,0,0,0,-1,860,624,-6.97249,1.24135
-357,400,-7.18329,-1.23218,0,0,0,0,0,0,0,-1,867,624,-7.18327,1.2322
-350,400,-7.40186,-1.19409,0,0,0,0,0,0,0,-1,874,624,-7.40187,1.19407
-343,400,-8.09357,-1.51147,0,0,0,0,0,0,0,-1,881,624,-8.09355,1.51148
-336,400,0,0,0,0,0,0,0,0,0,-1,888,624,0,0
-329,400,0,0,0,0,0,0,0,0,0,-1,895,624,0,0
-322,400,0,0,0,0,0,0,0,0,0,-1,902,624,0,0
-315,400,0,0,0,0,0,0,0,0,0,-1,909,624,0,0
-308,400,0,0,0,0,0,0,0,0,0,-1,916,624,0,0
-301,400,0,0,0,0,0,0,0,0,0,-1,923,624,0,0
-294,400,0,0,0,0,0,0,0,0,0,-1,930,624,0,0
-287,400,0,0,0,0,0,0,0,0,0,-1,937,624,0,0
-280,400,0,0,0,0,0,0,0,0,0,-1,944,624,0,0
-273,400,0,0,0,0,0,0,0,0,0,-1,951,624,0,0
-266,400,0,0,0,0,0,0,0,0,0,-1,958,624,0,0
-259,400,0,0,0,0,0,0,0,0,0,-1,965,624,0,0
-252,400,0,0,0,0,0,0,0,0,0,-1,972,624,0,0
-245,400,0,0,0,0,0,0,0,0,0,-1,979,624,0,0
-238,400,0,0,0,0,0,0,0,0,0,-1,986,624,0,0
-231,400,0,0,0,0,0,0,0,0,0,-1,993,624,0,0
-224,400,0,0,0,0,0,0,0,0,0,-1,1000,624,0,0
-217,400,0,0,0,0,0,0,0,0,0,-1,1007,624,0,0
-210,400,0,0,0,0,0,0,0,0,0,-1,1014,624,0,0
-203,400,0,0,0,0,0,0,0,0,0,-1,1021,624,0,0
-196,400,0,0,0,0,0,0,0,0,0,-1,1028,624,0,0
-189,400,0,0,0,0,0,0,0,0,0,-1,1035,624,0,0
-182,400,0,0,0,0,0,0,0,0,0,-1,1042,624,0,0
-175,400,0,0,0,0,0,0,0,0,0,-1,1049,624,0,0
-168,400,0,0,0,0,0,0,0,0,0,-1,1056,624,0,0
-161,400,0,0,0,0,0,0,0,0,0,-1,1063,624,0,0
-154,400,0,0,0,0,0,0,0,0,0,-1,1070,624,0,0
-147,400,0,0,0,0,0,0,0,0,0,-1,1077,624,0,0
-140,400,0,0,0,0,0,0,0,0,0,-1,1084,624,0,0
-133,400,0,0,0,0,0,0,0,0,0,-1,1091,624,0,0
-126,400,0,0,0,0,0,0,0,0,0,-1,1098,624,0,0
-119,400,0,0,0,0,0,0,0,0,0,-1,1105,624,0,0
-112,400,0,0,0,0,0,0,0,0,0,-1,1112,624,0,0
-105,400,0,0,0,0,0,0,0,0,0,-1,1119,624,0,0
-98,400,0,0,0,0,0,0,0,0,0,-1,1126,624,0,0
-91,400,0,0,0,0,0,0,0,0,0,-1,1133,624,0,0
-84,400,0,0,0,0,0,0,0,0,0,-1,1140,624,0,0
-77,400,0,0,0,0,0,0,0,0,0,-1,1147,624,0,0
-70,400,0,0,0,0,0,0,0,0,0,-1,1154,624,0,0
-63,400,0,0,0,0,0,0,0,0,0,-1,1161,624,0,0
-56,400,0,0,0,0,0,0,0,0,0,-1,1168,624,0,0
-49,400,0,0,0,0,0,0,0,0,0,-1,1175,624,0,0
-42,400,0,0,0,0,0,0,0,0,0,-1,1182,624,0,0
-35,400,0,0,0,0,0,0,0,0,0,-1,1189,624,0,0
-28,400,0,0,0,0,0,0,0,0,0,-1,1196,624,0,0
-21,400,0,0,0,0,0,0,0,0,0,-1,1203,624,0,0
-14,400,0,0,0,0,0,0,0,0,0,-1,1210,624,0,0
-7,400,0,0,0,0,0,0,0,0,0,-1,1217,624,0,0
0,400,0,0,0,0,0,0,0,0,0,-1,1224,624,0,0
7,400,0,0,0,0,0,0,0,0,0,-1,1231,624,0,0
14,400,0,0,0,0,0,0,0,0,0,-1,1238,624,0,0
21,400,0,0,0,0,0,0,0,0,0,-1,1245,624,0,0
28,400,0,0,0,0,0,0,0,0,0,-1,1252,624,0,0
35,400,0,0,0,0,0,0,0,0,0,-1,1259,624,0,0
42,400,0,0,0,0,0,0,0,0,0,-1,1266,624,0,0
49,400,0,0,0,0,0,0,0,0,0,-1,1273,624,0,0
56,400,0,0,0,0,0,0,0,0,0,-1,1280,624,0,0
63,400,0,0,0,0,0,0,0,0,0,-1,1287,624,0,0
70,400,0,0,0,0,0,0,0,0,0,-1,1294,624,0,0
77,400,0,0,0,0,0,0,0,0,0,-1,1301,624,0,0
84,400,0,0,0,0,0,0,0,0,0,-1,1308,624,0,0
91,400,0,0,0,0,0,0,0,0,0,-1,1315,624,0,0
98,400,0,0,0,0,0,0,0,0,0,-1,1322,624,0,0
105,400,0,0,0,0,0,0,0,0,0,-1,1329,624,0,0
112,400,0,0,0,0,0,0,0,0,0,-1,1336,624,0,0
119,400,0,0,0,0,0,0,0,0,0,-1,1343,624,0,0
126,400,0,0,0,0,0,0,0,0,0,-1,1350,624,0,0
133,400,0,0,0,0,0,0,0,0,0,-1,1357,624,0,0
140,400,0,0,0,0,0,0,0,0,0,-1,1364,624,0,0
147,400,0,0,0,0,0,0,0,0,0,-1,1371,624,0,0
154,400,0,0,0,0,0,0,0,0,0,-1,1378,624,0,0
161,400,0,0,0,0,0,0,0,0,0,-1,1385,624,0,0
168,400,0,0,0,0,0,0,0,0,0,-1,1392,624,0,0
175,400,0,0,0,0,0,0,0,0,0,-1,1399,624,0,0
182,400,0,0,0,0,0,0,0,0,0,-1,1406,624,0,0
189,400,0,0,0,0,0,0,0,0,0,-1,1413,624,0,0
196,400,0,0,0,0,0,0,0,0,0,-1,1420,624,0,0
203,400,0,0,0,0,0,0,0,0,0,-1,1427,624,0,0
210,400,0,0,0,0,0,0,0,0,0,-1,1434,624,0,0
217,400,0,0,0,0,0,0,0,0,0,-1,1441,624,0,0
224,400,0,0,0,0,0,0,0,0,0,-1,1448,624,0,0
231,400,0,0,0,0,0,0,0,0,0,-1,1455,624,0,0
238,400,0,0,0,0,0,0,0,0,0,-1,1462,624,0,0
245,400,0,0,0,0,0,0,0,0,0,-1,1469,624,0,0
252,400,0,0,0,0,0,0,0,0,0,-1,1476,624,0,0
259,400,0,0,0,0,0,0,0,0,0,-1,1483,624,0,0
266,400,0,0,0,0,0,0,0,0,0,-1,1490,624,0,0
273,400,0,0,0,0,0,0,0,0,0,-1,1497,624,0,0
280,400,0,0,0,0,0,0,0,0,0,-1,1504,624,0,0
287,400,0,0,0,0,0,0,0,0,0,-1,1511,624,0,0
294,400,0,0,0,0,0,0,0,0,0,-1,1518,624,0,0
301,400,0,0,0,0,0,0,0,0,0,-1,1525,624,0,0
308,400,0,0,0,0,0,0,0,0,0,-1,1532,624,0,0
315,400,0,0,0,0,0,0,0,0,0,-1,1539,624,0,0
322,400,0,0,0,0,0,0,0,0,0,-1,1546,624,0,0
329,400,0,0,0,0,0,0,0,0,0,-1,1553,624,0,0
336,400,0,0,0,0,0,0,0,0,0,-1,1560,624,0,0
343,400,0,0,0,0,0,0,0,0,0,-1,1567,624,0,0
350,400,0,0,0,0,0,0,0,0,0,-1,1574,624,0,0
357,400,0,0,0,0,0,0,0,0,0,-1,1581,624,0,0
364,400,0,0,0,0,0,0,0,0,0,-1,1588,624,0,0
371,400,0,0,0,0,0,0,0,0,0,-1,1595,624,0,0
378,400,0,0,0,0,0,0,0,0,0,-1,1602,624,0,0
385,400,0,0,0,0,0,0,0,0,0,-1,1609,624,0,0
392,400,0,0,0,0,0,0,0,0,0,-1,1616,624,0,0
399,400,0,0,0,0,0,0,0,0,0,-1,1623,624,0,0
406,400,0,0,0,0,0,0,0,0,0,-1,1630,624,0,0
413,400,0,0,0,0,0,0,0,0,0,-1,1637,624,0,0
420,400,0,0,0,0,0,0,0,0,0,-1,1644,624,0,0
427,400,0,0,0,0,0,0,0,0,0,-1,1651,624,0,0
434,400,0,0,0,0,0,0,0,0,0,-1,1658,624,0,0
441,400,0,0,0,0,0,0,0,0,0,-1,1665,624,0,0
448,400,0,0,0,0,0,0,0,0,0,-1,1672,624,0,0
455,400,8.91309,2.75885,0,0,0,0,0,0,0,-1,1679,624,8.91312,-2.75885
462,400,8.90356,2.37878,0,0,0,0,0,0,0,-1,1686,624,8.90353,-2.37878
469,400,9.14429,1.76849,0,0,0,0,0,0,0,-1,1693,624,9.14432,-1.76847
476,400,9.23254,1.25995,0,0,0,0,0,0,0,-1,1700,624,9.23252,-1.25994
483,400,9.59766,0.562439,0,0,0,0,0,0,0,-1,1707,624,9.59771,-0.56242
490,400,9.92578,-0.213745,0,0,0,0,0,0,0,-1,1714,624,9.92579,0.21376
497,400,9.19141,0.175232,0,0,0,0,0,0,0,-1,1721,624,9.19138,-0.175209
504,400,9.23438,0.00823975,0,0,0,0,0,0,0,-1,1728,624,9.23436,-0.00823766
511,400,6.16687,3.3501,0,0,0,0,0,0,0,-1,1735,624,6.16682,-3.35007
518,400,6.55237,1.74994,0,0,0,0,0,0,0,-1,1742,624,6.55236,-1.74993
525,400,6.99731,1.08783,0,0,0,0,0,0,0,-1,1749,624,6.99736,-1.08785
532,400,6.96582,-1.74982,0,0,0,0,0,0,0,-1,1756,624,6.96585,1.74983
539,400,12.2517,-4.50031,0,0,0,0,0,0,0,-1,1763,624,12.2518,4.50033
546,400,12.2322,-4.19208,-0.00131154,0.00250604,0.000817416,0.0026737,-0.0014792,1.36849,0.00243052,0.0355193,1770,624,12.2322,4.19209
553,400,12.1207,-3.81824,-0.00141452,0.0017136,0.000340981,0.00175033,-0.00145126,1.46347,0.00185112,0.018981,1777,624,12.1207,3.81825
560,400,12.1372,-3.4447,-0.00141004,0.00116847,5.23846e-05,0.00116954,-0.0014111,1.55049,0.0014921,0.0135588,1784,624,12.1372,3.44468
567,400,12.1471,-3.1438,-0.00127172,0.000837355,-5.3729e-05,0.000838722,-0.00127309,-1.54534,0.00122782,0.0175595,1791,624,12.1471,3.14381
574,400,12.1426,-2.83655,-0.00094496,0.000774573,4.66055e-05,0.000775836,-0.000946222,1.54372,0.000995852,0.0201443,1798,624,12.1426,2.83655
581,400,12.116,-2.427,-0.000515136,0.000868664,0.000259731,0.000915808,-0.00056228,1.39124,0.000861473,0.018578,1805,624,12.1159,2.427
588,400,12.1057,-2.04913,-2.51849e-05,0.00119141,0.000599157,0.00143693,-0.000270712,1.18188,0.00105978,0.0140019,1812,624,12.1057,2.04913
595,400,12.1139,-1.74451,0.000629733,0.0017013,0.00110887,0.00239705,-6.60114e-05,1.01045,0.00162048,0.0132157,1819,624,12.1138,1.74449
602,400,12.108,-1.40839,0.00132147,0.00240054,0.00172757,0.00367087,5.11407e-05,0.936753,0.00243038,0.0130013,1826,624,12.108,1.40841
609,400,12.0706,-1.04718,0.00188777,0.00316668,0.00233278,0.00494606,0.000108382,0.919171,0.00326185,0.0130789,1833,624,12.0706,1.04715
616,400,12.0673,-0.688049,0.00214939,0.00426203,0.00299591,0.00638239,2.9033e-05,0.954888,0.00424528,0.0163514,1840,624,12.0673,0.688045
623,400,12.0814,-0.311646,0,0,0,0,0,0,0,-1,1847,624,12.0815,0.311659
630,400,11.9432,0.09021,0,0,0,0,0,0,0,-1,1854,624,11.9432,-0.0902007
637,400,6.92896,1.01917,0,0,0,0,0,0,0,-1,1861,624,6.92899,-1.01918
644,400,8.65381,1.4599,0,0,0,0,0,0,0,-1,1868,624,8.65379,-1.45991
651,400,7.90601,0.424072,0,0,0,0,0,0,0,-1,1875,624,7.90598,-0.424097
658,400,8.69031,1.0484,0,0,0,0,0,0,0,-1,1882,624,8.6903,-1.0484
665,400,5.98438,0.522522,0,0,0,0,0,0,0,-1,1889,624,5.98442,-0.522552
672,400,0,0,0,0,0,0,0,0,0,-1,1896,624,0,0
679,400,0,0,0,0,0,0,0,0,0,-1,1903,624,0,0
686,400,0,0,0,0,0,0,0,0,0,-1,1910,624,0,0
693,400,0,0,0,0,0,0,0,0,0,-1,1917,624,0,0
700,400,0,0,0,0,0,0,0,0,0,-1,1924,624,0,0
707,400,0,0,0,0,0,0,0,0,0,-1,1931,624,0,0
714,400,0,0,0,0,0,0,0,0,0,-1,1938,624,0,0
721,400,0,0,0,0,0,0,0,0,0,-1,1945,624,0,0
728,400,0,0,0,0,0,0,0,0,0,-1,1952,624,0,0
735,400,0,0,0,0,0,0,0,0,0,-1,1959,624,0,0
742,400,0,0,0,0,0,0,0,0,0,-1,1966,624,0,0
749,400,0,0,0,0,0,0,0,0,0,-1,1973,624,0,0
756,400,0,0,0,0,0,0,0,0,0,-1,1980,624,0,0
763,400,0,0,0,0,0,0,0,0,0,-1,1987,624,0,0
770,400,0,0,0,0,0,0,0,0,0,-1,1994,624,0,0
777,400,0,0,0,0,0,0,0,0,0,-1,2001,624,0,0
784,400,0,0,0,0,0,0,0,0,0,-1,2008,624,0,0
791,400,0,0,0,0,0,0,0,0,0,-1,2015,624,0,0
798,400,0,0,0,0,0,0,0,0,0,-1,2022,624,0,0
805,400,0,0,0,0,0,0,0,0,0,-1,2029,624,0,0
812,400,0,0,0,0,0,0,0,0,0,-1,2036,624,0,0
-700,393,0,0,0,0,0,0,0,0,0,-1,524,631,0,0
-693,393,0,0,0,0,0,0,0,0,0,-1,531,631,0,0
-686,393,0,0,0,0,0,0,0,0,0,-1,538,631,0,0
-679,393,0,0,0,0,0,0,0,0,0,-1,545,631,0,0
-672,393,0,0,0,0,0,0,0,0,0,-1,552,631,0,0
-665,393,0,0,0,0,0,0,0,0,0,-1,559,631,0,0
-658,393,0,0,0,0,0,0,0,0,0,-1,566,631,0,0
-651,393,0,0,0,0,0,0,0,0,0,-1,573,631,0,0
-644,393,0,0,0,0,0,0,0,0,0,-1,580,631,0,0
-637,393,0,0,0,0,0,0,0,0,0,-1,587,631,0,0
-630,393,0,0,0,0,0,0,0,0,0,-1,594,631,0,0
-623,393,0,0,0,0,0,0,0,0,0,-1,601,631,0,0
-616,393,0,0,0,0,0,0,0,0,0,-1,608,631,0,0
-609,393,0,0,0,0,0,0,0,0,0,-1,615,631,0,0
-602,393,0,0,0,0,0,0,0,0,0,-1,622,631,0,0
-595,393,0,0,0,0,0,0,0,0,0,-1,629,631,0,0
-588,393,0,0,0,0,0,0,0,0,0,-1,636,631,0,0
-581,393,0,0,0,0,0,0,0,0,0,-1,643,631,0,0
-574,393,0,0,0,0,0,0,0,0,0,-1,650,631,0,0
-567,393,0,0,0,0,0,0,0,0,0,-1,657,631,0,0
-560,393,0,0,0,0,0,0,0,0,0,-1,664,631,0,0
-553,393,-2.35107,3.92633,0,0,0,0,0,0,0,-1,671,631,-2.35108,-3.92634
-546,393,-1.78778,2.4856,0,0,0,0,0,0,0,-1,678,631,-1.78778,-2.48557
-539,393,-5.2113,-2.20245,0,0,0,0,0,0,0,-1,685,631,-5.21128,2.20247
-532,393,-2.83643,-2.01624,0,0,0,0,0,0,0,-1,692,631,-2.83642,2.01626
-525,393,-5.43378,-4.97723,0,0,0,0,0,0,0,-1,699,631,-5.4338,4.97722
-518,393,-5.94965,-1.1734,0,0,0,0,0,0,0,-1,706,631,-5.94963,1.17338
-511,393,-5.30585,-1.30042,0,0,0,0,0,0,0,-1,713,631,-5.30583,1.30041
-504,393,-5.7937,-1.62994,0,0,0,0,0,0,0,-1,720,631,-5.79371,1.62993
-497,393,-5.63025,-2.09247,0.0022814,0.00445912,-0.00451817,0.00801778,-0.00127726,-0.903641,0.00581787,0.0268848,727,631,-5.63026,2.09247
-490,393,-5.63275,-2.56506,0.00140224,0.00386643,-0.00308735,0.00595845,-0.000689792,-0.975254,0.00422106,0.0153231,734,631,-5.63276,2.56508
-483,393,-5.6452,-2.90277,0.00112479,0.003165,-0.0023483,0.0047052,-0.000415401,-0.990301,0.00328404,0.0188549,741,631,-5.64522,2.90275
-476,393,-5.63849,-3.2215,0.00117498,0.00254395,-0.00194885,0.00392503,-0.000206096,-0.954282,0.00268802,0.0153808,748,631,-5.63851,3.22152
-469,393,-5.66229,-3.56104,0.00135008,0.00202143,-0.00175672,0.00347425,-0.000102752,-0.879801,0.00235117,0.0127506,755,631,-5.66228,3.56102
-462,393,-5.65509,-3.92688,0.00142364,0.00150325,-0.00150972,0.00297369,-4.67933e-05,-0.798579,0.00199824,0.0149494,762,631,-5.65511,3.92691
-455,393,-5.66486,-4.26086,0.00119762,0.000981844,-0.00108832,0.00218338,-3.92005e-06,-0.735994,0.0014569,0.0141947,769,631,-5.66487,4.26084
-448,393,-5.68268,-4.57184,0.000770681,0.000276563,-0.000464473,0.00104971,-2.47022e-06,-0.540973,0.000700634,0.0138073,776,631,-5.68265,4.57185
-441,393,-5.67975,-4.86011,4.02746e-05,-0.000546093,0.000338112,0.000194613,-0.000700432,0.428223,0.000543566,0.0122913,783,631,-5.67978,4.86012
-434,393,-5.69647,-5.14301,-0.00113068,-0.00175859,0.00143513,2.44281e-05,-0.0029137,0.677713,0.00195066,0.0111602,790,631,-5.69648,5.14303
-427,393,-5.64526,-5.49072,-0.00252355,-0.00315928,0.00279261,-3.07735e-05,-0.00565205,0.72873,0.00375782,0.0189848,797,631,-5.64525,5.49071
-420,393,-5.66364,-5.82147,-0.00426759,-0.00508697,0.00435967,-0.000298402,-0.00905616,0.73855,0.00594047,0.0415212,804,631,-5.66365,5.82146
-413,393,-5.88898,-6.15991,0,0,0,0,0,0,0,-1,811,631,-5.88898,6.15991
-406,393,-6.29974,-6.40002,0,0,0,0,0,0,0,-1,818,631,-6.29972,6.40002
-399,393,-5.07343,-5.92365,0,0,0,0,0,0,0,-1,825,631,-5.07344,5.92364
-392,393,-2.08063,-3.02386,0,0,0,0,0,0,0,-1,832,631,-2.08063,3.02384
-385,393,-3.16931,-0.624756,0,0,0,0,0,0,0,-1,839,631,-3.16928,0.624764
-378,393,-7.33081,-0.872314,0,0,0,0,0,0,0,-1,846,631,-7.33081,0.872325
-371,393,-7.47858,-0.811096,0,0,0,0,0,0,0,-1,853,631,-7.47859,0.811075
-364,393,-7.64917,-0.662415,0,0,0,0,0,0,0,-1,860,631,-7.64917,0.662406
-357,393,-8.09686,-0.726013,0,0,0,0,0,0,0,-1,867,631,-8.09689,0.726029
-350,393,-8.38788,-0.511841,0,0,0,0,0,0,0,-1,874,631,-8.38785,0.511811
-343,393,0,0,0,0,0,0,0,0,0,-1,881,631,0,0
-336,393,0,0,0,0,0,0,0,0,0,-1,888,631,0,0
-329,393,0,0,0,0,0,0,0,0,0,-1,895,631,0,0
-322,393,0,0,0,0,0,0,0,0,0,-1,902,631,0,0
-315,393,0,0,0,0,0,0,0,0,0,-1,909,631,0,0
-308,393,0,0,0,0,0,0,0,0,0,-1,916,631,0,0
-301,393,0,0,0,0,0,0,0,0,0,-1,923,631,0,0
-294,393,0,0,0,0,0,0,0,0,0,-1,930,631,0,0
-287,393,0,0,0,0,0,0,0,0,0,-1,937,631,0,0
-280,393,0,0,0,0,0,0,0,0,0,-1,944,631,0,0
-273,393,0,0,0,0,0,0,0,0,0,-1,951,631,0,0
-266,393,0,0,0,0,0,0,0,0,0,-1,958,631,0,0
-259,393,0,0,0,0,0,0,0,0,0,-1,965,631,0,0
-252,393,0,0,0,0,0,0,0,0,0,-1,972,631,0,0
-245,393,0,0,0,0,0,0,0,0,0,-1,979,631,0,0
-238,393,0,0,0,0,0,0,0,0,0,-1,986,631,0,0
-231,393,0,0,0,0,0,0,0,0,0,-1,993,631,0,0
-224,393,0,0,0,0,0,0,0,0,0,-1,1000,631,0,0
-217,393,0,0,0,0,0,0,0,0,0,-1,1007,631,0,0
-210,393,0,0,0,0,0,0,0,0,0,-1,1014,631,0,0
-203,393,0,0,0,0,0,0,0,0,0,-1,1021,631,0,0
-196,393,0,0,0,0,0,0,0,0,0,-1,1028,631,0,0
-189,393,0,0,0,0,0,0,0,0,0,-1,1035,631,0,0
-182,393,0,0,0,0,0,0,0,0,0,-1,1042,631,0,0
-175,393,0,0,0,0,0,0,0,0,0,-1,1049,631,0,0
-168,393,0,0,0,0,0,0,0,0,0,-1,1056,631,0,0
-161,393,0,0,0,0,0,0,0,0,0,-1,1063,631,0,0
-154,393,0,0,0,0,0,0,0,0,0,-1,1070,631,0,0
-147,393,0,0,0,0,0,0,0,0,0,-1,1077,631,0,0
-140,393,0,0,0,0,0,0,0,0,0,-1,1084,631,0,0
-133,393,0,0,0,0,0,0,0,0,0,-1,1091,631,0,0
-126,393,0,0,0,0,0,0,0,0,0,-1,1098,631,0,0
-119,393,0,0,0,0,0,0,0,0,0,-1,1105,631,0,0
-112,393,0,0,0,0,0,0,0,0,0,-1,1112,631,0,0
-105,393,0,0,0,0,0,0,0,0,0,-1,1119,631,0,0
-98,393,0,0,0,0,0,0,0,0,0,-1,1126,631,0,0
-91,393,0,0,0,0,0,0,0,0,0,-1,1133,631,0,0
-84,393,0,0,0,0,0,0,0,0,0,-1,1140,631,0,0
-77,393,0,0,0,0,0,0,0,0,0,-1,1147,631,0,0
-70,393,0,0,0,0,0,0,0,0,0,-1,1154,631,0,0
-63,393,0,0,0,0,0,0,0,0,0,-1,1161,631,0,0
-56,393,0,0,0,0,0,0,0,0,0,-1,1168,631,0,0
-49,393,0,0,0,0,0,0,0,0,0,-1,1175,631,0,0
-42,393,0,0,0,0,0,0,0,0,0,-1,1182,631,0,0
-35,393,0,0,0,0,0,0,0,0,0,-1,1189,631,0,0
-28,393,0,0,0,0,0,0,0,0,0,-1,1196,631,0,0
-21,393,0,0,0,0,0,0,0,0,0,-1,1203,631,0,0
-14,393,0,0,0,0,0,0,0,0,0,-1,1210,631,0,0
-7,393,0,0,0,0,0,0,0,0,0,-1,1217,631,0,0
0,393,0,0,0,0,0,0,0,0,0,-1,1224,631,0,0
7,393,0,0,0,0,0,0,0,0,0,-1,1231,631,0,0
14,393,0,0,0,0,0,0,0,0,0,-1,1238,631,0,0
21,393,0,0,0,0,0,0,0,0,0,-1,1245,631,0,0
28,393,0,0,0,0,0,0,0,0,0,-1,1252,631,0,0
35,393,0,0,0,0,0,0,0,0,0,-1,1259,631,0,0
42,393,0,0,0,0,0,0,0,0,0,-1,1266,631,0,0
49,393,0,0,0,0,0,0,0,0,0,-1,1273,631,0,0
56,393,0,0,0,0,0,0,0,0,0,-1,1280,631,0,0
63,393,0,0,0,0,0,0,0,0,0,-1,1287,631,0,0
70,393,0,0,0,0,0,0,0,0,0,-1,1294,631,0,0
77,393,0,0,0,0,0,0,0,0,0,-1,1301,631,0,0
84,393,0,0,0,0,0,0,0,0,0,-1,1308,631,0,0
91,393,0,0,0,0,0,0,0,0,0,-1,1315,631,0,0
98,393,0,0,0,0,0,0,0,0,0,-1,1322,631,0,0
105,393,0,0,0,0,0,0,0,0,0,-1,1329,631,0,0
112,393,0,0,0,0,0,0,0,0,0,-1,1336,631,0,0
119,393,0,0,0,0,0,0,0,0,0,-1,1343,631,0,0
126,393,0,0,0,0,0,0,0,0,0,-1,1350,631,0,0
133,393,0,0,0,0,0,0,0,0,0,-1,1357,631,0,0
140,393,0,0,0,0,0,0,0,0,0,-1,1364,631,0,0
147,393,0,0,0,0,0,0,0,0,0,-1,1371,631,0,0
154,393,0,0,0,0,0,0,0,0,0,-1,1378,631,0,0
161,393,0,0,0,0,0,0,0,0,0,-1,1385,631,0,0
168,393,0,0,0,0,0,0,0,0,0,-1,1392,631,0,0
175,393,0,0,0,0,0,0,0,0,0,-1,1399,631,0,0
182,393,0,0,0,0,0,0,0,0,0,-1,1406,631,0,0
189,393,0,0,0,0,0,0,0,0,0,-1,1413,631,0,0
196,393,0,0,0,0,0,0,0,0,0,-1,1420,631,0,0
203,393,0,0,0,0,0,0,0,0,0,-1,1427,631,0,0
210,393,0,0,0,0,0,0,0,0,0,-1,1434,631,0,0
217,393,0,0,0,0,0,0,0,0,0,-1,1441,631,0,0
224,393,0,0,0,0,0,0,0,0,0,-1,1448,631,0,0
231,393,0,0,0,0,0,0,0,0,0,-1,1455,631,0,0
238,393,0,0,0,0,0,0,0,0,0,-1,1462,631,0,0
245,393,0,0,0,0,0,0,0,0,0,-1,1469,631,0,0
252,393,0,0,0,0,0,0,0,0,0,-1,1476,631,0,0
259,393,0,0,0,0,0,0,0,0,0,-1,1483,631,0,0
266,393,0,0,0,0,0,0,0,0,0,-1,1490,631,0,0
273,393,0,0,0,0,0,0,0,0,0,-1,1497,631,0,0
280,393,0,0,0,0,0,0,0,0,0,-1,1504,631,0,0
287,393,0,0,0,0,0,0,0,0,0,-1,1511,631,0,0
294,393,0,0,0,0,0,0,0,0,0,-1,1518,631,0,0
301,393,0,0,0,0,0,0,0,0,0,-1,1525,631,0,0
308,393,0,0,0,0,0,0,0,0,0,-1,1532,631,0,0
315,393,0,0,0,0,0,0,0,0,0,-1,1539,631,0,0
322,393,0,0,0,0,0,0,0,0,0,-1,1546,631,0,0
329,393,0,0,0,0,0,0,0,0,0,-1,1553,631,0,0
336,393,0,0,0,0,0,0,0,0,0,-1,1560,631,0,0
343,393,0,0,0,0,0,0,0,0,0,-1,1567,631,0,0
350,393,0,0,0,0,0,0,0,0,0,-1,1574,631,0,0
357,393,0,0,0,0,0,0,0,0,0,-1,1581,631,0,0
364,393,0,0,0,0,0,0,0,0,0,-1,1588,631,0,0
371,393,0,0,0,0,0,0,0,0,0,-1,1595,631,0,0
378,393,0,0,0,0,0,0,0,0,0,-1,1602,631,0,0
385,393,0,0,0,0,0,0,0,0,0,-1,1609,631,0,0
392,393,0,0,0,0,0,0,0,0,0,-1,1616,631,0,0
399,393,0,0,0,0,0,0,0,0,0,-1,1623,631,0,0
406,393,0,0,0,0,0,0,0,0,0,-1,1630,631,0,0
413,393,0,0,0,0,0,0,0,0,0,-1,1637,631,0,0
420,393,0,0,0,0,0,0,0,0,0,-1,1644,631,0,0
427,393,0,0,0,0,0,0,0,0,0,-1,1651,631,0,0
434,393,0,0,0,0,0,0,0,0,0,-1,1658,631,0,0
441,393,0,0,0,0,0,0,0,0,0,-1,1665,631,0,0
448,393,0,0,0,0,0,0,0,0,0,-1,1672,631,0,0
455,393,0,0,0,0,0,0,0,0,0,-1,1679,631,0,0
462,393,8.51099,1.89502,0,0,0,0,0,0,0,-1,1686,631,8.51103,-1.89504
469,393,9.39465,1.51703,0,0,0,0,0,0,0,-1,1693,631,9.39465,-1.51703
476,393,9.95569,1.185,0,0,0,0,0,0,0,-1,1700,631,9.95575,-1.18497
483,393,10.5267,0.887329,0,0,0,0,0,0,0,-1,1707,631,10.5267,-0.887321
490,393,10.9303,0.761414,0,0,0,0,0,0,0,-1,1714,631,10.9303,-0.761386
497,393,8.32153,1.88104,0,0,0,0,0,0,0,-1,1721,631,8.32148,-1.88103
504,393,9.46985,1.78711,0,0,0,0,0,0,0,-1,1728,631,9.46986,-1.78713
511,393,9.66565,-0.375977,0,0,0,0,0,0,0,-1,1735,631,9.66571,0.375949
518,393,7.01599,1.62482,0,0,0,0,0,0,0,-1,1742,631,7.01597,-1.62483
525,393,7.88245,-1.13422,0,0,0,0,0,0,0,-1,1749,631,7.88246,1.13423
532,393,7.06335,-1.18103,0,0,0,0,0,0,0,-1,1756,631,7.06332,1.18101
539,393,9.91626,-2.46301,0,0,0,0,0,0,0,-1,1763,631,9.91625,2.46302
546,393,12.5731,-4.22925,0,0,0,0,0,0,0,-1,1770,631,12.5732,4.22924
553,393,12.4532,-3.76282,-0.00287527,0.00212093,0.00011611,0.00212363,-0.00287796,1.54757,0.0028986,0.0342393,1777,631,12.4533,3.76282
560,393,12.4833,-3.46808,-0.00259976,0.00138573,-0.000201693,0.00139591,-0.00260994,-1.52036,0.00234792,0.0163439,1784,631,12.4832,3.46806
567,393,12.4971,-3.1153,-0.00223508,0.000859096,-0.000349436,0.000898069,-0.00227405,-1.45973,0.00188799,0.0141444,1791,631,12.4971,3.11532
574,393,12.5035,-2.80493,-0.00171952,0.000655843,-0.000278819,0.000688132,-0.00175181,-1.4555,0.00145263,0.0158517,1798,631,12.5035,2.8049
581,393,12.4742,-2.40765,-0.00112778,0.000640219,-9.39769e-05,0.0006452,-0.00113276,-1.51784,0.00103929,0.0154435,1805,631,12.4742,2.40768
588,393,12.4647,-2.03888,-0.000494263,0.000851599,0.000213307,0.000884597,-0.000527261,1.41732,0.000823794,0.016282,1812,631,12.4648,2.03889
595,393,12.4661,-1.73486,0.000271102,0.00124127,0.000676077,0.00158828,-7.59121e-05,1.09658,0.00108505,0.0136897,1819,631,12.4661,1.73486
602,393,12.4591,-1.41052,0.00104726,0.00181218,0.00124511,0.00273225,0.000127192,0.934408,0.00178062,0.0158489,1826,631,12.4591,1.41052
609,393,12.4506,-1.05878,0.00160514,0.00245735,0.00175947,0.00384157,0.000220913,0.9042,0.00249068,0.015668,1833,631,12.4505,1.0588
616,393,12.4316,-0.702698,0.00188556,0.00329496,0.00225476,0.00495257,0.000227946,0.936858,0.00322842,0.0153351,1840,631,12.4316,0.702713
623,393,12.4634,-0.279907,0.00218763,0.00412929,0.00275056,0.00607532,0.000241596,0.955052,0.00397213,0.0252943,1847,631,12.4634,0.279921
630,393,12.7104,0.0823364,0,0,0,0,0,0,0,-1,1854,631,12.7104,-0.0823151
637,393,11.4626,0.608887,0,0,0,0,0,0,0,-1,1861,631,11.4627,-0.608904
644,393,8.97583,1.30585,0,0,0,0,0,0,0,-1,1868,631,8.97586,-1.30584
651,393,11.348,0.53302,0,0,0,0,0,0,0,-1,1875,631,11.348,-0.53305
658,393,9.21338,1.50836,0,0,0,0,0,0,0,-1,1882,631,9.21338,-1.50834
665,393,6.1001,2.32129,0,0,0,0,0,0,0,-1,1889,631,6.10012,-2.3213
672,393,7.14575,2.43225,0,0,0,0,0,0,0,-1,1896,631,7.14572,-2.43222
679,393,0,0,0,0,0,0,0,0,0,-1,1903,631,0,0
686,393,0,0,0,0,0,0,0,0,0,-1,1910,631,0,0
693,393,0,0,0,0,0,0,0,0,0,-1,1917,631,0,0
700,393,0,0,0,0,0,0,0,0,0,-1,1924,631,0,0
707,393,0,0,0,0,0,0,0,0,0,-1,1931,631,0,0
714,393,0,0,0,0,0,0,0,0,0,-1,1938,631,0,0
721,393,0,0,0,0,0,0,0,0,0,-1,1945,631,0,0
728,393,0,0,0,0,0,0,0,0,0,-1,1952,631,0,0
735,393,0,0,0,0,0,0,0,0,0,-1,1959,631,0,0
742,393,0,0,0,0,0,0,0,0,0,-1,1966,631,0,0
749,393,0,0,0,0,0,0,0,0,0,-1,1973,631,0,0
756,393,0,0,0,0,0,0,0,0,0,-1,1980,631,0,0
763,393,0,0,0,0,0,0,0,0,0,-1,1987,631,0,0
770,393,0,0,0,0,0,0,0,0,0,-1,1994,631,0,0
777,393,0,0,0,0,0,0,0,0,0,-1,2001,631,0,0
784,393,0,0,0,0,0,0,0,0,0,-1,2008,631,0,0
791,393,0,0,0,0,0,0,0,0,0,-1,2015,631,0,0
798,393,0,0,0,0,0,0,0,0,0,-1,2022,631,0,0
805,393,0,0,0,0,0,0,0,0,0,-1,2029,631,0,0
812,393,0,0,0,0,0,0,0,0,0,-1,2036,631,0,0
-700,386,0,0,0,0,0,0,0,0,0,-1,524,638,0,0
-693,386,0,0,0,0,0,0,0,0,0,-1,531,638,0,0
-686,386,0,0,0,0,0,0,0,0,0,-1,538,638,0,0
-679,386,0,0,0,0,0,0,0,0,0,-1,545,638,0,0
-672,386,0,0,0,0,0,0,0,0,0,-1,552,638,0,0
-665,386,0,0,0,0,0,0,0,0,0,-1,559,638,0,0
-658,386,0,0,0,0,0,0,0,0,0,-1,566,638,0,0
-651,386,0,0,0,0,0,0,0,0,0,-1,573,638,0,0
-644,386,0,0,0,0,0,0,0,0,0,-1,580,638,0,0
-637,386,0,0,0,0,0,0,0,0,0,-1,587,638,0,0
-630,386,0,0,0,0,0,0,0,0,0,-1,594,638,0,0
-623,386,0,0,0,0,0,0,0,0,0,-1,601,638,0,0
-616,386,0,0,0,0,0,0,0,0,0,-1,608,638,0,0
-609,386,0,0,0,0,0,0,0,0,0,-1,615,638,0,0
-602,386,0,0,0,0,0,0,0,0,0,-1,622,638,0,0
-595,386,0,0,0,0,0,0,0,0,0,-1,629,638,0,0
-588,386,0,0,0,0,0,0,0,0,0,-1,636,638,0,0
-581,386,0,0,0,0,0,0,0,0,0,-1,643,638,0,0
-574,386,0,0,0,0,0,0,0,0,0,-1,650,638,0,0
-567,386,0,0,0,0,0,0,0,0,0,-1,657,638,0,0
-560,386,-3.97229,-5.13898,0,0,0,0,0,0,0,-1,664,638,-3.97232,5.13897
-553,386,-4.94244,-5.54309,0,0,0,0,0,0,0,-1,671,638,-4.94242,5.5431
-546,386,-1.78668,1.72827,0,0,0,0,0,0,0,-1,678,638,-1.78668,-1.72829
-539,386,-0.879456,-2.90009,0,0,0,0,0,0,0,-1,685,638,-0.879442,2.90008
-532,386,-4.83362,1.61053,0,0,0,0,0,0,0,-1,692,638,-4.83361,-1.61051
-525,386,-7.32642,-0.40155,0,0,0,0,0,0,0,-1,699,638,-7.3264,0.401574
-518,386,-5.87976,-1.26617,0,0,0,0,0,0,0,-1,706,638,-5.87975,1.26616
-511,386,-5.73346,-1.53613,0.00518865,0.00628572,-0.00982357,0.0155761,-0.00410169,-0.813289,0.0119875,0.0482976,713,638,-5.73345,1.53613
-504,386,-5.89679,-1.83478,0.00324241,0.00484495,-0.0064094,0.010503,-0.00241562,-0.847583,0.00793078,0.0303845,720,638,-5.89677,1.83476
-497,386,-6.00275,-2.23285,0.00188772,0.00335516,-0.00381776,0.00650907,-0.00126619,-0.880334,0.00481723,0.0140609,727,638,-6.00274,2.23284
-490,386,-5.96173,-2.59454,0.00101632,0.00288543,-0.00237256,0.00450087,-0.000599111,-0.973017,0.00321892,0.0127007,734,638,-5.96172,2.59452
-483,386,-5.93573,-2.94708,0.000775605,0.00234877,-0.00168425,0.00342106,-0.000296686,-1.00386,0.00238576,0.0157641,741,638,-5.93573,2.9471
-476,386,-5.94122,-3.26007,0.000937192,0.00191196,-0.00141858,0.00292455,-7.53958e-05,-0.950867,0.00197531,0.0144273,748,638,-5.94122,3.26008
-469,386,-5.98499,-3.56122,0.00124967,0.00158062,-0.0013949,0.00281983,1.04676e-05,-0.844437,0.0018764,0.0122867,755,638,-5.98502,3.56124
-462,386,-5.98871,-3.91522,0.00144214,0.00124538,-0.00132033,0.00266775,1.97671e-05,-0.74821,0.00177195,0.0113347,762,638,-5.98872,3.91521
-455,386,-6.00049,-4.23627,0.0012579,0.000891,-0.00101163,0.00210258,4.63171e-05,-0.695703,0.00138654,0.0118554,769,638,-6.00047,4.23627
-448,386,-6.00958,-4.5412,0.000857989,0.000327634,-0.00049674,0.0011559,2.97223e-05,-0.540224,0.000760887,0.0121069,776,638,-6.00961,4.5412
-441,386,-6.01715,-4.84161,0.000106832,-0.000465134,0.000258006,0.000206015,-0.000564317,0.367007,0.000460509,0.0121778,783,638,-6.01716,4.84159
-434,386,-5.97937,-5.21753,-0.00111333,-0.00158712,0.00130627,-2.26533e-05,-0.0026778,0.695698,0.00177769,0.0249516,790,638,-5.97939,5.21752
-427,386,-5.88745,-5.69855,0,0,0,0,0,0,0,-1,797,638,-5.88747,5.69856
-420,386,-6.03424,-5.86438,0,0,0,0,0,0,0,-1,804,638,-6.03422,5.8644
-413,386,-5.45691,-5.35785,0,0,0,0,0,0,0,-1,811,638,-5.45691,5.35783
-406,386,-4.51135,-4.10999,0,0,0,0,0,0,0,-1,818,638,-4.51135,4.10996
-399,386,-3.57117,-3.42126,0,0,0,0,0,0,0,-1,825,638,-3.57116,3.42129
-392,386,-4.00977,0.403625,0,0,0,0,0,0,0,-1,832,638,-4.0098,-0.403616
-385,386,-3.2406,-0.118469,0,0,0,0,0,0,0,-1,839,638,-3.24058,0.118485
-378,386,-2.55243,-1.22748,0,0,0,0,0,0,0,-1,846,638,-2.55243,1.22748
-371,386,-7.95807,-0.330261,0,0,0,0,0,0,0,-1,853,638,-7.95806,0.330284
-364,386,-8.90637,-0.665955,0,0,0,0,0,0,0,-1,860,638,-8.90635,0.665951
-357,386,-9.10364,-0.388733,0,0,0,0,0,0,0,-1,867,638,-9.10364,0.388744
-350,386,0,0,0,0,0,0,0,0,0,-1,874,638,0,0
-343,386,0,0,0,0,0,0,0,0,0,-1,881,638,0,0
-336,386,0,0,0,0,0,0,0,0,0,-1,888,638,0,0
-329,386,0,0,0,0,0,0,0,0,0,-1,895,638,0,0
-322,386,0,0,0,0,0,0,0,0,0,-1,902,638,0,0
-315,386,0,0,0,0,0,0,0,0,0,-1,909,638,0,0
-308,386,0,0,0,0,0,0,0,0,0,-1,916,638,0,0
-301,386,0,0,0,0,0,0,0,0,0,-1,923,638,0,0
-294,386,0,0,0,0,0,0,0,0,0,-1,930,638,0,0
-287,386,0,0,0,0,0,0,0,0,0,-1,937,638,0,0
-280,386,0,0,0,0,0,0,0,0,0,-1,944,638,0,0
-273,386,0,0,0,0,0,0,0,0,0,-1,951,638,0,0
-266,386,0,0,0,0,0,0,0,0,0,-1,958,638,0,0
-259,386,0,0,0,0,0,0,0,0,0,-1,965,638,0,0
-252,386,0,0,0,0,0,0,0,0,0,-1,972,638,0,0
-245,386,0,0,0,0,0,0,0,0,0,-1,979,638,0,0
-238,386,0,0,0,0,0,0,0,0,0,-1,986,638,0,0
-231,386,0,0,0,0,0,0,0,0,0,-1,993,638,0,0
-224,386,0,0,0,0,0,0,0,0,0,-1,1000,638,0,0
-217,386,0,0,0,0,0,0,0,0,0,-1,1007,638,0,0
-210,386,0,0,0,0,0,0,0,0,0,-1,1014,638,0,0
-203,386,0,0,0,0,0,0,0,0,0,-1,1021,638,0,0
-196,386,0,0,0,0,0,0,0,0,0,-1,1028,638,0,0
-189,386,0,0,0,0,0,0,0,0,0,-1,1035,638,0,0
-182,386,0,0,0,0,0,0,0,0,0,-1,1042,638,0,0
-175,386,0,0,0,0,0,0,0,0,0,-1,1049,638,0,0
-168,386,0,0,0,0,0,0,0,0,0,-1,1056,638,0,0
-161,386,0,0,0,0,0,0,0,0,0,-1,1063,638,0,0
-154,386,0,0,0,0,0,0,0,0,0,-1,1070,638,0,0
-147,386,0,0,0,0,0,0,0,0,0,-1,1077,638,0,0
-140,386,0,0,0,0,0,0,0,0,0,-1,1084,638,0,0
-133,386,0,0,0,0,0,0,0,0,0,-1,1091,638,0,0
-126,386,0,0,0,0,0,0,0,0,0,-1,1098,638,0,0
-119,386,0,0,0,0,0,0,0,0,0,-1,1105,638,0,0
-112,386,0,0,0,0,0,0,0,0,0,-1,1112,638,0,0
-105,386,0,0,0,0,0,0,0,0,0,-1,1119,638,0,0
-98,386,0,0,0,0,0,0,0,0,0,-1,1126,638,0,0
-91,386,0,0,0,0,0,0,0,0,0,-1,1133,638,0,0
-84,386,0,0,0,0,0,0,0,0,0,-1,1140,638,0,0
-77,386,0,0,0,0,0,0,0,0,0,-1,1147,638,0,0
-70,386,0,0,0,0,0,0,0,0,0,-1,1154,638,0,0
-63,386,0,0,0,0,0,0,0,0,0,-1,1161,638,0,0
-56,386,0,0,0,0,0,0,0,0,0,-1,1168,638,0,0
-49,386,0,0,0,0,0,0,0,0,0,-1,1175,638,0,0
-42,386,0,0,0,0,0,0,0,0,0,-1,1182,638,0,0
-35,386,0,0,0,0,0,0,0,0,0,-1,1189,638,0,0
-28,386,0,0,0,0,0,0,0,0,0,-1,1196,638,0,0
-21,386,0,0,0,0,0,0,0,0,0,-1,1203,638,0,0
-14,386,0,0,0,0,0,0,0,0,0,-1,1210,638,0,0
-7,386,0,0,0,0,0,0,0,0,0,-1,1217,638,0,0
0,386,0,0,0,0,0,0,0,0,0,-1,1224,638,0,0
7,386,0,0,0,0,0,0,0,0,0,-1,1231,638,0,0
14,386,0,0,0,0,0,0,0,0,0,-1,1238,638,0,0
21,386,0,0,0,0,0,0,0,0,0,-1,1245,638,0,0
28,386,0,0,0,0,0,0,0,0,0,-1,1252,638,0,0
35,386,0,0,0,0,0,0,0,0,0,-1,1259,638,0,0
42,386,0,0,0,0,0,0,0,0,0,-1,1266,638,0,0
49,386,0,0,0,0,0,0,0,0,0,-1,1273,638,0,0
56,386,0,0,0,0,0,0,0,0,0,-1,1280,638,0,0
63,386,0,0,0,0,0,0,0,0,0,-1,1287,638,0,0
70,386,0,0,0,0,0,0,0,0,0,-1,1294,638,0,0
77,386,0,0,0,0,0,0,0,0,0,-1,1301,638,0,0
84,386,0,0,0,0,0,0,0,0,0,-1,1308,638,0,0
91,386,0,0,0,0,0,0,0,0,0,-1,1315,638,0,0
98,386,0,0,0,0,0,0,0,0,0,-1,1322,638,0,0
105,386,0,0,0,0,0,0,0,0,0,-1,1329,638,0,0
112,386,0,0,0,0,0,0,0,0,0,-1,1336,638,0,0
119,386,0,0,0,0,0,0,0,0,0,-1,1343,638,0,0
126,386,0,0,0,0,0,0,0,0,0,-1,1350,638,0,0
133,386,0,0,0,0,0,0,0,0,0,-1,1357,638,0,0
140,386,0,0,0,0,0,0,0,0,0,-1,1364,638,0,0
147,386,0,0,0,0,0,0,0,0,0,-1,1371,638,0,0
154,386,0,0,0,0,0,0,0,0,0,-1,1378,638,0,0
161,386,0,0,0,0,0,0,0,0,0,-1,1385,638,0,0
168,386,0,0,0,0,0,0,0,0,0,-1,1392,638,0,0
175,386,0,0,0,0,0,0,0,0,0,-1,1399,638,0,0
182,386,0,0,0,0,0,0,0,0,0,-1,1406,638,0,0
189,386,0,0,0,0,0,0,0,0,0,-1,1413,638,0,0
196,386,0,0,0,0,0,0,0,0,0,-1,1420,638,0,0
203,386,0,0,0,0,0,0,0,0,0,-1,1427,638,0,0
210,386,0,0,0,0,0,0,0,0,0,-1,1434,638,0,0
217,386,0,0,0,0,0,0,0,0,0,-1,1441,638,0,0
224,386,0,0,0,0,0,0,0,0,0,-1,1448,638,0,0
231,386,0,0,0,0,0,0,0,0,0,-1,1455,638,0,0
238,386,0,0,0,0,0,0,0,0,0,-1,1462,638,0,0
245,386,0,0,0,0,0,0,0,0,0,-1,1469,638,0,0
252,386,0,0,0,0,0,0,0,0,0,-1,1476,638,0,0
259,386,0,0,0,0,0,0,0,0,0,-1,1483,638,0,0
266,386,0,0,0,0,0,0,0,0,0,-1,1490,638,0,0
273,386,0,0,0,0,0,0,0,0,0,-1,1497,638,0,0
280,386,0,0,0,0,0,0,0,0,0,-1,1504,638,0,0
287,386,0,0,0,0,0,0,0,0,0,-1,1511,638,0,0
294,386,0,0,0,0,0,0,0,0,0,-1,1518,638,0,0
301,386,0,0,0,0,0,0,0,0,0,-1,1525,638,0,0
308,386,0,0,0,0,0,0,0,0,0,-1,1532,638,0,0
315,386,0,0,0,0,0,0,0,0,0,-1,1539,638,0,0
322,386,0,0,0,0,0,0,0,0,0,-1,1546,638,0,0
329,386,0,0,0,0,0,0,0,0,0,-1,1553,638,0,0
336,386,0,0,0,0,0,0,0,0,0,-1,1560,638,0,0
343,386,0,0,0,0,0,0,0,0,0,-1,1567,638,0,0
350,386,0,0,0,0,0,0,0,0,0,-1,1574,638,0,0
357,386,0,0,0,0,0,0,0,0,0,-1,1581,638,0,0
364,386,0,0,0,0,0,0,0,0,0,-1,1588,638,0,0
371,386,0,0,0,0,0,0,0,0,0,-1,1595,638,0,0
378,386,0,0,0,0,0,0,0,0,0,-1,1602,638,0,0
385,386,0,0,0,0,0,0,0,0,0,-1,1609,638,0,0
392,386,0,0,0,0,0,0,0,0,0,-1,1616,638,0,0
399,386,0,0,0,0,0,0,0,0,0,-1,1623,638,0,0
406,386,0,0,0,0,0,0,0,0,0,-1,1630,638,0,0
413,386,0,0,0,0,0,0,0,0,0,-1,1637,638,0,0
420,386,0,0,0,0,0,0,0,0,0,-1,1644,638,0,0
427,386,0,0,0,0,0,0,0,0,0,-1,1651,638,0,0
434,386,0,0,0,0,0,0,0,0,0,-1,1658,638,0,0
441,386,0,0,0,0,0,0,0,0,0,-1,1665,638,0,0
448,386,0,0,0,0,0,0,0,0,0,-1,1672,638,0,0
455,386,0,0,0,0,0,0,0,0,0,-1,1679,638,0,0
462,386,0,0,0,0,0,0,0,0,0,-1,1686,638,0,0
469,386,9.84692,1.55804,0,0,0,0,0,0,0,-1,1693,638,9.84691,-1.55807
476,386,10.6145,0.986511,0,0,0,0,0,0,0,-1,1700,638,10.6145,-0.986529
483,386,11.4113,0.732971,0,0,0,0,0,0,0,-1,1707,638,11.4112,-0.732958
490,386,7.79785,1.79572,0,0,0,0,0,0,0,-1,1714,638,7.79788,-1.7957
497,386,8.96362,1.77081,0,0,0,0,0,0,0,-1,1721,638,8.96357,-1.77081
504,386,10.0555,1.69427,0,0,0,0,0,0,0,-1,1728,638,10.0555,-1.69426
511,386,11.2172,1.534,0,0,0,0,0,0,0,-1,1735,638,11.2172,-1.53398
518,386,7.41553,1.75238,0,0,0,0,0,0,0,-1,1742,638,7.41547,-1.75238
525,386,8.82422,-1.1449,0,0,0,0,0,0,0,-1,1749,638,8.82426,1.14492
532,386,10.6432,0.617371,0,0,0,0,0,0,0,-1,1756,638,10.6432,-0.617359
539,386,9.62061,-0.393616,0,0,0,0,0,0,0,-1,1763,638,9.62059,0.393634
546,386,10.7963,-2.854,0,0,0,0,0,0,0,-1,1770,638,10.7962,2.854
553,386,12.8644,-3.75928,0,0,0,0,0,0,0,-1,1777,638,12.8644,3.75929
560,386,12.8784,-3.38275,-0.00419725,0.00196781,-0.000291291,0.00198154,-0.00421099,-1.52369,0.00365168,0.0341753,1784,638,12.8784,3.38273
567,386,12.7889,-3.08569,-0.00347067,0.00111946,-0.000535583,0.00118112,-0.00353233,-1.45617,0.00283192,0.0200668,1791,638,12.7889,3.08568
574,386,12.8347,-2.7688,-0.00268974,0.000682531,-0.000544183,0.000768171,-0.00277538,-1.4147,0.0021525,0.0143146,1798,638,12.8348,2.7688
581,386,12.8176,-2.43457,-0.00189024,0.000488879,-0.000434717,0.000565823,-0.00196718,-1.39561,0.00153522,0.0135311,1805,638,12.8176,2.43455
588,386,12.8214,-2.08002,-0.00108122,0.000530499,-0.000201042,0.000555197,-0.00110592,-1.44855,0.000976459,0.0122138,1812,638,12.8214,2.08002
595,386,12.8075,-1.74304,-0.000197235,0.000759662,0.000179328,0.000792166,-0.000229738,1.39149,0.000619066,0.0137357,1819,638,12.8076,1.74301
602,386,12.7957,-1.4201,0.000657784,0.00117603,0.000668359,0.00163374,0.000200075,0.970327,0.00102897,0.0160646,1826,638,12.7956,1.42011
609,386,12.8124,-1.08008,0.00121843,0.00168504,0.0010816,0.00255821,0.000345261,0.891622,0.00160283,0.0156672,1833,638,12.8123,1.0801
616,386,12.8019,-0.717896,0.00152661,0.00228566,0.00144058,0.00339587,0.0004164,0.914198,0.00213867,0.0124069,1840,638,12.8019,0.717891
623,386,12.7866,-0.351929,0.00174045,0.00292007,0.00177304,0.00419883,0.000461686,0.945967,0.00265872,0.0107859,1847,638,12.7866,0.351951
630,386,12.9038,0.000488281,0.00171371,0.00332048,0.00195603,0.00463167,0.000402508,0.980256,0.00296274,0.0261249,1854,638,12.9037,-0.000492477
637,386,13.0664,0.344849,0,0,0,0,0,0,0,-1,1861,638,13.0664,-0.344836
644,386,11.6521,0.723328,0,0,0,0,0,0,0,-1,1868,638,11.6521,-0.723355
651,386,9.3866,1.31097,0,0,0,0,0,0,0,-1,1875,638,9.3866,-1.31095
658,386,12.0731,-0.00415039,0,0,0,0,0,0,0,-1,1882,638,12.0731,0.00412803
665,386,6.33167,1.78601,0,0,0,0,0,0,0,-1,1889,638,6.33171,-1.78601
672,386,7.23352,2.14435,0,0,0,0,0,0,0,-1,1896,638,7.23353,-2.14433
679,386,8.07764,2.57104,0,0,0,0,0,0,0,-1,1903,638,8.07758,-2.57103
686,386,0,0,0,0,0,0,0,0,0,-1,1910,638,0,0
693,386,0,0,0,0,0,0,0,0,0,-1,1917,638,0,0
700,386,0,0,0,0,0,0,0,0,0,-1,1924,638,0,0
707,386,0,0,0,0,0,0,0,0,0,-1,1931,638,0,0
714,386,0,0,0,0,0,0,0,0,0,-1,1938,638,0,0
721,386,0,0,0,0,0,0,0,0,0,-1,1945,638,0,0
728,386,0,0,0,0,0,0,0,0,0,-1,1952,638,0,0
735,386,0,0,0,0,0,0,0,0,0,-1,1959,638,0,0
742,386,0,0,0,0,0,0,0,0,0,-1,1966,638,0,0
749,386,0,0,0,0,0,0,0,0,0,-1,1973,638,0,0
756,386,0,0,0,0,0,0,0,0,0,-1,1980,638,0,0
763,386,0,0,0,0,0,0,0,0,0,-1,1987,638,0,0
770,386,0,0,0,0,0,0,0,0,0,-1,1994,638,0,0
777,386,0,0,0,0,0,0,0,0,0,-1,2001,638,0,0
784,386,0,0,0,0,0,0,0,0,0,-1,2008,638,0,0
791,386,0,0,0,0,0,0,0,0,0,-1,2015,638,0,0
798,386,0,0,0,0,0,0,0,0,0,-1,2022,638,0,0
805,386,0,0,0,0,0,0,0,0,0,-1,2029,638,0,0
812,386,0,0,0,0,0,0,0,0,0,-1,2036,638,0,0
-700,379,0,0,0,0,0,0,0,0,0,-1,524,645,0,0
-693,379,0,0,0,0,0,0,0,0,0,-1,531,645,0,0
-686,379,0,0,0,0,0,0,0,0,0,-1,538,645,0,0
-679,379,0,0,0,0,0,0,0,0,0,-1,545,645,0,0
-672,379,0,0,0,0,0,0,0,0,0,-1,552,645,0,0
-665,379,0,0,0,0,0,0,0,0,0,-1,559,645,0,0
-658,379,0,0,0,0,0,0,0,0,0,-1,566,645,0,0
-651,379,0,0,0,0,0,0,0,0,0,-1,573,645,0,0
-644,379,0,0,0,0,0,0,0,0,0,-1,580,645,0,0
-637,379,0,0,0,0,0,0,0,0,0,-1,587,645,0,0
-630,379,0,0,0,0,0,0,0,0,0,-1,594,645,0,0
-623,379,0,0,0,0,0,0,0,0,0,-1,601,645,0,0
-616,379,0,0,0,0,0,0,0,0,0,-1,608,645,0,0
-609,379,0,0,0,0,0,0,0,0,0,-1,615,645,0,0
-602,379,0,0,0,0,0,0,0,0,0,-1,622,645,0,0
-595,379,0,0,0,0,0,0,0,0,0,-1,629,645,0,0
-588,379,0,0,0,0,0,0,0,0,0,-1,636,645,0,0
-581,379,0,0,0,0,0,0,0,0,0,-1,643,645,0,0
-574,379,0,0,0,0,0,0,0,0,0,-1,650,645,0,0
-567,379,-8.78058,0.59668,0,0,0,0,0,0,0,-1,657,645,-8.7806,-0.596692
-560,379,-9.53485,-0.211304,0,0,0,0,0,0,0,-1,664,645,-9.53487,0.211282
-553,379,-5.17108,-4.53119,0,0,0,0,0,0,0,-1,671,645,-5.17106,4.53117
-546,379,-6.23053,-4.92102,0,0,0,0,0,0,0,-1,678,645,-6.23054,4.92105
-539,379,-0.71698,-2.19427,0,0,0,0,0,0,0,-1,685,645,-0.716959,2.19427
-532,379,-7.69611,0.217224,0,0,0,0,0,0,0,-1,692,645,-7.69614,-0.217204
-525,379,-7.22913,-0.460999,0,0,0,0,0,0,0,-1,699,645,-7.2291,0.461017
-518,379,-6.28461,-1.27155,0,0,0,0,0,0,0,-1,706,645,-6.28463,1.27157
-511,379,-6.14746,-1.68097,0.00480659,0.00566176,-0.00904012,0.0142844,-0.00381606,-0.80903,0.0110175,0.0382744,713,645,-6.14746,1.681
-504,379,-6.25421,-1.96014,0.00296305,0.00414236,-0.00578978,0.00937244,-0.00226703,-0.836146,0.00712521,0.0200044,720,645,-6.25423,1.96014
-497,379,-6.30518,-2.2384,0.00162045,0.00254854,-0.00325232,0.00536975,-0.00120076,-0.85626,0.00404002,0.0107692,727,645,-6.30519,2.23841
-490,379,-6.27966,-2.57178,0.000759885,0.00215991,-0.00185693,0.00344439,-0.000524593,-0.965648,0.00248961,0.0108464,734,645,-6.27965,2.57178
-483,379,-6.26923,-2.9328,0.000545426,0.00174147,-0.00122545,0.00250703,-0.000220131,-1.0124,0.00174935,0.0117657,741,645,-6.26926,2.9328
-476,379,-6.25635,-3.22821,0.000790487,0.00145364,-0.00107384,0.00224593,-1.79897e-06,-0.935144,0.00149789,0.0122975,748,645,-6.25637,3.22824
-469,379,-6.28961,-3.52795,0.00122255,0.00128763,-0.0011968,0.00245234,5.78462e-05,-0.798989,0.00161596,0.012698,755,645,-6.28963,3.52795
-462,379,-6.31525,-3.86353,0.00154194,0.00113042,-0.00129305,0.0026455,2.6854e-05,-0.706495,0.00175478,0.00937641,762,645,-6.31527,3.86354
-455,379,-6.32416,-4.19263,0.00143588,0.000961248,-0.00111116,0.00233478,6.23486e-05,-0.68019,0.00153616,0.00881571,769,645,-6.32415,4.19265
-448,379,-6.32831,-4.51019,0.00112124,0.000580936,-0.000735121,0.00163427,6.78975e-05,-0.609313,0.0010676,0.0108629,776,645,-6.32833,4.5102
-441,379,-6.29883,-4.85266,0.000431821,-0.00014446,-7.17171e-05,0.000440612,-0.000153251,-0.12197,0.000355995,0.0176308,783,645,-6.29882,4.85265
-434,379,-6.18982,-5.31006,0,0,0,0,0,0,0,-1,790,645,-6.18984,5.31005
-427,379,-4.16113,-4.13452,0,0,0,0,0,0,0,-1,797,645,-4.16116,4.1345
-420,379,-4.63953,-3.46869,0,0,0,0,0,0,0,-1,804,645,-4.63953,3.46872
-413,379,-4.62543,-3.7912,0,0,0,0,0,0,0,-1,811,645,-4.62541,3.79123
-406,379,-4.64063,-4.38489,0,0,0,0,0,0,0,-1,818,645,-4.64065,4.3849
-399,379,-2.93536,-1.40118,0,0,0,0,0,0,0,-1,825,645,-2.93534,1.40119
-392,379,-4.16711,-0.466003,0,0,0,0,0,0,0,-1,832,645,-4.16714,0.465992
-385,379,-3.51862,0.441101,0,0,0,0,0,0,0,-1,839,645,-3.51859,-0.441072
-378,379,-5.3504,0.212219,0,0,0,0,0,0,0,-1,846,645,-5.35038,-0.212241
-371,379,-4.32092,-0.186707,0,0,0,0,0,0,0,-1,853,645,-4.3209,0.186707
-364,379,-3.40887,-0.549805,0,0,0,0,0,0,0,-1,860,645,-3.4089,0.549802
-357,379,0,0,0,0,0,0,0,0,0,-1,867,645,0,0
-350,379,0,0,0,0,0,0,0,0,0,-1,874,645,0,0
-343,379,0,0,0,0,0,0,0,0,0,-1,881,645,0,0
-336,379,0,0,0,0,0,0,0,0,0,-1,888,645,0,0
-329,379,0,0,0,0,0,0,0,0,0,-1,895,645,0,0
-322,379,0,0,0,0,0,0,0,0,0,-1,902,645,0,0
-315,379,0,0,0,0,0,0,0,0,0,-1,909,645,0,0
-308,379,0,0,0,0,0,0,0,0,0,-1,916,645,0,0
-301,379,0,0,0,0,0,0,0,0,0,-1,923,645,0,0
-294,379,0,0,0,0,0,0,0,0,0,-1,930,645,0,0
-287,379,0,0,0,0,0,0,0,0,0,-1,937,645,0,0
-280,379,0,0,0,0,0,0,0,0,0,-1,944,645,0,0
-273,379,0,0,0,0,0,0,0,0,0,-1,951,645,0,0
-266,379,0,0,0,0,0,0,0,0,0,-1,958,645,0,0
-259,379,0,0,0,0,0,0,0,0,0,-1,965,645,0,0
-252,379,0,0,0,0,0,0,0,0,0,-1,972,645,0,0
-245,379,0,0,0,0,0,0,0,0,0,-1,979,645,0,0
-238,379,0,0,0,0,0,0,0,0,0,-1,986,645,0,0
-231,379,0,0,0,0,0,0,0,0,0,-1,993,645,0,0
-224,379,0,0,0,0,0,0,0,0,0,-1,1000,645,0,0
-217,379,0,0,0,0,0,0,0,0,0,-1,1007,645,0,0
-210,379,0,0,0,0,0,0,0,0,0,-1,1014,645,0,0
-203,379,0,0,0,0,0,0,0,0,0,-1,1021,645,0,0
-196,379,0,0,0,0,0,0,0,0,0,-1,1028,645,0,0
-189,379,0,0,0,0,0,0,0,0,0,-1,1035,645,0,0
-182,379,0,0,0,0,0,0,0,0,0,-1,1042,645,0,0
-175,379,0,0,0,0,0,0,0,0,0,-1,1049,645,0,0
-168,379,0,0,0,0,0,0,0,0,0,-1,1056,645,0,0
-161,379,0,0,0,0,0,0,0,0,0,-1,1063,645,0,0
-154,379,0,0,0,0,0,0,0,0,0,-1,1070,645,0,0
-147,379,0,0,0,0,0,0,0,0,0,-1,1077,645,0,0
-140,379,0,0,0,0,0,0,0,0,0,-1,1084,645,0,0
-133,379,0,0,0,0,0,0,0,0,0,-1,1091,645,0,0
-126,379,0,0,0,0,0,0,0,0,0,-1,1098,645,0,0
-119,379,0,0,0,0,0,0,0,0,0,-1,1105,645,0,0
-112,379,0,0,0,0,0,0,0,0,0,-1,1112,645,0,0
-105,379,0,0,0,0,0,0,0,0,0,-1,1119,645,0,0
-98,379,0,0,0,0,0,0,0,0,0,-1,1126,645,0,0
-91,379,0,0,0,0,0,0,0,0,0,-1,1133,645,0,0
-84,379,0,0,0,0,0,0,0,0,0,-1,1140,645,0,0
-77,379,0,0,0,0,0,0,0,0,0,-1,1147,645,0,0
-70,379,0,0,0,0,0,0,0,0,0,-1,1154,645,0,0
-63,379,0,0,0,0,0,0,0,0,0,-1,1161,645,0,0
-56,379,0,0,0,0,0,0,0,0,0,-1,1168,645,0,0
-49,379,0,0,0,0,0,0,0,0,0,-1,1175,645,0,0
-42,379,0,0,0,0,0,0,0,0,0,-1,1182,645,0,0
-35,379,0,0,0,0,0,0,0,0,0,-1,1189,645,0,0
-28,379,0,0,0,0,0,0,0,0,0,-1,1196,645,0,0
-21,379,0,0,0,0,0,0,0,0,0,-1,1203,645,0,0
-14,379,0,0,0,0,0,0,0,0,0,-1,1210,645,0,0
-7,379,0,0,0,0,0,0,0,0,0,-1,1217,645,0,0
0,379,0,0,0,0,0,0,0,0,0,-1,1224,645,0,0
7,379,0,0,0,0,0,0,0,0,0,-1,1231,645,0,0
14,379,0,0,0,0,0,0,0,0,0,-1,1238,645,0,0
21,379,0,0,0,0,0,0,0,0,0,-1,1245,645,0,0
28,379,0,0,0,0,0,0,0,0,0,-1,1252,645,0,0
35,379,0,0,0,0,0,0,0,0,0,-1,1259,645,0,0
42,379,0,0,0,0,0,0,0,0,0,-1,1266,645,0,0
49,379,0,0,0,0,0,0,0,0,0,-1,1273,645,0,0
56,379,0,0,0,0,0,0,0,0,0,-1,1280,645,0,0
63,379,0,0,0,0,0,0,0,0,0,-1,1287,645,0,0
70,379,0,0,0,0,0,0,0,0,0,-1,1294,645,0,0
77,379,0,0,0,0,0,0,0,0,0,-1,1301,645,0,0
84,379,0,0,0,0,0,0,0,0,0,-1,1308,645,0,0
91,379,0,0,0,0,0,0,0,0,0,-1,1315,645,0,0
98,379,0,0,0,0,0,0,0,0,0,-1,1322,645,0,0
105,379,0,0,0,0,0,0,0,0,0,-1,1329,645,0,0
112,379,0,0,0,0,0,0,0,0,0,-1,1336,645,0,0
119,379,0,0,0,0,0,0,0,0,0,-1,1343,645,0,0
126,379,0,0,0,0,0,0,0,0,0,-1,1350,645,0,0
133,379,0,0,0,0,0,0,0,0,0,-1,1357,645,0,0
140,379,0,0,0,0,0,0,0,0,0,-1,1364,645,0,0
147,379,0,0,0,0,0,0,0,0,0,-1,1371,645,0,0
154,379,0,0,0,0,0,0,0,0,0,-1,1378,645,0,0
161,379,0,0,0,0,0,0,0,0,0,-1,1385,645,0,0
168,379,0,0,0,0,0,0,0,0,0,-1,1392,645,0,0
175,379,0,0,0,0,0,0,0,0,0,-1,1399,645,0,0
182,379,0,0,0,0,0,0,0,0,0,-1,1406,645,0,0
189,379,0,0,0,0,0,0,0,0,0,-1,1413,645,0,0
196,379,0,0,0,0,0,0,0,0,0,-1,1420,645,0,0
203,379,0,0,0,0,0,0,0,0,0,-1,1427,645,0,0
210,379,0,0,0,0,0,0,0,0,0,-1,1434,645,0,0
217,379,0,0,0,0,0,0,0,0,0,-1,1441,645,0,0
224,379,0,0,0,0,0,0,0,0,0,-1,1448,645,0,0
231,379,0,0,0,0,0,0,0,0,0,-1,1455,645,0,0
238,379,0,0,0,0,0,0,0,0,0,-1,1462,645,0,0
245,379,0,0,0,0,0,0,0,0,0,-1,1469,645,0,0
252,379,0,0,0,0,0,0,0,0,0,-1,1476,645,0,0
259,379,0,0,0,0,0,0,0,0,0,-1,1483,645,0,0
266,379,0,0,0,0,0,0,0,0,0,-1,1490,645,0,0
273,379,0,0,0,0,0,0,0,0,0,-1,1497,645,0,0
280,379,0,0,0,0,0,0,0,0,0,-1,1504,645,0,0
287,379,0,0,0,0,0,0,0,0,0,-1,1511,645,0,0
294,379,0,0,0,0,0,0,0,0,0,-1,1518,645,0,0
301,379,0,0,0,0,0,0,0,0,0,-1,1525,645,0,0
308,379,0,0,0,0,0,0,0,0,0,-1,1532,645,0,0
315,379,0,0,0,0,0,0,0,0,0,-1,1539,645,0,0
322,379,0,0,0,0,0,0,0,0,0,-1,1546,645,0,0
329,379,0,0,0,0,0,0,0,0,0,-1,1553,645,0,0
336,379,0,0,0,0,0,0,0,0,0,-1,1560,645,0,0
343,379,0,0,0,0,0,0,0,0,0,-1,1567,645,0,0
350,379,0,0,0,0,0,0,0,0,0,-1,1574,645,0,0
357,379,0,0,0,0,0,0,0,0,0,-1,1581,645,0,0
364,379,0,0,0,0,0,0,0,0,0,-1,1588,645,0,0
371,379,0,0,0,0,0,0,0,0,0,-1,1595,645,0,0
378,379,0,0,0,0,0,0,0,0,0,-1,1602,645,0,0
385,379,0,0,0,0,0,0,0,0,0,-1,1609,645,0,0
392,379,0,0,0,0,0,0,0,0,0,-1,1616,645,0,0
399,379,0,0,0,0,0,0,0,0,0,-1,1623,645,0,0
406,379,0,0,0,0,0,0,0,0,0,-1,1630,645,0,0
413,379,0,0,0,0,0,0,0,0,0,-1,1637,645,0,0
420,379,0,0,0,0,0,0,0,0,0,-1,1644,645,0,0
427,379,0,0,0,0,0,0,0,0,0,-1,1651,645,0,0
434,379,0,0,0,0,0,0,0,0,0,-1,1658,645,0,0
441,379,0,0,0,0,0,0,0,0,0,-1,1665,645,0,0
448,379,0,0,0,0,0,0,0,0,0,-1,1672,645,0,0
455,379,0,0,0,0,0,0,0,0,0,-1,1679,645,0,0
462,379,0,0,0,0,0,0,0,0,0,-1,1686,645,0,0
469,379,0,0,0,0,0,0,0,0,0,-1,1693,645,0,0
476,379,11.1787,0.830383,0,0,0,0,0,0,0,-1,1700,645,11.1787,-0.830365
483,379,7.4231,1.54321,0,0,0,0,0,0,0,-1,1707,645,7.42314,-1.54324
490,379,8.52881,1.56677,0,0,0,0,0,0,0,-1,1714,645,8.52878,-1.56677
497,379,9.63599,1.49573,0,0,0,0,0,0,0,-1,1721,645,9.63604,-1.4957
504,379,10.0833,1.35229,0,0,0,0,0,0,0,-1,1728,645,10.0832,-1.35227
511,379,8.14343,1.59912,0,0,0,0,0,0,0,-1,1735,645,8.14347,-1.59912
518,379,12.7955,-0.324097,0,0,0,0,0,0,0,-1,1742,645,12.7955,0.324101
525,379,6.03711,1.10352,0,0,0,0,0,0,0,-1,1749,645,6.03711,-1.10351
532,379,8.70947,0.887817,0,0,0,0,0,0,0,-1,1756,645,8.70953,-0.887808
539,379,9.87097,0.111389,0,0,0,0,0,0,0,-1,1763,645,9.87095,-0.111395
546,379,8.42383,-0.730652,0,0,0,0,0,0,0,-1,1770,645,8.42378,0.730638
553,379,13.5996,-3.87805,0,0,0,0,0,0,0,-1,1777,645,13.5997,3.87804
560,379,13.3792,-3.40863,-0.00617809,0.00259349,-0.000554079,0.00262835,-0.00621295,-1.50796,0.00524251,0.0379006,1784,645,13.3791,3.40866
567,379,13.0967,-3.06464,-0.00494137,0.00143732,-0.000819736,0.00154099,-0.00504503,-1.44501,0.00397779,0.0235603,1791,645,13.0967,3.06465
574,379,13.1742,-2.76147,-0.00378556,0.000796137,-0.000820288,0.00093857,-0.003928,-1.39887,0.00298118,0.0127004,1798,645,13.1742,2.76148
581,379,13.1559,-2.40552,-0.00269462,0.000472868,-0.000702333,0.000621612,-0.00284336,-1.36209,0.00213319,0.0144466,1805,645,13.1559,2.40554
588,379,13.1615,-2.06348,-0.00165799,0.000387617,-0.000467672,0.000489466,-0.00175984,-1.35636,0.00136593,0.0167347,1812,645,13.1614,2.06347
595,379,13.1514,-1.74353,-0.000637251,0.0005026,-0.000112236,0.000513546,-0.000648198,-1.47358,0.000672233,0.0148402,1819,645,13.1513,1.74352
602,379,13.1379,-1.41473,0.000297625,0.000811565,0.000344729,0.000984562,0.000124628,1.10568,0.000619028,0.0160521,1826,645,13.138,1.41476
609,379,13.1353,-1.08856,0.00085799,0.00121825,0.000704295,0.00176509,0.000311156,0.910595,0.00108794,0.016656,1833,645,13.1353,1.08857
616,379,13.1206,-0.729309,0.00117091,0.00161659,0.000965223,0.00238436,0.000403136,0.898844,0.00147369,0.0130586,1840,645,13.1205,0.729281
623,379,13.1388,-0.344543,0.00125202,0.00208733,0.00117986,0.00292127,0.000418077,0.95551,0.0018242,0.0120288,1847,645,13.1388,0.344534
630,379,13.1576,-0.0055542,0.00099889,0.00229847,0.00122375,0.00303425,0.000263118,1.02946,0.00194108,0.0134612,1854,645,13.1576,0.00553632
637,379,13.1559,0.382629,1.28151e-05,0.00237538,0.000894405,0.00267578,-0.000287587,1.24677,0.00188703,0.0238124,1861,645,13.1559,-0.382655
644,379,13.2598,0.826721,0,0,0,0,0,0,0,-1,1868,645,13.2597,-0.826725
651,379,12.9515,0.220825,0,0,0,0,0,0,0,-1,1875,645,12.9515,-0.220814
658,379,12.6205,0.996399,0,0,0,0,0,0,0,-1,1882,645,12.6204,-0.996427
665,379,11.9719,0.353333,0,0,0,0,0,0,0,-1,1889,645,11.9719,-0.353321
672,379,7.57605,2.15326,0,0,0,0,0,0,0,-1,1896,645,7.57599,-2.15326
679,379,8.55078,2.50409,0,0,0,0,0,0,0,-1,1903,645,8.55073,-2.50406
686,379,0,0,0,0,0,0,0,0,0,-1,1910,645,0,0
693,379,0,0,0,0,0,0,0,0,0,-1,1917,645,0,0
700,379,0,0,0,0,0,0,0,0,0,-1,1924,645,0,0
707,379,0,0,0,0,0,0,0,0,0,-1,1931,645,0,0
714,379,0,0,0,0,0,0,0,0,0,-1,1938,645,0,0
721,379,0,0,0,0,0,0,0,0,0,-1,1945,645,0,0
728,379,0,0,0,0,0,0,0,0,0,-1,1952,645,0,0
735,379,0,0,0,0,0,0,0,0,0,-1,1959,645,0,0
742,379,0,0,0,0,0,0,0,0,0,-1,1966,645,0,0
749,379,0,0,0,0,0,0,0,0,0,-1,1973,645,0,0
756,379,0,0,0,0,0,0,0,0,0,-1,1980,645,0,0
763,379,0,0,0,0,0,0,0,0,0,-1,1987,645,0,0
770,379,0,0,0,0,0,0,0,0,0,-1,1994,645,0,0
777,379,0,0,0,0,0,0,0,0,0,-1,2001,645,0,0
784,379,0,0,0,0,0,0,0,0,0,-1,2008,645,0,0
791,379,0,0,0,0,0,0,0,0,0,-1,2015,645,0,0
798,379,0,0,0,0,0,0,0,0,0,-1,2022,645,0,0
805,379,0,0,0,0,0,0,0,0,0,-1,2029,645,0,0
812,379,0,0,0,0,0,0,0,0,0,-1,2036,645,0,0
-700,372,0,0,0,0,0,0,0,0,0,-1,524,652,0,0
-693,372,0,0,0,0,0,0,0,0,0,-1,531,652,0,0
-686,372,0,0,0,0,0,0,0,0,0,-1,538,652,0,0
-679,372,0,0,0,0,0,0,0,0,0,-1,545,652,0,0
-672,372,0,0,0,0,0,0,0,0,0,-1,552,652,0,0
-665,372,0,0,0,0,0,0,0,0,0,-1,559,652,0,0
-658,372,0,0,0,0,0,0,0,0,0,-1,566,652,0,0
-651,372,0,0,0,0,0,0,0,0,0,-1,573,652,0,0
-644,372,0,0,0,0,0,0,0,0,0,-1,580,652,0,0
-637,372,0,0,0,0,0,0,0,0,0,-1,587,652,0,0
-630,372,0,0,0,0,0,0,0,0,0,-1,594,652,0,0
-623,372,0,0,0,0,0,0,0,0,0,-1,601,652,0,0
-616,372,0,0,0,0,0,0,0,0,0,-1,608,652,0,0
-609,372,0,0,0,0,0,0,0,0,0,-1,615,652,0,0
-602,372,0,0,0,0,0,0,0,0,0,-1,622,652,0,0
-595,372,0,0,0,0,0,0,0,0,0,-1,629,652,0,0
-588,372,0,0,0,0,0,0,0,0,0,-1,636,652,0,0
-581,372,0,0,0,0,0,0,0,0,0,-1,643,652,0,0
-574,372,0,0,0,0,0,0,0,0,0,-1,650,652,0,0
-567,372,-7.93744,0.73407,0,0,0,0,0,0,0,-1,657,652,-7.93741,-0.734076
-560,372,-8.78552,-0.158203,0,0,0,0,0,0,0,-1,664,652,-8.78552,0.158216
-553,372,-7.95551,1.61694,0,0,0,0,0,0,0,-1,671,652,-7.95552,-1.61697
-546,372,-4.2403,-3.75372,0,0,0,0,0,0,0,-1,678,652,-4.24028,3.75369
-539,372,-7.92285,-0.0650024,0,0,0,0,0,0,0,-1,685,652,-7.92287,0.0649772
-532,372,-7.53241,0.131836,0,0,0,0,0,0,0,-1,692,652,-7.53242,-0.131857
-525,372,-7.08423,-0.509644,0,0,0,0,0,0,0,-1,699,652,-7.08421,0.509621
-518,372,-6.58038,-1.1925,0.00694444,0.00690187,-0.0124078,0.019331,-0.00548466,-0.78454,0.0150524,0.0370757,706,652,-6.58041,1.19248
-511,372,-6.58508,-1.63885,0.00423002,0.004915,-0.00805112,0.0126309,-0.00348589,-0.806655,0.00979164,0.0234938,713,652,-6.58509,1.63883
-504,372,-6.61243,-1.91644,0.0025362,0.00339894,-0.00502685,0.00801289,-0.00207775,-0.8282,0.00615259,0.0129114,720,652,-6.61242,1.91647
-497,372,-6.60077,-2.2395,0.00129605,0.0018246,-0.00264601,0.0042195,-0.00109885,-0.835171,0.00324197,0.0109338,727,652,-6.60079,2.2395
-490,372,-6.61169,-2.55151,0.000530113,0.00152889,-0.0013855,0.00250225,-0.000443247,-0.958371,0.00183386,0.0123487,734,652,-6.61171,2.55153
-483,372,-6.61572,-2.87378,0.000417221,0.00123549,-0.000872483,0.00179001,-0.000137292,-1.00464,0.00124163,0.0119887,741,652,-6.61575,2.87378
-476,372,-6.60748,-3.18512,0.00082241,0.00111649,-0.000890012,0.00187153,6.73732e-05,-0.867264,0.00122584,0.0132038,748,652,-6.60747,3.18515
-469,372,-6.62653,-3.49475,0.00145845,0.00114506,-0.00120917,0.00252103,8.24742e-05,-0.720963,0.00165388,0.0111916,755,652,-6.62651,3.49477
-462,372,-6.64105,-3.83557,0.00199874,0.00122072,-0.00154568,0.00320361,1.58477e-05,-0.66212,0.00213048,0.00949131,762,652,-6.64108,3.83555
-455,372,-6.65057,-4.17102,0.00209466,0.00131542,-0.00158245,0.00333475,7.53268e-05,-0.664693,0.00219848,0.00939785,769,652,-6.65056,4.17104
-448,372,-6.64056,-4.51605,0.00200461,0.0012165,-0.0014435,0.00310687,0.000114233,-0.652152,0.00203424,0.0116112,776,652,-6.64053,4.51607
-441,372,-6.49335,-4.97803,0.00155795,0.00068109,-0.00100281,0.00221398,2.50537e-05,-0.579319,0.00146771,0.0401075,783,652,-6.49332,4.97803
-434,372,-6.45477,-5.53748,0,0,0,0,0,0,0,-1,790,652,-6.45477,5.5375
-427,372,-4.54248,-3.56268,0,0,0,0,0,0,0,-1,797,652,-4.54247,3.56266
-420,372,-4.66168,-2.93597,0,0,0,0,0,0,0,-1,804,652,-4.66166,2.93599
-413,372,-4.74762,-3.29541,0,0,0,0,0,0,0,-1,811,652,-4.74763,3.29542
-406,372,-0.885437,-0.583923,0,0,0,0,0,0,0,-1,818,652,-0.885437,0.5839
-399,372,-3.97357,-0.825012,0,0,0,0,0,0,0,-1,825,652,-3.97359,0.825037
-392,372,-7.64337,0.173035,0,0,0,0,0,0,0,-1,832,652,-7.64337,-0.173019
-385,372,-6.48871,-0.0271606,0,0,0,0,0,0,0,-1,839,652,-6.48874,0.0271353
-378,372,-5.33044,-0.242432,0,0,0,0,0,0,0,-1,846,652,-5.33042,0.242457
-371,372,-4.40802,-0.495667,0,0,0,0,0,0,0,-1,853,652,-4.40802,0.495661
-364,372,0,0,0,0,0,0,0,0,0,-1,860,652,0,0
-357,372,0,0,0,0,0,0,0,0,0,-1,867,652,0,0
-350,372,0,0,0,0,0,0,0,0,0,-1,874,652,0,0
-343,372,0,0,0,0,0,0,0,0,0,-1,881,652,0,0
-336,372,0,0,0,0,0,0,0,0,0,-1,888,652,0,0
-329,372,0,0,0,0,0,0,0,0,0,-1,895,652,0,0
-322,372,0,0,0,0,0,0,0,0,0,-1,902,652,0,0
-315,372,0,0,0,0,0,0,0,0,0,-1,909,652,0,0
-308,372,0,0,0,0,0,0,0,0,0,-1,916,652,0,0
-301,372,0,0,0,0,0,0,0,0,0,-1,923,652,0,0
-294,372,0,0,0,0,0,0,0,0,0,-1,930,652,0,0
-287,372,0,0,0,0,0,0,0,0,0,-1,937,652,0,0
-280,372,0,0,0,0,0,0,0,0,0,-1,944,652,0,0
-273,372,0,0,0,0,0,0,0,0,0,-1,951,652,0,0
-266,372,0,0,0,0,0,0,0,0,0,-1,958,652,0,0
-259,372,0,0,0,0,0,0,0,0,0,-1,965,652,0,0
-252,372,0,0,0,0,0,0,0,0,0,-1,972,652,0,0
-245,372,0,0,0,0,0,0,0,0,0,-1,979,652,0,0
-238,372,0,0,0,0,0,0,0,0,0,-1,986,652,0,0
-231,372,0,0,0,0,0,0,0,0,0,-1,993,652,0,0
-224,372,0,0,0,0,0,0,0,0,0,-1,1000,652,0,0
-217,372,0,0,0,0,0,0,0,0,0,-1,1007,652,0,0
-210,372,0,0,0,0,0,0,0,0,0,-1,1014,652,0,0
-203,372,0,0,0,0,0,0,0,0,0,-1,1021,652,0,0
-196,372,0,0,0,0,0,0,0,0,0,-1,1028,652,0,0
-189,372,0,0,0,0,0,0,0,0,0,-1,1035,652,0,0
-182,372,0,0,0,0,0,0,0,0,0,-1,1042,652,0,0
-175,372,0,0,0,0,0,0,0,0,0,-1,1049,652,0,0
-168,372,0,0,0,0,0,0,0,0,0,-1,1056,652,0,0
-161,372,0,0,0,0,0,0,0,0,0,-1,1063,652,0,0
-154,372,0,0,0,0,0,0,0,0,0,-1,1070,652,0,0
-147,372,0,0,0,0,0,0,0,0,0,-1,1077,652,0,0
-140,372,0,0,0,0,0,0,0,0,0,-1,1084,652,0,0
-133,372,0,0,0,0,0,0,0,0,0,-1,1091,652,0,0
-126,372,0,0,0,0,0,0,0,0,0,-1,1098,652,0,0
-119,372,0,0,0,0,0,0,0,0,0,-1,1105,652,0,0
-112,372,0,0,0,0,0,0,0,0,0,-1,1112,652,0,0
-105,372,0,0,0,0,0,0,0,0,0,-1,1119,652,0,0
-98,372,0,0,0,0,0,0,0,0,0,-1,1126,652,0,0
-91,372,0,0,0,0,0,0,0,0,0,-1,1133,652,0,0
-84,372,0,0,0,0,0,0,0,0,0,-1,1140,652,0,0
-77,372,0,0,0,0,0,0,0,0,0,-1,1147,652,0,0
-70,372,0,0,0,0,0,0,0,0,0,-1,1154,652,0,0
-63,372,0,0,0,0,0,0,0,0,0,-1,1161,652,0,0
-56,372,0,0,0,0,0,0,0,0,0,-1,1168,652,0,0
-49,372,0,0,0,0,0,0,0,0,0,-1,1175,652,0,0
-42,372,0,0,0,0,0,0,0,0,0,-1,1182,652,0,0
-35,372,0,0,0,0,0,0,0,0,0,-1,1189,652,0,0
-28,372,0,0,0,0,0,0,0,0,0,-1,1196,652,0,0
-21,372,0,0,0,0,0,0,0,0,0,-1,1203,652,0,0
-14,372,0,0,0,0,0,0,0,0,0,-1,1210,652,0,0
-7,372,0,0,0,0,0,0,0,0,0,-1,1217,652,0,0
0,372,0,0,0,0,0,0,0,0,0,-1,1224,652,0,0
7,372,0,0,0,0,0,0,0,0,0,-1,1231,652,0,0
14,372,0,0,0,0,0,0,0,0,0,-1,1238,652,0,0
21,372,0,0,0,0,0,0,0,0,0,-1,1245,652,0,0
28,372,0,0,0,0,0,0,0,0,0,-1,1252,652,0,0
35,372,0,0,0,0,0,0,0,0,0,-1,1259,652,0,0
42,372,0,0,0,0,0,0,0,0,0,-1,1266,652,0,0
49,372,0,0,0,0,0,0,0,0,0,-1,1273,652,0,0
56,372,0,0,0,0,0,0,0,0,0,-1,1280,652,0,0
63,372,0,0,0,0,0,0,0,0,0,-1,1287,652,0,0
70,372,0,0,0,0,0,0,0,0,0,-1,1294,652,0,0
77,372,0,0,0,0,0,0,0,0,0,-1,1301,652,0,0
84,372,0,0,0,0,0,0,0,0,0,-1,1308,652,0,0
91,372,0,0,0,0,0,0,0,0,0,-1,1315,652,0,0
98,372,0,0,0,0,0,0,0,0,0,-1,1322,652,0,0
105,372,0,0,0,0,0,0,0,0,0,-1,1329,652,0,0
112,372,0,0,0,0,0,0,0,0,0,-1,1336,652,0,0
119,372,0,0,0,0,0,0,0,0,0,-1,1343,652,0,0
126,372,0,0,0,0,0,0,0,0,0,-1,1350,652,0,0
133,372,0,0,0,0,0,0,0,0,0,-1,1357,652,0,0
140,372,0,0,0,0,0,0,0,0,0,-1,1364,652,0,0
147,372,0,0,0,0,0,0,0,0,0,-1,1371,652,0,0
154,372,0,0,0,0,0,0,0,0,0,-1,1378,652,0,0
161,372,0,0,0,0,0,0,0,0,0,-1,1385,652,0,0
168,372,0,0,0,0,0,0,0,0,0,-1,1392,652,0,0
175,372,0,0,0,0,0,0,0,0,0,-1,1399,652,0,0
182,372,0,0,0,0,0,0,0,0,0,-1,1406,652,0,0
189,372,0,0,0,0,0,0,0,0,0,-1,1413,652,0,0
196,372,0,0,0,0,0,0,0,0,0,-1,1420,652,0,0
203,372,0,0,0,0,0,0,0,0,0,-1,1427,652,0,0
210,372,0,0,0,0,0,0,0,0,0,-1,1434,652,0,0
217,372,0,0,0,0,0,0,0,0,0,-1,1441,652,0,0
224,372,0,0,0,0,0,0,0,0,0,-1,1448,652,0,0
231,372,0,0,0,0,0,0,0,0,0,-1,1455,652,0,0
238,372,0,0,0,0,0,0,0,0,0,-1,1462,652,0,0
245,372,0,0,0,0,0,0,0,0,0,-1,1469,652,0,0
252,372,0,0,0,0,0,0,0,0,0,-1,1476,652,0,0
259,372,0,0,0,0,0,0,0,0,0,-1,1483,652,0,0
266,372,0,0,0,0,0,0,0,0,0,-1,1490,652,0,0
273,372,0,0,0,0,0,0,0,0,0,-1,1497,652,0,0
280,372,0,0,0,0,0,0,0,0,0,-1,1504,652,0,0
287,372,0,0,0,0,0,0,0,0,0,-1,1511,652,0,0
294,372,0,0,0,0,0,0,0,0,0,-1,1518,652,0,0
301,372,0,0,0,0,0,0,0,0,0,-1,1525,652,0,0
308,372,0,0,0,0,0,0,0,0,0,-1,1532,652,0,0
315,372,0,0,0,0,0,0,0,0,0,-1,1539,652,0,0
322,372,0,0,0,0,0,0,0,0,0,-1,1546,652,0,0
329,372,0,0,0,0,0,0,0,0,0,-1,1553,652,0,0
336,372,0,0,0,0,0,0,0,0,0,-1,1560,652,0,0
343,372,0,0,0,0,0,0,0,0,0,-1,1567,652,0,0
350,372,0,0,0,0,0,0,0,0,0,-1,1574,652,0,0
357,372,0,0,0,0,0,0,0,0,0,-1,1581,652,0,0
364,372,0,0,0,0,0,0,0,0,0,-1,1588,652,0,0
371,372,0,0,0,0,0,0,0,0,0,-1,1595,652,0,0
378,372,0,0,0,0,0,0,0,0,0,-1,1602,652,0,0
385,372,0,0,0,0,0,0,0,0,0,-1,1609,652,0,0
392,372,0,0,0,0,0,0,0,0,0,-1,1616,652,0,0
399,372,0,0,0,0,0,0,0,0,0,-1,1623,652,0,0
406,372,0,0,0,0,0,0,0,0,0,-1,1630,652,0,0
413,372,0,0,0,0,0,0,0,0,0,-1,1637,652,0,0
420,372,0,0,0,0,0,0,0,0,0,-1,1644,652,0,0
427,372,0,0,0,0,0,0,0,0,0,-1,1651,652,0,0
434,372,0,0,0,0,0,0,0,0,0,-1,1658,652,0,0
441,372,0,0,0,0,0,0,0,0,0,-1,1665,652,0,0
448,372,0,0,0,0,0,0,0,0,0,-1,1672,652,0,0
455,372,0,0,0,0,0,0,0,0,0,-1,1679,652,0,0
462,372,0,0,0,0,0,0,0,0,0,-1,1686,652,0,0
469,372,0,0,0,0,0,0,0,0,0,-1,1693,652,0,0
476,372,0,0,0,0,0,0,0,0,0,-1,1700,652,0,0
483,372,8.74182,1.53125,0,0,0,0,0,0,0,-1,1707,652,8.74186,-1.53126
490,372,9.78455,1.67096,0,0,0,0,0,0,0,-1,1714,652,9.7846,-1.67093
497,372,9.97644,1.46069,0,0,0,0,0,0,0,-1,1721,652,9.97647,-1.46071
504,372,10.1216,1.28375,0,0,0,0,0,0,0,-1,1728,652,10.1216,-1.28376
511,372,11.7367,-0.0272217,0,0,0,0,0,0,0,-1,1735,652,11.7367,0.0272326
518,372,12.0657,-0.0995483,0,0,0,0,0,0,0,-1,1742,652,12.0657,0.0995285
525,372,12.3947,-0.171814,0,0,0,0,0,0,0,-1,1749,652,12.3946,0.171824
532,372,9.36597,1.72034,0,0,0,0,0,0,0,-1,1756,652,9.36597,-1.72036
539,372,7.82886,-0.0865479,0,0,0,0,0,0,0,-1,1763,652,7.82882,0.0865771
546,372,10.953,-0.187195,0,0,0,0,0,0,0,-1,1770,652,10.953,0.187181
553,372,13.8081,-4.11139,0,0,0,0,0,0,0,-1,1777,652,13.8081,4.11137
560,372,13.6904,-3.60266,-0.00874157,0.00316079,-0.00101692,0.00324705,-0.00882783,-1.48617,0.00721536,0.0476358,1784,652,13.6904,3.60266
567,372,13.5385,-3.10138,-0.00676868,0.00168737,-0.00124153,0.00186589,-0.0069472,-1.42799,0.00536274,0.0282467,1791,652,13.5385,3.10141
574,372,13.5547,-2.7074,-0.00512973,0.000845179,-0.00119316,0.00107463,-0.00535918,-1.38081,0.00397966,0.0186094,1798,652,13.5547,2.70742
581,372,13.521,-2.39502,-0.00367496,0.00042178,-0.00102795,0.000665245,-0.00391843,-1.33824,0.00285994,0.0157622,1805,652,13.521,2.39501
588,372,13.5056,-2.04816,-0.00237756,0.000236868,-0.000768623,0.000446094,-0.00258678,-1.30503,0.00189084,0.0153266,1812,652,13.5056,2.04814
595,372,13.5007,-1.73767,-0.0012118,0.000263771,-0.000429006,0.000379434,-0.00132746,-1.30745,0.0010349,0.0138019,1819,652,13.5007,1.73766
602,372,13.51,-1.40839,-0.000183999,0.000498276,1.12527e-05,0.000498461,-0.000184185,1.55431,0.000407811,0.015359,1826,652,13.5101,1.40841
609,372,13.4684,-1.0528,0.000424003,0.000837257,0.000351059,0.00103798,0.000223277,1.05139,0.000630874,0.0159729,1833,652,13.4684,1.0528
616,372,13.4628,-0.693909,0.000791645,0.00109064,0.000551569,0.00151261,0.000369671,0.917737,0.00091055,0.01528,1840,652,13.4627,0.693934
623,372,13.4846,-0.323853,0.000823985,0.0014595,0.000693767,0.00190481,0.000378666,1.00015,0.00116436,0.0124906,1847,652,13.4846,0.323868
630,372,13.4871,0.0197144,0.000454534,0.00157412,0.000646229,0.0018693,0.000159353,1.14232,0.00119662,0.0168185,1854,652,13.4871,-0.0197078
637,372,13.5099,0.346985,-0.000513412,0.00154506,0.000260101,0.00157741,-0.000545768,1.44703,0.00127314,0.0215163,1861,652,13.5099,-0.346985
644,372,13.6024,0.787231,-0.00199646,0.00120247,-0.000411967,0.00125467,-0.00204866,-1.44475,0.00192545,0.0270062,1868,652,13.6024,-0.787201
651,372,13.6482,0.654968,0,0,0,0,0,0,0,-1,1875,652,13.6482,-0.654946
658,372,12.8625,1.06525,0,0,0,0,0,0,0,-1,1882,652,12.8625,-1.06526
665,372,12.0768,1.47559,0,0,0,0,0,0,0,-1,1889,652,12.0768,-1.47558
672,372,9.34106,1.48444,0,0,0,0,0,0,0,-1,1896,652,9.34109,-1.48444
679,372,10.7308,2.32391,0,0,0,0,0,0,0,-1,1903,652,10.7309,-2.3239
686,372,11.6295,2.52997,0,0,0,0,0,0,0,-1,1910,652,11.6296,-2.52996
693,372,0,0,0,0,0,0,0,0,0,-1,1917,652,0,0
700,372,0,0,0,0,0,0,0,0,0,-1,1924,652,0,0
707,372,0,0,0,0,0,0,0,0,0,-1,1931,652,0,0
714,372,0,0,0,0,0,0,0,0,0,-1,1938,652,0,0
721,372,0,0,0,0,0,0,0,0,0,-1,1945,652,0,0
728,372,0,0,0,0,0,0,0,0,0,-1,1952,652,0,0
735,372,0,0,0,0,0,0,0,0,0,-1,1959,652,0,0
742,372,0,0,0,0,0,0,0,0,0,-1,1966,652,0,0
749,372,0,0,0,0,0,0,0,0,0,-1,1973,652,0,0
756,372,0,0,0,0,0,0,0,0,0,-1,1980,652,0,0
763,372,0,0,0,0,0,0,0,0,0,-1,1987,652,0,0
770,372,0,0,0,0,0,0,0,0,0,-1,1994,652,0,0
777,372,0,0,0,0,0,0,0,0,0,-1,2001,652,0,0
784,372,0,0,0,0,0,0,0,0,0,-1,2008,652,0,0
791,372,0,0,0,0,0,0,0,0,0,-1,2015,652,0,0
798,372,0,0,0,0,0,0,0,0,0,-1,2022,652,0,0
805,372,0,0,0,0,0,0,0,0,0,-1,2029,652,0,0
812,372,0,0,0,0,0,0,0,0,0,-1,2036,652,0,0
-700,365,0,0,0,0,0,0,0,0,0,-1,524,659,0,0
-693,365,0,0,0,0,0,0,0,0,0,-1,531,659,0,0
-686,365,0,0,0,0,0,0,0,0,0,-1,538,659,0,0
-679,365,0,0,0,0,0,0,0,0,0,-1,545,659,0,0
-672,365,0,0,0,0,0,0,0,0,0,-1,552,659,0,0
-665,365,0,0,0,0,0,0,0,0,0,-1,559,659,0,0
-658,365,0,0,0,0,0,0,0,0,0,-1,566,659,0,0
-651,365,0,0,0,0,0,0,0,0,0,-1,573,659,0,0
-644,365,0,0,0,0,0,0,0,0,0,-1,580,659,0,0
-637,365,0,0,0,0,0,0,0,0,0,-1,587,659,0,0
-630,365,0,0,0,0,0,0,0,0,0,-1,594,659,0,0
-623,365,0,0,0,0,0,0,0,0,0,-1,601,659,0,0
-616,365,0,0,0,0,0,0,0,0,0,-1,608,659,0,0
-609,365,0,0,0,0,0,0,0,0,0,-1,615,659,0,0
-602,365,0,0,0,0,0,0,0,0,0,-1,622,659,0,0
-595,365,0,0,0,0,0,0,0,0,0,-1,629,659,0,0
-588,365,0,0,0,0,0,0,0,0,0,-1,636,659,0,0
-581,365,0,0,0,0,0,0,0,0,0,-1,643,659,0,0
-574,365,-7.69281,1.59015,0,0,0,0,0,0,0,-1,650,659,-7.69282,-1.59018
-567,365,-8.2583,1.72638,0,0,0,0,0,0,0,-1,657,659,-8.25827,-1.72637
-560,365,-7.17767,0.275757,0,0,0,0,0,0,0,-1,664,659,-7.17768,-0.27577
-553,365,-8.82336,3.15826,0,0,0,0,0,0,0,-1,671,659,-8.82338,-3.15825
-546,365,-8.5188,0.96405,0,0,0,0,0,0,0,-1,678,659,-8.51877,-0.964027
-539,365,-7.8714,-0.00213623,0,0,0,0,0,0,0,-1,685,659,-7.87139,0.00216528
-532,365,-7.62604,-0.366821,0,0,0,0,0,0,0,-1,692,659,-7.62602,0.366829
-525,365,-6.97626,-0.548889,0,0,0,0,0,0,0,-1,699,659,-6.97624,0.548892
-518,365,-6.74579,-1.30664,0.00639506,0.00634102,-0.0111674,0.0175355,-0.00479941,-0.784188,0.0135759,0.0360138,706,659,-6.74576,1.30665
-511,365,-6.93567,-1.58264,0.00396188,0.00438442,-0.00723011,0.0114063,-0.00306004,-0.800004,0.00880335,0.0240704,713,659,-6.93568,1.58265
-504,365,-6.91785,-1.9115,0.00245313,0.00289128,-0.00444982,0.00712742,-0.001783,-0.809995,0.00544416,0.0108272,720,659,-6.91786,1.9115
-497,365,-6.92108,-2.2373,0.00137457,0.00138037,-0.00227226,0.00364972,-0.000894791,-0.786036,0.00277984,0.0117777,727,659,-6.92105,2.23733
-490,365,-6.9425,-2.55334,0.000734221,0.00115076,-0.00117612,0.00213691,-0.000251922,-0.873032,0.00151557,0.0138316,734,659,-6.94251,2.55335
-483,365,-6.96826,-2.86823,0.000720919,0.000969172,-0.000803882,0.00165845,3.16367e-05,-0.861998,0.00109524,0.0133213,741,659,-6.96826,2.86825
-476,365,-6.94006,-3.18433,0.00125215,0.00100932,-0.000997716,0.00213581,0.00012566,-0.72485,0.00138389,0.0134749,748,659,-6.94007,3.18435
-469,365,-6.95337,-3.50964,0.00202277,0.00121563,-0.00149169,0.00316452,7.38786e-05,-0.653287,0.00208549,0.0128217,755,659,-6.95338,3.50965
-462,365,-6.9726,-3.8327,0.00269407,0.00152707,-0.00205496,0.00424676,-2.56258e-05,-0.647065,0.00283975,0.0130971,762,659,-6.97262,3.83273
-455,365,-6.97485,-4.15485,0.00291374,0.0019011,-0.00231413,0.0047763,3.85439e-05,-0.677697,0.00317143,0.0147006,769,659,-6.97484,4.15484
-448,365,-6.89575,-4.5614,0.00299372,0.00214106,-0.00243699,0.00504139,9.33865e-05,-0.698804,0.00333024,0.0252575,776,659,-6.89573,4.56139
-441,365,-6.70892,-5.0379,0,0,0,0,0,0,0,-1,783,659,-6.70895,5.03793
-434,365,-5.45056,-3.98041,0,0,0,0,0,0,0,-1,790,659,-5.45055,3.98042
-427,365,-5.05377,-4.74689,0,0,0,0,0,0,0,-1,797,659,-5.05376,4.7469
-420,365,-4.58813,-3.16376,0,0,0,0,0,0,0,-1,804,659,-4.58816,3.16374
-413,365,0.141357,0.672729,0,0,0,0,0,0,0,-1,811,659,0.141365,-0.672714
-406,365,-1.75067,-0.934448,0,0,0,0,0,0,0,-1,818,659,-1.7507,0.934424
-399,365,-4.10242,-1.25439,0,0,0,0,0,0,0,-1,825,659,-4.10244,1.25438
-392,365,-7.46545,-0.779724,0,0,0,0,0,0,0,-1,832,659,-7.46543,0.779744
-385,365,-6.27875,-0.887573,0,0,0,0,0,0,0,-1,839,659,-6.27874,0.887545
-378,365,-5.34503,-0.263306,0,0,0,0,0,0,0,-1,846,659,-5.34504,0.263275
-371,365,0,0,0,0,0,0,0,0,0,-1,853,659,0,0
-364,365,0,0,0,0,0,0,0,0,0,-1,860,659,0,0
-357,365,0,0,0,0,0,0,0,0,0,-1,867,659,0,0
-350,365,0,0,0,0,0,0,0,0,0,-1,874,659,0,0
-343,365,0,0,0,0,0,0,0,0,0,-1,881,659,0,0
-336,365,0,0,0,0,0,0,0,0,0,-1,888,659,0,0
-329,365,0,0,0,0,0,0,0,0,0,-1,895,659,0,0
-322,365,0,0,0,0,0,0,0,0,0,-1,902,659,0,0
-315,365,0,0,0,0,0,0,0,0,0,-1,909,659,0,0
-308,365,0,0,0,0,0,0,0,0,0,-1,916,659,0,0
-301,365,0,0,0,0,0,0,0,0,0,-1,923,659,0,0
-294,365,0,0,0,0,0,0,0,0,0,-1,930,659,0,0
-287,365,0,0,0,0,0,0,0,0,0,-1,937,659,0,0
-280,365,0,0,0,0,0,0,0,0,0,-1,944,659,0,0
-273,365,0,0,0,0,0,0,0,0,0,-1,951,659,0,0
-266,365,0,0,0,0,0,0,0,0,0,-1,958,659,0,0
-259,365,0,0,0,0,0,0,0,0,0,-1,965,659,0,0
-252,365,0,0,0,0,0,0,0,0,0,-1,972,659,0,0
-245,365,0,0,0,0,0,0,0,0,0,-1,979,659,0,0
-238,365,0,0,0,0,0,0,0,0,0,-1,986,659,0,0
-231,365,0,0,0,0,0,0,0,0,0,-1,993,659,0,0
-224,365,0,0,0,0,0,0,0,0,0,-1,1000,659,0,0
-217,365,0,0,0,0,0,0,0,0,0,-1,1007,659,0,0
-210,365,0,0,0,0,0,0,0,0,0,-1,1014,659,0,0
-203,365,0,0,0,0,0,0,0,0,0,-1,1021,659,0,0
-196,365,0,0,0,0,0,0,0,0,0,-1,1028,659,0,0
-189,365,0,0,0,0,0,0,0,0,0,-1,1035,659,0,0
-182,365,0,0,0,0,0,0,0,0,0,-1,1042,659,0,0
-175,365,0,0,0,0,0,0,0,0,0,-1,1049,659,0,0
-168,365,0,0,0,0,0,0,0,0,0,-1,1056,659,0,0
-161,365,0,0,0,0,0,0,0,0,0,-1,1063,659,0,0
-154,365,0,0,0,0,0,0,0,0,0,-1,1070,659,0,0
-147,365,0,0,0,0,0,0,0,0,0,-1,1077,659,0,0
-140,365,0,0,0,0,0,0,0,0,0,-1,1084,659,0,0
-133,365,0,0,0,0,0,0,0,0,0,-1,1091,659,0,0
-126,365,0,0,0,0,0,0,0,0,0,-1,1098,659,0,0
-119,365,0,0,0,0,0,0,0,0,0,-1,1105,659,0,0
-112,365,0,0,0,0,0,0,0,0,0,-1,1112,659,0,0
-105,365,0,0,0,0,0,0,0,0,0,-1,1119,659,0,0
-98,365,0,0,0,0,0,0,0,0,0,-1,1126,659,0,0
-91,365,0,0,0,0,0,0,0,0,0,-1,1133,659,0,0
-84,365,0,0,0,0,0,0,0,0,0,-1,1140,659,0,0
-77,365,0,0,0,0,0,0,0,0,0,-1,1147,659,0,0
-70,365,0,0,0,0,0,0,0,0,0,-1,1154,659,0,0
-63,365,0,0,0,0,0,0,0,0,0,-1,1161,659,0,0
-56,365,0,0,0,0,0,0,0,0,0,-1,1168,659,0,0
-49,365,0,0,0,0,0,0,0,0,0,-1,1175,659,0,0
-42,365,0,0,0,0,0,0,0,0,0,-1,1182,659,0,0
-35,365,0,0,0,0,0,0,0,0,0,-1,1189,659,0,0
-28,365,0,0,0,0,0,0,0,0,0,-1,1196,659,0,0
-21,365,0,0,0,0,0,0,0,0,0,-1,1203,659,0,0
-14,365,0,0,0,0,0,0,0,0,0,-1,1210,659,0,0
-7,365,0,0,0,0,0,0,0,0,0,-1,1217,659,0,0
0,365,0,0,0,0,0,0,0,0,0,-1,1224,659,0,0
7,365,0,0,0,0,0,0,0,0,0,-1,1231,659,0,0
14,365,0,0,0,0,0,0,0,0,0,-1,1238,659,0,0
21,365,0,0,0,0,0,0,0,0,0,-1,1245,659,0,0
28,365,0,0,0,0,0,0,0,0,0,-1,1252,659,0,0
35,365,0,0,0,0,0,0,0,0,0,-1,1259,659,0,0
42,365,0,0,0,0,0,0,0,0,0,-1,1266,659,0,0
49,365,0,0,0,0,0,0,0,0,0,-1,1273,659,0,0
56,365,0,0,0,0,0,0,0,0,0,-1,1280,659,0,0
63,365,0,0,0,0,0,0,0,0,0,-1,1287,659,0,0
70,365,0,0,0,0,0,0,0,0,0,-1,1294,659,0,0
77,365,0,0,0,0,0,0,0,0,0,-1,1301,659,0,0
84,365,0,0,0,0,0,0,0,0,0,-1,1308,659,0,0
91,365,0,0,0,0,0,0,0,0,0,-1,1315,659,0,0
98,365,0,0,0,0,0,0,0,0,0,-1,1322,659,0,0
105,365,0,0,0,0,0,0,0,0,0,-1,1329,659,0,0
112,365,0,0,0,0,0,0,0,0,0,-1,1336,659,0,0
119,365,0,0,0,0,0,0,0,0,0,-1,1343,659,0,0
126,365,0,0,0,0,0,0,0,0,0,-1,1350,659,0,0
133,365,0,0,0,0,0,0,0,0,0,-1,1357,659,0,0
140,365,0,0,0,0,0,0,0,0,0,-1,1364,659,0,0
147,365,0,0,0,0,0,0,0,0,0,-1,1371,659,0,0
154,365,0,0,0,0,0,0,0,0,0,-1,1378,659,0,0
161,365,0,0,0,0,0,0,0,0,0,-1,1385,659,0,0
168,365,0,0,0,0,0,0,0,0,0,-1,1392,659,0,0
175,365,0,0,0,0,0,0,0,0,0,-1,1399,659,0,0
182,365,0,0,0,0,0,0,0,0,0,-1,1406,659,0,0
189,365,0,0,0,0,0,0,0,0,0,-1,1413,659,0,0
196,365,0,0,0,0,0,0,0,0,0,-1,1420,659,0,0
203,365,0,0,0,0,0,0,0,0,0,-1,1427,659,0,0
210,365,0,0,0,0,0,0,0,0,0,-1,1434,659,0,0
217,365,0,0,0,0,0,0,0,0,0,-1,1441,659,0,0
224,365,0,0,0,0,0,0,0,0,0,-1,1448,659,0,0
231,365,0,0,0,0,0,0,0,0,0,-1,1455,659,0,0
238,365,0,0,0,0,0,0,0,0,0,-1,1462,659,0,0
245,365,0,0,0,0,0,0,0,0,0,-1,1469,659,0,0
252,365,0,0,0,0,0,0,0,0,0,-1,1476,659,0,0
259,365,0,0,0,0,0,0,0,0,0,-1,1483,659,0,0
266,365,0,0,0,0,0,0,0,0,0,-1,1490,659,0,0
273,365,0,0,0,0,0,0,0,0,0,-1,1497,659,0,0
280,365,0,0,0,0,0,0,0,0,0,-1,1504,659,0,0
287,365,0,0,0,0,0,0,0,0,0,-1,1511,659,0,0
294,365,0,0,0,0,0,0,0,0,0,-1,1518,659,0,0
301,365,0,0,0,0,0,0,0,0,0,-1,1525,659,0,0
308,365,0,0,0,0,0,0,0,0,0,-1,1532,659,0,0
315,365,0,0,0,0,0,0,0,0,0,-1,1539,659,0,0
322,365,0,0,0,0,0,0,0,0,0,-1,1546,659,0,0
329,365,0,0,0,0,0,0,0,0,0,-1,1553,659,0,0
336,365,0,0,0,0,0,0,0,0,0,-1,1560,659,0,0
343,365,0,0,0,0,0,0,0,0,0,-1,1567,659,0,0
350,365,0,0,0,0,0,0,0,0,0,-1,1574,659,0,0
357,365,0,0,0,0,0,0,0,0,0,-1,1581,659,0,0
364,365,0,0,0,0,0,0,0,0,0,-1,1588,659,0,0
371,365,0,0,0,0,0,0,0,0,0,-1,1595,659,0,0
378,365,0,0,0,0,0,0,0,0,0,-1,1602,659,0,0
385,365,0,0,0,0,0,0,0,0,0,-1,1609,659,0,0
392,365,0,0,0,0,0,0,0,0,0,-1,1616,659,0,0
399,365,0,0,0,0,0,0,0,0,0,-1,1623,659,0,0
406,365,0,0,0,0,0,0,0,0,0,-1,1630,659,0,0
413,365,0,0,0,0,0,0,0,0,0,-1,1637,659,0,0
420,365,0,0,0,0,0,0,0,0,0,-1,1644,659,0,0
427,365,0,0,0,0,0,0,0,0,0,-1,1651,659,0,0
434,365,0,0,0,0,0,0,0,0,0,-1,1658,659,0,0
441,365,0,0,0,0,0,0,0,0,0,-1,1665,659,0,0
448,365,0,0,0,0,0,0,0,0,0,-1,1672,659,0,0
455,365,0,0,0,0,0,0,0,0,0,-1,1679,659,0,0
462,365,0,0,0,0,0,0,0,0,0,-1,1686,659,0,0
469,365,0,0,0,0,0,0,0,0,0,-1,1693,659,0,0
476,365,0,0,0,0,0,0,0,0,0,-1,1700,659,0,0
483,365,0,0,0,0,0,0,0,0,0,-1,1707,659,0,0
490,365,8.39551,0.471252,0,0,0,0,0,0,0,-1,1714,659,8.39551,-0.471241
497,365,9.89233,1.35394,0,0,0,0,0,0,0,-1,1721,659,9.89237,-1.35396
504,365,10.1414,1.18005,0,0,0,0,0,0,0,-1,1728,659,10.1413,-1.18004
511,365,10.5151,0.993896,0,0,0,0,0,0,0,-1,1735,659,10.5152,-0.993894
518,365,11.2029,0.398132,0,0,0,0,0,0,0,-1,1742,659,11.2029,-0.398136
525,365,15.5748,3.85303,0,0,0,0,0,0,0,-1,1749,659,15.5748,-3.85303
532,365,11.2446,1.00629,0,0,0,0,0,0,0,-1,1756,659,11.2446,-1.00631
539,365,12.6301,1.03204,0,0,0,0,0,0,0,-1,1763,659,12.6302,-1.03204
546,365,11.647,0.84198,0,0,0,0,0,0,0,-1,1770,659,11.6469,-0.841955
553,365,12.028,-0.558899,0,0,0,0,0,0,0,-1,1777,659,12.028,0.558873
560,365,14.063,-3.85944,0,0,0,0,0,0,0,-1,1784,659,14.063,3.85944
567,365,14.0454,-3.26965,0,0,0,0,0,0,0,-1,1791,659,14.0454,3.26964
574,365,14.0546,-2.72217,0,0,0,0,0,0,0,-1,1798,659,14.0546,2.72216
581,365,13.8842,-2.50146,-0.0046955,0.00034044,-0.00135405,0.000681425,-0.00503649,-1.3241,0.00360632,0.0285715,1805,659,13.8842,2.50148
588,365,13.8457,-2.10571,-0.00309079,8.24569e-05,-0.00105055,0.000398732,-0.00340706,-1.27837,0.00241528,0.0127951,1812,659,13.8457,2.1057
595,365,13.8586,-1.71643,-0.00177164,4.04974e-05,-0.000722174,0.00029309,-0.00202423,-1.23433,0.00145705,0.0127253,1819,659,13.8586,1.71644
602,365,13.8434,-1.34741,-0.000639915,0.000211825,-0.000296996,0.000305158,-0.000733248,-1.26631,0.000616272,0.0155952,1826,659,13.8433,1.34743
609,365,13.8088,-0.99585,5.57352e-05,0.000496746,4.18197e-05,0.000500677,5.18046e-05,1.47708,0.000317926,0.0166609,1833,659,13.8088,0.995853
616,365,13.829,-0.659363,0.000494886,0.000638632,0.000202616,0.000781745,0.000351773,0.955838,0.000452093,0.01726,1840,659,13.829,0.659356
623,365,13.854,-0.311951,0.000504825,0.000917547,0.000286282,0.00106409,0.00035828,1.09768,0.00062518,0.0113776,1847,659,13.8541,0.311927
630,365,13.8243,0.0237427,6.13147e-05,0.000947043,0.000174493,0.000980179,2.81785e-05,1.38313,0.000644265,0.0152961,1854,659,13.8243,-0.0237345
637,365,13.8232,0.350891,-0.00089251,0.000852377,-0.000239771,0.000884725,-0.000924858,-1.43669,0.00104485,0.0205701,1861,659,13.8232,-0.350876
644,365,13.8511,0.709106,-0.00235026,0.000450324,-0.000959545,0.000747543,-0.00264748,-1.27042,0.00205989,0.0156549,1868,659,13.8511,-0.709079
651,365,13.8624,0.885559,0,0,0,0,0,0,0,-1,1875,659,13.8625,-0.885558
658,365,13.2932,1.13837,0,0,0,0,0,0,0,-1,1882,659,13.2932,-1.13836
665,365,12.7239,1.39117,0,0,0,0,0,0,0,-1,1889,659,12.7239,-1.39116
672,365,10.0579,2.15088,0,0,0,0,0,0,0,-1,1896,659,10.0579,-2.15088
679,365,10.9718,2.19208,0,0,0,0,0,0,0,-1,1903,659,10.9718,-2.19211
686,365,12.2134,2.17108,0,0,0,0,0,0,0,-1,1910,659,12.2134,-2.17109
693,365,13.7141,1.98279,0,0,0,0,0,0,0,-1,1917,659,13.7141,-1.98278
700,365,0,0,0,0,0,0,0,0,0,-1,1924,659,0,0
707,365,0,0,0,0,0,0,0,0,0,-1,1931,659,0,0
714,365,0,0,0,0,0,0,0,0,0,-1,1938,659,0,0
721,365,0,0,0,0,0,0,0,0,0,-1,1945,659,0,0
728,365,0,0,0,0,0,0,0,0,0,-1,1952,659,0,0
735,365,0,0,0,0,0,0,0,0,0,-1,1959,659,0,0
742,365,0,0,0,0,0,0,0,0,0,-1,1966,659,0,0
749,365,0,0,0,0,0,0,0,0,0,-1,1973,659,0,0
756,365,0,0,0,0,0,0,0,0,0,-1,1980,659,0,0
763,365,0,0,0,0,0,0,0,0,0,-1,1987,659,0,0
770,365,0,0,0,0,0,0,0,0,0,-1,1994,659,0,0
777,365,0,0,0,0,0,0,0,0,0,-1,2001,659,0,0
784,365,0,0,0,0,0,0,0,0,0,-1,2008,659,0,0
791,365,0,0,0,0,0,0,0,0,0,-1,2015,659,0,0
798,365,0,0,0,0,0,0,0,0,0,-1,2022,659,0,0
805,365,0,0,0,0,0,0,0,0,0,-1,2029,659,0,0
812,365,0,0,0,0,0,0,0,0,0,-1,2036,659,0,0
-700,358,0,0,0,0,0,0,0,0,0,-1,524,666,0,0
-693,358,0,0,0,0,0,0,0,0,0,-1,531,666,0,0
-686,358,0,0,0,0,0,0,0,0,0,-1,538,666,0,0
-679,358,0,0,0,0,0,0,0,0,0,-1,545,666,0,0
-672,358,0,0,0,0,0,0,0,0,0,-1,552,666,0,0
-665,358,0,0,0,0,0,0,0,0,0,-1,559,666,0,0
-658,358,0,0,0,0,0,0,0,0,0,-1,566,666,0,0
-651,358,0,0,0,0,0,0,0,0,0,-1,573,666,0,0
-644,358,0,0,0,0,0,0,0,0,0,-1,580,666,0,0
-637,358,0,0,0,0,0,0,0,0,0,-1,587,666,0,0
-630,358,0,0,0,0,0,0,0,0,0,-1,594,666,0,0
-623,358,0,0,0,0,0,0,0,0,0,-1,601,666,0,0
-616,358,0,0,0,0,0,0,0,0,0,-1,608,666,0,0
-609,358,0,0,0,0,0,0,0,0,0,-1,615,666,0,0
-602,358,0,0,0,0,0,0,0,0,0,-1,622,666,0,0
-595,358,0,0,0,0,0,0,0,0,0,-1,629,666,0,0
-588,358,0,0,0,0,0,0,0,0,0,-1,636,666,0,0
-581,358,-8.31616,1.61993,0,0,0,0,0,0,0,-1,643,666,-8.31614,-1.61993
-574,358,-8.22406,1.75385,0,0,0,0,0,0,0,-1,650,666,-8.22408,-1.75383
-567,358,-8.14215,1.91577,0,0,0,0,0,0,0,-1,657,666,-8.14214,-1.91579
-560,358,-6.117,1.40564,0,0,0,0,0,0,0,-1,664,666,-6.11702,-1.40564
-553,358,-8.5556,1.85321,0,0,0,0,0,0,0,-1,671,666,-8.55563,-1.85322
-546,358,-8.23981,1.02185,0.0226928,0.0217745,-0.0380775,0.0603139,-0.0158467,-0.77937,0.0464024,0.0491808,678,666,-8.2398,-1.02187
-539,358,-7.88898,0.230408,0.0172916,0.016329,-0.0285981,0.0454125,-0.0117919,-0.776984,0.0348766,0.0456408,685,666,-7.88896,-0.230385
-532,358,-7.57941,-0.40863,0.012591,0.0119471,-0.0208517,0.0331233,-0.00858516,-0.777679,0.0254316,0.0469348,692,666,-7.57938,0.408603
-525,358,-7.1662,-1.00464,0.00878701,0.0085143,-0.0146643,0.0233156,-0.00601427,-0.780749,0.0178887,0.0396339,699,666,-7.1662,1.00462
-518,358,-7.14099,-1.18018,0.00588469,0.00590375,-0.00993775,0.015832,-0.00404354,-0.785878,0.0121293,0.0346322,706,666,-7.141,1.18019
-511,358,-7.25403,-1.56842,0.00374319,0.00398842,-0.00642814,0.0102951,-0.0025635,-0.794935,0.00785854,0.0151836,713,666,-7.25401,1.56845
-504,358,-7.24854,-1.88434,0.00241879,0.00253005,-0.00391104,0.00638585,-0.00143701,-0.79251,0.00480836,0.0110007,720,666,-7.24852,1.88434
-497,358,-7.25128,-2.22955,0.00150575,0.00111739,-0.0019805,0.00330156,-0.000678428,-0.736532,0.00245859,0.0107932,727,666,-7.25127,2.22953
-490,358,-7.25763,-2.55194,0.00101785,0.000936399,-0.00107909,0.00205699,-0.000102737,-0.766537,0.00140682,0.0104086,734,666,-7.25762,2.55193
-483,358,-7.27954,-2.86774,0.00113617,0.000870226,-0.000880618,0.0018938,0.000112596,-0.710466,0.00122672,0.0102161,741,666,-7.27955,2.86773
-476,358,-7.26312,-3.17126,0.00180832,0.001065,-0.0012672,0.00275724,0.000116085,-0.642753,0.00180071,0.0117485,748,666,-7.26313,3.17128
-469,358,-7.28534,-3.50305,0.00270894,0.00142774,-0.00192231,0.00409458,4.20965e-05,-0.624562,0.0027158,0.0132942,755,666,-7.28534,3.50304
-462,358,-7.31915,-3.84155,0.00349331,0.00197117,-0.00270502,0.00554229,-7.78032e-05,-0.648266,0.00372107,0.0167511,762,666,-7.31918,3.84154
-455,358,-7.24548,-4.17963,0.00385399,0.00265613,-0.00322042,0.0065307,-2.05797e-05,-0.693459,0.00436068,0.0261934,769,666,-7.24546,4.1796
-448,358,-7.10242,-4.70026,0,0,0,0,0,0,0,-1,776,666,-7.10243,4.70027
-441,358,-5.56293,-3.98041,0,0,0,0,0,0,0,-1,783,666,-5.56291,3.98043
-434,358,-5.21558,-4.43127,0,0,0,0,0,0,0,-1,790,666,-5.21559,4.43125
-427,358,-3.56189,-3.15729,0,0,0,0,0,0,0,-1,797,666,-3.56192,3.15729
-420,358,0.200195,1.08234,0,0,0,0,0,0,0,-1,804,666,0.200174,-1.08231
-413,358,0.0325317,0.161072,0,0,0,0,0,0,0,-1,811,666,0.0325501,-0.161098
-406,358,-3.85846,0.753113,0,0,0,0,0,0,0,-1,818,666,-3.85846,-0.753129
-399,358,-1.31213,0.190735,0,0,0,0,0,0,0,-1,825,666,-1.31215,-0.190763
-392,358,-3.73914,-0.832214,0,0,0,0,0,0,0,-1,832,666,-3.73915,0.832202
-385,358,-5.95178,-1.69141,0,0,0,0,0,0,0,-1,839,666,-5.9518,1.69143
-378,358,0,0,0,0,0,0,0,0,0,-1,846,666,0,0
-371,358,0,0,0,0,0,0,0,0,0,-1,853,666,0,0
-364,358,0,0,0,0,0,0,0,0,0,-1,860,666,0,0
-357,358,0,0,0,0,0,0,0,0,0,-1,867,666,0,0
-350,358,0,0,0,0,0,0,0,0,0,-1,874,666,0,0
-343,358,0,0,0,0,0,0,0,0,0,-1,881,666,0,0
-336,358,0,0,0,0,0,0,0,0,0,-1,888,666,0,0
-329,358,0,0,0,0,0,0,0,0,0,-1,895,666,0,0
-322,358,0,0,0,0,0,0,0,0,0,-1,902,666,0,0
-315,358,0,0,0,0,0,0,0,0,0,-1,909,666,0,0
-308,358,0,0,0,0,0,0,0,0,0,-1,916,666,0,0
-301,358,0,0,0,0,0,0,0,0,0,-1,923,666,0,0
-294,358,0,0,0,0,0,0,0,0,0,-1,930,666,0,0
-287,358,0,0,0,0,0,0,0,0,0,-1,937,666,0,0
-280,358,0,0,0,0,0,0,0,0,0,-1,944,666,0,0
-273,358,0,0,0,0,0,0,0,0,0,-1,951,666,0,0
-266,358,0,0,0,0,0,0,0,0,0,-1,958,666,0,0
-259,358,0,0,0,0,0,0,0,0,0,-1,965,666,0,0
-252,358,0,0,0,0,0,0,0,0,0,-1,972,666,0,0
-245,358,0,0,0,0,0,0,0,0,0,-1,979,666,0,0
-238,358,0,0,0,0,0,0,0,0,0,-1,986,666,0,0
-231,358,0,0,0,0,0,0,0,0,0,-1,993,666,0,0
-224,358,0,0,0,0,0,0,0,0,0,-1,1000,666,0,0
-217,358,0,0,0,0,0,0,0,0,0,-1,1007,666,0,0
-210,358,0,0,0,0,0,0,0,0,0,-1,1014,666,0,0
-203,358,0,0,0,0,0,0,0,0,0,-1,1021,666,0,0
-196,358,0,0,0,0,0,0,0,0,0,-1,1028,666,0,0
-189,358,0,0,0,0,0,0,0,0,0,-1,1035,666,0,0
-182,358,0,0,0,0,0,0,0,0,0,-1,1042,666,0,0
-175,358,0,0,0,0,0,0,0,0,0,-1,1049,666,0,0
-168,358,0,0,0,0,0,0,0,0,0,-1,1056,666,0,0
-161,358,0,0,0,0,0,0,0,0,0,-1,1063,666,0,0
-154,358,0,0,0,0,0,0,0,0,0,-1,1070,666,0,0
-147,358,0,0,0,0,0,0,0,0,0,-1,1077,666,0,0
-140,358,0,0,0,0,0,0,0,0,0,-1,1084,666,0,0
-133,358,0,0,0,0,0,0,0,0,0,-1,1091,666,0,0
-126,358,0,0,0,0,0,0,0,0,0,-1,1098,666,0,0
-119,358,0,0,0,0,0,0,0,0,0,-1,1105,666,0,0
-112,358,0,0,0,0,0,0,0,0,0,-1,1112,666,0,0
-105,358,0,0,0,0,0,0,0,0,0,-1,1119,666,0,0
-98,358,0,0,0,0,0,0,0,0,0,-1,1126,666,0,0
-91,358,0,0,0,0,0,0,0,0,0,-1,1133,666,0,0
-84,358,0,0,0,0,0,0,0,0,0,-1,1140,666,0,0
-77,358,0,0,0,0,0,0,0,0,0,-1,1147,666,0,0
-70,358,0,0,0,0,0,0,0,0,0,-1,1154,666,0,0
-63,358,0,0,0,0,0,0,0,0,0,-1,1161,666,0,0
-56,358,0,0,0,0,0,0,0,0,0,-1,1168,666,0,0
-49,358,0,0,0,0,0,0,0,0,0,-1,1175,666,0,0
-42,358,0,0,0,0,0,0,0,0,0,-1,1182,666,0,0
-35,358,0,0,0,0,0,0,0,0,0,-1,1189,666,0,0
-28,358,0,0,0,0,0,0,0,0,0,-1,1196,666,0,0
-21,358,0,0,0,0,0,0,0,0,0,-1,1203,666,0,0
-14,358,0,0,0,0,0,0,0,0,0,-1,1210,666,0,0
-7,358,0,0,0,0,0,0,0,0,0,-1,1217,666,0,0
0,358,0,0,0,0,0,0,0,0,0,-1,1224,666,0,0
7,358,0,0,0,0,0,0,0,0,0,-1,1231,666,0,0
14,358,0,0,0,0,0,0,0,0,0,-1,1238,666,0,0
21,358,0,0,0,0,0,0,0,0,0,-1,1245,666,0,0
28,358,0,0,0,0,0,0,0,0,0,-1,1252,666,0,0
35,358,0,0,0,0,0,0,0,0,0,-1,1259,666,0,0
42,358,0,0,0,0,0,0,0,0,0,-1,1266,666,0,0
49,358,0,0,0,0,0,0,0,0,0,-1,1273,666,0,0
56,358,0,0,0,0,0,0,0,0,0,-1,1280,666,0,0
63,358,0,0,0,0,0,0,0,0,0,-1,1287,666,0,0
70,358,0,0,0,0,0,0,0,0,0,-1,1294,666,0,0
77,358,0,0,0,0,0,0,0,0,0,-1,1301,666,0,0
84,358,0,0,0,0,0,0,0,0,0,-1,1308,666,0,0
91,358,0,0,0,0,0,0,0,0,0,-1,1315,666,0,0
98,358,0,0,0,0,0,0,0,0,0,-1,1322,666,0,0
105,358,0,0,0,0,0,0,0,0,0,-1,1329,666,0,0
112,358,0,0,0,0,0,0,0,0,0,-1,1336,666,0,0
119,358,0,0,0,0,0,0,0,0,0,-1,1343,666,0,0
126,358,0,0,0,0,0,0,0,0,0,-1,1350,666,0,0
133,358,0,0,0,0,0,0,0,0,0,-1,1357,666,0,0
140,358,0,0,0,0,0,0,0,0,0,-1,1364,666,0,0
147,358,0,0,0,0,0,0,0,0,0,-1,1371,666,0,0
154,358,0,0,0,0,0,0,0,0,0,-1,1378,666,0,0
161,358,0,0,0,0,0,0,0,0,0,-1,1385,666,0,0
168,358,0,0,0,0,0,0,0,0,0,-1,1392,666,0,0
175,358,0,0,0,0,0,0,0,0,0,-1,1399,666,0,0
182,358,0,0,0,0,0,0,0,0,0,-1,1406,666,0,0
189,358,0,0,0,0,0,0,0,0,0,-1,1413,666,0,0
196,358,0,0,0,0,0,0,0,0,0,-1,1420,666,0,0
203,358,0,0,0,0,0,0,0,0,0,-1,1427,666,0,0
210,358,0,0,0,0,0,0,0,0,0,-1,1434,666,0,0
217,358,0,0,0,0,0,0,0,0,0,-1,1441,666,0,0
224,358,0,0,0,0,0,0,0,0,0,-1,1448,666,0,0
231,358,0,0,0,0,0,0,0,0,0,-1,1455,666,0,0
238,358,0,0,0,0,0,0,0,0,0,-1,1462,666,0,0
245,358,0,0,0,0,0,0,0,0,0,-1,1469,666,0,0
252,358,0,0,0,0,0,0,0,0,0,-1,1476,666,0,0
259,358,0,0,0,0,0,0,0,0,0,-1,1483,666,0,0
266,358,0,0,0,0,0,0,0,0,0,-1,1490,666,0,0
273,358,0,0,0,0,0,0,0,0,0,-1,1497,666,0,0
280,358,0,0,0,0,0,0,0,0,0,-1,1504,666,0,0
287,358,0,0,0,0,0,0,0,0,0,-1,1511,666,0,0
294,358,0,0,0,0,0,0,0,0,0,-1,1518,666,0,0
301,358,0,0,0,0,0,0,0,0,0,-1,1525,666,0,0
308,358,0,0,0,0,0,0,0,0,0,-1,1532,666,0,0
315,358,0,0,0,0,0,0,0,0,0,-1,1539,666,0,0
322,358,0,0,0,0,0,0,0,0,0,-1,1546,666,0,0
329,358,0,0,0,0,0,0,0,0,0,-1,1553,666,0,0
336,358,0,0,0,0,0,0,0,0,0,-1,1560,666,0,0
343,358,0,0,0,0,0,0,0,0,0,-1,1567,666,0,0
350,358,0,0,0,0,0,0,0,0,0,-1,1574,666,0,0
357,358,0,0,0,0,0,0,0,0,0,-1,1581,666,0,0
364,358,0,0,0,0,0,0,0,0,0,-1,1588,666,0,0
371,358,0,0,0,0,0,0,0,0,0,-1,1595,666,0,0
378,358,0,0,0,0,0,0,0,0,0,-1,1602,666,0,0
385,358,0,0,0,0,0,0,0,0,0,-1,1609,666,0,0
392,358,0,0,0,0,0,0,0,0,0,-1,1616,666,0,0
399,358,0,0,0,0,0,0,0,0,0,-1,1623,666,0,0
406,358,0,0,0,0,0,0,0,0,0,-1,1630,666,0,0
413,358,0,0,0,0,0,0,0,0,0,-1,1637,666,0,0
420,358,0,0,0,0,0,0,0,0,0,-1,1644,666,0,0
427,358,0,0,0,0,0,0,0,0,0,-1,1651,666,0,0
434,358,0,0,0,0,0,0,0,0,0,-1,1658,666,0,0
441,358,0,0,0,0,0,0,0,0,0,-1,1665,666,0,0
448,358,0,0,0,0,0,0,0,0,0,-1,1672,666,0,0
455,358,0,0,0,0,0,0,0,0,0,-1,1679,666,0,0
462,358,0,0,0,0,0,0,0,0,0,-1,1686,666,0,0
469,358,0,0,0,0,0,0,0,0,0,-1,1693,666,0,0
476,358,0,0,0,0,0,0,0,0,0,-1,1700,666,0,0
483,358,0,0,0,0,0,0,0,0,0,-1,1707,666,0,0
490,358,0,0,0,0,0,0,0,0,0,-1,1714,666,0,0
497,358,8.57239,1.1322,0,0,0,0,0,0,0,-1,1721,666,8.57234,-1.13219
504,358,10.5972,0.832947,0,0,0,0,0,0,0,-1,1728,666,10.5972,-0.832968
511,358,10.6873,0.868469,0,0,0,0,0,0,0,-1,1735,666,10.6872,-0.868484
518,358,16.5884,2.34894,0,0,0,0,0,0,0,-1,1742,666,16.5884,-2.34894
525,358,15.7626,3.65344,0,0,0,0,0,0,0,-1,1749,666,15.7626,-3.65342
532,358,14.9368,4.95789,0,0,0,0,0,0,0,-1,1756,666,14.9367,-4.9579
539,358,15.1597,3.42694,0,0,0,0,0,0,0,-1,1763,666,15.1597,-3.42692
546,358,12.3792,1.53558,0,0,0,0,0,0,0,-1,1770,666,12.3792,-1.5356
553,358,11.6584,1.26172,0,0,0,0,0,0,0,-1,1777,666,11.6585,-1.26175
560,358,10.8234,1.43042,0,0,0,0,0,0,0,-1,1784,666,10.8233,-1.43041
567,358,10.1333,-0.955139,0,0,0,0,0,0,0,-1,1791,666,10.1333,0.955132
574,358,14.7886,-2.69293,0,0,0,0,0,0,0,-1,1798,666,14.7885,2.6929
581,358,14.4121,-2.34247,-0.00551876,0.000260711,-0.00158902,0.000668788,-0.00592683,-1.31942,0.00419197,0.0497806,1805,666,14.4121,2.34248
588,358,14.1324,-2.11255,-0.00366633,-4.36018e-05,-0.00124147,0.000341007,-0.00405093,-1.27037,0.00282117,0.022734,1812,666,14.1324,2.11256
595,358,14.1868,-1.69208,-0.00221327,-0.000125221,-0.000916129,0.00021974,-0.00255823,-1.21067,0.00178325,0.0123356,1819,666,14.1868,1.69205
602,358,14.1741,-1.32361,-0.000978404,-7.02797e-06,-0.00050972,0.000211349,-0.00119678,-1.16603,0.000876835,0.0134064,1826,666,14.1741,1.3236
609,358,14.1619,-1.01703,-0.000166685,0.000236748,-0.000156287,0.000290208,-0.000220145,-1.24121,0.000295576,0.0169716,1833,666,14.1619,1.01704
616,358,14.1674,-0.672424,0.000345344,0.00030327,-1.09758e-05,0.000348035,0.000300579,-0.240446,0.000217934,0.0158785,1840,666,14.1673,0.672451
623,358,14.1865,-0.323853,0.000339609,0.000503782,2.87214e-05,0.000508661,0.000334729,1.40251,0.000298527,0.0142456,1847,666,14.1865,0.323872
630,358,14.1549,0.000366211,-0.000134867,0.000464037,-0.000129643,0.000490896,-0.000161725,-1.36651,0.000392442,0.0173776,1854,666,14.1549,-0.000344693
637,358,14.1395,0.32135,-0.00104274,0.00032622,-0.000547334,0.000518147,-0.00123466,-1.23354,0.00103979,0.0233445,1861,666,14.1396,-0.321353
644,358,14.1464,0.663452,-0.00249045,-4.70647e-05,-0.00127391,0.000496283,-0.0030338,-1.16764,0.00220664,0.0191068,1868,666,14.1464,-0.663437
651,358,14.2413,1.10693,-0.00434841,-0.000634127,-0.00229873,0.000463919,-0.00544645,-1.12517,0.00379507,0.0233375,1875,666,14.2414,-1.10695
658,358,13.9293,1.35492,-0.00679217,-0.00153267,-0.00374089,0.000410315,-0.00873515,-1.09176,0.00596491,0.0408452,1882,666,13.9294,-1.35491
665,358,13.3859,1.58582,0,0,0,0,0,0,0,-1,1889,666,13.3859,-1.58579
672,358,12.4299,1.47272,0,0,0,0,0,0,0,-1,1896,666,12.4299,-1.4727
679,358,12.1294,2.19702,0,0,0,0,0,0,0,-1,1903,666,12.1294,-2.19703
686,358,11.9557,2.2002,0,0,0,0,0,0,0,-1,1910,666,11.9557,-2.20021
693,358,13.188,2.52203,0,0,0,0,0,0,0,-1,1917,666,13.188,-2.52202
700,358,0,0,0,0,0,0,0,0,0,-1,1924,666,0,0
707,358,0,0,0,0,0,0,0,0,0,-1,1931,666,0,0
714,358,0,0,0,0,0,0,0,0,0,-1,1938,666,0,0
721,358,0,0,0,0,0,0,0,0,0,-1,1945,666,0,0
728,358,0,0,0,0,0,0,0,0,0,-1,1952,666,0,0
735,358,0,0,0,0,0,0,0,0,0,-1,1959,666,0,0
742,358,0,0,0,0,0,0,0,0,0,-1,1966,666,0,0
749,358,0,0,0,0,0,0,0,0,0,-1,1973,666,0,0
756,358,0,0,0,0,0,0,0,0,0,-1,1980,666,0,0
763,358,0,0,0,0,0,0,0,0,0,-1,1987,666,0,0
770,358,0,0,0,0,0,0,0,0,0,-1,1994,666,0,0
777,358,0,0,0,0,0,0,0,0,0,-1,2001,666,0,0
784,358,0,0,0,0,0,0,0,0,0,-1,2008,666,0,0
791,358,0,0,0,0,0,0,0,0,0,-1,2015,666,0,0
798,358,0,0,0,0,0,0,0,0,0,-1,2022,666,0,0
805,358,0,0,0,0,0,0,0,0,0,-1,2029,666,0,0
812,358,0,0,0,0,0,0,0,0,0,-1,2036,666,0,0
-700,351,0,0,0,0,0,0,0,0,0,-1,524,673,0,0
-693,351,0,0,0,0,0,0,0,0,0,-1,531,673,0,0
-686,351,0,0,0,0,0,0,0,0,0,-1,538,673,0,0
-679,351,0,0,0,0,0,0,0,0,0,-1,545,673,0,0
-672,351,0,0,0,0,0,0,0,0,0,-1,552,673,0,0
-665,351,0,0,0,0,0,0,0,0,0,-1,559,673,0,0
-658,351,0,0,0,0,0,0,0,0,0,-1,566,673,0,0
-651,351,0,0,0,0,0,0,0,0,0,-1,573,673,0,0
-644,351,0,0,0,0,0,0,0,0,0,-1,580,673,0,0
-637,351,0,0,0,0,0,0,0,0,0,-1,587,673,0,0
-630,351,0,0,0,0,0,0,0,0,0,-1,594,673,0,0
-623,351,0,0,0,0,0,0,0,0,0,-1,601,673,0,0
-616,351,0,0,0,0,0,0,0,0,0,-1,608,673,0,0
-609,351,0,0,0,0,0,0,0,0,0,-1,615,673,0,0
-602,351,0,0,0,0,0,0,0,0,0,-1,622,673,0,0
-595,351,0,0,0,0,0,0,0,0,0,-1,629,673,0,0
-588,351,0,0,0,0,0,0,0,0,0,-1,636,673,0,0
-581,351,-9.0647,1.71906,0,0,0,0,0,0,0,-1,643,673,-9.06472,-1.71908
-574,351,-8.23584,2.64764,0,0,0,0,0,0,0,-1,650,673,-8.23584,-2.64764
-567,351,-6.17303,1.88818,0,0,0,0,0,0,0,-1,657,673,-6.17304,-1.88818
-560,351,-7.82495,1.89557,0,0,0,0,0,0,0,-1,664,673,-7.82496,-1.89559
-553,351,-8.50201,1.91052,0.0223097,0.0275023,-0.0408075,0.065796,-0.015984,-0.817167,0.0500502,0.0460306,671,673,-8.50202,-1.9105
-546,351,-8.21057,1.16132,0.0181949,0.0207972,-0.0319735,0.051496,-0.0125039,-0.805735,0.0391696,0.0471264,678,673,-8.21058,-1.16133
-539,351,-7.91144,0.416748,0.014137,0.0155015,-0.0242311,0.0390599,-0.00942144,-0.799472,0.0296831,0.0462085,685,673,-7.91143,-0.416744
-532,351,-7.4892,-0.411682,0.0105696,0.0113095,-0.0178733,0.0288167,-0.00693762,-0.795746,0.0218932,0.0358239,692,673,-7.48922,0.411684
-525,351,-7.51184,-0.979248,0.00760017,0.00803758,-0.0127082,0.020529,-0.00489124,-0.794002,0.0155746,0.0278103,699,673,-7.51183,0.97926
-518,351,-7.59106,-1.23444,0.00526,0.00555242,-0.00869198,0.0140994,-0.003287,-0.793808,0.0106655,0.0133897,706,673,-7.59105,1.23442
-511,351,-7.57825,-1.5481,0.00350748,0.0037165,-0.00566421,0.00927716,-0.00205318,-0.794622,0.0069707,0.011522,713,673,-7.57822,1.54811
-504,351,-7.5863,-1.87073,0.00246005,0.00233002,-0.00347508,0.00587072,-0.00108065,-0.776044,0.00431933,0.0115101,720,673,-7.58632,1.87071
-497,351,-7.58948,-2.19189,0.00175027,0.0010267,-0.00180963,0.00323393,-0.000456955,-0.686738,0.0023233,0.0110487,727,673,-7.5895,2.1919
-490,351,-7.58807,-2.52417,0.00144295,0.000844308,-0.0010931,0.00227698,1.02851e-05,-0.65176,0.00151457,0.00967036,734,673,-7.58809,2.52417
-483,351,-7.58966,-2.84515,0.00172046,0.000844468,-0.00105095,0.00242103,0.000143896,-0.587962,0.00156826,0.0113855,741,673,-7.58964,2.84512
-476,351,-7.59521,-3.15216,0.00253102,0.0011272,-0.00158953,0.00356672,9.15062e-05,-0.577481,0.0023479,0.0116536,748,673,-7.59522,3.15216
-469,351,-7.61646,-3.46649,0.00352811,0.00156658,-0.00233608,0.00508095,1.37435e-05,-0.586655,0.00338273,0.0135887,755,673,-7.61643,3.46648
-462,351,-7.63495,-3.83899,0.00438072,0.00229853,-0.00328624,0.00678683,-0.00010758,-0.631997,0.00456084,0.0204249,762,673,-7.63495,3.83898
-455,351,-7.60339,-4.20892,0,0,0,0,0,0,0,-1,769,673,-7.60341,4.2089
-448,351,-6.61456,-4.38654,0,0,0,0,0,0,0,-1,776,673,-6.61456,4.38654
-441,351,-4.31567,-2.3009,0,0,0,0,0,0,0,-1,783,673,-4.31565,2.30089
-434,351,-3.81708,-2.28003,0,0,0,0,0,0,0,-1,790,673,-3.81706,2.28006
-427,351,-2.05157,-2.7785,0,0,0,0,0,0,0,-1,797,673,-2.05157,2.77848
-420,351,-1.06989,-2.43665,0,0,0,0,0,0,0,-1,804,673,-1.06991,2.43663
-413,351,-0.392334,-2.06671,0,0,0,0,0,0,0,-1,811,673,-0.392363,2.06672
-406,351,-1.86316,-2.58105,0,0,0,0,0,0,0,-1,818,673,-1.86313,2.58106
-399,351,1.00952,-1.53455,0,0,0,0,0,0,0,-1,825,673,1.00954,1.53457
-392,351,-1.02197,0.877136,0,0,0,0,0,0,0,-1,832,673,-1.02195,-0.877143
-385,351,-1.47205,1.04437,0,0,0,0,0,0,0,-1,839,673,-1.47207,-1.04435
-378,351,0,0,0,0,0,0,0,0,0,-1,846,673,0,0
-371,351,0,0,0,0,0,0,0,0,0,-1,853,673,0,0
-364,351,0,0,0,0,0,0,0,0,0,-1,860,673,0,0
-357,351,0,0,0,0,0,0,0,0,0,-1,867,673,0,0
-350,351,0,0,0,0,0,0,0,0,0,-1,874,673,0,0
-343,351,0,0,0,0,0,0,0,0,0,-1,881,673,0,0
-336,351,0,0,0,0,0,0,0,0,0,-1,888,673,0,0
-329,351,0,0,0,0,0,0,0,0,0,-1,895,673,0,0
-322,351,0,0,0,0,0,0,0,0,0,-1,902,673,0,0
-315,351,0,0,0,0,0,0,0,0,0,-1,909,673,0,0
-308,351,0,0,0,0,0,0,0,0,0,-1,916,673,0,0
-301,351,0,0,0,0,0,0,0,0,0,-1,923,673,0,0
-294,351,0,0,0,0,0,0,0,0,0,-1,930,673,0,0
-287,351,0,0,0,0,0,0,0,0,0,-1,937,673,0,0
-280,351,0,0,0,0,0,0,0,0,0,-1,944,673,0,0
-273,351,0,0,0,0,0,0,0,0,0,-1,951,673,0,0
-266,351,0,0,0,0,0,0,0,0,0,-1,958,673,0,0
-259,351,0,0,0,0,0,0,0,0,0,-1,965,673,0,0
-252,351,0,0,0,0,0,0,0,0,0,-1,972,673,0,0
-245,351,0,0,0,0,0,0,0,0,0,-1,979,673,0,0
-238,351,0,0,0,0,0,0,0,0,0,-1,986,673,0,0
-231,351,0,0,0,0,0,0,0,0,0,-1,993,673,0,0
-224,351,0,0,0,0,0,0,0,0,0,-1,1000,673,0,0
-217,351,0,0,0,0,0,0,0,0,0,-1,1007,673,0,0
-210,351,0,0,0,0,0,0,0,0,0,-1,1014,673,0,0
-203,351,0,0,0,0,0,0,0,0,0,-1,1021,673,0,0
-196,351,0,0,0,0,0,0,0,0,0,-1,1028,673,0,0
-189,351,0,0,0,0,0,0,0,0,0,-1,1035,673,0,0
-182,351,0,0,0,0,0,0,0,0,0,-1,1042,673,0,0
-175,351,0,0,0,0,0,0,0,0,0,-1,1049,673,0,0
-168,351,0,0,0,0,0,0,0,0,0,-1,1056,673,0,0
-161,351,0,0,0,0,0,0,0,0,0,-1,1063,673,0,0
-154,351,0,0,0,0,0,0,0,0,0,-1,1070,673,0,0
-147,351,0,0,0,0,0,0,0,0,0,-1,1077,673,0,0
-140,351,0,0,0,0,0,0,0,0,0,-1,1084,673,0,0
-133,351,0,0,0,0,0,0,0,0,0,-1,1091,673,0,0
-126,351,0,0,0,0,0,0,0,0,0,-1,1098,673,0,0
-119,351,0,0,0,0,0,0,0,0,0,-1,1105,673,0,0
-112,351,0,0,0,0,0,0,0,0,0,-1,1112,673,0,0
-105,351,0,0,0,0,0,0,0,0,0,-1,1119,673,0,0
-98,351,0,0,0,0,0,0,0,0,0,-1,1126,673,0,0
-91,351,0,0,0,0,0,0,0,0,0,-1,1133,673,0,0
-84,351,0,0,0,0,0,0,0,0,0,-1,1140,673,0,0
-77,351,0,0,0,0,0,0,0,0,0,-1,1147,673,0,0
-70,351,0,0,0,0,0,0,0,0,0,-1,1154,673,0,0
-63,351,0,0,0,0,0,0,0,0,0,-1,1161,673,0,0
-56,351,0,0,0,0,0,0,0,0,0,-1,1168,673,0,0
-49,351,0,0,0,0,0,0,0,0,0,-1,1175,673,0,0
-42,351,0,0,0,0,0,0,0,0,0,-1,1182,673,0,0
-35,351,0,0,0,0,0,0,0,0,0,-1,1189,673,0,0
-28,351,0,0,0,0,0,0,0,0,0,-1,1196,673,0,0
-21,351,0,0,0,0,0,0,0,0,0,-1,1203,673,0,0
-14,351,0,0,0,0,0,0,0,0,0,-1,1210,673,0,0
-7,351,0,0,0,0,0,0,0,0,0,-1,1217,673,0,0
0,351,0,0,0,0,0,0,0,0,0,-1,1224,673,0,0
7,351,0,0,0,0,0,0,0,0,0,-1,1231,673,0,0
14,351,0,0,0,0,0,0,0,0,0,-1,1238,673,0,0
21,351,0,0,0,0,0,0,0,0,0,-1,1245,673,0,0
28,351,0,0,0,0,0,0,0,0,0,-1,1252,673,0,0
35,351,0,0,0,0,0,0,0,0,0,-1,1259,673,0,0
42,351,0,0,0,0,0,0,0,0,0,-1,1266,673,0,0
49,351,0,0,0,0,0,0,0,0,0,-1,1273,673,0,0
56,351,0,0,0,0,0,0,0,0,0,-1,1280,673,0,0
63,351,0,0,0,0,0,0,0,0,0,-1,1287,673,0,0
70,351,0,0,0,0,0,0,0,0,0,-1,1294,673,0,0
77,351,0,0,0,0,0,0,0,0,0,-1,1301,673,0,0
84,351,0,0,0,0,0,0,0,0,0,-1,1308,673,0,0
91,351,0,0,0,0,0,0,0,0,0,-1,1315,673,0,0
98,351,0,0,0,0,0,0,0,0,0,-1,1322,673,0,0
105,351,0,0,0,0,0,0,0,0,0,-1,1329,673,0,0
112,351,0,0,0,0,0,0,0,0,0,-1,1336,673,0,0
119,351,0,0,0,0,0,0,0,0,0,-1,1343,673,0,0
126,351,0,0,0,0,0,0,0,0,0,-1,1350,673,0,0
133,351,0,0,0,0,0,0,0,0,0,-1,1357,673,0,0
140,351,0,0,0,0,0,0,0,0,0,-1,1364,673,0,0
147,351,0,0,0,0,0,0,0,0,0,-1,1371,673,0,0
154,351,0,0,0,0,0,0,0,0,0,-1,1378,673,0,0
161,351,0,0,0,0,0,0,0,0,0,-1,1385,673,0,0
168,351,0,0,0,0,0,0,0,0,0,-1,1392,673,0,0
175,351,0,0,0,0,0,0,0,0,0,-1,1399,673,0,0
182,351,0,0,0,0,0,0,0,0,0,-1,1406,673,0,0
189,351,0,0,0,0,0,0,0,0,0,-1,1413,673,0,0
196,351,0,0,0,0,0,0,0,0,0,-1,1420,673,0,0
203,351,0,0,0,0,0,0,0,0,0,-1,1427,673,0,0
210,351,0,0,0,0,0,0,0,0,0,-1,1434,673,0,0
217,351,0,0,0,0,0,0,0,0,0,-1,1441,673,0,0
224,351,0,0,0,0,0,0,0,0,0,-1,1448,673,0,0
231,351,0,0,0,0,0,0,0,0,0,-1,1455,673,0,0
238,351,0,0,0,0,0,0,0,0,0,-1,1462,673,0,0
245,351,0,0,0,0,0,0,0,0,0,-1,1469,673,0,0
252,351,0,0,0,0,0,0,0,0,0,-1,1476,673,0,0
259,351,0,0,0,0,0,0,0,0,0,-1,1483,673,0,0
266,351,0,0,0,0,0,0,0,0,0,-1,1490,673,0,0
273,351,0,0,0,0,0,0,0,0,0,-1,1497,673,0,0
280,351,0,0,0,0,0,0,0,0,0,-1,1504,673,0,0
287,351,0,0,0,0,0,0,0,0,0,-1,1511,673,0,0
294,351,0,0,0,0,0,0,0,0,0,-1,1518,673,0,0
301,351,0,0,0,0,0,0,0,0,0,-1,1525,673,0,0
308,351,0,0,0,0,0,0,0,0,0,-1,1532,673,0,0
315,351,0,0,0,0,0,0,0,0,0,-1,1539,673,0,0
322,351,0,0,0,0,0,0,0,0,0,-1,1546,673,0,0
329,351,0,0,0,0,0,0,0,0,0,-1,1553,673,0,0
336,351,0,0,0,0,0,0,0,0,0,-1,1560,673,0,0
343,351,0,0,0,0,0,0,0,0,0,-1,1567,673,0,0
350,351,0,0,0,0,0,0,0,0,0,-1,1574,673,0,0
357,351,0,0,0,0,0,0,0,0,0,-1,1581,673,0,0
364,351,0,0,0,0,0,0,0,0,0,-1,1588,673,0,0
371,351,0,0,0,0,0,0,0,0,0,-1,1595,673,0,0
378,351,0,0,0,0,0,0,0,0,0,-1,1602,673,0,0
385,351,0,0,0,0,0,0,0,0,0,-1,1609,673,0,0
392,351,0,0,0,0,0,0,0,0,0,-1,1616,673,0,0
399,351,0,0,0,0,0,0,0,0,0,-1,1623,673,0,0
406,351,0,0,0,0,0,0,0,0,0,-1,1630,673,0,0
413,351,0,0,0,0,0,0,0,0,0,-1,1637,673,0,0
420,351,0,0,0,0,0,0,0,0,0,-1,1644,673,0,0
427,351,0,0,0,0,0,0,0,0,0,-1,1651,673,0,0
434,351,0,0,0,0,0,0,0,0,0,-1,1658,673,0,0
441,351,0,0,0,0,0,0,0,0,0,-1,1665,673,0,0
448,351,0,0,0,0,0,0,0,0,0,-1,1672,673,0,0
455,351,0,0,0,0,0,0,0,0,0,-1,1679,673,0,0
462,351,0,0,0,0,0,0,0,0,0,-1,1686,673,0,0
469,351,0,0,0,0,0,0,0,0,0,-1,1693,673,0,0
476,351,0,0,0,0,0,0,0,0,0,-1,1700,673,0,0
483,351,0,0,0,0,0,0,0,0,0,-1,1707,673,0,0
490,351,0,0,0,0,0,0,0,0,0,-1,1714,673,0,0
497,351,0,0,0,0,0,0,0,0,0,-1,1721,673,0,0
504,351,10.8842,1.61615,0,0,0,0,0,0,0,-1,1728,673,10.8842,-1.61618
511,351,15.4548,0.0236816,0,0,0,0,0,0,0,-1,1735,673,15.4549,-0.0236664
518,351,16.7448,2.49268,0,0,0,0,0,0,0,-1,1742,673,16.7448,-2.49269
525,351,16.0701,3.43225,0,0,0,0,0,0,0,-1,1749,673,16.07,-3.43227
532,351,16.4181,3.33472,0,0,0,0,0,0,0,-1,1756,673,16.4181,-3.33473
539,351,15.3387,3.54486,0,0,0,0,0,0,0,-1,1763,673,15.3387,-3.54485
546,351,13.9387,4.59357,0,0,0,0,0,0,0,-1,1770,673,13.9388,-4.59359
553,351,12.0682,2.02832,0,0,0,0,0,0,0,-1,1777,673,12.0683,-2.02831
560,351,12.0173,0.55304,0,0,0,0,0,0,0,-1,1784,673,12.0174,-0.553028
567,351,10.7827,0.130188,0,0,0,0,0,0,0,-1,1791,673,10.7827,-0.130183
574,351,13.405,-1.09204,0,0,0,0,0,0,0,-1,1798,673,13.405,1.09207
581,351,14.7109,-1.94006,0,0,0,0,0,0,0,-1,1805,673,14.7109,1.94005
588,351,14.4719,-1.98682,-0.00412444,-7.99163e-05,-0.00117878,0.000238561,-0.00444292,-1.30692,0.00304458,0.0468422,1812,673,14.4719,1.98685
595,351,14.5072,-1.75751,-0.00258223,-0.000246782,-0.000946494,8.86335e-05,-0.00291765,-1.23023,0.00197531,0.0241542,1819,673,14.5072,1.75753
602,351,14.5468,-1.37469,-0.0012437,-0.000192811,-0.000608792,8.59326e-05,-0.00152244,-1.14142,0.00104479,0.0183337,1826,673,14.5467,1.37467
609,351,14.5431,-1.02234,-0.000282335,5.48908e-06,-0.000250373,0.000150363,-0.000427209,-1.04624,0.000345995,0.0172205,1833,673,14.5431,1.02236
616,351,14.5281,-0.673889,0.000307476,2.3337e-05,-0.000112186,0.00034643,-1.56167e-05,-0.3342,0.000236331,0.0147322,1840,673,14.5281,0.673886
623,351,14.5277,-0.348755,0.000301431,0.000162206,-0.000111873,0.000363582,0.000100055,-0.507089,0.000216871,0.0153361,1847,673,14.5278,0.348783
630,351,14.5448,-0.0354614,-0.000159221,8.54817e-05,-0.000299968,0.000287092,-0.000360831,-0.979039,0.000374885,0.0247698,1854,673,14.5448,0.0354466
637,351,14.5642,0.328796,-0.000990316,-6.31299e-05,-0.00070108,0.000313772,-0.00136722,-1.07752,0.00103209,0.0281527,1861,673,14.5642,-0.328777
644,351,14.494,0.686096,-0.00237234,-0.000387035,-0.00141187,0.000346216,-0.0031056,-1.09179,0.00219492,0.0210498,1868,673,14.494,-0.686066
651,351,14.5178,1.07343,-0.00411372,-0.000931505,-0.00236781,0.000330136,-0.00537536,-1.08123,0.00369853,0.0158287,1875,673,14.5178,-1.07345
658,351,14.4854,1.43188,-0.00633159,-0.00168751,-0.00364174,0.000309492,-0.00832859,-1.06921,0.00565838,0.0273902,1882,673,14.4853,-1.43186
665,351,14.1313,1.59772,-0.00905765,-0.00271164,-0.00519219,0.000200314,-0.0119696,-1.05967,0.00804734,0.0361138,1889,673,14.1313,-1.59774
672,351,13.9183,1.94562,0,0,0,0,0,0,0,-1,1896,673,13.9184,-1.94561
679,351,14.1252,1.85681,0,0,0,0,0,0,0,-1,1903,673,14.1253,-1.85682
686,351,13.0294,2.1189,0,0,0,0,0,0,0,-1,1910,673,13.0294,-2.11892
693,351,13.5187,2.34595,0,0,0,0,0,0,0,-1,1917,673,13.5187,-2.34596
700,351,14.5629,-2.40173,0,0,0,0,0,0,0,-1,1924,673,14.5629,2.40172
707,351,0,0,0,0,0,0,0,0,0,-1,1931,673,0,0
714,351,0,0,0,0,0,0,0,0,0,-1,1938,673,0,0
721,351,0,0,0,0,0,0,0,0,0,-1,1945,673,0,0
728,351,0,0,0,0,0,0,0,0,0,-1,1952,673,0,0
735,351,0,0,0,0,0,0,0,0,0,-1,1959,673,0,0
742,351,0,0,0,0,0,0,0,0,0,-1,1966,673,0,0
749,351,0,0,0,0,0,0,0,0,0,-1,1973,673,0,0
756,351,0,0,0,0,0,0,0,0,0,-1,1980,673,0,0
763,351,0,0,0,0,0,0,0,0,0,-1,1987,673,0,0
770,351,0,0,0,0,0,0,0,0,0,-1,1994,673,0,0
777,351,0,0,0,0,0,0,0,0,0,-1,2001,673,0,0
784,351,0,0,0,0,0,0,0,0,0,-1,2008,673,0,0
791,351,0,0,0,0,0,0,0,0,0,-1,2015,673,0,0
798,351,0,0,0,0,0,0,0,0,0,-1,2022,673,0,0
805,351,0,0,0,0,0,0,0,0,0,-1,2029,673,0,0
812,351,0,0,0,0,0,0,0,0,0,-1,2036,673,0,0
-700,344,0,0,0,0,0,0,0,0,0,-1,524,680,0,0
-693,344,0,0,0,0,0,0,0,0,0,-1,531,680,0,0
-686,344,0,0,0,0,0,0,0,0,0,-1,538,680,0,0
-679,344,0,0,0,0,0,0,0,0,0,-1,545,680,0,0
-672,344,0,0,0,0,0,0,0,0,0,-1,552,680,0,0
-665,344,0,0,0,0,0,0,0,0,0,-1,559,680,0,0
-658,344,0,0,0,0,0,0,0,0,0,-1,566,680,0,0
-651,344,0,0,0,0,0,0,0,0,0,-1,573,680,0,0
-644,344,0,0,0,0,0,0,0,0,0,-1,580,680,0,0
-637,344,0,0,0,0,0,0,0,0,0,-1,587,680,0,0
-630,344,0,0,0,0,0,0,0,0,0,-1,594,680,0,0
-623,344,0,0,0,0,0,0,0,0,0,-1,601,680,0,0
-616,344,0,0,0,0,0,0,0,0,0,-1,608,680,0,0
-609,344,0,0,0,0,0,0,0,0,0,-1,615,680,0,0
-602,344,0,0,0,0,0,0,0,0,0,-1,622,680,0,0
-595,344,0,0,0,0,0,0,0,0,0,-1,629,680,0,0
-588,344,-9.27826,1.47302,0,0,0,0,0,0,0,-1,636,680,-9.27829,-1.473
-581,344,-10.0098,1.71753,0,0,0,0,0,0,0,-1,643,680,-10.0098,-1.7175
-574,344,-6.25641,2.37372,0,0,0,0,0,0,0,-1,650,680,-6.25642,-2.37369
-567,344,-7.84467,2.70776,0,0,0,0,0,0,0,-1,657,680,-7.84466,-2.70777
-560,344,-7.94543,2.0141,0.0163684,0.0318461,-0.0389833,0.0638513,-0.0156368,-0.883382,0.0486252,0.0468279,664,680,-7.94541,-2.01413
-553,344,-8.10895,1.37415,0.0153015,0.0246813,-0.0321018,0.0524339,-0.0124512,-0.857933,0.0397616,0.0453862,671,680,-8.10895,-1.37413
-546,344,-8.21851,1.31854,0,0,0,0,0,0,0,-1,678,680,-8.21851,-1.31852
-539,344,-7.91675,-0.100464,0.010599,0.0140664,-0.0195697,0.0319791,-0.00731365,-0.829579,0.0241296,0.0384994,685,680,-7.91678,0.100442
-532,344,-7.7735,-0.54248,0.00822236,0.0102757,-0.0145921,0.0238773,-0.00537916,-0.82052,0.0179814,0.0240776,692,680,-7.77348,0.542488
-525,344,-7.89795,-0.865356,0.00614037,0.00728945,-0.0104645,0.0171952,-0.00376539,-0.812822,0.0129031,0.0230651,699,680,-7.89792,0.865327
-518,344,-7.91602,-1.24286,0.00441867,0.00500281,-0.00718504,0.0119017,-0.00248023,-0.805712,0.00887747,0.018495,706,680,-7.91601,1.24283
-511,344,-7.95227,-1.57727,0.00314885,0.00330858,-0.00470571,0.0079351,-0.00147767,-0.793883,0.00584522,0.0162826,713,680,-7.95225,1.5773
-504,344,-7.95972,-1.90424,0.00238385,0.00201791,-0.00287115,0.00507785,-0.000676089,-0.753577,0.00363164,0.0179557,720,680,-7.95974,1.90422
-497,344,-7.91663,-2.20166,0.00187372,0.00087741,-0.0015196,0.00297474,-0.000223606,-0.627008,0.00206174,0.0159258,727,680,-7.91664,2.20165
-490,344,-7.93066,-2.53162,0.0017648,0.000691473,-0.00103171,0.00239108,6.51958e-05,-0.545572,0.00157277,0.0131541,734,680,-7.93065,2.53163
-483,344,-7.90314,-2.83533,0.00222773,0.0007534,-0.00119382,0.00289364,8.74947e-05,-0.508809,0.0019006,0.0127282,741,680,-7.90314,2.8353
-476,344,-7.89923,-3.13129,0.0031883,0.001101,-0.00191899,0.00432907,-3.97821e-05,-0.536342,0.0028994,0.0138728,748,680,-7.89922,3.13126
-469,344,-7.91974,-3.48431,0.00428428,0.00158529,-0.00278634,0.00603073,-0.000161157,-0.559883,0.00407527,0.0135746,755,680,-7.91975,3.48434
-462,344,-7.93347,-3.88013,0.00527472,0.00250004,-0.00396093,0.00808425,-0.000309487,-0.616947,0.00549557,0.0308485,762,680,-7.93348,3.88015
-455,344,-7.85193,-4.20099,0,0,0,0,0,0,0,-1,769,680,-7.85192,4.20099
-448,344,-5.67657,-2.72864,0,0,0,0,0,0,0,-1,776,680,-5.6766,2.72863
-441,344,-5.09229,-2.34167,0,0,0,0,0,0,0,-1,783,680,-5.09229,2.34168
-434,344,-4.28778,-2.08807,0,0,0,0,0,0,0,-1,790,680,-4.28778,2.08809
-427,344,-3.06506,-1.45404,0,0,0,0,0,0,0,-1,797,680,-3.06505,1.45402
-420,344,-1.96582,-1.57574,0,0,0,0,0,0,0,-1,804,680,-1.96579,1.57574
-413,344,-0.817993,-1.4751,0,0,0,0,0,0,0,-1,811,680,-0.818017,1.47511
-406,344,-0.00714111,-1.25189,0,0,0,0,0,0,0,-1,818,680,-0.00714956,1.25191
-399,344,0.240051,-1.75769,0,0,0,0,0,0,0,-1,825,680,0.240079,1.75767
-392,344,1.11353,-2.05615,0,0,0,0,0,0,0,-1,832,680,1.11351,2.05616
-385,344,0,0,0,0,0,0,0,0,0,-1,839,680,0,0
-378,344,0,0,0,0,0,0,0,0,0,-1,846,680,0,0
-371,344,0,0,0,0,0,0,0,0,0,-1,853,680,0,0
-364,344,0,0,0,0,0,0,0,0,0,-1,860,680,0,0
-357,344,0,0,0,0,0,0,0,0,0,-1,867,680,0,0
-350,344,0,0,0,0,0,0,0,0,0,-1,874,680,0,0
-343,344,0,0,0,0,0,0,0,0,0,-1,881,680,0,0
-336,344,0,0,0,0,0,0,0,0,0,-1,888,680,0,0
-329,344,0,0,0,0,0,0,0,0,0,-1,895,680,0,0
-322,344,0,0,0,0,0,0,0,0,0,-1,902,680,0,0
-315,344,0,0,0,0,0,0,0,0,0,-1,909,680,0,0
-308,344,0,0,0,0,0,0,0,0,0,-1,916,680,0,0
-301,344,0,0,0,0,0,0,0,0,0,-1,923,680,0,0
-294,344,0,0,0,0,0,0,0,0,0,-1,930,680,0,0
-287,344,0,0,0,0,0,0,0,0,0,-1,937,680,0,0
-280,344,0,0,0,0,0,0,0,0,0,-1,944,680,0,0
-273,344,0,0,0,0,0,0,0,0,0,-1,951,680,0,0
-266,344,0,0,0,0,0,0,0,0,0,-1,958,680,0,0
-259,344,0,0,0,0,0,0,0,0,0,-1,965,680,0,0
-252,344,0,0,0,0,0,0,0,0,0,-1,972,680,0,0
-245,344,0,0,0,0,0,0,0,0,0,-1,979,680,0,0
-238,344,0,0,0,0,0,0,0,0,0,-1,986,680,0,0
-231,344,0,0,0,0,0,0,0,0,0,-1,993,680,0,0
-224,344,0,0,0,0,0,0,0,0,0,-1,1000,680,0,0
-217,344,0,0,0,0,0,0,0,0,0,-1,1007,680,0,0
-210,344,0,0,0,0,0,0,0,0,0,-1,1014,680,0,0
-203,344,0,0,0,0,0,0,0,0,0,-1,1021,680,0,0
-196,344,0,0,0,0,0,0,0,0,0,-1,1028,680,0,0
-189,344,0,0,0,0,0,0,0,0,0,-1,1035,680,0,0
-182,344,0,0,0,0,0,0,0,0,0,-1,1042,680,0,0
-175,344,0,0,0,0,0,0,0,0,0,-1,1049,680,0,0
-168,344,0,0,0,0,0,0,0,0,0,-1,1056,680,0,0
-161,344,0,0,0,0,0,0,0,0,0,-1,1063,680,0,0
-154,344,0,0,0,0,0,0,0,0,0,-1,1070,680,0,0
-147,344,0,0,0,0,0,0,0,0,0,-1,1077,680,0,0
-140,344,0,0,0,0,0,0,0,0,0,-1,1084,680,0,0
-133,344,0,0,0,0,0,0,0,0,0,-1,1091,680,0,0
-126,344,0,0,0,0,0,0,0,0,0,-1,1098,680,0,0
-119,344,0,0,0,0,0,0,0,0,0,-1,1105,680,0,0
-112,344,0,0,0,0,0,0,0,0,0,-1,1112,680,0,0
-105,344,0,0,0,0,0,0,0,0,0,-1,1119,680,0,0
-98,344,0,0,0,0,0,0,0,0,0,-1,1126,680,0,0
-91,344,0,0,0,0,0,0,0,0,0,-1,1133,680,0,0
-84,344,0,0,0,0,0,0,0,0,0,-1,1140,680,0,0
-77,344,0,0,0,0,0,0,0,0,0,-1,1147,680,0,0
-70,344,0,0,0,0,0,0,0,0,0,-1,1154,680,0,0
-63,344,0,0,0,0,0,0,0,0,0,-1,1161,680,0,0
-56,344,0,0,0,0,0,0,0,0,0,-1,1168,680,0,0
-49,344,0,0,0,0,0,0,0,0,0,-1,1175,680,0,0
-42,344,0,0,0,0,0,0,0,0,0,-1,1182,680,0,0
-35,344,0,0,0,0,0,0,0,0,0,-1,1189,680,0,0
-28,344,0,0,0,0,0,0,0,0,0,-1,1196,680,0,0
-21,344,0,0,0,0,0,0,0,0,0,-1,1203,680,0,0
-14,344,0,0,0,0,0,0,0,0,0,-1,1210,680,0,0
-7,344,0,0,0,0,0,0,0,0,0,-1,1217,680,0,0
0,344,0,0,0,0,0,0,0,0,0,-1,1224,680,0,0
7,344,0,0,0,0,0,0,0,0,0,-1,1231,680,0,0
14,344,0,0,0,0,0,0,0,0,0,-1,1238,680,0,0
21,344,0,0,0,0,0,0,0,0,0,-1,1245,680,0,0
28,344,0,0,0,0,0,0,0,0,0,-1,1252,680,0,0
35,344,0,0,0,0,0,0,0,0,0,-1,1259,680,0,0
42,344,0,0,0,0,0,0,0,0,0,-1,1266,680,0,0
49,344,0,0,0,0,0,0,0,0,0,-1,1273,680,0,0
56,344,0,0,0,0,0,0,0,0,0,-1,1280,680,0,0
63,344,0,0,0,0,0,0,0,0,0,-1,1287,680,0,0
70,344,0,0,0,0,0,0,0,0,0,-1,1294,680,0,0
77,344,0,0,0,0,0,0,0,0,0,-1,1301,680,0,0
84,344,0,0,0,0,0,0,0,0,0,-1,1308,680,0,0
91,344,0,0,0,0,0,0,0,0,0,-1,1315,680,0,0
98,344,0,0,0,0,0,0,0,0,0,-1,1322,680,0,0
105,344,0,0,0,0,0,0,0,0,0,-1,1329,680,0,0
112,344,0,0,0,0,0,0,0,0,0,-1,1336,680,0,0
119,344,0,0,0,0,0,0,0,0,0,-1,1343,680,0,0
126,344,0,0,0,0,0,0,0,0,0,-1,1350,680,0,0
133,344,0,0,0,0,0,0,0,0,0,-1,1357,680,0,0
140,344,0,0,0,0,0,0,0,0,0,-1,1364,680,0,0
147,344,0,0,0,0,0,0,0,0,0,-1,1371,680,0,0
154,344,0,0,0,0,0,0,0,0,0,-1,1378,680,0,0
161,344,0,0,0,0,0,0,0,0,0,-1,1385,680,0,0
168,344,0,0,0,0,0,0,0,0,0,-1,1392,680,0,0
175,344,0,0,0,0,0,0,0,0,0,-1,1399,680,0,0
182,344,0,0,0,0,0,0,0,0,0,-1,1406,680,0,0
189,344,0,0,0,0,0,0,0,0,0,-1,1413,680,0,0
196,344,0,0,0,0,0,0,0,0,0,-1,1420,680,0,0
203,344,0,0,0,0,0,0,0,0,0,-1,1427,680,0,0
210,344,0,0,0,0,0,0,0,0,0,-1,1434,680,0,0
217,344,0,0,0,0,0,0,0,0,0,-1,1441,680,0,0
224,344,0,0,0,0,0,0,0,0,0,-1,1448,680,0,0
231,344,0,0,0,0,0,0,0,0,0,-1,1455,680,0,0
238,344,0,0,0,0,0,0,0,0,0,-1,1462,680,0,0
245,344,0,0,0,0,0,0,0,0,0,-1,1469,680,0,0
252,344,0,0,0,0,0,0,0,0,0,-1,1476,680,0,0
259,344,0,0,0,0,0,0,0,0,0,-1,1483,680,0,0
266,344,0,0,0,0,0,0,0,0,0,-1,1490,680,0,0
273,344,0,0,0,0,0,0,0,0,0,-1,1497,680,0,0
280,344,0,0,0,0,0,0,0,0,0,-1,1504,680,0,0
287,344,0,0,0,0,0,0,0,0,0,-1,1511,680,0,0
294,344,0,0,0,0,0,0,0,0,0,-1,1518,680,0,0
301,344,0,0,0,0,0,0,0,0,0,-1,1525,680,0,0
308,344,0,0,0,0,0,0,0,0,0,-1,1532,680,0,0
315,344,0,0,0,0,0,0,0,0,0,-1,1539,680,0,0
322,344,0,0,0,0,0,0,0,0,0,-1,1546,680,0,0
329,344,0,0,0,0,0,0,0,0,0,-1,1553,680,0,0
336,344,0,0,0,0,0,0,0,0,0,-1,1560,680,0,0
343,344,0,0,0,0,0,0,0,0,0,-1,1567,680,0,0
350,344,0,0,0,0,0,0,0,0,0,-1,1574,680,0,0
357,344,0,0,0,0,0,0,0,0,0,-1,1581,680,0,0
364,344,0,0,0,0,0,0,0,0,0,-1,1588,680,0,0
371,344,0,0,0,0,0,0,0,0,0,-1,1595,680,0,0
378,344,0,0,0,0,0,0,0,0,0,-1,1602,680,0,0
385,344,0,0,0,0,0,0,0,0,0,-1,1609,680,0,0
392,344,0,0,0,0,0,0,0,0,0,-1,1616,680,0,0
399,344,0,0,0,0,0,0,0,0,0,-1,1623,680,0,0
406,344,0,0,0,0,0,0,0,0,0,-1,1630,680,0,0
413,344,0,0,0,0,0,0,0,0,0,-1,1637,680,0,0
420,344,0,0,0,0,0,0,0,0,0,-1,1644,680,0,0
427,344,0,0,0,0,0,0,0,0,0,-1,1651,680,0,0
434,344,0,0,0,0,0,0,0,0,0,-1,1658,680,0,0
441,344,0,0,0,0,0,0,0,0,0,-1,1665,680,0,0
448,344,0,0,0,0,0,0,0,0,0,-1,1672,680,0,0
455,344,0,0,0,0,0,0,0,0,0,-1,1679,680,0,0
462,344,0,0,0,0,0,0,0,0,0,-1,1686,680,0,0
469,344,0,0,0,0,0,0,0,0,0,-1,1693,680,0,0
476,344,0,0,0,0,0,0,0,0,0,-1,1700,680,0,0
483,344,0,0,0,0,0,0,0,0,0,-1,1707,680,0,0
490,344,0,0,0,0,0,0,0,0,0,-1,1714,680,0,0
497,344,0,0,0,0,0,0,0,0,0,-1,1721,680,0,0
504,344,0,0,0,0,0,0,0,0,0,-1,1728,680,0,0
511,344,15.4819,0.452637,0,0,0,0,0,0,0,-1,1735,680,15.4819,-0.452656
518,344,17.1357,2.31207,0,0,0,0,0,0,0,-1,1742,680,17.1358,-2.31207
525,344,16.4807,2.83368,0,0,0,0,0,0,0,-1,1749,680,16.4807,-2.83368
532,344,19.5029,6.32385,0,0,0,0,0,0,0,-1,1756,680,19.503,-6.32388
539,344,15.3691,3.78113,0,0,0,0,0,0,0,-1,1763,680,15.3691,-3.78113
546,344,14.6722,4.30243,0,0,0,0,0,0,0,-1,1770,680,14.6722,-4.30241
553,344,14.8136,4.35681,0,0,0,0,0,0,0,-1,1777,680,14.8136,-4.35679
560,344,11.9363,2.14185,0,0,0,0,0,0,0,-1,1784,680,11.9362,-2.14182
567,344,11.397,0.925842,0,0,0,0,0,0,0,-1,1791,680,11.397,-0.92583
574,344,10.0004,0.504639,0,0,0,0,0,0,0,-1,1798,680,10.0004,-0.504645
581,344,13.6709,-0.969604,0,0,0,0,0,0,0,-1,1805,680,13.6709,0.969629
588,344,14.9712,-2.08972,0,0,0,0,0,0,0,-1,1812,680,14.9712,2.08974
595,344,14.9303,-1.8197,0,0,0,0,0,0,0,-1,1819,680,14.9304,1.81973
602,344,14.9635,-1.37518,-0.0013702,-0.000332266,-0.000601919,-5.64795e-05,-0.00164598,-1.14116,0.00107899,0.036267,1826,680,14.9635,1.37521
609,344,14.9042,-0.978333,-0.000226789,-0.000163275,-0.000196159,3.68091e-06,-0.000393745,-0.865649,0.000263732,0.0152049,1833,680,14.9042,0.978359
616,344,14.8688,-0.597595,0.000450843,-0.000152973,-2.23949e-05,0.000451673,-0.000153803,-0.0370211,0.000363399,0.0218859,1840,680,14.8688,0.597591
623,344,14.8652,-0.3172,0.000449311,-5.3899e-05,-3.85645e-05,0.000452249,-5.68373e-05,-0.0760452,0.000322121,0.019571,1847,680,14.8652,0.317179
630,344,14.8486,-0.0178223,1.55171e-05,-0.000138684,-0.00023786,0.00018846,-0.000311627,-0.62867,0.00029163,0.0257569,1854,680,14.8486,0.0178507
637,344,14.8469,0.338135,-0.000736655,-0.000281396,-0.000613122,0.000144988,-0.00116304,-0.963143,0.000827931,0.0245001,1861,680,14.8469,-0.338136
644,344,14.8727,0.706787,-0.00200762,-0.000549854,-0.00128086,0.000194992,-0.00275247,-1.04408,0.00190331,0.0161148,1868,680,14.8727,-0.706798
651,344,14.865,1.06836,-0.00355049,-0.0010132,-0.00211075,0.000180826,-0.00474451,-1.05599,0.00322497,0.0119638,1875,680,14.865,-1.06837
658,344,14.8556,1.46198,-0.00547409,-0.00160377,-0.00318049,0.000184024,-0.00726189,-1.0587,0.00490375,0.0198257,1882,680,14.8556,-1.46195
665,344,14.7526,1.77081,-0.00778478,-0.00233778,-0.00444202,0.000149186,-0.0102717,-1.0604,0.0068981,0.0305708,1889,680,14.7525,-1.77079
672,344,14.7988,2.01855,-0.0106303,-0.00327309,-0.0060973,0.000169349,-0.0140727,-1.05683,0.00943878,0.0268064,1896,680,14.7988,-2.01855
679,344,14.8746,2.12317,0,0,0,0,0,0,0,-1,1903,680,14.8747,-2.12316
686,344,15.024,1.82709,0,0,0,0,0,0,0,-1,1910,680,15.024,-1.82706
693,344,12.4362,-1.42346,0,0,0,0,0,0,0,-1,1917,680,12.4361,1.42348
700,344,17.5396,2.61206,0,0,0,0,0,0,0,-1,1924,680,17.5396,-2.61204
707,344,18.5829,3.29352,0,0,0,0,0,0,0,-1,1931,680,18.5828,-3.2935
714,344,0,0,0,0,0,0,0,0,0,-1,1938,680,0,0
721,344,0,0,0,0,0,0,0,0,0,-1,1945,680,0,0
728,344,0,0,0,0,0,0,0,0,0,-1,1952,680,0,0
735,344,0,0,0,0,0,0,0,0,0,-1,1959,680,0,0
742,344,0,0,0,0,0,0,0,0,0,-1,1966,680,0,0
749,344,0,0,0,0,0,0,0,0,0,-1,1973,680,0,0
756,344,0,0,0,0,0,0,0,0,0,-1,1980,680,0,0
763,344,0,0,0,0,0,0,0,0,0,-1,1987,680,0,0
770,344,0,0,0,0,0,0,0,0,0,-1,1994,680,0,0
777,344,0,0,0,0,0,0,0,0,0,-1,2001,680,0,0
784,344,0,0,0,0,0,0,0,0,0,-1,2008,680,0,0
791,344,0,0,0,0,0,0,0,0,0,-1,2015,680,0,0
798,344,0,0,0,0,0,0,0,0,0,-1,2022,680,0,0
805,344,0,0,0,0,0,0,0,0,0,-1,2029,680,0,0
812,344,0,0,0,0,0,0,0,0,0,-1,2036,680,0,0
-700,337,0,0,0,0,0,0,0,0,0,-1,524,687,0,0
-693,337,0,0,0,0,0,0,0,0,0,-1,531,687,0,0
-686,337,0,0,0,0,0,0,0,0,0,-1,538,687,0,0
-679,337,0,0,0,0,0,0,0,0,0,-1,545,687,0,0
-672,337,0,0,0,0,0,0,0,0,0,-1,552,687,0,0
-665,337,0,0,0,0,0,0,0,0,0,-1,559,687,0,0
-658,337,0,0,0,0,0,0,0,0,0,-1,566,687,0,0
-651,337,0,0,0,0,0,0,0,0,0,-1,573,687,0,0
-644,337,0,0,0,0,0,0,0,0,0,-1,580,687,0,0
-637,337,0,0,0,0,0,0,0,0,0,-1,587,687,0,0
-630,337,0,0,0,0,0,0,0,0,0,-1,594,687,0,0
-623,337,0,0,0,0,0,0,0,0,0,-1,601,687,0,0
-616,337,0,0,0,0,0,0,0,0,0,-1,608,687,0,0
-609,337,0,0,0,0,0,0,0,0,0,-1,615,687,0,0
-602,337,0,0,0,0,0,0,0,0,0,-1,622,687,0,0
-595,337,0,0,0,0,0,0,0,0,0,-1,629,687,0,0
-588,337,-10.8413,1.27863,0,0,0,0,0,0,0,-1,636,687,-10.8413,-1.27861
-581,337,-11.2157,1.31567,0,0,0,0,0,0,0,-1,643,687,-11.2157,-1.3157
-574,337,-6.03339,2.0321,0,0,0,0,0,0,0,-1,650,687,-6.03337,-2.03213
-567,337,-8.30743,2.54108,0,0,0,0,0,0,0,-1,657,687,-8.30743,-2.54108
-560,337,-8.32062,1.85303,0.009207,0.0269683,-0.0288637,0.0482866,-0.0121113,-0.93464,0.0368969,0.0487077,664,687,-8.32064,-1.85303
-553,337,-8.35449,1.13879,0.00944463,0.021107,-0.0240652,0.0400374,-0.00948581,-0.904261,0.0303518,0.0459073,671,687,-8.35449,-1.13882
-546,337,-8.30481,0.434937,0.00859338,0.0161865,-0.0193212,0.0320806,-0.00730073,-0.88241,0.0241907,0.0399734,678,687,-8.30482,-0.434909
-539,337,-8.19171,-0.183228,0.00730931,0.0121791,-0.015032,0.0249721,-0.00548371,-0.865691,0.0187453,0.0262697,685,687,-8.1917,0.183247
-532,337,-8.19476,-0.564331,0.0059237,0.00888534,-0.0112959,0.0187971,-0.00398806,-0.850573,0.0140507,0.0157529,692,687,-8.19475,0.564335
-525,337,-8.23596,-0.891541,0.00461937,0.00624406,-0.00812087,0.0135931,-0.00272968,-0.835248,0.0100957,0.0144214,699,687,-8.23593,0.891557
-518,337,-8.25684,-1.23853,0.00348092,0.00419489,-0.00554667,0.00939606,-0.00172024,-0.817534,0.00690921,0.0220489,706,687,-8.25683,1.2385
-511,337,-8.31793,-1.58789,0.00265557,0.00267126,-0.00358578,0.00624921,-0.00092238,-0.786492,0.00450518,0.0225072,713,687,-8.31792,1.58792
-504,337,-8.29541,-1.91498,0.00217498,0.00150551,-0.0021062,0.00397289,-0.000292391,-0.706593,0.00275124,0.0227585,720,687,-8.29538,1.91495
-497,337,-8.24176,-2.21198,0.00213102,0.000636198,-0.00108556,0.00270159,6.56316e-05,-0.483914,0.00177958,0.0161405,727,687,-8.24174,2.21199
-490,337,-8.25226,-2.5401,0.00250149,0.000534768,-0.000822472,0.0028001,0.000236154,-0.348269,0.00179321,0.0129982,734,687,-8.25227,2.5401
-483,337,-8.23499,-2.86176,0.00362747,0.00077236,-0.00116588,0.00404306,0.00035677,-0.342419,0.00258467,0.0131145,741,687,-8.23498,2.86175
-476,337,-8.22095,-3.18066,0.00551724,0.00134224,-0.00200707,0.0063256,0.000533889,-0.382878,0.00405085,0.0126741,748,687,-8.22093,3.18068
-469,337,-8.22021,-3.56775,0.00795987,0.00210773,-0.00288847,0.00914539,0.000922213,-0.389466,0.00581396,0.026855,755,687,-8.22022,3.56777
-462,337,-8.13818,-3.84784,0,0,0,0,0,0,0,-1,762,687,-8.13818,3.84787
-455,337,-6.00574,-3.12933,0,0,0,0,0,0,0,-1,769,687,-6.00576,3.12934
-448,337,-5.30627,-2.07202,0,0,0,0,0,0,0,-1,776,687,-5.30628,2.07205
-441,337,-4.24762,-1.49597,0,0,0,0,0,0,0,-1,783,687,-4.24762,1.49598
-434,337,-6.86908,1.37531,0,0,0,0,0,0,0,-1,790,687,-6.86908,-1.3753
-427,337,-9.92004,2.487,0,0,0,0,0,0,0,-1,797,687,-9.92002,-2.48701
-420,337,-2.95996,-1.76697,0,0,0,0,0,0,0,-1,804,687,-2.95998,1.76696
-413,337,-1.29169,-1.99487,0,0,0,0,0,0,0,-1,811,687,-1.29171,1.9949
-406,337,-1.02356,-1.89563,0,0,0,0,0,0,0,-1,818,687,-1.02357,1.89564
-399,337,-0.472839,-2.21338,0,0,0,0,0,0,0,-1,825,687,-0.472837,2.2134
-392,337,0,0,0,0,0,0,0,0,0,-1,832,687,0,0
-385,337,0,0,0,0,0,0,0,0,0,-1,839,687,0,0
-378,337,0,0,0,0,0,0,0,0,0,-1,846,687,0,0
-371,337,0,0,0,0,0,0,0,0,0,-1,853,687,0,0
-364,337,0,0,0,0,0,0,0,0,0,-1,860,687,0,0
-357,337,0,0,0,0,0,0,0,0,0,-1,867,687,0,0
-350,337,0,0,0,0,0,0,0,0,0,-1,874,687,0,0
-343,337,0,0,0,0,0,0,0,0,0,-1,881,687,0,0
-336,337,0,0,0,0,0,0,0,0,0,-1,888,687,0,0
-329,337,0,0,0,0,0,0,0,0,0,-1,895,687,0,0
-322,337,0,0,0,0,0,0,0,0,0,-1,902,687,0,0
-315,337,0,0,0,0,0,0,0,0,0,-1,909,687,0,0
-308,337,0,0,0,0,0,0,0,0,0,-1,916,687,0,0
-301,337,0,0,0,0,0,0,0,0,0,-1,923,687,0,0
-294,337,0,0,0,0,0,0,0,0,0,-1,930,687,0,0
-287,337,0,0,0,0,0,0,0,0,0,-1,937,687,0,0
-280,337,0,0,0,0,0,0,0,0,0,-1,944,687,0,0
-273,337,0,0,0,0,0,0,0,0,0,-1,951,687,0,0
-266,337,0,0,0,0,0,0,0,0,0,-1,958,687,0,0
-259,337,0,0,0,0,0,0,0,0,0,-1,965,687,0,0
-252,337,0,0,0,0,0,0,0,0,0,-1,972,687,0,0
-245,337,0,0,0,0,0,0,0,0,0,-1,979,687,0,0
-238,337,0,0,0,0,0,0,0,0,0,-1,986,687,0,0
-231,337,0,0,0,0,0,0,0,0,0,-1,993,687,0,0
-224,337,0,0,0,0,0,0,0,0,0,-1,1000,687,0,0
-217,337,0,0,0,0,0,0,0,0,0,-1,1007,687,0,0
-210,337,0,0,0,0,0,0,0,0,0,-1,1014,687,0,0
-203,337,0,0,0,0,0,0,0,0,0,-1,1021,687,0,0
-196,337,0,0,0,0,0,0,0,0,0,-1,1028,687,0,0
-189,337,0,0,0,0,0,0,0,0,0,-1,1035,687,0,0
-182,337,0,0,0,0,0,0,0,0,0,-1,1042,687,0,0
-175,337,0,0,0,0,0,0,0,0,0,-1,1049,687,0,0
-168,337,0,0,0,0,0,0,0,0,0,-1,1056,687,0,0
-161,337,0,0,0,0,0,0,0,0,0,-1,1063,687,0,0
-154,337,0,0,0,0,0,0,0,0,0,-1,1070,687,0,0
-147,337,0,0,0,0,0,0,0,0,0,-1,1077,687,0,0
-140,337,0,0,0,0,0,0,0,0,0,-1,1084,687,0,0
-133,337,0,0,0,0,0,0,0,0,0,-1,1091,687,0,0
-126,337,0,0,0,0,0,0,0,0,0,-1,1098,687,0,0
-119,337,0,0,0,0,0,0,0,0,0,-1,1105,687,0,0
-112,337,0,0,0,0,0,0,0,0,0,-1,1112,687,0,0
-105,337,0,0,0,0,0,0,0,0,0,-1,1119,687,0,0
-98,337,0,0,0,0,0,0,0,0,0,-1,1126,687,0,0
-91,337,0,0,0,0,0,0,0,0,0,-1,1133,687,0,0
-84,337,0,0,0,0,0,0,0,0,0,-1,1140,687,0,0
-77,337,0,0,0,0,0,0,0,0,0,-1,1147,687,0,0
-70,337,0,0,0,0,0,0,0,0,0,-1,1154,687,0,0
-63,337,0,0,0,0,0,0,0,0,0,-1,1161,687,0,0
-56,337,0,0,0,0,0,0,0,0,0,-1,1168,687,0,0
-49,337,0,0,0,0,0,0,0,0,0,-1,1175,687,0,0
-42,337,0,0,0,0,0,0,0,0,0,-1,1182,687,0,0
-35,337,0,0,0,0,0,0,0,0,0,-1,1189,687,0,0
-28,337,0,0,0,0,0,0,0,0,0,-1,1196,687,0,0
-21,337,0,0,0,0,0,0,0,0,0,-1,1203,687,0,0
-14,337,0,0,0,0,0,0,0,0,0,-1,1210,687,0,0
-7,337,0,0,0,0,0,0,0,0,0,-1,1217,687,0,0
0,337,0,0,0,0,0,0,0,0,0,-1,1224,687,0,0
7,337,0,0,0,0,0,0,0,0,0,-1,1231,687,0,0
14,337,0,0,0,0,0,0,0,0,0,-1,1238,687,0,0
21,337,0,0,0,0,0,0,0,0,0,-1,1245,687,0,0
28,337,0,0,0,0,0,0,0,0,0,-1,1252,687,0,0
35,337,0,0,0,0,0,0,0,0,0,-1,1259,687,0,0
42,337,0,0,0,0,0,0,0,0,0,-1,1266,687,0,0
49,337,0,0,0,0,0,0,0,0,0,-1,1273,687,0,0
56,337,0,0,0,0,0,0,0,0,0,-1,1280,687,0,0
63,337,0,0,0,0,0,0,0,0,0,-1,1287,687,0,0
70,337,0,0,0,0,0,0,0,0,0,-1,1294,687,0,0
77,337,0,0,0,0,0,0,0,0,0,-1,1301,687,0,0
84,337,0,0,0,0,0,0,0,0,0,-1,1308,687,0,0
91,337,0,0,0,0,0,0,0,0,0,-1,1315,687,0,0
98,337,0,0,0,0,0,0,0,0,0,-1,1322,687,0,0
105,337,0,0,0,0,0,0,0,0,0,-1,1329,687,0,0
112,337,0,0,0,0,0,0,0,0,0,-1,1336,687,0,0
119,337,0,0,0,0,0,0,0,0,0,-1,1343,687,0,0
126,337,0,0,0,0,0,0,0,0,0,-1,1350,687,0,0
133,337,0,0,0,0,0,0,0,0,0,-1,1357,687,0,0
140,337,0,0,0,0,0,0,0,0,0,-1,1364,687,0,0
147,337,0,0,0,0,0,0,0,0,0,-1,1371,687,0,0
154,337,0,0,0,0,0,0,0,0,0,-1,1378,687,0,0
161,337,0,0,0,0,0,0,0,0,0,-1,1385,687,0,0
168,337,0,0,0,0,0,0,0,0,0,-1,1392,687,0,0
175,337,0,0,0,0,0,0,0,0,0,-1,1399,687,0,0
182,337,0,0,0,0,0,0,0,0,0,-1,1406,687,0,0
189,337,0,0,0,0,0,0,0,0,0,-1,1413,687,0,0
196,337,0,0,0,0,0,0,0,0,0,-1,1420,687,0,0
203,337,0,0,0,0,0,0,0,0,0,-1,1427,687,0,0
210,337,0,0,0,0,0,0,0,0,0,-1,1434,687,0,0
217,337,0,0,0,0,0,0,0,0,0,-1,1441,687,0,0
224,337,0,0,0,0,0,0,0,0,0,-1,1448,687,0,0
231,337,0,0,0,0,0,0,0,0,0,-1,1455,687,0,0
238,337,0,0,0,0,0,0,0,0,0,-1,1462,687,0,0
245,337,0,0,0,0,0,0,0,0,0,-1,1469,687,0,0
252,337,0,0,0,0,0,0,0,0,0,-1,1476,687,0,0
259,337,0,0,0,0,0,0,0,0,0,-1,1483,687,0,0
266,337,0,0,0,0,0,0,0,0,0,-1,1490,687,0,0
273,337,0,0,0,0,0,0,0,0,0,-1,1497,687,0,0
280,337,0,0,0,0,0,0,0,0,0,-1,1504,687,0,0
287,337,0,0,0,0,0,0,0,0,0,-1,1511,687,0,0
294,337,0,0,0,0,0,0,0,0,0,-1,1518,687,0,0
301,337,0,0,0,0,0,0,0,0,0,-1,1525,687,0,0
308,337,0,0,0,0,0,0,0,0,0,-1,1532,687,0,0
315,337,0,0,0,0,0,0,0,0,0,-1,1539,687,0,0
322,337,0,0,0,0,0,0,0,0,0,-1,1546,687,0,0
329,337,0,0,0,0,0,0,0,0,0,-1,1553,687,0,0
336,337,0,0,0,0,0,0,0,0,0,-1,1560,687,0,0
343,337,0,0,0,0,0,0,0,0,0,-1,1567,687,0,0
350,337,0,0,0,0,0,0,0,0,0,-1,1574,687,0,0
357,337,0,0,0,0,0,0,0,0,0,-1,1581,687,0,0
364,337,0,0,0,0,0,0,0,0,0,-1,1588,687,0,0
371,337,0,0,0,0,0,0,0,0,0,-1,1595,687,0,0
378,337,0,0,0,0,0,0,0,0,0,-1,1602,687,0,0
385,337,0,0,0,0,0,0,0,0,0,-1,1609,687,0,0
392,337,0,0,0,0,0,0,0,0,0,-1,1616,687,0,0
399,337,0,0,0,0,0,0,0,0,0,-1,1623,687,0,0
406,337,0,0,0,0,0,0,0,0,0,-1,1630,687,0,0
413,337,0,0,0,0,0,0,0,0,0,-1,1637,687,0,0
420,337,0,0,0,0,0,0,0,0,0,-1,1644,687,0,0
427,337,0,0,0,0,0,0,0,0,0,-1,1651,687,0,0
434,337,0,0,0,0,0,0,0,0,0,-1,1658,687,0,0
441,337,0,0,0,0,0,0,0,0,0,-1,1665,687,0,0
448,337,0,0,0,0,0,0,0,0,0,-1,1672,687,0,0
455,337,0,0,0,0,0,0,0,0,0,-1,1679,687,0,0
462,337,0,0,0,0,0,0,0,0,0,-1,1686,687,0,0
469,337,0,0,0,0,0,0,0,0,0,-1,1693,687,0,0
476,337,0,0,0,0,0,0,0,0,0,-1,1700,687,0,0
483,337,0,0,0,0,0,0,0,0,0,-1,1707,687,0,0
490,337,0,0,0,0,0,0,0,0,0,-1,1714,687,0,0
497,337,0,0,0,0,0,0,0,0,0,-1,1721,687,0,0
504,337,0,0,0,0,0,0,0,0,0,-1,1728,687,0,0
511,337,0,0,0,0,0,0,0,0,0,-1,1735,687,0,0
518,337,18.0369,1.64581,0,0,0,0,0,0,0,-1,1742,687,18.0368,-1.64581
525,337,21.0253,4.16956,0,0,0,0,0,0,0,-1,1749,687,21.0253,-4.16956
532,337,20.4332,5.16278,0,0,0,0,0,0,0,-1,1756,687,20.4333,-5.16281
539,337,19.9229,6.04456,0,0,0,0,0,0,0,-1,1763,687,19.9228,-6.04456
546,337,15.0701,4.06219,0,0,0,0,0,0,0,-1,1770,687,15.0701,-4.06219
553,337,19.068,3.61273,0,0,0,0,0,0,0,-1,1777,687,19.068,-3.6127
560,337,18.4053,3.62793,0,0,0,0,0,0,0,-1,1784,687,18.4052,-3.6279
567,337,11.9288,1.38776,0,0,0,0,0,0,0,-1,1791,687,11.9288,-1.38777
574,337,10.704,1.19476,0,0,0,0,0,0,0,-1,1798,687,10.704,-1.19478
581,337,8.50427,0.561768,0,0,0,0,0,0,0,-1,1805,687,8.5043,-0.561754
588,337,8.5885,-0.0536499,0,0,0,0,0,0,0,-1,1812,687,8.58844,0.0536788
595,337,13.8816,-1.70703,0,0,0,0,0,0,0,-1,1819,687,13.8816,1.70702
602,337,15.1841,-1.41388,0,0,0,0,0,0,0,-1,1826,687,15.1841,1.41389
609,337,15.2219,-0.941467,-9.861e-05,0.00134612,0.00027846,0.00139793,-0.000150423,1.38683,0.000985928,0.0266001,1833,687,15.2219,0.941449
616,337,15.1991,-0.609558,0.000633145,0.00076266,0.000344191,0.00104813,0.000347672,0.878383,0.00061646,0.0178332,1840,687,15.199,0.609545
623,337,15.2206,-0.299011,0.000650829,0.000404448,0.00022651,0.00078548,0.000269796,0.536339,0.000460845,0.0155436,1847,687,15.2206,0.299022
630,337,15.1874,0.0247803,0.000265803,4.25692e-05,-3.63105e-05,0.000271561,3.68115e-05,-0.157258,0.000170103,0.0198872,1854,687,15.1874,-0.0248005
637,337,15.2117,0.354797,-0.000407688,-0.000268013,-0.000421461,8.93572e-05,-0.000765058,-0.867503,0.000542284,0.0171556,1861,687,15.2117,-0.354816
644,337,15.2295,0.72522,-0.00157731,-0.000581484,-0.00105214,8.46108e-05,-0.0022434,-1.0064,0.00152459,0.0107238,1868,687,15.2295,-0.72523
651,337,15.2153,1.07642,-0.00296884,-0.000959111,-0.00175828,6.11951e-05,-0.00398914,-1.045,0.00268006,0.00994971,1875,687,15.2153,-1.07639
658,337,15.2101,1.41742,-0.00461086,-0.00128506,-0.0025759,0.000118068,-0.00601399,-1.07202,0.00404925,0.0119379,1882,687,15.2101,-1.41745
665,337,15.2188,1.74884,-0.00657028,-0.00167899,-0.00353034,0.000170072,-0.00841934,-1.08832,0.00567043,0.0139999,1889,687,15.2187,-1.74886
672,337,15.1857,2.06384,-0.00889011,-0.0020592,-0.00465478,0.000298759,-0.0112481,-1.10191,0.00760026,0.0220183,1896,687,15.1857,-2.06382
679,337,15.1028,2.21838,-0.0118344,-0.00251209,-0.00597303,0.000403269,-0.0147497,-1.11672,0.00997029,0.0444965,1903,687,15.1028,-2.21836
686,337,15.1216,2.40582,0,0,0,0,0,0,0,-1,1910,687,15.1216,-2.40585
693,337,16.5415,2.21411,0,0,0,0,0,0,0,-1,1917,687,16.5415,-2.2141
700,337,17.2661,2.44379,0,0,0,0,0,0,0,-1,1924,687,17.2661,-2.44378
707,337,17.3544,5.61853,0,0,0,0,0,0,0,-1,1931,687,17.3543,-5.61851
714,337,0,0,0,0,0,0,0,0,0,-1,1938,687,0,0
721,337,0,0,0,0,0,0,0,0,0,-1,1945,687,0,0
728,337,0,0,0,0,0,0,0,0,0,-1,1952,687,0,0
735,337,0,0,0,0,0,0,0,0,0,-1,1959,687,0,0
742,337,0,0,0,0,0,0,0,0,0,-1,1966,687,0,0
749,337,0,0,0,0,0,0,0,0,0,-1,1973,687,0,0
756,337,0,0,0,0,0,0,0,0,0,-1,1980,687,0,0
763,337,0,0,0,0,0,0,0,0,0,-1,1987,687,0,0
770,337,0,0,0,0,0,0,0,0,0,-1,1994,687,0,0
777,337,0,0,0,0,0,0,0,0,0,-1,2001,687,0,0
784,337,0,0,0,0,0,0,0,0,0,-1,2008,687,0,0
791,337,0,0,0,0,0,0,0,0,0,-1,2015,687,0,0
798,337,0,0,0,0,0,0,0,0,0,-1,2022,687,0,0
805,337,0,0,0,0,0,0,0,0,0,-1,2029,687,0,0
812,337,0,0,0,0,0,0,0,0,0,-1,2036,687,0,0
-700,330,0,0,0,0,0,0,0,0,0,-1,524,694,0,0
-693,330,0,0,0,0,0,0,0,0,0,-1,531,694,0,0
-686,330,0,0,0,0,0,0,0,0,0,-1,538,694,0,0
-679,330,0,0,0,0,0,0,0,0,0,-1,545,694,0,0
-672,330,0,0,0,0,0,0,0,0,0,-1,552,694,0,0
-665,330,0,0,0,0,0,0,0,0,0,-1,559,694,0,0
-658,330,0,0,0,0,0,0,0,0,0,-1,566,694,0,0
-651,330,0,0,0,0,0,0,0,0,0,-1,573,694,0,0
-644,330,0,0,0,0,0,0,0,0,0,-1,580,694,0,0
-637,330,0,0,0,0,0,0,0,0,0,-1,587,694,0,0
-630,330,0,0,0,0,0,0,0,0,0,-1,594,694,0,0
-623,330,0,0,0,0,0,0,0,0,0,-1,601,694,0,0
-616,330,0,0,0,0,0,0,0,0,0,-1,608,694,0,0
-609,330,0,0,0,0,0,0,0,0,0,-1,615,694,0,0
-602,330,0,0,0,0,0,0,0,0,0,-1,622,694,0,0
-595,330,-4.67883,1.65515,0,0,0,0,0,0,0,-1,629,694,-4.67881,-1.65515
-588,330,-8.5047,2.67346,0,0,0,0,0,0,0,-1,636,694,-8.50469,-2.67348
-581,330,-12.4227,0.947083,0,0,0,0,0,0,0,-1,643,694,-12.4227,-0.947109
-574,330,-9.02118,1.87952,0,0,0,0,0,0,0,-1,650,694,-9.02115,-1.87953
-567,330,-8.35577,0.909973,0,0,0,0,0,0,0,-1,657,694,-8.35575,-0.909945
-560,330,-8.81494,0.824646,0,0,0,0,0,0,0,-1,664,694,-8.81495,-0.824664
-553,330,-8.60907,0.508545,0.00470849,0.0168765,-0.016867,0.0287232,-0.00713828,-0.958487,0.0219192,0.0419519,671,694,-8.60909,-0.508541
-546,330,-8.47247,0.102234,0.00483675,0.0131268,-0.0138067,0.0233973,-0.00543374,-0.931226,0.0176898,0.0270553,678,694,-8.47245,-0.102242
-539,330,-8.48901,-0.261963,0.00452361,0.00994564,-0.0109331,0.0184988,-0.00402958,-0.906929,0.0138722,0.012927,685,694,-8.48902,0.261988
-532,330,-8.5769,-0.558167,0.00397502,0.00722213,-0.00830696,0.0140627,-0.00286556,-0.881904,0.010462,0.0104755,692,694,-8.5769,0.558167
-525,330,-8.56531,-0.914246,0.00335827,0.00500211,-0.00601021,0.0102463,-0.00188596,-0.853354,0.00753859,0.0107704,699,694,-8.56533,0.914265
-518,330,-8.56329,-1.21997,0.00275459,0.00320392,-0.00407261,0.00705806,-0.00109955,-0.812953,0.00511146,0.0149474,706,694,-8.56332,1.21997
-511,330,-8.61023,-1.57111,0.00234057,0.00185823,-0.00256869,0.00467938,-0.000480584,-0.738591,0.0032915,0.019843,713,694,-8.61024,1.57112
-504,330,-8.60077,-1.89935,0.00229425,0.000915226,-0.00139902,0.00316444,4.50296e-05,-0.556442,0.00209478,0.0171706,720,694,-8.60076,1.89937
-497,330,-8.5694,-2.1936,0.00303636,0.000602046,-0.000541958,0.00315157,0.000486841,-0.209455,0.00195903,0.0122504,727,694,-8.56941,2.19358
-490,330,-8.57263,-2.53619,0.00426997,0.000935502,-0.000288042,0.00429467,0.000910803,-0.0855388,0.00261297,0.0123375,734,694,-8.57262,2.53617
-483,330,-8.56903,-2.87683,0.00669471,0.00190443,-0.000446335,0.00673595,0.0018632,-0.0921186,0.0040163,0.011933,741,694,-8.56902,2.87682
-476,330,-8.57587,-3.17786,0.0104704,0.00356421,-0.000817976,0.010566,0.00346865,-0.116297,0.00621902,0.0254369,748,694,-8.57585,3.17789
-469,330,-8.44885,-3.56879,0,0,0,0,0,0,0,-1,755,694,-8.44884,3.56878
-462,330,-7.26733,-3.84833,0,0,0,0,0,0,0,-1,762,694,-7.26731,3.84832
-455,330,-5.04254,-1.79303,0,0,0,0,0,0,0,-1,769,694,-5.04252,1.79305
-448,330,-4.89886,-1.66156,0,0,0,0,0,0,0,-1,776,694,-4.89886,1.66157
-441,330,-5.30676,-2.34045,0,0,0,0,0,0,0,-1,783,694,-5.30679,2.34048
-434,330,-7.20428,1.00024,0,0,0,0,0,0,0,-1,790,694,-7.20431,-1.00027
-427,330,-16.0428,2.89258,0,0,0,0,0,0,0,-1,797,694,-16.0428,-2.89259
-420,330,-15.2923,3.32672,0,0,0,0,0,0,0,-1,804,694,-15.2923,-3.32675
-413,330,-10.4567,2.56183,0,0,0,0,0,0,0,-1,811,694,-10.4567,-2.56182
-406,330,-1.65375,-1.74371,0,0,0,0,0,0,0,-1,818,694,-1.65375,1.74371
-399,330,0,0,0,0,0,0,0,0,0,-1,825,694,0,0
-392,330,0,0,0,0,0,0,0,0,0,-1,832,694,0,0
-385,330,0,0,0,0,0,0,0,0,0,-1,839,694,0,0
-378,330,0,0,0,0,0,0,0,0,0,-1,846,694,0,0
-371,330,0,0,0,0,0,0,0,0,0,-1,853,694,0,0
-364,330,0,0,0,0,0,0,0,0,0,-1,860,694,0,0
-357,330,0,0,0,0,0,0,0,0,0,-1,867,694,0,0
-350,330,0,0,0,0,0,0,0,0,0,-1,874,694,0,0
-343,330,0,0,0,0,0,0,0,0,0,-1,881,694,0,0
-336,330,0,0,0,0,0,0,0,0,0,-1,888,694,0,0
-329,330,0,0,0,0,0,0,0,0,0,-1,895,694,0,0
-322,330,0,0,0,0,0,0,0,0,0,-1,902,694,0,0
-315,330,0,0,0,0,0,0,0,0,0,-1,909,694,0,0
-308,330,0,0,0,0,0,0,0,0,0,-1,916,694,0,0
-301,330,0,0,0,0,0,0,0,0,0,-1,923,694,0,0
-294,330,0,0,0,0,0,0,0,0,0,-1,930,694,0,0
-287,330,0,0,0,0,0,0,0,0,0,-1,937,694,0,0
-280,330,0,0,0,0,0,0,0,0,0,-1,944,694,0,0
-273,330,0,0,0,0,0,0,0,0,0,-1,951,694,0,0
-266,330,0,0,0,0,0,0,0,0,0,-1,958,694,0,0
-259,330,0,0,0,0,0,0,0,0,0,-1,965,694,0,0
-252,330,0,0,0,0,0,0,0,0,0,-1,972,694,0,0
-245,330,0,0,0,0,0,0,0,0,0,-1,979,694,0,0
-238,330,0,0,0,0,0,0,0,0,0,-1,986,694,0,0
-231,330,0,0,0,0,0,0,0,0,0,-1,993,694,0,0
-224,330,0,0,0,0,0,0,0,0,0,-1,1000,694,0,0
-217,330,0,0,0,0,0,0,0,0,0,-1,1007,694,0,0
-210,330,0,0,0,0,0,0,0,0,0,-1,1014,694,0,0
-203,330,0,0,0,0,0,0,0,0,0,-1,1021,694,0,0
-196,330,0,0,0,0,0,0,0,0,0,-1,1028,694,0,0
-189,330,0,0,0,0,0,0,0,0,0,-1,1035,694,0,0
-182,330,0,0,0,0,0,0,0,0,0,-1,1042,694,0,0
-175,330,0,0,0,0,0,0,0,0,0,-1,1049,694,0,0
-168,330,0,0,0,0,0,0,0,0,0,-1,1056,694,0,0
-161,330,0,0,0,0,0,0,0,0,0,-1,1063,694,0,0
-154,330,0,0,0,0,0,0,0,0,0,-1,1070,694,0,0
-147,330,0,0,0,0,0,0,0,0,0,-1,1077,694,0,0
-140,330,0,0,0,0,0,0,0,0,0,-1,1084,694,0,0
-133,330,0,0,0,0,0,0,0,0,0,-1,1091,694,0,0
-126,330,0,0,0,0,0,0,0,0,0,-1,1098,694,0,0
-119,330,0,0,0,0,0,0,0,0,0,-1,1105,694,0,0
-112,330,0,0,0,0,0,0,0,0,0,-1,1112,694,0,0
-105,330,0,0,0,0,0,0,0,0,0,-1,1119,694,0,0
-98,330,0,0,0,0,0,0,0,0,0,-1,1126,694,0,0
-91,330,0,0,0,0,0,0,0,0,0,-1,1133,694,0,0
-84,330,0,0,0,0,0,0,0,0,0,-1,1140,694,0,0
-77,330,0,0,0,0,0,0,0,0,0,-1,1147,694,0,0
-70,330,0,0,0,0,0,0,0,0,0,-1,1154,694,0,0
-63,330,0,0,0,0,0,0,0,0,0,-1,1161,694,0,0
-56,330,0,0,0,0,0,0,0,0,0,-1,1168,694,0,0
-49,330,0,0,0,0,0,0,0,0,0,-1,1175,694,0,0
-42,330,0,0,0,0,0,0,0,0,0,-1,1182,694,0,0
-35,330,0,0,0,0,0,0,0,0,0,-1,1189,694,0,0
-28,330,0,0,0,0,0,0,0,0,0,-1,1196,694,0,0
-21,330,0,0,0,0,0,0,0,0,0,-1,1203,694,0,0
-14,330,0,0,0,0,0,0,0,0,0,-1,1210,694,0,0
-7,330,0,0,0,0,0,0,0,0,0,-1,1217,694,0,0
0,330,0,0,0,0,0,0,0,0,0,-1,1224,694,0,0
7,330,0,0,0,0,0,0,0,0,0,-1,1231,694,0,0
14,330,0,0,0,0,0,0,0,0,0,-1,1238,694,0,0
21,330,0,0,0,0,0,0,0,0,0,-1,1245,694,0,0
28,330,0,0,0,0,0,0,0,0,0,-1,1252,694,0,0
35,330,0,0,0,0,0,0,0,0,0,-1,1259,694,0,0
42,330,0,0,0,0,0,0,0,0,0,-1,1266,694,0,0
49,330,0,0,0,0,0,0,0,0,0,-1,1273,694,0,0
56,330,0,0,0,0,0,0,0,0,0,-1,1280,694,0,0
63,330,0,0,0,0,0,0,0,0,0,-1,1287,694,0,0
70,330,0,0,0,0,0,0,0,0,0,-1,1294,694,0,0
77,330,0,0,0,0,0,0,0,0,0,-1,1301,694,0,0
84,330,0,0,0,0,0,0,0,0,0,-1,1308,694,0,0
91,330,0,0,0,0,0,0,0,0,0,-1,1315,694,0,0
98,330,0,0,0,0,0,0,0,0,0,-1,1322,694,0,0
105,330,0,0,0,0,0,0,0,0,0,-1,1329,694,0,0
112,330,0,0,0,0,0,0,0,0,0,-1,1336,694,0,0
119,330,0,0,0,0,0,0,0,0,0,-1,1343,694,0,0
126,330,0,0,0,0,0,0,0,0,0,-1,1350,694,0,0
133,330,0,0,0,0,0,0,0,0,0,-1,1357,694,0,0
140,330,0,0,0,0,0,0,0,0,0,-1,1364,694,0,0
147,330,0,0,0,0,0,0,0,0,0,-1,1371,694,0,0
154,330,0,0,0,0,0,0,0,0,0,-1,1378,694,0,0
161,330,0,0,0,0,0,0,0,0,0,-1,1385,694,0,0
168,330,0,0,0,0,0,0,0,0,0,-1,1392,694,0,0
175,330,0,0,0,0,0,0,0,0,0,-1,1399,694,0,0
182,330,0,0,0,0,0,0,0,0,0,-1,1406,694,0,0
189,330,0,0,0,0,0,0,0,0,0,-1,1413,694,0,0
196,330,0,0,0,0,0,0,0,0,0,-1,1420,694,0,0
203,330,0,0,0,0,0,0,0,0,0,-1,1427,694,0,0
210,330,0,0,0,0,0,0,0,0,0,-1,1434,694,0,0
217,330,0,0,0,0,0,0,0,0,0,-1,1441,694,0,0
224,330,0,0,0,0,0,0,0,0,0,-1,1448,694,0,0
231,330,0,0,0,0,0,0,0,0,0,-1,1455,694,0,0
238,330,0,0,0,0,0,0,0,0,0,-1,1462,694,0,0
245,330,0,0,0,0,0,0,0,0,0,-1,1469,694,0,0
252,330,0,0,0,0,0,0,0,0,0,-1,1476,694,0,0
259,330,0,0,0,0,0,0,0,0,0,-1,1483,694,0,0
266,330,0,0,0,0,0,0,0,0,0,-1,1490,694,0,0
273,330,0,0,0,0,0,0,0,0,0,-1,1497,694,0,0
280,330,0,0,0,0,0,0,0,0,0,-1,1504,694,0,0
287,330,0,0,0,0,0,0,0,0,0,-1,1511,694,0,0
294,330,0,0,0,0,0,0,0,0,0,-1,1518,694,0,0
301,330,0,0,0,0,0,0,0,0,0,-1,1525,694,0,0
308,330,0,0,0,0,0,0,0,0,0,-1,1532,694,0,0
315,330,0,0,0,0,0,0,0,0,0,-1,1539,694,0,0
322,330,0,0,0,0,0,0,0,0,0,-1,1546,694,0,0
329,330,0,0,0,0,0,0,0,0,0,-1,1553,694,0,0
336,330,0,0,0,0,0,0,0,0,0,-1,1560,694,0,0
343,330,0,0,0,0,0,0,0,0,0,-1,1567,694,0,0
350,330,0,0,0,0,0,0,0,0,0,-1,1574,694,0,0
357,330,0,0,0,0,0,0,0,0,0,-1,1581,694,0,0
364,330,0,0,0,0,0,0,0,0,0,-1,1588,694,0,0
371,330,0,0,0,0,0,0,0,0,0,-1,1595,694,0,0
378,330,0,0,0,0,0,0,0,0,0,-1,1602,694,0,0
385,330,0,0,0,0,0,0,0,0,0,-1,1609,694,0,0
392,330,0,0,0,0,0,0,0,0,0,-1,1616,694,0,0
399,330,0,0,0,0,0,0,0,0,0,-1,1623,694,0,0
406,330,0,0,0,0,0,0,0,0,0,-1,1630,694,0,0
413,330,0,0,0,0,0,0,0,0,0,-1,1637,694,0,0
420,330,0,0,0,0,0,0,0,0,0,-1,1644,694,0,0
427,330,0,0,0,0,0,0,0,0,0,-1,1651,694,0,0
434,330,0,0,0,0,0,0,0,0,0,-1,1658,694,0,0
441,330,0,0,0,0,0,0,0,0,0,-1,1665,694,0,0
448,330,0,0,0,0,0,0,0,0,0,-1,1672,694,0,0
455,330,0,0,0,0,0,0,0,0,0,-1,1679,694,0,0
462,330,0,0,0,0,0,0,0,0,0,-1,1686,694,0,0
469,330,0,0,0,0,0,0,0,0,0,-1,1693,694,0,0
476,330,0,0,0,0,0,0,0,0,0,-1,1700,694,0,0
483,330,0,0,0,0,0,0,0,0,0,-1,1707,694,0,0
490,330,0,0,0,0,0,0,0,0,0,-1,1714,694,0,0
497,330,0,0,0,0,0,0,0,0,0,-1,1721,694,0,0
504,330,0,0,0,0,0,0,0,0,0,-1,1728,694,0,0
511,330,0,0,0,0,0,0,0,0,0,-1,1735,694,0,0
518,330,0,0,0,0,0,0,0,0,0,-1,1742,694,0,0
525,330,21.8806,2.67316,0,0,0,0,0,0,0,-1,1749,694,21.8806,-2.67316
532,330,21.4119,3.82379,0,0,0,0,0,0,0,-1,1756,694,21.4118,-3.82381
539,330,22.2223,4.29657,0,0,0,0,0,0,0,-1,1763,694,22.2223,-4.2966
546,330,23.2045,4.75311,0,0,0,0,0,0,0,-1,1770,694,23.2044,-4.7531
553,330,19.3512,3.78687,0,0,0,0,0,0,0,-1,1777,694,19.3512,-3.78684
560,330,31.0944,1.66516,0,0,0,0,0,0,0,-1,1784,694,31.0943,-1.66516
567,330,18.0321,3.98578,0,0,0,0,0,0,0,-1,1791,694,18.0321,-3.98576
574,330,12.0454,2.1662,0,0,0,0,0,0,0,-1,1798,694,12.0455,-2.16618
581,330,11.4215,4.50836,0,0,0,0,0,0,0,-1,1805,694,11.4215,-4.50837
588,330,6.45667,-0.0630493,0,0,0,0,0,0,0,-1,1812,694,6.45661,0.0630695
595,330,8.23193,-0.258484,0,0,0,0,0,0,0,-1,1819,694,8.23188,0.258459
602,330,15.2153,-1.50653,0,0,0,0,0,0,0,-1,1826,694,15.2153,1.5065
609,330,15.4507,-1.00281,-0.00137319,0.00373919,-0.000343101,0.00376212,-0.00139611,-1.50408,0.00308076,0.0404565,1833,694,15.4506,1.0028
616,330,15.5577,-0.629395,-0.000112896,0.00232114,1.89458e-05,0.00232129,-0.000113044,1.56301,0.00158655,0.0123021,1840,694,15.5578,0.629393
623,330,15.573,-0.292053,0.000305148,0.00132917,0.000103194,0.00133946,0.000294853,1.47135,0.00081272,0.0132898,1847,694,15.5729,0.292044
630,330,15.5765,0.0568848,0.000231697,0.000576193,-1.75106e-05,0.000577081,0.000230809,-1.52014,0.000335393,0.0140332,1854,694,15.5766,-0.0569012
637,330,15.5922,0.39502,-0.000210595,2.02298e-05,-0.000287025,0.000214177,-0.000404543,-0.976555,0.00036281,0.0124207,1861,694,15.5921,-0.394991
644,330,15.5647,0.731384,-0.00115458,-0.000392092,-0.000781544,9.62387e-05,-0.00164291,-1.01232,0.00112872,0.00773128,1868,694,15.5648,-0.731387
651,330,15.558,1.07782,-0.00237516,-0.000777642,-0.00137746,1.58972e-05,-0.0031687,-1.04814,0.00211779,0.0106219,1875,694,15.558,-1.07781
658,330,15.5542,1.41449,-0.00381684,-0.000885947,-0.00201417,0.00013947,-0.00484226,-1.09989,0.00327565,0.0113056,1882,694,15.5543,-1.4145
665,330,15.5392,1.76825,-0.00552003,-0.0010151,-0.00275323,0.000289662,-0.00682479,-1.12824,0.00464942,0.010757,1889,694,15.5391,-1.76825
672,330,15.5537,2.12512,-0.00748023,-0.00101273,-0.00354239,0.000549946,-0.0090429,-1.15534,0.00622003,0.0160855,1896,694,15.5537,-2.1251
679,330,15.3652,2.43475,-0.00987442,-0.000896368,-0.00438361,0.000888948,-0.0116597,-1.18404,0.00808578,0.0294073,1903,694,15.3652,-2.43478
686,330,15.5295,2.79919,0,0,0,0,0,0,0,-1,1910,694,15.5295,-2.79921
693,330,15.7817,2.79913,0,0,0,0,0,0,0,-1,1917,694,15.7817,-2.79913
700,330,17.1072,4.13,0,0,0,0,0,0,0,-1,1924,694,17.1071,-4.13002
707,330,16.663,4.88672,0,0,0,0,0,0,0,-1,1931,694,16.6629,-4.88673
714,330,16.5454,5.80896,0,0,0,0,0,0,0,-1,1938,694,16.5454,-5.80899
721,330,0,0,0,0,0,0,0,0,0,-1,1945,694,0,0
728,330,0,0,0,0,0,0,0,0,0,-1,1952,694,0,0
735,330,0,0,0,0,0,0,0,0,0,-1,1959,694,0,0
742,330,0,0,0,0,0,0,0,0,0,-1,1966,694,0,0
749,330,0,0,0,0,0,0,0,0,0,-1,1973,694,0,0
756,330,0,0,0,0,0,0,0,0,0,-1,1980,694,0,0
763,330,0,0,0,0,0,0,0,0,0,-1,1987,694,0,0
770,330,0,0,0,0,0,0,0,0,0,-1,1994,694,0,0
777,330,0,0,0,0,0,0,0,0,0,-1,2001,694,0,0
784,330,0,0,0,0,0,0,0,0,0,-1,2008,694,0,0
791,330,0,0,0,0,0,0,0,0,0,-1,2015,694,0,0
798,330,0,0,0,0,0,0,0,0,0,-1,2022,694,0,0
805,330,0,0,0,0,0,0,0,0,0,-1,2029,694,0,0
812,330,0,0,0,0,0,0,0,0,0,-1,2036,694,0,0
-700,323,0,0,0,0,0,0,0,0,0,-1,524,701,0,0
-693,323,0,0,0,0,0,0,0,0,0,-1,531,701,0,0
-686,323,0,0,0,0,0,0,0,0,0,-1,538,701,0,0
-679,323,0,0,0,0,0,0,0,0,0,-1,545,701,0,0
-672,323,0,0,0,0,0,0,0,0,0,-1,552,701,0,0
-665,323,0,0,0,0,0,0,0,0,0,-1,559,701,0,0
-658,323,0,0,0,0,0,0,0,0,0,-1,566,701,0,0
-651,323,0,0,0,0,0,0,0,0,0,-1,573,701,0,0
-644,323,0,0,0,0,0,0,0,0,0,-1,580,701,0,0
-637,323,0,0,0,0,0,0,0,0,0,-1,587,701,0,0
-630,323,0,0,0,0,0,0,0,0,0,-1,594,701,0,0
-623,323,0,0,0,0,0,0,0,0,0,-1,601,701,0,0
-616,323,0,0,0,0,0,0,0,0,0,-1,608,701,0,0
-609,323,0,0,0,0,0,0,0,0,0,-1,615,701,0,0
-602,323,-4.15833,2.12256,0,0,0,0,0,0,0,-1,622,701,-4.1583,-2.12257
-595,323,-4.052,1.79156,0,0,0,0,0,0,0,-1,629,701,-4.05198,-1.79158
-588,323,-4.07019,1.94543,0,0,0,0,0,0,0,-1,636,701,-4.07019,-1.94542
-581,323,-6.63727,0.562805,0,0,0,0,0,0,0,-1,643,701,-6.63728,-0.56279
-574,323,-6.15887,0.426697,0,0,0,0,0,0,0,-1,650,701,-6.15887,-0.426727
-567,323,-8.20746,0.122803,0,0,0,0,0,0,0,-1,657,701,-8.20745,-0.122813
-560,323,-9.07526,0.598267,0,0,0,0,0,0,0,-1,664,701,-9.07526,-0.598281
-553,323,-8.90161,0.279175,0.00211859,0.0124588,-0.010927,0.0193771,-0.00479967,-1.00637,0.01478,0.0351447,671,701,-8.90161,-0.279169
-546,323,-8.85046,0.0380859,0.00180587,0.010164,-0.00923252,0.0161192,-0.00414937,-0.997924,0.0123636,0.0133636,678,701,-8.85045,-0.0380884
-539,323,-8.86084,-0.234741,0.00216341,0.00775686,-0.00742766,0.0128969,-0.00297661,-0.965453,0.00974288,0.0118683,685,701,-8.86083,0.234746
-532,323,-8.87299,-0.565796,0.00223476,0.00558361,-0.00567552,0.00982655,-0.00200818,-0.928842,0.00731292,0.00939707,692,701,-8.87301,0.565799
-525,323,-8.87708,-0.893494,0.00211919,0.00374531,-0.00406166,0.00707449,-0.00120999,-0.884182,0.0051671,0.00764031,699,701,-8.87708,0.893466
-518,323,-8.88184,-1.19812,0.00184425,0.00213443,-0.00261291,0.00460627,-0.000627594,-0.813134,0.0033,0.0102273,706,701,-8.88184,1.1981
-511,323,-8.9032,-1.52728,0.00154846,0.000891705,-0.00142918,0.0026865,-0.000246334,-0.672475,0.0018785,0.0137694,713,701,-8.90318,1.5273
-504,323,-8.92041,-1.85779,0.00144761,0.0001041,-0.000468985,0.00159512,-4.34138e-05,-0.304741,0.00107818,0.0134441,720,701,-8.92043,1.85777
-497,323,-8.90918,-2.1701,0.00215894,0.000472369,0.000409177,0.00225296,0.000378341,0.225876,0.00139309,0.0111291,727,701,-8.90919,2.17013
-490,323,-8.92346,-2.51886,0.00296306,0.00130839,0.000874137,0.0033393,0.000932146,0.406449,0.00198965,0.0129681,734,701,-8.92347,2.51884
-483,323,-8.9082,-2.84418,0.00462497,0.00315306,0.00111509,0.00522507,0.00255296,0.493713,0.00301696,0.0190176,741,701,-8.90823,2.84415
-476,323,-8.7757,-3.19122,0.00723078,0.00613951,0.00131277,0.00810679,0.0052635,0.588442,0.00474947,0.0492515,748,701,-8.7757,3.19121
-469,323,-8.33301,-3.64001,0,0,0,0,0,0,0,-1,755,701,-8.33298,3.64
-462,323,-5.29431,-1.45697,0,0,0,0,0,0,0,-1,762,701,-5.29431,1.45699
-455,323,-5.0658,-1.36639,0,0,0,0,0,0,0,-1,769,701,-5.06578,1.3664
-448,323,-4.91608,-1.59601,0,0,0,0,0,0,0,-1,776,701,-4.91606,1.59604
-441,323,-14.4006,0.535217,0,0,0,0,0,0,0,-1,783,701,-14.4006,-0.535203
-434,323,-15.3158,2.479,0,0,0,0,0,0,0,-1,790,701,-15.3158,-2.47898
-427,323,-15.4075,2.98248,0,0,0,0,0,0,0,-1,797,701,-15.4075,-2.98248
-420,323,-14.8839,3.49579,0,0,0,0,0,0,0,-1,804,701,-14.8839,-3.49579
-413,323,-14.0645,4.22607,0,0,0,0,0,0,0,-1,811,701,-14.0645,-4.22605
-406,323,0,0,0,0,0,0,0,0,0,-1,818,701,0,0
-399,323,0,0,0,0,0,0,0,0,0,-1,825,701,0,0
-392,323,0,0,0,0,0,0,0,0,0,-1,832,701,0,0
-385,323,0,0,0,0,0,0,0,0,0,-1,839,701,0,0
-378,323,0,0,0,0,0,0,0,0,0,-1,846,701,0,0
-371,323,0,0,0,0,0,0,0,0,0,-1,853,701,0,0
-364,323,0,0,0,0,0,0,0,0,0,-1,860,701,0,0
-357,323,0,0,0,0,0,0,0,0,0,-1,867,701,0,0
-350,323,0,0,0,0,0,0,0,0,0,-1,874,701,0,0
-343,323,0,0,0,0,0,0,0,0,0,-1,881,701,0,0
-336,323,0,0,0,0,0,0,0,0,0,-1,888,701,0,0
-329,323,0,0,0,0,0,0,0,0,0,-1,895,701,0,0
-322,323,0,0,0,0,0,0,0,0,0,-1,902,701,0,0
-315,323,0,0,0,0,0,0,0,0,0,-1,909,701,0,0
-308,323,0,0,0,0,0,0,0,0,0,-1,916,701,0,0
-301,323,0,0,0,0,0,0,0,0,0,-1,923,701,0,0
-294,323,0,0,0,0,0,0,0,0,0,-1,930,701,0,0
-287,323,0,0,0,0,0,0,0,0,0,-1,937,701,0,0
-280,323,0,0,0,0,0,0,0,0,0,-1,944,701,0,0
-273,323,0,0,0,0,0,0,0,0,0,-1,951,701,0,0
-266,323,0,0,0,0,0,0,0,0,0,-1,958,701,0,0
-259,323,0,0,0,0,0,0,0,0,0,-1,965,701,0,0
-252,323,0,0,0,0,0,0,0,0,0,-1,972,701,0,0
-245,323,0,0,0,0,0,0,0,0,0,-1,979,701,0,0
-238,323,0,0,0,0,0,0,0,0,0,-1,986,701,0,0
-231,323,0,0,0,0,0,0,0,0,0,-1,993,701,0,0
-224,323,0,0,0,0,0,0,0,0,0,-1,1000,701,0,0
-217,323,0,0,0,0,0,0,0,0,0,-1,1007,701,0,0
-210,323,0,0,0,0,0,0,0,0,0,-1,1014,701,0,0
-203,323,0,0,0,0,0,0,0,0,0,-1,1021,701,0,0
-196,323,0,0,0,0,0,0,0,0,0,-1,1028,701,0,0
-189,323,0,0,0,0,0,0,0,0,0,-1,1035,701,0,0
-182,323,0,0,0,0,0,0,0,0,0,-1,1042,701,0,0
-175,323,0,0,0,0,0,0,0,0,0,-1,1049,701,0,0
-168,323,0,0,0,0,0,0,0,0,0,-1,1056,701,0,0
-161,323,0,0,0,0,0,0,0,0,0,-1,1063,701,0,0
-154,323,0,0,0,0,0,0,0,0,0,-1,1070,701,0,0
-147,323,0,0,0,0,0,0,0,0,0,-1,1077,701,0,0
-140,323,0,0,0,0,0,0,0,0,0,-1,1084,701,0,0
-133,323,0,0,0,0,0,0,0,0,0,-1,1091,701,0,0
-126,323,0,0,0,0,0,0,0,0,0,-1,1098,701,0,0
-119,323,0,0,0,0,0,0,0,0,0,-1,1105,701,0,0
-112,323,0,0,0,0,0,0,0,0,0,-1,1112,701,0,0
-105,323,0,0,0,0,0,0,0,0,0,-1,1119,701,0,0
-98,323,0,0,0,0,0,0,0,0,0,-1,1126,701,0,0
-91,323,0,0,0,0,0,0,0,0,0,-1,1133,701,0,0
-84,323,0,0,0,0,0,0,0,0,0,-1,1140,701,0,0
-77,323,0,0,0,0,0,0,0,0,0,-1,1147,701,0,0
-70,323,0,0,0,0,0,0,0,0,0,-1,1154,701,0,0
-63,323,0,0,0,0,0,0,0,0,0,-1,1161,701,0,0
-56,323,0,0,0,0,0,0,0,0,0,-1,1168,701,0,0
-49,323,0,0,0,0,0,0,0,0,0,-1,1175,701,0,0
-42,323,0,0,0,0,0,0,0,0,0,-1,1182,701,0,0
-35,323,0,0,0,0,0,0,0,0,0,-1,1189,701,0,0
-28,323,0,0,0,0,0,0,0,0,0,-1,1196,701,0,0
-21,323,0,0,0,0,0,0,0,0,0,-1,1203,701,0,0
-14,323,0,0,0,0,0,0,0,0,0,-1,1210,701,0,0
-7,323,0,0,0,0,0,0,0,0,0,-1,1217,701,0,0
0,323,0,0,0,0,0,0,0,0,0,-1,1224,701,0,0
7,323,0,0,0,0,0,0,0,0,0,-1,1231,701,0,0
14,323,0,0,0,0,0,0,0,0,0,-1,1238,701,0,0
21,323,0,0,0,0,0,0,0,0,0,-1,1245,701,0,0
28,323,0,0,0,0,0,0,0,0,0,-1,1252,701,0,0
35,323,0,0,0,0,0,0,0,0,0,-1,1259,701,0,0
42,323,0,0,0,0,0,0,0,0,0,-1,1266,701,0,0
49,323,0,0,0,0,0,0,0,0,0,-1,1273,701,0,0
56,323,0,0,0,0,0,0,0,0,0,-1,1280,701,0,0
63,323,0,0,0,0,0,0,0,0,0,-1,1287,701,0,0
70,323,0,0,0,0,0,0,0,0,0,-1,1294,701,0,0
77,323,0,0,0,0,0,0,0,0,0,-1,1301,701,0,0
84,323,0,0,0,0,0,0,0,0,0,-1,1308,701,0,0
91,323,0,0,0,0,0,0,0,0,0,-1,1315,701,0,0
98,323,0,0,0,0,0,0,0,0,0,-1,1322,701,0,0
105,323,0,0,0,0,0,0,0,0,0,-1,1329,701,0,0
112,323,0,0,0,0,0,0,0,0,0,-1,1336,701,0,0
119,323,0,0,0,0,0,0,0,0,0,-1,1343,701,0,0
126,323,0,0,0,0,0,0,0,0,0,-1,1350,701,0,0
133,323,0,0,0,0,0,0,0,0,0,-1,1357,701,0,0
140,323,0,0,0,0,0,0,0,0,0,-1,1364,701,0,0
147,323,0,0,0,0,0,0,0,0,0,-1,1371,701,0,0
154,323,0,0,0,0,0,0,0,0,0,-1,1378,701,0,0
161,323,0,0,0,0,0,0,0,0,0,-1,1385,701,0,0
168,323,0,0,0,0,0,0,0,0,0,-1,1392,701,0,0
175,323,0,0,0,0,0,0,0,0,0,-1,1399,701,0,0
182,323,0,0,0,0,0,0,0,0,0,-1,1406,701,0,0
189,323,0,0,0,0,0,0,0,0,0,-1,1413,701,0,0
196,323,0,0,0,0,0,0,0,0,0,-1,1420,701,0,0
203,323,0,0,0,0,0,0,0,0,0,-1,1427,701,0,0
210,323,0,0,0,0,0,0,0,0,0,-1,1434,701,0,0
217,323,0,0,0,0,0,0,0,0,0,-1,1441,701,0,0
224,323,0,0,0,0,0,0,0,0,0,-1,1448,701,0,0
231,323,0,0,0,0,0,0,0,0,0,-1,1455,701,0,0
238,323,0,0,0,0,0,0,0,0,0,-1,1462,701,0,0
245,323,0,0,0,0,0,0,0,0,0,-1,1469,701,0,0
252,323,0,0,0,0,0,0,0,0,0,-1,1476,701,0,0
259,323,0,0,0,0,0,0,0,0,0,-1,1483,701,0,0
266,323,0,0,0,0,0,0,0,0,0,-1,1490,701,0,0
273,323,0,0,0,0,0,0,0,0,0,-1,1497,701,0,0
280,323,0,0,0,0,0,0,0,0,0,-1,1504,701,0,0
287,323,0,0,0,0,0,0,0,0,0,-1,1511,701,0,0
294,323,0,0,0,0,0,0,0,0,0,-1,1518,701,0,0
301,323,0,0,0,0,0,0,0,0,0,-1,1525,701,0,0
308,323,0,0,0,0,0,0,0,0,0,-1,1532,701,0,0
315,323,0,0,0,0,0,0,0,0,0,-1,1539,701,0,0
322,323,0,0,0,0,0,0,0,0,0,-1,1546,701,0,0
329,323,0,0,0,0,0,0,0,0,0,-1,1553,701,0,0
336,323,0,0,0,0,0,0,0,0,0,-1,1560,701,0,0
343,323,0,0,0,0,0,0,0,0,0,-1,1567,701,0,0
350,323,0,0,0,0,0,0,0,0,0,-1,1574,701,0,0
357,323,0,0,0,0,0,0,0,0,0,-1,1581,701,0,0
364,323,0,0,0,0,0,0,0,0,0,-1,1588,701,0,0
371,323,0,0,0,0,0,0,0,0,0,-1,1595,701,0,0
378,323,0,0,0,0,0,0,0,0,0,-1,1602,701,0,0
385,323,0,0,0,0,0,0,0,0,0,-1,1609,701,0,0
392,323,0,0,0,0,0,0,0,0,0,-1,1616,701,0,0
399,323,0,0,0,0,0,0,0,0,0,-1,1623,701,0,0
406,323,0,0,0,0,0,0,0,0,0,-1,1630,701,0,0
413,323,0,0,0,0,0,0,0,0,0,-1,1637,701,0,0
420,323,0,0,0,0,0,0,0,0,0,-1,1644,701,0,0
427,323,0,0,0,0,0,0,0,0,0,-1,1651,701,0,0
434,323,0,0,0,0,0,0,0,0,0,-1,1658,701,0,0
441,323,0,0,0,0,0,0,0,0,0,-1,1665,701,0,0
448,323,0,0,0,0,0,0,0,0,0,-1,1672,701,0,0
455,323,0,0,0,0,0,0,0,0,0,-1,1679,701,0,0
462,323,0,0,0,0,0,0,0,0,0,-1,1686,701,0,0
469,323,0,0,0,0,0,0,0,0,0,-1,1693,701,0,0
476,323,0,0,0,0,0,0,0,0,0,-1,1700,701,0,0
483,323,0,0,0,0,0,0,0,0,0,-1,1707,701,0,0
490,323,0,0,0,0,0,0,0,0,0,-1,1714,701,0,0
497,323,0,0,0,0,0,0,0,0,0,-1,1721,701,0,0
504,323,0,0,0,0,0,0,0,0,0,-1,1728,701,0,0
511,323,0,0,0,0,0,0,0,0,0,-1,1735,701,0,0
518,323,0,0,0,0,0,0,0,0,0,-1,1742,701,0,0
525,323,0,0,0,0,0,0,0,0,0,-1,1749,701,0,0
532,323,22.2468,2.71307,0,0,0,0,0,0,0,-1,1756,701,22.2468,-2.71308
539,323,22.6949,3.42468,0,0,0,0,0,0,0,-1,1763,701,22.6949,-3.4247
546,323,23.5679,4.21869,0,0,0,0,0,0,0,-1,1770,701,23.5679,-4.21866
553,323,28.6703,3.07184,0,0,0,0,0,0,0,-1,1777,701,28.6703,-3.07183
560,323,30.0328,1.90747,0,0,0,0,0,0,0,-1,1784,701,30.0328,-1.9075
567,323,30.9888,1.33337,0,0,0,0,0,0,0,-1,1791,701,30.9888,-1.33339
574,323,12.514,5.89685,0,0,0,0,0,0,0,-1,1798,701,12.5141,-5.89683
581,323,11.821,5.3476,0,0,0,0,0,0,0,-1,1805,701,11.821,-5.34762
588,323,11.7933,7.00818,0,0,0,0,0,0,0,-1,1812,701,11.7933,-7.00819
595,323,6.67847,0.06604,0,0,0,0,0,0,0,-1,1819,701,6.67841,-0.0660418
602,323,11.2856,-0.595459,0,0,0,0,0,0,0,-1,1826,701,11.2856,0.595433
609,323,15.8666,-0.960754,0,0,0,0,0,0,0,-1,1833,701,15.8665,0.960781
616,323,15.9084,-0.613037,-0.00132034,0.00443647,-0.00065975,0.00451111,-0.00139498,-1.45814,0.00356458,0.015488,1840,701,15.9085,0.61303
623,323,15.9176,-0.262939,-0.000227219,0.00238562,-0.000260385,0.00241132,-0.000252915,-1.47243,0.00169814,0.0129995,1847,701,15.9177,0.262951
630,323,15.9064,0.0932007,0.000148237,0.00109665,-0.000168334,0.00112564,0.000119245,-1.40024,0.000714008,0.0142673,1854,701,15.9064,-0.0931801
637,323,15.9186,0.422852,-7.66721e-05,0.000344518,-0.000317831,0.000515193,-0.000247347,-1.07799,0.000449215,0.0108003,1861,701,15.9186,-0.422871
644,323,15.9069,0.759033,-0.00077065,-0.000140605,-0.000641049,0.000258643,-0.0011699,-1.01378,0.000878924,0.0073959,1868,701,15.9068,-0.759047
651,323,15.9037,1.10278,-0.00175645,-0.000573947,-0.00107152,5.86172e-05,-0.00238902,-1.03751,0.00161257,0.00885946,1875,701,15.9037,-1.10277
658,323,15.8717,1.45264,-0.00296262,-0.000499206,-0.00149249,0.000204189,-0.00366602,-1.13038,0.00251484,0.0122558,1882,701,15.8718,-1.45267
665,323,15.853,1.79889,-0.00436243,-0.00039252,-0.00198823,0.000431991,-0.00518694,-1.17769,0.00361058,0.0115382,1889,701,15.853,-1.79888
672,323,15.8685,2.15051,-0.00594099,-0.000103371,-0.002465,0.000798249,-0.00684261,-1.22014,0.00484977,0.0108609,1896,701,15.8685,-2.15054
679,323,15.8037,2.50165,-0.00777908,0.000405401,-0.00290538,0.00133189,-0.00870557,-1.2621,0.00629482,0.0206755,1903,701,15.8037,-2.50164
686,323,15.929,2.10742,0,0,0,0,0,0,0,-1,1910,701,15.929,-2.10742
693,323,15.3918,2.77374,0,0,0,0,0,0,0,-1,1917,701,15.3919,-2.77373
700,323,10.7705,0.828613,0,0,0,0,0,0,0,-1,1924,701,10.7705,-0.828591
707,323,16.9005,4.79193,0,0,0,0,0,0,0,-1,1931,701,16.9005,-4.7919
714,323,16.2346,6.25958,0,0,0,0,0,0,0,-1,1938,701,16.2346,-6.25956
721,323,0,0,0,0,0,0,0,0,0,-1,1945,701,0,0
728,323,0,0,0,0,0,0,0,0,0,-1,1952,701,0,0
735,323,0,0,0,0,0,0,0,0,0,-1,1959,701,0,0
742,323,0,0,0,0,0,0,0,0,0,-1,1966,701,0,0
749,323,0,0,0,0,0,0,0,0,0,-1,1973,701,0,0
756,323,0,0,0,0,0,0,0,0,0,-1,1980,701,0,0
763,323,0,0,0,0,0,0,0,0,0,-1,1987,701,0,0
770,323,0,0,0,0,0,0,0,0,0,-1,1994,701,0,0
777,323,0,0,0,0,0,0,0,0,0,-1,2001,701,0,0
784,323,0,0,0,0,0,0,0,0,0,-1,2008,701,0,0
791,323,0,0,0,0,0,0,0,0,0,-1,2015,701,0,0
798,323,0,0,0,0,0,0,0,0,0,-1,2022,701,0,0
805,323,0,0,0,0,0,0,0,0,0,-1,2029,701,0,0
812,323,0,0,0,0,0,0,0,0,0,-1,2036,701,0,0
-700,316,0,0,0,0,0,0,0,0,0,-1,524,708,0,0
-693,316,0,0,0,0,0,0,0,0,0,-1,531,708,0,0
-686,316,0,0,0,0,0,0,0,0,0,-1,538,708,0,0
-679,316,0,0,0,0,0,0,0,0,0,-1,545,708,0,0
-672,316,0,0,0,0,0,0,0,0,0,-1,552,708,0,0
-665,316,0,0,0,0,0,0,0,0,0,-1,559,708,0,0
-658,316,0,0,0,0,0,0,0,0,0,-1,566,708,0,0
-651,316,0,0,0,0,0,0,0,0,0,-1,573,708,0,0
-644,316,0,0,0,0,0,0,0,0,0,-1,580,708,0,0
-637,316,0,0,0,0,0,0,0,0,0,-1,587,708,0,0
-630,316,0,0,0,0,0,0,0,0,0,-1,594,708,0,0
-623,316,0,0,0,0,0,0,0,0,0,-1,601,708,0,0
-616,316,0,0,0,0,0,0,0,0,0,-1,608,708,0,0
-609,316,0,0,0,0,0,0,0,0,0,-1,615,708,0,0
-602,316,-0.451782,-0.0494995,0,0,0,0,0,0,0,-1,622,708,-0.451768,0.0495022
-595,316,-3.3761,2.17188,0,0,0,0,0,0,0,-1,629,708,-3.37609,-2.17189
-588,316,-5.00177,2.60675,0,0,0,0,0,0,0,-1,636,708,-5.00175,-2.60676
-581,316,-3.94653,0.393433,0,0,0,0,0,0,0,-1,643,708,-3.94655,-0.39342
-574,316,-7.51819,2.09735,0,0,0,0,0,0,0,-1,650,708,-7.51818,-2.09732
-567,316,-8.10114,0.959839,0,0,0,0,0,0,0,-1,657,708,-8.10115,-0.959834
-560,316,-8.54517,0.596069,0,0,0,0,0,0,0,-1,664,708,-8.54518,-0.596078
-553,316,-9.05713,0.327759,0.000966301,0.00881191,-0.00635158,0.0123544,-0.00257621,-1.06203,0.00921584,0.0336191,671,708,-9.05713,-0.327744
-546,316,-9.2251,0.102295,-0.000334501,0.0075753,-0.00558188,0.0104614,-0.00322056,-1.09361,0.00825976,0.0178492,678,708,-9.22511,-0.102285
-539,316,-9.18542,-0.247864,0.000377661,0.00572549,-0.00451993,0.0083032,-0.00220005,-1.0525,0.00639621,0.0121466,685,708,-9.18541,0.247866
-532,316,-9.20251,-0.56842,0.000797186,0.00394494,-0.00338737,0.00610621,-0.00136409,-1.00288,0.00459352,0.0101086,692,708,-9.20251,0.568401
-525,316,-9.20361,-0.875305,0.00100624,0.00236551,-0.0022163,0.00400404,-0.000632294,-0.934173,0.00290317,0.00877186,699,708,-9.20361,0.875304
-518,316,-9.19543,-1.19946,0.000981232,0.00089643,-0.00109892,0.00203857,-0.000160911,-0.766116,0.00141574,0.00952839,706,708,-9.19543,1.19946
-511,316,-9.21716,-1.52557,0.000759469,-0.000251795,-0.000140539,0.000778637,-0.000270963,-0.135552,0.000629172,0.0106314,713,708,-9.21715,1.52556
-504,316,-9.24139,-1.85181,0.000724499,-0.000931678,0.000709968,0.000987183,-0.00119436,0.354375,0.00126141,0.0132575,720,708,-9.24138,1.85181
-497,316,-9.22528,-2.15387,0.00170317,-9.02925e-05,0.00164817,0.00268276,-0.00106989,0.536256,0.0022323,0.0120487,727,708,-9.2253,2.15388
-490,316,-9.22559,-2.49292,0.00253871,0.0010763,0.0022778,0.0041998,-0.000584786,0.630087,0.00301376,0.0151583,734,708,-9.22561,2.4929
-483,316,-9.13721,-2.84961,0.00422426,0.00348952,0.00273667,0.00661811,0.00109567,0.718677,0.00409599,0.0494647,741,708,-9.1372,2.8496
-476,316,-8.90894,-3.31207,0,0,0,0,0,0,0,-1,748,708,-8.90896,3.31206
-469,316,-6.24194,-1.42725,0,0,0,0,0,0,0,-1,755,708,-6.24192,1.42725
-462,316,-5.74237,-1.40039,0,0,0,0,0,0,0,-1,762,708,-5.74238,1.40039
-455,316,-5.44745,-1.21899,0,0,0,0,0,0,0,-1,769,708,-5.44746,1.21898
-448,316,-14.8945,0.655396,0,0,0,0,0,0,0,-1,776,708,-14.8946,-0.655396
-441,316,-14.9626,0.576111,0,0,0,0,0,0,0,-1,783,708,-14.9626,-0.576115
-434,316,-15.272,0.942993,0,0,0,0,0,0,0,-1,790,708,-15.272,-0.942979
-427,316,-14.6848,3.17792,0,0,0,0,0,0,0,-1,797,708,-14.6848,-3.1779
-420,316,-13.5587,2.737,0,0,0,0,0,0,0,-1,804,708,-13.5587,-2.73703
-413,316,0,0,0,0,0,0,0,0,0,-1,811,708,0,0
-406,316,0,0,0,0,0,0,0,0,0,-1,818,708,0,0
-399,316,0,0,0,0,0,0,0,0,0,-1,825,708,0,0
-392,316,0,0,0,0,0,0,0,0,0,-1,832,708,0,0
-385,316,0,0,0,0,0,0,0,0,0,-1,839,708,0,0
-378,316,0,0,0,0,0,0,0,0,0,-1,846,708,0,0
-371,316,0,0,0,0,0,0,0,0,0,-1,853,708,0,0
-364,316,0,0,0,0,0,0,0,0,0,-1,860,708,0,0
-357,316,0,0,0,0,0,0,0,0,0,-1,867,708,0,0
-350,316,0,0,0,0,0,0,0,0,0,-1,874,708,0,0
-343,316,0,0,0,0,0,0,0,0,0,-1,881,708,0,0
-336,316,0,0,0,0,0,0,0,0,0,-1,888,708,0,0
-329,316,0,0,0,0,0,0,0,0,0,-1,895,708,0,0
-322,316,0,0,0,0,0,0,0,0,0,-1,902,708,0,0
-315,316,0,0,0,0,0,0,0,0,0,-1,909,708,0,0
-308,316,0,0,0,0,0,0,0,0,0,-1,916,708,0,0
-301,316,0,0,0,0,0,0,0,0,0,-1,923,708,0,0
-294,316,0,0,0,0,0,0,0,0,0,-1,930,708,0,0
-287,316,0,0,0,0,0,0,0,0,0,-1,937,708,0,0
-280,316,0,0,0,0,0,0,0,0,0,-1,944,708,0,0
-273,316,0,0,0,0,0,0,0,0,0,-1,951,708,0,0
-266,316,0,0,0,0,0,0,0,0,0,-1,958,708,0,0
-259,316,0,0,0,0,0,0,0,0,0,-1,965,708,0,0
-252,316,0,0,0,0,0,0,0,0,0,-1,972,708,0,0
-245,316,0,0,0,0,0,0,0,0,0,-1,979,708,0,0
-238,316,0,0,0,0,0,0,0,0,0,-1,986,708,0,0
-231,316,0,0,0,0,0,0,0,0,0,-1,993,708,0,0
-224,316,0,0,0,0,0,0,0,0,0,-1,1000,708,0,0
-217,316,0,0,0,0,0,0,0,0,0,-1,1007,708,0,0
-210,316,0,0,0,0,0,0,0,0,0,-1,1014,708,0,0
-203,316,0,0,0,0,0,0,0,0,0,-1,1021,708,0,0
-196,316,0,0,0,0,0,0,0,0,0,-1,1028,708,0,0
-189,316,0,0,0,0,0,0,0,0,0,-1,1035,708,0,0
-182,316,0,0,0,0,0,0,0,0,0,-1,1042,708,0,0
-175,316,0,0,0,0,0,0,0,0,0,-1,1049,708,0,0
-168,316,0,0,0,0,0,0,0,0,0,-1,1056,708,0,0
-161,316,0,0,0,0,0,0,0,0,0,-1,1063,708,0,0
-154,316,0,0,0,0,0,0,0,0,0,-1,1070,708,0,0
-147,316,0,0,0,0,0,0,0,0,0,-1,1077,708,0,0
-140,316,0,0,0,0,0,0,0,0,0,-1,1084,708,0,0
-133,316,0,0,0,0,0,0,0,0,0,-1,1091,708,0,0
-126,316,0,0,0,0,0,0,0,0,0,-1,1098,708,0,0
-119,316,0,0,0,0,0,0,0,0,0,-1,1105,708,0,0
-112,316,0,0,0,0,0,0,0,0,0,-1,1112,708,0,0
-105,316,0,0,0,0,0,0,0,0,0,-1,1119,708,0,0
-98,316,0,0,0,0,0,0,0,0,0,-1,1126,708,0,0
-91,316,0,0,0,0,0,0,0,0,0,-1,1133,708,0,0
-84,316,0,0,0,0,0,0,0,0,0,-1,1140,708,0,0
-77,316,0,0,0,0,0,0,0,0,0,-1,1147,708,0,0
-70,316,0,0,0,0,0,0,0,0,0,-1,1154,708,0,0
-63,316,0,0,0,0,0,0,0,0,0,-1,1161,708,0,0
-56,316,0,0,0,0,0,0,0,0,0,-1,1168,708,0,0
-49,316,0,0,0,0,0,0,0,0,0,-1,1175,708,0,0
-42,316,0,0,0,0,0,0,0,0,0,-1,1182,708,0,0
-35,316,0,0,0,0,0,0,0,0,0,-1,1189,708,0,0
-28,316,0,0,0,0,0,0,0,0,0,-1,1196,708,0,0
-21,316,0,0,0,0,0,0,0,0,0,-1,1203,708,0,0
-14,316,0,0,0,0,0,0,0,0,0,-1,1210,708,0,0
-7,316,0,0,0,0,0,0,0,0,0,-1,1217,708,0,0
0,316,0,0,0,0,0,0,0,0,0,-1,1224,708,0,0
7,316,0,0,0,0,0,0,0,0,0,-1,1231,708,0,0
14,316,0,0,0,0,0,0,0,0,0,-1,1238,708,0,0
21,316,0,0,0,0,0,0,0,0,0,-1,1245,708,0,0
28,316,0,0,0,0,0,0,0,0,0,-1,1252,708,0,0
35,316,0,0,0,0,0,0,0,0,0,-1,1259,708,0,0
42,316,0,0,0,0,0,0,0,0,0,-1,1266,708,0,0
49,316,0,0,0,0,0,0,0,0,0,-1,1273,708,0,0
56,316,0,0,0,0,0,0,0,0,0,-1,1280,708,0,0
63,316,0,0,0,0,0,0,0,0,0,-1,1287,708,0,0
70,316,0,0,0,0,0,0,0,0,0,-1,1294,708,0,0
77,316,0,0,0,0,0,0,0,0,0,-1,1301,708,0,0
84,316,0,0,0,0,0,0,0,0,0,-1,1308,708,0,0
91,316,0,0,0,0,0,0,0,0,0,-1,1315,708,0,0
98,316,0,0,0,0,0,0,0,0,0,-1,1322,708,0,0
105,316,0,0,0,0,0,0,0,0,0,-1,1329,708,0,0
112,316,0,0,0,0,0,0,0,0,0,-1,1336,708,0,0
119,316,0,0,0,0,0,0,0,0,0,-1,1343,708,0,0
126,316,0,0,0,0,0,0,0,0,0,-1,1350,708,0,0
133,316,0,0,0,0,0,0,0,0,0,-1,1357,708,0,0
140,316,0,0,0,0,0,0,0,0,0,-1,1364,708,0,0
147,316,0,0,0,0,0,0,0,0,0,-1,1371,708,0,0
154,316,0,0,0,0,0,0,0,0,0,-1,1378,708,0,0
161,316,0,0,0,0,0,0,0,0,0,-1,1385,708,0,0
168,316,0,0,0,0,0,0,0,0,0,-1,1392,708,0,0
175,316,0,0,0,0,0,0,0,0,0,-1,1399,708,0,0
182,316,0,0,0,0,0,0,0,0,0,-1,1406,708,0,0
189,316,0,0,0,0,0,0,0,0,0,-1,1413,708,0,0
196,316,0,0,0,0,0,0,0,0,0,-1,1420,708,0,0
203,316,0,0,0,0,0,0,0,0,0,-1,1427,708,0,0
210,316,0,0,0,0,0,0,0,0,0,-1,1434,708,0,0
217,316,0,0,0,0,0,0,0,0,0,-1,1441,708,0,0
224,316,0,0,0,0,0,0,0,0,0,-1,1448,708,0,0
231,316,0,0,0,0,0,0,0,0,0,-1,1455,708,0,0
238,316,0,0,0,0,0,0,0,0,0,-1,1462,708,0,0
245,316,0,0,0,0,0,0,0,0,0,-1,1469,708,0,0
252,316,0,0,0,0,0,0,0,0,0,-1,1476,708,0,0
259,316,0,0,0,0,0,0,0,0,0,-1,1483,708,0,0
266,316,0,0,0,0,0,0,0,0,0,-1,1490,708,0,0
273,316,0,0,0,0,0,0,0,0,0,-1,1497,708,0,0
280,316,0,0,0,0,0,0,0,0,0,-1,1504,708,0,0
287,316,0,0,0,0,0,0,0,0,0,-1,1511,708,0,0
294,316,0,0,0,0,0,0,0,0,0,-1,1518,708,0,0
301,316,0,0,0,0,0,0,0,0,0,-1,1525,708,0,0
308,316,0,0,0,0,0,0,0,0,0,-1,1532,708,0,0
315,316,0,0,0,0,0,0,0,0,0,-1,1539,708,0,0
322,316,0,0,0,0,0,0,0,0,0,-1,1546,708,0,0
329,316,0,0,0,0,0,0,0,0,0,-1,1553,708,0,0
336,316,0,0,0,0,0,0,0,0,0,-1,1560,708,0,0
343,316,0,0,0,0,0,0,0,0,0,-1,1567,708,0,0
350,316,0,0,0,0,0,0,0,0,0,-1,1574,708,0,0
357,316,0,0,0,0,0,0,0,0,0,-1,1581,708,0,0
364,316,0,0,0,0,0,0,0,0,0,-1,1588,708,0,0
371,316,0,0,0,0,0,0,0,0,0,-1,1595,708,0,0
378,316,0,0,0,0,0,0,0,0,0,-1,1602,708,0,0
385,316,0,0,0,0,0,0,0,0,0,-1,1609,708,0,0
392,316,0,0,0,0,0,0,0,0,0,-1,1616,708,0,0
399,316,0,0,0,0,0,0,0,0,0,-1,1623,708,0,0
406,316,0,0,0,0,0,0,0,0,0,-1,1630,708,0,0
413,316,0,0,0,0,0,0,0,0,0,-1,1637,708,0,0
420,316,0,0,0,0,0,0,0,0,0,-1,1644,708,0,0
427,316,0,0,0,0,0,0,0,0,0,-1,1651,708,0,0
434,316,0,0,0,0,0,0,0,0,0,-1,1658,708,0,0
441,316,0,0,0,0,0,0,0,0,0,-1,1665,708,0,0
448,316,0,0,0,0,0,0,0,0,0,-1,1672,708,0,0
455,316,0,0,0,0,0,0,0,0,0,-1,1679,708,0,0
462,316,0,0,0,0,0,0,0,0,0,-1,1686,708,0,0
469,316,0,0,0,0,0,0,0,0,0,-1,1693,708,0,0
476,316,0,0,0,0,0,0,0,0,0,-1,1700,708,0,0
483,316,0,0,0,0,0,0,0,0,0,-1,1707,708,0,0
490,316,0,0,0,0,0,0,0,0,0,-1,1714,708,0,0
497,316,0,0,0,0,0,0,0,0,0,-1,1721,708,0,0
504,316,0,0,0,0,0,0,0,0,0,-1,1728,708,0,0
511,316,0,0,0,0,0,0,0,0,0,-1,1735,708,0,0
518,316,0,0,0,0,0,0,0,0,0,-1,1742,708,0,0
525,316,0,0,0,0,0,0,0,0,0,-1,1749,708,0,0
532,316,22.8335,1.74329,0,0,0,0,0,0,0,-1,1756,708,22.8335,-1.74327
539,316,23.8202,2.48529,0,0,0,0,0,0,0,-1,1763,708,23.8202,-2.48526
546,316,27.2035,2.64258,0,0,0,0,0,0,0,-1,1770,708,27.2035,-2.64257
553,316,27.7338,2.81726,0,0,0,0,0,0,0,-1,1777,708,27.7337,-2.81723
560,316,28.7885,2.14148,0,0,0,0,0,0,0,-1,1784,708,28.7884,-2.1415
567,316,29.8258,1.57428,0,0,0,0,0,0,0,-1,1791,708,29.8258,-1.57428
574,316,30.6538,1.13232,0,0,0,0,0,0,0,-1,1798,708,30.6539,-1.13233
581,316,23.7242,2.23938,0,0,0,0,0,0,0,-1,1805,708,23.7243,-2.23941
588,316,19.7659,2.90198,0,0,0,0,0,0,0,-1,1812,708,19.7659,-2.902
595,316,12.5363,1.50702,0,0,0,0,0,0,0,-1,1819,708,12.5363,-1.50701
602,316,7.79919,0.0422363,0,0,0,0,0,0,0,-1,1826,708,7.79923,-0.0422066
609,316,16.1772,-1.00372,0,0,0,0,0,0,0,-1,1833,708,16.1772,1.00374
616,316,16.249,-0.599365,-0.00266168,0.00697314,-0.00343639,0.00807318,-0.00376172,-1.26099,0.00698239,0.020015,1840,708,16.249,0.59939
623,316,16.2607,-0.250305,-0.0013226,0.00375184,-0.00219315,0.00456833,-0.00213909,-1.2144,0.00395629,0.0104915,1847,708,16.2608,0.250335
630,316,16.2401,0.0762329,-0.000698625,0.00173707,-0.00138696,0.00236498,-0.00132653,-1.14568,0.00215922,0.0124657,1854,708,16.2401,-0.0762292
637,316,16.2476,0.435059,-0.000662291,0.000681893,-0.00102991,0.00123961,-0.00122,-1.07449,0.00142007,0.0119936,1861,708,16.2475,-0.435071
644,316,16.2451,0.797485,-0.00101735,6.92493e-05,-0.000890061,0.000568727,-0.00151682,-1.05942,0.00124488,0.0110611,1868,708,16.2451,-0.79746
651,316,16.2378,1.13348,-0.00164134,-0.000421217,-0.00101028,0.000148909,-0.00221147,-1.05702,0.00152637,0.0119107,1875,708,16.2378,-1.13349
658,316,16.2311,1.48029,-0.00242763,-0.000185569,-0.00117617,0.000318235,-0.00293143,-1.1661,0.00206854,0.0209241,1882,708,16.231,-1.48026
665,316,16.1901,1.8125,-0.00337119,0.000114456,-0.00141174,0.000614495,-0.00387123,-1.23038,0.00280815,0.0167727,1889,708,16.1901,-1.8125
672,316,16.2128,2.12988,-0.00441774,0.000621648,-0.00159374,0.00108338,-0.00487947,-1.2888,0.00366783,0.0129561,1896,708,16.2128,-2.12989
679,316,16.2196,2.52045,-0.00561178,0.00140251,-0.00170417,0.00179463,-0.0060039,-1.34464,0.00471604,0.0186092,1903,708,16.2197,-2.52044
686,316,15.9883,2.90503,-0.00725092,0.00252096,-0.00204406,0.00293131,-0.00766126,-1.37268,0.00631559,0.0319549,1910,708,15.9883,-2.90503
693,316,15.6627,3.4007,0,0,0,0,0,0,0,-1,1917,708,15.6627,-3.4007
700,316,12.8749,2.89136,0,0,0,0,0,0,0,-1,1924,708,12.8748,-2.89137
707,316,15.7089,5.41486,0,0,0,0,0,0,0,-1,1931,708,15.7088,-5.41487
714,316,16.1727,5.52045,0,0,0,0,0,0,0,-1,1938,708,16.1728,-5.52042
721,316,16.7094,6.53351,0,0,0,0,0,0,0,-1,1945,708,16.7094,-6.5335
728,316,0,0,0,0,0,0,0,0,0,-1,1952,708,0,0
735,316,0,0,0,0,0,0,0,0,0,-1,1959,708,0,0
742,316,0,0,0,0,0,0,0,0,0,-1,1966,708,0,0
749,316,0,0,0,0,0,0,0,0,0,-1,1973,708,0,0
756,316,0,0,0,0,0,0,0,0,0,-1,1980,708,0,0
763,316,0,0,0,0,0,0,0,0,0,-1,1987,708,0,0
770,316,0,0,0,0,0,0,0,0,0,-1,1994,708,0,0
777,316,0,0,0,0,0,0,0,0,0,-1,2001,708,0,0
784,316,0,0,0,0,0,0,0,0,0,-1,2008,708,0,0
791,316,0,0,0,0,0,0,0,0,0,-1,2015,708,0,0
798,316,0,0,0,0,0,0,0,0,0,-1,2022,708,0,0
805,316,0,0,0,0,0,0,0,0,0,-1,2029,708,0,0
812,316,0,0,0,0,0,0,0,0,0,-1,2036,708,0,0
-700,309,0,0,0,0,0,0,0,0,0,-1,524,715,0,0
-693,309,0,0,0,0,0,0,0,0,0,-1,531,715,0,0
-686,309,0,0,0,0,0,0,0,0,0,-1,538,715,0,0
-679,309,0,0,0,0,0,0,0,0,0,-1,545,715,0,0
-672,309,0,0,0,0,0,0,0,0,0,-1,552,715,0,0
-665,309,0,0,0,0,0,0,0,0,0,-1,559,715,0,0
-658,309,0,0,0,0,0,0,0,0,0,-1,566,715,0,0
-651,309,0,0,0,0,0,0,0,0,0,-1,573,715,0,0
-644,309,0,0,0,0,0,0,0,0,0,-1,580,715,0,0
-637,309,0,0,0,0,0,0,0,0,0,-1,587,715,0,0
-630,309,0,0,0,0,0,0,0,0,0,-1,594,715,0,0
-623,309,0,0,0,0,0,0,0,0,0,-1,601,715,0,0
-616,309,0,0,0,0,0,0,0,0,0,-1,608,715,0,0
-609,309,-5.95392,-3.93689,0,0,0,0,0,0,0,-1,615,715,-5.95392,3.93686
-602,309,-4.99786,-3.31287,0,0,0,0,0,0,0,-1,622,715,-4.99786,3.31284
-595,309,-6.80847,2.4046,0,0,0,0,0,0,0,-1,629,715,-6.80845,-2.40458
-588,309,-6.08795,2.19324,0,0,0,0,0,0,0,-1,636,715,-6.08793,-2.19325
-581,309,-5.97552,1.3277,0,0,0,0,0,0,0,-1,643,715,-5.97552,-1.32769
-574,309,-8.49042,-0.105652,0,0,0,0,0,0,0,-1,650,715,-8.49044,0.105668
-567,309,-8.45062,-0.0786743,0,0,0,0,0,0,0,-1,657,715,-8.45061,0.078664
-560,309,-9.38422,0.46051,0,0,0,0,0,0,0,-1,664,715,-9.38421,-0.460514
-553,309,-9.45343,0.373535,-4.19691e-05,0.00596586,-0.00290002,0.0071373,-0.00121341,-1.1869,0.00520999,0.0339587,671,715,-9.4534,-0.373552
-546,309,-9.5376,0.0805054,-0.00162777,0.0053467,-0.00276416,0.00630934,-0.00259041,-1.23567,0.00528569,0.0162364,678,715,-9.53758,-0.0804917
-539,309,-9.52759,-0.248779,-0.000764313,0.00390471,-0.00220708,0.00478285,-0.00164246,-1.19212,0.00385452,0.0141292,685,715,-9.52758,0.248751
-532,309,-9.52747,-0.55896,-0.000229513,0.00240291,-0.00150247,0.00308415,-0.000910756,-1.14511,0.00241756,0.0115557,692,715,-9.52744,0.558946
-525,309,-9.51447,-0.889221,9.04476e-05,0.000980033,-0.000614867,0.00129412,-0.000223642,-1.09853,0.000946148,0.0143355,699,715,-9.51444,0.889219
-518,309,-9.51947,-1.21149,9.61748e-05,-0.000393289,0.000264548,0.00021183,-0.000508945,0.412144,0.000427763,0.0147039,706,715,-9.51947,1.2115
-511,309,-9.54163,-1.51099,-0.000240508,-0.00144419,0.00105934,0.000376016,-0.00206072,0.527071,0.00151479,0.0116623,713,715,-9.54165,1.51099
-504,309,-9.54401,-1.81647,-0.00033445,-0.00190963,0.00179706,0.00084003,-0.00308411,0.578872,0.0023859,0.00949209,720,715,-9.54399,1.81649
-497,309,-9.54913,-2.13275,0.000802392,-0.000529481,0.00276581,0.0029813,-0.00270839,0.66726,0.00328621,0.0131636,727,715,-9.54911,2.13275
-490,309,-9.53137,-2.4541,0.00162509,0.00112158,0.0034084,0.00479102,-0.00204435,0.748533,0.00405122,0.0331173,734,715,-9.53135,2.45412
-483,309,-9.32813,-2.9361,0,0,0,0,0,0,0,-1,741,715,-9.32814,2.93611
-476,309,-5.29486,-1.2262,0,0,0,0,0,0,0,-1,748,715,-5.29484,1.22622
-469,309,-4.22717,-0.592896,0,0,0,0,0,0,0,-1,755,715,-4.2272,0.592905
-462,309,-10.428,2.46948,0,0,0,0,0,0,0,-1,762,715,-10.428,-2.46947
-455,309,-15.8216,0.00915527,0,0,0,0,0,0,0,-1,769,715,-15.8216,-0.00913359
-448,309,-19.2673,1.19257,0,0,0,0,0,0,0,-1,776,715,-19.2673,-1.19254
-441,309,-19.8181,1.4425,0,0,0,0,0,0,0,-1,783,715,-19.8181,-1.44249
-434,309,-15.3519,1.06873,0,0,0,0,0,0,0,-1,790,715,-15.3519,-1.06874
-427,309,-15.1996,1.32141,0,0,0,0,0,0,0,-1,797,715,-15.1996,-1.3214
-420,309,-13.3781,3.26843,0,0,0,0,0,0,0,-1,804,715,-13.3781,-3.26842
-413,309,0,0,0,0,0,0,0,0,0,-1,811,715,0,0
-406,309,0,0,0,0,0,0,0,0,0,-1,818,715,0,0
-399,309,0,0,0,0,0,0,0,0,0,-1,825,715,0,0
-392,309,0,0,0,0,0,0,0,0,0,-1,832,715,0,0
-385,309,0,0,0,0,0,0,0,0,0,-1,839,715,0,0
-378,309,0,0,0,0,0,0,0,0,0,-1,846,715,0,0
-371,309,0,0,0,0,0,0,0,0,0,-1,853,715,0,0
-364,309,0,0,0,0,0,0,0,0,0,-1,860,715,0,0
-357,309,0,0,0,0,0,0,0,0,0,-1,867,715,0,0
-350,309,0,0,0,0,0,0,0,0,0,-1,874,715,0,0
-343,309,0,0,0,0,0,0,0,0,0,-1,881,715,0,0
-336,309,0,0,0,0,0,0,0,0,0,-1,888,715,0,0
-329,309,0,0,0,0,0,0,0,0,0,-1,895,715,0,0
-322,309,0,0,0,0,0,0,0,0,0,-1,902,715,0,0
-315,309,0,0,0,0,0,0,0,0,0,-1,909,715,0,0
-308,309,0,0,0,0,0,0,0,0,0,-1,916,715,0,0
-301,309,0,0,0,0,0,0,0,0,0,-1,923,715,0,0
-294,309,0,0,0,0,0,0,0,0,0,-1,930,715,0,0
-287,309,0,0,0,0,0,0,0,0,0,-1,937,715,0,0
-280,309,0,0,0,0,0,0,0,0,0,-1,944,715,0,0
-273,309,0,0,0,0,0,0,0,0,0,-1,951,715,0,0
-266,309,0,0,0,0,0,0,0,0,0,-1,958,715,0,0
-259,309,0,0,0,0,0,0,0,0,0,-1,965,715,0,0
-252,309,0,0,0,0,0,0,0,0,0,-1,972,715,0,0
-245,309,0,0,0,0,0,0,0,0,0,-1,979,715,0,0
-238,309,0,0,0,0,0,0,0,0,0,-1,986,715,0,0
-231,309,0,0,0,0,0,0,0,0,0,-1,993,715,0,0
-224,309,0,0,0,0,0,0,0,0,0,-1,1000,715,0,0
-217,309,0,0,0,0,0,0,0,0,0,-1,1007,715,0,0
-210,309,0,0,0,0,0,0,0,0,0,-1,1014,715,0,0
-203,309,0,0,0,0,0,0,0,0,0,-1,1021,715,0,0
-196,309,0,0,0,0,0,0,0,0,0,-1,1028,715,0,0
-189,309,0,0,0,0,0,0,0,0,0,-1,1035,715,0,0
-182,309,0,0,0,0,0,0,0,0,0,-1,1042,715,0,0
-175,309,0,0,0,0,0,0,0,0,0,-1,1049,715,0,0
-168,309,0,0,0,0,0,0,0,0,0,-1,1056,715,0,0
-161,309,0,0,0,0,0,0,0,0,0,-1,1063,715,0,0
-154,309,0,0,0,0,0,0,0,0,0,-1,1070,715,0,0
-147,309,0,0,0,0,0,0,0,0,0,-1,1077,715,0,0
-140,309,0,0,0,0,0,0,0,0,0,-1,1084,715,0,0
-133,309,0,0,0,0,0,0,0,0,0,-1,1091,715,0,0
-126,309,0,0,0,0,0,0,0,0,0,-1,1098,715,0,0
-119,309,0,0,0,0,0,0,0,0,0,-1,1105,715,0,0
-112,309,0,0,0,0,0,0,0,0,0,-1,1112,715,0,0
-105,309,0,0,0,0,0,0,0,0,0,-1,1119,715,0,0
-98,309,0,0,0,0,0,0,0,0,0,-1,1126,715,0,0
-91,309,0,0,0,0,0,0,0,0,0,-1,1133,715,0,0
-84,309,0,0,0,0,0,0,0,0,0,-1,1140,715,0,0
-77,309,0,0,0,0,0,0,0,0,0,-1,1147,715,0,0
-70,309,0,0,0,0,0,0,0,0,0,-1,1154,715,0,0
-63,309,0,0,0,0,0,0,0,0,0,-1,1161,715,0,0
-56,309,0,0,0,0,0,0,0,0,0,-1,1168,715,0,0
-49,309,0,0,0,0,0,0,0,0,0,-1,1175,715,0,0
-42,309,0,0,0,0,0,0,0,0,0,-1,1182,715,0,0
-35,309,0,0,0,0,0,0,0,0,0,-1,1189,715,0,0
-28,309,0,0,0,0,0,0,0,0,0,-1,1196,715,0,0
-21,309,0,0,0,0,0,0,0,0,0,-1,1203,715,0,0
-14,309,0,0,0,0,0,0,0,0,0,-1,1210,715,0,0
-7,309,0,0,0,0,0,0,0,0,0,-1,1217,715,0,0
0,309,0,0,0,0,0,0,0,0,0,-1,1224,715,0,0
7,309,0,0,0,0,0,0,0,0,0,-1,1231,715,0,0
14,309,0,0,0,0,0,0,0,0,0,-1,1238,715,0,0
21,309,0,0,0,0,0,0,0,0,0,-1,1245,715,0,0
28,309,0,0,0,0,0,0,0,0,0,-1,1252,715,0,0
35,309,0,0,0,0,0,0,0,0,0,-1,1259,715,0,0
42,309,0,0,0,0,0,0,0,0,0,-1,1266,715,0,0
49,309,0,0,0,0,0,0,0,0,0,-1,1273,715,0,0
56,309,0,0,0,0,0,0,0,0,0,-1,1280,715,0,0
63,309,0,0,0,0,0,0,0,0,0,-1,1287,715,0,0
70,309,0,0,0,0,0,0,0,0,0,-1,1294,715,0,0
77,309,0,0,0,0,0,0,0,0,0,-1,1301,715,0,0
84,309,0,0,0,0,0,0,0,0,0,-1,1308,715,0,0
91,309,0,0,0,0,0,0,0,0,0,-1,1315,715,0,0
98,309,0,0,0,0,0,0,0,0,0,-1,1322,715,0,0
105,309,0,0,0,0,0,0,0,0,0,-1,1329,715,0,0
112,309,0,0,0,0,0,0,0,0,0,-1,1336,715,0,0
119,309,0,0,0,0,0,0,0,0,0,-1,1343,715,0,0
126,309,0,0,0,0,0,0,0,0,0,-1,1350,715,0,0
133,309,0,0,0,0,0,0,0,0,0,-1,1357,715,0,0
140,309,0,0,0,0,0,0,0,0,0,-1,1364,715,0,0
147,309,0,0,0,0,0,0,0,0,0,-1,1371,715,0,0
154,309,0,0,0,0,0,0,0,0,0,-1,1378,715,0,0
161,309,0,0,0,0,0,0,0,0,0,-1,1385,715,0,0
168,309,0,0,0,0,0,0,0,0,0,-1,1392,715,0,0
175,309,0,0,0,0,0,0,0,0,0,-1,1399,715,0,0
182,309,0,0,0,0,0,0,0,0,0,-1,1406,715,0,0
189,309,0,0,0,0,0,0,0,0,0,-1,1413,715,0,0
196,309,0,0,0,0,0,0,0,0,0,-1,1420,715,0,0
203,309,0,0,0,0,0,0,0,0,0,-1,1427,715,0,0
210,309,0,0,0,0,0,0,0,0,0,-1,1434,715,0,0
217,309,0,0,0,0,0,0,0,0,0,-1,1441,715,0,0
224,309,0,0,0,0,0,0,0,0,0,-1,1448,715,0,0
231,309,0,0,0,0,0,0,0,0,0,-1,1455,715,0,0
238,309,0,0,0,0,0,0,0,0,0,-1,1462,715,0,0
245,309,0,0,0,0,0,0,0,0,0,-1,1469,715,0,0
252,309,0,0,0,0,0,0,0,0,0,-1,1476,715,0,0
259,309,0,0,0,0,0,0,0,0,0,-1,1483,715,0,0
266,309,0,0,0,0,0,0,0,0,0,-1,1490,715,0,0
273,309,0,0,0,0,0,0,0,0,0,-1,1497,715,0,0
280,309,0,0,0,0,0,0,0,0,0,-1,1504,715,0,0
287,309,0,0,0,0,0,0,0,0,0,-1,1511,715,0,0
294,309,0,0,0,0,0,0,0,0,0,-1,1518,715,0,0
301,309,0,0,0,0,0,0,0,0,0,-1,1525,715,0,0
308,309,0,0,0,0,0,0,0,0,0,-1,1532,715,0,0
315,309,0,0,0,0,0,0,0,0,0,-1,1539,715,0,0
322,309,0,0,0,0,0,0,0,0,0,-1,1546,715,0,0
329,309,0,0,0,0,0,0,0,0,0,-1,1553,715,0,0
336,309,0,0,0,0,0,0,0,0,0,-1,1560,715,0,0
343,309,0,0,0,0,0,0,0,0,0,-1,1567,715,0,0
350,309,0,0,0,0,0,0,0,0,0,-1,1574,715,0,0
357,309,0,0,0,0,0,0,0,0,0,-1,1581,715,0,0
364,309,0,0,0,0,0,0,0,0,0,-1,1588,715,0,0
371,309,0,0,0,0,0,0,0,0,0,-1,1595,715,0,0
378,309,0,0,0,0,0,0,0,0,0,-1,1602,715,0,0
385,309,0,0,0,0,0,0,0,0,0,-1,1609,715,0,0
392,309,0,0,0,0,0,0,0,0,0,-1,1616,715,0,0
399,309,0,0,0,0,0,0,0,0,0,-1,1623,715,0,0
406,309,0,0,0,0,0,0,0,0,0,-1,1630,715,0,0
413,309,0,0,0,0,0,0,0,0,0,-1,1637,715,0,0
420,309,0,0,0,0,0,0,0,0,0,-1,1644,715,0,0
427,309,0,0,0,0,0,0,0,0,0,-1,1651,715,0,0
434,309,0,0,0,0,0,0,0,0,0,-1,1658,715,0,0
441,309,0,0,0,0,0,0,0,0,0,-1,1665,715,0,0
448,309,0,0,0,0,0,0,0,0,0,-1,1672,715,0,0
455,309,0,0,0,0,0,0,0,0,0,-1,1679,715,0,0
462,309,0,0,0,0,0,0,0,0,0,-1,1686,715,0,0
469,309,0,0,0,0,0,0,0,0,0,-1,1693,715,0,0
476,309,0,0,0,0,0,0,0,0,0,-1,1700,715,0,0
483,309,0,0,0,0,0,0,0,0,0,-1,1707,715,0,0
490,309,0,0,0,0,0,0,0,0,0,-1,1714,715,0,0
497,309,0,0,0,0,0,0,0,0,0,-1,1721,715,0,0
504,309,0,0,0,0,0,0,0,0,0,-1,1728,715,0,0
511,309,0,0,0,0,0,0,0,0,0,-1,1735,715,0,0
518,309,0,0,0,0,0,0,0,0,0,-1,1742,715,0,0
525,309,0,0,0,0,0,0,0,0,0,-1,1749,715,0,0
532,309,0,0,0,0,0,0,0,0,0,-1,1756,715,0,0
539,309,23.7823,1.90894,0,0,0,0,0,0,0,-1,1763,715,23.7823,-1.90896
546,309,26.2792,2.49823,0,0,0,0,0,0,0,-1,1770,715,26.2792,-2.49821
553,309,26.8336,2.63495,0,0,0,0,0,0,0,-1,1777,715,26.8336,-2.63496
560,309,27.5536,2.32672,0,0,0,0,0,0,0,-1,1784,715,27.5536,-2.3267
567,309,27.9944,3.16217,0,0,0,0,0,0,0,-1,1791,715,27.9944,-3.16219
574,309,28.6277,3.22412,0,0,0,0,0,0,0,-1,1798,715,28.6277,-3.22413
581,309,28.7903,3.70422,0,0,0,0,0,0,0,-1,1805,715,28.7903,-3.70421
588,309,24.2113,3.86719,0,0,0,0,0,0,0,-1,1812,715,24.2113,-3.86717
595,309,19.585,3.71558,0,0,0,0,0,0,0,-1,1819,715,19.5849,-3.71555
602,309,11.0811,3.47772,0,0,0,0,0,0,0,-1,1826,715,11.0811,-3.47772
609,309,16.5052,-1.0719,0,0,0,0,0,0,0,-1,1833,715,16.5053,1.07189
616,309,16.5746,-0.636597,-0.00361656,0.00928183,-0.00551858,0.0113207,-0.00565541,-1.2169,0.00998141,0.0308094,1840,715,16.5746,0.636606
623,309,16.6086,-0.24408,-0.00211718,0.00525816,-0.00385643,0.0069063,-0.00376532,-1.16691,0.00624959,0.0115875,1847,715,16.6086,0.244081
630,309,16.5824,0.0942383,-0.00125351,0.00250992,-0.00255339,0.00380006,-0.00254365,-1.10294,0.00368641,0.0107413,1854,715,16.5824,-0.0942355
637,309,16.5605,0.437378,-0.00101046,0.00105398,-0.00174644,0.00205044,-0.00200692,-1.0523,0.00234256,0.0133558,1861,715,16.5606,-0.437396
644,309,16.5417,0.788696,-0.00109555,0.000242677,-0.00113138,0.000887997,-0.00174087,-1.05244,0.00154417,0.0139394,1868,715,16.5418,-0.788695
651,309,16.5492,1.1377,-0.00148276,-0.000339295,-0.000957226,0.000203944,-0.002026,-1.05461,0.00142353,0.0134139,1875,715,16.5492,-1.13772
658,309,16.5911,1.48785,-0.00199165,2.8294e-05,-0.000944184,0.000400901,-0.00236426,-1.19492,0.0017254,0.0196778,1882,715,16.591,-1.48784
665,309,16.5826,1.81354,-0.00262203,0.000475741,-0.00100281,0.000772033,-0.00291832,-1.28351,0.00224753,0.0168088,1889,715,16.5826,-1.81353
672,309,16.5842,2.13531,-0.00331662,0.00111784,-0.00100616,0.00133546,-0.00353423,-1.35779,0.00290548,0.0147566,1896,715,16.5843,-2.13532
679,309,16.582,2.50677,-0.00408849,0.0020482,-0.000935021,0.0021875,-0.00422779,-1.4229,0.00376579,0.0153755,1903,715,16.582,-2.50677
686,309,16.5037,2.86627,-0.00516851,0.00331511,-0.00104445,0.0034418,-0.0052952,-1.45008,0.005082,0.0224695,1910,715,16.5036,-2.86626
693,309,16.1791,3.21228,-0.0061729,0.00521738,-0.000795658,0.00527269,-0.00622821,-1.50139,0.00664768,0.0400823,1917,715,16.1791,-3.21227
700,309,16.0144,3.6496,0,0,0,0,0,0,0,-1,1924,715,16.0145,-3.64961
707,309,15.6318,4.58655,0,0,0,0,0,0,0,-1,1931,715,15.6318,-4.58657
714,309,16.7573,6.68286,0,0,0,0,0,0,0,-1,1938,715,16.7574,-6.68284
721,309,16.8337,5.4458,0,0,0,0,0,0,0,-1,1945,715,16.8338,-5.44582
728,309,0,0,0,0,0,0,0,0,0,-1,1952,715,0,0
735,309,0,0,0,0,0,0,0,0,0,-1,1959,715,0,0
742,309,0,0,0,0,0,0,0,0,0,-1,1966,715,0,0
749,309,0,0,0,0,0,0,0,0,0,-1,1973,715,0,0
756,309,0,0,0,0,0,0,0,0,0,-1,1980,715,0,0
763,309,0,0,0,0,0,0,0,0,0,-1,1987,715,0,0
770,309,0,0,0,0,0,0,0,0,0,-1,1994,715,0,0
777,309,0,0,0,0,0,0,0,0,0,-1,2001,715,0,0
784,309,0,0,0,0,0,0,0,0,0,-1,2008,715,0,0
791,309,0,0,0,0,0,0,0,0,0,-1,2015,715,0,0
798,309,0,0,0,0,0,0,0,0,0,-1,2022,715,0,0
805,309,0,0,0,0,0,0,0,0,0,-1,2029,715,0,0
812,309,0,0,0,0,0,0,0,0,0,-1,2036,715,0,0
-700,302,0,0,0,0,0,0,0,0,0,-1,524,722,0,0
-693,302,0,0,0,0,0,0,0,0,0,-1,531,722,0,0
-686,302,0,0,0,0,0,0,0,0,0,-1,538,722,0,0
-679,302,0,0,0,0,0,0,0,0,0,-1,545,722,0,0
-672,302,0,0,0,0,0,0,0,0,0,-1,552,722,0,0
-665,302,0,0,0,0,0,0,0,0,0,-1,559,722,0,0
-658,302,0,0,0,0,0,0,0,0,0,-1,566,722,0,0
-651,302,0,0,0,0,0,0,0,0,0,-1,573,722,0,0
-644,302,0,0,0,0,0,0,0,0,0,-1,580,722,0,0
-637,302,0,0,0,0,0,0,0,0,0,-1,587,722,0,0
-630,302,0,0,0,0,0,0,0,0,0,-1,594,722,0,0
-623,302,0,0,0,0,0,0,0,0,0,-1,601,722,0,0
-616,302,0,0,0,0,0,0,0,0,0,-1,608,722,0,0
-609,302,-7.79266,-3.71649,0,0,0,0,0,0,0,-1,615,722,-7.79267,3.7165
-602,302,0.92865,-1.99158,0,0,0,0,0,0,0,-1,622,722,0.928637,1.99157
-595,302,-7.89941,2.13641,0,0,0,0,0,0,0,-1,629,722,-7.89939,-2.13639
-588,302,-7.10895,1.79163,0,0,0,0,0,0,0,-1,636,722,-7.10896,-1.79163
-581,302,-8.59845,0.402344,0,0,0,0,0,0,0,-1,643,722,-8.59848,-0.402343
-574,302,-8.55273,0.37439,0,0,0,0,0,0,0,-1,650,722,-8.55276,-0.374384
-567,302,-9.06934,0.499268,0,0,0,0,0,0,0,-1,657,722,-9.06932,-0.499286
-560,302,-9.49744,0.463013,0.00426479,0.00292923,0.00119801,0.00496856,0.00222545,0.531142,0.00287379,0.0477506,664,722,-9.49745,-0.462996
-553,302,-9.83936,0.40625,-0.00129677,0.00405925,-1.22732e-05,0.00405928,-0.00129679,-1.5685,0.00322652,0.0185371,671,722,-9.83933,-0.406247
-546,302,-9.84418,0.0549316,-0.00308868,0.00380728,-0.000312987,0.00382146,-0.00310286,-1.52553,0.00400493,0.0144585,678,722,-9.84418,-0.0549223
-539,302,-9.86932,-0.222717,-0.00213395,0.00258729,-0.000132987,0.00259103,-0.00213769,-1.54266,0.00273431,0.0141589,685,722,-9.86934,0.222696
-532,302,-9.87024,-0.534485,-0.00151134,0.00120947,0.000258349,0.00123378,-0.00153565,1.47696,0.0016021,0.0136744,692,722,-9.87025,0.534485
-525,302,-9.81439,-0.896606,-0.00103212,-0.000173047,0.000952556,0.000442338,-0.00164751,0.997213,0.00127169,0.0185149,699,722,-9.81438,0.896586
-518,302,-9.83862,-1.20313,-0.000914219,-0.00150868,0.00163219,0.000447588,-0.00287048,0.695333,0.00207897,0.0181804,706,722,-9.83863,1.2031
-511,302,-9.8634,-1.4826,-0.00127694,-0.00247651,0.00223175,0.000434217,-0.00418767,0.654125,0.0029472,0.0102293,713,722,-9.86342,1.48259
-504,302,-9.86133,-1.80566,-0.00124521,-0.00267046,0.00279096,0.000922668,-0.00483834,0.660402,0.00357305,0.00993588,720,722,-9.86133,1.80565
-497,302,-9.87421,-2.13104,0.000199861,-0.000774395,0.00368468,0.00342947,-0.00400401,0.719678,0.00429599,0.0138869,727,722,-9.87419,2.13102
-490,302,-9.77472,-2.38538,0.00121645,0.00136042,0.00417385,0.0054629,-0.00288603,0.794021,0.00489619,0.0489415,734,722,-9.7747,2.38535
-483,302,-9.33997,-2.42584,0,0,0,0,0,0,0,-1,741,722,-9.33995,2.42583
-476,302,-4.29749,-0.203491,0,0,0,0,0,0,0,-1,748,722,-4.29751,0.203464
-469,302,-12.369,1.42859,0,0,0,0,0,0,0,-1,755,722,-12.3689,-1.42857
-462,302,-17.4766,0.310791,0,0,0,0,0,0,0,-1,762,722,-17.4766,-0.310788
-455,302,-17.8736,1.4895,0,0,0,0,0,0,0,-1,769,722,-17.8736,-1.48952
-448,302,-18.8477,1.4176,0,0,0,0,0,0,0,-1,776,722,-18.8476,-1.41757
-441,302,-19.3027,1.54785,0,0,0,0,0,0,0,-1,783,722,-19.3027,-1.54786
-434,302,-19.7321,1.78467,0,0,0,0,0,0,0,-1,790,722,-19.732,-1.78469
-427,302,-15.3611,1.80798,0,0,0,0,0,0,0,-1,797,722,-15.3611,-1.80801
-420,302,0,0,0,0,0,0,0,0,0,-1,804,722,0,0
-413,302,0,0,0,0,0,0,0,0,0,-1,811,722,0,0
-406,302,0,0,0,0,0,0,0,0,0,-1,818,722,0,0
-399,302,0,0,0,0,0,0,0,0,0,-1,825,722,0,0
-392,302,0,0,0,0,0,0,0,0,0,-1,832,722,0,0
-385,302,0,0,0,0,0,0,0,0,0,-1,839,722,0,0
-378,302,0,0,0,0,0,0,0,0,0,-1,846,722,0,0
-371,302,0,0,0,0,0,0,0,0,0,-1,853,722,0,0
-364,302,0,0,0,0,0,0,0,0,0,-1,860,722,0,0
-357,302,0,0,0,0,0,0,0,0,0,-1,867,722,0,0
-350,302,0,0,0,0,0,0,0,0,0,-1,874,722,0,0
-343,302,0,0,0,0,0,0,0,0,0,-1,881,722,0,0
-336,302,0,0,0,0,0,0,0,0,0,-1,888,722,0,0
-329,302,0,0,0,0,0,0,0,0,0,-1,895,722,0,0
-322,302,0,0,0,0,0,0,0,0,0,-1,902,722,0,0
-315,302,0,0,0,0,0,0,0,0,0,-1,909,722,0,0
-308,302,0,0,0,0,0,0,0,0,0,-1,916,722,0,0
-301,302,0,0,0,0,0,0,0,0,0,-1,923,722,0,0
-294,302,0,0,0,0,0,0,0,0,0,-1,930,722,0,0
-287,302,0,0,0,0,0,0,0,0,0,-1,937,722,0,0
-280,302,0,0,0,0,0,0,0,0,0,-1,944,722,0,0
-273,302,0,0,0,0,0,0,0,0,0,-1,951,722,0,0
-266,302,0,0,0,0,0,0,0,0,0,-1,958,722,0,0
-259,302,0,0,0,0,0,0,0,0,0,-1,965,722,0,0
-252,302,0,0,0,0,0,0,0,0,0,-1,972,722,0,0
-245,302,0,0,0,0,0,0,0,0,0,-1,979,722,0,0
-238,302,0,0,0,0,0,0,0,0,0,-1,986,722,0,0
-231,302,0,0,0,0,0,0,0,0,0,-1,993,722,0,0
-224,302,0,0,0,0,0,0,0,0,0,-1,1000,722,0,0
-217,302,0,0,0,0,0,0,0,0,0,-1,1007,722,0,0
-210,302,0,0,0,0,0,0,0,0,0,-1,1014,722,0,0
-203,302,0,0,0,0,0,0,0,0,0,-1,1021,722,0,0
-196,302,0,0,0,0,0,0,0,0,0,-1,1028,722,0,0
-189,302,0,0,0,0,0,0,0,0,0,-1,1035,722,0,0
-182,302,0,0,0,0,0,0,0,0,0,-1,1042,722,0,0
-175,302,0,0,0,0,0,0,0,0,0,-1,1049,722,0,0
-168,302,0,0,0,0,0,0,0,0,0,-1,1056,722,0,0
-161,302,0,0,0,0,0,0,0,0,0,-1,1063,722,0,0
-154,302,0,0,0,0,0,0,0,0,0,-1,1070,722,0,0
-147,302,0,0,0,0,0,0,0,0,0,-1,1077,722,0,0
-140,302,0,0,0,0,0,0,0,0,0,-1,1084,722,0,0
-133,302,0,0,0,0,0,0,0,0,0,-1,1091,722,0,0
-126,302,0,0,0,0,0,0,0,0,0,-1,1098,722,0,0
-119,302,0,0,0,0,0,0,0,0,0,-1,1105,722,0,0
-112,302,0,0,0,0,0,0,0,0,0,-1,1112,722,0,0
-105,302,0,0,0,0,0,0,0,0,0,-1,1119,722,0,0
-98,302,0,0,0,0,0,0,0,0,0,-1,1126,722,0,0
-91,302,0,0,0,0,0,0,0,0,0,-1,1133,722,0,0
-84,302,0,0,0,0,0,0,0,0,0,-1,1140,722,0,0
-77,302,0,0,0,0,0,0,0,0,0,-1,1147,722,0,0
-70,302,0,0,0,0,0,0,0,0,0,-1,1154,722,0,0
-63,302,0,0,0,0,0,0,0,0,0,-1,1161,722,0,0
-56,302,0,0,0,0,0,0,0,0,0,-1,1168,722,0,0
-49,302,0,0,0,0,0,0,0,0,0,-1,1175,722,0,0
-42,302,0,0,0,0,0,0,0,0,0,-1,1182,722,0,0
-35,302,0,0,0,0,0,0,0,0,0,-1,1189,722,0,0
-28,302,0,0,0,0,0,0,0,0,0,-1,1196,722,0,0
-21,302,0,0,0,0,0,0,0,0,0,-1,1203,722,0,0
-14,302,0,0,0,0,0,0,0,0,0,-1,1210,722,0,0
-7,302,0,0,0,0,0,0,0,0,0,-1,1217,722,0,0
0,302,0,0,0,0,0,0,0,0,0,-1,1224,722,0,0
7,302,0,0,0,0,0,0,0,0,0,-1,1231,722,0,0
14,302,0,0,0,0,0,0,0,0,0,-1,1238,722,0,0
21,302,0,0,0,0,0,0,0,0,0,-1,1245,722,0,0
28,302,0,0,0,0,0,0,0,0,0,-1,1252,722,0,0
35,302,0,0,0,0,0,0,0,0,0,-1,1259,722,0,0
42,302,0,0,0,0,0,0,0,0,0,-1,1266,722,0,0
49,302,0,0,0,0,0,0,0,0,0,-1,1273,722,0,0
56,302,0,0,0,0,0,0,0,0,0,-1,1280,722,0,0
63,302,0,0,0,0,0,0,0,0,0,-1,1287,722,0,0
70,302,0,0,0,0,0,0,0,0,0,-1,1294,722,0,0
77,302,0,0,0,0,0,0,0,0,0,-1,1301,722,0,0
84,302,0,0,0,0,0,0,0,0,0,-1,1308,722,0,0
91,302,0,0,0,0,0,0,0,0,0,-1,1315,722,0,0
98,302,0,0,0,0,0,0,0,0,0,-1,1322,722,0,0
105,302,0,0,0,0,0,0,0,0,0,-1,1329,722,0,0
112,302,0,0,0,0,0,0,0,0,0,-1,1336,722,0,0
119,302,0,0,0,0,0,0,0,0,0,-1,1343,722,0,0
126,302,0,0,0,0,0,0,0,0,0,-1,1350,722,0,0
133,302,0,0,0,0,0,0,0,0,0,-1,1357,722,0,0
140,302,0,0,0,0,0,0,0,0,0,-1,1364,722,0,0
147,302,0,0,0,0,0,0,0,0,0,-1,1371,722,0,0
154,302,0,0,0,0,0,0,0,0,0,-1,1378,722,0,0
161,302,0,0,0,0,0,0,0,0,0,-1,1385,722,0,0
168,302,0,0,0,0,0,0,0,0,0,-1,1392,722,0,0
175,302,0,0,0,0,0,0,0,0,0,-1,1399,722,0,0
182,302,0,0,0,0,0,0,0,0,0,-1,1406,722,0,0
189,302,0,0,0,0,0,0,0,0,0,-1,1413,722,0,0
196,302,0,0,0,0,0,0,0,0,0,-1,1420,722,0,0
203,302,0,0,0,0,0,0,0,0,0,-1,1427,722,0,0
210,302,0,0,0,0,0,0,0,0,0,-1,1434,722,0,0
217,302,0,0,0,0,0,0,0,0,0,-1,1441,722,0,0
224,302,0,0,0,0,0,0,0,0,0,-1,1448,722,0,0
231,302,0,0,0,0,0,0,0,0,0,-1,1455,722,0,0
238,302,0,0,0,0,0,0,0,0,0,-1,1462,722,0,0
245,302,0,0,0,0,0,0,0,0,0,-1,1469,722,0,0
252,302,0,0,0,0,0,0,0,0,0,-1,1476,722,0,0
259,302,0,0,0,0,0,0,0,0,0,-1,1483,722,0,0
266,302,0,0,0,0,0,0,0,0,0,-1,1490,722,0,0
273,302,0,0,0,0,0,0,0,0,0,-1,1497,722,0,0
280,302,0,0,0,0,0,0,0,0,0,-1,1504,722,0,0
287,302,0,0,0,0,0,0,0,0,0,-1,1511,722,0,0
294,302,0,0,0,0,0,0,0,0,0,-1,1518,722,0,0
301,302,0,0,0,0,0,0,0,0,0,-1,1525,722,0,0
308,302,0,0,0,0,0,0,0,0,0,-1,1532,722,0,0
315,302,0,0,0,0,0,0,0,0,0,-1,1539,722,0,0
322,302,0,0,0,0,0,0,0,0,0,-1,1546,722,0,0
329,302,0,0,0,0,0,0,0,0,0,-1,1553,722,0,0
336,302,0,0,0,0,0,0,0,0,0,-1,1560,722,0,0
343,302,0,0,0,0,0,0,0,0,0,-1,1567,722,0,0
350,302,0,0,0,0,0,0,0,0,0,-1,1574,722,0,0
357,302,0,0,0,0,0,0,0,0,0,-1,1581,722,0,0
364,302,0,0,0,0,0,0,0,0,0,-1,1588,722,0,0
371,302,0,0,0,0,0,0,0,0,0,-1,1595,722,0,0
378,302,0,0,0,0,0,0,0,0,0,-1,1602,722,0,0
385,302,0,0,0,0,0,0,0,0,0,-1,1609,722,0,0
392,302,0,0,0,0,0,0,0,0,0,-1,1616,722,0,0
399,302,0,0,0,0,0,0,0,0,0,-1,1623,722,0,0
406,302,0,0,0,0,0,0,0,0,0,-1,1630,722,0,0
413,302,0,0,0,0,0,0,0,0,0,-1,1637,722,0,0
420,302,0,0,0,0,0,0,0,0,0,-1,1644,722,0,0
427,302,0,0,0,0,0,0,0,0,0,-1,1651,722,0,0
434,302,0,0,0,0,0,0,0,0,0,-1,1658,722,0,0
441,302,0,0,0,0,0,0,0,0,0,-1,1665,722,0,0
448,302,0,0,0,0,0,0,0,0,0,-1,1672,722,0,0
455,302,0,0,0,0,0,0,0,0,0,-1,1679,722,0,0
462,302,0,0,0,0,0,0,0,0,0,-1,1686,722,0,0
469,302,0,0,0,0,0,0,0,0,0,-1,1693,722,0,0
476,302,0,0,0,0,0,0,0,0,0,-1,1700,722,0,0
483,302,0,0,0,0,0,0,0,0,0,-1,1707,722,0,0
490,302,0,0,0,0,0,0,0,0,0,-1,1714,722,0,0
497,302,0,0,0,0,0,0,0,0,0,-1,1721,722,0,0
504,302,0,0,0,0,0,0,0,0,0,-1,1728,722,0,0
511,302,0,0,0,0,0,0,0,0,0,-1,1735,722,0,0
518,302,0,0,0,0,0,0,0,0,0,-1,1742,722,0,0
525,302,0,0,0,0,0,0,0,0,0,-1,1749,722,0,0
532,302,0,0,0,0,0,0,0,0,0,-1,1756,722,0,0
539,302,0,0,0,0,0,0,0,0,0,-1,1763,722,0,0
546,302,25.4285,1.86597,0,0,0,0,0,0,0,-1,1770,722,25.4285,-1.86594
553,302,26.0726,2.16431,0,0,0,0,0,0,0,-1,1777,722,26.0727,-2.16428
560,302,26.6375,2.28345,0,0,0,0,0,0,0,-1,1784,722,26.6375,-2.28347
567,302,27.1978,2.72742,0,0,0,0,0,0,0,-1,1791,722,27.1978,-2.72742
574,302,27.6527,2.91058,0,0,0,0,0,0,0,-1,1798,722,27.6527,-2.91058
581,302,28.0494,3.46948,0,0,0,0,0,0,0,-1,1805,722,28.0494,-3.46949
588,302,28.5369,3.9776,0,0,0,0,0,0,0,-1,1812,722,28.5369,-3.97761
595,302,26.5759,7.33228,0,0,0,0,0,0,0,-1,1819,722,26.5759,-7.3323
602,302,14.7349,5.21246,0,0,0,0,0,0,0,-1,1826,722,14.7349,-5.21247
609,302,11.1578,-0.125854,0,0,0,0,0,0,0,-1,1833,722,11.1579,0.125839
616,302,16.874,-0.653015,0,0,0,0,0,0,0,-1,1840,722,16.874,0.652995
623,302,16.9568,-0.24408,-0.00243367,0.00644534,-0.00516102,0.00881357,-0.0048019,-1.14059,0.00797382,0.016148,1847,722,16.9568,0.244101
630,302,16.9211,0.114685,-0.00163116,0.00314393,-0.00367144,0.00513586,-0.00362309,-1.07369,0.00508206,0.011931,1854,722,16.9211,-0.114682
637,302,16.8848,0.461975,-0.00136977,0.00134168,-0.00256134,0.00288396,-0.00291205,-1.02881,0.00334634,0.0146336,1861,722,16.8848,-0.461983
644,302,16.89,0.785706,-0.00125402,0.000287592,-0.00149871,0.0012021,-0.00216853,-1.02291,0.00197252,0.0159337,1868,722,16.89,-0.785695
651,302,16.8965,1.13873,-0.0014235,-0.000399784,-0.00101037,0.000220987,-0.00204427,-1.01986,0.00144216,0.0150268,1875,722,16.8965,-1.13876
658,302,16.9314,1.47614,-0.00162433,8.81574e-05,-0.000823311,0.000419767,-0.00195594,-1.1879,0.00146408,0.0158738,1882,722,16.9314,-1.47612
665,302,16.925,1.8064,-0.00193666,0.000659716,-0.000717997,0.000845042,-0.00212199,-1.3182,0.00176511,0.0147973,1889,722,16.9251,-1.80637
672,302,16.9026,2.13287,-0.00230584,0.00139217,-0.000576196,0.00147987,-0.00239354,-1.41975,0.00225696,0.0114289,1896,722,16.9026,-2.1329
679,302,16.8951,2.4928,-0.00270891,0.00236233,-0.000386612,0.00239163,-0.00273821,-1.49514,0.00296397,0.00979649,1903,722,16.8951,-2.49279
686,302,16.9108,2.82172,-0.00332656,0.00364186,-0.000331451,0.00365759,-0.00334229,-1.52337,0.00404275,0.0148226,1910,722,16.9108,-2.82169
693,302,16.6715,3.05682,-0.00384554,0.0054145,-7.91218e-06,0.00541451,-0.00384555,-1.56994,0.00537181,0.0340295,1917,722,16.6715,-3.0568
700,302,16.6377,3.18329,0,0,0,0,0,0,0,-1,1924,722,16.6378,-3.18332
707,302,16.7321,4.76685,0,0,0,0,0,0,0,-1,1931,722,16.7321,-4.76687
714,302,17.2,5.77594,0,0,0,0,0,0,0,-1,1938,722,17.2,-5.77595
721,302,17.7914,6.60394,0,0,0,0,0,0,0,-1,1945,722,17.7914,-6.60395
728,302,17.2798,4.81702,0,0,0,0,0,0,0,-1,1952,722,17.2798,-4.81703
735,302,0,0,0,0,0,0,0,0,0,-1,1959,722,0,0
742,302,0,0,0,0,0,0,0,0,0,-1,1966,722,0,0
749,302,0,0,0,0,0,0,0,0,0,-1,1973,722,0,0
756,302,0,0,0,0,0,0,0,0,0,-1,1980,722,0,0
763,302,0,0,0,0,0,0,0,0,0,-1,1987,722,0,0
770,302,0,0,0,0,0,0,0,0,0,-1,1994,722,0,0
777,302,0,0,0,0,0,0,0,0,0,-1,2001,722,0,0
784,302,0,0,0,0,0,0,0,0,0,-1,2008,722,0,0
791,302,0,0,0,0,0,0,0,0,0,-1,2015,722,0,0
798,302,0,0,0,0,0,0,0,0,0,-1,2022,722,0,0
805,302,0,0,0,0,0,0,0,0,0,-1,2029,722,0,0
812,302,0,0,0,0,0,0,0,0,0,-1,2036,722,0,0
-700,295,0,0,0,0,0,0,0,0,0,-1,524,729,0,0
-693,295,0,0,0,0,0,0,0,0,0,-1,531,729,0,0
-686,295,0,0,0,0,0,0,0,0,0,-1,538,729,0,0
-679,295,0,0,0,0,0,0,0,0,0,-1,545,729,0,0
-672,295,0,0,0,0,0,0,0,0,0,-1,552,729,0,0
-665,295,0,0,0,0,0,0,0,0,0,-1,559,729,0,0
-658,295,0,0,0,0,0,0,0,0,0,-1,566,729,0,0
-651,295,0,0,0,0,0,0,0,0,0,-1,573,729,0,0
-644,295,0,0,0,0,0,0,0,0,0,-1,580,729,0,0
-637,295,0,0,0,0,0,0,0,0,0,-1,587,729,0,0
-630,295,0,0,0,0,0,0,0,0,0,-1,594,729,0,0
-623,295,0,0,0,0,0,0,0,0,0,-1,601,729,0,0
-616,295,-13.4911,1.31738,0,0,0,0,0,0,0,-1,608,729,-13.4911,-1.3174
-609,295,-10.2864,0.832031,0,0,0,0,0,0,0,-1,615,729,-10.2863,-0.832034
-602,295,-8.19006,3.01587,0,0,0,0,0,0,0,-1,622,729,-8.19005,-3.01588
-595,295,-0.615479,-1.95447,0,0,0,0,0,0,0,-1,629,729,-0.615481,1.95445
-588,295,-7.98999,1.56903,0,0,0,0,0,0,0,-1,636,729,-7.98997,-1.56905
-581,295,-8.40094,1.5567,0,0,0,0,0,0,0,-1,643,729,-8.40095,-1.5567
-574,295,-9.71344,1.48657,0,0,0,0,0,0,0,-1,650,729,-9.71346,-1.4866
-567,295,-9.51501,0.788147,0.0150984,-0.00259902,0.00398861,0.0159558,-0.00345642,0.211742,0.011957,0.0492689,657,729,-9.515,-0.78816
-560,295,-10.1047,0.679626,0.00372787,0.00043414,0.00365539,0.00609024,-0.00192824,0.573751,0.00483288,0.0279396,664,729,-10.1047,-0.679652
-553,295,-10.134,0.367493,-0.00194658,0.00194855,0.00216464,0.0029128,-0.00291083,1.15173,0.00336228,0.0162424,671,729,-10.134,-0.367478
-546,295,-10.1831,0.0819092,-0.00394087,0.00198513,0.0016375,0.0024075,-0.00436325,1.31836,0.00396308,0.0197648,678,729,-10.1831,-0.0819257
-539,295,-10.1988,-0.185364,-0.00302011,0.000955171,0.00160906,0.00152483,-0.00358977,1.23053,0.00303208,0.0184108,685,729,-10.1988,0.185362
-532,295,-10.1849,-0.519287,-0.00239977,-0.000229023,0.00179119,0.000779979,-0.00340877,1.05779,0.00257223,0.0150001,692,729,-10.1849,0.519308
-525,295,-10.1527,-0.883057,-0.00184117,-0.00148202,0.00238612,0.000731273,-0.00405446,0.822956,0.00297683,0.014187,699,729,-10.1527,0.88306
-518,295,-10.1535,-1.18481,-0.00166452,-0.00260282,0.00293868,0.000842223,-0.00510957,0.706242,0.00371904,0.0106277,706,729,-10.1535,1.18481
-511,295,-10.1737,-1.4826,-0.00202574,-0.00330171,0.00336729,0.000763469,-0.00609092,0.691775,0.00433756,0.00942608,713,729,-10.1737,1.48261
-504,295,-10.168,-1.81293,-0.00179323,-0.00310114,0.00376807,0.00137722,-0.00627159,0.699478,0.00470776,0.0108426,720,729,-10.168,1.8129
-497,295,-10.1885,-2.10577,-1.59378e-05,-0.000652226,0.0045723,0.00424928,-0.00491744,0.750664,0.00529709,0.017699,727,729,-10.1885,2.10577
-490,295,-10.2219,-2.38916,0,0,0,0,0,0,0,-1,734,729,-10.2219,2.38914
-483,295,-6.84503,-0.454651,0,0,0,0,0,0,0,-1,741,729,-6.84505,0.454639
-476,295,-13.1738,-0.836243,0,0,0,0,0,0,0,-1,748,729,-13.1738,0.836223
-469,295,-17.9111,-2.08649,0,0,0,0,0,0,0,-1,755,729,-17.9111,2.08651
-462,295,-17.9293,-0.330566,0,0,0,0,0,0,0,-1,762,729,-17.9293,0.330568
-455,295,-18.0007,1.13708,0,0,0,0,0,0,0,-1,769,729,-18.0007,-1.13706
-448,295,-20.1943,3.38257,0,0,0,0,0,0,0,-1,776,729,-20.1943,-3.38257
-441,295,-19.2588,4.11157,0,0,0,0,0,0,0,-1,783,729,-19.2588,-4.11156
-434,295,-15.7352,0.180969,0,0,0,0,0,0,0,-1,790,729,-15.7352,-0.180951
-427,295,0,0,0,0,0,0,0,0,0,-1,797,729,0,0
-420,295,0,0,0,0,0,0,0,0,0,-1,804,729,0,0
-413,295,0,0,0,0,0,0,0,0,0,-1,811,729,0,0
-406,295,0,0,0,0,0,0,0,0,0,-1,818,729,0,0
-399,295,0,0,0,0,0,0,0,0,0,-1,825,729,0,0
-392,295,0,0,0,0,0,0,0,0,0,-1,832,729,0,0
-385,295,0,0,0,0,0,0,0,0,0,-1,839,729,0,0
-378,295,0,0,0,0,0,0,0,0,0,-1,846,729,0,0
-371,295,0,0,0,0,0,0,0,0,0,-1,853,729,0,0
-364,295,0,0,0,0,0,0,0,0,0,-1,860,729,0,0
-357,295,0,0,0,0,0,0,0,0,0,-1,867,729,0,0
-350,295,0,0,0,0,0,0,0,0,0,-1,874,729,0,0
-343,295,0,0,0,0,0,0,0,0,0,-1,881,729,0,0
-336,295,0,0,0,0,0,0,0,0,0,-1,888,729,0,0
-329,295,0,0,0,0,0,0,0,0,0,-1,895,729,0,0
-322,295,0,0,0,0,0,0,0,0,0,-1,902,729,0,0
-315,295,0,0,0,0,0,0,0,0,0,-1,909,729,0,0
-308,295,0,0,0,0,0,0,0,0,0,-1,916,729,0,0
-301,295,0,0,0,0,0,0,0,0,0,-1,923,729,0,0
-294,295,0,0,0,0,0,0,0,0,0,-1,930,729,0,0
-287,295,0,0,0,0,0,0,0,0,0,-1,937,729,0,0
-280,295,0,0,0,0,0,0,0,0,0,-1,944,729,0,0
-273,295,0,0,0,0,0,0,0,0,0,-1,951,729,0,0
-266,295,0,0,0,0,0,0,0,0,0,-1,958,729,0,0
-259,295,0,0,0,0,0,0,0,0,0,-1,965,729,0,0
-252,295,0,0,0,0,0,0,0,0,0,-1,972,729,0,0
-245,295,0,0,0,0,0,0,0,0,0,-1,979,729,0,0
-238,295,0,0,0,0,0,0,0,0,0,-1,986,729,0,0
-231,295,0,0,0,0,0,0,0,0,0,-1,993,729,0,0
-224,295,0,0,0,0,0,0,0,0,0,-1,1000,729,0,0
-217,295,0,0,0,0,0,0,0,0,0,-1,1007,729,0,0
-210,295,0,0,0,0,0,0,0,0,0,-1,1014,729,0,0
-203,295,0,0,0,0,0,0,0,0,0,-1,1021,729,0,0
-196,295,0,0,0,0,0,0,0,0,0,-1,1028,729,0,0
-189,295,0,0,0,0,0,0,0,0,0,-1,1035,729,0,0
-182,295,0,0,0,0,0,0,0,0,0,-1,1042,729,0,0
-175,295,0,0,0,0,0,0,0,0,0,-1,1049,729,0,0
-168,295,0,0,0,0,0,0,0,0,0,-1,1056,729,0,0
-161,295,0,0,0,0,0,0,0,0,0,-1,1063,729,0,0
-154,295,0,0,0,0,0,0,0,0,0,-1,1070,729,0,0
-147,295,0,0,0,0,0,0,0,0,0,-1,1077,729,0,0
-140,295,0,0,0,0,0,0,0,0,0,-1,1084,729,0,0
-133,295,0,0,0,0,0,0,0,0,0,-1,1091,729,0,0
-126,295,0,0,0,0,0,0,0,0,0,-1,1098,729,0,0
-119,295,0,0,0,0,0,0,0,0,0,-1,1105,729,0,0
-112,295,0,0,0,0,0,0,0,0,0,-1,1112,729,0,0
-105,295,0,0,0,0,0,0,0,0,0,-1,1119,729,0,0
-98,295,0,0,0,0,0,0,0,0,0,-1,1126,729,0,0
-91,295,0,0,0,0,0,0,0,0,0,-1,1133,729,0,0
-84,295,0,0,0,0,0,0,0,0,0,-1,1140,729,0,0
-77,295,0,0,0,0,0,0,0,0,0,-1,1147,729,0,0
-70,295,0,0,0,0,0,0,0,0,0,-1,1154,729,0,0
-63,295,0,0,0,0,0,0,0,0,0,-1,1161,729,0,0
-56,295,0,0,0,0,0,0,0,0,0,-1,1168,729,0,0
-49,295,0,0,0,0,0,0,0,0,0,-1,1175,729,0,0
-42,295,0,0,0,0,0,0,0,0,0,-1,1182,729,0,0
-35,295,0,0,0,0,0,0,0,0,0,-1,1189,729,0,0
-28,295,0,0,0,0,0,0,0,0,0,-1,1196,729,0,0
-21,295,0,0,0,0,0,0,0,0,0,-1,1203,729,0,0
-14,295,0,0,0,0,0,0,0,0,0,-1,1210,729,0,0
-7,295,0,0,0,0,0,0,0,0,0,-1,1217,729,0,0
0,295,0,0,0,0,0,0,0,0,0,-1,1224,729,0,0
7,295,0,0,0,0,0,0,0,0,0,-1,1231,729,0,0
14,295,0,0,0,0,0,0,0,0,0,-1,1238,729,0,0
21,295,0,0,0,0,0,0,0,0,0,-1,1245,729,0,0
28,295,0,0,0,0,0,0,0,0,0,-1,1252,729,0,0
35,295,0,0,0,0,0,0,0,0,0,-1,1259,729,0,0
42,295,0,0,0,0,0,0,0,0,0,-1,1266,729,0,0
49,295,0,0,0,0,0,0,0,0,0,-1,1273,729,0,0
56,295,0,0,0,0,0,0,0,0,0,-1,1280,729,0,0
63,295,0,0,0,0,0,0,0,0,0,-1,1287,729,0,0
70,295,0,0,0,0,0,0,0,0,0,-1,1294,729,0,0
77,295,0,0,0,0,0,0,0,0,0,-1,1301,729,0,0
84,295,0,0,0,0,0,0,0,0,0,-1,1308,729,0,0
91,295,0,0,0,0,0,0,0,0,0,-1,1315,729,0,0
98,295,0,0,0,0,0,0,0,0,0,-1,1322,729,0,0
105,295,0,0,0,0,0,0,0,0,0,-1,1329,729,0,0
112,295,0,0,0,0,0,0,0,0,0,-1,1336,729,0,0
119,295,0,0,0,0,0,0,0,0,0,-1,1343,729,0,0
126,295,0,0,0,0,0,0,0,0,0,-1,1350,729,0,0
133,295,0,0,0,0,0,0,0,0,0,-1,1357,729,0,0
140,295,0,0,0,0,0,0,0,0,0,-1,1364,729,0,0
147,295,0,0,0,0,0,0,0,0,0,-1,1371,729,0,0
154,295,0,0,0,0,0,0,0,0,0,-1,1378,729,0,0
161,295,0,0,0,0,0,0,0,0,0,-1,1385,729,0,0
168,295,0,0,0,0,0,0,0,0,0,-1,1392,729,0,0
175,295,0,0,0,0,0,0,0,0,0,-1,1399,729,0,0
182,295,0,0,0,0,0,0,0,0,0,-1,1406,729,0,0
189,295,0,0,0,0,0,0,0,0,0,-1,1413,729,0,0
196,295,0,0,0,0,0,0,0,0,0,-1,1420,729,0,0
203,295,0,0,0,0,0,0,0,0,0,-1,1427,729,0,0
210,295,0,0,0,0,0,0,0,0,0,-1,1434,729,0,0
217,295,0,0,0,0,0,0,0,0,0,-1,1441,729,0,0
224,295,0,0,0,0,0,0,0,0,0,-1,1448,729,0,0
231,295,0,0,0,0,0,0,0,0,0,-1,1455,729,0,0
238,295,0,0,0,0,0,0,0,0,0,-1,1462,729,0,0
245,295,0,0,0,0,0,0,0,0,0,-1,1469,729,0,0
252,295,0,0,0,0,0,0,0,0,0,-1,1476,729,0,0
259,295,0,0,0,0,0,0,0,0,0,-1,1483,729,0,0
266,295,0,0,0,0,0,0,0,0,0,-1,1490,729,0,0
273,295,0,0,0,0,0,0,0,0,0,-1,1497,729,0,0
280,295,0,0,0,0,0,0,0,0,0,-1,1504,729,0,0
287,295,0,0,0,0,0,0,0,0,0,-1,1511,729,0,0
294,295,0,0,0,0,0,0,0,0,0,-1,1518,729,0,0
301,295,0,0,0,0,0,0,0,0,0,-1,1525,729,0,0
308,295,0,0,0,0,0,0,0,0,0,-1,1532,729,0,0
315,295,0,0,0,0,0,0,0,0,0,-1,1539,729,0,0
322,295,0,0,0,0,0,0,0,0,0,-1,1546,729,0,0
329,295,0,0,0,0,0,0,0,0,0,-1,1553,729,0,0
336,295,0,0,0,0,0,0,0,0,0,-1,1560,729,0,0
343,295,0,0,0,0,0,0,0,0,0,-1,1567,729,0,0
350,295,0,0,0,0,0,0,0,0,0,-1,1574,729,0,0
357,295,0,0,0,0,0,0,0,0,0,-1,1581,729,0,0
364,295,0,0,0,0,0,0,0,0,0,-1,1588,729,0,0
371,295,0,0,0,0,0,0,0,0,0,-1,1595,729,0,0
378,295,0,0,0,0,0,0,0,0,0,-1,1602,729,0,0
385,295,0,0,0,0,0,0,0,0,0,-1,1609,729,0,0
392,295,0,0,0,0,0,0,0,0,0,-1,1616,729,0,0
399,295,0,0,0,0,0,0,0,0,0,-1,1623,729,0,0
406,295,0,0,0,0,0,0,0,0,0,-1,1630,729,0,0
413,295,0,0,0,0,0,0,0,0,0,-1,1637,729,0,0
420,295,0,0,0,0,0,0,0,0,0,-1,1644,729,0,0
427,295,0,0,0,0,0,0,0,0,0,-1,1651,729,0,0
434,295,0,0,0,0,0,0,0,0,0,-1,1658,729,0,0
441,295,0,0,0,0,0,0,0,0,0,-1,1665,729,0,0
448,295,0,0,0,0,0,0,0,0,0,-1,1672,729,0,0
455,295,0,0,0,0,0,0,0,0,0,-1,1679,729,0,0
462,295,0,0,0,0,0,0,0,0,0,-1,1686,729,0,0
469,295,0,0,0,0,0,0,0,0,0,-1,1693,729,0,0
476,295,0,0,0,0,0,0,0,0,0,-1,1700,729,0,0
483,295,0,0,0,0,0,0,0,0,0,-1,1707,729,0,0
490,295,0,0,0,0,0,0,0,0,0,-1,1714,729,0,0
497,295,0,0,0,0,0,0,0,0,0,-1,1721,729,0,0
504,295,0,0,0,0,0,0,0,0,0,-1,1728,729,0,0
511,295,0,0,0,0,0,0,0,0,0,-1,1735,729,0,0
518,295,0,0,0,0,0,0,0,0,0,-1,1742,729,0,0
525,295,0,0,0,0,0,0,0,0,0,-1,1749,729,0,0
532,295,0,0,0,0,0,0,0,0,0,-1,1756,729,0,0
539,295,0,0,0,0,0,0,0,0,0,-1,1763,729,0,0
546,295,24.8582,3.44745,0,0,0,0,0,0,0,-1,1770,729,24.8582,-3.44744
553,295,25.3491,1.77911,0,0,0,0,0,0,0,-1,1777,729,25.3491,-1.7791
560,295,25.8529,1.85632,0,0,0,0,0,0,0,-1,1784,729,25.8528,-1.85634
567,295,26.41,2.30804,0,0,0,0,0,0,0,-1,1791,729,26.41,-2.30802
574,295,26.8809,2.73346,0,0,0,0,0,0,0,-1,1798,729,26.8808,-2.73347
581,295,25.9583,4.10883,0,0,0,0,0,0,0,-1,1805,729,25.9582,-4.10881
588,295,25.9613,4.65405,0,0,0,0,0,0,0,-1,1812,729,25.9613,-4.65403
595,295,26.2606,5.90479,0,0,0,0,0,0,0,-1,1819,729,26.2606,-5.90478
602,295,26.5505,5.9444,0,0,0,0,0,0,0,-1,1826,729,26.5505,-5.94438
609,295,11.7737,2.19989,0,0,0,0,0,0,0,-1,1833,729,11.7736,-2.19988
616,295,17.3003,-0.521484,0,0,0,0,0,0,0,-1,1840,729,17.3003,0.521458
623,295,17.2523,-0.202637,-0.0030608,0.00679341,-0.0065904,0.0100949,-0.00636228,-1.10639,0.00958267,0.0333469,1847,729,17.2524,0.202638
630,295,17.2249,0.128113,-0.00228941,0.0032364,-0.00499997,0.00618606,-0.00523907,-1.03781,0.00660385,0.0130209,1854,729,17.2249,-0.128109
637,295,17.2346,0.47229,-0.00199834,0.00134787,-0.00361064,0.00365422,-0.00430468,-1.00236,0.00460018,0.0141061,1861,729,17.2347,-0.472311
644,295,17.2526,0.808655,-0.00168756,0.000134206,-0.00209904,0.00151148,-0.00306483,-0.990112,0.00269239,0.0137371,1868,729,17.2526,-0.808659
651,295,17.2495,1.16345,-0.0016355,-0.000614035,-0.00125587,0.000230984,-0.00248051,-0.978522,0.0017358,0.0133096,1875,729,17.2495,-1.16347
658,295,17.2484,1.49689,-0.0014583,1.38571e-05,-0.000843187,0.000397053,-0.0018415,-1.14424,0.0013792,0.0126574,1882,729,17.2484,-1.49691
665,295,17.2323,1.80786,-0.00141796,0.000721095,-0.000538928,0.000849204,-0.00154607,-1.33742,0.00140228,0.0118188,1889,729,17.2323,-1.80787
672,295,17.2054,2.13477,-0.00148877,0.00151845,-0.000263973,0.00154144,-0.00151176,-1.4839,0.0017628,0.0138491,1896,729,17.2054,-2.13474
679,295,17.1929,2.50232,-0.00157436,0.00251273,3.78399e-05,0.00251308,-0.00157471,1.56154,0.00238072,0.0114452,1903,729,17.1928,-2.50232
686,295,17.2217,2.80988,-0.00181157,0.00378048,0.00024803,0.00379146,-0.00182255,1.52656,0.00330703,0.0108528,1910,729,17.2216,-2.80987
693,295,17.1996,3.11017,-0.00197163,0.00542696,0.000633208,0.00548077,-0.00202543,1.48603,0.00448415,0.0287949,1917,729,17.1995,-3.11017
700,295,17.3278,3.58331,-0.00169753,0.0074594,0.00134077,0.00765168,-0.00188981,1.42836,0.00583399,0.0433889,1924,729,17.3278,-3.5833
707,295,17.6344,4.23596,0,0,0,0,0,0,0,-1,1931,729,17.6344,-4.23594
714,295,17.4906,4.63068,0,0,0,0,0,0,0,-1,1938,729,17.4906,-4.63066
721,295,18.3792,5.32281,0,0,0,0,0,0,0,-1,1945,729,18.3791,-5.32283
728,295,17.379,3.74866,0,0,0,0,0,0,0,-1,1952,729,17.379,-3.74863
735,295,0,0,0,0,0,0,0,0,0,-1,1959,729,0,0
742,295,0,0,0,0,0,0,0,0,0,-1,1966,729,0,0
749,295,0,0,0,0,0,0,0,0,0,-1,1973,729,0,0
756,295,0,0,0,0,0,0,0,0,0,-1,1980,729,0,0
763,295,0,0,0,0,0,0,0,0,0,-1,1987,729,0,0
770,295,0,0,0,0,0,0,0,0,0,-1,1994,729,0,0
777,295,0,0,0,0,0,0,0,0,0,-1,2001,729,0,0
784,295,0,0,0,0,0,0,0,0,0,-1,2008,729,0,0
791,295,0,0,0,0,0,0,0,0,0,-1,2015,729,0,0
798,295,0,0,0,0,0,0,0,0,0,-1,2022,729,0,0
805,295,0,0,0,0,0,0,0,0,0,-1,2029,729,0,0
812,295,0,0,0,0,0,0,0,0,0,-1,2036,729,0,0
-700,288,0,0,0,0,0,0,0,0,0,-1,524,736,0,0
-693,288,0,0,0,0,0,0,0,0,0,-1,531,736,0,0
-686,288,0,0,0,0,0,0,0,0,0,-1,538,736,0,0
-679,288,0,0,0,0,0,0,0,0,0,-1,545,736,0,0
-672,288,0,0,0,0,0,0,0,0,0,-1,552,736,0,0
-665,288,0,0,0,0,0,0,0,0,0,-1,559,736,0,0
-658,288,0,0,0,0,0,0,0,0,0,-1,566,736,0,0
-651,288,0,0,0,0,0,0,0,0,0,-1,573,736,0,0
-644,288,0,0,0,0,0,0,0,0,0,-1,580,736,0,0
-637,288,0,0,0,0,0,0,0,0,0,-1,587,736,0,0
-630,288,0,0,0,0,0,0,0,0,0,-1,594,736,0,0
-623,288,0,0,0,0,0,0,0,0,0,-1,601,736,0,0
-616,288,-11.7584,2.4425,0,0,0,0,0,0,0,-1,608,736,-11.7584,-2.44251
-609,288,-9.58154,1.70886,0,0,0,0,0,0,0,-1,615,736,-9.58154,-1.70889
-602,288,-10.1458,-1.85559,0,0,0,0,0,0,0,-1,622,736,-10.1458,1.85556
-595,288,-7.63208,1.81769,0,0,0,0,0,0,0,-1,629,736,-7.63205,-1.81766
-588,288,-8.19269,1.50598,0,0,0,0,0,0,0,-1,636,736,-8.19268,-1.50601
-581,288,-10.2728,1.55896,0,0,0,0,0,0,0,-1,643,736,-10.2728,-1.55896
-574,288,-10.1989,1.28711,0.0372962,-0.0108668,0.00361518,0.037566,-0.0111366,0.0745051,0.0294663,0.0452996,650,736,-10.1989,-1.28709
-567,288,-10.278,0.954834,0.016168,-0.00440659,0.00453444,0.017123,-0.0053616,0.20758,0.0135606,0.0297162,657,736,-10.278,-0.954836
-560,288,-10.4613,0.65387,0.00455089,-0.00138582,0.00442049,0.00690718,-0.00374211,0.489728,0.00623823,0.0146022,664,736,-10.4613,-0.653897
-553,288,-10.4466,0.38916,-0.00127178,0.000302157,0.0029372,0.00255598,-0.00352561,0.91629,0.00352605,0.0174649,671,736,-10.4466,-0.389142
-546,288,-10.4683,0.111938,-0.00360782,0.000465663,0.00245266,0.001617,-0.00475916,1.13191,0.00382738,0.0193941,678,736,-10.4683,-0.111941
-539,288,-10.4697,-0.210083,-0.00298766,-0.000446528,0.00243053,0.0010255,-0.00445969,1.02624,0.00336742,0.0169058,685,736,-10.4697,0.210087
-532,288,-10.4467,-0.551086,-0.00262485,-0.00147236,0.00262021,0.000634223,-0.00473144,0.893637,0.00338556,0.0130513,692,736,-10.4467,0.551096
-525,288,-10.4594,-0.883789,-0.00220405,-0.00259401,0.00330834,0.000915054,-0.00571311,0.755964,0.00414755,0.0115405,699,736,-10.4594,0.8838
-518,288,-10.4834,-1.17633,-0.00215541,-0.00348558,0.00386084,0.00109721,-0.0067382,0.700103,0.004899,0.0116872,706,736,-10.4834,1.17631
-511,288,-10.4935,-1.48199,-0.00262905,-0.00391593,0.00420869,0.000985099,-0.00753008,0.709544,0.00537857,0.0088488,713,736,-10.4935,1.48199
-504,288,-10.4911,-1.80853,-0.00232354,-0.0033891,0.00452005,0.00169502,-0.00740767,0.726734,0.00558978,0.00951981,720,736,-10.4912,1.80856
-497,288,-10.4835,-2.00806,-0.000430815,-0.000597226,0.00525472,0.00474136,-0.0057694,0.777482,0.00607806,0.0236505,727,736,-10.4835,2.00805
-490,288,-10.4269,-2.17114,0,0,0,0,0,0,0,-1,734,736,-10.4269,2.17117
-483,288,-12.1729,1.61115,0,0,0,0,0,0,0,-1,741,736,-12.1729,-1.61116
-476,288,-16.9676,0.978333,0,0,0,0,0,0,0,-1,748,736,-16.9676,-0.978341
-469,288,-18.3768,1.74255,0,0,0,0,0,0,0,-1,755,736,-18.3768,-1.74256
-462,288,-18.0359,0.809814,0,0,0,0,0,0,0,-1,762,736,-18.0359,-0.809793
-455,288,-20.7058,2.74261,0,0,0,0,0,0,0,-1,769,736,-20.7058,-2.7426
-448,288,-19.8899,3.37439,0.0449541,0.0684824,0.00847403,0.0712167,0.0422199,1.25868,0.0413525,0.0473773,776,736,-19.8899,-3.37436
-441,288,-18.9602,3.93433,0,0,0,0,0,0,0,-1,783,736,-18.9602,-3.93433
-434,288,-17.8945,4.36035,0,0,0,0,0,0,0,-1,790,736,-17.8945,-4.36038
-427,288,0,0,0,0,0,0,0,0,0,-1,797,736,0,0
-420,288,0,0,0,0,0,0,0,0,0,-1,804,736,0,0
-413,288,0,0,0,0,0,0,0,0,0,-1,811,736,0,0
-406,288,0,0,0,0,0,0,0,0,0,-1,818,736,0,0
-399,288,0,0,0,0,0,0,0,0,0,-1,825,736,0,0
-392,288,0,0,0,0,0,0,0,0,0,-1,832,736,0,0
-385,288,0,0,0,0,0,0,0,0,0,-1,839,736,0,0
-378,288,0,0,0,0,0,0,0,0,0,-1,846,736,0,0
-371,288,0,0,0,0,0,0,0,0,0,-1,853,736,0,0
-364,288,0,0,0,0,0,0,0,0,0,-1,860,736,0,0
-357,288,0,0,0,0,0,0,0,0,0,-1,867,736,0,0
-350,288,0,0,0,0,0,0,0,0,0,-1,874,736,0,0
-343,288,0,0,0,0,0,0,0,0,0,-1,881,736,0,0
-336,288,0,0,0,0,0,0,0,0,0,-1,888,736,0,0
-329,288,0,0,0,0,0,0,0,0,0,-1,895,736,0,0
-322,288,0,0,0,0,0,0,0,0,0,-1,902,736,0,0
-315,288,0,0,0,0,0,0,0,0,0,-1,909,736,0,0
-308,288,0,0,0,0,0,0,0,0,0,-1,916,736,0,0
-301,288,0,0,0,0,0,0,0,0,0,-1,923,736,0,0
-294,288,0,0,0,0,0,0,0,0,0,-1,930,736,0,0
-287,288,0,0,0,0,0,0,0,0,0,-1,937,736,0,0
-280,288,0,0,0,0,0,0,0,0,0,-1,944,736,0,0
-273,288,0,0,0,0,0,0,0,0,0,-1,951,736,0,0
-266,288,0,0,0,0,0,0,0,0,0,-1,958,736,0,0
-259,288,0,0,0,0,0,0,0,0,0,-1,965,736,0,0
-252,288,0,0,0,0,0,0,0,0,0,-1,972,736,0,0
-245,288,0,0,0,0,0,0,0,0,0,-1,979,736,0,0
-238,288,0,0,0,0,0,0,0,0,0,-1,986,736,0,0
-231,288,0,0,0,0,0,0,0,0,0,-1,993,736,0,0
-224,288,0,0,0,0,0,0,0,0,0,-1,1000,736,0,0
-217,288,0,0,0,0,0,0,0,0,0,-1,1007,736,0,0
-210,288,0,0,0,0,0,0,0,0,0,-1,1014,736,0,0
-203,288,0,0,0,0,0,0,0,0,0,-1,1021,736,0,0
-196,288,0,0,0,0,0,0,0,0,0,-1,1028,736,0,0
-189,288,0,0,0,0,0,0,0,0,0,-1,1035,736,0,0
-182,288,0,0,0,0,0,0,0,0,0,-1,1042,736,0,0
-175,288,0,0,0,0,0,0,0,0,0,-1,1049,736,0,0
-168,288,0,0,0,0,0,0,0,0,0,-1,1056,736,0,0
-161,288,0,0,0,0,0,0,0,0,0,-1,1063,736,0,0
-154,288,0,0,0,0,0,0,0,0,0,-1,1070,736,0,0
-147,288,0,0,0,0,0,0,0,0,0,-1,1077,736,0,0
-140,288,0,0,0,0,0,0,0,0,0,-1,1084,736,0,0
-133,288,0,0,0,0,0,0,0,0,0,-1,1091,736,0,0
-126,288,0,0,0,0,0,0,0,0,0,-1,1098,736,0,0
-119,288,0,0,0,0,0,0,0,0,0,-1,1105,736,0,0
-112,288,0,0,0,0,0,0,0,0,0,-1,1112,736,0,0
-105,288,0,0,0,0,0,0,0,0,0,-1,1119,736,0,0
-98,288,0,0,0,0,0,0,0,0,0,-1,1126,736,0,0
-91,288,0,0,0,0,0,0,0,0,0,-1,1133,736,0,0
-84,288,0,0,0,0,0,0,0,0,0,-1,1140,736,0,0
-77,288,0,0,0,0,0,0,0,0,0,-1,1147,736,0,0
-70,288,0,0,0,0,0,0,0,0,0,-1,1154,736,0,0
-63,288,0,0,0,0,0,0,0,0,0,-1,1161,736,0,0
-56,288,0,0,0,0,0,0,0,0,0,-1,1168,736,0,0
-49,288,0,0,0,0,0,0,0,0,0,-1,1175,736,0,0
-42,288,0,0,0,0,0,0,0,0,0,-1,1182,736,0,0
-35,288,0,0,0,0,0,0,0,0,0,-1,1189,736,0,0
-28,288,0,0,0,0,0,0,0,0,0,-1,1196,736,0,0
-21,288,0,0,0,0,0,0,0,0,0,-1,1203,736,0,0
-14,288,0,0,0,0,0,0,0,0,0,-1,1210,736,0,0
-7,288,0,0,0,0,0,0,0,0,0,-1,1217,736,0,0
0,288,0,0,0,0,0,0,0,0,0,-1,1224,736,0,0
7,288,0,0,0,0,0,0,0,0,0,-1,1231,736,0,0
14,288,0,0,0,0,0,0,0,0,0,-1,1238,736,0,0
21,288,0,0,0,0,0,0,0,0,0,-1,1245,736,0,0
28,288,0,0,0,0,0,0,0,0,0,-1,1252,736,0,0
35,288,0,0,0,0,0,0,0,0,0,-1,1259,736,0,0
42,288,0,0,0,0,0,0,0,0,0,-1,1266,736,0,0
49,288,0,0,0,0,0,0,0,0,0,-1,1273,736,0,0
56,288,0,0,0,0,0,0,0,0,0,-1,1280,736,0,0
63,288,0,0,0,0,0,0,0,0,0,-1,1287,736,0,0
70,288,0,0,0,0,0,0,0,0,0,-1,1294,736,0,0
77,288,0,0,0,0,0,0,0,0,0,-1,1301,736,0,0
84,288,0,0,0,0,0,0,0,0,0,-1,1308,736,0,0
91,288,0,0,0,0,0,0,0,0,0,-1,1315,736,0,0
98,288,0,0,0,0,0,0,0,0,0,-1,1322,736,0,0
105,288,0,0,0,0,0,0,0,0,0,-1,1329,736,0,0
112,288,0,0,0,0,0,0,0,0,0,-1,1336,736,0,0
119,288,0,0,0,0,0,0,0,0,0,-1,1343,736,0,0
126,288,0,0,0,0,0,0,0,0,0,-1,1350,736,0,0
133,288,0,0,0,0,0,0,0,0,0,-1,1357,736,0,0
140,288,0,0,0,0,0,0,0,0,0,-1,1364,736,0,0
147,288,0,0,0,0,0,0,0,0,0,-1,1371,736,0,0
154,288,0,0,0,0,0,0,0,0,0,-1,1378,736,0,0
161,288,0,0,0,0,0,0,0,0,0,-1,1385,736,0,0
168,288,0,0,0,0,0,0,0,0,0,-1,1392,736,0,0
175,288,0,0,0,0,0,0,0,0,0,-1,1399,736,0,0
182,288,0,0,0,0,0,0,0,0,0,-1,1406,736,0,0
189,288,0,0,0,0,0,0,0,0,0,-1,1413,736,0,0
196,288,0,0,0,0,0,0,0,0,0,-1,1420,736,0,0
203,288,0,0,0,0,0,0,0,0,0,-1,1427,736,0,0
210,288,0,0,0,0,0,0,0,0,0,-1,1434,736,0,0
217,288,0,0,0,0,0,0,0,0,0,-1,1441,736,0,0
224,288,0,0,0,0,0,0,0,0,0,-1,1448,736,0,0
231,288,0,0,0,0,0,0,0,0,0,-1,1455,736,0,0
238,288,0,0,0,0,0,0,0,0,0,-1,1462,736,0,0
245,288,0,0,0,0,0,0,0,0,0,-1,1469,736,0,0
252,288,0,0,0,0,0,0,0,0,0,-1,1476,736,0,0
259,288,0,0,0,0,0,0,0,0,0,-1,1483,736,0,0
266,288,0,0,0,0,0,0,0,0,0,-1,1490,736,0,0
273,288,0,0,0,0,0,0,0,0,0,-1,1497,736,0,0
280,288,0,0,0,0,0,0,0,0,0,-1,1504,736,0,0
287,288,0,0,0,0,0,0,0,0,0,-1,1511,736,0,0
294,288,0,0,0,0,0,0,0,0,0,-1,1518,736,0,0
301,288,0,0,0,0,0,0,0,0,0,-1,1525,736,0,0
308,288,0,0,0,0,0,0,0,0,0,-1,1532,736,0,0
315,288,0,0,0,0,0,0,0,0,0,-1,1539,736,0,0
322,288,0,0,0,0,0,0,0,0,0,-1,1546,736,0,0
329,288,0,0,0,0,0,0,0,0,0,-1,1553,736,0,0
336,288,0,0,0,0,0,0,0,0,0,-1,1560,736,0,0
343,288,0,0,0,0,0,0,0,0,0,-1,1567,736,0,0
350,288,0,0,0,0,0,0,0,0,0,-1,1574,736,0,0
357,288,0,0,0,0,0,0,0,0,0,-1,1581,736,0,0
364,288,0,0,0,0,0,0,0,0,0,-1,1588,736,0,0
371,288,0,0,0,0,0,0,0,0,0,-1,1595,736,0,0
378,288,0,0,0,0,0,0,0,0,0,-1,1602,736,0,0
385,288,0,0,0,0,0,0,0,0,0,-1,1609,736,0,0
392,288,0,0,0,0,0,0,0,0,0,-1,1616,736,0,0
399,288,0,0,0,0,0,0,0,0,0,-1,1623,736,0,0
406,288,0,0,0,0,0,0,0,0,0,-1,1630,736,0,0
413,288,0,0,0,0,0,0,0,0,0,-1,1637,736,0,0
420,288,0,0,0,0,0,0,0,0,0,-1,1644,736,0,0
427,288,0,0,0,0,0,0,0,0,0,-1,1651,736,0,0
434,288,0,0,0,0,0,0,0,0,0,-1,1658,736,0,0
441,288,0,0,0,0,0,0,0,0,0,-1,1665,736,0,0
448,288,0,0,0,0,0,0,0,0,0,-1,1672,736,0,0
455,288,0,0,0,0,0,0,0,0,0,-1,1679,736,0,0
462,288,0,0,0,0,0,0,0,0,0,-1,1686,736,0,0
469,288,0,0,0,0,0,0,0,0,0,-1,1693,736,0,0
476,288,0,0,0,0,0,0,0,0,0,-1,1700,736,0,0
483,288,0,0,0,0,0,0,0,0,0,-1,1707,736,0,0
490,288,0,0,0,0,0,0,0,0,0,-1,1714,736,0,0
497,288,0,0,0,0,0,0,0,0,0,-1,1721,736,0,0
504,288,0,0,0,0,0,0,0,0,0,-1,1728,736,0,0
511,288,0,0,0,0,0,0,0,0,0,-1,1735,736,0,0
518,288,0,0,0,0,0,0,0,0,0,-1,1742,736,0,0
525,288,0,0,0,0,0,0,0,0,0,-1,1749,736,0,0
532,288,0,0,0,0,0,0,0,0,0,-1,1756,736,0,0
539,288,0,0,0,0,0,0,0,0,0,-1,1763,736,0,0
546,288,0,0,0,0,0,0,0,0,0,-1,1770,736,0,0
553,288,24.8458,3.78448,0,0,0,0,0,0,0,-1,1777,736,24.8458,-3.7845
560,288,27.0035,3.81567,0,0,0,0,0,0,0,-1,1784,736,27.0036,-3.81569
567,288,25.7312,5.26587,0,0,0,0,0,0,0,-1,1791,736,25.7312,-5.26587
574,288,25.8801,3.36743,0,0,0,0,0,0,0,-1,1798,736,25.8801,-3.36742
581,288,25.9954,3.96057,0,0,0,0,0,0,0,-1,1805,736,25.9954,-3.96056
588,288,25.9705,4.31519,-0.0140705,0.0419459,-0.0141268,0.0453069,-0.0174314,-1.33722,0.0373948,0.046616,1812,736,25.9705,-4.31518
595,288,25.9297,4.43457,-0.00949891,0.0310765,-0.0130907,0.0349333,-0.0133557,-1.28428,0.0287925,0.0458965,1819,736,25.9296,-4.43455
602,288,26.182,4.41766,0,0,0,0,0,0,0,-1,1826,736,26.182,-4.41765
609,288,17.5223,4.86414,0,0,0,0,0,0,0,-1,1833,736,17.5223,-4.86412
616,288,13.4886,0.801331,0,0,0,0,0,0,0,-1,1840,736,13.4886,-0.80132
623,288,17.5176,-0.160339,0,0,0,0,0,0,0,-1,1847,736,17.5175,0.160343
630,288,17.5295,0.170227,-0.00231754,0.00355517,-0.00613489,0.00742022,-0.00618259,-1.0086,0.00786441,0.0218388,1854,736,17.5295,-0.170231
637,288,17.5818,0.468628,-0.00209472,0.0015835,-0.00472478,0.00481449,-0.00532571,-0.971,0.00585693,0.010787,1861,736,17.5818,-0.468641
644,288,17.6,0.804504,-0.00179728,0.000188637,-0.00294446,0.00230306,-0.00391171,-0.948025,0.00362794,0.0105633,1868,736,17.5999,-0.804513
651,288,17.5797,1.16589,-0.00175977,-0.000711163,-0.00179248,0.000632123,-0.00310306,-0.927679,0.00230844,0.010938,1875,736,17.5797,-1.16587
658,288,17.5854,1.53082,-0.00139459,-0.000122903,-0.00116155,0.000565454,-0.00208294,-1.03582,0.00161055,0.0151631,1882,736,17.5854,-1.53079
665,288,17.5896,1.84393,-0.00115056,0.000607892,-0.000635676,0.000813619,-0.00135629,-1.2578,0.00126579,0.0167371,1889,736,17.5896,-1.84391
672,288,17.557,2.13947,-0.00109875,0.0014006,-0.000207501,0.00141771,-0.00111586,-1.48852,0.00146621,0.0166691,1896,736,17.557,-2.13944
679,288,17.5466,2.50793,-0.00103626,0.00238218,0.00020004,0.00239385,-0.00104792,1.51254,0.00203712,0.0141316,1903,736,17.5466,-2.50795
686,288,17.553,2.79529,-0.00100433,0.00361201,0.000532133,0.00367255,-0.00106488,1.4575,0.00286995,0.0105554,1910,736,17.5529,-2.79528
693,288,17.5708,3.13702,-0.00095589,0.005126,0.000934341,0.00526631,-0.00109619,1.42175,0.00392759,0.014598,1917,736,17.5708,-3.13704
700,288,17.5153,3.54578,-0.000546413,0.00693318,0.00158399,0.0072548,-0.000868032,1.37048,0.00515032,0.0280607,1924,736,17.5152,-3.54577
707,288,17.6675,4.15808,0.000433159,0.00916137,0.00258383,0.00986891,-0.000274379,1.30351,0.00667261,0.040574,1931,736,17.6675,-4.15811
714,288,17.8348,4.758,0,0,0,0,0,0,0,-1,1938,736,17.8349,-4.75798
721,288,18.0732,3.69385,0,0,0,0,0,0,0,-1,1945,736,18.0732,-3.69387
728,288,19.3208,3.91455,0,0,0,0,0,0,0,-1,1952,736,19.3209,-3.91455
735,288,18.7712,3.51312,0,0,0,0,0,0,0,-1,1959,736,18.7713,-3.51309
742,288,0,0,0,0,0,0,0,0,0,-1,1966,736,0,0
749,288,0,0,0,0,0,0,0,0,0,-1,1973,736,0,0
756,288,0,0,0,0,0,0,0,0,0,-1,1980,736,0,0
763,288,0,0,0,0,0,0,0,0,0,-1,1987,736,0,0
770,288,0,0,0,0,0,0,0,0,0,-1,1994,736,0,0
777,288,0,0,0,0,0,0,0,0,0,-1,2001,736,0,0
784,288,0,0,0,0,0,0,0,0,0,-1,2008,736,0,0
791,288,0,0,0,0,0,0,0,0,0,-1,2015,736,0,0
798,288,0,0,0,0,0,0,0,0,0,-1,2022,736,0,0
805,288,0,0,0,0,0,0,0,0,0,-1,2029,736,0,0
812,288,0,0,0,0,0,0,0,0,0,-1,2036,736,0,0
-700,281,0,0,0,0,0,0,0,0,0,-1,524,743,0,0
-693,281,0,0,0,0,0,0,0,0,0,-1,531,743,0,0
-686,281,0,0,0,0,0,0,0,0,0,-1,538,743,0,0
-679,281,0,0,0,0,0,0,0,0,0,-1,545,743,0,0
-672,281,0,0,0,0,0,0,0,0,0,-1,552,743,0,0
-665,281,0,0,0,0,0,0,0,0,0,-1,559,743,0,0
-658,281,0,0,0,0,0,0,0,0,0,-1,566,743,0,0
-651,281,0,0,0,0,0,0,0,0,0,-1,573,743,0,0
-644,281,0,0,0,0,0,0,0,0,0,-1,580,743,0,0
-637,281,0,0,0,0,0,0,0,0,0,-1,587,743,0,0
-630,281,0,0,0,0,0,0,0,0,0,-1,594,743,0,0
-623,281,-11.6334,3.75549,0,0,0,0,0,0,0,-1,601,743,-11.6334,-3.75548
-616,281,-11.7239,2.91943,0,0,0,0,0,0,0,-1,608,743,-11.7239,-2.91945
-609,281,-10.1316,2.15326,0,0,0,0,0,0,0,-1,615,743,-10.1316,-2.15325
-602,281,-8.53925,1.38702,0,0,0,0,0,0,0,-1,622,743,-8.53928,-1.38705
-595,281,-10.4797,-1.07404,0,0,0,0,0,0,0,-1,629,743,-10.4798,1.07402
-588,281,-10.5586,1.50061,0,0,0,0,0,0,0,-1,636,743,-10.5586,-1.50062
-581,281,-10.5929,1.34967,0.0666137,-0.015944,0.00480432,0.0668923,-0.0162226,0.0579328,0.0508721,0.0486187,643,743,-10.5929,-1.34969
-574,281,-10.6369,1.23438,0.0367694,-0.0105617,0.00301878,0.0369611,-0.0107535,0.0634374,0.0289,0.0305375,650,743,-10.6369,-1.23438
-567,281,-10.7628,0.995789,0.0166809,-0.00503146,0.00422179,0.0174729,-0.00582346,0.185444,0.0139995,0.015337,657,743,-10.7628,-0.99578
-560,281,-10.7868,0.681519,0.00517399,-0.00230725,0.00446158,0.00725556,-0.00438883,0.436535,0.00679047,0.00861431,664,743,-10.7868,-0.681512
-553,281,-10.7689,0.380249,-0.000653006,-0.000709272,0.0032046,0.00252359,-0.00388587,0.781009,0.00372826,0.0136952,671,743,-10.7689,-0.380224
-546,281,-10.751,0.0987549,-0.0033464,-0.000648669,0.00296553,0.00126035,-0.00525542,0.998837,0.00399063,0.0151261,678,743,-10.751,-0.0987618
-539,281,-10.7487,-0.235901,-0.00309027,-0.00155595,0.0030569,0.000828584,-0.00547481,0.908339,0.0039551,0.0134184,685,743,-10.7487,0.235891
-532,281,-10.7699,-0.532654,-0.00296783,-0.00252469,0.00333262,0.00059371,-0.00608624,0.818592,0.00426918,0.0124101,692,743,-10.7699,0.532677
-525,281,-10.8073,-0.82489,-0.00266929,-0.00362488,0.00417729,0.00105743,-0.00735161,0.728456,0.0052889,0.0135551,699,743,-10.8073,0.824903
-518,281,-10.8103,-1.15643,-0.00275904,-0.0043962,0.00477254,0.00126461,-0.00841985,0.700465,0.00607878,0.0121968,706,743,-10.8103,1.15645
-511,281,-10.8117,-1.48846,-0.00337277,-0.0046682,0.00507127,0.00109198,-0.00913295,0.721881,0.00648335,0.011232,713,743,-10.8117,1.48846
-504,281,-10.8273,-1.81329,-0.00306581,-0.00394057,0.00533066,0.00184539,-0.00885177,0.744465,0.00660283,0.0134288,720,743,-10.8274,1.81331
-497,281,-10.7188,-2.06659,-0.00123346,-0.000973147,0.006012,0.00491011,-0.00711671,0.796221,0.00698254,0.0387515,727,743,-10.7188,2.06657
-490,281,-10.5637,-2.23584,0,0,0,0,0,0,0,-1,734,743,-10.5637,2.23585
-483,281,-16.7642,1.29578,0,0,0,0,0,0,0,-1,741,743,-16.7642,-1.29577
-476,281,-17.5769,1.67371,0,0,0,0,0,0,0,-1,748,743,-17.5769,-1.6737
-469,281,-18.782,2.35547,0,0,0,0,0,0,0,-1,755,743,-18.782,-2.35544
-462,281,-19.4377,2.26648,0,0,0,0,0,0,0,-1,762,743,-19.4377,-2.26651
-455,281,-20.282,2.59827,0.026153,0.0487434,0.00593848,0.0502094,0.0246871,1.32878,0.0289897,0.0436674,769,743,-20.282,-2.59826
-448,281,-19.5156,3.22034,0.0383703,0.0671277,0.00841975,0.0694115,0.0360865,1.30593,0.0400853,0.0446538,776,743,-19.5156,-3.22035
-441,281,-18.7173,3.80664,0,0,0,0,0,0,0,-1,783,743,-18.7173,-3.80661
-434,281,0,0,0,0,0,0,0,0,0,-1,790,743,0,0
-427,281,0,0,0,0,0,0,0,0,0,-1,797,743,0,0
-420,281,0,0,0,0,0,0,0,0,0,-1,804,743,0,0
-413,281,0,0,0,0,0,0,0,0,0,-1,811,743,0,0
-406,281,0,0,0,0,0,0,0,0,0,-1,818,743,0,0
-399,281,0,0,0,0,0,0,0,0,0,-1,825,743,0,0
-392,281,0,0,0,0,0,0,0,0,0,-1,832,743,0,0
-385,281,0,0,0,0,0,0,0,0,0,-1,839,743,0,0
-378,281,0,0,0,0,0,0,0,0,0,-1,846,743,0,0
-371,281,0,0,0,0,0,0,0,0,0,-1,853,743,0,0
-364,281,0,0,0,0,0,0,0,0,0,-1,860,743,0,0
-357,281,0,0,0,0,0,0,0,0,0,-1,867,743,0,0
-350,281,0,0,0,0,0,0,0,0,0,-1,874,743,0,0
-343,281,0,0,0,0,0,0,0,0,0,-1,881,743,0,0
-336,281,0,0,0,0,0,0,0,0,0,-1,888,743,0,0
-329,281,0,0,0,0,0,0,0,0,0,-1,895,743,0,0
-322,281,0,0,0,0,0,0,0,0,0,-1,902,743,0,0
-315,281,0,0,0,0,0,0,0,0,0,-1,909,743,0,0
-308,281,0,0,0,0,0,0,0,0,0,-1,916,743,0,0
-301,281,0,0,0,0,0,0,0,0,0,-1,923,743,0,0
-294,281,0,0,0,0,0,0,0,0,0,-1,930,743,0,0
-287,281,0,0,0,0,0,0,0,0,0,-1,937,743,0,0
-280,281,0,0,0,0,0,0,0,0,0,-1,944,743,0,0
-273,281,0,0,0,0,0,0,0,0,0,-1,951,743,0,0
-266,281,0,0,0,0,0,0,0,0,0,-1,958,743,0,0
-259,281,0,0,0,0,0,0,0,0,0,-1,965,743,0,0
-252,281,0,0,0,0,0,0,0,0,0,-1,972,743,0,0
-245,281,0,0,0,0,0,0,0,0,0,-1,979,743,0,0
-238,281,0,0,0,0,0,0,0,0,0,-1,986,743,0,0
-231,281,0,0,0,0,0,0,0,0,0,-1,993,743,0,0
-224,281,0,0,0,0,0,0,0,0,0,-1,1000,743,0,0
-217,281,0,0,0,0,0,0,0,0,0,-1,1007,743,0,0
-210,281,0,0,0,0,0,0,0,0,0,-1,1014,743,0,0
-203,281,0,0,0,0,0,0,0,0,0,-1,1021,743,0,0
-196,281,0,0,0,0,0,0,0,0,0,-1,1028,743,0,0
-189,281,0,0,0,0,0,0,0,0,0,-1,1035,743,0,0
-182,281,0,0,0,0,0,0,0,0,0,-1,1042,743,0,0
-175,281,0,0,0,0,0,0,0,0,0,-1,1049,743,0,0
-168,281,0,0,0,0,0,0,0,0,0,-1,1056,743,0,0
-161,281,0,0,0,0,0,0,0,0,0,-1,1063,743,0,0
-154,281,0,0,0,0,0,0,0,0,0,-1,1070,743,0,0
-147,281,0,0,0,0,0,0,0,0,0,-1,1077,743,0,0
-140,281,0,0,0,0,0,0,0,0,0,-1,1084,743,0,0
-133,281,0,0,0,0,0,0,0,0,0,-1,1091,743,0,0
-126,281,0,0,0,0,0,0,0,0,0,-1,1098,743,0,0
-119,281,0,0,0,0,0,0,0,0,0,-1,1105,743,0,0
-112,281,0,0,0,0,0,0,0,0,0,-1,1112,743,0,0
-105,281,0,0,0,0,0,0,0,0,0,-1,1119,743,0,0
-98,281,0,0,0,0,0,0,0,0,0,-1,1126,743,0,0
-91,281,0,0,0,0,0,0,0,0,0,-1,1133,743,0,0
-84,281,0,0,0,0,0,0,0,0,0,-1,1140,743,0,0
-77,281,0,0,0,0,0,0,0,0,0,-1,1147,743,0,0
-70,281,0,0,0,0,0,0,0,0,0,-1,1154,743,0,0
-63,281,0,0,0,0,0,0,0,0,0,-1,1161,743,0,0
-56,281,0,0,0,0,0,0,0,0,0,-1,1168,743,0,0
-49,281,0,0,0,0,0,0,0,0,0,-1,1175,743,0,0
-42,281,0,0,0,0,0,0,0,0,0,-1,1182,743,0,0
-35,281,0,0,0,0,0,0,0,0,0,-1,1189,743,0,0
-28,281,0,0,0,0,0,0,0,0,0,-1,1196,743,0,0
-21,281,0,0,0,0,0,0,0,0,0,-1,1203,743,0,0
-14,281,0,0,0,0,0,0,0,0,0,-1,1210,743,0,0
-7,281,0,0,0,0,0,0,0,0,0,-1,1217,743,0,0
0,281,0,0,0,0,0,0,0,0,0,-1,1224,743,0,0
7,281,0,0,0,0,0,0,0,0,0,-1,1231,743,0,0
14,281,0,0,0,0,0,0,0,0,0,-1,1238,743,0,0
21,281,0,0,0,0,0,0,0,0,0,-1,1245,743,0,0
28,281,0,0,0,0,0,0,0,0,0,-1,1252,743,0,0
35,281,0,0,0,0,0,0,0,0,0,-1,1259,743,0,0
42,281,0,0,0,0,0,0,0,0,0,-1,1266,743,0,0
49,281,0,0,0,0,0,0,0,0,0,-1,1273,743,0,0
56,281,0,0,0,0,0,0,0,0,0,-1,1280,743,0,0
63,281,0,0,0,0,0,0,0,0,0,-1,1287,743,0,0
70,281,0,0,0,0,0,0,0,0,0,-1,1294,743,0,0
77,281,0,0,0,0,0,0,0,0,0,-1,1301,743,0,0
84,281,0,0,0,0,0,0,0,0,0,-1,1308,743,0,0
91,281,0,0,0,0,0,0,0,0,0,-1,1315,743,0,0
98,281,0,0,0,0,0,0,0,0,0,-1,1322,743,0,0
105,281,0,0,0,0,0,0,0,0,0,-1,1329,743,0,0
112,281,0,0,0,0,0,0,0,0,0,-1,1336,743,0,0
119,281,0,0,0,0,0,0,0,0,0,-1,1343,743,0,0
126,281,0,0,0,0,0,0,0,0,0,-1,1350,743,0,0
133,281,0,0,0,0,0,0,0,0,0,-1,1357,743,0,0
140,281,0,0,0,0,0,0,0,0,0,-1,1364,743,0,0
147,281,0,0,0,0,0,0,0,0,0,-1,1371,743,0,0
154,281,0,0,0,0,0,0,0,0,0,-1,1378,743,0,0
161,281,0,0,0,0,0,0,0,0,0,-1,1385,743,0,0
168,281,0,0,0,0,0,0,0,0,0,-1,1392,743,0,0
175,281,0,0,0,0,0,0,0,0,0,-1,1399,743,0,0
182,281,0,0,0,0,0,0,0,0,0,-1,1406,743,0,0
189,281,0,0,0,0,0,0,0,0,0,-1,1413,743,0,0
196,281,0,0,0,0,0,0,0,0,0,-1,1420,743,0,0
203,281,0,0,0,0,0,0,0,0,0,-1,1427,743,0,0
210,281,0,0,0,0,0,0,0,0,0,-1,1434,743,0,0
217,281,0,0,0,0,0,0,0,0,0,-1,1441,743,0,0
224,281,0,0,0,0,0,0,0,0,0,-1,1448,743,0,0
231,281,0,0,0,0,0,0,0,0,0,-1,1455,743,0,0
238,281,0,0,0,0,0,0,0,0,0,-1,1462,743,0,0
245,281,0,0,0,0,0,0,0,0,0,-1,1469,743,0,0
252,281,0,0,0,0,0,0,0,0,0,-1,1476,743,0,0
259,281,0,0,0,0,0,0,0,0,0,-1,1483,743,0,0
266,281,0,0,0,0,0,0,0,0,0,-1,1490,743,0,0
273,281,0,0,0,0,0,0,0,0,0,-1,1497,743,0,0
280,281,0,0,0,0,0,0,0,0,0,-1,1504,743,0,0
287,281,0,0,0,0,0,0,0,0,0,-1,1511,743,0,0
294,281,0,0,0,0,0,0,0,0,0,-1,1518,743,0,0
301,281,0,0,0,0,0,0,0,0,0,-1,1525,743,0,0
308,281,0,0,0,0,0,0,0,0,0,-1,1532,743,0,0
315,281,0,0,0,0,0,0,0,0,0,-1,1539,743,0,0
322,281,0,0,0,0,0,0,0,0,0,-1,1546,743,0,0
329,281,0,0,0,0,0,0,0,0,0,-1,1553,743,0,0
336,281,0,0,0,0,0,0,0,0,0,-1,1560,743,0,0
343,281,0,0,0,0,0,0,0,0,0,-1,1567,743,0,0
350,281,0,0,0,0,0,0,0,0,0,-1,1574,743,0,0
357,281,0,0,0,0,0,0,0,0,0,-1,1581,743,0,0
364,281,0,0,0,0,0,0,0,0,0,-1,1588,743,0,0
371,281,0,0,0,0,0,0,0,0,0,-1,1595,743,0,0
378,281,0,0,0,0,0,0,0,0,0,-1,1602,743,0,0
385,281,0,0,0,0,0,0,0,0,0,-1,1609,743,0,0
392,281,0,0,0,0,0,0,0,0,0,-1,1616,743,0,0
399,281,0,0,0,0,0,0,0,0,0,-1,1623,743,0,0
406,281,0,0,0,0,0,0,0,0,0,-1,1630,743,0,0
413,281,0,0,0,0,0,0,0,0,0,-1,1637,743,0,0
420,281,0,0,0,0,0,0,0,0,0,-1,1644,743,0,0
427,281,0,0,0,0,0,0,0,0,0,-1,1651,743,0,0
434,281,0,0,0,0,0,0,0,0,0,-1,1658,743,0,0
441,281,0,0,0,0,0,0,0,0,0,-1,1665,743,0,0
448,281,0,0,0,0,0,0,0,0,0,-1,1672,743,0,0
455,281,0,0,0,0,0,0,0,0,0,-1,1679,743,0,0
462,281,0,0,0,0,0,0,0,0,0,-1,1686,743,0,0
469,281,0,0,0,0,0,0,0,0,0,-1,1693,743,0,0
476,281,0,0,0,0,0,0,0,0,0,-1,1700,743,0,0
483,281,0,0,0,0,0,0,0,0,0,-1,1707,743,0,0
490,281,0,0,0,0,0,0,0,0,0,-1,1714,743,0,0
497,281,0,0,0,0,0,0,0,0,0,-1,1721,743,0,0
504,281,0,0,0,0,0,0,0,0,0,-1,1728,743,0,0
511,281,0,0,0,0,0,0,0,0,0,-1,1735,743,0,0
518,281,0,0,0,0,0,0,0,0,0,-1,1742,743,0,0
525,281,0,0,0,0,0,0,0,0,0,-1,1749,743,0,0
532,281,0,0,0,0,0,0,0,0,0,-1,1756,743,0,0
539,281,0,0,0,0,0,0,0,0,0,-1,1763,743,0,0
546,281,0,0,0,0,0,0,0,0,0,-1,1770,743,0,0
553,281,0,0,0,0,0,0,0,0,0,-1,1777,743,0,0
560,281,26.8898,4.20221,0,0,0,0,0,0,0,-1,1784,743,26.8898,-4.20222
567,281,26.3042,4.81018,0,0,0,0,0,0,0,-1,1791,743,26.3041,-4.81019
574,281,25.9061,5.01416,0,0,0,0,0,0,0,-1,1798,743,25.9061,-5.01417
581,281,26.321,4.05554,0,0,0,0,0,0,0,-1,1805,743,26.321,-4.05557
588,281,26.1057,4.23938,-0.0134632,0.0395004,-0.0163107,0.0441204,-0.0180833,-1.29477,0.0369472,0.0438661,1812,743,26.1057,-4.23941
595,281,25.7157,3.79376,-0.0094923,0.0299603,-0.0146228,0.0347891,-0.0143211,-1.25185,0.0291631,0.0445821,1819,743,25.7157,-3.79375
602,281,25.6575,3.45795,0,0,0,0,0,0,0,-1,1826,743,25.6575,-3.45795
609,281,29.5114,2.23206,0,0,0,0,0,0,0,-1,1833,743,29.5113,-2.23207
616,281,19.7532,0.0239868,0,0,0,0,0,0,0,-1,1840,743,19.7532,-0.0239913
623,281,17.7498,-0.136108,0,0,0,0,0,0,0,-1,1847,743,17.7498,0.13612
630,281,17.8494,0.149353,-0.00230826,0.00390896,-0.00711379,0.00856369,-0.00696299,-0.991386,0.0089802,0.038503,1854,743,17.8493,-0.149366
637,281,17.9083,0.463623,-0.00212271,0.00191843,-0.00576293,0.00600475,-0.00620903,-0.95401,0.00705196,0.0138105,1861,743,17.9083,-0.463611
644,281,17.9058,0.820862,-0.00188391,0.000350387,-0.00389613,0.00328637,-0.00481989,-0.925018,0.00470799,0.0111032,1868,743,17.9057,-0.820861
651,281,17.912,1.16888,-0.0018924,-0.000704264,-0.00253021,0.00130068,-0.00389735,-0.900705,0.00312341,0.0115861,1875,743,17.912,-1.16891
658,281,17.9213,1.48785,-0.00134974,-0.000284629,-0.00170816,0.000972068,-0.00260643,-0.936508,0.00213667,0.0180546,1882,743,17.9213,-1.48782
665,281,17.9231,1.80066,-0.000893099,0.000375191,-0.000962341,0.000893538,-0.00141145,-1.07672,0.00134193,0.0210128,1889,743,17.9231,-1.80067
672,281,17.8809,2.15656,-0.000711893,0.00112835,-0.000378793,0.00120327,-0.000786813,-1.37553,0.00115733,0.013865,1896,743,17.8809,-2.15657
679,281,17.885,2.4892,-0.000548078,0.00208633,0.000130222,0.00209275,-0.000554499,1.52153,0.0016121,0.0201875,1903,743,17.885,-2.48922
686,281,17.8756,2.80353,-0.000299063,0.00328199,0.000582193,0.00337427,-0.000391336,1.41361,0.00239066,0.0141726,1910,743,17.8756,-2.80354
693,281,17.8815,3.10828,-7.52819e-05,0.00467521,0.000977789,0.00486859,-0.000268667,1.37554,0.00333889,0.010486,1917,743,17.8815,-3.10828
700,281,17.8848,3.45746,0.000413526,0.00627162,0.00154209,0.00665276,3.23828e-05,1.32849,0.00442442,0.0198473,1924,743,17.8848,-3.45748
707,281,17.8354,3.75732,0.00136588,0.00813232,0.00236815,0.00887878,0.000619412,1.26544,0.0057239,0.0403589,1931,743,17.8354,-3.75732
714,281,17.9121,4.38519,0,0,0,0,0,0,0,-1,1938,743,17.9121,-4.38521
721,281,16.9656,3.22174,0,0,0,0,0,0,0,-1,1945,743,16.9656,-3.22172
728,281,19.0251,3.63934,0,0,0,0,0,0,0,-1,1952,743,19.0252,-3.63932
735,281,19.0869,2.50311,0,0,0,0,0,0,0,-1,1959,743,19.0869,-2.5031
742,281,0,0,0,0,0,0,0,0,0,-1,1966,743,0,0
749,281,0,0,0,0,0,0,0,0,0,-1,1973,743,0,0
756,281,0,0,0,0,0,0,0,0,0,-1,1980,743,0,0
763,281,0,0,0,0,0,0,0,0,0,-1,1987,743,0,0
770,281,0,0,0,0,0,0,0,0,0,-1,1994,743,0,0
777,281,0,0,0,0,0,0,0,0,0,-1,2001,743,0,0
784,281,0,0,0,0,0,0,0,0,0,-1,2008,743,0,0
791,281,0,0,0,0,0,0,0,0,0,-1,2015,743,0,0
798,281,0,0,0,0,0,0,0,0,0,-1,2022,743,0,0
805,281,0,0,0,0,0,0,0,0,0,-1,2029,743,0,0
812,281,0,0,0,0,0,0,0,0,0,-1,2036,743,0,0
-700,274,0,0,0,0,0,0,0,0,0,-1,524,750,0,0
-693,274,0,0,0,0,0,0,0,0,0,-1,531,750,0,0
-686,274,0,0,0,0,0,0,0,0,0,-1,538,750,0,0
-679,274,0,0,0,0,0,0,0,0,0,-1,545,750,0,0
-672,274,0,0,0,0,0,0,0,0,0,-1,552,750,0,0
-665,274,0,0,0,0,0,0,0,0,0,-1,559,750,0,0
-658,274,0,0,0,0,0,0,0,0,0,-1,566,750,0,0
-651,274,0,0,0,0,0,0,0,0,0,-1,573,750,0,0
-644,274,0,0,0,0,0,0,0,0,0,-1,580,750,0,0
-637,274,0,0,0,0,0,0,0,0,0,-1,587,750,0,0
-630,274,0,0,0,0,0,0,0,0,0,-1,594,750,0,0
-623,274,-14.5861,4.48267,0,0,0,0,0,0,0,-1,601,750,-14.586,-4.48269
-616,274,-13.048,3.76392,0,0,0,0,0,0,0,-1,608,750,-13.048,-3.76395
-609,274,-10.9595,2.7243,0.222965,-0.0502832,0.00637318,0.223114,-0.0504317,0.0233069,0.168094,0.0483552,615,750,-10.9594,-2.72432
-602,274,-9.50116,2.19489,0.175035,-0.038223,0.00394754,0.175108,-0.0382961,0.0185022,0.131378,0.0474605,622,750,-9.50115,-2.19486
-595,274,-7.82806,1.26617,0,0,0,0,0,0,0,-1,629,750,-7.82806,-1.26618
-588,274,-10.9317,1.89514,0,0,0,0,0,0,0,-1,636,750,-10.9317,-1.89517
-581,274,-10.9622,1.56604,0.0627004,-0.0133679,0.0025773,0.0627876,-0.0134552,0.0338296,0.04699,0.0369864,643,750,-10.9622,-1.56602
-574,274,-10.9783,1.25745,0.0353007,-0.00895528,0.00137906,0.0353436,-0.00899822,0.0311208,0.0270651,0.0200611,650,750,-10.9783,-1.25747
-567,274,-11.0709,0.973267,0.0166072,-0.00445415,0.00291684,0.0170037,-0.00485065,0.135105,0.013252,0.0189154,657,750,-11.0709,-0.973284
-560,274,-11.0688,0.712891,0.00555948,-0.00224509,0.00361305,0.00697527,-0.00366089,0.373466,0.00623938,0.0145121,664,750,-11.0688,-0.712873
-553,274,-11.0815,0.382263,-0.000147695,-0.000985271,0.00281835,0.00228281,-0.00341578,0.711641,0.00331168,0.0095109,671,750,-11.0815,-0.382255
-546,274,-11.0745,0.0716553,-0.00317983,-0.00122088,0.00302682,0.000981001,-0.00538171,0.941879,0.00395556,0.0104891,678,750,-11.0745,-0.0716611
-539,274,-11.081,-0.234497,-0.00344099,-0.00224607,0.00339723,0.000605833,-0.00629289,0.872442,0.0044111,0.0111231,685,750,-11.081,0.234471
-532,274,-11.0974,-0.52356,-0.00362336,-0.0032401,0.00387677,0.00044977,-0.00731324,0.810093,0.00503212,0.0117529,692,750,-11.0974,0.523534
-525,274,-11.1078,-0.810974,-0.00341586,-0.00433433,0.00491463,0.00106094,-0.00881113,0.738812,0.00625778,0.0119598,699,750,-11.1078,0.810952
-518,274,-11.1122,-1.14777,-0.00353529,-0.00498458,0.00554246,0.00132969,-0.00984956,0.720395,0.00705152,0.0123557,706,750,-11.1122,1.14775
-511,274,-11.1246,-1.48907,-0.004097,-0.00512395,0.00576841,0.00118075,-0.0104017,0.741008,0.00735969,0.0120774,713,750,-11.1246,1.48906
-504,274,-11.1402,-1.8136,-0.00365181,-0.00426928,0.00596018,0.00200763,-0.00992871,0.759522,0.00737995,0.0220506,720,750,-11.1402,1.81363
-497,274,-11.2202,-1.79077,-0.00185365,-0.00130716,0.00653457,0.00495987,-0.00812068,0.806293,0.0076252,0.0482014,727,750,-11.2201,1.79079
-490,274,-11.2955,-1.77307,0,0,0,0,0,0,0,-1,734,750,-11.2955,1.77306
-483,274,-17.2532,2.09644,0,0,0,0,0,0,0,-1,741,750,-17.2531,-2.09641
-476,274,-18.3083,2.29517,0.00442881,0.012712,0.00590066,0.0157795,0.00136134,1.09139,0.0100965,0.043628,748,750,-18.3083,-2.29519
-469,274,-18.9307,2.28864,0.00835221,0.0213061,0.00549608,0.0233237,0.00633459,1.21897,0.0139264,0.0479046,755,750,-18.9307,-2.28865
-462,274,-19.4852,2.15009,0.0135664,0.0324959,0.00527834,0.0338683,0.0121941,1.31643,0.0198076,0.048067,762,750,-19.4852,-2.1501
-455,274,-19.8807,2.29114,0.0208054,0.0469997,0.0053716,0.0480585,0.0197467,1.37619,0.0278931,0.0454542,769,750,-19.8807,-2.29113
-448,274,-20.1095,2.1402,0.0303248,0.0646819,0.006612,0.0659104,0.0290962,1.38709,0.0381402,0.0459854,776,750,-20.1095,-2.14021
-441,274,0,0,0,0,0,0,0,0,0,-1,783,750,0,0
-434,274,0,0,0,0,0,0,0,0,0,-1,790,750,0,0
-427,274,0,0,0,0,0,0,0,0,0,-1,797,750,0,0
-420,274,0,0,0,0,0,0,0,0,0,-1,804,750,0,0
-413,274,0,0,0,0,0,0,0,0,0,-1,811,750,0,0
-406,274,0,0,0,0,0,0,0,0,0,-1,818,750,0,0
-399,274,0,0,0,0,0,0,0,0,0,-1,825,750,0,0
-392,274,0,0,0,0,0,0,0,0,0,-1,832,750,0,0
-385,274,0,0,0,0,0,0,0,0,0,-1,839,750,0,0
-378,274,0,0,0,0,0,0,0,0,0,-1,846,750,0,0
-371,274,0,0,0,0,0,0,0,0,0,-1,853,750,0,0
-364,274,0,0,0,0,0,0,0,0,0,-1,860,750,0,0
-357,274,0,0,0,0,0,0,0,0,0,-1,867,750,0,0
-350,274,0,0,0,0,0,0,0,0,0,-1,874,750,0,0
-343,274,0,0,0,0,0,0,0,0,0,-1,881,750,0,0
-336,274,0,0,0,0,0,0,0,0,0,-1,888,750,0,0
-329,274,0,0,0,0,0,0,0,0,0,-1,895,750,0,0
-322,274,0,0,0,0,0,0,0,0,0,-1,902,750,0,0
-315,274,0,0,0,0,0,0,0,0,0,-1,909,750,0,0
-308,274,0,0,0,0,0,0,0,0,0,-1,916,750,0,0
-301,274,0,0,0,0,0,0,0,0,0,-1,923,750,0,0
-294,274,0,0,0,0,0,0,0,0,0,-1,930,750,0,0
-287,274,0,0,0,0,0,0,0,0,0,-1,937,750,0,0
-280,274,0,0,0,0,0,0,0,0,0,-1,944,750,0,0
-273,274,0,0,0,0,0,0,0,0,0,-1,951,750,0,0
-266,274,0,0,0,0,0,0,0,0,0,-1,958,750,0,0
-259,274,0,0,0,0,0,0,0,0,0,-1,965,750,0,0
-252,274,0,0,0,0,0,0,0,0,0,-1,972,750,0,0
-245,274,0,0,0,0,0,0,0,0,0,-1,979,750,0,0
-238,274,0,0,0,0,0,0,0,0,0,-1,986,750,0,0
-231,274,0,0,0,0,0,0,0,0,0,-1,993,750,0,0
-224,274,0,0,0,0,0,0,0,0,0,-1,1000,750,0,0
-217,274,0,0,0,0,0,0,0,0,0,-1,1007,750,0,0
-210,274,0,0,0,0,0,0,0,0,0,-1,1014,750,0,0
-203,274,0,0,0,0,0,0,0,0,0,-1,1021,750,0,0
-196,274,0,0,0,0,0,0,0,0,0,-1,1028,750,0,0
-189,274,0,0,0,0,0,0,0,0,0,-1,1035,750,0,0
-182,274,0,0,0,0,0,0,0,0,0,-1,1042,750,0,0
-175,274,0,0,0,0,0,0,0,0,0,-1,1049,750,0,0
-168,274,0,0,0,0,0,0,0,0,0,-1,1056,750,0,0
-161,274,0,0,0,0,0,0,0,0,0,-1,1063,750,0,0
-154,274,0,0,0,0,0,0,0,0,0,-1,1070,750,0,0
-147,274,0,0,0,0,0,0,0,0,0,-1,1077,750,0,0
-140,274,0,0,0,0,0,0,0,0,0,-1,1084,750,0,0
-133,274,0,0,0,0,0,0,0,0,0,-1,1091,750,0,0
-126,274,0,0,0,0,0,0,0,0,0,-1,1098,750,0,0
-119,274,0,0,0,0,0,0,0,0,0,-1,1105,750,0,0
-112,274,0,0,0,0,0,0,0,0,0,-1,1112,750,0,0
-105,274,0,0,0,0,0,0,0,0,0,-1,1119,750,0,0
-98,274,0,0,0,0,0,0,0,0,0,-1,1126,750,0,0
-91,274,0,0,0,0,0,0,0,0,0,-1,1133,750,0,0
-84,274,0,0,0,0,0,0,0,0,0,-1,1140,750,0,0
-77,274,0,0,0,0,0,0,0,0,0,-1,1147,750,0,0
-70,274,0,0,0,0,0,0,0,0,0,-1,1154,750,0,0
-63,274,0,0,0,0,0,0,0,0,0,-1,1161,750,0,0
-56,274,0,0,0,0,0,0,0,0,0,-1,1168,750,0,0
-49,274,0,0,0,0,0,0,0,0,0,-1,1175,750,0,0
-42,274,0,0,0,0,0,0,0,0,0,-1,1182,750,0,0
-35,274,0,0,0,0,0,0,0,0,0,-1,1189,750,0,0
-28,274,0,0,0,0,0,0,0,0,0,-1,1196,750,0,0
-21,274,0,0,0,0,0,0,0,0,0,-1,1203,750,0,0
-14,274,0,0,0,0,0,0,0,0,0,-1,1210,750,0,0
-7,274,0,0,0,0,0,0,0,0,0,-1,1217,750,0,0
0,274,0,0,0,0,0,0,0,0,0,-1,1224,750,0,0
7,274,0,0,0,0,0,0,0,0,0,-1,1231,750,0,0
14,274,0,0,0,0,0,0,0,0,0,-1,1238,750,0,0
21,274,0,0,0,0,0,0,0,0,0,-1,1245,750,0,0
28,274,0,0,0,0,0,0,0,0,0,-1,1252,750,0,0
35,274,0,0,0,0,0,0,0,0,0,-1,1259,750,0,0
42,274,0,0,0,0,0,0,0,0,0,-1,1266,750,0,0
49,274,0,0,0,0,0,0,0,0,0,-1,1273,750,0,0
56,274,0,0,0,0,0,0,0,0,0,-1,1280,750,0,0
63,274,0,0,0,0,0,0,0,0,0,-1,1287,750,0,0
70,274,0,0,0,0,0,0,0,0,0,-1,1294,750,0,0
77,274,0,0,0,0,0,0,0,0,0,-1,1301,750,0,0
84,274,0,0,0,0,0,0,0,0,0,-1,1308,750,0,0
91,274,0,0,0,0,0,0,0,0,0,-1,1315,750,0,0
98,274,0,0,0,0,0,0,0,0,0,-1,1322,750,0,0
105,274,0,0,0,0,0,0,0,0,0,-1,1329,750,0,0
112,274,0,0,0,0,0,0,0,0,0,-1,1336,750,0,0
119,274,0,0,0,0,0,0,0,0,0,-1,1343,750,0,0
126,274,0,0,0,0,0,0,0,0,0,-1,1350,750,0,0
133,274,0,0,0,0,0,0,0,0,0,-1,1357,750,0,0
140,274,0,0,0,0,0,0,0,0,0,-1,1364,750,0,0
147,274,0,0,0,0,0,0,0,0,0,-1,1371,750,0,0
154,274,0,0,0,0,0,0,0,0,0,-1,1378,750,0,0
161,274,0,0,0,0,0,0,0,0,0,-1,1385,750,0,0
168,274,0,0,0,0,0,0,0,0,0,-1,1392,750,0,0
175,274,0,0,0,0,0,0,0,0,0,-1,1399,750,0,0
182,274,0,0,0,0,0,0,0,0,0,-1,1406,750,0,0
189,274,0,0,0,0,0,0,0,0,0,-1,1413,750,0,0
196,274,0,0,0,0,0,0,0,0,0,-1,1420,750,0,0
203,274,0,0,0,0,0,0,0,0,0,-1,1427,750,0,0
210,274,0,0,0,0,0,0,0,0,0,-1,1434,750,0,0
217,274,0,0,0,0,0,0,0,0,0,-1,1441,750,0,0
224,274,0,0,0,0,0,0,0,0,0,-1,1448,750,0,0
231,274,0,0,0,0,0,0,0,0,0,-1,1455,750,0,0
238,274,0,0,0,0,0,0,0,0,0,-1,1462,750,0,0
245,274,0,0,0,0,0,0,0,0,0,-1,1469,750,0,0
252,274,0,0,0,0,0,0,0,0,0,-1,1476,750,0,0
259,274,0,0,0,0,0,0,0,0,0,-1,1483,750,0,0
266,274,0,0,0,0,0,0,0,0,0,-1,1490,750,0,0
273,274,0,0,0,0,0,0,0,0,0,-1,1497,750,0,0
280,274,0,0,0,0,0,0,0,0,0,-1,1504,750,0,0
287,274,0,0,0,0,0,0,0,0,0,-1,1511,750,0,0
294,274,0,0,0,0,0,0,0,0,0,-1,1518,750,0,0
301,274,0,0,0,0,0,0,0,0,0,-1,1525,750,0,0
308,274,0,0,0,0,0,0,0,0,0,-1,1532,750,0,0
315,274,0,0,0,0,0,0,0,0,0,-1,1539,750,0,0
322,274,0,0,0,0,0,0,0,0,0,-1,1546,750,0,0
329,274,0,0,0,0,0,0,0,0,0,-1,1553,750,0,0
336,274,0,0,0,0,0,0,0,0,0,-1,1560,750,0,0
343,274,0,0,0,0,0,0,0,0,0,-1,1567,750,0,0
350,274,0,0,0,0,0,0,0,0,0,-1,1574,750,0,0
357,274,0,0,0,0,0,0,0,0,0,-1,1581,750,0,0
364,274,0,0,0,0,0,0,0,0,0,-1,1588,750,0,0
371,274,0,0,0,0,0,0,0,0,0,-1,1595,750,0,0
378,274,0,0,0,0,0,0,0,0,0,-1,1602,750,0,0
385,274,0,0,0,0,0,0,0,0,0,-1,1609,750,0,0
392,274,0,0,0,0,0,0,0,0,0,-1,1616,750,0,0
399,274,0,0,0,0,0,0,0,0,0,-1,1623,750,0,0
406,274,0,0,0,0,0,0,0,0,0,-1,1630,750,0,0
413,274,0,0,0,0,0,0,0,0,0,-1,1637,750,0,0
420,274,0,0,0,0,0,0,0,0,0,-1,1644,750,0,0
427,274,0,0,0,0,0,0,0,0,0,-1,1651,750,0,0
434,274,0,0,0,0,0,0,0,0,0,-1,1658,750,0,0
441,274,0,0,0,0,0,0,0,0,0,-1,1665,750,0,0
448,274,0,0,0,0,0,0,0,0,0,-1,1672,750,0,0
455,274,0,0,0,0,0,0,0,0,0,-1,1679,750,0,0
462,274,0,0,0,0,0,0,0,0,0,-1,1686,750,0,0
469,274,0,0,0,0,0,0,0,0,0,-1,1693,750,0,0
476,274,0,0,0,0,0,0,0,0,0,-1,1700,750,0,0
483,274,0,0,0,0,0,0,0,0,0,-1,1707,750,0,0
490,274,0,0,0,0,0,0,0,0,0,-1,1714,750,0,0
497,274,0,0,0,0,0,0,0,0,0,-1,1721,750,0,0
504,274,0,0,0,0,0,0,0,0,0,-1,1728,750,0,0
511,274,0,0,0,0,0,0,0,0,0,-1,1735,750,0,0
518,274,0,0,0,0,0,0,0,0,0,-1,1742,750,0,0
525,274,0,0,0,0,0,0,0,0,0,-1,1749,750,0,0
532,274,0,0,0,0,0,0,0,0,0,-1,1756,750,0,0
539,274,0,0,0,0,0,0,0,0,0,-1,1763,750,0,0
546,274,0,0,0,0,0,0,0,0,0,-1,1770,750,0,0
553,274,0,0,0,0,0,0,0,0,0,-1,1777,750,0,0
560,274,27.3507,3.84406,0,0,0,0,0,0,0,-1,1784,750,27.3507,-3.84404
567,274,26.8073,4.34839,-0.0325955,0.0741217,-0.0235899,0.0791037,-0.0375774,-1.36266,0.0687733,0.0439261,1791,750,26.8073,-4.34838
574,274,26.4113,4.53711,-0.0241542,0.0590056,-0.0225065,0.064706,-0.0298547,-1.32273,0.055817,0.0480135,1798,750,26.4112,-4.53714
581,274,26.4668,4.0495,0,0,0,0,0,0,0,-1,1805,750,26.4668,-4.04947
588,274,26.2606,4.24176,0,0,0,0,0,0,0,-1,1812,750,26.2606,-4.24176
595,274,27.0988,3.19244,0,0,0,0,0,0,0,-1,1819,750,27.0987,-3.19247
602,274,28.2931,2.7124,0,0,0,0,0,0,0,-1,1826,750,28.2931,-2.71241
609,274,28.3534,2.27112,0,0,0,0,0,0,0,-1,1833,750,28.3534,-2.27111
616,274,28.4136,1.82983,0,0,0,0,0,0,0,-1,1840,750,28.4136,-1.82982
623,274,18.4568,0.0801392,0,0,0,0,0,0,0,-1,1847,750,18.4567,-0.0801508
630,274,18.3591,0.262634,-0.0024043,0.00371513,-0.00774225,0.00898033,-0.0076695,-0.973578,0.00962271,0.0468295,1854,750,18.3591,-0.262658
637,274,18.231,0.486023,-0.00229203,0.00181797,-0.00652649,0.00660535,-0.00707941,-0.93792,0.00790248,0.0145613,1861,750,18.231,-0.486042
644,274,18.2183,0.834839,-0.00218686,0.000211476,-0.00477524,0.00393581,-0.0059112,-0.908415,0.00572318,0.0120838,1868,750,18.2183,-0.834856
651,274,18.2297,1.16077,-0.0023126,-0.000856146,-0.00339475,0.0018876,-0.00505635,-0.891055,0.0041459,0.0133211,1875,750,18.2297,-1.1608
658,274,18.2336,1.46057,-0.0016394,-0.000601099,-0.00251332,0.00144613,-0.00368663,-0.887246,0.00305606,0.0151008,1882,750,18.2336,-1.4606
665,274,18.2231,1.81775,-0.000961161,-3.8399e-05,-0.00161051,0.00117552,-0.00217508,-0.924902,0.00196295,0.0154608,1889,750,18.2232,-1.81778
672,274,18.223,2.14832,-0.000629379,0.00063011,-0.000880404,0.00108281,-0.00108208,-1.09586,0.0012499,0.0134665,1896,750,18.2231,-2.14831
679,274,18.2227,2.47345,-0.000331699,0.00151514,-0.000237344,0.00154515,-0.000361714,-1.44501,0.00116947,0.0147169,1903,750,18.2226,-2.47344
686,274,18.2258,2.81335,0.000165484,0.00262594,0.000383112,0.00268422,0.000107211,1.41985,0.00175483,0.014417,1910,750,18.2258,-2.81338
693,274,18.2024,3.13837,0.000626113,0.00386964,0.000826967,0.00406831,0.00042744,1.33502,0.00258155,0.0118096,1917,750,18.2024,-3.13834
700,274,18.2106,3.47595,0.00126649,0.00521781,0.00137392,0.00564858,0.000835725,1.26697,0.00352037,0.0138489,1924,750,18.2106,-3.47597
707,274,18.1766,3.81989,0.00228982,0.00667447,0.00211416,0.00752779,0.0014365,1.18717,0.00461483,0.0219431,1931,750,18.1766,-3.81989
714,274,18.2584,4.15356,0.00367712,0.00800118,0.00283789,0.00940678,0.00227152,1.11092,0.00566783,0.0425645,1938,750,18.2585,-4.15358
721,274,18.4122,4.34894,0,0,0,0,0,0,0,-1,1945,750,18.4123,-4.34896
728,274,19.2209,3.95154,0,0,0,0,0,0,0,-1,1952,750,19.221,-3.95151
735,274,20.6608,4.10931,0,0,0,0,0,0,0,-1,1959,750,20.6607,-4.10932
742,274,11.7815,-0.740234,0,0,0,0,0,0,0,-1,1966,750,11.7815,0.740253
749,274,0,0,0,0,0,0,0,0,0,-1,1973,750,0,0
756,274,0,0,0,0,0,0,0,0,0,-1,1980,750,0,0
763,274,0,0,0,0,0,0,0,0,0,-1,1987,750,0,0
770,274,0,0,0,0,0,0,0,0,0,-1,1994,750,0,0
777,274,0,0,0,0,0,0,0,0,0,-1,2001,750,0,0
784,274,0,0,0,0,0,0,0,0,0,-1,2008,750,0,0
791,274,0,0,0,0,0,0,0,0,0,-1,2015,750,0,0
798,274,0,0,0,0,0,0,0,0,0,-1,2022,750,0,0
805,274,0,0,0,0,0,0,0,0,0,-1,2029,750,0,0
812,274,0,0,0,0,0,0,0,0,0,-1,2036,750,0,0
-700,267,0,0,0,0,0,0,0,0,0,-1,524,757,0,0
-693,267,0,0,0,0,0,0,0,0,0,-1,531,757,0,0
-686,267,0,0,0,0,0,0,0,0,0,-1,538,757,0,0
-679,267,0,0,0,0,0,0,0,0,0,-1,545,757,0,0
-672,267,0,0,0,0,0,0,0,0,0,-1,552,757,0,0
-665,267,0,0,0,0,0,0,0,0,0,-1,559,757,0,0
-658,267,0,0,0,0,0,0,0,0,0,-1,566,757,0,0
-651,267,0,0,0,0,0,0,0,0,0,-1,573,757,0,0
-644,267,0,0,0,0,0,0,0,0,0,-1,580,757,0,0
-637,267,0,0,0,0,0,0,0,0,0,-1,587,757,0,0
-630,267,-17.2354,5.11847,0.367134,-0.0576413,0.00266773,0.36715,-0.0576581,0.00628001,0.266077,0.0446703,594,757,-17.2354,-5.11849
-623,267,-15.3729,4.7558,0.311821,-0.0532025,-0.000157079,0.311821,-0.0532026,-0.000430325,0.227697,0.0469973,601,757,-15.3728,-4.75582
-616,267,-13.66,4.20703,0.258159,-0.0455679,-0.00131334,0.258165,-0.0455736,-0.00432399,0.18914,0.0484967,608,757,-13.66,-4.20705
-609,267,-11.9435,3.45258,0.208125,-0.0372055,-0.00168794,0.208137,-0.0372171,-0.00687985,0.152683,0.0440232,615,757,-11.9436,-3.45256
-602,267,-10.1252,2.63519,0.162592,-0.0288155,-0.00172758,0.162607,-0.0288311,-0.00902468,0.119183,0.0478878,622,757,-10.1252,-2.63521
-595,267,-8.44489,1.75378,0,0,0,0,0,0,0,-1,629,757,-8.4449,-1.75376
-588,267,-11.3585,2.13599,0.0866836,-0.0150164,-0.000488966,0.0866859,-0.0150187,-0.00480778,0.0633927,0.0422281,636,757,-11.3585,-2.13599
-581,267,-11.2666,1.66376,0.0579435,-0.00998277,0.000314239,0.0579449,-0.00998423,0.00462604,0.0423522,0.0285145,643,757,-11.2666,-1.66375
-574,267,-11.3353,1.28473,0.0330497,-0.00665566,-0.000194651,0.0330507,-0.00665661,-0.00490223,0.0245553,0.0158245,650,757,-11.3353,-1.28476
-567,267,-11.3873,1.01379,0.0158315,-0.00327949,0.00168936,0.0159797,-0.00342767,0.0874933,0.0119606,0.0222239,657,757,-11.3873,-1.01378
-560,267,-11.3741,0.729858,0.00547019,-0.00167047,0.0027693,0.0064183,-0.00261858,0.329856,0.00536898,0.021794,664,757,-11.3741,-0.729841
-553,267,-11.3655,0.400818,0.000103774,-0.000832238,0.00241029,0.00209107,-0.00281954,0.689506,0.00284552,0.0180689,671,757,-11.3655,-0.4008
-546,267,-11.4018,0.0841675,-0.00301957,-0.00144434,0.00299171,0.000861691,-0.00532561,0.914111,0.00386975,0.0110938,678,757,-11.4018,-0.084194
-539,267,-11.3989,-0.209717,-0.00369556,-0.00265704,0.00357888,0.000440052,-0.00679266,0.85744,0.00468202,0.0101073,685,757,-11.3989,0.209732
-532,267,-11.382,-0.527588,-0.00409133,-0.00371486,0.00419112,0.000292253,-0.00809844,0.807839,0.00549897,0.0105786,692,757,-11.382,0.527584
-525,267,-11.4048,-0.833923,-0.00390725,-0.00479119,0.00532635,0.000995434,-0.00969387,0.744004,0.00681866,0.0100562,699,757,-11.4048,0.833952
-518,267,-11.4274,-1.14288,-0.00402134,-0.00532011,0.00592372,0.00128848,-0.0106299,0.730804,0.00755284,0.0104535,706,757,-11.4274,1.14289
-511,267,-11.4187,-1.46063,-0.00452444,-0.00535347,0.00605691,0.00113213,-0.01101,0.751233,0.00774503,0.0141844,713,757,-11.4187,1.46063
-504,267,-11.4542,-1.70123,-0.00401981,-0.0044428,0.00619877,0.00197108,-0.0104337,0.768345,0.0076974,0.0278561,720,757,-11.4542,1.70121
-497,267,-11.7968,-1.1095,-0.00237432,-0.00163927,0.00666942,0.00467274,-0.00868633,0.812923,0.00782804,0.0468637,727,757,-11.7968,1.1095
-490,267,-12.0748,-0.675354,0,0,0,0,0,0,0,-1,734,757,-12.0748,0.675375
-483,267,-13.356,-0.990295,0,0,0,0,0,0,0,-1,741,757,-13.3559,0.990317
-476,267,-19.3929,2.82971,0.00325747,0.0118723,0.00578167,0.0147747,0.000355063,1.10555,0.00973361,0.0408801,748,757,-19.3929,-2.82971
-469,267,-19.1146,2.31067,0.00656618,0.0201412,0.00515257,0.0218753,0.00483199,1.24614,0.0132695,0.043081,755,757,-19.1146,-2.31067
-462,267,-19.5165,1.98901,0.0108441,0.0309191,0.0044702,0.0318696,0.00989367,1.36131,0.0188355,0.0475047,762,757,-19.5166,-1.989
-455,267,-19.4475,1.91357,0,0,0,0,0,0,0,-1,769,757,-19.4475,-1.91358
-448,267,-20.0609,1.63403,0,0,0,0,0,0,0,-1,776,757,-20.0608,-1.63405
-441,267,0,0,0,0,0,0,0,0,0,-1,783,757,0,0
-434,267,0,0,0,0,0,0,0,0,0,-1,790,757,0,0
-427,267,0,0,0,0,0,0,0,0,0,-1,797,757,0,0
-420,267,0,0,0,0,0,0,0,0,0,-1,804,757,0,0
-413,267,0,0,0,0,0,0,0,0,0,-1,811,757,0,0
-406,267,0,0,0,0,0,0,0,0,0,-1,818,757,0,0
-399,267,0,0,0,0,0,0,0,0,0,-1,825,757,0,0
-392,267,0,0,0,0,0,0,0,0,0,-1,832,757,0,0
-385,267,0,0,0,0,0,0,0,0,0,-1,839,757,0,0
-378,267,0,0,0,0,0,0,0,0,0,-1,846,757,0,0
-371,267,0,0,0,0,0,0,0,0,0,-1,853,757,0,0
-364,267,0,0,0,0,0,0,0,0,0,-1,860,757,0,0
-357,267,0,0,0,0,0,0,0,0,0,-1,867,757,0,0
-350,267,0,0,0,0,0,0,0,0,0,-1,874,757,0,0
-343,267,0,0,0,0,0,0,0,0,0,-1,881,757,0,0
-336,267,0,0,0,0,0,0,0,0,0,-1,888,757,0,0
-329,267,0,0,0,0,0,0,0,0,0,-1,895,757,0,0
-322,267,0,0,0,0,0,0,0,0,0,-1,902,757,0,0
-315,267,0,0,0,0,0,0,0,0,0,-1,909,757,0,0
-308,267,0,0,0,0,0,0,0,0,0,-1,916,757,0,0
-301,267,0,0,0,0,0,0,0,0,0,-1,923,757,0,0
-294,267,0,0,0,0,0,0,0,0,0,-1,930,757,0,0
-287,267,0,0,0,0,0,0,0,0,0,-1,937,757,0,0
-280,267,0,0,0,0,0,0,0,0,0,-1,944,757,0,0
-273,267,0,0,0,0,0,0,0,0,0,-1,951,757,0,0
-266,267,0,0,0,0,0,0,0,0,0,-1,958,757,0,0
-259,267,0,0,0,0,0,0,0,0,0,-1,965,757,0,0
-252,267,0,0,0,0,0,0,0,0,0,-1,972,757,0,0
-245,267,0,0,0,0,0,0,0,0,0,-1,979,757,0,0
-238,267,0,0,0,0,0,0,0,0,0,-1,986,757,0,0
-231,267,0,0,0,0,0,0,0,0,0,-1,993,757,0,0
-224,267,0,0,0,0,0,0,0,0,0,-1,1000,757,0,0
-217,267,0,0,0,0,0,0,0,0,0,-1,1007,757,0,0
-210,267,0,0,0,0,0,0,0,0,0,-1,1014,757,0,0
-203,267,0,0,0,0,0,0,0,0,0,-1,1021,757,0,0
-196,267,0,0,0,0,0,0,0,0,0,-1,1028,757,0,0
-189,267,0,0,0,0,0,0,0,0,0,-1,1035,757,0,0
-182,267,0,0,0,0,0,0,0,0,0,-1,1042,757,0,0
-175,267,0,0,0,0,0,0,0,0,0,-1,1049,757,0,0
-168,267,0,0,0,0,0,0,0,0,0,-1,1056,757,0,0
-161,267,0,0,0,0,0,0,0,0,0,-1,1063,757,0,0
-154,267,0,0,0,0,0,0,0,0,0,-1,1070,757,0,0
-147,267,0,0,0,0,0,0,0,0,0,-1,1077,757,0,0
-140,267,0,0,0,0,0,0,0,0,0,-1,1084,757,0,0
-133,267,0,0,0,0,0,0,0,0,0,-1,1091,757,0,0
-126,267,0,0,0,0,0,0,0,0,0,-1,1098,757,0,0
-119,267,0,0,0,0,0,0,0,0,0,-1,1105,757,0,0
-112,267,0,0,0,0,0,0,0,0,0,-1,1112,757,0,0
-105,267,0,0,0,0,0,0,0,0,0,-1,1119,757,0,0
-98,267,0,0,0,0,0,0,0,0,0,-1,1126,757,0,0
-91,267,0,0,0,0,0,0,0,0,0,-1,1133,757,0,0
-84,267,0,0,0,0,0,0,0,0,0,-1,1140,757,0,0
-77,267,0,0,0,0,0,0,0,0,0,-1,1147,757,0,0
-70,267,0,0,0,0,0,0,0,0,0,-1,1154,757,0,0
-63,267,0,0,0,0,0,0,0,0,0,-1,1161,757,0,0
-56,267,0,0,0,0,0,0,0,0,0,-1,1168,757,0,0
-49,267,0,0,0,0,0,0,0,0,0,-1,1175,757,0,0
-42,267,0,0,0,0,0,0,0,0,0,-1,1182,757,0,0
-35,267,0,0,0,0,0,0,0,0,0,-1,1189,757,0,0
-28,267,0,0,0,0,0,0,0,0,0,-1,1196,757,0,0
-21,267,0,0,0,0,0,0,0,0,0,-1,1203,757,0,0
-14,267,0,0,0,0,0,0,0,0,0,-1,1210,757,0,0
-7,267,0,0,0,0,0,0,0,0,0,-1,1217,757,0,0
0,267,0,0,0,0,0,0,0,0,0,-1,1224,757,0,0
7,267,0,0,0,0,0,0,0,0,0,-1,1231,757,0,0
14,267,0,0,0,0,0,0,0,0,0,-1,1238,757,0,0
21,267,0,0,0,0,0,0,0,0,0,-1,1245,757,0,0
28,267,0,0,0,0,0,0,0,0,0,-1,1252,757,0,0
35,267,0,0,0,0,0,0,0,0,0,-1,1259,757,0,0
42,267,0,0,0,0,0,0,0,0,0,-1,1266,757,0,0
49,267,0,0,0,0,0,0,0,0,0,-1,1273,757,0,0
56,267,0,0,0,0,0,0,0,0,0,-1,1280,757,0,0
63,267,0,0,0,0,0,0,0,0,0,-1,1287,757,0,0
70,267,0,0,0,0,0,0,0,0,0,-1,1294,757,0,0
77,267,0,0,0,0,0,0,0,0,0,-1,1301,757,0,0
84,267,0,0,0,0,0,0,0,0,0,-1,1308,757,0,0
91,267,0,0,0,0,0,0,0,0,0,-1,1315,757,0,0
98,267,0,0,0,0,0,0,0,0,0,-1,1322,757,0,0
105,267,0,0,0,0,0,0,0,0,0,-1,1329,757,0,0
112,267,0,0,0,0,0,0,0,0,0,-1,1336,757,0,0
119,267,0,0,0,0,0,0,0,0,0,-1,1343,757,0,0
126,267,0,0,0,0,0,0,0,0,0,-1,1350,757,0,0
133,267,0,0,0,0,0,0,0,0,0,-1,1357,757,0,0
140,267,0,0,0,0,0,0,0,0,0,-1,1364,757,0,0
147,267,0,0,0,0,0,0,0,0,0,-1,1371,757,0,0
154,267,0,0,0,0,0,0,0,0,0,-1,1378,757,0,0
161,267,0,0,0,0,0,0,0,0,0,-1,1385,757,0,0
168,267,0,0,0,0,0,0,0,0,0,-1,1392,757,0,0
175,267,0,0,0,0,0,0,0,0,0,-1,1399,757,0,0
182,267,0,0,0,0,0,0,0,0,0,-1,1406,757,0,0
189,267,0,0,0,0,0,0,0,0,0,-1,1413,757,0,0
196,267,0,0,0,0,0,0,0,0,0,-1,1420,757,0,0
203,267,0,0,0,0,0,0,0,0,0,-1,1427,757,0,0
210,267,0,0,0,0,0,0,0,0,0,-1,1434,757,0,0
217,267,0,0,0,0,0,0,0,0,0,-1,1441,757,0,0
224,267,0,0,0,0,0,0,0,0,0,-1,1448,757,0,0
231,267,0,0,0,0,0,0,0,0,0,-1,1455,757,0,0
238,267,0,0,0,0,0,0,0,0,0,-1,1462,757,0,0
245,267,0,0,0,0,0,0,0,0,0,-1,1469,757,0,0
252,267,0,0,0,0,0,0,0,0,0,-1,1476,757,0,0
259,267,0,0,0,0,0,0,0,0,0,-1,1483,757,0,0
266,267,0,0,0,0,0,0,0,0,0,-1,1490,757,0,0
273,267,0,0,0,0,0,0,0,0,0,-1,1497,757,0,0
280,267,0,0,0,0,0,0,0,0,0,-1,1504,757,0,0
287,267,0,0,0,0,0,0,0,0,0,-1,1511,757,0,0
294,267,0,0,0,0,0,0,0,0,0,-1,1518,757,0,0
301,267,0,0,0,0,0,0,0,0,0,-1,1525,757,0,0
308,267,0,0,0,0,0,0,0,0,0,-1,1532,757,0,0
315,267,0,0,0,0,0,0,0,0,0,-1,1539,757,0,0
322,267,0,0,0,0,0,0,0,0,0,-1,1546,757,0,0
329,267,0,0,0,0,0,0,0,0,0,-1,1553,757,0,0
336,267,0,0,0,0,0,0,0,0,0,-1,1560,757,0,0
343,267,0,0,0,0,0,0,0,0,0,-1,1567,757,0,0
350,267,0,0,0,0,0,0,0,0,0,-1,1574,757,0,0
357,267,0,0,0,0,0,0,0,0,0,-1,1581,757,0,0
364,267,0,0,0,0,0,0,0,0,0,-1,1588,757,0,0
371,267,0,0,0,0,0,0,0,0,0,-1,1595,757,0,0
378,267,0,0,0,0,0,0,0,0,0,-1,1602,757,0,0
385,267,0,0,0,0,0,0,0,0,0,-1,1609,757,0,0
392,267,0,0,0,0,0,0,0,0,0,-1,1616,757,0,0
399,267,0,0,0,0,0,0,0,0,0,-1,1623,757,0,0
406,267,0,0,0,0,0,0,0,0,0,-1,1630,757,0,0
413,267,0,0,0,0,0,0,0,0,0,-1,1637,757,0,0
420,267,0,0,0,0,0,0,0,0,0,-1,1644,757,0,0
427,267,0,0,0,0,0,0,0,0,0,-1,1651,757,0,0
434,267,0,0,0,0,0,0,0,0,0,-1,1658,757,0,0
441,267,0,0,0,0,0,0,0,0,0,-1,1665,757,0,0
448,267,0,0,0,0,0,0,0,0,0,-1,1672,757,0,0
455,267,0,0,0,0,0,0,0,0,0,-1,1679,757,0,0
462,267,0,0,0,0,0,0,0,0,0,-1,1686,757,0,0
469,267,0,0,0,0,0,0,0,0,0,-1,1693,757,0,0
476,267,0,0,0,0,0,0,0,0,0,-1,1700,757,0,0
483,267,0,0,0,0,0,0,0,0,0,-1,1707,757,0,0
490,267,0,0,0,0,0,0,0,0,0,-1,1714,757,0,0
497,267,0,0,0,0,0,0,0,0,0,-1,1721,757,0,0
504,267,0,0,0,0,0,0,0,0,0,-1,1728,757,0,0
511,267,0,0,0,0,0,0,0,0,0,-1,1735,757,0,0
518,267,0,0,0,0,0,0,0,0,0,-1,1742,757,0,0
525,267,0,0,0,0,0,0,0,0,0,-1,1749,757,0,0
532,267,0,0,0,0,0,0,0,0,0,-1,1756,757,0,0
539,267,0,0,0,0,0,0,0,0,0,-1,1763,757,0,0
546,267,0,0,0,0,0,0,0,0,0,-1,1770,757,0,0
553,267,0,0,0,0,0,0,0,0,0,-1,1777,757,0,0
560,267,0,0,0,0,0,0,0,0,0,-1,1784,757,0,0
567,267,27.4152,3.78876,-0.0253056,0.0648751,-0.0201722,0.0691816,-0.0296122,-1.36046,0.0585438,0.0406384,1791,757,27.4152,-3.78878
574,267,27.0753,4.05701,-0.018799,0.0516118,-0.020749,0.0572713,-0.0244585,-1.30451,0.0484378,0.0416469,1798,757,27.0753,-4.05702
581,267,27.097,4.07581,-0.0134334,0.0408151,-0.0194086,0.0470438,-0.0196621,-1.26026,0.0395795,0.0419636,1805,757,27.097,-4.07578
588,267,26.7927,4.12433,-0.0100934,0.0321925,-0.0179905,0.0388108,-0.0167117,-1.21829,0.0328914,0.0446144,1812,757,26.7927,-4.12433
595,267,27.2399,3.24652,-0.00778645,0.0249888,-0.0161314,0.0315963,-0.014394,-1.18204,0.0271646,0.0465552,1819,757,27.2398,-3.24651
602,267,27.0902,2.80066,0,0,0,0,0,0,0,-1,1826,757,27.0902,-2.80067
609,267,27.1992,2.39294,0,0,0,0,0,0,0,-1,1833,757,27.1992,-2.39293
616,267,26.7631,1.71362,0,0,0,0,0,0,0,-1,1840,757,26.7631,-1.71361
623,267,19.9657,0.18866,0,0,0,0,0,0,0,-1,1847,757,19.9657,-0.188684
630,267,19.469,0.412109,-0.00218901,0.00345006,-0.00780484,0.00892904,-0.00766799,-0.958731,0.00959151,0.0462362,1854,757,19.469,-0.412138
637,267,18.667,0.492737,-0.00210442,0.00173647,-0.00665496,0.00674255,-0.00711049,-0.925869,0.007999,0.0273165,1861,757,18.667,-0.492744
644,267,18.5559,0.841919,-0.00209724,0.000210933,-0.00503957,0.00422688,-0.00611318,-0.89796,0.00600286,0.0125263,1868,757,18.5559,-0.841928
651,267,18.553,1.16418,-0.00233626,-0.000776323,-0.00375837,0.00228216,-0.00539474,-0.88771,0.00455208,0.0143208,1875,757,18.553,-1.1642
658,267,18.5502,1.48737,-0.0016633,-0.000732188,-0.00298472,0.00182307,-0.00421855,-0.862765,0.00357836,0.0143515,1882,757,18.5502,-1.48737
665,267,18.5494,1.82489,-0.000906336,-0.000356181,-0.00208373,0.00147055,-0.00273307,-0.851025,0.00246318,0.0147144,1889,757,18.5494,-1.82487
672,267,18.5602,2.14594,-0.000550594,0.000117592,-0.00131685,0.00114207,-0.00157508,-0.90963,0.00157537,0.0127873,1896,757,18.5602,-2.14594
679,267,18.5681,2.45923,-0.000250485,0.000830668,-0.000614329,0.0011084,-0.000528214,-1.14621,0.000964486,0.0125689,1903,757,18.5681,-2.45924
686,267,18.5636,2.81409,0.000336227,0.00179691,9.73522e-05,0.00180337,0.000329767,1.50454,0.00110879,0.0126099,1910,757,18.5637,-2.8141
693,267,18.5222,3.12659,0.0009213,0.0028934,0.000551518,0.00303715,0.000777542,1.31581,0.00182177,0.0125569,1917,757,18.5222,-3.12659
700,267,18.5056,3.44653,0.00159204,0.00403589,0.00105756,0.00442999,0.00119793,1.21409,0.00264601,0.0144178,1924,757,18.5057,-3.44655
707,267,18.4932,3.75415,0.00255183,0.00518466,0.00169814,0.00601688,0.00171961,1.11512,0.00357853,0.0151736,1931,757,18.4932,-3.75413
714,267,18.5454,4.03833,0.00377908,0.00609487,0.00226725,0.00748279,0.00239117,1.02149,0.00441297,0.0302096,1938,757,18.5455,-4.03835
721,267,18.6614,4.3468,0.00533055,0.00706487,0.00307781,0.00939535,0.00300008,0.922712,0.00554121,0.0476232,1945,757,18.6614,-4.34682
728,267,18.6996,4.54321,0,0,0,0,0,0,0,-1,1952,757,18.6996,-4.54319
735,267,21.0341,5.23145,0,0,0,0,0,0,0,-1,1959,757,21.034,-5.23142
742,267,18.1177,3.56561,0,0,0,0,0,0,0,-1,1966,757,18.1176,-3.56564
749,267,0,0,0,0,0,0,0,0,0,-1,1973,757,0,0
756,267,0,0,0,0,0,0,0,0,0,-1,1980,757,0,0
763,267,0,0,0,0,0,0,0,0,0,-1,1987,757,0,0
770,267,0,0,0,0,0,0,0,0,0,-1,1994,757,0,0
777,267,0,0,0,0,0,0,0,0,0,-1,2001,757,0,0
784,267,0,0,0,0,0,0,0,0,0,-1,2008,757,0,0
791,267,0,0,0,0,0,0,0,0,0,-1,2015,757,0,0
798,267,0,0,0,0,0,0,0,0,0,-1,2022,757,0,0
805,267,0,0,0,0,0,0,0,0,0,-1,2029,757,0,0
812,267,0,0,0,0,0,0,0,0,0,-1,2036,757,0,0
-700,260,0,0,0,0,0,0,0,0,0,-1,524,764,0,0
-693,260,0,0,0,0,0,0,0,0,0,-1,531,764,0,0
-686,260,0,0,0,0,0,0,0,0,0,-1,538,764,0,0
-679,260,0,0,0,0,0,0,0,0,0,-1,545,764,0,0
-672,260,0,0,0,0,0,0,0,0,0,-1,552,764,0,0
-665,260,0,0,0,0,0,0,0,0,0,-1,559,764,0,0
-658,260,0,0,0,0,0,0,0,0,0,-1,566,764,0,0
-651,260,0,0,0,0,0,0,0,0,0,-1,573,764,0,0
-644,260,0,0,0,0,0,0,0,0,0,-1,580,764,0,0
-637,260,0,0,0,0,0,0,0,0,0,-1,587,764,0,0
-630,260,-17.917,5.07648,0.342134,-0.0352371,-0.00930808,0.342363,-0.0354665,-0.0246456,0.240936,0.04474,594,764,-17.917,-5.07649
-623,260,-15.0096,6.33026,0.289555,-0.0352194,-0.00982049,0.289852,-0.0355161,-0.0302011,0.206096,0.0480786,601,764,-15.0096,-6.33025
-616,260,-14.0435,4.81812,0.23887,-0.0312163,-0.00912751,0.239178,-0.0315244,-0.0337434,0.170932,0.0465276,608,764,-14.0435,-4.81812
-609,260,-12.54,3.84058,0,0,0,0,0,0,0,-1,615,764,-12.54,-3.84059
-602,260,-10.7133,3.04718,0,0,0,0,0,0,0,-1,622,764,-10.7132,-3.04715
-595,260,-12.1512,2.29028,0,0,0,0,0,0,0,-1,629,764,-12.1512,-2.29029
-588,260,-11.913,1.9043,0.0785087,-0.0103105,-0.00303908,0.0786125,-0.0104143,-0.0341632,0.0562024,0.041981,636,764,-11.913,-1.90432
-581,260,-11.6782,1.56836,0.0525183,-0.00672739,-0.00158241,0.0525605,-0.00676963,-0.026684,0.0375011,0.0237518,643,764,-11.6781,-1.56833
-574,260,-11.7018,1.29266,0.0301873,-0.00441572,-0.00145382,0.0302483,-0.00447669,-0.0419158,0.0218114,0.0155582,650,764,-11.7018,-1.29268
-567,260,-11.7102,1.03125,0.0145532,-0.00212466,0.000703118,0.0145828,-0.00215425,0.0420593,0.0105138,0.0160639,657,764,-11.7102,-1.03125
-560,260,-11.689,0.732849,0.00507102,-0.00111427,0.00208046,0.00570568,-0.00174892,0.296089,0.00450147,0.0187503,664,764,-11.689,-0.732831
-553,260,-11.683,0.409424,0.000280232,-0.000695641,0.00212408,0.0019717,-0.00238711,0.672499,0.00252037,0.017676,671,764,-11.6831,-0.40943
-546,260,-11.7078,0.101746,-0.00270292,-0.00161796,0.00299295,0.000881277,-0.00520216,0.875051,0.00379612,0.0111284,678,764,-11.7078,-0.101734
-539,260,-11.6891,-0.180786,-0.00360433,-0.00293434,0.00373274,0.000478406,-0.00701707,0.830151,0.0048454,0.0110587,685,764,-11.6891,0.180766
-532,260,-11.6733,-0.456116,-0.00401696,-0.00394853,0.00440735,0.000424738,-0.00839023,0.78928,0.00574031,0.013518,692,764,-11.6733,0.456103
-525,260,-11.704,-0.797607,-0.00371445,-0.00486911,0.00551332,0.00125169,-0.00983525,0.733231,0.0070114,0.0121224,699,764,-11.704,0.797597
-518,260,-11.7336,-1.12354,-0.00372251,-0.00521891,0.00603127,0.00160679,-0.0105482,0.723687,0.00762438,0.0132809,706,764,-11.7336,1.12353
-511,260,-11.7214,-1.40814,-0.00410888,-0.00514281,0.00606216,0.00145831,-0.01071,0.742863,0.00767245,0.0229032,713,764,-11.7214,1.40812
-504,260,-11.8032,-1.50482,-0.00358719,-0.00422308,0.00613621,0.0022393,-0.0100496,0.759514,0.00755756,0.0426031,720,764,-11.8032,1.50481
-497,260,-11.9814,-0.751404,-0.00215418,-0.00168785,0.00644282,0.00452602,-0.00836805,0.803485,0.00755375,0.0478755,727,764,-11.9815,0.751374
-490,260,-12.2859,-0.431335,-0.000964858,0.0010376,0.00624395,0.00636008,-0.00628734,0.864897,0.00730203,0.0445108,734,764,-12.2859,0.431338
-483,260,-12.9313,-0.831116,0,0,0,0,0,0,0,-1,741,764,-12.9313,0.831135
-476,260,-13.5959,-1.13464,0,0,0,0,0,0,0,-1,748,764,-13.596,1.13463
-469,260,-19.5317,1.87524,0.00578196,0.0187923,0.0037525,0.019797,0.00477723,1.30919,0.0119288,0.0468464,755,764,-19.5318,-1.87526
-462,260,-19.606,1.69611,0.00947526,0.0291606,0.00223426,0.029411,0.00922486,1.45919,0.0173691,0.045339,762,764,-19.606,-1.69609
-455,260,-19.5197,1.74597,0.0148231,0.0431069,5.51133e-05,0.043107,0.0148229,1.56885,0.0252891,0.0482933,769,764,-19.5197,-1.74598
-448,260,0,0,0,0,0,0,0,0,0,-1,776,764,0,0
-441,260,0,0,0,0,0,0,0,0,0,-1,783,764,0,0
-434,260,0,0,0,0,0,0,0,0,0,-1,790,764,0,0
-427,260,0,0,0,0,0,0,0,0,0,-1,797,764,0,0
-420,260,0,0,0,0,0,0,0,0,0,-1,804,764,0,0
-413,260,0,0,0,0,0,0,0,0,0,-1,811,764,0,0
-406,260,0,0,0,0,0,0,0,0,0,-1,818,764,0,0
-399,260,0,0,0,0,0,0,0,0,0,-1,825,764,0,0
-392,260,0,0,0,0,0,0,0,0,0,-1,832,764,0,0
-385,260,0,0,0,0,0,0,0,0,0,-1,839,764,0,0
-378,260,0,0,0,0,0,0,0,0,0,-1,846,764,0,0
-371,260,0,0,0,0,0,0,0,0,0,-1,853,764,0,0
-364,260,0,0,0,0,0,0,0,0,0,-1,860,764,0,0
-357,260,0,0,0,0,0,0,0,0,0,-1,867,764,0,0
-350,260,0,0,0,0,0,0,0,0,0,-1,874,764,0,0
-343,260,0,0,0,0,0,0,0,0,0,-1,881,764,0,0
-336,260,0,0,0,0,0,0,0,0,0,-1,888,764,0,0
-329,260,0,0,0,0,0,0,0,0,0,-1,895,764,0,0
-322,260,0,0,0,0,0,0,0,0,0,-1,902,764,0,0
-315,260,0,0,0,0,0,0,0,0,0,-1,909,764,0,0
-308,260,0,0,0,0,0,0,0,0,0,-1,916,764,0,0
-301,260,0,0,0,0,0,0,0,0,0,-1,923,764,0,0
-294,260,0,0,0,0,0,0,0,0,0,-1,930,764,0,0
-287,260,0,0,0,0,0,0,0,0,0,-1,937,764,0,0
-280,260,0,0,0,0,0,0,0,0,0,-1,944,764,0,0
-273,260,0,0,0,0,0,0,0,0,0,-1,951,764,0,0
-266,260,0,0,0,0,0,0,0,0,0,-1,958,764,0,0
-259,260,0,0,0,0,0,0,0,0,0,-1,965,764,0,0
-252,260,0,0,0,0,0,0,0,0,0,-1,972,764,0,0
-245,260,0,0,0,0,0,0,0,0,0,-1,979,764,0,0
-238,260,0,0,0,0,0,0,0,0,0,-1,986,764,0,0
-231,260,0,0,0,0,0,0,0,0,0,-1,993,764,0,0
-224,260,0,0,0,0,0,0,0,0,0,-1,1000,764,0,0
-217,260,0,0,0,0,0,0,0,0,0,-1,1007,764,0,0
-210,260,0,0,0,0,0,0,0,0,0,-1,1014,764,0,0
-203,260,0,0,0,0,0,0,0,0,0,-1,1021,764,0,0
-196,260,0,0,0,0,0,0,0,0,0,-1,1028,764,0,0
-189,260,0,0,0,0,0,0,0,0,0,-1,1035,764,0,0
-182,260,0,0,0,0,0,0,0,0,0,-1,1042,764,0,0
-175,260,0,0,0,0,0,0,0,0,0,-1,1049,764,0,0
-168,260,0,0,0,0,0,0,0,0,0,-1,1056,764,0,0
-161,260,0,0,0,0,0,0,0,0,0,-1,1063,764,0,0
-154,260,0,0,0,0,0,0,0,0,0,-1,1070,764,0,0
-147,260,0,0,0,0,0,0,0,0,0,-1,1077,764,0,0
-140,260,0,0,0,0,0,0,0,0,0,-1,1084,764,0,0
-133,260,0,0,0,0,0,0,0,0,0,-1,1091,764,0,0
-126,260,0,0,0,0,0,0,0,0,0,-1,1098,764,0,0
-119,260,0,0,0,0,0,0,0,0,0,-1,1105,764,0,0
-112,260,0,0,0,0,0,0,0,0,0,-1,1112,764,0,0
-105,260,0,0,0,0,0,0,0,0,0,-1,1119,764,0,0
-98,260,0,0,0,0,0,0,0,0,0,-1,1126,764,0,0
-91,260,0,0,0,0,0,0,0,0,0,-1,1133,764,0,0
-84,260,0,0,0,0,0,0,0,0,0,-1,1140,764,0,0
-77,260,0,0,0,0,0,0,0,0,0,-1,1147,764,0,0
-70,260,0,0,0,0,0,0,0,0,0,-1,1154,764,0,0
-63,260,0,0,0,0,0,0,0,0,0,-1,1161,764,0,0
-56,260,0,0,0,0,0,0,0,0,0,-1,1168,764,0,0
-49,260,0,0,0,0,0,0,0,0,0,-1,1175,764,0,0
-42,260,0,0,0,0,0,0,0,0,0,-1,1182,764,0,0
-35,260,0,0,0,0,0,0,0,0,0,-1,1189,764,0,0
-28,260,0,0,0,0,0,0,0,0,0,-1,1196,764,0,0
-21,260,0,0,0,0,0,0,0,0,0,-1,1203,764,0,0
-14,260,0,0,0,0,0,0,0,0,0,-1,1210,764,0,0
-7,260,0,0,0,0,0,0,0,0,0,-1,1217,764,0,0
0,260,0,0,0,0,0,0,0,0,0,-1,1224,764,0,0
7,260,0,0,0,0,0,0,0,0,0,-1,1231,764,0,0
14,260,0,0,0,0,0,0,0,0,0,-1,1238,764,0,0
21,260,0,0,0,0,0,0,0,0,0,-1,1245,764,0,0
28,260,0,0,0,0,0,0,0,0,0,-1,1252,764,0,0
35,260,0,0,0,0,0,0,0,0,0,-1,1259,764,0,0
42,260,0,0,0,0,0,0,0,0,0,-1,1266,764,0,0
49,260,0,0,0,0,0,0,0,0,0,-1,1273,764,0,0
56,260,0,0,0,0,0,0,0,0,0,-1,1280,764,0,0
63,260,0,0,0,0,0,0,0,0,0,-1,1287,764,0,0
70,260,0,0,0,0,0,0,0,0,0,-1,1294,764,0,0
77,260,0,0,0,0,0,0,0,0,0,-1,1301,764,0,0
84,260,0,0,0,0,0,0,0,0,0,-1,1308,764,0,0
91,260,0,0,0,0,0,0,0,0,0,-1,1315,764,0,0
98,260,0,0,0,0,0,0,0,0,0,-1,1322,764,0,0
105,260,0,0,0,0,0,0,0,0,0,-1,1329,764,0,0
112,260,0,0,0,0,0,0,0,0,0,-1,1336,764,0,0
119,260,0,0,0,0,0,0,0,0,0,-1,1343,764,0,0
126,260,0,0,0,0,0,0,0,0,0,-1,1350,764,0,0
133,260,0,0,0,0,0,0,0,0,0,-1,1357,764,0,0
140,260,0,0,0,0,0,0,0,0,0,-1,1364,764,0,0
147,260,0,0,0,0,0,0,0,0,0,-1,1371,764,0,0
154,260,0,0,0,0,0,0,0,0,0,-1,1378,764,0,0
161,260,0,0,0,0,0,0,0,0,0,-1,1385,764,0,0
168,260,0,0,0,0,0,0,0,0,0,-1,1392,764,0,0
175,260,0,0,0,0,0,0,0,0,0,-1,1399,764,0,0
182,260,0,0,0,0,0,0,0,0,0,-1,1406,764,0,0
189,260,0,0,0,0,0,0,0,0,0,-1,1413,764,0,0
196,260,0,0,0,0,0,0,0,0,0,-1,1420,764,0,0
203,260,0,0,0,0,0,0,0,0,0,-1,1427,764,0,0
210,260,0,0,0,0,0,0,0,0,0,-1,1434,764,0,0
217,260,0,0,0,0,0,0,0,0,0,-1,1441,764,0,0
224,260,0,0,0,0,0,0,0,0,0,-1,1448,764,0,0
231,260,0,0,0,0,0,0,0,0,0,-1,1455,764,0,0
238,260,0,0,0,0,0,0,0,0,0,-1,1462,764,0,0
245,260,0,0,0,0,0,0,0,0,0,-1,1469,764,0,0
252,260,0,0,0,0,0,0,0,0,0,-1,1476,764,0,0
259,260,0,0,0,0,0,0,0,0,0,-1,1483,764,0,0
266,260,0,0,0,0,0,0,0,0,0,-1,1490,764,0,0
273,260,0,0,0,0,0,0,0,0,0,-1,1497,764,0,0
280,260,0,0,0,0,0,0,0,0,0,-1,1504,764,0,0
287,260,0,0,0,0,0,0,0,0,0,-1,1511,764,0,0
294,260,0,0,0,0,0,0,0,0,0,-1,1518,764,0,0
301,260,0,0,0,0,0,0,0,0,0,-1,1525,764,0,0
308,260,0,0,0,0,0,0,0,0,0,-1,1532,764,0,0
315,260,0,0,0,0,0,0,0,0,0,-1,1539,764,0,0
322,260,0,0,0,0,0,0,0,0,0,-1,1546,764,0,0
329,260,0,0,0,0,0,0,0,0,0,-1,1553,764,0,0
336,260,0,0,0,0,0,0,0,0,0,-1,1560,764,0,0
343,260,0,0,0,0,0,0,0,0,0,-1,1567,764,0,0
350,260,0,0,0,0,0,0,0,0,0,-1,1574,764,0,0
357,260,0,0,0,0,0,0,0,0,0,-1,1581,764,0,0
364,260,0,0,0,0,0,0,0,0,0,-1,1588,764,0,0
371,260,0,0,0,0,0,0,0,0,0,-1,1595,764,0,0
378,260,0,0,0,0,0,0,0,0,0,-1,1602,764,0,0
385,260,0,0,0,0,0,0,0,0,0,-1,1609,764,0,0
392,260,0,0,0,0,0,0,0,0,0,-1,1616,764,0,0
399,260,0,0,0,0,0,0,0,0,0,-1,1623,764,0,0
406,260,0,0,0,0,0,0,0,0,0,-1,1630,764,0,0
413,260,0,0,0,0,0,0,0,0,0,-1,1637,764,0,0
420,260,0,0,0,0,0,0,0,0,0,-1,1644,764,0,0
427,260,0,0,0,0,0,0,0,0,0,-1,1651,764,0,0
434,260,0,0,0,0,0,0,0,0,0,-1,1658,764,0,0
441,260,0,0,0,0,0,0,0,0,0,-1,1665,764,0,0
448,260,0,0,0,0,0,0,0,0,0,-1,1672,764,0,0
455,260,0,0,0,0,0,0,0,0,0,-1,1679,764,0,0
462,260,0,0,0,0,0,0,0,0,0,-1,1686,764,0,0
469,260,0,0,0,0,0,0,0,0,0,-1,1693,764,0,0
476,260,0,0,0,0,0,0,0,0,0,-1,1700,764,0,0
483,260,0,0,0,0,0,0,0,0,0,-1,1707,764,0,0
490,260,0,0,0,0,0,0,0,0,0,-1,1714,764,0,0
497,260,0,0,0,0,0,0,0,0,0,-1,1721,764,0,0
504,260,0,0,0,0,0,0,0,0,0,-1,1728,764,0,0
511,260,0,0,0,0,0,0,0,0,0,-1,1735,764,0,0
518,260,0,0,0,0,0,0,0,0,0,-1,1742,764,0,0
525,260,0,0,0,0,0,0,0,0,0,-1,1749,764,0,0
532,260,0,0,0,0,0,0,0,0,0,-1,1756,764,0,0
539,260,0,0,0,0,0,0,0,0,0,-1,1763,764,0,0
546,260,0,0,0,0,0,0,0,0,0,-1,1770,764,0,0
553,260,0,0,0,0,0,0,0,0,0,-1,1777,764,0,0
560,260,0,0,0,0,0,0,0,0,0,-1,1784,764,0,0
567,260,0,0,0,0,0,0,0,0,0,-1,1791,764,0,0
574,260,27.5723,3.54883,-0.01454,0.0442714,-0.0171898,0.0489272,-0.0191958,-1.3063,0.0405602,0.0370508,1798,764,27.5723,-3.54881
581,260,27.4304,3.74945,-0.0103227,0.0354071,-0.0174023,0.0412762,-0.0161918,-1.24552,0.0342165,0.0376098,1805,764,27.4304,-3.74946
588,260,27.3729,3.83582,-0.00792773,0.028143,-0.0168968,0.0348215,-0.0146063,-1.19439,0.0293219,0.0418441,1812,764,27.373,-3.83581
595,260,27.4618,3.4834,-0.0063414,0.0220179,-0.0154998,0.0288456,-0.013169,-1.15587,0.0248136,0.0444018,1819,764,27.4618,-3.48338
602,260,25.9105,2.85449,0,0,0,0,0,0,0,-1,1826,764,25.9105,-2.85452
609,260,26.0402,2.47137,0,0,0,0,0,0,0,-1,1833,764,26.0402,-2.47139
616,260,26.5167,2.12799,0,0,0,0,0,0,0,-1,1840,764,26.5168,-2.12802
623,260,26.7971,2.03662,0,0,0,0,0,0,0,-1,1847,764,26.7971,-2.03661
630,260,20.3257,0.557739,0,0,0,0,0,0,0,-1,1854,764,20.3257,-0.557744
637,260,19.139,0.467407,0,0,0,0,0,0,0,-1,1861,764,19.1391,-0.467435
644,260,18.9493,0.877258,-0.00260482,0.000551351,-0.00533168,0.00453358,-0.00658706,-0.929282,0.00645689,0.0250158,1868,764,18.9493,-0.877265
651,260,18.912,1.17767,-0.00293303,-0.000285305,-0.00421108,0.00280511,-0.00602345,-0.937695,0.00520884,0.0135578,1875,764,18.912,-1.17765
658,260,18.884,1.50214,-0.00223508,-0.000423021,-0.00355952,0.00234397,-0.00500206,-0.91002,0.00433279,0.0159543,1882,764,18.8841,-1.50215
665,260,18.859,1.83643,-0.0013482,-0.000265228,-0.00267557,0.0019231,-0.00353653,-0.88524,0.00319767,0.0161918,1889,764,18.859,-1.83646
672,260,18.8804,2.17249,-0.000858043,-8.11516e-05,-0.00185695,0.00142754,-0.00236674,-0.888504,0.00221288,0.0135972,1896,764,18.8804,-2.17248
679,260,18.8865,2.48407,-0.000455037,0.000357949,-0.00107153,0.0010975,-0.00119459,-0.966691,0.00132373,0.0125923,1903,764,18.8864,-2.48408
686,260,18.8602,2.82446,0.000274625,0.00109065,-0.000275789,0.00117512,0.000190161,-1.2736,0.000728347,0.0143791,1910,764,18.8602,-2.82448
693,260,18.8149,3.12592,0.0010385,0.00196192,0.000181511,0.00199631,0.00100411,1.38351,0.00115258,0.0144433,1917,764,18.8149,-3.1259
700,260,18.7955,3.44141,0.00172869,0.00277784,0.000604277,0.00305347,0.00145306,1.14286,0.00176361,0.0138244,1924,764,18.7956,-3.44143
707,260,18.802,3.74353,0.00251527,0.0036054,0.00105449,0.00424737,0.0018733,1.02393,0.0024579,0.0142494,1931,764,18.802,-3.74352
714,260,18.8538,4.02179,0.00348965,0.00402479,0.00135781,0.00514114,0.0023733,0.882681,0.00297115,0.0241869,1938,764,18.8538,-4.02179
721,260,18.8893,4.29321,0.00461945,0.00423613,0.00170552,0.00614404,0.00271153,0.729445,0.0035554,0.0423515,1945,764,18.8893,-4.29322
728,260,18.9,4.54669,0,0,0,0,0,0,0,-1,1952,764,18.9,-4.5467
735,260,18.6809,4.4082,0,0,0,0,0,0,0,-1,1959,764,18.681,-4.4082
742,260,21.7131,5.37915,0,0,0,0,0,0,0,-1,1966,764,21.7131,-5.37913
749,260,18.9454,4.52777,0,0,0,0,0,0,0,-1,1973,764,18.9455,-4.5278
756,260,0,0,0,0,0,0,0,0,0,-1,1980,764,0,0
763,260,0,0,0,0,0,0,0,0,0,-1,1987,764,0,0
770,260,0,0,0,0,0,0,0,0,0,-1,1994,764,0,0
777,260,0,0,0,0,0,0,0,0,0,-1,2001,764,0,0
784,260,0,0,0,0,0,0,0,0,0,-1,2008,764,0,0
791,260,0,0,0,0,0,0,0,0,0,-1,2015,764,0,0
798,260,0,0,0,0,0,0,0,0,0,-1,2022,764,0,0
805,260,0,0,0,0,0,0,0,0,0,-1,2029,764,0,0
812,260,0,0,0,0,0,0,0,0,0,-1,2036,764,0,0
-700,253,0,0,0,0,0,0,0,0,0,-1,524,771,0,0
-693,253,0,0,0,0,0,0,0,0,0,-1,531,771,0,0
-686,253,0,0,0,0,0,0,0,0,0,-1,538,771,0,0
-679,253,0,0,0,0,0,0,0,0,0,-1,545,771,0,0
-672,253,0,0,0,0,0,0,0,0,0,-1,552,771,0,0
-665,253,0,0,0,0,0,0,0,0,0,-1,559,771,0,0
-658,253,0,0,0,0,0,0,0,0,0,-1,566,771,0,0
-651,253,0,0,0,0,0,0,0,0,0,-1,573,771,0,0
-644,253,0,0,0,0,0,0,0,0,0,-1,580,771,0,0
-637,253,-14.2829,6.10547,0,0,0,0,0,0,0,-1,587,771,-14.2829,-6.10547
-630,253,-16.3549,7.31854,0,0,0,0,0,0,0,-1,594,771,-16.3549,-7.31852
-623,253,-15.2581,6.2666,0.2666,-0.0204629,-0.0168515,0.267585,-0.0214487,-0.0584359,0.185953,0.0461898,601,771,-15.2581,-6.26659
-616,253,-14.1649,5.21228,0.218491,-0.01916,-0.0148098,0.21941,-0.0200794,-0.0619978,0.153405,0.0436125,608,771,-14.1649,-5.21229
-609,253,-13.0188,4.01654,0,0,0,0,0,0,0,-1,615,771,-13.0188,-4.01656
-602,253,-11.7989,2.84845,0,0,0,0,0,0,0,-1,622,771,-11.7989,-2.84844
-595,253,-12.083,2.14026,0,0,0,0,0,0,0,-1,629,771,-12.083,-2.14024
-588,253,-12.0379,1.82733,0.0695992,-0.00613266,-0.00494473,0.0699207,-0.00645415,-0.0649252,0.0489074,0.03949,636,771,-12.0379,-1.82736
-581,253,-11.9808,1.53577,0.0464009,-0.00383083,-0.00300321,0.0465798,-0.00400974,-0.0595047,0.0324724,0.0229734,643,771,-11.9808,-1.53576
-574,253,-12.0114,1.2804,0.0266928,-0.00243322,-0.00233333,0.0268785,-0.00261896,-0.0794366,0.0188527,0.0190932,650,771,-12.0113,-1.28041
-567,253,-12.0137,1.00281,0.0127417,-0.0011219,-9.99894e-06,0.0127417,-0.00112191,-0.000721234,0.00889209,0.0156925,657,771,-12.0137,-1.00282
-560,253,-11.9803,0.726074,0.00430523,-0.000647531,0.00154002,0.00474503,-0.00108733,0.278177,0.00358125,0.0126694,664,771,-11.9803,-0.726097
-553,253,-11.9899,0.42157,0.000147372,-0.000546923,0.0018833,0.00171525,-0.0021148,0.694257,0.00221529,0.0124322,671,771,-11.9898,-0.421589
-546,253,-12.0173,0.134155,-0.0026278,-0.00162094,0.002896,0.000815059,-0.0050638,0.871457,0.00367778,0.0105353,678,771,-12.0173,-0.134137
-539,253,-12.0165,-0.173096,-0.00368744,-0.00287374,0.00366808,0.000409983,-0.00697116,0.840631,0.00478995,0.0109802,685,771,-12.0165,0.173107
-532,253,-12.0064,-0.459106,-0.00406794,-0.00369561,0.00429312,0.000415382,-0.00817893,0.807066,0.00559622,0.0145122,692,771,-12.0064,0.459101
-525,253,-12.0126,-0.790955,-0.00366331,-0.00436632,0.0052844,0.00128127,-0.0093109,0.752188,0.00667547,0.0119056,699,771,-12.0126,0.790979
-518,253,-12.0517,-1.09747,-0.00354353,-0.00450371,0.00570284,0.00169938,-0.00974663,0.743405,0.00713203,0.0163486,706,771,-12.0517,1.09748
-511,253,-12.1683,-1.31415,-0.00374229,-0.00431842,0.00565215,0.00162913,-0.00968985,0.759937,0.00706582,0.0405448,713,771,-12.1683,1.31413
-504,253,-12.1146,-1.37537,0,0,0,0,0,0,0,-1,720,771,-12.1146,1.37538
-497,253,-11.9651,-0.579895,-0.00173663,-0.00114554,0.00579002,0.00435647,-0.00723864,0.810898,0.00676303,0.0450914,727,771,-11.9651,0.579917
-490,253,-12.1832,-0.210938,-0.000439868,0.00137639,0.00542377,0.00596753,-0.00503101,0.868346,0.00635768,0.0443141,734,771,-12.1832,0.210954
-483,253,-12.7097,0.131592,0,0,0,0,0,0,0,-1,741,771,-12.7097,-0.131587
-476,253,-19.6596,2.16425,0.00354974,0.0106375,0.00342629,0.012023,0.00216427,1.18653,0.00740017,0.0465835,748,771,-19.6596,-2.16424
-469,253,-18.9949,2.27966,0.00643995,0.0181224,0.00166198,0.0183542,0.00620811,1.4322,0.0107801,0.0433205,755,771,-18.9949,-2.27967
-462,253,-19.6121,1.60974,0.00991286,0.0282982,-0.000754109,0.0283291,0.00988198,-1.52987,0.0166031,0.0455992,762,771,-19.6121,-1.60974
-455,253,-19.5978,1.54095,0.0148055,0.0423202,-0.00423157,0.0429563,0.0141694,-1.4216,0.0252749,0.0346575,769,771,-19.5979,-1.54097
-448,253,0,0,0,0,0,0,0,0,0,-1,776,771,0,0
-441,253,0,0,0,0,0,0,0,0,0,-1,783,771,0,0
-434,253,0,0,0,0,0,0,0,0,0,-1,790,771,0,0
-427,253,0,0,0,0,0,0,0,0,0,-1,797,771,0,0
-420,253,0,0,0,0,0,0,0,0,0,-1,804,771,0,0
-413,253,0,0,0,0,0,0,0,0,0,-1,811,771,0,0
-406,253,0,0,0,0,0,0,0,0,0,-1,818,771,0,0
-399,253,0,0,0,0,0,0,0,0,0,-1,825,771,0,0
-392,253,0,0,0,0,0,0,0,0,0,-1,832,771,0,0
-385,253,0,0,0,0,0,0,0,0,0,-1,839,771,0,0
-378,253,0,0,0,0,0,0,0,0,0,-1,846,771,0,0
-371,253,0,0,0,0,0,0,0,0,0,-1,853,771,0,0
-364,253,0,0,0,0,0,0,0,0,0,-1,860,771,0,0
-357,253,0,0,0,0,0,0,0,0,0,-1,867,771,0,0
-350,253,0,0,0,0,0,0,0,0,0,-1,874,771,0,0
-343,253,0,0,0,0,0,0,0,0,0,-1,881,771,0,0
-336,253,0,0,0,0,0,0,0,0,0,-1,888,771,0,0
-329,253,0,0,0,0,0,0,0,0,0,-1,895,771,0,0
-322,253,0,0,0,0,0,0,0,0,0,-1,902,771,0,0
-315,253,0,0,0,0,0,0,0,0,0,-1,909,771,0,0
-308,253,0,0,0,0,0,0,0,0,0,-1,916,771,0,0
-301,253,0,0,0,0,0,0,0,0,0,-1,923,771,0,0
-294,253,0,0,0,0,0,0,0,0,0,-1,930,771,0,0
-287,253,0,0,0,0,0,0,0,0,0,-1,937,771,0,0
-280,253,0,0,0,0,0,0,0,0,0,-1,944,771,0,0
-273,253,0,0,0,0,0,0,0,0,0,-1,951,771,0,0
-266,253,0,0,0,0,0,0,0,0,0,-1,958,771,0,0
-259,253,0,0,0,0,0,0,0,0,0,-1,965,771,0,0
-252,253,0,0,0,0,0,0,0,0,0,-1,972,771,0,0
-245,253,0,0,0,0,0,0,0,0,0,-1,979,771,0,0
-238,253,0,0,0,0,0,0,0,0,0,-1,986,771,0,0
-231,253,0,0,0,0,0,0,0,0,0,-1,993,771,0,0
-224,253,0,0,0,0,0,0,0,0,0,-1,1000,771,0,0
-217,253,0,0,0,0,0,0,0,0,0,-1,1007,771,0,0
-210,253,0,0,0,0,0,0,0,0,0,-1,1014,771,0,0
-203,253,0,0,0,0,0,0,0,0,0,-1,1021,771,0,0
-196,253,0,0,0,0,0,0,0,0,0,-1,1028,771,0,0
-189,253,0,0,0,0,0,0,0,0,0,-1,1035,771,0,0
-182,253,0,0,0,0,0,0,0,0,0,-1,1042,771,0,0
-175,253,0,0,0,0,0,0,0,0,0,-1,1049,771,0,0
-168,253,0,0,0,0,0,0,0,0,0,-1,1056,771,0,0
-161,253,0,0,0,0,0,0,0,0,0,-1,1063,771,0,0
-154,253,0,0,0,0,0,0,0,0,0,-1,1070,771,0,0
-147,253,0,0,0,0,0,0,0,0,0,-1,1077,771,0,0
-140,253,0,0,0,0,0,0,0,0,0,-1,1084,771,0,0
-133,253,0,0,0,0,0,0,0,0,0,-1,1091,771,0,0
-126,253,0,0,0,0,0,0,0,0,0,-1,1098,771,0,0
-119,253,0,0,0,0,0,0,0,0,0,-1,1105,771,0,0
-112,253,0,0,0,0,0,0,0,0,0,-1,1112,771,0,0
-105,253,0,0,0,0,0,0,0,0,0,-1,1119,771,0,0
-98,253,0,0,0,0,0,0,0,0,0,-1,1126,771,0,0
-91,253,0,0,0,0,0,0,0,0,0,-1,1133,771,0,0
-84,253,0,0,0,0,0,0,0,0,0,-1,1140,771,0,0
-77,253,0,0,0,0,0,0,0,0,0,-1,1147,771,0,0
-70,253,0,0,0,0,0,0,0,0,0,-1,1154,771,0,0
-63,253,0,0,0,0,0,0,0,0,0,-1,1161,771,0,0
-56,253,0,0,0,0,0,0,0,0,0,-1,1168,771,0,0
-49,253,0,0,0,0,0,0,0,0,0,-1,1175,771,0,0
-42,253,0,0,0,0,0,0,0,0,0,-1,1182,771,0,0
-35,253,0,0,0,0,0,0,0,0,0,-1,1189,771,0,0
-28,253,0,0,0,0,0,0,0,0,0,-1,1196,771,0,0
-21,253,0,0,0,0,0,0,0,0,0,-1,1203,771,0,0
-14,253,0,0,0,0,0,0,0,0,0,-1,1210,771,0,0
-7,253,0,0,0,0,0,0,0,0,0,-1,1217,771,0,0
0,253,0,0,0,0,0,0,0,0,0,-1,1224,771,0,0
7,253,0,0,0,0,0,0,0,0,0,-1,1231,771,0,0
14,253,0,0,0,0,0,0,0,0,0,-1,1238,771,0,0
21,253,0,0,0,0,0,0,0,0,0,-1,1245,771,0,0
28,253,0,0,0,0,0,0,0,0,0,-1,1252,771,0,0
35,253,0,0,0,0,0,0,0,0,0,-1,1259,771,0,0
42,253,0,0,0,0,0,0,0,0,0,-1,1266,771,0,0
49,253,0,0,0,0,0,0,0,0,0,-1,1273,771,0,0
56,253,0,0,0,0,0,0,0,0,0,-1,1280,771,0,0
63,253,0,0,0,0,0,0,0,0,0,-1,1287,771,0,0
70,253,0,0,0,0,0,0,0,0,0,-1,1294,771,0,0
77,253,0,0,0,0,0,0,0,0,0,-1,1301,771,0,0
84,253,0,0,0,0,0,0,0,0,0,-1,1308,771,0,0
91,253,0,0,0,0,0,0,0,0,0,-1,1315,771,0,0
98,253,0,0,0,0,0,0,0,0,0,-1,1322,771,0,0
105,253,0,0,0,0,0,0,0,0,0,-1,1329,771,0,0
112,253,0,0,0,0,0,0,0,0,0,-1,1336,771,0,0
119,253,0,0,0,0,0,0,0,0,0,-1,1343,771,0,0
126,253,0,0,0,0,0,0,0,0,0,-1,1350,771,0,0
133,253,0,0,0,0,0,0,0,0,0,-1,1357,771,0,0
140,253,0,0,0,0,0,0,0,0,0,-1,1364,771,0,0
147,253,0,0,0,0,0,0,0,0,0,-1,1371,771,0,0
154,253,0,0,0,0,0,0,0,0,0,-1,1378,771,0,0
161,253,0,0,0,0,0,0,0,0,0,-1,1385,771,0,0
168,253,0,0,0,0,0,0,0,0,0,-1,1392,771,0,0
175,253,0,0,0,0,0,0,0,0,0,-1,1399,771,0,0
182,253,0,0,0,0,0,0,0,0,0,-1,1406,771,0,0
189,253,0,0,0,0,0,0,0,0,0,-1,1413,771,0,0
196,253,0,0,0,0,0,0,0,0,0,-1,1420,771,0,0
203,253,0,0,0,0,0,0,0,0,0,-1,1427,771,0,0
210,253,0,0,0,0,0,0,0,0,0,-1,1434,771,0,0
217,253,0,0,0,0,0,0,0,0,0,-1,1441,771,0,0
224,253,0,0,0,0,0,0,0,0,0,-1,1448,771,0,0
231,253,0,0,0,0,0,0,0,0,0,-1,1455,771,0,0
238,253,0,0,0,0,0,0,0,0,0,-1,1462,771,0,0
245,253,0,0,0,0,0,0,0,0,0,-1,1469,771,0,0
252,253,0,0,0,0,0,0,0,0,0,-1,1476,771,0,0
259,253,0,0,0,0,0,0,0,0,0,-1,1483,771,0,0
266,253,0,0,0,0,0,0,0,0,0,-1,1490,771,0,0
273,253,0,0,0,0,0,0,0,0,0,-1,1497,771,0,0
280,253,0,0,0,0,0,0,0,0,0,-1,1504,771,0,0
287,253,0,0,0,0,0,0,0,0,0,-1,1511,771,0,0
294,253,0,0,0,0,0,0,0,0,0,-1,1518,771,0,0
301,253,0,0,0,0,0,0,0,0,0,-1,1525,771,0,0
308,253,0,0,0,0,0,0,0,0,0,-1,1532,771,0,0
315,253,0,0,0,0,0,0,0,0,0,-1,1539,771,0,0
322,253,0,0,0,0,0,0,0,0,0,-1,1546,771,0,0
329,253,0,0,0,0,0,0,0,0,0,-1,1553,771,0,0
336,253,0,0,0,0,0,0,0,0,0,-1,1560,771,0,0
343,253,0,0,0,0,0,0,0,0,0,-1,1567,771,0,0
350,253,0,0,0,0,0,0,0,0,0,-1,1574,771,0,0
357,253,0,0,0,0,0,0,0,0,0,-1,1581,771,0,0
364,253,0,0,0,0,0,0,0,0,0,-1,1588,771,0,0
371,253,0,0,0,0,0,0,0,0,0,-1,1595,771,0,0
378,253,0,0,0,0,0,0,0,0,0,-1,1602,771,0,0
385,253,0,0,0,0,0,0,0,0,0,-1,1609,771,0,0
392,253,0,0,0,0,0,0,0,0,0,-1,1616,771,0,0
399,253,0,0,0,0,0,0,0,0,0,-1,1623,771,0,0
406,253,0,0,0,0,0,0,0,0,0,-1,1630,771,0,0
413,253,0,0,0,0,0,0,0,0,0,-1,1637,771,0,0
420,253,0,0,0,0,0,0,0,0,0,-1,1644,771,0,0
427,253,0,0,0,0,0,0,0,0,0,-1,1651,771,0,0
434,253,0,0,0,0,0,0,0,0,0,-1,1658,771,0,0
441,253,0,0,0,0,0,0,0,0,0,-1,1665,771,0,0
448,253,0,0,0,0,0,0,0,0,0,-1,1672,771,0,0
455,253,0,0,0,0,0,0,0,0,0,-1,1679,771,0,0
462,253,0,0,0,0,0,0,0,0,0,-1,1686,771,0,0
469,253,0,0,0,0,0,0,0,0,0,-1,1693,771,0,0
476,253,0,0,0,0,0,0,0,0,0,-1,1700,771,0,0
483,253,0,0,0,0,0,0,0,0,0,-1,1707,771,0,0
490,253,0,0,0,0,0,0,0,0,0,-1,1714,771,0,0
497,253,0,0,0,0,0,0,0,0,0,-1,1721,771,0,0
504,253,0,0,0,0,0,0,0,0,0,-1,1728,771,0,0
511,253,0,0,0,0,0,0,0,0,0,-1,1735,771,0,0
518,253,0,0,0,0,0,0,0,0,0,-1,1742,771,0,0
525,253,0,0,0,0,0,0,0,0,0,-1,1749,771,0,0
532,253,0,0,0,0,0,0,0,0,0,-1,1756,771,0,0
539,253,0,0,0,0,0,0,0,0,0,-1,1763,771,0,0
546,253,0,0,0,0,0,0,0,0,0,-1,1770,771,0,0
553,253,0,0,0,0,0,0,0,0,0,-1,1777,771,0,0
560,253,0,0,0,0,0,0,0,0,0,-1,1784,771,0,0
567,253,0,0,0,0,0,0,0,0,0,-1,1791,771,0,0
574,253,27.5938,3.38422,-0.0111063,0.0371234,-0.0120274,0.0399564,-0.0139393,-1.33947,0.0323026,0.0358577,1798,771,27.5937,-3.3842
581,253,27.6316,3.44464,-0.00772899,0.0300563,-0.0139522,0.0346497,-0.0123224,-1.25275,0.0281221,0.0399138,1805,771,27.6316,-3.44466
588,253,27.6865,3.5625,-0.00596072,0.0241886,-0.0147125,0.0301783,-0.0119503,-1.18418,0.0250704,0.0444066,1812,771,27.6866,-3.56249
595,253,27.8711,3.58844,-0.00497904,0.0191637,-0.0141119,0.0256629,-0.0114782,-1.13921,0.0219585,0.0452774,1819,771,27.8711,-3.58847
602,253,27.9858,3.49884,0,0,0,0,0,0,0,-1,1826,771,27.9858,-3.49884
609,253,26.272,2.71124,0,0,0,0,0,0,0,-1,1833,771,26.272,-2.71126
616,253,26.4899,2.62305,0,0,0,0,0,0,0,-1,1840,771,26.4899,-2.62302
623,253,26.8746,2.61438,0,0,0,0,0,0,0,-1,1847,771,26.8746,-2.61438
630,253,26.719,2.90491,0,0,0,0,0,0,0,-1,1854,771,26.719,-2.90489
637,253,19.2095,0.727173,0,0,0,0,0,0,0,-1,1861,771,19.2094,-0.727194
644,253,19.2061,0.962158,-0.00295088,0.00084626,-0.00567064,0.00492772,-0.00703233,-0.946936,0.00694068,0.0465109,1868,771,19.206,-0.962177
651,253,19.21,1.19611,-0.00333714,0.000189549,-0.00472097,0.00346574,-0.00661333,-0.964132,0.00591299,0.0235964,1875,771,19.21,-1.19613
658,253,19.2216,1.5271,-0.00269284,-4.36183e-05,-0.00421742,0.00305231,-0.00578878,-0.93756,0.00518527,0.0192988,1882,771,19.2215,-1.52712
665,253,19.1284,1.84723,-0.00177304,-4.49806e-05,-0.00337341,0.00257329,-0.00439132,-0.910768,0.00406643,0.0207011,1889,771,19.1284,-1.84721
672,253,19.1396,2.16168,-0.0012248,-0.000109046,-0.00249778,0.0018924,-0.00322624,-0.895269,0.0029885,0.0157434,1896,771,19.1397,-2.16168
679,253,19.2025,2.50806,-0.00078332,6.84658e-05,-0.00161896,0.00131661,-0.00203147,-0.914017,0.00194765,0.0133051,1903,771,19.2025,-2.50805
686,253,19.1761,2.8252,2.01607e-05,0.00055301,-0.000740118,0.0010732,-0.000500025,-0.958165,0.000928176,0.0185007,1910,771,19.1761,-2.82522
693,253,19.1422,3.14398,0.000939128,0.0011857,-0.000236574,0.00132919,0.000795644,-1.02561,0.000772364,0.0185965,1917,771,19.1422,-3.14396
700,253,19.1501,3.44531,0.00164258,0.00168266,0.000201573,0.00186519,0.00146005,0.834948,0.00113283,0.015757,1924,771,19.1502,-3.44532
707,253,19.1583,3.7514,0.00228914,0.00219431,0.000562493,0.00280622,0.00167724,0.743351,0.00163044,0.0146286,1931,771,19.1583,-3.75141
714,253,19.1499,4.05536,0.00298362,0.00222573,0.000756379,0.00345067,0.00175868,0.553174,0.00199237,0.0191649,1938,771,19.1498,-4.05538
721,253,19.1515,4.34332,0.00365724,0.00184565,0.000905802,0.00403244,0.00147045,0.3927,0.00235639,0.0325411,1945,771,19.1515,-4.34331
728,253,19.2102,4.66333,0.00464143,0.00101799,0.00123901,0.00502459,0.000634831,0.299915,0.00315945,0.0460502,1952,771,19.2101,-4.6633
735,253,19.3309,5.04218,0,0,0,0,0,0,0,-1,1959,771,19.3309,-5.04217
742,253,19.6271,5.6355,0,0,0,0,0,0,0,-1,1966,771,19.6271,-5.63548
749,253,21.9449,7.89307,0,0,0,0,0,0,0,-1,1973,771,21.945,-7.89304
756,253,0,0,0,0,0,0,0,0,0,-1,1980,771,0,0
763,253,0,0,0,0,0,0,0,0,0,-1,1987,771,0,0
770,253,0,0,0,0,0,0,0,0,0,-1,1994,771,0,0
777,253,0,0,0,0,0,0,0,0,0,-1,2001,771,0,0
784,253,0,0,0,0,0,0,0,0,0,-1,2008,771,0,0
791,253,0,0,0,0,0,0,0,0,0,-1,2015,771,0,0
798,253,0,0,0,0,0,0,0,0,0,-1,2022,771,0,0
805,253,0,0,0,0,0,0,0,0,0,-1,2029,771,0,0
812,253,0,0,0,0,0,0,0,0,0,-1,2036,771,0,0
-700,246,0,0,0,0,0,0,0,0,0,-1,524,778,0,0
-693,246,0,0,0,0,0,0,0,0,0,-1,531,778,0,0
-686,246,0,0,0,0,0,0,0,0,0,-1,538,778,0,0
-679,246,0,0,0,0,0,0,0,0,0,-1,545,778,0,0
-672,246,0,0,0,0,0,0,0,0,0,-1,552,778,0,0
-665,246,0,0,0,0,0,0,0,0,0,-1,559,778,0,0
-658,246,0,0,0,0,0,0,0,0,0,-1,566,778,0,0
-651,246,0,0,0,0,0,0,0,0,0,-1,573,778,0,0
-644,246,0,0,0,0,0,0,0,0,0,-1,580,778,0,0
-637,246,-13.9846,5.15112,0,0,0,0,0,0,0,-1,587,778,-13.9846,-5.15114
-630,246,-13.3455,4.49945,0,0,0,0,0,0,0,-1,594,778,-13.3455,-4.49945
-623,246,-15.9727,6.82251,0,0,0,0,0,0,0,-1,601,778,-15.9727,-6.8225
-616,246,-14.518,5.09174,0,0,0,0,0,0,0,-1,608,778,-14.518,-5.09175
-609,246,-13.2889,4.10474,0,0,0,0,0,0,0,-1,615,778,-13.2889,-4.10474
-602,246,-12.0399,3.09998,0,0,0,0,0,0,0,-1,622,778,-12.0399,-3.09996
-595,246,-12.1631,2.59052,0.0866013,-0.0043085,-0.00887074,0.0874588,-0.00516599,-0.0963662,0.0601019,0.0455671,629,778,-12.1631,-2.59049
-588,246,-12.2789,1.87036,0.0605001,-0.00263517,-0.00617113,0.0610977,-0.00323271,-0.0965272,0.041851,0.0306927,636,778,-12.2789,-1.87037
-581,246,-12.3132,1.56165,0.0401174,-0.00139934,-0.00393446,0.040487,-0.00176891,-0.093657,0.0275999,0.0163283,643,778,-12.3133,-1.56164
-574,246,-12.2906,1.26038,0.0230334,-0.000765887,-0.00285769,0.0233717,-0.00110421,-0.117843,0.0159619,0.0175271,650,778,-12.2906,-1.2604
-567,246,-12.3013,0.997559,0.0108246,-0.00025096,-0.000492219,0.0108465,-0.000272792,-0.0443253,0.0073236,0.0163741,657,778,-12.3013,-0.997589
-560,246,-12.2917,0.721313,0.00352334,-0.000203872,0.0011184,0.00383317,-0.000513705,0.270256,0.00274277,0.013449,664,778,-12.2918,-0.721322
-553,246,-12.2706,0.434692,1.90001e-05,-0.000299413,0.00169577,0.00156302,-0.00184343,0.738593,0.00196894,0.0135287,671,778,-12.2706,-0.434664
-546,246,-12.2957,0.154297,-0.00247784,-0.00139767,0.00278386,0.00089801,-0.00477352,0.881211,0.00352007,0.0108342,678,778,-12.2957,-0.154325
-539,246,-12.3094,-0.162537,-0.00357709,-0.00247663,0.00355583,0.000571291,-0.00662502,0.86216,0.0046189,0.00990339,685,778,-12.3094,0.162536
-532,246,-12.3167,-0.477966,-0.00383803,-0.00304982,0.00411956,0.000694448,-0.0075823,0.833086,0.00530153,0.0112163,692,778,-12.3166,0.477969
-525,246,-12.3253,-0.769897,-0.00333499,-0.00344592,0.00497555,0.00158541,-0.00836632,0.779825,0.00617424,0.0122498,699,778,-12.3253,0.769886
-518,246,-12.3851,-1.00439,-0.0030797,-0.00338376,0.00531411,0.00208455,-0.00854802,0.771098,0.00650582,0.0202588,706,778,-12.3851,1.0044
-511,246,-12.6933,-0.940674,-0.00307045,-0.00310249,0.00520981,0.00212337,-0.00829631,0.783861,0.00635797,0.0458478,713,778,-12.6933,0.940681
-504,246,-12.995,-0.920959,0,0,0,0,0,0,0,-1,720,778,-12.995,0.920948
-497,246,-11.9459,-0.482788,0,0,0,0,0,0,0,-1,727,778,-11.9459,0.482793
-490,246,-12.1969,-0.162048,0,0,0,0,0,0,0,-1,734,778,-12.1969,0.162036
-483,246,-20.2684,1.82208,0.00247232,0.00574998,0.00352135,0.00799518,0.000227121,1.00319,0.00525605,0.0476656,741,778,-20.2684,-1.82207
-476,246,-19.7658,1.97766,0.00499102,0.010957,0.00186242,0.0114907,0.00445736,1.29173,0.00668947,0.0445137,748,778,-19.7658,-1.97768
-469,246,-19.4243,1.84564,0.00806445,0.0182165,-0.000493458,0.0182404,0.00804052,-1.52234,0.0105557,0.0413127,755,778,-19.4243,-1.84566
-462,246,-19.4717,1.66205,0.011486,0.0282971,-0.00369833,0.0290747,0.0107083,-1.36355,0.0169793,0.0459854,762,778,-19.4717,-1.66205
-455,246,0,0,0,0,0,0,0,0,0,-1,769,778,0,0
-448,246,0,0,0,0,0,0,0,0,0,-1,776,778,0,0
-441,246,0,0,0,0,0,0,0,0,0,-1,783,778,0,0
-434,246,0,0,0,0,0,0,0,0,0,-1,790,778,0,0
-427,246,0,0,0,0,0,0,0,0,0,-1,797,778,0,0
-420,246,0,0,0,0,0,0,0,0,0,-1,804,778,0,0
-413,246,0,0,0,0,0,0,0,0,0,-1,811,778,0,0
-406,246,0,0,0,0,0,0,0,0,0,-1,818,778,0,0
-399,246,0,0,0,0,0,0,0,0,0,-1,825,778,0,0
-392,246,0,0,0,0,0,0,0,0,0,-1,832,778,0,0
-385,246,0,0,0,0,0,0,0,0,0,-1,839,778,0,0
-378,246,0,0,0,0,0,0,0,0,0,-1,846,778,0,0
-371,246,0,0,0,0,0,0,0,0,0,-1,853,778,0,0
-364,246,0,0,0,0,0,0,0,0,0,-1,860,778,0,0
-357,246,0,0,0,0,0,0,0,0,0,-1,867,778,0,0
-350,246,0,0,0,0,0,0,0,0,0,-1,874,778,0,0
-343,246,0,0,0,0,0,0,0,0,0,-1,881,778,0,0
-336,246,0,0,0,0,0,0,0,0,0,-1,888,778,0,0
-329,246,0,0,0,0,0,0,0,0,0,-1,895,778,0,0
-322,246,0,0,0,0,0,0,0,0,0,-1,902,778,0,0
-315,246,0,0,0,0,0,0,0,0,0,-1,909,778,0,0
-308,246,0,0,0,0,0,0,0,0,0,-1,916,778,0,0
-301,246,0,0,0,0,0,0,0,0,0,-1,923,778,0,0
-294,246,0,0,0,0,0,0,0,0,0,-1,930,778,0,0
-287,246,0,0,0,0,0,0,0,0,0,-1,937,778,0,0
-280,246,0,0,0,0,0,0,0,0,0,-1,944,778,0,0
-273,246,0,0,0,0,0,0,0,0,0,-1,951,778,0,0
-266,246,0,0,0,0,0,0,0,0,0,-1,958,778,0,0
-259,246,0,0,0,0,0,0,0,0,0,-1,965,778,0,0
-252,246,0,0,0,0,0,0,0,0,0,-1,972,778,0,0
-245,246,0,0,0,0,0,0,0,0,0,-1,979,778,0,0
-238,246,0,0,0,0,0,0,0,0,0,-1,986,778,0,0
-231,246,0,0,0,0,0,0,0,0,0,-1,993,778,0,0
-224,246,0,0,0,0,0,0,0,0,0,-1,1000,778,0,0
-217,246,0,0,0,0,0,0,0,0,0,-1,1007,778,0,0
-210,246,0,0,0,0,0,0,0,0,0,-1,1014,778,0,0
-203,246,0,0,0,0,0,0,0,0,0,-1,1021,778,0,0
-196,246,0,0,0,0,0,0,0,0,0,-1,1028,778,0,0
-189,246,0,0,0,0,0,0,0,0,0,-1,1035,778,0,0
-182,246,0,0,0,0,0,0,0,0,0,-1,1042,778,0,0
-175,246,0,0,0,0,0,0,0,0,0,-1,1049,778,0,0
-168,246,0,0,0,0,0,0,0,0,0,-1,1056,778,0,0
-161,246,0,0,0,0,0,0,0,0,0,-1,1063,778,0,0
-154,246,0,0,0,0,0,0,0,0,0,-1,1070,778,0,0
-147,246,0,0,0,0,0,0,0,0,0,-1,1077,778,0,0
-140,246,0,0,0,0,0,0,0,0,0,-1,1084,778,0,0
-133,246,0,0,0,0,0,0,0,0,0,-1,1091,778,0,0
-126,246,0,0,0,0,0,0,0,0,0,-1,1098,778,0,0
-119,246,0,0,0,0,0,0,0,0,0,-1,1105,778,0,0
-112,246,0,0,0,0,0,0,0,0,0,-1,1112,778,0,0
-105,246,0,0,0,0,0,0,0,0,0,-1,1119,778,0,0
-98,246,0,0,0,0,0,0,0,0,0,-1,1126,778,0,0
-91,246,0,0,0,0,0,0,0,0,0,-1,1133,778,0,0
-84,246,0,0,0,0,0,0,0,0,0,-1,1140,778,0,0
-77,246,0,0,0,0,0,0,0,0,0,-1,1147,778,0,0
-70,246,0,0,0,0,0,0,0,0,0,-1,1154,778,0,0
-63,246,0,0,0,0,0,0,0,0,0,-1,1161,778,0,0
-56,246,0,0,0,0,0,0,0,0,0,-1,1168,778,0,0
-49,246,0,0,0,0,0,0,0,0,0,-1,1175,778,0,0
-42,246,0,0,0,0,0,0,0,0,0,-1,1182,778,0,0
-35,246,0,0,0,0,0,0,0,0,0,-1,1189,778,0,0
-28,246,0,0,0,0,0,0,0,0,0,-1,1196,778,0,0
-21,246,0,0,0,0,0,0,0,0,0,-1,1203,778,0,0
-14,246,0,0,0,0,0,0,0,0,0,-1,1210,778,0,0
-7,246,0,0,0,0,0,0,0,0,0,-1,1217,778,0,0
0,246,0,0,0,0,0,0,0,0,0,-1,1224,778,0,0
7,246,0,0,0,0,0,0,0,0,0,-1,1231,778,0,0
14,246,0,0,0,0,0,0,0,0,0,-1,1238,778,0,0
21,246,0,0,0,0,0,0,0,0,0,-1,1245,778,0,0
28,246,0,0,0,0,0,0,0,0,0,-1,1252,778,0,0
35,246,0,0,0,0,0,0,0,0,0,-1,1259,778,0,0
42,246,0,0,0,0,0,0,0,0,0,-1,1266,778,0,0
49,246,0,0,0,0,0,0,0,0,0,-1,1273,778,0,0
56,246,0,0,0,0,0,0,0,0,0,-1,1280,778,0,0
63,246,0,0,0,0,0,0,0,0,0,-1,1287,778,0,0
70,246,0,0,0,0,0,0,0,0,0,-1,1294,778,0,0
77,246,0,0,0,0,0,0,0,0,0,-1,1301,778,0,0
84,246,0,0,0,0,0,0,0,0,0,-1,1308,778,0,0
91,246,0,0,0,0,0,0,0,0,0,-1,1315,778,0,0
98,246,0,0,0,0,0,0,0,0,0,-1,1322,778,0,0
105,246,0,0,0,0,0,0,0,0,0,-1,1329,778,0,0
112,246,0,0,0,0,0,0,0,0,0,-1,1336,778,0,0
119,246,0,0,0,0,0,0,0,0,0,-1,1343,778,0,0
126,246,0,0,0,0,0,0,0,0,0,-1,1350,778,0,0
133,246,0,0,0,0,0,0,0,0,0,-1,1357,778,0,0
140,246,0,0,0,0,0,0,0,0,0,-1,1364,778,0,0
147,246,0,0,0,0,0,0,0,0,0,-1,1371,778,0,0
154,246,0,0,0,0,0,0,0,0,0,-1,1378,778,0,0
161,246,0,0,0,0,0,0,0,0,0,-1,1385,778,0,0
168,246,0,0,0,0,0,0,0,0,0,-1,1392,778,0,0
175,246,0,0,0,0,0,0,0,0,0,-1,1399,778,0,0
182,246,0,0,0,0,0,0,0,0,0,-1,1406,778,0,0
189,246,0,0,0,0,0,0,0,0,0,-1,1413,778,0,0
196,246,0,0,0,0,0,0,0,0,0,-1,1420,778,0,0
203,246,0,0,0,0,0,0,0,0,0,-1,1427,778,0,0
210,246,0,0,0,0,0,0,0,0,0,-1,1434,778,0,0
217,246,0,0,0,0,0,0,0,0,0,-1,1441,778,0,0
224,246,0,0,0,0,0,0,0,0,0,-1,1448,778,0,0
231,246,0,0,0,0,0,0,0,0,0,-1,1455,778,0,0
238,246,0,0,0,0,0,0,0,0,0,-1,1462,778,0,0
245,246,0,0,0,0,0,0,0,0,0,-1,1469,778,0,0
252,246,0,0,0,0,0,0,0,0,0,-1,1476,778,0,0
259,246,0,0,0,0,0,0,0,0,0,-1,1483,778,0,0
266,246,0,0,0,0,0,0,0,0,0,-1,1490,778,0,0
273,246,0,0,0,0,0,0,0,0,0,-1,1497,778,0,0
280,246,0,0,0,0,0,0,0,0,0,-1,1504,778,0,0
287,246,0,0,0,0,0,0,0,0,0,-1,1511,778,0,0
294,246,0,0,0,0,0,0,0,0,0,-1,1518,778,0,0
301,246,0,0,0,0,0,0,0,0,0,-1,1525,778,0,0
308,246,0,0,0,0,0,0,0,0,0,-1,1532,778,0,0
315,246,0,0,0,0,0,0,0,0,0,-1,1539,778,0,0
322,246,0,0,0,0,0,0,0,0,0,-1,1546,778,0,0
329,246,0,0,0,0,0,0,0,0,0,-1,1553,778,0,0
336,246,0,0,0,0,0,0,0,0,0,-1,1560,778,0,0
343,246,0,0,0,0,0,0,0,0,0,-1,1567,778,0,0
350,246,0,0,0,0,0,0,0,0,0,-1,1574,778,0,0
357,246,0,0,0,0,0,0,0,0,0,-1,1581,778,0,0
364,246,0,0,0,0,0,0,0,0,0,-1,1588,778,0,0
371,246,0,0,0,0,0,0,0,0,0,-1,1595,778,0,0
378,246,0,0,0,0,0,0,0,0,0,-1,1602,778,0,0
385,246,0,0,0,0,0,0,0,0,0,-1,1609,778,0,0
392,246,0,0,0,0,0,0,0,0,0,-1,1616,778,0,0
399,246,0,0,0,0,0,0,0,0,0,-1,1623,778,0,0
406,246,0,0,0,0,0,0,0,0,0,-1,1630,778,0,0
413,246,0,0,0,0,0,0,0,0,0,-1,1637,778,0,0
420,246,0,0,0,0,0,0,0,0,0,-1,1644,778,0,0
427,246,0,0,0,0,0,0,0,0,0,-1,1651,778,0,0
434,246,0,0,0,0,0,0,0,0,0,-1,1658,778,0,0
441,246,0,0,0,0,0,0,0,0,0,-1,1665,778,0,0
448,246,0,0,0,0,0,0,0,0,0,-1,1672,778,0,0
455,246,0,0,0,0,0,0,0,0,0,-1,1679,778,0,0
462,246,0,0,0,0,0,0,0,0,0,-1,1686,778,0,0
469,246,0,0,0,0,0,0,0,0,0,-1,1693,778,0,0
476,246,0,0,0,0,0,0,0,0,0,-1,1700,778,0,0
483,246,0,0,0,0,0,0,0,0,0,-1,1707,778,0,0
490,246,0,0,0,0,0,0,0,0,0,-1,1714,778,0,0
497,246,0,0,0,0,0,0,0,0,0,-1,1721,778,0,0
504,246,0,0,0,0,0,0,0,0,0,-1,1728,778,0,0
511,246,0,0,0,0,0,0,0,0,0,-1,1735,778,0,0
518,246,0,0,0,0,0,0,0,0,0,-1,1742,778,0,0
525,246,0,0,0,0,0,0,0,0,0,-1,1749,778,0,0
532,246,0,0,0,0,0,0,0,0,0,-1,1756,778,0,0
539,246,0,0,0,0,0,0,0,0,0,-1,1763,778,0,0
546,246,0,0,0,0,0,0,0,0,0,-1,1770,778,0,0
553,246,0,0,0,0,0,0,0,0,0,-1,1777,778,0,0
560,246,0,0,0,0,0,0,0,0,0,-1,1784,778,0,0
567,246,0,0,0,0,0,0,0,0,0,-1,1791,778,0,0
574,246,0,0,0,0,0,0,0,0,0,-1,1798,778,0,0
581,246,27.5148,3.71759,-0.0060463,0.0247469,-0.00953675,0.0274612,-0.00876061,-1.29351,0.0218219,0.041588,1805,778,27.5148,-3.71762
588,246,27.6204,3.48871,-0.00440707,0.0201007,-0.0114759,0.0246353,-0.00894167,-1.19448,0.0200791,0.0438219,1812,778,27.6204,-3.48868
595,246,27.7596,3.53564,-0.0037559,0.0161789,-0.0118464,0.0216933,-0.0092703,-1.13513,0.0183502,0.039092,1819,778,27.7597,-3.53566
602,246,27.2463,3.68939,0,0,0,0,0,0,0,-1,1826,778,27.2463,-3.68941
609,246,26.921,3.52478,-0.0033416,0.00973746,-0.0105693,0.0156268,-0.0092309,-1.06244,0.0145091,0.048557,1833,778,26.9211,-3.52478
616,246,26.5967,3.35229,0,0,0,0,0,0,0,-1,1840,778,26.5967,-3.35228
623,246,26.8639,3.19067,0,0,0,0,0,0,0,-1,1847,778,26.8639,-3.19068
630,246,27.1274,3.72943,0,0,0,0,0,0,0,-1,1854,778,27.1274,-3.72941
637,246,26.3402,1.97174,0,0,0,0,0,0,0,-1,1861,778,26.3402,-1.97177
644,246,19.3684,0.969299,0,0,0,0,0,0,0,-1,1868,778,19.3684,-0.96928
651,246,19.4495,1.26312,-0.00364089,0.000233634,-0.00512895,0.00377899,-0.00718625,-0.965971,0.00643186,0.0351277,1875,778,19.4495,-1.2631
658,246,19.4985,1.58325,-0.00312772,-1.15112e-05,-0.00481472,0.00349094,-0.00663017,-0.941886,0.00593638,0.0213879,1882,778,19.4985,-1.58328
665,246,19.4692,1.87061,-0.00228315,-7.63875e-05,-0.00407987,0.00304667,-0.00540621,-0.917462,0.00494325,0.0200911,1889,778,19.4692,-1.87058
672,246,19.4969,2.19366,-0.00176524,-0.000274675,-0.00319824,0.00226397,-0.00430389,-0.89987,0.00385244,0.0198392,1896,778,19.497,-2.19367
679,246,19.5032,2.52673,-0.00135634,-0.000248764,-0.0022436,0.00150839,-0.00311349,-0.906395,0.00272155,0.0209367,1903,778,19.5032,-2.52672
686,246,19.515,2.85583,-0.000558971,7.6204e-05,-0.00129813,0.00109503,-0.00157779,-0.905367,0.00155152,0.0215581,1910,778,19.5151,-2.85585
693,246,19.5117,3.16241,0.000486252,0.000555923,-0.000714734,0.00123667,-0.000194495,-0.809748,0.00089634,0.0172083,1917,778,19.5117,-3.16242
700,246,19.5206,3.44696,0.00125061,0.000872886,-0.000191429,0.00133066,0.000792835,-0.396074,0.000772945,0.0138368,1924,778,19.5206,-3.44694
707,246,19.5227,3.74323,0.00185055,0.00120499,0.00017657,0.00189569,0.00115985,0.250279,0.00110357,0.0130966,1931,778,19.5228,-3.74324
714,246,19.469,4.08044,0.00259252,0.00126999,0.000378241,0.00269305,0.00116945,0.259787,0.00155931,0.0128161,1938,778,19.4689,-4.08045
721,246,19.4407,4.36377,0.0032262,0.000834675,0.000476672,0.00331771,0.000743167,0.189664,0.0020104,0.0181776,1945,778,19.4406,-4.36377
728,246,19.5515,4.77551,0.00421241,9.09649e-05,0.000719605,0.00433444,-3.1065e-05,0.167981,0.00290004,0.0378677,1952,778,19.5515,-4.77549
735,246,19.8118,5.26697,0,0,0,0,0,0,0,-1,1959,778,19.8118,-5.26696
742,246,20.8088,6.71283,0,0,0,0,0,0,0,-1,1966,778,20.8089,-6.71284
749,246,21.9369,7.98645,0,0,0,0,0,0,0,-1,1973,778,21.9369,-7.98648
756,246,22.9113,9.36029,0,0,0,0,0,0,0,-1,1980,778,22.9112,-9.3603
763,246,0,0,0,0,0,0,0,0,0,-1,1987,778,0,0
770,246,0,0,0,0,0,0,0,0,0,-1,1994,778,0,0
777,246,0,0,0,0,0,0,0,0,0,-1,2001,778,0,0
784,246,0,0,0,0,0,0,0,0,0,-1,2008,778,0,0
791,246,0,0,0,0,0,0,0,0,0,-1,2015,778,0,0
798,246,0,0,0,0,0,0,0,0,0,-1,2022,778,0,0
805,246,0,0,0,0,0,0,0,0,0,-1,2029,778,0,0
812,246,0,0,0,0,0,0,0,0,0,-1,2036,778,0,0
-700,239,0,0,0,0,0,0,0,0,0,-1,524,785,0,0
-693,239,0,0,0,0,0,0,0,0,0,-1,531,785,0,0
-686,239,0,0,0,0,0,0,0,0,0,-1,538,785,0,0
-679,239,0,0,0,0,0,0,0,0,0,-1,545,785,0,0
-672,239,0,0,0,0,0,0,0,0,0,-1,552,785,0,0
-665,239,0,0,0,0,0,0,0,0,0,-1,559,785,0,0
-658,239,0,0,0,0,0,0,0,0,0,-1,566,785,0,0
-651,239,0,0,0,0,0,0,0,0,0,-1,573,785,0,0
-644,239,0,0,0,0,0,0,0,0,0,-1,580,785,0,0
-637,239,-13.4119,4.37518,0,0,0,0,0,0,0,-1,587,785,-13.4119,-4.3752
-630,239,-17.1322,6.89728,0,0,0,0,0,0,0,-1,594,785,-17.1322,-6.89726
-623,239,-16.0962,6.10559,0.215139,0.000479777,-0.0225246,0.217477,-0.00185832,-0.103431,0.145608,0.0451539,601,785,-16.0962,-6.1056
-616,239,-14.9072,5.03156,0.172715,-0.00117554,-0.019529,0.174881,-0.00334177,-0.110473,0.117717,0.0460249,608,785,-14.9072,-5.03156
-609,239,-14.1324,4.03339,0,0,0,0,0,0,0,-1,615,785,-14.1324,-4.03341
-602,239,-12.377,2.67572,0,0,0,0,0,0,0,-1,622,785,-12.377,-2.67572
-595,239,-12.4403,2.31665,0.073543,-0.000322134,-0.00943096,0.0747281,-0.00150725,-0.125007,0.0503287,0.0414236,629,785,-12.4403,-2.31663
-588,239,-12.528,1.8974,0.0510856,0.000204842,-0.00663966,0.0519378,-0.000647325,-0.127647,0.034843,0.0187739,636,785,-12.528,-1.8974
-581,239,-12.6014,1.56818,0.033719,0.000517098,-0.00432494,0.0342731,-3.70257e-05,-0.127429,0.0228611,0.01049,643,785,-12.6014,-1.56815
-574,239,-12.5889,1.26379,0.0193032,0.000450003,-0.0029892,0.0197658,-1.25896e-05,-0.153536,0.0131814,0.0115314,650,785,-12.5888,-1.2638
-567,239,-12.6125,1.00073,0.00889422,0.00032957,-0.000716644,0.00895377,0.000270019,-0.0829064,0.00588124,0.0130612,657,785,-12.6125,-1.00073
-560,239,-12.6037,0.726563,0.00277522,8.60325e-05,0.000859151,0.00302627,-0.000165016,0.28429,0.0020747,0.0133377,664,785,-12.6037,-0.726569
-553,239,-12.5728,0.428345,-0.000142457,-6.92226e-05,0.0015937,0.00148828,-0.00169996,0.796884,0.00184208,0.0143782,671,785,-12.5728,-0.428362
-546,239,-12.6226,0.148743,-0.00239293,-0.00106978,0.00269441,0.00104308,-0.00450579,0.905784,0.00340523,0.0144494,678,785,-12.6226,-0.148718
-539,239,-12.627,-0.161682,-0.00349343,-0.00191951,0.00341895,0.000801877,-0.00621482,0.898516,0.00443473,0.0151412,685,785,-12.627,0.161675
-532,239,-12.6011,-0.47113,-0.00368758,-0.00224759,0.00390327,0.00100154,-0.00693671,0.876602,0.00499192,0.0129746,692,785,-12.6011,0.471146
-525,239,-12.6148,-0.733215,-0.00317554,-0.00238314,0.00461021,0.00184786,-0.00740654,0.828262,0.00565519,0.016139,699,785,-12.6148,0.733228
-518,239,-12.7023,-0.895874,-0.00286368,-0.0021421,0.00487736,0.00238779,-0.00739357,0.822317,0.00588863,0.0389999,706,785,-12.7023,0.895897
-511,239,-12.8228,-1.05225,-0.00270825,-0.00176471,0.00473806,0.00252501,-0.00699797,0.83502,0.00569667,0.0439678,713,785,-12.8228,1.05228
-504,239,-12.8527,-1.20593,0,0,0,0,0,0,0,-1,720,785,-12.8527,1.20595
-497,239,-11.9757,-0.425903,0,0,0,0,0,0,0,-1,727,785,-11.9757,0.425896
-490,239,-19.8723,1.34668,0.00128839,0.00315952,0.00362938,0.00597198,-0.00152407,0.91154,0.00457477,0.0439514,734,785,-19.8723,-1.34669
-483,239,-19.9875,1.6582,0.00351063,0.00655718,0.00231734,0.00780707,0.00226074,1.07616,0.00463856,0.0473019,741,785,-19.9875,-1.65822
-476,239,-19.7045,1.70221,0.00636934,0.0115631,0.000258439,0.011576,0.00635651,1.5212,0.00669413,0.041682,748,785,-19.7044,-1.70221
-469,239,-19.47,1.66895,0.0096579,0.0185983,-0.00258881,0.0192938,0.00896238,-1.30833,0.0111487,0.0427329,755,785,-19.47,-1.66896
-462,239,-19.3751,1.66119,0.0128564,0.0285094,-0.00635539,0.0307648,0.010601,-1.22978,0.0180459,0.0451975,762,785,-19.3751,-1.66117
-455,239,0,0,0,0,0,0,0,0,0,-1,769,785,0,0
-448,239,0,0,0,0,0,0,0,0,0,-1,776,785,0,0
-441,239,0,0,0,0,0,0,0,0,0,-1,783,785,0,0
-434,239,0,0,0,0,0,0,0,0,0,-1,790,785,0,0
-427,239,0,0,0,0,0,0,0,0,0,-1,797,785,0,0
-420,239,0,0,0,0,0,0,0,0,0,-1,804,785,0,0
-413,239,0,0,0,0,0,0,0,0,0,-1,811,785,0,0
-406,239,0,0,0,0,0,0,0,0,0,-1,818,785,0,0
-399,239,0,0,0,0,0,0,0,0,0,-1,825,785,0,0
-392,239,0,0,0,0,0,0,0,0,0,-1,832,785,0,0
-385,239,0,0,0,0,0,0,0,0,0,-1,839,785,0,0
-378,239,0,0,0,0,0,0,0,0,0,-1,846,785,0,0
-371,239,0,0,0,0,0,0,0,0,0,-1,853,785,0,0
-364,239,0,0,0,0,0,0,0,0,0,-1,860,785,0,0
-357,239,0,0,0,0,0,0,0,0,0,-1,867,785,0,0
-350,239,0,0,0,0,0,0,0,0,0,-1,874,785,0,0
-343,239,0,0,0,0,0,0,0,0,0,-1,881,785,0,0
-336,239,0,0,0,0,0,0,0,0,0,-1,888,785,0,0
-329,239,0,0,0,0,0,0,0,0,0,-1,895,785,0,0
-322,239,0,0,0,0,0,0,0,0,0,-1,902,785,0,0
-315,239,0,0,0,0,0,0,0,0,0,-1,909,785,0,0
-308,239,0,0,0,0,0,0,0,0,0,-1,916,785,0,0
-301,239,0,0,0,0,0,0,0,0,0,-1,923,785,0,0
-294,239,0,0,0,0,0,0,0,0,0,-1,930,785,0,0
-287,239,0,0,0,0,0,0,0,0,0,-1,937,785,0,0
-280,239,0,0,0,0,0,0,0,0,0,-1,944,785,0,0
-273,239,0,0,0,0,0,0,0,0,0,-1,951,785,0,0
-266,239,0,0,0,0,0,0,0,0,0,-1,958,785,0,0
-259,239,0,0,0,0,0,0,0,0,0,-1,965,785,0,0
-252,239,0,0,0,0,0,0,0,0,0,-1,972,785,0,0
-245,239,0,0,0,0,0,0,0,0,0,-1,979,785,0,0
-238,239,0,0,0,0,0,0,0,0,0,-1,986,785,0,0
-231,239,0,0,0,0,0,0,0,0,0,-1,993,785,0,0
-224,239,0,0,0,0,0,0,0,0,0,-1,1000,785,0,0
-217,239,0,0,0,0,0,0,0,0,0,-1,1007,785,0,0
-210,239,0,0,0,0,0,0,0,0,0,-1,1014,785,0,0
-203,239,0,0,0,0,0,0,0,0,0,-1,1021,785,0,0
-196,239,0,0,0,0,0,0,0,0,0,-1,1028,785,0,0
-189,239,0,0,0,0,0,0,0,0,0,-1,1035,785,0,0
-182,239,0,0,0,0,0,0,0,0,0,-1,1042,785,0,0
-175,239,0,0,0,0,0,0,0,0,0,-1,1049,785,0,0
-168,239,0,0,0,0,0,0,0,0,0,-1,1056,785,0,0
-161,239,0,0,0,0,0,0,0,0,0,-1,1063,785,0,0
-154,239,0,0,0,0,0,0,0,0,0,-1,1070,785,0,0
-147,239,0,0,0,0,0,0,0,0,0,-1,1077,785,0,0
-140,239,0,0,0,0,0,0,0,0,0,-1,1084,785,0,0
-133,239,0,0,0,0,0,0,0,0,0,-1,1091,785,0,0
-126,239,0,0,0,0,0,0,0,0,0,-1,1098,785,0,0
-119,239,0,0,0,0,0,0,0,0,0,-1,1105,785,0,0
-112,239,0,0,0,0,0,0,0,0,0,-1,1112,785,0,0
-105,239,0,0,0,0,0,0,0,0,0,-1,1119,785,0,0
-98,239,0,0,0,0,0,0,0,0,0,-1,1126,785,0,0
-91,239,0,0,0,0,0,0,0,0,0,-1,1133,785,0,0
-84,239,0,0,0,0,0,0,0,0,0,-1,1140,785,0,0
-77,239,0,0,0,0,0,0,0,0,0,-1,1147,785,0,0
-70,239,0,0,0,0,0,0,0,0,0,-1,1154,785,0,0
-63,239,0,0,0,0,0,0,0,0,0,-1,1161,785,0,0
-56,239,0,0,0,0,0,0,0,0,0,-1,1168,785,0,0
-49,239,0,0,0,0,0,0,0,0,0,-1,1175,785,0,0
-42,239,0,0,0,0,0,0,0,0,0,-1,1182,785,0,0
-35,239,0,0,0,0,0,0,0,0,0,-1,1189,785,0,0
-28,239,0,0,0,0,0,0,0,0,0,-1,1196,785,0,0
-21,239,0,0,0,0,0,0,0,0,0,-1,1203,785,0,0
-14,239,0,0,0,0,0,0,0,0,0,-1,1210,785,0,0
-7,239,0,0,0,0,0,0,0,0,0,-1,1217,785,0,0
0,239,0,0,0,0,0,0,0,0,0,-1,1224,785,0,0
7,239,0,0,0,0,0,0,0,0,0,-1,1231,785,0,0
14,239,0,0,0,0,0,0,0,0,0,-1,1238,785,0,0
21,239,0,0,0,0,0,0,0,0,0,-1,1245,785,0,0
28,239,0,0,0,0,0,0,0,0,0,-1,1252,785,0,0
35,239,0,0,0,0,0,0,0,0,0,-1,1259,785,0,0
42,239,0,0,0,0,0,0,0,0,0,-1,1266,785,0,0
49,239,0,0,0,0,0,0,0,0,0,-1,1273,785,0,0
56,239,0,0,0,0,0,0,0,0,0,-1,1280,785,0,0
63,239,0,0,0,0,0,0,0,0,0,-1,1287,785,0,0
70,239,0,0,0,0,0,0,0,0,0,-1,1294,785,0,0
77,239,0,0,0,0,0,0,0,0,0,-1,1301,785,0,0
84,239,0,0,0,0,0,0,0,0,0,-1,1308,785,0,0
91,239,0,0,0,0,0,0,0,0,0,-1,1315,785,0,0
98,239,0,0,0,0,0,0,0,0,0,-1,1322,785,0,0
105,239,0,0,0,0,0,0,0,0,0,-1,1329,785,0,0
112,239,0,0,0,0,0,0,0,0,0,-1,1336,785,0,0
119,239,0,0,0,0,0,0,0,0,0,-1,1343,785,0,0
126,239,0,0,0,0,0,0,0,0,0,-1,1350,785,0,0
133,239,0,0,0,0,0,0,0,0,0,-1,1357,785,0,0
140,239,0,0,0,0,0,0,0,0,0,-1,1364,785,0,0
147,239,0,0,0,0,0,0,0,0,0,-1,1371,785,0,0
154,239,0,0,0,0,0,0,0,0,0,-1,1378,785,0,0
161,239,0,0,0,0,0,0,0,0,0,-1,1385,785,0,0
168,239,0,0,0,0,0,0,0,0,0,-1,1392,785,0,0
175,239,0,0,0,0,0,0,0,0,0,-1,1399,785,0,0
182,239,0,0,0,0,0,0,0,0,0,-1,1406,785,0,0
189,239,0,0,0,0,0,0,0,0,0,-1,1413,785,0,0
196,239,0,0,0,0,0,0,0,0,0,-1,1420,785,0,0
203,239,0,0,0,0,0,0,0,0,0,-1,1427,785,0,0
210,239,0,0,0,0,0,0,0,0,0,-1,1434,785,0,0
217,239,0,0,0,0,0,0,0,0,0,-1,1441,785,0,0
224,239,0,0,0,0,0,0,0,0,0,-1,1448,785,0,0
231,239,0,0,0,0,0,0,0,0,0,-1,1455,785,0,0
238,239,0,0,0,0,0,0,0,0,0,-1,1462,785,0,0
245,239,0,0,0,0,0,0,0,0,0,-1,1469,785,0,0
252,239,0,0,0,0,0,0,0,0,0,-1,1476,785,0,0
259,239,0,0,0,0,0,0,0,0,0,-1,1483,785,0,0
266,239,0,0,0,0,0,0,0,0,0,-1,1490,785,0,0
273,239,0,0,0,0,0,0,0,0,0,-1,1497,785,0,0
280,239,0,0,0,0,0,0,0,0,0,-1,1504,785,0,0
287,239,0,0,0,0,0,0,0,0,0,-1,1511,785,0,0
294,239,0,0,0,0,0,0,0,0,0,-1,1518,785,0,0
301,239,0,0,0,0,0,0,0,0,0,-1,1525,785,0,0
308,239,0,0,0,0,0,0,0,0,0,-1,1532,785,0,0
315,239,0,0,0,0,0,0,0,0,0,-1,1539,785,0,0
322,239,0,0,0,0,0,0,0,0,0,-1,1546,785,0,0
329,239,0,0,0,0,0,0,0,0,0,-1,1553,785,0,0
336,239,0,0,0,0,0,0,0,0,0,-1,1560,785,0,0
343,239,0,0,0,0,0,0,0,0,0,-1,1567,785,0,0
350,239,0,0,0,0,0,0,0,0,0,-1,1574,785,0,0
357,239,0,0,0,0,0,0,0,0,0,-1,1581,785,0,0
364,239,0,0,0,0,0,0,0,0,0,-1,1588,785,0,0
371,239,0,0,0,0,0,0,0,0,0,-1,1595,785,0,0
378,239,0,0,0,0,0,0,0,0,0,-1,1602,785,0,0
385,239,0,0,0,0,0,0,0,0,0,-1,1609,785,0,0
392,239,0,0,0,0,0,0,0,0,0,-1,1616,785,0,0
399,239,0,0,0,0,0,0,0,0,0,-1,1623,785,0,0
406,239,0,0,0,0,0,0,0,0,0,-1,1630,785,0,0
413,239,0,0,0,0,0,0,0,0,0,-1,1637,785,0,0
420,239,0,0,0,0,0,0,0,0,0,-1,1644,785,0,0
427,239,0,0,0,0,0,0,0,0,0,-1,1651,785,0,0
434,239,0,0,0,0,0,0,0,0,0,-1,1658,785,0,0
441,239,0,0,0,0,0,0,0,0,0,-1,1665,785,0,0
448,239,0,0,0,0,0,0,0,0,0,-1,1672,785,0,0
455,239,0,0,0,0,0,0,0,0,0,-1,1679,785,0,0
462,239,0,0,0,0,0,0,0,0,0,-1,1686,785,0,0
469,239,0,0,0,0,0,0,0,0,0,-1,1693,785,0,0
476,239,0,0,0,0,0,0,0,0,0,-1,1700,785,0,0
483,239,0,0,0,0,0,0,0,0,0,-1,1707,785,0,0
490,239,0,0,0,0,0,0,0,0,0,-1,1714,785,0,0
497,239,0,0,0,0,0,0,0,0,0,-1,1721,785,0,0
504,239,0,0,0,0,0,0,0,0,0,-1,1728,785,0,0
511,239,0,0,0,0,0,0,0,0,0,-1,1735,785,0,0
518,239,0,0,0,0,0,0,0,0,0,-1,1742,785,0,0
525,239,0,0,0,0,0,0,0,0,0,-1,1749,785,0,0
532,239,0,0,0,0,0,0,0,0,0,-1,1756,785,0,0
539,239,0,0,0,0,0,0,0,0,0,-1,1763,785,0,0
546,239,0,0,0,0,0,0,0,0,0,-1,1770,785,0,0
553,239,0,0,0,0,0,0,0,0,0,-1,1777,785,0,0
560,239,0,0,0,0,0,0,0,0,0,-1,1784,785,0,0
567,239,0,0,0,0,0,0,0,0,0,-1,1791,785,0,0
574,239,0,0,0,0,0,0,0,0,0,-1,1798,785,0,0
581,239,27.5756,3.63409,-0.00557973,0.0189878,-0.00471645,0.0198621,-0.00645407,-1.3875,0.0158374,0.0373444,1805,785,27.5756,-3.63409
588,239,27.5751,3.57806,-0.00369943,0.0154617,-0.00758546,0.0181011,-0.00633878,-1.23595,0.014645,0.038111,1812,785,27.5751,-3.57805
595,239,27.6483,3.48718,-0.00303257,0.0127705,-0.00895602,0.0168124,-0.00707442,-1.14686,0.0141679,0.0351782,1819,785,27.6483,-3.4872
602,239,27.7621,3.45929,-0.00293195,0.0103362,-0.00928543,0.0151139,-0.00770972,-1.09558,0.0134064,0.0406476,1826,785,27.762,-3.4593
609,239,27.3062,3.85742,-0.00301758,0.00792869,-0.00912568,0.0130967,-0.00818556,-1.05552,0.0123959,0.0497833,1833,785,27.3061,-3.85742
616,239,26.6274,3.87671,0,0,0,0,0,0,0,-1,1840,785,26.6275,-3.87668
623,239,26.8457,3.76276,-0.00309265,0.00394054,-0.00793936,0.00910725,-0.00825936,-0.993878,0.0100306,0.0439323,1847,785,26.8457,-3.76278
630,239,27.2096,3.75812,-0.00305352,0.00229933,-0.00726729,0.00736737,-0.00812156,-0.961833,0.00894607,0.041905,1854,785,27.2096,-3.75809
637,239,27.6915,3.94421,0,0,0,0,0,0,0,-1,1861,785,27.6915,-3.94424
644,239,18.3466,0.735413,0,0,0,0,0,0,0,-1,1868,785,18.3465,-0.735414
651,239,19.6265,1.31659,0,0,0,0,0,0,0,-1,1875,785,19.6264,-1.3166
658,239,19.7686,1.6203,-0.00360441,-0.000127857,-0.00521767,0.00363347,-0.00736573,-0.946192,0.00647111,0.0213198,1882,785,19.7685,-1.62033
665,239,19.8528,1.90411,-0.00288612,-0.00017068,-0.0046501,0.00331586,-0.00637266,-0.927438,0.00568571,0.013542,1889,785,19.8528,-1.90411
672,239,19.8097,2.22815,-0.00245532,-0.000415233,-0.00384572,0.00254342,-0.00541397,-0.915034,0.00469279,0.0201493,1896,785,19.8097,-2.22817
679,239,19.7982,2.54596,-0.00212212,-0.000477634,-0.00289036,0.00170516,-0.00430491,-0.923976,0.00357649,0.0215828,1903,785,19.7982,-2.54593
686,239,19.8024,2.87286,-0.00139275,-0.000276181,-0.00194284,0.001187,-0.00285593,-0.925306,0.00239956,0.02082,1910,785,19.8023,-2.87289
693,239,19.8204,3.1767,-0.000259419,7.44371e-05,-0.00131056,0.00122866,-0.00141364,-0.848743,0.00152678,0.0139974,1917,785,19.8204,-3.1767
700,239,19.8372,3.45056,0.000586603,0.000271824,-0.000701771,0.00114842,-0.00028999,-0.675086,0.000878379,0.0105119,1924,785,19.8372,-3.45054
707,239,19.8381,3.73566,0.00126406,0.000556945,-0.000265491,0.00135264,0.000468362,-0.322044,0.000793159,0.0107946,1931,785,19.8381,-3.73569
714,239,19.809,4.0365,0.00217282,0.000847341,9.83226e-07,0.00217282,0.00084734,0.000741788,0.00126456,0.0106716,1938,785,19.8089,-4.03651
721,239,19.7521,4.33569,0.00295208,0.000636849,0.000122817,0.00295857,0.000630352,0.0528499,0.00179945,0.0209732,1945,785,19.7521,-4.33571
728,239,19.6682,4.67157,0.00418355,0.000357789,0.000363131,0.00421771,0.000323627,0.0938013,0.00271038,0.0386837,1952,785,19.6682,-4.67157
735,239,19.7238,5.08228,0,0,0,0,0,0,0,-1,1959,785,19.7237,-5.0823
742,239,20.6833,6.84631,0,0,0,0,0,0,0,-1,1966,785,20.6833,-6.8463
749,239,23.0078,0.207275,0,0,0,0,0,0,0,-1,1973,785,23.0078,-0.207291
756,239,23.7603,1.96185,0,0,0,0,0,0,0,-1,1980,785,23.7603,-1.96185
763,239,0,0,0,0,0,0,0,0,0,-1,1987,785,0,0
770,239,0,0,0,0,0,0,0,0,0,-1,1994,785,0,0
777,239,0,0,0,0,0,0,0,0,0,-1,2001,785,0,0
784,239,0,0,0,0,0,0,0,0,0,-1,2008,785,0,0
791,239,0,0,0,0,0,0,0,0,0,-1,2015,785,0,0
798,239,0,0,0,0,0,0,0,0,0,-1,2022,785,0,0
805,239,0,0,0,0,0,0,0,0,0,-1,2029,785,0,0
812,239,0,0,0,0,0,0,0,0,0,-1,2036,785,0,0
-700,232,0,0,0,0,0,0,0,0,0,-1,524,792,0,0
-693,232,0,0,0,0,0,0,0,0,0,-1,531,792,0,0
-686,232,0,0,0,0,0,0,0,0,0,-1,538,792,0,0
-679,232,0,0,0,0,0,0,0,0,0,-1,545,792,0,0
-672,232,0,0,0,0,0,0,0,0,0,-1,552,792,0,0
-665,232,0,0,0,0,0,0,0,0,0,-1,559,792,0,0
-658,232,0,0,0,0,0,0,0,0,0,-1,566,792,0,0
-651,232,0,0,0,0,0,0,0,0,0,-1,573,792,0,0
-644,232,-13.6357,4.45636,0,0,0,0,0,0,0,-1,580,792,-13.6357,-4.45636
-637,232,-13.4122,3.76544,0,0,0,0,0,0,0,-1,587,792,-13.4122,-3.76547
-630,232,-17.1488,6.12286,0,0,0,0,0,0,0,-1,594,792,-17.1488,-6.12288
-623,232,-16.081,5.41846,0.185391,0.00807614,-0.022003,0.188081,0.00538661,-0.121632,0.123631,0.0459729,601,792,-16.081,-5.41847
-616,232,-14.8755,4.74225,0.147095,0.00543021,-0.0190536,0.149613,0.0029123,-0.131388,0.0987852,0.0439547,608,792,-14.8755,-4.74225
-609,232,-14.1541,3.8775,0,0,0,0,0,0,0,-1,615,792,-14.1541,-3.87751
-602,232,-13.6119,2.96271,0.0844445,0.00317389,-0.0122694,0.0862564,0.00136196,-0.146618,0.0570557,0.048251,622,792,-13.6119,-2.96269
-595,232,-12.8359,2.20203,0.0606479,0.0026555,-0.00913555,0.062053,0.00125042,-0.152608,0.0409582,0.0351901,629,792,-12.836,-2.20201
-588,232,-12.8478,1.87579,0.0417916,0.00223006,-0.00643417,0.0428117,0.00120993,-0.15724,0.0281465,0.0125289,636,792,-12.8478,-1.87579
-581,232,-12.8725,1.57831,0.0273039,0.00178874,-0.0041873,0.0279735,0.00111914,-0.158571,0.0182874,0.00830456,643,792,-12.8725,-1.57828
-574,232,-12.871,1.30078,0.0154404,0.00113485,-0.00273947,0.0159471,0.000628192,-0.18288,0.0104283,0.00845237,650,792,-12.871,-1.3008
-567,232,-12.8942,1.00671,0.006805,0.000571873,-0.000696967,0.00688198,0.000494891,-0.110007,0.00443224,0.00975475,657,792,-12.8942,-1.00672
-560,232,-12.9033,0.723572,0.00187659,0.000143025,0.000702715,0.00212566,-0.000106042,0.340621,0.00145374,0.0123183,664,792,-12.9033,-0.723547
-553,232,-12.9164,0.436157,-0.000409161,2.51051e-05,0.00144848,0.00127264,-0.00165669,0.859796,0.00169609,0.0130244,671,792,-12.9165,-0.43614
-546,232,-12.9538,0.143066,-0.00228014,-0.000795725,0.00241913,0.000992498,-0.00406836,0.934243,0.00309656,0.0201505,678,792,-12.9538,-0.143048
-539,232,-12.949,-0.164612,-0.00321771,-0.00136681,0.00300874,0.000855597,-0.00544011,0.9346,0.00394301,0.0252024,685,792,-12.949,0.164635
-532,232,-12.9186,-0.464661,-0.00324441,-0.00142874,0.00336072,0.0011446,-0.00581775,0.917315,0.00431099,0.0177642,692,792,-12.9186,0.464676
-525,232,-12.9966,-0.700623,-0.00267024,-0.00128964,0.00388341,0.00196435,-0.00592422,0.873357,0.00474189,0.0300596,699,792,-12.9966,0.700638
-518,232,-12.9984,-0.796692,0,0,0,0,0,0,0,-1,706,792,-12.9984,0.796717
-511,232,-13.1224,-1.01392,0,0,0,0,0,0,0,-1,713,792,-13.1225,1.01392
-504,232,-13.1061,-1.22363,0,0,0,0,0,0,0,-1,720,792,-13.1061,1.22365
-497,232,-19.5854,1.40082,0.000458609,0.00229062,0.00330474,0.00480395,-0.00205472,0.920594,0.00406451,0.0442781,727,792,-19.5854,-1.40079
-490,232,-19.6638,1.36536,0.00224846,0.00439708,0.00243955,0.00598839,0.000657148,0.992807,0.00379224,0.0438072,734,792,-19.6638,-1.36538
-483,232,-19.6978,1.57776,0.00459488,0.00762199,0.000938591,0.00788939,0.00432748,1.29325,0.00456209,0.0453565,741,792,-19.6977,-1.57775
-476,232,-19.5889,1.58685,0,0,0,0,0,0,0,-1,748,792,-19.5889,-1.58683
-469,232,-19.404,1.54944,0,0,0,0,0,0,0,-1,755,792,-19.404,-1.54941
-462,232,0,0,0,0,0,0,0,0,0,-1,762,792,0,0
-455,232,0,0,0,0,0,0,0,0,0,-1,769,792,0,0
-448,232,0,0,0,0,0,0,0,0,0,-1,776,792,0,0
-441,232,0,0,0,0,0,0,0,0,0,-1,783,792,0,0
-434,232,0,0,0,0,0,0,0,0,0,-1,790,792,0,0
-427,232,0,0,0,0,0,0,0,0,0,-1,797,792,0,0
-420,232,0,0,0,0,0,0,0,0,0,-1,804,792,0,0
-413,232,0,0,0,0,0,0,0,0,0,-1,811,792,0,0
-406,232,0,0,0,0,0,0,0,0,0,-1,818,792,0,0
-399,232,0,0,0,0,0,0,0,0,0,-1,825,792,0,0
-392,232,0,0,0,0,0,0,0,0,0,-1,832,792,0,0
-385,232,0,0,0,0,0,0,0,0,0,-1,839,792,0,0
-378,232,0,0,0,0,0,0,0,0,0,-1,846,792,0,0
-371,232,0,0,0,0,0,0,0,0,0,-1,853,792,0,0
-364,232,0,0,0,0,0,0,0,0,0,-1,860,792,0,0
-357,232,0,0,0,0,0,0,0,0,0,-1,867,792,0,0
-350,232,0,0,0,0,0,0,0,0,0,-1,874,792,0,0
-343,232,0,0,0,0,0,0,0,0,0,-1,881,792,0,0
-336,232,0,0,0,0,0,0,0,0,0,-1,888,792,0,0
-329,232,0,0,0,0,0,0,0,0,0,-1,895,792,0,0
-322,232,0,0,0,0,0,0,0,0,0,-1,902,792,0,0
-315,232,0,0,0,0,0,0,0,0,0,-1,909,792,0,0
-308,232,0,0,0,0,0,0,0,0,0,-1,916,792,0,0
-301,232,0,0,0,0,0,0,0,0,0,-1,923,792,0,0
-294,232,0,0,0,0,0,0,0,0,0,-1,930,792,0,0
-287,232,0,0,0,0,0,0,0,0,0,-1,937,792,0,0
-280,232,0,0,0,0,0,0,0,0,0,-1,944,792,0,0
-273,232,0,0,0,0,0,0,0,0,0,-1,951,792,0,0
-266,232,0,0,0,0,0,0,0,0,0,-1,958,792,0,0
-259,232,0,0,0,0,0,0,0,0,0,-1,965,792,0,0
-252,232,0,0,0,0,0,0,0,0,0,-1,972,792,0,0
-245,232,0,0,0,0,0,0,0,0,0,-1,979,792,0,0
-238,232,0,0,0,0,0,0,0,0,0,-1,986,792,0,0
-231,232,0,0,0,0,0,0,0,0,0,-1,993,792,0,0
-224,232,0,0,0,0,0,0,0,0,0,-1,1000,792,0,0
-217,232,0,0,0,0,0,0,0,0,0,-1,1007,792,0,0
-210,232,0,0,0,0,0,0,0,0,0,-1,1014,792,0,0
-203,232,0,0,0,0,0,0,0,0,0,-1,1021,792,0,0
-196,232,0,0,0,0,0,0,0,0,0,-1,1028,792,0,0
-189,232,0,0,0,0,0,0,0,0,0,-1,1035,792,0,0
-182,232,0,0,0,0,0,0,0,0,0,-1,1042,792,0,0
-175,232,0,0,0,0,0,0,0,0,0,-1,1049,792,0,0
-168,232,0,0,0,0,0,0,0,0,0,-1,1056,792,0,0
-161,232,0,0,0,0,0,0,0,0,0,-1,1063,792,0,0
-154,232,0,0,0,0,0,0,0,0,0,-1,1070,792,0,0
-147,232,0,0,0,0,0,0,0,0,0,-1,1077,792,0,0
-140,232,0,0,0,0,0,0,0,0,0,-1,1084,792,0,0
-133,232,0,0,0,0,0,0,0,0,0,-1,1091,792,0,0
-126,232,0,0,0,0,0,0,0,0,0,-1,1098,792,0,0
-119,232,0,0,0,0,0,0,0,0,0,-1,1105,792,0,0
-112,232,0,0,0,0,0,0,0,0,0,-1,1112,792,0,0
-105,232,0,0,0,0,0,0,0,0,0,-1,1119,792,0,0
-98,232,0,0,0,0,0,0,0,0,0,-1,1126,792,0,0
-91,232,0,0,0,0,0,0,0,0,0,-1,1133,792,0,0
-84,232,0,0,0,0,0,0,0,0,0,-1,1140,792,0,0
-77,232,0,0,0,0,0,0,0,0,0,-1,1147,792,0,0
-70,232,0,0,0,0,0,0,0,0,0,-1,1154,792,0,0
-63,232,0,0,0,0,0,0,0,0,0,-1,1161,792,0,0
-56,232,0,0,0,0,0,0,0,0,0,-1,1168,792,0,0
-49,232,0,0,0,0,0,0,0,0,0,-1,1175,792,0,0
-42,232,0,0,0,0,0,0,0,0,0,-1,1182,792,0,0
-35,232,0,0,0,0,0,0,0,0,0,-1,1189,792,0,0
-28,232,0,0,0,0,0,0,0,0,0,-1,1196,792,0,0
-21,232,0,0,0,0,0,0,0,0,0,-1,1203,792,0,0
-14,232,0,0,0,0,0,0,0,0,0,-1,1210,792,0,0
-7,232,0,0,0,0,0,0,0,0,0,-1,1217,792,0,0
0,232,0,0,0,0,0,0,0,0,0,-1,1224,792,0,0
7,232,0,0,0,0,0,0,0,0,0,-1,1231,792,0,0
14,232,0,0,0,0,0,0,0,0,0,-1,1238,792,0,0
21,232,0,0,0,0,0,0,0,0,0,-1,1245,792,0,0
28,232,0,0,0,0,0,0,0,0,0,-1,1252,792,0,0
35,232,0,0,0,0,0,0,0,0,0,-1,1259,792,0,0
42,232,0,0,0,0,0,0,0,0,0,-1,1266,792,0,0
49,232,0,0,0,0,0,0,0,0,0,-1,1273,792,0,0
56,232,0,0,0,0,0,0,0,0,0,-1,1280,792,0,0
63,232,0,0,0,0,0,0,0,0,0,-1,1287,792,0,0
70,232,0,0,0,0,0,0,0,0,0,-1,1294,792,0,0
77,232,0,0,0,0,0,0,0,0,0,-1,1301,792,0,0
84,232,0,0,0,0,0,0,0,0,0,-1,1308,792,0,0
91,232,0,0,0,0,0,0,0,0,0,-1,1315,792,0,0
98,232,0,0,0,0,0,0,0,0,0,-1,1322,792,0,0
105,232,0,0,0,0,0,0,0,0,0,-1,1329,792,0,0
112,232,0,0,0,0,0,0,0,0,0,-1,1336,792,0,0
119,232,0,0,0,0,0,0,0,0,0,-1,1343,792,0,0
126,232,0,0,0,0,0,0,0,0,0,-1,1350,792,0,0
133,232,0,0,0,0,0,0,0,0,0,-1,1357,792,0,0
140,232,0,0,0,0,0,0,0,0,0,-1,1364,792,0,0
147,232,0,0,0,0,0,0,0,0,0,-1,1371,792,0,0
154,232,0,0,0,0,0,0,0,0,0,-1,1378,792,0,0
161,232,0,0,0,0,0,0,0,0,0,-1,1385,792,0,0
168,232,0,0,0,0,0,0,0,0,0,-1,1392,792,0,0
175,232,0,0,0,0,0,0,0,0,0,-1,1399,792,0,0
182,232,0,0,0,0,0,0,0,0,0,-1,1406,792,0,0
189,232,0,0,0,0,0,0,0,0,0,-1,1413,792,0,0
196,232,0,0,0,0,0,0,0,0,0,-1,1420,792,0,0
203,232,0,0,0,0,0,0,0,0,0,-1,1427,792,0,0
210,232,0,0,0,0,0,0,0,0,0,-1,1434,792,0,0
217,232,0,0,0,0,0,0,0,0,0,-1,1441,792,0,0
224,232,0,0,0,0,0,0,0,0,0,-1,1448,792,0,0
231,232,0,0,0,0,0,0,0,0,0,-1,1455,792,0,0
238,232,0,0,0,0,0,0,0,0,0,-1,1462,792,0,0
245,232,0,0,0,0,0,0,0,0,0,-1,1469,792,0,0
252,232,0,0,0,0,0,0,0,0,0,-1,1476,792,0,0
259,232,0,0,0,0,0,0,0,0,0,-1,1483,792,0,0
266,232,0,0,0,0,0,0,0,0,0,-1,1490,792,0,0
273,232,0,0,0,0,0,0,0,0,0,-1,1497,792,0,0
280,232,0,0,0,0,0,0,0,0,0,-1,1504,792,0,0
287,232,0,0,0,0,0,0,0,0,0,-1,1511,792,0,0
294,232,0,0,0,0,0,0,0,0,0,-1,1518,792,0,0
301,232,0,0,0,0,0,0,0,0,0,-1,1525,792,0,0
308,232,0,0,0,0,0,0,0,0,0,-1,1532,792,0,0
315,232,0,0,0,0,0,0,0,0,0,-1,1539,792,0,0
322,232,0,0,0,0,0,0,0,0,0,-1,1546,792,0,0
329,232,0,0,0,0,0,0,0,0,0,-1,1553,792,0,0
336,232,0,0,0,0,0,0,0,0,0,-1,1560,792,0,0
343,232,0,0,0,0,0,0,0,0,0,-1,1567,792,0,0
350,232,0,0,0,0,0,0,0,0,0,-1,1574,792,0,0
357,232,0,0,0,0,0,0,0,0,0,-1,1581,792,0,0
364,232,0,0,0,0,0,0,0,0,0,-1,1588,792,0,0
371,232,0,0,0,0,0,0,0,0,0,-1,1595,792,0,0
378,232,0,0,0,0,0,0,0,0,0,-1,1602,792,0,0
385,232,0,0,0,0,0,0,0,0,0,-1,1609,792,0,0
392,232,0,0,0,0,0,0,0,0,0,-1,1616,792,0,0
399,232,0,0,0,0,0,0,0,0,0,-1,1623,792,0,0
406,232,0,0,0,0,0,0,0,0,0,-1,1630,792,0,0
413,232,0,0,0,0,0,0,0,0,0,-1,1637,792,0,0
420,232,0,0,0,0,0,0,0,0,0,-1,1644,792,0,0
427,232,0,0,0,0,0,0,0,0,0,-1,1651,792,0,0
434,232,0,0,0,0,0,0,0,0,0,-1,1658,792,0,0
441,232,0,0,0,0,0,0,0,0,0,-1,1665,792,0,0
448,232,0,0,0,0,0,0,0,0,0,-1,1672,792,0,0
455,232,0,0,0,0,0,0,0,0,0,-1,1679,792,0,0
462,232,0,0,0,0,0,0,0,0,0,-1,1686,792,0,0
469,232,0,0,0,0,0,0,0,0,0,-1,1693,792,0,0
476,232,0,0,0,0,0,0,0,0,0,-1,1700,792,0,0
483,232,0,0,0,0,0,0,0,0,0,-1,1707,792,0,0
490,232,0,0,0,0,0,0,0,0,0,-1,1714,792,0,0
497,232,0,0,0,0,0,0,0,0,0,-1,1721,792,0,0
504,232,0,0,0,0,0,0,0,0,0,-1,1728,792,0,0
511,232,0,0,0,0,0,0,0,0,0,-1,1735,792,0,0
518,232,0,0,0,0,0,0,0,0,0,-1,1742,792,0,0
525,232,0,0,0,0,0,0,0,0,0,-1,1749,792,0,0
532,232,0,0,0,0,0,0,0,0,0,-1,1756,792,0,0
539,232,0,0,0,0,0,0,0,0,0,-1,1763,792,0,0
546,232,0,0,0,0,0,0,0,0,0,-1,1770,792,0,0
553,232,0,0,0,0,0,0,0,0,0,-1,1777,792,0,0
560,232,0,0,0,0,0,0,0,0,0,-1,1784,792,0,0
567,232,0,0,0,0,0,0,0,0,0,-1,1791,792,0,0
574,232,0,0,0,0,0,0,0,0,0,-1,1798,792,0,0
581,232,0,0,0,0,0,0,0,0,0,-1,1805,792,0,0
588,232,27.6527,3.43732,-0.00354481,0.0114642,-0.00393089,0.0124314,-0.00451199,-1.32954,0.0101322,0.0382835,1812,792,27.6527,-3.43731
595,232,27.6652,3.40466,-0.00261272,0.00956213,-0.00612257,0.0121085,-0.0051591,-1.17666,0.010235,0.037687,1819,792,27.6651,-3.40466
602,232,27.7307,3.38019,-0.00249069,0.00791217,-0.00721237,0.011603,-0.00618157,-1.0978,0.0104258,0.0359496,1826,792,27.7307,-3.3802
609,232,27.6115,3.5592,-0.00270655,0.00624471,-0.0076779,0.0106562,-0.00711807,-1.04928,0.0103295,0.0405203,1833,792,27.6114,-3.55918
616,232,27.5031,3.72699,-0.00307387,0.00469931,-0.00769131,0.00943026,-0.00780482,-1.01935,0.00996541,0.047374,1840,792,27.5031,-3.72699
623,232,27.1992,3.59589,-0.00315617,0.0032585,-0.00734277,0.00806386,-0.00796153,-0.99131,0.00925233,0.041793,1847,792,27.1992,-3.59589
630,232,27.594,3.71796,-0.00326278,0.00197781,-0.00693443,0.00677049,-0.00805546,-0.966039,0.00857048,0.0437003,1854,792,27.594,-3.71796
637,232,28.0055,4.09534,0,0,0,0,0,0,0,-1,1861,792,28.0055,-4.09536
644,232,19.702,1.69574,0,0,0,0,0,0,0,-1,1868,792,19.702,-1.69577
651,232,20.1147,1.50909,0,0,0,0,0,0,0,-1,1875,792,20.1148,-1.50907
658,232,20.1476,1.69354,-0.00382899,2.10266e-05,-0.00551596,0.00393823,-0.00774619,-0.953285,0.00686438,0.0278062,1882,792,20.1475,-1.69353
665,232,20.1609,1.91925,-0.0032212,-7.07946e-05,-0.00507888,0.00367155,-0.00696354,-0.935768,0.00623746,0.0123956,1889,792,20.1609,-1.91926
672,232,20.1039,2.2489,-0.0028735,-0.000412888,-0.00437427,0.00290081,-0.00618719,-0.922486,0.00536009,0.0180151,1896,792,20.1039,-2.24887
679,232,20.1057,2.5719,-0.00262295,-0.00059405,-0.00347492,0.00201147,-0.00522847,-0.927418,0.00431534,0.0194228,1903,792,20.1058,-2.57193
686,232,20.1179,2.88977,-0.00199896,-0.000551006,-0.0025759,0.00140072,-0.00395069,-0.922393,0.00320442,0.0175776,1910,792,20.118,-2.88975
693,232,20.1316,3.17523,-0.000861159,-0.000377752,-0.00192821,0.00132384,-0.00256276,-0.847749,0.00228162,0.0100288,1917,792,20.1315,-3.17521
700,232,20.1489,3.44446,2.19015e-05,-0.000334519,-0.00125477,0.00111106,-0.00142367,-0.714857,0.00146713,0.0115829,1924,792,20.149,-3.44444
707,232,20.1515,3.73944,0.000772371,-0.000123809,-0.000762455,0.00120866,-0.000560096,-0.519738,0.00104382,0.012217,1931,792,20.1515,-3.73943
714,232,20.1385,4.04059,0.00184201,0.000370395,-0.000478237,0.00198377,0.000228637,-0.288169,0.00125327,0.013206,1938,792,20.1386,-4.0406
721,232,20.094,4.31384,0.00275476,0.000364026,-0.000381793,0.00281425,0.000304535,-0.154576,0.00178335,0.0184367,1945,792,20.094,-4.31383
728,232,20.0328,4.51892,0.00416704,0.000442575,-0.000237371,0.0041821,0.000427507,-0.0633911,0.00265706,0.0339865,1952,792,20.0329,-4.51894
735,232,20.1125,4.80078,0,0,0,0,0,0,0,-1,1959,792,20.1126,-4.8008
742,232,21.5045,-0.94696,0,0,0,0,0,0,0,-1,1966,792,21.5045,0.946985
749,232,22.3296,0.791626,0,0,0,0,0,0,0,-1,1973,792,22.3296,-0.791621
756,232,22.9971,2.53088,0,0,0,0,0,0,0,-1,1980,792,22.9971,-2.53086
763,232,23.6833,3.8302,0,0,0,0,0,0,0,-1,1987,792,23.6833,-3.83023
770,232,0,0,0,0,0,0,0,0,0,-1,1994,792,0,0
777,232,0,0,0,0,0,0,0,0,0,-1,2001,792,0,0
784,232,0,0,0,0,0,0,0,0,0,-1,2008,792,0,0
791,232,0,0,0,0,0,0,0,0,0,-1,2015,792,0,0
798,232,0,0,0,0,0,0,0,0,0,-1,2022,792,0,0
805,232,0,0,0,0,0,0,0,0,0,-1,2029,792,0,0
812,232,0,0,0,0,0,0,0,0,0,-1,2036,792,0,0
-700,225,0,0,0,0,0,0,0,0,0,-1,524,799,0,0
-693,225,0,0,0,0,0,0,0,0,0,-1,531,799,0,0
-686,225,0,0,0,0,0,0,0,0,0,-1,538,799,0,0
-679,225,0,0,0,0,0,0,0,0,0,-1,545,799,0,0
-672,225,0,0,0,0,0,0,0,0,0,-1,552,799,0,0
-665,225,0,0,0,0,0,0,0,0,0,-1,559,799,0,0
-658,225,0,0,0,0,0,0,0,0,0,-1,566,799,0,0
-651,225,0,0,0,0,0,0,0,0,0,-1,573,799,0,0
-644,225,-14.5764,0.239258,0,0,0,0,0,0,0,-1,580,799,-14.5763,-0.239238
-637,225,-13.2621,3.50519,0,0,0,0,0,0,0,-1,587,799,-13.2622,-3.50517
-630,225,-12.514,2.92529,0,0,0,0,0,0,0,-1,594,799,-12.514,-2.92531
-623,225,-16.1249,4.73218,0,0,0,0,0,0,0,-1,601,799,-16.1249,-4.73218
-616,225,-14.9729,4.49512,0,0,0,0,0,0,0,-1,608,799,-14.9729,-4.49514
-609,225,-13.6603,2.36572,0,0,0,0,0,0,0,-1,615,799,-13.6603,-2.36574
-602,225,-13.707,2.65479,0.0685684,0.00593031,-0.0112748,0.070536,0.00396268,-0.172776,0.0457603,0.04443,622,799,-13.707,-2.65481
-595,225,-13.178,2.14301,0.0487898,0.00460812,-0.00834269,0.0503127,0.00308529,-0.180547,0.0325621,0.0283248,629,799,-13.178,-2.143
-588,225,-13.1498,1.84711,0.0333268,0.00351544,-0.00584477,0.0344318,0.00241048,-0.186846,0.0221947,0.012179,636,799,-13.1498,-1.84712
-581,225,-13.1593,1.57422,0.0215134,0.00254951,-0.00376561,0.0222337,0.00182914,-0.189017,0.014252,0.0105688,643,799,-13.1593,-1.5742
-574,225,-13.1689,1.29773,0.0119657,0.00149863,-0.00232484,0.0124589,0.0010055,-0.209018,0.00799186,0.00862598,650,799,-13.169,-1.29773
-567,225,-13.1691,1.00214,0.0050057,0.000703742,-0.000596207,0.0050868,0.000622642,-0.135196,0.00320388,0.0102787,657,799,-13.1691,-1.00216
-560,225,-13.1819,0.732727,0.00119749,0.000208334,0.000534088,0.00143082,-2.5002e-05,0.411895,0.000962324,0.0107632,664,799,-13.1819,-0.732747
-553,225,-13.1949,0.448425,-0.000548259,0.000255152,0.00117708,0.00109718,-0.00139029,0.949838,0.00143946,0.0110038,671,799,-13.1949,-0.448424
-546,225,-13.2321,0.154236,-0.00208973,-0.000274198,0.0019559,0.000974325,-0.00333825,1.00266,0.00261158,0.0194327,678,799,-13.2321,-0.154229
-539,225,-13.2218,-0.156433,-0.00286153,-0.000530848,0.00239581,0.000968001,-0.00436038,1.01176,0.00327758,0.0267788,685,799,-13.2218,0.156452
-532,225,-13.2563,-0.429321,-0.00278994,-0.000340927,0.00263246,0.00133788,-0.00446875,1.00309,0.00351115,0.0216121,692,799,-13.2563,0.429346
-525,225,-13.5411,-0.540466,-0.0022422,3.5231e-05,0.00300384,0.00210895,-0.00431592,0.966573,0.00378165,0.0469779,699,799,-13.5411,0.540458
-518,225,-14.1131,-0.5401,-0.00180366,0.000673075,0.00311854,0.00279013,-0.00392071,0.974399,0.00389279,0.0440319,706,799,-14.1131,0.54012
-511,225,-14.7914,-0.494812,0,0,0,0,0,0,0,-1,713,799,-14.7914,0.494811
-504,225,-15.3598,-0.596558,0,0,0,0,0,0,0,-1,720,799,-15.3598,0.596575
-497,225,-19.7138,1.53827,0.000956925,0.00381938,0.00224222,0.00504822,-0.000271916,1.06945,0.00345968,0.0441559,727,799,-19.7138,-1.53825
-490,225,-19.5873,1.53339,0.00279072,0.00575917,0.00128367,0.00623728,0.00231261,1.21426,0.00364096,0.0393386,734,799,-19.5874,-1.53336
-483,225,-19.5098,1.59515,0.00521673,0.00868221,-0.000397034,0.00872711,0.00517183,-1.45817,0.00506733,0.034356,741,799,-19.5098,-1.59518
-476,225,-19.3438,1.67175,0.00808837,0.0129888,-0.00296814,0.0143874,0.00668976,-1.13045,0.00831335,0.0337024,748,799,-19.3437,-1.67177
-469,225,-19.4027,1.73975,0,0,0,0,0,0,0,-1,755,799,-19.4027,-1.73972
-462,225,0,0,0,0,0,0,0,0,0,-1,762,799,0,0
-455,225,0,0,0,0,0,0,0,0,0,-1,769,799,0,0
-448,225,0,0,0,0,0,0,0,0,0,-1,776,799,0,0
-441,225,0,0,0,0,0,0,0,0,0,-1,783,799,0,0
-434,225,0,0,0,0,0,0,0,0,0,-1,790,799,0,0
-427,225,0,0,0,0,0,0,0,0,0,-1,797,799,0,0
-420,225,0,0,0,0,0,0,0,0,0,-1,804,799,0,0
-413,225,0,0,0,0,0,0,0,0,0,-1,811,799,0,0
-406,225,0,0,0,0,0,0,0,0,0,-1,818,799,0,0
-399,225,0,0,0,0,0,0,0,0,0,-1,825,799,0,0
-392,225,0,0,0,0,0,0,0,0,0,-1,832,799,0,0
-385,225,0,0,0,0,0,0,0,0,0,-1,839,799,0,0
-378,225,0,0,0,0,0,0,0,0,0,-1,846,799,0,0
-371,225,0,0,0,0,0,0,0,0,0,-1,853,799,0,0
-364,225,0,0,0,0,0,0,0,0,0,-1,860,799,0,0
-357,225,0,0,0,0,0,0,0,0,0,-1,867,799,0,0
-350,225,0,0,0,0,0,0,0,0,0,-1,874,799,0,0
-343,225,0,0,0,0,0,0,0,0,0,-1,881,799,0,0
-336,225,0,0,0,0,0,0,0,0,0,-1,888,799,0,0
-329,225,0,0,0,0,0,0,0,0,0,-1,895,799,0,0
-322,225,0,0,0,0,0,0,0,0,0,-1,902,799,0,0
-315,225,0,0,0,0,0,0,0,0,0,-1,909,799,0,0
-308,225,0,0,0,0,0,0,0,0,0,-1,916,799,0,0
-301,225,0,0,0,0,0,0,0,0,0,-1,923,799,0,0
-294,225,0,0,0,0,0,0,0,0,0,-1,930,799,0,0
-287,225,0,0,0,0,0,0,0,0,0,-1,937,799,0,0
-280,225,0,0,0,0,0,0,0,0,0,-1,944,799,0,0
-273,225,0,0,0,0,0,0,0,0,0,-1,951,799,0,0
-266,225,0,0,0,0,0,0,0,0,0,-1,958,799,0,0
-259,225,0,0,0,0,0,0,0,0,0,-1,965,799,0,0
-252,225,0,0,0,0,0,0,0,0,0,-1,972,799,0,0
-245,225,0,0,0,0,0,0,0,0,0,-1,979,799,0,0
-238,225,0,0,0,0,0,0,0,0,0,-1,986,799,0,0
-231,225,0,0,0,0,0,0,0,0,0,-1,993,799,0,0
-224,225,0,0,0,0,0,0,0,0,0,-1,1000,799,0,0
-217,225,0,0,0,0,0,0,0,0,0,-1,1007,799,0,0
-210,225,0,0,0,0,0,0,0,0,0,-1,1014,799,0,0
-203,225,0,0,0,0,0,0,0,0,0,-1,1021,799,0,0
-196,225,0,0,0,0,0,0,0,0,0,-1,1028,799,0,0
-189,225,0,0,0,0,0,0,0,0,0,-1,1035,799,0,0
-182,225,0,0,0,0,0,0,0,0,0,-1,1042,799,0,0
-175,225,0,0,0,0,0,0,0,0,0,-1,1049,799,0,0
-168,225,0,0,0,0,0,0,0,0,0,-1,1056,799,0,0
-161,225,0,0,0,0,0,0,0,0,0,-1,1063,799,0,0
-154,225,0,0,0,0,0,0,0,0,0,-1,1070,799,0,0
-147,225,0,0,0,0,0,0,0,0,0,-1,1077,799,0,0
-140,225,0,0,0,0,0,0,0,0,0,-1,1084,799,0,0
-133,225,0,0,0,0,0,0,0,0,0,-1,1091,799,0,0
-126,225,0,0,0,0,0,0,0,0,0,-1,1098,799,0,0
-119,225,0,0,0,0,0,0,0,0,0,-1,1105,799,0,0
-112,225,0,0,0,0,0,0,0,0,0,-1,1112,799,0,0
-105,225,0,0,0,0,0,0,0,0,0,-1,1119,799,0,0
-98,225,0,0,0,0,0,0,0,0,0,-1,1126,799,0,0
-91,225,0,0,0,0,0,0,0,0,0,-1,1133,799,0,0
-84,225,0,0,0,0,0,0,0,0,0,-1,1140,799,0,0
-77,225,0,0,0,0,0,0,0,0,0,-1,1147,799,0,0
-70,225,0,0,0,0,0,0,0,0,0,-1,1154,799,0,0
-63,225,0,0,0,0,0,0,0,0,0,-1,1161,799,0,0
-56,225,0,0,0,0,0,0,0,0,0,-1,1168,799,0,0
-49,225,0,0,0,0,0,0,0,0,0,-1,1175,799,0,0
-42,225,0,0,0,0,0,0,0,0,0,-1,1182,799,0,0
-35,225,0,0,0,0,0,0,0,0,0,-1,1189,799,0,0
-28,225,0,0,0,0,0,0,0,0,0,-1,1196,799,0,0
-21,225,0,0,0,0,0,0,0,0,0,-1,1203,799,0,0
-14,225,0,0,0,0,0,0,0,0,0,-1,1210,799,0,0
-7,225,0,0,0,0,0,0,0,0,0,-1,1217,799,0,0
0,225,0,0,0,0,0,0,0,0,0,-1,1224,799,0,0
7,225,0,0,0,0,0,0,0,0,0,-1,1231,799,0,0
14,225,0,0,0,0,0,0,0,0,0,-1,1238,799,0,0
21,225,0,0,0,0,0,0,0,0,0,-1,1245,799,0,0
28,225,0,0,0,0,0,0,0,0,0,-1,1252,799,0,0
35,225,0,0,0,0,0,0,0,0,0,-1,1259,799,0,0
42,225,0,0,0,0,0,0,0,0,0,-1,1266,799,0,0
49,225,0,0,0,0,0,0,0,0,0,-1,1273,799,0,0
56,225,0,0,0,0,0,0,0,0,0,-1,1280,799,0,0
63,225,0,0,0,0,0,0,0,0,0,-1,1287,799,0,0
70,225,0,0,0,0,0,0,0,0,0,-1,1294,799,0,0
77,225,0,0,0,0,0,0,0,0,0,-1,1301,799,0,0
84,225,0,0,0,0,0,0,0,0,0,-1,1308,799,0,0
91,225,0,0,0,0,0,0,0,0,0,-1,1315,799,0,0
98,225,0,0,0,0,0,0,0,0,0,-1,1322,799,0,0
105,225,0,0,0,0,0,0,0,0,0,-1,1329,799,0,0
112,225,0,0,0,0,0,0,0,0,0,-1,1336,799,0,0
119,225,0,0,0,0,0,0,0,0,0,-1,1343,799,0,0
126,225,0,0,0,0,0,0,0,0,0,-1,1350,799,0,0
133,225,0,0,0,0,0,0,0,0,0,-1,1357,799,0,0
140,225,0,0,0,0,0,0,0,0,0,-1,1364,799,0,0
147,225,0,0,0,0,0,0,0,0,0,-1,1371,799,0,0
154,225,0,0,0,0,0,0,0,0,0,-1,1378,799,0,0
161,225,0,0,0,0,0,0,0,0,0,-1,1385,799,0,0
168,225,0,0,0,0,0,0,0,0,0,-1,1392,799,0,0
175,225,0,0,0,0,0,0,0,0,0,-1,1399,799,0,0
182,225,0,0,0,0,0,0,0,0,0,-1,1406,799,0,0
189,225,0,0,0,0,0,0,0,0,0,-1,1413,799,0,0
196,225,0,0,0,0,0,0,0,0,0,-1,1420,799,0,0
203,225,0,0,0,0,0,0,0,0,0,-1,1427,799,0,0
210,225,0,0,0,0,0,0,0,0,0,-1,1434,799,0,0
217,225,0,0,0,0,0,0,0,0,0,-1,1441,799,0,0
224,225,0,0,0,0,0,0,0,0,0,-1,1448,799,0,0
231,225,0,0,0,0,0,0,0,0,0,-1,1455,799,0,0
238,225,0,0,0,0,0,0,0,0,0,-1,1462,799,0,0
245,225,0,0,0,0,0,0,0,0,0,-1,1469,799,0,0
252,225,0,0,0,0,0,0,0,0,0,-1,1476,799,0,0
259,225,0,0,0,0,0,0,0,0,0,-1,1483,799,0,0
266,225,0,0,0,0,0,0,0,0,0,-1,1490,799,0,0
273,225,0,0,0,0,0,0,0,0,0,-1,1497,799,0,0
280,225,0,0,0,0,0,0,0,0,0,-1,1504,799,0,0
287,225,0,0,0,0,0,0,0,0,0,-1,1511,799,0,0
294,225,0,0,0,0,0,0,0,0,0,-1,1518,799,0,0
301,225,0,0,0,0,0,0,0,0,0,-1,1525,799,0,0
308,225,0,0,0,0,0,0,0,0,0,-1,1532,799,0,0
315,225,0,0,0,0,0,0,0,0,0,-1,1539,799,0,0
322,225,0,0,0,0,0,0,0,0,0,-1,1546,799,0,0
329,225,0,0,0,0,0,0,0,0,0,-1,1553,799,0,0
336,225,0,0,0,0,0,0,0,0,0,-1,1560,799,0,0
343,225,0,0,0,0,0,0,0,0,0,-1,1567,799,0,0
350,225,0,0,0,0,0,0,0,0,0,-1,1574,799,0,0
357,225,0,0,0,0,0,0,0,0,0,-1,1581,799,0,0
364,225,0,0,0,0,0,0,0,0,0,-1,1588,799,0,0
371,225,0,0,0,0,0,0,0,0,0,-1,1595,799,0,0
378,225,0,0,0,0,0,0,0,0,0,-1,1602,799,0,0
385,225,0,0,0,0,0,0,0,0,0,-1,1609,799,0,0
392,225,0,0,0,0,0,0,0,0,0,-1,1616,799,0,0
399,225,0,0,0,0,0,0,0,0,0,-1,1623,799,0,0
406,225,0,0,0,0,0,0,0,0,0,-1,1630,799,0,0
413,225,0,0,0,0,0,0,0,0,0,-1,1637,799,0,0
420,225,0,0,0,0,0,0,0,0,0,-1,1644,799,0,0
427,225,0,0,0,0,0,0,0,0,0,-1,1651,799,0,0
434,225,0,0,0,0,0,0,0,0,0,-1,1658,799,0,0
441,225,0,0,0,0,0,0,0,0,0,-1,1665,799,0,0
448,225,0,0,0,0,0,0,0,0,0,-1,1672,799,0,0
455,225,0,0,0,0,0,0,0,0,0,-1,1679,799,0,0
462,225,0,0,0,0,0,0,0,0,0,-1,1686,799,0,0
469,225,0,0,0,0,0,0,0,0,0,-1,1693,799,0,0
476,225,0,0,0,0,0,0,0,0,0,-1,1700,799,0,0
483,225,0,0,0,0,0,0,0,0,0,-1,1707,799,0,0
490,225,0,0,0,0,0,0,0,0,0,-1,1714,799,0,0
497,225,0,0,0,0,0,0,0,0,0,-1,1721,799,0,0
504,225,0,0,0,0,0,0,0,0,0,-1,1728,799,0,0
511,225,0,0,0,0,0,0,0,0,0,-1,1735,799,0,0
518,225,0,0,0,0,0,0,0,0,0,-1,1742,799,0,0
525,225,0,0,0,0,0,0,0,0,0,-1,1749,799,0,0
532,225,0,0,0,0,0,0,0,0,0,-1,1756,799,0,0
539,225,0,0,0,0,0,0,0,0,0,-1,1763,799,0,0
546,225,0,0,0,0,0,0,0,0,0,-1,1770,799,0,0
553,225,0,0,0,0,0,0,0,0,0,-1,1777,799,0,0
560,225,0,0,0,0,0,0,0,0,0,-1,1784,799,0,0
567,225,0,0,0,0,0,0,0,0,0,-1,1791,799,0,0
574,225,0,0,0,0,0,0,0,0,0,-1,1798,799,0,0
581,225,0,0,0,0,0,0,0,0,0,-1,1805,799,0,0
588,225,27.7355,3.39459,-0.00443443,0.00872694,-0.00103218,0.0088074,-0.00451489,-1.49301,0.00782358,0.0367552,1812,799,27.7354,-3.39457
595,225,27.7294,3.40088,-0.00259891,0.00714771,-0.0031823,0.00809473,-0.00354592,-1.28155,0.00688965,0.0355423,1819,799,27.7294,-3.40086
602,225,27.7344,3.41547,-0.00205208,0.00598504,-0.00462739,0.00809523,-0.00416227,-1.14295,0.00719728,0.0340244,1826,799,27.7344,-3.41549
609,225,27.7307,3.43597,-0.00229322,0.00501465,-0.00568293,0.00811696,-0.00539553,-1.07111,0.00785401,0.0333969,1833,799,27.7307,-3.43596
616,225,27.6879,3.49677,-0.00282912,0.0039463,-0.0062984,0.00771027,-0.00659308,-1.03214,0.00826644,0.0405713,1840,799,27.6879,-3.49677
623,225,27.709,3.48981,-0.00316744,0.00293481,-0.00644066,0.0070105,-0.00724313,-1.0066,0.0082297,0.0403544,1847,799,27.709,-3.48981
630,225,27.7848,3.65033,-0.00347356,0.00195009,-0.0063931,0.00618274,-0.0077062,-0.985986,0.00803485,0.042446,1854,799,27.7848,-3.65033
637,225,27.8116,3.8595,0,0,0,0,0,0,0,-1,1861,799,27.8116,-3.85948
644,225,21.6406,2.2973,0,0,0,0,0,0,0,-1,1868,799,21.6406,-2.29733
651,225,21.2535,2.20172,0,0,0,0,0,0,0,-1,1875,799,21.2536,-2.20173
658,225,20.8778,2.09082,-0.00411474,0.000254771,-0.00566125,0.0041382,-0.00799817,-0.969551,0.00712409,0.03988,1882,799,20.8778,-2.09082
665,225,20.5061,1.96564,-0.00358084,6.99053e-05,-0.00529035,0.00384094,-0.00735188,-0.951522,0.0065673,0.0155757,1889,799,20.5061,-1.96561
672,225,20.4381,2.25928,-0.00327904,-0.000331679,-0.004674,0.00309546,-0.00670618,-0.938112,0.00578555,0.0170668,1896,799,20.4382,-2.25929
679,225,20.4386,2.59601,-0.00308815,-0.000600543,-0.00385652,0.00220778,-0.00589648,-0.941392,0.00483786,0.0180565,1903,799,20.4386,-2.59603
686,225,20.4459,2.8905,-0.00255682,-0.000671762,-0.00301373,0.00154338,-0.00477197,-0.936953,0.00380168,0.011438,1910,799,20.4459,-2.89048
693,225,20.4384,3.17206,-0.00140009,-0.000635563,-0.00234045,0.00135363,-0.00338929,-0.866348,0.00282115,0.0103752,1917,799,20.4383,-3.17205
700,225,20.4456,3.4538,-0.000410055,-0.000674518,-0.00158675,0.00104996,-0.00213454,-0.743827,0.00187378,0.0113764,1924,799,20.4456,-3.45382
707,225,20.4427,3.76569,0.000516147,-0.000469909,-0.00101443,0.00115102,-0.00110478,-0.559201,0.00130248,0.0116506,1931,799,20.4427,-3.76572
714,225,20.4442,4.0719,0.00181607,0.000269872,-0.000725809,0.00210338,-1.74445e-05,-0.37693,0.00140811,0.0127142,1938,799,20.4442,-4.07187
721,225,20.4493,4.35425,0.00295892,0.000511754,-0.000663416,0.0031272,0.000343477,-0.248414,0.00198026,0.0138187,1945,799,20.4493,-4.35424
728,225,20.4006,4.55951,0.00463494,0.000930513,-0.000633229,0.00474019,0.00082526,-0.16471,0.00292412,0.0237473,1952,799,20.4006,-4.55949
735,225,20.6111,4.89569,0.00719952,0.00143379,-0.000647848,0.00727142,0.00136189,-0.110526,0.00446345,0.0486817,1959,799,20.6111,-4.89571
742,225,20.7588,5.15613,0,0,0,0,0,0,0,-1,1966,799,20.7588,-5.15615
749,225,21.6514,1.37598,0,0,0,0,0,0,0,-1,1973,799,21.6514,-1.37595
756,225,22.2339,3.09985,0,0,0,0,0,0,0,-1,1980,799,22.2339,-3.09986
763,225,19.4895,4.37366,0,0,0,0,0,0,0,-1,1987,799,19.4896,-4.37364
770,225,0,0,0,0,0,0,0,0,0,-1,1994,799,0,0
777,225,0,0,0,0,0,0,0,0,0,-1,2001,799,0,0
784,225,0,0,0,0,0,0,0,0,0,-1,2008,799,0,0
791,225,0,0,0,0,0,0,0,0,0,-1,2015,799,0,0
798,225,0,0,0,0,0,0,0,0,0,-1,2022,799,0,0
805,225,0,0,0,0,0,0,0,0,0,-1,2029,799,0,0
812,225,0,0,0,0,0,0,0,0,0,-1,2036,799,0,0
-700,218,0,0,0,0,0,0,0,0,0,-1,524,806,0,0
-693,218,0,0,0,0,0,0,0,0,0,-1,531,806,0,0
-686,218,0,0,0,0,0,0,0,0,0,-1,538,806,0,0
-679,218,0,0,0,0,0,0,0,0,0,-1,545,806,0,0
-672,218,0,0,0,0,0,0,0,0,0,-1,552,806,0,0
-665,218,0,0,0,0,0,0,0,0,0,-1,559,806,0,0
-658,218,0,0,0,0,0,0,0,0,0,-1,566,806,0,0
-651,218,-15.491,0.611572,0,0,0,0,0,0,0,-1,573,806,-15.4911,-0.611563
-644,218,-15.3907,0.602234,0,0,0,0,0,0,0,-1,580,806,-15.3907,-0.602208
-637,218,-15.0925,0.479858,0,0,0,0,0,0,0,-1,587,806,-15.0925,-0.47983
-630,218,-14.8153,0.351135,0,0,0,0,0,0,0,-1,594,806,-14.8153,-0.351156
-623,218,-13.6068,4.34662,0,0,0,0,0,0,0,-1,601,806,-13.6068,-4.34659
-616,218,-13.691,2.50293,0,0,0,0,0,0,0,-1,608,806,-13.691,-2.50293
-609,218,-13.7181,2.3949,0.0729696,0.0108384,-0.0134628,0.0757613,0.00804667,-0.204469,0.0480504,0.0471459,615,806,-13.7181,-2.39492
-602,218,-13.4747,2.32397,0.0526825,0.00830966,-0.0102593,0.0549397,0.00605245,-0.216565,0.034785,0.0384291,622,806,-13.4746,-2.32399
-595,218,-13.4592,2.14392,0.0368878,0.00628943,-0.00747865,0.0386178,0.00455936,-0.227335,0.024368,0.0164047,629,806,-13.4592,-2.14391
-588,218,-13.4581,1.86285,0.0247796,0.00461215,-0.00513984,0.026014,0.00337777,-0.235695,0.0163336,0.010677,636,806,-13.458,-1.86284
-581,218,-13.4693,1.58661,0.0156776,0.00318813,-0.00320832,0.0164535,0.00241217,-0.2373,0.0102599,0.0103108,643,806,-13.4693,-1.58662
-574,218,-13.4902,1.30157,0.00847311,0.001799,-0.00182218,0.0089382,0.00133391,-0.249901,0.00556768,0.00974906,650,806,-13.4902,-1.30159
-567,218,-13.4543,0.989807,0.0032814,0.000903546,-0.000424412,0.00335488,0.000830066,-0.171435,0.00201764,0.0162207,657,806,-13.4543,-0.989783
-560,218,-13.4551,0.722046,0.000666372,0.0004319,0.000394974,0.000961142,0.00013713,0.64113,0.000600295,0.0165064,664,806,-13.4551,-0.722016
-553,218,-13.4562,0.459656,-0.000462909,0.00068696,0.000870259,0.00115505,-0.000930999,1.07731,0.00120669,0.0173541,671,806,-13.4563,-0.459628
-546,218,-13.4958,0.118286,-0.00164802,0.000480779,0.00143082,0.00119969,-0.00236693,1.10519,0.00209563,0.016503,678,806,-13.4958,-0.118288
-539,218,-13.5248,-0.187317,-0.00225249,0.00053407,0.00171763,0.00135246,-0.00307088,1.12615,0.00261726,0.0241791,685,806,-13.5248,0.187324
-532,218,-13.5967,-0.34137,-0.0021217,0.000950954,0.00184592,0.00181623,-0.00298699,1.13246,0.00280046,0.0277395,692,806,-13.5968,0.34135
-525,218,-14.0249,-0.402771,0,0,0,0,0,0,0,-1,699,806,-14.0249,0.402786
-518,218,-14.6994,-0.540222,0,0,0,0,0,0,0,-1,706,806,-14.6994,0.540214
-511,218,-15.1585,-0.322327,0,0,0,0,0,0,0,-1,713,806,-15.1585,0.322309
-504,218,-19.0497,2.26257,0,0,0,0,0,0,0,-1,720,806,-19.0497,-2.26257
-497,218,-19.4235,1.69086,0.00220611,0.00553257,0.00120885,0.00592546,0.00181321,1.25655,0.00350585,0.0467341,727,806,-19.4235,-1.69087
-490,218,-19.4021,1.59961,0.00445938,0.00720883,0.0002698,0.00723506,0.00443315,1.4739,0.0042124,0.0362536,734,806,-19.4021,-1.59962
-483,218,-19.3933,1.62952,0.00749107,0.00956441,-0.00135998,0.0102378,0.0068177,-1.11105,0.00601831,0.033776,741,806,-19.3933,-1.62953
-476,218,-19.3527,1.63422,0.0108513,0.0128125,-0.00367227,0.0156328,0.00803096,-0.915868,0.00902676,0.0363939,748,806,-19.3527,-1.63423
-469,218,0,0,0,0,0,0,0,0,0,-1,755,806,0,0
-462,218,0,0,0,0,0,0,0,0,0,-1,762,806,0,0
-455,218,0,0,0,0,0,0,0,0,0,-1,769,806,0,0
-448,218,0,0,0,0,0,0,0,0,0,-1,776,806,0,0
-441,218,0,0,0,0,0,0,0,0,0,-1,783,806,0,0
-434,218,0,0,0,0,0,0,0,0,0,-1,790,806,0,0
-427,218,0,0,0,0,0,0,0,0,0,-1,797,806,0,0
-420,218,0,0,0,0,0,0,0,0,0,-1,804,806,0,0
-413,218,0,0,0,0,0,0,0,0,0,-1,811,806,0,0
-406,218,0,0,0,0,0,0,0,0,0,-1,818,806,0,0
-399,218,0,0,0,0,0,0,0,0,0,-1,825,806,0,0
-392,218,0,0,0,0,0,0,0,0,0,-1,832,806,0,0
-385,218,0,0,0,0,0,0,0,0,0,-1,839,806,0,0
-378,218,0,0,0,0,0,0,0,0,0,-1,846,806,0,0
-371,218,0,0,0,0,0,0,0,0,0,-1,853,806,0,0
-364,218,0,0,0,0,0,0,0,0,0,-1,860,806,0,0
-357,218,0,0,0,0,0,0,0,0,0,-1,867,806,0,0
-350,218,0,0,0,0,0,0,0,0,0,-1,874,806,0,0
-343,218,0,0,0,0,0,0,0,0,0,-1,881,806,0,0
-336,218,0,0,0,0,0,0,0,0,0,-1,888,806,0,0
-329,218,0,0,0,0,0,0,0,0,0,-1,895,806,0,0
-322,218,0,0,0,0,0,0,0,0,0,-1,902,806,0,0
-315,218,0,0,0,0,0,0,0,0,0,-1,909,806,0,0
-308,218,0,0,0,0,0,0,0,0,0,-1,916,806,0,0
-301,218,0,0,0,0,0,0,0,0,0,-1,923,806,0,0
-294,218,0,0,0,0,0,0,0,0,0,-1,930,806,0,0
-287,218,0,0,0,0,0,0,0,0,0,-1,937,806,0,0
-280,218,0,0,0,0,0,0,0,0,0,-1,944,806,0,0
-273,218,0,0,0,0,0,0,0,0,0,-1,951,806,0,0
-266,218,0,0,0,0,0,0,0,0,0,-1,958,806,0,0
-259,218,0,0,0,0,0,0,0,0,0,-1,965,806,0,0
-252,218,0,0,0,0,0,0,0,0,0,-1,972,806,0,0
-245,218,0,0,0,0,0,0,0,0,0,-1,979,806,0,0
-238,218,0,0,0,0,0,0,0,0,0,-1,986,806,0,0
-231,218,0,0,0,0,0,0,0,0,0,-1,993,806,0,0
-224,218,0,0,0,0,0,0,0,0,0,-1,1000,806,0,0
-217,218,0,0,0,0,0,0,0,0,0,-1,1007,806,0,0
-210,218,0,0,0,0,0,0,0,0,0,-1,1014,806,0,0
-203,218,0,0,0,0,0,0,0,0,0,-1,1021,806,0,0
-196,218,0,0,0,0,0,0,0,0,0,-1,1028,806,0,0
-189,218,0,0,0,0,0,0,0,0,0,-1,1035,806,0,0
-182,218,0,0,0,0,0,0,0,0,0,-1,1042,806,0,0
-175,218,0,0,0,0,0,0,0,0,0,-1,1049,806,0,0
-168,218,0,0,0,0,0,0,0,0,0,-1,1056,806,0,0
-161,218,0,0,0,0,0,0,0,0,0,-1,1063,806,0,0
-154,218,0,0,0,0,0,0,0,0,0,-1,1070,806,0,0
-147,218,0,0,0,0,0,0,0,0,0,-1,1077,806,0,0
-140,218,0,0,0,0,0,0,0,0,0,-1,1084,806,0,0
-133,218,0,0,0,0,0,0,0,0,0,-1,1091,806,0,0
-126,218,0,0,0,0,0,0,0,0,0,-1,1098,806,0,0
-119,218,0,0,0,0,0,0,0,0,0,-1,1105,806,0,0
-112,218,0,0,0,0,0,0,0,0,0,-1,1112,806,0,0
-105,218,0,0,0,0,0,0,0,0,0,-1,1119,806,0,0
-98,218,0,0,0,0,0,0,0,0,0,-1,1126,806,0,0
-91,218,0,0,0,0,0,0,0,0,0,-1,1133,806,0,0
-84,218,0,0,0,0,0,0,0,0,0,-1,1140,806,0,0
-77,218,0,0,0,0,0,0,0,0,0,-1,1147,806,0,0
-70,218,0,0,0,0,0,0,0,0,0,-1,1154,806,0,0
-63,218,0,0,0,0,0,0,0,0,0,-1,1161,806,0,0
-56,218,0,0,0,0,0,0,0,0,0,-1,1168,806,0,0
-49,218,0,0,0,0,0,0,0,0,0,-1,1175,806,0,0
-42,218,0,0,0,0,0,0,0,0,0,-1,1182,806,0,0
-35,218,0,0,0,0,0,0,0,0,0,-1,1189,806,0,0
-28,218,0,0,0,0,0,0,0,0,0,-1,1196,806,0,0
-21,218,0,0,0,0,0,0,0,0,0,-1,1203,806,0,0
-14,218,0,0,0,0,0,0,0,0,0,-1,1210,806,0,0
-7,218,0,0,0,0,0,0,0,0,0,-1,1217,806,0,0
0,218,0,0,0,0,0,0,0,0,0,-1,1224,806,0,0
7,218,0,0,0,0,0,0,0,0,0,-1,1231,806,0,0
14,218,0,0,0,0,0,0,0,0,0,-1,1238,806,0,0
21,218,0,0,0,0,0,0,0,0,0,-1,1245,806,0,0
28,218,0,0,0,0,0,0,0,0,0,-1,1252,806,0,0
35,218,0,0,0,0,0,0,0,0,0,-1,1259,806,0,0
42,218,0,0,0,0,0,0,0,0,0,-1,1266,806,0,0
49,218,0,0,0,0,0,0,0,0,0,-1,1273,806,0,0
56,218,0,0,0,0,0,0,0,0,0,-1,1280,806,0,0
63,218,0,0,0,0,0,0,0,0,0,-1,1287,806,0,0
70,218,0,0,0,0,0,0,0,0,0,-1,1294,806,0,0
77,218,0,0,0,0,0,0,0,0,0,-1,1301,806,0,0
84,218,0,0,0,0,0,0,0,0,0,-1,1308,806,0,0
91,218,0,0,0,0,0,0,0,0,0,-1,1315,806,0,0
98,218,0,0,0,0,0,0,0,0,0,-1,1322,806,0,0
105,218,0,0,0,0,0,0,0,0,0,-1,1329,806,0,0
112,218,0,0,0,0,0,0,0,0,0,-1,1336,806,0,0
119,218,0,0,0,0,0,0,0,0,0,-1,1343,806,0,0
126,218,0,0,0,0,0,0,0,0,0,-1,1350,806,0,0
133,218,0,0,0,0,0,0,0,0,0,-1,1357,806,0,0
140,218,0,0,0,0,0,0,0,0,0,-1,1364,806,0,0
147,218,0,0,0,0,0,0,0,0,0,-1,1371,806,0,0
154,218,0,0,0,0,0,0,0,0,0,-1,1378,806,0,0
161,218,0,0,0,0,0,0,0,0,0,-1,1385,806,0,0
168,218,0,0,0,0,0,0,0,0,0,-1,1392,806,0,0
175,218,0,0,0,0,0,0,0,0,0,-1,1399,806,0,0
182,218,0,0,0,0,0,0,0,0,0,-1,1406,806,0,0
189,218,0,0,0,0,0,0,0,0,0,-1,1413,806,0,0
196,218,0,0,0,0,0,0,0,0,0,-1,1420,806,0,0
203,218,0,0,0,0,0,0,0,0,0,-1,1427,806,0,0
210,218,0,0,0,0,0,0,0,0,0,-1,1434,806,0,0
217,218,0,0,0,0,0,0,0,0,0,-1,1441,806,0,0
224,218,0,0,0,0,0,0,0,0,0,-1,1448,806,0,0
231,218,0,0,0,0,0,0,0,0,0,-1,1455,806,0,0
238,218,0,0,0,0,0,0,0,0,0,-1,1462,806,0,0
245,218,0,0,0,0,0,0,0,0,0,-1,1469,806,0,0
252,218,0,0,0,0,0,0,0,0,0,-1,1476,806,0,0
259,218,0,0,0,0,0,0,0,0,0,-1,1483,806,0,0
266,218,0,0,0,0,0,0,0,0,0,-1,1490,806,0,0
273,218,0,0,0,0,0,0,0,0,0,-1,1497,806,0,0
280,218,0,0,0,0,0,0,0,0,0,-1,1504,806,0,0
287,218,0,0,0,0,0,0,0,0,0,-1,1511,806,0,0
294,218,0,0,0,0,0,0,0,0,0,-1,1518,806,0,0
301,218,0,0,0,0,0,0,0,0,0,-1,1525,806,0,0
308,218,0,0,0,0,0,0,0,0,0,-1,1532,806,0,0
315,218,0,0,0,0,0,0,0,0,0,-1,1539,806,0,0
322,218,0,0,0,0,0,0,0,0,0,-1,1546,806,0,0
329,218,0,0,0,0,0,0,0,0,0,-1,1553,806,0,0
336,218,0,0,0,0,0,0,0,0,0,-1,1560,806,0,0
343,218,0,0,0,0,0,0,0,0,0,-1,1567,806,0,0
350,218,0,0,0,0,0,0,0,0,0,-1,1574,806,0,0
357,218,0,0,0,0,0,0,0,0,0,-1,1581,806,0,0
364,218,0,0,0,0,0,0,0,0,0,-1,1588,806,0,0
371,218,0,0,0,0,0,0,0,0,0,-1,1595,806,0,0
378,218,0,0,0,0,0,0,0,0,0,-1,1602,806,0,0
385,218,0,0,0,0,0,0,0,0,0,-1,1609,806,0,0
392,218,0,0,0,0,0,0,0,0,0,-1,1616,806,0,0
399,218,0,0,0,0,0,0,0,0,0,-1,1623,806,0,0
406,218,0,0,0,0,0,0,0,0,0,-1,1630,806,0,0
413,218,0,0,0,0,0,0,0,0,0,-1,1637,806,0,0
420,218,0,0,0,0,0,0,0,0,0,-1,1644,806,0,0
427,218,0,0,0,0,0,0,0,0,0,-1,1651,806,0,0
434,218,0,0,0,0,0,0,0,0,0,-1,1658,806,0,0
441,218,0,0,0,0,0,0,0,0,0,-1,1665,806,0,0
448,218,0,0,0,0,0,0,0,0,0,-1,1672,806,0,0
455,218,0,0,0,0,0,0,0,0,0,-1,1679,806,0,0
462,218,0,0,0,0,0,0,0,0,0,-1,1686,806,0,0
469,218,0,0,0,0,0,0,0,0,0,-1,1693,806,0,0
476,218,0,0,0,0,0,0,0,0,0,-1,1700,806,0,0
483,218,0,0,0,0,0,0,0,0,0,-1,1707,806,0,0
490,218,0,0,0,0,0,0,0,0,0,-1,1714,806,0,0
497,218,0,0,0,0,0,0,0,0,0,-1,1721,806,0,0
504,218,0,0,0,0,0,0,0,0,0,-1,1728,806,0,0
511,218,0,0,0,0,0,0,0,0,0,-1,1735,806,0,0
518,218,0,0,0,0,0,0,0,0,0,-1,1742,806,0,0
525,218,0,0,0,0,0,0,0,0,0,-1,1749,806,0,0
532,218,0,0,0,0,0,0,0,0,0,-1,1756,806,0,0
539,218,0,0,0,0,0,0,0,0,0,-1,1763,806,0,0
546,218,0,0,0,0,0,0,0,0,0,-1,1770,806,0,0
553,218,0,0,0,0,0,0,0,0,0,-1,1777,806,0,0
560,218,0,0,0,0,0,0,0,0,0,-1,1784,806,0,0
567,218,0,0,0,0,0,0,0,0,0,-1,1791,806,0,0
574,218,0,0,0,0,0,0,0,0,0,-1,1798,806,0,0
581,218,0,0,0,0,0,0,0,0,0,-1,1805,806,0,0
588,218,0,0,0,0,0,0,0,0,0,-1,1812,806,0,0
595,218,27.7291,3.58331,-0.00268187,0.0037222,-0.000796311,0.00381973,-0.0027794,-1.44892,0.00382576,0.0404587,1819,806,27.7292,-3.58329
602,218,27.6796,3.54352,-0.00173616,0.00335021,-0.00219917,0.00416919,-0.00255514,-1.2143,0.00391939,0.0360671,1826,806,27.6796,-3.5435
609,218,27.6393,3.54175,-0.00199258,0.0034058,-0.0036673,0.00526015,-0.00384693,-1.10264,0.00527903,0.0312374,1833,806,27.6392,-3.54175
616,218,27.6606,3.52777,-0.0026028,0.00299025,-0.00482887,0.00577391,-0.00538647,-1.04786,0.00644474,0.0328093,1840,806,27.6607,-3.52777
623,218,27.7047,3.46167,-0.00315974,0.00250306,-0.0054808,0.00584062,-0.00649729,-1.02382,0.00712666,0.0363472,1847,806,27.7047,-3.46167
630,218,27.7457,3.55255,-0.00362822,0.00183059,-0.00580981,0.00552019,-0.00731781,-1.00499,0.0074362,0.0402846,1854,806,27.7458,-3.55252
637,218,27.7699,3.73871,-0.00400011,0.00131695,-0.00588011,0.00511159,-0.00779475,-0.997707,0.00750496,0.0447374,1861,806,27.7699,-3.7387
644,218,27.7788,3.84686,0,0,0,0,0,0,0,-1,1868,806,27.7788,-3.84687
651,218,21.7771,2.50989,0,0,0,0,0,0,0,-1,1875,806,21.7771,-2.50986
658,218,21.025,2.01959,0,0,0,0,0,0,0,-1,1882,806,21.025,-2.01959
665,218,20.9077,2.10016,-0.0036356,4.35528e-05,-0.00532319,0.00383607,-0.00742812,-0.951763,0.00661268,0.0358425,1889,806,20.9077,-2.10015
672,218,20.7902,2.25775,-0.00338065,-0.000332296,-0.00477511,0.00315599,-0.00686894,-0.939883,0.00591874,0.0131033,1896,806,20.7902,-2.25775
679,218,20.7678,2.54474,-0.00324751,-0.000605828,-0.00404429,0.00232785,-0.00618118,-0.943234,0.00507783,0.012208,1903,806,20.7678,-2.54472
686,218,20.7621,2.85748,-0.00283686,-0.000747484,-0.00329739,0.00166675,-0.0052511,-0.938808,0.0041689,0.0120143,1910,806,20.7621,-2.85751
693,218,20.7534,3.15649,-0.00174789,-0.000818568,-0.00263778,0.00139516,-0.00396162,-0.872582,0.00320888,0.0116487,1917,806,20.7534,-3.15647
700,218,20.7507,3.4527,-0.000736755,-0.00092137,-0.00184651,0.00101975,-0.00267787,-0.760424,0.00220521,0.00977568,1924,806,20.7507,-3.45271
707,218,20.7261,3.76459,0.000251167,-0.000730391,-0.00119474,0.001052,-0.00153122,-0.590514,0.00149996,0.00809664,1931,806,20.726,-3.76458
714,218,20.736,4.08643,0.00161582,0.00018611,-0.000897354,0.00204825,-0.00024632,-0.449059,0.00145457,0.0102806,1938,806,20.736,-4.08645
721,218,20.7635,4.35968,0.00286962,0.000620611,-0.000838448,0.00314779,0.000342438,-0.320345,0.00199421,0.0132175,1945,806,20.7635,-4.35968
728,218,20.7386,4.63776,0.00465423,0.00127395,-0.000855821,0.00485856,0.00106962,-0.234362,0.00294791,0.0193385,1952,806,20.7387,-4.63776
735,218,20.7455,4.98798,0.00733406,0.00217568,-0.000936703,0.00749889,0.00201086,-0.174183,0.00448195,0.0358313,1959,806,20.7454,-4.98799
742,218,20.7676,5.0517,0,0,0,0,0,0,0,-1,1966,806,20.7675,-5.05167
749,218,20.8132,4.59863,0,0,0,0,0,0,0,-1,1973,806,20.8133,-4.59864
756,218,20.2585,4.78265,0,0,0,0,0,0,0,-1,1980,806,20.2586,-4.78266
763,218,19.4998,5.16913,0,0,0,0,0,0,0,-1,1987,806,19.4997,-5.16914
770,218,0,0,0,0,0,0,0,0,0,-1,1994,806,0,0
777,218,0,0,0,0,0,0,0,0,0,-1,2001,806,0,0
784,218,0,0,0,0,0,0,0,0,0,-1,2008,806,0,0
791,218,0,0,0,0,0,0,0,0,0,-1,2015,806,0,0
798,218,0,0,0,0,0,0,0,0,0,-1,2022,806,0,0
805,218,0,0,0,0,0,0,0,0,0,-1,2029,806,0,0
812,218,0,0,0,0,0,0,0,0,0,-1,2036,806,0,0
-700,211,0,0,0,0,0,0,0,0,0,-1,524,813,0,0
-693,211,0,0,0,0,0,0,0,0,0,-1,531,813,0,0
-686,211,0,0,0,0,0,0,0,0,0,-1,538,813,0,0
-679,211,0,0,0,0,0,0,0,0,0,-1,545,813,0,0
-672,211,0,0,0,0,0,0,0,0,0,-1,552,813,0,0
-665,211,0,0,0,0,0,0,0,0,0,-1,559,813,0,0
-658,211,0,0,0,0,0,0,0,0,0,-1,566,813,0,0
-651,211,-15.9993,0.820618,0,0,0,0,0,0,0,-1,573,813,-15.9993,-0.820604
-644,211,-15.8925,0.584595,0,0,0,0,0,0,0,-1,580,813,-15.8925,-0.584597
-637,211,-15.792,0.382507,0,0,0,0,0,0,0,-1,587,813,-15.792,-0.382537
-630,211,-11.3063,3.11835,0,0,0,0,0,0,0,-1,594,813,-11.3063,-3.11837
-623,211,-11.5743,3.40527,0,0,0,0,0,0,0,-1,601,813,-11.5743,-3.4053
-616,211,-13.6893,2.74805,0,0,0,0,0,0,0,-1,608,813,-13.6893,-2.74803
-609,211,-13.7064,2.53491,0.0506307,0.0154645,-0.0122212,0.0544607,0.0116344,-0.303699,0.0331174,0.0387141,615,813,-13.7064,-2.53491
-602,211,-13.7267,2.33093,0.035511,0.0113145,-0.00894934,0.0384613,0.00836419,-0.318445,0.0233574,0.0201482,622,813,-13.7268,-2.33091
-595,211,-13.7404,2.13135,0.0243521,0.00814298,-0.00632151,0.0265259,0.00596914,-0.331212,0.0160682,0.0105836,629,813,-13.7404,-2.13132
-588,211,-13.7439,1.8717,0.0160653,0.00563298,-0.0041925,0.0175413,0.00415695,-0.338512,0.0105843,0.0107241,636,813,-13.7439,-1.87169
-581,211,-13.767,1.59644,0.0100021,0.00365783,-0.00249427,0.0108653,0.00279465,-0.333167,0.00651494,0.0112369,643,813,-13.767,-1.59641
-574,211,-13.7892,1.30042,0.00535151,0.00192496,-0.00127705,0.0057751,0.00150138,-0.320271,0.00345995,0.0128078,650,813,-13.7892,-1.30039
-567,211,-13.7897,1.01068,0.00194725,0.000962087,-0.000313289,0.00203844,0.000870899,-0.283241,0.00118104,0.0201797,657,813,-13.7898,-1.01067
-560,211,-13.7739,0.745911,0.000451027,0.00059173,0.000137341,0.00067569,0.000367067,1.02209,0.000390596,0.0237173,664,813,-13.7739,-0.745909
-553,211,-13.7234,0.483887,-0.000185478,0.00106058,0.00038377,0.00116929,-0.00029419,1.29475,0.000893876,0.0202148,671,813,-13.7235,-0.483889
-546,211,-13.8629,0.277405,-0.00105874,0.00110832,0.00073962,0.00133669,-0.0012871,1.27132,0.00151494,0.0281106,678,813,-13.8629,-0.277421
-539,211,-13.8087,-0.0515137,-0.00151549,0.00139178,0.000887736,0.00164142,-0.00176512,1.29667,0.0019672,0.0213701,685,813,-13.8087,0.0515139
-532,211,-13.8766,-0.19281,0,0,0,0,0,0,0,-1,692,813,-13.8766,0.192836
-525,211,-14.3009,2.3233,0,0,0,0,0,0,0,-1,699,813,-14.3009,-2.3233
-518,211,-15.2227,-0.58606,0,0,0,0,0,0,0,-1,706,813,-15.2227,0.586054
-511,211,-19.8924,1.49225,7.06492e-05,0.00455963,0.000872254,0.00472316,-9.2881e-05,1.38547,0.00318019,0.0432006,713,813,-19.8924,-1.49224
-504,211,-19.1616,2.00964,0.00111687,0.00566066,0.000745744,0.00577992,0.000997606,1.41221,0.00356755,0.0456793,720,813,-19.1616,-2.00962
-497,211,-19.2677,1.66614,0.00262381,0.00687526,0.000455346,0.00692348,0.00257559,1.46529,0.0040407,0.0458453,727,813,-19.2677,-1.66615
-490,211,-19.2917,1.66052,0.00489411,0.00838569,-0.000207358,0.00839796,0.00488183,-1.51169,0.00486989,0.0344865,734,813,-19.2917,-1.66055
-483,211,-19.3076,1.72974,0.00795589,0.0103186,-0.00136413,0.0109418,0.00733269,-1.14226,0.00643804,0.0333121,741,813,-19.3076,-1.72975
-476,211,-19.3521,1.64343,0.0110793,0.0127648,-0.00275507,0.0148031,0.00904097,-0.933827,0.00861619,0.0378564,748,813,-19.3521,-1.64343
-469,211,0,0,0,0,0,0,0,0,0,-1,755,813,0,0
-462,211,0,0,0,0,0,0,0,0,0,-1,762,813,0,0
-455,211,0,0,0,0,0,0,0,0,0,-1,769,813,0,0
-448,211,0,0,0,0,0,0,0,0,0,-1,776,813,0,0
-441,211,0,0,0,0,0,0,0,0,0,-1,783,813,0,0
-434,211,0,0,0,0,0,0,0,0,0,-1,790,813,0,0
-427,211,0,0,0,0,0,0,0,0,0,-1,797,813,0,0
-420,211,0,0,0,0,0,0,0,0,0,-1,804,813,0,0
-413,211,0,0,0,0,0,0,0,0,0,-1,811,813,0,0
-406,211,0,0,0,0,0,0,0,0,0,-1,818,813,0,0
-399,211,0,0,0,0,0,0,0,0,0,-1,825,813,0,0
-392,211,0,0,0,0,0,0,0,0,0,-1,832,813,0,0
-385,211,0,0,0,0,0,0,0,0,0,-1,839,813,0,0
-378,211,0,0,0,0,0,0,0,0,0,-1,846,813,0,0
-371,211,0,0,0,0,0,0,0,0,0,-1,853,813,0,0
-364,211,0,0,0,0,0,0,0,0,0,-1,860,813,0,0
-357,211,0,0,0,0,0,0,0,0,0,-1,867,813,0,0
-350,211,0,0,0,0,0,0,0,0,0,-1,874,813,0,0
-343,211,0,0,0,0,0,0,0,0,0,-1,881,813,0,0
-336,211,0,0,0,0,0,0,0,0,0,-1,888,813,0,0
-329,211,0,0,0,0,0,0,0,0,0,-1,895,813,0,0
-322,211,0,0,0,0,0,0,0,0,0,-1,902,813,0,0
-315,211,0,0,0,0,0,0,0,0,0,-1,909,813,0,0
-308,211,0,0,0,0,0,0,0,0,0,-1,916,813,0,0
-301,211,0,0,0,0,0,0,0,0,0,-1,923,813,0,0
-294,211,0,0,0,0,0,0,0,0,0,-1,930,813,0,0
-287,211,0,0,0,0,0,0,0,0,0,-1,937,813,0,0
-280,211,0,0,0,0,0,0,0,0,0,-1,944,813,0,0
-273,211,0,0,0,0,0,0,0,0,0,-1,951,813,0,0
-266,211,0,0,0,0,0,0,0,0,0,-1,958,813,0,0
-259,211,0,0,0,0,0,0,0,0,0,-1,965,813,0,0
-252,211,0,0,0,0,0,0,0,0,0,-1,972,813,0,0
-245,211,0,0,0,0,0,0,0,0,0,-1,979,813,0,0
-238,211,0,0,0,0,0,0,0,0,0,-1,986,813,0,0
-231,211,0,0,0,0,0,0,0,0,0,-1,993,813,0,0
-224,211,0,0,0,0,0,0,0,0,0,-1,1000,813,0,0
-217,211,0,0,0,0,0,0,0,0,0,-1,1007,813,0,0
-210,211,0,0,0,0,0,0,0,0,0,-1,1014,813,0,0
-203,211,0,0,0,0,0,0,0,0,0,-1,1021,813,0,0
-196,211,0,0,0,0,0,0,0,0,0,-1,1028,813,0,0
-189,211,0,0,0,0,0,0,0,0,0,-1,1035,813,0,0
-182,211,0,0,0,0,0,0,0,0,0,-1,1042,813,0,0
-175,211,0,0,0,0,0,0,0,0,0,-1,1049,813,0,0
-168,211,0,0,0,0,0,0,0,0,0,-1,1056,813,0,0
-161,211,0,0,0,0,0,0,0,0,0,-1,1063,813,0,0
-154,211,0,0,0,0,0,0,0,0,0,-1,1070,813,0,0
-147,211,0,0,0,0,0,0,0,0,0,-1,1077,813,0,0
-140,211,0,0,0,0,0,0,0,0,0,-1,1084,813,0,0
-133,211,0,0,0,0,0,0,0,0,0,-1,1091,813,0,0
-126,211,0,0,0,0,0,0,0,0,0,-1,1098,813,0,0
-119,211,0,0,0,0,0,0,0,0,0,-1,1105,813,0,0
-112,211,0,0,0,0,0,0,0,0,0,-1,1112,813,0,0
-105,211,0,0,0,0,0,0,0,0,0,-1,1119,813,0,0
-98,211,0,0,0,0,0,0,0,0,0,-1,1126,813,0,0
-91,211,0,0,0,0,0,0,0,0,0,-1,1133,813,0,0
-84,211,0,0,0,0,0,0,0,0,0,-1,1140,813,0,0
-77,211,0,0,0,0,0,0,0,0,0,-1,1147,813,0,0
-70,211,0,0,0,0,0,0,0,0,0,-1,1154,813,0,0
-63,211,0,0,0,0,0,0,0,0,0,-1,1161,813,0,0
-56,211,0,0,0,0,0,0,0,0,0,-1,1168,813,0,0
-49,211,0,0,0,0,0,0,0,0,0,-1,1175,813,0,0
-42,211,0,0,0,0,0,0,0,0,0,-1,1182,813,0,0
-35,211,0,0,0,0,0,0,0,0,0,-1,1189,813,0,0
-28,211,0,0,0,0,0,0,0,0,0,-1,1196,813,0,0
-21,211,0,0,0,0,0,0,0,0,0,-1,1203,813,0,0
-14,211,0,0,0,0,0,0,0,0,0,-1,1210,813,0,0
-7,211,0,0,0,0,0,0,0,0,0,-1,1217,813,0,0
0,211,0,0,0,0,0,0,0,0,0,-1,1224,813,0,0
7,211,0,0,0,0,0,0,0,0,0,-1,1231,813,0,0
14,211,0,0,0,0,0,0,0,0,0,-1,1238,813,0,0
21,211,0,0,0,0,0,0,0,0,0,-1,1245,813,0,0
28,211,0,0,0,0,0,0,0,0,0,-1,1252,813,0,0
35,211,0,0,0,0,0,0,0,0,0,-1,1259,813,0,0
42,211,0,0,0,0,0,0,0,0,0,-1,1266,813,0,0
49,211,0,0,0,0,0,0,0,0,0,-1,1273,813,0,0
56,211,0,0,0,0,0,0,0,0,0,-1,1280,813,0,0
63,211,0,0,0,0,0,0,0,0,0,-1,1287,813,0,0
70,211,0,0,0,0,0,0,0,0,0,-1,1294,813,0,0
77,211,0,0,0,0,0,0,0,0,0,-1,1301,813,0,0
84,211,0,0,0,0,0,0,0,0,0,-1,1308,813,0,0
91,211,0,0,0,0,0,0,0,0,0,-1,1315,813,0,0
98,211,0,0,0,0,0,0,0,0,0,-1,1322,813,0,0
105,211,0,0,0,0,0,0,0,0,0,-1,1329,813,0,0
112,211,0,0,0,0,0,0,0,0,0,-1,1336,813,0,0
119,211,0,0,0,0,0,0,0,0,0,-1,1343,813,0,0
126,211,0,0,0,0,0,0,0,0,0,-1,1350,813,0,0
133,211,0,0,0,0,0,0,0,0,0,-1,1357,813,0,0
140,211,0,0,0,0,0,0,0,0,0,-1,1364,813,0,0
147,211,0,0,0,0,0,0,0,0,0,-1,1371,813,0,0
154,211,0,0,0,0,0,0,0,0,0,-1,1378,813,0,0
161,211,0,0,0,0,0,0,0,0,0,-1,1385,813,0,0
168,211,0,0,0,0,0,0,0,0,0,-1,1392,813,0,0
175,211,0,0,0,0,0,0,0,0,0,-1,1399,813,0,0
182,211,0,0,0,0,0,0,0,0,0,-1,1406,813,0,0
189,211,0,0,0,0,0,0,0,0,0,-1,1413,813,0,0
196,211,0,0,0,0,0,0,0,0,0,-1,1420,813,0,0
203,211,0,0,0,0,0,0,0,0,0,-1,1427,813,0,0
210,211,0,0,0,0,0,0,0,0,0,-1,1434,813,0,0
217,211,0,0,0,0,0,0,0,0,0,-1,1441,813,0,0
224,211,0,0,0,0,0,0,0,0,0,-1,1448,813,0,0
231,211,0,0,0,0,0,0,0,0,0,-1,1455,813,0,0
238,211,0,0,0,0,0,0,0,0,0,-1,1462,813,0,0
245,211,0,0,0,0,0,0,0,0,0,-1,1469,813,0,0
252,211,0,0,0,0,0,0,0,0,0,-1,1476,813,0,0
259,211,0,0,0,0,0,0,0,0,0,-1,1483,813,0,0
266,211,0,0,0,0,0,0,0,0,0,-1,1490,813,0,0
273,211,0,0,0,0,0,0,0,0,0,-1,1497,813,0,0
280,211,0,0,0,0,0,0,0,0,0,-1,1504,813,0,0
287,211,0,0,0,0,0,0,0,0,0,-1,1511,813,0,0
294,211,0,0,0,0,0,0,0,0,0,-1,1518,813,0,0
301,211,0,0,0,0,0,0,0,0,0,-1,1525,813,0,0
308,211,0,0,0,0,0,0,0,0,0,-1,1532,813,0,0
315,211,0,0,0,0,0,0,0,0,0,-1,1539,813,0,0
322,211,0,0,0,0,0,0,0,0,0,-1,1546,813,0,0
329,211,0,0,0,0,0,0,0,0,0,-1,1553,813,0,0
336,211,0,0,0,0,0,0,0,0,0,-1,1560,813,0,0
343,211,0,0,0,0,0,0,0,0,0,-1,1567,813,0,0
350,211,0,0,0,0,0,0,0,0,0,-1,1574,813,0,0
357,211,0,0,0,0,0,0,0,0,0,-1,1581,813,0,0
364,211,0,0,0,0,0,0,0,0,0,-1,1588,813,0,0
371,211,0,0,0,0,0,0,0,0,0,-1,1595,813,0,0
378,211,0,0,0,0,0,0,0,0,0,-1,1602,813,0,0
385,211,0,0,0,0,0,0,0,0,0,-1,1609,813,0,0
392,211,0,0,0,0,0,0,0,0,0,-1,1616,813,0,0
399,211,0,0,0,0,0,0,0,0,0,-1,1623,813,0,0
406,211,0,0,0,0,0,0,0,0,0,-1,1630,813,0,0
413,211,0,0,0,0,0,0,0,0,0,-1,1637,813,0,0
420,211,0,0,0,0,0,0,0,0,0,-1,1644,813,0,0
427,211,0,0,0,0,0,0,0,0,0,-1,1651,813,0,0
434,211,0,0,0,0,0,0,0,0,0,-1,1658,813,0,0
441,211,0,0,0,0,0,0,0,0,0,-1,1665,813,0,0
448,211,0,0,0,0,0,0,0,0,0,-1,1672,813,0,0
455,211,0,0,0,0,0,0,0,0,0,-1,1679,813,0,0
462,211,0,0,0,0,0,0,0,0,0,-1,1686,813,0,0
469,211,0,0,0,0,0,0,0,0,0,-1,1693,813,0,0
476,211,0,0,0,0,0,0,0,0,0,-1,1700,813,0,0
483,211,0,0,0,0,0,0,0,0,0,-1,1707,813,0,0
490,211,0,0,0,0,0,0,0,0,0,-1,1714,813,0,0
497,211,0,0,0,0,0,0,0,0,0,-1,1721,813,0,0
504,211,0,0,0,0,0,0,0,0,0,-1,1728,813,0,0
511,211,0,0,0,0,0,0,0,0,0,-1,1735,813,0,0
518,211,0,0,0,0,0,0,0,0,0,-1,1742,813,0,0
525,211,0,0,0,0,0,0,0,0,0,-1,1749,813,0,0
532,211,0,0,0,0,0,0,0,0,0,-1,1756,813,0,0
539,211,0,0,0,0,0,0,0,0,0,-1,1763,813,0,0
546,211,0,0,0,0,0,0,0,0,0,-1,1770,813,0,0
553,211,0,0,0,0,0,0,0,0,0,-1,1777,813,0,0
560,211,0,0,0,0,0,0,0,0,0,-1,1784,813,0,0
567,211,0,0,0,0,0,0,0,0,0,-1,1791,813,0,0
574,211,0,0,0,0,0,0,0,0,0,-1,1798,813,0,0
581,211,0,0,0,0,0,0,0,0,0,-1,1805,813,0,0
588,211,0,0,0,0,0,0,0,0,0,-1,1812,813,0,0
595,211,27.7749,3.47363,-0.00363558,0.00075005,0.00104525,0.000986431,-0.00387196,1.34839,0.00296532,0.041911,1819,813,27.7749,-3.47362
602,211,27.6406,3.52618,-0.00191203,0.0009463,0.000199524,0.000960161,-0.00192589,1.50144,0.00169707,0.0387979,1826,813,27.6407,-3.52617
609,211,27.5948,3.64697,-0.00186762,0.00190558,-0.00139743,0.00236676,-0.00232881,-1.25203,0.00271101,0.0368068,1833,813,27.5948,-3.64696
616,211,27.6713,3.56934,-0.00223286,0.00212522,-0.00299213,0.00364767,-0.00375532,-1.10012,0.00427427,0.0305282,1840,813,27.6713,-3.56935
623,211,27.7107,3.44629,-0.00277339,0.00212698,-0.00417646,0.00451892,-0.00516534,-1.05068,0.00559536,0.0309552,1847,813,27.7107,-3.4463
630,211,27.6858,3.47455,-0.00327647,0.0017495,-0.00493233,0.00477212,-0.00629909,-1.021,0.0064122,0.0364666,1854,813,27.6858,-3.47456
637,211,27.6622,3.54541,-0.00367305,0.00135589,-0.00530221,0.00470964,-0.0070268,-1.00681,0.00681992,0.0397381,1861,813,27.6623,-3.54539
644,211,27.4448,3.60132,-0.00391292,0.0008967,-0.00542199,0.00442325,-0.00743947,-0.994128,0.00692235,0.0378639,1868,813,27.4449,-3.60134
651,211,26.7722,3.32306,-0.00398463,0.000557512,-0.00540695,0.00415098,-0.0075781,-0.984224,0.00686747,0.0433062,1875,813,26.7722,-3.32308
658,211,25.9087,2.83136,0,0,0,0,0,0,0,-1,1882,813,25.9087,-2.83138
665,211,21.0875,2.15479,0,0,0,0,0,0,0,-1,1889,813,21.0876,-2.15476
672,211,21.0367,2.3219,-0.00321802,-0.000341804,-0.004733,0.00316674,-0.00672657,-0.93289,0.00583386,0.0234097,1896,813,21.0368,-2.3219
679,211,21.0685,2.56281,-0.00316752,-0.000613703,-0.00410942,0.00241262,-0.00619385,-0.936033,0.00512631,0.0144153,1903,813,21.0685,-2.56278
686,211,21.0579,2.88422,-0.00292941,-0.000810005,-0.00347726,0.00176545,-0.00550486,-0.933303,0.00437868,0.011562,1910,813,21.0579,-2.88421
693,211,21.0577,3.17126,-0.00197873,-0.000969648,-0.00286437,0.00143428,-0.00438266,-0.872576,0.00349926,0.0113864,1917,813,21.0577,-3.17124
700,211,21.0061,3.45807,-0.000985004,-0.00112837,-0.00207498,0.00101953,-0.0031329,-0.768132,0.00249876,0.0137555,1924,813,21.0061,-3.45807
707,211,20.9882,3.78107,6.41868e-05,-0.0009653,-0.00137136,0.00101423,-0.00191534,-0.605858,0.00171785,0.0209345,1931,813,20.9881,-3.78107
714,211,21.006,4.11395,0.00152137,4.65176e-05,-0.00107843,0.0020904,-0.000522505,-0.485514,0.00159653,0.0220218,1938,813,21.006,-4.11395
721,211,21.0466,4.36285,0.00293204,0.000632453,-0.00101845,0.00331824,0.000246255,-0.362449,0.00213481,0.0166439,1945,813,21.0467,-4.36285
728,211,21.036,4.62109,0.0049011,0.00143368,-0.00106455,0.00520185,0.00113293,-0.275336,0.00315872,0.0151448,1952,813,21.0361,-4.62112
735,211,21.0181,4.93158,0.00779069,0.00258328,-0.00118114,0.00804607,0.0023279,-0.212938,0.00478088,0.0253542,1959,813,21.018,-4.93156
742,211,20.9952,5.06409,0.0121706,0.00442903,-0.00131735,0.0123887,0.004211,-0.164017,0.00727379,0.0491714,1966,813,20.9952,-5.06409
749,211,20.9452,4.85815,0.0187745,0.00746927,-0.00140261,0.0189459,0.00729785,-0.121611,0.0110341,0.0497628,1973,813,20.9452,-4.85816
756,211,20.8191,4.8905,0,0,0,0,0,0,0,-1,1980,813,20.8191,-4.8905
763,211,19.7209,5.85095,0,0,0,0,0,0,0,-1,1987,813,19.7209,-5.85097
770,211,18.9823,6.40405,0,0,0,0,0,0,0,-1,1994,813,18.9822,-6.40403
777,211,0,0,0,0,0,0,0,0,0,-1,2001,813,0,0
784,211,0,0,0,0,0,0,0,0,0,-1,2008,813,0,0
791,211,0,0,0,0,0,0,0,0,0,-1,2015,813,0,0
798,211,0,0,0,0,0,0,0,0,0,-1,2022,813,0,0
805,211,0,0,0,0,0,0,0,0,0,-1,2029,813,0,0
812,211,0,0,0,0,0,0,0,0,0,-1,2036,813,0,0
-700,204,0,0,0,0,0,0,0,0,0,-1,524,820,0,0
-693,204,0,0,0,0,0,0,0,0,0,-1,531,820,0,0
-686,204,0,0,0,0,0,0,0,0,0,-1,538,820,0,0
-679,204,0,0,0,0,0,0,0,0,0,-1,545,820,0,0
-672,204,0,0,0,0,0,0,0,0,0,-1,552,820,0,0
-665,204,0,0,0,0,0,0,0,0,0,-1,559,820,0,0
-658,204,0,0,0,0,0,0,0,0,0,-1,566,820,0,0
-651,204,-15.8956,1.16547,0,0,0,0,0,0,0,-1,573,820,-15.8956,-1.16549
-644,204,-15.9023,0.604126,0,0,0,0,0,0,0,-1,580,820,-15.9023,-0.604137
-637,204,-12.5284,3.62012,0,0,0,0,0,0,0,-1,587,820,-12.5284,-3.62011
-630,204,-12.5209,3.41656,0,0,0,0,0,0,0,-1,594,820,-12.521,-3.41656
-623,204,-12.5124,3.41595,0,0,0,0,0,0,0,-1,601,820,-12.5124,-3.41593
-616,204,-12.2119,2.92468,0,0,0,0,0,0,0,-1,608,820,-12.2119,-2.92465
-609,204,-13.9576,2.56335,0.0321059,0.0157388,-0.0101071,0.0369271,0.0109176,-0.44509,0.0219054,0.0353971,615,820,-13.9576,-2.56332
-602,204,-14.0032,2.3479,0.0224059,0.0112621,-0.00714615,0.0258957,0.00777236,-0.454277,0.0153438,0.0156629,622,820,-14.0033,-2.34791
-595,204,-14.0202,2.09448,0.0154368,0.00780592,-0.00481708,0.0177665,0.0054763,-0.450455,0.0105059,0.0152016,629,820,-14.0202,-2.09447
-588,204,-14.019,1.85583,0.0102587,0.00515432,-0.00304158,0.011677,0.003736,-0.436334,0.00688587,0.0127987,636,820,-14.0191,-1.85583
-581,204,-14.035,1.58893,0.00648369,0.00318044,-0.00170827,0.00720821,0.00245593,-0.401128,0.00423147,0.0127344,643,820,-14.0349,-1.58895
-574,204,-14.0475,1.29987,0.00370082,0.00150234,-0.000759547,0.00393771,0.00126545,-0.302321,0.0023213,0.014111,650,820,-14.0475,-1.29988
-567,204,-14.0273,1.03882,0.00149644,0.000744238,-0.000261358,0.00157833,0.000662343,-0.303653,0.000915165,0.0145045,657,820,-14.0273,-1.0388
-560,204,-14.0466,0.761414,0.000643443,0.000511443,-0.000200152,0.000788196,0.00036669,-0.626137,0.000455432,0.0143089,664,820,-14.0466,-0.76139
-553,204,-14.0637,0.516418,0.000224293,0.00110742,-0.000186078,0.00114503,0.000186687,-1.37138,0.000709359,0.012449,671,820,-14.0638,-0.516393
-546,204,-14.0856,0.304749,-0.000487021,0.00130706,1.42616e-05,0.00130717,-0.000487134,1.56285,0.0010714,0.0191901,678,820,-14.0856,-0.30472
-539,204,-14.0515,-0.0211182,-0.000785318,0.00174114,5.33655e-05,0.00174227,-0.000786445,1.54969,0.00149431,0.0352088,685,820,-14.0514,0.0211339
-532,204,-13.9264,-0.463257,0,0,0,0,0,0,0,-1,692,820,-13.9264,0.463233
-525,204,-19.337,2.19177,0,0,0,0,0,0,0,-1,699,820,-19.337,-2.19179
-518,204,-19.3389,2.03473,0.000107979,0.00418085,1.89012e-05,0.00418094,0.000107892,1.56616,0.00275203,0.0489612,706,820,-19.3389,-2.03474
-511,204,-19.4642,1.64716,0.000667689,0.00511205,-5.48498e-05,0.00511273,0.000667013,-1.55846,0.00320934,0.0454894,713,820,-19.4642,-1.64718
-504,204,-19.2876,1.70862,0.00161766,0.00616741,-6.33861e-05,0.00616829,0.00161678,-1.55687,0.00369318,0.0452094,720,820,-19.2876,-1.70862
-497,204,-19.34,1.56458,0.00302405,0.00725653,-0.000121367,0.00726001,0.00302057,-1.54215,0.00421121,0.039029,727,820,-19.34,-1.56456
-490,204,-19.3301,1.5434,0.00516639,0.00844183,-0.000384556,0.00848637,0.00512184,-1.45548,0.0049345,0.0342557,734,820,-19.3301,-1.54337
-483,204,-19.2947,1.63898,0.00793098,0.00964663,-0.000920589,0.0100471,0.00753049,-1.16046,0.00603667,0.0399684,741,820,-19.2947,-1.63899
-476,204,0,0,0,0,0,0,0,0,0,-1,748,820,0,0
-469,204,0,0,0,0,0,0,0,0,0,-1,755,820,0,0
-462,204,0,0,0,0,0,0,0,0,0,-1,762,820,0,0
-455,204,0,0,0,0,0,0,0,0,0,-1,769,820,0,0
-448,204,0,0,0,0,0,0,0,0,0,-1,776,820,0,0
-441,204,0,0,0,0,0,0,0,0,0,-1,783,820,0,0
-434,204,0,0,0,0,0,0,0,0,0,-1,790,820,0,0
-427,204,0,0,0,0,0,0,0,0,0,-1,797,820,0,0
-420,204,0,0,0,0,0,0,0,0,0,-1,804,820,0,0
-413,204,0,0,0,0,0,0,0,0,0,-1,811,820,0,0
-406,204,0,0,0,0,0,0,0,0,0,-1,818,820,0,0
-399,204,0,0,0,0,0,0,0,0,0,-1,825,820,0,0
-392,204,0,0,0,0,0,0,0,0,0,-1,832,820,0,0
-385,204,0,0,0,0,0,0,0,0,0,-1,839,820,0,0
-378,204,0,0,0,0,0,0,0,0,0,-1,846,820,0,0
-371,204,0,0,0,0,0,0,0,0,0,-1,853,820,0,0
-364,204,0,0,0,0,0,0,0,0,0,-1,860,820,0,0
-357,204,0,0,0,0,0,0,0,0,0,-1,867,820,0,0
-350,204,0,0,0,0,0,0,0,0,0,-1,874,820,0,0
-343,204,0,0,0,0,0,0,0,0,0,-1,881,820,0,0
-336,204,0,0,0,0,0,0,0,0,0,-1,888,820,0,0
-329,204,0,0,0,0,0,0,0,0,0,-1,895,820,0,0
-322,204,0,0,0,0,0,0,0,0,0,-1,902,820,0,0
-315,204,0,0,0,0,0,0,0,0,0,-1,909,820,0,0
-308,204,0,0,0,0,0,0,0,0,0,-1,916,820,0,0
-301,204,0,0,0,0,0,0,0,0,0,-1,923,820,0,0
-294,204,0,0,0,0,0,0,0,0,0,-1,930,820,0,0
-287,204,0,0,0,0,0,0,0,0,0,-1,937,820,0,0
-280,204,0,0,0,0,0,0,0,0,0,-1,944,820,0,0
-273,204,0,0,0,0,0,0,0,0,0,-1,951,820,0,0
-266,204,0,0,0,0,0,0,0,0,0,-1,958,820,0,0
-259,204,0,0,0,0,0,0,0,0,0,-1,965,820,0,0
-252,204,0,0,0,0,0,0,0,0,0,-1,972,820,0,0
-245,204,0,0,0,0,0,0,0,0,0,-1,979,820,0,0
-238,204,0,0,0,0,0,0,0,0,0,-1,986,820,0,0
-231,204,0,0,0,0,0,0,0,0,0,-1,993,820,0,0
-224,204,0,0,0,0,0,0,0,0,0,-1,1000,820,0,0
-217,204,0,0,0,0,0,0,0,0,0,-1,1007,820,0,0
-210,204,0,0,0,0,0,0,0,0,0,-1,1014,820,0,0
-203,204,0,0,0,0,0,0,0,0,0,-1,1021,820,0,0
-196,204,0,0,0,0,0,0,0,0,0,-1,1028,820,0,0
-189,204,0,0,0,0,0,0,0,0,0,-1,1035,820,0,0
-182,204,0,0,0,0,0,0,0,0,0,-1,1042,820,0,0
-175,204,0,0,0,0,0,0,0,0,0,-1,1049,820,0,0
-168,204,0,0,0,0,0,0,0,0,0,-1,1056,820,0,0
-161,204,0,0,0,0,0,0,0,0,0,-1,1063,820,0,0
-154,204,0,0,0,0,0,0,0,0,0,-1,1070,820,0,0
-147,204,0,0,0,0,0,0,0,0,0,-1,1077,820,0,0
-140,204,0,0,0,0,0,0,0,0,0,-1,1084,820,0,0
-133,204,0,0,0,0,0,0,0,0,0,-1,1091,820,0,0
-126,204,0,0,0,0,0,0,0,0,0,-1,1098,820,0,0
-119,204,0,0,0,0,0,0,0,0,0,-1,1105,820,0,0
-112,204,0,0,0,0,0,0,0,0,0,-1,1112,820,0,0
-105,204,0,0,0,0,0,0,0,0,0,-1,1119,820,0,0
-98,204,0,0,0,0,0,0,0,0,0,-1,1126,820,0,0
-91,204,0,0,0,0,0,0,0,0,0,-1,1133,820,0,0
-84,204,0,0,0,0,0,0,0,0,0,-1,1140,820,0,0
-77,204,0,0,0,0,0,0,0,0,0,-1,1147,820,0,0
-70,204,0,0,0,0,0,0,0,0,0,-1,1154,820,0,0
-63,204,0,0,0,0,0,0,0,0,0,-1,1161,820,0,0
-56,204,0,0,0,0,0,0,0,0,0,-1,1168,820,0,0
-49,204,0,0,0,0,0,0,0,0,0,-1,1175,820,0,0
-42,204,0,0,0,0,0,0,0,0,0,-1,1182,820,0,0
-35,204,0,0,0,0,0,0,0,0,0,-1,1189,820,0,0
-28,204,0,0,0,0,0,0,0,0,0,-1,1196,820,0,0
-21,204,0,0,0,0,0,0,0,0,0,-1,1203,820,0,0
-14,204,0,0,0,0,0,0,0,0,0,-1,1210,820,0,0
-7,204,0,0,0,0,0,0,0,0,0,-1,1217,820,0,0
0,204,0,0,0,0,0,0,0,0,0,-1,1224,820,0,0
7,204,0,0,0,0,0,0,0,0,0,-1,1231,820,0,0
14,204,0,0,0,0,0,0,0,0,0,-1,1238,820,0,0
21,204,0,0,0,0,0,0,0,0,0,-1,1245,820,0,0
28,204,0,0,0,0,0,0,0,0,0,-1,1252,820,0,0
35,204,0,0,0,0,0,0,0,0,0,-1,1259,820,0,0
42,204,0,0,0,0,0,0,0,0,0,-1,1266,820,0,0
49,204,0,0,0,0,0,0,0,0,0,-1,1273,820,0,0
56,204,0,0,0,0,0,0,0,0,0,-1,1280,820,0,0
63,204,0,0,0,0,0,0,0,0,0,-1,1287,820,0,0
70,204,0,0,0,0,0,0,0,0,0,-1,1294,820,0,0
77,204,0,0,0,0,0,0,0,0,0,-1,1301,820,0,0
84,204,0,0,0,0,0,0,0,0,0,-1,1308,820,0,0
91,204,0,0,0,0,0,0,0,0,0,-1,1315,820,0,0
98,204,0,0,0,0,0,0,0,0,0,-1,1322,820,0,0
105,204,0,0,0,0,0,0,0,0,0,-1,1329,820,0,0
112,204,0,0,0,0,0,0,0,0,0,-1,1336,820,0,0
119,204,0,0,0,0,0,0,0,0,0,-1,1343,820,0,0
126,204,0,0,0,0,0,0,0,0,0,-1,1350,820,0,0
133,204,0,0,0,0,0,0,0,0,0,-1,1357,820,0,0
140,204,0,0,0,0,0,0,0,0,0,-1,1364,820,0,0
147,204,0,0,0,0,0,0,0,0,0,-1,1371,820,0,0
154,204,0,0,0,0,0,0,0,0,0,-1,1378,820,0,0
161,204,0,0,0,0,0,0,0,0,0,-1,1385,820,0,0
168,204,0,0,0,0,0,0,0,0,0,-1,1392,820,0,0
175,204,0,0,0,0,0,0,0,0,0,-1,1399,820,0,0
182,204,0,0,0,0,0,0,0,0,0,-1,1406,820,0,0
189,204,0,0,0,0,0,0,0,0,0,-1,1413,820,0,0
196,204,0,0,0,0,0,0,0,0,0,-1,1420,820,0,0
203,204,0,0,0,0,0,0,0,0,0,-1,1427,820,0,0
210,204,0,0,0,0,0,0,0,0,0,-1,1434,820,0,0
217,204,0,0,0,0,0,0,0,0,0,-1,1441,820,0,0
224,204,0,0,0,0,0,0,0,0,0,-1,1448,820,0,0
231,204,0,0,0,0,0,0,0,0,0,-1,1455,820,0,0
238,204,0,0,0,0,0,0,0,0,0,-1,1462,820,0,0
245,204,0,0,0,0,0,0,0,0,0,-1,1469,820,0,0
252,204,0,0,0,0,0,0,0,0,0,-1,1476,820,0,0
259,204,0,0,0,0,0,0,0,0,0,-1,1483,820,0,0
266,204,0,0,0,0,0,0,0,0,0,-1,1490,820,0,0
273,204,0,0,0,0,0,0,0,0,0,-1,1497,820,0,0
280,204,0,0,0,0,0,0,0,0,0,-1,1504,820,0,0
287,204,0,0,0,0,0,0,0,0,0,-1,1511,820,0,0
294,204,0,0,0,0,0,0,0,0,0,-1,1518,820,0,0
301,204,0,0,0,0,0,0,0,0,0,-1,1525,820,0,0
308,204,0,0,0,0,0,0,0,0,0,-1,1532,820,0,0
315,204,0,0,0,0,0,0,0,0,0,-1,1539,820,0,0
322,204,0,0,0,0,0,0,0,0,0,-1,1546,820,0,0
329,204,0,0,0,0,0,0,0,0,0,-1,1553,820,0,0
336,204,0,0,0,0,0,0,0,0,0,-1,1560,820,0,0
343,204,0,0,0,0,0,0,0,0,0,-1,1567,820,0,0
350,204,0,0,0,0,0,0,0,0,0,-1,1574,820,0,0
357,204,0,0,0,0,0,0,0,0,0,-1,1581,820,0,0
364,204,0,0,0,0,0,0,0,0,0,-1,1588,820,0,0
371,204,0,0,0,0,0,0,0,0,0,-1,1595,820,0,0
378,204,0,0,0,0,0,0,0,0,0,-1,1602,820,0,0
385,204,0,0,0,0,0,0,0,0,0,-1,1609,820,0,0
392,204,0,0,0,0,0,0,0,0,0,-1,1616,820,0,0
399,204,0,0,0,0,0,0,0,0,0,-1,1623,820,0,0
406,204,0,0,0,0,0,0,0,0,0,-1,1630,820,0,0
413,204,0,0,0,0,0,0,0,0,0,-1,1637,820,0,0
420,204,0,0,0,0,0,0,0,0,0,-1,1644,820,0,0
427,204,0,0,0,0,0,0,0,0,0,-1,1651,820,0,0
434,204,0,0,0,0,0,0,0,0,0,-1,1658,820,0,0
441,204,0,0,0,0,0,0,0,0,0,-1,1665,820,0,0
448,204,0,0,0,0,0,0,0,0,0,-1,1672,820,0,0
455,204,0,0,0,0,0,0,0,0,0,-1,1679,820,0,0
462,204,0,0,0,0,0,0,0,0,0,-1,1686,820,0,0
469,204,0,0,0,0,0,0,0,0,0,-1,1693,820,0,0
476,204,0,0,0,0,0,0,0,0,0,-1,1700,820,0,0
483,204,0,0,0,0,0,0,0,0,0,-1,1707,820,0,0
490,204,0,0,0,0,0,0,0,0,0,-1,1714,820,0,0
497,204,0,0,0,0,0,0,0,0,0,-1,1721,820,0,0
504,204,0,0,0,0,0,0,0,0,0,-1,1728,820,0,0
511,204,0,0,0,0,0,0,0,0,0,-1,1735,820,0,0
518,204,0,0,0,0,0,0,0,0,0,-1,1742,820,0,0
525,204,0,0,0,0,0,0,0,0,0,-1,1749,820,0,0
532,204,0,0,0,0,0,0,0,0,0,-1,1756,820,0,0
539,204,0,0,0,0,0,0,0,0,0,-1,1763,820,0,0
546,204,0,0,0,0,0,0,0,0,0,-1,1770,820,0,0
553,204,0,0,0,0,0,0,0,0,0,-1,1777,820,0,0
560,204,0,0,0,0,0,0,0,0,0,-1,1784,820,0,0
567,204,0,0,0,0,0,0,0,0,0,-1,1791,820,0,0
574,204,0,0,0,0,0,0,0,0,0,-1,1798,820,0,0
581,204,0,0,0,0,0,0,0,0,0,-1,1805,820,0,0
588,204,0,0,0,0,0,0,0,0,0,-1,1812,820,0,0
595,204,0,0,0,0,0,0,0,0,0,-1,1819,820,0,0
602,204,27.7532,3.44904,-0.001566,0.000128757,0.00193401,0.00139288,-0.00283012,0.991874,0.00248478,0.0386531,1826,820,27.7532,-3.44905
609,204,27.652,3.69385,-0.00161821,0.00134034,0.000230304,0.00135816,-0.00163603,1.49357,0.00173117,0.0399713,1833,820,27.652,-3.69384
616,204,27.6384,3.56427,-0.00199104,0.00182102,-0.00166461,0.00244557,-0.0026156,-1.21185,0.00292262,0.0358279,1840,820,27.6384,-3.56429
623,204,27.6302,3.44006,-0.0026073,0.00202254,-0.00325954,0.00370555,-0.00429031,-1.09417,0.00462053,0.0275462,1847,820,27.6303,-3.44007
630,204,27.6709,3.4306,-0.00319952,0.00184137,-0.00435205,0.00435014,-0.00570829,-1.04787,0.00582486,0.0275228,1854,820,27.6708,-3.43058
637,204,27.6475,3.46594,-0.0036203,0.00151789,-0.0049464,0.00452259,-0.006625,-1.02492,0.0064741,0.0329072,1861,820,27.6474,-3.46593
644,204,27.6055,3.51758,-0.00379895,0.00109674,-0.00519814,0.00439456,-0.00709677,-1.00545,0.00669538,0.0369868,1868,820,27.6055,-3.51755
651,204,27.1287,2.98071,-0.00377894,0.000696738,-0.00523761,0.00415455,-0.00723675,-0.987291,0.00665654,0.0427498,1875,820,27.1287,-2.98072
658,204,26.6478,2.51233,0,0,0,0,0,0,0,-1,1882,820,26.6479,-2.51234
665,204,21.3425,2.00476,0,0,0,0,0,0,0,-1,1889,820,21.3426,-2.00476
672,204,21.3077,2.1557,-0.00298463,-0.000332604,-0.00459544,0.00312431,-0.00644154,-0.925858,0.00563245,0.0486651,1896,820,21.3078,-2.15573
679,204,21.3339,2.46039,-0.00292186,-0.000620852,-0.00406596,0.00245424,-0.00599696,-0.923274,0.00502017,0.026515,1903,820,21.3339,-2.46039
686,204,21.355,2.87189,-0.00271574,-0.000853906,-0.00349988,0.00183675,-0.00540639,-0.915381,0.00434782,0.0121321,1910,820,21.355,-2.87189
693,204,21.313,3.14618,-0.00188922,-0.00107684,-0.00294693,0.00149176,-0.00445782,-0.853884,0.00357445,0.0157765,1917,820,21.313,-3.14621
700,204,21.3604,3.43872,-0.00097581,-0.00125822,-0.00220162,0.00108913,-0.00332316,-0.753374,0.00265405,0.0172306,1924,820,21.3603,-3.43873
707,204,21.3271,3.76874,5.56062e-05,-0.00108899,-0.00148304,0.00107294,-0.00210633,-0.601254,0.00186759,0.0158399,1931,820,21.3271,-3.76872
714,204,21.3295,4.12677,0.00150975,1.98346e-05,-0.00121441,0.00218948,-0.000659898,-0.510279,0.00172229,0.0241594,1938,820,21.3294,-4.12675
721,204,21.3212,4.37659,0.00304389,0.000797902,-0.00114024,0.00352129,0.000320501,-0.396509,0.00224832,0.0207635,1945,820,21.3212,-4.37658
728,204,21.3268,4.62079,0.00518785,0.00183311,-0.0011483,0.00554326,0.0014777,-0.300153,0.00331462,0.0128077,1952,820,21.3267,-4.62079
735,204,21.2798,4.90802,0.00824718,0.00327971,-0.00122354,0.00853219,0.0029947,-0.228864,0.00499845,0.0147311,1959,820,21.2797,-4.90799
742,204,21.2726,5.13501,0.0127399,0.0054414,-0.00130546,0.0129664,0.00521493,-0.171774,0.00753375,0.030831,1966,820,21.2726,-5.13503
749,204,21.1479,5.39722,0.0193636,0.00881378,-0.00128207,0.0195171,0.00866021,-0.119214,0.011292,0.0444221,1973,820,21.148,-5.39721
756,204,20.7546,5.96863,0,0,0,0,0,0,0,-1,1980,820,20.7546,-5.96863
763,204,19.9905,6.53284,0,0,0,0,0,0,0,-1,1987,820,19.9905,-6.53285
770,204,19.2761,7.09955,0,0,0,0,0,0,0,-1,1994,820,19.2762,-7.09954
777,204,0,0,0,0,0,0,0,0,0,-1,2001,820,0,0
784,204,0,0,0,0,0,0,0,0,0,-1,2008,820,0,0
791,204,0,0,0,0,0,0,0,0,0,-1,2015,820,0,0
798,204,0,0,0,0,0,0,0,0,0,-1,2022,820,0,0
805,204,0,0,0,0,0,0,0,0,0,-1,2029,820,0,0
812,204,0,0,0,0,0,0,0,0,0,-1,2036,820,0,0
-700,197,0,0,0,0,0,0,0,0,0,-1,524,827,0,0
-693,197,0,0,0,0,0,0,0,0,0,-1,531,827,0,0
-686,197,0,0,0,0,0,0,0,0,0,-1,538,827,0,0
-679,197,0,0,0,0,0,0,0,0,0,-1,545,827,0,0
-672,197,0,0,0,0,0,0,0,0,0,-1,552,827,0,0
-665,197,0,0,0,0,0,0,0,0,0,-1,559,827,0,0
-658,197,-15.635,2.2287,0,0,0,0,0,0,0,-1,566,827,-15.635,-2.22867
-651,197,-15.7,1.71082,0,0,0,0,0,0,0,-1,573,827,-15.7,-1.71084
-644,197,-15.744,1.21051,0,0,0,0,0,0,0,-1,580,827,-15.744,-1.21051
-637,197,-13.742,4.0274,0,0,0,0,0,0,0,-1,587,827,-13.742,-4.02738
-630,197,-14.859,4.17822,0,0,0,0,0,0,0,-1,594,827,-14.859,-4.1782
-623,197,-13.4743,3.46234,0,0,0,0,0,0,0,-1,601,827,-13.4743,-3.46233
-616,197,-14.1467,2.54517,0,0,0,0,0,0,0,-1,608,827,-14.1467,-2.54517
-609,197,-14.2277,2.47644,0.0222712,0.0133134,-0.00551606,0.0248978,0.0106869,-0.444398,0.0144227,0.0330439,615,827,-14.2277,-2.47643
-602,197,-14.2991,2.33453,0.0152162,0.00960637,-0.00405866,0.0173449,0.00747769,-0.483037,0.0100457,0.0168094,622,827,-14.2991,-2.33453
-595,197,-14.3195,2.09381,0.0103558,0.00655603,-0.0027584,0.0118053,0.00510654,-0.483824,0.00683644,0.0172926,629,827,-14.3195,-2.09379
-588,197,-14.3022,1.83514,0.00680606,0.00419934,-0.00169864,0.00764376,0.00336164,-0.458159,0.00442378,0.0185346,636,827,-14.3022,-1.83514
-581,197,-14.3206,1.56891,0.00430397,0.00249833,-0.000882189,0.00466343,0.00213887,-0.38692,0.0026955,0.011519,643,827,-14.3205,-1.56892
-574,197,-14.3214,1.30182,0.00245926,0.00106191,-0.000354628,0.00254411,0.000977067,-0.234844,0.00148195,0.0131122,650,827,-14.3214,-1.3018
-567,197,-14.3128,1.0238,0.00106239,0.000573328,-0.000240637,0.00116093,0.000474781,-0.388689,0.000673957,0.0142395,657,827,-14.3128,-1.02379
-560,197,-14.3295,0.776184,0.000667793,0.00049172,-0.000470839,0.00105875,0.000100758,-0.692976,0.000674763,0.0148115,664,827,-14.3295,-0.776172
-553,197,-14.4105,0.53772,0.000400795,0.00114206,-0.000611526,0.0014865,5.63514e-05,-1.05784,0.000972761,0.0163825,671,827,-14.4105,-0.537744
-546,197,-14.3207,0.287659,-0.000161026,0.00144569,-0.000509265,0.00159351,-0.000308843,-1.2883,0.00117885,0.029049,678,827,-14.3207,-0.287659
-539,197,-14.0068,0.191711,0,0,0,0,0,0,0,-1,685,827,-14.0068,-0.191736
-532,197,-13.812,1.53339,0,0,0,0,0,0,0,-1,692,827,-13.812,-1.53341
-525,197,-19.5006,1.92035,0,0,0,0,0,0,0,-1,699,827,-19.5006,-1.92035
-518,197,-19.4156,1.78638,0.000300979,0.004493,-0.000726657,0.00461539,0.000178592,-1.40394,0.00301915,0.0449663,706,827,-19.4157,-1.78637
-511,197,-19.3889,1.55701,0.000773815,0.00543628,-0.000699772,0.00553904,0.000671054,-1.42499,0.00349058,0.0417221,713,827,-19.3888,-1.55703
-504,197,-19.4552,1.47345,0.00158115,0.00638122,-0.000549903,0.00644341,0.00151896,-1.45818,0.00388944,0.0400276,720,827,-19.4552,-1.47347
-497,197,-19.546,1.39557,0.0027876,0.00723894,-0.000301322,0.00725924,0.0027673,-1.50351,0.00423037,0.0414841,727,827,-19.5459,-1.39558
-490,197,-19.4682,1.36835,0.00470576,0.00790778,-9.02447e-06,0.00790781,0.00470574,-1.56798,0.00459301,0.0394923,734,827,-19.4682,-1.36836
-483,197,-19.2618,1.53546,0.00719225,0.00807687,0.000319381,0.00818012,0.00708899,1.2581,0.00512854,0.0418676,741,827,-19.2619,-1.53548
-476,197,0,0,0,0,0,0,0,0,0,-1,748,827,0,0
-469,197,0,0,0,0,0,0,0,0,0,-1,755,827,0,0
-462,197,0,0,0,0,0,0,0,0,0,-1,762,827,0,0
-455,197,0,0,0,0,0,0,0,0,0,-1,769,827,0,0
-448,197,0,0,0,0,0,0,0,0,0,-1,776,827,0,0
-441,197,0,0,0,0,0,0,0,0,0,-1,783,827,0,0
-434,197,0,0,0,0,0,0,0,0,0,-1,790,827,0,0
-427,197,0,0,0,0,0,0,0,0,0,-1,797,827,0,0
-420,197,0,0,0,0,0,0,0,0,0,-1,804,827,0,0
-413,197,0,0,0,0,0,0,0,0,0,-1,811,827,0,0
-406,197,0,0,0,0,0,0,0,0,0,-1,818,827,0,0
-399,197,0,0,0,0,0,0,0,0,0,-1,825,827,0,0
-392,197,0,0,0,0,0,0,0,0,0,-1,832,827,0,0
-385,197,0,0,0,0,0,0,0,0,0,-1,839,827,0,0
-378,197,0,0,0,0,0,0,0,0,0,-1,846,827,0,0
-371,197,0,0,0,0,0,0,0,0,0,-1,853,827,0,0
-364,197,0,0,0,0,0,0,0,0,0,-1,860,827,0,0
-357,197,0,0,0,0,0,0,0,0,0,-1,867,827,0,0
-350,197,0,0,0,0,0,0,0,0,0,-1,874,827,0,0
-343,197,0,0,0,0,0,0,0,0,0,-1,881,827,0,0
-336,197,0,0,0,0,0,0,0,0,0,-1,888,827,0,0
-329,197,0,0,0,0,0,0,0,0,0,-1,895,827,0,0
-322,197,0,0,0,0,0,0,0,0,0,-1,902,827,0,0
-315,197,0,0,0,0,0,0,0,0,0,-1,909,827,0,0
-308,197,0,0,0,0,0,0,0,0,0,-1,916,827,0,0
-301,197,0,0,0,0,0,0,0,0,0,-1,923,827,0,0
-294,197,0,0,0,0,0,0,0,0,0,-1,930,827,0,0
-287,197,0,0,0,0,0,0,0,0,0,-1,937,827,0,0
-280,197,0,0,0,0,0,0,0,0,0,-1,944,827,0,0
-273,197,0,0,0,0,0,0,0,0,0,-1,951,827,0,0
-266,197,0,0,0,0,0,0,0,0,0,-1,958,827,0,0
-259,197,0,0,0,0,0,0,0,0,0,-1,965,827,0,0
-252,197,0,0,0,0,0,0,0,0,0,-1,972,827,0,0
-245,197,0,0,0,0,0,0,0,0,0,-1,979,827,0,0
-238,197,0,0,0,0,0,0,0,0,0,-1,986,827,0,0
-231,197,0,0,0,0,0,0,0,0,0,-1,993,827,0,0
-224,197,0,0,0,0,0,0,0,0,0,-1,1000,827,0,0
-217,197,0,0,0,0,0,0,0,0,0,-1,1007,827,0,0
-210,197,0,0,0,0,0,0,0,0,0,-1,1014,827,0,0
-203,197,0,0,0,0,0,0,0,0,0,-1,1021,827,0,0
-196,197,0,0,0,0,0,0,0,0,0,-1,1028,827,0,0
-189,197,0,0,0,0,0,0,0,0,0,-1,1035,827,0,0
-182,197,0,0,0,0,0,0,0,0,0,-1,1042,827,0,0
-175,197,0,0,0,0,0,0,0,0,0,-1,1049,827,0,0
-168,197,0,0,0,0,0,0,0,0,0,-1,1056,827,0,0
-161,197,0,0,0,0,0,0,0,0,0,-1,1063,827,0,0
-154,197,0,0,0,0,0,0,0,0,0,-1,1070,827,0,0
-147,197,0,0,0,0,0,0,0,0,0,-1,1077,827,0,0
-140,197,0,0,0,0,0,0,0,0,0,-1,1084,827,0,0
-133,197,0,0,0,0,0,0,0,0,0,-1,1091,827,0,0
-126,197,0,0,0,0,0,0,0,0,0,-1,1098,827,0,0
-119,197,0,0,0,0,0,0,0,0,0,-1,1105,827,0,0
-112,197,0,0,0,0,0,0,0,0,0,-1,1112,827,0,0
-105,197,0,0,0,0,0,0,0,0,0,-1,1119,827,0,0
-98,197,0,0,0,0,0,0,0,0,0,-1,1126,827,0,0
-91,197,0,0,0,0,0,0,0,0,0,-1,1133,827,0,0
-84,197,0,0,0,0,0,0,0,0,0,-1,1140,827,0,0
-77,197,0,0,0,0,0,0,0,0,0,-1,1147,827,0,0
-70,197,0,0,0,0,0,0,0,0,0,-1,1154,827,0,0
-63,197,0,0,0,0,0,0,0,0,0,-1,1161,827,0,0
-56,197,0,0,0,0,0,0,0,0,0,-1,1168,827,0,0
-49,197,0,0,0,0,0,0,0,0,0,-1,1175,827,0,0
-42,197,0,0,0,0,0,0,0,0,0,-1,1182,827,0,0
-35,197,0,0,0,0,0,0,0,0,0,-1,1189,827,0,0
-28,197,0,0,0,0,0,0,0,0,0,-1,1196,827,0,0
-21,197,0,0,0,0,0,0,0,0,0,-1,1203,827,0,0
-14,197,0,0,0,0,0,0,0,0,0,-1,1210,827,0,0
-7,197,0,0,0,0,0,0,0,0,0,-1,1217,827,0,0
0,197,0,0,0,0,0,0,0,0,0,-1,1224,827,0,0
7,197,0,0,0,0,0,0,0,0,0,-1,1231,827,0,0
14,197,0,0,0,0,0,0,0,0,0,-1,1238,827,0,0
21,197,0,0,0,0,0,0,0,0,0,-1,1245,827,0,0
28,197,0,0,0,0,0,0,0,0,0,-1,1252,827,0,0
35,197,0,0,0,0,0,0,0,0,0,-1,1259,827,0,0
42,197,0,0,0,0,0,0,0,0,0,-1,1266,827,0,0
49,197,0,0,0,0,0,0,0,0,0,-1,1273,827,0,0
56,197,0,0,0,0,0,0,0,0,0,-1,1280,827,0,0
63,197,0,0,0,0,0,0,0,0,0,-1,1287,827,0,0
70,197,0,0,0,0,0,0,0,0,0,-1,1294,827,0,0
77,197,0,0,0,0,0,0,0,0,0,-1,1301,827,0,0
84,197,0,0,0,0,0,0,0,0,0,-1,1308,827,0,0
91,197,0,0,0,0,0,0,0,0,0,-1,1315,827,0,0
98,197,0,0,0,0,0,0,0,0,0,-1,1322,827,0,0
105,197,0,0,0,0,0,0,0,0,0,-1,1329,827,0,0
112,197,0,0,0,0,0,0,0,0,0,-1,1336,827,0,0
119,197,0,0,0,0,0,0,0,0,0,-1,1343,827,0,0
126,197,0,0,0,0,0,0,0,0,0,-1,1350,827,0,0
133,197,0,0,0,0,0,0,0,0,0,-1,1357,827,0,0
140,197,0,0,0,0,0,0,0,0,0,-1,1364,827,0,0
147,197,0,0,0,0,0,0,0,0,0,-1,1371,827,0,0
154,197,0,0,0,0,0,0,0,0,0,-1,1378,827,0,0
161,197,0,0,0,0,0,0,0,0,0,-1,1385,827,0,0
168,197,0,0,0,0,0,0,0,0,0,-1,1392,827,0,0
175,197,0,0,0,0,0,0,0,0,0,-1,1399,827,0,0
182,197,0,0,0,0,0,0,0,0,0,-1,1406,827,0,0
189,197,0,0,0,0,0,0,0,0,0,-1,1413,827,0,0
196,197,0,0,0,0,0,0,0,0,0,-1,1420,827,0,0
203,197,0,0,0,0,0,0,0,0,0,-1,1427,827,0,0
210,197,0,0,0,0,0,0,0,0,0,-1,1434,827,0,0
217,197,0,0,0,0,0,0,0,0,0,-1,1441,827,0,0
224,197,0,0,0,0,0,0,0,0,0,-1,1448,827,0,0
231,197,0,0,0,0,0,0,0,0,0,-1,1455,827,0,0
238,197,0,0,0,0,0,0,0,0,0,-1,1462,827,0,0
245,197,0,0,0,0,0,0,0,0,0,-1,1469,827,0,0
252,197,0,0,0,0,0,0,0,0,0,-1,1476,827,0,0
259,197,0,0,0,0,0,0,0,0,0,-1,1483,827,0,0
266,197,0,0,0,0,0,0,0,0,0,-1,1490,827,0,0
273,197,0,0,0,0,0,0,0,0,0,-1,1497,827,0,0
280,197,0,0,0,0,0,0,0,0,0,-1,1504,827,0,0
287,197,0,0,0,0,0,0,0,0,0,-1,1511,827,0,0
294,197,0,0,0,0,0,0,0,0,0,-1,1518,827,0,0
301,197,0,0,0,0,0,0,0,0,0,-1,1525,827,0,0
308,197,0,0,0,0,0,0,0,0,0,-1,1532,827,0,0
315,197,0,0,0,0,0,0,0,0,0,-1,1539,827,0,0
322,197,0,0,0,0,0,0,0,0,0,-1,1546,827,0,0
329,197,0,0,0,0,0,0,0,0,0,-1,1553,827,0,0
336,197,0,0,0,0,0,0,0,0,0,-1,1560,827,0,0
343,197,0,0,0,0,0,0,0,0,0,-1,1567,827,0,0
350,197,0,0,0,0,0,0,0,0,0,-1,1574,827,0,0
357,197,0,0,0,0,0,0,0,0,0,-1,1581,827,0,0
364,197,0,0,0,0,0,0,0,0,0,-1,1588,827,0,0
371,197,0,0,0,0,0,0,0,0,0,-1,1595,827,0,0
378,197,0,0,0,0,0,0,0,0,0,-1,1602,827,0,0
385,197,0,0,0,0,0,0,0,0,0,-1,1609,827,0,0
392,197,0,0,0,0,0,0,0,0,0,-1,1616,827,0,0
399,197,0,0,0,0,0,0,0,0,0,-1,1623,827,0,0
406,197,0,0,0,0,0,0,0,0,0,-1,1630,827,0,0
413,197,0,0,0,0,0,0,0,0,0,-1,1637,827,0,0
420,197,0,0,0,0,0,0,0,0,0,-1,1644,827,0,0
427,197,0,0,0,0,0,0,0,0,0,-1,1651,827,0,0
434,197,0,0,0,0,0,0,0,0,0,-1,1658,827,0,0
441,197,0,0,0,0,0,0,0,0,0,-1,1665,827,0,0
448,197,0,0,0,0,0,0,0,0,0,-1,1672,827,0,0
455,197,0,0,0,0,0,0,0,0,0,-1,1679,827,0,0
462,197,0,0,0,0,0,0,0,0,0,-1,1686,827,0,0
469,197,0,0,0,0,0,0,0,0,0,-1,1693,827,0,0
476,197,0,0,0,0,0,0,0,0,0,-1,1700,827,0,0
483,197,0,0,0,0,0,0,0,0,0,-1,1707,827,0,0
490,197,0,0,0,0,0,0,0,0,0,-1,1714,827,0,0
497,197,0,0,0,0,0,0,0,0,0,-1,1721,827,0,0
504,197,0,0,0,0,0,0,0,0,0,-1,1728,827,0,0
511,197,0,0,0,0,0,0,0,0,0,-1,1735,827,0,0
518,197,0,0,0,0,0,0,0,0,0,-1,1742,827,0,0
525,197,0,0,0,0,0,0,0,0,0,-1,1749,827,0,0
532,197,0,0,0,0,0,0,0,0,0,-1,1756,827,0,0
539,197,0,0,0,0,0,0,0,0,0,-1,1763,827,0,0
546,197,0,0,0,0,0,0,0,0,0,-1,1770,827,0,0
553,197,0,0,0,0,0,0,0,0,0,-1,1777,827,0,0
560,197,0,0,0,0,0,0,0,0,0,-1,1784,827,0,0
567,197,0,0,0,0,0,0,0,0,0,-1,1791,827,0,0
574,197,0,0,0,0,0,0,0,0,0,-1,1798,827,0,0
581,197,0,0,0,0,0,0,0,0,0,-1,1805,827,0,0
588,197,0,0,0,0,0,0,0,0,0,-1,1812,827,0,0
595,197,0,0,0,0,0,0,0,0,0,-1,1819,827,0,0
602,197,27.8081,3.37781,-0.00136281,7.16734e-05,0.00297948,0.00241902,-0.00371016,0.903515,0.00356476,0.0408612,1826,827,27.8081,-3.37778
609,197,27.7258,3.60065,-0.00137651,0.00126239,0.00129149,0.00178926,-0.00190338,1.18345,0.00213229,0.041657,1833,827,27.7259,-3.60067
616,197,27.7256,3.56781,-0.0016289,0.00178807,-0.000675783,0.00191687,-0.0017577,-1.38247,0.00212218,0.039238,1840,827,27.7256,-3.56779
623,197,27.6139,3.45837,-0.00222688,0.0020168,-0.00248259,0.00316076,-0.00337084,-1.139,0.00377167,0.0366085,1847,827,27.6138,-3.4584
630,197,27.7203,3.39191,-0.00283672,0.00192648,-0.00378626,0.00401789,-0.00492812,-1.06614,0.00517389,0.0313918,1854,827,27.7203,-3.39188
637,197,27.7217,3.40302,-0.00326765,0.00160276,-0.00452778,0.00430867,-0.00597356,-1.03213,0.00596233,0.0288765,1861,827,27.7216,-3.40303
644,197,27.6763,3.4538,-0.00341809,0.00117899,-0.00484944,0.00424705,-0.00648615,-1.00671,0.0062416,0.0336536,1868,827,27.6762,-3.45379
651,197,27.4287,3.0094,-0.00334148,0.000731003,-0.00490281,0.0040036,-0.00661408,-0.98222,0.00619157,0.0461207,1875,827,27.4287,-3.00941
658,197,27.2505,2.74634,0,0,0,0,0,0,0,-1,1882,827,27.2504,-2.74637
665,197,14.0618,1.80304,0,0,0,0,0,0,0,-1,1889,827,14.0617,-1.80303
672,197,21.7733,2.10016,0,0,0,0,0,0,0,-1,1896,827,21.7733,-2.10018
679,197,21.7139,2.57056,-0.00254625,-0.00068817,-0.00384126,0.00233481,-0.00556922,-0.904048,0.00468902,0.032972,1903,827,21.7139,-2.57056
686,197,21.6346,2.87933,-0.00237445,-0.000935049,-0.00334181,0.00176368,-0.00507318,-0.89146,0.00409852,0.0178087,1910,827,21.6346,-2.87933
693,197,21.6373,3.16736,-0.0016913,-0.00118402,-0.00285532,0.0014289,-0.00430423,-0.829698,0.00344599,0.0141576,1917,827,21.6373,-3.16737
700,197,21.6504,3.46002,-0.000886827,-0.00135689,-0.00218731,0.00107804,-0.00332176,-0.731877,0.00264804,0.0206561,1924,827,21.6504,-3.46002
707,197,21.662,3.76013,8.02039e-05,-0.00115267,-0.00150488,0.00109001,-0.00216248,-0.59101,0.00191155,0.00931888,1931,827,21.662,-3.76014
714,197,21.6348,4.05231,0.00146306,2.7154e-05,-0.0012984,0.00222879,-0.00073857,-0.532844,0.00178376,0.0114343,1938,827,21.6348,-4.05231
721,197,21.6367,4.33978,0.00304948,0.000995805,-0.00124511,0.00363655,0.000408734,-0.440589,0.00230026,0.0117985,1945,827,21.6367,-4.33978
728,197,21.6271,4.63654,0.00527812,0.00227618,-0.00125898,0.00573621,0.00181809,-0.348972,0.00338498,0.0105707,1952,827,21.6271,-4.63652
735,197,21.6068,4.91962,0.00840445,0.00397863,-0.00139268,0.00880622,0.00357686,-0.280859,0.00511402,0.0109786,1959,827,21.6068,-4.91959
742,197,21.5997,5.20734,0.0128345,0.0063639,-0.00154294,0.0131836,0.00601481,-0.222502,0.00762127,0.0198337,1966,827,21.5997,-5.20735
749,197,21.5074,5.78094,0.019136,0.00987162,-0.00163432,0.0194158,0.00959176,-0.169592,0.01121,0.0426952,1973,827,21.5075,-5.78095
756,197,21.3926,6.31812,0,0,0,0,0,0,0,-1,1980,827,21.3926,-6.31814
763,197,22.313,6.96399,0.0395446,0.0222771,-0.00145943,0.039667,0.0221547,-0.0837278,0.022954,0.0405861,1987,827,22.313,-6.96402
770,197,22.96,7.32111,0,0,0,0,0,0,0,-1,1994,827,22.96,-7.32113
777,197,0,0,0,0,0,0,0,0,0,-1,2001,827,0,0
784,197,0,0,0,0,0,0,0,0,0,-1,2008,827,0,0
791,197,0,0,0,0,0,0,0,0,0,-1,2015,827,0,0
798,197,0,0,0,0,0,0,0,0,0,-1,2022,827,0,0
805,197,0,0,0,0,0,0,0,0,0,-1,2029,827,0,0
812,197,0,0,0,0,0,0,0,0,0,-1,2036,827,0,0
-700,190,0,0,0,0,0,0,0,0,0,-1,524,834,0,0
-693,190,0,0,0,0,0,0,0,0,0,-1,531,834,0,0
-686,190,0,0,0,0,0,0,0,0,0,-1,538,834,0,0
-679,190,0,0,0,0,0,0,0,0,0,-1,545,834,0,0
-672,190,0,0,0,0,0,0,0,0,0,-1,552,834,0,0
-665,190,0,0,0,0,0,0,0,0,0,-1,559,834,0,0
-658,190,-14.9769,1.95441,0,0,0,0,0,0,0,-1,566,834,-14.977,-1.95439
-651,190,-15.4526,2.04431,0,0,0,0,0,0,0,-1,573,834,-15.4526,-2.04431
-644,190,-15.5843,1.71387,0,0,0,0,0,0,0,-1,580,834,-15.5843,-1.71388
-637,190,-15.0934,4.01965,0,0,0,0,0,0,0,-1,587,834,-15.0935,-4.01967
-630,190,-15.013,3.78644,0.0489375,0.0195129,-0.00099699,0.0489713,0.0194791,-0.0338311,0.0284699,0.0493323,594,834,-15.013,-3.78643
-623,190,-14.4464,3.4743,0.0352367,0.0165524,-0.00223062,0.0354994,0.0162898,-0.117191,0.0205187,0.0474123,601,834,-14.4463,-3.47431
-616,190,-14.4651,2.86163,0.024807,0.013396,-0.00245961,0.0253146,0.0128885,-0.203511,0.0146162,0.0454733,608,834,-14.4651,-2.86162
-609,190,-14.5493,2.55267,0.0169854,0.0104743,-0.00240117,0.0177751,0.00968456,-0.317748,0.0102762,0.0244131,615,834,-14.5493,-2.55265
-602,190,-14.5822,2.34534,0.0112981,0.00770338,-0.00200298,0.0121919,0.00680956,-0.419725,0.00705506,0.015097,622,834,-14.5822,-2.34536
-595,190,-14.5925,2.10779,0.00749849,0.00517504,-0.00138864,0.00814727,0.00452626,-0.43707,0.0047135,0.0165004,629,834,-14.5925,-2.10776
-588,190,-14.6022,1.83484,0.00482567,0.003223,-0.000803804,0.00515934,0.00288932,-0.393468,0.00298589,0.014567,636,834,-14.6022,-1.83483
-581,190,-14.6102,1.57751,0.0031301,0.00187393,-0.000326955,0.00321011,0.00179393,-0.239979,0.00185763,0.0107818,643,834,-14.6102,-1.57754
-574,190,-14.5972,1.29657,0.00190739,0.000736291,-9.03409e-05,0.00191432,0.000729363,-0.0765384,0.00111562,0.0105928,650,834,-14.5972,-1.29659
-567,190,-14.576,0.99292,0.00103523,0.000503863,-0.000254441,0.00113742,0.000401677,-0.381892,0.000666064,0.013559,657,834,-14.5761,-0.9929
-560,190,-14.6362,0.757874,0.000927953,0.000577846,-0.000715488,0.00148949,1.63083e-05,-0.665424,0.000987603,0.0251964,664,834,-14.6361,-0.757877
-553,190,-14.6862,0.522949,0.000772208,0.00126096,-0.00100194,0.00204789,-1.47242e-05,-0.905015,0.0013702,0.0223212,671,834,-14.6862,-0.522969
-546,190,-14.5997,0.268738,0.000314464,0.00163305,-0.000990346,0.00216348,-0.000215971,-1.07907,0.00151944,0.0432425,678,834,-14.5997,-0.268711
-539,190,-14.531,0.0894165,0,0,0,0,0,0,0,-1,685,834,-14.531,-0.0894323
-532,190,-15.7824,0.986023,0,0,0,0,0,0,0,-1,692,834,-15.7824,-0.985997
-525,190,-19.6279,1.56665,0,0,0,0,0,0,0,-1,699,834,-19.6279,-1.56668
-518,190,-19.4942,1.51141,0.000374588,0.00462756,-0.00139982,0.00504694,-4.4795e-05,-1.27971,0.00337966,0.0464809,706,834,-19.4942,-1.51143
-511,190,-19.4587,1.38043,0.000608296,0.00547767,-0.00125184,0.00578065,0.000305319,-1.33334,0.00375613,0.043047,713,834,-19.4587,-1.38041
-504,190,-19.7486,1.42346,0.00105508,0.00620472,-0.000877711,0.00635021,0.000909589,-1.40653,0.00396521,0.0451547,720,834,-19.7486,-1.42345
-497,190,-20.0976,1.46674,0.00187071,0.00669211,-0.000252077,0.00670525,0.00185757,-1.5187,0.00399753,0.0462319,727,834,-20.0976,-1.46675
-490,190,-20.2239,1.48273,0,0,0,0,0,0,0,-1,734,834,-20.2239,-1.48273
-483,190,0,0,0,0,0,0,0,0,0,-1,741,834,0,0
-476,190,0,0,0,0,0,0,0,0,0,-1,748,834,0,0
-469,190,0,0,0,0,0,0,0,0,0,-1,755,834,0,0
-462,190,0,0,0,0,0,0,0,0,0,-1,762,834,0,0
-455,190,0,0,0,0,0,0,0,0,0,-1,769,834,0,0
-448,190,0,0,0,0,0,0,0,0,0,-1,776,834,0,0
-441,190,0,0,0,0,0,0,0,0,0,-1,783,834,0,0
-434,190,0,0,0,0,0,0,0,0,0,-1,790,834,0,0
-427,190,0,0,0,0,0,0,0,0,0,-1,797,834,0,0
-420,190,0,0,0,0,0,0,0,0,0,-1,804,834,0,0
-413,190,0,0,0,0,0,0,0,0,0,-1,811,834,0,0
-406,190,0,0,0,0,0,0,0,0,0,-1,818,834,0,0
-399,190,0,0,0,0,0,0,0,0,0,-1,825,834,0,0
-392,190,0,0,0,0,0,0,0,0,0,-1,832,834,0,0
-385,190,0,0,0,0,0,0,0,0,0,-1,839,834,0,0
-378,190,0,0,0,0,0,0,0,0,0,-1,846,834,0,0
-371,190,0,0,0,0,0,0,0,0,0,-1,853,834,0,0
-364,190,0,0,0,0,0,0,0,0,0,-1,860,834,0,0
-357,190,0,0,0,0,0,0,0,0,0,-1,867,834,0,0
-350,190,0,0,0,0,0,0,0,0,0,-1,874,834,0,0
-343,190,0,0,0,0,0,0,0,0,0,-1,881,834,0,0
-336,190,0,0,0,0,0,0,0,0,0,-1,888,834,0,0
-329,190,0,0,0,0,0,0,0,0,0,-1,895,834,0,0
-322,190,0,0,0,0,0,0,0,0,0,-1,902,834,0,0
-315,190,0,0,0,0,0,0,0,0,0,-1,909,834,0,0
-308,190,0,0,0,0,0,0,0,0,0,-1,916,834,0,0
-301,190,0,0,0,0,0,0,0,0,0,-1,923,834,0,0
-294,190,0,0,0,0,0,0,0,0,0,-1,930,834,0,0
-287,190,0,0,0,0,0,0,0,0,0,-1,937,834,0,0
-280,190,0,0,0,0,0,0,0,0,0,-1,944,834,0,0
-273,190,0,0,0,0,0,0,0,0,0,-1,951,834,0,0
-266,190,0,0,0,0,0,0,0,0,0,-1,958,834,0,0
-259,190,0,0,0,0,0,0,0,0,0,-1,965,834,0,0
-252,190,0,0,0,0,0,0,0,0,0,-1,972,834,0,0
-245,190,0,0,0,0,0,0,0,0,0,-1,979,834,0,0
-238,190,0,0,0,0,0,0,0,0,0,-1,986,834,0,0
-231,190,0,0,0,0,0,0,0,0,0,-1,993,834,0,0
-224,190,0,0,0,0,0,0,0,0,0,-1,1000,834,0,0
-217,190,0,0,0,0,0,0,0,0,0,-1,1007,834,0,0
-210,190,0,0,0,0,0,0,0,0,0,-1,1014,834,0,0
-203,190,0,0,0,0,0,0,0,0,0,-1,1021,834,0,0
-196,190,0,0,0,0,0,0,0,0,0,-1,1028,834,0,0
-189,190,0,0,0,0,0,0,0,0,0,-1,1035,834,0,0
-182,190,0,0,0,0,0,0,0,0,0,-1,1042,834,0,0
-175,190,0,0,0,0,0,0,0,0,0,-1,1049,834,0,0
-168,190,0,0,0,0,0,0,0,0,0,-1,1056,834,0,0
-161,190,0,0,0,0,0,0,0,0,0,-1,1063,834,0,0
-154,190,0,0,0,0,0,0,0,0,0,-1,1070,834,0,0
-147,190,0,0,0,0,0,0,0,0,0,-1,1077,834,0,0
-140,190,0,0,0,0,0,0,0,0,0,-1,1084,834,0,0
-133,190,0,0,0,0,0,0,0,0,0,-1,1091,834,0,0
-126,190,0,0,0,0,0,0,0,0,0,-1,1098,834,0,0
-119,190,0,0,0,0,0,0,0,0,0,-1,1105,834,0,0
-112,190,0,0,0,0,0,0,0,0,0,-1,1112,834,0,0
-105,190,0,0,0,0,0,0,0,0,0,-1,1119,834,0,0
-98,190,0,0,0,0,0,0,0,0,0,-1,1126,834,0,0
-91,190,0,0,0,0,0,0,0,0,0,-1,1133,834,0,0
-84,190,0,0,0,0,0,0,0,0,0,-1,1140,834,0,0
-77,190,0,0,0,0,0,0,0,0,0,-1,1147,834,0,0
-70,190,0,0,0,0,0,0,0,0,0,-1,1154,834,0,0
-63,190,0,0,0,0,0,0,0,0,0,-1,1161,834,0,0
-56,190,0,0,0,0,0,0,0,0,0,-1,1168,834,0,0
-49,190,0,0,0,0,0,0,0,0,0,-1,1175,834,0,0
-42,190,0,0,0,0,0,0,0,0,0,-1,1182,834,0,0
-35,190,0,0,0,0,0,0,0,0,0,-1,1189,834,0,0
-28,190,0,0,0,0,0,0,0,0,0,-1,1196,834,0,0
-21,190,0,0,0,0,0,0,0,0,0,-1,1203,834,0,0
-14,190,0,0,0,0,0,0,0,0,0,-1,1210,834,0,0
-7,190,0,0,0,0,0,0,0,0,0,-1,1217,834,0,0
0,190,0,0,0,0,0,0,0,0,0,-1,1224,834,0,0
7,190,0,0,0,0,0,0,0,0,0,-1,1231,834,0,0
14,190,0,0,0,0,0,0,0,0,0,-1,1238,834,0,0
21,190,0,0,0,0,0,0,0,0,0,-1,1245,834,0,0
28,190,0,0,0,0,0,0,0,0,0,-1,1252,834,0,0
35,190,0,0,0,0,0,0,0,0,0,-1,1259,834,0,0
42,190,0,0,0,0,0,0,0,0,0,-1,1266,834,0,0
49,190,0,0,0,0,0,0,0,0,0,-1,1273,834,0,0
56,190,0,0,0,0,0,0,0,0,0,-1,1280,834,0,0
63,190,0,0,0,0,0,0,0,0,0,-1,1287,834,0,0
70,190,0,0,0,0,0,0,0,0,0,-1,1294,834,0,0
77,190,0,0,0,0,0,0,0,0,0,-1,1301,834,0,0
84,190,0,0,0,0,0,0,0,0,0,-1,1308,834,0,0
91,190,0,0,0,0,0,0,0,0,0,-1,1315,834,0,0
98,190,0,0,0,0,0,0,0,0,0,-1,1322,834,0,0
105,190,0,0,0,0,0,0,0,0,0,-1,1329,834,0,0
112,190,0,0,0,0,0,0,0,0,0,-1,1336,834,0,0
119,190,0,0,0,0,0,0,0,0,0,-1,1343,834,0,0
126,190,0,0,0,0,0,0,0,0,0,-1,1350,834,0,0
133,190,0,0,0,0,0,0,0,0,0,-1,1357,834,0,0
140,190,0,0,0,0,0,0,0,0,0,-1,1364,834,0,0
147,190,0,0,0,0,0,0,0,0,0,-1,1371,834,0,0
154,190,0,0,0,0,0,0,0,0,0,-1,1378,834,0,0
161,190,0,0,0,0,0,0,0,0,0,-1,1385,834,0,0
168,190,0,0,0,0,0,0,0,0,0,-1,1392,834,0,0
175,190,0,0,0,0,0,0,0,0,0,-1,1399,834,0,0
182,190,0,0,0,0,0,0,0,0,0,-1,1406,834,0,0
189,190,0,0,0,0,0,0,0,0,0,-1,1413,834,0,0
196,190,0,0,0,0,0,0,0,0,0,-1,1420,834,0,0
203,190,0,0,0,0,0,0,0,0,0,-1,1427,834,0,0
210,190,0,0,0,0,0,0,0,0,0,-1,1434,834,0,0
217,190,0,0,0,0,0,0,0,0,0,-1,1441,834,0,0
224,190,0,0,0,0,0,0,0,0,0,-1,1448,834,0,0
231,190,0,0,0,0,0,0,0,0,0,-1,1455,834,0,0
238,190,0,0,0,0,0,0,0,0,0,-1,1462,834,0,0
245,190,0,0,0,0,0,0,0,0,0,-1,1469,834,0,0
252,190,0,0,0,0,0,0,0,0,0,-1,1476,834,0,0
259,190,0,0,0,0,0,0,0,0,0,-1,1483,834,0,0
266,190,0,0,0,0,0,0,0,0,0,-1,1490,834,0,0
273,190,0,0,0,0,0,0,0,0,0,-1,1497,834,0,0
280,190,0,0,0,0,0,0,0,0,0,-1,1504,834,0,0
287,190,0,0,0,0,0,0,0,0,0,-1,1511,834,0,0
294,190,0,0,0,0,0,0,0,0,0,-1,1518,834,0,0
301,190,0,0,0,0,0,0,0,0,0,-1,1525,834,0,0
308,190,0,0,0,0,0,0,0,0,0,-1,1532,834,0,0
315,190,0,0,0,0,0,0,0,0,0,-1,1539,834,0,0
322,190,0,0,0,0,0,0,0,0,0,-1,1546,834,0,0
329,190,0,0,0,0,0,0,0,0,0,-1,1553,834,0,0
336,190,0,0,0,0,0,0,0,0,0,-1,1560,834,0,0
343,190,0,0,0,0,0,0,0,0,0,-1,1567,834,0,0
350,190,0,0,0,0,0,0,0,0,0,-1,1574,834,0,0
357,190,0,0,0,0,0,0,0,0,0,-1,1581,834,0,0
364,190,0,0,0,0,0,0,0,0,0,-1,1588,834,0,0
371,190,0,0,0,0,0,0,0,0,0,-1,1595,834,0,0
378,190,0,0,0,0,0,0,0,0,0,-1,1602,834,0,0
385,190,0,0,0,0,0,0,0,0,0,-1,1609,834,0,0
392,190,0,0,0,0,0,0,0,0,0,-1,1616,834,0,0
399,190,0,0,0,0,0,0,0,0,0,-1,1623,834,0,0
406,190,0,0,0,0,0,0,0,0,0,-1,1630,834,0,0
413,190,0,0,0,0,0,0,0,0,0,-1,1637,834,0,0
420,190,0,0,0,0,0,0,0,0,0,-1,1644,834,0,0
427,190,0,0,0,0,0,0,0,0,0,-1,1651,834,0,0
434,190,0,0,0,0,0,0,0,0,0,-1,1658,834,0,0
441,190,0,0,0,0,0,0,0,0,0,-1,1665,834,0,0
448,190,0,0,0,0,0,0,0,0,0,-1,1672,834,0,0
455,190,0,0,0,0,0,0,0,0,0,-1,1679,834,0,0
462,190,0,0,0,0,0,0,0,0,0,-1,1686,834,0,0
469,190,0,0,0,0,0,0,0,0,0,-1,1693,834,0,0
476,190,0,0,0,0,0,0,0,0,0,-1,1700,834,0,0
483,190,0,0,0,0,0,0,0,0,0,-1,1707,834,0,0
490,190,0,0,0,0,0,0,0,0,0,-1,1714,834,0,0
497,190,0,0,0,0,0,0,0,0,0,-1,1721,834,0,0
504,190,0,0,0,0,0,0,0,0,0,-1,1728,834,0,0
511,190,0,0,0,0,0,0,0,0,0,-1,1735,834,0,0
518,190,0,0,0,0,0,0,0,0,0,-1,1742,834,0,0
525,190,0,0,0,0,0,0,0,0,0,-1,1749,834,0,0
532,190,0,0,0,0,0,0,0,0,0,-1,1756,834,0,0
539,190,0,0,0,0,0,0,0,0,0,-1,1763,834,0,0
546,190,0,0,0,0,0,0,0,0,0,-1,1770,834,0,0
553,190,0,0,0,0,0,0,0,0,0,-1,1777,834,0,0
560,190,0,0,0,0,0,0,0,0,0,-1,1784,834,0,0
567,190,0,0,0,0,0,0,0,0,0,-1,1791,834,0,0
574,190,0,0,0,0,0,0,0,0,0,-1,1798,834,0,0
581,190,0,0,0,0,0,0,0,0,0,-1,1805,834,0,0
588,190,0,0,0,0,0,0,0,0,0,-1,1812,834,0,0
595,190,0,0,0,0,0,0,0,0,0,-1,1819,834,0,0
602,190,27.7837,3.57172,-0.00112833,0.000468837,0.00382565,0.00357837,-0.00423786,0.888293,0.00451805,0.0440552,1826,834,27.7837,-3.57173
609,190,27.6444,3.81549,-0.000972713,0.00138153,0.00217572,0.00267814,-0.00226933,1.03336,0.00285968,0.0420654,1833,834,27.6445,-3.81552
616,190,27.6833,3.73242,-0.00100836,0.00175594,0.000263401,0.00178082,-0.00103323,1.47664,0.00164369,0.0400584,1840,834,27.6834,-3.73242
623,190,27.6091,3.77051,-0.00151411,0.00185188,-0.00160803,0.00249659,-0.00215882,-1.18948,0.00269016,0.0396029,1847,834,27.6092,-3.77049
630,190,27.688,3.67206,-0.00211565,0.00174947,-0.00304466,0.00342312,-0.0037893,-1.06818,0.00416588,0.0399576,1854,834,27.688,-3.67207
637,190,27.7139,3.50964,-0.00257462,0.00138442,-0.00392385,0.0037998,-0.00498999,-1.01901,0.00509027,0.0346481,1861,834,27.7138,-3.50967
644,190,27.6665,3.51373,-0.00274852,0.000933939,-0.00432105,0.00378969,-0.00560427,-0.986802,0.00545723,0.0280097,1868,834,27.6665,-3.51371
651,190,27.6256,3.2486,0,0,0,0,0,0,0,-1,1875,834,27.6256,-3.24857
658,190,27.9464,3.52795,0,0,0,0,0,0,0,-1,1882,834,27.9464,-3.52793
665,190,25.9916,3.05157,0,0,0,0,0,0,0,-1,1889,834,25.9916,-3.05156
672,190,22.2963,2.6524,0,0,0,0,0,0,0,-1,1896,834,22.2963,-2.65244
679,190,22.0402,2.85834,-0.00208979,-0.000877716,-0.00348515,0.0020537,-0.0050212,-0.871483,0.00420276,0.0398902,1903,834,22.0402,-2.85832
686,190,21.8777,2.96252,-0.00195441,-0.00105987,-0.00304598,0.0015715,-0.00458578,-0.858297,0.00369417,0.0161574,1910,834,21.8777,-2.96255
693,190,21.9188,3.19873,-0.00142488,-0.00125622,-0.00262142,0.00128222,-0.00396333,-0.801477,0.00315763,0.0122469,1917,834,21.9189,-3.19871
700,190,21.9252,3.50323,-0.000764911,-0.00137767,-0.00205454,0.00100597,-0.00314855,-0.711383,0.00250268,0.0106602,1924,834,21.9252,-3.50322
707,190,21.9368,3.78198,0.000105362,-0.00113875,-0.00145917,0.00106954,-0.00210293,-0.58391,0.00186373,0.0128319,1931,834,21.9368,-3.78198
714,190,21.9271,4.0473,0.00137632,2.84634e-06,-0.00135089,0.00220501,-0.00082584,-0.550242,0.00180924,0.0119708,1938,834,21.9271,-4.04733
721,190,21.917,4.34894,0.00295565,0.00103555,-0.00136707,0.0036661,0.000325103,-0.479274,0.00234323,0.0113758,1945,834,21.9171,-4.34891
728,190,21.9154,4.62958,0.0052199,0.00241702,-0.00144059,0.00582827,0.00180865,-0.399586,0.00344472,0.0130427,1952,834,21.9154,-4.62955
735,190,21.9249,4.89856,0.00837565,0.00421841,-0.00164972,0.00895075,0.00364331,-0.335432,0.00519741,0.0117976,1959,834,21.9249,-4.89859
742,190,21.9174,5.22998,0.0127295,0.00664229,-0.00189176,0.0132695,0.00610229,-0.278057,0.0076694,0.0156142,1966,834,21.9174,-5.22998
749,190,21.9066,5.62292,0.0187697,0.0100812,-0.00210665,0.0192535,0.00959739,-0.22576,0.0111161,0.0394575,1973,834,21.9067,-5.62292
756,190,21.9409,6.03235,0.027084,0.0149686,-0.00222744,0.0274805,0.014572,-0.17618,0.0158756,0.0470095,1980,834,21.9409,-6.03237
763,190,22.5176,6.45801,0.0378795,0.0218714,-0.00220552,0.0381778,0.0215731,-0.134439,0.0221041,0.0433389,1987,834,22.5176,-6.45802
770,190,23.4137,6.93817,0,0,0,0,0,0,0,-1,1994,834,23.4137,-6.93819
777,190,22.2739,4.59698,0,0,0,0,0,0,0,-1,2001,834,22.2739,-4.59696
784,190,0,0,0,0,0,0,0,0,0,-1,2008,834,0,0
791,190,0,0,0,0,0,0,0,0,0,-1,2015,834,0,0
798,190,0,0,0,0,0,0,0,0,0,-1,2022,834,0,0
805,190,0,0,0,0,0,0,0,0,0,-1,2029,834,0,0
812,190,0,0,0,0,0,0,0,0,0,-1,2036,834,0,0
-700,183,0,0,0,0,0,0,0,0,0,-1,524,841,0,0
-693,183,0,0,0,0,0,0,0,0,0,-1,531,841,0,0
-686,183,0,0,0,0,0,0,0,0,0,-1,538,841,0,0
-679,183,0,0,0,0,0,0,0,0,0,-1,545,841,0,0
-672,183,0,0,0,0,0,0,0,0,0,-1,552,841,0,0
-665,183,0,0,0,0,0,0,0,0,0,-1,559,841,0,0
-658,183,-15.1046,2.56299,0,0,0,0,0,0,0,-1,566,841,-15.1046,-2.563
-651,183,-15.2452,2.43842,0,0,0,0,0,0,0,-1,573,841,-15.2452,-2.4384
-644,183,-15.3791,2.25159,0,0,0,0,0,0,0,-1,580,841,-15.3791,-2.25156
-637,183,-15.2534,3.62225,0,0,0,0,0,0,0,-1,587,841,-15.2534,-3.62228
-630,183,-15.1554,3.37854,0.0343907,0.0124176,0.00785822,0.0369118,0.00989651,0.310446,0.0220618,0.0460884,594,841,-15.1554,-3.37856
-623,183,-15.0306,3.14978,0.0241978,0.0112997,0.00432426,0.0255134,0.0099841,0.295336,0.0148457,0.0469252,601,841,-15.0306,-3.14977
-616,183,-14.8215,2.88733,0.0164508,0.00962762,0.00223349,0.0171169,0.00896154,0.289829,0.00988607,0.0401119,608,841,-14.8214,-2.88733
-609,183,-14.8305,2.62018,0.0107407,0.00788769,0.000653852,0.0108835,0.00774499,0.214889,0.00646846,0.0165473,615,841,-14.8305,-2.62017
-602,183,-14.8425,2.36621,0.00670885,0.00593044,-9.91224e-05,0.00672128,0.00591802,-0.124688,0.00423855,0.0109191,622,841,-14.8424,-2.36623
-595,183,-14.8541,2.10272,0.00423002,0.00388729,-0.000155499,0.00429005,0.00382726,-0.368453,0.00271893,0.0099363,629,841,-14.8541,-2.10272
-588,183,-14.8637,1.83441,0.00264272,0.00232508,-6.37732e-05,0.00265504,0.00231275,-0.19092,0.00166768,0.00985359,636,841,-14.8637,-1.83444
-581,183,-14.8779,1.58423,0.00182974,0.00133336,5.87325e-05,0.0018366,0.00132651,0.116184,0.00109472,0.0111065,643,841,-14.8779,-1.58423
-574,183,-14.8591,1.32623,0.00126332,0.000472065,2.16763e-05,0.00126391,0.000471472,0.0273675,0.000737521,0.0115521,650,841,-14.8592,-1.32623
-567,183,-14.7912,1.03363,0.000929028,0.000456707,-0.000372895,0.00113425,0.000251481,-0.503119,0.000687841,0.0237604,657,841,-14.7912,-1.03365
-560,183,-14.9431,0.839478,0.00109041,0.000610936,-0.000990464,0.00186974,-0.000168391,-0.666659,0.00130625,0.0278946,664,841,-14.9431,-0.839452
-553,183,-14.8895,0.483887,0.00102995,0.00124403,-0.0013751,0.00251625,-0.000242265,-0.82424,0.00176381,0.0236372,671,841,-14.8896,-0.483917
-546,183,-14.5067,0.201172,0,0,0,0,0,0,0,-1,678,841,-14.5067,-0.2012
-539,183,-15.0552,-0.0128784,0,0,0,0,0,0,0,-1,685,841,-15.0552,0.0128712
-532,183,-19.1064,2.05133,0,0,0,0,0,0,0,-1,692,841,-19.1065,-2.0513
-525,183,-19.5315,1.52032,0.000672866,0.00365827,-0.00201432,0.00467268,-0.000341548,-1.10427,0.00323499,0.0473217,699,841,-19.5315,-1.52033
-518,183,-19.4706,1.35785,0.000582336,0.00445899,-0.00197603,0.00528866,-0.000247337,-1.17328,0.00361104,0.0456312,706,841,-19.4706,-1.35785
-511,183,-19.3724,1.35791,0,0,0,0,0,0,0,-1,713,841,-19.3724,-1.35793
-504,183,-19.6185,1.41156,0,0,0,0,0,0,0,-1,720,841,-19.6185,-1.41153
-497,183,-19.8646,1.46515,0,0,0,0,0,0,0,-1,727,841,-19.8646,-1.46513
-490,183,-19.5007,1.4682,0,0,0,0,0,0,0,-1,734,841,-19.5007,-1.46819
-483,183,0,0,0,0,0,0,0,0,0,-1,741,841,0,0
-476,183,0,0,0,0,0,0,0,0,0,-1,748,841,0,0
-469,183,0,0,0,0,0,0,0,0,0,-1,755,841,0,0
-462,183,0,0,0,0,0,0,0,0,0,-1,762,841,0,0
-455,183,0,0,0,0,0,0,0,0,0,-1,769,841,0,0
-448,183,0,0,0,0,0,0,0,0,0,-1,776,841,0,0
-441,183,0,0,0,0,0,0,0,0,0,-1,783,841,0,0
-434,183,0,0,0,0,0,0,0,0,0,-1,790,841,0,0
-427,183,0,0,0,0,0,0,0,0,0,-1,797,841,0,0
-420,183,0,0,0,0,0,0,0,0,0,-1,804,841,0,0
-413,183,0,0,0,0,0,0,0,0,0,-1,811,841,0,0
-406,183,0,0,0,0,0,0,0,0,0,-1,818,841,0,0
-399,183,0,0,0,0,0,0,0,0,0,-1,825,841,0,0
-392,183,0,0,0,0,0,0,0,0,0,-1,832,841,0,0
-385,183,0,0,0,0,0,0,0,0,0,-1,839,841,0,0
-378,183,0,0,0,0,0,0,0,0,0,-1,846,841,0,0
-371,183,0,0,0,0,0,0,0,0,0,-1,853,841,0,0
-364,183,0,0,0,0,0,0,0,0,0,-1,860,841,0,0
-357,183,0,0,0,0,0,0,0,0,0,-1,867,841,0,0
-350,183,0,0,0,0,0,0,0,0,0,-1,874,841,0,0
-343,183,0,0,0,0,0,0,0,0,0,-1,881,841,0,0
-336,183,0,0,0,0,0,0,0,0,0,-1,888,841,0,0
-329,183,0,0,0,0,0,0,0,0,0,-1,895,841,0,0
-322,183,0,0,0,0,0,0,0,0,0,-1,902,841,0,0
-315,183,0,0,0,0,0,0,0,0,0,-1,909,841,0,0
-308,183,0,0,0,0,0,0,0,0,0,-1,916,841,0,0
-301,183,0,0,0,0,0,0,0,0,0,-1,923,841,0,0
-294,183,0,0,0,0,0,0,0,0,0,-1,930,841,0,0
-287,183,0,0,0,0,0,0,0,0,0,-1,937,841,0,0
-280,183,0,0,0,0,0,0,0,0,0,-1,944,841,0,0
-273,183,0,0,0,0,0,0,0,0,0,-1,951,841,0,0
-266,183,0,0,0,0,0,0,0,0,0,-1,958,841,0,0
-259,183,0,0,0,0,0,0,0,0,0,-1,965,841,0,0
-252,183,0,0,0,0,0,0,0,0,0,-1,972,841,0,0
-245,183,0,0,0,0,0,0,0,0,0,-1,979,841,0,0
-238,183,0,0,0,0,0,0,0,0,0,-1,986,841,0,0
-231,183,0,0,0,0,0,0,0,0,0,-1,993,841,0,0
-224,183,0,0,0,0,0,0,0,0,0,-1,1000,841,0,0
-217,183,0,0,0,0,0,0,0,0,0,-1,1007,841,0,0
-210,183,0,0,0,0,0,0,0,0,0,-1,1014,841,0,0
-203,183,0,0,0,0,0,0,0,0,0,-1,1021,841,0,0
-196,183,0,0,0,0,0,0,0,0,0,-1,1028,841,0,0
-189,183,0,0,0,0,0,0,0,0,0,-1,1035,841,0,0
-182,183,0,0,0,0,0,0,0,0,0,-1,1042,841,0,0
-175,183,0,0,0,0,0,0,0,0,0,-1,1049,841,0,0
-168,183,0,0,0,0,0,0,0,0,0,-1,1056,841,0,0
-161,183,0,0,0,0,0,0,0,0,0,-1,1063,841,0,0
-154,183,0,0,0,0,0,0,0,0,0,-1,1070,841,0,0
-147,183,0,0,0,0,0,0,0,0,0,-1,1077,841,0,0
-140,183,0,0,0,0,0,0,0,0,0,-1,1084,841,0,0
-133,183,0,0,0,0,0,0,0,0,0,-1,1091,841,0,0
-126,183,0,0,0,0,0,0,0,0,0,-1,1098,841,0,0
-119,183,0,0,0,0,0,0,0,0,0,-1,1105,841,0,0
-112,183,0,0,0,0,0,0,0,0,0,-1,1112,841,0,0
-105,183,0,0,0,0,0,0,0,0,0,-1,1119,841,0,0
-98,183,0,0,0,0,0,0,0,0,0,-1,1126,841,0,0
-91,183,0,0,0,0,0,0,0,0,0,-1,1133,841,0,0
-84,183,0,0,0,0,0,0,0,0,0,-1,1140,841,0,0
-77,183,0,0,0,0,0,0,0,0,0,-1,1147,841,0,0
-70,183,0,0,0,0,0,0,0,0,0,-1,1154,841,0,0
-63,183,0,0,0,0,0,0,0,0,0,-1,1161,841,0,0
-56,183,0,0,0,0,0,0,0,0,0,-1,1168,841,0,0
-49,183,0,0,0,0,0,0,0,0,0,-1,1175,841,0,0
-42,183,0,0,0,0,0,0,0,0,0,-1,1182,841,0,0
-35,183,0,0,0,0,0,0,0,0,0,-1,1189,841,0,0
-28,183,0,0,0,0,0,0,0,0,0,-1,1196,841,0,0
-21,183,0,0,0,0,0,0,0,0,0,-1,1203,841,0,0
-14,183,0,0,0,0,0,0,0,0,0,-1,1210,841,0,0
-7,183,0,0,0,0,0,0,0,0,0,-1,1217,841,0,0
0,183,0,0,0,0,0,0,0,0,0,-1,1224,841,0,0
7,183,0,0,0,0,0,0,0,0,0,-1,1231,841,0,0
14,183,0,0,0,0,0,0,0,0,0,-1,1238,841,0,0
21,183,0,0,0,0,0,0,0,0,0,-1,1245,841,0,0
28,183,0,0,0,0,0,0,0,0,0,-1,1252,841,0,0
35,183,0,0,0,0,0,0,0,0,0,-1,1259,841,0,0
42,183,0,0,0,0,0,0,0,0,0,-1,1266,841,0,0
49,183,0,0,0,0,0,0,0,0,0,-1,1273,841,0,0
56,183,0,0,0,0,0,0,0,0,0,-1,1280,841,0,0
63,183,0,0,0,0,0,0,0,0,0,-1,1287,841,0,0
70,183,0,0,0,0,0,0,0,0,0,-1,1294,841,0,0
77,183,0,0,0,0,0,0,0,0,0,-1,1301,841,0,0
84,183,0,0,0,0,0,0,0,0,0,-1,1308,841,0,0
91,183,0,0,0,0,0,0,0,0,0,-1,1315,841,0,0
98,183,0,0,0,0,0,0,0,0,0,-1,1322,841,0,0
105,183,0,0,0,0,0,0,0,0,0,-1,1329,841,0,0
112,183,0,0,0,0,0,0,0,0,0,-1,1336,841,0,0
119,183,0,0,0,0,0,0,0,0,0,-1,1343,841,0,0
126,183,0,0,0,0,0,0,0,0,0,-1,1350,841,0,0
133,183,0,0,0,0,0,0,0,0,0,-1,1357,841,0,0
140,183,0,0,0,0,0,0,0,0,0,-1,1364,841,0,0
147,183,0,0,0,0,0,0,0,0,0,-1,1371,841,0,0
154,183,0,0,0,0,0,0,0,0,0,-1,1378,841,0,0
161,183,0,0,0,0,0,0,0,0,0,-1,1385,841,0,0
168,183,0,0,0,0,0,0,0,0,0,-1,1392,841,0,0
175,183,0,0,0,0,0,0,0,0,0,-1,1399,841,0,0
182,183,0,0,0,0,0,0,0,0,0,-1,1406,841,0,0
189,183,0,0,0,0,0,0,0,0,0,-1,1413,841,0,0
196,183,0,0,0,0,0,0,0,0,0,-1,1420,841,0,0
203,183,0,0,0,0,0,0,0,0,0,-1,1427,841,0,0
210,183,0,0,0,0,0,0,0,0,0,-1,1434,841,0,0
217,183,0,0,0,0,0,0,0,0,0,-1,1441,841,0,0
224,183,0,0,0,0,0,0,0,0,0,-1,1448,841,0,0
231,183,0,0,0,0,0,0,0,0,0,-1,1455,841,0,0
238,183,0,0,0,0,0,0,0,0,0,-1,1462,841,0,0
245,183,0,0,0,0,0,0,0,0,0,-1,1469,841,0,0
252,183,0,0,0,0,0,0,0,0,0,-1,1476,841,0,0
259,183,0,0,0,0,0,0,0,0,0,-1,1483,841,0,0
266,183,0,0,0,0,0,0,0,0,0,-1,1490,841,0,0
273,183,0,0,0,0,0,0,0,0,0,-1,1497,841,0,0
280,183,0,0,0,0,0,0,0,0,0,-1,1504,841,0,0
287,183,0,0,0,0,0,0,0,0,0,-1,1511,841,0,0
294,183,0,0,0,0,0,0,0,0,0,-1,1518,841,0,0
301,183,0,0,0,0,0,0,0,0,0,-1,1525,841,0,0
308,183,0,0,0,0,0,0,0,0,0,-1,1532,841,0,0
315,183,0,0,0,0,0,0,0,0,0,-1,1539,841,0,0
322,183,0,0,0,0,0,0,0,0,0,-1,1546,841,0,0
329,183,0,0,0,0,0,0,0,0,0,-1,1553,841,0,0
336,183,0,0,0,0,0,0,0,0,0,-1,1560,841,0,0
343,183,0,0,0,0,0,0,0,0,0,-1,1567,841,0,0
350,183,0,0,0,0,0,0,0,0,0,-1,1574,841,0,0
357,183,0,0,0,0,0,0,0,0,0,-1,1581,841,0,0
364,183,0,0,0,0,0,0,0,0,0,-1,1588,841,0,0
371,183,0,0,0,0,0,0,0,0,0,-1,1595,841,0,0
378,183,0,0,0,0,0,0,0,0,0,-1,1602,841,0,0
385,183,0,0,0,0,0,0,0,0,0,-1,1609,841,0,0
392,183,0,0,0,0,0,0,0,0,0,-1,1616,841,0,0
399,183,0,0,0,0,0,0,0,0,0,-1,1623,841,0,0
406,183,0,0,0,0,0,0,0,0,0,-1,1630,841,0,0
413,183,0,0,0,0,0,0,0,0,0,-1,1637,841,0,0
420,183,0,0,0,0,0,0,0,0,0,-1,1644,841,0,0
427,183,0,0,0,0,0,0,0,0,0,-1,1651,841,0,0
434,183,0,0,0,0,0,0,0,0,0,-1,1658,841,0,0
441,183,0,0,0,0,0,0,0,0,0,-1,1665,841,0,0
448,183,0,0,0,0,0,0,0,0,0,-1,1672,841,0,0
455,183,0,0,0,0,0,0,0,0,0,-1,1679,841,0,0
462,183,0,0,0,0,0,0,0,0,0,-1,1686,841,0,0
469,183,0,0,0,0,0,0,0,0,0,-1,1693,841,0,0
476,183,0,0,0,0,0,0,0,0,0,-1,1700,841,0,0
483,183,0,0,0,0,0,0,0,0,0,-1,1707,841,0,0
490,183,0,0,0,0,0,0,0,0,0,-1,1714,841,0,0
497,183,0,0,0,0,0,0,0,0,0,-1,1721,841,0,0
504,183,0,0,0,0,0,0,0,0,0,-1,1728,841,0,0
511,183,0,0,0,0,0,0,0,0,0,-1,1735,841,0,0
518,183,0,0,0,0,0,0,0,0,0,-1,1742,841,0,0
525,183,0,0,0,0,0,0,0,0,0,-1,1749,841,0,0
532,183,0,0,0,0,0,0,0,0,0,-1,1756,841,0,0
539,183,0,0,0,0,0,0,0,0,0,-1,1763,841,0,0
546,183,0,0,0,0,0,0,0,0,0,-1,1770,841,0,0
553,183,0,0,0,0,0,0,0,0,0,-1,1777,841,0,0
560,183,0,0,0,0,0,0,0,0,0,-1,1784,841,0,0
567,183,0,0,0,0,0,0,0,0,0,-1,1791,841,0,0
574,183,0,0,0,0,0,0,0,0,0,-1,1798,841,0,0
581,183,0,0,0,0,0,0,0,0,0,-1,1805,841,0,0
588,183,0,0,0,0,0,0,0,0,0,-1,1812,841,0,0
595,183,0,0,0,0,0,0,0,0,0,-1,1819,841,0,0
602,183,0,0,0,0,0,0,0,0,0,-1,1826,841,0,0
609,183,27.5247,4.03864,-0.000197798,0.00083882,0.00240636,0.00278206,-0.00214104,0.891473,0.00285037,0.0392434,1833,841,27.5247,-4.03862
616,183,27.5649,3.94476,-0.000285618,0.0010926,0.000715623,0.00139696,-0.000589981,1.16866,0.00117828,0.0393243,1840,841,27.565,-3.94476
623,183,27.6351,3.9115,-0.000826966,0.00112071,-0.000975821,0.00152549,-0.00123175,-1.17759,0.0015949,0.0429168,1847,841,27.6351,-3.9115
630,183,27.6825,3.74341,-0.00144538,0.00109295,-0.00234239,0.00248792,-0.00284034,-1.03367,0.00307851,0.0407697,1854,841,27.6825,-3.7434
637,183,27.6843,3.56018,-0.00192849,0.000790335,-0.0032463,0.00295036,-0.00408851,-0.983684,0.00408157,0.0353759,1861,841,27.6843,-3.56019
644,183,27.6022,3.521,-0.00211251,0.000386787,-0.00368015,0.00302367,-0.0047494,-0.949072,0.0045245,0.0273172,1868,841,27.6022,-3.52099
651,183,27.6279,3.53259,-0.00205721,-2.83191e-05,-0.00379308,0.00288363,-0.00496916,-0.916063,0.00458679,0.0249414,1875,841,27.6279,-3.53259
658,183,27.8483,3.42786,-0.0018744,-0.000311574,-0.00382322,0.00280927,-0.00499524,-0.886203,0.00456447,0.0458515,1882,841,27.8483,-3.42785
665,183,28.0668,3.3172,0,0,0,0,0,0,0,-1,1889,841,28.0667,-3.31721
672,183,22.2664,2.90564,0,0,0,0,0,0,0,-1,1896,841,22.2664,-2.90564
679,183,22.2723,2.90912,-0.00156298,-0.00110788,-0.00303908,0.00171216,-0.00438302,-0.822766,0.00362992,0.0427042,1903,841,22.2723,-2.90911
686,183,22.2589,2.97687,-0.00142807,-0.00119465,-0.00267517,0.00136636,-0.00398907,-0.807198,0.00321318,0.0189916,1910,841,22.2589,-2.97685
693,183,22.2628,3.24152,-0.00105869,-0.00132712,-0.00231352,0.00112451,-0.00351032,-0.756423,0.00279159,0.0153095,1917,841,22.2628,-3.24153
700,183,22.243,3.5293,-0.000540502,-0.00139746,-0.00186439,0.000944011,-0.00288197,-0.672448,0.00230145,0.0140772,1924,841,22.2431,-3.52928
707,183,22.2196,3.80573,0.000225115,-0.00112711,-0.0013911,0.00109571,-0.0019977,-0.559196,0.00181111,0.0118489,1931,841,22.2196,-3.8057
714,183,22.1998,4.06952,0.00137138,-7.61913e-05,-0.00136017,0.00218834,-0.00089316,-0.540889,0.00183074,0.0164793,1938,841,22.1999,-4.06951
721,183,22.1902,4.33862,0.00289968,0.000949125,-0.00142622,0.00365219,0.000196607,-0.485507,0.00237198,0.0148575,1945,841,22.1902,-4.33862
728,183,22.1873,4.62292,0.00512116,0.00234548,-0.00156995,0.00582875,0.00163789,-0.423445,0.00347116,0.0124398,1952,841,22.1873,-4.6229
735,183,22.1985,4.87561,0.00820969,0.0041318,-0.00185857,0.00892965,0.00341184,-0.369576,0.00520311,0.0112891,1959,841,22.1985,-4.87558
742,183,22.2238,5.17303,0.0123382,0.00645791,-0.00220165,0.0130712,0.00572495,-0.321373,0.00756599,0.0112387,1966,841,22.2238,-5.17303
749,183,22.1697,5.52808,0.017898,0.00964304,-0.00256387,0.0186295,0.00891156,-0.277919,0.0107591,0.0336211,1973,841,22.1697,-5.52807
756,183,22.2802,5.69397,0.0253824,0.0140782,-0.00289846,0.0260823,0.0133783,-0.236922,0.0150603,0.0474129,1980,841,22.2801,-5.69399
763,183,22.7584,5.95508,0.0349173,0.0202209,-0.00311701,0.035551,0.0195871,-0.200591,0.0205609,0.0489588,1987,841,22.7584,-5.95507
770,183,23.4785,6.46649,0,0,0,0,0,0,0,-1,1994,841,23.4786,-6.46651
777,183,22.6794,3.4577,0,0,0,0,0,0,0,-1,2001,841,22.6794,-3.45769
784,183,0,0,0,0,0,0,0,0,0,-1,2008,841,0,0
791,183,0,0,0,0,0,0,0,0,0,-1,2015,841,0,0
798,183,0,0,0,0,0,0,0,0,0,-1,2022,841,0,0
805,183,0,0,0,0,0,0,0,0,0,-1,2029,841,0,0
812,183,0,0,0,0,0,0,0,0,0,-1,2036,841,0,0
-700,176,0,0,0,0,0,0,0,0,0,-1,524,848,0,0
-693,176,0,0,0,0,0,0,0,0,0,-1,531,848,0,0
-686,176,0,0,0,0,0,0,0,0,0,-1,538,848,0,0
-679,176,0,0,0,0,0,0,0,0,0,-1,545,848,0,0
-672,176,0,0,0,0,0,0,0,0,0,-1,552,848,0,0
-665,176,-15.5983,2.6416,0,0,0,0,0,0,0,-1,559,848,-15.5983,-2.64162
-658,176,-15.7065,2.79584,0,0,0,0,0,0,0,-1,566,848,-15.7066,-2.79584
-651,176,-15.7703,2.72107,0,0,0,0,0,0,0,-1,573,848,-15.7703,-2.72108
-644,176,-9.40314,0.858093,0,0,0,0,0,0,0,-1,580,848,-9.40315,-0.858097
-637,176,-15.6157,2.20844,0,0,0,0,0,0,0,-1,587,848,-15.6157,-2.20845
-630,176,-15.2818,3.00085,0,0,0,0,0,0,0,-1,594,848,-15.2818,-3.00086
-623,176,-15.1844,3.0083,0.016404,0.00723175,0.00906812,0.0219797,0.001656,0.551284,0.0141335,0.0417255,601,848,-15.1844,-3.00831
-616,176,-15.0565,2.83472,0.0106329,0.00663334,0.00568004,0.0146549,0.00261133,0.616139,0.0090263,0.0273555,608,848,-15.0565,-2.83474
-609,176,-15.0956,2.61206,0.00625662,0.00578294,0.00293215,0.00896148,0.00307808,0.745098,0.00525774,0.0112903,615,848,-15.0956,-2.61208
-602,176,-15.1149,2.35101,0.00326308,0.00447346,0.00127592,0.00528044,0.0024561,1.00684,0.00305114,0.0117818,622,848,-15.1149,-2.35098
-595,176,-15.123,2.08038,0.00166364,0.00283285,0.000706528,0.00316528,0.00133122,1.13102,0.00183515,0.0103378,629,848,-15.123,-2.08037
-588,176,-15.1281,1.82275,0.00084732,0.00158519,0.000422821,0.00177741,0.000655104,1.14412,0.00103794,0.0108304,636,848,-15.128,-1.82277
-581,176,-15.1404,1.59308,0.000657342,0.000871506,0.000264596,0.00104987,0.000478981,0.977674,0.000606914,0.0113875,643,848,-15.1404,-1.59308
-574,176,-15.109,1.32855,0.000588542,0.000236351,4.60309e-05,0.000594459,0.000230434,0.127838,0.000346088,0.0142554,650,848,-15.109,-1.32855
-567,176,-15.049,1.15558,0.000670549,0.000322027,-0.000458833,0.000987098,5.47786e-06,-0.603916,0.000656247,0.0313297,657,848,-15.049,-1.15558
-560,176,-15.2259,0.864441,0.00104437,0.000512899,-0.00114831,0.00195729,-0.00040002,-0.671692,0.00145663,0.024583,664,848,-15.2259,-0.864455
-553,176,-15.096,0.502319,0.00110512,0.00104771,-0.00159948,0.00267616,-0.000523324,-0.776426,0.00198172,0.0428516,671,848,-15.096,-0.502291
-546,176,-14.7945,0.104065,0,0,0,0,0,0,0,-1,678,848,-14.7945,-0.10406
-539,176,-19.2337,1.90009,0,0,0,0,0,0,0,-1,685,848,-19.2337,-1.90009
-532,176,-19.3221,1.7038,0.00108888,0.0027289,-0.00230833,0.00435854,-0.000540764,-0.956066,0.0031017,0.0454617,692,848,-19.3221,-1.70378
-525,176,-19.4135,1.52557,0.00103735,0.00340907,-0.00246976,0.00496292,-0.000516495,-1.00922,0.00349353,0.0460735,699,848,-19.4135,-1.5256
-518,176,-19.3412,1.44122,0.000904563,0.00415208,-0.00242451,0.00544634,-0.000389696,-1.08046,0.00376751,0.0402708,706,848,-19.3412,-1.44124
-511,176,-19.3901,1.36157,0.000891755,0.0047564,-0.00208867,0.00566949,-2.13403e-05,-1.15867,0.00378679,0.0372191,713,848,-19.39,-1.36159
-504,176,-19.5084,1.28528,0.000920139,0.00500459,-0.00130057,0.00538356,0.000541173,-1.28726,0.00342294,0.0395561,720,848,-19.5083,-1.28528
-497,176,-19.5527,1.37897,0.00157225,0.00472554,-6.71002e-05,0.00472697,0.00157082,-1.54953,0.0027798,0.0419001,727,848,-19.5526,-1.379
-490,176,-19.294,1.55072,0,0,0,0,0,0,0,-1,734,848,-19.294,-1.55071
-483,176,0,0,0,0,0,0,0,0,0,-1,741,848,0,0
-476,176,0,0,0,0,0,0,0,0,0,-1,748,848,0,0
-469,176,0,0,0,0,0,0,0,0,0,-1,755,848,0,0
-462,176,0,0,0,0,0,0,0,0,0,-1,762,848,0,0
-455,176,0,0,0,0,0,0,0,0,0,-1,769,848,0,0
-448,176,0,0,0,0,0,0,0,0,0,-1,776,848,0,0
-441,176,0,0,0,0,0,0,0,0,0,-1,783,848,0,0
-434,176,0,0,0,0,0,0,0,0,0,-1,790,848,0,0
-427,176,0,0,0,0,0,0,0,0,0,-1,797,848,0,0
-420,176,0,0,0,0,0,0,0,0,0,-1,804,848,0,0
-413,176,0,0,0,0,0,0,0,0,0,-1,811,848,0,0
-406,176,0,0,0,0,0,0,0,0,0,-1,818,848,0,0
-399,176,0,0,0,0,0,0,0,0,0,-1,825,848,0,0
-392,176,0,0,0,0,0,0,0,0,0,-1,832,848,0,0
-385,176,0,0,0,0,0,0,0,0,0,-1,839,848,0,0
-378,176,0,0,0,0,0,0,0,0,0,-1,846,848,0,0
-371,176,0,0,0,0,0,0,0,0,0,-1,853,848,0,0
-364,176,0,0,0,0,0,0,0,0,0,-1,860,848,0,0
-357,176,0,0,0,0,0,0,0,0,0,-1,867,848,0,0
-350,176,0,0,0,0,0,0,0,0,0,-1,874,848,0,0
-343,176,0,0,0,0,0,0,0,0,0,-1,881,848,0,0
-336,176,0,0,0,0,0,0,0,0,0,-1,888,848,0,0
-329,176,0,0,0,0,0,0,0,0,0,-1,895,848,0,0
-322,176,0,0,0,0,0,0,0,0,0,-1,902,848,0,0
-315,176,0,0,0,0,0,0,0,0,0,-1,909,848,0,0
-308,176,0,0,0,0,0,0,0,0,0,-1,916,848,0,0
-301,176,0,0,0,0,0,0,0,0,0,-1,923,848,0,0
-294,176,0,0,0,0,0,0,0,0,0,-1,930,848,0,0
-287,176,0,0,0,0,0,0,0,0,0,-1,937,848,0,0
-280,176,0,0,0,0,0,0,0,0,0,-1,944,848,0,0
-273,176,0,0,0,0,0,0,0,0,0,-1,951,848,0,0
-266,176,0,0,0,0,0,0,0,0,0,-1,958,848,0,0
-259,176,0,0,0,0,0,0,0,0,0,-1,965,848,0,0
-252,176,0,0,0,0,0,0,0,0,0,-1,972,848,0,0
-245,176,0,0,0,0,0,0,0,0,0,-1,979,848,0,0
-238,176,0,0,0,0,0,0,0,0,0,-1,986,848,0,0
-231,176,0,0,0,0,0,0,0,0,0,-1,993,848,0,0
-224,176,0,0,0,0,0,0,0,0,0,-1,1000,848,0,0
-217,176,0,0,0,0,0,0,0,0,0,-1,1007,848,0,0
-210,176,0,0,0,0,0,0,0,0,0,-1,1014,848,0,0
-203,176,0,0,0,0,0,0,0,0,0,-1,1021,848,0,0
-196,176,0,0,0,0,0,0,0,0,0,-1,1028,848,0,0
-189,176,0,0,0,0,0,0,0,0,0,-1,1035,848,0,0
-182,176,0,0,0,0,0,0,0,0,0,-1,1042,848,0,0
-175,176,0,0,0,0,0,0,0,0,0,-1,1049,848,0,0
-168,176,0,0,0,0,0,0,0,0,0,-1,1056,848,0,0
-161,176,0,0,0,0,0,0,0,0,0,-1,1063,848,0,0
-154,176,0,0,0,0,0,0,0,0,0,-1,1070,848,0,0
-147,176,0,0,0,0,0,0,0,0,0,-1,1077,848,0,0
-140,176,0,0,0,0,0,0,0,0,0,-1,1084,848,0,0
-133,176,0,0,0,0,0,0,0,0,0,-1,1091,848,0,0
-126,176,0,0,0,0,0,0,0,0,0,-1,1098,848,0,0
-119,176,0,0,0,0,0,0,0,0,0,-1,1105,848,0,0
-112,176,0,0,0,0,0,0,0,0,0,-1,1112,848,0,0
-105,176,0,0,0,0,0,0,0,0,0,-1,1119,848,0,0
-98,176,0,0,0,0,0,0,0,0,0,-1,1126,848,0,0
-91,176,0,0,0,0,0,0,0,0,0,-1,1133,848,0,0
-84,176,0,0,0,0,0,0,0,0,0,-1,1140,848,0,0
-77,176,0,0,0,0,0,0,0,0,0,-1,1147,848,0,0
-70,176,0,0,0,0,0,0,0,0,0,-1,1154,848,0,0
-63,176,0,0,0,0,0,0,0,0,0,-1,1161,848,0,0
-56,176,0,0,0,0,0,0,0,0,0,-1,1168,848,0,0
-49,176,0,0,0,0,0,0,0,0,0,-1,1175,848,0,0
-42,176,0,0,0,0,0,0,0,0,0,-1,1182,848,0,0
-35,176,0,0,0,0,0,0,0,0,0,-1,1189,848,0,0
-28,176,0,0,0,0,0,0,0,0,0,-1,1196,848,0,0
-21,176,0,0,0,0,0,0,0,0,0,-1,1203,848,0,0
-14,176,0,0,0,0,0,0,0,0,0,-1,1210,848,0,0
-7,176,0,0,0,0,0,0,0,0,0,-1,1217,848,0,0
0,176,0,0,0,0,0,0,0,0,0,-1,1224,848,0,0
7,176,0,0,0,0,0,0,0,0,0,-1,1231,848,0,0
14,176,0,0,0,0,0,0,0,0,0,-1,1238,848,0,0
21,176,0,0,0,0,0,0,0,0,0,-1,1245,848,0,0
28,176,0,0,0,0,0,0,0,0,0,-1,1252,848,0,0
35,176,0,0,0,0,0,0,0,0,0,-1,1259,848,0,0
42,176,0,0,0,0,0,0,0,0,0,-1,1266,848,0,0
49,176,0,0,0,0,0,0,0,0,0,-1,1273,848,0,0
56,176,0,0,0,0,0,0,0,0,0,-1,1280,848,0,0
63,176,0,0,0,0,0,0,0,0,0,-1,1287,848,0,0
70,176,0,0,0,0,0,0,0,0,0,-1,1294,848,0,0
77,176,0,0,0,0,0,0,0,0,0,-1,1301,848,0,0
84,176,0,0,0,0,0,0,0,0,0,-1,1308,848,0,0
91,176,0,0,0,0,0,0,0,0,0,-1,1315,848,0,0
98,176,0,0,0,0,0,0,0,0,0,-1,1322,848,0,0
105,176,0,0,0,0,0,0,0,0,0,-1,1329,848,0,0
112,176,0,0,0,0,0,0,0,0,0,-1,1336,848,0,0
119,176,0,0,0,0,0,0,0,0,0,-1,1343,848,0,0
126,176,0,0,0,0,0,0,0,0,0,-1,1350,848,0,0
133,176,0,0,0,0,0,0,0,0,0,-1,1357,848,0,0
140,176,0,0,0,0,0,0,0,0,0,-1,1364,848,0,0
147,176,0,0,0,0,0,0,0,0,0,-1,1371,848,0,0
154,176,0,0,0,0,0,0,0,0,0,-1,1378,848,0,0
161,176,0,0,0,0,0,0,0,0,0,-1,1385,848,0,0
168,176,0,0,0,0,0,0,0,0,0,-1,1392,848,0,0
175,176,0,0,0,0,0,0,0,0,0,-1,1399,848,0,0
182,176,0,0,0,0,0,0,0,0,0,-1,1406,848,0,0
189,176,0,0,0,0,0,0,0,0,0,-1,1413,848,0,0
196,176,0,0,0,0,0,0,0,0,0,-1,1420,848,0,0
203,176,0,0,0,0,0,0,0,0,0,-1,1427,848,0,0
210,176,0,0,0,0,0,0,0,0,0,-1,1434,848,0,0
217,176,0,0,0,0,0,0,0,0,0,-1,1441,848,0,0
224,176,0,0,0,0,0,0,0,0,0,-1,1448,848,0,0
231,176,0,0,0,0,0,0,0,0,0,-1,1455,848,0,0
238,176,0,0,0,0,0,0,0,0,0,-1,1462,848,0,0
245,176,0,0,0,0,0,0,0,0,0,-1,1469,848,0,0
252,176,0,0,0,0,0,0,0,0,0,-1,1476,848,0,0
259,176,0,0,0,0,0,0,0,0,0,-1,1483,848,0,0
266,176,0,0,0,0,0,0,0,0,0,-1,1490,848,0,0
273,176,0,0,0,0,0,0,0,0,0,-1,1497,848,0,0
280,176,0,0,0,0,0,0,0,0,0,-1,1504,848,0,0
287,176,0,0,0,0,0,0,0,0,0,-1,1511,848,0,0
294,176,0,0,0,0,0,0,0,0,0,-1,1518,848,0,0
301,176,0,0,0,0,0,0,0,0,0,-1,1525,848,0,0
308,176,0,0,0,0,0,0,0,0,0,-1,1532,848,0,0
315,176,0,0,0,0,0,0,0,0,0,-1,1539,848,0,0
322,176,0,0,0,0,0,0,0,0,0,-1,1546,848,0,0
329,176,0,0,0,0,0,0,0,0,0,-1,1553,848,0,0
336,176,0,0,0,0,0,0,0,0,0,-1,1560,848,0,0
343,176,0,0,0,0,0,0,0,0,0,-1,1567,848,0,0
350,176,0,0,0,0,0,0,0,0,0,-1,1574,848,0,0
357,176,0,0,0,0,0,0,0,0,0,-1,1581,848,0,0
364,176,0,0,0,0,0,0,0,0,0,-1,1588,848,0,0
371,176,0,0,0,0,0,0,0,0,0,-1,1595,848,0,0
378,176,0,0,0,0,0,0,0,0,0,-1,1602,848,0,0
385,176,0,0,0,0,0,0,0,0,0,-1,1609,848,0,0
392,176,0,0,0,0,0,0,0,0,0,-1,1616,848,0,0
399,176,0,0,0,0,0,0,0,0,0,-1,1623,848,0,0
406,176,0,0,0,0,0,0,0,0,0,-1,1630,848,0,0
413,176,0,0,0,0,0,0,0,0,0,-1,1637,848,0,0
420,176,0,0,0,0,0,0,0,0,0,-1,1644,848,0,0
427,176,0,0,0,0,0,0,0,0,0,-1,1651,848,0,0
434,176,0,0,0,0,0,0,0,0,0,-1,1658,848,0,0
441,176,0,0,0,0,0,0,0,0,0,-1,1665,848,0,0
448,176,0,0,0,0,0,0,0,0,0,-1,1672,848,0,0
455,176,0,0,0,0,0,0,0,0,0,-1,1679,848,0,0
462,176,0,0,0,0,0,0,0,0,0,-1,1686,848,0,0
469,176,0,0,0,0,0,0,0,0,0,-1,1693,848,0,0
476,176,0,0,0,0,0,0,0,0,0,-1,1700,848,0,0
483,176,0,0,0,0,0,0,0,0,0,-1,1707,848,0,0
490,176,0,0,0,0,0,0,0,0,0,-1,1714,848,0,0
497,176,0,0,0,0,0,0,0,0,0,-1,1721,848,0,0
504,176,0,0,0,0,0,0,0,0,0,-1,1728,848,0,0
511,176,0,0,0,0,0,0,0,0,0,-1,1735,848,0,0
518,176,0,0,0,0,0,0,0,0,0,-1,1742,848,0,0
525,176,0,0,0,0,0,0,0,0,0,-1,1749,848,0,0
532,176,0,0,0,0,0,0,0,0,0,-1,1756,848,0,0
539,176,0,0,0,0,0,0,0,0,0,-1,1763,848,0,0
546,176,0,0,0,0,0,0,0,0,0,-1,1770,848,0,0
553,176,0,0,0,0,0,0,0,0,0,-1,1777,848,0,0
560,176,0,0,0,0,0,0,0,0,0,-1,1784,848,0,0
567,176,0,0,0,0,0,0,0,0,0,-1,1791,848,0,0
574,176,0,0,0,0,0,0,0,0,0,-1,1798,848,0,0
581,176,0,0,0,0,0,0,0,0,0,-1,1805,848,0,0
588,176,0,0,0,0,0,0,0,0,0,-1,1812,848,0,0
595,176,0,0,0,0,0,0,0,0,0,-1,1819,848,0,0
602,176,0,0,0,0,0,0,0,0,0,-1,1826,848,0,0
609,176,27.6281,3.64069,0.000487392,0.00105787,0.00255399,0.0033425,-0.00179724,0.841009,0.0030118,0.0377033,1833,848,27.628,-3.6407
616,176,27.5406,3.33832,0.000440683,0.00104048,0.0011126,0.00189289,-0.000411727,0.917043,0.00141922,0.0404605,1840,848,27.5406,-3.33831
623,176,27.4941,3.54517,-9.36471e-06,0.000878871,-0.00033094,0.000988614,-0.000119108,-1.2506,0.000702154,0.0440561,1847,848,27.4942,-3.54518
630,176,27.6417,3.63794,-0.000537941,0.000838447,-0.0015359,0.00183328,-0.00153278,-0.996023,0.00194598,0.0421148,1854,848,27.6417,-3.63791
637,176,27.6578,3.52142,-0.000998887,0.000558275,-0.00240247,0.00230517,-0.00274578,-0.942096,0.00291987,0.0334965,1861,848,27.6578,-3.52141
644,176,27.5232,3.52417,-0.00118911,0.000182186,-0.00285183,0.00242963,-0.00343656,-0.903371,0.00340344,0.0299333,1868,848,27.5232,-3.52418
651,176,27.55,3.50128,-0.00119234,-0.000210203,-0.00300942,0.00234795,-0.00375049,-0.866274,0.00355184,0.0304745,1875,848,27.5501,-3.50126
658,176,27.6986,3.40656,-0.00109409,-0.000486817,-0.00306854,0.00229307,-0.00387398,-0.834714,0.00359934,0.0393382,1882,848,27.6986,-3.40654
665,176,27.7915,3.39148,0,0,0,0,0,0,0,-1,1889,848,27.7915,-3.39148
672,176,16.9304,2.80719,0,0,0,0,0,0,0,-1,1896,848,16.9305,-2.80719
679,176,22.7924,2.74689,0,0,0,0,0,0,0,-1,1903,848,22.7924,-2.74689
686,176,22.6628,3.02844,-0.000872172,-0.00123809,-0.00219464,0.00114712,-0.00325738,-0.743811,0.00263843,0.027416,1910,848,22.6628,-3.02846
693,176,22.5714,3.31165,-0.000670449,-0.0013446,-0.00191115,0.000933123,-0.00294817,-0.69811,0.00233937,0.0139921,1917,848,22.5714,-3.31163
700,176,22.5131,3.55676,-0.000316172,-0.00139587,-0.00160249,0.000834958,-0.002547,-0.622928,0.00203426,0.0150438,1924,848,22.5131,-3.55676
707,176,22.5082,3.81824,0.000312938,-0.00112789,-0.00128054,0.0010618,-0.00187676,-0.52917,0.00171819,0.0123714,1931,848,22.5082,-3.81825
714,176,22.5128,4.08063,0.00130293,-0.000199363,-0.00133274,0.00208162,-0.000978056,-0.528781,0.0018044,0.0118132,1938,848,22.5128,-4.08064
721,176,22.4895,4.3399,0.00273448,0.000765368,-0.00142183,0.00347936,2.04903e-05,-0.482575,0.00231277,0.0127477,1945,848,22.4894,-4.33988
728,176,22.4521,4.63232,0.00490043,0.00212181,-0.00161784,0.00564363,0.00137861,-0.430625,0.00339743,0.0152131,1952,848,22.4521,-4.63233
735,176,22.4655,4.8811,0.00790502,0.00380661,-0.00196277,0.00869337,0.00301826,-0.381928,0.00509665,0.0130939,1959,848,22.4654,-4.8811
742,176,22.5077,5.12506,0.0118305,0.00592999,-0.00238053,0.0126712,0.00508936,-0.339462,0.00736274,0.0176698,1966,848,22.5076,-5.12505
749,176,22.5129,5.33429,0.0169758,0.00872012,-0.00286063,0.0178701,0.00782578,-0.303011,0.0103438,0.0300136,1973,848,22.513,-5.33431
756,176,22.7919,5.44391,0.023737,0.0125167,-0.00337956,0.0246763,0.0115774,-0.27109,0.0142559,0.0453061,1980,848,22.7919,-5.44388
763,176,23.2147,5.67639,0.0322326,0.0176519,-0.00384754,0.0331856,0.0166989,-0.242803,0.0191599,0.0485651,1987,848,23.2147,-5.67636
770,176,23.8463,6.11169,0,0,0,0,0,0,0,-1,1994,848,23.8464,-6.1117
777,176,22.2689,4.24261,0,0,0,0,0,0,0,-1,2001,848,22.269,-4.24261
784,176,0,0,0,0,0,0,0,0,0,-1,2008,848,0,0
791,176,0,0,0,0,0,0,0,0,0,-1,2015,848,0,0
798,176,0,0,0,0,0,0,0,0,0,-1,2022,848,0,0
805,176,0,0,0,0,0,0,0,0,0,-1,2029,848,0,0
812,176,0,0,0,0,0,0,0,0,0,-1,2036,848,0,0
-700,169,0,0,0,0,0,0,0,0,0,-1,524,855,0,0
-693,169,0,0,0,0,0,0,0,0,0,-1,531,855,0,0
-686,169,0,0,0,0,0,0,0,0,0,-1,538,855,0,0
-679,169,0,0,0,0,0,0,0,0,0,-1,545,855,0,0
-672,169,0,0,0,0,0,0,0,0,0,-1,552,855,0,0
-665,169,-16.2941,2.49634,0,0,0,0,0,0,0,-1,559,855,-16.2941,-2.49631
-658,169,-17.1801,2.005,0,0,0,0,0,0,0,-1,566,855,-17.1801,-2.00501
-651,169,-11.2126,1.8089,0,0,0,0,0,0,0,-1,573,855,-11.2126,-1.80889
-644,169,-10.7141,1.23828,0,0,0,0,0,0,0,-1,580,855,-10.7141,-1.23826
-637,169,-10.2156,0.667603,0,0,0,0,0,0,0,-1,587,855,-10.2156,-0.667629
-630,169,-15.2346,3.46918,0,0,0,0,0,0,0,-1,594,855,-15.2346,-3.4692
-623,169,-15.2914,3.13818,0.0146002,0.00525294,0.010833,0.0217247,-0.00187165,0.581749,0.0151456,0.037911,601,855,-15.2914,-3.1382
-616,169,-15.3472,2.83667,0.00936789,0.00509379,0.00702869,0.0145772,-0.000115546,0.637815,0.0097569,0.0204318,608,855,-15.3472,-2.83666
-609,169,-15.3743,2.59027,0.00525212,0.00464546,0.00381176,0.0087726,0.00112498,0.745694,0.00551181,0.0124384,615,855,-15.3743,-2.59026
-602,169,-15.3812,2.34088,0.00243466,0.00365687,0.00173206,0.00488247,0.00120906,0.95499,0.00293615,0.0123319,622,855,-15.3812,-2.34091
-595,169,-15.389,2.07111,0.000957231,0.00222127,0.000924616,0.00270924,0.000469267,1.0852,0.00167183,0.0110614,629,855,-15.389,-2.07108
-588,169,-15.3795,1.82697,0.000300486,0.00113189,0.000473444,0.00134623,8.61432e-05,1.14567,0.000870198,0.00942649,636,855,-15.3795,-1.82697
-581,169,-15.3908,1.60101,0.000233611,0.000583537,0.000188671,0.000665885,0.000151263,1.15926,0.000403077,0.0108944,643,855,-15.3908,-1.601
-574,169,-15.4633,1.35645,0.000356122,0.000105165,-0.00010419,0.00039374,6.75467e-05,-0.346485,0.000243126,0.0158364,650,855,-15.4633,-1.35645
-567,169,-15.3605,1.20282,0.00068965,0.000196148,-0.000639649,0.00112849,-0.000242693,-0.601313,0.000844925,0.0279806,657,855,-15.3605,-1.2028
-560,169,-15.4614,0.974548,0.00120476,0.000370308,-0.00133606,0.00218722,-0.000612155,-0.634056,0.00169936,0.028982,664,855,-15.4614,-0.974576
-553,169,-15.3182,0.531067,0.00140847,0.000798008,-0.00183637,0.0029648,-0.000758328,-0.703044,0.0022719,0.0398581,671,855,-15.3182,-0.531078
-546,169,-14.8774,0.0233154,0,0,0,0,0,0,0,-1,678,855,-14.8775,-0.0232927
-539,169,-19.4731,1.59595,0,0,0,0,0,0,0,-1,685,855,-19.4731,-1.59595
-532,169,-19.4402,1.50952,0.00176089,0.00239243,-0.00273261,0.00482746,-0.000674137,-0.842921,0.00346495,0.037177,692,855,-19.4402,-1.50955
-525,169,-19.4013,1.4646,0.00170702,0.00301638,-0.00292233,0.00535646,-0.000633063,-0.895592,0.00379961,0.0422022,699,855,-19.4013,-1.46459
-518,169,-19.3481,1.49017,0.00150933,0.00365668,-0.0028548,0.00563303,-0.000467021,-0.965264,0.00392031,0.0379419,706,855,-19.3481,-1.49019
-511,169,-19.3491,1.37671,0.00131229,0.00407299,-0.00240042,0.00546164,-7.63626e-05,-1.04633,0.00366682,0.0372245,713,855,-19.3491,-1.37672
-504,169,-19.4034,1.06879,0.000911263,0.00399511,-0.00132824,0.00448831,0.000418056,-1.21525,0.00286305,0.0410984,720,855,-19.4034,-1.0688
-497,169,-19.4551,1.24731,0.00123565,0.00325791,0.000329153,0.00331014,0.00118343,1.41344,0.0019368,0.0434463,727,855,-19.4551,-1.24732
-490,169,0,0,0,0,0,0,0,0,0,-1,734,855,0,0
-483,169,0,0,0,0,0,0,0,0,0,-1,741,855,0,0
-476,169,0,0,0,0,0,0,0,0,0,-1,748,855,0,0
-469,169,0,0,0,0,0,0,0,0,0,-1,755,855,0,0
-462,169,0,0,0,0,0,0,0,0,0,-1,762,855,0,0
-455,169,0,0,0,0,0,0,0,0,0,-1,769,855,0,0
-448,169,0,0,0,0,0,0,0,0,0,-1,776,855,0,0
-441,169,0,0,0,0,0,0,0,0,0,-1,783,855,0,0
-434,169,0,0,0,0,0,0,0,0,0,-1,790,855,0,0
-427,169,0,0,0,0,0,0,0,0,0,-1,797,855,0,0
-420,169,0,0,0,0,0,0,0,0,0,-1,804,855,0,0
-413,169,0,0,0,0,0,0,0,0,0,-1,811,855,0,0
-406,169,0,0,0,0,0,0,0,0,0,-1,818,855,0,0
-399,169,0,0,0,0,0,0,0,0,0,-1,825,855,0,0
-392,169,0,0,0,0,0,0,0,0,0,-1,832,855,0,0
-385,169,0,0,0,0,0,0,0,0,0,-1,839,855,0,0
-378,169,0,0,0,0,0,0,0,0,0,-1,846,855,0,0
-371,169,0,0,0,0,0,0,0,0,0,-1,853,855,0,0
-364,169,0,0,0,0,0,0,0,0,0,-1,860,855,0,0
-357,169,0,0,0,0,0,0,0,0,0,-1,867,855,0,0
-350,169,0,0,0,0,0,0,0,0,0,-1,874,855,0,0
-343,169,0,0,0,0,0,0,0,0,0,-1,881,855,0,0
-336,169,0,0,0,0,0,0,0,0,0,-1,888,855,0,0
-329,169,0,0,0,0,0,0,0,0,0,-1,895,855,0,0
-322,169,0,0,0,0,0,0,0,0,0,-1,902,855,0,0
-315,169,0,0,0,0,0,0,0,0,0,-1,909,855,0,0
-308,169,0,0,0,0,0,0,0,0,0,-1,916,855,0,0
-301,169,0,0,0,0,0,0,0,0,0,-1,923,855,0,0
-294,169,0,0,0,0,0,0,0,0,0,-1,930,855,0,0
-287,169,0,0,0,0,0,0,0,0,0,-1,937,855,0,0
-280,169,0,0,0,0,0,0,0,0,0,-1,944,855,0,0
-273,169,0,0,0,0,0,0,0,0,0,-1,951,855,0,0
-266,169,0,0,0,0,0,0,0,0,0,-1,958,855,0,0
-259,169,0,0,0,0,0,0,0,0,0,-1,965,855,0,0
-252,169,0,0,0,0,0,0,0,0,0,-1,972,855,0,0
-245,169,0,0,0,0,0,0,0,0,0,-1,979,855,0,0
-238,169,0,0,0,0,0,0,0,0,0,-1,986,855,0,0
-231,169,0,0,0,0,0,0,0,0,0,-1,993,855,0,0
-224,169,0,0,0,0,0,0,0,0,0,-1,1000,855,0,0
-217,169,0,0,0,0,0,0,0,0,0,-1,1007,855,0,0
-210,169,0,0,0,0,0,0,0,0,0,-1,1014,855,0,0
-203,169,0,0,0,0,0,0,0,0,0,-1,1021,855,0,0
-196,169,0,0,0,0,0,0,0,0,0,-1,1028,855,0,0
-189,169,0,0,0,0,0,0,0,0,0,-1,1035,855,0,0
-182,169,0,0,0,0,0,0,0,0,0,-1,1042,855,0,0
-175,169,0,0,0,0,0,0,0,0,0,-1,1049,855,0,0
-168,169,0,0,0,0,0,0,0,0,0,-1,1056,855,0,0
-161,169,0,0,0,0,0,0,0,0,0,-1,1063,855,0,0
-154,169,0,0,0,0,0,0,0,0,0,-1,1070,855,0,0
-147,169,0,0,0,0,0,0,0,0,0,-1,1077,855,0,0
-140,169,0,0,0,0,0,0,0,0,0,-1,1084,855,0,0
-133,169,0,0,0,0,0,0,0,0,0,-1,1091,855,0,0
-126,169,0,0,0,0,0,0,0,0,0,-1,1098,855,0,0
-119,169,0,0,0,0,0,0,0,0,0,-1,1105,855,0,0
-112,169,0,0,0,0,0,0,0,0,0,-1,1112,855,0,0
-105,169,0,0,0,0,0,0,0,0,0,-1,1119,855,0,0
-98,169,0,0,0,0,0,0,0,0,0,-1,1126,855,0,0
-91,169,0,0,0,0,0,0,0,0,0,-1,1133,855,0,0
-84,169,0,0,0,0,0,0,0,0,0,-1,1140,855,0,0
-77,169,0,0,0,0,0,0,0,0,0,-1,1147,855,0,0
-70,169,0,0,0,0,0,0,0,0,0,-1,1154,855,0,0
-63,169,0,0,0,0,0,0,0,0,0,-1,1161,855,0,0
-56,169,0,0,0,0,0,0,0,0,0,-1,1168,855,0,0
-49,169,0,0,0,0,0,0,0,0,0,-1,1175,855,0,0
-42,169,0,0,0,0,0,0,0,0,0,-1,1182,855,0,0
-35,169,0,0,0,0,0,0,0,0,0,-1,1189,855,0,0
-28,169,0,0,0,0,0,0,0,0,0,-1,1196,855,0,0
-21,169,0,0,0,0,0,0,0,0,0,-1,1203,855,0,0
-14,169,0,0,0,0,0,0,0,0,0,-1,1210,855,0,0
-7,169,0,0,0,0,0,0,0,0,0,-1,1217,855,0,0
0,169,0,0,0,0,0,0,0,0,0,-1,1224,855,0,0
7,169,0,0,0,0,0,0,0,0,0,-1,1231,855,0,0
14,169,0,0,0,0,0,0,0,0,0,-1,1238,855,0,0
21,169,0,0,0,0,0,0,0,0,0,-1,1245,855,0,0
28,169,0,0,0,0,0,0,0,0,0,-1,1252,855,0,0
35,169,0,0,0,0,0,0,0,0,0,-1,1259,855,0,0
42,169,0,0,0,0,0,0,0,0,0,-1,1266,855,0,0
49,169,0,0,0,0,0,0,0,0,0,-1,1273,855,0,0
56,169,0,0,0,0,0,0,0,0,0,-1,1280,855,0,0
63,169,0,0,0,0,0,0,0,0,0,-1,1287,855,0,0
70,169,0,0,0,0,0,0,0,0,0,-1,1294,855,0,0
77,169,0,0,0,0,0,0,0,0,0,-1,1301,855,0,0
84,169,0,0,0,0,0,0,0,0,0,-1,1308,855,0,0
91,169,0,0,0,0,0,0,0,0,0,-1,1315,855,0,0
98,169,0,0,0,0,0,0,0,0,0,-1,1322,855,0,0
105,169,0,0,0,0,0,0,0,0,0,-1,1329,855,0,0
112,169,0,0,0,0,0,0,0,0,0,-1,1336,855,0,0
119,169,0,0,0,0,0,0,0,0,0,-1,1343,855,0,0
126,169,0,0,0,0,0,0,0,0,0,-1,1350,855,0,0
133,169,0,0,0,0,0,0,0,0,0,-1,1357,855,0,0
140,169,0,0,0,0,0,0,0,0,0,-1,1364,855,0,0
147,169,0,0,0,0,0,0,0,0,0,-1,1371,855,0,0
154,169,0,0,0,0,0,0,0,0,0,-1,1378,855,0,0
161,169,0,0,0,0,0,0,0,0,0,-1,1385,855,0,0
168,169,0,0,0,0,0,0,0,0,0,-1,1392,855,0,0
175,169,0,0,0,0,0,0,0,0,0,-1,1399,855,0,0
182,169,0,0,0,0,0,0,0,0,0,-1,1406,855,0,0
189,169,0,0,0,0,0,0,0,0,0,-1,1413,855,0,0
196,169,0,0,0,0,0,0,0,0,0,-1,1420,855,0,0
203,169,0,0,0,0,0,0,0,0,0,-1,1427,855,0,0
210,169,0,0,0,0,0,0,0,0,0,-1,1434,855,0,0
217,169,0,0,0,0,0,0,0,0,0,-1,1441,855,0,0
224,169,0,0,0,0,0,0,0,0,0,-1,1448,855,0,0
231,169,0,0,0,0,0,0,0,0,0,-1,1455,855,0,0
238,169,0,0,0,0,0,0,0,0,0,-1,1462,855,0,0
245,169,0,0,0,0,0,0,0,0,0,-1,1469,855,0,0
252,169,0,0,0,0,0,0,0,0,0,-1,1476,855,0,0
259,169,0,0,0,0,0,0,0,0,0,-1,1483,855,0,0
266,169,0,0,0,0,0,0,0,0,0,-1,1490,855,0,0
273,169,0,0,0,0,0,0,0,0,0,-1,1497,855,0,0
280,169,0,0,0,0,0,0,0,0,0,-1,1504,855,0,0
287,169,0,0,0,0,0,0,0,0,0,-1,1511,855,0,0
294,169,0,0,0,0,0,0,0,0,0,-1,1518,855,0,0
301,169,0,0,0,0,0,0,0,0,0,-1,1525,855,0,0
308,169,0,0,0,0,0,0,0,0,0,-1,1532,855,0,0
315,169,0,0,0,0,0,0,0,0,0,-1,1539,855,0,0
322,169,0,0,0,0,0,0,0,0,0,-1,1546,855,0,0
329,169,0,0,0,0,0,0,0,0,0,-1,1553,855,0,0
336,169,0,0,0,0,0,0,0,0,0,-1,1560,855,0,0
343,169,0,0,0,0,0,0,0,0,0,-1,1567,855,0,0
350,169,0,0,0,0,0,0,0,0,0,-1,1574,855,0,0
357,169,0,0,0,0,0,0,0,0,0,-1,1581,855,0,0
364,169,0,0,0,0,0,0,0,0,0,-1,1588,855,0,0
371,169,0,0,0,0,0,0,0,0,0,-1,1595,855,0,0
378,169,0,0,0,0,0,0,0,0,0,-1,1602,855,0,0
385,169,0,0,0,0,0,0,0,0,0,-1,1609,855,0,0
392,169,0,0,0,0,0,0,0,0,0,-1,1616,855,0,0
399,169,0,0,0,0,0,0,0,0,0,-1,1623,855,0,0
406,169,0,0,0,0,0,0,0,0,0,-1,1630,855,0,0
413,169,0,0,0,0,0,0,0,0,0,-1,1637,855,0,0
420,169,0,0,0,0,0,0,0,0,0,-1,1644,855,0,0
427,169,0,0,0,0,0,0,0,0,0,-1,1651,855,0,0
434,169,0,0,0,0,0,0,0,0,0,-1,1658,855,0,0
441,169,0,0,0,0,0,0,0,0,0,-1,1665,855,0,0
448,169,0,0,0,0,0,0,0,0,0,-1,1672,855,0,0
455,169,0,0,0,0,0,0,0,0,0,-1,1679,855,0,0
462,169,0,0,0,0,0,0,0,0,0,-1,1686,855,0,0
469,169,0,0,0,0,0,0,0,0,0,-1,1693,855,0,0
476,169,0,0,0,0,0,0,0,0,0,-1,1700,855,0,0
483,169,0,0,0,0,0,0,0,0,0,-1,1707,855,0,0
490,169,0,0,0,0,0,0,0,0,0,-1,1714,855,0,0
497,169,0,0,0,0,0,0,0,0,0,-1,1721,855,0,0
504,169,0,0,0,0,0,0,0,0,0,-1,1728,855,0,0
511,169,0,0,0,0,0,0,0,0,0,-1,1735,855,0,0
518,169,0,0,0,0,0,0,0,0,0,-1,1742,855,0,0
525,169,0,0,0,0,0,0,0,0,0,-1,1749,855,0,0
532,169,0,0,0,0,0,0,0,0,0,-1,1756,855,0,0
539,169,0,0,0,0,0,0,0,0,0,-1,1763,855,0,0
546,169,0,0,0,0,0,0,0,0,0,-1,1770,855,0,0
553,169,0,0,0,0,0,0,0,0,0,-1,1777,855,0,0
560,169,0,0,0,0,0,0,0,0,0,-1,1784,855,0,0
567,169,0,0,0,0,0,0,0,0,0,-1,1791,855,0,0
574,169,0,0,0,0,0,0,0,0,0,-1,1798,855,0,0
581,169,0,0,0,0,0,0,0,0,0,-1,1805,855,0,0
588,169,0,0,0,0,0,0,0,0,0,-1,1812,855,0,0
595,169,0,0,0,0,0,0,0,0,0,-1,1819,855,0,0
602,169,0,0,0,0,0,0,0,0,0,-1,1826,855,0,0
609,169,0,0,0,0,0,0,0,0,0,-1,1833,855,0,0
616,169,27.4554,3.65753,0.000355509,0.00166239,0.000623265,0.00191197,0.00010593,1.18991,0.00124085,0.043164,1840,855,27.4555,-3.65751
623,169,27.5482,3.53082,0.000257679,0.00125543,-0.000457108,0.00143318,7.9927e-05,-1.19993,0.000929957,0.0451447,1847,855,27.5483,-3.53083
630,169,27.686,3.66858,9.7287e-05,0.00108575,-0.00130417,0.00198619,-0.000803156,-0.966519,0.00165801,0.0425303,1854,855,27.686,-3.66857
637,169,27.6677,3.46246,-0.000122153,0.000747752,-0.00194176,0.00230268,-0.00167708,-0.895579,0.00230716,0.036122,1861,855,27.6677,-3.46248
644,169,27.563,3.49762,-0.000190662,0.000331559,-0.00227078,0.00235619,-0.0022153,-0.84264,0.00263977,0.0339328,1868,855,27.5629,-3.4976
651,169,27.5345,3.53131,-0.000164956,-8.93684e-05,-0.00237685,0.00224999,-0.00250432,-0.793348,0.00274621,0.0338858,1875,855,27.5346,-3.53131
658,169,27.6412,3.47284,-9.36934e-05,-0.000407668,-0.00241169,0.00216611,-0.00266748,-0.752897,0.00279567,0.0352774,1882,855,27.6412,-3.47285
665,169,27.7607,3.38245,-0.000101044,-0.000761324,-0.00223377,0.00182685,-0.00268921,-0.712032,0.00262315,0.0487834,1889,855,27.7608,-3.38242
672,169,27.8674,3.3277,0,0,0,0,0,0,0,-1,1896,855,27.8674,-3.32768
679,169,22.7167,2.75873,0,0,0,0,0,0,0,-1,1903,855,22.7166,-2.75874
686,169,22.7877,3.04492,-0.000143154,-0.00115004,-0.00169162,0.00111835,-0.00241154,-0.640766,0.00208307,0.0267739,1910,855,22.7877,-3.04493
693,169,22.8354,3.32642,-9.38845e-05,-0.00122558,-0.00147077,0.000916132,-0.00223559,-0.601762,0.00187205,0.0130265,1917,855,22.8354,-3.32643
700,169,22.8328,3.59595,8.21408e-05,-0.00125561,-0.00129381,0.000869744,-0.00204322,-0.546827,0.00172669,0.0128141,1924,855,22.8327,-3.59592
707,169,22.7938,3.8349,0.000532393,-0.0010114,-0.00114298,0.00113971,-0.00161872,-0.488406,0.00160056,0.0136918,1931,855,22.7939,-3.83491
714,169,22.7694,4.09454,0.00127249,-0.000254141,-0.0012943,0.00201179,-0.000993441,-0.518973,0.00176796,0.0130926,1938,855,22.7694,-4.09453
721,169,22.7458,4.36023,0.00243785,0.000582574,-0.00140183,0.00319117,-0.000170752,-0.493109,0.00218659,0.017501,1945,855,22.7459,-4.36024
728,169,22.7334,4.63678,0.00435215,0.00184572,-0.00163788,0.00516127,0.0010366,-0.458837,0.00315264,0.0143101,1952,855,22.7334,-4.63679
735,169,22.733,4.88995,0.00707295,0.00336155,-0.00202762,0.00796586,0.00246864,-0.41482,0.00470859,0.0183378,1959,855,22.733,-4.88995
742,169,22.7609,5.12482,0.0106186,0.00523279,-0.00248592,0.0115906,0.00426079,-0.372726,0.00676958,0.0149763,1966,855,22.7609,-5.12483
749,169,22.8092,5.26135,0.0151927,0.00759176,-0.00301924,0.0162461,0.00653843,-0.33567,0.00943897,0.0251738,1973,855,22.8091,-5.26137
756,169,22.9482,5.33862,0,0,0,0,0,0,0,-1,1980,855,22.9482,-5.33862
763,169,23.5563,5.07623,0,0,0,0,0,0,0,-1,1987,855,23.5563,-5.07626
770,169,21.4769,5.96228,0,0,0,0,0,0,0,-1,1994,855,21.4769,-5.96228
777,169,21.9879,5.10004,0,0,0,0,0,0,0,-1,2001,855,21.9879,-5.10005
784,169,22.3809,4.56689,0,0,0,0,0,0,0,-1,2008,855,22.3808,-4.56686
791,169,0,0,0,0,0,0,0,0,0,-1,2015,855,0,0
798,169,0,0,0,0,0,0,0,0,0,-1,2022,855,0,0
805,169,0,0,0,0,0,0,0,0,0,-1,2029,855,0,0
812,169,0,0,0,0,0,0,0,0,0,-1,2036,855,0,0
-700,162,0,0,0,0,0,0,0,0,0,-1,524,862,0,0
-693,162,0,0,0,0,0,0,0,0,0,-1,531,862,0,0
-686,162,0,0,0,0,0,0,0,0,0,-1,538,862,0,0
-679,162,0,0,0,0,0,0,0,0,0,-1,545,862,0,0
-672,162,0,0,0,0,0,0,0,0,0,-1,552,862,0,0
-665,162,-14.3465,3.24481,0,0,0,0,0,0,0,-1,559,862,-14.3465,-3.24481
-658,162,-13.8575,2.755,0,0,0,0,0,0,0,-1,566,862,-13.8575,-2.75502
-651,162,-12.4343,2.13812,0,0,0,0,0,0,0,-1,573,862,-12.4343,-2.1381
-644,162,-12.0651,1.62415,0,0,0,0,0,0,0,-1,580,862,-12.0651,-1.62417
-637,162,-15.5206,3.70105,0,0,0,0,0,0,0,-1,587,862,-15.5206,-3.70105
-630,162,-15.6229,3.48749,0.0215752,0.0019835,0.0162955,0.0307926,-0.00723391,0.514771,0.0233168,0.0471987,594,862,-15.6229,-3.48747
-623,162,-15.5383,3.08319,0.014852,0.00303602,0.0110944,0.0215135,-0.00362539,0.540735,0.015691,0.0333899,601,862,-15.5383,-3.08318
-616,162,-15.603,2.82843,0.00960372,0.00338936,0.00724975,0.0143841,-0.00139101,0.582944,0.0100851,0.0175257,608,862,-15.603,-2.82843
-609,162,-15.6321,2.56567,0.00535772,0.00340457,0.00390443,0.00840586,0.00035644,0.662852,0.00548895,0.0123009,615,862,-15.6321,-2.56567
-602,162,-15.645,2.31744,0.0022228,0.00289799,0.00179364,0.00438552,0.000735258,0.878419,0.00271202,0.0110169,622,862,-15.645,-2.31745
-595,162,-15.6399,2.09167,0.000581755,0.00179024,0.000913881,0.00228157,9.04211e-05,1.0775,0.00149182,0.0106512,629,862,-15.6399,-2.09169
-588,162,-15.6393,1.84637,6.49401e-05,0.000863963,0.000380019,0.00101584,-8.6932e-05,1.1906,0.000707982,0.011074,636,862,-15.6393,-1.84637
-581,162,-15.7208,1.60297,6.43387e-05,0.000458824,4.24215e-05,0.000463334,5.98284e-05,1.46487,0.000291004,0.0138477,643,862,-15.7208,-1.603
-574,162,-15.8331,1.35376,0.000237924,7.66504e-05,-0.000243737,0.000414016,-9.94423e-05,-0.625648,0.000314444,0.0205887,650,862,-15.8331,-1.35373
-567,162,-15.7666,1.15216,0.000630323,0.000135885,-0.00071255,0.00113732,-0.000371113,-0.618421,0.000907573,0.0331262,657,862,-15.7666,-1.15219
-560,162,-15.6949,0.774597,0.00115881,0.000238994,-0.00132651,0.00210287,-0.000705071,-0.61853,0.00168679,0.0294481,664,862,-15.6949,-0.774606
-553,162,-15.5048,0.421387,0.00140635,0.000521281,-0.00180668,0.0028239,-0.000896271,-0.665292,0.00224189,0.0356108,671,862,-15.5048,-0.421403
-546,162,-15.2704,-0.00708008,0,0,0,0,0,0,0,-1,678,862,-15.2704,0.0070709
-539,162,-19.4085,1.58105,0,0,0,0,0,0,0,-1,685,862,-19.4085,-1.58108
-532,162,-19.3477,1.52991,0.00185563,0.00178758,-0.002666,0.00448783,-0.000844617,-0.779018,0.00330954,0.0389084,692,862,-19.3477,-1.52991
-525,162,-19.3872,1.46222,0.00179033,0.00224902,-0.00282053,0.00484951,-0.00081016,-0.825965,0.00353415,0.0399411,699,862,-19.3872,-1.46223
-518,162,-19.4796,1.3371,0.00160379,0.0026594,-0.00269931,0.00488202,-0.000618834,-0.881947,0.00347935,0.0392466,706,862,-19.4796,-1.33707
-511,162,-19.4032,1.19769,0.00143695,0.00275264,-0.00214395,0.0043374,-0.000147807,-0.934258,0.00294211,0.0401817,713,862,-19.4032,-1.19767
-504,162,-19.2911,0.956238,0.00101181,0.00225598,-0.000905476,0.00273248,0.000535319,-1.08638,0.00167202,0.0433024,720,862,-19.2912,-0.956259
-497,162,-19.3176,1.29712,0.00176678,0.00117594,0.000882674,0.00240216,0.000540558,0.623912,0.00145512,0.0444645,727,862,-19.3176,-1.29712
-490,162,0,0,0,0,0,0,0,0,0,-1,734,862,0,0
-483,162,0,0,0,0,0,0,0,0,0,-1,741,862,0,0
-476,162,0,0,0,0,0,0,0,0,0,-1,748,862,0,0
-469,162,0,0,0,0,0,0,0,0,0,-1,755,862,0,0
-462,162,0,0,0,0,0,0,0,0,0,-1,762,862,0,0
-455,162,0,0,0,0,0,0,0,0,0,-1,769,862,0,0
-448,162,0,0,0,0,0,0,0,0,0,-1,776,862,0,0
-441,162,0,0,0,0,0,0,0,0,0,-1,783,862,0,0
-434,162,0,0,0,0,0,0,0,0,0,-1,790,862,0,0
-427,162,0,0,0,0,0,0,0,0,0,-1,797,862,0,0
-420,162,0,0,0,0,0,0,0,0,0,-1,804,862,0,0
-413,162,0,0,0,0,0,0,0,0,0,-1,811,862,0,0
-406,162,0,0,0,0,0,0,0,0,0,-1,818,862,0,0
-399,162,0,0,0,0,0,0,0,0,0,-1,825,862,0,0
-392,162,0,0,0,0,0,0,0,0,0,-1,832,862,0,0
-385,162,0,0,0,0,0,0,0,0,0,-1,839,862,0,0
-378,162,0,0,0,0,0,0,0,0,0,-1,846,862,0,0
-371,162,0,0,0,0,0,0,0,0,0,-1,853,862,0,0
-364,162,0,0,0,0,0,0,0,0,0,-1,860,862,0,0
-357,162,0,0,0,0,0,0,0,0,0,-1,867,862,0,0
-350,162,0,0,0,0,0,0,0,0,0,-1,874,862,0,0
-343,162,0,0,0,0,0,0,0,0,0,-1,881,862,0,0
-336,162,0,0,0,0,0,0,0,0,0,-1,888,862,0,0
-329,162,0,0,0,0,0,0,0,0,0,-1,895,862,0,0
-322,162,0,0,0,0,0,0,0,0,0,-1,902,862,0,0
-315,162,0,0,0,0,0,0,0,0,0,-1,909,862,0,0
-308,162,0,0,0,0,0,0,0,0,0,-1,916,862,0,0
-301,162,0,0,0,0,0,0,0,0,0,-1,923,862,0,0
-294,162,0,0,0,0,0,0,0,0,0,-1,930,862,0,0
-287,162,0,0,0,0,0,0,0,0,0,-1,937,862,0,0
-280,162,0,0,0,0,0,0,0,0,0,-1,944,862,0,0
-273,162,0,0,0,0,0,0,0,0,0,-1,951,862,0,0
-266,162,0,0,0,0,0,0,0,0,0,-1,958,862,0,0
-259,162,0,0,0,0,0,0,0,0,0,-1,965,862,0,0
-252,162,0,0,0,0,0,0,0,0,0,-1,972,862,0,0
-245,162,0,0,0,0,0,0,0,0,0,-1,979,862,0,0
-238,162,0,0,0,0,0,0,0,0,0,-1,986,862,0,0
-231,162,0,0,0,0,0,0,0,0,0,-1,993,862,0,0
-224,162,0,0,0,0,0,0,0,0,0,-1,1000,862,0,0
-217,162,0,0,0,0,0,0,0,0,0,-1,1007,862,0,0
-210,162,0,0,0,0,0,0,0,0,0,-1,1014,862,0,0
-203,162,0,0,0,0,0,0,0,0,0,-1,1021,862,0,0
-196,162,0,0,0,0,0,0,0,0,0,-1,1028,862,0,0
-189,162,0,0,0,0,0,0,0,0,0,-1,1035,862,0,0
-182,162,0,0,0,0,0,0,0,0,0,-1,1042,862,0,0
-175,162,0,0,0,0,0,0,0,0,0,-1,1049,862,0,0
-168,162,0,0,0,0,0,0,0,0,0,-1,1056,862,0,0
-161,162,0,0,0,0,0,0,0,0,0,-1,1063,862,0,0
-154,162,0,0,0,0,0,0,0,0,0,-1,1070,862,0,0
-147,162,0,0,0,0,0,0,0,0,0,-1,1077,862,0,0
-140,162,0,0,0,0,0,0,0,0,0,-1,1084,862,0,0
-133,162,0,0,0,0,0,0,0,0,0,-1,1091,862,0,0
-126,162,0,0,0,0,0,0,0,0,0,-1,1098,862,0,0
-119,162,0,0,0,0,0,0,0,0,0,-1,1105,862,0,0
-112,162,0,0,0,0,0,0,0,0,0,-1,1112,862,0,0
-105,162,0,0,0,0,0,0,0,0,0,-1,1119,862,0,0
-98,162,0,0,0,0,0,0,0,0,0,-1,1126,862,0,0
-91,162,0,0,0,0,0,0,0,0,0,-1,1133,862,0,0
-84,162,0,0,0,0,0,0,0,0,0,-1,1140,862,0,0
-77,162,0,0,0,0,0,0,0,0,0,-1,1147,862,0,0
-70,162,0,0,0,0,0,0,0,0,0,-1,1154,862,0,0
-63,162,0,0,0,0,0,0,0,0,0,-1,1161,862,0,0
-56,162,0,0,0,0,0,0,0,0,0,-1,1168,862,0,0
-49,162,0,0,0,0,0,0,0,0,0,-1,1175,862,0,0
-42,162,0,0,0,0,0,0,0,0,0,-1,1182,862,0,0
-35,162,0,0,0,0,0,0,0,0,0,-1,1189,862,0,0
-28,162,0,0,0,0,0,0,0,0,0,-1,1196,862,0,0
-21,162,0,0,0,0,0,0,0,0,0,-1,1203,862,0,0
-14,162,0,0,0,0,0,0,0,0,0,-1,1210,862,0,0
-7,162,0,0,0,0,0,0,0,0,0,-1,1217,862,0,0
0,162,0,0,0,0,0,0,0,0,0,-1,1224,862,0,0
7,162,0,0,0,0,0,0,0,0,0,-1,1231,862,0,0
14,162,0,0,0,0,0,0,0,0,0,-1,1238,862,0,0
21,162,0,0,0,0,0,0,0,0,0,-1,1245,862,0,0
28,162,0,0,0,0,0,0,0,0,0,-1,1252,862,0,0
35,162,0,0,0,0,0,0,0,0,0,-1,1259,862,0,0
42,162,0,0,0,0,0,0,0,0,0,-1,1266,862,0,0
49,162,0,0,0,0,0,0,0,0,0,-1,1273,862,0,0
56,162,0,0,0,0,0,0,0,0,0,-1,1280,862,0,0
63,162,0,0,0,0,0,0,0,0,0,-1,1287,862,0,0
70,162,0,0,0,0,0,0,0,0,0,-1,1294,862,0,0
77,162,0,0,0,0,0,0,0,0,0,-1,1301,862,0,0
84,162,0,0,0,0,0,0,0,0,0,-1,1308,862,0,0
91,162,0,0,0,0,0,0,0,0,0,-1,1315,862,0,0
98,162,0,0,0,0,0,0,0,0,0,-1,1322,862,0,0
105,162,0,0,0,0,0,0,0,0,0,-1,1329,862,0,0
112,162,0,0,0,0,0,0,0,0,0,-1,1336,862,0,0
119,162,0,0,0,0,0,0,0,0,0,-1,1343,862,0,0
126,162,0,0,0,0,0,0,0,0,0,-1,1350,862,0,0
133,162,0,0,0,0,0,0,0,0,0,-1,1357,862,0,0
140,162,0,0,0,0,0,0,0,0,0,-1,1364,862,0,0
147,162,0,0,0,0,0,0,0,0,0,-1,1371,862,0,0
154,162,0,0,0,0,0,0,0,0,0,-1,1378,862,0,0
161,162,0,0,0,0,0,0,0,0,0,-1,1385,862,0,0
168,162,0,0,0,0,0,0,0,0,0,-1,1392,862,0,0
175,162,0,0,0,0,0,0,0,0,0,-1,1399,862,0,0
182,162,0,0,0,0,0,0,0,0,0,-1,1406,862,0,0
189,162,0,0,0,0,0,0,0,0,0,-1,1413,862,0,0
196,162,0,0,0,0,0,0,0,0,0,-1,1420,862,0,0
203,162,0,0,0,0,0,0,0,0,0,-1,1427,862,0,0
210,162,0,0,0,0,0,0,0,0,0,-1,1434,862,0,0
217,162,0,0,0,0,0,0,0,0,0,-1,1441,862,0,0
224,162,0,0,0,0,0,0,0,0,0,-1,1448,862,0,0
231,162,0,0,0,0,0,0,0,0,0,-1,1455,862,0,0
238,162,0,0,0,0,0,0,0,0,0,-1,1462,862,0,0
245,162,0,0,0,0,0,0,0,0,0,-1,1469,862,0,0
252,162,0,0,0,0,0,0,0,0,0,-1,1476,862,0,0
259,162,0,0,0,0,0,0,0,0,0,-1,1483,862,0,0
266,162,0,0,0,0,0,0,0,0,0,-1,1490,862,0,0
273,162,0,0,0,0,0,0,0,0,0,-1,1497,862,0,0
280,162,0,0,0,0,0,0,0,0,0,-1,1504,862,0,0
287,162,0,0,0,0,0,0,0,0,0,-1,1511,862,0,0
294,162,0,0,0,0,0,0,0,0,0,-1,1518,862,0,0
301,162,0,0,0,0,0,0,0,0,0,-1,1525,862,0,0
308,162,0,0,0,0,0,0,0,0,0,-1,1532,862,0,0
315,162,0,0,0,0,0,0,0,0,0,-1,1539,862,0,0
322,162,0,0,0,0,0,0,0,0,0,-1,1546,862,0,0
329,162,0,0,0,0,0,0,0,0,0,-1,1553,862,0,0
336,162,0,0,0,0,0,0,0,0,0,-1,1560,862,0,0
343,162,0,0,0,0,0,0,0,0,0,-1,1567,862,0,0
350,162,0,0,0,0,0,0,0,0,0,-1,1574,862,0,0
357,162,0,0,0,0,0,0,0,0,0,-1,1581,862,0,0
364,162,0,0,0,0,0,0,0,0,0,-1,1588,862,0,0
371,162,0,0,0,0,0,0,0,0,0,-1,1595,862,0,0
378,162,0,0,0,0,0,0,0,0,0,-1,1602,862,0,0
385,162,0,0,0,0,0,0,0,0,0,-1,1609,862,0,0
392,162,0,0,0,0,0,0,0,0,0,-1,1616,862,0,0
399,162,0,0,0,0,0,0,0,0,0,-1,1623,862,0,0
406,162,0,0,0,0,0,0,0,0,0,-1,1630,862,0,0
413,162,0,0,0,0,0,0,0,0,0,-1,1637,862,0,0
420,162,0,0,0,0,0,0,0,0,0,-1,1644,862,0,0
427,162,0,0,0,0,0,0,0,0,0,-1,1651,862,0,0
434,162,0,0,0,0,0,0,0,0,0,-1,1658,862,0,0
441,162,0,0,0,0,0,0,0,0,0,-1,1665,862,0,0
448,162,0,0,0,0,0,0,0,0,0,-1,1672,862,0,0
455,162,0,0,0,0,0,0,0,0,0,-1,1679,862,0,0
462,162,0,0,0,0,0,0,0,0,0,-1,1686,862,0,0
469,162,0,0,0,0,0,0,0,0,0,-1,1693,862,0,0
476,162,0,0,0,0,0,0,0,0,0,-1,1700,862,0,0
483,162,0,0,0,0,0,0,0,0,0,-1,1707,862,0,0
490,162,0,0,0,0,0,0,0,0,0,-1,1714,862,0,0
497,162,0,0,0,0,0,0,0,0,0,-1,1721,862,0,0
504,162,0,0,0,0,0,0,0,0,0,-1,1728,862,0,0
511,162,0,0,0,0,0,0,0,0,0,-1,1735,862,0,0
518,162,0,0,0,0,0,0,0,0,0,-1,1742,862,0,0
525,162,0,0,0,0,0,0,0,0,0,-1,1749,862,0,0
532,162,0,0,0,0,0,0,0,0,0,-1,1756,862,0,0
539,162,0,0,0,0,0,0,0,0,0,-1,1763,862,0,0
546,162,0,0,0,0,0,0,0,0,0,-1,1770,862,0,0
553,162,0,0,0,0,0,0,0,0,0,-1,1777,862,0,0
560,162,0,0,0,0,0,0,0,0,0,-1,1784,862,0,0
567,162,0,0,0,0,0,0,0,0,0,-1,1791,862,0,0
574,162,0,0,0,0,0,0,0,0,0,-1,1798,862,0,0
581,162,0,0,0,0,0,0,0,0,0,-1,1805,862,0,0
588,162,0,0,0,0,0,0,0,0,0,-1,1812,862,0,0
595,162,0,0,0,0,0,0,0,0,0,-1,1819,862,0,0
602,162,0,0,0,0,0,0,0,0,0,-1,1826,862,0,0
609,162,0,0,0,0,0,0,0,0,0,-1,1833,862,0,0
616,162,27.4894,3.66962,-7.53271e-05,0.00212361,0.000350598,0.00217816,-0.000129873,1.41645,0.00149727,0.043304,1840,862,27.4893,-3.66962
623,162,27.6416,3.79919,8.86982e-05,0.00147549,-0.000604774,0.00170217,-0.000137988,-1.21218,0.00118346,0.0453447,1847,862,27.6416,-3.79922
630,162,27.6406,3.67383,0.000247715,0.00113059,-0.00127609,0.00203944,-0.000661137,-0.951919,0.00162546,0.0413679,1854,862,27.6407,-3.67383
637,162,27.6051,3.49274,0.000257813,0.00071914,-0.00178894,0.00229222,-0.00131527,-0.849514,0.00210809,0.040055,1861,862,27.6051,-3.49271
644,162,27.5807,3.41577,0.000309284,0.000266634,-0.00204901,0.00233708,-0.00176117,-0.780195,0.0023739,0.0372191,1868,862,27.5807,-3.41576
651,162,27.5852,3.51385,0.000372974,-0.000153586,-0.00212064,0.00224661,-0.00202723,-0.723639,0.00246859,0.0349426,1875,862,27.5853,-3.51386
658,162,27.6428,3.45538,0.00043257,-0.000470595,-0.00211779,0.00214639,-0.00218441,-0.680355,0.00250042,0.0364674,1882,862,27.6428,-3.45538
665,162,27.6611,3.43018,0.000396236,-0.00079842,-0.00192841,0.00181771,-0.0022199,-0.635209,0.00233496,0.0416588,1889,862,27.6612,-3.43019
672,162,27.7031,3.31659,0,0,0,0,0,0,0,-1,1896,862,27.7032,-3.3166
679,162,23.0725,3.04156,0,0,0,0,0,0,0,-1,1903,862,23.0725,-3.04156
686,162,23.0697,3.16809,0.000283329,-0.00105811,-0.00143599,0.00119752,-0.0019723,-0.566916,0.00184823,0.0421985,1910,862,23.0697,-3.16812
693,162,23.0668,3.35431,0.000243934,-0.00104829,-0.00122605,0.000983701,-0.00178806,-0.542897,0.00162258,0.017124,1917,862,23.0668,-3.35433
700,162,23.1017,3.61426,0.000308115,-0.00102227,-0.00111327,0.000939783,-0.00165394,-0.516104,0.00151629,0.0171484,1924,862,23.1017,-3.61428
707,162,23.0847,3.83002,0.000650317,-0.000798035,-0.00106425,0.00121341,-0.00136113,-0.486654,0.00148723,0.012714,1931,862,23.0847,-3.83
714,162,23.0337,4.09222,0.00123402,-0.000222156,-0.00122661,0.00193236,-0.000920492,-0.517557,0.00168127,0.0153861,1938,862,23.0337,-4.09223
721,162,22.9614,4.42786,0.0021784,0.000433939,-0.0013494,0.00291293,-0.000300587,-0.498483,0.00204951,0.0302735,1945,862,22.9614,-4.42785
728,162,22.9803,4.65552,0.00377515,0.00161092,-0.00162825,0.00464808,0.000737997,-0.492118,0.00288436,0.0249082,1952,862,22.9803,-4.65552
735,162,23.0084,4.88641,0.00606691,0.002959,-0.00206168,0.00709468,0.00193123,-0.462456,0.00423544,0.0112418,1959,862,23.0084,-4.88644
742,162,23.0295,5.13806,0.00909266,0.0046375,-0.00256767,0.0102644,0.00346581,-0.428101,0.00602935,0.0116208,1966,862,23.0296,-5.13805
749,162,23.0039,5.38696,0.0129023,0.00671877,-0.0031518,0.0142256,0.00539546,-0.397507,0.00829256,0.0169388,1973,862,23.0039,-5.38697
756,162,23.0947,5.4762,0.0176716,0.0094242,-0.00380529,0.0191591,0.00793675,-0.372629,0.0111156,0.0394296,1980,862,23.0948,-5.47619
763,162,23.5045,5.42572,0.023515,0.0129578,-0.00448198,0.0251611,0.0113117,-0.351981,0.0145514,0.0473135,1987,862,23.5046,-5.4257
770,162,23.4313,5.61292,0,0,0,0,0,0,0,-1,1994,862,23.4313,-5.61289
777,162,23.6172,5.68542,0,0,0,0,0,0,0,-1,2001,862,23.6172,-5.68545
784,162,22.3711,5.29395,0,0,0,0,0,0,0,-1,2008,862,22.3711,-5.29397
791,162,0,0,0,0,0,0,0,0,0,-1,2015,862,0,0
798,162,0,0,0,0,0,0,0,0,0,-1,2022,862,0,0
805,162,0,0,0,0,0,0,0,0,0,-1,2029,862,0,0
812,162,0,0,0,0,0,0,0,0,0,-1,2036,862,0,0
-700,155,0,0,0,0,0,0,0,0,0,-1,524,869,0,0
-693,155,0,0,0,0,0,0,0,0,0,-1,531,869,0,0
-686,155,0,0,0,0,0,0,0,0,0,-1,538,869,0,0
-679,155,0,0,0,0,0,0,0,0,0,-1,545,869,0,0
-672,155,0,0,0,0,0,0,0,0,0,-1,552,869,0,0
-665,155,-15.4929,3.68005,0.0530457,-0.0208217,0.056045,0.0832323,-0.0510083,0.49406,0.0782447,0.0483383,559,869,-15.4928,-3.68005
-658,155,-14.9585,3.13397,0.0487005,-0.0162781,0.0457312,0.0723084,-0.039886,0.476549,0.0656709,0.0458937,566,869,-14.9585,-3.13398
-651,155,-14.3594,2.63812,0,0,0,0,0,0,0,-1,573,869,-14.3594,-2.63814
-644,155,-13.632,2.12482,0,0,0,0,0,0,0,-1,580,869,-13.632,-2.12485
-637,155,-15.6942,3.38013,0,0,0,0,0,0,0,-1,587,869,-15.6942,-3.38011
-630,155,-15.769,3.21191,0.0210969,-0.00144425,0.0149406,0.0285413,-0.00888861,0.462256,0.0225812,0.0458329,594,869,-15.769,-3.21193
-623,155,-15.807,3.04224,0.0147438,0.000504176,0.0104456,0.0202653,-0.00501731,0.486261,0.0154565,0.0260381,601,869,-15.807,-3.04226
-616,155,-15.8519,2.79901,0.00966754,0.00158037,0.00697801,0.0136889,-0.00244098,0.522803,0.010039,0.0137888,608,869,-15.8519,-2.79904
-609,155,-15.8782,2.54242,0.00539011,0.00216284,0.00380509,0.00790958,-0.000356628,0.584856,0.00539586,0.0125171,615,869,-15.8782,-2.5424
-602,155,-15.8881,2.3244,0.00210299,0.00216408,0.00177959,0.00391338,0.000353689,0.79398,0.00249938,0.0109649,622,869,-15.8881,-2.32443
-595,155,-15.8867,2.09784,0.000351364,0.00142848,0.000900232,0.00193895,-0.000159107,1.05496,0.0013488,0.0105435,629,869,-15.8867,-2.09785
-588,155,-15.8892,1.85822,-0.000102913,0.000691203,0.000332188,0.000811836,-0.000223546,1.22246,0.00062912,0.0127871,636,869,-15.8892,-1.85821
-581,155,-16.0049,1.65887,-0.000131147,0.000391309,-1.45379e-05,0.000391714,-0.000131551,-1.543,0.000314307,0.0195382,643,869,-16.0049,-1.65888
-574,155,-16.0771,1.46515,2.60317e-05,6.1347e-05,-0.000266799,0.000311072,-0.000223694,-0.818442,0.000310118,0.0258151,650,869,-16.0771,-1.46515
-567,155,-16.0186,1.10754,0.000452771,7.24607e-05,-0.000661791,0.000951184,-0.000425953,-0.6455,0.000814138,0.0264441,657,869,-16.0186,-1.10757
-560,155,-15.9292,0.801819,0.000917928,0.000130707,-0.00120317,0.00179023,-0.000741597,-0.627313,0.00150296,0.0234815,664,869,-15.9292,-0.801839
-553,155,-15.6246,0.320679,0,0,0,0,0,0,0,-1,671,869,-15.6246,-0.320673
-546,155,-19.527,1.30536,0,0,0,0,0,0,0,-1,678,869,-19.527,-1.30536
-539,155,-19.4216,1.41101,0.00139124,0.000800063,-0.00224741,0.00336242,-0.00117111,-0.720011,0.00271745,0.0466002,685,869,-19.4217,-1.41099
-532,155,-19.3478,1.5224,0.0015371,0.00109553,-0.00252243,0.00384839,-0.00121576,-0.741745,0.00305264,0.036203,692,869,-19.3478,-1.52237
-525,155,-19.3321,1.625,0.00145443,0.0013174,-0.00268648,0.00407327,-0.00130144,-0.772649,0.00323772,0.0389046,699,869,-19.3321,-1.62498
-518,155,-19.3854,1.58698,0.00133969,0.00138264,-0.00260316,0.00396441,-0.00124208,-0.789524,0.00313995,0.0427006,706,869,-19.3854,-1.58697
-511,155,-19.3722,1.33929,0.00138157,0.00101638,-0.00208903,0.00329597,-0.000898025,-0.741806,0.00254992,0.0416697,713,869,-19.3722,-1.3393
-504,155,-19.3082,1.18073,0.00130763,-1.43634e-06,-0.000900033,0.00176596,-0.000459771,-0.471014,0.00135679,0.0411783,720,869,-19.3082,-1.18075
-497,155,0,0,0,0,0,0,0,0,0,-1,727,869,0,0
-490,155,0,0,0,0,0,0,0,0,0,-1,734,869,0,0
-483,155,0,0,0,0,0,0,0,0,0,-1,741,869,0,0
-476,155,0,0,0,0,0,0,0,0,0,-1,748,869,0,0
-469,155,0,0,0,0,0,0,0,0,0,-1,755,869,0,0
-462,155,0,0,0,0,0,0,0,0,0,-1,762,869,0,0
-455,155,0,0,0,0,0,0,0,0,0,-1,769,869,0,0
-448,155,0,0,0,0,0,0,0,0,0,-1,776,869,0,0
-441,155,0,0,0,0,0,0,0,0,0,-1,783,869,0,0
-434,155,0,0,0,0,0,0,0,0,0,-1,790,869,0,0
-427,155,0,0,0,0,0,0,0,0,0,-1,797,869,0,0
-420,155,0,0,0,0,0,0,0,0,0,-1,804,869,0,0
-413,155,0,0,0,0,0,0,0,0,0,-1,811,869,0,0
-406,155,0,0,0,0,0,0,0,0,0,-1,818,869,0,0
-399,155,0,0,0,0,0,0,0,0,0,-1,825,869,0,0
-392,155,0,0,0,0,0,0,0,0,0,-1,832,869,0,0
-385,155,0,0,0,0,0,0,0,0,0,-1,839,869,0,0
-378,155,0,0,0,0,0,0,0,0,0,-1,846,869,0,0
-371,155,0,0,0,0,0,0,0,0,0,-1,853,869,0,0
-364,155,0,0,0,0,0,0,0,0,0,-1,860,869,0,0
-357,155,0,0,0,0,0,0,0,0,0,-1,867,869,0,0
-350,155,0,0,0,0,0,0,0,0,0,-1,874,869,0,0
-343,155,0,0,0,0,0,0,0,0,0,-1,881,869,0,0
-336,155,0,0,0,0,0,0,0,0,0,-1,888,869,0,0
-329,155,0,0,0,0,0,0,0,0,0,-1,895,869,0,0
-322,155,0,0,0,0,0,0,0,0,0,-1,902,869,0,0
-315,155,0,0,0,0,0,0,0,0,0,-1,909,869,0,0
-308,155,0,0,0,0,0,0,0,0,0,-1,916,869,0,0
-301,155,0,0,0,0,0,0,0,0,0,-1,923,869,0,0
-294,155,0,0,0,0,0,0,0,0,0,-1,930,869,0,0
-287,155,0,0,0,0,0,0,0,0,0,-1,937,869,0,0
-280,155,0,0,0,0,0,0,0,0,0,-1,944,869,0,0
-273,155,0,0,0,0,0,0,0,0,0,-1,951,869,0,0
-266,155,0,0,0,0,0,0,0,0,0,-1,958,869,0,0
-259,155,0,0,0,0,0,0,0,0,0,-1,965,869,0,0
-252,155,0,0,0,0,0,0,0,0,0,-1,972,869,0,0
-245,155,0,0,0,0,0,0,0,0,0,-1,979,869,0,0
-238,155,0,0,0,0,0,0,0,0,0,-1,986,869,0,0
-231,155,0,0,0,0,0,0,0,0,0,-1,993,869,0,0
-224,155,0,0,0,0,0,0,0,0,0,-1,1000,869,0,0
-217,155,0,0,0,0,0,0,0,0,0,-1,1007,869,0,0
-210,155,0,0,0,0,0,0,0,0,0,-1,1014,869,0,0
-203,155,0,0,0,0,0,0,0,0,0,-1,1021,869,0,0
-196,155,0,0,0,0,0,0,0,0,0,-1,1028,869,0,0
-189,155,0,0,0,0,0,0,0,0,0,-1,1035,869,0,0
-182,155,0,0,0,0,0,0,0,0,0,-1,1042,869,0,0
-175,155,0,0,0,0,0,0,0,0,0,-1,1049,869,0,0
-168,155,0,0,0,0,0,0,0,0,0,-1,1056,869,0,0
-161,155,0,0,0,0,0,0,0,0,0,-1,1063,869,0,0
-154,155,0,0,0,0,0,0,0,0,0,-1,1070,869,0,0
-147,155,0,0,0,0,0,0,0,0,0,-1,1077,869,0,0
-140,155,0,0,0,0,0,0,0,0,0,-1,1084,869,0,0
-133,155,0,0,0,0,0,0,0,0,0,-1,1091,869,0,0
-126,155,0,0,0,0,0,0,0,0,0,-1,1098,869,0,0
-119,155,0,0,0,0,0,0,0,0,0,-1,1105,869,0,0
-112,155,0,0,0,0,0,0,0,0,0,-1,1112,869,0,0
-105,155,0,0,0,0,0,0,0,0,0,-1,1119,869,0,0
-98,155,0,0,0,0,0,0,0,0,0,-1,1126,869,0,0
-91,155,0,0,0,0,0,0,0,0,0,-1,1133,869,0,0
-84,155,0,0,0,0,0,0,0,0,0,-1,1140,869,0,0
-77,155,0,0,0,0,0,0,0,0,0,-1,1147,869,0,0
-70,155,0,0,0,0,0,0,0,0,0,-1,1154,869,0,0
-63,155,0,0,0,0,0,0,0,0,0,-1,1161,869,0,0
-56,155,0,0,0,0,0,0,0,0,0,-1,1168,869,0,0
-49,155,0,0,0,0,0,0,0,0,0,-1,1175,869,0,0
-42,155,0,0,0,0,0,0,0,0,0,-1,1182,869,0,0
-35,155,0,0,0,0,0,0,0,0,0,-1,1189,869,0,0
-28,155,0,0,0,0,0,0,0,0,0,-1,1196,869,0,0
-21,155,0,0,0,0,0,0,0,0,0,-1,1203,869,0,0
-14,155,0,0,0,0,0,0,0,0,0,-1,1210,869,0,0
-7,155,0,0,0,0,0,0,0,0,0,-1,1217,869,0,0
0,155,0,0,0,0,0,0,0,0,0,-1,1224,869,0,0
7,155,0,0,0,0,0,0,0,0,0,-1,1231,869,0,0
14,155,0,0,0,0,0,0,0,0,0,-1,1238,869,0,0
21,155,0,0,0,0,0,0,0,0,0,-1,1245,869,0,0
28,155,0,0,0,0,0,0,0,0,0,-1,1252,869,0,0
35,155,0,0,0,0,0,0,0,0,0,-1,1259,869,0,0
42,155,0,0,0,0,0,0,0,0,0,-1,1266,869,0,0
49,155,0,0,0,0,0,0,0,0,0,-1,1273,869,0,0
56,155,0,0,0,0,0,0,0,0,0,-1,1280,869,0,0
63,155,0,0,0,0,0,0,0,0,0,-1,1287,869,0,0
70,155,0,0,0,0,0,0,0,0,0,-1,1294,869,0,0
77,155,0,0,0,0,0,0,0,0,0,-1,1301,869,0,0
84,155,0,0,0,0,0,0,0,0,0,-1,1308,869,0,0
91,155,0,0,0,0,0,0,0,0,0,-1,1315,869,0,0
98,155,0,0,0,0,0,0,0,0,0,-1,1322,869,0,0
105,155,0,0,0,0,0,0,0,0,0,-1,1329,869,0,0
112,155,0,0,0,0,0,0,0,0,0,-1,1336,869,0,0
119,155,0,0,0,0,0,0,0,0,0,-1,1343,869,0,0
126,155,0,0,0,0,0,0,0,0,0,-1,1350,869,0,0
133,155,0,0,0,0,0,0,0,0,0,-1,1357,869,0,0
140,155,0,0,0,0,0,0,0,0,0,-1,1364,869,0,0
147,155,0,0,0,0,0,0,0,0,0,-1,1371,869,0,0
154,155,0,0,0,0,0,0,0,0,0,-1,1378,869,0,0
161,155,0,0,0,0,0,0,0,0,0,-1,1385,869,0,0
168,155,0,0,0,0,0,0,0,0,0,-1,1392,869,0,0
175,155,0,0,0,0,0,0,0,0,0,-1,1399,869,0,0
182,155,0,0,0,0,0,0,0,0,0,-1,1406,869,0,0
189,155,0,0,0,0,0,0,0,0,0,-1,1413,869,0,0
196,155,0,0,0,0,0,0,0,0,0,-1,1420,869,0,0
203,155,0,0,0,0,0,0,0,0,0,-1,1427,869,0,0
210,155,0,0,0,0,0,0,0,0,0,-1,1434,869,0,0
217,155,0,0,0,0,0,0,0,0,0,-1,1441,869,0,0
224,155,0,0,0,0,0,0,0,0,0,-1,1448,869,0,0
231,155,0,0,0,0,0,0,0,0,0,-1,1455,869,0,0
238,155,0,0,0,0,0,0,0,0,0,-1,1462,869,0,0
245,155,0,0,0,0,0,0,0,0,0,-1,1469,869,0,0
252,155,0,0,0,0,0,0,0,0,0,-1,1476,869,0,0
259,155,0,0,0,0,0,0,0,0,0,-1,1483,869,0,0
266,155,0,0,0,0,0,0,0,0,0,-1,1490,869,0,0
273,155,0,0,0,0,0,0,0,0,0,-1,1497,869,0,0
280,155,0,0,0,0,0,0,0,0,0,-1,1504,869,0,0
287,155,0,0,0,0,0,0,0,0,0,-1,1511,869,0,0
294,155,0,0,0,0,0,0,0,0,0,-1,1518,869,0,0
301,155,0,0,0,0,0,0,0,0,0,-1,1525,869,0,0
308,155,0,0,0,0,0,0,0,0,0,-1,1532,869,0,0
315,155,0,0,0,0,0,0,0,0,0,-1,1539,869,0,0
322,155,0,0,0,0,0,0,0,0,0,-1,1546,869,0,0
329,155,0,0,0,0,0,0,0,0,0,-1,1553,869,0,0
336,155,0,0,0,0,0,0,0,0,0,-1,1560,869,0,0
343,155,0,0,0,0,0,0,0,0,0,-1,1567,869,0,0
350,155,0,0,0,0,0,0,0,0,0,-1,1574,869,0,0
357,155,0,0,0,0,0,0,0,0,0,-1,1581,869,0,0
364,155,0,0,0,0,0,0,0,0,0,-1,1588,869,0,0
371,155,0,0,0,0,0,0,0,0,0,-1,1595,869,0,0
378,155,0,0,0,0,0,0,0,0,0,-1,1602,869,0,0
385,155,0,0,0,0,0,0,0,0,0,-1,1609,869,0,0
392,155,0,0,0,0,0,0,0,0,0,-1,1616,869,0,0
399,155,0,0,0,0,0,0,0,0,0,-1,1623,869,0,0
406,155,0,0,0,0,0,0,0,0,0,-1,1630,869,0,0
413,155,0,0,0,0,0,0,0,0,0,-1,1637,869,0,0
420,155,0,0,0,0,0,0,0,0,0,-1,1644,869,0,0
427,155,0,0,0,0,0,0,0,0,0,-1,1651,869,0,0
434,155,0,0,0,0,0,0,0,0,0,-1,1658,869,0,0
441,155,0,0,0,0,0,0,0,0,0,-1,1665,869,0,0
448,155,0,0,0,0,0,0,0,0,0,-1,1672,869,0,0
455,155,0,0,0,0,0,0,0,0,0,-1,1679,869,0,0
462,155,0,0,0,0,0,0,0,0,0,-1,1686,869,0,0
469,155,0,0,0,0,0,0,0,0,0,-1,1693,869,0,0
476,155,0,0,0,0,0,0,0,0,0,-1,1700,869,0,0
483,155,0,0,0,0,0,0,0,0,0,-1,1707,869,0,0
490,155,0,0,0,0,0,0,0,0,0,-1,1714,869,0,0
497,155,0,0,0,0,0,0,0,0,0,-1,1721,869,0,0
504,155,0,0,0,0,0,0,0,0,0,-1,1728,869,0,0
511,155,0,0,0,0,0,0,0,0,0,-1,1735,869,0,0
518,155,0,0,0,0,0,0,0,0,0,-1,1742,869,0,0
525,155,0,0,0,0,0,0,0,0,0,-1,1749,869,0,0
532,155,0,0,0,0,0,0,0,0,0,-1,1756,869,0,0
539,155,0,0,0,0,0,0,0,0,0,-1,1763,869,0,0
546,155,0,0,0,0,0,0,0,0,0,-1,1770,869,0,0
553,155,0,0,0,0,0,0,0,0,0,-1,1777,869,0,0
560,155,0,0,0,0,0,0,0,0,0,-1,1784,869,0,0
567,155,0,0,0,0,0,0,0,0,0,-1,1791,869,0,0
574,155,0,0,0,0,0,0,0,0,0,-1,1798,869,0,0
581,155,0,0,0,0,0,0,0,0,0,-1,1805,869,0,0
588,155,0,0,0,0,0,0,0,0,0,-1,1812,869,0,0
595,155,0,0,0,0,0,0,0,0,0,-1,1819,869,0,0
602,155,0,0,0,0,0,0,0,0,0,-1,1826,869,0,0
609,155,0,0,0,0,0,0,0,0,0,-1,1833,869,0,0
616,155,27.6146,3.39374,-0.00110207,0.00207203,-0.000115606,0.00207624,-0.00110627,-1.53444,0.00186565,0.0437222,1840,869,27.6146,-3.39375
623,155,27.6025,3.62518,-0.000367106,0.00135975,-0.000833123,0.00169615,-0.000703513,-1.18703,0.00142441,0.0426585,1847,869,27.6025,-3.62521
630,155,27.5834,3.60657,0.000327888,0.000889518,-0.00124461,0.00188459,-0.00066719,-0.896353,0.00152814,0.0417555,1854,869,27.5833,-3.60654
637,155,27.522,3.51447,0.000744874,0.00042935,-0.00156985,0.00216487,-0.000990647,-0.735319,0.00186341,0.0407805,1861,869,27.5219,-3.51444
644,155,27.5558,3.41364,0.00100246,-4.34045e-05,-0.00173452,0.00229117,-0.00133211,-0.638989,0.00211619,0.0372552,1868,869,27.5558,-3.41365
651,155,27.6267,3.40808,0.00110785,-0.000435921,-0.00177308,0.00226978,-0.00159785,-0.580102,0.00224418,0.0356539,1875,869,27.6266,-3.40808
658,155,27.6118,3.45306,0.00112569,-0.000723094,-0.00175297,0.00218307,-0.00178047,-0.542763,0.00229229,0.0302152,1882,869,27.6119,-3.45305
665,155,27.6228,3.39532,0.00103155,-0.000995426,-0.00158179,0.00189668,-0.00186056,-0.500486,0.00216928,0.0321281,1889,869,27.6229,-3.39531
672,155,27.686,3.31232,0.000868305,-0.00120673,-0.00146683,0.00162746,-0.00196589,-0.477587,0.00207768,0.0407537,1896,869,27.6861,-3.3123
679,155,27.7495,3.21381,0,0,0,0,0,0,0,-1,1903,869,27.7495,-3.21382
686,155,23.2084,3.12335,0,0,0,0,0,0,0,-1,1910,869,23.2084,-3.12338
693,155,23.2794,3.34918,0.00060194,-0.000970649,-0.00100676,0.00109308,-0.00146179,-0.453871,0.00148016,0.0260239,1917,869,23.2795,-3.34916
700,155,23.3654,3.6228,0.000520051,-0.000841666,-0.000931197,0.000992751,-0.00131437,-0.46973,0.00133632,0.018984,1924,869,23.3653,-3.62278
707,155,23.447,3.89862,0.000727889,-0.000588979,-0.000956917,0.00123102,-0.00109211,-0.484058,0.00134205,0.0145294,1931,869,23.4471,-3.89865
714,155,23.3905,4.11609,0.00120732,-0.00013523,-0.00110189,0.00182631,-0.000754217,-0.511819,0.00153213,0.0261351,1938,869,23.3905,-4.11608
721,155,23.2743,4.37695,0.00195057,0.000399748,-0.00119364,0.00259855,-0.000248235,-0.497346,0.00182076,0.0275435,1945,869,23.2743,-4.37697
728,155,23.2739,4.61926,0.00320903,0.00152488,-0.00143993,0.00403503,0.000698879,-0.520812,0.00248997,0.0198826,1952,869,23.2739,-4.61929
735,155,23.3032,4.87378,0.0050168,0.00274961,-0.00181687,0.00602471,0.0017417,-0.506485,0.00358003,0.0153197,1959,869,23.3032,-4.87377
742,155,23.3281,5.16626,0.00750039,0.00430883,-0.00227257,0.00868149,0.00312773,-0.4793,0.00507708,0.0162915,1966,869,23.3281,-5.16628
749,155,23.2722,5.42529,0.0105682,0.00621479,-0.00278376,0.0119252,0.00485774,-0.453587,0.00692431,0.0134414,1973,869,23.2723,-5.42529
756,155,23.3011,5.65771,0.0142809,0.00862596,-0.0033386,0.0158285,0.00707841,-0.43405,0.00915554,0.0240718,1980,869,23.3012,-5.65769
763,155,23.4812,5.70642,0.01871,0.0117007,-0.00389643,0.020446,0.00996468,-0.419143,0.0118058,0.0413479,1987,869,23.4812,-5.70639
770,155,23.7655,5.72443,0.0239489,0.0157559,-0.00439281,0.0258589,0.0138459,-0.410143,0.0149422,0.0456635,1994,869,23.7655,-5.72441
777,155,23.9987,5.81506,0.0299306,0.0209956,-0.00484379,0.0320526,0.0188736,-0.412892,0.0186027,0.0478892,2001,869,23.9987,-5.81505
784,155,24.2019,5.86938,0,0,0,0,0,0,0,-1,2008,869,24.2019,-5.86938
791,155,0,0,0,0,0,0,0,0,0,-1,2015,869,0,0
798,155,0,0,0,0,0,0,0,0,0,-1,2022,869,0,0
805,155,0,0,0,0,0,0,0,0,0,-1,2029,869,0,0
812,155,0,0,0,0,0,0,0,0,0,-1,2036,869,0,0
-700,148,0,0,0,0,0,0,0,0,0,-1,524,876,0,0
-693,148,0,0,0,0,0,0,0,0,0,-1,531,876,0,0
-686,148,0,0,0,0,0,0,0,0,0,-1,538,876,0,0
-679,148,0,0,0,0,0,0,0,0,0,-1,545,876,0,0
-672,148,-16.8946,4.54889,0.0507976,-0.0352136,0.0569732,0.0791743,-0.0635902,0.462103,0.0825887,0.0490057,552,876,-16.8946,-4.54888
-665,148,-16.5138,4.04468,0.0506155,-0.02884,0.0483358,0.0734548,-0.0516793,0.441418,0.07261,0.0488125,559,876,-16.5138,-4.04471
-658,148,-16.0656,3.4751,0.0464657,-0.0230704,0.0394938,0.064315,-0.0409197,0.424474,0.0612557,0.0470849,566,876,-16.0655,-3.47511
-651,148,-15.7024,2.95453,0.0405977,-0.0176025,0.0313808,0.0542945,-0.0312992,0.411545,0.0500085,0.0442184,573,876,-15.7024,-2.95454
-644,148,-15.361,2.58447,0.0339489,-0.0125633,0.0242479,0.0442905,-0.0229049,0.403137,0.0394447,0.045191,580,876,-15.361,-2.58448
-637,148,-15.7593,3.14008,0,0,0,0,0,0,0,-1,587,876,-15.7594,-3.14009
-630,148,-15.8881,3.11053,0.0201002,-0.00458411,0.0132356,0.0258552,-0.0103392,0.410158,0.0215274,0.0452495,594,876,-15.888,-3.11056
-623,148,-15.9812,3.0603,0.0141411,-0.00176881,0.00955025,0.0186155,-0.0062432,0.43814,0.0149329,0.022354,601,876,-15.9812,-3.06028
-616,148,-16.0856,2.79578,0.00929982,-2.49087e-05,0.00654056,0.0126697,-0.00339476,0.475753,0.00977652,0.0124052,608,876,-16.0856,-2.7958
-609,148,-16.1266,2.55957,0.00511998,0.00106798,0.0036112,0.00723468,-0.00104672,0.529761,0.00520721,0.0113461,615,876,-16.1266,-2.5596
-602,148,-16.1423,2.32819,0.00180217,0.0015218,0.00172499,0.00339266,-6.86905e-05,0.744853,0.00228501,0.0114921,622,876,-16.1423,-2.32817
-595,148,-16.1369,2.099,3.04149e-05,0.00103349,0.000839188,0.00150959,-0.000445686,1.05474,0.00118327,0.0102085,629,876,-16.1369,-2.099
-588,148,-16.1557,1.83295,-0.000352817,0.000411048,0.000236544,0.000478366,-0.000420134,1.29354,0.000519112,0.0154454,636,876,-16.1557,-1.83293
-581,148,-16.2515,1.62195,-0.000446939,0.000184118,-0.000132751,0.000210907,-0.000473728,-1.37167,0.000404866,0.0254206,643,876,-16.2515,-1.62193
-574,148,-16.0762,1.42059,-0.000329587,-9.21675e-05,-0.000372157,0.000179754,-0.000601509,-0.939786,0.000472463,0.0287754,650,876,-16.0762,-1.42058
-567,148,-16.1822,1.16388,0.000136453,-0.000126403,-0.000706598,0.000723742,-0.000713691,-0.693448,0.000829909,0.0363189,657,876,-16.1822,-1.16385
-560,148,-16.1215,0.862427,0.000639316,-0.000116458,-0.00115643,0.00147804,-0.000955177,-0.627482,0.00141559,0.0424105,664,876,-16.1215,-0.862457
-553,148,-17.3129,1.22522,0,0,0,0,0,0,0,-1,671,876,-17.3129,-1.22525
-546,148,-19.3536,1.4776,0,0,0,0,0,0,0,-1,678,876,-19.3537,-1.47762
-539,148,-19.3555,1.47266,0.00131042,0.000222702,-0.00209366,0.0029297,-0.00139658,-0.658324,0.00254953,0.0354314,685,876,-19.3556,-1.47265
-532,148,-19.3754,1.50305,0.00155099,0.000333391,-0.00233904,0.00335916,-0.00147478,-0.658084,0.00286069,0.0340182,692,876,-19.3754,-1.50305
-525,148,-19.3253,1.62695,0.0016137,0.000299941,-0.0024942,0.00353607,-0.00162242,-0.65664,0.0030458,0.0379514,699,876,-19.3253,-1.62696
-518,148,-19.3588,1.70691,0.00173343,-7.54983e-06,-0.00247757,0.00348898,-0.00176311,-0.616461,0.00308639,0.0443701,706,876,-19.3588,-1.70689
-511,148,-19.3004,1.65686,0.00205471,-0.000852535,-0.00213379,0.00318296,-0.00198078,-0.486385,0.0030081,0.0403881,713,876,-19.3004,-1.65685
-504,148,-19.2925,1.51794,0.00216255,-0.00236259,-0.00130304,0.00251094,-0.00271098,-0.261259,0.00301562,0.0406216,720,876,-19.2925,-1.51792
-497,148,0,0,0,0,0,0,0,0,0,-1,727,876,0,0
-490,148,0,0,0,0,0,0,0,0,0,-1,734,876,0,0
-483,148,0,0,0,0,0,0,0,0,0,-1,741,876,0,0
-476,148,0,0,0,0,0,0,0,0,0,-1,748,876,0,0
-469,148,0,0,0,0,0,0,0,0,0,-1,755,876,0,0
-462,148,0,0,0,0,0,0,0,0,0,-1,762,876,0,0
-455,148,0,0,0,0,0,0,0,0,0,-1,769,876,0,0
-448,148,0,0,0,0,0,0,0,0,0,-1,776,876,0,0
-441,148,0,0,0,0,0,0,0,0,0,-1,783,876,0,0
-434,148,0,0,0,0,0,0,0,0,0,-1,790,876,0,0
-427,148,0,0,0,0,0,0,0,0,0,-1,797,876,0,0
-420,148,0,0,0,0,0,0,0,0,0,-1,804,876,0,0
-413,148,0,0,0,0,0,0,0,0,0,-1,811,876,0,0
-406,148,0,0,0,0,0,0,0,0,0,-1,818,876,0,0
-399,148,0,0,0,0,0,0,0,0,0,-1,825,876,0,0
-392,148,0,0,0,0,0,0,0,0,0,-1,832,876,0,0
-385,148,0,0,0,0,0,0,0,0,0,-1,839,876,0,0
-378,148,0,0,0,0,0,0,0,0,0,-1,846,876,0,0
-371,148,0,0,0,0,0,0,0,0,0,-1,853,876,0,0
-364,148,0,0,0,0,0,0,0,0,0,-1,860,876,0,0
-357,148,0,0,0,0,0,0,0,0,0,-1,867,876,0,0
-350,148,0,0,0,0,0,0,0,0,0,-1,874,876,0,0
-343,148,0,0,0,0,0,0,0,0,0,-1,881,876,0,0
-336,148,0,0,0,0,0,0,0,0,0,-1,888,876,0,0
-329,148,0,0,0,0,0,0,0,0,0,-1,895,876,0,0
-322,148,0,0,0,0,0,0,0,0,0,-1,902,876,0,0
-315,148,0,0,0,0,0,0,0,0,0,-1,909,876,0,0
-308,148,0,0,0,0,0,0,0,0,0,-1,916,876,0,0
-301,148,0,0,0,0,0,0,0,0,0,-1,923,876,0,0
-294,148,0,0,0,0,0,0,0,0,0,-1,930,876,0,0
-287,148,0,0,0,0,0,0,0,0,0,-1,937,876,0,0
-280,148,0,0,0,0,0,0,0,0,0,-1,944,876,0,0
-273,148,0,0,0,0,0,0,0,0,0,-1,951,876,0,0
-266,148,0,0,0,0,0,0,0,0,0,-1,958,876,0,0
-259,148,0,0,0,0,0,0,0,0,0,-1,965,876,0,0
-252,148,0,0,0,0,0,0,0,0,0,-1,972,876,0,0
-245,148,0,0,0,0,0,0,0,0,0,-1,979,876,0,0
-238,148,0,0,0,0,0,0,0,0,0,-1,986,876,0,0
-231,148,0,0,0,0,0,0,0,0,0,-1,993,876,0,0
-224,148,0,0,0,0,0,0,0,0,0,-1,1000,876,0,0
-217,148,0,0,0,0,0,0,0,0,0,-1,1007,876,0,0
-210,148,0,0,0,0,0,0,0,0,0,-1,1014,876,0,0
-203,148,0,0,0,0,0,0,0,0,0,-1,1021,876,0,0
-196,148,0,0,0,0,0,0,0,0,0,-1,1028,876,0,0
-189,148,0,0,0,0,0,0,0,0,0,-1,1035,876,0,0
-182,148,0,0,0,0,0,0,0,0,0,-1,1042,876,0,0
-175,148,0,0,0,0,0,0,0,0,0,-1,1049,876,0,0
-168,148,0,0,0,0,0,0,0,0,0,-1,1056,876,0,0
-161,148,0,0,0,0,0,0,0,0,0,-1,1063,876,0,0
-154,148,0,0,0,0,0,0,0,0,0,-1,1070,876,0,0
-147,148,0,0,0,0,0,0,0,0,0,-1,1077,876,0,0
-140,148,0,0,0,0,0,0,0,0,0,-1,1084,876,0,0
-133,148,0,0,0,0,0,0,0,0,0,-1,1091,876,0,0
-126,148,0,0,0,0,0,0,0,0,0,-1,1098,876,0,0
-119,148,0,0,0,0,0,0,0,0,0,-1,1105,876,0,0
-112,148,0,0,0,0,0,0,0,0,0,-1,1112,876,0,0
-105,148,0,0,0,0,0,0,0,0,0,-1,1119,876,0,0
-98,148,0,0,0,0,0,0,0,0,0,-1,1126,876,0,0
-91,148,0,0,0,0,0,0,0,0,0,-1,1133,876,0,0
-84,148,0,0,0,0,0,0,0,0,0,-1,1140,876,0,0
-77,148,0,0,0,0,0,0,0,0,0,-1,1147,876,0,0
-70,148,0,0,0,0,0,0,0,0,0,-1,1154,876,0,0
-63,148,0,0,0,0,0,0,0,0,0,-1,1161,876,0,0
-56,148,0,0,0,0,0,0,0,0,0,-1,1168,876,0,0
-49,148,0,0,0,0,0,0,0,0,0,-1,1175,876,0,0
-42,148,0,0,0,0,0,0,0,0,0,-1,1182,876,0,0
-35,148,0,0,0,0,0,0,0,0,0,-1,1189,876,0,0
-28,148,0,0,0,0,0,0,0,0,0,-1,1196,876,0,0
-21,148,0,0,0,0,0,0,0,0,0,-1,1203,876,0,0
-14,148,0,0,0,0,0,0,0,0,0,-1,1210,876,0,0
-7,148,0,0,0,0,0,0,0,0,0,-1,1217,876,0,0
0,148,0,0,0,0,0,0,0,0,0,-1,1224,876,0,0
7,148,0,0,0,0,0,0,0,0,0,-1,1231,876,0,0
14,148,0,0,0,0,0,0,0,0,0,-1,1238,876,0,0
21,148,0,0,0,0,0,0,0,0,0,-1,1245,876,0,0
28,148,0,0,0,0,0,0,0,0,0,-1,1252,876,0,0
35,148,0,0,0,0,0,0,0,0,0,-1,1259,876,0,0
42,148,0,0,0,0,0,0,0,0,0,-1,1266,876,0,0
49,148,0,0,0,0,0,0,0,0,0,-1,1273,876,0,0
56,148,0,0,0,0,0,0,0,0,0,-1,1280,876,0,0
63,148,0,0,0,0,0,0,0,0,0,-1,1287,876,0,0
70,148,0,0,0,0,0,0,0,0,0,-1,1294,876,0,0
77,148,0,0,0,0,0,0,0,0,0,-1,1301,876,0,0
84,148,0,0,0,0,0,0,0,0,0,-1,1308,876,0,0
91,148,0,0,0,0,0,0,0,0,0,-1,1315,876,0,0
98,148,0,0,0,0,0,0,0,0,0,-1,1322,876,0,0
105,148,0,0,0,0,0,0,0,0,0,-1,1329,876,0,0
112,148,0,0,0,0,0,0,0,0,0,-1,1336,876,0,0
119,148,0,0,0,0,0,0,0,0,0,-1,1343,876,0,0
126,148,0,0,0,0,0,0,0,0,0,-1,1350,876,0,0
133,148,0,0,0,0,0,0,0,0,0,-1,1357,876,0,0
140,148,0,0,0,0,0,0,0,0,0,-1,1364,876,0,0
147,148,0,0,0,0,0,0,0,0,0,-1,1371,876,0,0
154,148,0,0,0,0,0,0,0,0,0,-1,1378,876,0,0
161,148,0,0,0,0,0,0,0,0,0,-1,1385,876,0,0
168,148,0,0,0,0,0,0,0,0,0,-1,1392,876,0,0
175,148,0,0,0,0,0,0,0,0,0,-1,1399,876,0,0
182,148,0,0,0,0,0,0,0,0,0,-1,1406,876,0,0
189,148,0,0,0,0,0,0,0,0,0,-1,1413,876,0,0
196,148,0,0,0,0,0,0,0,0,0,-1,1420,876,0,0
203,148,0,0,0,0,0,0,0,0,0,-1,1427,876,0,0
210,148,0,0,0,0,0,0,0,0,0,-1,1434,876,0,0
217,148,0,0,0,0,0,0,0,0,0,-1,1441,876,0,0
224,148,0,0,0,0,0,0,0,0,0,-1,1448,876,0,0
231,148,0,0,0,0,0,0,0,0,0,-1,1455,876,0,0
238,148,0,0,0,0,0,0,0,0,0,-1,1462,876,0,0
245,148,0,0,0,0,0,0,0,0,0,-1,1469,876,0,0
252,148,0,0,0,0,0,0,0,0,0,-1,1476,876,0,0
259,148,0,0,0,0,0,0,0,0,0,-1,1483,876,0,0
266,148,0,0,0,0,0,0,0,0,0,-1,1490,876,0,0
273,148,0,0,0,0,0,0,0,0,0,-1,1497,876,0,0
280,148,0,0,0,0,0,0,0,0,0,-1,1504,876,0,0
287,148,0,0,0,0,0,0,0,0,0,-1,1511,876,0,0
294,148,0,0,0,0,0,0,0,0,0,-1,1518,876,0,0
301,148,0,0,0,0,0,0,0,0,0,-1,1525,876,0,0
308,148,0,0,0,0,0,0,0,0,0,-1,1532,876,0,0
315,148,0,0,0,0,0,0,0,0,0,-1,1539,876,0,0
322,148,0,0,0,0,0,0,0,0,0,-1,1546,876,0,0
329,148,0,0,0,0,0,0,0,0,0,-1,1553,876,0,0
336,148,0,0,0,0,0,0,0,0,0,-1,1560,876,0,0
343,148,0,0,0,0,0,0,0,0,0,-1,1567,876,0,0
350,148,0,0,0,0,0,0,0,0,0,-1,1574,876,0,0
357,148,0,0,0,0,0,0,0,0,0,-1,1581,876,0,0
364,148,0,0,0,0,0,0,0,0,0,-1,1588,876,0,0
371,148,0,0,0,0,0,0,0,0,0,-1,1595,876,0,0
378,148,0,0,0,0,0,0,0,0,0,-1,1602,876,0,0
385,148,0,0,0,0,0,0,0,0,0,-1,1609,876,0,0
392,148,0,0,0,0,0,0,0,0,0,-1,1616,876,0,0
399,148,0,0,0,0,0,0,0,0,0,-1,1623,876,0,0
406,148,0,0,0,0,0,0,0,0,0,-1,1630,876,0,0
413,148,0,0,0,0,0,0,0,0,0,-1,1637,876,0,0
420,148,0,0,0,0,0,0,0,0,0,-1,1644,876,0,0
427,148,0,0,0,0,0,0,0,0,0,-1,1651,876,0,0
434,148,0,0,0,0,0,0,0,0,0,-1,1658,876,0,0
441,148,0,0,0,0,0,0,0,0,0,-1,1665,876,0,0
448,148,0,0,0,0,0,0,0,0,0,-1,1672,876,0,0
455,148,0,0,0,0,0,0,0,0,0,-1,1679,876,0,0
462,148,0,0,0,0,0,0,0,0,0,-1,1686,876,0,0
469,148,0,0,0,0,0,0,0,0,0,-1,1693,876,0,0
476,148,0,0,0,0,0,0,0,0,0,-1,1700,876,0,0
483,148,0,0,0,0,0,0,0,0,0,-1,1707,876,0,0
490,148,0,0,0,0,0,0,0,0,0,-1,1714,876,0,0
497,148,0,0,0,0,0,0,0,0,0,-1,1721,876,0,0
504,148,0,0,0,0,0,0,0,0,0,-1,1728,876,0,0
511,148,0,0,0,0,0,0,0,0,0,-1,1735,876,0,0
518,148,0,0,0,0,0,0,0,0,0,-1,1742,876,0,0
525,148,0,0,0,0,0,0,0,0,0,-1,1749,876,0,0
532,148,0,0,0,0,0,0,0,0,0,-1,1756,876,0,0
539,148,0,0,0,0,0,0,0,0,0,-1,1763,876,0,0
546,148,0,0,0,0,0,0,0,0,0,-1,1770,876,0,0
553,148,0,0,0,0,0,0,0,0,0,-1,1777,876,0,0
560,148,0,0,0,0,0,0,0,0,0,-1,1784,876,0,0
567,148,0,0,0,0,0,0,0,0,0,-1,1791,876,0,0
574,148,0,0,0,0,0,0,0,0,0,-1,1798,876,0,0
581,148,0,0,0,0,0,0,0,0,0,-1,1805,876,0,0
588,148,0,0,0,0,0,0,0,0,0,-1,1812,876,0,0
595,148,0,0,0,0,0,0,0,0,0,-1,1819,876,0,0
602,148,0,0,0,0,0,0,0,0,0,-1,1826,876,0,0
609,148,0,0,0,0,0,0,0,0,0,-1,1833,876,0,0
616,148,0,0,0,0,0,0,0,0,0,-1,1840,876,0,0
623,148,27.5934,3.46948,-0.000324398,0.00180125,-0.00136243,0.00246637,-0.000989521,-1.11664,0.00205509,0.0400878,1847,876,27.5933,-3.46946
630,148,27.5037,3.44287,0.000557402,0.00127049,-0.0014395,0.00239694,-0.000569047,-0.906799,0.00181758,0.0395663,1854,876,27.5037,-3.4429
637,148,27.545,3.4024,0.00111352,0.000782516,-0.00151104,0.0024681,-0.000572063,-0.730851,0.00186556,0.0365955,1861,876,27.5451,-3.40243
644,148,27.5927,3.32318,0.0014174,0.000264772,-0.00152553,0.00247184,-0.000789671,-0.604796,0.00196475,0.0370228,1868,876,27.5926,-3.32316
651,148,27.6549,3.30438,0.00149585,-0.000161756,-0.00150343,0.00238379,-0.0010497,-0.533487,0.00203159,0.0399187,1875,876,27.6549,-3.30439
658,148,27.5352,3.51959,0.00144361,-0.000483131,-0.001455,0.00222526,-0.00126478,-0.492977,0.00204025,0.0353079,1882,876,27.5351,-3.51959
665,148,27.5674,3.46893,0.0012918,-0.000773302,-0.00130626,0.00192432,-0.00140583,-0.450949,0.00193042,0.024929,1889,876,27.5674,-3.46892
672,148,27.5814,3.40594,0.0010989,-0.000996835,-0.00121769,0.00165752,-0.00155545,-0.430108,0.00185532,0.0306077,1896,876,27.5814,-3.40594
679,148,27.489,3.4549,0,0,0,0,0,0,0,-1,1903,876,27.4891,-3.45488
686,148,21.6195,2.40845,0,0,0,0,0,0,0,-1,1910,876,21.6196,-2.40846
693,148,23.3361,3.31726,0,0,0,0,0,0,0,-1,1917,876,23.336,-3.31729
700,148,23.642,3.66052,0.000539632,-0.000688002,-0.000811928,0.000943655,-0.00109202,-0.461733,0.00117634,0.0195529,1924,876,23.6419,-3.66054
707,148,23.767,3.99243,0.000690844,-0.000493067,-0.000904634,0.00117999,-0.00098221,-0.495682,0.00125008,0.0162744,1931,876,23.767,-3.99245
714,148,23.7008,4.16083,0.00111097,-0.000164028,-0.00104347,0.00169627,-0.000749329,-0.511186,0.00144682,0.017107,1938,876,23.7008,-4.16085
721,148,23.562,4.34863,0.00168619,0.000267244,-0.00111635,0.00229944,-0.000345998,-0.502329,0.00166035,0.0181906,1945,876,23.562,-4.34865
728,148,23.5463,4.58679,0.00261374,0.00132665,-0.00134736,0.00346335,0.000477036,-0.5626,0.00216746,0.0193579,1952,876,23.5463,-4.58677
735,148,23.5852,4.88257,0.00391278,0.00243435,-0.00171649,0.00504246,0.00130467,-0.582073,0.00302213,0.0167541,1959,876,23.5852,-4.88256
742,148,23.5668,5.18353,0.00576866,0.00396958,-0.00222623,0.00727022,0.00246802,-0.593396,0.00426897,0.0190401,1966,876,23.5668,-5.18356
749,148,23.548,5.41016,0.00799599,0.00584456,-0.00282833,0.00994626,0.00389429,-0.603678,0.00578734,0.0160847,1973,876,23.5479,-5.41015
756,148,23.5262,5.63568,0.0105787,0.00818146,-0.00347624,0.0130572,0.005703,-0.619379,0.00755862,0.0199272,1980,876,23.5262,-5.63566
763,148,23.5669,5.63867,0.0134922,0.0111728,-0.00420785,0.0166973,0.00796779,-0.650935,0.00964351,0.0412333,1987,876,23.5668,-5.63867
770,148,23.7056,5.62531,0.0168362,0.0151564,-0.00504872,0.0211144,0.0108782,-0.702975,0.0121923,0.0461518,1994,876,23.7056,-5.6253
777,148,23.7927,5.50372,0.0205075,0.0203883,-0.00608818,0.0265364,0.0143594,-0.780502,0.015338,0.0448916,2001,876,23.7928,-5.50375
784,148,23.8248,5.41589,0.0241565,0.0272007,-0.00755985,0.0333901,0.017967,-0.884739,0.0192964,0.0452035,2008,876,23.8249,-5.41592
791,148,24.1825,5.49396,0,0,0,0,0,0,0,-1,2015,876,24.1825,-5.49399
798,148,0,0,0,0,0,0,0,0,0,-1,2022,876,0,0
805,148,0,0,0,0,0,0,0,0,0,-1,2029,876,0,0
812,148,0,0,0,0,0,0,0,0,0,-1,2036,876,0,0
-700,141,0,0,0,0,0,0,0,0,0,-1,524,883,0,0
-693,141,0,0,0,0,0,0,0,0,0,-1,531,883,0,0
-686,141,0,0,0,0,0,0,0,0,0,-1,538,883,0,0
-679,141,0,0,0,0,0,0,0,0,0,-1,545,883,0,0
-672,141,-17.337,4.72052,0,0,0,0,0,0,0,-1,552,883,-17.337,-4.7205
-665,141,-17.3508,4.51636,0,0,0,0,0,0,0,-1,559,883,-17.3508,-4.51633
-658,141,-17.3472,3.81567,0.0429694,-0.0301246,0.0308437,0.0542452,-0.0414004,0.350484,0.0553868,0.0461542,566,883,-17.3473,-3.8157
-651,141,-17.1008,3.04919,0.0373773,-0.0234073,0.0249022,0.0462764,-0.0323063,0.343217,0.0456081,0.0439879,573,883,-17.1008,-3.04917
-644,141,-16.3316,2.65894,0.031082,-0.0172973,0.0195458,0.0379918,-0.0242071,0.339807,0.0362033,0.0477514,580,883,-16.3316,-2.65893
-637,141,-15.976,3.82361,0,0,0,0,0,0,0,-1,587,883,-15.976,-3.82364
-630,141,-16.1101,3.46466,0.0182656,-0.00755711,0.0110715,0.0223626,-0.011654,0.354416,0.0199612,0.0416503,594,883,-16.1101,-3.46466
-623,141,-16.1686,3.0174,0.0128253,-0.00397827,0.0082455,0.0161955,-0.00734841,0.388005,0.0139093,0.0229136,601,883,-16.1686,-3.01742
-616,141,-16.3201,2.77368,0.00844671,-0.00157486,0.00583082,0.011124,-0.00425215,0.430446,0.00916818,0.0115716,608,883,-16.3201,-2.77371
-609,141,-16.3704,2.54346,0.00454365,4.57898e-05,0.00335218,0.0063314,-0.00174196,0.489939,0.00490579,0.0127518,615,883,-16.3704,-2.54347
-602,141,-16.3862,2.32434,0.00125818,0.000840375,0.0016466,0.00270908,-0.000610527,0.722301,0.00204024,0.0120786,622,883,-16.3862,-2.32433
-595,141,-16.3846,2.10437,-0.000445436,0.000649426,0.000775665,0.00105138,-0.000847393,1.09269,0.00109837,0.0108643,629,883,-16.3846,-2.10437
-588,141,-16.514,1.85645,-0.000757069,8.58843e-05,0.000162538,0.000116139,-0.000787323,1.38676,0.00056757,0.0176347,636,883,-16.514,-1.85647
-581,141,-16.5001,1.64093,-0.000926758,-0.000125827,-0.000215741,-7.14115e-05,-0.000981174,-1.32372,0.000631659,0.0245675,643,883,-16.5001,-1.6409
-574,141,-16.2834,1.47357,-0.000850612,-0.000370891,-0.000442527,-0.000107399,-0.0011141,-1.03375,0.00070965,0.0310011,650,883,-16.2834,-1.47359
-567,141,-16.3126,1.32379,-0.000356741,-0.000441245,-0.00072339,0.000325629,-0.00112362,-0.756227,0.000877985,0.0349638,657,883,-16.3126,-1.32378
-560,141,-16.3316,1.25879,0,0,0,0,0,0,0,-1,664,883,-16.3316,-1.25877
-553,141,-19.3511,1.55963,0,0,0,0,0,0,0,-1,671,883,-19.3511,-1.55965
-546,141,-19.314,1.56244,0.000740357,-0.000415053,-0.00166403,0.00192411,-0.0015988,-0.618321,0.00203684,0.0372586,678,883,-19.314,-1.56242
-539,141,-19.3116,1.50781,0.00109752,-0.000339001,-0.00193929,0.00244729,-0.00168877,-0.608044,0.00240131,0.028253,685,883,-19.3116,-1.50782
-532,141,-19.3901,1.45575,0.00146102,-0.000338712,-0.00216612,0.00290675,-0.00178445,-0.588531,0.00273418,0.0286438,692,883,-19.3901,-1.45573
-525,141,-19.3693,1.53735,0.00173174,-0.000525067,-0.00233758,0.00319902,-0.00199234,-0.560532,0.0030241,0.0382941,699,883,-19.3692,-1.53733
-518,141,-19.3734,1.66174,0.00213366,-0.00108283,-0.0024289,0.00343849,-0.00238766,-0.492971,0.00338192,0.0434547,706,883,-19.3733,-1.66176
-511,141,-19.317,1.53729,0.00274348,-0.00222106,-0.00230885,0.00365127,-0.00312884,-0.374609,0.00391837,0.0388487,713,883,-19.317,-1.53729
-504,141,-19.3214,1.48676,0.00293592,-0.0039611,-0.00190741,0.00342827,-0.00445346,-0.252615,0.00456333,0.039225,720,883,-19.3214,-1.48675
-497,141,0,0,0,0,0,0,0,0,0,-1,727,883,0,0
-490,141,0,0,0,0,0,0,0,0,0,-1,734,883,0,0
-483,141,0,0,0,0,0,0,0,0,0,-1,741,883,0,0
-476,141,0,0,0,0,0,0,0,0,0,-1,748,883,0,0
-469,141,0,0,0,0,0,0,0,0,0,-1,755,883,0,0
-462,141,0,0,0,0,0,0,0,0,0,-1,762,883,0,0
-455,141,0,0,0,0,0,0,0,0,0,-1,769,883,0,0
-448,141,0,0,0,0,0,0,0,0,0,-1,776,883,0,0
-441,141,0,0,0,0,0,0,0,0,0,-1,783,883,0,0
-434,141,0,0,0,0,0,0,0,0,0,-1,790,883,0,0
-427,141,0,0,0,0,0,0,0,0,0,-1,797,883,0,0
-420,141,0,0,0,0,0,0,0,0,0,-1,804,883,0,0
-413,141,0,0,0,0,0,0,0,0,0,-1,811,883,0,0
-406,141,0,0,0,0,0,0,0,0,0,-1,818,883,0,0
-399,141,0,0,0,0,0,0,0,0,0,-1,825,883,0,0
-392,141,0,0,0,0,0,0,0,0,0,-1,832,883,0,0
-385,141,0,0,0,0,0,0,0,0,0,-1,839,883,0,0
-378,141,0,0,0,0,0,0,0,0,0,-1,846,883,0,0
-371,141,0,0,0,0,0,0,0,0,0,-1,853,883,0,0
-364,141,0,0,0,0,0,0,0,0,0,-1,860,883,0,0
-357,141,0,0,0,0,0,0,0,0,0,-1,867,883,0,0
-350,141,0,0,0,0,0,0,0,0,0,-1,874,883,0,0
-343,141,0,0,0,0,0,0,0,0,0,-1,881,883,0,0
-336,141,0,0,0,0,0,0,0,0,0,-1,888,883,0,0
-329,141,0,0,0,0,0,0,0,0,0,-1,895,883,0,0
-322,141,0,0,0,0,0,0,0,0,0,-1,902,883,0,0
-315,141,0,0,0,0,0,0,0,0,0,-1,909,883,0,0
-308,141,0,0,0,0,0,0,0,0,0,-1,916,883,0,0
-301,141,0,0,0,0,0,0,0,0,0,-1,923,883,0,0
-294,141,0,0,0,0,0,0,0,0,0,-1,930,883,0,0
-287,141,0,0,0,0,0,0,0,0,0,-1,937,883,0,0
-280,141,0,0,0,0,0,0,0,0,0,-1,944,883,0,0
-273,141,0,0,0,0,0,0,0,0,0,-1,951,883,0,0
-266,141,0,0,0,0,0,0,0,0,0,-1,958,883,0,0
-259,141,0,0,0,0,0,0,0,0,0,-1,965,883,0,0
-252,141,0,0,0,0,0,0,0,0,0,-1,972,883,0,0
-245,141,0,0,0,0,0,0,0,0,0,-1,979,883,0,0
-238,141,0,0,0,0,0,0,0,0,0,-1,986,883,0,0
-231,141,0,0,0,0,0,0,0,0,0,-1,993,883,0,0
-224,141,0,0,0,0,0,0,0,0,0,-1,1000,883,0,0
-217,141,0,0,0,0,0,0,0,0,0,-1,1007,883,0,0
-210,141,0,0,0,0,0,0,0,0,0,-1,1014,883,0,0
-203,141,0,0,0,0,0,0,0,0,0,-1,1021,883,0,0
-196,141,0,0,0,0,0,0,0,0,0,-1,1028,883,0,0
-189,141,0,0,0,0,0,0,0,0,0,-1,1035,883,0,0
-182,141,0,0,0,0,0,0,0,0,0,-1,1042,883,0,0
-175,141,0,0,0,0,0,0,0,0,0,-1,1049,883,0,0
-168,141,0,0,0,0,0,0,0,0,0,-1,1056,883,0,0
-161,141,0,0,0,0,0,0,0,0,0,-1,1063,883,0,0
-154,141,0,0,0,0,0,0,0,0,0,-1,1070,883,0,0
-147,141,0,0,0,0,0,0,0,0,0,-1,1077,883,0,0
-140,141,0,0,0,0,0,0,0,0,0,-1,1084,883,0,0
-133,141,0,0,0,0,0,0,0,0,0,-1,1091,883,0,0
-126,141,0,0,0,0,0,0,0,0,0,-1,1098,883,0,0
-119,141,0,0,0,0,0,0,0,0,0,-1,1105,883,0,0
-112,141,0,0,0,0,0,0,0,0,0,-1,1112,883,0,0
-105,141,0,0,0,0,0,0,0,0,0,-1,1119,883,0,0
-98,141,0,0,0,0,0,0,0,0,0,-1,1126,883,0,0
-91,141,0,0,0,0,0,0,0,0,0,-1,1133,883,0,0
-84,141,0,0,0,0,0,0,0,0,0,-1,1140,883,0,0
-77,141,0,0,0,0,0,0,0,0,0,-1,1147,883,0,0
-70,141,0,0,0,0,0,0,0,0,0,-1,1154,883,0,0
-63,141,0,0,0,0,0,0,0,0,0,-1,1161,883,0,0
-56,141,0,0,0,0,0,0,0,0,0,-1,1168,883,0,0
-49,141,0,0,0,0,0,0,0,0,0,-1,1175,883,0,0
-42,141,0,0,0,0,0,0,0,0,0,-1,1182,883,0,0
-35,141,0,0,0,0,0,0,0,0,0,-1,1189,883,0,0
-28,141,0,0,0,0,0,0,0,0,0,-1,1196,883,0,0
-21,141,0,0,0,0,0,0,0,0,0,-1,1203,883,0,0
-14,141,0,0,0,0,0,0,0,0,0,-1,1210,883,0,0
-7,141,0,0,0,0,0,0,0,0,0,-1,1217,883,0,0
0,141,0,0,0,0,0,0,0,0,0,-1,1224,883,0,0
7,141,0,0,0,0,0,0,0,0,0,-1,1231,883,0,0
14,141,0,0,0,0,0,0,0,0,0,-1,1238,883,0,0
21,141,0,0,0,0,0,0,0,0,0,-1,1245,883,0,0
28,141,0,0,0,0,0,0,0,0,0,-1,1252,883,0,0
35,141,0,0,0,0,0,0,0,0,0,-1,1259,883,0,0
42,141,0,0,0,0,0,0,0,0,0,-1,1266,883,0,0
49,141,0,0,0,0,0,0,0,0,0,-1,1273,883,0,0
56,141,0,0,0,0,0,0,0,0,0,-1,1280,883,0,0
63,141,0,0,0,0,0,0,0,0,0,-1,1287,883,0,0
70,141,0,0,0,0,0,0,0,0,0,-1,1294,883,0,0
77,141,0,0,0,0,0,0,0,0,0,-1,1301,883,0,0
84,141,0,0,0,0,0,0,0,0,0,-1,1308,883,0,0
91,141,0,0,0,0,0,0,0,0,0,-1,1315,883,0,0
98,141,0,0,0,0,0,0,0,0,0,-1,1322,883,0,0
105,141,0,0,0,0,0,0,0,0,0,-1,1329,883,0,0
112,141,0,0,0,0,0,0,0,0,0,-1,1336,883,0,0
119,141,0,0,0,0,0,0,0,0,0,-1,1343,883,0,0
126,141,0,0,0,0,0,0,0,0,0,-1,1350,883,0,0
133,141,0,0,0,0,0,0,0,0,0,-1,1357,883,0,0
140,141,0,0,0,0,0,0,0,0,0,-1,1364,883,0,0
147,141,0,0,0,0,0,0,0,0,0,-1,1371,883,0,0
154,141,0,0,0,0,0,0,0,0,0,-1,1378,883,0,0
161,141,0,0,0,0,0,0,0,0,0,-1,1385,883,0,0
168,141,0,0,0,0,0,0,0,0,0,-1,1392,883,0,0
175,141,0,0,0,0,0,0,0,0,0,-1,1399,883,0,0
182,141,0,0,0,0,0,0,0,0,0,-1,1406,883,0,0
189,141,0,0,0,0,0,0,0,0,0,-1,1413,883,0,0
196,141,0,0,0,0,0,0,0,0,0,-1,1420,883,0,0
203,141,0,0,0,0,0,0,0,0,0,-1,1427,883,0,0
210,141,0,0,0,0,0,0,0,0,0,-1,1434,883,0,0
217,141,0,0,0,0,0,0,0,0,0,-1,1441,883,0,0
224,141,0,0,0,0,0,0,0,0,0,-1,1448,883,0,0
231,141,0,0,0,0,0,0,0,0,0,-1,1455,883,0,0
238,141,0,0,0,0,0,0,0,0,0,-1,1462,883,0,0
245,141,0,0,0,0,0,0,0,0,0,-1,1469,883,0,0
252,141,0,0,0,0,0,0,0,0,0,-1,1476,883,0,0
259,141,0,0,0,0,0,0,0,0,0,-1,1483,883,0,0
266,141,0,0,0,0,0,0,0,0,0,-1,1490,883,0,0
273,141,0,0,0,0,0,0,0,0,0,-1,1497,883,0,0
280,141,0,0,0,0,0,0,0,0,0,-1,1504,883,0,0
287,141,0,0,0,0,0,0,0,0,0,-1,1511,883,0,0
294,141,0,0,0,0,0,0,0,0,0,-1,1518,883,0,0
301,141,0,0,0,0,0,0,0,0,0,-1,1525,883,0,0
308,141,0,0,0,0,0,0,0,0,0,-1,1532,883,0,0
315,141,0,0,0,0,0,0,0,0,0,-1,1539,883,0,0
322,141,0,0,0,0,0,0,0,0,0,-1,1546,883,0,0
329,141,0,0,0,0,0,0,0,0,0,-1,1553,883,0,0
336,141,0,0,0,0,0,0,0,0,0,-1,1560,883,0,0
343,141,0,0,0,0,0,0,0,0,0,-1,1567,883,0,0
350,141,0,0,0,0,0,0,0,0,0,-1,1574,883,0,0
357,141,0,0,0,0,0,0,0,0,0,-1,1581,883,0,0
364,141,0,0,0,0,0,0,0,0,0,-1,1588,883,0,0
371,141,0,0,0,0,0,0,0,0,0,-1,1595,883,0,0
378,141,0,0,0,0,0,0,0,0,0,-1,1602,883,0,0
385,141,0,0,0,0,0,0,0,0,0,-1,1609,883,0,0
392,141,0,0,0,0,0,0,0,0,0,-1,1616,883,0,0
399,141,0,0,0,0,0,0,0,0,0,-1,1623,883,0,0
406,141,0,0,0,0,0,0,0,0,0,-1,1630,883,0,0
413,141,0,0,0,0,0,0,0,0,0,-1,1637,883,0,0
420,141,0,0,0,0,0,0,0,0,0,-1,1644,883,0,0
427,141,0,0,0,0,0,0,0,0,0,-1,1651,883,0,0
434,141,0,0,0,0,0,0,0,0,0,-1,1658,883,0,0
441,141,0,0,0,0,0,0,0,0,0,-1,1665,883,0,0
448,141,0,0,0,0,0,0,0,0,0,-1,1672,883,0,0
455,141,0,0,0,0,0,0,0,0,0,-1,1679,883,0,0
462,141,0,0,0,0,0,0,0,0,0,-1,1686,883,0,0
469,141,0,0,0,0,0,0,0,0,0,-1,1693,883,0,0
476,141,0,0,0,0,0,0,0,0,0,-1,1700,883,0,0
483,141,0,0,0,0,0,0,0,0,0,-1,1707,883,0,0
490,141,0,0,0,0,0,0,0,0,0,-1,1714,883,0,0
497,141,0,0,0,0,0,0,0,0,0,-1,1721,883,0,0
504,141,0,0,0,0,0,0,0,0,0,-1,1728,883,0,0
511,141,0,0,0,0,0,0,0,0,0,-1,1735,883,0,0
518,141,0,0,0,0,0,0,0,0,0,-1,1742,883,0,0
525,141,0,0,0,0,0,0,0,0,0,-1,1749,883,0,0
532,141,0,0,0,0,0,0,0,0,0,-1,1756,883,0,0
539,141,0,0,0,0,0,0,0,0,0,-1,1763,883,0,0
546,141,0,0,0,0,0,0,0,0,0,-1,1770,883,0,0
553,141,0,0,0,0,0,0,0,0,0,-1,1777,883,0,0
560,141,0,0,0,0,0,0,0,0,0,-1,1784,883,0,0
567,141,0,0,0,0,0,0,0,0,0,-1,1791,883,0,0
574,141,0,0,0,0,0,0,0,0,0,-1,1798,883,0,0
581,141,0,0,0,0,0,0,0,0,0,-1,1805,883,0,0
588,141,0,0,0,0,0,0,0,0,0,-1,1812,883,0,0
595,141,0,0,0,0,0,0,0,0,0,-1,1819,883,0,0
602,141,0,0,0,0,0,0,0,0,0,-1,1826,883,0,0
609,141,0,0,0,0,0,0,0,0,0,-1,1833,883,0,0
616,141,0,0,0,0,0,0,0,0,0,-1,1840,883,0,0
623,141,27.5746,3.44769,-0.000483906,0.00231758,-0.00176489,0.00317004,-0.00133636,-1.12083,0.0026726,0.0432321,1847,883,27.5746,-3.44769
630,141,27.4554,3.4259,0.000434174,0.0018189,-0.00156992,0.00284234,-0.000589274,-0.993078,0.00211881,0.045949,1854,883,27.4554,-3.42587
637,141,27.5137,3.414,0.00105539,0.00142781,-0.00144152,0.0026951,-0.0002119,-0.84963,0.00187137,0.043633,1861,883,27.5137,-3.414
644,141,27.634,3.42145,0.00139046,0.000957589,-0.00130943,0.00250122,-0.000153176,-0.703494,0.00172082,0.0409277,1868,883,27.6341,-3.42144
651,141,27.7236,3.44556,0.00147285,0.000532046,-0.00120632,0.00229725,-0.000292347,-0.599493,0.00163767,0.0426023,1875,883,27.7237,-3.44556
658,141,27.5928,3.47949,0.00139525,0.000168848,-0.00111479,0.00205436,-0.00049026,-0.533953,0.00155891,0.0406682,1882,883,27.5927,-3.47949
665,141,27.5732,3.43665,0.00124762,-0.000162184,-0.000972921,0.00174416,-0.000658724,-0.471902,0.00143371,0.0284868,1889,883,27.5732,-3.43666
672,141,27.5592,3.45038,0.00107811,-0.00043406,-0.000897631,0.00149565,-0.000851605,-0.435392,0.00137209,0.0254103,1896,883,27.5592,-3.45041
679,141,27.5452,3.4411,0.00103632,-0.000407446,-0.000840305,0.00142224,-0.000793366,-0.430529,0.00129624,0.0362293,1903,883,27.5452,-3.44112
686,141,27.6113,3.36218,0,0,0,0,0,0,0,-1,1910,883,27.6113,-3.36221
693,141,23.6274,3.34534,0,0,0,0,0,0,0,-1,1917,883,23.6275,-3.34534
700,141,23.863,3.66046,0.000485413,-0.000422886,-0.000621833,0.000801282,-0.000738755,-0.469999,0.000889385,0.0196704,1924,883,23.863,-3.66048
707,141,23.9001,3.91577,0.000602878,-0.000349945,-0.000772709,0.00103424,-0.000781304,-0.509149,0.00105159,0.015843,1931,883,23.9001,-3.91579
714,141,23.8046,4.11652,0.000936722,-0.000198702,-0.000937776,0.00146524,-0.00072722,-0.513215,0.0012895,0.0167946,1938,883,23.8046,-4.11649
721,141,23.8132,4.38312,0.00135047,9.3043e-05,-0.00101909,0.00191918,-0.000475671,-0.509009,0.001464,0.0129435,1945,883,23.8133,-4.38313
728,141,23.8298,4.58441,0.00194094,0.00103155,-0.00123925,0.00280627,0.000166217,-0.609568,0.00181798,0.0147271,1952,883,23.8298,-4.58442
735,141,23.7922,4.875,0.00269456,0.00200138,-0.00163482,0.00401912,0.000676816,-0.680943,0.00248473,0.0142787,1959,883,23.7923,-4.87501
742,141,23.7854,5.14246,0.00384085,0.00351756,-0.00223993,0.00592495,0.00143345,-0.749378,0.00356942,0.0157124,1966,883,23.7854,-5.14244
749,141,23.7903,5.36963,0.00515831,0.00543683,-0.00296874,0.00826958,0.00232557,-0.808835,0.00492444,0.0134861,1973,883,23.7903,-5.36965
756,141,23.7473,5.61212,0.00663345,0.00782065,-0.00375845,0.0110321,0.00342201,-0.863721,0.00652057,0.0198559,1980,883,23.7473,-5.6121
763,141,23.7496,5.58496,0.00811193,0.0109373,-0.00471652,0.0144482,0.00460108,-0.930907,0.00852298,0.0426752,1987,883,23.7496,-5.58498
770,141,23.7271,5.57269,0,0,0,0,0,0,0,-1,1994,883,23.727,-5.5727
777,141,23.946,5.57947,0,0,0,0,0,0,0,-1,2001,883,23.946,-5.57946
784,141,24.2531,5.35529,0,0,0,0,0,0,0,-1,2008,883,24.2531,-5.35527
791,141,24.3706,5.43158,0,0,0,0,0,0,0,-1,2015,883,24.3706,-5.43156
798,141,0,0,0,0,0,0,0,0,0,-1,2022,883,0,0
805,141,0,0,0,0,0,0,0,0,0,-1,2029,883,0,0
812,141,0,0,0,0,0,0,0,0,0,-1,2036,883,0,0
-700,134,0,0,0,0,0,0,0,0,0,-1,524,890,0,0
-693,134,0,0,0,0,0,0,0,0,0,-1,531,890,0,0
-686,134,0,0,0,0,0,0,0,0,0,-1,538,890,0,0
-679,134,0,0,0,0,0,0,0,0,0,-1,545,890,0,0
-672,134,-18.8151,4.59924,0,0,0,0,0,0,0,-1,552,890,-18.815,-4.59924
-665,134,-18.9755,4.39349,0.0480686,-0.0435102,0.0264572,0.0551626,-0.0506042,0.261968,0.0610834,0.0459254,559,890,-18.9755,-4.39351
-658,134,-19.106,4.14917,0.0430567,-0.0347097,0.0230335,0.0493669,-0.04102,0.267397,0.052259,0.0433057,566,890,-19.106,-4.14919
-651,134,-18.1232,2.76038,0,0,0,0,0,0,0,-1,573,890,-18.1232,-2.76038
-644,134,-17.201,2.94,0,0,0,0,0,0,0,-1,580,890,-17.201,-2.94001
-637,134,-16.2018,3.29279,0,0,0,0,0,0,0,-1,587,890,-16.2018,-3.2928
-630,134,-16.3397,3.14722,0.0170843,-0.00928556,0.00919877,0.019976,-0.0121773,0.304581,0.0187449,0.0446192,594,890,-16.3397,-3.14719
-623,134,-16.4439,2.99121,0.011779,-0.0053162,0.00711057,0.0143499,-0.00788713,0.34694,0.013018,0.022474,601,890,-16.4439,-2.99118
-616,134,-16.572,2.75769,0.00722306,-0.00253555,0.00514963,0.00943786,-0.00475035,0.406173,0.00833925,0.0118345,608,890,-16.572,-2.75769
-609,134,-16.6292,2.534,0.00348898,-0.000707112,0.00309389,0.0051291,-0.00234724,0.487451,0.00441495,0.0111412,615,890,-16.6291,-2.53398
-602,134,-16.6259,2.30646,0.000428291,0.000207728,0.00158845,0.00191028,-0.00127426,0.75074,0.00185078,0.0108977,622,890,-16.6259,-2.30647
-595,134,-16.595,2.13031,-0.0011445,0.000276486,0.000812761,0.00064552,-0.00151354,1.14458,0.00127967,0.0127117,629,890,-16.595,-2.13029
-588,134,-16.8013,1.95422,-0.00136776,-0.00023314,0.000218281,-0.000192595,-0.00140831,1.38714,0.000881712,0.0226186,636,890,-16.8013,-1.95421
-581,134,-16.7463,1.60901,-0.00157974,-0.000462826,-0.000176135,-0.000435708,-0.00160686,-1.41804,0.000959564,0.0295433,643,890,-16.7463,-1.60898
-574,134,-16.6516,1.18579,0,0,0,0,0,0,0,-1,650,890,-16.6516,-1.18578
-567,134,-16.5358,1.19464,0,0,0,0,0,0,0,-1,657,890,-16.5357,-1.19465
-560,134,-16.5011,1.11267,0,0,0,0,0,0,0,-1,664,890,-16.5011,-1.11264
-553,134,-19.326,1.44849,0,0,0,0,0,0,0,-1,671,890,-19.3261,-1.44849
-546,134,-19.313,1.46497,0.000295092,-0.000961219,-0.00156893,0.00135695,-0.00202307,-0.594985,0.00196405,0.0269123,678,890,-19.3131,-1.46496
-539,134,-19.3092,1.45984,0.000805735,-0.000940458,-0.00182652,0.0019571,-0.00209183,-0.562447,0.00233808,0.0177852,685,890,-19.3092,-1.45982
-532,134,-19.3597,1.41199,0.00139589,-0.000998907,-0.00203772,0.00256198,-0.002165,-0.519766,0.00273233,0.023172,692,890,-19.3597,-1.41197
-525,134,-19.3622,1.46863,0.00203026,-0.00125721,-0.00222869,0.00315581,-0.00238276,-0.46766,0.00320806,0.0362597,699,890,-19.3622,-1.46861
-518,134,-19.2527,1.55182,0.00291116,-0.00193129,-0.00239998,0.00389908,-0.0029192,-0.390496,0.00395006,0.0431994,706,890,-19.2528,-1.55179
-511,134,-19.1819,1.47278,0.00405399,-0.0031297,-0.00243008,0.00479881,-0.00387451,-0.297409,0.00501702,0.0436117,713,890,-19.1819,-1.47275
-504,134,0,0,0,0,0,0,0,0,0,-1,720,890,0,0
-497,134,0,0,0,0,0,0,0,0,0,-1,727,890,0,0
-490,134,0,0,0,0,0,0,0,0,0,-1,734,890,0,0
-483,134,0,0,0,0,0,0,0,0,0,-1,741,890,0,0
-476,134,0,0,0,0,0,0,0,0,0,-1,748,890,0,0
-469,134,0,0,0,0,0,0,0,0,0,-1,755,890,0,0
-462,134,0,0,0,0,0,0,0,0,0,-1,762,890,0,0
-455,134,0,0,0,0,0,0,0,0,0,-1,769,890,0,0
-448,134,0,0,0,0,0,0,0,0,0,-1,776,890,0,0
-441,134,0,0,0,0,0,0,0,0,0,-1,783,890,0,0
-434,134,0,0,0,0,0,0,0,0,0,-1,790,890,0,0
-427,134,0,0,0,0,0,0,0,0,0,-1,797,890,0,0
-420,134,0,0,0,0,0,0,0,0,0,-1,804,890,0,0
-413,134,0,0,0,0,0,0,0,0,0,-1,811,890,0,0
-406,134,0,0,0,0,0,0,0,0,0,-1,818,890,0,0
-399,134,0,0,0,0,0,0,0,0,0,-1,825,890,0,0
-392,134,0,0,0,0,0,0,0,0,0,-1,832,890,0,0
-385,134,0,0,0,0,0,0,0,0,0,-1,839,890,0,0
-378,134,0,0,0,0,0,0,0,0,0,-1,846,890,0,0
-371,134,0,0,0,0,0,0,0,0,0,-1,853,890,0,0
-364,134,0,0,0,0,0,0,0,0,0,-1,860,890,0,0
-357,134,0,0,0,0,0,0,0,0,0,-1,867,890,0,0
-350,134,0,0,0,0,0,0,0,0,0,-1,874,890,0,0
-343,134,0,0,0,0,0,0,0,0,0,-1,881,890,0,0
-336,134,0,0,0,0,0,0,0,0,0,-1,888,890,0,0
-329,134,0,0,0,0,0,0,0,0,0,-1,895,890,0,0
-322,134,0,0,0,0,0,0,0,0,0,-1,902,890,0,0
-315,134,0,0,0,0,0,0,0,0,0,-1,909,890,0,0
-308,134,0,0,0,0,0,0,0,0,0,-1,916,890,0,0
-301,134,0,0,0,0,0,0,0,0,0,-1,923,890,0,0
-294,134,0,0,0,0,0,0,0,0,0,-1,930,890,0,0
-287,134,0,0,0,0,0,0,0,0,0,-1,937,890,0,0
-280,134,0,0,0,0,0,0,0,0,0,-1,944,890,0,0
-273,134,0,0,0,0,0,0,0,0,0,-1,951,890,0,0
-266,134,0,0,0,0,0,0,0,0,0,-1,958,890,0,0
-259,134,0,0,0,0,0,0,0,0,0,-1,965,890,0,0
-252,134,0,0,0,0,0,0,0,0,0,-1,972,890,0,0
-245,134,0,0,0,0,0,0,0,0,0,-1,979,890,0,0
-238,134,0,0,0,0,0,0,0,0,0,-1,986,890,0,0
-231,134,0,0,0,0,0,0,0,0,0,-1,993,890,0,0
-224,134,0,0,0,0,0,0,0,0,0,-1,1000,890,0,0
-217,134,0,0,0,0,0,0,0,0,0,-1,1007,890,0,0
-210,134,0,0,0,0,0,0,0,0,0,-1,1014,890,0,0
-203,134,0,0,0,0,0,0,0,0,0,-1,1021,890,0,0
-196,134,0,0,0,0,0,0,0,0,0,-1,1028,890,0,0
-189,134,0,0,0,0,0,0,0,0,0,-1,1035,890,0,0
-182,134,0,0,0,0,0,0,0,0,0,-1,1042,890,0,0
-175,134,0,0,0,0,0,0,0,0,0,-1,1049,890,0,0
-168,134,0,0,0,0,0,0,0,0,0,-1,1056,890,0,0
-161,134,0,0,0,0,0,0,0,0,0,-1,1063,890,0,0
-154,134,0,0,0,0,0,0,0,0,0,-1,1070,890,0,0
-147,134,0,0,0,0,0,0,0,0,0,-1,1077,890,0,0
-140,134,0,0,0,0,0,0,0,0,0,-1,1084,890,0,0
-133,134,0,0,0,0,0,0,0,0,0,-1,1091,890,0,0
-126,134,0,0,0,0,0,0,0,0,0,-1,1098,890,0,0
-119,134,0,0,0,0,0,0,0,0,0,-1,1105,890,0,0
-112,134,0,0,0,0,0,0,0,0,0,-1,1112,890,0,0
-105,134,0,0,0,0,0,0,0,0,0,-1,1119,890,0,0
-98,134,0,0,0,0,0,0,0,0,0,-1,1126,890,0,0
-91,134,0,0,0,0,0,0,0,0,0,-1,1133,890,0,0
-84,134,0,0,0,0,0,0,0,0,0,-1,1140,890,0,0
-77,134,0,0,0,0,0,0,0,0,0,-1,1147,890,0,0
-70,134,0,0,0,0,0,0,0,0,0,-1,1154,890,0,0
-63,134,0,0,0,0,0,0,0,0,0,-1,1161,890,0,0
-56,134,0,0,0,0,0,0,0,0,0,-1,1168,890,0,0
-49,134,0,0,0,0,0,0,0,0,0,-1,1175,890,0,0
-42,134,0,0,0,0,0,0,0,0,0,-1,1182,890,0,0
-35,134,0,0,0,0,0,0,0,0,0,-1,1189,890,0,0
-28,134,0,0,0,0,0,0,0,0,0,-1,1196,890,0,0
-21,134,0,0,0,0,0,0,0,0,0,-1,1203,890,0,0
-14,134,0,0,0,0,0,0,0,0,0,-1,1210,890,0,0
-7,134,0,0,0,0,0,0,0,0,0,-1,1217,890,0,0
0,134,0,0,0,0,0,0,0,0,0,-1,1224,890,0,0
7,134,0,0,0,0,0,0,0,0,0,-1,1231,890,0,0
14,134,0,0,0,0,0,0,0,0,0,-1,1238,890,0,0
21,134,0,0,0,0,0,0,0,0,0,-1,1245,890,0,0
28,134,0,0,0,0,0,0,0,0,0,-1,1252,890,0,0
35,134,0,0,0,0,0,0,0,0,0,-1,1259,890,0,0
42,134,0,0,0,0,0,0,0,0,0,-1,1266,890,0,0
49,134,0,0,0,0,0,0,0,0,0,-1,1273,890,0,0
56,134,0,0,0,0,0,0,0,0,0,-1,1280,890,0,0
63,134,0,0,0,0,0,0,0,0,0,-1,1287,890,0,0
70,134,0,0,0,0,0,0,0,0,0,-1,1294,890,0,0
77,134,0,0,0,0,0,0,0,0,0,-1,1301,890,0,0
84,134,0,0,0,0,0,0,0,0,0,-1,1308,890,0,0
91,134,0,0,0,0,0,0,0,0,0,-1,1315,890,0,0
98,134,0,0,0,0,0,0,0,0,0,-1,1322,890,0,0
105,134,0,0,0,0,0,0,0,0,0,-1,1329,890,0,0
112,134,0,0,0,0,0,0,0,0,0,-1,1336,890,0,0
119,134,0,0,0,0,0,0,0,0,0,-1,1343,890,0,0
126,134,0,0,0,0,0,0,0,0,0,-1,1350,890,0,0
133,134,0,0,0,0,0,0,0,0,0,-1,1357,890,0,0
140,134,0,0,0,0,0,0,0,0,0,-1,1364,890,0,0
147,134,0,0,0,0,0,0,0,0,0,-1,1371,890,0,0
154,134,0,0,0,0,0,0,0,0,0,-1,1378,890,0,0
161,134,0,0,0,0,0,0,0,0,0,-1,1385,890,0,0
168,134,0,0,0,0,0,0,0,0,0,-1,1392,890,0,0
175,134,0,0,0,0,0,0,0,0,0,-1,1399,890,0,0
182,134,0,0,0,0,0,0,0,0,0,-1,1406,890,0,0
189,134,0,0,0,0,0,0,0,0,0,-1,1413,890,0,0
196,134,0,0,0,0,0,0,0,0,0,-1,1420,890,0,0
203,134,0,0,0,0,0,0,0,0,0,-1,1427,890,0,0
210,134,0,0,0,0,0,0,0,0,0,-1,1434,890,0,0
217,134,0,0,0,0,0,0,0,0,0,-1,1441,890,0,0
224,134,0,0,0,0,0,0,0,0,0,-1,1448,890,0,0
231,134,0,0,0,0,0,0,0,0,0,-1,1455,890,0,0
238,134,0,0,0,0,0,0,0,0,0,-1,1462,890,0,0
245,134,0,0,0,0,0,0,0,0,0,-1,1469,890,0,0
252,134,0,0,0,0,0,0,0,0,0,-1,1476,890,0,0
259,134,0,0,0,0,0,0,0,0,0,-1,1483,890,0,0
266,134,0,0,0,0,0,0,0,0,0,-1,1490,890,0,0
273,134,0,0,0,0,0,0,0,0,0,-1,1497,890,0,0
280,134,0,0,0,0,0,0,0,0,0,-1,1504,890,0,0
287,134,0,0,0,0,0,0,0,0,0,-1,1511,890,0,0
294,134,0,0,0,0,0,0,0,0,0,-1,1518,890,0,0
301,134,0,0,0,0,0,0,0,0,0,-1,1525,890,0,0
308,134,0,0,0,0,0,0,0,0,0,-1,1532,890,0,0
315,134,0,0,0,0,0,0,0,0,0,-1,1539,890,0,0
322,134,0,0,0,0,0,0,0,0,0,-1,1546,890,0,0
329,134,0,0,0,0,0,0,0,0,0,-1,1553,890,0,0
336,134,0,0,0,0,0,0,0,0,0,-1,1560,890,0,0
343,134,0,0,0,0,0,0,0,0,0,-1,1567,890,0,0
350,134,0,0,0,0,0,0,0,0,0,-1,1574,890,0,0
357,134,0,0,0,0,0,0,0,0,0,-1,1581,890,0,0
364,134,0,0,0,0,0,0,0,0,0,-1,1588,890,0,0
371,134,0,0,0,0,0,0,0,0,0,-1,1595,890,0,0
378,134,0,0,0,0,0,0,0,0,0,-1,1602,890,0,0
385,134,0,0,0,0,0,0,0,0,0,-1,1609,890,0,0
392,134,0,0,0,0,0,0,0,0,0,-1,1616,890,0,0
399,134,0,0,0,0,0,0,0,0,0,-1,1623,890,0,0
406,134,0,0,0,0,0,0,0,0,0,-1,1630,890,0,0
413,134,0,0,0,0,0,0,0,0,0,-1,1637,890,0,0
420,134,0,0,0,0,0,0,0,0,0,-1,1644,890,0,0
427,134,0,0,0,0,0,0,0,0,0,-1,1651,890,0,0
434,134,0,0,0,0,0,0,0,0,0,-1,1658,890,0,0
441,134,0,0,0,0,0,0,0,0,0,-1,1665,890,0,0
448,134,0,0,0,0,0,0,0,0,0,-1,1672,890,0,0
455,134,0,0,0,0,0,0,0,0,0,-1,1679,890,0,0
462,134,0,0,0,0,0,0,0,0,0,-1,1686,890,0,0
469,134,0,0,0,0,0,0,0,0,0,-1,1693,890,0,0
476,134,0,0,0,0,0,0,0,0,0,-1,1700,890,0,0
483,134,0,0,0,0,0,0,0,0,0,-1,1707,890,0,0
490,134,0,0,0,0,0,0,0,0,0,-1,1714,890,0,0
497,134,0,0,0,0,0,0,0,0,0,-1,1721,890,0,0
504,134,0,0,0,0,0,0,0,0,0,-1,1728,890,0,0
511,134,0,0,0,0,0,0,0,0,0,-1,1735,890,0,0
518,134,0,0,0,0,0,0,0,0,0,-1,1742,890,0,0
525,134,0,0,0,0,0,0,0,0,0,-1,1749,890,0,0
532,134,0,0,0,0,0,0,0,0,0,-1,1756,890,0,0
539,134,0,0,0,0,0,0,0,0,0,-1,1763,890,0,0
546,134,0,0,0,0,0,0,0,0,0,-1,1770,890,0,0
553,134,0,0,0,0,0,0,0,0,0,-1,1777,890,0,0
560,134,0,0,0,0,0,0,0,0,0,-1,1784,890,0,0
567,134,0,0,0,0,0,0,0,0,0,-1,1791,890,0,0
574,134,0,0,0,0,0,0,0,0,0,-1,1798,890,0,0
581,134,0,0,0,0,0,0,0,0,0,-1,1805,890,0,0
588,134,0,0,0,0,0,0,0,0,0,-1,1812,890,0,0
595,134,0,0,0,0,0,0,0,0,0,-1,1819,890,0,0
602,134,0,0,0,0,0,0,0,0,0,-1,1826,890,0,0
609,134,0,0,0,0,0,0,0,0,0,-1,1833,890,0,0
616,134,0,0,0,0,0,0,0,0,0,-1,1840,890,0,0
623,134,27.5413,3.86877,-0.000188841,0.00324862,-0.0025177,0.0045783,-0.00151852,-1.08489,0.00366479,0.0448745,1847,890,27.5413,-3.86877
630,134,27.3784,3.71857,0.000526273,0.00255034,-0.00209189,0.00386214,-0.000785528,-1.0107,0.00287263,0.0467877,1854,890,27.3785,-3.71855
637,134,27.5712,3.61285,0.00104199,0.00210393,-0.00180538,0.0034548,-0.000308885,-0.928416,0.00241276,0.0443973,1861,890,27.5712,-3.61288
644,134,27.7295,3.53961,0.00129125,0.00161314,-0.00149835,0.00295917,-5.47753e-05,-0.8389,0.00199129,0.0404195,1868,890,27.7295,-3.53961
651,134,27.6543,3.6712,0.0013309,0.00115836,-0.00123757,0.00248521,4.05638e-06,-0.750601,0.00165545,0.0426907,1875,890,27.6543,-3.67119
658,134,27.5773,3.63739,0.00121248,0.000740959,-0.00102367,0.00202719,-7.37485e-05,-0.672217,0.0013767,0.0410853,1882,890,27.5773,-3.63739
665,134,27.6022,3.40387,0.0010759,0.000374897,-0.000818897,0.00161615,-0.000165357,-0.583187,0.00113657,0.0331431,1889,890,27.6022,-3.40389
672,134,27.5946,3.44745,0.000947205,6.8208e-05,-0.000687851,0.00132398,-0.000308565,-0.501116,0.00100148,0.0253401,1896,890,27.5946,-3.44743
679,134,27.5839,3.42224,0.000930589,2.61624e-05,-0.000597708,0.00122788,-0.000271125,-0.461549,0.00092234,0.0226093,1903,890,27.5839,-3.42226
686,134,27.6323,3.34796,0,0,0,0,0,0,0,-1,1910,890,27.6323,-3.34797
693,134,24.0272,3.45514,0,0,0,0,0,0,0,-1,1917,890,24.0272,-3.45517
700,134,24.0121,3.58881,0.000369207,-0.000172675,-0.000371906,0.0005584,-0.000361868,-0.470592,0.00053534,0.0259876,1924,890,24.012,-3.5888
707,134,23.8665,3.71417,0.000453564,-0.000194558,-0.000534749,0.00075478,-0.000495774,-0.512986,0.000727152,0.0180224,1931,890,23.8665,-3.71415
714,134,23.9214,4.04071,0.000713081,-0.000176006,-0.000745321,0.00113636,-0.000599289,-0.516497,0.00101795,0.0175246,1938,890,23.9214,-4.04073
721,134,24.0724,4.38055,0.000986259,-3.66019e-06,-0.00084966,0.00147461,-0.000492015,-0.521658,0.00118173,0.0155476,1945,890,24.0724,-4.38058
728,134,24.1094,4.61475,0.00125585,0.000824608,-0.00105321,0.00211529,-3.48309e-05,-0.684431,0.00142194,0.0157988,1952,890,24.1094,-4.61472
735,134,24.0957,4.87933,0.00151324,0.00162494,-0.00144618,0.00301635,0.000121832,-0.804698,0.00197154,0.0212719,1959,890,24.0956,-4.87934
742,134,24.0597,5.125,0.00196667,0.00312409,-0.00212722,0.00474991,0.000340848,-0.918208,0.00305933,0.0144656,1966,890,24.0597,-5.12497
749,134,24.0609,5.34845,0.00238101,0.0051307,-0.00295953,0.00701914,0.000492572,-1.00284,0.00452418,0.0122964,1973,890,24.061,-5.34843
756,134,24.0317,5.57489,0.00283716,0.00762301,-0.00384738,0.00976092,0.000699254,-1.0636,0.00628717,0.0165143,1980,890,24.0317,-5.57491
763,134,24.004,5.69745,0.00304506,0.0109491,-0.00496699,0.0133445,0.000649686,-1.12144,0.00868787,0.0383644,1987,890,24.004,-5.69743
770,134,23.969,5.81122,0,0,0,0,0,0,0,-1,1994,890,23.969,-5.8112
777,134,24.6449,5.55988,0.00256314,0.0214437,-0.00839008,0.0246332,-0.000626405,-1.20751,0.0166349,0.0455507,2001,890,24.6449,-5.5599
784,134,24.6464,5.44714,0,0,0,0,0,0,0,-1,2008,890,24.6464,-5.44717
791,134,24.5831,5.37756,0,0,0,0,0,0,0,-1,2015,890,24.5831,-5.37753
798,134,0,0,0,0,0,0,0,0,0,-1,2022,890,0,0
805,134,0,0,0,0,0,0,0,0,0,-1,2029,890,0,0
812,134,0,0,0,0,0,0,0,0,0,-1,2036,890,0,0
-700,127,0,0,0,0,0,0,0,0,0,-1,524,897,0,0
-693,127,0,0,0,0,0,0,0,0,0,-1,531,897,0,0
-686,127,0,0,0,0,0,0,0,0,0,-1,538,897,0,0
-679,127,-20.2194,5.45233,0,0,0,0,0,0,0,-1,545,897,-20.2194,-5.45235
-672,127,-20.614,5.07141,0.0482609,-0.0588579,0.0141913,0.0501091,-0.0607061,0.129506,0.0640766,0.0456362,552,897,-20.614,-5.07141
-665,127,-20.9504,4.78802,0.0455673,-0.0475474,0.015396,0.048047,-0.0500271,0.159684,0.0566269,0.0485082,559,897,-20.9503,-4.78803
-658,127,-20.9868,4.41925,0.0404279,-0.0376457,0.0146248,0.0430775,-0.0402953,0.179228,0.0481442,0.0485057,566,897,-20.9868,-4.41927
-651,127,-18.6553,2.64154,0,0,0,0,0,0,0,-1,573,897,-18.6553,-2.64152
-644,127,-17.8704,2.88245,0,0,0,0,0,0,0,-1,580,897,-17.8704,-2.88242
-637,127,-17.0763,3.00153,0.0213278,-0.0153055,0.00897393,0.023408,-0.0173857,0.227781,0.0236376,0.0482406,587,897,-17.0763,-3.00153
-630,127,-16.6232,2.93158,0.0154916,-0.0102653,0.00707398,0.0173066,-0.0120802,0.251148,0.0170557,0.0335868,594,897,-16.6232,-2.93161
-623,127,-16.7654,2.92853,0.0105239,-0.00607014,0.00578979,0.0123443,-0.00789054,0.30463,0.0117765,0.0146493,601,897,-16.7654,-2.92853
-616,127,-16.8149,2.74377,0.00615969,-0.0030274,0.00440793,0.0079325,-0.00480021,0.382391,0.00742501,0.0107881,608,897,-16.8149,-2.74378
-609,127,-16.8419,2.52747,0.00264502,-0.0011539,0.00278924,0.00412014,-0.00262902,0.48647,0.00392821,0.0127747,615,897,-16.8418,-2.52749
-602,127,-16.8406,2.33118,-0.000365808,-0.000160706,0.0015309,0.00127108,-0.00179759,0.818842,0.00178037,0.0129373,622,897,-16.8406,-2.33118
-595,127,-16.8282,2.15143,-0.00191503,8.82305e-05,0.00086511,0.000410111,-0.00223691,1.2146,0.0016451,0.0162348,629,897,-16.8282,-2.15142
-588,127,-16.9382,1.96613,-0.0020851,-0.000316155,0.000322168,-0.000259307,-0.00214195,1.39614,0.00134986,0.0222595,636,897,-16.9382,-1.96611
-581,127,-16.9771,1.6488,-0.0023411,-0.000494589,-6.99707e-05,-0.000491941,-0.00234375,-1.53298,0.00142707,0.0331952,643,897,-16.9771,-1.64878
-574,127,-16.991,1.16705,0,0,0,0,0,0,0,-1,650,897,-16.991,-1.16708
-567,127,-16.6721,1.32428,0,0,0,0,0,0,0,-1,657,897,-16.6721,-1.32426
-560,127,-18.9678,1.21667,0,0,0,0,0,0,0,-1,664,897,-18.9677,-1.2167
-553,127,-19.3741,1.41211,0,0,0,0,0,0,0,-1,671,897,-19.3741,-1.41208
-546,127,-19.3485,1.45087,-0.000345231,-0.000947,-0.00128273,0.000671427,-0.00196366,-0.670198,0.00158117,0.0234563,678,897,-19.3485,-1.45084
-539,127,-19.3286,1.47974,0.000285443,-0.000944147,-0.0014881,0.00128075,-0.00193945,-0.589507,0.0018721,0.0203654,685,897,-19.3286,-1.47974
-532,127,-19.2797,1.43597,0.00104973,-0.00103761,-0.00164442,0.00195371,-0.0019416,-0.502636,0.00224896,0.0170247,692,897,-19.2797,-1.436
-525,127,-19.2849,1.44037,0.00196162,-0.00137234,-0.00180298,0.00275016,-0.00216088,-0.412286,0.00284218,0.0322974,699,897,-19.2848,-1.44037
-518,127,-19.2275,1.48376,0.00310169,-0.00220026,-0.00197453,0.00375623,-0.0028548,-0.320093,0.00382869,0.0391293,706,897,-19.2276,-1.48375
-511,127,-19.153,1.47345,0.00444923,-0.00348738,-0.00208226,0.00496236,-0.00400051,-0.241615,0.00518464,0.041719,713,897,-19.153,-1.47344
-504,127,0,0,0,0,0,0,0,0,0,-1,720,897,0,0
-497,127,0,0,0,0,0,0,0,0,0,-1,727,897,0,0
-490,127,0,0,0,0,0,0,0,0,0,-1,734,897,0,0
-483,127,0,0,0,0,0,0,0,0,0,-1,741,897,0,0
-476,127,0,0,0,0,0,0,0,0,0,-1,748,897,0,0
-469,127,0,0,0,0,0,0,0,0,0,-1,755,897,0,0
-462,127,0,0,0,0,0,0,0,0,0,-1,762,897,0,0
-455,127,0,0,0,0,0,0,0,0,0,-1,769,897,0,0
-448,127,0,0,0,0,0,0,0,0,0,-1,776,897,0,0
-441,127,0,0,0,0,0,0,0,0,0,-1,783,897,0,0
-434,127,0,0,0,0,0,0,0,0,0,-1,790,897,0,0
-427,127,0,0,0,0,0,0,0,0,0,-1,797,897,0,0
-420,127,0,0,0,0,0,0,0,0,0,-1,804,897,0,0
-413,127,0,0,0,0,0,0,0,0,0,-1,811,897,0,0
-406,127,0,0,0,0,0,0,0,0,0,-1,818,897,0,0
-399,127,0,0,0,0,0,0,0,0,0,-1,825,897,0,0
-392,127,0,0,0,0,0,0,0,0,0,-1,832,897,0,0
-385,127,0,0,0,0,0,0,0,0,0,-1,839,897,0,0
-378,127,0,0,0,0,0,0,0,0,0,-1,846,897,0,0
-371,127,0,0,0,0,0,0,0,0,0,-1,853,897,0,0
-364,127,0,0,0,0,0,0,0,0,0,-1,860,897,0,0
-357,127,0,0,0,0,0,0,0,0,0,-1,867,897,0,0
-350,127,0,0,0,0,0,0,0,0,0,-1,874,897,0,0
-343,127,0,0,0,0,0,0,0,0,0,-1,881,897,0,0
-336,127,0,0,0,0,0,0,0,0,0,-1,888,897,0,0
-329,127,0,0,0,0,0,0,0,0,0,-1,895,897,0,0
-322,127,0,0,0,0,0,0,0,0,0,-1,902,897,0,0
-315,127,0,0,0,0,0,0,0,0,0,-1,909,897,0,0
-308,127,0,0,0,0,0,0,0,0,0,-1,916,897,0,0
-301,127,0,0,0,0,0,0,0,0,0,-1,923,897,0,0
-294,127,0,0,0,0,0,0,0,0,0,-1,930,897,0,0
-287,127,0,0,0,0,0,0,0,0,0,-1,937,897,0,0
-280,127,0,0,0,0,0,0,0,0,0,-1,944,897,0,0
-273,127,0,0,0,0,0,0,0,0,0,-1,951,897,0,0
-266,127,0,0,0,0,0,0,0,0,0,-1,958,897,0,0
-259,127,0,0,0,0,0,0,0,0,0,-1,965,897,0,0
-252,127,0,0,0,0,0,0,0,0,0,-1,972,897,0,0
-245,127,0,0,0,0,0,0,0,0,0,-1,979,897,0,0
-238,127,0,0,0,0,0,0,0,0,0,-1,986,897,0,0
-231,127,0,0,0,0,0,0,0,0,0,-1,993,897,0,0
-224,127,0,0,0,0,0,0,0,0,0,-1,1000,897,0,0
-217,127,0,0,0,0,0,0,0,0,0,-1,1007,897,0,0
-210,127,0,0,0,0,0,0,0,0,0,-1,1014,897,0,0
-203,127,0,0,0,0,0,0,0,0,0,-1,1021,897,0,0
-196,127,0,0,0,0,0,0,0,0,0,-1,1028,897,0,0
-189,127,0,0,0,0,0,0,0,0,0,-1,1035,897,0,0
-182,127,0,0,0,0,0,0,0,0,0,-1,1042,897,0,0
-175,127,0,0,0,0,0,0,0,0,0,-1,1049,897,0,0
-168,127,0,0,0,0,0,0,0,0,0,-1,1056,897,0,0
-161,127,0,0,0,0,0,0,0,0,0,-1,1063,897,0,0
-154,127,0,0,0,0,0,0,0,0,0,-1,1070,897,0,0
-147,127,0,0,0,0,0,0,0,0,0,-1,1077,897,0,0
-140,127,0,0,0,0,0,0,0,0,0,-1,1084,897,0,0
-133,127,0,0,0,0,0,0,0,0,0,-1,1091,897,0,0
-126,127,0,0,0,0,0,0,0,0,0,-1,1098,897,0,0
-119,127,0,0,0,0,0,0,0,0,0,-1,1105,897,0,0
-112,127,0,0,0,0,0,0,0,0,0,-1,1112,897,0,0
-105,127,0,0,0,0,0,0,0,0,0,-1,1119,897,0,0
-98,127,0,0,0,0,0,0,0,0,0,-1,1126,897,0,0
-91,127,0,0,0,0,0,0,0,0,0,-1,1133,897,0,0
-84,127,0,0,0,0,0,0,0,0,0,-1,1140,897,0,0
-77,127,0,0,0,0,0,0,0,0,0,-1,1147,897,0,0
-70,127,0,0,0,0,0,0,0,0,0,-1,1154,897,0,0
-63,127,0,0,0,0,0,0,0,0,0,-1,1161,897,0,0
-56,127,0,0,0,0,0,0,0,0,0,-1,1168,897,0,0
-49,127,0,0,0,0,0,0,0,0,0,-1,1175,897,0,0
-42,127,0,0,0,0,0,0,0,0,0,-1,1182,897,0,0
-35,127,0,0,0,0,0,0,0,0,0,-1,1189,897,0,0
-28,127,0,0,0,0,0,0,0,0,0,-1,1196,897,0,0
-21,127,0,0,0,0,0,0,0,0,0,-1,1203,897,0,0
-14,127,0,0,0,0,0,0,0,0,0,-1,1210,897,0,0
-7,127,0,0,0,0,0,0,0,0,0,-1,1217,897,0,0
0,127,0,0,0,0,0,0,0,0,0,-1,1224,897,0,0
7,127,0,0,0,0,0,0,0,0,0,-1,1231,897,0,0
14,127,0,0,0,0,0,0,0,0,0,-1,1238,897,0,0
21,127,0,0,0,0,0,0,0,0,0,-1,1245,897,0,0
28,127,0,0,0,0,0,0,0,0,0,-1,1252,897,0,0
35,127,0,0,0,0,0,0,0,0,0,-1,1259,897,0,0
42,127,0,0,0,0,0,0,0,0,0,-1,1266,897,0,0
49,127,0,0,0,0,0,0,0,0,0,-1,1273,897,0,0
56,127,0,0,0,0,0,0,0,0,0,-1,1280,897,0,0
63,127,0,0,0,0,0,0,0,0,0,-1,1287,897,0,0
70,127,0,0,0,0,0,0,0,0,0,-1,1294,897,0,0
77,127,0,0,0,0,0,0,0,0,0,-1,1301,897,0,0
84,127,0,0,0,0,0,0,0,0,0,-1,1308,897,0,0
91,127,0,0,0,0,0,0,0,0,0,-1,1315,897,0,0
98,127,0,0,0,0,0,0,0,0,0,-1,1322,897,0,0
105,127,0,0,0,0,0,0,0,0,0,-1,1329,897,0,0
112,127,0,0,0,0,0,0,0,0,0,-1,1336,897,0,0
119,127,0,0,0,0,0,0,0,0,0,-1,1343,897,0,0
126,127,0,0,0,0,0,0,0,0,0,-1,1350,897,0,0
133,127,0,0,0,0,0,0,0,0,0,-1,1357,897,0,0
140,127,0,0,0,0,0,0,0,0,0,-1,1364,897,0,0
147,127,0,0,0,0,0,0,0,0,0,-1,1371,897,0,0
154,127,0,0,0,0,0,0,0,0,0,-1,1378,897,0,0
161,127,0,0,0,0,0,0,0,0,0,-1,1385,897,0,0
168,127,0,0,0,0,0,0,0,0,0,-1,1392,897,0,0
175,127,0,0,0,0,0,0,0,0,0,-1,1399,897,0,0
182,127,0,0,0,0,0,0,0,0,0,-1,1406,897,0,0
189,127,0,0,0,0,0,0,0,0,0,-1,1413,897,0,0
196,127,0,0,0,0,0,0,0,0,0,-1,1420,897,0,0
203,127,0,0,0,0,0,0,0,0,0,-1,1427,897,0,0
210,127,0,0,0,0,0,0,0,0,0,-1,1434,897,0,0
217,127,0,0,0,0,0,0,0,0,0,-1,1441,897,0,0
224,127,0,0,0,0,0,0,0,0,0,-1,1448,897,0,0
231,127,0,0,0,0,0,0,0,0,0,-1,1455,897,0,0
238,127,0,0,0,0,0,0,0,0,0,-1,1462,897,0,0
245,127,0,0,0,0,0,0,0,0,0,-1,1469,897,0,0
252,127,0,0,0,0,0,0,0,0,0,-1,1476,897,0,0
259,127,0,0,0,0,0,0,0,0,0,-1,1483,897,0,0
266,127,0,0,0,0,0,0,0,0,0,-1,1490,897,0,0
273,127,0,0,0,0,0,0,0,0,0,-1,1497,897,0,0
280,127,0,0,0,0,0,0,0,0,0,-1,1504,897,0,0
287,127,0,0,0,0,0,0,0,0,0,-1,1511,897,0,0
294,127,0,0,0,0,0,0,0,0,0,-1,1518,897,0,0
301,127,0,0,0,0,0,0,0,0,0,-1,1525,897,0,0
308,127,0,0,0,0,0,0,0,0,0,-1,1532,897,0,0
315,127,0,0,0,0,0,0,0,0,0,-1,1539,897,0,0
322,127,0,0,0,0,0,0,0,0,0,-1,1546,897,0,0
329,127,0,0,0,0,0,0,0,0,0,-1,1553,897,0,0
336,127,0,0,0,0,0,0,0,0,0,-1,1560,897,0,0
343,127,0,0,0,0,0,0,0,0,0,-1,1567,897,0,0
350,127,0,0,0,0,0,0,0,0,0,-1,1574,897,0,0
357,127,0,0,0,0,0,0,0,0,0,-1,1581,897,0,0
364,127,0,0,0,0,0,0,0,0,0,-1,1588,897,0,0
371,127,0,0,0,0,0,0,0,0,0,-1,1595,897,0,0
378,127,0,0,0,0,0,0,0,0,0,-1,1602,897,0,0
385,127,0,0,0,0,0,0,0,0,0,-1,1609,897,0,0
392,127,0,0,0,0,0,0,0,0,0,-1,1616,897,0,0
399,127,0,0,0,0,0,0,0,0,0,-1,1623,897,0,0
406,127,0,0,0,0,0,0,0,0,0,-1,1630,897,0,0
413,127,0,0,0,0,0,0,0,0,0,-1,1637,897,0,0
420,127,0,0,0,0,0,0,0,0,0,-1,1644,897,0,0
427,127,0,0,0,0,0,0,0,0,0,-1,1651,897,0,0
434,127,0,0,0,0,0,0,0,0,0,-1,1658,897,0,0
441,127,0,0,0,0,0,0,0,0,0,-1,1665,897,0,0
448,127,0,0,0,0,0,0,0,0,0,-1,1672,897,0,0
455,127,0,0,0,0,0,0,0,0,0,-1,1679,897,0,0
462,127,0,0,0,0,0,0,0,0,0,-1,1686,897,0,0
469,127,0,0,0,0,0,0,0,0,0,-1,1693,897,0,0
476,127,0,0,0,0,0,0,0,0,0,-1,1700,897,0,0
483,127,0,0,0,0,0,0,0,0,0,-1,1707,897,0,0
490,127,0,0,0,0,0,0,0,0,0,-1,1714,897,0,0
497,127,0,0,0,0,0,0,0,0,0,-1,1721,897,0,0
504,127,0,0,0,0,0,0,0,0,0,-1,1728,897,0,0
511,127,0,0,0,0,0,0,0,0,0,-1,1735,897,0,0
518,127,0,0,0,0,0,0,0,0,0,-1,1742,897,0,0
525,127,0,0,0,0,0,0,0,0,0,-1,1749,897,0,0
532,127,0,0,0,0,0,0,0,0,0,-1,1756,897,0,0
539,127,0,0,0,0,0,0,0,0,0,-1,1763,897,0,0
546,127,0,0,0,0,0,0,0,0,0,-1,1770,897,0,0
553,127,0,0,0,0,0,0,0,0,0,-1,1777,897,0,0
560,127,0,0,0,0,0,0,0,0,0,-1,1784,897,0,0
567,127,0,0,0,0,0,0,0,0,0,-1,1791,897,0,0
574,127,0,0,0,0,0,0,0,0,0,-1,1798,897,0,0
581,127,0,0,0,0,0,0,0,0,0,-1,1805,897,0,0
588,127,0,0,0,0,0,0,0,0,0,-1,1812,897,0,0
595,127,0,0,0,0,0,0,0,0,0,-1,1819,897,0,0
602,127,0,0,0,0,0,0,0,0,0,-1,1826,897,0,0
609,127,0,0,0,0,0,0,0,0,0,-1,1833,897,0,0
616,127,0,0,0,0,0,0,0,0,0,-1,1840,897,0,0
623,127,0,0,0,0,0,0,0,0,0,-1,1847,897,0,0
630,127,27.2499,3.63525,0,0,0,0,0,0,0,-1,1854,897,27.2499,-3.63523
637,127,27.4734,3.54907,0.00108261,0.00209216,-0.00201062,0.00366041,-0.000485631,-0.908383,0.00261721,0.0389034,1861,897,27.4733,-3.54909
644,127,27.616,3.46277,0.00113987,0.00179339,-0.00158575,0.0030857,-0.000152431,-0.887006,0.00210978,0.0380576,1868,897,27.616,-3.46276
651,127,27.5706,3.5755,0.00103838,0.00147561,-0.00117581,0.00245296,6.10359e-05,-0.877314,0.00161534,0.0413174,1875,897,27.5706,-3.57548
658,127,27.4919,3.59125,0.000822077,0.00114798,-0.000838464,0.00183918,0.000130878,-0.881375,0.00118491,0.0406915,1882,897,27.4919,-3.59125
665,127,27.519,3.47369,0.000657565,0.000837507,-0.000556213,0.00131098,0.000184093,-0.865582,0.000819542,0.0373315,1889,897,27.519,-3.47367
672,127,27.5327,3.3891,0.000566795,0.000546582,-0.000358948,0.000915778,0.000197598,-0.771324,0.000556473,0.0323931,1896,897,27.5328,-3.38911
679,127,27.6069,3.40607,0.000585958,0.000465623,-0.000230359,0.000763877,0.000287704,-0.657656,0.000445477,0.0268713,1903,897,27.6069,-3.40607
686,127,27.6062,3.28613,0,0,0,0,0,0,0,-1,1910,897,27.6062,-3.28612
693,127,25.7996,3.46344,0,0,0,0,0,0,0,-1,1917,897,25.7996,-3.46345
700,127,24.3522,3.61395,8.42593e-05,0.000112514,-4.48258e-06,0.000113208,8.35652e-05,-1.41717,6.77869e-05,0.0372723,1924,897,24.3522,-3.61395
707,127,24.116,3.77289,0.00016959,2.41507e-05,-0.000167554,0.000279524,-8.57835e-05,-0.580661,0.000220576,0.0221549,1931,897,24.1159,-3.7729
714,127,24.1854,4.04468,0.000416665,-6.62607e-05,-0.000419345,0.000659098,-0.000308693,-0.524177,0.000570832,0.0191153,1938,897,24.1854,-4.0447
721,127,24.3644,4.42242,0.00062518,1.0052e-05,-0.000579474,0.000973654,-0.000338422,-0.54142,0.000786564,0.0146543,1945,897,24.3644,-4.42242
728,127,24.3591,4.61981,0.000676251,0.000765016,-0.000775614,0.00149752,-5.62489e-05,-0.813978,0.00101761,0.0141142,1952,897,24.3591,-4.61981
735,127,24.3628,4.8858,0.000557542,0.00147851,-0.00117775,0.0022826,-0.000246546,-0.971754,0.00161022,0.0202892,1959,897,24.3628,-4.88582
742,127,24.3408,5.12506,0.000448028,0.00297005,-0.00189495,0.00398521,-0.000567139,-1.07898,0.00286463,0.0180345,1966,897,24.3408,-5.12505
749,127,24.3306,5.31403,0.000112083,0.00507133,-0.00276219,0.00630361,-0.0011202,-1.15117,0.00462128,0.0134179,1973,897,24.3306,-5.31403
756,127,24.3109,5.52509,-0.000276207,0.00769556,-0.00367871,0.00913372,-0.00171436,-1.19812,0.00673374,0.0156296,1980,897,24.3109,-5.52506
763,127,24.2336,5.71222,-0.00108154,0.0112182,-0.00486611,0.0129105,-0.00277386,-1.2361,0.00966524,0.0239957,1987,897,24.2336,-5.71223
770,127,24.5604,5.63501,-0.00236887,0.0159358,-0.00644847,0.0179794,-0.00441243,-1.2639,0.0136961,0.0427201,1994,897,24.5604,-5.63502
777,127,24.9526,5.55859,-0.00423125,0.0222172,-0.00858501,0.0247595,-0.00677352,-1.28289,0.0191674,0.0497778,2001,897,24.9527,-5.55856
784,127,25.0189,5.48499,0,0,0,0,0,0,0,-1,2008,897,25.0189,-5.48501
791,127,24.9489,5.35925,0,0,0,0,0,0,0,-1,2015,897,24.9489,-5.35924
798,127,0,0,0,0,0,0,0,0,0,-1,2022,897,0,0
805,127,0,0,0,0,0,0,0,0,0,-1,2029,897,0,0
812,127,0,0,0,0,0,0,0,0,0,-1,2036,897,0,0
-700,120,0,0,0,0,0,0,0,0,0,-1,524,904,0,0
-693,120,0,0,0,0,0,0,0,0,0,-1,531,904,0,0
-686,120,0,0,0,0,0,0,0,0,0,-1,538,904,0,0
-679,120,-22.0403,-0.183899,0,0,0,0,0,0,0,-1,545,904,-22.0403,0.183908
-672,120,-22.1355,5.27429,0,0,0,0,0,0,0,-1,552,904,-22.1355,-5.27428
-665,120,-22.6349,4.98755,0,0,0,0,0,0,0,-1,559,904,-22.6349,-4.98752
-658,120,-22.5186,-1.6936,0,0,0,0,0,0,0,-1,566,904,-22.5186,1.69363
-651,120,-19.0114,-2.47705,0,0,0,0,0,0,0,-1,573,904,-19.0114,2.47706
-644,120,-18.4492,2.76501,0,0,0,0,0,0,0,-1,580,904,-18.4492,-2.76503
-637,120,-17.7117,2.94464,0.0187788,-0.0160987,0.00536054,0.0195841,-0.016904,0.149113,0.0210853,0.0409402,587,904,-17.7117,-2.94466
-630,120,-17.008,3.02502,0.0134344,-0.0108496,0.00456752,0.0142651,-0.0116803,0.1799,0.0150044,0.0227419,594,904,-17.008,-3.02504
-623,120,-17.0579,2.90741,0.00888533,-0.00649496,0.00415986,0.00993834,-0.00754797,0.247928,0.0101271,0.0111544,601,904,-17.0579,-2.90742
-616,120,-17.0342,2.70874,0.00475649,-0.00327381,0.00342308,0.00601759,-0.00453492,0.352984,0.00611251,0.0102097,608,904,-17.0343,-2.70872
-609,120,-17.0616,2.51794,0.00158721,-0.00134976,0.00237449,0.00291061,-0.00267316,0.508462,0.00322477,0.0130377,615,904,-17.0616,-2.51796
-602,120,-17.0931,2.33307,-0.00122369,-0.000322766,0.00143399,0.000729853,-0.0022763,0.937583,0.00181054,0.0131821,622,904,-17.0931,-2.33305
-595,120,-17.066,2.15125,-0.00270012,6.07235e-05,0.000864041,0.000308839,-0.00294823,1.29116,0.00207611,0.0191211,629,904,-17.066,-2.15124
-588,120,-17.0771,1.91772,-0.00284588,-0.000231933,0.000352359,-0.000185268,-0.00289254,1.43913,0.00186967,0.0260635,636,904,-17.0771,-1.91773
-581,120,-17.1758,1.70563,-0.00313637,-0.000345012,-2.85023e-05,-0.000344721,-0.00313666,-1.56059,0.0019862,0.0332238,643,904,-17.1758,-1.70564
-574,120,-17.0966,1.41064,-0.00309676,-0.000465615,-0.00025679,-0.000440788,-0.00312159,-1.47441,0.0019508,0.0264642,650,904,-17.0966,-1.41062
-567,120,-16.9352,0.887695,0,0,0,0,0,0,0,-1,657,904,-16.9352,-0.887673
-560,120,-19.2977,1.52228,0,0,0,0,0,0,0,-1,664,904,-19.2977,-1.52228
-553,120,-19.2941,1.50958,-0.00150465,-0.000642024,-0.000912894,-6.36799e-05,-0.00208299,-1.00609,0.00136793,0.0423716,671,904,-19.2941,-1.50959
-546,120,-19.2641,1.59369,-0.000937378,-0.000592628,-0.00107288,0.00032164,-0.00185165,-0.86505,0.00135443,0.032309,678,904,-19.2641,-1.59366
-539,120,-19.2241,1.57159,-0.000127707,-0.000573279,-0.00122058,0.000890251,-0.00159124,-0.69513,0.00145162,0.0253415,685,904,-19.2241,-1.57158
-532,120,-19.2139,1.47406,0.000887251,-0.000681165,-0.00131018,0.00162999,-0.0014239,-0.515722,0.0017645,0.0280729,692,904,-19.2139,-1.47405
-525,120,-19.4222,1.34467,0.00214301,-0.00109642,-0.00141235,0.0026723,-0.00162571,-0.358557,0.00250586,0.0348185,699,904,-19.4221,-1.34465
-518,120,-19.37,1.4884,0.00349753,-0.00212219,-0.00152044,0.00388252,-0.00250718,-0.247996,0.00371747,0.0378074,706,904,-19.37,-1.48843
-511,120,-19.1445,1.38727,0.00497851,-0.00350578,-0.00161917,0.00527702,-0.00380428,-0.18231,0.00526602,0.0404749,713,904,-19.1444,-1.38725
-504,120,0,0,0,0,0,0,0,0,0,-1,720,904,0,0
-497,120,0,0,0,0,0,0,0,0,0,-1,727,904,0,0
-490,120,0,0,0,0,0,0,0,0,0,-1,734,904,0,0
-483,120,0,0,0,0,0,0,0,0,0,-1,741,904,0,0
-476,120,0,0,0,0,0,0,0,0,0,-1,748,904,0,0
-469,120,0,0,0,0,0,0,0,0,0,-1,755,904,0,0
-462,120,0,0,0,0,0,0,0,0,0,-1,762,904,0,0
-455,120,0,0,0,0,0,0,0,0,0,-1,769,904,0,0
-448,120,0,0,0,0,0,0,0,0,0,-1,776,904,0,0
-441,120,0,0,0,0,0,0,0,0,0,-1,783,904,0,0
-434,120,0,0,0,0,0,0,0,0,0,-1,790,904,0,0
-427,120,0,0,0,0,0,0,0,0,0,-1,797,904,0,0
-420,120,0,0,0,0,0,0,0,0,0,-1,804,904,0,0
-413,120,0,0,0,0,0,0,0,0,0,-1,811,904,0,0
-406,120,0,0,0,0,0,0,0,0,0,-1,818,904,0,0
-399,120,0,0,0,0,0,0,0,0,0,-1,825,904,0,0
-392,120,0,0,0,0,0,0,0,0,0,-1,832,904,0,0
-385,120,0,0,0,0,0,0,0,0,0,-1,839,904,0,0
-378,120,0,0,0,0,0,0,0,0,0,-1,846,904,0,0
-371,120,0,0,0,0,0,0,0,0,0,-1,853,904,0,0
-364,120,0,0,0,0,0,0,0,0,0,-1,860,904,0,0
-357,120,0,0,0,0,0,0,0,0,0,-1,867,904,0,0
-350,120,0,0,0,0,0,0,0,0,0,-1,874,904,0,0
-343,120,0,0,0,0,0,0,0,0,0,-1,881,904,0,0
-336,120,0,0,0,0,0,0,0,0,0,-1,888,904,0,0
-329,120,0,0,0,0,0,0,0,0,0,-1,895,904,0,0
-322,120,0,0,0,0,0,0,0,0,0,-1,902,904,0,0
-315,120,0,0,0,0,0,0,0,0,0,-1,909,904,0,0
-308,120,0,0,0,0,0,0,0,0,0,-1,916,904,0,0
-301,120,0,0,0,0,0,0,0,0,0,-1,923,904,0,0
-294,120,0,0,0,0,0,0,0,0,0,-1,930,904,0,0
-287,120,0,0,0,0,0,0,0,0,0,-1,937,904,0,0
-280,120,0,0,0,0,0,0,0,0,0,-1,944,904,0,0
-273,120,0,0,0,0,0,0,0,0,0,-1,951,904,0,0
-266,120,0,0,0,0,0,0,0,0,0,-1,958,904,0,0
-259,120,0,0,0,0,0,0,0,0,0,-1,965,904,0,0
-252,120,0,0,0,0,0,0,0,0,0,-1,972,904,0,0
-245,120,0,0,0,0,0,0,0,0,0,-1,979,904,0,0
-238,120,0,0,0,0,0,0,0,0,0,-1,986,904,0,0
-231,120,0,0,0,0,0,0,0,0,0,-1,993,904,0,0
-224,120,0,0,0,0,0,0,0,0,0,-1,1000,904,0,0
-217,120,0,0,0,0,0,0,0,0,0,-1,1007,904,0,0
-210,120,0,0,0,0,0,0,0,0,0,-1,1014,904,0,0
-203,120,0,0,0,0,0,0,0,0,0,-1,1021,904,0,0
-196,120,0,0,0,0,0,0,0,0,0,-1,1028,904,0,0
-189,120,0,0,0,0,0,0,0,0,0,-1,1035,904,0,0
-182,120,0,0,0,0,0,0,0,0,0,-1,1042,904,0,0
-175,120,0,0,0,0,0,0,0,0,0,-1,1049,904,0,0
-168,120,0,0,0,0,0,0,0,0,0,-1,1056,904,0,0
-161,120,0,0,0,0,0,0,0,0,0,-1,1063,904,0,0
-154,120,0,0,0,0,0,0,0,0,0,-1,1070,904,0,0
-147,120,0,0,0,0,0,0,0,0,0,-1,1077,904,0,0
-140,120,0,0,0,0,0,0,0,0,0,-1,1084,904,0,0
-133,120,0,0,0,0,0,0,0,0,0,-1,1091,904,0,0
-126,120,0,0,0,0,0,0,0,0,0,-1,1098,904,0,0
-119,120,0,0,0,0,0,0,0,0,0,-1,1105,904,0,0
-112,120,0,0,0,0,0,0,0,0,0,-1,1112,904,0,0
-105,120,0,0,0,0,0,0,0,0,0,-1,1119,904,0,0
-98,120,0,0,0,0,0,0,0,0,0,-1,1126,904,0,0
-91,120,0,0,0,0,0,0,0,0,0,-1,1133,904,0,0
-84,120,0,0,0,0,0,0,0,0,0,-1,1140,904,0,0
-77,120,0,0,0,0,0,0,0,0,0,-1,1147,904,0,0
-70,120,0,0,0,0,0,0,0,0,0,-1,1154,904,0,0
-63,120,0,0,0,0,0,0,0,0,0,-1,1161,904,0,0
-56,120,0,0,0,0,0,0,0,0,0,-1,1168,904,0,0
-49,120,0,0,0,0,0,0,0,0,0,-1,1175,904,0,0
-42,120,0,0,0,0,0,0,0,0,0,-1,1182,904,0,0
-35,120,0,0,0,0,0,0,0,0,0,-1,1189,904,0,0
-28,120,0,0,0,0,0,0,0,0,0,-1,1196,904,0,0
-21,120,0,0,0,0,0,0,0,0,0,-1,1203,904,0,0
-14,120,0,0,0,0,0,0,0,0,0,-1,1210,904,0,0
-7,120,0,0,0,0,0,0,0,0,0,-1,1217,904,0,0
0,120,0,0,0,0,0,0,0,0,0,-1,1224,904,0,0
7,120,0,0,0,0,0,0,0,0,0,-1,1231,904,0,0
14,120,0,0,0,0,0,0,0,0,0,-1,1238,904,0,0
21,120,0,0,0,0,0,0,0,0,0,-1,1245,904,0,0
28,120,0,0,0,0,0,0,0,0,0,-1,1252,904,0,0
35,120,0,0,0,0,0,0,0,0,0,-1,1259,904,0,0
42,120,0,0,0,0,0,0,0,0,0,-1,1266,904,0,0
49,120,0,0,0,0,0,0,0,0,0,-1,1273,904,0,0
56,120,0,0,0,0,0,0,0,0,0,-1,1280,904,0,0
63,120,0,0,0,0,0,0,0,0,0,-1,1287,904,0,0
70,120,0,0,0,0,0,0,0,0,0,-1,1294,904,0,0
77,120,0,0,0,0,0,0,0,0,0,-1,1301,904,0,0
84,120,0,0,0,0,0,0,0,0,0,-1,1308,904,0,0
91,120,0,0,0,0,0,0,0,0,0,-1,1315,904,0,0
98,120,0,0,0,0,0,0,0,0,0,-1,1322,904,0,0
105,120,0,0,0,0,0,0,0,0,0,-1,1329,904,0,0
112,120,0,0,0,0,0,0,0,0,0,-1,1336,904,0,0
119,120,0,0,0,0,0,0,0,0,0,-1,1343,904,0,0
126,120,0,0,0,0,0,0,0,0,0,-1,1350,904,0,0
133,120,0,0,0,0,0,0,0,0,0,-1,1357,904,0,0
140,120,0,0,0,0,0,0,0,0,0,-1,1364,904,0,0
147,120,0,0,0,0,0,0,0,0,0,-1,1371,904,0,0
154,120,0,0,0,0,0,0,0,0,0,-1,1378,904,0,0
161,120,0,0,0,0,0,0,0,0,0,-1,1385,904,0,0
168,120,0,0,0,0,0,0,0,0,0,-1,1392,904,0,0
175,120,0,0,0,0,0,0,0,0,0,-1,1399,904,0,0
182,120,0,0,0,0,0,0,0,0,0,-1,1406,904,0,0
189,120,0,0,0,0,0,0,0,0,0,-1,1413,904,0,0
196,120,0,0,0,0,0,0,0,0,0,-1,1420,904,0,0
203,120,0,0,0,0,0,0,0,0,0,-1,1427,904,0,0
210,120,0,0,0,0,0,0,0,0,0,-1,1434,904,0,0
217,120,0,0,0,0,0,0,0,0,0,-1,1441,904,0,0
224,120,0,0,0,0,0,0,0,0,0,-1,1448,904,0,0
231,120,0,0,0,0,0,0,0,0,0,-1,1455,904,0,0
238,120,0,0,0,0,0,0,0,0,0,-1,1462,904,0,0
245,120,0,0,0,0,0,0,0,0,0,-1,1469,904,0,0
252,120,0,0,0,0,0,0,0,0,0,-1,1476,904,0,0
259,120,0,0,0,0,0,0,0,0,0,-1,1483,904,0,0
266,120,0,0,0,0,0,0,0,0,0,-1,1490,904,0,0
273,120,0,0,0,0,0,0,0,0,0,-1,1497,904,0,0
280,120,0,0,0,0,0,0,0,0,0,-1,1504,904,0,0
287,120,0,0,0,0,0,0,0,0,0,-1,1511,904,0,0
294,120,0,0,0,0,0,0,0,0,0,-1,1518,904,0,0
301,120,0,0,0,0,0,0,0,0,0,-1,1525,904,0,0
308,120,0,0,0,0,0,0,0,0,0,-1,1532,904,0,0
315,120,0,0,0,0,0,0,0,0,0,-1,1539,904,0,0
322,120,0,0,0,0,0,0,0,0,0,-1,1546,904,0,0
329,120,0,0,0,0,0,0,0,0,0,-1,1553,904,0,0
336,120,0,0,0,0,0,0,0,0,0,-1,1560,904,0,0
343,120,0,0,0,0,0,0,0,0,0,-1,1567,904,0,0
350,120,0,0,0,0,0,0,0,0,0,-1,1574,904,0,0
357,120,0,0,0,0,0,0,0,0,0,-1,1581,904,0,0
364,120,0,0,0,0,0,0,0,0,0,-1,1588,904,0,0
371,120,0,0,0,0,0,0,0,0,0,-1,1595,904,0,0
378,120,0,0,0,0,0,0,0,0,0,-1,1602,904,0,0
385,120,0,0,0,0,0,0,0,0,0,-1,1609,904,0,0
392,120,0,0,0,0,0,0,0,0,0,-1,1616,904,0,0
399,120,0,0,0,0,0,0,0,0,0,-1,1623,904,0,0
406,120,0,0,0,0,0,0,0,0,0,-1,1630,904,0,0
413,120,0,0,0,0,0,0,0,0,0,-1,1637,904,0,0
420,120,0,0,0,0,0,0,0,0,0,-1,1644,904,0,0
427,120,0,0,0,0,0,0,0,0,0,-1,1651,904,0,0
434,120,0,0,0,0,0,0,0,0,0,-1,1658,904,0,0
441,120,0,0,0,0,0,0,0,0,0,-1,1665,904,0,0
448,120,0,0,0,0,0,0,0,0,0,-1,1672,904,0,0
455,120,0,0,0,0,0,0,0,0,0,-1,1679,904,0,0
462,120,0,0,0,0,0,0,0,0,0,-1,1686,904,0,0
469,120,0,0,0,0,0,0,0,0,0,-1,1693,904,0,0
476,120,0,0,0,0,0,0,0,0,0,-1,1700,904,0,0
483,120,0,0,0,0,0,0,0,0,0,-1,1707,904,0,0
490,120,0,0,0,0,0,0,0,0,0,-1,1714,904,0,0
497,120,0,0,0,0,0,0,0,0,0,-1,1721,904,0,0
504,120,0,0,0,0,0,0,0,0,0,-1,1728,904,0,0
511,120,0,0,0,0,0,0,0,0,0,-1,1735,904,0,0
518,120,0,0,0,0,0,0,0,0,0,-1,1742,904,0,0
525,120,0,0,0,0,0,0,0,0,0,-1,1749,904,0,0
532,120,0,0,0,0,0,0,0,0,0,-1,1756,904,0,0
539,120,0,0,0,0,0,0,0,0,0,-1,1763,904,0,0
546,120,0,0,0,0,0,0,0,0,0,-1,1770,904,0,0
553,120,0,0,0,0,0,0,0,0,0,-1,1777,904,0,0
560,120,0,0,0,0,0,0,0,0,0,-1,1784,904,0,0
567,120,0,0,0,0,0,0,0,0,0,-1,1791,904,0,0
574,120,0,0,0,0,0,0,0,0,0,-1,1798,904,0,0
581,120,0,0,0,0,0,0,0,0,0,-1,1805,904,0,0
588,120,0,0,0,0,0,0,0,0,0,-1,1812,904,0,0
595,120,0,0,0,0,0,0,0,0,0,-1,1819,904,0,0
602,120,0,0,0,0,0,0,0,0,0,-1,1826,904,0,0
609,120,0,0,0,0,0,0,0,0,0,-1,1833,904,0,0
616,120,0,0,0,0,0,0,0,0,0,-1,1840,904,0,0
623,120,0,0,0,0,0,0,0,0,0,-1,1847,904,0,0
630,120,27.4636,3.724,0.00138032,0.00157931,-0.00265858,0.00414026,-0.00118063,-0.804101,0.00322654,0.0399269,1854,904,27.4636,-3.724
637,120,27.4205,3.50873,0.00145018,0.00187071,-0.00231704,0.003987,-0.000666116,-0.830648,0.0029056,0.0402514,1861,904,27.4205,-3.5087
644,120,27.4261,3.3877,0.00123818,0.00195724,-0.00181957,0.00345246,-0.000257038,-0.882936,0.00239193,0.0389872,1868,904,27.4262,-3.38771
651,120,27.4429,3.41888,0.000956106,0.00190383,-0.00130669,0.00281992,4.00145e-05,-0.959345,0.00186675,0.0423671,1875,904,27.4428,-3.41889
658,120,27.4153,3.55695,0.000607216,0.00175725,-0.000876726,0.00223071,0.000133762,-1.07564,0.00144462,0.0427182,1882,904,27.4153,-3.55694
665,120,27.4785,3.5368,0.000378157,0.00155752,-0.000541207,0.00176823,0.000167445,-1.19952,0.00112716,0.0380846,1889,904,27.4785,-3.53682
672,120,27.4873,3.43524,0.000287477,0.00127285,-0.000290254,0.00135199,0.000208336,-1.3046,0.000840535,0.0373923,1896,904,27.4874,-3.43521
679,120,27.5117,3.35089,0.000319399,0.00112901,-0.000118426,0.00114598,0.000302432,-1.42849,0.000685778,0.0340746,1903,904,27.5117,-3.35089
686,120,27.5756,3.44617,0.000318753,0.000874693,-1.1776e-05,0.000874943,0.000318504,-1.54963,0.000511337,0.0223399,1910,904,27.5756,-3.44618
693,120,26.2018,3.94336,0,0,0,0,0,0,0,-1,1917,904,26.2017,-3.94337
700,120,24.5343,3.74115,0,0,0,0,0,0,0,-1,1924,904,24.5343,-3.74118
707,120,24.4597,3.93518,-9.94953e-05,0.000419255,-7.90108e-06,0.000419376,-9.96156e-05,-1.55557,0.000318033,0.0228059,1931,904,24.4597,-3.93515
714,120,24.5707,4.20044,0.000110697,0.000224147,-0.000263287,0.000436751,-0.000101907,-0.891502,0.000330416,0.0182253,1938,904,24.5707,-4.20043
721,120,24.5785,4.41345,0.000275754,0.000175743,-0.000445718,0.000674263,-0.000222767,-0.729536,0.000539324,0.0143697,1945,904,24.5785,-4.41345
728,120,24.5958,4.65173,0.00015329,0.00079561,-0.000579713,0.00113718,-0.000188279,-1.03835,0.000828046,0.010556,1952,904,24.5959,-4.65172
735,120,24.5675,4.85663,-0.000261507,0.00146061,-0.000939958,0.00187428,-0.000675181,-1.15621,0.00152524,0.0132455,1959,904,24.5675,-4.85663
742,120,24.5638,5.104,-0.000832551,0.00298099,-0.0016579,0.00360096,-0.00145252,-1.21295,0.00300423,0.0146645,1966,904,24.5638,-5.10398
749,120,24.5515,5.30945,-0.0018715,0.00528741,-0.00261123,0.00613865,-0.00272274,-1.25567,0.0052413,0.0117478,1973,904,24.5515,-5.30943
756,120,24.5303,5.51898,-0.0030217,0.00814596,-0.00361054,0.00921158,-0.00408732,-1.2838,0.00786582,0.0132163,1980,904,24.5303,-5.51897
763,120,24.4513,5.70392,-0.00474007,0.0119871,-0.00495004,0.0133422,-0.00609515,-1.30359,0.0114792,0.0232277,1987,904,24.4513,-5.70394
770,120,24.3823,5.89832,-0.00712303,0.0170567,-0.00677138,0.0188239,-0.00889017,-1.31552,0.0163397,0.044331,1994,904,24.3824,-5.89834
777,120,25.1965,7.70923,0,0,0,0,0,0,0,-1,2001,904,25.1966,-7.7092
784,120,24.6249,7.15253,0,0,0,0,0,0,0,-1,2008,904,24.6249,-7.15256
791,120,25.3555,5.33081,0,0,0,0,0,0,0,-1,2015,904,25.3555,-5.33083
798,120,23.5952,8.22217,0,0,0,0,0,0,0,-1,2022,904,23.5952,-8.22219
805,120,0,0,0,0,0,0,0,0,0,-1,2029,904,0,0
812,120,0,0,0,0,0,0,0,0,0,-1,2036,904,0,0
-700,113,0,0,0,0,0,0,0,0,0,-1,524,911,0,0
-693,113,0,0,0,0,0,0,0,0,0,-1,531,911,0,0
-686,113,0,0,0,0,0,0,0,0,0,-1,538,911,0,0
-679,113,-21.345,0.571838,0,0,0,0,0,0,0,-1,545,911,-21.345,-0.57186
-672,113,-21.3621,0.257019,0,0,0,0,0,0,0,-1,552,911,-21.3621,-0.256991
-665,113,-21.337,-0.0852661,0,0,0,0,0,0,0,-1,559,911,-21.3369,0.0852466
-658,113,-21.0575,-0.983276,0.0326128,-0.0409284,-0.00269687,0.0327116,-0.0410272,-0.036606,0.0426633,0.0443233,566,911,-21.0575,0.983286
-651,113,-19.3907,-1.60919,0.0266712,-0.031205,-0.000385804,0.0266737,-0.0312076,-0.00666563,0.033452,0.0445899,573,911,-19.3907,1.60918
-644,113,-17.3706,3.40363,0,0,0,0,0,0,0,-1,580,911,-17.3706,-3.40364
-637,113,-17.321,3.21826,0.015549,-0.0162586,0.00175172,0.0156451,-0.0163548,0.0548514,0.0184767,0.0371823,587,911,-17.321,-3.21827
-630,113,-17.2457,3.07837,0.0108763,-0.0109588,0.00209072,0.0110747,-0.0111572,0.0946048,0.0128356,0.0162601,594,911,-17.2457,-3.07834
-623,113,-17.2646,2.89313,0.00687459,-0.00658636,0.00254316,0.00733904,-0.00705081,0.180637,0.00830854,0.0104044,601,911,-17.2647,-2.89311
-616,113,-17.2602,2.6994,0.00309418,-0.00331182,0.00241885,0.00390491,-0.00412255,0.323405,0.00463522,0.00967406,608,911,-17.2602,-2.69939
-609,113,-17.2701,2.52802,0.000384189,-0.00142774,0.00192618,0.00160683,-0.00265038,0.565578,0.00248239,0.0110379,615,911,-17.2702,-2.52803
-602,113,-17.308,2.32611,-0.00212555,-0.000447212,0.00127643,0.000241187,-0.00281395,1.07619,0.00196131,0.0153278,622,911,-17.308,-2.32613
-595,113,-17.3173,2.17572,-0.0034932,3.1373e-05,0.000804802,0.000206445,-0.00366827,1.3566,0.00251715,0.0201197,629,911,-17.3173,-2.1757
-588,113,-17.2803,1.96991,-0.00361939,-0.00021358,0.000321359,-0.000183523,-0.00364945,1.47754,0.00237416,0.0217776,636,911,-17.2803,-1.96993
-581,113,-17.2882,1.76349,-0.00396649,-0.000295342,-6.02125e-05,-0.000294355,-0.00396748,-1.5544,0.00255253,0.0219003,643,911,-17.2882,-1.76351
-574,113,-17.1909,1.45776,-0.00397323,-0.000386902,-0.000294187,-0.00036293,-0.0039972,-1.48949,0.00255244,0.0240783,650,911,-17.1909,-1.45774
-567,113,-17.3865,1.1283,0,0,0,0,0,0,0,-1,657,911,-17.3865,-1.12832
-560,113,-19.2676,1.52209,0,0,0,0,0,0,0,-1,664,911,-19.2676,-1.52209
-553,113,-19.3157,1.46582,-0.00242924,-0.000482608,-0.000869839,-0.000150564,-0.00276128,-1.20614,0.00179278,0.0404712,671,911,-19.3157,-1.4658
-546,113,-19.2739,1.48602,-0.00174304,-0.00039639,-0.000994393,0.000131195,-0.00227062,-1.083,0.00155932,0.0340497,678,911,-19.2739,-1.48605
-539,113,-19.1708,1.60541,-0.000763953,-0.000346726,-0.00108319,0.000547753,-0.00165843,-0.880529,0.00132646,0.0344385,685,911,-19.1708,-1.60543
-532,113,-19.2349,1.50702,0.000506107,-0.000442867,-0.0010963,0.00122619,-0.00116295,-0.581165,0.00137953,0.0366704,692,911,-19.2349,-1.50704
-525,113,-19.3756,1.31738,0.00208767,-0.000898245,-0.00111119,0.00245581,-0.00126638,-0.319918,0.00218527,0.0376075,699,911,-19.3756,-1.31737
-518,113,-19.3857,1.46875,0.00356534,-0.002065,-0.00108536,0.00376731,-0.00226698,-0.183989,0.00351961,0.0421274,706,911,-19.3857,-1.46875
-511,113,-19.3381,1.57141,0.00511957,-0.00351016,-0.00111438,0.00526115,-0.00365174,-0.126371,0.00517375,0.0443149,713,911,-19.3381,-1.57142
-504,113,0,0,0,0,0,0,0,0,0,-1,720,911,0,0
-497,113,0,0,0,0,0,0,0,0,0,-1,727,911,0,0
-490,113,0,0,0,0,0,0,0,0,0,-1,734,911,0,0
-483,113,0,0,0,0,0,0,0,0,0,-1,741,911,0,0
-476,113,0,0,0,0,0,0,0,0,0,-1,748,911,0,0
-469,113,0,0,0,0,0,0,0,0,0,-1,755,911,0,0
-462,113,0,0,0,0,0,0,0,0,0,-1,762,911,0,0
-455,113,0,0,0,0,0,0,0,0,0,-1,769,911,0,0
-448,113,0,0,0,0,0,0,0,0,0,-1,776,911,0,0
-441,113,0,0,0,0,0,0,0,0,0,-1,783,911,0,0
-434,113,0,0,0,0,0,0,0,0,0,-1,790,911,0,0
-427,113,0,0,0,0,0,0,0,0,0,-1,797,911,0,0
-420,113,0,0,0,0,0,0,0,0,0,-1,804,911,0,0
-413,113,0,0,0,0,0,0,0,0,0,-1,811,911,0,0
-406,113,0,0,0,0,0,0,0,0,0,-1,818,911,0,0
-399,113,0,0,0,0,0,0,0,0,0,-1,825,911,0,0
-392,113,0,0,0,0,0,0,0,0,0,-1,832,911,0,0
-385,113,0,0,0,0,0,0,0,0,0,-1,839,911,0,0
-378,113,0,0,0,0,0,0,0,0,0,-1,846,911,0,0
-371,113,0,0,0,0,0,0,0,0,0,-1,853,911,0,0
-364,113,0,0,0,0,0,0,0,0,0,-1,860,911,0,0
-357,113,0,0,0,0,0,0,0,0,0,-1,867,911,0,0
-350,113,0,0,0,0,0,0,0,0,0,-1,874,911,0,0
-343,113,0,0,0,0,0,0,0,0,0,-1,881,911,0,0
-336,113,0,0,0,0,0,0,0,0,0,-1,888,911,0,0
-329,113,0,0,0,0,0,0,0,0,0,-1,895,911,0,0
-322,113,0,0,0,0,0,0,0,0,0,-1,902,911,0,0
-315,113,0,0,0,0,0,0,0,0,0,-1,909,911,0,0
-308,113,0,0,0,0,0,0,0,0,0,-1,916,911,0,0
-301,113,0,0,0,0,0,0,0,0,0,-1,923,911,0,0
-294,113,0,0,0,0,0,0,0,0,0,-1,930,911,0,0
-287,113,0,0,0,0,0,0,0,0,0,-1,937,911,0,0
-280,113,0,0,0,0,0,0,0,0,0,-1,944,911,0,0
-273,113,0,0,0,0,0,0,0,0,0,-1,951,911,0,0
-266,113,0,0,0,0,0,0,0,0,0,-1,958,911,0,0
-259,113,0,0,0,0,0,0,0,0,0,-1,965,911,0,0
-252,113,0,0,0,0,0,0,0,0,0,-1,972,911,0,0
-245,113,0,0,0,0,0,0,0,0,0,-1,979,911,0,0
-238,113,0,0,0,0,0,0,0,0,0,-1,986,911,0,0
-231,113,0,0,0,0,0,0,0,0,0,-1,993,911,0,0
-224,113,0,0,0,0,0,0,0,0,0,-1,1000,911,0,0
-217,113,0,0,0,0,0,0,0,0,0,-1,1007,911,0,0
-210,113,0,0,0,0,0,0,0,0,0,-1,1014,911,0,0
-203,113,0,0,0,0,0,0,0,0,0,-1,1021,911,0,0
-196,113,0,0,0,0,0,0,0,0,0,-1,1028,911,0,0
-189,113,0,0,0,0,0,0,0,0,0,-1,1035,911,0,0
-182,113,0,0,0,0,0,0,0,0,0,-1,1042,911,0,0
-175,113,0,0,0,0,0,0,0,0,0,-1,1049,911,0,0
-168,113,0,0,0,0,0,0,0,0,0,-1,1056,911,0,0
-161,113,0,0,0,0,0,0,0,0,0,-1,1063,911,0,0
-154,113,0,0,0,0,0,0,0,0,0,-1,1070,911,0,0
-147,113,0,0,0,0,0,0,0,0,0,-1,1077,911,0,0
-140,113,0,0,0,0,0,0,0,0,0,-1,1084,911,0,0
-133,113,0,0,0,0,0,0,0,0,0,-1,1091,911,0,0
-126,113,0,0,0,0,0,0,0,0,0,-1,1098,911,0,0
-119,113,0,0,0,0,0,0,0,0,0,-1,1105,911,0,0
-112,113,0,0,0,0,0,0,0,0,0,-1,1112,911,0,0
-105,113,0,0,0,0,0,0,0,0,0,-1,1119,911,0,0
-98,113,0,0,0,0,0,0,0,0,0,-1,1126,911,0,0
-91,113,0,0,0,0,0,0,0,0,0,-1,1133,911,0,0
-84,113,0,0,0,0,0,0,0,0,0,-1,1140,911,0,0
-77,113,0,0,0,0,0,0,0,0,0,-1,1147,911,0,0
-70,113,0,0,0,0,0,0,0,0,0,-1,1154,911,0,0
-63,113,0,0,0,0,0,0,0,0,0,-1,1161,911,0,0
-56,113,0,0,0,0,0,0,0,0,0,-1,1168,911,0,0
-49,113,0,0,0,0,0,0,0,0,0,-1,1175,911,0,0
-42,113,0,0,0,0,0,0,0,0,0,-1,1182,911,0,0
-35,113,0,0,0,0,0,0,0,0,0,-1,1189,911,0,0
-28,113,0,0,0,0,0,0,0,0,0,-1,1196,911,0,0
-21,113,0,0,0,0,0,0,0,0,0,-1,1203,911,0,0
-14,113,0,0,0,0,0,0,0,0,0,-1,1210,911,0,0
-7,113,0,0,0,0,0,0,0,0,0,-1,1217,911,0,0
0,113,0,0,0,0,0,0,0,0,0,-1,1224,911,0,0
7,113,0,0,0,0,0,0,0,0,0,-1,1231,911,0,0
14,113,0,0,0,0,0,0,0,0,0,-1,1238,911,0,0
21,113,0,0,0,0,0,0,0,0,0,-1,1245,911,0,0
28,113,0,0,0,0,0,0,0,0,0,-1,1252,911,0,0
35,113,0,0,0,0,0,0,0,0,0,-1,1259,911,0,0
42,113,0,0,0,0,0,0,0,0,0,-1,1266,911,0,0
49,113,0,0,0,0,0,0,0,0,0,-1,1273,911,0,0
56,113,0,0,0,0,0,0,0,0,0,-1,1280,911,0,0
63,113,0,0,0,0,0,0,0,0,0,-1,1287,911,0,0
70,113,0,0,0,0,0,0,0,0,0,-1,1294,911,0,0
77,113,0,0,0,0,0,0,0,0,0,-1,1301,911,0,0
84,113,0,0,0,0,0,0,0,0,0,-1,1308,911,0,0
91,113,0,0,0,0,0,0,0,0,0,-1,1315,911,0,0
98,113,0,0,0,0,0,0,0,0,0,-1,1322,911,0,0
105,113,0,0,0,0,0,0,0,0,0,-1,1329,911,0,0
112,113,0,0,0,0,0,0,0,0,0,-1,1336,911,0,0
119,113,0,0,0,0,0,0,0,0,0,-1,1343,911,0,0
126,113,0,0,0,0,0,0,0,0,0,-1,1350,911,0,0
133,113,0,0,0,0,0,0,0,0,0,-1,1357,911,0,0
140,113,0,0,0,0,0,0,0,0,0,-1,1364,911,0,0
147,113,0,0,0,0,0,0,0,0,0,-1,1371,911,0,0
154,113,0,0,0,0,0,0,0,0,0,-1,1378,911,0,0
161,113,0,0,0,0,0,0,0,0,0,-1,1385,911,0,0
168,113,0,0,0,0,0,0,0,0,0,-1,1392,911,0,0
175,113,0,0,0,0,0,0,0,0,0,-1,1399,911,0,0
182,113,0,0,0,0,0,0,0,0,0,-1,1406,911,0,0
189,113,0,0,0,0,0,0,0,0,0,-1,1413,911,0,0
196,113,0,0,0,0,0,0,0,0,0,-1,1420,911,0,0
203,113,0,0,0,0,0,0,0,0,0,-1,1427,911,0,0
210,113,0,0,0,0,0,0,0,0,0,-1,1434,911,0,0
217,113,0,0,0,0,0,0,0,0,0,-1,1441,911,0,0
224,113,0,0,0,0,0,0,0,0,0,-1,1448,911,0,0
231,113,0,0,0,0,0,0,0,0,0,-1,1455,911,0,0
238,113,0,0,0,0,0,0,0,0,0,-1,1462,911,0,0
245,113,0,0,0,0,0,0,0,0,0,-1,1469,911,0,0
252,113,0,0,0,0,0,0,0,0,0,-1,1476,911,0,0
259,113,0,0,0,0,0,0,0,0,0,-1,1483,911,0,0
266,113,0,0,0,0,0,0,0,0,0,-1,1490,911,0,0
273,113,0,0,0,0,0,0,0,0,0,-1,1497,911,0,0
280,113,0,0,0,0,0,0,0,0,0,-1,1504,911,0,0
287,113,0,0,0,0,0,0,0,0,0,-1,1511,911,0,0
294,113,0,0,0,0,0,0,0,0,0,-1,1518,911,0,0
301,113,0,0,0,0,0,0,0,0,0,-1,1525,911,0,0
308,113,0,0,0,0,0,0,0,0,0,-1,1532,911,0,0
315,113,0,0,0,0,0,0,0,0,0,-1,1539,911,0,0
322,113,0,0,0,0,0,0,0,0,0,-1,1546,911,0,0
329,113,0,0,0,0,0,0,0,0,0,-1,1553,911,0,0
336,113,0,0,0,0,0,0,0,0,0,-1,1560,911,0,0
343,113,0,0,0,0,0,0,0,0,0,-1,1567,911,0,0
350,113,0,0,0,0,0,0,0,0,0,-1,1574,911,0,0
357,113,0,0,0,0,0,0,0,0,0,-1,1581,911,0,0
364,113,0,0,0,0,0,0,0,0,0,-1,1588,911,0,0
371,113,0,0,0,0,0,0,0,0,0,-1,1595,911,0,0
378,113,0,0,0,0,0,0,0,0,0,-1,1602,911,0,0
385,113,0,0,0,0,0,0,0,0,0,-1,1609,911,0,0
392,113,0,0,0,0,0,0,0,0,0,-1,1616,911,0,0
399,113,0,0,0,0,0,0,0,0,0,-1,1623,911,0,0
406,113,0,0,0,0,0,0,0,0,0,-1,1630,911,0,0
413,113,0,0,0,0,0,0,0,0,0,-1,1637,911,0,0
420,113,0,0,0,0,0,0,0,0,0,-1,1644,911,0,0
427,113,0,0,0,0,0,0,0,0,0,-1,1651,911,0,0
434,113,0,0,0,0,0,0,0,0,0,-1,1658,911,0,0
441,113,0,0,0,0,0,0,0,0,0,-1,1665,911,0,0
448,113,0,0,0,0,0,0,0,0,0,-1,1672,911,0,0
455,113,0,0,0,0,0,0,0,0,0,-1,1679,911,0,0
462,113,0,0,0,0,0,0,0,0,0,-1,1686,911,0,0
469,113,0,0,0,0,0,0,0,0,0,-1,1693,911,0,0
476,113,0,0,0,0,0,0,0,0,0,-1,1700,911,0,0
483,113,0,0,0,0,0,0,0,0,0,-1,1707,911,0,0
490,113,0,0,0,0,0,0,0,0,0,-1,1714,911,0,0
497,113,0,0,0,0,0,0,0,0,0,-1,1721,911,0,0
504,113,0,0,0,0,0,0,0,0,0,-1,1728,911,0,0
511,113,0,0,0,0,0,0,0,0,0,-1,1735,911,0,0
518,113,0,0,0,0,0,0,0,0,0,-1,1742,911,0,0
525,113,0,0,0,0,0,0,0,0,0,-1,1749,911,0,0
532,113,0,0,0,0,0,0,0,0,0,-1,1756,911,0,0
539,113,0,0,0,0,0,0,0,0,0,-1,1763,911,0,0
546,113,0,0,0,0,0,0,0,0,0,-1,1770,911,0,0
553,113,0,0,0,0,0,0,0,0,0,-1,1777,911,0,0
560,113,0,0,0,0,0,0,0,0,0,-1,1784,911,0,0
567,113,0,0,0,0,0,0,0,0,0,-1,1791,911,0,0
574,113,0,0,0,0,0,0,0,0,0,-1,1798,911,0,0
581,113,0,0,0,0,0,0,0,0,0,-1,1805,911,0,0
588,113,0,0,0,0,0,0,0,0,0,-1,1812,911,0,0
595,113,0,0,0,0,0,0,0,0,0,-1,1819,911,0,0
602,113,0,0,0,0,0,0,0,0,0,-1,1826,911,0,0
609,113,0,0,0,0,0,0,0,0,0,-1,1833,911,0,0
616,113,0,0,0,0,0,0,0,0,0,-1,1840,911,0,0
623,113,0,0,0,0,0,0,0,0,0,-1,1847,911,0,0
630,113,27.6879,3.40546,0.00201501,0.00219016,-0.00308725,0.00519108,-0.000985912,-0.799578,0.00383187,0.0368876,1854,911,27.6878,-3.40546
637,113,27.5464,3.54608,0.00189105,0.00243883,-0.0026549,0.00483393,-0.000504053,-0.836798,0.00340311,0.0382009,1861,911,27.5464,-3.54611
644,113,27.5188,3.51105,0.00142217,0.00254864,-0.00204983,0.00411122,-0.000140397,-0.919475,0.00278879,0.0374289,1868,911,27.5188,-3.51103
651,113,27.5061,3.41205,0.000926143,0.00250106,-0.00141821,0.00333576,9.14425e-05,-1.03883,0.00219399,0.0422795,1875,911,27.5061,-3.41203
658,113,27.5706,3.3219,0.000390992,0.00235741,-0.000863058,0.00268247,6.59308e-05,-1.21059,0.00176675,0.0441596,1882,911,27.5705,-3.32192
665,113,27.6127,3.37408,4.72519e-05,0.00213468,-0.000432933,0.0022209,-3.89767e-05,-1.3742,0.00149376,0.0379287,1889,911,27.6126,-3.37406
672,113,27.5267,3.43427,-8.07599e-05,0.00180479,-0.000112049,0.00181142,-8.73952e-05,-1.51165,0.00123778,0.0363593,1896,911,27.5267,-3.43428
679,113,27.5859,3.33978,-5.67871e-05,0.00156499,0.000108301,0.00157219,-6.39874e-05,1.50441,0.0010701,0.0316056,1903,911,27.5859,-3.33977
686,113,27.5765,3.39874,-3.74989e-05,0.00123685,0.000224586,0.00127527,-7.59207e-05,1.40136,0.000876582,0.0298508,1910,911,27.5766,-3.39875
693,113,27.4142,3.58356,0,0,0,0,0,0,0,-1,1917,911,27.4141,-3.58357
700,113,27.2933,3.60468,0,0,0,0,0,0,0,-1,1924,911,27.2933,-3.60465
707,113,24.7218,3.93512,0,0,0,0,0,0,0,-1,1931,911,24.7217,-3.93514
714,113,24.7407,4.14813,-0.000203676,0.000430086,7.73923e-06,0.00043018,-0.00020377,1.55859,0.000373711,0.0202023,1938,911,24.7407,-4.14816
721,113,24.7611,4.38037,-1.9961e-05,0.000334816,-0.00021705,0.000437744,-0.000122889,-1.12799,0.000340271,0.0181789,1945,911,24.7611,-4.38039
728,113,24.8315,4.65338,-0.000198587,0.000873073,-0.000331842,0.000967507,-0.000293021,-1.29355,0.000761703,0.0171595,1952,911,24.8315,-4.65336
735,113,24.8079,4.8996,-0.000712938,0.00156571,-0.000705481,0.00176645,-0.000913675,-1.29358,0.00157326,0.0156163,1959,911,24.8079,-4.89959
742,113,24.7854,5.09125,-0.00151058,0.00316813,-0.00147408,0.00359382,-0.00193627,-1.28966,0.00324025,0.0124802,1966,911,24.7854,-5.09125
749,113,24.7886,5.30542,-0.00295315,0.00570096,-0.00252071,0.00638164,-0.00363383,-1.30705,0.00585452,0.00955283,1973,911,24.7886,-5.30541
756,113,24.7684,5.50763,-0.00458307,0.0088487,-0.00362567,0.00976489,-0.00549926,-1.32328,0.00892673,0.0109505,1980,911,24.7684,-5.50764
763,113,24.6929,5.74408,-0.00690709,0.0130593,-0.0050926,0.0142832,-0.00813098,-1.33494,0.0131023,0.022069,1987,911,24.6929,-5.74407
770,113,24.5392,6.13153,0,0,0,0,0,0,0,-1,1994,911,24.5392,-6.13152
777,113,24.8784,7.14636,-0.0141743,0.0256093,-0.00981027,0.0278969,-0.0164619,-1.34171,0.0258927,0.0490821,2001,911,24.8784,-7.14634
784,113,24.4674,7.0011,-0.0197367,0.0347294,-0.0135792,0.0379272,-0.0229345,-1.33952,0.0354921,0.0495251,2008,911,24.4674,-7.00112
791,113,23.8795,9.36243,0,0,0,0,0,0,0,-1,2015,911,23.8796,-9.36241
798,113,23.5636,8.13177,0,0,0,0,0,0,0,-1,2022,911,23.5636,-8.13175
805,113,0,0,0,0,0,0,0,0,0,-1,2029,911,0,0
812,113,0,0,0,0,0,0,0,0,0,-1,2036,911,0,0
-700,106,0,0,0,0,0,0,0,0,0,-1,524,918,0,0
-693,106,0,0,0,0,0,0,0,0,0,-1,531,918,0,0
-686,106,0,0,0,0,0,0,0,0,0,-1,538,918,0,0
-679,106,-20.6051,1.38196,0.0423712,-0.0793035,-0.0342016,0.0513259,-0.0882582,-0.256074,0.0815238,0.0455765,545,918,-20.6051,-1.38197
-672,106,-20.5528,1.05457,0.0387361,-0.0645934,-0.0230849,0.043659,-0.0695163,-0.210104,0.0659078,0.0465225,552,918,-20.5528,-1.05459
-665,106,-20.5141,0.703735,0.0334224,-0.0515217,-0.0152864,0.0360895,-0.0541889,-0.172741,0.0524702,0.0486553,559,918,-20.5141,-0.703733
-658,106,-19.9086,-0.0664063,0.0276941,-0.0401654,-0.00975027,0.0290672,-0.0415385,-0.139913,0.0409757,0.0437093,566,918,-19.9086,0.0664359
-651,106,-19.2716,-0.776001,0.0220804,-0.0304529,-0.00581316,0.022716,-0.0310885,-0.108901,0.0311892,0.0422145,573,918,-19.2716,0.776019
-644,106,-17.0464,3.63116,0,0,0,0,0,0,0,-1,580,918,-17.0464,-3.63117
-637,106,-17.3508,3.2738,0.0122119,-0.0157152,-0.00117045,0.0122608,-0.0157642,-0.0418133,0.0162223,0.0293473,587,918,-17.3509,-3.27382
-630,106,-17.4364,3.10852,0.00822405,-0.0105544,0.000116494,0.00822478,-0.0105551,0.0062033,0.0108704,0.0124058,594,918,-17.4364,-3.10854
-623,106,-17.4712,2.88153,0.00477111,-0.00630815,0.00125307,0.00491107,-0.0064481,0.111228,0.0065782,0.0108535,601,918,-17.4712,-2.88152
-616,106,-17.4859,2.68488,0.00135617,-0.00310222,0.00160925,0.00187634,-0.00362239,0.312636,0.0032276,0.0109066,608,918,-17.4859,-2.68485
-609,106,-17.4797,2.5213,-0.000916619,-0.00134103,0.00153903,0.000424767,-0.00268241,0.716889,0.00194538,0.010422,615,918,-17.4797,-2.52132
-602,106,-17.4778,2.32477,-0.00311947,-0.000459093,0.0010961,-6.56695e-05,-0.0035129,1.22619,0.00232035,0.0144862,622,918,-17.4779,-2.32476
-595,106,-17.5626,2.14911,-0.0043476,8.06699e-05,0.000705102,0.000190231,-0.00445716,1.41665,0.00303684,0.0188934,629,918,-17.5626,-2.14908
-588,106,-17.543,1.94434,-0.0044285,-0.00013011,0.000242229,-0.000116503,-0.0044421,1.51468,0.00292334,0.0214999,636,918,-17.543,-1.94432
-581,106,-17.4326,1.72729,-0.00480226,-0.000181445,-0.000146099,-0.000176831,-0.00480687,-1.53922,0.00314729,0.0148708,643,918,-17.4326,-1.72727
-574,106,-17.5061,1.52924,-0.0048437,-0.000217187,-0.000404858,-0.000182026,-0.00487886,-1.48417,0.00319363,0.0267846,650,918,-17.5061,-1.52922
-567,106,-17.8756,1.44763,0,0,0,0,0,0,0,-1,657,918,-17.8756,-1.44763
-560,106,-19.2715,1.47943,-0.00391178,-0.000263243,-0.000790899,-9.91768e-05,-0.00407585,-1.36625,0.00268479,0.0414418,664,918,-19.2715,-1.47945
-553,106,-19.3405,1.46869,-0.00335228,-0.000173302,-0.000958393,9.32773e-05,-0.00361886,-1.2995,0.00244426,0.0349607,671,918,-19.3405,-1.46867
-546,106,-19.3129,1.37848,-0.00253946,-2.01188e-05,-0.00108328,0.000381615,-0.0029412,-1.21567,0.0020996,0.0383226,678,918,-19.3129,-1.37849
-539,106,-19.2396,1.41827,-0.00138875,9.79859e-05,-0.00115778,0.000730495,-0.00202126,-1.07079,0.00164596,0.0401019,685,918,-19.2396,-1.41827
-532,106,-19.2184,1.66852,0.000110604,6.59408e-05,-0.00115682,0.0012453,-0.00106876,-0.775747,0.00133732,0.0375821,692,918,-19.2184,-1.66851
-525,106,-19.4243,1.61591,0.00187844,-0.000337732,-0.00116927,0.00238127,-0.000840564,-0.40613,0.00192972,0.0373022,699,918,-19.4243,-1.61591
-518,106,-19.3521,1.60486,0.0031505,-0.00146904,-0.00110335,0.0034005,-0.00171904,-0.22282,0.00300844,0.0416868,706,918,-19.352,-1.60484
-511,106,0,0,0,0,0,0,0,0,0,-1,713,918,0,0
-504,106,0,0,0,0,0,0,0,0,0,-1,720,918,0,0
-497,106,0,0,0,0,0,0,0,0,0,-1,727,918,0,0
-490,106,0,0,0,0,0,0,0,0,0,-1,734,918,0,0
-483,106,0,0,0,0,0,0,0,0,0,-1,741,918,0,0
-476,106,0,0,0,0,0,0,0,0,0,-1,748,918,0,0
-469,106,0,0,0,0,0,0,0,0,0,-1,755,918,0,0
-462,106,0,0,0,0,0,0,0,0,0,-1,762,918,0,0
-455,106,0,0,0,0,0,0,0,0,0,-1,769,918,0,0
-448,106,0,0,0,0,0,0,0,0,0,-1,776,918,0,0
-441,106,0,0,0,0,0,0,0,0,0,-1,783,918,0,0
-434,106,0,0,0,0,0,0,0,0,0,-1,790,918,0,0
-427,106,0,0,0,0,0,0,0,0,0,-1,797,918,0,0
-420,106,0,0,0,0,0,0,0,0,0,-1,804,918,0,0
-413,106,0,0,0,0,0,0,0,0,0,-1,811,918,0,0
-406,106,0,0,0,0,0,0,0,0,0,-1,818,918,0,0
-399,106,0,0,0,0,0,0,0,0,0,-1,825,918,0,0
-392,106,0,0,0,0,0,0,0,0,0,-1,832,918,0,0
-385,106,0,0,0,0,0,0,0,0,0,-1,839,918,0,0
-378,106,0,0,0,0,0,0,0,0,0,-1,846,918,0,0
-371,106,0,0,0,0,0,0,0,0,0,-1,853,918,0,0
-364,106,0,0,0,0,0,0,0,0,0,-1,860,918,0,0
-357,106,0,0,0,0,0,0,0,0,0,-1,867,918,0,0
-350,106,0,0,0,0,0,0,0,0,0,-1,874,918,0,0
-343,106,0,0,0,0,0,0,0,0,0,-1,881,918,0,0
-336,106,0,0,0,0,0,0,0,0,0,-1,888,918,0,0
-329,106,0,0,0,0,0,0,0,0,0,-1,895,918,0,0
-322,106,0,0,0,0,0,0,0,0,0,-1,902,918,0,0
-315,106,0,0,0,0,0,0,0,0,0,-1,909,918,0,0
-308,106,0,0,0,0,0,0,0,0,0,-1,916,918,0,0
-301,106,0,0,0,0,0,0,0,0,0,-1,923,918,0,0
-294,106,0,0,0,0,0,0,0,0,0,-1,930,918,0,0
-287,106,0,0,0,0,0,0,0,0,0,-1,937,918,0,0
-280,106,0,0,0,0,0,0,0,0,0,-1,944,918,0,0
-273,106,0,0,0,0,0,0,0,0,0,-1,951,918,0,0
-266,106,0,0,0,0,0,0,0,0,0,-1,958,918,0,0
-259,106,0,0,0,0,0,0,0,0,0,-1,965,918,0,0
-252,106,0,0,0,0,0,0,0,0,0,-1,972,918,0,0
-245,106,0,0,0,0,0,0,0,0,0,-1,979,918,0,0
-238,106,0,0,0,0,0,0,0,0,0,-1,986,918,0,0
-231,106,0,0,0,0,0,0,0,0,0,-1,993,918,0,0
-224,106,0,0,0,0,0,0,0,0,0,-1,1000,918,0,0
-217,106,0,0,0,0,0,0,0,0,0,-1,1007,918,0,0
-210,106,0,0,0,0,0,0,0,0,0,-1,1014,918,0,0
-203,106,0,0,0,0,0,0,0,0,0,-1,1021,918,0,0
-196,106,0,0,0,0,0,0,0,0,0,-1,1028,918,0,0
-189,106,0,0,0,0,0,0,0,0,0,-1,1035,918,0,0
-182,106,0,0,0,0,0,0,0,0,0,-1,1042,918,0,0
-175,106,0,0,0,0,0,0,0,0,0,-1,1049,918,0,0
-168,106,0,0,0,0,0,0,0,0,0,-1,1056,918,0,0
-161,106,0,0,0,0,0,0,0,0,0,-1,1063,918,0,0
-154,106,0,0,0,0,0,0,0,0,0,-1,1070,918,0,0
-147,106,0,0,0,0,0,0,0,0,0,-1,1077,918,0,0
-140,106,0,0,0,0,0,0,0,0,0,-1,1084,918,0,0
-133,106,0,0,0,0,0,0,0,0,0,-1,1091,918,0,0
-126,106,0,0,0,0,0,0,0,0,0,-1,1098,918,0,0
-119,106,0,0,0,0,0,0,0,0,0,-1,1105,918,0,0
-112,106,0,0,0,0,0,0,0,0,0,-1,1112,918,0,0
-105,106,0,0,0,0,0,0,0,0,0,-1,1119,918,0,0
-98,106,0,0,0,0,0,0,0,0,0,-1,1126,918,0,0
-91,106,0,0,0,0,0,0,0,0,0,-1,1133,918,0,0
-84,106,0,0,0,0,0,0,0,0,0,-1,1140,918,0,0
-77,106,0,0,0,0,0,0,0,0,0,-1,1147,918,0,0
-70,106,0,0,0,0,0,0,0,0,0,-1,1154,918,0,0
-63,106,0,0,0,0,0,0,0,0,0,-1,1161,918,0,0
-56,106,0,0,0,0,0,0,0,0,0,-1,1168,918,0,0
-49,106,0,0,0,0,0,0,0,0,0,-1,1175,918,0,0
-42,106,0,0,0,0,0,0,0,0,0,-1,1182,918,0,0
-35,106,0,0,0,0,0,0,0,0,0,-1,1189,918,0,0
-28,106,0,0,0,0,0,0,0,0,0,-1,1196,918,0,0
-21,106,0,0,0,0,0,0,0,0,0,-1,1203,918,0,0
-14,106,0,0,0,0,0,0,0,0,0,-1,1210,918,0,0
-7,106,0,0,0,0,0,0,0,0,0,-1,1217,918,0,0
0,106,0,0,0,0,0,0,0,0,0,-1,1224,918,0,0
7,106,0,0,0,0,0,0,0,0,0,-1,1231,918,0,0
14,106,0,0,0,0,0,0,0,0,0,-1,1238,918,0,0
21,106,0,0,0,0,0,0,0,0,0,-1,1245,918,0,0
28,106,0,0,0,0,0,0,0,0,0,-1,1252,918,0,0
35,106,0,0,0,0,0,0,0,0,0,-1,1259,918,0,0
42,106,0,0,0,0,0,0,0,0,0,-1,1266,918,0,0
49,106,0,0,0,0,0,0,0,0,0,-1,1273,918,0,0
56,106,0,0,0,0,0,0,0,0,0,-1,1280,918,0,0
63,106,0,0,0,0,0,0,0,0,0,-1,1287,918,0,0
70,106,0,0,0,0,0,0,0,0,0,-1,1294,918,0,0
77,106,0,0,0,0,0,0,0,0,0,-1,1301,918,0,0
84,106,0,0,0,0,0,0,0,0,0,-1,1308,918,0,0
91,106,0,0,0,0,0,0,0,0,0,-1,1315,918,0,0
98,106,0,0,0,0,0,0,0,0,0,-1,1322,918,0,0
105,106,0,0,0,0,0,0,0,0,0,-1,1329,918,0,0
112,106,0,0,0,0,0,0,0,0,0,-1,1336,918,0,0
119,106,0,0,0,0,0,0,0,0,0,-1,1343,918,0,0
126,106,0,0,0,0,0,0,0,0,0,-1,1350,918,0,0
133,106,0,0,0,0,0,0,0,0,0,-1,1357,918,0,0
140,106,0,0,0,0,0,0,0,0,0,-1,1364,918,0,0
147,106,0,0,0,0,0,0,0,0,0,-1,1371,918,0,0
154,106,0,0,0,0,0,0,0,0,0,-1,1378,918,0,0
161,106,0,0,0,0,0,0,0,0,0,-1,1385,918,0,0
168,106,0,0,0,0,0,0,0,0,0,-1,1392,918,0,0
175,106,0,0,0,0,0,0,0,0,0,-1,1399,918,0,0
182,106,0,0,0,0,0,0,0,0,0,-1,1406,918,0,0
189,106,0,0,0,0,0,0,0,0,0,-1,1413,918,0,0
196,106,0,0,0,0,0,0,0,0,0,-1,1420,918,0,0
203,106,0,0,0,0,0,0,0,0,0,-1,1427,918,0,0
210,106,0,0,0,0,0,0,0,0,0,-1,1434,918,0,0
217,106,0,0,0,0,0,0,0,0,0,-1,1441,918,0,0
224,106,0,0,0,0,0,0,0,0,0,-1,1448,918,0,0
231,106,0,0,0,0,0,0,0,0,0,-1,1455,918,0,0
238,106,0,0,0,0,0,0,0,0,0,-1,1462,918,0,0
245,106,0,0,0,0,0,0,0,0,0,-1,1469,918,0,0
252,106,0,0,0,0,0,0,0,0,0,-1,1476,918,0,0
259,106,0,0,0,0,0,0,0,0,0,-1,1483,918,0,0
266,106,0,0,0,0,0,0,0,0,0,-1,1490,918,0,0
273,106,0,0,0,0,0,0,0,0,0,-1,1497,918,0,0
280,106,0,0,0,0,0,0,0,0,0,-1,1504,918,0,0
287,106,0,0,0,0,0,0,0,0,0,-1,1511,918,0,0
294,106,0,0,0,0,0,0,0,0,0,-1,1518,918,0,0
301,106,0,0,0,0,0,0,0,0,0,-1,1525,918,0,0
308,106,0,0,0,0,0,0,0,0,0,-1,1532,918,0,0
315,106,0,0,0,0,0,0,0,0,0,-1,1539,918,0,0
322,106,0,0,0,0,0,0,0,0,0,-1,1546,918,0,0
329,106,0,0,0,0,0,0,0,0,0,-1,1553,918,0,0
336,106,0,0,0,0,0,0,0,0,0,-1,1560,918,0,0
343,106,0,0,0,0,0,0,0,0,0,-1,1567,918,0,0
350,106,0,0,0,0,0,0,0,0,0,-1,1574,918,0,0
357,106,0,0,0,0,0,0,0,0,0,-1,1581,918,0,0
364,106,0,0,0,0,0,0,0,0,0,-1,1588,918,0,0
371,106,0,0,0,0,0,0,0,0,0,-1,1595,918,0,0
378,106,0,0,0,0,0,0,0,0,0,-1,1602,918,0,0
385,106,0,0,0,0,0,0,0,0,0,-1,1609,918,0,0
392,106,0,0,0,0,0,0,0,0,0,-1,1616,918,0,0
399,106,0,0,0,0,0,0,0,0,0,-1,1623,918,0,0
406,106,0,0,0,0,0,0,0,0,0,-1,1630,918,0,0
413,106,0,0,0,0,0,0,0,0,0,-1,1637,918,0,0
420,106,0,0,0,0,0,0,0,0,0,-1,1644,918,0,0
427,106,0,0,0,0,0,0,0,0,0,-1,1651,918,0,0
434,106,0,0,0,0,0,0,0,0,0,-1,1658,918,0,0
441,106,0,0,0,0,0,0,0,0,0,-1,1665,918,0,0
448,106,0,0,0,0,0,0,0,0,0,-1,1672,918,0,0
455,106,0,0,0,0,0,0,0,0,0,-1,1679,918,0,0
462,106,0,0,0,0,0,0,0,0,0,-1,1686,918,0,0
469,106,0,0,0,0,0,0,0,0,0,-1,1693,918,0,0
476,106,0,0,0,0,0,0,0,0,0,-1,1700,918,0,0
483,106,0,0,0,0,0,0,0,0,0,-1,1707,918,0,0
490,106,0,0,0,0,0,0,0,0,0,-1,1714,918,0,0
497,106,0,0,0,0,0,0,0,0,0,-1,1721,918,0,0
504,106,0,0,0,0,0,0,0,0,0,-1,1728,918,0,0
511,106,0,0,0,0,0,0,0,0,0,-1,1735,918,0,0
518,106,0,0,0,0,0,0,0,0,0,-1,1742,918,0,0
525,106,0,0,0,0,0,0,0,0,0,-1,1749,918,0,0
532,106,0,0,0,0,0,0,0,0,0,-1,1756,918,0,0
539,106,0,0,0,0,0,0,0,0,0,-1,1763,918,0,0
546,106,0,0,0,0,0,0,0,0,0,-1,1770,918,0,0
553,106,0,0,0,0,0,0,0,0,0,-1,1777,918,0,0
560,106,0,0,0,0,0,0,0,0,0,-1,1784,918,0,0
567,106,0,0,0,0,0,0,0,0,0,-1,1791,918,0,0
574,106,0,0,0,0,0,0,0,0,0,-1,1798,918,0,0
581,106,0,0,0,0,0,0,0,0,0,-1,1805,918,0,0
588,106,0,0,0,0,0,0,0,0,0,-1,1812,918,0,0
595,106,0,0,0,0,0,0,0,0,0,-1,1819,918,0,0
602,106,0,0,0,0,0,0,0,0,0,-1,1826,918,0,0
609,106,0,0,0,0,0,0,0,0,0,-1,1833,918,0,0
616,106,0,0,0,0,0,0,0,0,0,-1,1840,918,0,0
623,106,0,0,0,0,0,0,0,0,0,-1,1847,918,0,0
630,106,27.5603,3.50104,0.00299645,0.00232606,-0.00374625,0.00642247,-0.00109996,-0.74078,0.00469148,0.035802,1854,918,27.5603,-3.50106
637,106,27.4653,3.66205,0.00258839,0.00261685,-0.00314441,0.00574706,-0.000541816,-0.787661,0.00402416,0.0370765,1861,918,27.4653,-3.66205
644,106,27.6071,3.65112,0.00180255,0.00281122,-0.00236338,0.00472348,-0.000109706,-0.890519,0.00318619,0.035841,1868,918,27.6071,-3.65112
651,106,27.7479,3.45538,0.00105778,0.00280801,-0.00155839,0.00372018,0.000145607,-1.04123,0.00243304,0.0398101,1875,918,27.7479,-3.45536
658,106,27.8051,3.20508,0.000298124,0.00270813,-0.000814968,0.00295785,4.84089e-05,-1.27347,0.00195596,0.042237,1882,918,27.805,-3.2051
665,106,27.6563,3.34656,-0.000210461,0.00249629,-0.000223393,0.00251461,-0.000228774,-1.489,0.00175763,0.0393387,1889,918,27.6562,-3.34653
672,106,27.4954,3.50488,-0.000418315,0.00215806,0.000217946,0.00217637,-0.000436622,1.487,0.00161623,0.0384282,1896,918,27.4954,-3.50489
679,106,27.6191,3.31836,-0.000428076,0.00184472,0.000513325,0.00195528,-0.000538636,1.35866,0.00151532,0.0340687,1903,918,27.6192,-3.31837
686,106,27.6257,3.3512,-0.000400695,0.00146405,0.00064511,0.00166547,-0.000602115,1.26816,0.00135633,0.0337739,1910,918,27.6257,-3.35122
693,106,27.3713,3.59656,0,0,0,0,0,0,0,-1,1917,918,27.3713,-3.59656
700,106,27.0239,3.17017,0,0,0,0,0,0,0,-1,1924,918,27.024,-3.17018
707,106,24.8922,3.94409,0,0,0,0,0,0,0,-1,1931,918,24.8922,-3.94408
714,106,24.9918,4.14984,-0.00056828,0.000622125,0.000423664,0.000757509,-0.000703664,1.2615,0.0008438,0.0238866,1938,918,24.9919,-4.14984
721,106,25.0353,4.38367,-0.000399917,0.000524391,0.000143345,0.000546111,-0.000421637,1.42042,0.000560268,0.0191504,1945,918,25.0353,-4.38366
728,106,25.0958,4.67377,-0.000612133,0.00102053,1.58346e-05,0.00102068,-0.000612286,1.5611,0.000952573,0.0177497,1952,918,25.0958,-4.67379
735,106,25.0569,4.89807,-0.0011569,0.00175435,-0.000431088,0.00181684,-0.00121939,-1.42683,0.00176425,0.0157817,1959,918,25.0568,-4.89807
742,106,25.0189,5.0788,-0.00214492,0.00341267,-0.00128824,0.00369676,-0.00242901,-1.35374,0.00356187,0.0111712,1966,918,25.0189,-5.07878
749,106,25.0214,5.2854,-0.00396732,0.00620837,-0.00246303,0.00677319,-0.00453214,-1.34537,0.00656975,0.00923301,1973,918,25.0214,-5.2854
756,106,25.0134,5.47485,-0.00608392,0.00978284,-0.0037165,0.0106102,-0.0069113,-1.35175,0.0101909,0.0100818,1980,918,25.0134,-5.47485
763,106,24.9694,5.71863,-0.00898265,0.0144922,-0.00533301,0.0156469,-0.0101374,-1.35756,0.0149994,0.01806,1987,918,24.9694,-5.71861
770,106,24.7732,6.02887,-0.0127308,0.0204666,-0.00748244,0.0220751,-0.0143393,-1.35904,0.0211814,0.0391241,1994,918,24.7733,-6.0289
777,106,24.6946,6.47229,-0.0176311,0.0281932,-0.0103933,0.0304403,-0.0198782,-1.35787,0.029264,0.0475033,2001,918,24.6945,-6.47227
784,106,24.3472,6.84827,-0.0240356,0.0380953,-0.0143454,0.0412476,-0.0271879,-1.35449,0.0397882,0.0491445,2008,918,24.3472,-6.84826
791,106,23.994,7.2301,0,0,0,0,0,0,0,-1,2015,918,23.9941,-7.23011
798,106,23.639,7.84528,0,0,0,0,0,0,0,-1,2022,918,23.639,-7.84527
805,106,0,0,0,0,0,0,0,0,0,-1,2029,918,0,0
812,106,0,0,0,0,0,0,0,0,0,-1,2036,918,0,0
-700,99,0,0,0,0,0,0,0,0,0,-1,524,925,0,0
-693,99,0,0,0,0,0,0,0,0,0,-1,531,925,0,0
-686,99,0,0,0,0,0,0,0,0,0,-1,538,925,0,0
-679,99,-19.83,2.25684,0.0419204,-0.0746428,-0.04531,0.0574611,-0.0901836,-0.330414,0.0859377,0.0443489,545,925,-19.83,-2.25684
-672,99,-19.7131,1.89856,0.0354569,-0.0609262,-0.032705,0.0455066,-0.0709759,-0.298125,0.0677849,0.0458529,552,925,-19.713,-1.89853
-665,99,-19.6455,1.48987,0.0288912,-0.0485048,-0.0231917,0.0353085,-0.0549221,-0.269952,0.0525033,0.0484233,559,925,-19.6455,-1.48986
-658,99,-19.5297,1.10413,0.0227787,-0.0376126,-0.0160117,0.0267613,-0.0415952,-0.243783,0.0397742,0.0471043,566,925,-19.5297,-1.10415
-651,99,-17.0359,3.47302,0,0,0,0,0,0,0,-1,573,925,-17.0359,-3.47303
-644,99,-17.2518,3.35394,0.0125885,-0.0205155,-0.00663741,0.0138697,-0.0217968,-0.190685,0.0207609,0.0491693,580,925,-17.2518,-3.35396
-637,99,-17.5377,3.25281,0.00858299,-0.0143218,-0.00370542,0.00916752,-0.0149063,-0.15646,0.0140301,0.0293715,587,925,-17.5376,-3.25282
-630,99,-17.6301,3.07599,0.00526028,-0.00947032,-0.00160618,0.00543338,-0.00964342,-0.107356,0.00881699,0.0134095,594,925,-17.6301,-3.07597
-623,99,-17.695,2.87714,0.00241329,-0.00551133,3.68873e-05,0.00241347,-0.00551151,0.00465463,0.00469057,0.00851596,601,925,-17.695,-2.87715
-616,99,-17.6937,2.69531,-0.000528639,-0.00252787,0.000770421,-0.0002662,-0.00279031,0.328314,0.00177813,0.00955658,608,925,-17.6936,-2.6953
-609,99,-17.6932,2.52051,-0.00227489,-0.000984228,0.00105429,-0.000393441,-0.00286568,1.06003,0.00179375,0.00958195,615,925,-17.6932,-2.52051
-602,99,-17.6904,2.34283,-0.00407095,-0.000258473,0.000785073,-0.000103138,-0.00422629,1.37546,0.00278378,0.0113751,622,925,-17.6905,-2.34281
-595,99,-17.7543,2.17322,-0.00509446,0.000318008,0.000471885,0.000358842,-0.00513529,1.48448,0.00354919,0.0153674,629,925,-17.7544,-2.17324
-588,99,-17.736,1.98724,-0.00510176,0.000148313,3.51237e-05,0.000148548,-0.00510199,1.56411,0.00345191,0.0161675,636,925,-17.7359,-1.98725
-581,99,-17.6506,1.75739,-0.00547902,0.000140057,-0.000370693,0.000164406,-0.00550337,-1.5052,0.00372492,0.0115684,643,925,-17.6506,-1.75737
-574,99,-17.8463,1.54742,-0.00556409,0.000180338,-0.000663559,0.000255992,-0.00563974,-1.45727,0.003848,0.0221496,650,925,-17.8462,-1.54742
-567,99,-18.3565,1.37311,0,0,0,0,0,0,0,-1,657,925,-18.3565,-1.37309
-560,99,-19.267,1.49463,-0.00471811,0.000288363,-0.00108792,0.00051455,-0.0049443,-1.36581,0.00348042,0.0330846,664,925,-19.267,-1.49461
-553,99,-19.3216,1.43744,-0.00409005,0.000500876,-0.00127272,0.000830095,-0.00441927,-1.31767,0.00325832,0.0373954,671,925,-19.3216,-1.43742
-546,99,-19.3292,1.28351,-0.00315728,0.000755236,-0.00141774,0.00121496,-0.003617,-1.25723,0.00290236,0.0431752,678,925,-19.3292,-1.28353
-539,99,-19.3752,1.17548,0,0,0,0,0,0,0,-1,685,925,-19.3752,-1.17548
-532,99,-19.1979,1.74951,-0.000199836,0.00104202,-0.00150722,0.00205121,-0.00120902,-0.98079,0.00190311,0.0396143,692,925,-19.1979,-1.74952
-525,99,-19.3317,1.79474,0.00155357,0.00075275,-0.00151059,0.00271592,-0.000409598,-0.655843,0.00196145,0.0400515,699,925,-19.3316,-1.79475
-518,99,-19.2887,1.66815,0.00229709,-0.000203847,-0.00130614,0.00285485,-0.000761598,-0.403584,0.00220146,0.0402807,706,925,-19.2887,-1.66814
-511,99,0,0,0,0,0,0,0,0,0,-1,713,925,0,0
-504,99,0,0,0,0,0,0,0,0,0,-1,720,925,0,0
-497,99,0,0,0,0,0,0,0,0,0,-1,727,925,0,0
-490,99,0,0,0,0,0,0,0,0,0,-1,734,925,0,0
-483,99,0,0,0,0,0,0,0,0,0,-1,741,925,0,0
-476,99,0,0,0,0,0,0,0,0,0,-1,748,925,0,0
-469,99,0,0,0,0,0,0,0,0,0,-1,755,925,0,0
-462,99,0,0,0,0,0,0,0,0,0,-1,762,925,0,0
-455,99,0,0,0,0,0,0,0,0,0,-1,769,925,0,0
-448,99,0,0,0,0,0,0,0,0,0,-1,776,925,0,0
-441,99,0,0,0,0,0,0,0,0,0,-1,783,925,0,0
-434,99,0,0,0,0,0,0,0,0,0,-1,790,925,0,0
-427,99,0,0,0,0,0,0,0,0,0,-1,797,925,0,0
-420,99,0,0,0,0,0,0,0,0,0,-1,804,925,0,0
-413,99,0,0,0,0,0,0,0,0,0,-1,811,925,0,0
-406,99,0,0,0,0,0,0,0,0,0,-1,818,925,0,0
-399,99,0,0,0,0,0,0,0,0,0,-1,825,925,0,0
-392,99,0,0,0,0,0,0,0,0,0,-1,832,925,0,0
-385,99,0,0,0,0,0,0,0,0,0,-1,839,925,0,0
-378,99,0,0,0,0,0,0,0,0,0,-1,846,925,0,0
-371,99,0,0,0,0,0,0,0,0,0,-1,853,925,0,0
-364,99,0,0,0,0,0,0,0,0,0,-1,860,925,0,0
-357,99,0,0,0,0,0,0,0,0,0,-1,867,925,0,0
-350,99,0,0,0,0,0,0,0,0,0,-1,874,925,0,0
-343,99,0,0,0,0,0,0,0,0,0,-1,881,925,0,0
-336,99,0,0,0,0,0,0,0,0,0,-1,888,925,0,0
-329,99,0,0,0,0,0,0,0,0,0,-1,895,925,0,0
-322,99,0,0,0,0,0,0,0,0,0,-1,902,925,0,0
-315,99,0,0,0,0,0,0,0,0,0,-1,909,925,0,0
-308,99,0,0,0,0,0,0,0,0,0,-1,916,925,0,0
-301,99,0,0,0,0,0,0,0,0,0,-1,923,925,0,0
-294,99,0,0,0,0,0,0,0,0,0,-1,930,925,0,0
-287,99,0,0,0,0,0,0,0,0,0,-1,937,925,0,0
-280,99,0,0,0,0,0,0,0,0,0,-1,944,925,0,0
-273,99,0,0,0,0,0,0,0,0,0,-1,951,925,0,0
-266,99,0,0,0,0,0,0,0,0,0,-1,958,925,0,0
-259,99,0,0,0,0,0,0,0,0,0,-1,965,925,0,0
-252,99,0,0,0,0,0,0,0,0,0,-1,972,925,0,0
-245,99,0,0,0,0,0,0,0,0,0,-1,979,925,0,0
-238,99,0,0,0,0,0,0,0,0,0,-1,986,925,0,0
-231,99,0,0,0,0,0,0,0,0,0,-1,993,925,0,0
-224,99,0,0,0,0,0,0,0,0,0,-1,1000,925,0,0
-217,99,0,0,0,0,0,0,0,0,0,-1,1007,925,0,0
-210,99,0,0,0,0,0,0,0,0,0,-1,1014,925,0,0
-203,99,0,0,0,0,0,0,0,0,0,-1,1021,925,0,0
-196,99,0,0,0,0,0,0,0,0,0,-1,1028,925,0,0
-189,99,0,0,0,0,0,0,0,0,0,-1,1035,925,0,0
-182,99,0,0,0,0,0,0,0,0,0,-1,1042,925,0,0
-175,99,0,0,0,0,0,0,0,0,0,-1,1049,925,0,0
-168,99,0,0,0,0,0,0,0,0,0,-1,1056,925,0,0
-161,99,0,0,0,0,0,0,0,0,0,-1,1063,925,0,0
-154,99,0,0,0,0,0,0,0,0,0,-1,1070,925,0,0
-147,99,0,0,0,0,0,0,0,0,0,-1,1077,925,0,0
-140,99,0,0,0,0,0,0,0,0,0,-1,1084,925,0,0
-133,99,0,0,0,0,0,0,0,0,0,-1,1091,925,0,0
-126,99,0,0,0,0,0,0,0,0,0,-1,1098,925,0,0
-119,99,0,0,0,0,0,0,0,0,0,-1,1105,925,0,0
-112,99,0,0,0,0,0,0,0,0,0,-1,1112,925,0,0
-105,99,0,0,0,0,0,0,0,0,0,-1,1119,925,0,0
-98,99,0,0,0,0,0,0,0,0,0,-1,1126,925,0,0
-91,99,0,0,0,0,0,0,0,0,0,-1,1133,925,0,0
-84,99,0,0,0,0,0,0,0,0,0,-1,1140,925,0,0
-77,99,0,0,0,0,0,0,0,0,0,-1,1147,925,0,0
-70,99,0,0,0,0,0,0,0,0,0,-1,1154,925,0,0
-63,99,0,0,0,0,0,0,0,0,0,-1,1161,925,0,0
-56,99,0,0,0,0,0,0,0,0,0,-1,1168,925,0,0
-49,99,0,0,0,0,0,0,0,0,0,-1,1175,925,0,0
-42,99,0,0,0,0,0,0,0,0,0,-1,1182,925,0,0
-35,99,0,0,0,0,0,0,0,0,0,-1,1189,925,0,0
-28,99,0,0,0,0,0,0,0,0,0,-1,1196,925,0,0
-21,99,0,0,0,0,0,0,0,0,0,-1,1203,925,0,0
-14,99,0,0,0,0,0,0,0,0,0,-1,1210,925,0,0
-7,99,0,0,0,0,0,0,0,0,0,-1,1217,925,0,0
0,99,0,0,0,0,0,0,0,0,0,-1,1224,925,0,0
7,99,0,0,0,0,0,0,0,0,0,-1,1231,925,0,0
14,99,0,0,0,0,0,0,0,0,0,-1,1238,925,0,0
21,99,0,0,0,0,0,0,0,0,0,-1,1245,925,0,0
28,99,0,0,0,0,0,0,0,0,0,-1,1252,925,0,0
35,99,0,0,0,0,0,0,0,0,0,-1,1259,925,0,0
42,99,0,0,0,0,0,0,0,0,0,-1,1266,925,0,0
49,99,0,0,0,0,0,0,0,0,0,-1,1273,925,0,0
56,99,0,0,0,0,0,0,0,0,0,-1,1280,925,0,0
63,99,0,0,0,0,0,0,0,0,0,-1,1287,925,0,0
70,99,0,0,0,0,0,0,0,0,0,-1,1294,925,0,0
77,99,0,0,0,0,0,0,0,0,0,-1,1301,925,0,0
84,99,0,0,0,0,0,0,0,0,0,-1,1308,925,0,0
91,99,0,0,0,0,0,0,0,0,0,-1,1315,925,0,0
98,99,0,0,0,0,0,0,0,0,0,-1,1322,925,0,0
105,99,0,0,0,0,0,0,0,0,0,-1,1329,925,0,0
112,99,0,0,0,0,0,0,0,0,0,-1,1336,925,0,0
119,99,0,0,0,0,0,0,0,0,0,-1,1343,925,0,0
126,99,0,0,0,0,0,0,0,0,0,-1,1350,925,0,0
133,99,0,0,0,0,0,0,0,0,0,-1,1357,925,0,0
140,99,0,0,0,0,0,0,0,0,0,-1,1364,925,0,0
147,99,0,0,0,0,0,0,0,0,0,-1,1371,925,0,0
154,99,0,0,0,0,0,0,0,0,0,-1,1378,925,0,0
161,99,0,0,0,0,0,0,0,0,0,-1,1385,925,0,0
168,99,0,0,0,0,0,0,0,0,0,-1,1392,925,0,0
175,99,0,0,0,0,0,0,0,0,0,-1,1399,925,0,0
182,99,0,0,0,0,0,0,0,0,0,-1,1406,925,0,0
189,99,0,0,0,0,0,0,0,0,0,-1,1413,925,0,0
196,99,0,0,0,0,0,0,0,0,0,-1,1420,925,0,0
203,99,0,0,0,0,0,0,0,0,0,-1,1427,925,0,0
210,99,0,0,0,0,0,0,0,0,0,-1,1434,925,0,0
217,99,0,0,0,0,0,0,0,0,0,-1,1441,925,0,0
224,99,0,0,0,0,0,0,0,0,0,-1,1448,925,0,0
231,99,0,0,0,0,0,0,0,0,0,-1,1455,925,0,0
238,99,0,0,0,0,0,0,0,0,0,-1,1462,925,0,0
245,99,0,0,0,0,0,0,0,0,0,-1,1469,925,0,0
252,99,0,0,0,0,0,0,0,0,0,-1,1476,925,0,0
259,99,0,0,0,0,0,0,0,0,0,-1,1483,925,0,0
266,99,0,0,0,0,0,0,0,0,0,-1,1490,925,0,0
273,99,0,0,0,0,0,0,0,0,0,-1,1497,925,0,0
280,99,0,0,0,0,0,0,0,0,0,-1,1504,925,0,0
287,99,0,0,0,0,0,0,0,0,0,-1,1511,925,0,0
294,99,0,0,0,0,0,0,0,0,0,-1,1518,925,0,0
301,99,0,0,0,0,0,0,0,0,0,-1,1525,925,0,0
308,99,0,0,0,0,0,0,0,0,0,-1,1532,925,0,0
315,99,0,0,0,0,0,0,0,0,0,-1,1539,925,0,0
322,99,0,0,0,0,0,0,0,0,0,-1,1546,925,0,0
329,99,0,0,0,0,0,0,0,0,0,-1,1553,925,0,0
336,99,0,0,0,0,0,0,0,0,0,-1,1560,925,0,0
343,99,0,0,0,0,0,0,0,0,0,-1,1567,925,0,0
350,99,0,0,0,0,0,0,0,0,0,-1,1574,925,0,0
357,99,0,0,0,0,0,0,0,0,0,-1,1581,925,0,0
364,99,0,0,0,0,0,0,0,0,0,-1,1588,925,0,0
371,99,0,0,0,0,0,0,0,0,0,-1,1595,925,0,0
378,99,0,0,0,0,0,0,0,0,0,-1,1602,925,0,0
385,99,0,0,0,0,0,0,0,0,0,-1,1609,925,0,0
392,99,0,0,0,0,0,0,0,0,0,-1,1616,925,0,0
399,99,0,0,0,0,0,0,0,0,0,-1,1623,925,0,0
406,99,0,0,0,0,0,0,0,0,0,-1,1630,925,0,0
413,99,0,0,0,0,0,0,0,0,0,-1,1637,925,0,0
420,99,0,0,0,0,0,0,0,0,0,-1,1644,925,0,0
427,99,0,0,0,0,0,0,0,0,0,-1,1651,925,0,0
434,99,0,0,0,0,0,0,0,0,0,-1,1658,925,0,0
441,99,0,0,0,0,0,0,0,0,0,-1,1665,925,0,0
448,99,0,0,0,0,0,0,0,0,0,-1,1672,925,0,0
455,99,0,0,0,0,0,0,0,0,0,-1,1679,925,0,0
462,99,0,0,0,0,0,0,0,0,0,-1,1686,925,0,0
469,99,0,0,0,0,0,0,0,0,0,-1,1693,925,0,0
476,99,0,0,0,0,0,0,0,0,0,-1,1700,925,0,0
483,99,0,0,0,0,0,0,0,0,0,-1,1707,925,0,0
490,99,0,0,0,0,0,0,0,0,0,-1,1714,925,0,0
497,99,0,0,0,0,0,0,0,0,0,-1,1721,925,0,0
504,99,0,0,0,0,0,0,0,0,0,-1,1728,925,0,0
511,99,0,0,0,0,0,0,0,0,0,-1,1735,925,0,0
518,99,0,0,0,0,0,0,0,0,0,-1,1742,925,0,0
525,99,0,0,0,0,0,0,0,0,0,-1,1749,925,0,0
532,99,0,0,0,0,0,0,0,0,0,-1,1756,925,0,0
539,99,0,0,0,0,0,0,0,0,0,-1,1763,925,0,0
546,99,0,0,0,0,0,0,0,0,0,-1,1770,925,0,0
553,99,0,0,0,0,0,0,0,0,0,-1,1777,925,0,0
560,99,0,0,0,0,0,0,0,0,0,-1,1784,925,0,0
567,99,0,0,0,0,0,0,0,0,0,-1,1791,925,0,0
574,99,0,0,0,0,0,0,0,0,0,-1,1798,925,0,0
581,99,0,0,0,0,0,0,0,0,0,-1,1805,925,0,0
588,99,0,0,0,0,0,0,0,0,0,-1,1812,925,0,0
595,99,0,0,0,0,0,0,0,0,0,-1,1819,925,0,0
602,99,0,0,0,0,0,0,0,0,0,-1,1826,925,0,0
609,99,0,0,0,0,0,0,0,0,0,-1,1833,925,0,0
616,99,0,0,0,0,0,0,0,0,0,-1,1840,925,0,0
623,99,0,0,0,0,0,0,0,0,0,-1,1847,925,0,0
630,99,0,0,0,0,0,0,0,0,0,-1,1854,925,0,0
637,99,27.4338,3.54413,0.00392451,0.00224986,-0.00389206,0.0070683,-0.000893926,-0.679445,0.00503669,0.0412815,1861,925,27.4338,-3.54414
644,99,27.7021,3.5722,0.00260557,0.00272443,-0.00284111,0.00550673,-0.000176731,-0.795856,0.00373146,0.0381288,1868,925,27.7021,-3.5722
651,99,27.887,3.32269,0.0014728,0.00289691,-0.00183407,0.0041523,0.000217413,-0.970561,0.00269865,0.0397367,1875,925,27.887,-3.3227
658,99,27.7052,3.40112,0.000390815,0.00294418,-0.000896084,0.00322727,0.000107727,-1.2648,0.00211652,0.0400725,1882,925,27.7052,-3.4011
665,99,27.6418,3.42084,-0.000369664,0.00282441,-0.000127115,0.00282946,-0.000374714,-1.53108,0.00202281,0.0409405,1889,925,27.6418,-3.42082
672,99,27.5841,3.46558,-0.000728656,0.0025257,0.000448898,0.00258648,-0.000789441,1.43621,0.00203906,0.0404262,1896,925,27.5841,-3.4656
679,99,27.6143,3.29327,-0.00080059,0.002177,0.000820084,0.00238793,-0.00101151,1.31905,0.00201558,0.0362768,1903,925,27.6142,-3.29329
686,99,27.5426,3.33057,-0.000771889,0.00176075,0.000972328,0.00209099,-0.00110212,1.24339,0.00187278,0.0313232,1910,925,27.5427,-3.33059
693,99,27.5433,3.3764,-0.000907936,0.00141341,0.00108183,0.00183941,-0.00133393,1.19567,0.00183986,0.03055,1917,925,27.5434,-3.37642
700,99,27.6425,3.3269,0,0,0,0,0,0,0,-1,1924,925,27.6424,-3.32691
707,99,25.3008,3.93304,0,0,0,0,0,0,0,-1,1931,925,25.3008,-3.93302
714,99,25.3057,4.18475,-0.000884309,0.000870285,0.000739871,0.00114062,-0.00115464,1.22048,0.00132518,0.0239261,1938,925,25.3057,-4.18476
721,99,25.2434,4.39148,-0.00074095,0.000737411,0.000398477,0.000837976,-0.000841514,1.32359,0.000969655,0.020967,1945,925,25.2434,-4.3915
728,99,25.3179,4.63977,-0.000939129,0.0011408,0.000230624,0.00116606,-0.000964394,1.46168,0.00123186,0.0171567,1952,925,25.3178,-4.63975
735,99,25.2952,4.86633,-0.00142765,0.00183378,-0.000244121,0.00185195,-0.00144582,-1.4965,0.00190878,0.0145385,1959,925,25.2952,-4.86636
742,99,25.2515,5.0675,-0.00227766,0.00346308,-0.00120407,0.0037054,-0.00251998,-1.3722,0.00361588,0.0122868,1966,925,25.2515,-5.06752
749,99,25.2377,5.26794,-0.00391033,0.00636693,-0.00266406,0.00701645,-0.00455985,-1.33165,0.00673356,0.0107211,1973,925,25.2377,-5.26795
756,99,25.2351,5.44342,-0.00592946,0.0102053,-0.00423586,0.0112498,-0.00697388,-1.32905,0.0106175,0.0109506,1980,925,25.2351,-5.44344
763,99,25.2325,5.62878,-0.00861256,0.0152607,-0.00624989,0.0167979,-0.0101498,-1.32963,0.0157153,0.0132939,1987,925,25.2325,-5.62878
770,99,25.103,5.93732,-0.0119617,0.0216382,-0.00887503,0.0238384,-0.0141618,-1.32779,0.0221753,0.0267185,1994,925,25.103,-5.93732
777,99,24.9237,6.302,-0.0162033,0.0298218,-0.0123867,0.0329437,-0.0193252,-1.3239,0.030517,0.0435826,2001,925,24.9237,-6.30198
784,99,24.6136,6.91528,-0.021697,0.0403572,-0.0170872,0.0447512,-0.026091,-1.3191,0.041371,0.0432184,2008,925,24.6136,-6.91529
791,99,24.2291,7.24133,-0.0288317,0.0537405,-0.0234006,0.059911,-0.0350023,-1.31297,0.0554237,0.0434353,2015,925,24.2291,-7.24131
798,99,24.0645,7.1283,-0.0379844,0.0706374,-0.0316883,0.0792059,-0.0465529,-1.30671,0.0734182,0.0462027,2022,925,24.0644,-7.12829
805,99,0,0,0,0,0,0,0,0,0,-1,2029,925,0,0
812,99,0,0,0,0,0,0,0,0,0,-1,2036,925,0,0
-700,92,0,0,0,0,0,0,0,0,0,-1,524,932,0,0
-693,92,0,0,0,0,0,0,0,0,0,-1,531,932,0,0
-686,92,-17.8442,2.94055,0,0,0,0,0,0,0,-1,538,932,-17.8442,-2.94056
-679,92,-18.1364,2.89325,0,0,0,0,0,0,0,-1,545,932,-18.1364,-2.89322
-672,92,-18.7777,2.74207,0.0235377,-0.0523917,-0.0396197,0.0404459,-0.0692999,-0.403363,0.0640876,0.0466639,552,932,-18.7777,-2.74205
-665,92,-19.3549,2.54871,0.0184384,-0.0419562,-0.0291929,0.0302423,-0.0537601,-0.384244,0.0491283,0.045945,559,932,-19.3549,-2.54869
-658,92,-16.3892,3.23694,0,0,0,0,0,0,0,-1,566,932,-16.3892,-3.23695
-651,92,-16.7371,3.11139,0.00993161,-0.0243855,-0.0145617,0.0152777,-0.0297316,-0.351857,0.026429,0.0494882,573,932,-16.7371,-3.11137
-644,92,-17.3646,3.15814,0.00665064,-0.0175221,-0.00966162,0.0100377,-0.0209091,-0.337182,0.018231,0.046057,580,932,-17.3646,-3.15816
-637,92,-17.7363,3.21735,0.00390602,-0.0120995,-0.00585959,0.00582188,-0.0140153,-0.316005,0.0117742,0.0239477,587,932,-17.7363,-3.21734
-630,92,-17.8273,3.02777,0.00180834,-0.00801784,-0.00317729,0.0027462,-0.0089557,-0.287026,0.00706605,0.0117779,594,932,-17.8273,-3.02775
-623,92,-17.882,2.86005,3.55996e-05,-0.00440356,-0.00108452,0.00028639,-0.00465435,-0.22725,0.00320263,0.00873178,601,932,-17.882,-2.86004
-616,92,-17.8867,2.68939,-0.00237845,-0.00173419,-9.68801e-05,-0.00171994,-0.00239271,-1.42473,0.00142485,0.0082446,608,932,-17.8867,-2.68941
-609,92,-17.9089,2.51337,-0.00356202,-0.000453095,0.000442037,-0.000391467,-0.00362364,1.43227,0.00229642,0.0083516,615,932,-17.9089,-2.51334
-602,92,-17.8972,2.34326,-0.00491938,9.35778e-05,0.000303342,0.000111867,-0.00493767,1.51058,0.0033297,0.00883645,622,932,-17.8972,-2.34324
-595,92,-17.8393,2.14459,-0.00564662,0.000681596,9.04757e-05,0.000682889,-0.00564791,1.5565,0.00401232,0.0151799,629,932,-17.8393,-2.14462
-588,92,-17.8286,1.97479,-0.00551021,0.000565517,-0.000284245,0.000578786,-0.00552348,-1.52415,0.00388963,0.017295,636,932,-17.8285,-1.97479
-581,92,-17.8429,1.79144,-0.00582541,0.000618757,-0.000697371,0.000693361,-0.00590002,-1.46422,0.00418366,0.0159641,643,932,-17.8429,-1.79146
-574,92,-18.2036,1.6554,-0.00590302,0.000738462,-0.00101768,0.000890904,-0.00605546,-1.42211,0.00436436,0.0282548,650,932,-18.2036,-1.65538
-567,92,-18.7951,1.50793,0,0,0,0,0,0,0,-1,657,932,-18.7951,-1.50791
-560,92,-19.1818,1.54614,-0.00506199,0.00103196,-0.00150142,0.0013818,-0.00541182,-1.34188,0.00414596,0.0352628,664,932,-19.1818,-1.54613
-553,92,-19.3085,1.52319,-0.00432022,0.00136685,-0.00170603,0.00183937,-0.00479274,-1.3006,0.00395358,0.0395157,671,932,-19.3085,-1.52319
-546,92,-19.3569,1.37982,-0.00324735,0.00173508,-0.00187471,0.00236167,-0.00387394,-1.24824,0.00363525,0.041771,678,932,-19.3569,-1.37982
-539,92,-19.2542,1.48553,-0.00181135,0.00206871,-0.00198304,0.00290288,-0.00264552,-1.17262,0.00320452,0.0389312,685,932,-19.2542,-1.48552
-532,92,-19.1942,1.53925,-6.61315e-05,0.00223984,-0.00201734,0.00341044,-0.00123673,-1.04501,0.00277916,0.0413631,692,932,-19.1942,-1.53924
-525,92,-19.2609,1.57666,0.00147121,0.00208627,-0.0020775,0.00387888,-0.000321395,-0.858879,0.00269943,0.0388575,699,932,-19.2609,-1.57668
-518,92,-19.2181,1.59943,0.00141632,0.0013197,-0.00188367,0.00325231,-0.000516281,-0.772578,0.0023592,0.0399863,706,932,-19.2181,-1.59941
-511,92,0,0,0,0,0,0,0,0,0,-1,713,932,0,0
-504,92,0,0,0,0,0,0,0,0,0,-1,720,932,0,0
-497,92,0,0,0,0,0,0,0,0,0,-1,727,932,0,0
-490,92,0,0,0,0,0,0,0,0,0,-1,734,932,0,0
-483,92,0,0,0,0,0,0,0,0,0,-1,741,932,0,0
-476,92,0,0,0,0,0,0,0,0,0,-1,748,932,0,0
-469,92,0,0,0,0,0,0,0,0,0,-1,755,932,0,0
-462,92,0,0,0,0,0,0,0,0,0,-1,762,932,0,0
-455,92,0,0,0,0,0,0,0,0,0,-1,769,932,0,0
-448,92,0,0,0,0,0,0,0,0,0,-1,776,932,0,0
-441,92,0,0,0,0,0,0,0,0,0,-1,783,932,0,0
-434,92,0,0,0,0,0,0,0,0,0,-1,790,932,0,0
-427,92,0,0,0,0,0,0,0,0,0,-1,797,932,0,0
-420,92,0,0,0,0,0,0,0,0,0,-1,804,932,0,0
-413,92,0,0,0,0,0,0,0,0,0,-1,811,932,0,0
-406,92,0,0,0,0,0,0,0,0,0,-1,818,932,0,0
-399,92,0,0,0,0,0,0,0,0,0,-1,825,932,0,0
-392,92,0,0,0,0,0,0,0,0,0,-1,832,932,0,0
-385,92,0,0,0,0,0,0,0,0,0,-1,839,932,0,0
-378,92,0,0,0,0,0,0,0,0,0,-1,846,932,0,0
-371,92,0,0,0,0,0,0,0,0,0,-1,853,932,0,0
-364,92,0,0,0,0,0,0,0,0,0,-1,860,932,0,0
-357,92,0,0,0,0,0,0,0,0,0,-1,867,932,0,0
-350,92,0,0,0,0,0,0,0,0,0,-1,874,932,0,0
-343,92,0,0,0,0,0,0,0,0,0,-1,881,932,0,0
-336,92,0,0,0,0,0,0,0,0,0,-1,888,932,0,0
-329,92,0,0,0,0,0,0,0,0,0,-1,895,932,0,0
-322,92,0,0,0,0,0,0,0,0,0,-1,902,932,0,0
-315,92,0,0,0,0,0,0,0,0,0,-1,909,932,0,0
-308,92,0,0,0,0,0,0,0,0,0,-1,916,932,0,0
-301,92,0,0,0,0,0,0,0,0,0,-1,923,932,0,0
-294,92,0,0,0,0,0,0,0,0,0,-1,930,932,0,0
-287,92,0,0,0,0,0,0,0,0,0,-1,937,932,0,0
-280,92,0,0,0,0,0,0,0,0,0,-1,944,932,0,0
-273,92,0,0,0,0,0,0,0,0,0,-1,951,932,0,0
-266,92,0,0,0,0,0,0,0,0,0,-1,958,932,0,0
-259,92,0,0,0,0,0,0,0,0,0,-1,965,932,0,0
-252,92,0,0,0,0,0,0,0,0,0,-1,972,932,0,0
-245,92,0,0,0,0,0,0,0,0,0,-1,979,932,0,0
-238,92,0,0,0,0,0,0,0,0,0,-1,986,932,0,0
-231,92,0,0,0,0,0,0,0,0,0,-1,993,932,0,0
-224,92,0,0,0,0,0,0,0,0,0,-1,1000,932,0,0
-217,92,0,0,0,0,0,0,0,0,0,-1,1007,932,0,0
-210,92,0,0,0,0,0,0,0,0,0,-1,1014,932,0,0
-203,92,0,0,0,0,0,0,0,0,0,-1,1021,932,0,0
-196,92,0,0,0,0,0,0,0,0,0,-1,1028,932,0,0
-189,92,0,0,0,0,0,0,0,0,0,-1,1035,932,0,0
-182,92,0,0,0,0,0,0,0,0,0,-1,1042,932,0,0
-175,92,0,0,0,0,0,0,0,0,0,-1,1049,932,0,0
-168,92,0,0,0,0,0,0,0,0,0,-1,1056,932,0,0
-161,92,0,0,0,0,0,0,0,0,0,-1,1063,932,0,0
-154,92,0,0,0,0,0,0,0,0,0,-1,1070,932,0,0
-147,92,0,0,0,0,0,0,0,0,0,-1,1077,932,0,0
-140,92,0,0,0,0,0,0,0,0,0,-1,1084,932,0,0
-133,92,0,0,0,0,0,0,0,0,0,-1,1091,932,0,0
-126,92,0,0,0,0,0,0,0,0,0,-1,1098,932,0,0
-119,92,0,0,0,0,0,0,0,0,0,-1,1105,932,0,0
-112,92,0,0,0,0,0,0,0,0,0,-1,1112,932,0,0
-105,92,0,0,0,0,0,0,0,0,0,-1,1119,932,0,0
-98,92,0,0,0,0,0,0,0,0,0,-1,1126,932,0,0
-91,92,0,0,0,0,0,0,0,0,0,-1,1133,932,0,0
-84,92,0,0,0,0,0,0,0,0,0,-1,1140,932,0,0
-77,92,0,0,0,0,0,0,0,0,0,-1,1147,932,0,0
-70,92,0,0,0,0,0,0,0,0,0,-1,1154,932,0,0
-63,92,0,0,0,0,0,0,0,0,0,-1,1161,932,0,0
-56,92,0,0,0,0,0,0,0,0,0,-1,1168,932,0,0
-49,92,0,0,0,0,0,0,0,0,0,-1,1175,932,0,0
-42,92,0,0,0,0,0,0,0,0,0,-1,1182,932,0,0
-35,92,0,0,0,0,0,0,0,0,0,-1,1189,932,0,0
-28,92,0,0,0,0,0,0,0,0,0,-1,1196,932,0,0
-21,92,0,0,0,0,0,0,0,0,0,-1,1203,932,0,0
-14,92,0,0,0,0,0,0,0,0,0,-1,1210,932,0,0
-7,92,0,0,0,0,0,0,0,0,0,-1,1217,932,0,0
0,92,0,0,0,0,0,0,0,0,0,-1,1224,932,0,0
7,92,0,0,0,0,0,0,0,0,0,-1,1231,932,0,0
14,92,0,0,0,0,0,0,0,0,0,-1,1238,932,0,0
21,92,0,0,0,0,0,0,0,0,0,-1,1245,932,0,0
28,92,0,0,0,0,0,0,0,0,0,-1,1252,932,0,0
35,92,0,0,0,0,0,0,0,0,0,-1,1259,932,0,0
42,92,0,0,0,0,0,0,0,0,0,-1,1266,932,0,0
49,92,0,0,0,0,0,0,0,0,0,-1,1273,932,0,0
56,92,0,0,0,0,0,0,0,0,0,-1,1280,932,0,0
63,92,0,0,0,0,0,0,0,0,0,-1,1287,932,0,0
70,92,0,0,0,0,0,0,0,0,0,-1,1294,932,0,0
77,92,0,0,0,0,0,0,0,0,0,-1,1301,932,0,0
84,92,0,0,0,0,0,0,0,0,0,-1,1308,932,0,0
91,92,0,0,0,0,0,0,0,0,0,-1,1315,932,0,0
98,92,0,0,0,0,0,0,0,0,0,-1,1322,932,0,0
105,92,0,0,0,0,0,0,0,0,0,-1,1329,932,0,0
112,92,0,0,0,0,0,0,0,0,0,-1,1336,932,0,0
119,92,0,0,0,0,0,0,0,0,0,-1,1343,932,0,0
126,92,0,0,0,0,0,0,0,0,0,-1,1350,932,0,0
133,92,0,0,0,0,0,0,0,0,0,-1,1357,932,0,0
140,92,0,0,0,0,0,0,0,0,0,-1,1364,932,0,0
147,92,0,0,0,0,0,0,0,0,0,-1,1371,932,0,0
154,92,0,0,0,0,0,0,0,0,0,-1,1378,932,0,0
161,92,0,0,0,0,0,0,0,0,0,-1,1385,932,0,0
168,92,0,0,0,0,0,0,0,0,0,-1,1392,932,0,0
175,92,0,0,0,0,0,0,0,0,0,-1,1399,932,0,0
182,92,0,0,0,0,0,0,0,0,0,-1,1406,932,0,0
189,92,0,0,0,0,0,0,0,0,0,-1,1413,932,0,0
196,92,0,0,0,0,0,0,0,0,0,-1,1420,932,0,0
203,92,0,0,0,0,0,0,0,0,0,-1,1427,932,0,0
210,92,0,0,0,0,0,0,0,0,0,-1,1434,932,0,0
217,92,0,0,0,0,0,0,0,0,0,-1,1441,932,0,0
224,92,0,0,0,0,0,0,0,0,0,-1,1448,932,0,0
231,92,0,0,0,0,0,0,0,0,0,-1,1455,932,0,0
238,92,0,0,0,0,0,0,0,0,0,-1,1462,932,0,0
245,92,0,0,0,0,0,0,0,0,0,-1,1469,932,0,0
252,92,0,0,0,0,0,0,0,0,0,-1,1476,932,0,0
259,92,0,0,0,0,0,0,0,0,0,-1,1483,932,0,0
266,92,0,0,0,0,0,0,0,0,0,-1,1490,932,0,0
273,92,0,0,0,0,0,0,0,0,0,-1,1497,932,0,0
280,92,0,0,0,0,0,0,0,0,0,-1,1504,932,0,0
287,92,0,0,0,0,0,0,0,0,0,-1,1511,932,0,0
294,92,0,0,0,0,0,0,0,0,0,-1,1518,932,0,0
301,92,0,0,0,0,0,0,0,0,0,-1,1525,932,0,0
308,92,0,0,0,0,0,0,0,0,0,-1,1532,932,0,0
315,92,0,0,0,0,0,0,0,0,0,-1,1539,932,0,0
322,92,0,0,0,0,0,0,0,0,0,-1,1546,932,0,0
329,92,0,0,0,0,0,0,0,0,0,-1,1553,932,0,0
336,92,0,0,0,0,0,0,0,0,0,-1,1560,932,0,0
343,92,0,0,0,0,0,0,0,0,0,-1,1567,932,0,0
350,92,0,0,0,0,0,0,0,0,0,-1,1574,932,0,0
357,92,0,0,0,0,0,0,0,0,0,-1,1581,932,0,0
364,92,0,0,0,0,0,0,0,0,0,-1,1588,932,0,0
371,92,0,0,0,0,0,0,0,0,0,-1,1595,932,0,0
378,92,0,0,0,0,0,0,0,0,0,-1,1602,932,0,0
385,92,0,0,0,0,0,0,0,0,0,-1,1609,932,0,0
392,92,0,0,0,0,0,0,0,0,0,-1,1616,932,0,0
399,92,0,0,0,0,0,0,0,0,0,-1,1623,932,0,0
406,92,0,0,0,0,0,0,0,0,0,-1,1630,932,0,0
413,92,0,0,0,0,0,0,0,0,0,-1,1637,932,0,0
420,92,0,0,0,0,0,0,0,0,0,-1,1644,932,0,0
427,92,0,0,0,0,0,0,0,0,0,-1,1651,932,0,0
434,92,0,0,0,0,0,0,0,0,0,-1,1658,932,0,0
441,92,0,0,0,0,0,0,0,0,0,-1,1665,932,0,0
448,92,0,0,0,0,0,0,0,0,0,-1,1672,932,0,0
455,92,0,0,0,0,0,0,0,0,0,-1,1679,932,0,0
462,92,0,0,0,0,0,0,0,0,0,-1,1686,932,0,0
469,92,0,0,0,0,0,0,0,0,0,-1,1693,932,0,0
476,92,0,0,0,0,0,0,0,0,0,-1,1700,932,0,0
483,92,0,0,0,0,0,0,0,0,0,-1,1707,932,0,0
490,92,0,0,0,0,0,0,0,0,0,-1,1714,932,0,0
497,92,0,0,0,0,0,0,0,0,0,-1,1721,932,0,0
504,92,0,0,0,0,0,0,0,0,0,-1,1728,932,0,0
511,92,0,0,0,0,0,0,0,0,0,-1,1735,932,0,0
518,92,0,0,0,0,0,0,0,0,0,-1,1742,932,0,0
525,92,0,0,0,0,0,0,0,0,0,-1,1749,932,0,0
532,92,0,0,0,0,0,0,0,0,0,-1,1756,932,0,0
539,92,0,0,0,0,0,0,0,0,0,-1,1763,932,0,0
546,92,0,0,0,0,0,0,0,0,0,-1,1770,932,0,0
553,92,0,0,0,0,0,0,0,0,0,-1,1777,932,0,0
560,92,0,0,0,0,0,0,0,0,0,-1,1784,932,0,0
567,92,0,0,0,0,0,0,0,0,0,-1,1791,932,0,0
574,92,0,0,0,0,0,0,0,0,0,-1,1798,932,0,0
581,92,0,0,0,0,0,0,0,0,0,-1,1805,932,0,0
588,92,0,0,0,0,0,0,0,0,0,-1,1812,932,0,0
595,92,0,0,0,0,0,0,0,0,0,-1,1819,932,0,0
602,92,0,0,0,0,0,0,0,0,0,-1,1826,932,0,0
609,92,0,0,0,0,0,0,0,0,0,-1,1833,932,0,0
616,92,0,0,0,0,0,0,0,0,0,-1,1840,932,0,0
623,92,0,0,0,0,0,0,0,0,0,-1,1847,932,0,0
630,92,0,0,0,0,0,0,0,0,0,-1,1854,932,0,0
637,92,27.5239,3.35376,0,0,0,0,0,0,0,-1,1861,932,27.5239,-3.35375
644,92,27.7869,2.95148,0.00332919,0.00267183,-0.00325987,0.00627691,-0.000275889,-0.735155,0.00427953,0.04195,1868,932,27.7869,-2.95149
651,92,27.8392,2.98785,0.00187216,0.0028893,-0.00208962,0.00453135,0.000230118,-0.904767,0.00294719,0.0421398,1875,932,27.8392,-2.98788
658,92,27.8196,3.07648,0.000543347,0.00301314,-0.000988393,0.00335998,0.000196507,-1.23331,0.00217744,0.0442944,1882,932,27.8195,-3.07646
665,92,27.6028,3.45734,-0.000425384,0.00296635,-5.0314e-05,0.00296709,-0.00042613,-1.55597,0.00213433,0.0423131,1889,932,27.6028,-3.45736
672,92,27.6528,3.48877,-0.0009284,0.00270875,0.00065807,0.00282416,-0.0010438,1.3972,0.00231068,0.0411367,1896,932,27.6529,-3.48877
679,92,27.6567,3.37061,-0.00108731,0.00235526,0.00110342,0.00267857,-0.00141061,1.28577,0.00239842,0.0379894,1903,932,27.6567,-3.37058
686,92,27.5299,3.38873,-0.00107478,0.00192727,0.00128089,0.00239951,-0.00154702,1.21758,0.00229618,0.0309609,1910,932,27.53,-3.38872
693,92,27.558,3.4917,-0.00117273,0.00154592,0.00138915,0.00213018,-0.00175698,1.17267,0.0022477,0.0276545,1917,932,27.558,-3.49169
700,92,27.5646,3.55566,0,0,0,0,0,0,0,-1,1924,932,27.5646,-3.55567
707,92,25.3461,3.77551,0,0,0,0,0,0,0,-1,1931,932,25.3461,-3.77552
714,92,25.569,4.17249,0,0,0,0,0,0,0,-1,1938,932,25.569,-4.1725
721,92,25.5427,4.45917,-0.00103719,0.000888983,0.000646103,0.00108563,-0.00123383,1.27534,0.00134006,0.0244897,1945,932,25.5428,-4.45919
728,92,25.5045,4.70203,-0.00120682,0.00120212,0.000439111,0.00127966,-0.00128437,1.396,0.00148035,0.0185592,1952,932,25.5045,-4.70205
735,92,25.4813,4.88025,-0.00160478,0.00184795,-3.9102e-05,0.00184839,-0.00160523,-1.55947,0.0019956,0.015678,1959,932,25.4813,-4.88027
742,92,25.4813,5.0517,-0.00234281,0.00340721,-0.000965395,0.00356496,-0.00250057,-1.40882,0.00351987,0.0168278,1966,932,25.4814,-5.05171
749,92,25.4658,5.25464,-0.00385275,0.00626686,-0.00246966,0.00683741,-0.00442329,-1.34376,0.00655098,0.0148076,1973,932,25.4658,-5.25466
756,92,25.4413,5.45667,-0.00576012,0.0101632,-0.00410838,0.0111607,-0.00675764,-1.33261,0.0104487,0.0134976,1980,932,25.4412,-5.45667
763,92,25.459,5.64166,-0.00830107,0.0153753,-0.0062049,0.0169029,-0.00982864,-1.32941,0.0156126,0.0156793,1987,932,25.459,-5.64166
770,92,25.415,5.88708,-0.0114723,0.0219897,-0.00891192,0.0242152,-0.0136978,-1.32608,0.0221681,0.0245489,1994,932,25.415,-5.88705
777,92,25.5022,6.16492,-0.0154107,0.0304237,-0.0125322,0.0336265,-0.0186135,-1.32059,0.0305732,0.0423355,2001,932,25.5022,-6.16491
784,92,25.6614,6.48907,-0.0205283,0.0413453,-0.0174159,0.0459107,-0.0250936,-1.31443,0.0415774,0.0480024,2008,932,25.6614,-6.48909
791,92,24.9871,6.65253,-0.0271494,0.0552831,-0.0239843,0.0617536,-0.0336198,-1.30729,0.0558567,0.0448001,2015,932,24.9871,-6.65251
798,92,24.5754,6.88623,-0.0356436,0.0729753,-0.032632,0.0820248,-0.0446931,-1.30027,0.0742114,0.0474573,2022,932,24.5755,-6.88625
805,92,0,0,0,0,0,0,0,0,0,-1,2029,932,0,0
812,92,0,0,0,0,0,0,0,0,0,-1,2036,932,0,0
-700,85,0,0,0,0,0,0,0,0,0,-1,524,939,0,0
-693,85,0,0,0,0,0,0,0,0,0,-1,531,939,0,0
-686,85,-17.1127,3.43671,0,0,0,0,0,0,0,-1,538,939,-17.1127,-3.43672
-679,85,-17.6705,3.35736,0,0,0,0,0,0,0,-1,545,939,-17.6705,-3.35738
-672,85,-18.1121,3.19397,0.0186935,-0.0407535,-0.0411221,0.0397096,-0.0617697,-0.472462,0.0590488,0.0444116,552,939,-18.1121,-3.194
-665,85,-15.4445,4.9903,0.0132959,-0.0329306,-0.0310541,0.0288942,-0.0485289,-0.46548,0.0451768,0.0439462,559,939,-15.4445,-4.99028
-658,85,-16.2463,4.58868,0.00887046,-0.0256643,-0.0228526,0.0202458,-0.0370396,-0.461861,0.0335442,0.0444345,566,939,-16.2463,-4.58868
-651,85,-17.0942,4.06976,0.00536381,-0.0191897,-0.0162804,0.0134775,-0.0273034,-0.462343,0.0239916,0.0420994,573,939,-17.0942,-4.06974
-644,85,-17.7169,3.37006,0.00272204,-0.0136845,-0.0111257,0.00834176,-0.0193043,-0.467728,0.0163744,0.033324,580,939,-17.7169,-3.37005
-637,85,-17.9508,3.14453,0.000651859,-0.00933237,-0.00699318,0.00425194,-0.0129324,-0.475416,0.0103347,0.0155841,587,939,-17.9508,-3.14455
-630,85,-18.0349,2.98297,-0.000853489,-0.00632154,-0.00423218,0.00145096,-0.00862599,-0.498616,0.00629034,0.0101744,594,939,-18.0349,-2.98295
-623,85,-18.072,2.82477,-0.00203304,-0.0031629,-0.00188492,-0.000630209,-0.00456573,-0.639802,0.00285701,0.00922894,601,939,-18.072,-2.82478
-616,85,-18.0715,2.66064,-0.00397472,-0.000911953,-0.000815966,-0.000708131,-0.00417854,-1.32601,0.00258222,0.00916062,608,939,-18.0715,-2.66064
-609,85,-18.0909,2.49353,-0.00478307,0.000144993,-0.000141665,0.000149062,-0.00478713,-1.54208,0.00324225,0.0118241,615,939,-18.0909,-2.49354
-602,85,-18.0824,2.33649,-0.00577256,0.000529761,-0.000208844,0.000536674,-0.00577947,-1.53771,0.00404376,0.0152026,622,939,-18.0824,-2.33646
-595,85,-18.0152,2.19659,-0.00621585,0.00108231,-0.000363402,0.00110036,-0.0062339,-1.52117,0.00456712,0.016413,629,939,-18.0152,-2.19661
-588,85,-18.0005,2.01068,-0.00595709,0.00101485,-0.000682669,0.00108107,-0.00602331,-1.4741,0.00442018,0.0157508,636,939,-18.0006,-2.01069
-581,85,-18.0352,1.85144,-0.00623216,0.00114427,-0.00109265,0.00130272,-0.0063906,-1.42679,0.00475451,0.0187435,643,939,-18.0352,-1.85147
-574,85,-18.4186,1.73914,-0.00632167,0.00137466,-0.00143513,0.00163356,-0.00658057,-1.39232,0.00502094,0.0338706,650,939,-18.4186,-1.73915
-567,85,-19.0032,1.64313,0,0,0,0,0,0,0,-1,657,939,-19.0031,-1.6431
-560,85,-19.0811,1.5097,-0.00545627,0.00186779,-0.0019145,0.00233804,-0.00592652,-1.32994,0.00491919,0.0353998,664,939,-19.0811,-1.50971
-553,85,-19.2853,1.57947,-0.00456571,0.00230051,-0.0020992,0.00289144,-0.00515664,-1.2964,0.00470751,0.041955,671,939,-19.2853,-1.57949
-546,85,-19.3856,1.63562,-0.00329812,0.00276227,-0.00224589,0.00350383,-0.00403967,-1.25188,0.0043589,0.0432905,678,939,-19.3855,-1.63564
-539,85,-19.3182,1.63214,-0.00165497,0.00317718,-0.00233526,0.00412129,-0.00259908,-1.1866,0.00391305,0.0405877,685,939,-19.3182,-1.63212
-532,85,-19.1088,1.55359,0.000248792,0.00341989,-0.00238978,0.00470227,-0.00103359,-1.07829,0.00353018,0.0401838,692,939,-19.1088,-1.55361
-525,85,-19.0593,1.46094,0.00161858,0.00336661,-0.00254756,0.00518591,-0.000200719,-0.950646,0.00352608,0.0380276,699,939,-19.0593,-1.46094
-518,85,-19.2373,1.5365,0.000865594,0.00274989,-0.00254631,0.00452276,-0.000907278,-0.96259,0.0033587,0.0385176,706,939,-19.2373,-1.53649
-511,85,0,0,0,0,0,0,0,0,0,-1,713,939,0,0
-504,85,0,0,0,0,0,0,0,0,0,-1,720,939,0,0
-497,85,0,0,0,0,0,0,0,0,0,-1,727,939,0,0
-490,85,0,0,0,0,0,0,0,0,0,-1,734,939,0,0
-483,85,0,0,0,0,0,0,0,0,0,-1,741,939,0,0
-476,85,0,0,0,0,0,0,0,0,0,-1,748,939,0,0
-469,85,0,0,0,0,0,0,0,0,0,-1,755,939,0,0
-462,85,0,0,0,0,0,0,0,0,0,-1,762,939,0,0
-455,85,0,0,0,0,0,0,0,0,0,-1,769,939,0,0
-448,85,0,0,0,0,0,0,0,0,0,-1,776,939,0,0
-441,85,0,0,0,0,0,0,0,0,0,-1,783,939,0,0
-434,85,0,0,0,0,0,0,0,0,0,-1,790,939,0,0
-427,85,0,0,0,0,0,0,0,0,0,-1,797,939,0,0
-420,85,0,0,0,0,0,0,0,0,0,-1,804,939,0,0
-413,85,0,0,0,0,0,0,0,0,0,-1,811,939,0,0
-406,85,0,0,0,0,0,0,0,0,0,-1,818,939,0,0
-399,85,0,0,0,0,0,0,0,0,0,-1,825,939,0,0
-392,85,0,0,0,0,0,0,0,0,0,-1,832,939,0,0
-385,85,0,0,0,0,0,0,0,0,0,-1,839,939,0,0
-378,85,0,0,0,0,0,0,0,0,0,-1,846,939,0,0
-371,85,0,0,0,0,0,0,0,0,0,-1,853,939,0,0
-364,85,0,0,0,0,0,0,0,0,0,-1,860,939,0,0
-357,85,0,0,0,0,0,0,0,0,0,-1,867,939,0,0
-350,85,0,0,0,0,0,0,0,0,0,-1,874,939,0,0
-343,85,0,0,0,0,0,0,0,0,0,-1,881,939,0,0
-336,85,0,0,0,0,0,0,0,0,0,-1,888,939,0,0
-329,85,0,0,0,0,0,0,0,0,0,-1,895,939,0,0
-322,85,0,0,0,0,0,0,0,0,0,-1,902,939,0,0
-315,85,0,0,0,0,0,0,0,0,0,-1,909,939,0,0
-308,85,0,0,0,0,0,0,0,0,0,-1,916,939,0,0
-301,85,0,0,0,0,0,0,0,0,0,-1,923,939,0,0
-294,85,0,0,0,0,0,0,0,0,0,-1,930,939,0,0
-287,85,0,0,0,0,0,0,0,0,0,-1,937,939,0,0
-280,85,0,0,0,0,0,0,0,0,0,-1,944,939,0,0
-273,85,0,0,0,0,0,0,0,0,0,-1,951,939,0,0
-266,85,0,0,0,0,0,0,0,0,0,-1,958,939,0,0
-259,85,0,0,0,0,0,0,0,0,0,-1,965,939,0,0
-252,85,0,0,0,0,0,0,0,0,0,-1,972,939,0,0
-245,85,0,0,0,0,0,0,0,0,0,-1,979,939,0,0
-238,85,0,0,0,0,0,0,0,0,0,-1,986,939,0,0
-231,85,0,0,0,0,0,0,0,0,0,-1,993,939,0,0
-224,85,0,0,0,0,0,0,0,0,0,-1,1000,939,0,0
-217,85,0,0,0,0,0,0,0,0,0,-1,1007,939,0,0
-210,85,0,0,0,0,0,0,0,0,0,-1,1014,939,0,0
-203,85,0,0,0,0,0,0,0,0,0,-1,1021,939,0,0
-196,85,0,0,0,0,0,0,0,0,0,-1,1028,939,0,0
-189,85,0,0,0,0,0,0,0,0,0,-1,1035,939,0,0
-182,85,0,0,0,0,0,0,0,0,0,-1,1042,939,0,0
-175,85,0,0,0,0,0,0,0,0,0,-1,1049,939,0,0
-168,85,0,0,0,0,0,0,0,0,0,-1,1056,939,0,0
-161,85,0,0,0,0,0,0,0,0,0,-1,1063,939,0,0
-154,85,0,0,0,0,0,0,0,0,0,-1,1070,939,0,0
-147,85,0,0,0,0,0,0,0,0,0,-1,1077,939,0,0
-140,85,0,0,0,0,0,0,0,0,0,-1,1084,939,0,0
-133,85,0,0,0,0,0,0,0,0,0,-1,1091,939,0,0
-126,85,0,0,0,0,0,0,0,0,0,-1,1098,939,0,0
-119,85,0,0,0,0,0,0,0,0,0,-1,1105,939,0,0
-112,85,0,0,0,0,0,0,0,0,0,-1,1112,939,0,0
-105,85,0,0,0,0,0,0,0,0,0,-1,1119,939,0,0
-98,85,0,0,0,0,0,0,0,0,0,-1,1126,939,0,0
-91,85,0,0,0,0,0,0,0,0,0,-1,1133,939,0,0
-84,85,0,0,0,0,0,0,0,0,0,-1,1140,939,0,0
-77,85,0,0,0,0,0,0,0,0,0,-1,1147,939,0,0
-70,85,0,0,0,0,0,0,0,0,0,-1,1154,939,0,0
-63,85,0,0,0,0,0,0,0,0,0,-1,1161,939,0,0
-56,85,0,0,0,0,0,0,0,0,0,-1,1168,939,0,0
-49,85,0,0,0,0,0,0,0,0,0,-1,1175,939,0,0
-42,85,0,0,0,0,0,0,0,0,0,-1,1182,939,0,0
-35,85,0,0,0,0,0,0,0,0,0,-1,1189,939,0,0
-28,85,0,0,0,0,0,0,0,0,0,-1,1196,939,0,0
-21,85,0,0,0,0,0,0,0,0,0,-1,1203,939,0,0
-14,85,0,0,0,0,0,0,0,0,0,-1,1210,939,0,0
-7,85,0,0,0,0,0,0,0,0,0,-1,1217,939,0,0
0,85,0,0,0,0,0,0,0,0,0,-1,1224,939,0,0
7,85,0,0,0,0,0,0,0,0,0,-1,1231,939,0,0
14,85,0,0,0,0,0,0,0,0,0,-1,1238,939,0,0
21,85,0,0,0,0,0,0,0,0,0,-1,1245,939,0,0
28,85,0,0,0,0,0,0,0,0,0,-1,1252,939,0,0
35,85,0,0,0,0,0,0,0,0,0,-1,1259,939,0,0
42,85,0,0,0,0,0,0,0,0,0,-1,1266,939,0,0
49,85,0,0,0,0,0,0,0,0,0,-1,1273,939,0,0
56,85,0,0,0,0,0,0,0,0,0,-1,1280,939,0,0
63,85,0,0,0,0,0,0,0,0,0,-1,1287,939,0,0
70,85,0,0,0,0,0,0,0,0,0,-1,1294,939,0,0
77,85,0,0,0,0,0,0,0,0,0,-1,1301,939,0,0
84,85,0,0,0,0,0,0,0,0,0,-1,1308,939,0,0
91,85,0,0,0,0,0,0,0,0,0,-1,1315,939,0,0
98,85,0,0,0,0,0,0,0,0,0,-1,1322,939,0,0
105,85,0,0,0,0,0,0,0,0,0,-1,1329,939,0,0
112,85,0,0,0,0,0,0,0,0,0,-1,1336,939,0,0
119,85,0,0,0,0,0,0,0,0,0,-1,1343,939,0,0
126,85,0,0,0,0,0,0,0,0,0,-1,1350,939,0,0
133,85,0,0,0,0,0,0,0,0,0,-1,1357,939,0,0
140,85,0,0,0,0,0,0,0,0,0,-1,1364,939,0,0
147,85,0,0,0,0,0,0,0,0,0,-1,1371,939,0,0
154,85,0,0,0,0,0,0,0,0,0,-1,1378,939,0,0
161,85,0,0,0,0,0,0,0,0,0,-1,1385,939,0,0
168,85,0,0,0,0,0,0,0,0,0,-1,1392,939,0,0
175,85,0,0,0,0,0,0,0,0,0,-1,1399,939,0,0
182,85,0,0,0,0,0,0,0,0,0,-1,1406,939,0,0
189,85,0,0,0,0,0,0,0,0,0,-1,1413,939,0,0
196,85,0,0,0,0,0,0,0,0,0,-1,1420,939,0,0
203,85,0,0,0,0,0,0,0,0,0,-1,1427,939,0,0
210,85,0,0,0,0,0,0,0,0,0,-1,1434,939,0,0
217,85,0,0,0,0,0,0,0,0,0,-1,1441,939,0,0
224,85,0,0,0,0,0,0,0,0,0,-1,1448,939,0,0
231,85,0,0,0,0,0,0,0,0,0,-1,1455,939,0,0
238,85,0,0,0,0,0,0,0,0,0,-1,1462,939,0,0
245,85,0,0,0,0,0,0,0,0,0,-1,1469,939,0,0
252,85,0,0,0,0,0,0,0,0,0,-1,1476,939,0,0
259,85,0,0,0,0,0,0,0,0,0,-1,1483,939,0,0
266,85,0,0,0,0,0,0,0,0,0,-1,1490,939,0,0
273,85,0,0,0,0,0,0,0,0,0,-1,1497,939,0,0
280,85,0,0,0,0,0,0,0,0,0,-1,1504,939,0,0
287,85,0,0,0,0,0,0,0,0,0,-1,1511,939,0,0
294,85,0,0,0,0,0,0,0,0,0,-1,1518,939,0,0
301,85,0,0,0,0,0,0,0,0,0,-1,1525,939,0,0
308,85,0,0,0,0,0,0,0,0,0,-1,1532,939,0,0
315,85,0,0,0,0,0,0,0,0,0,-1,1539,939,0,0
322,85,0,0,0,0,0,0,0,0,0,-1,1546,939,0,0
329,85,0,0,0,0,0,0,0,0,0,-1,1553,939,0,0
336,85,0,0,0,0,0,0,0,0,0,-1,1560,939,0,0
343,85,0,0,0,0,0,0,0,0,0,-1,1567,939,0,0
350,85,0,0,0,0,0,0,0,0,0,-1,1574,939,0,0
357,85,0,0,0,0,0,0,0,0,0,-1,1581,939,0,0
364,85,0,0,0,0,0,0,0,0,0,-1,1588,939,0,0
371,85,0,0,0,0,0,0,0,0,0,-1,1595,939,0,0
378,85,0,0,0,0,0,0,0,0,0,-1,1602,939,0,0
385,85,0,0,0,0,0,0,0,0,0,-1,1609,939,0,0
392,85,0,0,0,0,0,0,0,0,0,-1,1616,939,0,0
399,85,0,0,0,0,0,0,0,0,0,-1,1623,939,0,0
406,85,0,0,0,0,0,0,0,0,0,-1,1630,939,0,0
413,85,0,0,0,0,0,0,0,0,0,-1,1637,939,0,0
420,85,0,0,0,0,0,0,0,0,0,-1,1644,939,0,0
427,85,0,0,0,0,0,0,0,0,0,-1,1651,939,0,0
434,85,0,0,0,0,0,0,0,0,0,-1,1658,939,0,0
441,85,0,0,0,0,0,0,0,0,0,-1,1665,939,0,0
448,85,0,0,0,0,0,0,0,0,0,-1,1672,939,0,0
455,85,0,0,0,0,0,0,0,0,0,-1,1679,939,0,0
462,85,0,0,0,0,0,0,0,0,0,-1,1686,939,0,0
469,85,0,0,0,0,0,0,0,0,0,-1,1693,939,0,0
476,85,0,0,0,0,0,0,0,0,0,-1,1700,939,0,0
483,85,0,0,0,0,0,0,0,0,0,-1,1707,939,0,0
490,85,0,0,0,0,0,0,0,0,0,-1,1714,939,0,0
497,85,0,0,0,0,0,0,0,0,0,-1,1721,939,0,0
504,85,0,0,0,0,0,0,0,0,0,-1,1728,939,0,0
511,85,0,0,0,0,0,0,0,0,0,-1,1735,939,0,0
518,85,0,0,0,0,0,0,0,0,0,-1,1742,939,0,0
525,85,0,0,0,0,0,0,0,0,0,-1,1749,939,0,0
532,85,0,0,0,0,0,0,0,0,0,-1,1756,939,0,0
539,85,0,0,0,0,0,0,0,0,0,-1,1763,939,0,0
546,85,0,0,0,0,0,0,0,0,0,-1,1770,939,0,0
553,85,0,0,0,0,0,0,0,0,0,-1,1777,939,0,0
560,85,0,0,0,0,0,0,0,0,0,-1,1784,939,0,0
567,85,0,0,0,0,0,0,0,0,0,-1,1791,939,0,0
574,85,0,0,0,0,0,0,0,0,0,-1,1798,939,0,0
581,85,0,0,0,0,0,0,0,0,0,-1,1805,939,0,0
588,85,0,0,0,0,0,0,0,0,0,-1,1812,939,0,0
595,85,0,0,0,0,0,0,0,0,0,-1,1819,939,0,0
602,85,0,0,0,0,0,0,0,0,0,-1,1826,939,0,0
609,85,0,0,0,0,0,0,0,0,0,-1,1833,939,0,0
616,85,0,0,0,0,0,0,0,0,0,-1,1840,939,0,0
623,85,0,0,0,0,0,0,0,0,0,-1,1847,939,0,0
630,85,0,0,0,0,0,0,0,0,0,-1,1854,939,0,0
637,85,27.6445,3.67358,0.00663255,0.00251912,-0.00526558,0.0102288,-0.00107716,-0.599211,0.00720516,0.0452995,1861,939,27.6445,-3.67359
644,85,27.6831,3.18085,0.00412768,0.00280918,-0.00368937,0.00721624,-0.000279381,-0.696987,0.0049066,0.0419932,1868,939,27.6831,-3.18085
651,85,27.7041,2.97803,0.00233044,0.0028947,-0.00235427,0.00498368,0.000241459,-0.845032,0.00324497,0.0440323,1875,939,27.7041,-2.97801
658,85,27.6301,3.24323,0.000781004,0.00298613,-0.00110521,0.0034447,0.000322431,-1.1775,0.00219689,0.0428173,1882,939,27.6301,-3.24325
665,85,27.541,3.54645,-0.000367181,0.00294262,-1.17342e-05,0.00294266,-0.000367222,-1.56725,0.00209494,0.0419623,1889,939,27.541,-3.54647
672,85,27.5985,3.54248,-0.00101307,0.00269592,0.000820613,0.00286937,-0.00118652,1.3625,0.00240792,0.042095,1896,939,27.5985,-3.5425
679,85,27.7489,3.30133,-0.00127528,0.0023288,0.00134123,0.00277314,-0.00171963,1.25088,0.00261756,0.0399926,1903,939,27.749,-3.30134
686,85,27.5005,3.45343,-0.00129666,0.0018925,0.00155034,0.00252193,-0.0019261,1.18513,0.00257574,0.0337614,1910,939,27.5005,-3.45344
693,85,27.5293,3.47943,-0.0013722,0.00148543,0.00166334,0.00224938,-0.00213614,1.14025,0.00253227,0.0305699,1917,939,27.5293,-3.47944
700,85,27.5453,3.48187,-0.00148039,0.00127631,0.00170542,0.00209074,-0.00229482,1.12526,0.00253292,0.0368456,1924,939,27.5453,-3.48188
707,85,27.5756,3.55316,0,0,0,0,0,0,0,-1,1931,939,27.5755,-3.55314
714,85,25.7664,4.18317,0,0,0,0,0,0,0,-1,1938,939,25.7664,-4.18316
721,85,25.7451,4.46033,-0.00131775,0.000924983,0.000880016,0.00122906,-0.00162183,1.2381,0.00165116,0.0252547,1945,939,25.7452,-4.4603
728,85,25.6941,4.74268,-0.00145013,0.0012036,0.000649696,0.00135412,-0.00160065,1.34313,0.00170792,0.0193925,1952,939,25.694,-4.74269
735,85,25.6702,4.89282,-0.00173238,0.00184504,0.000176334,0.00185371,-0.00174105,1.52166,0.00207578,0.0181019,1959,939,25.6701,-4.89281
742,85,25.698,5.05914,-0.0022883,0.00337585,-0.000670181,0.00345406,-0.00236652,-1.45461,0.00338001,0.0148407,1966,939,25.698,-5.05914
749,85,25.6799,5.25311,-0.00351663,0.00618684,-0.00216444,0.00664774,-0.00397753,-1.36099,0.00619873,0.0126779,1973,939,25.6799,-5.25313
756,85,25.6431,5.43188,-0.00505137,0.0101203,-0.00380192,0.0110197,-0.00595078,-1.3385,0.00994255,0.0123589,1980,939,25.6431,-5.4319
763,85,25.6417,5.62189,-0.00704977,0.015447,-0.00590623,0.0169033,-0.0085061,-1.32904,0.0149348,0.0129964,1987,939,25.6417,-5.62189
770,85,25.6111,5.81006,-0.00955124,0.0222703,-0.00861292,0.0244519,-0.0117329,-1.32272,0.0213172,0.0182945,1994,939,25.611,-5.81006
777,85,25.5012,5.91852,-0.0125855,0.0309138,-0.0122356,0.0341193,-0.015791,-1.31458,0.0294562,0.0389151,2001,939,25.5012,-5.91851
784,85,25.4229,5.99854,0,0,0,0,0,0,0,-1,2008,939,25.4228,-5.99852
791,85,25.7993,6.02545,-0.0216558,0.0564782,-0.023846,0.0631809,-0.0283585,-1.29678,0.0541099,0.0489495,2015,939,25.7993,-6.02547
798,85,25.3256,6.31104,-0.0282462,0.0747822,-0.0327296,0.0843003,-0.0377643,-1.28779,0.072161,0.0490457,2022,939,25.3256,-6.31105
805,85,24.7378,6.70532,0,0,0,0,0,0,0,-1,2029,939,24.7378,-6.70531
812,85,0,0,0,0,0,0,0,0,0,-1,2036,939,0,0
-700,78,0,0,0,0,0,0,0,0,0,-1,524,946,0,0
-693,78,0,0,0,0,0,0,0,0,0,-1,531,946,0,0
-686,78,-16.3813,3.93286,0,0,0,0,0,0,0,-1,538,946,-16.3813,-3.93288
-679,78,-17.2354,3.69531,0,0,0,0,0,0,0,-1,545,946,-17.2354,-3.6953
-672,78,-17.5983,3.60864,0.0164542,-0.0322268,-0.0438991,0.0423091,-0.0580818,-0.532266,0.0581987,0.0470538,552,946,-17.5984,-3.60861
-665,78,-17.9226,3.54559,0.0106815,-0.0255962,-0.0338325,0.0309309,-0.0458455,-0.539329,0.0446048,0.0441854,559,946,-17.9226,-3.54559
-658,78,-18.308,3.45093,0.00618433,-0.0195875,-0.0253702,0.0217535,-0.0351567,-0.550418,0.0331595,0.0458748,566,946,-18.308,-3.45095
-651,78,-17.1955,4.03534,0.00284402,-0.0143363,-0.0184044,0.0145643,-0.0260566,-0.567052,0.0237633,0.0456196,573,946,-17.1955,-4.03534
-644,78,-18.0262,3.25256,0.000540409,-0.00995474,-0.0128299,0.00915444,-0.0185688,-0.591273,0.0163107,0.0277074,580,946,-18.0262,-3.25254
-637,78,-18.1512,3.09827,-0.00125512,-0.00650854,-0.00827608,0.00480109,-0.0125648,-0.631734,0.0103548,0.0125269,587,946,-18.1513,-3.09828
-630,78,-18.2297,2.94098,-0.00241608,-0.00444491,-0.00526781,0.0019341,-0.00879508,-0.690279,0.00660319,0.0124534,594,946,-18.2297,-2.94097
-623,78,-18.2527,2.77142,-0.00318231,-0.00180536,-0.00267925,0.000272454,-0.00526012,-0.91116,0.003601,0.0124377,601,946,-18.2528,-2.77142
-616,78,-18.2518,2.61853,-0.0047966,-6.54304e-05,-0.0015792,0.000413254,-0.00527528,-1.27648,0.00366239,0.0109364,608,946,-18.2518,-2.61852
-609,78,-18.2336,2.46729,-0.00540137,0.000743406,-0.00076252,0.000836615,-0.00549458,-1.44916,0.00397141,0.0115225,615,946,-18.2337,-2.46729
-602,78,-18.2303,2.31403,-0.0061523,0.000894857,-0.00076141,0.000976185,-0.00623363,-1.46439,0.00451645,0.0144947,622,946,-18.2303,-2.31403
-595,78,-18.1891,2.15222,-0.00638639,0.00134838,-0.000927551,0.00145806,-0.00649607,-1.4531,0.00488974,0.0142053,629,946,-18.1891,-2.15221
-588,78,-18.184,2.04688,-0.00608748,0.00131081,-0.00123609,0.00151187,-0.00628854,-1.40955,0.00477675,0.0122802,636,946,-18.184,-2.04688
-581,78,-18.2767,1.92908,-0.00629573,0.00148673,-0.00165328,0.00182339,-0.00663239,-1.36991,0.00513838,0.0217398,643,946,-18.2767,-1.92906
-574,78,-18.6681,1.71643,-0.00635944,0.00184921,-0.00201546,0.00231736,-0.00682759,-1.34256,0.00548971,0.0297229,650,946,-18.6681,-1.71643
-567,78,-19.1714,1.47974,-0.00607484,0.00211152,-0.00229696,0.00271197,-0.00667529,-1.31511,0.00557843,0.0319157,657,946,-19.1715,-1.47972
-560,78,-19.1908,1.52704,-0.00541149,0.00252835,-0.00249775,0.00324874,-0.00613188,-1.29,0.00550051,0.0334681,664,946,-19.1908,-1.52703
-553,78,-19.234,1.64856,-0.00436467,0.00304079,-0.00267394,0.00390535,-0.00522923,-1.25808,0.00529228,0.0428708,671,946,-19.234,-1.64856
-546,78,-19.2778,1.75934,-0.00290347,0.00356541,-0.00281311,0.00461759,-0.00395566,-1.21288,0.00495468,0.0446374,678,946,-19.2778,-1.75932
-539,78,-19.2247,1.80475,-0.00105777,0.00402847,-0.00290857,0.00534893,-0.00237823,-1.14463,0.00456985,0.0421301,685,946,-19.2247,-1.80474
-532,78,-19.0468,1.70734,0.00099356,0.00432404,-0.00303011,0.00611634,-0.000798744,-1.03665,0.00436822,0.0413194,692,946,-19.0468,-1.70732
-525,78,-18.9588,1.52631,0.00225722,0.0043923,-0.00335369,0.00684426,-0.00019474,-0.939486,0.00462912,0.0387477,699,946,-18.9588,-1.52629
-518,78,-19.0132,1.70044,0.00115108,0.00403875,-0.00369482,0.00656182,-0.00137199,-0.971662,0.00489637,0.0408875,706,946,-19.0132,-1.70043
-511,78,0,0,0,0,0,0,0,0,0,-1,713,946,0,0
-504,78,0,0,0,0,0,0,0,0,0,-1,720,946,0,0
-497,78,0,0,0,0,0,0,0,0,0,-1,727,946,0,0
-490,78,0,0,0,0,0,0,0,0,0,-1,734,946,0,0
-483,78,0,0,0,0,0,0,0,0,0,-1,741,946,0,0
-476,78,0,0,0,0,0,0,0,0,0,-1,748,946,0,0
-469,78,0,0,0,0,0,0,0,0,0,-1,755,946,0,0
-462,78,0,0,0,0,0,0,0,0,0,-1,762,946,0,0
-455,78,0,0,0,0,0,0,0,0,0,-1,769,946,0,0
-448,78,0,0,0,0,0,0,0,0,0,-1,776,946,0,0
-441,78,0,0,0,0,0,0,0,0,0,-1,783,946,0,0
-434,78,0,0,0,0,0,0,0,0,0,-1,790,946,0,0
-427,78,0,0,0,0,0,0,0,0,0,-1,797,946,0,0
-420,78,0,0,0,0,0,0,0,0,0,-1,804,946,0,0
-413,78,0,0,0,0,0,0,0,0,0,-1,811,946,0,0
-406,78,0,0,0,0,0,0,0,0,0,-1,818,946,0,0
-399,78,0,0,0,0,0,0,0,0,0,-1,825,946,0,0
-392,78,0,0,0,0,0,0,0,0,0,-1,832,946,0,0
-385,78,0,0,0,0,0,0,0,0,0,-1,839,946,0,0
-378,78,0,0,0,0,0,0,0,0,0,-1,846,946,0,0
-371,78,0,0,0,0,0,0,0,0,0,-1,853,946,0,0
-364,78,0,0,0,0,0,0,0,0,0,-1,860,946,0,0
-357,78,0,0,0,0,0,0,0,0,0,-1,867,946,0,0
-350,78,0,0,0,0,0,0,0,0,0,-1,874,946,0,0
-343,78,0,0,0,0,0,0,0,0,0,-1,881,946,0,0
-336,78,0,0,0,0,0,0,0,0,0,-1,888,946,0,0
-329,78,0,0,0,0,0,0,0,0,0,-1,895,946,0,0
-322,78,0,0,0,0,0,0,0,0,0,-1,902,946,0,0
-315,78,0,0,0,0,0,0,0,0,0,-1,909,946,0,0
-308,78,0,0,0,0,0,0,0,0,0,-1,916,946,0,0
-301,78,0,0,0,0,0,0,0,0,0,-1,923,946,0,0
-294,78,0,0,0,0,0,0,0,0,0,-1,930,946,0,0
-287,78,0,0,0,0,0,0,0,0,0,-1,937,946,0,0
-280,78,0,0,0,0,0,0,0,0,0,-1,944,946,0,0
-273,78,0,0,0,0,0,0,0,0,0,-1,951,946,0,0
-266,78,0,0,0,0,0,0,0,0,0,-1,958,946,0,0
-259,78,0,0,0,0,0,0,0,0,0,-1,965,946,0,0
-252,78,0,0,0,0,0,0,0,0,0,-1,972,946,0,0
-245,78,0,0,0,0,0,0,0,0,0,-1,979,946,0,0
-238,78,0,0,0,0,0,0,0,0,0,-1,986,946,0,0
-231,78,0,0,0,0,0,0,0,0,0,-1,993,946,0,0
-224,78,0,0,0,0,0,0,0,0,0,-1,1000,946,0,0
-217,78,0,0,0,0,0,0,0,0,0,-1,1007,946,0,0
-210,78,0,0,0,0,0,0,0,0,0,-1,1014,946,0,0
-203,78,0,0,0,0,0,0,0,0,0,-1,1021,946,0,0
-196,78,0,0,0,0,0,0,0,0,0,-1,1028,946,0,0
-189,78,0,0,0,0,0,0,0,0,0,-1,1035,946,0,0
-182,78,0,0,0,0,0,0,0,0,0,-1,1042,946,0,0
-175,78,0,0,0,0,0,0,0,0,0,-1,1049,946,0,0
-168,78,0,0,0,0,0,0,0,0,0,-1,1056,946,0,0
-161,78,0,0,0,0,0,0,0,0,0,-1,1063,946,0,0
-154,78,0,0,0,0,0,0,0,0,0,-1,1070,946,0,0
-147,78,0,0,0,0,0,0,0,0,0,-1,1077,946,0,0
-140,78,0,0,0,0,0,0,0,0,0,-1,1084,946,0,0
-133,78,0,0,0,0,0,0,0,0,0,-1,1091,946,0,0
-126,78,0,0,0,0,0,0,0,0,0,-1,1098,946,0,0
-119,78,0,0,0,0,0,0,0,0,0,-1,1105,946,0,0
-112,78,0,0,0,0,0,0,0,0,0,-1,1112,946,0,0
-105,78,0,0,0,0,0,0,0,0,0,-1,1119,946,0,0
-98,78,0,0,0,0,0,0,0,0,0,-1,1126,946,0,0
-91,78,0,0,0,0,0,0,0,0,0,-1,1133,946,0,0
-84,78,0,0,0,0,0,0,0,0,0,-1,1140,946,0,0
-77,78,0,0,0,0,0,0,0,0,0,-1,1147,946,0,0
-70,78,0,0,0,0,0,0,0,0,0,-1,1154,946,0,0
-63,78,0,0,0,0,0,0,0,0,0,-1,1161,946,0,0
-56,78,0,0,0,0,0,0,0,0,0,-1,1168,946,0,0
-49,78,0,0,0,0,0,0,0,0,0,-1,1175,946,0,0
-42,78,0,0,0,0,0,0,0,0,0,-1,1182,946,0,0
-35,78,0,0,0,0,0,0,0,0,0,-1,1189,946,0,0
-28,78,0,0,0,0,0,0,0,0,0,-1,1196,946,0,0
-21,78,0,0,0,0,0,0,0,0,0,-1,1203,946,0,0
-14,78,0,0,0,0,0,0,0,0,0,-1,1210,946,0,0
-7,78,0,0,0,0,0,0,0,0,0,-1,1217,946,0,0
0,78,0,0,0,0,0,0,0,0,0,-1,1224,946,0,0
7,78,0,0,0,0,0,0,0,0,0,-1,1231,946,0,0
14,78,0,0,0,0,0,0,0,0,0,-1,1238,946,0,0
21,78,0,0,0,0,0,0,0,0,0,-1,1245,946,0,0
28,78,0,0,0,0,0,0,0,0,0,-1,1252,946,0,0
35,78,0,0,0,0,0,0,0,0,0,-1,1259,946,0,0
42,78,0,0,0,0,0,0,0,0,0,-1,1266,946,0,0
49,78,0,0,0,0,0,0,0,0,0,-1,1273,946,0,0
56,78,0,0,0,0,0,0,0,0,0,-1,1280,946,0,0
63,78,0,0,0,0,0,0,0,0,0,-1,1287,946,0,0
70,78,0,0,0,0,0,0,0,0,0,-1,1294,946,0,0
77,78,0,0,0,0,0,0,0,0,0,-1,1301,946,0,0
84,78,0,0,0,0,0,0,0,0,0,-1,1308,946,0,0
91,78,0,0,0,0,0,0,0,0,0,-1,1315,946,0,0
98,78,0,0,0,0,0,0,0,0,0,-1,1322,946,0,0
105,78,0,0,0,0,0,0,0,0,0,-1,1329,946,0,0
112,78,0,0,0,0,0,0,0,0,0,-1,1336,946,0,0
119,78,0,0,0,0,0,0,0,0,0,-1,1343,946,0,0
126,78,0,0,0,0,0,0,0,0,0,-1,1350,946,0,0
133,78,0,0,0,0,0,0,0,0,0,-1,1357,946,0,0
140,78,0,0,0,0,0,0,0,0,0,-1,1364,946,0,0
147,78,0,0,0,0,0,0,0,0,0,-1,1371,946,0,0
154,78,0,0,0,0,0,0,0,0,0,-1,1378,946,0,0
161,78,0,0,0,0,0,0,0,0,0,-1,1385,946,0,0
168,78,0,0,0,0,0,0,0,0,0,-1,1392,946,0,0
175,78,0,0,0,0,0,0,0,0,0,-1,1399,946,0,0
182,78,0,0,0,0,0,0,0,0,0,-1,1406,946,0,0
189,78,0,0,0,0,0,0,0,0,0,-1,1413,946,0,0
196,78,0,0,0,0,0,0,0,0,0,-1,1420,946,0,0
203,78,0,0,0,0,0,0,0,0,0,-1,1427,946,0,0
210,78,0,0,0,0,0,0,0,0,0,-1,1434,946,0,0
217,78,0,0,0,0,0,0,0,0,0,-1,1441,946,0,0
224,78,0,0,0,0,0,0,0,0,0,-1,1448,946,0,0
231,78,0,0,0,0,0,0,0,0,0,-1,1455,946,0,0
238,78,0,0,0,0,0,0,0,0,0,-1,1462,946,0,0
245,78,0,0,0,0,0,0,0,0,0,-1,1469,946,0,0
252,78,0,0,0,0,0,0,0,0,0,-1,1476,946,0,0
259,78,0,0,0,0,0,0,0,0,0,-1,1483,946,0,0
266,78,0,0,0,0,0,0,0,0,0,-1,1490,946,0,0
273,78,0,0,0,0,0,0,0,0,0,-1,1497,946,0,0
280,78,0,0,0,0,0,0,0,0,0,-1,1504,946,0,0
287,78,0,0,0,0,0,0,0,0,0,-1,1511,946,0,0
294,78,0,0,0,0,0,0,0,0,0,-1,1518,946,0,0
301,78,0,0,0,0,0,0,0,0,0,-1,1525,946,0,0
308,78,0,0,0,0,0,0,0,0,0,-1,1532,946,0,0
315,78,0,0,0,0,0,0,0,0,0,-1,1539,946,0,0
322,78,0,0,0,0,0,0,0,0,0,-1,1546,946,0,0
329,78,0,0,0,0,0,0,0,0,0,-1,1553,946,0,0
336,78,0,0,0,0,0,0,0,0,0,-1,1560,946,0,0
343,78,0,0,0,0,0,0,0,0,0,-1,1567,946,0,0
350,78,0,0,0,0,0,0,0,0,0,-1,1574,946,0,0
357,78,0,0,0,0,0,0,0,0,0,-1,1581,946,0,0
364,78,0,0,0,0,0,0,0,0,0,-1,1588,946,0,0
371,78,0,0,0,0,0,0,0,0,0,-1,1595,946,0,0
378,78,0,0,0,0,0,0,0,0,0,-1,1602,946,0,0
385,78,0,0,0,0,0,0,0,0,0,-1,1609,946,0,0
392,78,0,0,0,0,0,0,0,0,0,-1,1616,946,0,0
399,78,0,0,0,0,0,0,0,0,0,-1,1623,946,0,0
406,78,0,0,0,0,0,0,0,0,0,-1,1630,946,0,0
413,78,0,0,0,0,0,0,0,0,0,-1,1637,946,0,0
420,78,0,0,0,0,0,0,0,0,0,-1,1644,946,0,0
427,78,0,0,0,0,0,0,0,0,0,-1,1651,946,0,0
434,78,0,0,0,0,0,0,0,0,0,-1,1658,946,0,0
441,78,0,0,0,0,0,0,0,0,0,-1,1665,946,0,0
448,78,0,0,0,0,0,0,0,0,0,-1,1672,946,0,0
455,78,0,0,0,0,0,0,0,0,0,-1,1679,946,0,0
462,78,0,0,0,0,0,0,0,0,0,-1,1686,946,0,0
469,78,0,0,0,0,0,0,0,0,0,-1,1693,946,0,0
476,78,0,0,0,0,0,0,0,0,0,-1,1700,946,0,0
483,78,0,0,0,0,0,0,0,0,0,-1,1707,946,0,0
490,78,0,0,0,0,0,0,0,0,0,-1,1714,946,0,0
497,78,0,0,0,0,0,0,0,0,0,-1,1721,946,0,0
504,78,0,0,0,0,0,0,0,0,0,-1,1728,946,0,0
511,78,0,0,0,0,0,0,0,0,0,-1,1735,946,0,0
518,78,0,0,0,0,0,0,0,0,0,-1,1742,946,0,0
525,78,0,0,0,0,0,0,0,0,0,-1,1749,946,0,0
532,78,0,0,0,0,0,0,0,0,0,-1,1756,946,0,0
539,78,0,0,0,0,0,0,0,0,0,-1,1763,946,0,0
546,78,0,0,0,0,0,0,0,0,0,-1,1770,946,0,0
553,78,0,0,0,0,0,0,0,0,0,-1,1777,946,0,0
560,78,0,0,0,0,0,0,0,0,0,-1,1784,946,0,0
567,78,0,0,0,0,0,0,0,0,0,-1,1791,946,0,0
574,78,0,0,0,0,0,0,0,0,0,-1,1798,946,0,0
581,78,0,0,0,0,0,0,0,0,0,-1,1805,946,0,0
588,78,0,0,0,0,0,0,0,0,0,-1,1812,946,0,0
595,78,0,0,0,0,0,0,0,0,0,-1,1819,946,0,0
602,78,0,0,0,0,0,0,0,0,0,-1,1826,946,0,0
609,78,0,0,0,0,0,0,0,0,0,-1,1833,946,0,0
616,78,0,0,0,0,0,0,0,0,0,-1,1840,946,0,0
623,78,0,0,0,0,0,0,0,0,0,-1,1847,946,0,0
630,78,0,0,0,0,0,0,0,0,0,-1,1854,946,0,0
637,78,27.526,3.47742,0.00729842,0.00350665,-0.00519058,0.0109285,-0.000123454,-0.610298,0.00732718,0.0453958,1861,946,27.5261,-3.47742
644,78,27.5948,3.22375,0.00425254,0.00328921,-0.00357348,0.00737667,0.000165086,-0.718408,0.00486369,0.042237,1868,946,27.5948,-3.22375
651,78,27.626,3.11523,0.00221637,0.00307882,-0.0022923,0.0049801,0.000315093,-0.878371,0.00322018,0.0417843,1875,946,27.626,-3.11524
658,78,27.6079,3.17804,0.000598333,0.00302594,-0.00105796,0.0034223,0.000201982,-1.21234,0.00221727,0.0387289,1882,946,27.6079,-3.17802
665,78,27.5236,3.5708,-0.000584767,0.00294331,9.54814e-05,0.00294589,-0.000587349,1.54376,0.00218617,0.0393093,1889,946,27.5236,-3.5708
672,78,27.447,3.88684,0,0,0,0,0,0,0,-1,1896,946,27.447,-3.88682
679,78,27.5665,3.29889,-0.00159311,0.00234193,0.00161156,0.00291769,-0.00216887,1.22766,0.00294731,0.0394877,1903,946,27.5666,-3.29887
686,78,27.457,3.35913,-0.00161473,0.00191633,0.00187351,0.00272512,-0.00242352,1.16327,0.00297427,0.0370363,1910,946,27.457,-3.35912
693,78,27.5076,3.36639,-0.00164288,0.0015088,0.00200992,0.00248699,-0.00262107,1.11786,0.00294948,0.0325583,1917,946,27.5075,-3.36642
700,78,27.4884,3.37964,-0.00171513,0.00130347,0.002046,0.00233663,-0.00274829,1.10318,0.00293899,0.0281927,1924,946,27.4884,-3.37961
707,78,27.3057,3.8396,0,0,0,0,0,0,0,-1,1931,946,27.3057,-3.8396
714,78,25.7832,4.31787,0,0,0,0,0,0,0,-1,1938,946,25.7831,-4.31785
721,78,25.8701,4.5152,-0.00159665,0.00102983,0.00120545,0.0014992,-0.00206602,1.19948,0.00206704,0.024642,1945,946,25.8702,-4.51518
728,78,25.906,4.76556,-0.00167855,0.00127172,0.000958066,0.00155553,-0.00196237,1.28279,0.00203559,0.0224451,1952,946,25.906,-4.76554
735,78,25.8787,4.92517,-0.00183778,0.00188859,0.000483075,0.0019502,-0.00189939,1.44395,0.00222262,0.0161153,1959,946,25.8787,-4.92517
742,78,25.8994,5.08282,-0.00219595,0.00343881,-0.000335874,0.00345876,-0.0022159,-1.51147,0.00330235,0.0143073,1966,946,25.8994,-5.08285
749,78,25.8761,5.24286,-0.00311997,0.00621269,-0.0018651,0.00657162,-0.0034789,-1.38068,0.00589354,0.0128959,1973,946,25.8761,-5.24286
756,78,25.8732,5.37274,-0.0042433,0.0101958,-0.00354233,0.011018,-0.00506552,-1.34272,0.00949545,0.01301,1980,946,25.8732,-5.37275
763,78,25.8556,5.56311,-0.0055907,0.0156503,-0.00569058,0.0170788,-0.00701917,-1.32485,0.0143113,0.0118748,1987,946,25.8556,-5.5631
770,78,25.8165,5.75623,-0.00728877,0.0227456,-0.00842727,0.0249486,-0.00949177,-1.31511,0.0205408,0.0158054,1994,946,25.8165,-5.7562
777,78,25.6937,5.77777,-0.00930621,0.0317117,-0.012067,0.0349983,-0.0125928,-1.30488,0.0284737,0.0344384,2001,946,25.6937,-5.77774
784,78,25.5594,5.77307,-0.0119524,0.0433436,-0.0170172,0.0481609,-0.0167698,-1.29493,0.0389207,0.0466297,2008,946,25.5594,-5.77308
791,78,25.3889,5.81921,0,0,0,0,0,0,0,-1,2015,946,25.389,-5.81919
798,78,26.2266,5.87665,0,0,0,0,0,0,0,-1,2022,946,26.2266,-5.87665
805,78,25.5383,6.20667,0,0,0,0,0,0,0,-1,2029,946,25.5382,-6.20669
812,78,0,0,0,0,0,0,0,0,0,-1,2036,946,0,0
-700,71,0,0,0,0,0,0,0,0,0,-1,524,953,0,0
-693,71,0,0,0,0,0,0,0,0,0,-1,531,953,0,0
-686,71,-17.4246,5.79358,0,0,0,0,0,0,0,-1,538,953,-17.4246,-5.79356
-679,71,-17.1801,4.99872,0,0,0,0,0,0,0,-1,545,953,-17.18,-4.99875
-672,71,-17.353,3.80145,0,0,0,0,0,0,0,-1,552,953,-17.353,-3.80148
-665,71,-17.6382,3.80139,0.00867361,-0.0180681,-0.0356889,0.0334141,-0.0428086,-0.606166,0.0441185,0.0453365,559,953,-17.6382,-3.80137
-658,71,-17.9506,3.78668,0.00388626,-0.0132195,-0.0270416,0.0236953,-0.0330285,-0.632233,0.0328969,0.049064,566,953,-17.9507,-3.7867
-651,71,-18.1201,3.53607,0.000522499,-0.00914827,-0.0198233,0.0160916,-0.0247174,-0.665772,0.0237359,0.0481053,573,953,-18.1201,-3.5361
-644,71,-18.2305,3.28412,-0.00159453,-0.00588458,-0.0139923,0.0104162,-0.0178953,-0.70934,0.0165346,0.0330648,580,953,-18.2305,-3.28414
-637,71,-18.331,3.07513,-0.00331843,-0.00330261,-0.00915469,0.00584417,-0.0124652,-0.78583,0.0107989,0.0136148,587,953,-18.331,-3.07511
-630,71,-18.3938,2.92725,-0.00420831,-0.00222493,-0.00605326,0.00291734,-0.00935058,-0.866591,0.00740039,0.0132224,594,953,-18.3938,-2.92722
-623,71,-18.4215,2.76764,-0.0044064,-0.000154966,-0.00335335,0.00168966,-0.00625102,-1.06789,0.00483011,0.0132343,601,953,-18.4215,-2.76767
-616,71,-18.4302,2.62024,-0.00562068,0.0010106,-0.00229467,0.00172721,-0.00633729,-1.2681,0.00490307,0.0130595,608,953,-18.4302,-2.62022
-609,71,-18.4006,2.47821,-0.00594859,0.00150253,-0.00146829,0.00178143,-0.00622749,-1.38309,0.00485565,0.0135762,615,953,-18.4006,-2.47822
-602,71,-18.3575,2.31104,-0.00637012,0.00131226,-0.00145997,0.00158036,-0.00663821,-1.38919,0.00503561,0.0149345,622,953,-18.3575,-2.31102
-595,71,-18.3631,2.18323,-0.00634143,0.00158978,-0.0016523,0.00192024,-0.00667188,-1.3734,0.00520738,0.0156758,629,953,-18.3631,-2.18321
-588,71,-18.369,2.0871,-0.00597021,0.00152461,-0.00194933,0.00200129,-0.00644689,-1.33097,0.0050977,0.0174971,636,953,-18.369,-2.08712
-581,71,-18.5277,1.8371,-0.00607105,0.00168217,-0.00234973,0.0023387,-0.00672758,-1.29834,0.00543501,0.0284143,643,953,-18.5277,-1.83707
-574,71,-18.9705,1.61774,-0.00608316,0.00208875,-0.0027168,0.00290953,-0.00690394,-1.2774,0.00582015,0.0346325,650,953,-18.9705,-1.61771
-567,71,-19.1938,1.42218,-0.00577425,0.00237765,-0.00298766,0.00335536,-0.00675195,-1.25453,0.00594428,0.0206998,657,953,-19.1939,-1.42217
-560,71,-19.2124,1.45758,-0.00504835,0.00281085,-0.00316785,0.00392873,-0.00616623,-1.23156,0.00587585,0.0286868,664,953,-19.2124,-1.45757
-553,71,-19.1901,1.55713,-0.0039029,0.00332193,-0.00330742,0.00460733,-0.0051883,-1.20012,0.00565882,0.0420022,671,953,-19.1901,-1.55712
-546,71,-19.1741,1.66608,-0.00234338,0.00383155,-0.00340898,0.00534339,-0.00385522,-1.15337,0.00533393,0.0437523,678,953,-19.1741,-1.6661
-539,71,-19.2079,1.20471,-0.000418087,0.00427207,-0.00348318,0.00612603,-0.00227205,-1.08167,0.00501593,0.0422861,685,953,-19.2079,-1.20471
-532,71,-19.2557,1.23193,0.00161704,0.00457402,-0.00365549,0.00703869,-0.000847635,-0.97757,0.00499902,0.0435122,692,953,-19.2557,-1.2319
-525,71,-19.1571,1.31866,0.00261879,0.00475856,-0.00415226,0.00797656,-0.000599202,-0.911487,0.00552827,0.0419709,699,953,-19.1571,-1.31868
-518,71,0,0,0,0,0,0,0,0,0,-1,706,953,0,0
-511,71,0,0,0,0,0,0,0,0,0,-1,713,953,0,0
-504,71,0,0,0,0,0,0,0,0,0,-1,720,953,0,0
-497,71,0,0,0,0,0,0,0,0,0,-1,727,953,0,0
-490,71,0,0,0,0,0,0,0,0,0,-1,734,953,0,0
-483,71,0,0,0,0,0,0,0,0,0,-1,741,953,0,0
-476,71,0,0,0,0,0,0,0,0,0,-1,748,953,0,0
-469,71,0,0,0,0,0,0,0,0,0,-1,755,953,0,0
-462,71,0,0,0,0,0,0,0,0,0,-1,762,953,0,0
-455,71,0,0,0,0,0,0,0,0,0,-1,769,953,0,0
-448,71,0,0,0,0,0,0,0,0,0,-1,776,953,0,0
-441,71,0,0,0,0,0,0,0,0,0,-1,783,953,0,0
-434,71,0,0,0,0,0,0,0,0,0,-1,790,953,0,0
-427,71,0,0,0,0,0,0,0,0,0,-1,797,953,0,0
-420,71,0,0,0,0,0,0,0,0,0,-1,804,953,0,0
-413,71,0,0,0,0,0,0,0,0,0,-1,811,953,0,0
-406,71,0,0,0,0,0,0,0,0,0,-1,818,953,0,0
-399,71,0,0,0,0,0,0,0,0,0,-1,825,953,0,0
-392,71,0,0,0,0,0,0,0,0,0,-1,832,953,0,0
-385,71,0,0,0,0,0,0,0,0,0,-1,839,953,0,0
-378,71,0,0,0,0,0,0,0,0,0,-1,846,953,0,0
-371,71,0,0,0,0,0,0,0,0,0,-1,853,953,0,0
-364,71,0,0,0,0,0,0,0,0,0,-1,860,953,0,0
-357,71,0,0,0,0,0,0,0,0,0,-1,867,953,0,0
-350,71,0,0,0,0,0,0,0,0,0,-1,874,953,0,0
-343,71,0,0,0,0,0,0,0,0,0,-1,881,953,0,0
-336,71,0,0,0,0,0,0,0,0,0,-1,888,953,0,0
-329,71,0,0,0,0,0,0,0,0,0,-1,895,953,0,0
-322,71,0,0,0,0,0,0,0,0,0,-1,902,953,0,0
-315,71,0,0,0,0,0,0,0,0,0,-1,909,953,0,0
-308,71,0,0,0,0,0,0,0,0,0,-1,916,953,0,0
-301,71,0,0,0,0,0,0,0,0,0,-1,923,953,0,0
-294,71,0,0,0,0,0,0,0,0,0,-1,930,953,0,0
-287,71,0,0,0,0,0,0,0,0,0,-1,937,953,0,0
-280,71,0,0,0,0,0,0,0,0,0,-1,944,953,0,0
-273,71,0,0,0,0,0,0,0,0,0,-1,951,953,0,0
-266,71,0,0,0,0,0,0,0,0,0,-1,958,953,0,0
-259,71,0,0,0,0,0,0,0,0,0,-1,965,953,0,0
-252,71,0,0,0,0,0,0,0,0,0,-1,972,953,0,0
-245,71,0,0,0,0,0,0,0,0,0,-1,979,953,0,0
-238,71,0,0,0,0,0,0,0,0,0,-1,986,953,0,0
-231,71,0,0,0,0,0,0,0,0,0,-1,993,953,0,0
-224,71,0,0,0,0,0,0,0,0,0,-1,1000,953,0,0
-217,71,0,0,0,0,0,0,0,0,0,-1,1007,953,0,0
-210,71,0,0,0,0,0,0,0,0,0,-1,1014,953,0,0
-203,71,0,0,0,0,0,0,0,0,0,-1,1021,953,0,0
-196,71,0,0,0,0,0,0,0,0,0,-1,1028,953,0,0
-189,71,0,0,0,0,0,0,0,0,0,-1,1035,953,0,0
-182,71,0,0,0,0,0,0,0,0,0,-1,1042,953,0,0
-175,71,0,0,0,0,0,0,0,0,0,-1,1049,953,0,0
-168,71,0,0,0,0,0,0,0,0,0,-1,1056,953,0,0
-161,71,0,0,0,0,0,0,0,0,0,-1,1063,953,0,0
-154,71,0,0,0,0,0,0,0,0,0,-1,1070,953,0,0
-147,71,0,0,0,0,0,0,0,0,0,-1,1077,953,0,0
-140,71,0,0,0,0,0,0,0,0,0,-1,1084,953,0,0
-133,71,0,0,0,0,0,0,0,0,0,-1,1091,953,0,0
-126,71,0,0,0,0,0,0,0,0,0,-1,1098,953,0,0
-119,71,0,0,0,0,0,0,0,0,0,-1,1105,953,0,0
-112,71,0,0,0,0,0,0,0,0,0,-1,1112,953,0,0
-105,71,0,0,0,0,0,0,0,0,0,-1,1119,953,0,0
-98,71,0,0,0,0,0,0,0,0,0,-1,1126,953,0,0
-91,71,0,0,0,0,0,0,0,0,0,-1,1133,953,0,0
-84,71,0,0,0,0,0,0,0,0,0,-1,1140,953,0,0
-77,71,0,0,0,0,0,0,0,0,0,-1,1147,953,0,0
-70,71,0,0,0,0,0,0,0,0,0,-1,1154,953,0,0
-63,71,0,0,0,0,0,0,0,0,0,-1,1161,953,0,0
-56,71,0,0,0,0,0,0,0,0,0,-1,1168,953,0,0
-49,71,0,0,0,0,0,0,0,0,0,-1,1175,953,0,0
-42,71,0,0,0,0,0,0,0,0,0,-1,1182,953,0,0
-35,71,0,0,0,0,0,0,0,0,0,-1,1189,953,0,0
-28,71,0,0,0,0,0,0,0,0,0,-1,1196,953,0,0
-21,71,0,0,0,0,0,0,0,0,0,-1,1203,953,0,0
-14,71,0,0,0,0,0,0,0,0,0,-1,1210,953,0,0
-7,71,0,0,0,0,0,0,0,0,0,-1,1217,953,0,0
0,71,0,0,0,0,0,0,0,0,0,-1,1224,953,0,0
7,71,0,0,0,0,0,0,0,0,0,-1,1231,953,0,0
14,71,0,0,0,0,0,0,0,0,0,-1,1238,953,0,0
21,71,0,0,0,0,0,0,0,0,0,-1,1245,953,0,0
28,71,0,0,0,0,0,0,0,0,0,-1,1252,953,0,0
35,71,0,0,0,0,0,0,0,0,0,-1,1259,953,0,0
42,71,0,0,0,0,0,0,0,0,0,-1,1266,953,0,0
49,71,0,0,0,0,0,0,0,0,0,-1,1273,953,0,0
56,71,0,0,0,0,0,0,0,0,0,-1,1280,953,0,0
63,71,0,0,0,0,0,0,0,0,0,-1,1287,953,0,0
70,71,0,0,0,0,0,0,0,0,0,-1,1294,953,0,0
77,71,0,0,0,0,0,0,0,0,0,-1,1301,953,0,0
84,71,0,0,0,0,0,0,0,0,0,-1,1308,953,0,0
91,71,0,0,0,0,0,0,0,0,0,-1,1315,953,0,0
98,71,0,0,0,0,0,0,0,0,0,-1,1322,953,0,0
105,71,0,0,0,0,0,0,0,0,0,-1,1329,953,0,0
112,71,0,0,0,0,0,0,0,0,0,-1,1336,953,0,0
119,71,0,0,0,0,0,0,0,0,0,-1,1343,953,0,0
126,71,0,0,0,0,0,0,0,0,0,-1,1350,953,0,0
133,71,0,0,0,0,0,0,0,0,0,-1,1357,953,0,0
140,71,0,0,0,0,0,0,0,0,0,-1,1364,953,0,0
147,71,0,0,0,0,0,0,0,0,0,-1,1371,953,0,0
154,71,0,0,0,0,0,0,0,0,0,-1,1378,953,0,0
161,71,0,0,0,0,0,0,0,0,0,-1,1385,953,0,0
168,71,0,0,0,0,0,0,0,0,0,-1,1392,953,0,0
175,71,0,0,0,0,0,0,0,0,0,-1,1399,953,0,0
182,71,0,0,0,0,0,0,0,0,0,-1,1406,953,0,0
189,71,0,0,0,0,0,0,0,0,0,-1,1413,953,0,0
196,71,0,0,0,0,0,0,0,0,0,-1,1420,953,0,0
203,71,0,0,0,0,0,0,0,0,0,-1,1427,953,0,0
210,71,0,0,0,0,0,0,0,0,0,-1,1434,953,0,0
217,71,0,0,0,0,0,0,0,0,0,-1,1441,953,0,0
224,71,0,0,0,0,0,0,0,0,0,-1,1448,953,0,0
231,71,0,0,0,0,0,0,0,0,0,-1,1455,953,0,0
238,71,0,0,0,0,0,0,0,0,0,-1,1462,953,0,0
245,71,0,0,0,0,0,0,0,0,0,-1,1469,953,0,0
252,71,0,0,0,0,0,0,0,0,0,-1,1476,953,0,0
259,71,0,0,0,0,0,0,0,0,0,-1,1483,953,0,0
266,71,0,0,0,0,0,0,0,0,0,-1,1490,953,0,0
273,71,0,0,0,0,0,0,0,0,0,-1,1497,953,0,0
280,71,0,0,0,0,0,0,0,0,0,-1,1504,953,0,0
287,71,0,0,0,0,0,0,0,0,0,-1,1511,953,0,0
294,71,0,0,0,0,0,0,0,0,0,-1,1518,953,0,0
301,71,0,0,0,0,0,0,0,0,0,-1,1525,953,0,0
308,71,0,0,0,0,0,0,0,0,0,-1,1532,953,0,0
315,71,0,0,0,0,0,0,0,0,0,-1,1539,953,0,0
322,71,0,0,0,0,0,0,0,0,0,-1,1546,953,0,0
329,71,0,0,0,0,0,0,0,0,0,-1,1553,953,0,0
336,71,0,0,0,0,0,0,0,0,0,-1,1560,953,0,0
343,71,0,0,0,0,0,0,0,0,0,-1,1567,953,0,0
350,71,0,0,0,0,0,0,0,0,0,-1,1574,953,0,0
357,71,0,0,0,0,0,0,0,0,0,-1,1581,953,0,0
364,71,0,0,0,0,0,0,0,0,0,-1,1588,953,0,0
371,71,0,0,0,0,0,0,0,0,0,-1,1595,953,0,0
378,71,0,0,0,0,0,0,0,0,0,-1,1602,953,0,0
385,71,0,0,0,0,0,0,0,0,0,-1,1609,953,0,0
392,71,0,0,0,0,0,0,0,0,0,-1,1616,953,0,0
399,71,0,0,0,0,0,0,0,0,0,-1,1623,953,0,0
406,71,0,0,0,0,0,0,0,0,0,-1,1630,953,0,0
413,71,0,0,0,0,0,0,0,0,0,-1,1637,953,0,0
420,71,0,0,0,0,0,0,0,0,0,-1,1644,953,0,0
427,71,0,0,0,0,0,0,0,0,0,-1,1651,953,0,0
434,71,0,0,0,0,0,0,0,0,0,-1,1658,953,0,0
441,71,0,0,0,0,0,0,0,0,0,-1,1665,953,0,0
448,71,0,0,0,0,0,0,0,0,0,-1,1672,953,0,0
455,71,0,0,0,0,0,0,0,0,0,-1,1679,953,0,0
462,71,0,0,0,0,0,0,0,0,0,-1,1686,953,0,0
469,71,0,0,0,0,0,0,0,0,0,-1,1693,953,0,0
476,71,0,0,0,0,0,0,0,0,0,-1,1700,953,0,0
483,71,0,0,0,0,0,0,0,0,0,-1,1707,953,0,0
490,71,0,0,0,0,0,0,0,0,0,-1,1714,953,0,0
497,71,0,0,0,0,0,0,0,0,0,-1,1721,953,0,0
504,71,0,0,0,0,0,0,0,0,0,-1,1728,953,0,0
511,71,0,0,0,0,0,0,0,0,0,-1,1735,953,0,0
518,71,0,0,0,0,0,0,0,0,0,-1,1742,953,0,0
525,71,0,0,0,0,0,0,0,0,0,-1,1749,953,0,0
532,71,0,0,0,0,0,0,0,0,0,-1,1756,953,0,0
539,71,0,0,0,0,0,0,0,0,0,-1,1763,953,0,0
546,71,0,0,0,0,0,0,0,0,0,-1,1770,953,0,0
553,71,0,0,0,0,0,0,0,0,0,-1,1777,953,0,0
560,71,0,0,0,0,0,0,0,0,0,-1,1784,953,0,0
567,71,0,0,0,0,0,0,0,0,0,-1,1791,953,0,0
574,71,0,0,0,0,0,0,0,0,0,-1,1798,953,0,0
581,71,0,0,0,0,0,0,0,0,0,-1,1805,953,0,0
588,71,0,0,0,0,0,0,0,0,0,-1,1812,953,0,0
595,71,0,0,0,0,0,0,0,0,0,-1,1819,953,0,0
602,71,0,0,0,0,0,0,0,0,0,-1,1826,953,0,0
609,71,0,0,0,0,0,0,0,0,0,-1,1833,953,0,0
616,71,0,0,0,0,0,0,0,0,0,-1,1840,953,0,0
623,71,0,0,0,0,0,0,0,0,0,-1,1847,953,0,0
630,71,0,0,0,0,0,0,0,0,0,-1,1854,953,0,0
637,71,27.5818,3.4491,0.00799923,0.00235164,-0.00484067,0.0107795,-0.000428662,-0.521355,0.00733342,0.0404366,1861,953,27.5818,-3.44912
644,71,27.6528,3.32941,0.00462919,0.00236274,-0.0032733,0.00695987,3.20505e-05,-0.618754,0.00462927,0.0426227,1868,953,27.6529,-3.32942
651,71,27.644,3.27911,0.00241608,0.00234941,-0.0021167,0.0044997,0.000265782,-0.777524,0.00291525,0.0390513,1875,953,27.6441,-3.27908
658,71,27.7009,3.14667,0.000725437,0.00246132,-0.000975317,0.00289897,0.000287788,-1.149,0.00184422,0.0370064,1882,953,27.7009,-3.14664
665,71,27.6122,3.35437,-0.000527993,0.00258085,0.000169105,0.00259002,-0.000537164,1.51661,0.00193081,0.0373468,1889,953,27.6122,-3.35436
672,71,27.3898,3.76544,-0.00131944,0.00255083,0.00114373,0.00286355,-0.00163216,1.3039,0.00262786,0.0390763,1896,953,27.3898,-3.76544
679,71,27.386,3.35748,-0.00171415,0.00233712,0.00180778,0.00302649,-0.00240352,1.20648,0.00314189,0.03802,1903,953,27.3859,-3.35751
686,71,27.4458,3.23285,-0.00178092,0.00201135,0.00212658,0.00296437,-0.00273393,1.14949,0.00329081,0.0372314,1910,953,27.4457,-3.23288
693,71,27.5229,3.19196,-0.00179213,0.00165184,0.00229429,0.00279848,-0.00293876,1.10733,0.00331273,0.0357983,1917,953,27.5229,-3.19196
700,71,27.4991,3.25793,-0.00184019,0.00148499,0.0023317,0.00268615,-0.00304135,1.09511,0.00330889,0.0354674,1924,953,27.4991,-3.25796
707,71,27.5443,3.43732,0,0,0,0,0,0,0,-1,1931,953,27.5443,-3.43733
714,71,26.2599,4.39838,0,0,0,0,0,0,0,-1,1938,953,26.2599,-4.3984
721,71,26.1526,4.54321,-0.00188906,0.00130292,0.00147101,0.00187742,-0.00246356,1.19846,0.00251387,0.0345533,1945,953,26.1526,-4.54324
728,71,26.0601,4.78436,-0.00194998,0.00148887,0.00119621,0.00186405,-0.00232515,1.26688,0.00242351,0.0195981,1952,953,26.0601,-4.78438
735,71,26.0649,4.93732,-0.00199859,0.00206757,0.000748974,0.00220114,-0.00213216,1.39431,0.00250194,0.0139624,1959,953,26.0649,-4.9373
742,71,26.0754,5.06909,-0.00218148,0.00356478,-1.16803e-05,0.0035648,-0.0021815,-1.56876,0.00334952,0.0147533,1966,953,26.0755,-5.06912
749,71,26.0864,5.21893,-0.0028438,0.00623391,-0.00154664,0.00649019,-0.00310008,-1.40659,0.00565108,0.0161261,1973,953,26.0865,-5.21891
756,71,26.0769,5.36572,-0.00363495,0.0102242,-0.00324518,0.0109464,-0.00435719,-1.35181,0.00910447,0.0150753,1980,953,26.0769,-5.36572
763,71,26.0408,5.54443,-0.00440223,0.0157741,-0.0054471,0.0171508,-0.00577888,-1.32325,0.0137704,0.0127343,1987,953,26.0408,-5.54442
770,71,25.9971,5.71112,-0.00535216,0.0231179,-0.0082184,0.0253199,-0.00755423,-1.309,0.0198823,0.0143498,1994,953,25.9971,-5.71112
777,71,25.9874,5.76111,-0.00641885,0.0323854,-0.0118903,0.0357389,-0.00977242,-1.29589,0.0276649,0.0329891,2001,953,25.9874,-5.76111
784,71,25.8665,5.67096,-0.00780314,0.0443422,-0.0168795,0.0493291,-0.0127901,-1.28352,0.0378763,0.0468993,2008,953,25.8664,-5.67099
791,71,25.64,5.68243,0,0,0,0,0,0,0,-1,2015,953,25.64,-5.68244
798,71,27.1953,5.35419,-0.0122678,0.0791914,-0.0327588,0.0897142,-0.0227906,-1.25999,0.0686786,0.0449796,2022,953,27.1953,-5.35421
805,71,26.5808,5.11945,0,0,0,0,0,0,0,-1,2029,953,26.5809,-5.11942
812,71,0,0,0,0,0,0,0,0,0,-1,2036,953,0,0
-700,64,0,0,0,0,0,0,0,0,0,-1,524,960,0,0
-693,64,0,0,0,0,0,0,0,0,0,-1,531,960,0,0
-686,64,-16.7498,6.25128,0.0266419,-0.0228743,-0.0663987,0.0727481,-0.0689805,-0.606947,0.0818367,0.0447768,538,960,-16.7498,-6.25131
-679,64,-16.7509,5.62506,0.0165533,-0.0180064,-0.0544487,0.0563984,-0.0578514,-0.631745,0.0659639,0.0444952,545,960,-16.7509,-5.62506
-672,64,-17.2228,4.76654,0,0,0,0,0,0,0,-1,552,960,-17.2228,-4.76654
-665,64,-17.3643,4.41156,0.00333088,-0.00985705,-0.0343831,0.0317466,-0.0382728,-0.690659,0.0404842,0.0462348,559,960,-17.3643,-4.41158
-658,64,-17.8109,4.12402,-0.000606051,-0.00663137,-0.0262451,0.0227988,-0.0300362,-0.728254,0.0305995,0.0469861,566,960,-17.8109,-4.12399
-651,64,-18.3192,3.61707,-0.00311241,-0.00400075,-0.0193698,0.0158183,-0.0229315,-0.773935,0.0224975,0.0450411,573,960,-18.3192,-3.61705
-644,64,-18.5106,3.18951,-0.0044252,-0.00196543,-0.0137854,0.0106449,-0.0170355,-0.829888,0.0161226,0.0303633,580,960,-18.5106,-3.18953
-637,64,-18.5054,3.00409,-0.00563446,-0.000271711,-0.00908754,0.00652178,-0.012428,-0.928858,0.0111164,0.0149746,587,960,-18.5053,-3.00408
-630,64,-18.5535,2.90833,-0.00601245,-0.000158142,-0.00624193,0.00380889,-0.00997949,-1.00465,0.00822216,0.0125781,594,960,-18.5535,-2.90831
-623,64,-18.5732,2.77979,-0.00544386,0.00139872,-0.00364207,0.00297442,-0.00701956,-1.16247,0.00592548,0.0128674,601,960,-18.5732,-2.7798
-616,64,-18.5738,2.63287,-0.00608962,0.00204949,-0.00279871,0.00291896,-0.00695909,-1.26958,0.00585995,0.0161781,608,960,-18.5738,-2.6329
-609,64,-18.5483,2.4939,-0.00619655,0.00230253,-0.00211284,0.0027988,-0.00669282,-1.3401,0.00563161,0.0156151,615,960,-18.5483,-2.49393
-602,64,-18.5234,2.34125,-0.0063669,0.00185772,-0.00216896,0.00239466,-0.00690384,-1.32812,0.00557493,0.0162843,622,960,-18.5234,-2.34123
-595,64,-18.5388,2.23364,-0.00611509,0.00193768,-0.00239861,0.00259799,-0.0067754,-1.30216,0.005588,0.0168933,629,960,-18.5388,-2.23367
-588,64,-18.5414,2.17108,-0.00567802,0.00181042,-0.00268459,0.00267339,-0.00654099,-1.25978,0.0054739,0.0242136,636,960,-18.5414,-2.1711
-581,64,-18.7324,1.90881,-0.00565188,0.00189775,-0.00307562,0.00299209,-0.00674623,-1.22895,0.00576,0.033892,643,960,-18.7324,-1.90881
-574,64,-19.085,1.62958,-0.00557684,0.00228687,-0.00343493,0.00357595,-0.00686592,-1.21177,0.00612755,0.0362912,650,960,-19.085,-1.62959
-567,64,-19.1896,1.42047,-0.0052146,0.0025443,-0.00366776,0.00400363,-0.00667394,-1.19212,0.00622862,0.0248756,657,960,-19.1896,-1.42045
-560,64,-19.2145,1.34595,-0.00443507,0.0029429,-0.00379337,0.00454525,-0.00603742,-1.17112,0.00613012,0.0334152,664,960,-19.2145,-1.34594
-553,64,-19.1635,1.30103,-0.00321532,0.00340785,-0.00386989,0.00518966,-0.00499713,-1.1393,0.0058817,0.0386511,671,960,-19.1635,-1.30101
-546,64,-19.1276,1.28192,-0.00159362,0.00388645,-0.00392125,0.00593014,-0.00363731,-1.09035,0.00557639,0.0402193,678,960,-19.1276,-1.28194
-539,64,-19.1948,1.2348,0.000361244,0.00433163,-0.00399222,0.006805,-0.00211213,-1.01613,0.00538072,0.0406722,685,960,-19.1948,-1.23479
-532,64,-19.3135,1.20099,0.00230834,0.0047551,-0.00428705,0.00798991,-0.000926469,-0.924387,0.00566076,0.0412008,692,960,-19.3134,-1.20097
-525,64,-19.3862,1.37762,0.00297574,0.00525864,-0.00508927,0.00933289,-0.00109852,-0.895715,0.00661856,0.0418355,699,960,-19.3863,-1.37763
-518,64,0,0,0,0,0,0,0,0,0,-1,706,960,0,0
-511,64,0,0,0,0,0,0,0,0,0,-1,713,960,0,0
-504,64,0,0,0,0,0,0,0,0,0,-1,720,960,0,0
-497,64,0,0,0,0,0,0,0,0,0,-1,727,960,0,0
-490,64,0,0,0,0,0,0,0,0,0,-1,734,960,0,0
-483,64,0,0,0,0,0,0,0,0,0,-1,741,960,0,0
-476,64,0,0,0,0,0,0,0,0,0,-1,748,960,0,0
-469,64,0,0,0,0,0,0,0,0,0,-1,755,960,0,0
-462,64,0,0,0,0,0,0,0,0,0,-1,762,960,0,0
-455,64,0,0,0,0,0,0,0,0,0,-1,769,960,0,0
-448,64,0,0,0,0,0,0,0,0,0,-1,776,960,0,0
-441,64,0,0,0,0,0,0,0,0,0,-1,783,960,0,0
-434,64,0,0,0,0,0,0,0,0,0,-1,790,960,0,0
-427,64,0,0,0,0,0,0,0,0,0,-1,797,960,0,0
-420,64,0,0,0,0,0,0,0,0,0,-1,804,960,0,0
-413,64,0,0,0,0,0,0,0,0,0,-1,811,960,0,0
-406,64,0,0,0,0,0,0,0,0,0,-1,818,960,0,0
-399,64,0,0,0,0,0,0,0,0,0,-1,825,960,0,0
-392,64,0,0,0,0,0,0,0,0,0,-1,832,960,0,0
-385,64,0,0,0,0,0,0,0,0,0,-1,839,960,0,0
-378,64,0,0,0,0,0,0,0,0,0,-1,846,960,0,0
-371,64,0,0,0,0,0,0,0,0,0,-1,853,960,0,0
-364,64,0,0,0,0,0,0,0,0,0,-1,860,960,0,0
-357,64,0,0,0,0,0,0,0,0,0,-1,867,960,0,0
-350,64,0,0,0,0,0,0,0,0,0,-1,874,960,0,0
-343,64,0,0,0,0,0,0,0,0,0,-1,881,960,0,0
-336,64,0,0,0,0,0,0,0,0,0,-1,888,960,0,0
-329,64,0,0,0,0,0,0,0,0,0,-1,895,960,0,0
-322,64,0,0,0,0,0,0,0,0,0,-1,902,960,0,0
-315,64,0,0,0,0,0,0,0,0,0,-1,909,960,0,0
-308,64,0,0,0,0,0,0,0,0,0,-1,916,960,0,0
-301,64,0,0,0,0,0,0,0,0,0,-1,923,960,0,0
-294,64,0,0,0,0,0,0,0,0,0,-1,930,960,0,0
-287,64,0,0,0,0,0,0,0,0,0,-1,937,960,0,0
-280,64,0,0,0,0,0,0,0,0,0,-1,944,960,0,0
-273,64,0,0,0,0,0,0,0,0,0,-1,951,960,0,0
-266,64,0,0,0,0,0,0,0,0,0,-1,958,960,0,0
-259,64,0,0,0,0,0,0,0,0,0,-1,965,960,0,0
-252,64,0,0,0,0,0,0,0,0,0,-1,972,960,0,0
-245,64,0,0,0,0,0,0,0,0,0,-1,979,960,0,0
-238,64,0,0,0,0,0,0,0,0,0,-1,986,960,0,0
-231,64,0,0,0,0,0,0,0,0,0,-1,993,960,0,0
-224,64,0,0,0,0,0,0,0,0,0,-1,1000,960,0,0
-217,64,0,0,0,0,0,0,0,0,0,-1,1007,960,0,0
-210,64,0,0,0,0,0,0,0,0,0,-1,1014,960,0,0
-203,64,0,0,0,0,0,0,0,0,0,-1,1021,960,0,0
-196,64,0,0,0,0,0,0,0,0,0,-1,1028,960,0,0
-189,64,0,0,0,0,0,0,0,0,0,-1,1035,960,0,0
-182,64,0,0,0,0,0,0,0,0,0,-1,1042,960,0,0
-175,64,0,0,0,0,0,0,0,0,0,-1,1049,960,0,0
-168,64,0,0,0,0,0,0,0,0,0,-1,1056,960,0,0
-161,64,0,0,0,0,0,0,0,0,0,-1,1063,960,0,0
-154,64,0,0,0,0,0,0,0,0,0,-1,1070,960,0,0
-147,64,0,0,0,0,0,0,0,0,0,-1,1077,960,0,0
-140,64,0,0,0,0,0,0,0,0,0,-1,1084,960,0,0
-133,64,0,0,0,0,0,0,0,0,0,-1,1091,960,0,0
-126,64,0,0,0,0,0,0,0,0,0,-1,1098,960,0,0
-119,64,0,0,0,0,0,0,0,0,0,-1,1105,960,0,0
-112,64,0,0,0,0,0,0,0,0,0,-1,1112,960,0,0
-105,64,0,0,0,0,0,0,0,0,0,-1,1119,960,0,0
-98,64,0,0,0,0,0,0,0,0,0,-1,1126,960,0,0
-91,64,0,0,0,0,0,0,0,0,0,-1,1133,960,0,0
-84,64,0,0,0,0,0,0,0,0,0,-1,1140,960,0,0
-77,64,0,0,0,0,0,0,0,0,0,-1,1147,960,0,0
-70,64,0,0,0,0,0,0,0,0,0,-1,1154,960,0,0
-63,64,0,0,0,0,0,0,0,0,0,-1,1161,960,0,0
-56,64,0,0,0,0,0,0,0,0,0,-1,1168,960,0,0
-49,64,0,0,0,0,0,0,0,0,0,-1,1175,960,0,0
-42,64,0,0,0,0,0,0,0,0,0,-1,1182,960,0,0
-35,64,0,0,0,0,0,0,0,0,0,-1,1189,960,0,0
-28,64,0,0,0,0,0,0,0,0,0,-1,1196,960,0,0
-21,64,0,0,0,0,0,0,0,0,0,-1,1203,960,0,0
-14,64,0,0,0,0,0,0,0,0,0,-1,1210,960,0,0
-7,64,0,0,0,0,0,0,0,0,0,-1,1217,960,0,0
0,64,0,0,0,0,0,0,0,0,0,-1,1224,960,0,0
7,64,0,0,0,0,0,0,0,0,0,-1,1231,960,0,0
14,64,0,0,0,0,0,0,0,0,0,-1,1238,960,0,0
21,64,0,0,0,0,0,0,0,0,0,-1,1245,960,0,0
28,64,0,0,0,0,0,0,0,0,0,-1,1252,960,0,0
35,64,0,0,0,0,0,0,0,0,0,-1,1259,960,0,0
42,64,0,0,0,0,0,0,0,0,0,-1,1266,960,0,0
49,64,0,0,0,0,0,0,0,0,0,-1,1273,960,0,0
56,64,0,0,0,0,0,0,0,0,0,-1,1280,960,0,0
63,64,0,0,0,0,0,0,0,0,0,-1,1287,960,0,0
70,64,0,0,0,0,0,0,0,0,0,-1,1294,960,0,0
77,64,0,0,0,0,0,0,0,0,0,-1,1301,960,0,0
84,64,0,0,0,0,0,0,0,0,0,-1,1308,960,0,0
91,64,0,0,0,0,0,0,0,0,0,-1,1315,960,0,0
98,64,0,0,0,0,0,0,0,0,0,-1,1322,960,0,0
105,64,0,0,0,0,0,0,0,0,0,-1,1329,960,0,0
112,64,0,0,0,0,0,0,0,0,0,-1,1336,960,0,0
119,64,0,0,0,0,0,0,0,0,0,-1,1343,960,0,0
126,64,0,0,0,0,0,0,0,0,0,-1,1350,960,0,0
133,64,0,0,0,0,0,0,0,0,0,-1,1357,960,0,0
140,64,0,0,0,0,0,0,0,0,0,-1,1364,960,0,0
147,64,0,0,0,0,0,0,0,0,0,-1,1371,960,0,0
154,64,0,0,0,0,0,0,0,0,0,-1,1378,960,0,0
161,64,0,0,0,0,0,0,0,0,0,-1,1385,960,0,0
168,64,0,0,0,0,0,0,0,0,0,-1,1392,960,0,0
175,64,0,0,0,0,0,0,0,0,0,-1,1399,960,0,0
182,64,0,0,0,0,0,0,0,0,0,-1,1406,960,0,0
189,64,0,0,0,0,0,0,0,0,0,-1,1413,960,0,0
196,64,0,0,0,0,0,0,0,0,0,-1,1420,960,0,0
203,64,0,0,0,0,0,0,0,0,0,-1,1427,960,0,0
210,64,0,0,0,0,0,0,0,0,0,-1,1434,960,0,0
217,64,0,0,0,0,0,0,0,0,0,-1,1441,960,0,0
224,64,0,0,0,0,0,0,0,0,0,-1,1448,960,0,0
231,64,0,0,0,0,0,0,0,0,0,-1,1455,960,0,0
238,64,0,0,0,0,0,0,0,0,0,-1,1462,960,0,0
245,64,0,0,0,0,0,0,0,0,0,-1,1469,960,0,0
252,64,0,0,0,0,0,0,0,0,0,-1,1476,960,0,0
259,64,0,0,0,0,0,0,0,0,0,-1,1483,960,0,0
266,64,0,0,0,0,0,0,0,0,0,-1,1490,960,0,0
273,64,0,0,0,0,0,0,0,0,0,-1,1497,960,0,0
280,64,0,0,0,0,0,0,0,0,0,-1,1504,960,0,0
287,64,0,0,0,0,0,0,0,0,0,-1,1511,960,0,0
294,64,0,0,0,0,0,0,0,0,0,-1,1518,960,0,0
301,64,0,0,0,0,0,0,0,0,0,-1,1525,960,0,0
308,64,0,0,0,0,0,0,0,0,0,-1,1532,960,0,0
315,64,0,0,0,0,0,0,0,0,0,-1,1539,960,0,0
322,64,0,0,0,0,0,0,0,0,0,-1,1546,960,0,0
329,64,0,0,0,0,0,0,0,0,0,-1,1553,960,0,0
336,64,0,0,0,0,0,0,0,0,0,-1,1560,960,0,0
343,64,0,0,0,0,0,0,0,0,0,-1,1567,960,0,0
350,64,0,0,0,0,0,0,0,0,0,-1,1574,960,0,0
357,64,0,0,0,0,0,0,0,0,0,-1,1581,960,0,0
364,64,0,0,0,0,0,0,0,0,0,-1,1588,960,0,0
371,64,0,0,0,0,0,0,0,0,0,-1,1595,960,0,0
378,64,0,0,0,0,0,0,0,0,0,-1,1602,960,0,0
385,64,0,0,0,0,0,0,0,0,0,-1,1609,960,0,0
392,64,0,0,0,0,0,0,0,0,0,-1,1616,960,0,0
399,64,0,0,0,0,0,0,0,0,0,-1,1623,960,0,0
406,64,0,0,0,0,0,0,0,0,0,-1,1630,960,0,0
413,64,0,0,0,0,0,0,0,0,0,-1,1637,960,0,0
420,64,0,0,0,0,0,0,0,0,0,-1,1644,960,0,0
427,64,0,0,0,0,0,0,0,0,0,-1,1651,960,0,0
434,64,0,0,0,0,0,0,0,0,0,-1,1658,960,0,0
441,64,0,0,0,0,0,0,0,0,0,-1,1665,960,0,0
448,64,0,0,0,0,0,0,0,0,0,-1,1672,960,0,0
455,64,0,0,0,0,0,0,0,0,0,-1,1679,960,0,0
462,64,0,0,0,0,0,0,0,0,0,-1,1686,960,0,0
469,64,0,0,0,0,0,0,0,0,0,-1,1693,960,0,0
476,64,0,0,0,0,0,0,0,0,0,-1,1700,960,0,0
483,64,0,0,0,0,0,0,0,0,0,-1,1707,960,0,0
490,64,0,0,0,0,0,0,0,0,0,-1,1714,960,0,0
497,64,0,0,0,0,0,0,0,0,0,-1,1721,960,0,0
504,64,0,0,0,0,0,0,0,0,0,-1,1728,960,0,0
511,64,0,0,0,0,0,0,0,0,0,-1,1735,960,0,0
518,64,0,0,0,0,0,0,0,0,0,-1,1742,960,0,0
525,64,0,0,0,0,0,0,0,0,0,-1,1749,960,0,0
532,64,0,0,0,0,0,0,0,0,0,-1,1756,960,0,0
539,64,0,0,0,0,0,0,0,0,0,-1,1763,960,0,0
546,64,0,0,0,0,0,0,0,0,0,-1,1770,960,0,0
553,64,0,0,0,0,0,0,0,0,0,-1,1777,960,0,0
560,64,0,0,0,0,0,0,0,0,0,-1,1784,960,0,0
567,64,0,0,0,0,0,0,0,0,0,-1,1791,960,0,0
574,64,0,0,0,0,0,0,0,0,0,-1,1798,960,0,0
581,64,0,0,0,0,0,0,0,0,0,-1,1805,960,0,0
588,64,0,0,0,0,0,0,0,0,0,-1,1812,960,0,0
595,64,0,0,0,0,0,0,0,0,0,-1,1819,960,0,0
602,64,0,0,0,0,0,0,0,0,0,-1,1826,960,0,0
609,64,0,0,0,0,0,0,0,0,0,-1,1833,960,0,0
616,64,0,0,0,0,0,0,0,0,0,-1,1840,960,0,0
623,64,0,0,0,0,0,0,0,0,0,-1,1847,960,0,0
630,64,0,0,0,0,0,0,0,0,0,-1,1854,960,0,0
637,64,0,0,0,0,0,0,0,0,0,-1,1861,960,0,0
644,64,27.5553,3.51709,0.00551732,0.000990412,-0.00286851,0.00690784,-0.000400112,-0.451378,0.00474423,0.0407008,1868,960,27.5553,-3.51709
651,64,27.611,3.44794,0.00302205,0.00133445,-0.00186221,0.00422271,0.000133784,-0.572677,0.00277163,0.0389457,1875,960,27.611,-3.44792
658,64,27.7101,3.24384,0.00115984,0.00167942,-0.000852675,0.00231101,0.00052826,-0.933269,0.00139825,0.0364219,1882,960,27.7101,-3.24384
665,64,27.7311,3.01044,-0.000263079,0.00203147,0.000237113,0.00205572,-0.000287326,1.46889,0.00147561,0.0407931,1889,960,27.7311,-3.01046
672,64,27.5264,3.23853,-0.00122648,0.00223097,0.0012239,0.00262037,-0.00161587,1.26277,0.00246861,0.0409162,1896,960,27.5264,-3.23854
679,64,27.4456,3.29785,-0.00177272,0.00219374,0.00193409,0.00298069,-0.00255967,1.18437,0.0032018,0.0399512,1903,960,27.4456,-3.29785
686,64,27.4376,3.21289,-0.00193969,0.0020018,0.00229988,0.00305979,-0.00299768,1.13964,0.00349735,0.0359871,1910,960,27.4377,-3.21291
693,64,27.5061,3.19092,-0.00197679,0.00170885,0.00249582,0.00296846,-0.0032364,1.1034,0.0035835,0.0338636,1917,960,27.5061,-3.19089
700,64,27.5552,3.26666,-0.00202192,0.00159347,0.00253945,0.00290292,-0.00333137,1.09471,0.0036022,0.0325204,1924,960,27.5551,-3.26668
707,64,27.4856,3.63672,-0.0020279,0.0015199,0.002423,0.00274894,-0.00325695,1.10137,0.00347163,0.0429709,1931,960,27.4856,-3.63671
714,64,27.3766,4.30872,0,0,0,0,0,0,0,-1,1938,960,27.3766,-4.30869
721,64,26.2153,4.61328,0,0,0,0,0,0,0,-1,1945,960,26.2153,-4.61327
728,64,26.2107,4.79449,-0.00214944,0.00168666,0.00135203,0.00211529,-0.00257807,1.26379,0.0027141,0.015684,1952,960,26.2107,-4.79448
735,64,26.2101,4.95367,-0.00207276,0.00221691,0.000930183,0.00240992,-0.00226578,1.36619,0.00269995,0.0191265,1959,960,26.2101,-4.95369
742,64,26.2468,5.06146,-0.00200989,0.00367335,0.00023227,0.00368283,-0.00201937,1.53002,0.00333853,0.0173179,1966,960,26.2468,-5.06147
749,64,26.2461,5.21289,-0.00234996,0.00620857,-0.0013033,0.00640264,-0.00254403,-1.42298,0.00532309,0.0132653,1973,960,26.2461,-5.21288
756,64,26.2324,5.36133,-0.00274156,0.0101202,-0.00302337,0.0107954,-0.0034168,-1.35106,0.00856613,0.0136309,1980,960,26.2325,-5.36131
763,64,26.2142,5.51868,-0.00285791,0.015637,-0.00529685,0.0170465,-0.00426748,-1.31071,0.0130221,0.012817,1987,960,26.2142,-5.51865
770,64,26.1552,5.64496,-0.0029752,0.0230998,-0.00811893,0.0254212,-0.00529652,-1.29231,0.0189612,0.0126639,1994,960,26.1551,-5.64496
777,64,26.0811,5.78271,-0.00304114,0.0325269,-0.0118326,0.0361036,-0.00661788,-1.27725,0.0265514,0.0301051,2001,960,26.0811,-5.78274
784,64,26.3033,5.78851,-0.00318445,0.0445948,-0.0168474,0.0499379,-0.00852752,-1.26369,0.0364683,0.0471041,2008,960,26.3033,-5.78854
791,64,26.4476,5.83807,0,0,0,0,0,0,0,-1,2015,960,26.4477,-5.83807
798,64,28.0122,4.85474,0,0,0,0,0,0,0,-1,2022,960,28.0122,-4.85476
805,64,27.3708,5.05463,0,0,0,0,0,0,0,-1,2029,960,27.3708,-5.05463
812,64,0,0,0,0,0,0,0,0,0,-1,2036,960,0,0
-700,57,0,0,0,0,0,0,0,0,0,-1,524,967,0,0
-693,57,0,0,0,0,0,0,0,0,0,-1,531,967,0,0
-686,57,-16.0584,6.71875,0.0203523,-0.0124205,-0.0608914,0.0670237,-0.0590919,-0.653958,0.0728608,0.0467484,538,967,-16.0584,-6.71873
-679,57,-16.22,5.99628,0.0105993,-0.00936771,-0.0500736,0.0516749,-0.0504434,-0.687,0.0589595,0.0468465,545,967,-16.22,-5.99626
-672,57,-16.4429,5.35852,0,0,0,0,0,0,0,-1,552,967,-16.4429,-5.35849
-665,57,-16.7568,4.82318,0,0,0,0,0,0,0,-1,559,967,-16.7568,-4.82317
-658,57,-17.7758,4.4989,0,0,0,0,0,0,0,-1,566,967,-17.7757,-4.49889
-651,57,-18.5091,3.50153,-0.00628875,-2.01567e-05,-0.0179529,0.0150699,-0.0213789,-0.87182,0.0211485,0.0444466,573,967,-18.5091,-3.50153
-644,57,-18.6628,3.0083,-0.00689844,0.00119037,-0.0127839,0.0105544,-0.0162625,-0.9386,0.0155992,0.0285669,580,967,-18.6629,-3.00832
-637,57,-18.6478,2.93262,-0.00764838,0.00228298,-0.00837446,0.0070533,-0.0124187,-1.05301,0.0113835,0.0152737,587,967,-18.6478,-2.93263
-630,57,-18.699,2.8678,-0.00755914,0.00169291,-0.00592333,0.0045826,-0.0104488,-1.11692,0.00889596,0.012199,594,967,-18.699,-2.8678
-623,57,-18.7094,2.75104,-0.00628609,0.00279233,-0.00352545,0.00400058,-0.00749433,-1.24062,0.00673799,0.0112035,601,967,-18.7094,-2.75104
-616,57,-18.696,2.646,-0.00633104,0.00295195,-0.00295233,0.00381134,-0.00719043,-1.28753,0.00645097,0.0131575,608,967,-18.696,-2.64599
-609,57,-18.7052,2.50616,-0.00620384,0.00298213,-0.00247681,0.00360739,-0.0068291,-1.32352,0.00612046,0.0142185,615,967,-18.7052,-2.50615
-602,57,-18.6946,2.37506,-0.006054,0.00224441,-0.0026868,0.00303836,-0.00684795,-1.28347,0.00584741,0.0106607,622,967,-18.6946,-2.37505
-595,57,-18.683,2.26367,-0.00555735,0.00209142,-0.00301927,0.0031396,-0.00660553,-1.23665,0.00574375,0.0113856,629,967,-18.683,-2.26368
-588,57,-18.7102,2.20142,-0.00509907,0.00188826,-0.0033349,0.00322442,-0.00643523,-1.18972,0.00567877,0.0178679,636,967,-18.7102,-2.20141
-581,57,-18.9089,1.87067,-0.00500809,0.00188144,-0.00375882,0.00353522,-0.00666187,-1.15631,0.00597883,0.0284919,643,967,-18.9089,-1.87065
-574,57,-19.1522,1.53326,-0.004872,0.00224489,-0.00414317,0.00414798,-0.00677508,-1.14021,0.00636695,0.0301587,650,967,-19.1522,-1.53325
-567,57,-19.2161,1.37262,-0.00445093,0.002466,-0.00434856,0.00456369,-0.00654863,-1.12134,0.00644973,0.0317193,657,967,-19.2161,-1.37259
-560,57,-19.2086,1.36017,-0.00361155,0.00284503,-0.00444366,0.00510928,-0.0058758,-1.09954,0.00634738,0.0388186,664,967,-19.2086,-1.3602
-553,57,-19.1891,1.30896,-0.00232696,0.00330064,-0.00448012,0.0057773,-0.00480361,-1.0658,0.00611751,0.0383606,671,967,-19.1891,-1.30897
-546,57,-19.126,1.21771,-0.000641308,0.00381666,-0.00451058,0.00661895,-0.0034436,-1.01488,0.00590525,0.0402398,678,967,-19.126,-1.2177
-539,57,-19.0137,1.18689,0.00137213,0.0043802,-0.00461783,0.00773275,-0.00198043,-0.942831,0.00592665,0.0422404,685,967,-19.0137,-1.1869
-532,57,-19.1658,1.27911,0.00329635,0.00509577,-0.00510391,0.00937866,-0.000986545,-0.872641,0.00660589,0.0399336,692,967,-19.1658,-1.27913
-525,57,-19.3379,1.3233,0.00382383,0.00614968,-0.00629437,0.0113877,-0.00141414,-0.876746,0.00810438,0.0406328,699,967,-19.3379,-1.32328
-518,57,0,0,0,0,0,0,0,0,0,-1,706,967,0,0
-511,57,0,0,0,0,0,0,0,0,0,-1,713,967,0,0
-504,57,0,0,0,0,0,0,0,0,0,-1,720,967,0,0
-497,57,0,0,0,0,0,0,0,0,0,-1,727,967,0,0
-490,57,0,0,0,0,0,0,0,0,0,-1,734,967,0,0
-483,57,0,0,0,0,0,0,0,0,0,-1,741,967,0,0
-476,57,0,0,0,0,0,0,0,0,0,-1,748,967,0,0
-469,57,0,0,0,0,0,0,0,0,0,-1,755,967,0,0
-462,57,0,0,0,0,0,0,0,0,0,-1,762,967,0,0
-455,57,0,0,0,0,0,0,0,0,0,-1,769,967,0,0
-448,57,0,0,0,0,0,0,0,0,0,-1,776,967,0,0
-441,57,0,0,0,0,0,0,0,0,0,-1,783,967,0,0
-434,57,0,0,0,0,0,0,0,0,0,-1,790,967,0,0
-427,57,0,0,0,0,0,0,0,0,0,-1,797,967,0,0
-420,57,0,0,0,0,0,0,0,0,0,-1,804,967,0,0
-413,57,0,0,0,0,0,0,0,0,0,-1,811,967,0,0
-406,57,0,0,0,0,0,0,0,0,0,-1,818,967,0,0
-399,57,0,0,0,0,0,0,0,0,0,-1,825,967,0,0
-392,57,0,0,0,0,0,0,0,0,0,-1,832,967,0,0
-385,57,0,0,0,0,0,0,0,0,0,-1,839,967,0,0
-378,57,0,0,0,0,0,0,0,0,0,-1,846,967,0,0
-371,57,0,0,0,0,0,0,0,0,0,-1,853,967,0,0
-364,57,0,0,0,0,0,0,0,0,0,-1,860,967,0,0
-357,57,0,0,0,0,0,0,0,0,0,-1,867,967,0,0
-350,57,0,0,0,0,0,0,0,0,0,-1,874,967,0,0
-343,57,0,0,0,0,0,0,0,0,0,-1,881,967,0,0
-336,57,0,0,0,0,0,0,0,0,0,-1,888,967,0,0
-329,57,0,0,0,0,0,0,0,0,0,-1,895,967,0,0
-322,57,0,0,0,0,0,0,0,0,0,-1,902,967,0,0
-315,57,0,0,0,0,0,0,0,0,0,-1,909,967,0,0
-308,57,0,0,0,0,0,0,0,0,0,-1,916,967,0,0
-301,57,0,0,0,0,0,0,0,0,0,-1,923,967,0,0
-294,57,0,0,0,0,0,0,0,0,0,-1,930,967,0,0
-287,57,0,0,0,0,0,0,0,0,0,-1,937,967,0,0
-280,57,0,0,0,0,0,0,0,0,0,-1,944,967,0,0
-273,57,0,0,0,0,0,0,0,0,0,-1,951,967,0,0
-266,57,0,0,0,0,0,0,0,0,0,-1,958,967,0,0
-259,57,0,0,0,0,0,0,0,0,0,-1,965,967,0,0
-252,57,0,0,0,0,0,0,0,0,0,-1,972,967,0,0
-245,57,0,0,0,0,0,0,0,0,0,-1,979,967,0,0
-238,57,0,0,0,0,0,0,0,0,0,-1,986,967,0,0
-231,57,0,0,0,0,0,0,0,0,0,-1,993,967,0,0
-224,57,0,0,0,0,0,0,0,0,0,-1,1000,967,0,0
-217,57,0,0,0,0,0,0,0,0,0,-1,1007,967,0,0
-210,57,0,0,0,0,0,0,0,0,0,-1,1014,967,0,0
-203,57,0,0,0,0,0,0,0,0,0,-1,1021,967,0,0
-196,57,0,0,0,0,0,0,0,0,0,-1,1028,967,0,0
-189,57,0,0,0,0,0,0,0,0,0,-1,1035,967,0,0
-182,57,0,0,0,0,0,0,0,0,0,-1,1042,967,0,0
-175,57,0,0,0,0,0,0,0,0,0,-1,1049,967,0,0
-168,57,0,0,0,0,0,0,0,0,0,-1,1056,967,0,0
-161,57,0,0,0,0,0,0,0,0,0,-1,1063,967,0,0
-154,57,0,0,0,0,0,0,0,0,0,-1,1070,967,0,0
-147,57,0,0,0,0,0,0,0,0,0,-1,1077,967,0,0
-140,57,0,0,0,0,0,0,0,0,0,-1,1084,967,0,0
-133,57,0,0,0,0,0,0,0,0,0,-1,1091,967,0,0
-126,57,0,0,0,0,0,0,0,0,0,-1,1098,967,0,0
-119,57,0,0,0,0,0,0,0,0,0,-1,1105,967,0,0
-112,57,0,0,0,0,0,0,0,0,0,-1,1112,967,0,0
-105,57,0,0,0,0,0,0,0,0,0,-1,1119,967,0,0
-98,57,0,0,0,0,0,0,0,0,0,-1,1126,967,0,0
-91,57,0,0,0,0,0,0,0,0,0,-1,1133,967,0,0
-84,57,0,0,0,0,0,0,0,0,0,-1,1140,967,0,0
-77,57,0,0,0,0,0,0,0,0,0,-1,1147,967,0,0
-70,57,0,0,0,0,0,0,0,0,0,-1,1154,967,0,0
-63,57,0,0,0,0,0,0,0,0,0,-1,1161,967,0,0
-56,57,0,0,0,0,0,0,0,0,0,-1,1168,967,0,0
-49,57,0,0,0,0,0,0,0,0,0,-1,1175,967,0,0
-42,57,0,0,0,0,0,0,0,0,0,-1,1182,967,0,0
-35,57,0,0,0,0,0,0,0,0,0,-1,1189,967,0,0
-28,57,0,0,0,0,0,0,0,0,0,-1,1196,967,0,0
-21,57,0,0,0,0,0,0,0,0,0,-1,1203,967,0,0
-14,57,0,0,0,0,0,0,0,0,0,-1,1210,967,0,0
-7,57,0,0,0,0,0,0,0,0,0,-1,1217,967,0,0
0,57,0,0,0,0,0,0,0,0,0,-1,1224,967,0,0
7,57,0,0,0,0,0,0,0,0,0,-1,1231,967,0,0
14,57,0,0,0,0,0,0,0,0,0,-1,1238,967,0,0
21,57,0,0,0,0,0,0,0,0,0,-1,1245,967,0,0
28,57,0,0,0,0,0,0,0,0,0,-1,1252,967,0,0
35,57,0,0,0,0,0,0,0,0,0,-1,1259,967,0,0
42,57,0,0,0,0,0,0,0,0,0,-1,1266,967,0,0
49,57,0,0,0,0,0,0,0,0,0,-1,1273,967,0,0
56,57,0,0,0,0,0,0,0,0,0,-1,1280,967,0,0
63,57,0,0,0,0,0,0,0,0,0,-1,1287,967,0,0
70,57,0,0,0,0,0,0,0,0,0,-1,1294,967,0,0
77,57,0,0,0,0,0,0,0,0,0,-1,1301,967,0,0
84,57,0,0,0,0,0,0,0,0,0,-1,1308,967,0,0
91,57,0,0,0,0,0,0,0,0,0,-1,1315,967,0,0
98,57,0,0,0,0,0,0,0,0,0,-1,1322,967,0,0
105,57,0,0,0,0,0,0,0,0,0,-1,1329,967,0,0
112,57,0,0,0,0,0,0,0,0,0,-1,1336,967,0,0
119,57,0,0,0,0,0,0,0,0,0,-1,1343,967,0,0
126,57,0,0,0,0,0,0,0,0,0,-1,1350,967,0,0
133,57,0,0,0,0,0,0,0,0,0,-1,1357,967,0,0
140,57,0,0,0,0,0,0,0,0,0,-1,1364,967,0,0
147,57,0,0,0,0,0,0,0,0,0,-1,1371,967,0,0
154,57,0,0,0,0,0,0,0,0,0,-1,1378,967,0,0
161,57,0,0,0,0,0,0,0,0,0,-1,1385,967,0,0
168,57,0,0,0,0,0,0,0,0,0,-1,1392,967,0,0
175,57,0,0,0,0,0,0,0,0,0,-1,1399,967,0,0
182,57,0,0,0,0,0,0,0,0,0,-1,1406,967,0,0
189,57,0,0,0,0,0,0,0,0,0,-1,1413,967,0,0
196,57,0,0,0,0,0,0,0,0,0,-1,1420,967,0,0
203,57,0,0,0,0,0,0,0,0,0,-1,1427,967,0,0
210,57,0,0,0,0,0,0,0,0,0,-1,1434,967,0,0
217,57,0,0,0,0,0,0,0,0,0,-1,1441,967,0,0
224,57,0,0,0,0,0,0,0,0,0,-1,1448,967,0,0
231,57,0,0,0,0,0,0,0,0,0,-1,1455,967,0,0
238,57,0,0,0,0,0,0,0,0,0,-1,1462,967,0,0
245,57,0,0,0,0,0,0,0,0,0,-1,1469,967,0,0
252,57,0,0,0,0,0,0,0,0,0,-1,1476,967,0,0
259,57,0,0,0,0,0,0,0,0,0,-1,1483,967,0,0
266,57,0,0,0,0,0,0,0,0,0,-1,1490,967,0,0
273,57,0,0,0,0,0,0,0,0,0,-1,1497,967,0,0
280,57,0,0,0,0,0,0,0,0,0,-1,1504,967,0,0
287,57,0,0,0,0,0,0,0,0,0,-1,1511,967,0,0
294,57,0,0,0,0,0,0,0,0,0,-1,1518,967,0,0
301,57,0,0,0,0,0,0,0,0,0,-1,1525,967,0,0
308,57,0,0,0,0,0,0,0,0,0,-1,1532,967,0,0
315,57,0,0,0,0,0,0,0,0,0,-1,1539,967,0,0
322,57,0,0,0,0,0,0,0,0,0,-1,1546,967,0,0
329,57,0,0,0,0,0,0,0,0,0,-1,1553,967,0,0
336,57,0,0,0,0,0,0,0,0,0,-1,1560,967,0,0
343,57,0,0,0,0,0,0,0,0,0,-1,1567,967,0,0
350,57,0,0,0,0,0,0,0,0,0,-1,1574,967,0,0
357,57,0,0,0,0,0,0,0,0,0,-1,1581,967,0,0
364,57,0,0,0,0,0,0,0,0,0,-1,1588,967,0,0
371,57,0,0,0,0,0,0,0,0,0,-1,1595,967,0,0
378,57,0,0,0,0,0,0,0,0,0,-1,1602,967,0,0
385,57,0,0,0,0,0,0,0,0,0,-1,1609,967,0,0
392,57,0,0,0,0,0,0,0,0,0,-1,1616,967,0,0
399,57,0,0,0,0,0,0,0,0,0,-1,1623,967,0,0
406,57,0,0,0,0,0,0,0,0,0,-1,1630,967,0,0
413,57,0,0,0,0,0,0,0,0,0,-1,1637,967,0,0
420,57,0,0,0,0,0,0,0,0,0,-1,1644,967,0,0
427,57,0,0,0,0,0,0,0,0,0,-1,1651,967,0,0
434,57,0,0,0,0,0,0,0,0,0,-1,1658,967,0,0
441,57,0,0,0,0,0,0,0,0,0,-1,1665,967,0,0
448,57,0,0,0,0,0,0,0,0,0,-1,1672,967,0,0
455,57,0,0,0,0,0,0,0,0,0,-1,1679,967,0,0
462,57,0,0,0,0,0,0,0,0,0,-1,1686,967,0,0
469,57,0,0,0,0,0,0,0,0,0,-1,1693,967,0,0
476,57,0,0,0,0,0,0,0,0,0,-1,1700,967,0,0
483,57,0,0,0,0,0,0,0,0,0,-1,1707,967,0,0
490,57,0,0,0,0,0,0,0,0,0,-1,1714,967,0,0
497,57,0,0,0,0,0,0,0,0,0,-1,1721,967,0,0
504,57,0,0,0,0,0,0,0,0,0,-1,1728,967,0,0
511,57,0,0,0,0,0,0,0,0,0,-1,1735,967,0,0
518,57,0,0,0,0,0,0,0,0,0,-1,1742,967,0,0
525,57,0,0,0,0,0,0,0,0,0,-1,1749,967,0,0
532,57,0,0,0,0,0,0,0,0,0,-1,1756,967,0,0
539,57,0,0,0,0,0,0,0,0,0,-1,1763,967,0,0
546,57,0,0,0,0,0,0,0,0,0,-1,1770,967,0,0
553,57,0,0,0,0,0,0,0,0,0,-1,1777,967,0,0
560,57,0,0,0,0,0,0,0,0,0,-1,1784,967,0,0
567,57,0,0,0,0,0,0,0,0,0,-1,1791,967,0,0
574,57,0,0,0,0,0,0,0,0,0,-1,1798,967,0,0
581,57,0,0,0,0,0,0,0,0,0,-1,1805,967,0,0
588,57,0,0,0,0,0,0,0,0,0,-1,1812,967,0,0
595,57,0,0,0,0,0,0,0,0,0,-1,1819,967,0,0
602,57,0,0,0,0,0,0,0,0,0,-1,1826,967,0,0
609,57,0,0,0,0,0,0,0,0,0,-1,1833,967,0,0
616,57,0,0,0,0,0,0,0,0,0,-1,1840,967,0,0
623,57,0,0,0,0,0,0,0,0,0,-1,1847,967,0,0
630,57,0,0,0,0,0,0,0,0,0,-1,1854,967,0,0
637,57,0,0,0,0,0,0,0,0,0,-1,1861,967,0,0
644,57,27.4941,3.53235,0.00635057,7.31777e-05,-0.00303446,0.00757757,-0.00115383,-0.384257,0.00547699,0.040988,1868,967,27.4942,-3.53238
651,57,27.5483,3.42548,0.00363673,0.00055505,-0.00196872,0.0045959,-0.000404115,-0.453358,0.00320713,0.0339137,1875,967,27.5483,-3.42546
658,57,27.6057,3.33441,0.00165507,0.00096629,-0.000957191,0.00232794,0.000293419,-0.612713,0.00146399,0.0325111,1882,967,27.6058,-3.33441
665,57,27.6693,3.29272,0.0001481,0.00139011,0.000140608,0.00140583,0.000132381,1.45946,0.00089636,0.0417376,1889,967,27.6693,-3.29275
672,57,27.7903,3.17596,-0.000915263,0.00168885,0.00116415,0.00213338,-0.0013598,1.20603,0.00203321,0.0450388,1896,967,27.7903,-3.17597
679,57,27.4364,3.41956,-0.00158061,0.00175612,0.00192929,0.00263837,-0.00246286,1.1419,0.00294578,0.0416058,1903,967,27.4364,-3.41957
686,57,26.8019,3.71167,0,0,0,0,0,0,0,-1,1910,967,26.8019,-3.71164
693,57,27.4495,3.25049,-0.00190639,0.00143142,0.00259464,0.00284754,-0.00332251,1.07119,0.0035658,0.0323568,1917,967,27.4495,-3.25049
700,57,27.5298,3.31763,-0.00196524,0.00136872,0.00265293,0.00283493,-0.00343145,1.0659,0.00362336,0.0254438,1924,967,27.5298,-3.3176
707,57,27.478,3.71259,-0.00200339,0.00133533,0.00255003,0.00271382,-0.00338188,1.07521,0.00352639,0.0457276,1931,967,27.478,-3.71256
714,57,27.402,4.27057,0,0,0,0,0,0,0,-1,1938,967,27.402,-4.27059
721,57,26.3799,4.64569,0,0,0,0,0,0,0,-1,1945,967,26.3798,-4.6457
728,57,26.3611,4.83453,-0.00219867,0.00159375,0.00150432,0.00211799,-0.00272291,1.23547,0.00280216,0.0210204,1952,967,26.361,-4.83453
735,57,26.4027,4.98584,-0.00202114,0.0020726,0.00114673,0.00237193,-0.00232047,1.31546,0.00270921,0.0204623,1959,967,26.4027,-4.98583
742,57,26.4213,5.06287,-0.00175867,0.00350666,0.000551302,0.00356376,-0.00181577,1.46758,0.00316006,0.015181,1966,967,26.4212,-5.06289
749,57,26.3961,5.21948,-0.00185493,0.00588114,-0.000922341,0.00598958,-0.00196338,-1.45376,0.00478376,0.0128588,1973,967,26.3961,-5.2195
756,57,26.3652,5.34094,-0.00197026,0.00962711,-0.00259537,0.0101814,-0.00252458,-1.36038,0.00776714,0.0105949,1980,967,26.3653,-5.34094
763,57,26.3527,5.46497,-0.00161952,0.0149534,-0.00487269,0.0162798,-0.002946,-1.30501,0.0119568,0.0109879,1987,967,26.3526,-5.46497
770,57,26.3033,5.59338,-0.00111484,0.0223252,-0.00769125,0.0246236,-0.00341317,-1.28042,0.0176637,0.0103645,1994,967,26.3033,-5.59341
777,57,26.2294,5.72723,-0.000482335,0.0316471,-0.011401,0.0352816,-0.00411678,-1.2622,0.0250065,0.0255073,2001,967,26.2293,-5.72721
784,57,26.2362,5.54474,0.000139362,0.0434539,-0.0163897,0.0489565,-0.00536325,-1.24688,0.0345644,0.0456942,2008,967,26.2363,-5.54474
791,57,26.1632,5.37885,0,0,0,0,0,0,0,-1,2015,967,26.1632,-5.37885
798,57,28.6433,4.41278,0.000648618,0.0772176,-0.0322139,0.0889675,-0.0111013,-1.22105,0.0633372,0.0492141,2022,967,28.6433,-4.41277
805,57,28.166,4.58246,-0.00061721,0.100112,-0.0438216,0.116507,-0.0170128,-1.21278,0.0839193,0.0490768,2029,967,28.166,-4.58244
812,57,0,0,0,0,0,0,0,0,0,-1,2036,967,0,0
-700,50,0,0,0,0,0,0,0,0,0,-1,524,974,0,0
-693,50,-15.7814,7.56903,0.0298106,-0.00490821,-0.0648339,0.0795688,-0.0546665,-0.654591,0.0779441,0.0432378,531,974,-15.7815,-7.569
-686,50,-15.3485,7.01331,0.0165824,-0.00345739,-0.0544599,0.0619364,-0.0488115,-0.694422,0.0640898,0.0440604,538,974,-15.3485,-7.01332
-679,50,-15.6642,6.37238,0,0,0,0,0,0,0,-1,545,974,-15.6642,-6.37239
-672,50,-15.857,5.71582,0,0,0,0,0,0,0,-1,552,974,-15.857,-5.71585
-665,50,-18.1328,3.81525,0,0,0,0,0,0,0,-1,559,974,-18.1328,-3.81523
-658,50,-18.3098,3.61194,0,0,0,0,0,0,0,-1,566,974,-18.3098,-3.61194
-651,50,-18.5154,3.33557,-0.00742371,0.00353089,-0.0162603,0.0152116,-0.0191044,-0.947855,0.0198548,0.0419491,573,974,-18.5154,-3.33559
-644,50,-18.746,2.87555,-0.00761976,0.00394318,-0.011621,0.0111414,-0.014818,-1.01622,0.0150377,0.0253594,580,974,-18.746,-2.87554
-637,50,-18.7805,2.8681,-0.00818043,0.00448267,-0.00763217,0.0080677,-0.0117655,-1.13166,0.0115168,0.0138441,587,974,-18.7805,-2.86808
-630,50,-18.813,2.81787,-0.00788881,0.00325805,-0.0056151,0.00559617,-0.0102269,-1.17624,0.00926495,0.00998321,594,974,-18.813,-2.81787
-623,50,-18.8064,2.72772,-0.00614187,0.00387806,-0.00351019,0.00498538,-0.00724919,-1.26522,0.00710382,0.00995897,601,974,-18.8064,-2.72774
-616,50,-18.7977,2.62976,-0.00575984,0.00357332,-0.00324052,0.00458811,-0.00677462,-1.26731,0.00660064,0.0105629,608,974,-18.7977,-2.62975
-609,50,-18.818,2.50177,-0.00551256,0.00341726,-0.00300057,0.00433183,-0.00642713,-1.27494,0.00625083,0.0111817,615,974,-18.818,-2.50176
-602,50,-18.8201,2.38464,-0.00524712,0.00248241,-0.00331204,0.00370744,-0.00647215,-1.21653,0.00594901,0.0108847,622,974,-18.8201,-2.38465
-595,50,-18.7956,2.28705,-0.00466034,0.00217255,-0.00373237,0.00381602,-0.0063038,-1.15602,0.00590124,0.0101112,629,974,-18.7956,-2.28707
-588,50,-18.8461,2.13702,-0.00418958,0.00189782,-0.00407023,0.00393653,-0.00622829,-1.10644,0.00591817,0.0135033,636,974,-18.8461,-2.13701
-581,50,-19.043,1.73517,-0.00404892,0.00179952,-0.00449651,0.00423904,-0.00648843,-1.0737,0.00623873,0.0225862,643,974,-19.043,-1.73519
-574,50,-19.149,1.38623,-0.00387146,0.00211178,-0.00488185,0.00484574,-0.00660542,-1.06029,0.0066373,0.0266851,650,974,-19.149,-1.3862
-567,50,-19.1461,1.22614,-0.00344052,0.0022619,-0.00502293,0.00518643,-0.00636506,-1.04354,0.00668082,0.0353617,657,974,-19.1461,-1.22612
-560,50,-19.0315,1.25598,-0.00261402,0.00254481,-0.00503366,0.00562146,-0.00569067,-1.02217,0.0065311,0.0418169,664,974,-19.0315,-1.25595
-553,50,-19.0635,1.32013,-0.00138207,0.00291178,-0.00497861,0.00618665,-0.00465694,-0.988966,0.00628128,0.0417202,671,974,-19.0635,-1.32013
-546,50,-19.0096,1.3949,0.000217378,0.00335912,-0.00492796,0.00696052,-0.00338402,-0.93969,0.00609025,0.0412771,678,974,-19.0096,-1.3949
-539,50,-18.7745,1.38141,0.00212128,0.00390818,-0.00500606,0.00809989,-0.00207043,-0.873706,0.00620628,0.0432494,685,974,-18.7745,-1.38143
-532,50,-18.925,1.3288,0.00385493,0.00475629,-0.00562226,0.0099459,-0.00133468,-0.825393,0.00711733,0.0437881,692,974,-18.9251,-1.32881
-525,50,-19.0654,1.28381,0.00415951,0.00613214,-0.00712261,0.0123364,-0.00204475,-0.854199,0.00898376,0.0427016,699,974,-19.0655,-1.28383
-518,50,0,0,0,0,0,0,0,0,0,-1,706,974,0,0
-511,50,0,0,0,0,0,0,0,0,0,-1,713,974,0,0
-504,50,0,0,0,0,0,0,0,0,0,-1,720,974,0,0
-497,50,0,0,0,0,0,0,0,0,0,-1,727,974,0,0
-490,50,0,0,0,0,0,0,0,0,0,-1,734,974,0,0
-483,50,0,0,0,0,0,0,0,0,0,-1,741,974,0,0
-476,50,0,0,0,0,0,0,0,0,0,-1,748,974,0,0
-469,50,0,0,0,0,0,0,0,0,0,-1,755,974,0,0
-462,50,0,0,0,0,0,0,0,0,0,-1,762,974,0,0
-455,50,0,0,0,0,0,0,0,0,0,-1,769,974,0,0
-448,50,0,0,0,0,0,0,0,0,0,-1,776,974,0,0
-441,50,0,0,0,0,0,0,0,0,0,-1,783,974,0,0
-434,50,0,0,0,0,0,0,0,0,0,-1,790,974,0,0
-427,50,0,0,0,0,0,0,0,0,0,-1,797,974,0,0
-420,50,0,0,0,0,0,0,0,0,0,-1,804,974,0,0
-413,50,0,0,0,0,0,0,0,0,0,-1,811,974,0,0
-406,50,0,0,0,0,0,0,0,0,0,-1,818,974,0,0
-399,50,0,0,0,0,0,0,0,0,0,-1,825,974,0,0
-392,50,0,0,0,0,0,0,0,0,0,-1,832,974,0,0
-385,50,0,0,0,0,0,0,0,0,0,-1,839,974,0,0
-378,50,0,0,0,0,0,0,0,0,0,-1,846,974,0,0
-371,50,0,0,0,0,0,0,0,0,0,-1,853,974,0,0
-364,50,0,0,0,0,0,0,0,0,0,-1,860,974,0,0
-357,50,0,0,0,0,0,0,0,0,0,-1,867,974,0,0
-350,50,0,0,0,0,0,0,0,0,0,-1,874,974,0,0
-343,50,0,0,0,0,0,0,0,0,0,-1,881,974,0,0
-336,50,0,0,0,0,0,0,0,0,0,-1,888,974,0,0
-329,50,0,0,0,0,0,0,0,0,0,-1,895,974,0,0
-322,50,0,0,0,0,0,0,0,0,0,-1,902,974,0,0
-315,50,0,0,0,0,0,0,0,0,0,-1,909,974,0,0
-308,50,0,0,0,0,0,0,0,0,0,-1,916,974,0,0
-301,50,0,0,0,0,0,0,0,0,0,-1,923,974,0,0
-294,50,0,0,0,0,0,0,0,0,0,-1,930,974,0,0
-287,50,0,0,0,0,0,0,0,0,0,-1,937,974,0,0
-280,50,0,0,0,0,0,0,0,0,0,-1,944,974,0,0
-273,50,0,0,0,0,0,0,0,0,0,-1,951,974,0,0
-266,50,0,0,0,0,0,0,0,0,0,-1,958,974,0,0
-259,50,0,0,0,0,0,0,0,0,0,-1,965,974,0,0
-252,50,0,0,0,0,0,0,0,0,0,-1,972,974,0,0
-245,50,0,0,0,0,0,0,0,0,0,-1,979,974,0,0
-238,50,0,0,0,0,0,0,0,0,0,-1,986,974,0,0
-231,50,0,0,0,0,0,0,0,0,0,-1,993,974,0,0
-224,50,0,0,0,0,0,0,0,0,0,-1,1000,974,0,0
-217,50,0,0,0,0,0,0,0,0,0,-1,1007,974,0,0
-210,50,0,0,0,0,0,0,0,0,0,-1,1014,974,0,0
-203,50,0,0,0,0,0,0,0,0,0,-1,1021,974,0,0
-196,50,0,0,0,0,0,0,0,0,0,-1,1028,974,0,0
-189,50,0,0,0,0,0,0,0,0,0,-1,1035,974,0,0
-182,50,0,0,0,0,0,0,0,0,0,-1,1042,974,0,0
-175,50,0,0,0,0,0,0,0,0,0,-1,1049,974,0,0
-168,50,0,0,0,0,0,0,0,0,0,-1,1056,974,0,0
-161,50,0,0,0,0,0,0,0,0,0,-1,1063,974,0,0
-154,50,0,0,0,0,0,0,0,0,0,-1,1070,974,0,0
-147,50,0,0,0,0,0,0,0,0,0,-1,1077,974,0,0
-140,50,0,0,0,0,0,0,0,0,0,-1,1084,974,0,0
-133,50,0,0,0,0,0,0,0,0,0,-1,1091,974,0,0
-126,50,0,0,0,0,0,0,0,0,0,-1,1098,974,0,0
-119,50,0,0,0,0,0,0,0,0,0,-1,1105,974,0,0
-112,50,0,0,0,0,0,0,0,0,0,-1,1112,974,0,0
-105,50,0,0,0,0,0,0,0,0,0,-1,1119,974,0,0
-98,50,0,0,0,0,0,0,0,0,0,-1,1126,974,0,0
-91,50,0,0,0,0,0,0,0,0,0,-1,1133,974,0,0
-84,50,0,0,0,0,0,0,0,0,0,-1,1140,974,0,0
-77,50,0,0,0,0,0,0,0,0,0,-1,1147,974,0,0
-70,50,0,0,0,0,0,0,0,0,0,-1,1154,974,0,0
-63,50,0,0,0,0,0,0,0,0,0,-1,1161,974,0,0
-56,50,0,0,0,0,0,0,0,0,0,-1,1168,974,0,0
-49,50,0,0,0,0,0,0,0,0,0,-1,1175,974,0,0
-42,50,0,0,0,0,0,0,0,0,0,-1,1182,974,0,0
-35,50,0,0,0,0,0,0,0,0,0,-1,1189,974,0,0
-28,50,0,0,0,0,0,0,0,0,0,-1,1196,974,0,0
-21,50,0,0,0,0,0,0,0,0,0,-1,1203,974,0,0
-14,50,0,0,0,0,0,0,0,0,0,-1,1210,974,0,0
-7,50,0,0,0,0,0,0,0,0,0,-1,1217,974,0,0
0,50,0,0,0,0,0,0,0,0,0,-1,1224,974,0,0
7,50,0,0,0,0,0,0,0,0,0,-1,1231,974,0,0
14,50,0,0,0,0,0,0,0,0,0,-1,1238,974,0,0
21,50,0,0,0,0,0,0,0,0,0,-1,1245,974,0,0
28,50,0,0,0,0,0,0,0,0,0,-1,1252,974,0,0
35,50,0,0,0,0,0,0,0,0,0,-1,1259,974,0,0
42,50,0,0,0,0,0,0,0,0,0,-1,1266,974,0,0
49,50,0,0,0,0,0,0,0,0,0,-1,1273,974,0,0
56,50,0,0,0,0,0,0,0,0,0,-1,1280,974,0,0
63,50,0,0,0,0,0,0,0,0,0,-1,1287,974,0,0
70,50,0,0,0,0,0,0,0,0,0,-1,1294,974,0,0
77,50,0,0,0,0,0,0,0,0,0,-1,1301,974,0,0
84,50,0,0,0,0,0,0,0,0,0,-1,1308,974,0,0
91,50,0,0,0,0,0,0,0,0,0,-1,1315,974,0,0
98,50,0,0,0,0,0,0,0,0,0,-1,1322,974,0,0
105,50,0,0,0,0,0,0,0,0,0,-1,1329,974,0,0
112,50,0,0,0,0,0,0,0,0,0,-1,1336,974,0,0
119,50,0,0,0,0,0,0,0,0,0,-1,1343,974,0,0
126,50,0,0,0,0,0,0,0,0,0,-1,1350,974,0,0
133,50,0,0,0,0,0,0,0,0,0,-1,1357,974,0,0
140,50,0,0,0,0,0,0,0,0,0,-1,1364,974,0,0
147,50,0,0,0,0,0,0,0,0,0,-1,1371,974,0,0
154,50,0,0,0,0,0,0,0,0,0,-1,1378,974,0,0
161,50,0,0,0,0,0,0,0,0,0,-1,1385,974,0,0
168,50,0,0,0,0,0,0,0,0,0,-1,1392,974,0,0
175,50,0,0,0,0,0,0,0,0,0,-1,1399,974,0,0
182,50,0,0,0,0,0,0,0,0,0,-1,1406,974,0,0
189,50,0,0,0,0,0,0,0,0,0,-1,1413,974,0,0
196,50,0,0,0,0,0,0,0,0,0,-1,1420,974,0,0
203,50,0,0,0,0,0,0,0,0,0,-1,1427,974,0,0
210,50,0,0,0,0,0,0,0,0,0,-1,1434,974,0,0
217,50,0,0,0,0,0,0,0,0,0,-1,1441,974,0,0
224,50,0,0,0,0,0,0,0,0,0,-1,1448,974,0,0
231,50,0,0,0,0,0,0,0,0,0,-1,1455,974,0,0
238,50,0,0,0,0,0,0,0,0,0,-1,1462,974,0,0
245,50,0,0,0,0,0,0,0,0,0,-1,1469,974,0,0
252,50,0,0,0,0,0,0,0,0,0,-1,1476,974,0,0
259,50,0,0,0,0,0,0,0,0,0,-1,1483,974,0,0
266,50,0,0,0,0,0,0,0,0,0,-1,1490,974,0,0
273,50,0,0,0,0,0,0,0,0,0,-1,1497,974,0,0
280,50,0,0,0,0,0,0,0,0,0,-1,1504,974,0,0
287,50,0,0,0,0,0,0,0,0,0,-1,1511,974,0,0
294,50,0,0,0,0,0,0,0,0,0,-1,1518,974,0,0
301,50,0,0,0,0,0,0,0,0,0,-1,1525,974,0,0
308,50,0,0,0,0,0,0,0,0,0,-1,1532,974,0,0
315,50,0,0,0,0,0,0,0,0,0,-1,1539,974,0,0
322,50,0,0,0,0,0,0,0,0,0,-1,1546,974,0,0
329,50,0,0,0,0,0,0,0,0,0,-1,1553,974,0,0
336,50,0,0,0,0,0,0,0,0,0,-1,1560,974,0,0
343,50,0,0,0,0,0,0,0,0,0,-1,1567,974,0,0
350,50,0,0,0,0,0,0,0,0,0,-1,1574,974,0,0
357,50,0,0,0,0,0,0,0,0,0,-1,1581,974,0,0
364,50,0,0,0,0,0,0,0,0,0,-1,1588,974,0,0
371,50,0,0,0,0,0,0,0,0,0,-1,1595,974,0,0
378,50,0,0,0,0,0,0,0,0,0,-1,1602,974,0,0
385,50,0,0,0,0,0,0,0,0,0,-1,1609,974,0,0
392,50,0,0,0,0,0,0,0,0,0,-1,1616,974,0,0
399,50,0,0,0,0,0,0,0,0,0,-1,1623,974,0,0
406,50,0,0,0,0,0,0,0,0,0,-1,1630,974,0,0
413,50,0,0,0,0,0,0,0,0,0,-1,1637,974,0,0
420,50,0,0,0,0,0,0,0,0,0,-1,1644,974,0,0
427,50,0,0,0,0,0,0,0,0,0,-1,1651,974,0,0
434,50,0,0,0,0,0,0,0,0,0,-1,1658,974,0,0
441,50,0,0,0,0,0,0,0,0,0,-1,1665,974,0,0
448,50,0,0,0,0,0,0,0,0,0,-1,1672,974,0,0
455,50,0,0,0,0,0,0,0,0,0,-1,1679,974,0,0
462,50,0,0,0,0,0,0,0,0,0,-1,1686,974,0,0
469,50,0,0,0,0,0,0,0,0,0,-1,1693,974,0,0
476,50,0,0,0,0,0,0,0,0,0,-1,1700,974,0,0
483,50,0,0,0,0,0,0,0,0,0,-1,1707,974,0,0
490,50,0,0,0,0,0,0,0,0,0,-1,1714,974,0,0
497,50,0,0,0,0,0,0,0,0,0,-1,1721,974,0,0
504,50,0,0,0,0,0,0,0,0,0,-1,1728,974,0,0
511,50,0,0,0,0,0,0,0,0,0,-1,1735,974,0,0
518,50,0,0,0,0,0,0,0,0,0,-1,1742,974,0,0
525,50,0,0,0,0,0,0,0,0,0,-1,1749,974,0,0
532,50,0,0,0,0,0,0,0,0,0,-1,1756,974,0,0
539,50,0,0,0,0,0,0,0,0,0,-1,1763,974,0,0
546,50,0,0,0,0,0,0,0,0,0,-1,1770,974,0,0
553,50,0,0,0,0,0,0,0,0,0,-1,1777,974,0,0
560,50,0,0,0,0,0,0,0,0,0,-1,1784,974,0,0
567,50,0,0,0,0,0,0,0,0,0,-1,1791,974,0,0
574,50,0,0,0,0,0,0,0,0,0,-1,1798,974,0,0
581,50,0,0,0,0,0,0,0,0,0,-1,1805,974,0,0
588,50,0,0,0,0,0,0,0,0,0,-1,1812,974,0,0
595,50,0,0,0,0,0,0,0,0,0,-1,1819,974,0,0
602,50,0,0,0,0,0,0,0,0,0,-1,1826,974,0,0
609,50,0,0,0,0,0,0,0,0,0,-1,1833,974,0,0
616,50,0,0,0,0,0,0,0,0,0,-1,1840,974,0,0
623,50,0,0,0,0,0,0,0,0,0,-1,1847,974,0,0
630,50,0,0,0,0,0,0,0,0,0,-1,1854,974,0,0
637,50,0,0,0,0,0,0,0,0,0,-1,1861,974,0,0
644,50,27.4502,3.50293,0.00648666,-0.000435384,-0.00324603,0.00777067,-0.0017194,-0.376677,0.00583859,0.0419001,1868,974,27.4502,-3.50293
651,50,27.4946,3.42352,0.00377722,7.32714e-05,-0.00214422,0.00475852,-0.000908036,-0.4292,0.00351435,0.0345544,1875,974,27.4946,-3.42351
658,50,27.5754,3.33691,0.00183083,0.000453828,-0.00115002,0.00248269,-0.000198036,-0.515672,0.00172493,0.0365729,1882,974,27.5754,-3.33694
665,50,27.8362,3.04034,0.00035353,0.000862203,-6.84505e-05,0.000871253,0.000344479,-1.43934,0.000506675,0.0418653,1889,974,27.8362,-3.04034
672,50,27.9617,3.25745,-0.000742824,0.00116758,0.00101628,0.0016071,-0.00118234,1.16261,0.0016167,0.0414774,1896,974,27.9616,-3.25744
679,50,27.4984,3.46375,-0.00151335,0.00124719,0.00190534,0.00221968,-0.00248584,1.09886,0.00271818,0.0382633,1903,974,27.4984,-3.46374
686,50,27.2203,3.40405,-0.00187611,0.0011602,0.00247758,0.00254776,-0.00326367,1.06027,0.00336371,0.0420873,1910,974,27.2203,-3.40405
693,50,27.364,3.27295,-0.00199811,0.000975099,0.00281628,0.00267305,-0.00369606,1.02824,0.00369299,0.0395363,1917,974,27.364,-3.27298
700,50,27.4926,3.42151,-0.00208724,0.000932795,0.00294607,0.00273329,-0.00388773,1.02222,0.00384196,0.0232692,1924,974,27.4925,-3.42148
707,50,27.5096,3.59674,-0.0021754,0.000912601,0.00291247,0.00266503,-0.00392782,1.02913,0.00382959,0.038254,1931,974,27.5096,-3.59673
714,50,27.4972,3.81842,0,0,0,0,0,0,0,-1,1938,974,27.4972,-3.8184
721,50,26.5717,4.58197,0,0,0,0,0,0,0,-1,1945,974,26.5717,-4.58197
728,50,26.5232,4.78906,-0.00248537,0.00124426,0.00199101,0.00210739,-0.00334849,1.16174,0.00317701,0.0221744,1952,974,26.5233,-4.78907
735,50,26.5591,4.92456,-0.00224959,0.00173389,0.00167635,0.00234544,-0.00286115,1.22098,0.00301094,0.0182286,1959,974,26.5591,-4.92454
742,50,26.5597,5.04285,-0.00183555,0.00321585,0.00112441,0.00345483,-0.00207453,1.36137,0.00322536,0.0145071,1966,974,26.5597,-5.04285
749,50,26.548,5.16235,-0.00175109,0.0055098,-0.000351773,0.0055268,-0.00176809,-1.5225,0.00439412,0.0157174,1973,974,26.548,-5.16236
756,50,26.5168,5.30902,-0.00167061,0.00918579,-0.00208915,0.00957394,-0.00205876,-1.3871,0.00716811,0.012338,1980,974,26.5169,-5.30899
763,50,26.4984,5.43646,-0.00101613,0.0143665,-0.00453704,0.0156049,-0.0022546,-1.30432,0.0112305,0.0122814,1987,974,26.4984,-5.43648
770,50,26.4543,5.53839,-9.82633e-05,0.0216272,-0.00753296,0.0239835,-0.00245463,-1.26763,0.0168669,0.0112182,1994,974,26.4543,-5.53838
777,50,26.395,5.65912,0.000968992,0.0307463,-0.0114144,0.0346183,-0.00290298,-1.24376,0.0241049,0.0209005,2001,974,26.3951,-5.65914
784,50,26.3435,5.79932,0.0020036,0.0420786,-0.0165436,0.0480255,-0.00394336,-1.22571,0.0334092,0.039132,2008,974,26.3435,-5.79929
791,50,26.3829,7.40656,0.00293839,0.0563168,-0.0234961,0.0651857,-0.00593052,-1.20987,0.0455628,0.0436669,2015,974,26.383,-7.40653
798,50,29.1592,3.50635,0.00354844,0.0738229,-0.0326929,0.08668,-0.0093086,-1.19611,0.0611262,0.0484802,2022,974,29.1591,-3.50635
805,50,28.689,3.69714,0.00304777,0.0948979,-0.0444686,0.112899,-0.0149535,-1.18615,0.0807136,0.0457558,2029,974,28.689,-3.69715
812,50,0,0,0,0,0,0,0,0,0,-1,2036,974,0,0
-700,43,0,0,0,0,0,0,0,0,0,-1,524,981,0,0
-693,43,-14.4922,7.6319,0.0264851,0.00145115,-0.0570021,0.0723283,-0.0443921,-0.67732,0.0680289,0.0430916,531,981,-14.4923,-7.63189
-686,43,-14.3103,7.08661,0.0137273,0.00259396,-0.0480366,0.0565187,-0.0401974,-0.727713,0.0561035,0.0463742,538,981,-14.3103,-7.08664
-679,43,-21.593,5.48718,0.00503879,0.00372016,-0.0396836,0.0440686,-0.0353096,-0.777092,0.0459219,0.0442822,545,981,-21.593,-5.4872
-672,43,-20.0843,4.96906,0,0,0,0,0,0,0,-1,552,981,-20.0843,-4.96906
-665,43,-19.546,4.28345,0,0,0,0,0,0,0,-1,559,981,-19.546,-4.28348
-658,43,-18.3594,3.55286,0,0,0,0,0,0,0,-1,566,981,-18.3594,-3.55288
-651,43,-18.6138,3.23505,-0.00761637,0.00605797,-0.0145143,0.0152649,-0.0168233,-1.00551,0.0185334,0.0390203,573,981,-18.6138,-3.23503
-644,43,-18.8939,2.888,-0.00749243,0.00584592,-0.0104728,0.0115928,-0.0132393,-1.06892,0.0143473,0.0190371,580,981,-18.8939,-2.88801
-637,43,-18.9058,2.82996,-0.00792807,0.0059903,-0.00699107,0.00889546,-0.0108332,-1.17695,0.0114087,0.0133057,587,981,-18.9058,-2.82999
-630,43,-18.9076,2.76654,-0.0075423,0.00434564,-0.00542585,0.00644969,-0.00964635,-1.20087,0.00935394,0.0123844,594,981,-18.9076,-2.76657
-623,43,-18.9108,2.68842,-0.0055074,0.00458043,-0.00365093,0.0057631,-0.00669007,-1.25753,0.00719648,0.0114675,601,981,-18.9108,-2.68843
-616,43,-18.9068,2.58044,-0.00479483,0.00391411,-0.00366429,0.00525072,-0.00613145,-1.22103,0.00657805,0.0109028,608,981,-18.9068,-2.58047
-609,43,-18.9166,2.48248,-0.00451813,0.00365252,-0.00359421,0.00500854,-0.00587415,-1.21003,0.00628975,0.0139598,615,981,-18.9166,-2.48251
-602,43,-18.9039,2.40942,-0.00424272,0.002608,-0.00392385,0.00439125,-0.00602598,-1.14423,0.00603903,0.0155818,622,981,-18.9039,-2.40943
-595,43,-18.8893,2.32227,-0.00365874,0.00224249,-0.00435613,0.00455324,-0.00596949,-1.08308,0.00609362,0.0130732,629,981,-18.8893,-2.32226
-588,43,-18.8947,2.07813,-0.00317548,0.00192283,-0.00467071,0.00469474,-0.00594739,-1.0352,0.00615841,0.0146937,636,981,-18.8947,-2.07815
-581,43,-19.0466,1.64301,-0.00297948,0.00172194,-0.00504386,0.00493598,-0.00619351,-1.00346,0.00643927,0.0221475,643,981,-19.0465,-1.64298
-574,43,-19.1372,1.40503,-0.00276305,0.00193892,-0.00536351,0.00544408,-0.00626821,-0.991951,0.00676767,0.0278058,650,981,-19.1372,-1.405
-567,43,-19.0922,1.21796,-0.00233178,0.00197276,-0.00537187,0.00560748,-0.0059665,-0.975934,0.00668331,0.0373307,657,981,-19.0922,-1.21794
-560,43,-18.9196,1.36353,-0.00154111,0.00209894,-0.00523113,0.00581762,-0.00525978,-0.952809,0.00639824,0.0417381,664,981,-18.9196,-1.36353
-553,43,-18.8694,1.37561,-0.000391262,0.00228784,-0.00502203,0.00614591,-0.00424933,-0.915731,0.00603489,0.0434272,671,981,-18.8695,-1.3756
-546,43,-18.8964,1.14642,0.00109216,0.00254469,-0.00484156,0.00671416,-0.00307731,-0.859846,0.00578163,0.0454112,678,981,-18.8964,-1.14645
-539,43,-18.7238,1.37036,0.00286061,0.00292371,-0.00487355,0.00776581,-0.00198149,-0.788635,0.00594874,0.0470686,685,981,-18.7238,-1.37038
-532,43,-18.7193,1.31805,0.00439567,0.00371873,-0.00566001,0.00972732,-0.00161292,-0.755534,0.00708399,0.0469138,692,981,-18.7193,-1.31805
-525,43,-18.6768,1.04669,0.00454812,0.00516825,-0.00755813,0.0124227,-0.00270631,-0.805899,0.00931585,0.047343,699,981,-18.6768,-1.04669
-518,43,0,0,0,0,0,0,0,0,0,-1,706,981,0,0
-511,43,0,0,0,0,0,0,0,0,0,-1,713,981,0,0
-504,43,0,0,0,0,0,0,0,0,0,-1,720,981,0,0
-497,43,0,0,0,0,0,0,0,0,0,-1,727,981,0,0
-490,43,0,0,0,0,0,0,0,0,0,-1,734,981,0,0
-483,43,0,0,0,0,0,0,0,0,0,-1,741,981,0,0
-476,43,0,0,0,0,0,0,0,0,0,-1,748,981,0,0
-469,43,0,0,0,0,0,0,0,0,0,-1,755,981,0,0
-462,43,0,0,0,0,0,0,0,0,0,-1,762,981,0,0
-455,43,0,0,0,0,0,0,0,0,0,-1,769,981,0,0
-448,43,0,0,0,0,0,0,0,0,0,-1,776,981,0,0
-441,43,0,0,0,0,0,0,0,0,0,-1,783,981,0,0
-434,43,0,0,0,0,0,0,0,0,0,-1,790,981,0,0
-427,43,0,0,0,0,0,0,0,0,0,-1,797,981,0,0
-420,43,0,0,0,0,0,0,0,0,0,-1,804,981,0,0
-413,43,0,0,0,0,0,0,0,0,0,-1,811,981,0,0
-406,43,0,0,0,0,0,0,0,0,0,-1,818,981,0,0
-399,43,0,0,0,0,0,0,0,0,0,-1,825,981,0,0
-392,43,0,0,0,0,0,0,0,0,0,-1,832,981,0,0
-385,43,0,0,0,0,0,0,0,0,0,-1,839,981,0,0
-378,43,0,0,0,0,0,0,0,0,0,-1,846,981,0,0
-371,43,0,0,0,0,0,0,0,0,0,-1,853,981,0,0
-364,43,0,0,0,0,0,0,0,0,0,-1,860,981,0,0
-357,43,0,0,0,0,0,0,0,0,0,-1,867,981,0,0
-350,43,0,0,0,0,0,0,0,0,0,-1,874,981,0,0
-343,43,0,0,0,0,0,0,0,0,0,-1,881,981,0,0
-336,43,0,0,0,0,0,0,0,0,0,-1,888,981,0,0
-329,43,0,0,0,0,0,0,0,0,0,-1,895,981,0,0
-322,43,0,0,0,0,0,0,0,0,0,-1,902,981,0,0
-315,43,0,0,0,0,0,0,0,0,0,-1,909,981,0,0
-308,43,0,0,0,0,0,0,0,0,0,-1,916,981,0,0
-301,43,0,0,0,0,0,0,0,0,0,-1,923,981,0,0
-294,43,0,0,0,0,0,0,0,0,0,-1,930,981,0,0
-287,43,0,0,0,0,0,0,0,0,0,-1,937,981,0,0
-280,43,0,0,0,0,0,0,0,0,0,-1,944,981,0,0
-273,43,0,0,0,0,0,0,0,0,0,-1,951,981,0,0
-266,43,0,0,0,0,0,0,0,0,0,-1,958,981,0,0
-259,43,0,0,0,0,0,0,0,0,0,-1,965,981,0,0
-252,43,0,0,0,0,0,0,0,0,0,-1,972,981,0,0
-245,43,0,0,0,0,0,0,0,0,0,-1,979,981,0,0
-238,43,0,0,0,0,0,0,0,0,0,-1,986,981,0,0
-231,43,0,0,0,0,0,0,0,0,0,-1,993,981,0,0
-224,43,0,0,0,0,0,0,0,0,0,-1,1000,981,0,0
-217,43,0,0,0,0,0,0,0,0,0,-1,1007,981,0,0
-210,43,0,0,0,0,0,0,0,0,0,-1,1014,981,0,0
-203,43,0,0,0,0,0,0,0,0,0,-1,1021,981,0,0
-196,43,0,0,0,0,0,0,0,0,0,-1,1028,981,0,0
-189,43,0,0,0,0,0,0,0,0,0,-1,1035,981,0,0
-182,43,0,0,0,0,0,0,0,0,0,-1,1042,981,0,0
-175,43,0,0,0,0,0,0,0,0,0,-1,1049,981,0,0
-168,43,0,0,0,0,0,0,0,0,0,-1,1056,981,0,0
-161,43,0,0,0,0,0,0,0,0,0,-1,1063,981,0,0
-154,43,0,0,0,0,0,0,0,0,0,-1,1070,981,0,0
-147,43,0,0,0,0,0,0,0,0,0,-1,1077,981,0,0
-140,43,0,0,0,0,0,0,0,0,0,-1,1084,981,0,0
-133,43,0,0,0,0,0,0,0,0,0,-1,1091,981,0,0
-126,43,0,0,0,0,0,0,0,0,0,-1,1098,981,0,0
-119,43,0,0,0,0,0,0,0,0,0,-1,1105,981,0,0
-112,43,0,0,0,0,0,0,0,0,0,-1,1112,981,0,0
-105,43,0,0,0,0,0,0,0,0,0,-1,1119,981,0,0
-98,43,0,0,0,0,0,0,0,0,0,-1,1126,981,0,0
-91,43,0,0,0,0,0,0,0,0,0,-1,1133,981,0,0
-84,43,0,0,0,0,0,0,0,0,0,-1,1140,981,0,0
-77,43,0,0,0,0,0,0,0,0,0,-1,1147,981,0,0
-70,43,0,0,0,0,0,0,0,0,0,-1,1154,981,0,0
-63,43,0,0,0,0,0,0,0,0,0,-1,1161,981,0,0
-56,43,0,0,0,0,0,0,0,0,0,-1,1168,981,0,0
-49,43,0,0,0,0,0,0,0,0,0,-1,1175,981,0,0
-42,43,0,0,0,0,0,0,0,0,0,-1,1182,981,0,0
-35,43,0,0,0,0,0,0,0,0,0,-1,1189,981,0,0
-28,43,0,0,0,0,0,0,0,0,0,-1,1196,981,0,0
-21,43,0,0,0,0,0,0,0,0,0,-1,1203,981,0,0
-14,43,0,0,0,0,0,0,0,0,0,-1,1210,981,0,0
-7,43,0,0,0,0,0,0,0,0,0,-1,1217,981,0,0
0,43,0,0,0,0,0,0,0,0,0,-1,1224,981,0,0
7,43,0,0,0,0,0,0,0,0,0,-1,1231,981,0,0
14,43,0,0,0,0,0,0,0,0,0,-1,1238,981,0,0
21,43,0,0,0,0,0,0,0,0,0,-1,1245,981,0,0
28,43,0,0,0,0,0,0,0,0,0,-1,1252,981,0,0
35,43,0,0,0,0,0,0,0,0,0,-1,1259,981,0,0
42,43,0,0,0,0,0,0,0,0,0,-1,1266,981,0,0
49,43,0,0,0,0,0,0,0,0,0,-1,1273,981,0,0
56,43,0,0,0,0,0,0,0,0,0,-1,1280,981,0,0
63,43,0,0,0,0,0,0,0,0,0,-1,1287,981,0,0
70,43,0,0,0,0,0,0,0,0,0,-1,1294,981,0,0
77,43,0,0,0,0,0,0,0,0,0,-1,1301,981,0,0
84,43,0,0,0,0,0,0,0,0,0,-1,1308,981,0,0
91,43,0,0,0,0,0,0,0,0,0,-1,1315,981,0,0
98,43,0,0,0,0,0,0,0,0,0,-1,1322,981,0,0
105,43,0,0,0,0,0,0,0,0,0,-1,1329,981,0,0
112,43,0,0,0,0,0,0,0,0,0,-1,1336,981,0,0
119,43,0,0,0,0,0,0,0,0,0,-1,1343,981,0,0
126,43,0,0,0,0,0,0,0,0,0,-1,1350,981,0,0
133,43,0,0,0,0,0,0,0,0,0,-1,1357,981,0,0
140,43,0,0,0,0,0,0,0,0,0,-1,1364,981,0,0
147,43,0,0,0,0,0,0,0,0,0,-1,1371,981,0,0
154,43,0,0,0,0,0,0,0,0,0,-1,1378,981,0,0
161,43,0,0,0,0,0,0,0,0,0,-1,1385,981,0,0
168,43,0,0,0,0,0,0,0,0,0,-1,1392,981,0,0
175,43,0,0,0,0,0,0,0,0,0,-1,1399,981,0,0
182,43,0,0,0,0,0,0,0,0,0,-1,1406,981,0,0
189,43,0,0,0,0,0,0,0,0,0,-1,1413,981,0,0
196,43,0,0,0,0,0,0,0,0,0,-1,1420,981,0,0
203,43,0,0,0,0,0,0,0,0,0,-1,1427,981,0,0
210,43,0,0,0,0,0,0,0,0,0,-1,1434,981,0,0
217,43,0,0,0,0,0,0,0,0,0,-1,1441,981,0,0
224,43,0,0,0,0,0,0,0,0,0,-1,1448,981,0,0
231,43,0,0,0,0,0,0,0,0,0,-1,1455,981,0,0
238,43,0,0,0,0,0,0,0,0,0,-1,1462,981,0,0
245,43,0,0,0,0,0,0,0,0,0,-1,1469,981,0,0
252,43,0,0,0,0,0,0,0,0,0,-1,1476,981,0,0
259,43,0,0,0,0,0,0,0,0,0,-1,1483,981,0,0
266,43,0,0,0,0,0,0,0,0,0,-1,1490,981,0,0
273,43,0,0,0,0,0,0,0,0,0,-1,1497,981,0,0
280,43,0,0,0,0,0,0,0,0,0,-1,1504,981,0,0
287,43,0,0,0,0,0,0,0,0,0,-1,1511,981,0,0
294,43,0,0,0,0,0,0,0,0,0,-1,1518,981,0,0
301,43,0,0,0,0,0,0,0,0,0,-1,1525,981,0,0
308,43,0,0,0,0,0,0,0,0,0,-1,1532,981,0,0
315,43,0,0,0,0,0,0,0,0,0,-1,1539,981,0,0
322,43,0,0,0,0,0,0,0,0,0,-1,1546,981,0,0
329,43,0,0,0,0,0,0,0,0,0,-1,1553,981,0,0
336,43,0,0,0,0,0,0,0,0,0,-1,1560,981,0,0
343,43,0,0,0,0,0,0,0,0,0,-1,1567,981,0,0
350,43,0,0,0,0,0,0,0,0,0,-1,1574,981,0,0
357,43,0,0,0,0,0,0,0,0,0,-1,1581,981,0,0
364,43,0,0,0,0,0,0,0,0,0,-1,1588,981,0,0
371,43,0,0,0,0,0,0,0,0,0,-1,1595,981,0,0
378,43,0,0,0,0,0,0,0,0,0,-1,1602,981,0,0
385,43,0,0,0,0,0,0,0,0,0,-1,1609,981,0,0
392,43,0,0,0,0,0,0,0,0,0,-1,1616,981,0,0
399,43,0,0,0,0,0,0,0,0,0,-1,1623,981,0,0
406,43,0,0,0,0,0,0,0,0,0,-1,1630,981,0,0
413,43,0,0,0,0,0,0,0,0,0,-1,1637,981,0,0
420,43,0,0,0,0,0,0,0,0,0,-1,1644,981,0,0
427,43,0,0,0,0,0,0,0,0,0,-1,1651,981,0,0
434,43,0,0,0,0,0,0,0,0,0,-1,1658,981,0,0
441,43,0,0,0,0,0,0,0,0,0,-1,1665,981,0,0
448,43,0,0,0,0,0,0,0,0,0,-1,1672,981,0,0
455,43,0,0,0,0,0,0,0,0,0,-1,1679,981,0,0
462,43,0,0,0,0,0,0,0,0,0,-1,1686,981,0,0
469,43,0,0,0,0,0,0,0,0,0,-1,1693,981,0,0
476,43,0,0,0,0,0,0,0,0,0,-1,1700,981,0,0
483,43,0,0,0,0,0,0,0,0,0,-1,1707,981,0,0
490,43,0,0,0,0,0,0,0,0,0,-1,1714,981,0,0
497,43,0,0,0,0,0,0,0,0,0,-1,1721,981,0,0
504,43,0,0,0,0,0,0,0,0,0,-1,1728,981,0,0
511,43,0,0,0,0,0,0,0,0,0,-1,1735,981,0,0
518,43,0,0,0,0,0,0,0,0,0,-1,1742,981,0,0
525,43,0,0,0,0,0,0,0,0,0,-1,1749,981,0,0
532,43,0,0,0,0,0,0,0,0,0,-1,1756,981,0,0
539,43,0,0,0,0,0,0,0,0,0,-1,1763,981,0,0
546,43,0,0,0,0,0,0,0,0,0,-1,1770,981,0,0
553,43,0,0,0,0,0,0,0,0,0,-1,1777,981,0,0
560,43,0,0,0,0,0,0,0,0,0,-1,1784,981,0,0
567,43,0,0,0,0,0,0,0,0,0,-1,1791,981,0,0
574,43,0,0,0,0,0,0,0,0,0,-1,1798,981,0,0
581,43,0,0,0,0,0,0,0,0,0,-1,1805,981,0,0
588,43,0,0,0,0,0,0,0,0,0,-1,1812,981,0,0
595,43,0,0,0,0,0,0,0,0,0,-1,1819,981,0,0
602,43,0,0,0,0,0,0,0,0,0,-1,1826,981,0,0
609,43,0,0,0,0,0,0,0,0,0,-1,1833,981,0,0
616,43,0,0,0,0,0,0,0,0,0,-1,1840,981,0,0
623,43,0,0,0,0,0,0,0,0,0,-1,1847,981,0,0
630,43,0,0,0,0,0,0,0,0,0,-1,1854,981,0,0
637,43,0,0,0,0,0,0,0,0,0,-1,1861,981,0,0
644,43,27.5299,3.46875,0.00595448,-0.00146798,-0.00346734,0.0073222,-0.00283569,-0.375719,0.00605234,0.0412956,1868,981,27.5298,-3.46875
651,43,27.5352,3.46112,0.00347686,-0.000705106,-0.00237404,0.00454946,-0.00177771,-0.424354,0.00376802,0.0415437,1875,981,27.5351,-3.4611
658,43,27.5824,3.30676,0.00170643,-0.000166994,-0.00140395,0.00245747,-0.000918035,-0.491213,0.00201527,0.0391998,1882,981,27.5824,-3.30678
665,43,27.6276,3.03369,0.000358427,0.00035786,-0.00034576,0.000703903,1.23834e-05,-0.784989,0.000465196,0.0378507,1889,981,27.6275,-3.03368
672,43,27.6576,3.16461,-0.000672651,0.000764294,0.000804775,0.00112465,-0.001033,1.1498,0.00124609,0.0371644,1896,981,27.6576,-3.16459
679,43,27.5643,3.3241,-0.00146975,0.000909962,0.00184168,0.00191272,-0.00247251,1.0722,0.00253868,0.0366588,1903,981,27.5643,-3.32411
686,43,27.3824,3.42096,-0.00187639,0.000866968,0.00256133,0.00240078,-0.00341021,1.03123,0.00337181,0.0386979,1910,981,27.3825,-3.42095
693,43,27.4531,3.41003,-0.00201579,0.000714273,0.00303081,0.00267326,-0.00397478,0.996985,0.00386269,0.0387406,1917,981,27.4531,-3.41005
700,43,27.4897,3.4375,-0.00212003,0.00069665,0.00325806,0.00283773,-0.00426111,0.989401,0.00412589,0.0336251,1924,981,27.4897,-3.4375
707,43,27.5322,3.46899,-0.00225422,0.000668431,0.00332878,0.00284253,-0.00442831,0.992231,0.00423097,0.0319127,1931,981,27.5322,-3.46898
714,43,27.5365,3.6745,-0.00252173,0.000708559,0.00322347,0.00269889,-0.00451206,1.01764,0.00420689,0.0412411,1938,981,27.5365,-3.67448
721,43,26.9523,4.57172,0,0,0,0,0,0,0,-1,1945,981,26.9523,-4.57174
728,43,26.8031,4.76093,-0.00264653,0.00102126,0.00255595,0.00233316,-0.00395843,1.09659,0.00367263,0.0213533,1952,981,26.803,-4.76093
735,43,26.6877,4.92615,-0.00238971,0.00149765,0.00229673,0.00256277,-0.00345482,1.13656,0.00348696,0.0127734,1959,981,26.6878,-4.92615
742,43,26.6854,5.02557,-0.00188905,0.0029613,0.00180068,0.00355671,-0.00248446,1.25146,0.00350613,0.0151316,1966,981,26.6854,-5.02556
749,43,26.6757,5.14276,-0.0016822,0.00513608,0.000371497,0.00515626,-0.00170239,1.51653,0.00412381,0.0180276,1973,981,26.6756,-5.14279
756,43,26.6718,5.26239,-0.00147541,0.00872552,-0.00135985,0.00890368,-0.00165357,-1.44052,0.00655686,0.0174962,1980,981,26.6717,-5.2624
763,43,26.6595,5.35883,-0.000616904,0.0137896,-0.00384965,0.0147538,-0.00158106,-1.32539,0.010403,0.0209089,1987,981,26.6595,-5.3588
770,43,26.5879,5.49152,0.000612922,0.0209525,-0.00687645,0.0230591,-0.00149369,-1.27352,0.0158941,0.0169357,1994,981,26.5879,-5.49153
777,43,26.5161,5.63818,0.00205151,0.0299175,-0.0107488,0.0335818,-0.0016128,-1.24225,0.0229444,0.0200664,2001,981,26.5161,-5.63821
784,43,26.5807,6.22284,0.00348638,0.0409324,-0.015809,0.046714,-0.00229519,-1.22019,0.0319352,0.0390686,2008,981,26.5806,-6.22283
791,43,26.6926,6.9184,0.00494287,0.0546821,-0.0226885,0.0634765,-0.00385153,-1.20101,0.0436582,0.0453174,2015,981,26.6926,-6.91837
798,43,26.7424,7.47345,0,0,0,0,0,0,0,-1,2022,981,26.7424,-7.47344
805,43,29.1997,2.92047,0,0,0,0,0,0,0,-1,2029,981,29.1996,-2.92045
812,43,28.7935,3.17651,0,0,0,0,0,0,0,-1,2036,981,28.7935,-3.17654
-700,36,0,0,0,0,0,0,0,0,0,-1,524,988,0,0
-693,36,-13.3252,7.81104,0,0,0,0,0,0,0,-1,531,988,-13.3252,-7.81106
-686,36,-21.7402,6.36169,0.0116213,0.00424323,-0.0410628,0.0491604,-0.0332959,-0.740599,0.047899,0.0461949,538,988,-21.7402,-6.36169
-679,36,-20.7642,5.81158,0.00390382,0.00580152,-0.0340935,0.0389594,-0.0292541,-0.79931,0.0395157,0.0445107,545,988,-20.7642,-5.8116
-672,36,-19.652,5.16241,0,0,0,0,0,0,0,-1,552,988,-19.652,-5.16239
-665,36,-19.1395,4.47192,-0.00437625,0.00759825,-0.0219532,0.024366,-0.021144,-0.918525,0.0262971,0.0461587,559,988,-19.1395,-4.47192
-658,36,-18.7878,3.70282,-0.00610889,0.0078516,-0.0169349,0.0191884,-0.0174457,-0.98088,0.0211587,0.0464826,566,988,-18.7878,-3.7028
-651,36,-18.7668,3.1781,-0.00669975,0.00766239,-0.0126651,0.0150406,-0.014078,-1.0433,0.0168147,0.0358561,573,988,-18.7668,-3.17812
-644,36,-19.0167,2.83917,-0.00644815,0.0071492,-0.00925728,0.0118361,-0.0111351,-1.10212,0.0132645,0.0197799,580,988,-19.0167,-2.83915
-637,36,-19.0279,2.7868,-0.00686234,0.0071031,-0.00635607,0.00956273,-0.00932197,-1.20157,0.0109034,0.01525,587,988,-19.0279,-2.78679
-630,36,-19.0123,2.73669,-0.00650234,0.00529065,-0.0052508,0.0072897,-0.00850139,-1.20703,0.00912593,0.0132574,594,988,-19.0123,-2.73669
-623,36,-19.0182,2.66278,-0.00440619,0.00523262,-0.00380852,0.00655581,-0.00572938,-1.23641,0.00709821,0.012447,601,988,-19.0182,-2.6628
-616,36,-19.0028,2.56921,-0.00355996,0.00421697,-0.00408413,0.00596767,-0.00531067,-1.16583,0.00651523,0.0102741,608,988,-19.0028,-2.56924
-609,36,-18.9899,2.49829,-0.00337886,0.00376182,-0.00422155,0.00572039,-0.00533743,-1.13641,0.00638551,0.015652,615,988,-18.9899,-2.49831
-602,36,-18.981,2.42328,-0.00315127,0.00262841,-0.00455111,0.00512965,-0.00565251,-1.06827,0.00622752,0.021284,622,988,-18.981,-2.4233
-595,36,-18.9576,2.33392,-0.00262202,0.00212145,-0.00499221,0.00527667,-0.00577724,-1.00716,0.00638416,0.0215478,629,988,-18.9576,-2.33392
-588,36,-18.9807,2.01495,-0.00214998,0.00172755,-0.00527598,0.00540971,-0.00583214,-0.961474,0.00649201,0.0214931,636,988,-18.9807,-2.01495
-581,36,-19.0672,1.54584,-0.00190438,0.00140823,-0.00557797,0.00557062,-0.00606676,-0.92972,0.00672088,0.0248487,643,988,-19.0672,-1.54585
-574,36,-19.0862,1.33136,-0.00166724,0.00150131,-0.00580964,0.00593882,-0.00610474,-0.918511,0.00695357,0.0270833,650,988,-19.0862,-1.33138
-567,36,-19.1074,1.25531,-0.00126691,0.00141537,-0.00567893,0.00590938,-0.00576092,-0.901354,0.00673803,0.035284,657,988,-19.1074,-1.2553
-560,36,-19.0771,1.39673,-0.000557705,0.00140722,-0.00537332,0.00588716,-0.00503764,-0.87582,0.00631379,0.0413059,664,988,-19.0771,-1.39675
-553,36,-19.2278,1.18219,0.000463928,0.00146034,-0.00499529,0.0059822,-0.00405794,-0.835101,0.00583206,0.045017,671,988,-19.2278,-1.18219
-546,36,-19.1412,0.89325,0.00178996,0.00158627,-0.00466601,0.00635524,-0.002979,-0.774486,0.00550538,0.0472386,678,988,-19.1413,-0.893247
-539,36,-18.9507,1.14819,0.00339273,0.00187602,-0.00464087,0.0073368,-0.00206804,-0.70441,0.00570684,0.0475273,685,988,-18.9507,-1.14818
-532,36,-18.6798,1.12708,0.00475969,0.0027038,-0.00561545,0.0094405,-0.00197701,-0.694872,0.00704575,0.047582,692,988,-18.6798,-1.12709
-525,36,-18.7587,0.786987,0.00490808,0.0042584,-0.00786801,0.012458,-0.00329147,-0.764767,0.00959257,0.0491316,699,988,-18.7587,-0.787003
-518,36,0,0,0,0,0,0,0,0,0,-1,706,988,0,0
-511,36,0,0,0,0,0,0,0,0,0,-1,713,988,0,0
-504,36,0,0,0,0,0,0,0,0,0,-1,720,988,0,0
-497,36,0,0,0,0,0,0,0,0,0,-1,727,988,0,0
-490,36,0,0,0,0,0,0,0,0,0,-1,734,988,0,0
-483,36,0,0,0,0,0,0,0,0,0,-1,741,988,0,0
-476,36,0,0,0,0,0,0,0,0,0,-1,748,988,0,0
-469,36,0,0,0,0,0,0,0,0,0,-1,755,988,0,0
-462,36,0,0,0,0,0,0,0,0,0,-1,762,988,0,0
-455,36,0,0,0,0,0,0,0,0,0,-1,769,988,0,0
-448,36,0,0,0,0,0,0,0,0,0,-1,776,988,0,0
-441,36,0,0,0,0,0,0,0,0,0,-1,783,988,0,0
-434,36,0,0,0,0,0,0,0,0,0,-1,790,988,0,0
-427,36,0,0,0,0,0,0,0,0,0,-1,797,988,0,0
-420,36,0,0,0,0,0,0,0,0,0,-1,804,988,0,0
-413,36,0,0,0,0,0,0,0,0,0,-1,811,988,0,0
-406,36,0,0,0,0,0,0,0,0,0,-1,818,988,0,0
-399,36,0,0,0,0,0,0,0,0,0,-1,825,988,0,0
-392,36,0,0,0,0,0,0,0,0,0,-1,832,988,0,0
-385,36,0,0,0,0,0,0,0,0,0,-1,839,988,0,0
-378,36,0,0,0,0,0,0,0,0,0,-1,846,988,0,0
-371,36,0,0,0,0,0,0,0,0,0,-1,853,988,0,0
-364,36,0,0,0,0,0,0,0,0,0,-1,860,988,0,0
-357,36,0,0,0,0,0,0,0,0,0,-1,867,988,0,0
-350,36,0,0,0,0,0,0,0,0,0,-1,874,988,0,0
-343,36,0,0,0,0,0,0,0,0,0,-1,881,988,0,0
-336,36,0,0,0,0,0,0,0,0,0,-1,888,988,0,0
-329,36,0,0,0,0,0,0,0,0,0,-1,895,988,0,0
-322,36,0,0,0,0,0,0,0,0,0,-1,902,988,0,0
-315,36,0,0,0,0,0,0,0,0,0,-1,909,988,0,0
-308,36,0,0,0,0,0,0,0,0,0,-1,916,988,0,0
-301,36,0,0,0,0,0,0,0,0,0,-1,923,988,0,0
-294,36,0,0,0,0,0,0,0,0,0,-1,930,988,0,0
-287,36,0,0,0,0,0,0,0,0,0,-1,937,988,0,0
-280,36,0,0,0,0,0,0,0,0,0,-1,944,988,0,0
-273,36,0,0,0,0,0,0,0,0,0,-1,951,988,0,0
-266,36,0,0,0,0,0,0,0,0,0,-1,958,988,0,0
-259,36,0,0,0,0,0,0,0,0,0,-1,965,988,0,0
-252,36,0,0,0,0,0,0,0,0,0,-1,972,988,0,0
-245,36,0,0,0,0,0,0,0,0,0,-1,979,988,0,0
-238,36,0,0,0,0,0,0,0,0,0,-1,986,988,0,0
-231,36,0,0,0,0,0,0,0,0,0,-1,993,988,0,0
-224,36,0,0,0,0,0,0,0,0,0,-1,1000,988,0,0
-217,36,0,0,0,0,0,0,0,0,0,-1,1007,988,0,0
-210,36,0,0,0,0,0,0,0,0,0,-1,1014,988,0,0
-203,36,0,0,0,0,0,0,0,0,0,-1,1021,988,0,0
-196,36,0,0,0,0,0,0,0,0,0,-1,1028,988,0,0
-189,36,0,0,0,0,0,0,0,0,0,-1,1035,988,0,0
-182,36,0,0,0,0,0,0,0,0,0,-1,1042,988,0,0
-175,36,0,0,0,0,0,0,0,0,0,-1,1049,988,0,0
-168,36,0,0,0,0,0,0,0,0,0,-1,1056,988,0,0
-161,36,0,0,0,0,0,0,0,0,0,-1,1063,988,0,0
-154,36,0,0,0,0,0,0,0,0,0,-1,1070,988,0,0
-147,36,0,0,0,0,0,0,0,0,0,-1,1077,988,0,0
-140,36,0,0,0,0,0,0,0,0,0,-1,1084,988,0,0
-133,36,0,0,0,0,0,0,0,0,0,-1,1091,988,0,0
-126,36,0,0,0,0,0,0,0,0,0,-1,1098,988,0,0
-119,36,0,0,0,0,0,0,0,0,0,-1,1105,988,0,0
-112,36,0,0,0,0,0,0,0,0,0,-1,1112,988,0,0
-105,36,0,0,0,0,0,0,0,0,0,-1,1119,988,0,0
-98,36,0,0,0,0,0,0,0,0,0,-1,1126,988,0,0
-91,36,0,0,0,0,0,0,0,0,0,-1,1133,988,0,0
-84,36,0,0,0,0,0,0,0,0,0,-1,1140,988,0,0
-77,36,0,0,0,0,0,0,0,0,0,-1,1147,988,0,0
-70,36,0,0,0,0,0,0,0,0,0,-1,1154,988,0,0
-63,36,0,0,0,0,0,0,0,0,0,-1,1161,988,0,0
-56,36,0,0,0,0,0,0,0,0,0,-1,1168,988,0,0
-49,36,0,0,0,0,0,0,0,0,0,-1,1175,988,0,0
-42,36,0,0,0,0,0,0,0,0,0,-1,1182,988,0,0
-35,36,0,0,0,0,0,0,0,0,0,-1,1189,988,0,0
-28,36,0,0,0,0,0,0,0,0,0,-1,1196,988,0,0
-21,36,0,0,0,0,0,0,0,0,0,-1,1203,988,0,0
-14,36,0,0,0,0,0,0,0,0,0,-1,1210,988,0,0
-7,36,0,0,0,0,0,0,0,0,0,-1,1217,988,0,0
0,36,0,0,0,0,0,0,0,0,0,-1,1224,988,0,0
7,36,0,0,0,0,0,0,0,0,0,-1,1231,988,0,0
14,36,0,0,0,0,0,0,0,0,0,-1,1238,988,0,0
21,36,0,0,0,0,0,0,0,0,0,-1,1245,988,0,0
28,36,0,0,0,0,0,0,0,0,0,-1,1252,988,0,0
35,36,0,0,0,0,0,0,0,0,0,-1,1259,988,0,0
42,36,0,0,0,0,0,0,0,0,0,-1,1266,988,0,0
49,36,0,0,0,0,0,0,0,0,0,-1,1273,988,0,0
56,36,0,0,0,0,0,0,0,0,0,-1,1280,988,0,0
63,36,0,0,0,0,0,0,0,0,0,-1,1287,988,0,0
70,36,0,0,0,0,0,0,0,0,0,-1,1294,988,0,0
77,36,0,0,0,0,0,0,0,0,0,-1,1301,988,0,0
84,36,0,0,0,0,0,0,0,0,0,-1,1308,988,0,0
91,36,0,0,0,0,0,0,0,0,0,-1,1315,988,0,0
98,36,0,0,0,0,0,0,0,0,0,-1,1322,988,0,0
105,36,0,0,0,0,0,0,0,0,0,-1,1329,988,0,0
112,36,0,0,0,0,0,0,0,0,0,-1,1336,988,0,0
119,36,0,0,0,0,0,0,0,0,0,-1,1343,988,0,0
126,36,0,0,0,0,0,0,0,0,0,-1,1350,988,0,0
133,36,0,0,0,0,0,0,0,0,0,-1,1357,988,0,0
140,36,0,0,0,0,0,0,0,0,0,-1,1364,988,0,0
147,36,0,0,0,0,0,0,0,0,0,-1,1371,988,0,0
154,36,0,0,0,0,0,0,0,0,0,-1,1378,988,0,0
161,36,0,0,0,0,0,0,0,0,0,-1,1385,988,0,0
168,36,0,0,0,0,0,0,0,0,0,-1,1392,988,0,0
175,36,0,0,0,0,0,0,0,0,0,-1,1399,988,0,0
182,36,0,0,0,0,0,0,0,0,0,-1,1406,988,0,0
189,36,0,0,0,0,0,0,0,0,0,-1,1413,988,0,0
196,36,0,0,0,0,0,0,0,0,0,-1,1420,988,0,0
203,36,0,0,0,0,0,0,0,0,0,-1,1427,988,0,0
210,36,0,0,0,0,0,0,0,0,0,-1,1434,988,0,0
217,36,0,0,0,0,0,0,0,0,0,-1,1441,988,0,0
224,36,0,0,0,0,0,0,0,0,0,-1,1448,988,0,0
231,36,0,0,0,0,0,0,0,0,0,-1,1455,988,0,0
238,36,0,0,0,0,0,0,0,0,0,-1,1462,988,0,0
245,36,0,0,0,0,0,0,0,0,0,-1,1469,988,0,0
252,36,0,0,0,0,0,0,0,0,0,-1,1476,988,0,0
259,36,0,0,0,0,0,0,0,0,0,-1,1483,988,0,0
266,36,0,0,0,0,0,0,0,0,0,-1,1490,988,0,0
273,36,0,0,0,0,0,0,0,0,0,-1,1497,988,0,0
280,36,0,0,0,0,0,0,0,0,0,-1,1504,988,0,0
287,36,0,0,0,0,0,0,0,0,0,-1,1511,988,0,0
294,36,0,0,0,0,0,0,0,0,0,-1,1518,988,0,0
301,36,0,0,0,0,0,0,0,0,0,-1,1525,988,0,0
308,36,0,0,0,0,0,0,0,0,0,-1,1532,988,0,0
315,36,0,0,0,0,0,0,0,0,0,-1,1539,988,0,0
322,36,0,0,0,0,0,0,0,0,0,-1,1546,988,0,0
329,36,0,0,0,0,0,0,0,0,0,-1,1553,988,0,0
336,36,0,0,0,0,0,0,0,0,0,-1,1560,988,0,0
343,36,0,0,0,0,0,0,0,0,0,-1,1567,988,0,0
350,36,0,0,0,0,0,0,0,0,0,-1,1574,988,0,0
357,36,0,0,0,0,0,0,0,0,0,-1,1581,988,0,0
364,36,0,0,0,0,0,0,0,0,0,-1,1588,988,0,0
371,36,0,0,0,0,0,0,0,0,0,-1,1595,988,0,0
378,36,0,0,0,0,0,0,0,0,0,-1,1602,988,0,0
385,36,0,0,0,0,0,0,0,0,0,-1,1609,988,0,0
392,36,0,0,0,0,0,0,0,0,0,-1,1616,988,0,0
399,36,0,0,0,0,0,0,0,0,0,-1,1623,988,0,0
406,36,0,0,0,0,0,0,0,0,0,-1,1630,988,0,0
413,36,0,0,0,0,0,0,0,0,0,-1,1637,988,0,0
420,36,0,0,0,0,0,0,0,0,0,-1,1644,988,0,0
427,36,0,0,0,0,0,0,0,0,0,-1,1651,988,0,0
434,36,0,0,0,0,0,0,0,0,0,-1,1658,988,0,0
441,36,0,0,0,0,0,0,0,0,0,-1,1665,988,0,0
448,36,0,0,0,0,0,0,0,0,0,-1,1672,988,0,0
455,36,0,0,0,0,0,0,0,0,0,-1,1679,988,0,0
462,36,0,0,0,0,0,0,0,0,0,-1,1686,988,0,0
469,36,0,0,0,0,0,0,0,0,0,-1,1693,988,0,0
476,36,0,0,0,0,0,0,0,0,0,-1,1700,988,0,0
483,36,0,0,0,0,0,0,0,0,0,-1,1707,988,0,0
490,36,0,0,0,0,0,0,0,0,0,-1,1714,988,0,0
497,36,0,0,0,0,0,0,0,0,0,-1,1721,988,0,0
504,36,0,0,0,0,0,0,0,0,0,-1,1728,988,0,0
511,36,0,0,0,0,0,0,0,0,0,-1,1735,988,0,0
518,36,0,0,0,0,0,0,0,0,0,-1,1742,988,0,0
525,36,0,0,0,0,0,0,0,0,0,-1,1749,988,0,0
532,36,0,0,0,0,0,0,0,0,0,-1,1756,988,0,0
539,36,0,0,0,0,0,0,0,0,0,-1,1763,988,0,0
546,36,0,0,0,0,0,0,0,0,0,-1,1770,988,0,0
553,36,0,0,0,0,0,0,0,0,0,-1,1777,988,0,0
560,36,0,0,0,0,0,0,0,0,0,-1,1784,988,0,0
567,36,0,0,0,0,0,0,0,0,0,-1,1791,988,0,0
574,36,0,0,0,0,0,0,0,0,0,-1,1798,988,0,0
581,36,0,0,0,0,0,0,0,0,0,-1,1805,988,0,0
588,36,0,0,0,0,0,0,0,0,0,-1,1812,988,0,0
595,36,0,0,0,0,0,0,0,0,0,-1,1819,988,0,0
602,36,0,0,0,0,0,0,0,0,0,-1,1826,988,0,0
609,36,0,0,0,0,0,0,0,0,0,-1,1833,988,0,0
616,36,0,0,0,0,0,0,0,0,0,-1,1840,988,0,0
623,36,0,0,0,0,0,0,0,0,0,-1,1847,988,0,0
630,36,0,0,0,0,0,0,0,0,0,-1,1854,988,0,0
637,36,0,0,0,0,0,0,0,0,0,-1,1861,988,0,0
644,36,27.5649,3.40601,0,0,0,0,0,0,0,-1,1868,988,27.5649,-3.40603
651,36,27.4556,3.74072,0,0,0,0,0,0,0,-1,1875,988,27.4555,-3.74074
658,36,27.5745,3.29071,0.00180377,-0.000427141,-0.00168002,0.00270492,-0.00132829,-0.492337,0.00237336,0.039135,1882,988,27.5744,-3.29069
665,36,27.6681,3.31073,0.000486648,0.000135114,-0.000667586,0.00100122,-0.000379456,-0.656676,0.000823635,0.03603,1889,988,27.6681,-3.31075
672,36,27.5775,3.38348,-0.000532307,0.000566732,0.000485127,0.000750234,-0.000715808,1.20918,0.000846498,0.0379285,1896,988,27.5775,-3.38349
679,36,27.5435,3.40894,-0.00137027,0.000731726,0.00161362,0.00160644,-0.00224499,1.07405,0.00223379,0.038613,1903,988,27.5434,-3.40892
686,36,27.5171,3.45258,-0.0018249,0.000696476,0.00244243,0.00218438,-0.00331281,1.02365,0.00319602,0.0365607,1910,988,27.5171,-3.4526
693,36,27.5404,3.48718,-0.00199854,0.000545954,0.00301726,0.00254823,-0.00400082,0.984916,0.00381197,0.0378779,1917,988,27.5404,-3.4872
700,36,27.5387,3.42938,-0.0021214,0.000527858,0.00333892,0.00279531,-0.00438885,0.974238,0.00418165,0.0343458,1924,988,27.5386,-3.4294
707,36,27.5575,3.35876,-0.00228774,0.000475848,0.00350958,0.00286586,-0.00467775,0.972939,0.00439698,0.0267859,1931,988,27.5575,-3.35875
714,36,27.5862,3.57623,-0.00259468,0.000513949,0.00347934,0.00277037,-0.0048511,0.995462,0.00445458,0.0366658,1938,988,27.5862,-3.57626
721,36,27.1892,4.66583,0,0,0,0,0,0,0,-1,1945,988,27.1892,-4.66583
728,36,26.9799,4.84283,-0.00278052,0.000863017,0.00289603,0.00246263,-0.00438014,1.06615,0.00400204,0.023161,1952,988,26.9799,-4.84281
735,36,26.7782,4.99231,-0.00253927,0.00130991,0.00271105,0.00271005,-0.00393941,1.09407,0.00386088,0.0173752,1959,988,26.7782,-4.99231
742,36,26.796,5.05005,-0.00200082,0.00271381,0.00229093,0.00364363,-0.00293064,1.18524,0.00380309,0.01429,1966,988,26.7961,-5.05006
749,36,26.8145,5.15588,-0.00174741,0.00466538,0.00097214,0.00480951,-0.00189154,1.42361,0.00398925,0.0165234,1973,988,26.8144,-5.15586
756,36,26.7893,5.23059,-0.00148843,0.00797043,-0.000689545,0.00802043,-0.00153843,-1.49841,0.0059267,0.015442,1980,988,26.7893,-5.2306
763,36,26.735,5.31915,-0.000543238,0.0125516,-0.0031611,0.0132747,-0.0012664,-1.3459,0.00930073,0.0166239,1987,988,26.7349,-5.31918
770,36,26.6827,5.43982,0.000853932,0.0190862,-0.00613192,0.0209566,-0.00101649,-1.27473,0.0143219,0.0138106,1994,988,26.6828,-5.43979
777,36,26.6339,5.60846,0.00252814,0.0272111,-0.00991122,0.0306982,-0.000958971,-1.23249,0.0207925,0.0213714,2001,988,26.6339,-5.60848
784,36,26.5759,5.8963,0.00425189,0.0369941,-0.0147748,0.0426754,-0.0014294,-1.2037,0.0289385,0.0430976,2008,988,26.5759,-5.8963
791,36,26.5615,6.79333,0.00611736,0.0490808,-0.0213818,0.0579083,-0.00271005,-1.17926,0.0395398,0.0473536,2015,988,26.5615,-6.79335
798,36,26.2739,7.37091,0,0,0,0,0,0,0,-1,2022,988,26.2739,-7.37088
805,36,29.7742,2.22241,0,0,0,0,0,0,0,-1,2029,988,29.7742,-2.22241
812,36,24.2305,7.53027,0,0,0,0,0,0,0,-1,2036,988,24.2304,-7.53029
-700,29,0,0,0,0,0,0,0,0,0,-1,524,995,0,0
-693,29,-21.7843,6.91388,0.0156824,0.000221253,-0.0404731,0.0491566,-0.0332529,-0.691032,0.0478736,0.0470367,531,995,-21.7843,-6.91388
-686,29,-21.1114,6.71326,0.00527245,0.00291739,-0.0354511,0.0395656,-0.0313757,-0.768796,0.0410489,0.0455693,538,995,-21.1114,-6.71324
-679,29,-20.1682,6.20538,-0.00123667,0.00482981,-0.0300487,0.031998,-0.0284049,-0.8357,0.0348942,0.0450873,545,995,-20.1682,-6.20538
-672,29,-19.7368,2.94861,0,0,0,0,0,0,0,-1,552,995,-19.7368,-2.94858
-665,29,-19.0414,4.86108,-0.0072028,0.00701947,-0.019835,0.0209796,-0.0211629,-0.957518,0.024331,0.043347,559,995,-19.0414,-4.86106
-658,29,-18.8033,3.70245,-0.00795564,0.00739158,-0.0154054,0.0169287,-0.0174928,-1.01647,0.0198742,0.043881,566,995,-18.8033,-3.70245
-651,29,-18.9202,3.05634,0,0,0,0,0,0,0,-1,573,995,-18.9202,-3.05635
-644,29,-18.9914,2.74786,-0.00687114,0.00685807,-0.00853878,0.0109494,-0.0109625,-1.12397,0.0126509,0.0204192,580,995,-18.9914,-2.74786
-637,29,-19.1072,2.71411,-0.0068588,0.0069114,-0.00603283,0.00918052,-0.00912792,-1.21104,0.0105704,0.0144272,587,995,-19.1073,-2.71413
-630,29,-19.1041,2.71167,-0.00620105,0.00524002,-0.00521174,0.00725814,-0.00821917,-1.20135,0.00894157,0.0120323,594,995,-19.1041,-2.71164
-623,29,-19.092,2.67072,-0.00385435,0.00510291,-0.00402307,0.00664452,-0.00539595,-1.20486,0.00696402,0.0110372,601,995,-19.092,-2.67072
-616,29,-19.0845,2.58215,-0.00253771,0.00399134,-0.00440379,0.00620864,-0.00475501,-1.10435,0.00634839,0.0129599,608,995,-19.0844,-2.58215
-609,29,-19.096,2.51233,-0.00231647,0.00356756,-0.00470835,0.00617749,-0.0049264,-1.06464,0.00642438,0.0204802,615,995,-19.096,-2.51235
-602,29,-19.0646,2.40692,-0.00215741,0.00248197,-0.00509327,0.00575892,-0.00543435,-0.999083,0.00646335,0.0228934,622,995,-19.0647,-2.4069
-595,29,-18.9892,2.32111,-0.00167899,0.001917,-0.00559334,0.00599423,-0.00575622,-0.940908,0.00678459,0.0211214,629,995,-18.9892,-2.32112
-588,29,-19.0242,2.00647,-0.00121178,0.00148584,-0.0058743,0.0061642,-0.00589013,-0.898248,0.00696017,0.0270211,636,995,-19.0242,-2.00645
-581,29,-19.0979,1.57452,-0.000922619,0.00111687,-0.00610625,0.00628794,-0.00609369,-0.868135,0.00714883,0.035869,643,995,-19.0979,-1.5745
-574,29,-19.0582,1.43414,-0.00067349,0.00114812,-0.00624113,0.00654456,-0.00606993,-0.857854,0.0072847,0.0315917,650,995,-19.0582,-1.43417
-567,29,-19.0944,1.18854,-0.000304429,0.00103444,-0.00596881,0.00637124,-0.00564122,-0.841243,0.00693966,0.0347233,657,995,-19.0944,-1.18854
-560,29,-19.1637,1.01031,0.000309965,0.000997157,-0.00548442,0.00614873,-0.00484161,-0.816682,0.00636022,0.0410801,664,995,-19.1637,-1.01031
-553,29,-19.4167,1.00598,0.00119115,0.00103428,-0.00490314,0.00601648,-0.00379105,-0.7774,0.00571077,0.0442105,671,995,-19.4167,-1.00597
-546,29,-19.3052,1.05145,0.00235495,0.00116208,-0.00436011,0.00615923,-0.00264221,-0.717424,0.00521499,0.0441768,678,995,-19.3052,-1.05147
-539,29,-19.1668,1.22595,0.00380457,0.00151479,-0.00419253,0.00700572,-0.00168636,-0.652108,0.00532241,0.0442775,685,995,-19.1668,-1.22596
-532,29,-18.8623,0.947327,0.00506108,0.00254492,-0.0052535,0.00920504,-0.00159904,-0.667874,0.0067333,0.0468451,692,995,-18.8623,-0.947326
-525,29,-18.658,0.574829,0.00532808,0.00437328,-0.00763052,0.0124961,-0.00279476,-0.754157,0.00940183,0.0478261,699,995,-18.658,-0.574842
-518,29,0,0,0,0,0,0,0,0,0,-1,706,995,0,0
-511,29,0,0,0,0,0,0,0,0,0,-1,713,995,0,0
-504,29,0,0,0,0,0,0,0,0,0,-1,720,995,0,0
-497,29,0,0,0,0,0,0,0,0,0,-1,727,995,0,0
-490,29,0,0,0,0,0,0,0,0,0,-1,734,995,0,0
-483,29,0,0,0,0,0,0,0,0,0,-1,741,995,0,0
-476,29,0,0,0,0,0,0,0,0,0,-1,748,995,0,0
-469,29,0,0,0,0,0,0,0,0,0,-1,755,995,0,0
-462,29,0,0,0,0,0,0,0,0,0,-1,762,995,0,0
-455,29,0,0,0,0,0,0,0,0,0,-1,769,995,0,0
-448,29,0,0,0,0,0,0,0,0,0,-1,776,995,0,0
-441,29,0,0,0,0,0,0,0,0,0,-1,783,995,0,0
-434,29,0,0,0,0,0,0,0,0,0,-1,790,995,0,0
-427,29,0,0,0,0,0,0,0,0,0,-1,797,995,0,0
-420,29,0,0,0,0,0,0,0,0,0,-1,804,995,0,0
-413,29,0,0,0,0,0,0,0,0,0,-1,811,995,0,0
-406,29,0,0,0,0,0,0,0,0,0,-1,818,995,0,0
-399,29,0,0,0,0,0,0,0,0,0,-1,825,995,0,0
-392,29,0,0,0,0,0,0,0,0,0,-1,832,995,0,0
-385,29,0,0,0,0,0,0,0,0,0,-1,839,995,0,0
-378,29,0,0,0,0,0,0,0,0,0,-1,846,995,0,0
-371,29,0,0,0,0,0,0,0,0,0,-1,853,995,0,0
-364,29,0,0,0,0,0,0,0,0,0,-1,860,995,0,0
-357,29,0,0,0,0,0,0,0,0,0,-1,867,995,0,0
-350,29,0,0,0,0,0,0,0,0,0,-1,874,995,0,0
-343,29,0,0,0,0,0,0,0,0,0,-1,881,995,0,0
-336,29,0,0,0,0,0,0,0,0,0,-1,888,995,0,0
-329,29,0,0,0,0,0,0,0,0,0,-1,895,995,0,0
-322,29,0,0,0,0,0,0,0,0,0,-1,902,995,0,0
-315,29,0,0,0,0,0,0,0,0,0,-1,909,995,0,0
-308,29,0,0,0,0,0,0,0,0,0,-1,916,995,0,0
-301,29,0,0,0,0,0,0,0,0,0,-1,923,995,0,0
-294,29,0,0,0,0,0,0,0,0,0,-1,930,995,0,0
-287,29,0,0,0,0,0,0,0,0,0,-1,937,995,0,0
-280,29,0,0,0,0,0,0,0,0,0,-1,944,995,0,0
-273,29,0,0,0,0,0,0,0,0,0,-1,951,995,0,0
-266,29,0,0,0,0,0,0,0,0,0,-1,958,995,0,0
-259,29,0,0,0,0,0,0,0,0,0,-1,965,995,0,0
-252,29,0,0,0,0,0,0,0,0,0,-1,972,995,0,0
-245,29,0,0,0,0,0,0,0,0,0,-1,979,995,0,0
-238,29,0,0,0,0,0,0,0,0,0,-1,986,995,0,0
-231,29,0,0,0,0,0,0,0,0,0,-1,993,995,0,0
-224,29,0,0,0,0,0,0,0,0,0,-1,1000,995,0,0
-217,29,0,0,0,0,0,0,0,0,0,-1,1007,995,0,0
-210,29,0,0,0,0,0,0,0,0,0,-1,1014,995,0,0
-203,29,0,0,0,0,0,0,0,0,0,-1,1021,995,0,0
-196,29,0,0,0,0,0,0,0,0,0,-1,1028,995,0,0
-189,29,0,0,0,0,0,0,0,0,0,-1,1035,995,0,0
-182,29,0,0,0,0,0,0,0,0,0,-1,1042,995,0,0
-175,29,0,0,0,0,0,0,0,0,0,-1,1049,995,0,0
-168,29,0,0,0,0,0,0,0,0,0,-1,1056,995,0,0
-161,29,0,0,0,0,0,0,0,0,0,-1,1063,995,0,0
-154,29,0,0,0,0,0,0,0,0,0,-1,1070,995,0,0
-147,29,0,0,0,0,0,0,0,0,0,-1,1077,995,0,0
-140,29,0,0,0,0,0,0,0,0,0,-1,1084,995,0,0
-133,29,0,0,0,0,0,0,0,0,0,-1,1091,995,0,0
-126,29,0,0,0,0,0,0,0,0,0,-1,1098,995,0,0
-119,29,0,0,0,0,0,0,0,0,0,-1,1105,995,0,0
-112,29,0,0,0,0,0,0,0,0,0,-1,1112,995,0,0
-105,29,0,0,0,0,0,0,0,0,0,-1,1119,995,0,0
-98,29,0,0,0,0,0,0,0,0,0,-1,1126,995,0,0
-91,29,0,0,0,0,0,0,0,0,0,-1,1133,995,0,0
-84,29,0,0,0,0,0,0,0,0,0,-1,1140,995,0,0
-77,29,0,0,0,0,0,0,0,0,0,-1,1147,995,0,0
-70,29,0,0,0,0,0,0,0,0,0,-1,1154,995,0,0
-63,29,0,0,0,0,0,0,0,0,0,-1,1161,995,0,0
-56,29,0,0,0,0,0,0,0,0,0,-1,1168,995,0,0
-49,29,0,0,0,0,0,0,0,0,0,-1,1175,995,0,0
-42,29,0,0,0,0,0,0,0,0,0,-1,1182,995,0,0
-35,29,0,0,0,0,0,0,0,0,0,-1,1189,995,0,0
-28,29,0,0,0,0,0,0,0,0,0,-1,1196,995,0,0
-21,29,0,0,0,0,0,0,0,0,0,-1,1203,995,0,0
-14,29,0,0,0,0,0,0,0,0,0,-1,1210,995,0,0
-7,29,0,0,0,0,0,0,0,0,0,-1,1217,995,0,0
0,29,0,0,0,0,0,0,0,0,0,-1,1224,995,0,0
7,29,0,0,0,0,0,0,0,0,0,-1,1231,995,0,0
14,29,0,0,0,0,0,0,0,0,0,-1,1238,995,0,0
21,29,0,0,0,0,0,0,0,0,0,-1,1245,995,0,0
28,29,0,0,0,0,0,0,0,0,0,-1,1252,995,0,0
35,29,0,0,0,0,0,0,0,0,0,-1,1259,995,0,0
42,29,0,0,0,0,0,0,0,0,0,-1,1266,995,0,0
49,29,0,0,0,0,0,0,0,0,0,-1,1273,995,0,0
56,29,0,0,0,0,0,0,0,0,0,-1,1280,995,0,0
63,29,0,0,0,0,0,0,0,0,0,-1,1287,995,0,0
70,29,0,0,0,0,0,0,0,0,0,-1,1294,995,0,0
77,29,0,0,0,0,0,0,0,0,0,-1,1301,995,0,0
84,29,0,0,0,0,0,0,0,0,0,-1,1308,995,0,0
91,29,0,0,0,0,0,0,0,0,0,-1,1315,995,0,0
98,29,0,0,0,0,0,0,0,0,0,-1,1322,995,0,0
105,29,0,0,0,0,0,0,0,0,0,-1,1329,995,0,0
112,29,0,0,0,0,0,0,0,0,0,-1,1336,995,0,0
119,29,0,0,0,0,0,0,0,0,0,-1,1343,995,0,0
126,29,0,0,0,0,0,0,0,0,0,-1,1350,995,0,0
133,29,0,0,0,0,0,0,0,0,0,-1,1357,995,0,0
140,29,0,0,0,0,0,0,0,0,0,-1,1364,995,0,0
147,29,0,0,0,0,0,0,0,0,0,-1,1371,995,0,0
154,29,0,0,0,0,0,0,0,0,0,-1,1378,995,0,0
161,29,0,0,0,0,0,0,0,0,0,-1,1385,995,0,0
168,29,0,0,0,0,0,0,0,0,0,-1,1392,995,0,0
175,29,0,0,0,0,0,0,0,0,0,-1,1399,995,0,0
182,29,0,0,0,0,0,0,0,0,0,-1,1406,995,0,0
189,29,0,0,0,0,0,0,0,0,0,-1,1413,995,0,0
196,29,0,0,0,0,0,0,0,0,0,-1,1420,995,0,0
203,29,0,0,0,0,0,0,0,0,0,-1,1427,995,0,0
210,29,0,0,0,0,0,0,0,0,0,-1,1434,995,0,0
217,29,0,0,0,0,0,0,0,0,0,-1,1441,995,0,0
224,29,0,0,0,0,0,0,0,0,0,-1,1448,995,0,0
231,29,0,0,0,0,0,0,0,0,0,-1,1455,995,0,0
238,29,0,0,0,0,0,0,0,0,0,-1,1462,995,0,0
245,29,0,0,0,0,0,0,0,0,0,-1,1469,995,0,0
252,29,0,0,0,0,0,0,0,0,0,-1,1476,995,0,0
259,29,0,0,0,0,0,0,0,0,0,-1,1483,995,0,0
266,29,0,0,0,0,0,0,0,0,0,-1,1490,995,0,0
273,29,0,0,0,0,0,0,0,0,0,-1,1497,995,0,0
280,29,0,0,0,0,0,0,0,0,0,-1,1504,995,0,0
287,29,0,0,0,0,0,0,0,0,0,-1,1511,995,0,0
294,29,0,0,0,0,0,0,0,0,0,-1,1518,995,0,0
301,29,0,0,0,0,0,0,0,0,0,-1,1525,995,0,0
308,29,0,0,0,0,0,0,0,0,0,-1,1532,995,0,0
315,29,0,0,0,0,0,0,0,0,0,-1,1539,995,0,0
322,29,0,0,0,0,0,0,0,0,0,-1,1546,995,0,0
329,29,0,0,0,0,0,0,0,0,0,-1,1553,995,0,0
336,29,0,0,0,0,0,0,0,0,0,-1,1560,995,0,0
343,29,0,0,0,0,0,0,0,0,0,-1,1567,995,0,0
350,29,0,0,0,0,0,0,0,0,0,-1,1574,995,0,0
357,29,0,0,0,0,0,0,0,0,0,-1,1581,995,0,0
364,29,0,0,0,0,0,0,0,0,0,-1,1588,995,0,0
371,29,0,0,0,0,0,0,0,0,0,-1,1595,995,0,0
378,29,0,0,0,0,0,0,0,0,0,-1,1602,995,0,0
385,29,0,0,0,0,0,0,0,0,0,-1,1609,995,0,0
392,29,0,0,0,0,0,0,0,0,0,-1,1616,995,0,0
399,29,0,0,0,0,0,0,0,0,0,-1,1623,995,0,0
406,29,0,0,0,0,0,0,0,0,0,-1,1630,995,0,0
413,29,0,0,0,0,0,0,0,0,0,-1,1637,995,0,0
420,29,0,0,0,0,0,0,0,0,0,-1,1644,995,0,0
427,29,0,0,0,0,0,0,0,0,0,-1,1651,995,0,0
434,29,0,0,0,0,0,0,0,0,0,-1,1658,995,0,0
441,29,0,0,0,0,0,0,0,0,0,-1,1665,995,0,0
448,29,0,0,0,0,0,0,0,0,0,-1,1672,995,0,0
455,29,0,0,0,0,0,0,0,0,0,-1,1679,995,0,0
462,29,0,0,0,0,0,0,0,0,0,-1,1686,995,0,0
469,29,0,0,0,0,0,0,0,0,0,-1,1693,995,0,0
476,29,0,0,0,0,0,0,0,0,0,-1,1700,995,0,0
483,29,0,0,0,0,0,0,0,0,0,-1,1707,995,0,0
490,29,0,0,0,0,0,0,0,0,0,-1,1714,995,0,0
497,29,0,0,0,0,0,0,0,0,0,-1,1721,995,0,0
504,29,0,0,0,0,0,0,0,0,0,-1,1728,995,0,0
511,29,0,0,0,0,0,0,0,0,0,-1,1735,995,0,0
518,29,0,0,0,0,0,0,0,0,0,-1,1742,995,0,0
525,29,0,0,0,0,0,0,0,0,0,-1,1749,995,0,0
532,29,0,0,0,0,0,0,0,0,0,-1,1756,995,0,0
539,29,0,0,0,0,0,0,0,0,0,-1,1763,995,0,0
546,29,0,0,0,0,0,0,0,0,0,-1,1770,995,0,0
553,29,0,0,0,0,0,0,0,0,0,-1,1777,995,0,0
560,29,0,0,0,0,0,0,0,0,0,-1,1784,995,0,0
567,29,0,0,0,0,0,0,0,0,0,-1,1791,995,0,0
574,29,0,0,0,0,0,0,0,0,0,-1,1798,995,0,0
581,29,0,0,0,0,0,0,0,0,0,-1,1805,995,0,0
588,29,0,0,0,0,0,0,0,0,0,-1,1812,995,0,0
595,29,0,0,0,0,0,0,0,0,0,-1,1819,995,0,0
602,29,0,0,0,0,0,0,0,0,0,-1,1826,995,0,0
609,29,0,0,0,0,0,0,0,0,0,-1,1833,995,0,0
616,29,0,0,0,0,0,0,0,0,0,-1,1840,995,0,0
623,29,0,0,0,0,0,0,0,0,0,-1,1847,995,0,0
630,29,0,0,0,0,0,0,0,0,0,-1,1854,995,0,0
637,29,0,0,0,0,0,0,0,0,0,-1,1861,995,0,0
644,29,27.494,3.25964,0.00644933,-0.00207789,-0.00327147,0.00755981,-0.00318838,-0.327241,0.00637425,0.0406194,1868,995,27.4941,-3.25962
651,29,27.3427,3.38617,0.00385285,-0.00116129,-0.0023725,0.00479747,-0.00210591,-0.378914,0.0040854,0.0437576,1875,995,27.3426,-3.38615
658,29,27.2454,3.45038,0,0,0,0,0,0,0,-1,1882,995,27.2453,-3.45035
665,29,27.7769,3.55243,0.000695076,-4.29899e-05,-0.000726081,0.00114052,-0.000488438,-0.550284,0.000965272,0.0401908,1889,995,27.7769,-3.55244
672,29,27.6494,3.5896,-0.000359826,0.000336912,0.000335512,0.000472205,-0.000495119,1.1875,0.000558537,0.0404097,1896,995,27.6494,-3.58962
679,29,27.5638,3.44452,-0.00126232,0.000443651,0.0014883,0.00130607,-0.00212474,1.04561,0.00199949,0.0403588,1903,995,27.5639,-3.44451
686,29,27.5066,3.33496,-0.0017801,0.000365208,0.0023829,0.00190575,-0.00332064,0.996886,0.00305409,0.0395188,1910,995,27.5066,-3.33494
693,29,27.4866,3.39838,-0.00199675,0.000196277,0.00303344,0.00232531,-0.00412578,0.958829,0.00377258,0.038034,1917,995,27.4866,-3.39836
700,29,27.5146,3.38965,-0.00214347,0.000148071,0.00343577,0.00262408,-0.00461949,0.946341,0.00423464,0.0340836,1924,995,27.5146,-3.38968
707,29,27.504,3.35339,-0.0023495,6.91223e-05,0.00369407,0.00274679,-0.00502717,0.943583,0.00455221,0.0256731,1931,995,27.504,-3.35337
714,29,27.5508,3.62854,-0.00268066,0.000113407,0.00373586,0.0027049,-0.00527215,0.964324,0.00468438,0.0351594,1938,995,27.5508,-3.62851
721,29,27.2383,4.61841,0,0,0,0,0,0,0,-1,1945,995,27.2382,-4.61838
728,29,27.0132,4.83856,-0.00287195,0.000529393,0.00324268,0.00249032,-0.00483287,1.02691,0.00429954,0.0236947,1952,995,27.0132,-4.83855
735,29,26.8754,5.00977,-0.00265773,0.00100845,0.00310481,0.00278092,-0.0044302,1.05206,0.00419948,0.0156651,1959,995,26.8753,-5.00976
742,29,26.8909,5.06293,-0.00211974,0.00237508,0.00275077,0.0036798,-0.00342446,1.12791,0.00410253,0.0130721,1966,995,26.8909,-5.06294
749,29,26.9067,5.16339,-0.00185661,0.00413978,0.0015622,0.00452236,-0.00223919,1.33063,0.00397727,0.0139234,1973,995,26.9067,-5.1634
756,29,26.8885,5.27673,-0.00154629,0.00716084,-2.60857e-05,0.00716092,-0.00154637,-1.5678,0.00536422,0.0130828,1980,995,26.8886,-5.27676
763,29,26.8451,5.32965,-0.000526271,0.0112942,-0.00246158,0.0117863,-0.0010184,-1.37347,0.00821809,0.0120082,1987,995,26.845,-5.32965
770,29,26.8052,5.36786,0.000976779,0.0171789,-0.00535034,0.0187862,-0.000630575,-1.27895,0.0127396,0.01235,1994,995,26.8052,-5.36786
777,29,26.754,5.49677,0.00282469,0.0244355,-0.00899385,0.0276888,-0.000428562,-1.22372,0.0186037,0.0190484,2001,995,26.754,-5.49674
784,29,26.6927,5.67462,0.00477971,0.0330025,-0.0135875,0.0384807,-0.000698494,-1.18755,0.0258897,0.0392288,2008,995,26.6928,-5.67461
791,29,26.7212,5.55048,0.00696676,0.0434679,-0.0198062,0.05215,-0.00171534,-1.15767,0.0353523,0.0448744,2015,995,26.7211,-5.55047
798,29,26.4724,5.47876,0,0,0,0,0,0,0,-1,2022,995,26.4725,-5.47879
805,29,24.7246,7.24182,0,0,0,0,0,0,0,-1,2029,995,24.7247,-7.24184
812,29,24.5483,7.00757,0,0,0,0,0,0,0,-1,2036,995,24.5484,-7.00759
-700,22,0,0,0,0,0,0,0,0,0,-1,524,1002,0,0
-693,22,-21.7612,7.62604,0.0117124,-0.00170269,-0.030496,0.0362298,-0.0262201,-0.677148,0.0362095,0.0477032,531,1002,-21.7612,-7.62604
-686,22,-20.6563,7.10602,0.00304763,0.00173436,-0.0276878,0.0300866,-0.0253046,-0.773543,0.0320198,0.0451055,538,1002,-20.6563,-7.10601
-679,22,-19.533,2.19031,0,0,0,0,0,0,0,-1,545,1002,-19.533,-2.19033
-672,22,-19.5984,2.60254,0,0,0,0,0,0,0,-1,552,1002,-19.5984,-2.60256
-665,22,-19.6639,3.01477,0,0,0,0,0,0,0,-1,559,1002,-19.6639,-3.0148
-658,22,-18.3885,2.43677,-0.00750403,0.0071268,-0.0126841,0.0144538,-0.014831,-1.04697,0.0169081,0.0425634,566,1002,-18.3885,-2.43678
-651,22,-18.7809,2.70734,-0.00711324,0.00705346,-0.00955844,0.0118671,-0.0119269,-1.10427,0.0137374,0.0377294,573,1002,-18.7809,-2.70735
-644,22,-19.017,2.72186,-0.00617095,0.00664316,-0.00713296,0.00982409,-0.00935188,-1.15132,0.0110724,0.0219827,580,1002,-19.017,-2.72188
-637,22,-19.1432,2.6795,-0.00605702,0.00670699,-0.00523686,0.00858056,-0.0079306,-1.22722,0.00953519,0.0158045,587,1002,-19.1432,-2.67953
-630,22,-19.1574,2.67297,-0.00535211,0.00519191,-0.00481488,0.00705973,-0.00721993,-1.20074,0.00824454,0.0118527,594,1002,-19.1574,-2.67298
-623,22,-19.1589,2.65149,-0.00304368,0.00491862,-0.00402163,0.00659637,-0.00472142,-1.17557,0.00656415,0.0104831,601,1002,-19.1589,-2.65147
-616,22,-19.1655,2.57495,-0.00168335,0.00371983,-0.00466458,0.00640868,-0.0043722,-1.04788,0.00626125,0.016732,608,1002,-19.1655,-2.57494
-609,22,-19.1912,2.52435,-0.00147553,0.0033445,-0.00516228,0.00663162,-0.00476264,-1.00379,0.00660791,0.0268605,615,1002,-19.1912,-2.52436
-602,22,-19.196,2.42267,-0.00128864,0.00228337,-0.0056351,0.00640872,-0.005414,-0.938862,0.0068339,0.0254943,622,1002,-19.196,-2.42268
-595,22,-19.0516,2.31677,-0.000830706,0.00174602,-0.0061619,0.00675281,-0.00583749,-0.888456,0.00727541,0.0217984,629,1002,-19.0516,-2.31678
-588,22,-19.0574,1.99066,-0.000379343,0.00129207,-0.00643657,0.00694696,-0.00603423,-0.849956,0.00750086,0.029204,636,1002,-19.0574,-1.99066
-581,22,-19.1152,1.61688,-6.50927e-05,0.000902939,-0.00659719,0.00703385,-0.006196,-0.822016,0.00764336,0.0387458,643,1002,-19.1152,-1.61687
-574,22,-19.1026,1.47729,0.000164859,0.000885306,-0.00663067,0.00716553,-0.00611537,-0.812535,0.00767572,0.0354064,650,1002,-19.1026,-1.47731
-567,22,-19.0706,1.29919,0.00045061,0.000749282,-0.00621248,0.00681422,-0.00561433,-0.797415,0.00718677,0.0341115,657,1002,-19.0706,-1.29917
-560,22,-19.1624,1.23566,0.000914205,0.000667871,-0.00553888,0.00633128,-0.00474921,-0.774282,0.00641903,0.0386468,664,1002,-19.1624,-1.23567
-553,22,-19.2296,1.43799,0.00158385,0.00064941,-0.0047333,0.00587293,-0.00363968,-0.736203,0.00554233,0.0417878,671,1002,-19.2295,-1.43798
-546,22,-19.1794,1.34021,0.00249701,0.00071557,-0.00394039,0.0056461,-0.00243352,-0.674242,0.00478611,0.0423941,678,1002,-19.1794,-1.3402
-539,22,-19.0912,1.28784,0.0036919,0.00105504,-0.00359252,0.00620028,-0.00145334,-0.609533,0.00469358,0.0419799,685,1002,-19.0913,-1.28784
-532,22,-19.0349,1.28741,0.00474099,0.00221563,-0.00472696,0.00837101,-0.00141439,-0.654884,0.00610698,0.0434715,692,1002,-19.0349,-1.28743
-525,22,0,0,0,0,0,0,0,0,0,-1,699,1002,0,0
-518,22,0,0,0,0,0,0,0,0,0,-1,706,1002,0,0
-511,22,0,0,0,0,0,0,0,0,0,-1,713,1002,0,0
-504,22,0,0,0,0,0,0,0,0,0,-1,720,1002,0,0
-497,22,0,0,0,0,0,0,0,0,0,-1,727,1002,0,0
-490,22,0,0,0,0,0,0,0,0,0,-1,734,1002,0,0
-483,22,0,0,0,0,0,0,0,0,0,-1,741,1002,0,0
-476,22,0,0,0,0,0,0,0,0,0,-1,748,1002,0,0
-469,22,0,0,0,0,0,0,0,0,0,-1,755,1002,0,0
-462,22,0,0,0,0,0,0,0,0,0,-1,762,1002,0,0
-455,22,0,0,0,0,0,0,0,0,0,-1,769,1002,0,0
-448,22,0,0,0,0,0,0,0,0,0,-1,776,1002,0,0
-441,22,0,0,0,0,0,0,0,0,0,-1,783,1002,0,0
-434,22,0,0,0,0,0,0,0,0,0,-1,790,1002,0,0
-427,22,0,0,0,0,0,0,0,0,0,-1,797,1002,0,0
-420,22,0,0,0,0,0,0,0,0,0,-1,804,1002,0,0
-413,22,0,0,0,0,0,0,0,0,0,-1,811,1002,0,0
-406,22,0,0,0,0,0,0,0,0,0,-1,818,1002,0,0
-399,22,0,0,0,0,0,0,0,0,0,-1,825,1002,0,0
-392,22,0,0,0,0,0,0,0,0,0,-1,832,1002,0,0
-385,22,0,0,0,0,0,0,0,0,0,-1,839,1002,0,0
-378,22,0,0,0,0,0,0,0,0,0,-1,846,1002,0,0
-371,22,0,0,0,0,0,0,0,0,0,-1,853,1002,0,0
-364,22,0,0,0,0,0,0,0,0,0,-1,860,1002,0,0
-357,22,0,0,0,0,0,0,0,0,0,-1,867,1002,0,0
-350,22,0,0,0,0,0,0,0,0,0,-1,874,1002,0,0
-343,22,0,0,0,0,0,0,0,0,0,-1,881,1002,0,0
-336,22,0,0,0,0,0,0,0,0,0,-1,888,1002,0,0
-329,22,0,0,0,0,0,0,0,0,0,-1,895,1002,0,0
-322,22,0,0,0,0,0,0,0,0,0,-1,902,1002,0,0
-315,22,0,0,0,0,0,0,0,0,0,-1,909,1002,0,0
-308,22,0,0,0,0,0,0,0,0,0,-1,916,1002,0,0
-301,22,0,0,0,0,0,0,0,0,0,-1,923,1002,0,0
-294,22,0,0,0,0,0,0,0,0,0,-1,930,1002,0,0
-287,22,0,0,0,0,0,0,0,0,0,-1,937,1002,0,0
-280,22,0,0,0,0,0,0,0,0,0,-1,944,1002,0,0
-273,22,0,0,0,0,0,0,0,0,0,-1,951,1002,0,0
-266,22,0,0,0,0,0,0,0,0,0,-1,958,1002,0,0
-259,22,0,0,0,0,0,0,0,0,0,-1,965,1002,0,0
-252,22,0,0,0,0,0,0,0,0,0,-1,972,1002,0,0
-245,22,0,0,0,0,0,0,0,0,0,-1,979,1002,0,0
-238,22,0,0,0,0,0,0,0,0,0,-1,986,1002,0,0
-231,22,0,0,0,0,0,0,0,0,0,-1,993,1002,0,0
-224,22,0,0,0,0,0,0,0,0,0,-1,1000,1002,0,0
-217,22,0,0,0,0,0,0,0,0,0,-1,1007,1002,0,0
-210,22,0,0,0,0,0,0,0,0,0,-1,1014,1002,0,0
-203,22,0,0,0,0,0,0,0,0,0,-1,1021,1002,0,0
-196,22,0,0,0,0,0,0,0,0,0,-1,1028,1002,0,0
-189,22,0,0,0,0,0,0,0,0,0,-1,1035,1002,0,0
-182,22,0,0,0,0,0,0,0,0,0,-1,1042,1002,0,0
-175,22,0,0,0,0,0,0,0,0,0,-1,1049,1002,0,0
-168,22,0,0,0,0,0,0,0,0,0,-1,1056,1002,0,0
-161,22,0,0,0,0,0,0,0,0,0,-1,1063,1002,0,0
-154,22,0,0,0,0,0,0,0,0,0,-1,1070,1002,0,0
-147,22,0,0,0,0,0,0,0,0,0,-1,1077,1002,0,0
-140,22,0,0,0,0,0,0,0,0,0,-1,1084,1002,0,0
-133,22,0,0,0,0,0,0,0,0,0,-1,1091,1002,0,0
-126,22,0,0,0,0,0,0,0,0,0,-1,1098,1002,0,0
-119,22,0,0,0,0,0,0,0,0,0,-1,1105,1002,0,0
-112,22,0,0,0,0,0,0,0,0,0,-1,1112,1002,0,0
-105,22,0,0,0,0,0,0,0,0,0,-1,1119,1002,0,0
-98,22,0,0,0,0,0,0,0,0,0,-1,1126,1002,0,0
-91,22,0,0,0,0,0,0,0,0,0,-1,1133,1002,0,0
-84,22,0,0,0,0,0,0,0,0,0,-1,1140,1002,0,0
-77,22,0,0,0,0,0,0,0,0,0,-1,1147,1002,0,0
-70,22,0,0,0,0,0,0,0,0,0,-1,1154,1002,0,0
-63,22,0,0,0,0,0,0,0,0,0,-1,1161,1002,0,0
-56,22,0,0,0,0,0,0,0,0,0,-1,1168,1002,0,0
-49,22,0,0,0,0,0,0,0,0,0,-1,1175,1002,0,0
-42,22,0,0,0,0,0,0,0,0,0,-1,1182,1002,0,0
-35,22,0,0,0,0,0,0,0,0,0,-1,1189,1002,0,0
-28,22,0,0,0,0,0,0,0,0,0,-1,1196,1002,0,0
-21,22,0,0,0,0,0,0,0,0,0,-1,1203,1002,0,0
-14,22,0,0,0,0,0,0,0,0,0,-1,1210,1002,0,0
-7,22,0,0,0,0,0,0,0,0,0,-1,1217,1002,0,0
0,22,0,0,0,0,0,0,0,0,0,-1,1224,1002,0,0
7,22,0,0,0,0,0,0,0,0,0,-1,1231,1002,0,0
14,22,0,0,0,0,0,0,0,0,0,-1,1238,1002,0,0
21,22,0,0,0,0,0,0,0,0,0,-1,1245,1002,0,0
28,22,0,0,0,0,0,0,0,0,0,-1,1252,1002,0,0
35,22,0,0,0,0,0,0,0,0,0,-1,1259,1002,0,0
42,22,0,0,0,0,0,0,0,0,0,-1,1266,1002,0,0
49,22,0,0,0,0,0,0,0,0,0,-1,1273,1002,0,0
56,22,0,0,0,0,0,0,0,0,0,-1,1280,1002,0,0
63,22,0,0,0,0,0,0,0,0,0,-1,1287,1002,0,0
70,22,0,0,0,0,0,0,0,0,0,-1,1294,1002,0,0
77,22,0,0,0,0,0,0,0,0,0,-1,1301,1002,0,0
84,22,0,0,0,0,0,0,0,0,0,-1,1308,1002,0,0
91,22,0,0,0,0,0,0,0,0,0,-1,1315,1002,0,0
98,22,0,0,0,0,0,0,0,0,0,-1,1322,1002,0,0
105,22,0,0,0,0,0,0,0,0,0,-1,1329,1002,0,0
112,22,0,0,0,0,0,0,0,0,0,-1,1336,1002,0,0
119,22,0,0,0,0,0,0,0,0,0,-1,1343,1002,0,0
126,22,0,0,0,0,0,0,0,0,0,-1,1350,1002,0,0
133,22,0,0,0,0,0,0,0,0,0,-1,1357,1002,0,0
140,22,0,0,0,0,0,0,0,0,0,-1,1364,1002,0,0
147,22,0,0,0,0,0,0,0,0,0,-1,1371,1002,0,0
154,22,0,0,0,0,0,0,0,0,0,-1,1378,1002,0,0
161,22,0,0,0,0,0,0,0,0,0,-1,1385,1002,0,0
168,22,0,0,0,0,0,0,0,0,0,-1,1392,1002,0,0
175,22,0,0,0,0,0,0,0,0,0,-1,1399,1002,0,0
182,22,0,0,0,0,0,0,0,0,0,-1,1406,1002,0,0
189,22,0,0,0,0,0,0,0,0,0,-1,1413,1002,0,0
196,22,0,0,0,0,0,0,0,0,0,-1,1420,1002,0,0
203,22,0,0,0,0,0,0,0,0,0,-1,1427,1002,0,0
210,22,0,0,0,0,0,0,0,0,0,-1,1434,1002,0,0
217,22,0,0,0,0,0,0,0,0,0,-1,1441,1002,0,0
224,22,0,0,0,0,0,0,0,0,0,-1,1448,1002,0,0
231,22,0,0,0,0,0,0,0,0,0,-1,1455,1002,0,0
238,22,0,0,0,0,0,0,0,0,0,-1,1462,1002,0,0
245,22,0,0,0,0,0,0,0,0,0,-1,1469,1002,0,0
252,22,0,0,0,0,0,0,0,0,0,-1,1476,1002,0,0
259,22,0,0,0,0,0,0,0,0,0,-1,1483,1002,0,0
266,22,0,0,0,0,0,0,0,0,0,-1,1490,1002,0,0
273,22,0,0,0,0,0,0,0,0,0,-1,1497,1002,0,0
280,22,0,0,0,0,0,0,0,0,0,-1,1504,1002,0,0
287,22,0,0,0,0,0,0,0,0,0,-1,1511,1002,0,0
294,22,0,0,0,0,0,0,0,0,0,-1,1518,1002,0,0
301,22,0,0,0,0,0,0,0,0,0,-1,1525,1002,0,0
308,22,0,0,0,0,0,0,0,0,0,-1,1532,1002,0,0
315,22,0,0,0,0,0,0,0,0,0,-1,1539,1002,0,0
322,22,0,0,0,0,0,0,0,0,0,-1,1546,1002,0,0
329,22,0,0,0,0,0,0,0,0,0,-1,1553,1002,0,0
336,22,0,0,0,0,0,0,0,0,0,-1,1560,1002,0,0
343,22,0,0,0,0,0,0,0,0,0,-1,1567,1002,0,0
350,22,0,0,0,0,0,0,0,0,0,-1,1574,1002,0,0
357,22,0,0,0,0,0,0,0,0,0,-1,1581,1002,0,0
364,22,0,0,0,0,0,0,0,0,0,-1,1588,1002,0,0
371,22,0,0,0,0,0,0,0,0,0,-1,1595,1002,0,0
378,22,0,0,0,0,0,0,0,0,0,-1,1602,1002,0,0
385,22,0,0,0,0,0,0,0,0,0,-1,1609,1002,0,0
392,22,0,0,0,0,0,0,0,0,0,-1,1616,1002,0,0
399,22,0,0,0,0,0,0,0,0,0,-1,1623,1002,0,0
406,22,0,0,0,0,0,0,0,0,0,-1,1630,1002,0,0
413,22,0,0,0,0,0,0,0,0,0,-1,1637,1002,0,0
420,22,0,0,0,0,0,0,0,0,0,-1,1644,1002,0,0
427,22,0,0,0,0,0,0,0,0,0,-1,1651,1002,0,0
434,22,0,0,0,0,0,0,0,0,0,-1,1658,1002,0,0
441,22,0,0,0,0,0,0,0,0,0,-1,1665,1002,0,0
448,22,0,0,0,0,0,0,0,0,0,-1,1672,1002,0,0
455,22,0,0,0,0,0,0,0,0,0,-1,1679,1002,0,0
462,22,0,0,0,0,0,0,0,0,0,-1,1686,1002,0,0
469,22,0,0,0,0,0,0,0,0,0,-1,1693,1002,0,0
476,22,0,0,0,0,0,0,0,0,0,-1,1700,1002,0,0
483,22,0,0,0,0,0,0,0,0,0,-1,1707,1002,0,0
490,22,0,0,0,0,0,0,0,0,0,-1,1714,1002,0,0
497,22,0,0,0,0,0,0,0,0,0,-1,1721,1002,0,0
504,22,0,0,0,0,0,0,0,0,0,-1,1728,1002,0,0
511,22,0,0,0,0,0,0,0,0,0,-1,1735,1002,0,0
518,22,0,0,0,0,0,0,0,0,0,-1,1742,1002,0,0
525,22,0,0,0,0,0,0,0,0,0,-1,1749,1002,0,0
532,22,0,0,0,0,0,0,0,0,0,-1,1756,1002,0,0
539,22,0,0,0,0,0,0,0,0,0,-1,1763,1002,0,0
546,22,0,0,0,0,0,0,0,0,0,-1,1770,1002,0,0
553,22,0,0,0,0,0,0,0,0,0,-1,1777,1002,0,0
560,22,0,0,0,0,0,0,0,0,0,-1,1784,1002,0,0
567,22,0,0,0,0,0,0,0,0,0,-1,1791,1002,0,0
574,22,0,0,0,0,0,0,0,0,0,-1,1798,1002,0,0
581,22,0,0,0,0,0,0,0,0,0,-1,1805,1002,0,0
588,22,0,0,0,0,0,0,0,0,0,-1,1812,1002,0,0
595,22,0,0,0,0,0,0,0,0,0,-1,1819,1002,0,0
602,22,0,0,0,0,0,0,0,0,0,-1,1826,1002,0,0
609,22,0,0,0,0,0,0,0,0,0,-1,1833,1002,0,0
616,22,0,0,0,0,0,0,0,0,0,-1,1840,1002,0,0
623,22,0,0,0,0,0,0,0,0,0,-1,1847,1002,0,0
630,22,0,0,0,0,0,0,0,0,0,-1,1854,1002,0,0
637,22,0,0,0,0,0,0,0,0,0,-1,1861,1002,0,0
644,22,27.2892,3.14288,0.00688075,-0.00244263,-0.00321093,0.00787958,-0.00344146,-0.301582,0.00670153,0.0411855,1868,1002,27.2892,-3.14289
651,22,27.203,3.12183,0.00418692,-0.0014915,-0.00234797,0.00503201,-0.00233659,-0.345489,0.0043481,0.0433287,1875,1002,27.203,-3.12184
658,22,27.4323,3.26971,0.00235414,-0.000904665,-0.00165911,0.00305016,-0.00160069,-0.397217,0.00272829,0.0424184,1882,1002,27.4322,-3.26972
665,22,27.6399,3.65594,0.000966675,-0.000387521,-0.000890931,0.0014086,-0.00082945,-0.460466,0.00130648,0.0366663,1889,1002,27.6399,-3.65597
672,22,27.6511,3.56171,-0.000115281,-3.79956e-05,9.93656e-05,2.99766e-05,-0.000183254,0.970847,0.00013329,0.0381791,1896,1002,27.6512,-3.56172
679,22,27.5876,3.41693,-0.00108395,2.5734e-05,0.00128809,0.000873401,-0.00193162,0.988762,0.00165745,0.0399784,1903,1002,27.5877,-3.41693
686,22,27.578,3.21863,-0.00167428,-8.63984e-05,0.0022588,0.00151393,-0.00327461,0.954397,0.00282627,0.0402727,1910,1002,27.578,-3.21863
693,22,27.4969,3.28278,-0.00195067,-0.00027346,0.00300333,0.00200615,-0.00423028,0.921543,0.00367614,0.0376273,1917,1002,27.4969,-3.28275
700,22,27.5092,3.38428,-0.00213726,-0.00033968,0.00350123,0.00237629,-0.00485323,0.911039,0.00425484,0.0327034,1924,1002,27.5092,-3.38429
707,22,27.4507,3.43219,-0.00239208,-0.000426711,0.00384715,0.00256127,-0.00538006,0.91044,0.00468022,0.0341679,1931,1002,27.4507,-3.43218
714,22,27.7299,2.62805,0,0,0,0,0,0,0,-1,1938,1002,27.7299,-2.62808
721,22,27.4253,4.12732,0,0,0,0,0,0,0,-1,1945,1002,27.4253,-4.12734
728,22,26.9401,4.92017,0,0,0,0,0,0,0,-1,1952,1002,26.94,-4.92015
735,22,26.9825,5.0224,-0.00279766,0.00064601,0.00350476,0.00282905,-0.0049807,1.01372,0.00456565,0.0155602,1959,1002,26.9826,-5.02239
742,22,26.993,5.08746,-0.00230361,0.00201376,0.00319628,0.00371204,-0.00400188,1.0824,0.00445468,0.0159513,1966,1002,26.9931,-5.08743
749,22,26.9872,5.15625,-0.00207837,0.00368386,0.00213664,0.00438967,-0.00278419,1.25174,0.00417626,0.012406,1973,1002,26.9872,-5.15628
756,22,26.9761,5.23016,-0.00179509,0.00649663,0.000624267,0.00654337,-0.00184183,1.49607,0.00508854,0.0165249,1980,1002,26.9761,-5.23019
763,22,26.9327,5.31311,-0.000849922,0.010306,-0.00176889,0.0105798,-0.00112368,-1.41725,0.00745603,0.0180435,1987,1002,26.9327,-5.31313
770,22,26.9026,5.34381,0.000525947,0.015694,-0.00458925,0.0169745,-0.000754486,-1.29871,0.011576,0.0116505,1994,1002,26.9026,-5.34378
777,22,26.829,5.40204,0.002239,0.0222572,-0.0081305,0.0251434,-0.000647129,-1.2297,0.0169821,0.0187342,2001,1002,26.8289,-5.40205
784,22,26.7507,5.453,0.00402557,0.0298364,-0.0125032,0.0348999,-0.00103788,-1.18601,0.0236202,0.0414066,2008,1002,26.7508,-5.45298
791,22,26.4667,5.92352,0,0,0,0,0,0,0,-1,2015,1002,26.4667,-5.9235
798,22,24.9063,6.94171,0,0,0,0,0,0,0,-1,2022,1002,24.9062,-6.9417
805,22,24.9324,6.67889,0.0101556,0.0622191,-0.0363697,0.0809132,-0.00853852,-1.09601,0.0570019,0.0463219,2029,1002,24.9324,-6.67891
812,22,24.8921,6.43085,0.0114147,0.07675,-0.0494172,0.103321,-0.0151564,-1.07745,0.0744489,0.041911,2036,1002,24.8921,-6.43086
-700,15,0,0,0,0,0,0,0,0,0,-1,524,1009,0,0
-693,15,-21.5421,8.17889,0,0,0,0,0,0,0,-1,531,1009,-21.542,-8.17892
-686,15,-17.4299,2.59637,0,0,0,0,0,0,0,-1,538,1009,-17.4299,-2.5964
-679,15,-18.0636,2.44684,-0.0068561,0.00725375,-0.0195669,0.0209987,-0.0206011,-0.958421,0.024018,0.0494003,545,1009,-18.0636,-2.44683
-672,15,-19.4697,2.1051,-0.00810134,0.00842552,-0.0160615,0.0182246,-0.0179004,-1.02298,0.0208571,0.0441994,552,1009,-19.4697,-2.10512
-665,15,-19.3118,1.92542,0,0,0,0,0,0,0,-1,559,1009,-19.3118,-1.92543
-658,15,-19.2454,2.11414,0,0,0,0,0,0,0,-1,566,1009,-19.2454,-2.11414
-651,15,-18.9269,2.47882,-0.00690222,0.00847652,-0.00722506,0.0113384,-0.00976406,-1.19366,0.0121948,0.0386447,573,1009,-18.9269,-2.4788
-644,15,-19.0954,2.68781,-0.00564088,0.00767978,-0.00540298,0.0095957,-0.00755681,-1.23002,0.0099263,0.025009,580,1009,-19.0954,-2.68781
-637,15,-19.1229,2.71381,-0.00516162,0.00735396,-0.00410457,0.00857998,-0.00638764,-1.28054,0.00867241,0.019628,587,1009,-19.1228,-2.71381
-630,15,-19.1632,2.65668,-0.00427777,0.00569052,-0.00407013,0.00714125,-0.00572851,-1.2284,0.00744527,0.012328,594,1009,-19.1632,-2.65669
-623,15,-19.1923,2.62531,-0.00209464,0.00511361,-0.00373275,0.00669823,-0.00367927,-1.16933,0.00607538,0.00957233,601,1009,-19.1922,-2.62529
-616,15,-19.1996,2.58081,-0.000805096,0.00379343,-0.0046936,0.00672068,-0.00373235,-1.01315,0.00611672,0.0147106,608,1009,-19.1996,-2.5808
-609,15,-19.1678,2.53204,-0.0006551,0.00326071,-0.0054833,0.00712518,-0.00451957,-0.956876,0.00677897,0.0201609,615,1009,-19.1678,-2.53205
-602,15,-19.1468,2.44336,-0.000548624,0.0021679,-0.00609499,0.00705414,-0.00543486,-0.895031,0.0072307,0.0197604,622,1009,-19.1468,-2.44335
-595,15,-19.0954,2.09283,-0.000188097,0.00163104,-0.00662459,0.00740821,-0.00596527,-0.853622,0.00773615,0.0271583,629,1009,-19.0954,-2.09282
-588,15,-19.0269,1.72351,0.000242853,0.00115291,-0.00686548,0.00757843,-0.00618267,-0.818489,0.00795858,0.0320487,636,1009,-19.0269,-1.72354
-581,15,-19.1201,1.5166,0.000557867,0.000761309,-0.0069661,0.00762643,-0.00630726,-0.792699,0.00805663,0.0361053,643,1009,-19.1201,-1.51658
-574,15,-19.1163,1.4837,0.00074285,0.000682763,-0.00689041,0.00760328,-0.00617767,-0.783218,0.00797061,0.0340719,650,1009,-19.1163,-1.48372
-567,15,-19.1301,1.41064,0.000921952,0.000489078,-0.00633346,0.00704267,-0.00563164,-0.768318,0.00733262,0.0354414,657,1009,-19.13,-1.41067
-560,15,-19.1361,1.47028,0.00121588,0.000329849,-0.00549065,0.00628135,-0.00473563,-0.745143,0.00638149,0.0392935,664,1009,-19.1361,-1.47031
-553,15,-19.0964,1.64435,0.00165478,0.000208318,-0.00449587,0.00548522,-0.00362212,-0.705649,0.00529467,0.0408206,671,1009,-19.0964,-1.64437
-546,15,-19.0611,1.82104,0.0022861,0.000146676,-0.00351101,0.00488674,-0.00245396,-0.637529,0.00431504,0.0420549,678,1009,-19.0611,-1.82105
-539,15,-19.095,1.61365,0.00317856,0.000377868,-0.0030765,0.00515843,-0.001602,-0.571824,0.00407919,0.0414657,685,1009,-19.095,-1.61364
-532,15,-19.0859,1.42627,0.00396612,0.00151209,-0.00442377,0.00732989,-0.00185169,-0.650115,0.00560669,0.0413394,692,1009,-19.0859,-1.42629
-525,15,0,0,0,0,0,0,0,0,0,-1,699,1009,0,0
-518,15,0,0,0,0,0,0,0,0,0,-1,706,1009,0,0
-511,15,0,0,0,0,0,0,0,0,0,-1,713,1009,0,0
-504,15,0,0,0,0,0,0,0,0,0,-1,720,1009,0,0
-497,15,0,0,0,0,0,0,0,0,0,-1,727,1009,0,0
-490,15,0,0,0,0,0,0,0,0,0,-1,734,1009,0,0
-483,15,0,0,0,0,0,0,0,0,0,-1,741,1009,0,0
-476,15,0,0,0,0,0,0,0,0,0,-1,748,1009,0,0
-469,15,0,0,0,0,0,0,0,0,0,-1,755,1009,0,0
-462,15,0,0,0,0,0,0,0,0,0,-1,762,1009,0,0
-455,15,0,0,0,0,0,0,0,0,0,-1,769,1009,0,0
-448,15,0,0,0,0,0,0,0,0,0,-1,776,1009,0,0
-441,15,0,0,0,0,0,0,0,0,0,-1,783,1009,0,0
-434,15,0,0,0,0,0,0,0,0,0,-1,790,1009,0,0
-427,15,0,0,0,0,0,0,0,0,0,-1,797,1009,0,0
-420,15,0,0,0,0,0,0,0,0,0,-1,804,1009,0,0
-413,15,0,0,0,0,0,0,0,0,0,-1,811,1009,0,0
-406,15,0,0,0,0,0,0,0,0,0,-1,818,1009,0,0
-399,15,0,0,0,0,0,0,0,0,0,-1,825,1009,0,0
-392,15,0,0,0,0,0,0,0,0,0,-1,832,1009,0,0
-385,15,0,0,0,0,0,0,0,0,0,-1,839,1009,0,0
-378,15,0,0,0,0,0,0,0,0,0,-1,846,1009,0,0
-371,15,0,0,0,0,0,0,0,0,0,-1,853,1009,0,0
-364,15,0,0,0,0,0,0,0,0,0,-1,860,1009,0,0
-357,15,0,0,0,0,0,0,0,0,0,-1,867,1009,0,0
-350,15,0,0,0,0,0,0,0,0,0,-1,874,1009,0,0
-343,15,0,0,0,0,0,0,0,0,0,-1,881,1009,0,0
-336,15,0,0,0,0,0,0,0,0,0,-1,888,1009,0,0
-329,15,0,0,0,0,0,0,0,0,0,-1,895,1009,0,0
-322,15,0,0,0,0,0,0,0,0,0,-1,902,1009,0,0
-315,15,0,0,0,0,0,0,0,0,0,-1,909,1009,0,0
-308,15,0,0,0,0,0,0,0,0,0,-1,916,1009,0,0
-301,15,0,0,0,0,0,0,0,0,0,-1,923,1009,0,0
-294,15,0,0,0,0,0,0,0,0,0,-1,930,1009,0,0
-287,15,0,0,0,0,0,0,0,0,0,-1,937,1009,0,0
-280,15,0,0,0,0,0,0,0,0,0,-1,944,1009,0,0
-273,15,0,0,0,0,0,0,0,0,0,-1,951,1009,0,0
-266,15,0,0,0,0,0,0,0,0,0,-1,958,1009,0,0
-259,15,0,0,0,0,0,0,0,0,0,-1,965,1009,0,0
-252,15,0,0,0,0,0,0,0,0,0,-1,972,1009,0,0
-245,15,0,0,0,0,0,0,0,0,0,-1,979,1009,0,0
-238,15,0,0,0,0,0,0,0,0,0,-1,986,1009,0,0
-231,15,0,0,0,0,0,0,0,0,0,-1,993,1009,0,0
-224,15,0,0,0,0,0,0,0,0,0,-1,1000,1009,0,0
-217,15,0,0,0,0,0,0,0,0,0,-1,1007,1009,0,0
-210,15,0,0,0,0,0,0,0,0,0,-1,1014,1009,0,0
-203,15,0,0,0,0,0,0,0,0,0,-1,1021,1009,0,0
-196,15,0,0,0,0,0,0,0,0,0,-1,1028,1009,0,0
-189,15,0,0,0,0,0,0,0,0,0,-1,1035,1009,0,0
-182,15,0,0,0,0,0,0,0,0,0,-1,1042,1009,0,0
-175,15,0,0,0,0,0,0,0,0,0,-1,1049,1009,0,0
-168,15,0,0,0,0,0,0,0,0,0,-1,1056,1009,0,0
-161,15,0,0,0,0,0,0,0,0,0,-1,1063,1009,0,0
-154,15,0,0,0,0,0,0,0,0,0,-1,1070,1009,0,0
-147,15,0,0,0,0,0,0,0,0,0,-1,1077,1009,0,0
-140,15,0,0,0,0,0,0,0,0,0,-1,1084,1009,0,0
-133,15,0,0,0,0,0,0,0,0,0,-1,1091,1009,0,0
-126,15,0,0,0,0,0,0,0,0,0,-1,1098,1009,0,0
-119,15,0,0,0,0,0,0,0,0,0,-1,1105,1009,0,0
-112,15,0,0,0,0,0,0,0,0,0,-1,1112,1009,0,0
-105,15,0,0,0,0,0,0,0,0,0,-1,1119,1009,0,0
-98,15,0,0,0,0,0,0,0,0,0,-1,1126,1009,0,0
-91,15,0,0,0,0,0,0,0,0,0,-1,1133,1009,0,0
-84,15,0,0,0,0,0,0,0,0,0,-1,1140,1009,0,0
-77,15,0,0,0,0,0,0,0,0,0,-1,1147,1009,0,0
-70,15,0,0,0,0,0,0,0,0,0,-1,1154,1009,0,0
-63,15,0,0,0,0,0,0,0,0,0,-1,1161,1009,0,0
-56,15,0,0,0,0,0,0,0,0,0,-1,1168,1009,0,0
-49,15,0,0,0,0,0,0,0,0,0,-1,1175,1009,0,0
-42,15,0,0,0,0,0,0,0,0,0,-1,1182,1009,0,0
-35,15,0,0,0,0,0,0,0,0,0,-1,1189,1009,0,0
-28,15,0,0,0,0,0,0,0,0,0,-1,1196,1009,0,0
-21,15,0,0,0,0,0,0,0,0,0,-1,1203,1009,0,0
-14,15,0,0,0,0,0,0,0,0,0,-1,1210,1009,0,0
-7,15,0,0,0,0,0,0,0,0,0,-1,1217,1009,0,0
0,15,0,0,0,0,0,0,0,0,0,-1,1224,1009,0,0
7,15,0,0,0,0,0,0,0,0,0,-1,1231,1009,0,0
14,15,0,0,0,0,0,0,0,0,0,-1,1238,1009,0,0
21,15,0,0,0,0,0,0,0,0,0,-1,1245,1009,0,0
28,15,0,0,0,0,0,0,0,0,0,-1,1252,1009,0,0
35,15,0,0,0,0,0,0,0,0,0,-1,1259,1009,0,0
42,15,0,0,0,0,0,0,0,0,0,-1,1266,1009,0,0
49,15,0,0,0,0,0,0,0,0,0,-1,1273,1009,0,0
56,15,0,0,0,0,0,0,0,0,0,-1,1280,1009,0,0
63,15,0,0,0,0,0,0,0,0,0,-1,1287,1009,0,0
70,15,0,0,0,0,0,0,0,0,0,-1,1294,1009,0,0
77,15,0,0,0,0,0,0,0,0,0,-1,1301,1009,0,0
84,15,0,0,0,0,0,0,0,0,0,-1,1308,1009,0,0
91,15,0,0,0,0,0,0,0,0,0,-1,1315,1009,0,0
98,15,0,0,0,0,0,0,0,0,0,-1,1322,1009,0,0
105,15,0,0,0,0,0,0,0,0,0,-1,1329,1009,0,0
112,15,0,0,0,0,0,0,0,0,0,-1,1336,1009,0,0
119,15,0,0,0,0,0,0,0,0,0,-1,1343,1009,0,0
126,15,0,0,0,0,0,0,0,0,0,-1,1350,1009,0,0
133,15,0,0,0,0,0,0,0,0,0,-1,1357,1009,0,0
140,15,0,0,0,0,0,0,0,0,0,-1,1364,1009,0,0
147,15,0,0,0,0,0,0,0,0,0,-1,1371,1009,0,0
154,15,0,0,0,0,0,0,0,0,0,-1,1378,1009,0,0
161,15,0,0,0,0,0,0,0,0,0,-1,1385,1009,0,0
168,15,0,0,0,0,0,0,0,0,0,-1,1392,1009,0,0
175,15,0,0,0,0,0,0,0,0,0,-1,1399,1009,0,0
182,15,0,0,0,0,0,0,0,0,0,-1,1406,1009,0,0
189,15,0,0,0,0,0,0,0,0,0,-1,1413,1009,0,0
196,15,0,0,0,0,0,0,0,0,0,-1,1420,1009,0,0
203,15,0,0,0,0,0,0,0,0,0,-1,1427,1009,0,0
210,15,0,0,0,0,0,0,0,0,0,-1,1434,1009,0,0
217,15,0,0,0,0,0,0,0,0,0,-1,1441,1009,0,0
224,15,0,0,0,0,0,0,0,0,0,-1,1448,1009,0,0
231,15,0,0,0,0,0,0,0,0,0,-1,1455,1009,0,0
238,15,0,0,0,0,0,0,0,0,0,-1,1462,1009,0,0
245,15,0,0,0,0,0,0,0,0,0,-1,1469,1009,0,0
252,15,0,0,0,0,0,0,0,0,0,-1,1476,1009,0,0
259,15,0,0,0,0,0,0,0,0,0,-1,1483,1009,0,0
266,15,0,0,0,0,0,0,0,0,0,-1,1490,1009,0,0
273,15,0,0,0,0,0,0,0,0,0,-1,1497,1009,0,0
280,15,0,0,0,0,0,0,0,0,0,-1,1504,1009,0,0
287,15,0,0,0,0,0,0,0,0,0,-1,1511,1009,0,0
294,15,0,0,0,0,0,0,0,0,0,-1,1518,1009,0,0
301,15,0,0,0,0,0,0,0,0,0,-1,1525,1009,0,0
308,15,0,0,0,0,0,0,0,0,0,-1,1532,1009,0,0
315,15,0,0,0,0,0,0,0,0,0,-1,1539,1009,0,0
322,15,0,0,0,0,0,0,0,0,0,-1,1546,1009,0,0
329,15,0,0,0,0,0,0,0,0,0,-1,1553,1009,0,0
336,15,0,0,0,0,0,0,0,0,0,-1,1560,1009,0,0
343,15,0,0,0,0,0,0,0,0,0,-1,1567,1009,0,0
350,15,0,0,0,0,0,0,0,0,0,-1,1574,1009,0,0
357,15,0,0,0,0,0,0,0,0,0,-1,1581,1009,0,0
364,15,0,0,0,0,0,0,0,0,0,-1,1588,1009,0,0
371,15,0,0,0,0,0,0,0,0,0,-1,1595,1009,0,0
378,15,0,0,0,0,0,0,0,0,0,-1,1602,1009,0,0
385,15,0,0,0,0,0,0,0,0,0,-1,1609,1009,0,0
392,15,0,0,0,0,0,0,0,0,0,-1,1616,1009,0,0
399,15,0,0,0,0,0,0,0,0,0,-1,1623,1009,0,0
406,15,0,0,0,0,0,0,0,0,0,-1,1630,1009,0,0
413,15,0,0,0,0,0,0,0,0,0,-1,1637,1009,0,0
420,15,0,0,0,0,0,0,0,0,0,-1,1644,1009,0,0
427,15,0,0,0,0,0,0,0,0,0,-1,1651,1009,0,0
434,15,0,0,0,0,0,0,0,0,0,-1,1658,1009,0,0
441,15,0,0,0,0,0,0,0,0,0,-1,1665,1009,0,0
448,15,0,0,0,0,0,0,0,0,0,-1,1672,1009,0,0
455,15,0,0,0,0,0,0,0,0,0,-1,1679,1009,0,0
462,15,0,0,0,0,0,0,0,0,0,-1,1686,1009,0,0
469,15,0,0,0,0,0,0,0,0,0,-1,1693,1009,0,0
476,15,0,0,0,0,0,0,0,0,0,-1,1700,1009,0,0
483,15,0,0,0,0,0,0,0,0,0,-1,1707,1009,0,0
490,15,0,0,0,0,0,0,0,0,0,-1,1714,1009,0,0
497,15,0,0,0,0,0,0,0,0,0,-1,1721,1009,0,0
504,15,0,0,0,0,0,0,0,0,0,-1,1728,1009,0,0
511,15,0,0,0,0,0,0,0,0,0,-1,1735,1009,0,0
518,15,0,0,0,0,0,0,0,0,0,-1,1742,1009,0,0
525,15,0,0,0,0,0,0,0,0,0,-1,1749,1009,0,0
532,15,0,0,0,0,0,0,0,0,0,-1,1756,1009,0,0
539,15,0,0,0,0,0,0,0,0,0,-1,1763,1009,0,0
546,15,0,0,0,0,0,0,0,0,0,-1,1770,1009,0,0
553,15,0,0,0,0,0,0,0,0,0,-1,1777,1009,0,0
560,15,0,0,0,0,0,0,0,0,0,-1,1784,1009,0,0
567,15,0,0,0,0,0,0,0,0,0,-1,1791,1009,0,0
574,15,0,0,0,0,0,0,0,0,0,-1,1798,1009,0,0
581,15,0,0,0,0,0,0,0,0,0,-1,1805,1009,0,0
588,15,0,0,0,0,0,0,0,0,0,-1,1812,1009,0,0
595,15,0,0,0,0,0,0,0,0,0,-1,1819,1009,0,0
602,15,0,0,0,0,0,0,0,0,0,-1,1826,1009,0,0
609,15,0,0,0,0,0,0,0,0,0,-1,1833,1009,0,0
616,15,0,0,0,0,0,0,0,0,0,-1,1840,1009,0,0
623,15,0,0,0,0,0,0,0,0,0,-1,1847,1009,0,0
630,15,0,0,0,0,0,0,0,0,0,-1,1854,1009,0,0
637,15,0,0,0,0,0,0,0,0,0,-1,1861,1009,0,0
644,15,27.1887,3.45026,0.00793654,-0.00242794,-0.00375072,0.00915145,-0.00364285,-0.313249,0.00761159,0.0413272,1868,1009,27.1887,-3.45024
651,15,27.3116,3.26508,0.0048999,-0.00157836,-0.00266657,0.00585631,-0.00253476,-0.344375,0.0049695,0.0399607,1875,1009,27.3116,-3.26506
658,15,27.4114,3.20245,0.00285312,-0.00106365,-0.0018534,0.0035911,-0.00180163,-0.378932,0.00317011,0.039969,1882,1009,27.4114,-3.20244
665,15,27.5101,3.45276,0.00131342,-0.000596301,-0.00104261,0.00177235,-0.00105523,-0.41465,0.00164991,0.0364894,1889,1009,27.5101,-3.45273
672,15,27.5536,3.49402,0.000118473,-0.000294208,-2.31448e-05,0.000119767,-0.000295502,-0.0558505,0.000246808,0.0359511,1896,1009,27.5536,-3.49403
679,15,27.5872,3.36176,-0.00095432,-0.000278902,0.00125474,0.000682786,-0.00191601,0.916856,0.00155571,0.037289,1903,1009,27.5872,-3.36175
686,15,27.6239,3.14758,-0.00162501,-0.000428645,0.00231373,0.00136298,-0.00341664,0.911896,0.00284315,0.0418925,1910,1009,27.6239,-3.14756
693,15,27.5597,3.12616,-0.00195361,-0.000645516,0.0031438,0.00191155,-0.00451067,0.887957,0.00380774,0.039776,1917,1009,27.5597,-3.12615
700,15,27.5066,3.33643,-0.00216313,-0.000740091,0.00371937,0.0023352,-0.00523842,0.879907,0.00447844,0.0300916,1924,1009,27.5066,-3.3364
707,15,27.4645,3.42902,-0.00245234,-0.000837969,0.00412325,0.00255636,-0.00584667,0.882058,0.00497392,0.0310933,1931,1009,27.4645,-3.42902
714,15,27.6123,2.26343,0,0,0,0,0,0,0,-1,1938,1009,27.6123,-2.26342
721,15,27.5343,3.77673,0,0,0,0,0,0,0,-1,1945,1009,27.5343,-3.77672
728,15,27.0917,4.93652,0,0,0,0,0,0,0,-1,1952,1009,27.0917,-4.93653
735,15,27.0392,5.0365,-0.00288413,0.000328436,0.00387541,0.00291726,-0.00547296,0.981862,0.00491843,0.0160419,1959,1009,27.0392,-5.03651
742,15,27.0417,5.12769,-0.00244498,0.00163423,0.00355928,0.00369687,-0.00450763,1.04558,0.00474458,0.0181875,1966,1009,27.0417,-5.1277
749,15,27.0397,5.16193,-0.00226595,0.00315528,0.00261697,0.00421241,-0.00332309,1.18689,0.00436071,0.0112558,1973,1009,27.0397,-5.1619
756,15,27.0424,5.19049,-0.00202601,0.00572062,0.00117506,0.00589494,-0.00220033,1.42352,0.00483333,0.0119442,1980,1009,27.0424,-5.19046
763,15,27.0059,5.25433,-0.00116775,0.00915462,-0.00114963,0.00928111,-0.00129424,-1.46121,0.00666086,0.0118822,1987,1009,27.0059,-5.25432
770,15,26.9746,5.27759,7.97138e-05,0.0139446,-0.00386578,0.0149496,-0.000925286,-1.31645,0.0102887,0.0111812,1994,1009,26.9746,-5.27759
777,15,26.9041,5.33148,0.00168512,0.0196939,-0.00726027,0.0222563,-0.000877286,-1.23151,0.0151384,0.0195704,2001,1009,26.9041,-5.33149
784,15,26.6832,4.99005,0.00337912,0.0261826,-0.011366,0.0308801,-0.00131839,-1.17888,0.02104,0.0392106,2008,1009,26.6832,-4.99006
791,15,26.3951,4.56427,0,0,0,0,0,0,0,-1,2015,1009,26.3951,-4.56424
798,15,26.1362,5.16602,0,0,0,0,0,0,0,-1,2022,1009,26.1362,-5.16602
805,15,25.3997,5.96912,0.0095651,0.0526763,-0.0336794,0.0711075,-0.0088661,-1.07006,0.0506199,0.0444035,2029,1009,25.3998,-5.9691
812,15,25.4688,5.75275,0.0112121,0.0640877,-0.0459394,0.0906536,-0.0153538,-1.0465,0.0661503,0.0417512,2036,1009,25.4687,-5.75275
-700,8,0,0,0,0,0,0,0,0,0,-1,524,1016,0,0
-693,8,-17.6714,2.52539,0,0,0,0,0,0,0,-1,531,1016,-17.6714,-2.52541
-686,8,-17.9319,1.97302,-0.0149774,0.0108712,-0.0192991,0.0211739,-0.0252801,-1.08044,0.0268552,0.0473841,538,1016,-17.932,-1.97301
-679,8,-18.2583,2.31354,-0.014112,0.0117478,-0.0153651,0.0188995,-0.0212636,-1.13517,0.0232016,0.0476513,545,1016,-18.2583,-2.31352
-672,8,-19.1679,1.88733,-0.0127919,0.0120527,-0.011928,0.0168522,-0.0175913,-1.18825,0.0198875,0.0417797,552,1016,-19.1679,-1.88734
-665,8,-19.2169,2.10553,-0.0111515,0.0118551,-0.00897767,0.0149437,-0.0142402,-1.23945,0.016851,0.0441092,559,1016,-19.2169,-2.10551
-658,8,-19.1887,2.2652,-0.00935706,0.0111939,-0.00651667,0.0130861,-0.0112493,-1.2882,0.0140634,0.0361246,566,1016,-19.1886,-2.26519
-651,8,-19.063,2.47125,-0.00750018,0.0101076,-0.00457011,0.0112231,-0.00861568,-1.33139,0.0114868,0.02176,573,1016,-19.063,-2.47125
-644,8,-19.0096,2.5589,-0.00567504,0.00881599,-0.00340375,0.00957566,-0.00643471,-1.35121,0.00930269,0.0271548,580,1016,-19.0096,-2.55892
-637,8,-19.0642,2.61981,-0.00460526,0.00797417,-0.00272898,0.00854069,-0.00517178,-1.36611,0.00799614,0.0235804,587,1016,-19.0642,-2.61979
-630,8,-19.1805,2.61737,-0.00339077,0.00610834,-0.00319921,0.00708532,-0.00436775,-1.27441,0.00667419,0.0157326,594,1016,-19.1805,-2.61738
-623,8,-19.1954,2.61914,-0.00126976,0.00520211,-0.00341736,0.00667251,-0.00274016,-1.16447,0.00559026,0.0134479,601,1016,-19.1954,-2.61916
-616,8,-19.2035,2.58704,-4.25388e-05,0.00377277,-0.00471001,0.00694678,-0.00321655,-0.977812,0.0059981,0.0132486,608,1016,-19.2035,-2.58707
-609,8,-19.1788,2.52094,2.33547e-05,0.00312284,-0.00580107,0.00757761,-0.00443141,-0.915924,0.00701228,0.014733,615,1016,-19.1788,-2.52096
-602,8,-19.16,2.51788,2.53509e-05,0.00204487,-0.0065629,0.00767523,-0.00560501,-0.861729,0.00769834,0.0202484,622,1016,-19.16,-2.51789
-595,8,-19.0688,2.0448,0,0,0,0,0,0,0,-1,629,1016,-19.0689,-2.04479
-588,8,-19.0452,1.38391,0,0,0,0,0,0,0,-1,636,1016,-19.0452,-1.38393
-581,8,-19.0756,1.46051,0.000984675,0.000784709,-0.00739887,0.00828424,-0.00651485,-0.778642,0.00856459,0.0298454,643,1016,-19.0755,-1.46048
-574,8,-19.0856,1.5351,0.00113706,0.00073036,-0.00721147,0.00814804,-0.00628062,-0.771303,0.00835362,0.0356107,650,1016,-19.0856,-1.53508
-567,8,-19.0793,1.54413,0.00123772,0.00059011,-0.00652196,0.0074439,-0.00561607,-0.760594,0.00756476,0.040095,657,1016,-19.0793,-1.54413
-560,8,-19.0966,1.54761,0.00141432,0.000476656,-0.00551691,0.00648228,-0.00459131,-0.74301,0.00642434,0.0411027,664,1016,-19.0966,-1.54763
-553,8,-18.9983,1.7287,0.00170571,0.000379419,-0.00433985,0.00543278,-0.00334766,-0.709583,0.00511681,0.0406301,671,1016,-18.9983,-1.72868
-546,8,-19.1865,1.83716,0.00217494,0.000301986,-0.00317435,0.00454807,-0.00207115,-0.64196,0.00390978,0.0396839,678,1016,-19.1865,-1.83715
-539,8,-19.2758,1.52515,0.00292513,0.000471283,-0.00268581,0.00465099,-0.00125458,-0.571144,0.00359263,0.0406119,685,1016,-19.2758,-1.52514
-532,8,-19.1919,1.40814,0.00369152,0.0014853,-0.00433027,0.00705697,-0.00188016,-0.660679,0.00544076,0.0415154,692,1016,-19.1919,-1.40812
-525,8,0,0,0,0,0,0,0,0,0,-1,699,1016,0,0
-518,8,0,0,0,0,0,0,0,0,0,-1,706,1016,0,0
-511,8,0,0,0,0,0,0,0,0,0,-1,713,1016,0,0
-504,8,0,0,0,0,0,0,0,0,0,-1,720,1016,0,0
-497,8,0,0,0,0,0,0,0,0,0,-1,727,1016,0,0
-490,8,0,0,0,0,0,0,0,0,0,-1,734,1016,0,0
-483,8,0,0,0,0,0,0,0,0,0,-1,741,1016,0,0
-476,8,0,0,0,0,0,0,0,0,0,-1,748,1016,0,0
-469,8,0,0,0,0,0,0,0,0,0,-1,755,1016,0,0
-462,8,0,0,0,0,0,0,0,0,0,-1,762,1016,0,0
-455,8,0,0,0,0,0,0,0,0,0,-1,769,1016,0,0
-448,8,0,0,0,0,0,0,0,0,0,-1,776,1016,0,0
-441,8,0,0,0,0,0,0,0,0,0,-1,783,1016,0,0
-434,8,0,0,0,0,0,0,0,0,0,-1,790,1016,0,0
-427,8,0,0,0,0,0,0,0,0,0,-1,797,1016,0,0
-420,8,0,0,0,0,0,0,0,0,0,-1,804,1016,0,0
-413,8,0,0,0,0,0,0,0,0,0,-1,811,1016,0,0
-406,8,0,0,0,0,0,0,0,0,0,-1,818,1016,0,0
-399,8,0,0,0,0,0,0,0,0,0,-1,825,1016,0,0
-392,8,0,0,0,0,0,0,0,0,0,-1,832,1016,0,0
-385,8,0,0,0,0,0,0,0,0,0,-1,839,1016,0,0
-378,8,0,0,0,0,0,0,0,0,0,-1,846,1016,0,0
-371,8,0,0,0,0,0,0,0,0,0,-1,853,1016,0,0
-364,8,0,0,0,0,0,0,0,0,0,-1,860,1016,0,0
-357,8,0,0,0,0,0,0,0,0,0,-1,867,1016,0,0
-350,8,0,0,0,0,0,0,0,0,0,-1,874,1016,0,0
-343,8,0,0,0,0,0,0,0,0,0,-1,881,1016,0,0
-336,8,0,0,0,0,0,0,0,0,0,-1,888,1016,0,0
-329,8,0,0,0,0,0,0,0,0,0,-1,895,1016,0,0
-322,8,0,0,0,0,0,0,0,0,0,-1,902,1016,0,0
-315,8,0,0,0,0,0,0,0,0,0,-1,909,1016,0,0
-308,8,0,0,0,0,0,0,0,0,0,-1,916,1016,0,0
-301,8,0,0,0,0,0,0,0,0,0,-1,923,1016,0,0
-294,8,0,0,0,0,0,0,0,0,0,-1,930,1016,0,0
-287,8,0,0,0,0,0,0,0,0,0,-1,937,1016,0,0
-280,8,0,0,0,0,0,0,0,0,0,-1,944,1016,0,0
-273,8,0,0,0,0,0,0,0,0,0,-1,951,1016,0,0
-266,8,0,0,0,0,0,0,0,0,0,-1,958,1016,0,0
-259,8,0,0,0,0,0,0,0,0,0,-1,965,1016,0,0
-252,8,0,0,0,0,0,0,0,0,0,-1,972,1016,0,0
-245,8,0,0,0,0,0,0,0,0,0,-1,979,1016,0,0
-238,8,0,0,0,0,0,0,0,0,0,-1,986,1016,0,0
-231,8,0,0,0,0,0,0,0,0,0,-1,993,1016,0,0
-224,8,0,0,0,0,0,0,0,0,0,-1,1000,1016,0,0
-217,8,0,0,0,0,0,0,0,0,0,-1,1007,1016,0,0
-210,8,0,0,0,0,0,0,0,0,0,-1,1014,1016,0,0
-203,8,0,0,0,0,0,0,0,0,0,-1,1021,1016,0,0
-196,8,0,0,0,0,0,0,0,0,0,-1,1028,1016,0,0
-189,8,0,0,0,0,0,0,0,0,0,-1,1035,1016,0,0
-182,8,0,0,0,0,0,0,0,0,0,-1,1042,1016,0,0
-175,8,0,0,0,0,0,0,0,0,0,-1,1049,1016,0,0
-168,8,0,0,0,0,0,0,0,0,0,-1,1056,1016,0,0
-161,8,0,0,0,0,0,0,0,0,0,-1,1063,1016,0,0
-154,8,0,0,0,0,0,0,0,0,0,-1,1070,1016,0,0
-147,8,0,0,0,0,0,0,0,0,0,-1,1077,1016,0,0
-140,8,0,0,0,0,0,0,0,0,0,-1,1084,1016,0,0
-133,8,0,0,0,0,0,0,0,0,0,-1,1091,1016,0,0
-126,8,0,0,0,0,0,0,0,0,0,-1,1098,1016,0,0
-119,8,0,0,0,0,0,0,0,0,0,-1,1105,1016,0,0
-112,8,0,0,0,0,0,0,0,0,0,-1,1112,1016,0,0
-105,8,0,0,0,0,0,0,0,0,0,-1,1119,1016,0,0
-98,8,0,0,0,0,0,0,0,0,0,-1,1126,1016,0,0
-91,8,0,0,0,0,0,0,0,0,0,-1,1133,1016,0,0
-84,8,0,0,0,0,0,0,0,0,0,-1,1140,1016,0,0
-77,8,0,0,0,0,0,0,0,0,0,-1,1147,1016,0,0
-70,8,0,0,0,0,0,0,0,0,0,-1,1154,1016,0,0
-63,8,0,0,0,0,0,0,0,0,0,-1,1161,1016,0,0
-56,8,0,0,0,0,0,0,0,0,0,-1,1168,1016,0,0
-49,8,0,0,0,0,0,0,0,0,0,-1,1175,1016,0,0
-42,8,0,0,0,0,0,0,0,0,0,-1,1182,1016,0,0
-35,8,0,0,0,0,0,0,0,0,0,-1,1189,1016,0,0
-28,8,0,0,0,0,0,0,0,0,0,-1,1196,1016,0,0
-21,8,0,0,0,0,0,0,0,0,0,-1,1203,1016,0,0
-14,8,0,0,0,0,0,0,0,0,0,-1,1210,1016,0,0
-7,8,0,0,0,0,0,0,0,0,0,-1,1217,1016,0,0
0,8,0,0,0,0,0,0,0,0,0,-1,1224,1016,0,0
7,8,0,0,0,0,0,0,0,0,0,-1,1231,1016,0,0
14,8,0,0,0,0,0,0,0,0,0,-1,1238,1016,0,0
21,8,0,0,0,0,0,0,0,0,0,-1,1245,1016,0,0
28,8,0,0,0,0,0,0,0,0,0,-1,1252,1016,0,0
35,8,0,0,0,0,0,0,0,0,0,-1,1259,1016,0,0
42,8,0,0,0,0,0,0,0,0,0,-1,1266,1016,0,0
49,8,0,0,0,0,0,0,0,0,0,-1,1273,1016,0,0
56,8,0,0,0,0,0,0,0,0,0,-1,1280,1016,0,0
63,8,0,0,0,0,0,0,0,0,0,-1,1287,1016,0,0
70,8,0,0,0,0,0,0,0,0,0,-1,1294,1016,0,0
77,8,0,0,0,0,0,0,0,0,0,-1,1301,1016,0,0
84,8,0,0,0,0,0,0,0,0,0,-1,1308,1016,0,0
91,8,0,0,0,0,0,0,0,0,0,-1,1315,1016,0,0
98,8,0,0,0,0,0,0,0,0,0,-1,1322,1016,0,0
105,8,0,0,0,0,0,0,0,0,0,-1,1329,1016,0,0
112,8,0,0,0,0,0,0,0,0,0,-1,1336,1016,0,0
119,8,0,0,0,0,0,0,0,0,0,-1,1343,1016,0,0
126,8,0,0,0,0,0,0,0,0,0,-1,1350,1016,0,0
133,8,0,0,0,0,0,0,0,0,0,-1,1357,1016,0,0
140,8,0,0,0,0,0,0,0,0,0,-1,1364,1016,0,0
147,8,0,0,0,0,0,0,0,0,0,-1,1371,1016,0,0
154,8,0,0,0,0,0,0,0,0,0,-1,1378,1016,0,0
161,8,0,0,0,0,0,0,0,0,0,-1,1385,1016,0,0
168,8,0,0,0,0,0,0,0,0,0,-1,1392,1016,0,0
175,8,0,0,0,0,0,0,0,0,0,-1,1399,1016,0,0
182,8,0,0,0,0,0,0,0,0,0,-1,1406,1016,0,0
189,8,0,0,0,0,0,0,0,0,0,-1,1413,1016,0,0
196,8,0,0,0,0,0,0,0,0,0,-1,1420,1016,0,0
203,8,0,0,0,0,0,0,0,0,0,-1,1427,1016,0,0
210,8,0,0,0,0,0,0,0,0,0,-1,1434,1016,0,0
217,8,0,0,0,0,0,0,0,0,0,-1,1441,1016,0,0
224,8,0,0,0,0,0,0,0,0,0,-1,1448,1016,0,0
231,8,0,0,0,0,0,0,0,0,0,-1,1455,1016,0,0
238,8,0,0,0,0,0,0,0,0,0,-1,1462,1016,0,0
245,8,0,0,0,0,0,0,0,0,0,-1,1469,1016,0,0
252,8,0,0,0,0,0,0,0,0,0,-1,1476,1016,0,0
259,8,0,0,0,0,0,0,0,0,0,-1,1483,1016,0,0
266,8,0,0,0,0,0,0,0,0,0,-1,1490,1016,0,0
273,8,0,0,0,0,0,0,0,0,0,-1,1497,1016,0,0
280,8,0,0,0,0,0,0,0,0,0,-1,1504,1016,0,0
287,8,0,0,0,0,0,0,0,0,0,-1,1511,1016,0,0
294,8,0,0,0,0,0,0,0,0,0,-1,1518,1016,0,0
301,8,0,0,0,0,0,0,0,0,0,-1,1525,1016,0,0
308,8,0,0,0,0,0,0,0,0,0,-1,1532,1016,0,0
315,8,0,0,0,0,0,0,0,0,0,-1,1539,1016,0,0
322,8,0,0,0,0,0,0,0,0,0,-1,1546,1016,0,0
329,8,0,0,0,0,0,0,0,0,0,-1,1553,1016,0,0
336,8,0,0,0,0,0,0,0,0,0,-1,1560,1016,0,0
343,8,0,0,0,0,0,0,0,0,0,-1,1567,1016,0,0
350,8,0,0,0,0,0,0,0,0,0,-1,1574,1016,0,0
357,8,0,0,0,0,0,0,0,0,0,-1,1581,1016,0,0
364,8,0,0,0,0,0,0,0,0,0,-1,1588,1016,0,0
371,8,0,0,0,0,0,0,0,0,0,-1,1595,1016,0,0
378,8,0,0,0,0,0,0,0,0,0,-1,1602,1016,0,0
385,8,0,0,0,0,0,0,0,0,0,-1,1609,1016,0,0
392,8,0,0,0,0,0,0,0,0,0,-1,1616,1016,0,0
399,8,0,0,0,0,0,0,0,0,0,-1,1623,1016,0,0
406,8,0,0,0,0,0,0,0,0,0,-1,1630,1016,0,0
413,8,0,0,0,0,0,0,0,0,0,-1,1637,1016,0,0
420,8,0,0,0,0,0,0,0,0,0,-1,1644,1016,0,0
427,8,0,0,0,0,0,0,0,0,0,-1,1651,1016,0,0
434,8,0,0,0,0,0,0,0,0,0,-1,1658,1016,0,0
441,8,0,0,0,0,0,0,0,0,0,-1,1665,1016,0,0
448,8,0,0,0,0,0,0,0,0,0,-1,1672,1016,0,0
455,8,0,0,0,0,0,0,0,0,0,-1,1679,1016,0,0
462,8,0,0,0,0,0,0,0,0,0,-1,1686,1016,0,0
469,8,0,0,0,0,0,0,0,0,0,-1,1693,1016,0,0
476,8,0,0,0,0,0,0,0,0,0,-1,1700,1016,0,0
483,8,0,0,0,0,0,0,0,0,0,-1,1707,1016,0,0
490,8,0,0,0,0,0,0,0,0,0,-1,1714,1016,0,0
497,8,0,0,0,0,0,0,0,0,0,-1,1721,1016,0,0
504,8,0,0,0,0,0,0,0,0,0,-1,1728,1016,0,0
511,8,0,0,0,0,0,0,0,0,0,-1,1735,1016,0,0
518,8,0,0,0,0,0,0,0,0,0,-1,1742,1016,0,0
525,8,0,0,0,0,0,0,0,0,0,-1,1749,1016,0,0
532,8,0,0,0,0,0,0,0,0,0,-1,1756,1016,0,0
539,8,0,0,0,0,0,0,0,0,0,-1,1763,1016,0,0
546,8,0,0,0,0,0,0,0,0,0,-1,1770,1016,0,0
553,8,0,0,0,0,0,0,0,0,0,-1,1777,1016,0,0
560,8,0,0,0,0,0,0,0,0,0,-1,1784,1016,0,0
567,8,0,0,0,0,0,0,0,0,0,-1,1791,1016,0,0
574,8,0,0,0,0,0,0,0,0,0,-1,1798,1016,0,0
581,8,0,0,0,0,0,0,0,0,0,-1,1805,1016,0,0
588,8,0,0,0,0,0,0,0,0,0,-1,1812,1016,0,0
595,8,0,0,0,0,0,0,0,0,0,-1,1819,1016,0,0
602,8,0,0,0,0,0,0,0,0,0,-1,1826,1016,0,0
609,8,0,0,0,0,0,0,0,0,0,-1,1833,1016,0,0
616,8,0,0,0,0,0,0,0,0,0,-1,1840,1016,0,0
623,8,0,0,0,0,0,0,0,0,0,-1,1847,1016,0,0
630,8,0,0,0,0,0,0,0,0,0,-1,1854,1016,0,0
637,8,0,0,0,0,0,0,0,0,0,-1,1861,1016,0,0
644,8,27.2949,3.5968,0.00985527,-0.00222189,-0.00432002,0.0112414,-0.00360806,-0.310494,0.00894298,0.0415004,1868,1016,27.2949,-3.59678
651,8,27.4083,3.34351,0.0062572,-0.00136841,-0.00295013,0.00726526,-0.00237647,-0.329261,0.00580028,0.038864,1875,1016,27.4083,-3.34348
658,8,27.4486,3.23486,0.00384208,-0.000861387,-0.00201082,0.00458454,-0.00160385,-0.353706,0.00370844,0.0397682,1882,1016,27.4486,-3.23488
665,8,27.4012,3.27185,0.00204022,-0.000414811,-0.00119288,0.00252436,-0.000898951,-0.385545,0.00204937,0.0398295,1889,1016,27.4013,-3.27185
672,8,27.5222,3.42035,0.000652346,-0.000155394,-0.000188062,0.000693985,-0.000197033,-0.217896,0.000540442,0.0386165,1896,1016,27.5222,-3.42038
679,8,27.5045,3.32019,-0.000576613,-0.00020788,0.0011197,0.000742528,-0.00152702,0.866995,0.00133616,0.0366053,1903,1016,27.5046,-3.32018
686,8,27.5432,3.12329,-0.00136522,-0.000429764,0.00221825,0.00136953,-0.00316452,0.889303,0.00268524,0.0407149,1910,1016,27.5432,-3.12331
693,8,27.5499,3.17456,-0.00177945,-0.000717898,0.00310457,0.00190095,-0.00439829,0.870062,0.00373092,0.0396006,1917,1016,27.55,-3.17453
700,8,27.532,3.32898,-0.00203208,-0.000871124,0.00374246,0.00233561,-0.00523881,0.862338,0.00447889,0.0304481,1924,1016,27.532,-3.329
707,8,27.4979,3.36041,-0.00238156,-0.00101391,0.00419825,0.00255584,-0.00595132,0.866131,0.00504033,0.0251997,1931,1016,27.4979,-3.36043
714,8,27.5684,2.47644,0,0,0,0,0,0,0,-1,1938,1016,27.5683,-2.47643
721,8,27.6475,3.67041,0,0,0,0,0,0,0,-1,1945,1016,27.6475,-3.67042
728,8,27.0625,4.99457,0,0,0,0,0,0,0,-1,1952,1016,27.0625,-4.99455
735,8,27.03,5.02637,-0.00291792,6.64068e-05,0.00405363,0.00289379,-0.0057453,0.961755,0.00507754,0.0200965,1959,1016,27.0301,-5.02639
742,8,27.0919,5.04584,-0.00254001,0.00126468,0.00373524,0.00355411,-0.00482944,1.02093,0.00485888,0.0209921,1966,1016,27.0919,-5.04584
749,8,27.0952,5.14264,-0.00246136,0.00265606,0.00287425,0.0039455,-0.00375081,1.14909,0.00444394,0.0151153,1973,1016,27.0952,-5.14261
756,8,27.0576,5.14966,-0.00230326,0.00493748,0.00151158,0.00524037,-0.00260614,1.37304,0.0046145,0.0136188,1980,1016,27.0577,-5.14963
763,8,27.0587,5.19696,-0.0015724,0.00796472,-0.000744426,0.00802247,-0.00163016,-1.49337,0.0059664,0.0120593,1987,1016,27.0587,-5.19698
770,8,27.0341,5.22083,-0.000518148,0.0121093,-0.00338795,0.0129609,-0.00136971,-1.32455,0.00913147,0.0128851,1994,1016,27.034,-5.22083
777,8,26.9701,5.2832,0.000910092,0.0169978,-0.00666007,0.0193971,-0.00148924,-1.22501,0.0134553,0.0178492,2001,1016,26.97,-5.28321
784,8,26.8783,5.28705,0.00242625,0.0223511,-0.0105268,0.0268823,-0.00210491,-1.16433,0.0186628,0.0379715,2008,1016,26.8784,-5.28706
791,8,26.7979,5.27625,0,0,0,0,0,0,0,-1,2015,1016,26.7978,-5.27623
798,8,26.4363,5.34967,0.00620205,0.0352012,-0.0224006,0.0473854,-0.00598213,-1.07263,0.0337614,0.0463747,2022,1016,26.4363,-5.34967
805,8,25.9797,5.61865,0.00838001,0.0427507,-0.031219,0.0612019,-0.0100712,-1.037,0.0445395,0.0438315,2029,1016,25.9797,-5.61868
812,8,26.0625,5.32202,0.0103196,0.0509176,-0.0425817,0.0777912,-0.0165539,-1.00782,0.0581693,0.0433901,2036,1016,26.0625,-5.32204
-700,1,0,0,0,0,0,0,0,0,0,-1,524,1023,0,0
-693,1,-17.871,2.56012,-0.0301391,0.0177527,-0.0204923,0.0253241,-0.0377105,-1.21688,0.0366265,0.0473148,531,1023,-17.871,-2.5601
-686,1,-18.079,2.37921,-0.0259895,0.0172954,-0.0152901,0.0221517,-0.0308458,-1.26326,0.0307351,0.0473361,538,1023,-18.079,-2.37923
-679,1,-18.4099,2.30328,-0.0221022,0.016611,-0.0112038,0.0196196,-0.0251108,-1.30845,0.0258899,0.0457735,545,1023,-18.4099,-2.30331
-672,1,-19.1975,2.2525,0,0,0,0,0,0,0,-1,552,1023,-19.1975,-2.25248
-665,1,-19.1707,2.35138,-0.0148823,0.0145132,-0.00542563,0.0154826,-0.0158517,-1.39398,0.0180913,0.0436581,559,1023,-19.1707,-2.35138
-658,1,-19.1455,2.43964,-0.011685,0.0130681,-0.00350201,0.0135541,-0.0121709,-1.43292,0.0148595,0.0323825,566,1023,-19.1455,-2.43966
-651,1,-19.0944,2.5343,-0.00883281,0.0113649,-0.00213999,0.0115892,-0.00905705,-1.46639,0.0119499,0.0170131,573,1023,-19.0944,-2.53428
-644,1,-19.0145,2.64227,-0.00633657,0.009587,-0.00160388,0.00974694,-0.00649651,-1.4714,0.00944055,0.0255787,580,1023,-19.0145,-2.64229
-637,1,-19.1072,2.57623,-0.00458814,0.00817461,-0.00159148,0.00837007,-0.0047836,-1.44859,0.00768779,0.0219929,587,1023,-19.1072,-2.57624
-630,1,-19.2378,2.56812,-0.00296903,0.00619316,-0.0025129,0.00683711,-0.00361298,-1.31994,0.00612833,0.0202439,594,1023,-19.2378,-2.5681
-623,1,-19.2015,2.58948,-0.000857209,0.00498963,-0.00319909,0.00639987,-0.00226745,-1.1556,0.0051902,0.0134542,601,1023,-19.2015,-2.58945
-616,1,-19.2291,2.56812,0.000384056,0.00344831,-0.00476693,0.00692328,-0.00309091,-0.940888,0.00592114,0.0159841,608,1023,-19.2291,-2.56809
-609,1,-19.2139,2.56635,0.000470454,0.00270316,-0.00611777,0.0078056,-0.00463198,-0.875644,0.00725835,0.0160578,615,1023,-19.2138,-2.56636
-602,1,-19.1751,2.57135,0.000404354,0.00165945,-0.00700759,0.00806754,-0.00600373,-0.830056,0.00815312,0.0127865,622,1023,-19.1751,-2.57135
-595,1,-19.1079,2.54742,0.000534852,0.00118868,-0.00758782,0.00845663,-0.00673309,-0.806927,0.00878859,0.0207452,629,1023,-19.1079,-2.5474
-588,1,-19.0703,1.98914,0.000873374,0.000843537,-0.0077892,0.00864767,-0.00693075,-0.784441,0.0090124,0.0292796,636,1023,-19.0703,-1.98916
-581,1,-19.0876,1.47217,0.00116768,0.000581658,-0.00776837,0.00864856,-0.00689922,-0.766548,0.00899544,0.0279457,643,1023,-19.0876,-1.47216
-574,1,-19.0778,1.53564,0.00127354,0.0005881,-0.00743263,0.00837135,-0.00650971,-0.762359,0.00861396,0.034212,650,1023,-19.0778,-1.53567
-567,1,-18.976,1.60126,0.00128643,0.000572494,-0.00656976,0.00750891,-0.00564999,-0.758257,0.00762252,0.0409253,657,1023,-18.976,-1.60123
-560,1,-18.8322,1.74109,0.00133899,0.000605296,-0.00533861,0.00632334,-0.00437906,-0.751094,0.00621293,0.0432786,664,1023,-18.8321,-1.74111
-553,1,-18.7369,1.57196,0.00147973,0.000657445,-0.00388245,0.00497275,-0.00283557,-0.732646,0.00456408,0.0413146,671,1023,-18.7369,-1.57194
-546,1,-18.8694,1.56696,0.00178142,0.000699387,-0.00238784,0.00368876,-0.00120796,-0.673994,0.00294558,0.0414866,678,1023,-18.8695,-1.56698
-539,1,-19.162,1.61053,0.00237658,0.000902369,-0.001635,0.00343295,-0.000154003,-0.573627,0.00234166,0.0418593,685,1023,-19.162,-1.61052
-532,1,-19.2168,1.55194,0.0031203,0.00178167,-0.00331997,0.00583776,-0.000935784,-0.68593,0.00423834,0.0432489,692,1023,-19.2168,-1.55194
-525,1,0,0,0,0,0,0,0,0,0,-1,699,1023,0,0
-518,1,0,0,0,0,0,0,0,0,0,-1,706,1023,0,0
-511,1,0,0,0,0,0,0,0,0,0,-1,713,1023,0,0
-504,1,0,0,0,0,0,0,0,0,0,-1,720,1023,0,0
-497,1,0,0,0,0,0,0,0,0,0,-1,727,1023,0,0
-490,1,0,0,0,0,0,0,0,0,0,-1,734,1023,0,0
-483,1,0,0,0,0,0,0,0,0,0,-1,741,1023,0,0
-476,1,0,0,0,0,0,0,0,0,0,-1,748,1023,0,0
-469,1,0,0,0,0,0,0,0,0,0,-1,755,1023,0,0
-462,1,0,0,0,0,0,0,0,0,0,-1,762,1023,0,0
-455,1,0,0,0,0,0,0,0,0,0,-1,769,1023,0,0
-448,1,0,0,0,0,0,0,0,0,0,-1,776,1023,0,0
-441,1,0,0,0,0,0,0,0,0,0,-1,783,1023,0,0
-434,1,0,0,0,0,0,0,0,0,0,-1,790,1023,0,0
-427,1,0,0,0,0,0,0,0,0,0,-1,797,1023,0,0
-420,1,0,0,0,0,0,0,0,0,0,-1,804,1023,0,0
-413,1,0,0,0,0,0,0,0,0,0,-1,811,1023,0,0
-406,1,0,0,0,0,0,0,0,0,0,-1,818,1023,0,0
-399,1,0,0,0,0,0,0,0,0,0,-1,825,1023,0,0
-392,1,0,0,0,0,0,0,0,0,0,-1,832,1023,0,0
-385,1,0,0,0,0,0,0,0,0,0,-1,839,1023,0,0
-378,1,0,0,0,0,0,0,0,0,0,-1,846,1023,0,0
-371,1,0,0,0,0,0,0,0,0,0,-1,853,1023,0,0
-364,1,0,0,0,0,0,0,0,0,0,-1,860,1023,0,0
-357,1,0,0,0,0,0,0,0,0,0,-1,867,1023,0,0
-350,1,0,0,0,0,0,0,0,0,0,-1,874,1023,0,0
-343,1,0,0,0,0,0,0,0,0,0,-1,881,1023,0,0
-336,1,0,0,0,0,0,0,0,0,0,-1,888,1023,0,0
-329,1,0,0,0,0,0,0,0,0,0,-1,895,1023,0,0
-322,1,0,0,0,0,0,0,0,0,0,-1,902,1023,0,0
-315,1,0,0,0,0,0,0,0,0,0,-1,909,1023,0,0
-308,1,0,0,0,0,0,0,0,0,0,-1,916,1023,0,0
-301,1,0,0,0,0,0,0,0,0,0,-1,923,1023,0,0
-294,1,0,0,0,0,0,0,0,0,0,-1,930,1023,0,0
-287,1,0,0,0,0,0,0,0,0,0,-1,937,1023,0,0
-280,1,0,0,0,0,0,0,0,0,0,-1,944,1023,0,0
-273,1,0,0,0,0,0,0,0,0,0,-1,951,1023,0,0
-266,1,0,0,0,0,0,0,0,0,0,-1,958,1023,0,0
-259,1,0,0,0,0,0,0,0,0,0,-1,965,1023,0,0
-252,1,0,0,0,0,0,0,0,0,0,-1,972,1023,0,0
-245,1,0,0,0,0,0,0,0,0,0,-1,979,1023,0,0
-238,1,0,0,0,0,0,0,0,0,0,-1,986,1023,0,0
-231,1,0,0,0,0,0,0,0,0,0,-1,993,1023,0,0
-224,1,0,0,0,0,0,0,0,0,0,-1,1000,1023,0,0
-217,1,0,0,0,0,0,0,0,0,0,-1,1007,1023,0,0
-210,1,0,0,0,0,0,0,0,0,0,-1,1014,1023,0,0
-203,1,0,0,0,0,0,0,0,0,0,-1,1021,1023,0,0
-196,1,0,0,0,0,0,0,0,0,0,-1,1028,1023,0,0
-189,1,0,0,0,0,0,0,0,0,0,-1,1035,1023,0,0
-182,1,0,0,0,0,0,0,0,0,0,-1,1042,1023,0,0
-175,1,0,0,0,0,0,0,0,0,0,-1,1049,1023,0,0
-168,1,0,0,0,0,0,0,0,0,0,-1,1056,1023,0,0
-161,1,0,0,0,0,0,0,0,0,0,-1,1063,1023,0,0
-154,1,0,0,0,0,0,0,0,0,0,-1,1070,1023,0,0
-147,1,0,0,0,0,0,0,0,0,0,-1,1077,1023,0,0
-140,1,0,0,0,0,0,0,0,0,0,-1,1084,1023,0,0
-133,1,0,0,0,0,0,0,0,0,0,-1,1091,1023,0,0
-126,1,0,0,0,0,0,0,0,0,0,-1,1098,1023,0,0
-119,1,0,0,0,0,0,0,0,0,0,-1,1105,1023,0,0
-112,1,0,0,0,0,0,0,0,0,0,-1,1112,1023,0,0
-105,1,0,0,0,0,0,0,0,0,0,-1,1119,1023,0,0
-98,1,0,0,0,0,0,0,0,0,0,-1,1126,1023,0,0
-91,1,0,0,0,0,0,0,0,0,0,-1,1133,1023,0,0
-84,1,0,0,0,0,0,0,0,0,0,-1,1140,1023,0,0
-77,1,0,0,0,0,0,0,0,0,0,-1,1147,1023,0,0
-70,1,0,0,0,0,0,0,0,0,0,-1,1154,1023,0,0
-63,1,0,0,0,0,0,0,0,0,0,-1,1161,1023,0,0
-56,1,0,0,0,0,0,0,0,0,0,-1,1168,1023,0,0
-49,1,0,0,0,0,0,0,0,0,0,-1,1175,1023,0,0
-42,1,0,0,0,0,0,0,0,0,0,-1,1182,1023,0,0
-35,1,0,0,0,0,0,0,0,0,0,-1,1189,1023,0,0
-28,1,0,0,0,0,0,0,0,0,0,-1,1196,1023,0,0
-21,1,0,0,0,0,0,0,0,0,0,-1,1203,1023,0,0
-14,1,0,0,0,0,0,0,0,0,0,-1,1210,1023,0,0
-7,1,0,0,0,0,0,0,0,0,0,-1,1217,1023,0,0
0,1,0,0,0,0,0,0,0,0,0,-1,1224,1023,0,0
7,1,0,0,0,0,0,0,0,0,0,-1,1231,1023,0,0
14,1,0,0,0,0,0,0,0,0,0,-1,1238,1023,0,0
21,1,0,0,0,0,0,0,0,0,0,-1,1245,1023,0,0
28,1,0,0,0,0,0,0,0,0,0,-1,1252,1023,0,0
35,1,0,0,0,0,0,0,0,0,0,-1,1259,1023,0,0
42,1,0,0,0,0,0,0,0,0,0,-1,1266,1023,0,0
49,1,0,0,0,0,0,0,0,0,0,-1,1273,1023,0,0
56,1,0,0,0,0,0,0,0,0,0,-1,1280,1023,0,0
63,1,0,0,0,0,0,0,0,0,0,-1,1287,1023,0,0
70,1,0,0,0,0,0,0,0,0,0,-1,1294,1023,0,0
77,1,0,0,0,0,0,0,0,0,0,-1,1301,1023,0,0
84,1,0,0,0,0,0,0,0,0,0,-1,1308,1023,0,0
91,1,0,0,0,0,0,0,0,0,0,-1,1315,1023,0,0
98,1,0,0,0,0,0,0,0,0,0,-1,1322,1023,0,0
105,1,0,0,0,0,0,0,0,0,0,-1,1329,1023,0,0
112,1,0,0,0,0,0,0,0,0,0,-1,1336,1023,0,0
119,1,0,0,0,0,0,0,0,0,0,-1,1343,1023,0,0
126,1,0,0,0,0,0,0,0,0,0,-1,1350,1023,0,0
133,1,0,0,0,0,0,0,0,0,0,-1,1357,1023,0,0
140,1,0,0,0,0,0,0,0,0,0,-1,1364,1023,0,0
147,1,0,0,0,0,0,0,0,0,0,-1,1371,1023,0,0
154,1,0,0,0,0,0,0,0,0,0,-1,1378,1023,0,0
161,1,0,0,0,0,0,0,0,0,0,-1,1385,1023,0,0
168,1,0,0,0,0,0,0,0,0,0,-1,1392,1023,0,0
175,1,0,0,0,0,0,0,0,0,0,-1,1399,1023,0,0
182,1,0,0,0,0,0,0,0,0,0,-1,1406,1023,0,0
189,1,0,0,0,0,0,0,0,0,0,-1,1413,1023,0,0
196,1,0,0,0,0,0,0,0,0,0,-1,1420,1023,0,0
203,1,0,0,0,0,0,0,0,0,0,-1,1427,1023,0,0
210,1,0,0,0,0,0,0,0,0,0,-1,1434,1023,0,0
217,1,0,0,0,0,0,0,0,0,0,-1,1441,1023,0,0
224,1,0,0,0,0,0,0,0,0,0,-1,1448,1023,0,0
231,1,0,0,0,0,0,0,0,0,0,-1,1455,1023,0,0
238,1,0,0,0,0,0,0,0,0,0,-1,1462,1023,0,0
245,1,0,0,0,0,0,0,0,0,0,-1,1469,1023,0,0
252,1,0,0,0,0,0,0,0,0,0,-1,1476,1023,0,0
259,1,0,0,0,0,0,0,0,0,0,-1,1483,1023,0,0
266,1,0,0,0,0,0,0,0,0,0,-1,1490,1023,0,0
273,1,0,0,0,0,0,0,0,0,0,-1,1497,1023,0,0
280,1,0,0,0,0,0,0,0,0,0,-1,1504,1023,0,0
287,1,0,0,0,0,0,0,0,0,0,-1,1511,1023,0,0
294,1,0,0,0,0,0,0,0,0,0,-1,1518,1023,0,0
301,1,0,0,0,0,0,0,0,0,0,-1,1525,1023,0,0
308,1,0,0,0,0,0,0,0,0,0,-1,1532,1023,0,0
315,1,0,0,0,0,0,0,0,0,0,-1,1539,1023,0,0
322,1,0,0,0,0,0,0,0,0,0,-1,1546,1023,0,0
329,1,0,0,0,0,0,0,0,0,0,-1,1553,1023,0,0
336,1,0,0,0,0,0,0,0,0,0,-1,1560,1023,0,0
343,1,0,0,0,0,0,0,0,0,0,-1,1567,1023,0,0
350,1,0,0,0,0,0,0,0,0,0,-1,1574,1023,0,0
357,1,0,0,0,0,0,0,0,0,0,-1,1581,1023,0,0
364,1,0,0,0,0,0,0,0,0,0,-1,1588,1023,0,0
371,1,0,0,0,0,0,0,0,0,0,-1,1595,1023,0,0
378,1,0,0,0,0,0,0,0,0,0,-1,1602,1023,0,0
385,1,0,0,0,0,0,0,0,0,0,-1,1609,1023,0,0
392,1,0,0,0,0,0,0,0,0,0,-1,1616,1023,0,0
399,1,0,0,0,0,0,0,0,0,0,-1,1623,1023,0,0
406,1,0,0,0,0,0,0,0,0,0,-1,1630,1023,0,0
413,1,0,0,0,0,0,0,0,0,0,-1,1637,1023,0,0
420,1,0,0,0,0,0,0,0,0,0,-1,1644,1023,0,0
427,1,0,0,0,0,0,0,0,0,0,-1,1651,1023,0,0
434,1,0,0,0,0,0,0,0,0,0,-1,1658,1023,0,0
441,1,0,0,0,0,0,0,0,0,0,-1,1665,1023,0,0
448,1,0,0,0,0,0,0,0,0,0,-1,1672,1023,0,0
455,1,0,0,0,0,0,0,0,0,0,-1,1679,1023,0,0
462,1,0,0,0,0,0,0,0,0,0,-1,1686,1023,0,0
469,1,0,0,0,0,0,0,0,0,0,-1,1693,1023,0,0
476,1,0,0,0,0,0,0,0,0,0,-1,1700,1023,0,0
483,1,0,0,0,0,0,0,0,0,0,-1,1707,1023,0,0
490,1,0,0,0,0,0,0,0,0,0,-1,1714,1023,0,0
497,1,0,0,0,0,0,0,0,0,0,-1,1721,1023,0,0
504,1,0,0,0,0,0,0,0,0,0,-1,1728,1023,0,0
511,1,0,0,0,0,0,0,0,0,0,-1,1735,1023,0,0
518,1,0,0,0,0,0,0,0,0,0,-1,1742,1023,0,0
525,1,0,0,0,0,0,0,0,0,0,-1,1749,1023,0,0
532,1,0,0,0,0,0,0,0,0,0,-1,1756,1023,0,0
539,1,0,0,0,0,0,0,0,0,0,-1,1763,1023,0,0
546,1,0,0,0,0,0,0,0,0,0,-1,1770,1023,0,0
553,1,0,0,0,0,0,0,0,0,0,-1,1777,1023,0,0
560,1,0,0,0,0,0,0,0,0,0,-1,1784,1023,0,0
567,1,0,0,0,0,0,0,0,0,0,-1,1791,1023,0,0
574,1,0,0,0,0,0,0,0,0,0,-1,1798,1023,0,0
581,1,0,0,0,0,0,0,0,0,0,-1,1805,1023,0,0
588,1,0,0,0,0,0,0,0,0,0,-1,1812,1023,0,0
595,1,0,0,0,0,0,0,0,0,0,-1,1819,1023,0,0
602,1,0,0,0,0,0,0,0,0,0,-1,1826,1023,0,0
609,1,0,0,0,0,0,0,0,0,0,-1,1833,1023,0,0
616,1,0,0,0,0,0,0,0,0,0,-1,1840,1023,0,0
623,1,0,0,0,0,0,0,0,0,0,-1,1847,1023,0,0
630,1,0,0,0,0,0,0,0,0,0,-1,1854,1023,0,0
637,1,0,0,0,0,0,0,0,0,0,-1,1861,1023,0,0
644,1,0,0,0,0,0,0,0,0,0,-1,1868,1023,0,0
651,1,27.5588,3.44055,0.00708661,-0.00131919,-0.00281286,0.00794103,-0.00217361,-0.2949,0.006148,0.0388167,1875,1023,27.5589,-3.44055
658,1,27.5591,3.36096,0.00439426,-0.000686633,-0.00188166,0.00501522,-0.00130759,-0.318755,0.00385401,0.04064,1882,1023,27.5591,-3.36097
665,1,27.5363,3.35443,0.00242753,-0.000182838,-0.00114853,0.00286092,-0.000616227,-0.360822,0.00214243,0.0404815,1889,1023,27.5363,-3.35445
672,1,27.5289,3.41724,0.000955388,9.27776e-05,-0.000253071,0.00102415,2.40135e-05,-0.265313,0.000674906,0.039508,1896,1023,27.5289,-3.41721
679,1,27.4476,3.38281,-0.000324313,1.54955e-05,0.000990383,0.000850443,-0.00115926,0.870348,0.00116486,0.0373748,1903,1023,27.4476,-3.3828
686,1,27.4332,3.32227,-0.00116006,-0.000267139,0.00206462,0.00139874,-0.00282594,0.89188,0.00248509,0.0380259,1910,1023,27.4333,-3.32226
693,1,27.5016,3.50085,-0.00161409,-0.000627623,0.00295735,0.00187734,-0.00411905,0.868029,0.00354174,0.0359826,1917,1023,27.5016,-3.50083
700,1,27.5553,3.46826,-0.00188532,-0.000851373,0.00362248,0.00229083,-0.00502753,0.856276,0.00432261,0.0308083,1924,1023,27.5552,-3.46825
707,1,27.4919,3.38068,-0.00228327,-0.0010412,0.00410228,0.00248679,-0.00581126,0.860522,0.00491737,0.0263525,1931,1023,27.4919,-3.38065
714,1,27.5577,2.93201,0,0,0,0,0,0,0,-1,1938,1023,27.5578,-2.93201
721,1,27.4812,4.00098,-0.00276361,-0.000910768,0.00425868,0.00252109,-0.00619547,0.892498,0.00517941,0.0404346,1945,1023,27.4813,-4.00095
728,1,27.1351,4.83691,-0.00287576,-0.000610178,0.00413893,0.00254818,-0.00603412,0.918973,0.00508941,0.0336355,1952,1023,27.1352,-4.83689
735,1,27.0276,5.06885,-0.00286147,-0.000142243,0.00406256,0.00278218,-0.00578589,0.946874,0.00504708,0.0183823,1959,1023,27.0276,-5.06887
742,1,27.0662,5.09106,-0.00254208,0.000926419,0.0037764,0.00334774,-0.0049634,1.00065,0.00482857,0.0198507,1966,1023,27.0661,-5.09105
749,1,27.0676,5.14142,-0.00250321,0.00210785,0.00305603,0.00363048,-0.00402584,1.10856,0.00442234,0.017337,1973,1023,27.0676,-5.1414
756,1,27.0721,5.15613,-0.00232594,0.00401234,0.00182872,0.00450211,-0.00281571,1.30911,0.00426218,0.0136636,1980,1023,27.0722,-5.15611
763,1,27.0684,5.1626,-0.0015861,0.00655839,-0.000278434,0.0065679,-0.00159561,-1.53666,0.00499614,0.0127497,1987,1023,27.0684,-5.16259
770,1,27.057,5.17694,-0.000509827,0.00994178,-0.00273755,0.0106154,-0.00118345,-1.32952,0.0075026,0.0127487,1994,1023,27.057,-5.17692
777,1,26.9961,5.19269,0.00100094,0.0138421,-0.00577331,0.016056,-0.00121301,-1.20461,0.0111304,0.0152878,2001,1023,26.9962,-5.19268
784,1,26.9446,5.19983,0.00264962,0.0179461,-0.00929944,0.0223385,-0.0017427,-1.12954,0.0155059,0.0365097,2008,1023,26.9446,-5.19983
791,1,26.9568,5.22064,0,0,0,0,0,0,0,-1,2015,1023,26.9568,-5.22067
798,1,26.8303,5.43433,0.00696053,0.0272292,-0.0201406,0.0396414,-0.00545168,-1.01849,0.0284197,0.0486589,2022,1023,26.8303,-5.43435
805,1,26.5378,5.39252,0.00964935,0.0323481,-0.0282623,0.0514547,-0.0094572,-0.976329,0.0378514,0.0462532,2029,1023,26.5378,-5.39249
812,1,26.4292,4.763,0.0123371,0.0375381,-0.0387702,0.0657041,-0.0158289,-0.942516,0.0499226,0.045458,2036,1023,26.4291,-4.76297
-700,-6,0,0,0,0,0,0,0,0,0,-1,524,1030,0,0
-693,-6,-18.0944,2.53406,-0.0483279,0.0257982,-0.0181465,0.0300021,-0.0525319,-1.34315,0.0482392,0.0443464,531,1030,-18.0944,-2.53411
-686,-6,-18.3311,2.38403,-0.0398763,0.0231833,-0.0121118,0.0254296,-0.0421226,-1.38742,0.0393962,0.0442929,538,1030,-18.3311,-2.384
-679,-6,-18.6123,2.32434,-0.03238,0.0208575,-0.00773238,0.0219578,-0.0334803,-1.42944,0.0322368,0.0438545,545,1030,-18.6123,-2.32438
-672,-6,-18.8254,2.31995,-0.0257194,0.0186717,-0.00454932,0.0191331,-0.0261808,-1.46971,0.0262672,0.0440198,552,1030,-18.8254,-2.31991
-665,-6,-19.105,2.50024,-0.0198842,0.0165244,-0.00230169,0.0166693,-0.0200292,-1.50791,0.0212174,0.0439612,559,1030,-19.105,-2.5002
-658,-6,-19.3184,2.51013,-0.0149201,0.0143479,-0.00080598,0.0143701,-0.0149423,-1.54329,0.0169246,0.0383145,566,1030,-19.3183,-2.51015
-651,-6,-19.1486,2.46436,-0.0108042,0.0121119,6.85964e-05,0.0121121,-0.0108044,1.5678,0.013238,0.0355147,573,1030,-19.1486,-2.4644
-644,-6,-19.0591,2.55969,-0.00744468,0.00993624,6.00554e-05,0.00993645,-0.00744489,1.56734,0.0100694,0.0414459,580,1030,-19.0591,-2.55971
-637,-6,-19.1375,2.62341,-0.00488152,0.00803909,-0.00054032,0.00806165,-0.00490408,-1.52907,0.0075594,0.0248922,587,1030,-19.1374,-2.62346
-630,-6,-19.1962,2.5625,-0.00277071,0.00594726,-0.00185252,0.00632458,-0.00314803,-1.36987,0.00557057,0.0159242,594,1030,-19.1962,-2.56252
-623,-6,-19.1772,2.56128,-0.00064697,0.00456709,-0.00292832,0.00588073,-0.00196061,-1.14911,0.00471201,0.0138765,601,1030,-19.1772,-2.5613
-616,-6,-19.1894,2.57214,0.000685041,0.00301196,-0.00479989,0.00678738,-0.00309038,-0.904301,0.00583455,0.0146111,608,1030,-19.1894,-2.57218
-609,-6,-19.171,2.58557,0.000814266,0.00219944,-0.00640043,0.00794465,-0.00493094,-0.839293,0.0075013,0.0159737,615,1030,-19.1709,-2.58562
-602,-6,-19.1702,2.62061,0.000676806,0.00121006,-0.00743664,0.00838485,-0.00649798,-0.803317,0.00861559,0.0124218,622,1030,-19.1702,-2.62057
-595,-6,-19.1014,2.61792,0.000680848,0.000775244,-0.0080373,0.00876548,-0.00730939,-0.788334,0.00929351,0.0151985,629,1030,-19.1014,-2.61791
-588,-6,-19.0802,1.92139,0.000940003,0.000501396,-0.00821475,0.00893838,-0.00749698,-0.772053,0.00950111,0.0203956,636,1030,-19.0802,-1.92133
-581,-6,-19.1357,1.46338,0.00118676,0.000339917,-0.00812564,0.0089,-0.00737333,-0.759367,0.00940918,0.0240015,643,1030,-19.1357,-1.46334
-574,-6,-19.1066,1.4801,0.00123467,0.000424936,-0.00764524,0.00848576,-0.00682615,-0.758944,0.00885763,0.031127,650,1030,-19.1066,-1.48007
-567,-6,-19.1223,1.53052,0.00116199,0.000552902,-0.00661513,0.00747958,-0.00576469,-0.762396,0.00766792,0.0424775,657,1030,-19.1222,-1.53049
-560,-6,-18.967,1.42261,0.00109988,0.00075169,-0.0051591,0.00608783,-0.00423625,-0.768532,0.00599248,0.0446653,664,1030,-18.967,-1.42262
-553,-6,-18.9643,1.28528,0.00110395,0.000969642,-0.0034133,0.00445075,-0.00237716,-0.775562,0.00400223,0.043678,671,1030,-18.9643,-1.28533
-546,-6,-19.0707,1.56689,0.00125017,0.00114371,-0.00155745,0.0027553,-0.000361419,-0.768316,0.00196843,0.0448295,678,1030,-19.0707,-1.56693
-539,-6,-19.1335,1.84509,0.00169217,0.00137305,-0.000476495,0.00203511,0.00103011,-0.623836,0.001175,0.0447992,685,1030,-19.1335,-1.84506
-532,-6,-19.1625,1.70984,0.00239951,0.00203986,-0.00212866,0.00435593,8.34428e-05,-0.743259,0.00287654,0.0436208,692,1030,-19.1625,-1.7098
-525,-6,0,0,0,0,0,0,0,0,0,-1,699,1030,0,0
-518,-6,0,0,0,0,0,0,0,0,0,-1,706,1030,0,0
-511,-6,0,0,0,0,0,0,0,0,0,-1,713,1030,0,0
-504,-6,0,0,0,0,0,0,0,0,0,-1,720,1030,0,0
-497,-6,0,0,0,0,0,0,0,0,0,-1,727,1030,0,0
-490,-6,0,0,0,0,0,0,0,0,0,-1,734,1030,0,0
-483,-6,0,0,0,0,0,0,0,0,0,-1,741,1030,0,0
-476,-6,0,0,0,0,0,0,0,0,0,-1,748,1030,0,0
-469,-6,0,0,0,0,0,0,0,0,0,-1,755,1030,0,0
-462,-6,0,0,0,0,0,0,0,0,0,-1,762,1030,0,0
-455,-6,0,0,0,0,0,0,0,0,0,-1,769,1030,0,0
-448,-6,0,0,0,0,0,0,0,0,0,-1,776,1030,0,0
-441,-6,0,0,0,0,0,0,0,0,0,-1,783,1030,0,0
-434,-6,0,0,0,0,0,0,0,0,0,-1,790,1030,0,0
-427,-6,0,0,0,0,0,0,0,0,0,-1,797,1030,0,0
-420,-6,0,0,0,0,0,0,0,0,0,-1,804,1030,0,0
-413,-6,0,0,0,0,0,0,0,0,0,-1,811,1030,0,0
-406,-6,0,0,0,0,0,0,0,0,0,-1,818,1030,0,0
-399,-6,0,0,0,0,0,0,0,0,0,-1,825,1030,0,0
-392,-6,0,0,0,0,0,0,0,0,0,-1,832,1030,0,0
-385,-6,0,0,0,0,0,0,0,0,0,-1,839,1030,0,0
-378,-6,0,0,0,0,0,0,0,0,0,-1,846,1030,0,0
-371,-6,0,0,0,0,0,0,0,0,0,-1,853,1030,0,0
-364,-6,0,0,0,0,0,0,0,0,0,-1,860,1030,0,0
-357,-6,0,0,0,0,0,0,0,0,0,-1,867,1030,0,0
-350,-6,0,0,0,0,0,0,0,0,0,-1,874,1030,0,0
-343,-6,0,0,0,0,0,0,0,0,0,-1,881,1030,0,0
-336,-6,0,0,0,0,0,0,0,0,0,-1,888,1030,0,0
-329,-6,0,0,0,0,0,0,0,0,0,-1,895,1030,0,0
-322,-6,0,0,0,0,0,0,0,0,0,-1,902,1030,0,0
-315,-6,0,0,0,0,0,0,0,0,0,-1,909,1030,0,0
-308,-6,0,0,0,0,0,0,0,0,0,-1,916,1030,0,0
-301,-6,0,0,0,0,0,0,0,0,0,-1,923,1030,0,0
-294,-6,0,0,0,0,0,0,0,0,0,-1,930,1030,0,0
-287,-6,0,0,0,0,0,0,0,0,0,-1,937,1030,0,0
-280,-6,0,0,0,0,0,0,0,0,0,-1,944,1030,0,0
-273,-6,0,0,0,0,0,0,0,0,0,-1,951,1030,0,0
-266,-6,0,0,0,0,0,0,0,0,0,-1,958,1030,0,0
-259,-6,0,0,0,0,0,0,0,0,0,-1,965,1030,0,0
-252,-6,0,0,0,0,0,0,0,0,0,-1,972,1030,0,0
-245,-6,0,0,0,0,0,0,0,0,0,-1,979,1030,0,0
-238,-6,0,0,0,0,0,0,0,0,0,-1,986,1030,0,0
-231,-6,0,0,0,0,0,0,0,0,0,-1,993,1030,0,0
-224,-6,0,0,0,0,0,0,0,0,0,-1,1000,1030,0,0
-217,-6,0,0,0,0,0,0,0,0,0,-1,1007,1030,0,0
-210,-6,0,0,0,0,0,0,0,0,0,-1,1014,1030,0,0
-203,-6,0,0,0,0,0,0,0,0,0,-1,1021,1030,0,0
-196,-6,0,0,0,0,0,0,0,0,0,-1,1028,1030,0,0
-189,-6,0,0,0,0,0,0,0,0,0,-1,1035,1030,0,0
-182,-6,0,0,0,0,0,0,0,0,0,-1,1042,1030,0,0
-175,-6,0,0,0,0,0,0,0,0,0,-1,1049,1030,0,0
-168,-6,0,0,0,0,0,0,0,0,0,-1,1056,1030,0,0
-161,-6,0,0,0,0,0,0,0,0,0,-1,1063,1030,0,0
-154,-6,0,0,0,0,0,0,0,0,0,-1,1070,1030,0,0
-147,-6,0,0,0,0,0,0,0,0,0,-1,1077,1030,0,0
-140,-6,0,0,0,0,0,0,0,0,0,-1,1084,1030,0,0
-133,-6,0,0,0,0,0,0,0,0,0,-1,1091,1030,0,0
-126,-6,0,0,0,0,0,0,0,0,0,-1,1098,1030,0,0
-119,-6,0,0,0,0,0,0,0,0,0,-1,1105,1030,0,0
-112,-6,0,0,0,0,0,0,0,0,0,-1,1112,1030,0,0
-105,-6,0,0,0,0,0,0,0,0,0,-1,1119,1030,0,0
-98,-6,0,0,0,0,0,0,0,0,0,-1,1126,1030,0,0
-91,-6,0,0,0,0,0,0,0,0,0,-1,1133,1030,0,0
-84,-6,0,0,0,0,0,0,0,0,0,-1,1140,1030,0,0
-77,-6,0,0,0,0,0,0,0,0,0,-1,1147,1030,0,0
-70,-6,0,0,0,0,0,0,0,0,0,-1,1154,1030,0,0
-63,-6,0,0,0,0,0,0,0,0,0,-1,1161,1030,0,0
-56,-6,0,0,0,0,0,0,0,0,0,-1,1168,1030,0,0
-49,-6,0,0,0,0,0,0,0,0,0,-1,1175,1030,0,0
-42,-6,0,0,0,0,0,0,0,0,0,-1,1182,1030,0,0
-35,-6,0,0,0,0,0,0,0,0,0,-1,1189,1030,0,0
-28,-6,0,0,0,0,0,0,0,0,0,-1,1196,1030,0,0
-21,-6,0,0,0,0,0,0,0,0,0,-1,1203,1030,0,0
-14,-6,0,0,0,0,0,0,0,0,0,-1,1210,1030,0,0
-7,-6,0,0,0,0,0,0,0,0,0,-1,1217,1030,0,0
0,-6,0,0,0,0,0,0,0,0,0,-1,1224,1030,0,0
7,-6,0,0,0,0,0,0,0,0,0,-1,1231,1030,0,0
14,-6,0,0,0,0,0,0,0,0,0,-1,1238,1030,0,0
21,-6,0,0,0,0,0,0,0,0,0,-1,1245,1030,0,0
28,-6,0,0,0,0,0,0,0,0,0,-1,1252,1030,0,0
35,-6,0,0,0,0,0,0,0,0,0,-1,1259,1030,0,0
42,-6,0,0,0,0,0,0,0,0,0,-1,1266,1030,0,0
49,-6,0,0,0,0,0,0,0,0,0,-1,1273,1030,0,0
56,-6,0,0,0,0,0,0,0,0,0,-1,1280,1030,0,0
63,-6,0,0,0,0,0,0,0,0,0,-1,1287,1030,0,0
70,-6,0,0,0,0,0,0,0,0,0,-1,1294,1030,0,0
77,-6,0,0,0,0,0,0,0,0,0,-1,1301,1030,0,0
84,-6,0,0,0,0,0,0,0,0,0,-1,1308,1030,0,0
91,-6,0,0,0,0,0,0,0,0,0,-1,1315,1030,0,0
98,-6,0,0,0,0,0,0,0,0,0,-1,1322,1030,0,0
105,-6,0,0,0,0,0,0,0,0,0,-1,1329,1030,0,0
112,-6,0,0,0,0,0,0,0,0,0,-1,1336,1030,0,0
119,-6,0,0,0,0,0,0,0,0,0,-1,1343,1030,0,0
126,-6,0,0,0,0,0,0,0,0,0,-1,1350,1030,0,0
133,-6,0,0,0,0,0,0,0,0,0,-1,1357,1030,0,0
140,-6,0,0,0,0,0,0,0,0,0,-1,1364,1030,0,0
147,-6,0,0,0,0,0,0,0,0,0,-1,1371,1030,0,0
154,-6,0,0,0,0,0,0,0,0,0,-1,1378,1030,0,0
161,-6,0,0,0,0,0,0,0,0,0,-1,1385,1030,0,0
168,-6,0,0,0,0,0,0,0,0,0,-1,1392,1030,0,0
175,-6,0,0,0,0,0,0,0,0,0,-1,1399,1030,0,0
182,-6,0,0,0,0,0,0,0,0,0,-1,1406,1030,0,0
189,-6,0,0,0,0,0,0,0,0,0,-1,1413,1030,0,0
196,-6,0,0,0,0,0,0,0,0,0,-1,1420,1030,0,0
203,-6,0,0,0,0,0,0,0,0,0,-1,1427,1030,0,0
210,-6,0,0,0,0,0,0,0,0,0,-1,1434,1030,0,0
217,-6,0,0,0,0,0,0,0,0,0,-1,1441,1030,0,0
224,-6,0,0,0,0,0,0,0,0,0,-1,1448,1030,0,0
231,-6,0,0,0,0,0,0,0,0,0,-1,1455,1030,0,0
238,-6,0,0,0,0,0,0,0,0,0,-1,1462,1030,0,0
245,-6,0,0,0,0,0,0,0,0,0,-1,1469,1030,0,0
252,-6,0,0,0,0,0,0,0,0,0,-1,1476,1030,0,0
259,-6,0,0,0,0,0,0,0,0,0,-1,1483,1030,0,0
266,-6,0,0,0,0,0,0,0,0,0,-1,1490,1030,0,0
273,-6,0,0,0,0,0,0,0,0,0,-1,1497,1030,0,0
280,-6,0,0,0,0,0,0,0,0,0,-1,1504,1030,0,0
287,-6,0,0,0,0,0,0,0,0,0,-1,1511,1030,0,0
294,-6,0,0,0,0,0,0,0,0,0,-1,1518,1030,0,0
301,-6,0,0,0,0,0,0,0,0,0,-1,1525,1030,0,0
308,-6,0,0,0,0,0,0,0,0,0,-1,1532,1030,0,0
315,-6,0,0,0,0,0,0,0,0,0,-1,1539,1030,0,0
322,-6,0,0,0,0,0,0,0,0,0,-1,1546,1030,0,0
329,-6,0,0,0,0,0,0,0,0,0,-1,1553,1030,0,0
336,-6,0,0,0,0,0,0,0,0,0,-1,1560,1030,0,0
343,-6,0,0,0,0,0,0,0,0,0,-1,1567,1030,0,0
350,-6,0,0,0,0,0,0,0,0,0,-1,1574,1030,0,0
357,-6,0,0,0,0,0,0,0,0,0,-1,1581,1030,0,0
364,-6,0,0,0,0,0,0,0,0,0,-1,1588,1030,0,0
371,-6,0,0,0,0,0,0,0,0,0,-1,1595,1030,0,0
378,-6,0,0,0,0,0,0,0,0,0,-1,1602,1030,0,0
385,-6,0,0,0,0,0,0,0,0,0,-1,1609,1030,0,0
392,-6,0,0,0,0,0,0,0,0,0,-1,1616,1030,0,0
399,-6,0,0,0,0,0,0,0,0,0,-1,1623,1030,0,0
406,-6,0,0,0,0,0,0,0,0,0,-1,1630,1030,0,0
413,-6,0,0,0,0,0,0,0,0,0,-1,1637,1030,0,0
420,-6,0,0,0,0,0,0,0,0,0,-1,1644,1030,0,0
427,-6,0,0,0,0,0,0,0,0,0,-1,1651,1030,0,0
434,-6,0,0,0,0,0,0,0,0,0,-1,1658,1030,0,0
441,-6,0,0,0,0,0,0,0,0,0,-1,1665,1030,0,0
448,-6,0,0,0,0,0,0,0,0,0,-1,1672,1030,0,0
455,-6,0,0,0,0,0,0,0,0,0,-1,1679,1030,0,0
462,-6,0,0,0,0,0,0,0,0,0,-1,1686,1030,0,0
469,-6,0,0,0,0,0,0,0,0,0,-1,1693,1030,0,0
476,-6,0,0,0,0,0,0,0,0,0,-1,1700,1030,0,0
483,-6,0,0,0,0,0,0,0,0,0,-1,1707,1030,0,0
490,-6,0,0,0,0,0,0,0,0,0,-1,1714,1030,0,0
497,-6,0,0,0,0,0,0,0,0,0,-1,1721,1030,0,0
504,-6,0,0,0,0,0,0,0,0,0,-1,1728,1030,0,0
511,-6,0,0,0,0,0,0,0,0,0,-1,1735,1030,0,0
518,-6,0,0,0,0,0,0,0,0,0,-1,1742,1030,0,0
525,-6,0,0,0,0,0,0,0,0,0,-1,1749,1030,0,0
532,-6,0,0,0,0,0,0,0,0,0,-1,1756,1030,0,0
539,-6,0,0,0,0,0,0,0,0,0,-1,1763,1030,0,0
546,-6,0,0,0,0,0,0,0,0,0,-1,1770,1030,0,0
553,-6,0,0,0,0,0,0,0,0,0,-1,1777,1030,0,0
560,-6,0,0,0,0,0,0,0,0,0,-1,1784,1030,0,0
567,-6,0,0,0,0,0,0,0,0,0,-1,1791,1030,0,0
574,-6,0,0,0,0,0,0,0,0,0,-1,1798,1030,0,0
581,-6,0,0,0,0,0,0,0,0,0,-1,1805,1030,0,0
588,-6,0,0,0,0,0,0,0,0,0,-1,1812,1030,0,0
595,-6,0,0,0,0,0,0,0,0,0,-1,1819,1030,0,0
602,-6,0,0,0,0,0,0,0,0,0,-1,1826,1030,0,0
609,-6,0,0,0,0,0,0,0,0,0,-1,1833,1030,0,0
616,-6,0,0,0,0,0,0,0,0,0,-1,1840,1030,0,0
623,-6,0,0,0,0,0,0,0,0,0,-1,1847,1030,0,0
630,-6,0,0,0,0,0,0,0,0,0,-1,1854,1030,0,0
637,-6,0,0,0,0,0,0,0,0,0,-1,1861,1030,0,0
644,-6,0,0,0,0,0,0,0,0,0,-1,1868,1030,0,0
651,-6,27.7668,3.47803,0.00816024,-0.00108737,-0.00262612,0.00885397,-0.0017811,-0.258263,0.00657723,0.0375351,1875,1030,27.7669,-3.478
658,-6,27.7769,3.24561,0.00511471,-0.000439525,-0.00176789,0.00562968,-0.00095449,-0.283445,0.00410841,0.0400737,1882,1030,27.7768,-3.24555
665,-6,27.7236,3.14429,0.00292714,4.69753e-05,-0.00112101,0.00331203,-0.000337906,-0.330725,0.00232884,0.0432459,1889,1030,27.7237,-3.14428
672,-6,27.6442,3.43152,0.00133443,0.000297242,-0.000314904,0.00142255,0.00020912,-0.272858,0.000886919,0.0407242,1896,1030,27.6441,-3.43147
679,-6,27.5057,3.44653,-1.3335e-05,0.000189305,0.000875108,0.000968939,-0.000792968,0.843032,0.00101893,0.0389929,1903,1030,27.5057,-3.44654
686,-6,27.3273,3.41675,-0.000900076,-0.000137999,0.00193084,0.00144904,-0.00248711,0.882818,0.00229873,0.0367606,1910,1030,27.3273,-3.41672
693,-6,27.3779,3.55371,-0.001393,-0.000545094,0.00282575,0.00188833,-0.00382643,0.859859,0.00336207,0.0350072,1917,1030,27.3779,-3.55371
700,-6,27.4729,3.45654,-0.00168563,-0.00082111,0.00350827,0.00228143,-0.00478817,0.846695,0.00416629,0.0313254,1924,1030,27.4729,-3.45658
707,-6,27.4839,3.36987,-0.00213683,-0.00104334,0.00399705,0.00244419,-0.00562436,0.85337,0.00477747,0.028355,1931,1030,27.4839,-3.36983
714,-6,27.4208,3.04175,0,0,0,0,0,0,0,-1,1938,1030,27.4207,-3.0418
721,-6,27.2755,4.19861,-0.00255724,-0.000990098,0.00420505,0.00250376,-0.0060511,0.877512,0.00507872,0.0451052,1945,1030,27.2755,-4.19864
728,-6,27.0372,5.0426,-0.00269698,-0.000725933,0.00412021,0.00252497,-0.00594789,0.902789,0.00502311,0.0372289,1952,1030,27.0372,-5.04263
735,-6,27.0582,5.06812,-0.00275379,-0.000264976,0.00401186,0.00269104,-0.0057098,0.935784,0.00495351,0.0193463,1959,1030,27.0583,-5.06809
742,-6,27.0952,5.09338,-0.00264658,0.000635927,0.00377728,0.00311312,-0.00512377,0.990346,0.00480257,0.0166426,1966,1030,27.0953,-5.09344
749,-6,27.0952,5.14844,-0.00286021,0.00163065,0.00325982,0.00334355,-0.00457311,1.08699,0.00458903,0.0146646,1973,1030,27.0952,-5.1485
756,-6,27.1212,5.13086,-0.00287096,0.003194,0.0022285,0.00392479,-0.00360174,1.25392,0.00434678,0.0135015,1980,1030,27.1212,-5.1308
763,-6,27.0793,5.1084,-0.00241871,0.00529624,0.000385504,0.00531545,-0.00243792,1.52099,0.00457802,0.0132815,1987,1030,27.0793,-5.10839
770,-6,27.0457,5.11572,-0.00180058,0.00799112,-0.00168059,0.00827154,-0.002081,-1.40546,0.00632322,0.0123086,1994,1030,27.0457,-5.1157
777,-6,27.0175,5.12354,-0.000790829,0.0110083,-0.00420313,0.0123524,-0.00213496,-1.26128,0.0090311,0.0149026,2001,1030,27.0175,-5.1235
784,-6,27.0287,5.07349,0.000387613,0.0140069,-0.00708445,0.0170238,-0.00262928,-1.16821,0.0123195,0.0374267,2008,1030,27.0287,-5.07351
791,-6,27.0441,5.01428,0,0,0,0,0,0,0,-1,2015,1030,27.0441,-5.01426
798,-6,27.2544,5.43591,0,0,0,0,0,0,0,-1,2022,1030,27.2544,-5.43596
805,-6,27.3843,5.0094,0,0,0,0,0,0,0,-1,2029,1030,27.3843,-5.00937
812,-6,27.2761,4.94946,0,0,0,0,0,0,0,-1,2036,1030,27.2762,-4.94952
-700,-13,0,0,0,0,0,0,0,0,0,-1,524,1037,0,0
-693,-13,-18.2971,2.54932,-0.0553518,0.0297281,-0.0229912,0.0355435,-0.0611672,-1.32305,0.0564855,0.04909,531,1037,-18.2971,-2.54935
-686,-13,-18.54,2.37695,-0.0453614,0.0259036,-0.014621,0.0287867,-0.0482445,-1.37611,0.0449444,0.0454826,538,1037,-18.54,-2.37692
-679,-13,-18.8433,2.30701,-0.0363823,0.0226186,-0.00866788,0.0238656,-0.0376293,-1.42791,0.0357993,0.0460296,545,1037,-18.8433,-2.30705
-672,-13,-19.6175,2.13977,-0.0284406,0.0196946,-0.00448733,0.0201093,-0.0288554,-1.47863,0.0284197,0.0450462,552,1037,-19.6175,-2.13981
-665,-13,-19.6797,2.40894,-0.0215803,0.0170057,-0.00167608,0.0170783,-0.021653,-1.52747,0.0224135,0.0454018,559,1037,-19.6798,-2.40899
-658,-13,-19.3502,2.40466,-0.0158559,0.014457,6.71551e-05,0.0144572,-0.0158561,1.56858,0.0175076,0.0478737,566,1037,-19.3502,-2.40471
-651,-13,-19.1538,2.33557,-0.0112311,0.0119889,0.000978361,0.01203,-0.0112723,1.52876,0.0134559,0.0403291,573,1037,-19.1538,-2.33557
-644,-13,-19.0791,2.43286,-0.00758475,0.00967697,0.000903976,0.00972418,-0.00763196,1.51862,0.0100448,0.027195,580,1037,-19.0791,-2.43291
-637,-13,-19.105,2.5144,-0.00463333,0.0074437,6.32404e-05,0.00744403,-0.00463366,1.56556,0.0070357,0.0201956,587,1037,-19.1051,-2.51444
-630,-13,-19.138,2.51978,-0.00243752,0.00544819,-0.0014638,0.00571114,-0.00270047,-1.39306,0.00495905,0.0130369,594,1037,-19.138,-2.51977
-623,-13,-19.1431,2.5686,-0.000557996,0.00397275,-0.00282272,0.00532672,-0.00191197,-1.12354,0.00433149,0.0118206,601,1037,-19.1432,-2.56863
-616,-13,-19.1243,2.58643,0.000758764,0.00255282,-0.00495124,0.00668764,-0.00337605,-0.875012,0.0059142,0.011367,608,1037,-19.1243,-2.58641
-609,-13,-19.0895,2.57898,0.000879038,0.00171739,-0.00674678,0.008058,-0.00546157,-0.816423,0.00785337,0.0164869,615,1037,-19.0896,-2.57894
-602,-13,-19.1241,2.62744,0.000658727,0.000818481,-0.00792633,0.00866533,-0.00718813,-0.790437,0.00916624,0.0117035,622,1037,-19.1241,-2.62742
-595,-13,-19.0978,2.61475,0.000542672,0.000422013,-0.008571,0.00905355,-0.00808887,-0.781879,0.0099024,0.0194383,629,1037,-19.0977,-2.61477
-588,-13,-19.0386,1.84705,0.000722462,0.000218893,-0.00876405,0.00923834,-0.00829699,-0.771038,0.0101289,0.0222455,636,1037,-19.0385,-1.84702
-581,-13,-19.0154,1.00427,0,0,0,0,0,0,0,-1,643,1037,-19.0154,-1.00431
-574,-13,-19.0522,1.44592,0.000912689,0.000305459,-0.00808156,0.00869634,-0.00747819,-0.766623,0.00934719,0.0349341,650,1037,-19.0522,-1.44591
-567,-13,-19.189,1.6228,0.000791034,0.000553318,-0.00694202,0.00761522,-0.00627086,-0.776838,0.00802965,0.0426063,657,1037,-19.189,-1.62283
-560,-13,-19.15,1.42712,0.000669274,0.000878419,-0.0053203,0.00609518,-0.00454748,-0.795225,0.00616616,0.044276,664,1037,-19.15,-1.42715
-553,-13,-19.0999,1.04028,0.000598779,0.00120671,-0.00334034,0.00425688,-0.00245139,-0.830772,0.0039195,0.0446665,671,1037,-19.0999,-1.04027
-546,-13,-19.1034,1.38074,0.000642341,0.00144255,-0.00116712,0.00227624,-0.000191352,-0.950527,0.00158513,0.0417445,678,1037,-19.1034,-1.3807
-539,-13,-19.1088,1.84326,0.000932451,0.00159658,0.000239677,0.00167405,0.000854989,1.2582,0.000966585,0.0427776,685,1037,-19.1088,-1.84327
-532,-13,-19.0175,1.83936,0.00145142,0.00185515,-0.00130362,0.00297244,0.000334128,-0.862213,0.00188017,0.044052,692,1037,-19.0174,-1.83932
-525,-13,0,0,0,0,0,0,0,0,0,-1,699,1037,0,0
-518,-13,0,0,0,0,0,0,0,0,0,-1,706,1037,0,0
-511,-13,0,0,0,0,0,0,0,0,0,-1,713,1037,0,0
-504,-13,0,0,0,0,0,0,0,0,0,-1,720,1037,0,0
-497,-13,0,0,0,0,0,0,0,0,0,-1,727,1037,0,0
-490,-13,0,0,0,0,0,0,0,0,0,-1,734,1037,0,0
-483,-13,0,0,0,0,0,0,0,0,0,-1,741,1037,0,0
-476,-13,0,0,0,0,0,0,0,0,0,-1,748,1037,0,0
-469,-13,0,0,0,0,0,0,0,0,0,-1,755,1037,0,0
-462,-13,0,0,0,0,0,0,0,0,0,-1,762,1037,0,0
-455,-13,0,0,0,0,0,0,0,0,0,-1,769,1037,0,0
-448,-13,0,0,0,0,0,0,0,0,0,-1,776,1037,0,0
-441,-13,0,0,0,0,0,0,0,0,0,-1,783,1037,0,0
-434,-13,0,0,0,0,0,0,0,0,0,-1,790,1037,0,0
-427,-13,0,0,0,0,0,0,0,0,0,-1,797,1037,0,0
-420,-13,0,0,0,0,0,0,0,0,0,-1,804,1037,0,0
-413,-13,0,0,0,0,0,0,0,0,0,-1,811,1037,0,0
-406,-13,0,0,0,0,0,0,0,0,0,-1,818,1037,0,0
-399,-13,0,0,0,0,0,0,0,0,0,-1,825,1037,0,0
-392,-13,0,0,0,0,0,0,0,0,0,-1,832,1037,0,0
-385,-13,0,0,0,0,0,0,0,0,0,-1,839,1037,0,0
-378,-13,0,0,0,0,0,0,0,0,0,-1,846,1037,0,0
-371,-13,0,0,0,0,0,0,0,0,0,-1,853,1037,0,0
-364,-13,0,0,0,0,0,0,0,0,0,-1,860,1037,0,0
-357,-13,0,0,0,0,0,0,0,0,0,-1,867,1037,0,0
-350,-13,0,0,0,0,0,0,0,0,0,-1,874,1037,0,0
-343,-13,0,0,0,0,0,0,0,0,0,-1,881,1037,0,0
-336,-13,0,0,0,0,0,0,0,0,0,-1,888,1037,0,0
-329,-13,0,0,0,0,0,0,0,0,0,-1,895,1037,0,0
-322,-13,0,0,0,0,0,0,0,0,0,-1,902,1037,0,0
-315,-13,0,0,0,0,0,0,0,0,0,-1,909,1037,0,0
-308,-13,0,0,0,0,0,0,0,0,0,-1,916,1037,0,0
-301,-13,0,0,0,0,0,0,0,0,0,-1,923,1037,0,0
-294,-13,0,0,0,0,0,0,0,0,0,-1,930,1037,0,0
-287,-13,0,0,0,0,0,0,0,0,0,-1,937,1037,0,0
-280,-13,0,0,0,0,0,0,0,0,0,-1,944,1037,0,0
-273,-13,0,0,0,0,0,0,0,0,0,-1,951,1037,0,0
-266,-13,0,0,0,0,0,0,0,0,0,-1,958,1037,0,0
-259,-13,0,0,0,0,0,0,0,0,0,-1,965,1037,0,0
-252,-13,0,0,0,0,0,0,0,0,0,-1,972,1037,0,0
-245,-13,0,0,0,0,0,0,0,0,0,-1,979,1037,0,0
-238,-13,0,0,0,0,0,0,0,0,0,-1,986,1037,0,0
-231,-13,0,0,0,0,0,0,0,0,0,-1,993,1037,0,0
-224,-13,0,0,0,0,0,0,0,0,0,-1,1000,1037,0,0
-217,-13,0,0,0,0,0,0,0,0,0,-1,1007,1037,0,0
-210,-13,0,0,0,0,0,0,0,0,0,-1,1014,1037,0,0
-203,-13,0,0,0,0,0,0,0,0,0,-1,1021,1037,0,0
-196,-13,0,0,0,0,0,0,0,0,0,-1,1028,1037,0,0
-189,-13,0,0,0,0,0,0,0,0,0,-1,1035,1037,0,0
-182,-13,0,0,0,0,0,0,0,0,0,-1,1042,1037,0,0
-175,-13,0,0,0,0,0,0,0,0,0,-1,1049,1037,0,0
-168,-13,0,0,0,0,0,0,0,0,0,-1,1056,1037,0,0
-161,-13,0,0,0,0,0,0,0,0,0,-1,1063,1037,0,0
-154,-13,0,0,0,0,0,0,0,0,0,-1,1070,1037,0,0
-147,-13,0,0,0,0,0,0,0,0,0,-1,1077,1037,0,0
-140,-13,0,0,0,0,0,0,0,0,0,-1,1084,1037,0,0
-133,-13,0,0,0,0,0,0,0,0,0,-1,1091,1037,0,0
-126,-13,0,0,0,0,0,0,0,0,0,-1,1098,1037,0,0
-119,-13,0,0,0,0,0,0,0,0,0,-1,1105,1037,0,0
-112,-13,0,0,0,0,0,0,0,0,0,-1,1112,1037,0,0
-105,-13,0,0,0,0,0,0,0,0,0,-1,1119,1037,0,0
-98,-13,0,0,0,0,0,0,0,0,0,-1,1126,1037,0,0
-91,-13,0,0,0,0,0,0,0,0,0,-1,1133,1037,0,0
-84,-13,0,0,0,0,0,0,0,0,0,-1,1140,1037,0,0
-77,-13,0,0,0,0,0,0,0,0,0,-1,1147,1037,0,0
-70,-13,0,0,0,0,0,0,0,0,0,-1,1154,1037,0,0
-63,-13,0,0,0,0,0,0,0,0,0,-1,1161,1037,0,0
-56,-13,0,0,0,0,0,0,0,0,0,-1,1168,1037,0,0
-49,-13,0,0,0,0,0,0,0,0,0,-1,1175,1037,0,0
-42,-13,0,0,0,0,0,0,0,0,0,-1,1182,1037,0,0
-35,-13,0,0,0,0,0,0,0,0,0,-1,1189,1037,0,0
-28,-13,0,0,0,0,0,0,0,0,0,-1,1196,1037,0,0
-21,-13,0,0,0,0,0,0,0,0,0,-1,1203,1037,0,0
-14,-13,0,0,0,0,0,0,0,0,0,-1,1210,1037,0,0
-7,-13,0,0,0,0,0,0,0,0,0,-1,1217,1037,0,0
0,-13,0,0,0,0,0,0,0,0,0,-1,1224,1037,0,0
7,-13,0,0,0,0,0,0,0,0,0,-1,1231,1037,0,0
14,-13,0,0,0,0,0,0,0,0,0,-1,1238,1037,0,0
21,-13,0,0,0,0,0,0,0,0,0,-1,1245,1037,0,0
28,-13,0,0,0,0,0,0,0,0,0,-1,1252,1037,0,0
35,-13,0,0,0,0,0,0,0,0,0,-1,1259,1037,0,0
42,-13,0,0,0,0,0,0,0,0,0,-1,1266,1037,0,0
49,-13,0,0,0,0,0,0,0,0,0,-1,1273,1037,0,0
56,-13,0,0,0,0,0,0,0,0,0,-1,1280,1037,0,0
63,-13,0,0,0,0,0,0,0,0,0,-1,1287,1037,0,0
70,-13,0,0,0,0,0,0,0,0,0,-1,1294,1037,0,0
77,-13,0,0,0,0,0,0,0,0,0,-1,1301,1037,0,0
84,-13,0,0,0,0,0,0,0,0,0,-1,1308,1037,0,0
91,-13,0,0,0,0,0,0,0,0,0,-1,1315,1037,0,0
98,-13,0,0,0,0,0,0,0,0,0,-1,1322,1037,0,0
105,-13,0,0,0,0,0,0,0,0,0,-1,1329,1037,0,0
112,-13,0,0,0,0,0,0,0,0,0,-1,1336,1037,0,0
119,-13,0,0,0,0,0,0,0,0,0,-1,1343,1037,0,0
126,-13,0,0,0,0,0,0,0,0,0,-1,1350,1037,0,0
133,-13,0,0,0,0,0,0,0,0,0,-1,1357,1037,0,0
140,-13,0,0,0,0,0,0,0,0,0,-1,1364,1037,0,0
147,-13,0,0,0,0,0,0,0,0,0,-1,1371,1037,0,0
154,-13,0,0,0,0,0,0,0,0,0,-1,1378,1037,0,0
161,-13,0,0,0,0,0,0,0,0,0,-1,1385,1037,0,0
168,-13,0,0,0,0,0,0,0,0,0,-1,1392,1037,0,0
175,-13,0,0,0,0,0,0,0,0,0,-1,1399,1037,0,0
182,-13,0,0,0,0,0,0,0,0,0,-1,1406,1037,0,0
189,-13,0,0,0,0,0,0,0,0,0,-1,1413,1037,0,0
196,-13,0,0,0,0,0,0,0,0,0,-1,1420,1037,0,0
203,-13,0,0,0,0,0,0,0,0,0,-1,1427,1037,0,0
210,-13,0,0,0,0,0,0,0,0,0,-1,1434,1037,0,0
217,-13,0,0,0,0,0,0,0,0,0,-1,1441,1037,0,0
224,-13,0,0,0,0,0,0,0,0,0,-1,1448,1037,0,0
231,-13,0,0,0,0,0,0,0,0,0,-1,1455,1037,0,0
238,-13,0,0,0,0,0,0,0,0,0,-1,1462,1037,0,0
245,-13,0,0,0,0,0,0,0,0,0,-1,1469,1037,0,0
252,-13,0,0,0,0,0,0,0,0,0,-1,1476,1037,0,0
259,-13,0,0,0,0,0,0,0,0,0,-1,1483,1037,0,0
266,-13,0,0,0,0,0,0,0,0,0,-1,1490,1037,0,0
273,-13,0,0,0,0,0,0,0,0,0,-1,1497,1037,0,0
280,-13,0,0,0,0,0,0,0,0,0,-1,1504,1037,0,0
287,-13,0,0,0,0,0,0,0,0,0,-1,1511,1037,0,0
294,-13,0,0,0,0,0,0,0,0,0,-1,1518,1037,0,0
301,-13,0,0,0,0,0,0,0,0,0,-1,1525,1037,0,0
308,-13,0,0,0,0,0,0,0,0,0,-1,1532,1037,0,0
315,-13,0,0,0,0,0,0,0,0,0,-1,1539,1037,0,0
322,-13,0,0,0,0,0,0,0,0,0,-1,1546,1037,0,0
329,-13,0,0,0,0,0,0,0,0,0,-1,1553,1037,0,0
336,-13,0,0,0,0,0,0,0,0,0,-1,1560,1037,0,0
343,-13,0,0,0,0,0,0,0,0,0,-1,1567,1037,0,0
350,-13,0,0,0,0,0,0,0,0,0,-1,1574,1037,0,0
357,-13,0,0,0,0,0,0,0,0,0,-1,1581,1037,0,0
364,-13,0,0,0,0,0,0,0,0,0,-1,1588,1037,0,0
371,-13,0,0,0,0,0,0,0,0,0,-1,1595,1037,0,0
378,-13,0,0,0,0,0,0,0,0,0,-1,1602,1037,0,0
385,-13,0,0,0,0,0,0,0,0,0,-1,1609,1037,0,0
392,-13,0,0,0,0,0,0,0,0,0,-1,1616,1037,0,0
399,-13,0,0,0,0,0,0,0,0,0,-1,1623,1037,0,0
406,-13,0,0,0,0,0,0,0,0,0,-1,1630,1037,0,0
413,-13,0,0,0,0,0,0,0,0,0,-1,1637,1037,0,0
420,-13,0,0,0,0,0,0,0,0,0,-1,1644,1037,0,0
427,-13,0,0,0,0,0,0,0,0,0,-1,1651,1037,0,0
434,-13,0,0,0,0,0,0,0,0,0,-1,1658,1037,0,0
441,-13,0,0,0,0,0,0,0,0,0,-1,1665,1037,0,0
448,-13,0,0,0,0,0,0,0,0,0,-1,1672,1037,0,0
455,-13,0,0,0,0,0,0,0,0,0,-1,1679,1037,0,0
462,-13,0,0,0,0,0,0,0,0,0,-1,1686,1037,0,0
469,-13,0,0,0,0,0,0,0,0,0,-1,1693,1037,0,0
476,-13,0,0,0,0,0,0,0,0,0,-1,1700,1037,0,0
483,-13,0,0,0,0,0,0,0,0,0,-1,1707,1037,0,0
490,-13,0,0,0,0,0,0,0,0,0,-1,1714,1037,0,0
497,-13,0,0,0,0,0,0,0,0,0,-1,1721,1037,0,0
504,-13,0,0,0,0,0,0,0,0,0,-1,1728,1037,0,0
511,-13,0,0,0,0,0,0,0,0,0,-1,1735,1037,0,0
518,-13,0,0,0,0,0,0,0,0,0,-1,1742,1037,0,0
525,-13,0,0,0,0,0,0,0,0,0,-1,1749,1037,0,0
532,-13,0,0,0,0,0,0,0,0,0,-1,1756,1037,0,0
539,-13,0,0,0,0,0,0,0,0,0,-1,1763,1037,0,0
546,-13,0,0,0,0,0,0,0,0,0,-1,1770,1037,0,0
553,-13,0,0,0,0,0,0,0,0,0,-1,1777,1037,0,0
560,-13,0,0,0,0,0,0,0,0,0,-1,1784,1037,0,0
567,-13,0,0,0,0,0,0,0,0,0,-1,1791,1037,0,0
574,-13,0,0,0,0,0,0,0,0,0,-1,1798,1037,0,0
581,-13,0,0,0,0,0,0,0,0,0,-1,1805,1037,0,0
588,-13,0,0,0,0,0,0,0,0,0,-1,1812,1037,0,0
595,-13,0,0,0,0,0,0,0,0,0,-1,1819,1037,0,0
602,-13,0,0,0,0,0,0,0,0,0,-1,1826,1037,0,0
609,-13,0,0,0,0,0,0,0,0,0,-1,1833,1037,0,0
616,-13,0,0,0,0,0,0,0,0,0,-1,1840,1037,0,0
623,-13,0,0,0,0,0,0,0,0,0,-1,1847,1037,0,0
630,-13,0,0,0,0,0,0,0,0,0,-1,1854,1037,0,0
637,-13,0,0,0,0,0,0,0,0,0,-1,1861,1037,0,0
644,-13,0,0,0,0,0,0,0,0,0,-1,1868,1037,0,0
651,-13,27.7557,3.2804,0.00967541,-0.00047781,-0.00234327,0.0101901,-0.000992521,-0.216221,0.00714726,0.0383016,1875,1037,27.7557,-3.2804
658,-13,27.7944,3.13464,0.00612883,0.000124896,-0.00157543,0.00651711,-0.000263383,-0.241644,0.00443514,0.0435625,1882,1037,27.7945,-3.13465
665,-13,27.7816,3.19324,0.00361751,0.000530241,-0.00102108,0.00392466,0.000223091,-0.2922,0.00254534,0.0458335,1889,1037,27.7816,-3.1932
672,-13,27.6901,3.35229,0.00183088,0.000684561,-0.00031566,0.00191206,0.000603386,-0.251704,0.00112868,0.03877,1896,1037,27.6901,-3.35226
679,-13,27.5063,3.38391,0.000379266,0.000490072,0.000785217,0.00122184,-0.0003525,0.820619,0.000954019,0.037181,1903,1037,27.5064,-3.38392
686,-13,27.2476,3.39685,-0.000563229,8.23896e-05,0.00178603,0.00157455,-0.00205539,0.874804,0.00210186,0.0389332,1910,1037,27.2475,-3.39687
693,-13,27.2042,3.51062,-0.00108924,-0.00039013,0.0026473,0.00193059,-0.00340996,0.851039,0.00312255,0.0377068,1917,1037,27.2042,-3.51065
700,-13,27.5303,3.21106,-0.00139512,-0.00072337,0.00331898,0.00227669,-0.00439518,0.835826,0.0039162,0.0356316,1924,1037,27.5302,-3.21102
707,-13,27.5259,3.24939,-0.00189529,-0.000979209,0.00379696,0.00238724,-0.00526174,0.845425,0.00451889,0.0311203,1931,1037,27.5259,-3.24937
714,-13,27.5011,3.33289,-0.00222698,-0.00106224,0.0040377,0.00243488,-0.00572409,0.857021,0.0048365,0.0312917,1938,1037,27.5011,-3.33292
721,-13,27.1399,4.37146,0,0,0,0,0,0,0,-1,1945,1037,27.1399,-4.37151
728,-13,26.869,5.19153,0,0,0,0,0,0,0,-1,1952,1037,26.869,-5.19154
735,-13,27.0907,5.11694,-0.00253455,-0.000347925,0.00384356,0.0025548,-0.00543727,0.923965,0.0047132,0.0192183,1959,1037,27.0907,-5.11696
742,-13,27.0989,5.13403,-0.00247999,0.000419204,0.00359084,0.002842,-0.00490279,0.977241,0.00452391,0.0120904,1966,1037,27.0989,-5.13407
749,-13,27.1156,5.0979,-0.0027165,0.00130508,0.00313086,0.00301525,-0.00442668,1.07085,0.00432228,0.0163001,1973,1037,27.1156,-5.09788
756,-13,27.0997,5.09216,-0.00278082,0.00265767,0.00222641,0.00345285,-0.003576,1.22776,0.00405832,0.0122666,1980,1037,27.0998,-5.09215
763,-13,27.085,5.10327,-0.00237741,0.00443623,0.00056234,0.00448233,-0.0024235,1.489,0.00404571,0.0136866,1987,1037,27.085,-5.10322
770,-13,27.031,5.10132,-0.00181806,0.00667154,-0.00128019,0.00686038,-0.00200691,-1.42434,0.00536908,0.0125726,1994,1037,27.031,-5.10138
777,-13,26.9928,5.07214,-0.000819363,0.00911275,-0.00348768,0.0102151,-0.00192172,-1.26466,0.0075328,0.0118951,2001,1037,26.9928,-5.07211
784,-13,26.9955,5.02063,0.000375573,0.0113996,-0.00590112,0.0139626,-0.00218741,-1.16106,0.0101167,0.0277683,2008,1037,26.9955,-5.02068
791,-13,27.1838,4.99048,0.00199839,0.0135706,-0.00905393,0.0185294,-0.0029604,-1.06972,0.0134488,0.0453222,2015,1037,27.1839,-4.99048
798,-13,27.3994,5.17432,0.00432261,0.0155611,-0.0133379,0.0244151,-0.00453143,-0.984764,0.0179786,0.0449189,2022,1037,27.3994,-5.1743
805,-13,27.6968,5.24329,0.00749255,0.0171812,-0.0190501,0.0319933,-0.00731957,-0.909905,0.0241415,0.0427502,2029,1037,27.6969,-5.24331
812,-13,27.675,5.28003,0.0115266,0.0180445,-0.0265819,0.0415664,-0.0119954,-0.846394,0.0324569,0.0423449,2036,1037,27.675,-5.28
-700,-20,-13.929,-0.397095,0,0,0,0,0,0,0,-1,524,1044,-13.929,0.397074
-693,-20,-18.5114,2.53552,0,0,0,0,0,0,0,-1,531,1044,-18.5114,-2.53547
-686,-20,-19.1887,2.69812,0,0,0,0,0,0,0,-1,538,1044,-19.1887,-2.69811
-679,-20,-19.1299,2.27747,0,0,0,0,0,0,0,-1,545,1044,-19.1299,-2.27748
-672,-20,-19.5436,1.5448,0,0,0,0,0,0,0,-1,552,1044,-19.5437,-1.54478
-665,-20,-19.4769,2.02698,-0.0270136,0.0186449,-0.00353628,0.0189172,-0.0272859,-1.49396,0.0268208,0.0456634,559,1044,-19.4768,-2.02695
-658,-20,-19.2622,2.1593,-0.0198123,0.0154981,-0.000831843,0.0155177,-0.0198319,-1.54726,0.0204597,0.0486997,566,1044,-19.2622,-2.15927
-651,-20,-19.0609,2.15088,-0.0139707,0.0125883,0.000679205,0.0126057,-0.0139881,1.54525,0.0153608,0.0394402,573,1044,-19.0608,-2.15092
-644,-20,-19.0291,2.31311,-0.00945855,0.00996802,0.00100659,0.01002,-0.00951056,1.51917,0.0112773,0.0249077,580,1044,-19.0291,-2.31308
-637,-20,-19.0684,2.37842,-0.0057423,0.00727999,0.000352754,0.00728954,-0.00575185,1.54373,0.00754688,0.0169517,587,1044,-19.0684,-2.37838
-630,-20,-19.0895,2.46704,-0.00291433,0.00520351,-0.0011496,0.00536317,-0.00307399,-1.4328,0.0049306,0.0137339,594,1044,-19.0895,-2.467
-623,-20,-19.0912,2.52698,-0.000768473,0.00359281,-0.00272734,0.0049041,-0.00207976,-1.12263,0.00414058,0.0131936,601,1044,-19.0912,-2.52694
-616,-20,-19.0833,2.57007,0.000566082,0.0022235,-0.00511187,0.0065734,-0.00378382,-0.865756,0.00605161,0.0130138,608,1044,-19.0833,-2.57004
-609,-20,-19.0773,2.5979,0.000708872,0.00131358,-0.00713966,0.00815728,-0.00613483,-0.80656,0.00827905,0.0142143,615,1044,-19.0773,-2.59794
-602,-20,-19.0839,2.64441,0.00043299,0.000460853,-0.00848884,0.00893577,-0.00804193,-0.786219,0.0098066,0.0110936,622,1044,-19.0839,-2.64446
-595,-20,-19.0831,2.62939,0.000232981,9.90108e-05,-0.00919676,0.009363,-0.00903101,-0.781756,0.0106204,0.0165881,629,1044,-19.0831,-2.62945
-588,-20,-19.0601,1.96033,0.000351498,-4.36411e-05,-0.00942386,0.00957986,-0.00927201,-0.774917,0.0108846,0.0181846,636,1044,-19.0601,-1.96036
-581,-20,-19.0226,1.07422,0,0,0,0,0,0,0,-1,643,1044,-19.0226,-1.07423
-574,-20,-19.0267,1.68787,0.000514672,0.000158568,-0.00868768,0.00902613,-0.00835289,-0.775152,0.0100363,0.0415609,650,1044,-19.0267,-1.68789
-567,-20,-19.0756,1.86108,0.000412444,0.000495923,-0.00747113,0.00792544,-0.00701707,-0.788191,0.00863237,0.0442653,657,1044,-19.0756,-1.86106
-560,-20,-19.0968,2.04065,0.000322317,0.000925475,-0.0057173,0.00634915,-0.00510135,-0.811748,0.00662402,0.0432535,664,1044,-19.0968,-2.04069
-553,-20,-19.1054,0.943359,0.000288797,0.00136468,-0.00353712,0.00440453,-0.00275105,-0.860862,0.00416788,0.0416327,671,1044,-19.1054,-0.943357
-546,-20,-18.9976,1.27185,0.000358227,0.00169715,-0.00107504,0.00229414,-0.000238762,-1.06388,0.00161491,0.0389313,678,1044,-18.9976,-1.27187
-539,-20,-18.9884,1.6178,0.000621675,0.00185601,0.000661504,0.00214355,0.000334142,1.16077,0.0013317,0.0416476,685,1044,-18.9884,-1.61783
-532,-20,-18.9614,1.76794,0.0010206,0.0018496,-0.000740063,0.00228333,0.000586862,-1.04068,0.00136919,0.0445925,692,1044,-18.9613,-1.76789
-525,-20,0,0,0,0,0,0,0,0,0,-1,699,1044,0,0
-518,-20,0,0,0,0,0,0,0,0,0,-1,706,1044,0,0
-511,-20,0,0,0,0,0,0,0,0,0,-1,713,1044,0,0
-504,-20,0,0,0,0,0,0,0,0,0,-1,720,1044,0,0
-497,-20,0,0,0,0,0,0,0,0,0,-1,727,1044,0,0
-490,-20,0,0,0,0,0,0,0,0,0,-1,734,1044,0,0
-483,-20,0,0,0,0,0,0,0,0,0,-1,741,1044,0,0
-476,-20,0,0,0,0,0,0,0,0,0,-1,748,1044,0,0
-469,-20,0,0,0,0,0,0,0,0,0,-1,755,1044,0,0
-462,-20,0,0,0,0,0,0,0,0,0,-1,762,1044,0,0
-455,-20,0,0,0,0,0,0,0,0,0,-1,769,1044,0,0
-448,-20,0,0,0,0,0,0,0,0,0,-1,776,1044,0,0
-441,-20,0,0,0,0,0,0,0,0,0,-1,783,1044,0,0
-434,-20,0,0,0,0,0,0,0,0,0,-1,790,1044,0,0
-427,-20,0,0,0,0,0,0,0,0,0,-1,797,1044,0,0
-420,-20,0,0,0,0,0,0,0,0,0,-1,804,1044,0,0
-413,-20,0,0,0,0,0,0,0,0,0,-1,811,1044,0,0
-406,-20,0,0,0,0,0,0,0,0,0,-1,818,1044,0,0
-399,-20,0,0,0,0,0,0,0,0,0,-1,825,1044,0,0
-392,-20,0,0,0,0,0,0,0,0,0,-1,832,1044,0,0
-385,-20,0,0,0,0,0,0,0,0,0,-1,839,1044,0,0
-378,-20,0,0,0,0,0,0,0,0,0,-1,846,1044,0,0
-371,-20,0,0,0,0,0,0,0,0,0,-1,853,1044,0,0
-364,-20,0,0,0,0,0,0,0,0,0,-1,860,1044,0,0
-357,-20,0,0,0,0,0,0,0,0,0,-1,867,1044,0,0
-350,-20,0,0,0,0,0,0,0,0,0,-1,874,1044,0,0
-343,-20,0,0,0,0,0,0,0,0,0,-1,881,1044,0,0
-336,-20,0,0,0,0,0,0,0,0,0,-1,888,1044,0,0
-329,-20,0,0,0,0,0,0,0,0,0,-1,895,1044,0,0
-322,-20,0,0,0,0,0,0,0,0,0,-1,902,1044,0,0
-315,-20,0,0,0,0,0,0,0,0,0,-1,909,1044,0,0
-308,-20,0,0,0,0,0,0,0,0,0,-1,916,1044,0,0
-301,-20,0,0,0,0,0,0,0,0,0,-1,923,1044,0,0
-294,-20,0,0,0,0,0,0,0,0,0,-1,930,1044,0,0
-287,-20,0,0,0,0,0,0,0,0,0,-1,937,1044,0,0
-280,-20,0,0,0,0,0,0,0,0,0,-1,944,1044,0,0
-273,-20,0,0,0,0,0,0,0,0,0,-1,951,1044,0,0
-266,-20,0,0,0,0,0,0,0,0,0,-1,958,1044,0,0
-259,-20,0,0,0,0,0,0,0,0,0,-1,965,1044,0,0
-252,-20,0,0,0,0,0,0,0,0,0,-1,972,1044,0,0
-245,-20,0,0,0,0,0,0,0,0,0,-1,979,1044,0,0
-238,-20,0,0,0,0,0,0,0,0,0,-1,986,1044,0,0
-231,-20,0,0,0,0,0,0,0,0,0,-1,993,1044,0,0
-224,-20,0,0,0,0,0,0,0,0,0,-1,1000,1044,0,0
-217,-20,0,0,0,0,0,0,0,0,0,-1,1007,1044,0,0
-210,-20,0,0,0,0,0,0,0,0,0,-1,1014,1044,0,0
-203,-20,0,0,0,0,0,0,0,0,0,-1,1021,1044,0,0
-196,-20,0,0,0,0,0,0,0,0,0,-1,1028,1044,0,0
-189,-20,0,0,0,0,0,0,0,0,0,-1,1035,1044,0,0
-182,-20,0,0,0,0,0,0,0,0,0,-1,1042,1044,0,0
-175,-20,0,0,0,0,0,0,0,0,0,-1,1049,1044,0,0
-168,-20,0,0,0,0,0,0,0,0,0,-1,1056,1044,0,0
-161,-20,0,0,0,0,0,0,0,0,0,-1,1063,1044,0,0
-154,-20,0,0,0,0,0,0,0,0,0,-1,1070,1044,0,0
-147,-20,0,0,0,0,0,0,0,0,0,-1,1077,1044,0,0
-140,-20,0,0,0,0,0,0,0,0,0,-1,1084,1044,0,0
-133,-20,0,0,0,0,0,0,0,0,0,-1,1091,1044,0,0
-126,-20,0,0,0,0,0,0,0,0,0,-1,1098,1044,0,0
-119,-20,0,0,0,0,0,0,0,0,0,-1,1105,1044,0,0
-112,-20,0,0,0,0,0,0,0,0,0,-1,1112,1044,0,0
-105,-20,0,0,0,0,0,0,0,0,0,-1,1119,1044,0,0
-98,-20,0,0,0,0,0,0,0,0,0,-1,1126,1044,0,0
-91,-20,0,0,0,0,0,0,0,0,0,-1,1133,1044,0,0
-84,-20,0,0,0,0,0,0,0,0,0,-1,1140,1044,0,0
-77,-20,0,0,0,0,0,0,0,0,0,-1,1147,1044,0,0
-70,-20,0,0,0,0,0,0,0,0,0,-1,1154,1044,0,0
-63,-20,0,0,0,0,0,0,0,0,0,-1,1161,1044,0,0
-56,-20,0,0,0,0,0,0,0,0,0,-1,1168,1044,0,0
-49,-20,0,0,0,0,0,0,0,0,0,-1,1175,1044,0,0
-42,-20,0,0,0,0,0,0,0,0,0,-1,1182,1044,0,0
-35,-20,0,0,0,0,0,0,0,0,0,-1,1189,1044,0,0
-28,-20,0,0,0,0,0,0,0,0,0,-1,1196,1044,0,0
-21,-20,0,0,0,0,0,0,0,0,0,-1,1203,1044,0,0
-14,-20,0,0,0,0,0,0,0,0,0,-1,1210,1044,0,0
-7,-20,0,0,0,0,0,0,0,0,0,-1,1217,1044,0,0
0,-20,0,0,0,0,0,0,0,0,0,-1,1224,1044,0,0
7,-20,0,0,0,0,0,0,0,0,0,-1,1231,1044,0,0
14,-20,0,0,0,0,0,0,0,0,0,-1,1238,1044,0,0
21,-20,0,0,0,0,0,0,0,0,0,-1,1245,1044,0,0
28,-20,0,0,0,0,0,0,0,0,0,-1,1252,1044,0,0
35,-20,0,0,0,0,0,0,0,0,0,-1,1259,1044,0,0
42,-20,0,0,0,0,0,0,0,0,0,-1,1266,1044,0,0
49,-20,0,0,0,0,0,0,0,0,0,-1,1273,1044,0,0
56,-20,0,0,0,0,0,0,0,0,0,-1,1280,1044,0,0
63,-20,0,0,0,0,0,0,0,0,0,-1,1287,1044,0,0
70,-20,0,0,0,0,0,0,0,0,0,-1,1294,1044,0,0
77,-20,0,0,0,0,0,0,0,0,0,-1,1301,1044,0,0
84,-20,0,0,0,0,0,0,0,0,0,-1,1308,1044,0,0
91,-20,0,0,0,0,0,0,0,0,0,-1,1315,1044,0,0
98,-20,0,0,0,0,0,0,0,0,0,-1,1322,1044,0,0
105,-20,0,0,0,0,0,0,0,0,0,-1,1329,1044,0,0
112,-20,0,0,0,0,0,0,0,0,0,-1,1336,1044,0,0
119,-20,0,0,0,0,0,0,0,0,0,-1,1343,1044,0,0
126,-20,0,0,0,0,0,0,0,0,0,-1,1350,1044,0,0
133,-20,0,0,0,0,0,0,0,0,0,-1,1357,1044,0,0
140,-20,0,0,0,0,0,0,0,0,0,-1,1364,1044,0,0
147,-20,0,0,0,0,0,0,0,0,0,-1,1371,1044,0,0
154,-20,0,0,0,0,0,0,0,0,0,-1,1378,1044,0,0
161,-20,0,0,0,0,0,0,0,0,0,-1,1385,1044,0,0
168,-20,0,0,0,0,0,0,0,0,0,-1,1392,1044,0,0
175,-20,0,0,0,0,0,0,0,0,0,-1,1399,1044,0,0
182,-20,0,0,0,0,0,0,0,0,0,-1,1406,1044,0,0
189,-20,0,0,0,0,0,0,0,0,0,-1,1413,1044,0,0
196,-20,0,0,0,0,0,0,0,0,0,-1,1420,1044,0,0
203,-20,0,0,0,0,0,0,0,0,0,-1,1427,1044,0,0
210,-20,0,0,0,0,0,0,0,0,0,-1,1434,1044,0,0
217,-20,0,0,0,0,0,0,0,0,0,-1,1441,1044,0,0
224,-20,0,0,0,0,0,0,0,0,0,-1,1448,1044,0,0
231,-20,0,0,0,0,0,0,0,0,0,-1,1455,1044,0,0
238,-20,0,0,0,0,0,0,0,0,0,-1,1462,1044,0,0
245,-20,0,0,0,0,0,0,0,0,0,-1,1469,1044,0,0
252,-20,0,0,0,0,0,0,0,0,0,-1,1476,1044,0,0
259,-20,0,0,0,0,0,0,0,0,0,-1,1483,1044,0,0
266,-20,0,0,0,0,0,0,0,0,0,-1,1490,1044,0,0
273,-20,0,0,0,0,0,0,0,0,0,-1,1497,1044,0,0
280,-20,0,0,0,0,0,0,0,0,0,-1,1504,1044,0,0
287,-20,0,0,0,0,0,0,0,0,0,-1,1511,1044,0,0
294,-20,0,0,0,0,0,0,0,0,0,-1,1518,1044,0,0
301,-20,0,0,0,0,0,0,0,0,0,-1,1525,1044,0,0
308,-20,0,0,0,0,0,0,0,0,0,-1,1532,1044,0,0
315,-20,0,0,0,0,0,0,0,0,0,-1,1539,1044,0,0
322,-20,0,0,0,0,0,0,0,0,0,-1,1546,1044,0,0
329,-20,0,0,0,0,0,0,0,0,0,-1,1553,1044,0,0
336,-20,0,0,0,0,0,0,0,0,0,-1,1560,1044,0,0
343,-20,0,0,0,0,0,0,0,0,0,-1,1567,1044,0,0
350,-20,0,0,0,0,0,0,0,0,0,-1,1574,1044,0,0
357,-20,0,0,0,0,0,0,0,0,0,-1,1581,1044,0,0
364,-20,0,0,0,0,0,0,0,0,0,-1,1588,1044,0,0
371,-20,0,0,0,0,0,0,0,0,0,-1,1595,1044,0,0
378,-20,0,0,0,0,0,0,0,0,0,-1,1602,1044,0,0
385,-20,0,0,0,0,0,0,0,0,0,-1,1609,1044,0,0
392,-20,0,0,0,0,0,0,0,0,0,-1,1616,1044,0,0
399,-20,0,0,0,0,0,0,0,0,0,-1,1623,1044,0,0
406,-20,0,0,0,0,0,0,0,0,0,-1,1630,1044,0,0
413,-20,0,0,0,0,0,0,0,0,0,-1,1637,1044,0,0
420,-20,0,0,0,0,0,0,0,0,0,-1,1644,1044,0,0
427,-20,0,0,0,0,0,0,0,0,0,-1,1651,1044,0,0
434,-20,0,0,0,0,0,0,0,0,0,-1,1658,1044,0,0
441,-20,0,0,0,0,0,0,0,0,0,-1,1665,1044,0,0
448,-20,0,0,0,0,0,0,0,0,0,-1,1672,1044,0,0
455,-20,0,0,0,0,0,0,0,0,0,-1,1679,1044,0,0
462,-20,0,0,0,0,0,0,0,0,0,-1,1686,1044,0,0
469,-20,0,0,0,0,0,0,0,0,0,-1,1693,1044,0,0
476,-20,0,0,0,0,0,0,0,0,0,-1,1700,1044,0,0
483,-20,0,0,0,0,0,0,0,0,0,-1,1707,1044,0,0
490,-20,0,0,0,0,0,0,0,0,0,-1,1714,1044,0,0
497,-20,0,0,0,0,0,0,0,0,0,-1,1721,1044,0,0
504,-20,0,0,0,0,0,0,0,0,0,-1,1728,1044,0,0
511,-20,0,0,0,0,0,0,0,0,0,-1,1735,1044,0,0
518,-20,0,0,0,0,0,0,0,0,0,-1,1742,1044,0,0
525,-20,0,0,0,0,0,0,0,0,0,-1,1749,1044,0,0
532,-20,0,0,0,0,0,0,0,0,0,-1,1756,1044,0,0
539,-20,0,0,0,0,0,0,0,0,0,-1,1763,1044,0,0
546,-20,0,0,0,0,0,0,0,0,0,-1,1770,1044,0,0
553,-20,0,0,0,0,0,0,0,0,0,-1,1777,1044,0,0
560,-20,0,0,0,0,0,0,0,0,0,-1,1784,1044,0,0
567,-20,0,0,0,0,0,0,0,0,0,-1,1791,1044,0,0
574,-20,0,0,0,0,0,0,0,0,0,-1,1798,1044,0,0
581,-20,0,0,0,0,0,0,0,0,0,-1,1805,1044,0,0
588,-20,0,0,0,0,0,0,0,0,0,-1,1812,1044,0,0
595,-20,0,0,0,0,0,0,0,0,0,-1,1819,1044,0,0
602,-20,0,0,0,0,0,0,0,0,0,-1,1826,1044,0,0
609,-20,0,0,0,0,0,0,0,0,0,-1,1833,1044,0,0
616,-20,0,0,0,0,0,0,0,0,0,-1,1840,1044,0,0
623,-20,0,0,0,0,0,0,0,0,0,-1,1847,1044,0,0
630,-20,0,0,0,0,0,0,0,0,0,-1,1854,1044,0,0
637,-20,0,0,0,0,0,0,0,0,0,-1,1861,1044,0,0
644,-20,0,0,0,0,0,0,0,0,0,-1,1868,1044,0,0
651,-20,27.4816,3.23218,0.01156,0.000232864,-0.0021354,0.0119492,-0.00015633,-0.180279,0.00801874,0.0386999,1875,1044,27.4815,-3.23222
658,-20,27.6741,3.22595,0.00753378,0.000751254,-0.00141276,0.00781629,0.00046875,-0.197362,0.00506185,0.0421823,1882,1044,27.674,-3.22598
665,-20,27.7231,3.30273,0.00469051,0.00105285,-0.000914171,0.00490733,0.000836039,-0.232869,0.00303155,0.0403342,1889,1044,27.7232,-3.30276
672,-20,27.5933,3.36243,0.00267649,0.00110544,-0.000290267,0.0027284,0.00105353,-0.176979,0.0015888,0.0259807,1896,1044,27.5933,-3.36246
679,-20,27.5498,3.28833,0.00106152,0.000822849,0.000708646,0.00166081,0.000223563,0.70198,0.00104072,0.0294157,1903,1044,27.5497,-3.2883
686,-20,27.3981,3.34802,-1.34423e-05,0.000336978,0.00164169,0.00181279,-0.00148925,0.838559,0.00190948,0.038352,1910,1044,27.398,-3.34797
693,-20,27.3075,3.37634,-0.000648436,-0.000197342,0.00245203,0.0020395,-0.00288528,0.831261,0.00285726,0.0389819,1917,1044,27.3075,-3.37638
700,-20,27.4984,3.23206,-0.0010318,-0.000588801,0.00309972,0.00229733,-0.00391792,0.821066,0.00362881,0.036297,1924,1044,27.4984,-3.23202
707,-20,27.4607,3.2915,-0.00162347,-0.000872787,0.00356758,0.00233914,-0.0048354,0.83781,0.00422497,0.0310427,1931,1044,27.4607,-3.29149
714,-20,27.4946,3.39014,-0.00199658,-0.000989422,0.00381335,0.00235345,-0.00533946,0.851047,0.00455166,0.0279014,1938,1044,27.4946,-3.39008
721,-20,27.4895,3.45605,0,0,0,0,0,0,0,-1,1945,1044,27.4895,-3.45607
728,-20,27.2037,5.06567,0,0,0,0,0,0,0,-1,1952,1044,27.2038,-5.06565
735,-20,27.1182,5.11926,-0.00238755,-0.000430101,0.00363474,0.00235537,-0.00517303,0.916914,0.00444684,0.0174626,1959,1044,27.1182,-5.11923
742,-20,27.0752,5.1239,-0.00233672,0.000208786,0.00337667,0.0025446,-0.00467254,0.965627,0.00422676,0.0152763,1966,1044,27.0752,-5.12394
749,-20,27.0948,5.09851,-0.00254667,0.00098977,0.00298082,0.00268737,-0.00424426,1.0531,0.00403549,0.0166346,1973,1044,27.0949,-5.09857
756,-20,27.075,5.08826,-0.00260498,0.00215826,0.00216868,0.00299771,-0.00344442,1.20148,0.00372235,0.0122911,1980,1044,27.075,-5.08823
763,-20,27.0547,5.07874,-0.00218083,0.00363934,0.000680114,0.00371775,-0.00225925,1.456,0.0034849,0.0144562,1987,1044,27.0547,-5.07874
770,-20,27.0219,5.10645,-0.00158339,0.00546853,-0.000953113,0.00559507,-0.00170994,-1.43879,0.0044119,0.0131614,1994,1044,27.0219,-5.10641
777,-20,26.9623,5.06042,-0.000509287,0.00741187,-0.00286532,0.00833967,-0.00143709,-1.25765,0.00609554,0.0116618,2001,1044,26.9623,-5.06046
784,-20,26.983,5.0354,0.000758193,0.00913766,-0.00487011,0.0113722,-0.00147639,-1.14062,0.0081185,0.0176472,2008,1044,26.983,-5.03535
791,-20,27.1417,5.05701,0.00244193,0.0106723,-0.00743688,0.0150566,-0.00194241,-1.0381,0.0107439,0.0358095,2015,1044,27.1417,-5.05698
798,-20,27.4915,5.30762,0.00480455,0.0119458,-0.010897,0.0198422,-0.00309188,-0.943721,0.0143701,0.0415331,2022,1044,27.4914,-5.30756
805,-20,27.7708,5.55298,0.00800256,0.0128033,-0.0154942,0.026082,-0.00527607,-0.862248,0.0193875,0.0428448,2029,1044,27.7707,-5.55294
812,-20,28.1672,5.85864,0.0120429,0.0129116,-0.0215599,0.0340415,-0.00908705,-0.79547,0.0262529,0.0447591,2036,1044,28.1673,-5.85869
-700,-27,-14.0854,-0.203125,0,0,0,0,0,0,0,-1,524,1051,-14.0854,0.203141
-693,-27,-19.2689,0.952881,0,0,0,0,0,0,0,-1,531,1051,-19.2689,-0.952868
-686,-27,-19.9034,2.77637,0,0,0,0,0,0,0,-1,538,1051,-19.9034,-2.77632
-679,-27,-19.2112,0.338745,0,0,0,0,0,0,0,-1,545,1051,-19.2112,-0.338749
-672,-27,-19.3517,1.07959,-0.0426121,0.0255215,-0.00998071,0.0269534,-0.044044,-1.4283,0.0413844,0.0448896,552,1051,-19.3517,-1.07961
-665,-27,-19.497,1.88696,-0.0324233,0.0207179,-0.00491392,0.0211684,-0.0328738,-1.47936,0.0314443,0.044666,559,1051,-19.497,-1.88695
-658,-27,-19.3409,2.03235,-0.0237839,0.0166104,-0.00161117,0.0166746,-0.0238481,-1.53099,0.0235177,0.0453469,566,1051,-19.341,-2.03229
-651,-27,-18.9501,2.13928,-0.016775,0.0130658,0.000303304,0.0130689,-0.016778,1.56063,0.0172764,0.033618,573,1051,-18.9501,-2.13925
-644,-27,-18.9712,2.26953,-0.0114325,0.0100534,0.000913573,0.0100922,-0.0114713,1.52838,0.0124581,0.0147464,580,1051,-18.9712,-2.26953
-637,-27,-19.0045,2.30115,-0.0069793,0.00689203,0.000380451,0.00690246,-0.00698973,1.5434,0.00802071,0.0125407,587,1051,-19.0045,-2.30119
-630,-27,-19.0498,2.4408,-0.00362423,0.00463857,-0.00118774,0.00480592,-0.00379158,-1.43083,0.00497527,0.0170473,594,1051,-19.0498,-2.44085
-623,-27,-19.0407,2.52332,-0.00124916,0.00303147,-0.00286301,0.00446576,-0.00268345,-1.10637,0.00417013,0.0152086,601,1051,-19.0407,-2.52328
-616,-27,-19.0114,2.59851,0.000163938,0.00183527,-0.00538747,0.0064515,-0.00445229,-0.862342,0.00633048,0.0131841,608,1051,-19.0114,-2.59852
-609,-27,-19.0293,2.64929,0.000325118,0.000919835,-0.00760767,0.00823596,-0.00699101,-0.804932,0.00880108,0.0133059,615,1051,-19.0293,-2.64934
-602,-27,-19.0073,2.71716,1.05468e-05,0.000187001,-0.00911869,0.00921789,-0.00902035,-0.790236,0.0105301,0.0124378,622,1051,-19.0073,-2.71716
-595,-27,-19.0248,2.73938,-0.000244117,-0.000144508,-0.00987436,0.00968018,-0.0100688,-0.78792,0.0114028,0.0123692,629,1051,-19.0248,-2.73942
-588,-27,-19.0331,2.06873,-0.000161604,-0.00023278,-0.0101145,0.00991738,-0.0103118,-0.783639,0.01168,0.0175631,636,1051,-19.0331,-2.06876
-581,-27,-19.0394,1.11621,0,0,0,0,0,0,0,-1,643,1051,-19.0394,-1.11626
-574,-27,-18.9962,1.60449,3.67839e-06,0.000108958,-0.00929443,0.0093509,-0.00923826,-0.78823,0.0107325,0.037676,650,1051,-18.9962,-1.60444
-567,-27,-18.9554,1.76392,-3.63149e-05,0.000533652,-0.00797609,0.00822985,-0.00773251,-0.803255,0.00921736,0.0438343,657,1051,-18.9554,-1.7639
-560,-27,-18.9663,0.955933,-4.09711e-05,0.00106898,-0.00605853,0.0065979,-0.00556989,-0.831072,0.00703343,0.0448357,664,1051,-18.9663,-0.955973
-553,-27,-18.9492,1.07654,2.00272e-05,0.00163392,-0.0036392,0.00455457,-0.00290062,-0.894502,0.00433942,0.0412305,671,1051,-18.9492,-1.07654
-546,-27,-18.9794,1.17371,0.000163821,0.00210745,-0.000842393,0.00242174,-0.000150463,-1.21371,0.00166691,0.0433345,678,1051,-18.9795,-1.17377
-539,-27,-18.8577,1.45544,0.000402027,0.00237507,0.00129601,0.00301731,-0.000240214,1.11071,0.00209621,0.0452163,685,1051,-18.8577,-1.45545
-532,-27,-18.9077,1.48999,0.000537715,0.00231342,0.000143185,0.00232489,0.000526244,1.49085,0.00140769,0.0443757,692,1051,-18.9077,-1.48996
-525,-27,0,0,0,0,0,0,0,0,0,-1,699,1051,0,0
-518,-27,0,0,0,0,0,0,0,0,0,-1,706,1051,0,0
-511,-27,0,0,0,0,0,0,0,0,0,-1,713,1051,0,0
-504,-27,0,0,0,0,0,0,0,0,0,-1,720,1051,0,0
-497,-27,0,0,0,0,0,0,0,0,0,-1,727,1051,0,0
-490,-27,0,0,0,0,0,0,0,0,0,-1,734,1051,0,0
-483,-27,0,0,0,0,0,0,0,0,0,-1,741,1051,0,0
-476,-27,0,0,0,0,0,0,0,0,0,-1,748,1051,0,0
-469,-27,0,0,0,0,0,0,0,0,0,-1,755,1051,0,0
-462,-27,0,0,0,0,0,0,0,0,0,-1,762,1051,0,0
-455,-27,0,0,0,0,0,0,0,0,0,-1,769,1051,0,0
-448,-27,0,0,0,0,0,0,0,0,0,-1,776,1051,0,0
-441,-27,0,0,0,0,0,0,0,0,0,-1,783,1051,0,0
-434,-27,0,0,0,0,0,0,0,0,0,-1,790,1051,0,0
-427,-27,0,0,0,0,0,0,0,0,0,-1,797,1051,0,0
-420,-27,0,0,0,0,0,0,0,0,0,-1,804,1051,0,0
-413,-27,0,0,0,0,0,0,0,0,0,-1,811,1051,0,0
-406,-27,0,0,0,0,0,0,0,0,0,-1,818,1051,0,0
-399,-27,0,0,0,0,0,0,0,0,0,-1,825,1051,0,0
-392,-27,0,0,0,0,0,0,0,0,0,-1,832,1051,0,0
-385,-27,0,0,0,0,0,0,0,0,0,-1,839,1051,0,0
-378,-27,0,0,0,0,0,0,0,0,0,-1,846,1051,0,0
-371,-27,0,0,0,0,0,0,0,0,0,-1,853,1051,0,0
-364,-27,0,0,0,0,0,0,0,0,0,-1,860,1051,0,0
-357,-27,0,0,0,0,0,0,0,0,0,-1,867,1051,0,0
-350,-27,0,0,0,0,0,0,0,0,0,-1,874,1051,0,0
-343,-27,0,0,0,0,0,0,0,0,0,-1,881,1051,0,0
-336,-27,0,0,0,0,0,0,0,0,0,-1,888,1051,0,0
-329,-27,0,0,0,0,0,0,0,0,0,-1,895,1051,0,0
-322,-27,0,0,0,0,0,0,0,0,0,-1,902,1051,0,0
-315,-27,0,0,0,0,0,0,0,0,0,-1,909,1051,0,0
-308,-27,0,0,0,0,0,0,0,0,0,-1,916,1051,0,0
-301,-27,0,0,0,0,0,0,0,0,0,-1,923,1051,0,0
-294,-27,0,0,0,0,0,0,0,0,0,-1,930,1051,0,0
-287,-27,0,0,0,0,0,0,0,0,0,-1,937,1051,0,0
-280,-27,0,0,0,0,0,0,0,0,0,-1,944,1051,0,0
-273,-27,0,0,0,0,0,0,0,0,0,-1,951,1051,0,0
-266,-27,0,0,0,0,0,0,0,0,0,-1,958,1051,0,0
-259,-27,0,0,0,0,0,0,0,0,0,-1,965,1051,0,0
-252,-27,0,0,0,0,0,0,0,0,0,-1,972,1051,0,0
-245,-27,0,0,0,0,0,0,0,0,0,-1,979,1051,0,0
-238,-27,0,0,0,0,0,0,0,0,0,-1,986,1051,0,0
-231,-27,0,0,0,0,0,0,0,0,0,-1,993,1051,0,0
-224,-27,0,0,0,0,0,0,0,0,0,-1,1000,1051,0,0
-217,-27,0,0,0,0,0,0,0,0,0,-1,1007,1051,0,0
-210,-27,0,0,0,0,0,0,0,0,0,-1,1014,1051,0,0
-203,-27,0,0,0,0,0,0,0,0,0,-1,1021,1051,0,0
-196,-27,0,0,0,0,0,0,0,0,0,-1,1028,1051,0,0
-189,-27,0,0,0,0,0,0,0,0,0,-1,1035,1051,0,0
-182,-27,0,0,0,0,0,0,0,0,0,-1,1042,1051,0,0
-175,-27,0,0,0,0,0,0,0,0,0,-1,1049,1051,0,0
-168,-27,0,0,0,0,0,0,0,0,0,-1,1056,1051,0,0
-161,-27,0,0,0,0,0,0,0,0,0,-1,1063,1051,0,0
-154,-27,0,0,0,0,0,0,0,0,0,-1,1070,1051,0,0
-147,-27,0,0,0,0,0,0,0,0,0,-1,1077,1051,0,0
-140,-27,0,0,0,0,0,0,0,0,0,-1,1084,1051,0,0
-133,-27,0,0,0,0,0,0,0,0,0,-1,1091,1051,0,0
-126,-27,0,0,0,0,0,0,0,0,0,-1,1098,1051,0,0
-119,-27,0,0,0,0,0,0,0,0,0,-1,1105,1051,0,0
-112,-27,0,0,0,0,0,0,0,0,0,-1,1112,1051,0,0
-105,-27,0,0,0,0,0,0,0,0,0,-1,1119,1051,0,0
-98,-27,0,0,0,0,0,0,0,0,0,-1,1126,1051,0,0
-91,-27,0,0,0,0,0,0,0,0,0,-1,1133,1051,0,0
-84,-27,0,0,0,0,0,0,0,0,0,-1,1140,1051,0,0
-77,-27,0,0,0,0,0,0,0,0,0,-1,1147,1051,0,0
-70,-27,0,0,0,0,0,0,0,0,0,-1,1154,1051,0,0
-63,-27,0,0,0,0,0,0,0,0,0,-1,1161,1051,0,0
-56,-27,0,0,0,0,0,0,0,0,0,-1,1168,1051,0,0
-49,-27,0,0,0,0,0,0,0,0,0,-1,1175,1051,0,0
-42,-27,0,0,0,0,0,0,0,0,0,-1,1182,1051,0,0
-35,-27,0,0,0,0,0,0,0,0,0,-1,1189,1051,0,0
-28,-27,0,0,0,0,0,0,0,0,0,-1,1196,1051,0,0
-21,-27,0,0,0,0,0,0,0,0,0,-1,1203,1051,0,0
-14,-27,0,0,0,0,0,0,0,0,0,-1,1210,1051,0,0
-7,-27,0,0,0,0,0,0,0,0,0,-1,1217,1051,0,0
0,-27,0,0,0,0,0,0,0,0,0,-1,1224,1051,0,0
7,-27,0,0,0,0,0,0,0,0,0,-1,1231,1051,0,0
14,-27,0,0,0,0,0,0,0,0,0,-1,1238,1051,0,0
21,-27,0,0,0,0,0,0,0,0,0,-1,1245,1051,0,0
28,-27,0,0,0,0,0,0,0,0,0,-1,1252,1051,0,0
35,-27,0,0,0,0,0,0,0,0,0,-1,1259,1051,0,0
42,-27,0,0,0,0,0,0,0,0,0,-1,1266,1051,0,0
49,-27,0,0,0,0,0,0,0,0,0,-1,1273,1051,0,0
56,-27,0,0,0,0,0,0,0,0,0,-1,1280,1051,0,0
63,-27,0,0,0,0,0,0,0,0,0,-1,1287,1051,0,0
70,-27,0,0,0,0,0,0,0,0,0,-1,1294,1051,0,0
77,-27,0,0,0,0,0,0,0,0,0,-1,1301,1051,0,0
84,-27,0,0,0,0,0,0,0,0,0,-1,1308,1051,0,0
91,-27,0,0,0,0,0,0,0,0,0,-1,1315,1051,0,0
98,-27,0,0,0,0,0,0,0,0,0,-1,1322,1051,0,0
105,-27,0,0,0,0,0,0,0,0,0,-1,1329,1051,0,0
112,-27,0,0,0,0,0,0,0,0,0,-1,1336,1051,0,0
119,-27,0,0,0,0,0,0,0,0,0,-1,1343,1051,0,0
126,-27,0,0,0,0,0,0,0,0,0,-1,1350,1051,0,0
133,-27,0,0,0,0,0,0,0,0,0,-1,1357,1051,0,0
140,-27,0,0,0,0,0,0,0,0,0,-1,1364,1051,0,0
147,-27,0,0,0,0,0,0,0,0,0,-1,1371,1051,0,0
154,-27,0,0,0,0,0,0,0,0,0,-1,1378,1051,0,0
161,-27,0,0,0,0,0,0,0,0,0,-1,1385,1051,0,0
168,-27,0,0,0,0,0,0,0,0,0,-1,1392,1051,0,0
175,-27,0,0,0,0,0,0,0,0,0,-1,1399,1051,0,0
182,-27,0,0,0,0,0,0,0,0,0,-1,1406,1051,0,0
189,-27,0,0,0,0,0,0,0,0,0,-1,1413,1051,0,0
196,-27,0,0,0,0,0,0,0,0,0,-1,1420,1051,0,0
203,-27,0,0,0,0,0,0,0,0,0,-1,1427,1051,0,0
210,-27,0,0,0,0,0,0,0,0,0,-1,1434,1051,0,0
217,-27,0,0,0,0,0,0,0,0,0,-1,1441,1051,0,0
224,-27,0,0,0,0,0,0,0,0,0,-1,1448,1051,0,0
231,-27,0,0,0,0,0,0,0,0,0,-1,1455,1051,0,0
238,-27,0,0,0,0,0,0,0,0,0,-1,1462,1051,0,0
245,-27,0,0,0,0,0,0,0,0,0,-1,1469,1051,0,0
252,-27,0,0,0,0,0,0,0,0,0,-1,1476,1051,0,0
259,-27,0,0,0,0,0,0,0,0,0,-1,1483,1051,0,0
266,-27,0,0,0,0,0,0,0,0,0,-1,1490,1051,0,0
273,-27,0,0,0,0,0,0,0,0,0,-1,1497,1051,0,0
280,-27,0,0,0,0,0,0,0,0,0,-1,1504,1051,0,0
287,-27,0,0,0,0,0,0,0,0,0,-1,1511,1051,0,0
294,-27,0,0,0,0,0,0,0,0,0,-1,1518,1051,0,0
301,-27,0,0,0,0,0,0,0,0,0,-1,1525,1051,0,0
308,-27,0,0,0,0,0,0,0,0,0,-1,1532,1051,0,0
315,-27,0,0,0,0,0,0,0,0,0,-1,1539,1051,0,0
322,-27,0,0,0,0,0,0,0,0,0,-1,1546,1051,0,0
329,-27,0,0,0,0,0,0,0,0,0,-1,1553,1051,0,0
336,-27,0,0,0,0,0,0,0,0,0,-1,1560,1051,0,0
343,-27,0,0,0,0,0,0,0,0,0,-1,1567,1051,0,0
350,-27,0,0,0,0,0,0,0,0,0,-1,1574,1051,0,0
357,-27,0,0,0,0,0,0,0,0,0,-1,1581,1051,0,0
364,-27,0,0,0,0,0,0,0,0,0,-1,1588,1051,0,0
371,-27,0,0,0,0,0,0,0,0,0,-1,1595,1051,0,0
378,-27,0,0,0,0,0,0,0,0,0,-1,1602,1051,0,0
385,-27,0,0,0,0,0,0,0,0,0,-1,1609,1051,0,0
392,-27,0,0,0,0,0,0,0,0,0,-1,1616,1051,0,0
399,-27,0,0,0,0,0,0,0,0,0,-1,1623,1051,0,0
406,-27,0,0,0,0,0,0,0,0,0,-1,1630,1051,0,0
413,-27,0,0,0,0,0,0,0,0,0,-1,1637,1051,0,0
420,-27,0,0,0,0,0,0,0,0,0,-1,1644,1051,0,0
427,-27,0,0,0,0,0,0,0,0,0,-1,1651,1051,0,0
434,-27,0,0,0,0,0,0,0,0,0,-1,1658,1051,0,0
441,-27,0,0,0,0,0,0,0,0,0,-1,1665,1051,0,0
448,-27,0,0,0,0,0,0,0,0,0,-1,1672,1051,0,0
455,-27,0,0,0,0,0,0,0,0,0,-1,1679,1051,0,0
462,-27,0,0,0,0,0,0,0,0,0,-1,1686,1051,0,0
469,-27,0,0,0,0,0,0,0,0,0,-1,1693,1051,0,0
476,-27,0,0,0,0,0,0,0,0,0,-1,1700,1051,0,0
483,-27,0,0,0,0,0,0,0,0,0,-1,1707,1051,0,0
490,-27,0,0,0,0,0,0,0,0,0,-1,1714,1051,0,0
497,-27,0,0,0,0,0,0,0,0,0,-1,1721,1051,0,0
504,-27,0,0,0,0,0,0,0,0,0,-1,1728,1051,0,0
511,-27,0,0,0,0,0,0,0,0,0,-1,1735,1051,0,0
518,-27,0,0,0,0,0,0,0,0,0,-1,1742,1051,0,0
525,-27,0,0,0,0,0,0,0,0,0,-1,1749,1051,0,0
532,-27,0,0,0,0,0,0,0,0,0,-1,1756,1051,0,0
539,-27,0,0,0,0,0,0,0,0,0,-1,1763,1051,0,0
546,-27,0,0,0,0,0,0,0,0,0,-1,1770,1051,0,0
553,-27,0,0,0,0,0,0,0,0,0,-1,1777,1051,0,0
560,-27,0,0,0,0,0,0,0,0,0,-1,1784,1051,0,0
567,-27,0,0,0,0,0,0,0,0,0,-1,1791,1051,0,0
574,-27,0,0,0,0,0,0,0,0,0,-1,1798,1051,0,0
581,-27,0,0,0,0,0,0,0,0,0,-1,1805,1051,0,0
588,-27,0,0,0,0,0,0,0,0,0,-1,1812,1051,0,0
595,-27,0,0,0,0,0,0,0,0,0,-1,1819,1051,0,0
602,-27,0,0,0,0,0,0,0,0,0,-1,1826,1051,0,0
609,-27,0,0,0,0,0,0,0,0,0,-1,1833,1051,0,0
616,-27,0,0,0,0,0,0,0,0,0,-1,1840,1051,0,0
623,-27,0,0,0,0,0,0,0,0,0,-1,1847,1051,0,0
630,-27,0,0,0,0,0,0,0,0,0,-1,1854,1051,0,0
637,-27,0,0,0,0,0,0,0,0,0,-1,1861,1051,0,0
644,-27,0,0,0,0,0,0,0,0,0,-1,1868,1051,0,0
651,-27,27.4055,3.31653,0.0134001,0.000654914,-0.00234583,0.0138182,0.000236861,-0.176359,0.00913418,0.0405023,1875,1051,27.4055,-3.31649
658,-27,27.5924,3.33704,0.00901382,0.00108304,-0.00152717,0.00929773,0.000799131,-0.183808,0.00595002,0.0416164,1882,1051,27.5924,-3.33701
665,-27,27.5255,3.39172,0.00590333,0.001308,-0.000995939,0.00610989,0.00110144,-0.204506,0.00376027,0.0373155,1889,1051,27.5255,-3.39178
672,-27,27.4227,3.43579,0.00371416,0.00128516,-0.000388088,0.00377466,0.00122466,-0.154645,0.00222363,0.028519,1896,1051,27.4227,-3.4358
679,-27,27.5278,3.38464,0.00193835,0.000951446,0.000539171,0.00217579,0.000714008,0.414823,0.00128068,0.0294543,1903,1051,27.5279,-3.38462
686,-27,27.5708,3.43811,0.000699684,0.000430343,0.00141792,0.00198931,-0.000859284,0.738051,0.00168722,0.0419556,1910,1051,27.5708,-3.43816
693,-27,27.517,3.38452,-7.72228e-05,-0.0001258,0.00218026,0.00207888,-0.00228191,0.779828,0.00251861,0.0411024,1917,1051,27.517,-3.38451
700,-27,27.4761,3.2085,-0.000583804,-0.000540422,0.00280184,0.00223981,-0.00336404,0.789269,0.00325701,0.0382193,1924,1051,27.4761,-3.20851
707,-27,27.4133,3.31201,-0.00128931,-0.000825077,0.00326276,0.00221381,-0.00432821,0.820909,0.00384223,0.0254516,1931,1051,27.4133,-3.312
714,-27,27.4642,3.38208,-0.00172914,-0.000962556,0.00351038,0.00218539,-0.00487709,0.839777,0.00417507,0.0235086,1938,1051,27.4642,-3.38208
721,-27,27.4952,3.47473,0,0,0,0,0,0,0,-1,1945,1051,27.4953,-3.47473
728,-27,27.215,5.13806,0,0,0,0,0,0,0,-1,1952,1051,27.2149,-5.13801
735,-27,27.0836,5.15833,-0.00228554,-0.000486571,0.00338004,0.00211162,-0.00488374,0.915443,0.00414313,0.0188919,1959,1051,27.0836,-5.15833
742,-27,27.0355,5.14905,-0.00226583,1.74802e-05,0.00319028,0.00226422,-0.00451257,0.957226,0.00398372,0.0158822,1966,1051,27.0355,-5.14907
749,-27,27.0448,5.11731,-0.00245631,0.000700972,0.00291192,0.00243464,-0.00418997,1.03379,0.00386922,0.0120192,1973,1051,27.0448,-5.11733
756,-27,27.0355,5.0896,-0.00250344,0.00168938,0.00227312,0.00268522,-0.00349928,1.15789,0.00358092,0.0116674,1980,1051,27.0355,-5.08955
763,-27,27.0317,5.03943,-0.00207956,0.00288739,0.00106036,0.00310429,-0.00229645,1.36903,0.00312973,0.012022,1987,1051,27.0318,-5.0394
770,-27,26.9935,5.00989,-0.00147774,0.00435372,-0.000226481,0.0043625,-0.00148652,-1.53204,0.00351037,0.0130682,1994,1051,26.9935,-5.00993
777,-27,26.9214,5.00708,-0.0003831,0.00583896,-0.00166276,0.00625544,-0.000799575,-1.32537,0.00446077,0.0150481,2001,1051,26.9214,-5.00708
784,-27,26.8553,5.00842,0.000884497,0.00707484,-0.00310836,0.00836623,-0.000406898,-1.17703,0.00571795,0.0237607,2008,1051,26.8553,-5.00843
791,-27,26.7925,4.93835,0.00253035,0.00808125,-0.00497324,0.0110011,-0.000389488,-1.03991,0.00746727,0.0420221,2015,1051,26.7925,-4.93835
798,-27,27.2273,4.94128,0.00482331,0.0087973,-0.00754364,0.0146112,-0.000990636,-0.914173,0.0100873,0.0467824,2022,1051,27.2272,-4.94133
805,-27,27.4746,4.94775,0,0,0,0,0,0,0,-1,2029,1051,27.4745,-4.94771
812,-27,28.8381,5.42249,0,0,0,0,0,0,0,-1,2036,1051,28.8381,-5.42252
-700,-34,-16.2654,0.72229,0,0,0,0,0,0,0,-1,524,1058,-16.2654,-0.722304
-693,-34,-17.2006,0.496704,-0.0882468,0.0531213,-0.0476577,0.0676868,-0.102812,-1.27418,0.0991316,0.048778,531,1058,-17.2006,-0.496699
-686,-34,-18.363,0.498169,-0.0739357,0.0425177,-0.0332733,0.0513541,-0.0827721,-1.31122,0.0781428,0.0471828,538,1058,-18.363,-0.498186
-679,-34,-19.4944,0.351685,-0.0600911,0.0338669,-0.0222875,0.0388856,-0.0651098,-1.34931,0.0606747,0.0419133,545,1058,-19.4944,-0.351671
-672,-34,-19.3303,0.753784,-0.0473212,0.0268056,-0.0140381,0.029375,-0.0498907,-1.38977,0.0462722,0.0431199,552,1058,-19.3303,-0.753732
-665,-34,-19.5318,1.59851,-0.0360157,0.021057,-0.0080627,0.0221741,-0.0371329,-1.43311,0.0346021,0.0430649,559,1058,-19.5318,-1.59854
-658,-34,-19.3588,1.78577,-0.0264248,0.0163758,-0.00396563,0.0167401,-0.0267892,-1.47918,0.0253539,0.0394397,566,1058,-19.3588,-1.78578
-651,-34,-18.8752,2.14221,-0.0186364,0.0125368,-0.00138555,0.0125982,-0.0186978,-1.52647,0.0181828,0.0265665,573,1058,-18.8752,-2.14215
-644,-34,-18.9399,2.2207,-0.012774,0.00941055,-0.00021313,0.0094126,-0.012776,-1.56119,0.0128596,0.0122581,580,1058,-18.9399,-2.22075
-637,-34,-18.9604,2.2793,-0.00781625,0.00597702,-0.000376134,0.00598727,-0.00782649,-1.54355,0.00799891,0.0133125,587,1058,-18.9604,-2.27934
-630,-34,-18.9857,2.4115,-0.00413573,0.00371256,-0.00175031,0.00408522,-0.00450839,-1.36102,0.00496352,0.014797,594,1058,-18.9857,-2.41145
-623,-34,-18.968,2.50635,-0.00171949,0.00221906,-0.00327419,0.00407057,-0.00357099,-1.05614,0.004415,0.012209,601,1058,-18.968,-2.50638
-616,-34,-18.9335,2.61389,-0.000288456,0.00122704,-0.00579632,0.00631493,-0.00537635,-0.850394,0.00675721,0.0189648,608,1058,-18.9335,-2.61389
-609,-34,-18.9318,2.68506,-0.000193479,0.000351861,-0.00807356,0.00815736,-0.00799897,-0.802278,0.00932801,0.0198199,615,1058,-18.9318,-2.68502
-602,-34,-18.9393,2.72559,-0.000621875,-0.00026067,-0.00964372,0.00920414,-0.0100867,-0.794761,0.0111414,0.0163765,622,1058,-18.9393,-2.72556
-595,-34,-18.9554,2.77136,-0.000952036,-0.000582618,-0.0104222,0.00965647,-0.0111911,-0.794259,0.0120472,0.0148848,629,1058,-18.9554,-2.77138
-588,-34,-19.014,2.10962,-0.00091299,-0.000627187,-0.0106747,0.0099056,-0.0114458,-0.792091,0.0123379,0.022307,636,1058,-19.014,-2.10956
-581,-34,-19.0394,1.21912,0,0,0,0,0,0,0,-1,643,1058,-19.0394,-1.21909
-574,-34,-19.0029,1.32068,-0.000693287,-0.000128184,-0.00978728,0.00938062,-0.0102021,-0.799829,0.0113094,0.0357235,650,1058,-19.0029,-1.32074
-567,-34,-18.9341,1.32617,-0.000608522,0.000413169,-0.008372,0.0082899,-0.00848525,-0.81587,0.00968535,0.0417234,657,1058,-18.9341,-1.32617
-560,-34,-18.9189,1.29431,-0.000421297,0.00110045,-0.00631301,0.00669828,-0.00601912,-0.845371,0.00734588,0.0417829,664,1058,-18.9189,-1.29437
-553,-34,-18.8537,1.35681,-0.000102823,0.00185975,-0.00370812,0.00471423,-0.0029573,-0.914749,0.00446771,0.0425864,671,1058,-18.8537,-1.35682
-546,-34,-18.914,1.41321,0.000359356,0.00257915,-0.000681133,0.00277149,0.000167019,-1.29558,0.00179458,0.0470919,678,1058,-18.914,-1.4132
-539,-34,-18.9677,1.46594,0.000921602,0.00311804,0.00168544,0.00403149,8.1528e-06,1.07414,0.00268495,0.0462515,685,1058,-18.9677,-1.46591
-532,-34,-19.0604,1.11731,0.0012281,0.00322292,0.000556185,0.00336751,0.00108351,1.31646,0.00198499,0.0443994,692,1058,-19.0604,-1.11729
-525,-34,0,0,0,0,0,0,0,0,0,-1,699,1058,0,0
-518,-34,0,0,0,0,0,0,0,0,0,-1,706,1058,0,0
-511,-34,0,0,0,0,0,0,0,0,0,-1,713,1058,0,0
-504,-34,0,0,0,0,0,0,0,0,0,-1,720,1058,0,0
-497,-34,0,0,0,0,0,0,0,0,0,-1,727,1058,0,0
-490,-34,0,0,0,0,0,0,0,0,0,-1,734,1058,0,0
-483,-34,0,0,0,0,0,0,0,0,0,-1,741,1058,0,0
-476,-34,0,0,0,0,0,0,0,0,0,-1,748,1058,0,0
-469,-34,0,0,0,0,0,0,0,0,0,-1,755,1058,0,0
-462,-34,0,0,0,0,0,0,0,0,0,-1,762,1058,0,0
-455,-34,0,0,0,0,0,0,0,0,0,-1,769,1058,0,0
-448,-34,0,0,0,0,0,0,0,0,0,-1,776,1058,0,0
-441,-34,0,0,0,0,0,0,0,0,0,-1,783,1058,0,0
-434,-34,0,0,0,0,0,0,0,0,0,-1,790,1058,0,0
-427,-34,0,0,0,0,0,0,0,0,0,-1,797,1058,0,0
-420,-34,0,0,0,0,0,0,0,0,0,-1,804,1058,0,0
-413,-34,0,0,0,0,0,0,0,0,0,-1,811,1058,0,0
-406,-34,0,0,0,0,0,0,0,0,0,-1,818,1058,0,0
-399,-34,0,0,0,0,0,0,0,0,0,-1,825,1058,0,0
-392,-34,0,0,0,0,0,0,0,0,0,-1,832,1058,0,0
-385,-34,0,0,0,0,0,0,0,0,0,-1,839,1058,0,0
-378,-34,0,0,0,0,0,0,0,0,0,-1,846,1058,0,0
-371,-34,0,0,0,0,0,0,0,0,0,-1,853,1058,0,0
-364,-34,0,0,0,0,0,0,0,0,0,-1,860,1058,0,0
-357,-34,0,0,0,0,0,0,0,0,0,-1,867,1058,0,0
-350,-34,0,0,0,0,0,0,0,0,0,-1,874,1058,0,0
-343,-34,0,0,0,0,0,0,0,0,0,-1,881,1058,0,0
-336,-34,0,0,0,0,0,0,0,0,0,-1,888,1058,0,0
-329,-34,0,0,0,0,0,0,0,0,0,-1,895,1058,0,0
-322,-34,0,0,0,0,0,0,0,0,0,-1,902,1058,0,0
-315,-34,0,0,0,0,0,0,0,0,0,-1,909,1058,0,0
-308,-34,0,0,0,0,0,0,0,0,0,-1,916,1058,0,0
-301,-34,0,0,0,0,0,0,0,0,0,-1,923,1058,0,0
-294,-34,0,0,0,0,0,0,0,0,0,-1,930,1058,0,0
-287,-34,0,0,0,0,0,0,0,0,0,-1,937,1058,0,0
-280,-34,0,0,0,0,0,0,0,0,0,-1,944,1058,0,0
-273,-34,0,0,0,0,0,0,0,0,0,-1,951,1058,0,0
-266,-34,0,0,0,0,0,0,0,0,0,-1,958,1058,0,0
-259,-34,0,0,0,0,0,0,0,0,0,-1,965,1058,0,0
-252,-34,0,0,0,0,0,0,0,0,0,-1,972,1058,0,0
-245,-34,0,0,0,0,0,0,0,0,0,-1,979,1058,0,0
-238,-34,0,0,0,0,0,0,0,0,0,-1,986,1058,0,0
-231,-34,0,0,0,0,0,0,0,0,0,-1,993,1058,0,0
-224,-34,0,0,0,0,0,0,0,0,0,-1,1000,1058,0,0
-217,-34,0,0,0,0,0,0,0,0,0,-1,1007,1058,0,0
-210,-34,0,0,0,0,0,0,0,0,0,-1,1014,1058,0,0
-203,-34,0,0,0,0,0,0,0,0,0,-1,1021,1058,0,0
-196,-34,0,0,0,0,0,0,0,0,0,-1,1028,1058,0,0
-189,-34,0,0,0,0,0,0,0,0,0,-1,1035,1058,0,0
-182,-34,0,0,0,0,0,0,0,0,0,-1,1042,1058,0,0
-175,-34,0,0,0,0,0,0,0,0,0,-1,1049,1058,0,0
-168,-34,0,0,0,0,0,0,0,0,0,-1,1056,1058,0,0
-161,-34,0,0,0,0,0,0,0,0,0,-1,1063,1058,0,0
-154,-34,0,0,0,0,0,0,0,0,0,-1,1070,1058,0,0
-147,-34,0,0,0,0,0,0,0,0,0,-1,1077,1058,0,0
-140,-34,0,0,0,0,0,0,0,0,0,-1,1084,1058,0,0
-133,-34,0,0,0,0,0,0,0,0,0,-1,1091,1058,0,0
-126,-34,0,0,0,0,0,0,0,0,0,-1,1098,1058,0,0
-119,-34,0,0,0,0,0,0,0,0,0,-1,1105,1058,0,0
-112,-34,0,0,0,0,0,0,0,0,0,-1,1112,1058,0,0
-105,-34,0,0,0,0,0,0,0,0,0,-1,1119,1058,0,0
-98,-34,0,0,0,0,0,0,0,0,0,-1,1126,1058,0,0
-91,-34,0,0,0,0,0,0,0,0,0,-1,1133,1058,0,0
-84,-34,0,0,0,0,0,0,0,0,0,-1,1140,1058,0,0
-77,-34,0,0,0,0,0,0,0,0,0,-1,1147,1058,0,0
-70,-34,0,0,0,0,0,0,0,0,0,-1,1154,1058,0,0
-63,-34,0,0,0,0,0,0,0,0,0,-1,1161,1058,0,0
-56,-34,0,0,0,0,0,0,0,0,0,-1,1168,1058,0,0
-49,-34,0,0,0,0,0,0,0,0,0,-1,1175,1058,0,0
-42,-34,0,0,0,0,0,0,0,0,0,-1,1182,1058,0,0
-35,-34,0,0,0,0,0,0,0,0,0,-1,1189,1058,0,0
-28,-34,0,0,0,0,0,0,0,0,0,-1,1196,1058,0,0
-21,-34,0,0,0,0,0,0,0,0,0,-1,1203,1058,0,0
-14,-34,0,0,0,0,0,0,0,0,0,-1,1210,1058,0,0
-7,-34,0,0,0,0,0,0,0,0,0,-1,1217,1058,0,0
0,-34,0,0,0,0,0,0,0,0,0,-1,1224,1058,0,0
7,-34,0,0,0,0,0,0,0,0,0,-1,1231,1058,0,0
14,-34,0,0,0,0,0,0,0,0,0,-1,1238,1058,0,0
21,-34,0,0,0,0,0,0,0,0,0,-1,1245,1058,0,0
28,-34,0,0,0,0,0,0,0,0,0,-1,1252,1058,0,0
35,-34,0,0,0,0,0,0,0,0,0,-1,1259,1058,0,0
42,-34,0,0,0,0,0,0,0,0,0,-1,1266,1058,0,0
49,-34,0,0,0,0,0,0,0,0,0,-1,1273,1058,0,0
56,-34,0,0,0,0,0,0,0,0,0,-1,1280,1058,0,0
63,-34,0,0,0,0,0,0,0,0,0,-1,1287,1058,0,0
70,-34,0,0,0,0,0,0,0,0,0,-1,1294,1058,0,0
77,-34,0,0,0,0,0,0,0,0,0,-1,1301,1058,0,0
84,-34,0,0,0,0,0,0,0,0,0,-1,1308,1058,0,0
91,-34,0,0,0,0,0,0,0,0,0,-1,1315,1058,0,0
98,-34,0,0,0,0,0,0,0,0,0,-1,1322,1058,0,0
105,-34,0,0,0,0,0,0,0,0,0,-1,1329,1058,0,0
112,-34,0,0,0,0,0,0,0,0,0,-1,1336,1058,0,0
119,-34,0,0,0,0,0,0,0,0,0,-1,1343,1058,0,0
126,-34,0,0,0,0,0,0,0,0,0,-1,1350,1058,0,0
133,-34,0,0,0,0,0,0,0,0,0,-1,1357,1058,0,0
140,-34,0,0,0,0,0,0,0,0,0,-1,1364,1058,0,0
147,-34,0,0,0,0,0,0,0,0,0,-1,1371,1058,0,0
154,-34,0,0,0,0,0,0,0,0,0,-1,1378,1058,0,0
161,-34,0,0,0,0,0,0,0,0,0,-1,1385,1058,0,0
168,-34,0,0,0,0,0,0,0,0,0,-1,1392,1058,0,0
175,-34,0,0,0,0,0,0,0,0,0,-1,1399,1058,0,0
182,-34,0,0,0,0,0,0,0,0,0,-1,1406,1058,0,0
189,-34,0,0,0,0,0,0,0,0,0,-1,1413,1058,0,0
196,-34,0,0,0,0,0,0,0,0,0,-1,1420,1058,0,0
203,-34,0,0,0,0,0,0,0,0,0,-1,1427,1058,0,0
210,-34,0,0,0,0,0,0,0,0,0,-1,1434,1058,0,0
217,-34,0,0,0,0,0,0,0,0,0,-1,1441,1058,0,0
224,-34,0,0,0,0,0,0,0,0,0,-1,1448,1058,0,0
231,-34,0,0,0,0,0,0,0,0,0,-1,1455,1058,0,0
238,-34,0,0,0,0,0,0,0,0,0,-1,1462,1058,0,0
245,-34,0,0,0,0,0,0,0,0,0,-1,1469,1058,0,0
252,-34,0,0,0,0,0,0,0,0,0,-1,1476,1058,0,0
259,-34,0,0,0,0,0,0,0,0,0,-1,1483,1058,0,0
266,-34,0,0,0,0,0,0,0,0,0,-1,1490,1058,0,0
273,-34,0,0,0,0,0,0,0,0,0,-1,1497,1058,0,0
280,-34,0,0,0,0,0,0,0,0,0,-1,1504,1058,0,0
287,-34,0,0,0,0,0,0,0,0,0,-1,1511,1058,0,0
294,-34,0,0,0,0,0,0,0,0,0,-1,1518,1058,0,0
301,-34,0,0,0,0,0,0,0,0,0,-1,1525,1058,0,0
308,-34,0,0,0,0,0,0,0,0,0,-1,1532,1058,0,0
315,-34,0,0,0,0,0,0,0,0,0,-1,1539,1058,0,0
322,-34,0,0,0,0,0,0,0,0,0,-1,1546,1058,0,0
329,-34,0,0,0,0,0,0,0,0,0,-1,1553,1058,0,0
336,-34,0,0,0,0,0,0,0,0,0,-1,1560,1058,0,0
343,-34,0,0,0,0,0,0,0,0,0,-1,1567,1058,0,0
350,-34,0,0,0,0,0,0,0,0,0,-1,1574,1058,0,0
357,-34,0,0,0,0,0,0,0,0,0,-1,1581,1058,0,0
364,-34,0,0,0,0,0,0,0,0,0,-1,1588,1058,0,0
371,-34,0,0,0,0,0,0,0,0,0,-1,1595,1058,0,0
378,-34,0,0,0,0,0,0,0,0,0,-1,1602,1058,0,0
385,-34,0,0,0,0,0,0,0,0,0,-1,1609,1058,0,0
392,-34,0,0,0,0,0,0,0,0,0,-1,1616,1058,0,0
399,-34,0,0,0,0,0,0,0,0,0,-1,1623,1058,0,0
406,-34,0,0,0,0,0,0,0,0,0,-1,1630,1058,0,0
413,-34,0,0,0,0,0,0,0,0,0,-1,1637,1058,0,0
420,-34,0,0,0,0,0,0,0,0,0,-1,1644,1058,0,0
427,-34,0,0,0,0,0,0,0,0,0,-1,1651,1058,0,0
434,-34,0,0,0,0,0,0,0,0,0,-1,1658,1058,0,0
441,-34,0,0,0,0,0,0,0,0,0,-1,1665,1058,0,0
448,-34,0,0,0,0,0,0,0,0,0,-1,1672,1058,0,0
455,-34,0,0,0,0,0,0,0,0,0,-1,1679,1058,0,0
462,-34,0,0,0,0,0,0,0,0,0,-1,1686,1058,0,0
469,-34,0,0,0,0,0,0,0,0,0,-1,1693,1058,0,0
476,-34,0,0,0,0,0,0,0,0,0,-1,1700,1058,0,0
483,-34,0,0,0,0,0,0,0,0,0,-1,1707,1058,0,0
490,-34,0,0,0,0,0,0,0,0,0,-1,1714,1058,0,0
497,-34,0,0,0,0,0,0,0,0,0,-1,1721,1058,0,0
504,-34,0,0,0,0,0,0,0,0,0,-1,1728,1058,0,0
511,-34,0,0,0,0,0,0,0,0,0,-1,1735,1058,0,0
518,-34,0,0,0,0,0,0,0,0,0,-1,1742,1058,0,0
525,-34,0,0,0,0,0,0,0,0,0,-1,1749,1058,0,0
532,-34,0,0,0,0,0,0,0,0,0,-1,1756,1058,0,0
539,-34,0,0,0,0,0,0,0,0,0,-1,1763,1058,0,0
546,-34,0,0,0,0,0,0,0,0,0,-1,1770,1058,0,0
553,-34,0,0,0,0,0,0,0,0,0,-1,1777,1058,0,0
560,-34,0,0,0,0,0,0,0,0,0,-1,1784,1058,0,0
567,-34,0,0,0,0,0,0,0,0,0,-1,1791,1058,0,0
574,-34,0,0,0,0,0,0,0,0,0,-1,1798,1058,0,0
581,-34,0,0,0,0,0,0,0,0,0,-1,1805,1058,0,0
588,-34,0,0,0,0,0,0,0,0,0,-1,1812,1058,0,0
595,-34,0,0,0,0,0,0,0,0,0,-1,1819,1058,0,0
602,-34,0,0,0,0,0,0,0,0,0,-1,1826,1058,0,0
609,-34,0,0,0,0,0,0,0,0,0,-1,1833,1058,0,0
616,-34,0,0,0,0,0,0,0,0,0,-1,1840,1058,0,0
623,-34,0,0,0,0,0,0,0,0,0,-1,1847,1058,0,0
630,-34,0,0,0,0,0,0,0,0,0,-1,1854,1058,0,0
637,-34,0,0,0,0,0,0,0,0,0,-1,1861,1058,0,0
644,-34,0,0,0,0,0,0,0,0,0,-1,1868,1058,0,0
651,-34,27.3956,3.53503,0.0131735,0.00116121,-0.00253334,0.013686,0.000648796,-0.199574,0.00891557,0.0390473,1875,1058,27.3956,-3.53504
658,-34,27.7129,3.34998,0.00902719,0.00131696,-0.00169965,0.00938524,0.000958913,-0.207623,0.00596294,0.0457617,1882,1058,27.7129,-3.34994
665,-34,27.599,3.40637,0.00607332,0.00137369,-0.00115724,0.00634283,0.00110419,-0.228808,0.00391277,0.043539,1889,1058,27.599,-3.4064
672,-34,27.4617,3.49365,0.00403723,0.00121344,-0.000512554,0.00412738,0.00112329,-0.174116,0.00246404,0.0345297,1896,1058,27.4616,-3.49363
679,-34,27.6139,3.27942,0.00237135,0.000801206,0.000392573,0.00246403,0.000708525,0.231843,0.00146479,0.0357028,1903,1058,27.6139,-3.2794
686,-34,27.5653,3.33362,0.00114733,0.000252623,0.00125378,0.00203117,-0.000631221,0.614036,0.00160641,0.0434386,1910,1058,27.5653,-3.33361
693,-34,27.446,3.33167,0.000342734,-0.00029835,0.00199776,0.00204551,-0.00200112,0.705851,0.00233637,0.042869,1917,1058,27.4461,-3.33169
700,-34,27.4067,3.35754,-0.000210342,-0.000707124,0.00260234,0.00215544,-0.00307291,0.737818,0.00303404,0.0400929,1924,1058,27.4067,-3.35758
707,-34,27.4146,3.32092,-0.000977781,-0.00097761,0.00305928,0.00208159,-0.00403698,0.785412,0.00359219,0.0282542,1931,1058,27.4145,-3.32096
714,-34,27.4261,3.43152,-0.00144712,-0.00110354,0.00331483,0.00204395,-0.00459461,0.811288,0.00392595,0.0255862,1938,1058,27.4262,-3.43154
721,-34,27.5313,4.16101,0,0,0,0,0,0,0,-1,1945,1058,27.5313,-4.16104
728,-34,27.3373,4.83008,0,0,0,0,0,0,0,-1,1952,1058,27.3373,-4.83002
735,-34,26.9945,5.21375,-0.0021609,-0.000603154,0.00321523,0.0019262,-0.00469025,0.904231,0.00392955,0.0151213,1959,1058,26.9945,-5.2137
742,-34,26.9554,5.15588,-0.00218443,-9.39356e-05,0.00305741,0.00209197,-0.00437033,0.950106,0.00380752,0.0139197,1966,1058,26.9555,-5.15592
749,-34,26.9764,5.12451,-0.00237191,0.000569439,0.00285555,0.00231078,-0.00411326,1.0232,0.00375727,0.0123193,1973,1058,26.9764,-5.12449
756,-34,26.9978,5.09021,-0.00235236,0.00142332,0.00238461,0.00257691,-0.00350596,1.12022,0.00352557,0.0100651,1980,1058,26.9978,-5.09017
763,-34,26.9879,5.02344,-0.00181927,0.00236616,0.00150841,0.00285312,-0.00230624,1.25852,0.00298433,0.0100702,1987,1058,26.9879,-5.02347
770,-34,26.9221,4.96387,-0.00107403,0.00353856,0.000627051,0.00362228,-0.00115775,1.43806,0.00287943,0.0146993,1994,1058,26.9221,-4.96386
777,-34,26.8513,4.95715,0.000285112,0.00457535,-0.00017802,0.00458272,0.000277738,-1.5294,0.00296691,0.0169523,2001,1058,26.8514,-4.95713
784,-34,26.7666,4.9104,0.00192562,0.00526134,-0.000854967,0.00546771,0.00171925,-1.33395,0.00322844,0.0327769,2008,1058,26.7666,-4.91035
791,-34,26.6584,4.79541,0.00411078,0.00554685,-0.00169962,0.00667388,0.00298374,-0.98526,0.00386035,0.0455308,2015,1058,26.6585,-4.79542
798,-34,26.6643,4.7561,0,0,0,0,0,0,0,-1,2022,1058,26.6643,-4.75612
805,-34,26.4297,4.83838,0,0,0,0,0,0,0,-1,2029,1058,26.4296,-4.83834
812,-34,29.4021,4.99597,0,0,0,0,0,0,0,-1,2036,1058,29.4021,-4.99598
-700,-41,-14.1732,0.182373,0,0,0,0,0,0,0,-1,524,1065,-14.1732,-0.182367
-693,-41,-15.1194,-0.0201416,-0.0866796,0.0547202,-0.0563322,0.0744182,-0.106378,-1.23441,0.104925,0.0481196,531,1065,-15.1194,0.0201037
-686,-41,-16.6902,-0.751953,-0.0735689,0.0430606,-0.040599,0.0558014,-0.0863097,-1.26671,0.0826757,0.0444907,538,1065,-16.6902,0.751924
-679,-41,-17.8259,0.185913,-0.0604736,0.0337294,-0.0283024,0.0415786,-0.0683227,-1.30026,0.0640747,0.0436761,545,1065,-17.8258,-0.185894
-672,-41,-18.5461,0.827148,-0.0481198,0.0262624,-0.0188326,0.0307588,-0.0526162,-1.33643,0.0486848,0.0428948,552,1065,-18.5461,-0.827106
-665,-41,-19.01,1.13245,0,0,0,0,0,0,0,-1,559,1065,-19.01,-1.13249
-658,-41,-18.859,1.54956,-0.0273904,0.0155666,-0.00670574,0.016589,-0.0284128,-1.41949,0.026279,0.0372682,566,1065,-18.859,-1.5495
-651,-41,-18.7272,2.02332,-0.0194816,0.011768,-0.00332412,0.0121177,-0.0198313,-1.46599,0.0186241,0.0266049,573,1065,-18.7272,-2.02328
-644,-41,-18.8718,2.20154,-0.0135417,0.00872642,-0.00145982,0.00882172,-0.013637,-1.50561,0.0130655,0.0134973,580,1065,-18.8718,-2.20157
-637,-41,-18.8914,2.27588,-0.00850936,0.00522226,-0.00114802,0.00531758,-0.00860468,-1.48796,0.00811235,0.0143119,587,1065,-18.8914,-2.27587
-630,-41,-18.8884,2.37744,-0.0047895,0.00299688,-0.00225802,0.00360431,-0.00539693,-1.30801,0.0052311,0.0122174,594,1065,-18.8884,-2.37743
-623,-41,-18.8666,2.47388,-0.0024214,0.00154429,-0.00361889,0.00368795,-0.00456507,-1.03602,0.00477384,0.011372,601,1065,-18.8666,-2.47392
-616,-41,-18.8625,2.58765,-0.00102917,0.000698516,-0.00613358,0.00602879,-0.00635944,-0.855357,0.0071532,0.0150543,608,1065,-18.8625,-2.58761
-609,-41,-18.8276,2.69275,-0.000989773,-0.000215281,-0.00847022,0.00787655,-0.0090816,-0.808242,0.00979903,0.0215194,615,1065,-18.8276,-2.69278
-602,-41,-18.8411,2.7356,-0.00148707,-0.000857447,-0.0101311,0.00896376,-0.0113083,-0.80093,0.0117301,0.0131196,622,1065,-18.8411,-2.73555
-595,-41,-18.8987,2.78906,-0.00188524,-0.0011931,-0.0109949,0.00946117,-0.0125395,-0.801131,0.0127435,0.0157411,629,1065,-18.8987,-2.78902
-588,-41,-19.0004,2.11731,-0.00188968,-0.00123376,-0.0113064,0.0097494,-0.0128728,-0.799897,0.0131024,0.0258418,636,1065,-19.0004,-2.11726
-581,-41,-18.9893,1.42798,-0.00171241,-0.00106222,-0.0111629,0.00978034,-0.012555,-0.799955,0.0129284,0.0370927,643,1065,-18.9892,-1.42792
-574,-41,-18.8299,1.0459,-0.00159169,-0.00067424,-0.0104119,0.00928905,-0.011555,-0.807413,0.012058,0.0398088,650,1065,-18.8299,-1.04594
-567,-41,-18.7415,0.949707,-0.00134405,-6.31047e-05,-0.00892897,0.00824834,-0.00965549,-0.821202,0.0103474,0.0427766,657,1065,-18.7415,-0.949669
-560,-41,-18.9849,1.37878,-0.000900928,0.000724494,-0.00674438,0.00670496,-0.00688139,-0.84536,0.0078443,0.0419609,664,1065,-18.9849,-1.37873
-553,-41,-18.9982,1.44263,-0.000233592,0.00161616,-0.00394893,0.00474708,-0.00336451,-0.900429,0.00470585,0.0413184,671,1065,-18.9982,-1.44261
-546,-41,-19.0176,1.50842,0.000674062,0.00250154,-0.000652576,0.00271064,0.000464959,-1.26071,0.00167378,0.0404622,678,1065,-19.0176,-1.50846
-539,-41,-19.1177,1.5188,0.00173698,0.00319676,0.00204011,0.00463362,0.000300121,0.957188,0.00299406,0.0417355,685,1065,-19.1177,-1.51874
-532,-41,-19.0135,0.857422,0.00237003,0.00325738,0.0011015,0.0040012,0.00162621,0.976854,0.00232354,0.0434908,692,1065,-19.0135,-0.857406
-525,-41,0,0,0,0,0,0,0,0,0,-1,699,1065,0,0
-518,-41,0,0,0,0,0,0,0,0,0,-1,706,1065,0,0
-511,-41,0,0,0,0,0,0,0,0,0,-1,713,1065,0,0
-504,-41,0,0,0,0,0,0,0,0,0,-1,720,1065,0,0
-497,-41,0,0,0,0,0,0,0,0,0,-1,727,1065,0,0
-490,-41,0,0,0,0,0,0,0,0,0,-1,734,1065,0,0
-483,-41,0,0,0,0,0,0,0,0,0,-1,741,1065,0,0
-476,-41,0,0,0,0,0,0,0,0,0,-1,748,1065,0,0
-469,-41,0,0,0,0,0,0,0,0,0,-1,755,1065,0,0
-462,-41,0,0,0,0,0,0,0,0,0,-1,762,1065,0,0
-455,-41,0,0,0,0,0,0,0,0,0,-1,769,1065,0,0
-448,-41,0,0,0,0,0,0,0,0,0,-1,776,1065,0,0
-441,-41,0,0,0,0,0,0,0,0,0,-1,783,1065,0,0
-434,-41,0,0,0,0,0,0,0,0,0,-1,790,1065,0,0
-427,-41,0,0,0,0,0,0,0,0,0,-1,797,1065,0,0
-420,-41,0,0,0,0,0,0,0,0,0,-1,804,1065,0,0
-413,-41,0,0,0,0,0,0,0,0,0,-1,811,1065,0,0
-406,-41,0,0,0,0,0,0,0,0,0,-1,818,1065,0,0
-399,-41,0,0,0,0,0,0,0,0,0,-1,825,1065,0,0
-392,-41,0,0,0,0,0,0,0,0,0,-1,832,1065,0,0
-385,-41,0,0,0,0,0,0,0,0,0,-1,839,1065,0,0
-378,-41,0,0,0,0,0,0,0,0,0,-1,846,1065,0,0
-371,-41,0,0,0,0,0,0,0,0,0,-1,853,1065,0,0
-364,-41,0,0,0,0,0,0,0,0,0,-1,860,1065,0,0
-357,-41,0,0,0,0,0,0,0,0,0,-1,867,1065,0,0
-350,-41,0,0,0,0,0,0,0,0,0,-1,874,1065,0,0
-343,-41,0,0,0,0,0,0,0,0,0,-1,881,1065,0,0
-336,-41,0,0,0,0,0,0,0,0,0,-1,888,1065,0,0
-329,-41,0,0,0,0,0,0,0,0,0,-1,895,1065,0,0
-322,-41,0,0,0,0,0,0,0,0,0,-1,902,1065,0,0
-315,-41,0,0,0,0,0,0,0,0,0,-1,909,1065,0,0
-308,-41,0,0,0,0,0,0,0,0,0,-1,916,1065,0,0
-301,-41,0,0,0,0,0,0,0,0,0,-1,923,1065,0,0
-294,-41,0,0,0,0,0,0,0,0,0,-1,930,1065,0,0
-287,-41,0,0,0,0,0,0,0,0,0,-1,937,1065,0,0
-280,-41,0,0,0,0,0,0,0,0,0,-1,944,1065,0,0
-273,-41,0,0,0,0,0,0,0,0,0,-1,951,1065,0,0
-266,-41,0,0,0,0,0,0,0,0,0,-1,958,1065,0,0
-259,-41,0,0,0,0,0,0,0,0,0,-1,965,1065,0,0
-252,-41,0,0,0,0,0,0,0,0,0,-1,972,1065,0,0
-245,-41,0,0,0,0,0,0,0,0,0,-1,979,1065,0,0
-238,-41,0,0,0,0,0,0,0,0,0,-1,986,1065,0,0
-231,-41,0,0,0,0,0,0,0,0,0,-1,993,1065,0,0
-224,-41,0,0,0,0,0,0,0,0,0,-1,1000,1065,0,0
-217,-41,0,0,0,0,0,0,0,0,0,-1,1007,1065,0,0
-210,-41,0,0,0,0,0,0,0,0,0,-1,1014,1065,0,0
-203,-41,0,0,0,0,0,0,0,0,0,-1,1021,1065,0,0
-196,-41,0,0,0,0,0,0,0,0,0,-1,1028,1065,0,0
-189,-41,0,0,0,0,0,0,0,0,0,-1,1035,1065,0,0
-182,-41,0,0,0,0,0,0,0,0,0,-1,1042,1065,0,0
-175,-41,0,0,0,0,0,0,0,0,0,-1,1049,1065,0,0
-168,-41,0,0,0,0,0,0,0,0,0,-1,1056,1065,0,0
-161,-41,0,0,0,0,0,0,0,0,0,-1,1063,1065,0,0
-154,-41,0,0,0,0,0,0,0,0,0,-1,1070,1065,0,0
-147,-41,0,0,0,0,0,0,0,0,0,-1,1077,1065,0,0
-140,-41,0,0,0,0,0,0,0,0,0,-1,1084,1065,0,0
-133,-41,0,0,0,0,0,0,0,0,0,-1,1091,1065,0,0
-126,-41,0,0,0,0,0,0,0,0,0,-1,1098,1065,0,0
-119,-41,0,0,0,0,0,0,0,0,0,-1,1105,1065,0,0
-112,-41,0,0,0,0,0,0,0,0,0,-1,1112,1065,0,0
-105,-41,0,0,0,0,0,0,0,0,0,-1,1119,1065,0,0
-98,-41,0,0,0,0,0,0,0,0,0,-1,1126,1065,0,0
-91,-41,0,0,0,0,0,0,0,0,0,-1,1133,1065,0,0
-84,-41,0,0,0,0,0,0,0,0,0,-1,1140,1065,0,0
-77,-41,0,0,0,0,0,0,0,0,0,-1,1147,1065,0,0
-70,-41,0,0,0,0,0,0,0,0,0,-1,1154,1065,0,0
-63,-41,0,0,0,0,0,0,0,0,0,-1,1161,1065,0,0
-56,-41,0,0,0,0,0,0,0,0,0,-1,1168,1065,0,0
-49,-41,0,0,0,0,0,0,0,0,0,-1,1175,1065,0,0
-42,-41,0,0,0,0,0,0,0,0,0,-1,1182,1065,0,0
-35,-41,0,0,0,0,0,0,0,0,0,-1,1189,1065,0,0
-28,-41,0,0,0,0,0,0,0,0,0,-1,1196,1065,0,0
-21,-41,0,0,0,0,0,0,0,0,0,-1,1203,1065,0,0
-14,-41,0,0,0,0,0,0,0,0,0,-1,1210,1065,0,0
-7,-41,0,0,0,0,0,0,0,0,0,-1,1217,1065,0,0
0,-41,0,0,0,0,0,0,0,0,0,-1,1224,1065,0,0
7,-41,0,0,0,0,0,0,0,0,0,-1,1231,1065,0,0
14,-41,0,0,0,0,0,0,0,0,0,-1,1238,1065,0,0
21,-41,0,0,0,0,0,0,0,0,0,-1,1245,1065,0,0
28,-41,0,0,0,0,0,0,0,0,0,-1,1252,1065,0,0
35,-41,0,0,0,0,0,0,0,0,0,-1,1259,1065,0,0
42,-41,0,0,0,0,0,0,0,0,0,-1,1266,1065,0,0
49,-41,0,0,0,0,0,0,0,0,0,-1,1273,1065,0,0
56,-41,0,0,0,0,0,0,0,0,0,-1,1280,1065,0,0
63,-41,0,0,0,0,0,0,0,0,0,-1,1287,1065,0,0
70,-41,0,0,0,0,0,0,0,0,0,-1,1294,1065,0,0
77,-41,0,0,0,0,0,0,0,0,0,-1,1301,1065,0,0
84,-41,0,0,0,0,0,0,0,0,0,-1,1308,1065,0,0
91,-41,0,0,0,0,0,0,0,0,0,-1,1315,1065,0,0
98,-41,0,0,0,0,0,0,0,0,0,-1,1322,1065,0,0
105,-41,0,0,0,0,0,0,0,0,0,-1,1329,1065,0,0
112,-41,0,0,0,0,0,0,0,0,0,-1,1336,1065,0,0
119,-41,0,0,0,0,0,0,0,0,0,-1,1343,1065,0,0
126,-41,0,0,0,0,0,0,0,0,0,-1,1350,1065,0,0
133,-41,0,0,0,0,0,0,0,0,0,-1,1357,1065,0,0
140,-41,0,0,0,0,0,0,0,0,0,-1,1364,1065,0,0
147,-41,0,0,0,0,0,0,0,0,0,-1,1371,1065,0,0
154,-41,0,0,0,0,0,0,0,0,0,-1,1378,1065,0,0
161,-41,0,0,0,0,0,0,0,0,0,-1,1385,1065,0,0
168,-41,0,0,0,0,0,0,0,0,0,-1,1392,1065,0,0
175,-41,0,0,0,0,0,0,0,0,0,-1,1399,1065,0,0
182,-41,0,0,0,0,0,0,0,0,0,-1,1406,1065,0,0
189,-41,0,0,0,0,0,0,0,0,0,-1,1413,1065,0,0
196,-41,0,0,0,0,0,0,0,0,0,-1,1420,1065,0,0
203,-41,0,0,0,0,0,0,0,0,0,-1,1427,1065,0,0
210,-41,0,0,0,0,0,0,0,0,0,-1,1434,1065,0,0
217,-41,0,0,0,0,0,0,0,0,0,-1,1441,1065,0,0
224,-41,0,0,0,0,0,0,0,0,0,-1,1448,1065,0,0
231,-41,0,0,0,0,0,0,0,0,0,-1,1455,1065,0,0
238,-41,0,0,0,0,0,0,0,0,0,-1,1462,1065,0,0
245,-41,0,0,0,0,0,0,0,0,0,-1,1469,1065,0,0
252,-41,0,0,0,0,0,0,0,0,0,-1,1476,1065,0,0
259,-41,0,0,0,0,0,0,0,0,0,-1,1483,1065,0,0
266,-41,0,0,0,0,0,0,0,0,0,-1,1490,1065,0,0
273,-41,0,0,0,0,0,0,0,0,0,-1,1497,1065,0,0
280,-41,0,0,0,0,0,0,0,0,0,-1,1504,1065,0,0
287,-41,0,0,0,0,0,0,0,0,0,-1,1511,1065,0,0
294,-41,0,0,0,0,0,0,0,0,0,-1,1518,1065,0,0
301,-41,0,0,0,0,0,0,0,0,0,-1,1525,1065,0,0
308,-41,0,0,0,0,0,0,0,0,0,-1,1532,1065,0,0
315,-41,0,0,0,0,0,0,0,0,0,-1,1539,1065,0,0
322,-41,0,0,0,0,0,0,0,0,0,-1,1546,1065,0,0
329,-41,0,0,0,0,0,0,0,0,0,-1,1553,1065,0,0
336,-41,0,0,0,0,0,0,0,0,0,-1,1560,1065,0,0
343,-41,0,0,0,0,0,0,0,0,0,-1,1567,1065,0,0
350,-41,0,0,0,0,0,0,0,0,0,-1,1574,1065,0,0
357,-41,0,0,0,0,0,0,0,0,0,-1,1581,1065,0,0
364,-41,0,0,0,0,0,0,0,0,0,-1,1588,1065,0,0
371,-41,0,0,0,0,0,0,0,0,0,-1,1595,1065,0,0
378,-41,0,0,0,0,0,0,0,0,0,-1,1602,1065,0,0
385,-41,0,0,0,0,0,0,0,0,0,-1,1609,1065,0,0
392,-41,0,0,0,0,0,0,0,0,0,-1,1616,1065,0,0
399,-41,0,0,0,0,0,0,0,0,0,-1,1623,1065,0,0
406,-41,0,0,0,0,0,0,0,0,0,-1,1630,1065,0,0
413,-41,0,0,0,0,0,0,0,0,0,-1,1637,1065,0,0
420,-41,0,0,0,0,0,0,0,0,0,-1,1644,1065,0,0
427,-41,0,0,0,0,0,0,0,0,0,-1,1651,1065,0,0
434,-41,0,0,0,0,0,0,0,0,0,-1,1658,1065,0,0
441,-41,0,0,0,0,0,0,0,0,0,-1,1665,1065,0,0
448,-41,0,0,0,0,0,0,0,0,0,-1,1672,1065,0,0
455,-41,0,0,0,0,0,0,0,0,0,-1,1679,1065,0,0
462,-41,0,0,0,0,0,0,0,0,0,-1,1686,1065,0,0
469,-41,0,0,0,0,0,0,0,0,0,-1,1693,1065,0,0
476,-41,0,0,0,0,0,0,0,0,0,-1,1700,1065,0,0
483,-41,0,0,0,0,0,0,0,0,0,-1,1707,1065,0,0
490,-41,0,0,0,0,0,0,0,0,0,-1,1714,1065,0,0
497,-41,0,0,0,0,0,0,0,0,0,-1,1721,1065,0,0
504,-41,0,0,0,0,0,0,0,0,0,-1,1728,1065,0,0
511,-41,0,0,0,0,0,0,0,0,0,-1,1735,1065,0,0
518,-41,0,0,0,0,0,0,0,0,0,-1,1742,1065,0,0
525,-41,0,0,0,0,0,0,0,0,0,-1,1749,1065,0,0
532,-41,0,0,0,0,0,0,0,0,0,-1,1756,1065,0,0
539,-41,0,0,0,0,0,0,0,0,0,-1,1763,1065,0,0
546,-41,0,0,0,0,0,0,0,0,0,-1,1770,1065,0,0
553,-41,0,0,0,0,0,0,0,0,0,-1,1777,1065,0,0
560,-41,0,0,0,0,0,0,0,0,0,-1,1784,1065,0,0
567,-41,0,0,0,0,0,0,0,0,0,-1,1791,1065,0,0
574,-41,0,0,0,0,0,0,0,0,0,-1,1798,1065,0,0
581,-41,0,0,0,0,0,0,0,0,0,-1,1805,1065,0,0
588,-41,0,0,0,0,0,0,0,0,0,-1,1812,1065,0,0
595,-41,0,0,0,0,0,0,0,0,0,-1,1819,1065,0,0
602,-41,0,0,0,0,0,0,0,0,0,-1,1826,1065,0,0
609,-41,0,0,0,0,0,0,0,0,0,-1,1833,1065,0,0
616,-41,0,0,0,0,0,0,0,0,0,-1,1840,1065,0,0
623,-41,0,0,0,0,0,0,0,0,0,-1,1847,1065,0,0
630,-41,0,0,0,0,0,0,0,0,0,-1,1854,1065,0,0
637,-41,0,0,0,0,0,0,0,0,0,-1,1861,1065,0,0
644,-41,0,0,0,0,0,0,0,0,0,-1,1868,1065,0,0
651,-41,27.4275,3.37048,0.0124978,0.00145533,-0.00205571,0.0128681,0.00108504,-0.178213,0.00824091,0.0353106,1875,1065,27.4275,-3.37051
658,-41,27.7764,3.32507,0.00877152,0.00135497,-0.00143953,0.00904113,0.00108536,-0.185144,0.00570018,0.0422739,1882,1065,27.7763,-3.32506
665,-41,27.903,3.40637,0,0,0,0,0,0,0,-1,1889,1065,27.903,-3.40632
672,-41,27.4282,3.34631,0.00424072,0.00100981,-0.000497861,0.0043157,0.000934836,-0.149475,0.00262168,0.0372909,1896,1065,27.4282,-3.34635
679,-41,27.5673,3.20435,0.00270565,0.000565301,0.000277047,0.00274093,0.000530022,0.12666,0.00167874,0.0372147,1903,1065,27.5673,-3.20439
686,-41,27.4121,3.10022,0.0015109,2.61919e-05,0.00103764,0.0020444,-0.000507301,0.474896,0.00155978,0.0409042,1910,1065,27.4122,-3.10018
693,-41,27.2371,2.8949,0,0,0,0,0,0,0,-1,1917,1065,27.237,-2.89491
700,-41,27.3633,3.46667,0.000105136,-0.000877153,0.0022459,0.00191296,-0.00268498,0.67775,0.00266707,0.0387108,1924,1065,27.3633,-3.46664
707,-41,27.4222,3.36389,-0.000711586,-0.00112074,0.00267628,0.00176792,-0.00360025,0.747252,0.00315892,0.0328697,1931,1065,27.4222,-3.36392
714,-41,27.4247,3.40833,-0.00121351,-0.00122609,0.00293297,0.00171318,-0.00415278,0.784326,0.00348298,0.0230978,1938,1065,27.4247,-3.40838
721,-41,27.5887,4.02673,0,0,0,0,0,0,0,-1,1945,1065,27.5887,-4.02676
728,-41,27.0641,5.22485,0,0,0,0,0,0,0,-1,1952,1065,27.0641,-5.22485
735,-41,26.967,5.19885,-0.00206206,-0.000668879,0.00292459,0.00164094,-0.00437188,0.902311,0.00358887,0.0153856,1959,1065,26.967,-5.19891
742,-41,26.9067,5.17688,-0.00211849,-0.000148243,0.00281649,0.00185044,-0.00411717,0.953633,0.00352728,0.0130384,1966,1065,26.9068,-5.17691
749,-41,26.9238,5.14392,-0.00226047,0.000482185,0.00270978,0.00214787,-0.00392615,1.01964,0.00355658,0.0127888,1973,1065,26.9239,-5.1439
756,-41,26.9503,5.09155,-0.00215607,0.00123989,0.00241907,0.00249742,-0.0034136,1.0914,0.00342637,0.0129888,1980,1065,26.9503,-5.09157
763,-41,26.9231,5.00879,-0.00154076,0.00202234,0.00186527,0.00282016,-0.00233859,1.16662,0.00298273,0.0105265,1987,1065,26.9231,-5.00884
770,-41,26.8711,4.93933,-0.000672184,0.00300006,0.00133773,0.0034357,-0.00110782,1.25598,0.00273556,0.011665,1994,1065,26.8711,-4.93935
777,-41,26.8181,4.88184,0.000886333,0.00373853,0.00105885,0.00408864,0.000536219,1.25146,0.00256577,0.0137662,2001,1065,26.8181,-4.88184
784,-41,26.7867,4.79211,0.0027827,0.00405386,0.00100093,0.00460395,0.00223261,1.06827,0.00265849,0.0245216,2008,1065,26.7868,-4.7921
791,-41,26.7573,4.68396,0.00530178,0.0038257,0.000983181,0.00579311,0.00333438,0.463435,0.00335737,0.0450447,2015,1065,26.7573,-4.68398
798,-41,26.7412,4.6012,0,0,0,0,0,0,0,-1,2022,1065,26.7412,-4.60116
805,-41,26.7305,4.42322,0,0,0,0,0,0,0,-1,2029,1065,26.7304,-4.42325
812,-41,26.4163,4.60632,0,0,0,0,0,0,0,-1,2036,1065,26.4162,-4.60631
-700,-48,-14.522,-1.14221,0,0,0,0,0,0,0,-1,524,1072,-14.522,1.1422
-693,-48,-15.3729,-1.19116,-0.0848854,0.0550032,-0.0641878,0.0799919,-0.109874,-1.19954,0.110071,0.0432831,531,1072,-15.3729,1.19116
-686,-48,-15.9901,-0.736084,-0.0731772,0.0425615,-0.0472119,0.059377,-0.0899927,-1.22864,0.0868404,0.0450392,538,1072,-15.9901,0.736079
-679,-48,-16.6938,-0.0721436,-0.0609742,0.0327709,-0.0337958,0.0436841,-0.0718874,-1.25845,0.0673843,0.0468915,545,1072,-16.6938,0.0722013
-672,-48,-17.5534,0.536743,-0.0491466,0.0250737,-0.0233115,0.0317881,-0.055861,-1.29036,0.0512365,0.0456076,552,1072,-17.5534,-0.536732
-665,-48,-18.4234,1.14783,-0.0382672,0.0190516,-0.0153168,0.0228878,-0.0421035,-1.32539,0.0380655,0.0435598,559,1072,-18.4234,-1.14779
-658,-48,-18.6292,1.46021,-0.0287185,0.0143568,-0.00944142,0.0163353,-0.030697,-1.36423,0.0275729,0.0433006,566,1072,-18.6292,-1.46019
-651,-48,-18.6532,1.85242,-0.0207,0.0106844,-0.00534726,0.0115705,-0.0215861,-1.40659,0.0194319,0.0299347,573,1072,-18.6532,-1.85238
-644,-48,-18.7299,2.17505,-0.01465,0.00781037,-0.00284275,0.00816459,-0.0150042,-1.44683,0.0135694,0.0150464,580,1072,-18.7299,-2.17504
-637,-48,-18.7509,2.24219,-0.00954779,0.00437407,-0.00207068,0.00467553,-0.00984925,-1.42623,0.00856138,0.0158629,587,1072,-18.7509,-2.24222
-630,-48,-18.7469,2.35327,-0.00581615,0.00227352,-0.00289806,0.00320457,-0.0067472,-1.25994,0.00586575,0.0179264,594,1072,-18.7469,-2.35324
-623,-48,-18.7513,2.46704,-0.00338508,0.000901894,-0.00407954,0.00336679,-0.00584998,-1.02729,0.00538529,0.0106875,601,1072,-18.7513,-2.46704
-616,-48,-18.7527,2.56482,-0.0019407,0.000259773,-0.00655906,0.00581023,-0.00749116,-0.868496,0.00769998,0.0093366,608,1072,-18.7527,-2.56485
-609,-48,-18.7209,2.65125,-0.00197108,-0.000657895,-0.00897255,0.00768206,-0.010311,-0.821922,0.0104252,0.0116264,615,1072,-18.7209,-2.6513
-602,-48,-18.7487,2.75012,-0.00252462,-0.00127555,-0.0107445,0.00886259,-0.0126628,-0.814428,0.0124921,0.0117763,622,1072,-18.7487,-2.75008
-595,-48,-18.8011,2.83179,-0.00296024,-0.00166061,-0.0117182,0.00942577,-0.0140466,-0.813097,0.013639,0.0175707,629,1072,-18.8011,-2.83177
-588,-48,-18.9373,2.16968,-0.00300852,-0.00175338,-0.0121066,0.00974186,-0.0145038,-0.811293,0.0140879,0.0334114,636,1072,-18.9373,-2.16966
-581,-48,-18.9839,1.41821,-0.00281348,-0.00161622,-0.0119668,0.00976694,-0.0141966,-0.810389,0.013914,0.0416742,643,1072,-18.9839,-1.41826
-574,-48,-18.8151,1.16284,-0.00258945,-0.00126654,-0.011193,0.0092845,-0.0131405,-0.814912,0.0130107,0.0414283,650,1072,-18.8151,-1.16282
-567,-48,-18.7337,1.2655,-0.00212259,-0.000680226,-0.00962846,0.00825402,-0.0110568,-0.822779,0.0111882,0.0398676,657,1072,-18.7337,-1.26551
-560,-48,-18.8124,1.27734,-0.00135455,0.000100293,-0.0072997,0.00670873,-0.00796298,-0.83506,0.00848103,0.0403946,664,1072,-18.8124,-1.2774
-553,-48,-19.0629,1.43982,-0.000263022,0.00100723,-0.00428933,0.0047082,-0.003964,-0.858899,0.00501304,0.0415447,671,1072,-19.0629,-1.4398
-546,-48,-19.093,1.21924,0.00116647,0.00194161,-0.000697831,0.00235227,0.000755804,-1.03889,0.00138669,0.0397023,678,1072,-19.0929,-1.21925
-539,-48,-19.0999,1.34607,0.00282071,0.0027099,0.002367,0.00513296,0.000397652,0.773696,0.00329742,0.0410507,685,1072,-19.0999,-1.34603
-532,-48,-19.1008,1.45764,0.00380749,0.00271962,0.00165932,0.00500976,0.00151735,0.627016,0.00296636,0.0419624,692,1072,-19.1008,-1.45769
-525,-48,0,0,0,0,0,0,0,0,0,-1,699,1072,0,0
-518,-48,0,0,0,0,0,0,0,0,0,-1,706,1072,0,0
-511,-48,0,0,0,0,0,0,0,0,0,-1,713,1072,0,0
-504,-48,0,0,0,0,0,0,0,0,0,-1,720,1072,0,0
-497,-48,0,0,0,0,0,0,0,0,0,-1,727,1072,0,0
-490,-48,0,0,0,0,0,0,0,0,0,-1,734,1072,0,0
-483,-48,0,0,0,0,0,0,0,0,0,-1,741,1072,0,0
-476,-48,0,0,0,0,0,0,0,0,0,-1,748,1072,0,0
-469,-48,0,0,0,0,0,0,0,0,0,-1,755,1072,0,0
-462,-48,0,0,0,0,0,0,0,0,0,-1,762,1072,0,0
-455,-48,0,0,0,0,0,0,0,0,0,-1,769,1072,0,0
-448,-48,0,0,0,0,0,0,0,0,0,-1,776,1072,0,0
-441,-48,0,0,0,0,0,0,0,0,0,-1,783,1072,0,0
-434,-48,0,0,0,0,0,0,0,0,0,-1,790,1072,0,0
-427,-48,0,0,0,0,0,0,0,0,0,-1,797,1072,0,0
-420,-48,0,0,0,0,0,0,0,0,0,-1,804,1072,0,0
-413,-48,0,0,0,0,0,0,0,0,0,-1,811,1072,0,0
-406,-48,0,0,0,0,0,0,0,0,0,-1,818,1072,0,0
-399,-48,0,0,0,0,0,0,0,0,0,-1,825,1072,0,0
-392,-48,0,0,0,0,0,0,0,0,0,-1,832,1072,0,0
-385,-48,0,0,0,0,0,0,0,0,0,-1,839,1072,0,0
-378,-48,0,0,0,0,0,0,0,0,0,-1,846,1072,0,0
-371,-48,0,0,0,0,0,0,0,0,0,-1,853,1072,0,0
-364,-48,0,0,0,0,0,0,0,0,0,-1,860,1072,0,0
-357,-48,0,0,0,0,0,0,0,0,0,-1,867,1072,0,0
-350,-48,0,0,0,0,0,0,0,0,0,-1,874,1072,0,0
-343,-48,0,0,0,0,0,0,0,0,0,-1,881,1072,0,0
-336,-48,0,0,0,0,0,0,0,0,0,-1,888,1072,0,0
-329,-48,0,0,0,0,0,0,0,0,0,-1,895,1072,0,0
-322,-48,0,0,0,0,0,0,0,0,0,-1,902,1072,0,0
-315,-48,0,0,0,0,0,0,0,0,0,-1,909,1072,0,0
-308,-48,0,0,0,0,0,0,0,0,0,-1,916,1072,0,0
-301,-48,0,0,0,0,0,0,0,0,0,-1,923,1072,0,0
-294,-48,0,0,0,0,0,0,0,0,0,-1,930,1072,0,0
-287,-48,0,0,0,0,0,0,0,0,0,-1,937,1072,0,0
-280,-48,0,0,0,0,0,0,0,0,0,-1,944,1072,0,0
-273,-48,0,0,0,0,0,0,0,0,0,-1,951,1072,0,0
-266,-48,0,0,0,0,0,0,0,0,0,-1,958,1072,0,0
-259,-48,0,0,0,0,0,0,0,0,0,-1,965,1072,0,0
-252,-48,0,0,0,0,0,0,0,0,0,-1,972,1072,0,0
-245,-48,0,0,0,0,0,0,0,0,0,-1,979,1072,0,0
-238,-48,0,0,0,0,0,0,0,0,0,-1,986,1072,0,0
-231,-48,0,0,0,0,0,0,0,0,0,-1,993,1072,0,0
-224,-48,0,0,0,0,0,0,0,0,0,-1,1000,1072,0,0
-217,-48,0,0,0,0,0,0,0,0,0,-1,1007,1072,0,0
-210,-48,0,0,0,0,0,0,0,0,0,-1,1014,1072,0,0
-203,-48,0,0,0,0,0,0,0,0,0,-1,1021,1072,0,0
-196,-48,0,0,0,0,0,0,0,0,0,-1,1028,1072,0,0
-189,-48,0,0,0,0,0,0,0,0,0,-1,1035,1072,0,0
-182,-48,0,0,0,0,0,0,0,0,0,-1,1042,1072,0,0
-175,-48,0,0,0,0,0,0,0,0,0,-1,1049,1072,0,0
-168,-48,0,0,0,0,0,0,0,0,0,-1,1056,1072,0,0
-161,-48,0,0,0,0,0,0,0,0,0,-1,1063,1072,0,0
-154,-48,0,0,0,0,0,0,0,0,0,-1,1070,1072,0,0
-147,-48,0,0,0,0,0,0,0,0,0,-1,1077,1072,0,0
-140,-48,0,0,0,0,0,0,0,0,0,-1,1084,1072,0,0
-133,-48,0,0,0,0,0,0,0,0,0,-1,1091,1072,0,0
-126,-48,0,0,0,0,0,0,0,0,0,-1,1098,1072,0,0
-119,-48,0,0,0,0,0,0,0,0,0,-1,1105,1072,0,0
-112,-48,0,0,0,0,0,0,0,0,0,-1,1112,1072,0,0
-105,-48,0,0,0,0,0,0,0,0,0,-1,1119,1072,0,0
-98,-48,0,0,0,0,0,0,0,0,0,-1,1126,1072,0,0
-91,-48,0,0,0,0,0,0,0,0,0,-1,1133,1072,0,0
-84,-48,0,0,0,0,0,0,0,0,0,-1,1140,1072,0,0
-77,-48,0,0,0,0,0,0,0,0,0,-1,1147,1072,0,0
-70,-48,0,0,0,0,0,0,0,0,0,-1,1154,1072,0,0
-63,-48,0,0,0,0,0,0,0,0,0,-1,1161,1072,0,0
-56,-48,0,0,0,0,0,0,0,0,0,-1,1168,1072,0,0
-49,-48,0,0,0,0,0,0,0,0,0,-1,1175,1072,0,0
-42,-48,0,0,0,0,0,0,0,0,0,-1,1182,1072,0,0
-35,-48,0,0,0,0,0,0,0,0,0,-1,1189,1072,0,0
-28,-48,0,0,0,0,0,0,0,0,0,-1,1196,1072,0,0
-21,-48,0,0,0,0,0,0,0,0,0,-1,1203,1072,0,0
-14,-48,0,0,0,0,0,0,0,0,0,-1,1210,1072,0,0
-7,-48,0,0,0,0,0,0,0,0,0,-1,1217,1072,0,0
0,-48,0,0,0,0,0,0,0,0,0,-1,1224,1072,0,0
7,-48,0,0,0,0,0,0,0,0,0,-1,1231,1072,0,0
14,-48,0,0,0,0,0,0,0,0,0,-1,1238,1072,0,0
21,-48,0,0,0,0,0,0,0,0,0,-1,1245,1072,0,0
28,-48,0,0,0,0,0,0,0,0,0,-1,1252,1072,0,0
35,-48,0,0,0,0,0,0,0,0,0,-1,1259,1072,0,0
42,-48,0,0,0,0,0,0,0,0,0,-1,1266,1072,0,0
49,-48,0,0,0,0,0,0,0,0,0,-1,1273,1072,0,0
56,-48,0,0,0,0,0,0,0,0,0,-1,1280,1072,0,0
63,-48,0,0,0,0,0,0,0,0,0,-1,1287,1072,0,0
70,-48,0,0,0,0,0,0,0,0,0,-1,1294,1072,0,0
77,-48,0,0,0,0,0,0,0,0,0,-1,1301,1072,0,0
84,-48,0,0,0,0,0,0,0,0,0,-1,1308,1072,0,0
91,-48,0,0,0,0,0,0,0,0,0,-1,1315,1072,0,0
98,-48,0,0,0,0,0,0,0,0,0,-1,1322,1072,0,0
105,-48,0,0,0,0,0,0,0,0,0,-1,1329,1072,0,0
112,-48,0,0,0,0,0,0,0,0,0,-1,1336,1072,0,0
119,-48,0,0,0,0,0,0,0,0,0,-1,1343,1072,0,0
126,-48,0,0,0,0,0,0,0,0,0,-1,1350,1072,0,0
133,-48,0,0,0,0,0,0,0,0,0,-1,1357,1072,0,0
140,-48,0,0,0,0,0,0,0,0,0,-1,1364,1072,0,0
147,-48,0,0,0,0,0,0,0,0,0,-1,1371,1072,0,0
154,-48,0,0,0,0,0,0,0,0,0,-1,1378,1072,0,0
161,-48,0,0,0,0,0,0,0,0,0,-1,1385,1072,0,0
168,-48,0,0,0,0,0,0,0,0,0,-1,1392,1072,0,0
175,-48,0,0,0,0,0,0,0,0,0,-1,1399,1072,0,0
182,-48,0,0,0,0,0,0,0,0,0,-1,1406,1072,0,0
189,-48,0,0,0,0,0,0,0,0,0,-1,1413,1072,0,0
196,-48,0,0,0,0,0,0,0,0,0,-1,1420,1072,0,0
203,-48,0,0,0,0,0,0,0,0,0,-1,1427,1072,0,0
210,-48,0,0,0,0,0,0,0,0,0,-1,1434,1072,0,0
217,-48,0,0,0,0,0,0,0,0,0,-1,1441,1072,0,0
224,-48,0,0,0,0,0,0,0,0,0,-1,1448,1072,0,0
231,-48,0,0,0,0,0,0,0,0,0,-1,1455,1072,0,0
238,-48,0,0,0,0,0,0,0,0,0,-1,1462,1072,0,0
245,-48,0,0,0,0,0,0,0,0,0,-1,1469,1072,0,0
252,-48,0,0,0,0,0,0,0,0,0,-1,1476,1072,0,0
259,-48,0,0,0,0,0,0,0,0,0,-1,1483,1072,0,0
266,-48,0,0,0,0,0,0,0,0,0,-1,1490,1072,0,0
273,-48,0,0,0,0,0,0,0,0,0,-1,1497,1072,0,0
280,-48,0,0,0,0,0,0,0,0,0,-1,1504,1072,0,0
287,-48,0,0,0,0,0,0,0,0,0,-1,1511,1072,0,0
294,-48,0,0,0,0,0,0,0,0,0,-1,1518,1072,0,0
301,-48,0,0,0,0,0,0,0,0,0,-1,1525,1072,0,0
308,-48,0,0,0,0,0,0,0,0,0,-1,1532,1072,0,0
315,-48,0,0,0,0,0,0,0,0,0,-1,1539,1072,0,0
322,-48,0,0,0,0,0,0,0,0,0,-1,1546,1072,0,0
329,-48,0,0,0,0,0,0,0,0,0,-1,1553,1072,0,0
336,-48,0,0,0,0,0,0,0,0,0,-1,1560,1072,0,0
343,-48,0,0,0,0,0,0,0,0,0,-1,1567,1072,0,0
350,-48,0,0,0,0,0,0,0,0,0,-1,1574,1072,0,0
357,-48,0,0,0,0,0,0,0,0,0,-1,1581,1072,0,0
364,-48,0,0,0,0,0,0,0,0,0,-1,1588,1072,0,0
371,-48,0,0,0,0,0,0,0,0,0,-1,1595,1072,0,0
378,-48,0,0,0,0,0,0,0,0,0,-1,1602,1072,0,0
385,-48,0,0,0,0,0,0,0,0,0,-1,1609,1072,0,0
392,-48,0,0,0,0,0,0,0,0,0,-1,1616,1072,0,0
399,-48,0,0,0,0,0,0,0,0,0,-1,1623,1072,0,0
406,-48,0,0,0,0,0,0,0,0,0,-1,1630,1072,0,0
413,-48,0,0,0,0,0,0,0,0,0,-1,1637,1072,0,0
420,-48,0,0,0,0,0,0,0,0,0,-1,1644,1072,0,0
427,-48,0,0,0,0,0,0,0,0,0,-1,1651,1072,0,0
434,-48,0,0,0,0,0,0,0,0,0,-1,1658,1072,0,0
441,-48,0,0,0,0,0,0,0,0,0,-1,1665,1072,0,0
448,-48,0,0,0,0,0,0,0,0,0,-1,1672,1072,0,0
455,-48,0,0,0,0,0,0,0,0,0,-1,1679,1072,0,0
462,-48,0,0,0,0,0,0,0,0,0,-1,1686,1072,0,0
469,-48,0,0,0,0,0,0,0,0,0,-1,1693,1072,0,0
476,-48,0,0,0,0,0,0,0,0,0,-1,1700,1072,0,0
483,-48,0,0,0,0,0,0,0,0,0,-1,1707,1072,0,0
490,-48,0,0,0,0,0,0,0,0,0,-1,1714,1072,0,0
497,-48,0,0,0,0,0,0,0,0,0,-1,1721,1072,0,0
504,-48,0,0,0,0,0,0,0,0,0,-1,1728,1072,0,0
511,-48,0,0,0,0,0,0,0,0,0,-1,1735,1072,0,0
518,-48,0,0,0,0,0,0,0,0,0,-1,1742,1072,0,0
525,-48,0,0,0,0,0,0,0,0,0,-1,1749,1072,0,0
532,-48,0,0,0,0,0,0,0,0,0,-1,1756,1072,0,0
539,-48,0,0,0,0,0,0,0,0,0,-1,1763,1072,0,0
546,-48,0,0,0,0,0,0,0,0,0,-1,1770,1072,0,0
553,-48,0,0,0,0,0,0,0,0,0,-1,1777,1072,0,0
560,-48,0,0,0,0,0,0,0,0,0,-1,1784,1072,0,0
567,-48,0,0,0,0,0,0,0,0,0,-1,1791,1072,0,0
574,-48,0,0,0,0,0,0,0,0,0,-1,1798,1072,0,0
581,-48,0,0,0,0,0,0,0,0,0,-1,1805,1072,0,0
588,-48,0,0,0,0,0,0,0,0,0,-1,1812,1072,0,0
595,-48,0,0,0,0,0,0,0,0,0,-1,1819,1072,0,0
602,-48,0,0,0,0,0,0,0,0,0,-1,1826,1072,0,0
609,-48,0,0,0,0,0,0,0,0,0,-1,1833,1072,0,0
616,-48,0,0,0,0,0,0,0,0,0,-1,1840,1072,0,0
623,-48,0,0,0,0,0,0,0,0,0,-1,1847,1072,0,0
630,-48,0,0,0,0,0,0,0,0,0,-1,1854,1072,0,0
637,-48,0,0,0,0,0,0,0,0,0,-1,1861,1072,0,0
644,-48,0,0,0,0,0,0,0,0,0,-1,1868,1072,0,0
651,-48,27.5073,3.2467,0.0121795,0.00115312,-0.00123333,0.0123158,0.00101686,-0.11004,0.00789345,0.0339595,1875,1072,27.5074,-3.24668
658,-48,27.7015,3.37463,0.00877636,0.00111954,-0.000967169,0.00889664,0.000999265,-0.123726,0.00562765,0.0375099,1882,1072,27.7015,-3.37461
665,-48,27.4923,3.43591,0.0062681,0.00111051,-0.000804382,0.00639064,0.000987972,-0.151179,0.00397227,0.0417203,1889,1072,27.4923,-3.43589
672,-48,27.296,3.23938,0.00454042,0.000914395,-0.000397969,0.00458359,0.00087123,-0.10804,0.00281069,0.0382496,1896,1072,27.296,-3.23936
679,-48,27.2981,3.24988,0.00305782,0.000545565,0.000217902,0.00307658,0.000526805,0.0858808,0.00189995,0.0378348,1903,1072,27.2982,-3.24983
686,-48,27.2139,3.27161,0.00183842,7.07203e-05,0.000862336,0.00218941,-0.000280263,0.386539,0.00156143,0.0404601,1910,1072,27.2139,-3.2716
693,-48,27.329,3.27319,0.000967676,-0.000403169,0.00144243,0.00187925,-0.00131475,0.563598,0.00185363,0.0408042,1917,1072,27.329,-3.27319
700,-48,27.4905,3.48047,0.000325961,-0.000761951,0.00191196,0.00176984,-0.00220583,0.646809,0.00229995,0.0344628,1924,1072,27.4905,-3.48047
707,-48,27.5028,3.36487,-0.000539463,-0.000989272,0.00231642,0.00156294,-0.00309168,0.737004,0.00273523,0.0306316,1931,1072,27.5028,-3.36488
714,-48,27.4645,3.4165,-0.00108889,-0.00110578,0.00257379,0.00147647,-0.00367114,0.783758,0.00306069,0.0326284,1938,1072,27.4645,-3.41649
721,-48,27.469,3.54663,0,0,0,0,0,0,0,-1,1945,1072,27.4689,-3.54666
728,-48,26.9877,5.26831,0,0,0,0,0,0,0,-1,1952,1072,26.9876,-5.26831
735,-48,26.921,5.24524,-0.00206544,-0.000585474,0.00262459,0.00140146,-0.00405237,0.922802,0.00327041,0.016774,1959,1072,26.921,-5.24527
742,-48,26.8522,5.20215,-0.00215829,-9.66973e-05,0.00255609,0.00162861,-0.0038836,0.97706,0.00327004,0.0139756,1966,1072,26.8522,-5.20217
749,-48,26.8584,5.11926,-0.00223013,0.000459272,0.00252312,0.00197366,-0.00374451,1.03023,0.00335374,0.0127025,1973,1072,26.8584,-5.11928
756,-48,26.8501,5.04797,-0.00196636,0.00113025,0.0023623,0.00240643,-0.00324254,1.07549,0.00327332,0.0116712,1980,1072,26.8501,-5.04803
763,-48,26.8307,4.98523,-0.00112233,0.0018102,0.00201753,0.00283799,-0.00215013,1.09963,0.00288901,0.0116272,1987,1072,26.8307,-4.98521
770,-48,26.8362,4.90747,4.36203e-05,0.00265999,0.00172138,0.00351386,-0.000810255,1.11032,0.00265421,0.0122859,1994,1072,26.8362,-4.90751
777,-48,26.7842,4.83411,0.00208397,0.00319986,0.00178152,0.00450876,0.000775066,0.937153,0.00278369,0.010571,2001,1072,26.7842,-4.83414
784,-48,26.7399,4.7229,0.00463037,0.00328457,0.00211228,0.00617434,0.0017406,0.631198,0.00367605,0.0219527,2008,1072,26.7398,-4.72292
791,-48,26.7024,4.59619,0.00805225,0.00274907,0.0026275,0.00913358,0.00166774,0.390417,0.00561629,0.0403262,2015,1072,26.7024,-4.59614
798,-48,26.6785,4.49902,0.013008,0.00138597,0.00321984,0.0138404,0.000553542,0.252991,0.00904806,0.045971,2022,1072,26.6784,-4.49904
805,-48,26.6592,4.36047,0,0,0,0,0,0,0,-1,2029,1072,26.6593,-4.36043
812,-48,26.6575,4.20154,0,0,0,0,0,0,0,-1,2036,1072,26.6574,-4.20151
-700,-55,-13.7544,-1.396,0,0,0,0,0,0,0,-1,524,1079,-13.7544,1.39605
-693,-55,-19.5263,3.21887,0,0,0,0,0,0,0,-1,531,1079,-19.5263,-3.21885
-686,-55,-15.1422,-0.954468,0,0,0,0,0,0,0,-1,538,1079,-15.1422,0.95451
-679,-55,-15.6783,-0.487061,0,0,0,0,0,0,0,-1,545,1079,-15.6783,0.487028
-672,-55,-16.5318,0.0753174,-0.0491892,0.0228104,-0.0282135,0.0325489,-0.0589277,-1.23843,0.053541,0.0497623,552,1079,-16.5318,-0.0753294
-665,-55,-18.3458,0.99646,-0.0387106,0.016973,-0.0193322,0.0230266,-0.0447642,-1.26733,0.0398041,0.0465957,559,1079,-18.3459,-0.996494
-658,-55,-18.6175,1.30969,-0.0293711,0.0125341,-0.0126186,0.0160405,-0.0328774,-1.29976,0.028795,0.045703,566,1079,-18.6175,-1.30975
-651,-55,-18.6313,1.71143,-0.0213983,0.00915506,-0.00776162,0.0110137,-0.0232569,-1.33576,0.0202027,0.0361235,573,1079,-18.6314,-1.71144
-644,-55,-18.6233,2.10779,-0.0153508,0.00657859,-0.00453577,0.00747972,-0.0162519,-1.37468,0.01401,0.0171958,580,1079,-18.6233,-2.10774
-637,-55,-18.6431,2.21851,-0.0102862,0.00334472,-0.00320679,0.00406146,-0.0110029,-1.3509,0.00899996,0.0145835,587,1079,-18.6431,-2.21849
-630,-55,-18.625,2.33948,-0.00663413,0.00148706,-0.00360068,0.00285356,-0.00800062,-1.20808,0.00649728,0.0172283,594,1079,-18.625,-2.33944
-623,-55,-18.6384,2.46997,-0.00419812,0.000231104,-0.00446953,0.0030046,-0.00697162,-1.01541,0.00590962,0.0152913,601,1079,-18.6384,-2.46992
-616,-55,-18.6425,2.57141,-0.00274331,-0.00021488,-0.00678948,0.00542708,-0.00838527,-0.877445,0.0080353,0.0135145,608,1079,-18.6425,-2.57141
-609,-55,-18.6327,2.69727,-0.00287105,-0.00111625,-0.00918315,0.00723132,-0.0112186,-0.833026,0.0107347,0.0135015,615,1079,-18.6327,-2.69727
-602,-55,-18.6356,2.80188,-0.00349544,-0.00170071,-0.0109554,0.008394,-0.0135902,-0.826262,0.0128102,0.0130935,622,1079,-18.6356,-2.80185
-595,-55,-18.6121,2.92371,-0.00397757,-0.00216678,-0.0119667,0.00892876,-0.0150731,-0.823156,0.014008,0.0186318,629,1079,-18.6121,-2.9237
-588,-55,-18.6843,2.16187,-0.00406464,-0.00236289,-0.0124072,0.00922262,-0.0156502,-0.819634,0.0145193,0.0364652,636,1079,-18.6843,-2.16186
-581,-55,-18.8193,1.34949,0,0,0,0,0,0,0,-1,643,1079,-18.8193,-1.3495
-574,-55,-18.9752,1.66565,-0.00347762,-0.0020653,-0.0115039,0.00875414,-0.0142971,-0.816052,0.0134363,0.0377552,650,1079,-18.9752,-1.66564
-567,-55,-18.8835,1.52686,-0.00278816,-0.00157317,-0.00992327,0.00776118,-0.0121225,-0.81597,0.0115715,0.0363598,657,1079,-18.8835,-1.52688
-560,-55,-19.0461,1.49121,-0.00168914,-0.000865987,-0.00753767,0.00627134,-0.00882647,-0.812672,0.00875823,0.0404805,664,1079,-19.0461,-1.49116
-553,-55,-19.1301,1.80969,0,0,0,0,0,0,0,-1,671,1079,-19.13,-1.80964
-546,-55,-19.0398,1.17249,0.00184409,0.000962318,-0.000632235,0.00217399,0.000632425,-0.480926,0.00129122,0.0415484,678,1079,-19.0398,-1.1725
-539,-55,-19.0327,1.32629,0.00417286,0.0018493,0.00275943,0.00600511,1.70537e-05,0.586151,0.00399773,0.040146,685,1079,-19.0327,-1.32627
-532,-55,-19.046,1.45032,0.00564879,0.00194822,0.00249936,0.00690822,0.000688787,0.466765,0.00439392,0.0393125,692,1079,-19.046,-1.45029
-525,-55,0,0,0,0,0,0,0,0,0,-1,699,1079,0,0
-518,-55,0,0,0,0,0,0,0,0,0,-1,706,1079,0,0
-511,-55,0,0,0,0,0,0,0,0,0,-1,713,1079,0,0
-504,-55,0,0,0,0,0,0,0,0,0,-1,720,1079,0,0
-497,-55,0,0,0,0,0,0,0,0,0,-1,727,1079,0,0
-490,-55,0,0,0,0,0,0,0,0,0,-1,734,1079,0,0
-483,-55,0,0,0,0,0,0,0,0,0,-1,741,1079,0,0
-476,-55,0,0,0,0,0,0,0,0,0,-1,748,1079,0,0
-469,-55,0,0,0,0,0,0,0,0,0,-1,755,1079,0,0
-462,-55,0,0,0,0,0,0,0,0,0,-1,762,1079,0,0
-455,-55,0,0,0,0,0,0,0,0,0,-1,769,1079,0,0
-448,-55,0,0,0,0,0,0,0,0,0,-1,776,1079,0,0
-441,-55,0,0,0,0,0,0,0,0,0,-1,783,1079,0,0
-434,-55,0,0,0,0,0,0,0,0,0,-1,790,1079,0,0
-427,-55,0,0,0,0,0,0,0,0,0,-1,797,1079,0,0
-420,-55,0,0,0,0,0,0,0,0,0,-1,804,1079,0,0
-413,-55,0,0,0,0,0,0,0,0,0,-1,811,1079,0,0
-406,-55,0,0,0,0,0,0,0,0,0,-1,818,1079,0,0
-399,-55,0,0,0,0,0,0,0,0,0,-1,825,1079,0,0
-392,-55,0,0,0,0,0,0,0,0,0,-1,832,1079,0,0
-385,-55,0,0,0,0,0,0,0,0,0,-1,839,1079,0,0
-378,-55,0,0,0,0,0,0,0,0,0,-1,846,1079,0,0
-371,-55,0,0,0,0,0,0,0,0,0,-1,853,1079,0,0
-364,-55,0,0,0,0,0,0,0,0,0,-1,860,1079,0,0
-357,-55,0,0,0,0,0,0,0,0,0,-1,867,1079,0,0
-350,-55,0,0,0,0,0,0,0,0,0,-1,874,1079,0,0
-343,-55,0,0,0,0,0,0,0,0,0,-1,881,1079,0,0
-336,-55,0,0,0,0,0,0,0,0,0,-1,888,1079,0,0
-329,-55,0,0,0,0,0,0,0,0,0,-1,895,1079,0,0
-322,-55,0,0,0,0,0,0,0,0,0,-1,902,1079,0,0
-315,-55,0,0,0,0,0,0,0,0,0,-1,909,1079,0,0
-308,-55,0,0,0,0,0,0,0,0,0,-1,916,1079,0,0
-301,-55,0,0,0,0,0,0,0,0,0,-1,923,1079,0,0
-294,-55,0,0,0,0,0,0,0,0,0,-1,930,1079,0,0
-287,-55,0,0,0,0,0,0,0,0,0,-1,937,1079,0,0
-280,-55,0,0,0,0,0,0,0,0,0,-1,944,1079,0,0
-273,-55,0,0,0,0,0,0,0,0,0,-1,951,1079,0,0
-266,-55,0,0,0,0,0,0,0,0,0,-1,958,1079,0,0
-259,-55,0,0,0,0,0,0,0,0,0,-1,965,1079,0,0
-252,-55,0,0,0,0,0,0,0,0,0,-1,972,1079,0,0
-245,-55,0,0,0,0,0,0,0,0,0,-1,979,1079,0,0
-238,-55,0,0,0,0,0,0,0,0,0,-1,986,1079,0,0
-231,-55,0,0,0,0,0,0,0,0,0,-1,993,1079,0,0
-224,-55,0,0,0,0,0,0,0,0,0,-1,1000,1079,0,0
-217,-55,0,0,0,0,0,0,0,0,0,-1,1007,1079,0,0
-210,-55,0,0,0,0,0,0,0,0,0,-1,1014,1079,0,0
-203,-55,0,0,0,0,0,0,0,0,0,-1,1021,1079,0,0
-196,-55,0,0,0,0,0,0,0,0,0,-1,1028,1079,0,0
-189,-55,0,0,0,0,0,0,0,0,0,-1,1035,1079,0,0
-182,-55,0,0,0,0,0,0,0,0,0,-1,1042,1079,0,0
-175,-55,0,0,0,0,0,0,0,0,0,-1,1049,1079,0,0
-168,-55,0,0,0,0,0,0,0,0,0,-1,1056,1079,0,0
-161,-55,0,0,0,0,0,0,0,0,0,-1,1063,1079,0,0
-154,-55,0,0,0,0,0,0,0,0,0,-1,1070,1079,0,0
-147,-55,0,0,0,0,0,0,0,0,0,-1,1077,1079,0,0
-140,-55,0,0,0,0,0,0,0,0,0,-1,1084,1079,0,0
-133,-55,0,0,0,0,0,0,0,0,0,-1,1091,1079,0,0
-126,-55,0,0,0,0,0,0,0,0,0,-1,1098,1079,0,0
-119,-55,0,0,0,0,0,0,0,0,0,-1,1105,1079,0,0
-112,-55,0,0,0,0,0,0,0,0,0,-1,1112,1079,0,0
-105,-55,0,0,0,0,0,0,0,0,0,-1,1119,1079,0,0
-98,-55,0,0,0,0,0,0,0,0,0,-1,1126,1079,0,0
-91,-55,0,0,0,0,0,0,0,0,0,-1,1133,1079,0,0
-84,-55,0,0,0,0,0,0,0,0,0,-1,1140,1079,0,0
-77,-55,0,0,0,0,0,0,0,0,0,-1,1147,1079,0,0
-70,-55,0,0,0,0,0,0,0,0,0,-1,1154,1079,0,0
-63,-55,0,0,0,0,0,0,0,0,0,-1,1161,1079,0,0
-56,-55,0,0,0,0,0,0,0,0,0,-1,1168,1079,0,0
-49,-55,0,0,0,0,0,0,0,0,0,-1,1175,1079,0,0
-42,-55,0,0,0,0,0,0,0,0,0,-1,1182,1079,0,0
-35,-55,0,0,0,0,0,0,0,0,0,-1,1189,1079,0,0
-28,-55,0,0,0,0,0,0,0,0,0,-1,1196,1079,0,0
-21,-55,0,0,0,0,0,0,0,0,0,-1,1203,1079,0,0
-14,-55,0,0,0,0,0,0,0,0,0,-1,1210,1079,0,0
-7,-55,0,0,0,0,0,0,0,0,0,-1,1217,1079,0,0
0,-55,0,0,0,0,0,0,0,0,0,-1,1224,1079,0,0
7,-55,0,0,0,0,0,0,0,0,0,-1,1231,1079,0,0
14,-55,0,0,0,0,0,0,0,0,0,-1,1238,1079,0,0
21,-55,0,0,0,0,0,0,0,0,0,-1,1245,1079,0,0
28,-55,0,0,0,0,0,0,0,0,0,-1,1252,1079,0,0
35,-55,0,0,0,0,0,0,0,0,0,-1,1259,1079,0,0
42,-55,0,0,0,0,0,0,0,0,0,-1,1266,1079,0,0
49,-55,0,0,0,0,0,0,0,0,0,-1,1273,1079,0,0
56,-55,0,0,0,0,0,0,0,0,0,-1,1280,1079,0,0
63,-55,0,0,0,0,0,0,0,0,0,-1,1287,1079,0,0
70,-55,0,0,0,0,0,0,0,0,0,-1,1294,1079,0,0
77,-55,0,0,0,0,0,0,0,0,0,-1,1301,1079,0,0
84,-55,0,0,0,0,0,0,0,0,0,-1,1308,1079,0,0
91,-55,0,0,0,0,0,0,0,0,0,-1,1315,1079,0,0
98,-55,0,0,0,0,0,0,0,0,0,-1,1322,1079,0,0
105,-55,0,0,0,0,0,0,0,0,0,-1,1329,1079,0,0
112,-55,0,0,0,0,0,0,0,0,0,-1,1336,1079,0,0
119,-55,0,0,0,0,0,0,0,0,0,-1,1343,1079,0,0
126,-55,0,0,0,0,0,0,0,0,0,-1,1350,1079,0,0
133,-55,0,0,0,0,0,0,0,0,0,-1,1357,1079,0,0
140,-55,0,0,0,0,0,0,0,0,0,-1,1364,1079,0,0
147,-55,0,0,0,0,0,0,0,0,0,-1,1371,1079,0,0
154,-55,0,0,0,0,0,0,0,0,0,-1,1378,1079,0,0
161,-55,0,0,0,0,0,0,0,0,0,-1,1385,1079,0,0
168,-55,0,0,0,0,0,0,0,0,0,-1,1392,1079,0,0
175,-55,0,0,0,0,0,0,0,0,0,-1,1399,1079,0,0
182,-55,0,0,0,0,0,0,0,0,0,-1,1406,1079,0,0
189,-55,0,0,0,0,0,0,0,0,0,-1,1413,1079,0,0
196,-55,0,0,0,0,0,0,0,0,0,-1,1420,1079,0,0
203,-55,0,0,0,0,0,0,0,0,0,-1,1427,1079,0,0
210,-55,0,0,0,0,0,0,0,0,0,-1,1434,1079,0,0
217,-55,0,0,0,0,0,0,0,0,0,-1,1441,1079,0,0
224,-55,0,0,0,0,0,0,0,0,0,-1,1448,1079,0,0
231,-55,0,0,0,0,0,0,0,0,0,-1,1455,1079,0,0
238,-55,0,0,0,0,0,0,0,0,0,-1,1462,1079,0,0
245,-55,0,0,0,0,0,0,0,0,0,-1,1469,1079,0,0
252,-55,0,0,0,0,0,0,0,0,0,-1,1476,1079,0,0
259,-55,0,0,0,0,0,0,0,0,0,-1,1483,1079,0,0
266,-55,0,0,0,0,0,0,0,0,0,-1,1490,1079,0,0
273,-55,0,0,0,0,0,0,0,0,0,-1,1497,1079,0,0
280,-55,0,0,0,0,0,0,0,0,0,-1,1504,1079,0,0
287,-55,0,0,0,0,0,0,0,0,0,-1,1511,1079,0,0
294,-55,0,0,0,0,0,0,0,0,0,-1,1518,1079,0,0
301,-55,0,0,0,0,0,0,0,0,0,-1,1525,1079,0,0
308,-55,0,0,0,0,0,0,0,0,0,-1,1532,1079,0,0
315,-55,0,0,0,0,0,0,0,0,0,-1,1539,1079,0,0
322,-55,0,0,0,0,0,0,0,0,0,-1,1546,1079,0,0
329,-55,0,0,0,0,0,0,0,0,0,-1,1553,1079,0,0
336,-55,0,0,0,0,0,0,0,0,0,-1,1560,1079,0,0
343,-55,0,0,0,0,0,0,0,0,0,-1,1567,1079,0,0
350,-55,0,0,0,0,0,0,0,0,0,-1,1574,1079,0,0
357,-55,0,0,0,0,0,0,0,0,0,-1,1581,1079,0,0
364,-55,0,0,0,0,0,0,0,0,0,-1,1588,1079,0,0
371,-55,0,0,0,0,0,0,0,0,0,-1,1595,1079,0,0
378,-55,0,0,0,0,0,0,0,0,0,-1,1602,1079,0,0
385,-55,0,0,0,0,0,0,0,0,0,-1,1609,1079,0,0
392,-55,0,0,0,0,0,0,0,0,0,-1,1616,1079,0,0
399,-55,0,0,0,0,0,0,0,0,0,-1,1623,1079,0,0
406,-55,0,0,0,0,0,0,0,0,0,-1,1630,1079,0,0
413,-55,0,0,0,0,0,0,0,0,0,-1,1637,1079,0,0
420,-55,0,0,0,0,0,0,0,0,0,-1,1644,1079,0,0
427,-55,0,0,0,0,0,0,0,0,0,-1,1651,1079,0,0
434,-55,0,0,0,0,0,0,0,0,0,-1,1658,1079,0,0
441,-55,0,0,0,0,0,0,0,0,0,-1,1665,1079,0,0
448,-55,0,0,0,0,0,0,0,0,0,-1,1672,1079,0,0
455,-55,0,0,0,0,0,0,0,0,0,-1,1679,1079,0,0
462,-55,0,0,0,0,0,0,0,0,0,-1,1686,1079,0,0
469,-55,0,0,0,0,0,0,0,0,0,-1,1693,1079,0,0
476,-55,0,0,0,0,0,0,0,0,0,-1,1700,1079,0,0
483,-55,0,0,0,0,0,0,0,0,0,-1,1707,1079,0,0
490,-55,0,0,0,0,0,0,0,0,0,-1,1714,1079,0,0
497,-55,0,0,0,0,0,0,0,0,0,-1,1721,1079,0,0
504,-55,0,0,0,0,0,0,0,0,0,-1,1728,1079,0,0
511,-55,0,0,0,0,0,0,0,0,0,-1,1735,1079,0,0
518,-55,0,0,0,0,0,0,0,0,0,-1,1742,1079,0,0
525,-55,0,0,0,0,0,0,0,0,0,-1,1749,1079,0,0
532,-55,0,0,0,0,0,0,0,0,0,-1,1756,1079,0,0
539,-55,0,0,0,0,0,0,0,0,0,-1,1763,1079,0,0
546,-55,0,0,0,0,0,0,0,0,0,-1,1770,1079,0,0
553,-55,0,0,0,0,0,0,0,0,0,-1,1777,1079,0,0
560,-55,0,0,0,0,0,0,0,0,0,-1,1784,1079,0,0
567,-55,0,0,0,0,0,0,0,0,0,-1,1791,1079,0,0
574,-55,0,0,0,0,0,0,0,0,0,-1,1798,1079,0,0
581,-55,0,0,0,0,0,0,0,0,0,-1,1805,1079,0,0
588,-55,0,0,0,0,0,0,0,0,0,-1,1812,1079,0,0
595,-55,0,0,0,0,0,0,0,0,0,-1,1819,1079,0,0
602,-55,0,0,0,0,0,0,0,0,0,-1,1826,1079,0,0
609,-55,0,0,0,0,0,0,0,0,0,-1,1833,1079,0,0
616,-55,0,0,0,0,0,0,0,0,0,-1,1840,1079,0,0
623,-55,0,0,0,0,0,0,0,0,0,-1,1847,1079,0,0
630,-55,0,0,0,0,0,0,0,0,0,-1,1854,1079,0,0
637,-55,0,0,0,0,0,0,0,0,0,-1,1861,1079,0,0
644,-55,0,0,0,0,0,0,0,0,0,-1,1868,1079,0,0
651,-55,27.3556,3.29224,0.0120833,0.000443531,-0.00115888,0.0121976,0.000329271,-0.0982766,0.00802421,0.0360961,1875,1079,27.3556,-3.29229
658,-55,27.5576,3.31104,0.0089735,0.000561632,-0.000977022,0.00908549,0.000449644,-0.114124,0.00591281,0.0356766,1882,1079,27.5577,-3.31105
665,-55,27.4353,3.31653,0.00663779,0.000699366,-0.000876206,0.00676438,0.000572781,-0.143476,0.0043313,0.0400133,1889,1079,27.4353,-3.31651
672,-55,27.2744,3.27148,0.00490676,0.00059356,-0.0004296,0.00494913,0.000551187,-0.0983142,0.0031319,0.0376279,1896,1079,27.2744,-3.27149
679,-55,27.3051,3.2616,0.00334115,0.000340532,0.00020629,0.00335527,0.000326416,0.0683209,0.00213637,0.0376526,1903,1079,27.305,-3.26156
686,-55,27.3929,3.19763,0.0020009,-3.34675e-05,0.000860551,0.00231609,-0.000348654,0.351088,0.00167243,0.0421336,1910,1079,27.393,-3.19766
693,-55,27.5493,3.19128,0.00101219,-0.000420831,0.00143813,0.00190241,-0.00131106,0.554286,0.00186574,0.0428789,1917,1079,27.5493,-3.19134
700,-55,27.5229,3.3877,0.000270254,-0.000711607,0.00189312,0.00173506,-0.00217642,0.658531,0.00226308,0.0343587,1924,1079,27.5229,-3.38773
707,-55,27.4591,3.27454,-0.000648805,-0.000891581,0.0022891,0.00152212,-0.0030625,0.758909,0.00269628,0.0303478,1931,1079,27.4592,-3.27449
714,-55,27.4729,3.3667,-0.00124494,-0.000985233,0.00254032,0.00142856,-0.00365873,0.810934,0.00302976,0.0403337,1938,1079,27.4729,-3.36674
721,-55,27.5293,3.49634,0,0,0,0,0,0,0,-1,1945,1079,27.5293,-3.49638
728,-55,26.8708,5.33435,0,0,0,0,0,0,0,-1,1952,1079,26.8709,-5.33439
735,-55,26.8081,5.26367,-0.00227471,-0.000463728,0.00255638,0.00134279,-0.00408122,0.955608,0.00326188,0.0169924,1959,1079,26.8081,-5.26371
742,-55,26.7955,5.2085,-0.00236807,-5.28753e-06,0.00250042,0.00157878,-0.00395214,1.00609,0.00328982,0.0166514,1966,1079,26.7955,-5.20846
749,-55,26.8037,5.11316,-0.00236942,0.000473051,0.00248867,0.00191771,-0.00381409,1.04484,0.00336909,0.0121366,1973,1079,26.8037,-5.11311
756,-55,26.7517,5.03015,-0.00197124,0.00106195,0.00239031,0.00237619,-0.00328548,1.06809,0.00328279,0.0104546,1980,1079,26.7517,-5.0301
763,-55,26.7441,4.97632,-0.000957557,0.00165123,0.00222316,0.00292442,-0.00223074,1.0507,0.0029853,0.0139146,1987,1079,26.7441,-4.97636
770,-55,26.7736,4.88403,0.000419808,0.00238414,0.0021113,0.00373055,-0.000926595,1.00311,0.00284662,0.0153493,1994,1079,26.7736,-4.88401
777,-55,26.7312,4.80188,0.00270829,0.00274373,0.00255207,0.00527814,0.000173883,0.78887,0.00346225,0.0120667,2001,1079,26.7312,-4.8019
784,-55,26.6715,4.73523,0.00559819,0.00267316,0.00334513,0.00778654,0.000484806,0.579315,0.00503721,0.027144,2008,1079,26.6715,-4.73519
791,-55,26.4642,4.54041,0.00952607,0.00197706,0.00452645,0.0116453,-0.000142127,0.437868,0.00781132,0.0395008,2015,1079,26.4643,-4.54045
798,-55,26.3621,4.50403,0.015263,0.000439328,0.00610095,0.017451,-0.00174867,0.344344,0.0122586,0.0429102,2022,1079,26.3621,-4.50397
805,-55,26.5881,4.29761,0,0,0,0,0,0,0,-1,2029,1079,26.5882,-4.29761
812,-55,26.8142,4.03894,0,0,0,0,0,0,0,-1,2036,1079,26.8142,-4.03893
-700,-62,-17.841,2.94519,-0.0852063,0.0656319,-0.101867,0.11696,-0.136534,-1.10405,0.1465,0.044999,524,1086,-17.841,-2.94515
-693,-62,-17.9794,3.0791,-0.0774308,0.0488635,-0.0786018,0.086542,-0.115109,-1.1238,0.116812,0.0462925,531,1086,-17.9795,-3.07916
-686,-62,-17.0723,2.51245,0,0,0,0,0,0,0,-1,538,1086,-17.0723,-2.51241
-679,-62,-17.4348,2.14221,-0.0558895,0.0269695,-0.0443068,0.0461988,-0.0751188,-1.16132,0.070703,0.0496426,545,1086,-17.4347,-2.14221
-672,-62,-17.8535,1.5116,-0.0450926,0.0198271,-0.0320381,0.0329752,-0.0582407,-1.18137,0.0533327,0.047115,552,1086,-17.8534,-1.51155
-665,-62,-18.154,1.349,-0.0351605,0.0144578,-0.0223776,0.023059,-0.0437617,-1.20384,0.0391913,0.0460541,559,1086,-18.154,-1.34897
-658,-62,-18.58,1.62805,-0.0264374,0.0104572,-0.0149751,0.0157703,-0.0317505,-1.22986,0.0279484,0.0499096,566,1086,-18.58,-1.62799
-651,-62,-18.527,1.86951,-0.0190728,0.00748088,-0.00951991,0.0105412,-0.0221332,-1.25976,0.0192562,0.0404837,573,1086,-18.527,-1.86945
-644,-62,-18.5082,2.06714,-0.0135858,0.00526344,-0.00573188,0.0068696,-0.0151919,-1.29759,0.0130358,0.0135643,580,1086,-18.5082,-2.06719
-637,-62,-18.5224,2.21045,-0.00909965,0.00232023,-0.00397166,0.00356568,-0.0103451,-1.26692,0.00834326,0.0115052,587,1086,-18.5224,-2.21041
-630,-62,-18.5282,2.33081,-0.00603238,0.000738016,-0.00399668,0.00259047,-0.00788484,-1.13677,0.00630015,0.0130305,594,1086,-18.5282,-2.33075
-623,-62,-18.5229,2.46936,-0.00399518,-0.000389331,-0.00459312,0.00274204,-0.00712655,-0.972422,0.00588209,0.0142131,601,1086,-18.5229,-2.46932
-616,-62,-18.5262,2.60718,-0.00289302,-0.000657772,-0.00675834,0.00507474,-0.00862553,-0.867341,0.00799791,0.0138303,608,1086,-18.5262,-2.6072
-609,-62,-18.5061,2.73328,-0.00354819,-0.00152219,-0.00916889,0.00668949,-0.0117599,-0.840416,0.010785,0.0136331,615,1086,-18.5061,-2.73327
-602,-62,-18.4755,2.85071,-0.00436496,-0.00211132,-0.0109922,0.00781165,-0.0142879,-0.836475,0.0129405,0.0144397,622,1086,-18.4755,-2.8507
-595,-62,-18.4237,2.98376,-0.00487009,-0.0026218,-0.0120266,0.00833303,-0.0158249,-0.831999,0.0141694,0.0206696,629,1086,-18.4237,-2.98382
-588,-62,-18.5916,2.42578,-0.00498944,-0.00291295,-0.0125275,0.00861929,-0.0165217,-0.826742,0.0147522,0.0344155,636,1086,-18.5916,-2.42576
-581,-62,-18.9977,1.70325,-0.0047306,-0.00296154,-0.0124318,0.00861719,-0.0163093,-0.820913,0.014618,0.0394374,643,1086,-18.9977,-1.70326
-574,-62,-18.9939,1.53857,-0.00428373,-0.00278663,-0.0117195,0.00820824,-0.0152786,-0.817291,0.0137634,0.0343039,650,1086,-18.9939,-1.53863
-567,-62,-18.9879,1.45422,-0.00343527,-0.00238352,-0.0102037,0.00730783,-0.0131266,-0.811144,0.0119562,0.0375079,657,1086,-18.9879,-1.45421
-560,-62,-19.1296,1.46533,-0.00210539,-0.00174595,-0.00787425,0.00595063,-0.00980197,-0.796808,0.00918493,0.0398461,664,1086,-19.1296,-1.46537
-553,-62,-19.0621,1.49353,-0.000284802,-0.000909997,-0.00478826,0.00420105,-0.00539585,-0.752802,0.00555507,0.037242,671,1086,-19.0621,-1.49356
-546,-62,-18.965,1.30579,0.00207941,7.11868e-05,-0.00100595,0.00249663,-0.000346032,-0.393157,0.00179094,0.0323777,678,1086,-18.965,-1.30574
-539,-62,-19.0135,1.35583,0.0048132,0.00107436,0.00251159,0.00607472,-0.00018717,0.465471,0.00411362,0.037469,685,1086,-19.0135,-1.35578
-532,-62,-18.9786,1.4856,0.00643594,0.00128055,0.00252319,0.00746532,0.000251166,0.387356,0.0048953,0.0383055,692,1086,-18.9786,-1.48559
-525,-62,0,0,0,0,0,0,0,0,0,-1,699,1086,0,0
-518,-62,0,0,0,0,0,0,0,0,0,-1,706,1086,0,0
-511,-62,0,0,0,0,0,0,0,0,0,-1,713,1086,0,0
-504,-62,0,0,0,0,0,0,0,0,0,-1,720,1086,0,0
-497,-62,0,0,0,0,0,0,0,0,0,-1,727,1086,0,0
-490,-62,0,0,0,0,0,0,0,0,0,-1,734,1086,0,0
-483,-62,0,0,0,0,0,0,0,0,0,-1,741,1086,0,0
-476,-62,0,0,0,0,0,0,0,0,0,-1,748,1086,0,0
-469,-62,0,0,0,0,0,0,0,0,0,-1,755,1086,0,0
-462,-62,0,0,0,0,0,0,0,0,0,-1,762,1086,0,0
-455,-62,0,0,0,0,0,0,0,0,0,-1,769,1086,0,0
-448,-62,0,0,0,0,0,0,0,0,0,-1,776,1086,0,0
-441,-62,0,0,0,0,0,0,0,0,0,-1,783,1086,0,0
-434,-62,0,0,0,0,0,0,0,0,0,-1,790,1086,0,0
-427,-62,0,0,0,0,0,0,0,0,0,-1,797,1086,0,0
-420,-62,0,0,0,0,0,0,0,0,0,-1,804,1086,0,0
-413,-62,0,0,0,0,0,0,0,0,0,-1,811,1086,0,0
-406,-62,0,0,0,0,0,0,0,0,0,-1,818,1086,0,0
-399,-62,0,0,0,0,0,0,0,0,0,-1,825,1086,0,0
-392,-62,0,0,0,0,0,0,0,0,0,-1,832,1086,0,0
-385,-62,0,0,0,0,0,0,0,0,0,-1,839,1086,0,0
-378,-62,0,0,0,0,0,0,0,0,0,-1,846,1086,0,0
-371,-62,0,0,0,0,0,0,0,0,0,-1,853,1086,0,0
-364,-62,0,0,0,0,0,0,0,0,0,-1,860,1086,0,0
-357,-62,0,0,0,0,0,0,0,0,0,-1,867,1086,0,0
-350,-62,0,0,0,0,0,0,0,0,0,-1,874,1086,0,0
-343,-62,0,0,0,0,0,0,0,0,0,-1,881,1086,0,0
-336,-62,0,0,0,0,0,0,0,0,0,-1,888,1086,0,0
-329,-62,0,0,0,0,0,0,0,0,0,-1,895,1086,0,0
-322,-62,0,0,0,0,0,0,0,0,0,-1,902,1086,0,0
-315,-62,0,0,0,0,0,0,0,0,0,-1,909,1086,0,0
-308,-62,0,0,0,0,0,0,0,0,0,-1,916,1086,0,0
-301,-62,0,0,0,0,0,0,0,0,0,-1,923,1086,0,0
-294,-62,0,0,0,0,0,0,0,0,0,-1,930,1086,0,0
-287,-62,0,0,0,0,0,0,0,0,0,-1,937,1086,0,0
-280,-62,0,0,0,0,0,0,0,0,0,-1,944,1086,0,0
-273,-62,0,0,0,0,0,0,0,0,0,-1,951,1086,0,0
-266,-62,0,0,0,0,0,0,0,0,0,-1,958,1086,0,0
-259,-62,0,0,0,0,0,0,0,0,0,-1,965,1086,0,0
-252,-62,0,0,0,0,0,0,0,0,0,-1,972,1086,0,0
-245,-62,0,0,0,0,0,0,0,0,0,-1,979,1086,0,0
-238,-62,0,0,0,0,0,0,0,0,0,-1,986,1086,0,0
-231,-62,0,0,0,0,0,0,0,0,0,-1,993,1086,0,0
-224,-62,0,0,0,0,0,0,0,0,0,-1,1000,1086,0,0
-217,-62,0,0,0,0,0,0,0,0,0,-1,1007,1086,0,0
-210,-62,0,0,0,0,0,0,0,0,0,-1,1014,1086,0,0
-203,-62,0,0,0,0,0,0,0,0,0,-1,1021,1086,0,0
-196,-62,0,0,0,0,0,0,0,0,0,-1,1028,1086,0,0
-189,-62,0,0,0,0,0,0,0,0,0,-1,1035,1086,0,0
-182,-62,0,0,0,0,0,0,0,0,0,-1,1042,1086,0,0
-175,-62,0,0,0,0,0,0,0,0,0,-1,1049,1086,0,0
-168,-62,0,0,0,0,0,0,0,0,0,-1,1056,1086,0,0
-161,-62,0,0,0,0,0,0,0,0,0,-1,1063,1086,0,0
-154,-62,0,0,0,0,0,0,0,0,0,-1,1070,1086,0,0
-147,-62,0,0,0,0,0,0,0,0,0,-1,1077,1086,0,0
-140,-62,0,0,0,0,0,0,0,0,0,-1,1084,1086,0,0
-133,-62,0,0,0,0,0,0,0,0,0,-1,1091,1086,0,0
-126,-62,0,0,0,0,0,0,0,0,0,-1,1098,1086,0,0
-119,-62,0,0,0,0,0,0,0,0,0,-1,1105,1086,0,0
-112,-62,0,0,0,0,0,0,0,0,0,-1,1112,1086,0,0
-105,-62,0,0,0,0,0,0,0,0,0,-1,1119,1086,0,0
-98,-62,0,0,0,0,0,0,0,0,0,-1,1126,1086,0,0
-91,-62,0,0,0,0,0,0,0,0,0,-1,1133,1086,0,0
-84,-62,0,0,0,0,0,0,0,0,0,-1,1140,1086,0,0
-77,-62,0,0,0,0,0,0,0,0,0,-1,1147,1086,0,0
-70,-62,0,0,0,0,0,0,0,0,0,-1,1154,1086,0,0
-63,-62,0,0,0,0,0,0,0,0,0,-1,1161,1086,0,0
-56,-62,0,0,0,0,0,0,0,0,0,-1,1168,1086,0,0
-49,-62,0,0,0,0,0,0,0,0,0,-1,1175,1086,0,0
-42,-62,0,0,0,0,0,0,0,0,0,-1,1182,1086,0,0
-35,-62,0,0,0,0,0,0,0,0,0,-1,1189,1086,0,0
-28,-62,0,0,0,0,0,0,0,0,0,-1,1196,1086,0,0
-21,-62,0,0,0,0,0,0,0,0,0,-1,1203,1086,0,0
-14,-62,0,0,0,0,0,0,0,0,0,-1,1210,1086,0,0
-7,-62,0,0,0,0,0,0,0,0,0,-1,1217,1086,0,0
0,-62,0,0,0,0,0,0,0,0,0,-1,1224,1086,0,0
7,-62,0,0,0,0,0,0,0,0,0,-1,1231,1086,0,0
14,-62,0,0,0,0,0,0,0,0,0,-1,1238,1086,0,0
21,-62,0,0,0,0,0,0,0,0,0,-1,1245,1086,0,0
28,-62,0,0,0,0,0,0,0,0,0,-1,1252,1086,0,0
35,-62,0,0,0,0,0,0,0,0,0,-1,1259,1086,0,0
42,-62,0,0,0,0,0,0,0,0,0,-1,1266,1086,0,0
49,-62,0,0,0,0,0,0,0,0,0,-1,1273,1086,0,0
56,-62,0,0,0,0,0,0,0,0,0,-1,1280,1086,0,0
63,-62,0,0,0,0,0,0,0,0,0,-1,1287,1086,0,0
70,-62,0,0,0,0,0,0,0,0,0,-1,1294,1086,0,0
77,-62,0,0,0,0,0,0,0,0,0,-1,1301,1086,0,0
84,-62,0,0,0,0,0,0,0,0,0,-1,1308,1086,0,0
91,-62,0,0,0,0,0,0,0,0,0,-1,1315,1086,0,0
98,-62,0,0,0,0,0,0,0,0,0,-1,1322,1086,0,0
105,-62,0,0,0,0,0,0,0,0,0,-1,1329,1086,0,0
112,-62,0,0,0,0,0,0,0,0,0,-1,1336,1086,0,0
119,-62,0,0,0,0,0,0,0,0,0,-1,1343,1086,0,0
126,-62,0,0,0,0,0,0,0,0,0,-1,1350,1086,0,0
133,-62,0,0,0,0,0,0,0,0,0,-1,1357,1086,0,0
140,-62,0,0,0,0,0,0,0,0,0,-1,1364,1086,0,0
147,-62,0,0,0,0,0,0,0,0,0,-1,1371,1086,0,0
154,-62,0,0,0,0,0,0,0,0,0,-1,1378,1086,0,0
161,-62,0,0,0,0,0,0,0,0,0,-1,1385,1086,0,0
168,-62,0,0,0,0,0,0,0,0,0,-1,1392,1086,0,0
175,-62,0,0,0,0,0,0,0,0,0,-1,1399,1086,0,0
182,-62,0,0,0,0,0,0,0,0,0,-1,1406,1086,0,0
189,-62,0,0,0,0,0,0,0,0,0,-1,1413,1086,0,0
196,-62,0,0,0,0,0,0,0,0,0,-1,1420,1086,0,0
203,-62,0,0,0,0,0,0,0,0,0,-1,1427,1086,0,0
210,-62,0,0,0,0,0,0,0,0,0,-1,1434,1086,0,0
217,-62,0,0,0,0,0,0,0,0,0,-1,1441,1086,0,0
224,-62,0,0,0,0,0,0,0,0,0,-1,1448,1086,0,0
231,-62,0,0,0,0,0,0,0,0,0,-1,1455,1086,0,0
238,-62,0,0,0,0,0,0,0,0,0,-1,1462,1086,0,0
245,-62,0,0,0,0,0,0,0,0,0,-1,1469,1086,0,0
252,-62,0,0,0,0,0,0,0,0,0,-1,1476,1086,0,0
259,-62,0,0,0,0,0,0,0,0,0,-1,1483,1086,0,0
266,-62,0,0,0,0,0,0,0,0,0,-1,1490,1086,0,0
273,-62,0,0,0,0,0,0,0,0,0,-1,1497,1086,0,0
280,-62,0,0,0,0,0,0,0,0,0,-1,1504,1086,0,0
287,-62,0,0,0,0,0,0,0,0,0,-1,1511,1086,0,0
294,-62,0,0,0,0,0,0,0,0,0,-1,1518,1086,0,0
301,-62,0,0,0,0,0,0,0,0,0,-1,1525,1086,0,0
308,-62,0,0,0,0,0,0,0,0,0,-1,1532,1086,0,0
315,-62,0,0,0,0,0,0,0,0,0,-1,1539,1086,0,0
322,-62,0,0,0,0,0,0,0,0,0,-1,1546,1086,0,0
329,-62,0,0,0,0,0,0,0,0,0,-1,1553,1086,0,0
336,-62,0,0,0,0,0,0,0,0,0,-1,1560,1086,0,0
343,-62,0,0,0,0,0,0,0,0,0,-1,1567,1086,0,0
350,-62,0,0,0,0,0,0,0,0,0,-1,1574,1086,0,0
357,-62,0,0,0,0,0,0,0,0,0,-1,1581,1086,0,0
364,-62,0,0,0,0,0,0,0,0,0,-1,1588,1086,0,0
371,-62,0,0,0,0,0,0,0,0,0,-1,1595,1086,0,0
378,-62,0,0,0,0,0,0,0,0,0,-1,1602,1086,0,0
385,-62,0,0,0,0,0,0,0,0,0,-1,1609,1086,0,0
392,-62,0,0,0,0,0,0,0,0,0,-1,1616,1086,0,0
399,-62,0,0,0,0,0,0,0,0,0,-1,1623,1086,0,0
406,-62,0,0,0,0,0,0,0,0,0,-1,1630,1086,0,0
413,-62,0,0,0,0,0,0,0,0,0,-1,1637,1086,0,0
420,-62,0,0,0,0,0,0,0,0,0,-1,1644,1086,0,0
427,-62,0,0,0,0,0,0,0,0,0,-1,1651,1086,0,0
434,-62,0,0,0,0,0,0,0,0,0,-1,1658,1086,0,0
441,-62,0,0,0,0,0,0,0,0,0,-1,1665,1086,0,0
448,-62,0,0,0,0,0,0,0,0,0,-1,1672,1086,0,0
455,-62,0,0,0,0,0,0,0,0,0,-1,1679,1086,0,0
462,-62,0,0,0,0,0,0,0,0,0,-1,1686,1086,0,0
469,-62,0,0,0,0,0,0,0,0,0,-1,1693,1086,0,0
476,-62,0,0,0,0,0,0,0,0,0,-1,1700,1086,0,0
483,-62,0,0,0,0,0,0,0,0,0,-1,1707,1086,0,0
490,-62,0,0,0,0,0,0,0,0,0,-1,1714,1086,0,0
497,-62,0,0,0,0,0,0,0,0,0,-1,1721,1086,0,0
504,-62,0,0,0,0,0,0,0,0,0,-1,1728,1086,0,0
511,-62,0,0,0,0,0,0,0,0,0,-1,1735,1086,0,0
518,-62,0,0,0,0,0,0,0,0,0,-1,1742,1086,0,0
525,-62,0,0,0,0,0,0,0,0,0,-1,1749,1086,0,0
532,-62,0,0,0,0,0,0,0,0,0,-1,1756,1086,0,0
539,-62,0,0,0,0,0,0,0,0,0,-1,1763,1086,0,0
546,-62,0,0,0,0,0,0,0,0,0,-1,1770,1086,0,0
553,-62,0,0,0,0,0,0,0,0,0,-1,1777,1086,0,0
560,-62,0,0,0,0,0,0,0,0,0,-1,1784,1086,0,0
567,-62,0,0,0,0,0,0,0,0,0,-1,1791,1086,0,0
574,-62,0,0,0,0,0,0,0,0,0,-1,1798,1086,0,0
581,-62,0,0,0,0,0,0,0,0,0,-1,1805,1086,0,0
588,-62,0,0,0,0,0,0,0,0,0,-1,1812,1086,0,0
595,-62,0,0,0,0,0,0,0,0,0,-1,1819,1086,0,0
602,-62,0,0,0,0,0,0,0,0,0,-1,1826,1086,0,0
609,-62,0,0,0,0,0,0,0,0,0,-1,1833,1086,0,0
616,-62,0,0,0,0,0,0,0,0,0,-1,1840,1086,0,0
623,-62,0,0,0,0,0,0,0,0,0,-1,1847,1086,0,0
630,-62,0,0,0,0,0,0,0,0,0,-1,1854,1086,0,0
637,-62,0,0,0,0,0,0,0,0,0,-1,1861,1086,0,0
644,-62,0,0,0,0,0,0,0,0,0,-1,1868,1086,0,0
651,-62,27.3805,3.21167,0.0115857,-0.000576586,-0.00122412,0.0117077,-0.000698568,-0.0993214,0.00804811,0.041004,1875,1086,27.3805,-3.21169
658,-62,27.5754,3.10376,0.00887182,-0.000421669,-0.00105755,0.00899065,-0.000540494,-0.111889,0.00618181,0.0420027,1882,1086,27.5754,-3.10375
665,-62,27.5566,3.14905,0.00678704,-0.000212416,-0.000982713,0.00692239,-0.00034777,-0.136874,0.00473511,0.0404031,1889,1086,27.5567,-3.14908
672,-62,27.3433,3.32849,0.00507564,-0.00026847,-0.000450686,0.00511338,-0.000306211,-0.0835469,0.00351544,0.0366696,1896,1086,27.3432,-3.32844
679,-62,27.4156,3.34363,0.00341914,-0.000439498,0.000277109,0.00343894,-0.000459297,0.0713275,0.00246006,0.0378351,1903,1086,27.4157,-3.34365
686,-62,27.496,3.28369,0.00194531,-0.000714883,0.00100794,0.00228407,-0.00105365,0.324234,0.0019702,0.0408327,1910,1086,27.496,-3.28367
693,-62,27.5023,3.32886,0.000826786,-0.000995213,0.00163421,0.00178677,-0.00195519,0.531124,0.00216115,0.0386166,1917,1086,27.5024,-3.32892
700,-62,27.4633,3.34766,-2.79686e-05,-0.00118937,0.00211173,0.00158145,-0.00279879,0.651221,0.00256128,0.0316949,1924,1086,27.4633,-3.34761
707,-62,27.3851,3.224,-0.000999887,-0.00127999,0.00251826,0.00138221,-0.00366208,0.75762,0.00300985,0.0264677,1931,1086,27.3852,-3.224
714,-62,27.463,3.27673,-0.00163945,-0.00129455,0.00277286,0.00131122,-0.00424522,0.816454,0.00335378,0.0339114,1938,1086,27.463,-3.27669
721,-62,27.6494,3.54541,0,0,0,0,0,0,0,-1,1945,1086,27.6494,-3.54545
728,-62,26.7538,5.39783,0,0,0,0,0,0,0,-1,1952,1086,26.7538,-5.39787
735,-62,26.7269,5.27222,-0.00268935,-0.000589241,0.00271114,0.00126809,-0.00454668,0.970158,0.00353056,0.0176846,1959,1086,26.7269,-5.27219
742,-62,26.7047,5.21912,-0.00275206,-8.54204e-05,0.00263611,0.00153538,-0.00437285,1.01953,0.00353982,0.015738,1966,1086,26.7048,-5.21907
749,-62,26.6808,5.11304,-0.00264525,0.00039115,0.00256026,0.0018495,-0.0041036,1.05302,0.0035182,0.0134404,1973,1086,26.6808,-5.11298
756,-62,26.6354,5.05212,-0.00207173,0.000957502,0.00237857,0.00226275,-0.00337698,1.06891,0.00327722,0.0129347,1980,1086,26.6354,-5.05208
763,-62,26.641,4.97485,-0.000860767,0.00149845,0.00213245,0.00275581,-0.00211812,1.03804,0.00282198,0.0139299,1987,1086,26.641,-4.97491
770,-62,26.6608,4.86304,0.000720906,0.00216245,0.00186403,0.00344021,-0.000556855,0.969881,0.00249985,0.0122212,1994,1086,26.6608,-4.86299
777,-62,26.618,4.729,0.00316394,0.00238359,0.00219149,0.00499972,0.000547812,0.697301,0.00316638,0.0135634,2001,1086,26.6181,-4.72906
784,-62,26.5776,4.62939,0.00620449,0.0022031,0.00281983,0.00766128,0.000746306,0.476859,0.00487782,0.0265757,2008,1086,26.5776,-4.62945
791,-62,26.3969,4.72766,0.0102676,0.00142302,0.00379065,0.0116699,2.07354e-05,0.354321,0.00777301,0.0431327,2015,1086,26.3969,-4.7277
798,-62,26.0354,4.56213,0.016117,-0.00014767,0.00511111,0.0175898,-0.00162045,0.280553,0.0123023,0.0448163,2022,1086,26.0355,-4.56214
805,-62,25.7756,4.72058,0.0243171,-0.00272255,0.00686108,0.0259584,-0.00436386,0.234808,0.0189287,0.0436941,2029,1086,25.7756,-4.72057
812,-62,25.5813,4.84546,0,0,0,0,0,0,0,-1,2036,1086,25.5813,-4.84552
-700,-69,-16.1892,3.05627,-0.0779943,0.0585716,-0.10807,0.118123,-0.137546,-1.06715,0.147752,0.0438158,524,1093,-16.1892,-3.05627
-693,-69,-16.0621,3.07532,-0.0707171,0.0426285,-0.0836268,0.0869767,-0.115065,-1.08319,0.117024,0.0435017,531,1093,-16.0622,-3.07531
-686,-69,-15.9703,2.52136,-0.0608761,0.0310402,-0.0636852,0.0636184,-0.0934543,-1.09795,0.0912297,0.0442013,538,1093,-15.9703,-2.52131
-679,-69,-16.4952,2.1543,-0.0504551,0.0224214,-0.0475491,0.0458886,-0.0739223,-1.11233,0.0698012,0.0454046,545,1093,-16.4952,-2.15429
-672,-69,-17.3763,1.20813,0,0,0,0,0,0,0,-1,552,1093,-17.3764,-1.2081
-665,-69,-17.7224,1.08911,0,0,0,0,0,0,0,-1,559,1093,-17.7223,-1.0891
-658,-69,-18.3395,1.63123,0,0,0,0,0,0,0,-1,566,1093,-18.3395,-1.63123
-651,-69,-18.3579,1.96289,-0.0164134,0.0055097,-0.0105521,0.00976336,-0.0206671,-1.18761,0.017941,0.0366499,573,1093,-18.3579,-1.96295
-644,-69,-18.3517,2.06238,-0.011522,0.00374461,-0.0063885,0.00606521,-0.0138426,-1.22237,0.0117825,0.0105024,580,1093,-18.3518,-2.0624
-637,-69,-18.3763,2.20544,-0.00765035,0.00121503,-0.00433596,0.00298309,-0.0094184,-1.18361,0.00747443,0.0116967,587,1093,-18.3763,-2.20544
-630,-69,-18.3771,2.34277,-0.00517136,-4.21341e-05,-0.00410678,0.00223504,-0.00744854,-1.06451,0.00585468,0.0135211,594,1093,-18.3771,-2.34278
-623,-69,-18.3593,2.47095,-0.00357914,-0.000981977,-0.0045245,0.00242661,-0.00698773,-0.925147,0.005644,0.0127793,601,1093,-18.3593,-2.47095
-616,-69,-18.351,2.58374,-0.00286362,-0.00100139,-0.0065266,0.00466017,-0.00852519,-0.856252,0.00772082,0.0135336,608,1093,-18.351,-2.58373
-609,-69,-18.3431,2.68237,-0.00390242,-0.00175379,-0.00890641,0.00614286,-0.0117991,-0.845419,0.010529,0.0130129,615,1093,-18.3431,-2.68233
-602,-69,-18.3485,2.87659,-0.00492942,-0.0023137,-0.0107623,0.00721993,-0.0144631,-0.845863,0.0127494,0.0166302,622,1093,-18.3485,-2.87653
-595,-69,-18.3057,2.99268,-0.00552208,-0.0028103,-0.0118072,0.00771864,-0.016051,-0.842566,0.0140017,0.0220382,629,1093,-18.3057,-2.99265
-588,-69,-18.5439,2.60413,-0.00566063,-0.00314426,-0.0123445,0.00800602,-0.0168109,-0.836184,0.0146256,0.0318087,636,1093,-18.544,-2.60411
-581,-69,-18.8915,1.88098,-0.00539053,-0.00323718,-0.0122933,0.0080265,-0.0166542,-0.829078,0.0145367,0.0382502,643,1093,-18.8915,-1.88103
-574,-69,-18.978,1.21411,0,0,0,0,0,0,0,-1,650,1093,-18.978,-1.2141
-567,-69,-19.0439,1.43628,-0.00396178,-0.00274548,-0.0102895,0.00695387,-0.0136611,-0.814916,0.0121102,0.0380477,657,1093,-19.044,-1.43624
-560,-69,-19.0698,1.42212,-0.00252329,-0.00217075,-0.00812176,0.00577665,-0.0104707,-0.796248,0.00951001,0.0387821,664,1093,-19.0699,-1.42208
-553,-69,-18.9494,1.39172,-0.000595002,-0.00140856,-0.00523256,0.00424657,-0.00625013,-0.746606,0.00609696,0.0381046,671,1093,-18.9494,-1.39176
-546,-69,-18.8854,1.29468,0.00188046,-0.000509583,-0.00167835,0.00274576,-0.00137489,-0.476024,0.00242255,0.0344251,678,1093,-18.8854,-1.29467
-539,-69,-18.9297,1.2312,0.00470204,0.000401682,0.00168415,0.0052831,-0.00017937,0.332225,0.00358335,0.0391782,685,1093,-18.9297,-1.23121
-532,-69,-18.7868,1.47937,0.00613648,0.00040351,0.00170107,0.00660322,-6.3227e-05,0.267789,0.00442337,0.039353,692,1093,-18.7868,-1.47938
-525,-69,0,0,0,0,0,0,0,0,0,-1,699,1093,0,0
-518,-69,0,0,0,0,0,0,0,0,0,-1,706,1093,0,0
-511,-69,0,0,0,0,0,0,0,0,0,-1,713,1093,0,0
-504,-69,0,0,0,0,0,0,0,0,0,-1,720,1093,0,0
-497,-69,0,0,0,0,0,0,0,0,0,-1,727,1093,0,0
-490,-69,0,0,0,0,0,0,0,0,0,-1,734,1093,0,0
-483,-69,0,0,0,0,0,0,0,0,0,-1,741,1093,0,0
-476,-69,0,0,0,0,0,0,0,0,0,-1,748,1093,0,0
-469,-69,0,0,0,0,0,0,0,0,0,-1,755,1093,0,0
-462,-69,0,0,0,0,0,0,0,0,0,-1,762,1093,0,0
-455,-69,0,0,0,0,0,0,0,0,0,-1,769,1093,0,0
-448,-69,0,0,0,0,0,0,0,0,0,-1,776,1093,0,0
-441,-69,0,0,0,0,0,0,0,0,0,-1,783,1093,0,0
-434,-69,0,0,0,0,0,0,0,0,0,-1,790,1093,0,0
-427,-69,0,0,0,0,0,0,0,0,0,-1,797,1093,0,0
-420,-69,0,0,0,0,0,0,0,0,0,-1,804,1093,0,0
-413,-69,0,0,0,0,0,0,0,0,0,-1,811,1093,0,0
-406,-69,0,0,0,0,0,0,0,0,0,-1,818,1093,0,0
-399,-69,0,0,0,0,0,0,0,0,0,-1,825,1093,0,0
-392,-69,0,0,0,0,0,0,0,0,0,-1,832,1093,0,0
-385,-69,0,0,0,0,0,0,0,0,0,-1,839,1093,0,0
-378,-69,0,0,0,0,0,0,0,0,0,-1,846,1093,0,0
-371,-69,0,0,0,0,0,0,0,0,0,-1,853,1093,0,0
-364,-69,0,0,0,0,0,0,0,0,0,-1,860,1093,0,0
-357,-69,0,0,0,0,0,0,0,0,0,-1,867,1093,0,0
-350,-69,0,0,0,0,0,0,0,0,0,-1,874,1093,0,0
-343,-69,0,0,0,0,0,0,0,0,0,-1,881,1093,0,0
-336,-69,0,0,0,0,0,0,0,0,0,-1,888,1093,0,0
-329,-69,0,0,0,0,0,0,0,0,0,-1,895,1093,0,0
-322,-69,0,0,0,0,0,0,0,0,0,-1,902,1093,0,0
-315,-69,0,0,0,0,0,0,0,0,0,-1,909,1093,0,0
-308,-69,0,0,0,0,0,0,0,0,0,-1,916,1093,0,0
-301,-69,0,0,0,0,0,0,0,0,0,-1,923,1093,0,0
-294,-69,0,0,0,0,0,0,0,0,0,-1,930,1093,0,0
-287,-69,0,0,0,0,0,0,0,0,0,-1,937,1093,0,0
-280,-69,0,0,0,0,0,0,0,0,0,-1,944,1093,0,0
-273,-69,0,0,0,0,0,0,0,0,0,-1,951,1093,0,0
-266,-69,0,0,0,0,0,0,0,0,0,-1,958,1093,0,0
-259,-69,0,0,0,0,0,0,0,0,0,-1,965,1093,0,0
-252,-69,0,0,0,0,0,0,0,0,0,-1,972,1093,0,0
-245,-69,0,0,0,0,0,0,0,0,0,-1,979,1093,0,0
-238,-69,0,0,0,0,0,0,0,0,0,-1,986,1093,0,0
-231,-69,0,0,0,0,0,0,0,0,0,-1,993,1093,0,0
-224,-69,0,0,0,0,0,0,0,0,0,-1,1000,1093,0,0
-217,-69,0,0,0,0,0,0,0,0,0,-1,1007,1093,0,0
-210,-69,0,0,0,0,0,0,0,0,0,-1,1014,1093,0,0
-203,-69,0,0,0,0,0,0,0,0,0,-1,1021,1093,0,0
-196,-69,0,0,0,0,0,0,0,0,0,-1,1028,1093,0,0
-189,-69,0,0,0,0,0,0,0,0,0,-1,1035,1093,0,0
-182,-69,0,0,0,0,0,0,0,0,0,-1,1042,1093,0,0
-175,-69,0,0,0,0,0,0,0,0,0,-1,1049,1093,0,0
-168,-69,0,0,0,0,0,0,0,0,0,-1,1056,1093,0,0
-161,-69,0,0,0,0,0,0,0,0,0,-1,1063,1093,0,0
-154,-69,0,0,0,0,0,0,0,0,0,-1,1070,1093,0,0
-147,-69,0,0,0,0,0,0,0,0,0,-1,1077,1093,0,0
-140,-69,0,0,0,0,0,0,0,0,0,-1,1084,1093,0,0
-133,-69,0,0,0,0,0,0,0,0,0,-1,1091,1093,0,0
-126,-69,0,0,0,0,0,0,0,0,0,-1,1098,1093,0,0
-119,-69,0,0,0,0,0,0,0,0,0,-1,1105,1093,0,0
-112,-69,0,0,0,0,0,0,0,0,0,-1,1112,1093,0,0
-105,-69,0,0,0,0,0,0,0,0,0,-1,1119,1093,0,0
-98,-69,0,0,0,0,0,0,0,0,0,-1,1126,1093,0,0
-91,-69,0,0,0,0,0,0,0,0,0,-1,1133,1093,0,0
-84,-69,0,0,0,0,0,0,0,0,0,-1,1140,1093,0,0
-77,-69,0,0,0,0,0,0,0,0,0,-1,1147,1093,0,0
-70,-69,0,0,0,0,0,0,0,0,0,-1,1154,1093,0,0
-63,-69,0,0,0,0,0,0,0,0,0,-1,1161,1093,0,0
-56,-69,0,0,0,0,0,0,0,0,0,-1,1168,1093,0,0
-49,-69,0,0,0,0,0,0,0,0,0,-1,1175,1093,0,0
-42,-69,0,0,0,0,0,0,0,0,0,-1,1182,1093,0,0
-35,-69,0,0,0,0,0,0,0,0,0,-1,1189,1093,0,0
-28,-69,0,0,0,0,0,0,0,0,0,-1,1196,1093,0,0
-21,-69,0,0,0,0,0,0,0,0,0,-1,1203,1093,0,0
-14,-69,0,0,0,0,0,0,0,0,0,-1,1210,1093,0,0
-7,-69,0,0,0,0,0,0,0,0,0,-1,1217,1093,0,0
0,-69,0,0,0,0,0,0,0,0,0,-1,1224,1093,0,0
7,-69,0,0,0,0,0,0,0,0,0,-1,1231,1093,0,0
14,-69,0,0,0,0,0,0,0,0,0,-1,1238,1093,0,0
21,-69,0,0,0,0,0,0,0,0,0,-1,1245,1093,0,0
28,-69,0,0,0,0,0,0,0,0,0,-1,1252,1093,0,0
35,-69,0,0,0,0,0,0,0,0,0,-1,1259,1093,0,0
42,-69,0,0,0,0,0,0,0,0,0,-1,1266,1093,0,0
49,-69,0,0,0,0,0,0,0,0,0,-1,1273,1093,0,0
56,-69,0,0,0,0,0,0,0,0,0,-1,1280,1093,0,0
63,-69,0,0,0,0,0,0,0,0,0,-1,1287,1093,0,0
70,-69,0,0,0,0,0,0,0,0,0,-1,1294,1093,0,0
77,-69,0,0,0,0,0,0,0,0,0,-1,1301,1093,0,0
84,-69,0,0,0,0,0,0,0,0,0,-1,1308,1093,0,0
91,-69,0,0,0,0,0,0,0,0,0,-1,1315,1093,0,0
98,-69,0,0,0,0,0,0,0,0,0,-1,1322,1093,0,0
105,-69,0,0,0,0,0,0,0,0,0,-1,1329,1093,0,0
112,-69,0,0,0,0,0,0,0,0,0,-1,1336,1093,0,0
119,-69,0,0,0,0,0,0,0,0,0,-1,1343,1093,0,0
126,-69,0,0,0,0,0,0,0,0,0,-1,1350,1093,0,0
133,-69,0,0,0,0,0,0,0,0,0,-1,1357,1093,0,0
140,-69,0,0,0,0,0,0,0,0,0,-1,1364,1093,0,0
147,-69,0,0,0,0,0,0,0,0,0,-1,1371,1093,0,0
154,-69,0,0,0,0,0,0,0,0,0,-1,1378,1093,0,0
161,-69,0,0,0,0,0,0,0,0,0,-1,1385,1093,0,0
168,-69,0,0,0,0,0,0,0,0,0,-1,1392,1093,0,0
175,-69,0,0,0,0,0,0,0,0,0,-1,1399,1093,0,0
182,-69,0,0,0,0,0,0,0,0,0,-1,1406,1093,0,0
189,-69,0,0,0,0,0,0,0,0,0,-1,1413,1093,0,0
196,-69,0,0,0,0,0,0,0,0,0,-1,1420,1093,0,0
203,-69,0,0,0,0,0,0,0,0,0,-1,1427,1093,0,0
210,-69,0,0,0,0,0,0,0,0,0,-1,1434,1093,0,0
217,-69,0,0,0,0,0,0,0,0,0,-1,1441,1093,0,0
224,-69,0,0,0,0,0,0,0,0,0,-1,1448,1093,0,0
231,-69,0,0,0,0,0,0,0,0,0,-1,1455,1093,0,0
238,-69,0,0,0,0,0,0,0,0,0,-1,1462,1093,0,0
245,-69,0,0,0,0,0,0,0,0,0,-1,1469,1093,0,0
252,-69,0,0,0,0,0,0,0,0,0,-1,1476,1093,0,0
259,-69,0,0,0,0,0,0,0,0,0,-1,1483,1093,0,0
266,-69,0,0,0,0,0,0,0,0,0,-1,1490,1093,0,0
273,-69,0,0,0,0,0,0,0,0,0,-1,1497,1093,0,0
280,-69,0,0,0,0,0,0,0,0,0,-1,1504,1093,0,0
287,-69,0,0,0,0,0,0,0,0,0,-1,1511,1093,0,0
294,-69,0,0,0,0,0,0,0,0,0,-1,1518,1093,0,0
301,-69,0,0,0,0,0,0,0,0,0,-1,1525,1093,0,0
308,-69,0,0,0,0,0,0,0,0,0,-1,1532,1093,0,0
315,-69,0,0,0,0,0,0,0,0,0,-1,1539,1093,0,0
322,-69,0,0,0,0,0,0,0,0,0,-1,1546,1093,0,0
329,-69,0,0,0,0,0,0,0,0,0,-1,1553,1093,0,0
336,-69,0,0,0,0,0,0,0,0,0,-1,1560,1093,0,0
343,-69,0,0,0,0,0,0,0,0,0,-1,1567,1093,0,0
350,-69,0,0,0,0,0,0,0,0,0,-1,1574,1093,0,0
357,-69,0,0,0,0,0,0,0,0,0,-1,1581,1093,0,0
364,-69,0,0,0,0,0,0,0,0,0,-1,1588,1093,0,0
371,-69,0,0,0,0,0,0,0,0,0,-1,1595,1093,0,0
378,-69,0,0,0,0,0,0,0,0,0,-1,1602,1093,0,0
385,-69,0,0,0,0,0,0,0,0,0,-1,1609,1093,0,0
392,-69,0,0,0,0,0,0,0,0,0,-1,1616,1093,0,0
399,-69,0,0,0,0,0,0,0,0,0,-1,1623,1093,0,0
406,-69,0,0,0,0,0,0,0,0,0,-1,1630,1093,0,0
413,-69,0,0,0,0,0,0,0,0,0,-1,1637,1093,0,0
420,-69,0,0,0,0,0,0,0,0,0,-1,1644,1093,0,0
427,-69,0,0,0,0,0,0,0,0,0,-1,1651,1093,0,0
434,-69,0,0,0,0,0,0,0,0,0,-1,1658,1093,0,0
441,-69,0,0,0,0,0,0,0,0,0,-1,1665,1093,0,0
448,-69,0,0,0,0,0,0,0,0,0,-1,1672,1093,0,0
455,-69,0,0,0,0,0,0,0,0,0,-1,1679,1093,0,0
462,-69,0,0,0,0,0,0,0,0,0,-1,1686,1093,0,0
469,-69,0,0,0,0,0,0,0,0,0,-1,1693,1093,0,0
476,-69,0,0,0,0,0,0,0,0,0,-1,1700,1093,0,0
483,-69,0,0,0,0,0,0,0,0,0,-1,1707,1093,0,0
490,-69,0,0,0,0,0,0,0,0,0,-1,1714,1093,0,0
497,-69,0,0,0,0,0,0,0,0,0,-1,1721,1093,0,0
504,-69,0,0,0,0,0,0,0,0,0,-1,1728,1093,0,0
511,-69,0,0,0,0,0,0,0,0,0,-1,1735,1093,0,0
518,-69,0,0,0,0,0,0,0,0,0,-1,1742,1093,0,0
525,-69,0,0,0,0,0,0,0,0,0,-1,1749,1093,0,0
532,-69,0,0,0,0,0,0,0,0,0,-1,1756,1093,0,0
539,-69,0,0,0,0,0,0,0,0,0,-1,1763,1093,0,0
546,-69,0,0,0,0,0,0,0,0,0,-1,1770,1093,0,0
553,-69,0,0,0,0,0,0,0,0,0,-1,1777,1093,0,0
560,-69,0,0,0,0,0,0,0,0,0,-1,1784,1093,0,0
567,-69,0,0,0,0,0,0,0,0,0,-1,1791,1093,0,0
574,-69,0,0,0,0,0,0,0,0,0,-1,1798,1093,0,0
581,-69,0,0,0,0,0,0,0,0,0,-1,1805,1093,0,0
588,-69,0,0,0,0,0,0,0,0,0,-1,1812,1093,0,0
595,-69,0,0,0,0,0,0,0,0,0,-1,1819,1093,0,0
602,-69,0,0,0,0,0,0,0,0,0,-1,1826,1093,0,0
609,-69,0,0,0,0,0,0,0,0,0,-1,1833,1093,0,0
616,-69,0,0,0,0,0,0,0,0,0,-1,1840,1093,0,0
623,-69,0,0,0,0,0,0,0,0,0,-1,1847,1093,0,0
630,-69,0,0,0,0,0,0,0,0,0,-1,1854,1093,0,0
637,-69,0,0,0,0,0,0,0,0,0,-1,1861,1093,0,0
644,-69,0,0,0,0,0,0,0,0,0,-1,1868,1093,0,0
651,-69,27.2795,3.28589,0.0105271,-0.00153052,-0.00154802,0.0107227,-0.00172609,-0.12567,0.00778784,0.0396554,1875,1093,27.2796,-3.28591
658,-69,27.4613,3.08545,0.00830413,-0.00126197,-0.00131669,0.00848205,-0.00143989,-0.134314,0.00619073,0.043161,1882,1093,27.4613,-3.08543
665,-69,27.6722,2.79382,0,0,0,0,0,0,0,-1,1889,1093,27.6723,-2.79381
672,-69,27.1995,3.30469,0.00492974,-0.000936383,-0.000546209,0.00498017,-0.000986808,-0.0920579,0.00369326,0.0387651,1896,1093,27.1995,-3.30468
679,-69,27.3741,3.33838,0.00326866,-0.00105771,0.0003077,0.00329044,-0.00107949,0.0706479,0.00262841,0.0385165,1903,1093,27.3741,-3.33838
686,-69,27.4447,3.3689,0.00174546,-0.00127853,0.00114126,0.00212783,-0.00166089,0.323283,0.00219295,0.0380373,1910,1093,27.4447,-3.36893
693,-69,27.4095,3.28113,0.000566297,-0.00150176,0.0018497,0.00165137,-0.00258683,0.530525,0.00246672,0.0332297,1917,1093,27.4095,-3.28112
700,-69,27.428,3.30554,-0.000343322,-0.00164092,0.00237655,0.0014714,-0.00345565,0.652145,0.00292051,0.0283166,1924,1093,27.4279,-3.30556
707,-69,27.397,3.28674,-0.00133149,-0.00167035,0.0028314,0.00133554,-0.00433739,0.755514,0.00342471,0.023743,1931,1093,27.397,-3.28671
714,-69,27.4622,3.31616,-0.00200269,-0.00164046,0.00312434,0.00130801,-0.00495115,0.81435,0.00381232,0.0283384,1938,1093,27.4621,-3.31611
721,-69,27.4739,5.18066,0,0,0,0,0,0,0,-1,1945,1093,27.4738,-5.18072
728,-69,26.8436,5.28784,-0.00265166,-0.00127673,0.00314953,0.00125949,-0.00518788,0.892851,0.003946,0.0403078,1952,1093,26.8437,-5.28786
735,-69,26.5879,5.3501,-0.00299675,-0.000807121,0.00299257,0.00128461,-0.00508848,0.960758,0.00389185,0.0202339,1959,1093,26.5878,-5.35009
742,-69,26.5945,5.24121,-0.00298423,-0.000248433,0.00288628,0.00157769,-0.00481035,1.00669,0.00384232,0.0160627,1966,1093,26.5945,-5.24118
749,-69,26.5129,5.12952,-0.00273423,0.000262737,0.00272067,0.00187029,-0.00434179,1.03712,0.00367995,0.0173479,1973,1093,26.5129,-5.12958
756,-69,26.5477,5.05908,-0.00196498,0.000841852,0.00243302,0.0022472,-0.00337032,1.047,0.00326482,0.0140203,1980,1093,26.5477,-5.05907
763,-69,26.5372,4.95093,-0.000542192,0.00141292,0.0021046,0.00275591,-0.00188518,1.00282,0.00269521,0.0143428,1987,1093,26.5373,-4.95092
770,-69,26.5076,4.85437,0.00124885,0.0020845,0.00170685,0.00342392,-9.05737e-05,0.905434,0.0023134,0.0149585,1994,1093,26.5076,-4.85432
777,-69,26.495,4.71631,0.00381388,0.00229708,0.0019222,0.00512188,0.00098908,0.597499,0.0031373,0.0194937,2001,1093,26.495,-4.71631
784,-69,26.5027,4.57141,0.00693532,0.00215509,0.00245418,0.00797094,0.00111948,0.399311,0.0049829,0.0324641,2008,1093,26.5027,-4.57139
791,-69,26.7344,4.58533,0.0110194,0.0015074,0.0033296,0.0120691,0.000457739,0.30539,0.00789792,0.0472138,2015,1093,26.7344,-4.58534
798,-69,26.9224,4.59778,0,0,0,0,0,0,0,-1,2022,1093,26.9225,-4.59775
805,-69,25.2622,4.59387,0.0247593,-0.00178085,0.00632545,0.0261898,-0.00321132,0.222405,0.0186228,0.0461487,2029,1093,25.2621,-4.59385
812,-69,25.0813,4.69641,0,0,0,0,0,0,0,-1,2036,1093,25.0814,-4.69647
-700,-76,0,0,0,0,0,0,0,0,0,-1,524,1100,0,0
-693,-76,-14.7985,2.90479,0,0,0,0,0,0,0,-1,531,1100,-14.7985,-2.90482
-686,-76,-15.0738,2.50488,-0.0517755,0.0236531,-0.0649972,0.0610854,-0.0892077,-1.04828,0.0872766,0.0470587,538,1100,-15.0738,-2.50487
-679,-76,-15.6746,2.15137,-0.0425356,0.0163776,-0.0486691,0.0438101,-0.0699681,-1.05753,0.066266,0.0479679,545,1100,-15.6746,-2.15138
-672,-76,-16.3425,1.89185,-0.0336011,0.011179,-0.0355238,0.03078,-0.0532022,-1.06659,0.0490598,0.0486651,552,1100,-16.3425,-1.89183
-665,-76,-18.1248,1.8457,0,0,0,0,0,0,0,-1,559,1100,-18.1248,-1.84572
-658,-76,-18.136,1.92786,-0.0185854,0.00501015,-0.0170755,0.0139672,-0.0275424,-1.0877,0.024389,0.048768,566,1100,-18.1361,-1.92782
-651,-76,-18.1373,1.96912,-0.0128677,0.00331411,-0.0110825,0.0089449,-0.0184985,-1.10071,0.0161613,0.0301096,573,1100,-18.1372,-1.96912
-644,-76,-18.1685,2.05212,-0.00878151,0.00213458,-0.0067656,0.00536926,-0.0120162,-1.12482,0.0102791,0.0107206,580,1100,-18.1685,-2.05215
-637,-76,-18.2276,2.16882,-0.00569269,0.000172771,-0.00457112,0.00267107,-0.00819098,-1.07061,0.00653556,0.0133023,587,1100,-18.2276,-2.16885
-630,-76,-18.2157,2.31177,-0.00387611,-0.000698401,-0.00414716,0.00215384,-0.00672835,-0.968333,0.00535004,0.0138623,594,1100,-18.2157,-2.31176
-623,-76,-18.1884,2.4541,-0.00279931,-0.00142841,-0.00441223,0.00235129,-0.00657902,-0.862458,0.00534504,0.0137946,601,1100,-18.1883,-2.45405
-616,-76,-18.1968,2.58337,-0.0025043,-0.00120417,-0.00622327,0.0044029,-0.00811136,-0.837438,0.0073301,0.0126512,608,1100,-18.1968,-2.58334
-609,-76,-18.2148,2.70325,-0.00393816,-0.0018802,-0.00850147,0.00565433,-0.0114727,-0.845623,0.0100767,0.0131275,615,1100,-18.2148,-2.70327
-602,-76,-18.2128,2.88086,-0.00515831,-0.00240276,-0.0102888,0.00660014,-0.0141612,-0.851957,0.0122487,0.0179637,622,1100,-18.2128,-2.88084
-595,-76,-18.1871,2.98645,-0.00582382,-0.00290701,-0.0113113,0.00703956,-0.0157704,-0.849511,0.0134871,0.0225764,629,1100,-18.1871,-2.98644
-588,-76,-18.4196,2.56982,-0.00598901,-0.00327858,-0.0118454,0.00728884,-0.0165564,-0.842355,0.0141094,0.0343417,636,1100,-18.4196,-2.56981
-581,-76,-18.8172,1.66699,-0.00571639,-0.00342001,-0.0118317,0.0073191,-0.0164555,-0.833768,0.0140601,0.0392967,643,1100,-18.8172,-1.66699
-574,-76,-19.123,0.809448,0,0,0,0,0,0,0,-1,650,1100,-19.123,-0.809496
-567,-76,-18.9575,1.49524,-0.00425494,-0.00303714,-0.0100892,0.00646155,-0.0137536,-0.815537,0.0119217,0.0409065,657,1100,-18.9575,-1.49521
-560,-76,-18.9045,1.41138,-0.00280352,-0.00253503,-0.008134,0.00546584,-0.0108044,-0.793649,0.00956068,0.0426584,664,1100,-18.9046,-1.41134
-553,-76,-18.8438,1.34875,-0.000883444,-0.0018623,-0.00551358,0.00416239,-0.00690813,-0.741131,0.00645677,0.045118,671,1100,-18.8438,-1.34871
-546,-76,-18.8218,1.39526,0.00157192,-0.00107029,-0.00227811,0.00288428,-0.00238264,-0.522639,0.00304545,0.0422627,678,1100,-18.8218,-1.39527
-539,-76,-18.8488,1.36707,0.00438854,-0.000290037,0.000843843,0.00453608,-0.000437582,0.173099,0.00317997,0.0418372,685,1100,-18.8487,-1.36701
-532,-76,-18.6685,1.44116,0.00572621,-0.000534185,0.0008373,0.00583626,-0.000644236,0.130686,0.0041224,0.0400325,692,1100,-18.6685,-1.44119
-525,-76,0,0,0,0,0,0,0,0,0,-1,699,1100,0,0
-518,-76,0,0,0,0,0,0,0,0,0,-1,706,1100,0,0
-511,-76,0,0,0,0,0,0,0,0,0,-1,713,1100,0,0
-504,-76,0,0,0,0,0,0,0,0,0,-1,720,1100,0,0
-497,-76,0,0,0,0,0,0,0,0,0,-1,727,1100,0,0
-490,-76,0,0,0,0,0,0,0,0,0,-1,734,1100,0,0
-483,-76,0,0,0,0,0,0,0,0,0,-1,741,1100,0,0
-476,-76,0,0,0,0,0,0,0,0,0,-1,748,1100,0,0
-469,-76,0,0,0,0,0,0,0,0,0,-1,755,1100,0,0
-462,-76,0,0,0,0,0,0,0,0,0,-1,762,1100,0,0
-455,-76,0,0,0,0,0,0,0,0,0,-1,769,1100,0,0
-448,-76,0,0,0,0,0,0,0,0,0,-1,776,1100,0,0
-441,-76,0,0,0,0,0,0,0,0,0,-1,783,1100,0,0
-434,-76,0,0,0,0,0,0,0,0,0,-1,790,1100,0,0
-427,-76,0,0,0,0,0,0,0,0,0,-1,797,1100,0,0
-420,-76,0,0,0,0,0,0,0,0,0,-1,804,1100,0,0
-413,-76,0,0,0,0,0,0,0,0,0,-1,811,1100,0,0
-406,-76,0,0,0,0,0,0,0,0,0,-1,818,1100,0,0
-399,-76,0,0,0,0,0,0,0,0,0,-1,825,1100,0,0
-392,-76,0,0,0,0,0,0,0,0,0,-1,832,1100,0,0
-385,-76,0,0,0,0,0,0,0,0,0,-1,839,1100,0,0
-378,-76,0,0,0,0,0,0,0,0,0,-1,846,1100,0,0
-371,-76,0,0,0,0,0,0,0,0,0,-1,853,1100,0,0
-364,-76,0,0,0,0,0,0,0,0,0,-1,860,1100,0,0
-357,-76,0,0,0,0,0,0,0,0,0,-1,867,1100,0,0
-350,-76,0,0,0,0,0,0,0,0,0,-1,874,1100,0,0
-343,-76,0,0,0,0,0,0,0,0,0,-1,881,1100,0,0
-336,-76,0,0,0,0,0,0,0,0,0,-1,888,1100,0,0
-329,-76,0,0,0,0,0,0,0,0,0,-1,895,1100,0,0
-322,-76,0,0,0,0,0,0,0,0,0,-1,902,1100,0,0
-315,-76,0,0,0,0,0,0,0,0,0,-1,909,1100,0,0
-308,-76,0,0,0,0,0,0,0,0,0,-1,916,1100,0,0
-301,-76,0,0,0,0,0,0,0,0,0,-1,923,1100,0,0
-294,-76,0,0,0,0,0,0,0,0,0,-1,930,1100,0,0
-287,-76,0,0,0,0,0,0,0,0,0,-1,937,1100,0,0
-280,-76,0,0,0,0,0,0,0,0,0,-1,944,1100,0,0
-273,-76,0,0,0,0,0,0,0,0,0,-1,951,1100,0,0
-266,-76,0,0,0,0,0,0,0,0,0,-1,958,1100,0,0
-259,-76,0,0,0,0,0,0,0,0,0,-1,965,1100,0,0
-252,-76,0,0,0,0,0,0,0,0,0,-1,972,1100,0,0
-245,-76,0,0,0,0,0,0,0,0,0,-1,979,1100,0,0
-238,-76,0,0,0,0,0,0,0,0,0,-1,986,1100,0,0
-231,-76,0,0,0,0,0,0,0,0,0,-1,993,1100,0,0
-224,-76,0,0,0,0,0,0,0,0,0,-1,1000,1100,0,0
-217,-76,0,0,0,0,0,0,0,0,0,-1,1007,1100,0,0
-210,-76,0,0,0,0,0,0,0,0,0,-1,1014,1100,0,0
-203,-76,0,0,0,0,0,0,0,0,0,-1,1021,1100,0,0
-196,-76,0,0,0,0,0,0,0,0,0,-1,1028,1100,0,0
-189,-76,0,0,0,0,0,0,0,0,0,-1,1035,1100,0,0
-182,-76,0,0,0,0,0,0,0,0,0,-1,1042,1100,0,0
-175,-76,0,0,0,0,0,0,0,0,0,-1,1049,1100,0,0
-168,-76,0,0,0,0,0,0,0,0,0,-1,1056,1100,0,0
-161,-76,0,0,0,0,0,0,0,0,0,-1,1063,1100,0,0
-154,-76,0,0,0,0,0,0,0,0,0,-1,1070,1100,0,0
-147,-76,0,0,0,0,0,0,0,0,0,-1,1077,1100,0,0
-140,-76,0,0,0,0,0,0,0,0,0,-1,1084,1100,0,0
-133,-76,0,0,0,0,0,0,0,0,0,-1,1091,1100,0,0
-126,-76,0,0,0,0,0,0,0,0,0,-1,1098,1100,0,0
-119,-76,0,0,0,0,0,0,0,0,0,-1,1105,1100,0,0
-112,-76,0,0,0,0,0,0,0,0,0,-1,1112,1100,0,0
-105,-76,0,0,0,0,0,0,0,0,0,-1,1119,1100,0,0
-98,-76,0,0,0,0,0,0,0,0,0,-1,1126,1100,0,0
-91,-76,0,0,0,0,0,0,0,0,0,-1,1133,1100,0,0
-84,-76,0,0,0,0,0,0,0,0,0,-1,1140,1100,0,0
-77,-76,0,0,0,0,0,0,0,0,0,-1,1147,1100,0,0
-70,-76,0,0,0,0,0,0,0,0,0,-1,1154,1100,0,0
-63,-76,0,0,0,0,0,0,0,0,0,-1,1161,1100,0,0
-56,-76,0,0,0,0,0,0,0,0,0,-1,1168,1100,0,0
-49,-76,0,0,0,0,0,0,0,0,0,-1,1175,1100,0,0
-42,-76,0,0,0,0,0,0,0,0,0,-1,1182,1100,0,0
-35,-76,0,0,0,0,0,0,0,0,0,-1,1189,1100,0,0
-28,-76,0,0,0,0,0,0,0,0,0,-1,1196,1100,0,0
-21,-76,0,0,0,0,0,0,0,0,0,-1,1203,1100,0,0
-14,-76,0,0,0,0,0,0,0,0,0,-1,1210,1100,0,0
-7,-76,0,0,0,0,0,0,0,0,0,-1,1217,1100,0,0
0,-76,0,0,0,0,0,0,0,0,0,-1,1224,1100,0,0
7,-76,0,0,0,0,0,0,0,0,0,-1,1231,1100,0,0
14,-76,0,0,0,0,0,0,0,0,0,-1,1238,1100,0,0
21,-76,0,0,0,0,0,0,0,0,0,-1,1245,1100,0,0
28,-76,0,0,0,0,0,0,0,0,0,-1,1252,1100,0,0
35,-76,0,0,0,0,0,0,0,0,0,-1,1259,1100,0,0
42,-76,0,0,0,0,0,0,0,0,0,-1,1266,1100,0,0
49,-76,0,0,0,0,0,0,0,0,0,-1,1273,1100,0,0
56,-76,0,0,0,0,0,0,0,0,0,-1,1280,1100,0,0
63,-76,0,0,0,0,0,0,0,0,0,-1,1287,1100,0,0
70,-76,0,0,0,0,0,0,0,0,0,-1,1294,1100,0,0
77,-76,0,0,0,0,0,0,0,0,0,-1,1301,1100,0,0
84,-76,0,0,0,0,0,0,0,0,0,-1,1308,1100,0,0
91,-76,0,0,0,0,0,0,0,0,0,-1,1315,1100,0,0
98,-76,0,0,0,0,0,0,0,0,0,-1,1322,1100,0,0
105,-76,0,0,0,0,0,0,0,0,0,-1,1329,1100,0,0
112,-76,0,0,0,0,0,0,0,0,0,-1,1336,1100,0,0
119,-76,0,0,0,0,0,0,0,0,0,-1,1343,1100,0,0
126,-76,0,0,0,0,0,0,0,0,0,-1,1350,1100,0,0
133,-76,0,0,0,0,0,0,0,0,0,-1,1357,1100,0,0
140,-76,0,0,0,0,0,0,0,0,0,-1,1364,1100,0,0
147,-76,0,0,0,0,0,0,0,0,0,-1,1371,1100,0,0
154,-76,0,0,0,0,0,0,0,0,0,-1,1378,1100,0,0
161,-76,0,0,0,0,0,0,0,0,0,-1,1385,1100,0,0
168,-76,0,0,0,0,0,0,0,0,0,-1,1392,1100,0,0
175,-76,0,0,0,0,0,0,0,0,0,-1,1399,1100,0,0
182,-76,0,0,0,0,0,0,0,0,0,-1,1406,1100,0,0
189,-76,0,0,0,0,0,0,0,0,0,-1,1413,1100,0,0
196,-76,0,0,0,0,0,0,0,0,0,-1,1420,1100,0,0
203,-76,0,0,0,0,0,0,0,0,0,-1,1427,1100,0,0
210,-76,0,0,0,0,0,0,0,0,0,-1,1434,1100,0,0
217,-76,0,0,0,0,0,0,0,0,0,-1,1441,1100,0,0
224,-76,0,0,0,0,0,0,0,0,0,-1,1448,1100,0,0
231,-76,0,0,0,0,0,0,0,0,0,-1,1455,1100,0,0
238,-76,0,0,0,0,0,0,0,0,0,-1,1462,1100,0,0
245,-76,0,0,0,0,0,0,0,0,0,-1,1469,1100,0,0
252,-76,0,0,0,0,0,0,0,0,0,-1,1476,1100,0,0
259,-76,0,0,0,0,0,0,0,0,0,-1,1483,1100,0,0
266,-76,0,0,0,0,0,0,0,0,0,-1,1490,1100,0,0
273,-76,0,0,0,0,0,0,0,0,0,-1,1497,1100,0,0
280,-76,0,0,0,0,0,0,0,0,0,-1,1504,1100,0,0
287,-76,0,0,0,0,0,0,0,0,0,-1,1511,1100,0,0
294,-76,0,0,0,0,0,0,0,0,0,-1,1518,1100,0,0
301,-76,0,0,0,0,0,0,0,0,0,-1,1525,1100,0,0
308,-76,0,0,0,0,0,0,0,0,0,-1,1532,1100,0,0
315,-76,0,0,0,0,0,0,0,0,0,-1,1539,1100,0,0
322,-76,0,0,0,0,0,0,0,0,0,-1,1546,1100,0,0
329,-76,0,0,0,0,0,0,0,0,0,-1,1553,1100,0,0
336,-76,0,0,0,0,0,0,0,0,0,-1,1560,1100,0,0
343,-76,0,0,0,0,0,0,0,0,0,-1,1567,1100,0,0
350,-76,0,0,0,0,0,0,0,0,0,-1,1574,1100,0,0
357,-76,0,0,0,0,0,0,0,0,0,-1,1581,1100,0,0
364,-76,0,0,0,0,0,0,0,0,0,-1,1588,1100,0,0
371,-76,0,0,0,0,0,0,0,0,0,-1,1595,1100,0,0
378,-76,0,0,0,0,0,0,0,0,0,-1,1602,1100,0,0
385,-76,0,0,0,0,0,0,0,0,0,-1,1609,1100,0,0
392,-76,0,0,0,0,0,0,0,0,0,-1,1616,1100,0,0
399,-76,0,0,0,0,0,0,0,0,0,-1,1623,1100,0,0
406,-76,0,0,0,0,0,0,0,0,0,-1,1630,1100,0,0
413,-76,0,0,0,0,0,0,0,0,0,-1,1637,1100,0,0
420,-76,0,0,0,0,0,0,0,0,0,-1,1644,1100,0,0
427,-76,0,0,0,0,0,0,0,0,0,-1,1651,1100,0,0
434,-76,0,0,0,0,0,0,0,0,0,-1,1658,1100,0,0
441,-76,0,0,0,0,0,0,0,0,0,-1,1665,1100,0,0
448,-76,0,0,0,0,0,0,0,0,0,-1,1672,1100,0,0
455,-76,0,0,0,0,0,0,0,0,0,-1,1679,1100,0,0
462,-76,0,0,0,0,0,0,0,0,0,-1,1686,1100,0,0
469,-76,0,0,0,0,0,0,0,0,0,-1,1693,1100,0,0
476,-76,0,0,0,0,0,0,0,0,0,-1,1700,1100,0,0
483,-76,0,0,0,0,0,0,0,0,0,-1,1707,1100,0,0
490,-76,0,0,0,0,0,0,0,0,0,-1,1714,1100,0,0
497,-76,0,0,0,0,0,0,0,0,0,-1,1721,1100,0,0
504,-76,0,0,0,0,0,0,0,0,0,-1,1728,1100,0,0
511,-76,0,0,0,0,0,0,0,0,0,-1,1735,1100,0,0
518,-76,0,0,0,0,0,0,0,0,0,-1,1742,1100,0,0
525,-76,0,0,0,0,0,0,0,0,0,-1,1749,1100,0,0
532,-76,0,0,0,0,0,0,0,0,0,-1,1756,1100,0,0
539,-76,0,0,0,0,0,0,0,0,0,-1,1763,1100,0,0
546,-76,0,0,0,0,0,0,0,0,0,-1,1770,1100,0,0
553,-76,0,0,0,0,0,0,0,0,0,-1,1777,1100,0,0
560,-76,0,0,0,0,0,0,0,0,0,-1,1784,1100,0,0
567,-76,0,0,0,0,0,0,0,0,0,-1,1791,1100,0,0
574,-76,0,0,0,0,0,0,0,0,0,-1,1798,1100,0,0
581,-76,0,0,0,0,0,0,0,0,0,-1,1805,1100,0,0
588,-76,0,0,0,0,0,0,0,0,0,-1,1812,1100,0,0
595,-76,0,0,0,0,0,0,0,0,0,-1,1819,1100,0,0
602,-76,0,0,0,0,0,0,0,0,0,-1,1826,1100,0,0
609,-76,0,0,0,0,0,0,0,0,0,-1,1833,1100,0,0
616,-76,0,0,0,0,0,0,0,0,0,-1,1840,1100,0,0
623,-76,0,0,0,0,0,0,0,0,0,-1,1847,1100,0,0
630,-76,0,0,0,0,0,0,0,0,0,-1,1854,1100,0,0
637,-76,0,0,0,0,0,0,0,0,0,-1,1861,1100,0,0
644,-76,0,0,0,0,0,0,0,0,0,-1,1868,1100,0,0
651,-76,27.338,3.27173,0.00929233,-0.00221176,-0.00210427,0.00966515,-0.00258458,-0.175353,0.00745581,0.0372991,1875,1100,27.3381,-3.27174
658,-76,27.3188,3.09009,0.00751596,-0.00174193,-0.00174923,0.00783545,-0.00206141,-0.180651,0.0060294,0.0419977,1882,1100,27.3189,-3.09008
665,-76,27.3724,2.7561,0,0,0,0,0,0,0,-1,1889,1100,27.3724,-2.75611
672,-76,27.1005,3.2677,0.00454453,-0.00117717,-0.000698986,0.00462868,-0.00126132,-0.119817,0.00358105,0.0380071,1896,1100,27.1004,-3.26773
679,-76,27.2593,3.34412,0.00290705,-0.00125037,0.000309396,0.00292995,-0.00127327,0.0738779,0.00248877,0.0375888,1903,1100,27.2593,-3.34407
686,-76,27.437,3.38977,0.00138121,-0.00143735,0.00125784,0.0018609,-0.00191704,0.364339,0.00218128,0.0363594,1910,1100,27.437,-3.38977
693,-76,27.4509,3.28723,0.000186171,-0.00163544,0.00205271,0.00152107,-0.00297034,0.576593,0.00263773,0.0352226,1917,1100,27.4509,-3.28721
700,-76,27.4314,3.30005,-0.000735112,-0.00174617,0.00262675,0.00143432,-0.0039156,0.690334,0.00319759,0.031472,1924,1100,27.4314,-3.3001
707,-76,27.4087,3.29028,-0.00169173,-0.00174709,0.00313011,0.00141082,-0.00484964,0.780977,0.00379189,0.0254921,1931,1100,27.4087,-3.29025
714,-76,27.4877,3.43652,-0.00236342,-0.00171655,0.00346535,0.00144043,-0.0055204,0.83193,0.00424271,0.0408647,1938,1100,27.4877,-3.43654
721,-76,26.8318,5.33923,0,0,0,0,0,0,0,-1,1945,1100,26.8318,-5.33927
728,-76,26.6119,5.3916,-0.00297556,-0.00134429,0.00347141,0.00140601,-0.00572587,0.900784,0.00436211,0.0321526,1952,1100,26.612,-5.39163
735,-76,26.3022,5.37451,-0.00322634,-0.0008779,0.00324484,0.00139865,-0.00550289,0.959004,0.00421292,0.0240377,1959,1100,26.3022,-5.37449
742,-76,26.4369,5.25806,-0.00312498,-0.000324774,0.00309387,0.00167105,-0.0051208,0.997881,0.00408641,0.0165581,1966,1100,26.4369,-5.25806
749,-76,26.4084,5.13367,-0.00274208,0.000166324,0.00282327,0.0018879,-0.00446365,1.02322,0.00376624,0.0167428,1973,1100,26.4084,-5.13366
756,-76,26.4436,5.06848,-0.00179557,0.00069337,0.00243277,0.0021815,-0.0032837,1.02182,0.00317665,0.0143461,1980,1100,26.4436,-5.06847
763,-76,26.424,4.94812,-0.000179434,0.00117449,0.00199671,0.00260587,-0.00161082,0.948837,0.002457,0.0142956,1987,1100,26.4239,-4.94815
770,-76,26.3989,4.82593,0.00181838,0.00171979,0.00144584,0.00321577,0.000322405,0.768358,0.00204487,0.0141862,1994,1100,26.3989,-4.82599
777,-76,26.389,4.72083,0.00449066,0.0017338,0.00151172,0.00515805,0.00106641,0.415742,0.0031441,0.017128,2001,1100,26.389,-4.72083
784,-76,26.4364,4.57886,0.00770323,0.0013724,0.00188017,0.00821951,0.000856117,0.267988,0.00521777,0.0314328,2008,1100,26.4364,-4.57884
791,-76,26.6117,4.54761,0.0118471,0.000482452,0.00254322,0.0123903,-6.07152e-05,0.210414,0.00828052,0.0435879,2015,1100,26.6117,-4.5476
798,-76,26.7371,4.47473,0,0,0,0,0,0,0,-1,2022,1100,26.737,-4.47477
805,-76,26.9536,4.30945,0,0,0,0,0,0,0,-1,2029,1100,26.9537,-4.30943
812,-76,28.6057,2.99988,0,0,0,0,0,0,0,-1,2036,1100,28.6058,-2.99983
-700,-83,0,0,0,0,0,0,0,0,0,-1,524,1107,0,0
-693,-83,-13.4368,2.26538,-0.0491187,0.0265594,-0.0852829,0.0820207,-0.10458,-0.994195,0.107996,0.0438174,531,1107,-13.4368,-2.26539
-686,-83,-14.1228,2.42566,-0.0412756,0.0176131,-0.0653258,0.0598237,-0.0834862,-0.997129,0.0831151,0.0467871,538,1107,-14.1228,-2.42562
-679,-83,-14.7618,2.27905,-0.0332215,0.011493,-0.0491536,0.043135,-0.0648635,-0.998836,0.0627722,0.0485846,545,1107,-14.7618,-2.27908
-672,-83,-15.2286,2.33203,-0.0256084,0.00732837,-0.0360962,0.0305355,-0.0488155,-0.999412,0.0462168,0.0439734,552,1107,-15.2286,-2.33207
-665,-83,-17.9177,2.23633,0,0,0,0,0,0,0,-1,559,1107,-17.9177,-2.23629
-658,-83,-18.0085,2.00891,-0.0132425,0.00278868,-0.017637,0.0141461,-0.0245999,-0.998683,0.0226398,0.0439135,566,1107,-18.0085,-2.00888
-651,-83,-18.0625,1.81128,-0.00871353,0.0017037,-0.0115701,0.00918354,-0.0161934,-0.9969,0.0148365,0.0309895,573,1107,-18.0625,-1.81122
-644,-83,-18.0071,1.98816,-0.00559743,0.0010011,-0.00712057,0.00554962,-0.010146,-1.00235,0.00919045,0.0149194,580,1107,-18.0071,-1.98812
-637,-83,-18.038,2.1582,-0.0033769,-0.000475678,-0.00474752,0.0030379,-0.00689048,-0.933669,0.00587424,0.0114091,587,1107,-18.038,-2.15825
-630,-83,-18.0477,2.31226,-0.0022632,-0.00104322,-0.0040653,0.0024576,-0.00576402,-0.859866,0.00487303,0.0161002,594,1107,-18.0477,-2.3122
-623,-83,-18.0278,2.44739,-0.00178796,-0.00164223,-0.00415591,0.00244146,-0.00587164,-0.794164,0.00493389,0.0163732,601,1107,-18.0278,-2.44739
-616,-83,-18.0445,2.58337,-0.00197317,-0.00128043,-0.00574918,0.00413281,-0.00738641,-0.815486,0.00673847,0.0130332,608,1107,-18.0445,-2.58336
-609,-83,-18.0773,2.7196,-0.00379942,-0.00192989,-0.00789148,0.00508199,-0.0108113,-0.84435,0.00937263,0.012458,615,1107,-18.0773,-2.71964
-602,-83,-18.087,2.89563,-0.00515589,-0.00244912,-0.00959843,0.00589087,-0.0134959,-0.855437,0.0114764,0.0153148,622,1107,-18.0871,-2.89557
-595,-83,-18.028,3.05017,-0.00583011,-0.00292532,-0.0105413,0.00626316,-0.0150186,-0.853858,0.0126289,0.0186787,629,1107,-18.028,-3.05012
-588,-83,-18.2944,2.61548,-0.00599601,-0.00330753,-0.0110433,0.00647308,-0.0157766,-0.845962,0.0132149,0.0394581,636,1107,-18.2944,-2.61551
-581,-83,-18.8419,1.61157,-0.00573393,-0.0034798,-0.0110736,0.00652395,-0.0157377,-0.836113,0.0132146,0.0454305,643,1107,-18.8419,-1.61154
-574,-83,-18.9798,1.39124,-0.00524563,-0.00341041,-0.0106978,0.00640902,-0.0150651,-0.828181,0.0127294,0.0353197,650,1107,-18.9798,-1.39118
-567,-83,-19.0612,1.54968,-0.00433907,-0.00314994,-0.00966936,0.00594311,-0.0134321,-0.816104,0.0114615,0.0413551,657,1107,-19.0612,-1.5497
-560,-83,-18.9227,1.44617,-0.00296128,-0.00268832,-0.0079914,0.00516776,-0.0108174,-0.793936,0.00941919,0.0441882,664,1107,-18.9227,-1.44612
-553,-83,-18.9168,1.505,-0.00114821,-0.00206469,-0.0057117,0.00412361,-0.00733651,-0.74537,0.00670261,0.0446882,671,1107,-18.9168,-1.50502
-546,-83,-18.8749,1.69397,0.00117222,-0.00133491,-0.00286548,0.00304633,-0.00320903,-0.579205,0.00361194,0.0426397,678,1107,-18.8749,-1.69396
-539,-83,-19.138,2.20581,0,0,0,0,0,0,0,-1,685,1107,-19.138,-2.20581
-532,-83,-18.7546,1.29333,0,0,0,0,0,0,0,-1,692,1107,-18.7547,-1.29336
-525,-83,0,0,0,0,0,0,0,0,0,-1,699,1107,0,0
-518,-83,0,0,0,0,0,0,0,0,0,-1,706,1107,0,0
-511,-83,0,0,0,0,0,0,0,0,0,-1,713,1107,0,0
-504,-83,0,0,0,0,0,0,0,0,0,-1,720,1107,0,0
-497,-83,0,0,0,0,0,0,0,0,0,-1,727,1107,0,0
-490,-83,0,0,0,0,0,0,0,0,0,-1,734,1107,0,0
-483,-83,0,0,0,0,0,0,0,0,0,-1,741,1107,0,0
-476,-83,0,0,0,0,0,0,0,0,0,-1,748,1107,0,0
-469,-83,0,0,0,0,0,0,0,0,0,-1,755,1107,0,0
-462,-83,0,0,0,0,0,0,0,0,0,-1,762,1107,0,0
-455,-83,0,0,0,0,0,0,0,0,0,-1,769,1107,0,0
-448,-83,0,0,0,0,0,0,0,0,0,-1,776,1107,0,0
-441,-83,0,0,0,0,0,0,0,0,0,-1,783,1107,0,0
-434,-83,0,0,0,0,0,0,0,0,0,-1,790,1107,0,0
-427,-83,0,0,0,0,0,0,0,0,0,-1,797,1107,0,0
-420,-83,0,0,0,0,0,0,0,0,0,-1,804,1107,0,0
-413,-83,0,0,0,0,0,0,0,0,0,-1,811,1107,0,0
-406,-83,0,0,0,0,0,0,0,0,0,-1,818,1107,0,0
-399,-83,0,0,0,0,0,0,0,0,0,-1,825,1107,0,0
-392,-83,0,0,0,0,0,0,0,0,0,-1,832,1107,0,0
-385,-83,0,0,0,0,0,0,0,0,0,-1,839,1107,0,0
-378,-83,0,0,0,0,0,0,0,0,0,-1,846,1107,0,0
-371,-83,0,0,0,0,0,0,0,0,0,-1,853,1107,0,0
-364,-83,0,0,0,0,0,0,0,0,0,-1,860,1107,0,0
-357,-83,0,0,0,0,0,0,0,0,0,-1,867,1107,0,0
-350,-83,0,0,0,0,0,0,0,0,0,-1,874,1107,0,0
-343,-83,0,0,0,0,0,0,0,0,0,-1,881,1107,0,0
-336,-83,0,0,0,0,0,0,0,0,0,-1,888,1107,0,0
-329,-83,0,0,0,0,0,0,0,0,0,-1,895,1107,0,0
-322,-83,0,0,0,0,0,0,0,0,0,-1,902,1107,0,0
-315,-83,0,0,0,0,0,0,0,0,0,-1,909,1107,0,0
-308,-83,0,0,0,0,0,0,0,0,0,-1,916,1107,0,0
-301,-83,0,0,0,0,0,0,0,0,0,-1,923,1107,0,0
-294,-83,0,0,0,0,0,0,0,0,0,-1,930,1107,0,0
-287,-83,0,0,0,0,0,0,0,0,0,-1,937,1107,0,0
-280,-83,0,0,0,0,0,0,0,0,0,-1,944,1107,0,0
-273,-83,0,0,0,0,0,0,0,0,0,-1,951,1107,0,0
-266,-83,0,0,0,0,0,0,0,0,0,-1,958,1107,0,0
-259,-83,0,0,0,0,0,0,0,0,0,-1,965,1107,0,0
-252,-83,0,0,0,0,0,0,0,0,0,-1,972,1107,0,0
-245,-83,0,0,0,0,0,0,0,0,0,-1,979,1107,0,0
-238,-83,0,0,0,0,0,0,0,0,0,-1,986,1107,0,0
-231,-83,0,0,0,0,0,0,0,0,0,-1,993,1107,0,0
-224,-83,0,0,0,0,0,0,0,0,0,-1,1000,1107,0,0
-217,-83,0,0,0,0,0,0,0,0,0,-1,1007,1107,0,0
-210,-83,0,0,0,0,0,0,0,0,0,-1,1014,1107,0,0
-203,-83,0,0,0,0,0,0,0,0,0,-1,1021,1107,0,0
-196,-83,0,0,0,0,0,0,0,0,0,-1,1028,1107,0,0
-189,-83,0,0,0,0,0,0,0,0,0,-1,1035,1107,0,0
-182,-83,0,0,0,0,0,0,0,0,0,-1,1042,1107,0,0
-175,-83,0,0,0,0,0,0,0,0,0,-1,1049,1107,0,0
-168,-83,0,0,0,0,0,0,0,0,0,-1,1056,1107,0,0
-161,-83,0,0,0,0,0,0,0,0,0,-1,1063,1107,0,0
-154,-83,0,0,0,0,0,0,0,0,0,-1,1070,1107,0,0
-147,-83,0,0,0,0,0,0,0,0,0,-1,1077,1107,0,0
-140,-83,0,0,0,0,0,0,0,0,0,-1,1084,1107,0,0
-133,-83,0,0,0,0,0,0,0,0,0,-1,1091,1107,0,0
-126,-83,0,0,0,0,0,0,0,0,0,-1,1098,1107,0,0
-119,-83,0,0,0,0,0,0,0,0,0,-1,1105,1107,0,0
-112,-83,0,0,0,0,0,0,0,0,0,-1,1112,1107,0,0
-105,-83,0,0,0,0,0,0,0,0,0,-1,1119,1107,0,0
-98,-83,0,0,0,0,0,0,0,0,0,-1,1126,1107,0,0
-91,-83,0,0,0,0,0,0,0,0,0,-1,1133,1107,0,0
-84,-83,0,0,0,0,0,0,0,0,0,-1,1140,1107,0,0
-77,-83,0,0,0,0,0,0,0,0,0,-1,1147,1107,0,0
-70,-83,0,0,0,0,0,0,0,0,0,-1,1154,1107,0,0
-63,-83,0,0,0,0,0,0,0,0,0,-1,1161,1107,0,0
-56,-83,0,0,0,0,0,0,0,0,0,-1,1168,1107,0,0
-49,-83,0,0,0,0,0,0,0,0,0,-1,1175,1107,0,0
-42,-83,0,0,0,0,0,0,0,0,0,-1,1182,1107,0,0
-35,-83,0,0,0,0,0,0,0,0,0,-1,1189,1107,0,0
-28,-83,0,0,0,0,0,0,0,0,0,-1,1196,1107,0,0
-21,-83,0,0,0,0,0,0,0,0,0,-1,1203,1107,0,0
-14,-83,0,0,0,0,0,0,0,0,0,-1,1210,1107,0,0
-7,-83,0,0,0,0,0,0,0,0,0,-1,1217,1107,0,0
0,-83,0,0,0,0,0,0,0,0,0,-1,1224,1107,0,0
7,-83,0,0,0,0,0,0,0,0,0,-1,1231,1107,0,0
14,-83,0,0,0,0,0,0,0,0,0,-1,1238,1107,0,0
21,-83,0,0,0,0,0,0,0,0,0,-1,1245,1107,0,0
28,-83,0,0,0,0,0,0,0,0,0,-1,1252,1107,0,0
35,-83,0,0,0,0,0,0,0,0,0,-1,1259,1107,0,0
42,-83,0,0,0,0,0,0,0,0,0,-1,1266,1107,0,0
49,-83,0,0,0,0,0,0,0,0,0,-1,1273,1107,0,0
56,-83,0,0,0,0,0,0,0,0,0,-1,1280,1107,0,0
63,-83,0,0,0,0,0,0,0,0,0,-1,1287,1107,0,0
70,-83,0,0,0,0,0,0,0,0,0,-1,1294,1107,0,0
77,-83,0,0,0,0,0,0,0,0,0,-1,1301,1107,0,0
84,-83,0,0,0,0,0,0,0,0,0,-1,1308,1107,0,0
91,-83,0,0,0,0,0,0,0,0,0,-1,1315,1107,0,0
98,-83,0,0,0,0,0,0,0,0,0,-1,1322,1107,0,0
105,-83,0,0,0,0,0,0,0,0,0,-1,1329,1107,0,0
112,-83,0,0,0,0,0,0,0,0,0,-1,1336,1107,0,0
119,-83,0,0,0,0,0,0,0,0,0,-1,1343,1107,0,0
126,-83,0,0,0,0,0,0,0,0,0,-1,1350,1107,0,0
133,-83,0,0,0,0,0,0,0,0,0,-1,1357,1107,0,0
140,-83,0,0,0,0,0,0,0,0,0,-1,1364,1107,0,0
147,-83,0,0,0,0,0,0,0,0,0,-1,1371,1107,0,0
154,-83,0,0,0,0,0,0,0,0,0,-1,1378,1107,0,0
161,-83,0,0,0,0,0,0,0,0,0,-1,1385,1107,0,0
168,-83,0,0,0,0,0,0,0,0,0,-1,1392,1107,0,0
175,-83,0,0,0,0,0,0,0,0,0,-1,1399,1107,0,0
182,-83,0,0,0,0,0,0,0,0,0,-1,1406,1107,0,0
189,-83,0,0,0,0,0,0,0,0,0,-1,1413,1107,0,0
196,-83,0,0,0,0,0,0,0,0,0,-1,1420,1107,0,0
203,-83,0,0,0,0,0,0,0,0,0,-1,1427,1107,0,0
210,-83,0,0,0,0,0,0,0,0,0,-1,1434,1107,0,0
217,-83,0,0,0,0,0,0,0,0,0,-1,1441,1107,0,0
224,-83,0,0,0,0,0,0,0,0,0,-1,1448,1107,0,0
231,-83,0,0,0,0,0,0,0,0,0,-1,1455,1107,0,0
238,-83,0,0,0,0,0,0,0,0,0,-1,1462,1107,0,0
245,-83,0,0,0,0,0,0,0,0,0,-1,1469,1107,0,0
252,-83,0,0,0,0,0,0,0,0,0,-1,1476,1107,0,0
259,-83,0,0,0,0,0,0,0,0,0,-1,1483,1107,0,0
266,-83,0,0,0,0,0,0,0,0,0,-1,1490,1107,0,0
273,-83,0,0,0,0,0,0,0,0,0,-1,1497,1107,0,0
280,-83,0,0,0,0,0,0,0,0,0,-1,1504,1107,0,0
287,-83,0,0,0,0,0,0,0,0,0,-1,1511,1107,0,0
294,-83,0,0,0,0,0,0,0,0,0,-1,1518,1107,0,0
301,-83,0,0,0,0,0,0,0,0,0,-1,1525,1107,0,0
308,-83,0,0,0,0,0,0,0,0,0,-1,1532,1107,0,0
315,-83,0,0,0,0,0,0,0,0,0,-1,1539,1107,0,0
322,-83,0,0,0,0,0,0,0,0,0,-1,1546,1107,0,0
329,-83,0,0,0,0,0,0,0,0,0,-1,1553,1107,0,0
336,-83,0,0,0,0,0,0,0,0,0,-1,1560,1107,0,0
343,-83,0,0,0,0,0,0,0,0,0,-1,1567,1107,0,0
350,-83,0,0,0,0,0,0,0,0,0,-1,1574,1107,0,0
357,-83,0,0,0,0,0,0,0,0,0,-1,1581,1107,0,0
364,-83,0,0,0,0,0,0,0,0,0,-1,1588,1107,0,0
371,-83,0,0,0,0,0,0,0,0,0,-1,1595,1107,0,0
378,-83,0,0,0,0,0,0,0,0,0,-1,1602,1107,0,0
385,-83,0,0,0,0,0,0,0,0,0,-1,1609,1107,0,0
392,-83,0,0,0,0,0,0,0,0,0,-1,1616,1107,0,0
399,-83,0,0,0,0,0,0,0,0,0,-1,1623,1107,0,0
406,-83,0,0,0,0,0,0,0,0,0,-1,1630,1107,0,0
413,-83,0,0,0,0,0,0,0,0,0,-1,1637,1107,0,0
420,-83,0,0,0,0,0,0,0,0,0,-1,1644,1107,0,0
427,-83,0,0,0,0,0,0,0,0,0,-1,1651,1107,0,0
434,-83,0,0,0,0,0,0,0,0,0,-1,1658,1107,0,0
441,-83,0,0,0,0,0,0,0,0,0,-1,1665,1107,0,0
448,-83,0,0,0,0,0,0,0,0,0,-1,1672,1107,0,0
455,-83,0,0,0,0,0,0,0,0,0,-1,1679,1107,0,0
462,-83,0,0,0,0,0,0,0,0,0,-1,1686,1107,0,0
469,-83,0,0,0,0,0,0,0,0,0,-1,1693,1107,0,0
476,-83,0,0,0,0,0,0,0,0,0,-1,1700,1107,0,0
483,-83,0,0,0,0,0,0,0,0,0,-1,1707,1107,0,0
490,-83,0,0,0,0,0,0,0,0,0,-1,1714,1107,0,0
497,-83,0,0,0,0,0,0,0,0,0,-1,1721,1107,0,0
504,-83,0,0,0,0,0,0,0,0,0,-1,1728,1107,0,0
511,-83,0,0,0,0,0,0,0,0,0,-1,1735,1107,0,0
518,-83,0,0,0,0,0,0,0,0,0,-1,1742,1107,0,0
525,-83,0,0,0,0,0,0,0,0,0,-1,1749,1107,0,0
532,-83,0,0,0,0,0,0,0,0,0,-1,1756,1107,0,0
539,-83,0,0,0,0,0,0,0,0,0,-1,1763,1107,0,0
546,-83,0,0,0,0,0,0,0,0,0,-1,1770,1107,0,0
553,-83,0,0,0,0,0,0,0,0,0,-1,1777,1107,0,0
560,-83,0,0,0,0,0,0,0,0,0,-1,1784,1107,0,0
567,-83,0,0,0,0,0,0,0,0,0,-1,1791,1107,0,0
574,-83,0,0,0,0,0,0,0,0,0,-1,1798,1107,0,0
581,-83,0,0,0,0,0,0,0,0,0,-1,1805,1107,0,0
588,-83,0,0,0,0,0,0,0,0,0,-1,1812,1107,0,0
595,-83,0,0,0,0,0,0,0,0,0,-1,1819,1107,0,0
602,-83,0,0,0,0,0,0,0,0,0,-1,1826,1107,0,0
609,-83,0,0,0,0,0,0,0,0,0,-1,1833,1107,0,0
616,-83,0,0,0,0,0,0,0,0,0,-1,1840,1107,0,0
623,-83,0,0,0,0,0,0,0,0,0,-1,1847,1107,0,0
630,-83,0,0,0,0,0,0,0,0,0,-1,1854,1107,0,0
637,-83,0,0,0,0,0,0,0,0,0,-1,1861,1107,0,0
644,-83,27.5093,3.29272,0.00968821,-0.00330075,-0.00278448,0.01026,-0.0038725,-0.20252,0.0084326,0.0350357,1868,1107,27.5093,-3.29277
651,-83,27.4183,3.22083,0.00793051,-0.00273857,-0.00219454,0.00836427,-0.00317233,-0.19514,0.00688183,0.0401624,1875,1107,27.4183,-3.22077
658,-83,27.2814,3.04797,0.00651519,-0.00219713,-0.00183307,0.00688516,-0.0025671,-0.199154,0.00564389,0.044672,1882,1107,27.2813,-3.04793
665,-83,27.1951,2.99866,0.00530705,-0.00167712,-0.00156605,0.00564213,-0.0020122,-0.210785,0.00458188,0.0410265,1889,1107,27.1951,-2.99866
672,-83,27.249,3.24438,0.003903,-0.00150458,-0.000661163,0.00398267,-0.00158424,-0.119913,0.003312,0.0361957,1896,1107,27.249,-3.24437
679,-83,27.3796,3.36633,0.00232447,-0.00152362,0.000423724,0.00237057,-0.00156972,0.108383,0.00229054,0.0365624,1903,1107,27.3796,-3.3663
686,-83,27.4635,3.40051,0.000847791,-0.00165004,0.0014253,0.00149394,-0.00229619,0.425629,0.00220451,0.0349972,1910,1107,27.4635,-3.40047
693,-83,27.4298,3.29602,-0.000310957,-0.00178792,0.00226162,0.00132969,-0.00342857,0.627591,0.00283487,0.0353746,1917,1107,27.4298,-3.296
700,-83,27.42,3.33887,-0.0011937,-0.00184292,0.0028518,0.00135191,-0.00438852,0.728729,0.00346537,0.031468,1924,1107,27.4201,-3.33883
707,-83,27.4161,3.25854,-0.00208223,-0.00180287,0.0033811,0.00144143,-0.00532653,0.806042,0.0041165,0.025396,1931,1107,27.4162,-3.25858
714,-83,27.4397,3.68323,-0.00272683,-0.00174719,0.0037493,0.00154415,-0.00601817,0.850352,0.00461378,0.0475496,1938,1107,27.4397,-3.68318
721,-83,26.2916,5.6405,0,0,0,0,0,0,0,-1,1945,1107,26.2916,-5.64049
728,-83,26.324,5.45129,-0.00324375,-0.00131953,0.00372799,0.0015685,-0.00613178,0.911681,0.00469878,0.0233798,1952,1107,26.3239,-5.4513
735,-83,26.2079,5.33826,-0.00336038,-0.000852148,0.00343825,0.00155357,-0.0057661,0.960277,0.00445319,0.0248133,1959,1107,26.2079,-5.33825
742,-83,26.2777,5.26855,-0.00314209,-0.000317855,0.00324632,0.00181018,-0.00527012,0.990549,0.00424739,0.0154756,1966,1107,26.2777,-5.26857
749,-83,26.3143,5.14917,-0.00262567,0.000124825,0.00287622,0.00193767,-0.00443852,1.0084,0.0037745,0.0120919,1973,1107,26.3144,-5.14916
756,-83,26.3167,5.0426,-0.0014869,0.000546427,0.00238596,0.00212329,-0.00306377,0.986801,0.00301111,0.0135337,1980,1107,26.3166,-5.04258
763,-83,26.3259,4.90417,0.000383818,0.000883021,0.00181012,0.00246067,-0.00119383,0.853912,0.00215177,0.0113986,1987,1107,26.3259,-4.90416
770,-83,26.3059,4.78992,0.00266426,0.0012258,0.00107896,0.00324174,0.000648322,0.491422,0.00198074,0.0133295,1994,1107,26.306,-4.78995
777,-83,26.2787,4.6842,0.00553883,0.000951924,0.000942843,0.00572507,0.000765683,0.19502,0.00358881,0.0148991,2001,1107,26.2787,-4.68422
784,-83,26.2662,4.61633,0.00898956,0.00023947,0.0010635,0.00911696,0.000112067,0.119229,0.00604096,0.0256932,2008,1107,26.2662,-4.61628
791,-83,26.3522,4.59961,0.0134145,-0.00109316,0.00137003,0.0135428,-0.0012214,0.0933353,0.00946197,0.0435985,2015,1107,26.3522,-4.59961
798,-83,26.3992,4.56799,0,0,0,0,0,0,0,-1,2022,1107,26.3992,-4.56797
805,-83,27.4133,3.38611,0.0273647,-0.00597379,0.00266205,0.027576,-0.00618501,0.0791805,0.0207551,0.0484352,2029,1107,27.4134,-3.38613
812,-83,28.2056,3.20825,0.0377239,-0.00966533,0.00394032,0.0380493,-0.00999073,0.082394,0.0292704,0.049157,2036,1107,28.2055,-3.20823
-700,-90,0,0,0,0,0,0,0,0,0,-1,524,1114,0,0
-693,-90,-12.4303,1.69141,0,0,0,0,0,0,0,-1,531,1114,-12.4303,-1.69146
-686,-90,-13.2127,2.0625,0,0,0,0,0,0,0,-1,538,1114,-13.2127,-2.06248
-679,-90,-13.7236,2.37354,-0.0231592,0.00788363,-0.0481862,0.0429866,-0.0582621,-0.941207,0.0586773,0.0434545,545,1114,-13.7235,-2.37356
-672,-90,-14.0721,2.48145,-0.0167445,0.0044776,-0.0353366,0.0307619,-0.0430288,-0.931257,0.0427988,0.0421868,552,1114,-14.0722,-2.48147
-665,-90,-14.4637,2.49255,0,0,0,0,0,0,0,-1,559,1114,-14.4637,-2.49261
-658,-90,-18.0167,1.74548,0,0,0,0,0,0,0,-1,566,1114,-18.0167,-1.74553
-651,-90,-17.9147,1.56653,-0.00375221,0.000584051,-0.0113213,0.00994296,-0.0131111,-0.880007,0.0133521,0.0293839,573,1114,-17.9146,-1.56649
-644,-90,-17.87,1.91235,-0.00173338,0.000242238,-0.00695681,0.00628102,-0.00777217,-0.855922,0.00812882,0.0131122,580,1114,-17.87,-1.9124
-637,-90,-17.8708,2.14124,-0.000548408,-0.000782726,-0.00462079,0.00395671,-0.00528784,-0.772723,0.00535575,0.0116624,587,1114,-17.8708,-2.14119
-630,-90,-17.8868,2.29846,-0.000292744,-0.00106452,-0.00382977,0.00317053,-0.00452779,-0.735188,0.00446759,0.0117161,594,1114,-17.8869,-2.29843
-623,-90,-17.8883,2.4425,-0.000541606,-0.00162618,-0.00384476,0.00279892,-0.0049667,-0.715338,0.00454134,0.00984898,601,1114,-17.8883,-2.44249
-616,-90,-17.8956,2.61328,-0.00123386,-0.00131286,-0.00516824,0.00389503,-0.00644175,-0.781577,0.00602802,0.00921673,608,1114,-17.8956,-2.61323
-609,-90,-17.91,2.74585,-0.00339209,-0.00189934,-0.00709464,0.00448807,-0.00977951,-0.837807,0.00842411,0.0123973,615,1114,-17.91,-2.74579
-602,-90,-17.9435,2.89819,-0.00485395,-0.00241972,-0.00868878,0.00513678,-0.0124104,-0.854985,0.010417,0.0125341,622,1114,-17.9435,-2.89819
-595,-90,-17.8564,3.09363,-0.00551232,-0.00284225,-0.00953331,0.00544905,-0.0138036,-0.854965,0.0114591,0.0131415,629,1114,-17.8564,-3.09361
-588,-90,-18.0426,2.90039,-0.00565767,-0.00318236,-0.00997874,0.00563519,-0.0144752,-0.847098,0.0119788,0.0333234,636,1114,-18.0426,-2.90041
-581,-90,-18.8091,1.9353,-0.005414,-0.00333847,-0.0100509,0.00572807,-0.0144805,-0.836841,0.0120267,0.0456878,643,1114,-18.8091,-1.93526
-574,-90,-19.002,1.40979,-0.0049708,-0.00326177,-0.00983101,0.0057518,-0.0139844,-0.828749,0.0117205,0.031708,650,1114,-19.002,-1.40985
-567,-90,-19.0889,1.4436,-0.00415516,-0.00300031,-0.00903882,0.00547951,-0.012635,-0.817296,0.0107269,0.0342775,657,1114,-19.0889,-1.44354
-560,-90,-18.9893,1.52856,-0.00291149,-0.00255623,-0.00768211,0.0049503,-0.010418,-0.796958,0.00905816,0.0414536,664,1114,-18.9893,-1.52861
-553,-90,-18.8865,1.6051,-0.00126496,-0.001972,-0.00579112,0.00418341,-0.00742038,-0.754913,0.00678579,0.0436915,671,1114,-18.8865,-1.6051
-546,-90,-18.8585,1.59766,0.000865621,-0.00131838,-0.00337534,0.00332121,-0.00377397,-0.62895,0.00409919,0.0425987,678,1114,-18.8585,-1.59771
-539,-90,-18.9657,1.58826,0,0,0,0,0,0,0,-1,685,1114,-18.9657,-1.58831
-532,-90,-18.9981,1.51477,0,0,0,0,0,0,0,-1,692,1114,-18.9981,-1.51471
-525,-90,0,0,0,0,0,0,0,0,0,-1,699,1114,0,0
-518,-90,0,0,0,0,0,0,0,0,0,-1,706,1114,0,0
-511,-90,0,0,0,0,0,0,0,0,0,-1,713,1114,0,0
-504,-90,0,0,0,0,0,0,0,0,0,-1,720,1114,0,0
-497,-90,0,0,0,0,0,0,0,0,0,-1,727,1114,0,0
-490,-90,0,0,0,0,0,0,0,0,0,-1,734,1114,0,0
-483,-90,0,0,0,0,0,0,0,0,0,-1,741,1114,0,0
-476,-90,0,0,0,0,0,0,0,0,0,-1,748,1114,0,0
-469,-90,0,0,0,0,0,0,0,0,0,-1,755,1114,0,0
-462,-90,0,0,0,0,0,0,0,0,0,-1,762,1114,0,0
-455,-90,0,0,0,0,0,0,0,0,0,-1,769,1114,0,0
-448,-90,0,0,0,0,0,0,0,0,0,-1,776,1114,0,0
-441,-90,0,0,0,0,0,0,0,0,0,-1,783,1114,0,0
-434,-90,0,0,0,0,0,0,0,0,0,-1,790,1114,0,0
-427,-90,0,0,0,0,0,0,0,0,0,-1,797,1114,0,0
-420,-90,0,0,0,0,0,0,0,0,0,-1,804,1114,0,0
-413,-90,0,0,0,0,0,0,0,0,0,-1,811,1114,0,0
-406,-90,0,0,0,0,0,0,0,0,0,-1,818,1114,0,0
-399,-90,0,0,0,0,0,0,0,0,0,-1,825,1114,0,0
-392,-90,0,0,0,0,0,0,0,0,0,-1,832,1114,0,0
-385,-90,0,0,0,0,0,0,0,0,0,-1,839,1114,0,0
-378,-90,0,0,0,0,0,0,0,0,0,-1,846,1114,0,0
-371,-90,0,0,0,0,0,0,0,0,0,-1,853,1114,0,0
-364,-90,0,0,0,0,0,0,0,0,0,-1,860,1114,0,0
-357,-90,0,0,0,0,0,0,0,0,0,-1,867,1114,0,0
-350,-90,0,0,0,0,0,0,0,0,0,-1,874,1114,0,0
-343,-90,0,0,0,0,0,0,0,0,0,-1,881,1114,0,0
-336,-90,0,0,0,0,0,0,0,0,0,-1,888,1114,0,0
-329,-90,0,0,0,0,0,0,0,0,0,-1,895,1114,0,0
-322,-90,0,0,0,0,0,0,0,0,0,-1,902,1114,0,0
-315,-90,0,0,0,0,0,0,0,0,0,-1,909,1114,0,0
-308,-90,0,0,0,0,0,0,0,0,0,-1,916,1114,0,0
-301,-90,0,0,0,0,0,0,0,0,0,-1,923,1114,0,0
-294,-90,0,0,0,0,0,0,0,0,0,-1,930,1114,0,0
-287,-90,0,0,0,0,0,0,0,0,0,-1,937,1114,0,0
-280,-90,0,0,0,0,0,0,0,0,0,-1,944,1114,0,0
-273,-90,0,0,0,0,0,0,0,0,0,-1,951,1114,0,0
-266,-90,0,0,0,0,0,0,0,0,0,-1,958,1114,0,0
-259,-90,0,0,0,0,0,0,0,0,0,-1,965,1114,0,0
-252,-90,0,0,0,0,0,0,0,0,0,-1,972,1114,0,0
-245,-90,0,0,0,0,0,0,0,0,0,-1,979,1114,0,0
-238,-90,0,0,0,0,0,0,0,0,0,-1,986,1114,0,0
-231,-90,0,0,0,0,0,0,0,0,0,-1,993,1114,0,0
-224,-90,0,0,0,0,0,0,0,0,0,-1,1000,1114,0,0
-217,-90,0,0,0,0,0,0,0,0,0,-1,1007,1114,0,0
-210,-90,0,0,0,0,0,0,0,0,0,-1,1014,1114,0,0
-203,-90,0,0,0,0,0,0,0,0,0,-1,1021,1114,0,0
-196,-90,0,0,0,0,0,0,0,0,0,-1,1028,1114,0,0
-189,-90,0,0,0,0,0,0,0,0,0,-1,1035,1114,0,0
-182,-90,0,0,0,0,0,0,0,0,0,-1,1042,1114,0,0
-175,-90,0,0,0,0,0,0,0,0,0,-1,1049,1114,0,0
-168,-90,0,0,0,0,0,0,0,0,0,-1,1056,1114,0,0
-161,-90,0,0,0,0,0,0,0,0,0,-1,1063,1114,0,0
-154,-90,0,0,0,0,0,0,0,0,0,-1,1070,1114,0,0
-147,-90,0,0,0,0,0,0,0,0,0,-1,1077,1114,0,0
-140,-90,0,0,0,0,0,0,0,0,0,-1,1084,1114,0,0
-133,-90,0,0,0,0,0,0,0,0,0,-1,1091,1114,0,0
-126,-90,0,0,0,0,0,0,0,0,0,-1,1098,1114,0,0
-119,-90,0,0,0,0,0,0,0,0,0,-1,1105,1114,0,0
-112,-90,0,0,0,0,0,0,0,0,0,-1,1112,1114,0,0
-105,-90,0,0,0,0,0,0,0,0,0,-1,1119,1114,0,0
-98,-90,0,0,0,0,0,0,0,0,0,-1,1126,1114,0,0
-91,-90,0,0,0,0,0,0,0,0,0,-1,1133,1114,0,0
-84,-90,0,0,0,0,0,0,0,0,0,-1,1140,1114,0,0
-77,-90,0,0,0,0,0,0,0,0,0,-1,1147,1114,0,0
-70,-90,0,0,0,0,0,0,0,0,0,-1,1154,1114,0,0
-63,-90,0,0,0,0,0,0,0,0,0,-1,1161,1114,0,0
-56,-90,0,0,0,0,0,0,0,0,0,-1,1168,1114,0,0
-49,-90,0,0,0,0,0,0,0,0,0,-1,1175,1114,0,0
-42,-90,0,0,0,0,0,0,0,0,0,-1,1182,1114,0,0
-35,-90,0,0,0,0,0,0,0,0,0,-1,1189,1114,0,0
-28,-90,0,0,0,0,0,0,0,0,0,-1,1196,1114,0,0
-21,-90,0,0,0,0,0,0,0,0,0,-1,1203,1114,0,0
-14,-90,0,0,0,0,0,0,0,0,0,-1,1210,1114,0,0
-7,-90,0,0,0,0,0,0,0,0,0,-1,1217,1114,0,0
0,-90,0,0,0,0,0,0,0,0,0,-1,1224,1114,0,0
7,-90,0,0,0,0,0,0,0,0,0,-1,1231,1114,0,0
14,-90,0,0,0,0,0,0,0,0,0,-1,1238,1114,0,0
21,-90,0,0,0,0,0,0,0,0,0,-1,1245,1114,0,0
28,-90,0,0,0,0,0,0,0,0,0,-1,1252,1114,0,0
35,-90,0,0,0,0,0,0,0,0,0,-1,1259,1114,0,0
42,-90,0,0,0,0,0,0,0,0,0,-1,1266,1114,0,0
49,-90,0,0,0,0,0,0,0,0,0,-1,1273,1114,0,0
56,-90,0,0,0,0,0,0,0,0,0,-1,1280,1114,0,0
63,-90,0,0,0,0,0,0,0,0,0,-1,1287,1114,0,0
70,-90,0,0,0,0,0,0,0,0,0,-1,1294,1114,0,0
77,-90,0,0,0,0,0,0,0,0,0,-1,1301,1114,0,0
84,-90,0,0,0,0,0,0,0,0,0,-1,1308,1114,0,0
91,-90,0,0,0,0,0,0,0,0,0,-1,1315,1114,0,0
98,-90,0,0,0,0,0,0,0,0,0,-1,1322,1114,0,0
105,-90,0,0,0,0,0,0,0,0,0,-1,1329,1114,0,0
112,-90,0,0,0,0,0,0,0,0,0,-1,1336,1114,0,0
119,-90,0,0,0,0,0,0,0,0,0,-1,1343,1114,0,0
126,-90,0,0,0,0,0,0,0,0,0,-1,1350,1114,0,0
133,-90,0,0,0,0,0,0,0,0,0,-1,1357,1114,0,0
140,-90,0,0,0,0,0,0,0,0,0,-1,1364,1114,0,0
147,-90,0,0,0,0,0,0,0,0,0,-1,1371,1114,0,0
154,-90,0,0,0,0,0,0,0,0,0,-1,1378,1114,0,0
161,-90,0,0,0,0,0,0,0,0,0,-1,1385,1114,0,0
168,-90,0,0,0,0,0,0,0,0,0,-1,1392,1114,0,0
175,-90,0,0,0,0,0,0,0,0,0,-1,1399,1114,0,0
182,-90,0,0,0,0,0,0,0,0,0,-1,1406,1114,0,0
189,-90,0,0,0,0,0,0,0,0,0,-1,1413,1114,0,0
196,-90,0,0,0,0,0,0,0,0,0,-1,1420,1114,0,0
203,-90,0,0,0,0,0,0,0,0,0,-1,1427,1114,0,0
210,-90,0,0,0,0,0,0,0,0,0,-1,1434,1114,0,0
217,-90,0,0,0,0,0,0,0,0,0,-1,1441,1114,0,0
224,-90,0,0,0,0,0,0,0,0,0,-1,1448,1114,0,0
231,-90,0,0,0,0,0,0,0,0,0,-1,1455,1114,0,0
238,-90,0,0,0,0,0,0,0,0,0,-1,1462,1114,0,0
245,-90,0,0,0,0,0,0,0,0,0,-1,1469,1114,0,0
252,-90,0,0,0,0,0,0,0,0,0,-1,1476,1114,0,0
259,-90,0,0,0,0,0,0,0,0,0,-1,1483,1114,0,0
266,-90,0,0,0,0,0,0,0,0,0,-1,1490,1114,0,0
273,-90,0,0,0,0,0,0,0,0,0,-1,1497,1114,0,0
280,-90,0,0,0,0,0,0,0,0,0,-1,1504,1114,0,0
287,-90,0,0,0,0,0,0,0,0,0,-1,1511,1114,0,0
294,-90,0,0,0,0,0,0,0,0,0,-1,1518,1114,0,0
301,-90,0,0,0,0,0,0,0,0,0,-1,1525,1114,0,0
308,-90,0,0,0,0,0,0,0,0,0,-1,1532,1114,0,0
315,-90,0,0,0,0,0,0,0,0,0,-1,1539,1114,0,0
322,-90,0,0,0,0,0,0,0,0,0,-1,1546,1114,0,0
329,-90,0,0,0,0,0,0,0,0,0,-1,1553,1114,0,0
336,-90,0,0,0,0,0,0,0,0,0,-1,1560,1114,0,0
343,-90,0,0,0,0,0,0,0,0,0,-1,1567,1114,0,0
350,-90,0,0,0,0,0,0,0,0,0,-1,1574,1114,0,0
357,-90,0,0,0,0,0,0,0,0,0,-1,1581,1114,0,0
364,-90,0,0,0,0,0,0,0,0,0,-1,1588,1114,0,0
371,-90,0,0,0,0,0,0,0,0,0,-1,1595,1114,0,0
378,-90,0,0,0,0,0,0,0,0,0,-1,1602,1114,0,0
385,-90,0,0,0,0,0,0,0,0,0,-1,1609,1114,0,0
392,-90,0,0,0,0,0,0,0,0,0,-1,1616,1114,0,0
399,-90,0,0,0,0,0,0,0,0,0,-1,1623,1114,0,0
406,-90,0,0,0,0,0,0,0,0,0,-1,1630,1114,0,0
413,-90,0,0,0,0,0,0,0,0,0,-1,1637,1114,0,0
420,-90,0,0,0,0,0,0,0,0,0,-1,1644,1114,0,0
427,-90,0,0,0,0,0,0,0,0,0,-1,1651,1114,0,0
434,-90,0,0,0,0,0,0,0,0,0,-1,1658,1114,0,0
441,-90,0,0,0,0,0,0,0,0,0,-1,1665,1114,0,0
448,-90,0,0,0,0,0,0,0,0,0,-1,1672,1114,0,0
455,-90,0,0,0,0,0,0,0,0,0,-1,1679,1114,0,0
462,-90,0,0,0,0,0,0,0,0,0,-1,1686,1114,0,0
469,-90,0,0,0,0,0,0,0,0,0,-1,1693,1114,0,0
476,-90,0,0,0,0,0,0,0,0,0,-1,1700,1114,0,0
483,-90,0,0,0,0,0,0,0,0,0,-1,1707,1114,0,0
490,-90,0,0,0,0,0,0,0,0,0,-1,1714,1114,0,0
497,-90,0,0,0,0,0,0,0,0,0,-1,1721,1114,0,0
504,-90,0,0,0,0,0,0,0,0,0,-1,1728,1114,0,0
511,-90,0,0,0,0,0,0,0,0,0,-1,1735,1114,0,0
518,-90,0,0,0,0,0,0,0,0,0,-1,1742,1114,0,0
525,-90,0,0,0,0,0,0,0,0,0,-1,1749,1114,0,0
532,-90,0,0,0,0,0,0,0,0,0,-1,1756,1114,0,0
539,-90,0,0,0,0,0,0,0,0,0,-1,1763,1114,0,0
546,-90,0,0,0,0,0,0,0,0,0,-1,1770,1114,0,0
553,-90,0,0,0,0,0,0,0,0,0,-1,1777,1114,0,0
560,-90,0,0,0,0,0,0,0,0,0,-1,1784,1114,0,0
567,-90,0,0,0,0,0,0,0,0,0,-1,1791,1114,0,0
574,-90,0,0,0,0,0,0,0,0,0,-1,1798,1114,0,0
581,-90,0,0,0,0,0,0,0,0,0,-1,1805,1114,0,0
588,-90,0,0,0,0,0,0,0,0,0,-1,1812,1114,0,0
595,-90,0,0,0,0,0,0,0,0,0,-1,1819,1114,0,0
602,-90,0,0,0,0,0,0,0,0,0,-1,1826,1114,0,0
609,-90,0,0,0,0,0,0,0,0,0,-1,1833,1114,0,0
616,-90,0,0,0,0,0,0,0,0,0,-1,1840,1114,0,0
623,-90,0,0,0,0,0,0,0,0,0,-1,1847,1114,0,0
630,-90,0,0,0,0,0,0,0,0,0,-1,1854,1114,0,0
637,-90,0,0,0,0,0,0,0,0,0,-1,1861,1114,0,0
644,-90,27.4707,3.30737,0.00796568,-0.00430124,-0.00241758,0.00842494,-0.00476051,-0.187732,0.00771,0.0354721,1868,1114,27.4707,-3.30732
651,-90,27.5005,3.28918,0.00658891,-0.00362963,-0.00189859,0.00693027,-0.00397099,-0.177892,0.00637067,0.0389261,1875,1114,27.5005,-3.28917
658,-90,27.4014,3.2063,0.0054911,-0.0029675,-0.00160972,0.00578708,-0.00326348,-0.18184,0.00529262,0.0430033,1882,1114,27.4014,-3.20627
665,-90,27.3112,3.09863,0.0044996,-0.00232691,-0.00137617,0.00476658,-0.0025939,-0.191624,0.00431085,0.0433816,1889,1114,27.3112,-3.0986
672,-90,27.4271,3.19946,0.00318789,-0.00202244,-0.000473116,0.00323051,-0.00206506,-0.0898244,0.00308198,0.0409381,1896,1114,27.4271,-3.19949
679,-90,27.4745,3.50732,0.00168331,-0.00192452,0.00058633,0.00177621,-0.00201742,0.15713,0.00219173,0.0377594,1903,1114,27.4745,-3.50733
686,-90,27.4628,3.60754,0.000278598,-0.00194307,0.00156124,0.00108386,-0.00274833,0.476194,0.00228102,0.0345605,1910,1114,27.4628,-3.60757
693,-90,27.4091,3.44531,-0.000822981,-0.00198438,0.00237714,0.00104337,-0.00385072,0.665602,0.00297653,0.0342987,1917,1114,27.4091,-3.4453
700,-90,27.4135,3.32922,-0.00164719,-0.00196075,0.00294999,0.00115018,-0.00475812,0.75885,0.00361696,0.029978,1924,1114,27.4135,-3.32926
707,-90,27.4054,3.22473,-0.00245366,-0.00185775,0.00347552,0.00133256,-0.00564397,0.828158,0.0042766,0.0239002,1931,1114,27.4054,-3.22476
714,-90,27.379,3.06055,0,0,0,0,0,0,0,-1,1938,1114,27.379,-3.06056
721,-90,26.1941,5.66687,0,0,0,0,0,0,0,-1,1945,1114,26.1941,-5.66683
728,-90,26.1863,5.55566,-0.00347037,-0.00125723,0.00381956,0.00161283,-0.00634043,0.926394,0.0048547,0.0188677,1952,1114,26.1863,-5.55561
735,-90,26.1371,5.40466,-0.00344382,-0.000798057,0.00349611,0.00161708,-0.00585896,0.966267,0.00454199,0.0209308,1959,1114,26.1371,-5.40465
742,-90,26.1641,5.2644,-0.00308476,-0.000273263,0.0033022,0.00190995,-0.00526797,0.98663,0.00429268,0.0188735,1966,1114,26.164,-5.2644
749,-90,26.2344,5.09778,-0.0023919,0.000150819,0.00288734,0.00203431,-0.00427539,0.992786,0.00371871,0.0138578,1973,1114,26.2344,-5.09781
756,-90,26.222,4.9823,-0.00104867,0.000495313,0.00231762,0.00216613,-0.00271948,0.946167,0.00282674,0.0140102,1980,1114,26.2221,-4.98227
763,-90,26.2076,4.86548,0.00107774,0.000726087,0.001627,0.00253839,-0.000734562,0.731573,0.001983,0.0120555,1987,1114,26.2076,-4.86553
770,-90,26.1949,4.75452,0.00364031,0.000921403,0.00076386,0.00384022,0.000721499,0.255962,0.00235675,0.0138849,1994,1114,26.195,-4.7545
777,-90,26.1459,4.67285,0.00670515,0.000464816,0.000445725,0.00673682,0.00043314,0.0709465,0.00435402,0.0134497,2001,1114,26.1459,-4.67283
784,-90,26.1082,4.6217,0.0103642,-0.000472456,0.00032137,0.0103737,-0.000481979,0.0296212,0.00708193,0.0275185,2008,1114,26.1082,-4.62172
791,-90,26.0692,4.57776,0.0150199,-0.00208289,0.000249105,0.0150235,-0.00208651,0.014561,0.0107787,0.0452972,2015,1114,26.0692,-4.57778
798,-90,26.2126,3.92847,0.0211821,-0.00445285,0.00019121,0.0211836,-0.00445427,0.00745838,0.0158176,0.0447643,2022,1114,26.2128,-3.92844
805,-90,27.0813,3.57043,0.0291371,-0.00767271,0.000199258,0.0291382,-0.00767379,0.00541297,0.0224254,0.0444718,2029,1114,27.0812,-3.57044
812,-90,27.1597,3.50586,0.0392414,-0.0117971,0.000384594,0.0392443,-0.0118,0.00753479,0.0308577,0.046324,2036,1114,27.1598,-3.50584
-700,-97,0,0,0,0,0,0,0,0,0,-1,524,1121,0,0
-693,-97,-11.5656,1.42285,0,0,0,0,0,0,0,-1,531,1121,-11.5655,-1.42288
-686,-97,-12.5222,1.48315,-0.020095,0.00750703,-0.0622332,0.0574512,-0.0700391,-0.894514,0.073726,0.0461672,538,1121,-12.5222,-1.48311
-679,-97,-12.6761,2.16711,-0.0131441,0.00345708,-0.0464153,0.0423082,-0.0519952,-0.873879,0.0545417,0.0437387,545,1121,-12.6762,-2.16706
-672,-97,-13.0861,2.70117,-0.00747879,0.0011702,-0.0337979,0.0309191,-0.0372277,-0.849028,0.0394007,0.0479657,552,1121,-13.0861,-2.70113
-665,-97,-17.6127,1.14294,0,0,0,0,0,0,0,-1,559,1121,-17.6127,-1.14294
-658,-97,-17.653,1.41211,-0.000149227,-0.000412563,-0.0162314,0.015951,-0.0165128,-0.781342,0.018744,0.0445146,566,1121,-17.653,-1.41213
-651,-97,-17.6895,1.67712,0.00171039,-0.000443699,-0.0105685,0.0112566,-0.00998989,-0.734618,0.0122739,0.0276347,573,1121,-17.6895,-1.6771
-644,-97,-17.7042,1.91858,0.00251353,-0.000372783,-0.00642835,0.00765873,-0.00551798,-0.674979,0.00764097,0.0104146,580,1121,-17.7042,-1.91854
-637,-97,-17.7068,2.10828,0.00254956,-0.000924325,-0.00421622,0.0053726,-0.00374737,-0.590008,0.00529321,0.0117063,587,1121,-17.7068,-2.10833
-630,-97,-17.7184,2.26929,0.00184955,-0.0010109,-0.00335301,0.00406463,-0.00322597,-0.583807,0.0042185,0.0100684,594,1121,-17.7184,-2.26934
-623,-97,-17.7323,2.43884,0.000793372,-0.00142422,-0.00326704,0.00313464,-0.0037655,-0.621803,0.00398934,0.0109834,601,1121,-17.7323,-2.43882
-616,-97,-17.7293,2.59998,-0.000395325,-0.00114456,-0.00440299,0.00364896,-0.00518884,-0.742959,0.00512826,0.0124175,608,1121,-17.7293,-2.59994
-609,-97,-17.7425,2.76575,-0.00273795,-0.00169845,-0.00611466,0.00391851,-0.00835491,-0.827797,0.00723872,0.0159517,615,1121,-17.7425,-2.7658
-602,-97,-17.7712,2.90381,-0.00423257,-0.00221289,-0.00756903,0.00441337,-0.0108588,-0.851715,0.00907539,0.0147612,622,1121,-17.7712,-2.90375
-595,-97,-17.6948,3.09778,-0.0048362,-0.00259133,-0.00831639,0.00467803,-0.0121056,-0.852476,0.0100013,0.015902,629,1121,-17.6948,-3.09775
-588,-97,-17.7341,3.15442,-0.00493902,-0.00287031,-0.00869364,0.00485029,-0.0126596,-0.844609,0.0104391,0.0323212,636,1121,-17.7341,-3.15444
-581,-97,-18.5805,2.09692,-0.00473918,-0.00296882,-0.00878831,0.00497878,-0.0126868,-0.83559,0.0105179,0.0478781,643,1121,-18.5805,-2.09689
-574,-97,-19.1539,1.12964,0,0,0,0,0,0,0,-1,650,1121,-19.1539,-1.1296
-567,-97,-19.0302,1.42529,-0.00373675,-0.00266052,-0.00811846,0.00493763,-0.0113349,-0.818491,0.00963392,0.035444,657,1121,-19.0302,-1.42534
-560,-97,-18.8689,1.48828,-0.00275719,-0.00225937,-0.0070749,0.004571,-0.00958756,-0.802982,0.00834373,0.0410634,664,1121,-18.8689,-1.48827
-553,-97,-18.7557,1.51318,-0.00147276,-0.00174868,-0.00556749,0.00395848,-0.00717992,-0.773011,0.0065198,0.0456478,671,1121,-18.7557,-1.5132
-546,-97,-18.782,1.16589,0.000173954,-0.00120106,-0.00357147,0.00312349,-0.00415059,-0.690312,0.00421363,0.0458112,678,1121,-18.782,-1.16584
-539,-97,-18.7934,0.970825,0,0,0,0,0,0,0,-1,685,1121,-18.7934,-0.970814
-532,-97,-19.0049,1.24194,0,0,0,0,0,0,0,-1,692,1121,-19.0049,-1.24192
-525,-97,0,0,0,0,0,0,0,0,0,-1,699,1121,0,0
-518,-97,0,0,0,0,0,0,0,0,0,-1,706,1121,0,0
-511,-97,0,0,0,0,0,0,0,0,0,-1,713,1121,0,0
-504,-97,0,0,0,0,0,0,0,0,0,-1,720,1121,0,0
-497,-97,0,0,0,0,0,0,0,0,0,-1,727,1121,0,0
-490,-97,0,0,0,0,0,0,0,0,0,-1,734,1121,0,0
-483,-97,0,0,0,0,0,0,0,0,0,-1,741,1121,0,0
-476,-97,0,0,0,0,0,0,0,0,0,-1,748,1121,0,0
-469,-97,0,0,0,0,0,0,0,0,0,-1,755,1121,0,0
-462,-97,0,0,0,0,0,0,0,0,0,-1,762,1121,0,0
-455,-97,0,0,0,0,0,0,0,0,0,-1,769,1121,0,0
-448,-97,0,0,0,0,0,0,0,0,0,-1,776,1121,0,0
-441,-97,0,0,0,0,0,0,0,0,0,-1,783,1121,0,0
-434,-97,0,0,0,0,0,0,0,0,0,-1,790,1121,0,0
-427,-97,0,0,0,0,0,0,0,0,0,-1,797,1121,0,0
-420,-97,0,0,0,0,0,0,0,0,0,-1,804,1121,0,0
-413,-97,0,0,0,0,0,0,0,0,0,-1,811,1121,0,0
-406,-97,0,0,0,0,0,0,0,0,0,-1,818,1121,0,0
-399,-97,0,0,0,0,0,0,0,0,0,-1,825,1121,0,0
-392,-97,0,0,0,0,0,0,0,0,0,-1,832,1121,0,0
-385,-97,0,0,0,0,0,0,0,0,0,-1,839,1121,0,0
-378,-97,0,0,0,0,0,0,0,0,0,-1,846,1121,0,0
-371,-97,0,0,0,0,0,0,0,0,0,-1,853,1121,0,0
-364,-97,0,0,0,0,0,0,0,0,0,-1,860,1121,0,0
-357,-97,0,0,0,0,0,0,0,0,0,-1,867,1121,0,0
-350,-97,0,0,0,0,0,0,0,0,0,-1,874,1121,0,0
-343,-97,0,0,0,0,0,0,0,0,0,-1,881,1121,0,0
-336,-97,0,0,0,0,0,0,0,0,0,-1,888,1121,0,0
-329,-97,0,0,0,0,0,0,0,0,0,-1,895,1121,0,0
-322,-97,0,0,0,0,0,0,0,0,0,-1,902,1121,0,0
-315,-97,0,0,0,0,0,0,0,0,0,-1,909,1121,0,0
-308,-97,0,0,0,0,0,0,0,0,0,-1,916,1121,0,0
-301,-97,0,0,0,0,0,0,0,0,0,-1,923,1121,0,0
-294,-97,0,0,0,0,0,0,0,0,0,-1,930,1121,0,0
-287,-97,0,0,0,0,0,0,0,0,0,-1,937,1121,0,0
-280,-97,0,0,0,0,0,0,0,0,0,-1,944,1121,0,0
-273,-97,0,0,0,0,0,0,0,0,0,-1,951,1121,0,0
-266,-97,0,0,0,0,0,0,0,0,0,-1,958,1121,0,0
-259,-97,0,0,0,0,0,0,0,0,0,-1,965,1121,0,0
-252,-97,0,0,0,0,0,0,0,0,0,-1,972,1121,0,0
-245,-97,0,0,0,0,0,0,0,0,0,-1,979,1121,0,0
-238,-97,0,0,0,0,0,0,0,0,0,-1,986,1121,0,0
-231,-97,0,0,0,0,0,0,0,0,0,-1,993,1121,0,0
-224,-97,0,0,0,0,0,0,0,0,0,-1,1000,1121,0,0
-217,-97,0,0,0,0,0,0,0,0,0,-1,1007,1121,0,0
-210,-97,0,0,0,0,0,0,0,0,0,-1,1014,1121,0,0
-203,-97,0,0,0,0,0,0,0,0,0,-1,1021,1121,0,0
-196,-97,0,0,0,0,0,0,0,0,0,-1,1028,1121,0,0
-189,-97,0,0,0,0,0,0,0,0,0,-1,1035,1121,0,0
-182,-97,0,0,0,0,0,0,0,0,0,-1,1042,1121,0,0
-175,-97,0,0,0,0,0,0,0,0,0,-1,1049,1121,0,0
-168,-97,0,0,0,0,0,0,0,0,0,-1,1056,1121,0,0
-161,-97,0,0,0,0,0,0,0,0,0,-1,1063,1121,0,0
-154,-97,0,0,0,0,0,0,0,0,0,-1,1070,1121,0,0
-147,-97,0,0,0,0,0,0,0,0,0,-1,1077,1121,0,0
-140,-97,0,0,0,0,0,0,0,0,0,-1,1084,1121,0,0
-133,-97,0,0,0,0,0,0,0,0,0,-1,1091,1121,0,0
-126,-97,0,0,0,0,0,0,0,0,0,-1,1098,1121,0,0
-119,-97,0,0,0,0,0,0,0,0,0,-1,1105,1121,0,0
-112,-97,0,0,0,0,0,0,0,0,0,-1,1112,1121,0,0
-105,-97,0,0,0,0,0,0,0,0,0,-1,1119,1121,0,0
-98,-97,0,0,0,0,0,0,0,0,0,-1,1126,1121,0,0
-91,-97,0,0,0,0,0,0,0,0,0,-1,1133,1121,0,0
-84,-97,0,0,0,0,0,0,0,0,0,-1,1140,1121,0,0
-77,-97,0,0,0,0,0,0,0,0,0,-1,1147,1121,0,0
-70,-97,0,0,0,0,0,0,0,0,0,-1,1154,1121,0,0
-63,-97,0,0,0,0,0,0,0,0,0,-1,1161,1121,0,0
-56,-97,0,0,0,0,0,0,0,0,0,-1,1168,1121,0,0
-49,-97,0,0,0,0,0,0,0,0,0,-1,1175,1121,0,0
-42,-97,0,0,0,0,0,0,0,0,0,-1,1182,1121,0,0
-35,-97,0,0,0,0,0,0,0,0,0,-1,1189,1121,0,0
-28,-97,0,0,0,0,0,0,0,0,0,-1,1196,1121,0,0
-21,-97,0,0,0,0,0,0,0,0,0,-1,1203,1121,0,0
-14,-97,0,0,0,0,0,0,0,0,0,-1,1210,1121,0,0
-7,-97,0,0,0,0,0,0,0,0,0,-1,1217,1121,0,0
0,-97,0,0,0,0,0,0,0,0,0,-1,1224,1121,0,0
7,-97,0,0,0,0,0,0,0,0,0,-1,1231,1121,0,0
14,-97,0,0,0,0,0,0,0,0,0,-1,1238,1121,0,0
21,-97,0,0,0,0,0,0,0,0,0,-1,1245,1121,0,0
28,-97,0,0,0,0,0,0,0,0,0,-1,1252,1121,0,0
35,-97,0,0,0,0,0,0,0,0,0,-1,1259,1121,0,0
42,-97,0,0,0,0,0,0,0,0,0,-1,1266,1121,0,0
49,-97,0,0,0,0,0,0,0,0,0,-1,1273,1121,0,0
56,-97,0,0,0,0,0,0,0,0,0,-1,1280,1121,0,0
63,-97,0,0,0,0,0,0,0,0,0,-1,1287,1121,0,0
70,-97,0,0,0,0,0,0,0,0,0,-1,1294,1121,0,0
77,-97,0,0,0,0,0,0,0,0,0,-1,1301,1121,0,0
84,-97,0,0,0,0,0,0,0,0,0,-1,1308,1121,0,0
91,-97,0,0,0,0,0,0,0,0,0,-1,1315,1121,0,0
98,-97,0,0,0,0,0,0,0,0,0,-1,1322,1121,0,0
105,-97,0,0,0,0,0,0,0,0,0,-1,1329,1121,0,0
112,-97,0,0,0,0,0,0,0,0,0,-1,1336,1121,0,0
119,-97,0,0,0,0,0,0,0,0,0,-1,1343,1121,0,0
126,-97,0,0,0,0,0,0,0,0,0,-1,1350,1121,0,0
133,-97,0,0,0,0,0,0,0,0,0,-1,1357,1121,0,0
140,-97,0,0,0,0,0,0,0,0,0,-1,1364,1121,0,0
147,-97,0,0,0,0,0,0,0,0,0,-1,1371,1121,0,0
154,-97,0,0,0,0,0,0,0,0,0,-1,1378,1121,0,0
161,-97,0,0,0,0,0,0,0,0,0,-1,1385,1121,0,0
168,-97,0,0,0,0,0,0,0,0,0,-1,1392,1121,0,0
175,-97,0,0,0,0,0,0,0,0,0,-1,1399,1121,0,0
182,-97,0,0,0,0,0,0,0,0,0,-1,1406,1121,0,0
189,-97,0,0,0,0,0,0,0,0,0,-1,1413,1121,0,0
196,-97,0,0,0,0,0,0,0,0,0,-1,1420,1121,0,0
203,-97,0,0,0,0,0,0,0,0,0,-1,1427,1121,0,0
210,-97,0,0,0,0,0,0,0,0,0,-1,1434,1121,0,0
217,-97,0,0,0,0,0,0,0,0,0,-1,1441,1121,0,0
224,-97,0,0,0,0,0,0,0,0,0,-1,1448,1121,0,0
231,-97,0,0,0,0,0,0,0,0,0,-1,1455,1121,0,0
238,-97,0,0,0,0,0,0,0,0,0,-1,1462,1121,0,0
245,-97,0,0,0,0,0,0,0,0,0,-1,1469,1121,0,0
252,-97,0,0,0,0,0,0,0,0,0,-1,1476,1121,0,0
259,-97,0,0,0,0,0,0,0,0,0,-1,1483,1121,0,0
266,-97,0,0,0,0,0,0,0,0,0,-1,1490,1121,0,0
273,-97,0,0,0,0,0,0,0,0,0,-1,1497,1121,0,0
280,-97,0,0,0,0,0,0,0,0,0,-1,1504,1121,0,0
287,-97,0,0,0,0,0,0,0,0,0,-1,1511,1121,0,0
294,-97,0,0,0,0,0,0,0,0,0,-1,1518,1121,0,0
301,-97,0,0,0,0,0,0,0,0,0,-1,1525,1121,0,0
308,-97,0,0,0,0,0,0,0,0,0,-1,1532,1121,0,0
315,-97,0,0,0,0,0,0,0,0,0,-1,1539,1121,0,0
322,-97,0,0,0,0,0,0,0,0,0,-1,1546,1121,0,0
329,-97,0,0,0,0,0,0,0,0,0,-1,1553,1121,0,0
336,-97,0,0,0,0,0,0,0,0,0,-1,1560,1121,0,0
343,-97,0,0,0,0,0,0,0,0,0,-1,1567,1121,0,0
350,-97,0,0,0,0,0,0,0,0,0,-1,1574,1121,0,0
357,-97,0,0,0,0,0,0,0,0,0,-1,1581,1121,0,0
364,-97,0,0,0,0,0,0,0,0,0,-1,1588,1121,0,0
371,-97,0,0,0,0,0,0,0,0,0,-1,1595,1121,0,0
378,-97,0,0,0,0,0,0,0,0,0,-1,1602,1121,0,0
385,-97,0,0,0,0,0,0,0,0,0,-1,1609,1121,0,0
392,-97,0,0,0,0,0,0,0,0,0,-1,1616,1121,0,0
399,-97,0,0,0,0,0,0,0,0,0,-1,1623,1121,0,0
406,-97,0,0,0,0,0,0,0,0,0,-1,1630,1121,0,0
413,-97,0,0,0,0,0,0,0,0,0,-1,1637,1121,0,0
420,-97,0,0,0,0,0,0,0,0,0,-1,1644,1121,0,0
427,-97,0,0,0,0,0,0,0,0,0,-1,1651,1121,0,0
434,-97,0,0,0,0,0,0,0,0,0,-1,1658,1121,0,0
441,-97,0,0,0,0,0,0,0,0,0,-1,1665,1121,0,0
448,-97,0,0,0,0,0,0,0,0,0,-1,1672,1121,0,0
455,-97,0,0,0,0,0,0,0,0,0,-1,1679,1121,0,0
462,-97,0,0,0,0,0,0,0,0,0,-1,1686,1121,0,0
469,-97,0,0,0,0,0,0,0,0,0,-1,1693,1121,0,0
476,-97,0,0,0,0,0,0,0,0,0,-1,1700,1121,0,0
483,-97,0,0,0,0,0,0,0,0,0,-1,1707,1121,0,0
490,-97,0,0,0,0,0,0,0,0,0,-1,1714,1121,0,0
497,-97,0,0,0,0,0,0,0,0,0,-1,1721,1121,0,0
504,-97,0,0,0,0,0,0,0,0,0,-1,1728,1121,0,0
511,-97,0,0,0,0,0,0,0,0,0,-1,1735,1121,0,0
518,-97,0,0,0,0,0,0,0,0,0,-1,1742,1121,0,0
525,-97,0,0,0,0,0,0,0,0,0,-1,1749,1121,0,0
532,-97,0,0,0,0,0,0,0,0,0,-1,1756,1121,0,0
539,-97,0,0,0,0,0,0,0,0,0,-1,1763,1121,0,0
546,-97,0,0,0,0,0,0,0,0,0,-1,1770,1121,0,0
553,-97,0,0,0,0,0,0,0,0,0,-1,1777,1121,0,0
560,-97,0,0,0,0,0,0,0,0,0,-1,1784,1121,0,0
567,-97,0,0,0,0,0,0,0,0,0,-1,1791,1121,0,0
574,-97,0,0,0,0,0,0,0,0,0,-1,1798,1121,0,0
581,-97,0,0,0,0,0,0,0,0,0,-1,1805,1121,0,0
588,-97,0,0,0,0,0,0,0,0,0,-1,1812,1121,0,0
595,-97,0,0,0,0,0,0,0,0,0,-1,1819,1121,0,0
602,-97,0,0,0,0,0,0,0,0,0,-1,1826,1121,0,0
609,-97,0,0,0,0,0,0,0,0,0,-1,1833,1121,0,0
616,-97,0,0,0,0,0,0,0,0,0,-1,1840,1121,0,0
623,-97,0,0,0,0,0,0,0,0,0,-1,1847,1121,0,0
630,-97,0,0,0,0,0,0,0,0,0,-1,1854,1121,0,0
637,-97,0,0,0,0,0,0,0,0,0,-1,1861,1121,0,0
644,-97,27.2278,3.40442,0.00605218,-0.00501701,-0.00222791,0.00648377,-0.00544859,-0.191348,0.00689779,0.0380069,1868,1121,27.2278,-3.40444
651,-97,27.3187,3.44568,0.00499798,-0.00419893,-0.00173709,0.00531513,-0.00451609,-0.180592,0.0056823,0.0378947,1875,1121,27.3188,-3.44571
658,-97,27.463,3.33386,0.00419124,-0.00340617,-0.00146835,0.00446516,-0.00368008,-0.184424,0.00470993,0.0395294,1882,1121,27.463,-3.33392
665,-97,27.5645,3.25549,0.00341677,-0.00263432,-0.00120762,0.00364888,-0.00286642,-0.189883,0.00377064,0.0427342,1889,1121,27.5645,-3.25544
672,-97,27.5575,3.27478,0.00224442,-0.00218631,-0.000296057,0.00226411,-0.00220601,-0.0664255,0.0025809,0.0435814,1896,1121,27.5575,-3.27484
679,-97,27.4478,3.47852,0.000879805,-0.00197369,0.00071935,0.00105089,-0.00214478,0.233496,0.0018807,0.0422287,1903,1121,27.4478,-3.47857
686,-97,27.434,3.56494,-0.000395785,-0.0019024,0.0016445,0.00065973,-0.00295791,0.570623,0.0022247,0.0373742,1910,1121,27.4339,-3.56496
693,-97,27.4213,3.4342,-0.00138945,-0.00188296,0.00241191,0.00078829,-0.0040607,0.734422,0.00300457,0.0340364,1917,1121,27.4212,-3.43417
700,-97,27.4158,3.27832,-0.00212048,-0.00181666,0.00294935,0.000984688,-0.00492183,0.811128,0.00365395,0.0277085,1924,1121,27.4158,-3.27827
707,-97,27.3978,3.22363,-0.0028226,-0.00167194,0.00345129,0.00125165,-0.00574619,0.867988,0.00430903,0.0207903,1931,1121,27.3978,-3.2236
714,-97,26.9214,4.40747,0,0,0,0,0,0,0,-1,1938,1121,26.9214,-4.40745
721,-97,26.088,5.66309,0,0,0,0,0,0,0,-1,1945,1121,26.0881,-5.66311
728,-97,26.0803,5.57605,-0.00365573,-0.00107557,0.00377468,0.0016234,-0.0063547,0.950062,0.00486867,0.0176422,1952,1121,26.0803,-5.576
735,-97,26.0458,5.40027,-0.00351933,-0.000667708,0.00343411,0.00162482,-0.00581186,0.982165,0.00451471,0.0182835,1959,1121,26.0458,-5.40021
742,-97,26.0359,5.25317,-0.00305083,-0.000191967,0.00324082,0.00192066,-0.00516346,0.9931,0.00423044,0.015091,1966,1121,26.0359,-5.25318
749,-97,26.0552,5.10876,-0.00223781,0.0002004,0.00280184,0.00203687,-0.00407428,0.990598,0.00359304,0.0178876,1973,1121,26.0552,-5.10875
756,-97,26.0719,4.96729,-0.000768409,0.000485893,0.0021602,0.00210814,-0.00239065,0.926675,0.00259909,0.0152338,1980,1121,26.0718,-4.96732
763,-97,26.0511,4.854,0.00149197,0.000622539,0.00136577,0.00249054,-0.000376037,0.631323,0.00179886,0.0118825,1987,1121,26.0511,-4.85402
770,-97,26.0353,4.74805,0.00417013,0.000680403,0.000408734,0.00421736,0.00063317,0.11505,0.00262609,0.00934744,1994,1121,26.0353,-4.74799
777,-97,26.033,4.62646,0.00723072,9.05218e-05,-8.34892e-05,0.00723169,8.95457e-05,-0.0116907,0.00479156,0.0123717,2001,1121,26.033,-4.6265
784,-97,26.0039,4.52844,0.0108784,-0.00102119,-0.000475329,0.0108974,-0.00104015,-0.0398602,0.0076353,0.0320062,2008,1121,26.0039,-4.52846
791,-97,25.9215,4.42603,0.0154947,-0.00284171,-0.000975487,0.0155465,-0.00289346,-0.0530001,0.0114513,0.0443418,2015,1121,25.9215,-4.42606
798,-97,25.8937,4.07397,0.0214944,-0.00546355,-0.00166542,0.0215969,-0.00556604,-0.061467,0.0165679,0.0422652,2022,1121,25.8937,-4.07396
805,-97,26.5115,3.91235,0.0290565,-0.00898312,-0.00255605,0.0292275,-0.0091541,-0.0667943,0.0231478,0.0433899,2029,1121,26.5114,-3.91236
812,-97,27.3384,3.3894,0.0384189,-0.0134543,-0.00363049,0.0386718,-0.0137071,-0.0695361,0.031365,0.0452385,2036,1121,27.3383,-3.38939
-700,-104,0,0,0,0,0,0,0,0,0,-1,524,1128,0,0
-693,-104,-10.7307,1.07764,0,0,0,0,0,0,0,-1,531,1128,-10.7307,-1.07759
-686,-104,-11.5264,1.51794,-0.0170854,0.00178379,-0.0624561,0.0555138,-0.0708155,-0.860361,0.0731144,0.0454455,538,1128,-11.5264,-1.518
-679,-104,-11.5041,1.68469,-0.00845044,-0.000780715,-0.0463279,0.0418707,-0.0511019,-0.826692,0.0537659,0.0428622,545,1128,-11.5041,-1.68474
-672,-104,-12.1209,2.8595,0,0,0,0,0,0,0,-1,552,1128,-12.1209,-2.85955
-665,-104,-17.6665,1.66211,0,0,0,0,0,0,0,-1,559,1128,-17.6665,-1.66207
-658,-104,-17.5475,1.87646,0.00453562,-0.00166731,-0.0158751,0.0176094,-0.0147411,-0.68893,0.018702,0.0433129,566,1128,-17.5475,-1.87644
-651,-104,-17.5049,1.77673,0.00562081,-0.00114217,-0.0102565,0.0130388,-0.00856021,-0.626163,0.0125593,0.0346484,573,1128,-17.505,-1.77679
-644,-104,-17.5225,1.9093,0.00564197,-0.000692516,-0.00619559,0.00943294,-0.00448349,-0.549111,0.00820229,0.0139036,580,1128,-17.5225,-1.9093
-637,-104,-17.5016,2.08508,0.00493684,-0.000819366,-0.00390939,0.00691331,-0.00279583,-0.468092,0.00577115,0.0104029,587,1128,-17.5016,-2.08512
-630,-104,-17.5197,2.24316,0.00357752,-0.000804852,-0.00291019,0.0050292,-0.00225654,-0.46271,0.00430676,0.0128531,594,1128,-17.5197,-2.2432
-623,-104,-17.5389,2.42957,0.00197379,-0.00105276,-0.00268752,0.00354479,-0.00262376,-0.528986,0.00357462,0.0145668,601,1128,-17.5389,-2.4296
-616,-104,-17.6076,2.62585,0.00044768,-0.000751366,-0.00361168,0.00350926,-0.00381294,-0.70315,0.00422868,0.0157946,608,1128,-17.6076,-2.62582
-609,-104,-17.677,2.73633,-0.00194459,-0.00127279,-0.00508505,0.00348744,-0.00670482,-0.818379,0.00598143,0.0194632,615,1128,-17.677,-2.73628
-602,-104,-17.5898,2.91614,-0.00340745,-0.00177274,-0.0064092,0.00387101,-0.0090512,-0.84882,0.00765786,0.0168017,622,1128,-17.5898,-2.9162
-595,-104,-17.5148,3.14783,-0.00392927,-0.00210699,-0.00707521,0.0041155,-0.0101518,-0.849435,0.00847939,0.015427,629,1128,-17.5148,-3.14781
-588,-104,-17.627,3.22107,-0.00399056,-0.00231966,-0.0073934,0.00428535,-0.0105956,-0.841659,0.00884523,0.0363608,636,1128,-17.6269,-3.22109
-581,-104,-17.8004,3.07373,0,0,0,0,0,0,0,-1,643,1128,-17.8004,-3.07372
-574,-104,-18.9615,1.41443,0,0,0,0,0,0,0,-1,650,1128,-18.9616,-1.41443
-567,-104,-18.864,1.53186,-0.00309176,-0.0020394,-0.00713594,0.00458973,-0.00972089,-0.8222,0.00843742,0.036952,657,1128,-18.864,-1.53192
-560,-104,-18.7164,1.44116,-0.00239017,-0.00167722,-0.00639639,0.00437262,-0.00844001,-0.813235,0.0075206,0.0415462,664,1128,-18.7164,-1.44122
-553,-104,-18.9114,1.37891,-0.00149081,-0.00124329,-0.0052917,0.0039261,-0.00666019,-0.79709,0.00617957,0.0465001,671,1128,-18.9114,-1.37893
-546,-104,-19.0834,1.25366,-0.000365689,-0.000817536,-0.00379266,0.00320777,-0.004391,-0.755649,0.00440485,0.0463634,678,1128,-19.0834,-1.2536
-539,-104,-19.1115,1.41187,0.00111836,-0.000551364,-0.00198317,0.00243524,-0.00186824,-0.58617,0.00249179,0.0396527,685,1128,-19.1115,-1.4119
-532,-104,-19.1578,1.38062,0.00216484,-0.0013243,-0.00134806,0.00262499,-0.00178445,-0.328941,0.00256116,0.0388197,692,1128,-19.1578,-1.38056
-525,-104,-18.9744,1.38989,0.000287737,-0.00251304,-0.00375452,0.00289453,-0.00511983,-0.606896,0.00468617,0.0388234,699,1128,-18.9744,-1.3899
-518,-104,0,0,0,0,0,0,0,0,0,-1,706,1128,0,0
-511,-104,0,0,0,0,0,0,0,0,0,-1,713,1128,0,0
-504,-104,0,0,0,0,0,0,0,0,0,-1,720,1128,0,0
-497,-104,0,0,0,0,0,0,0,0,0,-1,727,1128,0,0
-490,-104,0,0,0,0,0,0,0,0,0,-1,734,1128,0,0
-483,-104,0,0,0,0,0,0,0,0,0,-1,741,1128,0,0
-476,-104,0,0,0,0,0,0,0,0,0,-1,748,1128,0,0
-469,-104,0,0,0,0,0,0,0,0,0,-1,755,1128,0,0
-462,-104,0,0,0,0,0,0,0,0,0,-1,762,1128,0,0
-455,-104,0,0,0,0,0,0,0,0,0,-1,769,1128,0,0
-448,-104,0,0,0,0,0,0,0,0,0,-1,776,1128,0,0
-441,-104,0,0,0,0,0,0,0,0,0,-1,783,1128,0,0
-434,-104,0,0,0,0,0,0,0,0,0,-1,790,1128,0,0
-427,-104,0,0,0,0,0,0,0,0,0,-1,797,1128,0,0
-420,-104,0,0,0,0,0,0,0,0,0,-1,804,1128,0,0
-413,-104,0,0,0,0,0,0,0,0,0,-1,811,1128,0,0
-406,-104,0,0,0,0,0,0,0,0,0,-1,818,1128,0,0
-399,-104,0,0,0,0,0,0,0,0,0,-1,825,1128,0,0
-392,-104,0,0,0,0,0,0,0,0,0,-1,832,1128,0,0
-385,-104,0,0,0,0,0,0,0,0,0,-1,839,1128,0,0
-378,-104,0,0,0,0,0,0,0,0,0,-1,846,1128,0,0
-371,-104,0,0,0,0,0,0,0,0,0,-1,853,1128,0,0
-364,-104,0,0,0,0,0,0,0,0,0,-1,860,1128,0,0
-357,-104,0,0,0,0,0,0,0,0,0,-1,867,1128,0,0
-350,-104,0,0,0,0,0,0,0,0,0,-1,874,1128,0,0
-343,-104,0,0,0,0,0,0,0,0,0,-1,881,1128,0,0
-336,-104,0,0,0,0,0,0,0,0,0,-1,888,1128,0,0
-329,-104,0,0,0,0,0,0,0,0,0,-1,895,1128,0,0
-322,-104,0,0,0,0,0,0,0,0,0,-1,902,1128,0,0
-315,-104,0,0,0,0,0,0,0,0,0,-1,909,1128,0,0
-308,-104,0,0,0,0,0,0,0,0,0,-1,916,1128,0,0
-301,-104,0,0,0,0,0,0,0,0,0,-1,923,1128,0,0
-294,-104,0,0,0,0,0,0,0,0,0,-1,930,1128,0,0
-287,-104,0,0,0,0,0,0,0,0,0,-1,937,1128,0,0
-280,-104,0,0,0,0,0,0,0,0,0,-1,944,1128,0,0
-273,-104,0,0,0,0,0,0,0,0,0,-1,951,1128,0,0
-266,-104,0,0,0,0,0,0,0,0,0,-1,958,1128,0,0
-259,-104,0,0,0,0,0,0,0,0,0,-1,965,1128,0,0
-252,-104,0,0,0,0,0,0,0,0,0,-1,972,1128,0,0
-245,-104,0,0,0,0,0,0,0,0,0,-1,979,1128,0,0
-238,-104,0,0,0,0,0,0,0,0,0,-1,986,1128,0,0
-231,-104,0,0,0,0,0,0,0,0,0,-1,993,1128,0,0
-224,-104,0,0,0,0,0,0,0,0,0,-1,1000,1128,0,0
-217,-104,0,0,0,0,0,0,0,0,0,-1,1007,1128,0,0
-210,-104,0,0,0,0,0,0,0,0,0,-1,1014,1128,0,0
-203,-104,0,0,0,0,0,0,0,0,0,-1,1021,1128,0,0
-196,-104,0,0,0,0,0,0,0,0,0,-1,1028,1128,0,0
-189,-104,0,0,0,0,0,0,0,0,0,-1,1035,1128,0,0
-182,-104,0,0,0,0,0,0,0,0,0,-1,1042,1128,0,0
-175,-104,0,0,0,0,0,0,0,0,0,-1,1049,1128,0,0
-168,-104,0,0,0,0,0,0,0,0,0,-1,1056,1128,0,0
-161,-104,0,0,0,0,0,0,0,0,0,-1,1063,1128,0,0
-154,-104,0,0,0,0,0,0,0,0,0,-1,1070,1128,0,0
-147,-104,0,0,0,0,0,0,0,0,0,-1,1077,1128,0,0
-140,-104,0,0,0,0,0,0,0,0,0,-1,1084,1128,0,0
-133,-104,0,0,0,0,0,0,0,0,0,-1,1091,1128,0,0
-126,-104,0,0,0,0,0,0,0,0,0,-1,1098,1128,0,0
-119,-104,0,0,0,0,0,0,0,0,0,-1,1105,1128,0,0
-112,-104,0,0,0,0,0,0,0,0,0,-1,1112,1128,0,0
-105,-104,0,0,0,0,0,0,0,0,0,-1,1119,1128,0,0
-98,-104,0,0,0,0,0,0,0,0,0,-1,1126,1128,0,0
-91,-104,0,0,0,0,0,0,0,0,0,-1,1133,1128,0,0
-84,-104,0,0,0,0,0,0,0,0,0,-1,1140,1128,0,0
-77,-104,0,0,0,0,0,0,0,0,0,-1,1147,1128,0,0
-70,-104,0,0,0,0,0,0,0,0,0,-1,1154,1128,0,0
-63,-104,0,0,0,0,0,0,0,0,0,-1,1161,1128,0,0
-56,-104,0,0,0,0,0,0,0,0,0,-1,1168,1128,0,0
-49,-104,0,0,0,0,0,0,0,0,0,-1,1175,1128,0,0
-42,-104,0,0,0,0,0,0,0,0,0,-1,1182,1128,0,0
-35,-104,0,0,0,0,0,0,0,0,0,-1,1189,1128,0,0
-28,-104,0,0,0,0,0,0,0,0,0,-1,1196,1128,0,0
-21,-104,0,0,0,0,0,0,0,0,0,-1,1203,1128,0,0
-14,-104,0,0,0,0,0,0,0,0,0,-1,1210,1128,0,0
-7,-104,0,0,0,0,0,0,0,0,0,-1,1217,1128,0,0
0,-104,0,0,0,0,0,0,0,0,0,-1,1224,1128,0,0
7,-104,0,0,0,0,0,0,0,0,0,-1,1231,1128,0,0
14,-104,0,0,0,0,0,0,0,0,0,-1,1238,1128,0,0
21,-104,0,0,0,0,0,0,0,0,0,-1,1245,1128,0,0
28,-104,0,0,0,0,0,0,0,0,0,-1,1252,1128,0,0
35,-104,0,0,0,0,0,0,0,0,0,-1,1259,1128,0,0
42,-104,0,0,0,0,0,0,0,0,0,-1,1266,1128,0,0
49,-104,0,0,0,0,0,0,0,0,0,-1,1273,1128,0,0
56,-104,0,0,0,0,0,0,0,0,0,-1,1280,1128,0,0
63,-104,0,0,0,0,0,0,0,0,0,-1,1287,1128,0,0
70,-104,0,0,0,0,0,0,0,0,0,-1,1294,1128,0,0
77,-104,0,0,0,0,0,0,0,0,0,-1,1301,1128,0,0
84,-104,0,0,0,0,0,0,0,0,0,-1,1308,1128,0,0
91,-104,0,0,0,0,0,0,0,0,0,-1,1315,1128,0,0
98,-104,0,0,0,0,0,0,0,0,0,-1,1322,1128,0,0
105,-104,0,0,0,0,0,0,0,0,0,-1,1329,1128,0,0
112,-104,0,0,0,0,0,0,0,0,0,-1,1336,1128,0,0
119,-104,0,0,0,0,0,0,0,0,0,-1,1343,1128,0,0
126,-104,0,0,0,0,0,0,0,0,0,-1,1350,1128,0,0
133,-104,0,0,0,0,0,0,0,0,0,-1,1357,1128,0,0
140,-104,0,0,0,0,0,0,0,0,0,-1,1364,1128,0,0
147,-104,0,0,0,0,0,0,0,0,0,-1,1371,1128,0,0
154,-104,0,0,0,0,0,0,0,0,0,-1,1378,1128,0,0
161,-104,0,0,0,0,0,0,0,0,0,-1,1385,1128,0,0
168,-104,0,0,0,0,0,0,0,0,0,-1,1392,1128,0,0
175,-104,0,0,0,0,0,0,0,0,0,-1,1399,1128,0,0
182,-104,0,0,0,0,0,0,0,0,0,-1,1406,1128,0,0
189,-104,0,0,0,0,0,0,0,0,0,-1,1413,1128,0,0
196,-104,0,0,0,0,0,0,0,0,0,-1,1420,1128,0,0
203,-104,0,0,0,0,0,0,0,0,0,-1,1427,1128,0,0
210,-104,0,0,0,0,0,0,0,0,0,-1,1434,1128,0,0
217,-104,0,0,0,0,0,0,0,0,0,-1,1441,1128,0,0
224,-104,0,0,0,0,0,0,0,0,0,-1,1448,1128,0,0
231,-104,0,0,0,0,0,0,0,0,0,-1,1455,1128,0,0
238,-104,0,0,0,0,0,0,0,0,0,-1,1462,1128,0,0
245,-104,0,0,0,0,0,0,0,0,0,-1,1469,1128,0,0
252,-104,0,0,0,0,0,0,0,0,0,-1,1476,1128,0,0
259,-104,0,0,0,0,0,0,0,0,0,-1,1483,1128,0,0
266,-104,0,0,0,0,0,0,0,0,0,-1,1490,1128,0,0
273,-104,0,0,0,0,0,0,0,0,0,-1,1497,1128,0,0
280,-104,0,0,0,0,0,0,0,0,0,-1,1504,1128,0,0
287,-104,0,0,0,0,0,0,0,0,0,-1,1511,1128,0,0
294,-104,0,0,0,0,0,0,0,0,0,-1,1518,1128,0,0
301,-104,0,0,0,0,0,0,0,0,0,-1,1525,1128,0,0
308,-104,0,0,0,0,0,0,0,0,0,-1,1532,1128,0,0
315,-104,0,0,0,0,0,0,0,0,0,-1,1539,1128,0,0
322,-104,0,0,0,0,0,0,0,0,0,-1,1546,1128,0,0
329,-104,0,0,0,0,0,0,0,0,0,-1,1553,1128,0,0
336,-104,0,0,0,0,0,0,0,0,0,-1,1560,1128,0,0
343,-104,0,0,0,0,0,0,0,0,0,-1,1567,1128,0,0
350,-104,0,0,0,0,0,0,0,0,0,-1,1574,1128,0,0
357,-104,0,0,0,0,0,0,0,0,0,-1,1581,1128,0,0
364,-104,0,0,0,0,0,0,0,0,0,-1,1588,1128,0,0
371,-104,0,0,0,0,0,0,0,0,0,-1,1595,1128,0,0
378,-104,0,0,0,0,0,0,0,0,0,-1,1602,1128,0,0
385,-104,0,0,0,0,0,0,0,0,0,-1,1609,1128,0,0
392,-104,0,0,0,0,0,0,0,0,0,-1,1616,1128,0,0
399,-104,0,0,0,0,0,0,0,0,0,-1,1623,1128,0,0
406,-104,0,0,0,0,0,0,0,0,0,-1,1630,1128,0,0
413,-104,0,0,0,0,0,0,0,0,0,-1,1637,1128,0,0
420,-104,0,0,0,0,0,0,0,0,0,-1,1644,1128,0,0
427,-104,0,0,0,0,0,0,0,0,0,-1,1651,1128,0,0
434,-104,0,0,0,0,0,0,0,0,0,-1,1658,1128,0,0
441,-104,0,0,0,0,0,0,0,0,0,-1,1665,1128,0,0
448,-104,0,0,0,0,0,0,0,0,0,-1,1672,1128,0,0
455,-104,0,0,0,0,0,0,0,0,0,-1,1679,1128,0,0
462,-104,0,0,0,0,0,0,0,0,0,-1,1686,1128,0,0
469,-104,0,0,0,0,0,0,0,0,0,-1,1693,1128,0,0
476,-104,0,0,0,0,0,0,0,0,0,-1,1700,1128,0,0
483,-104,0,0,0,0,0,0,0,0,0,-1,1707,1128,0,0
490,-104,0,0,0,0,0,0,0,0,0,-1,1714,1128,0,0
497,-104,0,0,0,0,0,0,0,0,0,-1,1721,1128,0,0
504,-104,0,0,0,0,0,0,0,0,0,-1,1728,1128,0,0
511,-104,0,0,0,0,0,0,0,0,0,-1,1735,1128,0,0
518,-104,0,0,0,0,0,0,0,0,0,-1,1742,1128,0,0
525,-104,0,0,0,0,0,0,0,0,0,-1,1749,1128,0,0
532,-104,0,0,0,0,0,0,0,0,0,-1,1756,1128,0,0
539,-104,0,0,0,0,0,0,0,0,0,-1,1763,1128,0,0
546,-104,0,0,0,0,0,0,0,0,0,-1,1770,1128,0,0
553,-104,0,0,0,0,0,0,0,0,0,-1,1777,1128,0,0
560,-104,0,0,0,0,0,0,0,0,0,-1,1784,1128,0,0
567,-104,0,0,0,0,0,0,0,0,0,-1,1791,1128,0,0
574,-104,0,0,0,0,0,0,0,0,0,-1,1798,1128,0,0
581,-104,0,0,0,0,0,0,0,0,0,-1,1805,1128,0,0
588,-104,0,0,0,0,0,0,0,0,0,-1,1812,1128,0,0
595,-104,0,0,0,0,0,0,0,0,0,-1,1819,1128,0,0
602,-104,0,0,0,0,0,0,0,0,0,-1,1826,1128,0,0
609,-104,0,0,0,0,0,0,0,0,0,-1,1833,1128,0,0
616,-104,0,0,0,0,0,0,0,0,0,-1,1840,1128,0,0
623,-104,0,0,0,0,0,0,0,0,0,-1,1847,1128,0,0
630,-104,0,0,0,0,0,0,0,0,0,-1,1854,1128,0,0
637,-104,0,0,0,0,0,0,0,0,0,-1,1861,1128,0,0
644,-104,27.0963,3.58887,0.00506504,-0.00513258,-0.00220817,0.00552266,-0.0055902,-0.204345,0.00641605,0.0364946,1868,1128,27.0964,-3.58882
651,-104,27.1554,3.60571,0.00420128,-0.00428807,-0.00171462,0.0045345,-0.0046213,-0.191952,0.00528618,0.0368273,1875,1128,27.1554,-3.60572
658,-104,27.5052,3.34875,0.00354762,-0.00346482,-0.00143743,0.00383083,-0.00374803,-0.194534,0.00437574,0.0402486,1882,1128,27.5053,-3.34874
665,-104,27.7373,3.35742,0.002853,-0.00265851,-0.0011177,0.00307104,-0.00287655,-0.192658,0.00343445,0.0427004,1889,1128,27.7373,-3.35746
672,-104,27.6,3.27747,0.00174115,-0.00215252,-0.000190281,0.00175043,-0.0021618,-0.0487144,0.00226289,0.0430604,1896,1128,27.5999,-3.27748
679,-104,27.4622,3.40735,0.000467477,-0.00188629,0.00078374,0.000704561,-0.00212337,0.293752,0.00169983,0.0408855,1903,1128,27.4621,-3.40733
686,-104,27.4143,3.37402,-0.000721405,-0.0017676,0.00165785,0.000493911,-0.00298292,0.632577,0.00217205,0.0388772,1910,1128,27.4143,-3.37397
693,-104,27.4041,3.22705,-0.00163504,-0.00171244,0.0023717,0.000698279,-0.00404575,0.77724,0.00295753,0.0353834,1917,1128,27.4041,-3.22706
700,-104,27.442,3.22864,-0.00229459,-0.00162252,0.00287672,0.000937729,-0.00485483,0.84354,0.00359019,0.0278744,1924,1128,27.442,-3.22866
707,-104,27.4132,3.34412,0,0,0,0,0,0,0,-1,1931,1128,27.4132,-3.34409
714,-104,26.7584,4.53857,-0.00343007,-0.00133581,0.00372265,0.00148418,-0.00625006,0.922498,0.00473954,0.049672,1938,1128,26.7584,-4.53859
721,-104,26.0226,5.67981,-0.00364861,-0.00110167,0.00384691,0.00167707,-0.00642735,0.945239,0.00493975,0.0315123,1945,1128,26.0226,-5.67975
728,-104,25.9883,5.56287,-0.00368816,-0.0008682,0.00367371,0.00165681,-0.00621317,0.968631,0.00479085,0.0211305,1952,1128,25.9883,-5.56292
735,-104,25.9554,5.38379,-0.00346874,-0.000502619,0.00332005,0.00165056,-0.00562192,0.995451,0.0044025,0.0204001,1959,1128,25.9555,-5.38375
742,-104,25.885,5.24292,-0.00291492,-7.28339e-05,0.00311575,0.00193063,-0.00491839,0.999349,0.00407777,0.0138975,1966,1128,25.885,-5.24288
749,-104,25.869,5.11462,-0.00201726,0.000318892,0.00263441,0.00203257,-0.00373094,0.994071,0.00337538,0.0175711,1973,1128,25.869,-5.11467
756,-104,25.8931,4.96631,-0.000483107,0.000581635,0.00191074,0.00203278,-0.00193426,0.921263,0.00229061,0.0167007,1980,1128,25.8931,-4.96633
763,-104,25.8887,4.84338,0.00181426,0.000657136,0.00099233,0.00238437,8.70234e-05,0.521472,0.00156138,0.0143509,1987,1128,25.8887,-4.84343
770,-104,25.8799,4.73059,0.00447618,0.000611888,-6.07993e-05,0.00447713,0.000610932,-0.0157285,0.00280339,0.0112588,1994,1128,25.8798,-4.73058
777,-104,25.8727,4.59717,0.00741479,-5.7467e-05,-0.000735075,0.00748641,-0.000129092,-0.0971333,0.00503452,0.0178891,2001,1128,25.8726,-4.59714
784,-104,25.8217,4.49719,0.010905,-0.00128701,-0.00142274,0.0110688,-0.00145083,-0.114643,0.00790729,0.0382104,2008,1128,25.8217,-4.49722
791,-104,25.7526,4.44885,0.015266,-0.0032553,-0.00237769,0.0155663,-0.00355566,-0.125662,0.0117436,0.0478173,2015,1128,25.7525,-4.44889
798,-104,25.6589,4.27808,0.0208067,-0.00606702,-0.00371748,0.0213114,-0.00657179,-0.134956,0.0168315,0.0469594,2022,1128,25.659,-4.27807
805,-104,25.6272,4.06995,0,0,0,0,0,0,0,-1,2029,1128,25.6272,-4.06999
812,-104,25.4465,3.31995,0,0,0,0,0,0,0,-1,2036,1128,25.4466,-3.31992
-700,-111,0,0,0,0,0,0,0,0,0,-1,524,1135,0,0
-693,-111,-10.2747,1.2865,0,0,0,0,0,0,0,-1,531,1135,-10.2747,-1.28645
-686,-111,-10.2668,1.65417,-0.0159809,0.00125478,-0.061623,0.0548597,-0.0695858,-0.854871,0.0720161,0.0460693,538,1135,-10.2669,-1.65418
-679,-111,-10.4294,1.69202,-0.00515795,-0.000694617,-0.0455157,0.0426441,-0.0484966,-0.809894,0.0526563,0.0433808,545,1135,-10.4294,-1.69197
-672,-111,-19.7257,-1.16614,0,0,0,0,0,0,0,-1,552,1135,-19.7257,1.1662
-665,-111,-19.575,-0.0808105,0.00626248,-0.00124022,-0.0229805,0.0257958,-0.0207736,-0.704491,0.0269389,0.0489813,559,1135,-19.5749,0.0808465
-658,-111,-17.1372,2.20691,0.00834685,-0.000804229,-0.0154935,0.0199263,-0.0123837,-0.641819,0.0188228,0.0453889,566,1135,-17.1372,-2.20685
-651,-111,-17.1326,1.91516,0.00878073,-0.000278502,-0.0100009,0.01523,-0.00672775,-0.572758,0.0129902,0.037382,573,1135,-17.1326,-1.91513
-644,-111,-17.291,1.91174,0.00812573,0.000119564,-0.00605416,0.0113806,-0.00313528,-0.49329,0.0088199,0.0230243,580,1135,-17.291,-1.91179
-637,-111,-17.3277,2.09106,0.00683576,-2.08574e-05,-0.00374106,0.00848178,-0.00166688,-0.414497,0.00628427,0.00928316,587,1135,-17.3277,-2.09102
-630,-111,-17.3359,2.2146,0.00502436,-0.000134981,-0.00252042,0.00605125,-0.00116186,-0.38689,0.00447205,0.014848,594,1135,-17.336,-2.2146
-623,-111,-17.3521,2.40198,0.00304316,-0.000401748,-0.00209526,0.00403308,-0.00139167,-0.441371,0.00325338,0.0132963,601,1135,-17.3521,-2.40198
-616,-111,-17.4171,2.58606,0.00125724,-0.000223962,-0.00276473,0.00337885,-0.00234557,-0.654533,0.00332289,0.0141963,608,1135,-17.4171,-2.58604
-609,-111,-17.5242,2.76587,-0.00111171,-0.000748678,-0.00402633,0.00310022,-0.00496061,-0.807924,0.00469506,0.0189424,615,1135,-17.5242,-2.76584
-602,-111,-17.4777,2.92712,-0.00246508,-0.00126528,-0.00521497,0.00338418,-0.00711454,-0.842663,0.00618767,0.0192925,622,1135,-17.4777,-2.92712
-595,-111,-17.3891,3.15308,-0.00288379,-0.00157878,-0.00582113,0.0036263,-0.00808887,-0.841212,0.00692539,0.0129899,629,1135,-17.3891,-3.15309
-588,-111,-17.3458,3.32629,-0.00289889,-0.00176342,-0.00609623,0.00379145,-0.00845376,-0.831828,0.00723858,0.0382916,636,1135,-17.3458,-3.32624
-581,-111,-17.3042,3.2644,0,0,0,0,0,0,0,-1,643,1135,-17.3042,-3.26443
-574,-111,-18.991,1.55762,0,0,0,0,0,0,0,-1,650,1135,-18.991,-1.55768
-567,-111,-18.8505,1.50366,-0.00221349,-0.00150395,-0.00611606,0.00426762,-0.00798507,-0.814369,0.0071818,0.0395818,657,1135,-18.8505,-1.50366
-560,-111,-18.7869,1.47021,-0.00177072,-0.00119889,-0.00565215,0.00417457,-0.00714418,-0.810669,0.00660942,0.0406258,664,1135,-18.7869,-1.47022
-553,-111,-19.0001,1.50513,-0.00124174,-0.000842154,-0.00492421,0.00388632,-0.00597021,-0.805674,0.00573291,0.0455201,671,1135,-19.0001,-1.50515
-546,-111,-19.1043,1.55396,-0.000626436,-0.000516999,-0.00390833,0.00333699,-0.00448043,-0.792398,0.00452945,0.0411497,678,1135,-19.1043,-1.55397
-539,-111,-19.0443,1.61536,0.000205128,-0.000364339,-0.00261613,0.00255197,-0.00271119,-0.731193,0.00303915,0.0387285,685,1135,-19.0443,-1.61531
-532,-111,-19.1125,1.51074,0.000901828,-0.00108654,-0.00207972,0.00221278,-0.00239749,-0.562436,0.00266245,0.0380955,692,1135,-19.1125,-1.51077
-525,-111,-19.1337,1.28699,-0.000503466,-0.0021598,-0.00397121,0.00272501,-0.00538828,-0.6826,0.0047676,0.0398154,699,1135,-19.1337,-1.28693
-518,-111,0,0,0,0,0,0,0,0,0,-1,706,1135,0,0
-511,-111,0,0,0,0,0,0,0,0,0,-1,713,1135,0,0
-504,-111,0,0,0,0,0,0,0,0,0,-1,720,1135,0,0
-497,-111,0,0,0,0,0,0,0,0,0,-1,727,1135,0,0
-490,-111,0,0,0,0,0,0,0,0,0,-1,734,1135,0,0
-483,-111,0,0,0,0,0,0,0,0,0,-1,741,1135,0,0
-476,-111,0,0,0,0,0,0,0,0,0,-1,748,1135,0,0
-469,-111,0,0,0,0,0,0,0,0,0,-1,755,1135,0,0
-462,-111,0,0,0,0,0,0,0,0,0,-1,762,1135,0,0
-455,-111,0,0,0,0,0,0,0,0,0,-1,769,1135,0,0
-448,-111,0,0,0,0,0,0,0,0,0,-1,776,1135,0,0
-441,-111,0,0,0,0,0,0,0,0,0,-1,783,1135,0,0
-434,-111,0,0,0,0,0,0,0,0,0,-1,790,1135,0,0
-427,-111,0,0,0,0,0,0,0,0,0,-1,797,1135,0,0
-420,-111,0,0,0,0,0,0,0,0,0,-1,804,1135,0,0
-413,-111,0,0,0,0,0,0,0,0,0,-1,811,1135,0,0
-406,-111,0,0,0,0,0,0,0,0,0,-1,818,1135,0,0
-399,-111,0,0,0,0,0,0,0,0,0,-1,825,1135,0,0
-392,-111,0,0,0,0,0,0,0,0,0,-1,832,1135,0,0
-385,-111,0,0,0,0,0,0,0,0,0,-1,839,1135,0,0
-378,-111,0,0,0,0,0,0,0,0,0,-1,846,1135,0,0
-371,-111,0,0,0,0,0,0,0,0,0,-1,853,1135,0,0
-364,-111,0,0,0,0,0,0,0,0,0,-1,860,1135,0,0
-357,-111,0,0,0,0,0,0,0,0,0,-1,867,1135,0,0
-350,-111,0,0,0,0,0,0,0,0,0,-1,874,1135,0,0
-343,-111,0,0,0,0,0,0,0,0,0,-1,881,1135,0,0
-336,-111,0,0,0,0,0,0,0,0,0,-1,888,1135,0,0
-329,-111,0,0,0,0,0,0,0,0,0,-1,895,1135,0,0
-322,-111,0,0,0,0,0,0,0,0,0,-1,902,1135,0,0
-315,-111,0,0,0,0,0,0,0,0,0,-1,909,1135,0,0
-308,-111,0,0,0,0,0,0,0,0,0,-1,916,1135,0,0
-301,-111,0,0,0,0,0,0,0,0,0,-1,923,1135,0,0
-294,-111,0,0,0,0,0,0,0,0,0,-1,930,1135,0,0
-287,-111,0,0,0,0,0,0,0,0,0,-1,937,1135,0,0
-280,-111,0,0,0,0,0,0,0,0,0,-1,944,1135,0,0
-273,-111,0,0,0,0,0,0,0,0,0,-1,951,1135,0,0
-266,-111,0,0,0,0,0,0,0,0,0,-1,958,1135,0,0
-259,-111,0,0,0,0,0,0,0,0,0,-1,965,1135,0,0
-252,-111,0,0,0,0,0,0,0,0,0,-1,972,1135,0,0
-245,-111,0,0,0,0,0,0,0,0,0,-1,979,1135,0,0
-238,-111,0,0,0,0,0,0,0,0,0,-1,986,1135,0,0
-231,-111,0,0,0,0,0,0,0,0,0,-1,993,1135,0,0
-224,-111,0,0,0,0,0,0,0,0,0,-1,1000,1135,0,0
-217,-111,0,0,0,0,0,0,0,0,0,-1,1007,1135,0,0
-210,-111,0,0,0,0,0,0,0,0,0,-1,1014,1135,0,0
-203,-111,0,0,0,0,0,0,0,0,0,-1,1021,1135,0,0
-196,-111,0,0,0,0,0,0,0,0,0,-1,1028,1135,0,0
-189,-111,0,0,0,0,0,0,0,0,0,-1,1035,1135,0,0
-182,-111,0,0,0,0,0,0,0,0,0,-1,1042,1135,0,0
-175,-111,0,0,0,0,0,0,0,0,0,-1,1049,1135,0,0
-168,-111,0,0,0,0,0,0,0,0,0,-1,1056,1135,0,0
-161,-111,0,0,0,0,0,0,0,0,0,-1,1063,1135,0,0
-154,-111,0,0,0,0,0,0,0,0,0,-1,1070,1135,0,0
-147,-111,0,0,0,0,0,0,0,0,0,-1,1077,1135,0,0
-140,-111,0,0,0,0,0,0,0,0,0,-1,1084,1135,0,0
-133,-111,0,0,0,0,0,0,0,0,0,-1,1091,1135,0,0
-126,-111,0,0,0,0,0,0,0,0,0,-1,1098,1135,0,0
-119,-111,0,0,0,0,0,0,0,0,0,-1,1105,1135,0,0
-112,-111,0,0,0,0,0,0,0,0,0,-1,1112,1135,0,0
-105,-111,0,0,0,0,0,0,0,0,0,-1,1119,1135,0,0
-98,-111,0,0,0,0,0,0,0,0,0,-1,1126,1135,0,0
-91,-111,0,0,0,0,0,0,0,0,0,-1,1133,1135,0,0
-84,-111,0,0,0,0,0,0,0,0,0,-1,1140,1135,0,0
-77,-111,0,0,0,0,0,0,0,0,0,-1,1147,1135,0,0
-70,-111,0,0,0,0,0,0,0,0,0,-1,1154,1135,0,0
-63,-111,0,0,0,0,0,0,0,0,0,-1,1161,1135,0,0
-56,-111,0,0,0,0,0,0,0,0,0,-1,1168,1135,0,0
-49,-111,0,0,0,0,0,0,0,0,0,-1,1175,1135,0,0
-42,-111,0,0,0,0,0,0,0,0,0,-1,1182,1135,0,0
-35,-111,0,0,0,0,0,0,0,0,0,-1,1189,1135,0,0
-28,-111,0,0,0,0,0,0,0,0,0,-1,1196,1135,0,0
-21,-111,0,0,0,0,0,0,0,0,0,-1,1203,1135,0,0
-14,-111,0,0,0,0,0,0,0,0,0,-1,1210,1135,0,0
-7,-111,0,0,0,0,0,0,0,0,0,-1,1217,1135,0,0
0,-111,0,0,0,0,0,0,0,0,0,-1,1224,1135,0,0
7,-111,0,0,0,0,0,0,0,0,0,-1,1231,1135,0,0
14,-111,0,0,0,0,0,0,0,0,0,-1,1238,1135,0,0
21,-111,0,0,0,0,0,0,0,0,0,-1,1245,1135,0,0
28,-111,0,0,0,0,0,0,0,0,0,-1,1252,1135,0,0
35,-111,0,0,0,0,0,0,0,0,0,-1,1259,1135,0,0
42,-111,0,0,0,0,0,0,0,0,0,-1,1266,1135,0,0
49,-111,0,0,0,0,0,0,0,0,0,-1,1273,1135,0,0
56,-111,0,0,0,0,0,0,0,0,0,-1,1280,1135,0,0
63,-111,0,0,0,0,0,0,0,0,0,-1,1287,1135,0,0
70,-111,0,0,0,0,0,0,0,0,0,-1,1294,1135,0,0
77,-111,0,0,0,0,0,0,0,0,0,-1,1301,1135,0,0
84,-111,0,0,0,0,0,0,0,0,0,-1,1308,1135,0,0
91,-111,0,0,0,0,0,0,0,0,0,-1,1315,1135,0,0
98,-111,0,0,0,0,0,0,0,0,0,-1,1322,1135,0,0
105,-111,0,0,0,0,0,0,0,0,0,-1,1329,1135,0,0
112,-111,0,0,0,0,0,0,0,0,0,-1,1336,1135,0,0
119,-111,0,0,0,0,0,0,0,0,0,-1,1343,1135,0,0
126,-111,0,0,0,0,0,0,0,0,0,-1,1350,1135,0,0
133,-111,0,0,0,0,0,0,0,0,0,-1,1357,1135,0,0
140,-111,0,0,0,0,0,0,0,0,0,-1,1364,1135,0,0
147,-111,0,0,0,0,0,0,0,0,0,-1,1371,1135,0,0
154,-111,0,0,0,0,0,0,0,0,0,-1,1378,1135,0,0
161,-111,0,0,0,0,0,0,0,0,0,-1,1385,1135,0,0
168,-111,0,0,0,0,0,0,0,0,0,-1,1392,1135,0,0
175,-111,0,0,0,0,0,0,0,0,0,-1,1399,1135,0,0
182,-111,0,0,0,0,0,0,0,0,0,-1,1406,1135,0,0
189,-111,0,0,0,0,0,0,0,0,0,-1,1413,1135,0,0
196,-111,0,0,0,0,0,0,0,0,0,-1,1420,1135,0,0
203,-111,0,0,0,0,0,0,0,0,0,-1,1427,1135,0,0
210,-111,0,0,0,0,0,0,0,0,0,-1,1434,1135,0,0
217,-111,0,0,0,0,0,0,0,0,0,-1,1441,1135,0,0
224,-111,0,0,0,0,0,0,0,0,0,-1,1448,1135,0,0
231,-111,0,0,0,0,0,0,0,0,0,-1,1455,1135,0,0
238,-111,0,0,0,0,0,0,0,0,0,-1,1462,1135,0,0
245,-111,0,0,0,0,0,0,0,0,0,-1,1469,1135,0,0
252,-111,0,0,0,0,0,0,0,0,0,-1,1476,1135,0,0
259,-111,0,0,0,0,0,0,0,0,0,-1,1483,1135,0,0
266,-111,0,0,0,0,0,0,0,0,0,-1,1490,1135,0,0
273,-111,0,0,0,0,0,0,0,0,0,-1,1497,1135,0,0
280,-111,0,0,0,0,0,0,0,0,0,-1,1504,1135,0,0
287,-111,0,0,0,0,0,0,0,0,0,-1,1511,1135,0,0
294,-111,0,0,0,0,0,0,0,0,0,-1,1518,1135,0,0
301,-111,0,0,0,0,0,0,0,0,0,-1,1525,1135,0,0
308,-111,0,0,0,0,0,0,0,0,0,-1,1532,1135,0,0
315,-111,0,0,0,0,0,0,0,0,0,-1,1539,1135,0,0
322,-111,0,0,0,0,0,0,0,0,0,-1,1546,1135,0,0
329,-111,0,0,0,0,0,0,0,0,0,-1,1553,1135,0,0
336,-111,0,0,0,0,0,0,0,0,0,-1,1560,1135,0,0
343,-111,0,0,0,0,0,0,0,0,0,-1,1567,1135,0,0
350,-111,0,0,0,0,0,0,0,0,0,-1,1574,1135,0,0
357,-111,0,0,0,0,0,0,0,0,0,-1,1581,1135,0,0
364,-111,0,0,0,0,0,0,0,0,0,-1,1588,1135,0,0
371,-111,0,0,0,0,0,0,0,0,0,-1,1595,1135,0,0
378,-111,0,0,0,0,0,0,0,0,0,-1,1602,1135,0,0
385,-111,0,0,0,0,0,0,0,0,0,-1,1609,1135,0,0
392,-111,0,0,0,0,0,0,0,0,0,-1,1616,1135,0,0
399,-111,0,0,0,0,0,0,0,0,0,-1,1623,1135,0,0
406,-111,0,0,0,0,0,0,0,0,0,-1,1630,1135,0,0
413,-111,0,0,0,0,0,0,0,0,0,-1,1637,1135,0,0
420,-111,0,0,0,0,0,0,0,0,0,-1,1644,1135,0,0
427,-111,0,0,0,0,0,0,0,0,0,-1,1651,1135,0,0
434,-111,0,0,0,0,0,0,0,0,0,-1,1658,1135,0,0
441,-111,0,0,0,0,0,0,0,0,0,-1,1665,1135,0,0
448,-111,0,0,0,0,0,0,0,0,0,-1,1672,1135,0,0
455,-111,0,0,0,0,0,0,0,0,0,-1,1679,1135,0,0
462,-111,0,0,0,0,0,0,0,0,0,-1,1686,1135,0,0
469,-111,0,0,0,0,0,0,0,0,0,-1,1693,1135,0,0
476,-111,0,0,0,0,0,0,0,0,0,-1,1700,1135,0,0
483,-111,0,0,0,0,0,0,0,0,0,-1,1707,1135,0,0
490,-111,0,0,0,0,0,0,0,0,0,-1,1714,1135,0,0
497,-111,0,0,0,0,0,0,0,0,0,-1,1721,1135,0,0
504,-111,0,0,0,0,0,0,0,0,0,-1,1728,1135,0,0
511,-111,0,0,0,0,0,0,0,0,0,-1,1735,1135,0,0
518,-111,0,0,0,0,0,0,0,0,0,-1,1742,1135,0,0
525,-111,0,0,0,0,0,0,0,0,0,-1,1749,1135,0,0
532,-111,0,0,0,0,0,0,0,0,0,-1,1756,1135,0,0
539,-111,0,0,0,0,0,0,0,0,0,-1,1763,1135,0,0
546,-111,0,0,0,0,0,0,0,0,0,-1,1770,1135,0,0
553,-111,0,0,0,0,0,0,0,0,0,-1,1777,1135,0,0
560,-111,0,0,0,0,0,0,0,0,0,-1,1784,1135,0,0
567,-111,0,0,0,0,0,0,0,0,0,-1,1791,1135,0,0
574,-111,0,0,0,0,0,0,0,0,0,-1,1798,1135,0,0
581,-111,0,0,0,0,0,0,0,0,0,-1,1805,1135,0,0
588,-111,0,0,0,0,0,0,0,0,0,-1,1812,1135,0,0
595,-111,0,0,0,0,0,0,0,0,0,-1,1819,1135,0,0
602,-111,0,0,0,0,0,0,0,0,0,-1,1826,1135,0,0
609,-111,0,0,0,0,0,0,0,0,0,-1,1833,1135,0,0
616,-111,0,0,0,0,0,0,0,0,0,-1,1840,1135,0,0
623,-111,0,0,0,0,0,0,0,0,0,-1,1847,1135,0,0
630,-111,0,0,0,0,0,0,0,0,0,-1,1854,1135,0,0
637,-111,0,0,0,0,0,0,0,0,0,-1,1861,1135,0,0
644,-111,27.2782,3.51965,0.00387652,-0.00509273,-0.00187837,0.00425401,-0.00547022,-0.198324,0.0056289,0.0374803,1868,1135,27.2782,-3.51967
651,-111,27.2826,3.60986,0.00318347,-0.00421679,-0.00142082,0.00344689,-0.0044802,-0.183316,0.00458965,0.0394527,1875,1135,27.2826,-3.60988
658,-111,27.5944,3.40601,0.00270717,-0.00336039,-0.0011757,0.00292701,-0.00358024,-0.184858,0.00376327,0.0435517,1882,1135,27.5943,-3.40604
665,-111,27.6437,3.37793,0.0021517,-0.00253173,-0.000859156,0.00230434,-0.00268436,-0.175822,0.00288301,0.0444915,1889,1135,27.6437,-3.37787
672,-111,27.4677,3.34302,0.00119882,-0.00199341,-2.79766e-05,0.00119907,-0.00199365,-0.00876306,0.00186225,0.0428777,1896,1135,27.4676,-3.34299
679,-111,27.4091,3.44189,0.000102543,-0.00169584,0.000811449,0.000414547,-0.00200784,0.367076,0.00149601,0.0381543,1903,1135,27.4091,-3.44185
686,-111,27.4049,3.45544,-0.000943149,-0.00155723,0.00155887,0.000338632,-0.00283901,0.688161,0.00201506,0.0376141,1910,1135,27.4049,-3.45548
693,-111,27.3516,3.34692,-0.00174513,-0.00148498,0.00215907,0.000547931,-0.00377804,0.815484,0.0027198,0.0378143,1917,1135,27.3516,-3.34692
700,-111,27.424,3.26807,-0.00231628,-0.00138992,0.00260053,0.000788354,-0.00449456,0.873528,0.00329078,0.0312603,1924,1135,27.4239,-3.26801
707,-111,27.275,3.64478,0,0,0,0,0,0,0,-1,1931,1135,27.275,-3.64482
714,-111,26.4358,4.71082,-0.0033333,-0.00109531,0.00336595,0.00133277,-0.00576139,0.945874,0.00435372,0.0351775,1938,1135,26.4357,-4.71085
721,-111,25.8121,5.67371,-0.00356963,-0.000872363,0.0034866,0.00151734,-0.00595933,0.969938,0.00456354,0.0144767,1945,1135,25.8122,-5.67368
728,-111,25.785,5.54688,-0.00358026,-0.000664779,0.0033328,0.00151514,-0.00576018,0.991558,0.00443235,0.0178079,1952,1135,25.785,-5.54693
735,-111,25.7738,5.39709,-0.00329882,-0.00033914,0.00298108,0.0015092,-0.00514716,1.01578,0.00402984,0.0177594,1959,1135,25.7738,-5.39707
742,-111,25.7723,5.26233,-0.00269021,5.80385e-05,0.00278105,0.00178592,-0.00441809,1.01486,0.00368778,0.0120335,1966,1135,25.7724,-5.26227
749,-111,25.7502,5.12109,-0.00174753,0.00045572,0.00229659,0.00190123,-0.00319304,1.00903,0.00297253,0.0154284,1973,1135,25.7502,-5.12106
756,-111,25.7344,4.95898,-0.000182148,0.0007343,0.00151795,0.00186168,-0.00130953,0.931984,0.00184012,0.0152631,1980,1135,25.7344,-4.95896
763,-111,25.7377,4.82617,0.00210125,0.000796985,0.000500866,0.0022714,0.000626838,0.327475,0.00135456,0.0129142,1987,1135,25.7377,-4.82619
770,-111,25.7534,4.71484,0.00467637,0.000709508,-0.000605295,0.00476667,0.000619203,-0.148099,0.00299281,0.0107408,1994,1135,25.7534,-4.71488
777,-111,25.6912,4.51709,0.00743917,3.0276e-05,-0.0014496,0.0077127,-0.000243249,-0.186498,0.00522477,0.0225602,2001,1135,25.6911,-4.51713
784,-111,25.7317,4.26587,0.0106832,-0.00123889,-0.00244083,0.0111635,-0.00171925,-0.194319,0.00807665,0.0406378,2008,1135,25.7317,-4.26589
791,-111,25.8018,4.05481,0,0,0,0,0,0,0,-1,2015,1135,25.8018,-4.05479
798,-111,25.6803,4.34119,0.0194458,-0.00619355,-0.00580576,0.0206992,-0.00744693,-0.212622,0.0168399,0.0469802,2022,1135,25.6803,-4.34118
805,-111,25.624,3.90027,0.0250366,-0.0101351,-0.00846932,0.0269697,-0.0120682,-0.22441,0.0230794,0.0448497,2029,1135,25.6241,-3.90024
812,-111,25.5203,3.47571,0.0312353,-0.0151731,-0.012023,0.0341651,-0.018103,-0.239026,0.0306482,0.0458131,2036,1135,25.5204,-3.47567
-700,-118,0,0,0,0,0,0,0,0,0,-1,524,1142,0,0
-693,-118,-16.3079,3.9447,0,0,0,0,0,0,0,-1,531,1142,-16.3079,-3.94467
-686,-118,-9.21155,1.72668,0,0,0,0,0,0,0,-1,538,1142,-9.21154,-1.72666
-679,-118,-18.809,-1.82385,0,0,0,0,0,0,0,-1,545,1142,-18.809,1.82385
-672,-118,-18.8138,-0.880859,0.00296723,0.000671998,-0.031524,0.0333645,-0.0297253,-0.767204,0.0364451,0.0470957,552,1142,-18.8138,0.880888
-665,-118,-18.8381,0.115356,0.00757241,0.000698196,-0.0217883,0.026193,-0.0179224,-0.707168,0.0256188,0.0453926,559,1142,-18.8381,-0.115339
-658,-118,-18.5757,0.936646,0.00963985,0.000971232,-0.0145056,0.0204448,-0.00983373,-0.640219,0.0178356,0.0425106,566,1142,-18.5758,-0.936633
-651,-118,-16.9229,2.0769,0.00987333,0.00126145,-0.00923481,0.0157567,-0.00462196,-0.567247,0.0123372,0.0382341,573,1142,-16.9228,-2.0769
-644,-118,-17.071,1.89465,0.00894898,0.00141727,-0.00554739,0.011888,-0.00152175,-0.487203,0.00847822,0.0270218,580,1142,-17.071,-1.89462
-637,-118,-17.1404,2.09387,0.00747004,0.00112415,-0.00334964,0.00891094,-0.000316759,-0.40624,0.00604898,0.0150691,587,1142,-17.1404,-2.09393
-630,-118,-17.1663,2.25134,0.00558678,0.000739984,-0.00195372,0.00627624,5.05261e-05,-0.339252,0.00416742,0.0170814,594,1142,-17.1662,-2.25138
-623,-118,-17.1645,2.4082,0.00358909,0.000355247,-0.00141865,0.00412322,-0.000178882,-0.360088,0.00281034,0.014594,601,1142,-17.1645,-2.40822
-616,-118,-17.1899,2.57959,0.0018844,0.000296257,-0.00189883,0.00314851,-0.000967848,-0.587353,0.00248525,0.0143579,608,1142,-17.1899,-2.57961
-609,-118,-17.2474,2.70776,-0.000303454,-0.000237451,-0.00297556,0.00270529,-0.00324619,-0.790943,0.00344082,0.0187417,615,1142,-17.2475,-2.70771
-602,-118,-17.2356,2.96582,-0.00150459,-0.000789269,-0.00403156,0.00290047,-0.00519433,-0.82964,0.00473567,0.0182399,622,1142,-17.2356,-2.96578
-595,-118,-17.2723,3.13391,-0.00181026,-0.00110271,-0.00457106,0.00312825,-0.00604122,-0.824019,0.0053823,0.0153378,629,1142,-17.2723,-3.13388
-588,-118,-17.0751,3.38159,-0.00179184,-0.00126813,-0.00479615,0.00327331,-0.00633328,-0.81267,0.00563937,0.0297563,636,1142,-17.0751,-3.38158
-581,-118,-16.9052,3.53333,0,0,0,0,0,0,0,-1,643,1142,-16.9051,-3.53327
-574,-118,-18.9483,1.49744,0,0,0,0,0,0,0,-1,650,1142,-18.9483,-1.49738
-567,-118,-18.8843,1.46851,-0.00130066,-0.00106072,-0.00490311,0.00372388,-0.00608526,-0.797629,0.00571775,0.043299,657,1142,-18.8843,-1.46849
-560,-118,-18.8871,1.4314,-0.00108354,-0.000823221,-0.00461047,0.00365893,-0.00556569,-0.79951,0.00536363,0.0378621,664,1142,-18.8871,-1.4314
-553,-118,-18.9135,1.44885,-0.000881272,-0.000548305,-0.00413391,0.00342247,-0.00485205,-0.805524,0.004801,0.0382638,671,1142,-18.9135,-1.44891
-546,-118,-18.9231,1.58008,-0.000726909,-0.000316906,-0.00345596,0.00294012,-0.00398394,-0.815023,0.00401272,0.038348,678,1142,-18.9231,-1.58013
-539,-118,-18.9024,1.62097,-0.000529901,-0.000248392,-0.0025431,0.00215784,-0.00293614,-0.813044,0.00295243,0.0403016,685,1142,-18.9024,-1.62094
-532,-118,-19.0455,1.56213,-0.00028079,-0.000860484,-0.00204617,0.00149596,-0.00263723,-0.715039,0.00241643,0.0407016,692,1142,-19.0455,-1.56219
-525,-118,-19.1561,1.21106,-0.00138919,-0.0017239,-0.00335014,0.00179777,-0.00491086,-0.760442,0.00400983,0.0429052,699,1142,-19.1561,-1.21106
-518,-118,0,0,0,0,0,0,0,0,0,-1,706,1142,0,0
-511,-118,0,0,0,0,0,0,0,0,0,-1,713,1142,0,0
-504,-118,0,0,0,0,0,0,0,0,0,-1,720,1142,0,0
-497,-118,0,0,0,0,0,0,0,0,0,-1,727,1142,0,0
-490,-118,0,0,0,0,0,0,0,0,0,-1,734,1142,0,0
-483,-118,0,0,0,0,0,0,0,0,0,-1,741,1142,0,0
-476,-118,0,0,0,0,0,0,0,0,0,-1,748,1142,0,0
-469,-118,0,0,0,0,0,0,0,0,0,-1,755,1142,0,0
-462,-118,0,0,0,0,0,0,0,0,0,-1,762,1142,0,0
-455,-118,0,0,0,0,0,0,0,0,0,-1,769,1142,0,0
-448,-118,0,0,0,0,0,0,0,0,0,-1,776,1142,0,0
-441,-118,0,0,0,0,0,0,0,0,0,-1,783,1142,0,0
-434,-118,0,0,0,0,0,0,0,0,0,-1,790,1142,0,0
-427,-118,0,0,0,0,0,0,0,0,0,-1,797,1142,0,0
-420,-118,0,0,0,0,0,0,0,0,0,-1,804,1142,0,0
-413,-118,0,0,0,0,0,0,0,0,0,-1,811,1142,0,0
-406,-118,0,0,0,0,0,0,0,0,0,-1,818,1142,0,0
-399,-118,0,0,0,0,0,0,0,0,0,-1,825,1142,0,0
-392,-118,0,0,0,0,0,0,0,0,0,-1,832,1142,0,0
-385,-118,0,0,0,0,0,0,0,0,0,-1,839,1142,0,0
-378,-118,0,0,0,0,0,0,0,0,0,-1,846,1142,0,0
-371,-118,0,0,0,0,0,0,0,0,0,-1,853,1142,0,0
-364,-118,0,0,0,0,0,0,0,0,0,-1,860,1142,0,0
-357,-118,0,0,0,0,0,0,0,0,0,-1,867,1142,0,0
-350,-118,0,0,0,0,0,0,0,0,0,-1,874,1142,0,0
-343,-118,0,0,0,0,0,0,0,0,0,-1,881,1142,0,0
-336,-118,0,0,0,0,0,0,0,0,0,-1,888,1142,0,0
-329,-118,0,0,0,0,0,0,0,0,0,-1,895,1142,0,0
-322,-118,0,0,0,0,0,0,0,0,0,-1,902,1142,0,0
-315,-118,0,0,0,0,0,0,0,0,0,-1,909,1142,0,0
-308,-118,0,0,0,0,0,0,0,0,0,-1,916,1142,0,0
-301,-118,0,0,0,0,0,0,0,0,0,-1,923,1142,0,0
-294,-118,0,0,0,0,0,0,0,0,0,-1,930,1142,0,0
-287,-118,0,0,0,0,0,0,0,0,0,-1,937,1142,0,0
-280,-118,0,0,0,0,0,0,0,0,0,-1,944,1142,0,0
-273,-118,0,0,0,0,0,0,0,0,0,-1,951,1142,0,0
-266,-118,0,0,0,0,0,0,0,0,0,-1,958,1142,0,0
-259,-118,0,0,0,0,0,0,0,0,0,-1,965,1142,0,0
-252,-118,0,0,0,0,0,0,0,0,0,-1,972,1142,0,0
-245,-118,0,0,0,0,0,0,0,0,0,-1,979,1142,0,0
-238,-118,0,0,0,0,0,0,0,0,0,-1,986,1142,0,0
-231,-118,0,0,0,0,0,0,0,0,0,-1,993,1142,0,0
-224,-118,0,0,0,0,0,0,0,0,0,-1,1000,1142,0,0
-217,-118,0,0,0,0,0,0,0,0,0,-1,1007,1142,0,0
-210,-118,0,0,0,0,0,0,0,0,0,-1,1014,1142,0,0
-203,-118,0,0,0,0,0,0,0,0,0,-1,1021,1142,0,0
-196,-118,0,0,0,0,0,0,0,0,0,-1,1028,1142,0,0
-189,-118,0,0,0,0,0,0,0,0,0,-1,1035,1142,0,0
-182,-118,0,0,0,0,0,0,0,0,0,-1,1042,1142,0,0
-175,-118,0,0,0,0,0,0,0,0,0,-1,1049,1142,0,0
-168,-118,0,0,0,0,0,0,0,0,0,-1,1056,1142,0,0
-161,-118,0,0,0,0,0,0,0,0,0,-1,1063,1142,0,0
-154,-118,0,0,0,0,0,0,0,0,0,-1,1070,1142,0,0
-147,-118,0,0,0,0,0,0,0,0,0,-1,1077,1142,0,0
-140,-118,0,0,0,0,0,0,0,0,0,-1,1084,1142,0,0
-133,-118,0,0,0,0,0,0,0,0,0,-1,1091,1142,0,0
-126,-118,0,0,0,0,0,0,0,0,0,-1,1098,1142,0,0
-119,-118,0,0,0,0,0,0,0,0,0,-1,1105,1142,0,0
-112,-118,0,0,0,0,0,0,0,0,0,-1,1112,1142,0,0
-105,-118,0,0,0,0,0,0,0,0,0,-1,1119,1142,0,0
-98,-118,0,0,0,0,0,0,0,0,0,-1,1126,1142,0,0
-91,-118,0,0,0,0,0,0,0,0,0,-1,1133,1142,0,0
-84,-118,0,0,0,0,0,0,0,0,0,-1,1140,1142,0,0
-77,-118,0,0,0,0,0,0,0,0,0,-1,1147,1142,0,0
-70,-118,0,0,0,0,0,0,0,0,0,-1,1154,1142,0,0
-63,-118,0,0,0,0,0,0,0,0,0,-1,1161,1142,0,0
-56,-118,0,0,0,0,0,0,0,0,0,-1,1168,1142,0,0
-49,-118,0,0,0,0,0,0,0,0,0,-1,1175,1142,0,0
-42,-118,0,0,0,0,0,0,0,0,0,-1,1182,1142,0,0
-35,-118,0,0,0,0,0,0,0,0,0,-1,1189,1142,0,0
-28,-118,0,0,0,0,0,0,0,0,0,-1,1196,1142,0,0
-21,-118,0,0,0,0,0,0,0,0,0,-1,1203,1142,0,0
-14,-118,0,0,0,0,0,0,0,0,0,-1,1210,1142,0,0
-7,-118,0,0,0,0,0,0,0,0,0,-1,1217,1142,0,0
0,-118,0,0,0,0,0,0,0,0,0,-1,1224,1142,0,0
7,-118,0,0,0,0,0,0,0,0,0,-1,1231,1142,0,0
14,-118,0,0,0,0,0,0,0,0,0,-1,1238,1142,0,0
21,-118,0,0,0,0,0,0,0,0,0,-1,1245,1142,0,0
28,-118,0,0,0,0,0,0,0,0,0,-1,1252,1142,0,0
35,-118,0,0,0,0,0,0,0,0,0,-1,1259,1142,0,0
42,-118,0,0,0,0,0,0,0,0,0,-1,1266,1142,0,0
49,-118,0,0,0,0,0,0,0,0,0,-1,1273,1142,0,0
56,-118,0,0,0,0,0,0,0,0,0,-1,1280,1142,0,0
63,-118,0,0,0,0,0,0,0,0,0,-1,1287,1142,0,0
70,-118,0,0,0,0,0,0,0,0,0,-1,1294,1142,0,0
77,-118,0,0,0,0,0,0,0,0,0,-1,1301,1142,0,0
84,-118,0,0,0,0,0,0,0,0,0,-1,1308,1142,0,0
91,-118,0,0,0,0,0,0,0,0,0,-1,1315,1142,0,0
98,-118,0,0,0,0,0,0,0,0,0,-1,1322,1142,0,0
105,-118,0,0,0,0,0,0,0,0,0,-1,1329,1142,0,0
112,-118,0,0,0,0,0,0,0,0,0,-1,1336,1142,0,0
119,-118,0,0,0,0,0,0,0,0,0,-1,1343,1142,0,0
126,-118,0,0,0,0,0,0,0,0,0,-1,1350,1142,0,0
133,-118,0,0,0,0,0,0,0,0,0,-1,1357,1142,0,0
140,-118,0,0,0,0,0,0,0,0,0,-1,1364,1142,0,0
147,-118,0,0,0,0,0,0,0,0,0,-1,1371,1142,0,0
154,-118,0,0,0,0,0,0,0,0,0,-1,1378,1142,0,0
161,-118,0,0,0,0,0,0,0,0,0,-1,1385,1142,0,0
168,-118,0,0,0,0,0,0,0,0,0,-1,1392,1142,0,0
175,-118,0,0,0,0,0,0,0,0,0,-1,1399,1142,0,0
182,-118,0,0,0,0,0,0,0,0,0,-1,1406,1142,0,0
189,-118,0,0,0,0,0,0,0,0,0,-1,1413,1142,0,0
196,-118,0,0,0,0,0,0,0,0,0,-1,1420,1142,0,0
203,-118,0,0,0,0,0,0,0,0,0,-1,1427,1142,0,0
210,-118,0,0,0,0,0,0,0,0,0,-1,1434,1142,0,0
217,-118,0,0,0,0,0,0,0,0,0,-1,1441,1142,0,0
224,-118,0,0,0,0,0,0,0,0,0,-1,1448,1142,0,0
231,-118,0,0,0,0,0,0,0,0,0,-1,1455,1142,0,0
238,-118,0,0,0,0,0,0,0,0,0,-1,1462,1142,0,0
245,-118,0,0,0,0,0,0,0,0,0,-1,1469,1142,0,0
252,-118,0,0,0,0,0,0,0,0,0,-1,1476,1142,0,0
259,-118,0,0,0,0,0,0,0,0,0,-1,1483,1142,0,0
266,-118,0,0,0,0,0,0,0,0,0,-1,1490,1142,0,0
273,-118,0,0,0,0,0,0,0,0,0,-1,1497,1142,0,0
280,-118,0,0,0,0,0,0,0,0,0,-1,1504,1142,0,0
287,-118,0,0,0,0,0,0,0,0,0,-1,1511,1142,0,0
294,-118,0,0,0,0,0,0,0,0,0,-1,1518,1142,0,0
301,-118,0,0,0,0,0,0,0,0,0,-1,1525,1142,0,0
308,-118,0,0,0,0,0,0,0,0,0,-1,1532,1142,0,0
315,-118,0,0,0,0,0,0,0,0,0,-1,1539,1142,0,0
322,-118,0,0,0,0,0,0,0,0,0,-1,1546,1142,0,0
329,-118,0,0,0,0,0,0,0,0,0,-1,1553,1142,0,0
336,-118,0,0,0,0,0,0,0,0,0,-1,1560,1142,0,0
343,-118,0,0,0,0,0,0,0,0,0,-1,1567,1142,0,0
350,-118,0,0,0,0,0,0,0,0,0,-1,1574,1142,0,0
357,-118,0,0,0,0,0,0,0,0,0,-1,1581,1142,0,0
364,-118,0,0,0,0,0,0,0,0,0,-1,1588,1142,0,0
371,-118,0,0,0,0,0,0,0,0,0,-1,1595,1142,0,0
378,-118,0,0,0,0,0,0,0,0,0,-1,1602,1142,0,0
385,-118,0,0,0,0,0,0,0,0,0,-1,1609,1142,0,0
392,-118,0,0,0,0,0,0,0,0,0,-1,1616,1142,0,0
399,-118,0,0,0,0,0,0,0,0,0,-1,1623,1142,0,0
406,-118,0,0,0,0,0,0,0,0,0,-1,1630,1142,0,0
413,-118,0,0,0,0,0,0,0,0,0,-1,1637,1142,0,0
420,-118,0,0,0,0,0,0,0,0,0,-1,1644,1142,0,0
427,-118,0,0,0,0,0,0,0,0,0,-1,1651,1142,0,0
434,-118,0,0,0,0,0,0,0,0,0,-1,1658,1142,0,0
441,-118,0,0,0,0,0,0,0,0,0,-1,1665,1142,0,0
448,-118,0,0,0,0,0,0,0,0,0,-1,1672,1142,0,0
455,-118,0,0,0,0,0,0,0,0,0,-1,1679,1142,0,0
462,-118,0,0,0,0,0,0,0,0,0,-1,1686,1142,0,0
469,-118,0,0,0,0,0,0,0,0,0,-1,1693,1142,0,0
476,-118,0,0,0,0,0,0,0,0,0,-1,1700,1142,0,0
483,-118,0,0,0,0,0,0,0,0,0,-1,1707,1142,0,0
490,-118,0,0,0,0,0,0,0,0,0,-1,1714,1142,0,0
497,-118,0,0,0,0,0,0,0,0,0,-1,1721,1142,0,0
504,-118,0,0,0,0,0,0,0,0,0,-1,1728,1142,0,0
511,-118,0,0,0,0,0,0,0,0,0,-1,1735,1142,0,0
518,-118,0,0,0,0,0,0,0,0,0,-1,1742,1142,0,0
525,-118,0,0,0,0,0,0,0,0,0,-1,1749,1142,0,0
532,-118,0,0,0,0,0,0,0,0,0,-1,1756,1142,0,0
539,-118,0,0,0,0,0,0,0,0,0,-1,1763,1142,0,0
546,-118,0,0,0,0,0,0,0,0,0,-1,1770,1142,0,0
553,-118,0,0,0,0,0,0,0,0,0,-1,1777,1142,0,0
560,-118,0,0,0,0,0,0,0,0,0,-1,1784,1142,0,0
567,-118,0,0,0,0,0,0,0,0,0,-1,1791,1142,0,0
574,-118,0,0,0,0,0,0,0,0,0,-1,1798,1142,0,0
581,-118,0,0,0,0,0,0,0,0,0,-1,1805,1142,0,0
588,-118,0,0,0,0,0,0,0,0,0,-1,1812,1142,0,0
595,-118,0,0,0,0,0,0,0,0,0,-1,1819,1142,0,0
602,-118,0,0,0,0,0,0,0,0,0,-1,1826,1142,0,0
609,-118,0,0,0,0,0,0,0,0,0,-1,1833,1142,0,0
616,-118,0,0,0,0,0,0,0,0,0,-1,1840,1142,0,0
623,-118,0,0,0,0,0,0,0,0,0,-1,1847,1142,0,0
630,-118,0,0,0,0,0,0,0,0,0,-1,1854,1142,0,0
637,-118,0,0,0,0,0,0,0,0,0,-1,1861,1142,0,0
644,-118,27.4331,3.49902,0.00270433,-0.00472921,-0.00146448,0.00298244,-0.00500732,-0.18767,0.00466201,0.0418558,1868,1142,27.4331,-3.49901
651,-118,27.3156,3.68323,0.00218896,-0.00381549,-0.0011071,0.00238659,-0.00401311,-0.176644,0.00373443,0.0424814,1875,1142,27.3155,-3.68319
658,-118,27.443,3.53882,0.00186763,-0.00291951,-0.000925218,0.00204023,-0.0030921,-0.184426,0.00298383,0.042174,1882,1142,27.443,-3.53882
665,-118,27.4728,3.51794,0.00152372,-0.00210126,-0.000668125,0.00164294,-0.00222048,-0.176584,0.00223884,0.0437233,1889,1142,27.4728,-3.51797
672,-118,27.3958,3.45557,0.000842826,-0.0015707,-3.18263e-06,0.00084283,-0.0015707,-0.00131866,0.00141442,0.0462535,1896,1142,27.3957,-3.45554
679,-118,27.3447,3.47656,5.5349e-06,-0.00128619,0.000661923,0.000284487,-0.00156514,0.39884,0.00115004,0.0394675,1903,1142,27.3448,-3.47653
686,-118,27.3486,3.57324,-0.000841586,-0.00116735,0.00126092,0.000266933,-0.00227586,0.721166,0.0016136,0.0357315,1910,1142,27.3486,-3.57319
693,-118,27.2954,3.37561,-0.00150156,-0.00111589,0.00173688,0.00043883,-0.00305627,0.840684,0.00219844,0.0388521,1917,1142,27.2954,-3.37562
700,-118,27.3778,3.29614,-0.00197545,-0.00104178,0.00211275,0.000655098,-0.00367233,0.894131,0.00269327,0.027031,1924,1142,27.3777,-3.2961
707,-118,27.5475,3.49194,0,0,0,0,0,0,0,-1,1931,1142,27.5474,-3.49199
714,-118,26.2966,4.96216,0,0,0,0,0,0,0,-1,1938,1142,26.2966,-4.9621
721,-118,25.6671,5.71851,-0.003154,-0.000618167,0.00292748,0.00130418,-0.00507635,0.989757,0.00389248,0.01144,1945,1142,25.6671,-5.71851
728,-118,25.6249,5.56921,-0.00316174,-0.000445192,0.00281647,0.00132342,-0.00493035,1.01008,0.00380553,0.0153394,1952,1142,25.6249,-5.56925
735,-118,25.5927,5.43018,-0.00287729,-0.000171615,0.00249768,0.00131607,-0.00436497,1.0336,0.00343379,0.0150494,1959,1142,25.5927,-5.43022
742,-118,25.6376,5.29834,-0.00227412,0.000173351,0.00233021,0.00158161,-0.00368237,1.02718,0.00311879,0.0210008,1966,1142,25.6376,-5.29831
749,-118,25.6313,5.15918,-0.00131937,0.000568881,0.00186968,0.00171929,-0.00246978,1.0192,0.00243146,0.0206518,1973,1142,25.6314,-5.15921
756,-118,25.6051,5.005,0.000267135,0.000846607,0.00104293,0.0016393,-0.000525554,0.920887,0.00130385,0.0161543,1980,1142,25.6051,-5.00505
763,-118,25.614,4.8197,0.00247308,0.000892152,-3.69507e-05,0.00247395,0.000891289,-0.0233557,0.00144681,0.00922724,1987,1142,25.614,-4.81965
770,-118,25.5938,4.69116,0.0049385,0.00075035,-0.00116504,0.00524078,0.000448079,-0.253853,0.00335448,0.0117897,1994,1142,25.5937,-4.69117
777,-118,25.5406,4.49097,0.00756111,6.38523e-05,-0.00217095,0.00814437,-0.000519405,-0.262467,0.00561073,0.0248747,2001,1142,25.5406,-4.49093
784,-118,25.804,3.91455,0.0105802,-0.00124163,-0.00347675,0.0115269,-0.00218831,-0.265846,0.00850834,0.0393112,2008,1142,25.804,-3.91451
791,-118,26.1666,3.83875,0.0140704,-0.00333219,-0.0053227,0.0155693,-0.00483107,-0.274494,0.01231,0.0424598,2015,1142,26.1666,-3.83869
798,-118,25.775,4.45618,0,0,0,0,0,0,0,-1,2022,1142,25.775,-4.4562
805,-118,25.8772,3.97034,0.0222878,-0.0104108,-0.0113992,0.0258694,-0.0139924,-0.304432,0.0233523,0.0492609,2029,1142,25.8773,-3.97036
812,-118,25.5837,3.62805,0.0261694,-0.0156077,-0.0160793,0.0316413,-0.0210796,-0.328016,0.0306413,0.0492195,2036,1142,25.5837,-3.62808
-700,-125,0,0,0,0,0,0,0,0,0,-1,524,1149,0,0
-693,-125,-16.2619,2.89478,0,0,0,0,0,0,0,-1,531,1149,-16.2619,-2.8948
-686,-125,-17.2341,3.07788,0,0,0,0,0,0,0,-1,538,1149,-17.2342,-3.07784
-679,-125,-17.9579,-0.245728,0,0,0,0,0,0,0,-1,545,1149,-17.9579,0.245675
-672,-125,-17.9949,0.150024,0.00205345,0.00208107,-0.0285232,0.0305905,-0.026456,-0.78564,0.0329646,0.046946,552,1149,-17.9949,-0.149971
-665,-125,-18.043,0.539063,0.00681153,0.00220766,-0.0192957,0.0239421,-0.0149229,-0.72603,0.0226392,0.0415523,559,1149,-18.0429,-0.539016
-658,-125,-17.8564,1.04285,0.00893069,0.00241482,-0.0125405,0.0186295,-0.00728401,-0.658311,0.0154318,0.041284,566,1149,-17.8565,-1.04279
-651,-125,-17.3101,1.69299,0.00919287,0.00252694,-0.0077611,0.0143064,-0.00258659,-0.582583,0.0105065,0.0364789,573,1149,-17.3101,-1.69293
-644,-125,-16.9377,1.89063,0.0083123,0.00246327,-0.00454952,0.0107962,-2.06241e-05,-0.499743,0.00720435,0.025997,580,1149,-16.9377,-1.89062
-637,-125,-16.93,2.06042,0.00695602,0.00201725,-0.00264632,0.00810614,0.000867124,-0.409985,0.0051395,0.0135443,587,1149,-16.93,-2.06038
-630,-125,-16.9432,2.24597,0.00526771,0.00138856,-0.00129774,0.00566182,0.000994451,-0.294837,0.00349061,0.0133807,594,1149,-16.9432,-2.24598
-623,-125,-16.9665,2.43567,0.00353677,0.000912395,-0.000730029,0.00372617,0.000722991,-0.253851,0.00228163,0.0123836,601,1149,-16.9665,-2.43562
-616,-125,-16.9743,2.60608,0.00216228,0.000643796,-0.00107862,0.00272207,8.39969e-05,-0.478729,0.00178738,0.0133772,608,1149,-16.9743,-2.60612
-609,-125,-17.021,2.7085,0.000313326,1.84968e-05,-0.00197555,0.00214695,-0.00181513,-0.748157,0.00229018,0.0198918,615,1149,-17.021,-2.70853
-602,-125,-17.0529,2.95215,-0.000672718,-0.000521848,-0.0029151,0.00231879,-0.00351336,-0.798334,0.00339065,0.0179225,622,1149,-17.0529,-2.95217
-595,-125,-17.0679,3.18066,-0.000837759,-0.000822231,-0.00340091,0.00257092,-0.00423091,-0.78654,0.00396583,0.0176742,629,1149,-17.0678,-3.18061
-588,-125,-16.85,3.45227,-0.000787563,-0.00093995,-0.00358229,0.00271934,-0.00444685,-0.774765,0.00417728,0.02526,636,1149,-16.85,-3.45222
-581,-125,-16.6173,3.73059,0,0,0,0,0,0,0,-1,643,1149,-16.6173,-3.73065
-574,-125,-18.887,1.505,0,0,0,0,0,0,0,-1,650,1149,-18.887,-1.50504
-567,-125,-18.9109,1.50928,-0.000422351,-0.000676265,-0.0036979,0.00315077,-0.00424939,-0.768239,0.00428815,0.0398465,657,1149,-18.9109,-1.50927
-560,-125,-18.9001,1.46777,-0.000378232,-0.000445889,-0.00352545,0.00311355,-0.00393767,-0.780601,0.00408029,0.0377168,664,1149,-18.9001,-1.46773
-553,-125,-18.8373,1.39282,-0.00042549,-0.000184976,-0.00322903,0.00292603,-0.0035365,-0.804011,0.00373669,0.0361895,671,1149,-18.8374,-1.39286
-546,-125,-18.7853,1.4657,-0.000613146,2.14685e-05,-0.00279352,0.00251565,-0.00310732,-0.841949,0.00325241,0.0366028,678,1149,-18.7853,-1.46575
-539,-125,-18.7781,1.49622,-0.000926871,5.52614e-05,-0.00216217,0.00178143,-0.00265304,-0.897062,0.00257668,0.0394491,685,1149,-18.7781,-1.4962
-532,-125,-18.939,1.57959,-0.00111209,-0.000485519,-0.00167772,0.000907913,-0.00250552,-0.877702,0.00204143,0.0397947,692,1149,-18.939,-1.57961
-525,-125,-18.9902,1.40662,-0.00199578,-0.00134412,-0.0024113,0.000763265,-0.00410316,-0.852555,0.00302216,0.0424387,699,1149,-18.9902,-1.40666
-518,-125,0,0,0,0,0,0,0,0,0,-1,706,1149,0,0
-511,-125,0,0,0,0,0,0,0,0,0,-1,713,1149,0,0
-504,-125,0,0,0,0,0,0,0,0,0,-1,720,1149,0,0
-497,-125,0,0,0,0,0,0,0,0,0,-1,727,1149,0,0
-490,-125,0,0,0,0,0,0,0,0,0,-1,734,1149,0,0
-483,-125,0,0,0,0,0,0,0,0,0,-1,741,1149,0,0
-476,-125,0,0,0,0,0,0,0,0,0,-1,748,1149,0,0
-469,-125,0,0,0,0,0,0,0,0,0,-1,755,1149,0,0
-462,-125,0,0,0,0,0,0,0,0,0,-1,762,1149,0,0
-455,-125,0,0,0,0,0,0,0,0,0,-1,769,1149,0,0
-448,-125,0,0,0,0,0,0,0,0,0,-1,776,1149,0,0
-441,-125,0,0,0,0,0,0,0,0,0,-1,783,1149,0,0
-434,-125,0,0,0,0,0,0,0,0,0,-1,790,1149,0,0
-427,-125,0,0,0,0,0,0,0,0,0,-1,797,1149,0,0
-420,-125,0,0,0,0,0,0,0,0,0,-1,804,1149,0,0
-413,-125,0,0,0,0,0,0,0,0,0,-1,811,1149,0,0
-406,-125,0,0,0,0,0,0,0,0,0,-1,818,1149,0,0
-399,-125,0,0,0,0,0,0,0,0,0,-1,825,1149,0,0
-392,-125,0,0,0,0,0,0,0,0,0,-1,832,1149,0,0
-385,-125,0,0,0,0,0,0,0,0,0,-1,839,1149,0,0
-378,-125,0,0,0,0,0,0,0,0,0,-1,846,1149,0,0
-371,-125,0,0,0,0,0,0,0,0,0,-1,853,1149,0,0
-364,-125,0,0,0,0,0,0,0,0,0,-1,860,1149,0,0
-357,-125,0,0,0,0,0,0,0,0,0,-1,867,1149,0,0
-350,-125,0,0,0,0,0,0,0,0,0,-1,874,1149,0,0
-343,-125,0,0,0,0,0,0,0,0,0,-1,881,1149,0,0
-336,-125,0,0,0,0,0,0,0,0,0,-1,888,1149,0,0
-329,-125,0,0,0,0,0,0,0,0,0,-1,895,1149,0,0
-322,-125,0,0,0,0,0,0,0,0,0,-1,902,1149,0,0
-315,-125,0,0,0,0,0,0,0,0,0,-1,909,1149,0,0
-308,-125,0,0,0,0,0,0,0,0,0,-1,916,1149,0,0
-301,-125,0,0,0,0,0,0,0,0,0,-1,923,1149,0,0
-294,-125,0,0,0,0,0,0,0,0,0,-1,930,1149,0,0
-287,-125,0,0,0,0,0,0,0,0,0,-1,937,1149,0,0
-280,-125,0,0,0,0,0,0,0,0,0,-1,944,1149,0,0
-273,-125,0,0,0,0,0,0,0,0,0,-1,951,1149,0,0
-266,-125,0,0,0,0,0,0,0,0,0,-1,958,1149,0,0
-259,-125,0,0,0,0,0,0,0,0,0,-1,965,1149,0,0
-252,-125,0,0,0,0,0,0,0,0,0,-1,972,1149,0,0
-245,-125,0,0,0,0,0,0,0,0,0,-1,979,1149,0,0
-238,-125,0,0,0,0,0,0,0,0,0,-1,986,1149,0,0
-231,-125,0,0,0,0,0,0,0,0,0,-1,993,1149,0,0
-224,-125,0,0,0,0,0,0,0,0,0,-1,1000,1149,0,0
-217,-125,0,0,0,0,0,0,0,0,0,-1,1007,1149,0,0
-210,-125,0,0,0,0,0,0,0,0,0,-1,1014,1149,0,0
-203,-125,0,0,0,0,0,0,0,0,0,-1,1021,1149,0,0
-196,-125,0,0,0,0,0,0,0,0,0,-1,1028,1149,0,0
-189,-125,0,0,0,0,0,0,0,0,0,-1,1035,1149,0,0
-182,-125,0,0,0,0,0,0,0,0,0,-1,1042,1149,0,0
-175,-125,0,0,0,0,0,0,0,0,0,-1,1049,1149,0,0
-168,-125,0,0,0,0,0,0,0,0,0,-1,1056,1149,0,0
-161,-125,0,0,0,0,0,0,0,0,0,-1,1063,1149,0,0
-154,-125,0,0,0,0,0,0,0,0,0,-1,1070,1149,0,0
-147,-125,0,0,0,0,0,0,0,0,0,-1,1077,1149,0,0
-140,-125,0,0,0,0,0,0,0,0,0,-1,1084,1149,0,0
-133,-125,0,0,0,0,0,0,0,0,0,-1,1091,1149,0,0
-126,-125,0,0,0,0,0,0,0,0,0,-1,1098,1149,0,0
-119,-125,0,0,0,0,0,0,0,0,0,-1,1105,1149,0,0
-112,-125,0,0,0,0,0,0,0,0,0,-1,1112,1149,0,0
-105,-125,0,0,0,0,0,0,0,0,0,-1,1119,1149,0,0
-98,-125,0,0,0,0,0,0,0,0,0,-1,1126,1149,0,0
-91,-125,0,0,0,0,0,0,0,0,0,-1,1133,1149,0,0
-84,-125,0,0,0,0,0,0,0,0,0,-1,1140,1149,0,0
-77,-125,0,0,0,0,0,0,0,0,0,-1,1147,1149,0,0
-70,-125,0,0,0,0,0,0,0,0,0,-1,1154,1149,0,0
-63,-125,0,0,0,0,0,0,0,0,0,-1,1161,1149,0,0
-56,-125,0,0,0,0,0,0,0,0,0,-1,1168,1149,0,0
-49,-125,0,0,0,0,0,0,0,0,0,-1,1175,1149,0,0
-42,-125,0,0,0,0,0,0,0,0,0,-1,1182,1149,0,0
-35,-125,0,0,0,0,0,0,0,0,0,-1,1189,1149,0,0
-28,-125,0,0,0,0,0,0,0,0,0,-1,1196,1149,0,0
-21,-125,0,0,0,0,0,0,0,0,0,-1,1203,1149,0,0
-14,-125,0,0,0,0,0,0,0,0,0,-1,1210,1149,0,0
-7,-125,0,0,0,0,0,0,0,0,0,-1,1217,1149,0,0
0,-125,0,0,0,0,0,0,0,0,0,-1,1224,1149,0,0
7,-125,0,0,0,0,0,0,0,0,0,-1,1231,1149,0,0
14,-125,0,0,0,0,0,0,0,0,0,-1,1238,1149,0,0
21,-125,0,0,0,0,0,0,0,0,0,-1,1245,1149,0,0
28,-125,0,0,0,0,0,0,0,0,0,-1,1252,1149,0,0
35,-125,0,0,0,0,0,0,0,0,0,-1,1259,1149,0,0
42,-125,0,0,0,0,0,0,0,0,0,-1,1266,1149,0,0
49,-125,0,0,0,0,0,0,0,0,0,-1,1273,1149,0,0
56,-125,0,0,0,0,0,0,0,0,0,-1,1280,1149,0,0
63,-125,0,0,0,0,0,0,0,0,0,-1,1287,1149,0,0
70,-125,0,0,0,0,0,0,0,0,0,-1,1294,1149,0,0
77,-125,0,0,0,0,0,0,0,0,0,-1,1301,1149,0,0
84,-125,0,0,0,0,0,0,0,0,0,-1,1308,1149,0,0
91,-125,0,0,0,0,0,0,0,0,0,-1,1315,1149,0,0
98,-125,0,0,0,0,0,0,0,0,0,-1,1322,1149,0,0
105,-125,0,0,0,0,0,0,0,0,0,-1,1329,1149,0,0
112,-125,0,0,0,0,0,0,0,0,0,-1,1336,1149,0,0
119,-125,0,0,0,0,0,0,0,0,0,-1,1343,1149,0,0
126,-125,0,0,0,0,0,0,0,0,0,-1,1350,1149,0,0
133,-125,0,0,0,0,0,0,0,0,0,-1,1357,1149,0,0
140,-125,0,0,0,0,0,0,0,0,0,-1,1364,1149,0,0
147,-125,0,0,0,0,0,0,0,0,0,-1,1371,1149,0,0
154,-125,0,0,0,0,0,0,0,0,0,-1,1378,1149,0,0
161,-125,0,0,0,0,0,0,0,0,0,-1,1385,1149,0,0
168,-125,0,0,0,0,0,0,0,0,0,-1,1392,1149,0,0
175,-125,0,0,0,0,0,0,0,0,0,-1,1399,1149,0,0
182,-125,0,0,0,0,0,0,0,0,0,-1,1406,1149,0,0
189,-125,0,0,0,0,0,0,0,0,0,-1,1413,1149,0,0
196,-125,0,0,0,0,0,0,0,0,0,-1,1420,1149,0,0
203,-125,0,0,0,0,0,0,0,0,0,-1,1427,1149,0,0
210,-125,0,0,0,0,0,0,0,0,0,-1,1434,1149,0,0
217,-125,0,0,0,0,0,0,0,0,0,-1,1441,1149,0,0
224,-125,0,0,0,0,0,0,0,0,0,-1,1448,1149,0,0
231,-125,0,0,0,0,0,0,0,0,0,-1,1455,1149,0,0
238,-125,0,0,0,0,0,0,0,0,0,-1,1462,1149,0,0
245,-125,0,0,0,0,0,0,0,0,0,-1,1469,1149,0,0
252,-125,0,0,0,0,0,0,0,0,0,-1,1476,1149,0,0
259,-125,0,0,0,0,0,0,0,0,0,-1,1483,1149,0,0
266,-125,0,0,0,0,0,0,0,0,0,-1,1490,1149,0,0
273,-125,0,0,0,0,0,0,0,0,0,-1,1497,1149,0,0
280,-125,0,0,0,0,0,0,0,0,0,-1,1504,1149,0,0
287,-125,0,0,0,0,0,0,0,0,0,-1,1511,1149,0,0
294,-125,0,0,0,0,0,0,0,0,0,-1,1518,1149,0,0
301,-125,0,0,0,0,0,0,0,0,0,-1,1525,1149,0,0
308,-125,0,0,0,0,0,0,0,0,0,-1,1532,1149,0,0
315,-125,0,0,0,0,0,0,0,0,0,-1,1539,1149,0,0
322,-125,0,0,0,0,0,0,0,0,0,-1,1546,1149,0,0
329,-125,0,0,0,0,0,0,0,0,0,-1,1553,1149,0,0
336,-125,0,0,0,0,0,0,0,0,0,-1,1560,1149,0,0
343,-125,0,0,0,0,0,0,0,0,0,-1,1567,1149,0,0
350,-125,0,0,0,0,0,0,0,0,0,-1,1574,1149,0,0
357,-125,0,0,0,0,0,0,0,0,0,-1,1581,1149,0,0
364,-125,0,0,0,0,0,0,0,0,0,-1,1588,1149,0,0
371,-125,0,0,0,0,0,0,0,0,0,-1,1595,1149,0,0
378,-125,0,0,0,0,0,0,0,0,0,-1,1602,1149,0,0
385,-125,0,0,0,0,0,0,0,0,0,-1,1609,1149,0,0
392,-125,0,0,0,0,0,0,0,0,0,-1,1616,1149,0,0
399,-125,0,0,0,0,0,0,0,0,0,-1,1623,1149,0,0
406,-125,0,0,0,0,0,0,0,0,0,-1,1630,1149,0,0
413,-125,0,0,0,0,0,0,0,0,0,-1,1637,1149,0,0
420,-125,0,0,0,0,0,0,0,0,0,-1,1644,1149,0,0
427,-125,0,0,0,0,0,0,0,0,0,-1,1651,1149,0,0
434,-125,0,0,0,0,0,0,0,0,0,-1,1658,1149,0,0
441,-125,0,0,0,0,0,0,0,0,0,-1,1665,1149,0,0
448,-125,0,0,0,0,0,0,0,0,0,-1,1672,1149,0,0
455,-125,0,0,0,0,0,0,0,0,0,-1,1679,1149,0,0
462,-125,0,0,0,0,0,0,0,0,0,-1,1686,1149,0,0
469,-125,0,0,0,0,0,0,0,0,0,-1,1693,1149,0,0
476,-125,0,0,0,0,0,0,0,0,0,-1,1700,1149,0,0
483,-125,0,0,0,0,0,0,0,0,0,-1,1707,1149,0,0
490,-125,0,0,0,0,0,0,0,0,0,-1,1714,1149,0,0
497,-125,0,0,0,0,0,0,0,0,0,-1,1721,1149,0,0
504,-125,0,0,0,0,0,0,0,0,0,-1,1728,1149,0,0
511,-125,0,0,0,0,0,0,0,0,0,-1,1735,1149,0,0
518,-125,0,0,0,0,0,0,0,0,0,-1,1742,1149,0,0
525,-125,0,0,0,0,0,0,0,0,0,-1,1749,1149,0,0
532,-125,0,0,0,0,0,0,0,0,0,-1,1756,1149,0,0
539,-125,0,0,0,0,0,0,0,0,0,-1,1763,1149,0,0
546,-125,0,0,0,0,0,0,0,0,0,-1,1770,1149,0,0
553,-125,0,0,0,0,0,0,0,0,0,-1,1777,1149,0,0
560,-125,0,0,0,0,0,0,0,0,0,-1,1784,1149,0,0
567,-125,0,0,0,0,0,0,0,0,0,-1,1791,1149,0,0
574,-125,0,0,0,0,0,0,0,0,0,-1,1798,1149,0,0
581,-125,0,0,0,0,0,0,0,0,0,-1,1805,1149,0,0
588,-125,0,0,0,0,0,0,0,0,0,-1,1812,1149,0,0
595,-125,0,0,0,0,0,0,0,0,0,-1,1819,1149,0,0
602,-125,0,0,0,0,0,0,0,0,0,-1,1826,1149,0,0
609,-125,0,0,0,0,0,0,0,0,0,-1,1833,1149,0,0
616,-125,0,0,0,0,0,0,0,0,0,-1,1840,1149,0,0
623,-125,0,0,0,0,0,0,0,0,0,-1,1847,1149,0,0
630,-125,0,0,0,0,0,0,0,0,0,-1,1854,1149,0,0
637,-125,0,0,0,0,0,0,0,0,0,-1,1861,1149,0,0
644,-125,27.4982,3.45691,0,0,0,0,0,0,0,-1,1868,1149,27.4982,-3.45688
651,-125,27.4391,3.93164,0,0,0,0,0,0,0,-1,1875,1149,27.4391,-3.93159
658,-125,27.3079,3.47937,0.000847685,-0.00224859,-0.000662708,0.000983563,-0.00238447,-0.202233,0.00199982,0.0407524,1882,1149,27.3078,-3.47937
665,-125,27.3313,3.3761,0.00076559,-0.00149866,-0.000508471,0.000874533,-0.00160761,-0.211065,0.00145375,0.0425718,1889,1149,27.3313,-3.37614
672,-125,27.3844,3.1438,0.000394896,-0.00102129,-4.94324e-05,0.000396619,-0.00102301,-0.0348488,0.000845801,0.043706,1896,1149,27.3844,-3.14379
679,-125,27.3136,3.2113,-0.000153755,-0.000775947,0.000418427,5.65524e-05,-0.000986255,0.465738,0.000677142,0.0376956,1903,1149,27.3136,-3.21128
686,-125,27.3578,3.44592,-0.000776563,-0.000689862,0.000849787,0.00011768,-0.0015841,0.810883,0.0010974,0.0371382,1910,1149,27.3578,-3.44598
693,-125,27.3048,3.37573,-0.00126921,-0.000663899,0.00118654,0.000257977,-0.00219109,0.910273,0.00155387,0.0373262,1917,1149,27.3048,-3.37571
700,-125,27.3677,3.32861,-0.00163768,-0.000610568,0.0014906,0.000452467,-0.00270071,0.951294,0.00196871,0.0191869,1924,1149,27.3677,-3.32867
707,-125,27.6377,3.54456,0,0,0,0,0,0,0,-1,1931,1149,27.6377,-3.54456
714,-125,25.4006,5.96179,0,0,0,0,0,0,0,-1,1938,1149,25.4006,-5.96184
721,-125,25.4213,5.76965,-0.00267358,-0.000303184,0.00222798,0.00103523,-0.00401199,1.02984,0.00307832,0.0204994,1945,1149,25.4213,-5.7696
728,-125,25.4414,5.59192,-0.00264978,-0.000145843,0.00216012,0.00109889,-0.00389452,1.04803,0.00302981,0.0159422,1952,1149,25.4414,-5.59192
735,-125,25.4381,5.43774,-0.00237479,9.35092e-05,0.00190046,0.00112539,-0.00340667,1.07337,0.00272484,0.0178078,1959,1149,25.4381,-5.43779
742,-125,25.4288,5.26404,-0.00181708,0.000392331,0.00177475,0.00137811,-0.00280286,1.06378,0.00246016,0.0227193,1966,1149,25.4288,-5.26404
749,-125,25.411,5.10168,-0.000906405,0.000780668,0.00136979,0.00154582,-0.00167156,1.06138,0.00185803,0.0263368,1973,1149,25.4111,-5.10172
756,-125,25.4446,4.98926,0.000625497,0.00104741,0.000592758,0.00146563,0.000207274,0.956352,0.000915847,0.0205601,1980,1149,25.4446,-4.98928
763,-125,25.4552,4.81958,0.00265871,0.00108439,-0.000454707,0.0027806,0.000962496,-0.261914,0.00163052,0.0109127,1987,1149,25.4551,-4.81958
770,-125,25.4409,4.64758,0.00491533,0.000920723,-0.00151125,0.00542264,0.000413408,-0.323871,0.00348547,0.0131661,1994,1149,25.441,-4.64754
777,-125,25.4003,4.46191,0.00733119,0.000268183,-0.00257651,0.00817118,-0.000571801,-0.315151,0.00564771,0.0252193,2001,1149,25.4003,-4.46191
784,-125,25.4429,4.16528,0.0100876,-0.0010056,-0.0040755,0.0114239,-0.00234191,-0.316842,0.00850477,0.0429224,2008,1149,25.4429,-4.16528
791,-125,25.6301,3.8905,0.013135,-0.00308345,-0.00622528,0.015249,-0.00519741,-0.327359,0.012271,0.0459021,2015,1149,25.6301,-3.89053
798,-125,25.7302,3.81934,0,0,0,0,0,0,0,-1,2022,1149,25.7303,-3.81929
805,-125,26.3032,3.83167,0,0,0,0,0,0,0,-1,2029,1149,26.3032,-3.83166
812,-125,25.6646,3.73389,0,0,0,0,0,0,0,-1,2036,1149,25.6646,-3.73393
-700,-132,0,0,0,0,0,0,0,0,0,-1,524,1156,0,0
-693,-132,-16.3896,1.75549,0,0,0,0,0,0,0,-1,531,1156,-16.3896,-1.75546
-686,-132,-17.0273,1.91907,0,0,0,0,0,0,0,-1,538,1156,-17.0273,-1.91904
-679,-132,-17.3741,1.67285,0,0,0,0,0,0,0,-1,545,1156,-17.3741,-1.67288
-672,-132,-17.3008,1.46265,0,0,0,0,0,0,0,-1,552,1156,-17.3009,-1.46259
-665,-132,-17.2889,0.996948,0,0,0,0,0,0,0,-1,559,1156,-17.289,-0.996893
-658,-132,-17.209,1.08118,0,0,0,0,0,0,0,-1,566,1156,-17.209,-1.08112
-651,-132,-16.8085,1.54724,0,0,0,0,0,0,0,-1,573,1156,-16.8085,-1.54728
-644,-132,-16.7574,1.85474,0.00775239,0.00557866,-0.00393073,0.0107438,0.0025873,-0.650516,0.00647474,0.0215658,580,1156,-16.7575,-1.85469
-637,-132,-16.7385,2.04468,0.00645981,0.0044161,-0.00210004,0.00777341,0.0031025,-0.558968,0.00451833,0.011913,587,1156,-16.7385,-2.04472
-630,-132,-16.7388,2.23706,0.00490641,0.00309864,-0.000742324,0.00517216,0.00283288,-0.343785,0.00299068,0.0104165,594,1156,-16.7389,-2.23707
-623,-132,-16.7577,2.44189,0.00339428,0.00215468,-0.000138254,0.00340951,0.00213945,-0.109735,0.0019897,0.0154451,601,1156,-16.7577,-2.44186
-616,-132,-16.7612,2.62427,0.00219965,0.00140737,-0.000416177,0.00237808,0.00122894,-0.405028,0.00137324,0.019649,608,1156,-16.7612,-2.62429
-609,-132,-16.7077,2.7561,0.000585382,0.000434049,-0.00117171,0.00168386,-0.000664434,-0.753154,0.00139773,0.0185223,615,1156,-16.7077,-2.7561
-602,-132,-16.8127,2.91101,-0.000236478,-0.000239147,-0.00202183,0.00178402,-0.00225965,-0.785068,0.00233999,0.0165088,622,1156,-16.8127,-2.91096
-595,-132,-16.8588,3.16272,-0.000321962,-0.000533733,-0.00251171,0.00208609,-0.00294179,-0.764332,0.00291683,0.0204729,629,1156,-16.8588,-3.16277
-588,-132,-16.7324,3.46326,-0.00028464,-0.0005962,-0.00269226,0.00225635,-0.00313719,-0.756499,0.00312777,0.0187146,636,1156,-16.7324,-3.46327
-581,-132,-16.4812,3.8158,0,0,0,0,0,0,0,-1,643,1156,-16.4812,-3.81577
-574,-132,-18.8114,1.52747,0,0,0,0,0,0,0,-1,650,1156,-18.8114,-1.52746
-567,-132,-18.9046,1.49036,4.52556e-05,-0.000246134,-0.00277929,0.00268267,-0.00288354,-0.759211,0.00321435,0.03841,657,1156,-18.9046,-1.49035
-560,-132,-18.9375,1.427,3.1037e-05,-2.48863e-06,-0.00266266,0.00267699,-0.00264844,-0.78225,0.00307465,0.0362514,664,1156,-18.9375,-1.42704
-553,-132,-18.8617,1.27271,-8.4333e-05,0.000267565,-0.00244085,0.0025388,-0.00235557,-0.821379,0.00282642,0.0380059,671,1156,-18.8617,-1.27274
-546,-132,-18.708,1.26172,-0.000348419,0.000477014,-0.00208705,0.00219176,-0.00206317,-0.883014,0.00245696,0.0387931,678,1156,-18.708,-1.26173
-539,-132,-18.7059,1.38696,-0.000831052,0.000506967,-0.00152338,0.00150177,-0.00182585,-0.9923,0.00192424,0.0402556,685,1156,-18.7059,-1.38693
-532,-132,-18.8472,1.50232,-0.00114886,3.6126e-05,-0.000847384,0.000477609,-0.00159034,-1.09049,0.00125022,0.0401974,692,1156,-18.8472,-1.50235
-525,-132,-18.8763,1.51257,-0.00181779,-0.000813174,-0.000870941,-0.000310072,-0.0023209,-1.04697,0.00145496,0.0399699,699,1156,-18.8764,-1.51256
-518,-132,0,0,0,0,0,0,0,0,0,-1,706,1156,0,0
-511,-132,0,0,0,0,0,0,0,0,0,-1,713,1156,0,0
-504,-132,0,0,0,0,0,0,0,0,0,-1,720,1156,0,0
-497,-132,0,0,0,0,0,0,0,0,0,-1,727,1156,0,0
-490,-132,0,0,0,0,0,0,0,0,0,-1,734,1156,0,0
-483,-132,0,0,0,0,0,0,0,0,0,-1,741,1156,0,0
-476,-132,0,0,0,0,0,0,0,0,0,-1,748,1156,0,0
-469,-132,0,0,0,0,0,0,0,0,0,-1,755,1156,0,0
-462,-132,0,0,0,0,0,0,0,0,0,-1,762,1156,0,0
-455,-132,0,0,0,0,0,0,0,0,0,-1,769,1156,0,0
-448,-132,0,0,0,0,0,0,0,0,0,-1,776,1156,0,0
-441,-132,0,0,0,0,0,0,0,0,0,-1,783,1156,0,0
-434,-132,0,0,0,0,0,0,0,0,0,-1,790,1156,0,0
-427,-132,0,0,0,0,0,0,0,0,0,-1,797,1156,0,0
-420,-132,0,0,0,0,0,0,0,0,0,-1,804,1156,0,0
-413,-132,0,0,0,0,0,0,0,0,0,-1,811,1156,0,0
-406,-132,0,0,0,0,0,0,0,0,0,-1,818,1156,0,0
-399,-132,0,0,0,0,0,0,0,0,0,-1,825,1156,0,0
-392,-132,0,0,0,0,0,0,0,0,0,-1,832,1156,0,0
-385,-132,0,0,0,0,0,0,0,0,0,-1,839,1156,0,0
-378,-132,0,0,0,0,0,0,0,0,0,-1,846,1156,0,0
-371,-132,0,0,0,0,0,0,0,0,0,-1,853,1156,0,0
-364,-132,0,0,0,0,0,0,0,0,0,-1,860,1156,0,0
-357,-132,0,0,0,0,0,0,0,0,0,-1,867,1156,0,0
-350,-132,0,0,0,0,0,0,0,0,0,-1,874,1156,0,0
-343,-132,0,0,0,0,0,0,0,0,0,-1,881,1156,0,0
-336,-132,0,0,0,0,0,0,0,0,0,-1,888,1156,0,0
-329,-132,0,0,0,0,0,0,0,0,0,-1,895,1156,0,0
-322,-132,0,0,0,0,0,0,0,0,0,-1,902,1156,0,0
-315,-132,0,0,0,0,0,0,0,0,0,-1,909,1156,0,0
-308,-132,0,0,0,0,0,0,0,0,0,-1,916,1156,0,0
-301,-132,0,0,0,0,0,0,0,0,0,-1,923,1156,0,0
-294,-132,0,0,0,0,0,0,0,0,0,-1,930,1156,0,0
-287,-132,0,0,0,0,0,0,0,0,0,-1,937,1156,0,0
-280,-132,0,0,0,0,0,0,0,0,0,-1,944,1156,0,0
-273,-132,0,0,0,0,0,0,0,0,0,-1,951,1156,0,0
-266,-132,0,0,0,0,0,0,0,0,0,-1,958,1156,0,0
-259,-132,0,0,0,0,0,0,0,0,0,-1,965,1156,0,0
-252,-132,0,0,0,0,0,0,0,0,0,-1,972,1156,0,0
-245,-132,0,0,0,0,0,0,0,0,0,-1,979,1156,0,0
-238,-132,0,0,0,0,0,0,0,0,0,-1,986,1156,0,0
-231,-132,0,0,0,0,0,0,0,0,0,-1,993,1156,0,0
-224,-132,0,0,0,0,0,0,0,0,0,-1,1000,1156,0,0
-217,-132,0,0,0,0,0,0,0,0,0,-1,1007,1156,0,0
-210,-132,0,0,0,0,0,0,0,0,0,-1,1014,1156,0,0
-203,-132,0,0,0,0,0,0,0,0,0,-1,1021,1156,0,0
-196,-132,0,0,0,0,0,0,0,0,0,-1,1028,1156,0,0
-189,-132,0,0,0,0,0,0,0,0,0,-1,1035,1156,0,0
-182,-132,0,0,0,0,0,0,0,0,0,-1,1042,1156,0,0
-175,-132,0,0,0,0,0,0,0,0,0,-1,1049,1156,0,0
-168,-132,0,0,0,0,0,0,0,0,0,-1,1056,1156,0,0
-161,-132,0,0,0,0,0,0,0,0,0,-1,1063,1156,0,0
-154,-132,0,0,0,0,0,0,0,0,0,-1,1070,1156,0,0
-147,-132,0,0,0,0,0,0,0,0,0,-1,1077,1156,0,0
-140,-132,0,0,0,0,0,0,0,0,0,-1,1084,1156,0,0
-133,-132,0,0,0,0,0,0,0,0,0,-1,1091,1156,0,0
-126,-132,0,0,0,0,0,0,0,0,0,-1,1098,1156,0,0
-119,-132,0,0,0,0,0,0,0,0,0,-1,1105,1156,0,0
-112,-132,0,0,0,0,0,0,0,0,0,-1,1112,1156,0,0
-105,-132,0,0,0,0,0,0,0,0,0,-1,1119,1156,0,0
-98,-132,0,0,0,0,0,0,0,0,0,-1,1126,1156,0,0
-91,-132,0,0,0,0,0,0,0,0,0,-1,1133,1156,0,0
-84,-132,0,0,0,0,0,0,0,0,0,-1,1140,1156,0,0
-77,-132,0,0,0,0,0,0,0,0,0,-1,1147,1156,0,0
-70,-132,0,0,0,0,0,0,0,0,0,-1,1154,1156,0,0
-63,-132,0,0,0,0,0,0,0,0,0,-1,1161,1156,0,0
-56,-132,0,0,0,0,0,0,0,0,0,-1,1168,1156,0,0
-49,-132,0,0,0,0,0,0,0,0,0,-1,1175,1156,0,0
-42,-132,0,0,0,0,0,0,0,0,0,-1,1182,1156,0,0
-35,-132,0,0,0,0,0,0,0,0,0,-1,1189,1156,0,0
-28,-132,0,0,0,0,0,0,0,0,0,-1,1196,1156,0,0
-21,-132,0,0,0,0,0,0,0,0,0,-1,1203,1156,0,0
-14,-132,0,0,0,0,0,0,0,0,0,-1,1210,1156,0,0
-7,-132,0,0,0,0,0,0,0,0,0,-1,1217,1156,0,0
0,-132,0,0,0,0,0,0,0,0,0,-1,1224,1156,0,0
7,-132,0,0,0,0,0,0,0,0,0,-1,1231,1156,0,0
14,-132,0,0,0,0,0,0,0,0,0,-1,1238,1156,0,0
21,-132,0,0,0,0,0,0,0,0,0,-1,1245,1156,0,0
28,-132,0,0,0,0,0,0,0,0,0,-1,1252,1156,0,0
35,-132,0,0,0,0,0,0,0,0,0,-1,1259,1156,0,0
42,-132,0,0,0,0,0,0,0,0,0,-1,1266,1156,0,0
49,-132,0,0,0,0,0,0,0,0,0,-1,1273,1156,0,0
56,-132,0,0,0,0,0,0,0,0,0,-1,1280,1156,0,0
63,-132,0,0,0,0,0,0,0,0,0,-1,1287,1156,0,0
70,-132,0,0,0,0,0,0,0,0,0,-1,1294,1156,0,0
77,-132,0,0,0,0,0,0,0,0,0,-1,1301,1156,0,0
84,-132,0,0,0,0,0,0,0,0,0,-1,1308,1156,0,0
91,-132,0,0,0,0,0,0,0,0,0,-1,1315,1156,0,0
98,-132,0,0,0,0,0,0,0,0,0,-1,1322,1156,0,0
105,-132,0,0,0,0,0,0,0,0,0,-1,1329,1156,0,0
112,-132,0,0,0,0,0,0,0,0,0,-1,1336,1156,0,0
119,-132,0,0,0,0,0,0,0,0,0,-1,1343,1156,0,0
126,-132,0,0,0,0,0,0,0,0,0,-1,1350,1156,0,0
133,-132,0,0,0,0,0,0,0,0,0,-1,1357,1156,0,0
140,-132,0,0,0,0,0,0,0,0,0,-1,1364,1156,0,0
147,-132,0,0,0,0,0,0,0,0,0,-1,1371,1156,0,0
154,-132,0,0,0,0,0,0,0,0,0,-1,1378,1156,0,0
161,-132,0,0,0,0,0,0,0,0,0,-1,1385,1156,0,0
168,-132,0,0,0,0,0,0,0,0,0,-1,1392,1156,0,0
175,-132,0,0,0,0,0,0,0,0,0,-1,1399,1156,0,0
182,-132,0,0,0,0,0,0,0,0,0,-1,1406,1156,0,0
189,-132,0,0,0,0,0,0,0,0,0,-1,1413,1156,0,0
196,-132,0,0,0,0,0,0,0,0,0,-1,1420,1156,0,0
203,-132,0,0,0,0,0,0,0,0,0,-1,1427,1156,0,0
210,-132,0,0,0,0,0,0,0,0,0,-1,1434,1156,0,0
217,-132,0,0,0,0,0,0,0,0,0,-1,1441,1156,0,0
224,-132,0,0,0,0,0,0,0,0,0,-1,1448,1156,0,0
231,-132,0,0,0,0,0,0,0,0,0,-1,1455,1156,0,0
238,-132,0,0,0,0,0,0,0,0,0,-1,1462,1156,0,0
245,-132,0,0,0,0,0,0,0,0,0,-1,1469,1156,0,0
252,-132,0,0,0,0,0,0,0,0,0,-1,1476,1156,0,0
259,-132,0,0,0,0,0,0,0,0,0,-1,1483,1156,0,0
266,-132,0,0,0,0,0,0,0,0,0,-1,1490,1156,0,0
273,-132,0,0,0,0,0,0,0,0,0,-1,1497,1156,0,0
280,-132,0,0,0,0,0,0,0,0,0,-1,1504,1156,0,0
287,-132,0,0,0,0,0,0,0,0,0,-1,1511,1156,0,0
294,-132,0,0,0,0,0,0,0,0,0,-1,1518,1156,0,0
301,-132,0,0,0,0,0,0,0,0,0,-1,1525,1156,0,0
308,-132,0,0,0,0,0,0,0,0,0,-1,1532,1156,0,0
315,-132,0,0,0,0,0,0,0,0,0,-1,1539,1156,0,0
322,-132,0,0,0,0,0,0,0,0,0,-1,1546,1156,0,0
329,-132,0,0,0,0,0,0,0,0,0,-1,1553,1156,0,0
336,-132,0,0,0,0,0,0,0,0,0,-1,1560,1156,0,0
343,-132,0,0,0,0,0,0,0,0,0,-1,1567,1156,0,0
350,-132,0,0,0,0,0,0,0,0,0,-1,1574,1156,0,0
357,-132,0,0,0,0,0,0,0,0,0,-1,1581,1156,0,0
364,-132,0,0,0,0,0,0,0,0,0,-1,1588,1156,0,0
371,-132,0,0,0,0,0,0,0,0,0,-1,1595,1156,0,0
378,-132,0,0,0,0,0,0,0,0,0,-1,1602,1156,0,0
385,-132,0,0,0,0,0,0,0,0,0,-1,1609,1156,0,0
392,-132,0,0,0,0,0,0,0,0,0,-1,1616,1156,0,0
399,-132,0,0,0,0,0,0,0,0,0,-1,1623,1156,0,0
406,-132,0,0,0,0,0,0,0,0,0,-1,1630,1156,0,0
413,-132,0,0,0,0,0,0,0,0,0,-1,1637,1156,0,0
420,-132,0,0,0,0,0,0,0,0,0,-1,1644,1156,0,0
427,-132,0,0,0,0,0,0,0,0,0,-1,1651,1156,0,0
434,-132,0,0,0,0,0,0,0,0,0,-1,1658,1156,0,0
441,-132,0,0,0,0,0,0,0,0,0,-1,1665,1156,0,0
448,-132,0,0,0,0,0,0,0,0,0,-1,1672,1156,0,0
455,-132,0,0,0,0,0,0,0,0,0,-1,1679,1156,0,0
462,-132,0,0,0,0,0,0,0,0,0,-1,1686,1156,0,0
469,-132,0,0,0,0,0,0,0,0,0,-1,1693,1156,0,0
476,-132,0,0,0,0,0,0,0,0,0,-1,1700,1156,0,0
483,-132,0,0,0,0,0,0,0,0,0,-1,1707,1156,0,0
490,-132,0,0,0,0,0,0,0,0,0,-1,1714,1156,0,0
497,-132,0,0,0,0,0,0,0,0,0,-1,1721,1156,0,0
504,-132,0,0,0,0,0,0,0,0,0,-1,1728,1156,0,0
511,-132,0,0,0,0,0,0,0,0,0,-1,1735,1156,0,0
518,-132,0,0,0,0,0,0,0,0,0,-1,1742,1156,0,0
525,-132,0,0,0,0,0,0,0,0,0,-1,1749,1156,0,0
532,-132,0,0,0,0,0,0,0,0,0,-1,1756,1156,0,0
539,-132,0,0,0,0,0,0,0,0,0,-1,1763,1156,0,0
546,-132,0,0,0,0,0,0,0,0,0,-1,1770,1156,0,0
553,-132,0,0,0,0,0,0,0,0,0,-1,1777,1156,0,0
560,-132,0,0,0,0,0,0,0,0,0,-1,1784,1156,0,0
567,-132,0,0,0,0,0,0,0,0,0,-1,1791,1156,0,0
574,-132,0,0,0,0,0,0,0,0,0,-1,1798,1156,0,0
581,-132,0,0,0,0,0,0,0,0,0,-1,1805,1156,0,0
588,-132,0,0,0,0,0,0,0,0,0,-1,1812,1156,0,0
595,-132,0,0,0,0,0,0,0,0,0,-1,1819,1156,0,0
602,-132,0,0,0,0,0,0,0,0,0,-1,1826,1156,0,0
609,-132,0,0,0,0,0,0,0,0,0,-1,1833,1156,0,0
616,-132,0,0,0,0,0,0,0,0,0,-1,1840,1156,0,0
623,-132,0,0,0,0,0,0,0,0,0,-1,1847,1156,0,0
630,-132,0,0,0,0,0,0,0,0,0,-1,1854,1156,0,0
637,-132,0,0,0,0,0,0,0,0,0,-1,1861,1156,0,0
644,-132,27.5414,3.33752,0.00023267,-0.00369107,-0.00053027,0.000303069,-0.00376147,-0.13199,0.00261453,0.0414656,1868,1156,27.5414,-3.33748
651,-132,27.5558,3.24902,0.000160097,-0.0027535,-0.000413876,0.000217748,-0.00281115,-0.138403,0.00195074,0.0404412,1875,1156,27.5558,-3.24908
658,-132,27.3881,3.19812,0.000243083,-0.00187234,-0.000394808,0.000314365,-0.00194362,-0.178625,0.00141225,0.0408472,1882,1156,27.3881,-3.19813
665,-132,27.3245,3.27917,0.000377953,-0.00115814,-0.000338821,0.000449368,-0.00122956,-0.207733,0.00100361,0.0413449,1889,1156,27.3244,-3.27915
672,-132,27.3439,3.32776,0.000244706,-0.000707611,-6.99616e-05,0.000249818,-0.000712723,-0.0729427,0.000576748,0.0383005,1896,1156,27.3439,-3.32781
679,-132,27.3287,3.24524,-0.000102101,-0.00047832,0.000228781,5.97534e-06,-0.000586396,0.441325,0.000392937,0.0378551,1903,1156,27.3287,-3.24521
686,-132,27.4189,3.25244,-0.000569742,-0.000390991,0.000513711,4.10611e-05,-0.00100179,0.871526,0.000681962,0.036678,1910,1156,27.419,-3.25241
693,-132,27.3512,3.34412,-0.000964965,-0.000373884,0.000733579,0.00012145,-0.0014603,0.976889,0.00101644,0.0296642,1917,1156,27.3512,-3.3441
700,-132,27.3862,3.31665,-0.00128465,-0.000331573,0.000975865,0.000277889,-0.00189412,1.01253,0.00136484,0.0317499,1924,1156,27.3862,-3.31659
707,-132,26.3492,4.76526,0,0,0,0,0,0,0,-1,1931,1156,26.3492,-4.76523
714,-132,25.1414,5.93896,0,0,0,0,0,0,0,-1,1938,1156,25.1414,-5.93896
721,-132,25.2396,5.76416,-0.00224575,-8.32728e-05,0.00162024,0.000783375,-0.0031124,1.07963,0.00237944,0.0262772,1945,1156,25.2396,-5.76412
728,-132,25.2811,5.58594,-0.00218485,6.0664e-05,0.00157141,0.000869205,-0.00299339,1.09559,0.00233978,0.0172254,1952,1156,25.2811,-5.5859
735,-132,25.2734,5.42834,-0.00191326,0.000282628,0.00136025,0.000932757,-0.00256339,1.12495,0.0020904,0.0191798,1959,1156,25.2735,-5.42839
742,-132,25.2432,5.23718,-0.00134814,0.000554845,0.0012553,0.00117851,-0.0019718,1.10969,0.00183796,0.0204331,1966,1156,25.2431,-5.23713
749,-132,25.2438,5.08374,-0.000402847,0.000945766,0.000884572,0.00138374,-0.000840816,1.11106,0.00129703,0.0249842,1973,1156,25.2438,-5.08369
756,-132,25.2822,4.93225,0.00115997,0.00125747,0.000118017,0.00133641,0.00108103,0.981274,0.000819192,0.0228922,1980,1156,25.2823,-4.93228
763,-132,25.2925,4.80237,0.00315183,0.00135646,-0.000927898,0.0035452,0.000963085,-0.400974,0.00211677,0.0131661,1987,1156,25.2925,-4.80241
770,-132,25.2805,4.67297,0.00535887,0.00127668,-0.00197951,0.0061611,0.000474451,-0.38504,0.00395874,0.0129128,1994,1156,25.2805,-4.67303
777,-132,25.2609,4.474,0.00775257,0.000777049,-0.00317112,0.00897867,-0.000449047,-0.368941,0.00614094,0.022075,2001,1156,25.2609,-4.47395
784,-132,25.3223,4.18958,0.0104524,-0.000312799,-0.00490468,0.0123519,-0.00221225,-0.369486,0.00906246,0.0432754,2008,1156,25.3223,-4.18952
791,-132,25.4044,3.90845,0,0,0,0,0,0,0,-1,2015,1156,25.4044,-3.90842
798,-132,25.2806,3.64661,0,0,0,0,0,0,0,-1,2022,1156,25.2807,-3.64666
805,-132,26.75,2.26624,0,0,0,0,0,0,0,-1,2029,1156,26.7499,-2.26629
812,-132,27.3035,1.80896,0,0,0,0,0,0,0,-1,2036,1156,27.3034,-1.80901
-700,-139,0,0,0,0,0,0,0,0,0,-1,524,1163,0,0
-693,-139,-16.3851,0.66687,0,0,0,0,0,0,0,-1,531,1163,-16.3851,-0.666892
-686,-139,-17.004,0.361938,0,0,0,0,0,0,0,-1,538,1163,-17.004,-0.361951
-679,-139,-16.8482,0.318848,0,0,0,0,0,0,0,-1,545,1163,-16.8482,-0.318829
-672,-139,-16.9775,1.49438,0.000686458,0.0166016,-0.0279019,0.0376585,-0.0203705,-0.924309,0.0339951,0.0435907,552,1163,-16.9775,-1.49436
-665,-139,-16.7441,1.22559,0.0039869,0.0156455,-0.0182337,0.028959,-0.00932665,-0.940113,0.0230526,0.0433694,559,1163,-16.7442,-1.22561
-658,-139,-16.6099,1.19995,0.00554819,0.0141057,-0.0113337,0.0219414,-0.00228753,-0.965889,0.0154467,0.0450623,566,1163,-16.6099,-1.19999
-651,-139,-16.5428,1.55212,0.0058404,0.0121714,-0.00657896,0.0163068,0.00170499,-1.00963,0.0103498,0.0405553,573,1163,-16.5429,-1.55214
-644,-139,-16.5184,1.81079,0.00530979,0.0100407,-0.00347121,0.0118758,0.00347469,-1.08448,0.0070504,0.0219558,580,1163,-16.5184,-1.81084
-637,-139,-16.5168,2.02039,0.00444981,0.00784665,-0.00162664,0.00849995,0.00379652,-1.18889,0.00491675,0.0122902,587,1163,-16.5168,-2.02041
-630,-139,-16.536,2.21765,0.00344749,0.00555012,-0.000216562,0.00557219,0.00342542,-1.46922,0.00324522,0.0107382,594,1163,-16.536,-2.21764
-623,-139,-16.5663,2.40662,0.00253667,0.00379213,0.000498904,0.00396624,0.00236256,1.23502,0.00230384,0.0164545,601,1163,-16.5664,-2.40663
-616,-139,-16.5648,2.56409,0.00181033,0.00246287,0.000197467,0.00251797,0.00175523,1.29867,0.00149092,0.0167301,608,1163,-16.5648,-2.56415
-609,-139,-16.5168,2.771,0.000619263,0.00108356,-0.00052245,0.00142312,0.000279705,-0.994468,0.000870616,0.0246427,615,1163,-16.5168,-2.77097
-602,-139,-16.631,2.98022,7.72608e-05,0.000262891,-0.00139277,0.00156593,-0.00122578,-0.818669,0.00161578,0.0195239,622,1163,-16.631,-2.98024
-595,-139,-16.6672,3.20117,8.16547e-05,-8.16137e-05,-0.00194808,0.00194981,-0.00194977,-0.764458,0.00225142,0.0191156,629,1163,-16.6673,-3.2012
-588,-139,-16.5657,3.45422,6.38224e-05,-0.000121143,-0.00216614,0.00213945,-0.00219677,-0.764064,0.00250359,0.0196475,636,1163,-16.5657,-3.45417
-581,-139,-16.469,3.71484,0,0,0,0,0,0,0,-1,643,1163,-16.469,-3.71489
-574,-139,-18.646,1.17468,0,0,0,0,0,0,0,-1,650,1163,-18.646,-1.17467
-567,-139,-18.8375,1.30176,0.000411251,0.000215473,-0.00221938,0.0025349,-0.00190817,-0.763359,0.0025737,0.0450195,657,1163,-18.8375,-1.30171
-560,-139,-18.9243,1.43835,0.000381492,0.000374125,-0.00212971,0.00250752,-0.0017519,-0.784533,0.00247204,0.0350688,664,1163,-18.9243,-1.43838
-553,-139,-18.8964,1.40527,0.000280156,0.000556913,-0.00193324,0.00235672,-0.00151965,-0.821126,0.00225535,0.0389022,671,1163,-18.8964,-1.40522
-546,-139,-18.7772,1.17578,8.39798e-05,0.000648218,-0.00158233,0.00197338,-0.00124118,-0.873618,0.00187191,0.0416755,678,1163,-18.7772,-1.17581
-539,-139,-18.8053,1.37158,-0.000341456,0.00052842,-0.00098921,0.00117409,-0.000987123,-0.992518,0.00124933,0.0408907,685,1163,-18.8053,-1.3716
-532,-139,-18.786,1.47412,-0.000568688,-5.22251e-05,-9.28559e-05,-3.60377e-05,-0.000584875,-1.3982,0.000378477,0.0382501,692,1163,-18.786,-1.47409
-525,-139,-18.7012,1.39893,-0.000826344,-0.000978521,0.000518815,-0.000378067,-0.0014268,0.712588,0.000853557,0.0397516,699,1163,-18.7011,-1.39896
-518,-139,0,0,0,0,0,0,0,0,0,-1,706,1163,0,0
-511,-139,0,0,0,0,0,0,0,0,0,-1,713,1163,0,0
-504,-139,0,0,0,0,0,0,0,0,0,-1,720,1163,0,0
-497,-139,0,0,0,0,0,0,0,0,0,-1,727,1163,0,0
-490,-139,0,0,0,0,0,0,0,0,0,-1,734,1163,0,0
-483,-139,0,0,0,0,0,0,0,0,0,-1,741,1163,0,0
-476,-139,0,0,0,0,0,0,0,0,0,-1,748,1163,0,0
-469,-139,0,0,0,0,0,0,0,0,0,-1,755,1163,0,0
-462,-139,0,0,0,0,0,0,0,0,0,-1,762,1163,0,0
-455,-139,0,0,0,0,0,0,0,0,0,-1,769,1163,0,0
-448,-139,0,0,0,0,0,0,0,0,0,-1,776,1163,0,0
-441,-139,0,0,0,0,0,0,0,0,0,-1,783,1163,0,0
-434,-139,0,0,0,0,0,0,0,0,0,-1,790,1163,0,0
-427,-139,0,0,0,0,0,0,0,0,0,-1,797,1163,0,0
-420,-139,0,0,0,0,0,0,0,0,0,-1,804,1163,0,0
-413,-139,0,0,0,0,0,0,0,0,0,-1,811,1163,0,0
-406,-139,0,0,0,0,0,0,0,0,0,-1,818,1163,0,0
-399,-139,0,0,0,0,0,0,0,0,0,-1,825,1163,0,0
-392,-139,0,0,0,0,0,0,0,0,0,-1,832,1163,0,0
-385,-139,0,0,0,0,0,0,0,0,0,-1,839,1163,0,0
-378,-139,0,0,0,0,0,0,0,0,0,-1,846,1163,0,0
-371,-139,0,0,0,0,0,0,0,0,0,-1,853,1163,0,0
-364,-139,0,0,0,0,0,0,0,0,0,-1,860,1163,0,0
-357,-139,0,0,0,0,0,0,0,0,0,-1,867,1163,0,0
-350,-139,0,0,0,0,0,0,0,0,0,-1,874,1163,0,0
-343,-139,0,0,0,0,0,0,0,0,0,-1,881,1163,0,0
-336,-139,0,0,0,0,0,0,0,0,0,-1,888,1163,0,0
-329,-139,0,0,0,0,0,0,0,0,0,-1,895,1163,0,0
-322,-139,0,0,0,0,0,0,0,0,0,-1,902,1163,0,0
-315,-139,0,0,0,0,0,0,0,0,0,-1,909,1163,0,0
-308,-139,0,0,0,0,0,0,0,0,0,-1,916,1163,0,0
-301,-139,0,0,0,0,0,0,0,0,0,-1,923,1163,0,0
-294,-139,0,0,0,0,0,0,0,0,0,-1,930,1163,0,0
-287,-139,0,0,0,0,0,0,0,0,0,-1,937,1163,0,0
-280,-139,0,0,0,0,0,0,0,0,0,-1,944,1163,0,0
-273,-139,0,0,0,0,0,0,0,0,0,-1,951,1163,0,0
-266,-139,0,0,0,0,0,0,0,0,0,-1,958,1163,0,0
-259,-139,0,0,0,0,0,0,0,0,0,-1,965,1163,0,0
-252,-139,0,0,0,0,0,0,0,0,0,-1,972,1163,0,0
-245,-139,0,0,0,0,0,0,0,0,0,-1,979,1163,0,0
-238,-139,0,0,0,0,0,0,0,0,0,-1,986,1163,0,0
-231,-139,0,0,0,0,0,0,0,0,0,-1,993,1163,0,0
-224,-139,0,0,0,0,0,0,0,0,0,-1,1000,1163,0,0
-217,-139,0,0,0,0,0,0,0,0,0,-1,1007,1163,0,0
-210,-139,0,0,0,0,0,0,0,0,0,-1,1014,1163,0,0
-203,-139,0,0,0,0,0,0,0,0,0,-1,1021,1163,0,0
-196,-139,0,0,0,0,0,0,0,0,0,-1,1028,1163,0,0
-189,-139,0,0,0,0,0,0,0,0,0,-1,1035,1163,0,0
-182,-139,0,0,0,0,0,0,0,0,0,-1,1042,1163,0,0
-175,-139,0,0,0,0,0,0,0,0,0,-1,1049,1163,0,0
-168,-139,0,0,0,0,0,0,0,0,0,-1,1056,1163,0,0
-161,-139,0,0,0,0,0,0,0,0,0,-1,1063,1163,0,0
-154,-139,0,0,0,0,0,0,0,0,0,-1,1070,1163,0,0
-147,-139,0,0,0,0,0,0,0,0,0,-1,1077,1163,0,0
-140,-139,0,0,0,0,0,0,0,0,0,-1,1084,1163,0,0
-133,-139,0,0,0,0,0,0,0,0,0,-1,1091,1163,0,0
-126,-139,0,0,0,0,0,0,0,0,0,-1,1098,1163,0,0
-119,-139,0,0,0,0,0,0,0,0,0,-1,1105,1163,0,0
-112,-139,0,0,0,0,0,0,0,0,0,-1,1112,1163,0,0
-105,-139,0,0,0,0,0,0,0,0,0,-1,1119,1163,0,0
-98,-139,0,0,0,0,0,0,0,0,0,-1,1126,1163,0,0
-91,-139,0,0,0,0,0,0,0,0,0,-1,1133,1163,0,0
-84,-139,0,0,0,0,0,0,0,0,0,-1,1140,1163,0,0
-77,-139,0,0,0,0,0,0,0,0,0,-1,1147,1163,0,0
-70,-139,0,0,0,0,0,0,0,0,0,-1,1154,1163,0,0
-63,-139,0,0,0,0,0,0,0,0,0,-1,1161,1163,0,0
-56,-139,0,0,0,0,0,0,0,0,0,-1,1168,1163,0,0
-49,-139,0,0,0,0,0,0,0,0,0,-1,1175,1163,0,0
-42,-139,0,0,0,0,0,0,0,0,0,-1,1182,1163,0,0
-35,-139,0,0,0,0,0,0,0,0,0,-1,1189,1163,0,0
-28,-139,0,0,0,0,0,0,0,0,0,-1,1196,1163,0,0
-21,-139,0,0,0,0,0,0,0,0,0,-1,1203,1163,0,0
-14,-139,0,0,0,0,0,0,0,0,0,-1,1210,1163,0,0
-7,-139,0,0,0,0,0,0,0,0,0,-1,1217,1163,0,0
0,-139,0,0,0,0,0,0,0,0,0,-1,1224,1163,0,0
7,-139,0,0,0,0,0,0,0,0,0,-1,1231,1163,0,0
14,-139,0,0,0,0,0,0,0,0,0,-1,1238,1163,0,0
21,-139,0,0,0,0,0,0,0,0,0,-1,1245,1163,0,0
28,-139,0,0,0,0,0,0,0,0,0,-1,1252,1163,0,0
35,-139,0,0,0,0,0,0,0,0,0,-1,1259,1163,0,0
42,-139,0,0,0,0,0,0,0,0,0,-1,1266,1163,0,0
49,-139,0,0,0,0,0,0,0,0,0,-1,1273,1163,0,0
56,-139,0,0,0,0,0,0,0,0,0,-1,1280,1163,0,0
63,-139,0,0,0,0,0,0,0,0,0,-1,1287,1163,0,0
70,-139,0,0,0,0,0,0,0,0,0,-1,1294,1163,0,0
77,-139,0,0,0,0,0,0,0,0,0,-1,1301,1163,0,0
84,-139,0,0,0,0,0,0,0,0,0,-1,1308,1163,0,0
91,-139,0,0,0,0,0,0,0,0,0,-1,1315,1163,0,0
98,-139,0,0,0,0,0,0,0,0,0,-1,1322,1163,0,0
105,-139,0,0,0,0,0,0,0,0,0,-1,1329,1163,0,0
112,-139,0,0,0,0,0,0,0,0,0,-1,1336,1163,0,0
119,-139,0,0,0,0,0,0,0,0,0,-1,1343,1163,0,0
126,-139,0,0,0,0,0,0,0,0,0,-1,1350,1163,0,0
133,-139,0,0,0,0,0,0,0,0,0,-1,1357,1163,0,0
140,-139,0,0,0,0,0,0,0,0,0,-1,1364,1163,0,0
147,-139,0,0,0,0,0,0,0,0,0,-1,1371,1163,0,0
154,-139,0,0,0,0,0,0,0,0,0,-1,1378,1163,0,0
161,-139,0,0,0,0,0,0,0,0,0,-1,1385,1163,0,0
168,-139,0,0,0,0,0,0,0,0,0,-1,1392,1163,0,0
175,-139,0,0,0,0,0,0,0,0,0,-1,1399,1163,0,0
182,-139,0,0,0,0,0,0,0,0,0,-1,1406,1163,0,0
189,-139,0,0,0,0,0,0,0,0,0,-1,1413,1163,0,0
196,-139,0,0,0,0,0,0,0,0,0,-1,1420,1163,0,0
203,-139,0,0,0,0,0,0,0,0,0,-1,1427,1163,0,0
210,-139,0,0,0,0,0,0,0,0,0,-1,1434,1163,0,0
217,-139,0,0,0,0,0,0,0,0,0,-1,1441,1163,0,0
224,-139,0,0,0,0,0,0,0,0,0,-1,1448,1163,0,0
231,-139,0,0,0,0,0,0,0,0,0,-1,1455,1163,0,0
238,-139,0,0,0,0,0,0,0,0,0,-1,1462,1163,0,0
245,-139,0,0,0,0,0,0,0,0,0,-1,1469,1163,0,0
252,-139,0,0,0,0,0,0,0,0,0,-1,1476,1163,0,0
259,-139,0,0,0,0,0,0,0,0,0,-1,1483,1163,0,0
266,-139,0,0,0,0,0,0,0,0,0,-1,1490,1163,0,0
273,-139,0,0,0,0,0,0,0,0,0,-1,1497,1163,0,0
280,-139,0,0,0,0,0,0,0,0,0,-1,1504,1163,0,0
287,-139,0,0,0,0,0,0,0,0,0,-1,1511,1163,0,0
294,-139,0,0,0,0,0,0,0,0,0,-1,1518,1163,0,0
301,-139,0,0,0,0,0,0,0,0,0,-1,1525,1163,0,0
308,-139,0,0,0,0,0,0,0,0,0,-1,1532,1163,0,0
315,-139,0,0,0,0,0,0,0,0,0,-1,1539,1163,0,0
322,-139,0,0,0,0,0,0,0,0,0,-1,1546,1163,0,0
329,-139,0,0,0,0,0,0,0,0,0,-1,1553,1163,0,0
336,-139,0,0,0,0,0,0,0,0,0,-1,1560,1163,0,0
343,-139,0,0,0,0,0,0,0,0,0,-1,1567,1163,0,0
350,-139,0,0,0,0,0,0,0,0,0,-1,1574,1163,0,0
357,-139,0,0,0,0,0,0,0,0,0,-1,1581,1163,0,0
364,-139,0,0,0,0,0,0,0,0,0,-1,1588,1163,0,0
371,-139,0,0,0,0,0,0,0,0,0,-1,1595,1163,0,0
378,-139,0,0,0,0,0,0,0,0,0,-1,1602,1163,0,0
385,-139,0,0,0,0,0,0,0,0,0,-1,1609,1163,0,0
392,-139,0,0,0,0,0,0,0,0,0,-1,1616,1163,0,0
399,-139,0,0,0,0,0,0,0,0,0,-1,1623,1163,0,0
406,-139,0,0,0,0,0,0,0,0,0,-1,1630,1163,0,0
413,-139,0,0,0,0,0,0,0,0,0,-1,1637,1163,0,0
420,-139,0,0,0,0,0,0,0,0,0,-1,1644,1163,0,0
427,-139,0,0,0,0,0,0,0,0,0,-1,1651,1163,0,0
434,-139,0,0,0,0,0,0,0,0,0,-1,1658,1163,0,0
441,-139,0,0,0,0,0,0,0,0,0,-1,1665,1163,0,0
448,-139,0,0,0,0,0,0,0,0,0,-1,1672,1163,0,0
455,-139,0,0,0,0,0,0,0,0,0,-1,1679,1163,0,0
462,-139,0,0,0,0,0,0,0,0,0,-1,1686,1163,0,0
469,-139,0,0,0,0,0,0,0,0,0,-1,1693,1163,0,0
476,-139,0,0,0,0,0,0,0,0,0,-1,1700,1163,0,0
483,-139,0,0,0,0,0,0,0,0,0,-1,1707,1163,0,0
490,-139,0,0,0,0,0,0,0,0,0,-1,1714,1163,0,0
497,-139,0,0,0,0,0,0,0,0,0,-1,1721,1163,0,0
504,-139,0,0,0,0,0,0,0,0,0,-1,1728,1163,0,0
511,-139,0,0,0,0,0,0,0,0,0,-1,1735,1163,0,0
518,-139,0,0,0,0,0,0,0,0,0,-1,1742,1163,0,0
525,-139,0,0,0,0,0,0,0,0,0,-1,1749,1163,0,0
532,-139,0,0,0,0,0,0,0,0,0,-1,1756,1163,0,0
539,-139,0,0,0,0,0,0,0,0,0,-1,1763,1163,0,0
546,-139,0,0,0,0,0,0,0,0,0,-1,1770,1163,0,0
553,-139,0,0,0,0,0,0,0,0,0,-1,1777,1163,0,0
560,-139,0,0,0,0,0,0,0,0,0,-1,1784,1163,0,0
567,-139,0,0,0,0,0,0,0,0,0,-1,1791,1163,0,0
574,-139,0,0,0,0,0,0,0,0,0,-1,1798,1163,0,0
581,-139,0,0,0,0,0,0,0,0,0,-1,1805,1163,0,0
588,-139,0,0,0,0,0,0,0,0,0,-1,1812,1163,0,0
595,-139,0,0,0,0,0,0,0,0,0,-1,1819,1163,0,0
602,-139,0,0,0,0,0,0,0,0,0,-1,1826,1163,0,0
609,-139,0,0,0,0,0,0,0,0,0,-1,1833,1163,0,0
616,-139,0,0,0,0,0,0,0,0,0,-1,1840,1163,0,0
623,-139,0,0,0,0,0,0,0,0,0,-1,1847,1163,0,0
630,-139,0,0,0,0,0,0,0,0,0,-1,1854,1163,0,0
637,-139,0,0,0,0,0,0,0,0,0,-1,1861,1163,0,0
644,-139,27.4753,3.35437,-0.000505681,-0.00295672,-0.000438242,-0.000429681,-0.00303272,-0.171713,0.0018949,0.0401615,1868,1163,27.4753,-3.3544
651,-139,27.4537,3.18042,-0.000299507,-0.0021061,-0.000321132,-0.000244122,-0.00216149,-0.170788,0.0013669,0.0412283,1875,1163,27.4538,-3.18045
658,-139,27.3866,3.17102,2.28389e-05,-0.00130601,-0.000309941,9.15739e-05,-0.00137475,-0.218237,0.000948498,0.0414567,1882,1163,27.3866,-3.17105
665,-139,27.3699,3.41309,0.000390424,-0.000711336,-0.000291247,0.000462676,-0.000783588,-0.24317,0.000727439,0.0391708,1889,1163,27.3699,-3.41315
672,-139,27.4111,3.49683,0.000469621,-0.000361603,-0.000149117,0.000495562,-0.000387544,-0.172241,0.000511131,0.0367778,1896,1163,27.4111,-3.49686
679,-139,27.4235,3.36414,0.000256737,-0.000205409,4.12585e-05,0.000260392,-0.000209063,0.088345,0.000271579,0.0341879,1903,1163,27.4235,-3.36417
686,-139,27.4176,3.33704,-0.000118169,-0.000160896,0.000232784,9.42303e-05,-0.000373294,0.739639,0.000285504,0.0345825,1910,1163,27.4176,-3.3371
693,-139,27.384,3.32495,-0.000464672,-0.000179214,0.000374432,7.87696e-05,-0.000722656,0.967491,0.000510059,0.025593,1917,1163,27.3841,-3.32498
700,-139,27.2904,4.15491,0,0,0,0,0,0,0,-1,1924,1163,27.2903,-4.15486
707,-139,26.151,5.0144,0,0,0,0,0,0,0,-1,1931,1163,26.151,-5.01441
714,-139,25.1101,5.97461,-0.00145907,-5.69128e-05,0.000976996,0.00044452,-0.0019605,1.09661,0.00147763,0.0352117,1938,1163,25.1101,-5.97456
721,-139,25.1058,5.7019,-0.00177107,5.8793e-06,0.00111393,0.000542267,-0.00230746,1.12204,0.00174734,0.0242796,1945,1163,25.1059,-5.70187
728,-139,25.1133,5.56274,-0.00170044,0.000131425,0.00107219,0.000625644,-0.00219465,1.13888,0.00171023,0.0244995,1952,1163,25.1133,-5.56275
735,-139,25.101,5.46423,-0.0014568,0.000340636,0.000899015,0.000713107,-0.00182927,1.17801,0.00151426,0.0193669,1959,1163,25.101,-5.46423
742,-139,25.0972,5.21985,-0.000861862,0.000595097,0.000809172,0.000955398,-0.00122216,1.15188,0.00126036,0.021355,1966,1163,25.0971,-5.21981
749,-139,25.0851,5.06433,0.000185251,0.000997658,0.000464999,0.00120889,-2.59799e-05,1.1444,0.000814724,0.0184065,1973,1163,25.0851,-5.06439
756,-139,25.0927,4.93225,0.00182099,0.00138723,-0.000303874,0.00197744,0.00123078,-0.475461,0.00115302,0.0106378,1980,1163,25.0927,-4.93219
763,-139,25.0939,4.77795,0.0037898,0.0016121,-0.0014235,0.00449314,0.000908759,-0.458911,0.00274315,0.010683,1987,1163,25.0939,-4.77801
770,-139,25.0758,4.62073,0.00600908,0.00168363,-0.00258125,0.00721388,0.000478828,-0.436696,0.00465786,0.0117169,1994,1163,25.0758,-4.62067
777,-139,25.0599,4.46863,0.00841088,0.00141444,-0.00403541,0.0102533,-0.00042795,-0.428292,0.00698253,0.0224121,2001,1163,25.0599,-4.46862
784,-139,25.1783,4.15234,0.010983,0.000617511,-0.00614745,0.0138409,-0.0022404,-0.43517,0.0100576,0.0426842,2008,1163,25.1784,-4.15233
791,-139,25.2816,3.82324,0,0,0,0,0,0,0,-1,2015,1163,25.2816,-3.82328
798,-139,26.4026,2.92932,0,0,0,0,0,0,0,-1,2022,1163,26.4027,-2.92931
805,-139,27.1313,2.44348,0,0,0,0,0,0,0,-1,2029,1163,27.1314,-2.44344
812,-139,0,0,0,0,0,0,0,0,0,-1,2036,1163,0,0
-700,-146,0,0,0,0,0,0,0,0,0,-1,524,1170,0,0
-693,-146,-16.6225,-0.314575,0,0,0,0,0,0,0,-1,531,1170,-16.6225,0.31458
-686,-146,-16.6434,-0.436523,0,0,0,0,0,0,0,-1,538,1170,-16.6434,0.43652
-679,-146,-16.4496,-0.115112,-0.0112851,0.0255129,-0.0409146,0.0519751,-0.0377473,-0.996697,0.0520179,0.04677,545,1170,-16.4496,0.115133
-672,-146,-16.2847,0.616089,-0.00569251,0.0244159,-0.0271631,0.0404175,-0.0216941,-1.03843,0.0363992,0.0430413,552,1170,-16.2846,-0.616087
-665,-146,-16.326,1.09839,-0.00207376,0.0223038,-0.0172991,0.0312769,-0.0110469,-1.0923,0.0253491,0.043586,559,1170,-16.3261,-1.09844
-658,-146,-16.2636,1.25098,0.000175629,0.0195753,-0.0103708,0.0240754,-0.00432452,-1.16139,0.0176691,0.0452719,566,1170,-16.2636,-1.25103
-651,-146,-16.2335,1.49792,0.00133583,0.0165099,-0.00568575,0.018404,-0.000558207,-1.24924,0.0124596,0.0374524,573,1170,-16.2334,-1.49796
-644,-146,-16.2671,1.75879,0.00170058,0.0133642,-0.00270231,0.0139598,0.00110491,-1.35384,0.00896099,0.0197413,580,1170,-16.2671,-1.75876
-637,-146,-16.2821,1.99536,0.00170914,0.0103317,-0.00096746,0.0104389,0.00160193,-1.46042,0.0064915,0.0110711,587,1170,-16.2821,-1.99534
-630,-146,-16.3145,2.1991,0.0014912,0.00733922,0.000379281,0.00736371,0.0014667,1.5063,0.00450062,0.0111007,594,1170,-16.3145,-2.19905
-623,-146,-16.3589,2.3927,0.00129333,0.00507033,0.00103318,0.00533448,0.00102918,1.32049,0.00326774,0.0133967,601,1170,-16.3589,-2.39267
-616,-146,-16.4047,2.58862,0.00113835,0.00327697,0.000655789,0.00346205,0.000953271,1.29573,0.00206497,0.0171673,608,1170,-16.4047,-2.58858
-609,-146,-16.3,2.80542,0.000384083,0.00162387,-0.000110801,0.0016337,0.000374258,-1.48236,0.000988289,0.0168167,615,1170,-16.3,-2.80537
-602,-146,-16.3751,3.13879,0.000103534,0.000725875,-0.000995804,0.00145799,-0.000628585,-0.936832,0.001236,0.0310362,622,1170,-16.3751,-3.13877
-595,-146,-16.512,3.23621,0.000227501,0.000268848,-0.00157908,0.00182739,-0.00133104,-0.791944,0.00183101,0.0187796,629,1170,-16.512,-3.23621
-588,-146,-16.4157,3.47278,0.000173955,0.000203619,-0.00183288,0.00202172,-0.00164415,-0.789444,0.00212023,0.0207967,636,1170,-16.4157,-3.47282
-581,-146,-16.3061,3.7207,0.000178993,0.000342637,-0.00189451,0.00215709,-0.00163546,-0.806979,0.00219652,0.0405738,643,1170,-16.3061,-3.72068
-574,-146,-16.3445,3.86401,0,0,0,0,0,0,0,-1,650,1170,-16.3445,-3.86403
-567,-146,-18.9131,1.36743,0,0,0,0,0,0,0,-1,657,1170,-18.9132,-1.36739
-560,-146,-18.9089,1.53967,0.000514183,0.000490423,-0.00171536,0.0022177,-0.0012131,-0.781935,0.00200888,0.0366446,664,1170,-18.9089,-1.53962
-553,-146,-18.8363,1.54346,0.000449401,0.000573762,-0.00150295,0.00201582,-0.000992658,-0.806073,0.00177011,0.0367275,671,1170,-18.8363,-1.54342
-546,-146,-18.7748,1.25854,0.000348571,0.000561035,-0.00109869,0.00155862,-0.000649016,-0.833593,0.00131015,0.0400202,678,1170,-18.7748,-1.2586
-539,-146,-18.7973,1.25671,1.42615e-05,0.000353101,-0.000411041,0.000628269,-0.000260906,-0.980876,0.000527768,0.0409719,685,1170,-18.7973,-1.25674
-532,-146,-18.7872,1.36609,-0.000181789,-0.000225516,0.000704704,0.00050139,-0.000908695,0.769891,0.000825357,0.039687,692,1170,-18.7872,-1.36605
-525,-146,-18.8522,1.625,-0.000250578,-0.00108106,0.00190178,0.00128077,-0.0026124,0.677913,0.00229113,0.0433529,699,1170,-18.8522,-1.62499
-518,-146,0,0,0,0,0,0,0,0,0,-1,706,1170,0,0
-511,-146,0,0,0,0,0,0,0,0,0,-1,713,1170,0,0
-504,-146,0,0,0,0,0,0,0,0,0,-1,720,1170,0,0
-497,-146,0,0,0,0,0,0,0,0,0,-1,727,1170,0,0
-490,-146,0,0,0,0,0,0,0,0,0,-1,734,1170,0,0
-483,-146,0,0,0,0,0,0,0,0,0,-1,741,1170,0,0
-476,-146,0,0,0,0,0,0,0,0,0,-1,748,1170,0,0
-469,-146,0,0,0,0,0,0,0,0,0,-1,755,1170,0,0
-462,-146,0,0,0,0,0,0,0,0,0,-1,762,1170,0,0
-455,-146,0,0,0,0,0,0,0,0,0,-1,769,1170,0,0
-448,-146,0,0,0,0,0,0,0,0,0,-1,776,1170,0,0
-441,-146,0,0,0,0,0,0,0,0,0,-1,783,1170,0,0
-434,-146,0,0,0,0,0,0,0,0,0,-1,790,1170,0,0
-427,-146,0,0,0,0,0,0,0,0,0,-1,797,1170,0,0
-420,-146,0,0,0,0,0,0,0,0,0,-1,804,1170,0,0
-413,-146,0,0,0,0,0,0,0,0,0,-1,811,1170,0,0
-406,-146,0,0,0,0,0,0,0,0,0,-1,818,1170,0,0
-399,-146,0,0,0,0,0,0,0,0,0,-1,825,1170,0,0
-392,-146,0,0,0,0,0,0,0,0,0,-1,832,1170,0,0
-385,-146,0,0,0,0,0,0,0,0,0,-1,839,1170,0,0
-378,-146,0,0,0,0,0,0,0,0,0,-1,846,1170,0,0
-371,-146,0,0,0,0,0,0,0,0,0,-1,853,1170,0,0
-364,-146,0,0,0,0,0,0,0,0,0,-1,860,1170,0,0
-357,-146,0,0,0,0,0,0,0,0,0,-1,867,1170,0,0
-350,-146,0,0,0,0,0,0,0,0,0,-1,874,1170,0,0
-343,-146,0,0,0,0,0,0,0,0,0,-1,881,1170,0,0
-336,-146,0,0,0,0,0,0,0,0,0,-1,888,1170,0,0
-329,-146,0,0,0,0,0,0,0,0,0,-1,895,1170,0,0
-322,-146,0,0,0,0,0,0,0,0,0,-1,902,1170,0,0
-315,-146,0,0,0,0,0,0,0,0,0,-1,909,1170,0,0
-308,-146,0,0,0,0,0,0,0,0,0,-1,916,1170,0,0
-301,-146,0,0,0,0,0,0,0,0,0,-1,923,1170,0,0
-294,-146,0,0,0,0,0,0,0,0,0,-1,930,1170,0,0
-287,-146,0,0,0,0,0,0,0,0,0,-1,937,1170,0,0
-280,-146,0,0,0,0,0,0,0,0,0,-1,944,1170,0,0
-273,-146,0,0,0,0,0,0,0,0,0,-1,951,1170,0,0
-266,-146,0,0,0,0,0,0,0,0,0,-1,958,1170,0,0
-259,-146,0,0,0,0,0,0,0,0,0,-1,965,1170,0,0
-252,-146,0,0,0,0,0,0,0,0,0,-1,972,1170,0,0
-245,-146,0,0,0,0,0,0,0,0,0,-1,979,1170,0,0
-238,-146,0,0,0,0,0,0,0,0,0,-1,986,1170,0,0
-231,-146,0,0,0,0,0,0,0,0,0,-1,993,1170,0,0
-224,-146,0,0,0,0,0,0,0,0,0,-1,1000,1170,0,0
-217,-146,0,0,0,0,0,0,0,0,0,-1,1007,1170,0,0
-210,-146,0,0,0,0,0,0,0,0,0,-1,1014,1170,0,0
-203,-146,0,0,0,0,0,0,0,0,0,-1,1021,1170,0,0
-196,-146,0,0,0,0,0,0,0,0,0,-1,1028,1170,0,0
-189,-146,0,0,0,0,0,0,0,0,0,-1,1035,1170,0,0
-182,-146,0,0,0,0,0,0,0,0,0,-1,1042,1170,0,0
-175,-146,0,0,0,0,0,0,0,0,0,-1,1049,1170,0,0
-168,-146,0,0,0,0,0,0,0,0,0,-1,1056,1170,0,0
-161,-146,0,0,0,0,0,0,0,0,0,-1,1063,1170,0,0
-154,-146,0,0,0,0,0,0,0,0,0,-1,1070,1170,0,0
-147,-146,0,0,0,0,0,0,0,0,0,-1,1077,1170,0,0
-140,-146,0,0,0,0,0,0,0,0,0,-1,1084,1170,0,0
-133,-146,0,0,0,0,0,0,0,0,0,-1,1091,1170,0,0
-126,-146,0,0,0,0,0,0,0,0,0,-1,1098,1170,0,0
-119,-146,0,0,0,0,0,0,0,0,0,-1,1105,1170,0,0
-112,-146,0,0,0,0,0,0,0,0,0,-1,1112,1170,0,0
-105,-146,0,0,0,0,0,0,0,0,0,-1,1119,1170,0,0
-98,-146,0,0,0,0,0,0,0,0,0,-1,1126,1170,0,0
-91,-146,0,0,0,0,0,0,0,0,0,-1,1133,1170,0,0
-84,-146,0,0,0,0,0,0,0,0,0,-1,1140,1170,0,0
-77,-146,0,0,0,0,0,0,0,0,0,-1,1147,1170,0,0
-70,-146,0,0,0,0,0,0,0,0,0,-1,1154,1170,0,0
-63,-146,0,0,0,0,0,0,0,0,0,-1,1161,1170,0,0
-56,-146,0,0,0,0,0,0,0,0,0,-1,1168,1170,0,0
-49,-146,0,0,0,0,0,0,0,0,0,-1,1175,1170,0,0
-42,-146,0,0,0,0,0,0,0,0,0,-1,1182,1170,0,0
-35,-146,0,0,0,0,0,0,0,0,0,-1,1189,1170,0,0
-28,-146,0,0,0,0,0,0,0,0,0,-1,1196,1170,0,0
-21,-146,0,0,0,0,0,0,0,0,0,-1,1203,1170,0,0
-14,-146,0,0,0,0,0,0,0,0,0,-1,1210,1170,0,0
-7,-146,0,0,0,0,0,0,0,0,0,-1,1217,1170,0,0
0,-146,0,0,0,0,0,0,0,0,0,-1,1224,1170,0,0
7,-146,0,0,0,0,0,0,0,0,0,-1,1231,1170,0,0
14,-146,0,0,0,0,0,0,0,0,0,-1,1238,1170,0,0
21,-146,0,0,0,0,0,0,0,0,0,-1,1245,1170,0,0
28,-146,0,0,0,0,0,0,0,0,0,-1,1252,1170,0,0
35,-146,0,0,0,0,0,0,0,0,0,-1,1259,1170,0,0
42,-146,0,0,0,0,0,0,0,0,0,-1,1266,1170,0,0
49,-146,0,0,0,0,0,0,0,0,0,-1,1273,1170,0,0
56,-146,0,0,0,0,0,0,0,0,0,-1,1280,1170,0,0
63,-146,0,0,0,0,0,0,0,0,0,-1,1287,1170,0,0
70,-146,0,0,0,0,0,0,0,0,0,-1,1294,1170,0,0
77,-146,0,0,0,0,0,0,0,0,0,-1,1301,1170,0,0
84,-146,0,0,0,0,0,0,0,0,0,-1,1308,1170,0,0
91,-146,0,0,0,0,0,0,0,0,0,-1,1315,1170,0,0
98,-146,0,0,0,0,0,0,0,0,0,-1,1322,1170,0,0
105,-146,0,0,0,0,0,0,0,0,0,-1,1329,1170,0,0
112,-146,0,0,0,0,0,0,0,0,0,-1,1336,1170,0,0
119,-146,0,0,0,0,0,0,0,0,0,-1,1343,1170,0,0
126,-146,0,0,0,0,0,0,0,0,0,-1,1350,1170,0,0
133,-146,0,0,0,0,0,0,0,0,0,-1,1357,1170,0,0
140,-146,0,0,0,0,0,0,0,0,0,-1,1364,1170,0,0
147,-146,0,0,0,0,0,0,0,0,0,-1,1371,1170,0,0
154,-146,0,0,0,0,0,0,0,0,0,-1,1378,1170,0,0
161,-146,0,0,0,0,0,0,0,0,0,-1,1385,1170,0,0
168,-146,0,0,0,0,0,0,0,0,0,-1,1392,1170,0,0
175,-146,0,0,0,0,0,0,0,0,0,-1,1399,1170,0,0
182,-146,0,0,0,0,0,0,0,0,0,-1,1406,1170,0,0
189,-146,0,0,0,0,0,0,0,0,0,-1,1413,1170,0,0
196,-146,0,0,0,0,0,0,0,0,0,-1,1420,1170,0,0
203,-146,0,0,0,0,0,0,0,0,0,-1,1427,1170,0,0
210,-146,0,0,0,0,0,0,0,0,0,-1,1434,1170,0,0
217,-146,0,0,0,0,0,0,0,0,0,-1,1441,1170,0,0
224,-146,0,0,0,0,0,0,0,0,0,-1,1448,1170,0,0
231,-146,0,0,0,0,0,0,0,0,0,-1,1455,1170,0,0
238,-146,0,0,0,0,0,0,0,0,0,-1,1462,1170,0,0
245,-146,0,0,0,0,0,0,0,0,0,-1,1469,1170,0,0
252,-146,0,0,0,0,0,0,0,0,0,-1,1476,1170,0,0
259,-146,0,0,0,0,0,0,0,0,0,-1,1483,1170,0,0
266,-146,0,0,0,0,0,0,0,0,0,-1,1490,1170,0,0
273,-146,0,0,0,0,0,0,0,0,0,-1,1497,1170,0,0
280,-146,0,0,0,0,0,0,0,0,0,-1,1504,1170,0,0
287,-146,0,0,0,0,0,0,0,0,0,-1,1511,1170,0,0
294,-146,0,0,0,0,0,0,0,0,0,-1,1518,1170,0,0
301,-146,0,0,0,0,0,0,0,0,0,-1,1525,1170,0,0
308,-146,0,0,0,0,0,0,0,0,0,-1,1532,1170,0,0
315,-146,0,0,0,0,0,0,0,0,0,-1,1539,1170,0,0
322,-146,0,0,0,0,0,0,0,0,0,-1,1546,1170,0,0
329,-146,0,0,0,0,0,0,0,0,0,-1,1553,1170,0,0
336,-146,0,0,0,0,0,0,0,0,0,-1,1560,1170,0,0
343,-146,0,0,0,0,0,0,0,0,0,-1,1567,1170,0,0
350,-146,0,0,0,0,0,0,0,0,0,-1,1574,1170,0,0
357,-146,0,0,0,0,0,0,0,0,0,-1,1581,1170,0,0
364,-146,0,0,0,0,0,0,0,0,0,-1,1588,1170,0,0
371,-146,0,0,0,0,0,0,0,0,0,-1,1595,1170,0,0
378,-146,0,0,0,0,0,0,0,0,0,-1,1602,1170,0,0
385,-146,0,0,0,0,0,0,0,0,0,-1,1609,1170,0,0
392,-146,0,0,0,0,0,0,0,0,0,-1,1616,1170,0,0
399,-146,0,0,0,0,0,0,0,0,0,-1,1623,1170,0,0
406,-146,0,0,0,0,0,0,0,0,0,-1,1630,1170,0,0
413,-146,0,0,0,0,0,0,0,0,0,-1,1637,1170,0,0
420,-146,0,0,0,0,0,0,0,0,0,-1,1644,1170,0,0
427,-146,0,0,0,0,0,0,0,0,0,-1,1651,1170,0,0
434,-146,0,0,0,0,0,0,0,0,0,-1,1658,1170,0,0
441,-146,0,0,0,0,0,0,0,0,0,-1,1665,1170,0,0
448,-146,0,0,0,0,0,0,0,0,0,-1,1672,1170,0,0
455,-146,0,0,0,0,0,0,0,0,0,-1,1679,1170,0,0
462,-146,0,0,0,0,0,0,0,0,0,-1,1686,1170,0,0
469,-146,0,0,0,0,0,0,0,0,0,-1,1693,1170,0,0
476,-146,0,0,0,0,0,0,0,0,0,-1,1700,1170,0,0
483,-146,0,0,0,0,0,0,0,0,0,-1,1707,1170,0,0
490,-146,0,0,0,0,0,0,0,0,0,-1,1714,1170,0,0
497,-146,0,0,0,0,0,0,0,0,0,-1,1721,1170,0,0
504,-146,0,0,0,0,0,0,0,0,0,-1,1728,1170,0,0
511,-146,0,0,0,0,0,0,0,0,0,-1,1735,1170,0,0
518,-146,0,0,0,0,0,0,0,0,0,-1,1742,1170,0,0
525,-146,0,0,0,0,0,0,0,0,0,-1,1749,1170,0,0
532,-146,0,0,0,0,0,0,0,0,0,-1,1756,1170,0,0
539,-146,0,0,0,0,0,0,0,0,0,-1,1763,1170,0,0
546,-146,0,0,0,0,0,0,0,0,0,-1,1770,1170,0,0
553,-146,0,0,0,0,0,0,0,0,0,-1,1777,1170,0,0
560,-146,0,0,0,0,0,0,0,0,0,-1,1784,1170,0,0
567,-146,0,0,0,0,0,0,0,0,0,-1,1791,1170,0,0
574,-146,0,0,0,0,0,0,0,0,0,-1,1798,1170,0,0
581,-146,0,0,0,0,0,0,0,0,0,-1,1805,1170,0,0
588,-146,0,0,0,0,0,0,0,0,0,-1,1812,1170,0,0
595,-146,0,0,0,0,0,0,0,0,0,-1,1819,1170,0,0
602,-146,0,0,0,0,0,0,0,0,0,-1,1826,1170,0,0
609,-146,0,0,0,0,0,0,0,0,0,-1,1833,1170,0,0
616,-146,0,0,0,0,0,0,0,0,0,-1,1840,1170,0,0
623,-146,0,0,0,0,0,0,0,0,0,-1,1847,1170,0,0
630,-146,0,0,0,0,0,0,0,0,0,-1,1854,1170,0,0
637,-146,27.4569,3.44189,-0.00187632,-0.00238959,-0.00101651,-0.00108454,-0.00318136,-0.661749,0.0018675,0.039109,1861,1170,27.4569,-3.44185
644,-146,27.457,3.4248,-0.00138393,-0.00177617,-0.000652964,-0.000898268,-0.00226183,-0.639508,0.00131505,0.0367886,1868,1170,27.457,-3.42475
651,-146,27.4313,3.27148,-0.000785795,-0.00112521,-0.000549375,-0.000380512,-0.00153049,-0.635593,0.000920102,0.0367936,1875,1170,27.4312,-3.27146
658,-146,27.3486,3.29492,-0.000132732,-0.00058978,-0.000462071,0.000154237,-0.000876749,-0.555754,0.000642116,0.0382118,1882,1170,27.3486,-3.29487
665,-146,27.266,3.37646,0.000494883,-0.00026054,-0.000368318,0.000644736,-0.000410393,-0.386403,0.000614167,0.0393969,1889,1170,27.266,-3.37644
672,-146,27.3884,3.39661,0.000763511,-0.00011584,-0.000221831,0.000816303,-0.000168631,-0.233634,0.000608255,0.0390004,1896,1170,27.3885,-3.39665
679,-146,27.4696,3.32239,0.000643688,-0.000101396,-1.71464e-05,0.000644082,-0.000101791,-0.0229964,0.000467031,0.0313952,1903,1170,27.4696,-3.3224
686,-146,27.3723,3.31165,0.000329957,-0.000146787,0.00017112,0.000385019,-0.000201848,0.31131,0.000344285,0.0260466,1910,1170,27.3723,-3.3116
693,-146,27.3987,3.30396,1.03901e-05,-0.000217479,0.000304281,0.000221368,-0.000428457,0.606259,0.000381474,0.0196565,1917,1170,27.3987,-3.304
700,-146,27.5135,3.36292,0,0,0,0,0,0,0,-1,1924,1170,27.5136,-3.36288
707,-146,24.7765,6.55615,0,0,0,0,0,0,0,-1,1931,1170,24.7765,-6.55611
714,-146,25.0244,5.97131,-0.000981185,-0.000177223,0.000836541,0.000348906,-0.00150731,1.00937,0.00113913,0.0349241,1938,1170,25.0244,-5.97135
721,-146,25.0369,5.72119,-0.00128123,-0.000131416,0.000949961,0.000404058,-0.0018167,1.05751,0.00136589,0.0431424,1945,1170,25.0369,-5.72123
728,-146,25.0981,5.50793,-0.00113668,2.42229e-05,0.000864791,0.000485302,-0.00159776,1.08097,0.00125853,0.0297442,1952,1170,25.0981,-5.50791
735,-146,24.9413,5.47156,-0.000875004,0.000270641,0.000678148,0.000585518,-0.00118988,1.1361,0.00104464,0.0171737,1959,1170,24.9412,-5.4716
742,-146,24.9491,5.25122,-0.000134369,0.000572516,0.000530807,0.000856786,-0.000418639,1.07912,0.000750711,0.0159079,1966,1170,24.9492,-5.25119
749,-146,24.9316,5.09436,0.00115238,0.00106335,0.000120345,0.00123618,0.000979551,0.60825,0.000753292,0.0151129,1973,1170,24.9316,-5.09441
756,-146,24.9214,4.93335,0.0031169,0.00161728,-0.000745071,0.00342414,0.00131004,-0.391114,0.00199501,0.0114596,1980,1170,24.9214,-4.93339
763,-146,24.9019,4.75024,0.00547,0.0020202,-0.00195433,0.00635176,0.00113844,-0.423837,0.00391066,0.0107758,1987,1170,24.9019,-4.7503
770,-146,24.8959,4.58765,0.00817012,0.00232097,-0.00327517,0.00963643,0.000854658,-0.420944,0.0061592,0.0116296,1994,1170,24.8959,-4.5876
777,-146,24.8579,4.44556,0.0111812,0.00237747,-0.00503017,0.0134636,9.5102e-05,-0.425956,0.00894419,0.0203798,2001,1170,24.858,-4.44561
784,-146,24.7858,4.31067,0.0143569,0.00200112,-0.00751122,0.0179045,-0.00154646,-0.441246,0.0124838,0.0421981,2008,1170,24.7858,-4.31067
791,-146,24.7162,4.17395,0,0,0,0,0,0,0,-1,2015,1170,24.7162,-4.17401
798,-146,25.012,4.32556,0,0,0,0,0,0,0,-1,2022,1170,25.0119,-4.32552
805,-146,27.4946,2.59839,0,0,0,0,0,0,0,-1,2029,1170,27.4946,-2.59834
812,-146,0,0,0,0,0,0,0,0,0,-1,2036,1170,0,0
-700,-153,0,0,0,0,0,0,0,0,0,-1,524,1177,0,0
-693,-153,0,0,0,0,0,0,0,0,0,-1,531,1177,0,0
-686,-153,-14.6167,1.15149,0,0,0,0,0,0,0,-1,538,1177,-14.6167,-1.15148
-679,-153,-15.086,1.10913,-0.016623,0.0333455,-0.0407157,0.0561314,-0.0394088,-1.06059,0.0554411,0.0484497,545,1177,-15.086,-1.10913
-672,-153,-15.7135,1.04028,-0.0114459,0.031191,-0.0259825,0.0434815,-0.0237365,-1.12895,0.0393625,0.0433933,552,1177,-15.7135,-1.04034
-665,-153,-16.2315,0.862671,-0.00767259,0.0279797,-0.015661,0.033882,-0.0135749,-1.21038,0.028223,0.0444598,559,1177,-16.2315,-0.862664
-658,-153,-15.9562,1,0,0,0,0,0,0,0,-1,566,1177,-15.9562,-1
-651,-153,-15.9812,1.3031,-0.0030276,0.0201664,-0.00397132,0.0208275,-0.00368873,-1.40583,0.0152639,0.0459383,573,1177,-15.9812,-1.30307
-644,-153,-16.0222,1.71948,-0.00188312,0.0161759,-0.00117373,0.0162518,-0.00195909,-1.50616,0.0115431,0.0271961,580,1177,-16.0222,-1.71949
-637,-153,-16.0637,1.99683,-0.00110269,0.0124436,0.000329475,0.0124516,-0.0011107,1.54649,0.00869497,0.0117412,587,1177,-16.0637,-1.99687
-630,-153,-16.0929,2.20264,-0.000628022,0.00887558,0.00144501,0.00909043,-0.000842875,1.42319,0.00635989,0.0110336,594,1177,-16.0929,-2.20259
-623,-153,-16.1205,2.39197,-0.000179827,0.00615683,0.00187599,0.00667057,-0.00069357,1.3035,0.00469534,0.0106984,601,1177,-16.1205,-2.39201
-616,-153,-16.1451,2.60803,0.000220794,0.00395057,0.00126601,0.0043397,-0.000168331,1.2726,0.00295085,0.0121854,608,1177,-16.1451,-2.60809
-609,-153,-16.1064,2.80481,-0.000128559,0.00198729,0.000313459,0.00203275,-0.00017402,1.42677,0.00141674,0.0166604,615,1177,-16.1064,-2.80486
-602,-153,-16.0991,3.02441,-0.000171694,0.000949147,-0.000686425,0.00127487,-0.000497418,-1.12774,0.00105554,0.0328723,622,1177,-16.099,-3.02439
-595,-153,-16.2871,3.24817,5.37232e-05,0.000410517,-0.00136113,0.00160489,-0.00114065,-0.850559,0.00159268,0.0289017,629,1177,-16.2871,-3.24815
-588,-153,-16.2974,3.48816,-3.01805e-05,0.000320368,-0.00170261,0.0018567,-0.00156651,-0.83669,0.00197875,0.0181023,636,1177,-16.2974,-3.48819
-581,-153,-16.144,3.61755,-3.77465e-05,0.000431178,-0.00178147,0.00199355,-0.00160012,-0.850828,0.00207894,0.025321,643,1177,-16.144,-3.6175
-574,-153,-16.2131,3.64697,0,0,0,0,0,0,0,-1,650,1177,-16.2131,-3.64691
-567,-153,-18.9631,1.42944,0,0,0,0,0,0,0,-1,657,1177,-18.9631,-1.42947
-560,-153,-18.8995,1.51563,0.000364195,0.000479879,-0.00148132,0.00190448,-0.00106041,-0.804912,0.00173475,0.0396289,664,1177,-18.8995,-1.51565
-553,-153,-18.8336,1.41431,0.000371509,0.000531247,-0.00122383,0.00167781,-0.000775057,-0.817983,0.00144778,0.035637,671,1177,-18.8336,-1.41433
-546,-153,-18.8022,1.23218,0.000414238,0.00050267,-0.000737133,0.00119691,-0.000280004,-0.815354,0.000905818,0.0374416,678,1177,-18.8022,-1.23221
-539,-153,-18.8475,1.11304,0.000260497,0.000318904,7.5488e-05,0.000370641,0.000208761,0.969963,0.000214559,0.0410055,685,1177,-18.8475,-1.11308
-532,-153,-18.976,1.37671,0.000182494,-0.000151225,0.00138435,0.00141,-0.00137873,0.725421,0.00161011,0.0432404,692,1177,-18.976,-1.37668
-525,-153,-18.9812,1.76794,0.000330744,-0.000889622,0.00307749,0.00285796,-0.00341683,0.687531,0.00362754,0.0434841,699,1177,-18.9812,-1.76799
-518,-153,0,0,0,0,0,0,0,0,0,-1,706,1177,0,0
-511,-153,0,0,0,0,0,0,0,0,0,-1,713,1177,0,0
-504,-153,0,0,0,0,0,0,0,0,0,-1,720,1177,0,0
-497,-153,0,0,0,0,0,0,0,0,0,-1,727,1177,0,0
-490,-153,0,0,0,0,0,0,0,0,0,-1,734,1177,0,0
-483,-153,0,0,0,0,0,0,0,0,0,-1,741,1177,0,0
-476,-153,0,0,0,0,0,0,0,0,0,-1,748,1177,0,0
-469,-153,0,0,0,0,0,0,0,0,0,-1,755,1177,0,0
-462,-153,0,0,0,0,0,0,0,0,0,-1,762,1177,0,0
-455,-153,0,0,0,0,0,0,0,0,0,-1,769,1177,0,0
-448,-153,0,0,0,0,0,0,0,0,0,-1,776,1177,0,0
-441,-153,0,0,0,0,0,0,0,0,0,-1,783,1177,0,0
-434,-153,0,0,0,0,0,0,0,0,0,-1,790,1177,0,0
-427,-153,0,0,0,0,0,0,0,0,0,-1,797,1177,0,0
-420,-153,0,0,0,0,0,0,0,0,0,-1,804,1177,0,0
-413,-153,0,0,0,0,0,0,0,0,0,-1,811,1177,0,0
-406,-153,0,0,0,0,0,0,0,0,0,-1,818,1177,0,0
-399,-153,0,0,0,0,0,0,0,0,0,-1,825,1177,0,0
-392,-153,0,0,0,0,0,0,0,0,0,-1,832,1177,0,0
-385,-153,0,0,0,0,0,0,0,0,0,-1,839,1177,0,0
-378,-153,0,0,0,0,0,0,0,0,0,-1,846,1177,0,0
-371,-153,0,0,0,0,0,0,0,0,0,-1,853,1177,0,0
-364,-153,0,0,0,0,0,0,0,0,0,-1,860,1177,0,0
-357,-153,0,0,0,0,0,0,0,0,0,-1,867,1177,0,0
-350,-153,0,0,0,0,0,0,0,0,0,-1,874,1177,0,0
-343,-153,0,0,0,0,0,0,0,0,0,-1,881,1177,0,0
-336,-153,0,0,0,0,0,0,0,0,0,-1,888,1177,0,0
-329,-153,0,0,0,0,0,0,0,0,0,-1,895,1177,0,0
-322,-153,0,0,0,0,0,0,0,0,0,-1,902,1177,0,0
-315,-153,0,0,0,0,0,0,0,0,0,-1,909,1177,0,0
-308,-153,0,0,0,0,0,0,0,0,0,-1,916,1177,0,0
-301,-153,0,0,0,0,0,0,0,0,0,-1,923,1177,0,0
-294,-153,0,0,0,0,0,0,0,0,0,-1,930,1177,0,0
-287,-153,0,0,0,0,0,0,0,0,0,-1,937,1177,0,0
-280,-153,0,0,0,0,0,0,0,0,0,-1,944,1177,0,0
-273,-153,0,0,0,0,0,0,0,0,0,-1,951,1177,0,0
-266,-153,0,0,0,0,0,0,0,0,0,-1,958,1177,0,0
-259,-153,0,0,0,0,0,0,0,0,0,-1,965,1177,0,0
-252,-153,0,0,0,0,0,0,0,0,0,-1,972,1177,0,0
-245,-153,0,0,0,0,0,0,0,0,0,-1,979,1177,0,0
-238,-153,0,0,0,0,0,0,0,0,0,-1,986,1177,0,0
-231,-153,0,0,0,0,0,0,0,0,0,-1,993,1177,0,0
-224,-153,0,0,0,0,0,0,0,0,0,-1,1000,1177,0,0
-217,-153,0,0,0,0,0,0,0,0,0,-1,1007,1177,0,0
-210,-153,0,0,0,0,0,0,0,0,0,-1,1014,1177,0,0
-203,-153,0,0,0,0,0,0,0,0,0,-1,1021,1177,0,0
-196,-153,0,0,0,0,0,0,0,0,0,-1,1028,1177,0,0
-189,-153,0,0,0,0,0,0,0,0,0,-1,1035,1177,0,0
-182,-153,0,0,0,0,0,0,0,0,0,-1,1042,1177,0,0
-175,-153,0,0,0,0,0,0,0,0,0,-1,1049,1177,0,0
-168,-153,0,0,0,0,0,0,0,0,0,-1,1056,1177,0,0
-161,-153,0,0,0,0,0,0,0,0,0,-1,1063,1177,0,0
-154,-153,0,0,0,0,0,0,0,0,0,-1,1070,1177,0,0
-147,-153,0,0,0,0,0,0,0,0,0,-1,1077,1177,0,0
-140,-153,0,0,0,0,0,0,0,0,0,-1,1084,1177,0,0
-133,-153,0,0,0,0,0,0,0,0,0,-1,1091,1177,0,0
-126,-153,0,0,0,0,0,0,0,0,0,-1,1098,1177,0,0
-119,-153,0,0,0,0,0,0,0,0,0,-1,1105,1177,0,0
-112,-153,0,0,0,0,0,0,0,0,0,-1,1112,1177,0,0
-105,-153,0,0,0,0,0,0,0,0,0,-1,1119,1177,0,0
-98,-153,0,0,0,0,0,0,0,0,0,-1,1126,1177,0,0
-91,-153,0,0,0,0,0,0,0,0,0,-1,1133,1177,0,0
-84,-153,0,0,0,0,0,0,0,0,0,-1,1140,1177,0,0
-77,-153,0,0,0,0,0,0,0,0,0,-1,1147,1177,0,0
-70,-153,0,0,0,0,0,0,0,0,0,-1,1154,1177,0,0
-63,-153,0,0,0,0,0,0,0,0,0,-1,1161,1177,0,0
-56,-153,0,0,0,0,0,0,0,0,0,-1,1168,1177,0,0
-49,-153,0,0,0,0,0,0,0,0,0,-1,1175,1177,0,0
-42,-153,0,0,0,0,0,0,0,0,0,-1,1182,1177,0,0
-35,-153,0,0,0,0,0,0,0,0,0,-1,1189,1177,0,0
-28,-153,0,0,0,0,0,0,0,0,0,-1,1196,1177,0,0
-21,-153,0,0,0,0,0,0,0,0,0,-1,1203,1177,0,0
-14,-153,0,0,0,0,0,0,0,0,0,-1,1210,1177,0,0
-7,-153,0,0,0,0,0,0,0,0,0,-1,1217,1177,0,0
0,-153,0,0,0,0,0,0,0,0,0,-1,1224,1177,0,0
7,-153,0,0,0,0,0,0,0,0,0,-1,1231,1177,0,0
14,-153,0,0,0,0,0,0,0,0,0,-1,1238,1177,0,0
21,-153,0,0,0,0,0,0,0,0,0,-1,1245,1177,0,0
28,-153,0,0,0,0,0,0,0,0,0,-1,1252,1177,0,0
35,-153,0,0,0,0,0,0,0,0,0,-1,1259,1177,0,0
42,-153,0,0,0,0,0,0,0,0,0,-1,1266,1177,0,0
49,-153,0,0,0,0,0,0,0,0,0,-1,1273,1177,0,0
56,-153,0,0,0,0,0,0,0,0,0,-1,1280,1177,0,0
63,-153,0,0,0,0,0,0,0,0,0,-1,1287,1177,0,0
70,-153,0,0,0,0,0,0,0,0,0,-1,1294,1177,0,0
77,-153,0,0,0,0,0,0,0,0,0,-1,1301,1177,0,0
84,-153,0,0,0,0,0,0,0,0,0,-1,1308,1177,0,0
91,-153,0,0,0,0,0,0,0,0,0,-1,1315,1177,0,0
98,-153,0,0,0,0,0,0,0,0,0,-1,1322,1177,0,0
105,-153,0,0,0,0,0,0,0,0,0,-1,1329,1177,0,0
112,-153,0,0,0,0,0,0,0,0,0,-1,1336,1177,0,0
119,-153,0,0,0,0,0,0,0,0,0,-1,1343,1177,0,0
126,-153,0,0,0,0,0,0,0,0,0,-1,1350,1177,0,0
133,-153,0,0,0,0,0,0,0,0,0,-1,1357,1177,0,0
140,-153,0,0,0,0,0,0,0,0,0,-1,1364,1177,0,0
147,-153,0,0,0,0,0,0,0,0,0,-1,1371,1177,0,0
154,-153,0,0,0,0,0,0,0,0,0,-1,1378,1177,0,0
161,-153,0,0,0,0,0,0,0,0,0,-1,1385,1177,0,0
168,-153,0,0,0,0,0,0,0,0,0,-1,1392,1177,0,0
175,-153,0,0,0,0,0,0,0,0,0,-1,1399,1177,0,0
182,-153,0,0,0,0,0,0,0,0,0,-1,1406,1177,0,0
189,-153,0,0,0,0,0,0,0,0,0,-1,1413,1177,0,0
196,-153,0,0,0,0,0,0,0,0,0,-1,1420,1177,0,0
203,-153,0,0,0,0,0,0,0,0,0,-1,1427,1177,0,0
210,-153,0,0,0,0,0,0,0,0,0,-1,1434,1177,0,0
217,-153,0,0,0,0,0,0,0,0,0,-1,1441,1177,0,0
224,-153,0,0,0,0,0,0,0,0,0,-1,1448,1177,0,0
231,-153,0,0,0,0,0,0,0,0,0,-1,1455,1177,0,0
238,-153,0,0,0,0,0,0,0,0,0,-1,1462,1177,0,0
245,-153,0,0,0,0,0,0,0,0,0,-1,1469,1177,0,0
252,-153,0,0,0,0,0,0,0,0,0,-1,1476,1177,0,0
259,-153,0,0,0,0,0,0,0,0,0,-1,1483,1177,0,0
266,-153,0,0,0,0,0,0,0,0,0,-1,1490,1177,0,0
273,-153,0,0,0,0,0,0,0,0,0,-1,1497,1177,0,0
280,-153,0,0,0,0,0,0,0,0,0,-1,1504,1177,0,0
287,-153,0,0,0,0,0,0,0,0,0,-1,1511,1177,0,0
294,-153,0,0,0,0,0,0,0,0,0,-1,1518,1177,0,0
301,-153,0,0,0,0,0,0,0,0,0,-1,1525,1177,0,0
308,-153,0,0,0,0,0,0,0,0,0,-1,1532,1177,0,0
315,-153,0,0,0,0,0,0,0,0,0,-1,1539,1177,0,0
322,-153,0,0,0,0,0,0,0,0,0,-1,1546,1177,0,0
329,-153,0,0,0,0,0,0,0,0,0,-1,1553,1177,0,0
336,-153,0,0,0,0,0,0,0,0,0,-1,1560,1177,0,0
343,-153,0,0,0,0,0,0,0,0,0,-1,1567,1177,0,0
350,-153,0,0,0,0,0,0,0,0,0,-1,1574,1177,0,0
357,-153,0,0,0,0,0,0,0,0,0,-1,1581,1177,0,0
364,-153,0,0,0,0,0,0,0,0,0,-1,1588,1177,0,0
371,-153,0,0,0,0,0,0,0,0,0,-1,1595,1177,0,0
378,-153,0,0,0,0,0,0,0,0,0,-1,1602,1177,0,0
385,-153,0,0,0,0,0,0,0,0,0,-1,1609,1177,0,0
392,-153,0,0,0,0,0,0,0,0,0,-1,1616,1177,0,0
399,-153,0,0,0,0,0,0,0,0,0,-1,1623,1177,0,0
406,-153,0,0,0,0,0,0,0,0,0,-1,1630,1177,0,0
413,-153,0,0,0,0,0,0,0,0,0,-1,1637,1177,0,0
420,-153,0,0,0,0,0,0,0,0,0,-1,1644,1177,0,0
427,-153,0,0,0,0,0,0,0,0,0,-1,1651,1177,0,0
434,-153,0,0,0,0,0,0,0,0,0,-1,1658,1177,0,0
441,-153,0,0,0,0,0,0,0,0,0,-1,1665,1177,0,0
448,-153,0,0,0,0,0,0,0,0,0,-1,1672,1177,0,0
455,-153,0,0,0,0,0,0,0,0,0,-1,1679,1177,0,0
462,-153,0,0,0,0,0,0,0,0,0,-1,1686,1177,0,0
469,-153,0,0,0,0,0,0,0,0,0,-1,1693,1177,0,0
476,-153,0,0,0,0,0,0,0,0,0,-1,1700,1177,0,0
483,-153,0,0,0,0,0,0,0,0,0,-1,1707,1177,0,0
490,-153,0,0,0,0,0,0,0,0,0,-1,1714,1177,0,0
497,-153,0,0,0,0,0,0,0,0,0,-1,1721,1177,0,0
504,-153,0,0,0,0,0,0,0,0,0,-1,1728,1177,0,0
511,-153,0,0,0,0,0,0,0,0,0,-1,1735,1177,0,0
518,-153,0,0,0,0,0,0,0,0,0,-1,1742,1177,0,0
525,-153,0,0,0,0,0,0,0,0,0,-1,1749,1177,0,0
532,-153,0,0,0,0,0,0,0,0,0,-1,1756,1177,0,0
539,-153,0,0,0,0,0,0,0,0,0,-1,1763,1177,0,0
546,-153,0,0,0,0,0,0,0,0,0,-1,1770,1177,0,0
553,-153,0,0,0,0,0,0,0,0,0,-1,1777,1177,0,0
560,-153,0,0,0,0,0,0,0,0,0,-1,1784,1177,0,0
567,-153,0,0,0,0,0,0,0,0,0,-1,1791,1177,0,0
574,-153,0,0,0,0,0,0,0,0,0,-1,1798,1177,0,0
581,-153,0,0,0,0,0,0,0,0,0,-1,1805,1177,0,0
588,-153,0,0,0,0,0,0,0,0,0,-1,1812,1177,0,0
595,-153,0,0,0,0,0,0,0,0,0,-1,1819,1177,0,0
602,-153,0,0,0,0,0,0,0,0,0,-1,1826,1177,0,0
609,-153,0,0,0,0,0,0,0,0,0,-1,1833,1177,0,0
616,-153,0,0,0,0,0,0,0,0,0,-1,1840,1177,0,0
623,-153,0,0,0,0,0,0,0,0,0,-1,1847,1177,0,0
630,-153,0,0,0,0,0,0,0,0,0,-1,1854,1177,0,0
637,-153,27.463,3.36938,-0.0031309,-0.000850553,-0.00119236,-0.000340965,-0.00364048,-1.16691,0.00232169,0.0399307,1861,1177,27.463,-3.36935
644,-153,27.4752,3.39026,-0.00224363,-0.000618852,-0.000882975,-0.000231398,-0.00263108,-1.15729,0.00168223,0.037313,1868,1177,27.4752,-3.39027
651,-153,27.4211,3.36841,-0.00123831,-0.000287932,-0.000789364,0.000158235,-0.00168448,-1.05634,0.00117928,0.0328236,1875,1177,27.4212,-3.3684
658,-153,27.3341,3.36169,-0.000187858,-0.000128528,-0.000653162,0.000495642,-0.000812028,-0.808092,0.000762314,0.0347148,1882,1177,27.3341,-3.3617
665,-153,27.2662,3.28674,0.000730087,-0.000114071,-0.000528437,0.000984319,-0.000368303,-0.448415,0.000807482,0.0377144,1889,1177,27.2662,-3.28672
672,-153,27.374,3.28931,0.00117444,-0.000188407,-0.000380626,0.00127354,-0.000287505,-0.254701,0.000959331,0.0399185,1896,1177,27.3741,-3.28931
679,-153,27.3615,3.31543,0.0011316,-0.000309866,-0.00015179,0.00114741,-0.000325676,-0.103786,0.000893507,0.0306478,1903,1177,27.3615,-3.31548
686,-153,27.3602,3.2998,0.000873063,-0.000430963,4.20238e-05,0.000874416,-0.000432316,0.0321817,0.0007687,0.0203347,1910,1177,27.3603,-3.29979
693,-153,27.4545,3.30713,0.000581656,-0.000533804,0.000180378,0.000610099,-0.000562247,0.156398,0.000677042,0.0333997,1917,1177,27.4544,-3.30708
700,-153,27.5693,3.33826,0,0,0,0,0,0,0,-1,1924,1177,27.5694,-3.33823
707,-153,24.6326,6.28638,0,0,0,0,0,0,0,-1,1931,1177,24.6326,-6.28638
714,-153,24.9207,5.8313,-0.000390463,-0.000505703,0.000690524,0.000244841,-0.00114101,0.743773,0.000854065,0.0375751,1938,1177,24.9206,-5.83131
721,-153,24.9374,5.68323,-0.000650946,-0.000434648,0.000782575,0.000247216,-0.00133281,0.854061,0.00098138,0.0289614,1945,1177,24.9374,-5.68323
728,-153,25.0153,5.53589,-0.000405166,-0.000191538,0.000636304,0.000346855,-0.000943559,0.868556,0.000771114,0.0361338,1952,1177,25.0153,-5.53583
735,-153,24.7643,5.45056,-8.82691e-06,0.000104882,0.000398274,0.000450339,-0.000354284,0.856295,0.000465651,0.0176058,1959,1177,24.7643,-5.45062
742,-153,24.7666,5.28076,0.00107609,0.000445525,0.000134528,0.00110359,0.000418024,0.201651,0.000643371,0.0143577,1966,1177,24.7666,-5.28074
749,-153,24.7629,5.10083,0.00290835,0.000978187,-0.000438784,0.00300342,0.000883121,-0.213361,0.00178239,0.0157813,1973,1177,24.7629,-5.10082
756,-153,24.7352,4.92896,0.00558661,0.00156718,-0.00151194,0.00609184,0.00106196,-0.322492,0.0037576,0.0109965,1980,1177,24.7352,-4.92896
763,-153,24.7244,4.7489,0.00873382,0.00192786,-0.00288771,0.00979393,0.00086776,-0.351835,0.00626011,0.0108481,1987,1177,24.7244,-4.74895
770,-153,24.7362,4.59009,0.0124914,0.00214991,-0.00453573,0.0141988,0.000442459,-0.360036,0.00932189,0.0106413,1994,1177,24.7362,-4.59012
777,-153,24.7238,4.40869,0.016747,0.00204092,-0.00672697,0.0193599,-0.00057195,-0.370481,0.0131014,0.0213133,2001,1177,24.7238,-4.40869
784,-153,24.7288,4.28223,0.0211345,0.00132976,-0.00962249,0.0250397,-0.00257546,-0.385533,0.0176145,0.0436101,2008,1177,24.7287,-4.2822
791,-153,24.698,4.13416,0,0,0,0,0,0,0,-1,2015,1177,24.698,-4.13418
798,-153,24.8364,3.69934,0,0,0,0,0,0,0,-1,2022,1177,24.8365,-3.69928
805,-153,25.6428,4.52185,0,0,0,0,0,0,0,-1,2029,1177,25.6427,-4.52179
812,-153,0,0,0,0,0,0,0,0,0,-1,2036,1177,0,0
-700,-160,0,0,0,0,0,0,0,0,0,-1,524,1184,0,0
-693,-160,0,0,0,0,0,0,0,0,0,-1,531,1184,0,0
-686,-160,-14.6746,1.8302,-0.0325899,0.039886,-0.0581468,0.0721626,-0.0648664,-1.06406,0.0791511,0.0452567,538,1184,-14.6746,-1.83025
-679,-160,-14.6548,1.15527,-0.0257808,0.0391373,-0.0364983,0.055522,-0.0421655,-1.14884,0.0565754,0.0441043,545,1184,-14.6548,-1.15522
-672,-160,-15.2714,1.09668,-0.0200941,0.0362636,-0.021859,0.0437479,-0.0275784,-1.24092,0.0415315,0.0435114,552,1184,-15.2714,-1.09669
-665,-160,-16.1226,0.484741,0,0,0,0,0,0,0,-1,559,1184,-16.1225,-0.484741
-658,-160,-15.2096,0.54187,0,0,0,0,0,0,0,-1,566,1184,-15.2096,-0.541823
-651,-160,-15.7194,1.14551,0,0,0,0,0,0,0,-1,573,1184,-15.7194,-1.14545
-644,-160,-15.7646,1.51978,-0.00606326,0.0183379,0.00100664,0.0183794,-0.00610472,1.52964,0.0147161,0.0354511,580,1184,-15.7647,-1.51978
-637,-160,-15.828,1.99658,-0.00425547,0.0140727,0.00202058,0.0142929,-0.00447558,1.46229,0.0113193,0.0136969,587,1184,-15.828,-1.99663
-630,-160,-15.8812,2.16064,-0.00299272,0.0100764,0.00266033,0.0105972,-0.0035135,1.37748,0.00848212,0.00900773,594,1184,-15.8811,-2.16065
-623,-160,-15.9211,2.34937,-0.00185683,0.00702769,0.00267835,0.00777265,-0.00260179,1.29951,0.00623275,0.0114177,601,1184,-15.9211,-2.34937
-616,-160,-15.9302,2.58081,-0.000892772,0.00447132,0.00170831,0.00496917,-0.00139062,1.28723,0.00386072,0.0099081,608,1184,-15.9302,-2.58082
-609,-160,-15.9086,2.8512,-0.000908186,0.00216915,0.000435564,0.00222961,-0.000968648,1.43287,0.00189375,0.0122719,615,1184,-15.9086,-2.85119
-602,-160,-15.8859,3.1095,-0.000785861,0.000992948,-0.000793329,0.00129535,-0.00108827,-1.20661,0.00137791,0.0219773,622,1184,-15.8859,-3.10946
-595,-160,-15.9255,3.3634,-0.000503654,0.000423968,-0.00160486,0.00163069,-0.00171038,-0.926068,0.00192915,0.0299054,629,1184,-15.9255,-3.36343
-588,-160,-16.0703,3.48645,-0.000612993,0.000368228,-0.00203655,0.00197242,-0.00221719,-0.903598,0.00242025,0.027882,636,1184,-16.0703,-3.48642
-581,-160,-15.9345,3.68018,-0.000605084,0.000485785,-0.0021262,0.00213539,-0.00225469,-0.910956,0.00253493,0.0200782,643,1184,-15.9345,-3.68022
-574,-160,-16.1499,3.79041,0,0,0,0,0,0,0,-1,650,1184,-16.1499,-3.79036
-567,-160,-19.1195,1.8302,0,0,0,0,0,0,0,-1,657,1184,-19.1195,-1.83026
-560,-160,-18.9559,1.60132,-2.38179e-05,0.000507511,-0.00165904,0.00192202,-0.00143833,-0.86479,0.00194679,0.0387602,664,1184,-18.9558,-1.60135
-553,-160,-18.8322,1.41711,0.000115568,0.000561005,-0.0013177,0.00167467,-0.000998102,-0.869117,0.00155952,0.0373046,671,1184,-18.8322,-1.4171
-546,-160,-18.8101,1.33826,0.000339199,0.000539804,-0.000711135,0.00115768,-0.000278672,-0.855459,0.000879515,0.0382363,678,1184,-18.8101,-1.33826
-539,-160,-18.9252,1.30908,0.000386623,0.000374115,0.000249438,0.000629886,0.000130852,0.772865,0.000383815,0.0418909,685,1184,-18.9252,-1.30914
-532,-160,-19.0574,1.29932,0,0,0,0,0,0,0,-1,692,1184,-19.0574,-1.29933
-525,-160,-18.8844,1.59192,0.000456956,-0.000884984,0.00369581,0.00354221,-0.00397024,0.695602,0.00433966,0.0429486,699,1184,-18.8844,-1.59189
-518,-160,-18.7681,1.53406,-0.000915432,-0.00181421,0.0048303,0.00348634,-0.00621598,0.739014,0.00567505,0.0425641,706,1184,-18.7681,-1.53406
-511,-160,0,0,0,0,0,0,0,0,0,-1,713,1184,0,0
-504,-160,0,0,0,0,0,0,0,0,0,-1,720,1184,0,0
-497,-160,0,0,0,0,0,0,0,0,0,-1,727,1184,0,0
-490,-160,0,0,0,0,0,0,0,0,0,-1,734,1184,0,0
-483,-160,0,0,0,0,0,0,0,0,0,-1,741,1184,0,0
-476,-160,0,0,0,0,0,0,0,0,0,-1,748,1184,0,0
-469,-160,0,0,0,0,0,0,0,0,0,-1,755,1184,0,0
-462,-160,0,0,0,0,0,0,0,0,0,-1,762,1184,0,0
-455,-160,0,0,0,0,0,0,0,0,0,-1,769,1184,0,0
-448,-160,0,0,0,0,0,0,0,0,0,-1,776,1184,0,0
-441,-160,0,0,0,0,0,0,0,0,0,-1,783,1184,0,0
-434,-160,0,0,0,0,0,0,0,0,0,-1,790,1184,0,0
-427,-160,0,0,0,0,0,0,0,0,0,-1,797,1184,0,0
-420,-160,0,0,0,0,0,0,0,0,0,-1,804,1184,0,0
-413,-160,0,0,0,0,0,0,0,0,0,-1,811,1184,0,0
-406,-160,0,0,0,0,0,0,0,0,0,-1,818,1184,0,0
-399,-160,0,0,0,0,0,0,0,0,0,-1,825,1184,0,0
-392,-160,0,0,0,0,0,0,0,0,0,-1,832,1184,0,0
-385,-160,0,0,0,0,0,0,0,0,0,-1,839,1184,0,0
-378,-160,0,0,0,0,0,0,0,0,0,-1,846,1184,0,0
-371,-160,0,0,0,0,0,0,0,0,0,-1,853,1184,0,0
-364,-160,0,0,0,0,0,0,0,0,0,-1,860,1184,0,0
-357,-160,0,0,0,0,0,0,0,0,0,-1,867,1184,0,0
-350,-160,0,0,0,0,0,0,0,0,0,-1,874,1184,0,0
-343,-160,0,0,0,0,0,0,0,0,0,-1,881,1184,0,0
-336,-160,0,0,0,0,0,0,0,0,0,-1,888,1184,0,0
-329,-160,0,0,0,0,0,0,0,0,0,-1,895,1184,0,0
-322,-160,0,0,0,0,0,0,0,0,0,-1,902,1184,0,0
-315,-160,0,0,0,0,0,0,0,0,0,-1,909,1184,0,0
-308,-160,0,0,0,0,0,0,0,0,0,-1,916,1184,0,0
-301,-160,0,0,0,0,0,0,0,0,0,-1,923,1184,0,0
-294,-160,0,0,0,0,0,0,0,0,0,-1,930,1184,0,0
-287,-160,0,0,0,0,0,0,0,0,0,-1,937,1184,0,0
-280,-160,0,0,0,0,0,0,0,0,0,-1,944,1184,0,0
-273,-160,0,0,0,0,0,0,0,0,0,-1,951,1184,0,0
-266,-160,0,0,0,0,0,0,0,0,0,-1,958,1184,0,0
-259,-160,0,0,0,0,0,0,0,0,0,-1,965,1184,0,0
-252,-160,0,0,0,0,0,0,0,0,0,-1,972,1184,0,0
-245,-160,0,0,0,0,0,0,0,0,0,-1,979,1184,0,0
-238,-160,0,0,0,0,0,0,0,0,0,-1,986,1184,0,0
-231,-160,0,0,0,0,0,0,0,0,0,-1,993,1184,0,0
-224,-160,0,0,0,0,0,0,0,0,0,-1,1000,1184,0,0
-217,-160,0,0,0,0,0,0,0,0,0,-1,1007,1184,0,0
-210,-160,0,0,0,0,0,0,0,0,0,-1,1014,1184,0,0
-203,-160,0,0,0,0,0,0,0,0,0,-1,1021,1184,0,0
-196,-160,0,0,0,0,0,0,0,0,0,-1,1028,1184,0,0
-189,-160,0,0,0,0,0,0,0,0,0,-1,1035,1184,0,0
-182,-160,0,0,0,0,0,0,0,0,0,-1,1042,1184,0,0
-175,-160,0,0,0,0,0,0,0,0,0,-1,1049,1184,0,0
-168,-160,0,0,0,0,0,0,0,0,0,-1,1056,1184,0,0
-161,-160,0,0,0,0,0,0,0,0,0,-1,1063,1184,0,0
-154,-160,0,0,0,0,0,0,0,0,0,-1,1070,1184,0,0
-147,-160,0,0,0,0,0,0,0,0,0,-1,1077,1184,0,0
-140,-160,0,0,0,0,0,0,0,0,0,-1,1084,1184,0,0
-133,-160,0,0,0,0,0,0,0,0,0,-1,1091,1184,0,0
-126,-160,0,0,0,0,0,0,0,0,0,-1,1098,1184,0,0
-119,-160,0,0,0,0,0,0,0,0,0,-1,1105,1184,0,0
-112,-160,0,0,0,0,0,0,0,0,0,-1,1112,1184,0,0
-105,-160,0,0,0,0,0,0,0,0,0,-1,1119,1184,0,0
-98,-160,0,0,0,0,0,0,0,0,0,-1,1126,1184,0,0
-91,-160,0,0,0,0,0,0,0,0,0,-1,1133,1184,0,0
-84,-160,0,0,0,0,0,0,0,0,0,-1,1140,1184,0,0
-77,-160,0,0,0,0,0,0,0,0,0,-1,1147,1184,0,0
-70,-160,0,0,0,0,0,0,0,0,0,-1,1154,1184,0,0
-63,-160,0,0,0,0,0,0,0,0,0,-1,1161,1184,0,0
-56,-160,0,0,0,0,0,0,0,0,0,-1,1168,1184,0,0
-49,-160,0,0,0,0,0,0,0,0,0,-1,1175,1184,0,0
-42,-160,0,0,0,0,0,0,0,0,0,-1,1182,1184,0,0
-35,-160,0,0,0,0,0,0,0,0,0,-1,1189,1184,0,0
-28,-160,0,0,0,0,0,0,0,0,0,-1,1196,1184,0,0
-21,-160,0,0,0,0,0,0,0,0,0,-1,1203,1184,0,0
-14,-160,0,0,0,0,0,0,0,0,0,-1,1210,1184,0,0
-7,-160,0,0,0,0,0,0,0,0,0,-1,1217,1184,0,0
0,-160,0,0,0,0,0,0,0,0,0,-1,1224,1184,0,0
7,-160,0,0,0,0,0,0,0,0,0,-1,1231,1184,0,0
14,-160,0,0,0,0,0,0,0,0,0,-1,1238,1184,0,0
21,-160,0,0,0,0,0,0,0,0,0,-1,1245,1184,0,0
28,-160,0,0,0,0,0,0,0,0,0,-1,1252,1184,0,0
35,-160,0,0,0,0,0,0,0,0,0,-1,1259,1184,0,0
42,-160,0,0,0,0,0,0,0,0,0,-1,1266,1184,0,0
49,-160,0,0,0,0,0,0,0,0,0,-1,1273,1184,0,0
56,-160,0,0,0,0,0,0,0,0,0,-1,1280,1184,0,0
63,-160,0,0,0,0,0,0,0,0,0,-1,1287,1184,0,0
70,-160,0,0,0,0,0,0,0,0,0,-1,1294,1184,0,0
77,-160,0,0,0,0,0,0,0,0,0,-1,1301,1184,0,0
84,-160,0,0,0,0,0,0,0,0,0,-1,1308,1184,0,0
91,-160,0,0,0,0,0,0,0,0,0,-1,1315,1184,0,0
98,-160,0,0,0,0,0,0,0,0,0,-1,1322,1184,0,0
105,-160,0,0,0,0,0,0,0,0,0,-1,1329,1184,0,0
112,-160,0,0,0,0,0,0,0,0,0,-1,1336,1184,0,0
119,-160,0,0,0,0,0,0,0,0,0,-1,1343,1184,0,0
126,-160,0,0,0,0,0,0,0,0,0,-1,1350,1184,0,0
133,-160,0,0,0,0,0,0,0,0,0,-1,1357,1184,0,0
140,-160,0,0,0,0,0,0,0,0,0,-1,1364,1184,0,0
147,-160,0,0,0,0,0,0,0,0,0,-1,1371,1184,0,0
154,-160,0,0,0,0,0,0,0,0,0,-1,1378,1184,0,0
161,-160,0,0,0,0,0,0,0,0,0,-1,1385,1184,0,0
168,-160,0,0,0,0,0,0,0,0,0,-1,1392,1184,0,0
175,-160,0,0,0,0,0,0,0,0,0,-1,1399,1184,0,0
182,-160,0,0,0,0,0,0,0,0,0,-1,1406,1184,0,0
189,-160,0,0,0,0,0,0,0,0,0,-1,1413,1184,0,0
196,-160,0,0,0,0,0,0,0,0,0,-1,1420,1184,0,0
203,-160,0,0,0,0,0,0,0,0,0,-1,1427,1184,0,0
210,-160,0,0,0,0,0,0,0,0,0,-1,1434,1184,0,0
217,-160,0,0,0,0,0,0,0,0,0,-1,1441,1184,0,0
224,-160,0,0,0,0,0,0,0,0,0,-1,1448,1184,0,0
231,-160,0,0,0,0,0,0,0,0,0,-1,1455,1184,0,0
238,-160,0,0,0,0,0,0,0,0,0,-1,1462,1184,0,0
245,-160,0,0,0,0,0,0,0,0,0,-1,1469,1184,0,0
252,-160,0,0,0,0,0,0,0,0,0,-1,1476,1184,0,0
259,-160,0,0,0,0,0,0,0,0,0,-1,1483,1184,0,0
266,-160,0,0,0,0,0,0,0,0,0,-1,1490,1184,0,0
273,-160,0,0,0,0,0,0,0,0,0,-1,1497,1184,0,0
280,-160,0,0,0,0,0,0,0,0,0,-1,1504,1184,0,0
287,-160,0,0,0,0,0,0,0,0,0,-1,1511,1184,0,0
294,-160,0,0,0,0,0,0,0,0,0,-1,1518,1184,0,0
301,-160,0,0,0,0,0,0,0,0,0,-1,1525,1184,0,0
308,-160,0,0,0,0,0,0,0,0,0,-1,1532,1184,0,0
315,-160,0,0,0,0,0,0,0,0,0,-1,1539,1184,0,0
322,-160,0,0,0,0,0,0,0,0,0,-1,1546,1184,0,0
329,-160,0,0,0,0,0,0,0,0,0,-1,1553,1184,0,0
336,-160,0,0,0,0,0,0,0,0,0,-1,1560,1184,0,0
343,-160,0,0,0,0,0,0,0,0,0,-1,1567,1184,0,0
350,-160,0,0,0,0,0,0,0,0,0,-1,1574,1184,0,0
357,-160,0,0,0,0,0,0,0,0,0,-1,1581,1184,0,0
364,-160,0,0,0,0,0,0,0,0,0,-1,1588,1184,0,0
371,-160,0,0,0,0,0,0,0,0,0,-1,1595,1184,0,0
378,-160,0,0,0,0,0,0,0,0,0,-1,1602,1184,0,0
385,-160,0,0,0,0,0,0,0,0,0,-1,1609,1184,0,0
392,-160,0,0,0,0,0,0,0,0,0,-1,1616,1184,0,0
399,-160,0,0,0,0,0,0,0,0,0,-1,1623,1184,0,0
406,-160,0,0,0,0,0,0,0,0,0,-1,1630,1184,0,0
413,-160,0,0,0,0,0,0,0,0,0,-1,1637,1184,0,0
420,-160,0,0,0,0,0,0,0,0,0,-1,1644,1184,0,0
427,-160,0,0,0,0,0,0,0,0,0,-1,1651,1184,0,0
434,-160,0,0,0,0,0,0,0,0,0,-1,1658,1184,0,0
441,-160,0,0,0,0,0,0,0,0,0,-1,1665,1184,0,0
448,-160,0,0,0,0,0,0,0,0,0,-1,1672,1184,0,0
455,-160,0,0,0,0,0,0,0,0,0,-1,1679,1184,0,0
462,-160,0,0,0,0,0,0,0,0,0,-1,1686,1184,0,0
469,-160,0,0,0,0,0,0,0,0,0,-1,1693,1184,0,0
476,-160,0,0,0,0,0,0,0,0,0,-1,1700,1184,0,0
483,-160,0,0,0,0,0,0,0,0,0,-1,1707,1184,0,0
490,-160,0,0,0,0,0,0,0,0,0,-1,1714,1184,0,0
497,-160,0,0,0,0,0,0,0,0,0,-1,1721,1184,0,0
504,-160,0,0,0,0,0,0,0,0,0,-1,1728,1184,0,0
511,-160,0,0,0,0,0,0,0,0,0,-1,1735,1184,0,0
518,-160,0,0,0,0,0,0,0,0,0,-1,1742,1184,0,0
525,-160,0,0,0,0,0,0,0,0,0,-1,1749,1184,0,0
532,-160,0,0,0,0,0,0,0,0,0,-1,1756,1184,0,0
539,-160,0,0,0,0,0,0,0,0,0,-1,1763,1184,0,0
546,-160,0,0,0,0,0,0,0,0,0,-1,1770,1184,0,0
553,-160,0,0,0,0,0,0,0,0,0,-1,1777,1184,0,0
560,-160,0,0,0,0,0,0,0,0,0,-1,1784,1184,0,0
567,-160,0,0,0,0,0,0,0,0,0,-1,1791,1184,0,0
574,-160,0,0,0,0,0,0,0,0,0,-1,1798,1184,0,0
581,-160,0,0,0,0,0,0,0,0,0,-1,1805,1184,0,0
588,-160,0,0,0,0,0,0,0,0,0,-1,1812,1184,0,0
595,-160,0,0,0,0,0,0,0,0,0,-1,1819,1184,0,0
602,-160,0,0,0,0,0,0,0,0,0,-1,1826,1184,0,0
609,-160,0,0,0,0,0,0,0,0,0,-1,1833,1184,0,0
616,-160,0,0,0,0,0,0,0,0,0,-1,1840,1184,0,0
623,-160,0,0,0,0,0,0,0,0,0,-1,1847,1184,0,0
630,-160,0,0,0,0,0,0,0,0,0,-1,1854,1184,0,0
637,-160,27.4365,3.38806,-0.00410823,3.15327e-05,-0.00100769,0.000263792,-0.00434049,-1.34427,0.00298548,0.0394218,1861,1184,27.4365,-3.38801
644,-160,27.5065,3.35742,-0.00280293,4.26125e-05,-0.000803923,0.000254029,-0.00301434,-1.31364,0.00209937,0.0396137,1868,1184,27.5065,-3.35743
651,-160,27.3317,3.43872,-0.00135972,0.000164522,-0.000755999,0.000475883,-0.00167108,-1.18011,0.001302,0.0422967,1875,1184,27.3317,-3.43873
658,-160,27.2526,3.43201,6.22968e-05,6.91607e-05,-0.000639593,0.000705331,-0.000573873,-0.788081,0.000739848,0.0399148,1882,1184,27.2526,-3.43207
665,-160,27.3167,3.39441,0.00122564,-0.000112072,-0.000595517,0.00145233,-0.000338765,-0.363729,0.00109869,0.0366471,1889,1184,27.3166,-3.39438
672,-160,27.334,3.35767,0.001799,-0.000329712,-0.000534651,0.00192573,-0.00045645,-0.232753,0.00145995,0.0345934,1896,1184,27.3339,-3.35768
679,-160,27.2985,3.30872,0.00180302,-0.00053691,-0.000352791,0.00185506,-0.000588943,-0.146434,0.00147281,0.0268455,1903,1184,27.2985,-3.30877
686,-160,27.3876,3.29797,0.00158995,-0.000706726,-0.000209835,0.00160896,-0.00072574,-0.0903679,0.00137972,0.0178638,1910,1184,27.3876,-3.29797
693,-160,27.4728,3.29504,0.0013254,-0.000829143,-0.000106955,0.00133069,-0.000834439,-0.0494794,0.00126094,0.0485995,1917,1184,27.4728,-3.29498
700,-160,25.7567,4.85742,0,0,0,0,0,0,0,-1,1924,1184,25.7567,-4.85737
707,-160,24.5115,6.27405,0,0,0,0,0,0,0,-1,1931,1184,24.5115,-6.27401
714,-160,24.7715,5.98474,0.000405999,-0.000784333,0.000259248,0.000460011,-0.000838345,0.205403,0.00076014,0.0498404,1938,1184,24.7715,-5.98479
721,-160,24.7855,5.60339,0.000141942,-0.00067328,0.000324765,0.000255502,-0.00078684,0.336379,0.000627318,0.0229666,1945,1184,24.7856,-5.6034
728,-160,24.7841,5.55579,0.000426924,-0.00036861,0.00014652,0.000453051,-0.000394737,0.176466,0.000489857,0.0212089,1952,1184,24.7841,-5.55578
735,-160,24.6215,5.45251,0.000905641,-4.20612e-05,-0.000116532,0.000919759,-5.618e-05,-0.12057,0.000632732,0.0145327,1959,1184,24.6215,-5.45254
742,-160,24.601,5.24561,0.00225904,0.000296846,-0.000444325,0.00235496,0.00020092,-0.212626,0.00150747,0.0159815,1966,1184,24.601,-5.24562
749,-160,24.582,5.05505,0.00453653,0.000803797,-0.00109335,0.0048332,0.000507124,-0.264963,0.0030671,0.0171323,1973,1184,24.5821,-5.05503
756,-160,24.5448,4.9137,0.00782442,0.00128427,-0.00225315,0.0085255,0.00058319,-0.30166,0.00549959,0.0109037,1980,1184,24.5448,-4.91369
763,-160,24.5447,4.76624,0.011769,0.00147285,-0.00377417,0.0130043,0.00023759,-0.316305,0.00859143,0.0112428,1987,1184,24.5447,-4.76625
770,-160,24.5359,4.58545,0.016624,0.00141871,-0.00574716,0.0185518,-0.000509129,-0.323647,0.012541,0.0176199,1994,1184,24.5359,-4.58539
777,-160,24.5631,4.37756,0.0222646,0.000847674,-0.0083889,0.0251593,-0.00204698,-0.332265,0.0174951,0.0304342,2001,1184,24.5631,-4.37755
784,-160,24.6895,4.09814,0.0281907,-0.00059148,-0.0117139,0.0323554,-0.0047562,-0.341599,0.0233179,0.0430261,2008,1184,24.6894,-4.09815
791,-160,24.701,3.92297,0,0,0,0,0,0,0,-1,2015,1184,24.701,-3.92291
798,-160,24.7535,3.14697,0,0,0,0,0,0,0,-1,2022,1184,24.7536,-3.14693
805,-160,24.8101,3.15918,0,0,0,0,0,0,0,-1,2029,1184,24.81,-3.15917
812,-160,0,0,0,0,0,0,0,0,0,-1,2036,1184,0,0
-700,-167,0,0,0,0,0,0,0,0,0,-1,524,1191,0,0
-693,-167,0,0,0,0,0,0,0,0,0,-1,531,1191,0,0
-686,-167,-14.1591,1.36987,-0.0422231,0.0509546,-0.0549645,0.0764187,-0.0676872,-1.13695,0.0832504,0.0442696,538,1191,-14.1591,-1.36993
-679,-167,-14.0292,0.704834,-0.0363094,0.0481948,-0.033236,0.0597002,-0.0478148,-1.23753,0.0622002,0.0437676,545,1191,-14.0292,-0.704869
-672,-167,-14.9704,0.922974,-0.0302761,0.0434565,-0.0188271,0.0479857,-0.0348052,-1.33472,0.0480008,0.0478926,552,1191,-14.9704,-0.922957
-665,-167,-15.9074,1.07581,0,0,0,0,0,0,0,-1,559,1191,-15.9074,-1.07582
-658,-167,-15.3975,0.954834,0,0,0,0,0,0,0,-1,566,1191,-15.3975,-0.954793
-651,-167,-15.6554,0.985107,0,0,0,0,0,0,0,-1,573,1191,-15.6554,-0.985136
-644,-167,-15.6089,1.48474,-0.011009,0.0204379,0.00254104,0.0206419,-0.011213,1.49068,0.018658,0.0382077,580,1191,-15.6089,-1.48471
-637,-167,-15.5892,1.98621,-0.00796945,0.0154792,0.0032133,0.0159115,-0.00840182,1.43705,0.0142588,0.0162668,587,1191,-15.5892,-1.98618
-630,-167,-15.6536,2.13208,-0.00578396,0.0109966,0.00351936,0.0117048,-0.00649218,1.37221,0.0106488,0.00874333,594,1191,-15.6536,-2.13208
-623,-167,-15.6776,2.32373,-0.00391314,0.00755925,0.00327698,0.00842931,-0.00478319,1.31128,0.00772445,0.0110927,601,1191,-15.6776,-2.32375
-616,-167,-15.6808,2.55969,-0.00229092,0.00474948,0.00201699,0.00528638,-0.00282782,1.31064,0.00475588,0.0143387,608,1191,-15.6809,-2.55969
-609,-167,-15.6906,2.82556,-0.00175912,0.0021675,0.000497355,0.00222952,-0.00182113,1.44674,0.00234261,0.0130403,615,1191,-15.6906,-2.8256
-602,-167,-15.7033,3.04309,-0.00145412,0.000941612,-0.000904867,0.00124497,-0.00175748,-1.24732,0.00174186,0.0134226,622,1191,-15.7033,-3.04305
-595,-167,-15.6958,3.21741,-0.00118553,0.000362718,-0.00185235,0.0015962,-0.00241901,-0.983325,0.00233435,0.0230361,629,1191,-15.6958,-3.21746
-588,-167,-15.7346,3.46558,-0.00129744,0.000334535,-0.00234527,0.00200172,-0.00296462,-0.952812,0.00288523,0.0238598,636,1191,-15.7345,-3.46552
-581,-167,-15.7361,3.64111,-0.00123647,0.000452794,-0.00243411,0.00218465,-0.00296832,-0.952397,0.00298652,0.0239777,643,1191,-15.7361,-3.64117
-574,-167,-15.98,4.09692,0,0,0,0,0,0,0,-1,650,1191,-15.98,-4.09687
-567,-167,-19.0416,1.51233,0,0,0,0,0,0,0,-1,657,1191,-19.0416,-1.51228
-560,-167,-18.9139,1.44849,-0.000442744,0.000382025,-0.00179006,0.00180659,-0.00186731,-0.89861,0.00212123,0.0403238,664,1191,-18.9139,-1.44853
-553,-167,-18.8572,1.4928,-0.0001326,0.000398639,-0.00137221,0.0015307,-0.00126466,-0.881001,0.00161634,0.0378156,671,1191,-18.8573,-1.49278
-546,-167,-18.8484,1.50769,0.000303329,0.000342938,-0.000662222,0.000985652,-0.000339385,-0.800347,0.000794763,0.0358368,678,1191,-18.8485,-1.50774
-539,-167,-18.8285,1.55225,0.000631133,0.00016337,0.000416169,0.000874637,-8.01338e-05,0.529398,0.000611555,0.0396896,685,1191,-18.8285,-1.55222
-532,-167,-18.8746,1.51453,0.000868193,-0.000265596,0.0019933,0.00237364,-0.00177105,0.646856,0.00240135,0.0443239,692,1191,-18.8746,-1.51453
-525,-167,-18.8879,1.4425,0.00108004,-0.00108945,0.00414501,0.00427989,-0.0042893,0.657418,0.00494742,0.0441596,699,1191,-18.8879,-1.44253
-518,-167,-18.8246,1.49976,-0.000333152,-0.0021276,0.00556161,0.00440314,-0.00686389,0.705425,0.00655653,0.0425659,706,1191,-18.8246,-1.49971
-511,-167,0,0,0,0,0,0,0,0,0,-1,713,1191,0,0
-504,-167,0,0,0,0,0,0,0,0,0,-1,720,1191,0,0
-497,-167,0,0,0,0,0,0,0,0,0,-1,727,1191,0,0
-490,-167,0,0,0,0,0,0,0,0,0,-1,734,1191,0,0
-483,-167,0,0,0,0,0,0,0,0,0,-1,741,1191,0,0
-476,-167,0,0,0,0,0,0,0,0,0,-1,748,1191,0,0
-469,-167,0,0,0,0,0,0,0,0,0,-1,755,1191,0,0
-462,-167,0,0,0,0,0,0,0,0,0,-1,762,1191,0,0
-455,-167,0,0,0,0,0,0,0,0,0,-1,769,1191,0,0
-448,-167,0,0,0,0,0,0,0,0,0,-1,776,1191,0,0
-441,-167,0,0,0,0,0,0,0,0,0,-1,783,1191,0,0
-434,-167,0,0,0,0,0,0,0,0,0,-1,790,1191,0,0
-427,-167,0,0,0,0,0,0,0,0,0,-1,797,1191,0,0
-420,-167,0,0,0,0,0,0,0,0,0,-1,804,1191,0,0
-413,-167,0,0,0,0,0,0,0,0,0,-1,811,1191,0,0
-406,-167,0,0,0,0,0,0,0,0,0,-1,818,1191,0,0
-399,-167,0,0,0,0,0,0,0,0,0,-1,825,1191,0,0
-392,-167,0,0,0,0,0,0,0,0,0,-1,832,1191,0,0
-385,-167,0,0,0,0,0,0,0,0,0,-1,839,1191,0,0
-378,-167,0,0,0,0,0,0,0,0,0,-1,846,1191,0,0
-371,-167,0,0,0,0,0,0,0,0,0,-1,853,1191,0,0
-364,-167,0,0,0,0,0,0,0,0,0,-1,860,1191,0,0
-357,-167,0,0,0,0,0,0,0,0,0,-1,867,1191,0,0
-350,-167,0,0,0,0,0,0,0,0,0,-1,874,1191,0,0
-343,-167,0,0,0,0,0,0,0,0,0,-1,881,1191,0,0
-336,-167,0,0,0,0,0,0,0,0,0,-1,888,1191,0,0
-329,-167,0,0,0,0,0,0,0,0,0,-1,895,1191,0,0
-322,-167,0,0,0,0,0,0,0,0,0,-1,902,1191,0,0
-315,-167,0,0,0,0,0,0,0,0,0,-1,909,1191,0,0
-308,-167,0,0,0,0,0,0,0,0,0,-1,916,1191,0,0
-301,-167,0,0,0,0,0,0,0,0,0,-1,923,1191,0,0
-294,-167,0,0,0,0,0,0,0,0,0,-1,930,1191,0,0
-287,-167,0,0,0,0,0,0,0,0,0,-1,937,1191,0,0
-280,-167,0,0,0,0,0,0,0,0,0,-1,944,1191,0,0
-273,-167,0,0,0,0,0,0,0,0,0,-1,951,1191,0,0
-266,-167,0,0,0,0,0,0,0,0,0,-1,958,1191,0,0
-259,-167,0,0,0,0,0,0,0,0,0,-1,965,1191,0,0
-252,-167,0,0,0,0,0,0,0,0,0,-1,972,1191,0,0
-245,-167,0,0,0,0,0,0,0,0,0,-1,979,1191,0,0
-238,-167,0,0,0,0,0,0,0,0,0,-1,986,1191,0,0
-231,-167,0,0,0,0,0,0,0,0,0,-1,993,1191,0,0
-224,-167,0,0,0,0,0,0,0,0,0,-1,1000,1191,0,0
-217,-167,0,0,0,0,0,0,0,0,0,-1,1007,1191,0,0
-210,-167,0,0,0,0,0,0,0,0,0,-1,1014,1191,0,0
-203,-167,0,0,0,0,0,0,0,0,0,-1,1021,1191,0,0
-196,-167,0,0,0,0,0,0,0,0,0,-1,1028,1191,0,0
-189,-167,0,0,0,0,0,0,0,0,0,-1,1035,1191,0,0
-182,-167,0,0,0,0,0,0,0,0,0,-1,1042,1191,0,0
-175,-167,0,0,0,0,0,0,0,0,0,-1,1049,1191,0,0
-168,-167,0,0,0,0,0,0,0,0,0,-1,1056,1191,0,0
-161,-167,0,0,0,0,0,0,0,0,0,-1,1063,1191,0,0
-154,-167,0,0,0,0,0,0,0,0,0,-1,1070,1191,0,0
-147,-167,0,0,0,0,0,0,0,0,0,-1,1077,1191,0,0
-140,-167,0,0,0,0,0,0,0,0,0,-1,1084,1191,0,0
-133,-167,0,0,0,0,0,0,0,0,0,-1,1091,1191,0,0
-126,-167,0,0,0,0,0,0,0,0,0,-1,1098,1191,0,0
-119,-167,0,0,0,0,0,0,0,0,0,-1,1105,1191,0,0
-112,-167,0,0,0,0,0,0,0,0,0,-1,1112,1191,0,0
-105,-167,0,0,0,0,0,0,0,0,0,-1,1119,1191,0,0
-98,-167,0,0,0,0,0,0,0,0,0,-1,1126,1191,0,0
-91,-167,0,0,0,0,0,0,0,0,0,-1,1133,1191,0,0
-84,-167,0,0,0,0,0,0,0,0,0,-1,1140,1191,0,0
-77,-167,0,0,0,0,0,0,0,0,0,-1,1147,1191,0,0
-70,-167,0,0,0,0,0,0,0,0,0,-1,1154,1191,0,0
-63,-167,0,0,0,0,0,0,0,0,0,-1,1161,1191,0,0
-56,-167,0,0,0,0,0,0,0,0,0,-1,1168,1191,0,0
-49,-167,0,0,0,0,0,0,0,0,0,-1,1175,1191,0,0
-42,-167,0,0,0,0,0,0,0,0,0,-1,1182,1191,0,0
-35,-167,0,0,0,0,0,0,0,0,0,-1,1189,1191,0,0
-28,-167,0,0,0,0,0,0,0,0,0,-1,1196,1191,0,0
-21,-167,0,0,0,0,0,0,0,0,0,-1,1203,1191,0,0
-14,-167,0,0,0,0,0,0,0,0,0,-1,1210,1191,0,0
-7,-167,0,0,0,0,0,0,0,0,0,-1,1217,1191,0,0
0,-167,0,0,0,0,0,0,0,0,0,-1,1224,1191,0,0
7,-167,0,0,0,0,0,0,0,0,0,-1,1231,1191,0,0
14,-167,0,0,0,0,0,0,0,0,0,-1,1238,1191,0,0
21,-167,0,0,0,0,0,0,0,0,0,-1,1245,1191,0,0
28,-167,0,0,0,0,0,0,0,0,0,-1,1252,1191,0,0
35,-167,0,0,0,0,0,0,0,0,0,-1,1259,1191,0,0
42,-167,0,0,0,0,0,0,0,0,0,-1,1266,1191,0,0
49,-167,0,0,0,0,0,0,0,0,0,-1,1273,1191,0,0
56,-167,0,0,0,0,0,0,0,0,0,-1,1280,1191,0,0
63,-167,0,0,0,0,0,0,0,0,0,-1,1287,1191,0,0
70,-167,0,0,0,0,0,0,0,0,0,-1,1294,1191,0,0
77,-167,0,0,0,0,0,0,0,0,0,-1,1301,1191,0,0
84,-167,0,0,0,0,0,0,0,0,0,-1,1308,1191,0,0
91,-167,0,0,0,0,0,0,0,0,0,-1,1315,1191,0,0
98,-167,0,0,0,0,0,0,0,0,0,-1,1322,1191,0,0
105,-167,0,0,0,0,0,0,0,0,0,-1,1329,1191,0,0
112,-167,0,0,0,0,0,0,0,0,0,-1,1336,1191,0,0
119,-167,0,0,0,0,0,0,0,0,0,-1,1343,1191,0,0
126,-167,0,0,0,0,0,0,0,0,0,-1,1350,1191,0,0
133,-167,0,0,0,0,0,0,0,0,0,-1,1357,1191,0,0
140,-167,0,0,0,0,0,0,0,0,0,-1,1364,1191,0,0
147,-167,0,0,0,0,0,0,0,0,0,-1,1371,1191,0,0
154,-167,0,0,0,0,0,0,0,0,0,-1,1378,1191,0,0
161,-167,0,0,0,0,0,0,0,0,0,-1,1385,1191,0,0
168,-167,0,0,0,0,0,0,0,0,0,-1,1392,1191,0,0
175,-167,0,0,0,0,0,0,0,0,0,-1,1399,1191,0,0
182,-167,0,0,0,0,0,0,0,0,0,-1,1406,1191,0,0
189,-167,0,0,0,0,0,0,0,0,0,-1,1413,1191,0,0
196,-167,0,0,0,0,0,0,0,0,0,-1,1420,1191,0,0
203,-167,0,0,0,0,0,0,0,0,0,-1,1427,1191,0,0
210,-167,0,0,0,0,0,0,0,0,0,-1,1434,1191,0,0
217,-167,0,0,0,0,0,0,0,0,0,-1,1441,1191,0,0
224,-167,0,0,0,0,0,0,0,0,0,-1,1448,1191,0,0
231,-167,0,0,0,0,0,0,0,0,0,-1,1455,1191,0,0
238,-167,0,0,0,0,0,0,0,0,0,-1,1462,1191,0,0
245,-167,0,0,0,0,0,0,0,0,0,-1,1469,1191,0,0
252,-167,0,0,0,0,0,0,0,0,0,-1,1476,1191,0,0
259,-167,0,0,0,0,0,0,0,0,0,-1,1483,1191,0,0
266,-167,0,0,0,0,0,0,0,0,0,-1,1490,1191,0,0
273,-167,0,0,0,0,0,0,0,0,0,-1,1497,1191,0,0
280,-167,0,0,0,0,0,0,0,0,0,-1,1504,1191,0,0
287,-167,0,0,0,0,0,0,0,0,0,-1,1511,1191,0,0
294,-167,0,0,0,0,0,0,0,0,0,-1,1518,1191,0,0
301,-167,0,0,0,0,0,0,0,0,0,-1,1525,1191,0,0
308,-167,0,0,0,0,0,0,0,0,0,-1,1532,1191,0,0
315,-167,0,0,0,0,0,0,0,0,0,-1,1539,1191,0,0
322,-167,0,0,0,0,0,0,0,0,0,-1,1546,1191,0,0
329,-167,0,0,0,0,0,0,0,0,0,-1,1553,1191,0,0
336,-167,0,0,0,0,0,0,0,0,0,-1,1560,1191,0,0
343,-167,0,0,0,0,0,0,0,0,0,-1,1567,1191,0,0
350,-167,0,0,0,0,0,0,0,0,0,-1,1574,1191,0,0
357,-167,0,0,0,0,0,0,0,0,0,-1,1581,1191,0,0
364,-167,0,0,0,0,0,0,0,0,0,-1,1588,1191,0,0
371,-167,0,0,0,0,0,0,0,0,0,-1,1595,1191,0,0
378,-167,0,0,0,0,0,0,0,0,0,-1,1602,1191,0,0
385,-167,0,0,0,0,0,0,0,0,0,-1,1609,1191,0,0
392,-167,0,0,0,0,0,0,0,0,0,-1,1616,1191,0,0
399,-167,0,0,0,0,0,0,0,0,0,-1,1623,1191,0,0
406,-167,0,0,0,0,0,0,0,0,0,-1,1630,1191,0,0
413,-167,0,0,0,0,0,0,0,0,0,-1,1637,1191,0,0
420,-167,0,0,0,0,0,0,0,0,0,-1,1644,1191,0,0
427,-167,0,0,0,0,0,0,0,0,0,-1,1651,1191,0,0
434,-167,0,0,0,0,0,0,0,0,0,-1,1658,1191,0,0
441,-167,0,0,0,0,0,0,0,0,0,-1,1665,1191,0,0
448,-167,0,0,0,0,0,0,0,0,0,-1,1672,1191,0,0
455,-167,0,0,0,0,0,0,0,0,0,-1,1679,1191,0,0
462,-167,0,0,0,0,0,0,0,0,0,-1,1686,1191,0,0
469,-167,0,0,0,0,0,0,0,0,0,-1,1693,1191,0,0
476,-167,0,0,0,0,0,0,0,0,0,-1,1700,1191,0,0
483,-167,0,0,0,0,0,0,0,0,0,-1,1707,1191,0,0
490,-167,0,0,0,0,0,0,0,0,0,-1,1714,1191,0,0
497,-167,0,0,0,0,0,0,0,0,0,-1,1721,1191,0,0
504,-167,0,0,0,0,0,0,0,0,0,-1,1728,1191,0,0
511,-167,0,0,0,0,0,0,0,0,0,-1,1735,1191,0,0
518,-167,0,0,0,0,0,0,0,0,0,-1,1742,1191,0,0
525,-167,0,0,0,0,0,0,0,0,0,-1,1749,1191,0,0
532,-167,0,0,0,0,0,0,0,0,0,-1,1756,1191,0,0
539,-167,0,0,0,0,0,0,0,0,0,-1,1763,1191,0,0
546,-167,0,0,0,0,0,0,0,0,0,-1,1770,1191,0,0
553,-167,0,0,0,0,0,0,0,0,0,-1,1777,1191,0,0
560,-167,0,0,0,0,0,0,0,0,0,-1,1784,1191,0,0
567,-167,0,0,0,0,0,0,0,0,0,-1,1791,1191,0,0
574,-167,0,0,0,0,0,0,0,0,0,-1,1798,1191,0,0
581,-167,0,0,0,0,0,0,0,0,0,-1,1805,1191,0,0
588,-167,0,0,0,0,0,0,0,0,0,-1,1812,1191,0,0
595,-167,0,0,0,0,0,0,0,0,0,-1,1819,1191,0,0
602,-167,0,0,0,0,0,0,0,0,0,-1,1826,1191,0,0
609,-167,0,0,0,0,0,0,0,0,0,-1,1833,1191,0,0
616,-167,0,0,0,0,0,0,0,0,0,-1,1840,1191,0,0
623,-167,0,0,0,0,0,0,0,0,0,-1,1847,1191,0,0
630,-167,0,0,0,0,0,0,0,0,0,-1,1854,1191,0,0
637,-167,27.3916,3.46765,-0.004445,0.000912849,-0.00155275,0.00133032,-0.00486247,-1.30815,0.00376427,0.0396697,1861,1191,27.3916,-3.46762
644,-167,27.4921,3.39929,-0.00273212,0.000558023,-0.00107518,0.000878219,-0.00305231,-1.28135,0.0023822,0.039631,1868,1191,27.4921,-3.39925
651,-167,27.3363,3.39905,-0.000875363,0.000269429,-0.000690911,0.000594249,-0.00120018,-1.13133,0.00105552,0.0434182,1875,1191,27.3363,-3.39908
658,-167,27.1703,3.45422,0.000817209,-0.000199688,-0.00030178,0.000900023,-0.000282501,-0.267824,0.000713086,0.0428699,1882,1191,27.1703,-3.45428
665,-167,27.3931,3.38245,0.00208301,-0.000594996,-0.000155988,0.00209206,-0.000604052,-0.0579865,0.00163372,0.0362369,1889,1191,27.393,-3.38247
672,-167,27.3878,3.31128,0.0026403,-0.000921909,-7.56963e-05,0.00264191,-0.000923517,-0.021237,0.00213671,0.0276156,1896,1191,27.3879,-3.31125
679,-167,27.3438,3.29456,0.0025931,-0.00114495,8.27326e-05,0.00259493,-0.00114678,0.0221181,0.00221355,0.0218489,1903,1191,27.3437,-3.2945
686,-167,27.3938,3.27942,0.00234714,-0.00129817,0.00016586,0.00235467,-0.0013057,0.0453745,0.00214205,0.0307947,1910,1191,27.3937,-3.27938
693,-167,27.0586,4.13794,0,0,0,0,0,0,0,-1,1917,1191,27.0586,-4.13794
700,-167,25.5671,5.1322,0,0,0,0,0,0,0,-1,1924,1191,25.5671,-5.13219
707,-167,24.3162,6.19727,0.00146386,-0.00126413,0.000286045,0.00149353,-0.0012938,0.103358,0.00161064,0.0487317,1931,1191,24.3162,-6.19722
714,-167,24.6604,6.02905,0.001023,-0.00114075,0.000293019,0.00106198,-0.00117973,0.132249,0.00129485,0.0356676,1938,1191,24.6604,-6.0291
721,-167,24.6951,5.64063,0.00071383,-0.000911537,0.000254669,0.000752799,-0.000950505,0.151838,0.000985609,0.0303359,1945,1191,24.6951,-5.64063
728,-167,24.5508,5.59973,0.00101227,-0.0004365,-9.82834e-05,0.00101891,-0.000443137,-0.0674273,0.000865657,0.0220508,1952,1191,24.5508,-5.59968
735,-167,24.4152,5.48486,0.00164252,-9.99929e-05,-0.000423223,0.00173987,-0.000197347,-0.226096,0.00123098,0.0144753,1959,1191,24.4152,-5.48484
742,-167,24.3906,5.276,0.00334804,0.000183205,-0.00088328,0.00357787,-4.66218e-05,-0.254552,0.00240094,0.0149026,1966,1191,24.3906,-5.27598
749,-167,24.3601,5.0802,0.00613145,0.000594989,-0.00168096,0.00660185,0.000124592,-0.27286,0.00436029,0.0143018,1973,1191,24.3601,-5.08019
756,-167,24.3571,4.92249,0.0100625,0.000894137,-0.00297729,0.0109445,1.21584e-05,-0.288,0.0072923,0.0109993,1980,1191,24.357,-4.92246
763,-167,24.3459,4.73279,0.0148591,0.000839128,-0.00466214,0.0162678,-0.000569646,-0.293449,0.01104,0.0116678,1987,1191,24.346,-4.73283
770,-167,24.3306,4.57568,0.0208333,0.000381317,-0.00691409,0.0229514,-0.00173674,-0.297263,0.0159114,0.0226098,1994,1191,24.3305,-4.57572
777,-167,24.5746,4.32532,0.027857,-0.000819422,-0.00985129,0.0309151,-0.00387754,-0.300996,0.0220167,0.0386633,2001,1191,24.5746,-4.32535
784,-167,24.6244,3.8988,0,0,0,0,0,0,0,-1,2008,1191,24.6243,-3.89879
791,-167,25.2435,3.09131,0,0,0,0,0,0,0,-1,2015,1191,25.2435,-3.09137
798,-167,24.587,2.53772,0,0,0,0,0,0,0,-1,2022,1191,24.587,-2.53767
805,-167,24.9851,2.26514,0,0,0,0,0,0,0,-1,2029,1191,24.985,-2.26516
812,-167,0,0,0,0,0,0,0,0,0,-1,2036,1191,0,0
-700,-174,0,0,0,0,0,0,0,0,0,-1,524,1198,0,0
-693,-174,0,0,0,0,0,0,0,0,0,-1,531,1198,0,0
-686,-174,-13.5828,0.693726,0,0,0,0,0,0,0,-1,538,1198,-13.5829,-0.693785
-679,-174,-13.0408,-0.198853,0,0,0,0,0,0,0,-1,545,1198,-13.0408,0.198893
-672,-174,-14.8805,0.496948,-0.0376266,0.0475356,-0.0120838,0.049217,-0.039308,-1.43254,0.0512165,0.0491507,552,1198,-14.8805,-0.496932
-665,-174,-15.7677,0.443726,-0.0312656,0.0409224,-0.00363246,0.0411048,-0.0314479,-1.52065,0.0420118,0.0470932,559,1198,-15.7677,-0.443774
-658,-174,-15.2693,1.18054,-0.0251387,0.0341329,0.00147213,0.0341694,-0.0251753,1.54598,0.0343936,0.0486285,566,1198,-15.2693,-1.18058
-651,-174,-15.2953,1.29395,-0.0196079,0.0275512,0.00420533,0.0279233,-0.01998,1.48255,0.0277834,0.0468307,573,1198,-15.2953,-1.29393
-644,-174,-15.3499,1.65479,-0.0149122,0.0214775,0.00525573,0.0222213,-0.0156561,1.43019,0.0219778,0.0413865,580,1198,-15.3499,-1.6548
-637,-174,-15.3636,1.93176,-0.0109907,0.016121,0.00520198,0.0170849,-0.0119546,1.38759,0.0168529,0.0220848,587,1198,-15.3636,-1.9318
-630,-174,-15.4105,2.1283,-0.0081028,0.0114074,0.00490898,0.0125729,-0.00926832,1.33769,0.012658,0.0120965,594,1198,-15.4105,-2.12827
-623,-174,-15.4326,2.34192,-0.00567568,0.00775744,0.00420467,0.00896498,-0.00688322,1.29113,0.00917624,0.0137583,601,1198,-15.4326,-2.34198
-616,-174,-15.4329,2.58569,-0.00346978,0.00483371,0.00246635,0.00551103,-0.0041471,1.30278,0.00559463,0.0193431,608,1198,-15.4329,-2.58574
-609,-174,-15.4489,2.823,-0.0025536,0.00209934,0.000570441,0.00216826,-0.00262252,1.45057,0.0027701,0.020711,615,1198,-15.4489,-2.82295
-602,-174,-15.4687,3.04114,-0.00201956,0.00085354,-0.00104714,0.00119468,-0.0023607,-1.25586,0.00208917,0.0146651,622,1198,-15.4687,-3.04118
-595,-174,-15.4882,3.24878,-0.00168883,0.000285727,-0.00207419,0.00159562,-0.00299872,-1.00752,0.00269346,0.0153317,629,1198,-15.4882,-3.2488
-588,-174,-15.6073,3.41663,-0.00178357,0.000271043,-0.00262053,0.00205844,-0.00357096,-0.972203,0.003289,0.0194535,636,1198,-15.6073,-3.41659
-581,-174,-15.6022,3.66382,-0.00165676,0.000391315,-0.00270544,0.00226004,-0.00352548,-0.96632,0.0033668,0.0216572,643,1198,-15.6022,-3.66387
-574,-174,-16.3304,3.95789,0,0,0,0,0,0,0,-1,650,1198,-16.3304,-3.95789
-567,-174,-16.4919,0.926514,0,0,0,0,0,0,0,-1,657,1198,-16.4919,-0.92657
-560,-174,-18.8699,1.37512,0,0,0,0,0,0,0,-1,664,1198,-18.8699,-1.37512
-553,-174,-18.8626,1.53882,-0.000409192,0.000275823,-0.00141641,0.00139054,-0.00152391,-0.904028,0.00168325,0.0388183,671,1198,-18.8626,-1.53884
-546,-174,-18.8412,1.5509,8.4273e-05,0.000210505,-0.000648016,0.000798472,-0.000503694,-0.833944,0.000758199,0.0297662,678,1198,-18.8413,-1.55086
-539,-174,-18.7976,1.50146,0.000512284,5.18438e-05,0.000482552,0.000816721,-0.000252593,0.562823,0.000645371,0.0343384,685,1198,-18.7976,-1.50144
-532,-174,-18.9123,1.32751,0.000795689,-0.000302444,0.00208777,0.00240538,-0.00191214,0.656814,0.00249814,0.0438799,692,1198,-18.9123,-1.32752
-525,-174,-18.9722,1.44836,0.00096496,-0.00101433,0.00429413,0.00438201,-0.00443138,0.672144,0.00508844,0.0416541,699,1198,-18.9722,-1.44839
-518,-174,-18.8484,1.54724,-0.000415338,-0.00202773,0.00601608,0.00484832,-0.00729139,0.718791,0.00705602,0.0399287,706,1198,-18.8485,-1.54724
-511,-174,0,0,0,0,0,0,0,0,0,-1,713,1198,0,0
-504,-174,0,0,0,0,0,0,0,0,0,-1,720,1198,0,0
-497,-174,0,0,0,0,0,0,0,0,0,-1,727,1198,0,0
-490,-174,0,0,0,0,0,0,0,0,0,-1,734,1198,0,0
-483,-174,0,0,0,0,0,0,0,0,0,-1,741,1198,0,0
-476,-174,0,0,0,0,0,0,0,0,0,-1,748,1198,0,0
-469,-174,0,0,0,0,0,0,0,0,0,-1,755,1198,0,0
-462,-174,0,0,0,0,0,0,0,0,0,-1,762,1198,0,0
-455,-174,0,0,0,0,0,0,0,0,0,-1,769,1198,0,0
-448,-174,0,0,0,0,0,0,0,0,0,-1,776,1198,0,0
-441,-174,0,0,0,0,0,0,0,0,0,-1,783,1198,0,0
-434,-174,0,0,0,0,0,0,0,0,0,-1,790,1198,0,0
-427,-174,0,0,0,0,0,0,0,0,0,-1,797,1198,0,0
-420,-174,0,0,0,0,0,0,0,0,0,-1,804,1198,0,0
-413,-174,0,0,0,0,0,0,0,0,0,-1,811,1198,0,0
-406,-174,0,0,0,0,0,0,0,0,0,-1,818,1198,0,0
-399,-174,0,0,0,0,0,0,0,0,0,-1,825,1198,0,0
-392,-174,0,0,0,0,0,0,0,0,0,-1,832,1198,0,0
-385,-174,0,0,0,0,0,0,0,0,0,-1,839,1198,0,0
-378,-174,0,0,0,0,0,0,0,0,0,-1,846,1198,0,0
-371,-174,0,0,0,0,0,0,0,0,0,-1,853,1198,0,0
-364,-174,0,0,0,0,0,0,0,0,0,-1,860,1198,0,0
-357,-174,0,0,0,0,0,0,0,0,0,-1,867,1198,0,0
-350,-174,0,0,0,0,0,0,0,0,0,-1,874,1198,0,0
-343,-174,0,0,0,0,0,0,0,0,0,-1,881,1198,0,0
-336,-174,0,0,0,0,0,0,0,0,0,-1,888,1198,0,0
-329,-174,0,0,0,0,0,0,0,0,0,-1,895,1198,0,0
-322,-174,0,0,0,0,0,0,0,0,0,-1,902,1198,0,0
-315,-174,0,0,0,0,0,0,0,0,0,-1,909,1198,0,0
-308,-174,0,0,0,0,0,0,0,0,0,-1,916,1198,0,0
-301,-174,0,0,0,0,0,0,0,0,0,-1,923,1198,0,0
-294,-174,0,0,0,0,0,0,0,0,0,-1,930,1198,0,0
-287,-174,0,0,0,0,0,0,0,0,0,-1,937,1198,0,0
-280,-174,0,0,0,0,0,0,0,0,0,-1,944,1198,0,0
-273,-174,0,0,0,0,0,0,0,0,0,-1,951,1198,0,0
-266,-174,0,0,0,0,0,0,0,0,0,-1,958,1198,0,0
-259,-174,0,0,0,0,0,0,0,0,0,-1,965,1198,0,0
-252,-174,0,0,0,0,0,0,0,0,0,-1,972,1198,0,0
-245,-174,0,0,0,0,0,0,0,0,0,-1,979,1198,0,0
-238,-174,0,0,0,0,0,0,0,0,0,-1,986,1198,0,0
-231,-174,0,0,0,0,0,0,0,0,0,-1,993,1198,0,0
-224,-174,0,0,0,0,0,0,0,0,0,-1,1000,1198,0,0
-217,-174,0,0,0,0,0,0,0,0,0,-1,1007,1198,0,0
-210,-174,0,0,0,0,0,0,0,0,0,-1,1014,1198,0,0
-203,-174,0,0,0,0,0,0,0,0,0,-1,1021,1198,0,0
-196,-174,0,0,0,0,0,0,0,0,0,-1,1028,1198,0,0
-189,-174,0,0,0,0,0,0,0,0,0,-1,1035,1198,0,0
-182,-174,0,0,0,0,0,0,0,0,0,-1,1042,1198,0,0
-175,-174,0,0,0,0,0,0,0,0,0,-1,1049,1198,0,0
-168,-174,0,0,0,0,0,0,0,0,0,-1,1056,1198,0,0
-161,-174,0,0,0,0,0,0,0,0,0,-1,1063,1198,0,0
-154,-174,0,0,0,0,0,0,0,0,0,-1,1070,1198,0,0
-147,-174,0,0,0,0,0,0,0,0,0,-1,1077,1198,0,0
-140,-174,0,0,0,0,0,0,0,0,0,-1,1084,1198,0,0
-133,-174,0,0,0,0,0,0,0,0,0,-1,1091,1198,0,0
-126,-174,0,0,0,0,0,0,0,0,0,-1,1098,1198,0,0
-119,-174,0,0,0,0,0,0,0,0,0,-1,1105,1198,0,0
-112,-174,0,0,0,0,0,0,0,0,0,-1,1112,1198,0,0
-105,-174,0,0,0,0,0,0,0,0,0,-1,1119,1198,0,0
-98,-174,0,0,0,0,0,0,0,0,0,-1,1126,1198,0,0
-91,-174,0,0,0,0,0,0,0,0,0,-1,1133,1198,0,0
-84,-174,0,0,0,0,0,0,0,0,0,-1,1140,1198,0,0
-77,-174,0,0,0,0,0,0,0,0,0,-1,1147,1198,0,0
-70,-174,0,0,0,0,0,0,0,0,0,-1,1154,1198,0,0
-63,-174,0,0,0,0,0,0,0,0,0,-1,1161,1198,0,0
-56,-174,0,0,0,0,0,0,0,0,0,-1,1168,1198,0,0
-49,-174,0,0,0,0,0,0,0,0,0,-1,1175,1198,0,0
-42,-174,0,0,0,0,0,0,0,0,0,-1,1182,1198,0,0
-35,-174,0,0,0,0,0,0,0,0,0,-1,1189,1198,0,0
-28,-174,0,0,0,0,0,0,0,0,0,-1,1196,1198,0,0
-21,-174,0,0,0,0,0,0,0,0,0,-1,1203,1198,0,0
-14,-174,0,0,0,0,0,0,0,0,0,-1,1210,1198,0,0
-7,-174,0,0,0,0,0,0,0,0,0,-1,1217,1198,0,0
0,-174,0,0,0,0,0,0,0,0,0,-1,1224,1198,0,0
7,-174,0,0,0,0,0,0,0,0,0,-1,1231,1198,0,0
14,-174,0,0,0,0,0,0,0,0,0,-1,1238,1198,0,0
21,-174,0,0,0,0,0,0,0,0,0,-1,1245,1198,0,0
28,-174,0,0,0,0,0,0,0,0,0,-1,1252,1198,0,0
35,-174,0,0,0,0,0,0,0,0,0,-1,1259,1198,0,0
42,-174,0,0,0,0,0,0,0,0,0,-1,1266,1198,0,0
49,-174,0,0,0,0,0,0,0,0,0,-1,1273,1198,0,0
56,-174,0,0,0,0,0,0,0,0,0,-1,1280,1198,0,0
63,-174,0,0,0,0,0,0,0,0,0,-1,1287,1198,0,0
70,-174,0,0,0,0,0,0,0,0,0,-1,1294,1198,0,0
77,-174,0,0,0,0,0,0,0,0,0,-1,1301,1198,0,0
84,-174,0,0,0,0,0,0,0,0,0,-1,1308,1198,0,0
91,-174,0,0,0,0,0,0,0,0,0,-1,1315,1198,0,0
98,-174,0,0,0,0,0,0,0,0,0,-1,1322,1198,0,0
105,-174,0,0,0,0,0,0,0,0,0,-1,1329,1198,0,0
112,-174,0,0,0,0,0,0,0,0,0,-1,1336,1198,0,0
119,-174,0,0,0,0,0,0,0,0,0,-1,1343,1198,0,0
126,-174,0,0,0,0,0,0,0,0,0,-1,1350,1198,0,0
133,-174,0,0,0,0,0,0,0,0,0,-1,1357,1198,0,0
140,-174,0,0,0,0,0,0,0,0,0,-1,1364,1198,0,0
147,-174,0,0,0,0,0,0,0,0,0,-1,1371,1198,0,0
154,-174,0,0,0,0,0,0,0,0,0,-1,1378,1198,0,0
161,-174,0,0,0,0,0,0,0,0,0,-1,1385,1198,0,0
168,-174,0,0,0,0,0,0,0,0,0,-1,1392,1198,0,0
175,-174,0,0,0,0,0,0,0,0,0,-1,1399,1198,0,0
182,-174,0,0,0,0,0,0,0,0,0,-1,1406,1198,0,0
189,-174,0,0,0,0,0,0,0,0,0,-1,1413,1198,0,0
196,-174,0,0,0,0,0,0,0,0,0,-1,1420,1198,0,0
203,-174,0,0,0,0,0,0,0,0,0,-1,1427,1198,0,0
210,-174,0,0,0,0,0,0,0,0,0,-1,1434,1198,0,0
217,-174,0,0,0,0,0,0,0,0,0,-1,1441,1198,0,0
224,-174,0,0,0,0,0,0,0,0,0,-1,1448,1198,0,0
231,-174,0,0,0,0,0,0,0,0,0,-1,1455,1198,0,0
238,-174,0,0,0,0,0,0,0,0,0,-1,1462,1198,0,0
245,-174,0,0,0,0,0,0,0,0,0,-1,1469,1198,0,0
252,-174,0,0,0,0,0,0,0,0,0,-1,1476,1198,0,0
259,-174,0,0,0,0,0,0,0,0,0,-1,1483,1198,0,0
266,-174,0,0,0,0,0,0,0,0,0,-1,1490,1198,0,0
273,-174,0,0,0,0,0,0,0,0,0,-1,1497,1198,0,0
280,-174,0,0,0,0,0,0,0,0,0,-1,1504,1198,0,0
287,-174,0,0,0,0,0,0,0,0,0,-1,1511,1198,0,0
294,-174,0,0,0,0,0,0,0,0,0,-1,1518,1198,0,0
301,-174,0,0,0,0,0,0,0,0,0,-1,1525,1198,0,0
308,-174,0,0,0,0,0,0,0,0,0,-1,1532,1198,0,0
315,-174,0,0,0,0,0,0,0,0,0,-1,1539,1198,0,0
322,-174,0,0,0,0,0,0,0,0,0,-1,1546,1198,0,0
329,-174,0,0,0,0,0,0,0,0,0,-1,1553,1198,0,0
336,-174,0,0,0,0,0,0,0,0,0,-1,1560,1198,0,0
343,-174,0,0,0,0,0,0,0,0,0,-1,1567,1198,0,0
350,-174,0,0,0,0,0,0,0,0,0,-1,1574,1198,0,0
357,-174,0,0,0,0,0,0,0,0,0,-1,1581,1198,0,0
364,-174,0,0,0,0,0,0,0,0,0,-1,1588,1198,0,0
371,-174,0,0,0,0,0,0,0,0,0,-1,1595,1198,0,0
378,-174,0,0,0,0,0,0,0,0,0,-1,1602,1198,0,0
385,-174,0,0,0,0,0,0,0,0,0,-1,1609,1198,0,0
392,-174,0,0,0,0,0,0,0,0,0,-1,1616,1198,0,0
399,-174,0,0,0,0,0,0,0,0,0,-1,1623,1198,0,0
406,-174,0,0,0,0,0,0,0,0,0,-1,1630,1198,0,0
413,-174,0,0,0,0,0,0,0,0,0,-1,1637,1198,0,0
420,-174,0,0,0,0,0,0,0,0,0,-1,1644,1198,0,0
427,-174,0,0,0,0,0,0,0,0,0,-1,1651,1198,0,0
434,-174,0,0,0,0,0,0,0,0,0,-1,1658,1198,0,0
441,-174,0,0,0,0,0,0,0,0,0,-1,1665,1198,0,0
448,-174,0,0,0,0,0,0,0,0,0,-1,1672,1198,0,0
455,-174,0,0,0,0,0,0,0,0,0,-1,1679,1198,0,0
462,-174,0,0,0,0,0,0,0,0,0,-1,1686,1198,0,0
469,-174,0,0,0,0,0,0,0,0,0,-1,1693,1198,0,0
476,-174,0,0,0,0,0,0,0,0,0,-1,1700,1198,0,0
483,-174,0,0,0,0,0,0,0,0,0,-1,1707,1198,0,0
490,-174,0,0,0,0,0,0,0,0,0,-1,1714,1198,0,0
497,-174,0,0,0,0,0,0,0,0,0,-1,1721,1198,0,0
504,-174,0,0,0,0,0,0,0,0,0,-1,1728,1198,0,0
511,-174,0,0,0,0,0,0,0,0,0,-1,1735,1198,0,0
518,-174,0,0,0,0,0,0,0,0,0,-1,1742,1198,0,0
525,-174,0,0,0,0,0,0,0,0,0,-1,1749,1198,0,0
532,-174,0,0,0,0,0,0,0,0,0,-1,1756,1198,0,0
539,-174,0,0,0,0,0,0,0,0,0,-1,1763,1198,0,0
546,-174,0,0,0,0,0,0,0,0,0,-1,1770,1198,0,0
553,-174,0,0,0,0,0,0,0,0,0,-1,1777,1198,0,0
560,-174,0,0,0,0,0,0,0,0,0,-1,1784,1198,0,0
567,-174,0,0,0,0,0,0,0,0,0,-1,1791,1198,0,0
574,-174,0,0,0,0,0,0,0,0,0,-1,1798,1198,0,0
581,-174,0,0,0,0,0,0,0,0,0,-1,1805,1198,0,0
588,-174,0,0,0,0,0,0,0,0,0,-1,1812,1198,0,0
595,-174,0,0,0,0,0,0,0,0,0,-1,1819,1198,0,0
602,-174,0,0,0,0,0,0,0,0,0,-1,1826,1198,0,0
609,-174,0,0,0,0,0,0,0,0,0,-1,1833,1198,0,0
616,-174,0,0,0,0,0,0,0,0,0,-1,1840,1198,0,0
623,-174,0,0,0,0,0,0,0,0,0,-1,1847,1198,0,0
630,-174,0,0,0,0,0,0,0,0,0,-1,1854,1198,0,0
637,-174,27.3741,3.45862,-0.0035214,0.00149764,-0.00251808,0.00254318,-0.00456694,-1.17725,0.00416009,0.0408436,1861,1198,27.3741,-3.45858
644,-174,27.3367,3.50171,-0.0018911,0.000799431,-0.00148832,0.00146037,-0.00255204,-1.15288,0.00234497,0.0384903,1868,1198,27.3367,-3.50172
651,-174,27.3125,3.32874,-0.000158875,0.00011301,-0.00050746,0.000502421,-0.000548286,-0.916269,0.000606819,0.0407526,1875,1198,27.3125,-3.32877
658,-174,27.2256,3.30603,0.00135789,-0.000659389,0.000284896,0.00139735,-0.000698852,0.137642,0.00123244,0.0393729,1882,1198,27.2256,-3.30608
665,-174,27.3534,3.26379,0.00241851,-0.00122487,0.00065922,0.00253411,-0.00134048,0.173606,0.00227211,0.0342353,1889,1198,27.3534,-3.26373
672,-174,27.3754,3.2356,0.00280833,-0.00162541,0.000846919,0.00296459,-0.00178168,0.182461,0.00276849,0.0276034,1896,1198,27.3753,-3.23564
679,-174,27.3507,3.25842,0.00268677,-0.0018444,0.00102621,0.00290834,-0.00206598,0.212654,0.00288562,0.0240633,1903,1198,27.3508,-3.25848
686,-174,27.4141,3.24658,0,0,0,0,0,0,0,-1,1910,1198,27.4141,-3.2466
693,-174,26.8595,2.95776,0,0,0,0,0,0,0,-1,1917,1198,26.8595,-2.9578
700,-174,24.1272,6.58716,0,0,0,0,0,0,0,-1,1924,1198,24.1272,-6.58714
707,-174,24.3757,6.29028,0.00152004,-0.00184068,0.000987208,0.00178858,-0.00210921,0.265588,0.00225293,0.0477779,1931,1198,24.3757,-6.29023
714,-174,24.5261,5.99292,0.00106336,-0.00162263,0.000903338,0.0013389,-0.00189817,0.296059,0.0018782,0.0314747,1938,1198,24.5261,-5.99293
721,-174,24.4731,5.74487,0.000827048,-0.00125093,0.000697732,0.00103959,-0.00146347,0.295688,0.00145203,0.0254726,1945,1198,24.4731,-5.74482
728,-174,24.2499,5.65979,0.00126207,-0.000582471,0.000119513,0.00126978,-0.000590183,0.0644339,0.00109749,0.0164361,1952,1198,24.2499,-5.65978
735,-174,24.2076,5.48792,0.00213374,-0.000200655,-0.000370399,0.0021911,-0.000258017,-0.153645,0.00155389,0.011024,1959,1198,24.2076,-5.48794
742,-174,24.2,5.28223,0.00428194,1.49513e-05,-0.00113337,0.0045643,-0.000267405,-0.244159,0.0031358,0.0181181,1966,1198,24.1999,-5.28218
749,-174,24.1823,5.09412,0.00759435,0.000289398,-0.00228769,0.00825164,-0.000367894,-0.279781,0.00562774,0.0175811,1973,1198,24.1823,-5.09412
756,-174,24.1658,4.90125,0.0121583,0.000344274,-0.00395574,0.0133605,-0.000857909,-0.295038,0.00920631,0.0110801,1980,1198,24.1657,-4.90127
763,-174,24.1558,4.70667,0.0177862,-5.97276e-05,-0.00607641,0.0196587,-0.00193223,-0.298925,0.0137951,0.0130433,1987,1198,24.1557,-4.70665
770,-174,24.2113,4.54736,0.0247854,-0.0010843,-0.00888326,0.027542,-0.00384094,-0.300896,0.0197664,0.0241996,1994,1198,24.2113,-4.54736
777,-174,24.5143,4.30273,0.0330653,-0.00312828,-0.0124617,0.0369409,-0.00700392,-0.301522,0.0272635,0.0431354,2001,1198,24.5143,-4.30274
784,-174,24.823,4.05298,0,0,0,0,0,0,0,-1,2008,1198,24.823,-4.05304
791,-174,25.8762,2.55835,0,0,0,0,0,0,0,-1,2015,1198,25.8762,-2.55838
798,-174,24.1818,1.7771,0,0,0,0,0,0,0,-1,2022,1198,24.1818,-1.77705
805,-174,23.8767,2.29382,0,0,0,0,0,0,0,-1,2029,1198,23.8767,-2.29387
812,-174,0,0,0,0,0,0,0,0,0,-1,2036,1198,0,0
-700,-181,0,0,0,0,0,0,0,0,0,-1,524,1205,0,0
-693,-181,0,0,0,0,0,0,0,0,0,-1,531,1205,0,0
-686,-181,-12.6216,-0.270874,0,0,0,0,0,0,0,-1,538,1205,-12.6217,0.270895
-679,-181,-12.2352,-0.554443,0,0,0,0,0,0,0,-1,545,1205,-12.2352,0.55445
-672,-181,-11.9636,-0.902954,0,0,0,0,0,0,0,-1,552,1205,-11.9636,0.902981
-665,-181,-15.5776,-0.397095,-0.0376628,0.0401873,0.00348161,0.0403427,-0.0378182,1.52619,0.0451341,0.0479262,559,1205,-15.5777,0.397066
-658,-181,-15.3981,1.2124,-0.0306618,0.0332091,0.00708065,0.0339847,-0.0314373,1.4617,0.037781,0.0443953,566,1205,-15.3981,-1.21242
-651,-181,-15.2948,1.31738,-0.0242035,0.0265429,0.00848685,0.0279246,-0.0255852,1.4094,0.0309037,0.0448359,573,1205,-15.2948,-1.31735
-644,-181,-15.1395,1.646,-0.0185934,0.0204869,0.00840871,0.0222193,-0.0203259,1.36761,0.0245716,0.0396966,580,1205,-15.1395,-1.64597
-637,-181,-15.1723,1.90503,-0.0138487,0.0152306,0.00742589,0.0170171,-0.0156352,1.3347,0.0188575,0.0230848,587,1205,-15.1723,-1.90507
-630,-181,-15.1898,2.1239,-0.0102846,0.0107093,0.00638333,0.0124978,-0.0120731,1.29761,0.0141867,0.0124092,594,1205,-15.1898,-2.12391
-623,-181,-15.2083,2.34021,-0.00733744,0.00720098,0.00513107,0.00882949,-0.00896594,1.26347,0.0102743,0.0145912,601,1205,-15.2083,-2.3402
-616,-181,-15.2071,2.58838,-0.00457064,0.00449953,0.00289205,0.0053432,-0.00541431,1.28695,0.00621089,0.0148844,608,1205,-15.2071,-2.5884
-609,-181,-15.2069,2.83765,-0.00318904,0.00186483,0.000657357,0.00194893,-0.00327314,1.44355,0.0030471,0.014514,615,1205,-15.2069,-2.8376
-602,-181,-15.2206,3.06445,-0.00238778,0.00066506,-0.0011478,0.00104845,-0.00277117,-1.24842,0.0022788,0.0129346,622,1205,-15.2206,-3.06451
-595,-181,-15.2734,3.26978,-0.00195272,0.000194236,-0.00218068,0.00155134,-0.00330982,-1.01412,0.00286715,0.0138067,629,1205,-15.2734,-3.26974
-588,-181,-15.3418,3.51465,-0.00195208,0.000233638,-0.00272735,0.00207894,-0.00379738,-0.975955,0.00344071,0.016015,636,1205,-15.3418,-3.51467
-581,-181,-15.326,3.83496,-0.00172027,0.000312442,-0.00279835,0.00227329,-0.00368112,-0.95959,0.00346966,0.0181379,643,1205,-15.326,-3.83491
-574,-181,-15.7926,3.91443,-0.00124692,0.000248404,-0.00251742,0.00212684,-0.00312536,-0.929747,0.00305057,0.0466387,650,1205,-15.7926,-3.91438
-567,-181,-16.551,3.90369,0,0,0,0,0,0,0,-1,657,1205,-16.551,-3.90367
-560,-181,-18.8837,1.4751,0,0,0,0,0,0,0,-1,664,1205,-18.8837,-1.47504
-553,-181,-18.8408,1.47852,-0.000520177,0.000125104,-0.00127012,0.00111292,-0.00150799,-0.909779,0.0015189,0.0449015,671,1205,-18.8408,-1.47855
-546,-181,-18.797,1.46484,-0.000119806,5.82504e-05,-0.000493003,0.000470199,-0.000531755,-0.874727,0.000578842,0.0354027,678,1205,-18.797,-1.4649
-539,-181,-18.7316,1.42004,0.000183463,-8.01902e-05,0.000592769,0.000658887,-0.000555614,0.675983,0.000702037,0.0378792,685,1205,-18.7316,-1.42
-532,-181,-18.8406,1.20667,0.000237136,-0.000368369,0.00207097,0.00202737,-0.0021586,0.712818,0.00241716,0.0441343,692,1205,-18.8407,-1.20672
-525,-181,-18.8223,1.42444,1.46264e-05,-0.000961609,0.00405562,0.0036114,-0.00455838,0.725508,0.00472738,0.0396231,699,1205,-18.8223,-1.42443
-518,-181,-18.7669,1.68445,-0.00168466,-0.00195772,0.00573002,0.00391045,-0.00755283,0.773486,0.00672877,0.0381433,706,1205,-18.7669,-1.6844
-511,-181,0,0,0,0,0,0,0,0,0,-1,713,1205,0,0
-504,-181,0,0,0,0,0,0,0,0,0,-1,720,1205,0,0
-497,-181,0,0,0,0,0,0,0,0,0,-1,727,1205,0,0
-490,-181,0,0,0,0,0,0,0,0,0,-1,734,1205,0,0
-483,-181,0,0,0,0,0,0,0,0,0,-1,741,1205,0,0
-476,-181,0,0,0,0,0,0,0,0,0,-1,748,1205,0,0
-469,-181,0,0,0,0,0,0,0,0,0,-1,755,1205,0,0
-462,-181,0,0,0,0,0,0,0,0,0,-1,762,1205,0,0
-455,-181,0,0,0,0,0,0,0,0,0,-1,769,1205,0,0
-448,-181,0,0,0,0,0,0,0,0,0,-1,776,1205,0,0
-441,-181,0,0,0,0,0,0,0,0,0,-1,783,1205,0,0
-434,-181,0,0,0,0,0,0,0,0,0,-1,790,1205,0,0
-427,-181,0,0,0,0,0,0,0,0,0,-1,797,1205,0,0
-420,-181,0,0,0,0,0,0,0,0,0,-1,804,1205,0,0
-413,-181,0,0,0,0,0,0,0,0,0,-1,811,1205,0,0
-406,-181,0,0,0,0,0,0,0,0,0,-1,818,1205,0,0
-399,-181,0,0,0,0,0,0,0,0,0,-1,825,1205,0,0
-392,-181,0,0,0,0,0,0,0,0,0,-1,832,1205,0,0
-385,-181,0,0,0,0,0,0,0,0,0,-1,839,1205,0,0
-378,-181,0,0,0,0,0,0,0,0,0,-1,846,1205,0,0
-371,-181,0,0,0,0,0,0,0,0,0,-1,853,1205,0,0
-364,-181,0,0,0,0,0,0,0,0,0,-1,860,1205,0,0
-357,-181,0,0,0,0,0,0,0,0,0,-1,867,1205,0,0
-350,-181,0,0,0,0,0,0,0,0,0,-1,874,1205,0,0
-343,-181,0,0,0,0,0,0,0,0,0,-1,881,1205,0,0
-336,-181,0,0,0,0,0,0,0,0,0,-1,888,1205,0,0
-329,-181,0,0,0,0,0,0,0,0,0,-1,895,1205,0,0
-322,-181,0,0,0,0,0,0,0,0,0,-1,902,1205,0,0
-315,-181,0,0,0,0,0,0,0,0,0,-1,909,1205,0,0
-308,-181,0,0,0,0,0,0,0,0,0,-1,916,1205,0,0
-301,-181,0,0,0,0,0,0,0,0,0,-1,923,1205,0,0
-294,-181,0,0,0,0,0,0,0,0,0,-1,930,1205,0,0
-287,-181,0,0,0,0,0,0,0,0,0,-1,937,1205,0,0
-280,-181,0,0,0,0,0,0,0,0,0,-1,944,1205,0,0
-273,-181,0,0,0,0,0,0,0,0,0,-1,951,1205,0,0
-266,-181,0,0,0,0,0,0,0,0,0,-1,958,1205,0,0
-259,-181,0,0,0,0,0,0,0,0,0,-1,965,1205,0,0
-252,-181,0,0,0,0,0,0,0,0,0,-1,972,1205,0,0
-245,-181,0,0,0,0,0,0,0,0,0,-1,979,1205,0,0
-238,-181,0,0,0,0,0,0,0,0,0,-1,986,1205,0,0
-231,-181,0,0,0,0,0,0,0,0,0,-1,993,1205,0,0
-224,-181,0,0,0,0,0,0,0,0,0,-1,1000,1205,0,0
-217,-181,0,0,0,0,0,0,0,0,0,-1,1007,1205,0,0
-210,-181,0,0,0,0,0,0,0,0,0,-1,1014,1205,0,0
-203,-181,0,0,0,0,0,0,0,0,0,-1,1021,1205,0,0
-196,-181,0,0,0,0,0,0,0,0,0,-1,1028,1205,0,0
-189,-181,0,0,0,0,0,0,0,0,0,-1,1035,1205,0,0
-182,-181,0,0,0,0,0,0,0,0,0,-1,1042,1205,0,0
-175,-181,0,0,0,0,0,0,0,0,0,-1,1049,1205,0,0
-168,-181,0,0,0,0,0,0,0,0,0,-1,1056,1205,0,0
-161,-181,0,0,0,0,0,0,0,0,0,-1,1063,1205,0,0
-154,-181,0,0,0,0,0,0,0,0,0,-1,1070,1205,0,0
-147,-181,0,0,0,0,0,0,0,0,0,-1,1077,1205,0,0
-140,-181,0,0,0,0,0,0,0,0,0,-1,1084,1205,0,0
-133,-181,0,0,0,0,0,0,0,0,0,-1,1091,1205,0,0
-126,-181,0,0,0,0,0,0,0,0,0,-1,1098,1205,0,0
-119,-181,0,0,0,0,0,0,0,0,0,-1,1105,1205,0,0
-112,-181,0,0,0,0,0,0,0,0,0,-1,1112,1205,0,0
-105,-181,0,0,0,0,0,0,0,0,0,-1,1119,1205,0,0
-98,-181,0,0,0,0,0,0,0,0,0,-1,1126,1205,0,0
-91,-181,0,0,0,0,0,0,0,0,0,-1,1133,1205,0,0
-84,-181,0,0,0,0,0,0,0,0,0,-1,1140,1205,0,0
-77,-181,0,0,0,0,0,0,0,0,0,-1,1147,1205,0,0
-70,-181,0,0,0,0,0,0,0,0,0,-1,1154,1205,0,0
-63,-181,0,0,0,0,0,0,0,0,0,-1,1161,1205,0,0
-56,-181,0,0,0,0,0,0,0,0,0,-1,1168,1205,0,0
-49,-181,0,0,0,0,0,0,0,0,0,-1,1175,1205,0,0
-42,-181,0,0,0,0,0,0,0,0,0,-1,1182,1205,0,0
-35,-181,0,0,0,0,0,0,0,0,0,-1,1189,1205,0,0
-28,-181,0,0,0,0,0,0,0,0,0,-1,1196,1205,0,0
-21,-181,0,0,0,0,0,0,0,0,0,-1,1203,1205,0,0
-14,-181,0,0,0,0,0,0,0,0,0,-1,1210,1205,0,0
-7,-181,0,0,0,0,0,0,0,0,0,-1,1217,1205,0,0
0,-181,0,0,0,0,0,0,0,0,0,-1,1224,1205,0,0
7,-181,0,0,0,0,0,0,0,0,0,-1,1231,1205,0,0
14,-181,0,0,0,0,0,0,0,0,0,-1,1238,1205,0,0
21,-181,0,0,0,0,0,0,0,0,0,-1,1245,1205,0,0
28,-181,0,0,0,0,0,0,0,0,0,-1,1252,1205,0,0
35,-181,0,0,0,0,0,0,0,0,0,-1,1259,1205,0,0
42,-181,0,0,0,0,0,0,0,0,0,-1,1266,1205,0,0
49,-181,0,0,0,0,0,0,0,0,0,-1,1273,1205,0,0
56,-181,0,0,0,0,0,0,0,0,0,-1,1280,1205,0,0
63,-181,0,0,0,0,0,0,0,0,0,-1,1287,1205,0,0
70,-181,0,0,0,0,0,0,0,0,0,-1,1294,1205,0,0
77,-181,0,0,0,0,0,0,0,0,0,-1,1301,1205,0,0
84,-181,0,0,0,0,0,0,0,0,0,-1,1308,1205,0,0
91,-181,0,0,0,0,0,0,0,0,0,-1,1315,1205,0,0
98,-181,0,0,0,0,0,0,0,0,0,-1,1322,1205,0,0
105,-181,0,0,0,0,0,0,0,0,0,-1,1329,1205,0,0
112,-181,0,0,0,0,0,0,0,0,0,-1,1336,1205,0,0
119,-181,0,0,0,0,0,0,0,0,0,-1,1343,1205,0,0
126,-181,0,0,0,0,0,0,0,0,0,-1,1350,1205,0,0
133,-181,0,0,0,0,0,0,0,0,0,-1,1357,1205,0,0
140,-181,0,0,0,0,0,0,0,0,0,-1,1364,1205,0,0
147,-181,0,0,0,0,0,0,0,0,0,-1,1371,1205,0,0
154,-181,0,0,0,0,0,0,0,0,0,-1,1378,1205,0,0
161,-181,0,0,0,0,0,0,0,0,0,-1,1385,1205,0,0
168,-181,0,0,0,0,0,0,0,0,0,-1,1392,1205,0,0
175,-181,0,0,0,0,0,0,0,0,0,-1,1399,1205,0,0
182,-181,0,0,0,0,0,0,0,0,0,-1,1406,1205,0,0
189,-181,0,0,0,0,0,0,0,0,0,-1,1413,1205,0,0
196,-181,0,0,0,0,0,0,0,0,0,-1,1420,1205,0,0
203,-181,0,0,0,0,0,0,0,0,0,-1,1427,1205,0,0
210,-181,0,0,0,0,0,0,0,0,0,-1,1434,1205,0,0
217,-181,0,0,0,0,0,0,0,0,0,-1,1441,1205,0,0
224,-181,0,0,0,0,0,0,0,0,0,-1,1448,1205,0,0
231,-181,0,0,0,0,0,0,0,0,0,-1,1455,1205,0,0
238,-181,0,0,0,0,0,0,0,0,0,-1,1462,1205,0,0
245,-181,0,0,0,0,0,0,0,0,0,-1,1469,1205,0,0
252,-181,0,0,0,0,0,0,0,0,0,-1,1476,1205,0,0
259,-181,0,0,0,0,0,0,0,0,0,-1,1483,1205,0,0
266,-181,0,0,0,0,0,0,0,0,0,-1,1490,1205,0,0
273,-181,0,0,0,0,0,0,0,0,0,-1,1497,1205,0,0
280,-181,0,0,0,0,0,0,0,0,0,-1,1504,1205,0,0
287,-181,0,0,0,0,0,0,0,0,0,-1,1511,1205,0,0
294,-181,0,0,0,0,0,0,0,0,0,-1,1518,1205,0,0
301,-181,0,0,0,0,0,0,0,0,0,-1,1525,1205,0,0
308,-181,0,0,0,0,0,0,0,0,0,-1,1532,1205,0,0
315,-181,0,0,0,0,0,0,0,0,0,-1,1539,1205,0,0
322,-181,0,0,0,0,0,0,0,0,0,-1,1546,1205,0,0
329,-181,0,0,0,0,0,0,0,0,0,-1,1553,1205,0,0
336,-181,0,0,0,0,0,0,0,0,0,-1,1560,1205,0,0
343,-181,0,0,0,0,0,0,0,0,0,-1,1567,1205,0,0
350,-181,0,0,0,0,0,0,0,0,0,-1,1574,1205,0,0
357,-181,0,0,0,0,0,0,0,0,0,-1,1581,1205,0,0
364,-181,0,0,0,0,0,0,0,0,0,-1,1588,1205,0,0
371,-181,0,0,0,0,0,0,0,0,0,-1,1595,1205,0,0
378,-181,0,0,0,0,0,0,0,0,0,-1,1602,1205,0,0
385,-181,0,0,0,0,0,0,0,0,0,-1,1609,1205,0,0
392,-181,0,0,0,0,0,0,0,0,0,-1,1616,1205,0,0
399,-181,0,0,0,0,0,0,0,0,0,-1,1623,1205,0,0
406,-181,0,0,0,0,0,0,0,0,0,-1,1630,1205,0,0
413,-181,0,0,0,0,0,0,0,0,0,-1,1637,1205,0,0
420,-181,0,0,0,0,0,0,0,0,0,-1,1644,1205,0,0
427,-181,0,0,0,0,0,0,0,0,0,-1,1651,1205,0,0
434,-181,0,0,0,0,0,0,0,0,0,-1,1658,1205,0,0
441,-181,0,0,0,0,0,0,0,0,0,-1,1665,1205,0,0
448,-181,0,0,0,0,0,0,0,0,0,-1,1672,1205,0,0
455,-181,0,0,0,0,0,0,0,0,0,-1,1679,1205,0,0
462,-181,0,0,0,0,0,0,0,0,0,-1,1686,1205,0,0
469,-181,0,0,0,0,0,0,0,0,0,-1,1693,1205,0,0
476,-181,0,0,0,0,0,0,0,0,0,-1,1700,1205,0,0
483,-181,0,0,0,0,0,0,0,0,0,-1,1707,1205,0,0
490,-181,0,0,0,0,0,0,0,0,0,-1,1714,1205,0,0
497,-181,0,0,0,0,0,0,0,0,0,-1,1721,1205,0,0
504,-181,0,0,0,0,0,0,0,0,0,-1,1728,1205,0,0
511,-181,0,0,0,0,0,0,0,0,0,-1,1735,1205,0,0
518,-181,0,0,0,0,0,0,0,0,0,-1,1742,1205,0,0
525,-181,0,0,0,0,0,0,0,0,0,-1,1749,1205,0,0
532,-181,0,0,0,0,0,0,0,0,0,-1,1756,1205,0,0
539,-181,0,0,0,0,0,0,0,0,0,-1,1763,1205,0,0
546,-181,0,0,0,0,0,0,0,0,0,-1,1770,1205,0,0
553,-181,0,0,0,0,0,0,0,0,0,-1,1777,1205,0,0
560,-181,0,0,0,0,0,0,0,0,0,-1,1784,1205,0,0
567,-181,0,0,0,0,0,0,0,0,0,-1,1791,1205,0,0
574,-181,0,0,0,0,0,0,0,0,0,-1,1798,1205,0,0
581,-181,0,0,0,0,0,0,0,0,0,-1,1805,1205,0,0
588,-181,0,0,0,0,0,0,0,0,0,-1,1812,1205,0,0
595,-181,0,0,0,0,0,0,0,0,0,-1,1819,1205,0,0
602,-181,0,0,0,0,0,0,0,0,0,-1,1826,1205,0,0
609,-181,0,0,0,0,0,0,0,0,0,-1,1833,1205,0,0
616,-181,0,0,0,0,0,0,0,0,0,-1,1840,1205,0,0
623,-181,0,0,0,0,0,0,0,0,0,-1,1847,1205,0,0
630,-181,27.395,3.54736,-0.00393533,0.00208018,-0.00439789,0.00440046,-0.00625562,-1.08532,0.00618329,0.0376913,1854,1205,27.395,-3.54734
637,-181,27.2888,3.54736,-0.00271077,0.00159117,-0.00287101,0.00302759,-0.00414719,-1.10689,0.00415914,0.0377643,1861,1205,27.2888,-3.54733
644,-181,27.2339,3.47339,-0.00136765,0.0009958,-0.00131859,0.00158471,-0.00195656,-1.15075,0.00204831,0.0381701,1868,1205,27.2339,-3.47334
651,-181,27.4219,3.36377,7.28186e-05,0.000327439,0.000159351,0.000404091,-3.83341e-06,1.12244,0.000270681,0.038551,1875,1205,27.4219,-3.36375
658,-181,27.329,3.32288,0.00136964,-0.000468889,0.00120213,0.0019637,-0.00106295,0.458978,0.00177305,0.034336,1882,1205,27.329,-3.32285
665,-181,27.2789,3.26196,0.00226645,-0.00109627,0.00169342,0.00297144,-0.00180125,0.394486,0.00278298,0.0339522,1889,1205,27.2789,-3.26192
672,-181,27.3593,3.23096,0.00256977,-0.00158424,0.00191152,0.0033155,-0.00232997,0.371966,0.00327593,0.0267248,1896,1205,27.3593,-3.23096
679,-181,27.4249,3.33667,0.00245791,-0.00186721,0.00206077,0.00328257,-0.00269186,0.38065,0.00345495,0.0328573,1903,1205,27.4249,-3.33664
686,-181,27.5487,3.47119,0,0,0,0,0,0,0,-1,1910,1205,27.5487,-3.47125
693,-181,26.8179,3.25269,0,0,0,0,0,0,0,-1,1917,1205,26.8179,-3.25265
700,-181,24.4611,6.31116,0,0,0,0,0,0,0,-1,1924,1205,24.461,-6.31111
707,-181,24.3346,6.13037,0.0015101,-0.00213835,0.00170515,0.00218294,-0.00281119,0.375836,0.00289096,0.0366236,1931,1205,24.3346,-6.13031
714,-181,24.3026,5.93933,0.00110232,-0.00197221,0.00150797,0.00171846,-0.00258835,0.387889,0.00250339,0.0284327,1938,1205,24.3026,-5.93934
721,-181,24.1595,5.79907,0.000946065,-0.00155674,0.00113063,0.00138118,-0.00199186,0.367371,0.00195803,0.0197475,1945,1205,24.1595,-5.79913
728,-181,23.9856,5.66699,0.00151966,-0.000758463,0.000321904,0.00156427,-0.000803076,0.137711,0.00139014,0.0113285,1952,1205,23.9856,-5.66695
735,-181,24.0034,5.47046,0.00268436,-0.000319858,-0.000341445,0.00272268,-0.000358176,-0.111756,0.00194553,0.0101012,1959,1205,24.0034,-5.47042
742,-181,24.0084,5.2959,0.00531294,-0.000154579,-0.00138595,0.0056442,-0.000485833,-0.234607,0.00393475,0.015073,1966,1205,24.0084,-5.29585
749,-181,24.0085,5.08545,0.00915515,4.52347e-06,-0.00285772,0.00997428,-0.000814612,-0.279155,0.00693702,0.0147563,1973,1205,24.0085,-5.08546
756,-181,23.9927,4.87903,0.0142849,-0.000150064,-0.00487448,0.0157767,-0.00164193,-0.297003,0.0111057,0.0110754,1980,1205,23.9927,-4.87902
763,-181,23.9755,4.68188,0.0206246,-0.000890539,-0.00743257,0.0229426,-0.00320845,-0.302301,0.016469,0.011555,1987,1205,23.9755,-4.68184
770,-181,24.0165,4.4845,0.028527,-0.00244253,-0.0108074,0.0319255,-0.00584104,-0.304671,0.0234742,0.0246477,1994,1205,24.0164,-4.4845
777,-181,24.559,4.0459,0.0378222,-0.00527172,-0.0150959,0.0425841,-0.0100336,-0.305565,0.0322584,0.0469732,2001,1205,24.5589,-4.04585
784,-181,25.0885,3.63574,0,0,0,0,0,0,0,-1,2008,1205,25.0885,-3.6357
791,-181,26.475,2.06824,0,0,0,0,0,0,0,-1,2015,1205,26.475,-2.06819
798,-181,24.1494,0.945801,0,0,0,0,0,0,0,-1,2022,1205,24.1494,-0.945857
805,-181,0,0,0,0,0,0,0,0,0,-1,2029,1205,0,0
812,-181,0,0,0,0,0,0,0,0,0,-1,2036,1205,0,0
-700,-188,0,0,0,0,0,0,0,0,0,-1,524,1212,0,0
-693,-188,0,0,0,0,0,0,0,0,0,-1,531,1212,0,0
-686,-188,0,0,0,0,0,0,0,0,0,-1,538,1212,0,0
-679,-188,-11.347,-1.8042,-0.0578522,0.0445024,-0.00297636,0.0445889,-0.0579387,-1.54175,0.0593614,0.0472981,545,1212,-11.347,1.80423
-672,-188,-11.281,-3.00684,0,0,0,0,0,0,0,-1,552,1212,-11.281,3.00687
-665,-188,-12.1156,-2.44019,-0.0424094,0.0330876,0.0115862,0.0348257,-0.0441475,1.42189,0.0457009,0.0478741,559,1212,-12.1156,2.4402
-658,-188,-12.8351,-1.49121,-0.0346633,0.0270902,0.0133466,0.0298513,-0.0374244,1.3668,0.0389236,0.0439444,566,1212,-12.8351,1.49124
-651,-188,-15.8496,0.670776,-0.0274992,0.0214613,0.0131594,0.0247741,-0.030812,1.32418,0.0321557,0.0452394,573,1212,-15.8496,-0.67079
-644,-188,-14.9279,1.59094,-0.0212379,0.0164353,0.0117703,0.0198104,-0.0246129,1.29155,0.0256977,0.0416764,580,1212,-14.9278,-1.59088
-637,-188,-15.0075,1.86877,-0.0159278,0.0121383,0.00975309,0.0151947,-0.0189842,1.26711,0.0197736,0.0205321,587,1212,-15.0075,-1.86877
-630,-188,-14.976,2.13953,-0.0118846,0.00847788,0.00788257,0.0111727,-0.0145794,1.24138,0.0149113,0.0096943,594,1212,-14.976,-2.13948
-623,-188,-14.9738,2.36658,-0.00859344,0.00562546,0.00604626,0.00784883,-0.0108168,1.21842,0.0108219,0.0108476,601,1212,-14.9738,-2.3666
-616,-188,-14.9595,2.59521,-0.00542719,0.00365592,0.00337063,0.00477006,-0.00654133,1.25156,0.00655726,0.0112231,608,1212,-14.9595,-2.59519
-609,-188,-14.9446,2.84656,-0.00362052,0.0014431,0.00086657,0.0015873,-0.00376471,1.40591,0.00317408,0.0137065,615,1212,-14.9446,-2.84655
-602,-188,-14.9525,3.08972,-0.00255958,0.00041585,-0.00109035,0.000772629,-0.00291636,-1.25456,0.00224651,0.0159466,622,1212,-14.9525,-3.08972
-595,-188,-14.9976,3.31262,-0.00201123,8.65496e-05,-0.00212651,0.00140878,-0.00333345,-1.01451,0.00281209,0.0123807,629,1212,-14.9976,-3.31259
-588,-188,-15.022,3.54346,-0.00186477,0.000216622,-0.00265181,0.00202464,-0.00367279,-0.972388,0.00333497,0.0120288,636,1212,-15.0221,-3.54346
-581,-188,-15.0426,3.7843,-0.00149284,0.000258617,-0.00270748,0.00222847,-0.00346269,-0.941812,0.00331145,0.0130917,643,1212,-15.0426,-3.78425
-574,-188,-15.2247,3.86963,-0.00092335,0.000191816,-0.00238608,0.00208459,-0.00281613,-0.90018,0.00283992,0.0350787,650,1212,-15.2246,-3.86964
-567,-188,-15.3857,3.87268,0,0,0,0,0,0,0,-1,657,1212,-15.3857,-3.87268
-560,-188,-18.6791,1.33337,0,0,0,0,0,0,0,-1,664,1212,-18.6791,-1.33337
-553,-188,-18.7285,1.39038,-0.000421405,0.000130596,-0.00108568,0.00097481,-0.00126562,-0.909871,0.00129714,0.0481931,671,1212,-18.7285,-1.39042
-546,-188,-18.848,1.48193,-0.000186023,0.00012847,-0.000382657,0.00038493,-0.000442483,-0.980346,0.000478092,0.0435584,678,1212,-18.848,-1.48197
-539,-188,-18.8025,1.42334,-9.69911e-05,6.32241e-05,0.000554241,0.000543117,-0.000576884,0.857169,0.000646731,0.0378625,685,1212,-18.8025,-1.42334
-532,-188,-18.9061,1.34924,-0.000340125,-0.000120188,0.00176662,0.00153988,-0.0020002,0.816482,0.00204962,0.0421732,692,1212,-18.9061,-1.34929
-525,-188,-18.7451,1.52905,-0.000950142,-0.000577544,0.00333515,0.00257651,-0.0041042,0.813299,0.00389058,0.0405847,699,1212,-18.7451,-1.5291
-518,-188,-18.7047,1.59338,-0.00292066,-0.0015607,0.00467968,0.00248815,-0.0069695,0.857546,0.00566102,0.0402319,706,1212,-18.7047,-1.59336
-511,-188,-18.7321,1.44604,-0.00380613,-0.00240746,0.00623996,0.00317223,-0.00938582,0.841202,0.00754043,0.0372789,713,1212,-18.7321,-1.44602
-504,-188,0,0,0,0,0,0,0,0,0,-1,720,1212,0,0
-497,-188,0,0,0,0,0,0,0,0,0,-1,727,1212,0,0
-490,-188,0,0,0,0,0,0,0,0,0,-1,734,1212,0,0
-483,-188,0,0,0,0,0,0,0,0,0,-1,741,1212,0,0
-476,-188,0,0,0,0,0,0,0,0,0,-1,748,1212,0,0
-469,-188,0,0,0,0,0,0,0,0,0,-1,755,1212,0,0
-462,-188,0,0,0,0,0,0,0,0,0,-1,762,1212,0,0
-455,-188,0,0,0,0,0,0,0,0,0,-1,769,1212,0,0
-448,-188,0,0,0,0,0,0,0,0,0,-1,776,1212,0,0
-441,-188,0,0,0,0,0,0,0,0,0,-1,783,1212,0,0
-434,-188,0,0,0,0,0,0,0,0,0,-1,790,1212,0,0
-427,-188,0,0,0,0,0,0,0,0,0,-1,797,1212,0,0
-420,-188,0,0,0,0,0,0,0,0,0,-1,804,1212,0,0
-413,-188,0,0,0,0,0,0,0,0,0,-1,811,1212,0,0
-406,-188,0,0,0,0,0,0,0,0,0,-1,818,1212,0,0
-399,-188,0,0,0,0,0,0,0,0,0,-1,825,1212,0,0
-392,-188,0,0,0,0,0,0,0,0,0,-1,832,1212,0,0
-385,-188,0,0,0,0,0,0,0,0,0,-1,839,1212,0,0
-378,-188,0,0,0,0,0,0,0,0,0,-1,846,1212,0,0
-371,-188,0,0,0,0,0,0,0,0,0,-1,853,1212,0,0
-364,-188,0,0,0,0,0,0,0,0,0,-1,860,1212,0,0
-357,-188,0,0,0,0,0,0,0,0,0,-1,867,1212,0,0
-350,-188,0,0,0,0,0,0,0,0,0,-1,874,1212,0,0
-343,-188,0,0,0,0,0,0,0,0,0,-1,881,1212,0,0
-336,-188,0,0,0,0,0,0,0,0,0,-1,888,1212,0,0
-329,-188,0,0,0,0,0,0,0,0,0,-1,895,1212,0,0
-322,-188,0,0,0,0,0,0,0,0,0,-1,902,1212,0,0
-315,-188,0,0,0,0,0,0,0,0,0,-1,909,1212,0,0
-308,-188,0,0,0,0,0,0,0,0,0,-1,916,1212,0,0
-301,-188,0,0,0,0,0,0,0,0,0,-1,923,1212,0,0
-294,-188,0,0,0,0,0,0,0,0,0,-1,930,1212,0,0
-287,-188,0,0,0,0,0,0,0,0,0,-1,937,1212,0,0
-280,-188,0,0,0,0,0,0,0,0,0,-1,944,1212,0,0
-273,-188,0,0,0,0,0,0,0,0,0,-1,951,1212,0,0
-266,-188,0,0,0,0,0,0,0,0,0,-1,958,1212,0,0
-259,-188,0,0,0,0,0,0,0,0,0,-1,965,1212,0,0
-252,-188,0,0,0,0,0,0,0,0,0,-1,972,1212,0,0
-245,-188,0,0,0,0,0,0,0,0,0,-1,979,1212,0,0
-238,-188,0,0,0,0,0,0,0,0,0,-1,986,1212,0,0
-231,-188,0,0,0,0,0,0,0,0,0,-1,993,1212,0,0
-224,-188,0,0,0,0,0,0,0,0,0,-1,1000,1212,0,0
-217,-188,0,0,0,0,0,0,0,0,0,-1,1007,1212,0,0
-210,-188,0,0,0,0,0,0,0,0,0,-1,1014,1212,0,0
-203,-188,0,0,0,0,0,0,0,0,0,-1,1021,1212,0,0
-196,-188,0,0,0,0,0,0,0,0,0,-1,1028,1212,0,0
-189,-188,0,0,0,0,0,0,0,0,0,-1,1035,1212,0,0
-182,-188,0,0,0,0,0,0,0,0,0,-1,1042,1212,0,0
-175,-188,0,0,0,0,0,0,0,0,0,-1,1049,1212,0,0
-168,-188,0,0,0,0,0,0,0,0,0,-1,1056,1212,0,0
-161,-188,0,0,0,0,0,0,0,0,0,-1,1063,1212,0,0
-154,-188,0,0,0,0,0,0,0,0,0,-1,1070,1212,0,0
-147,-188,0,0,0,0,0,0,0,0,0,-1,1077,1212,0,0
-140,-188,0,0,0,0,0,0,0,0,0,-1,1084,1212,0,0
-133,-188,0,0,0,0,0,0,0,0,0,-1,1091,1212,0,0
-126,-188,0,0,0,0,0,0,0,0,0,-1,1098,1212,0,0
-119,-188,0,0,0,0,0,0,0,0,0,-1,1105,1212,0,0
-112,-188,0,0,0,0,0,0,0,0,0,-1,1112,1212,0,0
-105,-188,0,0,0,0,0,0,0,0,0,-1,1119,1212,0,0
-98,-188,0,0,0,0,0,0,0,0,0,-1,1126,1212,0,0
-91,-188,0,0,0,0,0,0,0,0,0,-1,1133,1212,0,0
-84,-188,0,0,0,0,0,0,0,0,0,-1,1140,1212,0,0
-77,-188,0,0,0,0,0,0,0,0,0,-1,1147,1212,0,0
-70,-188,0,0,0,0,0,0,0,0,0,-1,1154,1212,0,0
-63,-188,0,0,0,0,0,0,0,0,0,-1,1161,1212,0,0
-56,-188,0,0,0,0,0,0,0,0,0,-1,1168,1212,0,0
-49,-188,0,0,0,0,0,0,0,0,0,-1,1175,1212,0,0
-42,-188,0,0,0,0,0,0,0,0,0,-1,1182,1212,0,0
-35,-188,0,0,0,0,0,0,0,0,0,-1,1189,1212,0,0
-28,-188,0,0,0,0,0,0,0,0,0,-1,1196,1212,0,0
-21,-188,0,0,0,0,0,0,0,0,0,-1,1203,1212,0,0
-14,-188,0,0,0,0,0,0,0,0,0,-1,1210,1212,0,0
-7,-188,0,0,0,0,0,0,0,0,0,-1,1217,1212,0,0
0,-188,0,0,0,0,0,0,0,0,0,-1,1224,1212,0,0
7,-188,0,0,0,0,0,0,0,0,0,-1,1231,1212,0,0
14,-188,0,0,0,0,0,0,0,0,0,-1,1238,1212,0,0
21,-188,0,0,0,0,0,0,0,0,0,-1,1245,1212,0,0
28,-188,0,0,0,0,0,0,0,0,0,-1,1252,1212,0,0
35,-188,0,0,0,0,0,0,0,0,0,-1,1259,1212,0,0
42,-188,0,0,0,0,0,0,0,0,0,-1,1266,1212,0,0
49,-188,0,0,0,0,0,0,0,0,0,-1,1273,1212,0,0
56,-188,0,0,0,0,0,0,0,0,0,-1,1280,1212,0,0
63,-188,0,0,0,0,0,0,0,0,0,-1,1287,1212,0,0
70,-188,0,0,0,0,0,0,0,0,0,-1,1294,1212,0,0
77,-188,0,0,0,0,0,0,0,0,0,-1,1301,1212,0,0
84,-188,0,0,0,0,0,0,0,0,0,-1,1308,1212,0,0
91,-188,0,0,0,0,0,0,0,0,0,-1,1315,1212,0,0
98,-188,0,0,0,0,0,0,0,0,0,-1,1322,1212,0,0
105,-188,0,0,0,0,0,0,0,0,0,-1,1329,1212,0,0
112,-188,0,0,0,0,0,0,0,0,0,-1,1336,1212,0,0
119,-188,0,0,0,0,0,0,0,0,0,-1,1343,1212,0,0
126,-188,0,0,0,0,0,0,0,0,0,-1,1350,1212,0,0
133,-188,0,0,0,0,0,0,0,0,0,-1,1357,1212,0,0
140,-188,0,0,0,0,0,0,0,0,0,-1,1364,1212,0,0
147,-188,0,0,0,0,0,0,0,0,0,-1,1371,1212,0,0
154,-188,0,0,0,0,0,0,0,0,0,-1,1378,1212,0,0
161,-188,0,0,0,0,0,0,0,0,0,-1,1385,1212,0,0
168,-188,0,0,0,0,0,0,0,0,0,-1,1392,1212,0,0
175,-188,0,0,0,0,0,0,0,0,0,-1,1399,1212,0,0
182,-188,0,0,0,0,0,0,0,0,0,-1,1406,1212,0,0
189,-188,0,0,0,0,0,0,0,0,0,-1,1413,1212,0,0
196,-188,0,0,0,0,0,0,0,0,0,-1,1420,1212,0,0
203,-188,0,0,0,0,0,0,0,0,0,-1,1427,1212,0,0
210,-188,0,0,0,0,0,0,0,0,0,-1,1434,1212,0,0
217,-188,0,0,0,0,0,0,0,0,0,-1,1441,1212,0,0
224,-188,0,0,0,0,0,0,0,0,0,-1,1448,1212,0,0
231,-188,0,0,0,0,0,0,0,0,0,-1,1455,1212,0,0
238,-188,0,0,0,0,0,0,0,0,0,-1,1462,1212,0,0
245,-188,0,0,0,0,0,0,0,0,0,-1,1469,1212,0,0
252,-188,0,0,0,0,0,0,0,0,0,-1,1476,1212,0,0
259,-188,0,0,0,0,0,0,0,0,0,-1,1483,1212,0,0
266,-188,0,0,0,0,0,0,0,0,0,-1,1490,1212,0,0
273,-188,0,0,0,0,0,0,0,0,0,-1,1497,1212,0,0
280,-188,0,0,0,0,0,0,0,0,0,-1,1504,1212,0,0
287,-188,0,0,0,0,0,0,0,0,0,-1,1511,1212,0,0
294,-188,0,0,0,0,0,0,0,0,0,-1,1518,1212,0,0
301,-188,0,0,0,0,0,0,0,0,0,-1,1525,1212,0,0
308,-188,0,0,0,0,0,0,0,0,0,-1,1532,1212,0,0
315,-188,0,0,0,0,0,0,0,0,0,-1,1539,1212,0,0
322,-188,0,0,0,0,0,0,0,0,0,-1,1546,1212,0,0
329,-188,0,0,0,0,0,0,0,0,0,-1,1553,1212,0,0
336,-188,0,0,0,0,0,0,0,0,0,-1,1560,1212,0,0
343,-188,0,0,0,0,0,0,0,0,0,-1,1567,1212,0,0
350,-188,0,0,0,0,0,0,0,0,0,-1,1574,1212,0,0
357,-188,0,0,0,0,0,0,0,0,0,-1,1581,1212,0,0
364,-188,0,0,0,0,0,0,0,0,0,-1,1588,1212,0,0
371,-188,0,0,0,0,0,0,0,0,0,-1,1595,1212,0,0
378,-188,0,0,0,0,0,0,0,0,0,-1,1602,1212,0,0
385,-188,0,0,0,0,0,0,0,0,0,-1,1609,1212,0,0
392,-188,0,0,0,0,0,0,0,0,0,-1,1616,1212,0,0
399,-188,0,0,0,0,0,0,0,0,0,-1,1623,1212,0,0
406,-188,0,0,0,0,0,0,0,0,0,-1,1630,1212,0,0
413,-188,0,0,0,0,0,0,0,0,0,-1,1637,1212,0,0
420,-188,0,0,0,0,0,0,0,0,0,-1,1644,1212,0,0
427,-188,0,0,0,0,0,0,0,0,0,-1,1651,1212,0,0
434,-188,0,0,0,0,0,0,0,0,0,-1,1658,1212,0,0
441,-188,0,0,0,0,0,0,0,0,0,-1,1665,1212,0,0
448,-188,0,0,0,0,0,0,0,0,0,-1,1672,1212,0,0
455,-188,0,0,0,0,0,0,0,0,0,-1,1679,1212,0,0
462,-188,0,0,0,0,0,0,0,0,0,-1,1686,1212,0,0
469,-188,0,0,0,0,0,0,0,0,0,-1,1693,1212,0,0
476,-188,0,0,0,0,0,0,0,0,0,-1,1700,1212,0,0
483,-188,0,0,0,0,0,0,0,0,0,-1,1707,1212,0,0
490,-188,0,0,0,0,0,0,0,0,0,-1,1714,1212,0,0
497,-188,0,0,0,0,0,0,0,0,0,-1,1721,1212,0,0
504,-188,0,0,0,0,0,0,0,0,0,-1,1728,1212,0,0
511,-188,0,0,0,0,0,0,0,0,0,-1,1735,1212,0,0
518,-188,0,0,0,0,0,0,0,0,0,-1,1742,1212,0,0
525,-188,0,0,0,0,0,0,0,0,0,-1,1749,1212,0,0
532,-188,0,0,0,0,0,0,0,0,0,-1,1756,1212,0,0
539,-188,0,0,0,0,0,0,0,0,0,-1,1763,1212,0,0
546,-188,0,0,0,0,0,0,0,0,0,-1,1770,1212,0,0
553,-188,0,0,0,0,0,0,0,0,0,-1,1777,1212,0,0
560,-188,0,0,0,0,0,0,0,0,0,-1,1784,1212,0,0
567,-188,0,0,0,0,0,0,0,0,0,-1,1791,1212,0,0
574,-188,0,0,0,0,0,0,0,0,0,-1,1798,1212,0,0
581,-188,0,0,0,0,0,0,0,0,0,-1,1805,1212,0,0
588,-188,0,0,0,0,0,0,0,0,0,-1,1812,1212,0,0
595,-188,0,0,0,0,0,0,0,0,0,-1,1819,1212,0,0
602,-188,0,0,0,0,0,0,0,0,0,-1,1826,1212,0,0
609,-188,0,0,0,0,0,0,0,0,0,-1,1833,1212,0,0
616,-188,0,0,0,0,0,0,0,0,0,-1,1840,1212,0,0
623,-188,0,0,0,0,0,0,0,0,0,-1,1847,1212,0,0
630,-188,27.3207,3.72327,-0.00287425,0.00220173,-0.00487594,0.00516067,-0.00583319,-1.02536,0.00635126,0.0404307,1854,1212,27.3207,-3.72324
637,-188,27.2316,3.56702,-0.00199489,0.00186948,-0.00299995,0.00350564,-0.00363104,-1.0715,0.00412058,0.0396465,1861,1212,27.2316,-3.56702
644,-188,27.1399,3.3916,-0.000963888,0.00134547,-0.00101131,0.00172572,-0.00134414,-1.21114,0.00177695,0.0350914,1868,1212,27.1398,-3.3916
651,-188,27.2328,3.37122,0.000202919,0.000625447,0.000873301,0.00131267,-0.000484309,0.904075,0.0010736,0.0298563,1875,1212,27.2328,-3.37127
658,-188,27.3092,3.39502,0.00131058,-0.000223993,0.00208692,0.00276679,-0.00168021,0.609236,0.0025929,0.0308047,1882,1212,27.3092,-3.39503
665,-188,27.2654,3.3219,0.00206763,-0.000913688,0.00265408,0.00362102,-0.00246707,0.529527,0.00353595,0.0310723,1889,1212,27.2654,-3.32194
672,-188,27.3588,3.27625,0.00230094,-0.00148006,0.00288857,0.00386266,-0.00304178,0.49564,0.00399566,0.0267947,1896,1212,27.3587,-3.27629
679,-188,27.4761,3.45178,0.00221968,-0.00181191,0.00300765,0.00382458,-0.0034168,0.490168,0.00418302,0.049425,1903,1212,27.4761,-3.45173
686,-188,27.6229,3.66223,0,0,0,0,0,0,0,-1,1910,1212,27.6229,-3.66228
693,-188,27.7938,3.83472,0,0,0,0,0,0,0,-1,1917,1212,27.7939,-3.83474
700,-188,24.1511,6.03381,0,0,0,0,0,0,0,-1,1924,1212,24.1511,-6.03376
707,-188,23.9701,6.18604,0.00152609,-0.00233984,0.00240139,0.00267582,-0.00348957,0.446527,0.00356991,0.0189641,1931,1212,23.9701,-6.18599
714,-188,23.9359,6.06128,0.00114769,-0.0022295,0.00209422,0.00214928,-0.00323109,0.446109,0.00312722,0.0164407,1938,1212,23.9359,-6.06127
721,-188,23.8336,5.88416,0.00105993,-0.00177698,0.00154671,0.00174013,-0.00245717,0.414313,0.00243507,0.0141994,1945,1212,23.8336,-5.88411
728,-188,23.7853,5.66907,0.00174312,-0.000853069,0.000511148,0.00184013,-0.00095008,0.187561,0.00163802,0.00948293,1952,1212,23.7852,-5.66909
735,-188,23.7823,5.4812,0.00320681,-0.000423841,-0.00032714,0.00323605,-0.000453082,-0.0891483,0.00232317,0.0120323,1959,1212,23.7823,-5.48116
742,-188,23.7817,5.28809,0.0062417,-0.000384883,-0.00159824,0.00660704,-0.000750216,-0.224723,0.00467487,0.0133749,1966,1212,23.7817,-5.2881
749,-188,23.7917,5.07703,0.0104862,-0.000402461,-0.00330823,0.0114125,-0.00132878,-0.273012,0.00808772,0.0129294,1973,1212,23.7918,-5.07698
756,-188,23.7776,4.87634,0.0160251,-0.000840756,-0.00557884,0.0177034,-0.0025191,-0.292228,0.0127254,0.0115386,1980,1212,23.7775,-4.87639
763,-188,23.7617,4.67419,0.022927,-0.00201363,-0.00847226,0.0255328,-0.00461938,-0.298381,0.0187523,0.0134224,1987,1212,23.7617,-4.67425
770,-188,23.774,4.45898,0.0315514,-0.00421679,-0.0122803,0.0353617,-0.0080271,-0.300859,0.0266561,0.0222472,1994,1212,23.774,-4.45898
777,-188,24.3163,4.19897,0.0416879,-0.00797834,-0.0170957,0.0470035,-0.013294,-0.301458,0.0365813,0.0469206,2001,1212,24.3163,-4.19903
784,-188,24.7958,3.92688,0,0,0,0,0,0,0,-1,2008,1212,24.7958,-3.92687
791,-188,24.4567,3.09326,0,0,0,0,0,0,0,-1,2015,1212,24.4567,-3.09327
798,-188,25.4847,3.54468,0,0,0,0,0,0,0,-1,2022,1212,25.4847,-3.54466
805,-188,0,0,0,0,0,0,0,0,0,-1,2029,1212,0,0
812,-188,0,0,0,0,0,0,0,0,0,-1,2036,1212,0,0
-700,-195,0,0,0,0,0,0,0,0,0,-1,524,1219,0,0
-693,-195,0,0,0,0,0,0,0,0,0,-1,531,1219,0,0
-686,-195,0,0,0,0,0,0,0,0,0,-1,538,1219,0,0
-679,-195,-10.305,-3.24951,0,0,0,0,0,0,0,-1,545,1219,-10.305,3.24947
-672,-195,-11.9566,-3.40076,0,0,0,0,0,0,0,-1,552,1219,-11.9566,3.40081
-665,-195,-12.4717,-2.32397,-0.0473494,0.0228973,0.0193602,0.0278797,-0.0523318,1.31891,0.0470219,0.0493177,559,1219,-12.4717,2.32397
-658,-195,-13.0283,-1.22876,-0.0382644,0.0184827,0.0194676,0.0245191,-0.0443008,1.27012,0.0402766,0.0454148,566,1219,-13.0283,1.22882
-651,-195,-13.6422,-0.0926514,-0.0300098,0.0144067,0.0178685,0.0207027,-0.0363058,1.23203,0.0333223,0.0419588,573,1219,-13.6422,0.0926536
-644,-195,-14.657,1.51538,0,0,0,0,0,0,0,-1,580,1219,-14.657,-1.51538
-637,-195,-14.6899,1.88037,-0.0169339,0.00789607,0.0123602,0.0129998,-0.0220376,1.1792,0.020452,0.020397,587,1219,-14.6899,-1.88033
-630,-195,-14.7301,2.13147,-0.0124407,0.00540197,0.00970982,0.00966664,-0.0167054,1.15695,0.0154056,0.00751542,594,1219,-14.7301,-2.13145
-623,-195,-14.7216,2.36597,-0.00890284,0.0034706,0.00730297,0.00685514,-0.0122874,1.13682,0.0111993,0.00755341,601,1219,-14.7216,-2.36594
-616,-195,-14.7014,2.60437,-0.00546458,0.00250714,0.00416844,0.00428869,-0.00724613,1.1669,0.0067322,0.00966101,608,1219,-14.7014,-2.60432
-609,-195,-14.6852,2.86328,-0.00339428,0.000924219,0.00134809,0.00131049,-0.00378055,1.29174,0.00305246,0.0177449,615,1219,-14.6853,-2.86323
-602,-195,-14.6877,3.09937,-0.00223677,0.000193223,-0.000794059,0.00042969,-0.00247324,-1.28136,0.00180914,0.0201683,622,1219,-14.6877,-3.09941
-595,-195,-14.7585,3.32422,-0.00167793,0.000112247,-0.00186642,0.00128712,-0.0028528,-1.00899,0.0024465,0.0158391,629,1219,-14.7586,-3.32427
-588,-195,-14.7517,3.55554,-0.00150008,0.000353778,-0.00238361,0.00198434,-0.00313065,-0.970838,0.00297776,0.00959578,636,1219,-14.7517,-3.55548
-581,-195,-14.7991,3.71594,-0.00107611,0.000347384,-0.00249125,0.00222657,-0.00295529,-0.924541,0.00300159,0.0137399,643,1219,-14.7991,-3.71597
-574,-195,-14.9637,3.68384,-0.000446893,0.000307157,-0.00212828,0.00209155,-0.00223128,-0.873064,0.00249622,0.0299501,650,1219,-14.9638,-3.68383
-567,-195,-15.107,3.62415,0,0,0,0,0,0,0,-1,657,1219,-15.107,-3.62419
-560,-195,-17.2854,0.244507,0,0,0,0,0,0,0,-1,664,1219,-17.2854,-0.244526
-553,-195,-18.7389,1.45276,0,0,0,0,0,0,0,-1,671,1219,-18.7389,-1.4527
-546,-195,-18.7691,1.58899,-0.000341028,0.000531557,-0.000153976,0.000557931,-0.000367402,-1.40116,0.000538003,0.0450178,678,1219,-18.7691,-1.58902
-539,-195,-18.7499,1.46106,-0.000538067,0.000589026,0.000637371,0.000876259,-0.0008253,1.1474,0.000982543,0.0367808,685,1219,-18.7499,-1.46104
-532,-195,-18.8936,1.46094,-0.00112406,0.000561373,0.00159316,0.00152097,-0.00208366,1.02867,0.00208957,0.0353089,692,1219,-18.8935,-1.46092
-525,-195,-18.6404,1.51184,-0.00211447,0.000297054,0.00276107,0.00210416,-0.00392158,0.991268,0.00353132,0.0378206,699,1219,-18.6404,-1.51188
-518,-195,-18.7407,1.67566,-0.0043269,-0.000554568,0.00371435,0.00172509,-0.00660655,1.02033,0.00507803,0.0391688,706,1219,-18.7407,-1.6756
-511,-195,-18.9006,1.69995,-0.00559607,-0.00156717,0.00479007,0.0016148,-0.00877804,0.984445,0.00645795,0.0417371,713,1219,-18.9006,-1.69992
-504,-195,0,0,0,0,0,0,0,0,0,-1,720,1219,0,0
-497,-195,0,0,0,0,0,0,0,0,0,-1,727,1219,0,0
-490,-195,0,0,0,0,0,0,0,0,0,-1,734,1219,0,0
-483,-195,0,0,0,0,0,0,0,0,0,-1,741,1219,0,0
-476,-195,0,0,0,0,0,0,0,0,0,-1,748,1219,0,0
-469,-195,0,0,0,0,0,0,0,0,0,-1,755,1219,0,0
-462,-195,0,0,0,0,0,0,0,0,0,-1,762,1219,0,0
-455,-195,0,0,0,0,0,0,0,0,0,-1,769,1219,0,0
-448,-195,0,0,0,0,0,0,0,0,0,-1,776,1219,0,0
-441,-195,0,0,0,0,0,0,0,0,0,-1,783,1219,0,0
-434,-195,0,0,0,0,0,0,0,0,0,-1,790,1219,0,0
-427,-195,0,0,0,0,0,0,0,0,0,-1,797,1219,0,0
-420,-195,0,0,0,0,0,0,0,0,0,-1,804,1219,0,0
-413,-195,0,0,0,0,0,0,0,0,0,-1,811,1219,0,0
-406,-195,0,0,0,0,0,0,0,0,0,-1,818,1219,0,0
-399,-195,0,0,0,0,0,0,0,0,0,-1,825,1219,0,0
-392,-195,0,0,0,0,0,0,0,0,0,-1,832,1219,0,0
-385,-195,0,0,0,0,0,0,0,0,0,-1,839,1219,0,0
-378,-195,0,0,0,0,0,0,0,0,0,-1,846,1219,0,0
-371,-195,0,0,0,0,0,0,0,0,0,-1,853,1219,0,0
-364,-195,0,0,0,0,0,0,0,0,0,-1,860,1219,0,0
-357,-195,0,0,0,0,0,0,0,0,0,-1,867,1219,0,0
-350,-195,0,0,0,0,0,0,0,0,0,-1,874,1219,0,0
-343,-195,0,0,0,0,0,0,0,0,0,-1,881,1219,0,0
-336,-195,0,0,0,0,0,0,0,0,0,-1,888,1219,0,0
-329,-195,0,0,0,0,0,0,0,0,0,-1,895,1219,0,0
-322,-195,0,0,0,0,0,0,0,0,0,-1,902,1219,0,0
-315,-195,0,0,0,0,0,0,0,0,0,-1,909,1219,0,0
-308,-195,0,0,0,0,0,0,0,0,0,-1,916,1219,0,0
-301,-195,0,0,0,0,0,0,0,0,0,-1,923,1219,0,0
-294,-195,0,0,0,0,0,0,0,0,0,-1,930,1219,0,0
-287,-195,0,0,0,0,0,0,0,0,0,-1,937,1219,0,0
-280,-195,0,0,0,0,0,0,0,0,0,-1,944,1219,0,0
-273,-195,0,0,0,0,0,0,0,0,0,-1,951,1219,0,0
-266,-195,0,0,0,0,0,0,0,0,0,-1,958,1219,0,0
-259,-195,0,0,0,0,0,0,0,0,0,-1,965,1219,0,0
-252,-195,0,0,0,0,0,0,0,0,0,-1,972,1219,0,0
-245,-195,0,0,0,0,0,0,0,0,0,-1,979,1219,0,0
-238,-195,0,0,0,0,0,0,0,0,0,-1,986,1219,0,0
-231,-195,0,0,0,0,0,0,0,0,0,-1,993,1219,0,0
-224,-195,0,0,0,0,0,0,0,0,0,-1,1000,1219,0,0
-217,-195,0,0,0,0,0,0,0,0,0,-1,1007,1219,0,0
-210,-195,0,0,0,0,0,0,0,0,0,-1,1014,1219,0,0
-203,-195,0,0,0,0,0,0,0,0,0,-1,1021,1219,0,0
-196,-195,0,0,0,0,0,0,0,0,0,-1,1028,1219,0,0
-189,-195,0,0,0,0,0,0,0,0,0,-1,1035,1219,0,0
-182,-195,0,0,0,0,0,0,0,0,0,-1,1042,1219,0,0
-175,-195,0,0,0,0,0,0,0,0,0,-1,1049,1219,0,0
-168,-195,0,0,0,0,0,0,0,0,0,-1,1056,1219,0,0
-161,-195,0,0,0,0,0,0,0,0,0,-1,1063,1219,0,0
-154,-195,0,0,0,0,0,0,0,0,0,-1,1070,1219,0,0
-147,-195,0,0,0,0,0,0,0,0,0,-1,1077,1219,0,0
-140,-195,0,0,0,0,0,0,0,0,0,-1,1084,1219,0,0
-133,-195,0,0,0,0,0,0,0,0,0,-1,1091,1219,0,0
-126,-195,0,0,0,0,0,0,0,0,0,-1,1098,1219,0,0
-119,-195,0,0,0,0,0,0,0,0,0,-1,1105,1219,0,0
-112,-195,0,0,0,0,0,0,0,0,0,-1,1112,1219,0,0
-105,-195,0,0,0,0,0,0,0,0,0,-1,1119,1219,0,0
-98,-195,0,0,0,0,0,0,0,0,0,-1,1126,1219,0,0
-91,-195,0,0,0,0,0,0,0,0,0,-1,1133,1219,0,0
-84,-195,0,0,0,0,0,0,0,0,0,-1,1140,1219,0,0
-77,-195,0,0,0,0,0,0,0,0,0,-1,1147,1219,0,0
-70,-195,0,0,0,0,0,0,0,0,0,-1,1154,1219,0,0
-63,-195,0,0,0,0,0,0,0,0,0,-1,1161,1219,0,0
-56,-195,0,0,0,0,0,0,0,0,0,-1,1168,1219,0,0
-49,-195,0,0,0,0,0,0,0,0,0,-1,1175,1219,0,0
-42,-195,0,0,0,0,0,0,0,0,0,-1,1182,1219,0,0
-35,-195,0,0,0,0,0,0,0,0,0,-1,1189,1219,0,0
-28,-195,0,0,0,0,0,0,0,0,0,-1,1196,1219,0,0
-21,-195,0,0,0,0,0,0,0,0,0,-1,1203,1219,0,0
-14,-195,0,0,0,0,0,0,0,0,0,-1,1210,1219,0,0
-7,-195,0,0,0,0,0,0,0,0,0,-1,1217,1219,0,0
0,-195,0,0,0,0,0,0,0,0,0,-1,1224,1219,0,0
7,-195,0,0,0,0,0,0,0,0,0,-1,1231,1219,0,0
14,-195,0,0,0,0,0,0,0,0,0,-1,1238,1219,0,0
21,-195,0,0,0,0,0,0,0,0,0,-1,1245,1219,0,0
28,-195,0,0,0,0,0,0,0,0,0,-1,1252,1219,0,0
35,-195,0,0,0,0,0,0,0,0,0,-1,1259,1219,0,0
42,-195,0,0,0,0,0,0,0,0,0,-1,1266,1219,0,0
49,-195,0,0,0,0,0,0,0,0,0,-1,1273,1219,0,0
56,-195,0,0,0,0,0,0,0,0,0,-1,1280,1219,0,0
63,-195,0,0,0,0,0,0,0,0,0,-1,1287,1219,0,0
70,-195,0,0,0,0,0,0,0,0,0,-1,1294,1219,0,0
77,-195,0,0,0,0,0,0,0,0,0,-1,1301,1219,0,0
84,-195,0,0,0,0,0,0,0,0,0,-1,1308,1219,0,0
91,-195,0,0,0,0,0,0,0,0,0,-1,1315,1219,0,0
98,-195,0,0,0,0,0,0,0,0,0,-1,1322,1219,0,0
105,-195,0,0,0,0,0,0,0,0,0,-1,1329,1219,0,0
112,-195,0,0,0,0,0,0,0,0,0,-1,1336,1219,0,0
119,-195,0,0,0,0,0,0,0,0,0,-1,1343,1219,0,0
126,-195,0,0,0,0,0,0,0,0,0,-1,1350,1219,0,0
133,-195,0,0,0,0,0,0,0,0,0,-1,1357,1219,0,0
140,-195,0,0,0,0,0,0,0,0,0,-1,1364,1219,0,0
147,-195,0,0,0,0,0,0,0,0,0,-1,1371,1219,0,0
154,-195,0,0,0,0,0,0,0,0,0,-1,1378,1219,0,0
161,-195,0,0,0,0,0,0,0,0,0,-1,1385,1219,0,0
168,-195,0,0,0,0,0,0,0,0,0,-1,1392,1219,0,0
175,-195,0,0,0,0,0,0,0,0,0,-1,1399,1219,0,0
182,-195,0,0,0,0,0,0,0,0,0,-1,1406,1219,0,0
189,-195,0,0,0,0,0,0,0,0,0,-1,1413,1219,0,0
196,-195,0,0,0,0,0,0,0,0,0,-1,1420,1219,0,0
203,-195,0,0,0,0,0,0,0,0,0,-1,1427,1219,0,0
210,-195,0,0,0,0,0,0,0,0,0,-1,1434,1219,0,0
217,-195,0,0,0,0,0,0,0,0,0,-1,1441,1219,0,0
224,-195,0,0,0,0,0,0,0,0,0,-1,1448,1219,0,0
231,-195,0,0,0,0,0,0,0,0,0,-1,1455,1219,0,0
238,-195,0,0,0,0,0,0,0,0,0,-1,1462,1219,0,0
245,-195,0,0,0,0,0,0,0,0,0,-1,1469,1219,0,0
252,-195,0,0,0,0,0,0,0,0,0,-1,1476,1219,0,0
259,-195,0,0,0,0,0,0,0,0,0,-1,1483,1219,0,0
266,-195,0,0,0,0,0,0,0,0,0,-1,1490,1219,0,0
273,-195,0,0,0,0,0,0,0,0,0,-1,1497,1219,0,0
280,-195,0,0,0,0,0,0,0,0,0,-1,1504,1219,0,0
287,-195,0,0,0,0,0,0,0,0,0,-1,1511,1219,0,0
294,-195,0,0,0,0,0,0,0,0,0,-1,1518,1219,0,0
301,-195,0,0,0,0,0,0,0,0,0,-1,1525,1219,0,0
308,-195,0,0,0,0,0,0,0,0,0,-1,1532,1219,0,0
315,-195,0,0,0,0,0,0,0,0,0,-1,1539,1219,0,0
322,-195,0,0,0,0,0,0,0,0,0,-1,1546,1219,0,0
329,-195,0,0,0,0,0,0,0,0,0,-1,1553,1219,0,0
336,-195,0,0,0,0,0,0,0,0,0,-1,1560,1219,0,0
343,-195,0,0,0,0,0,0,0,0,0,-1,1567,1219,0,0
350,-195,0,0,0,0,0,0,0,0,0,-1,1574,1219,0,0
357,-195,0,0,0,0,0,0,0,0,0,-1,1581,1219,0,0
364,-195,0,0,0,0,0,0,0,0,0,-1,1588,1219,0,0
371,-195,0,0,0,0,0,0,0,0,0,-1,1595,1219,0,0
378,-195,0,0,0,0,0,0,0,0,0,-1,1602,1219,0,0
385,-195,0,0,0,0,0,0,0,0,0,-1,1609,1219,0,0
392,-195,0,0,0,0,0,0,0,0,0,-1,1616,1219,0,0
399,-195,0,0,0,0,0,0,0,0,0,-1,1623,1219,0,0
406,-195,0,0,0,0,0,0,0,0,0,-1,1630,1219,0,0
413,-195,0,0,0,0,0,0,0,0,0,-1,1637,1219,0,0
420,-195,0,0,0,0,0,0,0,0,0,-1,1644,1219,0,0
427,-195,0,0,0,0,0,0,0,0,0,-1,1651,1219,0,0
434,-195,0,0,0,0,0,0,0,0,0,-1,1658,1219,0,0
441,-195,0,0,0,0,0,0,0,0,0,-1,1665,1219,0,0
448,-195,0,0,0,0,0,0,0,0,0,-1,1672,1219,0,0
455,-195,0,0,0,0,0,0,0,0,0,-1,1679,1219,0,0
462,-195,0,0,0,0,0,0,0,0,0,-1,1686,1219,0,0
469,-195,0,0,0,0,0,0,0,0,0,-1,1693,1219,0,0
476,-195,0,0,0,0,0,0,0,0,0,-1,1700,1219,0,0
483,-195,0,0,0,0,0,0,0,0,0,-1,1707,1219,0,0
490,-195,0,0,0,0,0,0,0,0,0,-1,1714,1219,0,0
497,-195,0,0,0,0,0,0,0,0,0,-1,1721,1219,0,0
504,-195,0,0,0,0,0,0,0,0,0,-1,1728,1219,0,0
511,-195,0,0,0,0,0,0,0,0,0,-1,1735,1219,0,0
518,-195,0,0,0,0,0,0,0,0,0,-1,1742,1219,0,0
525,-195,0,0,0,0,0,0,0,0,0,-1,1749,1219,0,0
532,-195,0,0,0,0,0,0,0,0,0,-1,1756,1219,0,0
539,-195,0,0,0,0,0,0,0,0,0,-1,1763,1219,0,0
546,-195,0,0,0,0,0,0,0,0,0,-1,1770,1219,0,0
553,-195,0,0,0,0,0,0,0,0,0,-1,1777,1219,0,0
560,-195,0,0,0,0,0,0,0,0,0,-1,1784,1219,0,0
567,-195,0,0,0,0,0,0,0,0,0,-1,1791,1219,0,0
574,-195,0,0,0,0,0,0,0,0,0,-1,1798,1219,0,0
581,-195,0,0,0,0,0,0,0,0,0,-1,1805,1219,0,0
588,-195,0,0,0,0,0,0,0,0,0,-1,1812,1219,0,0
595,-195,0,0,0,0,0,0,0,0,0,-1,1819,1219,0,0
602,-195,0,0,0,0,0,0,0,0,0,-1,1826,1219,0,0
609,-195,0,0,0,0,0,0,0,0,0,-1,1833,1219,0,0
616,-195,0,0,0,0,0,0,0,0,0,-1,1840,1219,0,0
623,-195,0,0,0,0,0,0,0,0,0,-1,1847,1219,0,0
630,-195,27.3066,3.5238,-0.00206901,0.0027545,-0.00508219,0.00596815,-0.00528266,-1.00694,0.00649968,0.041596,1854,1219,27.3066,-3.52386
637,-195,27.3179,3.46899,-0.00153757,0.0023112,-0.00277056,0.00376013,-0.0029865,-1.08894,0.0039037,0.0402234,1861,1219,27.3179,-3.46901
644,-195,27.3092,3.3634,-0.000850503,0.00159814,-0.000270539,0.00162767,-0.000880038,-1.46206,0.00146912,0.0341459,1868,1219,27.3092,-3.36337
651,-195,27.2635,3.36597,2.2056e-05,0.00065498,0.0019564,0.00232035,-0.00164332,0.865582,0.00229953,0.0260844,1875,1219,27.2636,-3.36602
658,-195,27.3121,3.36096,0.000942543,-0.000292066,0.00326667,0.00364973,-0.00299925,0.692014,0.00384491,0.0243147,1882,1219,27.3122,-3.36101
665,-195,27.3374,3.34241,0.00160111,-0.00103565,0.00385538,0.0043573,-0.00379183,0.620652,0.00470868,0.0232923,1889,1219,27.3374,-3.34245
672,-195,27.3926,3.25989,0.00181579,-0.00162583,0.00404993,0.00449534,-0.00430537,0.584506,0.00508149,0.035551,1896,1219,27.3925,-3.25987
679,-195,27.5398,3.47498,0.00180465,-0.00195092,0.00409273,0.00442981,-0.00457609,0.57032,0.00519978,0.0491291,1903,1219,27.5398,-3.47493
686,-195,27.7274,3.64526,0,0,0,0,0,0,0,-1,1910,1219,27.7275,-3.64531
693,-195,23.8571,6.23914,0,0,0,0,0,0,0,-1,1917,1219,23.8571,-6.23912
700,-195,23.7468,6.32458,0.00159915,-0.00252964,0.00355303,0.00364398,-0.00457447,0.522224,0.00475505,0.0484456,1924,1219,23.7468,-6.32461
707,-195,23.6031,6.33752,0.0014544,-0.00253525,0.00313754,0.00317757,-0.00425842,0.502236,0.00430826,0.0213925,1931,1219,23.6031,-6.33753
714,-195,23.5862,6.09692,0.00113314,-0.00243477,0.00268848,0.0025757,-0.00387733,0.492475,0.00375084,0.0203054,1938,1219,23.5862,-6.09688
721,-195,23.5872,5.90918,0.00114531,-0.00186259,0.00191801,0.0020787,-0.00279597,0.452906,0.00282453,0.0129966,1945,1219,23.5872,-5.90917
728,-195,23.5806,5.69653,0.00196397,-0.000806494,0.000660016,0.00211317,-0.000955697,0.222322,0.00181333,0.0103835,1952,1219,23.5805,-5.69649
735,-195,23.5647,5.47888,0.00368971,-0.000412583,-0.000346956,0.00371885,-0.00044172,-0.0837831,0.00263882,0.0120289,1959,1219,23.5647,-5.47891
742,-195,23.568,5.27576,0.0069905,-0.000545711,-0.00182378,0.00740865,-0.000963867,-0.225385,0.00528974,0.0137458,1966,1219,23.568,-5.27581
749,-195,23.5662,5.07031,0.0114559,-0.000766219,-0.00373772,0.0125083,-0.00181865,-0.274465,0.0090065,0.0135018,1973,1219,23.5662,-5.07036
756,-195,23.561,4.88843,0.0172216,-0.00151058,-0.00624055,0.0191102,-0.00339918,-0.293872,0.0140113,0.0127706,1980,1219,23.561,-4.88842
763,-195,23.5514,4.68323,0.0245115,-0.00314969,-0.00947569,0.0274462,-0.00608435,-0.300336,0.0206269,0.0141815,1987,1219,23.5514,-4.68326
770,-195,23.5867,4.44214,0.0336261,-0.00604307,-0.0137213,0.0379097,-0.0103266,-0.302596,0.0293277,0.0270375,1994,1219,23.5867,-4.44219
777,-195,24.5702,4.1311,0.0443414,-0.0107635,-0.0190766,0.050301,-0.016723,-0.302795,0.0402825,0.0466126,2001,1219,24.5702,-4.1311
784,-195,25.3467,3.86279,0,0,0,0,0,0,0,-1,2008,1219,25.3466,-3.8628
791,-195,26.0909,2.53235,0,0,0,0,0,0,0,-1,2015,1219,26.0909,-2.53231
798,-195,26.8691,2.91455,0,0,0,0,0,0,0,-1,2022,1219,26.8691,-2.91452
805,-195,0,0,0,0,0,0,0,0,0,-1,2029,1219,0,0
812,-195,0,0,0,0,0,0,0,0,0,-1,2036,1219,0,0
-700,-202,0,0,0,0,0,0,0,0,0,-1,524,1226,0,0
-693,-202,0,0,0,0,0,0,0,0,0,-1,531,1226,0,0
-686,-202,0,0,0,0,0,0,0,0,0,-1,538,1226,0,0
-679,-202,-12.6033,-3.00366,0,0,0,0,0,0,0,-1,545,1226,-12.6034,3.00366
-672,-202,-12.6749,-2.36218,-0.0605748,0.0173076,0.0266654,0.0255623,-0.0688295,1.27058,0.0563733,0.0482021,552,1226,-12.6749,2.36224
-665,-202,-12.6794,-1.77527,-0.0487869,0.0134401,0.0274877,0.0238431,-0.05919,1.20899,0.0493658,0.0471479,559,1226,-12.6794,1.77527
-658,-202,-13.1692,-0.984985,-0.0381775,0.00997378,0.0257821,0.0211735,-0.0493773,1.16099,0.0418034,0.0442494,566,1226,-13.1692,0.984966
-651,-202,-13.8616,0.158203,-0.028956,0.00708335,0.0226749,0.0180267,-0.0398994,1.12115,0.0342292,0.0447464,573,1226,-13.8616,-0.158259
-644,-202,-14.2274,1.19348,-0.0212876,0.00482095,0.0189101,0.014745,-0.0312117,1.0875,0.0270949,0.0419256,580,1226,-14.2273,-1.19344
-637,-202,-14.3198,1.76892,-0.0151369,0.00314425,0.0150079,0.011576,-0.0235687,1.05892,0.0206808,0.0327435,587,1226,-14.3198,-1.76887
-630,-202,-14.4219,2.08069,-0.0106606,0.00184183,0.0115667,0.00873851,-0.0175572,1.03314,0.0154638,0.0137245,594,1226,-14.422,-2.08069
-623,-202,-14.4695,2.3363,-0.00730825,0.000829261,0.00855389,0.00623277,-0.0127118,1.00739,0.0111488,0.00792831,601,1226,-14.4695,-2.33632
-616,-202,-14.4702,2.58252,-0.00411387,0.00085978,0.00506594,0.00401637,-0.00727045,1.01356,0.00660611,0.00849266,608,1226,-14.4701,-2.58254
-609,-202,-14.4513,2.82544,-0.00217678,0.000102143,0.00196373,0.00123306,-0.00330769,1.04828,0.00271128,0.0217391,615,1226,-14.4513,-2.82548
-602,-202,-14.4598,3.07251,-0.00130837,-0.000212857,-0.000363388,-0.000103279,-0.00141794,-1.27792,0.000912819,0.0216492,622,1226,-14.4599,-3.07247
-595,-202,-14.5139,3.3241,-0.00103005,6.0666e-05,-0.00145636,0.00107043,-0.00203981,-0.964549,0.00182454,0.0171782,629,1226,-14.5138,-3.32413
-588,-202,-14.4692,3.58167,-0.000825972,0.000396894,-0.00195325,0.00183218,-0.00226125,-0.937084,0.00236767,0.00868967,636,1226,-14.4692,-3.58165
-581,-202,-14.4771,3.73889,-0.000380444,0.000362648,-0.00209335,0.00211717,-0.00213497,-0.873228,0.00245498,0.0186092,643,1226,-14.4771,-3.73893
-574,-202,-14.6246,3.76501,0.000288911,0.000383169,-0.00175263,0.0020893,-0.00141722,-0.79884,0.00203685,0.0275311,650,1226,-14.6246,-3.76501
-567,-202,-14.756,3.77673,0,0,0,0,0,0,0,-1,657,1226,-14.756,-3.77676
-560,-202,-10.929,2.73096,0,0,0,0,0,0,0,-1,664,1226,-10.929,-2.73092
-553,-202,-18.9391,1.87048,0,0,0,0,0,0,0,-1,671,1226,-18.9391,-1.87049
-546,-202,-18.8208,1.64551,-0.000150046,0.000879444,0.000170734,0.000907021,-0.000177622,1.41066,0.000671762,0.0470142,678,1226,-18.8208,-1.64553
-539,-202,-18.7363,1.49792,-0.000603364,0.00104759,0.000825752,0.00138971,-0.000945482,1.17801,0.00135633,0.0405882,685,1226,-18.7363,-1.49796
-532,-202,-18.7474,1.41333,-0.00147454,0.00116882,0.00155079,0.00188474,-0.00219046,1.1383,0.00235502,0.0289841,692,1226,-18.7473,-1.4133
-525,-202,-18.751,1.39441,-0.00275977,0.00111904,0.00236444,0.00223772,-0.00387844,1.12888,0.00357327,0.0333991,699,1226,-18.751,-1.39444
-518,-202,-18.7489,1.51514,-0.00514561,0.0005534,0.0029243,0.00178694,-0.00637914,1.17162,0.00495696,0.038175,706,1226,-18.7489,-1.51512
-511,-202,-18.8214,1.64282,-0.00692579,-0.000344444,0.00341609,0.00110811,-0.00837834,1.16875,0.0059892,0.0428889,713,1226,-18.8214,-1.64281
-504,-202,0,0,0,0,0,0,0,0,0,-1,720,1226,0,0
-497,-202,0,0,0,0,0,0,0,0,0,-1,727,1226,0,0
-490,-202,0,0,0,0,0,0,0,0,0,-1,734,1226,0,0
-483,-202,0,0,0,0,0,0,0,0,0,-1,741,1226,0,0
-476,-202,0,0,0,0,0,0,0,0,0,-1,748,1226,0,0
-469,-202,0,0,0,0,0,0,0,0,0,-1,755,1226,0,0
-462,-202,0,0,0,0,0,0,0,0,0,-1,762,1226,0,0
-455,-202,0,0,0,0,0,0,0,0,0,-1,769,1226,0,0
-448,-202,0,0,0,0,0,0,0,0,0,-1,776,1226,0,0
-441,-202,0,0,0,0,0,0,0,0,0,-1,783,1226,0,0
-434,-202,0,0,0,0,0,0,0,0,0,-1,790,1226,0,0
-427,-202,0,0,0,0,0,0,0,0,0,-1,797,1226,0,0
-420,-202,0,0,0,0,0,0,0,0,0,-1,804,1226,0,0
-413,-202,0,0,0,0,0,0,0,0,0,-1,811,1226,0,0
-406,-202,0,0,0,0,0,0,0,0,0,-1,818,1226,0,0
-399,-202,0,0,0,0,0,0,0,0,0,-1,825,1226,0,0
-392,-202,0,0,0,0,0,0,0,0,0,-1,832,1226,0,0
-385,-202,0,0,0,0,0,0,0,0,0,-1,839,1226,0,0
-378,-202,0,0,0,0,0,0,0,0,0,-1,846,1226,0,0
-371,-202,0,0,0,0,0,0,0,0,0,-1,853,1226,0,0
-364,-202,0,0,0,0,0,0,0,0,0,-1,860,1226,0,0
-357,-202,0,0,0,0,0,0,0,0,0,-1,867,1226,0,0
-350,-202,0,0,0,0,0,0,0,0,0,-1,874,1226,0,0
-343,-202,0,0,0,0,0,0,0,0,0,-1,881,1226,0,0
-336,-202,0,0,0,0,0,0,0,0,0,-1,888,1226,0,0
-329,-202,0,0,0,0,0,0,0,0,0,-1,895,1226,0,0
-322,-202,0,0,0,0,0,0,0,0,0,-1,902,1226,0,0
-315,-202,0,0,0,0,0,0,0,0,0,-1,909,1226,0,0
-308,-202,0,0,0,0,0,0,0,0,0,-1,916,1226,0,0
-301,-202,0,0,0,0,0,0,0,0,0,-1,923,1226,0,0
-294,-202,0,0,0,0,0,0,0,0,0,-1,930,1226,0,0
-287,-202,0,0,0,0,0,0,0,0,0,-1,937,1226,0,0
-280,-202,0,0,0,0,0,0,0,0,0,-1,944,1226,0,0
-273,-202,0,0,0,0,0,0,0,0,0,-1,951,1226,0,0
-266,-202,0,0,0,0,0,0,0,0,0,-1,958,1226,0,0
-259,-202,0,0,0,0,0,0,0,0,0,-1,965,1226,0,0
-252,-202,0,0,0,0,0,0,0,0,0,-1,972,1226,0,0
-245,-202,0,0,0,0,0,0,0,0,0,-1,979,1226,0,0
-238,-202,0,0,0,0,0,0,0,0,0,-1,986,1226,0,0
-231,-202,0,0,0,0,0,0,0,0,0,-1,993,1226,0,0
-224,-202,0,0,0,0,0,0,0,0,0,-1,1000,1226,0,0
-217,-202,0,0,0,0,0,0,0,0,0,-1,1007,1226,0,0
-210,-202,0,0,0,0,0,0,0,0,0,-1,1014,1226,0,0
-203,-202,0,0,0,0,0,0,0,0,0,-1,1021,1226,0,0
-196,-202,0,0,0,0,0,0,0,0,0,-1,1028,1226,0,0
-189,-202,0,0,0,0,0,0,0,0,0,-1,1035,1226,0,0
-182,-202,0,0,0,0,0,0,0,0,0,-1,1042,1226,0,0
-175,-202,0,0,0,0,0,0,0,0,0,-1,1049,1226,0,0
-168,-202,0,0,0,0,0,0,0,0,0,-1,1056,1226,0,0
-161,-202,0,0,0,0,0,0,0,0,0,-1,1063,1226,0,0
-154,-202,0,0,0,0,0,0,0,0,0,-1,1070,1226,0,0
-147,-202,0,0,0,0,0,0,0,0,0,-1,1077,1226,0,0
-140,-202,0,0,0,0,0,0,0,0,0,-1,1084,1226,0,0
-133,-202,0,0,0,0,0,0,0,0,0,-1,1091,1226,0,0
-126,-202,0,0,0,0,0,0,0,0,0,-1,1098,1226,0,0
-119,-202,0,0,0,0,0,0,0,0,0,-1,1105,1226,0,0
-112,-202,0,0,0,0,0,0,0,0,0,-1,1112,1226,0,0
-105,-202,0,0,0,0,0,0,0,0,0,-1,1119,1226,0,0
-98,-202,0,0,0,0,0,0,0,0,0,-1,1126,1226,0,0
-91,-202,0,0,0,0,0,0,0,0,0,-1,1133,1226,0,0
-84,-202,0,0,0,0,0,0,0,0,0,-1,1140,1226,0,0
-77,-202,0,0,0,0,0,0,0,0,0,-1,1147,1226,0,0
-70,-202,0,0,0,0,0,0,0,0,0,-1,1154,1226,0,0
-63,-202,0,0,0,0,0,0,0,0,0,-1,1161,1226,0,0
-56,-202,0,0,0,0,0,0,0,0,0,-1,1168,1226,0,0
-49,-202,0,0,0,0,0,0,0,0,0,-1,1175,1226,0,0
-42,-202,0,0,0,0,0,0,0,0,0,-1,1182,1226,0,0
-35,-202,0,0,0,0,0,0,0,0,0,-1,1189,1226,0,0
-28,-202,0,0,0,0,0,0,0,0,0,-1,1196,1226,0,0
-21,-202,0,0,0,0,0,0,0,0,0,-1,1203,1226,0,0
-14,-202,0,0,0,0,0,0,0,0,0,-1,1210,1226,0,0
-7,-202,0,0,0,0,0,0,0,0,0,-1,1217,1226,0,0
0,-202,0,0,0,0,0,0,0,0,0,-1,1224,1226,0,0
7,-202,0,0,0,0,0,0,0,0,0,-1,1231,1226,0,0
14,-202,0,0,0,0,0,0,0,0,0,-1,1238,1226,0,0
21,-202,0,0,0,0,0,0,0,0,0,-1,1245,1226,0,0
28,-202,0,0,0,0,0,0,0,0,0,-1,1252,1226,0,0
35,-202,0,0,0,0,0,0,0,0,0,-1,1259,1226,0,0
42,-202,0,0,0,0,0,0,0,0,0,-1,1266,1226,0,0
49,-202,0,0,0,0,0,0,0,0,0,-1,1273,1226,0,0
56,-202,0,0,0,0,0,0,0,0,0,-1,1280,1226,0,0
63,-202,0,0,0,0,0,0,0,0,0,-1,1287,1226,0,0
70,-202,0,0,0,0,0,0,0,0,0,-1,1294,1226,0,0
77,-202,0,0,0,0,0,0,0,0,0,-1,1301,1226,0,0
84,-202,0,0,0,0,0,0,0,0,0,-1,1308,1226,0,0
91,-202,0,0,0,0,0,0,0,0,0,-1,1315,1226,0,0
98,-202,0,0,0,0,0,0,0,0,0,-1,1322,1226,0,0
105,-202,0,0,0,0,0,0,0,0,0,-1,1329,1226,0,0
112,-202,0,0,0,0,0,0,0,0,0,-1,1336,1226,0,0
119,-202,0,0,0,0,0,0,0,0,0,-1,1343,1226,0,0
126,-202,0,0,0,0,0,0,0,0,0,-1,1350,1226,0,0
133,-202,0,0,0,0,0,0,0,0,0,-1,1357,1226,0,0
140,-202,0,0,0,0,0,0,0,0,0,-1,1364,1226,0,0
147,-202,0,0,0,0,0,0,0,0,0,-1,1371,1226,0,0
154,-202,0,0,0,0,0,0,0,0,0,-1,1378,1226,0,0
161,-202,0,0,0,0,0,0,0,0,0,-1,1385,1226,0,0
168,-202,0,0,0,0,0,0,0,0,0,-1,1392,1226,0,0
175,-202,0,0,0,0,0,0,0,0,0,-1,1399,1226,0,0
182,-202,0,0,0,0,0,0,0,0,0,-1,1406,1226,0,0
189,-202,0,0,0,0,0,0,0,0,0,-1,1413,1226,0,0
196,-202,0,0,0,0,0,0,0,0,0,-1,1420,1226,0,0
203,-202,0,0,0,0,0,0,0,0,0,-1,1427,1226,0,0
210,-202,0,0,0,0,0,0,0,0,0,-1,1434,1226,0,0
217,-202,0,0,0,0,0,0,0,0,0,-1,1441,1226,0,0
224,-202,0,0,0,0,0,0,0,0,0,-1,1448,1226,0,0
231,-202,0,0,0,0,0,0,0,0,0,-1,1455,1226,0,0
238,-202,0,0,0,0,0,0,0,0,0,-1,1462,1226,0,0
245,-202,0,0,0,0,0,0,0,0,0,-1,1469,1226,0,0
252,-202,0,0,0,0,0,0,0,0,0,-1,1476,1226,0,0
259,-202,0,0,0,0,0,0,0,0,0,-1,1483,1226,0,0
266,-202,0,0,0,0,0,0,0,0,0,-1,1490,1226,0,0
273,-202,0,0,0,0,0,0,0,0,0,-1,1497,1226,0,0
280,-202,0,0,0,0,0,0,0,0,0,-1,1504,1226,0,0
287,-202,0,0,0,0,0,0,0,0,0,-1,1511,1226,0,0
294,-202,0,0,0,0,0,0,0,0,0,-1,1518,1226,0,0
301,-202,0,0,0,0,0,0,0,0,0,-1,1525,1226,0,0
308,-202,0,0,0,0,0,0,0,0,0,-1,1532,1226,0,0
315,-202,0,0,0,0,0,0,0,0,0,-1,1539,1226,0,0
322,-202,0,0,0,0,0,0,0,0,0,-1,1546,1226,0,0
329,-202,0,0,0,0,0,0,0,0,0,-1,1553,1226,0,0
336,-202,0,0,0,0,0,0,0,0,0,-1,1560,1226,0,0
343,-202,0,0,0,0,0,0,0,0,0,-1,1567,1226,0,0
350,-202,0,0,0,0,0,0,0,0,0,-1,1574,1226,0,0
357,-202,0,0,0,0,0,0,0,0,0,-1,1581,1226,0,0
364,-202,0,0,0,0,0,0,0,0,0,-1,1588,1226,0,0
371,-202,0,0,0,0,0,0,0,0,0,-1,1595,1226,0,0
378,-202,0,0,0,0,0,0,0,0,0,-1,1602,1226,0,0
385,-202,0,0,0,0,0,0,0,0,0,-1,1609,1226,0,0
392,-202,0,0,0,0,0,0,0,0,0,-1,1616,1226,0,0
399,-202,0,0,0,0,0,0,0,0,0,-1,1623,1226,0,0
406,-202,0,0,0,0,0,0,0,0,0,-1,1630,1226,0,0
413,-202,0,0,0,0,0,0,0,0,0,-1,1637,1226,0,0
420,-202,0,0,0,0,0,0,0,0,0,-1,1644,1226,0,0
427,-202,0,0,0,0,0,0,0,0,0,-1,1651,1226,0,0
434,-202,0,0,0,0,0,0,0,0,0,-1,1658,1226,0,0
441,-202,0,0,0,0,0,0,0,0,0,-1,1665,1226,0,0
448,-202,0,0,0,0,0,0,0,0,0,-1,1672,1226,0,0
455,-202,0,0,0,0,0,0,0,0,0,-1,1679,1226,0,0
462,-202,0,0,0,0,0,0,0,0,0,-1,1686,1226,0,0
469,-202,0,0,0,0,0,0,0,0,0,-1,1693,1226,0,0
476,-202,0,0,0,0,0,0,0,0,0,-1,1700,1226,0,0
483,-202,0,0,0,0,0,0,0,0,0,-1,1707,1226,0,0
490,-202,0,0,0,0,0,0,0,0,0,-1,1714,1226,0,0
497,-202,0,0,0,0,0,0,0,0,0,-1,1721,1226,0,0
504,-202,0,0,0,0,0,0,0,0,0,-1,1728,1226,0,0
511,-202,0,0,0,0,0,0,0,0,0,-1,1735,1226,0,0
518,-202,0,0,0,0,0,0,0,0,0,-1,1742,1226,0,0
525,-202,0,0,0,0,0,0,0,0,0,-1,1749,1226,0,0
532,-202,0,0,0,0,0,0,0,0,0,-1,1756,1226,0,0
539,-202,0,0,0,0,0,0,0,0,0,-1,1763,1226,0,0
546,-202,0,0,0,0,0,0,0,0,0,-1,1770,1226,0,0
553,-202,0,0,0,0,0,0,0,0,0,-1,1777,1226,0,0
560,-202,0,0,0,0,0,0,0,0,0,-1,1784,1226,0,0
567,-202,0,0,0,0,0,0,0,0,0,-1,1791,1226,0,0
574,-202,0,0,0,0,0,0,0,0,0,-1,1798,1226,0,0
581,-202,0,0,0,0,0,0,0,0,0,-1,1805,1226,0,0
588,-202,0,0,0,0,0,0,0,0,0,-1,1812,1226,0,0
595,-202,0,0,0,0,0,0,0,0,0,-1,1819,1226,0,0
602,-202,0,0,0,0,0,0,0,0,0,-1,1826,1226,0,0
609,-202,0,0,0,0,0,0,0,0,0,-1,1833,1226,0,0
616,-202,0,0,0,0,0,0,0,0,0,-1,1840,1226,0,0
623,-202,0,0,0,0,0,0,0,0,0,-1,1847,1226,0,0
630,-202,27.3181,3.38733,-0.00126032,0.0028996,-0.0048759,0.00612065,-0.00448137,-0.987002,0.00614542,0.0369936,1854,1226,27.3182,-3.3873
637,-202,27.3866,3.40393,-0.00123796,0.00253828,-0.00214344,0.00350662,-0.0022063,-1.14647,0.00332671,0.0355469,1861,1226,27.3866,-3.4039
644,-202,27.4283,3.32373,-0.000970647,0.0018234,0.000775812,0.00202436,-0.00117161,1.31733,0.00186696,0.0327541,1868,1226,27.4284,-3.32374
651,-202,27.3887,3.33423,-0.0003876,0.000825108,0.00315551,0.003432,-0.00299449,0.88032,0.0037132,0.0265116,1875,1226,27.3887,-3.33417
658,-202,27.3579,3.31812,0.000366104,-0.000132021,0.00443733,0.00456136,-0.00432727,0.757363,0.00513245,0.0238822,1882,1226,27.3579,-3.31809
665,-202,27.3954,3.31934,0.000951224,-0.000902132,0.00497655,0.00508664,-0.00503755,0.693348,0.00584523,0.0234304,1889,1226,27.3954,-3.31936
672,-202,27.5403,3.40564,0.001186,-0.00151596,0.00509292,0.00510408,-0.00543404,0.655751,0.00608518,0.0462303,1896,1226,27.5403,-3.4057
679,-202,27.6807,3.67432,0,0,0,0,0,0,0,-1,1903,1226,27.6807,-3.67427
686,-202,27.3898,3.9917,0,0,0,0,0,0,0,-1,1910,1226,27.3897,-3.99166
693,-202,23.1897,6.84204,0,0,0,0,0,0,0,-1,1917,1226,23.1897,-6.8421
700,-202,23.2395,6.56519,0.00144567,-0.00257765,0.00427141,0.00415542,-0.0052874,0.565325,0.00546486,0.0363288,1924,1226,23.2395,-6.5652
707,-202,23.3169,6.25745,0.00136305,-0.00262208,0.00370369,0.00357615,-0.00483519,0.538609,0.00487439,0.0297836,1931,1226,23.3169,-6.25749
714,-202,23.3553,6.06653,0.00111109,-0.00254824,0.0030976,0.00287903,-0.00431619,0.518632,0.00418169,0.017528,1938,1226,23.3554,-6.06651
721,-202,23.3746,5.89233,0.00122553,-0.00187313,0.00211387,0.00229705,-0.00294465,0.469153,0.00303399,0.0130368,1945,1226,23.3747,-5.89236
728,-202,23.364,5.68567,0.00216963,-0.000685411,0.000666485,0.00231755,-0.000833333,0.218403,0.00188524,0.0103839,1952,1226,23.3641,-5.68566
735,-202,23.3475,5.48157,0.00409307,-0.000339209,-0.000472592,0.0041429,-0.000389039,-0.105052,0.00290032,0.0103073,1959,1226,23.3476,-5.4816
742,-202,23.3519,5.27295,0.00750328,-0.000650532,-0.0021053,0.00801478,-0.00116203,-0.238339,0.00576967,0.00985525,1966,1226,23.352,-5.27293
749,-202,23.3466,5.0697,0.0120313,-0.00107561,-0.00416549,0.0132431,-0.00228741,-0.283099,0.00968169,0.00974146,1973,1226,23.3465,-5.06975
756,-202,23.3379,4.87976,0.0178762,-0.00212673,-0.00684785,0.0199959,-0.00424642,-0.300187,0.0149485,0.0105686,1980,1226,23.3379,-4.87978
763,-202,23.3396,4.68481,0.0253771,-0.00423044,-0.0103721,0.0286491,-0.00750238,-0.305576,0.0220302,0.0149316,1987,1226,23.3396,-4.6848
770,-202,23.3948,4.46399,0.0347505,-0.00780783,-0.0149899,0.0395002,-0.0125575,-0.30685,0.0313687,0.0377093,1994,1226,23.3948,-4.46394
777,-202,24.9807,3.75171,0.0457614,-0.013451,-0.0208027,0.0523392,-0.0200288,-0.30625,0.0431475,0.0459465,2001,1226,24.9807,-3.75172
784,-202,25.7954,3.36719,0.0581372,-0.0217986,-0.0278843,0.0669029,-0.0305643,-0.304579,0.0575616,0.0448743,2008,1226,25.7954,-3.36714
791,-202,26.4353,3.14832,0.071506,-0.0336583,-0.0364356,0.082896,-0.0450483,-0.302982,0.0749382,0.0453259,2015,1226,26.4353,-3.1483
798,-202,26.6558,3.14502,0,0,0,0,0,0,0,-1,2022,1226,26.6557,-3.14505
805,-202,0,0,0,0,0,0,0,0,0,-1,2029,1226,0,0
812,-202,0,0,0,0,0,0,0,0,0,-1,2036,1226,0,0
-700,-209,0,0,0,0,0,0,0,0,0,-1,524,1233,0,0
-693,-209,0,0,0,0,0,0,0,0,0,-1,531,1233,0,0
-686,-209,0,0,0,0,0,0,0,0,0,-1,538,1233,0,0
-679,-209,-11.4976,-2.82178,-0.0789146,0.00749098,0.0352816,0.020067,-0.0914906,1.22839,0.0686672,0.0455786,545,1233,-11.4976,2.82183
-672,-209,-12.3204,-2.15381,-0.0633583,0.00378559,0.0372864,0.0203868,-0.0799596,1.15191,0.0612437,0.0475565,552,1233,-12.3204,2.15375
-665,-209,-12.9212,-1.35413,-0.0498066,0.000980072,0.0354964,0.0192309,-0.0680574,1.09588,0.0529589,0.0447183,559,1233,-12.9212,1.35407
-658,-209,-13.5447,-0.557495,-0.0380859,-0.000916595,0.0316878,0.0172344,-0.0562369,1.05061,0.0443663,0.0467697,566,1233,-13.5448,0.557527
-651,-209,-14.2314,1.05774,0,0,0,0,0,0,0,-1,573,1233,-14.2314,-1.05769
-644,-209,-14.2446,1.28369,-0.0202023,-0.00249816,0.0219525,0.0123198,-0.0350203,0.977045,0.02836,0.0464463,580,1233,-14.2446,-1.28364
-637,-209,-14.0281,1.60608,-0.0139461,-0.00250066,0.0171584,0.00986414,-0.0263109,0.94636,0.0215932,0.0437419,587,1233,-14.0282,-1.60609
-630,-209,-14.1183,1.99036,-0.00947531,-0.00231615,0.0130193,0.0076067,-0.0193982,0.919555,0.0160791,0.0234697,594,1233,-14.1183,-1.99031
-623,-209,-14.2084,2.31897,-0.00625335,-0.00214822,0.00951399,0.0055321,-0.0139337,0.891641,0.0115822,0.0116165,601,1233,-14.2084,-2.31903
-616,-209,-14.2188,2.57764,-0.00316612,-0.00108329,0.0057837,0.00375201,-0.00800142,0.874474,0.0069321,0.0123263,608,1233,-14.2188,-2.57763
-609,-209,-14.2222,2.82471,-0.00123975,-0.000924928,0.00253798,0.00146052,-0.0036252,0.816369,0.0030236,0.0145956,615,1233,-14.2221,-2.82473
-602,-209,-14.2287,3.0863,-0.000486856,-0.000728172,0.000149873,-0.000415108,-0.00079992,0.446486,0.000461945,0.0170069,622,1233,-14.2287,-3.08626
-595,-209,-14.2054,3.33704,-0.000337104,-5.62781e-05,-0.000894161,0.000708427,-0.00110181,-0.863279,0.00105333,0.0133174,629,1233,-14.2054,-3.33698
-588,-209,-14.1906,3.59045,-6.9936e-05,0.000416451,-0.00134718,0.00154221,-0.0011957,-0.874697,0.00158495,0.013789,636,1233,-14.1905,-3.5904
-581,-209,-14.1251,3.84705,0.000487731,0.000378986,-0.00150827,0.00194261,-0.00107589,-0.767381,0.00176652,0.0192266,643,1233,-14.1251,-3.84706
-574,-209,-14.2782,4.00586,0.00120559,0.000463637,-0.00119291,0.00208387,-0.000414645,-0.634645,0.00154611,0.025722,650,1233,-14.2782,-4.00591
-567,-209,-14.4168,4.03687,0,0,0,0,0,0,0,-1,657,1233,-14.4168,-4.03685
-560,-209,-13.9294,4.16626,0,0,0,0,0,0,0,-1,664,1233,-13.9294,-4.16621
-553,-209,-19.22,1.61462,0,0,0,0,0,0,0,-1,671,1233,-19.2201,-1.61466
-546,-209,-18.9615,1.49402,8.34064e-05,0.00132709,0.000681195,0.00162759,-0.000217093,1.15534,0.00116419,0.047511,678,1233,-18.9616,-1.494
-539,-209,-18.7851,1.35242,-0.000672732,0.00164502,0.00120684,0.0021593,-0.00118701,1.16796,0.00195899,0.0382969,685,1233,-18.7851,-1.35244
-532,-209,-18.7157,1.48608,-0.00186416,0.00195748,0.00171782,0.00261612,-0.0025228,1.20467,0.00296712,0.0318521,692,1233,-18.7157,-1.48602
-525,-209,-18.8114,1.51843,-0.00346516,0.0021584,0.00221758,0.00292765,-0.00423442,1.2369,0.0041579,0.0346741,699,1233,-18.8114,-1.51844
-518,-209,-18.8793,1.55579,-0.00602582,0.00194692,0.00242744,0.00262784,-0.00670674,1.29732,0.00555818,0.0415621,706,1233,-18.8793,-1.55578
-511,-209,-18.9238,1.55029,-0.0083101,0.00120796,0.00236765,0.00176439,-0.00886654,1.33997,0.0065785,0.0414184,713,1233,-18.9238,-1.55033
-504,-209,0,0,0,0,0,0,0,0,0,-1,720,1233,0,0
-497,-209,0,0,0,0,0,0,0,0,0,-1,727,1233,0,0
-490,-209,0,0,0,0,0,0,0,0,0,-1,734,1233,0,0
-483,-209,0,0,0,0,0,0,0,0,0,-1,741,1233,0,0
-476,-209,0,0,0,0,0,0,0,0,0,-1,748,1233,0,0
-469,-209,0,0,0,0,0,0,0,0,0,-1,755,1233,0,0
-462,-209,0,0,0,0,0,0,0,0,0,-1,762,1233,0,0
-455,-209,0,0,0,0,0,0,0,0,0,-1,769,1233,0,0
-448,-209,0,0,0,0,0,0,0,0,0,-1,776,1233,0,0
-441,-209,0,0,0,0,0,0,0,0,0,-1,783,1233,0,0
-434,-209,0,0,0,0,0,0,0,0,0,-1,790,1233,0,0
-427,-209,0,0,0,0,0,0,0,0,0,-1,797,1233,0,0
-420,-209,0,0,0,0,0,0,0,0,0,-1,804,1233,0,0
-413,-209,0,0,0,0,0,0,0,0,0,-1,811,1233,0,0
-406,-209,0,0,0,0,0,0,0,0,0,-1,818,1233,0,0
-399,-209,0,0,0,0,0,0,0,0,0,-1,825,1233,0,0
-392,-209,0,0,0,0,0,0,0,0,0,-1,832,1233,0,0
-385,-209,0,0,0,0,0,0,0,0,0,-1,839,1233,0,0
-378,-209,0,0,0,0,0,0,0,0,0,-1,846,1233,0,0
-371,-209,0,0,0,0,0,0,0,0,0,-1,853,1233,0,0
-364,-209,0,0,0,0,0,0,0,0,0,-1,860,1233,0,0
-357,-209,0,0,0,0,0,0,0,0,0,-1,867,1233,0,0
-350,-209,0,0,0,0,0,0,0,0,0,-1,874,1233,0,0
-343,-209,0,0,0,0,0,0,0,0,0,-1,881,1233,0,0
-336,-209,0,0,0,0,0,0,0,0,0,-1,888,1233,0,0
-329,-209,0,0,0,0,0,0,0,0,0,-1,895,1233,0,0
-322,-209,0,0,0,0,0,0,0,0,0,-1,902,1233,0,0
-315,-209,0,0,0,0,0,0,0,0,0,-1,909,1233,0,0
-308,-209,0,0,0,0,0,0,0,0,0,-1,916,1233,0,0
-301,-209,0,0,0,0,0,0,0,0,0,-1,923,1233,0,0
-294,-209,0,0,0,0,0,0,0,0,0,-1,930,1233,0,0
-287,-209,0,0,0,0,0,0,0,0,0,-1,937,1233,0,0
-280,-209,0,0,0,0,0,0,0,0,0,-1,944,1233,0,0
-273,-209,0,0,0,0,0,0,0,0,0,-1,951,1233,0,0
-266,-209,0,0,0,0,0,0,0,0,0,-1,958,1233,0,0
-259,-209,0,0,0,0,0,0,0,0,0,-1,965,1233,0,0
-252,-209,0,0,0,0,0,0,0,0,0,-1,972,1233,0,0
-245,-209,0,0,0,0,0,0,0,0,0,-1,979,1233,0,0
-238,-209,0,0,0,0,0,0,0,0,0,-1,986,1233,0,0
-231,-209,0,0,0,0,0,0,0,0,0,-1,993,1233,0,0
-224,-209,0,0,0,0,0,0,0,0,0,-1,1000,1233,0,0
-217,-209,0,0,0,0,0,0,0,0,0,-1,1007,1233,0,0
-210,-209,0,0,0,0,0,0,0,0,0,-1,1014,1233,0,0
-203,-209,0,0,0,0,0,0,0,0,0,-1,1021,1233,0,0
-196,-209,0,0,0,0,0,0,0,0,0,-1,1028,1233,0,0
-189,-209,0,0,0,0,0,0,0,0,0,-1,1035,1233,0,0
-182,-209,0,0,0,0,0,0,0,0,0,-1,1042,1233,0,0
-175,-209,0,0,0,0,0,0,0,0,0,-1,1049,1233,0,0
-168,-209,0,0,0,0,0,0,0,0,0,-1,1056,1233,0,0
-161,-209,0,0,0,0,0,0,0,0,0,-1,1063,1233,0,0
-154,-209,0,0,0,0,0,0,0,0,0,-1,1070,1233,0,0
-147,-209,0,0,0,0,0,0,0,0,0,-1,1077,1233,0,0
-140,-209,0,0,0,0,0,0,0,0,0,-1,1084,1233,0,0
-133,-209,0,0,0,0,0,0,0,0,0,-1,1091,1233,0,0
-126,-209,0,0,0,0,0,0,0,0,0,-1,1098,1233,0,0
-119,-209,0,0,0,0,0,0,0,0,0,-1,1105,1233,0,0
-112,-209,0,0,0,0,0,0,0,0,0,-1,1112,1233,0,0
-105,-209,0,0,0,0,0,0,0,0,0,-1,1119,1233,0,0
-98,-209,0,0,0,0,0,0,0,0,0,-1,1126,1233,0,0
-91,-209,0,0,0,0,0,0,0,0,0,-1,1133,1233,0,0
-84,-209,0,0,0,0,0,0,0,0,0,-1,1140,1233,0,0
-77,-209,0,0,0,0,0,0,0,0,0,-1,1147,1233,0,0
-70,-209,0,0,0,0,0,0,0,0,0,-1,1154,1233,0,0
-63,-209,0,0,0,0,0,0,0,0,0,-1,1161,1233,0,0
-56,-209,0,0,0,0,0,0,0,0,0,-1,1168,1233,0,0
-49,-209,0,0,0,0,0,0,0,0,0,-1,1175,1233,0,0
-42,-209,0,0,0,0,0,0,0,0,0,-1,1182,1233,0,0
-35,-209,0,0,0,0,0,0,0,0,0,-1,1189,1233,0,0
-28,-209,0,0,0,0,0,0,0,0,0,-1,1196,1233,0,0
-21,-209,0,0,0,0,0,0,0,0,0,-1,1203,1233,0,0
-14,-209,0,0,0,0,0,0,0,0,0,-1,1210,1233,0,0
-7,-209,0,0,0,0,0,0,0,0,0,-1,1217,1233,0,0
0,-209,0,0,0,0,0,0,0,0,0,-1,1224,1233,0,0
7,-209,0,0,0,0,0,0,0,0,0,-1,1231,1233,0,0
14,-209,0,0,0,0,0,0,0,0,0,-1,1238,1233,0,0
21,-209,0,0,0,0,0,0,0,0,0,-1,1245,1233,0,0
28,-209,0,0,0,0,0,0,0,0,0,-1,1252,1233,0,0
35,-209,0,0,0,0,0,0,0,0,0,-1,1259,1233,0,0
42,-209,0,0,0,0,0,0,0,0,0,-1,1266,1233,0,0
49,-209,0,0,0,0,0,0,0,0,0,-1,1273,1233,0,0
56,-209,0,0,0,0,0,0,0,0,0,-1,1280,1233,0,0
63,-209,0,0,0,0,0,0,0,0,0,-1,1287,1233,0,0
70,-209,0,0,0,0,0,0,0,0,0,-1,1294,1233,0,0
77,-209,0,0,0,0,0,0,0,0,0,-1,1301,1233,0,0
84,-209,0,0,0,0,0,0,0,0,0,-1,1308,1233,0,0
91,-209,0,0,0,0,0,0,0,0,0,-1,1315,1233,0,0
98,-209,0,0,0,0,0,0,0,0,0,-1,1322,1233,0,0
105,-209,0,0,0,0,0,0,0,0,0,-1,1329,1233,0,0
112,-209,0,0,0,0,0,0,0,0,0,-1,1336,1233,0,0
119,-209,0,0,0,0,0,0,0,0,0,-1,1343,1233,0,0
126,-209,0,0,0,0,0,0,0,0,0,-1,1350,1233,0,0
133,-209,0,0,0,0,0,0,0,0,0,-1,1357,1233,0,0
140,-209,0,0,0,0,0,0,0,0,0,-1,1364,1233,0,0
147,-209,0,0,0,0,0,0,0,0,0,-1,1371,1233,0,0
154,-209,0,0,0,0,0,0,0,0,0,-1,1378,1233,0,0
161,-209,0,0,0,0,0,0,0,0,0,-1,1385,1233,0,0
168,-209,0,0,0,0,0,0,0,0,0,-1,1392,1233,0,0
175,-209,0,0,0,0,0,0,0,0,0,-1,1399,1233,0,0
182,-209,0,0,0,0,0,0,0,0,0,-1,1406,1233,0,0
189,-209,0,0,0,0,0,0,0,0,0,-1,1413,1233,0,0
196,-209,0,0,0,0,0,0,0,0,0,-1,1420,1233,0,0
203,-209,0,0,0,0,0,0,0,0,0,-1,1427,1233,0,0
210,-209,0,0,0,0,0,0,0,0,0,-1,1434,1233,0,0
217,-209,0,0,0,0,0,0,0,0,0,-1,1441,1233,0,0
224,-209,0,0,0,0,0,0,0,0,0,-1,1448,1233,0,0
231,-209,0,0,0,0,0,0,0,0,0,-1,1455,1233,0,0
238,-209,0,0,0,0,0,0,0,0,0,-1,1462,1233,0,0
245,-209,0,0,0,0,0,0,0,0,0,-1,1469,1233,0,0
252,-209,0,0,0,0,0,0,0,0,0,-1,1476,1233,0,0
259,-209,0,0,0,0,0,0,0,0,0,-1,1483,1233,0,0
266,-209,0,0,0,0,0,0,0,0,0,-1,1490,1233,0,0
273,-209,0,0,0,0,0,0,0,0,0,-1,1497,1233,0,0
280,-209,0,0,0,0,0,0,0,0,0,-1,1504,1233,0,0
287,-209,0,0,0,0,0,0,0,0,0,-1,1511,1233,0,0
294,-209,0,0,0,0,0,0,0,0,0,-1,1518,1233,0,0
301,-209,0,0,0,0,0,0,0,0,0,-1,1525,1233,0,0
308,-209,0,0,0,0,0,0,0,0,0,-1,1532,1233,0,0
315,-209,0,0,0,0,0,0,0,0,0,-1,1539,1233,0,0
322,-209,0,0,0,0,0,0,0,0,0,-1,1546,1233,0,0
329,-209,0,0,0,0,0,0,0,0,0,-1,1553,1233,0,0
336,-209,0,0,0,0,0,0,0,0,0,-1,1560,1233,0,0
343,-209,0,0,0,0,0,0,0,0,0,-1,1567,1233,0,0
350,-209,0,0,0,0,0,0,0,0,0,-1,1574,1233,0,0
357,-209,0,0,0,0,0,0,0,0,0,-1,1581,1233,0,0
364,-209,0,0,0,0,0,0,0,0,0,-1,1588,1233,0,0
371,-209,0,0,0,0,0,0,0,0,0,-1,1595,1233,0,0
378,-209,0,0,0,0,0,0,0,0,0,-1,1602,1233,0,0
385,-209,0,0,0,0,0,0,0,0,0,-1,1609,1233,0,0
392,-209,0,0,0,0,0,0,0,0,0,-1,1616,1233,0,0
399,-209,0,0,0,0,0,0,0,0,0,-1,1623,1233,0,0
406,-209,0,0,0,0,0,0,0,0,0,-1,1630,1233,0,0
413,-209,0,0,0,0,0,0,0,0,0,-1,1637,1233,0,0
420,-209,0,0,0,0,0,0,0,0,0,-1,1644,1233,0,0
427,-209,0,0,0,0,0,0,0,0,0,-1,1651,1233,0,0
434,-209,0,0,0,0,0,0,0,0,0,-1,1658,1233,0,0
441,-209,0,0,0,0,0,0,0,0,0,-1,1665,1233,0,0
448,-209,0,0,0,0,0,0,0,0,0,-1,1672,1233,0,0
455,-209,0,0,0,0,0,0,0,0,0,-1,1679,1233,0,0
462,-209,0,0,0,0,0,0,0,0,0,-1,1686,1233,0,0
469,-209,0,0,0,0,0,0,0,0,0,-1,1693,1233,0,0
476,-209,0,0,0,0,0,0,0,0,0,-1,1700,1233,0,0
483,-209,0,0,0,0,0,0,0,0,0,-1,1707,1233,0,0
490,-209,0,0,0,0,0,0,0,0,0,-1,1714,1233,0,0
497,-209,0,0,0,0,0,0,0,0,0,-1,1721,1233,0,0
504,-209,0,0,0,0,0,0,0,0,0,-1,1728,1233,0,0
511,-209,0,0,0,0,0,0,0,0,0,-1,1735,1233,0,0
518,-209,0,0,0,0,0,0,0,0,0,-1,1742,1233,0,0
525,-209,0,0,0,0,0,0,0,0,0,-1,1749,1233,0,0
532,-209,0,0,0,0,0,0,0,0,0,-1,1756,1233,0,0
539,-209,0,0,0,0,0,0,0,0,0,-1,1763,1233,0,0
546,-209,0,0,0,0,0,0,0,0,0,-1,1770,1233,0,0
553,-209,0,0,0,0,0,0,0,0,0,-1,1777,1233,0,0
560,-209,0,0,0,0,0,0,0,0,0,-1,1784,1233,0,0
567,-209,0,0,0,0,0,0,0,0,0,-1,1791,1233,0,0
574,-209,0,0,0,0,0,0,0,0,0,-1,1798,1233,0,0
581,-209,0,0,0,0,0,0,0,0,0,-1,1805,1233,0,0
588,-209,0,0,0,0,0,0,0,0,0,-1,1812,1233,0,0
595,-209,0,0,0,0,0,0,0,0,0,-1,1819,1233,0,0
602,-209,0,0,0,0,0,0,0,0,0,-1,1826,1233,0,0
609,-209,0,0,0,0,0,0,0,0,0,-1,1833,1233,0,0
616,-209,0,0,0,0,0,0,0,0,0,-1,1840,1233,0,0
623,-209,27.3059,3.23376,0.000286624,0.00272357,-0.00702243,0.00863245,-0.00562225,-0.871299,0.0082909,0.0332539,1847,1233,27.3059,-3.23376
630,-209,27.2699,3.24829,-0.000899702,0.00315492,-0.00436011,0.00593599,-0.00368077,-1.00301,0.0056029,0.0336208,1854,1233,27.2699,-3.24825
637,-209,27.3441,3.27454,-0.00155501,0.00305256,-0.00122499,0.00335799,-0.00186045,-1.32644,0.00305394,0.0330682,1861,1233,27.3441,-3.27449
644,-209,27.3879,3.26147,-0.00175442,0.0024829,0.00196142,0.00325144,-0.00252296,1.19736,0.00334268,0.0301354,1868,1233,27.3879,-3.26153
651,-209,27.3918,3.2959,-0.0013916,0.00151073,0.00430462,0.00460221,-0.00448308,0.947975,0.00524555,0.0253591,1875,1233,27.3918,-3.29585
658,-209,27.3577,3.32996,-0.00071421,0.000549519,0.00546796,0.005422,-0.00558669,0.842922,0.00635611,0.0233277,1882,1233,27.3577,-3.33
665,-209,27.572,3.48364,-0.000110865,-0.000259075,0.00590785,0.00572334,-0.00609328,0.779127,0.00682344,0.0395375,1889,1233,27.572,-3.48365
672,-209,27.6276,3.45654,0,0,0,0,0,0,0,-1,1896,1233,27.6276,-3.45658
679,-209,27.7107,3.62354,0,0,0,0,0,0,0,-1,1903,1233,27.7107,-3.62348
686,-209,25.5172,2.09302,0,0,0,0,0,0,0,-1,1910,1233,25.5172,-2.09303
693,-209,22.9983,7.01282,0,0,0,0,0,0,0,-1,1917,1233,22.9982,-7.01284
700,-209,23.0432,6.64697,0.0012078,-0.0024006,0.00480307,0.00453436,-0.00572715,0.605735,0.00593781,0.0312312,1924,1233,23.0432,-6.64702
707,-209,23.1067,6.30286,0.00120759,-0.00250336,0.00405519,0.00381164,-0.00510741,0.570838,0.00516749,0.024822,1931,1233,23.1067,-6.30281
714,-209,23.1333,6.11108,0.00104742,-0.00247144,0.00326215,0.00299436,-0.00441838,0.538084,0.00430599,0.0136855,1938,1233,23.1333,-6.11104
721,-209,23.1401,5.89294,0.00126798,-0.00174193,0.00206078,0.00231483,-0.00278878,0.470017,0.0029508,0.0121904,1945,1233,23.1402,-5.89297
728,-209,23.1664,5.68921,0.002235,-0.000473908,0.000482465,0.00231836,-0.000557271,0.171097,0.00176097,0.0124721,1952,1233,23.1664,-5.68922
735,-209,23.1506,5.49182,0.00416764,-0.000194189,-0.000726199,0.00428537,-0.000311916,-0.160716,0.00296636,0.0134866,1959,1233,23.1507,-5.49179
742,-209,23.1411,5.28821,0.00739978,-0.00063613,-0.00243044,0.00807767,-0.00131402,-0.272005,0.00587233,0.0107458,1966,1233,23.1411,-5.28819
749,-209,23.1328,5.07947,0.0116323,-0.00116891,-0.0045403,0.0130791,-0.00261573,-0.308488,0.00970949,0.00928656,1973,1233,23.1328,-5.07947
756,-209,23.123,4.8634,0.0171444,-0.0023804,-0.00729904,0.0195714,-0.00480736,-0.321003,0.0149106,0.00996092,1980,1233,23.123,-4.8634
763,-209,23.1068,4.68225,0.0243087,-0.00472804,-0.010974,0.0279895,-0.0084089,-0.323624,0.0220049,0.0160745,1987,1233,23.1068,-4.68229
770,-209,23.2798,4.41113,0.0332441,-0.00866422,-0.0157824,0.0385228,-0.0139429,-0.322768,0.0313796,0.0409924,1994,1233,23.2797,-4.41109
777,-209,23.4924,4.1311,0,0,0,0,0,0,0,-1,2001,1233,23.4925,-4.13114
784,-209,26.1666,3.97791,0.0555554,-0.0238029,-0.0292149,0.0651504,-0.033398,-0.317331,0.057873,0.0453716,2008,1233,26.1666,-3.97787
791,-209,26.4252,3.66077,0.0684307,-0.0365164,-0.0380935,0.0807999,-0.0488857,-0.313968,0.075626,0.0440757,2015,1233,26.4251,-3.6608
798,-209,26.7939,3.27075,0,0,0,0,0,0,0,-1,2022,1233,26.794,-3.27076
805,-209,0,0,0,0,0,0,0,0,0,-1,2029,1233,0,0
812,-209,0,0,0,0,0,0,0,0,0,-1,2036,1233,0,0
-700,-216,0,0,0,0,0,0,0,0,0,-1,524,1240,0,0
-693,-216,0,0,0,0,0,0,0,0,0,-1,531,1240,0,0
-686,-216,0,0,0,0,0,0,0,0,0,-1,538,1240,0,0
-679,-216,-11.6693,-2.20459,0,0,0,0,0,0,0,-1,545,1240,-11.6693,2.20457
-672,-216,-12.6948,-1.59998,0,0,0,0,0,0,0,-1,552,1240,-12.6947,1.59997
-665,-216,-13.1092,-1.2467,0,0,0,0,0,0,0,-1,559,1240,-13.1092,1.24675
-658,-216,-13.9661,-0.00390625,0,0,0,0,0,0,0,-1,566,1240,-13.9661,0.00395883
-651,-216,-14.209,1.2218,0,0,0,0,0,0,0,-1,573,1240,-14.209,-1.22176
-644,-216,-13.9119,1.58337,-0.0180089,-0.0105533,0.0240186,0.010025,-0.0385872,0.862386,0.0296372,0.0496399,580,1240,-13.9119,-1.58337
-637,-216,-13.7803,1.75391,-0.0117504,-0.00851411,0.0184428,0.00838144,-0.0286459,0.829155,0.0224196,0.0441059,587,1240,-13.7803,-1.75391
-630,-216,-13.8767,1.96399,-0.00741585,-0.00658631,0.0136994,0.00670459,-0.0207067,0.800532,0.0164998,0.0288632,594,1240,-13.8767,-1.96401
-623,-216,-13.9396,2.30713,-0.00447289,-0.00505184,0.00988375,0.00512563,-0.0146504,0.770758,0.0118509,0.0128524,601,1240,-13.9397,-2.30716
-616,-216,-13.9763,2.57178,-0.00165549,-0.00295919,0.00608884,0.00381629,-0.00843097,0.732073,0.00723634,0.0140403,608,1240,-13.9763,-2.57179
-609,-216,-13.9867,2.82031,0.000122864,-0.0019331,0.00287109,0.00214446,-0.00395469,0.613486,0.00357267,0.0135557,615,1240,-13.9867,-2.82033
-602,-216,-13.9629,3.06909,0.000579436,-0.00121545,0.000569384,0.00074482,-0.00138084,0.282683,0.00124543,0.0129635,622,1240,-13.9629,-3.06906
-595,-216,-13.9374,3.31958,0.000487387,-0.000112186,-0.000331977,0.000634905,-0.000259703,-0.418154,0.000531428,0.0179849,629,1240,-13.9374,-3.31961
-588,-216,-13.9362,3.60657,0.000745393,0.000527946,-0.000682394,0.00132767,-5.43314e-05,-0.706399,0.000903768,0.0202167,636,1240,-13.9362,-3.60656
-581,-216,-13.9305,3.88379,0.00136855,0.000515732,-0.000775477,0.00182712,5.71606e-05,-0.534029,0.00119948,0.0190982,643,1240,-13.9305,-3.88379
-574,-216,-13.941,4.23303,0.00209009,0.000669871,-0.000411723,0.00220082,0.000559144,-0.262718,0.00132088,0.0246143,650,1240,-13.9411,-4.23298
-567,-216,-14.1031,4.58887,0.00186821,0.000999403,0.00019252,0.00190896,0.000958653,0.208585,0.00110214,0.0389663,657,1240,-14.1031,-4.5889
-560,-216,-14.3404,5.06506,0,0,0,0,0,0,0,-1,664,1240,-14.3404,-5.06503
-553,-216,-14.5433,1.39502,0,0,0,0,0,0,0,-1,671,1240,-14.5434,-1.395
-546,-216,-18.9624,1.43372,0,0,0,0,0,0,0,-1,678,1240,-18.9624,-1.43377
-539,-216,-19.0182,1.33459,-0.000770352,0.00243011,0.00184248,0.00327026,-0.00161051,1.14297,0.00287171,0.041056,685,1240,-19.0182,-1.33459
-532,-216,-18.6821,1.53821,-0.00227598,0.00292407,0.00219208,0.00372483,-0.00307675,1.22056,0.00393283,0.0436695,692,1240,-18.6821,-1.53827
-525,-216,-18.7866,1.63293,-0.00422152,0.00335476,0.00245704,0.00408182,-0.00494858,1.2831,0.00522171,0.0413079,699,1240,-18.7866,-1.63299
-518,-216,-18.9591,1.74365,-0.00704485,0.00348959,0.0024055,0.00401288,-0.00756814,1.35659,0.00679052,0.0405473,706,1240,-18.9591,-1.74362
-511,-216,-19.0341,1.75623,-0.0099291,0.00303251,0.00199071,0.00333136,-0.010228,1.42179,0.00815903,0.0410833,713,1240,-19.0341,-1.75621
-504,-216,-18.8623,1.64172,-0.0101085,0.0017376,0.00226625,0.00215635,-0.0105273,1.38808,0.0078365,0.0398343,720,1240,-18.8623,-1.64167
-497,-216,0,0,0,0,0,0,0,0,0,-1,727,1240,0,0
-490,-216,0,0,0,0,0,0,0,0,0,-1,734,1240,0,0
-483,-216,0,0,0,0,0,0,0,0,0,-1,741,1240,0,0
-476,-216,0,0,0,0,0,0,0,0,0,-1,748,1240,0,0
-469,-216,0,0,0,0,0,0,0,0,0,-1,755,1240,0,0
-462,-216,0,0,0,0,0,0,0,0,0,-1,762,1240,0,0
-455,-216,0,0,0,0,0,0,0,0,0,-1,769,1240,0,0
-448,-216,0,0,0,0,0,0,0,0,0,-1,776,1240,0,0
-441,-216,0,0,0,0,0,0,0,0,0,-1,783,1240,0,0
-434,-216,0,0,0,0,0,0,0,0,0,-1,790,1240,0,0
-427,-216,0,0,0,0,0,0,0,0,0,-1,797,1240,0,0
-420,-216,0,0,0,0,0,0,0,0,0,-1,804,1240,0,0
-413,-216,0,0,0,0,0,0,0,0,0,-1,811,1240,0,0
-406,-216,0,0,0,0,0,0,0,0,0,-1,818,1240,0,0
-399,-216,0,0,0,0,0,0,0,0,0,-1,825,1240,0,0
-392,-216,0,0,0,0,0,0,0,0,0,-1,832,1240,0,0
-385,-216,0,0,0,0,0,0,0,0,0,-1,839,1240,0,0
-378,-216,0,0,0,0,0,0,0,0,0,-1,846,1240,0,0
-371,-216,0,0,0,0,0,0,0,0,0,-1,853,1240,0,0
-364,-216,0,0,0,0,0,0,0,0,0,-1,860,1240,0,0
-357,-216,0,0,0,0,0,0,0,0,0,-1,867,1240,0,0
-350,-216,0,0,0,0,0,0,0,0,0,-1,874,1240,0,0
-343,-216,0,0,0,0,0,0,0,0,0,-1,881,1240,0,0
-336,-216,0,0,0,0,0,0,0,0,0,-1,888,1240,0,0
-329,-216,0,0,0,0,0,0,0,0,0,-1,895,1240,0,0
-322,-216,0,0,0,0,0,0,0,0,0,-1,902,1240,0,0
-315,-216,0,0,0,0,0,0,0,0,0,-1,909,1240,0,0
-308,-216,0,0,0,0,0,0,0,0,0,-1,916,1240,0,0
-301,-216,0,0,0,0,0,0,0,0,0,-1,923,1240,0,0
-294,-216,0,0,0,0,0,0,0,0,0,-1,930,1240,0,0
-287,-216,0,0,0,0,0,0,0,0,0,-1,937,1240,0,0
-280,-216,0,0,0,0,0,0,0,0,0,-1,944,1240,0,0
-273,-216,0,0,0,0,0,0,0,0,0,-1,951,1240,0,0
-266,-216,0,0,0,0,0,0,0,0,0,-1,958,1240,0,0
-259,-216,0,0,0,0,0,0,0,0,0,-1,965,1240,0,0
-252,-216,0,0,0,0,0,0,0,0,0,-1,972,1240,0,0
-245,-216,0,0,0,0,0,0,0,0,0,-1,979,1240,0,0
-238,-216,0,0,0,0,0,0,0,0,0,-1,986,1240,0,0
-231,-216,0,0,0,0,0,0,0,0,0,-1,993,1240,0,0
-224,-216,0,0,0,0,0,0,0,0,0,-1,1000,1240,0,0
-217,-216,0,0,0,0,0,0,0,0,0,-1,1007,1240,0,0
-210,-216,0,0,0,0,0,0,0,0,0,-1,1014,1240,0,0
-203,-216,0,0,0,0,0,0,0,0,0,-1,1021,1240,0,0
-196,-216,0,0,0,0,0,0,0,0,0,-1,1028,1240,0,0
-189,-216,0,0,0,0,0,0,0,0,0,-1,1035,1240,0,0
-182,-216,0,0,0,0,0,0,0,0,0,-1,1042,1240,0,0
-175,-216,0,0,0,0,0,0,0,0,0,-1,1049,1240,0,0
-168,-216,0,0,0,0,0,0,0,0,0,-1,1056,1240,0,0
-161,-216,0,0,0,0,0,0,0,0,0,-1,1063,1240,0,0
-154,-216,0,0,0,0,0,0,0,0,0,-1,1070,1240,0,0
-147,-216,0,0,0,0,0,0,0,0,0,-1,1077,1240,0,0
-140,-216,0,0,0,0,0,0,0,0,0,-1,1084,1240,0,0
-133,-216,0,0,0,0,0,0,0,0,0,-1,1091,1240,0,0
-126,-216,0,0,0,0,0,0,0,0,0,-1,1098,1240,0,0
-119,-216,0,0,0,0,0,0,0,0,0,-1,1105,1240,0,0
-112,-216,0,0,0,0,0,0,0,0,0,-1,1112,1240,0,0
-105,-216,0,0,0,0,0,0,0,0,0,-1,1119,1240,0,0
-98,-216,0,0,0,0,0,0,0,0,0,-1,1126,1240,0,0
-91,-216,0,0,0,0,0,0,0,0,0,-1,1133,1240,0,0
-84,-216,0,0,0,0,0,0,0,0,0,-1,1140,1240,0,0
-77,-216,0,0,0,0,0,0,0,0,0,-1,1147,1240,0,0
-70,-216,0,0,0,0,0,0,0,0,0,-1,1154,1240,0,0
-63,-216,0,0,0,0,0,0,0,0,0,-1,1161,1240,0,0
-56,-216,0,0,0,0,0,0,0,0,0,-1,1168,1240,0,0
-49,-216,0,0,0,0,0,0,0,0,0,-1,1175,1240,0,0
-42,-216,0,0,0,0,0,0,0,0,0,-1,1182,1240,0,0
-35,-216,0,0,0,0,0,0,0,0,0,-1,1189,1240,0,0
-28,-216,0,0,0,0,0,0,0,0,0,-1,1196,1240,0,0
-21,-216,0,0,0,0,0,0,0,0,0,-1,1203,1240,0,0
-14,-216,0,0,0,0,0,0,0,0,0,-1,1210,1240,0,0
-7,-216,0,0,0,0,0,0,0,0,0,-1,1217,1240,0,0
0,-216,0,0,0,0,0,0,0,0,0,-1,1224,1240,0,0
7,-216,0,0,0,0,0,0,0,0,0,-1,1231,1240,0,0
14,-216,0,0,0,0,0,0,0,0,0,-1,1238,1240,0,0
21,-216,0,0,0,0,0,0,0,0,0,-1,1245,1240,0,0
28,-216,0,0,0,0,0,0,0,0,0,-1,1252,1240,0,0
35,-216,0,0,0,0,0,0,0,0,0,-1,1259,1240,0,0
42,-216,0,0,0,0,0,0,0,0,0,-1,1266,1240,0,0
49,-216,0,0,0,0,0,0,0,0,0,-1,1273,1240,0,0
56,-216,0,0,0,0,0,0,0,0,0,-1,1280,1240,0,0
63,-216,0,0,0,0,0,0,0,0,0,-1,1287,1240,0,0
70,-216,0,0,0,0,0,0,0,0,0,-1,1294,1240,0,0
77,-216,0,0,0,0,0,0,0,0,0,-1,1301,1240,0,0
84,-216,0,0,0,0,0,0,0,0,0,-1,1308,1240,0,0
91,-216,0,0,0,0,0,0,0,0,0,-1,1315,1240,0,0
98,-216,0,0,0,0,0,0,0,0,0,-1,1322,1240,0,0
105,-216,0,0,0,0,0,0,0,0,0,-1,1329,1240,0,0
112,-216,0,0,0,0,0,0,0,0,0,-1,1336,1240,0,0
119,-216,0,0,0,0,0,0,0,0,0,-1,1343,1240,0,0
126,-216,0,0,0,0,0,0,0,0,0,-1,1350,1240,0,0
133,-216,0,0,0,0,0,0,0,0,0,-1,1357,1240,0,0
140,-216,0,0,0,0,0,0,0,0,0,-1,1364,1240,0,0
147,-216,0,0,0,0,0,0,0,0,0,-1,1371,1240,0,0
154,-216,0,0,0,0,0,0,0,0,0,-1,1378,1240,0,0
161,-216,0,0,0,0,0,0,0,0,0,-1,1385,1240,0,0
168,-216,0,0,0,0,0,0,0,0,0,-1,1392,1240,0,0
175,-216,0,0,0,0,0,0,0,0,0,-1,1399,1240,0,0
182,-216,0,0,0,0,0,0,0,0,0,-1,1406,1240,0,0
189,-216,0,0,0,0,0,0,0,0,0,-1,1413,1240,0,0
196,-216,0,0,0,0,0,0,0,0,0,-1,1420,1240,0,0
203,-216,0,0,0,0,0,0,0,0,0,-1,1427,1240,0,0
210,-216,0,0,0,0,0,0,0,0,0,-1,1434,1240,0,0
217,-216,0,0,0,0,0,0,0,0,0,-1,1441,1240,0,0
224,-216,0,0,0,0,0,0,0,0,0,-1,1448,1240,0,0
231,-216,0,0,0,0,0,0,0,0,0,-1,1455,1240,0,0
238,-216,0,0,0,0,0,0,0,0,0,-1,1462,1240,0,0
245,-216,0,0,0,0,0,0,0,0,0,-1,1469,1240,0,0
252,-216,0,0,0,0,0,0,0,0,0,-1,1476,1240,0,0
259,-216,0,0,0,0,0,0,0,0,0,-1,1483,1240,0,0
266,-216,0,0,0,0,0,0,0,0,0,-1,1490,1240,0,0
273,-216,0,0,0,0,0,0,0,0,0,-1,1497,1240,0,0
280,-216,0,0,0,0,0,0,0,0,0,-1,1504,1240,0,0
287,-216,0,0,0,0,0,0,0,0,0,-1,1511,1240,0,0
294,-216,0,0,0,0,0,0,0,0,0,-1,1518,1240,0,0
301,-216,0,0,0,0,0,0,0,0,0,-1,1525,1240,0,0
308,-216,0,0,0,0,0,0,0,0,0,-1,1532,1240,0,0
315,-216,0,0,0,0,0,0,0,0,0,-1,1539,1240,0,0
322,-216,0,0,0,0,0,0,0,0,0,-1,1546,1240,0,0
329,-216,0,0,0,0,0,0,0,0,0,-1,1553,1240,0,0
336,-216,0,0,0,0,0,0,0,0,0,-1,1560,1240,0,0
343,-216,0,0,0,0,0,0,0,0,0,-1,1567,1240,0,0
350,-216,0,0,0,0,0,0,0,0,0,-1,1574,1240,0,0
357,-216,0,0,0,0,0,0,0,0,0,-1,1581,1240,0,0
364,-216,0,0,0,0,0,0,0,0,0,-1,1588,1240,0,0
371,-216,0,0,0,0,0,0,0,0,0,-1,1595,1240,0,0
378,-216,0,0,0,0,0,0,0,0,0,-1,1602,1240,0,0
385,-216,0,0,0,0,0,0,0,0,0,-1,1609,1240,0,0
392,-216,0,0,0,0,0,0,0,0,0,-1,1616,1240,0,0
399,-216,0,0,0,0,0,0,0,0,0,-1,1623,1240,0,0
406,-216,0,0,0,0,0,0,0,0,0,-1,1630,1240,0,0
413,-216,0,0,0,0,0,0,0,0,0,-1,1637,1240,0,0
420,-216,0,0,0,0,0,0,0,0,0,-1,1644,1240,0,0
427,-216,0,0,0,0,0,0,0,0,0,-1,1651,1240,0,0
434,-216,0,0,0,0,0,0,0,0,0,-1,1658,1240,0,0
441,-216,0,0,0,0,0,0,0,0,0,-1,1665,1240,0,0
448,-216,0,0,0,0,0,0,0,0,0,-1,1672,1240,0,0
455,-216,0,0,0,0,0,0,0,0,0,-1,1679,1240,0,0
462,-216,0,0,0,0,0,0,0,0,0,-1,1686,1240,0,0
469,-216,0,0,0,0,0,0,0,0,0,-1,1693,1240,0,0
476,-216,0,0,0,0,0,0,0,0,0,-1,1700,1240,0,0
483,-216,0,0,0,0,0,0,0,0,0,-1,1707,1240,0,0
490,-216,0,0,0,0,0,0,0,0,0,-1,1714,1240,0,0
497,-216,0,0,0,0,0,0,0,0,0,-1,1721,1240,0,0
504,-216,0,0,0,0,0,0,0,0,0,-1,1728,1240,0,0
511,-216,0,0,0,0,0,0,0,0,0,-1,1735,1240,0,0
518,-216,0,0,0,0,0,0,0,0,0,-1,1742,1240,0,0
525,-216,0,0,0,0,0,0,0,0,0,-1,1749,1240,0,0
532,-216,0,0,0,0,0,0,0,0,0,-1,1756,1240,0,0
539,-216,0,0,0,0,0,0,0,0,0,-1,1763,1240,0,0
546,-216,0,0,0,0,0,0,0,0,0,-1,1770,1240,0,0
553,-216,0,0,0,0,0,0,0,0,0,-1,1777,1240,0,0
560,-216,0,0,0,0,0,0,0,0,0,-1,1784,1240,0,0
567,-216,0,0,0,0,0,0,0,0,0,-1,1791,1240,0,0
574,-216,0,0,0,0,0,0,0,0,0,-1,1798,1240,0,0
581,-216,0,0,0,0,0,0,0,0,0,-1,1805,1240,0,0
588,-216,0,0,0,0,0,0,0,0,0,-1,1812,1240,0,0
595,-216,0,0,0,0,0,0,0,0,0,-1,1819,1240,0,0
602,-216,0,0,0,0,0,0,0,0,0,-1,1826,1240,0,0
609,-216,0,0,0,0,0,0,0,0,0,-1,1833,1240,0,0
616,-216,0,0,0,0,0,0,0,0,0,-1,1840,1240,0,0
623,-216,27.3269,3.2561,0.000477814,0.00288763,-0.00633485,0.00813114,-0.0047657,-0.879377,0.00753003,0.0389441,1847,1240,27.3269,-3.25613
630,-216,27.2894,3.20398,-0.00115226,0.00346564,-0.00344744,0.00530592,-0.00299254,-1.08047,0.00485278,0.0360003,1854,1240,27.2895,-3.20393
637,-216,27.3275,3.26501,-0.00237013,0.0035319,3.6751e-05,0.00353213,-0.00237036,1.56457,0.00342974,0.0303863,1861,1240,27.3275,-3.26498
644,-216,27.3848,3.26086,-0.00288262,0.00307261,0.00330027,0.00453998,-0.00434999,1.15242,0.00513302,0.0258236,1868,1240,27.3847,-3.26082
651,-216,27.3877,3.2948,-0.00261889,0.00215444,0.0054282,0.00569749,-0.00616194,0.992517,0.00684879,0.0246682,1875,1240,27.3877,-3.2948
658,-216,27.3962,3.37927,-0.00196439,0.0012344,0.00640238,0.00623414,-0.00696413,0.907799,0.00762391,0.0367826,1882,1240,27.3962,-3.37932
665,-216,27.5243,3.39929,-0.001311,0.000432923,0.00672879,0.00634601,-0.00722409,0.849832,0.00784017,0.0468898,1889,1240,27.5243,-3.39926
672,-216,27.8124,3.54004,-0.000859222,-0.000270581,0.00665593,0.00609753,-0.00722734,0.807493,0.00770233,0.0472362,1896,1240,27.8124,-3.54003
679,-216,28.0763,3.6449,0,0,0,0,0,0,0,-1,1903,1240,28.0762,-3.64493
686,-216,21.5172,6.19458,0,0,0,0,0,0,0,-1,1910,1240,21.5172,-6.19453
693,-216,22.9359,6.88672,0,0,0,0,0,0,0,-1,1917,1240,22.9359,-6.88671
700,-216,22.8933,6.67078,0.000889567,-0.0020632,0.00526612,0.00488234,-0.00605597,0.648729,0.00632734,0.0257039,1924,1240,22.8934,-6.67075
707,-216,22.9177,6.37061,0.00100165,-0.00221672,0.0043352,0.00401668,-0.00523176,0.607685,0.00535493,0.0197114,1931,1240,22.9177,-6.37058
714,-216,22.949,6.11072,0.000966765,-0.00222602,0.00335424,0.00308513,-0.00434439,0.563294,0.00430992,0.0138375,1938,1240,22.9489,-6.11067
721,-216,22.9425,5.91772,0.0012992,-0.00147558,0.00196104,0.002314,-0.00249039,0.477535,0.00277444,0.0127304,1945,1240,22.9426,-5.91771
728,-216,22.969,5.70056,0.00225666,-0.000218586,0.00031557,0.00229626,-0.000258185,0.12483,0.00162376,0.0116202,1952,1240,22.969,-5.70051
735,-216,22.975,5.48889,0.00410909,-5.71512e-05,-0.000924333,0.00430496,-0.000253018,-0.208812,0.00295792,0.0111092,1959,1240,22.975,-5.48892
742,-216,22.9379,5.30737,0.00707071,-0.0006592,-0.00264603,0.0078897,-0.00147819,-0.300165,0.00581549,0.0111118,1966,1240,22.9379,-5.30733
749,-216,22.9338,5.07092,0.0109195,-0.00133904,-0.00474505,0.0125416,-0.00296112,-0.329393,0.00950315,0.00897601,1973,1240,22.9338,-5.0709
756,-216,22.9188,4.84229,0.0160075,-0.00275829,-0.00752089,0.0186497,-0.00540047,-0.337844,0.0145708,0.00903585,1980,1240,22.9188,-4.84224
763,-216,22.9054,4.61755,0.0226739,-0.00538729,-0.011271,0.0266404,-0.00935372,-0.338379,0.0215653,0.0141688,1987,1240,22.9055,-4.6175
770,-216,23.011,4.2301,0.0309366,-0.00969038,-0.0161644,0.0365832,-0.015337,-0.336071,0.0308013,0.0376043,1994,1240,23.011,-4.23005
777,-216,23.1357,3.83264,0,0,0,0,0,0,0,-1,2001,1240,23.1357,-3.83266
784,-216,26.332,4.32385,0.0512983,-0.025847,-0.0298822,0.0615191,-0.0360677,-0.329561,0.0569769,0.0467498,2008,1240,26.332,-4.32388
791,-216,26.5404,4.0365,0.0628402,-0.0391525,-0.0389135,0.0759912,-0.0523035,-0.325905,0.0744907,0.0469351,2015,1240,26.5405,-4.03652
798,-216,0,0,0,0,0,0,0,0,0,-1,2022,1240,0,0
805,-216,0,0,0,0,0,0,0,0,0,-1,2029,1240,0,0
812,-216,0,0,0,0,0,0,0,0,0,-1,2036,1240,0,0
-700,-223,0,0,0,0,0,0,0,0,0,-1,524,1247,0,0
-693,-223,0,0,0,0,0,0,0,0,0,-1,531,1247,0,0
-686,-223,0,0,0,0,0,0,0,0,0,-1,538,1247,0,0
-679,-223,0,0,0,0,0,0,0,0,0,-1,545,1247,0,0
-672,-223,-12.7167,-2.24817,-0.06858,-0.0312682,0.0563293,0.0094142,-0.109262,0.94531,0.0761738,0.0477804,552,1247,-12.7167,2.24814
-665,-223,-13.4407,-1.49475,-0.0487183,-0.0293249,0.0479865,0.00993487,-0.087978,0.885091,0.0622285,0.0476576,559,1247,-13.4407,1.49471
-658,-223,-13.9775,-0.685669,-0.0336807,-0.0259988,0.0396889,0.0100346,-0.069714,0.833636,0.0501566,0.0465049,566,1247,-13.9775,0.685646
-651,-223,-14.5925,0.284546,0,0,0,0,0,0,0,-1,573,1247,-14.5925,-0.284538
-644,-223,-13.4905,1.84644,0,0,0,0,0,0,0,-1,580,1247,-13.4906,-1.84647
-637,-223,-13.5663,2.23645,-0.00813212,-0.0140671,0.0189956,0.0081264,-0.0303257,0.707914,0.0234011,0.0450143,587,1247,-13.5664,-2.23641
-630,-223,-13.6907,2.14307,-0.00430339,-0.0105396,0.0139581,0.00688062,-0.0217236,0.675507,0.0172399,0.0377983,594,1247,-13.6907,-2.14304
-623,-223,-13.7056,2.29504,-0.0019456,-0.00773948,0.0100261,0.00559367,-0.0152788,0.644758,0.0124756,0.0211079,601,1247,-13.7056,-2.29505
-616,-223,-13.7422,2.573,0.000366822,-0.00473977,0.00629635,0.00460789,-0.00898083,0.59277,0.00797971,0.0158998,608,1247,-13.7422,-2.57295
-609,-223,-13.7437,2.82495,0.00181559,-0.00294499,0.00316018,0.00339163,-0.00452103,0.462621,0.00458386,0.0119272,615,1247,-13.7437,-2.82501
-602,-223,-13.7165,3.073,0.00181122,-0.00174379,0.000967728,0.00205758,-0.00199015,0.249279,0.00233706,0.0137066,622,1247,-13.7165,-3.07303
-595,-223,-13.7089,3.32288,0.00135867,-0.000207662,0.000192119,0.00138189,-0.000230882,0.12028,0.00100708,0.0185589,629,1247,-13.7089,-3.32292
-588,-223,-13.7148,3.61194,0.0015235,0.000562831,-0.000104041,0.00153464,0.000551692,-0.106653,0.000897609,0.0211388,636,1247,-13.7148,-3.61195
-581,-223,-13.7261,3.87109,0.00218193,0.000532415,-0.000197861,0.00220533,0.000509014,-0.117726,0.00133334,0.0208984,643,1247,-13.7261,-3.87106
-574,-223,-13.6895,4.11755,0.00292843,0.000780998,0.00014286,0.0029379,0.000771536,0.0661374,0.00175876,0.0184004,650,1247,-13.6895,-4.11757
-567,-223,-13.4366,4.54785,0.00255055,0.00120695,0.000751945,0.00288709,0.000870416,0.420815,0.00171009,0.0283587,657,1247,-13.4366,-4.54784
-560,-223,-13.2423,4.9978,0,0,0,0,0,0,0,-1,664,1247,-13.2423,-4.99775
-553,-223,-11.4025,4.14722,0,0,0,0,0,0,0,-1,671,1247,-11.4025,-4.14719
-546,-223,-19.3769,1.01245,0,0,0,0,0,0,0,-1,678,1247,-19.3769,-1.01241
-539,-223,-18.9117,1.50183,0,0,0,0,0,0,0,-1,685,1247,-18.9117,-1.50182
-532,-223,-18.6197,1.51941,0,0,0,0,0,0,0,-1,692,1247,-18.6197,-1.51943
-525,-223,-18.7483,1.59131,0,0,0,0,0,0,0,-1,699,1247,-18.7483,-1.59134
-518,-223,-18.6885,1.4917,-0.00791231,0.00507027,0.0022447,0.00544742,-0.00828946,1.40433,0.00798737,0.0405988,706,1247,-18.6886,-1.49173
-511,-223,-18.971,1.75781,-0.011143,0.00514953,0.00159056,0.00530335,-0.0112968,1.47438,0.00979012,0.0408253,713,1247,-18.971,-1.7578
-504,-223,-18.9303,1.65356,-0.0120617,0.00429458,0.00135251,0.00440566,-0.0121728,1.48885,0.00991558,0.040595,720,1247,-18.9303,-1.65361
-497,-223,0,0,0,0,0,0,0,0,0,-1,727,1247,0,0
-490,-223,0,0,0,0,0,0,0,0,0,-1,734,1247,0,0
-483,-223,0,0,0,0,0,0,0,0,0,-1,741,1247,0,0
-476,-223,0,0,0,0,0,0,0,0,0,-1,748,1247,0,0
-469,-223,0,0,0,0,0,0,0,0,0,-1,755,1247,0,0
-462,-223,0,0,0,0,0,0,0,0,0,-1,762,1247,0,0
-455,-223,0,0,0,0,0,0,0,0,0,-1,769,1247,0,0
-448,-223,0,0,0,0,0,0,0,0,0,-1,776,1247,0,0
-441,-223,0,0,0,0,0,0,0,0,0,-1,783,1247,0,0
-434,-223,0,0,0,0,0,0,0,0,0,-1,790,1247,0,0
-427,-223,0,0,0,0,0,0,0,0,0,-1,797,1247,0,0
-420,-223,0,0,0,0,0,0,0,0,0,-1,804,1247,0,0
-413,-223,0,0,0,0,0,0,0,0,0,-1,811,1247,0,0
-406,-223,0,0,0,0,0,0,0,0,0,-1,818,1247,0,0
-399,-223,0,0,0,0,0,0,0,0,0,-1,825,1247,0,0
-392,-223,0,0,0,0,0,0,0,0,0,-1,832,1247,0,0
-385,-223,0,0,0,0,0,0,0,0,0,-1,839,1247,0,0
-378,-223,0,0,0,0,0,0,0,0,0,-1,846,1247,0,0
-371,-223,0,0,0,0,0,0,0,0,0,-1,853,1247,0,0
-364,-223,0,0,0,0,0,0,0,0,0,-1,860,1247,0,0
-357,-223,0,0,0,0,0,0,0,0,0,-1,867,1247,0,0
-350,-223,0,0,0,0,0,0,0,0,0,-1,874,1247,0,0
-343,-223,0,0,0,0,0,0,0,0,0,-1,881,1247,0,0
-336,-223,0,0,0,0,0,0,0,0,0,-1,888,1247,0,0
-329,-223,0,0,0,0,0,0,0,0,0,-1,895,1247,0,0
-322,-223,0,0,0,0,0,0,0,0,0,-1,902,1247,0,0
-315,-223,0,0,0,0,0,0,0,0,0,-1,909,1247,0,0
-308,-223,0,0,0,0,0,0,0,0,0,-1,916,1247,0,0
-301,-223,0,0,0,0,0,0,0,0,0,-1,923,1247,0,0
-294,-223,0,0,0,0,0,0,0,0,0,-1,930,1247,0,0
-287,-223,0,0,0,0,0,0,0,0,0,-1,937,1247,0,0
-280,-223,0,0,0,0,0,0,0,0,0,-1,944,1247,0,0
-273,-223,0,0,0,0,0,0,0,0,0,-1,951,1247,0,0
-266,-223,0,0,0,0,0,0,0,0,0,-1,958,1247,0,0
-259,-223,0,0,0,0,0,0,0,0,0,-1,965,1247,0,0
-252,-223,0,0,0,0,0,0,0,0,0,-1,972,1247,0,0
-245,-223,0,0,0,0,0,0,0,0,0,-1,979,1247,0,0
-238,-223,0,0,0,0,0,0,0,0,0,-1,986,1247,0,0
-231,-223,0,0,0,0,0,0,0,0,0,-1,993,1247,0,0
-224,-223,0,0,0,0,0,0,0,0,0,-1,1000,1247,0,0
-217,-223,0,0,0,0,0,0,0,0,0,-1,1007,1247,0,0
-210,-223,0,0,0,0,0,0,0,0,0,-1,1014,1247,0,0
-203,-223,0,0,0,0,0,0,0,0,0,-1,1021,1247,0,0
-196,-223,0,0,0,0,0,0,0,0,0,-1,1028,1247,0,0
-189,-223,0,0,0,0,0,0,0,0,0,-1,1035,1247,0,0
-182,-223,0,0,0,0,0,0,0,0,0,-1,1042,1247,0,0
-175,-223,0,0,0,0,0,0,0,0,0,-1,1049,1247,0,0
-168,-223,0,0,0,0,0,0,0,0,0,-1,1056,1247,0,0
-161,-223,0,0,0,0,0,0,0,0,0,-1,1063,1247,0,0
-154,-223,0,0,0,0,0,0,0,0,0,-1,1070,1247,0,0
-147,-223,0,0,0,0,0,0,0,0,0,-1,1077,1247,0,0
-140,-223,0,0,0,0,0,0,0,0,0,-1,1084,1247,0,0
-133,-223,0,0,0,0,0,0,0,0,0,-1,1091,1247,0,0
-126,-223,0,0,0,0,0,0,0,0,0,-1,1098,1247,0,0
-119,-223,0,0,0,0,0,0,0,0,0,-1,1105,1247,0,0
-112,-223,0,0,0,0,0,0,0,0,0,-1,1112,1247,0,0
-105,-223,0,0,0,0,0,0,0,0,0,-1,1119,1247,0,0
-98,-223,0,0,0,0,0,0,0,0,0,-1,1126,1247,0,0
-91,-223,0,0,0,0,0,0,0,0,0,-1,1133,1247,0,0
-84,-223,0,0,0,0,0,0,0,0,0,-1,1140,1247,0,0
-77,-223,0,0,0,0,0,0,0,0,0,-1,1147,1247,0,0
-70,-223,0,0,0,0,0,0,0,0,0,-1,1154,1247,0,0
-63,-223,0,0,0,0,0,0,0,0,0,-1,1161,1247,0,0
-56,-223,0,0,0,0,0,0,0,0,0,-1,1168,1247,0,0
-49,-223,0,0,0,0,0,0,0,0,0,-1,1175,1247,0,0
-42,-223,0,0,0,0,0,0,0,0,0,-1,1182,1247,0,0
-35,-223,0,0,0,0,0,0,0,0,0,-1,1189,1247,0,0
-28,-223,0,0,0,0,0,0,0,0,0,-1,1196,1247,0,0
-21,-223,0,0,0,0,0,0,0,0,0,-1,1203,1247,0,0
-14,-223,0,0,0,0,0,0,0,0,0,-1,1210,1247,0,0
-7,-223,0,0,0,0,0,0,0,0,0,-1,1217,1247,0,0
0,-223,0,0,0,0,0,0,0,0,0,-1,1224,1247,0,0
7,-223,0,0,0,0,0,0,0,0,0,-1,1231,1247,0,0
14,-223,0,0,0,0,0,0,0,0,0,-1,1238,1247,0,0
21,-223,0,0,0,0,0,0,0,0,0,-1,1245,1247,0,0
28,-223,0,0,0,0,0,0,0,0,0,-1,1252,1247,0,0
35,-223,0,0,0,0,0,0,0,0,0,-1,1259,1247,0,0
42,-223,0,0,0,0,0,0,0,0,0,-1,1266,1247,0,0
49,-223,0,0,0,0,0,0,0,0,0,-1,1273,1247,0,0
56,-223,0,0,0,0,0,0,0,0,0,-1,1280,1247,0,0
63,-223,0,0,0,0,0,0,0,0,0,-1,1287,1247,0,0
70,-223,0,0,0,0,0,0,0,0,0,-1,1294,1247,0,0
77,-223,0,0,0,0,0,0,0,0,0,-1,1301,1247,0,0
84,-223,0,0,0,0,0,0,0,0,0,-1,1308,1247,0,0
91,-223,0,0,0,0,0,0,0,0,0,-1,1315,1247,0,0
98,-223,0,0,0,0,0,0,0,0,0,-1,1322,1247,0,0
105,-223,0,0,0,0,0,0,0,0,0,-1,1329,1247,0,0
112,-223,0,0,0,0,0,0,0,0,0,-1,1336,1247,0,0
119,-223,0,0,0,0,0,0,0,0,0,-1,1343,1247,0,0
126,-223,0,0,0,0,0,0,0,0,0,-1,1350,1247,0,0
133,-223,0,0,0,0,0,0,0,0,0,-1,1357,1247,0,0
140,-223,0,0,0,0,0,0,0,0,0,-1,1364,1247,0,0
147,-223,0,0,0,0,0,0,0,0,0,-1,1371,1247,0,0
154,-223,0,0,0,0,0,0,0,0,0,-1,1378,1247,0,0
161,-223,0,0,0,0,0,0,0,0,0,-1,1385,1247,0,0
168,-223,0,0,0,0,0,0,0,0,0,-1,1392,1247,0,0
175,-223,0,0,0,0,0,0,0,0,0,-1,1399,1247,0,0
182,-223,0,0,0,0,0,0,0,0,0,-1,1406,1247,0,0
189,-223,0,0,0,0,0,0,0,0,0,-1,1413,1247,0,0
196,-223,0,0,0,0,0,0,0,0,0,-1,1420,1247,0,0
203,-223,0,0,0,0,0,0,0,0,0,-1,1427,1247,0,0
210,-223,0,0,0,0,0,0,0,0,0,-1,1434,1247,0,0
217,-223,0,0,0,0,0,0,0,0,0,-1,1441,1247,0,0
224,-223,0,0,0,0,0,0,0,0,0,-1,1448,1247,0,0
231,-223,0,0,0,0,0,0,0,0,0,-1,1455,1247,0,0
238,-223,0,0,0,0,0,0,0,0,0,-1,1462,1247,0,0
245,-223,0,0,0,0,0,0,0,0,0,-1,1469,1247,0,0
252,-223,0,0,0,0,0,0,0,0,0,-1,1476,1247,0,0
259,-223,0,0,0,0,0,0,0,0,0,-1,1483,1247,0,0
266,-223,0,0,0,0,0,0,0,0,0,-1,1490,1247,0,0
273,-223,0,0,0,0,0,0,0,0,0,-1,1497,1247,0,0
280,-223,0,0,0,0,0,0,0,0,0,-1,1504,1247,0,0
287,-223,0,0,0,0,0,0,0,0,0,-1,1511,1247,0,0
294,-223,0,0,0,0,0,0,0,0,0,-1,1518,1247,0,0
301,-223,0,0,0,0,0,0,0,0,0,-1,1525,1247,0,0
308,-223,0,0,0,0,0,0,0,0,0,-1,1532,1247,0,0
315,-223,0,0,0,0,0,0,0,0,0,-1,1539,1247,0,0
322,-223,0,0,0,0,0,0,0,0,0,-1,1546,1247,0,0
329,-223,0,0,0,0,0,0,0,0,0,-1,1553,1247,0,0
336,-223,0,0,0,0,0,0,0,0,0,-1,1560,1247,0,0
343,-223,0,0,0,0,0,0,0,0,0,-1,1567,1247,0,0
350,-223,0,0,0,0,0,0,0,0,0,-1,1574,1247,0,0
357,-223,0,0,0,0,0,0,0,0,0,-1,1581,1247,0,0
364,-223,0,0,0,0,0,0,0,0,0,-1,1588,1247,0,0
371,-223,0,0,0,0,0,0,0,0,0,-1,1595,1247,0,0
378,-223,0,0,0,0,0,0,0,0,0,-1,1602,1247,0,0
385,-223,0,0,0,0,0,0,0,0,0,-1,1609,1247,0,0
392,-223,0,0,0,0,0,0,0,0,0,-1,1616,1247,0,0
399,-223,0,0,0,0,0,0,0,0,0,-1,1623,1247,0,0
406,-223,0,0,0,0,0,0,0,0,0,-1,1630,1247,0,0
413,-223,0,0,0,0,0,0,0,0,0,-1,1637,1247,0,0
420,-223,0,0,0,0,0,0,0,0,0,-1,1644,1247,0,0
427,-223,0,0,0,0,0,0,0,0,0,-1,1651,1247,0,0
434,-223,0,0,0,0,0,0,0,0,0,-1,1658,1247,0,0
441,-223,0,0,0,0,0,0,0,0,0,-1,1665,1247,0,0
448,-223,0,0,0,0,0,0,0,0,0,-1,1672,1247,0,0
455,-223,0,0,0,0,0,0,0,0,0,-1,1679,1247,0,0
462,-223,0,0,0,0,0,0,0,0,0,-1,1686,1247,0,0
469,-223,0,0,0,0,0,0,0,0,0,-1,1693,1247,0,0
476,-223,0,0,0,0,0,0,0,0,0,-1,1700,1247,0,0
483,-223,0,0,0,0,0,0,0,0,0,-1,1707,1247,0,0
490,-223,0,0,0,0,0,0,0,0,0,-1,1714,1247,0,0
497,-223,0,0,0,0,0,0,0,0,0,-1,1721,1247,0,0
504,-223,0,0,0,0,0,0,0,0,0,-1,1728,1247,0,0
511,-223,0,0,0,0,0,0,0,0,0,-1,1735,1247,0,0
518,-223,0,0,0,0,0,0,0,0,0,-1,1742,1247,0,0
525,-223,0,0,0,0,0,0,0,0,0,-1,1749,1247,0,0
532,-223,0,0,0,0,0,0,0,0,0,-1,1756,1247,0,0
539,-223,0,0,0,0,0,0,0,0,0,-1,1763,1247,0,0
546,-223,0,0,0,0,0,0,0,0,0,-1,1770,1247,0,0
553,-223,0,0,0,0,0,0,0,0,0,-1,1777,1247,0,0
560,-223,0,0,0,0,0,0,0,0,0,-1,1784,1247,0,0
567,-223,0,0,0,0,0,0,0,0,0,-1,1791,1247,0,0
574,-223,0,0,0,0,0,0,0,0,0,-1,1798,1247,0,0
581,-223,0,0,0,0,0,0,0,0,0,-1,1805,1247,0,0
588,-223,0,0,0,0,0,0,0,0,0,-1,1812,1247,0,0
595,-223,0,0,0,0,0,0,0,0,0,-1,1819,1247,0,0
602,-223,0,0,0,0,0,0,0,0,0,-1,1826,1247,0,0
609,-223,0,0,0,0,0,0,0,0,0,-1,1833,1247,0,0
616,-223,0,0,0,0,0,0,0,0,0,-1,1840,1247,0,0
623,-223,27.307,3.42126,-0.000307214,0.00272126,-0.00539349,0.00680904,-0.004395,-0.922251,0.00651852,0.0388933,1847,1247,27.307,-3.42121
630,-223,27.2827,3.25464,-0.00242161,0.00393138,-0.00227301,0.00466087,-0.00315109,-1.26025,0.00453823,0.0366561,1854,1247,27.2828,-3.25468
637,-223,27.309,3.24316,-0.00399333,0.00440872,0.00133437,0.00461555,-0.00420016,1.41702,0.00509164,0.028542,1861,1247,27.3089,-3.24318
644,-223,27.3402,3.24121,-0.0045152,0.0041167,0.00439737,0.00596226,-0.00636077,1.17343,0.00711594,0.0228314,1868,1247,27.3403,-3.24116
651,-223,27.3759,3.2832,-0.00412879,0.00320987,0.00617526,0.0067237,-0.00764262,1.05347,0.00830005,0.0304388,1875,1247,27.3759,-3.2832
658,-223,27.3959,3.39514,0,0,0,0,0,0,0,-1,1882,1247,27.3959,-3.39515
665,-223,26.7323,4.03271,-0.00263683,0.00136493,0.00718284,0.00682037,-0.00809226,0.921237,0.00862024,0.0477097,1889,1247,26.7323,-4.03274
672,-223,26.3119,4.45068,-0.00202471,0.000585965,0.00706816,0.00646831,-0.00790706,0.876708,0.00831347,0.044712,1896,1247,26.3118,-4.45071
679,-223,26.0331,4.61755,0,0,0,0,0,0,0,-1,1903,1247,26.033,-4.61758
686,-223,22.5475,6.96692,0,0,0,0,0,0,0,-1,1910,1247,22.5475,-6.96689
693,-223,22.6488,6.81213,-3.57814e-05,-0.00125753,0.00625605,0.00563915,-0.00693246,0.73673,0.00727102,0.031393,1917,1247,22.6488,-6.81208
700,-223,22.7175,6.60706,0.000500273,-0.00178092,0.00556517,0.00504052,-0.00632117,0.684321,0.00657355,0.0148489,1924,1247,22.7175,-6.60708
707,-223,22.725,6.37012,0.000717548,-0.0019116,0.004478,0.00406994,-0.00526399,0.642628,0.00540362,0.0139954,1931,1247,22.725,-6.37014
714,-223,22.7325,6.15479,0.000811918,-0.00189414,0.00334095,0.00306342,-0.00414565,0.593001,0.00417776,0.0115277,1938,1247,22.7325,-6.15475
721,-223,22.7272,5.92664,0.00126465,-0.00109147,0.00184253,0.00227354,-0.00210035,0.500964,0.00252593,0.013623,1945,1247,22.7272,-5.92668
728,-223,22.7272,5.70227,0.00218333,0.000168677,0.000250134,0.00221392,0.000138085,0.121696,0.00143214,0.015748,1952,1247,22.7272,-5.70228
735,-223,22.7158,5.48315,0.00388554,0.000317046,-0.000935361,0.00411584,8.67359e-05,-0.241423,0.00271545,0.013737,1959,1247,22.7158,-5.4832
742,-223,22.6882,5.28516,0.00652162,-0.000309472,-0.00257341,0.00738257,-0.00117042,-0.32285,0.00535466,0.011204,1966,1247,22.6882,-5.2851
749,-223,22.6995,5.04736,0.00991363,-0.000987435,-0.00455542,0.0115666,-0.00264044,-0.348089,0.00872544,0.0101161,1973,1247,22.6995,-5.04734
756,-223,22.6948,4.82129,0.0144497,-0.00243841,-0.00724723,0.0171333,-0.00512199,-0.354636,0.0134584,0.0113171,1980,1247,22.6949,-4.82133
763,-223,22.6863,4.58154,0.0203542,-0.00510897,-0.0109388,0.0244081,-0.00916283,-0.354902,0.0200373,0.0146455,1987,1247,22.6863,-4.58158
770,-223,22.8007,4.13037,0.0275738,-0.00948992,-0.0157886,0.0333875,-0.0153037,-0.352819,0.0287509,0.0382838,1994,1247,22.8007,-4.13034
777,-223,22.9097,3.67493,0,0,0,0,0,0,0,-1,2001,1247,22.9096,-3.6749
784,-223,26.774,4.74353,0.0449226,-0.0258416,-0.0295817,0.0556596,-0.0365786,-0.348173,0.0536322,0.0472554,2008,1247,26.774,-4.74348
791,-223,27.059,4.42249,0.054258,-0.0392411,-0.0387106,0.0682046,-0.0531878,-0.345804,0.0702645,0.0478955,2015,1247,27.0589,-4.42248
798,-223,0,0,0,0,0,0,0,0,0,-1,2022,1247,0,0
805,-223,0,0,0,0,0,0,0,0,0,-1,2029,1247,0,0
812,-223,0,0,0,0,0,0,0,0,0,-1,2036,1247,0,0
-700,-230,0,0,0,0,0,0,0,0,0,-1,524,1254,0,0
-693,-230,0,0,0,0,0,0,0,0,0,-1,531,1254,0,0
-686,-230,0,0,0,0,0,0,0,0,0,-1,538,1254,0,0
-679,-230,0,0,0,0,0,0,0,0,0,-1,545,1254,0,0
-672,-230,-13.2418,-2.07605,-0.0654413,-0.0471202,0.0593109,0.00373345,-0.116295,0.862018,0.0788039,0.0452094,552,1254,-13.2418,2.07604
-665,-230,-14.0557,-1.45264,-0.043645,-0.0423721,0.0494651,0.00646061,-0.0924777,0.791831,0.0639143,0.0444232,559,1254,-14.0557,1.45261
-658,-230,-14.7018,-0.803711,-0.0278608,-0.0366069,0.0403328,0.00833531,-0.072803,0.731397,0.0515389,0.043728,566,1254,-14.7018,0.803706
-651,-230,-15.6933,-1.20923,-0.0164815,-0.0305244,0.0321609,0.00941557,-0.0564214,0.677923,0.0411138,0.0435778,573,1254,-15.6933,1.2092
-644,-230,-15.8624,-0.769287,-0.00857502,-0.0245703,0.0250553,0.0097281,-0.0428734,0.63091,0.0323168,0.0489185,580,1254,-15.8624,0.769284
-637,-230,-13.35,2.07532,0,0,0,0,0,0,0,-1,587,1254,-13.35,-2.0753
-630,-230,-13.3661,2.14319,-0.000330762,-0.014149,0.0140524,0.00841914,-0.0228989,0.556917,0.0187146,0.0434275,594,1254,-13.3661,-2.14323
-623,-230,-13.3864,2.25171,0.00129689,-0.0102051,0.010167,0.00722672,-0.0161349,0.528008,0.0138109,0.0266303,601,1254,-13.3863,-2.25166
-616,-230,-13.4626,2.56897,0.00300634,-0.006348,0.00652503,0.00635737,-0.00969902,0.474441,0.00933684,0.0165589,608,1254,-13.4626,-2.56897
-609,-230,-13.4728,2.82263,0.00400862,-0.00377902,0.00347602,0.00533443,-0.00510483,0.364384,0.00602759,0.0125316,615,1254,-13.4728,-2.82269
-602,-230,-13.4535,3.07373,0.0033933,-0.00212664,0.00141403,0.00373444,-0.00246778,0.236733,0.00360566,0.0114853,622,1254,-13.4535,-3.07374
-595,-230,-13.4584,3.32227,0.00239643,-0.000150867,0.000765823,0.00260894,-0.000363376,0.270681,0.00187221,0.0177568,629,1254,-13.4584,-3.32225
-588,-230,-13.4514,3.58411,0.00231575,0.000720418,0.000510828,0.0024653,0.00057087,0.284799,0.00149015,0.0239604,636,1254,-13.4514,-3.58414
-581,-230,-13.4423,3.86621,0.0028989,0.000641634,0.00038294,0.00296209,0.000578438,0.163554,0.00181294,0.0229163,643,1254,-13.4423,-3.86616
-574,-230,-13.4515,4.13123,0.00365242,0.000923211,0.000680711,0.00381278,0.000762852,0.231357,0.00232958,0.0169811,650,1254,-13.4515,-4.13123
-567,-230,-13.264,4.46655,0.00313423,0.00139754,0.0012733,0.00380709,0.000724679,0.486138,0.0023343,0.0256716,657,1254,-13.264,-4.4666
-560,-230,-12.9268,4.87744,0.00226606,0.00170521,0.00166511,0.00367419,0.000297072,0.701975,0.00235669,0.0448499,664,1254,-12.9267,-4.87743
-553,-230,-12.1948,5.22864,0,0,0,0,0,0,0,-1,671,1254,-12.1948,-5.22867
-546,-230,-14.3351,0.946777,0,0,0,0,0,0,0,-1,678,1254,-14.3351,-0.946728
-539,-230,-18.6737,1.52344,0,0,0,0,0,0,0,-1,685,1254,-18.6737,-1.52349
-532,-230,-18.5878,2.724,0,0,0,0,0,0,0,-1,692,1254,-18.5878,-2.72397
-525,-230,-18.2171,0.759521,0,0,0,0,0,0,0,-1,699,1254,-18.2171,-0.759512
-518,-230,-18.4873,1.19226,-0.00880391,0.00643112,0.00201159,0.00669225,-0.00906504,1.44171,0.00913179,0.046092,706,1254,-18.4873,-1.1923
-511,-230,-18.8445,1.57397,-0.0121558,0.007189,0.00114934,0.00725705,-0.0122239,1.51166,0.0113685,0.0392682,713,1254,-18.8445,-1.57402
-504,-230,-18.9885,1.64063,-0.0137599,0.00739269,0.000438771,0.00740179,-0.013769,1.55007,0.0124058,0.038942,720,1254,-18.9885,-1.64059
-497,-230,0,0,0,0,0,0,0,0,0,-1,727,1254,0,0
-490,-230,0,0,0,0,0,0,0,0,0,-1,734,1254,0,0
-483,-230,0,0,0,0,0,0,0,0,0,-1,741,1254,0,0
-476,-230,0,0,0,0,0,0,0,0,0,-1,748,1254,0,0
-469,-230,0,0,0,0,0,0,0,0,0,-1,755,1254,0,0
-462,-230,0,0,0,0,0,0,0,0,0,-1,762,1254,0,0
-455,-230,0,0,0,0,0,0,0,0,0,-1,769,1254,0,0
-448,-230,0,0,0,0,0,0,0,0,0,-1,776,1254,0,0
-441,-230,0,0,0,0,0,0,0,0,0,-1,783,1254,0,0
-434,-230,0,0,0,0,0,0,0,0,0,-1,790,1254,0,0
-427,-230,0,0,0,0,0,0,0,0,0,-1,797,1254,0,0
-420,-230,0,0,0,0,0,0,0,0,0,-1,804,1254,0,0
-413,-230,0,0,0,0,0,0,0,0,0,-1,811,1254,0,0
-406,-230,0,0,0,0,0,0,0,0,0,-1,818,1254,0,0
-399,-230,0,0,0,0,0,0,0,0,0,-1,825,1254,0,0
-392,-230,0,0,0,0,0,0,0,0,0,-1,832,1254,0,0
-385,-230,0,0,0,0,0,0,0,0,0,-1,839,1254,0,0
-378,-230,0,0,0,0,0,0,0,0,0,-1,846,1254,0,0
-371,-230,0,0,0,0,0,0,0,0,0,-1,853,1254,0,0
-364,-230,0,0,0,0,0,0,0,0,0,-1,860,1254,0,0
-357,-230,0,0,0,0,0,0,0,0,0,-1,867,1254,0,0
-350,-230,0,0,0,0,0,0,0,0,0,-1,874,1254,0,0
-343,-230,0,0,0,0,0,0,0,0,0,-1,881,1254,0,0
-336,-230,0,0,0,0,0,0,0,0,0,-1,888,1254,0,0
-329,-230,0,0,0,0,0,0,0,0,0,-1,895,1254,0,0
-322,-230,0,0,0,0,0,0,0,0,0,-1,902,1254,0,0
-315,-230,0,0,0,0,0,0,0,0,0,-1,909,1254,0,0
-308,-230,0,0,0,0,0,0,0,0,0,-1,916,1254,0,0
-301,-230,0,0,0,0,0,0,0,0,0,-1,923,1254,0,0
-294,-230,0,0,0,0,0,0,0,0,0,-1,930,1254,0,0
-287,-230,0,0,0,0,0,0,0,0,0,-1,937,1254,0,0
-280,-230,0,0,0,0,0,0,0,0,0,-1,944,1254,0,0
-273,-230,0,0,0,0,0,0,0,0,0,-1,951,1254,0,0
-266,-230,0,0,0,0,0,0,0,0,0,-1,958,1254,0,0
-259,-230,0,0,0,0,0,0,0,0,0,-1,965,1254,0,0
-252,-230,0,0,0,0,0,0,0,0,0,-1,972,1254,0,0
-245,-230,0,0,0,0,0,0,0,0,0,-1,979,1254,0,0
-238,-230,0,0,0,0,0,0,0,0,0,-1,986,1254,0,0
-231,-230,0,0,0,0,0,0,0,0,0,-1,993,1254,0,0
-224,-230,0,0,0,0,0,0,0,0,0,-1,1000,1254,0,0
-217,-230,0,0,0,0,0,0,0,0,0,-1,1007,1254,0,0
-210,-230,0,0,0,0,0,0,0,0,0,-1,1014,1254,0,0
-203,-230,0,0,0,0,0,0,0,0,0,-1,1021,1254,0,0
-196,-230,0,0,0,0,0,0,0,0,0,-1,1028,1254,0,0
-189,-230,0,0,0,0,0,0,0,0,0,-1,1035,1254,0,0
-182,-230,0,0,0,0,0,0,0,0,0,-1,1042,1254,0,0
-175,-230,0,0,0,0,0,0,0,0,0,-1,1049,1254,0,0
-168,-230,0,0,0,0,0,0,0,0,0,-1,1056,1254,0,0
-161,-230,0,0,0,0,0,0,0,0,0,-1,1063,1254,0,0
-154,-230,0,0,0,0,0,0,0,0,0,-1,1070,1254,0,0
-147,-230,0,0,0,0,0,0,0,0,0,-1,1077,1254,0,0
-140,-230,0,0,0,0,0,0,0,0,0,-1,1084,1254,0,0
-133,-230,0,0,0,0,0,0,0,0,0,-1,1091,1254,0,0
-126,-230,0,0,0,0,0,0,0,0,0,-1,1098,1254,0,0
-119,-230,0,0,0,0,0,0,0,0,0,-1,1105,1254,0,0
-112,-230,0,0,0,0,0,0,0,0,0,-1,1112,1254,0,0
-105,-230,0,0,0,0,0,0,0,0,0,-1,1119,1254,0,0
-98,-230,0,0,0,0,0,0,0,0,0,-1,1126,1254,0,0
-91,-230,0,0,0,0,0,0,0,0,0,-1,1133,1254,0,0
-84,-230,0,0,0,0,0,0,0,0,0,-1,1140,1254,0,0
-77,-230,0,0,0,0,0,0,0,0,0,-1,1147,1254,0,0
-70,-230,0,0,0,0,0,0,0,0,0,-1,1154,1254,0,0
-63,-230,0,0,0,0,0,0,0,0,0,-1,1161,1254,0,0
-56,-230,0,0,0,0,0,0,0,0,0,-1,1168,1254,0,0
-49,-230,0,0,0,0,0,0,0,0,0,-1,1175,1254,0,0
-42,-230,0,0,0,0,0,0,0,0,0,-1,1182,1254,0,0
-35,-230,0,0,0,0,0,0,0,0,0,-1,1189,1254,0,0
-28,-230,0,0,0,0,0,0,0,0,0,-1,1196,1254,0,0
-21,-230,0,0,0,0,0,0,0,0,0,-1,1203,1254,0,0
-14,-230,0,0,0,0,0,0,0,0,0,-1,1210,1254,0,0
-7,-230,0,0,0,0,0,0,0,0,0,-1,1217,1254,0,0
0,-230,0,0,0,0,0,0,0,0,0,-1,1224,1254,0,0
7,-230,0,0,0,0,0,0,0,0,0,-1,1231,1254,0,0
14,-230,0,0,0,0,0,0,0,0,0,-1,1238,1254,0,0
21,-230,0,0,0,0,0,0,0,0,0,-1,1245,1254,0,0
28,-230,0,0,0,0,0,0,0,0,0,-1,1252,1254,0,0
35,-230,0,0,0,0,0,0,0,0,0,-1,1259,1254,0,0
42,-230,0,0,0,0,0,0,0,0,0,-1,1266,1254,0,0
49,-230,0,0,0,0,0,0,0,0,0,-1,1273,1254,0,0
56,-230,0,0,0,0,0,0,0,0,0,-1,1280,1254,0,0
63,-230,0,0,0,0,0,0,0,0,0,-1,1287,1254,0,0
70,-230,0,0,0,0,0,0,0,0,0,-1,1294,1254,0,0
77,-230,0,0,0,0,0,0,0,0,0,-1,1301,1254,0,0
84,-230,0,0,0,0,0,0,0,0,0,-1,1308,1254,0,0
91,-230,0,0,0,0,0,0,0,0,0,-1,1315,1254,0,0
98,-230,0,0,0,0,0,0,0,0,0,-1,1322,1254,0,0
105,-230,0,0,0,0,0,0,0,0,0,-1,1329,1254,0,0
112,-230,0,0,0,0,0,0,0,0,0,-1,1336,1254,0,0
119,-230,0,0,0,0,0,0,0,0,0,-1,1343,1254,0,0
126,-230,0,0,0,0,0,0,0,0,0,-1,1350,1254,0,0
133,-230,0,0,0,0,0,0,0,0,0,-1,1357,1254,0,0
140,-230,0,0,0,0,0,0,0,0,0,-1,1364,1254,0,0
147,-230,0,0,0,0,0,0,0,0,0,-1,1371,1254,0,0
154,-230,0,0,0,0,0,0,0,0,0,-1,1378,1254,0,0
161,-230,0,0,0,0,0,0,0,0,0,-1,1385,1254,0,0
168,-230,0,0,0,0,0,0,0,0,0,-1,1392,1254,0,0
175,-230,0,0,0,0,0,0,0,0,0,-1,1399,1254,0,0
182,-230,0,0,0,0,0,0,0,0,0,-1,1406,1254,0,0
189,-230,0,0,0,0,0,0,0,0,0,-1,1413,1254,0,0
196,-230,0,0,0,0,0,0,0,0,0,-1,1420,1254,0,0
203,-230,0,0,0,0,0,0,0,0,0,-1,1427,1254,0,0
210,-230,0,0,0,0,0,0,0,0,0,-1,1434,1254,0,0
217,-230,0,0,0,0,0,0,0,0,0,-1,1441,1254,0,0
224,-230,0,0,0,0,0,0,0,0,0,-1,1448,1254,0,0
231,-230,0,0,0,0,0,0,0,0,0,-1,1455,1254,0,0
238,-230,0,0,0,0,0,0,0,0,0,-1,1462,1254,0,0
245,-230,0,0,0,0,0,0,0,0,0,-1,1469,1254,0,0
252,-230,0,0,0,0,0,0,0,0,0,-1,1476,1254,0,0
259,-230,0,0,0,0,0,0,0,0,0,-1,1483,1254,0,0
266,-230,0,0,0,0,0,0,0,0,0,-1,1490,1254,0,0
273,-230,0,0,0,0,0,0,0,0,0,-1,1497,1254,0,0
280,-230,0,0,0,0,0,0,0,0,0,-1,1504,1254,0,0
287,-230,0,0,0,0,0,0,0,0,0,-1,1511,1254,0,0
294,-230,0,0,0,0,0,0,0,0,0,-1,1518,1254,0,0
301,-230,0,0,0,0,0,0,0,0,0,-1,1525,1254,0,0
308,-230,0,0,0,0,0,0,0,0,0,-1,1532,1254,0,0
315,-230,0,0,0,0,0,0,0,0,0,-1,1539,1254,0,0
322,-230,0,0,0,0,0,0,0,0,0,-1,1546,1254,0,0
329,-230,0,0,0,0,0,0,0,0,0,-1,1553,1254,0,0
336,-230,0,0,0,0,0,0,0,0,0,-1,1560,1254,0,0
343,-230,0,0,0,0,0,0,0,0,0,-1,1567,1254,0,0
350,-230,0,0,0,0,0,0,0,0,0,-1,1574,1254,0,0
357,-230,0,0,0,0,0,0,0,0,0,-1,1581,1254,0,0
364,-230,0,0,0,0,0,0,0,0,0,-1,1588,1254,0,0
371,-230,0,0,0,0,0,0,0,0,0,-1,1595,1254,0,0
378,-230,0,0,0,0,0,0,0,0,0,-1,1602,1254,0,0
385,-230,0,0,0,0,0,0,0,0,0,-1,1609,1254,0,0
392,-230,0,0,0,0,0,0,0,0,0,-1,1616,1254,0,0
399,-230,0,0,0,0,0,0,0,0,0,-1,1623,1254,0,0
406,-230,0,0,0,0,0,0,0,0,0,-1,1630,1254,0,0
413,-230,0,0,0,0,0,0,0,0,0,-1,1637,1254,0,0
420,-230,0,0,0,0,0,0,0,0,0,-1,1644,1254,0,0
427,-230,0,0,0,0,0,0,0,0,0,-1,1651,1254,0,0
434,-230,0,0,0,0,0,0,0,0,0,-1,1658,1254,0,0
441,-230,0,0,0,0,0,0,0,0,0,-1,1665,1254,0,0
448,-230,0,0,0,0,0,0,0,0,0,-1,1672,1254,0,0
455,-230,0,0,0,0,0,0,0,0,0,-1,1679,1254,0,0
462,-230,0,0,0,0,0,0,0,0,0,-1,1686,1254,0,0
469,-230,0,0,0,0,0,0,0,0,0,-1,1693,1254,0,0
476,-230,0,0,0,0,0,0,0,0,0,-1,1700,1254,0,0
483,-230,0,0,0,0,0,0,0,0,0,-1,1707,1254,0,0
490,-230,0,0,0,0,0,0,0,0,0,-1,1714,1254,0,0
497,-230,0,0,0,0,0,0,0,0,0,-1,1721,1254,0,0
504,-230,0,0,0,0,0,0,0,0,0,-1,1728,1254,0,0
511,-230,0,0,0,0,0,0,0,0,0,-1,1735,1254,0,0
518,-230,0,0,0,0,0,0,0,0,0,-1,1742,1254,0,0
525,-230,0,0,0,0,0,0,0,0,0,-1,1749,1254,0,0
532,-230,0,0,0,0,0,0,0,0,0,-1,1756,1254,0,0
539,-230,0,0,0,0,0,0,0,0,0,-1,1763,1254,0,0
546,-230,0,0,0,0,0,0,0,0,0,-1,1770,1254,0,0
553,-230,0,0,0,0,0,0,0,0,0,-1,1777,1254,0,0
560,-230,0,0,0,0,0,0,0,0,0,-1,1784,1254,0,0
567,-230,0,0,0,0,0,0,0,0,0,-1,1791,1254,0,0
574,-230,0,0,0,0,0,0,0,0,0,-1,1798,1254,0,0
581,-230,0,0,0,0,0,0,0,0,0,-1,1805,1254,0,0
588,-230,0,0,0,0,0,0,0,0,0,-1,1812,1254,0,0
595,-230,0,0,0,0,0,0,0,0,0,-1,1819,1254,0,0
602,-230,0,0,0,0,0,0,0,0,0,-1,1826,1254,0,0
609,-230,0,0,0,0,0,0,0,0,0,-1,1833,1254,0,0
616,-230,27.3654,3.40649,0.00151666,-0.00101727,-0.00461332,0.00503383,-0.00453443,-0.651386,0.00552675,0.037972,1840,1254,27.3653,-3.40648
623,-230,27.3531,3.40942,-0.0015872,0.00255912,-0.00422807,0.00519495,-0.00422303,-1.01334,0.00544711,0.0376205,1847,1254,27.3531,-3.40945
630,-230,27.3423,3.31165,-0.00419883,0.00457668,-0.0014359,0.00480566,-0.00442781,-1.41266,0.00533243,0.032319,1854,1254,27.3423,-3.31162
637,-230,27.2938,3.26404,-0.00593324,0.00553801,0.00174655,0.00579803,-0.00619326,1.423,0.00692443,0.0261996,1861,1254,27.2938,-3.26403
644,-230,27.2491,3.19812,-0.00628349,0.00542624,0.00432359,0.00684962,-0.00770687,1.25276,0.00840905,0.0212114,1868,1254,27.2491,-3.19806
651,-230,27.1584,3.14832,-0.00568966,0.00454423,0.00575653,0.00712929,-0.00827471,1.14872,0.00890169,0.0437271,1875,1254,27.1585,-3.14836
658,-230,26.7391,3.47595,-0.00480414,0.00354134,0.00644366,0.00704536,-0.00830815,1.07273,0.00887434,0.0481077,1882,1254,26.7392,-3.47596
665,-230,26.3892,3.80005,-0.00391921,0.00257914,0.00669157,0.00676867,-0.00810874,1.01141,0.00860108,0.0484817,1889,1254,26.3892,-3.8
672,-230,26.2261,4.15051,-0.00313337,0.00172177,0.00665732,0.00638031,-0.00779192,0.96023,0.00819586,0.0467012,1896,1254,26.226,-4.15052
679,-230,26.1168,4.48511,0,0,0,0,0,0,0,-1,1903,1254,26.1168,-4.48513
686,-230,23.0012,6.9093,0,0,0,0,0,0,0,-1,1910,1254,23.0012,-6.9093
693,-230,22.4067,6.79395,-0.000507899,-0.000830139,0.00632269,0.00565572,-0.00699376,0.772659,0.00731679,0.0256477,1917,1254,22.4068,-6.7939
700,-230,22.4889,6.63232,0.000236938,-0.00145297,0.00553962,0.00499567,-0.0062117,0.709717,0.00648326,0.0113191,1924,1254,22.4889,-6.63237
707,-230,22.4955,6.4054,0.000574242,-0.00156499,0.00431329,0.00394856,-0.0049393,0.663859,0.00514203,0.009646,1931,1254,22.4955,-6.40539
714,-230,22.48,6.15735,0.000766369,-0.0015233,0.00307445,0.00290222,-0.00365915,0.607166,0.0037966,0.0121325,1938,1254,22.48,-6.15735
721,-230,22.4817,5.90454,0.00125566,-0.000699469,0.0015747,0.00213155,-0.00157536,0.507613,0.0021482,0.0123005,1945,1254,22.4817,-5.90449
728,-230,22.4832,5.6908,0.00198725,0.000542146,0.000134728,0.00199971,0.000529692,0.0921723,0.00119632,0.0135955,1952,1254,22.4832,-5.69078
735,-230,22.4734,5.4917,0.00336641,0.00074691,-0.000947121,0.00367298,0.000440342,-0.313041,0.00231587,0.0140009,1959,1254,22.4733,-5.49165
742,-230,22.4542,5.26624,0.00552718,0.000224462,-0.0024583,0.00649147,-0.000739832,-0.373817,0.00459416,0.0103364,1966,1254,22.4542,-5.26626
749,-230,22.4746,5.03015,0.0083263,-0.000307868,-0.00429057,0.0100958,-0.00207734,-0.391159,0.00751923,0.00979166,1973,1254,22.4746,-5.0301
756,-230,22.4736,4.79199,0.012164,-0.00160248,-0.00685183,0.0149929,-0.00443143,-0.391556,0.0117543,0.0132081,1980,1254,22.4736,-4.79197
763,-230,22.4795,4.46912,0.0171612,-0.00406988,-0.0104049,0.0214101,-0.00831881,-0.38769,0.01771,0.0258281,1987,1254,22.4795,-4.46908
770,-230,22.6113,4.12732,0.023229,-0.00821029,-0.0151267,0.029325,-0.0143063,-0.383088,0.0256832,0.0428231,1994,1254,22.6114,-4.1273
777,-230,23.0159,4.12036,0,0,0,0,0,0,0,-1,2001,1254,23.0159,-4.12035
784,-230,27.2043,5.11816,0,0,0,0,0,0,0,-1,2008,1254,27.2043,-5.11819
791,-230,27.3345,4.94104,0,0,0,0,0,0,0,-1,2015,1254,27.3344,-4.94106
798,-230,0,0,0,0,0,0,0,0,0,-1,2022,1254,0,0
805,-230,0,0,0,0,0,0,0,0,0,-1,2029,1254,0,0
812,-230,0,0,0,0,0,0,0,0,0,-1,2036,1254,0,0
-700,-237,0,0,0,0,0,0,0,0,0,-1,524,1261,0,0
-693,-237,0,0,0,0,0,0,0,0,0,-1,531,1261,0,0
-686,-237,0,0,0,0,0,0,0,0,0,-1,538,1261,0,0
-679,-237,0,0,0,0,0,0,0,0,0,-1,545,1261,0,0
-672,-237,-14.084,-1.79089,-0.0594527,-0.061525,0.0603381,-0.000141859,-0.120836,0.776813,0.08051,0.0486623,552,1261,-14.084,1.79088
-665,-237,-14.6574,-0.986084,-0.0360956,-0.0547986,0.0495482,0.00497587,-0.09587,0.692127,0.0656349,0.0481059,559,1261,-14.6574,0.986143
-658,-237,-14.9852,-0.597534,-0.0199779,-0.0469919,0.0399929,0.00872729,-0.0756971,0.622545,0.0536111,0.042776,566,1261,-14.9852,0.597531
-651,-237,-15.1576,-0.347534,-0.00902976,-0.0389642,0.0317105,0.0110683,-0.0590622,0.564901,0.0435358,0.0412873,573,1261,-15.1576,0.347545
-644,-237,-15.3541,0.12793,-0.00195971,-0.0312398,0.0246702,0.0120874,-0.0452869,0.517611,0.0349247,0.0474162,580,1261,-15.3541,-0.127886
-637,-237,-12.5073,1.48279,0,0,0,0,0,0,0,-1,587,1261,-12.5073,-1.48277
-630,-237,-12.7645,1.79346,0.0042079,-0.0178983,0.0139699,0.0109686,-0.0246589,0.45072,0.0210697,0.0447084,594,1261,-12.7645,-1.7934
-623,-237,-13.0303,2.17969,0.00487694,-0.0127898,0.0101994,0.00953642,-0.0174492,0.428525,0.0158019,0.0287437,601,1261,-13.0303,-2.17964
-616,-237,-13.1619,2.56091,0.0058787,-0.00812586,0.00670257,0.00856953,-0.0108167,0.381766,0.0112177,0.0145664,608,1261,-13.1619,-2.56096
-609,-237,-13.1843,2.82153,0.00634359,-0.00474052,0.00374392,0.00748968,-0.00588661,0.297063,0.00774127,0.0167867,615,1261,-13.1843,-2.82152
-602,-237,-13.1753,3.0741,0.00501285,-0.00256077,0.0018193,0.0054272,-0.00297512,0.223935,0.00491946,0.0117744,622,1261,-13.1753,-3.07415
-595,-237,-13.1916,3.32825,0.00342437,-0.00016302,0.00132258,0.00385925,-0.000597902,0.317678,0.00279354,0.0150888,629,1261,-13.1916,-3.32821
-588,-237,-13.2007,3.59888,0.00306195,0.000798832,0.00112272,0.00352442,0.00033636,0.39074,0.00224591,0.025549,636,1261,-13.2007,-3.59885
-581,-237,-13.1849,3.8905,0.00350278,0.000698168,0.000965295,0.0038029,0.000398048,0.301436,0.00241355,0.0239284,643,1261,-13.1849,-3.89048
-574,-237,-13.197,4.15137,0.00427548,0.00100337,0.00121429,0.00467686,0.000601986,0.319247,0.00293788,0.0155519,650,1261,-13.197,-4.15138
-567,-237,-13.1438,4.44617,0.00366341,0.00150416,0.00174979,0.00463984,0.000527729,0.508985,0.00293318,0.017391,657,1261,-13.1438,-4.44621
-560,-237,-12.8306,4.82617,0.00259727,0.00187898,0.00206577,0.00433488,0.000141372,0.69933,0.00284397,0.0352051,664,1261,-12.8306,-4.82612
-553,-237,-12.4973,5.12561,0,0,0,0,0,0,0,-1,671,1261,-12.4973,-5.12556
-546,-237,-11.192,1.14014,0,0,0,0,0,0,0,-1,678,1261,-11.192,-1.14011
-539,-237,-16.512,1.53455,0,0,0,0,0,0,0,-1,685,1261,-16.512,-1.53457
-532,-237,-18.2774,1.30383,0,0,0,0,0,0,0,-1,692,1261,-18.2774,-1.30381
-525,-237,-18.4036,1.35742,-0.00639476,0.0062326,0.0022623,0.00662567,-0.00678784,1.39876,0.00774448,0.048642,699,1261,-18.4036,-1.35742
-518,-237,-18.5206,1.38147,-0.0097284,0.00743288,0.00158303,0.00757768,-0.0098732,1.47958,0.0101043,0.0444631,706,1261,-18.5206,-1.38145
-511,-237,-18.692,1.45837,-0.012998,0.00874304,0.000539387,0.00875641,-0.0130114,1.54601,0.0126474,0.0398017,713,1261,-18.692,-1.45835
-504,-237,-18.8814,1.62634,-0.0147829,0.00984663,-0.000441318,0.00985454,-0.0147908,-1.55289,0.0143238,0.0410345,720,1261,-18.8814,-1.62629
-497,-237,-18.8707,1.68286,-0.0155916,0.0106568,-0.00200954,0.0108098,-0.0157446,-1.49483,0.0154192,0.0485078,727,1261,-18.8708,-1.68284
-490,-237,0,0,0,0,0,0,0,0,0,-1,734,1261,0,0
-483,-237,0,0,0,0,0,0,0,0,0,-1,741,1261,0,0
-476,-237,0,0,0,0,0,0,0,0,0,-1,748,1261,0,0
-469,-237,0,0,0,0,0,0,0,0,0,-1,755,1261,0,0
-462,-237,0,0,0,0,0,0,0,0,0,-1,762,1261,0,0
-455,-237,0,0,0,0,0,0,0,0,0,-1,769,1261,0,0
-448,-237,0,0,0,0,0,0,0,0,0,-1,776,1261,0,0
-441,-237,0,0,0,0,0,0,0,0,0,-1,783,1261,0,0
-434,-237,0,0,0,0,0,0,0,0,0,-1,790,1261,0,0
-427,-237,0,0,0,0,0,0,0,0,0,-1,797,1261,0,0
-420,-237,0,0,0,0,0,0,0,0,0,-1,804,1261,0,0
-413,-237,0,0,0,0,0,0,0,0,0,-1,811,1261,0,0
-406,-237,0,0,0,0,0,0,0,0,0,-1,818,1261,0,0
-399,-237,0,0,0,0,0,0,0,0,0,-1,825,1261,0,0
-392,-237,0,0,0,0,0,0,0,0,0,-1,832,1261,0,0
-385,-237,0,0,0,0,0,0,0,0,0,-1,839,1261,0,0
-378,-237,0,0,0,0,0,0,0,0,0,-1,846,1261,0,0
-371,-237,0,0,0,0,0,0,0,0,0,-1,853,1261,0,0
-364,-237,0,0,0,0,0,0,0,0,0,-1,860,1261,0,0
-357,-237,0,0,0,0,0,0,0,0,0,-1,867,1261,0,0
-350,-237,0,0,0,0,0,0,0,0,0,-1,874,1261,0,0
-343,-237,0,0,0,0,0,0,0,0,0,-1,881,1261,0,0
-336,-237,0,0,0,0,0,0,0,0,0,-1,888,1261,0,0
-329,-237,0,0,0,0,0,0,0,0,0,-1,895,1261,0,0
-322,-237,0,0,0,0,0,0,0,0,0,-1,902,1261,0,0
-315,-237,0,0,0,0,0,0,0,0,0,-1,909,1261,0,0
-308,-237,0,0,0,0,0,0,0,0,0,-1,916,1261,0,0
-301,-237,0,0,0,0,0,0,0,0,0,-1,923,1261,0,0
-294,-237,0,0,0,0,0,0,0,0,0,-1,930,1261,0,0
-287,-237,0,0,0,0,0,0,0,0,0,-1,937,1261,0,0
-280,-237,0,0,0,0,0,0,0,0,0,-1,944,1261,0,0
-273,-237,0,0,0,0,0,0,0,0,0,-1,951,1261,0,0
-266,-237,0,0,0,0,0,0,0,0,0,-1,958,1261,0,0
-259,-237,0,0,0,0,0,0,0,0,0,-1,965,1261,0,0
-252,-237,0,0,0,0,0,0,0,0,0,-1,972,1261,0,0
-245,-237,0,0,0,0,0,0,0,0,0,-1,979,1261,0,0
-238,-237,0,0,0,0,0,0,0,0,0,-1,986,1261,0,0
-231,-237,0,0,0,0,0,0,0,0,0,-1,993,1261,0,0
-224,-237,0,0,0,0,0,0,0,0,0,-1,1000,1261,0,0
-217,-237,0,0,0,0,0,0,0,0,0,-1,1007,1261,0,0
-210,-237,0,0,0,0,0,0,0,0,0,-1,1014,1261,0,0
-203,-237,0,0,0,0,0,0,0,0,0,-1,1021,1261,0,0
-196,-237,0,0,0,0,0,0,0,0,0,-1,1028,1261,0,0
-189,-237,0,0,0,0,0,0,0,0,0,-1,1035,1261,0,0
-182,-237,0,0,0,0,0,0,0,0,0,-1,1042,1261,0,0
-175,-237,0,0,0,0,0,0,0,0,0,-1,1049,1261,0,0
-168,-237,0,0,0,0,0,0,0,0,0,-1,1056,1261,0,0
-161,-237,0,0,0,0,0,0,0,0,0,-1,1063,1261,0,0
-154,-237,0,0,0,0,0,0,0,0,0,-1,1070,1261,0,0
-147,-237,0,0,0,0,0,0,0,0,0,-1,1077,1261,0,0
-140,-237,0,0,0,0,0,0,0,0,0,-1,1084,1261,0,0
-133,-237,0,0,0,0,0,0,0,0,0,-1,1091,1261,0,0
-126,-237,0,0,0,0,0,0,0,0,0,-1,1098,1261,0,0
-119,-237,0,0,0,0,0,0,0,0,0,-1,1105,1261,0,0
-112,-237,0,0,0,0,0,0,0,0,0,-1,1112,1261,0,0
-105,-237,0,0,0,0,0,0,0,0,0,-1,1119,1261,0,0
-98,-237,0,0,0,0,0,0,0,0,0,-1,1126,1261,0,0
-91,-237,0,0,0,0,0,0,0,0,0,-1,1133,1261,0,0
-84,-237,0,0,0,0,0,0,0,0,0,-1,1140,1261,0,0
-77,-237,0,0,0,0,0,0,0,0,0,-1,1147,1261,0,0
-70,-237,0,0,0,0,0,0,0,0,0,-1,1154,1261,0,0
-63,-237,0,0,0,0,0,0,0,0,0,-1,1161,1261,0,0
-56,-237,0,0,0,0,0,0,0,0,0,-1,1168,1261,0,0
-49,-237,0,0,0,0,0,0,0,0,0,-1,1175,1261,0,0
-42,-237,0,0,0,0,0,0,0,0,0,-1,1182,1261,0,0
-35,-237,0,0,0,0,0,0,0,0,0,-1,1189,1261,0,0
-28,-237,0,0,0,0,0,0,0,0,0,-1,1196,1261,0,0
-21,-237,0,0,0,0,0,0,0,0,0,-1,1203,1261,0,0
-14,-237,0,0,0,0,0,0,0,0,0,-1,1210,1261,0,0
-7,-237,0,0,0,0,0,0,0,0,0,-1,1217,1261,0,0
0,-237,0,0,0,0,0,0,0,0,0,-1,1224,1261,0,0
7,-237,0,0,0,0,0,0,0,0,0,-1,1231,1261,0,0
14,-237,0,0,0,0,0,0,0,0,0,-1,1238,1261,0,0
21,-237,0,0,0,0,0,0,0,0,0,-1,1245,1261,0,0
28,-237,0,0,0,0,0,0,0,0,0,-1,1252,1261,0,0
35,-237,0,0,0,0,0,0,0,0,0,-1,1259,1261,0,0
42,-237,0,0,0,0,0,0,0,0,0,-1,1266,1261,0,0
49,-237,0,0,0,0,0,0,0,0,0,-1,1273,1261,0,0
56,-237,0,0,0,0,0,0,0,0,0,-1,1280,1261,0,0
63,-237,0,0,0,0,0,0,0,0,0,-1,1287,1261,0,0
70,-237,0,0,0,0,0,0,0,0,0,-1,1294,1261,0,0
77,-237,0,0,0,0,0,0,0,0,0,-1,1301,1261,0,0
84,-237,0,0,0,0,0,0,0,0,0,-1,1308,1261,0,0
91,-237,0,0,0,0,0,0,0,0,0,-1,1315,1261,0,0
98,-237,0,0,0,0,0,0,0,0,0,-1,1322,1261,0,0
105,-237,0,0,0,0,0,0,0,0,0,-1,1329,1261,0,0
112,-237,0,0,0,0,0,0,0,0,0,-1,1336,1261,0,0
119,-237,0,0,0,0,0,0,0,0,0,-1,1343,1261,0,0
126,-237,0,0,0,0,0,0,0,0,0,-1,1350,1261,0,0
133,-237,0,0,0,0,0,0,0,0,0,-1,1357,1261,0,0
140,-237,0,0,0,0,0,0,0,0,0,-1,1364,1261,0,0
147,-237,0,0,0,0,0,0,0,0,0,-1,1371,1261,0,0
154,-237,0,0,0,0,0,0,0,0,0,-1,1378,1261,0,0
161,-237,0,0,0,0,0,0,0,0,0,-1,1385,1261,0,0
168,-237,0,0,0,0,0,0,0,0,0,-1,1392,1261,0,0
175,-237,0,0,0,0,0,0,0,0,0,-1,1399,1261,0,0
182,-237,0,0,0,0,0,0,0,0,0,-1,1406,1261,0,0
189,-237,0,0,0,0,0,0,0,0,0,-1,1413,1261,0,0
196,-237,0,0,0,0,0,0,0,0,0,-1,1420,1261,0,0
203,-237,0,0,0,0,0,0,0,0,0,-1,1427,1261,0,0
210,-237,0,0,0,0,0,0,0,0,0,-1,1434,1261,0,0
217,-237,0,0,0,0,0,0,0,0,0,-1,1441,1261,0,0
224,-237,0,0,0,0,0,0,0,0,0,-1,1448,1261,0,0
231,-237,0,0,0,0,0,0,0,0,0,-1,1455,1261,0,0
238,-237,0,0,0,0,0,0,0,0,0,-1,1462,1261,0,0
245,-237,0,0,0,0,0,0,0,0,0,-1,1469,1261,0,0
252,-237,0,0,0,0,0,0,0,0,0,-1,1476,1261,0,0
259,-237,0,0,0,0,0,0,0,0,0,-1,1483,1261,0,0
266,-237,0,0,0,0,0,0,0,0,0,-1,1490,1261,0,0
273,-237,0,0,0,0,0,0,0,0,0,-1,1497,1261,0,0
280,-237,0,0,0,0,0,0,0,0,0,-1,1504,1261,0,0
287,-237,0,0,0,0,0,0,0,0,0,-1,1511,1261,0,0
294,-237,0,0,0,0,0,0,0,0,0,-1,1518,1261,0,0
301,-237,0,0,0,0,0,0,0,0,0,-1,1525,1261,0,0
308,-237,0,0,0,0,0,0,0,0,0,-1,1532,1261,0,0
315,-237,0,0,0,0,0,0,0,0,0,-1,1539,1261,0,0
322,-237,0,0,0,0,0,0,0,0,0,-1,1546,1261,0,0
329,-237,0,0,0,0,0,0,0,0,0,-1,1553,1261,0,0
336,-237,0,0,0,0,0,0,0,0,0,-1,1560,1261,0,0
343,-237,0,0,0,0,0,0,0,0,0,-1,1567,1261,0,0
350,-237,0,0,0,0,0,0,0,0,0,-1,1574,1261,0,0
357,-237,0,0,0,0,0,0,0,0,0,-1,1581,1261,0,0
364,-237,0,0,0,0,0,0,0,0,0,-1,1588,1261,0,0
371,-237,0,0,0,0,0,0,0,0,0,-1,1595,1261,0,0
378,-237,0,0,0,0,0,0,0,0,0,-1,1602,1261,0,0
385,-237,0,0,0,0,0,0,0,0,0,-1,1609,1261,0,0
392,-237,0,0,0,0,0,0,0,0,0,-1,1616,1261,0,0
399,-237,0,0,0,0,0,0,0,0,0,-1,1623,1261,0,0
406,-237,0,0,0,0,0,0,0,0,0,-1,1630,1261,0,0
413,-237,0,0,0,0,0,0,0,0,0,-1,1637,1261,0,0
420,-237,0,0,0,0,0,0,0,0,0,-1,1644,1261,0,0
427,-237,0,0,0,0,0,0,0,0,0,-1,1651,1261,0,0
434,-237,0,0,0,0,0,0,0,0,0,-1,1658,1261,0,0
441,-237,0,0,0,0,0,0,0,0,0,-1,1665,1261,0,0
448,-237,0,0,0,0,0,0,0,0,0,-1,1672,1261,0,0
455,-237,0,0,0,0,0,0,0,0,0,-1,1679,1261,0,0
462,-237,0,0,0,0,0,0,0,0,0,-1,1686,1261,0,0
469,-237,0,0,0,0,0,0,0,0,0,-1,1693,1261,0,0
476,-237,0,0,0,0,0,0,0,0,0,-1,1700,1261,0,0
483,-237,0,0,0,0,0,0,0,0,0,-1,1707,1261,0,0
490,-237,0,0,0,0,0,0,0,0,0,-1,1714,1261,0,0
497,-237,0,0,0,0,0,0,0,0,0,-1,1721,1261,0,0
504,-237,0,0,0,0,0,0,0,0,0,-1,1728,1261,0,0
511,-237,0,0,0,0,0,0,0,0,0,-1,1735,1261,0,0
518,-237,0,0,0,0,0,0,0,0,0,-1,1742,1261,0,0
525,-237,0,0,0,0,0,0,0,0,0,-1,1749,1261,0,0
532,-237,0,0,0,0,0,0,0,0,0,-1,1756,1261,0,0
539,-237,0,0,0,0,0,0,0,0,0,-1,1763,1261,0,0
546,-237,0,0,0,0,0,0,0,0,0,-1,1770,1261,0,0
553,-237,0,0,0,0,0,0,0,0,0,-1,1777,1261,0,0
560,-237,0,0,0,0,0,0,0,0,0,-1,1784,1261,0,0
567,-237,0,0,0,0,0,0,0,0,0,-1,1791,1261,0,0
574,-237,0,0,0,0,0,0,0,0,0,-1,1798,1261,0,0
581,-237,0,0,0,0,0,0,0,0,0,-1,1805,1261,0,0
588,-237,0,0,0,0,0,0,0,0,0,-1,1812,1261,0,0
595,-237,0,0,0,0,0,0,0,0,0,-1,1819,1261,0,0
602,-237,0,0,0,0,0,0,0,0,0,-1,1826,1261,0,0
609,-237,0,0,0,0,0,0,0,0,0,-1,1833,1261,0,0
616,-237,27.3447,3.32654,0.000758005,-0.000639551,-0.00362512,0.00375108,-0.00363262,-0.690186,0.00426316,0.0402652,1840,1261,27.3447,-3.32653
623,-237,27.4283,3.3335,-0.0032358,0.00295405,-0.00327488,0.00436506,-0.00464681,-1.16397,0.00520385,0.0362235,1847,1261,27.4284,-3.33352
630,-237,27.3746,3.3429,-0.00660477,0.00530882,-0.000893528,0.00537546,-0.00667142,-1.49635,0.00696867,0.0278768,1854,1261,27.3746,-3.34287
637,-237,27.2684,3.24976,-0.00844207,0.00636775,0.00172467,0.00656594,-0.00864026,1.45638,0.00880649,0.0223329,1861,1261,27.2684,-3.24979
644,-237,27.1118,3.13049,-0.00852645,0.00628862,0.00376279,0.00718952,-0.00942735,1.3358,0.00962271,0.0425696,1868,1261,27.1119,-3.13051
651,-237,26.9491,2.97253,-0.00768213,0.0054707,0.00489202,0.0070907,-0.00930212,1.25101,0.00949306,0.0477542,1875,1261,26.9491,-2.97249
658,-237,26.8673,2.8866,-0.00657415,0.00451409,0.00550046,0.00677973,-0.00883979,1.18007,0.00904404,0.0467255,1882,1261,26.8673,-2.88656
665,-237,26.7244,3.21033,-0.00549922,0.0036049,0.00577174,0.00640364,-0.00829796,1.1193,0.00851143,0.0451422,1889,1261,26.7243,-3.21035
672,-237,25.9177,3.92749,0,0,0,0,0,0,0,-1,1896,1261,25.9177,-3.92744
679,-237,23.1501,7.37488,0,0,0,0,0,0,0,-1,1903,1261,23.1502,-7.37493
686,-237,22.7029,7.10034,0,0,0,0,0,0,0,-1,1910,1261,22.7029,-7.10033
693,-237,22.2556,6.82568,0,0,0,0,0,0,0,-1,1917,1261,22.2556,-6.82572
700,-237,22.2363,6.64307,-6.47609e-05,-0.000998588,0.00515666,0.00464608,-0.00570943,0.740248,0.00598925,0.0114123,1924,1261,22.2363,-6.64312
707,-237,22.2473,6.41016,0.000431165,-0.00110496,0.00382248,0.00356199,-0.00423578,0.686252,0.00450764,0.010124,1931,1261,22.2473,-6.41017
714,-237,22.2435,6.15161,0.000726961,-0.00106497,0.00253453,0.00251922,-0.00285723,0.615501,0.00310614,0.0124328,1938,1261,22.2435,-6.15162
721,-237,22.2134,5.90747,0.00123796,-0.000274731,0.00109395,0.00181157,-0.000848339,0.482935,0.0015689,0.0132673,1945,1261,22.2134,-5.90742
728,-237,22.2473,5.69897,0.00177221,0.00090646,-0.000168855,0.00180398,0.000874692,-0.185962,0.00104169,0.0128231,1952,1261,22.2473,-5.69899
735,-237,22.2378,5.4895,0.00280909,0.00119162,-0.00116173,0.00341587,0.000584849,-0.48133,0.0021095,0.0185603,1959,1261,22.2378,-5.48953
742,-237,22.2433,5.26001,0.00448836,0.000841238,-0.00257503,0.00582014,-0.000490538,-0.477304,0.00405351,0.0143535,1966,1261,22.2432,-5.25996
749,-237,22.2383,5.03674,0.00669158,0.000535044,-0.00430064,0.00890209,-0.00167547,-0.474782,0.00656488,0.00905707,1973,1261,22.2383,-5.03674
756,-237,22.2076,4.80103,0.00980256,-0.000460342,-0.00676898,0.0131653,-0.00382306,-0.461071,0.0102907,0.0142854,1980,1261,22.2076,-4.80103
763,-237,22.147,4.50439,0.0138894,-0.00251554,-0.0102299,0.0187992,-0.00742534,-0.447476,0.0156082,0.029293,1987,1261,22.147,-4.50441
770,-237,22.2611,4.17761,0.0188447,-0.00609746,-0.0148806,0.0257891,-0.0130419,-0.436633,0.0228182,0.0431891,1994,1261,22.2611,-4.1776
777,-237,22.4031,4.21497,0,0,0,0,0,0,0,-1,2001,1261,22.4031,-4.21495
784,-237,22.2477,4.27905,0,0,0,0,0,0,0,-1,2008,1261,22.2476,-4.27905
791,-237,27.4911,5.61902,0,0,0,0,0,0,0,-1,2015,1261,27.4911,-5.61904
798,-237,0,0,0,0,0,0,0,0,0,-1,2022,1261,0,0
805,-237,0,0,0,0,0,0,0,0,0,-1,2029,1261,0,0
812,-237,0,0,0,0,0,0,0,0,0,-1,2036,1261,0,0
-700,-244,0,0,0,0,0,0,0,0,0,-1,524,1268,0,0
-693,-244,0,0,0,0,0,0,0,0,0,-1,531,1268,0,0
-686,-244,0,0,0,0,0,0,0,0,0,-1,538,1268,0,0
-679,-244,0,0,0,0,0,0,0,0,0,-1,545,1268,0,0
-672,-244,-14.1426,-0.754883,-0.0510795,-0.0719787,0.0618582,0.0012055,-0.124264,0.701724,0.0832472,0.0467459,552,1268,-14.1427,0.7549
-665,-244,-15.0194,-0.461548,-0.0253265,-0.0637165,0.0493105,0.00839328,-0.0974363,0.599788,0.0679284,0.0492477,559,1268,-15.0194,0.461502
-658,-244,-15.8385,-0.0211182,0,0,0,0,0,0,0,-1,566,1268,-15.8385,0.0211638
-651,-244,-14.5977,0.578003,0.00122494,-0.0449014,0.0305344,0.0164275,-0.0601039,0.461951,0.0465221,0.0447958,573,1268,-14.5977,-0.578038
-644,-244,-14.777,1.08533,0.00689112,-0.0359503,0.023621,0.0173577,-0.0464169,0.417105,0.0380731,0.0466393,580,1268,-14.777,-1.08529
-637,-244,-12.158,1.27429,0.0094743,-0.027784,0.0179848,0.0167391,-0.0350488,0.383901,0.0305163,0.0481356,587,1268,-12.1579,-1.27431
-630,-244,-12.477,1.51941,0.00994125,-0.020612,0.0134395,0.0150115,-0.0256823,0.360756,0.0237623,0.04243,594,1268,-12.477,-1.51935
-623,-244,-12.7801,2.08191,0.00922989,-0.014555,0.0097965,0.0127453,-0.0180704,0.34453,0.0178798,0.0327455,601,1268,-12.7801,-2.08193
-616,-244,-12.8983,2.57239,0.00916429,-0.00937697,0.00654763,0.0112434,-0.0114561,0.307463,0.0131057,0.0169155,608,1268,-12.8983,-2.57242
-609,-244,-12.8994,2.81299,0.00873417,-0.0054741,0.00374139,0.00965915,-0.00639909,0.24237,0.0093347,0.0146344,615,1268,-12.8993,-2.81298
-602,-244,-12.9172,3.08191,0.00641921,-0.00295419,0.00204358,0.00684537,-0.00338035,0.205591,0.00601575,0.0142767,622,1268,-12.9172,-3.08196
-595,-244,-12.9288,3.3468,0.00410205,-0.000194658,0.00170712,0.00469772,-0.000790332,0.335726,0.00342578,0.0155885,629,1268,-12.9288,-3.34685
-588,-244,-12.926,3.61011,0.00340271,0.000831268,0.00156409,0.0041417,9.22773e-05,0.441385,0.0027309,0.0203018,636,1268,-12.9259,-3.61008
-581,-244,-12.9413,3.89148,0.00361288,0.000730874,0.00135638,0.00415083,0.000192922,0.377579,0.00270521,0.0180578,643,1268,-12.9414,-3.89142
-574,-244,-12.941,4.16284,0.00445676,0.00105015,0.00155756,0.00506154,0.00044537,0.370366,0.00323613,0.0137445,650,1268,-12.941,-4.16279
-567,-244,-12.927,4.44702,0.00391454,0.00158223,0.00205444,0.00511072,0.000386052,0.527261,0.00328603,0.0106343,657,1268,-12.927,-4.44698
-560,-244,-12.8585,4.74475,0.00276335,0.00209231,0.00231142,0.00476348,9.21842e-05,0.713322,0.00314537,0.0210331,664,1268,-12.8585,-4.74469
-553,-244,-12.7439,5.06433,0,0,0,0,0,0,0,-1,671,1268,-12.7439,-5.06433
-546,-244,-11.2686,4.41772,0,0,0,0,0,0,0,-1,678,1268,-11.2686,-4.41767
-539,-244,-12.8706,0.3302,0,0,0,0,0,0,0,-1,685,1268,-12.8706,-0.330156
-532,-244,-18.1502,0.816528,0,0,0,0,0,0,0,-1,692,1268,-18.1502,-0.816514
-525,-244,-18.2382,1.0697,-0.00717879,0.00677888,0.00190858,0.00703515,-0.00743507,1.43732,0.00835545,0.0491724,699,1268,-18.2381,-1.06972
-518,-244,-18.3713,1.30383,-0.0106312,0.00799585,0.0010212,0.00805167,-0.0106871,1.51619,0.0108544,0.0436315,706,1268,-18.3713,-1.30387
-511,-244,-18.5516,1.43213,-0.0137565,0.00957271,-0.00024802,0.00957535,-0.0137592,-1.56017,0.0135442,0.0446314,713,1268,-18.5516,-1.43208
-504,-244,-18.6956,1.50366,-0.0152531,0.0112046,-0.00137125,0.0112754,-0.015324,-1.51915,0.0154164,0.0446447,720,1268,-18.6956,-1.5037
-497,-244,-18.7606,1.53931,-0.0160954,0.0125996,-0.00312108,0.0129352,-0.0164309,-1.4637,0.0169945,0.0461044,727,1268,-18.7606,-1.53931
-490,-244,0,0,0,0,0,0,0,0,0,-1,734,1268,0,0
-483,-244,0,0,0,0,0,0,0,0,0,-1,741,1268,0,0
-476,-244,0,0,0,0,0,0,0,0,0,-1,748,1268,0,0
-469,-244,0,0,0,0,0,0,0,0,0,-1,755,1268,0,0
-462,-244,0,0,0,0,0,0,0,0,0,-1,762,1268,0,0
-455,-244,0,0,0,0,0,0,0,0,0,-1,769,1268,0,0
-448,-244,0,0,0,0,0,0,0,0,0,-1,776,1268,0,0
-441,-244,0,0,0,0,0,0,0,0,0,-1,783,1268,0,0
-434,-244,0,0,0,0,0,0,0,0,0,-1,790,1268,0,0
-427,-244,0,0,0,0,0,0,0,0,0,-1,797,1268,0,0
-420,-244,0,0,0,0,0,0,0,0,0,-1,804,1268,0,0
-413,-244,0,0,0,0,0,0,0,0,0,-1,811,1268,0,0
-406,-244,0,0,0,0,0,0,0,0,0,-1,818,1268,0,0
-399,-244,0,0,0,0,0,0,0,0,0,-1,825,1268,0,0
-392,-244,0,0,0,0,0,0,0,0,0,-1,832,1268,0,0
-385,-244,0,0,0,0,0,0,0,0,0,-1,839,1268,0,0
-378,-244,0,0,0,0,0,0,0,0,0,-1,846,1268,0,0
-371,-244,0,0,0,0,0,0,0,0,0,-1,853,1268,0,0
-364,-244,0,0,0,0,0,0,0,0,0,-1,860,1268,0,0
-357,-244,0,0,0,0,0,0,0,0,0,-1,867,1268,0,0
-350,-244,0,0,0,0,0,0,0,0,0,-1,874,1268,0,0
-343,-244,0,0,0,0,0,0,0,0,0,-1,881,1268,0,0
-336,-244,0,0,0,0,0,0,0,0,0,-1,888,1268,0,0
-329,-244,0,0,0,0,0,0,0,0,0,-1,895,1268,0,0
-322,-244,0,0,0,0,0,0,0,0,0,-1,902,1268,0,0
-315,-244,0,0,0,0,0,0,0,0,0,-1,909,1268,0,0
-308,-244,0,0,0,0,0,0,0,0,0,-1,916,1268,0,0
-301,-244,0,0,0,0,0,0,0,0,0,-1,923,1268,0,0
-294,-244,0,0,0,0,0,0,0,0,0,-1,930,1268,0,0
-287,-244,0,0,0,0,0,0,0,0,0,-1,937,1268,0,0
-280,-244,0,0,0,0,0,0,0,0,0,-1,944,1268,0,0
-273,-244,0,0,0,0,0,0,0,0,0,-1,951,1268,0,0
-266,-244,0,0,0,0,0,0,0,0,0,-1,958,1268,0,0
-259,-244,0,0,0,0,0,0,0,0,0,-1,965,1268,0,0
-252,-244,0,0,0,0,0,0,0,0,0,-1,972,1268,0,0
-245,-244,0,0,0,0,0,0,0,0,0,-1,979,1268,0,0
-238,-244,0,0,0,0,0,0,0,0,0,-1,986,1268,0,0
-231,-244,0,0,0,0,0,0,0,0,0,-1,993,1268,0,0
-224,-244,0,0,0,0,0,0,0,0,0,-1,1000,1268,0,0
-217,-244,0,0,0,0,0,0,0,0,0,-1,1007,1268,0,0
-210,-244,0,0,0,0,0,0,0,0,0,-1,1014,1268,0,0
-203,-244,0,0,0,0,0,0,0,0,0,-1,1021,1268,0,0
-196,-244,0,0,0,0,0,0,0,0,0,-1,1028,1268,0,0
-189,-244,0,0,0,0,0,0,0,0,0,-1,1035,1268,0,0
-182,-244,0,0,0,0,0,0,0,0,0,-1,1042,1268,0,0
-175,-244,0,0,0,0,0,0,0,0,0,-1,1049,1268,0,0
-168,-244,0,0,0,0,0,0,0,0,0,-1,1056,1268,0,0
-161,-244,0,0,0,0,0,0,0,0,0,-1,1063,1268,0,0
-154,-244,0,0,0,0,0,0,0,0,0,-1,1070,1268,0,0
-147,-244,0,0,0,0,0,0,0,0,0,-1,1077,1268,0,0
-140,-244,0,0,0,0,0,0,0,0,0,-1,1084,1268,0,0
-133,-244,0,0,0,0,0,0,0,0,0,-1,1091,1268,0,0
-126,-244,0,0,0,0,0,0,0,0,0,-1,1098,1268,0,0
-119,-244,0,0,0,0,0,0,0,0,0,-1,1105,1268,0,0
-112,-244,0,0,0,0,0,0,0,0,0,-1,1112,1268,0,0
-105,-244,0,0,0,0,0,0,0,0,0,-1,1119,1268,0,0
-98,-244,0,0,0,0,0,0,0,0,0,-1,1126,1268,0,0
-91,-244,0,0,0,0,0,0,0,0,0,-1,1133,1268,0,0
-84,-244,0,0,0,0,0,0,0,0,0,-1,1140,1268,0,0
-77,-244,0,0,0,0,0,0,0,0,0,-1,1147,1268,0,0
-70,-244,0,0,0,0,0,0,0,0,0,-1,1154,1268,0,0
-63,-244,0,0,0,0,0,0,0,0,0,-1,1161,1268,0,0
-56,-244,0,0,0,0,0,0,0,0,0,-1,1168,1268,0,0
-49,-244,0,0,0,0,0,0,0,0,0,-1,1175,1268,0,0
-42,-244,0,0,0,0,0,0,0,0,0,-1,1182,1268,0,0
-35,-244,0,0,0,0,0,0,0,0,0,-1,1189,1268,0,0
-28,-244,0,0,0,0,0,0,0,0,0,-1,1196,1268,0,0
-21,-244,0,0,0,0,0,0,0,0,0,-1,1203,1268,0,0
-14,-244,0,0,0,0,0,0,0,0,0,-1,1210,1268,0,0
-7,-244,0,0,0,0,0,0,0,0,0,-1,1217,1268,0,0
0,-244,0,0,0,0,0,0,0,0,0,-1,1224,1268,0,0
7,-244,0,0,0,0,0,0,0,0,0,-1,1231,1268,0,0
14,-244,0,0,0,0,0,0,0,0,0,-1,1238,1268,0,0
21,-244,0,0,0,0,0,0,0,0,0,-1,1245,1268,0,0
28,-244,0,0,0,0,0,0,0,0,0,-1,1252,1268,0,0
35,-244,0,0,0,0,0,0,0,0,0,-1,1259,1268,0,0
42,-244,0,0,0,0,0,0,0,0,0,-1,1266,1268,0,0
49,-244,0,0,0,0,0,0,0,0,0,-1,1273,1268,0,0
56,-244,0,0,0,0,0,0,0,0,0,-1,1280,1268,0,0
63,-244,0,0,0,0,0,0,0,0,0,-1,1287,1268,0,0
70,-244,0,0,0,0,0,0,0,0,0,-1,1294,1268,0,0
77,-244,0,0,0,0,0,0,0,0,0,-1,1301,1268,0,0
84,-244,0,0,0,0,0,0,0,0,0,-1,1308,1268,0,0
91,-244,0,0,0,0,0,0,0,0,0,-1,1315,1268,0,0
98,-244,0,0,0,0,0,0,0,0,0,-1,1322,1268,0,0
105,-244,0,0,0,0,0,0,0,0,0,-1,1329,1268,0,0
112,-244,0,0,0,0,0,0,0,0,0,-1,1336,1268,0,0
119,-244,0,0,0,0,0,0,0,0,0,-1,1343,1268,0,0
126,-244,0,0,0,0,0,0,0,0,0,-1,1350,1268,0,0
133,-244,0,0,0,0,0,0,0,0,0,-1,1357,1268,0,0
140,-244,0,0,0,0,0,0,0,0,0,-1,1364,1268,0,0
147,-244,0,0,0,0,0,0,0,0,0,-1,1371,1268,0,0
154,-244,0,0,0,0,0,0,0,0,0,-1,1378,1268,0,0
161,-244,0,0,0,0,0,0,0,0,0,-1,1385,1268,0,0
168,-244,0,0,0,0,0,0,0,0,0,-1,1392,1268,0,0
175,-244,0,0,0,0,0,0,0,0,0,-1,1399,1268,0,0
182,-244,0,0,0,0,0,0,0,0,0,-1,1406,1268,0,0
189,-244,0,0,0,0,0,0,0,0,0,-1,1413,1268,0,0
196,-244,0,0,0,0,0,0,0,0,0,-1,1420,1268,0,0
203,-244,0,0,0,0,0,0,0,0,0,-1,1427,1268,0,0
210,-244,0,0,0,0,0,0,0,0,0,-1,1434,1268,0,0
217,-244,0,0,0,0,0,0,0,0,0,-1,1441,1268,0,0
224,-244,0,0,0,0,0,0,0,0,0,-1,1448,1268,0,0
231,-244,0,0,0,0,0,0,0,0,0,-1,1455,1268,0,0
238,-244,0,0,0,0,0,0,0,0,0,-1,1462,1268,0,0
245,-244,0,0,0,0,0,0,0,0,0,-1,1469,1268,0,0
252,-244,0,0,0,0,0,0,0,0,0,-1,1476,1268,0,0
259,-244,0,0,0,0,0,0,0,0,0,-1,1483,1268,0,0
266,-244,0,0,0,0,0,0,0,0,0,-1,1490,1268,0,0
273,-244,0,0,0,0,0,0,0,0,0,-1,1497,1268,0,0
280,-244,0,0,0,0,0,0,0,0,0,-1,1504,1268,0,0
287,-244,0,0,0,0,0,0,0,0,0,-1,1511,1268,0,0
294,-244,0,0,0,0,0,0,0,0,0,-1,1518,1268,0,0
301,-244,0,0,0,0,0,0,0,0,0,-1,1525,1268,0,0
308,-244,0,0,0,0,0,0,0,0,0,-1,1532,1268,0,0
315,-244,0,0,0,0,0,0,0,0,0,-1,1539,1268,0,0
322,-244,0,0,0,0,0,0,0,0,0,-1,1546,1268,0,0
329,-244,0,0,0,0,0,0,0,0,0,-1,1553,1268,0,0
336,-244,0,0,0,0,0,0,0,0,0,-1,1560,1268,0,0
343,-244,0,0,0,0,0,0,0,0,0,-1,1567,1268,0,0
350,-244,0,0,0,0,0,0,0,0,0,-1,1574,1268,0,0
357,-244,0,0,0,0,0,0,0,0,0,-1,1581,1268,0,0
364,-244,0,0,0,0,0,0,0,0,0,-1,1588,1268,0,0
371,-244,0,0,0,0,0,0,0,0,0,-1,1595,1268,0,0
378,-244,0,0,0,0,0,0,0,0,0,-1,1602,1268,0,0
385,-244,0,0,0,0,0,0,0,0,0,-1,1609,1268,0,0
392,-244,0,0,0,0,0,0,0,0,0,-1,1616,1268,0,0
399,-244,0,0,0,0,0,0,0,0,0,-1,1623,1268,0,0
406,-244,0,0,0,0,0,0,0,0,0,-1,1630,1268,0,0
413,-244,0,0,0,0,0,0,0,0,0,-1,1637,1268,0,0
420,-244,0,0,0,0,0,0,0,0,0,-1,1644,1268,0,0
427,-244,0,0,0,0,0,0,0,0,0,-1,1651,1268,0,0
434,-244,0,0,0,0,0,0,0,0,0,-1,1658,1268,0,0
441,-244,0,0,0,0,0,0,0,0,0,-1,1665,1268,0,0
448,-244,0,0,0,0,0,0,0,0,0,-1,1672,1268,0,0
455,-244,0,0,0,0,0,0,0,0,0,-1,1679,1268,0,0
462,-244,0,0,0,0,0,0,0,0,0,-1,1686,1268,0,0
469,-244,0,0,0,0,0,0,0,0,0,-1,1693,1268,0,0
476,-244,0,0,0,0,0,0,0,0,0,-1,1700,1268,0,0
483,-244,0,0,0,0,0,0,0,0,0,-1,1707,1268,0,0
490,-244,0,0,0,0,0,0,0,0,0,-1,1714,1268,0,0
497,-244,0,0,0,0,0,0,0,0,0,-1,1721,1268,0,0
504,-244,0,0,0,0,0,0,0,0,0,-1,1728,1268,0,0
511,-244,0,0,0,0,0,0,0,0,0,-1,1735,1268,0,0
518,-244,0,0,0,0,0,0,0,0,0,-1,1742,1268,0,0
525,-244,0,0,0,0,0,0,0,0,0,-1,1749,1268,0,0
532,-244,0,0,0,0,0,0,0,0,0,-1,1756,1268,0,0
539,-244,0,0,0,0,0,0,0,0,0,-1,1763,1268,0,0
546,-244,0,0,0,0,0,0,0,0,0,-1,1770,1268,0,0
553,-244,0,0,0,0,0,0,0,0,0,-1,1777,1268,0,0
560,-244,0,0,0,0,0,0,0,0,0,-1,1784,1268,0,0
567,-244,0,0,0,0,0,0,0,0,0,-1,1791,1268,0,0
574,-244,0,0,0,0,0,0,0,0,0,-1,1798,1268,0,0
581,-244,0,0,0,0,0,0,0,0,0,-1,1805,1268,0,0
588,-244,0,0,0,0,0,0,0,0,0,-1,1812,1268,0,0
595,-244,0,0,0,0,0,0,0,0,0,-1,1819,1268,0,0
602,-244,0,0,0,0,0,0,0,0,0,-1,1826,1268,0,0
609,-244,0,0,0,0,0,0,0,0,0,-1,1833,1268,0,0
616,-244,27.3105,3.31689,-0.00122823,0.000284149,-0.00333706,0.00294963,-0.00389371,-0.896818,0.00396352,0.036887,1840,1268,27.3105,-3.31691
623,-244,27.3783,3.39502,-0.00672433,0.00363976,-0.00315898,0.00452671,-0.00761128,-1.29707,0.0070829,0.0301971,1847,1268,27.3783,-3.39505
630,-244,27.3777,3.39148,-0.0109279,0.00590007,-0.0011943,0.00598441,-0.0110122,-1.5003,0.00995511,0.0266977,1854,1268,27.3777,-3.39151
637,-244,27.2305,3.28406,-0.0125478,0.00674734,0.00103655,0.00680287,-0.0126033,1.51728,0.0113698,0.0422384,1861,1268,27.2305,-3.28402
644,-244,26.9294,3.10583,-0.0121247,0.00657802,0.00283224,0.00699751,-0.0125442,1.42375,0.0114329,0.0491198,1868,1268,26.9295,-3.1058
651,-244,26.8267,2.90662,-0.0108341,0.0057922,0.00391656,0.00666861,-0.0117105,1.35065,0.0107434,0.0476954,1875,1268,26.8267,-2.90664
658,-244,26.9512,3.01416,-0.0093488,0.00490576,0.00459676,0.00625954,-0.0107026,1.28439,0.00990443,0.0467607,1882,1268,26.9511,-3.01414
665,-244,26.894,3.60449,-0.00794726,0.00407348,0.00497936,0.00586814,-0.00974192,1.22487,0.00910451,0.0466387,1889,1268,26.8941,-3.60446
672,-244,26.1995,4.28735,0,0,0,0,0,0,0,-1,1896,1268,26.1994,-4.28734
679,-244,22.0897,7.151,0,0,0,0,0,0,0,-1,1903,1268,22.0897,-7.15101
686,-244,22.0834,7.14307,-0.00325427,0.00182757,0.00604953,0.00584814,-0.00727483,0.98422,0.00759146,0.0348331,1910,1268,22.0834,-7.1431
693,-244,21.9813,6.92834,-0.00192966,7.48505e-05,0.00579516,0.00495378,-0.00680859,0.871025,0.00681909,0.0140061,1917,1268,21.9813,-6.92837
700,-244,21.9816,6.65088,-0.000612387,-0.000657802,0.00474197,0.00410693,-0.00537712,0.783004,0.00549196,0.00932811,1924,1268,21.9815,-6.65088
707,-244,21.9808,6.41516,0.000102502,-0.00069483,0.00331087,0.00303862,-0.00363095,0.725481,0.00385574,0.0105211,1931,1268,21.9808,-6.41521
714,-244,22.0258,6.17749,0.000631486,-0.000614695,0.00196734,0.00207205,-0.00205526,0.632037,0.00238291,0.0109094,1938,1268,22.0258,-6.17745
721,-244,21.9958,5.95325,0.00125446,0.000163954,0.000601927,0.00152138,-0.000102961,0.41738,0.00105025,0.0118805,1945,1268,21.9959,-5.95322
728,-244,21.9916,5.69958,0.00167073,0.00129358,-0.000474233,0.00199251,0.000971804,-0.596161,0.00115049,0.0155351,1952,1268,21.9916,-5.69955
735,-244,21.9835,5.453,0.00248493,0.00168443,-0.00137548,0.00351722,0.000652146,-0.643813,0.00216049,0.0220098,1959,1268,21.9835,-5.453
742,-244,22.0193,5.2417,0.00381829,0.00154613,-0.00268973,0.00560202,-0.000237603,-0.585574,0.00381635,0.0155889,1966,1268,22.0192,-5.2417
749,-244,22.0038,5.02283,0.00555783,0.00152009,-0.00431386,0.00830186,-0.00122394,-0.566539,0.00598442,0.0179601,1973,1268,22.0038,-5.02287
756,-244,21.8973,4.82861,0.00804516,0.000933131,-0.00668472,0.0120608,-0.00308256,-0.540954,0.00924108,0.0250972,1980,1268,21.8974,-4.82866
763,-244,21.8865,4.56946,0.0113114,-0.000520606,-0.010059,0.0170652,-0.00627435,-0.519575,0.0139469,0.0405741,1987,1268,21.8865,-4.56942
770,-244,21.847,4.12561,0,0,0,0,0,0,0,-1,1994,1268,21.847,-4.12565
777,-244,21.7903,4.30957,0,0,0,0,0,0,0,-1,2001,1268,21.7903,-4.30956
784,-244,19.744,7.35754,0,0,0,0,0,0,0,-1,2008,1268,19.7441,-7.35757
791,-244,0,0,0,0,0,0,0,0,0,-1,2015,1268,0,0
798,-244,0,0,0,0,0,0,0,0,0,-1,2022,1268,0,0
805,-244,0,0,0,0,0,0,0,0,0,-1,2029,1268,0,0
812,-244,0,0,0,0,0,0,0,0,0,-1,2036,1268,0,0
-700,-251,0,0,0,0,0,0,0,0,0,-1,524,1275,0,0
-693,-251,0,0,0,0,0,0,0,0,0,-1,531,1275,0,0
-686,-251,0,0,0,0,0,0,0,0,0,-1,538,1275,0,0
-679,-251,0,0,0,0,0,0,0,0,0,-1,545,1275,0,0
-672,-251,0,0,0,0,0,0,0,0,0,-1,552,1275,0,0
-665,-251,-15.4951,-0.0463867,-0.0120897,-0.0648152,0.0444211,0.0132025,-0.0901074,0.517595,0.0649214,0.0450889,559,1275,-15.4951,0.0463804
-658,-251,-16.4971,0.796387,0.00420774,-0.0551963,0.034603,0.0201081,-0.0710967,0.430733,0.0553321,0.0477016,566,1275,-16.4971,-0.796342
-651,-251,-14.1505,2.04419,0.0125368,-0.0455821,0.0270179,0.0231563,-0.0562016,0.374504,0.0471228,0.0489198,573,1275,-14.1505,-2.0442
-644,-251,-14.2189,1.94421,0,0,0,0,0,0,0,-1,580,1275,-14.2189,-1.94427
-637,-251,-13.8588,1.22546,0.0169219,-0.0283293,0.0161356,0.0220861,-0.0334936,0.30975,0.0323134,0.0404982,587,1275,-13.8589,-1.22549
-630,-251,-12.2676,1.0564,0.0156517,-0.0210828,0.0122401,0.0193565,-0.0247876,0.293912,0.0255508,0.0457906,594,1275,-12.2676,-1.05634
-623,-251,-12.6356,2.11084,0.0134107,-0.0149164,0.00910881,0.0160869,-0.0175926,0.28576,0.0194513,0.0381774,601,1275,-12.6356,-2.11086
-616,-251,-12.6174,2.54724,0.012177,-0.00960906,0.00621149,0.0138235,-0.0112556,0.25912,0.0145047,0.0197012,608,1275,-12.6174,-2.5472
-609,-251,-12.6287,2.7915,0.010803,-0.00564852,0.00367221,0.0115855,-0.006431,0.20994,0.0105428,0.0190411,615,1275,-12.6287,-2.7915
-602,-251,-12.6334,3.0708,0.00759227,-0.00313293,0.00220969,0.00802969,-0.00357035,0.195428,0.00686026,0.0135496,622,1275,-12.6333,-3.07082
-595,-251,-12.6276,3.33374,0.00453385,-0.000170052,0.0019898,0.00526264,-0.000898845,0.35109,0.00384324,0.0126808,629,1275,-12.6276,-3.33378
-588,-251,-12.6357,3.59424,0.00341193,0.000904249,0.0018995,0.0044341,-0.000117921,0.493681,0.00299615,0.0156841,636,1275,-12.6357,-3.59428
-581,-251,-12.6459,3.88086,0.00322658,0.000809973,0.00161878,0.00403829,-1.73389e-06,0.464792,0.00269277,0.014647,643,1275,-12.6459,-3.8808
-574,-251,-12.6432,4.17798,0.00407854,0.00107513,0.00174313,0.00487762,0.000276048,0.429833,0.00316375,0.0128159,650,1275,-12.6432,-4.17799
-567,-251,-12.639,4.45203,0.00371792,0.00157215,0.00213967,0.00503862,0.000251444,0.553004,0.00327848,0.0107217,657,1275,-12.6391,-4.45198
-560,-251,-12.6052,4.7749,0.00260734,0.00212343,0.00230836,0.00468639,4.43764e-05,0.73318,0.00310957,0.0192562,664,1275,-12.6052,-4.7749
-553,-251,-12.4399,4.83606,0,0,0,0,0,0,0,-1,671,1275,-12.4399,-4.83607
-546,-251,-12.3837,4.78967,0,0,0,0,0,0,0,-1,678,1275,-12.3837,-4.78964
-539,-251,-10.7916,0.366333,0,0,0,0,0,0,0,-1,685,1275,-10.7916,-0.366282
-532,-251,-10.7391,-0.00769043,0,0,0,0,0,0,0,-1,692,1275,-10.7391,0.00773227
-525,-251,-18.0395,1.03516,0,0,0,0,0,0,0,-1,699,1275,-18.0395,-1.03521
-518,-251,-18.3236,1.29846,-0.0118327,0.0076352,-0.000322664,0.00764054,-0.0118381,-1.55423,0.0113327,0.0474674,706,1275,-18.3236,-1.29842
-511,-251,-18.308,1.44824,-0.014939,0.00917253,-0.00200732,0.0093385,-0.0151049,-1.4883,0.0142427,0.0466695,713,1275,-18.308,-1.44825
-504,-251,-18.4337,1.40112,0,0,0,0,0,0,0,-1,720,1275,-18.4337,-1.40107
-497,-251,-18.636,1.46509,0,0,0,0,0,0,0,-1,727,1275,-18.6361,-1.46505
-490,-251,0,0,0,0,0,0,0,0,0,-1,734,1275,0,0
-483,-251,0,0,0,0,0,0,0,0,0,-1,741,1275,0,0
-476,-251,0,0,0,0,0,0,0,0,0,-1,748,1275,0,0
-469,-251,0,0,0,0,0,0,0,0,0,-1,755,1275,0,0
-462,-251,0,0,0,0,0,0,0,0,0,-1,762,1275,0,0
-455,-251,0,0,0,0,0,0,0,0,0,-1,769,1275,0,0
-448,-251,0,0,0,0,0,0,0,0,0,-1,776,1275,0,0
-441,-251,0,0,0,0,0,0,0,0,0,-1,783,1275,0,0
-434,-251,0,0,0,0,0,0,0,0,0,-1,790,1275,0,0
-427,-251,0,0,0,0,0,0,0,0,0,-1,797,1275,0,0
-420,-251,0,0,0,0,0,0,0,0,0,-1,804,1275,0,0
-413,-251,0,0,0,0,0,0,0,0,0,-1,811,1275,0,0
-406,-251,0,0,0,0,0,0,0,0,0,-1,818,1275,0,0
-399,-251,0,0,0,0,0,0,0,0,0,-1,825,1275,0,0
-392,-251,0,0,0,0,0,0,0,0,0,-1,832,1275,0,0
-385,-251,0,0,0,0,0,0,0,0,0,-1,839,1275,0,0
-378,-251,0,0,0,0,0,0,0,0,0,-1,846,1275,0,0
-371,-251,0,0,0,0,0,0,0,0,0,-1,853,1275,0,0
-364,-251,0,0,0,0,0,0,0,0,0,-1,860,1275,0,0
-357,-251,0,0,0,0,0,0,0,0,0,-1,867,1275,0,0
-350,-251,0,0,0,0,0,0,0,0,0,-1,874,1275,0,0
-343,-251,0,0,0,0,0,0,0,0,0,-1,881,1275,0,0
-336,-251,0,0,0,0,0,0,0,0,0,-1,888,1275,0,0
-329,-251,0,0,0,0,0,0,0,0,0,-1,895,1275,0,0
-322,-251,0,0,0,0,0,0,0,0,0,-1,902,1275,0,0
-315,-251,0,0,0,0,0,0,0,0,0,-1,909,1275,0,0
-308,-251,0,0,0,0,0,0,0,0,0,-1,916,1275,0,0
-301,-251,0,0,0,0,0,0,0,0,0,-1,923,1275,0,0
-294,-251,0,0,0,0,0,0,0,0,0,-1,930,1275,0,0
-287,-251,0,0,0,0,0,0,0,0,0,-1,937,1275,0,0
-280,-251,0,0,0,0,0,0,0,0,0,-1,944,1275,0,0
-273,-251,0,0,0,0,0,0,0,0,0,-1,951,1275,0,0
-266,-251,0,0,0,0,0,0,0,0,0,-1,958,1275,0,0
-259,-251,0,0,0,0,0,0,0,0,0,-1,965,1275,0,0
-252,-251,0,0,0,0,0,0,0,0,0,-1,972,1275,0,0
-245,-251,0,0,0,0,0,0,0,0,0,-1,979,1275,0,0
-238,-251,0,0,0,0,0,0,0,0,0,-1,986,1275,0,0
-231,-251,0,0,0,0,0,0,0,0,0,-1,993,1275,0,0
-224,-251,0,0,0,0,0,0,0,0,0,-1,1000,1275,0,0
-217,-251,0,0,0,0,0,0,0,0,0,-1,1007,1275,0,0
-210,-251,0,0,0,0,0,0,0,0,0,-1,1014,1275,0,0
-203,-251,0,0,0,0,0,0,0,0,0,-1,1021,1275,0,0
-196,-251,0,0,0,0,0,0,0,0,0,-1,1028,1275,0,0
-189,-251,0,0,0,0,0,0,0,0,0,-1,1035,1275,0,0
-182,-251,0,0,0,0,0,0,0,0,0,-1,1042,1275,0,0
-175,-251,0,0,0,0,0,0,0,0,0,-1,1049,1275,0,0
-168,-251,0,0,0,0,0,0,0,0,0,-1,1056,1275,0,0
-161,-251,0,0,0,0,0,0,0,0,0,-1,1063,1275,0,0
-154,-251,0,0,0,0,0,0,0,0,0,-1,1070,1275,0,0
-147,-251,0,0,0,0,0,0,0,0,0,-1,1077,1275,0,0
-140,-251,0,0,0,0,0,0,0,0,0,-1,1084,1275,0,0
-133,-251,0,0,0,0,0,0,0,0,0,-1,1091,1275,0,0
-126,-251,0,0,0,0,0,0,0,0,0,-1,1098,1275,0,0
-119,-251,0,0,0,0,0,0,0,0,0,-1,1105,1275,0,0
-112,-251,0,0,0,0,0,0,0,0,0,-1,1112,1275,0,0
-105,-251,0,0,0,0,0,0,0,0,0,-1,1119,1275,0,0
-98,-251,0,0,0,0,0,0,0,0,0,-1,1126,1275,0,0
-91,-251,0,0,0,0,0,0,0,0,0,-1,1133,1275,0,0
-84,-251,0,0,0,0,0,0,0,0,0,-1,1140,1275,0,0
-77,-251,0,0,0,0,0,0,0,0,0,-1,1147,1275,0,0
-70,-251,0,0,0,0,0,0,0,0,0,-1,1154,1275,0,0
-63,-251,0,0,0,0,0,0,0,0,0,-1,1161,1275,0,0
-56,-251,0,0,0,0,0,0,0,0,0,-1,1168,1275,0,0
-49,-251,0,0,0,0,0,0,0,0,0,-1,1175,1275,0,0
-42,-251,0,0,0,0,0,0,0,0,0,-1,1182,1275,0,0
-35,-251,0,0,0,0,0,0,0,0,0,-1,1189,1275,0,0
-28,-251,0,0,0,0,0,0,0,0,0,-1,1196,1275,0,0
-21,-251,0,0,0,0,0,0,0,0,0,-1,1203,1275,0,0
-14,-251,0,0,0,0,0,0,0,0,0,-1,1210,1275,0,0
-7,-251,0,0,0,0,0,0,0,0,0,-1,1217,1275,0,0
0,-251,0,0,0,0,0,0,0,0,0,-1,1224,1275,0,0
7,-251,0,0,0,0,0,0,0,0,0,-1,1231,1275,0,0
14,-251,0,0,0,0,0,0,0,0,0,-1,1238,1275,0,0
21,-251,0,0,0,0,0,0,0,0,0,-1,1245,1275,0,0
28,-251,0,0,0,0,0,0,0,0,0,-1,1252,1275,0,0
35,-251,0,0,0,0,0,0,0,0,0,-1,1259,1275,0,0
42,-251,0,0,0,0,0,0,0,0,0,-1,1266,1275,0,0
49,-251,0,0,0,0,0,0,0,0,0,-1,1273,1275,0,0
56,-251,0,0,0,0,0,0,0,0,0,-1,1280,1275,0,0
63,-251,0,0,0,0,0,0,0,0,0,-1,1287,1275,0,0
70,-251,0,0,0,0,0,0,0,0,0,-1,1294,1275,0,0
77,-251,0,0,0,0,0,0,0,0,0,-1,1301,1275,0,0
84,-251,0,0,0,0,0,0,0,0,0,-1,1308,1275,0,0
91,-251,0,0,0,0,0,0,0,0,0,-1,1315,1275,0,0
98,-251,0,0,0,0,0,0,0,0,0,-1,1322,1275,0,0
105,-251,0,0,0,0,0,0,0,0,0,-1,1329,1275,0,0
112,-251,0,0,0,0,0,0,0,0,0,-1,1336,1275,0,0
119,-251,0,0,0,0,0,0,0,0,0,-1,1343,1275,0,0
126,-251,0,0,0,0,0,0,0,0,0,-1,1350,1275,0,0
133,-251,0,0,0,0,0,0,0,0,0,-1,1357,1275,0,0
140,-251,0,0,0,0,0,0,0,0,0,-1,1364,1275,0,0
147,-251,0,0,0,0,0,0,0,0,0,-1,1371,1275,0,0
154,-251,0,0,0,0,0,0,0,0,0,-1,1378,1275,0,0
161,-251,0,0,0,0,0,0,0,0,0,-1,1385,1275,0,0
168,-251,0,0,0,0,0,0,0,0,0,-1,1392,1275,0,0
175,-251,0,0,0,0,0,0,0,0,0,-1,1399,1275,0,0
182,-251,0,0,0,0,0,0,0,0,0,-1,1406,1275,0,0
189,-251,0,0,0,0,0,0,0,0,0,-1,1413,1275,0,0
196,-251,0,0,0,0,0,0,0,0,0,-1,1420,1275,0,0
203,-251,0,0,0,0,0,0,0,0,0,-1,1427,1275,0,0
210,-251,0,0,0,0,0,0,0,0,0,-1,1434,1275,0,0
217,-251,0,0,0,0,0,0,0,0,0,-1,1441,1275,0,0
224,-251,0,0,0,0,0,0,0,0,0,-1,1448,1275,0,0
231,-251,0,0,0,0,0,0,0,0,0,-1,1455,1275,0,0
238,-251,0,0,0,0,0,0,0,0,0,-1,1462,1275,0,0
245,-251,0,0,0,0,0,0,0,0,0,-1,1469,1275,0,0
252,-251,0,0,0,0,0,0,0,0,0,-1,1476,1275,0,0
259,-251,0,0,0,0,0,0,0,0,0,-1,1483,1275,0,0
266,-251,0,0,0,0,0,0,0,0,0,-1,1490,1275,0,0
273,-251,0,0,0,0,0,0,0,0,0,-1,1497,1275,0,0
280,-251,0,0,0,0,0,0,0,0,0,-1,1504,1275,0,0
287,-251,0,0,0,0,0,0,0,0,0,-1,1511,1275,0,0
294,-251,0,0,0,0,0,0,0,0,0,-1,1518,1275,0,0
301,-251,0,0,0,0,0,0,0,0,0,-1,1525,1275,0,0
308,-251,0,0,0,0,0,0,0,0,0,-1,1532,1275,0,0
315,-251,0,0,0,0,0,0,0,0,0,-1,1539,1275,0,0
322,-251,0,0,0,0,0,0,0,0,0,-1,1546,1275,0,0
329,-251,0,0,0,0,0,0,0,0,0,-1,1553,1275,0,0
336,-251,0,0,0,0,0,0,0,0,0,-1,1560,1275,0,0
343,-251,0,0,0,0,0,0,0,0,0,-1,1567,1275,0,0
350,-251,0,0,0,0,0,0,0,0,0,-1,1574,1275,0,0
357,-251,0,0,0,0,0,0,0,0,0,-1,1581,1275,0,0
364,-251,0,0,0,0,0,0,0,0,0,-1,1588,1275,0,0
371,-251,0,0,0,0,0,0,0,0,0,-1,1595,1275,0,0
378,-251,0,0,0,0,0,0,0,0,0,-1,1602,1275,0,0
385,-251,0,0,0,0,0,0,0,0,0,-1,1609,1275,0,0
392,-251,0,0,0,0,0,0,0,0,0,-1,1616,1275,0,0
399,-251,0,0,0,0,0,0,0,0,0,-1,1623,1275,0,0
406,-251,0,0,0,0,0,0,0,0,0,-1,1630,1275,0,0
413,-251,0,0,0,0,0,0,0,0,0,-1,1637,1275,0,0
420,-251,0,0,0,0,0,0,0,0,0,-1,1644,1275,0,0
427,-251,0,0,0,0,0,0,0,0,0,-1,1651,1275,0,0
434,-251,0,0,0,0,0,0,0,0,0,-1,1658,1275,0,0
441,-251,0,0,0,0,0,0,0,0,0,-1,1665,1275,0,0
448,-251,0,0,0,0,0,0,0,0,0,-1,1672,1275,0,0
455,-251,0,0,0,0,0,0,0,0,0,-1,1679,1275,0,0
462,-251,0,0,0,0,0,0,0,0,0,-1,1686,1275,0,0
469,-251,0,0,0,0,0,0,0,0,0,-1,1693,1275,0,0
476,-251,0,0,0,0,0,0,0,0,0,-1,1700,1275,0,0
483,-251,0,0,0,0,0,0,0,0,0,-1,1707,1275,0,0
490,-251,0,0,0,0,0,0,0,0,0,-1,1714,1275,0,0
497,-251,0,0,0,0,0,0,0,0,0,-1,1721,1275,0,0
504,-251,0,0,0,0,0,0,0,0,0,-1,1728,1275,0,0
511,-251,0,0,0,0,0,0,0,0,0,-1,1735,1275,0,0
518,-251,0,0,0,0,0,0,0,0,0,-1,1742,1275,0,0
525,-251,0,0,0,0,0,0,0,0,0,-1,1749,1275,0,0
532,-251,0,0,0,0,0,0,0,0,0,-1,1756,1275,0,0
539,-251,0,0,0,0,0,0,0,0,0,-1,1763,1275,0,0
546,-251,0,0,0,0,0,0,0,0,0,-1,1770,1275,0,0
553,-251,0,0,0,0,0,0,0,0,0,-1,1777,1275,0,0
560,-251,0,0,0,0,0,0,0,0,0,-1,1784,1275,0,0
567,-251,0,0,0,0,0,0,0,0,0,-1,1791,1275,0,0
574,-251,0,0,0,0,0,0,0,0,0,-1,1798,1275,0,0
581,-251,0,0,0,0,0,0,0,0,0,-1,1805,1275,0,0
588,-251,0,0,0,0,0,0,0,0,0,-1,1812,1275,0,0
595,-251,0,0,0,0,0,0,0,0,0,-1,1819,1275,0,0
602,-251,0,0,0,0,0,0,0,0,0,-1,1826,1275,0,0
609,-251,27.2448,3.30896,0.00350674,-0.00389212,-0.00202253,0.00402352,-0.0044089,-0.250159,0.00487016,0.030824,1833,1275,27.2447,-3.30898
616,-251,27.2944,3.32068,-0.00465994,0.00109559,-0.00414338,0.00326254,-0.00682689,-1.08893,0.00594507,0.0283466,1840,1275,27.2945,-3.32062
623,-251,27.3088,3.38562,-0.0108461,0.00440339,-0.00366276,0.00523752,-0.0116803,-1.34688,0.0100008,0.0259982,1847,1275,27.3088,-3.38558
630,-251,27.3344,3.37671,-0.0148581,0.00652047,-0.00171327,0.0066569,-0.0149945,-1.49133,0.0128057,0.0376636,1854,1275,27.3343,-3.37674
637,-251,27.1888,3.24683,-0.0157132,0.00714421,0.000396182,0.00715108,-0.01572,1.55347,0.01351,0.0417516,1861,1275,27.1888,-3.24685
644,-251,26.4558,3.43213,0,0,0,0,0,0,0,-1,1868,1275,26.4558,-3.4321
651,-251,26.5583,3.09082,0,0,0,0,0,0,0,-1,1875,1275,26.5584,-3.09084
658,-251,26.661,2.74963,0,0,0,0,0,0,0,-1,1882,1275,26.661,-2.74958
665,-251,26.6044,4.07922,0,0,0,0,0,0,0,-1,1889,1275,26.6044,-4.07921
672,-251,26.0721,4.53064,0,0,0,0,0,0,0,-1,1896,1275,26.0721,-4.53063
679,-251,21.6244,7.37585,0,0,0,0,0,0,0,-1,1903,1275,21.6244,-7.37581
686,-251,21.7106,7.17322,-0.00417982,0.00235126,0.00591875,0.00584555,-0.00767411,1.03748,0.00782934,0.0336825,1910,1275,21.7106,-7.17326
693,-251,21.7756,6.91431,-0.0026338,0.000282473,0.00556285,0.00457511,-0.00692644,0.913575,0.00668652,0.0107308,1917,1275,21.7757,-6.91431
700,-251,21.7733,6.65894,-0.00106852,-0.000435184,0.00432014,0.00357988,-0.00508358,0.821983,0.0050269,0.00915845,1924,1275,21.7733,-6.65898
707,-251,21.7653,6.41919,-0.000196104,-0.0003872,0.00281463,0.0025246,-0.0031079,0.768431,0.00325773,0.0114616,1931,1275,21.7652,-6.41913
714,-251,21.7916,6.18823,0.000510404,-0.000249619,0.00144325,0.00162284,-0.00136205,0.656669,0.00172552,0.0115091,1938,1275,21.7916,-6.18826
721,-251,21.7552,5.96228,0.0011531,0.000522893,0.000215087,0.00121951,0.000456483,0.299472,0.000711463,0.0119001,1945,1275,21.7553,-5.96229
728,-251,21.7444,5.7085,0.00134181,0.00161084,-0.000626077,0.00211669,0.000835964,-0.891215,0.00123103,0.0133835,1952,1275,21.7444,-5.70853
735,-251,21.7618,5.46338,0.0018613,0.00214615,-0.00139793,0.0034089,0.000598557,-0.836164,0.00210169,0.0140511,1959,1275,21.7619,-5.46341
742,-251,21.7856,5.24707,0.00277796,0.00227967,-0.0025711,0.00511196,-5.43268e-05,-0.737098,0.00342623,0.0143491,1966,1275,21.7857,-5.24711
749,-251,21.7274,5.01599,0.00396339,0.00261318,-0.00405503,0.00739913,-0.000822554,-0.702912,0.00522855,0.0226234,1973,1275,21.7275,-5.01598
756,-251,21.59,4.6969,0.00571831,0.00259264,-0.00630092,0.0106473,-0.00233637,-0.663835,0.00799167,0.0395837,1980,1275,21.5899,-4.69687
763,-251,21.552,4.32642,0,0,0,0,0,0,0,-1,1987,1275,21.552,-4.32636
770,-251,21.8917,5.28186,0,0,0,0,0,0,0,-1,1994,1275,21.8917,-5.28187
777,-251,20.9109,6.20703,0,0,0,0,0,0,0,-1,2001,1275,20.9109,-6.20699
784,-251,20.0607,6.33337,0,0,0,0,0,0,0,-1,2008,1275,20.0607,-6.33332
791,-251,0,0,0,0,0,0,0,0,0,-1,2015,1275,0,0
798,-251,0,0,0,0,0,0,0,0,0,-1,2022,1275,0,0
805,-251,0,0,0,0,0,0,0,0,0,-1,2029,1275,0,0
812,-251,0,0,0,0,0,0,0,0,0,-1,2036,1275,0,0
-700,-258,0,0,0,0,0,0,0,0,0,-1,524,1282,0,0
-693,-258,0,0,0,0,0,0,0,0,0,-1,531,1282,0,0
-686,-258,0,0,0,0,0,0,0,0,0,-1,538,1282,0,0
-679,-258,0,0,0,0,0,0,0,0,0,-1,545,1282,0,0
-672,-258,0,0,0,0,0,0,0,0,0,-1,552,1282,0,0
-665,-258,-15.6061,0.470215,0,0,0,0,0,0,0,-1,559,1282,-15.6061,-0.470248
-658,-258,-16.5721,0.725708,0,0,0,0,0,0,0,-1,566,1282,-16.5721,-0.725683
-651,-258,-17.7026,1.36365,0,0,0,0,0,0,0,-1,573,1282,-17.7026,-1.36366
-644,-258,-13.0403,0.268799,0,0,0,0,0,0,0,-1,580,1282,-13.0404,-0.268806
-637,-258,-13.1525,1.38635,0.0237879,-0.0278519,0.0137884,0.027239,-0.031303,0.245247,0.0338263,0.0435298,587,1282,-13.1525,-1.38631
-630,-258,-13.1249,2.0968,0.0208381,-0.0208336,0.0106046,0.0233815,-0.023377,0.235395,0.026996,0.0455704,594,1282,-13.1249,-2.0968
-623,-258,-12.3299,2.17456,0,0,0,0,0,0,0,-1,601,1282,-12.3299,-2.17454
-616,-258,-12.3344,2.49072,0.0147902,-0.00946906,0.00553174,0.015992,-0.0106709,0.213938,0.0154957,0.032983,608,1282,-12.3344,-2.49067
-609,-258,-12.318,2.79468,0.012502,-0.00554537,0.00328538,0.0130815,-0.00612484,0.174583,0.0113286,0.0173633,615,1282,-12.318,-2.79463
-602,-258,-12.3224,3.07446,0.00847092,-0.00309608,0.00210415,0.0088418,-0.00346695,0.174466,0.00732882,0.0132874,622,1282,-12.3224,-3.07443
-595,-258,-12.3306,3.34766,0.0047473,-7.99872e-05,0.0020556,0.00550401,-0.000836703,0.352729,0.00397769,0.011012,629,1282,-12.3306,-3.34764
-588,-258,-12.3328,3.64307,0.00321509,0.00100727,0.00205758,0.00444619,-0.000223828,0.539186,0.00304148,0.0126512,636,1282,-12.3328,-3.64306
-581,-258,-12.3506,3.91541,0.00264877,0.00092089,0.00172914,0.00371779,-0.000148124,0.55372,0.00252935,0.0145902,643,1282,-12.3507,-3.91545
-574,-258,-12.3436,4.1842,0.00349752,0.00109537,0.00177265,0.00443768,0.000155212,0.487646,0.0029081,0.0144357,650,1282,-12.3436,-4.18424
-567,-258,-12.3597,4.46216,0.00339227,0.00149009,0.00205748,0.00470785,0.000174513,0.568897,0.00308204,0.0133777,657,1282,-12.3597,-4.46213
-560,-258,-12.3586,4.7605,0.00245019,0.0019718,0.00215287,0.00437711,4.48753e-05,0.730073,0.00290323,0.0246586,664,1282,-12.3586,-4.76049
-553,-258,-12.3187,5.05457,0,0,0,0,0,0,0,-1,671,1282,-12.3187,-5.05455
-546,-258,-12.4598,5.53906,0,0,0,0,0,0,0,-1,678,1282,-12.4598,-5.53911
-539,-258,-10.2228,4.05823,0,0,0,0,0,0,0,-1,685,1282,-10.2228,-4.05823
-532,-258,-10.2173,-0.353882,0,0,0,0,0,0,0,-1,692,1282,-10.2173,0.353836
-525,-258,-17.879,2.15051,0,0,0,0,0,0,0,-1,699,1282,-17.879,-2.15053
-518,-258,-18.4938,1.64844,0,0,0,0,0,0,0,-1,706,1282,-18.4938,-1.64838
-511,-258,-18.2109,1.53894,0,0,0,0,0,0,0,-1,713,1282,-18.211,-1.53892
-504,-258,-17.9281,1.42944,0,0,0,0,0,0,0,-1,720,1282,-17.9281,-1.42947
-497,-258,-17.8047,0.730469,0,0,0,0,0,0,0,-1,727,1282,-17.8048,-0.730489
-490,-258,-15.4346,0.632935,0,0,0,0,0,0,0,-1,734,1282,-15.4346,-0.632917
-483,-258,0,0,0,0,0,0,0,0,0,-1,741,1282,0,0
-476,-258,0,0,0,0,0,0,0,0,0,-1,748,1282,0,0
-469,-258,0,0,0,0,0,0,0,0,0,-1,755,1282,0,0
-462,-258,0,0,0,0,0,0,0,0,0,-1,762,1282,0,0
-455,-258,0,0,0,0,0,0,0,0,0,-1,769,1282,0,0
-448,-258,0,0,0,0,0,0,0,0,0,-1,776,1282,0,0
-441,-258,0,0,0,0,0,0,0,0,0,-1,783,1282,0,0
-434,-258,0,0,0,0,0,0,0,0,0,-1,790,1282,0,0
-427,-258,0,0,0,0,0,0,0,0,0,-1,797,1282,0,0
-420,-258,0,0,0,0,0,0,0,0,0,-1,804,1282,0,0
-413,-258,0,0,0,0,0,0,0,0,0,-1,811,1282,0,0
-406,-258,0,0,0,0,0,0,0,0,0,-1,818,1282,0,0
-399,-258,0,0,0,0,0,0,0,0,0,-1,825,1282,0,0
-392,-258,0,0,0,0,0,0,0,0,0,-1,832,1282,0,0
-385,-258,0,0,0,0,0,0,0,0,0,-1,839,1282,0,0
-378,-258,0,0,0,0,0,0,0,0,0,-1,846,1282,0,0
-371,-258,0,0,0,0,0,0,0,0,0,-1,853,1282,0,0
-364,-258,0,0,0,0,0,0,0,0,0,-1,860,1282,0,0
-357,-258,0,0,0,0,0,0,0,0,0,-1,867,1282,0,0
-350,-258,0,0,0,0,0,0,0,0,0,-1,874,1282,0,0
-343,-258,0,0,0,0,0,0,0,0,0,-1,881,1282,0,0
-336,-258,0,0,0,0,0,0,0,0,0,-1,888,1282,0,0
-329,-258,0,0,0,0,0,0,0,0,0,-1,895,1282,0,0
-322,-258,0,0,0,0,0,0,0,0,0,-1,902,1282,0,0
-315,-258,0,0,0,0,0,0,0,0,0,-1,909,1282,0,0
-308,-258,0,0,0,0,0,0,0,0,0,-1,916,1282,0,0
-301,-258,0,0,0,0,0,0,0,0,0,-1,923,1282,0,0
-294,-258,0,0,0,0,0,0,0,0,0,-1,930,1282,0,0
-287,-258,0,0,0,0,0,0,0,0,0,-1,937,1282,0,0
-280,-258,0,0,0,0,0,0,0,0,0,-1,944,1282,0,0
-273,-258,0,0,0,0,0,0,0,0,0,-1,951,1282,0,0
-266,-258,0,0,0,0,0,0,0,0,0,-1,958,1282,0,0
-259,-258,0,0,0,0,0,0,0,0,0,-1,965,1282,0,0
-252,-258,0,0,0,0,0,0,0,0,0,-1,972,1282,0,0
-245,-258,0,0,0,0,0,0,0,0,0,-1,979,1282,0,0
-238,-258,0,0,0,0,0,0,0,0,0,-1,986,1282,0,0
-231,-258,0,0,0,0,0,0,0,0,0,-1,993,1282,0,0
-224,-258,0,0,0,0,0,0,0,0,0,-1,1000,1282,0,0
-217,-258,0,0,0,0,0,0,0,0,0,-1,1007,1282,0,0
-210,-258,0,0,0,0,0,0,0,0,0,-1,1014,1282,0,0
-203,-258,0,0,0,0,0,0,0,0,0,-1,1021,1282,0,0
-196,-258,0,0,0,0,0,0,0,0,0,-1,1028,1282,0,0
-189,-258,0,0,0,0,0,0,0,0,0,-1,1035,1282,0,0
-182,-258,0,0,0,0,0,0,0,0,0,-1,1042,1282,0,0
-175,-258,0,0,0,0,0,0,0,0,0,-1,1049,1282,0,0
-168,-258,0,0,0,0,0,0,0,0,0,-1,1056,1282,0,0
-161,-258,0,0,0,0,0,0,0,0,0,-1,1063,1282,0,0
-154,-258,0,0,0,0,0,0,0,0,0,-1,1070,1282,0,0
-147,-258,0,0,0,0,0,0,0,0,0,-1,1077,1282,0,0
-140,-258,0,0,0,0,0,0,0,0,0,-1,1084,1282,0,0
-133,-258,0,0,0,0,0,0,0,0,0,-1,1091,1282,0,0
-126,-258,0,0,0,0,0,0,0,0,0,-1,1098,1282,0,0
-119,-258,0,0,0,0,0,0,0,0,0,-1,1105,1282,0,0
-112,-258,0,0,0,0,0,0,0,0,0,-1,1112,1282,0,0
-105,-258,0,0,0,0,0,0,0,0,0,-1,1119,1282,0,0
-98,-258,0,0,0,0,0,0,0,0,0,-1,1126,1282,0,0
-91,-258,0,0,0,0,0,0,0,0,0,-1,1133,1282,0,0
-84,-258,0,0,0,0,0,0,0,0,0,-1,1140,1282,0,0
-77,-258,0,0,0,0,0,0,0,0,0,-1,1147,1282,0,0
-70,-258,0,0,0,0,0,0,0,0,0,-1,1154,1282,0,0
-63,-258,0,0,0,0,0,0,0,0,0,-1,1161,1282,0,0
-56,-258,0,0,0,0,0,0,0,0,0,-1,1168,1282,0,0
-49,-258,0,0,0,0,0,0,0,0,0,-1,1175,1282,0,0
-42,-258,0,0,0,0,0,0,0,0,0,-1,1182,1282,0,0
-35,-258,0,0,0,0,0,0,0,0,0,-1,1189,1282,0,0
-28,-258,0,0,0,0,0,0,0,0,0,-1,1196,1282,0,0
-21,-258,0,0,0,0,0,0,0,0,0,-1,1203,1282,0,0
-14,-258,0,0,0,0,0,0,0,0,0,-1,1210,1282,0,0
-7,-258,0,0,0,0,0,0,0,0,0,-1,1217,1282,0,0
0,-258,0,0,0,0,0,0,0,0,0,-1,1224,1282,0,0
7,-258,0,0,0,0,0,0,0,0,0,-1,1231,1282,0,0
14,-258,0,0,0,0,0,0,0,0,0,-1,1238,1282,0,0
21,-258,0,0,0,0,0,0,0,0,0,-1,1245,1282,0,0
28,-258,0,0,0,0,0,0,0,0,0,-1,1252,1282,0,0
35,-258,0,0,0,0,0,0,0,0,0,-1,1259,1282,0,0
42,-258,0,0,0,0,0,0,0,0,0,-1,1266,1282,0,0
49,-258,0,0,0,0,0,0,0,0,0,-1,1273,1282,0,0
56,-258,0,0,0,0,0,0,0,0,0,-1,1280,1282,0,0
63,-258,0,0,0,0,0,0,0,0,0,-1,1287,1282,0,0
70,-258,0,0,0,0,0,0,0,0,0,-1,1294,1282,0,0
77,-258,0,0,0,0,0,0,0,0,0,-1,1301,1282,0,0
84,-258,0,0,0,0,0,0,0,0,0,-1,1308,1282,0,0
91,-258,0,0,0,0,0,0,0,0,0,-1,1315,1282,0,0
98,-258,0,0,0,0,0,0,0,0,0,-1,1322,1282,0,0
105,-258,0,0,0,0,0,0,0,0,0,-1,1329,1282,0,0
112,-258,0,0,0,0,0,0,0,0,0,-1,1336,1282,0,0
119,-258,0,0,0,0,0,0,0,0,0,-1,1343,1282,0,0
126,-258,0,0,0,0,0,0,0,0,0,-1,1350,1282,0,0
133,-258,0,0,0,0,0,0,0,0,0,-1,1357,1282,0,0
140,-258,0,0,0,0,0,0,0,0,0,-1,1364,1282,0,0
147,-258,0,0,0,0,0,0,0,0,0,-1,1371,1282,0,0
154,-258,0,0,0,0,0,0,0,0,0,-1,1378,1282,0,0
161,-258,0,0,0,0,0,0,0,0,0,-1,1385,1282,0,0
168,-258,0,0,0,0,0,0,0,0,0,-1,1392,1282,0,0
175,-258,0,0,0,0,0,0,0,0,0,-1,1399,1282,0,0
182,-258,0,0,0,0,0,0,0,0,0,-1,1406,1282,0,0
189,-258,0,0,0,0,0,0,0,0,0,-1,1413,1282,0,0
196,-258,0,0,0,0,0,0,0,0,0,-1,1420,1282,0,0
203,-258,0,0,0,0,0,0,0,0,0,-1,1427,1282,0,0
210,-258,0,0,0,0,0,0,0,0,0,-1,1434,1282,0,0
217,-258,0,0,0,0,0,0,0,0,0,-1,1441,1282,0,0
224,-258,0,0,0,0,0,0,0,0,0,-1,1448,1282,0,0
231,-258,0,0,0,0,0,0,0,0,0,-1,1455,1282,0,0
238,-258,0,0,0,0,0,0,0,0,0,-1,1462,1282,0,0
245,-258,0,0,0,0,0,0,0,0,0,-1,1469,1282,0,0
252,-258,0,0,0,0,0,0,0,0,0,-1,1476,1282,0,0
259,-258,0,0,0,0,0,0,0,0,0,-1,1483,1282,0,0
266,-258,0,0,0,0,0,0,0,0,0,-1,1490,1282,0,0
273,-258,0,0,0,0,0,0,0,0,0,-1,1497,1282,0,0
280,-258,0,0,0,0,0,0,0,0,0,-1,1504,1282,0,0
287,-258,0,0,0,0,0,0,0,0,0,-1,1511,1282,0,0
294,-258,0,0,0,0,0,0,0,0,0,-1,1518,1282,0,0
301,-258,0,0,0,0,0,0,0,0,0,-1,1525,1282,0,0
308,-258,0,0,0,0,0,0,0,0,0,-1,1532,1282,0,0
315,-258,0,0,0,0,0,0,0,0,0,-1,1539,1282,0,0
322,-258,0,0,0,0,0,0,0,0,0,-1,1546,1282,0,0
329,-258,0,0,0,0,0,0,0,0,0,-1,1553,1282,0,0
336,-258,0,0,0,0,0,0,0,0,0,-1,1560,1282,0,0
343,-258,0,0,0,0,0,0,0,0,0,-1,1567,1282,0,0
350,-258,0,0,0,0,0,0,0,0,0,-1,1574,1282,0,0
357,-258,0,0,0,0,0,0,0,0,0,-1,1581,1282,0,0
364,-258,0,0,0,0,0,0,0,0,0,-1,1588,1282,0,0
371,-258,0,0,0,0,0,0,0,0,0,-1,1595,1282,0,0
378,-258,0,0,0,0,0,0,0,0,0,-1,1602,1282,0,0
385,-258,0,0,0,0,0,0,0,0,0,-1,1609,1282,0,0
392,-258,0,0,0,0,0,0,0,0,0,-1,1616,1282,0,0
399,-258,0,0,0,0,0,0,0,0,0,-1,1623,1282,0,0
406,-258,0,0,0,0,0,0,0,0,0,-1,1630,1282,0,0
413,-258,0,0,0,0,0,0,0,0,0,-1,1637,1282,0,0
420,-258,0,0,0,0,0,0,0,0,0,-1,1644,1282,0,0
427,-258,0,0,0,0,0,0,0,0,0,-1,1651,1282,0,0
434,-258,0,0,0,0,0,0,0,0,0,-1,1658,1282,0,0
441,-258,0,0,0,0,0,0,0,0,0,-1,1665,1282,0,0
448,-258,0,0,0,0,0,0,0,0,0,-1,1672,1282,0,0
455,-258,0,0,0,0,0,0,0,0,0,-1,1679,1282,0,0
462,-258,0,0,0,0,0,0,0,0,0,-1,1686,1282,0,0
469,-258,0,0,0,0,0,0,0,0,0,-1,1693,1282,0,0
476,-258,0,0,0,0,0,0,0,0,0,-1,1700,1282,0,0
483,-258,0,0,0,0,0,0,0,0,0,-1,1707,1282,0,0
490,-258,0,0,0,0,0,0,0,0,0,-1,1714,1282,0,0
497,-258,0,0,0,0,0,0,0,0,0,-1,1721,1282,0,0
504,-258,0,0,0,0,0,0,0,0,0,-1,1728,1282,0,0
511,-258,0,0,0,0,0,0,0,0,0,-1,1735,1282,0,0
518,-258,0,0,0,0,0,0,0,0,0,-1,1742,1282,0,0
525,-258,0,0,0,0,0,0,0,0,0,-1,1749,1282,0,0
532,-258,0,0,0,0,0,0,0,0,0,-1,1756,1282,0,0
539,-258,0,0,0,0,0,0,0,0,0,-1,1763,1282,0,0
546,-258,0,0,0,0,0,0,0,0,0,-1,1770,1282,0,0
553,-258,0,0,0,0,0,0,0,0,0,-1,1777,1282,0,0
560,-258,0,0,0,0,0,0,0,0,0,-1,1784,1282,0,0
567,-258,0,0,0,0,0,0,0,0,0,-1,1791,1282,0,0
574,-258,0,0,0,0,0,0,0,0,0,-1,1798,1282,0,0
581,-258,0,0,0,0,0,0,0,0,0,-1,1805,1282,0,0
588,-258,0,0,0,0,0,0,0,0,0,-1,1812,1282,0,0
595,-258,0,0,0,0,0,0,0,0,0,-1,1819,1282,0,0
602,-258,0,0,0,0,0,0,0,0,0,-1,1826,1282,0,0
609,-258,27.2578,3.34119,-0.0013218,-0.00280201,-0.00451322,0.00251159,-0.0066354,-0.704128,0.00545699,0.0251371,1833,1282,27.2578,-3.34122
616,-258,27.2305,3.29333,-0.00999898,0.000392401,-0.00519368,0.00254311,-0.0121497,-1.17819,0.00906716,0.0250645,1840,1282,27.2305,-3.29335
623,-258,27.1819,3.24939,-0.0160316,0.00284129,-0.00382093,0.00358551,-0.0167758,-1.37843,0.0125509,0.0360643,1847,1282,27.1819,-3.24938
630,-258,27.274,3.20264,-0.0190519,0.00461561,-0.00168296,0.00473468,-0.019171,-1.50016,0.0146168,0.0447087,1854,1282,27.2741,-3.20264
637,-258,27.1577,3.18396,-0.0188341,0.00535487,0.000230358,0.00535707,-0.0188363,1.56127,0.0146729,0.0423569,1861,1282,27.1578,-3.18395
644,-258,26.708,3.14636,-0.0173233,0.00543615,0.00168514,0.00556024,-0.0174474,1.49729,0.0138619,0.0449142,1868,1282,26.708,-3.1464
651,-258,26.295,3.15649,0,0,0,0,0,0,0,-1,1875,1282,26.2951,-3.15644
658,-258,24.3635,4.37219,0,0,0,0,0,0,0,-1,1882,1282,24.3635,-4.37217
665,-258,26.1241,4.44897,0,0,0,0,0,0,0,-1,1889,1282,26.1241,-4.44898
672,-258,22.703,2.80957,0,0,0,0,0,0,0,-1,1896,1282,22.703,-2.80962
679,-258,21.3254,7.54102,0,0,0,0,0,0,0,-1,1903,1282,21.3254,-7.54097
686,-258,21.452,7.22607,-0.00490586,0.00280513,0.00561951,0.0057646,-0.00786533,1.08606,0.00790034,0.0356805,1910,1282,21.452,-7.2261
693,-258,21.5522,6.90991,-0.00320421,0.00039291,0.00522783,0.00412292,-0.00693422,0.951074,0.00645225,0.0111376,1917,1282,21.5523,-6.90989
700,-258,21.5511,6.64856,-0.00148787,-0.0002827,0.00390121,0.00306219,-0.00483275,0.862023,0.0045962,0.00944489,1924,1282,21.5512,-6.64857
707,-258,21.5518,6.41541,-0.000527741,-0.000138033,0.00242317,0.0020981,-0.00276387,0.825518,0.00281582,0.0116752,1931,1282,21.5518,-6.41545
714,-258,21.5474,6.18726,0.000287332,8.26912e-05,0.00110523,0.00129497,-0.000924948,0.739241,0.00128759,0.0111669,1938,1282,21.5473,-6.18728
721,-258,21.5353,5.94043,0.000918365,0.000859393,3.23859e-05,0.000932677,0.000845081,0.416116,0.00059474,0.0114685,1945,1282,21.5353,-5.94046
728,-258,21.5164,5.71143,0.000913346,0.00194466,-0.00062852,0.00224199,0.000616022,-1.12894,0.00133747,0.0113812,1952,1282,21.5164,-5.71142
735,-258,21.5369,5.47668,0.00110444,0.00273222,-0.0012839,0.00343847,0.000398193,-1.06789,0.00217179,0.0144326,1959,1282,21.5369,-5.47666
742,-258,21.5471,5.27637,0.00152844,0.0033187,-0.00232486,0.0049148,-6.76629e-05,-0.969164,0.00329932,0.0159948,1966,1282,21.5471,-5.27638
749,-258,21.4681,5.0376,0.00203654,0.00422306,-0.00366423,0.00695365,-0.000694047,-0.930374,0.00488358,0.0284036,1973,1282,21.4681,-5.03762
756,-258,21.358,4.64758,0.00277921,0.00509374,-0.00572611,0.00977836,-0.0019054,-0.885106,0.00723812,0.0436116,1980,1282,21.3581,-4.64759
763,-258,21.4525,4.1543,0,0,0,0,0,0,0,-1,1987,1282,21.4525,-4.15434
770,-258,21.3995,5.09937,0,0,0,0,0,0,0,-1,1994,1282,21.3995,-5.09938
777,-258,21.137,5.59802,0.00544437,0.00516231,-0.0188465,0.0241504,-0.0135437,-0.781657,0.022048,0.0493861,2001,1282,21.1369,-5.59802
784,-258,20.5061,5.66003,0,0,0,0,0,0,0,-1,2008,1282,20.5061,-5.66004
791,-258,0,0,0,0,0,0,0,0,0,-1,2015,1282,0,0
798,-258,0,0,0,0,0,0,0,0,0,-1,2022,1282,0,0
805,-258,0,0,0,0,0,0,0,0,0,-1,2029,1282,0,0
812,-258,0,0,0,0,0,0,0,0,0,-1,2036,1282,0,0
-700,-265,0,0,0,0,0,0,0,0,0,-1,524,1289,0,0
-693,-265,0,0,0,0,0,0,0,0,0,-1,531,1289,0,0
-686,-265,0,0,0,0,0,0,0,0,0,-1,538,1289,0,0
-679,-265,0,0,0,0,0,0,0,0,0,-1,545,1289,0,0
-672,-265,0,0,0,0,0,0,0,0,0,-1,552,1289,0,0
-665,-265,-9.34869,-0.105225,0,0,0,0,0,0,0,-1,559,1289,-9.34869,0.105199
-658,-265,-16.5109,0.502319,0,0,0,0,0,0,0,-1,566,1289,-16.5108,-0.502323
-651,-265,-12.9313,0.911499,0,0,0,0,0,0,0,-1,573,1289,-12.9313,-0.911455
-644,-265,-12.7158,1.33752,0,0,0,0,0,0,0,-1,580,1289,-12.7158,-1.33754
-637,-265,-12.4621,1.78882,0.0301527,-0.0265363,0.0107076,0.0321078,-0.0284913,0.180597,0.0350077,0.0463765,587,1289,-12.4621,-1.78876
-630,-265,-12.1728,1.91553,0.025493,-0.0200285,0.00848525,0.0270233,-0.0215587,0.178421,0.0281079,0.0476779,594,1289,-12.1728,-1.91554
-623,-265,-11.9586,2.08435,0,0,0,0,0,0,0,-1,601,1289,-11.9586,-2.08436
-616,-265,-11.9865,2.37671,0.0167291,-0.00909411,0.00463643,0.0175363,-0.00990133,0.172375,0.0160443,0.0392211,608,1289,-11.9865,-2.37671
-609,-265,-12.0359,2.77808,0.0135175,-0.00524806,0.00273082,0.0139068,-0.00563738,0.141611,0.0116156,0.0180774,615,1289,-12.0359,-2.77811
-602,-265,-12.0427,3.07214,0.00880523,-0.00291227,0.00181622,0.00908029,-0.00318732,0.150303,0.00735006,0.0144906,622,1289,-12.0427,-3.07213
-595,-265,-12.0556,3.3866,0.00460052,7.67628e-05,0.00186687,0.00527144,-0.000594157,0.345008,0.00372816,0.0115939,629,1289,-12.0556,-3.38659
-588,-265,-12.0685,3.67505,0.00277358,0.00111678,0.00193935,0.00405405,-0.000163694,0.583552,0.00275888,0.0106689,636,1289,-12.0685,-3.67507
-581,-265,-12.0721,3.94202,0.00190419,0.00102366,0.00159307,0.00311671,-0.000188867,0.650582,0.00214354,0.012641,643,1289,-12.0721,-3.94208
-574,-265,-12.1026,4.2157,0.00272821,0.00109705,0.00156082,0.00367369,0.000151567,0.544643,0.0024002,0.0138353,650,1289,-12.1026,-4.21567
-567,-265,-12.165,4.51831,0.00292191,0.00140833,0.00173774,0.00406051,0.000269741,0.580032,0.00262172,0.01881,657,1289,-12.165,-4.51825
-560,-265,-12.1671,4.80322,0.00227492,0.00185202,0.00179406,0.00386995,0.000256989,0.726739,0.00249871,0.0207309,664,1289,-12.1671,-4.80327
-553,-265,-12.0606,5.12988,0.00113851,0.00248319,0.0016724,0.00361334,8.36153e-06,0.976522,0.00240611,0.0308723,671,1289,-12.0606,-5.12991
-546,-265,-12.0071,5.45471,-0.000419573,0.00336705,0.00138747,0.00382101,-0.000873536,1.25459,0.00288297,0.0437505,678,1289,-12.0071,-5.45474
-539,-265,-12.0394,5.77954,0,0,0,0,0,0,0,-1,685,1289,-12.0394,-5.77959
-532,-265,-8.53998,3.41467,0,0,0,0,0,0,0,-1,692,1289,-8.53996,-3.41473
-525,-265,-12.1317,0.514648,0,0,0,0,0,0,0,-1,699,1289,-12.1317,-0.514634
-518,-265,-18.3763,1.57153,0,0,0,0,0,0,0,-1,706,1289,-18.3764,-1.57152
-511,-265,-18.0942,1.47717,0,0,0,0,0,0,0,-1,713,1289,-18.0942,-1.47715
-504,-265,-17.8121,1.38281,0,0,0,0,0,0,0,-1,720,1289,-17.8121,-1.38278
-497,-265,-16.3488,-0.0568848,0,0,0,0,0,0,0,-1,727,1289,-16.3487,0.0568992
-490,-265,-15.1696,0.492676,0,0,0,0,0,0,0,-1,734,1289,-15.1696,-0.492688
-483,-265,0,0,0,0,0,0,0,0,0,-1,741,1289,0,0
-476,-265,0,0,0,0,0,0,0,0,0,-1,748,1289,0,0
-469,-265,0,0,0,0,0,0,0,0,0,-1,755,1289,0,0
-462,-265,0,0,0,0,0,0,0,0,0,-1,762,1289,0,0
-455,-265,0,0,0,0,0,0,0,0,0,-1,769,1289,0,0
-448,-265,0,0,0,0,0,0,0,0,0,-1,776,1289,0,0
-441,-265,0,0,0,0,0,0,0,0,0,-1,783,1289,0,0
-434,-265,0,0,0,0,0,0,0,0,0,-1,790,1289,0,0
-427,-265,0,0,0,0,0,0,0,0,0,-1,797,1289,0,0
-420,-265,0,0,0,0,0,0,0,0,0,-1,804,1289,0,0
-413,-265,0,0,0,0,0,0,0,0,0,-1,811,1289,0,0
-406,-265,0,0,0,0,0,0,0,0,0,-1,818,1289,0,0
-399,-265,0,0,0,0,0,0,0,0,0,-1,825,1289,0,0
-392,-265,0,0,0,0,0,0,0,0,0,-1,832,1289,0,0
-385,-265,0,0,0,0,0,0,0,0,0,-1,839,1289,0,0
-378,-265,0,0,0,0,0,0,0,0,0,-1,846,1289,0,0
-371,-265,0,0,0,0,0,0,0,0,0,-1,853,1289,0,0
-364,-265,0,0,0,0,0,0,0,0,0,-1,860,1289,0,0
-357,-265,0,0,0,0,0,0,0,0,0,-1,867,1289,0,0
-350,-265,0,0,0,0,0,0,0,0,0,-1,874,1289,0,0
-343,-265,0,0,0,0,0,0,0,0,0,-1,881,1289,0,0
-336,-265,0,0,0,0,0,0,0,0,0,-1,888,1289,0,0
-329,-265,0,0,0,0,0,0,0,0,0,-1,895,1289,0,0
-322,-265,0,0,0,0,0,0,0,0,0,-1,902,1289,0,0
-315,-265,0,0,0,0,0,0,0,0,0,-1,909,1289,0,0
-308,-265,0,0,0,0,0,0,0,0,0,-1,916,1289,0,0
-301,-265,0,0,0,0,0,0,0,0,0,-1,923,1289,0,0
-294,-265,0,0,0,0,0,0,0,0,0,-1,930,1289,0,0
-287,-265,0,0,0,0,0,0,0,0,0,-1,937,1289,0,0
-280,-265,0,0,0,0,0,0,0,0,0,-1,944,1289,0,0
-273,-265,0,0,0,0,0,0,0,0,0,-1,951,1289,0,0
-266,-265,0,0,0,0,0,0,0,0,0,-1,958,1289,0,0
-259,-265,0,0,0,0,0,0,0,0,0,-1,965,1289,0,0
-252,-265,0,0,0,0,0,0,0,0,0,-1,972,1289,0,0
-245,-265,0,0,0,0,0,0,0,0,0,-1,979,1289,0,0
-238,-265,0,0,0,0,0,0,0,0,0,-1,986,1289,0,0
-231,-265,0,0,0,0,0,0,0,0,0,-1,993,1289,0,0
-224,-265,0,0,0,0,0,0,0,0,0,-1,1000,1289,0,0
-217,-265,0,0,0,0,0,0,0,0,0,-1,1007,1289,0,0
-210,-265,0,0,0,0,0,0,0,0,0,-1,1014,1289,0,0
-203,-265,0,0,0,0,0,0,0,0,0,-1,1021,1289,0,0
-196,-265,0,0,0,0,0,0,0,0,0,-1,1028,1289,0,0
-189,-265,0,0,0,0,0,0,0,0,0,-1,1035,1289,0,0
-182,-265,0,0,0,0,0,0,0,0,0,-1,1042,1289,0,0
-175,-265,0,0,0,0,0,0,0,0,0,-1,1049,1289,0,0
-168,-265,0,0,0,0,0,0,0,0,0,-1,1056,1289,0,0
-161,-265,0,0,0,0,0,0,0,0,0,-1,1063,1289,0,0
-154,-265,0,0,0,0,0,0,0,0,0,-1,1070,1289,0,0
-147,-265,0,0,0,0,0,0,0,0,0,-1,1077,1289,0,0
-140,-265,0,0,0,0,0,0,0,0,0,-1,1084,1289,0,0
-133,-265,0,0,0,0,0,0,0,0,0,-1,1091,1289,0,0
-126,-265,0,0,0,0,0,0,0,0,0,-1,1098,1289,0,0
-119,-265,0,0,0,0,0,0,0,0,0,-1,1105,1289,0,0
-112,-265,0,0,0,0,0,0,0,0,0,-1,1112,1289,0,0
-105,-265,0,0,0,0,0,0,0,0,0,-1,1119,1289,0,0
-98,-265,0,0,0,0,0,0,0,0,0,-1,1126,1289,0,0
-91,-265,0,0,0,0,0,0,0,0,0,-1,1133,1289,0,0
-84,-265,0,0,0,0,0,0,0,0,0,-1,1140,1289,0,0
-77,-265,0,0,0,0,0,0,0,0,0,-1,1147,1289,0,0
-70,-265,0,0,0,0,0,0,0,0,0,-1,1154,1289,0,0
-63,-265,0,0,0,0,0,0,0,0,0,-1,1161,1289,0,0
-56,-265,0,0,0,0,0,0,0,0,0,-1,1168,1289,0,0
-49,-265,0,0,0,0,0,0,0,0,0,-1,1175,1289,0,0
-42,-265,0,0,0,0,0,0,0,0,0,-1,1182,1289,0,0
-35,-265,0,0,0,0,0,0,0,0,0,-1,1189,1289,0,0
-28,-265,0,0,0,0,0,0,0,0,0,-1,1196,1289,0,0
-21,-265,0,0,0,0,0,0,0,0,0,-1,1203,1289,0,0
-14,-265,0,0,0,0,0,0,0,0,0,-1,1210,1289,0,0
-7,-265,0,0,0,0,0,0,0,0,0,-1,1217,1289,0,0
0,-265,0,0,0,0,0,0,0,0,0,-1,1224,1289,0,0
7,-265,0,0,0,0,0,0,0,0,0,-1,1231,1289,0,0
14,-265,0,0,0,0,0,0,0,0,0,-1,1238,1289,0,0
21,-265,0,0,0,0,0,0,0,0,0,-1,1245,1289,0,0
28,-265,0,0,0,0,0,0,0,0,0,-1,1252,1289,0,0
35,-265,0,0,0,0,0,0,0,0,0,-1,1259,1289,0,0
42,-265,0,0,0,0,0,0,0,0,0,-1,1266,1289,0,0
49,-265,0,0,0,0,0,0,0,0,0,-1,1273,1289,0,0
56,-265,0,0,0,0,0,0,0,0,0,-1,1280,1289,0,0
63,-265,0,0,0,0,0,0,0,0,0,-1,1287,1289,0,0
70,-265,0,0,0,0,0,0,0,0,0,-1,1294,1289,0,0
77,-265,0,0,0,0,0,0,0,0,0,-1,1301,1289,0,0
84,-265,0,0,0,0,0,0,0,0,0,-1,1308,1289,0,0
91,-265,0,0,0,0,0,0,0,0,0,-1,1315,1289,0,0
98,-265,0,0,0,0,0,0,0,0,0,-1,1322,1289,0,0
105,-265,0,0,0,0,0,0,0,0,0,-1,1329,1289,0,0
112,-265,0,0,0,0,0,0,0,0,0,-1,1336,1289,0,0
119,-265,0,0,0,0,0,0,0,0,0,-1,1343,1289,0,0
126,-265,0,0,0,0,0,0,0,0,0,-1,1350,1289,0,0
133,-265,0,0,0,0,0,0,0,0,0,-1,1357,1289,0,0
140,-265,0,0,0,0,0,0,0,0,0,-1,1364,1289,0,0
147,-265,0,0,0,0,0,0,0,0,0,-1,1371,1289,0,0
154,-265,0,0,0,0,0,0,0,0,0,-1,1378,1289,0,0
161,-265,0,0,0,0,0,0,0,0,0,-1,1385,1289,0,0
168,-265,0,0,0,0,0,0,0,0,0,-1,1392,1289,0,0
175,-265,0,0,0,0,0,0,0,0,0,-1,1399,1289,0,0
182,-265,0,0,0,0,0,0,0,0,0,-1,1406,1289,0,0
189,-265,0,0,0,0,0,0,0,0,0,-1,1413,1289,0,0
196,-265,0,0,0,0,0,0,0,0,0,-1,1420,1289,0,0
203,-265,0,0,0,0,0,0,0,0,0,-1,1427,1289,0,0
210,-265,0,0,0,0,0,0,0,0,0,-1,1434,1289,0,0
217,-265,0,0,0,0,0,0,0,0,0,-1,1441,1289,0,0
224,-265,0,0,0,0,0,0,0,0,0,-1,1448,1289,0,0
231,-265,0,0,0,0,0,0,0,0,0,-1,1455,1289,0,0
238,-265,0,0,0,0,0,0,0,0,0,-1,1462,1289,0,0
245,-265,0,0,0,0,0,0,0,0,0,-1,1469,1289,0,0
252,-265,0,0,0,0,0,0,0,0,0,-1,1476,1289,0,0
259,-265,0,0,0,0,0,0,0,0,0,-1,1483,1289,0,0
266,-265,0,0,0,0,0,0,0,0,0,-1,1490,1289,0,0
273,-265,0,0,0,0,0,0,0,0,0,-1,1497,1289,0,0
280,-265,0,0,0,0,0,0,0,0,0,-1,1504,1289,0,0
287,-265,0,0,0,0,0,0,0,0,0,-1,1511,1289,0,0
294,-265,0,0,0,0,0,0,0,0,0,-1,1518,1289,0,0
301,-265,0,0,0,0,0,0,0,0,0,-1,1525,1289,0,0
308,-265,0,0,0,0,0,0,0,0,0,-1,1532,1289,0,0
315,-265,0,0,0,0,0,0,0,0,0,-1,1539,1289,0,0
322,-265,0,0,0,0,0,0,0,0,0,-1,1546,1289,0,0
329,-265,0,0,0,0,0,0,0,0,0,-1,1553,1289,0,0
336,-265,0,0,0,0,0,0,0,0,0,-1,1560,1289,0,0
343,-265,0,0,0,0,0,0,0,0,0,-1,1567,1289,0,0
350,-265,0,0,0,0,0,0,0,0,0,-1,1574,1289,0,0
357,-265,0,0,0,0,0,0,0,0,0,-1,1581,1289,0,0
364,-265,0,0,0,0,0,0,0,0,0,-1,1588,1289,0,0
371,-265,0,0,0,0,0,0,0,0,0,-1,1595,1289,0,0
378,-265,0,0,0,0,0,0,0,0,0,-1,1602,1289,0,0
385,-265,0,0,0,0,0,0,0,0,0,-1,1609,1289,0,0
392,-265,0,0,0,0,0,0,0,0,0,-1,1616,1289,0,0
399,-265,0,0,0,0,0,0,0,0,0,-1,1623,1289,0,0
406,-265,0,0,0,0,0,0,0,0,0,-1,1630,1289,0,0
413,-265,0,0,0,0,0,0,0,0,0,-1,1637,1289,0,0
420,-265,0,0,0,0,0,0,0,0,0,-1,1644,1289,0,0
427,-265,0,0,0,0,0,0,0,0,0,-1,1651,1289,0,0
434,-265,0,0,0,0,0,0,0,0,0,-1,1658,1289,0,0
441,-265,0,0,0,0,0,0,0,0,0,-1,1665,1289,0,0
448,-265,0,0,0,0,0,0,0,0,0,-1,1672,1289,0,0
455,-265,0,0,0,0,0,0,0,0,0,-1,1679,1289,0,0
462,-265,0,0,0,0,0,0,0,0,0,-1,1686,1289,0,0
469,-265,0,0,0,0,0,0,0,0,0,-1,1693,1289,0,0
476,-265,0,0,0,0,0,0,0,0,0,-1,1700,1289,0,0
483,-265,0,0,0,0,0,0,0,0,0,-1,1707,1289,0,0
490,-265,0,0,0,0,0,0,0,0,0,-1,1714,1289,0,0
497,-265,0,0,0,0,0,0,0,0,0,-1,1721,1289,0,0
504,-265,0,0,0,0,0,0,0,0,0,-1,1728,1289,0,0
511,-265,0,0,0,0,0,0,0,0,0,-1,1735,1289,0,0
518,-265,0,0,0,0,0,0,0,0,0,-1,1742,1289,0,0
525,-265,0,0,0,0,0,0,0,0,0,-1,1749,1289,0,0
532,-265,0,0,0,0,0,0,0,0,0,-1,1756,1289,0,0
539,-265,0,0,0,0,0,0,0,0,0,-1,1763,1289,0,0
546,-265,0,0,0,0,0,0,0,0,0,-1,1770,1289,0,0
553,-265,0,0,0,0,0,0,0,0,0,-1,1777,1289,0,0
560,-265,0,0,0,0,0,0,0,0,0,-1,1784,1289,0,0
567,-265,0,0,0,0,0,0,0,0,0,-1,1791,1289,0,0
574,-265,0,0,0,0,0,0,0,0,0,-1,1798,1289,0,0
581,-265,0,0,0,0,0,0,0,0,0,-1,1805,1289,0,0
588,-265,0,0,0,0,0,0,0,0,0,-1,1812,1289,0,0
595,-265,0,0,0,0,0,0,0,0,0,-1,1819,1289,0,0
602,-265,27.3024,3.37122,0.00505413,-0.000491632,-0.00699211,0.00980311,-0.00524061,-0.596624,0.00881764,0.0259573,1826,1289,27.3024,-3.37123
609,-265,27.2592,3.3064,-0.00710718,-0.0024324,-0.00700075,0.00261085,-0.0121504,-0.946518,0.00909634,0.0282238,1833,1289,27.2591,-3.30643
616,-265,27.1859,3.22693,-0.016117,-0.00159944,-0.00556415,0.000287803,-0.0180042,-1.24379,0.0120999,0.0352844,1840,1289,27.186,-3.22698
623,-265,27.0984,3.0813,-0.0215587,-0.000193801,-0.00308599,0.000243014,-0.0219955,-1.43018,0.0147453,0.047437,1847,1289,27.0983,-3.08126
630,-265,27.0278,2.94714,0,0,0,0,0,0,0,-1,1854,1289,27.0278,-2.94718
637,-265,27.2108,3.14453,0,0,0,0,0,0,0,-1,1861,1289,27.2108,-3.14458
644,-265,26.7861,2.57642,0,0,0,0,0,0,0,-1,1868,1289,26.7861,-2.57636
651,-265,26.1855,2.68652,0,0,0,0,0,0,0,-1,1875,1289,26.1855,-2.68649
658,-265,23.6672,5.18201,0,0,0,0,0,0,0,-1,1882,1289,23.6673,-5.182
665,-265,22.5138,4.37842,0,0,0,0,0,0,0,-1,1889,1289,22.5138,-4.37837
672,-265,20.0045,6.62671,0,0,0,0,0,0,0,-1,1896,1289,20.0045,-6.62668
679,-265,21.2179,7.44519,0,0,0,0,0,0,0,-1,1903,1289,21.2179,-7.44522
686,-265,21.2594,7.17822,-0.00567807,0.00283758,0.00537957,0.00544043,-0.00828092,1.12016,0.0079784,0.02071,1910,1289,21.2594,-7.17822
693,-265,21.2902,6.92261,-0.0038026,0.000219199,0.00490708,0.00351143,-0.00709483,0.979859,0.00623894,0.0100812,1917,1289,21.2901,-6.92255
700,-265,21.296,6.67822,-0.00194534,-0.00028515,0.00352283,0.00250407,-0.00473456,0.901104,0.00424484,0.0108269,1924,1289,21.296,-6.67821
707,-265,21.3177,6.41992,-0.000883327,4.32979e-05,0.00210573,0.00173608,-0.00257611,0.893685,0.00250534,0.0109747,1931,1289,21.3178,-6.41992
714,-265,21.3146,6.17102,5.01086e-05,0.000447469,0.000821769,0.00109424,-0.000596657,0.904008,0.000990226,0.0103942,1938,1289,21.3146,-6.17097
721,-265,21.3054,5.93799,0.000714985,0.00128372,-0.000135487,0.00131434,0.000684357,-1.34848,0.000759053,0.00963482,1945,1289,21.3054,-5.93804
728,-265,21.2859,5.70801,0.000713599,0.00246452,-0.00074634,0.00273947,0.000438644,-1.21782,0.00169908,0.0121937,1952,1289,21.2859,-5.70807
735,-265,21.299,5.47754,0.000863893,0.00353015,-0.00140411,0.00413319,0.000260851,-1.16513,0.00267275,0.0167798,1959,1289,21.2989,-5.47756
742,-265,21.3201,5.27222,0.00117296,0.00462098,-0.00242193,0.00586984,-7.59026e-05,-1.09471,0.00393877,0.0210916,1966,1289,21.3201,-5.27225
749,-265,21.2999,5.06274,0.00153548,0.00618838,-0.00377296,0.00829449,-0.000570627,-1.06167,0.00572935,0.041108,1973,1289,21.2999,-5.06269
756,-265,21.2996,4.84363,0.00194822,0.00809914,-0.00579192,0.0115815,-0.00153412,-1.02946,0.00827987,0.0461359,1980,1289,21.2995,-4.8436
763,-265,21.4929,4.70447,0,0,0,0,0,0,0,-1,1987,1289,21.4929,-4.70442
770,-265,21.3774,4.78345,0,0,0,0,0,0,0,-1,1994,1289,21.3775,-4.78339
777,-265,21.4039,5.01367,0,0,0,0,0,0,0,-1,2001,1289,21.404,-5.01371
784,-265,0,0,0,0,0,0,0,0,0,-1,2008,1289,0,0
791,-265,0,0,0,0,0,0,0,0,0,-1,2015,1289,0,0
798,-265,0,0,0,0,0,0,0,0,0,-1,2022,1289,0,0
805,-265,0,0,0,0,0,0,0,0,0,-1,2029,1289,0,0
812,-265,0,0,0,0,0,0,0,0,0,-1,2036,1289,0,0
-700,-272,0,0,0,0,0,0,0,0,0,-1,524,1296,0,0
-693,-272,0,0,0,0,0,0,0,0,0,-1,531,1296,0,0
-686,-272,0,0,0,0,0,0,0,0,0,-1,538,1296,0,0
-679,-272,0,0,0,0,0,0,0,0,0,-1,545,1296,0,0
-672,-272,0,0,0,0,0,0,0,0,0,-1,552,1296,0,0
-665,-272,0,0,0,0,0,0,0,0,0,-1,559,1296,0,0
-658,-272,-12.662,0.601318,0,0,0,0,0,0,0,-1,566,1296,-12.6621,-0.601295
-651,-272,-12.314,0.991699,0.045082,-0.0369691,0.00858263,0.0459702,-0.0378573,0.103114,0.0484733,0.0447831,573,1296,-12.3139,-0.991671
-644,-272,-12.0459,1.42566,0.0403195,-0.0306601,0.00764425,0.0411334,-0.031474,0.106076,0.0420434,0.0469663,580,1296,-12.0459,-1.4257
-637,-272,-11.654,1.81165,0.0347808,-0.0245412,0.00692231,0.0355778,-0.0253382,0.114639,0.0353352,0.0480705,587,1296,-11.654,-1.81166
-630,-272,-11.6634,1.80127,0,0,0,0,0,0,0,-1,594,1296,-11.6634,-1.8013
-623,-272,-11.5872,1.99414,0,0,0,0,0,0,0,-1,601,1296,-11.5872,-1.99417
-616,-272,-11.6157,2.45654,0.0181096,-0.00838996,0.00375819,0.0186323,-0.00891264,0.138191,0.0162297,0.0376667,608,1296,-11.6157,-2.45653
-609,-272,-11.7505,2.85962,0.0141716,-0.00466408,0.00220914,0.0144272,-0.00491971,0.115202,0.0116108,0.0210948,615,1296,-11.7506,-2.85962
-602,-272,-11.7695,3.0719,0.00898709,-0.00247408,0.00151628,0.00918429,-0.00267129,0.129333,0.00718087,0.0140135,622,1296,-11.7695,-3.07184
-595,-272,-11.786,3.38293,0.00440615,0.00036104,0.00165653,0.00499794,-0.000230753,0.343118,0.00341148,0.0114695,629,1296,-11.786,-3.38291
-588,-272,-11.7922,3.67773,0.00235974,0.00125482,0.00177045,0.00366192,-4.73656e-05,0.634163,0.00245722,0.0104398,636,1296,-11.7922,-3.67778
-581,-272,-11.8137,3.92798,0.00124296,0.00109736,0.00141852,0.00259055,-0.000250229,0.759759,0.0018162,0.00960478,643,1296,-11.8137,-3.92798
-574,-272,-11.8416,4.21545,0.00196398,0.0010592,0.00130417,0.002892,0.000131185,0.618452,0.00188579,0.0139192,650,1296,-11.8415,-4.21551
-567,-272,-11.8942,4.52356,0.00237414,0.00126121,0.00136829,0.00329479,0.000340561,0.59227,0.00209227,0.0195804,657,1296,-11.8942,-4.52352
-560,-272,-11.8842,4.81958,0.00200448,0.00166926,0.00140634,0.00325316,0.000420583,0.726086,0.00204306,0.0196325,664,1296,-11.8842,-4.81958
-553,-272,-11.8151,5.06885,0.00106,0.00232365,0.0013309,0.00316508,0.000218571,1.00701,0.0020411,0.0157362,671,1296,-11.815,-5.06889
-546,-272,-11.7397,5.35925,-0.000376196,0.00326787,0.00110648,0.00357753,-0.000685853,1.29792,0.00264346,0.0239838,678,1296,-11.7398,-5.35931
-539,-272,-11.7073,5.70264,0,0,0,0,0,0,0,-1,685,1296,-11.7073,-5.70265
-532,-272,-10.5572,4.53943,0,0,0,0,0,0,0,-1,692,1296,-10.5572,-4.53943
-525,-272,-11.9599,0.0393066,0,0,0,0,0,0,0,-1,699,1296,-11.9599,-0.0393577
-518,-272,-17.3625,1.27307,0,0,0,0,0,0,0,-1,706,1296,-17.3625,-1.27302
-511,-272,-17.9769,1.3429,0,0,0,0,0,0,0,-1,713,1296,-17.9769,-1.34294
-504,-272,-16.0373,0.502563,0,0,0,0,0,0,0,-1,720,1296,-16.0373,-0.502512
-497,-272,-14.6091,0.248779,0,0,0,0,0,0,0,-1,727,1296,-14.6091,-0.248728
-490,-272,-14.7272,0.464966,0,0,0,0,0,0,0,-1,734,1296,-14.7272,-0.464958
-483,-272,-15.3736,0.792603,0,0,0,0,0,0,0,-1,741,1296,-15.3736,-0.79263
-476,-272,0,0,0,0,0,0,0,0,0,-1,748,1296,0,0
-469,-272,0,0,0,0,0,0,0,0,0,-1,755,1296,0,0
-462,-272,0,0,0,0,0,0,0,0,0,-1,762,1296,0,0
-455,-272,0,0,0,0,0,0,0,0,0,-1,769,1296,0,0
-448,-272,0,0,0,0,0,0,0,0,0,-1,776,1296,0,0
-441,-272,0,0,0,0,0,0,0,0,0,-1,783,1296,0,0
-434,-272,0,0,0,0,0,0,0,0,0,-1,790,1296,0,0
-427,-272,0,0,0,0,0,0,0,0,0,-1,797,1296,0,0
-420,-272,0,0,0,0,0,0,0,0,0,-1,804,1296,0,0
-413,-272,0,0,0,0,0,0,0,0,0,-1,811,1296,0,0
-406,-272,0,0,0,0,0,0,0,0,0,-1,818,1296,0,0
-399,-272,0,0,0,0,0,0,0,0,0,-1,825,1296,0,0
-392,-272,0,0,0,0,0,0,0,0,0,-1,832,1296,0,0
-385,-272,0,0,0,0,0,0,0,0,0,-1,839,1296,0,0
-378,-272,0,0,0,0,0,0,0,0,0,-1,846,1296,0,0
-371,-272,0,0,0,0,0,0,0,0,0,-1,853,1296,0,0
-364,-272,0,0,0,0,0,0,0,0,0,-1,860,1296,0,0
-357,-272,0,0,0,0,0,0,0,0,0,-1,867,1296,0,0
-350,-272,0,0,0,0,0,0,0,0,0,-1,874,1296,0,0
-343,-272,0,0,0,0,0,0,0,0,0,-1,881,1296,0,0
-336,-272,0,0,0,0,0,0,0,0,0,-1,888,1296,0,0
-329,-272,0,0,0,0,0,0,0,0,0,-1,895,1296,0,0
-322,-272,0,0,0,0,0,0,0,0,0,-1,902,1296,0,0
-315,-272,0,0,0,0,0,0,0,0,0,-1,909,1296,0,0
-308,-272,0,0,0,0,0,0,0,0,0,-1,916,1296,0,0
-301,-272,0,0,0,0,0,0,0,0,0,-1,923,1296,0,0
-294,-272,0,0,0,0,0,0,0,0,0,-1,930,1296,0,0
-287,-272,0,0,0,0,0,0,0,0,0,-1,937,1296,0,0
-280,-272,0,0,0,0,0,0,0,0,0,-1,944,1296,0,0
-273,-272,0,0,0,0,0,0,0,0,0,-1,951,1296,0,0
-266,-272,0,0,0,0,0,0,0,0,0,-1,958,1296,0,0
-259,-272,0,0,0,0,0,0,0,0,0,-1,965,1296,0,0
-252,-272,0,0,0,0,0,0,0,0,0,-1,972,1296,0,0
-245,-272,0,0,0,0,0,0,0,0,0,-1,979,1296,0,0
-238,-272,0,0,0,0,0,0,0,0,0,-1,986,1296,0,0
-231,-272,0,0,0,0,0,0,0,0,0,-1,993,1296,0,0
-224,-272,0,0,0,0,0,0,0,0,0,-1,1000,1296,0,0
-217,-272,0,0,0,0,0,0,0,0,0,-1,1007,1296,0,0
-210,-272,0,0,0,0,0,0,0,0,0,-1,1014,1296,0,0
-203,-272,0,0,0,0,0,0,0,0,0,-1,1021,1296,0,0
-196,-272,0,0,0,0,0,0,0,0,0,-1,1028,1296,0,0
-189,-272,0,0,0,0,0,0,0,0,0,-1,1035,1296,0,0
-182,-272,0,0,0,0,0,0,0,0,0,-1,1042,1296,0,0
-175,-272,0,0,0,0,0,0,0,0,0,-1,1049,1296,0,0
-168,-272,0,0,0,0,0,0,0,0,0,-1,1056,1296,0,0
-161,-272,0,0,0,0,0,0,0,0,0,-1,1063,1296,0,0
-154,-272,0,0,0,0,0,0,0,0,0,-1,1070,1296,0,0
-147,-272,0,0,0,0,0,0,0,0,0,-1,1077,1296,0,0
-140,-272,0,0,0,0,0,0,0,0,0,-1,1084,1296,0,0
-133,-272,0,0,0,0,0,0,0,0,0,-1,1091,1296,0,0
-126,-272,0,0,0,0,0,0,0,0,0,-1,1098,1296,0,0
-119,-272,0,0,0,0,0,0,0,0,0,-1,1105,1296,0,0
-112,-272,0,0,0,0,0,0,0,0,0,-1,1112,1296,0,0
-105,-272,0,0,0,0,0,0,0,0,0,-1,1119,1296,0,0
-98,-272,0,0,0,0,0,0,0,0,0,-1,1126,1296,0,0
-91,-272,0,0,0,0,0,0,0,0,0,-1,1133,1296,0,0
-84,-272,0,0,0,0,0,0,0,0,0,-1,1140,1296,0,0
-77,-272,0,0,0,0,0,0,0,0,0,-1,1147,1296,0,0
-70,-272,0,0,0,0,0,0,0,0,0,-1,1154,1296,0,0
-63,-272,0,0,0,0,0,0,0,0,0,-1,1161,1296,0,0
-56,-272,0,0,0,0,0,0,0,0,0,-1,1168,1296,0,0
-49,-272,0,0,0,0,0,0,0,0,0,-1,1175,1296,0,0
-42,-272,0,0,0,0,0,0,0,0,0,-1,1182,1296,0,0
-35,-272,0,0,0,0,0,0,0,0,0,-1,1189,1296,0,0
-28,-272,0,0,0,0,0,0,0,0,0,-1,1196,1296,0,0
-21,-272,0,0,0,0,0,0,0,0,0,-1,1203,1296,0,0
-14,-272,0,0,0,0,0,0,0,0,0,-1,1210,1296,0,0
-7,-272,0,0,0,0,0,0,0,0,0,-1,1217,1296,0,0
0,-272,0,0,0,0,0,0,0,0,0,-1,1224,1296,0,0
7,-272,0,0,0,0,0,0,0,0,0,-1,1231,1296,0,0
14,-272,0,0,0,0,0,0,0,0,0,-1,1238,1296,0,0
21,-272,0,0,0,0,0,0,0,0,0,-1,1245,1296,0,0
28,-272,0,0,0,0,0,0,0,0,0,-1,1252,1296,0,0
35,-272,0,0,0,0,0,0,0,0,0,-1,1259,1296,0,0
42,-272,0,0,0,0,0,0,0,0,0,-1,1266,1296,0,0
49,-272,0,0,0,0,0,0,0,0,0,-1,1273,1296,0,0
56,-272,0,0,0,0,0,0,0,0,0,-1,1280,1296,0,0
63,-272,0,0,0,0,0,0,0,0,0,-1,1287,1296,0,0
70,-272,0,0,0,0,0,0,0,0,0,-1,1294,1296,0,0
77,-272,0,0,0,0,0,0,0,0,0,-1,1301,1296,0,0
84,-272,0,0,0,0,0,0,0,0,0,-1,1308,1296,0,0
91,-272,0,0,0,0,0,0,0,0,0,-1,1315,1296,0,0
98,-272,0,0,0,0,0,0,0,0,0,-1,1322,1296,0,0
105,-272,0,0,0,0,0,0,0,0,0,-1,1329,1296,0,0
112,-272,0,0,0,0,0,0,0,0,0,-1,1336,1296,0,0
119,-272,0,0,0,0,0,0,0,0,0,-1,1343,1296,0,0
126,-272,0,0,0,0,0,0,0,0,0,-1,1350,1296,0,0
133,-272,0,0,0,0,0,0,0,0,0,-1,1357,1296,0,0
140,-272,0,0,0,0,0,0,0,0,0,-1,1364,1296,0,0
147,-272,0,0,0,0,0,0,0,0,0,-1,1371,1296,0,0
154,-272,0,0,0,0,0,0,0,0,0,-1,1378,1296,0,0
161,-272,0,0,0,0,0,0,0,0,0,-1,1385,1296,0,0
168,-272,0,0,0,0,0,0,0,0,0,-1,1392,1296,0,0
175,-272,0,0,0,0,0,0,0,0,0,-1,1399,1296,0,0
182,-272,0,0,0,0,0,0,0,0,0,-1,1406,1296,0,0
189,-272,0,0,0,0,0,0,0,0,0,-1,1413,1296,0,0
196,-272,0,0,0,0,0,0,0,0,0,-1,1420,1296,0,0
203,-272,0,0,0,0,0,0,0,0,0,-1,1427,1296,0,0
210,-272,0,0,0,0,0,0,0,0,0,-1,1434,1296,0,0
217,-272,0,0,0,0,0,0,0,0,0,-1,1441,1296,0,0
224,-272,0,0,0,0,0,0,0,0,0,-1,1448,1296,0,0
231,-272,0,0,0,0,0,0,0,0,0,-1,1455,1296,0,0
238,-272,0,0,0,0,0,0,0,0,0,-1,1462,1296,0,0
245,-272,0,0,0,0,0,0,0,0,0,-1,1469,1296,0,0
252,-272,0,0,0,0,0,0,0,0,0,-1,1476,1296,0,0
259,-272,0,0,0,0,0,0,0,0,0,-1,1483,1296,0,0
266,-272,0,0,0,0,0,0,0,0,0,-1,1490,1296,0,0
273,-272,0,0,0,0,0,0,0,0,0,-1,1497,1296,0,0
280,-272,0,0,0,0,0,0,0,0,0,-1,1504,1296,0,0
287,-272,0,0,0,0,0,0,0,0,0,-1,1511,1296,0,0
294,-272,0,0,0,0,0,0,0,0,0,-1,1518,1296,0,0
301,-272,0,0,0,0,0,0,0,0,0,-1,1525,1296,0,0
308,-272,0,0,0,0,0,0,0,0,0,-1,1532,1296,0,0
315,-272,0,0,0,0,0,0,0,0,0,-1,1539,1296,0,0
322,-272,0,0,0,0,0,0,0,0,0,-1,1546,1296,0,0
329,-272,0,0,0,0,0,0,0,0,0,-1,1553,1296,0,0
336,-272,0,0,0,0,0,0,0,0,0,-1,1560,1296,0,0
343,-272,0,0,0,0,0,0,0,0,0,-1,1567,1296,0,0
350,-272,0,0,0,0,0,0,0,0,0,-1,1574,1296,0,0
357,-272,0,0,0,0,0,0,0,0,0,-1,1581,1296,0,0
364,-272,0,0,0,0,0,0,0,0,0,-1,1588,1296,0,0
371,-272,0,0,0,0,0,0,0,0,0,-1,1595,1296,0,0
378,-272,0,0,0,0,0,0,0,0,0,-1,1602,1296,0,0
385,-272,0,0,0,0,0,0,0,0,0,-1,1609,1296,0,0
392,-272,0,0,0,0,0,0,0,0,0,-1,1616,1296,0,0
399,-272,0,0,0,0,0,0,0,0,0,-1,1623,1296,0,0
406,-272,0,0,0,0,0,0,0,0,0,-1,1630,1296,0,0
413,-272,0,0,0,0,0,0,0,0,0,-1,1637,1296,0,0
420,-272,0,0,0,0,0,0,0,0,0,-1,1644,1296,0,0
427,-272,0,0,0,0,0,0,0,0,0,-1,1651,1296,0,0
434,-272,0,0,0,0,0,0,0,0,0,-1,1658,1296,0,0
441,-272,0,0,0,0,0,0,0,0,0,-1,1665,1296,0,0
448,-272,0,0,0,0,0,0,0,0,0,-1,1672,1296,0,0
455,-272,0,0,0,0,0,0,0,0,0,-1,1679,1296,0,0
462,-272,0,0,0,0,0,0,0,0,0,-1,1686,1296,0,0
469,-272,0,0,0,0,0,0,0,0,0,-1,1693,1296,0,0
476,-272,0,0,0,0,0,0,0,0,0,-1,1700,1296,0,0
483,-272,0,0,0,0,0,0,0,0,0,-1,1707,1296,0,0
490,-272,0,0,0,0,0,0,0,0,0,-1,1714,1296,0,0
497,-272,0,0,0,0,0,0,0,0,0,-1,1721,1296,0,0
504,-272,0,0,0,0,0,0,0,0,0,-1,1728,1296,0,0
511,-272,0,0,0,0,0,0,0,0,0,-1,1735,1296,0,0
518,-272,0,0,0,0,0,0,0,0,0,-1,1742,1296,0,0
525,-272,0,0,0,0,0,0,0,0,0,-1,1749,1296,0,0
532,-272,0,0,0,0,0,0,0,0,0,-1,1756,1296,0,0
539,-272,0,0,0,0,0,0,0,0,0,-1,1763,1296,0,0
546,-272,0,0,0,0,0,0,0,0,0,-1,1770,1296,0,0
553,-272,0,0,0,0,0,0,0,0,0,-1,1777,1296,0,0
560,-272,0,0,0,0,0,0,0,0,0,-1,1784,1296,0,0
567,-272,0,0,0,0,0,0,0,0,0,-1,1791,1296,0,0
574,-272,0,0,0,0,0,0,0,0,0,-1,1798,1296,0,0
581,-272,0,0,0,0,0,0,0,0,0,-1,1805,1296,0,0
588,-272,0,0,0,0,0,0,0,0,0,-1,1812,1296,0,0
595,-272,0,0,0,0,0,0,0,0,0,-1,1819,1296,0,0
602,-272,27.2944,3.37524,-0.00133505,0.000720325,-0.0109162,0.0106571,-0.0112719,-0.832331,0.0126624,0.0294808,1826,1296,27.2945,-3.37523
609,-272,27.2565,3.23865,-0.0147178,-0.00399599,-0.0081613,0.00040764,-0.0191214,-1.07599,0.0128856,0.0367907,1833,1296,27.2564,-3.2386
616,-272,27.16,3.14441,-0.0233321,-0.00491906,-0.00484978,-0.00371979,-0.0245314,-1.32838,0.0152661,0.0429878,1840,1296,27.16,-3.1444
623,-272,26.7634,2.99658,-0.0274405,-0.00383245,-0.00185141,-0.00368814,-0.0275848,-1.49301,0.0172921,0.0450825,1847,1296,26.7634,-2.99657
630,-272,26.286,2.79004,-0.0276603,-0.00201902,0.000134826,-0.00201831,-0.027661,1.56554,0.017806,0.0462292,1854,1296,26.286,-2.79
637,-272,26.3269,2.86023,-0.0255055,-0.000461379,0.00133492,-0.000390425,-0.0255765,1.51769,0.0169223,0.0449349,1861,1296,26.3269,-2.86022
644,-272,26.9324,1.71277,0,0,0,0,0,0,0,-1,1868,1296,26.9323,-1.71278
651,-272,25.6642,2.26819,0,0,0,0,0,0,0,-1,1875,1296,25.6642,-2.26816
658,-272,21.92,5.5238,0,0,0,0,0,0,0,-1,1882,1296,21.9201,-5.52386
665,-272,22.0238,4.14417,0,0,0,0,0,0,0,-1,1889,1296,22.0238,-4.14421
672,-272,20.6868,7.16394,0,0,0,0,0,0,0,-1,1896,1296,20.6868,-7.16389
679,-272,20.9865,7.28076,-0.0100675,0.00403604,0.00384773,0.00501749,-0.0110489,1.32105,0.00949133,0.0396711,1903,1296,20.9864,-7.28081
686,-272,21.0437,7.19055,-0.00636127,0.00314351,0.00463234,0.00502767,-0.00824543,1.18449,0.00773792,0.0154115,1910,1296,21.0437,-7.19051
693,-272,21.0586,6.93677,-0.00432448,0.000345984,0.00413101,0.00275612,-0.00673462,1.04265,0.00563768,0.0112306,1917,1296,21.0586,-6.93677
700,-272,21.0553,6.70068,-0.00233605,-7.52089e-05,0.00282995,0.00184175,-0.004253,0.975413,0.00360943,0.0110488,1924,1296,21.0553,-6.70066
707,-272,21.0695,6.44092,-0.00114268,0.000317802,0.00159861,0.00134506,-0.00216994,0.999644,0.00204793,0.0109974,1931,1296,21.0694,-6.44087
714,-272,21.061,6.17749,-8.07442e-05,0.000803261,0.000447261,0.000990074,-0.000267557,1.17514,0.000764994,0.0108978,1938,1296,21.0611,-6.17747
721,-272,21.0448,5.94922,0.000642904,0.00162983,-0.000336161,0.00173346,0.000539282,-1.27179,0.00102434,0.0121546,1945,1296,21.0448,-5.94926
728,-272,21.0374,5.70984,0.000697388,0.00287361,-0.000886774,0.00318919,0.000381806,-1.2289,0.00201098,0.0143596,1952,1296,21.0374,-5.70979
735,-272,21.0621,5.45471,0.000878802,0.00417694,-0.00156252,0.00479963,0.000256107,-1.19157,0.00311789,0.014222,1959,1296,21.0621,-5.45473
742,-272,21.0791,5.22498,0.00118224,0.00574908,-0.00255886,0.0068952,3.61137e-05,-1.14969,0.00458481,0.0257235,1966,1296,21.0791,-5.22502
749,-272,21.1229,5.03003,0.00152452,0.00798704,-0.00393026,0.0098438,-0.000332248,-1.12945,0.00667604,0.0462601,1973,1296,21.1229,-5.03
756,-272,21.4196,4.97632,0.00175946,0.0109719,-0.00588883,0.013842,-0.00111065,-1.11729,0.00961963,0.048799,1980,1296,21.4195,-4.97637
763,-272,20.528,4.48743,0,0,0,0,0,0,0,-1,1987,1296,20.5279,-4.48745
770,-272,21.3555,4.46741,0,0,0,0,0,0,0,-1,1994,1296,21.3554,-4.46741
777,-272,21.6844,4.51648,0,0,0,0,0,0,0,-1,2001,1296,21.6844,-4.51649
784,-272,0,0,0,0,0,0,0,0,0,-1,2008,1296,0,0
791,-272,0,0,0,0,0,0,0,0,0,-1,2015,1296,0,0
798,-272,0,0,0,0,0,0,0,0,0,-1,2022,1296,0,0
805,-272,0,0,0,0,0,0,0,0,0,-1,2029,1296,0,0
812,-272,0,0,0,0,0,0,0,0,0,-1,2036,1296,0,0
-700,-279,0,0,0,0,0,0,0,0,0,-1,524,1303,0,0
-693,-279,0,0,0,0,0,0,0,0,0,-1,531,1303,0,0
-686,-279,0,0,0,0,0,0,0,0,0,-1,538,1303,0,0
-679,-279,0,0,0,0,0,0,0,0,0,-1,545,1303,0,0
-672,-279,0,0,0,0,0,0,0,0,0,-1,552,1303,0,0
-665,-279,0,0,0,0,0,0,0,0,0,-1,559,1303,0,0
-658,-279,-12.0545,0.681885,0,0,0,0,0,0,0,-1,566,1303,-12.0545,-0.681838
-651,-279,-11.7094,1.10376,0.0512478,-0.0307886,-0.00104596,0.0512611,-0.030802,-0.0127471,0.0478674,0.0431375,573,1303,-11.7094,-1.10374
-644,-279,-11.3646,1.54102,0.044551,-0.0270091,0.000531911,0.0445549,-0.0270131,0.00743252,0.0417315,0.0446939,580,1303,-11.3646,-1.54096
-637,-279,-11.0409,1.86304,0,0,0,0,0,0,0,-1,587,1303,-11.0409,-1.86307
-630,-279,-12.822,-1.93555,0,0,0,0,0,0,0,-1,594,1303,-12.8219,1.93553
-623,-279,-11.3766,1.36829,0,0,0,0,0,0,0,-1,601,1303,-11.3766,-1.3683
-616,-279,-11.5042,2.59143,0,0,0,0,0,0,0,-1,608,1303,-11.5042,-2.59139
-609,-279,-11.6813,2.72021,0.0144637,-0.0041634,0.00155099,0.0145919,-0.00429167,0.0825084,0.0114303,0.0320506,615,1303,-11.6813,-2.72025
-602,-279,-11.4819,3.07483,0.00878612,-0.00207317,0.00123899,0.00892569,-0.00221274,0.112174,0.00680896,0.0127287,622,1303,-11.4819,-3.07479
-595,-279,-11.4991,3.37561,0.00393046,0.00054627,0.0014745,0.00448277,-6.03916e-06,0.358396,0.00299053,0.0104068,629,1303,-11.4992,-3.37566
-588,-279,-11.4759,3.67822,0.00172275,0.00129239,0.00162738,0.00314912,-0.000133978,0.719666,0.00214547,0.0101329,636,1303,-11.4759,-3.67824
-581,-279,-11.5104,3.94531,0.000455756,0.00105059,0.00127787,0.0020652,-0.000558849,0.899735,0.00159603,0.0112124,643,1303,-11.5104,-3.94529
-574,-279,-11.5455,4.21228,0.00102776,0.000873406,0.00107896,0.0020323,-0.000131134,0.749695,0.00140062,0.0115117,650,1303,-11.5455,-4.21233
-567,-279,-11.5403,4.49536,0.00160452,0.000893783,0.00102425,0.0023333,0.000165005,0.618418,0.00150355,0.0161667,657,1303,-11.5403,-4.4954
-560,-279,-11.5135,4.79309,0.00161826,0.00109111,0.00102382,0.00241189,0.000297477,0.659414,0.00151851,0.0164922,664,1303,-11.5136,-4.79305
-553,-279,-11.5053,5.08569,0.00114038,0.00155368,0.000980198,0.00234877,0.000345283,0.88929,0.00146439,0.0124792,671,1303,-11.5053,-5.08571
-546,-279,-11.5142,5.35815,0.000179004,0.00233928,0.000846575,0.00263151,-0.000113223,1.23842,0.00179327,0.0160802,678,1303,-11.5142,-5.35812
-539,-279,-11.4901,5.72791,-0.00129372,0.00314814,0.000594125,0.00322624,-0.00137182,1.4401,0.0027257,0.0479194,685,1303,-11.4901,-5.72789
-532,-279,-11.4561,6.11462,0,0,0,0,0,0,0,-1,692,1303,-11.4561,-6.11458
-525,-279,-11.7063,-0.539185,0,0,0,0,0,0,0,-1,699,1303,-11.7063,0.539166
-518,-279,-16.8138,1.11963,0,0,0,0,0,0,0,-1,706,1303,-16.8138,-1.11968
-511,-279,-15.9417,0.708252,0,0,0,0,0,0,0,-1,713,1303,-15.9417,-0.70823
-504,-279,-15.1055,0.264282,0,0,0,0,0,0,0,-1,720,1303,-15.1055,-0.264245
-497,-279,-14.4391,-0.347168,0,0,0,0,0,0,0,-1,727,1303,-14.4392,0.347135
-490,-279,-13.9624,-1.07593,0,0,0,0,0,0,0,-1,734,1303,-13.9624,1.07595
-483,-279,-14.9331,0.736816,0,0,0,0,0,0,0,-1,741,1303,-14.9331,-0.736782
-476,-279,0,0,0,0,0,0,0,0,0,-1,748,1303,0,0
-469,-279,0,0,0,0,0,0,0,0,0,-1,755,1303,0,0
-462,-279,0,0,0,0,0,0,0,0,0,-1,762,1303,0,0
-455,-279,0,0,0,0,0,0,0,0,0,-1,769,1303,0,0
-448,-279,0,0,0,0,0,0,0,0,0,-1,776,1303,0,0
-441,-279,0,0,0,0,0,0,0,0,0,-1,783,1303,0,0
-434,-279,0,0,0,0,0,0,0,0,0,-1,790,1303,0,0
-427,-279,0,0,0,0,0,0,0,0,0,-1,797,1303,0,0
-420,-279,0,0,0,0,0,0,0,0,0,-1,804,1303,0,0
-413,-279,0,0,0,0,0,0,0,0,0,-1,811,1303,0,0
-406,-279,0,0,0,0,0,0,0,0,0,-1,818,1303,0,0
-399,-279,0,0,0,0,0,0,0,0,0,-1,825,1303,0,0
-392,-279,0,0,0,0,0,0,0,0,0,-1,832,1303,0,0
-385,-279,0,0,0,0,0,0,0,0,0,-1,839,1303,0,0
-378,-279,0,0,0,0,0,0,0,0,0,-1,846,1303,0,0
-371,-279,0,0,0,0,0,0,0,0,0,-1,853,1303,0,0
-364,-279,0,0,0,0,0,0,0,0,0,-1,860,1303,0,0
-357,-279,0,0,0,0,0,0,0,0,0,-1,867,1303,0,0
-350,-279,0,0,0,0,0,0,0,0,0,-1,874,1303,0,0
-343,-279,0,0,0,0,0,0,0,0,0,-1,881,1303,0,0
-336,-279,0,0,0,0,0,0,0,0,0,-1,888,1303,0,0
-329,-279,0,0,0,0,0,0,0,0,0,-1,895,1303,0,0
-322,-279,0,0,0,0,0,0,0,0,0,-1,902,1303,0,0
-315,-279,0,0,0,0,0,0,0,0,0,-1,909,1303,0,0
-308,-279,0,0,0,0,0,0,0,0,0,-1,916,1303,0,0
-301,-279,0,0,0,0,0,0,0,0,0,-1,923,1303,0,0
-294,-279,0,0,0,0,0,0,0,0,0,-1,930,1303,0,0
-287,-279,0,0,0,0,0,0,0,0,0,-1,937,1303,0,0
-280,-279,0,0,0,0,0,0,0,0,0,-1,944,1303,0,0
-273,-279,0,0,0,0,0,0,0,0,0,-1,951,1303,0,0
-266,-279,0,0,0,0,0,0,0,0,0,-1,958,1303,0,0
-259,-279,0,0,0,0,0,0,0,0,0,-1,965,1303,0,0
-252,-279,0,0,0,0,0,0,0,0,0,-1,972,1303,0,0
-245,-279,0,0,0,0,0,0,0,0,0,-1,979,1303,0,0
-238,-279,0,0,0,0,0,0,0,0,0,-1,986,1303,0,0
-231,-279,0,0,0,0,0,0,0,0,0,-1,993,1303,0,0
-224,-279,0,0,0,0,0,0,0,0,0,-1,1000,1303,0,0
-217,-279,0,0,0,0,0,0,0,0,0,-1,1007,1303,0,0
-210,-279,0,0,0,0,0,0,0,0,0,-1,1014,1303,0,0
-203,-279,0,0,0,0,0,0,0,0,0,-1,1021,1303,0,0
-196,-279,0,0,0,0,0,0,0,0,0,-1,1028,1303,0,0
-189,-279,0,0,0,0,0,0,0,0,0,-1,1035,1303,0,0
-182,-279,0,0,0,0,0,0,0,0,0,-1,1042,1303,0,0
-175,-279,0,0,0,0,0,0,0,0,0,-1,1049,1303,0,0
-168,-279,0,0,0,0,0,0,0,0,0,-1,1056,1303,0,0
-161,-279,0,0,0,0,0,0,0,0,0,-1,1063,1303,0,0
-154,-279,0,0,0,0,0,0,0,0,0,-1,1070,1303,0,0
-147,-279,0,0,0,0,0,0,0,0,0,-1,1077,1303,0,0
-140,-279,0,0,0,0,0,0,0,0,0,-1,1084,1303,0,0
-133,-279,0,0,0,0,0,0,0,0,0,-1,1091,1303,0,0
-126,-279,0,0,0,0,0,0,0,0,0,-1,1098,1303,0,0
-119,-279,0,0,0,0,0,0,0,0,0,-1,1105,1303,0,0
-112,-279,0,0,0,0,0,0,0,0,0,-1,1112,1303,0,0
-105,-279,0,0,0,0,0,0,0,0,0,-1,1119,1303,0,0
-98,-279,0,0,0,0,0,0,0,0,0,-1,1126,1303,0,0
-91,-279,0,0,0,0,0,0,0,0,0,-1,1133,1303,0,0
-84,-279,0,0,0,0,0,0,0,0,0,-1,1140,1303,0,0
-77,-279,0,0,0,0,0,0,0,0,0,-1,1147,1303,0,0
-70,-279,0,0,0,0,0,0,0,0,0,-1,1154,1303,0,0
-63,-279,0,0,0,0,0,0,0,0,0,-1,1161,1303,0,0
-56,-279,0,0,0,0,0,0,0,0,0,-1,1168,1303,0,0
-49,-279,0,0,0,0,0,0,0,0,0,-1,1175,1303,0,0
-42,-279,0,0,0,0,0,0,0,0,0,-1,1182,1303,0,0
-35,-279,0,0,0,0,0,0,0,0,0,-1,1189,1303,0,0
-28,-279,0,0,0,0,0,0,0,0,0,-1,1196,1303,0,0
-21,-279,0,0,0,0,0,0,0,0,0,-1,1203,1303,0,0
-14,-279,0,0,0,0,0,0,0,0,0,-1,1210,1303,0,0
-7,-279,0,0,0,0,0,0,0,0,0,-1,1217,1303,0,0
0,-279,0,0,0,0,0,0,0,0,0,-1,1224,1303,0,0
7,-279,0,0,0,0,0,0,0,0,0,-1,1231,1303,0,0
14,-279,0,0,0,0,0,0,0,0,0,-1,1238,1303,0,0
21,-279,0,0,0,0,0,0,0,0,0,-1,1245,1303,0,0
28,-279,0,0,0,0,0,0,0,0,0,-1,1252,1303,0,0
35,-279,0,0,0,0,0,0,0,0,0,-1,1259,1303,0,0
42,-279,0,0,0,0,0,0,0,0,0,-1,1266,1303,0,0
49,-279,0,0,0,0,0,0,0,0,0,-1,1273,1303,0,0
56,-279,0,0,0,0,0,0,0,0,0,-1,1280,1303,0,0
63,-279,0,0,0,0,0,0,0,0,0,-1,1287,1303,0,0
70,-279,0,0,0,0,0,0,0,0,0,-1,1294,1303,0,0
77,-279,0,0,0,0,0,0,0,0,0,-1,1301,1303,0,0
84,-279,0,0,0,0,0,0,0,0,0,-1,1308,1303,0,0
91,-279,0,0,0,0,0,0,0,0,0,-1,1315,1303,0,0
98,-279,0,0,0,0,0,0,0,0,0,-1,1322,1303,0,0
105,-279,0,0,0,0,0,0,0,0,0,-1,1329,1303,0,0
112,-279,0,0,0,0,0,0,0,0,0,-1,1336,1303,0,0
119,-279,0,0,0,0,0,0,0,0,0,-1,1343,1303,0,0
126,-279,0,0,0,0,0,0,0,0,0,-1,1350,1303,0,0
133,-279,0,0,0,0,0,0,0,0,0,-1,1357,1303,0,0
140,-279,0,0,0,0,0,0,0,0,0,-1,1364,1303,0,0
147,-279,0,0,0,0,0,0,0,0,0,-1,1371,1303,0,0
154,-279,0,0,0,0,0,0,0,0,0,-1,1378,1303,0,0
161,-279,0,0,0,0,0,0,0,0,0,-1,1385,1303,0,0
168,-279,0,0,0,0,0,0,0,0,0,-1,1392,1303,0,0
175,-279,0,0,0,0,0,0,0,0,0,-1,1399,1303,0,0
182,-279,0,0,0,0,0,0,0,0,0,-1,1406,1303,0,0
189,-279,0,0,0,0,0,0,0,0,0,-1,1413,1303,0,0
196,-279,0,0,0,0,0,0,0,0,0,-1,1420,1303,0,0
203,-279,0,0,0,0,0,0,0,0,0,-1,1427,1303,0,0
210,-279,0,0,0,0,0,0,0,0,0,-1,1434,1303,0,0
217,-279,0,0,0,0,0,0,0,0,0,-1,1441,1303,0,0
224,-279,0,0,0,0,0,0,0,0,0,-1,1448,1303,0,0
231,-279,0,0,0,0,0,0,0,0,0,-1,1455,1303,0,0
238,-279,0,0,0,0,0,0,0,0,0,-1,1462,1303,0,0
245,-279,0,0,0,0,0,0,0,0,0,-1,1469,1303,0,0
252,-279,0,0,0,0,0,0,0,0,0,-1,1476,1303,0,0
259,-279,0,0,0,0,0,0,0,0,0,-1,1483,1303,0,0
266,-279,0,0,0,0,0,0,0,0,0,-1,1490,1303,0,0
273,-279,0,0,0,0,0,0,0,0,0,-1,1497,1303,0,0
280,-279,0,0,0,0,0,0,0,0,0,-1,1504,1303,0,0
287,-279,0,0,0,0,0,0,0,0,0,-1,1511,1303,0,0
294,-279,0,0,0,0,0,0,0,0,0,-1,1518,1303,0,0
301,-279,0,0,0,0,0,0,0,0,0,-1,1525,1303,0,0
308,-279,0,0,0,0,0,0,0,0,0,-1,1532,1303,0,0
315,-279,0,0,0,0,0,0,0,0,0,-1,1539,1303,0,0
322,-279,0,0,0,0,0,0,0,0,0,-1,1546,1303,0,0
329,-279,0,0,0,0,0,0,0,0,0,-1,1553,1303,0,0
336,-279,0,0,0,0,0,0,0,0,0,-1,1560,1303,0,0
343,-279,0,0,0,0,0,0,0,0,0,-1,1567,1303,0,0
350,-279,0,0,0,0,0,0,0,0,0,-1,1574,1303,0,0
357,-279,0,0,0,0,0,0,0,0,0,-1,1581,1303,0,0
364,-279,0,0,0,0,0,0,0,0,0,-1,1588,1303,0,0
371,-279,0,0,0,0,0,0,0,0,0,-1,1595,1303,0,0
378,-279,0,0,0,0,0,0,0,0,0,-1,1602,1303,0,0
385,-279,0,0,0,0,0,0,0,0,0,-1,1609,1303,0,0
392,-279,0,0,0,0,0,0,0,0,0,-1,1616,1303,0,0
399,-279,0,0,0,0,0,0,0,0,0,-1,1623,1303,0,0
406,-279,0,0,0,0,0,0,0,0,0,-1,1630,1303,0,0
413,-279,0,0,0,0,0,0,0,0,0,-1,1637,1303,0,0
420,-279,0,0,0,0,0,0,0,0,0,-1,1644,1303,0,0
427,-279,0,0,0,0,0,0,0,0,0,-1,1651,1303,0,0
434,-279,0,0,0,0,0,0,0,0,0,-1,1658,1303,0,0
441,-279,0,0,0,0,0,0,0,0,0,-1,1665,1303,0,0
448,-279,0,0,0,0,0,0,0,0,0,-1,1672,1303,0,0
455,-279,0,0,0,0,0,0,0,0,0,-1,1679,1303,0,0
462,-279,0,0,0,0,0,0,0,0,0,-1,1686,1303,0,0
469,-279,0,0,0,0,0,0,0,0,0,-1,1693,1303,0,0
476,-279,0,0,0,0,0,0,0,0,0,-1,1700,1303,0,0
483,-279,0,0,0,0,0,0,0,0,0,-1,1707,1303,0,0
490,-279,0,0,0,0,0,0,0,0,0,-1,1714,1303,0,0
497,-279,0,0,0,0,0,0,0,0,0,-1,1721,1303,0,0
504,-279,0,0,0,0,0,0,0,0,0,-1,1728,1303,0,0
511,-279,0,0,0,0,0,0,0,0,0,-1,1735,1303,0,0
518,-279,0,0,0,0,0,0,0,0,0,-1,1742,1303,0,0
525,-279,0,0,0,0,0,0,0,0,0,-1,1749,1303,0,0
532,-279,0,0,0,0,0,0,0,0,0,-1,1756,1303,0,0
539,-279,0,0,0,0,0,0,0,0,0,-1,1763,1303,0,0
546,-279,0,0,0,0,0,0,0,0,0,-1,1770,1303,0,0
553,-279,0,0,0,0,0,0,0,0,0,-1,1777,1303,0,0
560,-279,0,0,0,0,0,0,0,0,0,-1,1784,1303,0,0
567,-279,0,0,0,0,0,0,0,0,0,-1,1791,1303,0,0
574,-279,0,0,0,0,0,0,0,0,0,-1,1798,1303,0,0
581,-279,0,0,0,0,0,0,0,0,0,-1,1805,1303,0,0
588,-279,0,0,0,0,0,0,0,0,0,-1,1812,1303,0,0
595,-279,0,0,0,0,0,0,0,0,0,-1,1819,1303,0,0
602,-279,27.2799,3.28748,-0.00816561,-0.00015673,-0.0135848,0.0100016,-0.0183239,-0.928725,0.0165873,0.0404078,1826,1303,27.2799,-3.28749
609,-279,27.2192,3.13074,-0.0221341,-0.00717485,-0.00855332,-0.00329207,-0.0260169,-1.14466,0.016358,0.0472656,1833,1303,27.2193,-3.13078
616,-279,27.1932,3.36731,-0.0295408,-0.00909833,-0.00403055,-0.00833235,-0.0303068,-1.38299,0.0180789,0.0457673,1840,1303,27.1933,-3.36733
623,-279,26.8904,3.43005,-0.0318852,-0.00793175,-0.00093258,-0.00789549,-0.0319215,-1.53194,0.0191982,0.0445887,1847,1303,26.8904,-3.43006
630,-279,26.198,2.79346,-0.0306877,-0.0057854,0.000739029,-0.00576349,-0.0307096,1.54115,0.018848,0.042542,1854,1303,26.198,-2.79348
637,-279,26.2072,1.78687,-0.027799,-0.00377105,0.00165408,-0.00365772,-0.0279123,1.50239,0.0175167,0.0463571,1861,1303,26.2072,-1.78689
644,-279,26.1821,0.711182,0,0,0,0,0,0,0,-1,1868,1303,26.1821,-0.711236
651,-279,20.5229,2.6499,0,0,0,0,0,0,0,-1,1875,1303,20.523,-2.64987
658,-279,21.5076,7.65649,0,0,0,0,0,0,0,-1,1882,1303,21.5076,-7.65648
665,-279,18.9794,6.09607,0,0,0,0,0,0,0,-1,1889,1303,18.9793,-6.09601
672,-279,20.7098,7.40674,0,0,0,0,0,0,0,-1,1896,1303,20.7098,-7.40671
679,-279,20.8202,7.46899,-0.0102668,0.00366918,0.00321339,0.00437445,-0.010972,1.35475,0.00912915,0.0383758,1903,1303,20.8202,-7.46894
686,-279,20.7976,7.18799,-0.00611388,0.00277698,0.00401255,0.00432007,-0.00765697,1.20366,0.00700384,0.0211287,1910,1303,20.7976,-7.18794
693,-279,20.7965,6.93567,-0.00410963,4.39825e-05,0.0034888,0.00202733,-0.00609297,1.05387,0.0048802,0.015203,1917,1303,20.7966,-6.9357
700,-279,20.8024,6.70007,-0.00226268,-0.0001517,0.0022971,0.0013208,-0.00373518,1.00076,0.00302798,0.0105738,1924,1303,20.8024,-6.7001
707,-279,20.7948,6.44763,-0.00115049,0.000407376,0.00123732,0.00109053,-0.00183364,1.06632,0.00170635,0.00841395,1931,1303,20.7948,-6.44767
714,-279,20.7778,6.18945,-0.000158023,0.0010404,0.000204593,0.00107436,-0.000191989,1.40628,0.000788072,0.00941195,1938,1303,20.7778,-6.18941
721,-279,20.78,5.94873,0.000483696,0.00193955,-0.000445279,0.00206494,0.000358306,-1.2963,0.0012741,0.0122397,1945,1303,20.7801,-5.94873
728,-279,20.7864,5.70142,0.000547171,0.00330044,-0.000989842,0.00361936,0.000228249,-1.2591,0.00234054,0.0134139,1952,1303,20.7864,-5.70142
735,-279,20.8126,5.46851,0.000753623,0.00484193,-0.00167485,0.00544044,0.00015511,-1.22759,0.00357638,0.0126014,1959,1303,20.8126,-5.46852
742,-279,20.7224,5.15259,0.00107328,0.00693738,-0.00265055,0.00795784,5.28269e-05,-1.20329,0.00528771,0.0263507,1966,1303,20.7224,-5.15259
749,-279,20.7767,4.70239,0.00141979,0.00990646,-0.00403623,0.0115195,-0.000193244,-1.1906,0.00774488,0.0487216,1973,1303,20.7768,-4.70237
756,-279,20.449,4.521,0.00150602,0.0141435,-0.00591503,0.01648,-0.000830532,-1.19459,0.0112737,0.0495582,1980,1303,20.449,-4.52101
763,-279,20.7946,4.18896,0,0,0,0,0,0,0,-1,1987,1303,20.7945,-4.18899
770,-279,21.1072,3.85291,0,0,0,0,0,0,0,-1,1994,1303,21.1071,-3.85294
777,-279,21.6755,2.86829,0,0,0,0,0,0,0,-1,2001,1303,21.6755,-2.86834
784,-279,0,0,0,0,0,0,0,0,0,-1,2008,1303,0,0
791,-279,0,0,0,0,0,0,0,0,0,-1,2015,1303,0,0
798,-279,0,0,0,0,0,0,0,0,0,-1,2022,1303,0,0
805,-279,0,0,0,0,0,0,0,0,0,-1,2029,1303,0,0
812,-279,0,0,0,0,0,0,0,0,0,-1,2036,1303,0,0
-700,-286,0,0,0,0,0,0,0,0,0,-1,524,1310,0,0
-693,-286,0,0,0,0,0,0,0,0,0,-1,531,1310,0,0
-686,-286,0,0,0,0,0,0,0,0,0,-1,538,1310,0,0
-679,-286,0,0,0,0,0,0,0,0,0,-1,545,1310,0,0
-672,-286,0,0,0,0,0,0,0,0,0,-1,552,1310,0,0
-665,-286,0,0,0,0,0,0,0,0,0,-1,559,1310,0,0
-658,-286,-11.702,0.971313,0,0,0,0,0,0,0,-1,566,1310,-11.702,-0.971278
-651,-286,-11.324,1.26697,0,0,0,0,0,0,0,-1,573,1310,-11.324,-1.26695
-644,-286,-10.5148,1.58057,0,0,0,0,0,0,0,-1,580,1310,-10.5149,-1.58056
-637,-286,-12.8625,-2.63647,0,0,0,0,0,0,0,-1,587,1310,-12.8625,2.6365
-630,-286,-12.3671,-1.58972,0,0,0,0,0,0,0,-1,594,1310,-12.3671,1.5897
-623,-286,-11.4353,0.756592,0,0,0,0,0,0,0,-1,601,1310,-11.4353,-0.756539
-616,-286,-11.4254,1.42236,0,0,0,0,0,0,0,-1,608,1310,-11.4254,-1.42239
-609,-286,-11.5041,2.53333,0,0,0,0,0,0,0,-1,615,1310,-11.5041,-2.53327
-602,-286,-11.243,3.05676,0.00810706,-0.00205072,0.000951528,0.00819542,-0.00213908,0.0926013,0.0062989,0.015691,622,1310,-11.243,-3.0568
-595,-286,-11.2305,3.37573,0.00303259,0.000269074,0.00122529,0.00349761,-0.000195946,0.362726,0.00239972,0.010999,629,1310,-11.2305,-3.37575
-588,-286,-11.1826,3.66479,0.000812478,0.000887231,0.00139196,0.00224232,-0.000542611,0.798821,0.00170478,0.0110892,636,1310,-11.1826,-3.66479
-581,-286,-11.178,3.94141,-0.000378543,0.000765881,0.00108114,0.0014169,-0.00102956,1.02879,0.00141836,0.0132788,643,1310,-11.178,-3.94146
-574,-286,-11.2228,4.22083,0.000129196,0.000632143,0.000808115,0.00122701,-0.000465669,0.936242,0.00100968,0.0146116,650,1310,-11.2228,-4.22086
-567,-286,-11.2286,4.50769,0.000802863,0.000647256,0.000634967,0.00136478,8.53435e-05,0.724436,0.000882779,0.0144456,657,1310,-11.2286,-4.50767
-560,-286,-11.2213,4.80798,0.00113005,0.000749968,0.000552359,0.00152414,0.000355872,0.619715,0.000920691,0.0141574,664,1310,-11.2212,-4.80795
-553,-286,-11.2234,5.10413,0.00114568,0.00107164,0.000458685,0.00156884,0.000648486,0.745129,0.000910292,0.0104783,671,1310,-11.2234,-5.10408
-546,-286,-11.2278,5.41833,0.000776914,0.00169517,0.000339766,0.00180722,0.000664869,1.25225,0.00105547,0.0136754,678,1310,-11.2278,-5.41838
-539,-286,-11.252,5.73706,2.69251e-06,0.00237404,0.000121072,0.00238021,-3.47302e-06,1.51992,0.00158796,0.0339409,685,1310,-11.252,-5.73703
-532,-286,-11.238,6.06433,0,0,0,0,0,0,0,-1,692,1310,-11.238,-6.06437
-525,-286,-11.4528,-1.11768,0,0,0,0,0,0,0,-1,699,1310,-11.4528,1.11769
-518,-286,-11.0701,1.37329,0,0,0,0,0,0,0,-1,706,1310,-11.0701,-1.37332
-511,-286,-15.6617,0.479004,0,0,0,0,0,0,0,-1,713,1310,-15.6617,-0.478996
-504,-286,-14.9544,-0.132568,0,0,0,0,0,0,0,-1,720,1310,-14.9544,0.132603
-497,-286,-14.8359,-0.798096,0,0,0,0,0,0,0,-1,727,1310,-14.8359,0.798043
-490,-286,-14.7894,-1.10425,0,0,0,0,0,0,0,-1,734,1310,-14.7893,1.10429
-483,-286,-14.576,-1.09082,0,0,0,0,0,0,0,-1,741,1310,-14.576,1.09077
-476,-286,-15.3409,0.904541,0,0,0,0,0,0,0,-1,748,1310,-15.3409,-0.904512
-469,-286,0,0,0,0,0,0,0,0,0,-1,755,1310,0,0
-462,-286,0,0,0,0,0,0,0,0,0,-1,762,1310,0,0
-455,-286,0,0,0,0,0,0,0,0,0,-1,769,1310,0,0
-448,-286,0,0,0,0,0,0,0,0,0,-1,776,1310,0,0
-441,-286,0,0,0,0,0,0,0,0,0,-1,783,1310,0,0
-434,-286,0,0,0,0,0,0,0,0,0,-1,790,1310,0,0
-427,-286,0,0,0,0,0,0,0,0,0,-1,797,1310,0,0
-420,-286,0,0,0,0,0,0,0,0,0,-1,804,1310,0,0
-413,-286,0,0,0,0,0,0,0,0,0,-1,811,1310,0,0
-406,-286,0,0,0,0,0,0,0,0,0,-1,818,1310,0,0
-399,-286,0,0,0,0,0,0,0,0,0,-1,825,1310,0,0
-392,-286,0,0,0,0,0,0,0,0,0,-1,832,1310,0,0
-385,-286,0,0,0,0,0,0,0,0,0,-1,839,1310,0,0
-378,-286,0,0,0,0,0,0,0,0,0,-1,846,1310,0,0
-371,-286,0,0,0,0,0,0,0,0,0,-1,853,1310,0,0
-364,-286,0,0,0,0,0,0,0,0,0,-1,860,1310,0,0
-357,-286,0,0,0,0,0,0,0,0,0,-1,867,1310,0,0
-350,-286,0,0,0,0,0,0,0,0,0,-1,874,1310,0,0
-343,-286,0,0,0,0,0,0,0,0,0,-1,881,1310,0,0
-336,-286,0,0,0,0,0,0,0,0,0,-1,888,1310,0,0
-329,-286,0,0,0,0,0,0,0,0,0,-1,895,1310,0,0
-322,-286,0,0,0,0,0,0,0,0,0,-1,902,1310,0,0
-315,-286,0,0,0,0,0,0,0,0,0,-1,909,1310,0,0
-308,-286,0,0,0,0,0,0,0,0,0,-1,916,1310,0,0
-301,-286,0,0,0,0,0,0,0,0,0,-1,923,1310,0,0
-294,-286,0,0,0,0,0,0,0,0,0,-1,930,1310,0,0
-287,-286,0,0,0,0,0,0,0,0,0,-1,937,1310,0,0
-280,-286,0,0,0,0,0,0,0,0,0,-1,944,1310,0,0
-273,-286,0,0,0,0,0,0,0,0,0,-1,951,1310,0,0
-266,-286,0,0,0,0,0,0,0,0,0,-1,958,1310,0,0
-259,-286,0,0,0,0,0,0,0,0,0,-1,965,1310,0,0
-252,-286,0,0,0,0,0,0,0,0,0,-1,972,1310,0,0
-245,-286,0,0,0,0,0,0,0,0,0,-1,979,1310,0,0
-238,-286,0,0,0,0,0,0,0,0,0,-1,986,1310,0,0
-231,-286,0,0,0,0,0,0,0,0,0,-1,993,1310,0,0
-224,-286,0,0,0,0,0,0,0,0,0,-1,1000,1310,0,0
-217,-286,0,0,0,0,0,0,0,0,0,-1,1007,1310,0,0
-210,-286,0,0,0,0,0,0,0,0,0,-1,1014,1310,0,0
-203,-286,0,0,0,0,0,0,0,0,0,-1,1021,1310,0,0
-196,-286,0,0,0,0,0,0,0,0,0,-1,1028,1310,0,0
-189,-286,0,0,0,0,0,0,0,0,0,-1,1035,1310,0,0
-182,-286,0,0,0,0,0,0,0,0,0,-1,1042,1310,0,0
-175,-286,0,0,0,0,0,0,0,0,0,-1,1049,1310,0,0
-168,-286,0,0,0,0,0,0,0,0,0,-1,1056,1310,0,0
-161,-286,0,0,0,0,0,0,0,0,0,-1,1063,1310,0,0
-154,-286,0,0,0,0,0,0,0,0,0,-1,1070,1310,0,0
-147,-286,0,0,0,0,0,0,0,0,0,-1,1077,1310,0,0
-140,-286,0,0,0,0,0,0,0,0,0,-1,1084,1310,0,0
-133,-286,0,0,0,0,0,0,0,0,0,-1,1091,1310,0,0
-126,-286,0,0,0,0,0,0,0,0,0,-1,1098,1310,0,0
-119,-286,0,0,0,0,0,0,0,0,0,-1,1105,1310,0,0
-112,-286,0,0,0,0,0,0,0,0,0,-1,1112,1310,0,0
-105,-286,0,0,0,0,0,0,0,0,0,-1,1119,1310,0,0
-98,-286,0,0,0,0,0,0,0,0,0,-1,1126,1310,0,0
-91,-286,0,0,0,0,0,0,0,0,0,-1,1133,1310,0,0
-84,-286,0,0,0,0,0,0,0,0,0,-1,1140,1310,0,0
-77,-286,0,0,0,0,0,0,0,0,0,-1,1147,1310,0,0
-70,-286,0,0,0,0,0,0,0,0,0,-1,1154,1310,0,0
-63,-286,0,0,0,0,0,0,0,0,0,-1,1161,1310,0,0
-56,-286,0,0,0,0,0,0,0,0,0,-1,1168,1310,0,0
-49,-286,0,0,0,0,0,0,0,0,0,-1,1175,1310,0,0
-42,-286,0,0,0,0,0,0,0,0,0,-1,1182,1310,0,0
-35,-286,0,0,0,0,0,0,0,0,0,-1,1189,1310,0,0
-28,-286,0,0,0,0,0,0,0,0,0,-1,1196,1310,0,0
-21,-286,0,0,0,0,0,0,0,0,0,-1,1203,1310,0,0
-14,-286,0,0,0,0,0,0,0,0,0,-1,1210,1310,0,0
-7,-286,0,0,0,0,0,0,0,0,0,-1,1217,1310,0,0
0,-286,0,0,0,0,0,0,0,0,0,-1,1224,1310,0,0
7,-286,0,0,0,0,0,0,0,0,0,-1,1231,1310,0,0
14,-286,0,0,0,0,0,0,0,0,0,-1,1238,1310,0,0
21,-286,0,0,0,0,0,0,0,0,0,-1,1245,1310,0,0
28,-286,0,0,0,0,0,0,0,0,0,-1,1252,1310,0,0
35,-286,0,0,0,0,0,0,0,0,0,-1,1259,1310,0,0
42,-286,0,0,0,0,0,0,0,0,0,-1,1266,1310,0,0
49,-286,0,0,0,0,0,0,0,0,0,-1,1273,1310,0,0
56,-286,0,0,0,0,0,0,0,0,0,-1,1280,1310,0,0
63,-286,0,0,0,0,0,0,0,0,0,-1,1287,1310,0,0
70,-286,0,0,0,0,0,0,0,0,0,-1,1294,1310,0,0
77,-286,0,0,0,0,0,0,0,0,0,-1,1301,1310,0,0
84,-286,0,0,0,0,0,0,0,0,0,-1,1308,1310,0,0
91,-286,0,0,0,0,0,0,0,0,0,-1,1315,1310,0,0
98,-286,0,0,0,0,0,0,0,0,0,-1,1322,1310,0,0
105,-286,0,0,0,0,0,0,0,0,0,-1,1329,1310,0,0
112,-286,0,0,0,0,0,0,0,0,0,-1,1336,1310,0,0
119,-286,0,0,0,0,0,0,0,0,0,-1,1343,1310,0,0
126,-286,0,0,0,0,0,0,0,0,0,-1,1350,1310,0,0
133,-286,0,0,0,0,0,0,0,0,0,-1,1357,1310,0,0
140,-286,0,0,0,0,0,0,0,0,0,-1,1364,1310,0,0
147,-286,0,0,0,0,0,0,0,0,0,-1,1371,1310,0,0
154,-286,0,0,0,0,0,0,0,0,0,-1,1378,1310,0,0
161,-286,0,0,0,0,0,0,0,0,0,-1,1385,1310,0,0
168,-286,0,0,0,0,0,0,0,0,0,-1,1392,1310,0,0
175,-286,0,0,0,0,0,0,0,0,0,-1,1399,1310,0,0
182,-286,0,0,0,0,0,0,0,0,0,-1,1406,1310,0,0
189,-286,0,0,0,0,0,0,0,0,0,-1,1413,1310,0,0
196,-286,0,0,0,0,0,0,0,0,0,-1,1420,1310,0,0
203,-286,0,0,0,0,0,0,0,0,0,-1,1427,1310,0,0
210,-286,0,0,0,0,0,0,0,0,0,-1,1434,1310,0,0
217,-286,0,0,0,0,0,0,0,0,0,-1,1441,1310,0,0
224,-286,0,0,0,0,0,0,0,0,0,-1,1448,1310,0,0
231,-286,0,0,0,0,0,0,0,0,0,-1,1455,1310,0,0
238,-286,0,0,0,0,0,0,0,0,0,-1,1462,1310,0,0
245,-286,0,0,0,0,0,0,0,0,0,-1,1469,1310,0,0
252,-286,0,0,0,0,0,0,0,0,0,-1,1476,1310,0,0
259,-286,0,0,0,0,0,0,0,0,0,-1,1483,1310,0,0
266,-286,0,0,0,0,0,0,0,0,0,-1,1490,1310,0,0
273,-286,0,0,0,0,0,0,0,0,0,-1,1497,1310,0,0
280,-286,0,0,0,0,0,0,0,0,0,-1,1504,1310,0,0
287,-286,0,0,0,0,0,0,0,0,0,-1,1511,1310,0,0
294,-286,0,0,0,0,0,0,0,0,0,-1,1518,1310,0,0
301,-286,0,0,0,0,0,0,0,0,0,-1,1525,1310,0,0
308,-286,0,0,0,0,0,0,0,0,0,-1,1532,1310,0,0
315,-286,0,0,0,0,0,0,0,0,0,-1,1539,1310,0,0
322,-286,0,0,0,0,0,0,0,0,0,-1,1546,1310,0,0
329,-286,0,0,0,0,0,0,0,0,0,-1,1553,1310,0,0
336,-286,0,0,0,0,0,0,0,0,0,-1,1560,1310,0,0
343,-286,0,0,0,0,0,0,0,0,0,-1,1567,1310,0,0
350,-286,0,0,0,0,0,0,0,0,0,-1,1574,1310,0,0
357,-286,0,0,0,0,0,0,0,0,0,-1,1581,1310,0,0
364,-286,0,0,0,0,0,0,0,0,0,-1,1588,1310,0,0
371,-286,0,0,0,0,0,0,0,0,0,-1,1595,1310,0,0
378,-286,0,0,0,0,0,0,0,0,0,-1,1602,1310,0,0
385,-286,0,0,0,0,0,0,0,0,0,-1,1609,1310,0,0
392,-286,0,0,0,0,0,0,0,0,0,-1,1616,1310,0,0
399,-286,0,0,0,0,0,0,0,0,0,-1,1623,1310,0,0
406,-286,0,0,0,0,0,0,0,0,0,-1,1630,1310,0,0
413,-286,0,0,0,0,0,0,0,0,0,-1,1637,1310,0,0
420,-286,0,0,0,0,0,0,0,0,0,-1,1644,1310,0,0
427,-286,0,0,0,0,0,0,0,0,0,-1,1651,1310,0,0
434,-286,0,0,0,0,0,0,0,0,0,-1,1658,1310,0,0
441,-286,0,0,0,0,0,0,0,0,0,-1,1665,1310,0,0
448,-286,0,0,0,0,0,0,0,0,0,-1,1672,1310,0,0
455,-286,0,0,0,0,0,0,0,0,0,-1,1679,1310,0,0
462,-286,0,0,0,0,0,0,0,0,0,-1,1686,1310,0,0
469,-286,0,0,0,0,0,0,0,0,0,-1,1693,1310,0,0
476,-286,0,0,0,0,0,0,0,0,0,-1,1700,1310,0,0
483,-286,0,0,0,0,0,0,0,0,0,-1,1707,1310,0,0
490,-286,0,0,0,0,0,0,0,0,0,-1,1714,1310,0,0
497,-286,0,0,0,0,0,0,0,0,0,-1,1721,1310,0,0
504,-286,0,0,0,0,0,0,0,0,0,-1,1728,1310,0,0
511,-286,0,0,0,0,0,0,0,0,0,-1,1735,1310,0,0
518,-286,0,0,0,0,0,0,0,0,0,-1,1742,1310,0,0
525,-286,0,0,0,0,0,0,0,0,0,-1,1749,1310,0,0
532,-286,0,0,0,0,0,0,0,0,0,-1,1756,1310,0,0
539,-286,0,0,0,0,0,0,0,0,0,-1,1763,1310,0,0
546,-286,0,0,0,0,0,0,0,0,0,-1,1770,1310,0,0
553,-286,0,0,0,0,0,0,0,0,0,-1,1777,1310,0,0
560,-286,0,0,0,0,0,0,0,0,0,-1,1784,1310,0,0
567,-286,0,0,0,0,0,0,0,0,0,-1,1791,1310,0,0
574,-286,0,0,0,0,0,0,0,0,0,-1,1798,1310,0,0
581,-286,0,0,0,0,0,0,0,0,0,-1,1805,1310,0,0
588,-286,0,0,0,0,0,0,0,0,0,-1,1812,1310,0,0
595,-286,27.3794,3.37024,-0.000909419,0.00816875,-0.0236866,0.0277473,-0.0204879,-0.880066,0.0279536,0.0413541,1819,1310,27.3794,-3.37029
602,-286,27.3933,3.25269,-0.0166836,-0.00356,-0.0147382,0.00601118,-0.0262547,-0.994835,0.0198132,0.0454362,1826,1310,27.3934,-3.25264
609,-286,27.0706,3.27197,-0.0297323,-0.0123193,-0.00752735,-0.00951649,-0.0325351,-1.21435,0.0193158,0.044968,1833,1310,27.0705,-3.27197
616,-286,27.1018,3.44373,-0.0349649,-0.0145777,-0.00232629,-0.0143156,-0.0352269,-1.45861,0.0204568,0.0453517,1840,1310,27.1019,-3.44369
623,-286,27.3562,3.68713,-0.0353877,-0.0131208,0.000587351,-0.0131053,-0.0354032,1.54444,0.0206684,0.0459615,1847,1310,27.3562,-3.68715
630,-286,26.3368,2.87756,-0.0330838,-0.0106934,0.00192811,-0.0105286,-0.0332486,1.48552,0.0196215,0.0416225,1854,1310,26.3368,-2.87753
637,-286,26.4208,2.15686,0,0,0,0,0,0,0,-1,1861,1310,26.4207,-2.15682
644,-286,25.3843,2.44324,0,0,0,0,0,0,0,-1,1868,1310,25.3843,-2.44327
651,-286,20.7119,7.67944,0,0,0,0,0,0,0,-1,1875,1310,20.7119,-7.67941
658,-286,21.809,7.86426,0,0,0,0,0,0,0,-1,1882,1310,21.809,-7.86421
665,-286,21.1235,7.98621,0,0,0,0,0,0,0,-1,1889,1310,21.1236,-7.98621
672,-286,20.7906,7.78516,-0.0145041,0.000609582,0.00287918,0.00113949,-0.015034,1.38878,0.0104233,0.0396243,1896,1310,20.7907,-7.78521
679,-286,20.4906,7.45569,-0.0101874,0.00202516,0.00307861,0.00275734,-0.0109196,1.33731,0.00835194,0.0267975,1903,1310,20.4906,-7.45573
686,-286,20.5386,7.17627,-0.005786,0.0013228,0.0038288,0.00299272,-0.00745591,1.15952,0.00621326,0.020948,1910,1310,20.5386,-7.17624
693,-286,20.5317,6.93835,-0.0039404,-0.000900534,0.00321473,0.00113547,-0.00597641,1.00622,0.00441174,0.0159153,1917,1310,20.5317,-6.93839
700,-286,20.5394,6.68762,-0.00232157,-0.000578299,0.00204689,0.00077481,-0.00367468,0.986687,0.00274476,0.0113215,1924,1310,20.5394,-6.68765
707,-286,20.5388,6.45178,-0.00134283,0.000347156,0.00107128,0.000866586,-0.00186226,1.11933,0.00161008,0.00849831,1931,1310,20.5389,-6.45177
714,-286,20.5276,6.20203,-0.000469267,0.00126424,0.000101272,0.00127014,-0.000475164,1.51264,0.00104191,0.00832145,1938,1310,20.5276,-6.20198
721,-286,20.5409,5.95715,6.40279e-05,0.00230387,-0.000491328,0.00240691,-3.9009e-05,-1.36408,0.00161777,0.0104165,1945,1310,20.5409,-5.95715
728,-286,20.517,5.70166,9.39602e-05,0.00378733,-0.00106168,0.00407077,-0.000189472,-1.30991,0.00277916,0.01326,1952,1310,20.517,-5.70168
735,-286,20.5282,5.47083,0.00034453,0.00547273,-0.0018517,0.00607145,-0.000254182,-1.25807,0.00413496,0.0150673,1959,1310,20.5282,-5.47077
742,-286,20.5123,5.172,0.000829675,0.00784662,-0.00302124,0.00896819,-0.000291889,-1.21534,0.00607842,0.0316089,1966,1310,20.5124,-5.172
749,-286,20.4967,4.74121,0.00143143,0.0111931,-0.00473457,0.0131122,-0.000487638,-1.1857,0.00890846,0.0458177,1973,1310,20.4967,-4.74121
756,-286,20.5917,4.32043,0.00191471,0.0159978,-0.00710938,0.0189626,-0.00105007,-1.1757,0.0130059,0.0494494,1980,1310,20.5917,-4.32039
763,-286,20.6671,3.99683,0,0,0,0,0,0,0,-1,1987,1310,20.6671,-3.99683
770,-286,23.9147,4.45679,0,0,0,0,0,0,0,-1,1994,1310,23.9146,-4.45675
777,-286,0,0,0,0,0,0,0,0,0,-1,2001,1310,0,0
784,-286,0,0,0,0,0,0,0,0,0,-1,2008,1310,0,0
791,-286,0,0,0,0,0,0,0,0,0,-1,2015,1310,0,0
798,-286,0,0,0,0,0,0,0,0,0,-1,2022,1310,0,0
805,-286,0,0,0,0,0,0,0,0,0,-1,2029,1310,0,0
812,-286,0,0,0,0,0,0,0,0,0,-1,2036,1310,0,0
-700,-293,0,0,0,0,0,0,0,0,0,-1,524,1317,0,0
-693,-293,0,0,0,0,0,0,0,0,0,-1,531,1317,0,0
-686,-293,0,0,0,0,0,0,0,0,0,-1,538,1317,0,0
-679,-293,0,0,0,0,0,0,0,0,0,-1,545,1317,0,0
-672,-293,0,0,0,0,0,0,0,0,0,-1,552,1317,0,0
-665,-293,0,0,0,0,0,0,0,0,0,-1,559,1317,0,0
-658,-293,0,0,0,0,0,0,0,0,0,-1,566,1317,0,0
-651,-293,-11.1013,1.67078,0,0,0,0,0,0,0,-1,573,1317,-11.1012,-1.67081
-644,-293,-12.6685,-3.22656,0,0,0,0,0,0,0,-1,580,1317,-12.6685,3.22653
-637,-293,-12.2536,-2.94946,0,0,0,0,0,0,0,-1,587,1317,-12.2536,2.94942
-630,-293,-11.7927,-1.47021,0,0,0,0,0,0,0,-1,594,1317,-11.7926,1.47025
-623,-293,-11.3618,-0.11792,0,0,0,0,0,0,0,-1,601,1317,-11.3618,0.11794
-616,-293,-11.3245,1.01416,0,0,0,0,0,0,0,-1,608,1317,-11.3245,-1.0142
-609,-293,-10.9288,2.6073,0,0,0,0,0,0,0,-1,615,1317,-10.9288,-2.60724
-602,-293,-10.8941,2.99585,0.00735589,-0.00193877,0.0005754,0.00739138,-0.00197425,0.061593,0.00570078,0.0332073,622,1317,-10.8941,-2.99583
-595,-293,-10.9663,3.36084,0.0022341,3.5645e-05,0.000922152,0.00256968,-0.000299933,0.34901,0.00182135,0.0153354,629,1317,-10.9663,-3.3608
-588,-293,-10.9191,3.63586,7.20959e-05,0.000518507,0.00112477,0.001442,-0.0008514,0.883349,0.00133865,0.0143546,636,1317,-10.9191,-3.6359
-581,-293,-10.8989,3.92542,-0.00094545,0.000511102,0.000896321,0.000937718,-0.00137207,1.12656,0.00134139,0.0170073,643,1317,-10.8989,-3.92544
-574,-293,-10.9092,4.23572,-0.000453839,0.000425779,0.000616561,0.00074332,-0.00077138,1.0952,0.000874563,0.0167582,650,1317,-10.9092,-4.23575
-567,-293,-10.9352,4.53564,0.000261581,0.000430219,0.000415973,0.000770332,-7.85328e-05,0.885395,0.000541633,0.0165297,657,1317,-10.9352,-4.53562
-560,-293,-10.9453,4.8302,0.000769817,0.000430291,0.000288486,0.000934783,0.000265325,0.519452,0.000556256,0.0165278,664,1317,-10.9452,-4.83022
-553,-293,-10.9413,5.11707,0.00109543,0.000562946,0.000185724,0.00115381,0.000504568,0.304549,0.000667894,0.0108829,671,1317,-10.9413,-5.11712
-546,-293,-10.9466,5.43811,0.00114687,0.000883092,0.000115008,0.00118997,0.000839991,0.358569,0.000706178,0.0103302,678,1317,-10.9466,-5.43816
-539,-293,-10.9543,5.74084,0.000867968,0.00121397,-4.76151e-05,0.0012204,0.000861535,-1.43651,0.000724249,0.0275695,685,1317,-10.9544,-5.74089
-532,-293,-11.4388,5.80981,0,0,0,0,0,0,0,-1,692,1317,-11.4388,-5.80985
-525,-293,-8.20642,3.62256,0,0,0,0,0,0,0,-1,699,1317,-8.20639,-3.6226
-518,-293,-10.1053,0.314209,0,0,0,0,0,0,0,-1,706,1317,-10.1053,-0.314234
-511,-293,-11.6276,0.235352,0,0,0,0,0,0,0,-1,713,1317,-11.6276,-0.235372
-504,-293,-14.8224,-0.563721,0,0,0,0,0,0,0,-1,720,1317,-14.8224,0.563713
-497,-293,-14.8926,-0.689575,0,0,0,0,0,0,0,-1,727,1317,-14.8926,0.68961
-490,-293,-14.7461,-0.77771,0,0,0,0,0,0,0,-1,734,1317,-14.7461,0.777687
-483,-293,-14.5155,-0.898071,0,0,0,0,0,0,0,-1,741,1317,-14.5155,0.898124
-476,-293,-14.051,-0.78186,0,0,0,0,0,0,0,-1,748,1317,-14.051,0.781821
-469,-293,0,0,0,0,0,0,0,0,0,-1,755,1317,0,0
-462,-293,0,0,0,0,0,0,0,0,0,-1,762,1317,0,0
-455,-293,0,0,0,0,0,0,0,0,0,-1,769,1317,0,0
-448,-293,0,0,0,0,0,0,0,0,0,-1,776,1317,0,0
-441,-293,0,0,0,0,0,0,0,0,0,-1,783,1317,0,0
-434,-293,0,0,0,0,0,0,0,0,0,-1,790,1317,0,0
-427,-293,0,0,0,0,0,0,0,0,0,-1,797,1317,0,0
-420,-293,0,0,0,0,0,0,0,0,0,-1,804,1317,0,0
-413,-293,0,0,0,0,0,0,0,0,0,-1,811,1317,0,0
-406,-293,0,0,0,0,0,0,0,0,0,-1,818,1317,0,0
-399,-293,0,0,0,0,0,0,0,0,0,-1,825,1317,0,0
-392,-293,0,0,0,0,0,0,0,0,0,-1,832,1317,0,0
-385,-293,0,0,0,0,0,0,0,0,0,-1,839,1317,0,0
-378,-293,0,0,0,0,0,0,0,0,0,-1,846,1317,0,0
-371,-293,0,0,0,0,0,0,0,0,0,-1,853,1317,0,0
-364,-293,0,0,0,0,0,0,0,0,0,-1,860,1317,0,0
-357,-293,0,0,0,0,0,0,0,0,0,-1,867,1317,0,0
-350,-293,0,0,0,0,0,0,0,0,0,-1,874,1317,0,0
-343,-293,0,0,0,0,0,0,0,0,0,-1,881,1317,0,0
-336,-293,0,0,0,0,0,0,0,0,0,-1,888,1317,0,0
-329,-293,0,0,0,0,0,0,0,0,0,-1,895,1317,0,0
-322,-293,0,0,0,0,0,0,0,0,0,-1,902,1317,0,0
-315,-293,0,0,0,0,0,0,0,0,0,-1,909,1317,0,0
-308,-293,0,0,0,0,0,0,0,0,0,-1,916,1317,0,0
-301,-293,0,0,0,0,0,0,0,0,0,-1,923,1317,0,0
-294,-293,0,0,0,0,0,0,0,0,0,-1,930,1317,0,0
-287,-293,0,0,0,0,0,0,0,0,0,-1,937,1317,0,0
-280,-293,0,0,0,0,0,0,0,0,0,-1,944,1317,0,0
-273,-293,0,0,0,0,0,0,0,0,0,-1,951,1317,0,0
-266,-293,0,0,0,0,0,0,0,0,0,-1,958,1317,0,0
-259,-293,0,0,0,0,0,0,0,0,0,-1,965,1317,0,0
-252,-293,0,0,0,0,0,0,0,0,0,-1,972,1317,0,0
-245,-293,0,0,0,0,0,0,0,0,0,-1,979,1317,0,0
-238,-293,0,0,0,0,0,0,0,0,0,-1,986,1317,0,0
-231,-293,0,0,0,0,0,0,0,0,0,-1,993,1317,0,0
-224,-293,0,0,0,0,0,0,0,0,0,-1,1000,1317,0,0
-217,-293,0,0,0,0,0,0,0,0,0,-1,1007,1317,0,0
-210,-293,0,0,0,0,0,0,0,0,0,-1,1014,1317,0,0
-203,-293,0,0,0,0,0,0,0,0,0,-1,1021,1317,0,0
-196,-293,0,0,0,0,0,0,0,0,0,-1,1028,1317,0,0
-189,-293,0,0,0,0,0,0,0,0,0,-1,1035,1317,0,0
-182,-293,0,0,0,0,0,0,0,0,0,-1,1042,1317,0,0
-175,-293,0,0,0,0,0,0,0,0,0,-1,1049,1317,0,0
-168,-293,0,0,0,0,0,0,0,0,0,-1,1056,1317,0,0
-161,-293,0,0,0,0,0,0,0,0,0,-1,1063,1317,0,0
-154,-293,0,0,0,0,0,0,0,0,0,-1,1070,1317,0,0
-147,-293,0,0,0,0,0,0,0,0,0,-1,1077,1317,0,0
-140,-293,0,0,0,0,0,0,0,0,0,-1,1084,1317,0,0
-133,-293,0,0,0,0,0,0,0,0,0,-1,1091,1317,0,0
-126,-293,0,0,0,0,0,0,0,0,0,-1,1098,1317,0,0
-119,-293,0,0,0,0,0,0,0,0,0,-1,1105,1317,0,0
-112,-293,0,0,0,0,0,0,0,0,0,-1,1112,1317,0,0
-105,-293,0,0,0,0,0,0,0,0,0,-1,1119,1317,0,0
-98,-293,0,0,0,0,0,0,0,0,0,-1,1126,1317,0,0
-91,-293,0,0,0,0,0,0,0,0,0,-1,1133,1317,0,0
-84,-293,0,0,0,0,0,0,0,0,0,-1,1140,1317,0,0
-77,-293,0,0,0,0,0,0,0,0,0,-1,1147,1317,0,0
-70,-293,0,0,0,0,0,0,0,0,0,-1,1154,1317,0,0
-63,-293,0,0,0,0,0,0,0,0,0,-1,1161,1317,0,0
-56,-293,0,0,0,0,0,0,0,0,0,-1,1168,1317,0,0
-49,-293,0,0,0,0,0,0,0,0,0,-1,1175,1317,0,0
-42,-293,0,0,0,0,0,0,0,0,0,-1,1182,1317,0,0
-35,-293,0,0,0,0,0,0,0,0,0,-1,1189,1317,0,0
-28,-293,0,0,0,0,0,0,0,0,0,-1,1196,1317,0,0
-21,-293,0,0,0,0,0,0,0,0,0,-1,1203,1317,0,0
-14,-293,0,0,0,0,0,0,0,0,0,-1,1210,1317,0,0
-7,-293,0,0,0,0,0,0,0,0,0,-1,1217,1317,0,0
0,-293,0,0,0,0,0,0,0,0,0,-1,1224,1317,0,0
7,-293,0,0,0,0,0,0,0,0,0,-1,1231,1317,0,0
14,-293,0,0,0,0,0,0,0,0,0,-1,1238,1317,0,0
21,-293,0,0,0,0,0,0,0,0,0,-1,1245,1317,0,0
28,-293,0,0,0,0,0,0,0,0,0,-1,1252,1317,0,0
35,-293,0,0,0,0,0,0,0,0,0,-1,1259,1317,0,0
42,-293,0,0,0,0,0,0,0,0,0,-1,1266,1317,0,0
49,-293,0,0,0,0,0,0,0,0,0,-1,1273,1317,0,0
56,-293,0,0,0,0,0,0,0,0,0,-1,1280,1317,0,0
63,-293,0,0,0,0,0,0,0,0,0,-1,1287,1317,0,0
70,-293,0,0,0,0,0,0,0,0,0,-1,1294,1317,0,0
77,-293,0,0,0,0,0,0,0,0,0,-1,1301,1317,0,0
84,-293,0,0,0,0,0,0,0,0,0,-1,1308,1317,0,0
91,-293,0,0,0,0,0,0,0,0,0,-1,1315,1317,0,0
98,-293,0,0,0,0,0,0,0,0,0,-1,1322,1317,0,0
105,-293,0,0,0,0,0,0,0,0,0,-1,1329,1317,0,0
112,-293,0,0,0,0,0,0,0,0,0,-1,1336,1317,0,0
119,-293,0,0,0,0,0,0,0,0,0,-1,1343,1317,0,0
126,-293,0,0,0,0,0,0,0,0,0,-1,1350,1317,0,0
133,-293,0,0,0,0,0,0,0,0,0,-1,1357,1317,0,0
140,-293,0,0,0,0,0,0,0,0,0,-1,1364,1317,0,0
147,-293,0,0,0,0,0,0,0,0,0,-1,1371,1317,0,0
154,-293,0,0,0,0,0,0,0,0,0,-1,1378,1317,0,0
161,-293,0,0,0,0,0,0,0,0,0,-1,1385,1317,0,0
168,-293,0,0,0,0,0,0,0,0,0,-1,1392,1317,0,0
175,-293,0,0,0,0,0,0,0,0,0,-1,1399,1317,0,0
182,-293,0,0,0,0,0,0,0,0,0,-1,1406,1317,0,0
189,-293,0,0,0,0,0,0,0,0,0,-1,1413,1317,0,0
196,-293,0,0,0,0,0,0,0,0,0,-1,1420,1317,0,0
203,-293,0,0,0,0,0,0,0,0,0,-1,1427,1317,0,0
210,-293,0,0,0,0,0,0,0,0,0,-1,1434,1317,0,0
217,-293,0,0,0,0,0,0,0,0,0,-1,1441,1317,0,0
224,-293,0,0,0,0,0,0,0,0,0,-1,1448,1317,0,0
231,-293,0,0,0,0,0,0,0,0,0,-1,1455,1317,0,0
238,-293,0,0,0,0,0,0,0,0,0,-1,1462,1317,0,0
245,-293,0,0,0,0,0,0,0,0,0,-1,1469,1317,0,0
252,-293,0,0,0,0,0,0,0,0,0,-1,1476,1317,0,0
259,-293,0,0,0,0,0,0,0,0,0,-1,1483,1317,0,0
266,-293,0,0,0,0,0,0,0,0,0,-1,1490,1317,0,0
273,-293,0,0,0,0,0,0,0,0,0,-1,1497,1317,0,0
280,-293,0,0,0,0,0,0,0,0,0,-1,1504,1317,0,0
287,-293,0,0,0,0,0,0,0,0,0,-1,1511,1317,0,0
294,-293,0,0,0,0,0,0,0,0,0,-1,1518,1317,0,0
301,-293,0,0,0,0,0,0,0,0,0,-1,1525,1317,0,0
308,-293,0,0,0,0,0,0,0,0,0,-1,1532,1317,0,0
315,-293,0,0,0,0,0,0,0,0,0,-1,1539,1317,0,0
322,-293,0,0,0,0,0,0,0,0,0,-1,1546,1317,0,0
329,-293,0,0,0,0,0,0,0,0,0,-1,1553,1317,0,0
336,-293,0,0,0,0,0,0,0,0,0,-1,1560,1317,0,0
343,-293,0,0,0,0,0,0,0,0,0,-1,1567,1317,0,0
350,-293,0,0,0,0,0,0,0,0,0,-1,1574,1317,0,0
357,-293,0,0,0,0,0,0,0,0,0,-1,1581,1317,0,0
364,-293,0,0,0,0,0,0,0,0,0,-1,1588,1317,0,0
371,-293,0,0,0,0,0,0,0,0,0,-1,1595,1317,0,0
378,-293,0,0,0,0,0,0,0,0,0,-1,1602,1317,0,0
385,-293,0,0,0,0,0,0,0,0,0,-1,1609,1317,0,0
392,-293,0,0,0,0,0,0,0,0,0,-1,1616,1317,0,0
399,-293,0,0,0,0,0,0,0,0,0,-1,1623,1317,0,0
406,-293,0,0,0,0,0,0,0,0,0,-1,1630,1317,0,0
413,-293,0,0,0,0,0,0,0,0,0,-1,1637,1317,0,0
420,-293,0,0,0,0,0,0,0,0,0,-1,1644,1317,0,0
427,-293,0,0,0,0,0,0,0,0,0,-1,1651,1317,0,0
434,-293,0,0,0,0,0,0,0,0,0,-1,1658,1317,0,0
441,-293,0,0,0,0,0,0,0,0,0,-1,1665,1317,0,0
448,-293,0,0,0,0,0,0,0,0,0,-1,1672,1317,0,0
455,-293,0,0,0,0,0,0,0,0,0,-1,1679,1317,0,0
462,-293,0,0,0,0,0,0,0,0,0,-1,1686,1317,0,0
469,-293,0,0,0,0,0,0,0,0,0,-1,1693,1317,0,0
476,-293,0,0,0,0,0,0,0,0,0,-1,1700,1317,0,0
483,-293,0,0,0,0,0,0,0,0,0,-1,1707,1317,0,0
490,-293,0,0,0,0,0,0,0,0,0,-1,1714,1317,0,0
497,-293,0,0,0,0,0,0,0,0,0,-1,1721,1317,0,0
504,-293,0,0,0,0,0,0,0,0,0,-1,1728,1317,0,0
511,-293,0,0,0,0,0,0,0,0,0,-1,1735,1317,0,0
518,-293,0,0,0,0,0,0,0,0,0,-1,1742,1317,0,0
525,-293,0,0,0,0,0,0,0,0,0,-1,1749,1317,0,0
532,-293,0,0,0,0,0,0,0,0,0,-1,1756,1317,0,0
539,-293,0,0,0,0,0,0,0,0,0,-1,1763,1317,0,0
546,-293,0,0,0,0,0,0,0,0,0,-1,1770,1317,0,0
553,-293,0,0,0,0,0,0,0,0,0,-1,1777,1317,0,0
560,-293,0,0,0,0,0,0,0,0,0,-1,1784,1317,0,0
567,-293,0,0,0,0,0,0,0,0,0,-1,1791,1317,0,0
574,-293,0,0,0,0,0,0,0,0,0,-1,1798,1317,0,0
581,-293,0,0,0,0,0,0,0,0,0,-1,1805,1317,0,0
588,-293,0,0,0,0,0,0,0,0,0,-1,1812,1317,0,0
595,-293,27.5443,3.34607,0,0,0,0,0,0,0,-1,1819,1317,27.5443,-3.34601
602,-293,27.4539,3.18481,0,0,0,0,0,0,0,-1,1826,1317,27.4539,-3.18487
609,-293,27.0322,3.49194,0,0,0,0,0,0,0,-1,1833,1317,27.0322,-3.49197
616,-293,26.9727,3.50671,0,0,0,0,0,0,0,-1,1840,1317,26.9726,-3.50675
623,-293,27.5452,3.95349,-0.0380933,-0.0182787,0.00242835,-0.0179854,-0.0383866,1.45061,0.0221771,0.0489397,1847,1317,27.5452,-3.9535
630,-293,26.1658,3.10229,-0.0352187,-0.0155779,0.00353273,-0.0149618,-0.0358348,1.39814,0.0207828,0.0449564,1854,1317,26.1658,-3.10235
637,-293,26.9352,3.20264,0,0,0,0,0,0,0,-1,1861,1317,26.9352,-3.20265
644,-293,22.5355,3.37354,0,0,0,0,0,0,0,-1,1868,1317,22.5355,-3.37358
651,-293,21.4698,7.54236,0,0,0,0,0,0,0,-1,1875,1317,21.4698,-7.54235
658,-293,21.1775,7.66541,-0.02103,-0.00691372,0.00639276,-0.00444901,-0.0234947,1.20281,0.0144109,0.0432124,1882,1317,21.1775,-7.66544
665,-293,20.7562,7.77075,-0.0169551,-0.00359552,0.00530475,-0.00174536,-0.0188052,1.23521,0.0119974,0.0391247,1889,1317,20.7562,-7.77071
672,-293,20.3402,7.73535,-0.0147443,-0.000804388,0.00348453,1.81012e-05,-0.0155668,1.339,0.0103839,0.0191798,1896,1317,20.3403,-7.73541
679,-293,20.2909,7.43994,-0.0100367,0.00107506,0.00339439,0.00202991,-0.0109916,1.29658,0.00808971,0.0128052,1903,1317,20.2909,-7.43996
686,-293,20.2991,7.19836,-0.00557153,0.000588917,0.00394457,0.00251343,-0.00749604,1.11688,0.00601291,0.0151106,1910,1317,20.2991,-7.19839
693,-293,20.3092,6.95276,-0.00385207,-0.0010726,0.00314449,0.000975574,-0.00590024,0.993471,0.00429577,0.012112,1917,1317,20.3092,-6.95273
700,-293,20.2916,6.67859,-0.00239377,-0.000494483,0.00193805,0.000714082,-0.00360233,1.01321,0.00267159,0.0107059,1924,1317,20.2916,-6.67858
707,-293,20.2839,6.44568,-0.00147618,0.000551297,0.00098518,0.000951152,-0.00187603,1.18524,0.00166114,0.0115765,1931,1317,20.284,-6.44567
714,-293,20.2778,6.21179,-0.000708953,0.00156249,7.39671e-05,0.0015649,-0.000711359,1.53828,0.00134464,0.0081703,1938,1317,20.2778,-6.21179
721,-293,20.2845,5.95764,-0.00030527,0.00264955,-0.000488424,0.00272819,-0.000383912,-1.41115,0.00195935,0.00894424,1945,1317,20.2845,-5.95764
728,-293,20.2699,5.69482,-0.000346005,0.00423275,-0.0010975,0.00448223,-0.000595477,-1.34728,0.00320513,0.0114664,1952,1317,20.2699,-5.69481
735,-293,20.2777,5.42419,-9.02929e-05,0.0060588,-0.002021,0.00666356,-0.00069505,-1.28004,0.00469125,0.0177516,1959,1317,20.2777,-5.42418
742,-293,20.3085,5.13342,0.000528649,0.00871705,-0.00343213,0.00996532,-0.00071962,-1.22197,0.00689594,0.0345692,1966,1317,20.3084,-5.1334
749,-293,20.6757,4.75989,0.00141229,0.0124904,-0.00556826,0.0148054,-0.000902741,-1.17678,0.0101845,0.043409,1973,1317,20.6757,-4.75986
756,-293,20.6561,4.13062,0,0,0,0,0,0,0,-1,1980,1317,20.6562,-4.13061
763,-293,26.6713,4.74097,0,0,0,0,0,0,0,-1,1987,1317,26.6713,-4.74098
770,-293,24.1349,4.69153,0,0,0,0,0,0,0,-1,1994,1317,24.1348,-4.69159
777,-293,0,0,0,0,0,0,0,0,0,-1,2001,1317,0,0
784,-293,0,0,0,0,0,0,0,0,0,-1,2008,1317,0,0
791,-293,0,0,0,0,0,0,0,0,0,-1,2015,1317,0,0
798,-293,0,0,0,0,0,0,0,0,0,-1,2022,1317,0,0
805,-293,0,0,0,0,0,0,0,0,0,-1,2029,1317,0,0
812,-293,0,0,0,0,0,0,0,0,0,-1,2036,1317,0,0
-700,-300,0,0,0,0,0,0,0,0,0,-1,524,1324,0,0
-693,-300,0,0,0,0,0,0,0,0,0,-1,531,1324,0,0
-686,-300,0,0,0,0,0,0,0,0,0,-1,538,1324,0,0
-679,-300,0,0,0,0,0,0,0,0,0,-1,545,1324,0,0
-672,-300,0,0,0,0,0,0,0,0,0,-1,552,1324,0,0
-665,-300,0,0,0,0,0,0,0,0,0,-1,559,1324,0,0
-658,-300,0,0,0,0,0,0,0,0,0,-1,566,1324,0,0
-651,-300,-10.6357,-3.51111,0,0,0,0,0,0,0,-1,573,1324,-10.6358,3.51114
-644,-300,-11.0798,-3.23413,0,0,0,0,0,0,0,-1,580,1324,-11.0798,3.23412
-637,-300,-11.4849,-2.86304,0,0,0,0,0,0,0,-1,587,1324,-11.4849,2.86303
-630,-300,-10.9883,-1.63635,0,0,0,0,0,0,0,-1,594,1324,-10.9883,1.63631
-623,-300,-10.4258,1.78076,0,0,0,0,0,0,0,-1,601,1324,-10.4258,-1.78078
-616,-300,-10.4588,1.56201,0,0,0,0,0,0,0,-1,608,1324,-10.4588,-1.56198
-609,-300,-10.4598,2.18005,0,0,0,0,0,0,0,-1,615,1324,-10.4598,-2.18003
-602,-300,-10.4683,2.89282,0.00447714,-0.00208904,-0.000760136,0.00456399,-0.00217589,-0.113761,0.00397185,0.0408461,622,1324,-10.4682,-2.89287
-595,-300,-10.6797,3.33423,-5.50827e-05,-0.000527347,-0.000113594,-2.91803e-05,-0.000553249,-0.224192,0.000359501,0.0215999,629,1324,-10.6798,-3.33426
-588,-300,-10.6345,3.64221,-0.00135905,-0.000114489,0.000312927,-4.02381e-05,-0.0014333,1.33782,0.000942406,0.0190581,636,1324,-10.6345,-3.64221
-581,-300,-10.6296,3.94666,-0.00174162,8.44161e-05,0.000462763,0.000194996,-0.0018522,1.33624,0.00130466,0.0191653,643,1324,-10.6296,-3.9466
-574,-300,-10.6127,4.25549,-0.00109906,0.000126124,0.000290544,0.000191533,-0.00116446,1.34936,0.0008474,0.0152464,650,1324,-10.6126,-4.25555
-567,-300,-10.6324,4.5459,-0.00021122,0.000177421,0.000170589,0.000241675,-0.000275475,1.21057,0.000298789,0.0159928,657,1324,-10.6324,-4.54593
-560,-300,-10.6576,4.84412,0.000576263,0.000164818,8.43487e-05,0.000592883,0.000148197,0.194554,0.000356283,0.0148535,664,1324,-10.6576,-4.84413
-553,-300,-10.6485,5.12866,0.00126919,0.000181284,3.03077e-05,0.00127003,0.00018044,0.0278299,0.000793412,0.0099508,671,1324,-10.6485,-5.12862
-546,-300,-10.6523,5.42883,0.00185775,0.000241648,2.51539e-05,0.00185814,0.000241256,0.0155596,0.00116669,0.00865574,678,1324,-10.6523,-5.42886
-539,-300,-10.6395,5.73206,0.00226964,0.00019153,-5.89739e-05,0.00227131,0.000189858,-0.0283482,0.00145506,0.0163366,685,1324,-10.6395,-5.732
-532,-300,-10.8856,5.84253,0.00270769,-3.45965e-05,-0.000346102,0.00275069,-7.76033e-05,-0.123627,0.0018602,0.0429045,692,1324,-10.8856,-5.84257
-525,-300,-11.1122,5.78235,0,0,0,0,0,0,0,-1,699,1324,-11.1123,-5.78232
-518,-300,-9.8349,-0.537109,0,0,0,0,0,0,0,-1,706,1324,-9.83487,0.537068
-511,-300,-12.8644,0.081665,0,0,0,0,0,0,0,-1,713,1324,-12.8644,-0.0817016
-504,-300,-13.4829,-0.165527,0,0,0,0,0,0,0,-1,720,1324,-13.4829,0.165544
-497,-300,-14.3456,-0.273682,0,0,0,0,0,0,0,-1,727,1324,-14.3456,0.273734
-490,-300,-14.6577,-0.732788,0,0,0,0,0,0,0,-1,734,1324,-14.6577,0.732783
-483,-300,-14.4426,-0.817871,0,0,0,0,0,0,0,-1,741,1324,-14.4426,0.81789
-476,-300,-13.1127,0.436401,0,0,0,0,0,0,0,-1,748,1324,-13.1126,-0.436348
-469,-300,0,0,0,0,0,0,0,0,0,-1,755,1324,0,0
-462,-300,0,0,0,0,0,0,0,0,0,-1,762,1324,0,0
-455,-300,0,0,0,0,0,0,0,0,0,-1,769,1324,0,0
-448,-300,0,0,0,0,0,0,0,0,0,-1,776,1324,0,0
-441,-300,0,0,0,0,0,0,0,0,0,-1,783,1324,0,0
-434,-300,0,0,0,0,0,0,0,0,0,-1,790,1324,0,0
-427,-300,0,0,0,0,0,0,0,0,0,-1,797,1324,0,0
-420,-300,0,0,0,0,0,0,0,0,0,-1,804,1324,0,0
-413,-300,0,0,0,0,0,0,0,0,0,-1,811,1324,0,0
-406,-300,0,0,0,0,0,0,0,0,0,-1,818,1324,0,0
-399,-300,0,0,0,0,0,0,0,0,0,-1,825,1324,0,0
-392,-300,0,0,0,0,0,0,0,0,0,-1,832,1324,0,0
-385,-300,0,0,0,0,0,0,0,0,0,-1,839,1324,0,0
-378,-300,0,0,0,0,0,0,0,0,0,-1,846,1324,0,0
-371,-300,0,0,0,0,0,0,0,0,0,-1,853,1324,0,0
-364,-300,0,0,0,0,0,0,0,0,0,-1,860,1324,0,0
-357,-300,0,0,0,0,0,0,0,0,0,-1,867,1324,0,0
-350,-300,0,0,0,0,0,0,0,0,0,-1,874,1324,0,0
-343,-300,0,0,0,0,0,0,0,0,0,-1,881,1324,0,0
-336,-300,0,0,0,0,0,0,0,0,0,-1,888,1324,0,0
-329,-300,0,0,0,0,0,0,0,0,0,-1,895,1324,0,0
-322,-300,0,0,0,0,0,0,0,0,0,-1,902,1324,0,0
-315,-300,0,0,0,0,0,0,0,0,0,-1,909,1324,0,0
-308,-300,0,0,0,0,0,0,0,0,0,-1,916,1324,0,0
-301,-300,0,0,0,0,0,0,0,0,0,-1,923,1324,0,0
-294,-300,0,0,0,0,0,0,0,0,0,-1,930,1324,0,0
-287,-300,0,0,0,0,0,0,0,0,0,-1,937,1324,0,0
-280,-300,0,0,0,0,0,0,0,0,0,-1,944,1324,0,0
-273,-300,0,0,0,0,0,0,0,0,0,-1,951,1324,0,0
-266,-300,0,0,0,0,0,0,0,0,0,-1,958,1324,0,0
-259,-300,0,0,0,0,0,0,0,0,0,-1,965,1324,0,0
-252,-300,0,0,0,0,0,0,0,0,0,-1,972,1324,0,0
-245,-300,0,0,0,0,0,0,0,0,0,-1,979,1324,0,0
-238,-300,0,0,0,0,0,0,0,0,0,-1,986,1324,0,0
-231,-300,0,0,0,0,0,0,0,0,0,-1,993,1324,0,0
-224,-300,0,0,0,0,0,0,0,0,0,-1,1000,1324,0,0
-217,-300,0,0,0,0,0,0,0,0,0,-1,1007,1324,0,0
-210,-300,0,0,0,0,0,0,0,0,0,-1,1014,1324,0,0
-203,-300,0,0,0,0,0,0,0,0,0,-1,1021,1324,0,0
-196,-300,0,0,0,0,0,0,0,0,0,-1,1028,1324,0,0
-189,-300,0,0,0,0,0,0,0,0,0,-1,1035,1324,0,0
-182,-300,0,0,0,0,0,0,0,0,0,-1,1042,1324,0,0
-175,-300,0,0,0,0,0,0,0,0,0,-1,1049,1324,0,0
-168,-300,0,0,0,0,0,0,0,0,0,-1,1056,1324,0,0
-161,-300,0,0,0,0,0,0,0,0,0,-1,1063,1324,0,0
-154,-300,0,0,0,0,0,0,0,0,0,-1,1070,1324,0,0
-147,-300,0,0,0,0,0,0,0,0,0,-1,1077,1324,0,0
-140,-300,0,0,0,0,0,0,0,0,0,-1,1084,1324,0,0
-133,-300,0,0,0,0,0,0,0,0,0,-1,1091,1324,0,0
-126,-300,0,0,0,0,0,0,0,0,0,-1,1098,1324,0,0
-119,-300,0,0,0,0,0,0,0,0,0,-1,1105,1324,0,0
-112,-300,0,0,0,0,0,0,0,0,0,-1,1112,1324,0,0
-105,-300,0,0,0,0,0,0,0,0,0,-1,1119,1324,0,0
-98,-300,0,0,0,0,0,0,0,0,0,-1,1126,1324,0,0
-91,-300,0,0,0,0,0,0,0,0,0,-1,1133,1324,0,0
-84,-300,0,0,0,0,0,0,0,0,0,-1,1140,1324,0,0
-77,-300,0,0,0,0,0,0,0,0,0,-1,1147,1324,0,0
-70,-300,0,0,0,0,0,0,0,0,0,-1,1154,1324,0,0
-63,-300,0,0,0,0,0,0,0,0,0,-1,1161,1324,0,0
-56,-300,0,0,0,0,0,0,0,0,0,-1,1168,1324,0,0
-49,-300,0,0,0,0,0,0,0,0,0,-1,1175,1324,0,0
-42,-300,0,0,0,0,0,0,0,0,0,-1,1182,1324,0,0
-35,-300,0,0,0,0,0,0,0,0,0,-1,1189,1324,0,0
-28,-300,0,0,0,0,0,0,0,0,0,-1,1196,1324,0,0
-21,-300,0,0,0,0,0,0,0,0,0,-1,1203,1324,0,0
-14,-300,0,0,0,0,0,0,0,0,0,-1,1210,1324,0,0
-7,-300,0,0,0,0,0,0,0,0,0,-1,1217,1324,0,0
0,-300,0,0,0,0,0,0,0,0,0,-1,1224,1324,0,0
7,-300,0,0,0,0,0,0,0,0,0,-1,1231,1324,0,0
14,-300,0,0,0,0,0,0,0,0,0,-1,1238,1324,0,0
21,-300,0,0,0,0,0,0,0,0,0,-1,1245,1324,0,0
28,-300,0,0,0,0,0,0,0,0,0,-1,1252,1324,0,0
35,-300,0,0,0,0,0,0,0,0,0,-1,1259,1324,0,0
42,-300,0,0,0,0,0,0,0,0,0,-1,1266,1324,0,0
49,-300,0,0,0,0,0,0,0,0,0,-1,1273,1324,0,0
56,-300,0,0,0,0,0,0,0,0,0,-1,1280,1324,0,0
63,-300,0,0,0,0,0,0,0,0,0,-1,1287,1324,0,0
70,-300,0,0,0,0,0,0,0,0,0,-1,1294,1324,0,0
77,-300,0,0,0,0,0,0,0,0,0,-1,1301,1324,0,0
84,-300,0,0,0,0,0,0,0,0,0,-1,1308,1324,0,0
91,-300,0,0,0,0,0,0,0,0,0,-1,1315,1324,0,0
98,-300,0,0,0,0,0,0,0,0,0,-1,1322,1324,0,0
105,-300,0,0,0,0,0,0,0,0,0,-1,1329,1324,0,0
112,-300,0,0,0,0,0,0,0,0,0,-1,1336,1324,0,0
119,-300,0,0,0,0,0,0,0,0,0,-1,1343,1324,0,0
126,-300,0,0,0,0,0,0,0,0,0,-1,1350,1324,0,0
133,-300,0,0,0,0,0,0,0,0,0,-1,1357,1324,0,0
140,-300,0,0,0,0,0,0,0,0,0,-1,1364,1324,0,0
147,-300,0,0,0,0,0,0,0,0,0,-1,1371,1324,0,0
154,-300,0,0,0,0,0,0,0,0,0,-1,1378,1324,0,0
161,-300,0,0,0,0,0,0,0,0,0,-1,1385,1324,0,0
168,-300,0,0,0,0,0,0,0,0,0,-1,1392,1324,0,0
175,-300,0,0,0,0,0,0,0,0,0,-1,1399,1324,0,0
182,-300,0,0,0,0,0,0,0,0,0,-1,1406,1324,0,0
189,-300,0,0,0,0,0,0,0,0,0,-1,1413,1324,0,0
196,-300,0,0,0,0,0,0,0,0,0,-1,1420,1324,0,0
203,-300,0,0,0,0,0,0,0,0,0,-1,1427,1324,0,0
210,-300,0,0,0,0,0,0,0,0,0,-1,1434,1324,0,0
217,-300,0,0,0,0,0,0,0,0,0,-1,1441,1324,0,0
224,-300,0,0,0,0,0,0,0,0,0,-1,1448,1324,0,0
231,-300,0,0,0,0,0,0,0,0,0,-1,1455,1324,0,0
238,-300,0,0,0,0,0,0,0,0,0,-1,1462,1324,0,0
245,-300,0,0,0,0,0,0,0,0,0,-1,1469,1324,0,0
252,-300,0,0,0,0,0,0,0,0,0,-1,1476,1324,0,0
259,-300,0,0,0,0,0,0,0,0,0,-1,1483,1324,0,0
266,-300,0,0,0,0,0,0,0,0,0,-1,1490,1324,0,0
273,-300,0,0,0,0,0,0,0,0,0,-1,1497,1324,0,0
280,-300,0,0,0,0,0,0,0,0,0,-1,1504,1324,0,0
287,-300,0,0,0,0,0,0,0,0,0,-1,1511,1324,0,0
294,-300,0,0,0,0,0,0,0,0,0,-1,1518,1324,0,0
301,-300,0,0,0,0,0,0,0,0,0,-1,1525,1324,0,0
308,-300,0,0,0,0,0,0,0,0,0,-1,1532,1324,0,0
315,-300,0,0,0,0,0,0,0,0,0,-1,1539,1324,0,0
322,-300,0,0,0,0,0,0,0,0,0,-1,1546,1324,0,0
329,-300,0,0,0,0,0,0,0,0,0,-1,1553,1324,0,0
336,-300,0,0,0,0,0,0,0,0,0,-1,1560,1324,0,0
343,-300,0,0,0,0,0,0,0,0,0,-1,1567,1324,0,0
350,-300,0,0,0,0,0,0,0,0,0,-1,1574,1324,0,0
357,-300,0,0,0,0,0,0,0,0,0,-1,1581,1324,0,0
364,-300,0,0,0,0,0,0,0,0,0,-1,1588,1324,0,0
371,-300,0,0,0,0,0,0,0,0,0,-1,1595,1324,0,0
378,-300,0,0,0,0,0,0,0,0,0,-1,1602,1324,0,0
385,-300,0,0,0,0,0,0,0,0,0,-1,1609,1324,0,0
392,-300,0,0,0,0,0,0,0,0,0,-1,1616,1324,0,0
399,-300,0,0,0,0,0,0,0,0,0,-1,1623,1324,0,0
406,-300,0,0,0,0,0,0,0,0,0,-1,1630,1324,0,0
413,-300,0,0,0,0,0,0,0,0,0,-1,1637,1324,0,0
420,-300,0,0,0,0,0,0,0,0,0,-1,1644,1324,0,0
427,-300,0,0,0,0,0,0,0,0,0,-1,1651,1324,0,0
434,-300,0,0,0,0,0,0,0,0,0,-1,1658,1324,0,0
441,-300,0,0,0,0,0,0,0,0,0,-1,1665,1324,0,0
448,-300,0,0,0,0,0,0,0,0,0,-1,1672,1324,0,0
455,-300,0,0,0,0,0,0,0,0,0,-1,1679,1324,0,0
462,-300,0,0,0,0,0,0,0,0,0,-1,1686,1324,0,0
469,-300,0,0,0,0,0,0,0,0,0,-1,1693,1324,0,0
476,-300,0,0,0,0,0,0,0,0,0,-1,1700,1324,0,0
483,-300,0,0,0,0,0,0,0,0,0,-1,1707,1324,0,0
490,-300,0,0,0,0,0,0,0,0,0,-1,1714,1324,0,0
497,-300,0,0,0,0,0,0,0,0,0,-1,1721,1324,0,0
504,-300,0,0,0,0,0,0,0,0,0,-1,1728,1324,0,0
511,-300,0,0,0,0,0,0,0,0,0,-1,1735,1324,0,0
518,-300,0,0,0,0,0,0,0,0,0,-1,1742,1324,0,0
525,-300,0,0,0,0,0,0,0,0,0,-1,1749,1324,0,0
532,-300,0,0,0,0,0,0,0,0,0,-1,1756,1324,0,0
539,-300,0,0,0,0,0,0,0,0,0,-1,1763,1324,0,0
546,-300,0,0,0,0,0,0,0,0,0,-1,1770,1324,0,0
553,-300,0,0,0,0,0,0,0,0,0,-1,1777,1324,0,0
560,-300,0,0,0,0,0,0,0,0,0,-1,1784,1324,0,0
567,-300,0,0,0,0,0,0,0,0,0,-1,1791,1324,0,0
574,-300,0,0,0,0,0,0,0,0,0,-1,1798,1324,0,0
581,-300,0,0,0,0,0,0,0,0,0,-1,1805,1324,0,0
588,-300,27.5166,3.37354,0.00736171,0.0198044,-0.0374317,0.0515282,-0.0243621,-0.867748,0.0447413,0.0464934,1812,1324,27.5167,-3.37355
595,-300,27.6384,3.33826,-0.0131403,0.0014086,-0.0244098,0.0196049,-0.0313365,-0.930215,0.0296699,0.0445898,1819,1324,27.6384,-3.33822
602,-300,27.7777,3.23254,0,0,0,0,0,0,0,-1,1826,1324,27.7778,-3.23255
609,-300,26.0272,0.0715332,0,0,0,0,0,0,0,-1,1833,1324,26.0272,-0.0715208
616,-300,26.2166,1.1051,0,0,0,0,0,0,0,-1,1840,1324,26.2166,-1.10513
623,-300,27.6549,4.45947,0,0,0,0,0,0,0,-1,1847,1324,27.6549,-4.45948
630,-300,25.922,3.63831,0,0,0,0,0,0,0,-1,1854,1324,25.922,-3.63836
637,-300,27.1021,4.27905,0,0,0,0,0,0,0,-1,1861,1324,27.102,-4.27909
644,-300,19.2581,3.37158,0,0,0,0,0,0,0,-1,1868,1324,19.2581,-3.37159
651,-300,21.0604,7.24951,0,0,0,0,0,0,0,-1,1875,1324,21.0604,-7.24946
658,-300,20.5673,7.60205,-0.0218085,-0.00945512,0.00784291,-0.00564869,-0.025615,1.11895,0.0155398,0.0466928,1882,1324,20.5673,-7.60203
665,-300,20.1752,7.98364,-0.0171228,-0.0051036,0.00625646,-0.00243803,-0.0197884,1.16804,0.0124593,0.0345215,1889,1324,20.1752,-7.9837
672,-300,20.0338,7.7605,-0.0146732,-0.00147686,0.00382411,-0.000448781,-0.0157013,1.30816,0.0103212,0.0115401,1896,1324,20.0338,-7.76048
679,-300,20.0364,7.47583,-0.00971406,0.000796937,0.00337389,0.00178671,-0.0107038,1.28544,0.00779997,0.0115066,1903,1324,20.0364,-7.47589
686,-300,20.0345,7.2196,-0.00535346,0.000448663,0.00371822,0.00226367,-0.00716846,1.11668,0.00568578,0.012281,1910,1324,20.0346,-7.21966
693,-300,20.0417,6.97461,-0.0037496,-0.000786748,0.00284716,0.000941333,-0.00547768,1.02528,0.00400263,0.011041,1917,1324,20.0417,-6.97455
700,-300,20.0507,6.68396,-0.00243569,-0.000176285,0.00171272,0.000745752,-0.00335773,1.07694,0.00252406,0.0116388,1924,1324,20.0507,-6.68401
707,-300,20.043,6.4137,-0.00160448,0.000830623,0.00085155,0.00109886,-0.00187272,1.26564,0.00173492,0.00892783,1931,1324,20.0429,-6.41368
714,-300,20.0358,6.19067,-0.00102776,0.00184915,7.47452e-05,0.00185109,-0.0010297,1.54484,0.00168561,0.0108412,1938,1324,20.0358,-6.19069
721,-300,20.0356,5.95105,-0.000839014,0.00296247,-0.000403769,0.00300488,-0.000881427,-1.46614,0.00235276,0.0116475,1945,1324,20.0356,-5.95106
728,-300,20.0454,5.67407,-0.00103634,0.00463003,-0.00101162,0.00480522,-0.00121153,-1.39932,0.00367452,0.0112503,1952,1324,20.0454,-5.67406
735,-300,19.9297,5.5293,-0.000856887,0.00657261,-0.00203301,0.00709254,-0.00137681,-1.32042,0.00524785,0.0208071,1959,1324,19.9297,-5.52932
742,-300,20.1705,5.18262,0,0,0,0,0,0,0,-1,1966,1324,20.1705,-5.18265
749,-300,20.807,4.83936,0,0,0,0,0,0,0,-1,1973,1324,20.807,-4.83933
756,-300,21.5183,4.24158,0,0,0,0,0,0,0,-1,1980,1324,21.5183,-4.24161
763,-300,22.6136,5.1571,0,0,0,0,0,0,0,-1,1987,1324,22.6136,-5.15706
770,-300,24.859,4.77979,0,0,0,0,0,0,0,-1,1994,1324,24.859,-4.77972
777,-300,0,0,0,0,0,0,0,0,0,-1,2001,1324,0,0
784,-300,0,0,0,0,0,0,0,0,0,-1,2008,1324,0,0
791,-300,0,0,0,0,0,0,0,0,0,-1,2015,1324,0,0
798,-300,0,0,0,0,0,0,0,0,0,-1,2022,1324,0,0
805,-300,0,0,0,0,0,0,0,0,0,-1,2029,1324,0,0
812,-300,0,0,0,0,0,0,0,0,0,-1,2036,1324,0,0
-700,-307,0,0,0,0,0,0,0,0,0,-1,524,1331,0,0
-693,-307,0,0,0,0,0,0,0,0,0,-1,531,1331,0,0
-686,-307,0,0,0,0,0,0,0,0,0,-1,538,1331,0,0
-679,-307,0,0,0,0,0,0,0,0,0,-1,545,1331,0,0
-672,-307,0,0,0,0,0,0,0,0,0,-1,552,1331,0,0
-665,-307,0,0,0,0,0,0,0,0,0,-1,559,1331,0,0
-658,-307,0,0,0,0,0,0,0,0,0,-1,566,1331,0,0
-651,-307,-10.0248,-3.078,0,0,0,0,0,0,0,-1,573,1331,-10.0248,3.07801
-644,-307,-10.3633,-3.08826,0,0,0,0,0,0,0,-1,580,1331,-10.3633,3.08829
-637,-307,-10.8338,-2.95007,0,0,0,0,0,0,0,-1,587,1331,-10.8338,2.95012
-630,-307,-9.56812,-2.03333,0,0,0,0,0,0,0,-1,594,1331,-9.56814,2.03327
-623,-307,-11.3083,1.38123,0,0,0,0,0,0,0,-1,601,1331,-11.3083,-1.38127
-616,-307,-10.1123,1.77795,0,0,0,0,0,0,0,-1,608,1331,-10.1123,-1.77801
-609,-307,-10.2585,1.7887,0,0,0,0,0,0,0,-1,615,1331,-10.2586,-1.78868
-602,-307,-10.2261,2.88965,-0.000999419,-0.00216216,-0.00219335,0.000688305,-0.00384988,-0.655847,0.00282412,0.0437318,622,1331,-10.2262,-2.88966
-595,-307,-10.4057,3.33765,-0.00308938,-0.00117297,-0.001127,-0.000651886,-0.00361046,-1.13771,0.00222179,0.0237195,629,1331,-10.4057,-3.33763
-588,-307,-10.3428,3.6554,-0.0035147,-0.00065313,-0.000455907,-0.000582251,-0.00358558,-1.41656,0.00222188,0.0183807,636,1331,-10.3429,-3.6554
-581,-307,-10.3276,3.95776,-0.00295283,-0.000331276,-7.03443e-05,-0.00032939,-0.00295471,-1.54399,0.00186971,0.0155737,643,1331,-10.3276,-3.95779
-574,-307,-10.338,4.23877,-0.00193411,-0.000218344,-5.4575e-05,-0.00021661,-0.00193584,-1.53903,0.00122476,0.0122531,650,1331,-10.338,-4.23874
-567,-307,-10.3453,4.53223,-0.000872907,-4.86214e-05,-4.09704e-05,-4.659e-05,-0.000874938,-1.52125,0.000568399,0.0123034,657,1331,-10.3453,-4.53227
-560,-307,-10.3413,4.84265,0.000119731,4.77717e-05,-4.11384e-05,0.000138404,2.90988e-05,-0.426095,8.42617e-05,0.0132665,664,1331,-10.3413,-4.84262
-553,-307,-10.3635,5.12805,0.00100321,0.000146674,-2.60627e-05,0.001004,0.000145882,-0.0303907,0.000626393,0.0101843,671,1331,-10.3634,-5.12808
-546,-307,-10.3723,5.422,0.00182642,0.000262534,1.79842e-05,0.00182663,0.000262328,0.0114976,0.00114041,0.00971621,678,1331,-10.3722,-5.42194
-539,-307,-10.3444,5.7373,0.00250671,0.000286346,-3.49789e-06,0.00250672,0.000286341,-0.00157536,0.00158435,0.0130478,685,1331,-10.3444,-5.73732
-532,-307,-10.3118,5.93286,0.00322047,0.000115621,-0.000245425,0.00323975,9.63408e-05,-0.0783968,0.00212844,0.0385873,692,1331,-10.3118,-5.93286
-525,-307,-10.5023,6.09424,0,0,0,0,0,0,0,-1,699,1331,-10.5022,-6.09419
-518,-307,-9.77777,-1.56653,0,0,0,0,0,0,0,-1,706,1331,-9.77777,1.56651
-511,-307,-12.5226,0.26709,0,0,0,0,0,0,0,-1,713,1331,-12.5226,-0.267038
-504,-307,-12.5913,-0.308105,0,0,0,0,0,0,0,-1,720,1331,-12.5913,0.308124
-497,-307,-13.8586,-0.115845,0,0,0,0,0,0,0,-1,727,1331,-13.8587,0.115861
-490,-307,-14.5473,-0.673462,0,0,0,0,0,0,0,-1,734,1331,-14.5473,0.673408
-483,-307,-12.4939,1.26636,0,0,0,0,0,0,0,-1,741,1331,-12.4939,-1.26637
-476,-307,-12.8369,0.472534,0,0,0,0,0,0,0,-1,748,1331,-12.8368,-0.472485
-469,-307,-12.987,0.623047,0,0,0,0,0,0,0,-1,755,1331,-12.987,-0.622992
-462,-307,0,0,0,0,0,0,0,0,0,-1,762,1331,0,0
-455,-307,0,0,0,0,0,0,0,0,0,-1,769,1331,0,0
-448,-307,0,0,0,0,0,0,0,0,0,-1,776,1331,0,0
-441,-307,0,0,0,0,0,0,0,0,0,-1,783,1331,0,0
-434,-307,0,0,0,0,0,0,0,0,0,-1,790,1331,0,0
-427,-307,0,0,0,0,0,0,0,0,0,-1,797,1331,0,0
-420,-307,0,0,0,0,0,0,0,0,0,-1,804,1331,0,0
-413,-307,0,0,0,0,0,0,0,0,0,-1,811,1331,0,0
-406,-307,0,0,0,0,0,0,0,0,0,-1,818,1331,0,0
-399,-307,0,0,0,0,0,0,0,0,0,-1,825,1331,0,0
-392,-307,0,0,0,0,0,0,0,0,0,-1,832,1331,0,0
-385,-307,0,0,0,0,0,0,0,0,0,-1,839,1331,0,0
-378,-307,0,0,0,0,0,0,0,0,0,-1,846,1331,0,0
-371,-307,0,0,0,0,0,0,0,0,0,-1,853,1331,0,0
-364,-307,0,0,0,0,0,0,0,0,0,-1,860,1331,0,0
-357,-307,0,0,0,0,0,0,0,0,0,-1,867,1331,0,0
-350,-307,0,0,0,0,0,0,0,0,0,-1,874,1331,0,0
-343,-307,0,0,0,0,0,0,0,0,0,-1,881,1331,0,0
-336,-307,0,0,0,0,0,0,0,0,0,-1,888,1331,0,0
-329,-307,0,0,0,0,0,0,0,0,0,-1,895,1331,0,0
-322,-307,0,0,0,0,0,0,0,0,0,-1,902,1331,0,0
-315,-307,0,0,0,0,0,0,0,0,0,-1,909,1331,0,0
-308,-307,0,0,0,0,0,0,0,0,0,-1,916,1331,0,0
-301,-307,0,0,0,0,0,0,0,0,0,-1,923,1331,0,0
-294,-307,0,0,0,0,0,0,0,0,0,-1,930,1331,0,0
-287,-307,0,0,0,0,0,0,0,0,0,-1,937,1331,0,0
-280,-307,0,0,0,0,0,0,0,0,0,-1,944,1331,0,0
-273,-307,0,0,0,0,0,0,0,0,0,-1,951,1331,0,0
-266,-307,0,0,0,0,0,0,0,0,0,-1,958,1331,0,0
-259,-307,0,0,0,0,0,0,0,0,0,-1,965,1331,0,0
-252,-307,0,0,0,0,0,0,0,0,0,-1,972,1331,0,0
-245,-307,0,0,0,0,0,0,0,0,0,-1,979,1331,0,0
-238,-307,0,0,0,0,0,0,0,0,0,-1,986,1331,0,0
-231,-307,0,0,0,0,0,0,0,0,0,-1,993,1331,0,0
-224,-307,0,0,0,0,0,0,0,0,0,-1,1000,1331,0,0
-217,-307,0,0,0,0,0,0,0,0,0,-1,1007,1331,0,0
-210,-307,0,0,0,0,0,0,0,0,0,-1,1014,1331,0,0
-203,-307,0,0,0,0,0,0,0,0,0,-1,1021,1331,0,0
-196,-307,0,0,0,0,0,0,0,0,0,-1,1028,1331,0,0
-189,-307,0,0,0,0,0,0,0,0,0,-1,1035,1331,0,0
-182,-307,0,0,0,0,0,0,0,0,0,-1,1042,1331,0,0
-175,-307,0,0,0,0,0,0,0,0,0,-1,1049,1331,0,0
-168,-307,0,0,0,0,0,0,0,0,0,-1,1056,1331,0,0
-161,-307,0,0,0,0,0,0,0,0,0,-1,1063,1331,0,0
-154,-307,0,0,0,0,0,0,0,0,0,-1,1070,1331,0,0
-147,-307,0,0,0,0,0,0,0,0,0,-1,1077,1331,0,0
-140,-307,0,0,0,0,0,0,0,0,0,-1,1084,1331,0,0
-133,-307,0,0,0,0,0,0,0,0,0,-1,1091,1331,0,0
-126,-307,0,0,0,0,0,0,0,0,0,-1,1098,1331,0,0
-119,-307,0,0,0,0,0,0,0,0,0,-1,1105,1331,0,0
-112,-307,0,0,0,0,0,0,0,0,0,-1,1112,1331,0,0
-105,-307,0,0,0,0,0,0,0,0,0,-1,1119,1331,0,0
-98,-307,0,0,0,0,0,0,0,0,0,-1,1126,1331,0,0
-91,-307,0,0,0,0,0,0,0,0,0,-1,1133,1331,0,0
-84,-307,0,0,0,0,0,0,0,0,0,-1,1140,1331,0,0
-77,-307,0,0,0,0,0,0,0,0,0,-1,1147,1331,0,0
-70,-307,0,0,0,0,0,0,0,0,0,-1,1154,1331,0,0
-63,-307,0,0,0,0,0,0,0,0,0,-1,1161,1331,0,0
-56,-307,0,0,0,0,0,0,0,0,0,-1,1168,1331,0,0
-49,-307,0,0,0,0,0,0,0,0,0,-1,1175,1331,0,0
-42,-307,0,0,0,0,0,0,0,0,0,-1,1182,1331,0,0
-35,-307,0,0,0,0,0,0,0,0,0,-1,1189,1331,0,0
-28,-307,0,0,0,0,0,0,0,0,0,-1,1196,1331,0,0
-21,-307,0,0,0,0,0,0,0,0,0,-1,1203,1331,0,0
-14,-307,0,0,0,0,0,0,0,0,0,-1,1210,1331,0,0
-7,-307,0,0,0,0,0,0,0,0,0,-1,1217,1331,0,0
0,-307,0,0,0,0,0,0,0,0,0,-1,1224,1331,0,0
7,-307,0,0,0,0,0,0,0,0,0,-1,1231,1331,0,0
14,-307,0,0,0,0,0,0,0,0,0,-1,1238,1331,0,0
21,-307,0,0,0,0,0,0,0,0,0,-1,1245,1331,0,0
28,-307,0,0,0,0,0,0,0,0,0,-1,1252,1331,0,0
35,-307,0,0,0,0,0,0,0,0,0,-1,1259,1331,0,0
42,-307,0,0,0,0,0,0,0,0,0,-1,1266,1331,0,0
49,-307,0,0,0,0,0,0,0,0,0,-1,1273,1331,0,0
56,-307,0,0,0,0,0,0,0,0,0,-1,1280,1331,0,0
63,-307,0,0,0,0,0,0,0,0,0,-1,1287,1331,0,0
70,-307,0,0,0,0,0,0,0,0,0,-1,1294,1331,0,0
77,-307,0,0,0,0,0,0,0,0,0,-1,1301,1331,0,0
84,-307,0,0,0,0,0,0,0,0,0,-1,1308,1331,0,0
91,-307,0,0,0,0,0,0,0,0,0,-1,1315,1331,0,0
98,-307,0,0,0,0,0,0,0,0,0,-1,1322,1331,0,0
105,-307,0,0,0,0,0,0,0,0,0,-1,1329,1331,0,0
112,-307,0,0,0,0,0,0,0,0,0,-1,1336,1331,0,0
119,-307,0,0,0,0,0,0,0,0,0,-1,1343,1331,0,0
126,-307,0,0,0,0,0,0,0,0,0,-1,1350,1331,0,0
133,-307,0,0,0,0,0,0,0,0,0,-1,1357,1331,0,0
140,-307,0,0,0,0,0,0,0,0,0,-1,1364,1331,0,0
147,-307,0,0,0,0,0,0,0,0,0,-1,1371,1331,0,0
154,-307,0,0,0,0,0,0,0,0,0,-1,1378,1331,0,0
161,-307,0,0,0,0,0,0,0,0,0,-1,1385,1331,0,0
168,-307,0,0,0,0,0,0,0,0,0,-1,1392,1331,0,0
175,-307,0,0,0,0,0,0,0,0,0,-1,1399,1331,0,0
182,-307,0,0,0,0,0,0,0,0,0,-1,1406,1331,0,0
189,-307,0,0,0,0,0,0,0,0,0,-1,1413,1331,0,0
196,-307,0,0,0,0,0,0,0,0,0,-1,1420,1331,0,0
203,-307,0,0,0,0,0,0,0,0,0,-1,1427,1331,0,0
210,-307,0,0,0,0,0,0,0,0,0,-1,1434,1331,0,0
217,-307,0,0,0,0,0,0,0,0,0,-1,1441,1331,0,0
224,-307,0,0,0,0,0,0,0,0,0,-1,1448,1331,0,0
231,-307,0,0,0,0,0,0,0,0,0,-1,1455,1331,0,0
238,-307,0,0,0,0,0,0,0,0,0,-1,1462,1331,0,0
245,-307,0,0,0,0,0,0,0,0,0,-1,1469,1331,0,0
252,-307,0,0,0,0,0,0,0,0,0,-1,1476,1331,0,0
259,-307,0,0,0,0,0,0,0,0,0,-1,1483,1331,0,0
266,-307,0,0,0,0,0,0,0,0,0,-1,1490,1331,0,0
273,-307,0,0,0,0,0,0,0,0,0,-1,1497,1331,0,0
280,-307,0,0,0,0,0,0,0,0,0,-1,1504,1331,0,0
287,-307,0,0,0,0,0,0,0,0,0,-1,1511,1331,0,0
294,-307,0,0,0,0,0,0,0,0,0,-1,1518,1331,0,0
301,-307,0,0,0,0,0,0,0,0,0,-1,1525,1331,0,0
308,-307,0,0,0,0,0,0,0,0,0,-1,1532,1331,0,0
315,-307,0,0,0,0,0,0,0,0,0,-1,1539,1331,0,0
322,-307,0,0,0,0,0,0,0,0,0,-1,1546,1331,0,0
329,-307,0,0,0,0,0,0,0,0,0,-1,1553,1331,0,0
336,-307,0,0,0,0,0,0,0,0,0,-1,1560,1331,0,0
343,-307,0,0,0,0,0,0,0,0,0,-1,1567,1331,0,0
350,-307,0,0,0,0,0,0,0,0,0,-1,1574,1331,0,0
357,-307,0,0,0,0,0,0,0,0,0,-1,1581,1331,0,0
364,-307,0,0,0,0,0,0,0,0,0,-1,1588,1331,0,0
371,-307,0,0,0,0,0,0,0,0,0,-1,1595,1331,0,0
378,-307,0,0,0,0,0,0,0,0,0,-1,1602,1331,0,0
385,-307,0,0,0,0,0,0,0,0,0,-1,1609,1331,0,0
392,-307,0,0,0,0,0,0,0,0,0,-1,1616,1331,0,0
399,-307,0,0,0,0,0,0,0,0,0,-1,1623,1331,0,0
406,-307,0,0,0,0,0,0,0,0,0,-1,1630,1331,0,0
413,-307,0,0,0,0,0,0,0,0,0,-1,1637,1331,0,0
420,-307,0,0,0,0,0,0,0,0,0,-1,1644,1331,0,0
427,-307,0,0,0,0,0,0,0,0,0,-1,1651,1331,0,0
434,-307,0,0,0,0,0,0,0,0,0,-1,1658,1331,0,0
441,-307,0,0,0,0,0,0,0,0,0,-1,1665,1331,0,0
448,-307,0,0,0,0,0,0,0,0,0,-1,1672,1331,0,0
455,-307,0,0,0,0,0,0,0,0,0,-1,1679,1331,0,0
462,-307,0,0,0,0,0,0,0,0,0,-1,1686,1331,0,0
469,-307,0,0,0,0,0,0,0,0,0,-1,1693,1331,0,0
476,-307,0,0,0,0,0,0,0,0,0,-1,1700,1331,0,0
483,-307,0,0,0,0,0,0,0,0,0,-1,1707,1331,0,0
490,-307,0,0,0,0,0,0,0,0,0,-1,1714,1331,0,0
497,-307,0,0,0,0,0,0,0,0,0,-1,1721,1331,0,0
504,-307,0,0,0,0,0,0,0,0,0,-1,1728,1331,0,0
511,-307,0,0,0,0,0,0,0,0,0,-1,1735,1331,0,0
518,-307,0,0,0,0,0,0,0,0,0,-1,1742,1331,0,0
525,-307,0,0,0,0,0,0,0,0,0,-1,1749,1331,0,0
532,-307,0,0,0,0,0,0,0,0,0,-1,1756,1331,0,0
539,-307,0,0,0,0,0,0,0,0,0,-1,1763,1331,0,0
546,-307,0,0,0,0,0,0,0,0,0,-1,1770,1331,0,0
553,-307,0,0,0,0,0,0,0,0,0,-1,1777,1331,0,0
560,-307,0,0,0,0,0,0,0,0,0,-1,1784,1331,0,0
567,-307,0,0,0,0,0,0,0,0,0,-1,1791,1331,0,0
574,-307,0,0,0,0,0,0,0,0,0,-1,1798,1331,0,0
581,-307,0,0,0,0,0,0,0,0,0,-1,1805,1331,0,0
588,-307,27.7848,3.36255,0.00355843,0.0157592,-0.0366227,0.0467861,-0.0274685,-0.867927,0.0433518,0.0455686,1812,1331,27.7848,-3.36253
595,-307,27.8032,3.32043,-0.0199069,-0.00565869,-0.0211309,0.00951673,-0.0350823,-0.947985,0.0271228,0.0443157,1819,1331,27.8033,-3.32049
602,-307,27.2914,2.94031,-0.036893,-0.0226273,-0.00755368,-0.019371,-0.0401493,-1.16377,0.023185,0.0471675,1826,1331,27.2914,-2.94028
609,-307,25.7068,1.12866,-0.0422599,-0.0283701,-2.50684e-05,-0.02837,-0.0422599,-1.56899,0.0248716,0.0490453,1833,1331,25.7068,-1.12872
616,-307,25.6312,2.09558,-0.0419607,-0.0283919,0.00374278,-0.027428,-0.0429246,1.31873,0.0250996,0.0448192,1840,1331,25.6312,-2.0956
623,-307,25.4534,3.20752,-0.0403352,-0.026631,0.00560286,-0.0246319,-0.0423343,1.22808,0.0245506,0.0420143,1847,1331,25.4534,-3.20754
630,-307,25.2201,4.41199,0,0,0,0,0,0,0,-1,1854,1331,25.22,-4.41193
637,-307,25.1608,5.56592,0,0,0,0,0,0,0,-1,1861,1331,25.1608,-5.56593
644,-307,22.6885,5.80408,0,0,0,0,0,0,0,-1,1868,1331,22.6884,-5.80408
651,-307,17.5013,5.80078,0,0,0,0,0,0,0,-1,1875,1331,17.5014,-5.80072
658,-307,20.1718,7.52466,0,0,0,0,0,0,0,-1,1882,1331,20.1717,-7.52472
665,-307,19.8243,7.98718,-0.0159693,-0.00695082,0.00731841,-0.00286399,-0.0200561,1.0615,0.0125257,0.0217877,1889,1331,19.8244,-7.98721
672,-307,19.7896,7.75488,-0.013353,-0.00259961,0.00431084,-0.00108485,-0.0148678,1.23289,0.00957075,0.00953536,1896,1331,19.7895,-7.75487
679,-307,19.7782,7.4928,-0.00861477,-5.20127e-05,0.00344653,0.00116286,-0.00982964,1.2319,0.00697311,0.00940152,1903,1331,19.7782,-7.49286
686,-307,19.776,7.22876,-0.00485051,-5.59504e-05,0.0034722,0.00176614,-0.0066726,1.08753,0.00513929,0.00960045,1910,1331,19.776,-7.22871
693,-307,19.7782,6.99219,-0.00346943,-0.000638794,0.00254315,0.000856338,-0.00496456,1.03932,0.00362899,0.0123408,1917,1331,19.7782,-6.99214
700,-307,19.7905,6.7063,-0.00237894,6.06682e-05,0.00149838,0.00077298,-0.00309125,1.12703,0.00236106,0.0123695,1924,1331,19.7905,-6.70628
707,-307,19.7924,6.39978,-0.00169736,0.00109052,0.000714518,0.00126298,-0.00186981,1.33396,0.00182,0.0138483,1931,1331,19.7924,-6.39976
714,-307,19.7808,6.17969,-0.00138303,0.00213782,0.000104411,0.00214091,-0.00138613,1.54118,0.00205182,0.013474,1938,1331,19.7807,-6.1797
721,-307,19.8058,5.94397,-0.00146939,0.00327431,-0.000246645,0.0032871,-0.00148218,-1.51899,0.00281851,0.0150413,1945,1331,19.8057,-5.94391
728,-307,19.7628,5.76672,-0.00189026,0.00501932,-0.00081112,0.00511326,-0.0019842,-1.45549,0.00422838,0.0247128,1952,1331,19.7629,-5.76677
735,-307,19.6055,5.56531,-0.00188495,0.00706326,-0.00188333,0.00744348,-0.00226517,-1.37158,0.00586505,0.0354278,1959,1331,19.6055,-5.56527
742,-307,19.6084,5.37244,0,0,0,0,0,0,0,-1,1966,1331,19.6084,-5.37244
749,-307,21.0665,4.66211,0,0,0,0,0,0,0,-1,1973,1331,21.0666,-4.66211
756,-307,18.9485,5.61768,0,0,0,0,0,0,0,-1,1980,1331,18.9485,-5.6177
763,-307,18.6041,2.86731,0,0,0,0,0,0,0,-1,1987,1331,18.6042,-2.86734
770,-307,0,0,0,0,0,0,0,0,0,-1,1994,1331,0,0
777,-307,0,0,0,0,0,0,0,0,0,-1,2001,1331,0,0
784,-307,0,0,0,0,0,0,0,0,0,-1,2008,1331,0,0
791,-307,0,0,0,0,0,0,0,0,0,-1,2015,1331,0,0
798,-307,0,0,0,0,0,0,0,0,0,-1,2022,1331,0,0
805,-307,0,0,0,0,0,0,0,0,0,-1,2029,1331,0,0
812,-307,0,0,0,0,0,0,0,0,0,-1,2036,1331,0,0
-700,-314,0,0,0,0,0,0,0,0,0,-1,524,1338,0,0
-693,-314,0,0,0,0,0,0,0,0,0,-1,531,1338,0,0
-686,-314,0,0,0,0,0,0,0,0,0,-1,538,1338,0,0
-679,-314,0,0,0,0,0,0,0,0,0,-1,545,1338,0,0
-672,-314,0,0,0,0,0,0,0,0,0,-1,552,1338,0,0
-665,-314,0,0,0,0,0,0,0,0,0,-1,559,1338,0,0
-658,-314,0,0,0,0,0,0,0,0,0,-1,566,1338,0,0
-651,-314,0,0,0,0,0,0,0,0,0,-1,573,1338,0,0
-644,-314,-9.65363,-2.96204,0,0,0,0,0,0,0,-1,580,1338,-9.65365,2.96205
-637,-314,-10.6646,-0.940186,0,0,0,0,0,0,0,-1,587,1338,-10.6646,0.940217
-630,-314,-13.4453,1.84912,0,0,0,0,0,0,0,-1,594,1338,-13.4452,-1.84914
-623,-314,-11.7083,1.95923,0,0,0,0,0,0,0,-1,601,1338,-11.7083,-1.95925
-616,-314,-9.87512,2.07214,0,0,0,0,0,0,0,-1,608,1338,-9.87512,-2.07219
-609,-314,-9.4361,2.86292,0,0,0,0,0,0,0,-1,615,1338,-9.43612,-2.86286
-602,-314,-10.0057,2.70825,0,0,0,0,0,0,0,-1,622,1338,-10.0058,-2.7083
-595,-314,-9.89374,3.39697,-0.0053146,-0.00206067,-0.0017977,-0.00126302,-0.00611224,-1.15319,0.00372588,0.0449461,629,1338,-9.89371,-3.39702
-588,-314,-10.0742,3.63354,-0.00521077,-0.00144121,-0.00106012,-0.00116353,-0.00548846,-1.31461,0.00333939,0.0188633,636,1338,-10.0742,-3.6335
-581,-314,-10.0329,3.94397,-0.00421824,-0.00100796,-0.000599662,-0.000899607,-0.00432659,-1.39203,0.0026362,0.0128012,643,1338,-10.0329,-3.94395
-574,-314,-10.0558,4.22961,-0.00290319,-0.00076493,-0.000466001,-0.000667786,-0.00300034,-1.36528,0.00181896,0.0122248,650,1338,-10.0558,-4.22961
-567,-314,-10.0416,4.53235,-0.00161629,-0.000414239,-0.000359329,-0.000315016,-0.00171552,-1.30137,0.00105447,0.0145848,657,1338,-10.0416,-4.53237
-560,-314,-10.038,4.84692,-0.000409946,-0.000162621,-0.000263729,4.99873e-06,-0.000577566,-1.00463,0.000386721,0.0149977,664,1338,-10.038,-4.84687
-553,-314,-10.0876,5.12463,0.000668859,5.44086e-05,-0.000156828,0.000706572,1.66956e-05,-0.235992,0.000465583,0.0163183,671,1338,-10.0876,-5.12466
-546,-314,-10.1168,5.42102,0.00170029,0.000245841,-3.91152e-05,0.00170134,0.00024479,-0.0268676,0.00106208,0.0167119,678,1338,-10.1168,-5.421
-539,-314,-10.0918,5.73743,0.00259951,0.000356281,4.42894e-05,0.00260039,0.000355407,0.0197333,0.00162811,0.0163301,685,1338,-10.0918,-5.73744
-532,-314,-9.87909,6.08057,0.00349195,0.00026113,-5.57826e-05,0.00349291,0.000260167,-0.0172589,0.00224691,0.0353432,692,1338,-9.87907,-6.08054
-525,-314,-9.75433,6.33313,0,0,0,0,0,0,0,-1,699,1338,-9.75434,-6.33316
-518,-314,-8.52753,4.70032,0,0,0,0,0,0,0,-1,706,1338,-8.52755,-4.70034
-511,-314,-11.8597,0.384888,0,0,0,0,0,0,0,-1,713,1338,-11.8597,-0.384927
-504,-314,-11.4322,-0.187378,0,0,0,0,0,0,0,-1,720,1338,-11.4322,0.187381
-497,-314,-11.0047,-0.759644,0,0,0,0,0,0,0,-1,727,1338,-11.0047,0.759689
-490,-314,-11.5118,0.876831,0,0,0,0,0,0,0,-1,734,1338,-11.5118,-0.876798
-483,-314,-11.9443,1.5437,0,0,0,0,0,0,0,-1,741,1338,-11.9443,-1.54365
-476,-314,-12.3901,2.39111,0,0,0,0,0,0,0,-1,748,1338,-12.3901,-2.39112
-469,-314,-12.9529,0.492676,0,0,0,0,0,0,0,-1,755,1338,-12.9529,-0.492656
-462,-314,0,0,0,0,0,0,0,0,0,-1,762,1338,0,0
-455,-314,0,0,0,0,0,0,0,0,0,-1,769,1338,0,0
-448,-314,0,0,0,0,0,0,0,0,0,-1,776,1338,0,0
-441,-314,0,0,0,0,0,0,0,0,0,-1,783,1338,0,0
-434,-314,0,0,0,0,0,0,0,0,0,-1,790,1338,0,0
-427,-314,0,0,0,0,0,0,0,0,0,-1,797,1338,0,0
-420,-314,0,0,0,0,0,0,0,0,0,-1,804,1338,0,0
-413,-314,0,0,0,0,0,0,0,0,0,-1,811,1338,0,0
-406,-314,0,0,0,0,0,0,0,0,0,-1,818,1338,0,0
-399,-314,0,0,0,0,0,0,0,0,0,-1,825,1338,0,0
-392,-314,0,0,0,0,0,0,0,0,0,-1,832,1338,0,0
-385,-314,0,0,0,0,0,0,0,0,0,-1,839,1338,0,0
-378,-314,0,0,0,0,0,0,0,0,0,-1,846,1338,0,0
-371,-314,0,0,0,0,0,0,0,0,0,-1,853,1338,0,0
-364,-314,0,0,0,0,0,0,0,0,0,-1,860,1338,0,0
-357,-314,0,0,0,0,0,0,0,0,0,-1,867,1338,0,0
-350,-314,0,0,0,0,0,0,0,0,0,-1,874,1338,0,0
-343,-314,0,0,0,0,0,0,0,0,0,-1,881,1338,0,0
-336,-314,0,0,0,0,0,0,0,0,0,-1,888,1338,0,0
-329,-314,0,0,0,0,0,0,0,0,0,-1,895,1338,0,0
-322,-314,0,0,0,0,0,0,0,0,0,-1,902,1338,0,0
-315,-314,0,0,0,0,0,0,0,0,0,-1,909,1338,0,0
-308,-314,0,0,0,0,0,0,0,0,0,-1,916,1338,0,0
-301,-314,0,0,0,0,0,0,0,0,0,-1,923,1338,0,0
-294,-314,0,0,0,0,0,0,0,0,0,-1,930,1338,0,0
-287,-314,0,0,0,0,0,0,0,0,0,-1,937,1338,0,0
-280,-314,0,0,0,0,0,0,0,0,0,-1,944,1338,0,0
-273,-314,0,0,0,0,0,0,0,0,0,-1,951,1338,0,0
-266,-314,0,0,0,0,0,0,0,0,0,-1,958,1338,0,0
-259,-314,0,0,0,0,0,0,0,0,0,-1,965,1338,0,0
-252,-314,0,0,0,0,0,0,0,0,0,-1,972,1338,0,0
-245,-314,0,0,0,0,0,0,0,0,0,-1,979,1338,0,0
-238,-314,0,0,0,0,0,0,0,0,0,-1,986,1338,0,0
-231,-314,0,0,0,0,0,0,0,0,0,-1,993,1338,0,0
-224,-314,0,0,0,0,0,0,0,0,0,-1,1000,1338,0,0
-217,-314,0,0,0,0,0,0,0,0,0,-1,1007,1338,0,0
-210,-314,0,0,0,0,0,0,0,0,0,-1,1014,1338,0,0
-203,-314,0,0,0,0,0,0,0,0,0,-1,1021,1338,0,0
-196,-314,0,0,0,0,0,0,0,0,0,-1,1028,1338,0,0
-189,-314,0,0,0,0,0,0,0,0,0,-1,1035,1338,0,0
-182,-314,0,0,0,0,0,0,0,0,0,-1,1042,1338,0,0
-175,-314,0,0,0,0,0,0,0,0,0,-1,1049,1338,0,0
-168,-314,0,0,0,0,0,0,0,0,0,-1,1056,1338,0,0
-161,-314,0,0,0,0,0,0,0,0,0,-1,1063,1338,0,0
-154,-314,0,0,0,0,0,0,0,0,0,-1,1070,1338,0,0
-147,-314,0,0,0,0,0,0,0,0,0,-1,1077,1338,0,0
-140,-314,0,0,0,0,0,0,0,0,0,-1,1084,1338,0,0
-133,-314,0,0,0,0,0,0,0,0,0,-1,1091,1338,0,0
-126,-314,0,0,0,0,0,0,0,0,0,-1,1098,1338,0,0
-119,-314,0,0,0,0,0,0,0,0,0,-1,1105,1338,0,0
-112,-314,0,0,0,0,0,0,0,0,0,-1,1112,1338,0,0
-105,-314,0,0,0,0,0,0,0,0,0,-1,1119,1338,0,0
-98,-314,0,0,0,0,0,0,0,0,0,-1,1126,1338,0,0
-91,-314,0,0,0,0,0,0,0,0,0,-1,1133,1338,0,0
-84,-314,0,0,0,0,0,0,0,0,0,-1,1140,1338,0,0
-77,-314,0,0,0,0,0,0,0,0,0,-1,1147,1338,0,0
-70,-314,0,0,0,0,0,0,0,0,0,-1,1154,1338,0,0
-63,-314,0,0,0,0,0,0,0,0,0,-1,1161,1338,0,0
-56,-314,0,0,0,0,0,0,0,0,0,-1,1168,1338,0,0
-49,-314,0,0,0,0,0,0,0,0,0,-1,1175,1338,0,0
-42,-314,0,0,0,0,0,0,0,0,0,-1,1182,1338,0,0
-35,-314,0,0,0,0,0,0,0,0,0,-1,1189,1338,0,0
-28,-314,0,0,0,0,0,0,0,0,0,-1,1196,1338,0,0
-21,-314,0,0,0,0,0,0,0,0,0,-1,1203,1338,0,0
-14,-314,0,0,0,0,0,0,0,0,0,-1,1210,1338,0,0
-7,-314,0,0,0,0,0,0,0,0,0,-1,1217,1338,0,0
0,-314,0,0,0,0,0,0,0,0,0,-1,1224,1338,0,0
7,-314,0,0,0,0,0,0,0,0,0,-1,1231,1338,0,0
14,-314,0,0,0,0,0,0,0,0,0,-1,1238,1338,0,0
21,-314,0,0,0,0,0,0,0,0,0,-1,1245,1338,0,0
28,-314,0,0,0,0,0,0,0,0,0,-1,1252,1338,0,0
35,-314,0,0,0,0,0,0,0,0,0,-1,1259,1338,0,0
42,-314,0,0,0,0,0,0,0,0,0,-1,1266,1338,0,0
49,-314,0,0,0,0,0,0,0,0,0,-1,1273,1338,0,0
56,-314,0,0,0,0,0,0,0,0,0,-1,1280,1338,0,0
63,-314,0,0,0,0,0,0,0,0,0,-1,1287,1338,0,0
70,-314,0,0,0,0,0,0,0,0,0,-1,1294,1338,0,0
77,-314,0,0,0,0,0,0,0,0,0,-1,1301,1338,0,0
84,-314,0,0,0,0,0,0,0,0,0,-1,1308,1338,0,0
91,-314,0,0,0,0,0,0,0,0,0,-1,1315,1338,0,0
98,-314,0,0,0,0,0,0,0,0,0,-1,1322,1338,0,0
105,-314,0,0,0,0,0,0,0,0,0,-1,1329,1338,0,0
112,-314,0,0,0,0,0,0,0,0,0,-1,1336,1338,0,0
119,-314,0,0,0,0,0,0,0,0,0,-1,1343,1338,0,0
126,-314,0,0,0,0,0,0,0,0,0,-1,1350,1338,0,0
133,-314,0,0,0,0,0,0,0,0,0,-1,1357,1338,0,0
140,-314,0,0,0,0,0,0,0,0,0,-1,1364,1338,0,0
147,-314,0,0,0,0,0,0,0,0,0,-1,1371,1338,0,0
154,-314,0,0,0,0,0,0,0,0,0,-1,1378,1338,0,0
161,-314,0,0,0,0,0,0,0,0,0,-1,1385,1338,0,0
168,-314,0,0,0,0,0,0,0,0,0,-1,1392,1338,0,0
175,-314,0,0,0,0,0,0,0,0,0,-1,1399,1338,0,0
182,-314,0,0,0,0,0,0,0,0,0,-1,1406,1338,0,0
189,-314,0,0,0,0,0,0,0,0,0,-1,1413,1338,0,0
196,-314,0,0,0,0,0,0,0,0,0,-1,1420,1338,0,0
203,-314,0,0,0,0,0,0,0,0,0,-1,1427,1338,0,0
210,-314,0,0,0,0,0,0,0,0,0,-1,1434,1338,0,0
217,-314,0,0,0,0,0,0,0,0,0,-1,1441,1338,0,0
224,-314,0,0,0,0,0,0,0,0,0,-1,1448,1338,0,0
231,-314,0,0,0,0,0,0,0,0,0,-1,1455,1338,0,0
238,-314,0,0,0,0,0,0,0,0,0,-1,1462,1338,0,0
245,-314,0,0,0,0,0,0,0,0,0,-1,1469,1338,0,0
252,-314,0,0,0,0,0,0,0,0,0,-1,1476,1338,0,0
259,-314,0,0,0,0,0,0,0,0,0,-1,1483,1338,0,0
266,-314,0,0,0,0,0,0,0,0,0,-1,1490,1338,0,0
273,-314,0,0,0,0,0,0,0,0,0,-1,1497,1338,0,0
280,-314,0,0,0,0,0,0,0,0,0,-1,1504,1338,0,0
287,-314,0,0,0,0,0,0,0,0,0,-1,1511,1338,0,0
294,-314,0,0,0,0,0,0,0,0,0,-1,1518,1338,0,0
301,-314,0,0,0,0,0,0,0,0,0,-1,1525,1338,0,0
308,-314,0,0,0,0,0,0,0,0,0,-1,1532,1338,0,0
315,-314,0,0,0,0,0,0,0,0,0,-1,1539,1338,0,0
322,-314,0,0,0,0,0,0,0,0,0,-1,1546,1338,0,0
329,-314,0,0,0,0,0,0,0,0,0,-1,1553,1338,0,0
336,-314,0,0,0,0,0,0,0,0,0,-1,1560,1338,0,0
343,-314,0,0,0,0,0,0,0,0,0,-1,1567,1338,0,0
350,-314,0,0,0,0,0,0,0,0,0,-1,1574,1338,0,0
357,-314,0,0,0,0,0,0,0,0,0,-1,1581,1338,0,0
364,-314,0,0,0,0,0,0,0,0,0,-1,1588,1338,0,0
371,-314,0,0,0,0,0,0,0,0,0,-1,1595,1338,0,0
378,-314,0,0,0,0,0,0,0,0,0,-1,1602,1338,0,0
385,-314,0,0,0,0,0,0,0,0,0,-1,1609,1338,0,0
392,-314,0,0,0,0,0,0,0,0,0,-1,1616,1338,0,0
399,-314,0,0,0,0,0,0,0,0,0,-1,1623,1338,0,0
406,-314,0,0,0,0,0,0,0,0,0,-1,1630,1338,0,0
413,-314,0,0,0,0,0,0,0,0,0,-1,1637,1338,0,0
420,-314,0,0,0,0,0,0,0,0,0,-1,1644,1338,0,0
427,-314,0,0,0,0,0,0,0,0,0,-1,1651,1338,0,0
434,-314,0,0,0,0,0,0,0,0,0,-1,1658,1338,0,0
441,-314,0,0,0,0,0,0,0,0,0,-1,1665,1338,0,0
448,-314,0,0,0,0,0,0,0,0,0,-1,1672,1338,0,0
455,-314,0,0,0,0,0,0,0,0,0,-1,1679,1338,0,0
462,-314,0,0,0,0,0,0,0,0,0,-1,1686,1338,0,0
469,-314,0,0,0,0,0,0,0,0,0,-1,1693,1338,0,0
476,-314,0,0,0,0,0,0,0,0,0,-1,1700,1338,0,0
483,-314,0,0,0,0,0,0,0,0,0,-1,1707,1338,0,0
490,-314,0,0,0,0,0,0,0,0,0,-1,1714,1338,0,0
497,-314,0,0,0,0,0,0,0,0,0,-1,1721,1338,0,0
504,-314,0,0,0,0,0,0,0,0,0,-1,1728,1338,0,0
511,-314,0,0,0,0,0,0,0,0,0,-1,1735,1338,0,0
518,-314,0,0,0,0,0,0,0,0,0,-1,1742,1338,0,0
525,-314,0,0,0,0,0,0,0,0,0,-1,1749,1338,0,0
532,-314,0,0,0,0,0,0,0,0,0,-1,1756,1338,0,0
539,-314,0,0,0,0,0,0,0,0,0,-1,1763,1338,0,0
546,-314,0,0,0,0,0,0,0,0,0,-1,1770,1338,0,0
553,-314,0,0,0,0,0,0,0,0,0,-1,1777,1338,0,0
560,-314,0,0,0,0,0,0,0,0,0,-1,1784,1338,0,0
567,-314,0,0,0,0,0,0,0,0,0,-1,1791,1338,0,0
574,-314,0,0,0,0,0,0,0,0,0,-1,1798,1338,0,0
581,-314,28.41,3.88196,0,0,0,0,0,0,0,-1,1805,1338,28.4101,-3.88193
588,-314,27.9807,3.39014,-0.00155447,0.00687191,-0.0315708,0.0345094,-0.029192,-0.851732,0.0368207,0.0476485,1812,1338,27.9807,-3.39017
595,-314,28.1227,3.15125,-0.024555,-0.0144018,-0.0155392,-0.00313095,-0.0358258,-0.943282,0.0229117,0.0466984,1819,1338,28.1227,-3.15122
602,-314,28.0304,2.87012,-0.0370531,-0.0272867,-0.00432813,-0.0256447,-0.0386951,-1.20819,0.0227317,0.0481878,1826,1338,28.0304,-2.8701
609,-314,25.125,2.07764,-0.0398287,-0.0303396,0.00129029,-0.0301672,-0.040001,1.43803,0.0240686,0.0420702,1833,1338,25.125,-2.07768
616,-314,25.0135,3.14038,-0.0393883,-0.0300031,0.00435781,-0.0282917,-0.0410997,1.19658,0.0242837,0.0423208,1840,1338,25.0135,-3.14044
623,-314,24.7527,4.25635,-0.0385746,-0.0288455,0.00618701,-0.0258397,-0.0415804,1.11855,0.0242413,0.0412039,1847,1338,24.7527,-4.25637
630,-314,24.4025,5.53564,0,0,0,0,0,0,0,-1,1854,1338,24.4024,-5.5356
637,-314,22.1349,5.16418,0,0,0,0,0,0,0,-1,1861,1338,22.1349,-5.16414
644,-314,18.7517,6.2605,0,0,0,0,0,0,0,-1,1868,1338,18.7517,-6.26053
651,-314,20.0615,7.61304,0,0,0,0,0,0,0,-1,1875,1338,20.0616,-7.61307
658,-314,19.8092,7.88574,-0.0196884,-0.014943,0.0107617,-0.00629551,-0.0283359,0.893901,0.0171809,0.044303,1882,1338,19.8092,-7.88575
665,-314,19.5238,8.02966,-0.0137317,-0.00871012,0.00803307,-0.0028046,-0.0196372,0.936867,0.012264,0.017377,1889,1338,19.5238,-8.02968
672,-314,19.5444,7.77795,-0.0111691,-0.00372547,0.00454429,-0.00157341,-0.0133212,1.12851,0.00840554,0.0118039,1896,1338,19.5444,-7.778
679,-314,19.5327,7.50623,-0.00697372,-0.000912105,0.00332357,0.000555075,-0.0084409,1.15508,0.00582112,0.00927755,1903,1338,19.5327,-7.50619
686,-314,19.5159,7.22644,-0.00399103,-0.00049404,0.00307311,0.00129317,-0.00577824,1.04404,0.0043478,0.0112257,1910,1338,19.5158,-7.22642
693,-314,19.5131,6.96924,-0.00296101,-0.000451039,0.00213905,0.000773999,-0.00418604,1.05069,0.00308127,0.0123524,1917,1338,19.5131,-6.96928
700,-314,19.5082,6.70557,-0.00214671,0.000358672,0.0011941,0.000836623,-0.00262466,1.19007,0.00208536,0.0128131,1924,1338,19.5082,-6.70553
707,-314,19.525,6.41919,-0.00165353,0.00141547,0.000513811,0.00149921,-0.00173727,1.40924,0.00187026,0.0125915,1931,1338,19.525,-6.41924
714,-314,19.5123,6.1759,-0.00166404,0.00248649,0.000119468,0.00248993,-0.00166747,1.54204,0.00241588,0.0115603,1938,1338,19.5123,-6.17587
721,-314,19.5454,5.95313,-0.0020973,0.00366767,-5.67126e-05,0.00366823,-0.00209785,-1.56096,0.00336995,0.0178418,1945,1338,19.5454,-5.95313
728,-314,19.376,5.77539,-0.00263199,0.00536739,-0.00051126,0.00539994,-0.00266454,-1.50723,0.00474447,0.0361673,1952,1338,19.376,-5.77542
735,-314,19.1851,5.32947,-0.00271444,0.00742059,-0.00156272,0.00765608,-0.00294992,-1.42123,0.00632112,0.0433132,1959,1338,19.1851,-5.32947
742,-314,19.0775,4.87427,0,0,0,0,0,0,0,-1,1966,1338,19.0775,-4.87429
749,-314,21.0118,4.93518,0,0,0,0,0,0,0,-1,1973,1338,21.0119,-4.93517
756,-314,21.9174,5.31555,0,0,0,0,0,0,0,-1,1980,1338,21.9174,-5.31553
763,-314,18.5018,2.60217,0,0,0,0,0,0,0,-1,1987,1338,18.5018,-2.60218
770,-314,0,0,0,0,0,0,0,0,0,-1,1994,1338,0,0
777,-314,0,0,0,0,0,0,0,0,0,-1,2001,1338,0,0
784,-314,0,0,0,0,0,0,0,0,0,-1,2008,1338,0,0
791,-314,0,0,0,0,0,0,0,0,0,-1,2015,1338,0,0
798,-314,0,0,0,0,0,0,0,0,0,-1,2022,1338,0,0
805,-314,0,0,0,0,0,0,0,0,0,-1,2029,1338,0,0
812,-314,0,0,0,0,0,0,0,0,0,-1,2036,1338,0,0
-700,-321,0,0,0,0,0,0,0,0,0,-1,524,1345,0,0
-693,-321,0,0,0,0,0,0,0,0,0,-1,531,1345,0,0
-686,-321,0,0,0,0,0,0,0,0,0,-1,538,1345,0,0
-679,-321,0,0,0,0,0,0,0,0,0,-1,545,1345,0,0
-672,-321,0,0,0,0,0,0,0,0,0,-1,552,1345,0,0
-665,-321,0,0,0,0,0,0,0,0,0,-1,559,1345,0,0
-658,-321,0,0,0,0,0,0,0,0,0,-1,566,1345,0,0
-651,-321,0,0,0,0,0,0,0,0,0,-1,573,1345,0,0
-644,-321,-9.60559,-1.42322,0,0,0,0,0,0,0,-1,580,1345,-9.60561,1.42322
-637,-321,-9.51685,-1.29211,0,0,0,0,0,0,0,-1,587,1345,-9.51686,1.29212
-630,-321,-12.9164,2.08923,0,0,0,0,0,0,0,-1,594,1345,-12.9164,-2.08925
-623,-321,-11.2291,2.31238,0,0,0,0,0,0,0,-1,601,1345,-11.2291,-2.3124
-616,-321,-9.43048,2.25867,0,0,0,0,0,0,0,-1,608,1345,-9.43045,-2.2587
-609,-321,-7.95209,1.14758,0,0,0,0,0,0,0,-1,615,1345,-7.95208,-1.14757
-602,-321,-8.85791,2.50049,0,0,0,0,0,0,0,-1,622,1345,-8.85791,-2.50048
-595,-321,-9.38348,3.48743,0,0,0,0,0,0,0,-1,629,1345,-9.3835,-3.4874
-588,-321,-9.79724,3.58472,-0.00733032,-0.00271862,-0.0015062,-0.00227028,-0.00777867,-1.28148,0.0046189,0.0253072,636,1345,-9.79727,-3.58472
-581,-321,-9.73969,3.94812,-0.00571664,-0.00197072,-0.00121467,-0.00161133,-0.00607603,-1.28313,0.00363465,0.0126496,643,1345,-9.73969,-3.9481
-574,-321,-9.76068,4.23743,-0.00403554,-0.00143886,-0.00108727,-0.00104373,-0.00443067,-1.22222,0.00267464,0.0146148,650,1345,-9.7607,-4.23739
-567,-321,-9.75873,4.53552,-0.00250996,-0.000905788,-0.000841835,-0.000545107,-0.00287064,-1.16601,0.00176042,0.0211587,657,1345,-9.75872,-4.53553
-560,-321,-9.75317,4.85046,-0.0010867,-0.000501886,-0.000609216,-0.000118537,-0.00147005,-1.00915,0.000943006,0.0237297,664,1345,-9.75315,-4.85042
-553,-321,-9.76154,5.08716,0.000203312,-0.000167884,-0.000366512,0.000428539,-0.000393111,-0.551025,0.000474527,0.0252434,671,1345,-9.76154,-5.08713
-546,-321,-9.77826,5.3916,0.00143901,9.81765e-05,-0.000143119,0.00145411,8.30703e-05,-0.10516,0.000942939,0.025664,678,1345,-9.77825,-5.39154
-539,-321,-9.81641,5.7345,0.00254797,0.000284347,6.38133e-05,0.00254976,0.00028255,0.028161,0.00161393,0.0235889,685,1345,-9.81638,-5.73446
-532,-321,-9.72327,6.05347,0.00361465,0.000257756,0.000121642,0.00361905,0.000253354,0.0361731,0.00233284,0.0216678,692,1345,-9.72328,-6.05346
-525,-321,-9.70837,6.51526,0.00434155,4.67342e-05,-0.00010969,0.00434435,4.39347e-05,-0.0255179,0.0028817,0.0463539,699,1345,-9.70837,-6.51528
-518,-321,-9.87439,6.89893,0,0,0,0,0,0,0,-1,706,1345,-9.87437,-6.89895
-511,-321,-9.3302,5.29297,0,0,0,0,0,0,0,-1,713,1345,-9.33023,-5.29294
-504,-321,-10.4713,0.0145264,0,0,0,0,0,0,0,-1,720,1345,-10.4713,-0.0145296
-497,-321,-9.96771,0.313599,0,0,0,0,0,0,0,-1,727,1345,-9.96769,-0.313618
-490,-321,-10.7631,0.973511,0,0,0,0,0,0,0,-1,734,1345,-10.7631,-0.97353
-483,-321,-11.5586,1.63342,0,0,0,0,0,0,0,-1,741,1345,-11.5586,-1.63344
-476,-321,-12.3351,0.269897,0,0,0,0,0,0,0,-1,748,1345,-12.3351,-0.269887
-469,-321,-12.7842,0.195679,0,0,0,0,0,0,0,-1,755,1345,-12.7842,-0.195644
-462,-321,-13.8533,0.309937,0,0,0,0,0,0,0,-1,762,1345,-13.8533,-0.309916
-455,-321,0,0,0,0,0,0,0,0,0,-1,769,1345,0,0
-448,-321,0,0,0,0,0,0,0,0,0,-1,776,1345,0,0
-441,-321,0,0,0,0,0,0,0,0,0,-1,783,1345,0,0
-434,-321,0,0,0,0,0,0,0,0,0,-1,790,1345,0,0
-427,-321,0,0,0,0,0,0,0,0,0,-1,797,1345,0,0
-420,-321,0,0,0,0,0,0,0,0,0,-1,804,1345,0,0
-413,-321,0,0,0,0,0,0,0,0,0,-1,811,1345,0,0
-406,-321,0,0,0,0,0,0,0,0,0,-1,818,1345,0,0
-399,-321,0,0,0,0,0,0,0,0,0,-1,825,1345,0,0
-392,-321,0,0,0,0,0,0,0,0,0,-1,832,1345,0,0
-385,-321,0,0,0,0,0,0,0,0,0,-1,839,1345,0,0
-378,-321,0,0,0,0,0,0,0,0,0,-1,846,1345,0,0
-371,-321,0,0,0,0,0,0,0,0,0,-1,853,1345,0,0
-364,-321,0,0,0,0,0,0,0,0,0,-1,860,1345,0,0
-357,-321,0,0,0,0,0,0,0,0,0,-1,867,1345,0,0
-350,-321,0,0,0,0,0,0,0,0,0,-1,874,1345,0,0
-343,-321,0,0,0,0,0,0,0,0,0,-1,881,1345,0,0
-336,-321,0,0,0,0,0,0,0,0,0,-1,888,1345,0,0
-329,-321,0,0,0,0,0,0,0,0,0,-1,895,1345,0,0
-322,-321,0,0,0,0,0,0,0,0,0,-1,902,1345,0,0
-315,-321,0,0,0,0,0,0,0,0,0,-1,909,1345,0,0
-308,-321,0,0,0,0,0,0,0,0,0,-1,916,1345,0,0
-301,-321,0,0,0,0,0,0,0,0,0,-1,923,1345,0,0
-294,-321,0,0,0,0,0,0,0,0,0,-1,930,1345,0,0
-287,-321,0,0,0,0,0,0,0,0,0,-1,937,1345,0,0
-280,-321,0,0,0,0,0,0,0,0,0,-1,944,1345,0,0
-273,-321,0,0,0,0,0,0,0,0,0,-1,951,1345,0,0
-266,-321,0,0,0,0,0,0,0,0,0,-1,958,1345,0,0
-259,-321,0,0,0,0,0,0,0,0,0,-1,965,1345,0,0
-252,-321,0,0,0,0,0,0,0,0,0,-1,972,1345,0,0
-245,-321,0,0,0,0,0,0,0,0,0,-1,979,1345,0,0
-238,-321,0,0,0,0,0,0,0,0,0,-1,986,1345,0,0
-231,-321,0,0,0,0,0,0,0,0,0,-1,993,1345,0,0
-224,-321,0,0,0,0,0,0,0,0,0,-1,1000,1345,0,0
-217,-321,0,0,0,0,0,0,0,0,0,-1,1007,1345,0,0
-210,-321,0,0,0,0,0,0,0,0,0,-1,1014,1345,0,0
-203,-321,0,0,0,0,0,0,0,0,0,-1,1021,1345,0,0
-196,-321,0,0,0,0,0,0,0,0,0,-1,1028,1345,0,0
-189,-321,0,0,0,0,0,0,0,0,0,-1,1035,1345,0,0
-182,-321,0,0,0,0,0,0,0,0,0,-1,1042,1345,0,0
-175,-321,0,0,0,0,0,0,0,0,0,-1,1049,1345,0,0
-168,-321,0,0,0,0,0,0,0,0,0,-1,1056,1345,0,0
-161,-321,0,0,0,0,0,0,0,0,0,-1,1063,1345,0,0
-154,-321,0,0,0,0,0,0,0,0,0,-1,1070,1345,0,0
-147,-321,0,0,0,0,0,0,0,0,0,-1,1077,1345,0,0
-140,-321,0,0,0,0,0,0,0,0,0,-1,1084,1345,0,0
-133,-321,0,0,0,0,0,0,0,0,0,-1,1091,1345,0,0
-126,-321,0,0,0,0,0,0,0,0,0,-1,1098,1345,0,0
-119,-321,0,0,0,0,0,0,0,0,0,-1,1105,1345,0,0
-112,-321,0,0,0,0,0,0,0,0,0,-1,1112,1345,0,0
-105,-321,0,0,0,0,0,0,0,0,0,-1,1119,1345,0,0
-98,-321,0,0,0,0,0,0,0,0,0,-1,1126,1345,0,0
-91,-321,0,0,0,0,0,0,0,0,0,-1,1133,1345,0,0
-84,-321,0,0,0,0,0,0,0,0,0,-1,1140,1345,0,0
-77,-321,0,0,0,0,0,0,0,0,0,-1,1147,1345,0,0
-70,-321,0,0,0,0,0,0,0,0,0,-1,1154,1345,0,0
-63,-321,0,0,0,0,0,0,0,0,0,-1,1161,1345,0,0
-56,-321,0,0,0,0,0,0,0,0,0,-1,1168,1345,0,0
-49,-321,0,0,0,0,0,0,0,0,0,-1,1175,1345,0,0
-42,-321,0,0,0,0,0,0,0,0,0,-1,1182,1345,0,0
-35,-321,0,0,0,0,0,0,0,0,0,-1,1189,1345,0,0
-28,-321,0,0,0,0,0,0,0,0,0,-1,1196,1345,0,0
-21,-321,0,0,0,0,0,0,0,0,0,-1,1203,1345,0,0
-14,-321,0,0,0,0,0,0,0,0,0,-1,1210,1345,0,0
-7,-321,0,0,0,0,0,0,0,0,0,-1,1217,1345,0,0
0,-321,0,0,0,0,0,0,0,0,0,-1,1224,1345,0,0
7,-321,0,0,0,0,0,0,0,0,0,-1,1231,1345,0,0
14,-321,0,0,0,0,0,0,0,0,0,-1,1238,1345,0,0
21,-321,0,0,0,0,0,0,0,0,0,-1,1245,1345,0,0
28,-321,0,0,0,0,0,0,0,0,0,-1,1252,1345,0,0
35,-321,0,0,0,0,0,0,0,0,0,-1,1259,1345,0,0
42,-321,0,0,0,0,0,0,0,0,0,-1,1266,1345,0,0
49,-321,0,0,0,0,0,0,0,0,0,-1,1273,1345,0,0
56,-321,0,0,0,0,0,0,0,0,0,-1,1280,1345,0,0
63,-321,0,0,0,0,0,0,0,0,0,-1,1287,1345,0,0
70,-321,0,0,0,0,0,0,0,0,0,-1,1294,1345,0,0
77,-321,0,0,0,0,0,0,0,0,0,-1,1301,1345,0,0
84,-321,0,0,0,0,0,0,0,0,0,-1,1308,1345,0,0
91,-321,0,0,0,0,0,0,0,0,0,-1,1315,1345,0,0
98,-321,0,0,0,0,0,0,0,0,0,-1,1322,1345,0,0
105,-321,0,0,0,0,0,0,0,0,0,-1,1329,1345,0,0
112,-321,0,0,0,0,0,0,0,0,0,-1,1336,1345,0,0
119,-321,0,0,0,0,0,0,0,0,0,-1,1343,1345,0,0
126,-321,0,0,0,0,0,0,0,0,0,-1,1350,1345,0,0
133,-321,0,0,0,0,0,0,0,0,0,-1,1357,1345,0,0
140,-321,0,0,0,0,0,0,0,0,0,-1,1364,1345,0,0
147,-321,0,0,0,0,0,0,0,0,0,-1,1371,1345,0,0
154,-321,0,0,0,0,0,0,0,0,0,-1,1378,1345,0,0
161,-321,0,0,0,0,0,0,0,0,0,-1,1385,1345,0,0
168,-321,0,0,0,0,0,0,0,0,0,-1,1392,1345,0,0
175,-321,0,0,0,0,0,0,0,0,0,-1,1399,1345,0,0
182,-321,0,0,0,0,0,0,0,0,0,-1,1406,1345,0,0
189,-321,0,0,0,0,0,0,0,0,0,-1,1413,1345,0,0
196,-321,0,0,0,0,0,0,0,0,0,-1,1420,1345,0,0
203,-321,0,0,0,0,0,0,0,0,0,-1,1427,1345,0,0
210,-321,0,0,0,0,0,0,0,0,0,-1,1434,1345,0,0
217,-321,0,0,0,0,0,0,0,0,0,-1,1441,1345,0,0
224,-321,0,0,0,0,0,0,0,0,0,-1,1448,1345,0,0
231,-321,0,0,0,0,0,0,0,0,0,-1,1455,1345,0,0
238,-321,0,0,0,0,0,0,0,0,0,-1,1462,1345,0,0
245,-321,0,0,0,0,0,0,0,0,0,-1,1469,1345,0,0
252,-321,0,0,0,0,0,0,0,0,0,-1,1476,1345,0,0
259,-321,0,0,0,0,0,0,0,0,0,-1,1483,1345,0,0
266,-321,0,0,0,0,0,0,0,0,0,-1,1490,1345,0,0
273,-321,0,0,0,0,0,0,0,0,0,-1,1497,1345,0,0
280,-321,0,0,0,0,0,0,0,0,0,-1,1504,1345,0,0
287,-321,0,0,0,0,0,0,0,0,0,-1,1511,1345,0,0
294,-321,0,0,0,0,0,0,0,0,0,-1,1518,1345,0,0
301,-321,0,0,0,0,0,0,0,0,0,-1,1525,1345,0,0
308,-321,0,0,0,0,0,0,0,0,0,-1,1532,1345,0,0
315,-321,0,0,0,0,0,0,0,0,0,-1,1539,1345,0,0
322,-321,0,0,0,0,0,0,0,0,0,-1,1546,1345,0,0
329,-321,0,0,0,0,0,0,0,0,0,-1,1553,1345,0,0
336,-321,0,0,0,0,0,0,0,0,0,-1,1560,1345,0,0
343,-321,0,0,0,0,0,0,0,0,0,-1,1567,1345,0,0
350,-321,0,0,0,0,0,0,0,0,0,-1,1574,1345,0,0
357,-321,0,0,0,0,0,0,0,0,0,-1,1581,1345,0,0
364,-321,0,0,0,0,0,0,0,0,0,-1,1588,1345,0,0
371,-321,0,0,0,0,0,0,0,0,0,-1,1595,1345,0,0
378,-321,0,0,0,0,0,0,0,0,0,-1,1602,1345,0,0
385,-321,0,0,0,0,0,0,0,0,0,-1,1609,1345,0,0
392,-321,0,0,0,0,0,0,0,0,0,-1,1616,1345,0,0
399,-321,0,0,0,0,0,0,0,0,0,-1,1623,1345,0,0
406,-321,0,0,0,0,0,0,0,0,0,-1,1630,1345,0,0
413,-321,0,0,0,0,0,0,0,0,0,-1,1637,1345,0,0
420,-321,0,0,0,0,0,0,0,0,0,-1,1644,1345,0,0
427,-321,0,0,0,0,0,0,0,0,0,-1,1651,1345,0,0
434,-321,0,0,0,0,0,0,0,0,0,-1,1658,1345,0,0
441,-321,0,0,0,0,0,0,0,0,0,-1,1665,1345,0,0
448,-321,0,0,0,0,0,0,0,0,0,-1,1672,1345,0,0
455,-321,0,0,0,0,0,0,0,0,0,-1,1679,1345,0,0
462,-321,0,0,0,0,0,0,0,0,0,-1,1686,1345,0,0
469,-321,0,0,0,0,0,0,0,0,0,-1,1693,1345,0,0
476,-321,0,0,0,0,0,0,0,0,0,-1,1700,1345,0,0
483,-321,0,0,0,0,0,0,0,0,0,-1,1707,1345,0,0
490,-321,0,0,0,0,0,0,0,0,0,-1,1714,1345,0,0
497,-321,0,0,0,0,0,0,0,0,0,-1,1721,1345,0,0
504,-321,0,0,0,0,0,0,0,0,0,-1,1728,1345,0,0
511,-321,0,0,0,0,0,0,0,0,0,-1,1735,1345,0,0
518,-321,0,0,0,0,0,0,0,0,0,-1,1742,1345,0,0
525,-321,0,0,0,0,0,0,0,0,0,-1,1749,1345,0,0
532,-321,0,0,0,0,0,0,0,0,0,-1,1756,1345,0,0
539,-321,0,0,0,0,0,0,0,0,0,-1,1763,1345,0,0
546,-321,0,0,0,0,0,0,0,0,0,-1,1770,1345,0,0
553,-321,0,0,0,0,0,0,0,0,0,-1,1777,1345,0,0
560,-321,0,0,0,0,0,0,0,0,0,-1,1784,1345,0,0
567,-321,0,0,0,0,0,0,0,0,0,-1,1791,1345,0,0
574,-321,0,0,0,0,0,0,0,0,0,-1,1798,1345,0,0
581,-321,28.6241,3.87122,0,0,0,0,0,0,0,-1,1805,1345,28.6241,-3.87124
588,-321,28.5388,3.50171,-0.00534709,-0.00276218,-0.0246122,0.0205915,-0.0287007,-0.81163,0.0285869,0.0459216,1812,1345,28.5388,-3.50175
595,-321,28.4309,3.14368,-0.0247065,-0.0207384,-0.0102922,-0.0122408,-0.0332041,-0.880615,0.0193896,0.047463,1819,1345,28.431,-3.1437
602,-321,28.3468,2.77832,-0.0328458,-0.0283885,-0.00269616,-0.0271191,-0.0341151,-1.13077,0.0208072,0.0468394,1826,1345,28.3469,-2.77832
609,-321,24.2034,3.03748,-0.0345843,-0.029576,0.00123094,-0.0292899,-0.0348705,1.34236,0.0216281,0.0462677,1833,1345,24.2034,-3.03742
616,-321,24.2699,4.16553,-0.0349675,-0.0292807,0.00379367,-0.0273831,-0.0368651,1.10699,0.0221047,0.0457994,1840,1345,24.2699,-4.16559
623,-321,24.0317,5.3208,0,0,0,0,0,0,0,-1,1847,1345,24.0318,-5.32078
630,-321,23.6674,4.34106,0,0,0,0,0,0,0,-1,1854,1345,23.6674,-4.34112
637,-321,21.7925,6.79224,0,0,0,0,0,0,0,-1,1861,1345,21.7925,-6.7922
644,-321,16.8844,6.71973,0,0,0,0,0,0,0,-1,1868,1345,16.8844,-6.71971
651,-321,19.7178,8.15088,0,0,0,0,0,0,0,-1,1875,1345,19.7177,-8.1509
658,-321,19.3729,8.23047,-0.0170177,-0.0156012,0.0110312,-0.00525558,-0.0273633,0.817457,0.0167672,0.036377,1882,1345,19.3729,-8.23053
665,-321,19.2506,8.05286,-0.0109368,-0.00884754,0.00782255,-0.00200019,-0.0177842,0.851776,0.0112488,0.017047,1889,1345,19.2506,-8.05285
672,-321,19.2844,7.76648,-0.00863175,-0.00376544,0.00417982,-0.00136216,-0.011035,1.04898,0.00694729,0.012349,1896,1345,19.2844,-7.76647
679,-321,19.2695,7.50952,-0.00524876,-0.00110591,0.00281989,0.000321604,-0.00667628,1.10218,0.00456183,0.0105163,1903,1345,19.2695,-7.50948
686,-321,19.2524,7.24512,-0.00308174,-0.000527173,0.00243947,0.000949172,-0.00455809,1.02657,0.00339957,0.0108288,1910,1345,19.2524,-7.24516
693,-321,19.2581,6.9845,-0.00234213,-0.000133824,0.00162458,0.00072631,-0.00320227,1.08387,0.00241365,0.0116783,1917,1345,19.2581,-6.98448
700,-321,19.2589,6.70325,-0.00178628,0.0006613,0.000834532,0.000918761,-0.00204374,1.27155,0.00175103,0.0118792,1924,1345,19.2589,-6.70326
707,-321,19.2616,6.43713,-0.00154734,0.00172409,0.000277881,0.00174752,-0.00157078,1.48666,0.00191673,0.0131287,1931,1345,19.2616,-6.43714
714,-321,19.2478,6.17163,-0.00195511,0.00278763,0.00012928,0.00279115,-0.00195864,1.54356,0.0027563,0.011893,1938,1345,19.2478,-6.17165
721,-321,19.2559,5.90942,-0.00282967,0.00401887,0.000158112,0.00402252,-0.00283332,1.54773,0.00397802,0.0233396,1945,1345,19.2559,-5.90941
728,-321,19.338,5.69104,0,0,0,0,0,0,0,-1,1952,1345,19.338,-5.69102
735,-321,18.9205,4.96399,0,0,0,0,0,0,0,-1,1959,1345,18.9205,-4.964
742,-321,18.8674,4.19531,0,0,0,0,0,0,0,-1,1966,1345,18.8674,-4.1953
749,-321,20.356,5.06311,0,0,0,0,0,0,0,-1,1973,1345,20.356,-5.06314
756,-321,20.9575,4.70227,0,0,0,0,0,0,0,-1,1980,1345,20.9576,-4.70232
763,-321,18.5568,2.37817,0,0,0,0,0,0,0,-1,1987,1345,18.5568,-2.37812
770,-321,0,0,0,0,0,0,0,0,0,-1,1994,1345,0,0
777,-321,0,0,0,0,0,0,0,0,0,-1,2001,1345,0,0
784,-321,0,0,0,0,0,0,0,0,0,-1,2008,1345,0,0
791,-321,0,0,0,0,0,0,0,0,0,-1,2015,1345,0,0
798,-321,0,0,0,0,0,0,0,0,0,-1,2022,1345,0,0
805,-321,0,0,0,0,0,0,0,0,0,-1,2029,1345,0,0
812,-321,0,0,0,0,0,0,0,0,0,-1,2036,1345,0,0
-700,-328,0,0,0,0,0,0,0,0,0,-1,524,1352,0,0
-693,-328,0,0,0,0,0,0,0,0,0,-1,531,1352,0,0
-686,-328,0,0,0,0,0,0,0,0,0,-1,538,1352,0,0
-679,-328,0,0,0,0,0,0,0,0,0,-1,545,1352,0,0
-672,-328,0,0,0,0,0,0,0,0,0,-1,552,1352,0,0
-665,-328,0,0,0,0,0,0,0,0,0,-1,559,1352,0,0
-658,-328,0,0,0,0,0,0,0,0,0,-1,566,1352,0,0
-651,-328,0,0,0,0,0,0,0,0,0,-1,573,1352,0,0
-644,-328,0,0,0,0,0,0,0,0,0,-1,580,1352,0,0
-637,-328,-8.48846,-1.58057,0,0,0,0,0,0,0,-1,587,1352,-8.48846,1.58056
-630,-328,-8.60864,-2.23022,0,0,0,0,0,0,0,-1,594,1352,-8.60866,2.23021
-623,-328,-10.6782,2.60156,0,0,0,0,0,0,0,-1,601,1352,-10.6782,-2.60156
-616,-328,-8.22198,-0.25708,0,0,0,0,0,0,0,-1,608,1352,-8.22201,0.257067
-609,-328,-7.87439,0.192871,0,0,0,0,0,0,0,-1,615,1352,-7.87441,-0.192822
-602,-328,-7.63062,1.31665,0,0,0,0,0,0,0,-1,622,1352,-7.63064,-1.3166
-595,-328,-9.65729,3.12988,0,0,0,0,0,0,0,-1,629,1352,-9.65732,-3.12986
-588,-328,-9.37482,3.50781,-0.00922375,-0.00378285,-0.0022553,-0.00296958,-0.010037,-1.2247,0.00595369,0.0495954,636,1352,-9.37481,-3.50782
-581,-328,-9.44452,3.92517,-0.00703264,-0.00269009,-0.00192459,-0.00195991,-0.00776283,-1.20818,0.00466134,0.016687,643,1352,-9.4445,-3.92516
-574,-328,-9.45874,4.23792,-0.00510433,-0.00196125,-0.00164905,-0.00125483,-0.00581075,-1.16607,0.00353069,0.0140838,650,1352,-9.45873,-4.23791
-567,-328,-9.47357,4.53833,-0.00336707,-0.00127916,-0.0012611,-0.000685978,-0.00396025,-1.13113,0.00244381,0.018935,657,1352,-9.4736,-4.53837
-560,-328,-9.44189,4.87097,-0.0017695,-0.000763968,-0.000893039,-0.000241896,-0.00229157,-1.04178,0.00145381,0.0258087,664,1352,-9.44192,-4.87093
-553,-328,-9.41229,5.15869,-0.000295262,-0.000348398,-0.000524602,0.000203444,-0.000847105,-0.760098,0.000643364,0.028391,671,1352,-9.4123,-5.15866
-546,-328,-9.4129,5.448,0.00115104,-5.14063e-05,-0.000184719,0.00117878,-7.91428e-05,-0.149042,0.000813517,0.0285303,678,1352,-9.41293,-5.44794
-539,-328,-9.49084,5.75122,0.00246561,0.000162474,0.00013865,0.00247393,0.000154157,0.059912,0.00160038,0.0233684,685,1352,-9.49087,-5.75116
-532,-328,-9.48291,6.0542,0.00373309,0.000155624,0.000349712,0.00376695,0.000121759,0.0965364,0.00247172,0.0158937,692,1352,-9.4829,-6.05417
-525,-328,-9.42474,6.39844,0.00476001,-9.10288e-05,0.000335608,0.00478312,-0.000114137,0.0687463,0.00322746,0.0158263,699,1352,-9.42473,-6.39844
-518,-328,-9.41553,6.79553,0.00576866,-0.000492977,0.000134878,0.00577156,-0.00049588,0.0215271,0.0040232,0.0499329,706,1352,-9.4155,-6.79559
-511,-328,-9.39868,7.16113,0,0,0,0,0,0,0,-1,713,1352,-9.39869,-7.16113
-504,-328,-8.60626,-0.905762,0,0,0,0,0,0,0,-1,720,1352,-8.60623,0.905787
-497,-328,-9.29102,-0.0517578,0,0,0,0,0,0,0,-1,727,1352,-9.29104,0.0518175
-490,-328,-10.0663,0.882813,0,0,0,0,0,0,0,-1,734,1352,-10.0663,-0.882795
-483,-328,-10.8181,1.72375,0,0,0,0,0,0,0,-1,741,1352,-10.8181,-1.72374
-476,-328,-12.1125,-0.0240479,0,0,0,0,0,0,0,-1,748,1352,-12.1125,0.024076
-469,-328,-12.9481,0.130005,0,0,0,0,0,0,0,-1,755,1352,-12.9481,-0.130043
-462,-328,-13.758,0.238892,0,0,0,0,0,0,0,-1,762,1352,-13.758,-0.238923
-455,-328,0,0,0,0,0,0,0,0,0,-1,769,1352,0,0
-448,-328,0,0,0,0,0,0,0,0,0,-1,776,1352,0,0
-441,-328,0,0,0,0,0,0,0,0,0,-1,783,1352,0,0
-434,-328,0,0,0,0,0,0,0,0,0,-1,790,1352,0,0
-427,-328,0,0,0,0,0,0,0,0,0,-1,797,1352,0,0
-420,-328,0,0,0,0,0,0,0,0,0,-1,804,1352,0,0
-413,-328,0,0,0,0,0,0,0,0,0,-1,811,1352,0,0
-406,-328,0,0,0,0,0,0,0,0,0,-1,818,1352,0,0
-399,-328,0,0,0,0,0,0,0,0,0,-1,825,1352,0,0
-392,-328,0,0,0,0,0,0,0,0,0,-1,832,1352,0,0
-385,-328,0,0,0,0,0,0,0,0,0,-1,839,1352,0,0
-378,-328,0,0,0,0,0,0,0,0,0,-1,846,1352,0,0
-371,-328,0,0,0,0,0,0,0,0,0,-1,853,1352,0,0
-364,-328,0,0,0,0,0,0,0,0,0,-1,860,1352,0,0
-357,-328,0,0,0,0,0,0,0,0,0,-1,867,1352,0,0
-350,-328,0,0,0,0,0,0,0,0,0,-1,874,1352,0,0
-343,-328,0,0,0,0,0,0,0,0,0,-1,881,1352,0,0
-336,-328,0,0,0,0,0,0,0,0,0,-1,888,1352,0,0
-329,-328,0,0,0,0,0,0,0,0,0,-1,895,1352,0,0
-322,-328,0,0,0,0,0,0,0,0,0,-1,902,1352,0,0
-315,-328,0,0,0,0,0,0,0,0,0,-1,909,1352,0,0
-308,-328,0,0,0,0,0,0,0,0,0,-1,916,1352,0,0
-301,-328,0,0,0,0,0,0,0,0,0,-1,923,1352,0,0
-294,-328,0,0,0,0,0,0,0,0,0,-1,930,1352,0,0
-287,-328,0,0,0,0,0,0,0,0,0,-1,937,1352,0,0
-280,-328,0,0,0,0,0,0,0,0,0,-1,944,1352,0,0
-273,-328,0,0,0,0,0,0,0,0,0,-1,951,1352,0,0
-266,-328,0,0,0,0,0,0,0,0,0,-1,958,1352,0,0
-259,-328,0,0,0,0,0,0,0,0,0,-1,965,1352,0,0
-252,-328,0,0,0,0,0,0,0,0,0,-1,972,1352,0,0
-245,-328,0,0,0,0,0,0,0,0,0,-1,979,1352,0,0
-238,-328,0,0,0,0,0,0,0,0,0,-1,986,1352,0,0
-231,-328,0,0,0,0,0,0,0,0,0,-1,993,1352,0,0
-224,-328,0,0,0,0,0,0,0,0,0,-1,1000,1352,0,0
-217,-328,0,0,0,0,0,0,0,0,0,-1,1007,1352,0,0
-210,-328,0,0,0,0,0,0,0,0,0,-1,1014,1352,0,0
-203,-328,0,0,0,0,0,0,0,0,0,-1,1021,1352,0,0
-196,-328,0,0,0,0,0,0,0,0,0,-1,1028,1352,0,0
-189,-328,0,0,0,0,0,0,0,0,0,-1,1035,1352,0,0
-182,-328,0,0,0,0,0,0,0,0,0,-1,1042,1352,0,0
-175,-328,0,0,0,0,0,0,0,0,0,-1,1049,1352,0,0
-168,-328,0,0,0,0,0,0,0,0,0,-1,1056,1352,0,0
-161,-328,0,0,0,0,0,0,0,0,0,-1,1063,1352,0,0
-154,-328,0,0,0,0,0,0,0,0,0,-1,1070,1352,0,0
-147,-328,0,0,0,0,0,0,0,0,0,-1,1077,1352,0,0
-140,-328,0,0,0,0,0,0,0,0,0,-1,1084,1352,0,0
-133,-328,0,0,0,0,0,0,0,0,0,-1,1091,1352,0,0
-126,-328,0,0,0,0,0,0,0,0,0,-1,1098,1352,0,0
-119,-328,0,0,0,0,0,0,0,0,0,-1,1105,1352,0,0
-112,-328,0,0,0,0,0,0,0,0,0,-1,1112,1352,0,0
-105,-328,0,0,0,0,0,0,0,0,0,-1,1119,1352,0,0
-98,-328,0,0,0,0,0,0,0,0,0,-1,1126,1352,0,0
-91,-328,0,0,0,0,0,0,0,0,0,-1,1133,1352,0,0
-84,-328,0,0,0,0,0,0,0,0,0,-1,1140,1352,0,0
-77,-328,0,0,0,0,0,0,0,0,0,-1,1147,1352,0,0
-70,-328,0,0,0,0,0,0,0,0,0,-1,1154,1352,0,0
-63,-328,0,0,0,0,0,0,0,0,0,-1,1161,1352,0,0
-56,-328,0,0,0,0,0,0,0,0,0,-1,1168,1352,0,0
-49,-328,0,0,0,0,0,0,0,0,0,-1,1175,1352,0,0
-42,-328,0,0,0,0,0,0,0,0,0,-1,1182,1352,0,0
-35,-328,0,0,0,0,0,0,0,0,0,-1,1189,1352,0,0
-28,-328,0,0,0,0,0,0,0,0,0,-1,1196,1352,0,0
-21,-328,0,0,0,0,0,0,0,0,0,-1,1203,1352,0,0
-14,-328,0,0,0,0,0,0,0,0,0,-1,1210,1352,0,0
-7,-328,0,0,0,0,0,0,0,0,0,-1,1217,1352,0,0
0,-328,0,0,0,0,0,0,0,0,0,-1,1224,1352,0,0
7,-328,0,0,0,0,0,0,0,0,0,-1,1231,1352,0,0
14,-328,0,0,0,0,0,0,0,0,0,-1,1238,1352,0,0
21,-328,0,0,0,0,0,0,0,0,0,-1,1245,1352,0,0
28,-328,0,0,0,0,0,0,0,0,0,-1,1252,1352,0,0
35,-328,0,0,0,0,0,0,0,0,0,-1,1259,1352,0,0
42,-328,0,0,0,0,0,0,0,0,0,-1,1266,1352,0,0
49,-328,0,0,0,0,0,0,0,0,0,-1,1273,1352,0,0
56,-328,0,0,0,0,0,0,0,0,0,-1,1280,1352,0,0
63,-328,0,0,0,0,0,0,0,0,0,-1,1287,1352,0,0
70,-328,0,0,0,0,0,0,0,0,0,-1,1294,1352,0,0
77,-328,0,0,0,0,0,0,0,0,0,-1,1301,1352,0,0
84,-328,0,0,0,0,0,0,0,0,0,-1,1308,1352,0,0
91,-328,0,0,0,0,0,0,0,0,0,-1,1315,1352,0,0
98,-328,0,0,0,0,0,0,0,0,0,-1,1322,1352,0,0
105,-328,0,0,0,0,0,0,0,0,0,-1,1329,1352,0,0
112,-328,0,0,0,0,0,0,0,0,0,-1,1336,1352,0,0
119,-328,0,0,0,0,0,0,0,0,0,-1,1343,1352,0,0
126,-328,0,0,0,0,0,0,0,0,0,-1,1350,1352,0,0
133,-328,0,0,0,0,0,0,0,0,0,-1,1357,1352,0,0
140,-328,0,0,0,0,0,0,0,0,0,-1,1364,1352,0,0
147,-328,0,0,0,0,0,0,0,0,0,-1,1371,1352,0,0
154,-328,0,0,0,0,0,0,0,0,0,-1,1378,1352,0,0
161,-328,0,0,0,0,0,0,0,0,0,-1,1385,1352,0,0
168,-328,0,0,0,0,0,0,0,0,0,-1,1392,1352,0,0
175,-328,0,0,0,0,0,0,0,0,0,-1,1399,1352,0,0
182,-328,0,0,0,0,0,0,0,0,0,-1,1406,1352,0,0
189,-328,0,0,0,0,0,0,0,0,0,-1,1413,1352,0,0
196,-328,0,0,0,0,0,0,0,0,0,-1,1420,1352,0,0
203,-328,0,0,0,0,0,0,0,0,0,-1,1427,1352,0,0
210,-328,0,0,0,0,0,0,0,0,0,-1,1434,1352,0,0
217,-328,0,0,0,0,0,0,0,0,0,-1,1441,1352,0,0
224,-328,0,0,0,0,0,0,0,0,0,-1,1448,1352,0,0
231,-328,0,0,0,0,0,0,0,0,0,-1,1455,1352,0,0
238,-328,0,0,0,0,0,0,0,0,0,-1,1462,1352,0,0
245,-328,0,0,0,0,0,0,0,0,0,-1,1469,1352,0,0
252,-328,0,0,0,0,0,0,0,0,0,-1,1476,1352,0,0
259,-328,0,0,0,0,0,0,0,0,0,-1,1483,1352,0,0
266,-328,0,0,0,0,0,0,0,0,0,-1,1490,1352,0,0
273,-328,0,0,0,0,0,0,0,0,0,-1,1497,1352,0,0
280,-328,0,0,0,0,0,0,0,0,0,-1,1504,1352,0,0
287,-328,0,0,0,0,0,0,0,0,0,-1,1511,1352,0,0
294,-328,0,0,0,0,0,0,0,0,0,-1,1518,1352,0,0
301,-328,0,0,0,0,0,0,0,0,0,-1,1525,1352,0,0
308,-328,0,0,0,0,0,0,0,0,0,-1,1532,1352,0,0
315,-328,0,0,0,0,0,0,0,0,0,-1,1539,1352,0,0
322,-328,0,0,0,0,0,0,0,0,0,-1,1546,1352,0,0
329,-328,0,0,0,0,0,0,0,0,0,-1,1553,1352,0,0
336,-328,0,0,0,0,0,0,0,0,0,-1,1560,1352,0,0
343,-328,0,0,0,0,0,0,0,0,0,-1,1567,1352,0,0
350,-328,0,0,0,0,0,0,0,0,0,-1,1574,1352,0,0
357,-328,0,0,0,0,0,0,0,0,0,-1,1581,1352,0,0
364,-328,0,0,0,0,0,0,0,0,0,-1,1588,1352,0,0
371,-328,0,0,0,0,0,0,0,0,0,-1,1595,1352,0,0
378,-328,0,0,0,0,0,0,0,0,0,-1,1602,1352,0,0
385,-328,0,0,0,0,0,0,0,0,0,-1,1609,1352,0,0
392,-328,0,0,0,0,0,0,0,0,0,-1,1616,1352,0,0
399,-328,0,0,0,0,0,0,0,0,0,-1,1623,1352,0,0
406,-328,0,0,0,0,0,0,0,0,0,-1,1630,1352,0,0
413,-328,0,0,0,0,0,0,0,0,0,-1,1637,1352,0,0
420,-328,0,0,0,0,0,0,0,0,0,-1,1644,1352,0,0
427,-328,0,0,0,0,0,0,0,0,0,-1,1651,1352,0,0
434,-328,0,0,0,0,0,0,0,0,0,-1,1658,1352,0,0
441,-328,0,0,0,0,0,0,0,0,0,-1,1665,1352,0,0
448,-328,0,0,0,0,0,0,0,0,0,-1,1672,1352,0,0
455,-328,0,0,0,0,0,0,0,0,0,-1,1679,1352,0,0
462,-328,0,0,0,0,0,0,0,0,0,-1,1686,1352,0,0
469,-328,0,0,0,0,0,0,0,0,0,-1,1693,1352,0,0
476,-328,0,0,0,0,0,0,0,0,0,-1,1700,1352,0,0
483,-328,0,0,0,0,0,0,0,0,0,-1,1707,1352,0,0
490,-328,0,0,0,0,0,0,0,0,0,-1,1714,1352,0,0
497,-328,0,0,0,0,0,0,0,0,0,-1,1721,1352,0,0
504,-328,0,0,0,0,0,0,0,0,0,-1,1728,1352,0,0
511,-328,0,0,0,0,0,0,0,0,0,-1,1735,1352,0,0
518,-328,0,0,0,0,0,0,0,0,0,-1,1742,1352,0,0
525,-328,0,0,0,0,0,0,0,0,0,-1,1749,1352,0,0
532,-328,0,0,0,0,0,0,0,0,0,-1,1756,1352,0,0
539,-328,0,0,0,0,0,0,0,0,0,-1,1763,1352,0,0
546,-328,0,0,0,0,0,0,0,0,0,-1,1770,1352,0,0
553,-328,0,0,0,0,0,0,0,0,0,-1,1777,1352,0,0
560,-328,0,0,0,0,0,0,0,0,0,-1,1784,1352,0,0
567,-328,0,0,0,0,0,0,0,0,0,-1,1791,1352,0,0
574,-328,29.0405,3.54187,0,0,0,0,0,0,0,-1,1798,1352,29.0405,-3.54188
581,-328,28.8381,3.8606,0,0,0,0,0,0,0,-1,1805,1352,28.8381,-3.86055
588,-328,28.84,3.50793,-0.00680609,-0.0111694,-0.0172616,0.00841112,-0.0263866,-0.722537,0.020965,0.0462944,1812,1352,28.84,-3.50798
595,-328,28.6926,3.1189,-0.0209411,-0.0232154,-0.00704956,-0.0149375,-0.0292189,-0.705434,0.016871,0.0497393,1819,1352,28.6927,-3.11893
602,-328,28.6025,2.77112,0,0,0,0,0,0,0,-1,1826,1352,28.6026,-2.77112
609,-328,23.5773,4.23145,0,0,0,0,0,0,0,-1,1833,1352,23.5773,-4.23149
616,-328,23.5804,5.2063,0,0,0,0,0,0,0,-1,1840,1352,23.5804,-5.20625
623,-328,23.8899,4.09094,0,0,0,0,0,0,0,-1,1847,1352,23.8898,-4.09091
630,-328,22.0211,5.026,0,0,0,0,0,0,0,-1,1854,1352,22.0212,-5.02603
637,-328,21.15,5.53699,0,0,0,0,0,0,0,-1,1861,1352,21.15,-5.53704
644,-328,16.9579,6.3396,0,0,0,0,0,0,0,-1,1868,1352,16.9579,-6.33959
651,-328,19.1726,8.20105,0,0,0,0,0,0,0,-1,1875,1352,19.1726,-8.201
658,-328,19.0111,8.32544,-0.0141618,-0.016014,0.0108275,-0.00422093,-0.0259549,0.742735,0.016082,0.0272098,1882,1352,19.0111,-8.32544
665,-328,19.0155,8.04382,-0.00822342,-0.00886464,0.00722814,-0.00130878,-0.0157793,0.763235,0.0101115,0.0136773,1889,1352,19.0155,-8.04381
672,-328,19.0055,7.76685,-0.00630814,-0.00379481,0.00359332,-0.00124475,-0.0088582,0.953612,0.00553738,0.0113193,1896,1352,19.0055,-7.76682
679,-328,19.0096,7.50122,-0.00374228,-0.00128861,0.00222336,2.39348e-05,-0.00505482,1.03751,0.00337789,0.012833,1903,1352,19.0096,-7.50119
686,-328,19.0004,7.23865,-0.0022526,-0.000537945,0.00179527,0.000594197,-0.00338475,1.00816,0.00247842,0.0117822,1910,1352,19.0004,-7.23864
693,-328,19.0081,6.98169,-0.00177763,8.09343e-05,0.0011313,0.000615688,-0.00231239,1.12923,0.00178262,0.008411,1917,1352,19.0081,-6.98169
700,-328,19.0035,6.72314,-0.00149311,0.00076424,0.00049926,0.000869732,-0.0015986,1.36256,0.00144565,0.0121595,1924,1352,19.0035,-6.72318
707,-328,18.9957,6.44861,-0.00156823,0.00167744,2.83397e-05,0.00167769,-0.00156848,1.56207,0.00187453,0.0140507,1931,1352,18.9958,-6.44862
714,-328,19.0117,6.18225,-0.00244495,0.00256929,9.05878e-05,0.00257093,-0.00244658,1.55274,0.00289716,0.0126665,1938,1352,19.0117,-6.18223
721,-328,18.9041,5.96497,-0.00388398,0.00367416,0.000269545,0.00368376,-0.00389358,1.53519,0.00437534,0.031578,1945,1352,18.9041,-5.96499
728,-328,18.3976,5.30554,0,0,0,0,0,0,0,-1,1952,1352,18.3976,-5.30553
735,-328,18.385,4.75769,0,0,0,0,0,0,0,-1,1959,1352,18.3851,-4.75769
742,-328,18.3726,4.20984,0,0,0,0,0,0,0,-1,1966,1352,18.3726,-4.20986
749,-328,20.0469,5.34326,0,0,0,0,0,0,0,-1,1973,1352,20.0469,-5.3433
756,-328,18.8743,2.41199,0,0,0,0,0,0,0,-1,1980,1352,18.8743,-2.41197
763,-328,0,0,0,0,0,0,0,0,0,-1,1987,1352,0,0
770,-328,0,0,0,0,0,0,0,0,0,-1,1994,1352,0,0
777,-328,0,0,0,0,0,0,0,0,0,-1,2001,1352,0,0
784,-328,0,0,0,0,0,0,0,0,0,-1,2008,1352,0,0
791,-328,0,0,0,0,0,0,0,0,0,-1,2015,1352,0,0
798,-328,0,0,0,0,0,0,0,0,0,-1,2022,1352,0,0
805,-328,0,0,0,0,0,0,0,0,0,-1,2029,1352,0,0
812,-328,0,0,0,0,0,0,0,0,0,-1,2036,1352,0,0
-700,-335,0,0,0,0,0,0,0,0,0,-1,524,1359,0,0
-693,-335,0,0,0,0,0,0,0,0,0,-1,531,1359,0,0
-686,-335,0,0,0,0,0,0,0,0,0,-1,538,1359,0,0
-679,-335,0,0,0,0,0,0,0,0,0,-1,545,1359,0,0
-672,-335,0,0,0,0,0,0,0,0,0,-1,552,1359,0,0
-665,-335,0,0,0,0,0,0,0,0,0,-1,559,1359,0,0
-658,-335,0,0,0,0,0,0,0,0,0,-1,566,1359,0,0
-651,-335,0,0,0,0,0,0,0,0,0,-1,573,1359,0,0
-644,-335,0,0,0,0,0,0,0,0,0,-1,580,1359,0,0
-637,-335,-9.40179,4.18787,0,0,0,0,0,0,0,-1,587,1359,-9.40178,-4.18782
-630,-335,-6.07397,-2.99902,0,0,0,0,0,0,0,-1,594,1359,-6.07397,2.99902
-623,-335,-8.43304,1.09509,0,0,0,0,0,0,0,-1,601,1359,-8.43301,-1.09507
-616,-335,-7.80927,-0.485352,0,0,0,0,0,0,0,-1,608,1359,-7.80926,0.485291
-609,-335,-7.12256,-2.03601,0,0,0,0,0,0,0,-1,615,1359,-7.12253,2.03601
-602,-335,-8.7652,3.28088,0,0,0,0,0,0,0,-1,622,1359,-8.76517,-3.28091
-595,-335,-8.78162,3.57898,-0.0124788,-0.00270692,0.000266669,-0.00269965,-0.012486,1.54353,0.00758599,0.0468147,629,1359,-8.78164,-3.57897
-588,-335,-8.87067,3.84875,-0.00967126,-0.00203374,-0.000550975,-0.0019942,-0.0097108,-1.49915,0.00592213,0.0468606,636,1359,-8.87064,-3.84872
-581,-335,-9.16254,3.96509,-0.00744696,-0.00135987,-0.000814953,-0.00125265,-0.00755418,-1.43998,0.00467485,0.0263021,643,1359,-9.16253,-3.96506
-574,-335,-9.16412,4.22571,-0.00547701,-0.000977645,-0.000952503,-0.000784311,-0.00567035,-1.37054,0.00354781,0.0122983,650,1359,-9.1641,-4.22569
-567,-335,-9.15594,4.55054,-0.00371903,-0.000593257,-0.000867198,-0.000368786,-0.0039435,-1.31751,0.0025151,0.0163703,657,1359,-9.15592,-4.55055
-560,-335,-9.12488,4.83875,-0.0021152,-0.000322119,-0.000713611,-7.27852e-05,-0.00236453,-1.23466,0.00155266,0.0240709,664,1359,-9.12488,-4.83878
-553,-335,-9.14142,5.15674,-0.000606213,-0.000117261,-0.000488877,0.000184861,-0.000908335,-1.01725,0.00067566,0.0271706,671,1359,-9.14145,-5.15678
-546,-335,-9.15149,5.48914,0.000871697,-1.43318e-05,-0.000234425,0.000929897,-7.25326e-05,-0.243351,0.000645469,0.0262634,678,1359,-9.1515,-5.48919
-539,-335,-9.15375,5.77014,0.00223194,5.09127e-05,4.82645e-05,0.002233,4.98451e-05,0.0221149,0.00147234,0.0201895,685,1359,-9.15376,-5.77009
-532,-335,-9.17438,6.07886,0.00357522,2.1649e-05,0.000362064,0.00361173,-1.48655e-05,0.100511,0.00241279,0.0144172,692,1359,-9.17439,-6.07887
-525,-335,-9.12805,6.40527,0.0047436,-0.000223305,0.000597718,0.00481452,-0.000294222,0.118094,0.00331211,0.0104793,699,1359,-9.12804,-6.40525
-518,-335,-9.12604,6.69263,0.0059535,-0.000676268,0.000715416,0.00602982,-0.000752589,0.10628,0.00429279,0.0243332,706,1359,-9.12606,-6.69262
-511,-335,-9.26666,6.70142,0,0,0,0,0,0,0,-1,713,1359,-9.26666,-6.70139
-504,-335,-9.35767,5.99695,0,0,0,0,0,0,0,-1,720,1359,-9.35767,-5.99694
-497,-335,-8.75024,-0.650513,0,0,0,0,0,0,0,-1,727,1359,-8.75024,0.650521
-490,-335,-9.51971,0.417603,0,0,0,0,0,0,0,-1,734,1359,-9.51974,-0.41765
-483,-335,-10.2883,1.29224,0,0,0,0,0,0,0,-1,741,1359,-10.2883,-1.2922
-476,-335,-11.9938,-0.173462,0,0,0,0,0,0,0,-1,748,1359,-11.9938,0.173429
-469,-335,-12.8704,-0.204102,0,0,0,0,0,0,0,-1,755,1359,-12.8704,0.204117
-462,-335,-13.486,0.0218506,0,0,0,0,0,0,0,-1,762,1359,-13.4859,-0.0217908
-455,-335,-14.1504,0.549561,0,0,0,0,0,0,0,-1,769,1359,-14.1504,-0.549583
-448,-335,0,0,0,0,0,0,0,0,0,-1,776,1359,0,0
-441,-335,0,0,0,0,0,0,0,0,0,-1,783,1359,0,0
-434,-335,0,0,0,0,0,0,0,0,0,-1,790,1359,0,0
-427,-335,0,0,0,0,0,0,0,0,0,-1,797,1359,0,0
-420,-335,0,0,0,0,0,0,0,0,0,-1,804,1359,0,0
-413,-335,0,0,0,0,0,0,0,0,0,-1,811,1359,0,0
-406,-335,0,0,0,0,0,0,0,0,0,-1,818,1359,0,0
-399,-335,0,0,0,0,0,0,0,0,0,-1,825,1359,0,0
-392,-335,0,0,0,0,0,0,0,0,0,-1,832,1359,0,0
-385,-335,0,0,0,0,0,0,0,0,0,-1,839,1359,0,0
-378,-335,0,0,0,0,0,0,0,0,0,-1,846,1359,0,0
-371,-335,0,0,0,0,0,0,0,0,0,-1,853,1359,0,0
-364,-335,0,0,0,0,0,0,0,0,0,-1,860,1359,0,0
-357,-335,0,0,0,0,0,0,0,0,0,-1,867,1359,0,0
-350,-335,0,0,0,0,0,0,0,0,0,-1,874,1359,0,0
-343,-335,0,0,0,0,0,0,0,0,0,-1,881,1359,0,0
-336,-335,0,0,0,0,0,0,0,0,0,-1,888,1359,0,0
-329,-335,0,0,0,0,0,0,0,0,0,-1,895,1359,0,0
-322,-335,0,0,0,0,0,0,0,0,0,-1,902,1359,0,0
-315,-335,0,0,0,0,0,0,0,0,0,-1,909,1359,0,0
-308,-335,0,0,0,0,0,0,0,0,0,-1,916,1359,0,0
-301,-335,0,0,0,0,0,0,0,0,0,-1,923,1359,0,0
-294,-335,0,0,0,0,0,0,0,0,0,-1,930,1359,0,0
-287,-335,0,0,0,0,0,0,0,0,0,-1,937,1359,0,0
-280,-335,0,0,0,0,0,0,0,0,0,-1,944,1359,0,0
-273,-335,0,0,0,0,0,0,0,0,0,-1,951,1359,0,0
-266,-335,0,0,0,0,0,0,0,0,0,-1,958,1359,0,0
-259,-335,0,0,0,0,0,0,0,0,0,-1,965,1359,0,0
-252,-335,0,0,0,0,0,0,0,0,0,-1,972,1359,0,0
-245,-335,0,0,0,0,0,0,0,0,0,-1,979,1359,0,0
-238,-335,0,0,0,0,0,0,0,0,0,-1,986,1359,0,0
-231,-335,0,0,0,0,0,0,0,0,0,-1,993,1359,0,0
-224,-335,0,0,0,0,0,0,0,0,0,-1,1000,1359,0,0
-217,-335,0,0,0,0,0,0,0,0,0,-1,1007,1359,0,0
-210,-335,0,0,0,0,0,0,0,0,0,-1,1014,1359,0,0
-203,-335,0,0,0,0,0,0,0,0,0,-1,1021,1359,0,0
-196,-335,0,0,0,0,0,0,0,0,0,-1,1028,1359,0,0
-189,-335,0,0,0,0,0,0,0,0,0,-1,1035,1359,0,0
-182,-335,0,0,0,0,0,0,0,0,0,-1,1042,1359,0,0
-175,-335,0,0,0,0,0,0,0,0,0,-1,1049,1359,0,0
-168,-335,0,0,0,0,0,0,0,0,0,-1,1056,1359,0,0
-161,-335,0,0,0,0,0,0,0,0,0,-1,1063,1359,0,0
-154,-335,0,0,0,0,0,0,0,0,0,-1,1070,1359,0,0
-147,-335,0,0,0,0,0,0,0,0,0,-1,1077,1359,0,0
-140,-335,0,0,0,0,0,0,0,0,0,-1,1084,1359,0,0
-133,-335,0,0,0,0,0,0,0,0,0,-1,1091,1359,0,0
-126,-335,0,0,0,0,0,0,0,0,0,-1,1098,1359,0,0
-119,-335,0,0,0,0,0,0,0,0,0,-1,1105,1359,0,0
-112,-335,0,0,0,0,0,0,0,0,0,-1,1112,1359,0,0
-105,-335,0,0,0,0,0,0,0,0,0,-1,1119,1359,0,0
-98,-335,0,0,0,0,0,0,0,0,0,-1,1126,1359,0,0
-91,-335,0,0,0,0,0,0,0,0,0,-1,1133,1359,0,0
-84,-335,0,0,0,0,0,0,0,0,0,-1,1140,1359,0,0
-77,-335,0,0,0,0,0,0,0,0,0,-1,1147,1359,0,0
-70,-335,0,0,0,0,0,0,0,0,0,-1,1154,1359,0,0
-63,-335,0,0,0,0,0,0,0,0,0,-1,1161,1359,0,0
-56,-335,0,0,0,0,0,0,0,0,0,-1,1168,1359,0,0
-49,-335,0,0,0,0,0,0,0,0,0,-1,1175,1359,0,0
-42,-335,0,0,0,0,0,0,0,0,0,-1,1182,1359,0,0
-35,-335,0,0,0,0,0,0,0,0,0,-1,1189,1359,0,0
-28,-335,0,0,0,0,0,0,0,0,0,-1,1196,1359,0,0
-21,-335,0,0,0,0,0,0,0,0,0,-1,1203,1359,0,0
-14,-335,0,0,0,0,0,0,0,0,0,-1,1210,1359,0,0
-7,-335,0,0,0,0,0,0,0,0,0,-1,1217,1359,0,0
0,-335,0,0,0,0,0,0,0,0,0,-1,1224,1359,0,0
7,-335,0,0,0,0,0,0,0,0,0,-1,1231,1359,0,0
14,-335,0,0,0,0,0,0,0,0,0,-1,1238,1359,0,0
21,-335,0,0,0,0,0,0,0,0,0,-1,1245,1359,0,0
28,-335,0,0,0,0,0,0,0,0,0,-1,1252,1359,0,0
35,-335,0,0,0,0,0,0,0,0,0,-1,1259,1359,0,0
42,-335,0,0,0,0,0,0,0,0,0,-1,1266,1359,0,0
49,-335,0,0,0,0,0,0,0,0,0,-1,1273,1359,0,0
56,-335,0,0,0,0,0,0,0,0,0,-1,1280,1359,0,0
63,-335,0,0,0,0,0,0,0,0,0,-1,1287,1359,0,0
70,-335,0,0,0,0,0,0,0,0,0,-1,1294,1359,0,0
77,-335,0,0,0,0,0,0,0,0,0,-1,1301,1359,0,0
84,-335,0,0,0,0,0,0,0,0,0,-1,1308,1359,0,0
91,-335,0,0,0,0,0,0,0,0,0,-1,1315,1359,0,0
98,-335,0,0,0,0,0,0,0,0,0,-1,1322,1359,0,0
105,-335,0,0,0,0,0,0,0,0,0,-1,1329,1359,0,0
112,-335,0,0,0,0,0,0,0,0,0,-1,1336,1359,0,0
119,-335,0,0,0,0,0,0,0,0,0,-1,1343,1359,0,0
126,-335,0,0,0,0,0,0,0,0,0,-1,1350,1359,0,0
133,-335,0,0,0,0,0,0,0,0,0,-1,1357,1359,0,0
140,-335,0,0,0,0,0,0,0,0,0,-1,1364,1359,0,0
147,-335,0,0,0,0,0,0,0,0,0,-1,1371,1359,0,0
154,-335,0,0,0,0,0,0,0,0,0,-1,1378,1359,0,0
161,-335,0,0,0,0,0,0,0,0,0,-1,1385,1359,0,0
168,-335,0,0,0,0,0,0,0,0,0,-1,1392,1359,0,0
175,-335,0,0,0,0,0,0,0,0,0,-1,1399,1359,0,0
182,-335,0,0,0,0,0,0,0,0,0,-1,1406,1359,0,0
189,-335,0,0,0,0,0,0,0,0,0,-1,1413,1359,0,0
196,-335,0,0,0,0,0,0,0,0,0,-1,1420,1359,0,0
203,-335,0,0,0,0,0,0,0,0,0,-1,1427,1359,0,0
210,-335,0,0,0,0,0,0,0,0,0,-1,1434,1359,0,0
217,-335,0,0,0,0,0,0,0,0,0,-1,1441,1359,0,0
224,-335,0,0,0,0,0,0,0,0,0,-1,1448,1359,0,0
231,-335,0,0,0,0,0,0,0,0,0,-1,1455,1359,0,0
238,-335,0,0,0,0,0,0,0,0,0,-1,1462,1359,0,0
245,-335,0,0,0,0,0,0,0,0,0,-1,1469,1359,0,0
252,-335,0,0,0,0,0,0,0,0,0,-1,1476,1359,0,0
259,-335,0,0,0,0,0,0,0,0,0,-1,1483,1359,0,0
266,-335,0,0,0,0,0,0,0,0,0,-1,1490,1359,0,0
273,-335,0,0,0,0,0,0,0,0,0,-1,1497,1359,0,0
280,-335,0,0,0,0,0,0,0,0,0,-1,1504,1359,0,0
287,-335,0,0,0,0,0,0,0,0,0,-1,1511,1359,0,0
294,-335,0,0,0,0,0,0,0,0,0,-1,1518,1359,0,0
301,-335,0,0,0,0,0,0,0,0,0,-1,1525,1359,0,0
308,-335,0,0,0,0,0,0,0,0,0,-1,1532,1359,0,0
315,-335,0,0,0,0,0,0,0,0,0,-1,1539,1359,0,0
322,-335,0,0,0,0,0,0,0,0,0,-1,1546,1359,0,0
329,-335,0,0,0,0,0,0,0,0,0,-1,1553,1359,0,0
336,-335,0,0,0,0,0,0,0,0,0,-1,1560,1359,0,0
343,-335,0,0,0,0,0,0,0,0,0,-1,1567,1359,0,0
350,-335,0,0,0,0,0,0,0,0,0,-1,1574,1359,0,0
357,-335,0,0,0,0,0,0,0,0,0,-1,1581,1359,0,0
364,-335,0,0,0,0,0,0,0,0,0,-1,1588,1359,0,0
371,-335,0,0,0,0,0,0,0,0,0,-1,1595,1359,0,0
378,-335,0,0,0,0,0,0,0,0,0,-1,1602,1359,0,0
385,-335,0,0,0,0,0,0,0,0,0,-1,1609,1359,0,0
392,-335,0,0,0,0,0,0,0,0,0,-1,1616,1359,0,0
399,-335,0,0,0,0,0,0,0,0,0,-1,1623,1359,0,0
406,-335,0,0,0,0,0,0,0,0,0,-1,1630,1359,0,0
413,-335,0,0,0,0,0,0,0,0,0,-1,1637,1359,0,0
420,-335,0,0,0,0,0,0,0,0,0,-1,1644,1359,0,0
427,-335,0,0,0,0,0,0,0,0,0,-1,1651,1359,0,0
434,-335,0,0,0,0,0,0,0,0,0,-1,1658,1359,0,0
441,-335,0,0,0,0,0,0,0,0,0,-1,1665,1359,0,0
448,-335,0,0,0,0,0,0,0,0,0,-1,1672,1359,0,0
455,-335,0,0,0,0,0,0,0,0,0,-1,1679,1359,0,0
462,-335,0,0,0,0,0,0,0,0,0,-1,1686,1359,0,0
469,-335,0,0,0,0,0,0,0,0,0,-1,1693,1359,0,0
476,-335,0,0,0,0,0,0,0,0,0,-1,1700,1359,0,0
483,-335,0,0,0,0,0,0,0,0,0,-1,1707,1359,0,0
490,-335,0,0,0,0,0,0,0,0,0,-1,1714,1359,0,0
497,-335,0,0,0,0,0,0,0,0,0,-1,1721,1359,0,0
504,-335,0,0,0,0,0,0,0,0,0,-1,1728,1359,0,0
511,-335,0,0,0,0,0,0,0,0,0,-1,1735,1359,0,0
518,-335,0,0,0,0,0,0,0,0,0,-1,1742,1359,0,0
525,-335,0,0,0,0,0,0,0,0,0,-1,1749,1359,0,0
532,-335,0,0,0,0,0,0,0,0,0,-1,1756,1359,0,0
539,-335,0,0,0,0,0,0,0,0,0,-1,1763,1359,0,0
546,-335,0,0,0,0,0,0,0,0,0,-1,1770,1359,0,0
553,-335,0,0,0,0,0,0,0,0,0,-1,1777,1359,0,0
560,-335,0,0,0,0,0,0,0,0,0,-1,1784,1359,0,0
567,-335,0,0,0,0,0,0,0,0,0,-1,1791,1359,0,0
574,-335,29.3225,3.40027,0.0494745,0.0243159,-0.0427009,0.0814105,-0.00762005,-0.642154,0.0569838,0.0439277,1798,1359,29.3225,-3.4003
581,-335,29.283,3.36279,0,0,0,0,0,0,0,-1,1805,1359,29.2829,-3.36274
588,-335,29.1707,3.33252,0,0,0,0,0,0,0,-1,1812,1359,29.1707,-3.33252
595,-335,28.9607,3.0647,0,0,0,0,0,0,0,-1,1819,1359,28.9607,-3.06472
602,-335,23.4768,3.9281,0,0,0,0,0,0,0,-1,1826,1359,23.4768,-3.92813
609,-335,22.3484,3.05103,0,0,0,0,0,0,0,-1,1833,1359,22.3484,-3.05106
616,-335,21.4529,2.68201,0,0,0,0,0,0,0,-1,1840,1359,21.4529,-2.68201
623,-335,20.203,1.89709,0,0,0,0,0,0,0,-1,1847,1359,20.2031,-1.89712
630,-335,19.1707,1.00952,0,0,0,0,0,0,0,-1,1854,1359,19.1707,-1.00953
637,-335,18.2009,6.65454,0,0,0,0,0,0,0,-1,1861,1359,18.2009,-6.6546
644,-335,18.8535,8.76929,0,0,0,0,0,0,0,-1,1868,1359,18.8535,-8.76926
651,-335,18.7587,8.55798,-0.0190251,-0.0201725,0.0115777,-0.00800686,-0.0311907,0.760641,0.0187051,0.0296798,1875,1359,18.7587,-8.55798
658,-335,18.694,8.3678,-0.0109389,-0.015209,0.0106616,-0.0022007,-0.0239472,0.686579,0.0152841,0.016999,1882,1359,18.6939,-8.36775
665,-335,18.7136,8.06836,-0.00551348,-0.00813961,0.00675398,5.38826e-05,-0.013707,0.689389,0.009156,0.0141572,1889,1359,18.7136,-8.06837
672,-335,18.7281,7.78333,-0.00407972,-0.00348992,0.00325934,-0.000512163,-0.00705748,0.830514,0.0045439,0.0165404,1896,1359,18.7281,-7.78332
679,-335,18.7405,7.53748,-0.00234014,-0.00135955,0.00188657,9.93948e-05,-0.00379908,0.912529,0.00256649,0.0136817,1903,1359,18.7404,-7.53743
686,-335,18.7491,7.25708,-0.001468,-0.000611822,0.00142139,0.000444549,-0.00252437,0.931665,0.001849,0.0109219,1910,1359,18.7491,-7.25705
693,-335,18.7445,6.95996,-0.00126617,-1.35408e-05,0.00094905,0.000497232,-0.00177694,1.07706,0.00138055,0.00962709,1917,1359,18.7445,-6.95991
700,-335,18.7279,6.72583,-0.00120722,0.000503203,0.000540627,0.000659755,-0.00136377,1.28893,0.00119162,0.0101848,1924,1359,18.7279,-6.7258
707,-335,18.72,6.46936,-0.00152508,0.00116885,0.000246913,0.00119129,-0.00154752,1.48015,0.00158571,0.0129285,1931,1359,18.72,-6.46935
714,-335,18.7612,6.15796,-0.00277337,0.00177422,0.000595286,0.00185085,-0.00285,1.44277,0.00273439,0.0234746,1938,1359,18.7612,-6.15796
721,-335,18.5112,5.8772,-0.00463128,0.00261356,0.00104276,0.00276066,-0.00477838,1.43065,0.00440432,0.0439727,1945,1359,18.5112,-5.87714
728,-335,18.4958,5.63684,0,0,0,0,0,0,0,-1,1952,1359,18.4959,-5.63689
735,-335,17.6018,4.26404,0,0,0,0,0,0,0,-1,1959,1359,17.6018,-4.26404
742,-335,17.8745,3.78577,0,0,0,0,0,0,0,-1,1966,1359,17.8746,-3.78578
749,-335,17.8118,3.04175,0,0,0,0,0,0,0,-1,1973,1359,17.8118,-3.04173
756,-335,18.9956,2.39343,0,0,0,0,0,0,0,-1,1980,1359,18.9956,-2.39348
763,-335,0,0,0,0,0,0,0,0,0,-1,1987,1359,0,0
770,-335,0,0,0,0,0,0,0,0,0,-1,1994,1359,0,0
777,-335,0,0,0,0,0,0,0,0,0,-1,2001,1359,0,0
784,-335,0,0,0,0,0,0,0,0,0,-1,2008,1359,0,0
791,-335,0,0,0,0,0,0,0,0,0,-1,2015,1359,0,0
798,-335,0,0,0,0,0,0,0,0,0,-1,2022,1359,0,0
805,-335,0,0,0,0,0,0,0,0,0,-1,2029,1359,0,0
812,-335,0,0,0,0,0,0,0,0,0,-1,2036,1359,0,0
-700,-342,0,0,0,0,0,0,0,0,0,-1,524,1366,0,0
-693,-342,0,0,0,0,0,0,0,0,0,-1,531,1366,0,0
-686,-342,0,0,0,0,0,0,0,0,0,-1,538,1366,0,0
-679,-342,0,0,0,0,0,0,0,0,0,-1,545,1366,0,0
-672,-342,0,0,0,0,0,0,0,0,0,-1,552,1366,0,0
-665,-342,0,0,0,0,0,0,0,0,0,-1,559,1366,0,0
-658,-342,0,0,0,0,0,0,0,0,0,-1,566,1366,0,0
-651,-342,0,0,0,0,0,0,0,0,0,-1,573,1366,0,0
-644,-342,0,0,0,0,0,0,0,0,0,-1,580,1366,0,0
-637,-342,-8.67786,-4.58557,0,0,0,0,0,0,0,-1,587,1366,-8.67788,4.5856
-630,-342,-8.60132,2.71777,0,0,0,0,0,0,0,-1,594,1366,-8.60135,-2.71779
-623,-342,-8.41168,0.662476,0,0,0,0,0,0,0,-1,601,1366,-8.41168,-0.662442
-616,-342,-6.625,-1.28015,0,0,0,0,0,0,0,-1,608,1366,-6.62499,1.28011
-609,-342,-7.83154,0.674561,0,0,0,0,0,0,0,-1,615,1366,-7.83155,-0.674598
-602,-342,-8.77673,3.43738,0,0,0,0,0,0,0,-1,622,1366,-8.77674,-3.43733
-595,-342,-8.64722,3.76111,0,0,0,0,0,0,0,-1,629,1366,-8.64719,-3.76116
-588,-342,-8.82214,3.64417,0,0,0,0,0,0,0,-1,636,1366,-8.82214,-3.64416
-581,-342,-8.83215,3.91235,-0.00716916,0.00147624,0.00233335,0.0020658,-0.00775872,1.32331,0.0059812,0.0457871,643,1366,-8.83215,-3.91236
-574,-342,-8.89001,4.24622,-0.00548559,0.00109792,0.0012192,0.00131645,-0.00570412,1.39344,0.00430912,0.0126479,650,1366,-8.89004,-4.24621
-567,-342,-8.84473,4.56091,-0.00391218,0.000873905,0.000577301,0.000942555,-0.00398083,1.45244,0.00301754,0.0163771,657,1366,-8.84473,-4.56096
-560,-342,-8.88049,4.84973,-0.00242485,0.000670891,0.000192453,0.000682809,-0.00243677,1.50895,0.0018936,0.0240992,664,1366,-8.88048,-4.84975
-553,-342,-8.9231,5.1156,-0.00096925,0.000474517,1.99922e-06,0.00047452,-0.000969253,1.56941,0.000849719,0.0275078,671,1366,-8.92312,-5.11558
-546,-342,-8.88257,5.39368,0.000513907,0.000262145,-3.47373e-05,0.000518612,0.00025744,-0.134626,0.000299423,0.0271199,678,1366,-8.88257,-5.39372
-539,-342,-8.87408,5.75427,0.00192133,9.9471e-05,4.68425e-05,0.00192254,9.82674e-05,0.0256887,0.00125022,0.0220142,685,1366,-8.87407,-5.75428
-532,-342,-8.87695,6.104,0.00336164,-2.96027e-05,0.000307282,0.00338925,-5.72206e-05,0.0896377,0.00227882,0.0173502,692,1366,-8.87698,-6.10395
-525,-342,-8.82092,6.42053,0.0047569,-0.000254247,0.000689954,0.00485016,-0.000347507,0.134354,0.00335528,0.0118777,699,1366,-8.8209,-6.42051
-518,-342,-8.80487,6.72681,0.00615739,-0.00068558,0.000942244,0.00628476,-0.000812951,0.134365,0.00448545,0.0171997,706,1366,-8.80487,-6.72684
-511,-342,-8.90216,6.85107,0.00783854,-0.000659909,0.00100497,0.00795577,-0.000777133,0.116119,0.00558095,0.0489197,713,1366,-8.90219,-6.85111
-504,-342,-8.89862,6.9469,0,0,0,0,0,0,0,-1,720,1366,-8.89863,-6.94696
-497,-342,-8.26587,-0.943604,0,0,0,0,0,0,0,-1,727,1366,-8.26586,0.943543
-490,-342,-9.07153,-0.0227051,0,0,0,0,0,0,0,-1,734,1366,-9.07155,0.0227087
-483,-342,-9.87726,0.898071,0,0,0,0,0,0,0,-1,741,1366,-9.87724,-0.898125
-476,-342,-11.6371,-0.736328,0,0,0,0,0,0,0,-1,748,1366,-11.6371,0.736281
-469,-342,-12.6245,-0.987549,0,0,0,0,0,0,0,-1,755,1366,-12.6245,0.987553
-462,-342,-13.0912,-0.533203,0,0,0,0,0,0,0,-1,762,1366,-13.0912,0.533224
-455,-342,-13.7612,0.122925,0,0,0,0,0,0,0,-1,769,1366,-13.7612,-0.122896
-448,-342,-14.5278,0.826904,0,0,0,0,0,0,0,-1,776,1366,-14.5277,-0.826861
-441,-342,0,0,0,0,0,0,0,0,0,-1,783,1366,0,0
-434,-342,0,0,0,0,0,0,0,0,0,-1,790,1366,0,0
-427,-342,0,0,0,0,0,0,0,0,0,-1,797,1366,0,0
-420,-342,0,0,0,0,0,0,0,0,0,-1,804,1366,0,0
-413,-342,0,0,0,0,0,0,0,0,0,-1,811,1366,0,0
-406,-342,0,0,0,0,0,0,0,0,0,-1,818,1366,0,0
-399,-342,0,0,0,0,0,0,0,0,0,-1,825,1366,0,0
-392,-342,0,0,0,0,0,0,0,0,0,-1,832,1366,0,0
-385,-342,0,0,0,0,0,0,0,0,0,-1,839,1366,0,0
-378,-342,0,0,0,0,0,0,0,0,0,-1,846,1366,0,0
-371,-342,0,0,0,0,0,0,0,0,0,-1,853,1366,0,0
-364,-342,0,0,0,0,0,0,0,0,0,-1,860,1366,0,0
-357,-342,0,0,0,0,0,0,0,0,0,-1,867,1366,0,0
-350,-342,0,0,0,0,0,0,0,0,0,-1,874,1366,0,0
-343,-342,0,0,0,0,0,0,0,0,0,-1,881,1366,0,0
-336,-342,0,0,0,0,0,0,0,0,0,-1,888,1366,0,0
-329,-342,0,0,0,0,0,0,0,0,0,-1,895,1366,0,0
-322,-342,0,0,0,0,0,0,0,0,0,-1,902,1366,0,0
-315,-342,0,0,0,0,0,0,0,0,0,-1,909,1366,0,0
-308,-342,0,0,0,0,0,0,0,0,0,-1,916,1366,0,0
-301,-342,0,0,0,0,0,0,0,0,0,-1,923,1366,0,0
-294,-342,0,0,0,0,0,0,0,0,0,-1,930,1366,0,0
-287,-342,0,0,0,0,0,0,0,0,0,-1,937,1366,0,0
-280,-342,0,0,0,0,0,0,0,0,0,-1,944,1366,0,0
-273,-342,0,0,0,0,0,0,0,0,0,-1,951,1366,0,0
-266,-342,0,0,0,0,0,0,0,0,0,-1,958,1366,0,0
-259,-342,0,0,0,0,0,0,0,0,0,-1,965,1366,0,0
-252,-342,0,0,0,0,0,0,0,0,0,-1,972,1366,0,0
-245,-342,0,0,0,0,0,0,0,0,0,-1,979,1366,0,0
-238,-342,0,0,0,0,0,0,0,0,0,-1,986,1366,0,0
-231,-342,0,0,0,0,0,0,0,0,0,-1,993,1366,0,0
-224,-342,0,0,0,0,0,0,0,0,0,-1,1000,1366,0,0
-217,-342,0,0,0,0,0,0,0,0,0,-1,1007,1366,0,0
-210,-342,0,0,0,0,0,0,0,0,0,-1,1014,1366,0,0
-203,-342,0,0,0,0,0,0,0,0,0,-1,1021,1366,0,0
-196,-342,0,0,0,0,0,0,0,0,0,-1,1028,1366,0,0
-189,-342,0,0,0,0,0,0,0,0,0,-1,1035,1366,0,0
-182,-342,0,0,0,0,0,0,0,0,0,-1,1042,1366,0,0
-175,-342,0,0,0,0,0,0,0,0,0,-1,1049,1366,0,0
-168,-342,0,0,0,0,0,0,0,0,0,-1,1056,1366,0,0
-161,-342,0,0,0,0,0,0,0,0,0,-1,1063,1366,0,0
-154,-342,0,0,0,0,0,0,0,0,0,-1,1070,1366,0,0
-147,-342,0,0,0,0,0,0,0,0,0,-1,1077,1366,0,0
-140,-342,0,0,0,0,0,0,0,0,0,-1,1084,1366,0,0
-133,-342,0,0,0,0,0,0,0,0,0,-1,1091,1366,0,0
-126,-342,0,0,0,0,0,0,0,0,0,-1,1098,1366,0,0
-119,-342,0,0,0,0,0,0,0,0,0,-1,1105,1366,0,0
-112,-342,0,0,0,0,0,0,0,0,0,-1,1112,1366,0,0
-105,-342,0,0,0,0,0,0,0,0,0,-1,1119,1366,0,0
-98,-342,0,0,0,0,0,0,0,0,0,-1,1126,1366,0,0
-91,-342,0,0,0,0,0,0,0,0,0,-1,1133,1366,0,0
-84,-342,0,0,0,0,0,0,0,0,0,-1,1140,1366,0,0
-77,-342,0,0,0,0,0,0,0,0,0,-1,1147,1366,0,0
-70,-342,0,0,0,0,0,0,0,0,0,-1,1154,1366,0,0
-63,-342,0,0,0,0,0,0,0,0,0,-1,1161,1366,0,0
-56,-342,0,0,0,0,0,0,0,0,0,-1,1168,1366,0,0
-49,-342,0,0,0,0,0,0,0,0,0,-1,1175,1366,0,0
-42,-342,0,0,0,0,0,0,0,0,0,-1,1182,1366,0,0
-35,-342,0,0,0,0,0,0,0,0,0,-1,1189,1366,0,0
-28,-342,0,0,0,0,0,0,0,0,0,-1,1196,1366,0,0
-21,-342,0,0,0,0,0,0,0,0,0,-1,1203,1366,0,0
-14,-342,0,0,0,0,0,0,0,0,0,-1,1210,1366,0,0
-7,-342,0,0,0,0,0,0,0,0,0,-1,1217,1366,0,0
0,-342,0,0,0,0,0,0,0,0,0,-1,1224,1366,0,0
7,-342,0,0,0,0,0,0,0,0,0,-1,1231,1366,0,0
14,-342,0,0,0,0,0,0,0,0,0,-1,1238,1366,0,0
21,-342,0,0,0,0,0,0,0,0,0,-1,1245,1366,0,0
28,-342,0,0,0,0,0,0,0,0,0,-1,1252,1366,0,0
35,-342,0,0,0,0,0,0,0,0,0,-1,1259,1366,0,0
42,-342,0,0,0,0,0,0,0,0,0,-1,1266,1366,0,0
49,-342,0,0,0,0,0,0,0,0,0,-1,1273,1366,0,0
56,-342,0,0,0,0,0,0,0,0,0,-1,1280,1366,0,0
63,-342,0,0,0,0,0,0,0,0,0,-1,1287,1366,0,0
70,-342,0,0,0,0,0,0,0,0,0,-1,1294,1366,0,0
77,-342,0,0,0,0,0,0,0,0,0,-1,1301,1366,0,0
84,-342,0,0,0,0,0,0,0,0,0,-1,1308,1366,0,0
91,-342,0,0,0,0,0,0,0,0,0,-1,1315,1366,0,0
98,-342,0,0,0,0,0,0,0,0,0,-1,1322,1366,0,0
105,-342,0,0,0,0,0,0,0,0,0,-1,1329,1366,0,0
112,-342,0,0,0,0,0,0,0,0,0,-1,1336,1366,0,0
119,-342,0,0,0,0,0,0,0,0,0,-1,1343,1366,0,0
126,-342,0,0,0,0,0,0,0,0,0,-1,1350,1366,0,0
133,-342,0,0,0,0,0,0,0,0,0,-1,1357,1366,0,0
140,-342,0,0,0,0,0,0,0,0,0,-1,1364,1366,0,0
147,-342,0,0,0,0,0,0,0,0,0,-1,1371,1366,0,0
154,-342,0,0,0,0,0,0,0,0,0,-1,1378,1366,0,0
161,-342,0,0,0,0,0,0,0,0,0,-1,1385,1366,0,0
168,-342,0,0,0,0,0,0,0,0,0,-1,1392,1366,0,0
175,-342,0,0,0,0,0,0,0,0,0,-1,1399,1366,0,0
182,-342,0,0,0,0,0,0,0,0,0,-1,1406,1366,0,0
189,-342,0,0,0,0,0,0,0,0,0,-1,1413,1366,0,0
196,-342,0,0,0,0,0,0,0,0,0,-1,1420,1366,0,0
203,-342,0,0,0,0,0,0,0,0,0,-1,1427,1366,0,0
210,-342,0,0,0,0,0,0,0,0,0,-1,1434,1366,0,0
217,-342,0,0,0,0,0,0,0,0,0,-1,1441,1366,0,0
224,-342,0,0,0,0,0,0,0,0,0,-1,1448,1366,0,0
231,-342,0,0,0,0,0,0,0,0,0,-1,1455,1366,0,0
238,-342,0,0,0,0,0,0,0,0,0,-1,1462,1366,0,0
245,-342,0,0,0,0,0,0,0,0,0,-1,1469,1366,0,0
252,-342,0,0,0,0,0,0,0,0,0,-1,1476,1366,0,0
259,-342,0,0,0,0,0,0,0,0,0,-1,1483,1366,0,0
266,-342,0,0,0,0,0,0,0,0,0,-1,1490,1366,0,0
273,-342,0,0,0,0,0,0,0,0,0,-1,1497,1366,0,0
280,-342,0,0,0,0,0,0,0,0,0,-1,1504,1366,0,0
287,-342,0,0,0,0,0,0,0,0,0,-1,1511,1366,0,0
294,-342,0,0,0,0,0,0,0,0,0,-1,1518,1366,0,0
301,-342,0,0,0,0,0,0,0,0,0,-1,1525,1366,0,0
308,-342,0,0,0,0,0,0,0,0,0,-1,1532,1366,0,0
315,-342,0,0,0,0,0,0,0,0,0,-1,1539,1366,0,0
322,-342,0,0,0,0,0,0,0,0,0,-1,1546,1366,0,0
329,-342,0,0,0,0,0,0,0,0,0,-1,1553,1366,0,0
336,-342,0,0,0,0,0,0,0,0,0,-1,1560,1366,0,0
343,-342,0,0,0,0,0,0,0,0,0,-1,1567,1366,0,0
350,-342,0,0,0,0,0,0,0,0,0,-1,1574,1366,0,0
357,-342,0,0,0,0,0,0,0,0,0,-1,1581,1366,0,0
364,-342,0,0,0,0,0,0,0,0,0,-1,1588,1366,0,0
371,-342,0,0,0,0,0,0,0,0,0,-1,1595,1366,0,0
378,-342,0,0,0,0,0,0,0,0,0,-1,1602,1366,0,0
385,-342,0,0,0,0,0,0,0,0,0,-1,1609,1366,0,0
392,-342,0,0,0,0,0,0,0,0,0,-1,1616,1366,0,0
399,-342,0,0,0,0,0,0,0,0,0,-1,1623,1366,0,0
406,-342,0,0,0,0,0,0,0,0,0,-1,1630,1366,0,0
413,-342,0,0,0,0,0,0,0,0,0,-1,1637,1366,0,0
420,-342,0,0,0,0,0,0,0,0,0,-1,1644,1366,0,0
427,-342,0,0,0,0,0,0,0,0,0,-1,1651,1366,0,0
434,-342,0,0,0,0,0,0,0,0,0,-1,1658,1366,0,0
441,-342,0,0,0,0,0,0,0,0,0,-1,1665,1366,0,0
448,-342,0,0,0,0,0,0,0,0,0,-1,1672,1366,0,0
455,-342,0,0,0,0,0,0,0,0,0,-1,1679,1366,0,0
462,-342,0,0,0,0,0,0,0,0,0,-1,1686,1366,0,0
469,-342,0,0,0,0,0,0,0,0,0,-1,1693,1366,0,0
476,-342,0,0,0,0,0,0,0,0,0,-1,1700,1366,0,0
483,-342,0,0,0,0,0,0,0,0,0,-1,1707,1366,0,0
490,-342,0,0,0,0,0,0,0,0,0,-1,1714,1366,0,0
497,-342,0,0,0,0,0,0,0,0,0,-1,1721,1366,0,0
504,-342,0,0,0,0,0,0,0,0,0,-1,1728,1366,0,0
511,-342,0,0,0,0,0,0,0,0,0,-1,1735,1366,0,0
518,-342,0,0,0,0,0,0,0,0,0,-1,1742,1366,0,0
525,-342,0,0,0,0,0,0,0,0,0,-1,1749,1366,0,0
532,-342,0,0,0,0,0,0,0,0,0,-1,1756,1366,0,0
539,-342,0,0,0,0,0,0,0,0,0,-1,1763,1366,0,0
546,-342,0,0,0,0,0,0,0,0,0,-1,1770,1366,0,0
553,-342,0,0,0,0,0,0,0,0,0,-1,1777,1366,0,0
560,-342,0,0,0,0,0,0,0,0,0,-1,1784,1366,0,0
567,-342,29.2783,3.28333,0.085589,0.0342526,-0.0458746,0.112488,0.00735338,-0.530333,0.0726651,0.0454077,1791,1366,29.2783,-3.28338
574,-342,29.6191,3.30249,0.0473269,0.0131826,-0.032443,0.0669155,-0.00640594,-0.543197,0.0468917,0.0455368,1798,1366,29.6192,-3.30243
581,-342,29.4766,3.18555,0,0,0,0,0,0,0,-1,1805,1366,29.4765,-3.18552
588,-342,29.3535,3.30383,0,0,0,0,0,0,0,-1,1812,1366,29.3536,-3.30388
595,-342,29.1771,3.56445,0,0,0,0,0,0,0,-1,1819,1366,29.1771,-3.56443
602,-342,24.2635,3.77417,0,0,0,0,0,0,0,-1,1826,1366,24.2635,-3.77416
609,-342,22.6897,3.57434,0,0,0,0,0,0,0,-1,1833,1366,22.6896,-3.57436
616,-342,21.0116,3.13916,0,0,0,0,0,0,0,-1,1840,1366,21.0116,-3.13913
623,-342,19.4404,2.64111,0,0,0,0,0,0,0,-1,1847,1366,19.4405,-2.64116
630,-342,17.3431,0.773071,0,0,0,0,0,0,0,-1,1854,1366,17.3432,-0.773095
637,-342,16.196,6.76172,0,0,0,0,0,0,0,-1,1861,1366,16.1961,-6.76174
644,-342,18.356,8.88025,0,0,0,0,0,0,0,-1,1868,1366,18.3559,-8.88022
651,-342,18.4663,8.67456,-0.0145288,-0.0175872,0.0106638,-0.00528512,-0.0268309,0.714181,0.0164117,0.0250824,1875,1366,18.4664,-8.67456
658,-342,18.4448,8.37109,-0.00708863,-0.0125344,0.00912957,-0.000284547,-0.0193385,0.640473,0.0127985,0.0183338,1882,1366,18.4448,-8.37107
665,-342,18.4423,8.06702,-0.00274654,-0.00637863,0.0054352,0.00116799,-0.0102932,0.624166,0.00728272,0.0154962,1889,1366,18.4423,-8.06706
672,-342,18.4631,7.8125,-0.00192212,-0.00266408,0.00252294,0.000256972,-0.00484317,0.7124,0.00331775,0.0128661,1896,1366,18.4632,-7.81246
679,-342,18.4441,7.55969,-0.00102653,-0.00114904,0.00142784,0.000341369,-0.00251694,0.763962,0.00180256,0.0126265,1903,1366,18.444,-7.55975
686,-342,18.4771,7.29236,-0.000755504,-0.00059215,0.00109617,0.000425381,-0.00177304,0.822585,0.00134641,0.0107782,1910,1366,18.4771,-7.29234
693,-342,18.4727,6.99194,-0.000828717,-0.000143645,0.000855567,0.000435408,-0.00140777,0.975807,0.00111242,0.0111121,1917,1366,18.4727,-6.99197
700,-342,18.4487,6.72913,-0.00102486,0.000268515,0.000678717,0.000559303,-0.00131565,1.16602,0.00111148,0.013018,1924,1366,18.4487,-6.72918
707,-342,18.453,6.45935,-0.00167347,0.000772453,0.000681011,0.000949281,-0.0018503,1.31675,0.001644,0.0124814,1931,1366,18.453,-6.45929
714,-342,18.4773,6.22754,-0.00342174,0.00117893,0.00146128,0.00160383,-0.00384663,1.28783,0.00323441,0.0388463,1938,1366,18.4772,-6.2275
721,-342,18.343,5.76917,0,0,0,0,0,0,0,-1,1945,1366,18.3431,-5.76912
728,-342,17.5746,4.00732,0,0,0,0,0,0,0,-1,1952,1366,17.5746,-4.00734
735,-342,17.7842,3.86951,0,0,0,0,0,0,0,-1,1959,1366,17.7842,-3.86951
742,-342,18.2644,3.12598,0,0,0,0,0,0,0,-1,1966,1366,18.2644,-3.12604
749,-342,18.7092,3.5918,0,0,0,0,0,0,0,-1,1973,1366,18.7092,-3.59177
756,-342,0,0,0,0,0,0,0,0,0,-1,1980,1366,0,0
763,-342,0,0,0,0,0,0,0,0,0,-1,1987,1366,0,0
770,-342,0,0,0,0,0,0,0,0,0,-1,1994,1366,0,0
777,-342,0,0,0,0,0,0,0,0,0,-1,2001,1366,0,0
784,-342,0,0,0,0,0,0,0,0,0,-1,2008,1366,0,0
791,-342,0,0,0,0,0,0,0,0,0,-1,2015,1366,0,0
798,-342,0,0,0,0,0,0,0,0,0,-1,2022,1366,0,0
805,-342,0,0,0,0,0,0,0,0,0,-1,2029,1366,0,0
812,-342,0,0,0,0,0,0,0,0,0,-1,2036,1366,0,0
-700,-349,0,0,0,0,0,0,0,0,0,-1,524,1373,0,0
-693,-349,0,0,0,0,0,0,0,0,0,-1,531,1373,0,0
-686,-349,0,0,0,0,0,0,0,0,0,-1,538,1373,0,0
-679,-349,0,0,0,0,0,0,0,0,0,-1,545,1373,0,0
-672,-349,0,0,0,0,0,0,0,0,0,-1,552,1373,0,0
-665,-349,0,0,0,0,0,0,0,0,0,-1,559,1373,0,0
-658,-349,0,0,0,0,0,0,0,0,0,-1,566,1373,0,0
-651,-349,0,0,0,0,0,0,0,0,0,-1,573,1373,0,0
-644,-349,0,0,0,0,0,0,0,0,0,-1,580,1373,0,0
-637,-349,0,0,0,0,0,0,0,0,0,-1,587,1373,0,0
-630,-349,-7.64117,-5.06177,0,0,0,0,0,0,0,-1,594,1373,-7.64118,5.0618
-623,-349,-8.63507,0.51123,0,0,0,0,0,0,0,-1,601,1373,-8.63505,-0.511275
-616,-349,-5.2066,-0.188232,0,0,0,0,0,0,0,-1,608,1373,-5.20659,0.188211
-609,-349,-7.12073,1.37048,0,0,0,0,0,0,0,-1,615,1373,-7.12072,-1.37044
-602,-349,-9.00623,3.39587,0,0,0,0,0,0,0,-1,622,1373,-9.0062,-3.39591
-595,-349,-8.6236,3.68054,0,0,0,0,0,0,0,-1,629,1373,-8.62358,-3.68054
-588,-349,-8.10254,4.14563,0,0,0,0,0,0,0,-1,636,1373,-8.10253,-4.14564
-581,-349,-8.27374,4.19617,-0.00698167,0.00451448,0.00569097,0.00685513,-0.00932232,1.18059,0.00937619,0.0477429,643,1373,-8.27376,-4.19616
-574,-349,-8.5434,4.22754,-0.00545172,0.00332553,0.00357431,0.00459692,-0.00672311,1.22905,0.00657394,0.0247267,650,1373,-8.54341,-4.22749
-567,-349,-8.55426,4.58301,-0.00398048,0.00246308,0.00219603,0.00314032,-0.00465773,1.27165,0.00453053,0.0169467,657,1373,-8.55427,-4.583
-560,-349,-8.58514,4.91113,-0.00257614,0.00178029,0.001277,0.00212702,-0.00292287,1.30567,0.0029276,0.0208581,664,1373,-8.58513,-4.91116
-553,-349,-8.60516,5.13538,-0.00118331,0.00118937,0.000675676,0.00136829,-0.00136223,1.31193,0.00157647,0.0264868,671,1373,-8.60516,-5.13542
-546,-349,-8.57977,5.38428,0.000248777,0.000677001,0.000345257,0.000869148,5.66303e-05,1.06295,0.000561508,0.0287451,678,1373,-8.57977,-5.38425
-539,-349,-8.60144,5.75757,0.00162823,0.000297903,0.000219538,0.00166352,0.00026261,0.159397,0.00103267,0.0226658,685,1373,-8.60142,-5.75758
-532,-349,-8.58795,6.11499,0.00304701,1.73313e-05,0.000343613,0.0030855,-2.11509e-05,0.111528,0.00206408,0.0169183,692,1373,-8.58794,-6.11498
-525,-349,-8.54883,6.42432,0.00448214,-0.000170139,0.000794246,0.004614,-0.000301997,0.164516,0.00318144,0.0130253,699,1373,-8.5488,-6.42434
-518,-349,-8.54828,6.73987,0.0059201,-0.000522215,0.00116425,0.00612404,-0.000726161,0.173414,0.00434502,0.0140302,706,1373,-8.54827,-6.7399
-511,-349,-8.39923,7.04724,0.00758998,-0.000363072,0.00141322,0.00783364,-0.000606728,0.170734,0.00543597,0.0412172,713,1373,-8.39926,-7.0472
-504,-349,-8.26752,7.25439,0,0,0,0,0,0,0,-1,720,1373,-8.26753,-7.25435
-497,-349,-7.9339,5.58789,0,0,0,0,0,0,0,-1,727,1373,-7.93388,-5.58785
-490,-349,-8.73969,-0.503784,0,0,0,0,0,0,0,-1,734,1373,-8.73966,0.503752
-483,-349,-5.66974,3.7395,0,0,0,0,0,0,0,-1,741,1373,-5.66975,-3.73949
-476,-349,-10.8496,1.15759,0,0,0,0,0,0,0,-1,748,1373,-10.8496,-1.15756
-469,-349,-12.3314,-1.74878,0,0,0,0,0,0,0,-1,755,1373,-12.3314,1.74882
-462,-349,-12.6559,-0.995361,0,0,0,0,0,0,0,-1,762,1373,-12.656,0.995351
-455,-349,-13.2897,-0.234253,0,0,0,0,0,0,0,-1,769,1373,-13.2897,0.234261
-448,-349,-14.045,0.712891,0,0,0,0,0,0,0,-1,776,1373,-14.045,-0.712838
-441,-349,0,0,0,0,0,0,0,0,0,-1,783,1373,0,0
-434,-349,0,0,0,0,0,0,0,0,0,-1,790,1373,0,0
-427,-349,0,0,0,0,0,0,0,0,0,-1,797,1373,0,0
-420,-349,0,0,0,0,0,0,0,0,0,-1,804,1373,0,0
-413,-349,0,0,0,0,0,0,0,0,0,-1,811,1373,0,0
-406,-349,0,0,0,0,0,0,0,0,0,-1,818,1373,0,0
-399,-349,0,0,0,0,0,0,0,0,0,-1,825,1373,0,0
-392,-349,0,0,0,0,0,0,0,0,0,-1,832,1373,0,0
-385,-349,0,0,0,0,0,0,0,0,0,-1,839,1373,0,0
-378,-349,0,0,0,0,0,0,0,0,0,-1,846,1373,0,0
-371,-349,0,0,0,0,0,0,0,0,0,-1,853,1373,0,0
-364,-349,0,0,0,0,0,0,0,0,0,-1,860,1373,0,0
-357,-349,0,0,0,0,0,0,0,0,0,-1,867,1373,0,0
-350,-349,0,0,0,0,0,0,0,0,0,-1,874,1373,0,0
-343,-349,0,0,0,0,0,0,0,0,0,-1,881,1373,0,0
-336,-349,0,0,0,0,0,0,0,0,0,-1,888,1373,0,0
-329,-349,0,0,0,0,0,0,0,0,0,-1,895,1373,0,0
-322,-349,0,0,0,0,0,0,0,0,0,-1,902,1373,0,0
-315,-349,0,0,0,0,0,0,0,0,0,-1,909,1373,0,0
-308,-349,0,0,0,0,0,0,0,0,0,-1,916,1373,0,0
-301,-349,0,0,0,0,0,0,0,0,0,-1,923,1373,0,0
-294,-349,0,0,0,0,0,0,0,0,0,-1,930,1373,0,0
-287,-349,0,0,0,0,0,0,0,0,0,-1,937,1373,0,0
-280,-349,0,0,0,0,0,0,0,0,0,-1,944,1373,0,0
-273,-349,0,0,0,0,0,0,0,0,0,-1,951,1373,0,0
-266,-349,0,0,0,0,0,0,0,0,0,-1,958,1373,0,0
-259,-349,0,0,0,0,0,0,0,0,0,-1,965,1373,0,0
-252,-349,0,0,0,0,0,0,0,0,0,-1,972,1373,0,0
-245,-349,0,0,0,0,0,0,0,0,0,-1,979,1373,0,0
-238,-349,0,0,0,0,0,0,0,0,0,-1,986,1373,0,0
-231,-349,0,0,0,0,0,0,0,0,0,-1,993,1373,0,0
-224,-349,0,0,0,0,0,0,0,0,0,-1,1000,1373,0,0
-217,-349,0,0,0,0,0,0,0,0,0,-1,1007,1373,0,0
-210,-349,0,0,0,0,0,0,0,0,0,-1,1014,1373,0,0
-203,-349,0,0,0,0,0,0,0,0,0,-1,1021,1373,0,0
-196,-349,0,0,0,0,0,0,0,0,0,-1,1028,1373,0,0
-189,-349,0,0,0,0,0,0,0,0,0,-1,1035,1373,0,0
-182,-349,0,0,0,0,0,0,0,0,0,-1,1042,1373,0,0
-175,-349,0,0,0,0,0,0,0,0,0,-1,1049,1373,0,0
-168,-349,0,0,0,0,0,0,0,0,0,-1,1056,1373,0,0
-161,-349,0,0,0,0,0,0,0,0,0,-1,1063,1373,0,0
-154,-349,0,0,0,0,0,0,0,0,0,-1,1070,1373,0,0
-147,-349,0,0,0,0,0,0,0,0,0,-1,1077,1373,0,0
-140,-349,0,0,0,0,0,0,0,0,0,-1,1084,1373,0,0
-133,-349,0,0,0,0,0,0,0,0,0,-1,1091,1373,0,0
-126,-349,0,0,0,0,0,0,0,0,0,-1,1098,1373,0,0
-119,-349,0,0,0,0,0,0,0,0,0,-1,1105,1373,0,0
-112,-349,0,0,0,0,0,0,0,0,0,-1,1112,1373,0,0
-105,-349,0,0,0,0,0,0,0,0,0,-1,1119,1373,0,0
-98,-349,0,0,0,0,0,0,0,0,0,-1,1126,1373,0,0
-91,-349,0,0,0,0,0,0,0,0,0,-1,1133,1373,0,0
-84,-349,0,0,0,0,0,0,0,0,0,-1,1140,1373,0,0
-77,-349,0,0,0,0,0,0,0,0,0,-1,1147,1373,0,0
-70,-349,0,0,0,0,0,0,0,0,0,-1,1154,1373,0,0
-63,-349,0,0,0,0,0,0,0,0,0,-1,1161,1373,0,0
-56,-349,0,0,0,0,0,0,0,0,0,-1,1168,1373,0,0
-49,-349,0,0,0,0,0,0,0,0,0,-1,1175,1373,0,0
-42,-349,0,0,0,0,0,0,0,0,0,-1,1182,1373,0,0
-35,-349,0,0,0,0,0,0,0,0,0,-1,1189,1373,0,0
-28,-349,0,0,0,0,0,0,0,0,0,-1,1196,1373,0,0
-21,-349,0,0,0,0,0,0,0,0,0,-1,1203,1373,0,0
-14,-349,0,0,0,0,0,0,0,0,0,-1,1210,1373,0,0
-7,-349,0,0,0,0,0,0,0,0,0,-1,1217,1373,0,0
0,-349,0,0,0,0,0,0,0,0,0,-1,1224,1373,0,0
7,-349,0,0,0,0,0,0,0,0,0,-1,1231,1373,0,0
14,-349,0,0,0,0,0,0,0,0,0,-1,1238,1373,0,0
21,-349,0,0,0,0,0,0,0,0,0,-1,1245,1373,0,0
28,-349,0,0,0,0,0,0,0,0,0,-1,1252,1373,0,0
35,-349,0,0,0,0,0,0,0,0,0,-1,1259,1373,0,0
42,-349,0,0,0,0,0,0,0,0,0,-1,1266,1373,0,0
49,-349,0,0,0,0,0,0,0,0,0,-1,1273,1373,0,0
56,-349,0,0,0,0,0,0,0,0,0,-1,1280,1373,0,0
63,-349,0,0,0,0,0,0,0,0,0,-1,1287,1373,0,0
70,-349,0,0,0,0,0,0,0,0,0,-1,1294,1373,0,0
77,-349,0,0,0,0,0,0,0,0,0,-1,1301,1373,0,0
84,-349,0,0,0,0,0,0,0,0,0,-1,1308,1373,0,0
91,-349,0,0,0,0,0,0,0,0,0,-1,1315,1373,0,0
98,-349,0,0,0,0,0,0,0,0,0,-1,1322,1373,0,0
105,-349,0,0,0,0,0,0,0,0,0,-1,1329,1373,0,0
112,-349,0,0,0,0,0,0,0,0,0,-1,1336,1373,0,0
119,-349,0,0,0,0,0,0,0,0,0,-1,1343,1373,0,0
126,-349,0,0,0,0,0,0,0,0,0,-1,1350,1373,0,0
133,-349,0,0,0,0,0,0,0,0,0,-1,1357,1373,0,0
140,-349,0,0,0,0,0,0,0,0,0,-1,1364,1373,0,0
147,-349,0,0,0,0,0,0,0,0,0,-1,1371,1373,0,0
154,-349,0,0,0,0,0,0,0,0,0,-1,1378,1373,0,0
161,-349,0,0,0,0,0,0,0,0,0,-1,1385,1373,0,0
168,-349,0,0,0,0,0,0,0,0,0,-1,1392,1373,0,0
175,-349,0,0,0,0,0,0,0,0,0,-1,1399,1373,0,0
182,-349,0,0,0,0,0,0,0,0,0,-1,1406,1373,0,0
189,-349,0,0,0,0,0,0,0,0,0,-1,1413,1373,0,0
196,-349,0,0,0,0,0,0,0,0,0,-1,1420,1373,0,0
203,-349,0,0,0,0,0,0,0,0,0,-1,1427,1373,0,0
210,-349,0,0,0,0,0,0,0,0,0,-1,1434,1373,0,0
217,-349,0,0,0,0,0,0,0,0,0,-1,1441,1373,0,0
224,-349,0,0,0,0,0,0,0,0,0,-1,1448,1373,0,0
231,-349,0,0,0,0,0,0,0,0,0,-1,1455,1373,0,0
238,-349,0,0,0,0,0,0,0,0,0,-1,1462,1373,0,0
245,-349,0,0,0,0,0,0,0,0,0,-1,1469,1373,0,0
252,-349,0,0,0,0,0,0,0,0,0,-1,1476,1373,0,0
259,-349,0,0,0,0,0,0,0,0,0,-1,1483,1373,0,0
266,-349,0,0,0,0,0,0,0,0,0,-1,1490,1373,0,0
273,-349,0,0,0,0,0,0,0,0,0,-1,1497,1373,0,0
280,-349,0,0,0,0,0,0,0,0,0,-1,1504,1373,0,0
287,-349,0,0,0,0,0,0,0,0,0,-1,1511,1373,0,0
294,-349,0,0,0,0,0,0,0,0,0,-1,1518,1373,0,0
301,-349,0,0,0,0,0,0,0,0,0,-1,1525,1373,0,0
308,-349,0,0,0,0,0,0,0,0,0,-1,1532,1373,0,0
315,-349,0,0,0,0,0,0,0,0,0,-1,1539,1373,0,0
322,-349,0,0,0,0,0,0,0,0,0,-1,1546,1373,0,0
329,-349,0,0,0,0,0,0,0,0,0,-1,1553,1373,0,0
336,-349,0,0,0,0,0,0,0,0,0,-1,1560,1373,0,0
343,-349,0,0,0,0,0,0,0,0,0,-1,1567,1373,0,0
350,-349,0,0,0,0,0,0,0,0,0,-1,1574,1373,0,0
357,-349,0,0,0,0,0,0,0,0,0,-1,1581,1373,0,0
364,-349,0,0,0,0,0,0,0,0,0,-1,1588,1373,0,0
371,-349,0,0,0,0,0,0,0,0,0,-1,1595,1373,0,0
378,-349,0,0,0,0,0,0,0,0,0,-1,1602,1373,0,0
385,-349,0,0,0,0,0,0,0,0,0,-1,1609,1373,0,0
392,-349,0,0,0,0,0,0,0,0,0,-1,1616,1373,0,0
399,-349,0,0,0,0,0,0,0,0,0,-1,1623,1373,0,0
406,-349,0,0,0,0,0,0,0,0,0,-1,1630,1373,0,0
413,-349,0,0,0,0,0,0,0,0,0,-1,1637,1373,0,0
420,-349,0,0,0,0,0,0,0,0,0,-1,1644,1373,0,0
427,-349,0,0,0,0,0,0,0,0,0,-1,1651,1373,0,0
434,-349,0,0,0,0,0,0,0,0,0,-1,1658,1373,0,0
441,-349,0,0,0,0,0,0,0,0,0,-1,1665,1373,0,0
448,-349,0,0,0,0,0,0,0,0,0,-1,1672,1373,0,0
455,-349,0,0,0,0,0,0,0,0,0,-1,1679,1373,0,0
462,-349,0,0,0,0,0,0,0,0,0,-1,1686,1373,0,0
469,-349,0,0,0,0,0,0,0,0,0,-1,1693,1373,0,0
476,-349,0,0,0,0,0,0,0,0,0,-1,1700,1373,0,0
483,-349,0,0,0,0,0,0,0,0,0,-1,1707,1373,0,0
490,-349,0,0,0,0,0,0,0,0,0,-1,1714,1373,0,0
497,-349,0,0,0,0,0,0,0,0,0,-1,1721,1373,0,0
504,-349,0,0,0,0,0,0,0,0,0,-1,1728,1373,0,0
511,-349,0,0,0,0,0,0,0,0,0,-1,1735,1373,0,0
518,-349,0,0,0,0,0,0,0,0,0,-1,1742,1373,0,0
525,-349,0,0,0,0,0,0,0,0,0,-1,1749,1373,0,0
532,-349,0,0,0,0,0,0,0,0,0,-1,1756,1373,0,0
539,-349,0,0,0,0,0,0,0,0,0,-1,1763,1373,0,0
546,-349,0,0,0,0,0,0,0,0,0,-1,1770,1373,0,0
553,-349,0,0,0,0,0,0,0,0,0,-1,1777,1373,0,0
560,-349,29.1276,3.20361,0,0,0,0,0,0,0,-1,1784,1373,29.1276,-3.20359
567,-349,29.5087,3.23596,0.0810614,0.0206524,-0.034254,0.0965258,0.00518801,-0.424069,0.0626928,0.0485428,1791,1373,29.5087,-3.23598
574,-349,29.937,3.31628,0.0476663,0.00350273,-0.0227811,0.0573112,-0.00614222,-0.400493,0.0404108,0.0482405,1798,1373,29.937,-3.31627
581,-349,30.3311,3.35986,0,0,0,0,0,0,0,-1,1805,1373,30.331,-3.35983
588,-349,29.5049,3.3363,0,0,0,0,0,0,0,-1,1812,1373,29.5049,-3.33632
595,-349,28.3916,3.3064,0,0,0,0,0,0,0,-1,1819,1373,28.3915,-3.3064
602,-349,27.0566,3.56555,0,0,0,0,0,0,0,-1,1826,1373,27.0567,-3.5656
609,-349,22.7898,3.97815,0,0,0,0,0,0,0,-1,1833,1373,22.7898,-3.9782
616,-349,20.7064,3.54407,0,0,0,0,0,0,0,-1,1840,1373,20.7064,-3.54402
623,-349,18.8478,2.75769,0,0,0,0,0,0,0,-1,1847,1373,18.8478,-2.75774
630,-349,15.4948,6.47644,0,0,0,0,0,0,0,-1,1854,1373,15.4947,-6.4765
637,-349,16.5161,6.92639,0,0,0,0,0,0,0,-1,1861,1373,16.5161,-6.92636
644,-349,18.1425,9.12231,0,0,0,0,0,0,0,-1,1868,1373,18.1425,-9.12231
651,-349,18.2765,8.60486,-0.00817591,-0.0137846,0.00871458,-0.00182559,-0.020135,0.62973,0.0128581,0.0245986,1875,1373,18.2765,-8.60481
658,-349,18.1733,8.33813,-0.00258354,-0.00941894,0.00693133,0.00172688,-0.0137294,0.55635,0.0097795,0.0237904,1882,1373,18.1733,-8.33812
665,-349,18.1761,8.07593,0.000106874,-0.00458808,0.00380989,0.00223443,-0.00671564,0.509292,0.00537889,0.0177388,1889,1373,18.1762,-8.07588
672,-349,18.1793,7.80994,5.97366e-05,-0.0018582,0.00162661,0.000989018,-0.00278748,0.519049,0.00226127,0.0137861,1896,1373,18.1793,-7.80997
679,-349,18.1741,7.54907,4.871e-05,-0.00089669,0.000940061,0.000628227,-0.00147621,0.55244,0.00124744,0.0136738,1903,1373,18.1741,-7.54908
686,-349,18.2295,7.31006,-0.00019859,-0.000551118,0.000883632,0.000526187,-0.00127589,0.686952,0.00107002,0.0124445,1910,1373,18.2295,-7.31007
693,-349,18.2086,7.01721,-0.000586484,-0.000309019,0.000936402,0.000498872,-0.00139437,0.858941,0.00113309,0.0147184,1917,1373,18.2086,-7.01724
700,-349,18.1891,6.73889,-0.00115683,-5.36767e-05,0.00107813,0.000605777,-0.00181629,1.02184,0.00145543,0.0160081,1924,1373,18.1891,-6.7389
707,-349,18.2279,6.44604,-0.00227353,0.000261252,0.00138824,0.000873622,-0.0028859,1.15536,0.00227184,0.0260465,1931,1373,18.2279,-6.44606
714,-349,18.1648,6.22192,-0.0046516,0.000385641,0.00253508,0.00144054,-0.0057065,1.17647,0.00436449,0.0443611,1938,1373,18.1648,-6.22195
721,-349,17.91,5.82129,0,0,0,0,0,0,0,-1,1945,1373,17.91,-5.82128
728,-349,18.6333,3.73218,0,0,0,0,0,0,0,-1,1952,1373,18.6333,-3.73214
735,-349,18.1918,3.39954,0,0,0,0,0,0,0,-1,1959,1373,18.1918,-3.3995
742,-349,20.7345,2.07483,0,0,0,0,0,0,0,-1,1966,1373,20.7345,-2.07485
749,-349,21.9037,1.45789,0,0,0,0,0,0,0,-1,1973,1373,21.9037,-1.45788
756,-349,0,0,0,0,0,0,0,0,0,-1,1980,1373,0,0
763,-349,0,0,0,0,0,0,0,0,0,-1,1987,1373,0,0
770,-349,0,0,0,0,0,0,0,0,0,-1,1994,1373,0,0
777,-349,0,0,0,0,0,0,0,0,0,-1,2001,1373,0,0
784,-349,0,0,0,0,0,0,0,0,0,-1,2008,1373,0,0
791,-349,0,0,0,0,0,0,0,0,0,-1,2015,1373,0,0
798,-349,0,0,0,0,0,0,0,0,0,-1,2022,1373,0,0
805,-349,0,0,0,0,0,0,0,0,0,-1,2029,1373,0,0
812,-349,0,0,0,0,0,0,0,0,0,-1,2036,1373,0,0
-700,-356,0,0,0,0,0,0,0,0,0,-1,524,1380,0,0
-693,-356,0,0,0,0,0,0,0,0,0,-1,531,1380,0,0
-686,-356,0,0,0,0,0,0,0,0,0,-1,538,1380,0,0
-679,-356,0,0,0,0,0,0,0,0,0,-1,545,1380,0,0
-672,-356,0,0,0,0,0,0,0,0,0,-1,552,1380,0,0
-665,-356,0,0,0,0,0,0,0,0,0,-1,559,1380,0,0
-658,-356,0,0,0,0,0,0,0,0,0,-1,566,1380,0,0
-651,-356,0,0,0,0,0,0,0,0,0,-1,573,1380,0,0
-644,-356,0,0,0,0,0,0,0,0,0,-1,580,1380,0,0
-637,-356,0,0,0,0,0,0,0,0,0,-1,587,1380,0,0
-630,-356,-8.23126,-5.01917,0,0,0,0,0,0,0,-1,594,1380,-8.23124,5.0192
-623,-356,-0.263855,-0.675781,0,0,0,0,0,0,0,-1,601,1380,-0.263835,0.675841
-616,-356,-8.26532,-3.43945,0,0,0,0,0,0,0,-1,608,1380,-8.2653,3.43948
-609,-356,-4.88483,0.734497,0,0,0,0,0,0,0,-1,615,1380,-4.88485,-0.734532
-602,-356,-9.06635,2.4021,0,0,0,0,0,0,0,-1,622,1380,-9.06634,-2.40206
-595,-356,-8.45703,3.61853,0,0,0,0,0,0,0,-1,629,1380,-8.45706,-3.61848
-588,-356,-7.7688,3.55005,0,0,0,0,0,0,0,-1,636,1380,-7.76879,-3.55002
-581,-356,-7.90063,4.10583,-0.00613629,0.00846384,0.00958061,0.0132086,-0.0108811,1.11095,0.0139298,0.0427141,643,1380,-7.90066,-4.10581
-574,-356,-8.0791,4.37341,-0.00497865,0.00619548,0.00629528,0.00902541,-0.00780859,1.14833,0.00972757,0.0324308,650,1380,-8.0791,-4.37336
-567,-356,-8.25568,4.52905,-0.0037511,0.00449665,0.0040705,0.0061672,-0.00542165,1.18135,0.00669544,0.0159894,657,1380,-8.25566,-4.52901
-560,-356,-8.22803,4.87024,-0.0025181,0.00320058,0.00255716,0.00417724,-0.00349476,1.20596,0.00443527,0.018245,664,1380,-8.228,-4.87028
-553,-356,-8.24261,5.15442,-0.00123813,0.00212844,0.00152289,0.00271509,-0.00182479,1.20309,0.00263785,0.0210509,671,1380,-8.24263,-5.15441
-546,-356,-8.28491,5.43323,0.000112589,0.00125695,0.000903962,0.0017546,-0.000385061,1.06755,0.00131699,0.0228256,678,1380,-8.28489,-5.43317
-539,-356,-8.28259,5.77832,0.00145487,0.000620855,0.000586138,0.0017572,0.00031852,0.476214,0.00108105,0.0155334,685,1380,-8.28258,-5.77836
-532,-356,-8.28491,6.10864,0.00284263,0.000140472,0.00056782,0.0029571,2.60016e-05,0.198929,0.00196279,0.0146156,692,1380,-8.28493,-6.10861
-525,-356,-8.27838,6.42493,0.00430186,-9.37028e-05,0.00100397,0.00452032,-0.000312156,0.214251,0.0031228,0.0127389,699,1380,-8.27835,-6.42489
-518,-356,-8.26227,6.73914,0.00577195,-0.000420731,0.00130693,0.00603647,-0.000685252,0.199701,0.00427109,0.0119658,706,1380,-8.26224,-6.73919
-511,-356,-8.10577,7.09021,0.00755778,-0.000836221,0.00120845,0.00772829,-0.00100673,0.140174,0.00551846,0.0286532,713,1380,-8.10576,-7.09018
-504,-356,-7.93195,7.51721,0,0,0,0,0,0,0,-1,720,1380,-7.93196,-7.51718
-497,-356,-5.68604,4.96387,0,0,0,0,0,0,0,-1,727,1380,-5.68605,-4.96385
-490,-356,-7.95288,5.5625,0,0,0,0,0,0,0,-1,734,1380,-7.95285,-5.56246
-483,-356,-7.2627,4.07446,0,0,0,0,0,0,0,-1,741,1380,-7.2627,-4.07441
-476,-356,-5.1936,4.16016,0,0,0,0,0,0,0,-1,748,1380,-5.1936,-4.16012
-469,-356,-10.0883,0.536011,0,0,0,0,0,0,0,-1,755,1380,-10.0883,-0.535989
-462,-356,-12.3481,-0.215698,0,0,0,0,0,0,0,-1,762,1380,-12.3481,0.215641
-455,-356,-13.1367,-0.264648,0,0,0,0,0,0,0,-1,769,1380,-13.1367,0.264647
-448,-356,-13.9116,-0.310181,0,0,0,0,0,0,0,-1,776,1380,-13.9115,0.310207
-441,-356,-13.1602,3.05603,0,0,0,0,0,0,0,-1,783,1380,-13.1602,-3.05609
-434,-356,0,0,0,0,0,0,0,0,0,-1,790,1380,0,0
-427,-356,0,0,0,0,0,0,0,0,0,-1,797,1380,0,0
-420,-356,0,0,0,0,0,0,0,0,0,-1,804,1380,0,0
-413,-356,0,0,0,0,0,0,0,0,0,-1,811,1380,0,0
-406,-356,0,0,0,0,0,0,0,0,0,-1,818,1380,0,0
-399,-356,0,0,0,0,0,0,0,0,0,-1,825,1380,0,0
-392,-356,0,0,0,0,0,0,0,0,0,-1,832,1380,0,0
-385,-356,0,0,0,0,0,0,0,0,0,-1,839,1380,0,0
-378,-356,0,0,0,0,0,0,0,0,0,-1,846,1380,0,0
-371,-356,0,0,0,0,0,0,0,0,0,-1,853,1380,0,0
-364,-356,0,0,0,0,0,0,0,0,0,-1,860,1380,0,0
-357,-356,0,0,0,0,0,0,0,0,0,-1,867,1380,0,0
-350,-356,0,0,0,0,0,0,0,0,0,-1,874,1380,0,0
-343,-356,0,0,0,0,0,0,0,0,0,-1,881,1380,0,0
-336,-356,0,0,0,0,0,0,0,0,0,-1,888,1380,0,0
-329,-356,0,0,0,0,0,0,0,0,0,-1,895,1380,0,0
-322,-356,0,0,0,0,0,0,0,0,0,-1,902,1380,0,0
-315,-356,0,0,0,0,0,0,0,0,0,-1,909,1380,0,0
-308,-356,0,0,0,0,0,0,0,0,0,-1,916,1380,0,0
-301,-356,0,0,0,0,0,0,0,0,0,-1,923,1380,0,0
-294,-356,0,0,0,0,0,0,0,0,0,-1,930,1380,0,0
-287,-356,0,0,0,0,0,0,0,0,0,-1,937,1380,0,0
-280,-356,0,0,0,0,0,0,0,0,0,-1,944,1380,0,0
-273,-356,0,0,0,0,0,0,0,0,0,-1,951,1380,0,0
-266,-356,0,0,0,0,0,0,0,0,0,-1,958,1380,0,0
-259,-356,0,0,0,0,0,0,0,0,0,-1,965,1380,0,0
-252,-356,0,0,0,0,0,0,0,0,0,-1,972,1380,0,0
-245,-356,0,0,0,0,0,0,0,0,0,-1,979,1380,0,0
-238,-356,0,0,0,0,0,0,0,0,0,-1,986,1380,0,0
-231,-356,0,0,0,0,0,0,0,0,0,-1,993,1380,0,0
-224,-356,0,0,0,0,0,0,0,0,0,-1,1000,1380,0,0
-217,-356,0,0,0,0,0,0,0,0,0,-1,1007,1380,0,0
-210,-356,0,0,0,0,0,0,0,0,0,-1,1014,1380,0,0
-203,-356,0,0,0,0,0,0,0,0,0,-1,1021,1380,0,0
-196,-356,0,0,0,0,0,0,0,0,0,-1,1028,1380,0,0
-189,-356,0,0,0,0,0,0,0,0,0,-1,1035,1380,0,0
-182,-356,0,0,0,0,0,0,0,0,0,-1,1042,1380,0,0
-175,-356,0,0,0,0,0,0,0,0,0,-1,1049,1380,0,0
-168,-356,0,0,0,0,0,0,0,0,0,-1,1056,1380,0,0
-161,-356,0,0,0,0,0,0,0,0,0,-1,1063,1380,0,0
-154,-356,0,0,0,0,0,0,0,0,0,-1,1070,1380,0,0
-147,-356,0,0,0,0,0,0,0,0,0,-1,1077,1380,0,0
-140,-356,0,0,0,0,0,0,0,0,0,-1,1084,1380,0,0
-133,-356,0,0,0,0,0,0,0,0,0,-1,1091,1380,0,0
-126,-356,0,0,0,0,0,0,0,0,0,-1,1098,1380,0,0
-119,-356,0,0,0,0,0,0,0,0,0,-1,1105,1380,0,0
-112,-356,0,0,0,0,0,0,0,0,0,-1,1112,1380,0,0
-105,-356,0,0,0,0,0,0,0,0,0,-1,1119,1380,0,0
-98,-356,0,0,0,0,0,0,0,0,0,-1,1126,1380,0,0
-91,-356,0,0,0,0,0,0,0,0,0,-1,1133,1380,0,0
-84,-356,0,0,0,0,0,0,0,0,0,-1,1140,1380,0,0
-77,-356,0,0,0,0,0,0,0,0,0,-1,1147,1380,0,0
-70,-356,0,0,0,0,0,0,0,0,0,-1,1154,1380,0,0
-63,-356,0,0,0,0,0,0,0,0,0,-1,1161,1380,0,0
-56,-356,0,0,0,0,0,0,0,0,0,-1,1168,1380,0,0
-49,-356,0,0,0,0,0,0,0,0,0,-1,1175,1380,0,0
-42,-356,0,0,0,0,0,0,0,0,0,-1,1182,1380,0,0
-35,-356,0,0,0,0,0,0,0,0,0,-1,1189,1380,0,0
-28,-356,0,0,0,0,0,0,0,0,0,-1,1196,1380,0,0
-21,-356,0,0,0,0,0,0,0,0,0,-1,1203,1380,0,0
-14,-356,0,0,0,0,0,0,0,0,0,-1,1210,1380,0,0
-7,-356,0,0,0,0,0,0,0,0,0,-1,1217,1380,0,0
0,-356,0,0,0,0,0,0,0,0,0,-1,1224,1380,0,0
7,-356,0,0,0,0,0,0,0,0,0,-1,1231,1380,0,0
14,-356,0,0,0,0,0,0,0,0,0,-1,1238,1380,0,0
21,-356,0,0,0,0,0,0,0,0,0,-1,1245,1380,0,0
28,-356,0,0,0,0,0,0,0,0,0,-1,1252,1380,0,0
35,-356,0,0,0,0,0,0,0,0,0,-1,1259,1380,0,0
42,-356,0,0,0,0,0,0,0,0,0,-1,1266,1380,0,0
49,-356,0,0,0,0,0,0,0,0,0,-1,1273,1380,0,0
56,-356,0,0,0,0,0,0,0,0,0,-1,1280,1380,0,0
63,-356,0,0,0,0,0,0,0,0,0,-1,1287,1380,0,0
70,-356,0,0,0,0,0,0,0,0,0,-1,1294,1380,0,0
77,-356,0,0,0,0,0,0,0,0,0,-1,1301,1380,0,0
84,-356,0,0,0,0,0,0,0,0,0,-1,1308,1380,0,0
91,-356,0,0,0,0,0,0,0,0,0,-1,1315,1380,0,0
98,-356,0,0,0,0,0,0,0,0,0,-1,1322,1380,0,0
105,-356,0,0,0,0,0,0,0,0,0,-1,1329,1380,0,0
112,-356,0,0,0,0,0,0,0,0,0,-1,1336,1380,0,0
119,-356,0,0,0,0,0,0,0,0,0,-1,1343,1380,0,0
126,-356,0,0,0,0,0,0,0,0,0,-1,1350,1380,0,0
133,-356,0,0,0,0,0,0,0,0,0,-1,1357,1380,0,0
140,-356,0,0,0,0,0,0,0,0,0,-1,1364,1380,0,0
147,-356,0,0,0,0,0,0,0,0,0,-1,1371,1380,0,0
154,-356,0,0,0,0,0,0,0,0,0,-1,1378,1380,0,0
161,-356,0,0,0,0,0,0,0,0,0,-1,1385,1380,0,0
168,-356,0,0,0,0,0,0,0,0,0,-1,1392,1380,0,0
175,-356,0,0,0,0,0,0,0,0,0,-1,1399,1380,0,0
182,-356,0,0,0,0,0,0,0,0,0,-1,1406,1380,0,0
189,-356,0,0,0,0,0,0,0,0,0,-1,1413,1380,0,0
196,-356,0,0,0,0,0,0,0,0,0,-1,1420,1380,0,0
203,-356,0,0,0,0,0,0,0,0,0,-1,1427,1380,0,0
210,-356,0,0,0,0,0,0,0,0,0,-1,1434,1380,0,0
217,-356,0,0,0,0,0,0,0,0,0,-1,1441,1380,0,0
224,-356,0,0,0,0,0,0,0,0,0,-1,1448,1380,0,0
231,-356,0,0,0,0,0,0,0,0,0,-1,1455,1380,0,0
238,-356,0,0,0,0,0,0,0,0,0,-1,1462,1380,0,0
245,-356,0,0,0,0,0,0,0,0,0,-1,1469,1380,0,0
252,-356,0,0,0,0,0,0,0,0,0,-1,1476,1380,0,0
259,-356,0,0,0,0,0,0,0,0,0,-1,1483,1380,0,0
266,-356,0,0,0,0,0,0,0,0,0,-1,1490,1380,0,0
273,-356,0,0,0,0,0,0,0,0,0,-1,1497,1380,0,0
280,-356,0,0,0,0,0,0,0,0,0,-1,1504,1380,0,0
287,-356,0,0,0,0,0,0,0,0,0,-1,1511,1380,0,0
294,-356,0,0,0,0,0,0,0,0,0,-1,1518,1380,0,0
301,-356,0,0,0,0,0,0,0,0,0,-1,1525,1380,0,0
308,-356,0,0,0,0,0,0,0,0,0,-1,1532,1380,0,0
315,-356,0,0,0,0,0,0,0,0,0,-1,1539,1380,0,0
322,-356,0,0,0,0,0,0,0,0,0,-1,1546,1380,0,0
329,-356,0,0,0,0,0,0,0,0,0,-1,1553,1380,0,0
336,-356,0,0,0,0,0,0,0,0,0,-1,1560,1380,0,0
343,-356,0,0,0,0,0,0,0,0,0,-1,1567,1380,0,0
350,-356,0,0,0,0,0,0,0,0,0,-1,1574,1380,0,0
357,-356,0,0,0,0,0,0,0,0,0,-1,1581,1380,0,0
364,-356,0,0,0,0,0,0,0,0,0,-1,1588,1380,0,0
371,-356,0,0,0,0,0,0,0,0,0,-1,1595,1380,0,0
378,-356,0,0,0,0,0,0,0,0,0,-1,1602,1380,0,0
385,-356,0,0,0,0,0,0,0,0,0,-1,1609,1380,0,0
392,-356,0,0,0,0,0,0,0,0,0,-1,1616,1380,0,0
399,-356,0,0,0,0,0,0,0,0,0,-1,1623,1380,0,0
406,-356,0,0,0,0,0,0,0,0,0,-1,1630,1380,0,0
413,-356,0,0,0,0,0,0,0,0,0,-1,1637,1380,0,0
420,-356,0,0,0,0,0,0,0,0,0,-1,1644,1380,0,0
427,-356,0,0,0,0,0,0,0,0,0,-1,1651,1380,0,0
434,-356,0,0,0,0,0,0,0,0,0,-1,1658,1380,0,0
441,-356,0,0,0,0,0,0,0,0,0,-1,1665,1380,0,0
448,-356,0,0,0,0,0,0,0,0,0,-1,1672,1380,0,0
455,-356,0,0,0,0,0,0,0,0,0,-1,1679,1380,0,0
462,-356,0,0,0,0,0,0,0,0,0,-1,1686,1380,0,0
469,-356,0,0,0,0,0,0,0,0,0,-1,1693,1380,0,0
476,-356,0,0,0,0,0,0,0,0,0,-1,1700,1380,0,0
483,-356,0,0,0,0,0,0,0,0,0,-1,1707,1380,0,0
490,-356,0,0,0,0,0,0,0,0,0,-1,1714,1380,0,0
497,-356,0,0,0,0,0,0,0,0,0,-1,1721,1380,0,0
504,-356,0,0,0,0,0,0,0,0,0,-1,1728,1380,0,0
511,-356,0,0,0,0,0,0,0,0,0,-1,1735,1380,0,0
518,-356,0,0,0,0,0,0,0,0,0,-1,1742,1380,0,0
525,-356,0,0,0,0,0,0,0,0,0,-1,1749,1380,0,0
532,-356,0,0,0,0,0,0,0,0,0,-1,1756,1380,0,0
539,-356,0,0,0,0,0,0,0,0,0,-1,1763,1380,0,0
546,-356,0,0,0,0,0,0,0,0,0,-1,1770,1380,0,0
553,-356,0,0,0,0,0,0,0,0,0,-1,1777,1380,0,0
560,-356,29.2883,3.20142,0,0,0,0,0,0,0,-1,1784,1380,29.2883,-3.20136
567,-356,29.7371,3.16394,0.0815996,0.0122816,-0.0268541,0.0907857,0.00309551,-0.329595,0.0595188,0.0494218,1791,1380,29.737,-3.16396
574,-356,30.301,2.98425,0.0543639,0.00256789,-0.0201509,0.0612799,-0.00434819,-0.330618,0.0423771,0.0451162,1798,1380,30.301,-2.98422
581,-356,30.2283,3.59241,0,0,0,0,0,0,0,-1,1805,1380,30.2283,-3.59246
588,-356,29.3345,3.31543,0,0,0,0,0,0,0,-1,1812,1380,29.3345,-3.31539
595,-356,27.8041,3.99133,0.0127381,-0.00887754,-0.0101379,0.0167487,-0.0128881,-0.376712,0.0171591,0.046824,1819,1380,27.804,-3.99128
602,-356,26.4584,4.25854,0,0,0,0,0,0,0,-1,1826,1380,26.4584,-4.25854
609,-356,24.8436,4.71606,0,0,0,0,0,0,0,-1,1833,1380,24.8437,-4.716
616,-356,20.2087,3.72729,0,0,0,0,0,0,0,-1,1840,1380,20.2088,-3.72729
623,-356,16.1803,1.07532,0,0,0,0,0,0,0,-1,1847,1380,16.1803,-1.07529
630,-356,16.4138,6.91553,0,0,0,0,0,0,0,-1,1854,1380,16.4138,-6.9155
637,-356,17.694,8.927,0,0,0,0,0,0,0,-1,1861,1380,17.694,-8.92696
644,-356,17.8682,9.00281,-0.0104183,-0.014826,0.00669637,-0.00557248,-0.0196719,0.626426,0.0117078,0.0344494,1868,1380,17.8682,-9.00276
651,-356,17.9508,8.60583,-0.00458197,-0.0101215,0.0055766,-0.00112516,-0.0135783,0.554907,0.00870141,0.0160708,1875,1380,17.9508,-8.60585
658,-356,17.9235,8.30518,-0.000592917,-0.00665012,0.00414269,0.00151018,-0.00875321,0.46976,0.00639855,0.0137624,1882,1380,17.9234,-8.30512
665,-356,17.929,8.09277,0.00104533,-0.00317134,0.00206242,0.00188634,-0.00401235,0.387194,0.00347856,0.0132082,1889,1380,17.929,-8.09279
672,-356,17.9266,7.84045,0.000705291,-0.00129746,0.000817271,0.000996465,-0.00158864,0.342255,0.00150551,0.014468,1896,1380,17.9266,-7.8405
679,-356,17.934,7.56128,0.0003626,-0.00072626,0.000658297,0.000672429,-0.00103609,0.439896,0.000993834,0.0166279,1903,1380,17.934,-7.56127
686,-356,17.9318,7.29138,-0.000126785,-0.000544278,0.000870724,0.000559865,-0.00123093,0.667749,0.00105784,0.015919,1910,1380,17.9317,-7.29138
693,-356,17.937,7.01941,-0.000665992,-0.000521523,0.00115506,0.000563558,-0.00175107,0.816626,0.00139375,0.0137103,1917,1380,17.937,-7.01946
700,-356,17.934,6.72852,-0.00132537,-0.000459718,0.00149196,0.000660929,-0.00244602,0.926576,0.00188991,0.0189458,1924,1380,17.9339,-6.7285
707,-356,17.9541,6.44702,0,0,0,0,0,0,0,-1,1931,1380,17.9541,-6.44702
714,-356,17.8469,5.70984,0,0,0,0,0,0,0,-1,1938,1380,17.8469,-5.70986
721,-356,17.2948,4.1958,0,0,0,0,0,0,0,-1,1945,1380,17.2948,-4.19584
728,-356,19.1846,2.31519,0,0,0,0,0,0,0,-1,1952,1380,19.1846,-2.31514
735,-356,20.0731,2.50842,0,0,0,0,0,0,0,-1,1959,1380,20.0731,-2.50844
742,-356,21.0111,2.43762,0,0,0,0,0,0,0,-1,1966,1380,21.0112,-2.43762
749,-356,22.1411,1.83276,0,0,0,0,0,0,0,-1,1973,1380,22.1411,-1.83275
756,-356,0,0,0,0,0,0,0,0,0,-1,1980,1380,0,0
763,-356,0,0,0,0,0,0,0,0,0,-1,1987,1380,0,0
770,-356,0,0,0,0,0,0,0,0,0,-1,1994,1380,0,0
777,-356,0,0,0,0,0,0,0,0,0,-1,2001,1380,0,0
784,-356,0,0,0,0,0,0,0,0,0,-1,2008,1380,0,0
791,-356,0,0,0,0,0,0,0,0,0,-1,2015,1380,0,0
798,-356,0,0,0,0,0,0,0,0,0,-1,2022,1380,0,0
805,-356,0,0,0,0,0,0,0,0,0,-1,2029,1380,0,0
812,-356,0,0,0,0,0,0,0,0,0,-1,2036,1380,0,0
-700,-363,0,0,0,0,0,0,0,0,0,-1,524,1387,0,0
-693,-363,0,0,0,0,0,0,0,0,0,-1,531,1387,0,0
-686,-363,0,0,0,0,0,0,0,0,0,-1,538,1387,0,0
-679,-363,0,0,0,0,0,0,0,0,0,-1,545,1387,0,0
-672,-363,0,0,0,0,0,0,0,0,0,-1,552,1387,0,0
-665,-363,0,0,0,0,0,0,0,0,0,-1,559,1387,0,0
-658,-363,0,0,0,0,0,0,0,0,0,-1,566,1387,0,0
-651,-363,0,0,0,0,0,0,0,0,0,-1,573,1387,0,0
-644,-363,0,0,0,0,0,0,0,0,0,-1,580,1387,0,0
-637,-363,0,0,0,0,0,0,0,0,0,-1,587,1387,0,0
-630,-363,0,0,0,0,0,0,0,0,0,-1,594,1387,0,0
-623,-363,-9.67566,-5.91846,0,0,0,0,0,0,0,-1,601,1387,-9.67563,5.91847
-616,-363,-9.02985,-2.98083,0,0,0,0,0,0,0,-1,608,1387,-9.02987,2.98079
-609,-363,-4.90265,0.195679,0,0,0,0,0,0,0,-1,615,1387,-4.90263,-0.195721
-602,-363,-9.65009,3.5321,0,0,0,0,0,0,0,-1,622,1387,-9.65007,-3.53211
-595,-363,-7.42413,3.23181,0,0,0,0,0,0,0,-1,629,1387,-7.42415,-3.23179
-588,-363,-7.44543,3.74268,0,0,0,0,0,0,0,-1,636,1387,-7.44545,-3.74262
-581,-363,-7.59869,4.12866,-0.00463402,0.0138335,0.0149239,0.0221493,-0.0129498,1.06243,0.0204952,0.0398696,643,1387,-7.59868,-4.12861
-574,-363,-7.72009,4.49622,-0.00409915,0.0100427,0.0100071,0.0152249,-0.00928135,1.09297,0.0142867,0.0363627,650,1387,-7.7201,-4.49624
-567,-363,-7.94708,4.5636,-0.00332186,0.00717667,0.0065734,0.0103396,-0.00648475,1.12233,0.00979814,0.024362,657,1387,-7.9471,-4.56363
-560,-363,-7.93549,4.83936,-0.00242689,0.0050359,0.00419793,0.00692108,-0.00431207,1.14871,0.00654351,0.0132403,664,1387,-7.93548,-4.8393
-553,-363,-7.93646,5.16321,-0.0013956,0.00333405,0.00254427,0.0044428,-0.00250434,1.15983,0.00406265,0.0133799,671,1387,-7.93645,-5.16318
-546,-363,-7.96051,5.45874,-0.000235673,0.00200554,0.00150442,0.00276085,-0.000990975,1.10551,0.00224502,0.0133294,678,1387,-7.96049,-5.45868
-539,-363,-7.92816,5.78455,0.000977153,0.00105549,0.000902355,0.00191952,0.000113114,0.807087,0.00124369,0.0147053,685,1387,-7.92816,-5.78454
-532,-363,-7.94159,6.10059,0.00224876,0.000314904,0.000652133,0.00244812,0.000115544,0.296682,0.00159496,0.01296,692,1387,-7.94157,-6.10064
-525,-363,-7.95441,6.41064,0.00368509,1.76792e-05,0.00100284,0.0039414,-0.000238631,0.250227,0.00271065,0.0112344,699,1387,-7.95439,-6.4107
-518,-363,-7.95789,6.7262,0.00514411,-0.000260089,0.00131855,0.00544865,-0.000564635,0.22699,0.00383453,0.00985022,706,1387,-7.95791,-6.72624
-511,-363,-7.90936,7.06799,0.00687572,-0.00101659,0.00121252,0.0070578,-0.00119867,0.149055,0.00515146,0.017374,713,1387,-7.90934,-7.06797
-504,-363,-7.69586,7.40784,0,0,0,0,0,0,0,-1,720,1387,-7.69587,-7.40788
-497,-363,-7.18842,7.29944,0,0,0,0,0,0,0,-1,727,1387,-7.18839,-7.29945
-490,-363,-5.42413,4.6958,0,0,0,0,0,0,0,-1,734,1387,-5.42412,-4.69583
-483,-363,-6.28375,4.1394,0,0,0,0,0,0,0,-1,741,1387,-6.28374,-4.13944
-476,-363,-5.83807,4.31018,0,0,0,0,0,0,0,-1,748,1387,-5.8381,-4.31013
-469,-363,-10.7125,0.697754,0,0,0,0,0,0,0,-1,755,1387,-10.7125,-0.697811
-462,-363,-9.55951,-0.0830078,0,0,0,0,0,0,0,-1,762,1387,-9.55949,0.0830163
-455,-363,-13.1008,-0.290894,0,0,0,0,0,0,0,-1,769,1387,-13.1008,0.290921
-448,-363,-11.7324,2.46606,0,0,0,0,0,0,0,-1,776,1387,-11.7324,-2.46605
-441,-363,-12.4464,2.5354,0,0,0,0,0,0,0,-1,783,1387,-12.4463,-2.53537
-434,-363,-13.6918,2.14661,0,0,0,0,0,0,0,-1,790,1387,-13.6918,-2.14662
-427,-363,0,0,0,0,0,0,0,0,0,-1,797,1387,0,0
-420,-363,0,0,0,0,0,0,0,0,0,-1,804,1387,0,0
-413,-363,0,0,0,0,0,0,0,0,0,-1,811,1387,0,0
-406,-363,0,0,0,0,0,0,0,0,0,-1,818,1387,0,0
-399,-363,0,0,0,0,0,0,0,0,0,-1,825,1387,0,0
-392,-363,0,0,0,0,0,0,0,0,0,-1,832,1387,0,0
-385,-363,0,0,0,0,0,0,0,0,0,-1,839,1387,0,0
-378,-363,0,0,0,0,0,0,0,0,0,-1,846,1387,0,0
-371,-363,0,0,0,0,0,0,0,0,0,-1,853,1387,0,0
-364,-363,0,0,0,0,0,0,0,0,0,-1,860,1387,0,0
-357,-363,0,0,0,0,0,0,0,0,0,-1,867,1387,0,0
-350,-363,0,0,0,0,0,0,0,0,0,-1,874,1387,0,0
-343,-363,0,0,0,0,0,0,0,0,0,-1,881,1387,0,0
-336,-363,0,0,0,0,0,0,0,0,0,-1,888,1387,0,0
-329,-363,0,0,0,0,0,0,0,0,0,-1,895,1387,0,0
-322,-363,0,0,0,0,0,0,0,0,0,-1,902,1387,0,0
-315,-363,0,0,0,0,0,0,0,0,0,-1,909,1387,0,0
-308,-363,0,0,0,0,0,0,0,0,0,-1,916,1387,0,0
-301,-363,0,0,0,0,0,0,0,0,0,-1,923,1387,0,0
-294,-363,0,0,0,0,0,0,0,0,0,-1,930,1387,0,0
-287,-363,0,0,0,0,0,0,0,0,0,-1,937,1387,0,0
-280,-363,0,0,0,0,0,0,0,0,0,-1,944,1387,0,0
-273,-363,0,0,0,0,0,0,0,0,0,-1,951,1387,0,0
-266,-363,0,0,0,0,0,0,0,0,0,-1,958,1387,0,0
-259,-363,0,0,0,0,0,0,0,0,0,-1,965,1387,0,0
-252,-363,0,0,0,0,0,0,0,0,0,-1,972,1387,0,0
-245,-363,0,0,0,0,0,0,0,0,0,-1,979,1387,0,0
-238,-363,0,0,0,0,0,0,0,0,0,-1,986,1387,0,0
-231,-363,0,0,0,0,0,0,0,0,0,-1,993,1387,0,0
-224,-363,0,0,0,0,0,0,0,0,0,-1,1000,1387,0,0
-217,-363,0,0,0,0,0,0,0,0,0,-1,1007,1387,0,0
-210,-363,0,0,0,0,0,0,0,0,0,-1,1014,1387,0,0
-203,-363,0,0,0,0,0,0,0,0,0,-1,1021,1387,0,0
-196,-363,0,0,0,0,0,0,0,0,0,-1,1028,1387,0,0
-189,-363,0,0,0,0,0,0,0,0,0,-1,1035,1387,0,0
-182,-363,0,0,0,0,0,0,0,0,0,-1,1042,1387,0,0
-175,-363,0,0,0,0,0,0,0,0,0,-1,1049,1387,0,0
-168,-363,0,0,0,0,0,0,0,0,0,-1,1056,1387,0,0
-161,-363,0,0,0,0,0,0,0,0,0,-1,1063,1387,0,0
-154,-363,0,0,0,0,0,0,0,0,0,-1,1070,1387,0,0
-147,-363,0,0,0,0,0,0,0,0,0,-1,1077,1387,0,0
-140,-363,0,0,0,0,0,0,0,0,0,-1,1084,1387,0,0
-133,-363,0,0,0,0,0,0,0,0,0,-1,1091,1387,0,0
-126,-363,0,0,0,0,0,0,0,0,0,-1,1098,1387,0,0
-119,-363,0,0,0,0,0,0,0,0,0,-1,1105,1387,0,0
-112,-363,0,0,0,0,0,0,0,0,0,-1,1112,1387,0,0
-105,-363,0,0,0,0,0,0,0,0,0,-1,1119,1387,0,0
-98,-363,0,0,0,0,0,0,0,0,0,-1,1126,1387,0,0
-91,-363,0,0,0,0,0,0,0,0,0,-1,1133,1387,0,0
-84,-363,0,0,0,0,0,0,0,0,0,-1,1140,1387,0,0
-77,-363,0,0,0,0,0,0,0,0,0,-1,1147,1387,0,0
-70,-363,0,0,0,0,0,0,0,0,0,-1,1154,1387,0,0
-63,-363,0,0,0,0,0,0,0,0,0,-1,1161,1387,0,0
-56,-363,0,0,0,0,0,0,0,0,0,-1,1168,1387,0,0
-49,-363,0,0,0,0,0,0,0,0,0,-1,1175,1387,0,0
-42,-363,0,0,0,0,0,0,0,0,0,-1,1182,1387,0,0
-35,-363,0,0,0,0,0,0,0,0,0,-1,1189,1387,0,0
-28,-363,0,0,0,0,0,0,0,0,0,-1,1196,1387,0,0
-21,-363,0,0,0,0,0,0,0,0,0,-1,1203,1387,0,0
-14,-363,0,0,0,0,0,0,0,0,0,-1,1210,1387,0,0
-7,-363,0,0,0,0,0,0,0,0,0,-1,1217,1387,0,0
0,-363,0,0,0,0,0,0,0,0,0,-1,1224,1387,0,0
7,-363,0,0,0,0,0,0,0,0,0,-1,1231,1387,0,0
14,-363,0,0,0,0,0,0,0,0,0,-1,1238,1387,0,0
21,-363,0,0,0,0,0,0,0,0,0,-1,1245,1387,0,0
28,-363,0,0,0,0,0,0,0,0,0,-1,1252,1387,0,0
35,-363,0,0,0,0,0,0,0,0,0,-1,1259,1387,0,0
42,-363,0,0,0,0,0,0,0,0,0,-1,1266,1387,0,0
49,-363,0,0,0,0,0,0,0,0,0,-1,1273,1387,0,0
56,-363,0,0,0,0,0,0,0,0,0,-1,1280,1387,0,0
63,-363,0,0,0,0,0,0,0,0,0,-1,1287,1387,0,0
70,-363,0,0,0,0,0,0,0,0,0,-1,1294,1387,0,0
77,-363,0,0,0,0,0,0,0,0,0,-1,1301,1387,0,0
84,-363,0,0,0,0,0,0,0,0,0,-1,1308,1387,0,0
91,-363,0,0,0,0,0,0,0,0,0,-1,1315,1387,0,0
98,-363,0,0,0,0,0,0,0,0,0,-1,1322,1387,0,0
105,-363,0,0,0,0,0,0,0,0,0,-1,1329,1387,0,0
112,-363,0,0,0,0,0,0,0,0,0,-1,1336,1387,0,0
119,-363,0,0,0,0,0,0,0,0,0,-1,1343,1387,0,0
126,-363,0,0,0,0,0,0,0,0,0,-1,1350,1387,0,0
133,-363,0,0,0,0,0,0,0,0,0,-1,1357,1387,0,0
140,-363,0,0,0,0,0,0,0,0,0,-1,1364,1387,0,0
147,-363,0,0,0,0,0,0,0,0,0,-1,1371,1387,0,0
154,-363,0,0,0,0,0,0,0,0,0,-1,1378,1387,0,0
161,-363,0,0,0,0,0,0,0,0,0,-1,1385,1387,0,0
168,-363,0,0,0,0,0,0,0,0,0,-1,1392,1387,0,0
175,-363,0,0,0,0,0,0,0,0,0,-1,1399,1387,0,0
182,-363,0,0,0,0,0,0,0,0,0,-1,1406,1387,0,0
189,-363,0,0,0,0,0,0,0,0,0,-1,1413,1387,0,0
196,-363,0,0,0,0,0,0,0,0,0,-1,1420,1387,0,0
203,-363,0,0,0,0,0,0,0,0,0,-1,1427,1387,0,0
210,-363,0,0,0,0,0,0,0,0,0,-1,1434,1387,0,0
217,-363,0,0,0,0,0,0,0,0,0,-1,1441,1387,0,0
224,-363,0,0,0,0,0,0,0,0,0,-1,1448,1387,0,0
231,-363,0,0,0,0,0,0,0,0,0,-1,1455,1387,0,0
238,-363,0,0,0,0,0,0,0,0,0,-1,1462,1387,0,0
245,-363,0,0,0,0,0,0,0,0,0,-1,1469,1387,0,0
252,-363,0,0,0,0,0,0,0,0,0,-1,1476,1387,0,0
259,-363,0,0,0,0,0,0,0,0,0,-1,1483,1387,0,0
266,-363,0,0,0,0,0,0,0,0,0,-1,1490,1387,0,0
273,-363,0,0,0,0,0,0,0,0,0,-1,1497,1387,0,0
280,-363,0,0,0,0,0,0,0,0,0,-1,1504,1387,0,0
287,-363,0,0,0,0,0,0,0,0,0,-1,1511,1387,0,0
294,-363,0,0,0,0,0,0,0,0,0,-1,1518,1387,0,0
301,-363,0,0,0,0,0,0,0,0,0,-1,1525,1387,0,0
308,-363,0,0,0,0,0,0,0,0,0,-1,1532,1387,0,0
315,-363,0,0,0,0,0,0,0,0,0,-1,1539,1387,0,0
322,-363,0,0,0,0,0,0,0,0,0,-1,1546,1387,0,0
329,-363,0,0,0,0,0,0,0,0,0,-1,1553,1387,0,0
336,-363,0,0,0,0,0,0,0,0,0,-1,1560,1387,0,0
343,-363,0,0,0,0,0,0,0,0,0,-1,1567,1387,0,0
350,-363,0,0,0,0,0,0,0,0,0,-1,1574,1387,0,0
357,-363,0,0,0,0,0,0,0,0,0,-1,1581,1387,0,0
364,-363,0,0,0,0,0,0,0,0,0,-1,1588,1387,0,0
371,-363,0,0,0,0,0,0,0,0,0,-1,1595,1387,0,0
378,-363,0,0,0,0,0,0,0,0,0,-1,1602,1387,0,0
385,-363,0,0,0,0,0,0,0,0,0,-1,1609,1387,0,0
392,-363,0,0,0,0,0,0,0,0,0,-1,1616,1387,0,0
399,-363,0,0,0,0,0,0,0,0,0,-1,1623,1387,0,0
406,-363,0,0,0,0,0,0,0,0,0,-1,1630,1387,0,0
413,-363,0,0,0,0,0,0,0,0,0,-1,1637,1387,0,0
420,-363,0,0,0,0,0,0,0,0,0,-1,1644,1387,0,0
427,-363,0,0,0,0,0,0,0,0,0,-1,1651,1387,0,0
434,-363,0,0,0,0,0,0,0,0,0,-1,1658,1387,0,0
441,-363,0,0,0,0,0,0,0,0,0,-1,1665,1387,0,0
448,-363,0,0,0,0,0,0,0,0,0,-1,1672,1387,0,0
455,-363,0,0,0,0,0,0,0,0,0,-1,1679,1387,0,0
462,-363,0,0,0,0,0,0,0,0,0,-1,1686,1387,0,0
469,-363,0,0,0,0,0,0,0,0,0,-1,1693,1387,0,0
476,-363,0,0,0,0,0,0,0,0,0,-1,1700,1387,0,0
483,-363,0,0,0,0,0,0,0,0,0,-1,1707,1387,0,0
490,-363,0,0,0,0,0,0,0,0,0,-1,1714,1387,0,0
497,-363,0,0,0,0,0,0,0,0,0,-1,1721,1387,0,0
504,-363,0,0,0,0,0,0,0,0,0,-1,1728,1387,0,0
511,-363,0,0,0,0,0,0,0,0,0,-1,1735,1387,0,0
518,-363,0,0,0,0,0,0,0,0,0,-1,1742,1387,0,0
525,-363,0,0,0,0,0,0,0,0,0,-1,1749,1387,0,0
532,-363,0,0,0,0,0,0,0,0,0,-1,1756,1387,0,0
539,-363,0,0,0,0,0,0,0,0,0,-1,1763,1387,0,0
546,-363,0,0,0,0,0,0,0,0,0,-1,1770,1387,0,0
553,-363,28.4047,3.77527,0,0,0,0,0,0,0,-1,1777,1387,28.4047,-3.7753
560,-363,29.1158,3.36084,0.12389,0.0164033,-0.0272673,0.130412,0.00988185,-0.234759,0.0838416,0.0450424,1784,1387,29.1158,-3.36087
567,-363,29.92,3.07788,0.0891675,0.0103396,-0.0239905,0.0958947,0.00361243,-0.273388,0.0627603,0.0452488,1791,1387,29.9201,-3.07784
574,-363,30.7468,2.93835,0,0,0,0,0,0,0,-1,1798,1387,30.7468,-2.93833
581,-363,29.842,3.3739,0,0,0,0,0,0,0,-1,1805,1387,29.842,-3.37394
588,-363,28.5985,4.30762,0,0,0,0,0,0,0,-1,1812,1387,28.5986,-4.30761
595,-363,27.2341,4.89368,0,0,0,0,0,0,0,-1,1819,1387,27.2341,-4.89372
602,-363,25.7437,5.33667,0,0,0,0,0,0,0,-1,1826,1387,25.7437,-5.33667
609,-363,17.3979,1.55103,0,0,0,0,0,0,0,-1,1833,1387,17.3979,-1.55098
616,-363,16.229,1.08704,0,0,0,0,0,0,0,-1,1840,1387,16.229,-1.08706
623,-363,15.7283,7.16663,0,0,0,0,0,0,0,-1,1847,1387,15.7282,-7.16665
630,-363,17.2101,9.22913,0,0,0,0,0,0,0,-1,1854,1387,17.2101,-9.22915
637,-363,17.3755,9.05969,-0.0117557,-0.0132141,0.00437665,-0.00804793,-0.0169219,0.702848,0.00977374,0.0454669,1861,1387,17.3755,-9.05967
644,-363,17.6407,8.92175,-0.00680985,-0.00984892,0.00419491,-0.00386774,-0.012791,0.611633,0.00757474,0.0126216,1868,1387,17.6407,-8.92181
651,-363,17.6643,8.60791,-0.0017808,-0.00576947,0.00294959,-0.000214596,-0.00733567,0.488132,0.00482051,0.0113653,1875,1387,17.6643,-8.60789
658,-363,17.6523,8.32874,0.00063512,-0.00361604,0.00190841,0.00136613,-0.00434705,0.365807,0.00344492,0.0116513,1882,1387,17.6524,-8.32868
665,-363,17.6461,8.08203,0.00138253,-0.00175884,0.000904742,0.00162447,-0.00200078,0.261299,0.00209679,0.0113692,1889,1387,17.6461,-8.08199
672,-363,17.6587,7.83008,0.000919576,-0.000871075,0.000527592,0.00106346,-0.00101496,0.266248,0.00120009,0.0130421,1896,1387,17.6587,-7.83002
679,-363,17.6735,7.5647,0.000467261,-0.000730919,0.000726062,0.000809487,-0.00107314,0.440462,0.00109048,0.0153818,1903,1387,17.6735,-7.56465
686,-363,17.6554,7.28845,-5.37734e-05,-0.000782842,0.00105176,0.000694833,-0.00153145,0.618579,0.00131525,0.0152657,1910,1387,17.6554,-7.28843
693,-363,17.6539,6.99622,-0.000551444,-0.00106262,0.00143377,0.000649346,-0.00226341,0.697194,0.00176565,0.0130666,1917,1387,17.654,-6.99621
700,-363,17.7249,6.66064,-0.00112353,-0.00130044,0.00185979,0.000649912,-0.00307388,0.761635,0.00229675,0.0198822,1924,1387,17.7249,-6.66062
707,-363,17.8518,6.37354,0,0,0,0,0,0,0,-1,1931,1387,17.8518,-6.37354
714,-363,16.5782,5.3147,0,0,0,0,0,0,0,-1,1938,1387,16.5783,-5.31472
721,-363,14.4045,4.51685,0,0,0,0,0,0,0,-1,1945,1387,14.4045,-4.51685
728,-363,19.9756,0.853027,0,0,0,0,0,0,0,-1,1952,1387,19.9756,-0.853059
735,-363,21.4297,1.2981,0,0,0,0,0,0,0,-1,1959,1387,21.4297,-1.29811
742,-363,21.3621,2.79663,0,0,0,0,0,0,0,-1,1966,1387,21.362,-2.7966
749,-363,0,0,0,0,0,0,0,0,0,-1,1973,1387,0,0
756,-363,0,0,0,0,0,0,0,0,0,-1,1980,1387,0,0
763,-363,0,0,0,0,0,0,0,0,0,-1,1987,1387,0,0
770,-363,0,0,0,0,0,0,0,0,0,-1,1994,1387,0,0
777,-363,0,0,0,0,0,0,0,0,0,-1,2001,1387,0,0
784,-363,0,0,0,0,0,0,0,0,0,-1,2008,1387,0,0
791,-363,0,0,0,0,0,0,0,0,0,-1,2015,1387,0,0
798,-363,0,0,0,0,0,0,0,0,0,-1,2022,1387,0,0
805,-363,0,0,0,0,0,0,0,0,0,-1,2029,1387,0,0
812,-363,0,0,0,0,0,0,0,0,0,-1,2036,1387,0,0
-700,-370,0,0,0,0,0,0,0,0,0,-1,524,1394,0,0
-693,-370,0,0,0,0,0,0,0,0,0,-1,531,1394,0,0
-686,-370,0,0,0,0,0,0,0,0,0,-1,538,1394,0,0
-679,-370,0,0,0,0,0,0,0,0,0,-1,545,1394,0,0
-672,-370,0,0,0,0,0,0,0,0,0,-1,552,1394,0,0
-665,-370,0,0,0,0,0,0,0,0,0,-1,559,1394,0,0
-658,-370,0,0,0,0,0,0,0,0,0,-1,566,1394,0,0
-651,-370,0,0,0,0,0,0,0,0,0,-1,573,1394,0,0
-644,-370,0,0,0,0,0,0,0,0,0,-1,580,1394,0,0
-637,-370,0,0,0,0,0,0,0,0,0,-1,587,1394,0,0
-630,-370,0,0,0,0,0,0,0,0,0,-1,594,1394,0,0
-623,-370,-10.1758,-7.10486,0,0,0,0,0,0,0,-1,601,1394,-10.1758,7.10483
-616,-370,-8.85925,-1.61475,0,0,0,0,0,0,0,-1,608,1394,-8.85925,1.61476
-609,-370,-5.39325,0.0421143,0,0,0,0,0,0,0,-1,615,1394,-5.39328,-0.0421372
-602,-370,-10.5386,4.50964,0,0,0,0,0,0,0,-1,622,1394,-10.5386,-4.50963
-595,-370,-7.53284,5.44214,0,0,0,0,0,0,0,-1,629,1394,-7.53284,-5.44216
-588,-370,-7.16327,3.91406,0,0,0,0,0,0,0,-1,636,1394,-7.16329,-3.91412
-581,-370,-7.27582,4.31738,-0.00218279,0.0206403,0.0220898,0.034092,-0.0156345,1.02382,0.0293615,0.0469407,643,1394,-7.27582,-4.31732
-574,-370,-7.42944,4.51147,-0.00254429,0.0149198,0.0150339,0.0235736,-0.011198,1.0485,0.0204948,0.0401658,650,1394,-7.42942,-4.51146
-567,-370,-7.54846,4.65845,-0.00243518,0.0105672,0.00999275,0.0159874,-0.00785542,1.07379,0.01403,0.0296801,657,1394,-7.54844,-4.65845
-560,-370,-7.65576,4.84546,-0.00204756,0.00734611,0.00645563,0.0106327,-0.00533417,1.09989,0.00938615,0.0167632,664,1394,-7.65578,-4.84543
-553,-370,-7.63104,5.16699,-0.00139546,0.00486112,0.00397169,0.00678857,-0.00332291,1.11898,0.00595107,0.0106284,671,1394,-7.63104,-5.16697
-546,-370,-7.60815,5.46704,-0.000525747,0.00297374,0.00234003,0.00414587,-0.00169787,1.10643,0.00347116,0.0132459,678,1394,-7.60815,-5.46706
-539,-370,-7.57935,5.79126,0.000465761,0.00163628,0.00132773,0.00250202,-0.00039998,0.992985,0.00181608,0.016631,685,1394,-7.57936,-5.79125
-532,-370,-7.60931,6.09998,0.00153198,0.0005539,0.000714502,0.00190878,0.000177104,0.485291,0.00121779,0.0201016,692,1394,-7.60929,-6.09991
-525,-370,-7.60938,6.40039,0.00287446,0.00013034,0.000845707,0.00311416,-0.00010936,0.276188,0.0021135,0.0162084,699,1394,-7.60941,-6.40037
-518,-370,-7.63562,6.6947,0.00429018,-0.000113419,0.00112282,0.00455995,-0.000383187,0.23579,0.00317541,0.0119617,706,1394,-7.6356,-6.6947
-511,-370,-7.63226,7.02515,0.00593031,-0.00107579,0.000972223,0.00606272,-0.00120821,0.135361,0.00449896,0.0142699,713,1394,-7.63229,-7.02519
-504,-370,-7.5401,7.3783,0.00755753,-0.00216471,0.000811655,0.00762482,-0.002232,0.0827214,0.005968,0.0300532,720,1394,-7.54008,-7.37827
-497,-370,-7.43274,7.7002,0,0,0,0,0,0,0,-1,727,1394,-7.43272,-7.70017
-490,-370,-5.30695,4.5271,0,0,0,0,0,0,0,-1,734,1394,-5.30698,-4.52704
-483,-370,-6.02997,4.59253,0,0,0,0,0,0,0,-1,741,1394,-6.02994,-4.5925
-476,-370,-6.75293,4.65796,0,0,0,0,0,0,0,-1,748,1394,-6.7529,-4.65795
-469,-370,-10.584,1.14294,0,0,0,0,0,0,0,-1,755,1394,-10.584,-1.14293
-462,-370,-9.54462,0.387207,0,0,0,0,0,0,0,-1,762,1394,-9.5446,-0.387176
-455,-370,-8.50525,-0.36853,0,0,0,0,0,0,0,-1,769,1394,-8.50523,0.368582
-448,-370,-10.9543,2.28833,0,0,0,0,0,0,0,-1,776,1394,-10.9543,-2.28835
-441,-370,-11.8699,1.8313,0,0,0,0,0,0,0,-1,783,1394,-11.8699,-1.83127
-434,-370,-12.7855,1.37415,0,0,0,0,0,0,0,-1,790,1394,-12.7855,-1.37419
-427,-370,0,0,0,0,0,0,0,0,0,-1,797,1394,0,0
-420,-370,0,0,0,0,0,0,0,0,0,-1,804,1394,0,0
-413,-370,0,0,0,0,0,0,0,0,0,-1,811,1394,0,0
-406,-370,0,0,0,0,0,0,0,0,0,-1,818,1394,0,0
-399,-370,0,0,0,0,0,0,0,0,0,-1,825,1394,0,0
-392,-370,0,0,0,0,0,0,0,0,0,-1,832,1394,0,0
-385,-370,0,0,0,0,0,0,0,0,0,-1,839,1394,0,0
-378,-370,0,0,0,0,0,0,0,0,0,-1,846,1394,0,0
-371,-370,0,0,0,0,0,0,0,0,0,-1,853,1394,0,0
-364,-370,0,0,0,0,0,0,0,0,0,-1,860,1394,0,0
-357,-370,0,0,0,0,0,0,0,0,0,-1,867,1394,0,0
-350,-370,0,0,0,0,0,0,0,0,0,-1,874,1394,0,0
-343,-370,0,0,0,0,0,0,0,0,0,-1,881,1394,0,0
-336,-370,0,0,0,0,0,0,0,0,0,-1,888,1394,0,0
-329,-370,0,0,0,0,0,0,0,0,0,-1,895,1394,0,0
-322,-370,0,0,0,0,0,0,0,0,0,-1,902,1394,0,0
-315,-370,0,0,0,0,0,0,0,0,0,-1,909,1394,0,0
-308,-370,0,0,0,0,0,0,0,0,0,-1,916,1394,0,0
-301,-370,0,0,0,0,0,0,0,0,0,-1,923,1394,0,0
-294,-370,0,0,0,0,0,0,0,0,0,-1,930,1394,0,0
-287,-370,0,0,0,0,0,0,0,0,0,-1,937,1394,0,0
-280,-370,0,0,0,0,0,0,0,0,0,-1,944,1394,0,0
-273,-370,0,0,0,0,0,0,0,0,0,-1,951,1394,0,0
-266,-370,0,0,0,0,0,0,0,0,0,-1,958,1394,0,0
-259,-370,0,0,0,0,0,0,0,0,0,-1,965,1394,0,0
-252,-370,0,0,0,0,0,0,0,0,0,-1,972,1394,0,0
-245,-370,0,0,0,0,0,0,0,0,0,-1,979,1394,0,0
-238,-370,0,0,0,0,0,0,0,0,0,-1,986,1394,0,0
-231,-370,0,0,0,0,0,0,0,0,0,-1,993,1394,0,0
-224,-370,0,0,0,0,0,0,0,0,0,-1,1000,1394,0,0
-217,-370,0,0,0,0,0,0,0,0,0,-1,1007,1394,0,0
-210,-370,0,0,0,0,0,0,0,0,0,-1,1014,1394,0,0
-203,-370,0,0,0,0,0,0,0,0,0,-1,1021,1394,0,0
-196,-370,0,0,0,0,0,0,0,0,0,-1,1028,1394,0,0
-189,-370,0,0,0,0,0,0,0,0,0,-1,1035,1394,0,0
-182,-370,0,0,0,0,0,0,0,0,0,-1,1042,1394,0,0
-175,-370,0,0,0,0,0,0,0,0,0,-1,1049,1394,0,0
-168,-370,0,0,0,0,0,0,0,0,0,-1,1056,1394,0,0
-161,-370,0,0,0,0,0,0,0,0,0,-1,1063,1394,0,0
-154,-370,0,0,0,0,0,0,0,0,0,-1,1070,1394,0,0
-147,-370,0,0,0,0,0,0,0,0,0,-1,1077,1394,0,0
-140,-370,0,0,0,0,0,0,0,0,0,-1,1084,1394,0,0
-133,-370,0,0,0,0,0,0,0,0,0,-1,1091,1394,0,0
-126,-370,0,0,0,0,0,0,0,0,0,-1,1098,1394,0,0
-119,-370,0,0,0,0,0,0,0,0,0,-1,1105,1394,0,0
-112,-370,0,0,0,0,0,0,0,0,0,-1,1112,1394,0,0
-105,-370,0,0,0,0,0,0,0,0,0,-1,1119,1394,0,0
-98,-370,0,0,0,0,0,0,0,0,0,-1,1126,1394,0,0
-91,-370,0,0,0,0,0,0,0,0,0,-1,1133,1394,0,0
-84,-370,0,0,0,0,0,0,0,0,0,-1,1140,1394,0,0
-77,-370,0,0,0,0,0,0,0,0,0,-1,1147,1394,0,0
-70,-370,0,0,0,0,0,0,0,0,0,-1,1154,1394,0,0
-63,-370,0,0,0,0,0,0,0,0,0,-1,1161,1394,0,0
-56,-370,0,0,0,0,0,0,0,0,0,-1,1168,1394,0,0
-49,-370,0,0,0,0,0,0,0,0,0,-1,1175,1394,0,0
-42,-370,0,0,0,0,0,0,0,0,0,-1,1182,1394,0,0
-35,-370,0,0,0,0,0,0,0,0,0,-1,1189,1394,0,0
-28,-370,0,0,0,0,0,0,0,0,0,-1,1196,1394,0,0
-21,-370,0,0,0,0,0,0,0,0,0,-1,1203,1394,0,0
-14,-370,0,0,0,0,0,0,0,0,0,-1,1210,1394,0,0
-7,-370,0,0,0,0,0,0,0,0,0,-1,1217,1394,0,0
0,-370,0,0,0,0,0,0,0,0,0,-1,1224,1394,0,0
7,-370,0,0,0,0,0,0,0,0,0,-1,1231,1394,0,0
14,-370,0,0,0,0,0,0,0,0,0,-1,1238,1394,0,0
21,-370,0,0,0,0,0,0,0,0,0,-1,1245,1394,0,0
28,-370,0,0,0,0,0,0,0,0,0,-1,1252,1394,0,0
35,-370,0,0,0,0,0,0,0,0,0,-1,1259,1394,0,0
42,-370,0,0,0,0,0,0,0,0,0,-1,1266,1394,0,0
49,-370,0,0,0,0,0,0,0,0,0,-1,1273,1394,0,0
56,-370,0,0,0,0,0,0,0,0,0,-1,1280,1394,0,0
63,-370,0,0,0,0,0,0,0,0,0,-1,1287,1394,0,0
70,-370,0,0,0,0,0,0,0,0,0,-1,1294,1394,0,0
77,-370,0,0,0,0,0,0,0,0,0,-1,1301,1394,0,0
84,-370,0,0,0,0,0,0,0,0,0,-1,1308,1394,0,0
91,-370,0,0,0,0,0,0,0,0,0,-1,1315,1394,0,0
98,-370,0,0,0,0,0,0,0,0,0,-1,1322,1394,0,0
105,-370,0,0,0,0,0,0,0,0,0,-1,1329,1394,0,0
112,-370,0,0,0,0,0,0,0,0,0,-1,1336,1394,0,0
119,-370,0,0,0,0,0,0,0,0,0,-1,1343,1394,0,0
126,-370,0,0,0,0,0,0,0,0,0,-1,1350,1394,0,0
133,-370,0,0,0,0,0,0,0,0,0,-1,1357,1394,0,0
140,-370,0,0,0,0,0,0,0,0,0,-1,1364,1394,0,0
147,-370,0,0,0,0,0,0,0,0,0,-1,1371,1394,0,0
154,-370,0,0,0,0,0,0,0,0,0,-1,1378,1394,0,0
161,-370,0,0,0,0,0,0,0,0,0,-1,1385,1394,0,0
168,-370,0,0,0,0,0,0,0,0,0,-1,1392,1394,0,0
175,-370,0,0,0,0,0,0,0,0,0,-1,1399,1394,0,0
182,-370,0,0,0,0,0,0,0,0,0,-1,1406,1394,0,0
189,-370,0,0,0,0,0,0,0,0,0,-1,1413,1394,0,0
196,-370,0,0,0,0,0,0,0,0,0,-1,1420,1394,0,0
203,-370,0,0,0,0,0,0,0,0,0,-1,1427,1394,0,0
210,-370,0,0,0,0,0,0,0,0,0,-1,1434,1394,0,0
217,-370,0,0,0,0,0,0,0,0,0,-1,1441,1394,0,0
224,-370,0,0,0,0,0,0,0,0,0,-1,1448,1394,0,0
231,-370,0,0,0,0,0,0,0,0,0,-1,1455,1394,0,0
238,-370,0,0,0,0,0,0,0,0,0,-1,1462,1394,0,0
245,-370,0,0,0,0,0,0,0,0,0,-1,1469,1394,0,0
252,-370,0,0,0,0,0,0,0,0,0,-1,1476,1394,0,0
259,-370,0,0,0,0,0,0,0,0,0,-1,1483,1394,0,0
266,-370,0,0,0,0,0,0,0,0,0,-1,1490,1394,0,0
273,-370,0,0,0,0,0,0,0,0,0,-1,1497,1394,0,0
280,-370,0,0,0,0,0,0,0,0,0,-1,1504,1394,0,0
287,-370,0,0,0,0,0,0,0,0,0,-1,1511,1394,0,0
294,-370,0,0,0,0,0,0,0,0,0,-1,1518,1394,0,0
301,-370,0,0,0,0,0,0,0,0,0,-1,1525,1394,0,0
308,-370,0,0,0,0,0,0,0,0,0,-1,1532,1394,0,0
315,-370,0,0,0,0,0,0,0,0,0,-1,1539,1394,0,0
322,-370,0,0,0,0,0,0,0,0,0,-1,1546,1394,0,0
329,-370,0,0,0,0,0,0,0,0,0,-1,1553,1394,0,0
336,-370,0,0,0,0,0,0,0,0,0,-1,1560,1394,0,0
343,-370,0,0,0,0,0,0,0,0,0,-1,1567,1394,0,0
350,-370,0,0,0,0,0,0,0,0,0,-1,1574,1394,0,0
357,-370,0,0,0,0,0,0,0,0,0,-1,1581,1394,0,0
364,-370,0,0,0,0,0,0,0,0,0,-1,1588,1394,0,0
371,-370,0,0,0,0,0,0,0,0,0,-1,1595,1394,0,0
378,-370,0,0,0,0,0,0,0,0,0,-1,1602,1394,0,0
385,-370,0,0,0,0,0,0,0,0,0,-1,1609,1394,0,0
392,-370,0,0,0,0,0,0,0,0,0,-1,1616,1394,0,0
399,-370,0,0,0,0,0,0,0,0,0,-1,1623,1394,0,0
406,-370,0,0,0,0,0,0,0,0,0,-1,1630,1394,0,0
413,-370,0,0,0,0,0,0,0,0,0,-1,1637,1394,0,0
420,-370,0,0,0,0,0,0,0,0,0,-1,1644,1394,0,0
427,-370,0,0,0,0,0,0,0,0,0,-1,1651,1394,0,0
434,-370,0,0,0,0,0,0,0,0,0,-1,1658,1394,0,0
441,-370,0,0,0,0,0,0,0,0,0,-1,1665,1394,0,0
448,-370,0,0,0,0,0,0,0,0,0,-1,1672,1394,0,0
455,-370,0,0,0,0,0,0,0,0,0,-1,1679,1394,0,0
462,-370,0,0,0,0,0,0,0,0,0,-1,1686,1394,0,0
469,-370,0,0,0,0,0,0,0,0,0,-1,1693,1394,0,0
476,-370,0,0,0,0,0,0,0,0,0,-1,1700,1394,0,0
483,-370,0,0,0,0,0,0,0,0,0,-1,1707,1394,0,0
490,-370,0,0,0,0,0,0,0,0,0,-1,1714,1394,0,0
497,-370,0,0,0,0,0,0,0,0,0,-1,1721,1394,0,0
504,-370,0,0,0,0,0,0,0,0,0,-1,1728,1394,0,0
511,-370,0,0,0,0,0,0,0,0,0,-1,1735,1394,0,0
518,-370,0,0,0,0,0,0,0,0,0,-1,1742,1394,0,0
525,-370,0,0,0,0,0,0,0,0,0,-1,1749,1394,0,0
532,-370,0,0,0,0,0,0,0,0,0,-1,1756,1394,0,0
539,-370,0,0,0,0,0,0,0,0,0,-1,1763,1394,0,0
546,-370,21.7084,0.258667,0,0,0,0,0,0,0,-1,1770,1394,21.7084,-0.258678
553,-370,28.6798,3.58484,0,0,0,0,0,0,0,-1,1777,1394,28.6798,-3.58479
560,-370,29.2833,3.30493,0.130907,0.0143852,-0.0251828,0.136116,0.00917561,-0.203995,0.0878456,0.0474395,1784,1394,29.2833,-3.30493
567,-370,29.9644,3.17053,0.0962031,0.0109322,-0.0220394,0.101563,0.0055727,-0.238549,0.0659294,0.0480212,1791,1394,29.9644,-3.17051
574,-370,30.7725,2.86609,0,0,0,0,0,0,0,-1,1798,1394,30.7725,-2.86611
581,-370,26.0054,2.74878,0,0,0,0,0,0,0,-1,1805,1394,26.0054,-2.74877
588,-370,27.8394,5.06836,0,0,0,0,0,0,0,-1,1812,1394,27.8394,-5.06838
595,-370,26.5026,5.66504,0,0,0,0,0,0,0,-1,1819,1394,26.5026,-5.6651
602,-370,23.2063,4.26685,0,0,0,0,0,0,0,-1,1826,1394,23.2063,-4.26688
609,-370,16.712,0.993286,0,0,0,0,0,0,0,-1,1833,1394,16.7121,-0.99323
616,-370,16.7764,7.23315,0,0,0,0,0,0,0,-1,1840,1394,16.7764,-7.23313
623,-370,17.6625,8.94263,0,0,0,0,0,0,0,-1,1847,1394,17.6624,-8.94258
630,-370,17.4496,9.24414,0,0,0,0,0,0,0,-1,1854,1394,17.4496,-9.24413
637,-370,17.2,9.30798,-0.00696996,-0.00785525,0.00180517,-0.00555396,-0.00927126,0.665165,0.00538766,0.0357779,1861,1394,17.1999,-9.30793
644,-370,17.3781,8.92114,-0.00281074,-0.00521444,0.00142067,-0.00215175,-0.00587344,0.434322,0.00343117,0.0120261,1868,1394,17.3781,-8.92114
651,-370,17.3982,8.62683,0.000934033,-0.00233322,0.000533311,0.00101888,-0.00241807,0.157775,0.0020384,0.0120795,1875,1394,17.3982,-8.6268
658,-370,17.3905,8.35938,0.00175219,-0.00141686,0.000244925,0.00177101,-0.00143568,0.0766796,0.00185476,0.0118794,1882,1394,17.3905,-8.35943
665,-370,17.3662,8.09448,0.00166243,-0.000756608,0.000166338,0.00167382,-0.000767992,0.0683335,0.00144175,0.0124962,1889,1394,17.3662,-8.09447
672,-370,17.3661,7.81104,0.00105351,-0.000554806,0.000408333,0.00115124,-0.000652538,0.234925,0.00105459,0.0146063,1896,1394,17.3661,-7.81101
679,-370,17.3833,7.51648,0.000482974,-0.000732874,0.000873604,0.00093936,-0.00118926,0.48142,0.00123178,0.0144695,1903,1394,17.3833,-7.5165
686,-370,17.3914,7.25562,-0.000103051,-0.00111148,0.00139977,0.000880546,-0.00209508,0.612526,0.00176503,0.0142481,1910,1394,17.3913,-7.25556
693,-370,17.3883,6.97888,-0.000582875,-0.00183309,0.00197924,0.000867631,-0.00328359,0.63244,0.00252839,0.012642,1917,1394,17.3883,-6.97886
700,-370,17.4545,6.64404,-0.00107564,-0.00259302,0.002644,0.000916367,-0.00458503,0.645677,0.00340351,0.0227219,1924,1394,17.4545,-6.64402
707,-370,17.5709,6.25793,0,0,0,0,0,0,0,-1,1931,1394,17.5709,-6.25791
714,-370,16.9116,5.93018,0,0,0,0,0,0,0,-1,1938,1394,16.9116,-5.93014
721,-370,17.2007,4.69153,0,0,0,0,0,0,0,-1,1945,1394,17.2007,-4.69158
728,-370,20.5315,-0.313354,0,0,0,0,0,0,0,-1,1952,1394,20.5315,0.313332
735,-370,22.3652,0.233398,0,0,0,0,0,0,0,-1,1959,1394,22.3652,-0.233355
742,-370,24.1989,0.780029,0,0,0,0,0,0,0,-1,1966,1394,24.1989,-0.780041
749,-370,0,0,0,0,0,0,0,0,0,-1,1973,1394,0,0
756,-370,0,0,0,0,0,0,0,0,0,-1,1980,1394,0,0
763,-370,0,0,0,0,0,0,0,0,0,-1,1987,1394,0,0
770,-370,0,0,0,0,0,0,0,0,0,-1,1994,1394,0,0
777,-370,0,0,0,0,0,0,0,0,0,-1,2001,1394,0,0
784,-370,0,0,0,0,0,0,0,0,0,-1,2008,1394,0,0
791,-370,0,0,0,0,0,0,0,0,0,-1,2015,1394,0,0
798,-370,0,0,0,0,0,0,0,0,0,-1,2022,1394,0,0
805,-370,0,0,0,0,0,0,0,0,0,-1,2029,1394,0,0
812,-370,0,0,0,0,0,0,0,0,0,-1,2036,1394,0,0
-700,-377,0,0,0,0,0,0,0,0,0,-1,524,1401,0,0
-693,-377,0,0,0,0,0,0,0,0,0,-1,531,1401,0,0
-686,-377,0,0,0,0,0,0,0,0,0,-1,538,1401,0,0
-679,-377,0,0,0,0,0,0,0,0,0,-1,545,1401,0,0
-672,-377,0,0,0,0,0,0,0,0,0,-1,552,1401,0,0
-665,-377,0,0,0,0,0,0,0,0,0,-1,559,1401,0,0
-658,-377,0,0,0,0,0,0,0,0,0,-1,566,1401,0,0
-651,-377,0,0,0,0,0,0,0,0,0,-1,573,1401,0,0
-644,-377,0,0,0,0,0,0,0,0,0,-1,580,1401,0,0
-637,-377,0,0,0,0,0,0,0,0,0,-1,587,1401,0,0
-630,-377,0,0,0,0,0,0,0,0,0,-1,594,1401,0,0
-623,-377,0,0,0,0,0,0,0,0,0,-1,601,1401,0,0
-616,-377,-9.43915,-2.4906,0,0,0,0,0,0,0,-1,608,1401,-9.43915,2.49062
-609,-377,-7.2821,-1.35278,0,0,0,0,0,0,0,-1,615,1401,-7.28208,1.35279
-602,-377,-14.9736,3.98279,0,0,0,0,0,0,0,-1,622,1401,-14.9737,-3.98276
-595,-377,-11.3735,5.30042,0,0,0,0,0,0,0,-1,629,1401,-11.3735,-5.30047
-588,-377,-6.94067,3.50952,0,0,0,0,0,0,0,-1,636,1401,-6.94067,-3.50957
-581,-377,-7.18976,4.0614,0,0,0,0,0,0,0,-1,643,1401,-7.18974,-4.06144
-574,-377,-7.2157,4.39478,-0.000834892,0.0205814,0.0209426,0.0333947,-0.0136482,1.02173,0.0279464,0.0465712,650,1401,-7.21569,-4.3948
-567,-377,-7.20801,4.66602,-0.00148537,0.0144255,0.014002,0.0225742,-0.00963413,1.04374,0.0190892,0.0324185,657,1401,-7.20799,-4.66596
-560,-377,-7.37604,4.89832,-0.00166638,0.00989809,0.0090816,0.014882,-0.00665028,1.06888,0.0127309,0.0253206,664,1401,-7.37606,-4.89836
-553,-377,-7.31512,5.14734,-0.00141654,0.00649799,0.00562804,0.00942075,-0.0043393,1.09181,0.00812293,0.0127647,671,1401,-7.31511,-5.14734
-546,-377,-7.32019,5.51221,-0.00083677,0.00397486,0.00330779,0.00565921,-0.00252112,1.09981,0.00483736,0.0158111,678,1401,-7.32021,-5.51217
-539,-377,-7.29352,5.77417,-3.28675e-05,0.00221022,0.00183649,0.00324055,-0.0010632,1.05952,0.0025886,0.0206712,685,1401,-7.29352,-5.77419
-532,-377,-7.31403,6.05701,0.00085687,0.000743836,0.00080047,0.00160282,-2.10945e-06,0.750154,0.00106925,0.0196333,692,1401,-7.31403,-6.05695
-525,-377,-7.24066,6.41968,0.00212545,0.000144573,0.000638866,0.00231362,-4.35964e-05,0.286438,0.00155715,0.0210386,699,1401,-7.24069,-6.41965
-518,-377,-7.29266,6.7074,0.00352983,-7.83622e-05,0.000854312,0.00372189,-0.000270415,0.221128,0.00257613,0.0143378,706,1401,-7.29264,-6.70741
-511,-377,-7.32153,7.03186,0.00514523,-0.00119395,0.000677507,0.00521683,-0.00126555,0.105292,0.00396759,0.0121994,713,1401,-7.32155,-7.03185
-504,-377,-7.34027,7.37317,0.00661609,-0.00233086,0.000311804,0.00662695,-0.00234172,0.034794,0.00537147,0.0127292,720,1401,-7.34026,-7.37321
-497,-377,-7.05798,7.70178,0.00815212,-0.00456719,-0.000885504,0.00821348,-0.00462854,-0.0691741,0.00751002,0.032007,727,1401,-7.05796,-7.7018
-490,-377,-6.63446,8.13916,0,0,0,0,0,0,0,-1,734,1401,-6.63446,-8.13916
-483,-377,-5.6524,5.07324,0,0,0,0,0,0,0,-1,741,1401,-5.6524,-5.07325
-476,-377,-6.11682,5.10535,0,0,0,0,0,0,0,-1,748,1401,-6.11681,-5.10537
-469,-377,-10.3211,1.9281,0,0,0,0,0,0,0,-1,755,1401,-10.3211,-1.92808
-462,-377,-9.2204,1.0022,0,0,0,0,0,0,0,-1,762,1401,-9.22039,-1.00218
-455,-377,-8.11969,0.0762939,0,0,0,0,0,0,0,-1,769,1401,-8.11968,-0.0762759
-448,-377,-9.05334,0.877319,0,0,0,0,0,0,0,-1,776,1401,-9.05332,-0.877324
-441,-377,-11.212,0.763428,0,0,0,0,0,0,0,-1,783,1401,-11.212,-0.763415
-434,-377,-11.0984,0.996216,0,0,0,0,0,0,0,-1,790,1401,-11.0984,-0.996265
-427,-377,-11.1733,1.25732,0,0,0,0,0,0,0,-1,797,1401,-11.1733,-1.25732
-420,-377,0,0,0,0,0,0,0,0,0,-1,804,1401,0,0
-413,-377,0,0,0,0,0,0,0,0,0,-1,811,1401,0,0
-406,-377,0,0,0,0,0,0,0,0,0,-1,818,1401,0,0
-399,-377,0,0,0,0,0,0,0,0,0,-1,825,1401,0,0
-392,-377,0,0,0,0,0,0,0,0,0,-1,832,1401,0,0
-385,-377,0,0,0,0,0,0,0,0,0,-1,839,1401,0,0
-378,-377,0,0,0,0,0,0,0,0,0,-1,846,1401,0,0
-371,-377,0,0,0,0,0,0,0,0,0,-1,853,1401,0,0
-364,-377,0,0,0,0,0,0,0,0,0,-1,860,1401,0,0
-357,-377,0,0,0,0,0,0,0,0,0,-1,867,1401,0,0
-350,-377,0,0,0,0,0,0,0,0,0,-1,874,1401,0,0
-343,-377,0,0,0,0,0,0,0,0,0,-1,881,1401,0,0
-336,-377,0,0,0,0,0,0,0,0,0,-1,888,1401,0,0
-329,-377,0,0,0,0,0,0,0,0,0,-1,895,1401,0,0
-322,-377,0,0,0,0,0,0,0,0,0,-1,902,1401,0,0
-315,-377,0,0,0,0,0,0,0,0,0,-1,909,1401,0,0
-308,-377,0,0,0,0,0,0,0,0,0,-1,916,1401,0,0
-301,-377,0,0,0,0,0,0,0,0,0,-1,923,1401,0,0
-294,-377,0,0,0,0,0,0,0,0,0,-1,930,1401,0,0
-287,-377,0,0,0,0,0,0,0,0,0,-1,937,1401,0,0
-280,-377,0,0,0,0,0,0,0,0,0,-1,944,1401,0,0
-273,-377,0,0,0,0,0,0,0,0,0,-1,951,1401,0,0
-266,-377,0,0,0,0,0,0,0,0,0,-1,958,1401,0,0
-259,-377,0,0,0,0,0,0,0,0,0,-1,965,1401,0,0
-252,-377,0,0,0,0,0,0,0,0,0,-1,972,1401,0,0
-245,-377,0,0,0,0,0,0,0,0,0,-1,979,1401,0,0
-238,-377,0,0,0,0,0,0,0,0,0,-1,986,1401,0,0
-231,-377,0,0,0,0,0,0,0,0,0,-1,993,1401,0,0
-224,-377,0,0,0,0,0,0,0,0,0,-1,1000,1401,0,0
-217,-377,0,0,0,0,0,0,0,0,0,-1,1007,1401,0,0
-210,-377,0,0,0,0,0,0,0,0,0,-1,1014,1401,0,0
-203,-377,0,0,0,0,0,0,0,0,0,-1,1021,1401,0,0
-196,-377,0,0,0,0,0,0,0,0,0,-1,1028,1401,0,0
-189,-377,0,0,0,0,0,0,0,0,0,-1,1035,1401,0,0
-182,-377,0,0,0,0,0,0,0,0,0,-1,1042,1401,0,0
-175,-377,0,0,0,0,0,0,0,0,0,-1,1049,1401,0,0
-168,-377,0,0,0,0,0,0,0,0,0,-1,1056,1401,0,0
-161,-377,0,0,0,0,0,0,0,0,0,-1,1063,1401,0,0
-154,-377,0,0,0,0,0,0,0,0,0,-1,1070,1401,0,0
-147,-377,0,0,0,0,0,0,0,0,0,-1,1077,1401,0,0
-140,-377,0,0,0,0,0,0,0,0,0,-1,1084,1401,0,0
-133,-377,0,0,0,0,0,0,0,0,0,-1,1091,1401,0,0
-126,-377,0,0,0,0,0,0,0,0,0,-1,1098,1401,0,0
-119,-377,0,0,0,0,0,0,0,0,0,-1,1105,1401,0,0
-112,-377,0,0,0,0,0,0,0,0,0,-1,1112,1401,0,0
-105,-377,0,0,0,0,0,0,0,0,0,-1,1119,1401,0,0
-98,-377,0,0,0,0,0,0,0,0,0,-1,1126,1401,0,0
-91,-377,0,0,0,0,0,0,0,0,0,-1,1133,1401,0,0
-84,-377,0,0,0,0,0,0,0,0,0,-1,1140,1401,0,0
-77,-377,0,0,0,0,0,0,0,0,0,-1,1147,1401,0,0
-70,-377,0,0,0,0,0,0,0,0,0,-1,1154,1401,0,0
-63,-377,0,0,0,0,0,0,0,0,0,-1,1161,1401,0,0
-56,-377,0,0,0,0,0,0,0,0,0,-1,1168,1401,0,0
-49,-377,0,0,0,0,0,0,0,0,0,-1,1175,1401,0,0
-42,-377,0,0,0,0,0,0,0,0,0,-1,1182,1401,0,0
-35,-377,0,0,0,0,0,0,0,0,0,-1,1189,1401,0,0
-28,-377,0,0,0,0,0,0,0,0,0,-1,1196,1401,0,0
-21,-377,0,0,0,0,0,0,0,0,0,-1,1203,1401,0,0
-14,-377,0,0,0,0,0,0,0,0,0,-1,1210,1401,0,0
-7,-377,0,0,0,0,0,0,0,0,0,-1,1217,1401,0,0
0,-377,0,0,0,0,0,0,0,0,0,-1,1224,1401,0,0
7,-377,0,0,0,0,0,0,0,0,0,-1,1231,1401,0,0
14,-377,0,0,0,0,0,0,0,0,0,-1,1238,1401,0,0
21,-377,0,0,0,0,0,0,0,0,0,-1,1245,1401,0,0
28,-377,0,0,0,0,0,0,0,0,0,-1,1252,1401,0,0
35,-377,0,0,0,0,0,0,0,0,0,-1,1259,1401,0,0
42,-377,0,0,0,0,0,0,0,0,0,-1,1266,1401,0,0
49,-377,0,0,0,0,0,0,0,0,0,-1,1273,1401,0,0
56,-377,0,0,0,0,0,0,0,0,0,-1,1280,1401,0,0
63,-377,0,0,0,0,0,0,0,0,0,-1,1287,1401,0,0
70,-377,0,0,0,0,0,0,0,0,0,-1,1294,1401,0,0
77,-377,0,0,0,0,0,0,0,0,0,-1,1301,1401,0,0
84,-377,0,0,0,0,0,0,0,0,0,-1,1308,1401,0,0
91,-377,0,0,0,0,0,0,0,0,0,-1,1315,1401,0,0
98,-377,0,0,0,0,0,0,0,0,0,-1,1322,1401,0,0
105,-377,0,0,0,0,0,0,0,0,0,-1,1329,1401,0,0
112,-377,0,0,0,0,0,0,0,0,0,-1,1336,1401,0,0
119,-377,0,0,0,0,0,0,0,0,0,-1,1343,1401,0,0
126,-377,0,0,0,0,0,0,0,0,0,-1,1350,1401,0,0
133,-377,0,0,0,0,0,0,0,0,0,-1,1357,1401,0,0
140,-377,0,0,0,0,0,0,0,0,0,-1,1364,1401,0,0
147,-377,0,0,0,0,0,0,0,0,0,-1,1371,1401,0,0
154,-377,0,0,0,0,0,0,0,0,0,-1,1378,1401,0,0
161,-377,0,0,0,0,0,0,0,0,0,-1,1385,1401,0,0
168,-377,0,0,0,0,0,0,0,0,0,-1,1392,1401,0,0
175,-377,0,0,0,0,0,0,0,0,0,-1,1399,1401,0,0
182,-377,0,0,0,0,0,0,0,0,0,-1,1406,1401,0,0
189,-377,0,0,0,0,0,0,0,0,0,-1,1413,1401,0,0
196,-377,0,0,0,0,0,0,0,0,0,-1,1420,1401,0,0
203,-377,0,0,0,0,0,0,0,0,0,-1,1427,1401,0,0
210,-377,0,0,0,0,0,0,0,0,0,-1,1434,1401,0,0
217,-377,0,0,0,0,0,0,0,0,0,-1,1441,1401,0,0
224,-377,0,0,0,0,0,0,0,0,0,-1,1448,1401,0,0
231,-377,0,0,0,0,0,0,0,0,0,-1,1455,1401,0,0
238,-377,0,0,0,0,0,0,0,0,0,-1,1462,1401,0,0
245,-377,0,0,0,0,0,0,0,0,0,-1,1469,1401,0,0
252,-377,0,0,0,0,0,0,0,0,0,-1,1476,1401,0,0
259,-377,0,0,0,0,0,0,0,0,0,-1,1483,1401,0,0
266,-377,0,0,0,0,0,0,0,0,0,-1,1490,1401,0,0
273,-377,0,0,0,0,0,0,0,0,0,-1,1497,1401,0,0
280,-377,0,0,0,0,0,0,0,0,0,-1,1504,1401,0,0
287,-377,0,0,0,0,0,0,0,0,0,-1,1511,1401,0,0
294,-377,0,0,0,0,0,0,0,0,0,-1,1518,1401,0,0
301,-377,0,0,0,0,0,0,0,0,0,-1,1525,1401,0,0
308,-377,0,0,0,0,0,0,0,0,0,-1,1532,1401,0,0
315,-377,0,0,0,0,0,0,0,0,0,-1,1539,1401,0,0
322,-377,0,0,0,0,0,0,0,0,0,-1,1546,1401,0,0
329,-377,0,0,0,0,0,0,0,0,0,-1,1553,1401,0,0
336,-377,0,0,0,0,0,0,0,0,0,-1,1560,1401,0,0
343,-377,0,0,0,0,0,0,0,0,0,-1,1567,1401,0,0
350,-377,0,0,0,0,0,0,0,0,0,-1,1574,1401,0,0
357,-377,0,0,0,0,0,0,0,0,0,-1,1581,1401,0,0
364,-377,0,0,0,0,0,0,0,0,0,-1,1588,1401,0,0
371,-377,0,0,0,0,0,0,0,0,0,-1,1595,1401,0,0
378,-377,0,0,0,0,0,0,0,0,0,-1,1602,1401,0,0
385,-377,0,0,0,0,0,0,0,0,0,-1,1609,1401,0,0
392,-377,0,0,0,0,0,0,0,0,0,-1,1616,1401,0,0
399,-377,0,0,0,0,0,0,0,0,0,-1,1623,1401,0,0
406,-377,0,0,0,0,0,0,0,0,0,-1,1630,1401,0,0
413,-377,0,0,0,0,0,0,0,0,0,-1,1637,1401,0,0
420,-377,0,0,0,0,0,0,0,0,0,-1,1644,1401,0,0
427,-377,0,0,0,0,0,0,0,0,0,-1,1651,1401,0,0
434,-377,0,0,0,0,0,0,0,0,0,-1,1658,1401,0,0
441,-377,0,0,0,0,0,0,0,0,0,-1,1665,1401,0,0
448,-377,0,0,0,0,0,0,0,0,0,-1,1672,1401,0,0
455,-377,0,0,0,0,0,0,0,0,0,-1,1679,1401,0,0
462,-377,0,0,0,0,0,0,0,0,0,-1,1686,1401,0,0
469,-377,0,0,0,0,0,0,0,0,0,-1,1693,1401,0,0
476,-377,0,0,0,0,0,0,0,0,0,-1,1700,1401,0,0
483,-377,0,0,0,0,0,0,0,0,0,-1,1707,1401,0,0
490,-377,0,0,0,0,0,0,0,0,0,-1,1714,1401,0,0
497,-377,0,0,0,0,0,0,0,0,0,-1,1721,1401,0,0
504,-377,0,0,0,0,0,0,0,0,0,-1,1728,1401,0,0
511,-377,0,0,0,0,0,0,0,0,0,-1,1735,1401,0,0
518,-377,0,0,0,0,0,0,0,0,0,-1,1742,1401,0,0
525,-377,0,0,0,0,0,0,0,0,0,-1,1749,1401,0,0
532,-377,0,0,0,0,0,0,0,0,0,-1,1756,1401,0,0
539,-377,0,0,0,0,0,0,0,0,0,-1,1763,1401,0,0
546,-377,22.3663,0.877319,0,0,0,0,0,0,0,-1,1770,1401,22.3663,-0.877268
553,-377,21.2521,1.89001,0,0,0,0,0,0,0,-1,1777,1401,21.252,-1.89003
560,-377,29.3129,3.55627,0,0,0,0,0,0,0,-1,1784,1401,29.3129,-3.55632
567,-377,30.1066,3.40015,0,0,0,0,0,0,0,-1,1791,1401,30.1066,-3.40013
574,-377,26.295,2.85779,0,0,0,0,0,0,0,-1,1798,1401,26.295,-2.85774
581,-377,25.3407,3.49402,0,0,0,0,0,0,0,-1,1805,1401,25.3407,-3.49402
588,-377,24.4249,3.97327,0,0,0,0,0,0,0,-1,1812,1401,24.425,-3.97328
595,-377,22.7808,3.98792,0,0,0,0,0,0,0,-1,1819,1401,22.7807,-3.98785
602,-377,21.342,3.86182,0,0,0,0,0,0,0,-1,1826,1401,21.342,-3.86179
609,-377,15.0223,4.76135,0,0,0,0,0,0,0,-1,1833,1401,15.0224,-4.76129
616,-377,14.1842,5.78992,0,0,0,0,0,0,0,-1,1840,1401,14.1842,-5.78987
623,-377,15.8248,8.76721,0,0,0,0,0,0,0,-1,1847,1401,15.8248,-8.76725
630,-377,16.9263,9.66272,0,0,0,0,0,0,0,-1,1854,1401,16.9262,-9.66273
637,-377,17.0438,9.23987,-0.00198725,-0.00417601,0.000179402,-0.00197264,-0.00419062,0.0812427,0.00242083,0.0179321,1861,1401,17.0438,-9.23987
644,-377,17.0851,8.92676,0.000203764,-0.00251121,-4.22958e-05,0.000204423,-0.00251187,-0.0155737,0.00174671,0.0109568,1868,1401,17.0851,-8.92681
651,-377,17.0952,8.62878,0.00227616,-0.000745046,-0.000487462,0.00235286,-0.000821749,-0.156072,0.00190259,0.0120682,1875,1401,17.0952,-8.62884
658,-377,17.1006,8.35986,0.00197952,-0.000484276,-0.000275895,0.00201004,-0.000514793,-0.110162,0.00154057,0.0134705,1882,1401,17.1006,-8.35983
665,-377,17.1047,8.08594,0.0014562,-0.000397559,0.000101935,0.00146179,-0.000403147,0.0547684,0.00113307,0.0165886,1889,1401,17.1047,-8.08598
672,-377,17.0975,7.80725,0.000828893,-0.000480492,0.000569276,0.00104178,-0.000693381,0.357862,0.00100851,0.0175991,1896,1401,17.0975,-7.80721
679,-377,17.0856,7.53772,0.000193036,-0.00080847,0.00112556,0.000924206,-0.00153964,0.576099,0.00143722,0.0171706,1903,1401,17.0856,-7.53774
686,-377,17.0999,7.26831,-0.00047841,-0.0013925,0.00178007,0.000902349,-0.00277326,0.659734,0.00221186,0.0149435,1910,1401,17.0998,-7.26834
693,-377,17.135,6.98694,-0.000993865,-0.00246209,0.00251095,0.00088808,-0.00434404,0.643179,0.00323297,0.0134804,1917,1401,17.135,-6.98696
700,-377,17.0793,6.69739,-0.00153065,-0.00363608,0.00339296,0.000969154,-0.00613589,0.634975,0.00444897,0.031026,1924,1401,17.0794,-6.69733
707,-377,17.1086,6.28711,0,0,0,0,0,0,0,-1,1931,1401,17.1087,-6.28712
714,-377,16.5369,5.45959,0,0,0,0,0,0,0,-1,1938,1401,16.5369,-5.4596
721,-377,17.0913,5.42529,0,0,0,0,0,0,0,-1,1945,1401,17.0914,-5.42529
728,-377,14.5396,2.79724,0,0,0,0,0,0,0,-1,1952,1401,14.5396,-2.7972
735,-377,23.2977,-0.991089,0,0,0,0,0,0,0,-1,1959,1401,23.2978,0.991076
742,-377,0,0,0,0,0,0,0,0,0,-1,1966,1401,0,0
749,-377,0,0,0,0,0,0,0,0,0,-1,1973,1401,0,0
756,-377,0,0,0,0,0,0,0,0,0,-1,1980,1401,0,0
763,-377,0,0,0,0,0,0,0,0,0,-1,1987,1401,0,0
770,-377,0,0,0,0,0,0,0,0,0,-1,1994,1401,0,0
777,-377,0,0,0,0,0,0,0,0,0,-1,2001,1401,0,0
784,-377,0,0,0,0,0,0,0,0,0,-1,2008,1401,0,0
791,-377,0,0,0,0,0,0,0,0,0,-1,2015,1401,0,0
798,-377,0,0,0,0,0,0,0,0,0,-1,2022,1401,0,0
805,-377,0,0,0,0,0,0,0,0,0,-1,2029,1401,0,0
812,-377,0,0,0,0,0,0,0,0,0,-1,2036,1401,0,0
-700,-384,0,0,0,0,0,0,0,0,0,-1,524,1408,0,0
-693,-384,0,0,0,0,0,0,0,0,0,-1,531,1408,0,0
-686,-384,0,0,0,0,0,0,0,0,0,-1,538,1408,0,0
-679,-384,0,0,0,0,0,0,0,0,0,-1,545,1408,0,0
-672,-384,0,0,0,0,0,0,0,0,0,-1,552,1408,0,0
-665,-384,0,0,0,0,0,0,0,0,0,-1,559,1408,0,0
-658,-384,0,0,0,0,0,0,0,0,0,-1,566,1408,0,0
-651,-384,0,0,0,0,0,0,0,0,0,-1,573,1408,0,0
-644,-384,0,0,0,0,0,0,0,0,0,-1,580,1408,0,0
-637,-384,0,0,0,0,0,0,0,0,0,-1,587,1408,0,0
-630,-384,0,0,0,0,0,0,0,0,0,-1,594,1408,0,0
-623,-384,0,0,0,0,0,0,0,0,0,-1,601,1408,0,0
-616,-384,-10.019,-3.36646,0,0,0,0,0,0,0,-1,608,1408,-10.019,3.36648
-609,-384,-7.72357,-2.3418,0,0,0,0,0,0,0,-1,615,1408,-7.72358,2.34182
-602,-384,-5.59833,-1.04639,0,0,0,0,0,0,0,-1,622,1408,-5.59835,1.04638
-595,-384,-7.78131,1.87988,0,0,0,0,0,0,0,-1,629,1408,-7.78132,-1.87985
-588,-384,-7.37982,2.90649,0.00771617,0.0502238,0.0552095,0.0881292,-0.0301892,0.969138,0.0709889,0.0488483,636,1408,-7.37979,-2.90651
-581,-384,-7.18951,3.80054,0.0038179,0.0372271,0.0396562,0.0635534,-0.0225084,0.984737,0.0515371,0.0482248,643,1408,-7.18954,-3.80053
-574,-384,-7.25208,4.36584,0.00130259,0.0267876,0.0276186,0.0444615,-0.0163713,1.00153,0.0363485,0.0481443,650,1408,-7.25209,-4.36587
-567,-384,-6.83093,4.43359,-0.000245775,0.0186503,0.0185685,0.0300362,-0.0116317,1.02074,0.0248269,0.0398832,657,1408,-6.83095,-4.43359
-560,-384,-6.91425,4.87183,-0.00110489,0.0126263,0.0120399,0.0196206,-0.0080992,1.04452,0.0164584,0.0336118,664,1408,-6.91425,-4.8718
-553,-384,-7.01398,5.16687,-0.0013185,0.00821721,0.00749364,0.0123312,-0.00543249,1.06872,0.0105105,0.0220596,671,1408,-7.01399,-5.16687
-546,-384,-7.01526,5.50781,-0.00107014,0.00501934,0.00441249,0.00733562,-0.00338642,1.0874,0.00632879,0.0145727,678,1408,-7.01524,-5.50776
-539,-384,-7.04114,5.77795,-0.000477208,0.00282135,0.00245337,0.00412827,-0.00178413,1.08133,0.00350182,0.0164683,685,1408,-7.04113,-5.77792
-532,-384,-6.99341,6.04236,0.000204314,0.000964964,0.000975282,0.00163145,-0.000462176,0.97131,0.00127004,0.0217066,692,1408,-6.9934,-6.0424
-525,-384,-6.95166,6.42908,0.00136424,0.000179967,0.000490922,0.00154128,2.92895e-06,0.346108,0.00102655,0.0210989,699,1408,-6.95168,-6.42912
-518,-384,-6.99384,6.74622,0.00270935,-2.59785e-05,0.000635407,0.00284975,-0.000166375,0.217461,0.00195765,0.0132342,706,1408,-6.99384,-6.74623
-511,-384,-7.02802,7.073,0.00426514,-0.00125383,0.000439176,0.00429987,-0.00128856,0.0789139,0.00337902,0.0106477,713,1408,-7.02801,-7.07299
-504,-384,-7.02441,7.39807,0.00562286,-0.00238519,-5.56931e-05,0.00562325,-0.00238558,-0.00695419,0.00474817,0.0115893,720,1408,-7.02443,-7.39806
-497,-384,-6.99799,7.73816,0.00691574,-0.00465032,-0.00140891,0.00708489,-0.00481947,-0.119486,0.00691434,0.019459,727,1408,-6.99798,-7.73821
-490,-384,-6.76843,8.15381,0,0,0,0,0,0,0,-1,734,1408,-6.76844,-8.15386
-483,-384,-6.26471,7.61194,0,0,0,0,0,0,0,-1,741,1408,-6.26469,-7.61191
-476,-384,-6.02734,5.67761,0,0,0,0,0,0,0,-1,748,1408,-6.02736,-5.6776
-469,-384,-10.206,2.63721,0,0,0,0,0,0,0,-1,755,1408,-10.206,-2.6372
-462,-384,-9.04291,1.43542,0,0,0,0,0,0,0,-1,762,1408,-9.04293,-1.43545
-455,-384,-7.87988,0.233765,0,0,0,0,0,0,0,-1,769,1408,-7.87986,-0.233709
-448,-384,-9.35529,7.19226,0,0,0,0,0,0,0,-1,776,1408,-9.35531,-7.19226
-441,-384,-10.4697,1.79004,0,0,0,0,0,0,0,-1,783,1408,-10.4697,-1.79003
-434,-384,-10.6449,0.552246,0,0,0,0,0,0,0,-1,790,1408,-10.6449,-0.552216
-427,-384,-10.968,1.10583,0,0,0,0,0,0,0,-1,797,1408,-10.968,-1.10588
-420,-384,-12.5607,4.54858,0,0,0,0,0,0,0,-1,804,1408,-12.5607,-4.54859
-413,-384,0,0,0,0,0,0,0,0,0,-1,811,1408,0,0
-406,-384,0,0,0,0,0,0,0,0,0,-1,818,1408,0,0
-399,-384,0,0,0,0,0,0,0,0,0,-1,825,1408,0,0
-392,-384,0,0,0,0,0,0,0,0,0,-1,832,1408,0,0
-385,-384,0,0,0,0,0,0,0,0,0,-1,839,1408,0,0
-378,-384,0,0,0,0,0,0,0,0,0,-1,846,1408,0,0
-371,-384,0,0,0,0,0,0,0,0,0,-1,853,1408,0,0
-364,-384,0,0,0,0,0,0,0,0,0,-1,860,1408,0,0
-357,-384,0,0,0,0,0,0,0,0,0,-1,867,1408,0,0
-350,-384,0,0,0,0,0,0,0,0,0,-1,874,1408,0,0
-343,-384,0,0,0,0,0,0,0,0,0,-1,881,1408,0,0
-336,-384,0,0,0,0,0,0,0,0,0,-1,888,1408,0,0
-329,-384,0,0,0,0,0,0,0,0,0,-1,895,1408,0,0
-322,-384,0,0,0,0,0,0,0,0,0,-1,902,1408,0,0
-315,-384,0,0,0,0,0,0,0,0,0,-1,909,1408,0,0
-308,-384,0,0,0,0,0,0,0,0,0,-1,916,1408,0,0
-301,-384,0,0,0,0,0,0,0,0,0,-1,923,1408,0,0
-294,-384,0,0,0,0,0,0,0,0,0,-1,930,1408,0,0
-287,-384,0,0,0,0,0,0,0,0,0,-1,937,1408,0,0
-280,-384,0,0,0,0,0,0,0,0,0,-1,944,1408,0,0
-273,-384,0,0,0,0,0,0,0,0,0,-1,951,1408,0,0
-266,-384,0,0,0,0,0,0,0,0,0,-1,958,1408,0,0
-259,-384,0,0,0,0,0,0,0,0,0,-1,965,1408,0,0
-252,-384,0,0,0,0,0,0,0,0,0,-1,972,1408,0,0
-245,-384,0,0,0,0,0,0,0,0,0,-1,979,1408,0,0
-238,-384,0,0,0,0,0,0,0,0,0,-1,986,1408,0,0
-231,-384,0,0,0,0,0,0,0,0,0,-1,993,1408,0,0
-224,-384,0,0,0,0,0,0,0,0,0,-1,1000,1408,0,0
-217,-384,0,0,0,0,0,0,0,0,0,-1,1007,1408,0,0
-210,-384,0,0,0,0,0,0,0,0,0,-1,1014,1408,0,0
-203,-384,0,0,0,0,0,0,0,0,0,-1,1021,1408,0,0
-196,-384,0,0,0,0,0,0,0,0,0,-1,1028,1408,0,0
-189,-384,0,0,0,0,0,0,0,0,0,-1,1035,1408,0,0
-182,-384,0,0,0,0,0,0,0,0,0,-1,1042,1408,0,0
-175,-384,0,0,0,0,0,0,0,0,0,-1,1049,1408,0,0
-168,-384,0,0,0,0,0,0,0,0,0,-1,1056,1408,0,0
-161,-384,0,0,0,0,0,0,0,0,0,-1,1063,1408,0,0
-154,-384,0,0,0,0,0,0,0,0,0,-1,1070,1408,0,0
-147,-384,0,0,0,0,0,0,0,0,0,-1,1077,1408,0,0
-140,-384,0,0,0,0,0,0,0,0,0,-1,1084,1408,0,0
-133,-384,0,0,0,0,0,0,0,0,0,-1,1091,1408,0,0
-126,-384,0,0,0,0,0,0,0,0,0,-1,1098,1408,0,0
-119,-384,0,0,0,0,0,0,0,0,0,-1,1105,1408,0,0
-112,-384,0,0,0,0,0,0,0,0,0,-1,1112,1408,0,0
-105,-384,0,0,0,0,0,0,0,0,0,-1,1119,1408,0,0
-98,-384,0,0,0,0,0,0,0,0,0,-1,1126,1408,0,0
-91,-384,0,0,0,0,0,0,0,0,0,-1,1133,1408,0,0
-84,-384,0,0,0,0,0,0,0,0,0,-1,1140,1408,0,0
-77,-384,0,0,0,0,0,0,0,0,0,-1,1147,1408,0,0
-70,-384,0,0,0,0,0,0,0,0,0,-1,1154,1408,0,0
-63,-384,0,0,0,0,0,0,0,0,0,-1,1161,1408,0,0
-56,-384,0,0,0,0,0,0,0,0,0,-1,1168,1408,0,0
-49,-384,0,0,0,0,0,0,0,0,0,-1,1175,1408,0,0
-42,-384,0,0,0,0,0,0,0,0,0,-1,1182,1408,0,0
-35,-384,0,0,0,0,0,0,0,0,0,-1,1189,1408,0,0
-28,-384,0,0,0,0,0,0,0,0,0,-1,1196,1408,0,0
-21,-384,0,0,0,0,0,0,0,0,0,-1,1203,1408,0,0
-14,-384,0,0,0,0,0,0,0,0,0,-1,1210,1408,0,0
-7,-384,0,0,0,0,0,0,0,0,0,-1,1217,1408,0,0
0,-384,0,0,0,0,0,0,0,0,0,-1,1224,1408,0,0
7,-384,0,0,0,0,0,0,0,0,0,-1,1231,1408,0,0
14,-384,0,0,0,0,0,0,0,0,0,-1,1238,1408,0,0
21,-384,0,0,0,0,0,0,0,0,0,-1,1245,1408,0,0
28,-384,0,0,0,0,0,0,0,0,0,-1,1252,1408,0,0
35,-384,0,0,0,0,0,0,0,0,0,-1,1259,1408,0,0
42,-384,0,0,0,0,0,0,0,0,0,-1,1266,1408,0,0
49,-384,0,0,0,0,0,0,0,0,0,-1,1273,1408,0,0
56,-384,0,0,0,0,0,0,0,0,0,-1,1280,1408,0,0
63,-384,0,0,0,0,0,0,0,0,0,-1,1287,1408,0,0
70,-384,0,0,0,0,0,0,0,0,0,-1,1294,1408,0,0
77,-384,0,0,0,0,0,0,0,0,0,-1,1301,1408,0,0
84,-384,0,0,0,0,0,0,0,0,0,-1,1308,1408,0,0
91,-384,0,0,0,0,0,0,0,0,0,-1,1315,1408,0,0
98,-384,0,0,0,0,0,0,0,0,0,-1,1322,1408,0,0
105,-384,0,0,0,0,0,0,0,0,0,-1,1329,1408,0,0
112,-384,0,0,0,0,0,0,0,0,0,-1,1336,1408,0,0
119,-384,0,0,0,0,0,0,0,0,0,-1,1343,1408,0,0
126,-384,0,0,0,0,0,0,0,0,0,-1,1350,1408,0,0
133,-384,0,0,0,0,0,0,0,0,0,-1,1357,1408,0,0
140,-384,0,0,0,0,0,0,0,0,0,-1,1364,1408,0,0
147,-384,0,0,0,0,0,0,0,0,0,-1,1371,1408,0,0
154,-384,0,0,0,0,0,0,0,0,0,-1,1378,1408,0,0
161,-384,0,0,0,0,0,0,0,0,0,-1,1385,1408,0,0
168,-384,0,0,0,0,0,0,0,0,0,-1,1392,1408,0,0
175,-384,0,0,0,0,0,0,0,0,0,-1,1399,1408,0,0
182,-384,0,0,0,0,0,0,0,0,0,-1,1406,1408,0,0
189,-384,0,0,0,0,0,0,0,0,0,-1,1413,1408,0,0
196,-384,0,0,0,0,0,0,0,0,0,-1,1420,1408,0,0
203,-384,0,0,0,0,0,0,0,0,0,-1,1427,1408,0,0
210,-384,0,0,0,0,0,0,0,0,0,-1,1434,1408,0,0
217,-384,0,0,0,0,0,0,0,0,0,-1,1441,1408,0,0
224,-384,0,0,0,0,0,0,0,0,0,-1,1448,1408,0,0
231,-384,0,0,0,0,0,0,0,0,0,-1,1455,1408,0,0
238,-384,0,0,0,0,0,0,0,0,0,-1,1462,1408,0,0
245,-384,0,0,0,0,0,0,0,0,0,-1,1469,1408,0,0
252,-384,0,0,0,0,0,0,0,0,0,-1,1476,1408,0,0
259,-384,0,0,0,0,0,0,0,0,0,-1,1483,1408,0,0
266,-384,0,0,0,0,0,0,0,0,0,-1,1490,1408,0,0
273,-384,0,0,0,0,0,0,0,0,0,-1,1497,1408,0,0
280,-384,0,0,0,0,0,0,0,0,0,-1,1504,1408,0,0
287,-384,0,0,0,0,0,0,0,0,0,-1,1511,1408,0,0
294,-384,0,0,0,0,0,0,0,0,0,-1,1518,1408,0,0
301,-384,0,0,0,0,0,0,0,0,0,-1,1525,1408,0,0
308,-384,0,0,0,0,0,0,0,0,0,-1,1532,1408,0,0
315,-384,0,0,0,0,0,0,0,0,0,-1,1539,1408,0,0
322,-384,0,0,0,0,0,0,0,0,0,-1,1546,1408,0,0
329,-384,0,0,0,0,0,0,0,0,0,-1,1553,1408,0,0
336,-384,0,0,0,0,0,0,0,0,0,-1,1560,1408,0,0
343,-384,0,0,0,0,0,0,0,0,0,-1,1567,1408,0,0
350,-384,0,0,0,0,0,0,0,0,0,-1,1574,1408,0,0
357,-384,0,0,0,0,0,0,0,0,0,-1,1581,1408,0,0
364,-384,0,0,0,0,0,0,0,0,0,-1,1588,1408,0,0
371,-384,0,0,0,0,0,0,0,0,0,-1,1595,1408,0,0
378,-384,0,0,0,0,0,0,0,0,0,-1,1602,1408,0,0
385,-384,0,0,0,0,0,0,0,0,0,-1,1609,1408,0,0
392,-384,0,0,0,0,0,0,0,0,0,-1,1616,1408,0,0
399,-384,0,0,0,0,0,0,0,0,0,-1,1623,1408,0,0
406,-384,0,0,0,0,0,0,0,0,0,-1,1630,1408,0,0
413,-384,0,0,0,0,0,0,0,0,0,-1,1637,1408,0,0
420,-384,0,0,0,0,0,0,0,0,0,-1,1644,1408,0,0
427,-384,0,0,0,0,0,0,0,0,0,-1,1651,1408,0,0
434,-384,0,0,0,0,0,0,0,0,0,-1,1658,1408,0,0
441,-384,0,0,0,0,0,0,0,0,0,-1,1665,1408,0,0
448,-384,0,0,0,0,0,0,0,0,0,-1,1672,1408,0,0
455,-384,0,0,0,0,0,0,0,0,0,-1,1679,1408,0,0
462,-384,0,0,0,0,0,0,0,0,0,-1,1686,1408,0,0
469,-384,0,0,0,0,0,0,0,0,0,-1,1693,1408,0,0
476,-384,0,0,0,0,0,0,0,0,0,-1,1700,1408,0,0
483,-384,0,0,0,0,0,0,0,0,0,-1,1707,1408,0,0
490,-384,0,0,0,0,0,0,0,0,0,-1,1714,1408,0,0
497,-384,0,0,0,0,0,0,0,0,0,-1,1721,1408,0,0
504,-384,0,0,0,0,0,0,0,0,0,-1,1728,1408,0,0
511,-384,0,0,0,0,0,0,0,0,0,-1,1735,1408,0,0
518,-384,0,0,0,0,0,0,0,0,0,-1,1742,1408,0,0
525,-384,0,0,0,0,0,0,0,0,0,-1,1749,1408,0,0
532,-384,0,0,0,0,0,0,0,0,0,-1,1756,1408,0,0
539,-384,23.4208,1.19556,0,0,0,0,0,0,0,-1,1763,1408,23.4207,-1.19561
546,-384,22.3715,1.52161,0,0,0,0,0,0,0,-1,1770,1408,22.3715,-1.52159
553,-384,21.0801,2.1532,0,0,0,0,0,0,0,-1,1777,1408,21.0801,-2.15317
560,-384,19.7887,2.78479,0,0,0,0,0,0,0,-1,1784,1408,19.7887,-2.78475
567,-384,26.2842,2.68384,0,0,0,0,0,0,0,-1,1791,1408,26.2842,-2.6838
574,-384,25.271,3.3595,0,0,0,0,0,0,0,-1,1798,1408,25.271,-3.35953
581,-384,24.3531,4.09058,0,0,0,0,0,0,0,-1,1805,1408,24.3531,-4.09057
588,-384,23.3721,4.25439,0,0,0,0,0,0,0,-1,1812,1408,23.3721,-4.25442
595,-384,21.9355,4.22412,0,0,0,0,0,0,0,-1,1819,1408,21.9356,-4.22414
602,-384,20.6605,4.17261,0,0,0,0,0,0,0,-1,1826,1408,20.6606,-4.17265
609,-384,14.158,5.49475,0,0,0,0,0,0,0,-1,1833,1408,14.158,-5.49474
616,-384,14.7997,7.6908,0,0,0,0,0,0,0,-1,1840,1408,14.7996,-7.69079
623,-384,16.4293,9.58899,0,0,0,0,0,0,0,-1,1847,1408,16.4294,-9.58901
630,-384,16.8135,9.55701,0,0,0,0,0,0,0,-1,1854,1408,16.8135,-9.55701
637,-384,16.8112,9.22815,-0.00131033,-0.00316342,0.000821458,-0.00099862,-0.00347513,0.362677,0.00206596,0.0163209,1861,1408,16.8111,-9.22817
644,-384,16.8022,8.93811,0.000297131,-0.00178424,0.000199944,0.000316164,-0.00180327,0.0949072,0.00132025,0.0150455,1868,1408,16.8022,-8.93805
651,-384,16.8005,8.63232,0.00176181,-0.000575251,-0.000295061,0.00179848,-0.000611928,-0.123668,0.00144677,0.0143839,1875,1408,16.8006,-8.63234
658,-384,16.7986,8.36243,0.00156937,-0.000417636,-0.000120967,0.00157671,-0.000424973,-0.0605807,0.00121777,0.0142552,1882,1408,16.7986,-8.36243
665,-384,16.8281,8.11035,0.0010968,-0.000431513,0.000254801,0.00113817,-0.000472874,0.160923,0.000956205,0.0160737,1889,1408,16.8281,-8.11032
672,-384,16.8485,7.82617,0.000499851,-0.00063228,0.000743676,0.000868389,-0.00100082,0.460092,0.00108009,0.0144745,1896,1408,16.8485,-7.82619
679,-384,16.8202,7.53101,-0.000137748,-0.00110405,0.00135759,0.000820099,-0.0020619,0.614442,0.00171464,0.0148573,1903,1408,16.8201,-7.53104
686,-384,16.7985,7.25928,-0.000832845,-0.00188763,0.00211514,0.000819663,-0.00354014,0.663219,0.0026755,0.0124774,1910,1408,16.7985,-7.2593
693,-384,16.8335,6.98462,-0.0013255,-0.00330912,0.00298057,0.00082394,-0.00545856,0.624782,0.00394249,0.0190769,1917,1408,16.8335,-6.9846
700,-384,16.7626,7.09692,-0.00182809,-0.00495094,0.00408532,0.000984029,-0.00776306,0.602862,0.00553263,0.0489787,1924,1408,16.7626,-7.09695
707,-384,16.9191,7.23828,0,0,0,0,0,0,0,-1,1931,1408,16.9191,-7.23832
714,-384,16.038,5.0282,0,0,0,0,0,0,0,-1,1938,1408,16.038,-5.02819
721,-384,13.8843,2.8717,0,0,0,0,0,0,0,-1,1945,1408,13.8843,-2.87171
728,-384,15.4409,6.25745,0,0,0,0,0,0,0,-1,1952,1408,15.4409,-6.2574
735,-384,16.7598,6.71289,0,0,0,0,0,0,0,-1,1959,1408,16.7598,-6.71287
742,-384,0,0,0,0,0,0,0,0,0,-1,1966,1408,0,0
749,-384,0,0,0,0,0,0,0,0,0,-1,1973,1408,0,0
756,-384,0,0,0,0,0,0,0,0,0,-1,1980,1408,0,0
763,-384,0,0,0,0,0,0,0,0,0,-1,1987,1408,0,0
770,-384,0,0,0,0,0,0,0,0,0,-1,1994,1408,0,0
777,-384,0,0,0,0,0,0,0,0,0,-1,2001,1408,0,0
784,-384,0,0,0,0,0,0,0,0,0,-1,2008,1408,0,0
791,-384,0,0,0,0,0,0,0,0,0,-1,2015,1408,0,0
798,-384,0,0,0,0,0,0,0,0,0,-1,2022,1408,0,0
805,-384,0,0,0,0,0,0,0,0,0,-1,2029,1408,0,0
812,-384,0,0,0,0,0,0,0,0,0,-1,2036,1408,0,0
-700,-391,0,0,0,0,0,0,0,0,0,-1,524,1415,0,0
-693,-391,0,0,0,0,0,0,0,0,0,-1,531,1415,0,0
-686,-391,0,0,0,0,0,0,0,0,0,-1,538,1415,0,0
-679,-391,0,0,0,0,0,0,0,0,0,-1,545,1415,0,0
-672,-391,0,0,0,0,0,0,0,0,0,-1,552,1415,0,0
-665,-391,0,0,0,0,0,0,0,0,0,-1,559,1415,0,0
-658,-391,0,0,0,0,0,0,0,0,0,-1,566,1415,0,0
-651,-391,0,0,0,0,0,0,0,0,0,-1,573,1415,0,0
-644,-391,0,0,0,0,0,0,0,0,0,-1,580,1415,0,0
-637,-391,0,0,0,0,0,0,0,0,0,-1,587,1415,0,0
-630,-391,0,0,0,0,0,0,0,0,0,-1,594,1415,0,0
-623,-391,0,0,0,0,0,0,0,0,0,-1,601,1415,0,0
-616,-391,0,0,0,0,0,0,0,0,0,-1,608,1415,0,0
-609,-391,-7.71753,-3.69763,0,0,0,0,0,0,0,-1,615,1415,-7.71751,3.69759
-602,-391,-3.36749,-2.07458,0,0,0,0,0,0,0,-1,622,1415,-3.36751,2.07453
-595,-391,-8.60596,1.01868,0,0,0,0,0,0,0,-1,629,1415,-8.60597,-1.01867
-588,-391,-7.66406,2.18884,0.0131345,0.0635193,0.0693305,0.112093,-0.0354388,0.959665,0.0889271,0.0446153,636,1415,-7.66403,-2.18888
-581,-391,-7.4552,3.41467,0.00746921,0.046927,0.0501723,0.08111,-0.0267137,0.972724,0.0648389,0.0477321,643,1415,-7.45523,-3.41462
-574,-391,-7.24243,4.3833,0,0,0,0,0,0,0,-1,650,1415,-7.24243,-4.38332
-567,-391,-6.20288,3.99207,0.00107757,0.0232666,0.0236491,0.0382943,-0.0139501,1.00472,0.0312358,0.0464207,657,1415,-6.20289,-3.99205
-560,-391,-6.34503,4.88257,-0.000527056,0.0155668,0.0152708,0.0247812,-0.00974137,1.02789,0.0205524,0.0412621,664,1415,-6.34502,-4.88253
-553,-391,-6.65009,5.16235,-0.00124202,0.0100476,0.00949125,0.0154458,-0.0066402,1.05367,0.0130848,0.0326608,671,1415,-6.65009,-5.16236
-546,-391,-6.70709,5.48987,-0.00134111,0.00612515,0.00556477,0.00909298,-0.00430894,1.08085,0.00790022,0.0128625,678,1415,-6.70712,-5.48986
-539,-391,-6.67743,5.79333,-0.000961117,0.00346011,0.00308503,0.00504479,-0.00254579,1.09628,0.00446089,0.0144442,685,1415,-6.67741,-5.79331
-532,-391,-6.64581,6.11902,-0.000491968,0.00121557,0.00115007,0.00179414,-0.00107054,1.10469,0.00167141,0.0246463,692,1415,-6.6458,-6.11896
-525,-391,-6.62445,6.47717,0.000551241,0.000244556,0.000332692,0.000764229,3.15679e-05,0.569452,0.000499296,0.0224394,699,1415,-6.62446,-6.47722
-518,-391,-6.69995,6.78406,0.00182633,6.23762e-05,0.000436367,0.00192837,-3.9669e-05,0.229724,0.00129901,0.0140661,706,1415,-6.69997,-6.78411
-511,-391,-6.71405,7.08923,0.00329302,-0.00121173,0.000244268,0.00330623,-0.00122494,0.0540133,0.0027065,0.0123332,713,1415,-6.71404,-7.0892
-504,-391,-6.70837,7.40442,0.00454233,-0.00228682,-0.000307412,0.00455614,-0.00230063,-0.0448936,0.00402952,0.0112929,720,1415,-6.7084,-7.40445
-497,-391,-6.70935,7.71228,0.00565381,-0.00446736,-0.00166436,0.00592048,-0.00473403,-0.158872,0.00616409,0.0106943,727,1415,-6.70936,-7.71234
-490,-391,-6.68054,8.07788,0.00627427,-0.00832198,-0.00441993,0.00750835,-0.00955605,-0.272273,0.00987575,0.0237253,734,1415,-6.68056,-8.07784
-483,-391,-6.59113,8.51978,0,0,0,0,0,0,0,-1,741,1415,-6.59115,-8.51979
-476,-391,-6.05731,6.85303,0,0,0,0,0,0,0,-1,748,1415,-6.05728,-6.85304
-469,-391,-3.88953,5.0979,0,0,0,0,0,0,0,-1,755,1415,-3.88955,-5.09794
-462,-391,-8.67688,2.03125,0,0,0,0,0,0,0,-1,762,1415,-8.67685,-2.03121
-455,-391,-8.65576,6.46997,0,0,0,0,0,0,0,-1,769,1415,-8.65579,-6.46999
-448,-391,-8.39618,4.38403,0,0,0,0,0,0,0,-1,776,1415,-8.39617,-4.38405
-441,-391,-9.77704,2.5946,0,0,0,0,0,0,0,-1,783,1415,-9.77702,-2.5946
-434,-391,-11.5403,2.12878,0,0,0,0,0,0,0,-1,790,1415,-11.5403,-2.12881
-427,-391,-10.5311,2.50403,0,0,0,0,0,0,0,-1,797,1415,-10.5311,-2.504
-420,-391,-14.7087,1.24365,0,0,0,0,0,0,0,-1,804,1415,-14.7088,-1.24365
-413,-391,0,0,0,0,0,0,0,0,0,-1,811,1415,0,0
-406,-391,0,0,0,0,0,0,0,0,0,-1,818,1415,0,0
-399,-391,0,0,0,0,0,0,0,0,0,-1,825,1415,0,0
-392,-391,0,0,0,0,0,0,0,0,0,-1,832,1415,0,0
-385,-391,0,0,0,0,0,0,0,0,0,-1,839,1415,0,0
-378,-391,0,0,0,0,0,0,0,0,0,-1,846,1415,0,0
-371,-391,0,0,0,0,0,0,0,0,0,-1,853,1415,0,0
-364,-391,0,0,0,0,0,0,0,0,0,-1,860,1415,0,0
-357,-391,0,0,0,0,0,0,0,0,0,-1,867,1415,0,0
-350,-391,0,0,0,0,0,0,0,0,0,-1,874,1415,0,0
-343,-391,0,0,0,0,0,0,0,0,0,-1,881,1415,0,0
-336,-391,0,0,0,0,0,0,0,0,0,-1,888,1415,0,0
-329,-391,0,0,0,0,0,0,0,0,0,-1,895,1415,0,0
-322,-391,0,0,0,0,0,0,0,0,0,-1,902,1415,0,0
-315,-391,0,0,0,0,0,0,0,0,0,-1,909,1415,0,0
-308,-391,0,0,0,0,0,0,0,0,0,-1,916,1415,0,0
-301,-391,0,0,0,0,0,0,0,0,0,-1,923,1415,0,0
-294,-391,0,0,0,0,0,0,0,0,0,-1,930,1415,0,0
-287,-391,0,0,0,0,0,0,0,0,0,-1,937,1415,0,0
-280,-391,0,0,0,0,0,0,0,0,0,-1,944,1415,0,0
-273,-391,0,0,0,0,0,0,0,0,0,-1,951,1415,0,0
-266,-391,0,0,0,0,0,0,0,0,0,-1,958,1415,0,0
-259,-391,0,0,0,0,0,0,0,0,0,-1,965,1415,0,0
-252,-391,0,0,0,0,0,0,0,0,0,-1,972,1415,0,0
-245,-391,0,0,0,0,0,0,0,0,0,-1,979,1415,0,0
-238,-391,0,0,0,0,0,0,0,0,0,-1,986,1415,0,0
-231,-391,0,0,0,0,0,0,0,0,0,-1,993,1415,0,0
-224,-391,0,0,0,0,0,0,0,0,0,-1,1000,1415,0,0
-217,-391,0,0,0,0,0,0,0,0,0,-1,1007,1415,0,0
-210,-391,0,0,0,0,0,0,0,0,0,-1,1014,1415,0,0
-203,-391,0,0,0,0,0,0,0,0,0,-1,1021,1415,0,0
-196,-391,0,0,0,0,0,0,0,0,0,-1,1028,1415,0,0
-189,-391,0,0,0,0,0,0,0,0,0,-1,1035,1415,0,0
-182,-391,0,0,0,0,0,0,0,0,0,-1,1042,1415,0,0
-175,-391,0,0,0,0,0,0,0,0,0,-1,1049,1415,0,0
-168,-391,0,0,0,0,0,0,0,0,0,-1,1056,1415,0,0
-161,-391,0,0,0,0,0,0,0,0,0,-1,1063,1415,0,0
-154,-391,0,0,0,0,0,0,0,0,0,-1,1070,1415,0,0
-147,-391,0,0,0,0,0,0,0,0,0,-1,1077,1415,0,0
-140,-391,0,0,0,0,0,0,0,0,0,-1,1084,1415,0,0
-133,-391,0,0,0,0,0,0,0,0,0,-1,1091,1415,0,0
-126,-391,0,0,0,0,0,0,0,0,0,-1,1098,1415,0,0
-119,-391,0,0,0,0,0,0,0,0,0,-1,1105,1415,0,0
-112,-391,0,0,0,0,0,0,0,0,0,-1,1112,1415,0,0
-105,-391,0,0,0,0,0,0,0,0,0,-1,1119,1415,0,0
-98,-391,0,0,0,0,0,0,0,0,0,-1,1126,1415,0,0
-91,-391,0,0,0,0,0,0,0,0,0,-1,1133,1415,0,0
-84,-391,0,0,0,0,0,0,0,0,0,-1,1140,1415,0,0
-77,-391,0,0,0,0,0,0,0,0,0,-1,1147,1415,0,0
-70,-391,0,0,0,0,0,0,0,0,0,-1,1154,1415,0,0
-63,-391,0,0,0,0,0,0,0,0,0,-1,1161,1415,0,0
-56,-391,0,0,0,0,0,0,0,0,0,-1,1168,1415,0,0
-49,-391,0,0,0,0,0,0,0,0,0,-1,1175,1415,0,0
-42,-391,0,0,0,0,0,0,0,0,0,-1,1182,1415,0,0
-35,-391,0,0,0,0,0,0,0,0,0,-1,1189,1415,0,0
-28,-391,0,0,0,0,0,0,0,0,0,-1,1196,1415,0,0
-21,-391,0,0,0,0,0,0,0,0,0,-1,1203,1415,0,0
-14,-391,0,0,0,0,0,0,0,0,0,-1,1210,1415,0,0
-7,-391,0,0,0,0,0,0,0,0,0,-1,1217,1415,0,0
0,-391,0,0,0,0,0,0,0,0,0,-1,1224,1415,0,0
7,-391,0,0,0,0,0,0,0,0,0,-1,1231,1415,0,0
14,-391,0,0,0,0,0,0,0,0,0,-1,1238,1415,0,0
21,-391,0,0,0,0,0,0,0,0,0,-1,1245,1415,0,0
28,-391,0,0,0,0,0,0,0,0,0,-1,1252,1415,0,0
35,-391,0,0,0,0,0,0,0,0,0,-1,1259,1415,0,0
42,-391,0,0,0,0,0,0,0,0,0,-1,1266,1415,0,0
49,-391,0,0,0,0,0,0,0,0,0,-1,1273,1415,0,0
56,-391,0,0,0,0,0,0,0,0,0,-1,1280,1415,0,0
63,-391,0,0,0,0,0,0,0,0,0,-1,1287,1415,0,0
70,-391,0,0,0,0,0,0,0,0,0,-1,1294,1415,0,0
77,-391,0,0,0,0,0,0,0,0,0,-1,1301,1415,0,0
84,-391,0,0,0,0,0,0,0,0,0,-1,1308,1415,0,0
91,-391,0,0,0,0,0,0,0,0,0,-1,1315,1415,0,0
98,-391,0,0,0,0,0,0,0,0,0,-1,1322,1415,0,0
105,-391,0,0,0,0,0,0,0,0,0,-1,1329,1415,0,0
112,-391,0,0,0,0,0,0,0,0,0,-1,1336,1415,0,0
119,-391,0,0,0,0,0,0,0,0,0,-1,1343,1415,0,0
126,-391,0,0,0,0,0,0,0,0,0,-1,1350,1415,0,0
133,-391,0,0,0,0,0,0,0,0,0,-1,1357,1415,0,0
140,-391,0,0,0,0,0,0,0,0,0,-1,1364,1415,0,0
147,-391,0,0,0,0,0,0,0,0,0,-1,1371,1415,0,0
154,-391,0,0,0,0,0,0,0,0,0,-1,1378,1415,0,0
161,-391,0,0,0,0,0,0,0,0,0,-1,1385,1415,0,0
168,-391,0,0,0,0,0,0,0,0,0,-1,1392,1415,0,0
175,-391,0,0,0,0,0,0,0,0,0,-1,1399,1415,0,0
182,-391,0,0,0,0,0,0,0,0,0,-1,1406,1415,0,0
189,-391,0,0,0,0,0,0,0,0,0,-1,1413,1415,0,0
196,-391,0,0,0,0,0,0,0,0,0,-1,1420,1415,0,0
203,-391,0,0,0,0,0,0,0,0,0,-1,1427,1415,0,0
210,-391,0,0,0,0,0,0,0,0,0,-1,1434,1415,0,0
217,-391,0,0,0,0,0,0,0,0,0,-1,1441,1415,0,0
224,-391,0,0,0,0,0,0,0,0,0,-1,1448,1415,0,0
231,-391,0,0,0,0,0,0,0,0,0,-1,1455,1415,0,0
238,-391,0,0,0,0,0,0,0,0,0,-1,1462,1415,0,0
245,-391,0,0,0,0,0,0,0,0,0,-1,1469,1415,0,0
252,-391,0,0,0,0,0,0,0,0,0,-1,1476,1415,0,0
259,-391,0,0,0,0,0,0,0,0,0,-1,1483,1415,0,0
266,-391,0,0,0,0,0,0,0,0,0,-1,1490,1415,0,0
273,-391,0,0,0,0,0,0,0,0,0,-1,1497,1415,0,0
280,-391,0,0,0,0,0,0,0,0,0,-1,1504,1415,0,0
287,-391,0,0,0,0,0,0,0,0,0,-1,1511,1415,0,0
294,-391,0,0,0,0,0,0,0,0,0,-1,1518,1415,0,0
301,-391,0,0,0,0,0,0,0,0,0,-1,1525,1415,0,0
308,-391,0,0,0,0,0,0,0,0,0,-1,1532,1415,0,0
315,-391,0,0,0,0,0,0,0,0,0,-1,1539,1415,0,0
322,-391,0,0,0,0,0,0,0,0,0,-1,1546,1415,0,0
329,-391,0,0,0,0,0,0,0,0,0,-1,1553,1415,0,0
336,-391,0,0,0,0,0,0,0,0,0,-1,1560,1415,0,0
343,-391,0,0,0,0,0,0,0,0,0,-1,1567,1415,0,0
350,-391,0,0,0,0,0,0,0,0,0,-1,1574,1415,0,0
357,-391,0,0,0,0,0,0,0,0,0,-1,1581,1415,0,0
364,-391,0,0,0,0,0,0,0,0,0,-1,1588,1415,0,0
371,-391,0,0,0,0,0,0,0,0,0,-1,1595,1415,0,0
378,-391,0,0,0,0,0,0,0,0,0,-1,1602,1415,0,0
385,-391,0,0,0,0,0,0,0,0,0,-1,1609,1415,0,0
392,-391,0,0,0,0,0,0,0,0,0,-1,1616,1415,0,0
399,-391,0,0,0,0,0,0,0,0,0,-1,1623,1415,0,0
406,-391,0,0,0,0,0,0,0,0,0,-1,1630,1415,0,0
413,-391,0,0,0,0,0,0,0,0,0,-1,1637,1415,0,0
420,-391,0,0,0,0,0,0,0,0,0,-1,1644,1415,0,0
427,-391,0,0,0,0,0,0,0,0,0,-1,1651,1415,0,0
434,-391,0,0,0,0,0,0,0,0,0,-1,1658,1415,0,0
441,-391,0,0,0,0,0,0,0,0,0,-1,1665,1415,0,0
448,-391,0,0,0,0,0,0,0,0,0,-1,1672,1415,0,0
455,-391,0,0,0,0,0,0,0,0,0,-1,1679,1415,0,0
462,-391,0,0,0,0,0,0,0,0,0,-1,1686,1415,0,0
469,-391,0,0,0,0,0,0,0,0,0,-1,1693,1415,0,0
476,-391,0,0,0,0,0,0,0,0,0,-1,1700,1415,0,0
483,-391,0,0,0,0,0,0,0,0,0,-1,1707,1415,0,0
490,-391,0,0,0,0,0,0,0,0,0,-1,1714,1415,0,0
497,-391,0,0,0,0,0,0,0,0,0,-1,1721,1415,0,0
504,-391,0,0,0,0,0,0,0,0,0,-1,1728,1415,0,0
511,-391,0,0,0,0,0,0,0,0,0,-1,1735,1415,0,0
518,-391,0,0,0,0,0,0,0,0,0,-1,1742,1415,0,0
525,-391,0,0,0,0,0,0,0,0,0,-1,1749,1415,0,0
532,-391,31.6221,-1.93188,0,0,0,0,0,0,0,-1,1756,1415,31.6221,1.93183
539,-391,22.6211,1.52905,0,0,0,0,0,0,0,-1,1763,1415,22.6211,-1.529
546,-391,21.671,2.0199,0,0,0,0,0,0,0,-1,1770,1415,21.671,-2.01994
553,-391,20.5422,2.27222,0,0,0,0,0,0,0,-1,1777,1415,20.5423,-2.27224
560,-391,26.3085,2.54663,0,0,0,0,0,0,0,-1,1784,1415,26.3085,-2.54666
567,-391,25.274,3.42749,0,0,0,0,0,0,0,-1,1791,1415,25.2741,-3.42752
574,-391,24.2732,4.0354,0,0,0,0,0,0,0,-1,1798,1415,24.2732,-4.03542
581,-391,23.1665,4.65967,0,0,0,0,0,0,0,-1,1805,1415,23.1665,-4.65972
588,-391,22.3348,5.65869,0,0,0,0,0,0,0,-1,1812,1415,22.3349,-5.65863
595,-391,21.4221,6.3075,0,0,0,0,0,0,0,-1,1819,1415,21.4221,-6.3075
602,-391,15.1635,5.69849,0,0,0,0,0,0,0,-1,1826,1415,15.1635,-5.69847
609,-391,14.8285,7.50476,0,0,0,0,0,0,0,-1,1833,1415,14.8285,-7.50479
616,-391,16.4834,10.0736,0,0,0,0,0,0,0,-1,1840,1415,16.4834,-10.0737
623,-391,16.4825,9.75574,0,0,0,0,0,0,0,-1,1847,1415,16.4825,-9.75576
630,-391,16.568,9.46228,-0.00338731,-0.00330013,0.00172758,-0.00161559,-0.00507185,0.798012,0.00299183,0.0212047,1854,1415,16.568,-9.46226
637,-391,16.5404,9.21777,-0.0010312,-0.00200459,0.000753586,-0.000620806,-0.00241498,0.498674,0.00144811,0.0152009,1861,1415,16.5404,-9.21771
644,-391,16.5388,8.92639,0.000238185,-0.00112141,0.000226372,0.000274886,-0.00115811,0.160725,0.00087816,0.0157335,1868,1415,16.5388,-8.92645
651,-391,16.5546,8.64282,0.00134992,-0.000433102,-0.000182371,0.00136838,-0.000451564,-0.10089,0.00109429,0.0159934,1875,1415,16.5545,-8.64283
658,-391,16.5332,8.38403,0.00127885,-0.000403231,-7.91686e-05,0.00128257,-0.000406949,-0.0469276,0.00101817,0.0156723,1882,1415,16.5332,-8.38409
665,-391,16.5314,8.11511,0.000890437,-0.000539267,0.000244913,0.000931227,-0.000580057,0.165037,0.000880357,0.0130551,1889,1415,16.5313,-8.11517
672,-391,16.554,7.81799,0.000369446,-0.000892061,0.000707455,0.000686502,-0.00120912,0.421326,0.00110821,0.011673,1896,1415,16.5539,-7.818
679,-391,16.5389,7.52454,-0.000233439,-0.00153725,0.00133056,0.000596331,-0.00236702,0.557611,0.00180984,0.0119373,1903,1415,16.539,-7.52453
686,-391,16.5255,7.26611,-0.000916953,-0.00256036,0.00216105,0.000573345,-0.00405066,0.603723,0.00291044,0.0139016,1910,1415,16.5255,-7.26615
693,-391,16.5034,7.11145,-0.00135967,-0.00440557,0.00315642,0.000622007,-0.00638724,0.560627,0.00447991,0.030771,1917,1415,16.5034,-7.11141
700,-391,16.5431,6.92834,0,0,0,0,0,0,0,-1,1924,1415,16.5431,-6.92834
707,-391,12.9524,5.96851,0,0,0,0,0,0,0,-1,1931,1415,12.9524,-5.96849
714,-391,15.6875,7.67896,0,0,0,0,0,0,0,-1,1938,1415,15.6875,-7.67893
721,-391,14.1808,8.08435,0,0,0,0,0,0,0,-1,1945,1415,14.1808,-8.08439
728,-391,13.8102,7.28174,0,0,0,0,0,0,0,-1,1952,1415,13.8102,-7.28174
735,-391,0,0,0,0,0,0,0,0,0,-1,1959,1415,0,0
742,-391,0,0,0,0,0,0,0,0,0,-1,1966,1415,0,0
749,-391,0,0,0,0,0,0,0,0,0,-1,1973,1415,0,0
756,-391,0,0,0,0,0,0,0,0,0,-1,1980,1415,0,0
763,-391,0,0,0,0,0,0,0,0,0,-1,1987,1415,0,0
770,-391,0,0,0,0,0,0,0,0,0,-1,1994,1415,0,0
777,-391,0,0,0,0,0,0,0,0,0,-1,2001,1415,0,0
784,-391,0,0,0,0,0,0,0,0,0,-1,2008,1415,0,0
791,-391,0,0,0,0,0,0,0,0,0,-1,2015,1415,0,0
798,-391,0,0,0,0,0,0,0,0,0,-1,2022,1415,0,0
805,-391,0,0,0,0,0,0,0,0,0,-1,2029,1415,0,0
812,-391,0,0,0,0,0,0,0,0,0,-1,2036,1415,0,0
-700,-398,0,0,0,0,0,0,0,0,0,-1,524,1422,0,0
-693,-398,0,0,0,0,0,0,0,0,0,-1,531,1422,0,0
-686,-398,0,0,0,0,0,0,0,0,0,-1,538,1422,0,0
-679,-398,0,0,0,0,0,0,0,0,0,-1,545,1422,0,0
-672,-398,0,0,0,0,0,0,0,0,0,-1,552,1422,0,0
-665,-398,0,0,0,0,0,0,0,0,0,-1,559,1422,0,0
-658,-398,0,0,0,0,0,0,0,0,0,-1,566,1422,0,0
-651,-398,0,0,0,0,0,0,0,0,0,-1,573,1422,0,0
-644,-398,0,0,0,0,0,0,0,0,0,-1,580,1422,0,0
-637,-398,0,0,0,0,0,0,0,0,0,-1,587,1422,0,0
-630,-398,0,0,0,0,0,0,0,0,0,-1,594,1422,0,0
-623,-398,0,0,0,0,0,0,0,0,0,-1,601,1422,0,0
-616,-398,0,0,0,0,0,0,0,0,0,-1,608,1422,0,0
-609,-398,-7.47125,-4.05322,0,0,0,0,0,0,0,-1,615,1422,-7.47128,4.05317
-602,-398,-4.58868,-2.77026,0,0,0,0,0,0,0,-1,622,1422,-4.58869,2.77023
-595,-398,-6.81799,-1.06433,0,0,0,0,0,0,0,-1,629,1422,-6.81797,1.06429
-588,-398,-7.59973,1.71899,0,0,0,0,0,0,0,-1,636,1422,-7.59976,-1.71896
-581,-398,-7.63837,2.89636,0.0106203,0.0556154,0.0608714,0.0980137,-0.031778,0.962408,0.0781201,0.0481312,643,1422,-7.63836,-2.89634
-574,-398,-7.85339,3.9353,0,0,0,0,0,0,0,-1,650,1422,-7.85342,-3.93532
-567,-398,-6.68842,4.37317,0,0,0,0,0,0,0,-1,657,1422,-6.68841,-4.37322
-560,-398,-6.49512,4.86536,-0.000337725,0.0180069,0.018419,0.0294111,-0.0117419,1.01641,0.0244788,0.0430985,664,1422,-6.49512,-4.86539
-553,-398,-6.3269,5.26318,-0.0015031,0.0114494,0.0113561,0.0180461,-0.00809981,1.04454,0.0154552,0.0398336,671,1422,-6.32692,-5.26322
-546,-398,-6.40155,5.49792,-0.00188542,0.00687923,0.00657168,0.0103958,-0.00540195,1.07946,0.00927146,0.0193199,678,1422,-6.40153,-5.49798
-539,-398,-6.34802,5.83325,-0.00164494,0.00384332,0.0035979,0.00562414,-0.00342576,1.11119,0.00527609,0.0125939,685,1422,-6.34802,-5.83322
-532,-398,-6.3241,6.1615,-0.00131469,0.00131223,0.00127049,0.00182615,-0.00182862,1.18641,0.00211008,0.0196425,692,1422,-6.32409,-6.16153
-525,-398,-6.32416,6.46741,-0.000328473,0.000199513,0.000169937,0.00024948,-0.00037844,1.28482,0.000365069,0.0181442,699,1422,-6.32417,-6.46735
-518,-398,-6.38654,6.76794,0.000921584,9.82551e-05,0.000285908,0.00101113,8.71025e-06,0.303518,0.000671201,0.0167267,706,1422,-6.38654,-6.76789
-511,-398,-6.38757,7.07422,0.00233438,-0.00108043,0.00014224,0.00234029,-0.00108635,0.0415578,0.00202205,0.0128873,713,1422,-6.38757,-7.07427
-504,-398,-6.38074,7.39917,0.00351191,-0.0020261,-0.000418427,0.00354335,-0.00205754,-0.0749881,0.00327138,0.0133758,720,1422,-6.38075,-7.39917
-497,-398,-6.39545,7.70166,0.0045218,-0.00400175,-0.00170105,0.00484874,-0.00432868,-0.189883,0.00530142,0.00972216,727,1422,-6.39548,-7.70169
-490,-398,-6.40228,8.01648,0.00498393,-0.0075038,-0.00425716,0.00629713,-0.008817,-0.299208,0.00876648,0.0113302,734,1422,-6.40228,-8.01646
-483,-398,-6.28674,8.42322,0.00541407,-0.0122265,-0.00765874,0.00827512,-0.0150875,-0.357514,0.0136782,0.0283154,741,1422,-6.28674,-8.42325
-476,-398,-5.9809,8.82446,0,0,0,0,0,0,0,-1,748,1422,-5.98091,-8.82442
-469,-398,-6.22754,8.83203,0,0,0,0,0,0,0,-1,755,1422,-6.22753,-8.83202
-462,-398,-5.92432,7.19202,0,0,0,0,0,0,0,-1,762,1422,-5.92429,-7.19198
-455,-398,-8.08331,6.75024,0,0,0,0,0,0,0,-1,769,1422,-8.08333,-6.75022
-448,-398,-7.4505,5.25293,0,0,0,0,0,0,0,-1,776,1422,-7.4505,-5.25291
-441,-398,-7.61639,3.32141,0,0,0,0,0,0,0,-1,783,1422,-7.61637,-3.32145
-434,-398,-10.7618,3.297,0,0,0,0,0,0,0,-1,790,1422,-10.7618,-3.29704
-427,-398,-11.9061,2.24939,0,0,0,0,0,0,0,-1,797,1422,-11.9061,-2.24941
-420,-398,-13.467,2.32788,0,0,0,0,0,0,0,-1,804,1422,-13.467,-2.32787
-413,-398,-14.7983,2.15515,0,0,0,0,0,0,0,-1,811,1422,-14.7983,-2.15516
-406,-398,0,0,0,0,0,0,0,0,0,-1,818,1422,0,0
-399,-398,0,0,0,0,0,0,0,0,0,-1,825,1422,0,0
-392,-398,0,0,0,0,0,0,0,0,0,-1,832,1422,0,0
-385,-398,0,0,0,0,0,0,0,0,0,-1,839,1422,0,0
-378,-398,0,0,0,0,0,0,0,0,0,-1,846,1422,0,0
-371,-398,0,0,0,0,0,0,0,0,0,-1,853,1422,0,0
-364,-398,0,0,0,0,0,0,0,0,0,-1,860,1422,0,0
-357,-398,0,0,0,0,0,0,0,0,0,-1,867,1422,0,0
-350,-398,0,0,0,0,0,0,0,0,0,-1,874,1422,0,0
-343,-398,0,0,0,0,0,0,0,0,0,-1,881,1422,0,0
-336,-398,0,0,0,0,0,0,0,0,0,-1,888,1422,0,0
-329,-398,0,0,0,0,0,0,0,0,0,-1,895,1422,0,0
-322,-398,0,0,0,0,0,0,0,0,0,-1,902,1422,0,0
-315,-398,0,0,0,0,0,0,0,0,0,-1,909,1422,0,0
-308,-398,0,0,0,0,0,0,0,0,0,-1,916,1422,0,0
-301,-398,0,0,0,0,0,0,0,0,0,-1,923,1422,0,0
-294,-398,0,0,0,0,0,0,0,0,0,-1,930,1422,0,0
-287,-398,0,0,0,0,0,0,0,0,0,-1,937,1422,0,0
-280,-398,0,0,0,0,0,0,0,0,0,-1,944,1422,0,0
-273,-398,0,0,0,0,0,0,0,0,0,-1,951,1422,0,0
-266,-398,0,0,0,0,0,0,0,0,0,-1,958,1422,0,0
-259,-398,0,0,0,0,0,0,0,0,0,-1,965,1422,0,0
-252,-398,0,0,0,0,0,0,0,0,0,-1,972,1422,0,0
-245,-398,0,0,0,0,0,0,0,0,0,-1,979,1422,0,0
-238,-398,0,0,0,0,0,0,0,0,0,-1,986,1422,0,0
-231,-398,0,0,0,0,0,0,0,0,0,-1,993,1422,0,0
-224,-398,0,0,0,0,0,0,0,0,0,-1,1000,1422,0,0
-217,-398,0,0,0,0,0,0,0,0,0,-1,1007,1422,0,0
-210,-398,0,0,0,0,0,0,0,0,0,-1,1014,1422,0,0
-203,-398,0,0,0,0,0,0,0,0,0,-1,1021,1422,0,0
-196,-398,0,0,0,0,0,0,0,0,0,-1,1028,1422,0,0
-189,-398,0,0,0,0,0,0,0,0,0,-1,1035,1422,0,0
-182,-398,0,0,0,0,0,0,0,0,0,-1,1042,1422,0,0
-175,-398,0,0,0,0,0,0,0,0,0,-1,1049,1422,0,0
-168,-398,0,0,0,0,0,0,0,0,0,-1,1056,1422,0,0
-161,-398,0,0,0,0,0,0,0,0,0,-1,1063,1422,0,0
-154,-398,0,0,0,0,0,0,0,0,0,-1,1070,1422,0,0
-147,-398,0,0,0,0,0,0,0,0,0,-1,1077,1422,0,0
-140,-398,0,0,0,0,0,0,0,0,0,-1,1084,1422,0,0
-133,-398,0,0,0,0,0,0,0,0,0,-1,1091,1422,0,0
-126,-398,0,0,0,0,0,0,0,0,0,-1,1098,1422,0,0
-119,-398,0,0,0,0,0,0,0,0,0,-1,1105,1422,0,0
-112,-398,0,0,0,0,0,0,0,0,0,-1,1112,1422,0,0
-105,-398,0,0,0,0,0,0,0,0,0,-1,1119,1422,0,0
-98,-398,0,0,0,0,0,0,0,0,0,-1,1126,1422,0,0
-91,-398,0,0,0,0,0,0,0,0,0,-1,1133,1422,0,0
-84,-398,0,0,0,0,0,0,0,0,0,-1,1140,1422,0,0
-77,-398,0,0,0,0,0,0,0,0,0,-1,1147,1422,0,0
-70,-398,0,0,0,0,0,0,0,0,0,-1,1154,1422,0,0
-63,-398,0,0,0,0,0,0,0,0,0,-1,1161,1422,0,0
-56,-398,0,0,0,0,0,0,0,0,0,-1,1168,1422,0,0
-49,-398,0,0,0,0,0,0,0,0,0,-1,1175,1422,0,0
-42,-398,0,0,0,0,0,0,0,0,0,-1,1182,1422,0,0
-35,-398,0,0,0,0,0,0,0,0,0,-1,1189,1422,0,0
-28,-398,0,0,0,0,0,0,0,0,0,-1,1196,1422,0,0
-21,-398,0,0,0,0,0,0,0,0,0,-1,1203,1422,0,0
-14,-398,0,0,0,0,0,0,0,0,0,-1,1210,1422,0,0
-7,-398,0,0,0,0,0,0,0,0,0,-1,1217,1422,0,0
0,-398,0,0,0,0,0,0,0,0,0,-1,1224,1422,0,0
7,-398,0,0,0,0,0,0,0,0,0,-1,1231,1422,0,0
14,-398,0,0,0,0,0,0,0,0,0,-1,1238,1422,0,0
21,-398,0,0,0,0,0,0,0,0,0,-1,1245,1422,0,0
28,-398,0,0,0,0,0,0,0,0,0,-1,1252,1422,0,0
35,-398,0,0,0,0,0,0,0,0,0,-1,1259,1422,0,0
42,-398,0,0,0,0,0,0,0,0,0,-1,1266,1422,0,0
49,-398,0,0,0,0,0,0,0,0,0,-1,1273,1422,0,0
56,-398,0,0,0,0,0,0,0,0,0,-1,1280,1422,0,0
63,-398,0,0,0,0,0,0,0,0,0,-1,1287,1422,0,0
70,-398,0,0,0,0,0,0,0,0,0,-1,1294,1422,0,0
77,-398,0,0,0,0,0,0,0,0,0,-1,1301,1422,0,0
84,-398,0,0,0,0,0,0,0,0,0,-1,1308,1422,0,0
91,-398,0,0,0,0,0,0,0,0,0,-1,1315,1422,0,0
98,-398,0,0,0,0,0,0,0,0,0,-1,1322,1422,0,0
105,-398,0,0,0,0,0,0,0,0,0,-1,1329,1422,0,0
112,-398,0,0,0,0,0,0,0,0,0,-1,1336,1422,0,0
119,-398,0,0,0,0,0,0,0,0,0,-1,1343,1422,0,0
126,-398,0,0,0,0,0,0,0,0,0,-1,1350,1422,0,0
133,-398,0,0,0,0,0,0,0,0,0,-1,1357,1422,0,0
140,-398,0,0,0,0,0,0,0,0,0,-1,1364,1422,0,0
147,-398,0,0,0,0,0,0,0,0,0,-1,1371,1422,0,0
154,-398,0,0,0,0,0,0,0,0,0,-1,1378,1422,0,0
161,-398,0,0,0,0,0,0,0,0,0,-1,1385,1422,0,0
168,-398,0,0,0,0,0,0,0,0,0,-1,1392,1422,0,0
175,-398,0,0,0,0,0,0,0,0,0,-1,1399,1422,0,0
182,-398,0,0,0,0,0,0,0,0,0,-1,1406,1422,0,0
189,-398,0,0,0,0,0,0,0,0,0,-1,1413,1422,0,0
196,-398,0,0,0,0,0,0,0,0,0,-1,1420,1422,0,0
203,-398,0,0,0,0,0,0,0,0,0,-1,1427,1422,0,0
210,-398,0,0,0,0,0,0,0,0,0,-1,1434,1422,0,0
217,-398,0,0,0,0,0,0,0,0,0,-1,1441,1422,0,0
224,-398,0,0,0,0,0,0,0,0,0,-1,1448,1422,0,0
231,-398,0,0,0,0,0,0,0,0,0,-1,1455,1422,0,0
238,-398,0,0,0,0,0,0,0,0,0,-1,1462,1422,0,0
245,-398,0,0,0,0,0,0,0,0,0,-1,1469,1422,0,0
252,-398,0,0,0,0,0,0,0,0,0,-1,1476,1422,0,0
259,-398,0,0,0,0,0,0,0,0,0,-1,1483,1422,0,0
266,-398,0,0,0,0,0,0,0,0,0,-1,1490,1422,0,0
273,-398,0,0,0,0,0,0,0,0,0,-1,1497,1422,0,0
280,-398,0,0,0,0,0,0,0,0,0,-1,1504,1422,0,0
287,-398,0,0,0,0,0,0,0,0,0,-1,1511,1422,0,0
294,-398,0,0,0,0,0,0,0,0,0,-1,1518,1422,0,0
301,-398,0,0,0,0,0,0,0,0,0,-1,1525,1422,0,0
308,-398,0,0,0,0,0,0,0,0,0,-1,1532,1422,0,0
315,-398,0,0,0,0,0,0,0,0,0,-1,1539,1422,0,0
322,-398,0,0,0,0,0,0,0,0,0,-1,1546,1422,0,0
329,-398,0,0,0,0,0,0,0,0,0,-1,1553,1422,0,0
336,-398,0,0,0,0,0,0,0,0,0,-1,1560,1422,0,0
343,-398,0,0,0,0,0,0,0,0,0,-1,1567,1422,0,0
350,-398,0,0,0,0,0,0,0,0,0,-1,1574,1422,0,0
357,-398,0,0,0,0,0,0,0,0,0,-1,1581,1422,0,0
364,-398,0,0,0,0,0,0,0,0,0,-1,1588,1422,0,0
371,-398,0,0,0,0,0,0,0,0,0,-1,1595,1422,0,0
378,-398,0,0,0,0,0,0,0,0,0,-1,1602,1422,0,0
385,-398,0,0,0,0,0,0,0,0,0,-1,1609,1422,0,0
392,-398,0,0,0,0,0,0,0,0,0,-1,1616,1422,0,0
399,-398,0,0,0,0,0,0,0,0,0,-1,1623,1422,0,0
406,-398,0,0,0,0,0,0,0,0,0,-1,1630,1422,0,0
413,-398,0,0,0,0,0,0,0,0,0,-1,1637,1422,0,0
420,-398,0,0,0,0,0,0,0,0,0,-1,1644,1422,0,0
427,-398,0,0,0,0,0,0,0,0,0,-1,1651,1422,0,0
434,-398,0,0,0,0,0,0,0,0,0,-1,1658,1422,0,0
441,-398,0,0,0,0,0,0,0,0,0,-1,1665,1422,0,0
448,-398,0,0,0,0,0,0,0,0,0,-1,1672,1422,0,0
455,-398,0,0,0,0,0,0,0,0,0,-1,1679,1422,0,0
462,-398,0,0,0,0,0,0,0,0,0,-1,1686,1422,0,0
469,-398,0,0,0,0,0,0,0,0,0,-1,1693,1422,0,0
476,-398,0,0,0,0,0,0,0,0,0,-1,1700,1422,0,0
483,-398,0,0,0,0,0,0,0,0,0,-1,1707,1422,0,0
490,-398,0,0,0,0,0,0,0,0,0,-1,1714,1422,0,0
497,-398,0,0,0,0,0,0,0,0,0,-1,1721,1422,0,0
504,-398,0,0,0,0,0,0,0,0,0,-1,1728,1422,0,0
511,-398,0,0,0,0,0,0,0,0,0,-1,1735,1422,0,0
518,-398,0,0,0,0,0,0,0,0,0,-1,1742,1422,0,0
525,-398,0,0,0,0,0,0,0,0,0,-1,1749,1422,0,0
532,-398,30.7917,-1.17822,0,0,0,0,0,0,0,-1,1756,1422,30.7917,1.17826
539,-398,29.3938,-0.323364,0,0,0,0,0,0,0,-1,1763,1422,29.3937,0.323402
546,-398,28.048,0.531128,0,0,0,0,0,0,0,-1,1770,1422,28.0479,-0.531175
553,-398,26.5673,1.43127,0,0,0,0,0,0,0,-1,1777,1422,26.5673,-1.43126
560,-398,25.2944,2.77917,0,0,0,0,0,0,0,-1,1784,1422,25.2945,-2.77913
567,-398,24.2112,3.81177,0,0,0,0,0,0,0,-1,1791,1422,24.2112,-3.8118
574,-398,23.2596,4.76233,0,0,0,0,0,0,0,-1,1798,1422,23.2596,-4.76239
581,-398,22.0823,5.91931,0,0,0,0,0,0,0,-1,1805,1422,22.0823,-5.91934
588,-398,20.9825,6.74756,0,0,0,0,0,0,0,-1,1812,1422,20.9826,-6.7475
595,-398,19.9556,7.65234,0,0,0,0,0,0,0,-1,1819,1422,19.9555,-7.65239
602,-398,18.9205,8.24561,0,0,0,0,0,0,0,-1,1826,1422,18.9205,-8.24562
609,-398,16.2787,10.4008,0,0,0,0,0,0,0,-1,1833,1422,16.2787,-10.4008
616,-398,16.3254,10.0642,-0.00118066,-0.00359248,0.00188026,-0.000152829,-0.00462031,0.500262,0.00303055,0.0280924,1840,1422,16.3254,-10.0643
623,-398,16.2643,9.77026,-0.00397733,-0.00274648,0.00212285,-0.00115165,-0.00557216,0.926482,0.00339661,0.0138592,1847,1422,16.2643,-9.77022
630,-398,16.2733,9.49231,-0.00261185,-0.00219217,0.0015215,-0.000866111,-0.00393791,0.853924,0.00238948,0.0116692,1854,1422,16.2733,-9.49231
637,-398,16.2577,9.22522,-0.000901178,-0.00129912,0.00072988,-0.000343632,-0.00185666,0.652329,0.00114062,0.0130977,1861,1422,16.2577,-9.22526
644,-398,16.2051,8.9292,4.93788e-05,-0.000730624,0.00030219,0.000152753,-0.000833998,0.329606,0.000613291,0.0187232,1868,1422,16.2051,-8.92917
651,-398,16.2738,8.66077,0.000827416,-0.000381227,-1.90698e-05,0.000827717,-0.000381528,-0.0157726,0.000713824,0.0244978,1875,1422,16.2738,-8.66079
658,-398,16.3037,8.42078,0.000769159,-0.000405652,5.13243e-05,0.000771397,-0.00040789,0.0435766,0.00069156,0.0203655,1882,1422,16.3037,-8.42076
665,-398,16.2476,8.10559,0.000377978,-0.000590747,0.000334804,0.000482429,-0.000695198,0.302407,0.000683592,0.0145415,1889,1422,16.2476,-8.10557
672,-398,16.2493,7.81726,-0.000166813,-0.00100494,0.000773288,0.000293663,-0.00146541,0.537088,0.00108812,0.0125397,1896,1422,16.2492,-7.81732
679,-398,16.2439,7.53455,-0.000813767,-0.00173492,0.00138584,0.00018603,-0.00273472,0.624968,0.00188821,0.011958,1903,1422,16.2439,-7.53454
686,-398,16.2478,7.25647,-0.00159381,-0.00289796,0.00226119,0.000107449,-0.00459921,0.645018,0.00310258,0.020621,1910,1422,16.2478,-7.25646
693,-398,16.1541,7.25159,0,0,0,0,0,0,0,-1,1917,1422,16.154,-7.25163
700,-398,14.0787,6.53918,0,0,0,0,0,0,0,-1,1924,1422,14.0787,-6.53921
707,-398,10.9731,5.479,0,0,0,0,0,0,0,-1,1931,1422,10.9732,-5.47896
714,-398,11.7313,6.17346,0,0,0,0,0,0,0,-1,1938,1422,11.7313,-6.17348
721,-398,13.9371,8.05103,0,0,0,0,0,0,0,-1,1945,1422,13.9372,-8.05102
728,-398,14.786,7.0282,0,0,0,0,0,0,0,-1,1952,1422,14.786,-7.0282
735,-398,0,0,0,0,0,0,0,0,0,-1,1959,1422,0,0
742,-398,0,0,0,0,0,0,0,0,0,-1,1966,1422,0,0
749,-398,0,0,0,0,0,0,0,0,0,-1,1973,1422,0,0
756,-398,0,0,0,0,0,0,0,0,0,-1,1980,1422,0,0
763,-398,0,0,0,0,0,0,0,0,0,-1,1987,1422,0,0
770,-398,0,0,0,0,0,0,0,0,0,-1,1994,1422,0,0
777,-398,0,0,0,0,0,0,0,0,0,-1,2001,1422,0,0
784,-398,0,0,0,0,0,0,0,0,0,-1,2008,1422,0,0
791,-398,0,0,0,0,0,0,0,0,0,-1,2015,1422,0,0
798,-398,0,0,0,0,0,0,0,0,0,-1,2022,1422,0,0
805,-398,0,0,0,0,0,0,0,0,0,-1,2029,1422,0,0
812,-398,0,0,0,0,0,0,0,0,0,-1,2036,1422,0,0
-700,-405,0,0,0,0,0,0,0,0,0,-1,524,1429,0,0
-693,-405,0,0,0,0,0,0,0,0,0,-1,531,1429,0,0
-686,-405,0,0,0,0,0,0,0,0,0,-1,538,1429,0,0
-679,-405,0,0,0,0,0,0,0,0,0,-1,545,1429,0,0
-672,-405,0,0,0,0,0,0,0,0,0,-1,552,1429,0,0
-665,-405,0,0,0,0,0,0,0,0,0,-1,559,1429,0,0
-658,-405,0,0,0,0,0,0,0,0,0,-1,566,1429,0,0
-651,-405,0,0,0,0,0,0,0,0,0,-1,573,1429,0,0
-644,-405,0,0,0,0,0,0,0,0,0,-1,580,1429,0,0
-637,-405,0,0,0,0,0,0,0,0,0,-1,587,1429,0,0
-630,-405,0,0,0,0,0,0,0,0,0,-1,594,1429,0,0
-623,-405,0,0,0,0,0,0,0,0,0,-1,601,1429,0,0
-616,-405,0,0,0,0,0,0,0,0,0,-1,608,1429,0,0
-609,-405,0,0,0,0,0,0,0,0,0,-1,615,1429,0,0
-602,-405,-5.80988,-3.46594,0,0,0,0,0,0,0,-1,622,1429,-5.80987,3.46592
-595,-405,-9.35413,2.01477,0,0,0,0,0,0,0,-1,629,1429,-9.35411,-2.01476
-588,-405,-7.35693,0.507202,0,0,0,0,0,0,0,-1,636,1429,-7.35696,-0.507187
-581,-405,-7.89923,2.40601,0,0,0,0,0,0,0,-1,643,1429,-7.8992,-2.40597
-574,-405,-8.07428,3.52844,0,0,0,0,0,0,0,-1,650,1429,-8.07429,-3.52842
-567,-405,-6.60852,4.29858,0,0,0,0,0,0,0,-1,657,1429,-6.60851,-4.29861
-560,-405,-6.37036,4.71924,0,0,0,0,0,0,0,-1,664,1429,-6.37034,-4.71929
-553,-405,-6.16565,5.16833,0,0,0,0,0,0,0,-1,671,1429,-6.16565,-5.16831
-546,-405,-6.07935,5.49121,0.00138505,0.00744011,0.00844409,0.013383,-0.00455785,0.957529,0.0107678,0.0292337,678,1429,-6.07934,-5.49118
-539,-405,-6.07776,5.81519,0.00101248,0.00407567,0.00487226,0.00765139,-0.00256325,0.937683,0.00613647,0.0119597,685,1429,-6.07777,-5.81518
-532,-405,-6.0603,6.13977,0.000663094,0.00132146,0.00205246,0.00307097,-0.00108642,0.864913,0.00248976,0.0143924,692,1429,-6.06028,-6.1398
-525,-405,-6.05798,6.46936,0.000942897,8.95881e-05,0.000528709,0.00119563,-0.000163145,0.445909,0.000856662,0.0132328,699,1429,-6.05796,-6.46932
-518,-405,-6.06696,6.77209,0.00142754,3.16799e-05,0.000447453,0.00155866,-9.94379e-05,0.285052,0.00107379,0.0148948,706,1429,-6.06697,-6.77209
-511,-405,-6.06757,7.0813,0.00209446,-0.000996568,0.000164487,0.00210319,-0.0010053,0.0530149,0.00183162,0.0157725,713,1429,-6.06758,-7.08126
-504,-405,-6.052,7.39038,0.00257968,-0.00182608,-0.00056144,0.0026501,-0.0018965,-0.124777,0.00263697,0.0176788,720,1429,-6.052,-7.39043
-497,-405,-6.0625,7.70996,0.00296232,-0.00360773,-0.00191411,0.00347929,-0.00412471,-0.263793,0.00439544,0.0141171,727,1429,-6.06253,-7.70997
-490,-405,-6.07861,8.02905,0.00291412,-0.0067435,-0.0043456,0.00458159,-0.00841097,-0.366389,0.00760909,0.0116743,734,1429,-6.07859,-8.02909
-483,-405,-6.05481,8.37512,0.00288625,-0.0107958,-0.00743612,0.00614946,-0.014059,-0.413528,0.0119615,0.0126651,741,1429,-6.05484,-8.37509
-476,-405,-5.99011,8.70178,0.00299696,-0.0165957,-0.0118032,0.00853961,-0.0221384,-0.439023,0.0182828,0.0318369,748,1429,-5.9901,-8.70174
-469,-405,-6.12354,8.89136,0.00266131,-0.0247706,-0.0179797,0.0115595,-0.0336687,-0.459559,0.0271326,0.0445223,755,1429,-6.12355,-8.89133
-462,-405,-5.81995,7.99878,0.00125278,-0.0357213,-0.0267009,0.015242,-0.0497105,-0.482603,0.039221,0.0490062,762,1429,-5.81995,-7.9988
-455,-405,-6.25311,8.00427,0,0,0,0,0,0,0,-1,769,1429,-6.2531,-8.00422
-448,-405,-8.4649,6.82813,0,0,0,0,0,0,0,-1,776,1429,-8.46492,-6.82817
-441,-405,-6.6712,4.23767,0,0,0,0,0,0,0,-1,783,1429,-6.67121,-4.23764
-434,-405,-9.62549,3.94189,0,0,0,0,0,0,0,-1,790,1429,-9.62546,-3.94191
-427,-405,-10.9764,3.73926,0,0,0,0,0,0,0,-1,797,1429,-10.9764,-3.73923
-420,-405,-12.1187,3.68506,0,0,0,0,0,0,0,-1,804,1429,-12.1187,-3.68512
-413,-405,-13.5353,3.75659,0,0,0,0,0,0,0,-1,811,1429,-13.5353,-3.75655
-406,-405,-14.7374,3.99817,0,0,0,0,0,0,0,-1,818,1429,-14.7374,-3.99814
-399,-405,0,0,0,0,0,0,0,0,0,-1,825,1429,0,0
-392,-405,0,0,0,0,0,0,0,0,0,-1,832,1429,0,0
-385,-405,0,0,0,0,0,0,0,0,0,-1,839,1429,0,0
-378,-405,0,0,0,0,0,0,0,0,0,-1,846,1429,0,0
-371,-405,0,0,0,0,0,0,0,0,0,-1,853,1429,0,0
-364,-405,0,0,0,0,0,0,0,0,0,-1,860,1429,0,0
-357,-405,0,0,0,0,0,0,0,0,0,-1,867,1429,0,0
-350,-405,0,0,0,0,0,0,0,0,0,-1,874,1429,0,0
-343,-405,0,0,0,0,0,0,0,0,0,-1,881,1429,0,0
-336,-405,0,0,0,0,0,0,0,0,0,-1,888,1429,0,0
-329,-405,0,0,0,0,0,0,0,0,0,-1,895,1429,0,0
-322,-405,0,0,0,0,0,0,0,0,0,-1,902,1429,0,0
-315,-405,0,0,0,0,0,0,0,0,0,-1,909,1429,0,0
-308,-405,0,0,0,0,0,0,0,0,0,-1,916,1429,0,0
-301,-405,0,0,0,0,0,0,0,0,0,-1,923,1429,0,0
-294,-405,0,0,0,0,0,0,0,0,0,-1,930,1429,0,0
-287,-405,0,0,0,0,0,0,0,0,0,-1,937,1429,0,0
-280,-405,0,0,0,0,0,0,0,0,0,-1,944,1429,0,0
-273,-405,0,0,0,0,0,0,0,0,0,-1,951,1429,0,0
-266,-405,0,0,0,0,0,0,0,0,0,-1,958,1429,0,0
-259,-405,0,0,0,0,0,0,0,0,0,-1,965,1429,0,0
-252,-405,0,0,0,0,0,0,0,0,0,-1,972,1429,0,0
-245,-405,0,0,0,0,0,0,0,0,0,-1,979,1429,0,0
-238,-405,0,0,0,0,0,0,0,0,0,-1,986,1429,0,0
-231,-405,0,0,0,0,0,0,0,0,0,-1,993,1429,0,0
-224,-405,0,0,0,0,0,0,0,0,0,-1,1000,1429,0,0
-217,-405,0,0,0,0,0,0,0,0,0,-1,1007,1429,0,0
-210,-405,0,0,0,0,0,0,0,0,0,-1,1014,1429,0,0
-203,-405,0,0,0,0,0,0,0,0,0,-1,1021,1429,0,0
-196,-405,0,0,0,0,0,0,0,0,0,-1,1028,1429,0,0
-189,-405,0,0,0,0,0,0,0,0,0,-1,1035,1429,0,0
-182,-405,0,0,0,0,0,0,0,0,0,-1,1042,1429,0,0
-175,-405,0,0,0,0,0,0,0,0,0,-1,1049,1429,0,0
-168,-405,0,0,0,0,0,0,0,0,0,-1,1056,1429,0,0
-161,-405,0,0,0,0,0,0,0,0,0,-1,1063,1429,0,0
-154,-405,0,0,0,0,0,0,0,0,0,-1,1070,1429,0,0
-147,-405,0,0,0,0,0,0,0,0,0,-1,1077,1429,0,0
-140,-405,0,0,0,0,0,0,0,0,0,-1,1084,1429,0,0
-133,-405,0,0,0,0,0,0,0,0,0,-1,1091,1429,0,0
-126,-405,0,0,0,0,0,0,0,0,0,-1,1098,1429,0,0
-119,-405,0,0,0,0,0,0,0,0,0,-1,1105,1429,0,0
-112,-405,0,0,0,0,0,0,0,0,0,-1,1112,1429,0,0
-105,-405,0,0,0,0,0,0,0,0,0,-1,1119,1429,0,0
-98,-405,0,0,0,0,0,0,0,0,0,-1,1126,1429,0,0
-91,-405,0,0,0,0,0,0,0,0,0,-1,1133,1429,0,0
-84,-405,0,0,0,0,0,0,0,0,0,-1,1140,1429,0,0
-77,-405,0,0,0,0,0,0,0,0,0,-1,1147,1429,0,0
-70,-405,0,0,0,0,0,0,0,0,0,-1,1154,1429,0,0
-63,-405,0,0,0,0,0,0,0,0,0,-1,1161,1429,0,0
-56,-405,0,0,0,0,0,0,0,0,0,-1,1168,1429,0,0
-49,-405,0,0,0,0,0,0,0,0,0,-1,1175,1429,0,0
-42,-405,0,0,0,0,0,0,0,0,0,-1,1182,1429,0,0
-35,-405,0,0,0,0,0,0,0,0,0,-1,1189,1429,0,0
-28,-405,0,0,0,0,0,0,0,0,0,-1,1196,1429,0,0
-21,-405,0,0,0,0,0,0,0,0,0,-1,1203,1429,0,0
-14,-405,0,0,0,0,0,0,0,0,0,-1,1210,1429,0,0
-7,-405,0,0,0,0,0,0,0,0,0,-1,1217,1429,0,0
0,-405,0,0,0,0,0,0,0,0,0,-1,1224,1429,0,0
7,-405,0,0,0,0,0,0,0,0,0,-1,1231,1429,0,0
14,-405,0,0,0,0,0,0,0,0,0,-1,1238,1429,0,0
21,-405,0,0,0,0,0,0,0,0,0,-1,1245,1429,0,0
28,-405,0,0,0,0,0,0,0,0,0,-1,1252,1429,0,0
35,-405,0,0,0,0,0,0,0,0,0,-1,1259,1429,0,0
42,-405,0,0,0,0,0,0,0,0,0,-1,1266,1429,0,0
49,-405,0,0,0,0,0,0,0,0,0,-1,1273,1429,0,0
56,-405,0,0,0,0,0,0,0,0,0,-1,1280,1429,0,0
63,-405,0,0,0,0,0,0,0,0,0,-1,1287,1429,0,0
70,-405,0,0,0,0,0,0,0,0,0,-1,1294,1429,0,0
77,-405,0,0,0,0,0,0,0,0,0,-1,1301,1429,0,0
84,-405,0,0,0,0,0,0,0,0,0,-1,1308,1429,0,0
91,-405,0,0,0,0,0,0,0,0,0,-1,1315,1429,0,0
98,-405,0,0,0,0,0,0,0,0,0,-1,1322,1429,0,0
105,-405,0,0,0,0,0,0,0,0,0,-1,1329,1429,0,0
112,-405,0,0,0,0,0,0,0,0,0,-1,1336,1429,0,0
119,-405,0,0,0,0,0,0,0,0,0,-1,1343,1429,0,0
126,-405,0,0,0,0,0,0,0,0,0,-1,1350,1429,0,0
133,-405,0,0,0,0,0,0,0,0,0,-1,1357,1429,0,0
140,-405,0,0,0,0,0,0,0,0,0,-1,1364,1429,0,0
147,-405,0,0,0,0,0,0,0,0,0,-1,1371,1429,0,0
154,-405,0,0,0,0,0,0,0,0,0,-1,1378,1429,0,0
161,-405,0,0,0,0,0,0,0,0,0,-1,1385,1429,0,0
168,-405,0,0,0,0,0,0,0,0,0,-1,1392,1429,0,0
175,-405,0,0,0,0,0,0,0,0,0,-1,1399,1429,0,0
182,-405,0,0,0,0,0,0,0,0,0,-1,1406,1429,0,0
189,-405,0,0,0,0,0,0,0,0,0,-1,1413,1429,0,0
196,-405,0,0,0,0,0,0,0,0,0,-1,1420,1429,0,0
203,-405,0,0,0,0,0,0,0,0,0,-1,1427,1429,0,0
210,-405,0,0,0,0,0,0,0,0,0,-1,1434,1429,0,0
217,-405,0,0,0,0,0,0,0,0,0,-1,1441,1429,0,0
224,-405,0,0,0,0,0,0,0,0,0,-1,1448,1429,0,0
231,-405,0,0,0,0,0,0,0,0,0,-1,1455,1429,0,0
238,-405,0,0,0,0,0,0,0,0,0,-1,1462,1429,0,0
245,-405,0,0,0,0,0,0,0,0,0,-1,1469,1429,0,0
252,-405,0,0,0,0,0,0,0,0,0,-1,1476,1429,0,0
259,-405,0,0,0,0,0,0,0,0,0,-1,1483,1429,0,0
266,-405,0,0,0,0,0,0,0,0,0,-1,1490,1429,0,0
273,-405,0,0,0,0,0,0,0,0,0,-1,1497,1429,0,0
280,-405,0,0,0,0,0,0,0,0,0,-1,1504,1429,0,0
287,-405,0,0,0,0,0,0,0,0,0,-1,1511,1429,0,0
294,-405,0,0,0,0,0,0,0,0,0,-1,1518,1429,0,0
301,-405,0,0,0,0,0,0,0,0,0,-1,1525,1429,0,0
308,-405,0,0,0,0,0,0,0,0,0,-1,1532,1429,0,0
315,-405,0,0,0,0,0,0,0,0,0,-1,1539,1429,0,0
322,-405,0,0,0,0,0,0,0,0,0,-1,1546,1429,0,0
329,-405,0,0,0,0,0,0,0,0,0,-1,1553,1429,0,0
336,-405,0,0,0,0,0,0,0,0,0,-1,1560,1429,0,0
343,-405,0,0,0,0,0,0,0,0,0,-1,1567,1429,0,0
350,-405,0,0,0,0,0,0,0,0,0,-1,1574,1429,0,0
357,-405,0,0,0,0,0,0,0,0,0,-1,1581,1429,0,0
364,-405,0,0,0,0,0,0,0,0,0,-1,1588,1429,0,0
371,-405,0,0,0,0,0,0,0,0,0,-1,1595,1429,0,0
378,-405,0,0,0,0,0,0,0,0,0,-1,1602,1429,0,0
385,-405,0,0,0,0,0,0,0,0,0,-1,1609,1429,0,0
392,-405,0,0,0,0,0,0,0,0,0,-1,1616,1429,0,0
399,-405,0,0,0,0,0,0,0,0,0,-1,1623,1429,0,0
406,-405,0,0,0,0,0,0,0,0,0,-1,1630,1429,0,0
413,-405,0,0,0,0,0,0,0,0,0,-1,1637,1429,0,0
420,-405,0,0,0,0,0,0,0,0,0,-1,1644,1429,0,0
427,-405,0,0,0,0,0,0,0,0,0,-1,1651,1429,0,0
434,-405,0,0,0,0,0,0,0,0,0,-1,1658,1429,0,0
441,-405,0,0,0,0,0,0,0,0,0,-1,1665,1429,0,0
448,-405,0,0,0,0,0,0,0,0,0,-1,1672,1429,0,0
455,-405,0,0,0,0,0,0,0,0,0,-1,1679,1429,0,0
462,-405,0,0,0,0,0,0,0,0,0,-1,1686,1429,0,0
469,-405,0,0,0,0,0,0,0,0,0,-1,1693,1429,0,0
476,-405,0,0,0,0,0,0,0,0,0,-1,1700,1429,0,0
483,-405,0,0,0,0,0,0,0,0,0,-1,1707,1429,0,0
490,-405,0,0,0,0,0,0,0,0,0,-1,1714,1429,0,0
497,-405,0,0,0,0,0,0,0,0,0,-1,1721,1429,0,0
504,-405,0,0,0,0,0,0,0,0,0,-1,1728,1429,0,0
511,-405,0,0,0,0,0,0,0,0,0,-1,1735,1429,0,0
518,-405,0,0,0,0,0,0,0,0,0,-1,1742,1429,0,0
525,-405,31.1563,-1.40942,0,0,0,0,0,0,0,-1,1749,1429,31.1563,1.40937
532,-405,29.8248,-0.54187,0,0,0,0,0,0,0,-1,1756,1429,29.8248,0.541878
539,-405,28.4384,0.320435,0,0,0,0,0,0,0,-1,1763,1429,28.4383,-0.320476
546,-405,27.1021,1.15869,0,0,0,0,0,0,0,-1,1770,1429,27.102,-1.15872
553,-405,25.6764,2.06506,0,0,0,0,0,0,0,-1,1777,1429,25.6764,-2.06501
560,-405,24.2328,3.2218,0,0,0,0,0,0,0,-1,1784,1429,24.2327,-3.22182
567,-405,23.1583,4.31091,0,0,0,0,0,0,0,-1,1791,1429,23.1583,-4.31092
574,-405,21.9927,5.33142,0,0,0,0,0,0,0,-1,1798,1429,21.9927,-5.33147
581,-405,20.7406,6.36755,0,0,0,0,0,0,0,-1,1805,1429,20.7406,-6.36759
588,-405,19.5016,7.62805,0,0,0,0,0,0,0,-1,1812,1429,19.5016,-7.628
595,-405,18.4342,8.77954,0,0,0,0,0,0,0,-1,1819,1429,18.4342,-8.77949
602,-405,16.0691,10.5411,0,0,0,0,0,0,0,-1,1826,1429,16.069,-10.5411
609,-405,16.0187,10.3563,-0.000303258,-0.00365531,0.00236133,0.000916391,-0.00487496,0.476768,0.00359458,0.0271161,1833,1429,16.0186,-10.3563
616,-405,15.9727,10.1072,-0.00289664,-0.00305847,0.00251379,-0.000462465,-0.00549265,0.769309,0.00351776,0.0117459,1840,1429,15.9727,-10.1072
623,-405,15.9807,9.8103,-0.00356212,-0.00197309,0.00212301,-0.000500792,-0.00503441,0.96445,0.00320242,0.00950423,1847,1429,15.9807,-9.81034
630,-405,15.9926,9.50745,-0.00206217,-0.00144156,0.00134032,-0.000376092,-0.00312763,0.899152,0.00197172,0.010204,1854,1429,15.9925,-9.50746
637,-405,15.9788,9.23535,-0.000867247,-0.000844973,0.000666422,-0.000189595,-0.00152262,0.793753,0.000958158,0.0107863,1861,1429,15.9788,-9.23532
644,-405,15.9167,8.96021,-0.000198001,-0.000510922,0.000282704,-3.13492e-05,-0.000677573,0.532657,0.000441637,0.0282085,1868,1429,15.9168,-8.96025
651,-405,15.9152,8.6969,0.000282475,-0.000393512,-1.50799e-07,0.000282475,-0.000393512,-0.000223079,0.000392032,0.0313425,1875,1429,15.9151,-8.69696
658,-405,15.9769,8.40137,0.000161752,-0.000464844,2.34024e-05,0.000162624,-0.000465717,0.0372792,0.000376579,0.021801,1882,1429,15.9769,-8.40143
665,-405,15.9694,8.099,-0.000268915,-0.00069313,0.000238646,-0.00016174,-0.000800305,0.422102,0.000488629,0.0177544,1889,1429,15.9693,-8.09894
672,-405,15.9742,7.82288,-0.000860311,-0.00115601,0.000621068,-0.000369736,-0.00164658,0.668545,0.000997583,0.020882,1896,1429,15.9743,-7.82282
679,-405,16.0029,7.52771,-0.00155295,-0.00195602,0.00118559,-0.000551894,-0.00295708,0.70121,0.0018156,0.0202425,1903,1429,16.003,-7.52773
686,-405,15.7911,7.11694,-0.00241152,-0.0032469,0.00207637,-0.000711244,-0.00494717,0.686141,0.00308845,0.038345,1910,1429,15.7912,-7.11699
693,-405,15.4573,6.83801,0,0,0,0,0,0,0,-1,1917,1429,15.4572,-6.83803
700,-405,9.1958,4.02026,0,0,0,0,0,0,0,-1,1924,1429,9.19579,-4.02025
707,-405,7.40308,3.83191,0,0,0,0,0,0,0,-1,1931,1429,7.40311,-3.83194
714,-405,7.33252,3.47388,0,0,0,0,0,0,0,-1,1938,1429,7.33255,-3.47383
721,-405,9.23523,0.993896,0,0,0,0,0,0,0,-1,1945,1429,9.23523,-0.993884
728,-405,0,0,0,0,0,0,0,0,0,-1,1952,1429,0,0
735,-405,0,0,0,0,0,0,0,0,0,-1,1959,1429,0,0
742,-405,0,0,0,0,0,0,0,0,0,-1,1966,1429,0,0
749,-405,0,0,0,0,0,0,0,0,0,-1,1973,1429,0,0
756,-405,0,0,0,0,0,0,0,0,0,-1,1980,1429,0,0
763,-405,0,0,0,0,0,0,0,0,0,-1,1987,1429,0,0
770,-405,0,0,0,0,0,0,0,0,0,-1,1994,1429,0,0
777,-405,0,0,0,0,0,0,0,0,0,-1,2001,1429,0,0
784,-405,0,0,0,0,0,0,0,0,0,-1,2008,1429,0,0
791,-405,0,0,0,0,0,0,0,0,0,-1,2015,1429,0,0
798,-405,0,0,0,0,0,0,0,0,0,-1,2022,1429,0,0
805,-405,0,0,0,0,0,0,0,0,0,-1,2029,1429,0,0
812,-405,0,0,0,0,0,0,0,0,0,-1,2036,1429,0,0
-700,-412,0,0,0,0,0,0,0,0,0,-1,524,1436,0,0
-693,-412,0,0,0,0,0,0,0,0,0,-1,531,1436,0,0
-686,-412,0,0,0,0,0,0,0,0,0,-1,538,1436,0,0
-679,-412,0,0,0,0,0,0,0,0,0,-1,545,1436,0,0
-672,-412,0,0,0,0,0,0,0,0,0,-1,552,1436,0,0
-665,-412,0,0,0,0,0,0,0,0,0,-1,559,1436,0,0
-658,-412,0,0,0,0,0,0,0,0,0,-1,566,1436,0,0
-651,-412,0,0,0,0,0,0,0,0,0,-1,573,1436,0,0
-644,-412,0,0,0,0,0,0,0,0,0,-1,580,1436,0,0
-637,-412,0,0,0,0,0,0,0,0,0,-1,587,1436,0,0
-630,-412,0,0,0,0,0,0,0,0,0,-1,594,1436,0,0
-623,-412,0,0,0,0,0,0,0,0,0,-1,601,1436,0,0
-616,-412,0,0,0,0,0,0,0,0,0,-1,608,1436,0,0
-609,-412,0,0,0,0,0,0,0,0,0,-1,615,1436,0,0
-602,-412,-3.72766,-3.50012,0,0,0,0,0,0,0,-1,622,1436,-3.72764,3.50017
-595,-412,-10.3706,0.65564,0,0,0,0,0,0,0,-1,629,1436,-10.3706,-0.655672
-588,-412,-8.17957,1.94934,0,0,0,0,0,0,0,-1,636,1436,-8.17956,-1.94939
-581,-412,-6.60065,-0.0554199,0,0,0,0,0,0,0,-1,643,1436,-6.60063,0.0554733
-574,-412,-5.41547,3.68811,0,0,0,0,0,0,0,-1,650,1436,-5.41549,-3.68817
-567,-412,-7.50354,3.65454,0,0,0,0,0,0,0,-1,657,1436,-7.50356,-3.65452
-560,-412,-6.34918,4.57642,0,0,0,0,0,0,0,-1,664,1436,-6.34921,-4.57639
-553,-412,-5.39404,5.56543,0,0,0,0,0,0,0,-1,671,1436,-5.39403,-5.56542
-546,-412,-5.5379,5.65454,0.00369147,0.00816636,0.00988678,0.0160657,-0.00420788,0.896677,0.0123543,0.0438548,678,1436,-5.53792,-5.65454
-539,-412,-5.73822,5.78223,0.00279483,0.00447928,0.00576536,0.00946361,-0.0021895,0.857927,0.00715152,0.0189025,685,1436,-5.73823,-5.78228
-532,-412,-5.74115,6.16052,0.00194102,0.00152593,0.0025484,0.00429031,-0.000823367,0.744767,0.0031705,0.0132212,692,1436,-5.74116,-6.16053
-525,-412,-5.74554,6.49414,0.00177849,0.000182526,0.000739159,0.00206823,-0.000107209,0.373574,0.00141591,0.0144402,699,1436,-5.74552,-6.49408
-518,-412,-5.73474,6.80688,0.00181905,0.00010795,0.000561529,0.00198687,-5.9867e-05,0.290408,0.00134498,0.0160658,706,1436,-5.73472,-6.80689
-511,-412,-5.72723,7.11646,0.0020761,-0.000759283,0.000237769,0.0020959,-0.000779083,0.0830846,0.00171693,0.0192646,713,1436,-5.72726,-7.1165
-504,-412,-5.73523,7.43286,0.00223875,-0.00151865,-0.000524525,0.0023106,-0.00159049,-0.136131,0.00226505,0.0190274,720,1436,-5.7352,-7.43289
-497,-412,-5.755,7.74792,0.00233445,-0.00316609,-0.00184057,0.00289351,-0.00372515,-0.294888,0.00383133,0.0148065,727,1436,-5.755,-7.74793
-490,-412,-5.76245,8.05627,0.00207968,-0.00601574,-0.00408626,0.00378362,-0.00771969,-0.395069,0.00676979,0.01227,734,1436,-5.76243,-8.05628
-483,-412,-5.77484,8.34656,0.00191267,-0.00952931,-0.00682906,0.00510043,-0.0127171,-0.436731,0.0105956,0.00888461,741,1436,-5.77483,-8.34652
-476,-412,-5.68433,8.75085,0.00180668,-0.0144955,-0.0106415,0.00706012,-0.0197489,-0.458576,0.0160457,0.0174737,748,1436,-5.68431,-8.75081
-469,-412,-5.69556,8.98486,0.00133327,-0.0213376,-0.0159084,0.0095316,-0.0295359,-0.47585,0.0235206,0.0300424,755,1436,-5.69554,-8.98481
-462,-412,-5.68335,8.99524,3.46828e-05,-0.0302857,-0.0232533,0.0126332,-0.0428842,-0.496522,0.0336017,0.0402756,762,1436,-5.68333,-8.99518
-455,-412,-5.85883,9.03333,0,0,0,0,0,0,0,-1,769,1436,-5.85883,-9.03328
-448,-412,-7.28546,7.86633,0,0,0,0,0,0,0,-1,776,1436,-7.28545,-7.86628
-441,-412,-6.25177,6.89502,0,0,0,0,0,0,0,-1,783,1436,-6.25175,-6.89499
-434,-412,-7.16119,5.89392,0,0,0,0,0,0,0,-1,790,1436,-7.16121,-5.89396
-427,-412,-10.0004,5.15271,0,0,0,0,0,0,0,-1,797,1436,-10.0004,-5.15266
-420,-412,-10.4468,4.9043,0,0,0,0,0,0,0,-1,804,1436,-10.4468,-4.90429
-413,-412,-11.5704,4.97766,0,0,0,0,0,0,0,-1,811,1436,-11.5704,-4.97771
-406,-412,-13.1968,5.70093,0,0,0,0,0,0,0,-1,818,1436,-13.1968,-5.70096
-399,-412,-10.5506,0.771973,0,0,0,0,0,0,0,-1,825,1436,-10.5506,-0.771954
-392,-412,0,0,0,0,0,0,0,0,0,-1,832,1436,0,0
-385,-412,0,0,0,0,0,0,0,0,0,-1,839,1436,0,0
-378,-412,0,0,0,0,0,0,0,0,0,-1,846,1436,0,0
-371,-412,0,0,0,0,0,0,0,0,0,-1,853,1436,0,0
-364,-412,0,0,0,0,0,0,0,0,0,-1,860,1436,0,0
-357,-412,0,0,0,0,0,0,0,0,0,-1,867,1436,0,0
-350,-412,0,0,0,0,0,0,0,0,0,-1,874,1436,0,0
-343,-412,0,0,0,0,0,0,0,0,0,-1,881,1436,0,0
-336,-412,0,0,0,0,0,0,0,0,0,-1,888,1436,0,0
-329,-412,0,0,0,0,0,0,0,0,0,-1,895,1436,0,0
-322,-412,0,0,0,0,0,0,0,0,0,-1,902,1436,0,0
-315,-412,0,0,0,0,0,0,0,0,0,-1,909,1436,0,0
-308,-412,0,0,0,0,0,0,0,0,0,-1,916,1436,0,0
-301,-412,0,0,0,0,0,0,0,0,0,-1,923,1436,0,0
-294,-412,0,0,0,0,0,0,0,0,0,-1,930,1436,0,0
-287,-412,0,0,0,0,0,0,0,0,0,-1,937,1436,0,0
-280,-412,0,0,0,0,0,0,0,0,0,-1,944,1436,0,0
-273,-412,0,0,0,0,0,0,0,0,0,-1,951,1436,0,0
-266,-412,0,0,0,0,0,0,0,0,0,-1,958,1436,0,0
-259,-412,0,0,0,0,0,0,0,0,0,-1,965,1436,0,0
-252,-412,0,0,0,0,0,0,0,0,0,-1,972,1436,0,0
-245,-412,0,0,0,0,0,0,0,0,0,-1,979,1436,0,0
-238,-412,0,0,0,0,0,0,0,0,0,-1,986,1436,0,0
-231,-412,0,0,0,0,0,0,0,0,0,-1,993,1436,0,0
-224,-412,0,0,0,0,0,0,0,0,0,-1,1000,1436,0,0
-217,-412,0,0,0,0,0,0,0,0,0,-1,1007,1436,0,0
-210,-412,0,0,0,0,0,0,0,0,0,-1,1014,1436,0,0
-203,-412,0,0,0,0,0,0,0,0,0,-1,1021,1436,0,0
-196,-412,0,0,0,0,0,0,0,0,0,-1,1028,1436,0,0
-189,-412,0,0,0,0,0,0,0,0,0,-1,1035,1436,0,0
-182,-412,0,0,0,0,0,0,0,0,0,-1,1042,1436,0,0
-175,-412,0,0,0,0,0,0,0,0,0,-1,1049,1436,0,0
-168,-412,0,0,0,0,0,0,0,0,0,-1,1056,1436,0,0
-161,-412,0,0,0,0,0,0,0,0,0,-1,1063,1436,0,0
-154,-412,0,0,0,0,0,0,0,0,0,-1,1070,1436,0,0
-147,-412,0,0,0,0,0,0,0,0,0,-1,1077,1436,0,0
-140,-412,0,0,0,0,0,0,0,0,0,-1,1084,1436,0,0
-133,-412,0,0,0,0,0,0,0,0,0,-1,1091,1436,0,0
-126,-412,0,0,0,0,0,0,0,0,0,-1,1098,1436,0,0
-119,-412,0,0,0,0,0,0,0,0,0,-1,1105,1436,0,0
-112,-412,0,0,0,0,0,0,0,0,0,-1,1112,1436,0,0
-105,-412,0,0,0,0,0,0,0,0,0,-1,1119,1436,0,0
-98,-412,0,0,0,0,0,0,0,0,0,-1,1126,1436,0,0
-91,-412,0,0,0,0,0,0,0,0,0,-1,1133,1436,0,0
-84,-412,0,0,0,0,0,0,0,0,0,-1,1140,1436,0,0
-77,-412,0,0,0,0,0,0,0,0,0,-1,1147,1436,0,0
-70,-412,0,0,0,0,0,0,0,0,0,-1,1154,1436,0,0
-63,-412,0,0,0,0,0,0,0,0,0,-1,1161,1436,0,0
-56,-412,0,0,0,0,0,0,0,0,0,-1,1168,1436,0,0
-49,-412,0,0,0,0,0,0,0,0,0,-1,1175,1436,0,0
-42,-412,0,0,0,0,0,0,0,0,0,-1,1182,1436,0,0
-35,-412,0,0,0,0,0,0,0,0,0,-1,1189,1436,0,0
-28,-412,0,0,0,0,0,0,0,0,0,-1,1196,1436,0,0
-21,-412,0,0,0,0,0,0,0,0,0,-1,1203,1436,0,0
-14,-412,0,0,0,0,0,0,0,0,0,-1,1210,1436,0,0
-7,-412,0,0,0,0,0,0,0,0,0,-1,1217,1436,0,0
0,-412,0,0,0,0,0,0,0,0,0,-1,1224,1436,0,0
7,-412,0,0,0,0,0,0,0,0,0,-1,1231,1436,0,0
14,-412,0,0,0,0,0,0,0,0,0,-1,1238,1436,0,0
21,-412,0,0,0,0,0,0,0,0,0,-1,1245,1436,0,0
28,-412,0,0,0,0,0,0,0,0,0,-1,1252,1436,0,0
35,-412,0,0,0,0,0,0,0,0,0,-1,1259,1436,0,0
42,-412,0,0,0,0,0,0,0,0,0,-1,1266,1436,0,0
49,-412,0,0,0,0,0,0,0,0,0,-1,1273,1436,0,0
56,-412,0,0,0,0,0,0,0,0,0,-1,1280,1436,0,0
63,-412,0,0,0,0,0,0,0,0,0,-1,1287,1436,0,0
70,-412,0,0,0,0,0,0,0,0,0,-1,1294,1436,0,0
77,-412,0,0,0,0,0,0,0,0,0,-1,1301,1436,0,0
84,-412,0,0,0,0,0,0,0,0,0,-1,1308,1436,0,0
91,-412,0,0,0,0,0,0,0,0,0,-1,1315,1436,0,0
98,-412,0,0,0,0,0,0,0,0,0,-1,1322,1436,0,0
105,-412,0,0,0,0,0,0,0,0,0,-1,1329,1436,0,0
112,-412,0,0,0,0,0,0,0,0,0,-1,1336,1436,0,0
119,-412,0,0,0,0,0,0,0,0,0,-1,1343,1436,0,0
126,-412,0,0,0,0,0,0,0,0,0,-1,1350,1436,0,0
133,-412,0,0,0,0,0,0,0,0,0,-1,1357,1436,0,0
140,-412,0,0,0,0,0,0,0,0,0,-1,1364,1436,0,0
147,-412,0,0,0,0,0,0,0,0,0,-1,1371,1436,0,0
154,-412,0,0,0,0,0,0,0,0,0,-1,1378,1436,0,0
161,-412,0,0,0,0,0,0,0,0,0,-1,1385,1436,0,0
168,-412,0,0,0,0,0,0,0,0,0,-1,1392,1436,0,0
175,-412,0,0,0,0,0,0,0,0,0,-1,1399,1436,0,0
182,-412,0,0,0,0,0,0,0,0,0,-1,1406,1436,0,0
189,-412,0,0,0,0,0,0,0,0,0,-1,1413,1436,0,0
196,-412,0,0,0,0,0,0,0,0,0,-1,1420,1436,0,0
203,-412,0,0,0,0,0,0,0,0,0,-1,1427,1436,0,0
210,-412,0,0,0,0,0,0,0,0,0,-1,1434,1436,0,0
217,-412,0,0,0,0,0,0,0,0,0,-1,1441,1436,0,0
224,-412,0,0,0,0,0,0,0,0,0,-1,1448,1436,0,0
231,-412,0,0,0,0,0,0,0,0,0,-1,1455,1436,0,0
238,-412,0,0,0,0,0,0,0,0,0,-1,1462,1436,0,0
245,-412,0,0,0,0,0,0,0,0,0,-1,1469,1436,0,0
252,-412,0,0,0,0,0,0,0,0,0,-1,1476,1436,0,0
259,-412,0,0,0,0,0,0,0,0,0,-1,1483,1436,0,0
266,-412,0,0,0,0,0,0,0,0,0,-1,1490,1436,0,0
273,-412,0,0,0,0,0,0,0,0,0,-1,1497,1436,0,0
280,-412,0,0,0,0,0,0,0,0,0,-1,1504,1436,0,0
287,-412,0,0,0,0,0,0,0,0,0,-1,1511,1436,0,0
294,-412,0,0,0,0,0,0,0,0,0,-1,1518,1436,0,0
301,-412,0,0,0,0,0,0,0,0,0,-1,1525,1436,0,0
308,-412,0,0,0,0,0,0,0,0,0,-1,1532,1436,0,0
315,-412,0,0,0,0,0,0,0,0,0,-1,1539,1436,0,0
322,-412,0,0,0,0,0,0,0,0,0,-1,1546,1436,0,0
329,-412,0,0,0,0,0,0,0,0,0,-1,1553,1436,0,0
336,-412,0,0,0,0,0,0,0,0,0,-1,1560,1436,0,0
343,-412,0,0,0,0,0,0,0,0,0,-1,1567,1436,0,0
350,-412,0,0,0,0,0,0,0,0,0,-1,1574,1436,0,0
357,-412,0,0,0,0,0,0,0,0,0,-1,1581,1436,0,0
364,-412,0,0,0,0,0,0,0,0,0,-1,1588,1436,0,0
371,-412,0,0,0,0,0,0,0,0,0,-1,1595,1436,0,0
378,-412,0,0,0,0,0,0,0,0,0,-1,1602,1436,0,0
385,-412,0,0,0,0,0,0,0,0,0,-1,1609,1436,0,0
392,-412,0,0,0,0,0,0,0,0,0,-1,1616,1436,0,0
399,-412,0,0,0,0,0,0,0,0,0,-1,1623,1436,0,0
406,-412,0,0,0,0,0,0,0,0,0,-1,1630,1436,0,0
413,-412,0,0,0,0,0,0,0,0,0,-1,1637,1436,0,0
420,-412,0,0,0,0,0,0,0,0,0,-1,1644,1436,0,0
427,-412,0,0,0,0,0,0,0,0,0,-1,1651,1436,0,0
434,-412,0,0,0,0,0,0,0,0,0,-1,1658,1436,0,0
441,-412,0,0,0,0,0,0,0,0,0,-1,1665,1436,0,0
448,-412,0,0,0,0,0,0,0,0,0,-1,1672,1436,0,0
455,-412,0,0,0,0,0,0,0,0,0,-1,1679,1436,0,0
462,-412,0,0,0,0,0,0,0,0,0,-1,1686,1436,0,0
469,-412,0,0,0,0,0,0,0,0,0,-1,1693,1436,0,0
476,-412,0,0,0,0,0,0,0,0,0,-1,1700,1436,0,0
483,-412,0,0,0,0,0,0,0,0,0,-1,1707,1436,0,0
490,-412,0,0,0,0,0,0,0,0,0,-1,1714,1436,0,0
497,-412,0,0,0,0,0,0,0,0,0,-1,1721,1436,0,0
504,-412,0,0,0,0,0,0,0,0,0,-1,1728,1436,0,0
511,-412,0,0,0,0,0,0,0,0,0,-1,1735,1436,0,0
518,-412,30.1038,-2.43384,0,0,0,0,0,0,0,-1,1742,1436,30.1038,2.43383
525,-412,29.5283,-1.42493,0,0,0,0,0,0,0,-1,1749,1436,29.5283,1.42495
532,-412,28.8533,-0.386597,0,0,0,0,0,0,0,-1,1756,1436,28.8533,0.386632
539,-412,27.4921,0.943481,0,0,0,0,0,0,0,-1,1763,1436,27.4921,-0.943425
546,-412,26.0988,1.75745,0,0,0,0,0,0,0,-1,1770,1436,26.0988,-1.75742
553,-412,24.7855,2.69873,0,0,0,0,0,0,0,-1,1777,1436,24.7855,-2.69876
560,-412,23.3356,4.03918,0,0,0,0,0,0,0,-1,1784,1436,23.3356,-4.03924
567,-412,22.1183,5.15259,0,0,0,0,0,0,0,-1,1791,1436,22.1182,-5.15259
574,-412,20.8632,5.87646,0,0,0,0,0,0,0,-1,1798,1436,20.8632,-5.87643
581,-412,19.4615,7.02441,0,0,0,0,0,0,0,-1,1805,1436,19.4616,-7.02438
588,-412,17.7756,9.17175,0,0,0,0,0,0,0,-1,1812,1436,17.7756,-9.17175
595,-412,16.6772,10.7738,0,0,0,0,0,0,0,-1,1819,1436,16.6772,-10.7738
602,-412,15.9968,10.6309,-1.83988e-05,-0.00290949,0.00362773,0.00244118,-0.00536907,0.595804,0.00461366,0.0298467,1826,1436,15.9968,-10.6309
609,-412,15.7324,10.3917,-0.00134801,-0.00222364,0.00299787,0.00124384,-0.0048155,0.71289,0.00369539,0.0101,1833,1436,15.7324,-10.3917
616,-412,15.7067,10.097,-0.00265953,-0.00167314,0.00260062,0.00048064,-0.0048133,0.879108,0.00338049,0.00791811,1840,1436,15.7067,-10.097
623,-412,15.697,9.80884,-0.00249965,-0.000866953,0.00185001,0.000338819,-0.00370542,0.993182,0.00259062,0.00875276,1847,1436,15.697,-9.80879
630,-412,15.7032,9.51001,-0.00137796,-0.000628123,0.00106157,0.000122792,-0.00212887,0.955147,0.0014619,0.0108896,1854,1436,15.7032,-9.50996
637,-412,15.7003,9.24597,-0.000728756,-0.000390575,0.000534131,5.91681e-07,-0.00111992,0.938693,0.000746812,0.0130115,1861,1436,15.7004,-9.24593
644,-412,15.7026,8.953,-0.000367178,-0.000333442,0.000215474,-0.000134177,-0.000566443,0.824459,0.000341798,0.0149906,1868,1436,15.7026,-8.953
651,-412,15.7041,8.6344,-0.000171082,-0.000456872,-1.65353e-05,-0.000170129,-0.000457825,-0.057602,0.000267215,0.025801,1875,1436,15.7041,-8.63441
658,-412,15.6782,8.36011,-0.000322435,-0.000591635,-4.42039e-05,-0.000315362,-0.000598707,-0.158656,0.000345829,0.0167515,1882,1436,15.6783,-8.3601
665,-412,15.682,8.10278,-0.000754214,-0.000881085,8.11148e-05,-0.000714675,-0.000920624,0.453549,0.000557918,0.021049,1889,1436,15.682,-8.1028
672,-412,15.7095,7.82446,-0.00134461,-0.00141024,0.000360139,-0.00101579,-0.00173905,0.739966,0.00100877,0.0254331,1896,1436,15.7095,-7.82441
679,-412,15.7788,7.56165,-0.00204214,-0.00228757,0.000802954,-0.00135258,-0.00297713,0.709572,0.00172124,0.0350443,1903,1436,15.7788,-7.56168
686,-412,15.3788,6.88623,0,0,0,0,0,0,0,-1,1910,1436,15.3788,-6.88621
693,-412,11.9346,6.02344,0,0,0,0,0,0,0,-1,1917,1436,11.9346,-6.02343
700,-412,8.82764,5.8844,0,0,0,0,0,0,0,-1,1924,1436,8.82761,-5.88444
707,-412,6.59998,1.68994,0,0,0,0,0,0,0,-1,1931,1436,6.60002,-1.68995
714,-412,4.77283,-2.39832,0,0,0,0,0,0,0,-1,1938,1436,4.77288,2.39835
721,-412,0,0,0,0,0,0,0,0,0,-1,1945,1436,0,0
728,-412,0,0,0,0,0,0,0,0,0,-1,1952,1436,0,0
735,-412,0,0,0,0,0,0,0,0,0,-1,1959,1436,0,0
742,-412,0,0,0,0,0,0,0,0,0,-1,1966,1436,0,0
749,-412,0,0,0,0,0,0,0,0,0,-1,1973,1436,0,0
756,-412,0,0,0,0,0,0,0,0,0,-1,1980,1436,0,0
763,-412,0,0,0,0,0,0,0,0,0,-1,1987,1436,0,0
770,-412,0,0,0,0,0,0,0,0,0,-1,1994,1436,0,0
777,-412,0,0,0,0,0,0,0,0,0,-1,2001,1436,0,0
784,-412,0,0,0,0,0,0,0,0,0,-1,2008,1436,0,0
791,-412,0,0,0,0,0,0,0,0,0,-1,2015,1436,0,0
798,-412,0,0,0,0,0,0,0,0,0,-1,2022,1436,0,0
805,-412,0,0,0,0,0,0,0,0,0,-1,2029,1436,0,0
812,-412,0,0,0,0,0,0,0,0,0,-1,2036,1436,0,0
-700,-419,0,0,0,0,0,0,0,0,0,-1,524,1443,0,0
-693,-419,0,0,0,0,0,0,0,0,0,-1,531,1443,0,0
-686,-419,0,0,0,0,0,0,0,0,0,-1,538,1443,0,0
-679,-419,0,0,0,0,0,0,0,0,0,-1,545,1443,0,0
-672,-419,0,0,0,0,0,0,0,0,0,-1,552,1443,0,0
-665,-419,0,0,0,0,0,0,0,0,0,-1,559,1443,0,0
-658,-419,0,0,0,0,0,0,0,0,0,-1,566,1443,0,0
-651,-419,0,0,0,0,0,0,0,0,0,-1,573,1443,0,0
-644,-419,0,0,0,0,0,0,0,0,0,-1,580,1443,0,0
-637,-419,0,0,0,0,0,0,0,0,0,-1,587,1443,0,0
-630,-419,0,0,0,0,0,0,0,0,0,-1,594,1443,0,0
-623,-419,0,0,0,0,0,0,0,0,0,-1,601,1443,0,0
-616,-419,0,0,0,0,0,0,0,0,0,-1,608,1443,0,0
-609,-419,0,0,0,0,0,0,0,0,0,-1,615,1443,0,0
-602,-419,0,0,0,0,0,0,0,0,0,-1,622,1443,0,0
-595,-419,-11.4904,-0.622681,0,0,0,0,0,0,0,-1,629,1443,-11.4903,0.622714
-588,-419,-9.09369,0.742432,0,0,0,0,0,0,0,-1,636,1443,-9.09366,-0.742482
-581,-419,-6.39172,2.14673,0,0,0,0,0,0,0,-1,643,1443,-6.39175,-2.14668
-574,-419,-4.09772,3.54773,0,0,0,0,0,0,0,-1,650,1443,-4.09772,-3.54767
-567,-419,-6.14038,3.22498,0,0,0,0,0,0,0,-1,657,1443,-6.14037,-3.22497
-560,-419,-5.14929,6.03235,0,0,0,0,0,0,0,-1,664,1443,-5.14928,-6.0323
-553,-419,-4.98328,6.07849,0,0,0,0,0,0,0,-1,671,1443,-4.98328,-6.07847
-546,-419,-5.05469,5.71497,0,0,0,0,0,0,0,-1,678,1443,-5.0547,-5.71493
-539,-419,-5.26001,5.80811,0.00545062,0.00518203,0.0072306,0.0125482,-0.00191552,0.776113,0.00907162,0.0383053,685,1443,-5.26002,-5.80815
-532,-419,-5.42438,6.13257,0.00396544,0.00203509,0.00362929,0.0067557,-0.000755166,0.655436,0.00477547,0.0163169,692,1443,-5.42436,-6.13257
-525,-419,-5.41681,6.5011,0.00326776,0.000563027,0.00154859,0.00397137,-0.000140576,0.426467,0.00269566,0.0125008,699,1443,-5.41678,-6.50114
-518,-419,-5.3996,6.80139,0.00278694,0.000430565,0.00120403,0.00329333,-7.58311e-05,0.398124,0.00222126,0.0165706,706,1443,-5.3996,-6.80136
-511,-419,-5.38257,7.1272,0.00258257,-0.000286635,0.000754056,0.00276867,-0.000472738,0.241967,0.00202187,0.0185666,713,1443,-5.38257,-7.12717
-504,-419,-5.42139,7.44824,0.00240794,-0.00100244,-9.64828e-05,0.00241067,-0.00100517,-0.0282607,0.00202702,0.0182919,720,1443,-5.42136,-7.44826
-497,-419,-5.45081,7.75305,0.00222653,-0.00252325,-0.00142427,0.00262087,-0.00291759,-0.270106,0.00319916,0.0134593,727,1443,-5.45081,-7.75306
-490,-419,-5.45514,8.04944,0.00178883,-0.00509486,-0.00354129,0.00328531,-0.00659134,-0.399819,0.00580779,0.0110989,734,1443,-5.45512,-8.04938
-483,-419,-5.45361,8.34521,0.00150866,-0.00811305,-0.00600454,0.00439188,-0.0109963,-0.447661,0.00915304,0.00955577,741,1443,-5.4536,-8.34518
-476,-419,-5.44604,8.672,0.00121252,-0.0123215,-0.00933315,0.00597374,-0.0170827,-0.471727,0.0138171,0.0100534,748,1443,-5.44601,-8.67195
-469,-419,-5.39624,9.04834,0.000702103,-0.0179346,-0.0137409,0.00798628,-0.0252188,-0.487444,0.020013,0.0162131,755,1443,-5.39624,-9.0483
-462,-419,-5.32465,9.27246,-0.000418042,-0.0250905,-0.0197144,0.0105017,-0.0360103,-0.50583,0.0281677,0.0329629,762,1443,-5.32467,-9.2724
-455,-419,-5.55969,9.21021,-0.0025326,-0.0344957,-0.0273908,0.0131981,-0.0502264,-0.521312,0.0386423,0.0462716,769,1443,-5.55969,-9.21022
-448,-419,-6.04303,8.55859,0,0,0,0,0,0,0,-1,776,1443,-6.04301,-8.55854
-441,-419,-6.59137,7.75818,0,0,0,0,0,0,0,-1,783,1443,-6.59136,-7.75819
-434,-419,-5.73944,6.37537,0,0,0,0,0,0,0,-1,790,1443,-5.73946,-6.37532
-427,-419,-5.86658,7.24878,0,0,0,0,0,0,0,-1,797,1443,-5.86657,-7.24873
-420,-419,-8.74091,6.36597,0,0,0,0,0,0,0,-1,804,1443,-8.74089,-6.366
-413,-419,-9.88391,6.53955,0,0,0,0,0,0,0,-1,811,1443,-9.8839,-6.53955
-406,-419,-10.3372,2.75195,0,0,0,0,0,0,0,-1,818,1443,-10.3372,-2.75201
-399,-419,-11.5999,1.40002,0,0,0,0,0,0,0,-1,825,1443,-11.5999,-1.39998
-392,-419,0,0,0,0,0,0,0,0,0,-1,832,1443,0,0
-385,-419,0,0,0,0,0,0,0,0,0,-1,839,1443,0,0
-378,-419,0,0,0,0,0,0,0,0,0,-1,846,1443,0,0
-371,-419,0,0,0,0,0,0,0,0,0,-1,853,1443,0,0
-364,-419,0,0,0,0,0,0,0,0,0,-1,860,1443,0,0
-357,-419,0,0,0,0,0,0,0,0,0,-1,867,1443,0,0
-350,-419,0,0,0,0,0,0,0,0,0,-1,874,1443,0,0
-343,-419,0,0,0,0,0,0,0,0,0,-1,881,1443,0,0
-336,-419,0,0,0,0,0,0,0,0,0,-1,888,1443,0,0
-329,-419,0,0,0,0,0,0,0,0,0,-1,895,1443,0,0
-322,-419,0,0,0,0,0,0,0,0,0,-1,902,1443,0,0
-315,-419,0,0,0,0,0,0,0,0,0,-1,909,1443,0,0
-308,-419,0,0,0,0,0,0,0,0,0,-1,916,1443,0,0
-301,-419,0,0,0,0,0,0,0,0,0,-1,923,1443,0,0
-294,-419,0,0,0,0,0,0,0,0,0,-1,930,1443,0,0
-287,-419,0,0,0,0,0,0,0,0,0,-1,937,1443,0,0
-280,-419,0,0,0,0,0,0,0,0,0,-1,944,1443,0,0
-273,-419,0,0,0,0,0,0,0,0,0,-1,951,1443,0,0
-266,-419,0,0,0,0,0,0,0,0,0,-1,958,1443,0,0
-259,-419,0,0,0,0,0,0,0,0,0,-1,965,1443,0,0
-252,-419,0,0,0,0,0,0,0,0,0,-1,972,1443,0,0
-245,-419,0,0,0,0,0,0,0,0,0,-1,979,1443,0,0
-238,-419,0,0,0,0,0,0,0,0,0,-1,986,1443,0,0
-231,-419,0,0,0,0,0,0,0,0,0,-1,993,1443,0,0
-224,-419,0,0,0,0,0,0,0,0,0,-1,1000,1443,0,0
-217,-419,0,0,0,0,0,0,0,0,0,-1,1007,1443,0,0
-210,-419,0,0,0,0,0,0,0,0,0,-1,1014,1443,0,0
-203,-419,0,0,0,0,0,0,0,0,0,-1,1021,1443,0,0
-196,-419,0,0,0,0,0,0,0,0,0,-1,1028,1443,0,0
-189,-419,0,0,0,0,0,0,0,0,0,-1,1035,1443,0,0
-182,-419,0,0,0,0,0,0,0,0,0,-1,1042,1443,0,0
-175,-419,0,0,0,0,0,0,0,0,0,-1,1049,1443,0,0
-168,-419,0,0,0,0,0,0,0,0,0,-1,1056,1443,0,0
-161,-419,0,0,0,0,0,0,0,0,0,-1,1063,1443,0,0
-154,-419,0,0,0,0,0,0,0,0,0,-1,1070,1443,0,0
-147,-419,0,0,0,0,0,0,0,0,0,-1,1077,1443,0,0
-140,-419,0,0,0,0,0,0,0,0,0,-1,1084,1443,0,0
-133,-419,0,0,0,0,0,0,0,0,0,-1,1091,1443,0,0
-126,-419,0,0,0,0,0,0,0,0,0,-1,1098,1443,0,0
-119,-419,0,0,0,0,0,0,0,0,0,-1,1105,1443,0,0
-112,-419,0,0,0,0,0,0,0,0,0,-1,1112,1443,0,0
-105,-419,0,0,0,0,0,0,0,0,0,-1,1119,1443,0,0
-98,-419,0,0,0,0,0,0,0,0,0,-1,1126,1443,0,0
-91,-419,0,0,0,0,0,0,0,0,0,-1,1133,1443,0,0
-84,-419,0,0,0,0,0,0,0,0,0,-1,1140,1443,0,0
-77,-419,0,0,0,0,0,0,0,0,0,-1,1147,1443,0,0
-70,-419,0,0,0,0,0,0,0,0,0,-1,1154,1443,0,0
-63,-419,0,0,0,0,0,0,0,0,0,-1,1161,1443,0,0
-56,-419,0,0,0,0,0,0,0,0,0,-1,1168,1443,0,0
-49,-419,0,0,0,0,0,0,0,0,0,-1,1175,1443,0,0
-42,-419,0,0,0,0,0,0,0,0,0,-1,1182,1443,0,0
-35,-419,0,0,0,0,0,0,0,0,0,-1,1189,1443,0,0
-28,-419,0,0,0,0,0,0,0,0,0,-1,1196,1443,0,0
-21,-419,0,0,0,0,0,0,0,0,0,-1,1203,1443,0,0
-14,-419,0,0,0,0,0,0,0,0,0,-1,1210,1443,0,0
-7,-419,0,0,0,0,0,0,0,0,0,-1,1217,1443,0,0
0,-419,0,0,0,0,0,0,0,0,0,-1,1224,1443,0,0
7,-419,0,0,0,0,0,0,0,0,0,-1,1231,1443,0,0
14,-419,0,0,0,0,0,0,0,0,0,-1,1238,1443,0,0
21,-419,0,0,0,0,0,0,0,0,0,-1,1245,1443,0,0
28,-419,0,0,0,0,0,0,0,0,0,-1,1252,1443,0,0
35,-419,0,0,0,0,0,0,0,0,0,-1,1259,1443,0,0
42,-419,0,0,0,0,0,0,0,0,0,-1,1266,1443,0,0
49,-419,0,0,0,0,0,0,0,0,0,-1,1273,1443,0,0
56,-419,0,0,0,0,0,0,0,0,0,-1,1280,1443,0,0
63,-419,0,0,0,0,0,0,0,0,0,-1,1287,1443,0,0
70,-419,0,0,0,0,0,0,0,0,0,-1,1294,1443,0,0
77,-419,0,0,0,0,0,0,0,0,0,-1,1301,1443,0,0
84,-419,0,0,0,0,0,0,0,0,0,-1,1308,1443,0,0
91,-419,0,0,0,0,0,0,0,0,0,-1,1315,1443,0,0
98,-419,0,0,0,0,0,0,0,0,0,-1,1322,1443,0,0
105,-419,0,0,0,0,0,0,0,0,0,-1,1329,1443,0,0
112,-419,0,0,0,0,0,0,0,0,0,-1,1336,1443,0,0
119,-419,0,0,0,0,0,0,0,0,0,-1,1343,1443,0,0
126,-419,0,0,0,0,0,0,0,0,0,-1,1350,1443,0,0
133,-419,0,0,0,0,0,0,0,0,0,-1,1357,1443,0,0
140,-419,0,0,0,0,0,0,0,0,0,-1,1364,1443,0,0
147,-419,0,0,0,0,0,0,0,0,0,-1,1371,1443,0,0
154,-419,0,0,0,0,0,0,0,0,0,-1,1378,1443,0,0
161,-419,0,0,0,0,0,0,0,0,0,-1,1385,1443,0,0
168,-419,0,0,0,0,0,0,0,0,0,-1,1392,1443,0,0
175,-419,0,0,0,0,0,0,0,0,0,-1,1399,1443,0,0
182,-419,0,0,0,0,0,0,0,0,0,-1,1406,1443,0,0
189,-419,0,0,0,0,0,0,0,0,0,-1,1413,1443,0,0
196,-419,0,0,0,0,0,0,0,0,0,-1,1420,1443,0,0
203,-419,0,0,0,0,0,0,0,0,0,-1,1427,1443,0,0
210,-419,0,0,0,0,0,0,0,0,0,-1,1434,1443,0,0
217,-419,0,0,0,0,0,0,0,0,0,-1,1441,1443,0,0
224,-419,0,0,0,0,0,0,0,0,0,-1,1448,1443,0,0
231,-419,0,0,0,0,0,0,0,0,0,-1,1455,1443,0,0
238,-419,0,0,0,0,0,0,0,0,0,-1,1462,1443,0,0
245,-419,0,0,0,0,0,0,0,0,0,-1,1469,1443,0,0
252,-419,0,0,0,0,0,0,0,0,0,-1,1476,1443,0,0
259,-419,0,0,0,0,0,0,0,0,0,-1,1483,1443,0,0
266,-419,0,0,0,0,0,0,0,0,0,-1,1490,1443,0,0
273,-419,0,0,0,0,0,0,0,0,0,-1,1497,1443,0,0
280,-419,0,0,0,0,0,0,0,0,0,-1,1504,1443,0,0
287,-419,0,0,0,0,0,0,0,0,0,-1,1511,1443,0,0
294,-419,0,0,0,0,0,0,0,0,0,-1,1518,1443,0,0
301,-419,0,0,0,0,0,0,0,0,0,-1,1525,1443,0,0
308,-419,0,0,0,0,0,0,0,0,0,-1,1532,1443,0,0
315,-419,0,0,0,0,0,0,0,0,0,-1,1539,1443,0,0
322,-419,0,0,0,0,0,0,0,0,0,-1,1546,1443,0,0
329,-419,0,0,0,0,0,0,0,0,0,-1,1553,1443,0,0
336,-419,0,0,0,0,0,0,0,0,0,-1,1560,1443,0,0
343,-419,0,0,0,0,0,0,0,0,0,-1,1567,1443,0,0
350,-419,0,0,0,0,0,0,0,0,0,-1,1574,1443,0,0
357,-419,0,0,0,0,0,0,0,0,0,-1,1581,1443,0,0
364,-419,0,0,0,0,0,0,0,0,0,-1,1588,1443,0,0
371,-419,0,0,0,0,0,0,0,0,0,-1,1595,1443,0,0
378,-419,0,0,0,0,0,0,0,0,0,-1,1602,1443,0,0
385,-419,0,0,0,0,0,0,0,0,0,-1,1609,1443,0,0
392,-419,0,0,0,0,0,0,0,0,0,-1,1616,1443,0,0
399,-419,0,0,0,0,0,0,0,0,0,-1,1623,1443,0,0
406,-419,0,0,0,0,0,0,0,0,0,-1,1630,1443,0,0
413,-419,0,0,0,0,0,0,0,0,0,-1,1637,1443,0,0
420,-419,0,0,0,0,0,0,0,0,0,-1,1644,1443,0,0
427,-419,0,0,0,0,0,0,0,0,0,-1,1651,1443,0,0
434,-419,0,0,0,0,0,0,0,0,0,-1,1658,1443,0,0
441,-419,0,0,0,0,0,0,0,0,0,-1,1665,1443,0,0
448,-419,0,0,0,0,0,0,0,0,0,-1,1672,1443,0,0
455,-419,0,0,0,0,0,0,0,0,0,-1,1679,1443,0,0
462,-419,0,0,0,0,0,0,0,0,0,-1,1686,1443,0,0
469,-419,0,0,0,0,0,0,0,0,0,-1,1693,1443,0,0
476,-419,0,0,0,0,0,0,0,0,0,-1,1700,1443,0,0
483,-419,0,0,0,0,0,0,0,0,0,-1,1707,1443,0,0
490,-419,0,0,0,0,0,0,0,0,0,-1,1714,1443,0,0
497,-419,0,0,0,0,0,0,0,0,0,-1,1721,1443,0,0
504,-419,0,0,0,0,0,0,0,0,0,-1,1728,1443,0,0
511,-419,20.3005,3.7959,0,0,0,0,0,0,0,-1,1735,1443,20.3005,-3.79584
518,-419,21.3154,2.03027,0,0,0,0,0,0,0,-1,1742,1443,21.3155,-2.03029
525,-419,28.3439,-1.24475,0,0,0,0,0,0,0,-1,1749,1443,28.3438,1.24471
532,-419,27.5902,-0.272583,0,0,0,0,0,0,0,-1,1756,1443,27.5902,0.272526
539,-419,26.5278,1.60583,0,0,0,0,0,0,0,-1,1763,1443,26.5279,-1.60579
546,-419,24.9509,2.77539,0,0,0,0,0,0,0,-1,1770,1443,24.9509,-2.77537
553,-419,24.118,3.75525,0,0,0,0,0,0,0,-1,1777,1443,24.1181,-3.75526
560,-419,11.8199,8.26343,0,0,0,0,0,0,0,-1,1784,1443,11.82,-8.26341
567,-419,15.7008,5.70764,0,0,0,0,0,0,0,-1,1791,1443,15.7009,-5.70764
574,-419,19.5886,6.46155,0,0,0,0,0,0,0,-1,1798,1443,19.5886,-6.46157
581,-419,18.2771,8.85547,0,0,0,0,0,0,0,-1,1805,1443,18.2771,-8.85546
588,-419,16.4583,11.1263,0,0,0,0,0,0,0,-1,1812,1443,16.4582,-11.1263
595,-419,15.9777,10.8752,-0.00569576,-0.00432101,0.00611649,0.00114661,-0.0111634,0.841353,0.00785241,0.0454473,1819,1443,15.9777,-10.8752
602,-419,15.4535,10.6818,-0.00516518,-0.00282335,0.00468526,0.000835096,-0.00882362,0.907848,0.00617962,0.0158185,1826,1443,15.4535,-10.6818
609,-419,15.4274,10.3944,-0.00411689,-0.00191034,0.00340911,0.00056957,-0.0065968,0.941892,0.00459949,0.0107521,1833,1443,15.4274,-10.3945
616,-419,15.4176,10.1185,-0.0035075,-0.00121389,0.00250263,0.000392183,-0.00511357,1.00024,0.00354701,0.0110319,1840,1443,15.4175,-10.1185
623,-419,15.4231,9.82373,-0.00256136,-0.000506478,0.00159641,0.000364541,-0.00343237,1.07133,0.00241894,0.00929208,1847,1443,15.4231,-9.82376
630,-419,15.437,9.52759,-0.00159699,-0.000370385,0.000883707,9.19888e-05,-0.00205936,1.08875,0.00140458,0.0115399,1854,1443,15.437,-9.52757
637,-419,15.4271,9.26013,-0.00104992,-0.000228701,0.000408758,-5.99287e-05,-0.00121869,1.17923,0.000793242,0.012711,1861,1443,15.4272,-9.26011
644,-419,15.423,8.9823,-0.000730335,-0.000295222,0.00010607,-0.000270742,-0.000754814,1.34398,0.000441556,0.0121703,1868,1443,15.423,-8.98227
651,-419,15.4175,8.70459,-0.000591792,-0.000530824,-0.000109374,-0.000447766,-0.00067485,-0.921308,0.000396508,0.0119346,1875,1443,15.4175,-8.70454
658,-419,15.3961,8.40869,-0.000786761,-0.000791392,-0.000160888,-0.000628172,-0.000949982,-0.778202,0.000557898,0.0129707,1882,1443,15.3961,-8.40866
665,-419,15.4031,8.12561,-0.00121329,-0.00121605,-0.000110666,-0.001104,-0.00132535,-0.779163,0.000819805,0.0204135,1889,1443,15.4031,-8.12556
672,-419,15.4568,7.80945,-0.00178518,-0.00189849,6.70088e-05,-0.00175408,-0.00192959,0.434445,0.00123206,0.0271678,1896,1443,15.4568,-7.80947
679,-419,15.5748,7.52136,0,0,0,0,0,0,0,-1,1903,1443,15.5748,-7.5213
686,-419,15.1753,7.55334,0,0,0,0,0,0,0,-1,1910,1443,15.1753,-7.55329
693,-419,8.76086,5.60535,0,0,0,0,0,0,0,-1,1917,1443,8.76091,-5.6054
700,-419,11.0498,4.85156,0,0,0,0,0,0,0,-1,1924,1443,11.0498,-4.85153
707,-419,9.5752,1.80042,0,0,0,0,0,0,0,-1,1931,1443,9.57523,-1.80037
714,-419,5.77576,-1.25061,0,0,0,0,0,0,0,-1,1938,1443,5.7757,1.25056
721,-419,0,0,0,0,0,0,0,0,0,-1,1945,1443,0,0
728,-419,0,0,0,0,0,0,0,0,0,-1,1952,1443,0,0
735,-419,0,0,0,0,0,0,0,0,0,-1,1959,1443,0,0
742,-419,0,0,0,0,0,0,0,0,0,-1,1966,1443,0,0
749,-419,0,0,0,0,0,0,0,0,0,-1,1973,1443,0,0
756,-419,0,0,0,0,0,0,0,0,0,-1,1980,1443,0,0
763,-419,0,0,0,0,0,0,0,0,0,-1,1987,1443,0,0
770,-419,0,0,0,0,0,0,0,0,0,-1,1994,1443,0,0
777,-419,0,0,0,0,0,0,0,0,0,-1,2001,1443,0,0
784,-419,0,0,0,0,0,0,0,0,0,-1,2008,1443,0,0
791,-419,0,0,0,0,0,0,0,0,0,-1,2015,1443,0,0
798,-419,0,0,0,0,0,0,0,0,0,-1,2022,1443,0,0
805,-419,0,0,0,0,0,0,0,0,0,-1,2029,1443,0,0
812,-419,0,0,0,0,0,0,0,0,0,-1,2036,1443,0,0
-700,-426,0,0,0,0,0,0,0,0,0,-1,524,1450,0,0
-693,-426,0,0,0,0,0,0,0,0,0,-1,531,1450,0,0
-686,-426,0,0,0,0,0,0,0,0,0,-1,538,1450,0,0
-679,-426,0,0,0,0,0,0,0,0,0,-1,545,1450,0,0
-672,-426,0,0,0,0,0,0,0,0,0,-1,552,1450,0,0
-665,-426,0,0,0,0,0,0,0,0,0,-1,559,1450,0,0
-658,-426,0,0,0,0,0,0,0,0,0,-1,566,1450,0,0
-651,-426,0,0,0,0,0,0,0,0,0,-1,573,1450,0,0
-644,-426,0,0,0,0,0,0,0,0,0,-1,580,1450,0,0
-637,-426,0,0,0,0,0,0,0,0,0,-1,587,1450,0,0
-630,-426,0,0,0,0,0,0,0,0,0,-1,594,1450,0,0
-623,-426,0,0,0,0,0,0,0,0,0,-1,601,1450,0,0
-616,-426,0,0,0,0,0,0,0,0,0,-1,608,1450,0,0
-609,-426,0,0,0,0,0,0,0,0,0,-1,615,1450,0,0
-602,-426,0,0,0,0,0,0,0,0,0,-1,622,1450,0,0
-595,-426,0,0,0,0,0,0,0,0,0,-1,629,1450,0,0
-588,-426,-10.184,-0.554321,0,0,0,0,0,0,0,-1,636,1450,-10.184,0.554321
-581,-426,-7.3349,1.48157,0,0,0,0,0,0,0,-1,643,1450,-7.33491,-1.48152
-574,-426,-5.02856,2.89319,0,0,0,0,0,0,0,-1,650,1450,-5.02858,-2.89319
-567,-426,-3.04797,1.72644,0,0,0,0,0,0,0,-1,657,1450,-3.04797,-1.72639
-560,-426,-5.55682,3.44397,0,0,0,0,0,0,0,-1,664,1450,-5.55684,-3.44399
-553,-426,-4.44464,6.51843,0,0,0,0,0,0,0,-1,671,1450,-4.44466,-6.51839
-546,-426,-4.80438,5.64087,0,0,0,0,0,0,0,-1,678,1450,-4.80438,-5.64084
-539,-426,-4.84021,5.92419,0.0085889,0.00617492,0.00982716,0.0172829,-0.0025191,0.724293,0.0124469,0.0428761,685,1450,-4.84024,-5.9242
-532,-426,-5.02094,6.16296,0.00631837,0.00286104,0.00570439,0.0105503,-0.00137086,0.638276,0.00753217,0.0298656,692,1450,-5.02091,-6.16298
-525,-426,-5.12622,6.46228,0.00497333,0.00127712,0.00323169,0.00684803,-0.00059759,0.525659,0.00477703,0.0143949,699,1450,-5.12624,-6.46226
-518,-426,-5.10309,6.79456,0.00392416,0.0010777,0.00256044,0.00543034,-0.000428476,0.531735,0.00377117,0.0153655,706,1450,-5.10312,-6.79456
-511,-426,-5.10211,7.12195,0.00325061,0.000480835,0.00184193,0.0041702,-0.000438759,0.463051,0.00293733,0.0146802,713,1450,-5.10211,-7.12195
-504,-426,-5.11884,7.44678,0.00275674,-0.000228389,0.000804835,0.00295991,-0.000431557,0.247268,0.00213174,0.0149308,720,1450,-5.11881,-7.4468
-497,-426,-5.12628,7.74487,0.00234197,-0.00164509,-0.00061266,0.00243399,-0.0017371,-0.149081,0.00241936,0.0122374,727,1450,-5.12626,-7.74488
-490,-426,-5.15082,8.04297,0.00176888,-0.00396984,-0.00266802,0.00281763,-0.00501859,-0.374527,0.00458334,0.0121874,734,1450,-5.15083,-8.04295
-483,-426,-5.15002,8.36108,0.00141074,-0.00657471,-0.00493128,0.00376304,-0.00892701,-0.445092,0.0075261,0.0115913,741,1450,-5.15002,-8.36109
-476,-426,-5.14368,8.67871,0.000967382,-0.0101437,-0.00786503,0.00504111,-0.0142174,-0.477908,0.011532,0.00885865,748,1450,-5.14366,-8.67874
-469,-426,-5.14081,8.98877,0.000499602,-0.0147368,-0.0115534,0.00672044,-0.0209576,-0.493925,0.0166697,0.00769197,755,1450,-5.1408,-8.98874
-462,-426,-5.03809,9.39099,-0.000412566,-0.0204637,-0.0162995,0.00869784,-0.0295741,-0.50968,0.0231662,0.0189041,762,1450,-5.03809,-9.39093
-455,-426,-5.11517,9.4458,-0.00193221,-0.027929,-0.022202,0.0107966,-0.0406577,-0.520568,0.0313304,0.0401883,769,1450,-5.11516,-9.44576
-448,-426,-5.38202,8.81323,-0.00408853,-0.0370784,-0.0298037,0.0134804,-0.0546473,-0.532653,0.0416585,0.0472676,776,1450,-5.382,-8.81328
-441,-426,-5.74829,8.40503,-0.00727796,-0.048279,-0.0392202,0.0164764,-0.0720333,-0.544576,0.0543532,0.0468423,783,1450,-5.74832,-8.40502
-434,-426,-5.77948,8.20825,0,0,0,0,0,0,0,-1,790,1450,-5.77946,-8.20826
-427,-426,-8.29462,8.21924,0,0,0,0,0,0,0,-1,797,1450,-8.29461,-8.21924
-420,-426,-5.00806,7.83728,0,0,0,0,0,0,0,-1,804,1450,-5.00805,-7.83733
-413,-426,-10.1148,5.0415,0,0,0,0,0,0,0,-1,811,1450,-10.1148,-5.04152
-406,-426,-11.4199,3.6438,0,0,0,0,0,0,0,-1,818,1450,-11.4198,-3.64382
-399,-426,-12.7595,2.29004,0,0,0,0,0,0,0,-1,825,1450,-12.7595,-2.29003
-392,-426,-12.4147,0.537354,0,0,0,0,0,0,0,-1,832,1450,-12.4147,-0.53731
-385,-426,0,0,0,0,0,0,0,0,0,-1,839,1450,0,0
-378,-426,0,0,0,0,0,0,0,0,0,-1,846,1450,0,0
-371,-426,0,0,0,0,0,0,0,0,0,-1,853,1450,0,0
-364,-426,0,0,0,0,0,0,0,0,0,-1,860,1450,0,0
-357,-426,0,0,0,0,0,0,0,0,0,-1,867,1450,0,0
-350,-426,0,0,0,0,0,0,0,0,0,-1,874,1450,0,0
-343,-426,0,0,0,0,0,0,0,0,0,-1,881,1450,0,0
-336,-426,0,0,0,0,0,0,0,0,0,-1,888,1450,0,0
-329,-426,0,0,0,0,0,0,0,0,0,-1,895,1450,0,0
-322,-426,0,0,0,0,0,0,0,0,0,-1,902,1450,0,0
-315,-426,0,0,0,0,0,0,0,0,0,-1,909,1450,0,0
-308,-426,0,0,0,0,0,0,0,0,0,-1,916,1450,0,0
-301,-426,0,0,0,0,0,0,0,0,0,-1,923,1450,0,0
-294,-426,0,0,0,0,0,0,0,0,0,-1,930,1450,0,0
-287,-426,0,0,0,0,0,0,0,0,0,-1,937,1450,0,0
-280,-426,0,0,0,0,0,0,0,0,0,-1,944,1450,0,0
-273,-426,0,0,0,0,0,0,0,0,0,-1,951,1450,0,0
-266,-426,0,0,0,0,0,0,0,0,0,-1,958,1450,0,0
-259,-426,0,0,0,0,0,0,0,0,0,-1,965,1450,0,0
-252,-426,0,0,0,0,0,0,0,0,0,-1,972,1450,0,0
-245,-426,0,0,0,0,0,0,0,0,0,-1,979,1450,0,0
-238,-426,0,0,0,0,0,0,0,0,0,-1,986,1450,0,0
-231,-426,0,0,0,0,0,0,0,0,0,-1,993,1450,0,0
-224,-426,0,0,0,0,0,0,0,0,0,-1,1000,1450,0,0
-217,-426,0,0,0,0,0,0,0,0,0,-1,1007,1450,0,0
-210,-426,0,0,0,0,0,0,0,0,0,-1,1014,1450,0,0
-203,-426,0,0,0,0,0,0,0,0,0,-1,1021,1450,0,0
-196,-426,0,0,0,0,0,0,0,0,0,-1,1028,1450,0,0
-189,-426,0,0,0,0,0,0,0,0,0,-1,1035,1450,0,0
-182,-426,0,0,0,0,0,0,0,0,0,-1,1042,1450,0,0
-175,-426,0,0,0,0,0,0,0,0,0,-1,1049,1450,0,0
-168,-426,0,0,0,0,0,0,0,0,0,-1,1056,1450,0,0
-161,-426,0,0,0,0,0,0,0,0,0,-1,1063,1450,0,0
-154,-426,0,0,0,0,0,0,0,0,0,-1,1070,1450,0,0
-147,-426,0,0,0,0,0,0,0,0,0,-1,1077,1450,0,0
-140,-426,0,0,0,0,0,0,0,0,0,-1,1084,1450,0,0
-133,-426,0,0,0,0,0,0,0,0,0,-1,1091,1450,0,0
-126,-426,0,0,0,0,0,0,0,0,0,-1,1098,1450,0,0
-119,-426,0,0,0,0,0,0,0,0,0,-1,1105,1450,0,0
-112,-426,0,0,0,0,0,0,0,0,0,-1,1112,1450,0,0
-105,-426,0,0,0,0,0,0,0,0,0,-1,1119,1450,0,0
-98,-426,0,0,0,0,0,0,0,0,0,-1,1126,1450,0,0
-91,-426,0,0,0,0,0,0,0,0,0,-1,1133,1450,0,0
-84,-426,0,0,0,0,0,0,0,0,0,-1,1140,1450,0,0
-77,-426,0,0,0,0,0,0,0,0,0,-1,1147,1450,0,0
-70,-426,0,0,0,0,0,0,0,0,0,-1,1154,1450,0,0
-63,-426,0,0,0,0,0,0,0,0,0,-1,1161,1450,0,0
-56,-426,0,0,0,0,0,0,0,0,0,-1,1168,1450,0,0
-49,-426,0,0,0,0,0,0,0,0,0,-1,1175,1450,0,0
-42,-426,0,0,0,0,0,0,0,0,0,-1,1182,1450,0,0
-35,-426,0,0,0,0,0,0,0,0,0,-1,1189,1450,0,0
-28,-426,0,0,0,0,0,0,0,0,0,-1,1196,1450,0,0
-21,-426,0,0,0,0,0,0,0,0,0,-1,1203,1450,0,0
-14,-426,0,0,0,0,0,0,0,0,0,-1,1210,1450,0,0
-7,-426,0,0,0,0,0,0,0,0,0,-1,1217,1450,0,0
0,-426,0,0,0,0,0,0,0,0,0,-1,1224,1450,0,0
7,-426,0,0,0,0,0,0,0,0,0,-1,1231,1450,0,0
14,-426,0,0,0,0,0,0,0,0,0,-1,1238,1450,0,0
21,-426,0,0,0,0,0,0,0,0,0,-1,1245,1450,0,0
28,-426,0,0,0,0,0,0,0,0,0,-1,1252,1450,0,0
35,-426,0,0,0,0,0,0,0,0,0,-1,1259,1450,0,0
42,-426,0,0,0,0,0,0,0,0,0,-1,1266,1450,0,0
49,-426,0,0,0,0,0,0,0,0,0,-1,1273,1450,0,0
56,-426,0,0,0,0,0,0,0,0,0,-1,1280,1450,0,0
63,-426,0,0,0,0,0,0,0,0,0,-1,1287,1450,0,0
70,-426,0,0,0,0,0,0,0,0,0,-1,1294,1450,0,0
77,-426,0,0,0,0,0,0,0,0,0,-1,1301,1450,0,0
84,-426,0,0,0,0,0,0,0,0,0,-1,1308,1450,0,0
91,-426,0,0,0,0,0,0,0,0,0,-1,1315,1450,0,0
98,-426,0,0,0,0,0,0,0,0,0,-1,1322,1450,0,0
105,-426,0,0,0,0,0,0,0,0,0,-1,1329,1450,0,0
112,-426,0,0,0,0,0,0,0,0,0,-1,1336,1450,0,0
119,-426,0,0,0,0,0,0,0,0,0,-1,1343,1450,0,0
126,-426,0,0,0,0,0,0,0,0,0,-1,1350,1450,0,0
133,-426,0,0,0,0,0,0,0,0,0,-1,1357,1450,0,0
140,-426,0,0,0,0,0,0,0,0,0,-1,1364,1450,0,0
147,-426,0,0,0,0,0,0,0,0,0,-1,1371,1450,0,0
154,-426,0,0,0,0,0,0,0,0,0,-1,1378,1450,0,0
161,-426,0,0,0,0,0,0,0,0,0,-1,1385,1450,0,0
168,-426,0,0,0,0,0,0,0,0,0,-1,1392,1450,0,0
175,-426,0,0,0,0,0,0,0,0,0,-1,1399,1450,0,0
182,-426,0,0,0,0,0,0,0,0,0,-1,1406,1450,0,0
189,-426,0,0,0,0,0,0,0,0,0,-1,1413,1450,0,0
196,-426,0,0,0,0,0,0,0,0,0,-1,1420,1450,0,0
203,-426,0,0,0,0,0,0,0,0,0,-1,1427,1450,0,0
210,-426,0,0,0,0,0,0,0,0,0,-1,1434,1450,0,0
217,-426,0,0,0,0,0,0,0,0,0,-1,1441,1450,0,0
224,-426,0,0,0,0,0,0,0,0,0,-1,1448,1450,0,0
231,-426,0,0,0,0,0,0,0,0,0,-1,1455,1450,0,0
238,-426,0,0,0,0,0,0,0,0,0,-1,1462,1450,0,0
245,-426,0,0,0,0,0,0,0,0,0,-1,1469,1450,0,0
252,-426,0,0,0,0,0,0,0,0,0,-1,1476,1450,0,0
259,-426,0,0,0,0,0,0,0,0,0,-1,1483,1450,0,0
266,-426,0,0,0,0,0,0,0,0,0,-1,1490,1450,0,0
273,-426,0,0,0,0,0,0,0,0,0,-1,1497,1450,0,0
280,-426,0,0,0,0,0,0,0,0,0,-1,1504,1450,0,0
287,-426,0,0,0,0,0,0,0,0,0,-1,1511,1450,0,0
294,-426,0,0,0,0,0,0,0,0,0,-1,1518,1450,0,0
301,-426,0,0,0,0,0,0,0,0,0,-1,1525,1450,0,0
308,-426,0,0,0,0,0,0,0,0,0,-1,1532,1450,0,0
315,-426,0,0,0,0,0,0,0,0,0,-1,1539,1450,0,0
322,-426,0,0,0,0,0,0,0,0,0,-1,1546,1450,0,0
329,-426,0,0,0,0,0,0,0,0,0,-1,1553,1450,0,0
336,-426,0,0,0,0,0,0,0,0,0,-1,1560,1450,0,0
343,-426,0,0,0,0,0,0,0,0,0,-1,1567,1450,0,0
350,-426,0,0,0,0,0,0,0,0,0,-1,1574,1450,0,0
357,-426,0,0,0,0,0,0,0,0,0,-1,1581,1450,0,0
364,-426,0,0,0,0,0,0,0,0,0,-1,1588,1450,0,0
371,-426,0,0,0,0,0,0,0,0,0,-1,1595,1450,0,0
378,-426,0,0,0,0,0,0,0,0,0,-1,1602,1450,0,0
385,-426,0,0,0,0,0,0,0,0,0,-1,1609,1450,0,0
392,-426,0,0,0,0,0,0,0,0,0,-1,1616,1450,0,0
399,-426,0,0,0,0,0,0,0,0,0,-1,1623,1450,0,0
406,-426,0,0,0,0,0,0,0,0,0,-1,1630,1450,0,0
413,-426,0,0,0,0,0,0,0,0,0,-1,1637,1450,0,0
420,-426,0,0,0,0,0,0,0,0,0,-1,1644,1450,0,0
427,-426,0,0,0,0,0,0,0,0,0,-1,1651,1450,0,0
434,-426,0,0,0,0,0,0,0,0,0,-1,1658,1450,0,0
441,-426,0,0,0,0,0,0,0,0,0,-1,1665,1450,0,0
448,-426,0,0,0,0,0,0,0,0,0,-1,1672,1450,0,0
455,-426,0,0,0,0,0,0,0,0,0,-1,1679,1450,0,0
462,-426,0,0,0,0,0,0,0,0,0,-1,1686,1450,0,0
469,-426,0,0,0,0,0,0,0,0,0,-1,1693,1450,0,0
476,-426,0,0,0,0,0,0,0,0,0,-1,1700,1450,0,0
483,-426,0,0,0,0,0,0,0,0,0,-1,1707,1450,0,0
490,-426,0,0,0,0,0,0,0,0,0,-1,1714,1450,0,0
497,-426,0,0,0,0,0,0,0,0,0,-1,1721,1450,0,0
504,-426,20.6873,3.38367,0,0,0,0,0,0,0,-1,1728,1450,20.6873,-3.38361
511,-426,19.6676,3.53748,0,0,0,0,0,0,0,-1,1735,1450,19.6676,-3.53749
518,-426,18.6853,3.32288,0,0,0,0,0,0,0,-1,1742,1450,18.6853,-3.3229
525,-426,18.9552,2.71033,0,0,0,0,0,0,0,-1,1749,1450,18.9552,-2.71034
532,-426,19.4333,2.70764,0,0,0,0,0,0,0,-1,1756,1450,19.4334,-2.70764
539,-426,25.1482,2.56287,0,0,0,0,0,0,0,-1,1763,1450,25.1482,-2.56286
546,-426,24.1136,3.75659,0,0,0,0,0,0,0,-1,1770,1450,24.1136,-3.7566
553,-426,23.0791,4.95032,0,0,0,0,0,0,0,-1,1777,1450,23.0791,-4.95034
560,-426,13.439,12.0522,0,0,0,0,0,0,0,-1,1784,1450,13.439,-12.0523
567,-426,13.3062,11.5671,0,0,0,0,0,0,0,-1,1791,1450,13.3061,-11.5672
574,-426,13.7202,10.1873,0,0,0,0,0,0,0,-1,1798,1450,13.7203,-10.1873
581,-426,14.8739,10.8832,0,0,0,0,0,0,0,-1,1805,1450,14.8739,-10.8832
588,-426,15.2753,11.4122,0,0,0,0,0,0,0,-1,1812,1450,15.2753,-11.4122
595,-426,15.1951,10.9249,-0.00904571,-0.00415779,0.00648223,0.000325894,-0.0135294,0.96567,0.00913017,0.0287488,1819,1450,15.1951,-10.9249
602,-426,15.1274,10.6399,-0.00662443,-0.00254802,0.00465259,0.000493227,-0.00966568,0.991847,0.00661433,0.0143106,1826,1450,15.1274,-10.6399
609,-426,15.1349,10.3683,-0.00466938,-0.0016126,0.00324548,0.000446368,-0.00672834,1.00546,0.00464151,0.0118231,1833,1450,15.1349,-10.3683
616,-426,15.1433,10.1099,-0.00335894,-0.000932356,0.00224797,0.000408847,-0.00470014,1.03286,0.00327822,0.0138573,1840,1450,15.1433,-10.1099
623,-426,15.1486,9.82227,-0.00225576,-0.000361141,0.00136664,0.000354407,-0.0029713,1.08846,0.00210895,0.0112402,1847,1450,15.1485,-9.8223
630,-426,15.1547,9.53589,-0.00149578,-0.000299515,0.000726444,4.33536e-05,-0.00183865,1.12981,0.00124047,0.0117273,1854,1450,15.1547,-9.53591
637,-426,15.1466,9.255,-0.00110688,-0.00024088,0.000288215,-0.000153729,-0.00119403,1.27716,0.00075005,0.0121835,1861,1450,15.1467,-9.25498
644,-426,15.1089,8.98755,-0.000902412,-0.000396558,-2.08025e-05,-0.000395704,-0.000903266,-1.52977,0.000522832,0.0123707,1868,1450,15.1088,-8.98752
651,-426,15.095,8.70813,-0.000906839,-0.000708691,-0.000246188,-0.000542389,-0.00107314,-0.976699,0.00061959,0.0124075,1875,1450,15.0949,-8.70807
658,-426,15.1224,8.37915,-0.00122699,-0.00107327,-0.000362543,-0.00077953,-0.00152073,-0.889847,0.000878087,0.0118647,1882,1450,15.1224,-8.3792
665,-426,15.1586,8.03223,-0.00171439,-0.00161397,-0.000452055,-0.00120935,-0.00211902,-0.840707,0.00122749,0.0201509,1889,1450,15.1586,-8.03221
672,-426,15.0745,7.68201,-0.00232337,-0.00243528,-0.000471295,-0.00190472,-0.00285393,-0.726313,0.00167822,0.0361941,1896,1450,15.0744,-7.68206
679,-426,15.2538,7.59766,0,0,0,0,0,0,0,-1,1903,1450,15.2538,-7.59772
686,-426,13.5326,8.03711,0,0,0,0,0,0,0,-1,1910,1450,13.5326,-8.03717
693,-426,11.8607,6.45215,0,0,0,0,0,0,0,-1,1917,1450,11.8607,-6.45215
700,-426,9.24304,2.95447,0,0,0,0,0,0,0,-1,1924,1450,9.24305,-2.95442
707,-426,8.44519,-1.21448,0,0,0,0,0,0,0,-1,1931,1450,8.44514,1.21454
714,-426,0,0,0,0,0,0,0,0,0,-1,1938,1450,0,0
721,-426,0,0,0,0,0,0,0,0,0,-1,1945,1450,0,0
728,-426,0,0,0,0,0,0,0,0,0,-1,1952,1450,0,0
735,-426,0,0,0,0,0,0,0,0,0,-1,1959,1450,0,0
742,-426,0,0,0,0,0,0,0,0,0,-1,1966,1450,0,0
749,-426,0,0,0,0,0,0,0,0,0,-1,1973,1450,0,0
756,-426,0,0,0,0,0,0,0,0,0,-1,1980,1450,0,0
763,-426,0,0,0,0,0,0,0,0,0,-1,1987,1450,0,0
770,-426,0,0,0,0,0,0,0,0,0,-1,1994,1450,0,0
777,-426,0,0,0,0,0,0,0,0,0,-1,2001,1450,0,0
784,-426,0,0,0,0,0,0,0,0,0,-1,2008,1450,0,0
791,-426,0,0,0,0,0,0,0,0,0,-1,2015,1450,0,0
798,-426,0,0,0,0,0,0,0,0,0,-1,2022,1450,0,0
805,-426,0,0,0,0,0,0,0,0,0,-1,2029,1450,0,0
812,-426,0,0,0,0,0,0,0,0,0,-1,2036,1450,0,0
-700,-433,0,0,0,0,0,0,0,0,0,-1,524,1457,0,0
-693,-433,0,0,0,0,0,0,0,0,0,-1,531,1457,0,0
-686,-433,0,0,0,0,0,0,0,0,0,-1,538,1457,0,0
-679,-433,0,0,0,0,0,0,0,0,0,-1,545,1457,0,0
-672,-433,0,0,0,0,0,0,0,0,0,-1,552,1457,0,0
-665,-433,0,0,0,0,0,0,0,0,0,-1,559,1457,0,0
-658,-433,0,0,0,0,0,0,0,0,0,-1,566,1457,0,0
-651,-433,0,0,0,0,0,0,0,0,0,-1,573,1457,0,0
-644,-433,0,0,0,0,0,0,0,0,0,-1,580,1457,0,0
-637,-433,0,0,0,0,0,0,0,0,0,-1,587,1457,0,0
-630,-433,0,0,0,0,0,0,0,0,0,-1,594,1457,0,0
-623,-433,0,0,0,0,0,0,0,0,0,-1,601,1457,0,0
-616,-433,0,0,0,0,0,0,0,0,0,-1,608,1457,0,0
-609,-433,0,0,0,0,0,0,0,0,0,-1,615,1457,0,0
-602,-433,0,0,0,0,0,0,0,0,0,-1,622,1457,0,0
-595,-433,0,0,0,0,0,0,0,0,0,-1,629,1457,0,0
-588,-433,-10.3756,-0.467041,0,0,0,0,0,0,0,-1,636,1457,-10.3756,0.467081
-581,-433,-8.12201,0.884033,0,0,0,0,0,0,0,-1,643,1457,-8.12204,-0.884056
-574,-433,-5.86847,2.23523,0,0,0,0,0,0,0,-1,650,1457,-5.86844,-2.23519
-567,-433,-5.42255,1.16833,0,0,0,0,0,0,0,-1,657,1457,-5.42254,-1.1683
-560,-433,-6.84027,1.86414,0,0,0,0,0,0,0,-1,664,1457,-6.84026,-1.86412
-553,-433,-5.74017,1.79163,0,0,0,0,0,0,0,-1,671,1457,-5.74015,-1.79166
-546,-433,-4.70532,5.69849,0,0,0,0,0,0,0,-1,678,1457,-4.7053,-5.69853
-539,-433,-4.68121,5.99548,0.0135506,0.00700348,0.0126141,0.023309,-0.00275496,0.658441,0.0165344,0.0459198,685,1457,-4.68124,-5.99553
-532,-433,-4.6629,6.26917,0.0100466,0.00371397,0.0079392,0.0154276,-0.00166702,0.595654,0.0108834,0.0350739,692,1457,-4.66292,-6.26911
-525,-433,-4.77643,6.50415,0.00767946,0.00215582,0.00506327,0.0106852,-0.000849882,0.535722,0.00742298,0.0221214,699,1457,-4.77643,-6.50421
-518,-433,-4.81317,6.80188,0.00573367,0.00190258,0.00402088,0.00827198,-0.000635723,0.563104,0.00573831,0.0162417,706,1457,-4.8132,-6.80189
-511,-433,-4.84259,7.1272,0.00433865,0.00142722,0.00300679,0.00622357,-0.000457702,0.559958,0.00430973,0.0158495,713,1457,-4.84257,-7.12718
-504,-433,-4.80957,7.43518,0.00335449,0.000712513,0.00179788,0.0042645,-0.000197501,0.468564,0.00291107,0.0128447,720,1457,-4.80957,-7.43515
-497,-433,-4.79974,7.74854,0.00260464,-0.000600585,0.000331406,0.00263855,-0.000634492,0.101958,0.00200429,0.0131218,727,1457,-4.79972,-7.74849
-490,-433,-4.84149,8.04163,0.00184701,-0.00268507,-0.00162544,0.00236969,-0.00320775,-0.311122,0.00323224,0.0152294,734,1457,-4.84147,-8.04163
-483,-433,-4.85498,8.38977,0.00138562,-0.00494227,-0.00368852,0.00308128,-0.00663793,-0.430901,0.00573526,0.0155501,741,1457,-4.85499,-8.38972
-476,-433,-4.84406,8.71228,0.000810938,-0.00797489,-0.00625723,0.00406332,-0.0112273,-0.479347,0.0091453,0.00997179,748,1457,-4.84404,-8.71226
-469,-433,-4.82904,9.00488,0.000428998,-0.0117249,-0.00930775,0.00546796,-0.0167639,-0.496195,0.0133764,0.00982565,755,1457,-4.82905,-9.00489
-462,-433,-4.83331,9.30664,-0.000108305,-0.0163432,-0.0130546,0.0071468,-0.0235983,-0.507248,0.0185785,0.00979236,762,1457,-4.83334,-9.3066
-455,-433,-4.65002,9.73291,-0.00101573,-0.0221557,-0.0175727,0.00892096,-0.0320923,-0.514637,0.0249069,0.0292142,769,1457,-4.65,-9.73287
-448,-433,-4.72711,9.38074,-0.00224189,-0.0291552,-0.0232862,0.0111963,-0.0425934,-0.5234,0.0327715,0.0415642,776,1457,-4.72711,-9.38071
-441,-433,-4.94269,9.09692,-0.00402839,-0.0377284,-0.030221,0.0137226,-0.0554794,-0.531084,0.0423089,0.0474544,783,1457,-4.94272,-9.09698
-434,-433,-4.96643,8.95337,0,0,0,0,0,0,0,-1,790,1457,-4.96644,-8.95339
-427,-433,-3.87988,8.02539,0,0,0,0,0,0,0,-1,797,1457,-3.87986,-8.02541
-420,-433,-7.66504,8.89319,0,0,0,0,0,0,0,-1,804,1457,-7.66506,-8.89324
-413,-433,-3.63074,5.5813,0,0,0,0,0,0,0,-1,811,1457,-3.63072,-5.58129
-406,-433,-12.3472,4.69373,0,0,0,0,0,0,0,-1,818,1457,-12.3472,-4.69374
-399,-433,-12.055,2.83594,0,0,0,0,0,0,0,-1,825,1457,-12.055,-2.83594
-392,-433,-12.9772,1.6228,0,0,0,0,0,0,0,-1,832,1457,-12.9772,-1.62282
-385,-433,-13.7999,0.514771,0,0,0,0,0,0,0,-1,839,1457,-13.7999,-0.514788
-378,-433,0,0,0,0,0,0,0,0,0,-1,846,1457,0,0
-371,-433,0,0,0,0,0,0,0,0,0,-1,853,1457,0,0
-364,-433,0,0,0,0,0,0,0,0,0,-1,860,1457,0,0
-357,-433,0,0,0,0,0,0,0,0,0,-1,867,1457,0,0
-350,-433,0,0,0,0,0,0,0,0,0,-1,874,1457,0,0
-343,-433,0,0,0,0,0,0,0,0,0,-1,881,1457,0,0
-336,-433,0,0,0,0,0,0,0,0,0,-1,888,1457,0,0
-329,-433,0,0,0,0,0,0,0,0,0,-1,895,1457,0,0
-322,-433,0,0,0,0,0,0,0,0,0,-1,902,1457,0,0
-315,-433,0,0,0,0,0,0,0,0,0,-1,909,1457,0,0
-308,-433,0,0,0,0,0,0,0,0,0,-1,916,1457,0,0
-301,-433,0,0,0,0,0,0,0,0,0,-1,923,1457,0,0
-294,-433,0,0,0,0,0,0,0,0,0,-1,930,1457,0,0
-287,-433,0,0,0,0,0,0,0,0,0,-1,937,1457,0,0
-280,-433,0,0,0,0,0,0,0,0,0,-1,944,1457,0,0
-273,-433,0,0,0,0,0,0,0,0,0,-1,951,1457,0,0
-266,-433,0,0,0,0,0,0,0,0,0,-1,958,1457,0,0
-259,-433,0,0,0,0,0,0,0,0,0,-1,965,1457,0,0
-252,-433,0,0,0,0,0,0,0,0,0,-1,972,1457,0,0
-245,-433,0,0,0,0,0,0,0,0,0,-1,979,1457,0,0
-238,-433,0,0,0,0,0,0,0,0,0,-1,986,1457,0,0
-231,-433,0,0,0,0,0,0,0,0,0,-1,993,1457,0,0
-224,-433,0,0,0,0,0,0,0,0,0,-1,1000,1457,0,0
-217,-433,0,0,0,0,0,0,0,0,0,-1,1007,1457,0,0
-210,-433,0,0,0,0,0,0,0,0,0,-1,1014,1457,0,0
-203,-433,0,0,0,0,0,0,0,0,0,-1,1021,1457,0,0
-196,-433,0,0,0,0,0,0,0,0,0,-1,1028,1457,0,0
-189,-433,0,0,0,0,0,0,0,0,0,-1,1035,1457,0,0
-182,-433,0,0,0,0,0,0,0,0,0,-1,1042,1457,0,0
-175,-433,0,0,0,0,0,0,0,0,0,-1,1049,1457,0,0
-168,-433,0,0,0,0,0,0,0,0,0,-1,1056,1457,0,0
-161,-433,0,0,0,0,0,0,0,0,0,-1,1063,1457,0,0
-154,-433,0,0,0,0,0,0,0,0,0,-1,1070,1457,0,0
-147,-433,0,0,0,0,0,0,0,0,0,-1,1077,1457,0,0
-140,-433,0,0,0,0,0,0,0,0,0,-1,1084,1457,0,0
-133,-433,0,0,0,0,0,0,0,0,0,-1,1091,1457,0,0
-126,-433,0,0,0,0,0,0,0,0,0,-1,1098,1457,0,0
-119,-433,0,0,0,0,0,0,0,0,0,-1,1105,1457,0,0
-112,-433,0,0,0,0,0,0,0,0,0,-1,1112,1457,0,0
-105,-433,0,0,0,0,0,0,0,0,0,-1,1119,1457,0,0
-98,-433,0,0,0,0,0,0,0,0,0,-1,1126,1457,0,0
-91,-433,0,0,0,0,0,0,0,0,0,-1,1133,1457,0,0
-84,-433,0,0,0,0,0,0,0,0,0,-1,1140,1457,0,0
-77,-433,0,0,0,0,0,0,0,0,0,-1,1147,1457,0,0
-70,-433,0,0,0,0,0,0,0,0,0,-1,1154,1457,0,0
-63,-433,0,0,0,0,0,0,0,0,0,-1,1161,1457,0,0
-56,-433,0,0,0,0,0,0,0,0,0,-1,1168,1457,0,0
-49,-433,0,0,0,0,0,0,0,0,0,-1,1175,1457,0,0
-42,-433,0,0,0,0,0,0,0,0,0,-1,1182,1457,0,0
-35,-433,0,0,0,0,0,0,0,0,0,-1,1189,1457,0,0
-28,-433,0,0,0,0,0,0,0,0,0,-1,1196,1457,0,0
-21,-433,0,0,0,0,0,0,0,0,0,-1,1203,1457,0,0
-14,-433,0,0,0,0,0,0,0,0,0,-1,1210,1457,0,0
-7,-433,0,0,0,0,0,0,0,0,0,-1,1217,1457,0,0
0,-433,0,0,0,0,0,0,0,0,0,-1,1224,1457,0,0
7,-433,0,0,0,0,0,0,0,0,0,-1,1231,1457,0,0
14,-433,0,0,0,0,0,0,0,0,0,-1,1238,1457,0,0
21,-433,0,0,0,0,0,0,0,0,0,-1,1245,1457,0,0
28,-433,0,0,0,0,0,0,0,0,0,-1,1252,1457,0,0
35,-433,0,0,0,0,0,0,0,0,0,-1,1259,1457,0,0
42,-433,0,0,0,0,0,0,0,0,0,-1,1266,1457,0,0
49,-433,0,0,0,0,0,0,0,0,0,-1,1273,1457,0,0
56,-433,0,0,0,0,0,0,0,0,0,-1,1280,1457,0,0
63,-433,0,0,0,0,0,0,0,0,0,-1,1287,1457,0,0
70,-433,0,0,0,0,0,0,0,0,0,-1,1294,1457,0,0
77,-433,0,0,0,0,0,0,0,0,0,-1,1301,1457,0,0
84,-433,0,0,0,0,0,0,0,0,0,-1,1308,1457,0,0
91,-433,0,0,0,0,0,0,0,0,0,-1,1315,1457,0,0
98,-433,0,0,0,0,0,0,0,0,0,-1,1322,1457,0,0
105,-433,0,0,0,0,0,0,0,0,0,-1,1329,1457,0,0
112,-433,0,0,0,0,0,0,0,0,0,-1,1336,1457,0,0
119,-433,0,0,0,0,0,0,0,0,0,-1,1343,1457,0,0
126,-433,0,0,0,0,0,0,0,0,0,-1,1350,1457,0,0
133,-433,0,0,0,0,0,0,0,0,0,-1,1357,1457,0,0
140,-433,0,0,0,0,0,0,0,0,0,-1,1364,1457,0,0
147,-433,0,0,0,0,0,0,0,0,0,-1,1371,1457,0,0
154,-433,0,0,0,0,0,0,0,0,0,-1,1378,1457,0,0
161,-433,0,0,0,0,0,0,0,0,0,-1,1385,1457,0,0
168,-433,0,0,0,0,0,0,0,0,0,-1,1392,1457,0,0
175,-433,0,0,0,0,0,0,0,0,0,-1,1399,1457,0,0
182,-433,0,0,0,0,0,0,0,0,0,-1,1406,1457,0,0
189,-433,0,0,0,0,0,0,0,0,0,-1,1413,1457,0,0
196,-433,0,0,0,0,0,0,0,0,0,-1,1420,1457,0,0
203,-433,0,0,0,0,0,0,0,0,0,-1,1427,1457,0,0
210,-433,0,0,0,0,0,0,0,0,0,-1,1434,1457,0,0
217,-433,0,0,0,0,0,0,0,0,0,-1,1441,1457,0,0
224,-433,0,0,0,0,0,0,0,0,0,-1,1448,1457,0,0
231,-433,0,0,0,0,0,0,0,0,0,-1,1455,1457,0,0
238,-433,0,0,0,0,0,0,0,0,0,-1,1462,1457,0,0
245,-433,0,0,0,0,0,0,0,0,0,-1,1469,1457,0,0
252,-433,0,0,0,0,0,0,0,0,0,-1,1476,1457,0,0
259,-433,0,0,0,0,0,0,0,0,0,-1,1483,1457,0,0
266,-433,0,0,0,0,0,0,0,0,0,-1,1490,1457,0,0
273,-433,0,0,0,0,0,0,0,0,0,-1,1497,1457,0,0
280,-433,0,0,0,0,0,0,0,0,0,-1,1504,1457,0,0
287,-433,0,0,0,0,0,0,0,0,0,-1,1511,1457,0,0
294,-433,0,0,0,0,0,0,0,0,0,-1,1518,1457,0,0
301,-433,0,0,0,0,0,0,0,0,0,-1,1525,1457,0,0
308,-433,0,0,0,0,0,0,0,0,0,-1,1532,1457,0,0
315,-433,0,0,0,0,0,0,0,0,0,-1,1539,1457,0,0
322,-433,0,0,0,0,0,0,0,0,0,-1,1546,1457,0,0
329,-433,0,0,0,0,0,0,0,0,0,-1,1553,1457,0,0
336,-433,0,0,0,0,0,0,0,0,0,-1,1560,1457,0,0
343,-433,0,0,0,0,0,0,0,0,0,-1,1567,1457,0,0
350,-433,0,0,0,0,0,0,0,0,0,-1,1574,1457,0,0
357,-433,0,0,0,0,0,0,0,0,0,-1,1581,1457,0,0
364,-433,0,0,0,0,0,0,0,0,0,-1,1588,1457,0,0
371,-433,0,0,0,0,0,0,0,0,0,-1,1595,1457,0,0
378,-433,0,0,0,0,0,0,0,0,0,-1,1602,1457,0,0
385,-433,0,0,0,0,0,0,0,0,0,-1,1609,1457,0,0
392,-433,0,0,0,0,0,0,0,0,0,-1,1616,1457,0,0
399,-433,0,0,0,0,0,0,0,0,0,-1,1623,1457,0,0
406,-433,0,0,0,0,0,0,0,0,0,-1,1630,1457,0,0
413,-433,0,0,0,0,0,0,0,0,0,-1,1637,1457,0,0
420,-433,0,0,0,0,0,0,0,0,0,-1,1644,1457,0,0
427,-433,0,0,0,0,0,0,0,0,0,-1,1651,1457,0,0
434,-433,0,0,0,0,0,0,0,0,0,-1,1658,1457,0,0
441,-433,0,0,0,0,0,0,0,0,0,-1,1665,1457,0,0
448,-433,0,0,0,0,0,0,0,0,0,-1,1672,1457,0,0
455,-433,0,0,0,0,0,0,0,0,0,-1,1679,1457,0,0
462,-433,0,0,0,0,0,0,0,0,0,-1,1686,1457,0,0
469,-433,0,0,0,0,0,0,0,0,0,-1,1693,1457,0,0
476,-433,0,0,0,0,0,0,0,0,0,-1,1700,1457,0,0
483,-433,0,0,0,0,0,0,0,0,0,-1,1707,1457,0,0
490,-433,0,0,0,0,0,0,0,0,0,-1,1714,1457,0,0
497,-433,0,0,0,0,0,0,0,0,0,-1,1721,1457,0,0
504,-433,19.9058,3.03662,0,0,0,0,0,0,0,-1,1728,1457,19.9058,-3.03656
511,-433,19.0145,3.07837,0,0,0,0,0,0,0,-1,1735,1457,19.0146,-3.07834
518,-433,18.071,3.06433,0,0,0,0,0,0,0,-1,1742,1457,18.071,-3.06432
525,-433,17.2048,3.37085,0,0,0,0,0,0,0,-1,1749,1457,17.2049,-3.37083
532,-433,16.5637,3.36646,0,0,0,0,0,0,0,-1,1756,1457,16.5637,-3.36643
539,-433,15.9193,3.30396,0,0,0,0,0,0,0,-1,1763,1457,15.9193,-3.30394
546,-433,23.1903,4.81775,0,0,0,0,0,0,0,-1,1770,1457,23.1903,-4.81775
553,-433,14.2043,9.60327,0,0,0,0,0,0,0,-1,1777,1457,14.2043,-9.60327
560,-433,14.9908,10.8973,0,0,0,0,0,0,0,-1,1784,1457,14.9908,-10.8973
567,-433,14.8884,10.6635,0,0,0,0,0,0,0,-1,1791,1457,14.8884,-10.6634
574,-433,14.0579,11.7129,0,0,0,0,0,0,0,-1,1798,1457,14.0579,-11.7129
581,-433,14.7146,11.3488,0,0,0,0,0,0,0,-1,1805,1457,14.7145,-11.3488
588,-433,14.7456,11.3401,0,0,0,0,0,0,0,-1,1812,1457,14.7456,-11.34
595,-433,14.8013,10.9602,-0.00683306,-0.00364746,0.00517098,0.00017048,-0.010651,0.9348,0.00715816,0.0247643,1819,1457,14.8012,-10.9602
602,-433,14.8539,10.6594,-0.00501814,-0.00223479,0.00373145,0.000356052,-0.00760898,0.963888,0.00519541,0.0194909,1826,1457,14.8539,-10.6594
609,-433,14.8658,10.3604,-0.00357249,-0.00137846,0.00260476,0.000350865,-0.00530182,0.984705,0.00365711,0.015316,1833,1457,14.8658,-10.3603
616,-433,14.8765,10.116,-0.00258357,-0.00079514,0.00180274,0.000322978,-0.00370169,1.01563,0.0025822,0.0134083,1840,1457,14.8765,-10.1159
623,-433,14.8519,9.81885,-0.00174643,-0.000333746,0.00104499,0.000221227,-0.0023014,1.08259,0.00161308,0.0106887,1847,1457,14.852,-9.81889
630,-433,14.8384,9.53015,-0.00120374,-0.000330469,0.000501772,-0.000101953,-0.00143225,1.14345,0.000922731,0.0128516,1854,1457,14.8384,-9.53016
637,-433,14.8375,9.26282,-0.00100072,-0.000347851,0.000121829,-0.000325858,-0.00102271,1.3922,0.000603275,0.0131986,1861,1457,14.8375,-9.26279
644,-433,14.8218,8.99329,-0.000959598,-0.000565604,-0.000175596,-0.000498703,-0.0010265,-1.20678,0.000592729,0.0141327,1868,1457,14.8218,-8.99325
651,-433,14.8247,8.70264,-0.00116469,-0.000906671,-0.000392829,-0.000622211,-0.00144915,-0.944056,0.000839447,0.0115897,1875,1457,14.8247,-8.70269
658,-433,14.8386,8.36597,-0.00167572,-0.00133635,-0.00057132,-0.000910051,-0.00210202,-0.92975,0.00121724,0.0162741,1882,1457,14.8386,-8.36594
665,-433,14.743,8.02039,-0.00227807,-0.00194148,-0.000815489,-0.0012771,-0.00294245,-0.887155,0.00170374,0.024897,1889,1457,14.7431,-8.02044
672,-433,14.7574,7.90405,-0.00296278,-0.00282716,-0.0010756,-0.00181723,-0.00397271,-0.81688,0.00229641,0.0463074,1896,1457,14.7575,-7.90404
679,-433,14.801,7.76587,0,0,0,0,0,0,0,-1,1903,1457,14.801,-7.76587
686,-433,13.6356,8.61694,0,0,0,0,0,0,0,-1,1910,1457,13.6356,-8.61694
693,-433,13.4081,8.39624,0,0,0,0,0,0,0,-1,1917,1457,13.4081,-8.39624
700,-433,7.16809,-1.5166,0,0,0,0,0,0,0,-1,1924,1457,7.16806,1.51656
707,-433,8.68359,-2.82202,0,0,0,0,0,0,0,-1,1931,1457,8.68359,2.82197
714,-433,0,0,0,0,0,0,0,0,0,-1,1938,1457,0,0
721,-433,0,0,0,0,0,0,0,0,0,-1,1945,1457,0,0
728,-433,0,0,0,0,0,0,0,0,0,-1,1952,1457,0,0
735,-433,0,0,0,0,0,0,0,0,0,-1,1959,1457,0,0
742,-433,0,0,0,0,0,0,0,0,0,-1,1966,1457,0,0
749,-433,0,0,0,0,0,0,0,0,0,-1,1973,1457,0,0
756,-433,0,0,0,0,0,0,0,0,0,-1,1980,1457,0,0
763,-433,0,0,0,0,0,0,0,0,0,-1,1987,1457,0,0
770,-433,0,0,0,0,0,0,0,0,0,-1,1994,1457,0,0
777,-433,0,0,0,0,0,0,0,0,0,-1,2001,1457,0,0
784,-433,0,0,0,0,0,0,0,0,0,-1,2008,1457,0,0
791,-433,0,0,0,0,0,0,0,0,0,-1,2015,1457,0,0
798,-433,0,0,0,0,0,0,0,0,0,-1,2022,1457,0,0
805,-433,0,0,0,0,0,0,0,0,0,-1,2029,1457,0,0
812,-433,0,0,0,0,0,0,0,0,0,-1,2036,1457,0,0
-700,-440,0,0,0,0,0,0,0,0,0,-1,524,1464,0,0
-693,-440,0,0,0,0,0,0,0,0,0,-1,531,1464,0,0
-686,-440,0,0,0,0,0,0,0,0,0,-1,538,1464,0,0
-679,-440,0,0,0,0,0,0,0,0,0,-1,545,1464,0,0
-672,-440,0,0,0,0,0,0,0,0,0,-1,552,1464,0,0
-665,-440,0,0,0,0,0,0,0,0,0,-1,559,1464,0,0
-658,-440,0,0,0,0,0,0,0,0,0,-1,566,1464,0,0
-651,-440,0,0,0,0,0,0,0,0,0,-1,573,1464,0,0
-644,-440,0,0,0,0,0,0,0,0,0,-1,580,1464,0,0
-637,-440,0,0,0,0,0,0,0,0,0,-1,587,1464,0,0
-630,-440,0,0,0,0,0,0,0,0,0,-1,594,1464,0,0
-623,-440,0,0,0,0,0,0,0,0,0,-1,601,1464,0,0
-616,-440,0,0,0,0,0,0,0,0,0,-1,608,1464,0,0
-609,-440,0,0,0,0,0,0,0,0,0,-1,615,1464,0,0
-602,-440,0,0,0,0,0,0,0,0,0,-1,622,1464,0,0
-595,-440,0,0,0,0,0,0,0,0,0,-1,629,1464,0,0
-588,-440,0,0,0,0,0,0,0,0,0,-1,636,1464,0,0
-581,-440,-8.97278,0.254517,0,0,0,0,0,0,0,-1,643,1464,-8.97276,-0.254526
-574,-440,-7.00818,-0.918579,0,0,0,0,0,0,0,-1,650,1464,-7.00817,0.918538
-567,-440,-6.12152,-0.0766602,0,0,0,0,0,0,0,-1,657,1464,-6.12151,0.0767097
-560,-440,-5.46747,0.82251,0,0,0,0,0,0,0,-1,664,1464,-5.46748,-0.822551
-553,-440,-6.84729,0.0831299,0,0,0,0,0,0,0,-1,671,1464,-6.84732,-0.083136
-546,-440,-5.63446,-0.153198,0,0,0,0,0,0,0,-1,678,1464,-5.63447,0.153147
-539,-440,-4.52557,6.05347,0,0,0,0,0,0,0,-1,685,1464,-4.52558,-6.05351
-532,-440,-4.46198,6.20093,0.0120477,0.00512917,0.0133009,0.0223318,-0.0051549,0.658177,0.0168707,0.0426953,692,1464,-4.46197,-6.20088
-525,-440,-4.49768,6.52075,0.00913991,0.00367102,0.00953615,0.0163259,-0.00351499,0.645772,0.0122252,0.0241439,699,1464,-4.49767,-6.52075
-518,-440,-4.5174,6.77991,0.00668264,0.00316911,0.00746577,0.0125956,-0.00274381,0.669846,0.00944543,0.0153438,706,1464,-4.51737,-6.77991
-511,-440,-4.50476,7.11731,0.00487023,0.00260391,0.00561175,0.00946208,-0.00198795,0.685775,0.00706456,0.0149584,713,1464,-4.50478,-7.11731
-504,-440,-4.50409,7.43762,0.0035891,0.00174088,0.00383155,0.00660641,-0.00127642,0.667066,0.00488565,0.0181211,720,1464,-4.50409,-7.4376
-497,-440,-4.50116,7.71851,0.00266875,0.000435029,0.00200653,0.00384831,-0.000744533,0.531446,0.00284636,0.0216099,727,1464,-4.50114,-7.71847
-490,-440,-4.50165,7.98438,0.00186865,-0.00146565,-8.83723e-05,0.00187099,-0.00146799,-0.0264792,0.00193244,0.0226117,734,1464,-4.50167,-7.98443
-483,-440,-4.52893,8.35095,0.00141849,-0.00343286,-0.00214879,0.00223337,-0.00424774,-0.362472,0.00380164,0.020366,741,1464,-4.52893,-8.35095
-476,-440,-4.53839,8.68396,0.000822571,-0.00598538,-0.00452726,0.00308279,-0.0082456,-0.463045,0.00676307,0.0132654,748,1464,-4.53841,-8.68391
-469,-440,-4.53601,9.00989,0.000576434,-0.00897153,-0.00709348,0.0043528,-0.0127479,-0.489208,0.010262,0.0124126,755,1464,-4.536,-9.00992
-462,-440,-4.53699,9.32678,0.00041033,-0.0126289,-0.0100456,0.00586647,-0.018085,-0.49756,0.0144157,0.0133566,762,1464,-4.53699,-9.32677
-455,-440,-4.46191,9.68872,1.75527e-05,-0.0170398,-0.0134374,0.00740433,-0.0244266,-0.502627,0.0192336,0.0199891,769,1464,-4.4619,-9.68871
-448,-440,-4.20282,9.90698,-0.000550304,-0.0223022,-0.0176426,0.00929924,-0.0321518,-0.50918,0.0251148,0.0374958,776,1464,-4.20281,-9.90696
-441,-440,-4.42291,9.61316,-0.00142212,-0.0287506,-0.0226425,0.0113597,-0.0415324,-0.513912,0.0321509,0.0433025,783,1464,-4.42289,-9.6131
-434,-440,-4.54303,9.50732,0,0,0,0,0,0,0,-1,790,1464,-4.54304,-9.50738
-427,-440,-5.25616,8.44397,0,0,0,0,0,0,0,-1,797,1464,-5.25618,-8.44396
-420,-440,-4.98608,8.01746,0,0,0,0,0,0,0,-1,804,1464,-4.98609,-8.01748
-413,-440,-3.46796,5.72278,0,0,0,0,0,0,0,-1,811,1464,-3.46797,-5.72276
-406,-440,-5.2887,5.20264,0,0,0,0,0,0,0,-1,818,1464,-5.2887,-5.20261
-399,-440,-12.7318,3.94421,0,0,0,0,0,0,0,-1,825,1464,-12.7318,-3.94419
-392,-440,-13.5565,2.51855,0,0,0,0,0,0,0,-1,832,1464,-13.5565,-2.51861
-385,-440,-14.6741,1.39795,0,0,0,0,0,0,0,-1,839,1464,-14.6741,-1.39801
-378,-440,-15.8063,0.293457,0,0,0,0,0,0,0,-1,846,1464,-15.8063,-0.293412
-371,-440,0,0,0,0,0,0,0,0,0,-1,853,1464,0,0
-364,-440,0,0,0,0,0,0,0,0,0,-1,860,1464,0,0
-357,-440,0,0,0,0,0,0,0,0,0,-1,867,1464,0,0
-350,-440,0,0,0,0,0,0,0,0,0,-1,874,1464,0,0
-343,-440,0,0,0,0,0,0,0,0,0,-1,881,1464,0,0
-336,-440,0,0,0,0,0,0,0,0,0,-1,888,1464,0,0
-329,-440,0,0,0,0,0,0,0,0,0,-1,895,1464,0,0
-322,-440,0,0,0,0,0,0,0,0,0,-1,902,1464,0,0
-315,-440,0,0,0,0,0,0,0,0,0,-1,909,1464,0,0
-308,-440,0,0,0,0,0,0,0,0,0,-1,916,1464,0,0
-301,-440,0,0,0,0,0,0,0,0,0,-1,923,1464,0,0
-294,-440,0,0,0,0,0,0,0,0,0,-1,930,1464,0,0
-287,-440,0,0,0,0,0,0,0,0,0,-1,937,1464,0,0
-280,-440,0,0,0,0,0,0,0,0,0,-1,944,1464,0,0
-273,-440,0,0,0,0,0,0,0,0,0,-1,951,1464,0,0
-266,-440,0,0,0,0,0,0,0,0,0,-1,958,1464,0,0
-259,-440,0,0,0,0,0,0,0,0,0,-1,965,1464,0,0
-252,-440,0,0,0,0,0,0,0,0,0,-1,972,1464,0,0
-245,-440,0,0,0,0,0,0,0,0,0,-1,979,1464,0,0
-238,-440,0,0,0,0,0,0,0,0,0,-1,986,1464,0,0
-231,-440,0,0,0,0,0,0,0,0,0,-1,993,1464,0,0
-224,-440,0,0,0,0,0,0,0,0,0,-1,1000,1464,0,0
-217,-440,0,0,0,0,0,0,0,0,0,-1,1007,1464,0,0
-210,-440,0,0,0,0,0,0,0,0,0,-1,1014,1464,0,0
-203,-440,0,0,0,0,0,0,0,0,0,-1,1021,1464,0,0
-196,-440,0,0,0,0,0,0,0,0,0,-1,1028,1464,0,0
-189,-440,0,0,0,0,0,0,0,0,0,-1,1035,1464,0,0
-182,-440,0,0,0,0,0,0,0,0,0,-1,1042,1464,0,0
-175,-440,0,0,0,0,0,0,0,0,0,-1,1049,1464,0,0
-168,-440,0,0,0,0,0,0,0,0,0,-1,1056,1464,0,0
-161,-440,0,0,0,0,0,0,0,0,0,-1,1063,1464,0,0
-154,-440,0,0,0,0,0,0,0,0,0,-1,1070,1464,0,0
-147,-440,0,0,0,0,0,0,0,0,0,-1,1077,1464,0,0
-140,-440,0,0,0,0,0,0,0,0,0,-1,1084,1464,0,0
-133,-440,0,0,0,0,0,0,0,0,0,-1,1091,1464,0,0
-126,-440,0,0,0,0,0,0,0,0,0,-1,1098,1464,0,0
-119,-440,0,0,0,0,0,0,0,0,0,-1,1105,1464,0,0
-112,-440,0,0,0,0,0,0,0,0,0,-1,1112,1464,0,0
-105,-440,0,0,0,0,0,0,0,0,0,-1,1119,1464,0,0
-98,-440,0,0,0,0,0,0,0,0,0,-1,1126,1464,0,0
-91,-440,0,0,0,0,0,0,0,0,0,-1,1133,1464,0,0
-84,-440,0,0,0,0,0,0,0,0,0,-1,1140,1464,0,0
-77,-440,0,0,0,0,0,0,0,0,0,-1,1147,1464,0,0
-70,-440,0,0,0,0,0,0,0,0,0,-1,1154,1464,0,0
-63,-440,0,0,0,0,0,0,0,0,0,-1,1161,1464,0,0
-56,-440,0,0,0,0,0,0,0,0,0,-1,1168,1464,0,0
-49,-440,0,0,0,0,0,0,0,0,0,-1,1175,1464,0,0
-42,-440,0,0,0,0,0,0,0,0,0,-1,1182,1464,0,0
-35,-440,0,0,0,0,0,0,0,0,0,-1,1189,1464,0,0
-28,-440,0,0,0,0,0,0,0,0,0,-1,1196,1464,0,0
-21,-440,0,0,0,0,0,0,0,0,0,-1,1203,1464,0,0
-14,-440,0,0,0,0,0,0,0,0,0,-1,1210,1464,0,0
-7,-440,0,0,0,0,0,0,0,0,0,-1,1217,1464,0,0
0,-440,0,0,0,0,0,0,0,0,0,-1,1224,1464,0,0
7,-440,0,0,0,0,0,0,0,0,0,-1,1231,1464,0,0
14,-440,0,0,0,0,0,0,0,0,0,-1,1238,1464,0,0
21,-440,0,0,0,0,0,0,0,0,0,-1,1245,1464,0,0
28,-440,0,0,0,0,0,0,0,0,0,-1,1252,1464,0,0
35,-440,0,0,0,0,0,0,0,0,0,-1,1259,1464,0,0
42,-440,0,0,0,0,0,0,0,0,0,-1,1266,1464,0,0
49,-440,0,0,0,0,0,0,0,0,0,-1,1273,1464,0,0
56,-440,0,0,0,0,0,0,0,0,0,-1,1280,1464,0,0
63,-440,0,0,0,0,0,0,0,0,0,-1,1287,1464,0,0
70,-440,0,0,0,0,0,0,0,0,0,-1,1294,1464,0,0
77,-440,0,0,0,0,0,0,0,0,0,-1,1301,1464,0,0
84,-440,0,0,0,0,0,0,0,0,0,-1,1308,1464,0,0
91,-440,0,0,0,0,0,0,0,0,0,-1,1315,1464,0,0
98,-440,0,0,0,0,0,0,0,0,0,-1,1322,1464,0,0
105,-440,0,0,0,0,0,0,0,0,0,-1,1329,1464,0,0
112,-440,0,0,0,0,0,0,0,0,0,-1,1336,1464,0,0
119,-440,0,0,0,0,0,0,0,0,0,-1,1343,1464,0,0
126,-440,0,0,0,0,0,0,0,0,0,-1,1350,1464,0,0
133,-440,0,0,0,0,0,0,0,0,0,-1,1357,1464,0,0
140,-440,0,0,0,0,0,0,0,0,0,-1,1364,1464,0,0
147,-440,0,0,0,0,0,0,0,0,0,-1,1371,1464,0,0
154,-440,0,0,0,0,0,0,0,0,0,-1,1378,1464,0,0
161,-440,0,0,0,0,0,0,0,0,0,-1,1385,1464,0,0
168,-440,0,0,0,0,0,0,0,0,0,-1,1392,1464,0,0
175,-440,0,0,0,0,0,0,0,0,0,-1,1399,1464,0,0
182,-440,0,0,0,0,0,0,0,0,0,-1,1406,1464,0,0
189,-440,0,0,0,0,0,0,0,0,0,-1,1413,1464,0,0
196,-440,0,0,0,0,0,0,0,0,0,-1,1420,1464,0,0
203,-440,0,0,0,0,0,0,0,0,0,-1,1427,1464,0,0
210,-440,0,0,0,0,0,0,0,0,0,-1,1434,1464,0,0
217,-440,0,0,0,0,0,0,0,0,0,-1,1441,1464,0,0
224,-440,0,0,0,0,0,0,0,0,0,-1,1448,1464,0,0
231,-440,0,0,0,0,0,0,0,0,0,-1,1455,1464,0,0
238,-440,0,0,0,0,0,0,0,0,0,-1,1462,1464,0,0
245,-440,0,0,0,0,0,0,0,0,0,-1,1469,1464,0,0
252,-440,0,0,0,0,0,0,0,0,0,-1,1476,1464,0,0
259,-440,0,0,0,0,0,0,0,0,0,-1,1483,1464,0,0
266,-440,0,0,0,0,0,0,0,0,0,-1,1490,1464,0,0
273,-440,0,0,0,0,0,0,0,0,0,-1,1497,1464,0,0
280,-440,0,0,0,0,0,0,0,0,0,-1,1504,1464,0,0
287,-440,0,0,0,0,0,0,0,0,0,-1,1511,1464,0,0
294,-440,0,0,0,0,0,0,0,0,0,-1,1518,1464,0,0
301,-440,0,0,0,0,0,0,0,0,0,-1,1525,1464,0,0
308,-440,0,0,0,0,0,0,0,0,0,-1,1532,1464,0,0
315,-440,0,0,0,0,0,0,0,0,0,-1,1539,1464,0,0
322,-440,0,0,0,0,0,0,0,0,0,-1,1546,1464,0,0
329,-440,0,0,0,0,0,0,0,0,0,-1,1553,1464,0,0
336,-440,0,0,0,0,0,0,0,0,0,-1,1560,1464,0,0
343,-440,0,0,0,0,0,0,0,0,0,-1,1567,1464,0,0
350,-440,0,0,0,0,0,0,0,0,0,-1,1574,1464,0,0
357,-440,0,0,0,0,0,0,0,0,0,-1,1581,1464,0,0
364,-440,0,0,0,0,0,0,0,0,0,-1,1588,1464,0,0
371,-440,0,0,0,0,0,0,0,0,0,-1,1595,1464,0,0
378,-440,0,0,0,0,0,0,0,0,0,-1,1602,1464,0,0
385,-440,0,0,0,0,0,0,0,0,0,-1,1609,1464,0,0
392,-440,0,0,0,0,0,0,0,0,0,-1,1616,1464,0,0
399,-440,0,0,0,0,0,0,0,0,0,-1,1623,1464,0,0
406,-440,0,0,0,0,0,0,0,0,0,-1,1630,1464,0,0
413,-440,0,0,0,0,0,0,0,0,0,-1,1637,1464,0,0
420,-440,0,0,0,0,0,0,0,0,0,-1,1644,1464,0,0
427,-440,0,0,0,0,0,0,0,0,0,-1,1651,1464,0,0
434,-440,0,0,0,0,0,0,0,0,0,-1,1658,1464,0,0
441,-440,0,0,0,0,0,0,0,0,0,-1,1665,1464,0,0
448,-440,0,0,0,0,0,0,0,0,0,-1,1672,1464,0,0
455,-440,0,0,0,0,0,0,0,0,0,-1,1679,1464,0,0
462,-440,0,0,0,0,0,0,0,0,0,-1,1686,1464,0,0
469,-440,0,0,0,0,0,0,0,0,0,-1,1693,1464,0,0
476,-440,0,0,0,0,0,0,0,0,0,-1,1700,1464,0,0
483,-440,0,0,0,0,0,0,0,0,0,-1,1707,1464,0,0
490,-440,0,0,0,0,0,0,0,0,0,-1,1714,1464,0,0
497,-440,16.965,-0.528442,0,0,0,0,0,0,0,-1,1721,1464,16.965,0.528492
504,-440,15.8052,0.670166,0,0,0,0,0,0,0,-1,1728,1464,15.8052,-0.670145
511,-440,17.5754,2.77832,0,0,0,0,0,0,0,-1,1735,1464,17.5754,-2.77826
518,-440,16.9017,3.07861,0,0,0,0,0,0,0,-1,1742,1464,16.9018,-3.07859
525,-440,18.4495,12.0867,0,0,0,0,0,0,0,-1,1749,1464,18.4495,-12.0867
532,-440,15.4319,3.64392,0,0,0,0,0,0,0,-1,1756,1464,15.4318,-3.64391
539,-440,14.8214,3.41321,0,0,0,0,0,0,0,-1,1763,1464,14.8214,-3.4132
546,-440,14.8651,10.7683,0,0,0,0,0,0,0,-1,1770,1464,14.8651,-10.7683
553,-440,15.3785,10.856,0,0,0,0,0,0,0,-1,1777,1464,15.3786,-10.856
560,-440,15.01,11.0122,0,0,0,0,0,0,0,-1,1784,1464,15.01,-11.0123
567,-440,14.7439,11.0745,0,0,0,0,0,0,0,-1,1791,1464,14.7439,-11.0744
574,-440,14.7202,11.6946,0,0,0,0,0,0,0,-1,1798,1464,14.7202,-11.6945
581,-440,14.5443,11.4639,-0.0111711,-0.00749134,0.00776615,-0.0013501,-0.0173123,0.901708,0.0111189,0.0468259,1805,1464,14.5443,-11.4639
588,-440,14.5337,11.3108,-0.00714905,-0.005046,0.0054072,-0.00058903,-0.011606,0.881434,0.00754866,0.0389992,1812,1464,14.5337,-11.3108
595,-440,14.5391,11.0037,-0.00491231,-0.00310514,0.00399251,8.47587e-05,-0.0081022,0.896684,0.00542994,0.019547,1819,1464,14.539,-11.0037
602,-440,14.5764,10.6794,-0.0035767,-0.00190897,0.00287761,0.000253163,-0.00573883,0.926424,0.00391301,0.0181154,1826,1464,14.5764,-10.6794
609,-440,14.5851,10.3776,-0.00255126,-0.00114384,0.00199799,0.000270741,-0.00396585,0.954719,0.00273861,0.0157941,1833,1464,14.5851,-10.3775
616,-440,14.5935,10.1345,-0.00183446,-0.000663401,0.00137458,0.000245164,-0.00274302,0.986744,0.00191564,0.0166113,1840,1464,14.5936,-10.1345
623,-440,14.5834,9.83447,-0.0012406,-0.000328233,0.000745405,8.95018e-05,-0.00165833,1.05999,0.00113656,0.0127967,1847,1464,14.5833,-9.83449
630,-440,14.5573,9.51721,-0.000910409,-0.000388766,0.000311828,-0.000243061,-0.00105612,1.13368,0.000638665,0.0101905,1854,1464,14.5573,-9.51721
637,-440,14.5582,9.271,-0.00089271,-0.00049304,1.66134e-06,-0.000493033,-0.000892717,1.56664,0.000516349,0.0139995,1861,1464,14.5583,-9.27094
644,-440,14.5687,8.99817,-0.0010295,-0.000765831,-0.000288032,-0.000580897,-0.00121444,-1.00002,0.000701375,0.0140317,1868,1464,14.5687,-8.99821
651,-440,14.5935,8.68518,-0.00146508,-0.00111664,-0.000526543,-0.000736244,-0.00184548,-0.945163,0.00107272,0.0134159,1875,1464,14.5935,-8.68517
658,-440,14.5265,8.43933,-0.00220329,-0.00159531,-0.000815022,-0.00102944,-0.00276917,-0.963899,0.00161622,0.0229902,1882,1464,14.5264,-8.43939
665,-440,14.6479,8.17053,-0.00296711,-0.00223235,-0.00130911,-0.00124005,-0.00395941,-0.922197,0.00233855,0.0351343,1889,1464,14.6479,-8.17058
672,-440,14.7994,8.02869,-0.00378056,-0.00311011,-0.00199936,-0.00141807,-0.0054726,-0.868459,0.00327955,0.049492,1896,1464,14.7995,-8.02868
679,-440,14.7073,7.50769,0,0,0,0,0,0,0,-1,1903,1464,14.7073,-7.50775
686,-440,14.3662,7.16992,0,0,0,0,0,0,0,-1,1910,1464,14.3662,-7.16998
693,-440,9.88635,2.89795,0,0,0,0,0,0,0,-1,1917,1464,9.88638,-2.89798
700,-440,7.07825,-2.62061,0,0,0,0,0,0,0,-1,1924,1464,7.07829,2.62057
707,-440,0,0,0,0,0,0,0,0,0,-1,1931,1464,0,0
714,-440,0,0,0,0,0,0,0,0,0,-1,1938,1464,0,0
721,-440,0,0,0,0,0,0,0,0,0,-1,1945,1464,0,0
728,-440,0,0,0,0,0,0,0,0,0,-1,1952,1464,0,0
735,-440,0,0,0,0,0,0,0,0,0,-1,1959,1464,0,0
742,-440,0,0,0,0,0,0,0,0,0,-1,1966,1464,0,0
749,-440,0,0,0,0,0,0,0,0,0,-1,1973,1464,0,0
756,-440,0,0,0,0,0,0,0,0,0,-1,1980,1464,0,0
763,-440,0,0,0,0,0,0,0,0,0,-1,1987,1464,0,0
770,-440,0,0,0,0,0,0,0,0,0,-1,1994,1464,0,0
777,-440,0,0,0,0,0,0,0,0,0,-1,2001,1464,0,0
784,-440,0,0,0,0,0,0,0,0,0,-1,2008,1464,0,0
791,-440,0,0,0,0,0,0,0,0,0,-1,2015,1464,0,0
798,-440,0,0,0,0,0,0,0,0,0,-1,2022,1464,0,0
805,-440,0,0,0,0,0,0,0,0,0,-1,2029,1464,0,0
812,-440,0,0,0,0,0,0,0,0,0,-1,2036,1464,0,0
-700,-447,0,0,0,0,0,0,0,0,0,-1,524,1471,0,0
-693,-447,0,0,0,0,0,0,0,0,0,-1,531,1471,0,0
-686,-447,0,0,0,0,0,0,0,0,0,-1,538,1471,0,0
-679,-447,0,0,0,0,0,0,0,0,0,-1,545,1471,0,0
-672,-447,0,0,0,0,0,0,0,0,0,-1,552,1471,0,0
-665,-447,0,0,0,0,0,0,0,0,0,-1,559,1471,0,0
-658,-447,0,0,0,0,0,0,0,0,0,-1,566,1471,0,0
-651,-447,0,0,0,0,0,0,0,0,0,-1,573,1471,0,0
-644,-447,0,0,0,0,0,0,0,0,0,-1,580,1471,0,0
-637,-447,0,0,0,0,0,0,0,0,0,-1,587,1471,0,0
-630,-447,0,0,0,0,0,0,0,0,0,-1,594,1471,0,0
-623,-447,0,0,0,0,0,0,0,0,0,-1,601,1471,0,0
-616,-447,0,0,0,0,0,0,0,0,0,-1,608,1471,0,0
-609,-447,0,0,0,0,0,0,0,0,0,-1,615,1471,0,0
-602,-447,0,0,0,0,0,0,0,0,0,-1,622,1471,0,0
-595,-447,0,0,0,0,0,0,0,0,0,-1,629,1471,0,0
-588,-447,0,0,0,0,0,0,0,0,0,-1,636,1471,0,0
-581,-447,-7.06482,-1.50476,0,0,0,0,0,0,0,-1,643,1471,-7.0648,1.50474
-574,-447,-6.88092,-0.00585938,0,0,0,0,0,0,0,-1,650,1471,-6.88095,0.00589852
-567,-447,-6.8205,-1.32178,0,0,0,0,0,0,0,-1,657,1471,-6.82047,1.32172
-560,-447,-8.85748,2.80774,0,0,0,0,0,0,0,-1,664,1471,-8.85748,-2.80775
-553,-447,-7.60486,3.26794,0,0,0,0,0,0,0,-1,671,1471,-7.60487,-3.26799
-546,-447,-3.94501,1.8656,0,0,0,0,0,0,0,-1,678,1471,-3.945,-1.86554
-539,-447,-4.62946,4.80676,0,0,0,0,0,0,0,-1,685,1471,-4.62947,-4.8068
-532,-447,-4.27832,6.19434,0,0,0,0,0,0,0,-1,692,1471,-4.27834,-6.19432
-525,-447,-4.08228,6.62012,0.0120191,0.00567614,0.0149966,0.0241758,-0.00648063,0.681194,0.0186565,0.0355432,699,1471,-4.08229,-6.6201
-518,-447,-4.16827,6.75769,0.00850642,0.00473737,0.0117026,0.0184752,-0.00523143,0.705566,0.0143814,0.0272895,706,1471,-4.16827,-6.75766
-511,-447,-4.17932,7.09485,0.00592291,0.00390327,0.00887809,0.0138484,-0.00402225,0.72877,0.0108251,0.0160264,713,1471,-4.1793,-7.0949
-504,-447,-4.19739,7.44873,0.00413257,0.00275873,0.00638284,0.00986534,-0.00297405,0.731795,0.00776058,0.020293,720,1471,-4.19737,-7.44871
-497,-447,-4.20239,7.73547,0.00289723,0.00136406,0.00404947,0.00625204,-0.00199074,0.691853,0.00496643,0.0252361,727,1471,-4.20239,-7.7355
-490,-447,-4.13776,8.01086,0.00196374,-0.000425703,0.00168986,0.00283855,-0.00130052,0.477696,0.00244407,0.0247261,734,1471,-4.13777,-8.01081
-483,-447,-4.20245,8.34558,0.0014512,-0.00218524,-0.000485688,0.00151495,-0.00224899,-0.130514,0.00218684,0.021727,741,1471,-4.20247,-8.34564
-476,-447,-4.22424,8.68481,0.000802383,-0.00435037,-0.00280041,0.00203127,-0.00557926,-0.413521,0.00455032,0.0147743,748,1471,-4.22423,-8.6848
-469,-447,-4.23004,9.02332,0.00064701,-0.00671303,-0.00504173,0.00320891,-0.00927493,-0.470138,0.00748581,0.0138778,755,1471,-4.23003,-9.02334
-462,-447,-4.2243,9.35608,0.000779943,-0.00960894,-0.00742444,0.00464666,-0.0134757,-0.480156,0.0108689,0.0126992,762,1471,-4.2243,-9.35604
-455,-447,-4.2583,9.66418,0.000816284,-0.0128672,-0.0099477,0.00604791,-0.0180988,-0.484162,0.0145083,0.0137189,769,1471,-4.25833,-9.66418
-448,-447,-4.13489,9.99817,0.000817189,-0.0166899,-0.0129153,0.00766585,-0.0235386,-0.487574,0.0187767,0.0229017,776,1471,-4.13491,-9.99816
-441,-447,-4.10187,10.0167,0,0,0,0,0,0,0,-1,783,1471,-4.10185,-10.0168
-434,-447,-4.14911,10.1857,0,0,0,0,0,0,0,-1,790,1471,-4.1491,-10.1857
-427,-447,-3.99829,10.1296,0,0,0,0,0,0,0,-1,797,1471,-3.9983,-10.1296
-420,-447,-4.94312,8.77417,0,0,0,0,0,0,0,-1,804,1471,-4.94312,-8.77421
-413,-447,-4.27393,6.59705,0,0,0,0,0,0,0,-1,811,1471,-4.27392,-6.59707
-406,-447,-1.04279,6.18591,0,0,0,0,0,0,0,-1,818,1471,-1.04276,-6.18586
-399,-447,0.0134888,0.687622,0,0,0,0,0,0,0,-1,825,1471,0.0134841,-0.68767
-392,-447,-14.0646,3.76147,0,0,0,0,0,0,0,-1,832,1471,-14.0646,-3.7615
-385,-447,-15.1695,2.61865,0,0,0,0,0,0,0,-1,839,1471,-15.1695,-2.61871
-378,-447,-15.9424,1.49316,0,0,0,0,0,0,0,-1,846,1471,-15.9424,-1.49313
-371,-447,-17.3655,0.73291,0,0,0,0,0,0,0,-1,853,1471,-17.3655,-0.732946
-364,-447,0,0,0,0,0,0,0,0,0,-1,860,1471,0,0
-357,-447,0,0,0,0,0,0,0,0,0,-1,867,1471,0,0
-350,-447,0,0,0,0,0,0,0,0,0,-1,874,1471,0,0
-343,-447,0,0,0,0,0,0,0,0,0,-1,881,1471,0,0
-336,-447,0,0,0,0,0,0,0,0,0,-1,888,1471,0,0
-329,-447,0,0,0,0,0,0,0,0,0,-1,895,1471,0,0
-322,-447,0,0,0,0,0,0,0,0,0,-1,902,1471,0,0
-315,-447,0,0,0,0,0,0,0,0,0,-1,909,1471,0,0
-308,-447,0,0,0,0,0,0,0,0,0,-1,916,1471,0,0
-301,-447,0,0,0,0,0,0,0,0,0,-1,923,1471,0,0
-294,-447,0,0,0,0,0,0,0,0,0,-1,930,1471,0,0
-287,-447,0,0,0,0,0,0,0,0,0,-1,937,1471,0,0
-280,-447,0,0,0,0,0,0,0,0,0,-1,944,1471,0,0
-273,-447,0,0,0,0,0,0,0,0,0,-1,951,1471,0,0
-266,-447,0,0,0,0,0,0,0,0,0,-1,958,1471,0,0
-259,-447,0,0,0,0,0,0,0,0,0,-1,965,1471,0,0
-252,-447,0,0,0,0,0,0,0,0,0,-1,972,1471,0,0
-245,-447,0,0,0,0,0,0,0,0,0,-1,979,1471,0,0
-238,-447,0,0,0,0,0,0,0,0,0,-1,986,1471,0,0
-231,-447,0,0,0,0,0,0,0,0,0,-1,993,1471,0,0
-224,-447,0,0,0,0,0,0,0,0,0,-1,1000,1471,0,0
-217,-447,0,0,0,0,0,0,0,0,0,-1,1007,1471,0,0
-210,-447,0,0,0,0,0,0,0,0,0,-1,1014,1471,0,0
-203,-447,0,0,0,0,0,0,0,0,0,-1,1021,1471,0,0
-196,-447,0,0,0,0,0,0,0,0,0,-1,1028,1471,0,0
-189,-447,0,0,0,0,0,0,0,0,0,-1,1035,1471,0,0
-182,-447,0,0,0,0,0,0,0,0,0,-1,1042,1471,0,0
-175,-447,0,0,0,0,0,0,0,0,0,-1,1049,1471,0,0
-168,-447,0,0,0,0,0,0,0,0,0,-1,1056,1471,0,0
-161,-447,0,0,0,0,0,0,0,0,0,-1,1063,1471,0,0
-154,-447,0,0,0,0,0,0,0,0,0,-1,1070,1471,0,0
-147,-447,0,0,0,0,0,0,0,0,0,-1,1077,1471,0,0
-140,-447,0,0,0,0,0,0,0,0,0,-1,1084,1471,0,0
-133,-447,0,0,0,0,0,0,0,0,0,-1,1091,1471,0,0
-126,-447,0,0,0,0,0,0,0,0,0,-1,1098,1471,0,0
-119,-447,0,0,0,0,0,0,0,0,0,-1,1105,1471,0,0
-112,-447,0,0,0,0,0,0,0,0,0,-1,1112,1471,0,0
-105,-447,0,0,0,0,0,0,0,0,0,-1,1119,1471,0,0
-98,-447,0,0,0,0,0,0,0,0,0,-1,1126,1471,0,0
-91,-447,0,0,0,0,0,0,0,0,0,-1,1133,1471,0,0
-84,-447,0,0,0,0,0,0,0,0,0,-1,1140,1471,0,0
-77,-447,0,0,0,0,0,0,0,0,0,-1,1147,1471,0,0
-70,-447,0,0,0,0,0,0,0,0,0,-1,1154,1471,0,0
-63,-447,0,0,0,0,0,0,0,0,0,-1,1161,1471,0,0
-56,-447,0,0,0,0,0,0,0,0,0,-1,1168,1471,0,0
-49,-447,0,0,0,0,0,0,0,0,0,-1,1175,1471,0,0
-42,-447,0,0,0,0,0,0,0,0,0,-1,1182,1471,0,0
-35,-447,0,0,0,0,0,0,0,0,0,-1,1189,1471,0,0
-28,-447,0,0,0,0,0,0,0,0,0,-1,1196,1471,0,0
-21,-447,0,0,0,0,0,0,0,0,0,-1,1203,1471,0,0
-14,-447,0,0,0,0,0,0,0,0,0,-1,1210,1471,0,0
-7,-447,0,0,0,0,0,0,0,0,0,-1,1217,1471,0,0
0,-447,0,0,0,0,0,0,0,0,0,-1,1224,1471,0,0
7,-447,0,0,0,0,0,0,0,0,0,-1,1231,1471,0,0
14,-447,0,0,0,0,0,0,0,0,0,-1,1238,1471,0,0
21,-447,0,0,0,0,0,0,0,0,0,-1,1245,1471,0,0
28,-447,0,0,0,0,0,0,0,0,0,-1,1252,1471,0,0
35,-447,0,0,0,0,0,0,0,0,0,-1,1259,1471,0,0
42,-447,0,0,0,0,0,0,0,0,0,-1,1266,1471,0,0
49,-447,0,0,0,0,0,0,0,0,0,-1,1273,1471,0,0
56,-447,0,0,0,0,0,0,0,0,0,-1,1280,1471,0,0
63,-447,0,0,0,0,0,0,0,0,0,-1,1287,1471,0,0
70,-447,0,0,0,0,0,0,0,0,0,-1,1294,1471,0,0
77,-447,0,0,0,0,0,0,0,0,0,-1,1301,1471,0,0
84,-447,0,0,0,0,0,0,0,0,0,-1,1308,1471,0,0
91,-447,0,0,0,0,0,0,0,0,0,-1,1315,1471,0,0
98,-447,0,0,0,0,0,0,0,0,0,-1,1322,1471,0,0
105,-447,0,0,0,0,0,0,0,0,0,-1,1329,1471,0,0
112,-447,0,0,0,0,0,0,0,0,0,-1,1336,1471,0,0
119,-447,0,0,0,0,0,0,0,0,0,-1,1343,1471,0,0
126,-447,0,0,0,0,0,0,0,0,0,-1,1350,1471,0,0
133,-447,0,0,0,0,0,0,0,0,0,-1,1357,1471,0,0
140,-447,0,0,0,0,0,0,0,0,0,-1,1364,1471,0,0
147,-447,0,0,0,0,0,0,0,0,0,-1,1371,1471,0,0
154,-447,0,0,0,0,0,0,0,0,0,-1,1378,1471,0,0
161,-447,0,0,0,0,0,0,0,0,0,-1,1385,1471,0,0
168,-447,0,0,0,0,0,0,0,0,0,-1,1392,1471,0,0
175,-447,0,0,0,0,0,0,0,0,0,-1,1399,1471,0,0
182,-447,0,0,0,0,0,0,0,0,0,-1,1406,1471,0,0
189,-447,0,0,0,0,0,0,0,0,0,-1,1413,1471,0,0
196,-447,0,0,0,0,0,0,0,0,0,-1,1420,1471,0,0
203,-447,0,0,0,0,0,0,0,0,0,-1,1427,1471,0,0
210,-447,0,0,0,0,0,0,0,0,0,-1,1434,1471,0,0
217,-447,0,0,0,0,0,0,0,0,0,-1,1441,1471,0,0
224,-447,0,0,0,0,0,0,0,0,0,-1,1448,1471,0,0
231,-447,0,0,0,0,0,0,0,0,0,-1,1455,1471,0,0
238,-447,0,0,0,0,0,0,0,0,0,-1,1462,1471,0,0
245,-447,0,0,0,0,0,0,0,0,0,-1,1469,1471,0,0
252,-447,0,0,0,0,0,0,0,0,0,-1,1476,1471,0,0
259,-447,0,0,0,0,0,0,0,0,0,-1,1483,1471,0,0
266,-447,0,0,0,0,0,0,0,0,0,-1,1490,1471,0,0
273,-447,0,0,0,0,0,0,0,0,0,-1,1497,1471,0,0
280,-447,0,0,0,0,0,0,0,0,0,-1,1504,1471,0,0
287,-447,0,0,0,0,0,0,0,0,0,-1,1511,1471,0,0
294,-447,0,0,0,0,0,0,0,0,0,-1,1518,1471,0,0
301,-447,0,0,0,0,0,0,0,0,0,-1,1525,1471,0,0
308,-447,0,0,0,0,0,0,0,0,0,-1,1532,1471,0,0
315,-447,0,0,0,0,0,0,0,0,0,-1,1539,1471,0,0
322,-447,0,0,0,0,0,0,0,0,0,-1,1546,1471,0,0
329,-447,0,0,0,0,0,0,0,0,0,-1,1553,1471,0,0
336,-447,0,0,0,0,0,0,0,0,0,-1,1560,1471,0,0
343,-447,0,0,0,0,0,0,0,0,0,-1,1567,1471,0,0
350,-447,0,0,0,0,0,0,0,0,0,-1,1574,1471,0,0
357,-447,0,0,0,0,0,0,0,0,0,-1,1581,1471,0,0
364,-447,0,0,0,0,0,0,0,0,0,-1,1588,1471,0,0
371,-447,0,0,0,0,0,0,0,0,0,-1,1595,1471,0,0
378,-447,0,0,0,0,0,0,0,0,0,-1,1602,1471,0,0
385,-447,0,0,0,0,0,0,0,0,0,-1,1609,1471,0,0
392,-447,0,0,0,0,0,0,0,0,0,-1,1616,1471,0,0
399,-447,0,0,0,0,0,0,0,0,0,-1,1623,1471,0,0
406,-447,0,0,0,0,0,0,0,0,0,-1,1630,1471,0,0
413,-447,0,0,0,0,0,0,0,0,0,-1,1637,1471,0,0
420,-447,0,0,0,0,0,0,0,0,0,-1,1644,1471,0,0
427,-447,0,0,0,0,0,0,0,0,0,-1,1651,1471,0,0
434,-447,0,0,0,0,0,0,0,0,0,-1,1658,1471,0,0
441,-447,0,0,0,0,0,0,0,0,0,-1,1665,1471,0,0
448,-447,0,0,0,0,0,0,0,0,0,-1,1672,1471,0,0
455,-447,0,0,0,0,0,0,0,0,0,-1,1679,1471,0,0
462,-447,0,0,0,0,0,0,0,0,0,-1,1686,1471,0,0
469,-447,0,0,0,0,0,0,0,0,0,-1,1693,1471,0,0
476,-447,0,0,0,0,0,0,0,0,0,-1,1700,1471,0,0
483,-447,0,0,0,0,0,0,0,0,0,-1,1707,1471,0,0
490,-447,18.2214,-0.810303,0,0,0,0,0,0,0,-1,1714,1471,18.2215,0.810307
497,-447,17.0237,0.352417,0,0,0,0,0,0,0,-1,1721,1471,17.0237,-0.352442
504,-447,15.8998,1.53479,0,0,0,0,0,0,0,-1,1728,1471,15.8997,-1.53478
511,-447,14.7201,2.76111,0,0,0,0,0,0,0,-1,1735,1471,14.7201,-2.76107
518,-447,17.7618,13.2864,0,0,0,0,0,0,0,-1,1742,1471,17.7619,-13.2863
525,-447,17.1191,11.9014,0,0,0,0,0,0,0,-1,1749,1471,17.1191,-11.9013
532,-447,16.3959,10.0455,0,0,0,0,0,0,0,-1,1756,1471,16.3959,-10.0456
539,-447,14.1699,10.0204,0,0,0,0,0,0,0,-1,1763,1471,14.1699,-10.0204
546,-447,16.2401,12.7002,0,0,0,0,0,0,0,-1,1770,1471,16.2401,-12.7002
553,-447,15.7543,12.2545,0,0,0,0,0,0,0,-1,1777,1471,15.7542,-12.2545
560,-447,14.8545,11.8252,0,0,0,0,0,0,0,-1,1784,1471,14.8545,-11.8252
567,-447,14.5833,11.6246,-0.0202869,-0.0111284,0.0130288,-0.0018976,-0.0295178,0.954391,0.0190775,0.044852,1791,1471,14.5832,-11.6246
574,-447,14.3926,11.7014,-0.0127074,-0.00912353,0.00833443,-0.00239059,-0.0194404,0.891289,0.0122414,0.0362057,1798,1471,14.3926,-11.7014
581,-447,14.2286,11.6478,-0.00882808,-0.00629985,0.00612874,-0.00130621,-0.0138217,0.887102,0.0088114,0.0216546,1805,1471,14.2286,-11.6478
588,-447,14.2943,11.2958,-0.00527225,-0.00424785,0.00412863,-0.000599775,-0.00892033,0.847113,0.00575738,0.0150013,1812,1471,14.2943,-11.2957
595,-447,14.2848,10.9875,-0.00338215,-0.00258874,0.00302016,6.06563e-05,-0.00603155,0.8507,0.0040414,0.0116036,1819,1471,14.2848,-10.9876
602,-447,14.2805,10.6718,-0.00239938,-0.00159259,0.00215028,0.000191808,-0.00418378,0.87812,0.00285527,0.0108422,1826,1471,14.2805,-10.6718
609,-447,14.2881,10.3746,-0.0016915,-0.000920295,0.00145752,0.000201768,-0.00281357,0.914716,0.00194646,0.0122949,1833,1471,14.288,-10.3746
616,-447,14.3059,10.106,-0.00118251,-0.000542884,0.000974443,0.000162884,-0.00188828,0.943961,0.00131651,0.0138226,1840,1471,14.306,-10.1059
623,-447,14.3062,9.83264,-0.000794368,-0.000345791,0.000461476,-5.69852e-05,-0.00108317,1.0116,0.000703889,0.0149374,1847,1471,14.3062,-9.83269
630,-447,14.2938,9.53357,-0.000655495,-0.000472291,0.000130606,-0.000404366,-0.00072342,1.09122,0.000418634,0.00870544,1854,1471,14.2939,-9.53353
637,-447,14.2972,9.25146,-0.000806276,-0.00066909,-0.00011407,-0.000604578,-0.000870788,-1.05609,0.000515246,0.00968984,1861,1471,14.2972,-9.25148
644,-447,14.3022,8.96924,-0.00112045,-0.000988262,-0.000388468,-0.000660304,-0.0014484,-0.869658,0.000837321,0.0108085,1868,1471,14.3023,-8.96923
651,-447,14.2997,8.66992,-0.00181688,-0.00143778,-0.000587839,-0.00100969,-0.00224498,-0.941361,0.00129832,0.0263403,1875,1471,14.2997,-8.66994
658,-447,14.0443,8.43164,-0.00283248,-0.00204564,-0.000932614,-0.00142686,-0.00345126,-0.984997,0.00200252,0.036399,1882,1471,14.0443,-8.43162
665,-447,13.848,7.95459,0,0,0,0,0,0,0,-1,1889,1471,13.848,-7.95454
672,-447,14.9227,8.30908,0,0,0,0,0,0,0,-1,1896,1471,14.9228,-8.30911
679,-447,15.3729,7.59131,0,0,0,0,0,0,0,-1,1903,1471,15.373,-7.59136
686,-447,9.81079,4.30859,0,0,0,0,0,0,0,-1,1910,1471,9.8108,-4.30864
693,-447,10.48,2.08643,0,0,0,0,0,0,0,-1,1917,1471,10.48,-2.08642
700,-447,0,0,0,0,0,0,0,0,0,-1,1924,1471,0,0
707,-447,0,0,0,0,0,0,0,0,0,-1,1931,1471,0,0
714,-447,0,0,0,0,0,0,0,0,0,-1,1938,1471,0,0
721,-447,0,0,0,0,0,0,0,0,0,-1,1945,1471,0,0
728,-447,0,0,0,0,0,0,0,0,0,-1,1952,1471,0,0
735,-447,0,0,0,0,0,0,0,0,0,-1,1959,1471,0,0
742,-447,0,0,0,0,0,0,0,0,0,-1,1966,1471,0,0
749,-447,0,0,0,0,0,0,0,0,0,-1,1973,1471,0,0
756,-447,0,0,0,0,0,0,0,0,0,-1,1980,1471,0,0
763,-447,0,0,0,0,0,0,0,0,0,-1,1987,1471,0,0
770,-447,0,0,0,0,0,0,0,0,0,-1,1994,1471,0,0
777,-447,0,0,0,0,0,0,0,0,0,-1,2001,1471,0,0
784,-447,0,0,0,0,0,0,0,0,0,-1,2008,1471,0,0
791,-447,0,0,0,0,0,0,0,0,0,-1,2015,1471,0,0
798,-447,0,0,0,0,0,0,0,0,0,-1,2022,1471,0,0
805,-447,0,0,0,0,0,0,0,0,0,-1,2029,1471,0,0
812,-447,0,0,0,0,0,0,0,0,0,-1,2036,1471,0,0
-700,-454,0,0,0,0,0,0,0,0,0,-1,524,1478,0,0
-693,-454,0,0,0,0,0,0,0,0,0,-1,531,1478,0,0
-686,-454,0,0,0,0,0,0,0,0,0,-1,538,1478,0,0
-679,-454,0,0,0,0,0,0,0,0,0,-1,545,1478,0,0
-672,-454,0,0,0,0,0,0,0,0,0,-1,552,1478,0,0
-665,-454,0,0,0,0,0,0,0,0,0,-1,559,1478,0,0
-658,-454,0,0,0,0,0,0,0,0,0,-1,566,1478,0,0
-651,-454,0,0,0,0,0,0,0,0,0,-1,573,1478,0,0
-644,-454,0,0,0,0,0,0,0,0,0,-1,580,1478,0,0
-637,-454,0,0,0,0,0,0,0,0,0,-1,587,1478,0,0
-630,-454,0,0,0,0,0,0,0,0,0,-1,594,1478,0,0
-623,-454,0,0,0,0,0,0,0,0,0,-1,601,1478,0,0
-616,-454,0,0,0,0,0,0,0,0,0,-1,608,1478,0,0
-609,-454,0,0,0,0,0,0,0,0,0,-1,615,1478,0,0
-602,-454,0,0,0,0,0,0,0,0,0,-1,622,1478,0,0
-595,-454,0,0,0,0,0,0,0,0,0,-1,629,1478,0,0
-588,-454,0,0,0,0,0,0,0,0,0,-1,636,1478,0,0
-581,-454,0,0,0,0,0,0,0,0,0,-1,643,1478,0,0
-574,-454,-8.4881,-0.465942,0,0,0,0,0,0,0,-1,650,1478,-8.4881,0.465885
-567,-454,-8.10046,0.922974,0,0,0,0,0,0,0,-1,657,1478,-8.10047,-0.923034
-560,-454,-10.656,3.51172,0,0,0,0,0,0,0,-1,664,1478,-10.656,-3.51176
-553,-454,-9.01129,3.95251,0,0,0,0,0,0,0,-1,671,1478,-9.0113,-3.95256
-546,-454,-9.61896,6.05237,0,0,0,0,0,0,0,-1,678,1478,-9.61897,-6.05239
-539,-454,-7.34521,5.71313,0,0,0,0,0,0,0,-1,685,1478,-7.34519,-5.71308
-532,-454,-5.93024,6.08838,0.019943,0.0101995,0.0271672,0.0426718,-0.0125294,0.696679,0.0334167,0.0456949,692,1478,-5.93022,-6.08842
-525,-454,-4.37189,6.62732,0.0142259,0.00846659,0.0211236,0.0326652,-0.00997273,0.717654,0.025753,0.0424219,699,1478,-4.37186,-6.62732
-518,-454,-3.81342,6.9635,0.00979962,0.00679802,0.0162161,0.0245843,-0.00798663,0.739255,0.0196018,0.0333298,706,1478,-3.8134,-6.9635
-511,-454,-3.90149,7.08032,0.00657646,0.00542714,0.0121422,0.0181576,-0.00615399,0.761752,0.0145954,0.0214179,713,1478,-3.90152,-7.08029
-504,-454,-3.86682,7.43542,0.00437623,0.00392256,0.00877707,0.0129294,-0.00463061,0.772479,0.0105089,0.0157495,720,1478,-3.8668,-7.43538
-497,-454,-3.84772,7.72058,0.00288904,0.00237597,0.0058584,0.00849652,-0.00323151,0.763518,0.00699492,0.0188471,727,1478,-3.8477,-7.72063
-490,-454,-3.86859,8.06567,0.0018604,0.000639896,0.00320036,0.00450817,-0.00200787,0.691188,0.00385325,0.0174663,734,1478,-3.86861,-8.06562
-483,-454,-3.90558,8.38416,0.00131169,-0.000993115,0.000900525,0.00162181,-0.00130324,0.331658,0.00169211,0.0159625,741,1478,-3.90559,-8.38412
-476,-454,-3.91937,8.69836,0.000651979,-0.00287499,-0.00137102,0.00112223,-0.00334524,-0.33042,0.00268362,0.0140556,748,1478,-3.91937,-8.69836
-469,-454,-3.90765,9.02283,0.000589615,-0.00478274,-0.00332525,0.00217811,-0.00637124,-0.445655,0.00513005,0.0109209,755,1478,-3.90766,-9.02285
-462,-454,-3.92316,9.32556,0.000956537,-0.00716391,-0.00528399,0.00356009,-0.00976746,-0.457811,0.00796801,0.0108186,762,1478,-3.92318,-9.32556
-455,-454,-3.94025,9.63538,0.00130804,-0.00956094,-0.00714984,0.0048543,-0.0131072,-0.460436,0.0107288,0.0109483,769,1478,-3.94027,-9.63537
-448,-454,-3.90894,9.94287,0.00173464,-0.0123018,-0.00909587,0.00620512,-0.0167723,-0.456812,0.0137257,0.0122031,776,1478,-3.90891,-9.94281
-441,-454,-3.75403,10.3102,0.0021695,-0.0156637,-0.0113316,0.00767203,-0.0211662,-0.452054,0.0172467,0.0226582,783,1478,-3.75403,-10.3101
-434,-454,-3.70361,10.5543,0.0027314,-0.0197378,-0.0140247,0.0094665,-0.0264729,-0.447706,0.02151,0.0313638,790,1478,-3.70361,-10.5544
-427,-454,-3.73315,10.5314,0.00354449,-0.0243357,-0.0171067,0.0116716,-0.0324629,-0.44352,0.0264068,0.0445986,797,1478,-3.73317,-10.5314
-420,-454,-3.65106,10.6541,0,0,0,0,0,0,0,-1,804,1478,-3.65104,-10.654
-413,-454,-3.46564,9.63281,0,0,0,0,0,0,0,-1,811,1478,-3.46565,-9.63278
-406,-454,-2.38208,10.0308,0,0,0,0,0,0,0,-1,818,1478,-2.38209,-10.0308
-399,-454,-1.21033,6.95447,0,0,0,0,0,0,0,-1,825,1478,-1.21035,-6.95452
-392,-454,0.0967407,0.985474,0,0,0,0,0,0,0,-1,832,1478,0.0967364,-0.985529
-385,-454,2.38629,3.297,0,0,0,0,0,0,0,-1,839,1478,2.38629,-3.29702
-378,-454,-15.9756,2.83997,0,0,0,0,0,0,0,-1,846,1478,-15.9756,-2.83994
-371,-454,-17.2753,2.01453,0,0,0,0,0,0,0,-1,853,1478,-17.2753,-2.01455
-364,-454,1.08124,0.819458,0,0,0,0,0,0,0,-1,860,1478,1.08124,-0.819513
-357,-454,0,0,0,0,0,0,0,0,0,-1,867,1478,0,0
-350,-454,0,0,0,0,0,0,0,0,0,-1,874,1478,0,0
-343,-454,0,0,0,0,0,0,0,0,0,-1,881,1478,0,0
-336,-454,0,0,0,0,0,0,0,0,0,-1,888,1478,0,0
-329,-454,0,0,0,0,0,0,0,0,0,-1,895,1478,0,0
-322,-454,0,0,0,0,0,0,0,0,0,-1,902,1478,0,0
-315,-454,0,0,0,0,0,0,0,0,0,-1,909,1478,0,0
-308,-454,0,0,0,0,0,0,0,0,0,-1,916,1478,0,0
-301,-454,0,0,0,0,0,0,0,0,0,-1,923,1478,0,0
-294,-454,0,0,0,0,0,0,0,0,0,-1,930,1478,0,0
-287,-454,0,0,0,0,0,0,0,0,0,-1,937,1478,0,0
-280,-454,0,0,0,0,0,0,0,0,0,-1,944,1478,0,0
-273,-454,0,0,0,0,0,0,0,0,0,-1,951,1478,0,0
-266,-454,0,0,0,0,0,0,0,0,0,-1,958,1478,0,0
-259,-454,0,0,0,0,0,0,0,0,0,-1,965,1478,0,0
-252,-454,0,0,0,0,0,0,0,0,0,-1,972,1478,0,0
-245,-454,0,0,0,0,0,0,0,0,0,-1,979,1478,0,0
-238,-454,0,0,0,0,0,0,0,0,0,-1,986,1478,0,0
-231,-454,0,0,0,0,0,0,0,0,0,-1,993,1478,0,0
-224,-454,0,0,0,0,0,0,0,0,0,-1,1000,1478,0,0
-217,-454,0,0,0,0,0,0,0,0,0,-1,1007,1478,0,0
-210,-454,0,0,0,0,0,0,0,0,0,-1,1014,1478,0,0
-203,-454,0,0,0,0,0,0,0,0,0,-1,1021,1478,0,0
-196,-454,0,0,0,0,0,0,0,0,0,-1,1028,1478,0,0
-189,-454,0,0,0,0,0,0,0,0,0,-1,1035,1478,0,0
-182,-454,0,0,0,0,0,0,0,0,0,-1,1042,1478,0,0
-175,-454,0,0,0,0,0,0,0,0,0,-1,1049,1478,0,0
-168,-454,0,0,0,0,0,0,0,0,0,-1,1056,1478,0,0
-161,-454,0,0,0,0,0,0,0,0,0,-1,1063,1478,0,0
-154,-454,0,0,0,0,0,0,0,0,0,-1,1070,1478,0,0
-147,-454,0,0,0,0,0,0,0,0,0,-1,1077,1478,0,0
-140,-454,0,0,0,0,0,0,0,0,0,-1,1084,1478,0,0
-133,-454,0,0,0,0,0,0,0,0,0,-1,1091,1478,0,0
-126,-454,0,0,0,0,0,0,0,0,0,-1,1098,1478,0,0
-119,-454,0,0,0,0,0,0,0,0,0,-1,1105,1478,0,0
-112,-454,0,0,0,0,0,0,0,0,0,-1,1112,1478,0,0
-105,-454,0,0,0,0,0,0,0,0,0,-1,1119,1478,0,0
-98,-454,0,0,0,0,0,0,0,0,0,-1,1126,1478,0,0
-91,-454,0,0,0,0,0,0,0,0,0,-1,1133,1478,0,0
-84,-454,0,0,0,0,0,0,0,0,0,-1,1140,1478,0,0
-77,-454,0,0,0,0,0,0,0,0,0,-1,1147,1478,0,0
-70,-454,0,0,0,0,0,0,0,0,0,-1,1154,1478,0,0
-63,-454,0,0,0,0,0,0,0,0,0,-1,1161,1478,0,0
-56,-454,0,0,0,0,0,0,0,0,0,-1,1168,1478,0,0
-49,-454,0,0,0,0,0,0,0,0,0,-1,1175,1478,0,0
-42,-454,0,0,0,0,0,0,0,0,0,-1,1182,1478,0,0
-35,-454,0,0,0,0,0,0,0,0,0,-1,1189,1478,0,0
-28,-454,0,0,0,0,0,0,0,0,0,-1,1196,1478,0,0
-21,-454,0,0,0,0,0,0,0,0,0,-1,1203,1478,0,0
-14,-454,0,0,0,0,0,0,0,0,0,-1,1210,1478,0,0
-7,-454,0,0,0,0,0,0,0,0,0,-1,1217,1478,0,0
0,-454,0,0,0,0,0,0,0,0,0,-1,1224,1478,0,0
7,-454,0,0,0,0,0,0,0,0,0,-1,1231,1478,0,0
14,-454,0,0,0,0,0,0,0,0,0,-1,1238,1478,0,0
21,-454,0,0,0,0,0,0,0,0,0,-1,1245,1478,0,0
28,-454,0,0,0,0,0,0,0,0,0,-1,1252,1478,0,0
35,-454,0,0,0,0,0,0,0,0,0,-1,1259,1478,0,0
42,-454,0,0,0,0,0,0,0,0,0,-1,1266,1478,0,0
49,-454,0,0,0,0,0,0,0,0,0,-1,1273,1478,0,0
56,-454,0,0,0,0,0,0,0,0,0,-1,1280,1478,0,0
63,-454,0,0,0,0,0,0,0,0,0,-1,1287,1478,0,0
70,-454,0,0,0,0,0,0,0,0,0,-1,1294,1478,0,0
77,-454,0,0,0,0,0,0,0,0,0,-1,1301,1478,0,0
84,-454,0,0,0,0,0,0,0,0,0,-1,1308,1478,0,0
91,-454,0,0,0,0,0,0,0,0,0,-1,1315,1478,0,0
98,-454,0,0,0,0,0,0,0,0,0,-1,1322,1478,0,0
105,-454,0,0,0,0,0,0,0,0,0,-1,1329,1478,0,0
112,-454,0,0,0,0,0,0,0,0,0,-1,1336,1478,0,0
119,-454,0,0,0,0,0,0,0,0,0,-1,1343,1478,0,0
126,-454,0,0,0,0,0,0,0,0,0,-1,1350,1478,0,0
133,-454,0,0,0,0,0,0,0,0,0,-1,1357,1478,0,0
140,-454,0,0,0,0,0,0,0,0,0,-1,1364,1478,0,0
147,-454,0,0,0,0,0,0,0,0,0,-1,1371,1478,0,0
154,-454,0,0,0,0,0,0,0,0,0,-1,1378,1478,0,0
161,-454,0,0,0,0,0,0,0,0,0,-1,1385,1478,0,0
168,-454,0,0,0,0,0,0,0,0,0,-1,1392,1478,0,0
175,-454,0,0,0,0,0,0,0,0,0,-1,1399,1478,0,0
182,-454,0,0,0,0,0,0,0,0,0,-1,1406,1478,0,0
189,-454,0,0,0,0,0,0,0,0,0,-1,1413,1478,0,0
196,-454,0,0,0,0,0,0,0,0,0,-1,1420,1478,0,0
203,-454,0,0,0,0,0,0,0,0,0,-1,1427,1478,0,0
210,-454,0,0,0,0,0,0,0,0,0,-1,1434,1478,0,0
217,-454,0,0,0,0,0,0,0,0,0,-1,1441,1478,0,0
224,-454,0,0,0,0,0,0,0,0,0,-1,1448,1478,0,0
231,-454,0,0,0,0,0,0,0,0,0,-1,1455,1478,0,0
238,-454,0,0,0,0,0,0,0,0,0,-1,1462,1478,0,0
245,-454,0,0,0,0,0,0,0,0,0,-1,1469,1478,0,0
252,-454,0,0,0,0,0,0,0,0,0,-1,1476,1478,0,0
259,-454,0,0,0,0,0,0,0,0,0,-1,1483,1478,0,0
266,-454,0,0,0,0,0,0,0,0,0,-1,1490,1478,0,0
273,-454,0,0,0,0,0,0,0,0,0,-1,1497,1478,0,0
280,-454,0,0,0,0,0,0,0,0,0,-1,1504,1478,0,0
287,-454,0,0,0,0,0,0,0,0,0,-1,1511,1478,0,0
294,-454,0,0,0,0,0,0,0,0,0,-1,1518,1478,0,0
301,-454,0,0,0,0,0,0,0,0,0,-1,1525,1478,0,0
308,-454,0,0,0,0,0,0,0,0,0,-1,1532,1478,0,0
315,-454,0,0,0,0,0,0,0,0,0,-1,1539,1478,0,0
322,-454,0,0,0,0,0,0,0,0,0,-1,1546,1478,0,0
329,-454,0,0,0,0,0,0,0,0,0,-1,1553,1478,0,0
336,-454,0,0,0,0,0,0,0,0,0,-1,1560,1478,0,0
343,-454,0,0,0,0,0,0,0,0,0,-1,1567,1478,0,0
350,-454,0,0,0,0,0,0,0,0,0,-1,1574,1478,0,0
357,-454,0,0,0,0,0,0,0,0,0,-1,1581,1478,0,0
364,-454,0,0,0,0,0,0,0,0,0,-1,1588,1478,0,0
371,-454,0,0,0,0,0,0,0,0,0,-1,1595,1478,0,0
378,-454,0,0,0,0,0,0,0,0,0,-1,1602,1478,0,0
385,-454,0,0,0,0,0,0,0,0,0,-1,1609,1478,0,0
392,-454,0,0,0,0,0,0,0,0,0,-1,1616,1478,0,0
399,-454,0,0,0,0,0,0,0,0,0,-1,1623,1478,0,0
406,-454,0,0,0,0,0,0,0,0,0,-1,1630,1478,0,0
413,-454,0,0,0,0,0,0,0,0,0,-1,1637,1478,0,0
420,-454,0,0,0,0,0,0,0,0,0,-1,1644,1478,0,0
427,-454,0,0,0,0,0,0,0,0,0,-1,1651,1478,0,0
434,-454,0,0,0,0,0,0,0,0,0,-1,1658,1478,0,0
441,-454,0,0,0,0,0,0,0,0,0,-1,1665,1478,0,0
448,-454,0,0,0,0,0,0,0,0,0,-1,1672,1478,0,0
455,-454,0,0,0,0,0,0,0,0,0,-1,1679,1478,0,0
462,-454,0,0,0,0,0,0,0,0,0,-1,1686,1478,0,0
469,-454,0,0,0,0,0,0,0,0,0,-1,1693,1478,0,0
476,-454,0,0,0,0,0,0,0,0,0,-1,1700,1478,0,0
483,-454,14.2399,3.97498,0,0,0,0,0,0,0,-1,1707,1478,14.2399,-3.97502
490,-454,18.1821,-0.175781,0,0,0,0,0,0,0,-1,1714,1478,18.1821,0.175822
497,-454,16.8854,1.01208,0,0,0,0,0,0,0,-1,1721,1478,16.8854,-1.01209
504,-454,15.587,2.05994,0,0,0,0,0,0,0,-1,1728,1478,15.5871,-2.05998
511,-454,17.0273,14.5258,0,0,0,0,0,0,0,-1,1735,1478,17.0273,-14.5258
518,-454,16.4158,13.1039,0,0,0,0,0,0,0,-1,1742,1478,16.4157,-13.1038
525,-454,15.7842,11.6628,0,0,0,0,0,0,0,-1,1749,1478,15.7841,-11.6629
532,-454,15.1094,10.2476,0,0,0,0,0,0,0,-1,1756,1478,15.1094,-10.2475
539,-454,13.7905,10.9373,0,0,0,0,0,0,0,-1,1763,1478,13.7906,-10.9372
546,-454,14.8629,11.8649,0,0,0,0,0,0,0,-1,1770,1478,14.8629,-11.8649
553,-454,14.0267,11.8545,0,0,0,0,0,0,0,-1,1777,1478,14.0268,-11.8545
560,-454,13.7863,12.3124,0,0,0,0,0,0,0,-1,1784,1478,13.7862,-12.3123
567,-454,14.1405,12.1692,-0.0170748,-0.00896272,0.0107221,-0.00155513,-0.0244824,0.966223,0.0158287,0.0367549,1791,1478,14.1405,-12.1691
574,-454,14.0088,11.8162,-0.0103729,-0.0075157,0.00662958,-0.00216253,-0.015726,0.891518,0.00984268,0.0170418,1798,1478,14.0088,-11.8162
581,-454,14.0043,11.5393,-0.00702898,-0.00520457,0.00482274,-0.00120853,-0.011025,0.878867,0.00698213,0.0114935,1805,1478,14.0043,-11.5393
588,-454,14.0225,11.2627,-0.00383089,-0.00349189,0.00310645,-0.000550319,-0.00677246,0.812653,0.00434317,0.0108421,1812,1478,14.0224,-11.2627
595,-454,13.9983,10.9868,-0.0021838,-0.00208483,0.00223304,9.92669e-05,-0.0043679,0.796477,0.00294558,0.0110869,1819,1478,13.9983,-10.9869
602,-454,13.9966,10.6873,-0.00144138,-0.00126751,0.00154946,0.00019745,-0.00290634,0.813423,0.00200662,0.00878173,1826,1478,13.9965,-10.6872
609,-454,14.0074,10.3938,-0.000950163,-0.000693035,0.000998861,0.000185502,-0.0018287,0.849401,0.00128544,0.0100825,1833,1478,14.0074,-10.3938
616,-454,14.0116,10.1027,-0.000576708,-0.000419657,0.000624503,0.000131238,-0.0011276,0.84794,0.000799082,0.0127972,1840,1478,14.0116,-10.1027
623,-454,14.0115,9.81824,-0.000339317,-0.000369174,0.000214431,-0.000139296,-0.000569196,0.750645,0.000342605,0.0111289,1847,1478,14.0115,-9.81825
630,-454,14.0208,9.53674,-0.000349937,-0.000571367,-2.71444e-05,-0.000346658,-0.000574646,-0.120216,0.000334122,0.0104747,1854,1478,14.0208,-9.53677
637,-454,14.0067,9.26306,-0.000640672,-0.000884299,-0.000216015,-0.000514491,-0.00101048,-0.528668,0.000583433,0.00982749,1861,1478,14.0067,-9.26305
644,-454,14.05,8.96912,-0.0011183,-0.00129237,-0.00046161,-0.00073559,-0.00167508,-0.692218,0.000969491,0.0188499,1868,1478,14.05,-8.96914
651,-454,13.8462,8.79321,-0.00208029,-0.00189815,-0.000607494,-0.00137494,-0.0026035,-0.859797,0.00150392,0.0362672,1875,1478,13.8461,-8.79318
658,-454,13.6184,8.2915,-0.00341639,-0.00272765,-0.00098009,-0.00203319,-0.00411085,-0.954343,0.00237345,0.0384826,1882,1478,13.6185,-8.2915
665,-454,13.5029,7.67639,0,0,0,0,0,0,0,-1,1889,1478,13.5029,-7.67638
672,-454,12.6887,4.95361,0,0,0,0,0,0,0,-1,1896,1478,12.6887,-4.95364
679,-454,14.2161,5.45007,0,0,0,0,0,0,0,-1,1903,1478,14.2161,-5.45013
686,-454,10.3767,2.12842,0,0,0,0,0,0,0,-1,1910,1478,10.3767,-2.12839
693,-454,11.1857,1.48486,0,0,0,0,0,0,0,-1,1917,1478,11.1857,-1.48487
700,-454,0,0,0,0,0,0,0,0,0,-1,1924,1478,0,0
707,-454,0,0,0,0,0,0,0,0,0,-1,1931,1478,0,0
714,-454,0,0,0,0,0,0,0,0,0,-1,1938,1478,0,0
721,-454,0,0,0,0,0,0,0,0,0,-1,1945,1478,0,0
728,-454,0,0,0,0,0,0,0,0,0,-1,1952,1478,0,0
735,-454,0,0,0,0,0,0,0,0,0,-1,1959,1478,0,0
742,-454,0,0,0,0,0,0,0,0,0,-1,1966,1478,0,0
749,-454,0,0,0,0,0,0,0,0,0,-1,1973,1478,0,0
756,-454,0,0,0,0,0,0,0,0,0,-1,1980,1478,0,0
763,-454,0,0,0,0,0,0,0,0,0,-1,1987,1478,0,0
770,-454,0,0,0,0,0,0,0,0,0,-1,1994,1478,0,0
777,-454,0,0,0,0,0,0,0,0,0,-1,2001,1478,0,0
784,-454,0,0,0,0,0,0,0,0,0,-1,2008,1478,0,0
791,-454,0,0,0,0,0,0,0,0,0,-1,2015,1478,0,0
798,-454,0,0,0,0,0,0,0,0,0,-1,2022,1478,0,0
805,-454,0,0,0,0,0,0,0,0,0,-1,2029,1478,0,0
812,-454,0,0,0,0,0,0,0,0,0,-1,2036,1478,0,0
-700,-461,0,0,0,0,0,0,0,0,0,-1,524,1485,0,0
-693,-461,0,0,0,0,0,0,0,0,0,-1,531,1485,0,0
-686,-461,0,0,0,0,0,0,0,0,0,-1,538,1485,0,0
-679,-461,0,0,0,0,0,0,0,0,0,-1,545,1485,0,0
-672,-461,0,0,0,0,0,0,0,0,0,-1,552,1485,0,0
-665,-461,0,0,0,0,0,0,0,0,0,-1,559,1485,0,0
-658,-461,0,0,0,0,0,0,0,0,0,-1,566,1485,0,0
-651,-461,0,0,0,0,0,0,0,0,0,-1,573,1485,0,0
-644,-461,0,0,0,0,0,0,0,0,0,-1,580,1485,0,0
-637,-461,0,0,0,0,0,0,0,0,0,-1,587,1485,0,0
-630,-461,0,0,0,0,0,0,0,0,0,-1,594,1485,0,0
-623,-461,0,0,0,0,0,0,0,0,0,-1,601,1485,0,0
-616,-461,0,0,0,0,0,0,0,0,0,-1,608,1485,0,0
-609,-461,0,0,0,0,0,0,0,0,0,-1,615,1485,0,0
-602,-461,0,0,0,0,0,0,0,0,0,-1,622,1485,0,0
-595,-461,0,0,0,0,0,0,0,0,0,-1,629,1485,0,0
-588,-461,0,0,0,0,0,0,0,0,0,-1,636,1485,0,0
-581,-461,0,0,0,0,0,0,0,0,0,-1,643,1485,0,0
-574,-461,0,0,0,0,0,0,0,0,0,-1,650,1485,0,0
-567,-461,-9.69031,0.513306,0,0,0,0,0,0,0,-1,657,1485,-9.69032,-0.513305
-560,-461,-7.28815,1.54004,0,0,0,0,0,0,0,-1,664,1485,-7.28817,-1.54005
-553,-461,-11.9607,5.27783,0,0,0,0,0,0,0,-1,671,1485,-11.9607,-5.27778
-546,-461,-10.0444,5.74243,0,0,0,0,0,0,0,-1,678,1485,-10.0445,-5.7424
-539,-461,-8.04553,5.90027,0,0,0,0,0,0,0,-1,685,1485,-8.04552,-5.90028
-532,-461,-6.31451,6.03894,0,0,0,0,0,0,0,-1,692,1485,-6.31449,-6.03897
-525,-461,-3.86725,6.34485,0,0,0,0,0,0,0,-1,699,1485,-3.86728,-6.3448
-518,-461,-3.65894,6.78162,0.0105048,0.00936544,0.021687,0.0316296,-0.0117594,0.772267,0.0259115,0.037177,706,1485,-3.65891,-6.78159
-511,-461,-3.50549,7.15833,0.00679582,0.00723181,0.0159361,0.0229514,-0.00892375,0.792238,0.0189879,0.023057,713,1485,-3.5055,-7.15834
-504,-461,-3.5838,7.4248,0.004234,0.00531819,0.0114212,0.0162102,-0.00665799,0.809112,0.0135815,0.0132482,720,1485,-3.58378,-7.42475
-497,-461,-3.53961,7.79419,0.00254627,0.00361234,0.00777531,0.0108729,-0.00471426,0.819622,0.00923041,0.0105265,727,1485,-3.53961,-7.79414
-490,-461,-3.56476,8.09521,0.00145144,0.0018999,0.0047311,0.00641208,-0.00306075,0.809078,0.00558206,0.0118954,734,1485,-3.56475,-8.09521
-483,-461,-3.58923,8.38538,0.000878796,0.000369284,0.00227056,0.00290885,-0.00166077,0.729532,0.00267087,0.0124386,741,1485,-3.58926,-8.38538
-476,-461,-3.60736,8.71252,0.000242051,-0.00127718,1.10346e-05,0.000242131,-0.00127726,0.00726278,0.000942643,0.0113738,748,1485,-3.60737,-8.71255
-469,-461,-3.59418,9.01648,0.000257613,-0.00282306,-0.00169956,0.00101099,-0.00357644,-0.417251,0.00278319,0.0135169,755,1485,-3.59416,-9.01645
-462,-461,-3.6062,9.29944,0.000787788,-0.00483172,-0.00335529,0.00235441,-0.00639834,-0.436828,0.0052301,0.0194676,762,1485,-3.60619,-9.29947
-455,-461,-3.64423,9.63892,0.00134494,-0.00658853,-0.00474746,0.00356475,-0.00880834,-0.437376,0.00735433,0.0216838,769,1485,-3.64423,-9.63886
-448,-461,-3.59412,9.96814,0.00204938,-0.0085624,-0.00594736,0.00471365,-0.0112267,-0.42117,0.00945575,0.0176841,776,1485,-3.5941,-9.96815
-441,-461,-3.56201,10.2644,0.00284374,-0.0109071,-0.0072922,0.00599067,-0.0140541,-0.407403,0.0118809,0.0146911,783,1485,-3.56202,-10.2644
-434,-461,-3.40137,10.5657,0.00378901,-0.013791,-0.00906866,0.00762852,-0.0176305,-0.4005,0.0149596,0.0194651,790,1485,-3.40137,-10.5657
-427,-461,-3.31689,10.7782,0.00486744,-0.0171381,-0.011166,0.00954077,-0.0218114,-0.39638,0.0185576,0.0307589,797,1485,-3.31688,-10.7783
-420,-461,-3.11584,11.059,0,0,0,0,0,0,0,-1,804,1485,-3.11584,-11.059
-413,-461,-3.89429,10.4355,0,0,0,0,0,0,0,-1,811,1485,-3.89431,-10.4356
-406,-461,-3.74152,9.38831,0,0,0,0,0,0,0,-1,818,1485,-3.74152,-9.38832
-399,-461,-1.93439,9.82849,0,0,0,0,0,0,0,-1,825,1485,-1.9344,-9.82846
-392,-461,-0.357544,5.55225,0,0,0,0,0,0,0,-1,832,1485,-0.357536,-5.55228
-385,-461,1.71509,3.35254,0,0,0,0,0,0,0,-1,839,1485,1.71511,-3.35255
-378,-461,1.95996,3.01111,0,0,0,0,0,0,0,-1,846,1485,1.95993,-3.01111
-371,-461,0.702881,2.33459,0,0,0,0,0,0,0,-1,853,1485,0.702859,-2.33459
-364,-461,-1.93097,2.56458,0,0,0,0,0,0,0,-1,860,1485,-1.93095,-2.56456
-357,-461,-2.41516,3.49487,0,0,0,0,0,0,0,-1,867,1485,-2.41517,-3.49487
-350,-461,0,0,0,0,0,0,0,0,0,-1,874,1485,0,0
-343,-461,0,0,0,0,0,0,0,0,0,-1,881,1485,0,0
-336,-461,0,0,0,0,0,0,0,0,0,-1,888,1485,0,0
-329,-461,0,0,0,0,0,0,0,0,0,-1,895,1485,0,0
-322,-461,0,0,0,0,0,0,0,0,0,-1,902,1485,0,0
-315,-461,0,0,0,0,0,0,0,0,0,-1,909,1485,0,0
-308,-461,0,0,0,0,0,0,0,0,0,-1,916,1485,0,0
-301,-461,0,0,0,0,0,0,0,0,0,-1,923,1485,0,0
-294,-461,0,0,0,0,0,0,0,0,0,-1,930,1485,0,0
-287,-461,0,0,0,0,0,0,0,0,0,-1,937,1485,0,0
-280,-461,0,0,0,0,0,0,0,0,0,-1,944,1485,0,0
-273,-461,0,0,0,0,0,0,0,0,0,-1,951,1485,0,0
-266,-461,0,0,0,0,0,0,0,0,0,-1,958,1485,0,0
-259,-461,0,0,0,0,0,0,0,0,0,-1,965,1485,0,0
-252,-461,0,0,0,0,0,0,0,0,0,-1,972,1485,0,0
-245,-461,0,0,0,0,0,0,0,0,0,-1,979,1485,0,0
-238,-461,0,0,0,0,0,0,0,0,0,-1,986,1485,0,0
-231,-461,0,0,0,0,0,0,0,0,0,-1,993,1485,0,0
-224,-461,0,0,0,0,0,0,0,0,0,-1,1000,1485,0,0
-217,-461,0,0,0,0,0,0,0,0,0,-1,1007,1485,0,0
-210,-461,0,0,0,0,0,0,0,0,0,-1,1014,1485,0,0
-203,-461,0,0,0,0,0,0,0,0,0,-1,1021,1485,0,0
-196,-461,0,0,0,0,0,0,0,0,0,-1,1028,1485,0,0
-189,-461,0,0,0,0,0,0,0,0,0,-1,1035,1485,0,0
-182,-461,0,0,0,0,0,0,0,0,0,-1,1042,1485,0,0
-175,-461,0,0,0,0,0,0,0,0,0,-1,1049,1485,0,0
-168,-461,0,0,0,0,0,0,0,0,0,-1,1056,1485,0,0
-161,-461,0,0,0,0,0,0,0,0,0,-1,1063,1485,0,0
-154,-461,0,0,0,0,0,0,0,0,0,-1,1070,1485,0,0
-147,-461,0,0,0,0,0,0,0,0,0,-1,1077,1485,0,0
-140,-461,0,0,0,0,0,0,0,0,0,-1,1084,1485,0,0
-133,-461,0,0,0,0,0,0,0,0,0,-1,1091,1485,0,0
-126,-461,0,0,0,0,0,0,0,0,0,-1,1098,1485,0,0
-119,-461,0,0,0,0,0,0,0,0,0,-1,1105,1485,0,0
-112,-461,0,0,0,0,0,0,0,0,0,-1,1112,1485,0,0
-105,-461,0,0,0,0,0,0,0,0,0,-1,1119,1485,0,0
-98,-461,0,0,0,0,0,0,0,0,0,-1,1126,1485,0,0
-91,-461,0,0,0,0,0,0,0,0,0,-1,1133,1485,0,0
-84,-461,0,0,0,0,0,0,0,0,0,-1,1140,1485,0,0
-77,-461,0,0,0,0,0,0,0,0,0,-1,1147,1485,0,0
-70,-461,0,0,0,0,0,0,0,0,0,-1,1154,1485,0,0
-63,-461,0,0,0,0,0,0,0,0,0,-1,1161,1485,0,0
-56,-461,0,0,0,0,0,0,0,0,0,-1,1168,1485,0,0
-49,-461,0,0,0,0,0,0,0,0,0,-1,1175,1485,0,0
-42,-461,0,0,0,0,0,0,0,0,0,-1,1182,1485,0,0
-35,-461,0,0,0,0,0,0,0,0,0,-1,1189,1485,0,0
-28,-461,0,0,0,0,0,0,0,0,0,-1,1196,1485,0,0
-21,-461,0,0,0,0,0,0,0,0,0,-1,1203,1485,0,0
-14,-461,0,0,0,0,0,0,0,0,0,-1,1210,1485,0,0
-7,-461,0,0,0,0,0,0,0,0,0,-1,1217,1485,0,0
0,-461,0,0,0,0,0,0,0,0,0,-1,1224,1485,0,0
7,-461,0,0,0,0,0,0,0,0,0,-1,1231,1485,0,0
14,-461,0,0,0,0,0,0,0,0,0,-1,1238,1485,0,0
21,-461,0,0,0,0,0,0,0,0,0,-1,1245,1485,0,0
28,-461,0,0,0,0,0,0,0,0,0,-1,1252,1485,0,0
35,-461,0,0,0,0,0,0,0,0,0,-1,1259,1485,0,0
42,-461,0,0,0,0,0,0,0,0,0,-1,1266,1485,0,0
49,-461,0,0,0,0,0,0,0,0,0,-1,1273,1485,0,0
56,-461,0,0,0,0,0,0,0,0,0,-1,1280,1485,0,0
63,-461,0,0,0,0,0,0,0,0,0,-1,1287,1485,0,0
70,-461,0,0,0,0,0,0,0,0,0,-1,1294,1485,0,0
77,-461,0,0,0,0,0,0,0,0,0,-1,1301,1485,0,0
84,-461,0,0,0,0,0,0,0,0,0,-1,1308,1485,0,0
91,-461,0,0,0,0,0,0,0,0,0,-1,1315,1485,0,0
98,-461,0,0,0,0,0,0,0,0,0,-1,1322,1485,0,0
105,-461,0,0,0,0,0,0,0,0,0,-1,1329,1485,0,0
112,-461,0,0,0,0,0,0,0,0,0,-1,1336,1485,0,0
119,-461,0,0,0,0,0,0,0,0,0,-1,1343,1485,0,0
126,-461,0,0,0,0,0,0,0,0,0,-1,1350,1485,0,0
133,-461,0,0,0,0,0,0,0,0,0,-1,1357,1485,0,0
140,-461,0,0,0,0,0,0,0,0,0,-1,1364,1485,0,0
147,-461,0,0,0,0,0,0,0,0,0,-1,1371,1485,0,0
154,-461,0,0,0,0,0,0,0,0,0,-1,1378,1485,0,0
161,-461,0,0,0,0,0,0,0,0,0,-1,1385,1485,0,0
168,-461,0,0,0,0,0,0,0,0,0,-1,1392,1485,0,0
175,-461,0,0,0,0,0,0,0,0,0,-1,1399,1485,0,0
182,-461,0,0,0,0,0,0,0,0,0,-1,1406,1485,0,0
189,-461,0,0,0,0,0,0,0,0,0,-1,1413,1485,0,0
196,-461,0,0,0,0,0,0,0,0,0,-1,1420,1485,0,0
203,-461,0,0,0,0,0,0,0,0,0,-1,1427,1485,0,0
210,-461,0,0,0,0,0,0,0,0,0,-1,1434,1485,0,0
217,-461,0,0,0,0,0,0,0,0,0,-1,1441,1485,0,0
224,-461,0,0,0,0,0,0,0,0,0,-1,1448,1485,0,0
231,-461,0,0,0,0,0,0,0,0,0,-1,1455,1485,0,0
238,-461,0,0,0,0,0,0,0,0,0,-1,1462,1485,0,0
245,-461,0,0,0,0,0,0,0,0,0,-1,1469,1485,0,0
252,-461,0,0,0,0,0,0,0,0,0,-1,1476,1485,0,0
259,-461,0,0,0,0,0,0,0,0,0,-1,1483,1485,0,0
266,-461,0,0,0,0,0,0,0,0,0,-1,1490,1485,0,0
273,-461,0,0,0,0,0,0,0,0,0,-1,1497,1485,0,0
280,-461,0,0,0,0,0,0,0,0,0,-1,1504,1485,0,0
287,-461,0,0,0,0,0,0,0,0,0,-1,1511,1485,0,0
294,-461,0,0,0,0,0,0,0,0,0,-1,1518,1485,0,0
301,-461,0,0,0,0,0,0,0,0,0,-1,1525,1485,0,0
308,-461,0,0,0,0,0,0,0,0,0,-1,1532,1485,0,0
315,-461,0,0,0,0,0,0,0,0,0,-1,1539,1485,0,0
322,-461,0,0,0,0,0,0,0,0,0,-1,1546,1485,0,0
329,-461,0,0,0,0,0,0,0,0,0,-1,1553,1485,0,0
336,-461,0,0,0,0,0,0,0,0,0,-1,1560,1485,0,0
343,-461,0,0,0,0,0,0,0,0,0,-1,1567,1485,0,0
350,-461,0,0,0,0,0,0,0,0,0,-1,1574,1485,0,0
357,-461,0,0,0,0,0,0,0,0,0,-1,1581,1485,0,0
364,-461,0,0,0,0,0,0,0,0,0,-1,1588,1485,0,0
371,-461,0,0,0,0,0,0,0,0,0,-1,1595,1485,0,0
378,-461,0,0,0,0,0,0,0,0,0,-1,1602,1485,0,0
385,-461,0,0,0,0,0,0,0,0,0,-1,1609,1485,0,0
392,-461,0,0,0,0,0,0,0,0,0,-1,1616,1485,0,0
399,-461,0,0,0,0,0,0,0,0,0,-1,1623,1485,0,0
406,-461,0,0,0,0,0,0,0,0,0,-1,1630,1485,0,0
413,-461,0,0,0,0,0,0,0,0,0,-1,1637,1485,0,0
420,-461,0,0,0,0,0,0,0,0,0,-1,1644,1485,0,0
427,-461,0,0,0,0,0,0,0,0,0,-1,1651,1485,0,0
434,-461,0,0,0,0,0,0,0,0,0,-1,1658,1485,0,0
441,-461,0,0,0,0,0,0,0,0,0,-1,1665,1485,0,0
448,-461,0,0,0,0,0,0,0,0,0,-1,1672,1485,0,0
455,-461,0,0,0,0,0,0,0,0,0,-1,1679,1485,0,0
462,-461,0,0,0,0,0,0,0,0,0,-1,1686,1485,0,0
469,-461,0,0,0,0,0,0,0,0,0,-1,1693,1485,0,0
476,-461,14.1906,0.690552,0,0,0,0,0,0,0,-1,1700,1485,14.1906,-0.690525
483,-461,10.6361,3.09106,0,0,0,0,0,0,0,-1,1707,1485,10.6361,-3.091
490,-461,17.9972,0.665894,0,0,0,0,0,0,0,-1,1714,1485,17.9972,-0.665876
497,-461,16.6829,1.87732,0,0,0,0,0,0,0,-1,1721,1485,16.6828,-1.87736
504,-461,15.3884,3.09216,0,0,0,0,0,0,0,-1,1728,1485,15.3885,-3.09212
511,-461,15.4292,14.3512,0,0,0,0,0,0,0,-1,1735,1485,15.4292,-14.3512
518,-461,14.8081,10.0085,0,0,0,0,0,0,0,-1,1742,1485,14.8081,-10.0086
525,-461,14.0022,10.8033,0,0,0,0,0,0,0,-1,1749,1485,14.0022,-10.8033
532,-461,17.3167,12.3988,0,0,0,0,0,0,0,-1,1756,1485,17.3166,-12.3988
539,-461,12.6163,8.87024,0,0,0,0,0,0,0,-1,1763,1485,12.6163,-8.87027
546,-461,14.3418,12.9785,0,0,0,0,0,0,0,-1,1770,1485,14.3418,-12.9785
553,-461,13.8297,12.4965,0,0,0,0,0,0,0,-1,1777,1485,13.8297,-12.4964
560,-461,13.6409,12.235,-0.0237702,-0.00794038,0.0150091,0.00111288,-0.0328235,1.02804,0.0222626,0.040758,1784,1485,13.6409,-12.2349
567,-461,13.7471,12.0391,-0.0143576,-0.00718717,0.0088706,-0.00120466,-0.0203401,0.977445,0.0131769,0.0173932,1791,1485,13.747,-12.0391
574,-461,13.7526,11.786,-0.00846379,-0.00617598,0.00527548,-0.00192181,-0.012718,0.892163,0.00791618,0.0153843,1798,1485,13.7525,-11.7861
581,-461,13.7634,11.5144,-0.00557784,-0.00426516,0.00377478,-0.00109009,-0.00875292,0.871475,0.00550799,0.0134703,1805,1485,13.7634,-11.5144
588,-461,13.7404,11.2483,-0.00271021,-0.00280322,0.00227853,-0.000477709,-0.00503572,0.775195,0.00320978,0.0104414,1812,1485,13.7404,-11.2483
595,-461,13.7202,10.9832,-0.00125512,-0.00157965,0.00157824,0.000169168,-0.00300395,0.734171,0.00206134,0.00858799,1819,1485,13.7202,-10.9832
602,-461,13.7277,10.705,-0.000679472,-0.00088353,0.00103768,0.000261181,-0.00182418,0.736393,0.00131188,0.009448,1826,1485,13.7276,-10.7049
609,-461,13.7394,10.3995,-0.000345339,-0.000375184,0.000599182,0.000239106,-0.000959629,0.772949,0.000732579,0.0105139,1833,1485,13.7394,-10.3995
616,-461,13.7363,10.0989,-7.01443e-05,-0.000169655,0.000312683,0.000196718,-0.000436517,0.706498,0.000374234,0.0124129,1840,1485,13.7363,-10.0988
623,-461,13.7211,9.82361,4.75073e-05,-0.00024068,3.35297e-06,4.75463e-05,-0.000240719,0.0116326,0.000178452,0.0123021,1847,1485,13.7211,-9.82366
630,-461,13.7284,9.54993,-7.61764e-05,-0.000503266,-0.00014539,-3.13809e-05,-0.000548061,-0.298876,0.000355376,0.0116033,1854,1485,13.7284,-9.54988
637,-461,13.739,9.27295,-0.0004448,-0.00093631,-0.00026737,-0.000327399,-0.00105371,-0.413749,0.000622722,0.0123013,1861,1485,13.739,-9.273
644,-461,13.7697,9.03442,-0.00103531,-0.00143858,-0.000473782,-0.000722041,-0.00175185,-0.584212,0.00101662,0.0263525,1868,1485,13.7697,-9.0344
651,-461,13.8491,8.70154,0,0,0,0,0,0,0,-1,1875,1485,13.8492,-8.70155
658,-461,13.4261,8.15723,0,0,0,0,0,0,0,-1,1882,1485,13.4262,-8.1572
665,-461,13.4247,7.54163,0,0,0,0,0,0,0,-1,1889,1485,13.4247,-7.54168
672,-461,14.4877,6.89429,0,0,0,0,0,0,0,-1,1896,1485,14.4876,-6.89431
679,-461,10.0535,2.16321,0,0,0,0,0,0,0,-1,1903,1485,10.0535,-2.16317
686,-461,10.8195,1.84192,0,0,0,0,0,0,0,-1,1910,1485,10.8194,-1.84195
693,-461,0,0,0,0,0,0,0,0,0,-1,1917,1485,0,0
700,-461,0,0,0,0,0,0,0,0,0,-1,1924,1485,0,0
707,-461,0,0,0,0,0,0,0,0,0,-1,1931,1485,0,0
714,-461,0,0,0,0,0,0,0,0,0,-1,1938,1485,0,0
721,-461,0,0,0,0,0,0,0,0,0,-1,1945,1485,0,0
728,-461,0,0,0,0,0,0,0,0,0,-1,1952,1485,0,0
735,-461,0,0,0,0,0,0,0,0,0,-1,1959,1485,0,0
742,-461,0,0,0,0,0,0,0,0,0,-1,1966,1485,0,0
749,-461,0,0,0,0,0,0,0,0,0,-1,1973,1485,0,0
756,-461,0,0,0,0,0,0,0,0,0,-1,1980,1485,0,0
763,-461,0,0,0,0,0,0,0,0,0,-1,1987,1485,0,0
770,-461,0,0,0,0,0,0,0,0,0,-1,1994,1485,0,0
777,-461,0,0,0,0,0,0,0,0,0,-1,2001,1485,0,0
784,-461,0,0,0,0,0,0,0,0,0,-1,2008,1485,0,0
791,-461,0,0,0,0,0,0,0,0,0,-1,2015,1485,0,0
798,-461,0,0,0,0,0,0,0,0,0,-1,2022,1485,0,0
805,-461,0,0,0,0,0,0,0,0,0,-1,2029,1485,0,0
812,-461,0,0,0,0,0,0,0,0,0,-1,2036,1485,0,0
-700,-468,0,0,0,0,0,0,0,0,0,-1,524,1492,0,0
-693,-468,0,0,0,0,0,0,0,0,0,-1,531,1492,0,0
-686,-468,0,0,0,0,0,0,0,0,0,-1,538,1492,0,0
-679,-468,0,0,0,0,0,0,0,0,0,-1,545,1492,0,0
-672,-468,0,0,0,0,0,0,0,0,0,-1,552,1492,0,0
-665,-468,0,0,0,0,0,0,0,0,0,-1,559,1492,0,0
-658,-468,0,0,0,0,0,0,0,0,0,-1,566,1492,0,0
-651,-468,0,0,0,0,0,0,0,0,0,-1,573,1492,0,0
-644,-468,0,0,0,0,0,0,0,0,0,-1,580,1492,0,0
-637,-468,0,0,0,0,0,0,0,0,0,-1,587,1492,0,0
-630,-468,0,0,0,0,0,0,0,0,0,-1,594,1492,0,0
-623,-468,0,0,0,0,0,0,0,0,0,-1,601,1492,0,0
-616,-468,0,0,0,0,0,0,0,0,0,-1,608,1492,0,0
-609,-468,0,0,0,0,0,0,0,0,0,-1,615,1492,0,0
-602,-468,0,0,0,0,0,0,0,0,0,-1,622,1492,0,0
-595,-468,0,0,0,0,0,0,0,0,0,-1,629,1492,0,0
-588,-468,0,0,0,0,0,0,0,0,0,-1,636,1492,0,0
-581,-468,0,0,0,0,0,0,0,0,0,-1,643,1492,0,0
-574,-468,0,0,0,0,0,0,0,0,0,-1,650,1492,0,0
-567,-468,-11.2603,1.8042,0,0,0,0,0,0,0,-1,657,1492,-11.2603,-1.80424
-560,-468,-8.77441,2.23694,0,0,0,0,0,0,0,-1,664,1492,-8.77443,-2.23692
-553,-468,-5.94061,9.26318,0,0,0,0,0,0,0,-1,671,1492,-5.94062,-9.26322
-546,-468,-10.47,5.43237,0,0,0,0,0,0,0,-1,678,1492,-10.47,-5.4324
-539,-468,-8.52576,5.58203,0,0,0,0,0,0,0,-1,685,1492,-8.52573,-5.58202
-532,-468,-3.58191,4.59998,0,0,0,0,0,0,0,-1,692,1492,-3.58194,-4.59995
-525,-468,-3.28876,5.4303,0,0,0,0,0,0,0,-1,699,1492,-3.28879,-5.43029
-518,-468,-3.18542,6.18811,0.0105959,0.01237,0.0287102,0.0402068,-0.017241,0.800842,0.0340395,0.0406914,706,1492,-3.1854,-6.18806
-511,-468,-3.19415,7.03503,0.0065168,0.00930002,0.0209101,0.0288648,-0.013048,0.818625,0.024766,0.035998,713,1492,-3.19417,-7.03502
-504,-468,-3.21606,7.45654,0.00374967,0.00680158,0.0148794,0.0202331,-0.00968185,0.836497,0.0176259,0.0193241,720,1492,-3.21607,-7.45653
-497,-468,-3.25311,7.79077,0.0019877,0.00478684,0.0102116,0.0136943,-0.00691977,0.853502,0.0121139,0.0103379,727,1492,-3.25314,-7.79073
-490,-468,-3.23877,8.12317,0.000913842,0.002965,0.0065299,0.00854937,-0.00467052,0.863291,0.00774125,0.00770801,734,1492,-3.23878,-8.12311
-483,-468,-3.26361,8.41382,0.000395176,0.00141914,0.00369689,0.00463933,-0.00282501,0.854206,0.00435177,0.00801863,741,1492,-3.26358,-8.41381
-476,-468,-3.28516,8.7207,-0.000130925,-0.00010175,0.00125473,0.00113848,-0.00137116,0.791211,0.00145102,0.00895608,748,1492,-3.28517,-8.7207
-469,-468,-3.28925,9.03479,4.83464e-07,-0.0014156,-0.000412361,0.00011181,-0.00152693,-0.263687,0.0010572,0.0132066,755,1492,-3.28923,-9.03481
-462,-468,-3.25867,9.30469,0.000674932,-0.00318938,-0.00200119,0.0015245,-0.00403895,-0.401474,0.00331961,0.0230126,762,1492,-3.25868,-9.30464
-455,-468,-3.28735,9.573,0.00138625,-0.00448609,-0.00318068,0.0027788,-0.00587864,-0.412675,0.00510406,0.0231367,769,1492,-3.28734,-9.57303
-448,-468,-3.27551,9.93433,0.00227569,-0.00591381,-0.0039315,0.00385753,-0.00749565,-0.382531,0.006666,0.0146028,776,1492,-3.27551,-9.93436
-441,-468,-3.2738,10.2687,0.0032875,-0.00751377,-0.00472915,0.00506543,-0.0092917,-0.359603,0.00840795,0.0131802,783,1492,-3.27379,-10.2687
-434,-468,-3.24524,10.5939,0.00441209,-0.00948129,-0.00582743,0.00653268,-0.0116019,-0.349001,0.0106055,0.0138181,790,1492,-3.24523,-10.5938
-427,-468,-3.18781,10.8881,0.00559679,-0.0118558,-0.00715698,0.00815636,-0.0144153,-0.343458,0.0131977,0.0209228,797,1492,-3.1878,-10.8881
-420,-468,-3.13477,11.1598,0.00689981,-0.0145895,-0.00857019,0.0098991,-0.0175887,-0.336645,0.0160758,0.0348849,804,1492,-3.13475,-11.1598
-413,-468,-2.93713,11.4535,0,0,0,0,0,0,0,-1,811,1492,-2.93714,-11.4535
-406,-468,-2.2356,9.396,0,0,0,0,0,0,0,-1,818,1492,-2.2356,-9.396
-399,-468,-0.940369,8.1936,0,0,0,0,0,0,0,-1,825,1492,-0.940365,-8.19357
-392,-468,-0.35144,8.14673,0,0,0,0,0,0,0,-1,832,1492,-0.351449,-8.14674
-385,-468,0.465759,5.35864,0,0,0,0,0,0,0,-1,839,1492,0.465732,-5.35864
-378,-468,1.99835,3.25391,0,0,0,0,0,0,0,-1,846,1492,1.99837,-3.2539
-371,-468,-0.31842,3.1532,0,0,0,0,0,0,0,-1,853,1492,-0.318441,-3.15324
-364,-468,-0.966736,2.14563,0,0,0,0,0,0,0,-1,860,1492,-0.966735,-2.14557
-357,-468,-3.06787,3.22742,0,0,0,0,0,0,0,-1,867,1492,-3.06784,-3.2274
-350,-468,-3.18658,4.12659,0,0,0,0,0,0,0,-1,874,1492,-3.18659,-4.12658
-343,-468,0,0,0,0,0,0,0,0,0,-1,881,1492,0,0
-336,-468,0,0,0,0,0,0,0,0,0,-1,888,1492,0,0
-329,-468,0,0,0,0,0,0,0,0,0,-1,895,1492,0,0
-322,-468,0,0,0,0,0,0,0,0,0,-1,902,1492,0,0
-315,-468,0,0,0,0,0,0,0,0,0,-1,909,1492,0,0
-308,-468,0,0,0,0,0,0,0,0,0,-1,916,1492,0,0
-301,-468,0,0,0,0,0,0,0,0,0,-1,923,1492,0,0
-294,-468,0,0,0,0,0,0,0,0,0,-1,930,1492,0,0
-287,-468,0,0,0,0,0,0,0,0,0,-1,937,1492,0,0
-280,-468,0,0,0,0,0,0,0,0,0,-1,944,1492,0,0
-273,-468,0,0,0,0,0,0,0,0,0,-1,951,1492,0,0
-266,-468,0,0,0,0,0,0,0,0,0,-1,958,1492,0,0
-259,-468,0,0,0,0,0,0,0,0,0,-1,965,1492,0,0
-252,-468,0,0,0,0,0,0,0,0,0,-1,972,1492,0,0
-245,-468,0,0,0,0,0,0,0,0,0,-1,979,1492,0,0
-238,-468,0,0,0,0,0,0,0,0,0,-1,986,1492,0,0
-231,-468,0,0,0,0,0,0,0,0,0,-1,993,1492,0,0
-224,-468,0,0,0,0,0,0,0,0,0,-1,1000,1492,0,0
-217,-468,0,0,0,0,0,0,0,0,0,-1,1007,1492,0,0
-210,-468,0,0,0,0,0,0,0,0,0,-1,1014,1492,0,0
-203,-468,0,0,0,0,0,0,0,0,0,-1,1021,1492,0,0
-196,-468,0,0,0,0,0,0,0,0,0,-1,1028,1492,0,0
-189,-468,0,0,0,0,0,0,0,0,0,-1,1035,1492,0,0
-182,-468,0,0,0,0,0,0,0,0,0,-1,1042,1492,0,0
-175,-468,0,0,0,0,0,0,0,0,0,-1,1049,1492,0,0
-168,-468,0,0,0,0,0,0,0,0,0,-1,1056,1492,0,0
-161,-468,0,0,0,0,0,0,0,0,0,-1,1063,1492,0,0
-154,-468,0,0,0,0,0,0,0,0,0,-1,1070,1492,0,0
-147,-468,0,0,0,0,0,0,0,0,0,-1,1077,1492,0,0
-140,-468,0,0,0,0,0,0,0,0,0,-1,1084,1492,0,0
-133,-468,0,0,0,0,0,0,0,0,0,-1,1091,1492,0,0
-126,-468,0,0,0,0,0,0,0,0,0,-1,1098,1492,0,0
-119,-468,0,0,0,0,0,0,0,0,0,-1,1105,1492,0,0
-112,-468,0,0,0,0,0,0,0,0,0,-1,1112,1492,0,0
-105,-468,0,0,0,0,0,0,0,0,0,-1,1119,1492,0,0
-98,-468,0,0,0,0,0,0,0,0,0,-1,1126,1492,0,0
-91,-468,0,0,0,0,0,0,0,0,0,-1,1133,1492,0,0
-84,-468,0,0,0,0,0,0,0,0,0,-1,1140,1492,0,0
-77,-468,0,0,0,0,0,0,0,0,0,-1,1147,1492,0,0
-70,-468,0,0,0,0,0,0,0,0,0,-1,1154,1492,0,0
-63,-468,0,0,0,0,0,0,0,0,0,-1,1161,1492,0,0
-56,-468,0,0,0,0,0,0,0,0,0,-1,1168,1492,0,0
-49,-468,0,0,0,0,0,0,0,0,0,-1,1175,1492,0,0
-42,-468,0,0,0,0,0,0,0,0,0,-1,1182,1492,0,0
-35,-468,0,0,0,0,0,0,0,0,0,-1,1189,1492,0,0
-28,-468,0,0,0,0,0,0,0,0,0,-1,1196,1492,0,0
-21,-468,0,0,0,0,0,0,0,0,0,-1,1203,1492,0,0
-14,-468,0,0,0,0,0,0,0,0,0,-1,1210,1492,0,0
-7,-468,0,0,0,0,0,0,0,0,0,-1,1217,1492,0,0
0,-468,0,0,0,0,0,0,0,0,0,-1,1224,1492,0,0
7,-468,0,0,0,0,0,0,0,0,0,-1,1231,1492,0,0
14,-468,0,0,0,0,0,0,0,0,0,-1,1238,1492,0,0
21,-468,0,0,0,0,0,0,0,0,0,-1,1245,1492,0,0
28,-468,0,0,0,0,0,0,0,0,0,-1,1252,1492,0,0
35,-468,0,0,0,0,0,0,0,0,0,-1,1259,1492,0,0
42,-468,0,0,0,0,0,0,0,0,0,-1,1266,1492,0,0
49,-468,0,0,0,0,0,0,0,0,0,-1,1273,1492,0,0
56,-468,0,0,0,0,0,0,0,0,0,-1,1280,1492,0,0
63,-468,0,0,0,0,0,0,0,0,0,-1,1287,1492,0,0
70,-468,0,0,0,0,0,0,0,0,0,-1,1294,1492,0,0
77,-468,0,0,0,0,0,0,0,0,0,-1,1301,1492,0,0
84,-468,0,0,0,0,0,0,0,0,0,-1,1308,1492,0,0
91,-468,0,0,0,0,0,0,0,0,0,-1,1315,1492,0,0
98,-468,0,0,0,0,0,0,0,0,0,-1,1322,1492,0,0
105,-468,0,0,0,0,0,0,0,0,0,-1,1329,1492,0,0
112,-468,0,0,0,0,0,0,0,0,0,-1,1336,1492,0,0
119,-468,0,0,0,0,0,0,0,0,0,-1,1343,1492,0,0
126,-468,0,0,0,0,0,0,0,0,0,-1,1350,1492,0,0
133,-468,0,0,0,0,0,0,0,0,0,-1,1357,1492,0,0
140,-468,0,0,0,0,0,0,0,0,0,-1,1364,1492,0,0
147,-468,0,0,0,0,0,0,0,0,0,-1,1371,1492,0,0
154,-468,0,0,0,0,0,0,0,0,0,-1,1378,1492,0,0
161,-468,0,0,0,0,0,0,0,0,0,-1,1385,1492,0,0
168,-468,0,0,0,0,0,0,0,0,0,-1,1392,1492,0,0
175,-468,0,0,0,0,0,0,0,0,0,-1,1399,1492,0,0
182,-468,0,0,0,0,0,0,0,0,0,-1,1406,1492,0,0
189,-468,0,0,0,0,0,0,0,0,0,-1,1413,1492,0,0
196,-468,0,0,0,0,0,0,0,0,0,-1,1420,1492,0,0
203,-468,0,0,0,0,0,0,0,0,0,-1,1427,1492,0,0
210,-468,0,0,0,0,0,0,0,0,0,-1,1434,1492,0,0
217,-468,0,0,0,0,0,0,0,0,0,-1,1441,1492,0,0
224,-468,0,0,0,0,0,0,0,0,0,-1,1448,1492,0,0
231,-468,0,0,0,0,0,0,0,0,0,-1,1455,1492,0,0
238,-468,0,0,0,0,0,0,0,0,0,-1,1462,1492,0,0
245,-468,0,0,0,0,0,0,0,0,0,-1,1469,1492,0,0
252,-468,0,0,0,0,0,0,0,0,0,-1,1476,1492,0,0
259,-468,0,0,0,0,0,0,0,0,0,-1,1483,1492,0,0
266,-468,0,0,0,0,0,0,0,0,0,-1,1490,1492,0,0
273,-468,0,0,0,0,0,0,0,0,0,-1,1497,1492,0,0
280,-468,0,0,0,0,0,0,0,0,0,-1,1504,1492,0,0
287,-468,0,0,0,0,0,0,0,0,0,-1,1511,1492,0,0
294,-468,0,0,0,0,0,0,0,0,0,-1,1518,1492,0,0
301,-468,0,0,0,0,0,0,0,0,0,-1,1525,1492,0,0
308,-468,0,0,0,0,0,0,0,0,0,-1,1532,1492,0,0
315,-468,0,0,0,0,0,0,0,0,0,-1,1539,1492,0,0
322,-468,0,0,0,0,0,0,0,0,0,-1,1546,1492,0,0
329,-468,0,0,0,0,0,0,0,0,0,-1,1553,1492,0,0
336,-468,0,0,0,0,0,0,0,0,0,-1,1560,1492,0,0
343,-468,0,0,0,0,0,0,0,0,0,-1,1567,1492,0,0
350,-468,0,0,0,0,0,0,0,0,0,-1,1574,1492,0,0
357,-468,0,0,0,0,0,0,0,0,0,-1,1581,1492,0,0
364,-468,0,0,0,0,0,0,0,0,0,-1,1588,1492,0,0
371,-468,0,0,0,0,0,0,0,0,0,-1,1595,1492,0,0
378,-468,0,0,0,0,0,0,0,0,0,-1,1602,1492,0,0
385,-468,0,0,0,0,0,0,0,0,0,-1,1609,1492,0,0
392,-468,0,0,0,0,0,0,0,0,0,-1,1616,1492,0,0
399,-468,0,0,0,0,0,0,0,0,0,-1,1623,1492,0,0
406,-468,0,0,0,0,0,0,0,0,0,-1,1630,1492,0,0
413,-468,0,0,0,0,0,0,0,0,0,-1,1637,1492,0,0
420,-468,0,0,0,0,0,0,0,0,0,-1,1644,1492,0,0
427,-468,0,0,0,0,0,0,0,0,0,-1,1651,1492,0,0
434,-468,0,0,0,0,0,0,0,0,0,-1,1658,1492,0,0
441,-468,0,0,0,0,0,0,0,0,0,-1,1665,1492,0,0
448,-468,0,0,0,0,0,0,0,0,0,-1,1672,1492,0,0
455,-468,0,0,0,0,0,0,0,0,0,-1,1679,1492,0,0
462,-468,0,0,0,0,0,0,0,0,0,-1,1686,1492,0,0
469,-468,15.6879,1.2677,0,0,0,0,0,0,0,-1,1693,1492,15.6879,-1.26772
476,-468,14.9318,1.61865,0,0,0,0,0,0,0,-1,1700,1492,14.9318,-1.61869
483,-468,11.265,4.64795,0,0,0,0,0,0,0,-1,1707,1492,11.265,-4.64798
490,-468,12.1316,3.51624,0,0,0,0,0,0,0,-1,1714,1492,12.1316,-3.51628
497,-468,16.5355,3.14587,0,0,0,0,0,0,0,-1,1721,1492,16.5356,-3.14583
504,-468,15.0642,4.10437,0,0,0,0,0,0,0,-1,1728,1492,15.0643,-4.10431
511,-468,15.6877,9.4801,0,0,0,0,0,0,0,-1,1735,1492,15.6878,-9.48007
518,-468,13.759,11.0887,0,0,0,0,0,0,0,-1,1742,1492,13.759,-11.0887
525,-468,16.066,12.5178,0,0,0,0,0,0,0,-1,1749,1492,16.0661,-12.5178
532,-468,16.1246,12.5226,0,0,0,0,0,0,0,-1,1756,1492,16.1247,-12.5226
539,-468,16.1833,12.5273,0,0,0,0,0,0,0,-1,1763,1492,16.1833,-12.5274
546,-468,13.7507,12.7308,0,0,0,0,0,0,0,-1,1770,1492,13.7507,-12.7309
553,-468,13.667,12.499,-0.0301423,-0.0062393,0.0189817,0.00424007,-0.0406217,1.06636,0.0285994,0.0370117,1777,1492,13.667,-12.499
560,-468,13.5118,12.3093,-0.0202682,-0.00606356,0.0128441,0.00151114,-0.0278429,1.03795,0.0190856,0.0231336,1784,1492,13.5118,-12.3093
567,-468,13.4528,12.0828,-0.0120635,-0.00564902,0.00739907,-0.000791963,-0.0169205,0.989906,0.0110258,0.0150212,1791,1492,13.4528,-12.0828
574,-468,13.4738,11.7815,-0.00682461,-0.00495272,0.00419685,-0.00158872,-0.0101886,0.895108,0.00632965,0.0140876,1798,1492,13.4737,-11.7815
581,-468,13.4827,11.5061,-0.00422971,-0.00333393,0.00285292,-0.000893964,-0.00666968,0.863259,0.00418045,0.0154239,1805,1492,13.4826,-11.5061
588,-468,13.4545,11.2384,-0.00158175,-0.00203623,0.00145446,-0.00033688,-0.0032811,0.707906,0.0020842,0.0133156,1812,1492,13.4544,-11.2384
595,-468,13.4602,10.9712,-0.000188402,-0.000926694,0.000797591,0.000321327,-0.00143642,0.568664,0.00108077,0.010309,1819,1492,13.4602,-10.9712
602,-468,13.4586,10.6947,0.000381086,-0.000280789,0.000287649,0.000488625,-0.000388328,0.357766,0.000507411,0.00901903,1826,1492,13.4586,-10.6947
609,-468,13.4519,10.401,0.000693433,0.000216106,-0.000125691,0.000724507,0.000185032,-0.242368,0.00043466,0.00937987,1833,1492,13.4519,-10.401
616,-468,13.4454,10.1104,0.000959822,0.000409703,-0.000392704,0.00116421,0.000205311,-0.479893,0.000717565,0.00919208,1840,1492,13.4454,-10.1104
623,-468,13.4402,9.8396,0.00101483,0.000268294,-0.000637644,0.00138043,-9.73002e-05,-0.520594,0.000954374,0.0100252,1847,1492,13.4402,-9.83957
630,-468,13.4563,9.55481,0.000771641,-1.92719e-05,-0.000714397,0.00119273,-0.000440362,-0.532615,0.000975651,0.0110294,1854,1492,13.4562,-9.55479
637,-468,13.4697,9.25525,0.000249513,-0.000509296,-0.000764108,0.000723226,-0.000983009,-0.554963,0.000988894,0.0146298,1861,1492,13.4697,-9.2553
644,-468,13.4902,9.05811,-0.000563754,-0.0010658,-0.000915731,0.000134738,-0.00176429,-0.651623,0.00122358,0.0390182,1868,1492,13.4902,-9.05816
651,-468,13.6083,8.73145,0,0,0,0,0,0,0,-1,1875,1492,13.6083,-8.73141
658,-468,13.4684,8.29114,0,0,0,0,0,0,0,-1,1882,1492,13.4684,-8.29109
665,-468,13.7047,7.6676,0,0,0,0,0,0,0,-1,1889,1492,13.7048,-7.66757
672,-468,9.96814,3.61133,0,0,0,0,0,0,0,-1,1896,1492,9.96817,-3.61139
679,-468,11.2191,1.91968,0,0,0,0,0,0,0,-1,1903,1492,11.2191,-1.91965
686,-468,11.9252,1.42285,0,0,0,0,0,0,0,-1,1910,1492,11.9252,-1.42291
693,-468,0,0,0,0,0,0,0,0,0,-1,1917,1492,0,0
700,-468,0,0,0,0,0,0,0,0,0,-1,1924,1492,0,0
707,-468,0,0,0,0,0,0,0,0,0,-1,1931,1492,0,0
714,-468,0,0,0,0,0,0,0,0,0,-1,1938,1492,0,0
721,-468,0,0,0,0,0,0,0,0,0,-1,1945,1492,0,0
728,-468,0,0,0,0,0,0,0,0,0,-1,1952,1492,0,0
735,-468,0,0,0,0,0,0,0,0,0,-1,1959,1492,0,0
742,-468,0,0,0,0,0,0,0,0,0,-1,1966,1492,0,0
749,-468,0,0,0,0,0,0,0,0,0,-1,1973,1492,0,0
756,-468,0,0,0,0,0,0,0,0,0,-1,1980,1492,0,0
763,-468,0,0,0,0,0,0,0,0,0,-1,1987,1492,0,0
770,-468,0,0,0,0,0,0,0,0,0,-1,1994,1492,0,0
777,-468,0,0,0,0,0,0,0,0,0,-1,2001,1492,0,0
784,-468,0,0,0,0,0,0,0,0,0,-1,2008,1492,0,0
791,-468,0,0,0,0,0,0,0,0,0,-1,2015,1492,0,0
798,-468,0,0,0,0,0,0,0,0,0,-1,2022,1492,0,0
805,-468,0,0,0,0,0,0,0,0,0,-1,2029,1492,0,0
812,-468,0,0,0,0,0,0,0,0,0,-1,2036,1492,0,0
-700,-475,0,0,0,0,0,0,0,0,0,-1,524,1499,0,0
-693,-475,0,0,0,0,0,0,0,0,0,-1,531,1499,0,0
-686,-475,0,0,0,0,0,0,0,0,0,-1,538,1499,0,0
-679,-475,0,0,0,0,0,0,0,0,0,-1,545,1499,0,0
-672,-475,0,0,0,0,0,0,0,0,0,-1,552,1499,0,0
-665,-475,0,0,0,0,0,0,0,0,0,-1,559,1499,0,0
-658,-475,0,0,0,0,0,0,0,0,0,-1,566,1499,0,0
-651,-475,0,0,0,0,0,0,0,0,0,-1,573,1499,0,0
-644,-475,0,0,0,0,0,0,0,0,0,-1,580,1499,0,0
-637,-475,0,0,0,0,0,0,0,0,0,-1,587,1499,0,0
-630,-475,0,0,0,0,0,0,0,0,0,-1,594,1499,0,0
-623,-475,0,0,0,0,0,0,0,0,0,-1,601,1499,0,0
-616,-475,0,0,0,0,0,0,0,0,0,-1,608,1499,0,0
-609,-475,0,0,0,0,0,0,0,0,0,-1,615,1499,0,0
-602,-475,0,0,0,0,0,0,0,0,0,-1,622,1499,0,0
-595,-475,0,0,0,0,0,0,0,0,0,-1,629,1499,0,0
-588,-475,0,0,0,0,0,0,0,0,0,-1,636,1499,0,0
-581,-475,0,0,0,0,0,0,0,0,0,-1,643,1499,0,0
-574,-475,0,0,0,0,0,0,0,0,0,-1,650,1499,0,0
-567,-475,0,0,0,0,0,0,0,0,0,-1,657,1499,0,0
-560,-475,-9.42731,9.29517,0,0,0,0,0,0,0,-1,664,1499,-9.42731,-9.29519
-553,-475,-8.15131,8.78369,0,0,0,0,0,0,0,-1,671,1499,-8.15131,-8.78367
-546,-475,-8.41254,8.20654,0,0,0,0,0,0,0,-1,678,1499,-8.41251,-8.20655
-539,-475,-5.38885,5.06653,0,0,0,0,0,0,0,-1,685,1499,-5.38888,-5.06656
-532,-475,-3.76642,5.16052,0,0,0,0,0,0,0,-1,692,1499,-3.76639,-5.16047
-525,-475,-2.96893,4.97229,0,0,0,0,0,0,0,-1,699,1499,-2.9689,-4.9723
-518,-475,-2.68732,5.86206,0.00954147,0.01537,0.0363233,0.0488958,-0.0239843,0.825428,0.0428889,0.0489382,706,1499,-2.68731,-5.86211
-511,-475,-3.41321,7.10193,0.00553744,0.0113348,0.0262444,0.0348401,-0.0179679,0.8404,0.0310031,0.0473844,713,1499,-3.41319,-7.10194
-504,-475,-2.91547,7.51221,0.00285032,0.00812187,0.0184736,0.0241468,-0.0131746,0.856259,0.0218557,0.0309574,720,1499,-2.91547,-7.51217
-497,-475,-2.927,7.82837,0.00122163,0.00570029,0.0126002,0.0162586,-0.00933668,0.873341,0.0149565,0.0171171,727,1499,-2.92698,-7.82841
-490,-475,-2.9342,8.10938,0.000318218,0.00370674,0.00818259,0.0103686,-0.00634367,0.887484,0.00974168,0.00838403,734,1499,-2.93422,-8.10938
-483,-475,-2.94098,8.43433,-8.68313e-05,0.0020756,0.00489308,0.0060055,-0.00401672,0.894135,0.00582418,0.00783643,741,1499,-2.94098,-8.43438
-476,-475,-2.96729,8.72754,-0.000452813,0.000627883,0.0022113,0.0023639,-0.00218883,0.905229,0.00262917,0.00947388,748,1499,-2.96731,-8.7276
-469,-475,-2.97815,9.03174,-0.000209808,-0.000512643,0.000556179,0.000215197,-0.000937648,0.652496,0.000707821,0.0112968,755,1499,-2.97812,-9.03172
-462,-475,-2.93927,9.3396,0.000553409,-0.00210602,-0.00101414,0.000896005,-0.00244861,-0.325782,0.00199917,0.0160221,762,1499,-2.93929,-9.33958
-455,-475,-2.94922,9.61328,0.00134257,-0.00304555,-0.00203908,0.0021438,-0.00384678,-0.374402,0.00350494,0.0144808,769,1499,-2.94924,-9.61328
-448,-475,-2.97644,9.95227,0.00231577,-0.00405479,-0.00243664,0.00314088,-0.0048799,-0.326506,0.00466694,0.0128094,776,1499,-2.97644,-9.95232
-441,-475,-2.96832,10.302,0.00340282,-0.00509338,-0.00283385,0.00426129,-0.00595185,-0.294146,0.00592343,0.0173044,783,1499,-2.9683,-10.3019
-434,-475,-2.96631,10.5765,0.00454291,-0.00637331,-0.00342187,0.00552686,-0.00735726,-0.279994,0.00746363,0.0112571,790,1499,-2.9663,-10.5765
-427,-475,-2.94751,10.9332,0.00571176,-0.00801784,-0.00417192,0.00688005,-0.00918613,-0.273041,0.00930761,0.0164253,797,1499,-2.94749,-10.9332
-420,-475,-2.8493,11.2317,0.00703063,-0.00998074,-0.00493123,0.00835671,-0.0113068,-0.262701,0.0113953,0.0272886,804,1499,-2.84933,-11.2317
-413,-475,-2.65649,11.2506,0.0084288,-0.0122825,-0.00581892,0.00995168,-0.0138053,-0.25597,0.0137761,0.0476778,811,1499,-2.65649,-11.2506
-406,-475,-2.22192,11.4651,0,0,0,0,0,0,0,-1,818,1499,-2.22194,-11.4651
-399,-475,-1.39667,6.1615,0,0,0,0,0,0,0,-1,825,1499,-1.39664,-6.16155
-392,-475,0.217163,8.61389,0,0,0,0,0,0,0,-1,832,1499,0.217167,-8.6139
-385,-475,1.18372,2.73999,0,0,0,0,0,0,0,-1,839,1499,1.18372,-2.73995
-378,-475,1.31409,2.90149,0,0,0,0,0,0,0,-1,846,1499,1.31411,-2.90151
-371,-475,2.3476,3.31116,0,0,0,0,0,0,0,-1,853,1499,2.34761,-3.31121
-364,-475,1.04462,9.05823,0,0,0,0,0,0,0,-1,860,1499,1.04461,-9.05825
-357,-475,-0.262756,7.97205,0,0,0,0,0,0,0,-1,867,1499,-0.262784,-7.97205
-350,-475,-2.77173,4.35486,0,0,0,0,0,0,0,-1,874,1499,-2.77175,-4.35491
-343,-475,-6.81641,-1.95203,0,0,0,0,0,0,0,-1,881,1499,-6.81643,1.95198
-336,-475,0,0,0,0,0,0,0,0,0,-1,888,1499,0,0
-329,-475,0,0,0,0,0,0,0,0,0,-1,895,1499,0,0
-322,-475,0,0,0,0,0,0,0,0,0,-1,902,1499,0,0
-315,-475,0,0,0,0,0,0,0,0,0,-1,909,1499,0,0
-308,-475,0,0,0,0,0,0,0,0,0,-1,916,1499,0,0
-301,-475,0,0,0,0,0,0,0,0,0,-1,923,1499,0,0
-294,-475,0,0,0,0,0,0,0,0,0,-1,930,1499,0,0
-287,-475,0,0,0,0,0,0,0,0,0,-1,937,1499,0,0
-280,-475,0,0,0,0,0,0,0,0,0,-1,944,1499,0,0
-273,-475,0,0,0,0,0,0,0,0,0,-1,951,1499,0,0
-266,-475,0,0,0,0,0,0,0,0,0,-1,958,1499,0,0
-259,-475,0,0,0,0,0,0,0,0,0,-1,965,1499,0,0
-252,-475,0,0,0,0,0,0,0,0,0,-1,972,1499,0,0
-245,-475,0,0,0,0,0,0,0,0,0,-1,979,1499,0,0
-238,-475,0,0,0,0,0,0,0,0,0,-1,986,1499,0,0
-231,-475,0,0,0,0,0,0,0,0,0,-1,993,1499,0,0
-224,-475,0,0,0,0,0,0,0,0,0,-1,1000,1499,0,0
-217,-475,0,0,0,0,0,0,0,0,0,-1,1007,1499,0,0
-210,-475,0,0,0,0,0,0,0,0,0,-1,1014,1499,0,0
-203,-475,0,0,0,0,0,0,0,0,0,-1,1021,1499,0,0
-196,-475,0,0,0,0,0,0,0,0,0,-1,1028,1499,0,0
-189,-475,0,0,0,0,0,0,0,0,0,-1,1035,1499,0,0
-182,-475,0,0,0,0,0,0,0,0,0,-1,1042,1499,0,0
-175,-475,0,0,0,0,0,0,0,0,0,-1,1049,1499,0,0
-168,-475,0,0,0,0,0,0,0,0,0,-1,1056,1499,0,0
-161,-475,0,0,0,0,0,0,0,0,0,-1,1063,1499,0,0
-154,-475,0,0,0,0,0,0,0,0,0,-1,1070,1499,0,0
-147,-475,0,0,0,0,0,0,0,0,0,-1,1077,1499,0,0
-140,-475,0,0,0,0,0,0,0,0,0,-1,1084,1499,0,0
-133,-475,0,0,0,0,0,0,0,0,0,-1,1091,1499,0,0
-126,-475,0,0,0,0,0,0,0,0,0,-1,1098,1499,0,0
-119,-475,0,0,0,0,0,0,0,0,0,-1,1105,1499,0,0
-112,-475,0,0,0,0,0,0,0,0,0,-1,1112,1499,0,0
-105,-475,0,0,0,0,0,0,0,0,0,-1,1119,1499,0,0
-98,-475,0,0,0,0,0,0,0,0,0,-1,1126,1499,0,0
-91,-475,0,0,0,0,0,0,0,0,0,-1,1133,1499,0,0
-84,-475,0,0,0,0,0,0,0,0,0,-1,1140,1499,0,0
-77,-475,0,0,0,0,0,0,0,0,0,-1,1147,1499,0,0
-70,-475,0,0,0,0,0,0,0,0,0,-1,1154,1499,0,0
-63,-475,0,0,0,0,0,0,0,0,0,-1,1161,1499,0,0
-56,-475,0,0,0,0,0,0,0,0,0,-1,1168,1499,0,0
-49,-475,0,0,0,0,0,0,0,0,0,-1,1175,1499,0,0
-42,-475,0,0,0,0,0,0,0,0,0,-1,1182,1499,0,0
-35,-475,0,0,0,0,0,0,0,0,0,-1,1189,1499,0,0
-28,-475,0,0,0,0,0,0,0,0,0,-1,1196,1499,0,0
-21,-475,0,0,0,0,0,0,0,0,0,-1,1203,1499,0,0
-14,-475,0,0,0,0,0,0,0,0,0,-1,1210,1499,0,0
-7,-475,0,0,0,0,0,0,0,0,0,-1,1217,1499,0,0
0,-475,0,0,0,0,0,0,0,0,0,-1,1224,1499,0,0
7,-475,0,0,0,0,0,0,0,0,0,-1,1231,1499,0,0
14,-475,0,0,0,0,0,0,0,0,0,-1,1238,1499,0,0
21,-475,0,0,0,0,0,0,0,0,0,-1,1245,1499,0,0
28,-475,0,0,0,0,0,0,0,0,0,-1,1252,1499,0,0
35,-475,0,0,0,0,0,0,0,0,0,-1,1259,1499,0,0
42,-475,0,0,0,0,0,0,0,0,0,-1,1266,1499,0,0
49,-475,0,0,0,0,0,0,0,0,0,-1,1273,1499,0,0
56,-475,0,0,0,0,0,0,0,0,0,-1,1280,1499,0,0
63,-475,0,0,0,0,0,0,0,0,0,-1,1287,1499,0,0
70,-475,0,0,0,0,0,0,0,0,0,-1,1294,1499,0,0
77,-475,0,0,0,0,0,0,0,0,0,-1,1301,1499,0,0
84,-475,0,0,0,0,0,0,0,0,0,-1,1308,1499,0,0
91,-475,0,0,0,0,0,0,0,0,0,-1,1315,1499,0,0
98,-475,0,0,0,0,0,0,0,0,0,-1,1322,1499,0,0
105,-475,0,0,0,0,0,0,0,0,0,-1,1329,1499,0,0
112,-475,0,0,0,0,0,0,0,0,0,-1,1336,1499,0,0
119,-475,0,0,0,0,0,0,0,0,0,-1,1343,1499,0,0
126,-475,0,0,0,0,0,0,0,0,0,-1,1350,1499,0,0
133,-475,0,0,0,0,0,0,0,0,0,-1,1357,1499,0,0
140,-475,0,0,0,0,0,0,0,0,0,-1,1364,1499,0,0
147,-475,0,0,0,0,0,0,0,0,0,-1,1371,1499,0,0
154,-475,0,0,0,0,0,0,0,0,0,-1,1378,1499,0,0
161,-475,0,0,0,0,0,0,0,0,0,-1,1385,1499,0,0
168,-475,0,0,0,0,0,0,0,0,0,-1,1392,1499,0,0
175,-475,0,0,0,0,0,0,0,0,0,-1,1399,1499,0,0
182,-475,0,0,0,0,0,0,0,0,0,-1,1406,1499,0,0
189,-475,0,0,0,0,0,0,0,0,0,-1,1413,1499,0,0
196,-475,0,0,0,0,0,0,0,0,0,-1,1420,1499,0,0
203,-475,0,0,0,0,0,0,0,0,0,-1,1427,1499,0,0
210,-475,0,0,0,0,0,0,0,0,0,-1,1434,1499,0,0
217,-475,0,0,0,0,0,0,0,0,0,-1,1441,1499,0,0
224,-475,0,0,0,0,0,0,0,0,0,-1,1448,1499,0,0
231,-475,0,0,0,0,0,0,0,0,0,-1,1455,1499,0,0
238,-475,0,0,0,0,0,0,0,0,0,-1,1462,1499,0,0
245,-475,0,0,0,0,0,0,0,0,0,-1,1469,1499,0,0
252,-475,0,0,0,0,0,0,0,0,0,-1,1476,1499,0,0
259,-475,0,0,0,0,0,0,0,0,0,-1,1483,1499,0,0
266,-475,0,0,0,0,0,0,0,0,0,-1,1490,1499,0,0
273,-475,0,0,0,0,0,0,0,0,0,-1,1497,1499,0,0
280,-475,0,0,0,0,0,0,0,0,0,-1,1504,1499,0,0
287,-475,0,0,0,0,0,0,0,0,0,-1,1511,1499,0,0
294,-475,0,0,0,0,0,0,0,0,0,-1,1518,1499,0,0
301,-475,0,0,0,0,0,0,0,0,0,-1,1525,1499,0,0
308,-475,0,0,0,0,0,0,0,0,0,-1,1532,1499,0,0
315,-475,0,0,0,0,0,0,0,0,0,-1,1539,1499,0,0
322,-475,0,0,0,0,0,0,0,0,0,-1,1546,1499,0,0
329,-475,0,0,0,0,0,0,0,0,0,-1,1553,1499,0,0
336,-475,0,0,0,0,0,0,0,0,0,-1,1560,1499,0,0
343,-475,0,0,0,0,0,0,0,0,0,-1,1567,1499,0,0
350,-475,0,0,0,0,0,0,0,0,0,-1,1574,1499,0,0
357,-475,0,0,0,0,0,0,0,0,0,-1,1581,1499,0,0
364,-475,0,0,0,0,0,0,0,0,0,-1,1588,1499,0,0
371,-475,0,0,0,0,0,0,0,0,0,-1,1595,1499,0,0
378,-475,0,0,0,0,0,0,0,0,0,-1,1602,1499,0,0
385,-475,0,0,0,0,0,0,0,0,0,-1,1609,1499,0,0
392,-475,0,0,0,0,0,0,0,0,0,-1,1616,1499,0,0
399,-475,0,0,0,0,0,0,0,0,0,-1,1623,1499,0,0
406,-475,0,0,0,0,0,0,0,0,0,-1,1630,1499,0,0
413,-475,0,0,0,0,0,0,0,0,0,-1,1637,1499,0,0
420,-475,0,0,0,0,0,0,0,0,0,-1,1644,1499,0,0
427,-475,0,0,0,0,0,0,0,0,0,-1,1651,1499,0,0
434,-475,0,0,0,0,0,0,0,0,0,-1,1658,1499,0,0
441,-475,0,0,0,0,0,0,0,0,0,-1,1665,1499,0,0
448,-475,0,0,0,0,0,0,0,0,0,-1,1672,1499,0,0
455,-475,0,0,0,0,0,0,0,0,0,-1,1679,1499,0,0
462,-475,12.6372,0.275391,0,0,0,0,0,0,0,-1,1686,1499,12.6372,-0.27536
469,-475,15.6437,2.28296,0,0,0,0,0,0,0,-1,1693,1499,15.6437,-2.28293
476,-475,15.3302,2.71436,0,0,0,0,0,0,0,-1,1700,1499,15.3303,-2.7143
483,-475,10.7461,5.91479,0,0,0,0,0,0,0,-1,1707,1499,10.7461,-5.91476
490,-475,11.9305,4.4364,0,0,0,0,0,0,0,-1,1714,1499,11.9305,-4.43644
497,-475,15.3451,4.3479,0,0,0,0,0,0,0,-1,1721,1499,15.3451,-4.34789
504,-475,16.9646,7.71265,0,0,0,0,0,0,0,-1,1728,1499,16.9646,-7.71265
511,-475,16.7368,14.9044,0,0,0,0,0,0,0,-1,1735,1499,16.7368,-14.9044
518,-475,15.5132,16.0669,0,0,0,0,0,0,0,-1,1742,1499,15.5131,-16.0669
525,-475,15.3625,12.9265,0,0,0,0,0,0,0,-1,1749,1499,15.3626,-12.9265
532,-475,14.8724,12.9988,-0.0703744,0.00156076,0.0474521,0.0251362,-0.0939499,1.10969,0.0724797,0.0441766,1756,1499,14.8724,-12.9987
539,-475,13.2788,12.7574,-0.0514092,-0.00192504,0.0337609,0.0151894,-0.0685237,1.10162,0.0514978,0.0460294,1763,1499,13.2789,-12.7574
546,-475,13.181,12.7225,-0.0363541,-0.00375982,0.0234946,0.00853661,-0.0486505,1.08863,0.0356218,0.0407282,1770,1499,13.1811,-12.7226
553,-475,13.2977,12.5872,-0.0249788,-0.004469,0.0160067,0.00428605,-0.0337338,1.07029,0.0240456,0.0224268,1777,1499,13.2977,-12.5871
560,-475,13.127,12.3949,-0.0167426,-0.00442347,0.0107017,0.00176468,-0.0229307,1.04653,0.015908,0.016289,1784,1499,13.1269,-12.3949
567,-475,13.1946,12.0784,-0.00967905,-0.00422299,0.00591533,-0.000436936,-0.0134651,1.00145,0.00883469,0.0141609,1791,1499,13.1946,-12.0784
574,-475,13.1849,11.7911,-0.00510101,-0.00373728,0.00308353,-0.00126112,-0.00757717,0.894213,0.00468796,0.0145136,1798,1499,13.1849,-11.7912
581,-475,13.1825,11.526,-0.00280537,-0.00235759,0.00187798,-0.0006902,-0.00447276,0.844727,0.00278048,0.0124455,1805,1499,13.1825,-11.5261
588,-475,13.1741,11.2479,-0.000437246,-0.00120643,0.000588622,-0.000118712,-0.00152497,0.496025,0.000979474,0.0108833,1812,1499,13.1741,-11.248
595,-475,13.1909,10.968,0.000835611,-0.000212639,-3.06222e-05,0.000836505,-0.000213533,-0.0291795,0.000640818,0.0108014,1819,1499,13.191,-10.968
602,-475,13.2,10.6863,0.0013665,0.000382791,-0.00051236,0.00158488,0.000164411,-0.402907,0.00100627,0.0122648,1826,1499,13.2,-10.6863
609,-475,13.1971,10.4027,0.00162885,0.000859891,-0.00088966,0.00221355,0.000275185,-0.581438,0.00139306,0.0114146,1833,1499,13.1971,-10.4027
616,-475,13.1715,10.1259,0.00185421,0.00103935,-0.00112785,0.00264596,0.000247593,-0.612069,0.00168751,0.0106522,1840,1499,13.1714,-10.1259
623,-475,13.1543,9.85864,0.00182623,0.000829452,-0.00129208,0.00271271,-5.70271e-05,-0.601327,0.00182778,0.0111629,1847,1499,13.1543,-9.8587
630,-475,13.1897,9.58569,0.00146549,0.00051273,-0.00127859,0.00235356,-0.000375344,-0.607074,0.00170796,0.0146875,1854,1499,13.1897,-9.5857
637,-475,13.2198,9.2854,0.00079229,-3.62003e-05,-0.00122672,0.00167282,-0.000916729,-0.622567,0.00151617,0.0286754,1861,1499,13.2199,-9.28538
644,-475,13.3105,8.95044,0,0,0,0,0,0,0,-1,1868,1499,13.3106,-8.95047
651,-475,11.7965,7.57593,0,0,0,0,0,0,0,-1,1875,1499,11.7965,-7.5759
658,-475,13.2788,8.56934,0,0,0,0,0,0,0,-1,1882,1499,13.2788,-8.56934
665,-475,9.33435,5.43335,0,0,0,0,0,0,0,-1,1889,1499,9.33439,-5.43332
672,-475,9.38635,1.10474,0,0,0,0,0,0,0,-1,1896,1499,9.38629,-1.10475
679,-475,12.2594,1.31079,0,0,0,0,0,0,0,-1,1903,1499,12.2594,-1.31077
686,-475,0,0,0,0,0,0,0,0,0,-1,1910,1499,0,0
693,-475,0,0,0,0,0,0,0,0,0,-1,1917,1499,0,0
700,-475,0,0,0,0,0,0,0,0,0,-1,1924,1499,0,0
707,-475,0,0,0,0,0,0,0,0,0,-1,1931,1499,0,0
714,-475,0,0,0,0,0,0,0,0,0,-1,1938,1499,0,0
721,-475,0,0,0,0,0,0,0,0,0,-1,1945,1499,0,0
728,-475,0,0,0,0,0,0,0,0,0,-1,1952,1499,0,0
735,-475,0,0,0,0,0,0,0,0,0,-1,1959,1499,0,0
742,-475,0,0,0,0,0,0,0,0,0,-1,1966,1499,0,0
749,-475,0,0,0,0,0,0,0,0,0,-1,1973,1499,0,0
756,-475,0,0,0,0,0,0,0,0,0,-1,1980,1499,0,0
763,-475,0,0,0,0,0,0,0,0,0,-1,1987,1499,0,0
770,-475,0,0,0,0,0,0,0,0,0,-1,1994,1499,0,0
777,-475,0,0,0,0,0,0,0,0,0,-1,2001,1499,0,0
784,-475,0,0,0,0,0,0,0,0,0,-1,2008,1499,0,0
791,-475,0,0,0,0,0,0,0,0,0,-1,2015,1499,0,0
798,-475,0,0,0,0,0,0,0,0,0,-1,2022,1499,0,0
805,-475,0,0,0,0,0,0,0,0,0,-1,2029,1499,0,0
812,-475,0,0,0,0,0,0,0,0,0,-1,2036,1499,0,0
-700,-482,0,0,0,0,0,0,0,0,0,-1,524,1506,0,0
-693,-482,0,0,0,0,0,0,0,0,0,-1,531,1506,0,0
-686,-482,0,0,0,0,0,0,0,0,0,-1,538,1506,0,0
-679,-482,0,0,0,0,0,0,0,0,0,-1,545,1506,0,0
-672,-482,0,0,0,0,0,0,0,0,0,-1,552,1506,0,0
-665,-482,0,0,0,0,0,0,0,0,0,-1,559,1506,0,0
-658,-482,0,0,0,0,0,0,0,0,0,-1,566,1506,0,0
-651,-482,0,0,0,0,0,0,0,0,0,-1,573,1506,0,0
-644,-482,0,0,0,0,0,0,0,0,0,-1,580,1506,0,0
-637,-482,0,0,0,0,0,0,0,0,0,-1,587,1506,0,0
-630,-482,0,0,0,0,0,0,0,0,0,-1,594,1506,0,0
-623,-482,0,0,0,0,0,0,0,0,0,-1,601,1506,0,0
-616,-482,0,0,0,0,0,0,0,0,0,-1,608,1506,0,0
-609,-482,0,0,0,0,0,0,0,0,0,-1,615,1506,0,0
-602,-482,0,0,0,0,0,0,0,0,0,-1,622,1506,0,0
-595,-482,0,0,0,0,0,0,0,0,0,-1,629,1506,0,0
-588,-482,0,0,0,0,0,0,0,0,0,-1,636,1506,0,0
-581,-482,0,0,0,0,0,0,0,0,0,-1,643,1506,0,0
-574,-482,0,0,0,0,0,0,0,0,0,-1,650,1506,0,0
-567,-482,0,0,0,0,0,0,0,0,0,-1,657,1506,0,0
-560,-482,0,0,0,0,0,0,0,0,0,-1,664,1506,0,0
-553,-482,-9.06055,9.34314,0,0,0,0,0,0,0,-1,671,1506,-9.06056,-9.34312
-546,-482,-4.08624,8.34241,0,0,0,0,0,0,0,-1,678,1506,-4.08624,-8.3424
-539,-482,-2.54572,4.26294,0,0,0,0,0,0,0,-1,685,1506,-2.54573,-4.2629
-532,-482,-0.201782,3.83069,0,0,0,0,0,0,0,-1,692,1506,-0.20178,-3.8307
-525,-482,-1.06189,4.59851,0,0,0,0,0,0,0,-1,699,1506,-1.06187,-4.59855
-518,-482,-2.40912,5.52905,0,0,0,0,0,0,0,-1,706,1506,-2.4091,-5.52902
-511,-482,-3.60687,7.18848,0,0,0,0,0,0,0,-1,713,1506,-3.6069,-7.18846
-504,-482,-2.4762,7.06958,0.00161853,0.0097122,0.0223044,0.0283339,-0.0170032,0.87514,0.0264465,0.0432975,720,1506,-2.47623,-7.06956
-497,-482,-2.56073,7.7926,0.00020312,0.00679174,0.0150129,0.0188676,-0.0118727,0.893402,0.0179004,0.0268009,727,1506,-2.5607,-7.79262
-490,-482,-2.63824,8.08862,-0.000489284,0.00455671,0.00973119,0.0120867,-0.00801923,0.91224,0.011687,0.0154616,734,1506,-2.63823,-8.08866
-483,-482,-2.62817,8.42932,-0.000727393,0.00282874,0.0059548,0.00726526,-0.00516392,0.930481,0.00721009,0.00801109,741,1506,-2.62818,-8.42931
-476,-482,-2.63202,8.72681,-0.000881204,0.00144036,0.00303353,0.00352761,-0.00296846,0.968128,0.00375514,0.0092667,748,1506,-2.63201,-8.72676
-469,-482,-2.6629,9.02405,-0.000507601,0.000452761,0.00142184,0.00147332,-0.00152816,0.948244,0.001733,0.0108365,755,1506,-2.66293,-9.02406
-462,-482,-2.66174,9.34326,0.000339873,-0.0009654,-9.66679e-05,0.000346993,-0.00097252,-0.073525,0.00078984,0.0119727,762,1506,-2.66172,-9.34329
-455,-482,-2.6438,9.65564,0.00121547,-0.00160478,-0.000936457,0.0014981,-0.0018874,-0.29311,0.00195892,0.0126033,769,1506,-2.6438,-9.65562
-448,-482,-2.63806,9.97913,0.00228155,-0.00227321,-0.000995436,0.0024896,-0.00248125,-0.206036,0.00286993,0.0133282,776,1506,-2.63806,-9.97908
-441,-482,-2.6582,10.3103,0.00343871,-0.00287527,-0.00104554,0.00360734,-0.0030439,-0.159906,0.00384468,0.0138321,783,1506,-2.65823,-10.3103
-434,-482,-2.68854,10.6289,0.00457876,-0.00365132,-0.00122753,0.00475795,-0.0038305,-0.14495,0.00496817,0.0157736,790,1506,-2.68853,-10.629
-427,-482,-2.6861,10.9385,0.00571913,-0.00477707,-0.00155782,0.00594545,-0.0050034,-0.144276,0.00632912,0.0164942,797,1506,-2.68612,-10.9385
-420,-482,-2.59308,11.35,0.00697867,-0.00604903,-0.00186138,0.0072394,-0.00630976,-0.13917,0.00782875,0.0287366,804,1506,-2.59305,-11.35
-413,-482,-2.41199,11.4698,0.00834065,-0.00749313,-0.00227026,0.00865974,-0.00781221,-0.139634,0.00951428,0.0454433,811,1506,-2.41201,-11.4698
-406,-482,-2.20911,11.7058,0,0,0,0,0,0,0,-1,818,1506,-2.20908,-11.7058
-399,-482,-1.3822,9.22595,0,0,0,0,0,0,0,-1,825,1506,-1.38221,-9.22598
-392,-482,-1.06836,9.22729,0,0,0,0,0,0,0,-1,832,1506,-1.06835,-9.2273
-385,-482,0.0647583,8.90649,0,0,0,0,0,0,0,-1,839,1506,0.0647778,-8.90644
-378,-482,0.215698,5.96948,0,0,0,0,0,0,0,-1,846,1506,0.215681,-5.9695
-371,-482,-0.10907,8.10437,0,0,0,0,0,0,0,-1,853,1506,-0.109063,-8.10433
-364,-482,-0.154968,10.5032,0,0,0,0,0,0,0,-1,860,1506,-0.154976,-10.5032
-357,-482,2.14807,4.60144,0,0,0,0,0,0,0,-1,867,1506,2.14807,-4.60144
-350,-482,-7.5813,-1.45935,0,0,0,0,0,0,0,-1,874,1506,-7.58133,1.45937
-343,-482,-7.19983,-1.26416,0,0,0,0,0,0,0,-1,881,1506,-7.19981,1.26414
-336,-482,-6.78491,-1.18127,0,0,0,0,0,0,0,-1,888,1506,-6.78488,1.18125
-329,-482,0,0,0,0,0,0,0,0,0,-1,895,1506,0,0
-322,-482,0,0,0,0,0,0,0,0,0,-1,902,1506,0,0
-315,-482,0,0,0,0,0,0,0,0,0,-1,909,1506,0,0
-308,-482,0,0,0,0,0,0,0,0,0,-1,916,1506,0,0
-301,-482,0,0,0,0,0,0,0,0,0,-1,923,1506,0,0
-294,-482,0,0,0,0,0,0,0,0,0,-1,930,1506,0,0
-287,-482,0,0,0,0,0,0,0,0,0,-1,937,1506,0,0
-280,-482,0,0,0,0,0,0,0,0,0,-1,944,1506,0,0
-273,-482,0,0,0,0,0,0,0,0,0,-1,951,1506,0,0
-266,-482,0,0,0,0,0,0,0,0,0,-1,958,1506,0,0
-259,-482,0,0,0,0,0,0,0,0,0,-1,965,1506,0,0
-252,-482,0,0,0,0,0,0,0,0,0,-1,972,1506,0,0
-245,-482,0,0,0,0,0,0,0,0,0,-1,979,1506,0,0
-238,-482,0,0,0,0,0,0,0,0,0,-1,986,1506,0,0
-231,-482,0,0,0,0,0,0,0,0,0,-1,993,1506,0,0
-224,-482,0,0,0,0,0,0,0,0,0,-1,1000,1506,0,0
-217,-482,0,0,0,0,0,0,0,0,0,-1,1007,1506,0,0
-210,-482,0,0,0,0,0,0,0,0,0,-1,1014,1506,0,0
-203,-482,0,0,0,0,0,0,0,0,0,-1,1021,1506,0,0
-196,-482,0,0,0,0,0,0,0,0,0,-1,1028,1506,0,0
-189,-482,0,0,0,0,0,0,0,0,0,-1,1035,1506,0,0
-182,-482,0,0,0,0,0,0,0,0,0,-1,1042,1506,0,0
-175,-482,0,0,0,0,0,0,0,0,0,-1,1049,1506,0,0
-168,-482,0,0,0,0,0,0,0,0,0,-1,1056,1506,0,0
-161,-482,0,0,0,0,0,0,0,0,0,-1,1063,1506,0,0
-154,-482,0,0,0,0,0,0,0,0,0,-1,1070,1506,0,0
-147,-482,0,0,0,0,0,0,0,0,0,-1,1077,1506,0,0
-140,-482,0,0,0,0,0,0,0,0,0,-1,1084,1506,0,0
-133,-482,0,0,0,0,0,0,0,0,0,-1,1091,1506,0,0
-126,-482,0,0,0,0,0,0,0,0,0,-1,1098,1506,0,0
-119,-482,0,0,0,0,0,0,0,0,0,-1,1105,1506,0,0
-112,-482,0,0,0,0,0,0,0,0,0,-1,1112,1506,0,0
-105,-482,0,0,0,0,0,0,0,0,0,-1,1119,1506,0,0
-98,-482,0,0,0,0,0,0,0,0,0,-1,1126,1506,0,0
-91,-482,0,0,0,0,0,0,0,0,0,-1,1133,1506,0,0
-84,-482,0,0,0,0,0,0,0,0,0,-1,1140,1506,0,0
-77,-482,0,0,0,0,0,0,0,0,0,-1,1147,1506,0,0
-70,-482,0,0,0,0,0,0,0,0,0,-1,1154,1506,0,0
-63,-482,0,0,0,0,0,0,0,0,0,-1,1161,1506,0,0
-56,-482,0,0,0,0,0,0,0,0,0,-1,1168,1506,0,0
-49,-482,0,0,0,0,0,0,0,0,0,-1,1175,1506,0,0
-42,-482,0,0,0,0,0,0,0,0,0,-1,1182,1506,0,0
-35,-482,0,0,0,0,0,0,0,0,0,-1,1189,1506,0,0
-28,-482,0,0,0,0,0,0,0,0,0,-1,1196,1506,0,0
-21,-482,0,0,0,0,0,0,0,0,0,-1,1203,1506,0,0
-14,-482,0,0,0,0,0,0,0,0,0,-1,1210,1506,0,0
-7,-482,0,0,0,0,0,0,0,0,0,-1,1217,1506,0,0
0,-482,0,0,0,0,0,0,0,0,0,-1,1224,1506,0,0
7,-482,0,0,0,0,0,0,0,0,0,-1,1231,1506,0,0
14,-482,0,0,0,0,0,0,0,0,0,-1,1238,1506,0,0
21,-482,0,0,0,0,0,0,0,0,0,-1,1245,1506,0,0
28,-482,0,0,0,0,0,0,0,0,0,-1,1252,1506,0,0
35,-482,0,0,0,0,0,0,0,0,0,-1,1259,1506,0,0
42,-482,0,0,0,0,0,0,0,0,0,-1,1266,1506,0,0
49,-482,0,0,0,0,0,0,0,0,0,-1,1273,1506,0,0
56,-482,0,0,0,0,0,0,0,0,0,-1,1280,1506,0,0
63,-482,0,0,0,0,0,0,0,0,0,-1,1287,1506,0,0
70,-482,0,0,0,0,0,0,0,0,0,-1,1294,1506,0,0
77,-482,0,0,0,0,0,0,0,0,0,-1,1301,1506,0,0
84,-482,0,0,0,0,0,0,0,0,0,-1,1308,1506,0,0
91,-482,0,0,0,0,0,0,0,0,0,-1,1315,1506,0,0
98,-482,0,0,0,0,0,0,0,0,0,-1,1322,1506,0,0
105,-482,0,0,0,0,0,0,0,0,0,-1,1329,1506,0,0
112,-482,0,0,0,0,0,0,0,0,0,-1,1336,1506,0,0
119,-482,0,0,0,0,0,0,0,0,0,-1,1343,1506,0,0
126,-482,0,0,0,0,0,0,0,0,0,-1,1350,1506,0,0
133,-482,0,0,0,0,0,0,0,0,0,-1,1357,1506,0,0
140,-482,0,0,0,0,0,0,0,0,0,-1,1364,1506,0,0
147,-482,0,0,0,0,0,0,0,0,0,-1,1371,1506,0,0
154,-482,0,0,0,0,0,0,0,0,0,-1,1378,1506,0,0
161,-482,0,0,0,0,0,0,0,0,0,-1,1385,1506,0,0
168,-482,0,0,0,0,0,0,0,0,0,-1,1392,1506,0,0
175,-482,0,0,0,0,0,0,0,0,0,-1,1399,1506,0,0
182,-482,0,0,0,0,0,0,0,0,0,-1,1406,1506,0,0
189,-482,0,0,0,0,0,0,0,0,0,-1,1413,1506,0,0
196,-482,0,0,0,0,0,0,0,0,0,-1,1420,1506,0,0
203,-482,0,0,0,0,0,0,0,0,0,-1,1427,1506,0,0
210,-482,0,0,0,0,0,0,0,0,0,-1,1434,1506,0,0
217,-482,0,0,0,0,0,0,0,0,0,-1,1441,1506,0,0
224,-482,0,0,0,0,0,0,0,0,0,-1,1448,1506,0,0
231,-482,0,0,0,0,0,0,0,0,0,-1,1455,1506,0,0
238,-482,0,0,0,0,0,0,0,0,0,-1,1462,1506,0,0
245,-482,0,0,0,0,0,0,0,0,0,-1,1469,1506,0,0
252,-482,0,0,0,0,0,0,0,0,0,-1,1476,1506,0,0
259,-482,0,0,0,0,0,0,0,0,0,-1,1483,1506,0,0
266,-482,0,0,0,0,0,0,0,0,0,-1,1490,1506,0,0
273,-482,0,0,0,0,0,0,0,0,0,-1,1497,1506,0,0
280,-482,0,0,0,0,0,0,0,0,0,-1,1504,1506,0,0
287,-482,0,0,0,0,0,0,0,0,0,-1,1511,1506,0,0
294,-482,0,0,0,0,0,0,0,0,0,-1,1518,1506,0,0
301,-482,0,0,0,0,0,0,0,0,0,-1,1525,1506,0,0
308,-482,0,0,0,0,0,0,0,0,0,-1,1532,1506,0,0
315,-482,0,0,0,0,0,0,0,0,0,-1,1539,1506,0,0
322,-482,0,0,0,0,0,0,0,0,0,-1,1546,1506,0,0
329,-482,0,0,0,0,0,0,0,0,0,-1,1553,1506,0,0
336,-482,0,0,0,0,0,0,0,0,0,-1,1560,1506,0,0
343,-482,0,0,0,0,0,0,0,0,0,-1,1567,1506,0,0
350,-482,0,0,0,0,0,0,0,0,0,-1,1574,1506,0,0
357,-482,0,0,0,0,0,0,0,0,0,-1,1581,1506,0,0
364,-482,0,0,0,0,0,0,0,0,0,-1,1588,1506,0,0
371,-482,0,0,0,0,0,0,0,0,0,-1,1595,1506,0,0
378,-482,0,0,0,0,0,0,0,0,0,-1,1602,1506,0,0
385,-482,0,0,0,0,0,0,0,0,0,-1,1609,1506,0,0
392,-482,0,0,0,0,0,0,0,0,0,-1,1616,1506,0,0
399,-482,0,0,0,0,0,0,0,0,0,-1,1623,1506,0,0
406,-482,0,0,0,0,0,0,0,0,0,-1,1630,1506,0,0
413,-482,0,0,0,0,0,0,0,0,0,-1,1637,1506,0,0
420,-482,0,0,0,0,0,0,0,0,0,-1,1644,1506,0,0
427,-482,0,0,0,0,0,0,0,0,0,-1,1651,1506,0,0
434,-482,0,0,0,0,0,0,0,0,0,-1,1658,1506,0,0
441,-482,0,0,0,0,0,0,0,0,0,-1,1665,1506,0,0
448,-482,4.24146,1.55383,0,0,0,0,0,0,0,-1,1672,1506,4.24149,-1.55381
455,-482,12.4122,1.09729,0,0,0,0,0,0,0,-1,1679,1506,12.4122,-1.09734
462,-482,15.0673,3.13135,0,0,0,0,0,0,0,-1,1686,1506,15.0672,-3.13134
469,-482,15.3793,3.46301,0,0,0,0,0,0,0,-1,1693,1506,15.3793,-3.46307
476,-482,8.69751,9.18738,0,0,0,0,0,0,0,-1,1700,1506,8.69753,-9.18739
483,-482,10.0902,7.17432,0,0,0,0,0,0,0,-1,1707,1506,10.0902,-7.1743
490,-482,11.6289,5.4928,0,0,0,0,0,0,0,-1,1714,1506,11.6289,-5.49283
497,-482,15.9539,7.40222,0,0,0,0,0,0,0,-1,1721,1506,15.9538,-7.40219
504,-482,17.2745,13.2859,0,0,0,0,0,0,0,-1,1728,1506,17.2746,-13.2859
511,-482,16.0625,14.459,-0.122488,0.0212148,0.0936251,0.0673815,-0.168655,1.11268,0.140395,0.0449031,1735,1506,16.0625,-14.459
518,-482,14.8455,15.5765,-0.0975639,0.0127275,0.0719795,0.0482576,-0.133094,1.11227,0.108455,0.0462271,1742,1506,14.8454,-15.5766
525,-482,13.9717,13.1794,0,0,0,0,0,0,0,-1,1749,1506,13.9717,-13.1795
532,-482,13.6899,13.1582,-0.0570025,0.00207423,0.0394391,0.0218102,-0.0767385,1.10682,0.0597705,0.0428647,1756,1506,13.6899,-13.1582
539,-482,13.1241,13.1311,-0.0417273,-0.000761332,0.0280858,0.0135173,-0.0560059,1.10046,0.0425646,0.0323269,1763,1506,13.1241,-13.1311
546,-482,12.9702,12.9061,-0.0295987,-0.00231459,0.0195058,0.00784636,-0.0397596,1.09055,0.0294721,0.0179636,1770,1506,12.9702,-12.9062
553,-482,12.9056,12.6252,-0.0204176,-0.00299964,0.0132819,0.00417394,-0.0275912,1.07558,0.0199317,0.0158369,1777,1506,12.9056,-12.6253
560,-482,12.8949,12.3625,-0.0136744,-0.00298386,0.00875576,0.00192928,-0.0185876,1.05945,0.0130823,0.0123088,1784,1506,12.895,-12.3626
567,-482,12.9406,12.0784,-0.00770023,-0.00290027,0.00461091,-0.000102132,-0.0104984,1.02535,0.00696512,0.0146858,1791,1506,12.9405,-12.0784
574,-482,12.9441,11.8162,-0.0037727,-0.00252839,0.0021395,-0.000922425,-0.00537867,0.926894,0.00332128,0.0138103,1798,1506,12.9441,-11.8161
581,-482,12.9165,11.5514,-0.0017485,-0.00132812,0.00104374,-0.000473619,-0.002603,0.884759,0.00160099,0.0100738,1805,1506,12.9165,-11.5514
588,-482,12.8978,11.2706,0.000348834,-0.000283717,-0.000145566,0.000380724,-0.000315607,-0.215673,0.000402613,0.0112503,1812,1506,12.8978,-11.2707
595,-482,12.9086,10.9647,0.0015506,0.000625644,-0.00076502,0.00198207,0.000194176,-0.513525,0.00126165,0.0155819,1819,1506,12.9085,-10.9647
602,-482,12.9438,10.6588,0.00214758,0.00120351,-0.00126538,0.0030261,0.00032499,-0.606874,0.00191827,0.0188625,1826,1506,12.9439,-10.6588
609,-482,12.9266,10.3981,0.00249577,0.00168496,-0.0016568,0.00379605,0.000384684,-0.665411,0.00241271,0.0147675,1833,1506,12.9266,-10.3981
616,-482,12.8915,10.1285,0.00284387,0.00188363,-0.00192938,0.00435197,0.000375527,-0.663453,0.00278459,0.01128,1840,1506,12.8914,-10.1285
623,-482,12.8754,9.86536,0.00294877,0.00167159,-0.00207428,0.00448053,0.000139832,-0.636071,0.00294152,0.0123145,1847,1506,12.8754,-9.86539
630,-482,12.9492,9.60303,0.00269019,0.00137079,-0.00202842,0.00416349,-0.000102513,-0.628178,0.00281045,0.0239024,1854,1506,12.9493,-9.60301
637,-482,12.9318,9.38098,0,0,0,0,0,0,0,-1,1861,1506,12.9318,-9.38094
644,-482,12.8159,9.18286,0,0,0,0,0,0,0,-1,1868,1506,12.816,-9.18284
651,-482,4.03845,7.05273,0,0,0,0,0,0,0,-1,1875,1506,4.03843,-7.05279
658,-482,10.0278,5.87903,0,0,0,0,0,0,0,-1,1882,1506,10.0279,-5.87902
665,-482,8.15198,3.22229,0,0,0,0,0,0,0,-1,1889,1506,8.15199,-3.22232
672,-482,9.87415,1.3147,0,0,0,0,0,0,0,-1,1896,1506,9.87416,-1.31473
679,-482,0,0,0,0,0,0,0,0,0,-1,1903,1506,0,0
686,-482,0,0,0,0,0,0,0,0,0,-1,1910,1506,0,0
693,-482,0,0,0,0,0,0,0,0,0,-1,1917,1506,0,0
700,-482,0,0,0,0,0,0,0,0,0,-1,1924,1506,0,0
707,-482,0,0,0,0,0,0,0,0,0,-1,1931,1506,0,0
714,-482,0,0,0,0,0,0,0,0,0,-1,1938,1506,0,0
721,-482,0,0,0,0,0,0,0,0,0,-1,1945,1506,0,0
728,-482,0,0,0,0,0,0,0,0,0,-1,1952,1506,0,0
735,-482,0,0,0,0,0,0,0,0,0,-1,1959,1506,0,0
742,-482,0,0,0,0,0,0,0,0,0,-1,1966,1506,0,0
749,-482,0,0,0,0,0,0,0,0,0,-1,1973,1506,0,0
756,-482,0,0,0,0,0,0,0,0,0,-1,1980,1506,0,0
763,-482,0,0,0,0,0,0,0,0,0,-1,1987,1506,0,0
770,-482,0,0,0,0,0,0,0,0,0,-1,1994,1506,0,0
777,-482,0,0,0,0,0,0,0,0,0,-1,2001,1506,0,0
784,-482,0,0,0,0,0,0,0,0,0,-1,2008,1506,0,0
791,-482,0,0,0,0,0,0,0,0,0,-1,2015,1506,0,0
798,-482,0,0,0,0,0,0,0,0,0,-1,2022,1506,0,0
805,-482,0,0,0,0,0,0,0,0,0,-1,2029,1506,0,0
812,-482,0,0,0,0,0,0,0,0,0,-1,2036,1506,0,0
-700,-489,0,0,0,0,0,0,0,0,0,-1,524,1513,0,0
-693,-489,0,0,0,0,0,0,0,0,0,-1,531,1513,0,0
-686,-489,0,0,0,0,0,0,0,0,0,-1,538,1513,0,0
-679,-489,0,0,0,0,0,0,0,0,0,-1,545,1513,0,0
-672,-489,0,0,0,0,0,0,0,0,0,-1,552,1513,0,0
-665,-489,0,0,0,0,0,0,0,0,0,-1,559,1513,0,0
-658,-489,0,0,0,0,0,0,0,0,0,-1,566,1513,0,0
-651,-489,0,0,0,0,0,0,0,0,0,-1,573,1513,0,0
-644,-489,0,0,0,0,0,0,0,0,0,-1,580,1513,0,0
-637,-489,0,0,0,0,0,0,0,0,0,-1,587,1513,0,0
-630,-489,0,0,0,0,0,0,0,0,0,-1,594,1513,0,0
-623,-489,0,0,0,0,0,0,0,0,0,-1,601,1513,0,0
-616,-489,0,0,0,0,0,0,0,0,0,-1,608,1513,0,0
-609,-489,0,0,0,0,0,0,0,0,0,-1,615,1513,0,0
-602,-489,0,0,0,0,0,0,0,0,0,-1,622,1513,0,0
-595,-489,0,0,0,0,0,0,0,0,0,-1,629,1513,0,0
-588,-489,0,0,0,0,0,0,0,0,0,-1,636,1513,0,0
-581,-489,0,0,0,0,0,0,0,0,0,-1,643,1513,0,0
-574,-489,0,0,0,0,0,0,0,0,0,-1,650,1513,0,0
-567,-489,0,0,0,0,0,0,0,0,0,-1,657,1513,0,0
-560,-489,0,0,0,0,0,0,0,0,0,-1,664,1513,0,0
-553,-489,-9.42206,8.5116,0,0,0,0,0,0,0,-1,671,1513,-9.42205,-8.51158
-546,-489,-7.80951,8.18506,0,0,0,0,0,0,0,-1,678,1513,-7.8095,-8.18503
-539,-489,-0.664307,3.08215,0,0,0,0,0,0,0,-1,685,1513,-0.664315,-3.0821
-532,-489,-1.01929,3.72986,0.0147929,0.0373235,0.0944561,0.121184,-0.0690673,0.84475,0.111207,0.0489904,692,1513,-1.01931,-3.72985
-525,-489,-1.33997,4.32776,0,0,0,0,0,0,0,-1,699,1513,-1.33996,-4.3278
-518,-489,-1.43073,5.29443,0.00465718,0.0218483,0.0532798,0.0672214,-0.0407159,0.865373,0.0629408,0.0462556,706,1513,-1.43073,-5.29441
-511,-489,-1.45575,6.33411,0.00182068,0.0160944,0.0381734,0.0477923,-0.0298773,0.877811,0.0452384,0.0488254,713,1513,-1.45573,-6.33411
-504,-489,-1.76892,7.13342,-7.60499e-05,0.0114142,0.026433,0.0327192,-0.0213811,0.892407,0.0314627,0.0460024,720,1513,-1.76894,-7.13344
-497,-489,-2.1377,7.84851,-0.00117337,0.00794564,0.017621,0.0215875,-0.0148152,0.911998,0.021138,0.0378463,727,1513,-2.13771,-7.84848
-490,-489,-2.28699,8.15674,-0.00165477,0.00538156,0.0113601,0.0137558,-0.010029,0.935562,0.0137883,0.0230816,734,1513,-2.287,-8.15677
-483,-489,-2.3454,8.42639,-0.00173286,0.00349766,0.00700949,0.00836388,-0.00659908,0.963951,0.00865887,0.0110957,741,1513,-2.3454,-8.42633
-476,-489,-2.33295,8.72876,-0.00170326,0.00210325,0.00375856,0.00441297,-0.00401297,1.01977,0.00486655,0.00896083,748,1513,-2.33293,-8.72876
-469,-489,-2.34662,9.02893,-0.0012634,0.0011808,0.00208178,0.00237269,-0.00245529,1.05082,0.00278757,0.0104559,755,1513,-2.34662,-9.02894
-462,-489,-2.34576,9.35754,-0.000407817,-0.000129286,0.000501817,0.000252232,-0.000789334,0.920753,0.000627434,0.0155667,762,1513,-2.34575,-9.35753
-455,-489,-2.3269,9.67249,0.000499114,-0.000592434,-0.000295957,0.000574194,-0.000667515,-0.248444,0.000717576,0.01975,769,1513,-2.32688,-9.6725
-448,-489,-2.33716,9.96863,0.00161318,-0.001058,-0.00020282,0.00162849,-0.00107331,-0.0753533,0.00157083,0.0179338,776,1513,-2.33719,-9.96867
-441,-489,-2.34198,10.3047,0.00279707,-0.0013911,-0.000108733,0.00279989,-0.00139393,-0.0259386,0.00246624,0.0155085,783,1513,-2.34196,-10.3047
-434,-489,-2.38245,10.6196,0.00389984,-0.00185985,-9.76873e-05,0.0039015,-0.0018615,-0.016954,0.00339605,0.0171619,790,1513,-2.38244,-10.6197
-427,-489,-2.38324,10.9244,0.00497654,-0.00271349,-0.000247672,0.00498451,-0.00272145,-0.0321625,0.00451254,0.0183095,797,1513,-2.38322,-10.9245
-420,-489,-2.37286,11.2855,0.0061449,-0.00356806,-0.000359853,0.00615822,-0.00358138,-0.0369812,0.00568838,0.0187447,804,1513,-2.37289,-11.2856
-413,-489,-2.0072,11.5187,0,0,0,0,0,0,0,-1,811,1513,-2.00721,-11.5186
-406,-489,-1.83569,11.6312,0,0,0,0,0,0,0,-1,818,1513,-1.83569,-11.6313
-399,-489,-1.41241,9.10718,0,0,0,0,0,0,0,-1,825,1513,-1.41244,-9.10722
-392,-489,-1.0368,9.30469,0,0,0,0,0,0,0,-1,832,1513,-1.03682,-9.30466
-385,-489,-1.75165,10.6559,0,0,0,0,0,0,0,-1,839,1513,-1.75165,-10.6559
-378,-489,-0.401428,9.87048,0,0,0,0,0,0,0,-1,846,1513,-0.401415,-9.87047
-371,-489,-1.11633,10.6606,0,0,0,0,0,0,0,-1,853,1513,-1.11633,-10.6606
-364,-489,-0.503113,8.98486,0,0,0,0,0,0,0,-1,860,1513,-0.503097,-8.98482
-357,-489,-0.609924,10.9606,0,0,0,0,0,0,0,-1,867,1513,-0.609947,-10.9605
-350,-489,-7.94659,-0.358887,0,0,0,0,0,0,0,-1,874,1513,-7.94657,0.358912
-343,-489,-7.49323,-0.437866,0,0,0,0,0,0,0,-1,881,1513,-7.49322,0.437823
-336,-489,-7.02332,-0.53125,0,0,0,0,0,0,0,-1,888,1513,-7.0233,0.531295
-329,-489,-6.70221,-0.242432,0,0,0,0,0,0,0,-1,895,1513,-6.70221,0.2424
-322,-489,0,0,0,0,0,0,0,0,0,-1,902,1513,0,0
-315,-489,0,0,0,0,0,0,0,0,0,-1,909,1513,0,0
-308,-489,0,0,0,0,0,0,0,0,0,-1,916,1513,0,0
-301,-489,0,0,0,0,0,0,0,0,0,-1,923,1513,0,0
-294,-489,0,0,0,0,0,0,0,0,0,-1,930,1513,0,0
-287,-489,0,0,0,0,0,0,0,0,0,-1,937,1513,0,0
-280,-489,0,0,0,0,0,0,0,0,0,-1,944,1513,0,0
-273,-489,0,0,0,0,0,0,0,0,0,-1,951,1513,0,0
-266,-489,0,0,0,0,0,0,0,0,0,-1,958,1513,0,0
-259,-489,0,0,0,0,0,0,0,0,0,-1,965,1513,0,0
-252,-489,0,0,0,0,0,0,0,0,0,-1,972,1513,0,0
-245,-489,0,0,0,0,0,0,0,0,0,-1,979,1513,0,0
-238,-489,0,0,0,0,0,0,0,0,0,-1,986,1513,0,0
-231,-489,0,0,0,0,0,0,0,0,0,-1,993,1513,0,0
-224,-489,0,0,0,0,0,0,0,0,0,-1,1000,1513,0,0
-217,-489,0,0,0,0,0,0,0,0,0,-1,1007,1513,0,0
-210,-489,0,0,0,0,0,0,0,0,0,-1,1014,1513,0,0
-203,-489,0,0,0,0,0,0,0,0,0,-1,1021,1513,0,0
-196,-489,0,0,0,0,0,0,0,0,0,-1,1028,1513,0,0
-189,-489,0,0,0,0,0,0,0,0,0,-1,1035,1513,0,0
-182,-489,0,0,0,0,0,0,0,0,0,-1,1042,1513,0,0
-175,-489,0,0,0,0,0,0,0,0,0,-1,1049,1513,0,0
-168,-489,0,0,0,0,0,0,0,0,0,-1,1056,1513,0,0
-161,-489,0,0,0,0,0,0,0,0,0,-1,1063,1513,0,0
-154,-489,0,0,0,0,0,0,0,0,0,-1,1070,1513,0,0
-147,-489,0,0,0,0,0,0,0,0,0,-1,1077,1513,0,0
-140,-489,0,0,0,0,0,0,0,0,0,-1,1084,1513,0,0
-133,-489,0,0,0,0,0,0,0,0,0,-1,1091,1513,0,0
-126,-489,0,0,0,0,0,0,0,0,0,-1,1098,1513,0,0
-119,-489,0,0,0,0,0,0,0,0,0,-1,1105,1513,0,0
-112,-489,0,0,0,0,0,0,0,0,0,-1,1112,1513,0,0
-105,-489,0,0,0,0,0,0,0,0,0,-1,1119,1513,0,0
-98,-489,0,0,0,0,0,0,0,0,0,-1,1126,1513,0,0
-91,-489,0,0,0,0,0,0,0,0,0,-1,1133,1513,0,0
-84,-489,0,0,0,0,0,0,0,0,0,-1,1140,1513,0,0
-77,-489,0,0,0,0,0,0,0,0,0,-1,1147,1513,0,0
-70,-489,0,0,0,0,0,0,0,0,0,-1,1154,1513,0,0
-63,-489,0,0,0,0,0,0,0,0,0,-1,1161,1513,0,0
-56,-489,0,0,0,0,0,0,0,0,0,-1,1168,1513,0,0
-49,-489,0,0,0,0,0,0,0,0,0,-1,1175,1513,0,0
-42,-489,0,0,0,0,0,0,0,0,0,-1,1182,1513,0,0
-35,-489,0,0,0,0,0,0,0,0,0,-1,1189,1513,0,0
-28,-489,0,0,0,0,0,0,0,0,0,-1,1196,1513,0,0
-21,-489,0,0,0,0,0,0,0,0,0,-1,1203,1513,0,0
-14,-489,0,0,0,0,0,0,0,0,0,-1,1210,1513,0,0
-7,-489,0,0,0,0,0,0,0,0,0,-1,1217,1513,0,0
0,-489,0,0,0,0,0,0,0,0,0,-1,1224,1513,0,0
7,-489,0,0,0,0,0,0,0,0,0,-1,1231,1513,0,0
14,-489,0,0,0,0,0,0,0,0,0,-1,1238,1513,0,0
21,-489,0,0,0,0,0,0,0,0,0,-1,1245,1513,0,0
28,-489,0,0,0,0,0,0,0,0,0,-1,1252,1513,0,0
35,-489,0,0,0,0,0,0,0,0,0,-1,1259,1513,0,0
42,-489,0,0,0,0,0,0,0,0,0,-1,1266,1513,0,0
49,-489,0,0,0,0,0,0,0,0,0,-1,1273,1513,0,0
56,-489,0,0,0,0,0,0,0,0,0,-1,1280,1513,0,0
63,-489,0,0,0,0,0,0,0,0,0,-1,1287,1513,0,0
70,-489,0,0,0,0,0,0,0,0,0,-1,1294,1513,0,0
77,-489,0,0,0,0,0,0,0,0,0,-1,1301,1513,0,0
84,-489,0,0,0,0,0,0,0,0,0,-1,1308,1513,0,0
91,-489,0,0,0,0,0,0,0,0,0,-1,1315,1513,0,0
98,-489,0,0,0,0,0,0,0,0,0,-1,1322,1513,0,0
105,-489,0,0,0,0,0,0,0,0,0,-1,1329,1513,0,0
112,-489,0,0,0,0,0,0,0,0,0,-1,1336,1513,0,0
119,-489,0,0,0,0,0,0,0,0,0,-1,1343,1513,0,0
126,-489,0,0,0,0,0,0,0,0,0,-1,1350,1513,0,0
133,-489,0,0,0,0,0,0,0,0,0,-1,1357,1513,0,0
140,-489,0,0,0,0,0,0,0,0,0,-1,1364,1513,0,0
147,-489,0,0,0,0,0,0,0,0,0,-1,1371,1513,0,0
154,-489,0,0,0,0,0,0,0,0,0,-1,1378,1513,0,0
161,-489,0,0,0,0,0,0,0,0,0,-1,1385,1513,0,0
168,-489,0,0,0,0,0,0,0,0,0,-1,1392,1513,0,0
175,-489,0,0,0,0,0,0,0,0,0,-1,1399,1513,0,0
182,-489,0,0,0,0,0,0,0,0,0,-1,1406,1513,0,0
189,-489,0,0,0,0,0,0,0,0,0,-1,1413,1513,0,0
196,-489,0,0,0,0,0,0,0,0,0,-1,1420,1513,0,0
203,-489,0,0,0,0,0,0,0,0,0,-1,1427,1513,0,0
210,-489,0,0,0,0,0,0,0,0,0,-1,1434,1513,0,0
217,-489,0,0,0,0,0,0,0,0,0,-1,1441,1513,0,0
224,-489,0,0,0,0,0,0,0,0,0,-1,1448,1513,0,0
231,-489,0,0,0,0,0,0,0,0,0,-1,1455,1513,0,0
238,-489,0,0,0,0,0,0,0,0,0,-1,1462,1513,0,0
245,-489,0,0,0,0,0,0,0,0,0,-1,1469,1513,0,0
252,-489,0,0,0,0,0,0,0,0,0,-1,1476,1513,0,0
259,-489,0,0,0,0,0,0,0,0,0,-1,1483,1513,0,0
266,-489,0,0,0,0,0,0,0,0,0,-1,1490,1513,0,0
273,-489,0,0,0,0,0,0,0,0,0,-1,1497,1513,0,0
280,-489,0,0,0,0,0,0,0,0,0,-1,1504,1513,0,0
287,-489,0,0,0,0,0,0,0,0,0,-1,1511,1513,0,0
294,-489,0,0,0,0,0,0,0,0,0,-1,1518,1513,0,0
301,-489,0,0,0,0,0,0,0,0,0,-1,1525,1513,0,0
308,-489,0,0,0,0,0,0,0,0,0,-1,1532,1513,0,0
315,-489,0,0,0,0,0,0,0,0,0,-1,1539,1513,0,0
322,-489,0,0,0,0,0,0,0,0,0,-1,1546,1513,0,0
329,-489,0,0,0,0,0,0,0,0,0,-1,1553,1513,0,0
336,-489,0,0,0,0,0,0,0,0,0,-1,1560,1513,0,0
343,-489,0,0,0,0,0,0,0,0,0,-1,1567,1513,0,0
350,-489,0,0,0,0,0,0,0,0,0,-1,1574,1513,0,0
357,-489,0,0,0,0,0,0,0,0,0,-1,1581,1513,0,0
364,-489,0,0,0,0,0,0,0,0,0,-1,1588,1513,0,0
371,-489,0,0,0,0,0,0,0,0,0,-1,1595,1513,0,0
378,-489,0,0,0,0,0,0,0,0,0,-1,1602,1513,0,0
385,-489,0,0,0,0,0,0,0,0,0,-1,1609,1513,0,0
392,-489,0,0,0,0,0,0,0,0,0,-1,1616,1513,0,0
399,-489,0,0,0,0,0,0,0,0,0,-1,1623,1513,0,0
406,-489,0,0,0,0,0,0,0,0,0,-1,1630,1513,0,0
413,-489,0,0,0,0,0,0,0,0,0,-1,1637,1513,0,0
420,-489,0,0,0,0,0,0,0,0,0,-1,1644,1513,0,0
427,-489,0,0,0,0,0,0,0,0,0,-1,1651,1513,0,0
434,-489,0,0,0,0,0,0,0,0,0,-1,1658,1513,0,0
441,-489,11.4602,2.56787,0,0,0,0,0,0,0,-1,1665,1513,11.4602,-2.56786
448,-489,12.4425,1.72351,0,0,0,0,0,0,0,-1,1672,1513,12.4425,-1.72349
455,-489,12.5575,1.37463,0,0,0,0,0,0,0,-1,1679,1513,12.5575,-1.37469
462,-489,14.9784,3.84888,0,0,0,0,0,0,0,-1,1686,1513,14.9784,-3.84892
469,-489,15.1367,4.53101,0,0,0,0,0,0,0,-1,1693,1513,15.1368,-4.531
476,-489,15.5536,5.09338,0,0,0,0,0,0,0,-1,1700,1513,15.5536,-5.09339
483,-489,8.96912,8.37805,0,0,0,0,0,0,0,-1,1707,1513,8.96909,-8.37809
490,-489,10.5366,7.49561,0,0,0,0,0,0,0,-1,1714,1513,10.5367,-7.49558
497,-489,14.6051,11.8397,0,0,0,0,0,0,0,-1,1721,1513,14.6051,-11.8397
504,-489,16.3262,13.2434,0,0,0,0,0,0,0,-1,1728,1513,16.3262,-13.2434
511,-489,15.2028,14.2238,-0.0962382,0.0135796,0.0759922,0.0524247,-0.135083,1.09825,0.111709,0.0468747,1735,1513,15.2027,-14.2238
518,-489,14.1234,15.0958,-0.0765392,0.00876095,0.0583855,0.0384151,-0.106193,1.10085,0.0864926,0.0474073,1742,1513,14.1235,-15.0958
525,-489,12.8605,13.5619,0,0,0,0,0,0,0,-1,1749,1513,12.8604,-13.5619
532,-489,12.8585,13.3016,-0.0448414,0.00206295,0.0319461,0.018241,-0.0610195,1.10203,0.0479313,0.0374947,1756,1513,12.8585,-13.3016
539,-489,12.7371,13.1847,-0.0329094,-1.55311e-05,0.0227837,0.0116373,-0.0445623,1.09803,0.0342527,0.0175128,1763,1513,12.7371,-13.1847
546,-489,12.6388,12.9691,-0.0234722,-0.00120137,0.0158501,0.0070339,-0.0317075,1.09161,0.0238315,0.0116952,1770,1513,12.6388,-12.9691
553,-489,12.6274,12.6671,-0.0162084,-0.00178691,0.0107647,0.00395896,-0.0219542,1.0805,0.0161187,0.0141583,1777,1513,12.6275,-12.6672
560,-489,12.6476,12.3669,-0.0107532,-0.00172067,0.00693283,0.00203716,-0.0145111,1.07409,0.0104197,0.0131193,1784,1513,12.6475,-12.3669
567,-489,12.6677,12.0842,-0.00577231,-0.0016756,0.00339269,0.000239141,-0.00768705,1.05699,0.00520624,0.0142823,1791,1513,12.6678,-12.0842
574,-489,12.6473,11.833,-0.00244679,-0.00133818,0.00126174,-0.000514355,-0.00327061,0.992365,0.00203079,0.0144896,1798,1513,12.6474,-11.833
581,-489,12.6368,11.5623,-0.000645819,-0.000268458,0.000237889,-0.000153508,-0.000760769,1.12067,0.000464543,0.0108059,1805,1513,12.6369,-11.5623
588,-489,12.6238,11.2969,0.00119865,0.000705694,-0.00087511,0.00186133,4.30141e-05,-0.648127,0.0012268,0.0134106,1812,1513,12.6238,-11.2968
595,-489,12.6334,11.0009,0.00235836,0.00156309,-0.00154287,0.00355401,0.000367444,-0.65928,0.00225685,0.018402,1819,1513,12.6335,-11.0008
602,-489,12.641,10.6875,0.00308259,0.00216182,-0.00211841,0.00479007,0.000454345,-0.6784,0.00305322,0.0228623,1826,1513,12.641,-10.6874
609,-489,12.6267,10.4149,0.00360837,0.00269016,-0.00259144,0.00578106,0.000517473,-0.697726,0.00369365,0.0160093,1833,1513,12.6267,-10.4149
616,-489,12.6171,10.1381,0.00417961,0.0029745,-0.0029799,0.00661726,0.000536847,-0.685641,0.00424389,0.0109293,1840,1513,12.617,-10.1381
623,-489,12.6217,9.86487,0.00452438,0.00288108,-0.00320055,0.00700707,0.000398397,-0.659751,0.0045444,0.0168333,1847,1513,12.6218,-9.86492
630,-489,12.6316,9.64746,0.00448868,0.00270369,-0.00321414,0.00693194,0.000260434,-0.649971,0.00453697,0.0418844,1854,1513,12.6316,-9.64747
637,-489,12.6023,9.52454,0,0,0,0,0,0,0,-1,1861,1513,12.6023,-9.52452
644,-489,9.67578,8.45874,0,0,0,0,0,0,0,-1,1868,1513,9.67576,-8.45879
651,-489,6.13818,6.85095,0,0,0,0,0,0,0,-1,1875,1513,6.13823,-6.85097
658,-489,5.43848,7.75513,0,0,0,0,0,0,0,-1,1882,1513,5.43844,-7.75509
665,-489,5.48438,8.59912,0,0,0,0,0,0,0,-1,1889,1513,5.48434,-8.59907
672,-489,0,0,0,0,0,0,0,0,0,-1,1896,1513,0,0
679,-489,0,0,0,0,0,0,0,0,0,-1,1903,1513,0,0
686,-489,0,0,0,0,0,0,0,0,0,-1,1910,1513,0,0
693,-489,0,0,0,0,0,0,0,0,0,-1,1917,1513,0,0
700,-489,0,0,0,0,0,0,0,0,0,-1,1924,1513,0,0
707,-489,0,0,0,0,0,0,0,0,0,-1,1931,1513,0,0
714,-489,0,0,0,0,0,0,0,0,0,-1,1938,1513,0,0
721,-489,0,0,0,0,0,0,0,0,0,-1,1945,1513,0,0
728,-489,0,0,0,0,0,0,0,0,0,-1,1952,1513,0,0
735,-489,0,0,0,0,0,0,0,0,0,-1,1959,1513,0,0
742,-489,0,0,0,0,0,0,0,0,0,-1,1966,1513,0,0
749,-489,0,0,0,0,0,0,0,0,0,-1,1973,1513,0,0
756,-489,0,0,0,0,0,0,0,0,0,-1,1980,1513,0,0
763,-489,0,0,0,0,0,0,0,0,0,-1,1987,1513,0,0
770,-489,0,0,0,0,0,0,0,0,0,-1,1994,1513,0,0
777,-489,0,0,0,0,0,0,0,0,0,-1,2001,1513,0,0
784,-489,0,0,0,0,0,0,0,0,0,-1,2008,1513,0,0
791,-489,0,0,0,0,0,0,0,0,0,-1,2015,1513,0,0
798,-489,0,0,0,0,0,0,0,0,0,-1,2022,1513,0,0
805,-489,0,0,0,0,0,0,0,0,0,-1,2029,1513,0,0
812,-489,0,0,0,0,0,0,0,0,0,-1,2036,1513,0,0
-700,-496,0,0,0,0,0,0,0,0,0,-1,524,1520,0,0
-693,-496,0,0,0,0,0,0,0,0,0,-1,531,1520,0,0
-686,-496,0,0,0,0,0,0,0,0,0,-1,538,1520,0,0
-679,-496,0,0,0,0,0,0,0,0,0,-1,545,1520,0,0
-672,-496,0,0,0,0,0,0,0,0,0,-1,552,1520,0,0
-665,-496,0,0,0,0,0,0,0,0,0,-1,559,1520,0,0
-658,-496,0,0,0,0,0,0,0,0,0,-1,566,1520,0,0
-651,-496,0,0,0,0,0,0,0,0,0,-1,573,1520,0,0
-644,-496,0,0,0,0,0,0,0,0,0,-1,580,1520,0,0
-637,-496,0,0,0,0,0,0,0,0,0,-1,587,1520,0,0
-630,-496,0,0,0,0,0,0,0,0,0,-1,594,1520,0,0
-623,-496,0,0,0,0,0,0,0,0,0,-1,601,1520,0,0
-616,-496,0,0,0,0,0,0,0,0,0,-1,608,1520,0,0
-609,-496,0,0,0,0,0,0,0,0,0,-1,615,1520,0,0
-602,-496,0,0,0,0,0,0,0,0,0,-1,622,1520,0,0
-595,-496,0,0,0,0,0,0,0,0,0,-1,629,1520,0,0
-588,-496,0,0,0,0,0,0,0,0,0,-1,636,1520,0,0
-581,-496,0,0,0,0,0,0,0,0,0,-1,643,1520,0,0
-574,-496,0,0,0,0,0,0,0,0,0,-1,650,1520,0,0
-567,-496,0,0,0,0,0,0,0,0,0,-1,657,1520,0,0
-560,-496,0,0,0,0,0,0,0,0,0,-1,664,1520,0,0
-553,-496,0,0,0,0,0,0,0,0,0,-1,671,1520,0,0
-546,-496,-8.09711,7.94836,0,0,0,0,0,0,0,-1,678,1520,-8.09712,-7.94842
-539,-496,-1.43988,2.86829,0,0,0,0,0,0,0,-1,685,1520,-1.43986,-2.86834
-532,-496,-1.86621,3.60339,0,0,0,0,0,0,0,-1,692,1520,-1.86623,-3.60339
-525,-496,-1.61804,4.05701,0,0,0,0,0,0,0,-1,699,1520,-1.61806,-4.05705
-518,-496,-1.55121,4.98303,0.00117008,0.0246529,0.0615024,0.0755247,-0.0497016,0.879718,0.07281,0.04862,706,1520,-1.5512,-4.98301
-511,-496,-1.49139,6.2489,-0.000590252,0.0183454,0.0440616,0.0539449,-0.0361897,0.891227,0.0523747,0.045827,713,1520,-1.49142,-6.24887
-504,-496,-1.69714,7.73486,0,0,0,0,0,0,0,-1,720,1520,-1.69713,-7.73487
-497,-496,-1.81921,8.021,-0.00215955,0.00926162,0.0201767,0.0245203,-0.0174182,0.923306,0.0243287,0.0475288,727,1520,-1.81924,-8.02106
-490,-496,-1.95221,8.35413,-0.00239738,0.00634374,0.0128737,0.0155686,-0.0116222,0.949041,0.0157536,0.0365041,734,1520,-1.95219,-8.35417
-483,-496,-2.00952,8.50671,-0.00230316,0.00427794,0.00789631,0.00954189,-0.0075671,0.982817,0.00989979,0.0199221,741,1520,-2.0095,-8.50666
-476,-496,-2.04291,8.729,-0.00209938,0.00282084,0.00425646,0.00527699,-0.00455553,1.04743,0.0056819,0.0106742,748,1520,-2.04294,-8.72902
-469,-496,-2.05267,9.04956,-0.00164141,0.00188327,0.00245112,0.00313984,-0.00289798,1.09708,0.00348687,0.0103117,755,1520,-2.05264,-9.04961
-462,-496,-2.04492,9.37695,-0.000857183,0.000626024,0.000764318,0.000949389,-0.00118055,1.17056,0.00123213,0.0154445,762,1520,-2.04494,-9.377
-455,-496,-2.03784,9.703,-1.28765e-05,0.000230376,-4.28219e-05,0.000237695,-2.01946e-05,-1.40153,0.000165606,0.0208438,769,1520,-2.03783,-9.70301
-448,-496,-2.0462,10.0076,0.00102914,-0.000153517,0.000121012,0.0010414,-0.000165772,0.100929,0.000755608,0.0194855,776,1520,-2.04619,-10.0076
-441,-496,-2.0415,10.3013,0.0021072,-0.00036394,0.000282901,0.00213918,-0.000395913,0.112542,0.00157477,0.0145699,783,1520,-2.04149,-10.3012
-434,-496,-2.05206,10.5974,0.00304092,-0.00068621,0.000416318,0.00308686,-0.000732146,0.109895,0.00234044,0.0133238,790,1520,-2.05209,-10.5974
-427,-496,-2.06287,10.9104,0.00392707,-0.00142847,0.000370305,0.00395255,-0.00145395,0.0687085,0.00323065,0.0169469,797,1520,-2.06289,-10.9104
-420,-496,-2.05927,11.2162,0.00488209,-0.00204535,0.000359614,0.00490071,-0.00206397,0.0517262,0.00413074,0.0174877,804,1520,-2.05928,-11.2162
-413,-496,-2.00067,11.5114,0.00582188,-0.00271211,0.000331084,0.00583471,-0.00272493,0.0387184,0.00504945,0.019793,811,1520,-2.00068,-11.5114
-406,-496,-1.92596,11.8732,0,0,0,0,0,0,0,-1,818,1520,-1.92594,-11.8732
-399,-496,-1.68805,12.4275,0,0,0,0,0,0,0,-1,825,1520,-1.68808,-12.4275
-392,-496,-1.51019,12.2317,0,0,0,0,0,0,0,-1,832,1520,-1.51019,-12.2317
-385,-496,-1.72437,11.4985,0,0,0,0,0,0,0,-1,839,1520,-1.72436,-11.4985
-378,-496,-1.59412,13.2561,0,0,0,0,0,0,0,-1,846,1520,-1.5941,-13.2561
-371,-496,0.0877075,12.5299,0,0,0,0,0,0,0,-1,853,1520,0.0876896,-12.5299
-364,-496,0.0881348,10.6422,0,0,0,0,0,0,0,-1,860,1520,0.0881368,-10.6423
-357,-496,0.323792,7.56812,0,0,0,0,0,0,0,-1,867,1520,0.323782,-7.56806
-350,-496,2.1535,7.18945,0,0,0,0,0,0,0,-1,874,1520,2.15348,-7.1894
-343,-496,-7.56244,0.335327,0,0,0,0,0,0,0,-1,881,1520,-7.56242,-0.335322
-336,-496,-3.99249,6.02222,0,0,0,0,0,0,0,-1,888,1520,-3.99246,-6.0222
-329,-496,-6.93689,-0.100342,0,0,0,0,0,0,0,-1,895,1520,-6.93686,0.1003
-322,-496,-6.17505,0.494385,0,0,0,0,0,0,0,-1,902,1520,-6.17507,-0.49437
-315,-496,-5.46338,1.0459,0,0,0,0,0,0,0,-1,909,1520,-5.46338,-1.04587
-308,-496,0,0,0,0,0,0,0,0,0,-1,916,1520,0,0
-301,-496,0,0,0,0,0,0,0,0,0,-1,923,1520,0,0
-294,-496,0,0,0,0,0,0,0,0,0,-1,930,1520,0,0
-287,-496,0,0,0,0,0,0,0,0,0,-1,937,1520,0,0
-280,-496,0,0,0,0,0,0,0,0,0,-1,944,1520,0,0
-273,-496,0,0,0,0,0,0,0,0,0,-1,951,1520,0,0
-266,-496,0,0,0,0,0,0,0,0,0,-1,958,1520,0,0
-259,-496,0,0,0,0,0,0,0,0,0,-1,965,1520,0,0
-252,-496,0,0,0,0,0,0,0,0,0,-1,972,1520,0,0
-245,-496,0,0,0,0,0,0,0,0,0,-1,979,1520,0,0
-238,-496,0,0,0,0,0,0,0,0,0,-1,986,1520,0,0
-231,-496,0,0,0,0,0,0,0,0,0,-1,993,1520,0,0
-224,-496,0,0,0,0,0,0,0,0,0,-1,1000,1520,0,0
-217,-496,0,0,0,0,0,0,0,0,0,-1,1007,1520,0,0
-210,-496,0,0,0,0,0,0,0,0,0,-1,1014,1520,0,0
-203,-496,0,0,0,0,0,0,0,0,0,-1,1021,1520,0,0
-196,-496,0,0,0,0,0,0,0,0,0,-1,1028,1520,0,0
-189,-496,0,0,0,0,0,0,0,0,0,-1,1035,1520,0,0
-182,-496,0,0,0,0,0,0,0,0,0,-1,1042,1520,0,0
-175,-496,0,0,0,0,0,0,0,0,0,-1,1049,1520,0,0
-168,-496,0,0,0,0,0,0,0,0,0,-1,1056,1520,0,0
-161,-496,0,0,0,0,0,0,0,0,0,-1,1063,1520,0,0
-154,-496,0,0,0,0,0,0,0,0,0,-1,1070,1520,0,0
-147,-496,0,0,0,0,0,0,0,0,0,-1,1077,1520,0,0
-140,-496,0,0,0,0,0,0,0,0,0,-1,1084,1520,0,0
-133,-496,0,0,0,0,0,0,0,0,0,-1,1091,1520,0,0
-126,-496,0,0,0,0,0,0,0,0,0,-1,1098,1520,0,0
-119,-496,0,0,0,0,0,0,0,0,0,-1,1105,1520,0,0
-112,-496,0,0,0,0,0,0,0,0,0,-1,1112,1520,0,0
-105,-496,0,0,0,0,0,0,0,0,0,-1,1119,1520,0,0
-98,-496,0,0,0,0,0,0,0,0,0,-1,1126,1520,0,0
-91,-496,0,0,0,0,0,0,0,0,0,-1,1133,1520,0,0
-84,-496,0,0,0,0,0,0,0,0,0,-1,1140,1520,0,0
-77,-496,0,0,0,0,0,0,0,0,0,-1,1147,1520,0,0
-70,-496,0,0,0,0,0,0,0,0,0,-1,1154,1520,0,0
-63,-496,0,0,0,0,0,0,0,0,0,-1,1161,1520,0,0
-56,-496,0,0,0,0,0,0,0,0,0,-1,1168,1520,0,0
-49,-496,0,0,0,0,0,0,0,0,0,-1,1175,1520,0,0
-42,-496,0,0,0,0,0,0,0,0,0,-1,1182,1520,0,0
-35,-496,0,0,0,0,0,0,0,0,0,-1,1189,1520,0,0
-28,-496,0,0,0,0,0,0,0,0,0,-1,1196,1520,0,0
-21,-496,0,0,0,0,0,0,0,0,0,-1,1203,1520,0,0
-14,-496,0,0,0,0,0,0,0,0,0,-1,1210,1520,0,0
-7,-496,0,0,0,0,0,0,0,0,0,-1,1217,1520,0,0
0,-496,0,0,0,0,0,0,0,0,0,-1,1224,1520,0,0
7,-496,0,0,0,0,0,0,0,0,0,-1,1231,1520,0,0
14,-496,0,0,0,0,0,0,0,0,0,-1,1238,1520,0,0
21,-496,0,0,0,0,0,0,0,0,0,-1,1245,1520,0,0
28,-496,0,0,0,0,0,0,0,0,0,-1,1252,1520,0,0
35,-496,0,0,0,0,0,0,0,0,0,-1,1259,1520,0,0
42,-496,0,0,0,0,0,0,0,0,0,-1,1266,1520,0,0
49,-496,0,0,0,0,0,0,0,0,0,-1,1273,1520,0,0
56,-496,0,0,0,0,0,0,0,0,0,-1,1280,1520,0,0
63,-496,0,0,0,0,0,0,0,0,0,-1,1287,1520,0,0
70,-496,0,0,0,0,0,0,0,0,0,-1,1294,1520,0,0
77,-496,0,0,0,0,0,0,0,0,0,-1,1301,1520,0,0
84,-496,0,0,0,0,0,0,0,0,0,-1,1308,1520,0,0
91,-496,0,0,0,0,0,0,0,0,0,-1,1315,1520,0,0
98,-496,0,0,0,0,0,0,0,0,0,-1,1322,1520,0,0
105,-496,0,0,0,0,0,0,0,0,0,-1,1329,1520,0,0
112,-496,0,0,0,0,0,0,0,0,0,-1,1336,1520,0,0
119,-496,0,0,0,0,0,0,0,0,0,-1,1343,1520,0,0
126,-496,0,0,0,0,0,0,0,0,0,-1,1350,1520,0,0
133,-496,0,0,0,0,0,0,0,0,0,-1,1357,1520,0,0
140,-496,0,0,0,0,0,0,0,0,0,-1,1364,1520,0,0
147,-496,0,0,0,0,0,0,0,0,0,-1,1371,1520,0,0
154,-496,0,0,0,0,0,0,0,0,0,-1,1378,1520,0,0
161,-496,0,0,0,0,0,0,0,0,0,-1,1385,1520,0,0
168,-496,0,0,0,0,0,0,0,0,0,-1,1392,1520,0,0
175,-496,0,0,0,0,0,0,0,0,0,-1,1399,1520,0,0
182,-496,0,0,0,0,0,0,0,0,0,-1,1406,1520,0,0
189,-496,0,0,0,0,0,0,0,0,0,-1,1413,1520,0,0
196,-496,0,0,0,0,0,0,0,0,0,-1,1420,1520,0,0
203,-496,0,0,0,0,0,0,0,0,0,-1,1427,1520,0,0
210,-496,0,0,0,0,0,0,0,0,0,-1,1434,1520,0,0
217,-496,0,0,0,0,0,0,0,0,0,-1,1441,1520,0,0
224,-496,0,0,0,0,0,0,0,0,0,-1,1448,1520,0,0
231,-496,0,0,0,0,0,0,0,0,0,-1,1455,1520,0,0
238,-496,0,0,0,0,0,0,0,0,0,-1,1462,1520,0,0
245,-496,0,0,0,0,0,0,0,0,0,-1,1469,1520,0,0
252,-496,0,0,0,0,0,0,0,0,0,-1,1476,1520,0,0
259,-496,0,0,0,0,0,0,0,0,0,-1,1483,1520,0,0
266,-496,0,0,0,0,0,0,0,0,0,-1,1490,1520,0,0
273,-496,0,0,0,0,0,0,0,0,0,-1,1497,1520,0,0
280,-496,0,0,0,0,0,0,0,0,0,-1,1504,1520,0,0
287,-496,0,0,0,0,0,0,0,0,0,-1,1511,1520,0,0
294,-496,0,0,0,0,0,0,0,0,0,-1,1518,1520,0,0
301,-496,0,0,0,0,0,0,0,0,0,-1,1525,1520,0,0
308,-496,0,0,0,0,0,0,0,0,0,-1,1532,1520,0,0
315,-496,0,0,0,0,0,0,0,0,0,-1,1539,1520,0,0
322,-496,0,0,0,0,0,0,0,0,0,-1,1546,1520,0,0
329,-496,0,0,0,0,0,0,0,0,0,-1,1553,1520,0,0
336,-496,0,0,0,0,0,0,0,0,0,-1,1560,1520,0,0
343,-496,0,0,0,0,0,0,0,0,0,-1,1567,1520,0,0
350,-496,0,0,0,0,0,0,0,0,0,-1,1574,1520,0,0
357,-496,0,0,0,0,0,0,0,0,0,-1,1581,1520,0,0
364,-496,0,0,0,0,0,0,0,0,0,-1,1588,1520,0,0
371,-496,0,0,0,0,0,0,0,0,0,-1,1595,1520,0,0
378,-496,0,0,0,0,0,0,0,0,0,-1,1602,1520,0,0
385,-496,0,0,0,0,0,0,0,0,0,-1,1609,1520,0,0
392,-496,0,0,0,0,0,0,0,0,0,-1,1616,1520,0,0
399,-496,0,0,0,0,0,0,0,0,0,-1,1623,1520,0,0
406,-496,0,0,0,0,0,0,0,0,0,-1,1630,1520,0,0
413,-496,0,0,0,0,0,0,0,0,0,-1,1637,1520,0,0
420,-496,0,0,0,0,0,0,0,0,0,-1,1644,1520,0,0
427,-496,0,0,0,0,0,0,0,0,0,-1,1651,1520,0,0
434,-496,11.0457,3.37732,0,0,0,0,0,0,0,-1,1658,1520,11.0456,-3.37736
441,-496,11.788,2.75488,0,0,0,0,0,0,0,-1,1665,1520,11.7879,-2.75485
448,-496,12.2146,2.18494,0,0,0,0,0,0,0,-1,1672,1520,12.2146,-2.18489
455,-496,12.3489,1.65173,0,0,0,0,0,0,0,-1,1679,1520,12.3489,-1.65178
462,-496,12.1912,1.32361,0,0,0,0,0,0,0,-1,1686,1520,12.1911,-1.32357
469,-496,14.8138,5.77954,0,0,0,0,0,0,0,-1,1693,1520,14.8138,-5.77958
476,-496,15.2449,6.27942,0,0,0,0,0,0,0,-1,1700,1520,15.2449,-6.27936
483,-496,9.19812,6.88367,0,0,0,0,0,0,0,-1,1707,1520,9.19812,-6.88361
490,-496,10.2123,7.97144,0,0,0,0,0,0,0,-1,1714,1520,10.2122,-7.97145
497,-496,13.9297,12.2981,0,0,0,0,0,0,0,-1,1721,1520,13.9297,-12.2982
504,-496,15.1461,13.2651,0,0,0,0,0,0,0,-1,1728,1520,15.1461,-13.2651
511,-496,14.2374,14.0422,0,0,0,0,0,0,0,-1,1735,1520,14.2375,-14.0423
518,-496,13.3289,14.8195,0,0,0,0,0,0,0,-1,1742,1520,13.3288,-14.8195
525,-496,12.1584,13.7301,0,0,0,0,0,0,0,-1,1749,1520,12.1585,-13.7302
532,-496,12.3688,13.4912,-0.0344052,0.00193812,0.0252734,0.0148945,-0.0473615,1.09708,0.0375374,0.0290573,1756,1520,12.3688,-13.4912
539,-496,12.3928,13.2441,-0.0253537,0.00048354,0.0180568,0.00976712,-0.0346373,1.09591,0.0269439,0.0136879,1763,1520,12.3928,-13.2442
546,-496,12.3387,12.9524,-0.0180941,-0.000359419,0.0125156,0.00611172,-0.0245653,1.0936,0.0187491,0.0102815,1770,1520,12.3388,-12.9523
553,-496,12.3571,12.6611,-0.0124149,-0.000802763,0.00839632,0.00359943,-0.0168171,1.0879,0.012584,0.0154382,1777,1520,12.357,-12.6612
560,-496,12.3665,12.3713,-0.00803573,-0.000621114,0.00516024,0.00202549,-0.0106823,1.09689,0.00788394,0.0149135,1784,1520,12.3665,-12.3714
567,-496,12.3676,12.0956,-0.0039541,-0.000542117,0.00218528,0.000524232,-0.00502045,1.11682,0.00353469,0.0122503,1791,1520,12.3675,-12.0956
574,-496,12.364,11.8223,-0.00117735,-0.000159519,0.000367581,-4.06515e-05,-0.00129621,1.25803,0.000850916,0.0124958,1798,1520,12.3641,-11.8223
581,-496,12.3448,11.5636,0.000453217,0.000841611,-0.00062101,0.00129808,-3.25183e-06,-0.936937,0.000866472,0.0132947,1805,1520,12.3449,-11.5636
588,-496,12.3502,11.2964,0.0020868,0.00179899,-0.00168841,0.00363743,0.000248361,-0.742884,0.00234655,0.0155716,1812,1520,12.3502,-11.2964
595,-496,12.3468,11.015,0.00325238,0.00266085,-0.00245706,0.00543142,0.000481819,-0.7255,0.0034715,0.0166022,1819,1520,12.3468,-11.015
602,-496,12.3463,10.704,0.0041811,0.00334808,-0.00317695,0.00696873,0.000560449,-0.720218,0.00447073,0.0180701,1826,1520,12.3463,-10.704
609,-496,12.3507,10.4294,0.00497343,0.0039979,-0.00382491,0.00834155,0.000629782,-0.721979,0.00536344,0.0149524,1833,1520,12.3507,-10.4295
616,-496,12.3622,10.1116,0.00584406,0.00446656,-0.00442441,0.009633,0.000677611,-0.708183,0.00620847,0.0151299,1840,1520,12.3621,-10.1116
623,-496,12.3484,9.87134,0.00653499,0.00461207,-0.00477606,0.0104454,0.000701659,-0.686072,0.0067419,0.0286963,1847,1520,12.3484,-9.87133
630,-496,12.3798,9.64453,0,0,0,0,0,0,0,-1,1854,1520,12.3797,-9.64449
637,-496,12.0918,9.79541,0,0,0,0,0,0,0,-1,1861,1520,12.0917,-9.79537
644,-496,12.4537,10.087,0,0,0,0,0,0,0,-1,1868,1520,12.4537,-10.0871
651,-496,8.18506,5.47803,0,0,0,0,0,0,0,-1,1875,1520,8.18505,-5.47806
658,-496,7.79993,4.02563,0,0,0,0,0,0,0,-1,1882,1520,7.79997,-4.02568
665,-496,5.47583,7.90625,0,0,0,0,0,0,0,-1,1889,1520,5.47581,-7.90628
672,-496,0,0,0,0,0,0,0,0,0,-1,1896,1520,0,0
679,-496,0,0,0,0,0,0,0,0,0,-1,1903,1520,0,0
686,-496,0,0,0,0,0,0,0,0,0,-1,1910,1520,0,0
693,-496,0,0,0,0,0,0,0,0,0,-1,1917,1520,0,0
700,-496,0,0,0,0,0,0,0,0,0,-1,1924,1520,0,0
707,-496,0,0,0,0,0,0,0,0,0,-1,1931,1520,0,0
714,-496,0,0,0,0,0,0,0,0,0,-1,1938,1520,0,0
721,-496,0,0,0,0,0,0,0,0,0,-1,1945,1520,0,0
728,-496,0,0,0,0,0,0,0,0,0,-1,1952,1520,0,0
735,-496,0,0,0,0,0,0,0,0,0,-1,1959,1520,0,0
742,-496,0,0,0,0,0,0,0,0,0,-1,1966,1520,0,0
749,-496,0,0,0,0,0,0,0,0,0,-1,1973,1520,0,0
756,-496,0,0,0,0,0,0,0,0,0,-1,1980,1520,0,0
763,-496,0,0,0,0,0,0,0,0,0,-1,1987,1520,0,0
770,-496,0,0,0,0,0,0,0,0,0,-1,1994,1520,0,0
777,-496,0,0,0,0,0,0,0,0,0,-1,2001,1520,0,0
784,-496,0,0,0,0,0,0,0,0,0,-1,2008,1520,0,0
791,-496,0,0,0,0,0,0,0,0,0,-1,2015,1520,0,0
798,-496,0,0,0,0,0,0,0,0,0,-1,2022,1520,0,0
805,-496,0,0,0,0,0,0,0,0,0,-1,2029,1520,0,0
812,-496,0,0,0,0,0,0,0,0,0,-1,2036,1520,0,0
-700,-503,0,0,0,0,0,0,0,0,0,-1,524,1527,0,0
-693,-503,0,0,0,0,0,0,0,0,0,-1,531,1527,0,0
-686,-503,0,0,0,0,0,0,0,0,0,-1,538,1527,0,0
-679,-503,0,0,0,0,0,0,0,0,0,-1,545,1527,0,0
-672,-503,0,0,0,0,0,0,0,0,0,-1,552,1527,0,0
-665,-503,0,0,0,0,0,0,0,0,0,-1,559,1527,0,0
-658,-503,0,0,0,0,0,0,0,0,0,-1,566,1527,0,0
-651,-503,0,0,0,0,0,0,0,0,0,-1,573,1527,0,0
-644,-503,0,0,0,0,0,0,0,0,0,-1,580,1527,0,0
-637,-503,0,0,0,0,0,0,0,0,0,-1,587,1527,0,0
-630,-503,0,0,0,0,0,0,0,0,0,-1,594,1527,0,0
-623,-503,0,0,0,0,0,0,0,0,0,-1,601,1527,0,0
-616,-503,0,0,0,0,0,0,0,0,0,-1,608,1527,0,0
-609,-503,0,0,0,0,0,0,0,0,0,-1,615,1527,0,0
-602,-503,0,0,0,0,0,0,0,0,0,-1,622,1527,0,0
-595,-503,0,0,0,0,0,0,0,0,0,-1,629,1527,0,0
-588,-503,0,0,0,0,0,0,0,0,0,-1,636,1527,0,0
-581,-503,0,0,0,0,0,0,0,0,0,-1,643,1527,0,0
-574,-503,0,0,0,0,0,0,0,0,0,-1,650,1527,0,0
-567,-503,0,0,0,0,0,0,0,0,0,-1,657,1527,0,0
-560,-503,0,0,0,0,0,0,0,0,0,-1,664,1527,0,0
-553,-503,0,0,0,0,0,0,0,0,0,-1,671,1527,0,0
-546,-503,0,0,0,0,0,0,0,0,0,-1,678,1527,0,0
-539,-503,3.50177,4.26428,0,0,0,0,0,0,0,-1,685,1527,3.50177,-4.26424
-532,-503,-2.79034,3.39221,0,0,0,0,0,0,0,-1,692,1527,-2.79035,-3.39222
-525,-503,-4.22003,5.71729,0,0,0,0,0,0,0,-1,699,1527,-4.22006,-5.71727
-518,-503,-1.66791,4.74365,0,0,0,0,0,0,0,-1,706,1527,-1.66791,-4.74369
-511,-503,-1.66968,5.94714,0,0,0,0,0,0,0,-1,713,1527,-1.66965,-5.94711
-504,-503,-0.757324,4.72424,0,0,0,0,0,0,0,-1,720,1527,-0.757319,-4.72427
-497,-503,-1.69843,8.39185,0,0,0,0,0,0,0,-1,727,1527,-1.6984,-8.39186
-490,-503,-1.60602,8.52686,-0.00296682,0.0077535,0.0145775,0.017925,-0.0131384,0.961577,0.0180053,0.0475372,734,1527,-1.60602,-8.52682
-483,-503,-1.586,8.58765,-0.00277798,0.00544535,0.00897049,0.0112016,-0.00853422,1.00029,0.0114291,0.0377536,741,1527,-1.58599,-8.58769
-476,-503,-1.64984,8.77917,-0.00245739,0.00382781,0.0049332,0.00653434,-0.00516393,1.069,0.00676943,0.0195198,748,1527,-1.64983,-8.77923
-469,-503,-1.73022,9.05505,-0.00203546,0.00277024,0.00295889,0.00417904,-0.00344426,1.12643,0.00440813,0.0105998,755,1527,-1.7302,-9.05503
-462,-503,-1.73401,9.38831,-0.00136567,0.00147651,0.00112352,0.00186699,-0.00175615,1.2363,0.00209215,0.0118236,762,1527,-1.73403,-9.38836
-455,-503,-1.73187,9.71167,-0.000604849,0.00102367,0.00024542,0.00105985,-0.00064103,1.42442,0.000991876,0.0173745,769,1527,-1.73189,-9.71165
-448,-503,-1.72412,10.0363,0.000351529,0.000594064,0.000366987,0.000859301,8.62925e-05,0.94497,0.000546379,0.0163536,776,1527,-1.72414,-10.0363
-441,-503,-1.72253,10.3093,0.00132398,0.000365249,0.000481203,0.00152384,0.000165389,0.393656,0.000965497,0.0128008,783,1527,-1.72254,-10.3094
-434,-503,-1.74744,10.5999,0.00211638,5.40297e-05,0.000623498,0.00229022,-0.000119815,0.271916,0.00156828,0.0104521,790,1527,-1.74741,-10.5999
-427,-503,-1.76904,10.8967,0.00286045,-0.000683919,0.00056351,0.00294788,-0.000771353,0.153933,0.00226655,0.0163626,797,1527,-1.76906,-10.8967
-420,-503,-1.74115,11.2272,0.00366106,-0.00117053,0.000535597,0.00371972,-0.00122919,0.109089,0.00297542,0.0175856,804,1527,-1.74113,-11.2272
-413,-503,-1.74982,11.5286,0.00441826,-0.00169762,0.000528665,0.00446362,-0.00174298,0.0855954,0.00369636,0.0144295,811,1527,-1.74984,-11.5286
-406,-503,-1.74164,11.8334,0.0048835,-0.00220064,0.000554917,0.0049267,-0.00224384,0.0777007,0.0042354,0.0164791,818,1527,-1.74165,-11.8334
-399,-503,-1.61896,12.233,0.00525824,-0.00294049,0.000578988,0.00529893,-0.00298118,0.0701552,0.00484255,0.0262705,825,1527,-1.61896,-12.233
-392,-503,-1.38721,12.7429,0,0,0,0,0,0,0,-1,832,1527,-1.38721,-12.743
-385,-503,-1.7171,12.8878,0,0,0,0,0,0,0,-1,839,1527,-1.7171,-12.8879
-378,-503,-1.54352,13.0159,0,0,0,0,0,0,0,-1,846,1527,-1.54353,-13.0159
-371,-503,-1.78925,13.6216,0,0,0,0,0,0,0,-1,853,1527,-1.78927,-13.6216
-364,-503,0.181396,12.3768,0,0,0,0,0,0,0,-1,860,1527,0.18138,-12.3768
-357,-503,0.558533,9.25452,0,0,0,0,0,0,0,-1,867,1527,0.558542,-9.25446
-350,-503,0.219971,6.84827,0,0,0,0,0,0,0,-1,874,1527,0.21996,-6.84831
-343,-503,-3.5802,4.43274,0,0,0,0,0,0,0,-1,881,1527,-3.58018,-4.43276
-336,-503,-3.2384,6.40637,0,0,0,0,0,0,0,-1,888,1527,-3.2384,-6.40643
-329,-503,-1.70691,11.886,0,0,0,0,0,0,0,-1,895,1527,-1.70689,-11.886
-322,-503,-3.31317,8.81519,0,0,0,0,0,0,0,-1,902,1527,-3.31315,-8.81524
-315,-503,-3.90265,7.73853,0,0,0,0,0,0,0,-1,909,1527,-3.90264,-7.73854
-308,-503,-4.07373,7.47705,0,0,0,0,0,0,0,-1,916,1527,-4.07372,-7.47704
-301,-503,0,0,0,0,0,0,0,0,0,-1,923,1527,0,0
-294,-503,0,0,0,0,0,0,0,0,0,-1,930,1527,0,0
-287,-503,0,0,0,0,0,0,0,0,0,-1,937,1527,0,0
-280,-503,0,0,0,0,0,0,0,0,0,-1,944,1527,0,0
-273,-503,0,0,0,0,0,0,0,0,0,-1,951,1527,0,0
-266,-503,0,0,0,0,0,0,0,0,0,-1,958,1527,0,0
-259,-503,0,0,0,0,0,0,0,0,0,-1,965,1527,0,0
-252,-503,0,0,0,0,0,0,0,0,0,-1,972,1527,0,0
-245,-503,0,0,0,0,0,0,0,0,0,-1,979,1527,0,0
-238,-503,0,0,0,0,0,0,0,0,0,-1,986,1527,0,0
-231,-503,0,0,0,0,0,0,0,0,0,-1,993,1527,0,0
-224,-503,0,0,0,0,0,0,0,0,0,-1,1000,1527,0,0
-217,-503,0,0,0,0,0,0,0,0,0,-1,1007,1527,0,0
-210,-503,0,0,0,0,0,0,0,0,0,-1,1014,1527,0,0
-203,-503,0,0,0,0,0,0,0,0,0,-1,1021,1527,0,0
-196,-503,0,0,0,0,0,0,0,0,0,-1,1028,1527,0,0
-189,-503,0,0,0,0,0,0,0,0,0,-1,1035,1527,0,0
-182,-503,0,0,0,0,0,0,0,0,0,-1,1042,1527,0,0
-175,-503,0,0,0,0,0,0,0,0,0,-1,1049,1527,0,0
-168,-503,0,0,0,0,0,0,0,0,0,-1,1056,1527,0,0
-161,-503,0,0,0,0,0,0,0,0,0,-1,1063,1527,0,0
-154,-503,0,0,0,0,0,0,0,0,0,-1,1070,1527,0,0
-147,-503,0,0,0,0,0,0,0,0,0,-1,1077,1527,0,0
-140,-503,0,0,0,0,0,0,0,0,0,-1,1084,1527,0,0
-133,-503,0,0,0,0,0,0,0,0,0,-1,1091,1527,0,0
-126,-503,0,0,0,0,0,0,0,0,0,-1,1098,1527,0,0
-119,-503,0,0,0,0,0,0,0,0,0,-1,1105,1527,0,0
-112,-503,0,0,0,0,0,0,0,0,0,-1,1112,1527,0,0
-105,-503,0,0,0,0,0,0,0,0,0,-1,1119,1527,0,0
-98,-503,0,0,0,0,0,0,0,0,0,-1,1126,1527,0,0
-91,-503,0,0,0,0,0,0,0,0,0,-1,1133,1527,0,0
-84,-503,0,0,0,0,0,0,0,0,0,-1,1140,1527,0,0
-77,-503,0,0,0,0,0,0,0,0,0,-1,1147,1527,0,0
-70,-503,0,0,0,0,0,0,0,0,0,-1,1154,1527,0,0
-63,-503,0,0,0,0,0,0,0,0,0,-1,1161,1527,0,0
-56,-503,0,0,0,0,0,0,0,0,0,-1,1168,1527,0,0
-49,-503,0,0,0,0,0,0,0,0,0,-1,1175,1527,0,0
-42,-503,0,0,0,0,0,0,0,0,0,-1,1182,1527,0,0
-35,-503,0,0,0,0,0,0,0,0,0,-1,1189,1527,0,0
-28,-503,0,0,0,0,0,0,0,0,0,-1,1196,1527,0,0
-21,-503,0,0,0,0,0,0,0,0,0,-1,1203,1527,0,0
-14,-503,0,0,0,0,0,0,0,0,0,-1,1210,1527,0,0
-7,-503,0,0,0,0,0,0,0,0,0,-1,1217,1527,0,0
0,-503,0,0,0,0,0,0,0,0,0,-1,1224,1527,0,0
7,-503,0,0,0,0,0,0,0,0,0,-1,1231,1527,0,0
14,-503,0,0,0,0,0,0,0,0,0,-1,1238,1527,0,0
21,-503,0,0,0,0,0,0,0,0,0,-1,1245,1527,0,0
28,-503,0,0,0,0,0,0,0,0,0,-1,1252,1527,0,0
35,-503,0,0,0,0,0,0,0,0,0,-1,1259,1527,0,0
42,-503,0,0,0,0,0,0,0,0,0,-1,1266,1527,0,0
49,-503,0,0,0,0,0,0,0,0,0,-1,1273,1527,0,0
56,-503,0,0,0,0,0,0,0,0,0,-1,1280,1527,0,0
63,-503,0,0,0,0,0,0,0,0,0,-1,1287,1527,0,0
70,-503,0,0,0,0,0,0,0,0,0,-1,1294,1527,0,0
77,-503,0,0,0,0,0,0,0,0,0,-1,1301,1527,0,0
84,-503,0,0,0,0,0,0,0,0,0,-1,1308,1527,0,0
91,-503,0,0,0,0,0,0,0,0,0,-1,1315,1527,0,0
98,-503,0,0,0,0,0,0,0,0,0,-1,1322,1527,0,0
105,-503,0,0,0,0,0,0,0,0,0,-1,1329,1527,0,0
112,-503,0,0,0,0,0,0,0,0,0,-1,1336,1527,0,0
119,-503,0,0,0,0,0,0,0,0,0,-1,1343,1527,0,0
126,-503,0,0,0,0,0,0,0,0,0,-1,1350,1527,0,0
133,-503,0,0,0,0,0,0,0,0,0,-1,1357,1527,0,0
140,-503,0,0,0,0,0,0,0,0,0,-1,1364,1527,0,0
147,-503,0,0,0,0,0,0,0,0,0,-1,1371,1527,0,0
154,-503,0,0,0,0,0,0,0,0,0,-1,1378,1527,0,0
161,-503,0,0,0,0,0,0,0,0,0,-1,1385,1527,0,0
168,-503,0,0,0,0,0,0,0,0,0,-1,1392,1527,0,0
175,-503,0,0,0,0,0,0,0,0,0,-1,1399,1527,0,0
182,-503,0,0,0,0,0,0,0,0,0,-1,1406,1527,0,0
189,-503,0,0,0,0,0,0,0,0,0,-1,1413,1527,0,0
196,-503,0,0,0,0,0,0,0,0,0,-1,1420,1527,0,0
203,-503,0,0,0,0,0,0,0,0,0,-1,1427,1527,0,0
210,-503,0,0,0,0,0,0,0,0,0,-1,1434,1527,0,0
217,-503,0,0,0,0,0,0,0,0,0,-1,1441,1527,0,0
224,-503,0,0,0,0,0,0,0,0,0,-1,1448,1527,0,0
231,-503,0,0,0,0,0,0,0,0,0,-1,1455,1527,0,0
238,-503,0,0,0,0,0,0,0,0,0,-1,1462,1527,0,0
245,-503,0,0,0,0,0,0,0,0,0,-1,1469,1527,0,0
252,-503,0,0,0,0,0,0,0,0,0,-1,1476,1527,0,0
259,-503,0,0,0,0,0,0,0,0,0,-1,1483,1527,0,0
266,-503,0,0,0,0,0,0,0,0,0,-1,1490,1527,0,0
273,-503,0,0,0,0,0,0,0,0,0,-1,1497,1527,0,0
280,-503,0,0,0,0,0,0,0,0,0,-1,1504,1527,0,0
287,-503,0,0,0,0,0,0,0,0,0,-1,1511,1527,0,0
294,-503,0,0,0,0,0,0,0,0,0,-1,1518,1527,0,0
301,-503,0,0,0,0,0,0,0,0,0,-1,1525,1527,0,0
308,-503,0,0,0,0,0,0,0,0,0,-1,1532,1527,0,0
315,-503,0,0,0,0,0,0,0,0,0,-1,1539,1527,0,0
322,-503,0,0,0,0,0,0,0,0,0,-1,1546,1527,0,0
329,-503,0,0,0,0,0,0,0,0,0,-1,1553,1527,0,0
336,-503,0,0,0,0,0,0,0,0,0,-1,1560,1527,0,0
343,-503,0,0,0,0,0,0,0,0,0,-1,1567,1527,0,0
350,-503,0,0,0,0,0,0,0,0,0,-1,1574,1527,0,0
357,-503,0,0,0,0,0,0,0,0,0,-1,1581,1527,0,0
364,-503,0,0,0,0,0,0,0,0,0,-1,1588,1527,0,0
371,-503,0,0,0,0,0,0,0,0,0,-1,1595,1527,0,0
378,-503,0,0,0,0,0,0,0,0,0,-1,1602,1527,0,0
385,-503,0,0,0,0,0,0,0,0,0,-1,1609,1527,0,0
392,-503,0,0,0,0,0,0,0,0,0,-1,1616,1527,0,0
399,-503,0,0,0,0,0,0,0,0,0,-1,1623,1527,0,0
406,-503,0,0,0,0,0,0,0,0,0,-1,1630,1527,0,0
413,-503,0,0,0,0,0,0,0,0,0,-1,1637,1527,0,0
420,-503,0,0,0,0,0,0,0,0,0,-1,1644,1527,0,0
427,-503,10.5968,4.9856,0,0,0,0,0,0,0,-1,1651,1527,10.5969,-4.98563
434,-503,11.4329,3.97217,0,0,0,0,0,0,0,-1,1658,1527,11.4328,-3.97222
441,-503,12.0957,2.96509,0,0,0,0,0,0,0,-1,1665,1527,12.0957,-2.96512
448,-503,12.3259,2.53894,0,0,0,0,0,0,0,-1,1672,1527,12.326,-2.53895
455,-503,12.1669,2.18762,0,0,0,0,0,0,0,-1,1679,1527,12.1668,-2.18767
462,-503,11.59,2.60791,0,0,0,0,0,0,0,-1,1686,1527,11.5899,-2.60794
469,-503,11.1625,1.61853,0,0,0,0,0,0,0,-1,1693,1527,11.1625,-1.61856
476,-503,9.07703,5.81042,0,0,0,0,0,0,0,-1,1700,1527,9.07699,-5.81047
483,-503,9.74414,6.92432,0,0,0,0,0,0,0,-1,1707,1527,9.74417,-6.9243
490,-503,10.5033,10.1071,0,0,0,0,0,0,0,-1,1714,1527,10.5032,-10.107
497,-503,12.741,12.1066,0,0,0,0,0,0,0,-1,1721,1527,12.741,-12.1065
504,-503,13.9758,13.2078,0,0,0,0,0,0,0,-1,1728,1527,13.9759,-13.2078
511,-503,13.3693,13.6798,-0.0551549,0.00293741,0.0465278,0.0287412,-0.0809587,1.06444,0.0656835,0.0442767,1735,1527,13.3693,-13.6798
518,-503,12.6965,13.91,0,0,0,0,0,0,0,-1,1742,1527,12.6966,-13.91
525,-503,12.1471,13.6807,-0.0340149,0.00247998,0.0268153,0.0166676,-0.0482025,1.08415,0.0388999,0.0402371,1749,1527,12.1471,-13.6806
532,-503,12.0569,13.5203,-0.0257021,0.00190621,0.0194326,0.0119386,-0.0357345,1.09422,0.0286442,0.0147881,1756,1527,12.0569,-13.5203
539,-503,12.0833,13.2158,-0.0188639,0.00095433,0.0137873,0.00802404,-0.0259336,1.09699,0.0204942,0.0117685,1763,1527,12.0833,-13.2158
546,-503,12.0648,12.9406,-0.013305,0.000417554,0.00938681,0.00518336,-0.0180708,1.101,0.0140963,0.0112178,1770,1527,12.0648,-12.9405
553,-503,12.0784,12.6812,-0.00888344,0.00012178,0.0060756,0.00318134,-0.011943,1.10429,0.00920751,0.0138255,1777,1527,12.0784,-12.6811
560,-503,12.0774,12.3942,-0.0053623,0.000432866,0.00335037,0.00196484,-0.00689427,1.14193,0.00537226,0.0140025,1784,1527,12.0774,-12.3942
567,-503,12.0734,12.1028,-0.0020712,0.000573286,0.000903503,0.000852494,-0.00235041,1.27108,0.00191542,0.0126653,1791,1527,12.0734,-12.1028
574,-503,12.0802,11.8339,0.000217267,0.001031,-0.000625045,0.00136994,-0.000121668,-1.07392,0.000956432,0.0123897,1798,1527,12.0802,-11.8338
581,-503,12.0525,11.5621,0.00171566,0.00198729,-0.00159866,0.00345589,0.000247058,-0.827773,0.00222615,0.0130048,1805,1527,12.0525,-11.5621
588,-503,12.0466,11.2944,0.00316407,0.00295735,-0.00263631,0.00569904,0.000422376,-0.765805,0.00366669,0.0156393,1812,1527,12.0466,-11.2944
595,-503,12.0557,10.9987,0.00435437,0.00386873,-0.00354291,0.00766277,0.000560321,-0.751183,0.00493236,0.0116448,1819,1527,12.0556,-10.9986
602,-503,12.0966,10.7063,0.005534,0.00471934,-0.00447065,0.00961584,0.000637503,-0.739967,0.00620898,0.014431,1826,1527,12.0965,-10.7063
609,-503,12.1462,10.4017,0.00672134,0.00557036,-0.0053798,0.0115563,0.000735358,-0.732114,0.00747119,0.0231016,1833,1527,12.1462,-10.4017
616,-503,12.0372,10.2325,0.0080853,0.00629896,-0.00632512,0.01358,0.000804256,-0.715257,0.00879751,0.0224525,1840,1527,12.0372,-10.2326
623,-503,12.1412,9.87085,0.00947428,0.00693304,-0.00713799,0.0154539,0.000953464,-0.697317,0.00999991,0.0375473,1847,1527,12.1412,-9.87088
630,-503,12.3594,9.54663,0,0,0,0,0,0,0,-1,1854,1527,12.3594,-9.54661
637,-503,14.5564,9.20496,0,0,0,0,0,0,0,-1,1861,1527,14.5564,-9.2049
644,-503,11.4802,7.57214,0,0,0,0,0,0,0,-1,1868,1527,11.4802,-7.57215
651,-503,11.5718,6.5448,0,0,0,0,0,0,0,-1,1875,1527,11.5718,-6.54476
658,-503,8.25635,3.10498,0,0,0,0,0,0,0,-1,1882,1527,8.2563,-3.10493
665,-503,0,0,0,0,0,0,0,0,0,-1,1889,1527,0,0
672,-503,0,0,0,0,0,0,0,0,0,-1,1896,1527,0,0
679,-503,0,0,0,0,0,0,0,0,0,-1,1903,1527,0,0
686,-503,0,0,0,0,0,0,0,0,0,-1,1910,1527,0,0
693,-503,0,0,0,0,0,0,0,0,0,-1,1917,1527,0,0
700,-503,0,0,0,0,0,0,0,0,0,-1,1924,1527,0,0
707,-503,0,0,0,0,0,0,0,0,0,-1,1931,1527,0,0
714,-503,0,0,0,0,0,0,0,0,0,-1,1938,1527,0,0
721,-503,0,0,0,0,0,0,0,0,0,-1,1945,1527,0,0
728,-503,0,0,0,0,0,0,0,0,0,-1,1952,1527,0,0
735,-503,0,0,0,0,0,0,0,0,0,-1,1959,1527,0,0
742,-503,0,0,0,0,0,0,0,0,0,-1,1966,1527,0,0
749,-503,0,0,0,0,0,0,0,0,0,-1,1973,1527,0,0
756,-503,0,0,0,0,0,0,0,0,0,-1,1980,1527,0,0
763,-503,0,0,0,0,0,0,0,0,0,-1,1987,1527,0,0
770,-503,0,0,0,0,0,0,0,0,0,-1,1994,1527,0,0
777,-503,0,0,0,0,0,0,0,0,0,-1,2001,1527,0,0
784,-503,0,0,0,0,0,0,0,0,0,-1,2008,1527,0,0
791,-503,0,0,0,0,0,0,0,0,0,-1,2015,1527,0,0
798,-503,0,0,0,0,0,0,0,0,0,-1,2022,1527,0,0
805,-503,0,0,0,0,0,0,0,0,0,-1,2029,1527,0,0
812,-503,0,0,0,0,0,0,0,0,0,-1,2036,1527,0,0
-700,-510,0,0,0,0,0,0,0,0,0,-1,524,1534,0,0
-693,-510,0,0,0,0,0,0,0,0,0,-1,531,1534,0,0
-686,-510,0,0,0,0,0,0,0,0,0,-1,538,1534,0,0
-679,-510,0,0,0,0,0,0,0,0,0,-1,545,1534,0,0
-672,-510,0,0,0,0,0,0,0,0,0,-1,552,1534,0,0
-665,-510,0,0,0,0,0,0,0,0,0,-1,559,1534,0,0
-658,-510,0,0,0,0,0,0,0,0,0,-1,566,1534,0,0
-651,-510,0,0,0,0,0,0,0,0,0,-1,573,1534,0,0
-644,-510,0,0,0,0,0,0,0,0,0,-1,580,1534,0,0
-637,-510,0,0,0,0,0,0,0,0,0,-1,587,1534,0,0
-630,-510,0,0,0,0,0,0,0,0,0,-1,594,1534,0,0
-623,-510,0,0,0,0,0,0,0,0,0,-1,601,1534,0,0
-616,-510,0,0,0,0,0,0,0,0,0,-1,608,1534,0,0
-609,-510,0,0,0,0,0,0,0,0,0,-1,615,1534,0,0
-602,-510,0,0,0,0,0,0,0,0,0,-1,622,1534,0,0
-595,-510,0,0,0,0,0,0,0,0,0,-1,629,1534,0,0
-588,-510,0,0,0,0,0,0,0,0,0,-1,636,1534,0,0
-581,-510,0,0,0,0,0,0,0,0,0,-1,643,1534,0,0
-574,-510,0,0,0,0,0,0,0,0,0,-1,650,1534,0,0
-567,-510,0,0,0,0,0,0,0,0,0,-1,657,1534,0,0
-560,-510,0,0,0,0,0,0,0,0,0,-1,664,1534,0,0
-553,-510,0,0,0,0,0,0,0,0,0,-1,671,1534,0,0
-546,-510,0,0,0,0,0,0,0,0,0,-1,678,1534,0,0
-539,-510,0,0,0,0,0,0,0,0,0,-1,685,1534,0,0
-532,-510,2.29291,4.35352,0,0,0,0,0,0,0,-1,692,1534,2.29289,-4.35348
-525,-510,-2.76245,5.60095,0,0,0,0,0,0,0,-1,699,1534,-2.76244,-5.60094
-518,-510,-2.302,5.00061,0,0,0,0,0,0,0,-1,706,1534,-2.30202,-5.00055
-511,-510,-1.84161,4.40015,0,0,0,0,0,0,0,-1,713,1534,-1.8416,-4.40017
-504,-510,-0.332153,3.54688,0,0,0,0,0,0,0,-1,720,1534,-0.332171,-3.54682
-497,-510,-1.30609,8.43018,0,0,0,0,0,0,0,-1,727,1534,-1.30607,-8.43016
-490,-510,-1.05505,8.45203,-0.00414779,0.00952245,0.0161843,0.0202558,-0.0148811,0.985202,0.0203652,0.0439294,734,1534,-1.05507,-8.45203
-483,-510,-0.956848,8.45459,-0.00357011,0.00691849,0.00998169,0.0129497,-0.00960131,1.02728,0.0130676,0.039232,741,1534,-0.956822,-8.45453
-476,-510,-1.2121,8.69031,-0.00280655,0.00502621,0.00560601,0.00794835,-0.0057287,1.09029,0.00793103,0.030222,748,1534,-1.21212,-8.69025
-469,-510,-1.39722,9.07227,-0.00229386,0.00377258,0.0035141,0.00538149,-0.00390277,1.14144,0.00538288,0.0130254,755,1534,-1.3972,-9.07231
-462,-510,-1.427,9.37683,-0.00174081,0.00241113,0.00157585,0.00294149,-0.00227116,1.24615,0.00301781,0.0116669,762,1534,-1.42702,-9.37685
-455,-510,-1.43835,9.70374,-0.00107769,0.001843,0.000658858,0.00198475,-0.00121943,1.35888,0.00186744,0.0134625,769,1534,-1.43836,-9.70374
-448,-510,-1.41656,10.0325,-0.000217928,0.00132493,0.000738728,0.00162159,-0.000514593,1.18892,0.00128734,0.0124992,776,1534,-1.41657,-10.0325
-441,-510,-1.43469,10.3315,0.000646506,0.00103377,0.000813079,0.00167596,4.3207e-06,0.902294,0.00111587,0.0130458,783,1534,-1.43472,-10.3316
-434,-510,-1.47308,10.6077,0.00132584,0.000707876,0.000970878,0.00203572,-2.0013e-06,0.631341,0.00135781,0.0135179,790,1534,-1.47311,-10.6077
-427,-510,-1.45337,10.889,0.00197634,-1.7722e-05,0.000905174,0.00232594,-0.00036732,0.368573,0.00168645,0.0205259,797,1534,-1.45339,-10.889
-420,-510,-1.43909,11.2198,0.0026766,-0.000374407,0.000870102,0.0029073,-0.000605103,0.259174,0.00216823,0.0207736,804,1534,-1.43906,-11.2198
-413,-510,-1.44751,11.5352,0.00332219,-0.000768592,0.00088994,0.00350741,-0.00095381,0.205195,0.00271269,0.0107746,811,1534,-1.4475,-11.5352
-406,-510,-1.45984,11.8361,0.00373707,-0.00110182,0.000929284,0.0039094,-0.00127415,0.183358,0.00311897,0.0101464,818,1534,-1.45981,-11.8361
-399,-510,-1.4585,12.1216,0.00401545,-0.00150312,0.000956715,0.0041766,-0.00166428,0.166877,0.00347466,0.011938,825,1534,-1.45852,-12.1216
-392,-510,-1.33942,12.5294,0.00424075,-0.00139112,0.000739852,0.00433632,-0.00148669,0.128465,0.00349353,0.0285312,832,1534,-1.33941,-12.5294
-385,-510,-1.38251,12.7833,0.00386799,-0.000512082,0.000215751,0.00387859,-0.000522684,0.0490989,0.00277641,0.0475409,839,1534,-1.38251,-12.7833
-378,-510,-1.50964,12.6716,0.00274585,0.0025753,-0.00119269,0.00385631,0.00146484,-0.74971,0.00224776,0.0436456,846,1534,-1.50967,-12.6716
-371,-510,-1.53503,13.2505,0,0,0,0,0,0,0,-1,853,1534,-1.53502,-13.2505
-364,-510,-1.35846,13.7904,0,0,0,0,0,0,0,-1,860,1534,-1.35844,-13.7904
-357,-510,-0.254395,8.89575,0,0,0,0,0,0,0,-1,867,1534,-0.254397,-8.89569
-350,-510,0.471191,6.06458,0,0,0,0,0,0,0,-1,874,1534,0.47118,-6.06453
-343,-510,-2.94617,5.00989,0,0,0,0,0,0,0,-1,881,1534,-2.94615,-5.00992
-336,-510,-1.92963,11.3776,0,0,0,0,0,0,0,-1,888,1534,-1.92962,-11.3775
-329,-510,-1.71991,15.4904,0,0,0,0,0,0,0,-1,895,1534,-1.71993,-15.4904
-322,-510,-0.251526,11.973,0,0,0,0,0,0,0,-1,902,1534,-0.251497,-11.9731
-315,-510,-1.73047,10.9796,0,0,0,0,0,0,0,-1,909,1534,-1.73049,-10.9796
-308,-510,-2.05328,9.72034,0,0,0,0,0,0,0,-1,916,1534,-2.05327,-9.72036
-301,-510,-1.90485,11.145,0,0,0,0,0,0,0,-1,923,1534,-1.90486,-11.1451
-294,-510,0,0,0,0,0,0,0,0,0,-1,930,1534,0,0
-287,-510,0,0,0,0,0,0,0,0,0,-1,937,1534,0,0
-280,-510,0,0,0,0,0,0,0,0,0,-1,944,1534,0,0
-273,-510,0,0,0,0,0,0,0,0,0,-1,951,1534,0,0
-266,-510,0,0,0,0,0,0,0,0,0,-1,958,1534,0,0
-259,-510,0,0,0,0,0,0,0,0,0,-1,965,1534,0,0
-252,-510,0,0,0,0,0,0,0,0,0,-1,972,1534,0,0
-245,-510,0,0,0,0,0,0,0,0,0,-1,979,1534,0,0
-238,-510,0,0,0,0,0,0,0,0,0,-1,986,1534,0,0
-231,-510,0,0,0,0,0,0,0,0,0,-1,993,1534,0,0
-224,-510,0,0,0,0,0,0,0,0,0,-1,1000,1534,0,0
-217,-510,0,0,0,0,0,0,0,0,0,-1,1007,1534,0,0
-210,-510,0,0,0,0,0,0,0,0,0,-1,1014,1534,0,0
-203,-510,0,0,0,0,0,0,0,0,0,-1,1021,1534,0,0
-196,-510,0,0,0,0,0,0,0,0,0,-1,1028,1534,0,0
-189,-510,0,0,0,0,0,0,0,0,0,-1,1035,1534,0,0
-182,-510,0,0,0,0,0,0,0,0,0,-1,1042,1534,0,0
-175,-510,0,0,0,0,0,0,0,0,0,-1,1049,1534,0,0
-168,-510,0,0,0,0,0,0,0,0,0,-1,1056,1534,0,0
-161,-510,0,0,0,0,0,0,0,0,0,-1,1063,1534,0,0
-154,-510,0,0,0,0,0,0,0,0,0,-1,1070,1534,0,0
-147,-510,0,0,0,0,0,0,0,0,0,-1,1077,1534,0,0
-140,-510,0,0,0,0,0,0,0,0,0,-1,1084,1534,0,0
-133,-510,0,0,0,0,0,0,0,0,0,-1,1091,1534,0,0
-126,-510,0,0,0,0,0,0,0,0,0,-1,1098,1534,0,0
-119,-510,0,0,0,0,0,0,0,0,0,-1,1105,1534,0,0
-112,-510,0,0,0,0,0,0,0,0,0,-1,1112,1534,0,0
-105,-510,0,0,0,0,0,0,0,0,0,-1,1119,1534,0,0
-98,-510,0,0,0,0,0,0,0,0,0,-1,1126,1534,0,0
-91,-510,0,0,0,0,0,0,0,0,0,-1,1133,1534,0,0
-84,-510,0,0,0,0,0,0,0,0,0,-1,1140,1534,0,0
-77,-510,0,0,0,0,0,0,0,0,0,-1,1147,1534,0,0
-70,-510,0,0,0,0,0,0,0,0,0,-1,1154,1534,0,0
-63,-510,0,0,0,0,0,0,0,0,0,-1,1161,1534,0,0
-56,-510,0,0,0,0,0,0,0,0,0,-1,1168,1534,0,0
-49,-510,0,0,0,0,0,0,0,0,0,-1,1175,1534,0,0
-42,-510,0,0,0,0,0,0,0,0,0,-1,1182,1534,0,0
-35,-510,0,0,0,0,0,0,0,0,0,-1,1189,1534,0,0
-28,-510,0,0,0,0,0,0,0,0,0,-1,1196,1534,0,0
-21,-510,0,0,0,0,0,0,0,0,0,-1,1203,1534,0,0
-14,-510,0,0,0,0,0,0,0,0,0,-1,1210,1534,0,0
-7,-510,0,0,0,0,0,0,0,0,0,-1,1217,1534,0,0
0,-510,0,0,0,0,0,0,0,0,0,-1,1224,1534,0,0
7,-510,0,0,0,0,0,0,0,0,0,-1,1231,1534,0,0
14,-510,0,0,0,0,0,0,0,0,0,-1,1238,1534,0,0
21,-510,0,0,0,0,0,0,0,0,0,-1,1245,1534,0,0
28,-510,0,0,0,0,0,0,0,0,0,-1,1252,1534,0,0
35,-510,0,0,0,0,0,0,0,0,0,-1,1259,1534,0,0
42,-510,0,0,0,0,0,0,0,0,0,-1,1266,1534,0,0
49,-510,0,0,0,0,0,0,0,0,0,-1,1273,1534,0,0
56,-510,0,0,0,0,0,0,0,0,0,-1,1280,1534,0,0
63,-510,0,0,0,0,0,0,0,0,0,-1,1287,1534,0,0
70,-510,0,0,0,0,0,0,0,0,0,-1,1294,1534,0,0
77,-510,0,0,0,0,0,0,0,0,0,-1,1301,1534,0,0
84,-510,0,0,0,0,0,0,0,0,0,-1,1308,1534,0,0
91,-510,0,0,0,0,0,0,0,0,0,-1,1315,1534,0,0
98,-510,0,0,0,0,0,0,0,0,0,-1,1322,1534,0,0
105,-510,0,0,0,0,0,0,0,0,0,-1,1329,1534,0,0
112,-510,0,0,0,0,0,0,0,0,0,-1,1336,1534,0,0
119,-510,0,0,0,0,0,0,0,0,0,-1,1343,1534,0,0
126,-510,0,0,0,0,0,0,0,0,0,-1,1350,1534,0,0
133,-510,0,0,0,0,0,0,0,0,0,-1,1357,1534,0,0
140,-510,0,0,0,0,0,0,0,0,0,-1,1364,1534,0,0
147,-510,0,0,0,0,0,0,0,0,0,-1,1371,1534,0,0
154,-510,0,0,0,0,0,0,0,0,0,-1,1378,1534,0,0
161,-510,0,0,0,0,0,0,0,0,0,-1,1385,1534,0,0
168,-510,0,0,0,0,0,0,0,0,0,-1,1392,1534,0,0
175,-510,0,0,0,0,0,0,0,0,0,-1,1399,1534,0,0
182,-510,0,0,0,0,0,0,0,0,0,-1,1406,1534,0,0
189,-510,0,0,0,0,0,0,0,0,0,-1,1413,1534,0,0
196,-510,0,0,0,0,0,0,0,0,0,-1,1420,1534,0,0
203,-510,0,0,0,0,0,0,0,0,0,-1,1427,1534,0,0
210,-510,0,0,0,0,0,0,0,0,0,-1,1434,1534,0,0
217,-510,0,0,0,0,0,0,0,0,0,-1,1441,1534,0,0
224,-510,0,0,0,0,0,0,0,0,0,-1,1448,1534,0,0
231,-510,0,0,0,0,0,0,0,0,0,-1,1455,1534,0,0
238,-510,0,0,0,0,0,0,0,0,0,-1,1462,1534,0,0
245,-510,0,0,0,0,0,0,0,0,0,-1,1469,1534,0,0
252,-510,0,0,0,0,0,0,0,0,0,-1,1476,1534,0,0
259,-510,0,0,0,0,0,0,0,0,0,-1,1483,1534,0,0
266,-510,0,0,0,0,0,0,0,0,0,-1,1490,1534,0,0
273,-510,0,0,0,0,0,0,0,0,0,-1,1497,1534,0,0
280,-510,0,0,0,0,0,0,0,0,0,-1,1504,1534,0,0
287,-510,0,0,0,0,0,0,0,0,0,-1,1511,1534,0,0
294,-510,0,0,0,0,0,0,0,0,0,-1,1518,1534,0,0
301,-510,0,0,0,0,0,0,0,0,0,-1,1525,1534,0,0
308,-510,0,0,0,0,0,0,0,0,0,-1,1532,1534,0,0
315,-510,0,0,0,0,0,0,0,0,0,-1,1539,1534,0,0
322,-510,0,0,0,0,0,0,0,0,0,-1,1546,1534,0,0
329,-510,0,0,0,0,0,0,0,0,0,-1,1553,1534,0,0
336,-510,0,0,0,0,0,0,0,0,0,-1,1560,1534,0,0
343,-510,0,0,0,0,0,0,0,0,0,-1,1567,1534,0,0
350,-510,0,0,0,0,0,0,0,0,0,-1,1574,1534,0,0
357,-510,0,0,0,0,0,0,0,0,0,-1,1581,1534,0,0
364,-510,0,0,0,0,0,0,0,0,0,-1,1588,1534,0,0
371,-510,0,0,0,0,0,0,0,0,0,-1,1595,1534,0,0
378,-510,0,0,0,0,0,0,0,0,0,-1,1602,1534,0,0
385,-510,0,0,0,0,0,0,0,0,0,-1,1609,1534,0,0
392,-510,0,0,0,0,0,0,0,0,0,-1,1616,1534,0,0
399,-510,0,0,0,0,0,0,0,0,0,-1,1623,1534,0,0
406,-510,0,0,0,0,0,0,0,0,0,-1,1630,1534,0,0
413,-510,0,0,0,0,0,0,0,0,0,-1,1637,1534,0,0
420,-510,13.1918,5.99402,0,0,0,0,0,0,0,-1,1644,1534,13.1917,-5.994
427,-510,10.9799,5.12341,0,0,0,0,0,0,0,-1,1651,1534,10.9798,-5.12337
434,-510,11.8219,4.07898,0,0,0,0,0,0,0,-1,1658,1534,11.8219,-4.07895
441,-510,12.6812,3.02991,0,0,0,0,0,0,0,-1,1665,1534,12.6811,-3.0299
448,-510,13.2379,2.2804,0,0,0,0,0,0,0,-1,1672,1534,13.2379,-2.28037
455,-510,9.76892,2.20642,0,0,0,0,0,0,0,-1,1679,1534,9.76894,-2.20647
462,-510,9.84692,2.49182,0,0,0,0,0,0,0,-1,1686,1534,9.84695,-2.49185
469,-510,16.6072,7.26941,0,0,0,0,0,0,0,-1,1693,1534,16.6072,-7.26945
476,-510,15.9199,7.8645,0,0,0,0,0,0,0,-1,1700,1534,15.9199,-7.86455
483,-510,13.0833,8.10938,0,0,0,0,0,0,0,-1,1707,1534,13.0833,-8.10932
490,-510,11.5723,12.587,0,0,0,0,0,0,0,-1,1714,1534,11.5723,-12.587
497,-510,12.9191,14.1566,0,0,0,0,0,0,0,-1,1721,1534,12.9191,-14.1566
504,-510,12.2893,14.2805,0,0,0,0,0,0,0,-1,1728,1534,12.2893,-14.2806
511,-510,12.552,13.8713,0,0,0,0,0,0,0,-1,1735,1534,12.552,-13.8713
518,-510,11.6908,14.2931,0,0,0,0,0,0,0,-1,1742,1534,11.6908,-14.2931
525,-510,11.8018,13.8204,-0.0245967,0.00161796,0.020172,0.012567,-0.0355458,1.07351,0.0288147,0.0233621,1749,1534,11.8017,-13.8204
532,-510,11.8167,13.4902,-0.0184136,0.00165805,0.0144495,0.009215,-0.0259705,1.08893,0.0210682,0.0126246,1756,1534,11.8167,-13.4902
539,-510,11.8295,13.1844,-0.0133372,0.00108822,0.0101222,0.00630461,-0.0185536,1.09495,0.0149214,0.011734,1763,1534,11.8294,-13.1844
546,-510,11.7993,12.9358,-0.00915259,0.000799762,0.00669144,0.00416252,-0.0125153,1.10511,0.0100234,0.0109894,1770,1534,11.7993,-12.9358
553,-510,11.821,12.67,-0.00575483,0.000645399,0.00406503,0.00261879,-0.00772822,1.11885,0.00621189,0.0123685,1777,1534,11.821,-12.6701
560,-510,11.8087,12.3721,-0.00292678,0.00110527,0.00177413,0.00177474,-0.00359625,1.20996,0.00315982,0.0131022,1784,1534,11.8087,-12.3721
567,-510,11.792,12.0823,-0.000339275,0.00137343,-0.000196858,0.00139577,-0.000361611,-1.45782,0.00107158,0.0125667,1791,1534,11.792,-12.0823
574,-510,11.7798,11.8387,0.00153056,0.00199944,-0.00150334,0.00328651,0.000243489,-0.862747,0.00211452,0.0132863,1798,1534,11.7797,-11.8388
581,-510,11.7594,11.5787,0.00297142,0.00301073,-0.00254561,0.00553676,0.00044539,-0.789258,0.00355203,0.0120047,1805,1534,11.7594,-11.5787
588,-510,11.7681,11.2902,0.00431374,0.00411431,-0.00364789,0.00786328,0.00056477,-0.771734,0.00506444,0.0126189,1812,1534,11.768,-11.2901
595,-510,11.8497,10.947,0.00562362,0.00523176,-0.00482289,0.0102546,0.00060082,-0.765097,0.00664515,0.0137717,1819,1534,11.8498,-10.947
602,-510,11.8125,10.611,0.00717417,0.0064337,-0.00611644,0.0129316,0.0006763,-0.755169,0.00840468,0.0315217,1826,1534,11.8125,-10.6109
609,-510,11.7556,10.4878,0.00891236,0.00771703,-0.00744592,0.0157846,0.000844825,-0.74535,0.010253,0.0411448,1833,1534,11.7557,-10.4878
616,-510,11.8015,10.1873,0.0110131,0.00896186,-0.00893525,0.0189814,0.000993555,-0.728257,0.0123364,0.0464438,1840,1534,11.8015,-10.1873
623,-510,11.6274,9.7627,0,0,0,0,0,0,0,-1,1847,1534,11.6275,-9.76265
630,-510,12.7377,9.59253,0,0,0,0,0,0,0,-1,1854,1534,12.7376,-9.59259
637,-510,11.0155,7.38464,0,0,0,0,0,0,0,-1,1861,1534,11.0155,-7.38463
644,-510,11.5809,7.17126,0,0,0,0,0,0,0,-1,1868,1534,11.5809,-7.17123
651,-510,8.70471,3.5061,0,0,0,0,0,0,0,-1,1875,1534,8.70475,-3.50611
658,-510,0,0,0,0,0,0,0,0,0,-1,1882,1534,0,0
665,-510,0,0,0,0,0,0,0,0,0,-1,1889,1534,0,0
672,-510,0,0,0,0,0,0,0,0,0,-1,1896,1534,0,0
679,-510,0,0,0,0,0,0,0,0,0,-1,1903,1534,0,0
686,-510,0,0,0,0,0,0,0,0,0,-1,1910,1534,0,0
693,-510,0,0,0,0,0,0,0,0,0,-1,1917,1534,0,0
700,-510,0,0,0,0,0,0,0,0,0,-1,1924,1534,0,0
707,-510,0,0,0,0,0,0,0,0,0,-1,1931,1534,0,0
714,-510,0,0,0,0,0,0,0,0,0,-1,1938,1534,0,0
721,-510,0,0,0,0,0,0,0,0,0,-1,1945,1534,0,0
728,-510,0,0,0,0,0,0,0,0,0,-1,1952,1534,0,0
735,-510,0,0,0,0,0,0,0,0,0,-1,1959,1534,0,0
742,-510,0,0,0,0,0,0,0,0,0,-1,1966,1534,0,0
749,-510,0,0,0,0,0,0,0,0,0,-1,1973,1534,0,0
756,-510,0,0,0,0,0,0,0,0,0,-1,1980,1534,0,0
763,-510,0,0,0,0,0,0,0,0,0,-1,1987,1534,0,0
770,-510,0,0,0,0,0,0,0,0,0,-1,1994,1534,0,0
777,-510,0,0,0,0,0,0,0,0,0,-1,2001,1534,0,0
784,-510,0,0,0,0,0,0,0,0,0,-1,2008,1534,0,0
791,-510,0,0,0,0,0,0,0,0,0,-1,2015,1534,0,0
798,-510,0,0,0,0,0,0,0,0,0,-1,2022,1534,0,0
805,-510,0,0,0,0,0,0,0,0,0,-1,2029,1534,0,0
812,-510,0,0,0,0,0,0,0,0,0,-1,2036,1534,0,0
-700,-517,0,0,0,0,0,0,0,0,0,-1,524,1541,0,0
-693,-517,0,0,0,0,0,0,0,0,0,-1,531,1541,0,0
-686,-517,0,0,0,0,0,0,0,0,0,-1,538,1541,0,0
-679,-517,0,0,0,0,0,0,0,0,0,-1,545,1541,0,0
-672,-517,0,0,0,0,0,0,0,0,0,-1,552,1541,0,0
-665,-517,0,0,0,0,0,0,0,0,0,-1,559,1541,0,0
-658,-517,0,0,0,0,0,0,0,0,0,-1,566,1541,0,0
-651,-517,0,0,0,0,0,0,0,0,0,-1,573,1541,0,0
-644,-517,0,0,0,0,0,0,0,0,0,-1,580,1541,0,0
-637,-517,0,0,0,0,0,0,0,0,0,-1,587,1541,0,0
-630,-517,0,0,0,0,0,0,0,0,0,-1,594,1541,0,0
-623,-517,0,0,0,0,0,0,0,0,0,-1,601,1541,0,0
-616,-517,0,0,0,0,0,0,0,0,0,-1,608,1541,0,0
-609,-517,0,0,0,0,0,0,0,0,0,-1,615,1541,0,0
-602,-517,0,0,0,0,0,0,0,0,0,-1,622,1541,0,0
-595,-517,0,0,0,0,0,0,0,0,0,-1,629,1541,0,0
-588,-517,0,0,0,0,0,0,0,0,0,-1,636,1541,0,0
-581,-517,0,0,0,0,0,0,0,0,0,-1,643,1541,0,0
-574,-517,0,0,0,0,0,0,0,0,0,-1,650,1541,0,0
-567,-517,0,0,0,0,0,0,0,0,0,-1,657,1541,0,0
-560,-517,0,0,0,0,0,0,0,0,0,-1,664,1541,0,0
-553,-517,0,0,0,0,0,0,0,0,0,-1,671,1541,0,0
-546,-517,0,0,0,0,0,0,0,0,0,-1,678,1541,0,0
-539,-517,0,0,0,0,0,0,0,0,0,-1,685,1541,0,0
-532,-517,0,0,0,0,0,0,0,0,0,-1,692,1541,0,0
-525,-517,0.467896,4.35828,0,0,0,0,0,0,0,-1,699,1541,0.467905,-4.35823
-518,-517,-2.71826,4.89087,0,0,0,0,0,0,0,-1,706,1541,-2.71826,-4.89084
-511,-517,-2.72321,2.45251,0,0,0,0,0,0,0,-1,713,1541,-2.72323,-2.45249
-504,-517,-0.883362,4.79858,0,0,0,0,0,0,0,-1,720,1541,-0.88337,-4.79854
-497,-517,-1.92352,6.87708,0,0,0,0,0,0,0,-1,727,1541,-1.92353,-6.87706
-490,-517,-0.332031,8.1283,0,0,0,0,0,0,0,-1,734,1541,-0.332039,-8.12831
-483,-517,-0.938904,8.12439,-0.0031074,0.00876206,0.0113622,0.0156461,-0.00999144,1.02607,0.0149214,0.0407755,741,1541,-0.938881,-8.12439
-476,-517,-0.930054,8.65002,-0.00248465,0.00654756,0.00666411,0.0100816,-0.00601874,1.08319,0.0093937,0.0351238,748,1541,-0.930056,-8.65007
-469,-517,-1.03638,9.06653,-0.00213244,0.00509312,0.00438421,0.00716132,-0.00420064,1.13001,0.00663365,0.0157133,755,1541,-1.03635,-9.06653
-462,-517,-1.12677,9.38489,-0.00172589,0.00367268,0.0023337,0.00454163,-0.00259484,1.21435,0.00417103,0.0159719,762,1541,-1.12678,-9.38484
-455,-517,-1.14172,9.72266,-0.00116718,0.00294245,0.00134707,0.00334463,-0.00156936,1.28066,0.00289816,0.0126714,769,1541,-1.14171,-9.72262
-448,-517,-1.12708,10.0337,-0.000433958,0.00227256,0.00130238,0.00279746,-0.000958861,1.18768,0.00225365,0.012195,776,1541,-1.1271,-10.0337
-441,-517,-1.15216,10.334,0.000296504,0.00184417,0.00125424,0.00254408,-0.00040341,1.0618,0.00184528,0.0117895,783,1541,-1.15218,-10.334
-434,-517,-1.16327,10.6125,0.000841706,0.00142844,0.00133573,0.00250264,-0.000232497,0.893496,0.00175108,0.0143132,790,1541,-1.16324,-10.6125
-427,-517,-1.14502,10.9004,0.00136313,0.000661957,0.00117991,0.00224344,-0.000218345,0.640986,0.00157346,0.0136381,797,1541,-1.14504,-10.9004
-420,-517,-1.14368,11.2207,0.0019018,0.000346151,0.00105184,0.00243217,-0.000184224,0.467029,0.00168622,0.0195637,804,1541,-1.1437,-11.2208
-413,-517,-1.14673,11.5216,0.00236533,-2.69206e-05,0.0010162,0.00273873,-0.000400311,0.352124,0.00197284,0.010411,811,1541,-1.14671,-11.5216
-406,-517,-1.17285,11.8207,0.00267168,-0.000331996,0.000982054,0.00296427,-0.000624579,0.289556,0.00221394,0.0104192,818,1541,-1.17288,-11.8206
-399,-517,-1.17603,12.1284,0.0027781,-0.000575145,0.000937302,0.00302231,-0.000819355,0.254879,0.00233638,0.0101781,825,1541,-1.17605,-12.1284
-392,-517,-1.14832,12.4347,0.00282572,-0.000327871,0.000740852,0.00299109,-0.000493242,0.219618,0.00217718,0.0124733,832,1541,-1.14832,-12.4347
-385,-517,-1.07996,12.8678,0.00248372,0.000688018,0.000308094,0.00253511,0.000636628,0.165278,0.00152288,0.0229203,839,1541,-1.07995,-12.8678
-378,-517,-1.15143,13.032,0.00158213,0.0036365,-0.000836271,0.00393387,0.00128475,-1.22915,0.00231631,0.0480956,846,1541,-1.15141,-13.032
-371,-517,-1.19727,13.0964,0,0,0,0,0,0,0,-1,853,1541,-1.19725,-13.0964
-364,-517,-1.26245,12.6289,0,0,0,0,0,0,0,-1,860,1541,-1.26243,-12.6289
-357,-517,-1.23889,12.979,0,0,0,0,0,0,0,-1,867,1541,-1.23891,-12.979
-350,-517,0.722412,10.0829,0,0,0,0,0,0,0,-1,874,1541,0.722399,-10.0828
-343,-517,-2.56708,6.12415,0,0,0,0,0,0,0,-1,881,1541,-2.56708,-6.12418
-336,-517,-1.68445,14.682,0,0,0,0,0,0,0,-1,888,1541,-1.68444,-14.682
-329,-517,-1.24451,14.97,0,0,0,0,0,0,0,-1,895,1541,-1.24454,-14.9699
-322,-517,-0.804626,15.2579,0,0,0,0,0,0,0,-1,902,1541,-0.804628,-15.2579
-315,-517,-0.987976,7.29749,0,0,0,0,0,0,0,-1,909,1541,-0.987993,-7.29743
-308,-517,3.27911,17.621,0,0,0,0,0,0,0,-1,916,1541,3.27913,-17.621
-301,-517,-1.69141,8.87488,0,0,0,0,0,0,0,-1,923,1541,-1.69141,-8.87485
-294,-517,-1.72583,9.92566,0,0,0,0,0,0,0,-1,930,1541,-1.72584,-9.92571
-287,-517,-2.77466,11.749,0,0,0,0,0,0,0,-1,937,1541,-2.77467,-11.749
-280,-517,0,0,0,0,0,0,0,0,0,-1,944,1541,0,0
-273,-517,0,0,0,0,0,0,0,0,0,-1,951,1541,0,0
-266,-517,0,0,0,0,0,0,0,0,0,-1,958,1541,0,0
-259,-517,0,0,0,0,0,0,0,0,0,-1,965,1541,0,0
-252,-517,0,0,0,0,0,0,0,0,0,-1,972,1541,0,0
-245,-517,0,0,0,0,0,0,0,0,0,-1,979,1541,0,0
-238,-517,0,0,0,0,0,0,0,0,0,-1,986,1541,0,0
-231,-517,0,0,0,0,0,0,0,0,0,-1,993,1541,0,0
-224,-517,0,0,0,0,0,0,0,0,0,-1,1000,1541,0,0
-217,-517,0,0,0,0,0,0,0,0,0,-1,1007,1541,0,0
-210,-517,0,0,0,0,0,0,0,0,0,-1,1014,1541,0,0
-203,-517,0,0,0,0,0,0,0,0,0,-1,1021,1541,0,0
-196,-517,0,0,0,0,0,0,0,0,0,-1,1028,1541,0,0
-189,-517,0,0,0,0,0,0,0,0,0,-1,1035,1541,0,0
-182,-517,0,0,0,0,0,0,0,0,0,-1,1042,1541,0,0
-175,-517,0,0,0,0,0,0,0,0,0,-1,1049,1541,0,0
-168,-517,0,0,0,0,0,0,0,0,0,-1,1056,1541,0,0
-161,-517,0,0,0,0,0,0,0,0,0,-1,1063,1541,0,0
-154,-517,0,0,0,0,0,0,0,0,0,-1,1070,1541,0,0
-147,-517,0,0,0,0,0,0,0,0,0,-1,1077,1541,0,0
-140,-517,0,0,0,0,0,0,0,0,0,-1,1084,1541,0,0
-133,-517,0,0,0,0,0,0,0,0,0,-1,1091,1541,0,0
-126,-517,0,0,0,0,0,0,0,0,0,-1,1098,1541,0,0
-119,-517,0,0,0,0,0,0,0,0,0,-1,1105,1541,0,0
-112,-517,0,0,0,0,0,0,0,0,0,-1,1112,1541,0,0
-105,-517,0,0,0,0,0,0,0,0,0,-1,1119,1541,0,0
-98,-517,0,0,0,0,0,0,0,0,0,-1,1126,1541,0,0
-91,-517,0,0,0,0,0,0,0,0,0,-1,1133,1541,0,0
-84,-517,0,0,0,0,0,0,0,0,0,-1,1140,1541,0,0
-77,-517,0,0,0,0,0,0,0,0,0,-1,1147,1541,0,0
-70,-517,0,0,0,0,0,0,0,0,0,-1,1154,1541,0,0
-63,-517,0,0,0,0,0,0,0,0,0,-1,1161,1541,0,0
-56,-517,0,0,0,0,0,0,0,0,0,-1,1168,1541,0,0
-49,-517,0,0,0,0,0,0,0,0,0,-1,1175,1541,0,0
-42,-517,0,0,0,0,0,0,0,0,0,-1,1182,1541,0,0
-35,-517,0,0,0,0,0,0,0,0,0,-1,1189,1541,0,0
-28,-517,0,0,0,0,0,0,0,0,0,-1,1196,1541,0,0
-21,-517,0,0,0,0,0,0,0,0,0,-1,1203,1541,0,0
-14,-517,0,0,0,0,0,0,0,0,0,-1,1210,1541,0,0
-7,-517,0,0,0,0,0,0,0,0,0,-1,1217,1541,0,0
0,-517,0,0,0,0,0,0,0,0,0,-1,1224,1541,0,0
7,-517,0,0,0,0,0,0,0,0,0,-1,1231,1541,0,0
14,-517,0,0,0,0,0,0,0,0,0,-1,1238,1541,0,0
21,-517,0,0,0,0,0,0,0,0,0,-1,1245,1541,0,0
28,-517,0,0,0,0,0,0,0,0,0,-1,1252,1541,0,0
35,-517,0,0,0,0,0,0,0,0,0,-1,1259,1541,0,0
42,-517,0,0,0,0,0,0,0,0,0,-1,1266,1541,0,0
49,-517,0,0,0,0,0,0,0,0,0,-1,1273,1541,0,0
56,-517,0,0,0,0,0,0,0,0,0,-1,1280,1541,0,0
63,-517,0,0,0,0,0,0,0,0,0,-1,1287,1541,0,0
70,-517,0,0,0,0,0,0,0,0,0,-1,1294,1541,0,0
77,-517,0,0,0,0,0,0,0,0,0,-1,1301,1541,0,0
84,-517,0,0,0,0,0,0,0,0,0,-1,1308,1541,0,0
91,-517,0,0,0,0,0,0,0,0,0,-1,1315,1541,0,0
98,-517,0,0,0,0,0,0,0,0,0,-1,1322,1541,0,0
105,-517,0,0,0,0,0,0,0,0,0,-1,1329,1541,0,0
112,-517,0,0,0,0,0,0,0,0,0,-1,1336,1541,0,0
119,-517,0,0,0,0,0,0,0,0,0,-1,1343,1541,0,0
126,-517,0,0,0,0,0,0,0,0,0,-1,1350,1541,0,0
133,-517,0,0,0,0,0,0,0,0,0,-1,1357,1541,0,0
140,-517,0,0,0,0,0,0,0,0,0,-1,1364,1541,0,0
147,-517,0,0,0,0,0,0,0,0,0,-1,1371,1541,0,0
154,-517,0,0,0,0,0,0,0,0,0,-1,1378,1541,0,0
161,-517,0,0,0,0,0,0,0,0,0,-1,1385,1541,0,0
168,-517,0,0,0,0,0,0,0,0,0,-1,1392,1541,0,0
175,-517,0,0,0,0,0,0,0,0,0,-1,1399,1541,0,0
182,-517,0,0,0,0,0,0,0,0,0,-1,1406,1541,0,0
189,-517,0,0,0,0,0,0,0,0,0,-1,1413,1541,0,0
196,-517,0,0,0,0,0,0,0,0,0,-1,1420,1541,0,0
203,-517,0,0,0,0,0,0,0,0,0,-1,1427,1541,0,0
210,-517,0,0,0,0,0,0,0,0,0,-1,1434,1541,0,0
217,-517,0,0,0,0,0,0,0,0,0,-1,1441,1541,0,0
224,-517,0,0,0,0,0,0,0,0,0,-1,1448,1541,0,0
231,-517,0,0,0,0,0,0,0,0,0,-1,1455,1541,0,0
238,-517,0,0,0,0,0,0,0,0,0,-1,1462,1541,0,0
245,-517,0,0,0,0,0,0,0,0,0,-1,1469,1541,0,0
252,-517,0,0,0,0,0,0,0,0,0,-1,1476,1541,0,0
259,-517,0,0,0,0,0,0,0,0,0,-1,1483,1541,0,0
266,-517,0,0,0,0,0,0,0,0,0,-1,1490,1541,0,0
273,-517,0,0,0,0,0,0,0,0,0,-1,1497,1541,0,0
280,-517,0,0,0,0,0,0,0,0,0,-1,1504,1541,0,0
287,-517,0,0,0,0,0,0,0,0,0,-1,1511,1541,0,0
294,-517,0,0,0,0,0,0,0,0,0,-1,1518,1541,0,0
301,-517,0,0,0,0,0,0,0,0,0,-1,1525,1541,0,0
308,-517,0,0,0,0,0,0,0,0,0,-1,1532,1541,0,0
315,-517,0,0,0,0,0,0,0,0,0,-1,1539,1541,0,0
322,-517,0,0,0,0,0,0,0,0,0,-1,1546,1541,0,0
329,-517,0,0,0,0,0,0,0,0,0,-1,1553,1541,0,0
336,-517,0,0,0,0,0,0,0,0,0,-1,1560,1541,0,0
343,-517,0,0,0,0,0,0,0,0,0,-1,1567,1541,0,0
350,-517,0,0,0,0,0,0,0,0,0,-1,1574,1541,0,0
357,-517,0,0,0,0,0,0,0,0,0,-1,1581,1541,0,0
364,-517,0,0,0,0,0,0,0,0,0,-1,1588,1541,0,0
371,-517,0,0,0,0,0,0,0,0,0,-1,1595,1541,0,0
378,-517,0,0,0,0,0,0,0,0,0,-1,1602,1541,0,0
385,-517,0,0,0,0,0,0,0,0,0,-1,1609,1541,0,0
392,-517,0,0,0,0,0,0,0,0,0,-1,1616,1541,0,0
399,-517,0,0,0,0,0,0,0,0,0,-1,1623,1541,0,0
406,-517,13.1395,7.01978,0,0,0,0,0,0,0,-1,1630,1541,13.1396,-7.01981
413,-517,12.2695,6.3324,0,0,0,0,0,0,0,-1,1637,1541,12.2696,-6.33243
420,-517,12.4789,6.20337,0,0,0,0,0,0,0,-1,1644,1541,12.4789,-6.20333
427,-517,11.647,4.66516,0,0,0,0,0,0,0,-1,1651,1541,11.647,-4.66519
434,-517,12.3719,3.92773,0,0,0,0,0,0,0,-1,1658,1541,12.3719,-3.92776
441,-517,13.146,3.14124,0,0,0,0,0,0,0,-1,1665,1541,13.146,-3.14121
448,-517,13.8861,2.36682,0,0,0,0,0,0,0,-1,1672,1541,13.8861,-2.36684
455,-517,13.6012,4.06335,0,0,0,0,0,0,0,-1,1679,1541,13.6012,-4.06335
462,-517,14.8956,7.0752,0,0,0,0,0,0,0,-1,1686,1541,14.8956,-7.07525
469,-517,13.6292,6.87744,0,0,0,0,0,0,0,-1,1693,1541,13.6292,-6.87739
476,-517,13.1489,8.24768,0,0,0,0,0,0,0,-1,1700,1541,13.1489,-8.2477
483,-517,12.7778,10.7142,0,0,0,0,0,0,0,-1,1707,1541,12.7779,-10.7143
490,-517,12.53,14.2421,0,0,0,0,0,0,0,-1,1714,1541,12.53,-14.2421
497,-517,12.2866,14.3258,0,0,0,0,0,0,0,-1,1721,1541,12.2866,-14.3258
504,-517,11.8253,14.3445,-0.0354388,-0.00364666,0.0330464,0.0171281,-0.0562135,1.00957,0.0443028,0.041801,1728,1541,11.8253,-14.3444
511,-517,11.739,14.5573,-0.0284912,-0.00145887,0.0260389,0.0143629,-0.0443129,1.02479,0.0353169,0.048494,1735,1541,11.739,-14.5573
518,-517,11.4916,14.1149,-0.0224438,-1.03461e-05,0.0199466,0.011657,-0.0341112,1.04153,0.0274639,0.032732,1742,1541,11.4916,-14.1149
525,-517,11.4911,13.7539,-0.017182,0.000958552,0.0146901,0.00915291,-0.0253764,1.06197,0.020656,0.0134663,1749,1541,11.4911,-13.7539
532,-517,11.5504,13.4478,-0.0126681,0.00139473,0.0102933,0.006829,-0.0181023,1.08505,0.0148765,0.010911,1756,1541,11.5504,-13.4477
539,-517,11.5692,13.1814,-0.00898263,0.00109025,0.00702645,0.00469885,-0.0125912,1.09635,0.0103233,0.0110402,1763,1541,11.5692,-13.1814
546,-517,11.5453,12.9346,-0.00588829,0.000982685,0.00438451,0.00311734,-0.00802295,1.11771,0.00663646,0.0112015,1770,1541,11.5452,-12.9346
553,-517,11.542,12.6538,-0.00329204,0.000946989,0.00230648,0.00195992,-0.00430497,1.15699,0.00370054,0.0151585,1777,1541,11.542,-12.6538
560,-517,11.5559,12.3776,-0.000981971,0.00154255,0.000371751,0.00159616,-0.00103558,1.42759,0.00153088,0.0158518,1784,1541,11.556,-12.3775
567,-517,11.5295,12.1128,0.00104024,0.00197399,-0.00118999,0.00278542,0.000228813,-0.972338,0.00178557,0.0132904,1791,1541,11.5295,-12.1128
574,-517,11.5198,11.8408,0.0026139,0.00282241,-0.00233474,0.00505522,0.000381086,-0.80771,0.00325057,0.0140038,1798,1541,11.5198,-11.8408
581,-517,11.5012,11.5703,0.00410788,0.00395992,-0.00348983,0.00752451,0.000543287,-0.774801,0.00484541,0.0156062,1805,1541,11.5013,-11.5703
588,-517,11.5065,11.2872,0.00548562,0.00529215,-0.0047196,0.0101095,0.00066829,-0.775152,0.0065283,0.0164118,1812,1541,11.5065,-11.2873
595,-517,11.5414,10.9961,0.00703903,0.00675136,-0.00624883,0.0131457,0.000644714,-0.773891,0.00855698,0.0236814,1819,1541,11.5414,-10.9961
602,-517,11.3988,10.6538,0.00907154,0.00845685,-0.00802502,0.0167951,0.000733286,-0.766258,0.0109605,0.0299118,1826,1541,11.3988,-10.6538
609,-517,11.9847,9.93323,0.0115069,0.0104701,-0.0100223,0.0210242,0.000952765,-0.759559,0.0137096,0.0476058,1833,1541,11.9847,-9.93322
616,-517,11.6266,10.027,0,0,0,0,0,0,0,-1,1840,1541,11.6265,-10.027
623,-517,12.7413,8.25098,0,0,0,0,0,0,0,-1,1847,1541,12.7413,-8.25096
630,-517,11.7035,7.47815,0,0,0,0,0,0,0,-1,1854,1541,11.7035,-7.47812
637,-517,11.5172,5.79822,0,0,0,0,0,0,0,-1,1861,1541,11.5173,-5.79825
644,-517,11.4232,3.30579,0,0,0,0,0,0,0,-1,1868,1541,11.4232,-3.30574
651,-517,0,0,0,0,0,0,0,0,0,-1,1875,1541,0,0
658,-517,0,0,0,0,0,0,0,0,0,-1,1882,1541,0,0
665,-517,0,0,0,0,0,0,0,0,0,-1,1889,1541,0,0
672,-517,0,0,0,0,0,0,0,0,0,-1,1896,1541,0,0
679,-517,0,0,0,0,0,0,0,0,0,-1,1903,1541,0,0
686,-517,0,0,0,0,0,0,0,0,0,-1,1910,1541,0,0
693,-517,0,0,0,0,0,0,0,0,0,-1,1917,1541,0,0
700,-517,0,0,0,0,0,0,0,0,0,-1,1924,1541,0,0
707,-517,0,0,0,0,0,0,0,0,0,-1,1931,1541,0,0
714,-517,0,0,0,0,0,0,0,0,0,-1,1938,1541,0,0
721,-517,0,0,0,0,0,0,0,0,0,-1,1945,1541,0,0
728,-517,0,0,0,0,0,0,0,0,0,-1,1952,1541,0,0
735,-517,0,0,0,0,0,0,0,0,0,-1,1959,1541,0,0
742,-517,0,0,0,0,0,0,0,0,0,-1,1966,1541,0,0
749,-517,0,0,0,0,0,0,0,0,0,-1,1973,1541,0,0
756,-517,0,0,0,0,0,0,0,0,0,-1,1980,1541,0,0
763,-517,0,0,0,0,0,0,0,0,0,-1,1987,1541,0,0
770,-517,0,0,0,0,0,0,0,0,0,-1,1994,1541,0,0
777,-517,0,0,0,0,0,0,0,0,0,-1,2001,1541,0,0
784,-517,0,0,0,0,0,0,0,0,0,-1,2008,1541,0,0
791,-517,0,0,0,0,0,0,0,0,0,-1,2015,1541,0,0
798,-517,0,0,0,0,0,0,0,0,0,-1,2022,1541,0,0
805,-517,0,0,0,0,0,0,0,0,0,-1,2029,1541,0,0
812,-517,0,0,0,0,0,0,0,0,0,-1,2036,1541,0,0
-700,-524,0,0,0,0,0,0,0,0,0,-1,524,1548,0,0
-693,-524,0,0,0,0,0,0,0,0,0,-1,531,1548,0,0
-686,-524,0,0,0,0,0,0,0,0,0,-1,538,1548,0,0
-679,-524,0,0,0,0,0,0,0,0,0,-1,545,1548,0,0
-672,-524,0,0,0,0,0,0,0,0,0,-1,552,1548,0,0
-665,-524,0,0,0,0,0,0,0,0,0,-1,559,1548,0,0
-658,-524,0,0,0,0,0,0,0,0,0,-1,566,1548,0,0
-651,-524,0,0,0,0,0,0,0,0,0,-1,573,1548,0,0
-644,-524,0,0,0,0,0,0,0,0,0,-1,580,1548,0,0
-637,-524,0,0,0,0,0,0,0,0,0,-1,587,1548,0,0
-630,-524,0,0,0,0,0,0,0,0,0,-1,594,1548,0,0
-623,-524,0,0,0,0,0,0,0,0,0,-1,601,1548,0,0
-616,-524,0,0,0,0,0,0,0,0,0,-1,608,1548,0,0
-609,-524,0,0,0,0,0,0,0,0,0,-1,615,1548,0,0
-602,-524,0,0,0,0,0,0,0,0,0,-1,622,1548,0,0
-595,-524,0,0,0,0,0,0,0,0,0,-1,629,1548,0,0
-588,-524,0,0,0,0,0,0,0,0,0,-1,636,1548,0,0
-581,-524,0,0,0,0,0,0,0,0,0,-1,643,1548,0,0
-574,-524,0,0,0,0,0,0,0,0,0,-1,650,1548,0,0
-567,-524,0,0,0,0,0,0,0,0,0,-1,657,1548,0,0
-560,-524,0,0,0,0,0,0,0,0,0,-1,664,1548,0,0
-553,-524,0,0,0,0,0,0,0,0,0,-1,671,1548,0,0
-546,-524,0,0,0,0,0,0,0,0,0,-1,678,1548,0,0
-539,-524,0,0,0,0,0,0,0,0,0,-1,685,1548,0,0
-532,-524,0,0,0,0,0,0,0,0,0,-1,692,1548,0,0
-525,-524,-0.215515,3.97131,0,0,0,0,0,0,0,-1,699,1548,-0.215501,-3.97136
-518,-524,-0.806274,4.35632,0,0,0,0,0,0,0,-1,706,1548,-0.806259,-4.35633
-511,-524,-1.08301,4.29004,0,0,0,0,0,0,0,-1,713,1548,-1.08301,-4.29006
-504,-524,-1.28821,3.98145,0,0,0,0,0,0,0,-1,720,1548,-1.28822,-3.98151
-497,-524,-1.87958,8.23486,0,0,0,0,0,0,0,-1,727,1548,-1.8796,-8.23486
-490,-524,-1.54034,8.422,0,0,0,0,0,0,0,-1,734,1548,-1.54037,-8.42195
-483,-524,-0.999939,8.47034,0,0,0,0,0,0,0,-1,741,1548,-0.999935,-8.47038
-476,-524,-0.915771,8.92383,-0.00183905,0.00860341,0.00796685,0.0129075,-0.00614315,1.07547,0.0112276,0.0406192,748,1548,-0.915766,-8.92387
-469,-524,-0.744507,9.12317,-0.00166045,0.00698432,0.00553626,0.00968569,-0.00436182,1.11684,0.00830222,0.0308007,755,1548,-0.744506,-9.12318
-462,-524,-0.722473,9.41956,-0.00143872,0.00546287,0.00338698,0.00684733,-0.00282317,1.18276,0.00574214,0.0249719,762,1548,-0.722444,-9.4195
-455,-524,-0.844299,9.74719,-0.00100566,0.00450511,0.00232409,0.00535439,-0.00185494,1.22045,0.00432267,0.0186623,769,1548,-0.844281,-9.74721
-448,-524,-0.823242,10.0461,-0.000408745,0.0036116,0.00208388,0.00449683,-0.00129397,1.1691,0.00350965,0.0131332,776,1548,-0.823212,-10.0461
-441,-524,-0.852905,10.3407,0.000191381,0.00296709,0.001852,0.00389354,-0.000735074,1.10695,0.00287225,0.0109986,783,1548,-0.852915,-10.3407
-434,-524,-0.846802,10.6243,0.000625757,0.00238237,0.0018009,0.00350773,-0.000499601,1.01228,0.00252157,0.0125456,790,1548,-0.846772,-10.6243
-427,-524,-0.840454,10.9063,0.00104582,0.00151869,0.00151705,0.00281762,-0.000253104,0.862701,0.00196821,0.0128337,797,1548,-0.840474,-10.9063
-420,-524,-0.84906,11.2251,0.00145478,0.00114676,0.00126967,0.00257974,2.1801e-05,0.725043,0.00171261,0.011082,804,1548,-0.849091,-11.2251
-413,-524,-0.84845,11.5333,0.00178278,0.000689412,0.00115518,0.00251411,-4.19166e-05,0.564391,0.00169022,0.0107234,811,1548,-0.848472,-11.5333
-406,-524,-0.85437,11.8235,0.00204602,0.000295312,0.00102532,0.00251882,-0.000177491,0.432069,0.00174139,0.0118263,818,1548,-0.854389,-11.8235
-399,-524,-0.863953,12.1211,0.0020471,6.32381e-05,0.000893719,0.00239033,-0.000279994,0.36668,0.00169462,0.00933124,825,1548,-0.863955,-12.1211
-392,-524,-0.867432,12.413,0.00199415,0.000273385,0.000687557,0.00223512,3.24073e-05,0.337105,0.0014794,0.01007,832,1548,-0.867406,-12.413
-385,-524,-0.873657,12.7238,0.00171045,0.00124369,0.000283698,0.00184442,0.00110971,0.441202,0.00107219,0.0125528,839,1548,-0.873643,-12.7238
-378,-524,-0.803528,13.1799,0.000993873,0.00390643,-0.000681972,0.00405821,0.000842099,-1.35181,0.00247303,0.0286005,846,1548,-0.8035,-13.1799
-371,-524,-0.722717,13.61,0,0,0,0,0,0,0,-1,853,1548,-0.722715,-13.6099
-364,-524,-0.627563,13.7065,0,0,0,0,0,0,0,-1,860,1548,-0.627593,-13.7066
-357,-524,-1.00153,13.0575,0,0,0,0,0,0,0,-1,867,1548,-1.00154,-13.0575
-350,-524,-1.18591,11.6433,0,0,0,0,0,0,0,-1,874,1548,-1.18592,-11.6433
-343,-524,-1.2887,6.94836,0,0,0,0,0,0,0,-1,881,1548,-1.28868,-6.94831
-336,-524,-1.2804,14.3673,0,0,0,0,0,0,0,-1,888,1548,-1.28038,-14.3672
-329,-524,-0.890564,14.5449,0,0,0,0,0,0,0,-1,895,1548,-0.890581,-14.5449
-322,-524,-0.500793,14.7225,0,0,0,0,0,0,0,-1,902,1548,-0.500781,-14.7225
-315,-524,2.60687,16.2994,0,0,0,0,0,0,0,-1,909,1548,2.60687,-16.2994
-308,-524,2.01422,16.7813,0,0,0,0,0,0,0,-1,916,1548,2.01424,-16.7812
-301,-524,2.72394,17.7618,0,0,0,0,0,0,0,-1,923,1548,2.72396,-17.7619
-294,-524,-1.52515,9.05408,0,0,0,0,0,0,0,-1,930,1548,-1.52512,-9.05411
-287,-524,-1.52618,9.99182,0,0,0,0,0,0,0,-1,937,1548,-1.52619,-9.99178
-280,-524,-1.6156,10.4597,0,0,0,0,0,0,0,-1,944,1548,-1.6156,-10.4597
-273,-524,0,0,0,0,0,0,0,0,0,-1,951,1548,0,0
-266,-524,0,0,0,0,0,0,0,0,0,-1,958,1548,0,0
-259,-524,0,0,0,0,0,0,0,0,0,-1,965,1548,0,0
-252,-524,0,0,0,0,0,0,0,0,0,-1,972,1548,0,0
-245,-524,0,0,0,0,0,0,0,0,0,-1,979,1548,0,0
-238,-524,0,0,0,0,0,0,0,0,0,-1,986,1548,0,0
-231,-524,0,0,0,0,0,0,0,0,0,-1,993,1548,0,0
-224,-524,0,0,0,0,0,0,0,0,0,-1,1000,1548,0,0
-217,-524,0,0,0,0,0,0,0,0,0,-1,1007,1548,0,0
-210,-524,0,0,0,0,0,0,0,0,0,-1,1014,1548,0,0
-203,-524,0,0,0,0,0,0,0,0,0,-1,1021,1548,0,0
-196,-524,0,0,0,0,0,0,0,0,0,-1,1028,1548,0,0
-189,-524,0,0,0,0,0,0,0,0,0,-1,1035,1548,0,0
-182,-524,0,0,0,0,0,0,0,0,0,-1,1042,1548,0,0
-175,-524,0,0,0,0,0,0,0,0,0,-1,1049,1548,0,0
-168,-524,0,0,0,0,0,0,0,0,0,-1,1056,1548,0,0
-161,-524,0,0,0,0,0,0,0,0,0,-1,1063,1548,0,0
-154,-524,0,0,0,0,0,0,0,0,0,-1,1070,1548,0,0
-147,-524,0,0,0,0,0,0,0,0,0,-1,1077,1548,0,0
-140,-524,0,0,0,0,0,0,0,0,0,-1,1084,1548,0,0
-133,-524,0,0,0,0,0,0,0,0,0,-1,1091,1548,0,0
-126,-524,0,0,0,0,0,0,0,0,0,-1,1098,1548,0,0
-119,-524,0,0,0,0,0,0,0,0,0,-1,1105,1548,0,0
-112,-524,0,0,0,0,0,0,0,0,0,-1,1112,1548,0,0
-105,-524,0,0,0,0,0,0,0,0,0,-1,1119,1548,0,0
-98,-524,0,0,0,0,0,0,0,0,0,-1,1126,1548,0,0
-91,-524,0,0,0,0,0,0,0,0,0,-1,1133,1548,0,0
-84,-524,0,0,0,0,0,0,0,0,0,-1,1140,1548,0,0
-77,-524,0,0,0,0,0,0,0,0,0,-1,1147,1548,0,0
-70,-524,0,0,0,0,0,0,0,0,0,-1,1154,1548,0,0
-63,-524,0,0,0,0,0,0,0,0,0,-1,1161,1548,0,0
-56,-524,0,0,0,0,0,0,0,0,0,-1,1168,1548,0,0
-49,-524,0,0,0,0,0,0,0,0,0,-1,1175,1548,0,0
-42,-524,0,0,0,0,0,0,0,0,0,-1,1182,1548,0,0
-35,-524,0,0,0,0,0,0,0,0,0,-1,1189,1548,0,0
-28,-524,0,0,0,0,0,0,0,0,0,-1,1196,1548,0,0
-21,-524,0,0,0,0,0,0,0,0,0,-1,1203,1548,0,0
-14,-524,0,0,0,0,0,0,0,0,0,-1,1210,1548,0,0
-7,-524,0,0,0,0,0,0,0,0,0,-1,1217,1548,0,0
0,-524,0,0,0,0,0,0,0,0,0,-1,1224,1548,0,0
7,-524,0,0,0,0,0,0,0,0,0,-1,1231,1548,0,0
14,-524,0,0,0,0,0,0,0,0,0,-1,1238,1548,0,0
21,-524,0,0,0,0,0,0,0,0,0,-1,1245,1548,0,0
28,-524,0,0,0,0,0,0,0,0,0,-1,1252,1548,0,0
35,-524,0,0,0,0,0,0,0,0,0,-1,1259,1548,0,0
42,-524,0,0,0,0,0,0,0,0,0,-1,1266,1548,0,0
49,-524,0,0,0,0,0,0,0,0,0,-1,1273,1548,0,0
56,-524,0,0,0,0,0,0,0,0,0,-1,1280,1548,0,0
63,-524,0,0,0,0,0,0,0,0,0,-1,1287,1548,0,0
70,-524,0,0,0,0,0,0,0,0,0,-1,1294,1548,0,0
77,-524,0,0,0,0,0,0,0,0,0,-1,1301,1548,0,0
84,-524,0,0,0,0,0,0,0,0,0,-1,1308,1548,0,0
91,-524,0,0,0,0,0,0,0,0,0,-1,1315,1548,0,0
98,-524,0,0,0,0,0,0,0,0,0,-1,1322,1548,0,0
105,-524,0,0,0,0,0,0,0,0,0,-1,1329,1548,0,0
112,-524,0,0,0,0,0,0,0,0,0,-1,1336,1548,0,0
119,-524,0,0,0,0,0,0,0,0,0,-1,1343,1548,0,0
126,-524,0,0,0,0,0,0,0,0,0,-1,1350,1548,0,0
133,-524,0,0,0,0,0,0,0,0,0,-1,1357,1548,0,0
140,-524,0,0,0,0,0,0,0,0,0,-1,1364,1548,0,0
147,-524,0,0,0,0,0,0,0,0,0,-1,1371,1548,0,0
154,-524,0,0,0,0,0,0,0,0,0,-1,1378,1548,0,0
161,-524,0,0,0,0,0,0,0,0,0,-1,1385,1548,0,0
168,-524,0,0,0,0,0,0,0,0,0,-1,1392,1548,0,0
175,-524,0,0,0,0,0,0,0,0,0,-1,1399,1548,0,0
182,-524,0,0,0,0,0,0,0,0,0,-1,1406,1548,0,0
189,-524,0,0,0,0,0,0,0,0,0,-1,1413,1548,0,0
196,-524,0,0,0,0,0,0,0,0,0,-1,1420,1548,0,0
203,-524,0,0,0,0,0,0,0,0,0,-1,1427,1548,0,0
210,-524,0,0,0,0,0,0,0,0,0,-1,1434,1548,0,0
217,-524,0,0,0,0,0,0,0,0,0,-1,1441,1548,0,0
224,-524,0,0,0,0,0,0,0,0,0,-1,1448,1548,0,0
231,-524,0,0,0,0,0,0,0,0,0,-1,1455,1548,0,0
238,-524,0,0,0,0,0,0,0,0,0,-1,1462,1548,0,0
245,-524,0,0,0,0,0,0,0,0,0,-1,1469,1548,0,0
252,-524,0,0,0,0,0,0,0,0,0,-1,1476,1548,0,0
259,-524,0,0,0,0,0,0,0,0,0,-1,1483,1548,0,0
266,-524,0,0,0,0,0,0,0,0,0,-1,1490,1548,0,0
273,-524,0,0,0,0,0,0,0,0,0,-1,1497,1548,0,0
280,-524,0,0,0,0,0,0,0,0,0,-1,1504,1548,0,0
287,-524,0,0,0,0,0,0,0,0,0,-1,1511,1548,0,0
294,-524,0,0,0,0,0,0,0,0,0,-1,1518,1548,0,0
301,-524,0,0,0,0,0,0,0,0,0,-1,1525,1548,0,0
308,-524,0,0,0,0,0,0,0,0,0,-1,1532,1548,0,0
315,-524,0,0,0,0,0,0,0,0,0,-1,1539,1548,0,0
322,-524,0,0,0,0,0,0,0,0,0,-1,1546,1548,0,0
329,-524,0,0,0,0,0,0,0,0,0,-1,1553,1548,0,0
336,-524,0,0,0,0,0,0,0,0,0,-1,1560,1548,0,0
343,-524,0,0,0,0,0,0,0,0,0,-1,1567,1548,0,0
350,-524,0,0,0,0,0,0,0,0,0,-1,1574,1548,0,0
357,-524,0,0,0,0,0,0,0,0,0,-1,1581,1548,0,0
364,-524,0,0,0,0,0,0,0,0,0,-1,1588,1548,0,0
371,-524,0,0,0,0,0,0,0,0,0,-1,1595,1548,0,0
378,-524,0,0,0,0,0,0,0,0,0,-1,1602,1548,0,0
385,-524,0,0,0,0,0,0,0,0,0,-1,1609,1548,0,0
392,-524,0,0,0,0,0,0,0,0,0,-1,1616,1548,0,0
399,-524,8.81848,5.05774,0,0,0,0,0,0,0,-1,1623,1548,8.81843,-5.05769
406,-524,8.64294,6.06799,0,0,0,0,0,0,0,-1,1630,1548,8.6429,-6.06805
413,-524,11.677,6.41858,0,0,0,0,0,0,0,-1,1637,1548,11.677,-6.41864
420,-524,11.4913,6.36401,0,0,0,0,0,0,0,-1,1644,1548,11.4913,-6.36402
427,-524,7.68335,6.17249,0,0,0,0,0,0,0,-1,1651,1548,7.68341,-6.17245
434,-524,10.432,11.6801,0,0,0,0,0,0,0,-1,1658,1548,10.432,-11.68
441,-524,8.78552,4.12305,0,0,0,0,0,0,0,-1,1665,1548,8.78553,-4.12301
448,-524,14.1854,4.78674,0,0,0,0,0,0,0,-1,1672,1548,14.1854,-4.78674
455,-524,12.4784,3.65576,0,0,0,0,0,0,0,-1,1679,1548,12.4784,-3.65572
462,-524,14.7551,9.29395,0,0,0,0,0,0,0,-1,1686,1548,14.7552,-9.29397
469,-524,13.0463,8.39771,0,0,0,0,0,0,0,-1,1693,1548,13.0462,-8.39775
476,-524,11.8906,11.1028,0,0,0,0,0,0,0,-1,1700,1548,11.8906,-11.1028
483,-524,11.8082,12.1101,0,0,0,0,0,0,0,-1,1707,1548,11.8082,-12.1101
490,-524,11.9473,14.509,0,0,0,0,0,0,0,-1,1714,1548,11.9472,-14.509
497,-524,11.2106,14.8356,0,0,0,0,0,0,0,-1,1721,1548,11.2105,-14.8356
504,-524,11.2538,14.4683,-0.0248129,-0.00471963,0.0242936,0.0115228,-0.0410553,0.981465,0.0319123,0.0227183,1728,1548,11.2537,-14.4682
511,-524,11.2131,14.3165,-0.0197065,-0.0023702,0.0189774,0.00982502,-0.0319017,0.999629,0.0251898,0.0220185,1735,1548,11.2132,-14.3165
518,-524,11.2861,13.9995,-0.0153278,-0.000704299,0.0143853,0.00812085,-0.024153,1.02052,0.0193845,0.0169184,1742,1548,11.2861,-13.9995
525,-524,11.2793,13.7451,-0.0114456,0.000526983,0.0103327,0.00648225,-0.0174008,1.04795,0.0142611,0.013911,1749,1548,11.2793,-13.7452
532,-524,11.2814,13.4608,-0.00811813,0.00118064,0.00692323,0.00487079,-0.0118083,1.08109,0.00990344,0.00998064,1756,1548,11.2814,-13.4609
539,-524,11.2915,13.1836,-0.00542912,0.00104886,0.0044395,0.00330535,-0.00768561,1.10055,0.00651144,0.00951542,1763,1548,11.2915,-13.1835
546,-524,11.2687,12.9163,-0.0031335,0.00106537,0.00239127,0.00214804,-0.00421616,1.14565,0.00373848,0.0125913,1770,1548,11.2687,-12.9163
553,-524,11.2883,12.6277,-0.00113021,0.00112512,0.000716129,0.00133329,-0.00133838,1.2879,0.0015425,0.0211293,1777,1548,11.2884,-12.6277
560,-524,11.3164,12.3101,0.000796584,0.00182619,-0.000942406,0.00238524,0.000237539,-1.03538,0.00151719,0.0294541,1784,1548,11.3164,-12.31
567,-524,11.2449,12.1097,0.00233797,0.00243043,-0.00216458,0.00454928,0.000219123,-0.796075,0.00296251,0.0179327,1791,1548,11.2449,-12.1098
574,-524,11.2533,11.8407,0.00365595,0.00350938,-0.00320412,0.00678762,0.000377707,-0.773964,0.00440458,0.0128179,1798,1548,11.2533,-11.8407
581,-524,11.2661,11.5667,0.00520877,0.0047996,-0.00449867,0.00950751,0.000500864,-0.762675,0.00617816,0.0141914,1805,1548,11.2661,-11.5666
588,-524,11.2933,11.2732,0.00665815,0.00640849,-0.00590447,0.0124391,0.00062753,-0.774829,0.00809168,0.0169954,1812,1548,11.2934,-11.2732
595,-524,11.2922,11.0071,0.00848949,0.0083058,-0.00786237,0.0162606,0.000534744,-0.779558,0.0106666,0.0202779,1819,1548,11.2922,-11.0071
602,-524,11.4332,10.5013,0.0110608,0.0106813,-0.0102303,0.0211032,0.000638961,-0.776124,0.0138607,0.0378518,1826,1548,11.4333,-10.5013
609,-524,11.6211,9.75098,0,0,0,0,0,0,0,-1,1833,1548,11.6212,-9.75101
616,-524,11.6941,8.65515,0,0,0,0,0,0,0,-1,1840,1548,11.6941,-8.65514
623,-524,9.38452,5.15356,0,0,0,0,0,0,0,-1,1847,1548,9.38456,-5.15359
630,-524,11.0541,3.57434,0,0,0,0,0,0,0,-1,1854,1548,11.0541,-3.57438
637,-524,11.6067,3.20728,0,0,0,0,0,0,0,-1,1861,1548,11.6067,-3.20724
644,-524,12.2134,0.727173,0,0,0,0,0,0,0,-1,1868,1548,12.2134,-0.727222
651,-524,0,0,0,0,0,0,0,0,0,-1,1875,1548,0,0
658,-524,0,0,0,0,0,0,0,0,0,-1,1882,1548,0,0
665,-524,0,0,0,0,0,0,0,0,0,-1,1889,1548,0,0
672,-524,0,0,0,0,0,0,0,0,0,-1,1896,1548,0,0
679,-524,0,0,0,0,0,0,0,0,0,-1,1903,1548,0,0
686,-524,0,0,0,0,0,0,0,0,0,-1,1910,1548,0,0
693,-524,0,0,0,0,0,0,0,0,0,-1,1917,1548,0,0
700,-524,0,0,0,0,0,0,0,0,0,-1,1924,1548,0,0
707,-524,0,0,0,0,0,0,0,0,0,-1,1931,1548,0,0
714,-524,0,0,0,0,0,0,0,0,0,-1,1938,1548,0,0
721,-524,0,0,0,0,0,0,0,0,0,-1,1945,1548,0,0
728,-524,0,0,0,0,0,0,0,0,0,-1,1952,1548,0,0
735,-524,0,0,0,0,0,0,0,0,0,-1,1959,1548,0,0
742,-524,0,0,0,0,0,0,0,0,0,-1,1966,1548,0,0
749,-524,0,0,0,0,0,0,0,0,0,-1,1973,1548,0,0
756,-524,0,0,0,0,0,0,0,0,0,-1,1980,1548,0,0
763,-524,0,0,0,0,0,0,0,0,0,-1,1987,1548,0,0
770,-524,0,0,0,0,0,0,0,0,0,-1,1994,1548,0,0
777,-524,0,0,0,0,0,0,0,0,0,-1,2001,1548,0,0
784,-524,0,0,0,0,0,0,0,0,0,-1,2008,1548,0,0
791,-524,0,0,0,0,0,0,0,0,0,-1,2015,1548,0,0
798,-524,0,0,0,0,0,0,0,0,0,-1,2022,1548,0,0
805,-524,0,0,0,0,0,0,0,0,0,-1,2029,1548,0,0
812,-524,0,0,0,0,0,0,0,0,0,-1,2036,1548,0,0
-700,-531,0,0,0,0,0,0,0,0,0,-1,524,1555,0,0
-693,-531,0,0,0,0,0,0,0,0,0,-1,531,1555,0,0
-686,-531,0,0,0,0,0,0,0,0,0,-1,538,1555,0,0
-679,-531,0,0,0,0,0,0,0,0,0,-1,545,1555,0,0
-672,-531,0,0,0,0,0,0,0,0,0,-1,552,1555,0,0
-665,-531,0,0,0,0,0,0,0,0,0,-1,559,1555,0,0
-658,-531,0,0,0,0,0,0,0,0,0,-1,566,1555,0,0
-651,-531,0,0,0,0,0,0,0,0,0,-1,573,1555,0,0
-644,-531,0,0,0,0,0,0,0,0,0,-1,580,1555,0,0
-637,-531,0,0,0,0,0,0,0,0,0,-1,587,1555,0,0
-630,-531,0,0,0,0,0,0,0,0,0,-1,594,1555,0,0
-623,-531,0,0,0,0,0,0,0,0,0,-1,601,1555,0,0
-616,-531,0,0,0,0,0,0,0,0,0,-1,608,1555,0,0
-609,-531,0,0,0,0,0,0,0,0,0,-1,615,1555,0,0
-602,-531,0,0,0,0,0,0,0,0,0,-1,622,1555,0,0
-595,-531,0,0,0,0,0,0,0,0,0,-1,629,1555,0,0
-588,-531,0,0,0,0,0,0,0,0,0,-1,636,1555,0,0
-581,-531,0,0,0,0,0,0,0,0,0,-1,643,1555,0,0
-574,-531,0,0,0,0,0,0,0,0,0,-1,650,1555,0,0
-567,-531,0,0,0,0,0,0,0,0,0,-1,657,1555,0,0
-560,-531,0,0,0,0,0,0,0,0,0,-1,664,1555,0,0
-553,-531,0,0,0,0,0,0,0,0,0,-1,671,1555,0,0
-546,-531,0,0,0,0,0,0,0,0,0,-1,678,1555,0,0
-539,-531,0,0,0,0,0,0,0,0,0,-1,685,1555,0,0
-532,-531,0,0,0,0,0,0,0,0,0,-1,692,1555,0,0
-525,-531,0,0,0,0,0,0,0,0,0,-1,699,1555,0,0
-518,-531,-1.63983,4.03821,0,0,0,0,0,0,0,-1,706,1555,-1.63982,-4.03821
-511,-531,-2.9682,8.07483,0,0,0,0,0,0,0,-1,713,1555,-2.9682,-8.07479
-504,-531,-2.95978,0.557861,0,0,0,0,0,0,0,-1,720,1555,-2.95978,-0.557917
-497,-531,-2.46039,8.07422,0,0,0,0,0,0,0,-1,727,1555,-2.46039,-8.07423
-490,-531,-2.10461,8.25159,0,0,0,0,0,0,0,-1,734,1555,-2.10463,-8.25158
-483,-531,-1.82056,8.49353,0,0,0,0,0,0,0,-1,741,1555,-1.82054,-8.49356
-476,-531,-0.79834,9.20911,0,0,0,0,0,0,0,-1,748,1555,-0.798313,-9.20911
-469,-531,-0.453735,9.00269,-0.000710404,0.00936636,0.00705178,0.0129947,-0.00433879,1.09559,0.0104152,0.0412822,755,1555,-0.453742,-9.00272
-462,-531,-0.276001,9.22986,-0.000784121,0.00757696,0.00479959,0.0097614,-0.00296856,1.14368,0.00769053,0.0389438,762,1555,-0.275995,-9.2298
-455,-531,-0.55127,9.83081,-0.000537084,0.00626062,0.00361137,0.00782103,-0.00209749,1.16294,0.00603591,0.0305527,769,1555,-0.551248,-9.83085
-448,-531,-0.499146,10.0579,-0.000119967,0.00506786,0.00308678,0.00650589,-0.001558,1.13482,0.0049392,0.0145638,776,1555,-0.49917,-10.0578
-441,-531,-0.558289,10.323,0.000294958,0.00412855,0.00260958,0.00544965,-0.00102615,1.10216,0.00401906,0.0120015,783,1555,-0.558295,-10.323
-434,-531,-0.566528,10.6292,0.000582377,0.00332108,0.00237956,0.00469717,-0.000793714,1.04649,0.00342679,0.0115428,790,1555,-0.566552,-10.6292
-427,-531,-0.548157,10.9272,0.000870218,0.00235499,0.00194742,0.00369673,-0.000471523,0.967502,0.00263576,0.0134056,797,1555,-0.548139,-10.9272
-420,-531,-0.565369,11.236,0.00112993,0.0019104,0.00157772,0.00314543,-0.000105103,0.906635,0.00213285,0.0126501,804,1555,-0.565367,-11.236
-413,-531,-0.572998,11.5363,0.00132383,0.00137533,0.00138494,0.00273476,-3.55974e-05,0.794693,0.00183515,0.0107619,811,1555,-0.573013,-11.5362
-406,-531,-0.575134,11.8235,0.00156239,0.000916062,0.00117036,0.00245338,2.50713e-05,0.650692,0.0016273,0.0120738,818,1555,-0.575128,-11.8235
-399,-531,-0.569824,12.1318,0.00149003,0.000697697,0.000973788,0.00214515,4.25724e-05,0.592208,0.00141612,0.0133252,825,1555,-0.56983,-12.1318
-392,-531,-0.592346,12.4186,0.00138527,0.000854662,0.000758362,0.0019234,0.000316537,0.617132,0.00119086,0.0168065,832,1555,-0.592346,-12.4185
-385,-531,-0.616028,12.6993,0.00118174,0.00173846,0.00037245,0.00192507,0.00099512,1.10631,0.00111165,0.0147916,839,1555,-0.616036,-12.6993
-378,-531,-0.587952,12.9742,0.000638164,0.00406493,-0.000463464,0.00412651,0.000576588,-1.43871,0.00258037,0.0133329,846,1555,-0.587936,-12.9742
-371,-531,-0.52771,13.349,9.43171e-05,0.00644768,-0.00116361,0.00665409,-0.000112092,-1.39524,0.00447389,0.0208176,853,1555,-0.527704,-13.349
-364,-531,-0.483154,13.6628,-0.000719348,0.0101791,-0.00208964,0.0105661,-0.00110627,-1.38771,0.00744026,0.0452993,860,1555,-0.483135,-13.6628
-357,-531,-0.4953,13.8545,0,0,0,0,0,0,0,-1,867,1555,-0.49532,-13.8545
-350,-531,-0.928223,14.4714,0,0,0,0,0,0,0,-1,874,1555,-0.928216,-14.4714
-343,-531,-1.19989,15.0253,0,0,0,0,0,0,0,-1,881,1555,-1.19988,-15.0253
-336,-531,-1.1795,15.5116,0,0,0,0,0,0,0,-1,888,1555,-1.17951,-15.5116
-329,-531,-1.74597,16.1409,0,0,0,0,0,0,0,-1,895,1555,-1.74595,-16.1409
-322,-531,-0.767944,14.6812,0,0,0,0,0,0,0,-1,902,1555,-0.767955,-14.6811
-315,-531,1.35461,15.9274,0,0,0,0,0,0,0,-1,909,1555,1.35459,-15.9274
-308,-531,1.75012,16.715,0,0,0,0,0,0,0,-1,916,1555,1.75012,-16.715
-301,-531,2.14563,17.5026,0,0,0,0,0,0,0,-1,923,1555,2.14565,-17.5026
-294,-531,-1.3244,8.1825,0,0,0,0,0,0,0,-1,930,1555,-1.3244,-8.18251
-287,-531,-1.41095,9.08215,0,0,0,0,0,0,0,-1,937,1555,-1.41095,-9.08216
-280,-531,-2.67621,16.4279,0,0,0,0,0,0,0,-1,944,1555,-2.67619,-16.4279
-273,-531,-3.82422,17.1969,0,0,0,0,0,0,0,-1,951,1555,-3.82422,-17.1969
-266,-531,-4.97742,17.9215,0,0,0,0,0,0,0,-1,958,1555,-4.97744,-17.9215
-259,-531,0,0,0,0,0,0,0,0,0,-1,965,1555,0,0
-252,-531,0,0,0,0,0,0,0,0,0,-1,972,1555,0,0
-245,-531,0,0,0,0,0,0,0,0,0,-1,979,1555,0,0
-238,-531,0,0,0,0,0,0,0,0,0,-1,986,1555,0,0
-231,-531,0,0,0,0,0,0,0,0,0,-1,993,1555,0,0
-224,-531,0,0,0,0,0,0,0,0,0,-1,1000,1555,0,0
-217,-531,0,0,0,0,0,0,0,0,0,-1,1007,1555,0,0
-210,-531,0,0,0,0,0,0,0,0,0,-1,1014,1555,0,0
-203,-531,0,0,0,0,0,0,0,0,0,-1,1021,1555,0,0
-196,-531,0,0,0,0,0,0,0,0,0,-1,1028,1555,0,0
-189,-531,0,0,0,0,0,0,0,0,0,-1,1035,1555,0,0
-182,-531,0,0,0,0,0,0,0,0,0,-1,1042,1555,0,0
-175,-531,0,0,0,0,0,0,0,0,0,-1,1049,1555,0,0
-168,-531,0,0,0,0,0,0,0,0,0,-1,1056,1555,0,0
-161,-531,0,0,0,0,0,0,0,0,0,-1,1063,1555,0,0
-154,-531,0,0,0,0,0,0,0,0,0,-1,1070,1555,0,0
-147,-531,0,0,0,0,0,0,0,0,0,-1,1077,1555,0,0
-140,-531,0,0,0,0,0,0,0,0,0,-1,1084,1555,0,0
-133,-531,0,0,0,0,0,0,0,0,0,-1,1091,1555,0,0
-126,-531,0,0,0,0,0,0,0,0,0,-1,1098,1555,0,0
-119,-531,0,0,0,0,0,0,0,0,0,-1,1105,1555,0,0
-112,-531,0,0,0,0,0,0,0,0,0,-1,1112,1555,0,0
-105,-531,0,0,0,0,0,0,0,0,0,-1,1119,1555,0,0
-98,-531,0,0,0,0,0,0,0,0,0,-1,1126,1555,0,0
-91,-531,0,0,0,0,0,0,0,0,0,-1,1133,1555,0,0
-84,-531,0,0,0,0,0,0,0,0,0,-1,1140,1555,0,0
-77,-531,0,0,0,0,0,0,0,0,0,-1,1147,1555,0,0
-70,-531,0,0,0,0,0,0,0,0,0,-1,1154,1555,0,0
-63,-531,0,0,0,0,0,0,0,0,0,-1,1161,1555,0,0
-56,-531,0,0,0,0,0,0,0,0,0,-1,1168,1555,0,0
-49,-531,0,0,0,0,0,0,0,0,0,-1,1175,1555,0,0
-42,-531,0,0,0,0,0,0,0,0,0,-1,1182,1555,0,0
-35,-531,0,0,0,0,0,0,0,0,0,-1,1189,1555,0,0
-28,-531,0,0,0,0,0,0,0,0,0,-1,1196,1555,0,0
-21,-531,0,0,0,0,0,0,0,0,0,-1,1203,1555,0,0
-14,-531,0,0,0,0,0,0,0,0,0,-1,1210,1555,0,0
-7,-531,0,0,0,0,0,0,0,0,0,-1,1217,1555,0,0
0,-531,0,0,0,0,0,0,0,0,0,-1,1224,1555,0,0
7,-531,0,0,0,0,0,0,0,0,0,-1,1231,1555,0,0
14,-531,0,0,0,0,0,0,0,0,0,-1,1238,1555,0,0
21,-531,0,0,0,0,0,0,0,0,0,-1,1245,1555,0,0
28,-531,0,0,0,0,0,0,0,0,0,-1,1252,1555,0,0
35,-531,0,0,0,0,0,0,0,0,0,-1,1259,1555,0,0
42,-531,0,0,0,0,0,0,0,0,0,-1,1266,1555,0,0
49,-531,0,0,0,0,0,0,0,0,0,-1,1273,1555,0,0
56,-531,0,0,0,0,0,0,0,0,0,-1,1280,1555,0,0
63,-531,0,0,0,0,0,0,0,0,0,-1,1287,1555,0,0
70,-531,0,0,0,0,0,0,0,0,0,-1,1294,1555,0,0
77,-531,0,0,0,0,0,0,0,0,0,-1,1301,1555,0,0
84,-531,0,0,0,0,0,0,0,0,0,-1,1308,1555,0,0
91,-531,0,0,0,0,0,0,0,0,0,-1,1315,1555,0,0
98,-531,0,0,0,0,0,0,0,0,0,-1,1322,1555,0,0
105,-531,0,0,0,0,0,0,0,0,0,-1,1329,1555,0,0
112,-531,0,0,0,0,0,0,0,0,0,-1,1336,1555,0,0
119,-531,0,0,0,0,0,0,0,0,0,-1,1343,1555,0,0
126,-531,0,0,0,0,0,0,0,0,0,-1,1350,1555,0,0
133,-531,0,0,0,0,0,0,0,0,0,-1,1357,1555,0,0
140,-531,0,0,0,0,0,0,0,0,0,-1,1364,1555,0,0
147,-531,0,0,0,0,0,0,0,0,0,-1,1371,1555,0,0
154,-531,0,0,0,0,0,0,0,0,0,-1,1378,1555,0,0
161,-531,0,0,0,0,0,0,0,0,0,-1,1385,1555,0,0
168,-531,0,0,0,0,0,0,0,0,0,-1,1392,1555,0,0
175,-531,0,0,0,0,0,0,0,0,0,-1,1399,1555,0,0
182,-531,0,0,0,0,0,0,0,0,0,-1,1406,1555,0,0
189,-531,0,0,0,0,0,0,0,0,0,-1,1413,1555,0,0
196,-531,0,0,0,0,0,0,0,0,0,-1,1420,1555,0,0
203,-531,0,0,0,0,0,0,0,0,0,-1,1427,1555,0,0
210,-531,0,0,0,0,0,0,0,0,0,-1,1434,1555,0,0
217,-531,0,0,0,0,0,0,0,0,0,-1,1441,1555,0,0
224,-531,0,0,0,0,0,0,0,0,0,-1,1448,1555,0,0
231,-531,0,0,0,0,0,0,0,0,0,-1,1455,1555,0,0
238,-531,0,0,0,0,0,0,0,0,0,-1,1462,1555,0,0
245,-531,0,0,0,0,0,0,0,0,0,-1,1469,1555,0,0
252,-531,0,0,0,0,0,0,0,0,0,-1,1476,1555,0,0
259,-531,0,0,0,0,0,0,0,0,0,-1,1483,1555,0,0
266,-531,0,0,0,0,0,0,0,0,0,-1,1490,1555,0,0
273,-531,0,0,0,0,0,0,0,0,0,-1,1497,1555,0,0
280,-531,0,0,0,0,0,0,0,0,0,-1,1504,1555,0,0
287,-531,0,0,0,0,0,0,0,0,0,-1,1511,1555,0,0
294,-531,0,0,0,0,0,0,0,0,0,-1,1518,1555,0,0
301,-531,0,0,0,0,0,0,0,0,0,-1,1525,1555,0,0
308,-531,0,0,0,0,0,0,0,0,0,-1,1532,1555,0,0
315,-531,0,0,0,0,0,0,0,0,0,-1,1539,1555,0,0
322,-531,0,0,0,0,0,0,0,0,0,-1,1546,1555,0,0
329,-531,0,0,0,0,0,0,0,0,0,-1,1553,1555,0,0
336,-531,0,0,0,0,0,0,0,0,0,-1,1560,1555,0,0
343,-531,0,0,0,0,0,0,0,0,0,-1,1567,1555,0,0
350,-531,0,0,0,0,0,0,0,0,0,-1,1574,1555,0,0
357,-531,0,0,0,0,0,0,0,0,0,-1,1581,1555,0,0
364,-531,0,0,0,0,0,0,0,0,0,-1,1588,1555,0,0
371,-531,0,0,0,0,0,0,0,0,0,-1,1595,1555,0,0
378,-531,0,0,0,0,0,0,0,0,0,-1,1602,1555,0,0
385,-531,3.48169,1.78625,0,0,0,0,0,0,0,-1,1609,1555,3.48165,-1.78624
392,-531,10.8781,9.09204,0,0,0,0,0,0,0,-1,1616,1555,10.8781,-9.09205
399,-531,8.26306,5.29602,0,0,0,0,0,0,0,-1,1623,1555,8.26302,-5.29607
406,-531,8.26147,5.42712,0,0,0,0,0,0,0,-1,1630,1555,8.26145,-5.42716
413,-531,8.20618,5.75012,0,0,0,0,0,0,0,-1,1637,1555,8.20619,-5.75017
420,-531,7.64868,7.09558,0,0,0,0,0,0,0,-1,1644,1555,7.64867,-7.09564
427,-531,9.93054,11.8412,0,0,0,0,0,0,0,-1,1651,1555,9.93059,-11.8412
434,-531,10.244,11.7072,0,0,0,0,0,0,0,-1,1658,1555,10.244,-11.7071
441,-531,11.4528,12.9397,0,0,0,0,0,0,0,-1,1665,1555,11.4528,-12.9397
448,-531,8.70752,11.1261,0,0,0,0,0,0,0,-1,1672,1555,8.70751,-11.126
455,-531,14.4877,9.67065,0,0,0,0,0,0,0,-1,1679,1555,14.4876,-9.67066
462,-531,13.7253,10.5568,0,0,0,0,0,0,0,-1,1686,1555,13.7253,-10.5568
469,-531,12.97,11.532,0,0,0,0,0,0,0,-1,1693,1555,12.97,-11.532
476,-531,11.7483,13.7684,0,0,0,0,0,0,0,-1,1700,1555,11.7483,-13.7684
483,-531,11.5828,14.6653,0,0,0,0,0,0,0,-1,1707,1555,11.5828,-14.6652
490,-531,11.3248,14.7129,-0.0257528,-0.0129964,0.0281495,0.00948842,-0.0482376,0.896808,0.0357435,0.040572,1714,1555,11.3248,-14.7129
497,-531,10.9656,14.8135,-0.0207483,-0.00831966,0.0225799,0.00888546,-0.0379534,0.919681,0.0287259,0.0230021,1721,1555,10.9656,-14.8135
504,-531,10.9786,14.5449,-0.0164224,-0.00477501,0.0177559,0.00808782,-0.0292853,0.943864,0.0227048,0.0132854,1728,1555,10.9787,-14.545
511,-531,10.9886,14.2599,-0.012573,-0.00250978,0.0136313,0.00698889,-0.0220717,0.962202,0.0175152,0.0131966,1735,1555,10.9887,-14.2599
518,-531,11.0089,14.012,-0.00935688,-0.000865306,0.0101061,0.00585063,-0.0160728,0.984264,0.0131081,0.0139987,1742,1555,11.0089,-14.0119
525,-531,11.0046,13.7535,-0.00647141,0.000395694,0.00691517,0.00468281,-0.0107585,1.01583,0.00914221,0.0127084,1749,1555,11.0046,-13.7535
532,-531,11.0178,13.4601,-0.0040475,0.00106094,0.00421843,0.00343816,-0.00642473,1.05762,0.00578071,0.00964145,1756,1555,11.0178,-13.4601
539,-531,11.0115,13.189,-0.00216058,0.000951095,0.00228339,0.00215832,-0.0033678,1.08445,0.00321588,0.0112503,1763,1555,11.0115,-13.189
546,-531,10.9875,12.9042,-0.000565873,0.000954826,0.000662719,0.0012031,-0.00081415,1.21235,0.00117186,0.0150073,1770,1555,10.9876,-12.9042
553,-531,11.0167,12.6372,0.000871233,0.00100431,-0.000731843,0.00167263,0.000202909,-0.830733,0.00105398,0.0291175,1777,1555,11.0168,-12.6372
560,-531,10.981,12.3804,0.00239661,0.00170546,-0.00218082,0.00425906,-0.000156995,-0.706821,0.00289313,0.0315248,1784,1555,10.9809,-12.3804
567,-531,10.9196,12.1069,0.00343762,0.00243071,-0.00313411,0.00610845,-0.000240123,-0.70576,0.00415466,0.0177778,1791,1555,10.9195,-12.107
574,-531,10.952,11.8445,0.00447658,0.00370574,-0.00412429,0.00823342,-5.10947e-05,-0.738808,0.00550606,0.0115723,1798,1555,10.9521,-11.8445
581,-531,10.9937,11.5531,0.00607182,0.00515892,-0.00558399,0.011218,1.27577e-05,-0.744618,0.00747441,0.0113272,1805,1555,10.9937,-11.5532
588,-531,11.0167,11.2047,0.00797184,0.00710346,-0.00728136,0.0148319,0.000243354,-0.755618,0.00980785,0.0173321,1812,1555,11.0167,-11.2047
595,-531,11.0413,10.856,0.010337,0.00970323,-0.00963157,0.0196569,0.000383345,-0.768954,0.0129787,0.0347088,1819,1555,11.0412,-10.856
602,-531,11.2767,10.4045,0,0,0,0,0,0,0,-1,1826,1555,11.2767,-10.4045
609,-531,10.9072,8.50903,0,0,0,0,0,0,0,-1,1833,1555,10.9073,-8.50902
616,-531,10.5723,7.17859,0,0,0,0,0,0,0,-1,1840,1555,10.5723,-7.17855
623,-531,10.0674,5.08984,0,0,0,0,0,0,0,-1,1847,1555,10.0674,-5.08981
630,-531,11.672,3.18909,0,0,0,0,0,0,0,-1,1854,1555,11.672,-3.18904
637,-531,13.2546,1.38965,0,0,0,0,0,0,0,-1,1861,1555,13.2547,-1.3896
644,-531,0,0,0,0,0,0,0,0,0,-1,1868,1555,0,0
651,-531,0,0,0,0,0,0,0,0,0,-1,1875,1555,0,0
658,-531,0,0,0,0,0,0,0,0,0,-1,1882,1555,0,0
665,-531,0,0,0,0,0,0,0,0,0,-1,1889,1555,0,0
672,-531,0,0,0,0,0,0,0,0,0,-1,1896,1555,0,0
679,-531,0,0,0,0,0,0,0,0,0,-1,1903,1555,0,0
686,-531,0,0,0,0,0,0,0,0,0,-1,1910,1555,0,0
693,-531,0,0,0,0,0,0,0,0,0,-1,1917,1555,0,0
700,-531,0,0,0,0,0,0,0,0,0,-1,1924,1555,0,0
707,-531,0,0,0,0,0,0,0,0,0,-1,1931,1555,0,0
714,-531,0,0,0,0,0,0,0,0,0,-1,1938,1555,0,0
721,-531,0,0,0,0,0,0,0,0,0,-1,1945,1555,0,0
728,-531,0,0,0,0,0,0,0,0,0,-1,1952,1555,0,0
735,-531,0,0,0,0,0,0,0,0,0,-1,1959,1555,0,0
742,-531,0,0,0,0,0,0,0,0,0,-1,1966,1555,0,0
749,-531,0,0,0,0,0,0,0,0,0,-1,1973,1555,0,0
756,-531,0,0,0,0,0,0,0,0,0,-1,1980,1555,0,0
763,-531,0,0,0,0,0,0,0,0,0,-1,1987,1555,0,0
770,-531,0,0,0,0,0,0,0,0,0,-1,1994,1555,0,0
777,-531,0,0,0,0,0,0,0,0,0,-1,2001,1555,0,0
784,-531,0,0,0,0,0,0,0,0,0,-1,2008,1555,0,0
791,-531,0,0,0,0,0,0,0,0,0,-1,2015,1555,0,0
798,-531,0,0,0,0,0,0,0,0,0,-1,2022,1555,0,0
805,-531,0,0,0,0,0,0,0,0,0,-1,2029,1555,0,0
812,-531,0,0,0,0,0,0,0,0,0,-1,2036,1555,0,0
-700,-538,0,0,0,0,0,0,0,0,0,-1,524,1562,0,0
-693,-538,0,0,0,0,0,0,0,0,0,-1,531,1562,0,0
-686,-538,0,0,0,0,0,0,0,0,0,-1,538,1562,0,0
-679,-538,0,0,0,0,0,0,0,0,0,-1,545,1562,0,0
-672,-538,0,0,0,0,0,0,0,0,0,-1,552,1562,0,0
-665,-538,0,0,0,0,0,0,0,0,0,-1,559,1562,0,0
-658,-538,0,0,0,0,0,0,0,0,0,-1,566,1562,0,0
-651,-538,0,0,0,0,0,0,0,0,0,-1,573,1562,0,0
-644,-538,0,0,0,0,0,0,0,0,0,-1,580,1562,0,0
-637,-538,0,0,0,0,0,0,0,0,0,-1,587,1562,0,0
-630,-538,0,0,0,0,0,0,0,0,0,-1,594,1562,0,0
-623,-538,0,0,0,0,0,0,0,0,0,-1,601,1562,0,0
-616,-538,0,0,0,0,0,0,0,0,0,-1,608,1562,0,0
-609,-538,0,0,0,0,0,0,0,0,0,-1,615,1562,0,0
-602,-538,0,0,0,0,0,0,0,0,0,-1,622,1562,0,0
-595,-538,0,0,0,0,0,0,0,0,0,-1,629,1562,0,0
-588,-538,0,0,0,0,0,0,0,0,0,-1,636,1562,0,0
-581,-538,0,0,0,0,0,0,0,0,0,-1,643,1562,0,0
-574,-538,0,0,0,0,0,0,0,0,0,-1,650,1562,0,0
-567,-538,0,0,0,0,0,0,0,0,0,-1,657,1562,0,0
-560,-538,0,0,0,0,0,0,0,0,0,-1,664,1562,0,0
-553,-538,0,0,0,0,0,0,0,0,0,-1,671,1562,0,0
-546,-538,0,0,0,0,0,0,0,0,0,-1,678,1562,0,0
-539,-538,0,0,0,0,0,0,0,0,0,-1,685,1562,0,0
-532,-538,0,0,0,0,0,0,0,0,0,-1,692,1562,0,0
-525,-538,0,0,0,0,0,0,0,0,0,-1,699,1562,0,0
-518,-538,0,0,0,0,0,0,0,0,0,-1,706,1562,0,0
-511,-538,-2.6582,-1.54321,0,0,0,0,0,0,0,-1,713,1562,-2.65821,1.54327
-504,-538,-2.66455,-0.71167,0,0,0,0,0,0,0,-1,720,1562,-2.66456,0.711667
-497,-538,-0.763855,6.77747,0,0,0,0,0,0,0,-1,727,1562,-0.76385,-6.77743
-490,-538,-2.70453,8.01465,0,0,0,0,0,0,0,-1,734,1562,-2.70451,-8.0147
-483,-538,-1.5022,8.31262,0,0,0,0,0,0,0,-1,741,1562,-1.50222,-8.31264
-476,-538,-0.355286,8.21167,0,0,0,0,0,0,0,-1,748,1562,-0.355256,-8.21164
-469,-538,-0.291321,8.94482,0,0,0,0,0,0,0,-1,755,1562,-0.291339,-8.94478
-462,-538,0.0808105,9.06445,0.000485241,0.010396,0.00688617,0.0139245,-0.00304318,1.09728,0.0104462,0.04603,762,1562,0.0807956,-9.06449
-455,-538,-0.393921,9.87939,0.000455664,0.0085702,0.00535636,0.0112325,-0.00220659,1.10953,0.00832192,0.0369899,769,1562,-0.393914,-9.8794
-448,-538,-0.187073,10.1089,0.000582742,0.0069644,0.00441135,0.00921796,-0.00167082,1.0985,0.00677131,0.0162133,776,1562,-0.187095,-10.1088
-441,-538,-0.215576,10.39,0.00076281,0.00562234,0.00357957,0.0075189,-0.00113375,1.08357,0.00543011,0.0166348,783,1562,-0.215579,-10.39
-434,-538,-0.244629,10.6278,0.000868514,0.00449242,0.00307499,0.0062496,-0.000888667,1.05164,0.00449202,0.0116537,790,1562,-0.244633,-10.6278
-427,-538,-0.262512,10.9238,0.000998138,0.00336702,0.00243029,0.00488613,-0.000520972,1.01214,0.00344424,0.0133013,797,1562,-0.262533,-10.9238
-420,-538,-0.283936,11.2395,0.00109181,0.00277137,0.00188813,0.00399805,-0.000134872,0.994646,0.00271144,0.0181425,804,1562,-0.283933,-11.2395
-413,-538,-0.304016,11.5518,0.00113888,0.0020916,0.0015684,0.00325438,-2.38998e-05,0.932832,0.0021776,0.0182779,811,1562,-0.304014,-11.5518
-406,-538,-0.289856,11.8376,0.00134048,0.00150314,0.00123683,0.00266131,0.000182315,0.81823,0.00171667,0.0143404,818,1562,-0.289834,-11.8377
-399,-538,-0.27594,12.1382,0.00119495,0.0012111,0.000962752,0.00216581,0.000240239,0.78959,0.00137083,0.0128109,825,1562,-0.275935,-12.1382
-392,-538,-0.291809,12.4253,0.0010443,0.00121237,0.00071902,0.00185225,0.000404422,0.843571,0.00112453,0.0138553,832,1562,-0.291808,-12.4253
-385,-538,-0.310608,12.7123,0.000904202,0.00189392,0.00034156,0.00200035,0.000797772,1.26873,0.00116276,0.012094,839,1562,-0.310597,-12.7123
-378,-538,-0.284424,13.0054,0.000515135,0.00378624,-0.000377224,0.00382917,0.000472197,-1.45746,0.00241085,0.0102847,846,1562,-0.284443,-13.0054
-371,-538,-0.29071,13.2759,0.00014123,0.00574339,-0.000976499,0.00590872,-2.41012e-05,-1.40308,0.00394721,0.0118712,853,1562,-0.290689,-13.2759
-364,-538,-0.261414,13.6172,-0.000397271,0.00869437,-0.00170485,0.00900354,-0.000706448,-1.39139,0.00625117,0.0126405,860,1562,-0.261399,-13.6172
-357,-538,-0.271179,13.9312,-0.00117316,0.0130145,-0.00247615,0.0134342,-0.0015929,-1.40288,0.00953157,0.0247738,867,1562,-0.271173,-13.9312
-350,-538,-0.436096,14.189,-0.00232627,0.0191193,-0.00337894,0.0196391,-0.00284605,-1.41816,0.0141372,0.0350806,874,1562,-0.436124,-14.189
-343,-538,-0.593933,14.6785,-0.00383706,0.0262882,-0.0046659,0.0269943,-0.00454318,-1.4206,0.0196861,0.0438794,881,1562,-0.593914,-14.6785
-336,-538,-0.577209,15.1222,-0.00544921,0.0348507,-0.00587985,0.0356911,-0.00628956,-1.42884,0.026144,0.0429987,888,1562,-0.577184,-15.1222
-329,-538,-0.853027,15.5695,-0.00724238,0.0456392,-0.00666314,0.0464659,-0.00806902,-1.44737,0.0339877,0.0454288,895,1562,-0.853013,-15.5695
-322,-538,-1.37402,15.9407,0,0,0,0,0,0,0,-1,902,1562,-1.37401,-15.9407
-315,-538,1.03601,15.8561,0,0,0,0,0,0,0,-1,909,1562,1.03603,-15.856
-308,-538,1.44995,16.6498,0,0,0,0,0,0,0,-1,916,1562,1.44997,-16.6498
-301,-538,1.86389,17.4436,0,0,0,0,0,0,0,-1,923,1562,1.86391,-17.4436
-294,-538,1.23138,14.0757,0,0,0,0,0,0,0,-1,930,1562,1.23137,-14.0757
-287,-538,-2.15009,12.8256,0,0,0,0,0,0,0,-1,937,1562,-2.15011,-12.8256
-280,-538,-3.13525,14.0911,0,0,0,0,0,0,0,-1,944,1562,-3.13524,-14.091
-273,-538,-3.96271,15.2585,0,0,0,0,0,0,0,-1,951,1562,-3.96268,-15.2586
-266,-538,-5.03412,15.9951,0,0,0,0,0,0,0,-1,958,1562,-5.03409,-15.9951
-259,-538,-5.89642,16.5184,0,0,0,0,0,0,0,-1,965,1562,-5.89644,-16.5184
-252,-538,0,0,0,0,0,0,0,0,0,-1,972,1562,0,0
-245,-538,0,0,0,0,0,0,0,0,0,-1,979,1562,0,0
-238,-538,0,0,0,0,0,0,0,0,0,-1,986,1562,0,0
-231,-538,0,0,0,0,0,0,0,0,0,-1,993,1562,0,0
-224,-538,0,0,0,0,0,0,0,0,0,-1,1000,1562,0,0
-217,-538,0,0,0,0,0,0,0,0,0,-1,1007,1562,0,0
-210,-538,0,0,0,0,0,0,0,0,0,-1,1014,1562,0,0
-203,-538,0,0,0,0,0,0,0,0,0,-1,1021,1562,0,0
-196,-538,0,0,0,0,0,0,0,0,0,-1,1028,1562,0,0
-189,-538,0,0,0,0,0,0,0,0,0,-1,1035,1562,0,0
-182,-538,0,0,0,0,0,0,0,0,0,-1,1042,1562,0,0
-175,-538,0,0,0,0,0,0,0,0,0,-1,1049,1562,0,0
-168,-538,0,0,0,0,0,0,0,0,0,-1,1056,1562,0,0
-161,-538,0,0,0,0,0,0,0,0,0,-1,1063,1562,0,0
-154,-538,0,0,0,0,0,0,0,0,0,-1,1070,1562,0,0
-147,-538,0,0,0,0,0,0,0,0,0,-1,1077,1562,0,0
-140,-538,0,0,0,0,0,0,0,0,0,-1,1084,1562,0,0
-133,-538,0,0,0,0,0,0,0,0,0,-1,1091,1562,0,0
-126,-538,0,0,0,0,0,0,0,0,0,-1,1098,1562,0,0
-119,-538,0,0,0,0,0,0,0,0,0,-1,1105,1562,0,0
-112,-538,0,0,0,0,0,0,0,0,0,-1,1112,1562,0,0
-105,-538,0,0,0,0,0,0,0,0,0,-1,1119,1562,0,0
-98,-538,0,0,0,0,0,0,0,0,0,-1,1126,1562,0,0
-91,-538,0,0,0,0,0,0,0,0,0,-1,1133,1562,0,0
-84,-538,0,0,0,0,0,0,0,0,0,-1,1140,1562,0,0
-77,-538,0,0,0,0,0,0,0,0,0,-1,1147,1562,0,0
-70,-538,0,0,0,0,0,0,0,0,0,-1,1154,1562,0,0
-63,-538,0,0,0,0,0,0,0,0,0,-1,1161,1562,0,0
-56,-538,0,0,0,0,0,0,0,0,0,-1,1168,1562,0,0
-49,-538,0,0,0,0,0,0,0,0,0,-1,1175,1562,0,0
-42,-538,0,0,0,0,0,0,0,0,0,-1,1182,1562,0,0
-35,-538,0,0,0,0,0,0,0,0,0,-1,1189,1562,0,0
-28,-538,0,0,0,0,0,0,0,0,0,-1,1196,1562,0,0
-21,-538,0,0,0,0,0,0,0,0,0,-1,1203,1562,0,0
-14,-538,0,0,0,0,0,0,0,0,0,-1,1210,1562,0,0
-7,-538,0,0,0,0,0,0,0,0,0,-1,1217,1562,0,0
0,-538,0,0,0,0,0,0,0,0,0,-1,1224,1562,0,0
7,-538,0,0,0,0,0,0,0,0,0,-1,1231,1562,0,0
14,-538,0,0,0,0,0,0,0,0,0,-1,1238,1562,0,0
21,-538,0,0,0,0,0,0,0,0,0,-1,1245,1562,0,0
28,-538,0,0,0,0,0,0,0,0,0,-1,1252,1562,0,0
35,-538,0,0,0,0,0,0,0,0,0,-1,1259,1562,0,0
42,-538,0,0,0,0,0,0,0,0,0,-1,1266,1562,0,0
49,-538,0,0,0,0,0,0,0,0,0,-1,1273,1562,0,0
56,-538,0,0,0,0,0,0,0,0,0,-1,1280,1562,0,0
63,-538,0,0,0,0,0,0,0,0,0,-1,1287,1562,0,0
70,-538,0,0,0,0,0,0,0,0,0,-1,1294,1562,0,0
77,-538,0,0,0,0,0,0,0,0,0,-1,1301,1562,0,0
84,-538,0,0,0,0,0,0,0,0,0,-1,1308,1562,0,0
91,-538,0,0,0,0,0,0,0,0,0,-1,1315,1562,0,0
98,-538,0,0,0,0,0,0,0,0,0,-1,1322,1562,0,0
105,-538,0,0,0,0,0,0,0,0,0,-1,1329,1562,0,0
112,-538,0,0,0,0,0,0,0,0,0,-1,1336,1562,0,0
119,-538,0,0,0,0,0,0,0,0,0,-1,1343,1562,0,0
126,-538,0,0,0,0,0,0,0,0,0,-1,1350,1562,0,0
133,-538,0,0,0,0,0,0,0,0,0,-1,1357,1562,0,0
140,-538,0,0,0,0,0,0,0,0,0,-1,1364,1562,0,0
147,-538,0,0,0,0,0,0,0,0,0,-1,1371,1562,0,0
154,-538,0,0,0,0,0,0,0,0,0,-1,1378,1562,0,0
161,-538,0,0,0,0,0,0,0,0,0,-1,1385,1562,0,0
168,-538,0,0,0,0,0,0,0,0,0,-1,1392,1562,0,0
175,-538,0,0,0,0,0,0,0,0,0,-1,1399,1562,0,0
182,-538,0,0,0,0,0,0,0,0,0,-1,1406,1562,0,0
189,-538,0,0,0,0,0,0,0,0,0,-1,1413,1562,0,0
196,-538,0,0,0,0,0,0,0,0,0,-1,1420,1562,0,0
203,-538,0,0,0,0,0,0,0,0,0,-1,1427,1562,0,0
210,-538,0,0,0,0,0,0,0,0,0,-1,1434,1562,0,0
217,-538,0,0,0,0,0,0,0,0,0,-1,1441,1562,0,0
224,-538,0,0,0,0,0,0,0,0,0,-1,1448,1562,0,0
231,-538,0,0,0,0,0,0,0,0,0,-1,1455,1562,0,0
238,-538,0,0,0,0,0,0,0,0,0,-1,1462,1562,0,0
245,-538,0,0,0,0,0,0,0,0,0,-1,1469,1562,0,0
252,-538,0,0,0,0,0,0,0,0,0,-1,1476,1562,0,0
259,-538,0,0,0,0,0,0,0,0,0,-1,1483,1562,0,0
266,-538,0,0,0,0,0,0,0,0,0,-1,1490,1562,0,0
273,-538,0,0,0,0,0,0,0,0,0,-1,1497,1562,0,0
280,-538,0,0,0,0,0,0,0,0,0,-1,1504,1562,0,0
287,-538,0,0,0,0,0,0,0,0,0,-1,1511,1562,0,0
294,-538,0,0,0,0,0,0,0,0,0,-1,1518,1562,0,0
301,-538,0,0,0,0,0,0,0,0,0,-1,1525,1562,0,0
308,-538,0,0,0,0,0,0,0,0,0,-1,1532,1562,0,0
315,-538,0,0,0,0,0,0,0,0,0,-1,1539,1562,0,0
322,-538,0,0,0,0,0,0,0,0,0,-1,1546,1562,0,0
329,-538,0,0,0,0,0,0,0,0,0,-1,1553,1562,0,0
336,-538,0,0,0,0,0,0,0,0,0,-1,1560,1562,0,0
343,-538,0,0,0,0,0,0,0,0,0,-1,1567,1562,0,0
350,-538,0,0,0,0,0,0,0,0,0,-1,1574,1562,0,0
357,-538,0,0,0,0,0,0,0,0,0,-1,1581,1562,0,0
364,-538,0,0,0,0,0,0,0,0,0,-1,1588,1562,0,0
371,-538,0,0,0,0,0,0,0,0,0,-1,1595,1562,0,0
378,-538,9.65479,5.82434,0,0,0,0,0,0,0,-1,1602,1562,9.6548,-5.82439
385,-538,9.65552,8.01746,0,0,0,0,0,0,0,-1,1609,1562,9.65546,-8.01741
392,-538,8.20361,7.07214,0,0,0,0,0,0,0,-1,1616,1562,8.20362,-7.07211
399,-538,7.85425,4.70508,0,0,0,0,0,0,0,-1,1623,1562,7.85425,-4.70512
406,-538,7.77734,4.96094,0,0,0,0,0,0,0,-1,1630,1562,7.77729,-4.96097
413,-538,13.0446,13.1765,0,0,0,0,0,0,0,-1,1637,1562,13.0446,-13.1765
420,-538,9.96216,12.7653,0,0,0,0,0,0,0,-1,1644,1562,9.96221,-12.7653
427,-538,10.1732,14.5863,0,0,0,0,0,0,0,-1,1651,1562,10.1732,-14.5863
434,-538,9.64331,14.7745,0,0,0,0,0,0,0,-1,1658,1562,9.64326,-14.7746
441,-538,10.821,12.9027,0,0,0,0,0,0,0,-1,1665,1562,10.8211,-12.9028
448,-538,11.9348,13.1129,0,0,0,0,0,0,0,-1,1672,1562,11.9348,-13.1129
455,-538,11.6873,13.4506,0,0,0,0,0,0,0,-1,1679,1562,11.6872,-13.4506
462,-538,12.6187,14.1605,0,0,0,0,0,0,0,-1,1686,1562,12.6187,-14.1605
469,-538,11.598,14.2037,0,0,0,0,0,0,0,-1,1693,1562,11.5981,-14.2037
476,-538,11.3451,14.4701,-0.0265971,-0.0243806,0.0298431,0.00437484,-0.0553525,0.803957,0.038443,0.0479014,1700,1562,11.3451,-14.4701
483,-538,10.8538,15.0822,-0.0212906,-0.0180243,0.024226,0.00462359,-0.0439384,0.819054,0.0309488,0.0346787,1707,1562,10.8537,-15.0821
490,-538,10.7058,15.0187,-0.0169246,-0.0125999,0.0194436,0.00480127,-0.0343257,0.840776,0.0246406,0.0173867,1714,1562,10.7058,-15.0186
497,-538,10.7208,14.811,-0.0132027,-0.00850426,0.0152986,0.00462439,-0.0263314,0.861583,0.0192815,0.0118017,1721,1562,10.7209,-14.8111
504,-538,10.7526,14.5175,-0.00995221,-0.00527578,0.0116722,0.00429008,-0.0195181,0.884252,0.0146529,0.00923011,1728,1562,10.7526,-14.5175
511,-538,10.7415,14.2529,-0.00703517,-0.00311578,0.00854533,0.00369168,-0.0138426,0.898114,0.0106739,0.00965068,1735,1562,10.7414,-14.2529
518,-538,10.7412,14.0054,-0.00468056,-0.00150266,0.00596704,0.00308337,-0.00926659,0.915523,0.00742216,0.0105833,1742,1562,10.7412,-14.0053
525,-538,10.7131,13.7361,-0.00254811,-0.000223046,0.00361693,0.00241359,-0.00518475,0.940891,0.0044831,0.0106226,1749,1562,10.7131,-13.7361
532,-538,10.7285,13.4573,-0.000811468,0.000452506,0.00167822,0.00161379,-0.00197275,0.965477,0.00207414,0.0114591,1756,1562,10.7286,-13.4573
539,-538,10.7264,13.2078,0.000475492,0.00040203,0.000358435,0.000799073,7.84495e-05,0.734338,0.000508586,0.0153669,1763,1562,10.7265,-13.2078
546,-538,10.7067,12.9313,0.00154274,0.000425126,-0.000749382,0.00191872,4.91391e-05,-0.46503,0.00126309,0.0180619,1770,1562,10.7067,-12.9312
553,-538,10.7325,12.6262,0.00257846,0.000510746,-0.00180184,0.00362198,-0.000532775,-0.524941,0.00261043,0.0273186,1777,1562,10.7326,-12.6262
560,-538,10.6698,12.4147,0.00384546,0.00122651,-0.00299318,0.00580307,-0.000731104,-0.579199,0.00413402,0.0276123,1784,1562,10.6698,-12.4146
567,-538,10.6331,12.1179,0.00465567,0.00206532,-0.00380061,0.00737573,-0.000654736,-0.621179,0.00514929,0.0196197,1791,1562,10.6331,-12.118
574,-538,10.6743,11.8269,0.00573924,0.0034241,-0.00497075,0.00968542,-0.000522088,-0.670999,0.00663783,0.0128965,1798,1562,10.6743,-11.8269
581,-538,10.7507,11.5219,0.00743763,0.00504571,-0.00666484,0.013013,-0.000529623,-0.696622,0.00885713,0.0147977,1805,1562,10.7507,-11.5218
588,-538,10.776,11.2334,0.00964199,0.00735831,-0.00886057,0.017434,-0.000433689,-0.721317,0.0117699,0.0322174,1812,1562,10.776,-11.2334
595,-538,10.8131,10.8795,0,0,0,0,0,0,0,-1,1819,1562,10.8132,-10.8795
602,-538,10.314,8.94238,0,0,0,0,0,0,0,-1,1826,1562,10.314,-8.94238
609,-538,10.1046,7.05713,0,0,0,0,0,0,0,-1,1833,1562,10.1046,-7.05719
616,-538,9.92249,5.43506,0,0,0,0,0,0,0,-1,1840,1562,9.92254,-5.43507
623,-538,11.1711,4.31604,0,0,0,0,0,0,0,-1,1847,1562,11.1711,-4.316
630,-538,12.6112,2.61633,0,0,0,0,0,0,0,-1,1854,1562,12.6112,-2.61637
637,-538,0,0,0,0,0,0,0,0,0,-1,1861,1562,0,0
644,-538,0,0,0,0,0,0,0,0,0,-1,1868,1562,0,0
651,-538,0,0,0,0,0,0,0,0,0,-1,1875,1562,0,0
658,-538,0,0,0,0,0,0,0,0,0,-1,1882,1562,0,0
665,-538,0,0,0,0,0,0,0,0,0,-1,1889,1562,0,0
672,-538,0,0,0,0,0,0,0,0,0,-1,1896,1562,0,0
679,-538,0,0,0,0,0,0,0,0,0,-1,1903,1562,0,0
686,-538,0,0,0,0,0,0,0,0,0,-1,1910,1562,0,0
693,-538,0,0,0,0,0,0,0,0,0,-1,1917,1562,0,0
700,-538,0,0,0,0,0,0,0,0,0,-1,1924,1562,0,0
707,-538,0,0,0,0,0,0,0,0,0,-1,1931,1562,0,0
714,-538,0,0,0,0,0,0,0,0,0,-1,1938,1562,0,0
721,-538,0,0,0,0,0,0,0,0,0,-1,1945,1562,0,0
728,-538,0,0,0,0,0,0,0,0,0,-1,1952,1562,0,0
735,-538,0,0,0,0,0,0,0,0,0,-1,1959,1562,0,0
742,-538,0,0,0,0,0,0,0,0,0,-1,1966,1562,0,0
749,-538,0,0,0,0,0,0,0,0,0,-1,1973,1562,0,0
756,-538,0,0,0,0,0,0,0,0,0,-1,1980,1562,0,0
763,-538,0,0,0,0,0,0,0,0,0,-1,1987,1562,0,0
770,-538,0,0,0,0,0,0,0,0,0,-1,1994,1562,0,0
777,-538,0,0,0,0,0,0,0,0,0,-1,2001,1562,0,0
784,-538,0,0,0,0,0,0,0,0,0,-1,2008,1562,0,0
791,-538,0,0,0,0,0,0,0,0,0,-1,2015,1562,0,0
798,-538,0,0,0,0,0,0,0,0,0,-1,2022,1562,0,0
805,-538,0,0,0,0,0,0,0,0,0,-1,2029,1562,0,0
812,-538,0,0,0,0,0,0,0,0,0,-1,2036,1562,0,0
-700,-545,0,0,0,0,0,0,0,0,0,-1,524,1569,0,0
-693,-545,0,0,0,0,0,0,0,0,0,-1,531,1569,0,0
-686,-545,0,0,0,0,0,0,0,0,0,-1,538,1569,0,0
-679,-545,0,0,0,0,0,0,0,0,0,-1,545,1569,0,0
-672,-545,0,0,0,0,0,0,0,0,0,-1,552,1569,0,0
-665,-545,0,0,0,0,0,0,0,0,0,-1,559,1569,0,0
-658,-545,0,0,0,0,0,0,0,0,0,-1,566,1569,0,0
-651,-545,0,0,0,0,0,0,0,0,0,-1,573,1569,0,0
-644,-545,0,0,0,0,0,0,0,0,0,-1,580,1569,0,0
-637,-545,0,0,0,0,0,0,0,0,0,-1,587,1569,0,0
-630,-545,0,0,0,0,0,0,0,0,0,-1,594,1569,0,0
-623,-545,0,0,0,0,0,0,0,0,0,-1,601,1569,0,0
-616,-545,0,0,0,0,0,0,0,0,0,-1,608,1569,0,0
-609,-545,0,0,0,0,0,0,0,0,0,-1,615,1569,0,0
-602,-545,0,0,0,0,0,0,0,0,0,-1,622,1569,0,0
-595,-545,0,0,0,0,0,0,0,0,0,-1,629,1569,0,0
-588,-545,0,0,0,0,0,0,0,0,0,-1,636,1569,0,0
-581,-545,0,0,0,0,0,0,0,0,0,-1,643,1569,0,0
-574,-545,0,0,0,0,0,0,0,0,0,-1,650,1569,0,0
-567,-545,0,0,0,0,0,0,0,0,0,-1,657,1569,0,0
-560,-545,0,0,0,0,0,0,0,0,0,-1,664,1569,0,0
-553,-545,0,0,0,0,0,0,0,0,0,-1,671,1569,0,0
-546,-545,0,0,0,0,0,0,0,0,0,-1,678,1569,0,0
-539,-545,0,0,0,0,0,0,0,0,0,-1,685,1569,0,0
-532,-545,0,0,0,0,0,0,0,0,0,-1,692,1569,0,0
-525,-545,0,0,0,0,0,0,0,0,0,-1,699,1569,0,0
-518,-545,0,0,0,0,0,0,0,0,0,-1,706,1569,0,0
-511,-545,0,0,0,0,0,0,0,0,0,-1,713,1569,0,0
-504,-545,-3.55237,-2.5354,0,0,0,0,0,0,0,-1,720,1569,-3.55236,2.53545
-497,-545,2.26575,5.69214,0,0,0,0,0,0,0,-1,727,1569,2.26573,-5.6922
-490,-545,-2.17334,7.81396,0,0,0,0,0,0,0,-1,734,1569,-2.17334,-7.81399
-483,-545,-1.40808,7.85449,0,0,0,0,0,0,0,-1,741,1569,-1.40805,-7.85451
-476,-545,-1.26788,8.11194,0,0,0,0,0,0,0,-1,748,1569,-1.26788,-8.11188
-469,-545,-0.432434,8.05676,0,0,0,0,0,0,0,-1,755,1569,-0.432404,-8.05677
-462,-545,-0.461609,9.46899,0,0,0,0,0,0,0,-1,762,1569,-0.461599,-9.46903
-455,-545,-0.193604,9.74402,0.00183806,0.0117922,0.00763715,0.0159309,-0.00230065,1.07418,0.0114647,0.0426235,769,1569,-0.193625,-9.74403
-448,-545,0.127747,9.93225,0.00158202,0.00950253,0.0061296,0.0128399,-0.00175537,1.07221,0.00920105,0.0282563,776,1569,0.12773,-9.93231
-441,-545,0.145142,10.4089,0.00150865,0.00757054,0.00485191,0.0102604,-0.00118121,1.06459,0.00726608,0.0193667,783,1569,0.145151,-10.4089
-434,-545,0.0142822,10.6644,0.00141936,0.00595058,0.00396682,0.00825319,-0.000883256,1.04486,0.00581894,0.016011,790,1569,0.0142678,-10.6644
-427,-545,0.0166626,10.9404,0.00138752,0.00453257,0.00304352,0.00638581,-0.00046572,1.02385,0.00442063,0.0162942,797,1569,0.0166385,-10.9404
-420,-545,0.0270996,11.2542,0.00132691,0.00366814,0.00228319,0.00506332,-6.82664e-05,1.02228,0.00339853,0.0236447,804,1569,0.0271027,-11.2541
-413,-545,0.00500488,11.5642,0.00123211,0.00275905,0.00178935,0.003941,5.01539e-05,0.987042,0.00261078,0.0238693,811,1569,0.00498617,-11.5643
-406,-545,0.0067749,11.858,0.00138261,0.00198253,0.00131001,0.00302648,0.000338657,0.897946,0.00191478,0.0171986,818,1569,0.00675066,-11.858
-399,-545,0.026062,12.1433,0.0011529,0.00156373,0.000943671,0.00232409,0.000392548,0.892564,0.00143653,0.0111399,825,1569,0.0260508,-12.1433
-392,-545,0.0152588,12.4198,0.00094359,0.00137266,0.000655858,0.00184818,0.000468071,0.943466,0.00110951,0.0109635,832,1569,0.0152617,-12.4198
-385,-545,0.0181274,12.7166,0.00082782,0.00182756,0.000281746,0.00190149,0.000753886,1.31417,0.00110564,0.00992242,839,1569,0.0181133,-12.7165
-378,-545,0.0127563,13.0198,0.000544251,0.0032923,-0.000322879,0.00332973,0.000506824,-1.4554,0.00207165,0.0120497,846,1569,0.0127532,-13.0197
-371,-545,-0.000976563,13.3126,0.000268483,0.00486153,-0.00083426,0.00500837,0.000121646,-1.39657,0.00329911,0.0152617,853,1569,-0.000982241,-13.3126
-364,-545,0.00708008,13.5842,-0.000120788,0.00715252,-0.00138104,0.00740592,-0.00037419,-1.38933,0.00506662,0.00989855,860,1569,0.00710005,-13.5842
-357,-545,0.0420532,13.9047,-0.000627358,0.0105699,-0.00189822,0.0108829,-0.000940402,-1.40735,0.00758819,0.0116154,867,1569,0.0420673,-13.9046
-350,-545,0.0471191,14.1943,-0.00136931,0.0153903,-0.00248696,0.0157515,-0.00173056,-1.42655,0.0111229,0.0169332,874,1569,0.0471237,-14.1944
-343,-545,0.052063,14.4277,-0.0023083,0.0207768,-0.00329893,0.0212389,-0.00277047,-1.4316,0.0151674,0.0244867,881,1569,0.0520775,-14.4277
-336,-545,0.0548706,14.615,-0.00327776,0.027,-0.00400645,0.0275212,-0.00379893,-1.44144,0.019736,0.033939,888,1569,0.0548609,-14.6149
-329,-545,-0.0802612,14.5011,-0.00439665,0.0347583,-0.00440754,0.0352484,-0.00488666,-1.46008,0.0252857,0.0431202,895,1569,-0.0802674,-14.501
-322,-545,0.111572,14.3424,0,0,0,0,0,0,0,-1,902,1569,0.111574,-14.3425
-315,-545,0.644287,15.5693,0,0,0,0,0,0,0,-1,909,1569,0.644292,-15.5693
-308,-545,1.08313,16.535,0,0,0,0,0,0,0,-1,916,1569,1.08311,-16.5351
-301,-545,1.52191,17.5009,0,0,0,0,0,0,0,-1,923,1569,1.52192,-17.5008
-294,-545,-2.69287,8.42102,0,0,0,0,0,0,0,-1,930,1569,-2.69287,-8.42097
-287,-545,-3.47784,9.96021,0,0,0,0,0,0,0,-1,937,1569,-3.47785,-9.96021
-280,-545,-4.26422,11.527,0,0,0,0,0,0,0,-1,944,1569,-4.26422,-11.527
-273,-545,-5.10333,12.864,0,0,0,0,0,0,0,-1,951,1569,-5.10331,-12.864
-266,-545,-5.78955,13.3704,0,0,0,0,0,0,0,-1,958,1569,-5.78952,-13.3703
-259,-545,-6.32184,13.8101,0,0,0,0,0,0,0,-1,965,1569,-6.32182,-13.81
-252,-545,0.369263,7.54053,0,0,0,0,0,0,0,-1,972,1569,0.369276,-7.54056
-245,-545,-0.236633,6.65564,0,0,0,0,0,0,0,-1,979,1569,-0.236605,-6.65566
-238,-545,0,0,0,0,0,0,0,0,0,-1,986,1569,0,0
-231,-545,0,0,0,0,0,0,0,0,0,-1,993,1569,0,0
-224,-545,0,0,0,0,0,0,0,0,0,-1,1000,1569,0,0
-217,-545,0,0,0,0,0,0,0,0,0,-1,1007,1569,0,0
-210,-545,0,0,0,0,0,0,0,0,0,-1,1014,1569,0,0
-203,-545,0,0,0,0,0,0,0,0,0,-1,1021,1569,0,0
-196,-545,0,0,0,0,0,0,0,0,0,-1,1028,1569,0,0
-189,-545,0,0,0,0,0,0,0,0,0,-1,1035,1569,0,0
-182,-545,0,0,0,0,0,0,0,0,0,-1,1042,1569,0,0
-175,-545,0,0,0,0,0,0,0,0,0,-1,1049,1569,0,0
-168,-545,0,0,0,0,0,0,0,0,0,-1,1056,1569,0,0
-161,-545,0,0,0,0,0,0,0,0,0,-1,1063,1569,0,0
-154,-545,0,0,0,0,0,0,0,0,0,-1,1070,1569,0,0
-147,-545,0,0,0,0,0,0,0,0,0,-1,1077,1569,0,0
-140,-545,0,0,0,0,0,0,0,0,0,-1,1084,1569,0,0
-133,-545,0,0,0,0,0,0,0,0,0,-1,1091,1569,0,0
-126,-545,0,0,0,0,0,0,0,0,0,-1,1098,1569,0,0
-119,-545,0,0,0,0,0,0,0,0,0,-1,1105,1569,0,0
-112,-545,0,0,0,0,0,0,0,0,0,-1,1112,1569,0,0
-105,-545,0,0,0,0,0,0,0,0,0,-1,1119,1569,0,0
-98,-545,0,0,0,0,0,0,0,0,0,-1,1126,1569,0,0
-91,-545,0,0,0,0,0,0,0,0,0,-1,1133,1569,0,0
-84,-545,0,0,0,0,0,0,0,0,0,-1,1140,1569,0,0
-77,-545,0,0,0,0,0,0,0,0,0,-1,1147,1569,0,0
-70,-545,0,0,0,0,0,0,0,0,0,-1,1154,1569,0,0
-63,-545,0,0,0,0,0,0,0,0,0,-1,1161,1569,0,0
-56,-545,0,0,0,0,0,0,0,0,0,-1,1168,1569,0,0
-49,-545,0,0,0,0,0,0,0,0,0,-1,1175,1569,0,0
-42,-545,0,0,0,0,0,0,0,0,0,-1,1182,1569,0,0
-35,-545,0,0,0,0,0,0,0,0,0,-1,1189,1569,0,0
-28,-545,0,0,0,0,0,0,0,0,0,-1,1196,1569,0,0
-21,-545,0,0,0,0,0,0,0,0,0,-1,1203,1569,0,0
-14,-545,0,0,0,0,0,0,0,0,0,-1,1210,1569,0,0
-7,-545,0,0,0,0,0,0,0,0,0,-1,1217,1569,0,0
0,-545,0,0,0,0,0,0,0,0,0,-1,1224,1569,0,0
7,-545,0,0,0,0,0,0,0,0,0,-1,1231,1569,0,0
14,-545,0,0,0,0,0,0,0,0,0,-1,1238,1569,0,0
21,-545,0,0,0,0,0,0,0,0,0,-1,1245,1569,0,0
28,-545,0,0,0,0,0,0,0,0,0,-1,1252,1569,0,0
35,-545,0,0,0,0,0,0,0,0,0,-1,1259,1569,0,0
42,-545,0,0,0,0,0,0,0,0,0,-1,1266,1569,0,0
49,-545,0,0,0,0,0,0,0,0,0,-1,1273,1569,0,0
56,-545,0,0,0,0,0,0,0,0,0,-1,1280,1569,0,0
63,-545,0,0,0,0,0,0,0,0,0,-1,1287,1569,0,0
70,-545,0,0,0,0,0,0,0,0,0,-1,1294,1569,0,0
77,-545,0,0,0,0,0,0,0,0,0,-1,1301,1569,0,0
84,-545,0,0,0,0,0,0,0,0,0,-1,1308,1569,0,0
91,-545,0,0,0,0,0,0,0,0,0,-1,1315,1569,0,0
98,-545,0,0,0,0,0,0,0,0,0,-1,1322,1569,0,0
105,-545,0,0,0,0,0,0,0,0,0,-1,1329,1569,0,0
112,-545,0,0,0,0,0,0,0,0,0,-1,1336,1569,0,0
119,-545,0,0,0,0,0,0,0,0,0,-1,1343,1569,0,0
126,-545,0,0,0,0,0,0,0,0,0,-1,1350,1569,0,0
133,-545,0,0,0,0,0,0,0,0,0,-1,1357,1569,0,0
140,-545,0,0,0,0,0,0,0,0,0,-1,1364,1569,0,0
147,-545,0,0,0,0,0,0,0,0,0,-1,1371,1569,0,0
154,-545,0,0,0,0,0,0,0,0,0,-1,1378,1569,0,0
161,-545,0,0,0,0,0,0,0,0,0,-1,1385,1569,0,0
168,-545,0,0,0,0,0,0,0,0,0,-1,1392,1569,0,0
175,-545,0,0,0,0,0,0,0,0,0,-1,1399,1569,0,0
182,-545,0,0,0,0,0,0,0,0,0,-1,1406,1569,0,0
189,-545,0,0,0,0,0,0,0,0,0,-1,1413,1569,0,0
196,-545,0,0,0,0,0,0,0,0,0,-1,1420,1569,0,0
203,-545,0,0,0,0,0,0,0,0,0,-1,1427,1569,0,0
210,-545,0,0,0,0,0,0,0,0,0,-1,1434,1569,0,0
217,-545,0,0,0,0,0,0,0,0,0,-1,1441,1569,0,0
224,-545,0,0,0,0,0,0,0,0,0,-1,1448,1569,0,0
231,-545,0,0,0,0,0,0,0,0,0,-1,1455,1569,0,0
238,-545,0,0,0,0,0,0,0,0,0,-1,1462,1569,0,0
245,-545,0,0,0,0,0,0,0,0,0,-1,1469,1569,0,0
252,-545,0,0,0,0,0,0,0,0,0,-1,1476,1569,0,0
259,-545,0,0,0,0,0,0,0,0,0,-1,1483,1569,0,0
266,-545,0,0,0,0,0,0,0,0,0,-1,1490,1569,0,0
273,-545,0,0,0,0,0,0,0,0,0,-1,1497,1569,0,0
280,-545,0,0,0,0,0,0,0,0,0,-1,1504,1569,0,0
287,-545,0,0,0,0,0,0,0,0,0,-1,1511,1569,0,0
294,-545,0,0,0,0,0,0,0,0,0,-1,1518,1569,0,0
301,-545,0,0,0,0,0,0,0,0,0,-1,1525,1569,0,0
308,-545,0,0,0,0,0,0,0,0,0,-1,1532,1569,0,0
315,-545,0,0,0,0,0,0,0,0,0,-1,1539,1569,0,0
322,-545,0,0,0,0,0,0,0,0,0,-1,1546,1569,0,0
329,-545,0,0,0,0,0,0,0,0,0,-1,1553,1569,0,0
336,-545,0,0,0,0,0,0,0,0,0,-1,1560,1569,0,0
343,-545,0,0,0,0,0,0,0,0,0,-1,1567,1569,0,0
350,-545,0,0,0,0,0,0,0,0,0,-1,1574,1569,0,0
357,-545,0,0,0,0,0,0,0,0,0,-1,1581,1569,0,0
364,-545,7.19495,4.88098,0,0,0,0,0,0,0,-1,1588,1569,7.19497,-4.88095
371,-545,7.82324,3.84302,0,0,0,0,0,0,0,-1,1595,1569,7.82324,-3.84307
378,-545,7.65674,5.52673,0,0,0,0,0,0,0,-1,1602,1569,7.6567,-5.52667
385,-545,8.58447,1.16125,0,0,0,0,0,0,0,-1,1609,1569,8.5845,-1.1612
392,-545,12.5654,3.89526,0,0,0,0,0,0,0,-1,1616,1569,12.5655,-3.89532
399,-545,11.5869,5.6333,0,0,0,0,0,0,0,-1,1623,1569,11.5869,-5.63326
406,-545,11.234,6.36414,0,0,0,0,0,0,0,-1,1630,1569,11.234,-6.3641
413,-545,12.1521,13.4817,0,0,0,0,0,0,0,-1,1637,1569,12.1521,-13.4817
420,-545,11.1954,13.6047,0,0,0,0,0,0,0,-1,1644,1569,11.1954,-13.6047
427,-545,9.61072,14.9135,0,0,0,0,0,0,0,-1,1651,1569,9.61076,-14.9134
434,-545,9.94995,14.6656,0,0,0,0,0,0,0,-1,1658,1569,9.94994,-14.6657
441,-545,9.61902,15.0933,0,0,0,0,0,0,0,-1,1665,1569,9.619,-15.0932
448,-545,9.34253,14.7194,0,0,0,0,0,0,0,-1,1672,1569,9.34256,-14.7194
455,-545,11.4242,16.01,0,0,0,0,0,0,0,-1,1679,1569,11.4242,-16.01
462,-545,11.4694,15.0331,0,0,0,0,0,0,0,-1,1686,1569,11.4693,-15.0331
469,-545,11.0166,14.9158,-0.0230479,-0.0258732,0.0264492,0.00202634,-0.0509474,0.758719,0.0346601,0.0495695,1693,1569,11.0166,-14.9157
476,-545,10.4949,15.3434,-0.0185793,-0.0203841,0.0216321,0.00216915,-0.0411326,0.764552,0.0281726,0.0447462,1700,1569,10.4948,-15.3433
483,-545,10.501,15.288,-0.0146363,-0.0154742,0.0173213,0.0022711,-0.0323816,0.773306,0.0223832,0.0178607,1707,1569,10.501,-15.288
490,-545,10.4656,15.047,-0.0113164,-0.011214,0.0136975,0.00243244,-0.0249628,0.787269,0.0175091,0.0116892,1714,1569,10.4655,-15.047
497,-545,10.4938,14.8055,-0.00842469,-0.00787764,0.0104928,0.00234525,-0.0186476,0.798429,0.0132827,0.0165344,1721,1569,10.4938,-14.8056
504,-545,10.5303,14.5446,-0.0058776,-0.00511811,0.00767309,0.00218462,-0.0131803,0.810123,0.00959833,0.0156679,1728,1569,10.5303,-14.5446
511,-545,10.5115,14.2648,-0.00356657,-0.00319077,0.00521134,0.00183606,-0.0085934,0.803418,0.00642895,0.0115947,1735,1569,10.5115,-14.2648
518,-545,10.4944,13.9956,-0.00175271,-0.00172644,0.0032543,0.00151475,-0.0049939,0.787416,0.00393265,0.0127256,1742,1569,10.4943,-13.9956
525,-545,10.4677,13.722,-9.09306e-05,-0.000555405,0.00147627,0.00117125,-0.00181759,0.70738,0.00173901,0.0126411,1749,1569,10.4677,-13.722
532,-545,10.4528,13.4592,0.00122326,2.34181e-05,7.55358e-05,0.001228,1.86815e-05,0.0626252,0.000812509,0.0130923,1756,1569,10.4527,-13.4592
539,-545,10.4536,13.2104,0.00217797,-2.32899e-05,-0.000827875,0.00245457,-0.00029989,-0.322448,0.00174495,0.0166452,1763,1569,10.4536,-13.2105
546,-545,10.433,12.9348,0.00296229,-2.93954e-05,-0.00156802,0.00363353,-0.00070063,-0.404475,0.00268652,0.0184382,1770,1569,10.433,-12.9348
553,-545,10.4728,12.6149,0.00382908,6.70457e-05,-0.00239667,0.00499474,-0.00109862,-0.452682,0.00375006,0.0249512,1777,1569,10.4728,-12.6149
560,-545,10.5082,12.3097,0.00503853,0.000749101,-0.00340068,0.00691431,-0.00112669,-0.504064,0.00502737,0.0268469,1784,1569,10.5082,-12.3097
567,-545,10.3496,12.1575,0.00593884,0.00164536,-0.00423291,0.00853826,-0.000954061,-0.55072,0.00603538,0.0465132,1791,1569,10.3497,-12.1575
574,-545,10.4958,11.722,0,0,0,0,0,0,0,-1,1798,1569,10.4958,-11.722
581,-545,10.578,11.4352,0,0,0,0,0,0,0,-1,1805,1569,10.578,-11.4352
588,-545,10.5797,11.2367,0,0,0,0,0,0,0,-1,1812,1569,10.5797,-11.2368
595,-545,10.2859,9.11218,0,0,0,0,0,0,0,-1,1819,1569,10.2858,-9.11215
602,-545,8.82117,6.32214,0,0,0,0,0,0,0,-1,1826,1569,8.82121,-6.32217
609,-545,10.2406,5.22351,0,0,0,0,0,0,0,-1,1833,1569,10.2406,-5.22353
616,-545,11.701,3.93188,0,0,0,0,0,0,0,-1,1840,1569,11.701,-3.93191
623,-545,13.2139,2.32043,0,0,0,0,0,0,0,-1,1847,1569,13.2139,-2.32042
630,-545,0,0,0,0,0,0,0,0,0,-1,1854,1569,0,0
637,-545,0,0,0,0,0,0,0,0,0,-1,1861,1569,0,0
644,-545,0,0,0,0,0,0,0,0,0,-1,1868,1569,0,0
651,-545,0,0,0,0,0,0,0,0,0,-1,1875,1569,0,0
658,-545,0,0,0,0,0,0,0,0,0,-1,1882,1569,0,0
665,-545,0,0,0,0,0,0,0,0,0,-1,1889,1569,0,0
672,-545,0,0,0,0,0,0,0,0,0,-1,1896,1569,0,0
679,-545,0,0,0,0,0,0,0,0,0,-1,1903,1569,0,0
686,-545,0,0,0,0,0,0,0,0,0,-1,1910,1569,0,0
693,-545,0,0,0,0,0,0,0,0,0,-1,1917,1569,0,0
700,-545,0,0,0,0,0,0,0,0,0,-1,1924,1569,0,0
707,-545,0,0,0,0,0,0,0,0,0,-1,1931,1569,0,0
714,-545,0,0,0,0,0,0,0,0,0,-1,1938,1569,0,0
721,-545,0,0,0,0,0,0,0,0,0,-1,1945,1569,0,0
728,-545,0,0,0,0,0,0,0,0,0,-1,1952,1569,0,0
735,-545,0,0,0,0,0,0,0,0,0,-1,1959,1569,0,0
742,-545,0,0,0,0,0,0,0,0,0,-1,1966,1569,0,0
749,-545,0,0,0,0,0,0,0,0,0,-1,1973,1569,0,0
756,-545,0,0,0,0,0,0,0,0,0,-1,1980,1569,0,0
763,-545,0,0,0,0,0,0,0,0,0,-1,1987,1569,0,0
770,-545,0,0,0,0,0,0,0,0,0,-1,1994,1569,0,0
777,-545,0,0,0,0,0,0,0,0,0,-1,2001,1569,0,0
784,-545,0,0,0,0,0,0,0,0,0,-1,2008,1569,0,0
791,-545,0,0,0,0,0,0,0,0,0,-1,2015,1569,0,0
798,-545,0,0,0,0,0,0,0,0,0,-1,2022,1569,0,0
805,-545,0,0,0,0,0,0,0,0,0,-1,2029,1569,0,0
812,-545,0,0,0,0,0,0,0,0,0,-1,2036,1569,0,0
-700,-552,0,0,0,0,0,0,0,0,0,-1,524,1576,0,0
-693,-552,0,0,0,0,0,0,0,0,0,-1,531,1576,0,0
-686,-552,0,0,0,0,0,0,0,0,0,-1,538,1576,0,0
-679,-552,0,0,0,0,0,0,0,0,0,-1,545,1576,0,0
-672,-552,0,0,0,0,0,0,0,0,0,-1,552,1576,0,0
-665,-552,0,0,0,0,0,0,0,0,0,-1,559,1576,0,0
-658,-552,0,0,0,0,0,0,0,0,0,-1,566,1576,0,0
-651,-552,0,0,0,0,0,0,0,0,0,-1,573,1576,0,0
-644,-552,0,0,0,0,0,0,0,0,0,-1,580,1576,0,0
-637,-552,0,0,0,0,0,0,0,0,0,-1,587,1576,0,0
-630,-552,0,0,0,0,0,0,0,0,0,-1,594,1576,0,0
-623,-552,0,0,0,0,0,0,0,0,0,-1,601,1576,0,0
-616,-552,0,0,0,0,0,0,0,0,0,-1,608,1576,0,0
-609,-552,0,0,0,0,0,0,0,0,0,-1,615,1576,0,0
-602,-552,0,0,0,0,0,0,0,0,0,-1,622,1576,0,0
-595,-552,0,0,0,0,0,0,0,0,0,-1,629,1576,0,0
-588,-552,0,0,0,0,0,0,0,0,0,-1,636,1576,0,0
-581,-552,0,0,0,0,0,0,0,0,0,-1,643,1576,0,0
-574,-552,0,0,0,0,0,0,0,0,0,-1,650,1576,0,0
-567,-552,0,0,0,0,0,0,0,0,0,-1,657,1576,0,0
-560,-552,0,0,0,0,0,0,0,0,0,-1,664,1576,0,0
-553,-552,0,0,0,0,0,0,0,0,0,-1,671,1576,0,0
-546,-552,0,0,0,0,0,0,0,0,0,-1,678,1576,0,0
-539,-552,0,0,0,0,0,0,0,0,0,-1,685,1576,0,0
-532,-552,0,0,0,0,0,0,0,0,0,-1,692,1576,0,0
-525,-552,0,0,0,0,0,0,0,0,0,-1,699,1576,0,0
-518,-552,0,0,0,0,0,0,0,0,0,-1,706,1576,0,0
-511,-552,0,0,0,0,0,0,0,0,0,-1,713,1576,0,0
-504,-552,0,0,0,0,0,0,0,0,0,-1,720,1576,0,0
-497,-552,1.51282,3.96924,0,0,0,0,0,0,0,-1,727,1576,1.5128,-3.96924
-490,-552,-3.82312,6.32104,0,0,0,0,0,0,0,-1,734,1576,-3.82314,-6.3211
-483,-552,-3.50586,6.47986,0,0,0,0,0,0,0,-1,741,1576,-3.50587,-6.47983
-476,-552,-2.87323,5.8656,0,0,0,0,0,0,0,-1,748,1576,-2.87322,-5.86563
-469,-552,0.0834351,6.15466,0,0,0,0,0,0,0,-1,755,1576,0.0834338,-6.15472
-462,-552,0.274597,7.65405,0,0,0,0,0,0,0,-1,762,1576,0.274609,-7.65404
-455,-552,0.403442,9.15686,0,0,0,0,0,0,0,-1,769,1576,0.403465,-9.1569
-448,-552,0.382507,9.68433,0.00309667,0.0127086,0.00823527,0.0174377,-0.00163241,1.04953,0.0122057,0.0479105,776,1576,0.382504,-9.68428
-441,-552,0.334229,10.2269,0.00267038,0.0100232,0.00638054,0.0137107,-0.00101712,1.04676,0.00949769,0.0387522,783,1576,0.334238,-10.2269
-434,-552,0.404053,10.7598,0,0,0,0,0,0,0,-1,790,1576,0.404056,-10.7598
-427,-552,0.300476,10.9374,0.00190302,0.00597048,0.00377061,0.00822085,-0.000347355,1.03272,0.00559994,0.0174346,797,1576,0.300459,-10.9374
-420,-552,0.347412,11.2694,0.00161613,0.00475379,0.00276799,0.00636662,3.29386e-06,1.04321,0.00424332,0.0191674,804,1576,0.347435,-11.2695
-413,-552,0.336731,11.5551,0.00132629,0.00357228,0.0020835,0.00481616,8.24081e-05,1.03258,0.00318366,0.0173118,811,1576,0.33671,-11.5551
-406,-552,0.306091,11.855,0.00137784,0.00257629,0.00145808,0.00355348,0.000400653,0.980362,0.00224737,0.0133334,818,1576,0.30611,-11.855
-399,-552,0.30835,12.1418,0.00104896,0.00198895,0.00100681,0.00263006,0.000407851,1.00377,0.00163447,0.0130824,825,1576,0.308369,-12.1418
-392,-552,0.297485,12.415,0.000780264,0.00157107,0.000672822,0.00195607,0.00039526,1.05105,0.0011943,0.0143631,832,1576,0.29749,-12.4151
-385,-552,0.301208,12.7186,0.000680265,0.00176301,0.000297678,0.00183945,0.000603822,1.31943,0.00108269,0.0133333,839,1576,0.301194,-12.7187
-378,-552,0.290894,13.0094,0.000492671,0.00278527,-0.000204172,0.00280331,0.00047463,-1.48266,0.00173247,0.0143542,846,1576,0.290904,-13.0094
-371,-552,0.289063,13.3171,0.000303548,0.00396733,-0.000651187,0.00407963,0.000191251,-1.40003,0.0026583,0.019022,853,1576,0.289038,-13.3171
-364,-552,0.310547,13.6002,3.99504e-05,0.00563788,-0.00106881,0.005835,-0.000157174,-1.38841,0.00394344,0.0153317,860,1576,0.310574,-13.6002
-357,-552,0.317444,13.8607,-0.000240635,0.00825866,-0.00139997,0.00848331,-0.000465293,-1.41168,0.00581685,0.0103893,867,1576,0.31743,-13.8607
-350,-552,0.304321,14.1619,-0.000660116,0.0119886,-0.00177018,0.0122316,-0.000903182,-1.43434,0.00847154,0.0101851,874,1576,0.304303,-14.1619
-343,-552,0.287659,14.4232,-0.00119306,0.015943,-0.00226852,0.0162382,-0.00148829,-1.44138,0.0113541,0.0103165,881,1576,0.287682,-14.4232
-336,-552,0.353638,14.6324,-0.00172835,0.0203911,-0.00266562,0.0207078,-0.00204505,-1.45254,0.0145349,0.0165348,888,1576,0.353614,-14.6324
-329,-552,0.443542,14.8876,-0.00239493,0.025889,-0.00284082,0.0261715,-0.00267744,-1.47168,0.0184052,0.0357888,895,1576,0.443566,-14.8876
-322,-552,0.663391,15.306,0,0,0,0,0,0,0,-1,902,1576,0.663421,-15.3061
-315,-552,0.756958,16.1029,0,0,0,0,0,0,0,-1,909,1576,0.756974,-16.1029
-308,-552,0.884705,16.6635,0,0,0,0,0,0,0,-1,916,1576,0.884702,-16.6635
-301,-552,0.658386,17.7263,0,0,0,0,0,0,0,-1,923,1576,0.658409,-17.7263
-294,-552,0.842163,13.7863,0,0,0,0,0,0,0,-1,930,1576,0.842149,-13.7863
-287,-552,-0.663757,13.3474,0,0,0,0,0,0,0,-1,937,1576,-0.663744,-13.3474
-280,-552,-5.47241,8.96765,0,0,0,0,0,0,0,-1,944,1576,-5.47239,-8.96766
-273,-552,1.64587,10.6685,0,0,0,0,0,0,0,-1,951,1576,1.6459,-10.6685
-266,-552,-1.32678,8.05688,0,0,0,0,0,0,0,-1,958,1576,-1.32677,-8.05683
-259,-552,-5.54321,8.31213,0,0,0,0,0,0,0,-1,965,1576,-5.54324,-8.31214
-252,-552,-1.93445,7.81543,0,0,0,0,0,0,0,-1,972,1576,-1.93445,-7.81546
-245,-552,-2.53613,6.92212,0,0,0,0,0,0,0,-1,979,1576,-2.53614,-6.92216
-238,-552,-6.5365,2.81885,0,0,0,0,0,0,0,-1,986,1576,-6.53649,-2.8188
-231,-552,-4.32239,4.34583,0,0,0,0,0,0,0,-1,993,1576,-4.32239,-4.34587
-224,-552,0,0,0,0,0,0,0,0,0,-1,1000,1576,0,0
-217,-552,0,0,0,0,0,0,0,0,0,-1,1007,1576,0,0
-210,-552,0,0,0,0,0,0,0,0,0,-1,1014,1576,0,0
-203,-552,0,0,0,0,0,0,0,0,0,-1,1021,1576,0,0
-196,-552,0,0,0,0,0,0,0,0,0,-1,1028,1576,0,0
-189,-552,0,0,0,0,0,0,0,0,0,-1,1035,1576,0,0
-182,-552,0,0,0,0,0,0,0,0,0,-1,1042,1576,0,0
-175,-552,0,0,0,0,0,0,0,0,0,-1,1049,1576,0,0
-168,-552,0,0,0,0,0,0,0,0,0,-1,1056,1576,0,0
-161,-552,0,0,0,0,0,0,0,0,0,-1,1063,1576,0,0
-154,-552,0,0,0,0,0,0,0,0,0,-1,1070,1576,0,0
-147,-552,0,0,0,0,0,0,0,0,0,-1,1077,1576,0,0
-140,-552,0,0,0,0,0,0,0,0,0,-1,1084,1576,0,0
-133,-552,0,0,0,0,0,0,0,0,0,-1,1091,1576,0,0
-126,-552,0,0,0,0,0,0,0,0,0,-1,1098,1576,0,0
-119,-552,0,0,0,0,0,0,0,0,0,-1,1105,1576,0,0
-112,-552,0,0,0,0,0,0,0,0,0,-1,1112,1576,0,0
-105,-552,0,0,0,0,0,0,0,0,0,-1,1119,1576,0,0
-98,-552,0,0,0,0,0,0,0,0,0,-1,1126,1576,0,0
-91,-552,0,0,0,0,0,0,0,0,0,-1,1133,1576,0,0
-84,-552,0,0,0,0,0,0,0,0,0,-1,1140,1576,0,0
-77,-552,0,0,0,0,0,0,0,0,0,-1,1147,1576,0,0
-70,-552,0,0,0,0,0,0,0,0,0,-1,1154,1576,0,0
-63,-552,0,0,0,0,0,0,0,0,0,-1,1161,1576,0,0
-56,-552,0,0,0,0,0,0,0,0,0,-1,1168,1576,0,0
-49,-552,0,0,0,0,0,0,0,0,0,-1,1175,1576,0,0
-42,-552,0,0,0,0,0,0,0,0,0,-1,1182,1576,0,0
-35,-552,0,0,0,0,0,0,0,0,0,-1,1189,1576,0,0
-28,-552,0,0,0,0,0,0,0,0,0,-1,1196,1576,0,0
-21,-552,0,0,0,0,0,0,0,0,0,-1,1203,1576,0,0
-14,-552,0,0,0,0,0,0,0,0,0,-1,1210,1576,0,0
-7,-552,0,0,0,0,0,0,0,0,0,-1,1217,1576,0,0
0,-552,0,0,0,0,0,0,0,0,0,-1,1224,1576,0,0
7,-552,0,0,0,0,0,0,0,0,0,-1,1231,1576,0,0
14,-552,0,0,0,0,0,0,0,0,0,-1,1238,1576,0,0
21,-552,0,0,0,0,0,0,0,0,0,-1,1245,1576,0,0
28,-552,0,0,0,0,0,0,0,0,0,-1,1252,1576,0,0
35,-552,0,0,0,0,0,0,0,0,0,-1,1259,1576,0,0
42,-552,0,0,0,0,0,0,0,0,0,-1,1266,1576,0,0
49,-552,0,0,0,0,0,0,0,0,0,-1,1273,1576,0,0
56,-552,0,0,0,0,0,0,0,0,0,-1,1280,1576,0,0
63,-552,0,0,0,0,0,0,0,0,0,-1,1287,1576,0,0
70,-552,0,0,0,0,0,0,0,0,0,-1,1294,1576,0,0
77,-552,0,0,0,0,0,0,0,0,0,-1,1301,1576,0,0
84,-552,0,0,0,0,0,0,0,0,0,-1,1308,1576,0,0
91,-552,0,0,0,0,0,0,0,0,0,-1,1315,1576,0,0
98,-552,0,0,0,0,0,0,0,0,0,-1,1322,1576,0,0
105,-552,0,0,0,0,0,0,0,0,0,-1,1329,1576,0,0
112,-552,0,0,0,0,0,0,0,0,0,-1,1336,1576,0,0
119,-552,0,0,0,0,0,0,0,0,0,-1,1343,1576,0,0
126,-552,0,0,0,0,0,0,0,0,0,-1,1350,1576,0,0
133,-552,0,0,0,0,0,0,0,0,0,-1,1357,1576,0,0
140,-552,0,0,0,0,0,0,0,0,0,-1,1364,1576,0,0
147,-552,0,0,0,0,0,0,0,0,0,-1,1371,1576,0,0
154,-552,0,0,0,0,0,0,0,0,0,-1,1378,1576,0,0
161,-552,0,0,0,0,0,0,0,0,0,-1,1385,1576,0,0
168,-552,0,0,0,0,0,0,0,0,0,-1,1392,1576,0,0
175,-552,0,0,0,0,0,0,0,0,0,-1,1399,1576,0,0
182,-552,0,0,0,0,0,0,0,0,0,-1,1406,1576,0,0
189,-552,0,0,0,0,0,0,0,0,0,-1,1413,1576,0,0
196,-552,0,0,0,0,0,0,0,0,0,-1,1420,1576,0,0
203,-552,0,0,0,0,0,0,0,0,0,-1,1427,1576,0,0
210,-552,0,0,0,0,0,0,0,0,0,-1,1434,1576,0,0
217,-552,0,0,0,0,0,0,0,0,0,-1,1441,1576,0,0
224,-552,0,0,0,0,0,0,0,0,0,-1,1448,1576,0,0
231,-552,0,0,0,0,0,0,0,0,0,-1,1455,1576,0,0
238,-552,0,0,0,0,0,0,0,0,0,-1,1462,1576,0,0
245,-552,0,0,0,0,0,0,0,0,0,-1,1469,1576,0,0
252,-552,0,0,0,0,0,0,0,0,0,-1,1476,1576,0,0
259,-552,0,0,0,0,0,0,0,0,0,-1,1483,1576,0,0
266,-552,0,0,0,0,0,0,0,0,0,-1,1490,1576,0,0
273,-552,0,0,0,0,0,0,0,0,0,-1,1497,1576,0,0
280,-552,0,0,0,0,0,0,0,0,0,-1,1504,1576,0,0
287,-552,0,0,0,0,0,0,0,0,0,-1,1511,1576,0,0
294,-552,0,0,0,0,0,0,0,0,0,-1,1518,1576,0,0
301,-552,0,0,0,0,0,0,0,0,0,-1,1525,1576,0,0
308,-552,0,0,0,0,0,0,0,0,0,-1,1532,1576,0,0
315,-552,0,0,0,0,0,0,0,0,0,-1,1539,1576,0,0
322,-552,0,0,0,0,0,0,0,0,0,-1,1546,1576,0,0
329,-552,0,0,0,0,0,0,0,0,0,-1,1553,1576,0,0
336,-552,0,0,0,0,0,0,0,0,0,-1,1560,1576,0,0
343,-552,0,0,0,0,0,0,0,0,0,-1,1567,1576,0,0
350,-552,4.97876,4.09888,0,0,0,0,0,0,0,-1,1574,1576,4.97875,-4.09883
357,-552,5.18469,4.10706,0,0,0,0,0,0,0,-1,1581,1576,5.1847,-4.10702
364,-552,5.80872,5.07031,0,0,0,0,0,0,0,-1,1588,1576,5.80874,-5.07037
371,-552,7.10657,5.64783,0,0,0,0,0,0,0,-1,1595,1576,7.10651,-5.64786
378,-552,6.44446,4.91492,0,0,0,0,0,0,0,-1,1602,1576,6.44448,-4.91496
385,-552,12.8276,3.16504,0,0,0,0,0,0,0,-1,1609,1576,12.8276,-3.16503
392,-552,12.1301,4.3363,0,0,0,0,0,0,0,-1,1616,1576,12.1302,-4.33631
399,-552,11.3486,5.6012,0,0,0,0,0,0,0,-1,1623,1576,11.3486,-5.60115
406,-552,10.7863,6.42542,0,0,0,0,0,0,0,-1,1630,1576,10.7863,-6.42536
413,-552,8.39307,10.365,0,0,0,0,0,0,0,-1,1637,1576,8.3931,-10.365
420,-552,10.2306,12.7225,0,0,0,0,0,0,0,-1,1644,1576,10.2305,-12.7226
427,-552,9.73267,14.783,0,0,0,0,0,0,0,-1,1651,1576,9.73269,-14.783
434,-552,9.22498,15.3534,0,0,0,0,0,0,0,-1,1658,1576,9.22499,-15.3534
441,-552,9.45313,14.8438,0,0,0,0,0,0,0,-1,1665,1576,9.45307,-14.8438
448,-552,10.6729,16.0579,0,0,0,0,0,0,0,-1,1672,1576,10.6729,-16.0579
455,-552,10.8771,16.0477,-0.0233234,-0.0286464,0.0273056,0.00145011,-0.0534199,0.736816,0.0361063,0.0470454,1679,1576,10.8771,-16.0477
462,-552,10.4586,15.7529,-0.0202682,-0.0237226,0.0235848,0.00165253,-0.0456433,0.748846,0.0309944,0.0442677,1686,1576,10.4586,-15.7529
469,-552,10.3721,15.7277,-0.0169227,-0.0195283,0.019789,0.00160637,-0.0380573,0.752528,0.0259236,0.0434847,1693,1576,10.3721,-15.7276
476,-552,10.1616,15.5725,-0.0137658,-0.0155488,0.0162331,0.00160026,-0.0309149,0.757966,0.0211635,0.02239,1700,1576,10.1616,-15.5725
483,-552,10.2214,15.2698,-0.01089,-0.0119735,0.0130816,0.00166103,-0.0245246,0.764703,0.0169306,0.0156809,1707,1576,10.2214,-15.2698
490,-552,10.2262,15.0427,-0.00832261,-0.00880588,0.010347,0.00178556,-0.0189141,0.773724,0.0132447,0.014533,1714,1576,10.2262,-15.0428
497,-552,10.2743,14.8043,-0.00598018,-0.00625097,0.00782521,0.0017108,-0.013942,0.776748,0.00991423,0.0220941,1721,1576,10.2743,-14.8043
504,-552,10.2676,14.5653,-0.00384754,-0.00404985,0.00555587,0.0016081,-0.00950549,0.776296,0.00693545,0.0235678,1728,1576,10.2676,-14.5653
511,-552,10.2404,14.2588,-0.00182859,-0.00248366,0.00350155,0.00136071,-0.00567296,0.738764,0.00430779,0.0175295,1735,1576,10.2403,-14.2587
518,-552,10.2339,13.9929,-0.000191334,-0.00131991,0.00185439,0.00118272,-0.00269397,0.6377,0.0022942,0.0145106,1742,1576,10.2339,-13.9929
525,-552,10.2095,13.7329,0.00137118,-0.000447922,0.000334128,0.00143061,-0.000507352,0.176026,0.00116043,0.0130023,1749,1576,10.2095,-13.7329
532,-552,10.2003,13.4628,0.00265576,-0.000152074,-0.000851804,0.00289397,-0.000390275,-0.272678,0.00207169,0.0142547,1756,1576,10.2003,-13.4627
539,-552,10.2097,13.1912,0.0036813,-0.00034524,-0.00167234,0.00428528,-0.000949213,-0.346578,0.00322023,0.0172698,1763,1576,10.2097,-13.1911
546,-552,10.2074,12.9366,0.0045583,-0.00052495,-0.00234339,0.00547375,-0.0014404,-0.372421,0.00421221,0.0202647,1770,1576,10.2074,-12.9367
553,-552,10.265,12.6296,0.00558267,-0.00053858,-0.00319379,0.00694559,-0.0019015,-0.403343,0.00537748,0.0231323,1777,1576,10.265,-12.6296
560,-552,10.3589,12.2844,0,0,0,0,0,0,0,-1,1784,1576,10.3588,-12.2844
567,-552,10.3124,11.9171,0,0,0,0,0,0,0,-1,1791,1576,10.3124,-11.9171
574,-552,10.2654,11.4266,0,0,0,0,0,0,0,-1,1798,1576,10.2654,-11.4267
581,-552,9.74841,9.98645,0,0,0,0,0,0,0,-1,1805,1576,9.74847,-9.9864
588,-552,10.5619,9.34924,0,0,0,0,0,0,0,-1,1812,1576,10.5619,-9.34921
595,-552,5.36194,6.62744,0,0,0,0,0,0,0,-1,1819,1576,5.36193,-6.62742
602,-552,10.6863,4.31616,0,0,0,0,0,0,0,-1,1826,1576,10.6862,-4.31619
609,-552,12.146,3.18286,0,0,0,0,0,0,0,-1,1833,1576,12.1459,-3.18281
616,-552,13.8762,2.08167,0,0,0,0,0,0,0,-1,1840,1576,13.8763,-2.08167
623,-552,0,0,0,0,0,0,0,0,0,-1,1847,1576,0,0
630,-552,0,0,0,0,0,0,0,0,0,-1,1854,1576,0,0
637,-552,0,0,0,0,0,0,0,0,0,-1,1861,1576,0,0
644,-552,0,0,0,0,0,0,0,0,0,-1,1868,1576,0,0
651,-552,0,0,0,0,0,0,0,0,0,-1,1875,1576,0,0
658,-552,0,0,0,0,0,0,0,0,0,-1,1882,1576,0,0
665,-552,0,0,0,0,0,0,0,0,0,-1,1889,1576,0,0
672,-552,0,0,0,0,0,0,0,0,0,-1,1896,1576,0,0
679,-552,0,0,0,0,0,0,0,0,0,-1,1903,1576,0,0
686,-552,0,0,0,0,0,0,0,0,0,-1,1910,1576,0,0
693,-552,0,0,0,0,0,0,0,0,0,-1,1917,1576,0,0
700,-552,0,0,0,0,0,0,0,0,0,-1,1924,1576,0,0
707,-552,0,0,0,0,0,0,0,0,0,-1,1931,1576,0,0
714,-552,0,0,0,0,0,0,0,0,0,-1,1938,1576,0,0
721,-552,0,0,0,0,0,0,0,0,0,-1,1945,1576,0,0
728,-552,0,0,0,0,0,0,0,0,0,-1,1952,1576,0,0
735,-552,0,0,0,0,0,0,0,0,0,-1,1959,1576,0,0
742,-552,0,0,0,0,0,0,0,0,0,-1,1966,1576,0,0
749,-552,0,0,0,0,0,0,0,0,0,-1,1973,1576,0,0
756,-552,0,0,0,0,0,0,0,0,0,-1,1980,1576,0,0
763,-552,0,0,0,0,0,0,0,0,0,-1,1987,1576,0,0
770,-552,0,0,0,0,0,0,0,0,0,-1,1994,1576,0,0
777,-552,0,0,0,0,0,0,0,0,0,-1,2001,1576,0,0
784,-552,0,0,0,0,0,0,0,0,0,-1,2008,1576,0,0
791,-552,0,0,0,0,0,0,0,0,0,-1,2015,1576,0,0
798,-552,0,0,0,0,0,0,0,0,0,-1,2022,1576,0,0
805,-552,0,0,0,0,0,0,0,0,0,-1,2029,1576,0,0
812,-552,0,0,0,0,0,0,0,0,0,-1,2036,1576,0,0
-700,-559,0,0,0,0,0,0,0,0,0,-1,524,1583,0,0
-693,-559,0,0,0,0,0,0,0,0,0,-1,531,1583,0,0
-686,-559,0,0,0,0,0,0,0,0,0,-1,538,1583,0,0
-679,-559,0,0,0,0,0,0,0,0,0,-1,545,1583,0,0
-672,-559,0,0,0,0,0,0,0,0,0,-1,552,1583,0,0
-665,-559,0,0,0,0,0,0,0,0,0,-1,559,1583,0,0
-658,-559,0,0,0,0,0,0,0,0,0,-1,566,1583,0,0
-651,-559,0,0,0,0,0,0,0,0,0,-1,573,1583,0,0
-644,-559,0,0,0,0,0,0,0,0,0,-1,580,1583,0,0
-637,-559,0,0,0,0,0,0,0,0,0,-1,587,1583,0,0
-630,-559,0,0,0,0,0,0,0,0,0,-1,594,1583,0,0
-623,-559,0,0,0,0,0,0,0,0,0,-1,601,1583,0,0
-616,-559,0,0,0,0,0,0,0,0,0,-1,608,1583,0,0
-609,-559,0,0,0,0,0,0,0,0,0,-1,615,1583,0,0
-602,-559,0,0,0,0,0,0,0,0,0,-1,622,1583,0,0
-595,-559,0,0,0,0,0,0,0,0,0,-1,629,1583,0,0
-588,-559,0,0,0,0,0,0,0,0,0,-1,636,1583,0,0
-581,-559,0,0,0,0,0,0,0,0,0,-1,643,1583,0,0
-574,-559,0,0,0,0,0,0,0,0,0,-1,650,1583,0,0
-567,-559,0,0,0,0,0,0,0,0,0,-1,657,1583,0,0
-560,-559,0,0,0,0,0,0,0,0,0,-1,664,1583,0,0
-553,-559,0,0,0,0,0,0,0,0,0,-1,671,1583,0,0
-546,-559,0,0,0,0,0,0,0,0,0,-1,678,1583,0,0
-539,-559,0,0,0,0,0,0,0,0,0,-1,685,1583,0,0
-532,-559,0,0,0,0,0,0,0,0,0,-1,692,1583,0,0
-525,-559,0,0,0,0,0,0,0,0,0,-1,699,1583,0,0
-518,-559,0,0,0,0,0,0,0,0,0,-1,706,1583,0,0
-511,-559,0,0,0,0,0,0,0,0,0,-1,713,1583,0,0
-504,-559,0,0,0,0,0,0,0,0,0,-1,720,1583,0,0
-497,-559,0,0,0,0,0,0,0,0,0,-1,727,1583,0,0
-490,-559,-5.49835,4.47424,0,0,0,0,0,0,0,-1,734,1583,-5.49833,-4.4743
-483,-559,-5.24078,4.74561,0,0,0,0,0,0,0,-1,741,1583,-5.24079,-4.74563
-476,-559,-4.98022,4.99316,0,0,0,0,0,0,0,-1,748,1583,-4.98024,-4.99321
-469,-559,-4.6424,5.38062,0,0,0,0,0,0,0,-1,755,1583,-4.64237,-5.38058
-462,-559,-0.161865,6.49438,0,0,0,0,0,0,0,-1,762,1583,-0.161835,-6.49444
-455,-559,0.561218,8.10693,0,0,0,0,0,0,0,-1,769,1583,0.561209,-8.10697
-448,-559,0.613281,9.47693,0,0,0,0,0,0,0,-1,776,1583,0.613276,-9.47696
-441,-559,0.514282,10.0269,0,0,0,0,0,0,0,-1,783,1583,0.514265,-10.0269
-434,-559,0.696594,10.8035,0,0,0,0,0,0,0,-1,790,1583,0.696598,-10.8034
-427,-559,0.674683,11.0217,0.00274749,0.00780944,0.00469779,0.0106147,-5.77359e-05,1.03248,0.00709576,0.0255151,797,1583,0.674704,-11.0217
-420,-559,0.608154,11.2501,0.00216673,0.00609485,0.00335579,0.00801909,0.000242494,1.05016,0.00526709,0.0268159,804,1583,0.608177,-11.2501
-413,-559,0.628845,11.5469,0.00162006,0.00454667,0.00241255,0.00590501,0.000261727,1.058,0.0038524,0.0131831,811,1583,0.628857,-11.5469
-406,-559,0.605042,11.8583,0.00151189,0.00325869,0.0016081,0.00421527,0.000555318,1.03417,0.00264458,0.00956648,818,1583,0.60503,-11.8583
-399,-559,0.604065,12.1495,0.001055,0.00243689,0.00105822,0.00300976,0.000482133,1.07462,0.00186667,0.0118253,825,1583,0.604075,-12.1496
-392,-559,0.592102,12.4158,0.000706699,0.00175432,0.000671468,0.00208212,0.000378894,1.11664,0.00128061,0.0152235,832,1583,0.592112,-12.4158
-385,-559,0.590088,12.7123,0.000583157,0.00165755,0.000297906,0.00173463,0.000506083,1.31763,0.00103004,0.0154286,839,1583,0.590077,-12.7123
-378,-559,0.588135,13.004,0.000439541,0.00225109,-0.000100611,0.00225666,0.00043397,-1.51548,0.00138267,0.0136387,846,1583,0.588136,-13.0041
-371,-559,0.572327,13.3259,0.000288409,0.00308249,-0.000487678,0.00316516,0.000205736,-1.40287,0.00204498,0.0212163,853,1583,0.572346,-13.3259
-364,-559,0.585083,13.6155,8.97748e-05,0.0042289,-0.000794088,0.00437602,-5.73415e-05,-1.38761,0.00293665,0.0196172,860,1583,0.585078,-13.6155
-357,-559,0.596313,13.8679,-5.35738e-05,0.00621601,-0.000984346,0.00636693,-0.000204487,-1.41867,0.0043144,0.0120826,867,1583,0.596299,-13.8679
-350,-559,0.585571,14.1245,-0.000247573,0.00908665,-0.00119248,0.00923659,-0.000397508,-1.44572,0.00629441,0.0107721,874,1583,0.585558,-14.1245
-343,-559,0.569397,14.3931,-0.000508703,0.0119815,-0.0014672,0.0121515,-0.000678736,-1.45542,0.00833649,0.010777,881,1583,0.569426,-14.393
-336,-559,0.55127,14.6558,-0.000776771,0.0151563,-0.00168283,0.0153321,-0.000952569,-1.46671,0.0105532,0.0125605,888,1583,0.551295,-14.6557
-329,-559,0.620667,15.0212,-0.00111422,0.0189815,-0.00174964,0.0191327,-0.00126542,-1.4846,0.0131972,0.0197701,895,1583,0.620668,-15.0212
-322,-559,0.756592,15.4388,-0.00148484,0.0228586,-0.00174751,0.0229834,-0.00160964,-1.4995,0.015886,0.0452089,902,1583,0.756609,-15.4388
-315,-559,0.742737,15.7203,-0.00187741,0.0264678,-0.00167767,0.0265667,-0.00197636,-1.51188,0.0184053,0.040461,909,1583,0.742711,-15.7203
-308,-559,0.716309,16.2897,-0.00237455,0.0295826,-0.00187641,0.0296924,-0.00248435,-1.51235,0.0206729,0.0388563,916,1583,0.716304,-16.2897
-301,-559,0.540344,16.8,-0.00265802,0.03173,-0.00195102,0.0318404,-0.00276836,-1.5143,0.0222073,0.0460241,923,1583,0.54033,-16.8001
-294,-559,0.523682,17.65,0,0,0,0,0,0,0,-1,930,1583,0.523698,-17.65
-287,-559,-0.11792,15.4912,0,0,0,0,0,0,0,-1,937,1583,-0.117939,-15.4912
-280,-559,0.191467,13.5093,0,0,0,0,0,0,0,-1,944,1583,0.191441,-13.5093
-273,-559,2.12836,10.3059,0,0,0,0,0,0,0,-1,951,1583,2.12839,-10.3059
-266,-559,-0.597046,6.68933,0,0,0,0,0,0,0,-1,958,1583,-0.597031,-6.68937
-259,-559,-7.00311,8.62756,0,0,0,0,0,0,0,-1,965,1583,-7.00312,-8.6275
-252,-559,-9.4483,2.87805,0,0,0,0,0,0,0,-1,972,1583,-9.44829,-2.87805
-245,-559,-4.80804,7.1803,0,0,0,0,0,0,0,-1,979,1583,-4.80804,-7.18027
-238,-559,-8.45764,2.54858,0,0,0,0,0,0,0,-1,986,1583,-8.45763,-2.54862
-231,-559,-5.86914,4.34021,0,0,0,0,0,0,0,-1,993,1583,-5.86914,-4.34019
-224,-559,-3.30505,6.22864,0,0,0,0,0,0,0,-1,1000,1583,-3.30505,-6.22859
-217,-559,0,0,0,0,0,0,0,0,0,-1,1007,1583,0,0
-210,-559,0,0,0,0,0,0,0,0,0,-1,1014,1583,0,0
-203,-559,0,0,0,0,0,0,0,0,0,-1,1021,1583,0,0
-196,-559,0,0,0,0,0,0,0,0,0,-1,1028,1583,0,0
-189,-559,0,0,0,0,0,0,0,0,0,-1,1035,1583,0,0
-182,-559,0,0,0,0,0,0,0,0,0,-1,1042,1583,0,0
-175,-559,0,0,0,0,0,0,0,0,0,-1,1049,1583,0,0
-168,-559,0,0,0,0,0,0,0,0,0,-1,1056,1583,0,0
-161,-559,0,0,0,0,0,0,0,0,0,-1,1063,1583,0,0
-154,-559,0,0,0,0,0,0,0,0,0,-1,1070,1583,0,0
-147,-559,0,0,0,0,0,0,0,0,0,-1,1077,1583,0,0
-140,-559,0,0,0,0,0,0,0,0,0,-1,1084,1583,0,0
-133,-559,0,0,0,0,0,0,0,0,0,-1,1091,1583,0,0
-126,-559,0,0,0,0,0,0,0,0,0,-1,1098,1583,0,0
-119,-559,0,0,0,0,0,0,0,0,0,-1,1105,1583,0,0
-112,-559,0,0,0,0,0,0,0,0,0,-1,1112,1583,0,0
-105,-559,0,0,0,0,0,0,0,0,0,-1,1119,1583,0,0
-98,-559,0,0,0,0,0,0,0,0,0,-1,1126,1583,0,0
-91,-559,0,0,0,0,0,0,0,0,0,-1,1133,1583,0,0
-84,-559,0,0,0,0,0,0,0,0,0,-1,1140,1583,0,0
-77,-559,0,0,0,0,0,0,0,0,0,-1,1147,1583,0,0
-70,-559,0,0,0,0,0,0,0,0,0,-1,1154,1583,0,0
-63,-559,0,0,0,0,0,0,0,0,0,-1,1161,1583,0,0
-56,-559,0,0,0,0,0,0,0,0,0,-1,1168,1583,0,0
-49,-559,0,0,0,0,0,0,0,0,0,-1,1175,1583,0,0
-42,-559,0,0,0,0,0,0,0,0,0,-1,1182,1583,0,0
-35,-559,0,0,0,0,0,0,0,0,0,-1,1189,1583,0,0
-28,-559,0,0,0,0,0,0,0,0,0,-1,1196,1583,0,0
-21,-559,0,0,0,0,0,0,0,0,0,-1,1203,1583,0,0
-14,-559,0,0,0,0,0,0,0,0,0,-1,1210,1583,0,0
-7,-559,0,0,0,0,0,0,0,0,0,-1,1217,1583,0,0
0,-559,0,0,0,0,0,0,0,0,0,-1,1224,1583,0,0
7,-559,0,0,0,0,0,0,0,0,0,-1,1231,1583,0,0
14,-559,0,0,0,0,0,0,0,0,0,-1,1238,1583,0,0
21,-559,0,0,0,0,0,0,0,0,0,-1,1245,1583,0,0
28,-559,0,0,0,0,0,0,0,0,0,-1,1252,1583,0,0
35,-559,0,0,0,0,0,0,0,0,0,-1,1259,1583,0,0
42,-559,0,0,0,0,0,0,0,0,0,-1,1266,1583,0,0
49,-559,0,0,0,0,0,0,0,0,0,-1,1273,1583,0,0
56,-559,0,0,0,0,0,0,0,0,0,-1,1280,1583,0,0
63,-559,0,0,0,0,0,0,0,0,0,-1,1287,1583,0,0
70,-559,0,0,0,0,0,0,0,0,0,-1,1294,1583,0,0
77,-559,0,0,0,0,0,0,0,0,0,-1,1301,1583,0,0
84,-559,0,0,0,0,0,0,0,0,0,-1,1308,1583,0,0
91,-559,0,0,0,0,0,0,0,0,0,-1,1315,1583,0,0
98,-559,0,0,0,0,0,0,0,0,0,-1,1322,1583,0,0
105,-559,0,0,0,0,0,0,0,0,0,-1,1329,1583,0,0
112,-559,0,0,0,0,0,0,0,0,0,-1,1336,1583,0,0
119,-559,0,0,0,0,0,0,0,0,0,-1,1343,1583,0,0
126,-559,0,0,0,0,0,0,0,0,0,-1,1350,1583,0,0
133,-559,0,0,0,0,0,0,0,0,0,-1,1357,1583,0,0
140,-559,0,0,0,0,0,0,0,0,0,-1,1364,1583,0,0
147,-559,0,0,0,0,0,0,0,0,0,-1,1371,1583,0,0
154,-559,0,0,0,0,0,0,0,0,0,-1,1378,1583,0,0
161,-559,0,0,0,0,0,0,0,0,0,-1,1385,1583,0,0
168,-559,0,0,0,0,0,0,0,0,0,-1,1392,1583,0,0
175,-559,0,0,0,0,0,0,0,0,0,-1,1399,1583,0,0
182,-559,0,0,0,0,0,0,0,0,0,-1,1406,1583,0,0
189,-559,0,0,0,0,0,0,0,0,0,-1,1413,1583,0,0
196,-559,0,0,0,0,0,0,0,0,0,-1,1420,1583,0,0
203,-559,0,0,0,0,0,0,0,0,0,-1,1427,1583,0,0
210,-559,0,0,0,0,0,0,0,0,0,-1,1434,1583,0,0
217,-559,0,0,0,0,0,0,0,0,0,-1,1441,1583,0,0
224,-559,0,0,0,0,0,0,0,0,0,-1,1448,1583,0,0
231,-559,0,0,0,0,0,0,0,0,0,-1,1455,1583,0,0
238,-559,0,0,0,0,0,0,0,0,0,-1,1462,1583,0,0
245,-559,0,0,0,0,0,0,0,0,0,-1,1469,1583,0,0
252,-559,0,0,0,0,0,0,0,0,0,-1,1476,1583,0,0
259,-559,0,0,0,0,0,0,0,0,0,-1,1483,1583,0,0
266,-559,0,0,0,0,0,0,0,0,0,-1,1490,1583,0,0
273,-559,0,0,0,0,0,0,0,0,0,-1,1497,1583,0,0
280,-559,0,0,0,0,0,0,0,0,0,-1,1504,1583,0,0
287,-559,0,0,0,0,0,0,0,0,0,-1,1511,1583,0,0
294,-559,0,0,0,0,0,0,0,0,0,-1,1518,1583,0,0
301,-559,0,0,0,0,0,0,0,0,0,-1,1525,1583,0,0
308,-559,0,0,0,0,0,0,0,0,0,-1,1532,1583,0,0
315,-559,0,0,0,0,0,0,0,0,0,-1,1539,1583,0,0
322,-559,0,0,0,0,0,0,0,0,0,-1,1546,1583,0,0
329,-559,0,0,0,0,0,0,0,0,0,-1,1553,1583,0,0
336,-559,5.97668,3.09827,0,0,0,0,0,0,0,-1,1560,1583,5.97667,-3.09824
343,-559,5.44824,2.88696,0,0,0,0,0,0,0,-1,1567,1583,5.44819,-2.88693
350,-559,4.69775,3.27051,0,0,0,0,0,0,0,-1,1574,1583,4.69771,-3.27048
357,-559,3.88025,3.60999,0,0,0,0,0,0,0,-1,1581,1583,3.88027,-3.60998
364,-559,5.00928,5.32605,0,0,0,0,0,0,0,-1,1588,1583,5.00928,-5.32607
371,-559,1.84436,2.52441,0,0,0,0,0,0,0,-1,1595,1583,1.84441,-2.52447
378,-559,6.34753,1.53137,0,0,0,0,0,0,0,-1,1602,1583,6.34752,-1.53139
385,-559,6.95911,1.48181,0,0,0,0,0,0,0,-1,1609,1583,6.95916,-1.48175
392,-559,11.6949,4.77734,0,0,0,0,0,0,0,-1,1616,1583,11.6949,-4.77731
399,-559,11.1104,5.56909,0,0,0,0,0,0,0,-1,1623,1583,11.1103,-5.56905
406,-559,10.3385,6.48657,0,0,0,0,0,0,0,-1,1630,1583,10.3385,-6.48661
413,-559,9.76147,6.97571,0,0,0,0,0,0,0,-1,1637,1583,9.76143,-6.97574
420,-559,7.77124,10.5851,0,0,0,0,0,0,0,-1,1644,1583,7.77128,-10.585
427,-559,10.1022,12.5565,0,0,0,0,0,0,0,-1,1651,1583,10.1021,-12.5565
434,-559,9.62769,14.6309,0,0,0,0,0,0,0,-1,1658,1583,9.62771,-14.6309
441,-559,9.53931,15.2428,0,0,0,0,0,0,0,-1,1665,1583,9.53925,-15.2427
448,-559,9.92053,15.9156,0,0,0,0,0,0,0,-1,1672,1583,9.92057,-15.9156
455,-559,10.26,16.0577,-0.0165313,-0.0207497,0.020154,0.00162358,-0.0389046,0.733262,0.0264942,0.0491016,1679,1583,10.26,-16.0577
462,-559,10.0656,15.9666,-0.0143252,-0.0173586,0.0173144,0.0015388,-0.0332226,0.741711,0.0226787,0.0448393,1686,1583,10.0656,-15.9665
469,-559,9.91528,15.8641,-0.012015,-0.0144082,0.0145177,0.00135525,-0.0277785,0.744279,0.0189869,0.0217936,1693,1583,9.91525,-15.8641
476,-559,9.90735,15.5623,-0.00978174,-0.0115284,0.0118801,0.00125711,-0.0225673,0.748708,0.0154809,0.0111882,1700,1583,9.90735,-15.5623
483,-559,9.94751,15.2611,-0.0076372,-0.00893865,0.00953881,0.00127306,-0.0178489,0.751342,0.0123455,0.0126864,1707,1583,9.9475,-15.2611
490,-559,9.95081,15.0219,-0.00560098,-0.0066169,0.00743393,0.00134232,-0.0135602,0.751286,0.00951918,0.0155961,1714,1583,9.95078,-15.0219
497,-559,9.95654,14.7909,-0.00366803,-0.00468977,0.00541365,0.00125881,-0.0096166,0.738354,0.00686922,0.0189063,1721,1583,9.95658,-14.7909
504,-559,9.92615,14.5492,-0.00186338,-0.00297922,0.00357777,0.00119971,-0.00604231,0.708051,0.00448196,0.0236551,1728,1583,9.92612,-14.5492
511,-559,9.94617,14.2678,-8.4701e-05,-0.00176606,0.00187307,0.0011277,-0.00297846,0.574461,0.00244965,0.021179,1735,1583,9.94616,-14.2678
518,-559,9.9856,13.9902,0.00141367,-0.000922257,0.000498588,0.00151563,-0.00102423,0.201734,0.00147551,0.0131699,1742,1583,9.9856,-13.9902
525,-559,9.95215,13.7327,0.00289224,-0.00040299,-0.000769731,0.00306318,-0.000573924,-0.218524,0.00225787,0.0114175,1749,1583,9.95211,-13.7327
532,-559,9.94434,13.4718,0.00416359,-0.000456541,-0.00173435,0.00474218,-0.00103514,-0.322,0.00355707,0.0132999,1756,1583,9.94434,-13.4718
539,-559,9.95227,13.2148,0.00528069,-0.000870908,-0.00245881,0.00614269,-0.00173291,-0.337189,0.00477867,0.0172372,1763,1583,9.95224,-13.2149
546,-559,9.93311,12.9373,0.0062788,-0.00131668,-0.00304485,0.00734871,-0.00238658,-0.337904,0.00585899,0.0157431,1770,1583,9.93312,-12.9372
553,-559,10.0671,12.5955,0.00750054,-0.00153331,-0.0039065,0.00895549,-0.00298827,-0.356528,0.00717688,0.0252886,1777,1583,10.0672,-12.5954
560,-559,10.1012,12.218,0,0,0,0,0,0,0,-1,1784,1583,10.1012,-12.218
567,-559,9.41101,10.62,0,0,0,0,0,0,0,-1,1791,1583,9.41101,-10.62
574,-559,10.5109,10.7317,0,0,0,0,0,0,0,-1,1798,1583,10.5108,-10.7317
581,-559,5.97095,5.96179,0,0,0,0,0,0,0,-1,1805,1583,5.97093,-5.96181
588,-559,5.79102,5.89954,0,0,0,0,0,0,0,-1,1812,1583,5.79098,-5.89949
595,-559,5.79089,6.24231,0,0,0,0,0,0,0,-1,1819,1583,5.7909,-6.24227
602,-559,12.478,2.35669,0,0,0,0,0,0,0,-1,1826,1583,12.4781,-2.35675
609,-559,14.0479,1.22681,0,0,0,0,0,0,0,-1,1833,1583,14.0479,-1.22681
616,-559,0,0,0,0,0,0,0,0,0,-1,1840,1583,0,0
623,-559,0,0,0,0,0,0,0,0,0,-1,1847,1583,0,0
630,-559,0,0,0,0,0,0,0,0,0,-1,1854,1583,0,0
637,-559,0,0,0,0,0,0,0,0,0,-1,1861,1583,0,0
644,-559,0,0,0,0,0,0,0,0,0,-1,1868,1583,0,0
651,-559,0,0,0,0,0,0,0,0,0,-1,1875,1583,0,0
658,-559,0,0,0,0,0,0,0,0,0,-1,1882,1583,0,0
665,-559,0,0,0,0,0,0,0,0,0,-1,1889,1583,0,0
672,-559,0,0,0,0,0,0,0,0,0,-1,1896,1583,0,0
679,-559,0,0,0,0,0,0,0,0,0,-1,1903,1583,0,0
686,-559,0,0,0,0,0,0,0,0,0,-1,1910,1583,0,0
693,-559,0,0,0,0,0,0,0,0,0,-1,1917,1583,0,0
700,-559,0,0,0,0,0,0,0,0,0,-1,1924,1583,0,0
707,-559,0,0,0,0,0,0,0,0,0,-1,1931,1583,0,0
714,-559,0,0,0,0,0,0,0,0,0,-1,1938,1583,0,0
721,-559,0,0,0,0,0,0,0,0,0,-1,1945,1583,0,0
728,-559,0,0,0,0,0,0,0,0,0,-1,1952,1583,0,0
735,-559,0,0,0,0,0,0,0,0,0,-1,1959,1583,0,0
742,-559,0,0,0,0,0,0,0,0,0,-1,1966,1583,0,0
749,-559,0,0,0,0,0,0,0,0,0,-1,1973,1583,0,0
756,-559,0,0,0,0,0,0,0,0,0,-1,1980,1583,0,0
763,-559,0,0,0,0,0,0,0,0,0,-1,1987,1583,0,0
770,-559,0,0,0,0,0,0,0,0,0,-1,1994,1583,0,0
777,-559,0,0,0,0,0,0,0,0,0,-1,2001,1583,0,0
784,-559,0,0,0,0,0,0,0,0,0,-1,2008,1583,0,0
791,-559,0,0,0,0,0,0,0,0,0,-1,2015,1583,0,0
798,-559,0,0,0,0,0,0,0,0,0,-1,2022,1583,0,0
805,-559,0,0,0,0,0,0,0,0,0,-1,2029,1583,0,0
812,-559,0,0,0,0,0,0,0,0,0,-1,2036,1583,0,0
-700,-566,0,0,0,0,0,0,0,0,0,-1,524,1590,0,0
-693,-566,0,0,0,0,0,0,0,0,0,-1,531,1590,0,0
-686,-566,0,0,0,0,0,0,0,0,0,-1,538,1590,0,0
-679,-566,0,0,0,0,0,0,0,0,0,-1,545,1590,0,0
-672,-566,0,0,0,0,0,0,0,0,0,-1,552,1590,0,0
-665,-566,0,0,0,0,0,0,0,0,0,-1,559,1590,0,0
-658,-566,0,0,0,0,0,0,0,0,0,-1,566,1590,0,0
-651,-566,0,0,0,0,0,0,0,0,0,-1,573,1590,0,0
-644,-566,0,0,0,0,0,0,0,0,0,-1,580,1590,0,0
-637,-566,0,0,0,0,0,0,0,0,0,-1,587,1590,0,0
-630,-566,0,0,0,0,0,0,0,0,0,-1,594,1590,0,0
-623,-566,0,0,0,0,0,0,0,0,0,-1,601,1590,0,0
-616,-566,0,0,0,0,0,0,0,0,0,-1,608,1590,0,0
-609,-566,0,0,0,0,0,0,0,0,0,-1,615,1590,0,0
-602,-566,0,0,0,0,0,0,0,0,0,-1,622,1590,0,0
-595,-566,0,0,0,0,0,0,0,0,0,-1,629,1590,0,0
-588,-566,0,0,0,0,0,0,0,0,0,-1,636,1590,0,0
-581,-566,0,0,0,0,0,0,0,0,0,-1,643,1590,0,0
-574,-566,0,0,0,0,0,0,0,0,0,-1,650,1590,0,0
-567,-566,0,0,0,0,0,0,0,0,0,-1,657,1590,0,0
-560,-566,0,0,0,0,0,0,0,0,0,-1,664,1590,0,0
-553,-566,0,0,0,0,0,0,0,0,0,-1,671,1590,0,0
-546,-566,0,0,0,0,0,0,0,0,0,-1,678,1590,0,0
-539,-566,0,0,0,0,0,0,0,0,0,-1,685,1590,0,0
-532,-566,0,0,0,0,0,0,0,0,0,-1,692,1590,0,0
-525,-566,0,0,0,0,0,0,0,0,0,-1,699,1590,0,0
-518,-566,0,0,0,0,0,0,0,0,0,-1,706,1590,0,0
-511,-566,0,0,0,0,0,0,0,0,0,-1,713,1590,0,0
-504,-566,0,0,0,0,0,0,0,0,0,-1,720,1590,0,0
-497,-566,0,0,0,0,0,0,0,0,0,-1,727,1590,0,0
-490,-566,0,0,0,0,0,0,0,0,0,-1,734,1590,0,0
-483,-566,-7.17084,2.78613,0,0,0,0,0,0,0,-1,741,1590,-7.17083,-2.78618
-476,-566,-7.13971,2.87183,0,0,0,0,0,0,0,-1,748,1590,-7.13971,-2.87184
-469,-566,-6.43829,3.2998,0,0,0,0,0,0,0,-1,755,1590,-6.43829,-3.2998
-462,-566,-0.459106,3.89343,0,0,0,0,0,0,0,-1,762,1590,-0.459095,-3.89341
-455,-566,0.280212,4.74023,0,0,0,0,0,0,0,-1,769,1590,0.280207,-4.74023
-448,-566,0.436951,5.51306,0,0,0,0,0,0,0,-1,776,1590,0.436971,-5.51301
-441,-566,0.969238,9.05237,0,0,0,0,0,0,0,-1,783,1590,0.969251,-9.05231
-434,-566,0.416321,10.5381,0,0,0,0,0,0,0,-1,790,1590,0.416337,-10.5381
-427,-566,0.575806,11.0129,0.00373066,0.0100293,0.00569914,0.0133914,0.000368569,1.03781,0.0088073,0.045339,797,1590,0.57581,-11.0129
-420,-566,0.773438,11.3965,0.00275599,0.00766346,0.0039653,0.00987281,0.000546634,1.06246,0.00640744,0.0406982,804,1590,0.773441,-11.3964
-413,-566,0.890747,11.5778,0.0019372,0.00561891,0.00276197,0.00709727,0.000458831,1.07934,0.00458623,0.0199985,811,1590,0.890772,-11.5778
-406,-566,0.892151,11.869,0.00165998,0.00396562,0.00178365,0.00493657,0.000689026,1.07229,0.00308711,0.0103008,818,1590,0.892178,-11.869
-399,-566,0.887695,12.1539,0.00108712,0.00286409,0.0011579,0.00343511,0.000516105,1.11265,0.00213889,0.00922306,825,1590,0.887718,-12.1539
-392,-566,0.878479,12.4291,0.000686736,0.00191446,0.000746326,0.00226695,0.00033425,1.12956,0.00141312,0.0114074,832,1590,0.878484,-12.429
-385,-566,0.887878,12.7349,0.000549376,0.00155306,0.000395724,0.00169032,0.000412123,1.23694,0.00101771,0.0143945,839,1590,0.887898,-12.7349
-378,-566,0.885925,13.0326,0.000442428,0.00177841,9.66631e-05,0.00178537,0.00043547,1.49894,0.00107491,0.0150019,846,1590,0.885924,-13.0326
-371,-566,0.843018,13.3229,0.00032106,0.00232071,-0.000245333,0.00235037,0.000291401,-1.45049,0.00147938,0.0205078,853,1590,0.842998,-13.3228
-364,-566,0.8526,13.6194,0.000165638,0.00304807,-0.000475113,0.00312437,8.93439e-05,-1.41158,0.00205378,0.0205674,860,1590,0.852609,-13.6194
-357,-566,0.862244,13.8606,0.000115629,0.00453831,-0.000581663,0.00461353,4.04089e-05,-1.44219,0.00306231,0.0175038,867,1590,0.862214,-13.8606
-350,-566,0.861938,14.1094,6.83427e-05,0.00673758,-0.000700153,0.0068103,-4.36837e-06,-1.46732,0.00454165,0.0218972,874,1590,0.861914,-14.1094
-343,-566,0.87738,14.3578,-3.23737e-05,0.00885153,-0.000856187,0.00893329,-0.000114136,-1.47559,0.00599393,0.0251869,881,1590,0.877352,-14.3578
-336,-566,0.793457,14.6584,-0.000130345,0.0111272,-0.000971088,0.0112104,-0.000213498,-1.48538,0.00754574,0.0219357,888,1590,0.793429,-14.6585
-329,-566,0.865234,14.9104,-0.000265524,0.0137734,-0.00101729,0.0138467,-0.000338856,-1.49883,0.00934612,0.014544,895,1590,0.865205,-14.9104
-322,-566,0.92572,15.2455,-0.000419925,0.0161636,-0.00105905,0.016231,-0.000487285,-1.50728,0.0109867,0.0182786,902,1590,0.925723,-15.2455
-315,-566,0.806152,15.4661,-0.000607199,0.0184162,-0.00110217,0.0184798,-0.000670844,-1.51312,0.0125495,0.031801,909,1590,0.806137,-15.4661
-308,-566,0.733398,15.7938,-0.000832257,0.020054,-0.00144117,0.020153,-0.000931231,-1.50223,0.0137562,0.0379333,916,1590,0.733398,-15.7939
-301,-566,0.808228,16.1038,-0.000874222,0.0207757,-0.00174552,0.0209155,-0.00101405,-1.49086,0.0142937,0.0437391,923,1590,0.808255,-16.1037
-294,-566,0.858765,16.3796,0,0,0,0,0,0,0,-1,930,1590,0.858745,-16.3796
-287,-566,1.04205,16.2892,0,0,0,0,0,0,0,-1,937,1590,1.04203,-16.2892
-280,-566,0.936462,16.7036,0,0,0,0,0,0,0,-1,944,1590,0.936476,-16.7036
-273,-566,0.49762,11.2427,0,0,0,0,0,0,0,-1,951,1590,0.497591,-11.2426
-266,-566,0.392151,6.90295,0,0,0,0,0,0,0,-1,958,1590,0.392151,-6.90294
-259,-566,0.343628,6.47437,0,0,0,0,0,0,0,-1,965,1590,0.34363,-6.47438
-252,-566,-7.68311,1.01343,0,0,0,0,0,0,0,-1,972,1590,-7.68308,-1.01348
-245,-566,-11.1835,1.97522,0,0,0,0,0,0,0,-1,979,1590,-11.1835,-1.97527
-238,-566,-10.4883,2.40491,0,0,0,0,0,0,0,-1,986,1590,-10.4883,-2.40487
-231,-566,-7.41827,4.22803,0,0,0,0,0,0,0,-1,993,1590,-7.41827,-4.22803
-224,-566,-4.67188,6.30859,0,0,0,0,0,0,0,-1,1000,1590,-4.67185,-6.30853
-217,-566,-2.82867,7.52527,0,0,0,0,0,0,0,-1,1007,1590,-2.82869,-7.52531
-210,-566,-1.03436,8.67737,0,0,0,0,0,0,0,-1,1014,1590,-1.03439,-8.67733
-203,-566,0,0,0,0,0,0,0,0,0,-1,1021,1590,0,0
-196,-566,0,0,0,0,0,0,0,0,0,-1,1028,1590,0,0
-189,-566,0,0,0,0,0,0,0,0,0,-1,1035,1590,0,0
-182,-566,0,0,0,0,0,0,0,0,0,-1,1042,1590,0,0
-175,-566,0,0,0,0,0,0,0,0,0,-1,1049,1590,0,0
-168,-566,0,0,0,0,0,0,0,0,0,-1,1056,1590,0,0
-161,-566,0,0,0,0,0,0,0,0,0,-1,1063,1590,0,0
-154,-566,0,0,0,0,0,0,0,0,0,-1,1070,1590,0,0
-147,-566,0,0,0,0,0,0,0,0,0,-1,1077,1590,0,0
-140,-566,0,0,0,0,0,0,0,0,0,-1,1084,1590,0,0
-133,-566,0,0,0,0,0,0,0,0,0,-1,1091,1590,0,0
-126,-566,0,0,0,0,0,0,0,0,0,-1,1098,1590,0,0
-119,-566,0,0,0,0,0,0,0,0,0,-1,1105,1590,0,0
-112,-566,0,0,0,0,0,0,0,0,0,-1,1112,1590,0,0
-105,-566,0,0,0,0,0,0,0,0,0,-1,1119,1590,0,0
-98,-566,0,0,0,0,0,0,0,0,0,-1,1126,1590,0,0
-91,-566,0,0,0,0,0,0,0,0,0,-1,1133,1590,0,0
-84,-566,0,0,0,0,0,0,0,0,0,-1,1140,1590,0,0
-77,-566,0,0,0,0,0,0,0,0,0,-1,1147,1590,0,0
-70,-566,0,0,0,0,0,0,0,0,0,-1,1154,1590,0,0
-63,-566,0,0,0,0,0,0,0,0,0,-1,1161,1590,0,0
-56,-566,0,0,0,0,0,0,0,0,0,-1,1168,1590,0,0
-49,-566,0,0,0,0,0,0,0,0,0,-1,1175,1590,0,0
-42,-566,0,0,0,0,0,0,0,0,0,-1,1182,1590,0,0
-35,-566,0,0,0,0,0,0,0,0,0,-1,1189,1590,0,0
-28,-566,0,0,0,0,0,0,0,0,0,-1,1196,1590,0,0
-21,-566,0,0,0,0,0,0,0,0,0,-1,1203,1590,0,0
-14,-566,0,0,0,0,0,0,0,0,0,-1,1210,1590,0,0
-7,-566,0,0,0,0,0,0,0,0,0,-1,1217,1590,0,0
0,-566,0,0,0,0,0,0,0,0,0,-1,1224,1590,0,0
7,-566,0,0,0,0,0,0,0,0,0,-1,1231,1590,0,0
14,-566,0,0,0,0,0,0,0,0,0,-1,1238,1590,0,0
21,-566,0,0,0,0,0,0,0,0,0,-1,1245,1590,0,0
28,-566,0,0,0,0,0,0,0,0,0,-1,1252,1590,0,0
35,-566,0,0,0,0,0,0,0,0,0,-1,1259,1590,0,0
42,-566,0,0,0,0,0,0,0,0,0,-1,1266,1590,0,0
49,-566,0,0,0,0,0,0,0,0,0,-1,1273,1590,0,0
56,-566,0,0,0,0,0,0,0,0,0,-1,1280,1590,0,0
63,-566,0,0,0,0,0,0,0,0,0,-1,1287,1590,0,0
70,-566,0,0,0,0,0,0,0,0,0,-1,1294,1590,0,0
77,-566,0,0,0,0,0,0,0,0,0,-1,1301,1590,0,0
84,-566,0,0,0,0,0,0,0,0,0,-1,1308,1590,0,0
91,-566,0,0,0,0,0,0,0,0,0,-1,1315,1590,0,0
98,-566,0,0,0,0,0,0,0,0,0,-1,1322,1590,0,0
105,-566,0,0,0,0,0,0,0,0,0,-1,1329,1590,0,0
112,-566,0,0,0,0,0,0,0,0,0,-1,1336,1590,0,0
119,-566,0,0,0,0,0,0,0,0,0,-1,1343,1590,0,0
126,-566,0,0,0,0,0,0,0,0,0,-1,1350,1590,0,0
133,-566,0,0,0,0,0,0,0,0,0,-1,1357,1590,0,0
140,-566,0,0,0,0,0,0,0,0,0,-1,1364,1590,0,0
147,-566,0,0,0,0,0,0,0,0,0,-1,1371,1590,0,0
154,-566,0,0,0,0,0,0,0,0,0,-1,1378,1590,0,0
161,-566,0,0,0,0,0,0,0,0,0,-1,1385,1590,0,0
168,-566,0,0,0,0,0,0,0,0,0,-1,1392,1590,0,0
175,-566,0,0,0,0,0,0,0,0,0,-1,1399,1590,0,0
182,-566,0,0,0,0,0,0,0,0,0,-1,1406,1590,0,0
189,-566,0,0,0,0,0,0,0,0,0,-1,1413,1590,0,0
196,-566,0,0,0,0,0,0,0,0,0,-1,1420,1590,0,0
203,-566,0,0,0,0,0,0,0,0,0,-1,1427,1590,0,0
210,-566,0,0,0,0,0,0,0,0,0,-1,1434,1590,0,0
217,-566,0,0,0,0,0,0,0,0,0,-1,1441,1590,0,0
224,-566,0,0,0,0,0,0,0,0,0,-1,1448,1590,0,0
231,-566,0,0,0,0,0,0,0,0,0,-1,1455,1590,0,0
238,-566,0,0,0,0,0,0,0,0,0,-1,1462,1590,0,0
245,-566,0,0,0,0,0,0,0,0,0,-1,1469,1590,0,0
252,-566,0,0,0,0,0,0,0,0,0,-1,1476,1590,0,0
259,-566,0,0,0,0,0,0,0,0,0,-1,1483,1590,0,0
266,-566,0,0,0,0,0,0,0,0,0,-1,1490,1590,0,0
273,-566,0,0,0,0,0,0,0,0,0,-1,1497,1590,0,0
280,-566,0,0,0,0,0,0,0,0,0,-1,1504,1590,0,0
287,-566,0,0,0,0,0,0,0,0,0,-1,1511,1590,0,0
294,-566,0,0,0,0,0,0,0,0,0,-1,1518,1590,0,0
301,-566,0,0,0,0,0,0,0,0,0,-1,1525,1590,0,0
308,-566,0,0,0,0,0,0,0,0,0,-1,1532,1590,0,0
315,-566,0,0,0,0,0,0,0,0,0,-1,1539,1590,0,0
322,-566,6.07983,4.44873,0,0,0,0,0,0,0,-1,1546,1590,6.07983,-4.44873
329,-566,5.77026,3.47534,0,0,0,0,0,0,0,-1,1553,1590,5.77026,-3.47535
336,-566,5.41138,2.62915,0,0,0,0,0,0,0,-1,1560,1590,5.41138,-2.62909
343,-566,4.81873,1.79089,0,0,0,0,0,0,0,-1,1567,1590,4.81878,-1.79095
350,-566,4.41663,2.44214,0,0,0,0,0,0,0,-1,1574,1590,4.41666,-2.44214
357,-566,6.34058,5.18579,0,0,0,0,0,0,0,-1,1581,1590,6.34059,-5.1858
364,-566,6.06262,4.20251,0,0,0,0,0,0,0,-1,1588,1590,6.06259,-4.20246
371,-566,5.78455,3.21912,0,0,0,0,0,0,0,-1,1595,1590,5.7846,-3.21912
378,-566,5.7439,0.695557,0,0,0,0,0,0,0,-1,1602,1590,5.74392,-0.695531
385,-566,5.67615,-0.573975,0,0,0,0,0,0,0,-1,1609,1590,5.67612,0.573956
392,-566,5.78638,1.82434,0,0,0,0,0,0,0,-1,1616,1590,5.78637,-1.82439
399,-566,5.36621,1.7373,0,0,0,0,0,0,0,-1,1623,1590,5.36627,-1.7373
406,-566,4.30359,5.26868,0,0,0,0,0,0,0,-1,1630,1590,4.30364,-5.26867
413,-566,4.27124,5.79492,0,0,0,0,0,0,0,-1,1637,1590,4.27123,-5.7949
420,-566,7.19812,8.25146,0,0,0,0,0,0,0,-1,1644,1590,7.19817,-8.25149
427,-566,10.455,10.6842,0,0,0,0,0,0,0,-1,1651,1590,10.455,-10.6842
434,-566,9.18567,14.3304,0,0,0,0,0,0,0,-1,1658,1590,9.18571,-14.3305
441,-566,9.82764,16.7965,0,0,0,0,0,0,0,-1,1665,1590,9.82763,-16.7965
448,-566,9.72461,16.1837,-0.012911,-0.0172456,0.016806,0.00186683,-0.0320235,0.721272,0.0219977,0.0406997,1672,1590,9.72462,-16.1837
455,-566,9.64148,16.3057,-0.0114977,-0.0147915,0.0147408,0.00168798,-0.0279771,0.729768,0.0192388,0.0324229,1679,1590,9.64151,-16.3057
462,-566,9.65149,16.1074,-0.0101101,-0.0124093,0.0126319,0.00142444,-0.0239438,0.740018,0.0164579,0.0192174,1686,1590,9.65146,-16.1074
469,-566,9.66504,15.7789,-0.00853536,-0.0103165,0.0105306,0.00114222,-0.0199941,0.743213,0.013726,0.0128484,1693,1590,9.6651,-15.7789
476,-566,9.67786,15.5181,-0.00695895,-0.00822837,0.00854097,0.000970867,-0.0161582,0.748309,0.0111099,0.0106496,1700,1590,9.67782,-15.5181
483,-566,9.69702,15.265,-0.00533971,-0.00637493,0.00678877,0.000951155,-0.0126658,0.747349,0.00877811,0.0102564,1707,1590,9.69698,-15.265
490,-566,9.68152,15.0013,-0.00366586,-0.00471968,0.00514101,0.000975172,-0.00936071,0.734331,0.00658963,0.010812,1714,1590,9.68152,-15.0014
497,-566,9.69824,14.7626,-0.00200175,-0.00330671,0.00349538,0.000901526,-0.00620999,0.693126,0.0044709,0.0144921,1721,1590,9.69828,-14.7626
504,-566,9.69763,14.5334,-0.000389711,-0.00202894,0.00199008,0.000942928,-0.00336157,0.590059,0.00261271,0.0194699,1728,1590,9.69769,-14.5335
511,-566,9.71118,14.2788,0.00128958,-0.00114328,0.000555898,0.00141058,-0.00126428,0.214326,0.0015451,0.0188253,1735,1590,9.71122,-14.2788
518,-566,9.72205,14.0042,0.00282006,-0.00059958,-0.000637681,0.0029351,-0.000714622,-0.178487,0.00223338,0.0112268,1742,1590,9.72204,-14.0042
525,-566,9.69409,13.7278,0.00440146,-0.000428329,-0.00174591,0.00496648,-0.000993355,-0.312991,0.00368699,0.0110596,1749,1590,9.69415,-13.7277
532,-566,9.6864,13.4739,0.00587793,-0.000817944,-0.00260109,0.00676961,-0.00170962,-0.330255,0.0051779,0.0136204,1756,1590,9.68641,-13.4739
539,-566,9.69092,13.2192,0.00731801,-0.00144366,-0.00334986,0.008452,-0.00257765,-0.32641,0.00666222,0.0176149,1763,1590,9.6909,-13.2193
546,-566,9.7323,12.8712,0.0086901,-0.00214933,-0.00398209,0.00999573,-0.00345496,-0.316832,0.00806601,0.0212638,1770,1590,9.73229,-12.8712
553,-566,9.73779,12.6852,0.0103735,-0.00258788,-0.00497902,0.0120654,-0.0042797,-0.32755,0.00978718,0.0395716,1777,1590,9.73781,-12.6852
560,-566,9.51892,12.5162,0,0,0,0,0,0,0,-1,1784,1590,9.51892,-12.5162
567,-566,9.58167,12.2573,0,0,0,0,0,0,0,-1,1791,1590,9.58163,-12.2574
574,-566,7.99548,3.14514,0,0,0,0,0,0,0,-1,1798,1590,7.99543,-3.14511
581,-566,2.54102,5.1311,0,0,0,0,0,0,0,-1,1805,1590,2.54099,-5.13111
588,-566,-1.91321,8.39197,0,0,0,0,0,0,0,-1,1812,1590,-1.91316,-8.39199
595,-566,9.0271,4.66467,0,0,0,0,0,0,0,-1,1819,1590,9.02705,-4.66468
602,-566,9.953,3.54895,0,0,0,0,0,0,0,-1,1826,1590,9.953,-3.54898
609,-566,0,0,0,0,0,0,0,0,0,-1,1833,1590,0,0
616,-566,0,0,0,0,0,0,0,0,0,-1,1840,1590,0,0
623,-566,0,0,0,0,0,0,0,0,0,-1,1847,1590,0,0
630,-566,0,0,0,0,0,0,0,0,0,-1,1854,1590,0,0
637,-566,0,0,0,0,0,0,0,0,0,-1,1861,1590,0,0
644,-566,0,0,0,0,0,0,0,0,0,-1,1868,1590,0,0
651,-566,0,0,0,0,0,0,0,0,0,-1,1875,1590,0,0
658,-566,0,0,0,0,0,0,0,0,0,-1,1882,1590,0,0
665,-566,0,0,0,0,0,0,0,0,0,-1,1889,1590,0,0
672,-566,0,0,0,0,0,0,0,0,0,-1,1896,1590,0,0
679,-566,0,0,0,0,0,0,0,0,0,-1,1903,1590,0,0
686,-566,0,0,0,0,0,0,0,0,0,-1,1910,1590,0,0
693,-566,0,0,0,0,0,0,0,0,0,-1,1917,1590,0,0
700,-566,0,0,0,0,0,0,0,0,0,-1,1924,1590,0,0
707,-566,0,0,0,0,0,0,0,0,0,-1,1931,1590,0,0
714,-566,0,0,0,0,0,0,0,0,0,-1,1938,1590,0,0
721,-566,0,0,0,0,0,0,0,0,0,-1,1945,1590,0,0
728,-566,0,0,0,0,0,0,0,0,0,-1,1952,1590,0,0
735,-566,0,0,0,0,0,0,0,0,0,-1,1959,1590,0,0
742,-566,0,0,0,0,0,0,0,0,0,-1,1966,1590,0,0
749,-566,0,0,0,0,0,0,0,0,0,-1,1973,1590,0,0
756,-566,0,0,0,0,0,0,0,0,0,-1,1980,1590,0,0
763,-566,0,0,0,0,0,0,0,0,0,-1,1987,1590,0,0
770,-566,0,0,0,0,0,0,0,0,0,-1,1994,1590,0,0
777,-566,0,0,0,0,0,0,0,0,0,-1,2001,1590,0,0
784,-566,0,0,0,0,0,0,0,0,0,-1,2008,1590,0,0
791,-566,0,0,0,0,0,0,0,0,0,-1,2015,1590,0,0
798,-566,0,0,0,0,0,0,0,0,0,-1,2022,1590,0,0
805,-566,0,0,0,0,0,0,0,0,0,-1,2029,1590,0,0
812,-566,0,0,0,0,0,0,0,0,0,-1,2036,1590,0,0
-700,-573,0,0,0,0,0,0,0,0,0,-1,524,1597,0,0
-693,-573,0,0,0,0,0,0,0,0,0,-1,531,1597,0,0
-686,-573,0,0,0,0,0,0,0,0,0,-1,538,1597,0,0
-679,-573,0,0,0,0,0,0,0,0,0,-1,545,1597,0,0
-672,-573,0,0,0,0,0,0,0,0,0,-1,552,1597,0,0
-665,-573,0,0,0,0,0,0,0,0,0,-1,559,1597,0,0
-658,-573,0,0,0,0,0,0,0,0,0,-1,566,1597,0,0
-651,-573,0,0,0,0,0,0,0,0,0,-1,573,1597,0,0
-644,-573,0,0,0,0,0,0,0,0,0,-1,580,1597,0,0
-637,-573,0,0,0,0,0,0,0,0,0,-1,587,1597,0,0
-630,-573,0,0,0,0,0,0,0,0,0,-1,594,1597,0,0
-623,-573,0,0,0,0,0,0,0,0,0,-1,601,1597,0,0
-616,-573,0,0,0,0,0,0,0,0,0,-1,608,1597,0,0
-609,-573,0,0,0,0,0,0,0,0,0,-1,615,1597,0,0
-602,-573,0,0,0,0,0,0,0,0,0,-1,622,1597,0,0
-595,-573,0,0,0,0,0,0,0,0,0,-1,629,1597,0,0
-588,-573,0,0,0,0,0,0,0,0,0,-1,636,1597,0,0
-581,-573,0,0,0,0,0,0,0,0,0,-1,643,1597,0,0
-574,-573,0,0,0,0,0,0,0,0,0,-1,650,1597,0,0
-567,-573,0,0,0,0,0,0,0,0,0,-1,657,1597,0,0
-560,-573,0,0,0,0,0,0,0,0,0,-1,664,1597,0,0
-553,-573,0,0,0,0,0,0,0,0,0,-1,671,1597,0,0
-546,-573,0,0,0,0,0,0,0,0,0,-1,678,1597,0,0
-539,-573,0,0,0,0,0,0,0,0,0,-1,685,1597,0,0
-532,-573,0,0,0,0,0,0,0,0,0,-1,692,1597,0,0
-525,-573,0,0,0,0,0,0,0,0,0,-1,699,1597,0,0
-518,-573,0,0,0,0,0,0,0,0,0,-1,706,1597,0,0
-511,-573,0,0,0,0,0,0,0,0,0,-1,713,1597,0,0
-504,-573,0,0,0,0,0,0,0,0,0,-1,720,1597,0,0
-497,-573,0,0,0,0,0,0,0,0,0,-1,727,1597,0,0
-490,-573,0,0,0,0,0,0,0,0,0,-1,734,1597,0,0
-483,-573,0,0,0,0,0,0,0,0,0,-1,741,1597,0,0
-476,-573,-9.3327,0.972778,0,0,0,0,0,0,0,-1,748,1597,-9.33268,-0.972776
-469,-573,-1.41681,1.13379,0,0,0,0,0,0,0,-1,755,1597,-1.41681,-1.13382
-462,-573,-0.748535,2.02588,0,0,0,0,0,0,0,-1,762,1597,-0.748533,-2.02584
-455,-573,-0.112976,2.70703,0,0,0,0,0,0,0,-1,769,1597,-0.112988,-2.70697
-448,-573,-1.26172,3.33252,0,0,0,0,0,0,0,-1,776,1597,-1.26173,-3.33248
-441,-573,0.108582,5.06726,0,0,0,0,0,0,0,-1,783,1597,0.108584,-5.06721
-434,-573,1.61768,7.05444,0,0,0,0,0,0,0,-1,790,1597,1.61767,-7.05446
-427,-573,0.435242,10.9905,0,0,0,0,0,0,0,-1,797,1597,0.435261,-10.9905
-420,-573,1.125,10.9783,0.00339432,0.0095756,0.00460298,0.0120293,0.000940638,1.08105,0.00772509,0.0496869,804,1597,1.12501,-10.9783
-413,-573,1.29468,11.5183,0.00223538,0.00690402,0.00310821,0.00845687,0.000682538,1.10747,0.00542473,0.0431276,811,1597,1.29471,-11.5183
-406,-573,1.18066,11.8323,0.00166465,0.0047724,0.00193346,0.005699,0.000738047,1.12389,0.00357878,0.0202458,818,1597,1.18068,-11.8322
-399,-573,1.16364,12.1598,0.000910681,0.00329108,0.00122522,0.00380902,0.000392741,1.17085,0.00241908,0.0109899,825,1597,1.16362,-12.1598
-392,-573,1.17053,12.4557,0.000433521,0.00201477,0.000782224,0.00233633,0.000111957,1.18077,0.00152161,0.010989,832,1597,1.17051,-12.4557
-385,-573,1.17236,12.7445,0.000262822,0.00135458,0.00045009,0.00151621,0.000101195,1.22604,0.000978818,0.0134963,839,1597,1.17236,-12.7445
-378,-573,1.16333,13.0325,0.000167028,0.00121313,0.000235917,0.00126388,0.000116286,1.35894,0.00080662,0.0156772,846,1597,1.16334,-13.0325
-371,-573,1.17108,13.3195,6.79577e-05,0.00147527,-7.4609e-05,0.00147922,6.40134e-05,-1.51798,0.000965515,0.0159113,853,1597,1.17111,-13.3194
-364,-573,1.17468,13.5933,-3.678e-05,0.00184003,-0.000249873,0.00187273,-6.94777e-05,-1.44068,0.00127228,0.0179776,860,1597,1.17467,-13.5932
-357,-573,1.15637,13.8583,1.29083e-05,0.00291767,-0.000301402,0.00294862,-1.80359e-05,-1.46849,0.00197178,0.021507,867,1597,1.15638,-13.8582
-350,-573,1.13989,14.1318,0.000108327,0.00457589,-0.000359339,0.00460461,7.96092e-05,-1.49105,0.00304355,0.0172506,874,1597,1.1399,-14.1319
-343,-573,1.1662,14.3926,0.000152395,0.00611964,-0.000439752,0.00615187,0.000120162,-1.49763,0.00406178,0.0202876,881,1597,1.16619,-14.3926
-336,-573,1.12616,14.6954,0.000204983,0.00777388,-0.000497757,0.00780648,0.000172389,-1.50541,0.00514782,0.0162255,888,1597,1.12613,-14.6954
-329,-573,1.14978,14.9514,0.000253953,0.00964559,-0.000530323,0.00967545,0.000224102,-1.51457,0.00637691,0.015917,895,1597,1.14978,-14.9514
-322,-573,1.15582,15.2345,0.000262081,0.0111371,-0.00062127,0.0111724,0.000226703,-1.51391,0.00737389,0.012354,902,1597,1.1558,-15.2345
-315,-573,1.2345,15.5648,0.000217689,0.0125049,-0.000747905,0.0125503,0.000172333,-1.51023,0.00831,0.0224376,909,1597,1.23452,-15.5648
-308,-573,1.20807,15.6748,0.000154512,0.0131875,-0.0011863,0.0132946,4.74127e-05,-1.48076,0.00884731,0.033722,916,1597,1.20808,-15.6748
-301,-573,1.25958,15.8781,0.000214338,0.0130661,-0.00161184,0.0132652,1.52704e-05,-1.44791,0.00883839,0.0328018,923,1597,1.25958,-15.878
-294,-573,1.1825,16.1637,0.00033124,0.0117348,-0.00205521,0.0120939,-2.78554e-05,-1.39782,0.00807188,0.0356003,930,1597,1.18248,-16.1637
-287,-573,1.26398,16.2935,0.000362274,0.00929399,-0.00281952,0.0101096,-0.000453304,-1.28922,0.00689578,0.0458543,937,1597,1.26397,-16.2934
-280,-573,1.26465,16.446,0,0,0,0,0,0,0,-1,944,1597,1.26466,-16.4461
-273,-573,-0.225037,10.6533,0,0,0,0,0,0,0,-1,951,1597,-0.225018,-10.6533
-266,-573,1.31116,7.1814,0,0,0,0,0,0,0,-1,958,1597,1.31118,-7.18142
-259,-573,1.2514,6.70959,0,0,0,0,0,0,0,-1,965,1597,1.25137,-6.70965
-252,-573,2.07874,5.27161,0,0,0,0,0,0,0,-1,972,1597,2.07875,-5.27157
-245,-573,-10.2592,1.09827,0,0,0,0,0,0,0,-1,979,1597,-10.2592,-1.09823
-238,-573,-11.5463,4.44141,0,0,0,0,0,0,0,-1,986,1597,-11.5463,-4.44146
-231,-573,-9.23431,4.14539,0,0,0,0,0,0,0,-1,993,1597,-9.23431,-4.14534
-224,-573,-6.70044,7.40857,0,0,0,0,0,0,0,-1,1000,1597,-6.70045,-7.40851
-217,-573,-4.25824,8.59119,0,0,0,0,0,0,0,-1,1007,1597,-4.25824,-8.59122
-210,-573,-2.39661,9.73914,0,0,0,0,0,0,0,-1,1014,1597,-2.39658,-9.73915
-203,-573,-0.557373,10.9005,0,0,0,0,0,0,0,-1,1021,1597,-0.557387,-10.9006
-196,-573,-1.65344,9.02246,0,0,0,0,0,0,0,-1,1028,1597,-1.65349,-9.02241
-189,-573,-6.12915,6.66882,0,0,0,0,0,0,0,-1,1035,1597,-6.12913,-6.66884
-182,-573,0,0,0,0,0,0,0,0,0,-1,1042,1597,0,0
-175,-573,0,0,0,0,0,0,0,0,0,-1,1049,1597,0,0
-168,-573,0,0,0,0,0,0,0,0,0,-1,1056,1597,0,0
-161,-573,0,0,0,0,0,0,0,0,0,-1,1063,1597,0,0
-154,-573,0,0,0,0,0,0,0,0,0,-1,1070,1597,0,0
-147,-573,0,0,0,0,0,0,0,0,0,-1,1077,1597,0,0
-140,-573,0,0,0,0,0,0,0,0,0,-1,1084,1597,0,0
-133,-573,0,0,0,0,0,0,0,0,0,-1,1091,1597,0,0
-126,-573,0,0,0,0,0,0,0,0,0,-1,1098,1597,0,0
-119,-573,0,0,0,0,0,0,0,0,0,-1,1105,1597,0,0
-112,-573,0,0,0,0,0,0,0,0,0,-1,1112,1597,0,0
-105,-573,0,0,0,0,0,0,0,0,0,-1,1119,1597,0,0
-98,-573,0,0,0,0,0,0,0,0,0,-1,1126,1597,0,0
-91,-573,0,0,0,0,0,0,0,0,0,-1,1133,1597,0,0
-84,-573,0,0,0,0,0,0,0,0,0,-1,1140,1597,0,0
-77,-573,0,0,0,0,0,0,0,0,0,-1,1147,1597,0,0
-70,-573,0,0,0,0,0,0,0,0,0,-1,1154,1597,0,0
-63,-573,0,0,0,0,0,0,0,0,0,-1,1161,1597,0,0
-56,-573,0,0,0,0,0,0,0,0,0,-1,1168,1597,0,0
-49,-573,0,0,0,0,0,0,0,0,0,-1,1175,1597,0,0
-42,-573,0,0,0,0,0,0,0,0,0,-1,1182,1597,0,0
-35,-573,0,0,0,0,0,0,0,0,0,-1,1189,1597,0,0
-28,-573,0,0,0,0,0,0,0,0,0,-1,1196,1597,0,0
-21,-573,0,0,0,0,0,0,0,0,0,-1,1203,1597,0,0
-14,-573,0,0,0,0,0,0,0,0,0,-1,1210,1597,0,0
-7,-573,0,0,0,0,0,0,0,0,0,-1,1217,1597,0,0
0,-573,0,0,0,0,0,0,0,0,0,-1,1224,1597,0,0
7,-573,0,0,0,0,0,0,0,0,0,-1,1231,1597,0,0
14,-573,0,0,0,0,0,0,0,0,0,-1,1238,1597,0,0
21,-573,0,0,0,0,0,0,0,0,0,-1,1245,1597,0,0
28,-573,0,0,0,0,0,0,0,0,0,-1,1252,1597,0,0
35,-573,0,0,0,0,0,0,0,0,0,-1,1259,1597,0,0
42,-573,0,0,0,0,0,0,0,0,0,-1,1266,1597,0,0
49,-573,0,0,0,0,0,0,0,0,0,-1,1273,1597,0,0
56,-573,0,0,0,0,0,0,0,0,0,-1,1280,1597,0,0
63,-573,0,0,0,0,0,0,0,0,0,-1,1287,1597,0,0
70,-573,0,0,0,0,0,0,0,0,0,-1,1294,1597,0,0
77,-573,0,0,0,0,0,0,0,0,0,-1,1301,1597,0,0
84,-573,0,0,0,0,0,0,0,0,0,-1,1308,1597,0,0
91,-573,0,0,0,0,0,0,0,0,0,-1,1315,1597,0,0
98,-573,0,0,0,0,0,0,0,0,0,-1,1322,1597,0,0
105,-573,0,0,0,0,0,0,0,0,0,-1,1329,1597,0,0
112,-573,0,0,0,0,0,0,0,0,0,-1,1336,1597,0,0
119,-573,0,0,0,0,0,0,0,0,0,-1,1343,1597,0,0
126,-573,0,0,0,0,0,0,0,0,0,-1,1350,1597,0,0
133,-573,0,0,0,0,0,0,0,0,0,-1,1357,1597,0,0
140,-573,0,0,0,0,0,0,0,0,0,-1,1364,1597,0,0
147,-573,0,0,0,0,0,0,0,0,0,-1,1371,1597,0,0
154,-573,0,0,0,0,0,0,0,0,0,-1,1378,1597,0,0
161,-573,0,0,0,0,0,0,0,0,0,-1,1385,1597,0,0
168,-573,0,0,0,0,0,0,0,0,0,-1,1392,1597,0,0
175,-573,0,0,0,0,0,0,0,0,0,-1,1399,1597,0,0
182,-573,0,0,0,0,0,0,0,0,0,-1,1406,1597,0,0
189,-573,0,0,0,0,0,0,0,0,0,-1,1413,1597,0,0
196,-573,0,0,0,0,0,0,0,0,0,-1,1420,1597,0,0
203,-573,0,0,0,0,0,0,0,0,0,-1,1427,1597,0,0
210,-573,0,0,0,0,0,0,0,0,0,-1,1434,1597,0,0
217,-573,0,0,0,0,0,0,0,0,0,-1,1441,1597,0,0
224,-573,0,0,0,0,0,0,0,0,0,-1,1448,1597,0,0
231,-573,0,0,0,0,0,0,0,0,0,-1,1455,1597,0,0
238,-573,0,0,0,0,0,0,0,0,0,-1,1462,1597,0,0
245,-573,0,0,0,0,0,0,0,0,0,-1,1469,1597,0,0
252,-573,0,0,0,0,0,0,0,0,0,-1,1476,1597,0,0
259,-573,0,0,0,0,0,0,0,0,0,-1,1483,1597,0,0
266,-573,0,0,0,0,0,0,0,0,0,-1,1490,1597,0,0
273,-573,0,0,0,0,0,0,0,0,0,-1,1497,1597,0,0
280,-573,0,0,0,0,0,0,0,0,0,-1,1504,1597,0,0
287,-573,0,0,0,0,0,0,0,0,0,-1,1511,1597,0,0
294,-573,0,0,0,0,0,0,0,0,0,-1,1518,1597,0,0
301,-573,0,0,0,0,0,0,0,0,0,-1,1525,1597,0,0
308,-573,5.93042,9.71143,0,0,0,0,0,0,0,-1,1532,1597,5.93046,-9.71144
315,-573,4.34204,11.719,0,0,0,0,0,0,0,-1,1539,1597,4.34205,-11.719
322,-573,10.3269,7.77563,0,0,0,0,0,0,0,-1,1546,1597,10.327,-7.77565
329,-573,4.99573,3.80273,0,0,0,0,0,0,0,-1,1553,1597,4.9957,-3.80273
336,-573,4.85693,2.53455,0,0,0,0,0,0,0,-1,1560,1597,4.8569,-2.53459
343,-573,5.5946,2.15894,0,0,0,0,0,0,0,-1,1567,1597,5.59456,-2.1589
350,-573,2.53748,1.56433,0,0,0,0,0,0,0,-1,1574,1597,2.53753,-1.5643
357,-573,7.40247,4.03613,0,0,0,0,0,0,0,-1,1581,1597,7.40244,-4.03614
364,-573,7.14551,3.02087,0,0,0,0,0,0,0,-1,1588,1597,7.14556,-3.02084
371,-573,6.88867,2.00549,0,0,0,0,0,0,0,-1,1595,1597,6.88868,-2.00553
378,-573,8.62012,6.09106,0,0,0,0,0,0,0,-1,1602,1597,8.62012,-6.09103
385,-573,6.54346,-0.951904,0,0,0,0,0,0,0,-1,1609,1597,6.54349,0.951901
392,-573,6.41833,-2.18225,0,0,0,0,0,0,0,-1,1616,1597,6.41831,2.18228
399,-573,4.26282,4.73657,0,0,0,0,0,0,0,-1,1623,1597,4.26285,-4.73652
406,-573,6.82715,10.823,0,0,0,0,0,0,0,-1,1630,1597,6.82719,-10.823
413,-573,8.90552,13.1737,0,0,0,0,0,0,0,-1,1637,1597,8.90553,-13.1737
420,-573,9.76563,16.7721,0,0,0,0,0,0,0,-1,1644,1597,9.76559,-16.7721
427,-573,9.87354,16.9399,0,0,0,0,0,0,0,-1,1651,1597,9.87358,-16.94
434,-573,9.57568,16.7371,0,0,0,0,0,0,0,-1,1658,1597,9.57563,-16.7371
441,-573,9.50806,16.6782,-0.00965649,-0.0142183,0.013947,0.00219486,-0.0260696,0.704346,0.0181556,0.0354607,1665,1597,9.50807,-16.6783
448,-573,9.41052,16.562,-0.00881969,-0.0122491,0.0122748,0.00185956,-0.0229283,0.716001,0.0159416,0.0235,1672,1597,9.4105,-16.562
455,-573,9.39941,16.2972,-0.00794862,-0.0104571,0.010668,0.00153864,-0.0199444,0.726881,0.0138377,0.0179683,1679,1597,9.39938,-16.2972
462,-573,9.43713,15.9888,-0.00703409,-0.00876141,0.00898956,0.0011332,-0.0169287,0.737508,0.0116819,0.0185549,1686,1597,9.43709,-15.9888
469,-573,9.45374,15.7384,-0.00587958,-0.00724133,0.00731081,0.000781993,-0.0139029,0.738966,0.00953996,0.0159528,1693,1597,9.45374,-15.7384
476,-573,9.44922,15.5018,-0.00466112,-0.00567053,0.00568899,0.000545514,-0.0108772,0.741156,0.00743995,0.0150538,1700,1597,9.44921,-15.5019
483,-573,9.46448,15.2661,-0.0033273,-0.00430529,0.00427672,0.000488288,-0.00812088,0.728476,0.0055838,0.0113779,1707,1597,9.46453,-15.2661
490,-573,9.44189,15.0197,-0.0018343,-0.00311539,0.00288911,0.000484421,-0.00543412,0.676308,0.00379454,0.0104851,1714,1597,9.44188,-15.0197
497,-573,9.45752,14.7673,-0.000303584,-0.00206324,0.00147948,0.000537913,-0.00290474,0.517146,0.00213847,0.0163721,1721,1597,9.45755,-14.7673
504,-573,9.4613,14.51,0.00121751,-0.00111005,0.000212035,0.00123667,-0.00112921,0.0901089,0.00136641,0.0172895,1728,1597,9.46136,-14.51
511,-573,9.46106,14.2487,0.00286694,-0.000477397,-0.000994413,0.00314028,-0.000750738,-0.268251,0.00238351,0.0182212,1735,1597,9.46107,-14.2487
518,-573,9.44348,14.0093,0.00448748,-0.000169612,-0.00201739,0.00523984,-0.000921972,-0.356961,0.00383765,0.0139867,1742,1597,9.44349,-14.0093
525,-573,9.43372,13.7463,0.00622974,-0.00030022,-0.00294315,0.00736046,-0.00143094,-0.366802,0.00544697,0.0167347,1749,1597,9.43368,-13.7463
532,-573,9.46814,13.4691,0.00799464,-0.000997035,-0.0036543,0.00929246,-0.00229486,-0.341255,0.00708491,0.01608,1756,1597,9.46814,-13.4692
539,-573,9.43176,13.2365,0.00987296,-0.0018375,-0.00438587,0.0113334,-0.00329797,-0.321447,0.00886193,0.0234931,1763,1597,9.43171,-13.2365
546,-573,9.49084,12.9344,0.0117837,-0.00285141,-0.00500622,0.0133323,-0.00440001,-0.3,0.0106619,0.0394455,1770,1597,9.49082,-12.9344
553,-573,9.72351,12.639,0,0,0,0,0,0,0,-1,1777,1597,9.72353,-12.6391
560,-573,8.9054,12.4242,0,0,0,0,0,0,0,-1,1784,1597,8.90535,-12.4242
567,-573,4.99597,2.77759,0,0,0,0,0,0,0,-1,1791,1597,4.99596,-2.7776
574,-573,0.83374,5.7041,0,0,0,0,0,0,0,-1,1798,1597,0.833718,-5.70405
581,-573,-0.224854,7.41602,0,0,0,0,0,0,0,-1,1805,1597,-0.224904,-7.41596
588,-573,-0.134033,7.67065,0,0,0,0,0,0,0,-1,1812,1597,-0.134037,-7.67063
595,-573,-0.0825195,8.35083,0,0,0,0,0,0,0,-1,1819,1597,-0.0824684,-8.35088
602,-573,0,0,0,0,0,0,0,0,0,-1,1826,1597,0,0
609,-573,0,0,0,0,0,0,0,0,0,-1,1833,1597,0,0
616,-573,0,0,0,0,0,0,0,0,0,-1,1840,1597,0,0
623,-573,0,0,0,0,0,0,0,0,0,-1,1847,1597,0,0
630,-573,0,0,0,0,0,0,0,0,0,-1,1854,1597,0,0
637,-573,0,0,0,0,0,0,0,0,0,-1,1861,1597,0,0
644,-573,0,0,0,0,0,0,0,0,0,-1,1868,1597,0,0
651,-573,0,0,0,0,0,0,0,0,0,-1,1875,1597,0,0
658,-573,0,0,0,0,0,0,0,0,0,-1,1882,1597,0,0
665,-573,0,0,0,0,0,0,0,0,0,-1,1889,1597,0,0
672,-573,0,0,0,0,0,0,0,0,0,-1,1896,1597,0,0
679,-573,0,0,0,0,0,0,0,0,0,-1,1903,1597,0,0
686,-573,0,0,0,0,0,0,0,0,0,-1,1910,1597,0,0
693,-573,0,0,0,0,0,0,0,0,0,-1,1917,1597,0,0
700,-573,0,0,0,0,0,0,0,0,0,-1,1924,1597,0,0
707,-573,0,0,0,0,0,0,0,0,0,-1,1931,1597,0,0
714,-573,0,0,0,0,0,0,0,0,0,-1,1938,1597,0,0
721,-573,0,0,0,0,0,0,0,0,0,-1,1945,1597,0,0
728,-573,0,0,0,0,0,0,0,0,0,-1,1952,1597,0,0
735,-573,0,0,0,0,0,0,0,0,0,-1,1959,1597,0,0
742,-573,0,0,0,0,0,0,0,0,0,-1,1966,1597,0,0
749,-573,0,0,0,0,0,0,0,0,0,-1,1973,1597,0,0
756,-573,0,0,0,0,0,0,0,0,0,-1,1980,1597,0,0
763,-573,0,0,0,0,0,0,0,0,0,-1,1987,1597,0,0
770,-573,0,0,0,0,0,0,0,0,0,-1,1994,1597,0,0
777,-573,0,0,0,0,0,0,0,0,0,-1,2001,1597,0,0
784,-573,0,0,0,0,0,0,0,0,0,-1,2008,1597,0,0
791,-573,0,0,0,0,0,0,0,0,0,-1,2015,1597,0,0
798,-573,0,0,0,0,0,0,0,0,0,-1,2022,1597,0,0
805,-573,0,0,0,0,0,0,0,0,0,-1,2029,1597,0,0
812,-573,0,0,0,0,0,0,0,0,0,-1,2036,1597,0,0
-700,-580,0,0,0,0,0,0,0,0,0,-1,524,1604,0,0
-693,-580,0,0,0,0,0,0,0,0,0,-1,531,1604,0,0
-686,-580,0,0,0,0,0,0,0,0,0,-1,538,1604,0,0
-679,-580,0,0,0,0,0,0,0,0,0,-1,545,1604,0,0
-672,-580,0,0,0,0,0,0,0,0,0,-1,552,1604,0,0
-665,-580,0,0,0,0,0,0,0,0,0,-1,559,1604,0,0
-658,-580,0,0,0,0,0,0,0,0,0,-1,566,1604,0,0
-651,-580,0,0,0,0,0,0,0,0,0,-1,573,1604,0,0
-644,-580,0,0,0,0,0,0,0,0,0,-1,580,1604,0,0
-637,-580,0,0,0,0,0,0,0,0,0,-1,587,1604,0,0
-630,-580,0,0,0,0,0,0,0,0,0,-1,594,1604,0,0
-623,-580,0,0,0,0,0,0,0,0,0,-1,601,1604,0,0
-616,-580,0,0,0,0,0,0,0,0,0,-1,608,1604,0,0
-609,-580,0,0,0,0,0,0,0,0,0,-1,615,1604,0,0
-602,-580,0,0,0,0,0,0,0,0,0,-1,622,1604,0,0
-595,-580,0,0,0,0,0,0,0,0,0,-1,629,1604,0,0
-588,-580,0,0,0,0,0,0,0,0,0,-1,636,1604,0,0
-581,-580,0,0,0,0,0,0,0,0,0,-1,643,1604,0,0
-574,-580,0,0,0,0,0,0,0,0,0,-1,650,1604,0,0
-567,-580,0,0,0,0,0,0,0,0,0,-1,657,1604,0,0
-560,-580,0,0,0,0,0,0,0,0,0,-1,664,1604,0,0
-553,-580,0,0,0,0,0,0,0,0,0,-1,671,1604,0,0
-546,-580,0,0,0,0,0,0,0,0,0,-1,678,1604,0,0
-539,-580,0,0,0,0,0,0,0,0,0,-1,685,1604,0,0
-532,-580,0,0,0,0,0,0,0,0,0,-1,692,1604,0,0
-525,-580,0,0,0,0,0,0,0,0,0,-1,699,1604,0,0
-518,-580,0,0,0,0,0,0,0,0,0,-1,706,1604,0,0
-511,-580,0,0,0,0,0,0,0,0,0,-1,713,1604,0,0
-504,-580,0,0,0,0,0,0,0,0,0,-1,720,1604,0,0
-497,-580,0,0,0,0,0,0,0,0,0,-1,727,1604,0,0
-490,-580,0,0,0,0,0,0,0,0,0,-1,734,1604,0,0
-483,-580,0,0,0,0,0,0,0,0,0,-1,741,1604,0,0
-476,-580,0,0,0,0,0,0,0,0,0,-1,748,1604,0,0
-469,-580,-1.69189,-0.38916,0,0,0,0,0,0,0,-1,755,1604,-1.69192,0.389188
-462,-580,-0.859863,0.675293,0,0,0,0,0,0,0,-1,762,1604,-0.859834,-0.675245
-455,-580,-0.730164,0.651978,0,0,0,0,0,0,0,-1,769,1604,-0.730153,-0.651957
-448,-580,-3.31891,2.07544,0,0,0,0,0,0,0,-1,776,1604,-3.3189,-2.07539
-441,-580,-1.63843,3.9469,0,0,0,0,0,0,0,-1,783,1604,-1.63842,-3.94695
-434,-580,0.23291,5.97876,0,0,0,0,0,0,0,-1,790,1604,0.232901,-5.97878
-427,-580,1.62756,8.05493,0,0,0,0,0,0,0,-1,797,1604,1.62758,-8.05488
-420,-580,1.64508,10.4242,0,0,0,0,0,0,0,-1,804,1604,1.64507,-10.4242
-413,-580,1.65784,11.507,0,0,0,0,0,0,0,-1,811,1604,1.65785,-11.5069
-406,-580,1.50415,11.9047,0.00169298,0.0058087,0.00218405,0.00675165,0.000750035,1.16323,0.00427309,0.0429116,818,1604,1.50414,-11.9047
-399,-580,1.45428,12.158,0.000748446,0.00383845,0.00136716,0.00435649,0.0002304,1.20859,0.00283066,0.0185461,825,1604,1.45426,-12.158
-392,-580,1.43445,12.4694,0.000216934,0.00216636,0.000857594,0.00248992,-0.000106634,1.21001,0.00169661,0.0119842,832,1604,1.43442,-12.4694
-385,-580,1.44965,12.7533,1.7854e-05,0.0011725,0.000518439,0.00137111,-0.000180762,1.20494,0.000979904,0.0115479,839,1604,1.44963,-12.7533
-378,-580,1.45703,13.0409,-7.64837e-05,0.000671869,0.000354343,0.000813024,-0.000217639,1.19171,0.000627277,0.0146083,846,1604,1.45701,-13.0409
-371,-580,1.4502,13.3455,-0.000163318,0.000663372,4.80234e-05,0.000666152,-0.000166098,1.51296,0.00050859,0.0134887,853,1604,1.45021,-13.3454
-364,-580,1.474,13.6161,-0.000230574,0.000719162,-0.00010305,0.000730215,-0.000241627,-1.46395,0.000584252,0.0185217,860,1604,1.474,-13.6161
-357,-580,1.44873,13.866,-0.000110463,0.00145555,-0.00013055,0.00146636,-0.000121271,-1.48819,0.0010204,0.0134172,867,1604,1.44871,-13.866
-350,-580,1.43048,14.1512,7.8797e-05,0.00267637,-0.000156676,0.00268579,6.93811e-05,-1.51077,0.00176785,0.00978993,874,1604,1.43051,-14.1512
-343,-580,1.43823,14.4185,0.000203447,0.00381398,-0.00019137,0.00382409,0.000193332,-1.51799,0.00248746,0.0106042,881,1604,1.43825,-14.4184
-336,-580,1.44385,14.6588,0.000328509,0.00504827,-0.000222833,0.00505876,0.000318012,-1.52372,0.00327166,0.0188789,888,1604,1.44387,-14.6588
-329,-580,1.43384,14.9552,0.000476901,0.00641024,-0.000252312,0.00642095,0.000466191,-1.52837,0.00413401,0.0174531,895,1604,1.43382,-14.9552
-322,-580,1.42548,15.2206,0.000568967,0.00737826,-0.00036378,0.00739764,0.000549587,-1.51757,0.00475915,0.0183682,902,1604,1.42547,-15.2206
-315,-580,1.45117,15.4865,0.000579662,0.00818972,-0.000542719,0.00822823,0.000541152,-1.49996,0.0053143,0.0148226,909,1604,1.45117,-15.4865
-308,-580,1.49121,15.8021,0.000589768,0.00831739,-0.00102784,0.00845177,0.000455393,-1.4408,0.00548902,0.0182976,916,1604,1.49123,-15.8021
-301,-580,1.55176,15.9973,0.000739746,0.00773757,-0.00148251,0.00803869,0.00043863,-1.37041,0.00521906,0.0187605,923,1604,1.55173,-15.9974
-294,-580,1.53046,16.1564,0.000935278,0.00613609,-0.0019396,0.00677978,0.000291588,-1.25037,0.00442586,0.0228848,930,1604,1.53043,-16.1564
-287,-580,1.47723,16.3077,0.00108582,0.00370993,-0.0027069,0.005406,-0.00061025,-1.01107,0.00382368,0.0413246,937,1604,1.47721,-16.3078
-280,-580,1.42535,16.4653,0,0,0,0,0,0,0,-1,944,1604,1.42536,-16.4653
-273,-580,1.685,16.199,0,0,0,0,0,0,0,-1,951,1604,1.68502,-16.199
-266,-580,0.494202,8.78955,0,0,0,0,0,0,0,-1,958,1604,0.494174,-8.78958
-259,-580,1.31091,9.11536,0,0,0,0,0,0,0,-1,965,1604,1.31092,-9.11539
-252,-580,1.07629,7.74097,0,0,0,0,0,0,0,-1,972,1604,1.07627,-7.74101
-245,-580,3.80304,9.16028,0,0,0,0,0,0,0,-1,979,1604,3.80306,-9.16034
-238,-580,-10.3588,1.57556,0,0,0,0,0,0,0,-1,986,1604,-10.3588,-1.5755
-231,-580,-10.576,6.43787,0,0,0,0,0,0,0,-1,993,1604,-10.576,-6.43783
-224,-580,-8.27435,7.58972,0,0,0,0,0,0,0,-1,1000,1604,-8.27435,-7.5897
-217,-580,-5.85632,9.51221,0,0,0,0,0,0,0,-1,1007,1604,-5.85632,-9.5122
-210,-580,-3.6684,11.1569,0,0,0,0,0,0,0,-1,1014,1604,-3.66839,-11.1569
-203,-580,-1.92474,12.7845,0,0,0,0,0,0,0,-1,1021,1604,-1.92477,-12.7845
-196,-580,-2.28552,10.3289,0,0,0,0,0,0,0,-1,1028,1604,-2.28552,-10.3288
-189,-580,-4.58252,7.59058,0,0,0,0,0,0,0,-1,1035,1604,-4.58256,-7.59057
-182,-580,-5.45874,7.65942,0,0,0,0,0,0,0,-1,1042,1604,-5.45876,-7.65939
-175,-580,-6.38977,7.55005,0,0,0,0,0,0,0,-1,1049,1604,-6.38981,-7.5501
-168,-580,0,0,0,0,0,0,0,0,0,-1,1056,1604,0,0
-161,-580,0,0,0,0,0,0,0,0,0,-1,1063,1604,0,0
-154,-580,0,0,0,0,0,0,0,0,0,-1,1070,1604,0,0
-147,-580,0,0,0,0,0,0,0,0,0,-1,1077,1604,0,0
-140,-580,0,0,0,0,0,0,0,0,0,-1,1084,1604,0,0
-133,-580,0,0,0,0,0,0,0,0,0,-1,1091,1604,0,0
-126,-580,0,0,0,0,0,0,0,0,0,-1,1098,1604,0,0
-119,-580,0,0,0,0,0,0,0,0,0,-1,1105,1604,0,0
-112,-580,0,0,0,0,0,0,0,0,0,-1,1112,1604,0,0
-105,-580,0,0,0,0,0,0,0,0,0,-1,1119,1604,0,0
-98,-580,0,0,0,0,0,0,0,0,0,-1,1126,1604,0,0
-91,-580,0,0,0,0,0,0,0,0,0,-1,1133,1604,0,0
-84,-580,0,0,0,0,0,0,0,0,0,-1,1140,1604,0,0
-77,-580,0,0,0,0,0,0,0,0,0,-1,1147,1604,0,0
-70,-580,0,0,0,0,0,0,0,0,0,-1,1154,1604,0,0
-63,-580,0,0,0,0,0,0,0,0,0,-1,1161,1604,0,0
-56,-580,0,0,0,0,0,0,0,0,0,-1,1168,1604,0,0
-49,-580,0,0,0,0,0,0,0,0,0,-1,1175,1604,0,0
-42,-580,0,0,0,0,0,0,0,0,0,-1,1182,1604,0,0
-35,-580,0,0,0,0,0,0,0,0,0,-1,1189,1604,0,0
-28,-580,0,0,0,0,0,0,0,0,0,-1,1196,1604,0,0
-21,-580,0,0,0,0,0,0,0,0,0,-1,1203,1604,0,0
-14,-580,0,0,0,0,0,0,0,0,0,-1,1210,1604,0,0
-7,-580,0,0,0,0,0,0,0,0,0,-1,1217,1604,0,0
0,-580,0,0,0,0,0,0,0,0,0,-1,1224,1604,0,0
7,-580,0,0,0,0,0,0,0,0,0,-1,1231,1604,0,0
14,-580,0,0,0,0,0,0,0,0,0,-1,1238,1604,0,0
21,-580,0,0,0,0,0,0,0,0,0,-1,1245,1604,0,0
28,-580,0,0,0,0,0,0,0,0,0,-1,1252,1604,0,0
35,-580,0,0,0,0,0,0,0,0,0,-1,1259,1604,0,0
42,-580,0,0,0,0,0,0,0,0,0,-1,1266,1604,0,0
49,-580,0,0,0,0,0,0,0,0,0,-1,1273,1604,0,0
56,-580,0,0,0,0,0,0,0,0,0,-1,1280,1604,0,0
63,-580,0,0,0,0,0,0,0,0,0,-1,1287,1604,0,0
70,-580,0,0,0,0,0,0,0,0,0,-1,1294,1604,0,0
77,-580,0,0,0,0,0,0,0,0,0,-1,1301,1604,0,0
84,-580,0,0,0,0,0,0,0,0,0,-1,1308,1604,0,0
91,-580,0,0,0,0,0,0,0,0,0,-1,1315,1604,0,0
98,-580,0,0,0,0,0,0,0,0,0,-1,1322,1604,0,0
105,-580,0,0,0,0,0,0,0,0,0,-1,1329,1604,0,0
112,-580,0,0,0,0,0,0,0,0,0,-1,1336,1604,0,0
119,-580,0,0,0,0,0,0,0,0,0,-1,1343,1604,0,0
126,-580,0,0,0,0,0,0,0,0,0,-1,1350,1604,0,0
133,-580,0,0,0,0,0,0,0,0,0,-1,1357,1604,0,0
140,-580,0,0,0,0,0,0,0,0,0,-1,1364,1604,0,0
147,-580,0,0,0,0,0,0,0,0,0,-1,1371,1604,0,0
154,-580,0,0,0,0,0,0,0,0,0,-1,1378,1604,0,0
161,-580,0,0,0,0,0,0,0,0,0,-1,1385,1604,0,0
168,-580,0,0,0,0,0,0,0,0,0,-1,1392,1604,0,0
175,-580,0,0,0,0,0,0,0,0,0,-1,1399,1604,0,0
182,-580,0,0,0,0,0,0,0,0,0,-1,1406,1604,0,0
189,-580,0,0,0,0,0,0,0,0,0,-1,1413,1604,0,0
196,-580,0,0,0,0,0,0,0,0,0,-1,1420,1604,0,0
203,-580,0,0,0,0,0,0,0,0,0,-1,1427,1604,0,0
210,-580,0,0,0,0,0,0,0,0,0,-1,1434,1604,0,0
217,-580,0,0,0,0,0,0,0,0,0,-1,1441,1604,0,0
224,-580,0,0,0,0,0,0,0,0,0,-1,1448,1604,0,0
231,-580,0,0,0,0,0,0,0,0,0,-1,1455,1604,0,0
238,-580,0,0,0,0,0,0,0,0,0,-1,1462,1604,0,0
245,-580,0,0,0,0,0,0,0,0,0,-1,1469,1604,0,0
252,-580,0,0,0,0,0,0,0,0,0,-1,1476,1604,0,0
259,-580,0,0,0,0,0,0,0,0,0,-1,1483,1604,0,0
266,-580,0,0,0,0,0,0,0,0,0,-1,1490,1604,0,0
273,-580,0,0,0,0,0,0,0,0,0,-1,1497,1604,0,0
280,-580,0,0,0,0,0,0,0,0,0,-1,1504,1604,0,0
287,-580,0,0,0,0,0,0,0,0,0,-1,1511,1604,0,0
294,-580,4.0437,0.177368,0,0,0,0,0,0,0,-1,1518,1604,4.04369,-0.177371
301,-580,7.55164,8.05798,0,0,0,0,0,0,0,-1,1525,1604,7.55158,-8.05802
308,-580,5.9126,9.99341,0,0,0,0,0,0,0,-1,1532,1604,5.91255,-9.99337
315,-580,4.27356,11.9287,0,0,0,0,0,0,0,-1,1539,1604,4.27352,-11.9287
322,-580,10.2366,7.50281,0,0,0,0,0,0,0,-1,1546,1604,10.2366,-7.50282
329,-580,10.5962,8.69641,0,0,0,0,0,0,0,-1,1553,1604,10.5962,-8.69642
336,-580,3.66431,1.58862,0,0,0,0,0,0,0,-1,1560,1604,3.6643,-1.58864
343,-580,3.32227,1.39636,0,0,0,0,0,0,0,-1,1567,1604,3.32222,-1.39633
350,-580,8.71277,4.0564,0,0,0,0,0,0,0,-1,1574,1604,8.71271,-4.05638
357,-580,8.52332,3.08154,0,0,0,0,0,0,0,-1,1581,1604,8.52332,-3.08157
364,-580,8.25818,2.07605,0,0,0,0,0,0,0,-1,1588,1604,8.25812,-2.07608
371,-580,7.42114,7.14282,0,0,0,0,0,0,0,-1,1595,1604,7.42119,-7.14281
378,-580,7.9718,6.6731,0,0,0,0,0,0,0,-1,1602,1604,7.9718,-6.67307
385,-580,8.52246,6.20337,0,0,0,0,0,0,0,-1,1609,1604,8.52241,-6.20334
392,-580,6.5498,-2.15625,0,0,0,0,0,0,0,-1,1616,1604,6.54984,2.15626
399,-580,6.52625,10.7247,0,0,0,0,0,0,0,-1,1623,1604,6.52628,-10.7248
406,-580,9.35706,17.1981,0,0,0,0,0,0,0,-1,1630,1604,9.35706,-17.1981
413,-580,9.55383,17.0837,0,0,0,0,0,0,0,-1,1637,1604,9.55386,-17.0838
420,-580,9.43384,17.0918,-0.0068169,-0.0143556,0.0139422,0.00385654,-0.025029,0.653377,0.0181089,0.0436472,1644,1604,9.43385,-17.0918
427,-580,9.38708,17.1084,-0.00700201,-0.013159,0.0128294,0.00311307,-0.023274,0.667647,0.016651,0.0397444,1651,1604,9.38713,-17.1084
434,-580,9.21912,16.8754,-0.0067421,-0.0114667,0.01136,0.00249863,-0.0207074,0.682885,0.0147087,0.0259012,1658,1604,9.21908,-16.8754
441,-580,9.16064,16.6737,-0.00643344,-0.0100903,0.0101004,0.0020027,-0.0185264,0.695855,0.0130698,0.0119231,1665,1604,9.16069,-16.6738
448,-580,9.1936,16.475,-0.00588421,-0.00861076,0.00880056,0.00165804,-0.016153,0.708555,0.0113617,0.0116265,1672,1604,9.19355,-16.475
455,-580,9.20862,16.2686,-0.00528245,-0.00722309,0.00749204,0.00130184,-0.0138074,0.721,0.00966813,0.0181654,1679,1604,9.20866,-16.2685
462,-580,9.17334,16.0082,-0.00462429,-0.00590884,0.00607222,0.000839532,-0.0113727,0.732708,0.00787655,0.023001,1686,1604,9.17332,-16.0082
469,-580,9.18628,15.7399,-0.00368822,-0.00470566,0.00461341,0.00044443,-0.00883831,0.730485,0.0060458,0.020338,1693,1604,9.1863,-15.7399
476,-580,9.21033,15.4994,-0.00263328,-0.00342806,0.00318413,0.00017816,-0.0062395,0.723317,0.00422031,0.0148252,1700,1604,9.21038,-15.4994
483,-580,9.20068,15.2678,-0.00142132,-0.00234671,0.00194966,0.000119792,-0.00388783,0.668894,0.00263272,0.0121397,1707,1604,9.20071,-15.2679
490,-580,9.15955,15.0519,2.00586e-05,-0.00144549,0.000682393,0.000288593,-0.00171402,0.374906,0.00125003,0.0149331,1714,1604,9.15949,-15.0518
497,-580,9.15503,14.7778,0.00152428,-0.000618617,-0.000607132,0.00168434,-0.000778676,-0.257767,0.00145371,0.0121257,1721,1604,9.15505,-14.7779
504,-580,9.1593,14.4966,0.00305464,0.000103711,-0.00173869,0.00385954,-0.000701187,-0.433556,0.0028358,0.0164343,1728,1604,9.15936,-14.4966
511,-580,9.17725,14.2688,0.00476234,0.000549426,-0.0028006,0.00616024,-0.000848477,-0.462962,0.0044169,0.0169549,1735,1604,9.17728,-14.2687
518,-580,9.1759,14.0216,0.00656647,0.000650767,-0.0037293,0.00836851,-0.00115127,-0.450127,0.0059997,0.0156939,1742,1604,9.1759,-14.0216
525,-580,9.17224,13.7594,0.00857965,0.00021932,-0.00453507,0.0105672,-0.00176823,-0.413049,0.00770216,0.0179143,1749,1604,9.17228,-13.7594
532,-580,9.18677,13.4877,0.0107821,-0.000814885,-0.00516706,0.0127502,-0.00278306,-0.36394,0.0095638,0.0209966,1756,1604,9.18673,-13.4876
539,-580,9.22681,13.3115,0.0133023,-0.00199452,-0.00593069,0.0153323,-0.0040245,-0.329785,0.0117942,0.0305662,1763,1604,9.22676,-13.3116
546,-580,9.52795,13.0107,0.0159162,-0.00360492,-0.00651786,0.0178923,-0.0055811,-0.294385,0.0141601,0.0493266,1770,1604,9.52801,-13.0108
553,-580,9.97864,12.6273,0,0,0,0,0,0,0,-1,1777,1604,9.9786,-12.6273
560,-580,7.09021,6.49438,0,0,0,0,0,0,0,-1,1784,1604,7.09016,-6.4944
567,-580,3.87708,4.0647,0,0,0,0,0,0,0,-1,1791,1604,3.87711,-4.06471
574,-580,2.31653,5.62952,0,0,0,0,0,0,0,-1,1798,1604,2.31654,-5.62947
581,-580,1.60876,6.67664,0,0,0,0,0,0,0,-1,1805,1604,1.60873,-6.67667
588,-580,1.38684,7.14441,0,0,0,0,0,0,0,-1,1812,1604,1.38689,-7.14443
595,-580,0,0,0,0,0,0,0,0,0,-1,1819,1604,0,0
602,-580,0,0,0,0,0,0,0,0,0,-1,1826,1604,0,0
609,-580,0,0,0,0,0,0,0,0,0,-1,1833,1604,0,0
616,-580,0,0,0,0,0,0,0,0,0,-1,1840,1604,0,0
623,-580,0,0,0,0,0,0,0,0,0,-1,1847,1604,0,0
630,-580,0,0,0,0,0,0,0,0,0,-1,1854,1604,0,0
637,-580,0,0,0,0,0,0,0,0,0,-1,1861,1604,0,0
644,-580,0,0,0,0,0,0,0,0,0,-1,1868,1604,0,0
651,-580,0,0,0,0,0,0,0,0,0,-1,1875,1604,0,0
658,-580,0,0,0,0,0,0,0,0,0,-1,1882,1604,0,0
665,-580,0,0,0,0,0,0,0,0,0,-1,1889,1604,0,0
672,-580,0,0,0,0,0,0,0,0,0,-1,1896,1604,0,0
679,-580,0,0,0,0,0,0,0,0,0,-1,1903,1604,0,0
686,-580,0,0,0,0,0,0,0,0,0,-1,1910,1604,0,0
693,-580,0,0,0,0,0,0,0,0,0,-1,1917,1604,0,0
700,-580,0,0,0,0,0,0,0,0,0,-1,1924,1604,0,0
707,-580,0,0,0,0,0,0,0,0,0,-1,1931,1604,0,0
714,-580,0,0,0,0,0,0,0,0,0,-1,1938,1604,0,0
721,-580,0,0,0,0,0,0,0,0,0,-1,1945,1604,0,0
728,-580,0,0,0,0,0,0,0,0,0,-1,1952,1604,0,0
735,-580,0,0,0,0,0,0,0,0,0,-1,1959,1604,0,0
742,-580,0,0,0,0,0,0,0,0,0,-1,1966,1604,0,0
749,-580,0,0,0,0,0,0,0,0,0,-1,1973,1604,0,0
756,-580,0,0,0,0,0,0,0,0,0,-1,1980,1604,0,0
763,-580,0,0,0,0,0,0,0,0,0,-1,1987,1604,0,0
770,-580,0,0,0,0,0,0,0,0,0,-1,1994,1604,0,0
777,-580,0,0,0,0,0,0,0,0,0,-1,2001,1604,0,0
784,-580,0,0,0,0,0,0,0,0,0,-1,2008,1604,0,0
791,-580,0,0,0,0,0,0,0,0,0,-1,2015,1604,0,0
798,-580,0,0,0,0,0,0,0,0,0,-1,2022,1604,0,0
805,-580,0,0,0,0,0,0,0,0,0,-1,2029,1604,0,0
812,-580,0,0,0,0,0,0,0,0,0,-1,2036,1604,0,0
-700,-587,0,0,0,0,0,0,0,0,0,-1,524,1611,0,0
-693,-587,0,0,0,0,0,0,0,0,0,-1,531,1611,0,0
-686,-587,0,0,0,0,0,0,0,0,0,-1,538,1611,0,0
-679,-587,0,0,0,0,0,0,0,0,0,-1,545,1611,0,0
-672,-587,0,0,0,0,0,0,0,0,0,-1,552,1611,0,0
-665,-587,0,0,0,0,0,0,0,0,0,-1,559,1611,0,0
-658,-587,0,0,0,0,0,0,0,0,0,-1,566,1611,0,0
-651,-587,0,0,0,0,0,0,0,0,0,-1,573,1611,0,0
-644,-587,0,0,0,0,0,0,0,0,0,-1,580,1611,0,0
-637,-587,0,0,0,0,0,0,0,0,0,-1,587,1611,0,0
-630,-587,0,0,0,0,0,0,0,0,0,-1,594,1611,0,0
-623,-587,0,0,0,0,0,0,0,0,0,-1,601,1611,0,0
-616,-587,0,0,0,0,0,0,0,0,0,-1,608,1611,0,0
-609,-587,0,0,0,0,0,0,0,0,0,-1,615,1611,0,0
-602,-587,0,0,0,0,0,0,0,0,0,-1,622,1611,0,0
-595,-587,0,0,0,0,0,0,0,0,0,-1,629,1611,0,0
-588,-587,0,0,0,0,0,0,0,0,0,-1,636,1611,0,0
-581,-587,0,0,0,0,0,0,0,0,0,-1,643,1611,0,0
-574,-587,0,0,0,0,0,0,0,0,0,-1,650,1611,0,0
-567,-587,0,0,0,0,0,0,0,0,0,-1,657,1611,0,0
-560,-587,0,0,0,0,0,0,0,0,0,-1,664,1611,0,0
-553,-587,0,0,0,0,0,0,0,0,0,-1,671,1611,0,0
-546,-587,0,0,0,0,0,0,0,0,0,-1,678,1611,0,0
-539,-587,0,0,0,0,0,0,0,0,0,-1,685,1611,0,0
-532,-587,0,0,0,0,0,0,0,0,0,-1,692,1611,0,0
-525,-587,0,0,0,0,0,0,0,0,0,-1,699,1611,0,0
-518,-587,0,0,0,0,0,0,0,0,0,-1,706,1611,0,0
-511,-587,0,0,0,0,0,0,0,0,0,-1,713,1611,0,0
-504,-587,0,0,0,0,0,0,0,0,0,-1,720,1611,0,0
-497,-587,0,0,0,0,0,0,0,0,0,-1,727,1611,0,0
-490,-587,0,0,0,0,0,0,0,0,0,-1,734,1611,0,0
-483,-587,0,0,0,0,0,0,0,0,0,-1,741,1611,0,0
-476,-587,0,0,0,0,0,0,0,0,0,-1,748,1611,0,0
-469,-587,0,0,0,0,0,0,0,0,0,-1,755,1611,0,0
-462,-587,-0.714355,-0.418457,0,0,0,0,0,0,0,-1,762,1611,-0.714359,0.418483
-455,-587,-0.619812,-0.522461,0,0,0,0,0,0,0,-1,769,1611,-0.619802,0.522515
-448,-587,-0.461731,-0.686523,0,0,0,0,0,0,0,-1,776,1611,-0.461739,0.686559
-441,-587,-3.56555,2.72253,0,0,0,0,0,0,0,-1,783,1611,-3.56555,-2.72259
-434,-587,-1.77319,4.76318,0,0,0,0,0,0,0,-1,790,1611,-1.77318,-4.76323
-427,-587,0.0346069,6.92944,0,0,0,0,0,0,0,-1,797,1611,0.034587,-6.92941
-420,-587,-0.647156,10.1157,0,0,0,0,0,0,0,-1,804,1611,-0.647128,-10.1158
-413,-587,1.71667,9.65393,0,0,0,0,0,0,0,-1,811,1611,1.71667,-9.65397
-406,-587,1.83984,11.8965,0,0,0,0,0,0,0,-1,818,1611,1.83982,-11.8965
-399,-587,1.8111,12.1604,0.000489735,0.00448462,0.001515,0.00499417,-1.98146e-05,1.24635,0.00333607,0.0357051,825,1611,1.81109,-12.1605
-392,-587,1.79529,12.4014,-7.65903e-05,0.0023589,0.000953296,0.00268766,-0.00040535,1.2387,0.00194105,0.0251838,832,1611,1.79528,-12.4014
-385,-587,1.70154,12.7213,-0.000267537,0.00102463,0.000628972,0.00128022,-0.000523136,1.18481,0.00107132,0.0143517,839,1611,1.70153,-12.7213
-378,-587,1.69812,13.0355,-0.000352679,0.000201531,0.00050104,0.000496989,-0.000648137,1.03799,0.000663056,0.0123912,846,1611,1.69812,-13.0355
-371,-587,1.69769,13.3577,-0.000424113,-4.90217e-05,0.00018827,2.9175e-05,-0.00050231,1.17713,0.00034501,0.0132542,853,1611,1.69767,-13.3577
-364,-587,1.70526,13.6183,-0.000453526,-0.000240395,4.0598e-05,-0.000232924,-0.000460997,1.3888,0.000266162,0.0167537,860,1611,1.70529,-13.6183
-357,-587,1.69379,13.848,-0.000273931,0.000224813,1.21722e-05,0.000225109,-0.000274228,1.54641,0.000288757,0.0159284,867,1611,1.69376,-13.8481
-350,-587,1.68628,14.146,-1.38265e-05,0.00110094,-5.94804e-06,0.00110098,-1.38581e-05,-1.56546,0.000738646,0.00886476,874,1611,1.68629,-14.146
-343,-587,1.67255,14.4294,0.000166998,0.0019555,-2.01197e-05,0.00195573,0.000166772,-1.55955,0.00125193,0.0114197,881,1611,1.67252,-14.4295
-336,-587,1.66144,14.6906,0.000339223,0.00291489,-4.58588e-05,0.00291571,0.000338407,-1.553,0.0018414,0.0118688,888,1611,1.66142,-14.6905
-329,-587,1.66223,14.9391,0.000551025,0.00393895,-8.7936e-05,0.00394123,0.000548744,-1.54486,0.00246502,0.0144431,895,1611,1.66221,-14.9391
-322,-587,1.69727,15.1844,0.000686763,0.00461067,-0.000217368,0.00462267,0.000674759,-1.51563,0.0028833,0.0173869,902,1611,1.69725,-15.1845
-315,-587,1.68756,15.4492,0.000729001,0.00509764,-0.000415857,0.00513687,0.000689767,-1.47673,0.00321938,0.0133763,909,1611,1.68753,-15.4492
-308,-587,1.67468,15.7336,0.000780043,0.00493883,-0.000901679,0.00512591,0.000592963,-1.36622,0.00323777,0.0130999,916,1611,1.67467,-15.7336
-301,-587,1.72528,15.9907,0.000979508,0.00418238,-0.0013368,0.004667,0.000494889,-1.22301,0.00296019,0.012975,923,1611,1.72529,-15.9907
-294,-587,1.78033,16.2457,0.00121391,0.00258465,-0.00175664,0.00378489,1.367e-05,-0.971395,0.00251871,0.0155289,930,1611,1.78034,-16.2458
-287,-587,1.78113,16.4952,0.00141085,0.000388174,-0.00243683,0.00338941,-0.00159039,-0.68198,0.00293696,0.02527,937,1611,1.78112,-16.4952
-280,-587,1.81403,16.6362,0.00184799,-0.00272711,-0.00319418,0.00348927,-0.00436839,-0.474653,0.00454607,0.0381708,944,1611,1.814,-16.6362
-273,-587,1.84808,16.4574,0.00238568,-0.00701112,-0.00398528,0.00384824,-0.00847368,-0.35173,0.00727922,0.0474675,951,1611,1.84807,-16.4574
-266,-587,1.90564,16.642,0,0,0,0,0,0,0,-1,958,1611,1.90566,-16.642
-259,-587,1.38495,16.6017,0,0,0,0,0,0,0,-1,965,1611,1.38493,-16.6017
-252,-587,1.30188,10.3103,0,0,0,0,0,0,0,-1,972,1611,1.30188,-10.3104
-245,-587,2.97797,12.0387,0,0,0,0,0,0,0,-1,979,1611,2.97798,-12.0387
-238,-587,2.87799,9.53821,0,0,0,0,0,0,0,-1,986,1611,2.87797,-9.53823
-231,-587,2.49548,9.14465,0,0,0,0,0,0,0,-1,993,1611,2.49551,-9.14468
-224,-587,-9.72528,9.21069,0,0,0,0,0,0,0,-1,1000,1611,-9.72529,-9.21072
-217,-587,-7.07495,10.7847,0,0,0,0,0,0,0,-1,1007,1611,-7.07495,-10.7847
-210,-587,-4.72308,12.5889,0,0,0,0,0,0,0,-1,1014,1611,-4.72307,-12.5888
-203,-587,-3.2583,13.7289,0,0,0,0,0,0,0,-1,1021,1611,-3.25828,-13.7289
-196,-587,-1.953,14.8145,0,0,0,0,0,0,0,-1,1028,1611,-1.95302,-14.8144
-189,-587,-3.04138,8.66638,0,0,0,0,0,0,0,-1,1035,1611,-3.04136,-8.66635
-182,-587,-3.97095,9.7146,0,0,0,0,0,0,0,-1,1042,1611,-3.97093,-9.71461
-175,-587,-4.80969,8.37878,0,0,0,0,0,0,0,-1,1049,1611,-4.80964,-8.37883
-168,-587,-5.91394,8.72546,0,0,0,0,0,0,0,-1,1056,1611,-5.91398,-8.72542
-161,-587,-7.06946,8.88501,0,0,0,0,0,0,0,-1,1063,1611,-7.06947,-8.885
-154,-587,-2.24731,6.56519,0,0,0,0,0,0,0,-1,1070,1611,-2.24728,-6.56517
-147,-587,0,0,0,0,0,0,0,0,0,-1,1077,1611,0,0
-140,-587,0,0,0,0,0,0,0,0,0,-1,1084,1611,0,0
-133,-587,0,0,0,0,0,0,0,0,0,-1,1091,1611,0,0
-126,-587,0,0,0,0,0,0,0,0,0,-1,1098,1611,0,0
-119,-587,0,0,0,0,0,0,0,0,0,-1,1105,1611,0,0
-112,-587,0,0,0,0,0,0,0,0,0,-1,1112,1611,0,0
-105,-587,0,0,0,0,0,0,0,0,0,-1,1119,1611,0,0
-98,-587,0,0,0,0,0,0,0,0,0,-1,1126,1611,0,0
-91,-587,0,0,0,0,0,0,0,0,0,-1,1133,1611,0,0
-84,-587,0,0,0,0,0,0,0,0,0,-1,1140,1611,0,0
-77,-587,0,0,0,0,0,0,0,0,0,-1,1147,1611,0,0
-70,-587,0,0,0,0,0,0,0,0,0,-1,1154,1611,0,0
-63,-587,0,0,0,0,0,0,0,0,0,-1,1161,1611,0,0
-56,-587,0,0,0,0,0,0,0,0,0,-1,1168,1611,0,0
-49,-587,0,0,0,0,0,0,0,0,0,-1,1175,1611,0,0
-42,-587,0,0,0,0,0,0,0,0,0,-1,1182,1611,0,0
-35,-587,0,0,0,0,0,0,0,0,0,-1,1189,1611,0,0
-28,-587,0,0,0,0,0,0,0,0,0,-1,1196,1611,0,0
-21,-587,0,0,0,0,0,0,0,0,0,-1,1203,1611,0,0
-14,-587,0,0,0,0,0,0,0,0,0,-1,1210,1611,0,0
-7,-587,0,0,0,0,0,0,0,0,0,-1,1217,1611,0,0
0,-587,0,0,0,0,0,0,0,0,0,-1,1224,1611,0,0
7,-587,0,0,0,0,0,0,0,0,0,-1,1231,1611,0,0
14,-587,0,0,0,0,0,0,0,0,0,-1,1238,1611,0,0
21,-587,0,0,0,0,0,0,0,0,0,-1,1245,1611,0,0
28,-587,0,0,0,0,0,0,0,0,0,-1,1252,1611,0,0
35,-587,0,0,0,0,0,0,0,0,0,-1,1259,1611,0,0
42,-587,0,0,0,0,0,0,0,0,0,-1,1266,1611,0,0
49,-587,0,0,0,0,0,0,0,0,0,-1,1273,1611,0,0
56,-587,0,0,0,0,0,0,0,0,0,-1,1280,1611,0,0
63,-587,0,0,0,0,0,0,0,0,0,-1,1287,1611,0,0
70,-587,0,0,0,0,0,0,0,0,0,-1,1294,1611,0,0
77,-587,0,0,0,0,0,0,0,0,0,-1,1301,1611,0,0
84,-587,0,0,0,0,0,0,0,0,0,-1,1308,1611,0,0
91,-587,0,0,0,0,0,0,0,0,0,-1,1315,1611,0,0
98,-587,0,0,0,0,0,0,0,0,0,-1,1322,1611,0,0
105,-587,0,0,0,0,0,0,0,0,0,-1,1329,1611,0,0
112,-587,0,0,0,0,0,0,0,0,0,-1,1336,1611,0,0
119,-587,0,0,0,0,0,0,0,0,0,-1,1343,1611,0,0
126,-587,0,0,0,0,0,0,0,0,0,-1,1350,1611,0,0
133,-587,0,0,0,0,0,0,0,0,0,-1,1357,1611,0,0
140,-587,0,0,0,0,0,0,0,0,0,-1,1364,1611,0,0
147,-587,0,0,0,0,0,0,0,0,0,-1,1371,1611,0,0
154,-587,0,0,0,0,0,0,0,0,0,-1,1378,1611,0,0
161,-587,0,0,0,0,0,0,0,0,0,-1,1385,1611,0,0
168,-587,0,0,0,0,0,0,0,0,0,-1,1392,1611,0,0
175,-587,0,0,0,0,0,0,0,0,0,-1,1399,1611,0,0
182,-587,0,0,0,0,0,0,0,0,0,-1,1406,1611,0,0
189,-587,0,0,0,0,0,0,0,0,0,-1,1413,1611,0,0
196,-587,0,0,0,0,0,0,0,0,0,-1,1420,1611,0,0
203,-587,0,0,0,0,0,0,0,0,0,-1,1427,1611,0,0
210,-587,0,0,0,0,0,0,0,0,0,-1,1434,1611,0,0
217,-587,0,0,0,0,0,0,0,0,0,-1,1441,1611,0,0
224,-587,0,0,0,0,0,0,0,0,0,-1,1448,1611,0,0
231,-587,0,0,0,0,0,0,0,0,0,-1,1455,1611,0,0
238,-587,0,0,0,0,0,0,0,0,0,-1,1462,1611,0,0
245,-587,0,0,0,0,0,0,0,0,0,-1,1469,1611,0,0
252,-587,0,0,0,0,0,0,0,0,0,-1,1476,1611,0,0
259,-587,0,0,0,0,0,0,0,0,0,-1,1483,1611,0,0
266,-587,0,0,0,0,0,0,0,0,0,-1,1490,1611,0,0
273,-587,10.2936,6.35083,0,0,0,0,0,0,0,-1,1497,1611,10.2936,-6.35087
280,-587,2.09204,1.1217,0,0,0,0,0,0,0,-1,1504,1611,2.092,-1.12176
287,-587,3.2865,0.671509,0,0,0,0,0,0,0,-1,1511,1611,3.28656,-0.671538
294,-587,4.24646,1.58765,0,0,0,0,0,0,0,-1,1518,1611,4.24648,-1.58761
301,-587,7.60474,8.37085,0,0,0,0,0,0,0,-1,1525,1611,7.60478,-8.37084
308,-587,5.99316,10.2291,0,0,0,0,0,0,0,-1,1532,1611,5.99315,-10.2291
315,-587,4.34558,12.3289,0,0,0,0,0,0,0,-1,1539,1611,4.34556,-12.3288
322,-587,10.4526,6.38245,0,0,0,0,0,0,0,-1,1546,1611,10.4526,-6.38245
329,-587,10.7738,8.42444,0,0,0,0,0,0,0,-1,1553,1611,10.7738,-8.42438
336,-587,7.5531,5.96619,0,0,0,0,0,0,0,-1,1560,1611,7.55311,-5.96617
343,-587,9.57495,4.38391,0,0,0,0,0,0,0,-1,1567,1611,9.57494,-4.38397
350,-587,9.50378,3.45093,0,0,0,0,0,0,0,-1,1574,1611,9.50376,-3.4509
357,-587,9.40027,2.50806,0,0,0,0,0,0,0,-1,1581,1611,9.40022,-2.50803
364,-587,9.26477,1.34131,0,0,0,0,0,0,0,-1,1588,1611,9.26479,-1.34126
371,-587,6.98926,7.87561,0,0,0,0,0,0,0,-1,1595,1611,6.98928,-7.87564
378,-587,9.25146,13.8358,0,0,0,0,0,0,0,-1,1602,1611,9.2515,-13.8359
385,-587,7.17224,7.03772,0,0,0,0,0,0,0,-1,1609,1611,7.1722,-7.03778
392,-587,5.3916,8.21436,0,0,0,0,0,0,0,-1,1616,1611,5.39157,-8.21437
399,-587,8.7804,17.5463,0,0,0,0,0,0,0,-1,1623,1611,8.78044,-17.5462
406,-587,9.03979,17.4323,-0.00415199,-0.0124998,0.0127239,0.00506512,-0.0217169,0.626911,0.0164287,0.0476582,1630,1611,9.03979,-17.4322
413,-587,9.12915,17.3601,-0.00424195,-0.0112328,0.0114802,0.0042632,-0.019738,0.63762,0.014786,0.0355211,1637,1611,9.12919,-17.3601
420,-587,9.02222,17.4316,-0.00443375,-0.0101429,0.0103965,0.00349296,-0.0180696,0.651415,0.0133638,0.0321034,1644,1611,9.02217,-17.4317
427,-587,9.03198,17.2223,-0.00449175,-0.00916131,0.00937798,0.00283772,-0.0164908,0.663396,0.0120516,0.0258285,1651,1611,9.03195,-17.2222
434,-587,8.95398,16.9602,-0.00429062,-0.00794589,0.00817501,0.00225856,-0.0144951,0.675425,0.0104975,0.0140229,1658,1611,8.95401,-16.9602
441,-587,8.93188,16.7274,-0.00399221,-0.00691864,0.00705826,0.0017529,-0.0126637,0.683193,0.00908336,0.0154551,1665,1611,8.93194,-16.7274
448,-587,8.96692,16.4968,-0.00351606,-0.00584278,0.005924,0.00135773,-0.0107166,0.688442,0.00763729,0.0149769,1672,1611,8.96698,-16.4969
455,-587,8.9751,16.2649,-0.00306052,-0.00479895,0.0048195,0.000967524,-0.00882699,0.696181,0.00623225,0.0140795,1679,1611,8.97507,-16.2649
462,-587,8.94336,16.0129,-0.00255535,-0.00377798,0.00358802,0.000473057,-0.00680639,0.701019,0.00470321,0.0182429,1686,1611,8.94338,-16.013
469,-587,8.95972,15.7711,-0.00176025,-0.0028154,0.00229004,6.21993e-05,-0.00463785,0.672184,0.00311284,0.0159329,1693,1611,8.95971,-15.7711
476,-587,8.96509,15.5262,-0.000817123,-0.00175104,0.00100523,-0.00017569,-0.00239248,0.567962,0.00153977,0.00991218,1700,1611,8.96507,-15.5262
483,-587,8.93762,15.2815,0.000303004,-0.000859694,-9.95129e-05,0.000311459,-0.000868149,-0.0847664,0.000705875,0.0131081,1707,1611,8.93765,-15.2815
490,-587,8.90515,15.0425,0.00170228,-0.000144757,-0.00128822,0.00236381,-0.000806294,-0.474411,0.00190247,0.0168476,1714,1611,8.90512,-15.0424
497,-587,8.89648,14.7843,0.00318517,0.000552973,-0.00249625,0.00469102,-0.000952871,-0.542801,0.00348862,0.0126011,1721,1611,8.89651,-14.7843
504,-587,8.8844,14.5376,0.00473929,0.00112763,-0.00353798,0.00690565,-0.00103873,-0.549426,0.0049862,0.0114115,1728,1611,8.88437,-14.5376
511,-587,8.90381,14.3062,0.00653011,0.00147721,-0.00449961,0.00916403,-0.00115671,-0.529591,0.00652917,0.0129337,1735,1611,8.90376,-14.3062
518,-587,8.92749,14.046,0.0085592,0.00145359,-0.00538061,0.0114541,-0.00144135,-0.493608,0.00815909,0.0131358,1742,1611,8.92746,-14.0461
525,-587,8.9325,13.7755,0.0109244,0.00079694,-0.00612398,0.013807,-0.00208569,-0.439943,0.00997287,0.0171293,1749,1611,8.93255,-13.7755
532,-587,9.052,13.6044,0.0137123,-0.000571501,-0.00673946,0.0163901,-0.00324933,-0.378207,0.0121555,0.0315258,1756,1611,9.05194,-13.6044
539,-587,9.55322,13.5896,0.0171069,-0.00221104,-0.00756529,0.019717,-0.00482111,-0.332218,0.015012,0.0481988,1763,1611,9.55322,-13.5896
546,-587,9.46753,12.8955,0,0,0,0,0,0,0,-1,1770,1611,9.46748,-12.8956
553,-587,7.5813,8.45068,0,0,0,0,0,0,0,-1,1777,1611,7.58125,-8.45068
560,-587,4.21179,5.23547,0,0,0,0,0,0,0,-1,1784,1611,4.21185,-5.23553
567,-587,4.03711,5.46387,0,0,0,0,0,0,0,-1,1791,1611,4.03715,-5.46382
574,-587,3.83142,5.68884,0,0,0,0,0,0,0,-1,1798,1611,3.83141,-5.68881
581,-587,3.47168,6.00977,0,0,0,0,0,0,0,-1,1805,1611,3.47167,-6.00983
588,-587,0,0,0,0,0,0,0,0,0,-1,1812,1611,0,0
595,-587,0,0,0,0,0,0,0,0,0,-1,1819,1611,0,0
602,-587,0,0,0,0,0,0,0,0,0,-1,1826,1611,0,0
609,-587,0,0,0,0,0,0,0,0,0,-1,1833,1611,0,0
616,-587,0,0,0,0,0,0,0,0,0,-1,1840,1611,0,0
623,-587,0,0,0,0,0,0,0,0,0,-1,1847,1611,0,0
630,-587,0,0,0,0,0,0,0,0,0,-1,1854,1611,0,0
637,-587,0,0,0,0,0,0,0,0,0,-1,1861,1611,0,0
644,-587,0,0,0,0,0,0,0,0,0,-1,1868,1611,0,0
651,-587,0,0,0,0,0,0,0,0,0,-1,1875,1611,0,0
658,-587,0,0,0,0,0,0,0,0,0,-1,1882,1611,0,0
665,-587,0,0,0,0,0,0,0,0,0,-1,1889,1611,0,0
672,-587,0,0,0,0,0,0,0,0,0,-1,1896,1611,0,0
679,-587,0,0,0,0,0,0,0,0,0,-1,1903,1611,0,0
686,-587,0,0,0,0,0,0,0,0,0,-1,1910,1611,0,0
693,-587,0,0,0,0,0,0,0,0,0,-1,1917,1611,0,0
700,-587,0,0,0,0,0,0,0,0,0,-1,1924,1611,0,0
707,-587,0,0,0,0,0,0,0,0,0,-1,1931,1611,0,0
714,-587,0,0,0,0,0,0,0,0,0,-1,1938,1611,0,0
721,-587,0,0,0,0,0,0,0,0,0,-1,1945,1611,0,0
728,-587,0,0,0,0,0,0,0,0,0,-1,1952,1611,0,0
735,-587,0,0,0,0,0,0,0,0,0,-1,1959,1611,0,0
742,-587,0,0,0,0,0,0,0,0,0,-1,1966,1611,0,0
749,-587,0,0,0,0,0,0,0,0,0,-1,1973,1611,0,0
756,-587,0,0,0,0,0,0,0,0,0,-1,1980,1611,0,0
763,-587,0,0,0,0,0,0,0,0,0,-1,1987,1611,0,0
770,-587,0,0,0,0,0,0,0,0,0,-1,1994,1611,0,0
777,-587,0,0,0,0,0,0,0,0,0,-1,2001,1611,0,0
784,-587,0,0,0,0,0,0,0,0,0,-1,2008,1611,0,0
791,-587,0,0,0,0,0,0,0,0,0,-1,2015,1611,0,0
798,-587,0,0,0,0,0,0,0,0,0,-1,2022,1611,0,0
805,-587,0,0,0,0,0,0,0,0,0,-1,2029,1611,0,0
812,-587,0,0,0,0,0,0,0,0,0,-1,2036,1611,0,0
-700,-594,0,0,0,0,0,0,0,0,0,-1,524,1618,0,0
-693,-594,0,0,0,0,0,0,0,0,0,-1,531,1618,0,0
-686,-594,0,0,0,0,0,0,0,0,0,-1,538,1618,0,0
-679,-594,0,0,0,0,0,0,0,0,0,-1,545,1618,0,0
-672,-594,0,0,0,0,0,0,0,0,0,-1,552,1618,0,0
-665,-594,0,0,0,0,0,0,0,0,0,-1,559,1618,0,0
-658,-594,0,0,0,0,0,0,0,0,0,-1,566,1618,0,0
-651,-594,0,0,0,0,0,0,0,0,0,-1,573,1618,0,0
-644,-594,0,0,0,0,0,0,0,0,0,-1,580,1618,0,0
-637,-594,0,0,0,0,0,0,0,0,0,-1,587,1618,0,0
-630,-594,0,0,0,0,0,0,0,0,0,-1,594,1618,0,0
-623,-594,0,0,0,0,0,0,0,0,0,-1,601,1618,0,0
-616,-594,0,0,0,0,0,0,0,0,0,-1,608,1618,0,0
-609,-594,0,0,0,0,0,0,0,0,0,-1,615,1618,0,0
-602,-594,0,0,0,0,0,0,0,0,0,-1,622,1618,0,0
-595,-594,0,0,0,0,0,0,0,0,0,-1,629,1618,0,0
-588,-594,0,0,0,0,0,0,0,0,0,-1,636,1618,0,0
-581,-594,0,0,0,0,0,0,0,0,0,-1,643,1618,0,0
-574,-594,0,0,0,0,0,0,0,0,0,-1,650,1618,0,0
-567,-594,0,0,0,0,0,0,0,0,0,-1,657,1618,0,0
-560,-594,0,0,0,0,0,0,0,0,0,-1,664,1618,0,0
-553,-594,0,0,0,0,0,0,0,0,0,-1,671,1618,0,0
-546,-594,0,0,0,0,0,0,0,0,0,-1,678,1618,0,0
-539,-594,0,0,0,0,0,0,0,0,0,-1,685,1618,0,0
-532,-594,0,0,0,0,0,0,0,0,0,-1,692,1618,0,0
-525,-594,0,0,0,0,0,0,0,0,0,-1,699,1618,0,0
-518,-594,0,0,0,0,0,0,0,0,0,-1,706,1618,0,0
-511,-594,0,0,0,0,0,0,0,0,0,-1,713,1618,0,0
-504,-594,0,0,0,0,0,0,0,0,0,-1,720,1618,0,0
-497,-594,0,0,0,0,0,0,0,0,0,-1,727,1618,0,0
-490,-594,0,0,0,0,0,0,0,0,0,-1,734,1618,0,0
-483,-594,0,0,0,0,0,0,0,0,0,-1,741,1618,0,0
-476,-594,0,0,0,0,0,0,0,0,0,-1,748,1618,0,0
-469,-594,0,0,0,0,0,0,0,0,0,-1,755,1618,0,0
-462,-594,0,0,0,0,0,0,0,0,0,-1,762,1618,0,0
-455,-594,-0.509216,-1.58411,0,0,0,0,0,0,0,-1,769,1618,-0.509245,1.58415
-448,-594,-7.71887,-0.0559082,0,0,0,0,0,0,0,-1,776,1618,-7.71885,0.055939
-441,-594,-5.78473,1.18298,0,0,0,0,0,0,0,-1,783,1618,-5.78474,-1.18295
-434,-594,-3.93628,3.06213,0,0,0,0,0,0,0,-1,790,1618,-3.93631,-3.06208
-427,-594,-3.97693,6.77759,0,0,0,0,0,0,0,-1,797,1618,-3.97695,-6.77764
-420,-594,-2.53046,7.71606,0,0,0,0,0,0,0,-1,804,1618,-2.53047,-7.71609
-413,-594,-0.860413,8.00391,0,0,0,0,0,0,0,-1,811,1618,-0.860423,-8.00389
-406,-594,1.74683,11.7155,0,0,0,0,0,0,0,-1,818,1618,1.7468,-11.7154
-399,-594,2.16229,11.8243,0,0,0,0,0,0,0,-1,825,1618,2.16232,-11.8244
-392,-594,2.57782,11.9333,0,0,0,0,0,0,0,-1,832,1618,2.57784,-11.9333
-385,-594,2.0083,12.7682,-0.000889526,0.0010784,0.000607816,0.00125099,-0.00106212,1.29412,0.00133696,0.0282161,839,1618,2.00833,-12.7682
-378,-594,1.95758,13.0211,-0.000972232,0.000188919,0.000510731,0.000381592,-0.00116491,1.21005,0.000930265,0.0121865,846,1618,1.95756,-13.0211
-371,-594,1.98029,13.3337,-0.000962875,-0.000378864,0.000249523,-0.000286775,-0.00105496,1.21724,0.000629869,0.0115023,853,1618,1.98029,-13.3337
-364,-594,1.9718,13.6008,-0.000869261,-0.000886156,0.000135055,-0.00074239,-0.00101303,0.754164,0.000605642,0.0105597,860,1618,1.9718,-13.6009
-357,-594,1.96564,13.8701,-0.000558377,-0.000780415,0.000131356,-0.000497409,-0.000841383,0.434554,0.000488458,0.0100145,867,1618,1.96566,-13.8702
-350,-594,1.95575,14.1656,-0.000182248,-0.000316333,0.000145561,-8.9032e-05,-0.000409549,0.56959,0.000248725,0.0139525,874,1618,1.95573,-14.1656
-343,-594,1.93494,14.4475,9.17623e-05,0.000215001,0.000169936,0.000334144,-2.7381e-05,0.959327,0.000232428,0.0157584,881,1618,1.93491,-14.4475
-336,-594,1.91095,14.7072,0.000337176,0.000892817,0.000164991,0.000938116,0.000291877,1.30284,0.000554352,0.0136961,888,1618,1.91097,-14.7071
-329,-594,1.92889,14.9586,0.000620526,0.00162506,0.000126938,0.00164085,0.000604734,1.44702,0.000958197,0.0136193,895,1618,1.92889,-14.9586
-322,-594,1.96295,15.2197,0.000798809,0.00210049,-5.12476e-06,0.00210051,0.000798789,-1.56686,0.00122426,0.0157838,902,1618,1.96293,-15.2197
-315,-594,1.97418,15.4648,0.000868177,0.00241886,-0.000206299,0.00244584,0.000841201,-1.44077,0.00143485,0.015726,909,1618,1.97419,-15.4648
-308,-594,1.94543,15.724,0.000946355,0.00218813,-0.000669723,0.00248049,0.000653989,-1.15919,0.00148449,0.014055,916,1618,1.94541,-15.724
-301,-594,1.92804,15.958,0.0011742,0.00146747,-0.00107154,0.00240236,0.000239314,-0.853398,0.00152806,0.0115579,923,1618,1.92801,-15.958
-294,-594,1.96875,16.2043,0.00141747,7.40415e-05,-0.00145471,0.00234806,-0.000856552,-0.569107,0.00191582,0.0111717,930,1618,1.96873,-16.2044
-287,-594,1.96411,16.4436,0.00162269,-0.00171998,-0.00205084,0.00259698,-0.00269427,-0.443503,0.00305508,0.0125552,937,1618,1.96409,-16.4436
-280,-594,1.99194,16.672,0.00201909,-0.00415104,-0.00267377,0.00301651,-0.00514846,-0.357049,0.00476731,0.0168679,944,1618,1.99192,-16.672
-273,-594,2.02045,16.8308,0.0024385,-0.00724449,-0.0033396,0.00347859,-0.00828457,-0.301919,0.00697785,0.0277878,951,1618,2.02043,-16.8308
-266,-594,1.93146,16.9459,0.00302398,-0.0111583,-0.00402586,0.0040871,-0.0122214,-0.258178,0.00979833,0.037849,958,1618,1.93147,-16.9459
-259,-594,1.80847,16.9119,0.00379895,-0.0154804,-0.00471751,0.00489139,-0.0165729,-0.227559,0.0129897,0.0474283,965,1618,1.80848,-16.9119
-252,-594,1.73633,16.9485,0,0,0,0,0,0,0,-1,972,1618,1.73634,-16.9485
-245,-594,2.58289,17.0527,0,0,0,0,0,0,0,-1,979,1618,2.58289,-17.0527
-238,-594,2.48499,13.0104,0,0,0,0,0,0,0,-1,986,1618,2.48501,-13.0104
-231,-594,1.93774,9.35388,0,0,0,0,0,0,0,-1,993,1618,1.93776,-9.35393
-224,-594,1.81824,8.62744,0,0,0,0,0,0,0,-1,1000,1618,1.81822,-8.62745
-217,-594,-8.24066,12.0752,0,0,0,0,0,0,0,-1,1007,1618,-8.24068,-12.0751
-210,-594,-5.61438,14.2119,0,0,0,0,0,0,0,-1,1014,1618,-5.6144,-14.212
-203,-594,-3.94507,15.5768,0,0,0,0,0,0,0,-1,1021,1618,-3.94506,-15.5768
-196,-594,2.78613,10.5815,0,0,0,0,0,0,0,-1,1028,1618,2.78612,-10.5815
-189,-594,2.60913,9.48865,0,0,0,0,0,0,0,-1,1035,1618,2.6091,-9.48871
-182,-594,1.2395,9.38806,0,0,0,0,0,0,0,-1,1042,1618,1.23951,-9.38804
-175,-594,0.234863,8.73792,0,0,0,0,0,0,0,-1,1049,1618,0.234812,-8.73786
-168,-594,-0.495483,8.46289,0,0,0,0,0,0,0,-1,1056,1618,-0.495513,-8.46285
-161,-594,-1.39734,8.28699,0,0,0,0,0,0,0,-1,1063,1618,-1.39729,-8.28699
-154,-594,-0.000854492,7.68445,0,0,0,0,0,0,0,-1,1070,1618,-0.000805755,-7.6845
-147,-594,0.348267,9.3385,0,0,0,0,0,0,0,-1,1077,1618,0.348237,-9.33849
-140,-594,0.675171,11.5884,0,0,0,0,0,0,0,-1,1084,1618,0.675204,-11.5884
-133,-594,0,0,0,0,0,0,0,0,0,-1,1091,1618,0,0
-126,-594,0,0,0,0,0,0,0,0,0,-1,1098,1618,0,0
-119,-594,0,0,0,0,0,0,0,0,0,-1,1105,1618,0,0
-112,-594,0,0,0,0,0,0,0,0,0,-1,1112,1618,0,0
-105,-594,0,0,0,0,0,0,0,0,0,-1,1119,1618,0,0
-98,-594,0,0,0,0,0,0,0,0,0,-1,1126,1618,0,0
-91,-594,0,0,0,0,0,0,0,0,0,-1,1133,1618,0,0
-84,-594,0,0,0,0,0,0,0,0,0,-1,1140,1618,0,0
-77,-594,0,0,0,0,0,0,0,0,0,-1,1147,1618,0,0
-70,-594,0,0,0,0,0,0,0,0,0,-1,1154,1618,0,0
-63,-594,0,0,0,0,0,0,0,0,0,-1,1161,1618,0,0
-56,-594,0,0,0,0,0,0,0,0,0,-1,1168,1618,0,0
-49,-594,0,0,0,0,0,0,0,0,0,-1,1175,1618,0,0
-42,-594,0,0,0,0,0,0,0,0,0,-1,1182,1618,0,0
-35,-594,0,0,0,0,0,0,0,0,0,-1,1189,1618,0,0
-28,-594,0,0,0,0,0,0,0,0,0,-1,1196,1618,0,0
-21,-594,0,0,0,0,0,0,0,0,0,-1,1203,1618,0,0
-14,-594,0,0,0,0,0,0,0,0,0,-1,1210,1618,0,0
-7,-594,0,0,0,0,0,0,0,0,0,-1,1217,1618,0,0
0,-594,0,0,0,0,0,0,0,0,0,-1,1224,1618,0,0
7,-594,0,0,0,0,0,0,0,0,0,-1,1231,1618,0,0
14,-594,0,0,0,0,0,0,0,0,0,-1,1238,1618,0,0
21,-594,0,0,0,0,0,0,0,0,0,-1,1245,1618,0,0
28,-594,0,0,0,0,0,0,0,0,0,-1,1252,1618,0,0
35,-594,0,0,0,0,0,0,0,0,0,-1,1259,1618,0,0
42,-594,0,0,0,0,0,0,0,0,0,-1,1266,1618,0,0
49,-594,0,0,0,0,0,0,0,0,0,-1,1273,1618,0,0
56,-594,0,0,0,0,0,0,0,0,0,-1,1280,1618,0,0
63,-594,0,0,0,0,0,0,0,0,0,-1,1287,1618,0,0
70,-594,0,0,0,0,0,0,0,0,0,-1,1294,1618,0,0
77,-594,0,0,0,0,0,0,0,0,0,-1,1301,1618,0,0
84,-594,0,0,0,0,0,0,0,0,0,-1,1308,1618,0,0
91,-594,0,0,0,0,0,0,0,0,0,-1,1315,1618,0,0
98,-594,0,0,0,0,0,0,0,0,0,-1,1322,1618,0,0
105,-594,0,0,0,0,0,0,0,0,0,-1,1329,1618,0,0
112,-594,0,0,0,0,0,0,0,0,0,-1,1336,1618,0,0
119,-594,0,0,0,0,0,0,0,0,0,-1,1343,1618,0,0
126,-594,0,0,0,0,0,0,0,0,0,-1,1350,1618,0,0
133,-594,0,0,0,0,0,0,0,0,0,-1,1357,1618,0,0
140,-594,0,0,0,0,0,0,0,0,0,-1,1364,1618,0,0
147,-594,0,0,0,0,0,0,0,0,0,-1,1371,1618,0,0
154,-594,0,0,0,0,0,0,0,0,0,-1,1378,1618,0,0
161,-594,0,0,0,0,0,0,0,0,0,-1,1385,1618,0,0
168,-594,0,0,0,0,0,0,0,0,0,-1,1392,1618,0,0
175,-594,0,0,0,0,0,0,0,0,0,-1,1399,1618,0,0
182,-594,0,0,0,0,0,0,0,0,0,-1,1406,1618,0,0
189,-594,0,0,0,0,0,0,0,0,0,-1,1413,1618,0,0
196,-594,0,0,0,0,0,0,0,0,0,-1,1420,1618,0,0
203,-594,0,0,0,0,0,0,0,0,0,-1,1427,1618,0,0
210,-594,0,0,0,0,0,0,0,0,0,-1,1434,1618,0,0
217,-594,0,0,0,0,0,0,0,0,0,-1,1441,1618,0,0
224,-594,0,0,0,0,0,0,0,0,0,-1,1448,1618,0,0
231,-594,0,0,0,0,0,0,0,0,0,-1,1455,1618,0,0
238,-594,0,0,0,0,0,0,0,0,0,-1,1462,1618,0,0
245,-594,0,0,0,0,0,0,0,0,0,-1,1469,1618,0,0
252,-594,3.03674,1.20996,0,0,0,0,0,0,0,-1,1476,1618,3.0368,-1.20999
259,-594,4.79834,1.53113,0,0,0,0,0,0,0,-1,1483,1618,4.79837,-1.53118
266,-594,3.71606,2.68152,0,0,0,0,0,0,0,-1,1490,1618,3.71609,-2.68149
273,-594,9.7655,6.33557,0,0,0,0,0,0,0,-1,1497,1618,9.76555,-6.33554
280,-594,3.13281,0.911255,0,0,0,0,0,0,0,-1,1504,1618,3.13277,-0.911207
287,-594,4.42749,1.51563,0,0,0,0,0,0,0,-1,1511,1618,4.42747,-1.51564
294,-594,5.36475,3.34937,0,0,0,0,0,0,0,-1,1518,1618,5.36475,-3.3494
301,-594,7.97144,9.04333,0,0,0,0,0,0,0,-1,1525,1618,7.9714,-9.04328
308,-594,6.30347,10.4633,0,0,0,0,0,0,0,-1,1532,1618,6.30351,-10.4633
315,-594,4.62012,11.934,0,0,0,0,0,0,0,-1,1539,1618,4.62006,-11.934
322,-594,2.91528,13.3134,0,0,0,0,0,0,0,-1,1546,1618,2.91523,-13.3133
329,-594,4.19861,9.77258,0,0,0,0,0,0,0,-1,1553,1618,4.19865,-9.77264
336,-594,10.1353,4.66528,0,0,0,0,0,0,0,-1,1560,1618,10.1353,-4.66533
343,-594,10.5729,3.71228,0,0,0,0,0,0,0,-1,1567,1618,10.5729,-3.71232
350,-594,10.219,2.98792,0,0,0,0,0,0,0,-1,1574,1618,10.219,-2.98797
357,-594,9.83154,1.96326,0,0,0,0,0,0,0,-1,1581,1618,9.8315,-1.96321
364,-594,9.74939,0.700562,0,0,0,0,0,0,0,-1,1588,1618,9.74939,-0.700615
371,-594,8.54297,14.3988,0,0,0,0,0,0,0,-1,1595,1618,8.54296,-14.3989
378,-594,8.9137,16.3073,0,0,0,0,0,0,0,-1,1602,1618,8.91369,-16.3072
385,-594,9.2179,18.3527,0,0,0,0,0,0,0,-1,1609,1618,9.21795,-18.3526
392,-594,8.52466,18.0833,0,0,0,0,0,0,0,-1,1616,1618,8.52464,-18.0833
399,-594,8.61121,17.8008,-0.00269163,-0.0094427,0.0101446,0.00462431,-0.0167586,0.62479,0.0129912,0.0457455,1623,1618,8.61115,-17.8007
406,-594,8.73169,17.6458,-0.00281577,-0.00860445,0.00929944,0.00402934,-0.0154496,0.634531,0.011873,0.0273308,1630,1618,8.73171,-17.6457
413,-594,8.76855,17.5148,-0.00280114,-0.00782801,0.00840311,0.00345638,-0.0140855,0.640079,0.0107297,0.0211758,1637,1618,8.76857,-17.5148
420,-594,8.76233,17.3016,-0.00281448,-0.00697229,0.00752152,0.00291014,-0.0126969,0.650567,0.0095831,0.0179767,1644,1618,8.76239,-17.3017
427,-594,8.7334,17.1855,-0.0027027,-0.00618633,0.00660037,0.00238182,-0.0112708,0.656391,0.00842088,0.0119564,1651,1618,8.73344,-17.1855
434,-594,8.72131,16.9476,-0.00246301,-0.00532995,0.00560212,0.00188613,-0.00967909,0.660145,0.00716467,0.0156358,1658,1618,8.72126,-16.9477
441,-594,8.70654,16.7162,-0.00213941,-0.00458325,0.00462854,0.00142578,-0.00814844,0.656344,0.00596463,0.0153281,1665,1618,8.7065,-16.7162
448,-594,8.73682,16.4882,-0.00165956,-0.00380431,0.00360011,0.00102449,-0.00648837,0.640646,0.00470441,0.0158742,1672,1618,8.73678,-16.4881
455,-594,8.71619,16.2311,-0.00125383,-0.00303345,0.00263397,0.000636565,-0.00492385,0.622505,0.00351403,0.0117761,1679,1618,8.71616,-16.231
462,-594,8.71802,15.9873,-0.000811696,-0.00224141,0.00152438,0.000157117,-0.00321022,0.566148,0.0021944,0.0128783,1686,1618,8.718,-15.9873
469,-594,8.72363,15.7719,-8.03963e-05,-0.00146494,0.00032149,-9.3882e-06,-0.00153594,0.217382,0.00102085,0.0116284,1693,1618,8.72365,-15.7718
476,-594,8.71143,15.5476,0.000817568,-0.000560931,-0.000890215,0.00125417,-0.000997536,-0.455977,0.00130284,0.0118213,1700,1618,8.7114,-15.5476
483,-594,8.71265,15.3086,0.00190107,0.000198945,-0.00194657,0.00317449,-0.00107448,-0.579315,0.00255106,0.0152426,1707,1618,8.71262,-15.3086
490,-594,8.6897,15.0446,0.00330201,0.000792142,-0.00313519,0.0054241,-0.00132995,-0.595027,0.00413136,0.0138875,1714,1618,8.68966,-15.0446
497,-594,8.68933,14.7848,0.00481814,0.00142288,-0.00433693,0.00777786,-0.00153684,-0.598847,0.00576619,0.00994639,1721,1618,8.68932,-14.7847
504,-594,8.67725,14.5402,0.00646253,0.0019059,-0.00537247,0.0100198,-0.00165138,-0.584856,0.00729292,0.00955054,1728,1618,8.67728,-14.5402
511,-594,8.6748,14.2821,0.00840604,0.00223299,-0.00634596,0.0123763,-0.00173724,-0.559054,0.00888672,0.0114186,1735,1618,8.67481,-14.2822
518,-594,8.66272,13.9962,0.0107608,0.00218247,-0.00724215,0.0148886,-0.00194534,-0.518046,0.0106337,0.0150115,1742,1618,8.66276,-13.9962
525,-594,8.70911,13.7274,0.0136373,0.00143723,-0.00799163,0.017591,-0.00251641,-0.459417,0.0126498,0.0283408,1749,1618,8.70914,-13.7275
532,-594,8.86987,13.6166,0.0173307,2.04405e-05,-0.00883704,0.0210451,-0.00369392,-0.397898,0.0154097,0.0471479,1756,1618,8.86984,-13.6165
539,-594,9.08813,13.3987,0,0,0,0,0,0,0,-1,1763,1618,9.08811,-13.3987
546,-594,7.48645,8.54785,0,0,0,0,0,0,0,-1,1770,1618,7.48639,-8.54789
553,-594,3.69714,5.68762,0,0,0,0,0,0,0,-1,1777,1618,3.69715,-5.68764
560,-594,6.06616,4.44482,0,0,0,0,0,0,0,-1,1784,1618,6.06621,-4.44477
567,-594,5.97266,4.73303,0,0,0,0,0,0,0,-1,1791,1618,5.97271,-4.73309
574,-594,5.9906,4.96326,0,0,0,0,0,0,0,-1,1798,1618,5.99065,-4.96326
581,-594,0,0,0,0,0,0,0,0,0,-1,1805,1618,0,0
588,-594,0,0,0,0,0,0,0,0,0,-1,1812,1618,0,0
595,-594,0,0,0,0,0,0,0,0,0,-1,1819,1618,0,0
602,-594,0,0,0,0,0,0,0,0,0,-1,1826,1618,0,0
609,-594,0,0,0,0,0,0,0,0,0,-1,1833,1618,0,0
616,-594,0,0,0,0,0,0,0,0,0,-1,1840,1618,0,0
623,-594,0,0,0,0,0,0,0,0,0,-1,1847,1618,0,0
630,-594,0,0,0,0,0,0,0,0,0,-1,1854,1618,0,0
637,-594,0,0,0,0,0,0,0,0,0,-1,1861,1618,0,0
644,-594,0,0,0,0,0,0,0,0,0,-1,1868,1618,0,0
651,-594,0,0,0,0,0,0,0,0,0,-1,1875,1618,0,0
658,-594,0,0,0,0,0,0,0,0,0,-1,1882,1618,0,0
665,-594,0,0,0,0,0,0,0,0,0,-1,1889,1618,0,0
672,-594,0,0,0,0,0,0,0,0,0,-1,1896,1618,0,0
679,-594,0,0,0,0,0,0,0,0,0,-1,1903,1618,0,0
686,-594,0,0,0,0,0,0,0,0,0,-1,1910,1618,0,0
693,-594,0,0,0,0,0,0,0,0,0,-1,1917,1618,0,0
700,-594,0,0,0,0,0,0,0,0,0,-1,1924,1618,0,0
707,-594,0,0,0,0,0,0,0,0,0,-1,1931,1618,0,0
714,-594,0,0,0,0,0,0,0,0,0,-1,1938,1618,0,0
721,-594,0,0,0,0,0,0,0,0,0,-1,1945,1618,0,0
728,-594,0,0,0,0,0,0,0,0,0,-1,1952,1618,0,0
735,-594,0,0,0,0,0,0,0,0,0,-1,1959,1618,0,0
742,-594,0,0,0,0,0,0,0,0,0,-1,1966,1618,0,0
749,-594,0,0,0,0,0,0,0,0,0,-1,1973,1618,0,0
756,-594,0,0,0,0,0,0,0,0,0,-1,1980,1618,0,0
763,-594,0,0,0,0,0,0,0,0,0,-1,1987,1618,0,0
770,-594,0,0,0,0,0,0,0,0,0,-1,1994,1618,0,0
777,-594,0,0,0,0,0,0,0,0,0,-1,2001,1618,0,0
784,-594,0,0,0,0,0,0,0,0,0,-1,2008,1618,0,0
791,-594,0,0,0,0,0,0,0,0,0,-1,2015,1618,0,0
798,-594,0,0,0,0,0,0,0,0,0,-1,2022,1618,0,0
805,-594,0,0,0,0,0,0,0,0,0,-1,2029,1618,0,0
812,-594,0,0,0,0,0,0,0,0,0,-1,2036,1618,0,0
-700,-601,0,0,0,0,0,0,0,0,0,-1,524,1625,0,0
-693,-601,0,0,0,0,0,0,0,0,0,-1,531,1625,0,0
-686,-601,0,0,0,0,0,0,0,0,0,-1,538,1625,0,0
-679,-601,0,0,0,0,0,0,0,0,0,-1,545,1625,0,0
-672,-601,0,0,0,0,0,0,0,0,0,-1,552,1625,0,0
-665,-601,0,0,0,0,0,0,0,0,0,-1,559,1625,0,0
-658,-601,0,0,0,0,0,0,0,0,0,-1,566,1625,0,0
-651,-601,0,0,0,0,0,0,0,0,0,-1,573,1625,0,0
-644,-601,0,0,0,0,0,0,0,0,0,-1,580,1625,0,0
-637,-601,0,0,0,0,0,0,0,0,0,-1,587,1625,0,0
-630,-601,0,0,0,0,0,0,0,0,0,-1,594,1625,0,0
-623,-601,0,0,0,0,0,0,0,0,0,-1,601,1625,0,0
-616,-601,0,0,0,0,0,0,0,0,0,-1,608,1625,0,0
-609,-601,0,0,0,0,0,0,0,0,0,-1,615,1625,0,0
-602,-601,0,0,0,0,0,0,0,0,0,-1,622,1625,0,0
-595,-601,0,0,0,0,0,0,0,0,0,-1,629,1625,0,0
-588,-601,0,0,0,0,0,0,0,0,0,-1,636,1625,0,0
-581,-601,0,0,0,0,0,0,0,0,0,-1,643,1625,0,0
-574,-601,0,0,0,0,0,0,0,0,0,-1,650,1625,0,0
-567,-601,0,0,0,0,0,0,0,0,0,-1,657,1625,0,0
-560,-601,0,0,0,0,0,0,0,0,0,-1,664,1625,0,0
-553,-601,0,0,0,0,0,0,0,0,0,-1,671,1625,0,0
-546,-601,0,0,0,0,0,0,0,0,0,-1,678,1625,0,0
-539,-601,0,0,0,0,0,0,0,0,0,-1,685,1625,0,0
-532,-601,0,0,0,0,0,0,0,0,0,-1,692,1625,0,0
-525,-601,0,0,0,0,0,0,0,0,0,-1,699,1625,0,0
-518,-601,0,0,0,0,0,0,0,0,0,-1,706,1625,0,0
-511,-601,0,0,0,0,0,0,0,0,0,-1,713,1625,0,0
-504,-601,0,0,0,0,0,0,0,0,0,-1,720,1625,0,0
-497,-601,0,0,0,0,0,0,0,0,0,-1,727,1625,0,0
-490,-601,0,0,0,0,0,0,0,0,0,-1,734,1625,0,0
-483,-601,0,0,0,0,0,0,0,0,0,-1,741,1625,0,0
-476,-601,0,0,0,0,0,0,0,0,0,-1,748,1625,0,0
-469,-601,0,0,0,0,0,0,0,0,0,-1,755,1625,0,0
-462,-601,0,0,0,0,0,0,0,0,0,-1,762,1625,0,0
-455,-601,0,0,0,0,0,0,0,0,0,-1,769,1625,0,0
-448,-601,-7.07623,2.7616,0,0,0,0,0,0,0,-1,776,1625,-7.07626,-2.76161
-441,-601,-6.06689,3.33447,0,0,0,0,0,0,0,-1,783,1625,-6.06691,-3.33448
-434,-601,-5.02655,3.8468,0,0,0,0,0,0,0,-1,790,1625,-5.02657,-3.84674
-427,-601,-5.78601,4.2406,0,0,0,0,0,0,0,-1,797,1625,-5.786,-4.24058
-420,-601,-5.5191,5.60364,0,0,0,0,0,0,0,-1,804,1625,-5.51907,-5.60368
-413,-601,-4.30756,5.86047,0,0,0,0,0,0,0,-1,811,1625,-4.30757,-5.86046
-406,-601,-1.67493,7.20422,0,0,0,0,0,0,0,-1,818,1625,-1.67493,-7.20428
-399,-601,2.69836,11.5043,0,0,0,0,0,0,0,-1,825,1625,2.69836,-11.5043
-392,-601,2.6062,12.072,0,0,0,0,0,0,0,-1,832,1625,2.60619,-12.072
-385,-601,2.37756,12.725,-0.00150288,0.000955967,0.000307581,0.000993859,-0.00154077,1.44822,0.00147468,0.0449423,839,1625,2.37757,-12.7249
-378,-601,2.2323,13.0956,-0.00162128,2.84606e-05,0.000156052,4.30919e-05,-0.00163591,1.47731,0.00110525,0.0321221,846,1625,2.23229,-13.0955
-371,-601,2.24493,13.3253,-0.00139873,-0.00072914,2.59146e-05,-0.000728138,-0.00139973,1.53217,0.000808353,0.0151401,853,1625,2.24492,-13.3253
-364,-601,2.23547,13.6029,-0.00111892,-0.00137049,-2.1925e-06,-0.0011189,-0.00137051,-0.00871423,0.000842421,0.0105134,860,1625,2.23547,-13.6029
-357,-601,2.2229,13.908,-0.00067549,-0.00142891,8.44268e-05,-0.000666145,-0.00143826,0.110236,0.00083113,0.00979484,867,1625,2.2229,-13.9079
-350,-601,2.24127,14.2109,-0.000199827,-0.00117689,0.000193248,-0.000162994,-0.00121372,0.188341,0.000760661,0.0199513,874,1625,2.24128,-14.2109
-343,-601,2.20325,14.4993,0.000153227,-0.000771638,0.000307385,0.000246068,-0.00086448,0.293324,0.000673497,0.0224958,881,1625,2.20323,-14.4993
-336,-601,2.16583,14.7521,0.000453002,-0.000197218,0.000366794,0.000618029,-0.000362245,0.422786,0.000572348,0.0187139,888,1625,2.16585,-14.7521
-329,-601,2.19263,14.9943,0.000770827,0.000404714,0.000370829,0.00100132,0.00017422,0.556124,0.000617718,0.0147256,895,1625,2.19265,-14.9942
-322,-601,2.22003,15.2499,0.000943484,0.000826502,0.000269044,0.00116032,0.000609664,0.678362,0.000670201,0.0119627,902,1625,2.22005,-15.2498
-315,-601,2.22357,15.47,0.000982788,0.00108185,8.87936e-05,0.001134,0.000930646,1.03982,0.000698156,0.012789,909,1625,2.22359,-15.47
-308,-601,2.19073,15.7134,0.00101828,0.000860446,-0.00033359,0.00128216,0.000596565,-0.66925,0.00074085,0.011883,916,1625,2.19073,-15.7133
-301,-601,2.19208,15.9655,0.00120119,0.000229963,-0.000691631,0.00156066,-0.000129512,-0.479323,0.00108619,0.0101467,923,1625,2.1921,-15.9655
-294,-601,2.2041,16.205,0.00138717,-0.000938324,-0.0010373,0.00178262,-0.00133377,-0.36422,0.00180546,0.00991888,930,1625,2.20408,-16.2049
-287,-601,2.18567,16.4657,0.00152227,-0.00239075,-0.0015522,0.00206321,-0.00293169,-0.335337,0.0028983,0.0092457,937,1625,2.18565,-16.4657
-280,-601,2.19165,16.7191,0.00182616,-0.00430221,-0.00207155,0.0024607,-0.00493674,-0.297236,0.00434993,0.00979924,944,1625,2.19166,-16.7191
-273,-601,2.22107,16.9681,0.00217055,-0.00663032,-0.00262482,0.00289394,-0.00735371,-0.268918,0.00610038,0.010889,951,1625,2.22108,-16.9682
-266,-601,2.24548,17.1785,0.00275066,-0.00957215,-0.00307323,0.00347458,-0.0102961,-0.231339,0.00826925,0.0141546,958,1625,2.24549,-17.1785
-259,-601,2.27832,17.271,0.00348757,-0.0126642,-0.00351926,0.00422106,-0.0133977,-0.20548,0.0106222,0.0258581,965,1625,2.27831,-17.271
-252,-601,2.46173,17.2144,0.00439252,-0.0162412,-0.00385126,0.00508792,-0.0169366,-0.178639,0.0133151,0.0448828,972,1625,2.46171,-17.2144
-245,-601,2.60822,17.4604,0.00401532,-0.0209554,-0.00250209,0.00426357,-0.0212037,-0.0988909,0.0157505,0.045238,979,1625,2.60824,-17.4604
-238,-601,2.3089,17.9019,0,0,0,0,0,0,0,-1,986,1625,2.30891,-17.9018
-231,-601,2.66772,13.7051,0,0,0,0,0,0,0,-1,993,1625,2.6677,-13.7051
-224,-601,-0.0305176,9.13684,0,0,0,0,0,0,0,-1,1000,1625,-0.030498,-9.13681
-217,-601,3.39429,10.3898,0,0,0,0,0,0,0,-1,1007,1625,3.39431,-10.3898
-210,-601,-6.53699,15.7931,0,0,0,0,0,0,0,-1,1014,1625,-6.53697,-15.7931
-203,-601,2.69348,15.9099,0,0,0,0,0,0,0,-1,1021,1625,2.69351,-15.91
-196,-601,2.66992,16.1815,0,0,0,0,0,0,0,-1,1028,1625,2.66995,-16.1815
-189,-601,2.849,16.6105,0,0,0,0,0,0,0,-1,1035,1625,2.84902,-16.6104
-182,-601,1.82153,13.9752,0,0,0,0,0,0,0,-1,1042,1625,1.82155,-13.9752
-175,-601,0.544922,9.28687,0,0,0,0,0,0,0,-1,1049,1625,0.544879,-9.28685
-168,-601,-0.247559,8.97461,0,0,0,0,0,0,0,-1,1056,1625,-0.247598,-8.97466
-161,-601,-1.16833,8.80078,0,0,0,0,0,0,0,-1,1063,1625,-1.16837,-8.80081
-154,-601,1.12756,7.94861,0,0,0,0,0,0,0,-1,1070,1625,1.12762,-7.94855
-147,-601,1.35352,9.55432,0,0,0,0,0,0,0,-1,1077,1625,1.35351,-9.55429
-140,-601,1.72437,11.1498,0,0,0,0,0,0,0,-1,1084,1625,1.72432,-11.1498
-133,-601,2.13281,12.8347,0,0,0,0,0,0,0,-1,1091,1625,2.13287,-12.8348
-126,-601,3.09534,15.427,0,0,0,0,0,0,0,-1,1098,1625,3.0953,-15.4271
-119,-601,1.22485,9.43457,0,0,0,0,0,0,0,-1,1105,1625,1.22489,-9.43456
-112,-601,0,0,0,0,0,0,0,0,0,-1,1112,1625,0,0
-105,-601,0,0,0,0,0,0,0,0,0,-1,1119,1625,0,0
-98,-601,0,0,0,0,0,0,0,0,0,-1,1126,1625,0,0
-91,-601,0,0,0,0,0,0,0,0,0,-1,1133,1625,0,0
-84,-601,0,0,0,0,0,0,0,0,0,-1,1140,1625,0,0
-77,-601,0,0,0,0,0,0,0,0,0,-1,1147,1625,0,0
-70,-601,0,0,0,0,0,0,0,0,0,-1,1154,1625,0,0
-63,-601,0,0,0,0,0,0,0,0,0,-1,1161,1625,0,0
-56,-601,0,0,0,0,0,0,0,0,0,-1,1168,1625,0,0
-49,-601,0,0,0,0,0,0,0,0,0,-1,1175,1625,0,0
-42,-601,0,0,0,0,0,0,0,0,0,-1,1182,1625,0,0
-35,-601,0,0,0,0,0,0,0,0,0,-1,1189,1625,0,0
-28,-601,0,0,0,0,0,0,0,0,0,-1,1196,1625,0,0
-21,-601,0,0,0,0,0,0,0,0,0,-1,1203,1625,0,0
-14,-601,0,0,0,0,0,0,0,0,0,-1,1210,1625,0,0
-7,-601,0,0,0,0,0,0,0,0,0,-1,1217,1625,0,0
0,-601,0,0,0,0,0,0,0,0,0,-1,1224,1625,0,0
7,-601,0,0,0,0,0,0,0,0,0,-1,1231,1625,0,0
14,-601,0,0,0,0,0,0,0,0,0,-1,1238,1625,0,0
21,-601,0,0,0,0,0,0,0,0,0,-1,1245,1625,0,0
28,-601,0,0,0,0,0,0,0,0,0,-1,1252,1625,0,0
35,-601,0,0,0,0,0,0,0,0,0,-1,1259,1625,0,0
42,-601,0,0,0,0,0,0,0,0,0,-1,1266,1625,0,0
49,-601,0,0,0,0,0,0,0,0,0,-1,1273,1625,0,0
56,-601,0,0,0,0,0,0,0,0,0,-1,1280,1625,0,0
63,-601,0,0,0,0,0,0,0,0,0,-1,1287,1625,0,0
70,-601,0,0,0,0,0,0,0,0,0,-1,1294,1625,0,0
77,-601,0,0,0,0,0,0,0,0,0,-1,1301,1625,0,0
84,-601,0,0,0,0,0,0,0,0,0,-1,1308,1625,0,0
91,-601,0,0,0,0,0,0,0,0,0,-1,1315,1625,0,0
98,-601,0,0,0,0,0,0,0,0,0,-1,1322,1625,0,0
105,-601,0,0,0,0,0,0,0,0,0,-1,1329,1625,0,0
112,-601,0,0,0,0,0,0,0,0,0,-1,1336,1625,0,0
119,-601,0,0,0,0,0,0,0,0,0,-1,1343,1625,0,0
126,-601,0,0,0,0,0,0,0,0,0,-1,1350,1625,0,0
133,-601,0,0,0,0,0,0,0,0,0,-1,1357,1625,0,0
140,-601,0,0,0,0,0,0,0,0,0,-1,1364,1625,0,0
147,-601,0,0,0,0,0,0,0,0,0,-1,1371,1625,0,0
154,-601,0,0,0,0,0,0,0,0,0,-1,1378,1625,0,0
161,-601,0,0,0,0,0,0,0,0,0,-1,1385,1625,0,0
168,-601,0,0,0,0,0,0,0,0,0,-1,1392,1625,0,0
175,-601,0,0,0,0,0,0,0,0,0,-1,1399,1625,0,0
182,-601,0,0,0,0,0,0,0,0,0,-1,1406,1625,0,0
189,-601,0,0,0,0,0,0,0,0,0,-1,1413,1625,0,0
196,-601,0,0,0,0,0,0,0,0,0,-1,1420,1625,0,0
203,-601,0,0,0,0,0,0,0,0,0,-1,1427,1625,0,0
210,-601,0,0,0,0,0,0,0,0,0,-1,1434,1625,0,0
217,-601,0,0,0,0,0,0,0,0,0,-1,1441,1625,0,0
224,-601,0,0,0,0,0,0,0,0,0,-1,1448,1625,0,0
231,-601,-0.0371094,0.525879,0,0,0,0,0,0,0,-1,1455,1625,-0.0371518,-0.525824
238,-601,2.03369,-1.32861,0,0,0,0,0,0,0,-1,1462,1625,2.03364,1.32858
245,-601,2.71375,2.44983,0,0,0,0,0,0,0,-1,1469,1625,2.71371,-2.44979
252,-601,4.66943,2.28381,0,0,0,0,0,0,0,-1,1476,1625,4.66947,-2.28376
259,-601,6.42712,2.61987,0,0,0,0,0,0,0,-1,1483,1625,6.42711,-2.61985
266,-601,6.75317,1.68701,0,0,0,0,0,0,0,-1,1490,1625,6.75323,-1.687
273,-601,5.4314,2.92053,0,0,0,0,0,0,0,-1,1497,1625,5.43144,-2.92051
280,-601,4.64722,1.17786,0,0,0,0,0,0,0,-1,1504,1625,4.64722,-1.1779
287,-601,5.32532,2.6217,0,0,0,0,0,0,0,-1,1511,1625,5.32535,-2.62171
294,-601,5.97693,4.22693,0,0,0,0,0,0,0,-1,1518,1625,5.97697,-4.22694
301,-601,7.28162,9.50024,0,0,0,0,0,0,0,-1,1525,1625,7.28162,-9.50025
308,-601,6.53528,10.3927,0,0,0,0,0,0,0,-1,1532,1625,6.53529,-10.3927
315,-601,4.88013,11.7184,0,0,0,0,0,0,0,-1,1539,1625,4.88015,-11.7184
322,-601,3.38098,12.7864,0,0,0,0,0,0,0,-1,1546,1625,3.38104,-12.7864
329,-601,1.8772,13.8768,0,0,0,0,0,0,0,-1,1553,1625,1.87716,-13.8768
336,-601,4.67847,9.53308,0,0,0,0,0,0,0,-1,1560,1625,4.67848,-9.53309
343,-601,11.1404,3.14575,0,0,0,0,0,0,0,-1,1567,1625,11.1404,-3.1458
350,-601,10.9462,2.37769,0,0,0,0,0,0,0,-1,1574,1625,10.9461,-2.37764
357,-601,10.7518,1.6095,0,0,0,0,0,0,0,-1,1581,1625,10.7518,-1.60948
364,-601,5.33643,9.74426,0,0,0,0,0,0,0,-1,1588,1625,5.33637,-9.74429
371,-601,8.46387,16.2725,0,0,0,0,0,0,0,-1,1595,1625,8.46385,-16.2725
378,-601,8.78125,18.6248,0,0,0,0,0,0,0,-1,1602,1625,8.78131,-18.6248
385,-601,8.82446,18.4005,-0.00200036,-0.00560474,0.00793982,0.00433923,-0.0119443,0.673798,0.0097371,0.0468483,1609,1625,8.82448,-18.4005
392,-601,8.71973,18.1477,-0.00197767,-0.00612053,0.00787419,0.004093,-0.0121912,0.656779,0.00978153,0.0435183,1616,1625,8.71976,-18.1477
399,-601,8.40698,17.9691,-0.00180864,-0.00626435,0.00748098,0.00376917,-0.0118422,0.640678,0.00940634,0.021047,1623,1625,8.40697,-17.9691
406,-601,8.48169,17.7405,-0.00182398,-0.0058611,0.00686448,0.00331257,-0.0109977,0.6424,0.00865004,0.0144514,1630,1625,8.48173,-17.7404
413,-601,8.50464,17.5453,-0.00177149,-0.00547413,0.00622487,0.00287152,-0.0101171,0.64086,0.00787835,0.012801,1637,1625,8.50468,-17.5452
420,-601,8.46936,17.3856,-0.00162884,-0.00480873,0.00545635,0.0024645,-0.00890207,0.643627,0.00690442,0.0096714,1644,1625,8.46939,-17.3857
427,-601,8.48865,17.1864,-0.00144216,-0.00423308,0.00465948,0.00202634,-0.00770158,0.639905,0.00592645,0.0138389,1651,1625,8.48863,-17.1865
434,-601,8.49121,16.9351,-0.00119482,-0.00361731,0.00380507,0.00158714,-0.00639927,0.631307,0.004882,0.0147875,1658,1625,8.49122,-16.9351
441,-601,8.50598,16.6873,-0.000809624,-0.00303192,0.00288069,0.00116679,-0.00500833,0.601329,0.00378819,0.0165568,1665,1625,8.50593,-16.6872
448,-601,8.51514,16.4762,-0.000259445,-0.00241547,0.00183088,0.000787216,-0.00346213,0.519329,0.00261037,0.0139996,1672,1625,8.5151,-16.4762
455,-601,8.49207,16.2216,0.000168933,-0.0018129,0.000889616,0.000509682,-0.00215364,0.365792,0.0016324,0.0116828,1679,1625,8.49204,-16.2216
462,-601,8.47754,15.9814,0.000628056,-0.00116748,-0.000199315,0.000649914,-0.00118934,-0.109234,0.00107701,0.00996974,1686,1625,8.47748,-15.9814
469,-601,8.48218,15.7709,0.00137595,-0.000510379,-0.00140387,0.00212406,-0.00125849,-0.489612,0.00197411,0.0104484,1693,1625,8.4822,-15.7708
476,-601,8.47534,15.5469,0.00231201,0.000284871,-0.00263969,0.00412603,-0.00152915,-0.602091,0.00337782,0.013213,1700,1625,8.47538,-15.5469
483,-601,8.46838,15.3032,0.00344762,0.000968956,-0.00376291,0.00617004,-0.00175346,-0.626315,0.00480569,0.01636,1707,1625,8.46834,-15.3032
490,-601,8.46106,15.0491,0.00493725,0.00151114,-0.00507528,0.00858078,-0.00213239,-0.622637,0.0065481,0.0124493,1714,1625,8.46108,-15.049
497,-601,8.47156,14.7914,0.00658826,0.00216623,-0.0063984,0.0111469,-0.0023924,-0.619042,0.00834385,0.00966122,1721,1625,8.47161,-14.7913
504,-601,8.48486,14.5226,0.00843327,0.0026408,-0.00756962,0.0136418,-0.00256774,-0.602684,0.0100603,0.0142707,1728,1625,8.48483,-14.5226
511,-601,8.40674,14.266,0.0106543,0.00303496,-0.00870192,0.0163439,-0.00265468,-0.579069,0.0118801,0.0244625,1735,1625,8.40673,-14.2659
518,-601,8.37317,13.8793,0.0135007,0.00307273,-0.00978566,0.0193748,-0.00280133,-0.54062,0.0139444,0.0367288,1742,1625,8.37318,-13.8793
525,-601,8.54614,13.5753,0.0172157,0.00269653,-0.0108782,0.0230343,-0.00312201,-0.49116,0.0164956,0.0482613,1749,1625,8.54612,-13.5753
532,-601,8.62769,13.6478,0,0,0,0,0,0,0,-1,1756,1625,8.62774,-13.6478
539,-601,7.77112,11.4299,0,0,0,0,0,0,0,-1,1763,1625,7.77116,-11.4299
546,-601,6.56873,3.62354,0,0,0,0,0,0,0,-1,1770,1625,6.56867,-3.62352
553,-601,7.03015,4.25049,0,0,0,0,0,0,0,-1,1777,1625,7.03011,-4.25048
560,-601,7.50745,4.83374,0,0,0,0,0,0,0,-1,1784,1625,7.50744,-4.83376
567,-601,7.82043,3.83301,0,0,0,0,0,0,0,-1,1791,1625,7.82041,-3.83303
574,-601,0,0,0,0,0,0,0,0,0,-1,1798,1625,0,0
581,-601,0,0,0,0,0,0,0,0,0,-1,1805,1625,0,0
588,-601,0,0,0,0,0,0,0,0,0,-1,1812,1625,0,0
595,-601,0,0,0,0,0,0,0,0,0,-1,1819,1625,0,0
602,-601,0,0,0,0,0,0,0,0,0,-1,1826,1625,0,0
609,-601,0,0,0,0,0,0,0,0,0,-1,1833,1625,0,0
616,-601,0,0,0,0,0,0,0,0,0,-1,1840,1625,0,0
623,-601,0,0,0,0,0,0,0,0,0,-1,1847,1625,0,0
630,-601,0,0,0,0,0,0,0,0,0,-1,1854,1625,0,0
637,-601,0,0,0,0,0,0,0,0,0,-1,1861,1625,0,0
644,-601,0,0,0,0,0,0,0,0,0,-1,1868,1625,0,0
651,-601,0,0,0,0,0,0,0,0,0,-1,1875,1625,0,0
658,-601,0,0,0,0,0,0,0,0,0,-1,1882,1625,0,0
665,-601,0,0,0,0,0,0,0,0,0,-1,1889,1625,0,0
672,-601,0,0,0,0,0,0,0,0,0,-1,1896,1625,0,0
679,-601,0,0,0,0,0,0,0,0,0,-1,1903,1625,0,0
686,-601,0,0,0,0,0,0,0,0,0,-1,1910,1625,0,0
693,-601,0,0,0,0,0,0,0,0,0,-1,1917,1625,0,0
700,-601,0,0,0,0,0,0,0,0,0,-1,1924,1625,0,0
707,-601,0,0,0,0,0,0,0,0,0,-1,1931,1625,0,0
714,-601,0,0,0,0,0,0,0,0,0,-1,1938,1625,0,0
721,-601,0,0,0,0,0,0,0,0,0,-1,1945,1625,0,0
728,-601,0,0,0,0,0,0,0,0,0,-1,1952,1625,0,0
735,-601,0,0,0,0,0,0,0,0,0,-1,1959,1625,0,0
742,-601,0,0,0,0,0,0,0,0,0,-1,1966,1625,0,0
749,-601,0,0,0,0,0,0,0,0,0,-1,1973,1625,0,0
756,-601,0,0,0,0,0,0,0,0,0,-1,1980,1625,0,0
763,-601,0,0,0,0,0,0,0,0,0,-1,1987,1625,0,0
770,-601,0,0,0,0,0,0,0,0,0,-1,1994,1625,0,0
777,-601,0,0,0,0,0,0,0,0,0,-1,2001,1625,0,0
784,-601,0,0,0,0,0,0,0,0,0,-1,2008,1625,0,0
791,-601,0,0,0,0,0,0,0,0,0,-1,2015,1625,0,0
798,-601,0,0,0,0,0,0,0,0,0,-1,2022,1625,0,0
805,-601,0,0,0,0,0,0,0,0,0,-1,2029,1625,0,0
812,-601,0,0,0,0,0,0,0,0,0,-1,2036,1625,0,0
-700,-608,0,0,0,0,0,0,0,0,0,-1,524,1632,0,0
-693,-608,0,0,0,0,0,0,0,0,0,-1,531,1632,0,0
-686,-608,0,0,0,0,0,0,0,0,0,-1,538,1632,0,0
-679,-608,0,0,0,0,0,0,0,0,0,-1,545,1632,0,0
-672,-608,0,0,0,0,0,0,0,0,0,-1,552,1632,0,0
-665,-608,0,0,0,0,0,0,0,0,0,-1,559,1632,0,0
-658,-608,0,0,0,0,0,0,0,0,0,-1,566,1632,0,0
-651,-608,0,0,0,0,0,0,0,0,0,-1,573,1632,0,0
-644,-608,0,0,0,0,0,0,0,0,0,-1,580,1632,0,0
-637,-608,0,0,0,0,0,0,0,0,0,-1,587,1632,0,0
-630,-608,0,0,0,0,0,0,0,0,0,-1,594,1632,0,0
-623,-608,0,0,0,0,0,0,0,0,0,-1,601,1632,0,0
-616,-608,0,0,0,0,0,0,0,0,0,-1,608,1632,0,0
-609,-608,0,0,0,0,0,0,0,0,0,-1,615,1632,0,0
-602,-608,0,0,0,0,0,0,0,0,0,-1,622,1632,0,0
-595,-608,0,0,0,0,0,0,0,0,0,-1,629,1632,0,0
-588,-608,0,0,0,0,0,0,0,0,0,-1,636,1632,0,0
-581,-608,0,0,0,0,0,0,0,0,0,-1,643,1632,0,0
-574,-608,0,0,0,0,0,0,0,0,0,-1,650,1632,0,0
-567,-608,0,0,0,0,0,0,0,0,0,-1,657,1632,0,0
-560,-608,0,0,0,0,0,0,0,0,0,-1,664,1632,0,0
-553,-608,0,0,0,0,0,0,0,0,0,-1,671,1632,0,0
-546,-608,0,0,0,0,0,0,0,0,0,-1,678,1632,0,0
-539,-608,0,0,0,0,0,0,0,0,0,-1,685,1632,0,0
-532,-608,0,0,0,0,0,0,0,0,0,-1,692,1632,0,0
-525,-608,0,0,0,0,0,0,0,0,0,-1,699,1632,0,0
-518,-608,0,0,0,0,0,0,0,0,0,-1,706,1632,0,0
-511,-608,0,0,0,0,0,0,0,0,0,-1,713,1632,0,0
-504,-608,0,0,0,0,0,0,0,0,0,-1,720,1632,0,0
-497,-608,0,0,0,0,0,0,0,0,0,-1,727,1632,0,0
-490,-608,0,0,0,0,0,0,0,0,0,-1,734,1632,0,0
-483,-608,0,0,0,0,0,0,0,0,0,-1,741,1632,0,0
-476,-608,0,0,0,0,0,0,0,0,0,-1,748,1632,0,0
-469,-608,0,0,0,0,0,0,0,0,0,-1,755,1632,0,0
-462,-608,0,0,0,0,0,0,0,0,0,-1,762,1632,0,0
-455,-608,0,0,0,0,0,0,0,0,0,-1,769,1632,0,0
-448,-608,0,0,0,0,0,0,0,0,0,-1,776,1632,0,0
-441,-608,-7.34601,2.78052,0,0,0,0,0,0,0,-1,783,1632,-7.346,-2.78056
-434,-608,-6.34558,3.27405,0,0,0,0,0,0,0,-1,790,1632,-6.34555,-3.27406
-427,-608,-7.74335,4.17688,0,0,0,0,0,0,0,-1,797,1632,-7.74334,-4.17693
-420,-608,-6.82794,4.34839,0,0,0,0,0,0,0,-1,804,1632,-6.82794,-4.34838
-413,-608,-5.41919,5.66138,0,0,0,0,0,0,0,-1,811,1632,-5.41917,-5.66133
-406,-608,-4.79681,4.98999,0,0,0,0,0,0,0,-1,818,1632,-4.79684,-4.98997
-399,-608,-2.60645,6.34167,0,0,0,0,0,0,0,-1,825,1632,-2.60643,-6.34169
-392,-608,2.99792,11.928,0,0,0,0,0,0,0,-1,832,1632,2.99792,-11.928
-385,-608,2.75757,12.6669,0,0,0,0,0,0,0,-1,839,1632,2.75759,-12.6669
-378,-608,2.51807,13.1609,0,0,0,0,0,0,0,-1,846,1632,2.51809,-13.1609
-371,-608,2.41528,13.4009,-0.000925351,-0.00152981,-0.000365661,-0.000753186,-0.00170198,-0.440042,0.000984799,0.0411986,853,1632,2.41526,-13.4008
-364,-608,2.50171,13.5199,-0.000334074,-0.00207074,-0.000378363,-0.000255221,-0.00214959,-0.205464,0.00135602,0.0177279,860,1632,2.5017,-13.5199
-357,-608,2.4696,13.8398,0.000241011,-0.00198271,-0.000265127,0.000272184,-0.00201389,-0.117041,0.00144191,0.014292,867,1632,2.46963,-13.8399
-350,-608,2.48602,14.1566,0.000757619,-0.00166589,-0.000116777,0.000763233,-0.0016715,-0.0480366,0.00143793,0.018458,874,1632,2.48602,-14.1566
-343,-608,2.47205,14.4425,0.00111502,-0.00117712,4.67681e-05,0.00111598,-0.00117808,0.0203923,0.00132464,0.0237387,881,1632,2.47203,-14.4425
-336,-608,2.4718,14.7415,0.00137601,-0.000535459,0.000152649,0.00138812,-0.000547573,0.0791905,0.00115216,0.015984,888,1632,2.4718,-14.7414
-329,-608,2.43842,14.9922,0.00161609,7.06963e-05,0.000207301,0.00164341,4.33717e-05,0.131056,0.00108144,0.0142324,895,1632,2.43844,-14.9922
-322,-608,2.42743,15.2263,0.00166332,0.000533139,0.000169991,0.00168833,0.000508124,0.146105,0.00100017,0.0148386,902,1632,2.4274,-15.2263
-315,-608,2.47717,15.4636,0.00155358,0.000777591,6.52661e-05,0.00155903,0.00077214,0.0833271,0.000900119,0.0137933,909,1632,2.47718,-15.4636
-308,-608,2.45282,15.7267,0.00142891,0.000577555,-0.000249091,0.00149643,0.000510031,-0.264719,0.000878437,0.0137539,916,1632,2.45281,-15.7266
-301,-608,2.44287,15.9783,0.00145272,1.07564e-05,-0.000503246,0.00161098,-0.000147507,-0.304692,0.00112638,0.0111239,923,1632,2.44288,-15.9783
-294,-608,2.45728,16.2106,0.00148296,-0.000994858,-0.000752773,0.00169373,-0.00120563,-0.272998,0.00168183,0.0107592,930,1632,2.45726,-16.2106
-287,-608,2.43329,16.4628,0.00147287,-0.00221474,-0.00113702,0.00179526,-0.00253713,-0.276293,0.0025135,0.00989531,937,1632,2.4333,-16.4627
-280,-608,2.44263,16.701,0.00164002,-0.00376777,-0.00151617,0.0020361,-0.00416385,-0.255523,0.00364913,0.00831337,944,1632,2.4426,-16.7011
-273,-608,2.44843,16.947,0.00192272,-0.0055948,-0.00192497,0.00238697,-0.00605905,-0.236651,0.00502759,0.00902899,951,1632,2.44842,-16.947
-266,-608,2.46576,17.1877,0.00241736,-0.00776582,-0.00223923,0.00288801,-0.00823647,-0.207166,0.00666557,0.00867955,958,1632,2.46574,-17.1877
-259,-608,2.49353,17.3662,0.00306709,-0.00992911,-0.00253382,0.00354363,-0.0104056,-0.185898,0.00837214,0.0110055,965,1632,2.4935,-17.3662
-252,-608,2.51581,17.5775,0.00384069,-0.0122229,-0.00269915,0.00428209,-0.0126643,-0.1621,0.0101751,0.0234885,972,1632,2.51583,-17.5775
-245,-608,2.59113,17.8656,0.00350788,-0.0152424,-0.00145473,0.00362007,-0.0153546,-0.0769705,0.0116324,0.0346429,979,1632,2.59114,-17.8655
-238,-608,2.53711,17.986,0.00210627,-0.0174427,0.000339663,0.00211217,-0.0174486,0.017368,0.0123966,0.0470598,986,1632,2.5371,-17.986
-231,-608,2.58203,18.2126,0,0,0,0,0,0,0,-1,993,1632,2.58204,-18.2127
-224,-608,2.51642,15.3452,0,0,0,0,0,0,0,-1,1000,1632,2.5164,-15.3452
-217,-608,1.04419,12.8451,0,0,0,0,0,0,0,-1,1007,1632,1.04418,-12.8451
-210,-608,2.75903,15.9414,0,0,0,0,0,0,0,-1,1014,1632,2.75903,-15.9414
-203,-608,2.76776,16.217,0,0,0,0,0,0,0,-1,1021,1632,2.76773,-16.217
-196,-608,3.70288,18.3846,0,0,0,0,0,0,0,-1,1028,1632,3.7029,-18.3846
-189,-608,3.50232,19.1718,0,0,0,0,0,0,0,-1,1035,1632,3.5023,-19.1718
-182,-608,2.89221,16.7092,0,0,0,0,0,0,0,-1,1042,1632,2.89224,-16.7093
-175,-608,0.219116,15.1643,0,0,0,0,0,0,0,-1,1049,1632,0.219173,-15.1644
-168,-608,0.000366211,9.48645,0,0,0,0,0,0,0,-1,1056,1632,0.000317105,-9.48648
-161,-608,2.27832,15.4423,0,0,0,0,0,0,0,-1,1063,1632,2.27826,-15.4423
-154,-608,1.3999,16.4037,0,0,0,0,0,0,0,-1,1070,1632,1.39987,-16.4037
-147,-608,2.4386,9.50317,0,0,0,0,0,0,0,-1,1077,1632,2.43858,-9.50313
-140,-608,2.60132,10.8401,0,0,0,0,0,0,0,-1,1084,1632,2.60134,-10.8401
-133,-608,3.2312,12.4738,0,0,0,0,0,0,0,-1,1091,1632,3.23116,-12.4738
-126,-608,3.76465,13.9644,0,0,0,0,0,0,0,-1,1098,1632,3.76466,-13.9644
-119,-608,4.28906,15.4196,0,0,0,0,0,0,0,-1,1105,1632,4.28911,-15.4195
-112,-608,0.745117,10.5587,0,0,0,0,0,0,0,-1,1112,1632,0.745145,-10.5587
-105,-608,-0.252319,1.42419,0,0,0,0,0,0,0,-1,1119,1632,-0.252331,-1.42418
-98,-608,-2.8595,3.0863,0,0,0,0,0,0,0,-1,1126,1632,-2.85948,-3.08625
-91,-608,-3.71948,1.73608,0,0,0,0,0,0,0,-1,1133,1632,-3.7195,-1.73607
-84,-608,0,0,0,0,0,0,0,0,0,-1,1140,1632,0,0
-77,-608,0,0,0,0,0,0,0,0,0,-1,1147,1632,0,0
-70,-608,0,0,0,0,0,0,0,0,0,-1,1154,1632,0,0
-63,-608,0,0,0,0,0,0,0,0,0,-1,1161,1632,0,0
-56,-608,0,0,0,0,0,0,0,0,0,-1,1168,1632,0,0
-49,-608,0,0,0,0,0,0,0,0,0,-1,1175,1632,0,0
-42,-608,0,0,0,0,0,0,0,0,0,-1,1182,1632,0,0
-35,-608,0,0,0,0,0,0,0,0,0,-1,1189,1632,0,0
-28,-608,0,0,0,0,0,0,0,0,0,-1,1196,1632,0,0
-21,-608,0,0,0,0,0,0,0,0,0,-1,1203,1632,0,0
-14,-608,0,0,0,0,0,0,0,0,0,-1,1210,1632,0,0
-7,-608,0,0,0,0,0,0,0,0,0,-1,1217,1632,0,0
0,-608,0,0,0,0,0,0,0,0,0,-1,1224,1632,0,0
7,-608,0,0,0,0,0,0,0,0,0,-1,1231,1632,0,0
14,-608,0,0,0,0,0,0,0,0,0,-1,1238,1632,0,0
21,-608,0,0,0,0,0,0,0,0,0,-1,1245,1632,0,0
28,-608,0,0,0,0,0,0,0,0,0,-1,1252,1632,0,0
35,-608,0,0,0,0,0,0,0,0,0,-1,1259,1632,0,0
42,-608,0,0,0,0,0,0,0,0,0,-1,1266,1632,0,0
49,-608,0,0,0,0,0,0,0,0,0,-1,1273,1632,0,0
56,-608,0,0,0,0,0,0,0,0,0,-1,1280,1632,0,0
63,-608,0,0,0,0,0,0,0,0,0,-1,1287,1632,0,0
70,-608,0,0,0,0,0,0,0,0,0,-1,1294,1632,0,0
77,-608,0,0,0,0,0,0,0,0,0,-1,1301,1632,0,0
84,-608,0,0,0,0,0,0,0,0,0,-1,1308,1632,0,0
91,-608,0,0,0,0,0,0,0,0,0,-1,1315,1632,0,0
98,-608,0,0,0,0,0,0,0,0,0,-1,1322,1632,0,0
105,-608,0,0,0,0,0,0,0,0,0,-1,1329,1632,0,0
112,-608,0,0,0,0,0,0,0,0,0,-1,1336,1632,0,0
119,-608,0,0,0,0,0,0,0,0,0,-1,1343,1632,0,0
126,-608,0,0,0,0,0,0,0,0,0,-1,1350,1632,0,0
133,-608,0,0,0,0,0,0,0,0,0,-1,1357,1632,0,0
140,-608,0,0,0,0,0,0,0,0,0,-1,1364,1632,0,0
147,-608,0,0,0,0,0,0,0,0,0,-1,1371,1632,0,0
154,-608,0,0,0,0,0,0,0,0,0,-1,1378,1632,0,0
161,-608,0,0,0,0,0,0,0,0,0,-1,1385,1632,0,0
168,-608,0,0,0,0,0,0,0,0,0,-1,1392,1632,0,0
175,-608,0,0,0,0,0,0,0,0,0,-1,1399,1632,0,0
182,-608,0,0,0,0,0,0,0,0,0,-1,1406,1632,0,0
189,-608,0,0,0,0,0,0,0,0,0,-1,1413,1632,0,0
196,-608,0,0,0,0,0,0,0,0,0,-1,1420,1632,0,0
203,-608,0,0,0,0,0,0,0,0,0,-1,1427,1632,0,0
210,-608,5.7157,-0.333008,0,0,0,0,0,0,0,-1,1434,1632,5.71566,0.333004
217,-608,4.49402,-0.831787,0,0,0,0,0,0,0,-1,1441,1632,4.49396,0.831738
224,-608,4.18018,-1.11792,0,0,0,0,0,0,0,-1,1448,1632,4.1802,1.11796
231,-608,0.361816,0.825195,0,0,0,0,0,0,0,-1,1455,1632,0.36185,-0.825226
238,-608,2.85388,-0.28833,0,0,0,0,0,0,0,-1,1462,1632,2.85391,0.288282
245,-608,3.87537,4.02173,0,0,0,0,0,0,0,-1,1469,1632,3.87538,-4.02168
252,-608,5.66956,3.5282,0,0,0,0,0,0,0,-1,1476,1632,5.6696,-3.52815
259,-608,7.47437,3.07178,0,0,0,0,0,0,0,-1,1483,1632,7.4744,-3.07172
266,-608,9.46936,2.34766,0,0,0,0,0,0,0,-1,1490,1632,9.46932,-2.34764
273,-608,6.03003,3.34241,0,0,0,0,0,0,0,-1,1497,1632,6.02997,-3.34245
280,-608,5.72461,2.0769,0,0,0,0,0,0,0,-1,1504,1632,5.72457,-2.07688
287,-608,6.20581,3.59338,0,0,0,0,0,0,0,-1,1511,1632,6.20585,-3.59341
294,-608,6.94922,5.17151,0,0,0,0,0,0,0,-1,1518,1632,6.94925,-5.17151
301,-608,7.60083,6.68018,0,0,0,0,0,0,0,-1,1525,1632,7.60086,-6.68013
308,-608,7.64746,9.93848,0,0,0,0,0,0,0,-1,1532,1632,7.64745,-9.93842
315,-608,5.30688,11.2054,0,0,0,0,0,0,0,-1,1539,1632,5.30694,-11.2054
322,-608,5.32617,13.7581,0,0,0,0,0,0,0,-1,1546,1632,5.32613,-13.758
329,-608,7.12231,13.9607,0,0,0,0,0,0,0,-1,1553,1632,7.12231,-13.9607
336,-608,5.48633,7.82446,0,0,0,0,0,0,0,-1,1560,1632,5.48634,-7.82446
343,-608,5.47192,5.61047,0,0,0,0,0,0,0,-1,1567,1632,5.47192,-5.61045
350,-608,11.6957,1.71387,0,0,0,0,0,0,0,-1,1574,1632,11.6957,-1.71388
357,-608,3.77002,5.10046,0,0,0,0,0,0,0,-1,1581,1632,3.77002,-5.10043
364,-608,5.6925,11.2163,0,0,0,0,0,0,0,-1,1588,1632,5.69255,-11.2163
371,-608,8.20435,19.1405,0,0,0,0,0,0,0,-1,1595,1632,8.20432,-19.1405
378,-608,8.42041,18.5894,-0.000868877,-0.00192851,0.00539498,0.00402224,-0.00681963,0.736452,0.00632862,0.0379778,1602,1632,8.42041,-18.5894
385,-608,8.37292,18.4143,-0.00130048,-0.00324967,0.0056653,0.00347345,-0.0080236,0.700217,0.0068089,0.0321262,1609,1632,8.37297,-18.4143
392,-608,8.224,18.2616,-0.00139083,-0.00379158,0.00567511,0.00320946,-0.00839188,0.681176,0.00691721,0.0226548,1616,1632,8.22403,-18.2616
399,-608,8.21765,18.0238,-0.00125703,-0.00398615,0.0054037,0.00295174,-0.00819492,0.661722,0.00666862,0.0109417,1623,1632,8.21768,-18.0238
406,-608,8.24084,17.7993,-0.00112491,-0.00386247,0.0049381,0.00263061,-0.00761799,0.650199,0.00614614,0.00931541,1630,1632,8.24082,-17.7993
413,-608,8.22375,17.5897,-0.00096447,-0.00373428,0.00446435,0.00232484,-0.0070236,0.634997,0.00561999,0.00956682,1637,1632,8.22378,-17.5897
420,-608,8.18726,17.3931,-0.000725451,-0.00335265,0.00385685,0.00203536,-0.00611346,0.621265,0.00489717,0.0163148,1644,1632,8.18722,-17.393
427,-608,8.23975,17.1581,-0.000452255,-0.00304658,0.00322756,0.00172905,-0.00522789,0.594326,0.00418249,0.0185612,1651,1632,8.23979,-17.1581
434,-608,8.26147,16.8988,-0.000151875,-0.00268969,0.0025317,0.00141112,-0.00425268,0.553092,0.00340441,0.014756,1658,1632,8.26147,-16.8988
441,-608,8.24768,16.7,0.000334647,-0.0022764,0.00166029,0.00114122,-0.00308298,0.452225,0.00252327,0.0132268,1665,1632,8.24774,-16.7
448,-608,8.27222,16.4926,0.000994116,-0.00182659,0.000574964,0.00110681,-0.00193929,0.193552,0.00178042,0.0147358,1672,1632,8.27222,-16.4925
455,-608,8.28369,16.24,0.00148353,-0.00139806,-0.000370038,0.00153029,-0.00144482,-0.125698,0.00171792,0.0110069,1679,1632,8.28368,-16.24
462,-608,8.26257,16.0085,0.00200585,-0.000889571,-0.00148884,0.00263479,-0.00151852,-0.399701,0.00242661,0.00984378,1686,1632,8.26254,-16.0086
469,-608,8.23694,15.7843,0.00282026,-0.000314345,-0.00277723,0.00444192,-0.001936,-0.528505,0.00377585,0.00830031,1693,1632,8.2369,-15.7843
476,-608,8.23523,15.5525,0.00386032,0.000442979,-0.00415839,0.00664739,-0.0023441,-0.590465,0.00538577,0.00897044,1700,1632,8.23519,-15.5525
483,-608,8.23914,15.3118,0.00513644,0.00118017,-0.00552271,0.00902459,-0.00270798,-0.613426,0.0070935,0.00876715,1707,1632,8.2391,-15.3118
490,-608,8.24939,15.0538,0.00679619,0.00184717,-0.00718053,0.0119166,-0.00327326,-0.619464,0.00923102,0.00872916,1714,1632,8.24938,-15.0538
497,-608,8.25537,14.7888,0.00867783,0.0027638,-0.00886457,0.0150656,-0.00362394,-0.624413,0.0114446,0.015026,1721,1632,8.2554,-14.7888
504,-608,8.2135,14.5332,0.0108981,0.00345901,-0.0104241,0.0182464,-0.0038893,-0.614029,0.0136467,0.0328401,1728,1632,8.2135,-14.5331
511,-608,8.08398,14.1693,0.0136383,0.00419483,-0.0120154,0.0218264,-0.00399333,-0.598182,0.0160485,0.0449031,1735,1632,8.08398,-14.1693
518,-608,8.11597,13.7073,0,0,0,0,0,0,0,-1,1742,1632,8.11592,-13.7073
525,-608,8.30396,13.4504,0,0,0,0,0,0,0,-1,1749,1632,8.304,-13.4505
532,-608,8.27917,11.6693,0,0,0,0,0,0,0,-1,1756,1632,8.27919,-11.6694
539,-608,9.40796,1.43457,0,0,0,0,0,0,0,-1,1763,1632,9.40801,-1.43463
546,-608,9.94031,2.1134,0,0,0,0,0,0,0,-1,1770,1632,9.94031,-2.11346
553,-608,10.363,2.81335,0,0,0,0,0,0,0,-1,1777,1632,10.3631,-2.81333
560,-608,9.23999,4.5636,0,0,0,0,0,0,0,-1,1784,1632,9.24,-4.56354
567,-608,0,0,0,0,0,0,0,0,0,-1,1791,1632,0,0
574,-608,0,0,0,0,0,0,0,0,0,-1,1798,1632,0,0
581,-608,0,0,0,0,0,0,0,0,0,-1,1805,1632,0,0
588,-608,0,0,0,0,0,0,0,0,0,-1,1812,1632,0,0
595,-608,0,0,0,0,0,0,0,0,0,-1,1819,1632,0,0
602,-608,0,0,0,0,0,0,0,0,0,-1,1826,1632,0,0
609,-608,0,0,0,0,0,0,0,0,0,-1,1833,1632,0,0
616,-608,0,0,0,0,0,0,0,0,0,-1,1840,1632,0,0
623,-608,0,0,0,0,0,0,0,0,0,-1,1847,1632,0,0
630,-608,0,0,0,0,0,0,0,0,0,-1,1854,1632,0,0
637,-608,0,0,0,0,0,0,0,0,0,-1,1861,1632,0,0
644,-608,0,0,0,0,0,0,0,0,0,-1,1868,1632,0,0
651,-608,0,0,0,0,0,0,0,0,0,-1,1875,1632,0,0
658,-608,0,0,0,0,0,0,0,0,0,-1,1882,1632,0,0
665,-608,0,0,0,0,0,0,0,0,0,-1,1889,1632,0,0
672,-608,0,0,0,0,0,0,0,0,0,-1,1896,1632,0,0
679,-608,0,0,0,0,0,0,0,0,0,-1,1903,1632,0,0
686,-608,0,0,0,0,0,0,0,0,0,-1,1910,1632,0,0
693,-608,0,0,0,0,0,0,0,0,0,-1,1917,1632,0,0
700,-608,0,0,0,0,0,0,0,0,0,-1,1924,1632,0,0
707,-608,0,0,0,0,0,0,0,0,0,-1,1931,1632,0,0
714,-608,0,0,0,0,0,0,0,0,0,-1,1938,1632,0,0
721,-608,0,0,0,0,0,0,0,0,0,-1,1945,1632,0,0
728,-608,0,0,0,0,0,0,0,0,0,-1,1952,1632,0,0
735,-608,0,0,0,0,0,0,0,0,0,-1,1959,1632,0,0
742,-608,0,0,0,0,0,0,0,0,0,-1,1966,1632,0,0
749,-608,0,0,0,0,0,0,0,0,0,-1,1973,1632,0,0
756,-608,0,0,0,0,0,0,0,0,0,-1,1980,1632,0,0
763,-608,0,0,0,0,0,0,0,0,0,-1,1987,1632,0,0
770,-608,0,0,0,0,0,0,0,0,0,-1,1994,1632,0,0
777,-608,0,0,0,0,0,0,0,0,0,-1,2001,1632,0,0
784,-608,0,0,0,0,0,0,0,0,0,-1,2008,1632,0,0
791,-608,0,0,0,0,0,0,0,0,0,-1,2015,1632,0,0
798,-608,0,0,0,0,0,0,0,0,0,-1,2022,1632,0,0
805,-608,0,0,0,0,0,0,0,0,0,-1,2029,1632,0,0
812,-608,0,0,0,0,0,0,0,0,0,-1,2036,1632,0,0
-700,-615,0,0,0,0,0,0,0,0,0,-1,524,1639,0,0
-693,-615,0,0,0,0,0,0,0,0,0,-1,531,1639,0,0
-686,-615,0,0,0,0,0,0,0,0,0,-1,538,1639,0,0
-679,-615,0,0,0,0,0,0,0,0,0,-1,545,1639,0,0
-672,-615,0,0,0,0,0,0,0,0,0,-1,552,1639,0,0
-665,-615,0,0,0,0,0,0,0,0,0,-1,559,1639,0,0
-658,-615,0,0,0,0,0,0,0,0,0,-1,566,1639,0,0
-651,-615,0,0,0,0,0,0,0,0,0,-1,573,1639,0,0
-644,-615,0,0,0,0,0,0,0,0,0,-1,580,1639,0,0
-637,-615,0,0,0,0,0,0,0,0,0,-1,587,1639,0,0
-630,-615,0,0,0,0,0,0,0,0,0,-1,594,1639,0,0
-623,-615,0,0,0,0,0,0,0,0,0,-1,601,1639,0,0
-616,-615,0,0,0,0,0,0,0,0,0,-1,608,1639,0,0
-609,-615,0,0,0,0,0,0,0,0,0,-1,615,1639,0,0
-602,-615,0,0,0,0,0,0,0,0,0,-1,622,1639,0,0
-595,-615,0,0,0,0,0,0,0,0,0,-1,629,1639,0,0
-588,-615,0,0,0,0,0,0,0,0,0,-1,636,1639,0,0
-581,-615,0,0,0,0,0,0,0,0,0,-1,643,1639,0,0
-574,-615,0,0,0,0,0,0,0,0,0,-1,650,1639,0,0
-567,-615,0,0,0,0,0,0,0,0,0,-1,657,1639,0,0
-560,-615,0,0,0,0,0,0,0,0,0,-1,664,1639,0,0
-553,-615,0,0,0,0,0,0,0,0,0,-1,671,1639,0,0
-546,-615,0,0,0,0,0,0,0,0,0,-1,678,1639,0,0
-539,-615,0,0,0,0,0,0,0,0,0,-1,685,1639,0,0
-532,-615,0,0,0,0,0,0,0,0,0,-1,692,1639,0,0
-525,-615,0,0,0,0,0,0,0,0,0,-1,699,1639,0,0
-518,-615,0,0,0,0,0,0,0,0,0,-1,706,1639,0,0
-511,-615,0,0,0,0,0,0,0,0,0,-1,713,1639,0,0
-504,-615,0,0,0,0,0,0,0,0,0,-1,720,1639,0,0
-497,-615,0,0,0,0,0,0,0,0,0,-1,727,1639,0,0
-490,-615,0,0,0,0,0,0,0,0,0,-1,734,1639,0,0
-483,-615,0,0,0,0,0,0,0,0,0,-1,741,1639,0,0
-476,-615,0,0,0,0,0,0,0,0,0,-1,748,1639,0,0
-469,-615,0,0,0,0,0,0,0,0,0,-1,755,1639,0,0
-462,-615,0,0,0,0,0,0,0,0,0,-1,762,1639,0,0
-455,-615,0,0,0,0,0,0,0,0,0,-1,769,1639,0,0
-448,-615,0,0,0,0,0,0,0,0,0,-1,776,1639,0,0
-441,-615,0,0,0,0,0,0,0,0,0,-1,783,1639,0,0
-434,-615,-7.64508,2.98596,0,0,0,0,0,0,0,-1,790,1639,-7.64505,-2.98594
-427,-615,-9.0011,2.89404,0,0,0,0,0,0,0,-1,797,1639,-9.00107,-2.89399
-420,-615,-8.07568,3.0752,0,0,0,0,0,0,0,-1,804,1639,-8.07569,-3.07514
-413,-615,-7.09149,3.396,0,0,0,0,0,0,0,-1,811,1639,-7.09147,-3.39599
-406,-615,-6.21368,3.7312,0,0,0,0,0,0,0,-1,818,1639,-6.21366,-3.73114
-399,-615,-4.84875,3.91907,0,0,0,0,0,0,0,-1,825,1639,-4.84877,-3.91901
-392,-615,1.7395,13.3127,0,0,0,0,0,0,0,-1,832,1639,1.73953,-13.3128
-385,-615,3.31848,12.7184,0,0,0,0,0,0,0,-1,839,1639,3.31849,-12.7183
-378,-615,3.44562,13.0183,0,0,0,0,0,0,0,-1,846,1639,3.44562,-13.0183
-371,-615,2.84448,13.2061,0,0,0,0,0,0,0,-1,853,1639,2.84446,-13.206
-364,-615,2.72107,13.6022,0.000512782,-0.00263782,-0.000537035,0.000601807,-0.00272684,-0.164277,0.00204818,0.0370214,860,1639,2.72105,-13.6021
-357,-615,2.82562,13.9623,0.00117516,-0.00207386,-0.000258681,0.00119562,-0.00209433,-0.0789555,0.00192293,0.0323792,867,1639,2.82564,-13.9623
-350,-615,2.74426,14.2203,0.00164102,-0.00151,-2.68532e-05,0.00164125,-0.00151023,-0.00852124,0.00182003,0.0319205,874,1639,2.74426,-14.2204
-343,-615,2.71228,14.4189,0.001961,-0.00100866,0.000167208,0.00197038,-0.00101804,0.0560692,0.00175433,0.0206968,881,1639,2.71227,-14.419
-336,-615,2.73749,14.7068,0.00215999,-0.000397679,0.000272133,0.00218863,-0.000426313,0.104835,0.00162,0.0108292,888,1639,2.73749,-14.7067
-329,-615,2.69666,14.9727,0.00231674,0.000111549,0.000320409,0.00236235,6.59378e-05,0.141403,0.00155339,0.0108058,895,1639,2.69665,-14.9726
-322,-615,2.69733,15.24,0.00226435,0.000511386,0.000286255,0.00230991,0.000465825,0.157837,0.00141054,0.0116786,902,1639,2.69735,-15.24
-315,-615,2.72864,15.4978,0.00205203,0.000656547,0.000193022,0.00207824,0.000630341,0.134944,0.00123043,0.0133904,909,1639,2.72862,-15.4978
-308,-615,2.68927,15.7462,0.00182771,0.000413735,-7.3157e-05,0.00183148,0.00040996,-0.0515551,0.00110987,0.0188541,916,1639,2.68926,-15.7462
-301,-615,2.69855,15.963,0.00175942,-0.000139102,-0.000290622,0.00180291,-0.000182594,-0.148548,0.0012672,0.0125746,923,1639,2.69857,-15.963
-294,-615,2.70038,16.2075,0.00169613,-0.00103307,-0.000511498,0.00178884,-0.00112578,-0.179313,0.00169721,0.0105383,930,1639,2.70035,-16.2075
-287,-615,2.68958,16.4535,0.0015948,-0.00207717,-0.00083128,0.00177423,-0.00225659,-0.212578,0.00233274,0.00775249,937,1639,2.68959,-16.4534
-280,-615,2.70288,16.6793,0.00165759,-0.00334508,-0.00113671,0.00190376,-0.00359126,-0.213271,0.00322203,0.00864029,944,1639,2.70288,-16.6793
-273,-615,2.69714,16.9294,0.00183577,-0.00472917,-0.00142959,0.00213357,-0.00502697,-0.205375,0.00424515,0.00968166,951,1639,2.69712,-16.9294
-266,-615,2.69055,17.1643,0.00217088,-0.00628758,-0.00166437,0.0024866,-0.0066033,-0.187463,0.00542449,0.00936004,958,1639,2.69056,-17.1643
-259,-615,2.71063,17.3726,0.0026584,-0.00771944,-0.00184664,0.00297719,-0.00803824,-0.170952,0.00657971,0.0102335,965,1639,2.71062,-17.3725
-252,-615,2.7113,17.5923,0.00327596,-0.00903847,-0.00187821,0.00355606,-0.00931856,-0.148038,0.00767734,0.011108,972,1639,2.71128,-17.5923
-245,-615,2.70721,17.8289,0.00296453,-0.0107865,-0.00075086,0.0030054,-0.0108274,-0.0543885,0.00840118,0.0172262,979,1639,2.70723,-17.8288
-238,-615,2.72778,18.0582,0.00188372,-0.0122796,0.000696435,0.00191789,-0.0123137,0.0490142,0.00891746,0.0289349,986,1639,2.72779,-18.0582
-231,-615,2.84198,18.2057,0.000807089,-0.0139077,0.00216773,0.00111978,-0.0142204,0.143262,0.00987473,0.0421719,993,1639,2.84195,-18.2057
-224,-615,3.00824,18.5074,0,0,0,0,0,0,0,-1,1000,1639,3.00825,-18.5074
-217,-615,3.21021,18.3617,0,0,0,0,0,0,0,-1,1007,1639,3.21022,-18.3617
-210,-615,2.0376,16.5729,0,0,0,0,0,0,0,-1,1014,1639,2.03761,-16.5729
-203,-615,3.80859,17.7214,0,0,0,0,0,0,0,-1,1021,1639,3.80865,-17.7215
-196,-615,3.96069,18.6543,0,0,0,0,0,0,0,-1,1028,1639,3.96067,-18.6543
-189,-615,3.55884,19.1786,0,0,0,0,0,0,0,-1,1035,1639,3.55881,-19.1786
-182,-615,3.15698,19.703,0,0,0,0,0,0,0,-1,1042,1639,3.15695,-19.703
-175,-615,-0.609985,13.8434,0,0,0,0,0,0,0,-1,1049,1639,-0.610016,-13.8434
-168,-615,3.85754,15.472,0,0,0,0,0,0,0,-1,1056,1639,3.85757,-15.472
-161,-615,2.84497,16.0234,0,0,0,0,0,0,0,-1,1063,1639,2.84495,-16.0234
-154,-615,0.585327,18.823,0,0,0,0,0,0,0,-1,1070,1639,0.585319,-18.823
-147,-615,1.52502,17.3442,0,0,0,0,0,0,0,-1,1077,1639,1.52501,-17.3442
-140,-615,3.73401,10.2349,0,0,0,0,0,0,0,-1,1084,1639,3.73402,-10.2348
-133,-615,2.6178,17.45,0,0,0,0,0,0,0,-1,1091,1639,2.61776,-17.4499
-126,-615,4.43408,12.5017,0,0,0,0,0,0,0,-1,1098,1639,4.43403,-12.5018
-119,-615,4.82983,13.9279,0,0,0,0,0,0,0,-1,1105,1639,4.82986,-13.9278
-112,-615,3.65698,14.4874,0,0,0,0,0,0,0,-1,1112,1639,3.65695,-14.4875
-105,-615,0.958496,2.45398,0,0,0,0,0,0,0,-1,1119,1639,0.958452,-2.45398
-98,-615,-0.647705,2.12109,0,0,0,0,0,0,0,-1,1126,1639,-0.647756,-2.12105
-91,-615,-3.07983,2.97375,0,0,0,0,0,0,0,-1,1133,1639,-3.07989,-2.97376
-84,-615,-2.46509,0.703247,0,0,0,0,0,0,0,-1,1140,1639,-2.46505,-0.703273
-77,-615,-3.17859,1.23755,0,0,0,0,0,0,0,-1,1147,1639,-3.17865,-1.23752
-70,-615,-4.03943,1.43335,0,0,0,0,0,0,0,-1,1154,1639,-4.03942,-1.43339
-63,-615,-4.8877,1.45544,0,0,0,0,0,0,0,-1,1161,1639,-4.88766,-1.45549
-56,-615,0,0,0,0,0,0,0,0,0,-1,1168,1639,0,0
-49,-615,0,0,0,0,0,0,0,0,0,-1,1175,1639,0,0
-42,-615,0,0,0,0,0,0,0,0,0,-1,1182,1639,0,0
-35,-615,0,0,0,0,0,0,0,0,0,-1,1189,1639,0,0
-28,-615,0,0,0,0,0,0,0,0,0,-1,1196,1639,0,0
-21,-615,0,0,0,0,0,0,0,0,0,-1,1203,1639,0,0
-14,-615,0,0,0,0,0,0,0,0,0,-1,1210,1639,0,0
-7,-615,0,0,0,0,0,0,0,0,0,-1,1217,1639,0,0
0,-615,0,0,0,0,0,0,0,0,0,-1,1224,1639,0,0
7,-615,0,0,0,0,0,0,0,0,0,-1,1231,1639,0,0
14,-615,0,0,0,0,0,0,0,0,0,-1,1238,1639,0,0
21,-615,0,0,0,0,0,0,0,0,0,-1,1245,1639,0,0
28,-615,0,0,0,0,0,0,0,0,0,-1,1252,1639,0,0
35,-615,0,0,0,0,0,0,0,0,0,-1,1259,1639,0,0
42,-615,0,0,0,0,0,0,0,0,0,-1,1266,1639,0,0
49,-615,0,0,0,0,0,0,0,0,0,-1,1273,1639,0,0
56,-615,0,0,0,0,0,0,0,0,0,-1,1280,1639,0,0
63,-615,0,0,0,0,0,0,0,0,0,-1,1287,1639,0,0
70,-615,0,0,0,0,0,0,0,0,0,-1,1294,1639,0,0
77,-615,0,0,0,0,0,0,0,0,0,-1,1301,1639,0,0
84,-615,0,0,0,0,0,0,0,0,0,-1,1308,1639,0,0
91,-615,0,0,0,0,0,0,0,0,0,-1,1315,1639,0,0
98,-615,0,0,0,0,0,0,0,0,0,-1,1322,1639,0,0
105,-615,0,0,0,0,0,0,0,0,0,-1,1329,1639,0,0
112,-615,0,0,0,0,0,0,0,0,0,-1,1336,1639,0,0
119,-615,0,0,0,0,0,0,0,0,0,-1,1343,1639,0,0
126,-615,0,0,0,0,0,0,0,0,0,-1,1350,1639,0,0
133,-615,0,0,0,0,0,0,0,0,0,-1,1357,1639,0,0
140,-615,0,0,0,0,0,0,0,0,0,-1,1364,1639,0,0
147,-615,0,0,0,0,0,0,0,0,0,-1,1371,1639,0,0
154,-615,0,0,0,0,0,0,0,0,0,-1,1378,1639,0,0
161,-615,0,0,0,0,0,0,0,0,0,-1,1385,1639,0,0
168,-615,0,0,0,0,0,0,0,0,0,-1,1392,1639,0,0
175,-615,5.39648,-2.00879,0,0,0,0,0,0,0,-1,1399,1639,5.3965,2.00881
182,-615,5.65393,-1.51025,0,0,0,0,0,0,0,-1,1406,1639,5.65388,1.51028
189,-615,5.58972,-1.35608,0,0,0,0,0,0,0,-1,1413,1639,5.58967,1.35607
196,-615,5.49915,-0.693604,0,0,0,0,0,0,0,-1,1420,1639,5.4991,0.693602
203,-615,5.33411,-0.226685,0,0,0,0,0,0,0,-1,1427,1639,5.33414,0.226689
210,-615,5.60278,0.108276,0,0,0,0,0,0,0,-1,1434,1639,5.60284,-0.10831
217,-615,6.26331,-0.307373,0,0,0,0,0,0,0,-1,1441,1639,6.26331,0.307372
224,-615,5.45422,-0.333984,0,0,0,0,0,0,0,-1,1448,1639,5.45422,0.333992
231,-615,4.92542,1.80298,0,0,0,0,0,0,0,-1,1455,1639,4.92537,-1.80297
238,-615,4.76355,1.96729,0,0,0,0,0,0,0,-1,1462,1639,4.76357,-1.96734
245,-615,4.08643,3.15906,0,0,0,0,0,0,0,-1,1469,1639,4.08638,-3.159
252,-615,6.37805,3.73889,0,0,0,0,0,0,0,-1,1476,1639,6.37806,-3.73891
259,-615,8.35974,3.16443,0,0,0,0,0,0,0,-1,1483,1639,8.35975,-3.16444
266,-615,10.3414,2.58997,0,0,0,0,0,0,0,-1,1490,1639,10.3414,-2.58996
273,-615,6.57043,1.84766,0,0,0,0,0,0,0,-1,1497,1639,6.5704,-1.84771
280,-615,7.10449,3.23438,0,0,0,0,0,0,0,-1,1504,1639,7.10447,-3.23435
287,-615,7.35779,4.68542,0,0,0,0,0,0,0,-1,1511,1639,7.35776,-4.68546
294,-615,7.63733,6.29114,0,0,0,0,0,0,0,-1,1518,1639,7.63735,-6.29109
301,-615,8.47925,11.452,0,0,0,0,0,0,0,-1,1525,1639,8.47922,-11.452
308,-615,6.8114,10.9059,0,0,0,0,0,0,0,-1,1532,1639,6.81137,-10.9058
315,-615,5.1427,14.7251,0,0,0,0,0,0,0,-1,1539,1639,5.14269,-14.7251
322,-615,7.17981,17.6864,0,0,0,0,0,0,0,-1,1546,1639,7.17985,-17.6864
329,-615,7.48596,17.8612,0,0,0,0,0,0,0,-1,1553,1639,7.48592,-17.8612
336,-615,6.45007,14.1138,0,0,0,0,0,0,0,-1,1560,1639,6.45011,-14.1138
343,-615,2.40491,6.50134,0,0,0,0,0,0,0,-1,1567,1639,2.40489,-6.50137
350,-615,6.4458,15.4594,0,0,0,0,0,0,0,-1,1574,1639,6.44578,-15.4593
357,-615,7.72717,19.4709,0,0,0,0,0,0,0,-1,1581,1639,7.7272,-19.471
364,-615,7.95898,19.0433,0,0,0,0,0,0,0,-1,1588,1639,7.959,-19.0433
371,-615,8.00305,18.8973,0.000269671,0.000568346,0.00315431,0.00357685,-0.00273883,0.809052,0.00365704,0.0444008,1595,1639,8.00306,-18.8973
378,-615,8.02112,18.6127,-0.000321692,-0.000558777,0.00369323,0.0032549,-0.00413537,0.769355,0.00427685,0.0200591,1602,1639,8.02118,-18.6126
385,-615,7.99268,18.4337,-0.000691266,-0.00165943,0.00394262,0.00279688,-0.00514757,0.724313,0.00465318,0.0119943,1609,1639,7.99272,-18.4337
392,-615,7.99438,18.2272,-0.000783607,-0.00222455,0.00397689,0.00253755,-0.00554571,0.695788,0.00477338,0.010829,1616,1639,7.9944,-18.2272
399,-615,7.99353,18.0217,-0.000692306,-0.00243505,0.00377452,0.00231012,-0.00543747,0.671958,0.00459294,0.0119412,1623,1639,7.99348,-18.0218
406,-615,8.00415,17.8053,-0.00055612,-0.002458,0.00340856,0.00203166,-0.00504579,0.649364,0.00420787,0.0112196,1630,1639,8.00414,-17.8053
413,-615,8.01318,17.5984,-0.00038679,-0.00251643,0.00303933,0.00176885,-0.00467207,0.616906,0.00384252,0.0112165,1637,1639,8.01317,-17.5984
420,-615,8.00696,17.3895,-0.000140361,-0.00243127,0.00257175,0.00152949,-0.00410112,0.575888,0.00336196,0.0122583,1644,1639,8.00698,-17.3896
427,-615,8.02393,17.1426,0.000146798,-0.00237641,0.00207766,0.0013159,-0.00354551,0.512542,0.00290347,0.0141311,1651,1639,8.02394,-17.1426
434,-615,8.0365,16.9049,0.000456815,-0.00227172,0.00152447,0.00113833,-0.00295324,0.420399,0.0024385,0.0133041,1658,1639,8.03655,-16.905
441,-615,8.03247,16.6962,0.00102656,-0.00203277,0.000698747,0.0011786,-0.00218481,0.214246,0.00197062,0.0143827,1665,1639,8.03247,-16.6961
448,-615,8.04102,16.48,0.00181478,-0.00174739,-0.000439419,0.00186819,-0.00180079,-0.120942,0.00211841,0.0152358,1672,1639,8.04098,-16.4799
455,-615,8.05994,16.2751,0.00242089,-0.0014983,-0.00141397,0.00287777,-0.00195518,-0.312526,0.0028072,0.014027,1679,1639,8.05997,-16.2751
462,-615,8.03845,16.0431,0.00310387,-0.00112746,-0.00259757,0.00433833,-0.00236193,-0.443645,0.0039241,0.0141303,1686,1639,8.0385,-16.0431
469,-615,8.01404,15.8108,0.0041121,-0.000605541,-0.00402354,0.00641728,-0.00291072,-0.520272,0.00551091,0.0126399,1693,1639,8.01401,-15.8108
476,-615,8.02515,15.573,0.00541658,0.000174992,-0.0056392,0.00901423,-0.00342266,-0.567874,0.00741841,0.0115175,1700,1639,8.02517,-15.5729
483,-615,8.02637,15.297,0.0070305,0.00107912,-0.00738793,0.0120195,-0.00390988,-0.593949,0.00958587,0.0153,1707,1639,8.02631,-15.2969
490,-615,8.02686,15.0197,0.00907947,0.00202815,-0.00957989,0.0157619,-0.00465425,-0.609076,0.0123551,0.0168143,1714,1639,8.02686,-15.0196
497,-615,7.99048,14.806,0.0114093,0.0034003,-0.0118497,0.0199129,-0.00510327,-0.622453,0.0152634,0.0268716,1721,1639,7.99049,-14.8061
504,-615,8.02173,14.5059,0.0142299,0.00457263,-0.0140842,0.0242901,-0.00548764,-0.620257,0.018299,0.0490996,1728,1639,8.02173,-14.5059
511,-615,8.10474,14.2329,0,0,0,0,0,0,0,-1,1735,1639,8.1047,-14.2329
518,-615,8.8446,10.2899,0,0,0,0,0,0,0,-1,1742,1639,8.8446,-10.2899
525,-615,4.37524,3.90491,0,0,0,0,0,0,0,-1,1749,1639,4.37518,-3.90495
532,-615,7.3645,0.848145,0,0,0,0,0,0,0,-1,1756,1639,7.36451,-0.848093
539,-615,12.8112,-0.0476074,0,0,0,0,0,0,0,-1,1763,1639,12.8111,0.0475553
546,-615,8.33813,2.94556,0,0,0,0,0,0,0,-1,1770,1639,8.33813,-2.9455
553,-615,5.82532,-2.04199,0,0,0,0,0,0,0,-1,1777,1639,5.82534,2.04195
560,-615,0,0,0,0,0,0,0,0,0,-1,1784,1639,0,0
567,-615,0,0,0,0,0,0,0,0,0,-1,1791,1639,0,0
574,-615,0,0,0,0,0,0,0,0,0,-1,1798,1639,0,0
581,-615,0,0,0,0,0,0,0,0,0,-1,1805,1639,0,0
588,-615,0,0,0,0,0,0,0,0,0,-1,1812,1639,0,0
595,-615,0,0,0,0,0,0,0,0,0,-1,1819,1639,0,0
602,-615,0,0,0,0,0,0,0,0,0,-1,1826,1639,0,0
609,-615,0,0,0,0,0,0,0,0,0,-1,1833,1639,0,0
616,-615,0,0,0,0,0,0,0,0,0,-1,1840,1639,0,0
623,-615,0,0,0,0,0,0,0,0,0,-1,1847,1639,0,0
630,-615,0,0,0,0,0,0,0,0,0,-1,1854,1639,0,0
637,-615,0,0,0,0,0,0,0,0,0,-1,1861,1639,0,0
644,-615,0,0,0,0,0,0,0,0,0,-1,1868,1639,0,0
651,-615,0,0,0,0,0,0,0,0,0,-1,1875,1639,0,0
658,-615,0,0,0,0,0,0,0,0,0,-1,1882,1639,0,0
665,-615,0,0,0,0,0,0,0,0,0,-1,1889,1639,0,0
672,-615,0,0,0,0,0,0,0,0,0,-1,1896,1639,0,0
679,-615,0,0,0,0,0,0,0,0,0,-1,1903,1639,0,0
686,-615,0,0,0,0,0,0,0,0,0,-1,1910,1639,0,0
693,-615,0,0,0,0,0,0,0,0,0,-1,1917,1639,0,0
700,-615,0,0,0,0,0,0,0,0,0,-1,1924,1639,0,0
707,-615,0,0,0,0,0,0,0,0,0,-1,1931,1639,0,0
714,-615,0,0,0,0,0,0,0,0,0,-1,1938,1639,0,0
721,-615,0,0,0,0,0,0,0,0,0,-1,1945,1639,0,0
728,-615,0,0,0,0,0,0,0,0,0,-1,1952,1639,0,0
735,-615,0,0,0,0,0,0,0,0,0,-1,1959,1639,0,0
742,-615,0,0,0,0,0,0,0,0,0,-1,1966,1639,0,0
749,-615,0,0,0,0,0,0,0,0,0,-1,1973,1639,0,0
756,-615,0,0,0,0,0,0,0,0,0,-1,1980,1639,0,0
763,-615,0,0,0,0,0,0,0,0,0,-1,1987,1639,0,0
770,-615,0,0,0,0,0,0,0,0,0,-1,1994,1639,0,0
777,-615,0,0,0,0,0,0,0,0,0,-1,2001,1639,0,0
784,-615,0,0,0,0,0,0,0,0,0,-1,2008,1639,0,0
791,-615,0,0,0,0,0,0,0,0,0,-1,2015,1639,0,0
798,-615,0,0,0,0,0,0,0,0,0,-1,2022,1639,0,0
805,-615,0,0,0,0,0,0,0,0,0,-1,2029,1639,0,0
812,-615,0,0,0,0,0,0,0,0,0,-1,2036,1639,0,0
-700,-622,0,0,0,0,0,0,0,0,0,-1,524,1646,0,0
-693,-622,0,0,0,0,0,0,0,0,0,-1,531,1646,0,0
-686,-622,0,0,0,0,0,0,0,0,0,-1,538,1646,0,0
-679,-622,0,0,0,0,0,0,0,0,0,-1,545,1646,0,0
-672,-622,0,0,0,0,0,0,0,0,0,-1,552,1646,0,0
-665,-622,0,0,0,0,0,0,0,0,0,-1,559,1646,0,0
-658,-622,0,0,0,0,0,0,0,0,0,-1,566,1646,0,0
-651,-622,0,0,0,0,0,0,0,0,0,-1,573,1646,0,0
-644,-622,0,0,0,0,0,0,0,0,0,-1,580,1646,0,0
-637,-622,0,0,0,0,0,0,0,0,0,-1,587,1646,0,0
-630,-622,0,0,0,0,0,0,0,0,0,-1,594,1646,0,0
-623,-622,0,0,0,0,0,0,0,0,0,-1,601,1646,0,0
-616,-622,0,0,0,0,0,0,0,0,0,-1,608,1646,0,0
-609,-622,0,0,0,0,0,0,0,0,0,-1,615,1646,0,0
-602,-622,0,0,0,0,0,0,0,0,0,-1,622,1646,0,0
-595,-622,0,0,0,0,0,0,0,0,0,-1,629,1646,0,0
-588,-622,0,0,0,0,0,0,0,0,0,-1,636,1646,0,0
-581,-622,0,0,0,0,0,0,0,0,0,-1,643,1646,0,0
-574,-622,0,0,0,0,0,0,0,0,0,-1,650,1646,0,0
-567,-622,0,0,0,0,0,0,0,0,0,-1,657,1646,0,0
-560,-622,0,0,0,0,0,0,0,0,0,-1,664,1646,0,0
-553,-622,0,0,0,0,0,0,0,0,0,-1,671,1646,0,0
-546,-622,0,0,0,0,0,0,0,0,0,-1,678,1646,0,0
-539,-622,0,0,0,0,0,0,0,0,0,-1,685,1646,0,0
-532,-622,0,0,0,0,0,0,0,0,0,-1,692,1646,0,0
-525,-622,0,0,0,0,0,0,0,0,0,-1,699,1646,0,0
-518,-622,0,0,0,0,0,0,0,0,0,-1,706,1646,0,0
-511,-622,0,0,0,0,0,0,0,0,0,-1,713,1646,0,0
-504,-622,0,0,0,0,0,0,0,0,0,-1,720,1646,0,0
-497,-622,0,0,0,0,0,0,0,0,0,-1,727,1646,0,0
-490,-622,0,0,0,0,0,0,0,0,0,-1,734,1646,0,0
-483,-622,0,0,0,0,0,0,0,0,0,-1,741,1646,0,0
-476,-622,0,0,0,0,0,0,0,0,0,-1,748,1646,0,0
-469,-622,0,0,0,0,0,0,0,0,0,-1,755,1646,0,0
-462,-622,0,0,0,0,0,0,0,0,0,-1,762,1646,0,0
-455,-622,0,0,0,0,0,0,0,0,0,-1,769,1646,0,0
-448,-622,0,0,0,0,0,0,0,0,0,-1,776,1646,0,0
-441,-622,0,0,0,0,0,0,0,0,0,-1,783,1646,0,0
-434,-622,0,0,0,0,0,0,0,0,0,-1,790,1646,0,0
-427,-622,-7.62891,3.48096,0,0,0,0,0,0,0,-1,797,1646,-7.62892,-3.48092
-420,-622,-9.35791,1.77185,0,0,0,0,0,0,0,-1,804,1646,-9.35789,-1.77183
-413,-622,-8.46075,1.96777,0,0,0,0,0,0,0,-1,811,1646,-8.46074,-1.96774
-406,-622,-4.44318,2.16858,0,0,0,0,0,0,0,-1,818,1646,-4.44315,-2.16859
-399,-622,-7.06976,1.51001,0,0,0,0,0,0,0,-1,825,1646,-7.06976,-1.51005
-392,-622,3.89551,5.85376,0,0,0,0,0,0,0,-1,832,1646,3.8955,-5.85379
-385,-622,2.00543,14.0448,0,0,0,0,0,0,0,-1,839,1646,2.00544,-14.0448
-378,-622,2.1734,14.2626,0,0,0,0,0,0,0,-1,846,1646,2.17341,-14.2625
-371,-622,2.80884,11.9314,0,0,0,0,0,0,0,-1,853,1646,2.80887,-11.9313
-364,-622,2.78107,13.5302,0,0,0,0,0,0,0,-1,860,1646,2.78107,-13.5302
-357,-622,3.24524,14.0145,0.00288574,-0.00211933,-0.000621909,0.00296186,-0.00219545,-0.121789,0.00298851,0.0497136,867,1646,3.24521,-14.0146
-350,-622,3.02582,14.3301,0.00332427,-0.00117988,-0.000224161,0.0033354,-0.00119101,-0.0496044,0.00270931,0.0462611,874,1646,3.0258,-14.33
-343,-622,2.88531,14.51,0.0035587,-0.000591007,0.000104854,0.00356135,-0.000593654,0.0252463,0.00259485,0.027186,881,1646,2.8853,-14.51
-336,-622,2.96912,14.7056,0.00361689,5.98268e-05,0.000326535,0.00364662,3.00995e-05,0.0907881,0.00242111,0.00962686,888,1646,2.96913,-14.7055
-329,-622,2.9422,14.9749,0.00359856,0.000537734,0.000492598,0.00367589,0.000460411,0.1557,0.00231245,0.00864484,895,1646,2.94217,-14.9749
-322,-622,2.94092,15.2494,0.00335582,0.000937871,0.000569541,0.00348326,0.000810434,0.220129,0.0021047,0.0102483,902,1646,2.9409,-15.2494
-315,-622,2.94586,15.5022,0.00294519,0.0010537,0.000579188,0.00310845,0.000890442,0.27475,0.00184842,0.0133196,909,1646,2.94588,-15.5022
-308,-622,2.94031,15.7163,0.00251726,0.000832264,0.000430713,0.00262097,0.00072855,0.236297,0.00156216,0.0132338,916,1646,2.94033,-15.7164
-301,-622,2.94812,15.9409,0.00226251,0.000346263,0.000294982,0.0023069,0.000301882,0.149333,0.00144783,0.0131245,923,1646,2.94813,-15.9409
-294,-622,2.92792,16.2061,0.00202132,-0.000413168,0.000122584,0.00202748,-0.000419325,0.0501838,0.00151095,0.00976372,930,1646,2.92792,-16.206
-287,-622,2.9328,16.4517,0.00175926,-0.00129331,-0.00013501,0.00176522,-0.00129927,-0.0441134,0.00177609,0.007705,937,1646,2.93278,-16.4516
-280,-622,2.93713,16.6816,0.00166011,-0.00232708,-0.0004019,0.00170022,-0.00236719,-0.0994647,0.00235882,0.00839065,944,1646,2.93715,-16.6816
-273,-622,2.94629,16.9092,0.00167943,-0.00337322,-0.000638195,0.00175879,-0.00345259,-0.12372,0.00306131,0.011741,951,1646,2.94627,-16.9091
-266,-622,2.92755,17.1559,0.00182459,-0.00451996,-0.000880816,0.00194461,-0.00463997,-0.135419,0.00390634,0.0110195,958,1646,2.92754,-17.1559
-259,-622,2.94299,17.4041,0.00215155,-0.00551064,-0.00107171,0.00229862,-0.00565771,-0.136383,0.00472809,0.0106505,965,1646,2.94297,-17.404
-252,-622,2.94617,17.6073,0.00264076,-0.00635185,-0.00115193,0.00278597,-0.00649707,-0.125401,0.00550047,0.0110648,972,1646,2.94619,-17.6073
-245,-622,2.95825,17.8307,0.00242344,-0.00746974,-0.000292874,0.0024321,-0.0074784,-0.0295692,0.00596396,0.00852299,979,1646,2.95827,-17.8307
-238,-622,2.96326,18.0579,0.00162992,-0.00846868,0.000782435,0.00169018,-0.00852895,0.0768682,0.00632509,0.010181,986,1646,2.96328,-18.0578
-231,-622,3.00696,18.2932,0.000867927,-0.00956884,0.00185572,0.00118806,-0.00988897,0.170833,0.00702225,0.0143456,993,1646,3.00697,-18.2933
-224,-622,3.08569,18.4437,-0.000371978,-0.0105775,0.00344241,0.000680612,-0.0116301,0.296743,0.00798993,0.0262189,1000,1646,3.08572,-18.4437
-217,-622,3.16541,18.5017,-0.00208299,-0.0112649,0.00545273,0.000454111,-0.013802,0.435496,0.00935637,0.0417401,1007,1646,3.16539,-18.5017
-210,-622,2.89734,19.0768,0,0,0,0,0,0,0,-1,1014,1646,2.89732,-19.0768
-203,-622,4.62976,18.4298,0,0,0,0,0,0,0,-1,1021,1646,4.62977,-18.4299
-196,-622,4.21191,18.7448,-0.0112264,-0.0137615,0.0129718,0.000539603,-0.0255275,0.736695,0.017201,0.0469737,1028,1646,4.21187,-18.7448
-189,-622,3.65271,19.1793,-0.0153326,-0.0144202,0.0150601,0.00019054,-0.0299434,0.800539,0.0200261,0.0498015,1035,1646,3.65266,-19.1794
-182,-622,3.25854,19.6986,0,0,0,0,0,0,0,-1,1042,1646,3.25852,-19.6986
-175,-622,2.56091,11.0195,0,0,0,0,0,0,0,-1,1049,1646,2.56095,-11.0195
-168,-622,4.13916,16.1655,0,0,0,0,0,0,0,-1,1056,1646,4.13918,-16.1655
-161,-622,3.32422,18.5869,0,0,0,0,0,0,0,-1,1063,1646,3.3242,-18.5869
-154,-622,2.78796,19.6873,0,0,0,0,0,0,0,-1,1070,1646,2.78799,-19.6873
-147,-622,1.18347,18.4009,0,0,0,0,0,0,0,-1,1077,1646,1.18343,-18.4009
-140,-622,3.27515,16.0353,0,0,0,0,0,0,0,-1,1084,1646,3.27519,-16.0353
-133,-622,3.09644,17.677,0,0,0,0,0,0,0,-1,1091,1646,3.09638,-17.677
-126,-622,3.5061,19.5251,0,0,0,0,0,0,0,-1,1098,1646,3.50616,-19.5252
-119,-622,4.06384,13.1715,0,0,0,0,0,0,0,-1,1105,1646,4.06379,-13.1716
-112,-622,4.33276,14.6605,0,0,0,0,0,0,0,-1,1112,1646,4.33281,-14.6605
-105,-622,0.306519,4.38159,0,0,0,0,0,0,0,-1,1119,1646,0.306536,-4.38159
-98,-622,-0.510376,3.5033,0,0,0,0,0,0,0,-1,1126,1646,-0.510393,-3.50324
-91,-622,-1.146,0.975952,0,0,0,0,0,0,0,-1,1133,1646,-1.14599,-0.97597
-84,-622,-2.04895,1.31787,0,0,0,0,0,0,0,-1,1140,1646,-2.0489,-1.31781
-77,-622,-1.80627,0.332275,0,0,0,0,0,0,0,-1,1147,1646,-1.80622,-0.33223
-70,-622,-3.65588,2.28149,0,0,0,0,0,0,0,-1,1154,1646,-3.65589,-2.28155
-63,-622,-2.49683,1.27087,0,0,0,0,0,0,0,-1,1161,1646,-2.49679,-1.27093
-56,-622,-2.44238,-0.575562,0,0,0,0,0,0,0,-1,1168,1646,-2.44242,0.575508
-49,-622,-2.41089,1.38818,0,0,0,0,0,0,0,-1,1175,1646,-2.41088,-1.38815
-42,-622,-2.71497,2.85242,0,0,0,0,0,0,0,-1,1182,1646,-2.71491,-2.85247
-35,-622,-3.0177,4.25842,0,0,0,0,0,0,0,-1,1189,1646,-3.01773,-4.25838
-28,-622,-0.896606,0.678833,0,0,0,0,0,0,0,-1,1196,1646,-0.89661,-0.678835
-21,-622,-4.38635,19.0129,0,0,0,0,0,0,0,-1,1203,1646,-4.38639,-19.0129
-14,-622,6.93921,24.1045,0,0,0,0,0,0,0,-1,1210,1646,6.93922,-24.1045
-7,-622,6.69983,24.6292,0,0,0,0,0,0,0,-1,1217,1646,6.69984,-24.6292
0,-622,0,0,0,0,0,0,0,0,0,-1,1224,1646,0,0
7,-622,0,0,0,0,0,0,0,0,0,-1,1231,1646,0,0
14,-622,0,0,0,0,0,0,0,0,0,-1,1238,1646,0,0
21,-622,0,0,0,0,0,0,0,0,0,-1,1245,1646,0,0
28,-622,0,0,0,0,0,0,0,0,0,-1,1252,1646,0,0
35,-622,0,0,0,0,0,0,0,0,0,-1,1259,1646,0,0
42,-622,0,0,0,0,0,0,0,0,0,-1,1266,1646,0,0
49,-622,0,0,0,0,0,0,0,0,0,-1,1273,1646,0,0
56,-622,0,0,0,0,0,0,0,0,0,-1,1280,1646,0,0
63,-622,0,0,0,0,0,0,0,0,0,-1,1287,1646,0,0
70,-622,0,0,0,0,0,0,0,0,0,-1,1294,1646,0,0
77,-622,0,0,0,0,0,0,0,0,0,-1,1301,1646,0,0
84,-622,0,0,0,0,0,0,0,0,0,-1,1308,1646,0,0
91,-622,0,0,0,0,0,0,0,0,0,-1,1315,1646,0,0
98,-622,0,0,0,0,0,0,0,0,0,-1,1322,1646,0,0
105,-622,0,0,0,0,0,0,0,0,0,-1,1329,1646,0,0
112,-622,0,0,0,0,0,0,0,0,0,-1,1336,1646,0,0
119,-622,0,0,0,0,0,0,0,0,0,-1,1343,1646,0,0
126,-622,6.12878,25.2208,-0.0505909,0.0870081,0.0436375,0.0996801,-0.0632628,1.28818,0.0948551,0.044894,1350,1646,6.12873,-25.2209
133,-622,5.60315,25.326,-0.0509371,0.0994884,0.0400215,0.109474,-0.0609222,1.32629,0.0997003,0.0484506,1357,1646,5.60309,-25.326
140,-622,4.92334,25.1981,-0.0431277,0.115578,0.0393523,0.124799,-0.0523496,1.34061,0.10509,0.0477309,1364,1646,4.9234,-25.1982
147,-622,4.55127,24.7928,-0.0328237,0.130152,0.0403904,0.139613,-0.0422845,1.34071,0.109916,0.0476795,1371,1646,4.55126,-24.7929
154,-622,3.94763,24.6411,0,0,0,0,0,0,0,-1,1378,1646,3.94758,-24.6411
161,-622,10.6884,6.46448,0,0,0,0,0,0,0,-1,1385,1646,10.6883,-6.46442
168,-622,12.2402,5.18091,0,0,0,0,0,0,0,-1,1392,1646,12.2403,-5.1809
175,-622,5.64355,-1.77075,0,0,0,0,0,0,0,-1,1399,1646,5.64351,1.77077
182,-622,5.88586,-1.32251,0,0,0,0,0,0,0,-1,1406,1646,5.88587,1.32256
189,-622,5.97986,-1.18005,0,0,0,0,0,0,0,-1,1413,1646,5.97986,1.18003
196,-622,5.85022,-0.244507,0,0,0,0,0,0,0,-1,1420,1646,5.85026,0.244478
203,-622,5.25159,0.138794,0,0,0,0,0,0,0,-1,1427,1646,5.25162,-0.138822
210,-622,6.66833,0.0397949,0,0,0,0,0,0,0,-1,1434,1646,6.6684,-0.0398278
217,-622,6.12061,0.0506592,0,0,0,0,0,0,0,-1,1441,1646,6.12058,-0.0507181
224,-622,5.57275,0.0616455,0,0,0,0,0,0,0,-1,1448,1646,5.57276,-0.0616084
231,-622,5.31348,1.3949,0,0,0,0,0,0,0,-1,1455,1646,5.31342,-1.39495
238,-622,3.76477,2.90686,0,0,0,0,0,0,0,-1,1462,1646,3.7648,-2.90686
245,-622,5.13794,2.67993,0,0,0,0,0,0,0,-1,1469,1646,5.13796,-2.67992
252,-622,6.66528,2.53992,0,0,0,0,0,0,0,-1,1476,1646,6.66522,-2.53991
259,-622,8.93787,3.31458,0,0,0,0,0,0,0,-1,1483,1646,8.93791,-3.31454
266,-622,5.72644,3.11926,0,0,0,0,0,0,0,-1,1490,1646,5.72647,-3.1192
273,-622,7.28076,3.61218,0,0,0,0,0,0,0,-1,1497,1646,7.28071,-3.61212
280,-622,8.43127,4.4447,0,0,0,0,0,0,0,-1,1504,1646,8.43123,-4.44467
287,-622,8.60315,5.94617,0,0,0,0,0,0,0,-1,1511,1646,8.60319,-5.94622
294,-622,7.62756,11.5143,0,0,0,0,0,0,0,-1,1518,1646,7.62762,-11.5143
301,-622,7.36548,11.6569,0,0,0,0,0,0,0,-1,1525,1646,7.36549,-11.6569
308,-622,7.10339,11.7994,0,0,0,0,0,0,0,-1,1532,1646,7.10335,-11.7995
315,-622,8.28687,16.5842,0,0,0,0,0,0,0,-1,1539,1646,8.28689,-16.5843
322,-622,7.31311,17.9819,0,0,0,0,0,0,0,-1,1546,1646,7.31312,-17.9819
329,-622,7.41541,20.3431,0,0,0,0,0,0,0,-1,1553,1646,7.41539,-20.3431
336,-622,7.60486,20.1056,0,0,0,0,0,0,0,-1,1560,1646,7.6049,-20.1056
343,-622,7.72888,19.3876,0,0,0,0,0,0,0,-1,1567,1646,7.72883,-19.3876
350,-622,7.74683,19.23,0,0,0,0,0,0,0,-1,1574,1646,7.74685,-19.23
357,-622,7.66675,19.312,0.00215865,0.00347061,0.00051855,0.00365081,0.00197844,1.23634,0.00211026,0.0427679,1581,1646,7.66681,-19.312
364,-622,7.72473,18.9908,0.00122425,0.00224551,0.00131672,0.00314714,0.000322614,0.970374,0.00199925,0.0320058,1588,1646,7.72469,-18.9909
371,-622,7.82617,18.7721,0.000516063,0.00108876,0.00198355,0.00280653,-0.0012017,0.857084,0.00237517,0.0191012,1595,1646,7.82623,-18.7722
378,-622,7.78821,18.6083,9.64223e-07,0.000212037,0.00239864,0.00250746,-0.00229446,0.807383,0.0027733,0.0110055,1602,1646,7.78826,-18.6082
385,-622,7.76758,18.4323,-0.000302475,-0.000698165,0.00262001,0.00212715,-0.00312779,0.747713,0.00305222,0.00944188,1609,1646,7.76758,-18.4323
392,-622,7.77856,18.2423,-0.00035525,-0.00124859,0.00265382,0.00188923,-0.00349307,0.702023,0.00315312,0.0110848,1616,1646,7.77862,-18.2423
399,-622,7.78064,18.0208,-0.000252905,-0.00142511,0.00247756,0.00170694,-0.00338495,0.669251,0.00299254,0.0124802,1623,1646,7.78068,-18.0207
406,-622,7.78137,17.7896,-9.70572e-05,-0.00152647,0.00219918,0.00150064,-0.00312416,0.628288,0.00272442,0.0147095,1630,1646,7.78141,-17.7896
413,-622,7.79626,17.561,9.24063e-05,-0.00171147,0.00191221,0.00130472,-0.00292378,0.565033,0.00250026,0.0143398,1637,1646,7.79621,-17.561
420,-622,7.79309,17.3696,0.000358107,-0.00186453,0.00156399,0.00116541,-0.00267183,0.476508,0.00227162,0.0140982,1644,1646,7.79305,-17.3696
427,-622,7.80334,17.1449,0.000674992,-0.0020145,0.00118308,0.00112134,-0.00246085,0.360764,0.00211583,0.0118023,1651,1646,7.80332,-17.1449
434,-622,7.81604,16.9189,0.0010073,-0.00215106,0.000769429,0.00118477,-0.00232854,0.226691,0.00206393,0.0126775,1658,1646,7.8161,-16.9189
441,-622,7.81848,16.7072,0.00167273,-0.00209342,-4.0151e-06,0.00167273,-0.00209342,-0.0010661,0.00217891,0.0145999,1665,1646,7.81846,-16.7071
448,-622,7.81006,16.5013,0.00261557,-0.00198632,-0.00119678,0.0029082,-0.00227894,-0.239809,0.00300213,0.0137067,1672,1646,7.81009,-16.5014
455,-622,7.79309,16.2618,0.00338332,-0.0019506,-0.00221518,0.0041833,-0.00275058,-0.346561,0.00403167,0.0151299,1679,1646,7.79311,-16.2618
462,-622,7.80261,16.0372,0.00430365,-0.00177528,-0.0034947,0.00589574,-0.00336736,-0.427478,0.00541405,0.0169472,1686,1646,7.80258,-16.0372
469,-622,7.79028,15.8162,0.00561188,-0.00134118,-0.00512264,0.00832629,-0.00405558,-0.487268,0.00728904,0.0195248,1693,1646,7.79029,-15.8162
476,-622,7.83972,15.5785,0.00732743,-0.000539192,-0.00707865,0.0114922,-0.00470392,-0.531809,0.00962069,0.0187974,1700,1646,7.83977,-15.5785
483,-622,7.83435,15.323,0.00948457,0.000562814,-0.0093941,0.0154231,-0.00537575,-0.563731,0.0124665,0.0246513,1707,1646,7.8344,-15.323
490,-622,7.96985,15.051,0.0121533,0.00188569,-0.0123809,0.0204226,-0.00638362,-0.58886,0.0161686,0.0308647,1714,1646,7.96988,-15.0511
497,-622,8.23193,14.7853,0.0152213,0.00391999,-0.0155867,0.02615,-0.00700871,-0.611501,0.0201794,0.0438107,1721,1646,8.23199,-14.7853
504,-622,7.83337,14.5243,0,0,0,0,0,0,0,-1,1728,1646,7.83334,-14.5243
511,-622,5.29004,4.14587,0,0,0,0,0,0,0,-1,1735,1646,5.29008,-4.14589
518,-622,5.6001,1.55359,0,0,0,0,0,0,0,-1,1742,1646,5.60015,-1.5536
525,-622,5.83093,2.01807,0,0,0,0,0,0,0,-1,1749,1646,5.83097,-2.01802
532,-622,5.44202,0.57373,0,0,0,0,0,0,0,-1,1756,1646,5.44196,-0.573705
539,-622,9.32129,1.06116,0,0,0,0,0,0,0,-1,1763,1646,9.32131,-1.0612
546,-622,6.50977,-3.45618,0,0,0,0,0,0,0,-1,1770,1646,6.50981,3.4562
553,-622,0,0,0,0,0,0,0,0,0,-1,1777,1646,0,0
560,-622,0,0,0,0,0,0,0,0,0,-1,1784,1646,0,0
567,-622,0,0,0,0,0,0,0,0,0,-1,1791,1646,0,0
574,-622,0,0,0,0,0,0,0,0,0,-1,1798,1646,0,0
581,-622,0,0,0,0,0,0,0,0,0,-1,1805,1646,0,0
588,-622,0,0,0,0,0,0,0,0,0,-1,1812,1646,0,0
595,-622,0,0,0,0,0,0,0,0,0,-1,1819,1646,0,0
602,-622,0,0,0,0,0,0,0,0,0,-1,1826,1646,0,0
609,-622,0,0,0,0,0,0,0,0,0,-1,1833,1646,0,0
616,-622,0,0,0,0,0,0,0,0,0,-1,1840,1646,0,0
623,-622,0,0,0,0,0,0,0,0,0,-1,1847,1646,0,0
630,-622,0,0,0,0,0,0,0,0,0,-1,1854,1646,0,0
637,-622,0,0,0,0,0,0,0,0,0,-1,1861,1646,0,0
644,-622,0,0,0,0,0,0,0,0,0,-1,1868,1646,0,0
651,-622,0,0,0,0,0,0,0,0,0,-1,1875,1646,0,0
658,-622,0,0,0,0,0,0,0,0,0,-1,1882,1646,0,0
665,-622,0,0,0,0,0,0,0,0,0,-1,1889,1646,0,0
672,-622,0,0,0,0,0,0,0,0,0,-1,1896,1646,0,0
679,-622,0,0,0,0,0,0,0,0,0,-1,1903,1646,0,0
686,-622,0,0,0,0,0,0,0,0,0,-1,1910,1646,0,0
693,-622,0,0,0,0,0,0,0,0,0,-1,1917,1646,0,0
700,-622,0,0,0,0,0,0,0,0,0,-1,1924,1646,0,0
707,-622,0,0,0,0,0,0,0,0,0,-1,1931,1646,0,0
714,-622,0,0,0,0,0,0,0,0,0,-1,1938,1646,0,0
721,-622,0,0,0,0,0,0,0,0,0,-1,1945,1646,0,0
728,-622,0,0,0,0,0,0,0,0,0,-1,1952,1646,0,0
735,-622,0,0,0,0,0,0,0,0,0,-1,1959,1646,0,0
742,-622,0,0,0,0,0,0,0,0,0,-1,1966,1646,0,0
749,-622,0,0,0,0,0,0,0,0,0,-1,1973,1646,0,0
756,-622,0,0,0,0,0,0,0,0,0,-1,1980,1646,0,0
763,-622,0,0,0,0,0,0,0,0,0,-1,1987,1646,0,0
770,-622,0,0,0,0,0,0,0,0,0,-1,1994,1646,0,0
777,-622,0,0,0,0,0,0,0,0,0,-1,2001,1646,0,0
784,-622,0,0,0,0,0,0,0,0,0,-1,2008,1646,0,0
791,-622,0,0,0,0,0,0,0,0,0,-1,2015,1646,0,0
798,-622,0,0,0,0,0,0,0,0,0,-1,2022,1646,0,0
805,-622,0,0,0,0,0,0,0,0,0,-1,2029,1646,0,0
812,-622,0,0,0,0,0,0,0,0,0,-1,2036,1646,0,0
-700,-629,0,0,0,0,0,0,0,0,0,-1,524,1653,0,0
-693,-629,0,0,0,0,0,0,0,0,0,-1,531,1653,0,0
-686,-629,0,0,0,0,0,0,0,0,0,-1,538,1653,0,0
-679,-629,0,0,0,0,0,0,0,0,0,-1,545,1653,0,0
-672,-629,0,0,0,0,0,0,0,0,0,-1,552,1653,0,0
-665,-629,0,0,0,0,0,0,0,0,0,-1,559,1653,0,0
-658,-629,0,0,0,0,0,0,0,0,0,-1,566,1653,0,0
-651,-629,0,0,0,0,0,0,0,0,0,-1,573,1653,0,0
-644,-629,0,0,0,0,0,0,0,0,0,-1,580,1653,0,0
-637,-629,0,0,0,0,0,0,0,0,0,-1,587,1653,0,0
-630,-629,0,0,0,0,0,0,0,0,0,-1,594,1653,0,0
-623,-629,0,0,0,0,0,0,0,0,0,-1,601,1653,0,0
-616,-629,0,0,0,0,0,0,0,0,0,-1,608,1653,0,0
-609,-629,0,0,0,0,0,0,0,0,0,-1,615,1653,0,0
-602,-629,0,0,0,0,0,0,0,0,0,-1,622,1653,0,0
-595,-629,0,0,0,0,0,0,0,0,0,-1,629,1653,0,0
-588,-629,0,0,0,0,0,0,0,0,0,-1,636,1653,0,0
-581,-629,0,0,0,0,0,0,0,0,0,-1,643,1653,0,0
-574,-629,0,0,0,0,0,0,0,0,0,-1,650,1653,0,0
-567,-629,0,0,0,0,0,0,0,0,0,-1,657,1653,0,0
-560,-629,0,0,0,0,0,0,0,0,0,-1,664,1653,0,0
-553,-629,0,0,0,0,0,0,0,0,0,-1,671,1653,0,0
-546,-629,0,0,0,0,0,0,0,0,0,-1,678,1653,0,0
-539,-629,0,0,0,0,0,0,0,0,0,-1,685,1653,0,0
-532,-629,0,0,0,0,0,0,0,0,0,-1,692,1653,0,0
-525,-629,0,0,0,0,0,0,0,0,0,-1,699,1653,0,0
-518,-629,0,0,0,0,0,0,0,0,0,-1,706,1653,0,0
-511,-629,0,0,0,0,0,0,0,0,0,-1,713,1653,0,0
-504,-629,0,0,0,0,0,0,0,0,0,-1,720,1653,0,0
-497,-629,0,0,0,0,0,0,0,0,0,-1,727,1653,0,0
-490,-629,0,0,0,0,0,0,0,0,0,-1,734,1653,0,0
-483,-629,0,0,0,0,0,0,0,0,0,-1,741,1653,0,0
-476,-629,0,0,0,0,0,0,0,0,0,-1,748,1653,0,0
-469,-629,0,0,0,0,0,0,0,0,0,-1,755,1653,0,0
-462,-629,0,0,0,0,0,0,0,0,0,-1,762,1653,0,0
-455,-629,0,0,0,0,0,0,0,0,0,-1,769,1653,0,0
-448,-629,0,0,0,0,0,0,0,0,0,-1,776,1653,0,0
-441,-629,0,0,0,0,0,0,0,0,0,-1,783,1653,0,0
-434,-629,0,0,0,0,0,0,0,0,0,-1,790,1653,0,0
-427,-629,0,0,0,0,0,0,0,0,0,-1,797,1653,0,0
-420,-629,-3.87103,3.37634,0,0,0,0,0,0,0,-1,804,1653,-3.87101,-3.37633
-413,-629,-5.69751,1.33582,0,0,0,0,0,0,0,-1,811,1653,-5.69754,-1.3358
-406,-629,2.85406,6.01501,0,0,0,0,0,0,0,-1,818,1653,2.85405,-6.01507
-399,-629,-0.455627,10.8687,0,0,0,0,0,0,0,-1,825,1653,-0.455625,-10.8687
-392,-629,1.15369,11.1295,0,0,0,0,0,0,0,-1,832,1653,1.1537,-11.1295
-385,-629,1.81976,11.6935,0,0,0,0,0,0,0,-1,839,1653,1.81975,-11.6935
-378,-629,2.19452,14.7941,0,0,0,0,0,0,0,-1,846,1653,2.19451,-14.7941
-371,-629,2.28833,13.5138,0,0,0,0,0,0,0,-1,853,1653,2.28832,-13.5138
-364,-629,2.41748,12.7314,0,0,0,0,0,0,0,-1,860,1653,2.41747,-12.7314
-357,-629,3.58545,14.0804,0,0,0,0,0,0,0,-1,867,1653,3.58543,-14.0805
-350,-629,3.30188,14.4757,0,0,0,0,0,0,0,-1,874,1653,3.30185,-14.4757
-343,-629,3.12341,14.5547,0.00626356,3.01035e-05,-0.000232095,0.00627219,2.14737e-05,-0.0371652,0.00417432,0.0446418,881,1653,3.12341,-14.5546
-336,-629,3.16962,14.7014,0.0060245,0.000867458,0.000208965,0.00603295,0.000859004,0.040432,0.00376841,0.0195052,888,1653,3.16964,-14.7015
-329,-629,3.20087,14.9677,0.00570488,0.00135407,0.000572003,0.00577883,0.00128013,0.12856,0.00350466,0.0118739,895,1653,3.20087,-14.9676
-322,-629,3.21185,15.2325,0.00514905,0.00179269,0.000839537,0.00534733,0.0015944,0.23193,0.00317002,0.0113186,902,1653,3.21186,-15.2325
-315,-629,3.17389,15.4985,0.00443165,0.00190177,0.00101147,0.00478633,0.0015471,0.337255,0.00282037,0.0144365,909,1653,3.1739,-15.4986
-308,-629,3.16559,15.7351,0.00371276,0.00168152,0.00101033,0.0041297,0.00126457,0.391393,0.00244325,0.0121076,916,1653,3.16559,-15.7351
-301,-629,3.18994,15.9797,0.00320505,0.00120753,0.000958103,0.0035903,0.000822282,0.382312,0.00217196,0.0111785,923,1653,3.18995,-15.9797
-294,-629,3.17334,16.2224,0.00273882,0.000497801,0.000822554,0.00300833,0.000228297,0.31662,0.00193395,0.011256,930,1653,3.17336,-16.2224
-287,-629,3.16168,16.4625,0.00228299,-0.000321118,0.000605682,0.00241697,-0.000455099,0.217701,0.00178249,0.00889225,937,1653,3.16168,-16.4625
-280,-629,3.16553,16.7106,0.00198837,-0.00123567,0.000348819,0.00202567,-0.00127298,0.106551,0.00192093,0.00937247,944,1653,3.16551,-16.7105
-273,-629,3.17108,16.9371,0.00180148,-0.00208484,0.000141684,0.00180664,-0.00209,0.0363927,0.00225171,0.0125776,951,1653,3.17106,-16.9371
-266,-629,3.16614,17.1742,0.00172078,-0.00298445,-0.000136535,0.00172474,-0.00298841,-0.0289851,0.00275355,0.0127681,958,1653,3.16614,-17.1742
-259,-629,3.17371,17.4364,0.00185364,-0.00371407,-0.000356917,0.00187642,-0.00373686,-0.063757,0.00329963,0.0135504,965,1653,3.17371,-17.4364
-252,-629,3.17871,17.63,0.00215931,-0.00431864,-0.000507654,0.00219885,-0.00435818,-0.077734,0.00385353,0.0106766,972,1653,3.17869,-17.63
-245,-629,3.19342,17.8359,0.0019513,-0.0050883,0.000101179,0.00195276,-0.00508976,0.0143689,0.0041983,0.00789102,979,1653,3.19343,-17.8359
-238,-629,3.19318,18.0577,0.0013396,-0.00571964,0.000865793,0.00144423,-0.00582427,0.120272,0.0044432,0.00996223,986,1653,3.19316,-18.0577
-231,-629,3.18207,18.2767,0.000777371,-0.00643293,0.00160859,0.00111997,-0.00677552,0.209842,0.0049329,0.0106365,993,1653,3.18209,-18.2767
-224,-629,3.23993,18.5156,-4.50118e-05,-0.00714605,0.00271468,0.000873885,-0.00806495,0.326386,0.00569034,0.011261,1000,1653,3.23993,-18.5156
-217,-629,3.22229,18.6697,-0.00115293,-0.00766274,0.00411257,0.000836941,-0.00965261,0.450644,0.00673142,0.0189575,1007,1653,3.22231,-18.6697
-210,-629,3.1712,18.9047,-0.0026928,-0.00845377,0.00575747,0.000864546,-0.0120111,0.553453,0.0083106,0.0392119,1014,1653,3.17119,-18.9047
-203,-629,3.16077,19.0995,0,0,0,0,0,0,0,-1,1021,1653,3.1608,-19.0995
-196,-629,3.61914,19.056,-0.00704337,-0.00954445,0.00899435,0.000786959,-0.0173748,0.716323,0.0118542,0.0462394,1028,1653,3.61911,-19.056
-189,-629,3.55896,19.2856,-0.00950343,-0.0100122,0.010205,0.00045032,-0.0199659,0.772937,0.0134632,0.0451429,1035,1653,3.55899,-19.2856
-182,-629,3.31433,19.6897,0,0,0,0,0,0,0,-1,1042,1653,3.31429,-19.6897
-175,-629,3.29102,19.1411,0,0,0,0,0,0,0,-1,1049,1653,3.29096,-19.1411
-168,-629,4.32947,18.1393,0,0,0,0,0,0,0,-1,1056,1653,4.32946,-18.1393
-161,-629,3.80212,18.7777,0,0,0,0,0,0,0,-1,1063,1653,3.80207,-18.7777
-154,-629,3.54968,20.4036,0,0,0,0,0,0,0,-1,1070,1653,3.54972,-20.4036
-147,-629,3.30273,19.7765,0,0,0,0,0,0,0,-1,1077,1653,3.30277,-19.7764
-140,-629,2.34851,19.2911,0,0,0,0,0,0,0,-1,1084,1653,2.34853,-19.2911
-133,-629,3.41248,17.6686,0,0,0,0,0,0,0,-1,1091,1653,3.41243,-17.6686
-126,-629,4.01025,19.5328,0,0,0,0,0,0,0,-1,1098,1653,4.01022,-19.5328
-119,-629,4.94177,13.5525,0,0,0,0,0,0,0,-1,1105,1653,4.94172,-13.5525
-112,-629,5.63123,15.9187,0,0,0,0,0,0,0,-1,1112,1653,5.63118,-15.9187
-105,-629,2.15881,4.38342,0,0,0,0,0,0,0,-1,1119,1653,2.15878,-4.38347
-98,-629,0.825806,4.19385,0,0,0,0,0,0,0,-1,1126,1653,0.825779,-4.1939
-91,-629,-0.452271,3.64465,0,0,0,0,0,0,0,-1,1133,1653,-0.452278,-3.6446
-84,-629,-2.6084,0.466797,0,0,0,0,0,0,0,-1,1140,1653,-2.6084,-0.466786
-77,-629,-3.50903,2.10706,0,0,0,0,0,0,0,-1,1147,1653,-3.509,-2.10707
-70,-629,-1.20886,2.52502,0,0,0,0,0,0,0,-1,1154,1653,-1.20886,-2.525
-63,-629,-0.960693,4.30212,0,0,0,0,0,0,0,-1,1161,1653,-0.960691,-4.30215
-56,-629,-1.31934,5.64343,0,0,0,0,0,0,0,-1,1168,1653,-1.31928,-5.6434
-49,-629,-2.15662,2.57458,0,0,0,0,0,0,0,-1,1175,1653,-2.15656,-2.57459
-42,-629,-2.46326,3.91467,0,0,0,0,0,0,0,-1,1182,1653,-2.4633,-3.91466
-35,-629,-2.67261,5.24292,0,0,0,0,0,0,0,-1,1189,1653,-2.67257,-5.24298
-28,-629,-0.402954,-0.866577,0,0,0,0,0,0,0,-1,1196,1653,-0.402943,0.866612
-21,-629,10.063,9.59705,0,0,0,0,0,0,0,-1,1203,1653,10.063,-9.59708
-14,-629,7.22485,23.7145,0,0,0,0,0,0,0,-1,1210,1653,7.22481,-23.7145
-7,-629,6.8147,24.0706,-0.0203509,0.0851889,0.0156565,0.0874625,-0.0226245,1.42659,0.0671329,0.0461828,1217,1653,6.81465,-24.0706
0,-629,6.37573,24.4182,0.00529415,0.0881821,0.0101928,0.0894171,0.00405913,1.45022,0.0583055,0.0485189,1224,1653,6.37579,-24.4182
7,-629,6.83899,23.8256,0.0270901,0.0913412,0.00597038,0.0918913,0.02654,1.47892,0.054608,0.0471946,1231,1653,6.83893,-23.8255
14,-629,6.64526,23.9778,0.0434306,0.0923594,0.00401209,0.0926863,0.0431038,1.48952,0.053556,0.0438445,1238,1653,6.64529,-23.9778
21,-629,6.51013,24.3062,0.05498,0.0940039,0.00507311,0.0946526,0.0543313,1.44361,0.0548469,0.0468448,1245,1653,6.51014,-24.3061
28,-629,6.34033,24.2231,0,0,0,0,0,0,0,-1,1252,1653,6.34031,-24.2232
35,-629,6.09558,24.2415,0.0665391,0.0926465,0.0127608,0.0978476,0.061338,1.18377,0.0570954,0.0451784,1259,1653,6.09553,-24.2415
42,-629,6.00671,24.3777,0.0673852,0.0860669,0.0186397,0.0975753,0.0558768,1.01767,0.056533,0.0465112,1266,1653,6.00676,-24.3776
49,-629,5.65259,24.0646,0,0,0,0,0,0,0,-1,1273,1653,5.65265,-24.0646
56,-629,5.22852,23.8848,0,0,0,0,0,0,0,-1,1280,1653,5.22847,-23.8848
63,-629,16.8309,24.6094,0.0663755,0.0618397,0.0437081,0.107874,0.0203407,0.759478,0.0661863,0.0451047,1287,1653,16.8309,-24.6094
70,-629,17.4724,24.4745,0.0568271,0.0559393,0.0499822,0.106367,0.00639904,0.780958,0.0688777,0.0468283,1294,1653,17.4724,-24.4744
77,-629,17.8622,24.8184,0.0443352,0.0534145,0.054177,0.103242,-0.00549198,0.827197,0.0707296,0.047436,1301,1653,17.8622,-24.8184
84,-629,7.33264,24.0632,0,0,0,0,0,0,0,-1,1308,1653,7.33267,-24.0632
91,-629,7.20154,24.2373,0.016262,0.053995,0.0549873,0.0932624,-0.0230054,0.950659,0.0710951,0.0427663,1315,1653,7.20154,-24.2373
98,-629,6.9187,24.3333,0.00234518,0.0525803,0.061028,0.0934575,-0.038532,0.98062,0.0783727,0.0439955,1322,1653,6.91874,-24.3333
105,-629,6.64648,24.5222,0,0,0,0,0,0,0,-1,1329,1653,6.64646,-24.5223
112,-629,6.4137,24.6974,0,0,0,0,0,0,0,-1,1336,1653,6.41372,-24.6973
119,-629,5.97742,24.7249,-0.0362028,0.0706957,0.0435426,0.0861869,-0.0516939,1.22899,0.0804315,0.0466659,1343,1653,5.97742,-24.7248
126,-629,5.56262,24.7212,-0.0414745,0.0807769,0.0375319,0.0913799,-0.0520774,1.29547,0.0838548,0.0443458,1350,1653,5.56262,-24.7212
133,-629,5.13159,24.7434,-0.0395353,0.093171,0.0333393,0.101076,-0.0474401,1.33799,0.0875898,0.0489468,1357,1653,5.13158,-24.7434
140,-629,4.73804,24.785,-0.0309142,0.107872,0.0325631,0.115133,-0.0381746,1.35142,0.0921545,0.0458352,1364,1653,4.73808,-24.7851
147,-629,4.4873,24.9099,-0.0200003,0.12101,0.0335033,0.128565,-0.0275557,1.34899,0.0962196,0.0490919,1371,1653,4.48733,-24.9099
154,-629,4.30908,25.0669,0,0,0,0,0,0,0,-1,1378,1653,4.30909,-25.0669
161,-629,10.5461,6.83752,0,0,0,0,0,0,0,-1,1385,1653,10.5461,-6.83758
168,-629,12.0059,5.56348,0,0,0,0,0,0,0,-1,1392,1653,12.0059,-5.56352
175,-629,5.84485,-1.78845,0,0,0,0,0,0,0,-1,1399,1653,5.84479,1.7884
182,-629,5.99036,-1.27783,0,0,0,0,0,0,0,-1,1406,1653,5.99041,1.27778
189,-629,5.97668,-0.748535,0,0,0,0,0,0,0,-1,1413,1653,5.97671,0.748544
196,-629,4.52869,9.24695,0,0,0,0,0,0,0,-1,1420,1653,4.52869,-9.2469
203,-629,3.75085,6.88037,0,0,0,0,0,0,0,-1,1427,1653,3.75087,-6.88032
210,-629,3.5907,6.52637,0,0,0,0,0,0,0,-1,1434,1653,3.59067,-6.52642
217,-629,2.4585,4.84448,0,0,0,0,0,0,0,-1,1441,1653,2.45855,-4.84448
224,-629,1.31982,3.68481,0,0,0,0,0,0,0,-1,1448,1653,1.31986,-3.68487
231,-629,3.63025,1.73499,0,0,0,0,0,0,0,-1,1455,1653,3.6303,-1.735
238,-629,4.26428,2.11255,0,0,0,0,0,0,0,-1,1462,1653,4.26429,-2.11253
245,-629,5.61816,1.95361,0,0,0,0,0,0,0,-1,1469,1653,5.61815,-1.95359
252,-629,7.27136,2.18982,0,0,0,0,0,0,0,-1,1476,1653,7.27131,-2.18985
259,-629,8.67334,2.18628,0,0,0,0,0,0,0,-1,1483,1653,8.6733,-2.18633
266,-629,6.86475,3.72058,0,0,0,0,0,0,0,-1,1490,1653,6.86479,-3.72063
273,-629,7.9021,3.8717,0,0,0,0,0,0,0,-1,1497,1653,7.90205,-3.87171
280,-629,9.70837,4.39087,0,0,0,0,0,0,0,-1,1504,1653,9.7084,-4.39082
287,-629,9.82947,7.19348,0,0,0,0,0,0,0,-1,1511,1653,9.8295,-7.19347
294,-629,6.56555,11.6359,0,0,0,0,0,0,0,-1,1518,1653,6.5656,-11.6358
301,-629,6.93835,15.6102,0,0,0,0,0,0,0,-1,1525,1653,6.93835,-15.6103
308,-629,6.08264,12.1423,0,0,0,0,0,0,0,-1,1532,1653,6.08263,-12.1423
315,-629,6.82043,18.2764,0,0,0,0,0,0,0,-1,1539,1653,6.82049,-18.2764
322,-629,7.4342,20.0653,0,0,0,0,0,0,0,-1,1546,1653,7.43426,-20.0654
329,-629,7.41614,20.0854,0.00747787,0.00625687,-0.00233837,0.00928413,0.00445062,-0.657709,0.00536171,0.0421508,1553,1653,7.41614,-20.0854
336,-629,7.4939,19.8752,0.00554195,0.00585582,-0.00151192,0.00721893,0.00417884,-0.837111,0.0041851,0.0429791,1560,1653,7.49394,-19.8753
343,-629,7.53772,19.4635,0.00397717,0.00500309,-0.00090032,0.00552633,0.00345394,-1.04434,0.00322369,0.0451084,1567,1653,7.53769,-19.4635
350,-629,7.5304,19.2958,0.00288207,0.00395786,-0.00044356,0.00411716,0.00272278,-1.22601,0.00241793,0.0270003,1574,1653,7.53038,-19.2957
357,-629,7.6051,19.1099,0.00204369,0.00279376,0.000190889,0.00283955,0.00199791,1.33539,0.00168411,0.0150763,1581,1653,7.60509,-19.1099
364,-629,7.59399,18.9377,0.00125992,0.00199148,0.000737109,0.00244858,0.000802825,1.01571,0.00144134,0.0128554,1588,1653,7.594,-18.9377
371,-629,7.58289,18.7687,0.000664151,0.00119761,0.0011905,0.00215089,-0.000289134,0.895602,0.00153939,0.0102459,1595,1653,7.58292,-18.7687
378,-629,7.55872,18.598,0.000233757,0.000546444,0.00148304,0.00188136,-0.00110116,0.837915,0.00174149,0.00952474,1602,1653,7.55866,-18.598
385,-629,7.56812,18.4197,8.7492e-06,-0.000164874,0.00164846,0.00157268,-0.00172881,0.759091,0.00190683,0.0112989,1609,1653,7.56807,-18.4197
392,-629,7.57922,18.2272,2.53058e-05,-0.000662413,0.00163673,0.00135391,-0.00199102,0.681859,0.00194283,0.0102815,1616,1653,7.57919,-18.2272
399,-629,7.58325,18.0137,0.000155206,-0.000822646,0.00146627,0.00121192,-0.00187936,0.624471,0.00179856,0.0117615,1623,1653,7.58329,-18.0137
406,-629,7.5791,17.7726,0.000346932,-0.00098325,0.00125863,0.00110539,-0.00174171,0.542334,0.0016574,0.0141938,1630,1653,7.57913,-17.7726
413,-629,7.56885,17.5483,0.000575057,-0.00126382,0.00102322,0.00103124,-0.00172001,0.419385,0.00160494,0.0207683,1637,1653,7.56883,-17.5484
420,-629,7.55615,17.3596,0.000872382,-0.00163136,0.000766323,0.00108831,-0.00184729,0.27465,0.00171365,0.0196074,1644,1653,7.55621,-17.3596
427,-629,7.58972,17.1642,0.00122798,-0.00197615,0.000484511,0.00129964,-0.00204781,0.146842,0.00194868,0.0127679,1651,1653,7.58972,-17.1642
434,-629,7.58606,16.9358,0.00158934,-0.00235943,0.000204307,0.00159988,-0.00236997,0.051556,0.00230632,0.0108643,1658,1653,7.58609,-16.9358
441,-629,7.60645,16.7273,0.00235931,-0.0024956,-0.000517387,0.00241384,-0.00255013,-0.104999,0.00286631,0.0148533,1665,1653,7.60642,-16.7273
448,-629,7.59583,16.4958,0.00348501,-0.00259096,-0.00177171,0.00396388,-0.00306984,-0.263983,0.00407184,0.0141707,1672,1653,7.59588,-16.4959
455,-629,7.5625,16.2385,0.00444497,-0.00277512,-0.00285869,0.00543977,-0.00376992,-0.334882,0.00534627,0.013861,1679,1653,7.5625,-16.2385
462,-629,7.59814,16.0349,0.00563324,-0.00283687,-0.00425715,0.0074031,-0.00460673,-0.394,0.00699625,0.0183468,1686,1653,7.59815,-16.0349
469,-629,7.59888,15.7874,0.00734587,-0.00250275,-0.00616806,0.0103142,-0.00547108,-0.448529,0.00925552,0.0219187,1693,1653,7.59888,-15.7874
476,-629,7.65662,15.5493,0.00962625,-0.00168334,-0.00859194,0.0142573,-0.00631437,-0.494356,0.0121686,0.0271217,1700,1653,7.65663,-15.5493
483,-629,8.14221,15.0144,0,0,0,0,0,0,0,-1,1707,1653,8.14219,-15.0145
490,-629,8.6051,14.7736,0.0161448,0.0014433,-0.0157993,0.0262196,-0.00863152,-0.567663,0.020958,0.0434491,1714,1653,8.60511,-14.7735
497,-629,9.07251,14.6351,0.0202463,0.00434796,-0.0203301,0.0341261,-0.00953179,-0.599034,0.0265056,0.0460675,1721,1653,9.07247,-14.6351
504,-629,9.42908,14.7189,0,0,0,0,0,0,0,-1,1728,1653,9.42903,-14.7189
511,-629,6.29138,3.40295,0,0,0,0,0,0,0,-1,1735,1653,6.29137,-3.403
518,-629,5.84387,1.41858,0,0,0,0,0,0,0,-1,1742,1653,5.84391,-1.4186
525,-629,6.4729,1.02319,0,0,0,0,0,0,0,-1,1749,1653,6.47284,-1.02316
532,-629,6.86511,0.903687,0,0,0,0,0,0,0,-1,1756,1653,6.86514,-0.903691
539,-629,6.60803,0.746704,0,0,0,0,0,0,0,-1,1763,1653,6.60809,-0.746691
546,-629,0,0,0,0,0,0,0,0,0,-1,1770,1653,0,0
553,-629,0,0,0,0,0,0,0,0,0,-1,1777,1653,0,0
560,-629,0,0,0,0,0,0,0,0,0,-1,1784,1653,0,0
567,-629,0,0,0,0,0,0,0,0,0,-1,1791,1653,0,0
574,-629,0,0,0,0,0,0,0,0,0,-1,1798,1653,0,0
581,-629,0,0,0,0,0,0,0,0,0,-1,1805,1653,0,0
588,-629,0,0,0,0,0,0,0,0,0,-1,1812,1653,0,0
595,-629,0,0,0,0,0,0,0,0,0,-1,1819,1653,0,0
602,-629,0,0,0,0,0,0,0,0,0,-1,1826,1653,0,0
609,-629,0,0,0,0,0,0,0,0,0,-1,1833,1653,0,0
616,-629,0,0,0,0,0,0,0,0,0,-1,1840,1653,0,0
623,-629,0,0,0,0,0,0,0,0,0,-1,1847,1653,0,0
630,-629,0,0,0,0,0,0,0,0,0,-1,1854,1653,0,0
637,-629,0,0,0,0,0,0,0,0,0,-1,1861,1653,0,0
644,-629,0,0,0,0,0,0,0,0,0,-1,1868,1653,0,0
651,-629,0,0,0,0,0,0,0,0,0,-1,1875,1653,0,0
658,-629,0,0,0,0,0,0,0,0,0,-1,1882,1653,0,0
665,-629,0,0,0,0,0,0,0,0,0,-1,1889,1653,0,0
672,-629,0,0,0,0,0,0,0,0,0,-1,1896,1653,0,0
679,-629,0,0,0,0,0,0,0,0,0,-1,1903,1653,0,0
686,-629,0,0,0,0,0,0,0,0,0,-1,1910,1653,0,0
693,-629,0,0,0,0,0,0,0,0,0,-1,1917,1653,0,0
700,-629,0,0,0,0,0,0,0,0,0,-1,1924,1653,0,0
707,-629,0,0,0,0,0,0,0,0,0,-1,1931,1653,0,0
714,-629,0,0,0,0,0,0,0,0,0,-1,1938,1653,0,0
721,-629,0,0,0,0,0,0,0,0,0,-1,1945,1653,0,0
728,-629,0,0,0,0,0,0,0,0,0,-1,1952,1653,0,0
735,-629,0,0,0,0,0,0,0,0,0,-1,1959,1653,0,0
742,-629,0,0,0,0,0,0,0,0,0,-1,1966,1653,0,0
749,-629,0,0,0,0,0,0,0,0,0,-1,1973,1653,0,0
756,-629,0,0,0,0,0,0,0,0,0,-1,1980,1653,0,0
763,-629,0,0,0,0,0,0,0,0,0,-1,1987,1653,0,0
770,-629,0,0,0,0,0,0,0,0,0,-1,1994,1653,0,0
777,-629,0,0,0,0,0,0,0,0,0,-1,2001,1653,0,0
784,-629,0,0,0,0,0,0,0,0,0,-1,2008,1653,0,0
791,-629,0,0,0,0,0,0,0,0,0,-1,2015,1653,0,0
798,-629,0,0,0,0,0,0,0,0,0,-1,2022,1653,0,0
805,-629,0,0,0,0,0,0,0,0,0,-1,2029,1653,0,0
812,-629,0,0,0,0,0,0,0,0,0,-1,2036,1653,0,0
-700,-636,0,0,0,0,0,0,0,0,0,-1,524,1660,0,0
-693,-636,0,0,0,0,0,0,0,0,0,-1,531,1660,0,0
-686,-636,0,0,0,0,0,0,0,0,0,-1,538,1660,0,0
-679,-636,0,0,0,0,0,0,0,0,0,-1,545,1660,0,0
-672,-636,0,0,0,0,0,0,0,0,0,-1,552,1660,0,0
-665,-636,0,0,0,0,0,0,0,0,0,-1,559,1660,0,0
-658,-636,0,0,0,0,0,0,0,0,0,-1,566,1660,0,0
-651,-636,0,0,0,0,0,0,0,0,0,-1,573,1660,0,0
-644,-636,0,0,0,0,0,0,0,0,0,-1,580,1660,0,0
-637,-636,0,0,0,0,0,0,0,0,0,-1,587,1660,0,0
-630,-636,0,0,0,0,0,0,0,0,0,-1,594,1660,0,0
-623,-636,0,0,0,0,0,0,0,0,0,-1,601,1660,0,0
-616,-636,0,0,0,0,0,0,0,0,0,-1,608,1660,0,0
-609,-636,0,0,0,0,0,0,0,0,0,-1,615,1660,0,0
-602,-636,0,0,0,0,0,0,0,0,0,-1,622,1660,0,0
-595,-636,0,0,0,0,0,0,0,0,0,-1,629,1660,0,0
-588,-636,0,0,0,0,0,0,0,0,0,-1,636,1660,0,0
-581,-636,0,0,0,0,0,0,0,0,0,-1,643,1660,0,0
-574,-636,0,0,0,0,0,0,0,0,0,-1,650,1660,0,0
-567,-636,0,0,0,0,0,0,0,0,0,-1,657,1660,0,0
-560,-636,0,0,0,0,0,0,0,0,0,-1,664,1660,0,0
-553,-636,0,0,0,0,0,0,0,0,0,-1,671,1660,0,0
-546,-636,0,0,0,0,0,0,0,0,0,-1,678,1660,0,0
-539,-636,0,0,0,0,0,0,0,0,0,-1,685,1660,0,0
-532,-636,0,0,0,0,0,0,0,0,0,-1,692,1660,0,0
-525,-636,0,0,0,0,0,0,0,0,0,-1,699,1660,0,0
-518,-636,0,0,0,0,0,0,0,0,0,-1,706,1660,0,0
-511,-636,0,0,0,0,0,0,0,0,0,-1,713,1660,0,0
-504,-636,0,0,0,0,0,0,0,0,0,-1,720,1660,0,0
-497,-636,0,0,0,0,0,0,0,0,0,-1,727,1660,0,0
-490,-636,0,0,0,0,0,0,0,0,0,-1,734,1660,0,0
-483,-636,0,0,0,0,0,0,0,0,0,-1,741,1660,0,0
-476,-636,0,0,0,0,0,0,0,0,0,-1,748,1660,0,0
-469,-636,0,0,0,0,0,0,0,0,0,-1,755,1660,0,0
-462,-636,0,0,0,0,0,0,0,0,0,-1,762,1660,0,0
-455,-636,0,0,0,0,0,0,0,0,0,-1,769,1660,0,0
-448,-636,0,0,0,0,0,0,0,0,0,-1,776,1660,0,0
-441,-636,0,0,0,0,0,0,0,0,0,-1,783,1660,0,0
-434,-636,0,0,0,0,0,0,0,0,0,-1,790,1660,0,0
-427,-636,0,0,0,0,0,0,0,0,0,-1,797,1660,0,0
-420,-636,0,0,0,0,0,0,0,0,0,-1,804,1660,0,0
-413,-636,0,0,0,0,0,0,0,0,0,-1,811,1660,0,0
-406,-636,-0.591125,10.6943,0,0,0,0,0,0,0,-1,818,1660,-0.59115,-10.6943
-399,-636,0.0766602,11.2408,0,0,0,0,0,0,0,-1,825,1660,0.076685,-11.2409
-392,-636,0.75946,11.9233,0,0,0,0,0,0,0,-1,832,1660,0.759481,-11.9233
-385,-636,1.68878,12.517,0,0,0,0,0,0,0,-1,839,1660,1.6888,-12.5169
-378,-636,2.22107,13.0013,0,0,0,0,0,0,0,-1,846,1660,2.22107,-13.0014
-371,-636,2.52185,11.9684,0,0,0,0,0,0,0,-1,853,1660,2.52184,-11.9684
-364,-636,2.94617,11.7798,0,0,0,0,0,0,0,-1,860,1660,2.94618,-11.7798
-357,-636,2.67303,13.8154,0,0,0,0,0,0,0,-1,867,1660,2.67306,-13.8155
-350,-636,2.8645,11.7958,0,0,0,0,0,0,0,-1,874,1660,2.86448,-11.7957
-343,-636,3.38867,14.6107,0,0,0,0,0,0,0,-1,881,1660,3.38868,-14.6107
-336,-636,3.37354,14.7053,0.00967865,0.00217231,3.54224e-05,0.00967882,0.00217215,0.00471886,0.00586416,0.0374884,888,1660,3.37352,-14.7053
-329,-636,3.44678,14.9806,0.00862288,0.00256151,0.00054263,0.00867107,0.00251332,0.088584,0.00515153,0.019166,895,1660,3.44677,-14.9806
-322,-636,3.4671,15.2356,0.00744417,0.00291622,0.000965335,0.00764139,0.00271901,0.201523,0.00447247,0.0111582,902,1660,3.46708,-15.2356
-315,-636,3.41858,15.4795,0.00622197,0.00293029,0.00126948,0.00665468,0.00249758,0.328506,0.0038817,0.0111496,909,1660,3.41857,-15.4795
-308,-636,3.40808,15.7349,0.00506161,0.00261496,0.0013786,0.00568139,0.00199517,0.422502,0.00332823,0.0104638,916,1660,3.40807,-15.7349
-301,-636,3.43518,16.0126,0.00418682,0.00205922,0.00136074,0.00485023,0.00139581,0.453633,0.00288314,0.0113138,923,1660,3.4352,-16.0125
-294,-636,3.41406,16.246,0.00341606,0.0013133,0.00120972,0.00396743,0.000761925,0.427657,0.00243111,0.0142256,930,1660,3.41406,-16.246
-287,-636,3.38574,16.4741,0.00273179,0.000472571,0.000991635,0.0031053,9.90641e-05,0.360223,0.00203798,0.0121925,937,1660,3.38573,-16.4741
-280,-636,3.40173,16.731,0.00224699,-0.000410937,0.000722206,0.00243055,-0.000594497,0.248895,0.00185064,0.0118137,944,1660,3.40176,-16.731
-273,-636,3.40826,16.9572,0.00188125,-0.00115627,0.000536509,0.00197323,-0.00124824,0.169786,0.00187555,0.0129338,951,1660,3.40826,-16.9572
-266,-636,3.40729,17.1826,0.00163006,-0.00190782,0.000228009,0.0016447,-0.00192246,0.0640944,0.00206158,0.0141366,958,1660,3.40729,-17.1827
-259,-636,3.41138,17.4252,0.00164592,-0.00247221,1.21632e-05,0.00164595,-0.00247224,0.00295353,0.00239354,0.01477,965,1660,3.41141,-17.4252
-252,-636,3.40735,17.6322,0.00185267,-0.00294979,-0.000154707,0.00185765,-0.00295477,-0.0321696,0.00280241,0.0111673,972,1660,3.40735,-17.6322
-245,-636,3.4126,17.851,0.00169675,-0.00348452,0.000278525,0.00171168,-0.00349945,0.0535505,0.00306709,0.01035,979,1660,3.41263,-17.8509
-238,-636,3.40869,18.0521,0.00124283,-0.00385106,0.000833276,0.00137568,-0.0039839,0.158095,0.00321417,0.0116173,986,1660,3.40868,-18.0521
-231,-636,3.40887,18.2655,0.000818424,-0.00430092,0.00136886,0.00116146,-0.00464395,0.245542,0.00354708,0.0109738,993,1660,3.40889,-18.2655
-224,-636,3.43237,18.4718,0.000225669,-0.00474597,0.00214622,0.00102399,-0.00554429,0.356107,0.00408057,0.00884558,1000,1660,3.43235,-18.4718
-217,-636,3.42804,18.6951,-0.000511961,-0.00511645,0.00310762,0.0010533,-0.00668171,0.466592,0.0048439,0.0112866,1007,1660,3.42807,-18.6951
-210,-636,3.46045,18.8809,-0.00148427,-0.00570472,0.00422302,0.00112641,-0.0083154,0.553696,0.00595469,0.0181227,1014,1660,3.46046,-18.8809
-203,-636,3.53015,19.0895,-0.00274423,-0.00608153,0.00542882,0.00126661,-0.0100924,0.636296,0.00718774,0.0244064,1021,1660,3.53011,-19.0895
-196,-636,3.64307,19.1942,-0.00416906,-0.0065873,0.00621284,0.00095122,-0.0117076,0.689291,0.00814067,0.0251741,1028,1660,3.64306,-19.1942
-189,-636,3.59778,19.4061,-0.00563328,-0.00692088,0.00684759,0.000600707,-0.0131549,0.738527,0.00897685,0.0253847,1035,1660,3.59776,-19.4061
-182,-636,3.53613,19.4585,-0.00685654,-0.00738167,0.00739021,0.000275773,-0.014514,0.767641,0.00976921,0.0374898,1042,1660,3.53616,-19.4585
-175,-636,3.55029,19.922,0,0,0,0,0,0,0,-1,1049,1660,3.55029,-19.922
-168,-636,3.74243,20.0657,0,0,0,0,0,0,0,-1,1056,1660,3.74242,-20.0656
-161,-636,3.65027,19.9384,0,0,0,0,0,0,0,-1,1063,1660,3.65023,-19.9384
-154,-636,3.82446,20.3068,0,0,0,0,0,0,0,-1,1070,1660,3.82443,-20.3068
-147,-636,3.99866,20.6753,0,0,0,0,0,0,0,-1,1077,1660,3.99864,-20.6752
-140,-636,3.31433,20.0211,0,0,0,0,0,0,0,-1,1084,1660,3.31432,-20.0212
-133,-636,4.68311,18.0922,0,0,0,0,0,0,0,-1,1091,1660,4.68316,-18.0921
-126,-636,3.79028,18.2225,0,0,0,0,0,0,0,-1,1098,1660,3.79025,-18.2226
-119,-636,1.8667,13.8916,0,0,0,0,0,0,0,-1,1105,1660,1.86668,-13.8916
-112,-636,-1.24963,9.7998,0,0,0,0,0,0,0,-1,1112,1660,-1.24968,-9.79978
-105,-636,3.51624,4.72791,0,0,0,0,0,0,0,-1,1119,1660,3.51618,-4.7279
-98,-636,1.54504,5.11914,0,0,0,0,0,0,0,-1,1126,1660,1.54503,-5.11912
-91,-636,-1.87964,-2.25012,0,0,0,0,0,0,0,-1,1133,1660,-1.87966,2.25016
-84,-636,-2.84143,0.133667,0,0,0,0,0,0,0,-1,1140,1660,-2.84144,-0.133701
-77,-636,-3.57349,2.45935,0,0,0,0,0,0,0,-1,1147,1660,-3.57345,-2.45939
-70,-636,-4.23682,4.82312,0,0,0,0,0,0,0,-1,1154,1660,-4.23681,-4.82307
-63,-636,-2.21033,6.97168,0,0,0,0,0,0,0,-1,1161,1660,-2.21034,-6.97165
-56,-636,-2.51917,8.80359,0,0,0,0,0,0,0,-1,1168,1660,-2.51916,-8.80361
-49,-636,-3.13,10.4113,0,0,0,0,0,0,0,-1,1175,1660,-3.12996,-10.4112
-42,-636,-2.27771,4.90173,0,0,0,0,0,0,0,-1,1182,1660,-2.27775,-4.90173
-35,-636,-2.27698,5.89685,0,0,0,0,0,0,0,-1,1189,1660,-2.27695,-5.89686
-28,-636,-1.70654,4.83936,0,0,0,0,0,0,0,-1,1196,1660,-1.70656,-4.8393
-21,-636,-5.18445,24.8309,0,0,0,0,0,0,0,-1,1203,1660,-5.18442,-24.831
-14,-636,6.88245,22.915,0,0,0,0,0,0,0,-1,1210,1660,6.8825,-22.9151
-7,-636,6.49438,23.2793,0.00891669,0.0630478,0.0225781,0.0712288,0.00073576,1.22317,0.0472425,0.0467709,1217,1660,6.49439,-23.2794
0,-636,6.04358,23.5876,0.0339046,0.0667611,0.020814,0.0768491,0.0238166,1.11949,0.0454251,0.0461006,1224,1660,6.04354,-23.5876
7,-636,6.26514,23.2838,0.0533743,0.0712219,0.01897,0.0832623,0.0413339,1.00525,0.0480719,0.0451209,1231,1660,6.26508,-23.2838
14,-636,6.19287,23.4856,0.06659,0.0751891,0.0181193,0.0895119,0.0522671,0.901889,0.0519218,0.0424074,1238,1660,6.1929,-23.4856
21,-636,6.31653,23.8325,0.0736078,0.0786784,0.0190168,0.0953282,0.056958,0.851667,0.0553854,0.0463849,1245,1660,6.31654,-23.8325
28,-636,5.80981,24.3729,0,0,0,0,0,0,0,-1,1252,1660,5.80979,-24.3729
35,-636,5.89709,23.4138,0.074663,0.0800987,0.0252789,0.102805,0.0519563,0.83895,0.0593559,0.0440438,1259,1660,5.89712,-23.4138
42,-636,5.96741,23.7456,0.0700798,0.075656,0.0299921,0.102989,0.0427465,0.831746,0.0597462,0.04644,1266,1660,5.96744,-23.7456
49,-636,5.7605,22.8462,0,0,0,0,0,0,0,-1,1273,1660,5.76045,-22.8462
56,-636,14.951,24.5718,0.0610067,0.063457,0.0422233,0.104473,0.0199908,0.799902,0.0640337,0.045341,1280,1660,14.951,-24.5718
63,-636,15.7122,24.3685,0.0520782,0.0563796,0.0480755,0.102353,0.00610527,0.807751,0.0662937,0.0442087,1287,1660,15.7121,-24.3686
70,-636,16.2333,24.1958,0.0397912,0.0516268,0.0519302,0.0979753,-0.00655729,0.842132,0.0676087,0.0462533,1294,1660,16.2333,-24.1958
77,-636,16.8152,24.3319,0.0266312,0.0494883,0.0536058,0.0928702,-0.0167507,0.890424,0.0681864,0.0470766,1301,1660,16.8152,-24.3319
84,-636,6.76294,24.3397,0,0,0,0,0,0,0,-1,1308,1660,6.76295,-24.3397
91,-636,6.61963,24.5172,0.00440931,0.0487281,0.050496,0.0817129,-0.0285755,0.992163,0.0660927,0.0430077,1315,1660,6.6196,-24.5173
98,-636,6.29358,24.4836,-0.00565714,0.0478622,0.0543562,0.0816886,-0.0394836,1.01413,0.0713593,0.0468353,1322,1660,6.29358,-24.4836
105,-636,6.08655,24.604,0,0,0,0,0,0,0,-1,1329,1660,6.08649,-24.604
112,-636,6.09668,23.8732,0,0,0,0,0,0,0,-1,1336,1660,6.09674,-23.8731
119,-636,5.578,24.3036,-0.0313641,0.0642826,0.0352146,0.075849,-0.0429305,1.25344,0.0694497,0.0492202,1343,1660,5.57804,-24.3036
126,-636,5.11853,24.3368,-0.0329555,0.0744165,0.0290935,0.0817929,-0.0403319,1.32249,0.0718505,0.0491296,1350,1660,5.11858,-24.3368
133,-636,4.66858,24.348,0,0,0,0,0,0,0,-1,1357,1660,4.66859,-24.348
140,-636,5.25574,21.8286,-0.0198437,0.0979794,0.0243701,0.102821,-0.0246854,1.37468,0.0780875,0.0435625,1364,1660,5.25579,-21.8286
147,-636,4.79321,24.5765,-0.0090607,0.108563,0.0258397,0.11399,-0.0144868,1.36381,0.0812537,0.0445892,1371,1660,4.79316,-24.5765
154,-636,4.61633,24.7205,0,0,0,0,0,0,0,-1,1378,1660,4.61627,-24.7204
161,-636,10.2961,7.13025,0,0,0,0,0,0,0,-1,1385,1660,10.2961,-7.13021
168,-636,11.7659,5.83899,0,0,0,0,0,0,0,-1,1392,1660,11.7658,-5.83899
175,-636,5.94592,-1.72888,0,0,0,0,0,0,0,-1,1399,1660,5.94598,1.72886
182,-636,5.93994,-1.11938,0,0,0,0,0,0,0,-1,1406,1660,5.93998,1.11936
189,-636,5.32544,11.9595,0,0,0,0,0,0,0,-1,1413,1660,5.32542,-11.9595
196,-636,5.3623,9.38025,0,0,0,0,0,0,0,-1,1420,1660,5.36225,-9.38027
203,-636,5.18542,9.02429,0,0,0,0,0,0,0,-1,1427,1660,5.18547,-9.0243
210,-636,4.09167,7.17041,0,0,0,0,0,0,0,-1,1434,1660,4.09173,-7.17041
217,-636,2.94897,5.28992,0,0,0,0,0,0,0,-1,1441,1660,2.94899,-5.28991
224,-636,1.49194,3.63916,0,0,0,0,0,0,0,-1,1448,1660,1.49197,-3.63918
231,-636,0.17749,2.24854,0,0,0,0,0,0,0,-1,1455,1660,0.177501,-2.24855
238,-636,-0.764648,1.00598,0,0,0,0,0,0,0,-1,1462,1660,-0.764704,-1.00595
245,-636,6.21204,1.18005,0,0,0,0,0,0,0,-1,1469,1660,6.21206,-1.18001
252,-636,7.70251,0.865723,0,0,0,0,0,0,0,-1,1476,1660,7.7025,-0.865692
259,-636,9.03601,0.787231,0,0,0,0,0,0,0,-1,1483,1660,9.03598,-0.787243
266,-636,10.1071,3.24109,0,0,0,0,0,0,0,-1,1490,1660,10.1071,-3.24103
273,-636,8.48535,5.02466,0,0,0,0,0,0,0,-1,1497,1660,8.48533,-5.02472
280,-636,8.81384,5.66992,0,0,0,0,0,0,0,-1,1504,1660,8.81381,-5.66998
287,-636,6.08606,11.49,0,0,0,0,0,0,0,-1,1511,1660,6.08606,-11.49
294,-636,6.69592,15.9669,0,0,0,0,0,0,0,-1,1518,1660,6.69595,-15.9669
301,-636,7.12183,20.7642,0,0,0,0,0,0,0,-1,1525,1660,7.12186,-20.7641
308,-636,7.04565,20.4882,0,0,0,0,0,0,0,-1,1532,1660,7.0456,-20.4881
315,-636,7.09253,20.3788,0,0,0,0,0,0,0,-1,1539,1660,7.09254,-20.3788
322,-636,7.25305,20.0326,0.00752341,0.00372682,-0.00167016,0.00815354,0.00309669,-0.360777,0.00475258,0.0436899,1546,1660,7.25309,-20.0326
329,-636,7.40515,19.8479,0.00608766,0.00402514,-0.00133289,0.00674165,0.00337114,-0.456148,0.0038923,0.026263,1553,1660,7.4052,-19.8478
336,-636,7.38171,19.6469,0.00458572,0.00397587,-0.000856452,0.00518991,0.00337168,-0.614378,0.00304081,0.0236218,1560,1660,7.38175,-19.6469
343,-636,7.34485,19.5325,0.00339002,0.00346365,-0.000536162,0.00396426,0.00288941,-0.819679,0.00236734,0.0224328,1567,1660,7.34488,-19.5324
350,-636,7.33765,19.3468,0.00253022,0.0028571,-0.000305147,0.00303982,0.0023475,-1.03127,0.00183972,0.0119068,1574,1660,7.33768,-19.3468
357,-636,7.37231,19.1472,0.0018518,0.00215415,5.6498e-05,0.00216436,0.00184158,1.39197,0.00134826,0.0100319,1581,1660,7.3723,-19.1472
364,-636,7.38293,18.9669,0.00120898,0.00166643,0.000376353,0.00187811,0.000997301,1.05844,0.00108502,0.0104828,1588,1660,7.38288,-18.9669
371,-636,7.37842,18.7898,0.00072675,0.00119487,0.000601369,0.00160612,0.000315496,0.970982,0.000982612,0.00898458,1595,1660,7.37836,-18.7898
378,-636,7.36804,18.5955,0.000390779,0.000761427,0.000737253,0.00133629,-0.000184085,0.908533,0.000958136,0.0089537,1602,1660,7.36802,-18.5955
385,-636,7.38306,18.4015,0.000257684,0.000260603,0.000806449,0.00106559,-0.000547307,0.786303,0.000947099,0.0138288,1609,1660,7.38305,-18.4015
392,-636,7.37744,18.2069,0.000347462,-0.000148516,0.00072105,0.000861977,-0.000663031,0.619771,0.000882958,0.0149538,1616,1660,7.37739,-18.2069
399,-636,7.3783,18.0043,0.00051315,-0.000289401,0.000528981,0.000775835,-0.000552086,0.460913,0.000770295,0.0114444,1623,1660,7.37832,-18.0043
406,-636,7.38879,17.7896,0.000754737,-0.000494754,0.000365139,0.000853617,-0.000593633,0.264458,0.000840052,0.0128393,1630,1660,7.38875,-17.7895
413,-636,7.38989,17.5544,0.0010359,-0.000861253,0.000166684,0.00105044,-0.000875787,0.0869719,0.00111363,0.02052,1637,1660,7.3899,-17.5545
420,-636,7.36536,17.3727,0.00137086,-0.00145564,-9.17309e-07,0.00137086,-0.00145564,-0.000324539,0.00163212,0.0223123,1644,1660,7.36536,-17.3727
427,-636,7.36353,17.1677,0.00177443,-0.00203105,-0.000173442,0.00178232,-0.00203894,-0.0454511,0.00220787,0.013596,1651,1660,7.36351,-17.1677
434,-636,7.35706,16.9401,0.00217758,-0.00272447,-0.000295559,0.00219533,-0.00274222,-0.0600033,0.00285652,0.0113264,1658,1660,7.35702,-16.94
441,-636,7.38538,16.7079,0.00305395,-0.00316305,-0.000911938,0.00318496,-0.00329406,-0.142681,0.00374084,0.0114042,1665,1660,7.38534,-16.7079
448,-636,7.40491,16.4816,0.00437395,-0.00360742,-0.00217511,0.00492823,-0.0041617,-0.249516,0.00525429,0.0130637,1672,1660,7.40496,-16.4815
455,-636,7.39063,16.2239,0.00556904,-0.00412019,-0.00331776,0.00659621,-0.00514736,-0.300238,0.00679733,0.014466,1679,1660,7.39065,-16.2239
462,-636,7.39526,15.9803,0.00710828,-0.00455225,-0.004839,0.00885482,-0.00629879,-0.346378,0.00879033,0.0195804,1686,1660,7.39529,-15.9804
469,-636,7.42847,15.7926,0.00933972,-0.00444149,-0.0070612,0.0123153,-0.00741704,-0.398813,0.0115089,0.0301259,1693,1660,7.42847,-15.7926
476,-636,7.48218,15.6536,0.0123507,-0.00359712,-0.0100616,0.017215,-0.00846141,-0.45032,0.0151087,0.0428336,1700,1660,7.48212,-15.6536
483,-636,7.52869,15.4745,0,0,0,0,0,0,0,-1,1707,1660,7.52872,-15.4745
490,-636,9.08679,14.4729,0,0,0,0,0,0,0,-1,1714,1660,9.08682,-14.4729
497,-636,9.71814,14.2349,0,0,0,0,0,0,0,-1,1721,1660,9.71817,-14.2349
504,-636,7.7981,13.0674,0,0,0,0,0,0,0,-1,1728,1660,7.79811,-13.0674
511,-636,5.65466,9.23218,0,0,0,0,0,0,0,-1,1735,1660,5.65461,-9.23216
518,-636,6.72791,1.07605,0,0,0,0,0,0,0,-1,1742,1660,6.7279,-1.0761
525,-636,7.04309,0.93335,0,0,0,0,0,0,0,-1,1749,1660,7.04308,-0.933298
532,-636,0,0,0,0,0,0,0,0,0,-1,1756,1660,0,0
539,-636,0,0,0,0,0,0,0,0,0,-1,1763,1660,0,0
546,-636,0,0,0,0,0,0,0,0,0,-1,1770,1660,0,0
553,-636,0,0,0,0,0,0,0,0,0,-1,1777,1660,0,0
560,-636,0,0,0,0,0,0,0,0,0,-1,1784,1660,0,0
567,-636,0,0,0,0,0,0,0,0,0,-1,1791,1660,0,0
574,-636,0,0,0,0,0,0,0,0,0,-1,1798,1660,0,0
581,-636,0,0,0,0,0,0,0,0,0,-1,1805,1660,0,0
588,-636,0,0,0,0,0,0,0,0,0,-1,1812,1660,0,0
595,-636,0,0,0,0,0,0,0,0,0,-1,1819,1660,0,0
602,-636,0,0,0,0,0,0,0,0,0,-1,1826,1660,0,0
609,-636,0,0,0,0,0,0,0,0,0,-1,1833,1660,0,0
616,-636,0,0,0,0,0,0,0,0,0,-1,1840,1660,0,0
623,-636,0,0,0,0,0,0,0,0,0,-1,1847,1660,0,0
630,-636,0,0,0,0,0,0,0,0,0,-1,1854,1660,0,0
637,-636,0,0,0,0,0,0,0,0,0,-1,1861,1660,0,0
644,-636,0,0,0,0,0,0,0,0,0,-1,1868,1660,0,0
651,-636,0,0,0,0,0,0,0,0,0,-1,1875,1660,0,0
658,-636,0,0,0,0,0,0,0,0,0,-1,1882,1660,0,0
665,-636,0,0,0,0,0,0,0,0,0,-1,1889,1660,0,0
672,-636,0,0,0,0,0,0,0,0,0,-1,1896,1660,0,0
679,-636,0,0,0,0,0,0,0,0,0,-1,1903,1660,0,0
686,-636,0,0,0,0,0,0,0,0,0,-1,1910,1660,0,0
693,-636,0,0,0,0,0,0,0,0,0,-1,1917,1660,0,0
700,-636,0,0,0,0,0,0,0,0,0,-1,1924,1660,0,0
707,-636,0,0,0,0,0,0,0,0,0,-1,1931,1660,0,0
714,-636,0,0,0,0,0,0,0,0,0,-1,1938,1660,0,0
721,-636,0,0,0,0,0,0,0,0,0,-1,1945,1660,0,0
728,-636,0,0,0,0,0,0,0,0,0,-1,1952,1660,0,0
735,-636,0,0,0,0,0,0,0,0,0,-1,1959,1660,0,0
742,-636,0,0,0,0,0,0,0,0,0,-1,1966,1660,0,0
749,-636,0,0,0,0,0,0,0,0,0,-1,1973,1660,0,0
756,-636,0,0,0,0,0,0,0,0,0,-1,1980,1660,0,0
763,-636,0,0,0,0,0,0,0,0,0,-1,1987,1660,0,0
770,-636,0,0,0,0,0,0,0,0,0,-1,1994,1660,0,0
777,-636,0,0,0,0,0,0,0,0,0,-1,2001,1660,0,0
784,-636,0,0,0,0,0,0,0,0,0,-1,2008,1660,0,0
791,-636,0,0,0,0,0,0,0,0,0,-1,2015,1660,0,0
798,-636,0,0,0,0,0,0,0,0,0,-1,2022,1660,0,0
805,-636,0,0,0,0,0,0,0,0,0,-1,2029,1660,0,0
812,-636,0,0,0,0,0,0,0,0,0,-1,2036,1660,0,0
-700,-643,0,0,0,0,0,0,0,0,0,-1,524,1667,0,0
-693,-643,0,0,0,0,0,0,0,0,0,-1,531,1667,0,0
-686,-643,0,0,0,0,0,0,0,0,0,-1,538,1667,0,0
-679,-643,0,0,0,0,0,0,0,0,0,-1,545,1667,0,0
-672,-643,0,0,0,0,0,0,0,0,0,-1,552,1667,0,0
-665,-643,0,0,0,0,0,0,0,0,0,-1,559,1667,0,0
-658,-643,0,0,0,0,0,0,0,0,0,-1,566,1667,0,0
-651,-643,0,0,0,0,0,0,0,0,0,-1,573,1667,0,0
-644,-643,0,0,0,0,0,0,0,0,0,-1,580,1667,0,0
-637,-643,0,0,0,0,0,0,0,0,0,-1,587,1667,0,0
-630,-643,0,0,0,0,0,0,0,0,0,-1,594,1667,0,0
-623,-643,0,0,0,0,0,0,0,0,0,-1,601,1667,0,0
-616,-643,0,0,0,0,0,0,0,0,0,-1,608,1667,0,0
-609,-643,0,0,0,0,0,0,0,0,0,-1,615,1667,0,0
-602,-643,0,0,0,0,0,0,0,0,0,-1,622,1667,0,0
-595,-643,0,0,0,0,0,0,0,0,0,-1,629,1667,0,0
-588,-643,0,0,0,0,0,0,0,0,0,-1,636,1667,0,0
-581,-643,0,0,0,0,0,0,0,0,0,-1,643,1667,0,0
-574,-643,0,0,0,0,0,0,0,0,0,-1,650,1667,0,0
-567,-643,0,0,0,0,0,0,0,0,0,-1,657,1667,0,0
-560,-643,0,0,0,0,0,0,0,0,0,-1,664,1667,0,0
-553,-643,0,0,0,0,0,0,0,0,0,-1,671,1667,0,0
-546,-643,0,0,0,0,0,0,0,0,0,-1,678,1667,0,0
-539,-643,0,0,0,0,0,0,0,0,0,-1,685,1667,0,0
-532,-643,0,0,0,0,0,0,0,0,0,-1,692,1667,0,0
-525,-643,0,0,0,0,0,0,0,0,0,-1,699,1667,0,0
-518,-643,0,0,0,0,0,0,0,0,0,-1,706,1667,0,0
-511,-643,0,0,0,0,0,0,0,0,0,-1,713,1667,0,0
-504,-643,0,0,0,0,0,0,0,0,0,-1,720,1667,0,0
-497,-643,0,0,0,0,0,0,0,0,0,-1,727,1667,0,0
-490,-643,0,0,0,0,0,0,0,0,0,-1,734,1667,0,0
-483,-643,0,0,0,0,0,0,0,0,0,-1,741,1667,0,0
-476,-643,0,0,0,0,0,0,0,0,0,-1,748,1667,0,0
-469,-643,0,0,0,0,0,0,0,0,0,-1,755,1667,0,0
-462,-643,0,0,0,0,0,0,0,0,0,-1,762,1667,0,0
-455,-643,0,0,0,0,0,0,0,0,0,-1,769,1667,0,0
-448,-643,0,0,0,0,0,0,0,0,0,-1,776,1667,0,0
-441,-643,0,0,0,0,0,0,0,0,0,-1,783,1667,0,0
-434,-643,0,0,0,0,0,0,0,0,0,-1,790,1667,0,0
-427,-643,0,0,0,0,0,0,0,0,0,-1,797,1667,0,0
-420,-643,0,0,0,0,0,0,0,0,0,-1,804,1667,0,0
-413,-643,0,0,0,0,0,0,0,0,0,-1,811,1667,0,0
-406,-643,0,0,0,0,0,0,0,0,0,-1,818,1667,0,0
-399,-643,0.589417,11.6465,0,0,0,0,0,0,0,-1,825,1667,0.58939,-11.6465
-392,-643,0.865295,12.6523,0,0,0,0,0,0,0,-1,832,1667,0.865315,-12.6523
-385,-643,1.72968,13.2692,0,0,0,0,0,0,0,-1,839,1667,1.72967,-13.2692
-378,-643,2.66522,13.8193,0,0,0,0,0,0,0,-1,846,1667,2.66524,-13.8193
-371,-643,0.5849,3.26428,0,0,0,0,0,0,0,-1,853,1667,0.584909,-3.26426
-364,-643,1.69513,9.922,0,0,0,0,0,0,0,-1,860,1667,1.69511,-9.92205
-357,-643,1.14227,10.8429,0,0,0,0,0,0,0,-1,867,1667,1.14228,-10.8429
-350,-643,2.50061,9.96948,0,0,0,0,0,0,0,-1,874,1667,2.50059,-9.96954
-343,-643,2.61505,6.17407,0,0,0,0,0,0,0,-1,881,1667,2.61504,-6.17412
-336,-643,3.78369,14.7888,0,0,0,0,0,0,0,-1,888,1667,3.78368,-14.7888
-329,-643,3.7901,15.0382,0.01282,0.0044514,0.000584692,0.0128606,0.00441075,0.069418,0.00754618,0.0396801,895,1667,3.79013,-15.0383
-322,-643,3.71906,15.2942,0.0106214,0.00442974,0.0011887,0.0108418,0.00420937,0.183305,0.00631138,0.0249941,902,1667,3.71907,-15.2942
-315,-643,3.6524,15.5115,0.00858988,0.00423432,0.0016734,0.00915856,0.00366565,0.327586,0.00532266,0.0153513,909,1667,3.65243,-15.5114
-308,-643,3.67743,15.7428,0.00674563,0.00370807,0.00191758,0.00767303,0.00278066,0.450467,0.0044856,0.0116325,916,1667,3.67742,-15.7428
-301,-643,3.67786,15.9969,0.00532583,0.00296493,0.00194946,0.00642439,0.00186638,0.513162,0.00381609,0.0139486,923,1667,3.67787,-15.9969
-294,-643,3.65295,16.2299,0.00409095,0.00209761,0.00175721,0.00511446,0.00107409,0.527426,0.00311398,0.0133847,930,1667,3.65296,-16.2298
-287,-643,3.64032,16.47,0.00305008,0.00117172,0.00150076,0.0038813,0.000340496,0.50581,0.00248184,0.0107976,937,1667,3.64032,-16.4699
-280,-643,3.63617,16.728,0.0022802,0.000258377,0.00118516,0.00282702,-0.000288446,0.432288,0.00198782,0.0139897,944,1667,3.63614,-16.728
-273,-643,3.63239,16.9589,0.00167392,-0.00044619,0.000978774,0.00205668,-0.000828951,0.372777,0.00171555,0.0122464,951,1667,3.63237,-16.9589
-266,-643,3.62799,17.1761,0.00122264,-0.00111638,0.000589063,0.00136261,-0.00125635,0.233295,0.00151247,0.0124431,958,1667,3.62802,-17.1761
-259,-643,3.63568,17.4016,0.00111769,-0.00159283,0.000315667,0.00115397,-0.00162911,0.11442,0.0016146,0.0122537,965,1667,3.63569,-17.4016
-252,-643,3.64008,17.6315,0.00124924,-0.00202713,7.29769e-05,0.00125087,-0.00202876,0.022259,0.00191116,0.0129784,972,1667,3.64005,-17.6315
-245,-643,3.62817,17.8499,0.00117621,-0.002406,0.000306387,0.00120223,-0.00243202,0.0847103,0.0021379,0.0119968,979,1667,3.6282,-17.8498
-238,-643,3.64026,18.0331,0.000905119,-0.00259067,0.000663444,0.0010268,-0.00271234,0.181385,0.00223071,0.014823,986,1667,3.64024,-18.0331
-231,-643,3.62695,18.2456,0.000653365,-0.00286385,0.0010277,0.000931636,-0.00314212,0.264429,0.0024647,0.0113043,993,1667,3.62695,-18.2456
-224,-643,3.63599,18.4509,0.000314509,-0.0030961,0.00157046,0.000927478,-0.00370907,0.372127,0.00283294,0.00969645,1000,1667,3.636,-18.4509
-217,-643,3.63403,18.6285,-0.000103238,-0.0033682,0.00222118,0.00102085,-0.00449229,0.468495,0.00338682,0.00887375,1007,1667,3.63403,-18.6286
-210,-643,3.65704,18.8394,-0.000662863,-0.00380915,0.00297913,0.00113297,-0.00560498,0.542479,0.00416598,0.0115627,1014,1667,3.65703,-18.8394
-203,-643,3.67395,19.068,-0.00141046,-0.00409378,0.00374645,0.00122732,-0.00673156,0.613456,0.00494782,0.0132872,1021,1667,3.67397,-19.068
-196,-643,3.67749,19.2756,-0.00222738,-0.00449707,0.00420027,0.000988653,-0.0077131,0.653456,0.00550131,0.0128466,1028,1667,3.67746,-19.2756
-189,-643,3.73486,19.462,-0.00307822,-0.00473758,0.00450306,0.000670955,-0.00848676,0.694296,0.00589423,0.0129103,1035,1667,3.73492,-19.462
-182,-643,3.74377,19.5883,-0.00381235,-0.00498977,0.00467937,0.000315193,-0.00911732,0.722822,0.00618595,0.0204114,1042,1667,3.74378,-19.5883
-175,-643,3.74194,19.8022,-0.0044344,-0.00511886,0.00464824,-0.000115815,-0.00943745,0.748652,0.00625339,0.0359118,1049,1667,3.742,-19.8023
-168,-643,3.82751,19.9944,-0.00457932,-0.00511669,0.00442685,-0.000413002,-0.009283,0.755088,0.0060557,0.0435966,1056,1667,3.82754,-19.9943
-161,-643,3.86707,20.0023,-0.00434306,-0.00474423,0.00408292,-0.000455794,-0.00863149,0.760854,0.00560857,0.0475658,1063,1667,3.86706,-20.0023
-154,-643,3.7605,20.2667,-0.00384823,-0.00444347,0.00353019,-0.000603133,-0.00768857,0.743344,0.00493696,0.0457627,1070,1667,3.76047,-20.2668
-147,-643,3.71533,20.4246,0,0,0,0,0,0,0,-1,1077,1667,3.71537,-20.4245
-140,-643,3.88245,18.9919,0,0,0,0,0,0,0,-1,1084,1667,3.88244,-18.992
-133,-643,3.66748,21.6034,0,0,0,0,0,0,0,-1,1091,1667,3.66743,-21.6034
-126,-643,3.13904,17.689,0,0,0,0,0,0,0,-1,1098,1667,3.13909,-17.689
-119,-643,3.76282,14.1458,0,0,0,0,0,0,0,-1,1105,1667,3.76283,-14.1458
-112,-643,3.81458,16.2069,0,0,0,0,0,0,0,-1,1112,1667,3.81463,-16.2069
-105,-643,-2.23413,10.0996,0,0,0,0,0,0,0,-1,1119,1667,-2.23415,-10.0996
-98,-643,3.11035,4.68066,0,0,0,0,0,0,0,-1,1126,1667,3.11041,-4.68071
-91,-643,-1.74146,-2.5885,0,0,0,0,0,0,0,-1,1133,1667,-1.74146,2.58856
-84,-643,-3.07446,-0.199341,0,0,0,0,0,0,0,-1,1140,1667,-3.07449,0.199383
-77,-643,-3.63794,2.81165,0,0,0,0,0,0,0,-1,1147,1667,-3.63791,-2.8117
-70,-643,-3.36938,4.45203,0,0,0,0,0,0,0,-1,1154,1667,-3.36941,-4.452
-63,-643,-3.67822,6.26855,0,0,0,0,0,0,0,-1,1161,1667,-3.67823,-6.26856
-56,-643,-3.95142,8.1073,0,0,0,0,0,0,0,-1,1168,1667,-3.95139,-8.10732
-49,-643,-4.23535,9.90552,0,0,0,0,0,0,0,-1,1175,1667,-4.23537,-9.90557
-42,-643,-4.25195,10.7059,0,0,0,0,0,0,0,-1,1182,1667,-4.25192,-10.706
-35,-643,-4.10986,11.6588,0,0,0,0,0,0,0,-1,1189,1667,-4.10982,-11.6589
-28,-643,-1.38513,5.604,0,0,0,0,0,0,0,-1,1196,1667,-1.3851,-5.60403
-21,-643,3.06104,8.47974,0,0,0,0,0,0,0,-1,1203,1667,3.06103,-8.47978
-14,-643,6.82349,22.4829,0,0,0,0,0,0,0,-1,1210,1667,6.82345,-22.4829
-7,-643,6.32617,22.4749,0.0264713,0.0470041,0.0252073,0.0639554,0.00951993,0.978781,0.0398446,0.049694,1217,1667,6.32621,-22.4748
0,-643,5.91858,22.6271,0.0488502,0.0507859,0.0263897,0.0762255,0.0234107,0.803727,0.0450871,0.0425312,1224,1667,5.91862,-22.627
7,-643,5.69031,22.7378,0.0658393,0.0556988,0.0268251,0.0880691,0.033469,0.691995,0.0513323,0.0401293,1231,1667,5.69028,-22.7378
14,-643,5.37476,22.9326,0.0761715,0.0609562,0.0272171,0.0968242,0.0403036,0.649118,0.0561623,0.0432308,1238,1667,5.37481,-22.9326
21,-643,10.2129,23.8896,0.0798338,0.0652112,0.0283023,0.101754,0.043291,0.658997,0.0589649,0.0473587,1245,1667,10.2129,-23.8896
28,-643,11.3485,23.9491,0.0782031,0.0668712,0.0309379,0.10399,0.0410848,0.694832,0.0604774,0.0470169,1252,1667,11.3485,-23.9491
35,-643,11.6639,25.1456,0,0,0,0,0,0,0,-1,1259,1667,11.664,-25.1456
42,-643,12.3369,24.8192,0.0660838,0.0650321,0.0370268,0.102588,0.0285275,0.778298,0.0611433,0.046484,1266,1667,12.3369,-24.8192
49,-643,12.9446,24.4421,0.0593058,0.0600606,0.040451,0.100136,0.0192305,0.790063,0.06136,0.0492251,1273,1667,12.9446,-24.4422
56,-643,13.8,24.2339,0.0503591,0.0555242,0.0451973,0.0982127,0.00767068,0.813937,0.0630739,0.0464336,1280,1667,13.8,-24.2339
63,-643,14.5237,24.0435,0.0396081,0.0496982,0.0484464,0.0933615,-0.00405522,0.83728,0.0636358,0.045076,1287,1667,14.5237,-24.0435
70,-643,15.3115,23.9034,0.0266854,0.0457928,0.0503136,0.0874517,-0.0149736,0.879223,0.06388,0.0469754,1294,1667,15.3115,-23.9035
77,-643,16.1598,23.6876,0,0,0,0,0,0,0,-1,1301,1667,16.1598,-23.6877
84,-643,7.58557,21.1967,0,0,0,0,0,0,0,-1,1308,1667,7.58553,-21.1967
91,-643,5.99768,24.7902,0,0,0,0,0,0,0,-1,1315,1667,5.99771,-24.7901
98,-643,5.62207,24.6117,0,0,0,0,0,0,0,-1,1322,1667,5.6221,-24.6117
105,-643,5.89587,23.8174,0,0,0,0,0,0,0,-1,1329,1667,5.89584,-23.8174
112,-643,5.53418,23.7192,0,0,0,0,0,0,0,-1,1336,1667,5.53419,-23.7192
119,-643,5.04626,23.8412,0,0,0,0,0,0,0,-1,1343,1667,5.04625,-23.8412
126,-643,4.65405,23.9845,-0.0255828,0.0660947,0.0209874,0.0706709,-0.030159,1.35611,0.0597599,0.0481574,1350,1667,4.65408,-23.9845
133,-643,4.55835,22.0796,-0.0204384,0.0756129,0.0172894,0.0786303,-0.0234557,1.39802,0.0617422,0.046025,1357,1667,4.55831,-22.0796
140,-643,4.63538,21.8345,-0.0121352,0.0850255,0.0174294,0.0880575,-0.0151672,1.39856,0.0643592,0.0437794,1364,1667,4.63535,-21.8345
147,-643,4.70032,21.5999,-0.00388473,0.0927245,0.0197824,0.0966183,-0.00777857,1.37645,0.0671554,0.0431841,1371,1667,4.70027,-21.5998
154,-643,4.78735,21.2819,0,0,0,0,0,0,0,-1,1378,1667,4.78729,-21.2818
161,-643,18.7611,11.0951,0,0,0,0,0,0,0,-1,1385,1667,18.7611,-11.0951
168,-643,10.5563,10.9818,0,0,0,0,0,0,0,-1,1392,1667,10.5562,-10.9819
175,-643,5.88525,-1.1698,0,0,0,0,0,0,0,-1,1399,1667,5.88526,1.16977
182,-643,5.80945,-0.418701,0,0,0,0,0,0,0,-1,1406,1667,5.80949,0.418712
189,-643,5.42297,12.9208,0,0,0,0,0,0,0,-1,1413,1667,5.42298,-12.9208
196,-643,5.51953,11.2415,0,0,0,0,0,0,0,-1,1420,1667,5.51948,-11.2414
203,-643,5.60828,9.82153,0,0,0,0,0,0,0,-1,1427,1667,5.60833,-9.82148
210,-643,4.73218,7.58728,0,0,0,0,0,0,0,-1,1434,1667,4.73222,-7.58728
217,-643,3.8031,5.28955,0,0,0,0,0,0,0,-1,1441,1667,3.80305,-5.28955
224,-643,2.96436,2.97095,0,0,0,0,0,0,0,-1,1448,1667,2.96432,-2.97095
231,-643,2.13403,1.08472,0,0,0,0,0,0,0,-1,1455,1667,2.13403,-1.08467
238,-643,1.18152,-0.261963,0,0,0,0,0,0,0,-1,1462,1667,1.18152,0.26192
245,-643,-0.157471,-1.79016,0,0,0,0,0,0,0,-1,1469,1667,-0.157517,1.7901
252,-643,8.08789,0.0202637,0,0,0,0,0,0,0,-1,1476,1667,8.08791,-0.0203056
259,-643,9.02979,-0.46936,0,0,0,0,0,0,0,-1,1483,1667,9.02974,0.46933
266,-643,4.55066,5.17554,0,0,0,0,0,0,0,-1,1490,1667,4.55063,-5.17556
273,-643,4.34363,6.56836,0,0,0,0,0,0,0,-1,1497,1667,4.34363,-6.5684
280,-643,5.75854,14.5217,0,0,0,0,0,0,0,-1,1504,1667,5.75854,-14.5218
287,-643,6.81299,21.0212,0,0,0,0,0,0,0,-1,1511,1667,6.81297,-21.0212
294,-643,7.18835,20.6803,0,0,0,0,0,0,0,-1,1518,1667,7.18839,-20.6803
301,-643,7.07458,20.47,0,0,0,0,0,0,0,-1,1525,1667,7.07462,-20.4699
308,-643,6.97632,20.2402,0.00874837,0.000464104,-0.00065804,0.00880031,0.00041216,-0.0787743,0.00573443,0.042157,1532,1667,6.97627,-20.2402
315,-643,7.0708,20.1471,0.00724784,0.00145368,-0.000818325,0.0073612,0.00134032,-0.137647,0.00452731,0.0378877,1539,1667,7.07075,-20.147
322,-643,7.11487,20.0101,0.00596352,0.00217139,-0.000894699,0.00616401,0.0019709,-0.220446,0.00363506,0.0174997,1546,1667,7.11485,-20.0101
329,-643,7.12671,19.8375,0.00480982,0.0026052,-0.000711862,0.0050197,0.00239532,-0.286706,0.00289913,0.0106283,1553,1667,7.12668,-19.8376
336,-643,7.11084,19.698,0.00363066,0.0027071,-0.000430393,0.00380014,0.00253763,-0.375114,0.0022348,0.010871,1560,1667,7.11086,-19.6979
343,-643,7.1123,19.5547,0.00272119,0.00245528,-0.000320049,0.0029348,0.00224167,-0.588531,0.00177129,0.0128539,1567,1667,7.11232,-19.5547
350,-643,7.14587,19.3748,0.00206473,0.00209831,-0.000249941,0.00233202,0.00183102,-0.818933,0.00141751,0.0125018,1574,1667,7.14587,-19.3747
357,-643,7.17407,19.1827,0.00154874,0.00171464,-0.000112322,0.00177132,0.00149206,-1.10344,0.00109968,0.0108899,1581,1667,7.1741,-19.1827
364,-643,7.17688,18.9791,0.00105745,0.00144864,1.99636e-06,0.00144865,0.00105744,1.56569,0.000865359,0.00974493,1588,1667,7.17689,-18.9791
371,-643,7.18201,18.8031,0.000704178,0.00115293,4.48457e-05,0.00115737,0.00069974,1.47216,0.000673062,0.00799021,1595,1667,7.18203,-18.8031
378,-643,7.18506,18.6112,0.000468633,0.000858428,3.92623e-05,0.000862343,0.000464717,1.4714,0.000498376,0.00958506,1602,1667,7.18503,-18.6112
385,-643,7.1864,18.4147,0.000427947,0.000507975,6.91461e-06,0.000508568,0.000427354,1.48524,0.000315478,0.0158071,1609,1667,7.18645,-18.4146
392,-643,7.17029,18.2145,0.000603171,0.000150206,-0.000153295,0.000650173,0.000103204,-0.29751,0.000403471,0.0168995,1616,1667,7.17026,-18.2145
399,-643,7.16443,18.0145,0.000824426,1.9156e-06,-0.000368593,0.000965431,-0.000139089,-0.365373,0.000694641,0.0136872,1623,1667,7.16438,-18.0145
406,-643,7.17993,17.7922,0.00113702,-0.000266047,-0.000491433,0.00129202,-0.00042105,-0.305535,0.00103077,0.0116078,1630,1667,7.17989,-17.7922
413,-643,7.1925,17.5797,0.00149635,-0.000728412,-0.000650522,0.0016726,-0.000904662,-0.264584,0.00150984,0.0179054,1637,1667,7.19248,-17.5797
420,-643,7.16699,17.3969,0.0018928,-0.001556,-0.000725142,0.00203906,-0.00170227,-0.199034,0.00216298,0.0182976,1644,1667,7.16697,-17.3968
427,-643,7.15747,17.1858,0.00236705,-0.00237654,-0.000773281,0.00248992,-0.00249941,-0.157582,0.0028806,0.0153944,1651,1667,7.15746,-17.1858
434,-643,7.17175,16.953,0.00284543,-0.00341579,-0.000696217,0.00292191,-0.00349227,-0.109414,0.00370811,0.0159464,1658,1667,7.1717,-16.953
441,-643,7.18164,16.7202,0.00386687,-0.00425415,-0.00113813,0.00402336,-0.00441064,-0.13664,0.00487108,0.0147938,1665,1667,7.18162,-16.7203
448,-643,7.15515,16.4735,0.0054342,-0.00511971,-0.00239794,0.00595348,-0.00563899,-0.21326,0.00669374,0.0180561,1672,1667,7.1552,-16.4735
455,-643,7.22375,16.3047,0.00692966,-0.00606274,-0.00360124,0.00786108,-0.00699416,-0.253093,0.00858154,0.0291543,1679,1667,7.22376,-16.3047
462,-643,7.28491,16.1938,0.00883072,-0.00696272,-0.00525776,0.010421,-0.00855295,-0.293707,0.0109723,0.0394234,1686,1667,7.28496,-16.1939
469,-643,7.26404,16.2299,0.011659,-0.00716435,-0.00786103,0.0145101,-0.0100154,-0.347932,0.0142389,0.0410103,1693,1667,7.264,-16.2298
476,-643,7.32739,15.7151,0,0,0,0,0,0,0,-1,1700,1667,7.32739,-15.7151
483,-643,8.43762,13.674,0,0,0,0,0,0,0,-1,1707,1667,8.43761,-13.674
490,-643,8.14941,13.4279,0,0,0,0,0,0,0,-1,1714,1667,8.14939,-13.4279
497,-643,7.80823,12.6035,0,0,0,0,0,0,0,-1,1721,1667,7.80828,-12.6035
504,-643,7.73755,12.0018,0,0,0,0,0,0,0,-1,1728,1667,7.73755,-12.0018
511,-643,4.22314,10.5032,0,0,0,0,0,0,0,-1,1735,1667,4.22314,-10.5032
518,-643,7.40564,0.922607,0,0,0,0,0,0,0,-1,1742,1667,7.4057,-0.922598
525,-643,0,0,0,0,0,0,0,0,0,-1,1749,1667,0,0
532,-643,0,0,0,0,0,0,0,0,0,-1,1756,1667,0,0
539,-643,0,0,0,0,0,0,0,0,0,-1,1763,1667,0,0
546,-643,0,0,0,0,0,0,0,0,0,-1,1770,1667,0,0
553,-643,0,0,0,0,0,0,0,0,0,-1,1777,1667,0,0
560,-643,0,0,0,0,0,0,0,0,0,-1,1784,1667,0,0
567,-643,0,0,0,0,0,0,0,0,0,-1,1791,1667,0,0
574,-643,0,0,0,0,0,0,0,0,0,-1,1798,1667,0,0
581,-643,0,0,0,0,0,0,0,0,0,-1,1805,1667,0,0
588,-643,0,0,0,0,0,0,0,0,0,-1,1812,1667,0,0
595,-643,0,0,0,0,0,0,0,0,0,-1,1819,1667,0,0
602,-643,0,0,0,0,0,0,0,0,0,-1,1826,1667,0,0
609,-643,0,0,0,0,0,0,0,0,0,-1,1833,1667,0,0
616,-643,0,0,0,0,0,0,0,0,0,-1,1840,1667,0,0
623,-643,0,0,0,0,0,0,0,0,0,-1,1847,1667,0,0
630,-643,0,0,0,0,0,0,0,0,0,-1,1854,1667,0,0
637,-643,0,0,0,0,0,0,0,0,0,-1,1861,1667,0,0
644,-643,0,0,0,0,0,0,0,0,0,-1,1868,1667,0,0
651,-643,0,0,0,0,0,0,0,0,0,-1,1875,1667,0,0
658,-643,0,0,0,0,0,0,0,0,0,-1,1882,1667,0,0
665,-643,0,0,0,0,0,0,0,0,0,-1,1889,1667,0,0
672,-643,0,0,0,0,0,0,0,0,0,-1,1896,1667,0,0
679,-643,0,0,0,0,0,0,0,0,0,-1,1903,1667,0,0
686,-643,0,0,0,0,0,0,0,0,0,-1,1910,1667,0,0
693,-643,0,0,0,0,0,0,0,0,0,-1,1917,1667,0,0
700,-643,0,0,0,0,0,0,0,0,0,-1,1924,1667,0,0
707,-643,0,0,0,0,0,0,0,0,0,-1,1931,1667,0,0
714,-643,0,0,0,0,0,0,0,0,0,-1,1938,1667,0,0
721,-643,0,0,0,0,0,0,0,0,0,-1,1945,1667,0,0
728,-643,0,0,0,0,0,0,0,0,0,-1,1952,1667,0,0
735,-643,0,0,0,0,0,0,0,0,0,-1,1959,1667,0,0
742,-643,0,0,0,0,0,0,0,0,0,-1,1966,1667,0,0
749,-643,0,0,0,0,0,0,0,0,0,-1,1973,1667,0,0
756,-643,0,0,0,0,0,0,0,0,0,-1,1980,1667,0,0
763,-643,0,0,0,0,0,0,0,0,0,-1,1987,1667,0,0
770,-643,0,0,0,0,0,0,0,0,0,-1,1994,1667,0,0
777,-643,0,0,0,0,0,0,0,0,0,-1,2001,1667,0,0
784,-643,0,0,0,0,0,0,0,0,0,-1,2008,1667,0,0
791,-643,0,0,0,0,0,0,0,0,0,-1,2015,1667,0,0
798,-643,0,0,0,0,0,0,0,0,0,-1,2022,1667,0,0
805,-643,0,0,0,0,0,0,0,0,0,-1,2029,1667,0,0
812,-643,0,0,0,0,0,0,0,0,0,-1,2036,1667,0,0
-700,-650,0,0,0,0,0,0,0,0,0,-1,524,1674,0,0
-693,-650,0,0,0,0,0,0,0,0,0,-1,531,1674,0,0
-686,-650,0,0,0,0,0,0,0,0,0,-1,538,1674,0,0
-679,-650,0,0,0,0,0,0,0,0,0,-1,545,1674,0,0
-672,-650,0,0,0,0,0,0,0,0,0,-1,552,1674,0,0
-665,-650,0,0,0,0,0,0,0,0,0,-1,559,1674,0,0
-658,-650,0,0,0,0,0,0,0,0,0,-1,566,1674,0,0
-651,-650,0,0,0,0,0,0,0,0,0,-1,573,1674,0,0
-644,-650,0,0,0,0,0,0,0,0,0,-1,580,1674,0,0
-637,-650,0,0,0,0,0,0,0,0,0,-1,587,1674,0,0
-630,-650,0,0,0,0,0,0,0,0,0,-1,594,1674,0,0
-623,-650,0,0,0,0,0,0,0,0,0,-1,601,1674,0,0
-616,-650,0,0,0,0,0,0,0,0,0,-1,608,1674,0,0
-609,-650,0,0,0,0,0,0,0,0,0,-1,615,1674,0,0
-602,-650,0,0,0,0,0,0,0,0,0,-1,622,1674,0,0
-595,-650,0,0,0,0,0,0,0,0,0,-1,629,1674,0,0
-588,-650,0,0,0,0,0,0,0,0,0,-1,636,1674,0,0
-581,-650,0,0,0,0,0,0,0,0,0,-1,643,1674,0,0
-574,-650,0,0,0,0,0,0,0,0,0,-1,650,1674,0,0
-567,-650,0,0,0,0,0,0,0,0,0,-1,657,1674,0,0
-560,-650,0,0,0,0,0,0,0,0,0,-1,664,1674,0,0
-553,-650,0,0,0,0,0,0,0,0,0,-1,671,1674,0,0
-546,-650,0,0,0,0,0,0,0,0,0,-1,678,1674,0,0
-539,-650,0,0,0,0,0,0,0,0,0,-1,685,1674,0,0
-532,-650,0,0,0,0,0,0,0,0,0,-1,692,1674,0,0
-525,-650,0,0,0,0,0,0,0,0,0,-1,699,1674,0,0
-518,-650,0,0,0,0,0,0,0,0,0,-1,706,1674,0,0
-511,-650,0,0,0,0,0,0,0,0,0,-1,713,1674,0,0
-504,-650,0,0,0,0,0,0,0,0,0,-1,720,1674,0,0
-497,-650,0,0,0,0,0,0,0,0,0,-1,727,1674,0,0
-490,-650,0,0,0,0,0,0,0,0,0,-1,734,1674,0,0
-483,-650,0,0,0,0,0,0,0,0,0,-1,741,1674,0,0
-476,-650,0,0,0,0,0,0,0,0,0,-1,748,1674,0,0
-469,-650,0,0,0,0,0,0,0,0,0,-1,755,1674,0,0
-462,-650,0,0,0,0,0,0,0,0,0,-1,762,1674,0,0
-455,-650,0,0,0,0,0,0,0,0,0,-1,769,1674,0,0
-448,-650,0,0,0,0,0,0,0,0,0,-1,776,1674,0,0
-441,-650,0,0,0,0,0,0,0,0,0,-1,783,1674,0,0
-434,-650,0,0,0,0,0,0,0,0,0,-1,790,1674,0,0
-427,-650,0,0,0,0,0,0,0,0,0,-1,797,1674,0,0
-420,-650,0,0,0,0,0,0,0,0,0,-1,804,1674,0,0
-413,-650,0,0,0,0,0,0,0,0,0,-1,811,1674,0,0
-406,-650,0,0,0,0,0,0,0,0,0,-1,818,1674,0,0
-399,-650,0,0,0,0,0,0,0,0,0,-1,825,1674,0,0
-392,-650,5.44415,6.85669,0,0,0,0,0,0,0,-1,832,1674,5.44414,-6.85674
-385,-650,1.74451,14.0183,0,0,0,0,0,0,0,-1,839,1674,1.74453,-14.0183
-378,-650,0.997986,4.11108,0,0,0,0,0,0,0,-1,846,1674,0.998006,-4.11113
-371,-650,-1.80096,3.78625,0,0,0,0,0,0,0,-1,853,1674,-1.80094,-3.78625
-364,-650,-2.95679,2.57507,0,0,0,0,0,0,0,-1,860,1674,-2.95681,-2.57506
-357,-650,1.97833,10.8362,0,0,0,0,0,0,0,-1,867,1674,1.97835,-10.8362
-350,-650,-5.30243,0.159912,0,0,0,0,0,0,0,-1,874,1674,-5.30244,-0.159866
-343,-650,-6.21338,-1.4425,0,0,0,0,0,0,0,-1,881,1674,-6.21341,1.44248
-336,-650,3.93781,13.7601,0,0,0,0,0,0,0,-1,888,1674,3.93782,-13.7601
-329,-650,4.11255,15.0873,0,0,0,0,0,0,0,-1,895,1674,4.11254,-15.0873
-322,-650,3.42999,15.4312,0.0148963,0.00650679,0.00143727,0.0151357,0.00626739,0.165049,0.0087815,0.0411604,902,1674,3.42998,-15.4311
-315,-650,3.84607,15.476,0.0117477,0.00587807,0.00210745,0.012426,0.00519978,0.311379,0.0072059,0.0369079,909,1674,3.84604,-15.4759
-308,-650,3.91382,15.7119,0.00899138,0.00491012,0.00244779,0.0101376,0.00376392,0.437931,0.00591722,0.0218339,916,1674,3.9138,-15.7119
-301,-650,3.90521,15.9774,0.006873,0.00382151,0.00251182,0.00828616,0.00240835,0.512468,0.00492182,0.0120253,923,1674,3.90521,-15.9774
-294,-650,3.88837,16.2245,0.00509389,0.00270949,0.00225882,0.00645583,0.00134755,0.542579,0.00393243,0.00983309,930,1674,3.88835,-16.2245
-287,-650,3.88257,16.4578,0.00366613,0.0016145,0.00194419,0.00483853,0.000442098,0.542645,0.00308889,0.0132532,937,1674,3.88258,-16.4577
-280,-650,3.86377,16.6919,0.00257536,0.000609984,0.00158168,0.00345477,-0.000269422,0.507433,0.00239804,0.0142156,944,1674,3.86377,-16.6919
-273,-650,3.8526,16.9554,0.00170814,-0.000100764,0.00136313,0.00243958,-0.000832206,0.49249,0.00196349,0.0131434,951,1674,3.85258,-16.9555
-266,-650,3.83496,17.1897,0.00105753,-0.000714246,0.000903302,0.00143685,-0.00109357,0.397565,0.00146541,0.0120488,958,1674,3.83496,-17.1897
-259,-650,3.84167,17.3921,0.000820428,-0.00112516,0.000587831,0.000984241,-0.00128897,0.271777,0.00131636,0.0149806,965,1674,3.84169,-17.3921
-252,-650,3.85016,17.6019,0.000845982,-0.00154545,0.000281853,0.000878752,-0.00157822,0.115747,0.00143757,0.0128909,972,1674,3.85017,-17.602
-245,-650,3.84442,17.8071,0.000789476,-0.00178934,0.000339684,0.000833469,-0.00183333,0.128795,0.00157534,0.0119444,979,1674,3.84444,-17.8071
-238,-650,3.84021,18.0283,0.000607697,-0.00180906,0.000528737,0.000718311,-0.00191967,0.20623,0.00157481,0.0130391,986,1674,3.84019,-18.0284
-231,-650,3.81476,18.2628,0.000426082,-0.00192707,0.000755511,0.000647765,-0.00214875,0.28541,0.00169031,0.0176796,993,1674,3.81475,-18.2629
-224,-650,3.82397,18.4664,0.000219492,-0.00197923,0.00111768,0.000687872,-0.00244761,0.396831,0.00190293,0.0147298,1000,1674,3.82397,-18.4664
-217,-650,3.83417,18.6458,-2.55651e-05,-0.00211863,0.00154564,0.000794515,-0.00293871,0.487808,0.00227079,0.0102909,1007,1674,3.83416,-18.6457
-210,-650,3.83948,18.8339,-0.00035376,-0.0024587,0.00202965,0.000880069,-0.00369252,0.54621,0.0028015,0.00958387,1014,1674,3.8395,-18.8339
-203,-650,3.86304,19.0326,-0.000788863,-0.00268568,0.00248762,0.000925005,-0.00439955,0.603278,0.00328507,0.0136054,1021,1674,3.86298,-19.0326
-196,-650,3.88159,19.2327,-0.00122389,-0.00298772,0.00274831,0.000780534,-0.00499215,0.630141,0.00361646,0.0127682,1028,1674,3.8816,-19.2326
-189,-650,3.88318,19.4246,-0.00165132,-0.00315333,0.00289295,0.000586512,-0.00539117,0.658402,0.00380471,0.00991404,1035,1674,3.88312,-19.4246
-182,-650,3.91272,19.6099,-0.00201174,-0.00327392,0.00289712,0.00032223,-0.0056079,0.678157,0.0038505,0.00921405,1042,1674,3.91268,-19.6099
-175,-650,3.9342,19.7767,-0.00231619,-0.00332334,0.00278573,1.11121e-05,-0.00565065,0.695979,0.00377081,0.0152928,1049,1674,3.93415,-19.7767
-168,-650,3.92395,19.9617,-0.00228908,-0.00330985,0.00258068,-0.000168805,-0.00543013,0.687772,0.00356515,0.0203272,1056,1674,3.92392,-19.9616
-161,-650,3.90906,20.119,-0.0019466,-0.00300039,0.00230588,-0.000108185,-0.0048388,0.673076,0.00319042,0.0284821,1063,1674,3.90911,-20.1191
-154,-650,3.8894,20.2665,-0.00147799,-0.0027227,0.00191787,-8.40244e-05,-0.00411667,0.628506,0.00271687,0.0315261,1070,1674,3.88935,-20.2665
-147,-650,3.849,20.3042,-0.000877312,-0.00238829,0.00138555,-5.4667e-05,-0.00321094,0.535798,0.00212264,0.0408423,1077,1674,3.849,-20.3042
-140,-650,3.88794,20.4325,0,0,0,0,0,0,0,-1,1084,1674,3.88794,-20.4324
-133,-650,3.75696,21.2219,0,0,0,0,0,0,0,-1,1091,1674,3.75693,-21.2219
-126,-650,3.87036,21.6993,0,0,0,0,0,0,0,-1,1098,1674,3.87042,-21.6993
-119,-650,5.16663,20.6232,0,0,0,0,0,0,0,-1,1105,1674,5.16665,-20.6232
-112,-650,3.86292,14.4513,0,0,0,0,0,0,0,-1,1112,1674,3.8629,-14.4513
-105,-650,4.9259,12.0626,0,0,0,0,0,0,0,-1,1119,1674,4.92591,-12.0626
-98,-650,3.3761,6.78003,0,0,0,0,0,0,0,-1,1126,1674,3.37611,-6.78009
-91,-650,3.66809,7.04443,0,0,0,0,0,0,0,-1,1133,1674,3.66806,-7.04439
-84,-650,-3.82666,-1.59521,0,0,0,0,0,0,0,-1,1140,1674,-3.82661,1.59517
-77,-650,-4.70557,1.90198,0,0,0,0,0,0,0,-1,1147,1674,-4.7056,-1.90194
-70,-650,-4.88171,3.81653,0,0,0,0,0,0,0,-1,1154,1674,-4.88176,-3.81651
-63,-650,-5.14612,5.56543,0,0,0,0,0,0,0,-1,1161,1674,-5.14612,-5.56547
-56,-650,-5.38367,7.41101,0,0,0,0,0,0,0,-1,1168,1674,-5.38361,-7.41102
-49,-650,-5.11316,8.23706,0,0,0,0,0,0,0,-1,1175,1674,-5.11317,-8.23708
-42,-650,-4.99487,9.6792,0,0,0,0,0,0,0,-1,1182,1674,-4.99484,-9.67921
-35,-650,-4.77771,11.3369,0,0,0,0,0,0,0,-1,1189,1674,-4.77769,-11.3369
-28,-650,-4.1936,13.1501,0,0,0,0,0,0,0,-1,1196,1674,-4.19358,-13.1501
-21,-650,-5.35681,25.4081,0,0,0,0,0,0,0,-1,1203,1674,-5.35682,-25.4081
-14,-650,6.53076,22.4791,0,0,0,0,0,0,0,-1,1210,1674,6.53082,-22.4791
-7,-650,5.99438,22.4064,0.0383197,0.0365122,0.0255083,0.0629403,0.0118917,0.76769,0.0386116,0.0486017,1217,1674,5.99441,-22.4064
0,-650,5.69373,23.3086,0.0560971,0.0392786,0.028613,0.077511,0.0178647,0.642474,0.0468681,0.0448462,1224,1674,5.69372,-23.3086
7,-650,5.23486,22.0255,0.0697237,0.0437403,0.0306699,0.0900401,0.0234239,0.585058,0.0539416,0.0403709,1231,1674,5.23483,-22.0256
14,-650,8.64124,23.5457,0.0772365,0.0492948,0.0320566,0.0982343,0.0282969,0.579899,0.0583894,0.0432688,1238,1674,8.64124,-23.5456
21,-650,9.52673,23.79,0.0783689,0.0536496,0.0333785,0.101603,0.0304159,0.608082,0.060214,0.0465643,1245,1674,9.52672,-23.79
28,-650,10.3945,24.0675,0.0745554,0.055558,0.0357756,0.102072,0.0280415,0.655638,0.0608924,0.0455534,1252,1674,10.3945,-24.0675
35,-650,10.644,24.5934,0.0683328,0.0570811,0.0377618,0.100885,0.0245284,0.711451,0.0607544,0.0443843,1259,1674,10.644,-24.5934
42,-650,11.1172,24.0718,0.058849,0.0551337,0.040178,0.0972123,0.0167705,0.762297,0.0600043,0.0426637,1266,1674,11.1172,-24.0718
49,-650,11.6633,23.7245,0.0501993,0.051356,0.0421075,0.0928891,0.00866615,0.792265,0.059249,0.0458539,1273,1674,11.6633,-23.7245
56,-650,12.1754,23.4125,0,0,0,0,0,0,0,-1,1280,1674,12.1754,-23.4125
63,-650,13.472,23.5945,0,0,0,0,0,0,0,-1,1287,1674,13.4721,-23.5945
70,-650,14.3242,23.3824,0,0,0,0,0,0,0,-1,1294,1674,14.3243,-23.3825
77,-650,7.40161,20.8989,0.00523405,0.0378069,0.0452755,0.0696361,-0.0265952,0.958051,0.0573817,0.0478785,1301,1674,7.40156,-20.8989
84,-650,6.71582,21.7261,0,0,0,0,0,0,0,-1,1308,1674,6.71583,-21.7261
91,-650,2.14648,26.7878,0,0,0,0,0,0,0,-1,1315,1674,2.14652,-26.7878
98,-650,5.9541,23.2025,0,0,0,0,0,0,0,-1,1322,1674,5.95409,-23.2025
105,-650,5.55017,23.243,-0.0196144,0.0389038,0.0318839,0.0529192,-0.0336297,1.15665,0.050381,0.046015,1329,1674,5.55015,-23.243
112,-650,4.94971,23.509,-0.0222652,0.0431842,0.025511,0.051953,-0.0310341,1.23972,0.0484174,0.0429108,1336,1674,4.94967,-23.509
119,-650,4.55945,23.5499,-0.0222911,0.0482478,0.0196805,0.0533672,-0.0274105,1.31631,0.0474328,0.0434362,1343,1674,4.55941,-23.55
126,-650,4.1991,23.6108,-0.0197466,0.0564114,0.014734,0.0591625,-0.0224978,1.3862,0.0487049,0.049318,1350,1674,4.19914,-23.6109
133,-650,4.11279,22.2184,-0.0148726,0.0638928,0.0118627,0.0656407,-0.0166204,1.42451,0.0502257,0.0488265,1357,1674,4.11282,-22.2184
140,-650,4.17639,21.4451,-0.00868587,0.0706826,0.0127032,0.0726662,-0.0106695,1.4159,0.0523642,0.0467964,1364,1674,4.17644,-21.4451
147,-650,4.54358,20.9797,-0.00385028,0.0766105,0.0153799,0.0794501,-0.00668989,1.38822,0.0553317,0.0462663,1371,1674,4.54362,-20.9797
154,-650,5.01086,20.5153,0,0,0,0,0,0,0,-1,1378,1674,5.01091,-20.5152
161,-650,1.92163,18.5155,0,0,0,0,0,0,0,-1,1385,1674,1.92164,-18.5155
168,-650,11.2113,7.87231,0,0,0,0,0,0,0,-1,1392,1674,11.2113,-7.87236
175,-650,5.62537,-0.230713,0,0,0,0,0,0,0,-1,1399,1674,5.62538,0.230745
182,-650,5.56006,0.421631,0,0,0,0,0,0,0,-1,1406,1674,5.56,-0.421652
189,-650,4.81543,11.0654,0,0,0,0,0,0,0,-1,1413,1674,4.81542,-11.0654
196,-650,5.39575,11.9077,0,0,0,0,0,0,0,-1,1420,1674,5.39575,-11.9078
203,-650,3.93628,11.8215,0,0,0,0,0,0,0,-1,1427,1674,3.93624,-11.8216
210,-650,5.40955,8.08594,0,0,0,0,0,0,0,-1,1434,1674,5.40958,-8.086
217,-650,5.12451,4.69739,0,0,0,0,0,0,0,-1,1441,1674,5.12451,-4.69738
224,-650,4.79041,1.45813,0,0,0,0,0,0,0,-1,1448,1674,4.79046,-1.45816
231,-650,4.04102,-0.642212,0,0,0,0,0,0,0,-1,1455,1674,4.04101,0.642209
238,-650,3.23022,-1.43396,0,0,0,0,0,0,0,-1,1462,1674,3.23023,1.43394
245,-650,1.65894,-2.55042,0,0,0,0,0,0,0,-1,1469,1674,1.65889,2.55036
252,-650,8.75342,0.355103,0,0,0,0,0,0,0,-1,1476,1674,8.75337,-0.355147
259,-650,5.61255,3.17566,0,0,0,0,0,0,0,-1,1483,1674,5.61257,-3.17572
266,-650,4.00403,6.10229,0,0,0,0,0,0,0,-1,1490,1674,4.00401,-6.10225
273,-650,5.4093,14.3718,0,0,0,0,0,0,0,-1,1497,1674,5.40929,-14.3718
280,-650,6.28931,20.807,0,0,0,0,0,0,0,-1,1504,1674,6.2893,-20.8071
287,-650,6.72852,20.8276,0,0,0,0,0,0,0,-1,1511,1674,6.72847,-20.8277
294,-650,6.92468,20.6356,0,0,0,0,0,0,0,-1,1518,1674,6.92464,-20.6356
301,-650,6.82275,20.5134,0,0,0,0,0,0,0,-1,1525,1674,6.82278,-20.5134
308,-650,6.90198,20.2777,0.0069132,-0.000312931,-0.000234871,0.00692082,-0.000320557,-0.0324573,0.00472436,0.0237314,1532,1674,6.90203,-20.2778
315,-650,6.90979,20.1865,0.00576447,0.000547913,-0.000387962,0.00579316,0.000519217,-0.0738301,0.00370119,0.0138601,1539,1674,6.90979,-20.1866
322,-650,6.93237,20.0393,0.00474643,0.0011696,-0.000477362,0.00480904,0.00110699,-0.130419,0.00290813,0.0102013,1546,1674,6.93243,-20.0393
329,-650,6.93372,19.8628,0.00381887,0.00162702,-0.000414239,0.00389455,0.00155135,-0.180691,0.00226396,0.0147927,1553,1674,6.93377,-19.8628
336,-650,6.93054,19.7159,0.00287026,0.0018184,-0.000289455,0.00294466,0.00174401,-0.251562,0.00170972,0.013439,1560,1674,6.93055,-19.7159
343,-650,6.94299,19.5409,0.00213593,0.00172384,-0.000300617,0.00229434,0.00156543,-0.484963,0.00135367,0.0130994,1567,1674,6.94303,-19.5409
350,-650,6.95984,19.3569,0.00158996,0.00153473,-0.000326733,0.00189024,0.00123445,-0.743243,0.00110825,0.0161301,1574,1674,6.95984,-19.3569
357,-650,6.97607,19.1831,0.00119124,0.00134773,-0.000322523,0.00160137,0.00093761,-0.904402,0.000929045,0.0137258,1581,1674,6.97611,-19.1832
364,-650,6.98303,18.9862,0.000807834,0.00122085,-0.000324688,0.00139914,0.000629547,-1.06864,0.000809143,0.0094383,1588,1674,6.98307,-18.9862
371,-650,6.97986,18.7927,0.000556728,0.00103667,-0.000392539,0.00125678,0.00033662,-1.05975,0.000751222,0.0112948,1595,1674,6.97982,-18.7927
378,-650,6.97607,18.5929,0.000413627,0.000842781,-0.000495671,0.00116833,8.80806e-05,-0.98967,0.000751248,0.011922,1602,1674,6.97604,-18.5929
385,-650,6.96045,18.3894,0.000465599,0.00061038,-0.000602622,0.00114494,-6.8964e-05,-0.845175,0.000787291,0.0136248,1609,1674,6.96046,-18.3895
392,-650,6.96631,18.2178,0.000746927,0.000280391,-0.000826731,0.00137267,-0.000345351,-0.647894,0.00104935,0.0180895,1616,1674,6.96626,-18.2177
399,-650,6.96436,18.0248,0.00106463,0.000102954,-0.001073,0.00175961,-0.000592021,-0.574751,0.00141239,0.0158336,1623,1674,6.9643,-18.0248
406,-650,6.95898,17.8085,0.0015041,-0.000234529,-0.0011796,0.00210011,-0.000830532,-0.467847,0.00174413,0.0135948,1630,1674,6.95895,-17.8085
413,-650,6.96387,17.6121,0.0020074,-0.000793884,-0.00132786,0.00253679,-0.00132327,-0.379365,0.00226502,0.0145355,1637,1674,6.96392,-17.6121
420,-650,6.9519,17.4156,0.00253314,-0.00184779,-0.00135875,0.00292033,-0.00223499,-0.277607,0.00298518,0.0149865,1644,1674,6.95192,-17.4157
427,-650,6.94751,17.1907,0.00313134,-0.00292887,-0.0013151,0.00340442,-0.00320195,-0.204739,0.00381478,0.0148219,1651,1674,6.94748,-17.1907
434,-650,6.93311,16.9769,0.00373717,-0.00433901,-0.00106712,0.0038758,-0.00447763,-0.129179,0.00482702,0.0175356,1658,1674,6.93308,-16.9769
441,-650,6.92456,16.7698,0.00494602,-0.00562719,-0.00132831,0.00511034,-0.00579151,-0.123082,0.00629828,0.0280778,1665,1674,6.92461,-16.7698
448,-650,6.2262,16.7214,0,0,0,0,0,0,0,-1,1672,1674,6.22615,-16.7214
455,-650,6.04541,16.5703,0,0,0,0,0,0,0,-1,1679,1674,6.04543,-16.5703
462,-650,7.1366,16.4307,0,0,0,0,0,0,0,-1,1686,1674,7.13661,-16.4307
469,-650,7.22192,16.6549,0,0,0,0,0,0,0,-1,1693,1674,7.22197,-16.6549
476,-650,6.27197,15.3381,0,0,0,0,0,0,0,-1,1700,1674,6.27203,-15.3381
483,-650,9.03516,12.6401,0,0,0,0,0,0,0,-1,1707,1674,9.03513,-12.6401
490,-650,8.48901,11.9618,0,0,0,0,0,0,0,-1,1714,1674,8.48906,-11.9618
497,-650,7.81238,11.5549,0,0,0,0,0,0,0,-1,1721,1674,7.81239,-11.5549
504,-650,4.06628,11.7836,0,0,0,0,0,0,0,-1,1728,1674,4.06624,-11.7836
511,-650,4.07861,10.9446,0,0,0,0,0,0,0,-1,1735,1674,4.07861,-10.9446
518,-650,0,0,0,0,0,0,0,0,0,-1,1742,1674,0,0
525,-650,0,0,0,0,0,0,0,0,0,-1,1749,1674,0,0
532,-650,0,0,0,0,0,0,0,0,0,-1,1756,1674,0,0
539,-650,0,0,0,0,0,0,0,0,0,-1,1763,1674,0,0
546,-650,0,0,0,0,0,0,0,0,0,-1,1770,1674,0,0
553,-650,0,0,0,0,0,0,0,0,0,-1,1777,1674,0,0
560,-650,0,0,0,0,0,0,0,0,0,-1,1784,1674,0,0
567,-650,0,0,0,0,0,0,0,0,0,-1,1791,1674,0,0
574,-650,0,0,0,0,0,0,0,0,0,-1,1798,1674,0,0
581,-650,0,0,0,0,0,0,0,0,0,-1,1805,1674,0,0
588,-650,0,0,0,0,0,0,0,0,0,-1,1812,1674,0,0
595,-650,0,0,0,0,0,0,0,0,0,-1,1819,1674,0,0
602,-650,0,0,0,0,0,0,0,0,0,-1,1826,1674,0,0
609,-650,0,0,0,0,0,0,0,0,0,-1,1833,1674,0,0
616,-650,0,0,0,0,0,0,0,0,0,-1,1840,1674,0,0
623,-650,0,0,0,0,0,0,0,0,0,-1,1847,1674,0,0
630,-650,0,0,0,0,0,0,0,0,0,-1,1854,1674,0,0
637,-650,0,0,0,0,0,0,0,0,0,-1,1861,1674,0,0
644,-650,0,0,0,0,0,0,0,0,0,-1,1868,1674,0,0
651,-650,0,0,0,0,0,0,0,0,0,-1,1875,1674,0,0
658,-650,0,0,0,0,0,0,0,0,0,-1,1882,1674,0,0
665,-650,0,0,0,0,0,0,0,0,0,-1,1889,1674,0,0
672,-650,0,0,0,0,0,0,0,0,0,-1,1896,1674,0,0
679,-650,0,0,0,0,0,0,0,0,0,-1,1903,1674,0,0
686,-650,0,0,0,0,0,0,0,0,0,-1,1910,1674,0,0
693,-650,0,0,0,0,0,0,0,0,0,-1,1917,1674,0,0
700,-650,0,0,0,0,0,0,0,0,0,-1,1924,1674,0,0
707,-650,0,0,0,0,0,0,0,0,0,-1,1931,1674,0,0
714,-650,0,0,0,0,0,0,0,0,0,-1,1938,1674,0,0
721,-650,0,0,0,0,0,0,0,0,0,-1,1945,1674,0,0
728,-650,0,0,0,0,0,0,0,0,0,-1,1952,1674,0,0
735,-650,0,0,0,0,0,0,0,0,0,-1,1959,1674,0,0
742,-650,0,0,0,0,0,0,0,0,0,-1,1966,1674,0,0
749,-650,0,0,0,0,0,0,0,0,0,-1,1973,1674,0,0
756,-650,0,0,0,0,0,0,0,0,0,-1,1980,1674,0,0
763,-650,0,0,0,0,0,0,0,0,0,-1,1987,1674,0,0
770,-650,0,0,0,0,0,0,0,0,0,-1,1994,1674,0,0
777,-650,0,0,0,0,0,0,0,0,0,-1,2001,1674,0,0
784,-650,0,0,0,0,0,0,0,0,0,-1,2008,1674,0,0
791,-650,0,0,0,0,0,0,0,0,0,-1,2015,1674,0,0
798,-650,0,0,0,0,0,0,0,0,0,-1,2022,1674,0,0
805,-650,0,0,0,0,0,0,0,0,0,-1,2029,1674,0,0
812,-650,0,0,0,0,0,0,0,0,0,-1,2036,1674,0,0
-700,-657,0,0,0,0,0,0,0,0,0,-1,524,1681,0,0
-693,-657,0,0,0,0,0,0,0,0,0,-1,531,1681,0,0
-686,-657,0,0,0,0,0,0,0,0,0,-1,538,1681,0,0
-679,-657,0,0,0,0,0,0,0,0,0,-1,545,1681,0,0
-672,-657,0,0,0,0,0,0,0,0,0,-1,552,1681,0,0
-665,-657,0,0,0,0,0,0,0,0,0,-1,559,1681,0,0
-658,-657,0,0,0,0,0,0,0,0,0,-1,566,1681,0,0
-651,-657,0,0,0,0,0,0,0,0,0,-1,573,1681,0,0
-644,-657,0,0,0,0,0,0,0,0,0,-1,580,1681,0,0
-637,-657,0,0,0,0,0,0,0,0,0,-1,587,1681,0,0
-630,-657,0,0,0,0,0,0,0,0,0,-1,594,1681,0,0
-623,-657,0,0,0,0,0,0,0,0,0,-1,601,1681,0,0
-616,-657,0,0,0,0,0,0,0,0,0,-1,608,1681,0,0
-609,-657,0,0,0,0,0,0,0,0,0,-1,615,1681,0,0
-602,-657,0,0,0,0,0,0,0,0,0,-1,622,1681,0,0
-595,-657,0,0,0,0,0,0,0,0,0,-1,629,1681,0,0
-588,-657,0,0,0,0,0,0,0,0,0,-1,636,1681,0,0
-581,-657,0,0,0,0,0,0,0,0,0,-1,643,1681,0,0
-574,-657,0,0,0,0,0,0,0,0,0,-1,650,1681,0,0
-567,-657,0,0,0,0,0,0,0,0,0,-1,657,1681,0,0
-560,-657,0,0,0,0,0,0,0,0,0,-1,664,1681,0,0
-553,-657,0,0,0,0,0,0,0,0,0,-1,671,1681,0,0
-546,-657,0,0,0,0,0,0,0,0,0,-1,678,1681,0,0
-539,-657,0,0,0,0,0,0,0,0,0,-1,685,1681,0,0
-532,-657,0,0,0,0,0,0,0,0,0,-1,692,1681,0,0
-525,-657,0,0,0,0,0,0,0,0,0,-1,699,1681,0,0
-518,-657,0,0,0,0,0,0,0,0,0,-1,706,1681,0,0
-511,-657,0,0,0,0,0,0,0,0,0,-1,713,1681,0,0
-504,-657,0,0,0,0,0,0,0,0,0,-1,720,1681,0,0
-497,-657,0,0,0,0,0,0,0,0,0,-1,727,1681,0,0
-490,-657,0,0,0,0,0,0,0,0,0,-1,734,1681,0,0
-483,-657,0,0,0,0,0,0,0,0,0,-1,741,1681,0,0
-476,-657,0,0,0,0,0,0,0,0,0,-1,748,1681,0,0
-469,-657,0,0,0,0,0,0,0,0,0,-1,755,1681,0,0
-462,-657,0,0,0,0,0,0,0,0,0,-1,762,1681,0,0
-455,-657,0,0,0,0,0,0,0,0,0,-1,769,1681,0,0
-448,-657,0,0,0,0,0,0,0,0,0,-1,776,1681,0,0
-441,-657,0,0,0,0,0,0,0,0,0,-1,783,1681,0,0
-434,-657,0,0,0,0,0,0,0,0,0,-1,790,1681,0,0
-427,-657,0,0,0,0,0,0,0,0,0,-1,797,1681,0,0
-420,-657,0,0,0,0,0,0,0,0,0,-1,804,1681,0,0
-413,-657,0,0,0,0,0,0,0,0,0,-1,811,1681,0,0
-406,-657,0,0,0,0,0,0,0,0,0,-1,818,1681,0,0
-399,-657,0,0,0,0,0,0,0,0,0,-1,825,1681,0,0
-392,-657,0,0,0,0,0,0,0,0,0,-1,832,1681,0,0
-385,-657,1.09814,6.18896,0,0,0,0,0,0,0,-1,839,1681,1.09814,-6.18894
-378,-657,0.31488,4.46753,0,0,0,0,0,0,0,-1,846,1681,0.31487,-4.46755
-371,-657,-0.519043,2.69421,0,0,0,0,0,0,0,-1,853,1681,-0.519064,-2.69422
-364,-657,-3.42017,4.18323,0,0,0,0,0,0,0,-1,860,1681,-3.42019,-4.18319
-357,-657,-4.41913,2.97168,0,0,0,0,0,0,0,-1,867,1681,-4.41913,-2.97165
-350,-657,-5.42291,1.70276,0,0,0,0,0,0,0,-1,874,1681,-5.42291,-1.70277
-343,-657,-6.51294,0.397339,0,0,0,0,0,0,0,-1,881,1681,-6.51295,-0.397335
-336,-657,2.4696,15.2997,0,0,0,0,0,0,0,-1,888,1681,2.46961,-15.2996
-329,-657,2.93475,15.2948,0.0259737,0.0106475,0.000326005,0.0259807,0.0106406,0.0212583,0.0150815,0.0466989,895,1681,2.93475,-15.2948
-322,-657,3.49133,15.2753,0.0201983,0.00909727,0.00162158,0.0204303,0.00886525,0.14212,0.0118297,0.0407403,902,1681,3.49135,-15.2753
-315,-657,4.04889,15.3691,0.0155799,0.00778283,0.00255368,0.0163419,0.00702091,0.289952,0.00946608,0.0424721,909,1681,4.0489,-15.3691
-308,-657,4.12494,15.6259,0.01169,0.00612971,0.00299115,0.0129935,0.0048262,0.410972,0.00758402,0.0377416,916,1681,4.12493,-15.6259
-301,-657,4.14935,15.9333,0.00872082,0.00443173,0.00307821,0.0103279,0.00282468,0.481149,0.00616336,0.0284413,923,1681,4.14938,-15.9333
-294,-657,4.0907,16.2494,0.00626908,0.00288885,0.00273206,0.00779154,0.00136639,0.508397,0.00480411,0.01607,930,1681,4.09071,-16.2493
-287,-657,4.07788,16.4993,0.00432958,0.00154019,0.00229699,0.00562214,0.000247633,0.512555,0.00366834,0.012298,937,1681,4.07787,-16.4992
-280,-657,4.06836,16.7155,0.0028356,0.000422931,0.00183855,0.00382824,-0.000569711,0.49506,0.00276172,0.0139476,944,1681,4.06835,-16.7155
-273,-657,4.07007,16.9468,0.00164604,-0.000297371,0.0015617,0.00251366,-0.00116499,0.507103,0.00217093,0.0100347,951,1681,4.0701,-16.9467
-266,-657,4.02716,17.1671,0.000757447,-0.00082919,0.00100091,0.0012413,-0.00131305,0.450293,0.00147495,0.0147284,958,1681,4.02714,-17.1671
-259,-657,4.02881,17.3895,0.000363389,-0.00112854,0.000623351,0.000589551,-0.0013547,0.348046,0.00115113,0.0191691,965,1681,4.02883,-17.3895
-252,-657,4.03973,17.6028,0.000265011,-0.00147956,0.000250474,0.00030026,-0.00151481,0.139812,0.00112341,0.012716,972,1681,4.0397,-17.6027
-245,-657,4.0498,17.8003,0.000197182,-0.00153286,0.000154593,0.000210887,-0.00154657,0.0884242,0.00110805,0.014885,979,1681,4.04982,-17.8003
-238,-657,4.04901,18.0421,7.34383e-05,-0.00134615,0.000215307,0.000105375,-0.00137809,0.147258,0.000955787,0.0196821,986,1681,4.04899,-18.0421
-231,-657,4.03894,18.2765,-5.68998e-05,-0.00129687,0.000361233,4.06599e-05,-0.00139443,0.263781,0.000943467,0.0209147,993,1681,4.03895,-18.2765
-224,-657,4.03699,18.4856,-0.000155469,-0.00116707,0.000621607,0.000140123,-0.00146266,0.443879,0.00102501,0.0162331,1000,1681,4.03699,-18.4856
-217,-657,4.04889,18.6803,-0.000262822,-0.00116303,0.000924319,0.00031516,-0.00174101,0.558819,0.00127874,0.00966123,1007,1681,4.0489,-18.6803
-210,-657,4.04352,18.8713,-0.000407991,-0.00142501,0.00126322,0.000445225,-0.00227823,0.594046,0.00168692,0.0103047,1014,1681,4.04349,-18.8714
-203,-657,4.05627,19.0509,-0.000594861,-0.00160695,0.0015741,0.000552536,-0.00275435,0.629874,0.00204544,0.0129269,1021,1681,4.05627,-19.0509
-196,-657,4.07617,19.2273,-0.000759381,-0.00187911,0.00174918,0.000517352,-0.00315584,0.630514,0.00229586,0.0134774,1028,1681,4.07612,-19.2273
-189,-657,4.07507,19.4109,-0.000892425,-0.00205109,0.00185016,0.00046699,-0.0034105,0.633672,0.00244425,0.00930345,1035,1681,4.07512,-19.4109
-182,-657,4.07166,19.5883,-0.0010086,-0.00211603,0.00179637,0.000317462,-0.00344209,0.635899,0.00240754,0.0079756,1042,1681,4.07168,-19.5883
-175,-657,4.0863,19.7756,-0.00108286,-0.00212141,0.00166147,0.000138596,-0.00334286,0.633939,0.00227618,0.00994661,1049,1681,4.08629,-19.7757
-168,-657,4.08569,19.9581,-0.000958202,-0.00211241,0.00149575,6.79106e-05,-0.00313853,0.601282,0.00211535,0.0113728,1056,1681,4.08571,-19.9582
-161,-657,4.08093,20.1177,-0.000603172,-0.00189013,0.00130788,0.000210953,-0.00270425,0.556784,0.00187711,0.0119043,1063,1681,4.08097,-20.1177
-154,-657,4.0835,20.2687,-0.000182841,-0.00166909,0.00105784,0.00036681,-0.00221874,0.479201,0.00161537,0.012178,1070,1681,4.08353,-20.2687
-147,-657,4.11084,20.42,0.000330853,-0.00143493,0.000713892,0.000583364,-0.00168744,0.339977,0.00136172,0.0166009,1077,1681,4.11079,-20.42
-140,-657,4.07776,20.6259,0.00135125,-0.000813492,-4.0578e-05,0.00135201,-0.000814252,-0.0187362,0.00126347,0.0272754,1084,1681,4.07776,-20.6259
-133,-657,4.06445,20.8041,0.00271114,-0.000574767,-0.000349775,0.00274796,-0.000611587,-0.104881,0.00206623,0.0377306,1091,1681,4.06447,-20.804
-126,-657,4.03601,20.9686,0,0,0,0,0,0,0,-1,1098,1681,4.03597,-20.9686
-119,-657,4.70422,20.9045,0,0,0,0,0,0,0,-1,1105,1681,4.70417,-20.9046
-112,-657,4.28333,21.3257,0,0,0,0,0,0,0,-1,1112,1681,4.28329,-21.3256
-105,-657,3.82434,14.4906,0,0,0,0,0,0,0,-1,1119,1681,3.8244,-14.4906
-98,-657,3.78662,8.16785,0,0,0,0,0,0,0,-1,1126,1681,3.78663,-8.16786
-91,-657,3.6521,16.6017,0,0,0,0,0,0,0,-1,1133,1681,3.65215,-16.6017
-84,-657,4.08008,10.4579,0,0,0,0,0,0,0,-1,1140,1681,4.08006,-10.4579
-77,-657,-5.29846,0.396606,0,0,0,0,0,0,0,-1,1147,1681,-5.29842,-0.396573
-70,-657,-4.14893,2.14575,0,0,0,0,0,0,0,-1,1154,1681,-4.14893,-2.1458
-63,-657,-4.1239,3.177,0,0,0,0,0,0,0,-1,1161,1681,-4.12391,-3.17698
-56,-657,-6.40576,5.73987,0,0,0,0,0,0,0,-1,1168,1681,-6.40577,-5.7399
-49,-657,-5.98462,7.54053,0,0,0,0,0,0,0,-1,1175,1681,-5.98466,-7.5405
-42,-657,-5.71948,9.28955,0,0,0,0,0,0,0,-1,1182,1681,-5.71951,-9.2895
-35,-657,-5.44556,11.015,0,0,0,0,0,0,0,-1,1189,1681,-5.44555,-11.015
-28,-657,-1.3446,8.92847,0,0,0,0,0,0,0,-1,1196,1681,-1.34459,-8.92848
-21,-657,5.81067,19.5239,0,0,0,0,0,0,0,-1,1203,1681,5.81064,-19.5239
-14,-657,5.52148,22.2379,0,0,0,0,0,0,0,-1,1210,1681,5.52148,-22.2379
-7,-657,5.65613,22.6586,0.0450243,0.0280487,0.025432,0.0633475,0.00972549,0.624338,0.0393921,0.0476554,1217,1681,5.65617,-22.6585
0,-657,5.69849,22.9645,0.0581795,0.0303301,0.0291091,0.0765231,0.0119866,0.562305,0.0475264,0.0475908,1224,1681,5.69848,-22.9645
7,-657,6.26257,22.9619,0.0682342,0.0343298,0.0318754,0.0873848,0.0151791,0.541006,0.0539139,0.0474411,1231,1681,6.26255,-22.9619
14,-657,7.7605,23.4694,0.0730845,0.0397219,0.0338045,0.0940994,0.0187069,0.556196,0.0575204,0.0410114,1238,1681,7.7605,-23.4694
21,-657,8.41479,23.7972,0.0723289,0.0437657,0.0352608,0.0960905,0.020004,0.592982,0.0585429,0.042581,1245,1681,8.41475,-23.7972
28,-657,9.21558,24.1637,0.0672773,0.0456648,0.0374234,0.0954235,0.0175187,0.644843,0.0586547,0.0411994,1252,1681,9.21554,-24.1637
35,-657,9.64258,24.0432,0.0601855,0.0472873,0.0389176,0.0931847,0.0142881,0.703289,0.0579506,0.0391813,1259,1681,9.64262,-24.0432
42,-657,10.0507,23.6171,0.050335,0.0460906,0.0404868,0.0887552,0.00767036,0.759214,0.0567863,0.0409006,1266,1681,10.0507,-23.617
49,-657,10.8478,23.5938,0.0411473,0.043284,0.0412793,0.0835087,0.000922557,0.798336,0.0553675,0.0442902,1273,1681,10.8478,-23.5938
56,-657,11.5898,23.4395,0,0,0,0,0,0,0,-1,1280,1681,11.5899,-23.4395
63,-657,12.4523,23.0411,0,0,0,0,0,0,0,-1,1287,1681,12.4523,-23.0412
70,-657,7.03137,20.4923,0.00907255,0.0337281,0.0419589,0.0651327,-0.0223321,0.92828,0.0524745,0.0491795,1294,1681,7.03142,-20.4923
77,-657,6.54785,21.4917,-0.000974996,0.0318326,0.0398248,0.0584996,-0.0276421,0.980759,0.0507865,0.0475284,1301,1681,6.54791,-21.4917
84,-657,1.90112,24.8892,0,0,0,0,0,0,0,-1,1308,1681,1.90108,-24.8891
91,-657,2.8728,25.4982,0,0,0,0,0,0,0,-1,1315,1681,2.87275,-25.4981
98,-657,3.84436,26.1072,0,0,0,0,0,0,0,-1,1322,1681,3.84442,-26.1072
105,-657,4.6792,22.7382,-0.0190634,0.0322746,0.0249347,0.0423916,-0.0291804,1.18535,0.0415561,0.0434474,1329,1681,4.67919,-22.7381
112,-657,4.56555,23.3817,-0.0197622,0.0357494,0.0191871,0.0417357,-0.0257485,1.26837,0.0393248,0.0441455,1336,1681,4.56556,-23.3817
119,-657,4.27002,22.9304,-0.0182814,0.0397793,0.0140243,0.0429893,-0.0214915,1.34578,0.0379114,0.0479,1343,1681,4.27001,-22.9304
126,-657,4.06519,22.7401,-0.0151296,0.046621,0.0099887,0.0481966,-0.0167052,1.41435,0.0389136,0.0479525,1350,1681,4.06517,-22.7401
133,-657,3.7981,22.0782,-0.0109462,0.0524022,0.00783261,0.0533563,-0.0119003,1.44958,0.0401302,0.0485546,1357,1681,3.79804,-22.0782
140,-657,3.79919,21.2654,-0.00644795,0.0573334,0.00896368,0.0585692,-0.00768374,1.43379,0.0418432,0.0455592,1364,1681,3.79914,-21.2654
147,-657,4.05164,20.3979,-0.00337882,0.0621341,0.0113133,0.0640327,-0.00527746,1.40452,0.0445519,0.0497666,1371,1681,4.05162,-20.398
154,-657,4.28149,19.5978,0,0,0,0,0,0,0,-1,1378,1681,4.28155,-19.5978
161,-657,12.8524,6.43372,0,0,0,0,0,0,0,-1,1385,1681,12.8524,-6.43366
168,-657,5.21643,0.70105,0,0,0,0,0,0,0,-1,1392,1681,5.21648,-0.7011
175,-657,5.52771,0.649048,0,0,0,0,0,0,0,-1,1399,1681,5.52774,-0.649019
182,-657,5.73999,1.02612,0,0,0,0,0,0,0,-1,1406,1681,5.73995,-1.02611
189,-657,5.92126,1.44116,0,0,0,0,0,0,0,-1,1413,1681,5.92126,-1.44115
196,-657,4.92834,9.59021,0,0,0,0,0,0,0,-1,1420,1681,4.9284,-9.59018
203,-657,6.26343,5.16492,0,0,0,0,0,0,0,-1,1427,1681,6.26345,-5.16488
210,-657,3.9856,5.28088,0,0,0,0,0,0,0,-1,1434,1681,3.98555,-5.28084
217,-657,3.95178,5.2843,0,0,0,0,0,0,0,-1,1441,1681,3.95174,-5.28431
224,-657,6.66736,-0.250244,0,0,0,0,0,0,0,-1,1448,1681,6.66737,0.250229
231,-657,6.85498,-1.70752,0,0,0,0,0,0,0,-1,1455,1681,6.855,1.70758
238,-657,5.34143,-2.89819,0,0,0,0,0,0,0,-1,1462,1681,5.34143,2.89813
245,-657,8.66003,-0.102783,0,0,0,0,0,0,0,-1,1469,1681,8.66,0.102824
252,-657,4.78955,0.623779,0,0,0,0,0,0,0,-1,1476,1681,4.7895,-0.623826
259,-657,2.61523,4.31909,0,0,0,0,0,0,0,-1,1483,1681,2.61523,-4.31908
266,-657,5.35437,11.4742,0,0,0,0,0,0,0,-1,1490,1681,5.35441,-11.4742
273,-657,6.24255,20.5718,0,0,0,0,0,0,0,-1,1497,1681,6.24258,-20.5717
280,-657,6.34802,20.7074,0.00995237,-0.00517146,-6.72838e-05,0.00995267,-0.00517176,-0.00444874,0.00887633,0.0443745,1504,1681,6.34803,-20.7075
287,-657,6.64185,20.6997,0.00869604,-0.00362456,-3.69814e-05,0.00869615,-0.00362467,-0.00300155,0.00731154,0.0308066,1511,1681,6.64179,-20.6998
294,-657,6.73389,20.626,0.00742674,-0.00261507,-1.8679e-05,0.00742678,-0.00261511,-0.00186012,0.00601545,0.0246815,1518,1681,6.73388,-20.626
301,-657,6.6991,20.5195,0.00627227,-0.00163231,-5.45439e-07,0.00627227,-0.00163231,-6.90029e-05,0.00481867,0.0164668,1525,1681,6.69914,-20.5195
308,-657,6.72144,20.3573,0.00528882,-0.000652524,-9.58589e-05,0.00529036,-0.00065407,-0.0161286,0.00376392,0.0122123,1532,1681,6.72146,-20.3572
315,-657,6.75403,20.1899,0.00441826,4.2714e-05,-0.000204961,0.00442784,3.31344e-05,-0.046706,0.00294091,0.0110238,1539,1681,6.75401,-20.1899
322,-657,6.78015,20.0408,0.00362932,0.000553414,-0.000279487,0.00365451,0.000528225,-0.0898823,0.00228075,0.012937,1546,1681,6.78012,-20.0408
329,-657,6.78772,19.8983,0.00290222,0.000973383,-0.000278029,0.00294149,0.000934107,-0.140338,0.00173554,0.0189341,1553,1681,6.78771,-19.8983
336,-657,6.77551,19.7252,0.00217872,0.00119463,-0.00026608,0.00224606,0.0011273,-0.247863,0.00129676,0.0166539,1560,1681,6.77557,-19.7252
343,-657,6.79993,19.5309,0.00163224,0.00121304,-0.000371445,0.00184914,0.000996137,-0.528525,0.00106867,0.0134102,1567,1681,6.79987,-19.5309
350,-657,6.79761,19.3301,0.0012413,0.00111468,-0.00047235,0.00165457,0.00070142,-0.71878,0.000958943,0.0156696,1574,1681,6.79766,-19.3301
357,-657,6.79834,19.1478,0.000996126,0.00105611,-0.000581756,0.00160864,0.000443588,-0.811152,0.000959382,0.0152284,1581,1681,6.79836,-19.1478
364,-657,6.80798,18.9739,0.000750009,0.00101852,-0.000690532,0.00158773,0.000180801,-0.881411,0.00100366,0.0108962,1588,1681,6.80799,-18.9739
371,-657,6.80542,18.8102,0.000621417,0.000918383,-0.000865086,0.00164764,-0.000107837,-0.87039,0.00113608,0.0146279,1595,1681,6.80539,-18.8102
378,-657,6.77563,18.6075,0.000574305,0.00080263,-0.00106407,0.00175864,-0.000381705,-0.838838,0.00131821,0.0136306,1602,1681,6.77565,-18.6076
385,-657,6.74683,18.3867,0.000705432,0.000671896,-0.0012438,0.00193258,-0.000555247,-0.778658,0.00150794,0.0119158,1609,1681,6.74678,-18.3867
392,-657,6.75195,18.2257,0.00107192,0.000374473,-0.00153294,0.0022953,-0.000848911,-0.673559,0.00187825,0.0127584,1616,1681,6.75197,-18.2257
399,-657,6.77747,18.0426,0.00145309,0.000159379,-0.00181943,0.00273723,-0.00112476,-0.614602,0.00229359,0.012061,1623,1681,6.77745,-18.0425
406,-657,6.77625,17.8361,0.00197322,-0.000239931,-0.00191838,0.0030813,-0.00134801,-0.523794,0.00262171,0.0132392,1630,1681,6.77619,-17.8361
413,-657,6.78247,17.6117,0.00258209,-0.00089691,-0.00204127,0.00352451,-0.00183932,-0.432523,0.00314734,0.0136381,1637,1681,6.78246,-17.6117
420,-657,6.7998,17.3568,0.00322619,-0.00219052,-0.00203614,0.0039062,-0.00287053,-0.322325,0.00392775,0.0150947,1644,1681,6.79974,-17.3568
427,-657,6.76746,17.0916,0.00394718,-0.00358005,-0.00189993,0.00439955,-0.00403242,-0.233746,0.00486973,0.0196467,1651,1681,6.76747,-17.0916
434,-657,6.77368,16.8947,0.00469396,-0.00544472,-0.0014635,0.00490099,-0.00565175,-0.140527,0.00609776,0.0281828,1658,1681,6.77367,-16.8947
441,-657,7.04578,16.9617,0.00613807,-0.0073294,-0.00150853,0.00630498,-0.00749631,-0.110194,0.00797806,0.0477631,1665,1681,7.04575,-16.9617
448,-657,7.35364,16.9827,0,0,0,0,0,0,0,-1,1672,1681,7.35359,-16.9826
455,-657,4.97668,16.8728,0,0,0,0,0,0,0,-1,1679,1681,4.97672,-16.8727
462,-657,6.51733,15.4801,0,0,0,0,0,0,0,-1,1686,1681,6.51737,-15.4801
469,-657,5.6687,15.8351,0,0,0,0,0,0,0,-1,1693,1681,5.66874,-15.835
476,-657,5.72485,13.6294,0,0,0,0,0,0,0,-1,1700,1681,5.72481,-13.6294
483,-657,9.39307,11.0643,0,0,0,0,0,0,0,-1,1707,1681,9.39309,-11.0644
490,-657,8.80066,10.4442,0,0,0,0,0,0,0,-1,1714,1681,8.80062,-10.4442
497,-657,3.43188,12.5037,0,0,0,0,0,0,0,-1,1721,1681,3.43183,-12.5037
504,-657,0,0,0,0,0,0,0,0,0,-1,1728,1681,0,0
511,-657,0,0,0,0,0,0,0,0,0,-1,1735,1681,0,0
518,-657,0,0,0,0,0,0,0,0,0,-1,1742,1681,0,0
525,-657,0,0,0,0,0,0,0,0,0,-1,1749,1681,0,0
532,-657,0,0,0,0,0,0,0,0,0,-1,1756,1681,0,0
539,-657,0,0,0,0,0,0,0,0,0,-1,1763,1681,0,0
546,-657,0,0,0,0,0,0,0,0,0,-1,1770,1681,0,0
553,-657,0,0,0,0,0,0,0,0,0,-1,1777,1681,0,0
560,-657,0,0,0,0,0,0,0,0,0,-1,1784,1681,0,0
567,-657,0,0,0,0,0,0,0,0,0,-1,1791,1681,0,0
574,-657,0,0,0,0,0,0,0,0,0,-1,1798,1681,0,0
581,-657,0,0,0,0,0,0,0,0,0,-1,1805,1681,0,0
588,-657,0,0,0,0,0,0,0,0,0,-1,1812,1681,0,0
595,-657,0,0,0,0,0,0,0,0,0,-1,1819,1681,0,0
602,-657,0,0,0,0,0,0,0,0,0,-1,1826,1681,0,0
609,-657,0,0,0,0,0,0,0,0,0,-1,1833,1681,0,0
616,-657,0,0,0,0,0,0,0,0,0,-1,1840,1681,0,0
623,-657,0,0,0,0,0,0,0,0,0,-1,1847,1681,0,0
630,-657,0,0,0,0,0,0,0,0,0,-1,1854,1681,0,0
637,-657,0,0,0,0,0,0,0,0,0,-1,1861,1681,0,0
644,-657,0,0,0,0,0,0,0,0,0,-1,1868,1681,0,0
651,-657,0,0,0,0,0,0,0,0,0,-1,1875,1681,0,0
658,-657,0,0,0,0,0,0,0,0,0,-1,1882,1681,0,0
665,-657,0,0,0,0,0,0,0,0,0,-1,1889,1681,0,0
672,-657,0,0,0,0,0,0,0,0,0,-1,1896,1681,0,0
679,-657,0,0,0,0,0,0,0,0,0,-1,1903,1681,0,0
686,-657,0,0,0,0,0,0,0,0,0,-1,1910,1681,0,0
693,-657,0,0,0,0,0,0,0,0,0,-1,1917,1681,0,0
700,-657,0,0,0,0,0,0,0,0,0,-1,1924,1681,0,0
707,-657,0,0,0,0,0,0,0,0,0,-1,1931,1681,0,0
714,-657,0,0,0,0,0,0,0,0,0,-1,1938,1681,0,0
721,-657,0,0,0,0,0,0,0,0,0,-1,1945,1681,0,0
728,-657,0,0,0,0,0,0,0,0,0,-1,1952,1681,0,0
735,-657,0,0,0,0,0,0,0,0,0,-1,1959,1681,0,0
742,-657,0,0,0,0,0,0,0,0,0,-1,1966,1681,0,0
749,-657,0,0,0,0,0,0,0,0,0,-1,1973,1681,0,0
756,-657,0,0,0,0,0,0,0,0,0,-1,1980,1681,0,0
763,-657,0,0,0,0,0,0,0,0,0,-1,1987,1681,0,0
770,-657,0,0,0,0,0,0,0,0,0,-1,1994,1681,0,0
777,-657,0,0,0,0,0,0,0,0,0,-1,2001,1681,0,0
784,-657,0,0,0,0,0,0,0,0,0,-1,2008,1681,0,0
791,-657,0,0,0,0,0,0,0,0,0,-1,2015,1681,0,0
798,-657,0,0,0,0,0,0,0,0,0,-1,2022,1681,0,0
805,-657,0,0,0,0,0,0,0,0,0,-1,2029,1681,0,0
812,-657,0,0,0,0,0,0,0,0,0,-1,2036,1681,0,0
-700,-664,0,0,0,0,0,0,0,0,0,-1,524,1688,0,0
-693,-664,0,0,0,0,0,0,0,0,0,-1,531,1688,0,0
-686,-664,0,0,0,0,0,0,0,0,0,-1,538,1688,0,0
-679,-664,0,0,0,0,0,0,0,0,0,-1,545,1688,0,0
-672,-664,0,0,0,0,0,0,0,0,0,-1,552,1688,0,0
-665,-664,0,0,0,0,0,0,0,0,0,-1,559,1688,0,0
-658,-664,0,0,0,0,0,0,0,0,0,-1,566,1688,0,0
-651,-664,0,0,0,0,0,0,0,0,0,-1,573,1688,0,0
-644,-664,0,0,0,0,0,0,0,0,0,-1,580,1688,0,0
-637,-664,0,0,0,0,0,0,0,0,0,-1,587,1688,0,0
-630,-664,0,0,0,0,0,0,0,0,0,-1,594,1688,0,0
-623,-664,0,0,0,0,0,0,0,0,0,-1,601,1688,0,0
-616,-664,0,0,0,0,0,0,0,0,0,-1,608,1688,0,0
-609,-664,0,0,0,0,0,0,0,0,0,-1,615,1688,0,0
-602,-664,0,0,0,0,0,0,0,0,0,-1,622,1688,0,0
-595,-664,0,0,0,0,0,0,0,0,0,-1,629,1688,0,0
-588,-664,0,0,0,0,0,0,0,0,0,-1,636,1688,0,0
-581,-664,0,0,0,0,0,0,0,0,0,-1,643,1688,0,0
-574,-664,0,0,0,0,0,0,0,0,0,-1,650,1688,0,0
-567,-664,0,0,0,0,0,0,0,0,0,-1,657,1688,0,0
-560,-664,0,0,0,0,0,0,0,0,0,-1,664,1688,0,0
-553,-664,0,0,0,0,0,0,0,0,0,-1,671,1688,0,0
-546,-664,0,0,0,0,0,0,0,0,0,-1,678,1688,0,0
-539,-664,0,0,0,0,0,0,0,0,0,-1,685,1688,0,0
-532,-664,0,0,0,0,0,0,0,0,0,-1,692,1688,0,0
-525,-664,0,0,0,0,0,0,0,0,0,-1,699,1688,0,0
-518,-664,0,0,0,0,0,0,0,0,0,-1,706,1688,0,0
-511,-664,0,0,0,0,0,0,0,0,0,-1,713,1688,0,0
-504,-664,0,0,0,0,0,0,0,0,0,-1,720,1688,0,0
-497,-664,0,0,0,0,0,0,0,0,0,-1,727,1688,0,0
-490,-664,0,0,0,0,0,0,0,0,0,-1,734,1688,0,0
-483,-664,0,0,0,0,0,0,0,0,0,-1,741,1688,0,0
-476,-664,0,0,0,0,0,0,0,0,0,-1,748,1688,0,0
-469,-664,0,0,0,0,0,0,0,0,0,-1,755,1688,0,0
-462,-664,0,0,0,0,0,0,0,0,0,-1,762,1688,0,0
-455,-664,0,0,0,0,0,0,0,0,0,-1,769,1688,0,0
-448,-664,0,0,0,0,0,0,0,0,0,-1,776,1688,0,0
-441,-664,0,0,0,0,0,0,0,0,0,-1,783,1688,0,0
-434,-664,0,0,0,0,0,0,0,0,0,-1,790,1688,0,0
-427,-664,0,0,0,0,0,0,0,0,0,-1,797,1688,0,0
-420,-664,0,0,0,0,0,0,0,0,0,-1,804,1688,0,0
-413,-664,0,0,0,0,0,0,0,0,0,-1,811,1688,0,0
-406,-664,0,0,0,0,0,0,0,0,0,-1,818,1688,0,0
-399,-664,0,0,0,0,0,0,0,0,0,-1,825,1688,0,0
-392,-664,0,0,0,0,0,0,0,0,0,-1,832,1688,0,0
-385,-664,0,0,0,0,0,0,0,0,0,-1,839,1688,0,0
-378,-664,0,0,0,0,0,0,0,0,0,-1,846,1688,0,0
-371,-664,-1.61676,5.92737,0,0,0,0,0,0,0,-1,853,1688,-1.61675,-5.92735
-364,-664,-3.901,5.87024,0,0,0,0,0,0,0,-1,860,1688,-3.90097,-5.87027
-357,-664,-4.81012,4.53479,0,0,0,0,0,0,0,-1,867,1688,-4.81012,-4.5348
-350,-664,-5.7193,3.19934,0,0,0,0,0,0,0,-1,874,1688,-5.71927,-3.19932
-343,-664,2.42603,15.0261,0,0,0,0,0,0,0,-1,881,1688,2.42605,-15.0261
-336,-664,2.86487,15.2523,0,0,0,0,0,0,0,-1,888,1688,2.86489,-15.2524
-329,-664,3.44025,15.37,0,0,0,0,0,0,0,-1,895,1688,3.44027,-15.37
-322,-664,4.0838,15.2903,0,0,0,0,0,0,0,-1,902,1688,4.0838,-15.2903
-315,-664,3.69867,15.0616,0,0,0,0,0,0,0,-1,909,1688,3.69865,-15.0616
-308,-664,4.38977,14.9989,0.0145668,0.007399,0.00351403,0.0160022,0.00596367,0.387776,0.00933817,0.045542,916,1688,4.3898,-14.9989
-301,-664,4.41486,15.5902,0.0105828,0.00484505,0.0036388,0.0123476,0.00308021,0.451581,0.00742124,0.0465481,923,1688,4.41486,-15.5902
-294,-664,4.23511,16.2552,0.00737459,0.00270415,0.00316597,0.0089734,0.00110534,0.467639,0.00564998,0.0422577,930,1688,4.23514,-16.2553
-287,-664,4.25415,16.5493,0.004894,0.000977388,0.00256006,0.00615887,-0.000287482,0.458899,0.00420502,0.0307597,937,1688,4.25414,-16.5493
-280,-664,4.20361,16.7756,0.00298644,-0.0002522,0.00197797,0.0039234,-0.00118916,0.442385,0.00308924,0.0215999,944,1688,4.20358,-16.7756
-273,-664,4.27679,16.929,0.0014926,-0.000996996,0.00162484,0.00229466,-0.00179906,0.458535,0.00236928,0.0171457,951,1688,4.27681,-16.9289
-266,-664,4.27423,17.1399,0.000411525,-0.00144902,0.000951619,0.000812037,-0.00184953,0.39837,0.00157509,0.0221306,958,1688,4.27421,-17.1399
-259,-664,4.24744,17.3813,-9.77761e-05,-0.0016211,0.000507674,5.591e-05,-0.00177478,0.293956,0.00120226,0.0182617,965,1688,4.24743,-17.3814
-252,-664,4.28217,17.6047,-0.000234979,-0.00186159,7.00358e-05,-0.000231969,-0.0018646,0.0429502,0.00117341,0.0156543,972,1688,4.28216,-17.6047
-245,-664,4.21619,17.817,-0.000270892,-0.00166013,-0.000169484,-0.000250514,-0.00168051,-0.11966,0.00104687,0.0202833,979,1688,4.21619,-17.817
-238,-664,4.24536,18.0409,-0.000350572,-0.00120853,-0.000206452,-0.000303478,-0.00125563,-0.224273,0.000756494,0.0234362,986,1688,4.24536,-18.0408
-231,-664,4.25323,18.2535,-0.000443879,-0.00095054,-9.36489e-05,-0.000427123,-0.000967296,-0.177045,0.000559738,0.0203257,993,1688,4.25326,-18.2535
-224,-664,4.25031,18.4784,-0.000444876,-0.000608572,0.000114981,-0.000385587,-0.000667861,0.476084,0.000387125,0.01439,1000,1688,4.2503,-18.4784
-217,-664,4.25604,18.6854,-0.000457519,-0.000433413,0.000352321,-9.2939e-05,-0.000797993,0.802496,0.000503881,0.0101607,1007,1688,4.25602,-18.6855
-210,-664,4.24396,18.8806,-0.000496329,-0.000601861,0.000625857,7.89827e-05,-0.00117717,0.743342,0.00081239,0.0109677,1014,1688,4.24393,-18.8806
-203,-664,4.24463,19.0704,-0.000537807,-0.000725872,0.000883922,0.00025707,-0.00152075,0.732407,0.00110949,0.0131582,1021,1688,4.24458,-19.0704
-196,-664,4.26526,19.2258,-0.000554566,-0.000958544,0.00104364,0.000306449,-0.00181956,0.689808,0.00132704,0.0138518,1028,1688,4.2652,-19.2258
-189,-664,4.27026,19.4021,-0.00052567,-0.00114076,0.00115399,0.000361052,-0.00202748,0.655172,0.00148669,0.0094383,1035,1688,4.27023,-19.4021
-182,-664,4.25696,19.5881,-0.000495939,-0.0012199,0.00109816,0.000298361,-0.0020142,0.626193,0.00145251,0.00931873,1042,1688,4.25692,-19.5881
-175,-664,4.26025,19.7512,-0.000431894,-0.00123707,0.000969091,0.000214907,-0.00188387,0.588531,0.00133333,0.0120475,1049,1688,4.26025,-19.7513
-168,-664,4.26697,19.9207,-0.000267882,-0.001253,0.000845145,0.000217763,-0.00173865,0.521556,0.00123808,0.0127752,1056,1688,4.26694,-19.9206
-161,-664,4.27649,20.0955,6.31507e-05,-0.0011224,0.000722926,0.000405257,-0.00146451,0.441998,0.00113579,0.0101081,1063,1688,4.27653,-20.0954
-154,-664,4.28723,20.2666,0.00043832,-0.000953774,0.000554845,0.000632405,-0.00114786,0.336496,0.0010421,0.00991643,1070,1688,4.28727,-20.2666
-147,-664,4.2998,20.4241,0.000928822,-0.000785286,0.000308962,0.00098281,-0.000839274,0.172996,0.00105307,0.0103871,1077,1688,4.29975,-20.4241
-140,-664,4.32434,20.5896,0.00172491,-0.000328185,-0.000176672,0.00174,-0.000343277,-0.0852169,0.00128974,0.0111502,1084,1688,4.32431,-20.5896
-133,-664,4.31726,20.7382,0.00269007,-0.000129909,-0.000331453,0.0027285,-0.000168344,-0.115442,0.00187763,0.0119397,1091,1688,4.31729,-20.7382
-126,-664,4.38245,20.9146,0.00354496,9.20958e-05,4.78301e-05,0.00354562,9.14335e-05,0.0138487,0.00233387,0.0219857,1098,1688,4.38246,-20.9146
-119,-664,4.48169,21.0266,0.00445691,5.91603e-05,0.000327702,0.0044812,3.48755e-05,0.0739714,0.00297591,0.0349171,1105,1688,4.4817,-21.0266
-112,-664,4.54993,21.225,0.00545667,-2.3409e-05,0.00066666,0.00553661,-0.000103343,0.119333,0.003726,0.0495994,1112,1688,4.54998,-21.225
-105,-664,4.44153,21.2185,0,0,0,0,0,0,0,-1,1119,1688,4.44148,-21.2185
-98,-664,4.98584,19.8645,0,0,0,0,0,0,0,-1,1126,1688,4.98586,-19.8645
-91,-664,4.61377,19.9204,0,0,0,0,0,0,0,-1,1133,1688,4.61377,-19.9204
-84,-664,3.48389,16.6913,0,0,0,0,0,0,0,-1,1140,1688,3.4839,-16.6913
-77,-664,4.52014,11.2122,0,0,0,0,0,0,0,-1,1147,1688,4.5202,-11.2122
-70,-664,4.20374,8.24524,0,0,0,0,0,0,0,-1,1154,1688,4.20379,-8.24519
-63,-664,-4.677,2.40503,0,0,0,0,0,0,0,-1,1161,1688,-4.67702,-2.40498
-56,-664,-4.66504,3.32727,0,0,0,0,0,0,0,-1,1168,1688,-4.6651,-3.32724
-49,-664,-2.54297,3.31848,0,0,0,0,0,0,0,-1,1175,1688,-2.54297,-3.31852
-42,-664,-0.359253,4.38684,0,0,0,0,0,0,0,-1,1182,1688,-0.359261,-4.38685
-35,-664,-0.705566,3.55017,0,0,0,0,0,0,0,-1,1189,1688,-0.705567,-3.55023
-28,-664,-1.54236,10.2538,0,0,0,0,0,0,0,-1,1196,1688,-1.54236,-10.2538
-21,-664,6.30444,20.7677,0,0,0,0,0,0,0,-1,1203,1688,6.30447,-20.7678
-14,-664,5.00317,22.4313,0,0,0,0,0,0,0,-1,1210,1688,5.00321,-22.4312
-7,-664,5.6427,22.6454,0,0,0,0,0,0,0,-1,1217,1688,5.64275,-22.6454
0,-664,6.02649,22.9999,0,0,0,0,0,0,0,-1,1224,1688,6.02646,-22.9999
7,-664,3.85266,24.4137,0.0630935,0.0268169,0.031204,0.0810479,0.0088624,0.522127,0.0513335,0.0462629,1231,1688,3.85264,-24.4136
14,-664,5.51831,24.2273,0.0656821,0.0317762,0.0332923,0.0860893,0.011369,0.549902,0.0540036,0.045076,1238,1688,5.51833,-24.2272
21,-664,7.19751,23.7235,0.0636399,0.0352742,0.0347413,0.0869819,0.0119322,0.591603,0.0544481,0.0466807,1245,1688,7.19754,-23.7235
28,-664,8.59009,24.1176,0.0580975,0.037001,0.0366438,0.085681,0.00941753,0.645258,0.0542546,0.0435295,1252,1688,8.59003,-24.1176
35,-664,9.93542,24.9769,0.0509739,0.0385474,0.0377492,0.0830178,0.00650354,0.703833,0.0533098,0.0440728,1259,1688,9.93547,-24.9769
42,-664,9.06421,23.526,0.0416221,0.0378671,0.03871,0.0785001,0.000989072,0.761166,0.0520069,0.0432559,1266,1688,9.06416,-23.5261
49,-664,9.66211,23.5792,0,0,0,0,0,0,0,-1,1273,1688,9.66205,-23.5793
56,-664,10.3644,23.4668,0.0236917,0.0337321,0.0389473,0.0679814,-0.0105577,0.849493,0.0492191,0.0455996,1280,1688,10.3644,-23.4669
63,-664,10.792,23.4198,0.0138124,0.0305459,0.0379486,0.0610391,-0.0166809,0.8939,0.047245,0.0496845,1287,1688,10.7919,-23.4198
70,-664,6.47571,21.0496,0.00352653,0.0280276,0.0366627,0.0544323,-0.0228782,0.946637,0.0458577,0.047213,1294,1688,6.47566,-21.0496
77,-664,5.71765,22.0905,-0.00505207,0.0261267,0.0341176,0.0480478,-0.0269732,0.999699,0.0438794,0.0450848,1301,1688,5.71763,-22.0905
84,-664,2.6853,23.5778,0,0,0,0,0,0,0,-1,1308,1688,2.68527,-23.5777
91,-664,3.64014,24.1638,0,0,0,0,0,0,0,-1,1315,1688,3.64019,-24.1638
98,-664,3.92041,23.6884,0,0,0,0,0,0,0,-1,1322,1688,3.92042,-23.6883
105,-664,3.59644,23.7493,0,0,0,0,0,0,0,-1,1329,1688,3.59639,-23.7492
112,-664,4.13464,23.3081,-0.016927,0.0286599,0.013887,0.0325571,-0.0208242,1.2972,0.0310669,0.0462029,1336,1688,4.13469,-23.3081
119,-664,3.93054,23.0833,-0.0146449,0.0317409,0.00953895,0.0336259,-0.0165299,1.3757,0.0295129,0.0495497,1343,1688,3.93059,-23.0832
126,-664,3.89673,23.2271,0,0,0,0,0,0,0,-1,1350,1688,3.89673,-23.227
133,-664,3.36609,21.9034,-0.00800471,0.0417734,0.00478095,0.0422285,-0.00845974,1.47591,0.031355,0.0485528,1357,1688,3.36606,-21.9034
140,-664,3.33582,21.1285,-0.00477427,0.0453237,0.00593461,0.0460172,-0.00546769,1.45448,0.0326536,0.0434558,1364,1688,3.33586,-21.1285
147,-664,3.44214,20.2759,-0.00268014,0.0491121,0.00776321,0.0502507,-0.00381875,1.42517,0.0348432,0.0499809,1371,1688,3.44217,-20.2758
154,-664,3.51733,19.4696,0,0,0,0,0,0,0,-1,1378,1688,3.51739,-19.4697
161,-664,4.60132,1.56238,0,0,0,0,0,0,0,-1,1385,1688,4.60134,-1.56233
168,-664,5.172,1.25488,0,0,0,0,0,0,0,-1,1392,1688,5.17203,-1.25484
175,-664,5.58313,1.16467,0,0,0,0,0,0,0,-1,1399,1688,5.58317,-1.16466
182,-664,5.74268,1.41113,0,0,0,0,0,0,0,-1,1406,1688,5.74263,-1.41115
189,-664,5.87744,1.87061,0,0,0,0,0,0,0,-1,1413,1688,5.87745,-1.87065
196,-664,6.7594,5.97473,0,0,0,0,0,0,0,-1,1420,1688,6.75943,-5.97478
203,-664,5.38452,5.22034,0,0,0,0,0,0,0,-1,1427,1688,5.38453,-5.2203
210,-664,5.25549,6.45715,0,0,0,0,0,0,0,-1,1434,1688,5.25549,-6.45721
217,-664,5.72009,6.73975,0,0,0,0,0,0,0,-1,1441,1688,5.72014,-6.73972
224,-664,5.05725,7.42908,0,0,0,0,0,0,0,-1,1448,1688,5.05723,-7.42912
231,-664,5.13318,7.60864,0,0,0,0,0,0,0,-1,1455,1688,5.13313,-7.60862
238,-664,4.23193,6.45471,0,0,0,0,0,0,0,-1,1462,1688,4.23197,-6.45476
245,-664,4.42004,6.80896,0,0,0,0,0,0,0,-1,1469,1688,4.4201,-6.80901
252,-664,3.67346,6.85461,0,0,0,0,0,0,0,-1,1476,1688,3.6734,-6.85462
259,-664,4.55823,11.7435,0,0,0,0,0,0,0,-1,1483,1688,4.55826,-11.7435
266,-664,6.34106,20.8269,0,0,0,0,0,0,0,-1,1490,1688,6.341,-20.8269
273,-664,6.34009,20.8538,0.00792334,-0.00543645,-8.07304e-06,0.00792335,-0.00543645,-0.000604279,0.0077577,0.047407,1497,1688,6.34011,-20.8538
280,-664,6.46008,20.8296,0.00735026,-0.00431106,-4.10187e-05,0.0073504,-0.0043112,-0.00351744,0.00680862,0.0239087,1504,1688,6.46002,-20.8296
287,-664,6.45715,20.7217,0.00653496,-0.00313268,-5.97979e-05,0.00653533,-0.00313305,-0.00618505,0.00569608,0.0197382,1511,1688,6.45721,-20.7217
294,-664,6.5426,20.6221,0.00565305,-0.00231112,-4.9273e-05,0.00565336,-0.00231142,-0.00618652,0.00473147,0.0140647,1518,1688,6.54254,-20.6221
301,-664,6.56799,20.5078,0.00479891,-0.00150219,-3.25751e-05,0.00479908,-0.00150236,-0.00516956,0.00380048,0.00989037,1525,1688,6.56802,-20.5078
308,-664,6.57886,20.3418,0.00403815,-0.000710606,-9.30412e-05,0.00403997,-0.000712428,-0.0195827,0.00295951,0.0104179,1532,1688,6.57882,-20.3418
315,-664,6.599,20.1926,0.00334232,-0.000139412,-0.000142098,0.00334811,-0.000145202,-0.0407223,0.00228201,0.0114532,1539,1688,6.59898,-20.1927
322,-664,6.63062,20.0602,0.00269972,0.000273041,-0.000177721,0.00271266,0.000260094,-0.0727194,0.00172828,0.0149281,1546,1688,6.63064,-20.0602
329,-664,6.62195,19.9008,0.00210763,0.000621935,-0.000207996,0.0021362,0.000593365,-0.136503,0.00127329,0.0175271,1553,1688,6.62194,-19.9007
336,-664,6.62061,19.7148,0.00153201,0.000819034,-0.000268309,0.0016217,0.000729346,-0.322595,0.000937864,0.0145145,1560,1688,6.62063,-19.7148
343,-664,6.62463,19.5299,0.001087,0.000880167,-0.000425154,0.00142113,0.000546033,-0.666092,0.000827792,0.011271,1567,1688,6.62463,-19.5299
350,-664,6.64197,19.3374,0.000780729,0.000800444,-0.00057994,0.00137061,0.000210562,-0.793896,0.000852268,0.0133554,1574,1688,6.642,-19.3374
357,-664,6.64954,19.1437,0.000654572,0.000813256,-0.000788452,0.00152635,-5.85197e-05,-0.835544,0.00103762,0.0135772,1581,1688,6.64956,-19.1437
364,-664,6.64453,18.9574,0.000522822,0.000823422,-0.00099936,0.00168372,-0.000337477,-0.860037,0.00125025,0.0110857,1588,1688,6.64448,-18.9574
371,-664,6.64319,18.8043,0.000511838,0.000767749,-0.00128798,0.00193412,-0.000654529,-0.834909,0.00155423,0.013507,1595,1688,6.6432,-18.8044
378,-664,6.61755,18.6168,0.00056492,0.000718564,-0.00159718,0.00224077,-0.000957285,-0.809429,0.00189532,0.0121529,1602,1688,6.61759,-18.6169
385,-664,6.57983,18.412,0.000786976,0.000697722,-0.00187393,0.00261681,-0.00113211,-0.773493,0.0022203,0.0126865,1609,1688,6.57986,-18.412
392,-664,6.57214,18.2404,0.00127536,0.000478165,-0.00225806,0.00316973,-0.00141621,-0.698037,0.00271145,0.0155287,1616,1688,6.5721,-18.2404
399,-664,6.59497,18.0443,0.00177025,0.000247355,-0.0025977,0.0037158,-0.00169819,-0.64283,0.0031973,0.0126386,1623,1688,6.59502,-18.0444
406,-664,6.60706,17.8329,0.00244298,-0.000186958,-0.00271849,0.00414784,-0.00189181,-0.560131,0.00356716,0.0129087,1630,1688,6.6071,-17.8328
413,-664,6.62976,17.5782,0.00324688,-0.000913047,-0.00284541,0.00469148,-0.00235765,-0.469787,0.0041435,0.0142832,1637,1688,6.62979,-17.5783
420,-664,6.65796,17.3412,0.00410026,-0.00242465,-0.00283943,0.00516285,-0.00348724,-0.358091,0.00502527,0.0305009,1644,1688,6.65795,-17.3412
427,-664,6.62415,17.1979,0.00502618,-0.00415237,-0.00262477,0.00572376,-0.00484995,-0.259764,0.00611168,0.0466912,1651,1688,6.62409,-17.1979
434,-664,6.55884,16.9456,0.00600812,-0.00650499,-0.00203396,0.00633043,-0.0068273,-0.157158,0.00759843,0.0463242,1658,1688,6.55887,-16.9456
441,-664,6.49658,16.703,0,0,0,0,0,0,0,-1,1665,1688,6.49654,-16.703
448,-664,6.71448,15.9482,0,0,0,0,0,0,0,-1,1672,1688,6.71447,-15.9483
455,-664,7.53198,11.3838,0,0,0,0,0,0,0,-1,1679,1688,7.53195,-11.3838
462,-664,4.3147,4.25439,0,0,0,0,0,0,0,-1,1686,1688,4.31467,-4.25435
469,-664,6.05469,7.49341,0,0,0,0,0,0,0,-1,1693,1688,6.05474,-7.49339
476,-664,9.76514,11.5648,0,0,0,0,0,0,0,-1,1700,1688,9.76511,-11.5648
483,-664,8.41895,10.9768,0,0,0,0,0,0,0,-1,1707,1688,8.41897,-10.9769
490,-664,3.90771,13.2842,0,0,0,0,0,0,0,-1,1714,1688,3.90776,-13.2841
497,-664,0,0,0,0,0,0,0,0,0,-1,1721,1688,0,0
504,-664,0,0,0,0,0,0,0,0,0,-1,1728,1688,0,0
511,-664,0,0,0,0,0,0,0,0,0,-1,1735,1688,0,0
518,-664,0,0,0,0,0,0,0,0,0,-1,1742,1688,0,0
525,-664,0,0,0,0,0,0,0,0,0,-1,1749,1688,0,0
532,-664,0,0,0,0,0,0,0,0,0,-1,1756,1688,0,0
539,-664,0,0,0,0,0,0,0,0,0,-1,1763,1688,0,0
546,-664,0,0,0,0,0,0,0,0,0,-1,1770,1688,0,0
553,-664,0,0,0,0,0,0,0,0,0,-1,1777,1688,0,0
560,-664,0,0,0,0,0,0,0,0,0,-1,1784,1688,0,0
567,-664,0,0,0,0,0,0,0,0,0,-1,1791,1688,0,0
574,-664,0,0,0,0,0,0,0,0,0,-1,1798,1688,0,0
581,-664,0,0,0,0,0,0,0,0,0,-1,1805,1688,0,0
588,-664,0,0,0,0,0,0,0,0,0,-1,1812,1688,0,0
595,-664,0,0,0,0,0,0,0,0,0,-1,1819,1688,0,0
602,-664,0,0,0,0,0,0,0,0,0,-1,1826,1688,0,0
609,-664,0,0,0,0,0,0,0,0,0,-1,1833,1688,0,0
616,-664,0,0,0,0,0,0,0,0,0,-1,1840,1688,0,0
623,-664,0,0,0,0,0,0,0,0,0,-1,1847,1688,0,0
630,-664,0,0,0,0,0,0,0,0,0,-1,1854,1688,0,0
637,-664,0,0,0,0,0,0,0,0,0,-1,1861,1688,0,0
644,-664,0,0,0,0,0,0,0,0,0,-1,1868,1688,0,0
651,-664,0,0,0,0,0,0,0,0,0,-1,1875,1688,0,0
658,-664,0,0,0,0,0,0,0,0,0,-1,1882,1688,0,0
665,-664,0,0,0,0,0,0,0,0,0,-1,1889,1688,0,0
672,-664,0,0,0,0,0,0,0,0,0,-1,1896,1688,0,0
679,-664,0,0,0,0,0,0,0,0,0,-1,1903,1688,0,0
686,-664,0,0,0,0,0,0,0,0,0,-1,1910,1688,0,0
693,-664,0,0,0,0,0,0,0,0,0,-1,1917,1688,0,0
700,-664,0,0,0,0,0,0,0,0,0,-1,1924,1688,0,0
707,-664,0,0,0,0,0,0,0,0,0,-1,1931,1688,0,0
714,-664,0,0,0,0,0,0,0,0,0,-1,1938,1688,0,0
721,-664,0,0,0,0,0,0,0,0,0,-1,1945,1688,0,0
728,-664,0,0,0,0,0,0,0,0,0,-1,1952,1688,0,0
735,-664,0,0,0,0,0,0,0,0,0,-1,1959,1688,0,0
742,-664,0,0,0,0,0,0,0,0,0,-1,1966,1688,0,0
749,-664,0,0,0,0,0,0,0,0,0,-1,1973,1688,0,0
756,-664,0,0,0,0,0,0,0,0,0,-1,1980,1688,0,0
763,-664,0,0,0,0,0,0,0,0,0,-1,1987,1688,0,0
770,-664,0,0,0,0,0,0,0,0,0,-1,1994,1688,0,0
777,-664,0,0,0,0,0,0,0,0,0,-1,2001,1688,0,0
784,-664,0,0,0,0,0,0,0,0,0,-1,2008,1688,0,0
791,-664,0,0,0,0,0,0,0,0,0,-1,2015,1688,0,0
798,-664,0,0,0,0,0,0,0,0,0,-1,2022,1688,0,0
805,-664,0,0,0,0,0,0,0,0,0,-1,2029,1688,0,0
812,-664,0,0,0,0,0,0,0,0,0,-1,2036,1688,0,0
-700,-671,0,0,0,0,0,0,0,0,0,-1,524,1695,0,0
-693,-671,0,0,0,0,0,0,0,0,0,-1,531,1695,0,0
-686,-671,0,0,0,0,0,0,0,0,0,-1,538,1695,0,0
-679,-671,0,0,0,0,0,0,0,0,0,-1,545,1695,0,0
-672,-671,0,0,0,0,0,0,0,0,0,-1,552,1695,0,0
-665,-671,0,0,0,0,0,0,0,0,0,-1,559,1695,0,0
-658,-671,0,0,0,0,0,0,0,0,0,-1,566,1695,0,0
-651,-671,0,0,0,0,0,0,0,0,0,-1,573,1695,0,0
-644,-671,0,0,0,0,0,0,0,0,0,-1,580,1695,0,0
-637,-671,0,0,0,0,0,0,0,0,0,-1,587,1695,0,0
-630,-671,0,0,0,0,0,0,0,0,0,-1,594,1695,0,0
-623,-671,0,0,0,0,0,0,0,0,0,-1,601,1695,0,0
-616,-671,0,0,0,0,0,0,0,0,0,-1,608,1695,0,0
-609,-671,0,0,0,0,0,0,0,0,0,-1,615,1695,0,0
-602,-671,0,0,0,0,0,0,0,0,0,-1,622,1695,0,0
-595,-671,0,0,0,0,0,0,0,0,0,-1,629,1695,0,0
-588,-671,0,0,0,0,0,0,0,0,0,-1,636,1695,0,0
-581,-671,0,0,0,0,0,0,0,0,0,-1,643,1695,0,0
-574,-671,0,0,0,0,0,0,0,0,0,-1,650,1695,0,0
-567,-671,0,0,0,0,0,0,0,0,0,-1,657,1695,0,0
-560,-671,0,0,0,0,0,0,0,0,0,-1,664,1695,0,0
-553,-671,0,0,0,0,0,0,0,0,0,-1,671,1695,0,0
-546,-671,0,0,0,0,0,0,0,0,0,-1,678,1695,0,0
-539,-671,0,0,0,0,0,0,0,0,0,-1,685,1695,0,0
-532,-671,0,0,0,0,0,0,0,0,0,-1,692,1695,0,0
-525,-671,0,0,0,0,0,0,0,0,0,-1,699,1695,0,0
-518,-671,0,0,0,0,0,0,0,0,0,-1,706,1695,0,0
-511,-671,0,0,0,0,0,0,0,0,0,-1,713,1695,0,0
-504,-671,0,0,0,0,0,0,0,0,0,-1,720,1695,0,0
-497,-671,0,0,0,0,0,0,0,0,0,-1,727,1695,0,0
-490,-671,0,0,0,0,0,0,0,0,0,-1,734,1695,0,0
-483,-671,0,0,0,0,0,0,0,0,0,-1,741,1695,0,0
-476,-671,0,0,0,0,0,0,0,0,0,-1,748,1695,0,0
-469,-671,0,0,0,0,0,0,0,0,0,-1,755,1695,0,0
-462,-671,0,0,0,0,0,0,0,0,0,-1,762,1695,0,0
-455,-671,0,0,0,0,0,0,0,0,0,-1,769,1695,0,0
-448,-671,0,0,0,0,0,0,0,0,0,-1,776,1695,0,0
-441,-671,0,0,0,0,0,0,0,0,0,-1,783,1695,0,0
-434,-671,0,0,0,0,0,0,0,0,0,-1,790,1695,0,0
-427,-671,0,0,0,0,0,0,0,0,0,-1,797,1695,0,0
-420,-671,0,0,0,0,0,0,0,0,0,-1,804,1695,0,0
-413,-671,0,0,0,0,0,0,0,0,0,-1,811,1695,0,0
-406,-671,0,0,0,0,0,0,0,0,0,-1,818,1695,0,0
-399,-671,0,0,0,0,0,0,0,0,0,-1,825,1695,0,0
-392,-671,0,0,0,0,0,0,0,0,0,-1,832,1695,0,0
-385,-671,0,0,0,0,0,0,0,0,0,-1,839,1695,0,0
-378,-671,0,0,0,0,0,0,0,0,0,-1,846,1695,0,0
-371,-671,0,0,0,0,0,0,0,0,0,-1,853,1695,0,0
-364,-671,-4.18738,7.51416,0,0,0,0,0,0,0,-1,860,1695,-4.18739,-7.51419
-357,-671,-5.02393,6.07129,0,0,0,0,0,0,0,-1,867,1695,-5.0239,-6.07135
-350,-671,-5.72333,4.58386,0,0,0,0,0,0,0,-1,874,1695,-5.72333,-4.58386
-343,-671,-6.4884,3.11353,0,0,0,0,0,0,0,-1,881,1695,-6.48839,-3.11349
-336,-671,3.0163,15.2433,0,0,0,0,0,0,0,-1,888,1695,3.01632,-15.2433
-329,-671,3.9389,15.3644,0,0,0,0,0,0,0,-1,895,1695,3.93891,-15.3643
-322,-671,5.02826,13.2017,0,0,0,0,0,0,0,-1,902,1695,5.02824,-13.2016
-315,-671,3.79108,14.9048,0,0,0,0,0,0,0,-1,909,1695,3.79106,-14.9048
-308,-671,4.67493,14.5483,0,0,0,0,0,0,0,-1,916,1695,4.67493,-14.5483
-301,-671,4.59088,15.3927,0,0,0,0,0,0,0,-1,923,1695,4.5909,-15.3927
-294,-671,4.3656,16.2295,0,0,0,0,0,0,0,-1,930,1695,4.3656,-16.2295
-287,-671,4.36212,16.5162,0.00514261,-0.000102786,0.00260502,0.00621649,-0.00117666,0.391008,0.00458713,0.047431,937,1695,4.36215,-16.5162
-280,-671,4.40326,16.7601,0.00287109,-0.00144246,0.00192134,0.00360278,-0.00217415,0.363865,0.00336914,0.0397208,944,1695,4.40323,-16.7601
-273,-671,4.45551,16.9967,0.00110681,-0.0021928,0.00150598,0.0016908,-0.00277678,0.369927,0.00260464,0.034866,951,1695,4.45548,-16.9967
-266,-671,4.60571,17.2484,-0.000128414,-0.00252784,0.000738239,8.05276e-05,-0.00273678,0.275813,0.00185195,0.0254869,958,1695,4.60573,-17.2485
-259,-671,4.46289,17.4506,-0.000730985,-0.00252611,0.000252547,-0.000696132,-0.00256097,0.137139,0.00152903,0.0234754,965,1695,4.4629,-17.4505
-252,-671,4.45557,17.6084,-0.000911815,-0.00260652,-0.000213923,-0.000885229,-0.00263311,-0.123646,0.00154718,0.0174744,972,1695,4.45556,-17.6085
-245,-671,4.43976,17.8397,-0.000937306,-0.00212201,-0.000543212,-0.000725942,-0.00233338,-0.371075,0.00137885,0.0202415,979,1695,4.43974,-17.8397
-238,-671,4.44495,18.0651,-0.000987421,-0.00139445,-0.000628217,-0.000530577,-0.00185129,-0.628754,0.00110082,0.0207826,986,1695,4.44495,-18.0651
-231,-671,4.44983,18.2689,-0.00101583,-0.000905594,-0.000485382,-0.000472211,-0.00144921,-0.841934,0.000853455,0.0158727,993,1695,4.44984,-18.2689
-224,-671,4.43585,18.4584,-0.000886318,-0.000346189,-0.000268634,-0.000235335,-0.000997173,-1.17943,0.000601873,0.0121501,1000,1695,4.43585,-18.4584
-217,-671,4.44342,18.6564,-0.000793773,1.07973e-05,-4.55335e-05,1.3366e-05,-0.000796342,-1.51444,0.000535406,0.0112695,1007,1695,4.44341,-18.6563
-210,-671,4.43585,18.8745,-0.000721832,-5.59442e-05,0.000220216,1.02942e-05,-0.000788071,1.27862,0.000528845,0.0107978,1014,1695,4.43584,-18.8746
-203,-671,4.42712,19.0704,-0.000606745,-0.00010027,0.000479047,0.000188356,-0.000895371,1.02854,0.000668602,0.0179195,1021,1695,4.42713,-19.0704
-196,-671,4.43152,19.2333,-0.000483552,-0.000260117,0.000658686,0.000296258,-0.00103993,0.869402,0.000810296,0.0158372,1028,1695,4.43147,-19.2332
-189,-671,4.45459,19.4266,-0.00031099,-0.000420051,0.000807979,0.000444297,-0.00117534,0.751704,0.000966326,0.0117263,1035,1695,4.45461,-19.4267
-182,-671,4.42542,19.6151,-0.000162837,-0.000499814,0.000775845,0.000462604,-0.00112525,0.678474,0.000942985,0.00932534,1042,1695,4.42537,-19.6151
-175,-671,4.42444,19.783,-1.04463e-05,-0.000526171,0.000646413,0.000427639,-0.000964257,0.595614,0.000823278,0.0118887,1049,1695,4.42447,-19.783
-168,-671,4.43628,19.917,0.000132306,-0.000548618,0.000538905,0.000429286,-0.000845599,0.503673,0.000749023,0.0128736,1056,1695,4.43624,-19.9169
-161,-671,4.44519,20.0818,0.000378547,-0.000494648,0.000442114,0.000563304,-0.000679406,0.395838,0.000718522,0.00925488,1063,1695,4.44516,-20.0817
-154,-671,4.44336,20.2559,0.000662322,-0.000385754,0.000303427,0.000743828,-0.00046726,0.262424,0.000705273,0.00900357,1070,1695,4.44336,-20.2558
-147,-671,4.45435,20.4277,0.00103171,-0.000305076,0.000103793,0.00103972,-0.000313087,0.0770283,0.00081774,0.0102463,1077,1695,4.45439,-20.4277
-140,-671,4.48376,20.5967,0.00160805,-5.44681e-05,-0.000211391,0.00163451,-8.09257e-05,-0.124512,0.00111762,0.010828,1084,1695,4.48374,-20.5967
-133,-671,4.49622,20.748,0.00233047,4.59717e-06,-0.000298397,0.00236814,-3.30752e-05,-0.125585,0.0015899,0.0122654,1091,1695,4.49623,-20.748
-126,-671,4.50073,20.8818,0.00307198,0.000145825,-1.32344e-05,0.00307204,0.000145765,-0.00452269,0.00200121,0.0163818,1098,1695,4.50078,-20.8818
-119,-671,4.55505,21.0573,0.0038378,8.6863e-05,0.000209701,0.00384949,7.51758e-05,0.0556751,0.00254164,0.0295076,1105,1695,4.55511,-21.0573
-112,-671,4.65515,21.2284,0.00461084,-1.35764e-05,0.00047504,0.00465914,-6.18701e-05,0.101314,0.00312692,0.040304,1112,1695,4.65515,-21.2284
-105,-671,4.66504,21.2628,0,0,0,0,0,0,0,-1,1119,1695,4.66508,-21.2629
-98,-671,4.4679,21.1968,0,0,0,0,0,0,0,-1,1126,1695,4.46785,-21.1968
-91,-671,4.59668,21.1307,0,0,0,0,0,0,0,-1,1133,1695,4.59665,-21.1308
-84,-671,4.81396,21.2744,0,0,0,0,0,0,0,-1,1140,1695,4.81397,-21.2744
-77,-671,4.31763,16.489,0,0,0,0,0,0,0,-1,1147,1695,4.31757,-16.489
-70,-671,3.06067,10.7737,0,0,0,0,0,0,0,-1,1154,1695,3.0607,-10.7737
-63,-671,2.94592,6.90198,0,0,0,0,0,0,0,-1,1161,1695,2.94594,-6.90198
-56,-671,-3.07678,2.87976,0,0,0,0,0,0,0,-1,1168,1695,-3.07675,-2.87979
-49,-671,-1.05957,4.76917,0,0,0,0,0,0,0,-1,1175,1695,-1.05958,-4.76921
-42,-671,0.539307,3.7865,0,0,0,0,0,0,0,-1,1182,1695,0.539266,-3.78648
-35,-671,-0.272461,0.347534,0,0,0,0,0,0,0,-1,1189,1695,-0.272434,-0.347569
-28,-671,-10.4878,17.2009,0,0,0,0,0,0,0,-1,1196,1695,-10.4878,-17.2009
-21,-671,4.42468,21.9957,0,0,0,0,0,0,0,-1,1203,1695,4.42467,-21.9957
-14,-671,4.98865,22.2067,0.0386245,0.0155091,0.0212748,0.0512783,0.00285528,0.536571,0.0332747,0.044032,1210,1695,4.98867,-22.2066
-7,-671,5.55334,22.4303,0.0452574,0.0157478,0.0234597,0.0582165,0.00278861,0.504684,0.0379157,0.0467616,1217,1695,5.55331,-22.4303
0,-671,6.02209,22.6635,0.0513102,0.0176148,0.0265167,0.0658787,0.00304627,0.50239,0.0429397,0.0483856,1224,1695,6.02215,-22.6634
7,-671,6.48645,22.7742,0,0,0,0,0,0,0,-1,1231,1695,6.48643,-22.7741
14,-671,5.6167,22.6407,0,0,0,0,0,0,0,-1,1238,1695,5.61666,-22.6408
21,-671,6.33777,23.2263,0.0536569,0.0279553,0.032429,0.0756885,0.00592365,0.596753,0.0486049,0.0481543,1245,1695,6.33776,-23.2263
28,-671,6.83948,23.2467,0.0482116,0.0294163,0.0340492,0.0741363,0.00349164,0.65075,0.0483024,0.0477525,1252,1695,6.83953,-23.2467
35,-671,7.2373,23.1523,0.0416422,0.0307739,0.0348551,0.0714842,0.000931945,0.708068,0.0473485,0.0454084,1259,1695,7.23732,-23.1523
42,-671,7.77271,23.2058,0.0333348,0.0304278,0.0354108,0.0673219,-0.00355935,0.764887,0.0461136,0.0451482,1266,1695,7.77265,-23.2058
49,-671,8.38684,23.1813,0,0,0,0,0,0,0,-1,1273,1695,8.3869,-23.1813
56,-671,9.22705,23.1188,0.0173107,0.0273915,0.0344137,0.057132,-0.0124298,0.858114,0.0428366,0.046642,1280,1695,9.22705,-23.1188
63,-671,9.62244,22.9069,0.00858146,0.0248298,0.0328349,0.0505307,-0.0171194,0.906675,0.0406146,0.0486851,1287,1695,9.62245,-22.9069
70,-671,5.95483,21.691,-0.000247129,0.0226366,0.0311082,0.0443404,-0.0219509,0.961624,0.0389942,0.0430351,1294,1695,5.95483,-21.6911
77,-671,5.34143,22.6075,-0.00734838,0.0207742,0.028395,0.0383988,-0.024973,1.0153,0.0368604,0.0451013,1301,1695,5.34138,-22.6075
84,-671,4.03772,22.7178,0,0,0,0,0,0,0,-1,1308,1695,4.03777,-22.7178
91,-671,4.2345,23.1577,0,0,0,0,0,0,0,-1,1315,1695,4.23449,-23.1577
98,-671,4.12842,23.4252,-0.015089,0.0182506,0.0179994,0.0261136,-0.022952,1.15893,0.0283477,0.043004,1322,1695,4.12845,-23.4252
105,-671,3.81897,23.4924,-0.0153813,0.0200439,0.013643,0.024689,-0.0200265,1.24263,0.0258632,0.0433709,1329,1695,3.81898,-23.4924
112,-671,3.63684,23.1263,-0.0139436,0.0220807,0.00956725,0.0244639,-0.0163268,1.32667,0.0237062,0.0446061,1336,1695,3.63682,-23.1264
119,-671,3.30139,22.7926,-0.0113867,0.0243372,0.00605957,0.0253371,-0.0123866,1.40727,0.0222034,0.0459535,1343,1695,3.30135,-22.7926
126,-671,3.20361,22.5116,0,0,0,0,0,0,0,-1,1350,1695,3.20363,-22.5116
133,-671,2.96643,21.7084,-0.00567928,0.0322173,0.00246108,0.0323764,-0.00583844,1.50622,0.0237706,0.0460691,1357,1695,2.96645,-21.7084
140,-671,2.95569,21.0155,-0.00338411,0.0347264,0.00349086,0.0350435,-0.00370123,1.4802,0.0246887,0.045189,1364,1695,2.95573,-21.0155
147,-671,2.7002,20.6017,-0.00186928,0.0375583,0.00482071,0.0381392,-0.00245014,1.45088,0.0262809,0.0450948,1371,1695,2.70022,-20.6017
154,-671,2.47144,20.3282,0,0,0,0,0,0,0,-1,1378,1695,2.47148,-20.3282
161,-671,4.49292,4.91272,0,0,0,0,0,0,0,-1,1385,1695,4.49297,-4.91273
168,-671,5.17639,6.1416,0,0,0,0,0,0,0,-1,1392,1695,5.1764,-6.14164
175,-671,5.6731,1.64685,0,0,0,0,0,0,0,-1,1399,1695,5.67313,-1.64691
182,-671,5.56812,1.71692,0,0,0,0,0,0,0,-1,1406,1695,5.56809,-1.71686
189,-671,6.98315,6.36169,0,0,0,0,0,0,0,-1,1413,1695,6.98312,-6.36175
196,-671,5.38123,5.69775,0,0,0,0,0,0,0,-1,1420,1695,5.38125,-5.69769
203,-671,5.95117,8.11658,0,0,0,0,0,0,0,-1,1427,1695,5.9512,-8.11662
210,-671,4.73596,8.39624,0,0,0,0,0,0,0,-1,1434,1695,4.736,-8.39618
217,-671,5.37097,11.863,0,0,0,0,0,0,0,-1,1441,1695,5.37094,-11.863
224,-671,5.08167,13.6694,0,0,0,0,0,0,0,-1,1448,1695,5.08165,-13.6695
231,-671,5.66663,15.3348,0,0,0,0,0,0,0,-1,1455,1695,5.66667,-15.3349
238,-671,6.32959,16.2036,0,0,0,0,0,0,0,-1,1462,1695,6.32961,-16.2037
245,-671,6.28101,18.324,0,0,0,0,0,0,0,-1,1469,1695,6.28098,-18.3239
252,-671,6.36206,21.0331,0,0,0,0,0,0,0,-1,1476,1695,6.36201,-21.0331
259,-671,6.36096,21.2699,0,0,0,0,0,0,0,-1,1483,1695,6.361,-21.2699
266,-671,6.38562,21.2097,0,0,0,0,0,0,0,-1,1490,1695,6.38565,-21.2097
273,-671,6.39331,21.025,0.00585509,-0.00426145,0.000142923,0.00585711,-0.00426347,0.0141239,0.00586722,0.0116114,1497,1695,6.39327,-21.025
280,-671,6.38721,20.9155,0.00549414,-0.00347252,7.31678e-05,0.00549474,-0.00347312,0.00815926,0.00522126,0.00947427,1504,1695,6.3872,-20.9156
287,-671,6.38257,20.7382,0.00490518,-0.00256009,1.912e-05,0.00490523,-0.00256014,0.00256117,0.00438045,0.0114175,1511,1695,6.38259,-20.7381
294,-671,6.39331,20.5865,0.0042168,-0.0018316,-9.19167e-06,0.00421682,-0.00183162,-0.00151968,0.00358143,0.011478,1518,1695,6.39326,-20.5866
301,-671,6.41418,20.4843,0.00350346,-0.00111885,-2.704e-05,0.00350362,-0.001119,-0.00584961,0.00278473,0.00999965,1525,1695,6.41422,-20.4843
308,-671,6.42273,20.3425,0.00284295,-0.000446501,-0.00010101,0.00284605,-0.0004496,-0.0306688,0.00206363,0.0110516,1532,1695,6.4227,-20.3425
315,-671,6.46338,20.2051,0.00223258,2.76705e-05,-0.000129477,0.00224015,2.00934e-05,-0.0584545,0.00148678,0.0128657,1539,1695,6.46333,-20.2051
322,-671,6.47888,20.0659,0.00168448,0.000338032,-0.000148805,0.00170073,0.000321783,-0.108768,0.00104324,0.0150781,1546,1695,6.47885,-20.066
329,-671,6.43774,19.8798,0.00119388,0.0005797,-0.000203915,0.00125541,0.000518163,-0.293086,0.000728482,0.014363,1553,1695,6.43778,-19.8797
336,-671,6.44153,19.6957,0.000748033,0.0007071,-0.000327651,0.00105586,0.000399277,-0.754207,0.000615603,0.0106912,1560,1695,6.44158,-19.6957
343,-671,6.45081,19.5195,0.000394133,0.000757901,-0.000518595,0.00112558,2.64513e-05,-0.954058,0.000741729,0.00984941,1567,1695,6.45082,-19.5195
350,-671,6.46289,19.3439,0.000174134,0.000640432,-0.000714902,0.00115924,-0.000344676,-0.943024,0.000909752,0.0109258,1574,1695,6.46295,-19.3439
357,-671,6.4718,19.1448,0.000181977,0.000679698,-0.00100731,0.00146843,-0.00060676,-0.9065,0.00123206,0.0110481,1581,1695,6.47183,-19.1447
364,-671,6.4707,18.9564,0.000207531,0.000700967,-0.00131161,0.00178887,-0.000880369,-0.878363,0.00157056,0.0130684,1588,1695,6.47071,-18.9564
371,-671,6.45166,18.8119,0.00038062,0.000653779,-0.00173462,0.00225719,-0.00122279,-0.824686,0.00203854,0.0144853,1595,1695,6.4517,-18.8118
378,-671,6.4386,18.6189,0.000545475,0.000696471,-0.00217941,0.00280169,-0.00155975,-0.802712,0.00255188,0.0112547,1602,1695,6.43856,-18.6189
385,-671,6.40625,18.3979,0.000877685,0.000818378,-0.00259305,0.00344125,-0.00174519,-0.77968,0.00304729,0.0134004,1609,1695,6.4062,-18.3979
392,-671,6.38269,18.2626,0.00152359,0.000731042,-0.00312399,0.00427633,-0.0020217,-0.722311,0.00371303,0.0209484,1616,1695,6.38272,-18.2626
399,-671,6.33643,18.0208,0.00219642,0.000538724,-0.00358894,0.00505097,-0.00231583,-0.671915,0.00434984,0.0197834,1623,1695,6.33639,-18.0208
406,-671,6.41541,17.7374,0.00310341,0.000134586,-0.0038125,0.00571028,-0.00247229,-0.59975,0.00484594,0.028295,1630,1695,6.41537,-17.7375
413,-671,6.48364,17.6116,0.00420314,-0.000605184,-0.00400136,0.00646705,-0.0028691,-0.514881,0.00552204,0.0363444,1637,1695,6.48367,-17.6116
420,-671,6.57861,17.4619,0.00538451,-0.00229573,-0.00407008,0.00714011,-0.00405132,-0.40723,0.00654289,0.0471425,1644,1695,6.57866,-17.4619
427,-671,6.63452,17.2211,0,0,0,0,0,0,0,-1,1651,1695,6.6345,-17.2211
434,-671,6.43274,17.157,0,0,0,0,0,0,0,-1,1658,1695,6.43272,-17.157
441,-671,6.36658,15.9032,0,0,0,0,0,0,0,-1,1665,1695,6.36662,-15.9031
448,-671,6.11865,15.4597,0,0,0,0,0,0,0,-1,1672,1695,6.11868,-15.4597
455,-671,3.40137,9.28076,0,0,0,0,0,0,0,-1,1679,1695,3.40135,-9.28082
462,-671,5.86255,4.47961,0,0,0,0,0,0,0,-1,1686,1695,5.8625,-4.4796
469,-671,3.71301,3.76978,0,0,0,0,0,0,0,-1,1693,1695,3.71297,-3.76974
476,-671,3.75574,3.18848,0,0,0,0,0,0,0,-1,1700,1695,3.7558,-3.18847
483,-671,7.81824,12.1041,0,0,0,0,0,0,0,-1,1707,1695,7.81826,-12.1041
490,-671,0,0,0,0,0,0,0,0,0,-1,1714,1695,0,0
497,-671,0,0,0,0,0,0,0,0,0,-1,1721,1695,0,0
504,-671,0,0,0,0,0,0,0,0,0,-1,1728,1695,0,0
511,-671,0,0,0,0,0,0,0,0,0,-1,1735,1695,0,0
518,-671,0,0,0,0,0,0,0,0,0,-1,1742,1695,0,0
525,-671,0,0,0,0,0,0,0,0,0,-1,1749,1695,0,0
532,-671,0,0,0,0,0,0,0,0,0,-1,1756,1695,0,0
539,-671,0,0,0,0,0,0,0,0,0,-1,1763,1695,0,0
546,-671,0,0,0,0,0,0,0,0,0,-1,1770,1695,0,0
553,-671,0,0,0,0,0,0,0,0,0,-1,1777,1695,0,0
560,-671,0,0,0,0,0,0,0,0,0,-1,1784,1695,0,0
567,-671,0,0,0,0,0,0,0,0,0,-1,1791,1695,0,0
574,-671,0,0,0,0,0,0,0,0,0,-1,1798,1695,0,0
581,-671,0,0,0,0,0,0,0,0,0,-1,1805,1695,0,0
588,-671,0,0,0,0,0,0,0,0,0,-1,1812,1695,0,0
595,-671,0,0,0,0,0,0,0,0,0,-1,1819,1695,0,0
602,-671,0,0,0,0,0,0,0,0,0,-1,1826,1695,0,0
609,-671,0,0,0,0,0,0,0,0,0,-1,1833,1695,0,0
616,-671,0,0,0,0,0,0,0,0,0,-1,1840,1695,0,0
623,-671,0,0,0,0,0,0,0,0,0,-1,1847,1695,0,0
630,-671,0,0,0,0,0,0,0,0,0,-1,1854,1695,0,0
637,-671,0,0,0,0,0,0,0,0,0,-1,1861,1695,0,0
644,-671,0,0,0,0,0,0,0,0,0,-1,1868,1695,0,0
651,-671,0,0,0,0,0,0,0,0,0,-1,1875,1695,0,0
658,-671,0,0,0,0,0,0,0,0,0,-1,1882,1695,0,0
665,-671,0,0,0,0,0,0,0,0,0,-1,1889,1695,0,0
672,-671,0,0,0,0,0,0,0,0,0,-1,1896,1695,0,0
679,-671,0,0,0,0,0,0,0,0,0,-1,1903,1695,0,0
686,-671,0,0,0,0,0,0,0,0,0,-1,1910,1695,0,0
693,-671,0,0,0,0,0,0,0,0,0,-1,1917,1695,0,0
700,-671,0,0,0,0,0,0,0,0,0,-1,1924,1695,0,0
707,-671,0,0,0,0,0,0,0,0,0,-1,1931,1695,0,0
714,-671,0,0,0,0,0,0,0,0,0,-1,1938,1695,0,0
721,-671,0,0,0,0,0,0,0,0,0,-1,1945,1695,0,0
728,-671,0,0,0,0,0,0,0,0,0,-1,1952,1695,0,0
735,-671,0,0,0,0,0,0,0,0,0,-1,1959,1695,0,0
742,-671,0,0,0,0,0,0,0,0,0,-1,1966,1695,0,0
749,-671,0,0,0,0,0,0,0,0,0,-1,1973,1695,0,0
756,-671,0,0,0,0,0,0,0,0,0,-1,1980,1695,0,0
763,-671,0,0,0,0,0,0,0,0,0,-1,1987,1695,0,0
770,-671,0,0,0,0,0,0,0,0,0,-1,1994,1695,0,0
777,-671,0,0,0,0,0,0,0,0,0,-1,2001,1695,0,0
784,-671,0,0,0,0,0,0,0,0,0,-1,2008,1695,0,0
791,-671,0,0,0,0,0,0,0,0,0,-1,2015,1695,0,0
798,-671,0,0,0,0,0,0,0,0,0,-1,2022,1695,0,0
805,-671,0,0,0,0,0,0,0,0,0,-1,2029,1695,0,0
812,-671,0,0,0,0,0,0,0,0,0,-1,2036,1695,0,0
-700,-678,0,0,0,0,0,0,0,0,0,-1,524,1702,0,0
-693,-678,0,0,0,0,0,0,0,0,0,-1,531,1702,0,0
-686,-678,0,0,0,0,0,0,0,0,0,-1,538,1702,0,0
-679,-678,0,0,0,0,0,0,0,0,0,-1,545,1702,0,0
-672,-678,0,0,0,0,0,0,0,0,0,-1,552,1702,0,0
-665,-678,0,0,0,0,0,0,0,0,0,-1,559,1702,0,0
-658,-678,0,0,0,0,0,0,0,0,0,-1,566,1702,0,0
-651,-678,0,0,0,0,0,0,0,0,0,-1,573,1702,0,0
-644,-678,0,0,0,0,0,0,0,0,0,-1,580,1702,0,0
-637,-678,0,0,0,0,0,0,0,0,0,-1,587,1702,0,0
-630,-678,0,0,0,0,0,0,0,0,0,-1,594,1702,0,0
-623,-678,0,0,0,0,0,0,0,0,0,-1,601,1702,0,0
-616,-678,0,0,0,0,0,0,0,0,0,-1,608,1702,0,0
-609,-678,0,0,0,0,0,0,0,0,0,-1,615,1702,0,0
-602,-678,0,0,0,0,0,0,0,0,0,-1,622,1702,0,0
-595,-678,0,0,0,0,0,0,0,0,0,-1,629,1702,0,0
-588,-678,0,0,0,0,0,0,0,0,0,-1,636,1702,0,0
-581,-678,0,0,0,0,0,0,0,0,0,-1,643,1702,0,0
-574,-678,0,0,0,0,0,0,0,0,0,-1,650,1702,0,0
-567,-678,0,0,0,0,0,0,0,0,0,-1,657,1702,0,0
-560,-678,0,0,0,0,0,0,0,0,0,-1,664,1702,0,0
-553,-678,0,0,0,0,0,0,0,0,0,-1,671,1702,0,0
-546,-678,0,0,0,0,0,0,0,0,0,-1,678,1702,0,0
-539,-678,0,0,0,0,0,0,0,0,0,-1,685,1702,0,0
-532,-678,0,0,0,0,0,0,0,0,0,-1,692,1702,0,0
-525,-678,0,0,0,0,0,0,0,0,0,-1,699,1702,0,0
-518,-678,0,0,0,0,0,0,0,0,0,-1,706,1702,0,0
-511,-678,0,0,0,0,0,0,0,0,0,-1,713,1702,0,0
-504,-678,0,0,0,0,0,0,0,0,0,-1,720,1702,0,0
-497,-678,0,0,0,0,0,0,0,0,0,-1,727,1702,0,0
-490,-678,0,0,0,0,0,0,0,0,0,-1,734,1702,0,0
-483,-678,0,0,0,0,0,0,0,0,0,-1,741,1702,0,0
-476,-678,0,0,0,0,0,0,0,0,0,-1,748,1702,0,0
-469,-678,0,0,0,0,0,0,0,0,0,-1,755,1702,0,0
-462,-678,0,0,0,0,0,0,0,0,0,-1,762,1702,0,0
-455,-678,0,0,0,0,0,0,0,0,0,-1,769,1702,0,0
-448,-678,0,0,0,0,0,0,0,0,0,-1,776,1702,0,0
-441,-678,0,0,0,0,0,0,0,0,0,-1,783,1702,0,0
-434,-678,0,0,0,0,0,0,0,0,0,-1,790,1702,0,0
-427,-678,0,0,0,0,0,0,0,0,0,-1,797,1702,0,0
-420,-678,0,0,0,0,0,0,0,0,0,-1,804,1702,0,0
-413,-678,0,0,0,0,0,0,0,0,0,-1,811,1702,0,0
-406,-678,0,0,0,0,0,0,0,0,0,-1,818,1702,0,0
-399,-678,0,0,0,0,0,0,0,0,0,-1,825,1702,0,0
-392,-678,0,0,0,0,0,0,0,0,0,-1,832,1702,0,0
-385,-678,0,0,0,0,0,0,0,0,0,-1,839,1702,0,0
-378,-678,0,0,0,0,0,0,0,0,0,-1,846,1702,0,0
-371,-678,0,0,0,0,0,0,0,0,0,-1,853,1702,0,0
-364,-678,0,0,0,0,0,0,0,0,0,-1,860,1702,0,0
-357,-678,0,0,0,0,0,0,0,0,0,-1,867,1702,0,0
-350,-678,-5.79944,6.11865,0,0,0,0,0,0,0,-1,874,1702,-5.79942,-6.11864
-343,-678,-6.44891,4.52759,0,0,0,0,0,0,0,-1,881,1702,-6.4489,-4.52758
-336,-678,-6.91888,2.99438,0,0,0,0,0,0,0,-1,888,1702,-6.9189,-2.99435
-329,-678,-7.14575,1.29761,0,0,0,0,0,0,0,-1,895,1702,-7.14577,-1.29755
-322,-678,4.74548,15.4724,0,0,0,0,0,0,0,-1,902,1702,4.7455,-15.4724
-315,-678,4.36572,14.9368,0,0,0,0,0,0,0,-1,909,1702,4.36572,-14.9368
-308,-678,5.23639,14.2709,0,0,0,0,0,0,0,-1,916,1702,5.2364,-14.2709
-301,-678,6.19672,13.7417,0,0,0,0,0,0,0,-1,923,1702,6.19674,-13.7417
-294,-678,7.29407,13.215,0,0,0,0,0,0,0,-1,930,1702,7.29405,-13.215
-287,-678,3.61902,16.4828,0,0,0,0,0,0,0,-1,937,1702,3.61904,-16.4827
-280,-678,4.06586,16.8761,0.0022084,-0.00332296,0.00158347,0.00262963,-0.00374419,0.259993,0.00369863,0.0484237,944,1702,4.06584,-16.8761
-273,-678,4.41656,17.0691,0.000296759,-0.00393778,0.00113393,0.000581285,-0.0042223,0.245845,0.00302729,0.0420909,951,1702,4.41654,-17.0691
-266,-678,4.5321,17.1814,-0.000996924,-0.00404721,0.000300277,-0.000967645,-0.00407649,0.097199,0.0024594,0.0350575,958,1702,4.53208,-17.1814
-259,-678,4.59894,17.4349,-0.00162958,-0.00373954,-0.000192136,-0.00161223,-0.00375689,-0.0900742,0.00217629,0.024665,965,1702,4.59894,-17.4349
-252,-678,4.61365,17.5894,-0.00177849,-0.00353653,-0.000644054,-0.00156779,-0.00374723,-0.316166,0.00217305,0.0198333,972,1702,4.61367,-17.5894
-245,-678,4.67517,17.83,-0.00178571,-0.00269597,-0.000989476,-0.00115171,-0.00332997,-0.56984,0.00195277,0.0181489,979,1702,4.67519,-17.8299
-238,-678,4.66534,18.0579,-0.00180027,-0.00163676,-0.00107734,-0.000638071,-0.00279895,-0.823268,0.00169382,0.0144561,986,1702,4.66532,-18.0579
-231,-678,4.63245,18.2686,-0.0017247,-0.000883788,-0.000883265,-0.000326012,-0.00228248,-1.00754,0.00142546,0.0124966,993,1702,4.63247,-18.2685
-224,-678,4.61115,18.4446,-0.00141936,-8.8611e-05,-0.000648185,0.000174921,-0.00168289,-1.18464,0.00118455,0.0125041,1000,1702,4.61113,-18.4446
-217,-678,4.62939,18.6627,-0.00117474,0.000475854,-0.000440016,0.000585826,-0.00128472,-1.32589,0.0011048,0.0128273,1007,1702,4.6294,-18.6627
-210,-678,4.63489,18.9015,-0.000952413,0.000524757,-0.000194289,0.000549884,-0.00097754,-1.44218,0.000893306,0.0130429,1014,1702,4.63491,-18.9015
-203,-678,4.61975,19.072,-0.000632465,0.000588479,6.32953e-05,0.000591751,-0.000635738,1.51914,0.000708843,0.017123,1021,1702,4.61969,-19.072
-196,-678,4.61292,19.2478,-0.000340284,0.000505631,0.000243218,0.000570575,-0.000405228,1.30986,0.00056607,0.0175327,1028,1702,4.61289,-19.2478
-189,-678,4.60852,19.4369,-1.07239e-05,0.000361136,0.000434488,0.000647805,-0.000297393,0.987572,0.000558071,0.0099068,1035,1702,4.60858,-19.4368
-182,-678,4.60229,19.6335,0.0002584,0.000274524,0.000446403,0.000712938,-0.000180014,0.794427,0.000545293,0.00910797,1042,1702,4.60225,-19.6335
-175,-678,4.58582,19.8086,0.00048176,0.000234309,0.000348288,0.000727646,-1.15766e-05,0.614731,0.000489002,0.00961621,1049,1702,4.58577,-19.8086
-168,-678,4.59912,19.954,0.000596179,0.000192227,0.000290628,0.000748122,4.02837e-05,0.48173,0.000485877,0.00947342,1056,1702,4.59913,-19.9539
-161,-678,4.60571,20.1014,0.0007423,0.000143704,0.00025395,0.00083552,5.04847e-05,0.351807,0.000540971,0.00947556,1063,1702,4.60568,-20.1014
-154,-678,4.60156,20.2667,0.000916802,0.000166653,0.000179071,0.000957357,0.000126099,0.222714,0.000600634,0.00908765,1070,1702,4.60154,-20.2667
-147,-678,4.60645,20.4285,0.00114418,0.000146374,5.23916e-05,0.00114692,0.00014363,0.0523151,0.000721519,0.010421,1077,1702,4.60648,-20.4285
-140,-678,4.62939,20.5891,0.00148317,0.000196295,-8.78285e-05,0.00148913,0.000190329,-0.0678304,0.000935788,0.0110711,1084,1702,4.6294,-20.5891
-133,-678,4.64709,20.7468,0.00196412,0.000125995,-0.000115635,0.00197137,0.000118749,-0.0625805,0.00127651,0.0115547,1091,1702,4.64706,-20.7468
-126,-678,4.65063,20.8844,0.00255689,0.000170502,4.90619e-05,0.0025579,0.000169494,0.0205475,0.00165167,0.00931315,1098,1702,4.65061,-20.8844
-119,-678,4.6842,21.0988,0.00313669,8.16262e-05,0.000186165,0.00314799,7.03238e-05,0.0606374,0.00207562,0.0195197,1105,1702,4.68418,-21.0988
-112,-678,4.7489,21.2512,0.00371777,-4.16759e-05,0.000361649,0.00375224,-7.61496e-05,0.0950363,0.00252726,0.0293592,1112,1702,4.74886,-21.2513
-105,-678,4.76978,21.3323,0.00435802,-0.000141786,0.000584628,0.00443274,-0.000216501,0.127112,0.0030299,0.0311258,1119,1702,4.76982,-21.3323
-98,-678,4.68506,21.3011,0.00514317,-0.000260583,0.000886462,0.00528488,-0.000402288,0.158513,0.00366471,0.0221233,1126,1702,4.68502,-21.3011
-91,-678,4.73926,21.4186,0.00577209,-0.000262121,0.00123011,0.00601322,-0.000503251,0.193568,0.00418666,0.0214934,1133,1702,4.73929,-21.4186
-84,-678,4.82007,21.4766,0.00630162,-0.00027855,0.00152729,0.00663884,-0.000615762,0.217304,0.00464477,0.0358311,1140,1702,4.82003,-21.4766
-77,-678,4.88708,21.6824,0,0,0,0,0,0,0,-1,1147,1702,4.88705,-21.6823
-70,-678,4.75891,19.6552,0,0,0,0,0,0,0,-1,1154,1702,4.75895,-19.6551
-63,-678,3.41687,11.0365,0,0,0,0,0,0,0,-1,1161,1702,3.41682,-11.0365
-56,-678,1.72388,6.13159,0,0,0,0,0,0,0,-1,1168,1702,1.72388,-6.13157
-49,-678,-0.241699,5.29895,0,0,0,0,0,0,0,-1,1175,1702,-0.241682,-5.29897
-42,-678,0.297119,3.90649,0,0,0,0,0,0,0,-1,1182,1702,0.297139,-3.90655
-35,-678,0.498413,3.64038,0,0,0,0,0,0,0,-1,1189,1702,0.498471,-3.64038
-28,-678,0.132446,3.55994,0,0,0,0,0,0,0,-1,1196,1702,0.132432,-3.55993
-21,-678,4.9021,22.3097,0,0,0,0,0,0,0,-1,1203,1702,4.90208,-22.3097
-14,-678,5.15674,22.2897,0.0362548,0.0106345,0.0195545,0.0468215,6.78077e-05,0.495422,0.0311918,0.0387913,1210,1702,5.15673,-22.2896
-7,-678,5.22095,22.4541,0.0403517,0.0114002,0.0212299,0.0515713,0.000180529,0.486175,0.0343209,0.0404528,1217,1702,5.2209,-22.4541
0,-678,5.38379,22.5483,0.0442183,0.013096,0.0237434,0.0570455,0.00026885,0.495321,0.037941,0.0413895,1224,1702,5.3838,-22.5484
7,-678,5.72314,22.5253,0.0465571,0.0157916,0.0259484,0.0613396,0.001009,0.517836,0.0405609,0.0422682,1231,1702,5.72312,-22.5253
14,-678,5.70496,22.6093,0.0463605,0.0194902,0.0277086,0.0637194,0.00213139,0.559661,0.0417872,0.0450626,1238,1702,5.70497,-22.6093
21,-678,5.92029,22.8107,0.0434041,0.0216825,0.0288534,0.063373,0.00171355,0.605394,0.0416893,0.0449793,1245,1702,5.9203,-22.8107
28,-678,6.19983,22.8724,0.0384802,0.022844,0.0301962,0.061854,-0.000529733,0.658725,0.0414137,0.0445177,1252,1702,6.19984,-22.8724
35,-678,6.33459,22.8749,0.0328174,0.0239518,0.030781,0.0594832,-0.00271395,0.713884,0.0405904,0.0422617,1259,1702,6.33459,-22.8749
42,-678,6.48145,22.9264,0.0258313,0.0237958,0.0310859,0.0559161,-0.00628907,0.769034,0.0395408,0.0445251,1266,1702,6.48141,-22.9264
49,-678,5.32996,23.0791,0,0,0,0,0,0,0,-1,1273,1702,5.32996,-23.0791
56,-678,7.979,22.5493,0.0121625,0.0215668,0.0293689,0.0466076,-0.0128783,0.864778,0.0361377,0.0441882,1280,1702,7.97895,-22.5493
63,-678,5.71533,21.2664,0.00476946,0.0195198,0.0275021,0.0406185,-0.0163292,0.916399,0.033861,0.0427907,1287,1702,5.71534,-21.2663
70,-678,5.79895,22.3032,-0.00250058,0.0176292,0.0255599,0.0350345,-0.0199059,0.972963,0.0321182,0.0419719,1294,1702,5.7989,-22.3032
77,-678,6.01904,22.7678,0,0,0,0,0,0,0,-1,1301,1702,6.01902,-22.7678
84,-678,5.97168,22.7687,0,0,0,0,0,0,0,-1,1308,1702,5.97173,-22.7687
91,-678,5.91333,22.9165,0,0,0,0,0,0,0,-1,1315,1702,5.9133,-22.9165
98,-678,4.33398,23.1191,-0.0129386,0.013296,0.0129831,0.0186347,-0.0182773,1.18067,0.0213115,0.0398715,1322,1702,4.33395,-23.1191
105,-678,4.10547,23.2371,-0.0124084,0.0147204,0.00943583,0.0176796,-0.0153676,1.2669,0.0190954,0.0389496,1329,1702,4.10544,-23.237
112,-678,4.43994,23.3805,-0.0105219,0.0162532,0.00621188,0.0176242,-0.0118929,1.35358,0.0171485,0.0424573,1336,1702,4.43992,-23.3805
119,-678,4.71497,23.6576,0,0,0,0,0,0,0,-1,1343,1702,4.71496,-23.6576
126,-678,2.5105,21.7961,0,0,0,0,0,0,0,-1,1350,1702,2.51054,-21.7962
133,-678,2.56091,21.4871,0,0,0,0,0,0,0,-1,1357,1702,2.56086,-21.487
140,-678,2.57141,20.8688,0,0,0,0,0,0,0,-1,1364,1702,2.57142,-20.8688
147,-678,2.09082,21.0452,0,0,0,0,0,0,0,-1,1371,1702,2.09087,-21.0451
154,-678,1.8512,20.7605,0,0,0,0,0,0,0,-1,1378,1702,1.85115,-20.7605
161,-678,3.44202,4.53992,0,0,0,0,0,0,0,-1,1385,1702,3.442,-4.53996
168,-678,4.21863,5.25781,0,0,0,0,0,0,0,-1,1392,1702,4.21865,-5.25781
175,-678,5.21899,5.9635,0,0,0,0,0,0,0,-1,1399,1702,5.21894,-5.96346
182,-678,7.31262,6.75122,0,0,0,0,0,0,0,-1,1406,1702,7.3126,-6.75123
189,-678,5.96021,6.36853,0,0,0,0,0,0,0,-1,1413,1702,5.96018,-6.36851
196,-678,5.01599,8.15771,0,0,0,0,0,0,0,-1,1420,1702,5.01596,-8.15767
203,-678,4.64771,13.0559,0,0,0,0,0,0,0,-1,1427,1702,4.64766,-13.0559
210,-678,5.6532,18.5957,0,0,0,0,0,0,0,-1,1434,1702,5.65318,-18.5958
217,-678,6.38293,22.2357,0,0,0,0,0,0,0,-1,1441,1702,6.38294,-22.2357
224,-678,6.21338,21.8372,0,0,0,0,0,0,0,-1,1448,1702,6.21332,-21.8371
231,-678,6.16785,21.6698,0,0,0,0,0,0,0,-1,1455,1702,6.1679,-21.6698
238,-678,6.21606,21.6155,0,0,0,0,0,0,0,-1,1462,1702,6.21606,-21.6155
245,-678,6.19666,21.5353,0,0,0,0,0,0,0,-1,1469,1702,6.19667,-21.5353
252,-678,6.21313,21.3843,0.00352081,-0.00260349,0.000293295,0.00353482,-0.0026175,0.0477448,0.00356518,0.0304331,1476,1702,6.21311,-21.3843
259,-678,6.20874,21.3162,0.00382652,-0.00284072,0.000265437,0.00383707,-0.00285127,0.0397282,0.00387547,0.01685,1483,1702,6.20875,-21.3162
266,-678,6.24866,21.2053,0.00404277,-0.00298824,0.000155314,0.0040462,-0.00299167,0.0220756,0.00407849,0.0106586,1490,1702,6.24868,-21.2053
273,-678,6.2699,21.0712,0.0040419,-0.00291377,7.24789e-05,0.00404265,-0.00291453,0.0104186,0.00403429,0.00981884,1497,1702,6.26989,-21.0712
280,-678,6.25964,20.9331,0.00378678,-0.00235366,-5.12506e-07,0.00378678,-0.00235366,-8.34641e-05,0.00357722,0.0104415,1504,1702,6.25969,-20.9331
287,-678,6.25903,20.7643,0.00333231,-0.00166886,-4.66566e-05,0.00333274,-0.00166929,-0.00932807,0.00294067,0.0120888,1511,1702,6.25901,-20.7643
294,-678,6.25867,20.6061,0.00278431,-0.00106323,-6.86467e-05,0.00278553,-0.00106446,-0.0178341,0.00229563,0.0129425,1518,1702,6.25863,-20.6061
301,-678,6.25879,20.4807,0.00220022,-0.000494168,-8.08651e-05,0.00220265,-0.000496593,-0.0299764,0.00165893,0.0116943,1525,1702,6.25878,-20.4807
308,-678,6.26782,20.3477,0.0016516,-1.75177e-06,-0.000134379,0.00166245,-1.26024e-05,-0.0805718,0.00111252,0.0130503,1532,1702,6.26781,-20.3477
315,-678,6.28589,20.2006,0.00114074,0.000326212,-0.000116321,0.00115702,0.000309926,-0.139105,0.000691589,0.0144425,1539,1702,6.2859,-20.2006
322,-678,6.26746,20.0458,0.000703226,0.000510572,-0.000113192,0.00075553,0.000458267,-0.432861,0.000439495,0.0172284,1546,1702,6.26741,-20.0457
329,-678,6.2561,19.8794,0.000327464,0.000616741,-0.000180417,0.00070334,0.000240865,-1.12328,0.000412738,0.0148285,1553,1702,6.25607,-19.8795
336,-678,6.25159,19.6927,2.17544e-05,0.00065022,-0.000365175,0.00081775,-0.000145775,-1.14068,0.000599694,0.0116732,1560,1702,6.25158,-19.6927
343,-678,6.25513,19.5253,-0.000232266,0.000679684,-0.000599047,0.000976551,-0.000529133,-1.1107,0.000882007,0.0108075,1567,1702,6.25515,-19.5252
350,-678,6.26843,19.3544,-0.000363751,0.000527449,-0.000852176,0.0010435,-0.000879798,-1.0263,0.00111175,0.0115308,1574,1702,6.26845,-19.3544
357,-678,6.27075,19.166,-0.000226714,0.000600535,-0.00125033,0.00150388,-0.00113006,-0.945138,0.0015258,0.00940568,1581,1702,6.27077,-19.166
364,-678,6.2738,18.9773,-4.59403e-05,0.000654449,-0.00168555,0.00202579,-0.00141729,-0.887823,0.00199818,0.0118688,1588,1702,6.27378,-18.9773
371,-678,6.255,18.8337,0.000319665,0.000649709,-0.00229192,0.00278254,-0.00181316,-0.821337,0.00267293,0.0121987,1595,1702,6.25503,-18.8337
378,-678,6.25781,18.5961,0.000625171,0.000829538,-0.00293883,0.00366796,-0.00221325,-0.802776,0.00342997,0.0131134,1602,1702,6.25778,-18.5961
385,-678,6.24304,18.4154,0.00109977,0.00115518,-0.00356998,0.00469756,-0.00244261,-0.789278,0.00419035,0.0194905,1609,1702,6.2431,-18.4154
392,-678,6.18286,18.3137,0.00195402,0.00129666,-0.00434245,0.00598021,-0.00272953,-0.747625,0.00514399,0.0347436,1616,1702,6.18283,-18.3137
399,-678,6.00659,18.0995,0.00286875,0.00120974,-0.00502212,0.0071294,-0.00305091,-0.703552,0.00603279,0.0433364,1623,1702,6.00659,-18.0994
406,-678,6.23645,17.666,0.00408914,0.000913564,-0.00543502,0.00816356,-0.00316085,-0.643283,0.00674746,0.0498016,1630,1702,6.23648,-17.666
413,-678,6.39734,17.3568,0,0,0,0,0,0,0,-1,1637,1702,6.3973,-17.3569
420,-678,6.60071,17.4585,0,0,0,0,0,0,0,-1,1644,1702,6.60066,-17.4585
427,-678,4.57483,10.1555,0,0,0,0,0,0,0,-1,1651,1702,4.57485,-10.1555
434,-678,6.75635,16.0447,0,0,0,0,0,0,0,-1,1658,1702,6.75629,-16.0446
441,-678,6.47717,15.7784,0,0,0,0,0,0,0,-1,1665,1702,6.47721,-15.7784
448,-678,3.25525,9.74719,0,0,0,0,0,0,0,-1,1672,1702,3.25522,-9.7472
455,-678,5.44678,5.54297,0,0,0,0,0,0,0,-1,1679,1702,5.44676,-5.54294
462,-678,3.86792,2.87402,0,0,0,0,0,0,0,-1,1686,1702,3.86796,-2.87406
469,-678,2.26587,1.98755,0,0,0,0,0,0,0,-1,1693,1702,2.26592,-1.98755
476,-678,0,0,0,0,0,0,0,0,0,-1,1700,1702,0,0
483,-678,0,0,0,0,0,0,0,0,0,-1,1707,1702,0,0
490,-678,0,0,0,0,0,0,0,0,0,-1,1714,1702,0,0
497,-678,0,0,0,0,0,0,0,0,0,-1,1721,1702,0,0
504,-678,0,0,0,0,0,0,0,0,0,-1,1728,1702,0,0
511,-678,0,0,0,0,0,0,0,0,0,-1,1735,1702,0,0
518,-678,0,0,0,0,0,0,0,0,0,-1,1742,1702,0,0
525,-678,0,0,0,0,0,0,0,0,0,-1,1749,1702,0,0
532,-678,0,0,0,0,0,0,0,0,0,-1,1756,1702,0,0
539,-678,0,0,0,0,0,0,0,0,0,-1,1763,1702,0,0
546,-678,0,0,0,0,0,0,0,0,0,-1,1770,1702,0,0
553,-678,0,0,0,0,0,0,0,0,0,-1,1777,1702,0,0
560,-678,0,0,0,0,0,0,0,0,0,-1,1784,1702,0,0
567,-678,0,0,0,0,0,0,0,0,0,-1,1791,1702,0,0
574,-678,0,0,0,0,0,0,0,0,0,-1,1798,1702,0,0
581,-678,0,0,0,0,0,0,0,0,0,-1,1805,1702,0,0
588,-678,0,0,0,0,0,0,0,0,0,-1,1812,1702,0,0
595,-678,0,0,0,0,0,0,0,0,0,-1,1819,1702,0,0
602,-678,0,0,0,0,0,0,0,0,0,-1,1826,1702,0,0
609,-678,0,0,0,0,0,0,0,0,0,-1,1833,1702,0,0
616,-678,0,0,0,0,0,0,0,0,0,-1,1840,1702,0,0
623,-678,0,0,0,0,0,0,0,0,0,-1,1847,1702,0,0
630,-678,0,0,0,0,0,0,0,0,0,-1,1854,1702,0,0
637,-678,0,0,0,0,0,0,0,0,0,-1,1861,1702,0,0
644,-678,0,0,0,0,0,0,0,0,0,-1,1868,1702,0,0
651,-678,0,0,0,0,0,0,0,0,0,-1,1875,1702,0,0
658,-678,0,0,0,0,0,0,0,0,0,-1,1882,1702,0,0
665,-678,0,0,0,0,0,0,0,0,0,-1,1889,1702,0,0
672,-678,0,0,0,0,0,0,0,0,0,-1,1896,1702,0,0
679,-678,0,0,0,0,0,0,0,0,0,-1,1903,1702,0,0
686,-678,0,0,0,0,0,0,0,0,0,-1,1910,1702,0,0
693,-678,0,0,0,0,0,0,0,0,0,-1,1917,1702,0,0
700,-678,0,0,0,0,0,0,0,0,0,-1,1924,1702,0,0
707,-678,0,0,0,0,0,0,0,0,0,-1,1931,1702,0,0
714,-678,0,0,0,0,0,0,0,0,0,-1,1938,1702,0,0
721,-678,0,0,0,0,0,0,0,0,0,-1,1945,1702,0,0
728,-678,0,0,0,0,0,0,0,0,0,-1,1952,1702,0,0
735,-678,0,0,0,0,0,0,0,0,0,-1,1959,1702,0,0
742,-678,0,0,0,0,0,0,0,0,0,-1,1966,1702,0,0
749,-678,0,0,0,0,0,0,0,0,0,-1,1973,1702,0,0
756,-678,0,0,0,0,0,0,0,0,0,-1,1980,1702,0,0
763,-678,0,0,0,0,0,0,0,0,0,-1,1987,1702,0,0
770,-678,0,0,0,0,0,0,0,0,0,-1,1994,1702,0,0
777,-678,0,0,0,0,0,0,0,0,0,-1,2001,1702,0,0
784,-678,0,0,0,0,0,0,0,0,0,-1,2008,1702,0,0
791,-678,0,0,0,0,0,0,0,0,0,-1,2015,1702,0,0
798,-678,0,0,0,0,0,0,0,0,0,-1,2022,1702,0,0
805,-678,0,0,0,0,0,0,0,0,0,-1,2029,1702,0,0
812,-678,0,0,0,0,0,0,0,0,0,-1,2036,1702,0,0
-700,-685,0,0,0,0,0,0,0,0,0,-1,524,1709,0,0
-693,-685,0,0,0,0,0,0,0,0,0,-1,531,1709,0,0
-686,-685,0,0,0,0,0,0,0,0,0,-1,538,1709,0,0
-679,-685,0,0,0,0,0,0,0,0,0,-1,545,1709,0,0
-672,-685,0,0,0,0,0,0,0,0,0,-1,552,1709,0,0
-665,-685,0,0,0,0,0,0,0,0,0,-1,559,1709,0,0
-658,-685,0,0,0,0,0,0,0,0,0,-1,566,1709,0,0
-651,-685,0,0,0,0,0,0,0,0,0,-1,573,1709,0,0
-644,-685,0,0,0,0,0,0,0,0,0,-1,580,1709,0,0
-637,-685,0,0,0,0,0,0,0,0,0,-1,587,1709,0,0
-630,-685,0,0,0,0,0,0,0,0,0,-1,594,1709,0,0
-623,-685,0,0,0,0,0,0,0,0,0,-1,601,1709,0,0
-616,-685,0,0,0,0,0,0,0,0,0,-1,608,1709,0,0
-609,-685,0,0,0,0,0,0,0,0,0,-1,615,1709,0,0
-602,-685,0,0,0,0,0,0,0,0,0,-1,622,1709,0,0
-595,-685,0,0,0,0,0,0,0,0,0,-1,629,1709,0,0
-588,-685,0,0,0,0,0,0,0,0,0,-1,636,1709,0,0
-581,-685,0,0,0,0,0,0,0,0,0,-1,643,1709,0,0
-574,-685,0,0,0,0,0,0,0,0,0,-1,650,1709,0,0
-567,-685,0,0,0,0,0,0,0,0,0,-1,657,1709,0,0
-560,-685,0,0,0,0,0,0,0,0,0,-1,664,1709,0,0
-553,-685,0,0,0,0,0,0,0,0,0,-1,671,1709,0,0
-546,-685,0,0,0,0,0,0,0,0,0,-1,678,1709,0,0
-539,-685,0,0,0,0,0,0,0,0,0,-1,685,1709,0,0
-532,-685,0,0,0,0,0,0,0,0,0,-1,692,1709,0,0
-525,-685,0,0,0,0,0,0,0,0,0,-1,699,1709,0,0
-518,-685,0,0,0,0,0,0,0,0,0,-1,706,1709,0,0
-511,-685,0,0,0,0,0,0,0,0,0,-1,713,1709,0,0
-504,-685,0,0,0,0,0,0,0,0,0,-1,720,1709,0,0
-497,-685,0,0,0,0,0,0,0,0,0,-1,727,1709,0,0
-490,-685,0,0,0,0,0,0,0,0,0,-1,734,1709,0,0
-483,-685,0,0,0,0,0,0,0,0,0,-1,741,1709,0,0
-476,-685,0,0,0,0,0,0,0,0,0,-1,748,1709,0,0
-469,-685,0,0,0,0,0,0,0,0,0,-1,755,1709,0,0
-462,-685,0,0,0,0,0,0,0,0,0,-1,762,1709,0,0
-455,-685,0,0,0,0,0,0,0,0,0,-1,769,1709,0,0
-448,-685,0,0,0,0,0,0,0,0,0,-1,776,1709,0,0
-441,-685,0,0,0,0,0,0,0,0,0,-1,783,1709,0,0
-434,-685,0,0,0,0,0,0,0,0,0,-1,790,1709,0,0
-427,-685,0,0,0,0,0,0,0,0,0,-1,797,1709,0,0
-420,-685,0,0,0,0,0,0,0,0,0,-1,804,1709,0,0
-413,-685,0,0,0,0,0,0,0,0,0,-1,811,1709,0,0
-406,-685,0,0,0,0,0,0,0,0,0,-1,818,1709,0,0
-399,-685,0,0,0,0,0,0,0,0,0,-1,825,1709,0,0
-392,-685,0,0,0,0,0,0,0,0,0,-1,832,1709,0,0
-385,-685,0,0,0,0,0,0,0,0,0,-1,839,1709,0,0
-378,-685,0,0,0,0,0,0,0,0,0,-1,846,1709,0,0
-371,-685,0,0,0,0,0,0,0,0,0,-1,853,1709,0,0
-364,-685,0,0,0,0,0,0,0,0,0,-1,860,1709,0,0
-357,-685,0,0,0,0,0,0,0,0,0,-1,867,1709,0,0
-350,-685,0,0,0,0,0,0,0,0,0,-1,874,1709,0,0
-343,-685,-5.98505,6.56335,0,0,0,0,0,0,0,-1,881,1709,-5.98505,-6.56329
-336,-685,-6.51312,5.10571,0,0,0,0,0,0,0,-1,888,1709,-6.51311,-5.10575
-329,-685,-6.81384,3.34106,0,0,0,0,0,0,0,-1,895,1709,-6.81385,-3.341
-322,-685,3.83191,16.7219,0,0,0,0,0,0,0,-1,902,1709,3.8319,-16.7219
-315,-685,4.36914,16.3297,0,0,0,0,0,0,0,-1,909,1709,4.36913,-16.3297
-308,-685,5.98596,14.1881,0,0,0,0,0,0,0,-1,916,1709,5.98598,-14.1881
-301,-685,6.96613,13.8759,0,0,0,0,0,0,0,-1,923,1709,6.96616,-13.8759
-294,-685,6.33026,17.536,0,0,0,0,0,0,0,-1,930,1709,6.33024,-17.5361
-287,-685,5.69226,17.5049,0,0,0,0,0,0,0,-1,937,1709,5.69226,-17.5049
-280,-685,4.86719,17.5525,0.000640031,-0.00605767,0.000876484,0.000752831,-0.00617047,0.127992,0.00438618,0.048126,944,1709,4.86719,-17.5525
-273,-685,4.47095,17.3087,-0.00122052,-0.00627062,0.000474324,-0.00117636,-0.00631478,0.0928418,0.00387768,0.0486299,951,1709,4.47094,-17.3088
-266,-685,4.62341,17.2012,-0.00245365,-0.0059683,-0.000365827,-0.00241597,-0.00600598,-0.10262,0.00348957,0.0465063,958,1709,4.62344,-17.2011
-259,-685,4.86078,17.5045,-0.00301845,-0.00519906,-0.000816388,-0.00274668,-0.00547083,-0.321357,0.00315859,0.0430555,965,1709,4.86078,-17.5045
-252,-685,4.97748,17.6659,-0.00299816,-0.00457584,-0.00120014,-0.00235083,-0.00522318,-0.494658,0.00302061,0.0392062,972,1709,4.97746,-17.6658
-245,-685,5.01147,17.817,-0.00288644,-0.00331638,-0.0015048,-0.00158133,-0.00462149,-0.714451,0.00271217,0.033011,979,1709,5.01144,-17.817
-238,-685,4.89771,18.0588,-0.00282438,-0.00190463,-0.00154145,-0.000755923,-0.00397309,-0.930364,0.00243616,0.0221215,986,1709,4.89768,-18.0588
-231,-685,4.82886,18.2932,-0.00260226,-0.000882834,-0.00122901,-0.000242691,-0.0032424,-1.0906,0.00208542,0.015112,993,1709,4.82888,-18.2932
-224,-685,4.81207,18.4565,-0.00208512,0.000124091,-0.000920431,0.000457312,-0.00241834,-1.22345,0.00178431,0.0141483,1000,1709,4.8121,-18.4566
-217,-685,4.815,18.6781,-0.00169888,0.000874363,-0.000670157,0.00103843,-0.00186295,-1.3307,0.00169751,0.0107988,1007,1709,4.81501,-18.6781
-210,-685,4.81647,18.9086,-0.00137323,0.00101258,-0.000380185,0.0010717,-0.00143234,-1.41653,0.0014507,0.0135595,1014,1709,4.81644,-18.9086
-203,-685,4.81384,19.0916,-0.000911369,0.00115962,-7.20651e-05,0.00116213,-0.000913873,-1.53605,0.00120143,0.013276,1021,1709,4.81378,-19.0916
-196,-685,4.8031,19.2673,-0.00060764,0.00110986,0.000122717,0.00111859,-0.000616364,1.49983,0.00101557,0.0125401,1028,1709,4.80311,-19.2674
-189,-685,4.78821,19.428,-0.000240187,0.000938354,0.000385611,0.00105331,-0.000355143,1.28107,0.000845818,0.00864768,1035,1709,4.78826,-19.428
-182,-685,4.78076,19.6108,6.87793e-05,0.000816677,0.000437596,0.00101834,-0.000132883,1.13896,0.000727245,0.0121729,1042,1709,4.78082,-19.6108
-175,-685,4.76526,19.7911,0.000293752,0.000756977,0.000355762,0.000949876,0.000100852,1.07395,0.000602454,0.0117705,1049,1709,4.76528,-19.7911
-168,-685,4.76587,19.9608,0.000348083,0.000724319,0.000334259,0.000919759,0.000152642,1.0417,0.000569156,0.00945172,1056,1709,4.76592,-19.9608
-161,-685,4.77246,20.1222,0.000404267,0.000621283,0.00033507,0.000864976,0.000160574,0.941988,0.000531278,0.0117387,1063,1709,4.77245,-20.1221
-154,-685,4.78296,20.2891,0.000527906,0.000599222,0.000291292,0.000857031,0.000270098,0.846302,0.000505952,0.0108876,1070,1709,4.78298,-20.289
-147,-685,4.77124,20.4305,0.000704661,0.000540715,0.000206451,0.000844817,0.000400558,0.596413,0.000487973,0.00919216,1077,1709,4.77126,-20.4306
-140,-685,4.77234,20.5621,0.00100807,0.000508688,0.000147136,0.0010482,0.000468561,0.266246,0.00060631,0.011541,1084,1709,4.77233,-20.5621
-133,-685,4.79675,20.7251,0.00146462,0.000403186,0.000133866,0.00148124,0.000386563,0.123541,0.000887173,0.0107236,1091,1709,4.79671,-20.725
-126,-685,4.80701,20.8716,0.00200104,0.000419815,0.000206317,0.00202752,0.000393338,0.127632,0.00124151,0.00844132,1098,1709,4.80698,-20.8716
-119,-685,4.80566,21.028,0.0024925,0.000340009,0.000282657,0.002529,0.00030351,0.128416,0.00159449,0.0119536,1105,1709,4.8057,-21.0279
-112,-685,4.80798,21.1515,0.00297792,0.000205769,0.000392099,0.00303231,0.000151377,0.137841,0.00197302,0.0123697,1112,1709,4.80799,-21.1515
-105,-685,4.79736,21.2659,0.00347156,2.83338e-05,0.000512572,0.00354625,-4.63496e-05,0.144685,0.00237976,0.0114051,1119,1709,4.79733,-21.2658
-98,-685,4.85657,21.3475,0.00401694,-0.000170854,0.000693181,0.0041287,-0.00028261,0.159846,0.00285134,0.0148005,1126,1709,4.85654,-21.3475
-91,-685,4.8667,21.4474,0.00433788,-0.00033244,0.000851059,0.00448813,-0.000482692,0.174747,0.00316528,0.0165443,1133,1709,4.86674,-21.4474
-84,-685,4.8573,21.5616,0.00464592,-0.000468483,0.00104315,0.0048505,-0.000673063,0.19366,0.00347979,0.0159926,1140,1709,4.85735,-21.5616
-77,-685,4.97937,21.8054,0.0051435,-0.000285303,0.000850312,0.00527356,-0.000415371,0.151788,0.00366203,0.0218438,1147,1709,4.9794,-21.8055
-70,-685,5.19714,22.1466,0,0,0,0,0,0,0,-1,1154,1709,5.19719,-22.1466
-63,-685,5.0166,22.2197,0,0,0,0,0,0,0,-1,1161,1709,5.01659,-22.2197
-56,-685,3.93909,15.8704,0,0,0,0,0,0,0,-1,1168,1709,3.93905,-15.8704
-49,-685,3.07471,9.86011,0,0,0,0,0,0,0,-1,1175,1709,3.07467,-9.86009
-42,-685,2.70618,7.54504,0,0,0,0,0,0,0,-1,1182,1709,2.7062,-7.54504
-35,-685,2.95264,7.91516,0,0,0,0,0,0,0,-1,1189,1709,2.95262,-7.91517
-28,-685,4.9375,22.4563,0,0,0,0,0,0,0,-1,1196,1709,4.93745,-22.4564
-21,-685,5.03772,22.3563,0.0307724,0.0046819,0.0154502,0.0379482,-0.00249381,0.434798,0.0261697,0.0434293,1203,1709,5.03767,-22.3563
-14,-685,5.17883,22.3748,0.0337313,0.00533986,0.0173226,0.0419318,-0.00286064,0.442142,0.0289552,0.0278219,1210,1709,5.17879,-22.3747
-7,-685,5.13647,22.5073,0.0363208,0.00655728,0.0187906,0.0454088,-0.00253076,0.450482,0.0311504,0.0402215,1217,1709,5.13649,-22.5073
0,-685,5.28979,22.5952,0.0386626,0.00826757,0.020832,0.0492515,-0.00232126,0.470263,0.0336348,0.0409496,1224,1709,5.28978,-22.5952
7,-685,5.52344,22.5903,0.0396462,0.0107513,0.0226415,0.052057,-0.00165949,0.501418,0.0352709,0.0360415,1231,1709,5.5234,-22.5903
14,-685,5.58301,22.6852,0.0386835,0.013997,0.0241315,0.0534453,-0.000764837,0.548996,0.0358879,0.038591,1238,1709,5.58296,-22.6851
21,-685,5.64624,22.7252,0.0356343,0.0157596,0.0250504,0.0526464,-0.00125257,0.596572,0.0355225,0.0376934,1245,1709,5.64621,-22.7252
28,-685,5.59729,22.6509,0.0311717,0.0167385,0.0261033,0.0510376,-0.00312746,0.650535,0.035114,0.0402403,1252,1709,5.59731,-22.6508
35,-685,5.63159,22.6659,0.0262647,0.0176806,0.026481,0.0487992,-0.00485387,0.705056,0.0342655,0.0407008,1259,1709,5.63157,-22.6659
42,-685,5.51453,22.9783,0.0203696,0.0177326,0.0265932,0.045677,-0.00757474,0.760628,0.033265,0.0460184,1266,1709,5.51458,-22.9782
49,-685,5.35181,22.8582,0.0143624,0.0171386,0.0256556,0.0414436,-0.0099427,0.812424,0.0314713,0.049915,1273,1709,5.35177,-22.8582
56,-685,5.18506,22.7032,0,0,0,0,0,0,0,-1,1280,1709,5.18501,-22.7032
63,-685,5.28857,22.8131,0.00213731,0.0147003,0.0223071,0.0315934,-0.0147558,0.92264,0.027342,0.0442629,1287,1709,5.28856,-22.8131
70,-685,5.85437,22.7584,-0.00394245,0.013125,0.0202534,0.0265691,-0.0173865,0.984785,0.0255617,0.0460207,1294,1709,5.85443,-22.7585
77,-685,5.82239,22.7271,-0.00849714,0.011498,0.0176082,0.0217489,-0.018748,1.04359,0.0234023,0.049052,1301,1709,5.82234,-22.727
84,-685,5.79688,22.7113,-0.010995,0.0100305,0.013747,0.0168237,-0.0177882,1.11183,0.0199858,0.0478473,1308,1709,5.79687,-22.7113
91,-685,5.79456,22.7694,-0.0115591,0.00884141,0.0105407,0.0133092,-0.0160269,1.16989,0.0169614,0.0444706,1315,1709,5.79456,-22.7695
98,-685,4.98242,22.7738,-0.0111959,0.00884115,0.00838008,0.0118839,-0.0142386,1.22251,0.0151022,0.0371572,1322,1709,4.98242,-22.7738
105,-685,5.45483,22.3781,-0.0101063,0.00979236,0.00558507,0.0112528,-0.0115667,1.31504,0.0131752,0.0400477,1329,1709,5.45478,-22.3781
112,-685,4.73694,23.3699,0,0,0,0,0,0,0,-1,1336,1709,4.737,-23.3698
119,-685,5.68958,22.5931,-0.00533368,0.0116545,0.00107518,0.0117223,-0.00540146,1.50784,0.0101084,0.0417841,1343,1709,5.68953,-22.5932
126,-685,5.67456,22.5231,-0.00279015,0.0143597,-9.88386e-05,0.0143602,-0.00279072,-1.56503,0.0106266,0.044901,1350,1709,5.67452,-22.5231
133,-685,5.70142,22.412,0,0,0,0,0,0,0,-1,1357,1709,5.70145,-22.412
140,-685,5.86731,22.4879,0.000544293,0.0173402,-7.31435e-05,0.0173406,0.000543974,-1.56644,0.0113834,0.0451907,1364,1709,5.86727,-22.4879
147,-685,5.9928,22.5486,0.00164317,0.0184554,0.000680765,0.0184829,0.00161565,1.53039,0.0118203,0.0420937,1371,1709,5.99279,-22.5486
154,-685,5.6864,22.8098,0,0,0,0,0,0,0,-1,1378,1709,5.68639,-22.8098
161,-685,6.05518,22.7544,0,0,0,0,0,0,0,-1,1385,1709,6.05514,-22.7544
168,-685,4.37524,10.8778,0,0,0,0,0,0,0,-1,1392,1709,4.37525,-10.8778
175,-685,3.97522,8.94324,0,0,0,0,0,0,0,-1,1399,1709,3.97519,-8.94328
182,-685,3.98218,9.19739,0,0,0,0,0,0,0,-1,1406,1709,3.98221,-9.1974
189,-685,4.53479,15.2343,0,0,0,0,0,0,0,-1,1413,1709,4.53474,-15.2343
196,-685,6.00647,22.3973,0,0,0,0,0,0,0,-1,1420,1709,6.0065,-22.3973
203,-685,5.98462,22.157,0,0,0,0,0,0,0,-1,1427,1709,5.98456,-22.157
210,-685,6.07397,22.0577,0,0,0,0,0,0,0,-1,1434,1709,6.07396,-22.0578
217,-685,6.12073,22.0502,0.000758333,0.000519757,0.00119269,0.00183769,-0.000559597,0.735556,0.00144816,0.0407021,1441,1709,6.12072,-22.0502
224,-685,6.09021,21.8606,0.000837019,-0.000104779,0.000876138,0.00136079,-0.000628548,0.538811,0.00117419,0.0178377,1448,1709,6.09022,-21.8606
231,-685,6.05554,21.7288,0.00136936,-0.000729642,0.000440298,0.00145798,-0.00081826,0.198615,0.00133138,0.0162515,1455,1709,6.05557,-21.7288
238,-685,6.0603,21.6215,0.0017881,-0.00110921,0.000283021,0.00181549,-0.00113659,0.0964689,0.00171934,0.0185059,1462,1709,6.06026,-21.6215
245,-685,6.04272,21.5176,0.00204253,-0.0014189,0.0002336,0.00205823,-0.00143459,0.0670812,0.00202727,0.0193727,1469,1709,6.04277,-21.5176
252,-685,6.08032,21.4065,0.00227369,-0.0016153,0.00019167,0.00228311,-0.00162472,0.0491266,0.00226684,0.0139374,1476,1709,6.08034,-21.4065
259,-685,6.09424,21.3241,0.00251526,-0.00178037,0.000149087,0.00252043,-0.00178554,0.0346511,0.00249809,0.00985866,1483,1709,6.09425,-21.3241
266,-685,6.12012,21.1986,0.00263995,-0.0018413,5.07236e-05,0.00264052,-0.00184187,0.0113172,0.00260157,0.0105195,1490,1709,6.12018,-21.1986
273,-685,6.12927,21.0692,0.00259719,-0.001741,-2.94043e-05,0.00259739,-0.0017412,-0.00677759,0.00252109,0.011456,1497,1709,6.12927,-21.0693
280,-685,6.12366,20.9281,0.0023555,-0.00131937,-7.90116e-05,0.0023572,-0.00132107,-0.0214873,0.00215155,0.0131247,1504,1709,6.1237,-20.9281
287,-685,6.13147,20.7799,0.00194447,-0.000802583,-9.24134e-05,0.00194757,-0.000805689,-0.0335903,0.00163453,0.0124116,1511,1709,6.13149,-20.78
294,-685,6.11646,20.635,0.00146265,-0.000266847,-9.27665e-05,0.00146762,-0.000271809,-0.0534334,0.00108047,0.0108178,1518,1709,6.11649,-20.635
301,-685,6.10828,20.4851,0.000948764,0.000190697,-0.000100117,0.000961764,0.000177697,-0.12912,0.000590918,0.0126769,1525,1709,6.10833,-20.4851
308,-685,6.11255,20.3456,0.00046867,0.00055208,-0.000152228,0.000668213,0.000352538,-0.919101,0.000385988,0.0140216,1532,1709,6.11256,-20.3455
315,-685,6.14087,20.204,2.7235e-05,0.000775597,-0.000103873,0.000789747,1.3085e-05,-1.43541,0.000522191,0.0125097,1539,1709,6.14084,-20.204
322,-685,6.11914,20.0222,-0.000308985,0.000863597,-8.40436e-05,0.00086959,-0.000314978,-1.49961,0.000708456,0.0200576,1546,1709,6.11911,-20.0222
329,-685,6.10889,19.8574,-0.000572535,0.000848848,-0.000169014,0.000868669,-0.000592355,-1.45406,0.000848536,0.018397,1553,1709,6.10892,-19.8575
336,-685,6.11121,19.6971,-0.000731498,0.000797653,-0.000428551,0.000909565,-0.000843411,-1.31536,0.00101232,0.0124556,1560,1709,6.11118,-19.6971
343,-685,6.10352,19.5259,-0.000869524,0.000802572,-0.000724707,0.00107295,-0.0011399,-1.21371,0.00127778,0.0108741,1567,1709,6.10349,-19.5259
350,-685,6.0979,19.3463,-0.000896468,0.000607909,-0.00105711,0.00115313,-0.00144168,-1.09462,0.0015012,0.0118049,1574,1709,6.09789,-19.3463
357,-685,6.09656,19.1726,-0.000611708,0.000702332,-0.0015832,0.00175943,-0.0016688,-0.982081,0.00197952,0.00960204,1581,1709,6.09653,-19.1726
364,-685,6.08789,18.9784,-0.000234383,0.000775102,-0.00218362,0.00251155,-0.00197083,-0.898978,0.00259418,0.00930659,1588,1709,6.0879,-18.9784
371,-685,6.09485,18.772,0.000382932,0.000787547,-0.00303323,0.00362521,-0.00245473,-0.818697,0.00353187,0.0153827,1595,1709,6.09484,-18.7719
378,-685,6.00452,18.6158,0.000849236,0.0011227,-0.00395203,0.00494036,-0.00296842,-0.802691,0.00461321,0.0241547,1602,1709,6.00446,-18.6158
385,-685,5.98206,18.4177,0.00146614,0.0016328,-0.00485056,0.00640074,-0.0033018,-0.793987,0.00569621,0.0438573,1609,1709,5.98208,-18.4177
392,-685,5.9917,18.0491,0.00254752,0.00201546,-0.0059276,0.00821506,-0.00365207,-0.762973,0.00701829,0.0458139,1616,1709,5.99172,-18.049
399,-685,5.7749,18.1221,0,0,0,0,0,0,0,-1,1623,1709,5.77488,-18.122
406,-685,6.09204,17.5364,0,0,0,0,0,0,0,-1,1630,1709,6.09202,-17.5363
413,-685,6.13098,16.2029,0,0,0,0,0,0,0,-1,1637,1709,6.13099,-16.2029
420,-685,4.84631,10.3781,0,0,0,0,0,0,0,-1,1644,1709,4.84634,-10.378
427,-685,6.05151,9.21155,0,0,0,0,0,0,0,-1,1651,1709,6.05156,-9.21156
434,-685,4.87769,8.91418,0,0,0,0,0,0,0,-1,1658,1709,4.87768,-8.91413
441,-685,5.62,8.75549,0,0,0,0,0,0,0,-1,1665,1709,5.61996,-8.75545
448,-685,6.4043,8.58972,0,0,0,0,0,0,0,-1,1672,1709,6.40435,-8.58971
455,-685,2.31958,4.09802,0,0,0,0,0,0,0,-1,1679,1709,2.31957,-4.09803
462,-685,0,0,0,0,0,0,0,0,0,-1,1686,1709,0,0
469,-685,0,0,0,0,0,0,0,0,0,-1,1693,1709,0,0
476,-685,0,0,0,0,0,0,0,0,0,-1,1700,1709,0,0
483,-685,0,0,0,0,0,0,0,0,0,-1,1707,1709,0,0
490,-685,0,0,0,0,0,0,0,0,0,-1,1714,1709,0,0
497,-685,0,0,0,0,0,0,0,0,0,-1,1721,1709,0,0
504,-685,0,0,0,0,0,0,0,0,0,-1,1728,1709,0,0
511,-685,0,0,0,0,0,0,0,0,0,-1,1735,1709,0,0
518,-685,0,0,0,0,0,0,0,0,0,-1,1742,1709,0,0
525,-685,0,0,0,0,0,0,0,0,0,-1,1749,1709,0,0
532,-685,0,0,0,0,0,0,0,0,0,-1,1756,1709,0,0
539,-685,0,0,0,0,0,0,0,0,0,-1,1763,1709,0,0
546,-685,0,0,0,0,0,0,0,0,0,-1,1770,1709,0,0
553,-685,0,0,0,0,0,0,0,0,0,-1,1777,1709,0,0
560,-685,0,0,0,0,0,0,0,0,0,-1,1784,1709,0,0
567,-685,0,0,0,0,0,0,0,0,0,-1,1791,1709,0,0
574,-685,0,0,0,0,0,0,0,0,0,-1,1798,1709,0,0
581,-685,0,0,0,0,0,0,0,0,0,-1,1805,1709,0,0
588,-685,0,0,0,0,0,0,0,0,0,-1,1812,1709,0,0
595,-685,0,0,0,0,0,0,0,0,0,-1,1819,1709,0,0
602,-685,0,0,0,0,0,0,0,0,0,-1,1826,1709,0,0
609,-685,0,0,0,0,0,0,0,0,0,-1,1833,1709,0,0
616,-685,0,0,0,0,0,0,0,0,0,-1,1840,1709,0,0
623,-685,0,0,0,0,0,0,0,0,0,-1,1847,1709,0,0
630,-685,0,0,0,0,0,0,0,0,0,-1,1854,1709,0,0
637,-685,0,0,0,0,0,0,0,0,0,-1,1861,1709,0,0
644,-685,0,0,0,0,0,0,0,0,0,-1,1868,1709,0,0
651,-685,0,0,0,0,0,0,0,0,0,-1,1875,1709,0,0
658,-685,0,0,0,0,0,0,0,0,0,-1,1882,1709,0,0
665,-685,0,0,0,0,0,0,0,0,0,-1,1889,1709,0,0
672,-685,0,0,0,0,0,0,0,0,0,-1,1896,1709,0,0
679,-685,0,0,0,0,0,0,0,0,0,-1,1903,1709,0,0
686,-685,0,0,0,0,0,0,0,0,0,-1,1910,1709,0,0
693,-685,0,0,0,0,0,0,0,0,0,-1,1917,1709,0,0
700,-685,0,0,0,0,0,0,0,0,0,-1,1924,1709,0,0
707,-685,0,0,0,0,0,0,0,0,0,-1,1931,1709,0,0
714,-685,0,0,0,0,0,0,0,0,0,-1,1938,1709,0,0
721,-685,0,0,0,0,0,0,0,0,0,-1,1945,1709,0,0
728,-685,0,0,0,0,0,0,0,0,0,-1,1952,1709,0,0
735,-685,0,0,0,0,0,0,0,0,0,-1,1959,1709,0,0
742,-685,0,0,0,0,0,0,0,0,0,-1,1966,1709,0,0
749,-685,0,0,0,0,0,0,0,0,0,-1,1973,1709,0,0
756,-685,0,0,0,0,0,0,0,0,0,-1,1980,1709,0,0
763,-685,0,0,0,0,0,0,0,0,0,-1,1987,1709,0,0
770,-685,0,0,0,0,0,0,0,0,0,-1,1994,1709,0,0
777,-685,0,0,0,0,0,0,0,0,0,-1,2001,1709,0,0
784,-685,0,0,0,0,0,0,0,0,0,-1,2008,1709,0,0
791,-685,0,0,0,0,0,0,0,0,0,-1,2015,1709,0,0
798,-685,0,0,0,0,0,0,0,0,0,-1,2022,1709,0,0
805,-685,0,0,0,0,0,0,0,0,0,-1,2029,1709,0,0
812,-685,0,0,0,0,0,0,0,0,0,-1,2036,1709,0,0
-700,-692,0,0,0,0,0,0,0,0,0,-1,524,1716,0,0
-693,-692,0,0,0,0,0,0,0,0,0,-1,531,1716,0,0
-686,-692,0,0,0,0,0,0,0,0,0,-1,538,1716,0,0
-679,-692,0,0,0,0,0,0,0,0,0,-1,545,1716,0,0
-672,-692,0,0,0,0,0,0,0,0,0,-1,552,1716,0,0
-665,-692,0,0,0,0,0,0,0,0,0,-1,559,1716,0,0
-658,-692,0,0,0,0,0,0,0,0,0,-1,566,1716,0,0
-651,-692,0,0,0,0,0,0,0,0,0,-1,573,1716,0,0
-644,-692,0,0,0,0,0,0,0,0,0,-1,580,1716,0,0
-637,-692,0,0,0,0,0,0,0,0,0,-1,587,1716,0,0
-630,-692,0,0,0,0,0,0,0,0,0,-1,594,1716,0,0
-623,-692,0,0,0,0,0,0,0,0,0,-1,601,1716,0,0
-616,-692,0,0,0,0,0,0,0,0,0,-1,608,1716,0,0
-609,-692,0,0,0,0,0,0,0,0,0,-1,615,1716,0,0
-602,-692,0,0,0,0,0,0,0,0,0,-1,622,1716,0,0
-595,-692,0,0,0,0,0,0,0,0,0,-1,629,1716,0,0
-588,-692,0,0,0,0,0,0,0,0,0,-1,636,1716,0,0
-581,-692,0,0,0,0,0,0,0,0,0,-1,643,1716,0,0
-574,-692,0,0,0,0,0,0,0,0,0,-1,650,1716,0,0
-567,-692,0,0,0,0,0,0,0,0,0,-1,657,1716,0,0
-560,-692,0,0,0,0,0,0,0,0,0,-1,664,1716,0,0
-553,-692,0,0,0,0,0,0,0,0,0,-1,671,1716,0,0
-546,-692,0,0,0,0,0,0,0,0,0,-1,678,1716,0,0
-539,-692,0,0,0,0,0,0,0,0,0,-1,685,1716,0,0
-532,-692,0,0,0,0,0,0,0,0,0,-1,692,1716,0,0
-525,-692,0,0,0,0,0,0,0,0,0,-1,699,1716,0,0
-518,-692,0,0,0,0,0,0,0,0,0,-1,706,1716,0,0
-511,-692,0,0,0,0,0,0,0,0,0,-1,713,1716,0,0
-504,-692,0,0,0,0,0,0,0,0,0,-1,720,1716,0,0
-497,-692,0,0,0,0,0,0,0,0,0,-1,727,1716,0,0
-490,-692,0,0,0,0,0,0,0,0,0,-1,734,1716,0,0
-483,-692,0,0,0,0,0,0,0,0,0,-1,741,1716,0,0
-476,-692,0,0,0,0,0,0,0,0,0,-1,748,1716,0,0
-469,-692,0,0,0,0,0,0,0,0,0,-1,755,1716,0,0
-462,-692,0,0,0,0,0,0,0,0,0,-1,762,1716,0,0
-455,-692,0,0,0,0,0,0,0,0,0,-1,769,1716,0,0
-448,-692,0,0,0,0,0,0,0,0,0,-1,776,1716,0,0
-441,-692,0,0,0,0,0,0,0,0,0,-1,783,1716,0,0
-434,-692,0,0,0,0,0,0,0,0,0,-1,790,1716,0,0
-427,-692,0,0,0,0,0,0,0,0,0,-1,797,1716,0,0
-420,-692,0,0,0,0,0,0,0,0,0,-1,804,1716,0,0
-413,-692,0,0,0,0,0,0,0,0,0,-1,811,1716,0,0
-406,-692,0,0,0,0,0,0,0,0,0,-1,818,1716,0,0
-399,-692,0,0,0,0,0,0,0,0,0,-1,825,1716,0,0
-392,-692,0,0,0,0,0,0,0,0,0,-1,832,1716,0,0
-385,-692,0,0,0,0,0,0,0,0,0,-1,839,1716,0,0
-378,-692,0,0,0,0,0,0,0,0,0,-1,846,1716,0,0
-371,-692,0,0,0,0,0,0,0,0,0,-1,853,1716,0,0
-364,-692,0,0,0,0,0,0,0,0,0,-1,860,1716,0,0
-357,-692,0,0,0,0,0,0,0,0,0,-1,867,1716,0,0
-350,-692,0,0,0,0,0,0,0,0,0,-1,874,1716,0,0
-343,-692,0,0,0,0,0,0,0,0,0,-1,881,1716,0,0
-336,-692,0,0,0,0,0,0,0,0,0,-1,888,1716,0,0
-329,-692,3.03107,4.10266,0,0,0,0,0,0,0,-1,895,1716,3.03105,-4.10267
-322,-692,4.43713,18.5242,0,0,0,0,0,0,0,-1,902,1716,4.43711,-18.5241
-315,-692,5.38965,17.975,0,0,0,0,0,0,0,-1,909,1716,5.38963,-17.975
-308,-692,5.86938,17.4392,0,0,0,0,0,0,0,-1,916,1716,5.86937,-17.4392
-301,-692,7.6759,18.0828,0,0,0,0,0,0,0,-1,923,1716,7.67593,-18.0827
-294,-692,6.66138,19.0796,0,0,0,0,0,0,0,-1,930,1716,6.66141,-19.0796
-287,-692,5.70898,17.6921,0,0,0,0,0,0,0,-1,937,1716,5.70897,-17.6922
-280,-692,4.67407,17.4952,-0.00230933,-0.00954617,-0.000327058,-0.00229458,-0.00956092,-0.045071,0.00576341,0.0461706,944,1716,4.6741,-17.4952
-273,-692,4.49921,17.5573,-0.0037467,-0.00901932,-0.000539172,-0.00369213,-0.00907389,-0.100868,0.005269,0.0459342,951,1716,4.49919,-17.5572
-266,-692,4.7616,17.2639,0,0,0,0,0,0,0,-1,958,1716,4.76162,-17.2639
-259,-692,5.1582,17.5404,0,0,0,0,0,0,0,-1,965,1716,5.15819,-17.5404
-252,-692,5.42023,17.8003,0,0,0,0,0,0,0,-1,972,1716,5.42021,-17.8002
-245,-692,5.75555,17.7548,-0.0041769,-0.0037452,-0.00213166,-0.00181849,-0.00610361,-0.835855,0.00361857,0.0466261,979,1716,5.75554,-17.7548
-238,-692,5.51855,18.0344,-0.00397394,-0.0019635,-0.00208992,-0.000649622,-0.00528782,-1.00956,0.00332986,0.0421547,986,1716,5.51853,-18.0344
-231,-692,5.08508,18.3682,-0.00353854,-0.000700234,-0.00161353,2.9447e-05,-0.00426822,-1.14609,0.00285534,0.0345824,993,1716,5.08508,-18.3682
-224,-692,4.99164,18.5175,-0.00272836,0.000480157,-0.00119354,0.000875446,-0.00312365,-1.25098,0.00242745,0.0181057,1000,1716,4.99162,-18.5174
-217,-692,4.97571,18.6857,-0.00216353,0.00138208,-0.000859449,0.00157942,-0.00236087,-1.34509,0.0022898,0.0125448,1007,1716,4.97572,-18.6857
-210,-692,4.99719,18.8688,-0.00172279,0.00157266,-0.000472643,0.00163911,-0.00178924,-1.43112,0.00197999,0.0121545,1014,1716,4.9972,-18.8687
-203,-692,5.00183,19.0493,-0.00110902,0.00177693,-6.58317e-05,0.00177843,-0.00111052,-1.548,0.00168273,0.0136233,1021,1716,5.00183,-19.0493
-196,-692,4.9751,19.2671,-0.000789845,0.00173031,0.000174006,0.00174226,-0.000801803,1.50218,0.0015019,0.0168936,1028,1716,4.97515,-19.2671
-189,-692,4.95459,19.4141,-0.000393694,0.00151656,0.000527386,0.00165249,-0.000529624,1.31854,0.00131427,0.00892857,1035,1716,4.95459,-19.414
-182,-692,4.94873,19.598,-5.93548e-05,0.00135085,0.000631484,0.00159229,-0.000300795,1.20561,0.0011747,0.0127086,1042,1716,4.94872,-19.598
-175,-692,4.9303,19.7904,0.000126155,0.00127205,0.000564099,0.00150314,-0.000104936,1.18199,0.00103884,0.0134386,1049,1716,4.93032,-19.7904
-168,-692,4.92749,19.9695,8.81241e-05,0.00129431,0.000575846,0.00152508,-0.000142641,1.18965,0.00106745,0.0106293,1056,1716,4.92752,-19.9695
-161,-692,4.94409,20.1331,3.88506e-05,0.00119406,0.00061671,0.00146141,-0.000228506,1.16173,0.0010587,0.0128053,1063,1716,4.94412,-20.133
-154,-692,4.94348,20.3047,0.000102394,0.00115328,0.000608635,0.0014319,-0.000176232,1.14148,0.00101844,0.0134957,1070,1716,4.94345,-20.3047
-147,-692,4.92529,20.4484,0.000184645,0.00108695,0.000556113,0.0013519,-8.03033e-05,1.12618,0.000929191,0.0119939,1077,1716,4.92531,-20.4484
-140,-692,4.92249,20.5762,0.000419743,0.0010161,0.000539664,0.00133449,0.000101361,1.03779,0.000857868,0.0104545,1084,1716,4.92244,-20.5762
-133,-692,4.94397,20.7303,0.000825069,0.000906317,0.000518681,0.00138596,0.000345424,0.824479,0.000833057,0.0103956,1091,1716,4.94398,-20.7303
-126,-692,4.94653,20.8683,0.00127161,0.000905993,0.000498686,0.00161994,0.000557665,0.609713,0.000950277,0.00774125,1098,1716,4.94657,-20.8683
-119,-692,4.94775,21.0143,0.001668,0.00083857,0.000516461,0.00191565,0.000590926,0.447115,0.00113272,0.0109629,1105,1716,4.94779,-21.0143
-112,-692,4.94836,21.1399,0.00207679,0.000695609,0.00055628,0.00227297,0.000499428,0.339047,0.00137931,0.0107174,1112,1716,4.94839,-21.14
-105,-692,4.96423,21.2682,0.00246946,0.000464645,0.000567318,0.00261886,0.000315241,0.257505,0.00165089,0.0158477,1119,1716,4.96423,-21.2681
-98,-692,4.99072,21.3667,0.00285371,0.00020692,0.000618473,0.0029911,6.95334e-05,0.218589,0.0019713,0.0178685,1126,1716,4.99071,-21.3667
-91,-692,4.98291,21.4592,0.00310581,-1.12067e-05,0.000654105,0.00323751,-0.000142906,0.198686,0.00220752,0.0197752,1133,1716,4.98291,-21.4593
-84,-692,4.97986,21.5597,0.00331682,-0.000179983,0.000701915,0.00345246,-0.000315617,0.190882,0.00241373,0.0204017,1140,1716,4.97984,-21.5597
-77,-692,5.02893,21.7582,0.00366171,-7.95126e-05,0.000500571,0.00372753,-0.00014533,0.130735,0.00253485,0.0140338,1147,1716,5.02896,-21.7581
-70,-692,5.05945,21.908,0.00402004,5.04757e-05,0.000181845,0.00402835,4.21631e-05,0.0456821,0.00267163,0.0225696,1154,1716,5.05942,-21.9079
-63,-692,5.07617,22.0159,0.00531835,-0.000136492,0.000242722,0.00532913,-0.000147271,0.0443797,0.00360285,0.037076,1161,1716,5.07622,-22.0158
-56,-692,5.12158,22.0967,0,0,0,0,0,0,0,-1,1168,1716,5.12156,-22.0967
-49,-692,5.05054,22.1808,0,0,0,0,0,0,0,-1,1175,1716,5.05057,-22.1808
-42,-692,5.10144,22.2932,0,0,0,0,0,0,0,-1,1182,1716,5.10138,-22.2932
-35,-692,5.20813,22.4507,0,0,0,0,0,0,0,-1,1189,1716,5.20809,-22.4506
-28,-692,5.0625,22.443,0.0221682,0.000437674,0.0101676,0.0261837,-0.00357775,0.376121,0.0187624,0.044438,1196,1716,5.06253,-22.443
-21,-692,5.16553,22.3613,0.0252831,0.000778604,0.0121736,0.0303026,-0.00424089,0.391088,0.0217536,0.0301432,1203,1716,5.16548,-22.3613
-14,-692,5.2041,22.4159,0.0276594,0.00160948,0.0140979,0.0338282,-0.00455931,0.412468,0.0242154,0.0161622,1210,1716,5.20409,-22.4159
-7,-692,5.19531,22.5392,0.0295174,0.00276697,0.0157581,0.0368113,-0.00452697,0.433504,0.0261807,0.01524,1217,1716,5.19528,-22.5391
0,-692,5.20435,22.5973,0.0310628,0.00428727,0.017546,0.0397452,-0.00439515,0.45951,0.0280768,0.0177952,1224,1716,5.20439,-22.5973
7,-692,5.24707,22.5985,0.0313721,0.00642277,0.0191223,0.041729,-0.00393414,0.496381,0.0292192,0.0215566,1231,1716,5.24708,-22.5985
14,-692,5.34802,22.6761,0.0301696,0.00911864,0.0204508,0.0426446,-0.00335635,0.54774,0.029612,0.0232317,1238,1716,5.34801,-22.6762
21,-692,5.41553,22.6904,0.0273855,0.0104507,0.0212382,0.041782,-0.00394585,0.595712,0.0292588,0.0253159,1245,1716,5.41548,-22.6904
28,-692,5.36658,22.6665,0.0236026,0.0112177,0.0220922,0.0403538,-0.00553355,0.648754,0.028924,0.0264472,1252,1716,5.36657,-22.6664
35,-692,5.37744,22.8054,0.0195598,0.0119539,0.0223579,0.0384359,-0.00692221,0.701157,0.0282158,0.0240891,1259,1716,5.37738,-22.8055
42,-692,5.44934,22.8949,0.0147815,0.0120737,0.0223762,0.0358448,-0.00898953,0.755182,0.0273893,0.02231,1266,1716,5.44933,-22.8949
49,-692,5.44861,22.8303,0.00975375,0.0117395,0.0213757,0.0321454,-0.0106521,0.808606,0.0257269,0.0271454,1273,1716,5.44867,-22.8304
56,-692,5.34729,22.7928,0.00491614,0.0111613,0.0199113,0.0281934,-0.0121159,0.863177,0.0238816,0.0312323,1280,1716,5.34734,-22.7929
63,-692,5.39417,22.8755,-0.000239761,0.00998975,0.0178158,0.0234105,-0.0136605,0.925184,0.0216483,0.0289831,1287,1716,5.39413,-22.8755
70,-692,5.54126,22.9209,-0.00496712,0.00874709,0.01574,0.0190588,-0.0152788,0.990826,0.0198648,0.0263904,1294,1716,5.54124,-22.9209
77,-692,5.60742,22.8826,-0.00835351,0.00738805,0.013134,0.0148291,-0.0157945,1.05534,0.0176835,0.0308975,1301,1716,5.60736,-22.8826
84,-692,5.65161,22.7678,-0.0100384,0.00620735,0.00975066,0.0107753,-0.0146064,1.13269,0.0147096,0.0364098,1308,1716,5.65161,-22.7678
91,-692,5.63074,22.775,-0.0100753,0.00507686,0.00667544,0.00759823,-0.0125967,1.20965,0.011778,0.033517,1315,1716,5.63079,-22.775
98,-692,5.59961,22.8291,-0.00928665,0.00483837,0.00428134,0.00603473,-0.010483,1.29831,0.00965111,0.0274508,1322,1716,5.59956,-22.8291
105,-692,5.54663,22.7438,-0.00793943,0.00533651,0.00201479,0.00563554,-0.00823846,1.42345,0.00805701,0.0349973,1329,1716,5.54661,-22.7438
112,-692,5.55652,22.6333,-0.00574056,0.00569247,3.37948e-05,0.00569257,-0.00574065,1.56784,0.00660099,0.0389373,1336,1716,5.55652,-22.6333
119,-692,5.64026,22.7009,-0.00344315,0.00597713,-0.00169984,0.00627448,-0.00374049,-1.39762,0.00584351,0.0326356,1343,1716,5.64029,-22.701
126,-692,5.67859,22.6658,-0.00132457,0.0076724,-0.0027892,0.00846693,-0.0021191,-1.29329,0.00646776,0.0326094,1350,1716,5.67858,-22.6658
133,-692,5.75244,22.6493,0.000236072,0.00868632,-0.00364957,0.0100443,-0.00112191,-1.21458,0.00709978,0.0246954,1357,1716,5.7524,-22.6492
140,-692,5.7677,22.6691,0.00109712,0.00884518,-0.0033756,0.0101095,-0.000167212,-1.21242,0.0067961,0.0255238,1364,1716,5.76776,-22.669
147,-692,5.77039,22.7075,0.00182657,0.00898049,-0.00309057,0.0101307,0.000676346,-1.21451,0.00654003,0.0275983,1371,1716,5.77033,-22.7075
154,-692,5.69885,22.692,0.00245462,0.00891159,-0.00265856,0.00986534,0.00150087,-1.22635,0.00613808,0.0278333,1378,1716,5.69882,-22.692
161,-692,5.87939,22.6658,0.00293844,0.00842169,-0.00247273,0.00937208,0.00198806,-1.20386,0.00570208,0.0422298,1385,1716,5.87941,-22.6657
168,-692,6.00635,22.6566,0,0,0,0,0,0,0,-1,1392,1716,6.00631,-22.6566
175,-692,5.90076,22.4294,0,0,0,0,0,0,0,-1,1399,1716,5.9007,-22.4294
182,-692,5.86206,22.348,0,0,0,0,0,0,0,-1,1406,1716,5.86201,-22.3481
189,-692,5.87537,22.3156,0,0,0,0,0,0,0,-1,1413,1716,5.87541,-22.3155
196,-692,5.90161,22.2313,0.0028103,0.00388246,0.000996426,0.00447786,0.0022149,1.03219,0.00258534,0.0320345,1420,1716,5.90164,-22.2314
203,-692,5.90137,22.1312,0.00188433,0.0010319,0.00103215,0.00257481,0.000341427,0.589592,0.0016148,0.0199496,1427,1716,5.90142,-22.1313
210,-692,5.94067,22.0543,0.00155229,0.000673899,0.000925279,0.00213732,8.88703e-05,0.563812,0.0013962,0.0176196,1434,1716,5.94065,-22.0543
217,-692,5.95032,21.9672,0.00114824,0.00038043,0.000642368,0.00151268,1.59905e-05,0.516057,0.00100316,0.0166512,1441,1716,5.95028,-21.9672
224,-692,5.95764,21.8792,0.00111319,3.9354e-05,0.000441794,0.00127159,-0.000119043,0.344254,0.000890065,0.0129171,1448,1716,5.95764,-21.8791
231,-692,5.94189,21.7679,0.00128701,-0.000303327,0.000196047,0.00131082,-0.000327138,0.120863,0.00100091,0.0114119,1455,1716,5.94184,-21.7679
238,-692,5.94983,21.6205,0.00141758,-0.000527662,0.000123762,0.00142542,-0.000535504,0.063283,0.00117036,0.016725,1462,1716,5.94977,-21.6205
245,-692,5.93286,21.5002,0.00147184,-0.000709267,0.000123809,0.00147884,-0.000716273,0.0565223,0.00129259,0.0192323,1469,1716,5.93284,-21.5003
252,-692,5.974,21.3915,0.00151619,-0.000823816,0.000112844,0.00152162,-0.000829245,0.0480752,0.00137675,0.0176808,1476,1716,5.97398,-21.3915
259,-692,5.96899,21.3142,0.00154003,-0.000887248,7.59231e-05,0.0015424,-0.000889621,0.0312385,0.00142089,0.00927426,1483,1716,5.96899,-21.3142
266,-692,5.95447,21.1915,0.00143635,-0.000813083,2.84855e-06,0.00143635,-0.000813087,0.00126634,0.00131523,0.00903503,1490,1716,5.95447,-21.1915
273,-692,5.9646,21.0548,0.00124566,-0.000645195,-7.52122e-05,0.00124865,-0.000648182,-0.0396932,0.00111328,0.0119769,1497,1716,5.96457,-21.0548
280,-692,5.9939,20.9231,0.000947713,-0.000249098,-0.000134786,0.000962705,-0.00026409,-0.110772,0.00074559,0.0121882,1504,1716,5.99384,-20.9231
287,-692,5.98926,20.7932,0.000544396,0.000204684,-0.000149894,0.000601077,0.000148002,-0.361524,0.000361625,0.0114765,1511,1716,5.98927,-20.7932
294,-692,5.97485,20.67,0.000125538,0.000725807,-0.000166292,0.000768796,8.25495e-05,-1.31782,0.00048735,0.0102731,1518,1716,5.97482,-20.67
301,-692,5.97473,20.5122,-0.000299077,0.00112207,-0.00020213,0.00115026,-0.000327266,-1.43223,0.000896078,0.0126836,1525,1716,5.97478,-20.5121
308,-692,5.9624,20.3738,-0.000744629,0.00140612,-0.000253244,0.00143553,-0.000774045,-1.45516,0.00129462,0.0163287,1532,1716,5.96244,-20.3738
315,-692,5.98096,20.2229,-0.00115086,0.0015556,-0.000167282,0.0015659,-0.00116116,-1.5093,0.00158024,0.0151713,1539,1716,5.981,-20.2229
322,-692,5.94324,20.0062,-0.00140865,0.00155417,-0.000113721,0.00155853,-0.00141301,-1.53249,0.0017163,0.0200026,1546,1716,5.94324,-20.0062
329,-692,5.93213,19.828,-0.00156738,0.00140534,-0.000191024,0.00141757,-0.00157961,-1.50689,0.00173126,0.0175204,1553,1716,5.9321,-19.828
336,-692,5.95874,19.6832,-0.00157102,0.00122634,-0.000505253,0.0013148,-0.00165948,-1.39747,0.00172104,0.0115412,1560,1716,5.95874,-19.6833
343,-692,5.97888,19.515,-0.00157665,0.00114062,-0.000844867,0.00138189,-0.00181792,-1.29263,0.00185312,0.0120899,1567,1716,5.97893,-19.515
350,-692,5.96021,19.3401,-0.00148245,0.000828384,-0.00124219,0.00136944,-0.00202351,-1.16001,0.00197101,0.0129814,1574,1716,5.96023,-19.3401
357,-692,5.93018,19.174,-0.00102667,0.000869201,-0.00188994,0.00203561,-0.00219309,-1.01785,0.002442,0.0160898,1581,1716,5.93016,-19.174
364,-692,5.90002,19.0103,-0.000393019,0.000886591,-0.00267225,0.00299456,-0.00250099,-0.902899,0.00317712,0.0214746,1588,1716,5.90006,-19.0103
371,-692,5.97595,18.8214,0.000570562,0.000833352,-0.00383613,0.00454034,-0.00313642,-0.802517,0.00445682,0.0333496,1595,1716,5.97592,-18.8215
378,-692,6.03577,18.6598,0.00117906,0.00130503,-0.00510204,0.00634447,-0.00386038,-0.79157,0.00594967,0.0435509,1602,1716,6.03582,-18.6597
385,-692,6.04138,18.2753,0.00196436,0.00201237,-0.00639491,0.00838332,-0.00440659,-0.787275,0.0075023,0.0496188,1609,1716,6.04144,-18.2753
392,-692,6.10693,17.6201,0,0,0,0,0,0,0,-1,1616,1716,6.10697,-17.6201
399,-692,5.2627,10.4279,0,0,0,0,0,0,0,-1,1623,1716,5.26267,-10.4278
406,-692,4.73633,10.6808,0,0,0,0,0,0,0,-1,1630,1716,4.73637,-10.6808
413,-692,4.25085,10.5685,0,0,0,0,0,0,0,-1,1637,1716,4.2508,-10.5685
420,-692,5.48901,10.4845,0,0,0,0,0,0,0,-1,1644,1716,5.48906,-10.4845
427,-692,3.79578,8.60339,0,0,0,0,0,0,0,-1,1651,1716,3.79577,-8.6034
434,-692,4.78516,8.64636,0,0,0,0,0,0,0,-1,1658,1716,4.78512,-8.64634
441,-692,5.8208,8.74036,0,0,0,0,0,0,0,-1,1665,1716,5.82084,-8.7404
448,-692,6.73792,8.51013,0,0,0,0,0,0,0,-1,1672,1716,6.73793,-8.5101
455,-692,0,0,0,0,0,0,0,0,0,-1,1679,1716,0,0
462,-692,0,0,0,0,0,0,0,0,0,-1,1686,1716,0,0
469,-692,0,0,0,0,0,0,0,0,0,-1,1693,1716,0,0
476,-692,0,0,0,0,0,0,0,0,0,-1,1700,1716,0,0
483,-692,0,0,0,0,0,0,0,0,0,-1,1707,1716,0,0
490,-692,0,0,0,0,0,0,0,0,0,-1,1714,1716,0,0
497,-692,0,0,0,0,0,0,0,0,0,-1,1721,1716,0,0
504,-692,0,0,0,0,0,0,0,0,0,-1,1728,1716,0,0
511,-692,0,0,0,0,0,0,0,0,0,-1,1735,1716,0,0
518,-692,0,0,0,0,0,0,0,0,0,-1,1742,1716,0,0
525,-692,0,0,0,0,0,0,0,0,0,-1,1749,1716,0,0
532,-692,0,0,0,0,0,0,0,0,0,-1,1756,1716,0,0
539,-692,0,0,0,0,0,0,0,0,0,-1,1763,1716,0,0
546,-692,0,0,0,0,0,0,0,0,0,-1,1770,1716,0,0
553,-692,0,0,0,0,0,0,0,0,0,-1,1777,1716,0,0
560,-692,0,0,0,0,0,0,0,0,0,-1,1784,1716,0,0
567,-692,0,0,0,0,0,0,0,0,0,-1,1791,1716,0,0
574,-692,0,0,0,0,0,0,0,0,0,-1,1798,1716,0,0
581,-692,0,0,0,0,0,0,0,0,0,-1,1805,1716,0,0
588,-692,0,0,0,0,0,0,0,0,0,-1,1812,1716,0,0
595,-692,0,0,0,0,0,0,0,0,0,-1,1819,1716,0,0
602,-692,0,0,0,0,0,0,0,0,0,-1,1826,1716,0,0
609,-692,0,0,0,0,0,0,0,0,0,-1,1833,1716,0,0
616,-692,0,0,0,0,0,0,0,0,0,-1,1840,1716,0,0
623,-692,0,0,0,0,0,0,0,0,0,-1,1847,1716,0,0
630,-692,0,0,0,0,0,0,0,0,0,-1,1854,1716,0,0
637,-692,0,0,0,0,0,0,0,0,0,-1,1861,1716,0,0
644,-692,0,0,0,0,0,0,0,0,0,-1,1868,1716,0,0
651,-692,0,0,0,0,0,0,0,0,0,-1,1875,1716,0,0
658,-692,0,0,0,0,0,0,0,0,0,-1,1882,1716,0,0
665,-692,0,0,0,0,0,0,0,0,0,-1,1889,1716,0,0
672,-692,0,0,0,0,0,0,0,0,0,-1,1896,1716,0,0
679,-692,0,0,0,0,0,0,0,0,0,-1,1903,1716,0,0
686,-692,0,0,0,0,0,0,0,0,0,-1,1910,1716,0,0
693,-692,0,0,0,0,0,0,0,0,0,-1,1917,1716,0,0
700,-692,0,0,0,0,0,0,0,0,0,-1,1924,1716,0,0
707,-692,0,0,0,0,0,0,0,0,0,-1,1931,1716,0,0
714,-692,0,0,0,0,0,0,0,0,0,-1,1938,1716,0,0
721,-692,0,0,0,0,0,0,0,0,0,-1,1945,1716,0,0
728,-692,0,0,0,0,0,0,0,0,0,-1,1952,1716,0,0
735,-692,0,0,0,0,0,0,0,0,0,-1,1959,1716,0,0
742,-692,0,0,0,0,0,0,0,0,0,-1,1966,1716,0,0
749,-692,0,0,0,0,0,0,0,0,0,-1,1973,1716,0,0
756,-692,0,0,0,0,0,0,0,0,0,-1,1980,1716,0,0
763,-692,0,0,0,0,0,0,0,0,0,-1,1987,1716,0,0
770,-692,0,0,0,0,0,0,0,0,0,-1,1994,1716,0,0
777,-692,0,0,0,0,0,0,0,0,0,-1,2001,1716,0,0
784,-692,0,0,0,0,0,0,0,0,0,-1,2008,1716,0,0
791,-692,0,0,0,0,0,0,0,0,0,-1,2015,1716,0,0
798,-692,0,0,0,0,0,0,0,0,0,-1,2022,1716,0,0
805,-692,0,0,0,0,0,0,0,0,0,-1,2029,1716,0,0
812,-692,0,0,0,0,0,0,0,0,0,-1,2036,1716,0,0
-700,-699,0,0,0,0,0,0,0,0,0,-1,524,1723,0,0
-693,-699,0,0,0,0,0,0,0,0,0,-1,531,1723,0,0
-686,-699,0,0,0,0,0,0,0,0,0,-1,538,1723,0,0
-679,-699,0,0,0,0,0,0,0,0,0,-1,545,1723,0,0
-672,-699,0,0,0,0,0,0,0,0,0,-1,552,1723,0,0
-665,-699,0,0,0,0,0,0,0,0,0,-1,559,1723,0,0
-658,-699,0,0,0,0,0,0,0,0,0,-1,566,1723,0,0
-651,-699,0,0,0,0,0,0,0,0,0,-1,573,1723,0,0
-644,-699,0,0,0,0,0,0,0,0,0,-1,580,1723,0,0
-637,-699,0,0,0,0,0,0,0,0,0,-1,587,1723,0,0
-630,-699,0,0,0,0,0,0,0,0,0,-1,594,1723,0,0
-623,-699,0,0,0,0,0,0,0,0,0,-1,601,1723,0,0
-616,-699,0,0,0,0,0,0,0,0,0,-1,608,1723,0,0
-609,-699,0,0,0,0,0,0,0,0,0,-1,615,1723,0,0
-602,-699,0,0,0,0,0,0,0,0,0,-1,622,1723,0,0
-595,-699,0,0,0,0,0,0,0,0,0,-1,629,1723,0,0
-588,-699,0,0,0,0,0,0,0,0,0,-1,636,1723,0,0
-581,-699,0,0,0,0,0,0,0,0,0,-1,643,1723,0,0
-574,-699,0,0,0,0,0,0,0,0,0,-1,650,1723,0,0
-567,-699,0,0,0,0,0,0,0,0,0,-1,657,1723,0,0
-560,-699,0,0,0,0,0,0,0,0,0,-1,664,1723,0,0
-553,-699,0,0,0,0,0,0,0,0,0,-1,671,1723,0,0
-546,-699,0,0,0,0,0,0,0,0,0,-1,678,1723,0,0
-539,-699,0,0,0,0,0,0,0,0,0,-1,685,1723,0,0
-532,-699,0,0,0,0,0,0,0,0,0,-1,692,1723,0,0
-525,-699,0,0,0,0,0,0,0,0,0,-1,699,1723,0,0
-518,-699,0,0,0,0,0,0,0,0,0,-1,706,1723,0,0
-511,-699,0,0,0,0,0,0,0,0,0,-1,713,1723,0,0
-504,-699,0,0,0,0,0,0,0,0,0,-1,720,1723,0,0
-497,-699,0,0,0,0,0,0,0,0,0,-1,727,1723,0,0
-490,-699,0,0,0,0,0,0,0,0,0,-1,734,1723,0,0
-483,-699,0,0,0,0,0,0,0,0,0,-1,741,1723,0,0
-476,-699,0,0,0,0,0,0,0,0,0,-1,748,1723,0,0
-469,-699,0,0,0,0,0,0,0,0,0,-1,755,1723,0,0
-462,-699,0,0,0,0,0,0,0,0,0,-1,762,1723,0,0
-455,-699,0,0,0,0,0,0,0,0,0,-1,769,1723,0,0
-448,-699,0,0,0,0,0,0,0,0,0,-1,776,1723,0,0
-441,-699,0,0,0,0,0,0,0,0,0,-1,783,1723,0,0
-434,-699,0,0,0,0,0,0,0,0,0,-1,790,1723,0,0
-427,-699,0,0,0,0,0,0,0,0,0,-1,797,1723,0,0
-420,-699,0,0,0,0,0,0,0,0,0,-1,804,1723,0,0
-413,-699,0,0,0,0,0,0,0,0,0,-1,811,1723,0,0
-406,-699,0,0,0,0,0,0,0,0,0,-1,818,1723,0,0
-399,-699,0,0,0,0,0,0,0,0,0,-1,825,1723,0,0
-392,-699,0,0,0,0,0,0,0,0,0,-1,832,1723,0,0
-385,-699,0,0,0,0,0,0,0,0,0,-1,839,1723,0,0
-378,-699,0,0,0,0,0,0,0,0,0,-1,846,1723,0,0
-371,-699,0,0,0,0,0,0,0,0,0,-1,853,1723,0,0
-364,-699,0,0,0,0,0,0,0,0,0,-1,860,1723,0,0
-357,-699,0,0,0,0,0,0,0,0,0,-1,867,1723,0,0
-350,-699,0,0,0,0,0,0,0,0,0,-1,874,1723,0,0
-343,-699,0,0,0,0,0,0,0,0,0,-1,881,1723,0,0
-336,-699,0,0,0,0,0,0,0,0,0,-1,888,1723,0,0
-329,-699,0,0,0,0,0,0,0,0,0,-1,895,1723,0,0
-322,-699,0,0,0,0,0,0,0,0,0,-1,902,1723,0,0
-315,-699,6.20001,19.5193,0,0,0,0,0,0,0,-1,909,1723,6.20001,-19.5193
-308,-699,6.98151,18.9218,0,0,0,0,0,0,0,-1,916,1723,6.98151,-18.9217
-301,-699,4.72729,12.8752,0,0,0,0,0,0,0,-1,923,1723,4.72732,-12.8752
-294,-699,6.90332,19.8601,0,0,0,0,0,0,0,-1,930,1723,6.90332,-19.8601
-287,-699,6.16406,19.6458,0,0,0,0,0,0,0,-1,937,1723,6.16407,-19.6457
-280,-699,4.47821,17.4272,0,0,0,0,0,0,0,-1,944,1723,4.4782,-17.4272
-273,-699,4.50189,17.5334,0,0,0,0,0,0,0,-1,951,1723,4.50191,-17.5335
-266,-699,4.49164,20.231,0,0,0,0,0,0,0,-1,958,1723,4.49162,-20.2309
-259,-699,5.67737,10.8545,0,0,0,0,0,0,0,-1,965,1723,5.67736,-10.8545
-252,-699,5.60577,17.754,0,0,0,0,0,0,0,-1,972,1723,5.60576,-17.754
-245,-699,6.53857,17.7148,0,0,0,0,0,0,0,-1,979,1723,6.5386,-17.7149
-238,-699,5.34314,18.3151,0,0,0,0,0,0,0,-1,986,1723,5.34316,-18.3151
-231,-699,5.24982,18.4244,-0.00447852,-0.000107968,-0.00197009,0.000648982,-0.00523547,-1.20397,0.00372553,0.0435066,993,1723,5.24979,-18.4245
-224,-699,5.02655,18.5885,-0.00324138,0.00119812,-0.00143547,0.00162182,-0.00366509,-1.28378,0.00312746,0.0372369,1000,1723,5.02656,-18.5885
-217,-699,5.13757,18.6525,-0.00241913,0.0022166,-0.00101301,0.00242829,-0.00263082,-1.36478,0.00292166,0.0267375,1007,1723,5.1376,-18.6525
-210,-699,5.18347,18.8438,-0.00183497,0.00239666,-0.000504939,0.00245608,-0.00189438,-1.45366,0.00251871,0.0177155,1014,1723,5.18347,-18.8437
-203,-699,5.17383,19.0244,-0.00105617,0.00261683,2.83524e-05,0.00261705,-0.00105639,1.56308,0.00218373,0.0210424,1021,1723,5.1738,-19.0244
-196,-699,5.14392,19.2152,-0.000796582,0.00249612,0.000292094,0.00252183,-0.000822293,1.483,0.00201213,0.0181559,1028,1723,5.14391,-19.2152
-189,-699,5.12781,19.4167,-0.000442516,0.00217596,0.000736652,0.00236897,-0.00063553,1.31454,0.00182836,0.00891773,1035,1723,5.12786,-19.4167
-182,-699,5.1145,19.5942,-0.000145474,0.00191411,0.000880776,0.0022394,-0.00047076,1.21702,0.00167209,0.0115226,1042,1723,5.11456,-19.5942
-175,-699,5.09656,19.7837,-5.6107e-05,0.00177791,0.000821065,0.00209178,-0.000369973,1.20567,0.0015328,0.0139543,1049,1723,5.09655,-19.7836
-168,-699,5.09692,19.9609,-0.000223851,0.00183299,0.000855886,0.00214255,-0.000533411,1.22375,0.00163543,0.014248,1056,1723,5.09692,-19.9609
-161,-699,5.09912,20.1302,-0.000404951,0.0017211,0.000918631,0.00206303,-0.000746882,1.21447,0.00168058,0.0120411,1063,1723,5.09908,-20.1303
-154,-699,5.09351,20.2983,-0.000421702,0.00166144,0.000929166,0.00201566,-0.000775916,1.20659,0.00166385,0.0122269,1070,1723,5.09355,-20.2983
-147,-699,5.08057,20.4448,-0.000449846,0.00160388,0.000899828,0.00194235,-0.000788318,1.21102,0.0016228,0.013105,1077,1723,5.08051,-20.4448
-140,-699,5.06494,20.5746,-0.000278342,0.00153335,0.000922054,0.00192008,-0.000665067,1.17366,0.00155005,0.0097802,1084,1723,5.06492,-20.5745
-133,-699,5.06836,20.7426,9.86232e-05,0.00147107,0.000902794,0.00191884,-0.000349145,1.11037,0.00141009,0.009649,1091,1723,5.06832,-20.7425
-126,-699,5.07593,20.8806,0.000478017,0.00152088,0.000822076,0.00197295,2.59504e-05,1.06802,0.00130674,0.0115291,1098,1723,5.07595,-20.8807
-119,-699,5.10242,21.009,0.000804128,0.00153362,0.000820901,0.00206716,0.000270587,0.994459,0.00129735,0.0160761,1105,1723,5.10236,-21.0091
-112,-699,5.0907,21.1427,0.00118114,0.00145534,0.000843972,0.00217327,0.000463203,0.86592,0.00132178,0.0109616,1112,1723,5.09065,-21.1427
-105,-699,5.099,21.2786,0.00152798,0.00124427,0.000812835,0.00221124,0.000561002,0.699007,0.00132729,0.0119225,1119,1723,5.099,-21.2786
-98,-699,5.10889,21.3912,0.0018156,0.00099338,0.000810972,0.00231371,0.000495266,0.550808,0.00140675,0.0150807,1126,1723,5.10887,-21.3913
-91,-699,5.11072,21.4933,0.00208403,0.000784131,0.000807644,0.00247077,0.000397391,0.446584,0.00153199,0.0205755,1133,1723,5.11067,-21.4933
-84,-699,5.12048,21.6322,0.0022666,0.000604053,0.000764942,0.00256499,0.000305657,0.371934,0.00161776,0.0230728,1140,1723,5.12053,-21.6322
-77,-699,5.12793,21.7566,0.00252105,0.000603862,0.000560101,0.00267269,0.000452224,0.264395,0.00165182,0.0159017,1147,1723,5.1279,-21.7566
-70,-699,5.13208,21.8552,0.00280593,0.000615574,0.00028825,0.00284323,0.000578275,0.128681,0.00173515,0.0159738,1154,1723,5.13206,-21.8553
-63,-699,5.13977,21.955,0.00362347,0.000463,0.000266736,0.00364582,0.000440646,0.0836095,0.00229779,0.0132523,1161,1723,5.13982,-21.955
-56,-699,5.13855,22.0433,0.00438834,0.00028117,0.00125239,0.0047401,-7.05898e-05,0.273816,0.00318386,0.0101355,1168,1723,5.1385,-22.0433
-49,-699,5.14661,22.1637,0.00556784,0.000528722,0.00216495,0.00637021,-0.000273644,0.354922,0.0043409,0.0225338,1175,1723,5.14663,-22.1637
-42,-699,5.177,22.2582,0.00877237,-0.000456472,0.00390162,0.0102008,-0.00188486,0.350946,0.00750807,0.0263437,1182,1723,5.17699,-22.2582
-35,-699,5.20483,22.3433,0.0120899,-0.00092903,0.00559395,0.0141633,-0.00300242,0.354951,0.0105859,0.0240447,1189,1723,5.20489,-22.3432
-28,-699,5.22437,22.3669,0.0146896,-0.000576517,0.0071673,0.0175271,-0.00341407,0.37697,0.0129734,0.0192759,1196,1723,5.2244,-22.3669
-21,-699,5.21594,22.3883,0.0168233,-0.000349356,0.00891682,0.0206158,-0.00414183,0.402139,0.0153123,0.0131818,1203,1723,5.21595,-22.3882
-14,-699,5.22644,22.4561,0.0184835,0.000343343,0.0107204,0.023456,-0.00462916,0.434299,0.017387,0.0115738,1210,1723,5.22644,-22.456
-7,-699,5.24036,22.5366,0.0197054,0.0011435,0.0124851,0.0259813,-0.00513237,0.465779,0.0192609,0.00829725,1217,1723,5.24033,-22.5367
0,-699,5.25305,22.5968,0.0206444,0.00221416,0.0140637,0.0282432,-0.0053846,0.495373,0.0208566,0.00968106,1224,1723,5.25304,-22.5968
7,-699,5.2843,22.6455,0.0205644,0.00382214,0.0154431,0.0297593,-0.0053728,0.537035,0.0218518,0.0153982,1231,1723,5.28436,-22.6455
14,-699,5.33167,22.6812,0.01941,0.00583293,0.0166082,0.0305635,-0.00532055,0.591386,0.0223612,0.0165271,1238,1723,5.33171,-22.6812
21,-699,5.35132,22.7051,0.0171652,0.00670694,0.017279,0.0299889,-0.00611681,0.638465,0.0223128,0.0157581,1245,1723,5.35131,-22.7051
28,-699,5.35205,22.7274,0.014305,0.00720031,0.0179375,0.0290386,-0.00753325,0.687643,0.0222984,0.016171,1252,1723,5.35207,-22.7274
35,-699,5.38232,22.8135,0.0113083,0.0076638,0.0180892,0.0276668,-0.00869472,0.735199,0.0219252,0.01395,1259,1723,5.3823,-22.8135
42,-699,5.41772,22.8416,0.00777214,0.00767306,0.0179974,0.0257201,-0.0102749,0.784022,0.0214099,0.0125328,1266,1723,5.41773,-22.8416
49,-699,5.44482,22.8469,0.00401397,0.00738075,0.0169756,0.0227562,-0.0113615,0.834819,0.0200607,0.0153838,1273,1723,5.4448,-22.8469
56,-699,5.45959,22.8787,0.000564757,0.00689443,0.0154989,0.0195483,-0.0120891,0.886112,0.0184343,0.0158974,1280,1723,5.45954,-22.8786
63,-699,5.47437,22.8793,-0.00299142,0.00602455,0.0135624,0.0158086,-0.0127754,0.945848,0.0165339,0.0123473,1287,1723,5.47439,-22.8793
70,-699,5.52344,22.8745,-0.00585423,0.00507535,0.0115933,0.0124273,-0.0132062,1.00564,0.0148018,0.0103694,1294,1723,5.52343,-22.8745
77,-699,5.52051,22.8687,-0.00772532,0.00396683,0.00939444,0.00918566,-0.0129441,1.06372,0.0128379,0.0103077,1301,1723,5.52051,-22.8687
84,-699,5.51746,22.8496,-0.00856998,0.00308179,0.00681314,0.00622026,-0.0117085,1.13912,0.0105116,0.0124934,1308,1723,5.51748,-22.8496
91,-699,5.54565,22.8539,-0.00830227,0.00227168,0.00443851,0.00388778,-0.00991837,1.22161,0.00822055,0.0121718,1315,1723,5.5456,-22.8539
98,-699,5.56274,22.8534,-0.00733185,0.0020136,0.00252869,0.00265394,-0.00797218,1.32278,0.00638598,0.010746,1322,1723,5.56278,-22.8534
105,-699,5.53894,22.8121,-0.00599337,0.00236953,0.00111884,0.00251663,-0.00614047,1.44007,0.00514207,0.0154056,1329,1723,5.53892,-22.8121
112,-699,5.54028,22.7842,-0.00413888,0.00249377,-7.95238e-05,0.00249473,-0.00413984,-1.55881,0.00386952,0.0216698,1336,1723,5.54027,-22.7842
119,-699,5.59973,22.7972,-0.00237129,0.00251453,-0.00115424,0.00277348,-0.00263024,-1.3501,0.00312021,0.0163482,1343,1723,5.59969,-22.7972
126,-699,5.66724,22.7828,-0.000762575,0.00356482,-0.00176191,0.00419145,-0.0013892,-1.22909,0.00335466,0.0184265,1350,1723,5.66719,-22.7829
133,-699,5.71924,22.7449,0.000326801,0.00405648,-0.00227204,0.005131,-0.000747712,-1.12904,0.0036952,0.0158009,1357,1723,5.71919,-22.7448
140,-699,5.71936,22.7062,0.000881221,0.00391901,-0.00196437,0.00488321,-8.29827e-05,-1.1145,0.00328349,0.0149565,1364,1723,5.71931,-22.7062
147,-699,5.724,22.6798,0.00139327,0.00376085,-0.00167562,0.00462865,0.000525466,-1.09293,0.00292638,0.0130118,1371,1723,5.72394,-22.6798
154,-699,5.72095,22.6367,0.00186211,0.00342106,-0.00120222,0.00407438,0.00120879,-1.07301,0.0024163,0.0141864,1378,1723,5.7209,-22.6367
161,-699,5.71021,22.5776,0.00212265,0.00282778,-0.000875505,0.00341904,0.00153138,-0.976814,0.00197755,0.0111293,1385,1723,5.71022,-22.5776
168,-699,5.75867,22.5146,0.00238872,0.00303241,-0.000593875,0.00338605,0.00203508,-1.03372,0.00196819,0.012171,1392,1723,5.75871,-22.5146
175,-699,5.79504,22.4462,0.00269395,0.00258487,-0.000569555,0.00321157,0.00206725,-0.737668,0.00187955,0.0133693,1399,1723,5.79499,-22.4462
182,-699,5.79639,22.3773,0.0025941,0.00192398,-0.000104616,0.00261006,0.00190803,-0.15132,0.00155962,0.0137201,1406,1723,5.79634,-22.3774
189,-699,5.79248,22.3038,0.0024269,0.00147316,0.00057493,0.00269699,0.00120307,0.439181,0.00156012,0.0158505,1413,1723,5.79246,-22.3038
196,-699,5.79358,22.2278,0.00218197,0.00109625,0.000865785,0.00266101,0.000617208,0.505376,0.00160824,0.0164698,1420,1723,5.79361,-22.2278
203,-699,5.77856,22.1399,0.00188544,0.000558016,0.000668946,0.00216407,0.00027939,0.394662,0.00135919,0.0137638,1427,1723,5.77858,-22.1399
210,-699,5.81116,22.0468,0.0016397,0.000256445,0.000598218,0.00186252,3.36245e-05,0.356554,0.00123062,0.0129716,1434,1723,5.81117,-22.0468
217,-699,5.84766,21.9602,0.00126243,4.41303e-05,0.000415303,0.00139054,-8.39711e-05,0.299194,0.000956244,0.013441,1441,1723,5.84765,-21.9602
224,-699,5.8468,21.873,0.0010056,-8.49744e-05,0.000315362,0.00109022,-0.000169601,0.262172,0.000789445,0.015095,1448,1723,5.84679,-21.873
231,-699,5.85913,21.7609,0.000808205,-0.000155238,0.000207324,0.000850925,-0.000197957,0.20321,0.0006435,0.0117804,1455,1723,5.85912,-21.7609
238,-699,5.84155,21.6417,0.000634363,-0.000119826,0.000200399,0.000684304,-0.000169768,0.244237,0.000522076,0.0102421,1462,1723,5.84156,-21.6418
245,-699,5.83459,21.5182,0.000480872,-5.40969e-06,0.000223336,0.000567877,-9.24146e-05,0.371483,0.000412852,0.011828,1469,1723,5.83462,-21.5182
252,-699,5.83472,21.415,0.000364048,0.00014674,0.000202279,0.000485008,2.57807e-05,0.538936,0.000315097,0.0103171,1476,1723,5.83473,-21.4151
259,-699,5.82654,21.3173,0.000221737,0.00036205,0.000122622,0.000433167,0.00015062,1.04524,0.000253926,0.0101457,1483,1723,5.82648,-21.3172
266,-699,5.81995,21.1864,-5.01855e-05,0.000716776,3.72421e-05,0.00071858,-5.19896e-05,1.52239,0.00049729,0.0120841,1490,1723,5.81996,-21.1865
273,-699,5.83472,21.0441,-0.000299156,0.00105276,-7.24378e-05,0.00105663,-0.000303026,-1.51742,0.000824209,0.0114109,1497,1723,5.83473,-21.044
280,-699,5.86121,20.9116,-0.00059551,0.00147938,-0.000167341,0.00149278,-0.00060892,-1.49083,0.00124868,0.0123819,1504,1723,5.86125,-20.9116
287,-699,5.83167,20.7769,-0.000890667,0.00186613,-0.000184338,0.0018784,-0.000902939,-1.50432,0.0016384,0.0112666,1511,1723,5.83162,-20.7769
294,-699,5.83276,20.6481,-0.00118465,0.00231063,-0.000241907,0.0023273,-0.00120132,-1.50202,0.00207153,0.0108029,1518,1723,5.8328,-20.648
301,-699,5.84827,20.5116,-0.0015364,0.00254245,-0.00031667,0.00256689,-0.00156084,-1.49377,0.00240662,0.011633,1525,1723,5.8483,-20.5116
308,-699,5.84302,20.3724,-0.00202345,0.00247473,-0.000345732,0.00250114,-0.00204987,-1.49453,0.00263183,0.0156832,1532,1723,5.84296,-20.3725
315,-699,5.83691,20.2068,-0.00245368,0.00258162,-0.000200984,0.00258963,-0.00246169,-1.53097,0.00291669,0.0183722,1539,1723,5.83689,-20.2067
322,-699,5.80151,20.0194,-0.00267315,0.00249084,-8.30966e-05,0.00249218,-0.00267449,-1.55471,0.0029836,0.0198018,1546,1723,5.80154,-20.0194
329,-699,5.77698,19.8429,-0.00274655,0.0021869,-0.000114958,0.00218958,-0.00274923,-1.54751,0.00285752,0.0156331,1553,1723,5.77704,-19.8428
336,-699,5.81104,19.6917,-0.00258797,0.0018197,-0.0004567,0.00186652,-0.00263479,-1.46863,0.00261142,0.0135732,1560,1723,5.81104,-19.6917
343,-699,5.85437,19.5294,-0.00243761,0.00156012,-0.000822389,0.00172269,-0.00260018,-1.37564,0.00251289,0.0171625,1567,1723,5.85432,-19.5294
350,-699,5.83093,19.3732,-0.00218598,0.00104422,-0.00128122,0.0014907,-0.00263245,-1.23548,0.00241073,0.0256869,1574,1723,5.83088,-19.3732
357,-699,5.72278,19.2325,-0.00150217,0.000960682,-0.00206456,0.00213317,-0.00267466,-1.0543,0.00278166,0.0370222,1581,1723,5.7228,-19.2326
364,-699,5.65161,19.0654,-0.000526138,0.000869219,-0.00305999,0.00331005,-0.00296697,-0.897482,0.00362585,0.0415654,1588,1723,5.65157,-19.0654
371,-699,5.776,18.8264,0,0,0,0,0,0,0,-1,1595,1723,5.77601,-18.8265
378,-699,6.17627,18.6171,0,0,0,0,0,0,0,-1,1602,1723,6.17632,-18.617
385,-699,6.16248,18.2874,0,0,0,0,0,0,0,-1,1609,1723,6.16244,-18.2874
392,-699,5.21069,16.861,0,0,0,0,0,0,0,-1,1616,1723,5.21066,-16.8609
399,-699,3.91516,9.81726,0,0,0,0,0,0,0,-1,1623,1723,3.9152,-9.81721
406,-699,5.50757,21.6672,0,0,0,0,0,0,0,-1,1630,1723,5.50755,-21.6672
413,-699,9.31396,23.2781,0,0,0,0,0,0,0,-1,1637,1723,9.31396,-23.278
420,-699,2.15076,7.65527,0,0,0,0,0,0,0,-1,1644,1723,2.15079,-7.65522
427,-699,3.36328,8.2428,0,0,0,0,0,0,0,-1,1651,1723,3.36332,-8.24283
434,-699,4.66455,8.90222,0,0,0,0,0,0,0,-1,1658,1723,4.66456,-8.90223
441,-699,0,0,0,0,0,0,0,0,0,-1,1665,1723,0,0
448,-699,0,0,0,0,0,0,0,0,0,-1,1672,1723,0,0
455,-699,0,0,0,0,0,0,0,0,0,-1,1679,1723,0,0
462,-699,0,0,0,0,0,0,0,0,0,-1,1686,1723,0,0
469,-699,0,0,0,0,0,0,0,0,0,-1,1693,1723,0,0
476,-699,0,0,0,0,0,0,0,0,0,-1,1700,1723,0,0
483,-699,0,0,0,0,0,0,0,0,0,-1,1707,1723,0,0
490,-699,0,0,0,0,0,0,0,0,0,-1,1714,1723,0,0
497,-699,0,0,0,0,0,0,0,0,0,-1,1721,1723,0,0
504,-699,0,0,0,0,0,0,0,0,0,-1,1728,1723,0,0
511,-699,0,0,0,0,0,0,0,0,0,-1,1735,1723,0,0
518,-699,0,0,0,0,0,0,0,0,0,-1,1742,1723,0,0
525,-699,0,0,0,0,0,0,0,0,0,-1,1749,1723,0,0
532,-699,0,0,0,0,0,0,0,0,0,-1,1756,1723,0,0
539,-699,0,0,0,0,0,0,0,0,0,-1,1763,1723,0,0
546,-699,0,0,0,0,0,0,0,0,0,-1,1770,1723,0,0
553,-699,0,0,0,0,0,0,0,0,0,-1,1777,1723,0,0
560,-699,0,0,0,0,0,0,0,0,0,-1,1784,1723,0,0
567,-699,0,0,0,0,0,0,0,0,0,-1,1791,1723,0,0
574,-699,0,0,0,0,0,0,0,0,0,-1,1798,1723,0,0
581,-699,0,0,0,0,0,0,0,0,0,-1,1805,1723,0,0
588,-699,0,0,0,0,0,0,0,0,0,-1,1812,1723,0,0
595,-699,0,0,0,0,0,0,0,0,0,-1,1819,1723,0,0
602,-699,0,0,0,0,0,0,0,0,0,-1,1826,1723,0,0
609,-699,0,0,0,0,0,0,0,0,0,-1,1833,1723,0,0
616,-699,0,0,0,0,0,0,0,0,0,-1,1840,1723,0,0
623,-699,0,0,0,0,0,0,0,0,0,-1,1847,1723,0,0
630,-699,0,0,0,0,0,0,0,0,0,-1,1854,1723,0,0
637,-699,0,0,0,0,0,0,0,0,0,-1,1861,1723,0,0
644,-699,0,0,0,0,0,0,0,0,0,-1,1868,1723,0,0
651,-699,0,0,0,0,0,0,0,0,0,-1,1875,1723,0,0
658,-699,0,0,0,0,0,0,0,0,0,-1,1882,1723,0,0
665,-699,0,0,0,0,0,0,0,0,0,-1,1889,1723,0,0
672,-699,0,0,0,0,0,0,0,0,0,-1,1896,1723,0,0
679,-699,0,0,0,0,0,0,0,0,0,-1,1903,1723,0,0
686,-699,0,0,0,0,0,0,0,0,0,-1,1910,1723,0,0
693,-699,0,0,0,0,0,0,0,0,0,-1,1917,1723,0,0
700,-699,0,0,0,0,0,0,0,0,0,-1,1924,1723,0,0
707,-699,0,0,0,0,0,0,0,0,0,-1,1931,1723,0,0
714,-699,0,0,0,0,0,0,0,0,0,-1,1938,1723,0,0
721,-699,0,0,0,0,0,0,0,0,0,-1,1945,1723,0,0
728,-699,0,0,0,0,0,0,0,0,0,-1,1952,1723,0,0
735,-699,0,0,0,0,0,0,0,0,0,-1,1959,1723,0,0
742,-699,0,0,0,0,0,0,0,0,0,-1,1966,1723,0,0
749,-699,0,0,0,0,0,0,0,0,0,-1,1973,1723,0,0
756,-699,0,0,0,0,0,0,0,0,0,-1,1980,1723,0,0
763,-699,0,0,0,0,0,0,0,0,0,-1,1987,1723,0,0
770,-699,0,0,0,0,0,0,0,0,0,-1,1994,1723,0,0
777,-699,0,0,0,0,0,0,0,0,0,-1,2001,1723,0,0
784,-699,0,0,0,0,0,0,0,0,0,-1,2008,1723,0,0
791,-699,0,0,0,0,0,0,0,0,0,-1,2015,1723,0,0
798,-699,0,0,0,0,0,0,0,0,0,-1,2022,1723,0,0
805,-699,0,0,0,0,0,0,0,0,0,-1,2029,1723,0,0
812,-699,0,0,0,0,0,0,0,0,0,-1,2036,1723,0,0
-700,-706,0,0,0,0,0,0,0,0,0,-1,524,1730,0,0
-693,-706,0,0,0,0,0,0,0,0,0,-1,531,1730,0,0
-686,-706,0,0,0,0,0,0,0,0,0,-1,538,1730,0,0
-679,-706,0,0,0,0,0,0,0,0,0,-1,545,1730,0,0
-672,-706,0,0,0,0,0,0,0,0,0,-1,552,1730,0,0
-665,-706,0,0,0,0,0,0,0,0,0,-1,559,1730,0,0
-658,-706,0,0,0,0,0,0,0,0,0,-1,566,1730,0,0
-651,-706,0,0,0,0,0,0,0,0,0,-1,573,1730,0,0
-644,-706,0,0,0,0,0,0,0,0,0,-1,580,1730,0,0
-637,-706,0,0,0,0,0,0,0,0,0,-1,587,1730,0,0
-630,-706,0,0,0,0,0,0,0,0,0,-1,594,1730,0,0
-623,-706,0,0,0,0,0,0,0,0,0,-1,601,1730,0,0
-616,-706,0,0,0,0,0,0,0,0,0,-1,608,1730,0,0
-609,-706,0,0,0,0,0,0,0,0,0,-1,615,1730,0,0
-602,-706,0,0,0,0,0,0,0,0,0,-1,622,1730,0,0
-595,-706,0,0,0,0,0,0,0,0,0,-1,629,1730,0,0
-588,-706,0,0,0,0,0,0,0,0,0,-1,636,1730,0,0
-581,-706,0,0,0,0,0,0,0,0,0,-1,643,1730,0,0
-574,-706,0,0,0,0,0,0,0,0,0,-1,650,1730,0,0
-567,-706,0,0,0,0,0,0,0,0,0,-1,657,1730,0,0
-560,-706,0,0,0,0,0,0,0,0,0,-1,664,1730,0,0
-553,-706,0,0,0,0,0,0,0,0,0,-1,671,1730,0,0
-546,-706,0,0,0,0,0,0,0,0,0,-1,678,1730,0,0
-539,-706,0,0,0,0,0,0,0,0,0,-1,685,1730,0,0
-532,-706,0,0,0,0,0,0,0,0,0,-1,692,1730,0,0
-525,-706,0,0,0,0,0,0,0,0,0,-1,699,1730,0,0
-518,-706,0,0,0,0,0,0,0,0,0,-1,706,1730,0,0
-511,-706,0,0,0,0,0,0,0,0,0,-1,713,1730,0,0
-504,-706,0,0,0,0,0,0,0,0,0,-1,720,1730,0,0
-497,-706,0,0,0,0,0,0,0,0,0,-1,727,1730,0,0
-490,-706,0,0,0,0,0,0,0,0,0,-1,734,1730,0,0
-483,-706,0,0,0,0,0,0,0,0,0,-1,741,1730,0,0
-476,-706,0,0,0,0,0,0,0,0,0,-1,748,1730,0,0
-469,-706,0,0,0,0,0,0,0,0,0,-1,755,1730,0,0
-462,-706,0,0,0,0,0,0,0,0,0,-1,762,1730,0,0
-455,-706,0,0,0,0,0,0,0,0,0,-1,769,1730,0,0
-448,-706,0,0,0,0,0,0,0,0,0,-1,776,1730,0,0
-441,-706,0,0,0,0,0,0,0,0,0,-1,783,1730,0,0
-434,-706,0,0,0,0,0,0,0,0,0,-1,790,1730,0,0
-427,-706,0,0,0,0,0,0,0,0,0,-1,797,1730,0,0
-420,-706,0,0,0,0,0,0,0,0,0,-1,804,1730,0,0
-413,-706,0,0,0,0,0,0,0,0,0,-1,811,1730,0,0
-406,-706,0,0,0,0,0,0,0,0,0,-1,818,1730,0,0
-399,-706,0,0,0,0,0,0,0,0,0,-1,825,1730,0,0
-392,-706,0,0,0,0,0,0,0,0,0,-1,832,1730,0,0
-385,-706,0,0,0,0,0,0,0,0,0,-1,839,1730,0,0
-378,-706,0,0,0,0,0,0,0,0,0,-1,846,1730,0,0
-371,-706,0,0,0,0,0,0,0,0,0,-1,853,1730,0,0
-364,-706,0,0,0,0,0,0,0,0,0,-1,860,1730,0,0
-357,-706,0,0,0,0,0,0,0,0,0,-1,867,1730,0,0
-350,-706,0,0,0,0,0,0,0,0,0,-1,874,1730,0,0
-343,-706,0,0,0,0,0,0,0,0,0,-1,881,1730,0,0
-336,-706,0,0,0,0,0,0,0,0,0,-1,888,1730,0,0
-329,-706,0,0,0,0,0,0,0,0,0,-1,895,1730,0,0
-322,-706,0,0,0,0,0,0,0,0,0,-1,902,1730,0,0
-315,-706,0,0,0,0,0,0,0,0,0,-1,909,1730,0,0
-308,-706,5.08191,14.6245,0,0,0,0,0,0,0,-1,916,1730,5.08188,-14.6245
-301,-706,7.45007,21.1975,0,0,0,0,0,0,0,-1,923,1730,7.45005,-21.1976
-294,-706,7.04108,20.9526,0,0,0,0,0,0,0,-1,930,1730,7.04107,-20.9527
-287,-706,6.48712,20.8536,0,0,0,0,0,0,0,-1,937,1730,6.48709,-20.8537
-280,-706,5.87341,20.8206,0,0,0,0,0,0,0,-1,944,1730,5.87338,-20.8206
-273,-706,5.28461,20.999,0,0,0,0,0,0,0,-1,951,1730,5.2846,-20.999
-266,-706,6.81213,14.6445,0,0,0,0,0,0,0,-1,958,1730,6.81216,-14.6445
-259,-706,3.47852,20.7363,0,0,0,0,0,0,0,-1,965,1730,3.47851,-20.7364
-252,-706,3.84259,20.1979,0,0,0,0,0,0,0,-1,972,1730,3.84256,-20.1979
-245,-706,4.698,19.2992,0,0,0,0,0,0,0,-1,979,1730,4.69799,-19.2991
-238,-706,5.0177,18.4686,0,0,0,0,0,0,0,-1,986,1730,5.01767,-18.4686
-231,-706,4.98706,18.5874,-0.00531421,0.000988159,-0.00228989,0.0017323,-0.00605835,-1.25659,0.00472344,0.0455377,993,1730,4.98703,-18.5874
-224,-706,4.97046,18.7365,-0.00350979,0.0023628,-0.00165411,0.00279666,-0.00394364,-1.31429,0.00391025,0.0434563,1000,1730,4.97047,-18.7364
-217,-706,5.30743,18.7778,0,0,0,0,0,0,0,-1,1007,1730,5.30745,-18.7779
-210,-706,5.32159,18.8794,-0.00161448,0.00359612,-0.000473431,0.00363878,-0.00165714,-1.48092,0.00312814,0.0412658,1014,1730,5.32157,-18.8794
-203,-706,5.32178,19.0624,-0.000645076,0.00380905,0.000211904,0.0038191,-0.000655135,1.52336,0.0027902,0.0307358,1021,1730,5.32175,-19.0623
-196,-706,5.28552,19.255,-0.000585605,0.00351079,0.000452095,0.00356009,-0.000634907,1.46217,0.00261089,0.0223582,1028,1730,5.2855,-19.255
-189,-706,5.28259,19.437,-0.000375465,0.00300805,0.00100538,0.00328425,-0.000651659,1.30269,0.00243595,0.0174159,1035,1730,5.28254,-19.437
-182,-706,5.27319,19.6272,-0.000193554,0.0025872,0.00119139,0.00302782,-0.000634177,1.21656,0.0022598,0.012868,1042,1730,5.27316,-19.6272
-175,-706,5.25647,19.7809,-0.000294633,0.00235541,0.00114524,0.00278175,-0.000720973,1.21442,0.00213578,0.0144951,1049,1730,5.25644,-19.7809
-168,-706,5.2605,19.9497,-0.000653946,0.00244807,0.00121989,0.00287032,-0.0010762,1.23757,0.0023557,0.0149865,1056,1730,5.26052,-19.9497
-161,-706,5.25757,20.1268,-0.00100131,0.00233771,0.00132535,0.00279983,-0.00146343,1.2353,0.00250138,0.0125534,1063,1730,5.25757,-20.1269
-154,-706,5.2511,20.2957,-0.00111225,0.00226998,0.00137185,0.00275644,-0.00159871,1.23003,0.00254389,0.0135769,1070,1730,5.25115,-20.2956
-147,-706,5.23438,20.4269,-0.00126097,0.00224702,0.00137707,0.00272301,-0.00173696,1.238,0.00259585,0.0125831,1077,1730,5.2344,-20.4269
-140,-706,5.22668,20.5784,-0.00114302,0.00221332,0.00144591,0.00275031,-0.00168001,1.2152,0.0025826,0.0108405,1084,1730,5.22663,-20.5784
-133,-706,5.22559,20.7303,-0.000770995,0.00223525,0.00143565,0.0028107,-0.00134644,1.18958,0.00244925,0.00848441,1091,1730,5.22562,-20.7303
-126,-706,5.24048,20.8679,-0.000427773,0.00236581,0.00130211,0.00287861,-0.000940568,1.19563,0.00229769,0.0130196,1098,1730,5.24049,-20.868
-119,-706,5.22559,20.9969,-0.000133194,0.00247247,0.00128641,0.00300055,-0.000661267,1.18127,0.00225336,0.0173294,1105,1730,5.22553,-20.997
-112,-706,5.22229,21.1547,0.000254527,0.00246198,0.00129413,0.00305913,-0.00034262,1.13848,0.00216269,0.0117742,1112,1730,5.22232,-21.1547
-105,-706,5.22766,21.2947,0.000608735,0.00228212,0.0012161,0.00292155,-3.0698e-05,1.08672,0.00195801,0.00903184,1119,1730,5.22768,-21.2947
-98,-706,5.22607,21.3948,0.000856936,0.00201856,0.00114795,0.00272427,0.000151232,1.0196,0.00176792,0.0121397,1126,1730,5.22604,-21.3948
-91,-706,5.229,21.5071,0.00118323,0.00180941,0.00111487,0.00265431,0.000338319,0.922287,0.00166825,0.0152053,1133,1730,5.22897,-21.507
-84,-706,5.21985,21.6466,0.00136349,0.00159291,0.000975184,0.0024601,0.000496289,0.843944,0.00150222,0.0164405,1140,1730,5.21988,-21.6466
-77,-706,5.21521,21.7323,0.00154539,0.00145509,0.000754661,0.00225625,0.000744227,0.755518,0.00132755,0.0167326,1147,1730,5.21524,-21.7323
-70,-706,5.2262,21.837,0.00178377,0.00128181,0.000494448,0.00208729,0.000978294,0.550547,0.00120588,0.0187682,1154,1730,5.22625,-21.8371
-63,-706,5.23499,21.9598,0.00225012,0.00103561,0.000377154,0.00235771,0.000928016,0.277887,0.00137146,0.0129202,1161,1730,5.23498,-21.9598
-56,-706,5.24194,22.0519,0.00281234,0.000831241,0.00062345,0.00299221,0.000651372,0.280878,0.00181702,0.012299,1168,1730,5.24199,-22.0518
-49,-706,5.22803,22.1443,0.00369533,0.000915776,0.001061,0.00405404,0.000557068,0.326021,0.00253747,0.013114,1175,1730,5.22799,-22.1443
-42,-706,5.24585,22.2422,0.00525582,0.000322111,0.00206518,0.00600617,-0.000428231,0.3485,0.00415422,0.0172372,1182,1730,5.24581,-22.2421
-35,-706,5.24927,22.2827,0.00685713,-0.000100859,0.00319461,0.00810137,-0.0013451,0.371405,0.00590061,0.0174006,1189,1730,5.24925,-22.2827
-28,-706,5.2627,22.328,0.00839503,5.99048e-06,0.00423345,0.01016,-0.00175903,0.395009,0.00742945,0.0111123,1196,1730,5.2627,-22.328
-21,-706,5.29309,22.415,0.00976549,8.46442e-05,0.00551385,0.0122621,-0.00241198,0.425173,0.00908608,0.0107138,1203,1730,5.29304,-22.4151
-14,-706,5.30627,22.4672,0.0109297,0.000452093,0.00698041,0.0144185,-0.0030367,0.463486,0.0107683,0.0102193,1210,1730,5.30632,-22.4672
-7,-706,5.31238,22.5334,0.0118068,0.000911291,0.00845635,0.0164182,-0.00370018,0.499248,0.0123648,0.00823423,1217,1730,5.31242,-22.5334
0,-706,5.33398,22.5984,0.0124757,0.00155824,0.00973656,0.0181793,-0.00414539,0.529909,0.0137118,0.0115342,1224,1730,5.33398,-22.5984
7,-706,5.36145,22.65,0.0124045,0.00264422,0.0108517,0.0194229,-0.0043742,0.574092,0.0146263,0.0137009,1231,1730,5.3614,-22.65
14,-706,5.36829,22.6875,0.0116255,0.00401111,0.0117993,0.0202166,-0.00458001,0.62934,0.0152356,0.0138453,1238,1730,5.36828,-22.6875
21,-706,5.37268,22.7162,0.010131,0.00451064,0.0123444,0.019981,-0.0053394,0.673482,0.0154119,0.0110729,1245,1730,5.3727,-22.7162
28,-706,5.38904,22.7386,0.00830102,0.00483111,0.0128175,0.0195005,-0.00636835,0.718128,0.0155636,0.0122215,1252,1730,5.38906,-22.7386
35,-706,5.39783,22.8031,0.00635789,0.00510402,0.0128857,0.0186319,-0.00716998,0.761091,0.0153789,0.014771,1259,1730,5.39787,-22.8031
42,-706,5.41992,22.8416,0.00403996,0.0050681,0.0127314,0.0172958,-0.00818777,0.805576,0.0150229,0.0127655,1266,1730,5.41995,-22.8416
49,-706,5.4425,22.8578,0.0015551,0.00482926,0.0118661,0.0151707,-0.00878634,0.853947,0.0139944,0.0146081,1273,1730,5.44252,-22.8578
56,-706,5.47314,22.868,-0.000592595,0.00441083,0.0105863,0.012787,-0.00896876,0.901427,0.012625,0.0138572,1280,1730,5.47315,-22.8681
63,-706,5.49207,22.879,-0.00262114,0.00375122,0.0090263,0.0101372,-0.0090071,0.955065,0.0110594,0.0112125,1287,1730,5.49202,-22.879
70,-706,5.50195,22.8798,-0.00413634,0.00297708,0.00744904,0.00767496,-0.00883423,1.00813,0.00953942,0.0111239,1294,1730,5.50192,-22.8798
77,-706,5.49609,22.8853,-0.00512143,0.0020158,0.00581835,0.00527273,-0.00837837,1.06048,0.00794917,0.00978268,1301,1730,5.4961,-22.8852
84,-706,5.49756,22.8824,-0.00546314,0.00126527,0.00397458,0.00310829,-0.00730616,1.13661,0.00617346,0.0091559,1308,1730,5.49752,-22.8824
91,-706,5.52698,22.8997,-0.00509895,0.000583666,0.00226264,0.00137452,-0.0058898,1.23454,0.00445594,0.010569,1315,1730,5.52695,-22.8996
98,-706,5.52148,22.9028,-0.00431104,0.000236444,0.000928686,0.000418788,-0.00449338,1.37692,0.00314449,0.0135642,1322,1730,5.52148,-22.9028
105,-706,5.52344,22.8864,-0.00330589,0.000336529,2.91632e-05,0.000336762,-0.00330613,1.56279,0.00232448,0.0154742,1329,1730,5.52339,-22.8863
112,-706,5.52563,22.8516,-0.00201117,0.00023128,-0.0007181,0.000441525,-0.00222141,-1.28598,0.00164795,0.0152755,1336,1730,5.52568,-22.8516
119,-706,5.57312,22.8577,-0.000845574,6.85538e-05,-0.00138609,0.001071,-0.00184802,-0.944659,0.00170508,0.0130539,1343,1730,5.57314,-22.8576
126,-706,5.62524,22.8251,0.000209772,0.000720563,-0.00167556,0.00216008,-0.00122975,-0.861028,0.00198154,0.0149233,1350,1730,5.62519,-22.8251
133,-706,5.65881,22.7662,0.000827702,0.000967741,-0.00180973,0.00270881,-0.000913362,-0.804734,0.00217521,0.0126799,1357,1730,5.6588,-22.7662
140,-706,5.65942,22.7036,0.00107137,0.00089049,-0.00142791,0.0024117,-0.000449836,-0.753771,0.00177683,0.0114723,1364,1730,5.65948,-22.7036
147,-706,5.67932,22.6584,0.00131103,0.000830031,-0.00107592,0.002173,-3.19405e-05,-0.675442,0.00145943,0.0195458,1371,1730,5.67929,-22.6585
154,-706,5.70264,22.6233,0.00152768,0.000630222,-0.000552476,0.0017907,0.000367202,-0.444325,0.00109217,0.0193767,1378,1730,5.70261,-22.6232
161,-706,5.66492,22.5779,0.0014675,0.000372713,-7.3329e-05,0.00147239,0.000367823,-0.0665839,0.000884845,0.0112532,1385,1730,5.66495,-22.5779
168,-706,5.66577,22.5083,0.00144414,0.000749525,0.000207898,0.00150161,0.000692056,0.269694,0.000867838,0.0111702,1392,1730,5.66581,-22.5083
175,-706,5.69055,22.443,0.00146893,0.000800515,0.000219319,0.00153447,0.000734979,0.290372,0.000886187,0.0106129,1399,1730,5.69057,-22.443
182,-706,5.69458,22.3667,0.00126102,0.000794765,0.000367445,0.00146306,0.000592733,0.502712,0.000849748,0.0106862,1406,1730,5.69459,-22.3667
189,-706,5.69507,22.2888,0.00105777,0.000719682,0.000584333,0.00149702,0.000280432,0.644596,0.000918912,0.0134317,1413,1730,5.6951,-22.2888
196,-706,5.69287,22.2017,0.00087384,0.000774375,0.000665996,0.00149196,0.000156257,0.74813,0.00094686,0.0123817,1420,1730,5.69289,-22.2017
203,-706,5.66895,22.1154,0.000734675,0.000769239,0.000527376,0.00127962,0.000224297,0.801777,0.000789011,0.0138094,1427,1730,5.66892,-22.1154
210,-706,5.68933,22.031,0.000421167,0.000703811,0.000517164,0.00109861,2.63637e-05,0.918773,0.000723782,0.0130302,1434,1730,5.68932,-22.031
217,-706,5.72485,21.9647,-2.58923e-05,0.000756305,0.000413737,0.000934537,-0.000204124,1.16404,0.000701042,0.0137074,1441,1730,5.72488,-21.9647
224,-706,5.70496,21.8818,-0.000428675,0.000946123,0.000347164,0.00102882,-0.000511367,1.33696,0.000905799,0.0181622,1448,1730,5.70493,-21.8819
231,-706,5.7196,21.7543,-0.000811756,0.00122567,0.000266315,0.00125991,-0.000845991,1.44295,0.00122364,0.0133638,1455,1730,5.71964,-21.7542
238,-706,5.72034,21.6283,-0.00109239,0.00158832,0.000220287,0.0016063,-0.00111037,1.48935,0.00157716,0.00883238,1462,1730,5.72028,-21.6283
245,-706,5.71106,21.517,-0.00126732,0.00203207,0.000158237,0.00203964,-0.00127489,1.52298,0.00193055,0.0109997,1469,1730,5.71109,-21.517
252,-706,5.70813,21.4181,-0.0013717,0.0024514,2.4137e-05,0.00245155,-0.00137185,1.56448,0.00223659,0.0107775,1476,1730,5.70819,-21.4181
259,-706,5.71875,21.3057,-0.00151129,0.00289281,-0.000187962,0.00290082,-0.0015193,-1.52822,0.00259318,0.0117954,1483,1730,5.71871,-21.3056
266,-706,5.71692,21.1859,-0.00183015,0.00344718,-0.000333407,0.00346816,-0.00185113,-1.50795,0.00311804,0.0126476,1490,1730,5.71692,-21.1859
273,-706,5.72009,21.0564,-0.00206449,0.00386759,-0.000488646,0.00390757,-0.00210447,-1.48916,0.00352271,0.0123375,1497,1730,5.7201,-21.0564
280,-706,5.72473,20.9141,-0.0023292,0.00422513,-0.000589438,0.00427772,-0.00238179,-1.48182,0.00389646,0.0107149,1504,1730,5.72477,-20.9141
287,-706,5.68994,20.7578,-0.00253049,0.00443594,-0.000551661,0.00447936,-0.00257391,-1.49226,0.00412144,0.0115472,1511,1730,5.6899,-20.7579
294,-706,5.69397,20.6425,-0.00263627,0.00469034,-0.000572533,0.00473481,-0.00268074,-1.49328,0.00433577,0.011508,1518,1730,5.69394,-20.6424
301,-706,5.70557,20.5056,-0.00287868,0.00454479,-0.000562804,0.00458721,-0.00292111,-1.49556,0.00437036,0.0104619,1525,1730,5.70555,-20.5056
308,-706,5.71362,20.3434,-0.00346335,0.00371638,-0.000407825,0.00373947,-0.00348644,-1.51424,0.00417273,0.0112499,1532,1730,5.71365,-20.3433
315,-706,5.69299,20.187,-0.00400657,0.00384009,-0.000188487,0.00384462,-0.00401109,-1.54679,0.00453583,0.0168759,1539,1730,5.69296,-20.1871
322,-706,5.66821,20.041,-0.00425108,0.00368799,1.96479e-05,0.00368804,-0.00425113,1.56832,0.00458752,0.0199548,1546,1730,5.66823,-20.041
329,-706,5.6665,19.8431,-0.00428059,0.00324538,6.71668e-05,0.00324598,-0.00428119,1.56187,0.00435949,0.0183772,1553,1730,5.66656,-19.8432
336,-706,5.62793,19.6378,-0.00396499,0.00265594,-0.000279302,0.0026677,-0.00397676,-1.52871,0.00386091,0.0237832,1560,1730,5.62787,-19.6378
343,-706,5.60059,19.4771,-0.0036384,0.0021586,-0.00066474,0.00223384,-0.00371365,-1.45808,0.00346904,0.0306149,1567,1730,5.60057,-19.4771
350,-706,5.70007,19.4236,-0.00318554,0.0013693,-0.00120024,0.00166622,-0.00348246,-1.32828,0.00303362,0.0374342,1574,1730,5.70002,-19.4236
357,-706,5.81323,19.2338,-0.00219713,0.00110233,-0.00215271,0.00216475,-0.00325955,-1.11234,0.00315291,0.0487316,1581,1730,5.81325,-19.2338
364,-706,5.39172,19.1232,0,0,0,0,0,0,0,-1,1588,1730,5.39172,-19.1232
371,-706,6.22168,18.7451,0,0,0,0,0,0,0,-1,1595,1730,6.2217,-18.7451
378,-706,7.07849,18.7051,0,0,0,0,0,0,0,-1,1602,1730,7.07844,-18.705
385,-706,7.9209,18.6349,0,0,0,0,0,0,0,-1,1609,1730,7.92092,-18.6349
392,-706,5.05701,18.6085,0,0,0,0,0,0,0,-1,1616,1730,5.05699,-18.6085
399,-706,6.0332,16.6144,0,0,0,0,0,0,0,-1,1623,1730,6.03321,-16.6143
406,-706,6.04211,18.8085,0,0,0,0,0,0,0,-1,1630,1730,6.04216,-18.8085
413,-706,6.23413,20.7725,0,0,0,0,0,0,0,-1,1637,1730,6.23413,-20.7725
420,-706,6.51294,21.9171,0,0,0,0,0,0,0,-1,1644,1730,6.51292,-21.9171
427,-706,0,0,0,0,0,0,0,0,0,-1,1651,1730,0,0
434,-706,0,0,0,0,0,0,0,0,0,-1,1658,1730,0,0
441,-706,0,0,0,0,0,0,0,0,0,-1,1665,1730,0,0
448,-706,0,0,0,0,0,0,0,0,0,-1,1672,1730,0,0
455,-706,0,0,0,0,0,0,0,0,0,-1,1679,1730,0,0
462,-706,0,0,0,0,0,0,0,0,0,-1,1686,1730,0,0
469,-706,0,0,0,0,0,0,0,0,0,-1,1693,1730,0,0
476,-706,0,0,0,0,0,0,0,0,0,-1,1700,1730,0,0
483,-706,0,0,0,0,0,0,0,0,0,-1,1707,1730,0,0
490,-706,0,0,0,0,0,0,0,0,0,-1,1714,1730,0,0
497,-706,0,0,0,0,0,0,0,0,0,-1,1721,1730,0,0
504,-706,0,0,0,0,0,0,0,0,0,-1,1728,1730,0,0
511,-706,0,0,0,0,0,0,0,0,0,-1,1735,1730,0,0
518,-706,0,0,0,0,0,0,0,0,0,-1,1742,1730,0,0
525,-706,0,0,0,0,0,0,0,0,0,-1,1749,1730,0,0
532,-706,0,0,0,0,0,0,0,0,0,-1,1756,1730,0,0
539,-706,0,0,0,0,0,0,0,0,0,-1,1763,1730,0,0
546,-706,0,0,0,0,0,0,0,0,0,-1,1770,1730,0,0
553,-706,0,0,0,0,0,0,0,0,0,-1,1777,1730,0,0
560,-706,0,0,0,0,0,0,0,0,0,-1,1784,1730,0,0
567,-706,0,0,0,0,0,0,0,0,0,-1,1791,1730,0,0
574,-706,0,0,0,0,0,0,0,0,0,-1,1798,1730,0,0
581,-706,0,0,0,0,0,0,0,0,0,-1,1805,1730,0,0
588,-706,0,0,0,0,0,0,0,0,0,-1,1812,1730,0,0
595,-706,0,0,0,0,0,0,0,0,0,-1,1819,1730,0,0
602,-706,0,0,0,0,0,0,0,0,0,-1,1826,1730,0,0
609,-706,0,0,0,0,0,0,0,0,0,-1,1833,1730,0,0
616,-706,0,0,0,0,0,0,0,0,0,-1,1840,1730,0,0
623,-706,0,0,0,0,0,0,0,0,0,-1,1847,1730,0,0
630,-706,0,0,0,0,0,0,0,0,0,-1,1854,1730,0,0
637,-706,0,0,0,0,0,0,0,0,0,-1,1861,1730,0,0
644,-706,0,0,0,0,0,0,0,0,0,-1,1868,1730,0,0
651,-706,0,0,0,0,0,0,0,0,0,-1,1875,1730,0,0
658,-706,0,0,0,0,0,0,0,0,0,-1,1882,1730,0,0
665,-706,0,0,0,0,0,0,0,0,0,-1,1889,1730,0,0
672,-706,0,0,0,0,0,0,0,0,0,-1,1896,1730,0,0
679,-706,0,0,0,0,0,0,0,0,0,-1,1903,1730,0,0
686,-706,0,0,0,0,0,0,0,0,0,-1,1910,1730,0,0
693,-706,0,0,0,0,0,0,0,0,0,-1,1917,1730,0,0
700,-706,0,0,0,0,0,0,0,0,0,-1,1924,1730,0,0
707,-706,0,0,0,0,0,0,0,0,0,-1,1931,1730,0,0
714,-706,0,0,0,0,0,0,0,0,0,-1,1938,1730,0,0
721,-706,0,0,0,0,0,0,0,0,0,-1,1945,1730,0,0
728,-706,0,0,0,0,0,0,0,0,0,-1,1952,1730,0,0
735,-706,0,0,0,0,0,0,0,0,0,-1,1959,1730,0,0
742,-706,0,0,0,0,0,0,0,0,0,-1,1966,1730,0,0
749,-706,0,0,0,0,0,0,0,0,0,-1,1973,1730,0,0
756,-706,0,0,0,0,0,0,0,0,0,-1,1980,1730,0,0
763,-706,0,0,0,0,0,0,0,0,0,-1,1987,1730,0,0
770,-706,0,0,0,0,0,0,0,0,0,-1,1994,1730,0,0
777,-706,0,0,0,0,0,0,0,0,0,-1,2001,1730,0,0
784,-706,0,0,0,0,0,0,0,0,0,-1,2008,1730,0,0
791,-706,0,0,0,0,0,0,0,0,0,-1,2015,1730,0,0
798,-706,0,0,0,0,0,0,0,0,0,-1,2022,1730,0,0
805,-706,0,0,0,0,0,0,0,0,0,-1,2029,1730,0,0
812,-706,0,0,0,0,0,0,0,0,0,-1,2036,1730,0,0
-700,-713,0,0,0,0,0,0,0,0,0,-1,524,1737,0,0
-693,-713,0,0,0,0,0,0,0,0,0,-1,531,1737,0,0
-686,-713,0,0,0,0,0,0,0,0,0,-1,538,1737,0,0
-679,-713,0,0,0,0,0,0,0,0,0,-1,545,1737,0,0
-672,-713,0,0,0,0,0,0,0,0,0,-1,552,1737,0,0
-665,-713,0,0,0,0,0,0,0,0,0,-1,559,1737,0,0
-658,-713,0,0,0,0,0,0,0,0,0,-1,566,1737,0,0
-651,-713,0,0,0,0,0,0,0,0,0,-1,573,1737,0,0
-644,-713,0,0,0,0,0,0,0,0,0,-1,580,1737,0,0
-637,-713,0,0,0,0,0,0,0,0,0,-1,587,1737,0,0
-630,-713,0,0,0,0,0,0,0,0,0,-1,594,1737,0,0
-623,-713,0,0,0,0,0,0,0,0,0,-1,601,1737,0,0
-616,-713,0,0,0,0,0,0,0,0,0,-1,608,1737,0,0
-609,-713,0,0,0,0,0,0,0,0,0,-1,615,1737,0,0
-602,-713,0,0,0,0,0,0,0,0,0,-1,622,1737,0,0
-595,-713,0,0,0,0,0,0,0,0,0,-1,629,1737,0,0
-588,-713,0,0,0,0,0,0,0,0,0,-1,636,1737,0,0
-581,-713,0,0,0,0,0,0,0,0,0,-1,643,1737,0,0
-574,-713,0,0,0,0,0,0,0,0,0,-1,650,1737,0,0
-567,-713,0,0,0,0,0,0,0,0,0,-1,657,1737,0,0
-560,-713,0,0,0,0,0,0,0,0,0,-1,664,1737,0,0
-553,-713,0,0,0,0,0,0,0,0,0,-1,671,1737,0,0
-546,-713,0,0,0,0,0,0,0,0,0,-1,678,1737,0,0
-539,-713,0,0,0,0,0,0,0,0,0,-1,685,1737,0,0
-532,-713,0,0,0,0,0,0,0,0,0,-1,692,1737,0,0
-525,-713,0,0,0,0,0,0,0,0,0,-1,699,1737,0,0
-518,-713,0,0,0,0,0,0,0,0,0,-1,706,1737,0,0
-511,-713,0,0,0,0,0,0,0,0,0,-1,713,1737,0,0
-504,-713,0,0,0,0,0,0,0,0,0,-1,720,1737,0,0
-497,-713,0,0,0,0,0,0,0,0,0,-1,727,1737,0,0
-490,-713,0,0,0,0,0,0,0,0,0,-1,734,1737,0,0
-483,-713,0,0,0,0,0,0,0,0,0,-1,741,1737,0,0
-476,-713,0,0,0,0,0,0,0,0,0,-1,748,1737,0,0
-469,-713,0,0,0,0,0,0,0,0,0,-1,755,1737,0,0
-462,-713,0,0,0,0,0,0,0,0,0,-1,762,1737,0,0
-455,-713,0,0,0,0,0,0,0,0,0,-1,769,1737,0,0
-448,-713,0,0,0,0,0,0,0,0,0,-1,776,1737,0,0
-441,-713,0,0,0,0,0,0,0,0,0,-1,783,1737,0,0
-434,-713,0,0,0,0,0,0,0,0,0,-1,790,1737,0,0
-427,-713,0,0,0,0,0,0,0,0,0,-1,797,1737,0,0
-420,-713,0,0,0,0,0,0,0,0,0,-1,804,1737,0,0
-413,-713,0,0,0,0,0,0,0,0,0,-1,811,1737,0,0
-406,-713,0,0,0,0,0,0,0,0,0,-1,818,1737,0,0
-399,-713,0,0,0,0,0,0,0,0,0,-1,825,1737,0,0
-392,-713,0,0,0,0,0,0,0,0,0,-1,832,1737,0,0
-385,-713,0,0,0,0,0,0,0,0,0,-1,839,1737,0,0
-378,-713,0,0,0,0,0,0,0,0,0,-1,846,1737,0,0
-371,-713,0,0,0,0,0,0,0,0,0,-1,853,1737,0,0
-364,-713,0,0,0,0,0,0,0,0,0,-1,860,1737,0,0
-357,-713,0,0,0,0,0,0,0,0,0,-1,867,1737,0,0
-350,-713,0,0,0,0,0,0,0,0,0,-1,874,1737,0,0
-343,-713,0,0,0,0,0,0,0,0,0,-1,881,1737,0,0
-336,-713,0,0,0,0,0,0,0,0,0,-1,888,1737,0,0
-329,-713,0,0,0,0,0,0,0,0,0,-1,895,1737,0,0
-322,-713,0,0,0,0,0,0,0,0,0,-1,902,1737,0,0
-315,-713,0,0,0,0,0,0,0,0,0,-1,909,1737,0,0
-308,-713,0,0,0,0,0,0,0,0,0,-1,916,1737,0,0
-301,-713,0,0,0,0,0,0,0,0,0,-1,923,1737,0,0
-294,-713,7.17883,22.0453,0,0,0,0,0,0,0,-1,930,1737,7.17881,-22.0453
-287,-713,6.85907,21.8297,0,0,0,0,0,0,0,-1,937,1737,6.85906,-21.8298
-280,-713,6.17188,21.8059,0,0,0,0,0,0,0,-1,944,1737,6.17188,-21.8059
-273,-713,5.64795,22.0507,0,0,0,0,0,0,0,-1,951,1737,5.64795,-22.0506
-266,-713,3.17981,19.8851,0,0,0,0,0,0,0,-1,958,1737,3.17983,-19.8851
-259,-713,3.5921,19.6868,0,0,0,0,0,0,0,-1,965,1737,3.59207,-19.6868
-252,-713,4.55469,20.5758,0,0,0,0,0,0,0,-1,972,1737,4.55466,-20.5758
-245,-713,4.66559,19.8096,0,0,0,0,0,0,0,-1,979,1737,4.6656,-19.8095
-238,-713,5.11237,18.7231,0,0,0,0,0,0,0,-1,986,1737,5.11238,-18.7231
-231,-713,5.36987,18.395,-0.00584771,0.00280353,-0.00252455,0.00348634,-0.00653052,-1.30665,0.00587158,0.0483566,993,1737,5.36988,-18.395
-224,-713,5.32104,18.7472,-0.00332771,0.00411442,-0.00181988,0.00453561,-0.0037489,-1.34336,0.00479025,0.0497935,1000,1737,5.32105,-18.7472
-217,-713,5.28467,18.8512,0,0,0,0,0,0,0,-1,1007,1737,5.28466,-18.8512
-210,-713,5.44,18.8798,0,0,0,0,0,0,0,-1,1014,1737,5.44003,-18.8797
-203,-713,5.47107,19.0009,0.000320045,0.00543243,0.000481954,0.00547747,0.000275007,1.47762,0.00356351,0.0440044,1021,1737,5.47103,-19.0008
-196,-713,5.79297,19.0315,-6.16153e-05,0.00483758,0.00063859,0.00491945,-0.000143485,1.44329,0.00332849,0.0400141,1028,1737,5.79298,-19.0315
-189,-713,5.73596,19.2285,-0.000168055,0.00408193,0.00131058,0.00445357,-0.000539703,1.29448,0.00316433,0.0385316,1035,1737,5.73593,-19.2285
-182,-713,5.3468,19.651,-0.000216599,0.00345661,0.00152418,0.00400668,-0.000766672,1.22445,0.00295996,0.0261357,1042,1737,5.34679,-19.651
-175,-713,5.41528,19.7468,-0.000641584,0.00309839,0.00149191,0.0036206,-0.0011638,1.23409,0.00288112,0.02333,1049,1737,5.41532,-19.7468
-168,-713,5.50513,19.8745,-0.00127651,0.00324625,0.00161944,0.00376631,-0.00179657,1.26006,0.00327816,0.0280343,1056,1737,5.50514,-19.8746
-161,-713,5.4342,20.1171,-0.00183261,0.00314823,0.00178277,0.00372056,-0.00240495,1.26015,0.00356365,0.0146248,1063,1737,5.43421,-20.117
-154,-713,5.39722,20.2827,-0.00204787,0.00306814,0.00187706,0.00368295,-0.00266268,1.25427,0.0036794,0.0125426,1070,1737,5.39719,-20.2827
-147,-713,5.38257,20.4569,-0.00231915,0.00308972,0.00192368,0.00370409,-0.00293353,1.26166,0.00384083,0.0196102,1077,1737,5.38252,-20.4569
-140,-713,5.39258,20.619,-0.00222663,0.00311211,0.00204614,0.00380611,-0.00292063,1.2438,0.00389488,0.0183247,1084,1737,5.39255,-20.619
-133,-713,5.3783,20.7351,-0.00181863,0.00324228,0.00205362,0.00397074,-0.00254709,1.22992,0.00379288,0.0110057,1091,1737,5.3783,-20.7352
-126,-713,5.3739,20.8636,-0.00146629,0.00347004,0.00188402,0.00410693,-0.00210318,1.24481,0.00364709,0.0157906,1098,1737,5.37394,-20.8637
-119,-713,5.35327,20.9713,-0.00114554,0.00368244,0.00186967,0.00432181,-0.00178491,1.24129,0.00362571,0.0243174,1105,1737,5.35327,-20.9713
-112,-713,5.35034,21.1584,-0.00069056,0.00374357,0.00187241,0.00442845,-0.00137545,1.22014,0.00350201,0.0125967,1112,1737,5.3504,-21.1585
-105,-713,5.36169,21.2876,-0.000280759,0.00359564,0.00175838,0.00427441,-0.00095953,1.2024,0.0032175,0.0104681,1119,1737,5.36165,-21.2876
-98,-713,5.35547,21.4063,-3.08513e-05,0.00330335,0.00163268,0.00396967,-0.000697174,1.18331,0.00290684,0.0106092,1126,1737,5.35542,-21.4062
-91,-713,5.33411,21.5034,0.000405704,0.00309297,0.0015907,0.00383156,-0.000332892,1.1361,0.00267226,0.0102749,1133,1737,5.3341,-21.5035
-84,-713,5.32104,21.6288,0.000604392,0.00281355,0.00134304,0.0034479,-2.99537e-05,1.12954,0.00230865,0.00910948,1140,1737,5.32102,-21.6288
-77,-713,5.33655,21.745,0.000725409,0.00250093,0.00109007,0.003019,0.000207338,1.12713,0.00194724,0.0131676,1147,1737,5.33651,-21.745
-70,-713,5.34631,21.8453,0.00094166,0.00208275,0.000808443,0.0025017,0.00052271,1.09268,0.00152375,0.0156776,1154,1737,5.34632,-21.8453
-63,-713,5.3396,21.96,0.00116578,0.00163505,0.000608524,0.00205261,0.000748226,0.969405,0.00119949,0.0127771,1161,1737,5.3396,-21.96
-56,-713,5.34912,22.0439,0.00142351,0.00130295,0.00053908,0.00190567,0.000820789,0.729721,0.00110375,0.0122726,1168,1737,5.3491,-22.0439
-49,-713,5.32068,22.1255,0.00185104,0.00116888,0.000637481,0.00223295,0.000786965,0.539753,0.00130778,0.0148686,1175,1737,5.32074,-22.1255
-42,-713,5.33618,22.2084,0.00258399,0.000883152,0.0010485,0.0030836,0.000383546,0.444667,0.00194056,0.0167961,1182,1737,5.33622,-22.2084
-35,-713,5.35632,22.2567,0.00340365,0.000559814,0.00151598,0.00406021,-9.67432e-05,0.408702,0.00273962,0.014017,1189,1737,5.35632,-22.2568
-28,-713,5.35852,22.3448,0.00427475,0.000501198,0.0020311,0.00516021,-0.00038426,0.411109,0.00357512,0.0128428,1196,1737,5.35854,-22.3448
-21,-713,5.36597,22.4338,0.00512872,0.000450974,0.00281309,0.00644823,-0.000868539,0.438592,0.00461566,0.00920933,1203,1737,5.36591,-22.4339
-14,-713,5.36951,22.4756,0.00595899,0.000610105,0.00386041,0.00798087,-0.00141178,0.482464,0.00584825,0.0102789,1210,1737,5.36949,-22.4756
-7,-713,5.3844,22.5348,0.0066031,0.000870854,0.00494596,0.00945337,-0.00197942,0.522798,0.00705523,0.0094918,1217,1737,5.38445,-22.5348
0,-713,5.39905,22.5999,0.00704416,0.0012936,0.00588786,0.0107213,-0.00238353,0.55826,0.00806038,0.0140052,1224,1737,5.39899,-22.5999
7,-713,5.41528,22.6459,0.0069801,0.00203717,0.00673755,0.0116852,-0.0026679,0.609608,0.00881503,0.0169257,1231,1737,5.41529,-22.6459
14,-713,5.4231,22.689,0.0064597,0.00296866,0.00748535,0.0124004,-0.002972,0.67085,0.00941525,0.0127509,1238,1737,5.42305,-22.689
21,-713,5.41943,22.7218,0.00551902,0.00332531,0.00792312,0.0124209,-0.00357652,0.716617,0.00969519,0.0106407,1245,1737,5.41944,-22.7218
28,-713,5.40479,22.7485,0.00436365,0.00359118,0.00825748,0.0122439,-0.0042891,0.762028,0.0099068,0.0114492,1252,1737,5.40476,-22.7485
35,-713,5.41394,22.814,0.00312177,0.00377879,0.00828626,0.011743,-0.00484249,0.80521,0.00984806,0.0121784,1259,1737,5.41395,-22.814
42,-713,5.43872,22.8591,0.00163711,0.00373772,0.00810455,0.0108597,-0.00548491,0.849836,0.00960516,0.0116869,1266,1737,5.43869,-22.8591
49,-713,5.45398,22.8372,7.58819e-05,0.00354133,0.00740417,0.00941282,-0.00579561,0.90034,0.00886299,0.0115802,1273,1737,5.45404,-22.8372
56,-713,5.47742,22.8441,-0.00116133,0.00320508,0.00634964,0.00773635,-0.00569261,0.950983,0.00778309,0.0117368,1280,1737,5.47743,-22.8441
63,-713,5.47974,22.8855,-0.0021794,0.00263781,0.00520153,0.00596133,-0.00550292,1.00223,0.00662065,0.0120544,1287,1737,5.47975,-22.8854
70,-713,5.48145,22.8966,-0.00286774,0.00200573,0.00407997,0.00432124,-0.00518325,1.05459,0.00549494,0.011075,1294,1737,5.48143,-22.8967
77,-713,5.48511,22.8977,-0.00325991,0.00117974,0.00292533,0.00263213,-0.00471231,1.10996,0.00429663,0.0105062,1301,1737,5.48507,-22.8977
84,-713,5.50818,22.899,-0.00325788,0.000505036,0.00165275,0.00112787,-0.00388071,1.21041,0.0030338,0.0121795,1308,1737,5.50821,-22.8991
91,-713,5.52051,22.9138,-0.00285899,-0.000133443,0.000462004,-5.72589e-05,-0.00293518,1.40737,0.00193798,0.0129035,1315,1737,5.52051,-22.9138
98,-713,5.51526,22.8965,-0.00222791,-0.000562179,-0.00039954,-0.000471304,-0.00231879,-1.34715,0.00141516,0.0117635,1322,1737,5.5153,-22.8964
105,-713,5.52808,22.8827,-0.00147097,-0.000682517,-0.000914055,-8.12992e-05,-0.00207219,-0.988994,0.00135517,0.0129059,1329,1737,5.52812,-22.8827
112,-713,5.54541,22.8875,-0.000587535,-0.000931317,-0.00132921,0.00058085,-0.0020997,-0.721096,0.00162833,0.0133522,1336,1737,5.54546,-22.8874
119,-713,5.5553,22.8716,0.000159436,-0.00118998,-0.0016882,0.00130277,-0.00233331,-0.595292,0.00212721,0.0136847,1343,1737,5.5553,-22.8716
126,-713,5.56287,22.838,0.000813457,-0.000861492,-0.00171101,0.00188096,-0.00192899,-0.557808,0.00219973,0.0133643,1350,1737,5.56292,-22.838
133,-713,5.56079,22.7682,0.0011529,-0.000731187,-0.00159859,0.00206637,-0.00164466,-0.519142,0.00214717,0.0123702,1357,1737,5.56073,-22.7682
140,-713,5.58179,22.696,0.00122775,-0.000690063,-0.00121292,0.00181502,-0.00127734,-0.450913,0.00179435,0.0131482,1364,1737,5.58183,-22.696
147,-713,5.60413,22.662,0.00128843,-0.000603985,-0.000858891,0.00162011,-0.000935667,-0.368532,0.00149311,0.0137592,1371,1737,5.60417,-22.6619
154,-713,5.60168,22.6365,0.00130295,-0.000600979,-0.000388483,0.00137916,-0.000677195,-0.193729,0.00121008,0.0131093,1378,1737,5.60166,-22.6364
161,-713,5.60315,22.573,0.00109685,-0.000534962,7.18813e-05,0.00110001,-0.000538122,0.0439366,0.000964144,0.0104028,1385,1737,5.60312,-22.573
168,-713,5.59949,22.5046,0.000917921,-6.39308e-05,0.000260382,0.000982699,-0.000128709,0.243831,0.00070198,0.0105056,1392,1737,5.59947,-22.5047
175,-713,5.63086,22.4279,0.000788174,0.000240201,0.000231859,0.000873112,0.000155263,0.351154,0.000537843,0.0135523,1399,1737,5.6309,-22.4279
182,-713,5.6228,22.3644,0.000439736,0.00054086,0.00019931,0.000695921,0.000284675,0.90962,0.000403999,0.012189,1406,1737,5.62283,-22.3643
189,-713,5.61975,22.3005,-6.91086e-05,0.000724225,0.000245862,0.000794241,-0.000139124,1.29336,0.000581443,0.0111461,1413,1737,5.61973,-22.3006
196,-713,5.62097,22.2161,-0.000595028,0.00107663,0.00029286,0.00112646,-0.00064485,1.40229,0.00103519,0.0130178,1420,1737,5.62101,-22.216
203,-713,5.58289,22.13,-0.000957546,0.00174798,0.000197089,0.00176226,-0.000971828,1.49846,0.00160037,0.018384,1427,1737,5.58288,-22.13
210,-713,5.59583,22.0303,-0.00143752,0.00207172,0.000217508,0.00208515,-0.00145095,1.50913,0.00205248,0.0152991,1434,1737,5.59586,-22.0303
217,-713,5.62244,21.9557,-0.00203194,0.00250257,0.000160769,0.00250826,-0.00203764,1.5354,0.00262926,0.0118796,1441,1737,5.62244,-21.9557
224,-713,5.59985,21.8722,-0.00258365,0.00303179,0.000130889,0.00303484,-0.0025867,1.5475,0.00324904,0.0115336,1448,1737,5.59987,-21.8722
231,-713,5.60693,21.7614,-0.00311352,0.00363084,0.000101769,0.00363237,-0.00311506,1.55571,0.00389944,0.0105519,1455,1737,5.60697,-21.7614
238,-713,5.61194,21.6381,-0.00344539,0.00424915,6.84966e-05,0.00424976,-0.00344599,1.5619,0.00445122,0.00815817,1462,1737,5.61194,-21.638
245,-713,5.62109,21.5244,-0.0035669,0.00490936,-9.7307e-06,0.00490937,-0.00356692,-1.56965,0.0049142,0.0107252,1469,1737,5.62111,-21.5244
252,-713,5.6051,21.4158,-0.00356551,0.00547013,-0.000190797,0.00547416,-0.00356954,-1.54969,0.00525983,0.0116307,1476,1737,5.6051,-21.4158
259,-713,5.60693,21.2933,-0.00361044,0.00600485,-0.000476943,0.00602845,-0.00363404,-1.52136,0.00563545,0.0122773,1483,1737,5.60699,-21.2933
266,-713,5.59595,21.191,-0.00389213,0.00665815,-0.000638633,0.00669667,-0.00393065,-1.51056,0.00620457,0.0107986,1490,1737,5.59589,-21.191
273,-713,5.58728,21.0731,-0.00403629,0.00710956,-0.000817115,0.00716914,-0.00409588,-1.498,0.00658405,0.00878443,1497,1737,5.58728,-21.0731
280,-713,5.58081,20.9298,-0.00421376,0.00738682,-0.000918935,0.00745916,-0.0042861,-1.49223,0.00686312,0.0101951,1504,1737,5.58079,-20.9298
287,-713,5.56982,20.7865,-0.00424053,0.00745205,-0.000827382,0.0075103,-0.00429879,-1.5005,0.00690151,0.0119497,1511,1737,5.56984,-20.7865
294,-713,5.59412,20.6715,-0.00407778,0.0075697,-0.000856433,0.00763233,-0.00414041,-1.49779,0.00689594,0.0184203,1518,1737,5.59412,-20.6715
301,-713,5.58826,20.5177,-0.00416723,0.00706281,-0.00081922,0.00712225,-0.00422667,-1.49836,0.00662301,0.0197402,1525,1737,5.58821,-20.5177
308,-713,5.56055,20.3303,-0.00496214,0.00523097,-0.000446037,0.00525045,-0.00498163,-1.52715,0.00590817,0.0184658,1532,1737,5.56049,-20.3303
315,-713,5.51416,20.162,-0.00574347,0.00547993,-0.000134797,0.00548155,-0.00574509,-1.55879,0.0064823,0.0244941,1539,1737,5.51411,-20.162
322,-713,5.38318,19.9514,-0.00610459,0.00531817,0.000196141,0.00532154,-0.00610796,1.55363,0.00660403,0.0355242,1546,1737,5.38323,-19.9515
329,-713,5.41699,19.8494,-0.0061559,0.00476156,0.00036293,0.00477361,-0.00616795,1.5376,0.00633419,0.0394123,1553,1737,5.41704,-19.8494
336,-713,5.33508,19.7828,-0.00578583,0.00393508,5.16821e-05,0.00393536,-0.00578611,1.56548,0.00564649,0.0418581,1560,1737,5.33503,-19.7828
343,-713,5.28979,19.4606,0,0,0,0,0,0,0,-1,1567,1737,5.28974,-19.4606
350,-713,5.5105,19.4537,0,0,0,0,0,0,0,-1,1574,1737,5.51044,-19.4537
357,-713,5.79309,19.2157,0,0,0,0,0,0,0,-1,1581,1737,5.79312,-19.2157
364,-713,5.07764,18.7289,0,0,0,0,0,0,0,-1,1588,1737,5.07761,-18.7289
371,-713,6.05554,18.6056,0,0,0,0,0,0,0,-1,1595,1737,6.05551,-18.6056
378,-713,7.02185,18.535,0,0,0,0,0,0,0,-1,1602,1737,7.02188,-18.5351
385,-713,7.81396,18.6816,0,0,0,0,0,0,0,-1,1609,1737,7.81397,-18.6817
392,-713,3.28784,13.7118,0,0,0,0,0,0,0,-1,1616,1737,3.28781,-13.7118
399,-713,2.84045,14.7314,0,0,0,0,0,0,0,-1,1623,1737,2.84046,-14.7315
406,-713,2.97656,16.4902,0,0,0,0,0,0,0,-1,1630,1737,2.97656,-16.4902
413,-713,3.24731,18.2787,0,0,0,0,0,0,0,-1,1637,1737,3.24726,-18.2787
420,-713,0,0,0,0,0,0,0,0,0,-1,1644,1737,0,0
427,-713,0,0,0,0,0,0,0,0,0,-1,1651,1737,0,0
434,-713,0,0,0,0,0,0,0,0,0,-1,1658,1737,0,0
441,-713,0,0,0,0,0,0,0,0,0,-1,1665,1737,0,0
448,-713,0,0,0,0,0,0,0,0,0,-1,1672,1737,0,0
455,-713,0,0,0,0,0,0,0,0,0,-1,1679,1737,0,0
462,-713,0,0,0,0,0,0,0,0,0,-1,1686,1737,0,0
469,-713,0,0,0,0,0,0,0,0,0,-1,1693,1737,0,0
476,-713,0,0,0,0,0,0,0,0,0,-1,1700,1737,0,0
483,-713,0,0,0,0,0,0,0,0,0,-1,1707,1737,0,0
490,-713,0,0,0,0,0,0,0,0,0,-1,1714,1737,0,0
497,-713,0,0,0,0,0,0,0,0,0,-1,1721,1737,0,0
504,-713,0,0,0,0,0,0,0,0,0,-1,1728,1737,0,0
511,-713,0,0,0,0,0,0,0,0,0,-1,1735,1737,0,0
518,-713,0,0,0,0,0,0,0,0,0,-1,1742,1737,0,0
525,-713,0,0,0,0,0,0,0,0,0,-1,1749,1737,0,0
532,-713,0,0,0,0,0,0,0,0,0,-1,1756,1737,0,0
539,-713,0,0,0,0,0,0,0,0,0,-1,1763,1737,0,0
546,-713,0,0,0,0,0,0,0,0,0,-1,1770,1737,0,0
553,-713,0,0,0,0,0,0,0,0,0,-1,1777,1737,0,0
560,-713,0,0,0,0,0,0,0,0,0,-1,1784,1737,0,0
567,-713,0,0,0,0,0,0,0,0,0,-1,1791,1737,0,0
574,-713,0,0,0,0,0,0,0,0,0,-1,1798,1737,0,0
581,-713,0,0,0,0,0,0,0,0,0,-1,1805,1737,0,0
588,-713,0,0,0,0,0,0,0,0,0,-1,1812,1737,0,0
595,-713,0,0,0,0,0,0,0,0,0,-1,1819,1737,0,0
602,-713,0,0,0,0,0,0,0,0,0,-1,1826,1737,0,0
609,-713,0,0,0,0,0,0,0,0,0,-1,1833,1737,0,0
616,-713,0,0,0,0,0,0,0,0,0,-1,1840,1737,0,0
623,-713,0,0,0,0,0,0,0,0,0,-1,1847,1737,0,0
630,-713,0,0,0,0,0,0,0,0,0,-1,1854,1737,0,0
637,-713,0,0,0,0,0,0,0,0,0,-1,1861,1737,0,0
644,-713,0,0,0,0,0,0,0,0,0,-1,1868,1737,0,0
651,-713,0,0,0,0,0,0,0,0,0,-1,1875,1737,0,0
658,-713,0,0,0,0,0,0,0,0,0,-1,1882,1737,0,0
665,-713,0,0,0,0,0,0,0,0,0,-1,1889,1737,0,0
672,-713,0,0,0,0,0,0,0,0,0,-1,1896,1737,0,0
679,-713,0,0,0,0,0,0,0,0,0,-1,1903,1737,0,0
686,-713,0,0,0,0,0,0,0,0,0,-1,1910,1737,0,0
693,-713,0,0,0,0,0,0,0,0,0,-1,1917,1737,0,0
700,-713,0,0,0,0,0,0,0,0,0,-1,1924,1737,0,0
707,-713,0,0,0,0,0,0,0,0,0,-1,1931,1737,0,0
714,-713,0,0,0,0,0,0,0,0,0,-1,1938,1737,0,0
721,-713,0,0,0,0,0,0,0,0,0,-1,1945,1737,0,0
728,-713,0,0,0,0,0,0,0,0,0,-1,1952,1737,0,0
735,-713,0,0,0,0,0,0,0,0,0,-1,1959,1737,0,0
742,-713,0,0,0,0,0,0,0,0,0,-1,1966,1737,0,0
749,-713,0,0,0,0,0,0,0,0,0,-1,1973,1737,0,0
756,-713,0,0,0,0,0,0,0,0,0,-1,1980,1737,0,0
763,-713,0,0,0,0,0,0,0,0,0,-1,1987,1737,0,0
770,-713,0,0,0,0,0,0,0,0,0,-1,1994,1737,0,0
777,-713,0,0,0,0,0,0,0,0,0,-1,2001,1737,0,0
784,-713,0,0,0,0,0,0,0,0,0,-1,2008,1737,0,0
791,-713,0,0,0,0,0,0,0,0,0,-1,2015,1737,0,0
798,-713,0,0,0,0,0,0,0,0,0,-1,2022,1737,0,0
805,-713,0,0,0,0,0,0,0,0,0,-1,2029,1737,0,0
812,-713,0,0,0,0,0,0,0,0,0,-1,2036,1737,0,0
-700,-720,0,0,0,0,0,0,0,0,0,-1,524,1744,0,0
-693,-720,0,0,0,0,0,0,0,0,0,-1,531,1744,0,0
-686,-720,0,0,0,0,0,0,0,0,0,-1,538,1744,0,0
-679,-720,0,0,0,0,0,0,0,0,0,-1,545,1744,0,0
-672,-720,0,0,0,0,0,0,0,0,0,-1,552,1744,0,0
-665,-720,0,0,0,0,0,0,0,0,0,-1,559,1744,0,0
-658,-720,0,0,0,0,0,0,0,0,0,-1,566,1744,0,0
-651,-720,0,0,0,0,0,0,0,0,0,-1,573,1744,0,0
-644,-720,0,0,0,0,0,0,0,0,0,-1,580,1744,0,0
-637,-720,0,0,0,0,0,0,0,0,0,-1,587,1744,0,0
-630,-720,0,0,0,0,0,0,0,0,0,-1,594,1744,0,0
-623,-720,0,0,0,0,0,0,0,0,0,-1,601,1744,0,0
-616,-720,0,0,0,0,0,0,0,0,0,-1,608,1744,0,0
-609,-720,0,0,0,0,0,0,0,0,0,-1,615,1744,0,0
-602,-720,0,0,0,0,0,0,0,0,0,-1,622,1744,0,0
-595,-720,0,0,0,0,0,0,0,0,0,-1,629,1744,0,0
-588,-720,0,0,0,0,0,0,0,0,0,-1,636,1744,0,0
-581,-720,0,0,0,0,0,0,0,0,0,-1,643,1744,0,0
-574,-720,0,0,0,0,0,0,0,0,0,-1,650,1744,0,0
-567,-720,0,0,0,0,0,0,0,0,0,-1,657,1744,0,0
-560,-720,0,0,0,0,0,0,0,0,0,-1,664,1744,0,0
-553,-720,0,0,0,0,0,0,0,0,0,-1,671,1744,0,0
-546,-720,0,0,0,0,0,0,0,0,0,-1,678,1744,0,0
-539,-720,0,0,0,0,0,0,0,0,0,-1,685,1744,0,0
-532,-720,0,0,0,0,0,0,0,0,0,-1,692,1744,0,0
-525,-720,0,0,0,0,0,0,0,0,0,-1,699,1744,0,0
-518,-720,0,0,0,0,0,0,0,0,0,-1,706,1744,0,0
-511,-720,0,0,0,0,0,0,0,0,0,-1,713,1744,0,0
-504,-720,0,0,0,0,0,0,0,0,0,-1,720,1744,0,0
-497,-720,0,0,0,0,0,0,0,0,0,-1,727,1744,0,0
-490,-720,0,0,0,0,0,0,0,0,0,-1,734,1744,0,0
-483,-720,0,0,0,0,0,0,0,0,0,-1,741,1744,0,0
-476,-720,0,0,0,0,0,0,0,0,0,-1,748,1744,0,0
-469,-720,0,0,0,0,0,0,0,0,0,-1,755,1744,0,0
-462,-720,0,0,0,0,0,0,0,0,0,-1,762,1744,0,0
-455,-720,0,0,0,0,0,0,0,0,0,-1,769,1744,0,0
-448,-720,0,0,0,0,0,0,0,0,0,-1,776,1744,0,0
-441,-720,0,0,0,0,0,0,0,0,0,-1,783,1744,0,0
-434,-720,0,0,0,0,0,0,0,0,0,-1,790,1744,0,0
-427,-720,0,0,0,0,0,0,0,0,0,-1,797,1744,0,0
-420,-720,0,0,0,0,0,0,0,0,0,-1,804,1744,0,0
-413,-720,0,0,0,0,0,0,0,0,0,-1,811,1744,0,0
-406,-720,0,0,0,0,0,0,0,0,0,-1,818,1744,0,0
-399,-720,0,0,0,0,0,0,0,0,0,-1,825,1744,0,0
-392,-720,0,0,0,0,0,0,0,0,0,-1,832,1744,0,0
-385,-720,0,0,0,0,0,0,0,0,0,-1,839,1744,0,0
-378,-720,0,0,0,0,0,0,0,0,0,-1,846,1744,0,0
-371,-720,0,0,0,0,0,0,0,0,0,-1,853,1744,0,0
-364,-720,0,0,0,0,0,0,0,0,0,-1,860,1744,0,0
-357,-720,0,0,0,0,0,0,0,0,0,-1,867,1744,0,0
-350,-720,0,0,0,0,0,0,0,0,0,-1,874,1744,0,0
-343,-720,0,0,0,0,0,0,0,0,0,-1,881,1744,0,0
-336,-720,0,0,0,0,0,0,0,0,0,-1,888,1744,0,0
-329,-720,0,0,0,0,0,0,0,0,0,-1,895,1744,0,0
-322,-720,0,0,0,0,0,0,0,0,0,-1,902,1744,0,0
-315,-720,0,0,0,0,0,0,0,0,0,-1,909,1744,0,0
-308,-720,0,0,0,0,0,0,0,0,0,-1,916,1744,0,0
-301,-720,0,0,0,0,0,0,0,0,0,-1,923,1744,0,0
-294,-720,0,0,0,0,0,0,0,0,0,-1,930,1744,0,0
-287,-720,0,0,0,0,0,0,0,0,0,-1,937,1744,0,0
-280,-720,6.46796,22.6417,0,0,0,0,0,0,0,-1,944,1744,6.46793,-22.6417
-273,-720,8.54633,13.262,0,0,0,0,0,0,0,-1,951,1744,8.54636,-13.2619
-266,-720,7.28027,13.3165,0,0,0,0,0,0,0,-1,958,1744,7.28026,-13.3166
-259,-720,3.70563,18.6372,0,0,0,0,0,0,0,-1,965,1744,3.70564,-18.6372
-252,-720,4.00989,18.5059,0,0,0,0,0,0,0,-1,972,1744,4.00988,-18.5058
-245,-720,4.63318,20.3199,0,0,0,0,0,0,0,-1,979,1744,4.6332,-20.32
-238,-720,4.70691,19.5372,0,0,0,0,0,0,0,-1,986,1744,4.70693,-19.5372
-231,-720,5.83551,18.546,0,0,0,0,0,0,0,-1,993,1744,5.83552,-18.546
-224,-720,5.75989,18.7869,0,0,0,0,0,0,0,-1,1000,1744,5.75986,-18.7869
-217,-720,5.69269,18.2334,0,0,0,0,0,0,0,-1,1007,1744,5.69271,-18.2334
-210,-720,4.25476,19.1465,0,0,0,0,0,0,0,-1,1014,1744,4.25474,-19.1465
-203,-720,5.81604,18.7969,0,0,0,0,0,0,0,-1,1021,1744,5.81605,-18.7968
-196,-720,6.29199,18.8101,0,0,0,0,0,0,0,-1,1028,1744,6.29205,-18.8101
-189,-720,5.04199,19.2089,0,0,0,0,0,0,0,-1,1035,1744,5.04198,-19.2089
-182,-720,5.2843,19.5679,-0.000216028,0.00449828,0.00189035,0.00516265,-0.000880398,1.23283,0.00376966,0.0461051,1042,1744,5.28425,-19.5678
-175,-720,5.44678,19.8256,-0.00111172,0.00401063,0.00187235,0.00462204,-0.00172313,1.25516,0.00378869,0.0458618,1049,1744,5.44678,-19.8256
-168,-720,5.60535,19.9729,-0.00209249,0.00427012,0.00208538,0.00489269,-0.00271507,1.28068,0.00445192,0.0388238,1056,1744,5.6053,-19.9729
-161,-720,5.39648,20.1196,-0.00289448,0.00423608,0.00234374,0.00493745,-0.00359586,1.28002,0.00494697,0.0322462,1063,1744,5.39651,-20.1196
-154,-720,5.57068,20.3459,-0.00322724,0.00416322,0.00250784,0.00493386,-0.00399787,1.27266,0.00516617,0.0265552,1070,1744,5.5707,-20.346
-147,-720,5.54663,20.5477,-0.00362982,0.00426608,0.00260979,0.00505071,-0.00441445,1.27874,0.00546883,0.0259902,1077,1744,5.54658,-20.5478
-140,-720,5.54834,20.6769,-0.00353316,0.00438748,0.00279443,0.00527412,-0.0044198,1.26356,0.00560402,0.0210388,1084,1744,5.5484,-20.6769
-133,-720,5.51489,20.7617,-0.00304456,0.00466681,0.00282665,0.00559195,-0.0039697,1.25449,0.00554684,0.0134889,1091,1744,5.51491,-20.7618
-126,-720,5.49158,20.8893,-0.00263173,0.00500926,0.00263674,0.00583081,-0.00345328,1.26875,0.00541844,0.0114439,1098,1744,5.49154,-20.8893
-119,-720,5.48071,21.0209,-0.00221899,0.00533092,0.00263547,0.00615988,-0.00304795,1.26606,0.0054164,0.0139033,1105,1744,5.48068,-21.0208
-112,-720,5.45886,21.134,-0.00163712,0.00545137,0.00263952,0.00632626,-0.00251201,1.25073,0.00525879,0.0131585,1112,1744,5.45892,-21.1341
-105,-720,5.46167,21.2581,-0.00112471,0.00531057,0.00249741,0.00616604,-0.00198018,1.24078,0.00490583,0.0129274,1119,1744,5.46164,-21.2581
-98,-720,5.47766,21.3909,-0.000835436,0.00495486,0.00231149,0.00576442,-0.001645,1.23391,0.00449281,0.0104303,1126,1744,5.47769,-21.3909
-91,-720,5.45398,21.5027,-0.000247758,0.0047095,0.00225682,0.00558301,-0.00112127,1.2015,0.00414661,0.00918545,1133,1744,5.45403,-21.5027
-84,-720,5.43567,21.6227,-9.34696e-06,0.00431738,0.00188456,0.00502311,-0.000715078,1.21248,0.00361078,0.0100486,1140,1744,5.43572,-21.6227
-77,-720,5.43604,21.7546,6.13746e-05,0.00376615,0.00157992,0.0043484,-0.000520878,1.21771,0.00308724,0.0132247,1147,1744,5.43608,-21.7546
-70,-720,5.43591,21.8569,0.000274686,0.00303562,0.00124398,0.00351342,-0.000203116,1.20408,0.00241284,0.0120315,1154,1744,5.43592,-21.857
-63,-720,5.41516,21.9443,0.000324609,0.00228535,0.00095679,0.00267486,-6.49008e-05,1.18418,0.00180526,0.0110896,1161,1744,5.41514,-21.9443
-56,-720,5.43103,22.0344,0.000343702,0.00172843,0.00070392,0.00202342,4.87099e-05,1.17396,0.00133301,0.0124625,1168,1744,5.43097,-22.0345
-49,-720,5.40942,22.111,0.000466779,0.00144658,0.00060481,0.00173501,0.00017835,1.12581,0.00110205,0.0178317,1175,1744,5.40944,-22.1109
-42,-720,5.4176,22.1886,0.000828524,0.00122663,0.000741511,0.00179534,0.000259814,0.916528,0.00112038,0.019482,1182,1744,5.41761,-22.1886
-35,-720,5.44763,22.2671,0.00125514,0.000876018,0.000939495,0.00202401,0.000107151,0.68585,0.00131508,0.0169915,1189,1744,5.44765,-22.2671
-28,-720,5.44214,22.3572,0.00164265,0.00064771,0.00114339,0.0023921,-0.000101739,0.580207,0.00162971,0.0100713,1196,1744,5.44217,-22.3571
-21,-720,5.43164,22.4463,0.00199813,0.00045135,0.0014989,0.0029114,-0.000461923,0.547227,0.00211181,0.00852648,1203,1744,5.43165,-22.4463
-14,-720,5.43018,22.4977,0.00242106,0.000327283,0.00208209,0.00370464,-0.000956292,0.552453,0.00284265,0.010684,1210,1744,5.43021,-22.4977
-7,-720,5.43005,22.5503,0.0027685,0.000365288,0.00275158,0.0045694,-0.00143562,0.579531,0.00362095,0.0120787,1217,1744,5.43008,-22.5502
0,-720,5.43872,22.6176,0.002947,0.00053291,0.00336298,0.00531299,-0.00183308,0.613098,0.00428574,0.0125698,1224,1744,5.43878,-22.6175
7,-720,5.44666,22.661,0.00282378,0.000901588,0.00390731,0.00588646,-0.0021611,0.664806,0.00480934,0.0147068,1231,1744,5.44662,-22.661
14,-720,5.46692,22.7041,0.00255738,0.00141399,0.00442987,0.00645229,-0.00248092,0.721225,0.00532477,0.0142311,1238,1744,5.46695,-22.7041
21,-720,5.46484,22.7512,0.00217331,0.00165039,0.00477753,0.00669652,-0.00287283,0.758062,0.00566998,0.0112144,1245,1744,5.46482,-22.7512
28,-720,5.44788,22.7921,0.0016851,0.00189894,0.00497473,0.0067679,-0.00318385,0.796143,0.00586853,0.0110275,1252,1744,5.44785,-22.7922
35,-720,5.4541,22.843,0.00116316,0.00206814,0.00498807,0.0066242,-0.0033929,0.830631,0.00588282,0.0114449,1259,1744,5.45412,-22.843
42,-720,5.45728,22.8649,0.00054039,0.00217579,0.00480531,0.00623248,-0.0035163,0.869674,0.00570082,0.0114116,1266,1744,5.45726,-22.8648
49,-720,5.46875,22.8451,-0.000144867,0.00216811,0.00428784,0.00545268,-0.00342944,0.917121,0.00517225,0.0119368,1273,1744,5.46873,-22.845
56,-720,5.48267,22.8702,-0.000602081,0.00209909,0.00351407,0.00451318,-0.00301616,0.968864,0.00437561,0.0105358,1280,1744,5.48264,-22.8702
63,-720,5.48389,22.8926,-0.000829807,0.00181025,0.00275159,0.00354206,-0.00256162,1.00905,0.00353908,0.0122908,1287,1744,5.48391,-22.8926
70,-720,5.49268,22.9005,-0.00103463,0.00146777,0.00194418,0.00252857,-0.00209543,1.07132,0.00267357,0.0124285,1294,1744,5.49271,-22.9006
77,-720,5.50281,22.9011,-0.0011937,0.0010128,0.00110138,0.00146846,-0.00164936,1.17852,0.00180109,0.0133724,1301,1744,5.50281,-22.9012
84,-720,5.52954,22.8898,-0.00114873,0.000556435,0.000288231,0.000603838,-0.00119613,1.40779,0.0010578,0.0150242,1308,1744,5.52959,-22.8897
91,-720,5.52991,22.8922,-0.000993977,0.000109558,-0.000506855,0.000307023,-0.00119144,-1.1993,0.000913989,0.0148073,1315,1744,5.5299,-22.8922
98,-720,5.49768,22.9061,-0.000778471,-0.00029828,-0.00110653,0.000593907,-0.00167066,-0.892232,0.00135582,0.0127083,1322,1744,5.49763,-22.9061
105,-720,5.50354,22.8829,-0.000466085,-0.000525806,-0.00143514,0.000939503,-0.00193139,-0.774996,0.00169017,0.0112685,1329,1744,5.50357,-22.8829
112,-720,5.51917,22.8693,-3.31224e-05,-0.000805031,-0.00164093,0.00126663,-0.00210478,-0.669895,0.00196643,0.0104847,1336,1744,5.51913,-22.8692
119,-720,5.53613,22.8396,0.000239364,-0.00107898,-0.00184021,0.0015349,-0.00237452,-0.613415,0.00227439,0.0106,1343,1744,5.53618,-22.8396
126,-720,5.53137,22.7957,0.000487728,-0.00101716,-0.0018101,0.00169555,-0.00222497,-0.588418,0.00227038,0.010878,1350,1744,5.53142,-22.7957
133,-720,5.5199,22.7611,0.00064278,-0.000996794,-0.00161853,0.00163729,-0.00199131,-0.550981,0.00209829,0.012225,1357,1744,5.51992,-22.7611
140,-720,5.54834,22.7468,0.000692197,-0.000891408,-0.00133354,0.00145129,-0.0016505,-0.517489,0.00179205,0.0185923,1364,1744,5.54829,-22.7469
147,-720,5.55847,22.6906,0.000709918,-0.000767738,-0.00106622,0.00126828,-0.0013261,-0.482413,0.00149799,0.0191892,1371,1744,5.55842,-22.6906
154,-720,5.53613,22.6135,0.000682263,-0.000613056,-0.000777859,0.00104679,-0.000977586,-0.43824,0.001169,0.0123559,1378,1744,5.53609,-22.6135
161,-720,5.54883,22.566,0.000512237,-0.000393944,-0.000541801,0.000765432,-0.000647139,-0.437164,0.000816501,0.00922865,1385,1744,5.54877,-22.566
168,-720,5.55444,22.5112,0.000318167,4.29781e-05,-0.000484057,0.000683806,-0.000322661,-0.646924,0.000593422,0.00956399,1392,1744,5.55444,-22.5112
175,-720,5.578,22.4348,0.000264879,0.000478695,-0.000481823,0.000865328,-0.000121754,-0.894571,0.000621459,0.0153372,1399,1744,5.57806,-22.4348
182,-720,5.58362,22.3815,-0.000140638,0.000720705,-0.000504599,0.000953432,-0.000373366,-1.13866,0.000790053,0.0156856,1406,1744,5.58364,-22.3814
189,-720,5.55713,22.317,-0.00117222,0.00104101,-0.000398022,0.00111041,-0.00124162,-1.39816,0.00135865,0.0133255,1413,1744,5.55717,-22.317
196,-720,5.55481,22.2062,-0.00231788,0.00166152,-0.000173207,0.00166905,-0.00232541,-1.52738,0.00231655,0.0141456,1420,1744,5.5548,-22.2062
203,-720,5.54211,22.1075,-0.00309636,0.00317214,-0.000163023,0.00317638,-0.0031006,-1.54481,0.0036241,0.0170702,1427,1744,5.5421,-22.1075
210,-720,5.52502,22.0388,-0.00384274,0.00399823,-0.000122238,0.00400013,-0.00384464,-1.55521,0.00452948,0.0143028,1434,1744,5.52507,-22.0388
217,-720,5.51611,21.9449,-0.00467395,0.00492159,-0.000155629,0.00492411,-0.00467647,-1.55458,0.00554351,0.0125889,1441,1744,5.51613,-21.945
224,-720,5.51819,21.839,-0.00542179,0.00589472,-0.00016723,0.00589719,-0.00542426,-1.55602,0.00653834,0.00903591,1448,1744,5.51816,-21.839
231,-720,5.51941,21.7401,-0.00608203,0.00691488,-0.00017813,0.00691732,-0.00608447,-1.55709,0.00751172,0.0090816,1455,1744,5.51941,-21.7401
238,-720,5.5249,21.6313,-0.00644403,0.00790887,-0.000207853,0.00791188,-0.00644704,-1.55632,0.00830449,0.00829035,1462,1744,5.52494,-21.6314
245,-720,5.51917,21.5277,-0.00649587,0.00889902,-0.000308787,0.00890521,-0.00650206,-1.55075,0.00893139,0.0108904,1469,1744,5.51912,-21.5278
252,-720,5.49719,21.4106,-0.00635755,0.00970679,-0.000549053,0.00972553,-0.00637629,-1.53667,0.00936319,0.0112059,1476,1744,5.49716,-21.4107
259,-720,5.49634,21.2932,-0.00626092,0.0104057,-0.000927254,0.0104572,-0.00631235,-1.51539,0.00977997,0.010214,1483,1744,5.49629,-21.2932
266,-720,5.48279,21.1831,-0.00646412,0.0112023,-0.00112594,0.0112738,-0.00653559,-1.50741,0.0104028,0.00866119,1490,1744,5.48277,-21.1832
273,-720,5.45508,21.0656,-0.00649743,0.0117225,-0.00134802,0.0118217,-0.00659662,-1.49734,0.0107755,0.0150786,1497,1744,5.45502,-21.0655
280,-720,5.39185,20.9342,-0.0065864,0.0119339,-0.00146577,0.0120492,-0.00670169,-1.4923,0.0109716,0.0227713,1504,1744,5.39184,-20.9342
287,-720,5.38342,20.7444,-0.00638622,0.0118673,-0.00131944,0.0119622,-0.0064811,-1.49901,0.0108038,0.0369106,1511,1744,5.38339,-20.7444
294,-720,5.51892,20.5284,-0.00580821,0.0118532,-0.00139433,0.0119626,-0.00591761,-1.4925,0.0105179,0.039485,1518,1744,5.51887,-20.5285
301,-720,5.60608,20.4445,-0.0056363,0.0108126,-0.00132478,0.0109186,-0.00574231,-1.49094,0.00977273,0.0413769,1525,1744,5.60611,-20.4445
308,-720,5.51611,20.2003,-0.00681511,0.00707507,-0.000544428,0.00709637,-0.00683641,-1.53168,0.00804456,0.0410979,1532,1744,5.51614,-20.2003
315,-720,5.03918,19.8883,-0.00803548,0.00764292,-0.000113436,0.00764374,-0.0080363,-1.56356,0.00905382,0.0460391,1539,1744,5.03916,-19.8883
322,-720,5.03931,19.8228,0,0,0,0,0,0,0,-1,1546,1744,5.03936,-19.8227
329,-720,5.11475,19.8776,0,0,0,0,0,0,0,-1,1553,1744,5.11475,-19.8775
336,-720,5.12622,19.9489,0,0,0,0,0,0,0,-1,1560,1744,5.1262,-19.9489
343,-720,4.96008,19.4351,0,0,0,0,0,0,0,-1,1567,1744,4.96013,-19.435
350,-720,4.0741,11.1836,0,0,0,0,0,0,0,-1,1574,1744,4.07412,-11.1836
357,-720,3.81091,16.266,0,0,0,0,0,0,0,-1,1581,1744,3.81089,-16.266
364,-720,4.93652,18.7826,0,0,0,0,0,0,0,-1,1588,1744,4.93651,-18.7827
371,-720,5.90027,18.6631,0,0,0,0,0,0,0,-1,1595,1744,5.90025,-18.663
378,-720,6.90405,18.7253,0,0,0,0,0,0,0,-1,1602,1744,6.90402,-18.7254
385,-720,7.54175,18.5774,0,0,0,0,0,0,0,-1,1609,1744,7.54171,-18.5774
392,-720,0.141968,12.1694,0,0,0,0,0,0,0,-1,1616,1744,0.141952,-12.1694
399,-720,-0.334595,13.7629,0,0,0,0,0,0,0,-1,1623,1744,-0.334621,-13.763
406,-720,0,0,0,0,0,0,0,0,0,-1,1630,1744,0,0
413,-720,0,0,0,0,0,0,0,0,0,-1,1637,1744,0,0
420,-720,0,0,0,0,0,0,0,0,0,-1,1644,1744,0,0
427,-720,0,0,0,0,0,0,0,0,0,-1,1651,1744,0,0
434,-720,0,0,0,0,0,0,0,0,0,-1,1658,1744,0,0
441,-720,0,0,0,0,0,0,0,0,0,-1,1665,1744,0,0
448,-720,0,0,0,0,0,0,0,0,0,-1,1672,1744,0,0
455,-720,0,0,0,0,0,0,0,0,0,-1,1679,1744,0,0
462,-720,0,0,0,0,0,0,0,0,0,-1,1686,1744,0,0
469,-720,0,0,0,0,0,0,0,0,0,-1,1693,1744,0,0
476,-720,0,0,0,0,0,0,0,0,0,-1,1700,1744,0,0
483,-720,0,0,0,0,0,0,0,0,0,-1,1707,1744,0,0
490,-720,0,0,0,0,0,0,0,0,0,-1,1714,1744,0,0
497,-720,0,0,0,0,0,0,0,0,0,-1,1721,1744,0,0
504,-720,0,0,0,0,0,0,0,0,0,-1,1728,1744,0,0
511,-720,0,0,0,0,0,0,0,0,0,-1,1735,1744,0,0
518,-720,0,0,0,0,0,0,0,0,0,-1,1742,1744,0,0
525,-720,0,0,0,0,0,0,0,0,0,-1,1749,1744,0,0
532,-720,0,0,0,0,0,0,0,0,0,-1,1756,1744,0,0
539,-720,0,0,0,0,0,0,0,0,0,-1,1763,1744,0,0
546,-720,0,0,0,0,0,0,0,0,0,-1,1770,1744,0,0
553,-720,0,0,0,0,0,0,0,0,0,-1,1777,1744,0,0
560,-720,0,0,0,0,0,0,0,0,0,-1,1784,1744,0,0
567,-720,0,0,0,0,0,0,0,0,0,-1,1791,1744,0,0
574,-720,0,0,0,0,0,0,0,0,0,-1,1798,1744,0,0
581,-720,0,0,0,0,0,0,0,0,0,-1,1805,1744,0,0
588,-720,0,0,0,0,0,0,0,0,0,-1,1812,1744,0,0
595,-720,0,0,0,0,0,0,0,0,0,-1,1819,1744,0,0
602,-720,0,0,0,0,0,0,0,0,0,-1,1826,1744,0,0
609,-720,0,0,0,0,0,0,0,0,0,-1,1833,1744,0,0
616,-720,0,0,0,0,0,0,0,0,0,-1,1840,1744,0,0
623,-720,0,0,0,0,0,0,0,0,0,-1,1847,1744,0,0
630,-720,0,0,0,0,0,0,0,0,0,-1,1854,1744,0,0
637,-720,0,0,0,0,0,0,0,0,0,-1,1861,1744,0,0
644,-720,0,0,0,0,0,0,0,0,0,-1,1868,1744,0,0
651,-720,0,0,0,0,0,0,0,0,0,-1,1875,1744,0,0
658,-720,0,0,0,0,0,0,0,0,0,-1,1882,1744,0,0
665,-720,0,0,0,0,0,0,0,0,0,-1,1889,1744,0,0
672,-720,0,0,0,0,0,0,0,0,0,-1,1896,1744,0,0
679,-720,0,0,0,0,0,0,0,0,0,-1,1903,1744,0,0
686,-720,0,0,0,0,0,0,0,0,0,-1,1910,1744,0,0
693,-720,0,0,0,0,0,0,0,0,0,-1,1917,1744,0,0
700,-720,0,0,0,0,0,0,0,0,0,-1,1924,1744,0,0
707,-720,0,0,0,0,0,0,0,0,0,-1,1931,1744,0,0
714,-720,0,0,0,0,0,0,0,0,0,-1,1938,1744,0,0
721,-720,0,0,0,0,0,0,0,0,0,-1,1945,1744,0,0
728,-720,0,0,0,0,0,0,0,0,0,-1,1952,1744,0,0
735,-720,0,0,0,0,0,0,0,0,0,-1,1959,1744,0,0
742,-720,0,0,0,0,0,0,0,0,0,-1,1966,1744,0,0
749,-720,0,0,0,0,0,0,0,0,0,-1,1973,1744,0,0
756,-720,0,0,0,0,0,0,0,0,0,-1,1980,1744,0,0
763,-720,0,0,0,0,0,0,0,0,0,-1,1987,1744,0,0
770,-720,0,0,0,0,0,0,0,0,0,-1,1994,1744,0,0
777,-720,0,0,0,0,0,0,0,0,0,-1,2001,1744,0,0
784,-720,0,0,0,0,0,0,0,0,0,-1,2008,1744,0,0
791,-720,0,0,0,0,0,0,0,0,0,-1,2015,1744,0,0
798,-720,0,0,0,0,0,0,0,0,0,-1,2022,1744,0,0
805,-720,0,0,0,0,0,0,0,0,0,-1,2029,1744,0,0
812,-720,0,0,0,0,0,0,0,0,0,-1,2036,1744,0,0
-700,-727,0,0,0,0,0,0,0,0,0,-1,524,1751,0,0
-693,-727,0,0,0,0,0,0,0,0,0,-1,531,1751,0,0
-686,-727,0,0,0,0,0,0,0,0,0,-1,538,1751,0,0
-679,-727,0,0,0,0,0,0,0,0,0,-1,545,1751,0,0
-672,-727,0,0,0,0,0,0,0,0,0,-1,552,1751,0,0
-665,-727,0,0,0,0,0,0,0,0,0,-1,559,1751,0,0
-658,-727,0,0,0,0,0,0,0,0,0,-1,566,1751,0,0
-651,-727,0,0,0,0,0,0,0,0,0,-1,573,1751,0,0
-644,-727,0,0,0,0,0,0,0,0,0,-1,580,1751,0,0
-637,-727,0,0,0,0,0,0,0,0,0,-1,587,1751,0,0
-630,-727,0,0,0,0,0,0,0,0,0,-1,594,1751,0,0
-623,-727,0,0,0,0,0,0,0,0,0,-1,601,1751,0,0
-616,-727,0,0,0,0,0,0,0,0,0,-1,608,1751,0,0
-609,-727,0,0,0,0,0,0,0,0,0,-1,615,1751,0,0
-602,-727,0,0,0,0,0,0,0,0,0,-1,622,1751,0,0
-595,-727,0,0,0,0,0,0,0,0,0,-1,629,1751,0,0
-588,-727,0,0,0,0,0,0,0,0,0,-1,636,1751,0,0
-581,-727,0,0,0,0,0,0,0,0,0,-1,643,1751,0,0
-574,-727,0,0,0,0,0,0,0,0,0,-1,650,1751,0,0
-567,-727,0,0,0,0,0,0,0,0,0,-1,657,1751,0,0
-560,-727,0,0,0,0,0,0,0,0,0,-1,664,1751,0,0
-553,-727,0,0,0,0,0,0,0,0,0,-1,671,1751,0,0
-546,-727,0,0,0,0,0,0,0,0,0,-1,678,1751,0,0
-539,-727,0,0,0,0,0,0,0,0,0,-1,685,1751,0,0
-532,-727,0,0,0,0,0,0,0,0,0,-1,692,1751,0,0
-525,-727,0,0,0,0,0,0,0,0,0,-1,699,1751,0,0
-518,-727,0,0,0,0,0,0,0,0,0,-1,706,1751,0,0
-511,-727,0,0,0,0,0,0,0,0,0,-1,713,1751,0,0
-504,-727,0,0,0,0,0,0,0,0,0,-1,720,1751,0,0
-497,-727,0,0,0,0,0,0,0,0,0,-1,727,1751,0,0
-490,-727,0,0,0,0,0,0,0,0,0,-1,734,1751,0,0
-483,-727,0,0,0,0,0,0,0,0,0,-1,741,1751,0,0
-476,-727,0,0,0,0,0,0,0,0,0,-1,748,1751,0,0
-469,-727,0,0,0,0,0,0,0,0,0,-1,755,1751,0,0
-462,-727,0,0,0,0,0,0,0,0,0,-1,762,1751,0,0
-455,-727,0,0,0,0,0,0,0,0,0,-1,769,1751,0,0
-448,-727,0,0,0,0,0,0,0,0,0,-1,776,1751,0,0
-441,-727,0,0,0,0,0,0,0,0,0,-1,783,1751,0,0
-434,-727,0,0,0,0,0,0,0,0,0,-1,790,1751,0,0
-427,-727,0,0,0,0,0,0,0,0,0,-1,797,1751,0,0
-420,-727,0,0,0,0,0,0,0,0,0,-1,804,1751,0,0
-413,-727,0,0,0,0,0,0,0,0,0,-1,811,1751,0,0
-406,-727,0,0,0,0,0,0,0,0,0,-1,818,1751,0,0
-399,-727,0,0,0,0,0,0,0,0,0,-1,825,1751,0,0
-392,-727,0,0,0,0,0,0,0,0,0,-1,832,1751,0,0
-385,-727,0,0,0,0,0,0,0,0,0,-1,839,1751,0,0
-378,-727,0,0,0,0,0,0,0,0,0,-1,846,1751,0,0
-371,-727,0,0,0,0,0,0,0,0,0,-1,853,1751,0,0
-364,-727,0,0,0,0,0,0,0,0,0,-1,860,1751,0,0
-357,-727,0,0,0,0,0,0,0,0,0,-1,867,1751,0,0
-350,-727,0,0,0,0,0,0,0,0,0,-1,874,1751,0,0
-343,-727,0,0,0,0,0,0,0,0,0,-1,881,1751,0,0
-336,-727,0,0,0,0,0,0,0,0,0,-1,888,1751,0,0
-329,-727,0,0,0,0,0,0,0,0,0,-1,895,1751,0,0
-322,-727,0,0,0,0,0,0,0,0,0,-1,902,1751,0,0
-315,-727,0,0,0,0,0,0,0,0,0,-1,909,1751,0,0
-308,-727,0,0,0,0,0,0,0,0,0,-1,916,1751,0,0
-301,-727,0,0,0,0,0,0,0,0,0,-1,923,1751,0,0
-294,-727,0,0,0,0,0,0,0,0,0,-1,930,1751,0,0
-287,-727,0,0,0,0,0,0,0,0,0,-1,937,1751,0,0
-280,-727,0,0,0,0,0,0,0,0,0,-1,944,1751,0,0
-273,-727,0,0,0,0,0,0,0,0,0,-1,951,1751,0,0
-266,-727,4.24805,7.61145,0,0,0,0,0,0,0,-1,958,1751,4.24802,-7.6115
-259,-727,3.65228,5.4082,0,0,0,0,0,0,0,-1,965,1751,3.65229,-5.40818
-252,-727,6.35193,19.5046,0,0,0,0,0,0,0,-1,972,1751,6.35193,-19.5046
-245,-727,6.6543,20.9005,0,0,0,0,0,0,0,-1,979,1751,6.65433,-20.9005
-238,-727,4.31769,18.0181,0,0,0,0,0,0,0,-1,986,1751,4.31766,-18.018
-231,-727,4.72626,18.8145,0,0,0,0,0,0,0,-1,993,1751,4.72627,-18.8145
-224,-727,5.36774,18.8488,0,0,0,0,0,0,0,-1,1000,1751,5.36772,-18.8487
-217,-727,5.94122,16.1447,0,0,0,0,0,0,0,-1,1007,1751,5.9412,-16.1446
-210,-727,4.14667,16.5145,0,0,0,0,0,0,0,-1,1014,1751,4.14665,-16.5145
-203,-727,4.51599,19.2318,0,0,0,0,0,0,0,-1,1021,1751,4.51595,-19.2318
-196,-727,4.38831,19.5543,0,0,0,0,0,0,0,-1,1028,1751,4.38835,-19.5544
-189,-727,5.80457,18.6007,0,0,0,0,0,0,0,-1,1035,1751,5.80455,-18.6006
-182,-727,5.28674,19.5941,0,0,0,0,0,0,0,-1,1042,1751,5.28679,-19.5941
-175,-727,5.46704,19.9231,0,0,0,0,0,0,0,-1,1049,1751,5.46703,-19.9231
-168,-727,5.63159,20.1434,0,0,0,0,0,0,0,-1,1056,1751,5.63153,-20.1434
-161,-727,5.57117,19.7826,0,0,0,0,0,0,0,-1,1063,1751,5.57121,-19.7826
-154,-727,5.63,20.1826,-0.00481728,0.00550366,0.00332726,0.00648331,-0.00579694,1.28446,0.0070937,0.0488497,1070,1751,5.63005,-20.1826
-147,-727,5.75781,20.4349,-0.00531251,0.00576748,0.00350273,0.00678192,-0.00632695,1.28889,0.00756993,0.0449465,1077,1751,5.75777,-20.4349
-140,-727,5.57251,20.4619,-0.00512897,0.00607135,0.00376492,0.00721926,-0.00627687,1.27485,0.00779833,0.0321969,1084,1751,5.57245,-20.4619
-133,-727,5.66333,20.6426,-0.00446813,0.00657195,0.00383949,0.00777594,-0.00567212,1.26693,0.00779584,0.0237756,1091,1751,5.66337,-20.6426
-126,-727,5.57861,20.8345,-0.00390188,0.00706434,0.00365952,0.00817339,-0.00501093,1.27654,0.00768462,0.0154345,1098,1751,5.57864,-20.8345
-119,-727,5.5614,21.0249,-0.00329769,0.00750528,0.00369097,0.00864591,-0.00443832,1.27107,0.00768328,0.012337,1105,1751,5.56141,-21.0249
-112,-727,5.56885,21.1345,-0.0025128,0.00767002,0.00370169,0.00887345,-0.00371623,1.25647,0.00746917,0.0133625,1112,1751,5.56889,-21.1346
-105,-727,5.55676,21.2616,-0.00184585,0.00750263,0.00353286,0.00868754,-0.00303076,1.24719,0.00702341,0.012754,1119,1751,5.55676,-21.2616
-98,-727,5.56201,21.3871,-0.0014792,0.00703549,0.00326878,0.00814563,-0.00258934,1.2434,0.00646866,0.0110629,1126,1751,5.562,-21.3871
-91,-727,5.56067,21.495,-0.000716045,0.00669843,0.00317529,0.00787239,-0.00189001,1.21667,0.00597869,0.0106136,1133,1751,5.56071,-21.495
-84,-727,5.53723,21.6256,-0.000435765,0.00613447,0.00264347,0.00706598,-0.00136727,1.232,0.00522637,0.0113917,1140,1751,5.53721,-21.6256
-77,-727,5.53064,21.7454,-0.000420281,0.00527465,0.00225312,0.00605825,-0.00120388,1.2361,0.0044942,0.0127116,1147,1751,5.53066,-21.7454
-70,-727,5.52881,21.8442,-0.00020108,0.00415106,0.00182657,0.00481606,-0.000866077,1.22164,0.00353494,0.0125979,1154,1751,5.5288,-21.8442
-63,-727,5.52075,21.9442,-0.000208813,0.00299658,0.00146078,0.00356242,-0.000774646,1.20124,0.00267087,0.0102229,1161,1751,5.5208,-21.9442
-56,-727,5.50891,22.0385,-0.000294713,0.00215255,0.00109206,0.002569,-0.000711167,1.20647,0.00199249,0.0104721,1168,1751,5.50889,-22.0384
-49,-727,5.50134,22.1228,-0.00034608,0.0017283,0.000915301,0.00207442,-0.000692197,1.20927,0.00166243,0.0129344,1175,1751,5.50138,-22.1228
-42,-727,5.51221,22.2136,-8.04118e-05,0.00144952,0.00103081,0.00196819,-0.000599087,1.10461,0.00155089,0.0158643,1182,1751,5.51223,-22.2136
-35,-727,5.49243,22.2828,0.000369363,0.0007169,0.00143057,0.00198422,-0.000897954,0.845836,0.00170296,0.0143885,1189,1751,5.49247,-22.2829
-28,-727,5.49561,22.3447,0.000742161,0.000252076,0.00159724,0.00211305,-0.00111881,0.709284,0.00189512,0.00854576,1196,1751,5.49558,-22.3447
-21,-727,5.48511,22.4231,0.00109171,-8.26112e-05,0.00178117,0.00238001,-0.00137091,0.626183,0.00219156,0.00959226,1203,1751,5.48511,-22.4231
-14,-727,5.4917,22.4877,0.00153763,-0.000459413,0.00210132,0.00286561,-0.00178739,0.563597,0.00271034,0.0112337,1210,1751,5.49171,-22.4876
-7,-727,5.48535,22.5466,0.00193339,-0.000651125,0.00242153,0.0033859,-0.00210364,0.540295,0.00319807,0.0144478,1217,1751,5.48539,-22.5466
0,-727,5.48755,22.6091,0.00218506,-0.000754303,0.00276452,0.00384628,-0.00241552,0.541086,0.00364657,0.0135819,1224,1751,5.48759,-22.6091
7,-727,5.4917,22.6534,0.00223871,-0.000706808,0.00299921,0.00410725,-0.00257535,0.557168,0.00389184,0.0133803,1231,1751,5.49174,-22.6534
14,-727,5.48657,22.7019,0.00220927,-0.000549259,0.00312701,0.00424769,-0.00258768,0.577692,0.00398501,0.0137185,1238,1751,5.48656,-22.7019
21,-727,5.4834,22.7742,0.00214127,-0.000398557,0.0031404,0.0042588,-0.00251609,0.59326,0.00395438,0.0118291,1245,1751,5.48335,-22.7741
28,-727,5.49268,22.8198,0.00195552,-0.000135475,0.00297968,0.00406781,-0.00224776,0.616671,0.00369642,0.0111136,1252,1751,5.49272,-22.8199
35,-727,5.50659,22.8356,0.00171221,9.14127e-05,0.00273039,0.00374993,-0.00194631,0.641135,0.00334323,0.0118393,1259,1751,5.50656,-22.8355
42,-727,5.4873,22.8435,0.00142432,0.00038486,0.00232722,0.00328913,-0.00147996,0.675538,0.0028187,0.0116098,1266,1751,5.48731,-22.8435
49,-727,5.46948,22.8385,0.00105803,0.000609798,0.00180087,0.00264868,-0.000980848,0.723492,0.002168,0.0107996,1273,1751,5.46945,-22.8385
56,-727,5.47266,22.8916,0.000835406,0.00085225,0.00117416,0.00201802,-0.000330361,0.788984,0.00146791,0.0102233,1280,1751,5.47261,-22.8916
63,-727,5.49194,22.908,0.000756534,0.000939423,0.000623818,0.00147846,0.000217493,0.858174,0.000921738,0.011505,1287,1751,5.49191,-22.908
70,-727,5.51099,22.9011,0.000636138,0.000850967,-3.75699e-06,0.000851032,0.000636073,-1.55332,0.000511002,0.0125785,1294,1751,5.51098,-22.9011
77,-727,5.51404,22.9221,0.000532462,0.000633912,-0.000602779,0.0011881,-2.17223e-05,-0.827375,0.000799403,0.014899,1301,1751,5.51407,-22.9221
84,-727,5.52478,22.8931,0.0005353,0.000268681,-0.000993665,0.00140456,-0.000600577,-0.718717,0.00118828,0.0181669,1308,1751,5.52473,-22.893
91,-727,5.50989,22.8643,0.000617828,-7.50023e-05,-0.00142627,0.00173915,-0.00119633,-0.666264,0.00170443,0.0188321,1315,1751,5.50985,-22.8643
98,-727,5.48755,22.8875,0.000769178,-0.000526311,-0.00178202,0.00201753,-0.00177466,-0.611078,0.00219092,0.0148201,1322,1751,5.48754,-22.8874
105,-727,5.48608,22.884,0.000969821,-0.000860965,-0.00204449,0.0022945,-0.00218564,-0.574914,0.00258686,0.0136354,1329,1751,5.48614,-22.884
112,-727,5.49878,22.8557,0.00122393,-0.00118137,-0.00220224,0.00253051,-0.00248795,-0.535475,0.00289744,0.011544,1336,1751,5.49879,-22.8557
119,-727,5.52209,22.8235,0.00130526,-0.0014386,-0.00234899,0.00265361,-0.00278695,-0.521093,0.00314142,0.00897095,1343,1751,5.5221,-22.8235
126,-727,5.5083,22.7827,0.00136118,-0.00153536,-0.00239438,0.00271122,-0.0028854,-0.513404,0.00323173,0.0105521,1350,1751,5.50832,-22.7827
133,-727,5.50171,22.7831,0.00137073,-0.00153994,-0.00229358,0.00263173,-0.00280094,-0.502688,0.00313706,0.0148856,1357,1751,5.50167,-22.7831
140,-727,5.54272,22.7931,0.0012927,-0.00132419,-0.00216807,0.00251655,-0.00254805,-0.513901,0.00292407,0.0209444,1364,1751,5.54269,-22.7931
147,-727,5.5321,22.6979,0.00112681,-0.00113123,-0.002017,0.00230928,-0.0023137,-0.530249,0.00266908,0.0178657,1371,1751,5.53215,-22.6979
154,-727,5.50842,22.5994,0.000907965,-0.00080529,-0.00191432,0.00214858,-0.00204591,-0.575018,0.00242193,0.0112336,1378,1751,5.50848,-22.5993
161,-727,5.50146,22.5637,0.000633725,-0.000446707,-0.00185773,0.00202819,-0.00184117,-0.643904,0.00223485,0.00917477,1385,1751,5.50149,-22.5638
168,-727,5.48584,22.5116,0.000334402,-3.76699e-05,-0.001856,0.00201367,-0.00171693,-0.735448,0.00215613,0.0112403,1392,1751,5.48587,-22.5116
175,-727,5.51636,22.4375,0.000156207,0.000690067,-0.00180461,0.00224738,-0.0014011,-0.858824,0.00212526,0.0162364,1399,1751,5.51641,-22.4375
182,-727,5.55261,22.3756,-0.000680137,0.000941425,-0.00152462,0.00185744,-0.00159615,-1.02978,0.00199583,0.0190456,1406,1751,5.55259,-22.3756
189,-727,5.48181,22.2941,-0.00248417,0.00139546,-0.00119402,0.00173349,-0.0028222,-1.29491,0.00265514,0.0119621,1413,1751,5.48182,-22.294
196,-727,5.46631,22.2035,-0.00445203,0.00239381,-0.000683105,0.00246131,-0.00451953,-1.47231,0.00408836,0.0131256,1420,1751,5.46636,-22.2035
203,-727,5.45581,22.1096,-0.00575911,0.00512112,-0.000579646,0.00515191,-0.0057899,-1.51772,0.00632084,0.0165582,1427,1751,5.45578,-22.1096
210,-727,5.44385,22.0376,-0.00688839,0.00659282,-0.000537075,0.00661418,-0.00690975,-1.53104,0.00780867,0.0156749,1434,1751,5.44385,-22.0375
217,-727,5.41431,21.9459,-0.00805638,0.0081474,-0.000579761,0.00816812,-0.0080771,-1.53508,0.00937923,0.0111666,1441,1751,5.41432,-21.9459
224,-727,5.41748,21.8269,-0.00906387,0.00969715,-0.000604273,0.00971659,-0.00908331,-1.53863,0.0108562,0.0119116,1448,1751,5.41752,-21.8269
231,-727,5.41748,21.7307,-0.00989406,0.0112832,-0.000630425,0.0113019,-0.00991281,-1.54106,0.0122571,0.00962335,1455,1751,5.41744,-21.7307
238,-727,5.43188,21.6151,-0.0103113,0.0128136,-0.000685734,0.0128339,-0.0103316,-1.54118,0.0134006,0.00987117,1462,1751,5.43188,-21.6152
245,-727,5.41199,21.5149,-0.0103017,0.0142965,-0.000831712,0.0143246,-0.0103298,-1.53704,0.0142964,0.00968891,1469,1751,5.41198,-21.5149
252,-727,5.38257,21.4027,-0.0100179,0.0155177,-0.00115484,0.0155699,-0.01007,-1.52569,0.0149163,0.0109489,1476,1751,5.38252,-21.4028
259,-727,5.3938,21.2731,-0.0097599,0.0165264,-0.00165437,0.0166301,-0.00986362,-1.50819,0.0154615,0.0154336,1483,1751,5.39375,-21.2731
266,-727,5.41492,21.2012,-0.00987423,0.0175855,-0.00192351,0.0177196,-0.0100083,-1.5012,0.0162138,0.0234028,1490,1751,5.41491,-21.2012
273,-727,5.44263,21.1598,-0.00981701,0.018302,-0.00222085,0.0184763,-0.00999133,-1.49246,0.0166774,0.0425868,1497,1751,5.44265,-21.1598
280,-727,5.22913,21.1147,0,0,0,0,0,0,0,-1,1504,1751,5.22911,-21.1147
287,-727,5.17053,20.7114,0,0,0,0,0,0,0,-1,1511,1751,5.17055,-20.7114
294,-727,5.34961,20.3813,0,0,0,0,0,0,0,-1,1518,1751,5.34957,-20.3814
301,-727,5.65698,20.483,0,0,0,0,0,0,0,-1,1525,1751,5.657,-20.483
308,-727,5.5033,20.0378,0,0,0,0,0,0,0,-1,1532,1751,5.50334,-20.0379
315,-727,4.60718,19.4878,0,0,0,0,0,0,0,-1,1539,1751,4.60721,-19.4878
322,-727,4.82263,15.9088,0,0,0,0,0,0,0,-1,1546,1751,4.8226,-15.9088
329,-727,6.61853,11.6267,0,0,0,0,0,0,0,-1,1553,1751,6.61859,-11.6267
336,-727,3.34875,7.61792,0,0,0,0,0,0,0,-1,1560,1751,3.34872,-7.61791
343,-727,2.41699,8.72095,0,0,0,0,0,0,0,-1,1567,1751,2.41702,-8.72098
350,-727,3.89783,7.50195,0,0,0,0,0,0,0,-1,1574,1751,3.89782,-7.50193
357,-727,4.48462,10.2948,0,0,0,0,0,0,0,-1,1581,1751,4.48464,-10.2948
364,-727,6.96729,17.2365,0,0,0,0,0,0,0,-1,1588,1751,6.96732,-17.2365
371,-727,6.06628,16.4799,0,0,0,0,0,0,0,-1,1595,1751,6.06631,-16.4798
378,-727,6.43652,17.5544,0,0,0,0,0,0,0,-1,1602,1751,6.43657,-17.5545
385,-727,3.19275,14.7679,0,0,0,0,0,0,0,-1,1609,1751,3.19274,-14.768
392,-727,0,0,0,0,0,0,0,0,0,-1,1616,1751,0,0
399,-727,0,0,0,0,0,0,0,0,0,-1,1623,1751,0,0
406,-727,0,0,0,0,0,0,0,0,0,-1,1630,1751,0,0
413,-727,0,0,0,0,0,0,0,0,0,-1,1637,1751,0,0
420,-727,0,0,0,0,0,0,0,0,0,-1,1644,1751,0,0
427,-727,0,0,0,0,0,0,0,0,0,-1,1651,1751,0,0
434,-727,0,0,0,0,0,0,0,0,0,-1,1658,1751,0,0
441,-727,0,0,0,0,0,0,0,0,0,-1,1665,1751,0,0
448,-727,0,0,0,0,0,0,0,0,0,-1,1672,1751,0,0
455,-727,0,0,0,0,0,0,0,0,0,-1,1679,1751,0,0
462,-727,0,0,0,0,0,0,0,0,0,-1,1686,1751,0,0
469,-727,0,0,0,0,0,0,0,0,0,-1,1693,1751,0,0
476,-727,0,0,0,0,0,0,0,0,0,-1,1700,1751,0,0
483,-727,0,0,0,0,0,0,0,0,0,-1,1707,1751,0,0
490,-727,0,0,0,0,0,0,0,0,0,-1,1714,1751,0,0
497,-727,0,0,0,0,0,0,0,0,0,-1,1721,1751,0,0
504,-727,0,0,0,0,0,0,0,0,0,-1,1728,1751,0,0
511,-727,0,0,0,0,0,0,0,0,0,-1,1735,1751,0,0
518,-727,0,0,0,0,0,0,0,0,0,-1,1742,1751,0,0
525,-727,0,0,0,0,0,0,0,0,0,-1,1749,1751,0,0
532,-727,0,0,0,0,0,0,0,0,0,-1,1756,1751,0,0
539,-727,0,0,0,0,0,0,0,0,0,-1,1763,1751,0,0
546,-727,0,0,0,0,0,0,0,0,0,-1,1770,1751,0,0
553,-727,0,0,0,0,0,0,0,0,0,-1,1777,1751,0,0
560,-727,0,0,0,0,0,0,0,0,0,-1,1784,1751,0,0
567,-727,0,0,0,0,0,0,0,0,0,-1,1791,1751,0,0
574,-727,0,0,0,0,0,0,0,0,0,-1,1798,1751,0,0
581,-727,0,0,0,0,0,0,0,0,0,-1,1805,1751,0,0
588,-727,0,0,0,0,0,0,0,0,0,-1,1812,1751,0,0
595,-727,0,0,0,0,0,0,0,0,0,-1,1819,1751,0,0
602,-727,0,0,0,0,0,0,0,0,0,-1,1826,1751,0,0
609,-727,0,0,0,0,0,0,0,0,0,-1,1833,1751,0,0
616,-727,0,0,0,0,0,0,0,0,0,-1,1840,1751,0,0
623,-727,0,0,0,0,0,0,0,0,0,-1,1847,1751,0,0
630,-727,0,0,0,0,0,0,0,0,0,-1,1854,1751,0,0
637,-727,0,0,0,0,0,0,0,0,0,-1,1861,1751,0,0
644,-727,0,0,0,0,0,0,0,0,0,-1,1868,1751,0,0
651,-727,0,0,0,0,0,0,0,0,0,-1,1875,1751,0,0
658,-727,0,0,0,0,0,0,0,0,0,-1,1882,1751,0,0
665,-727,0,0,0,0,0,0,0,0,0,-1,1889,1751,0,0
672,-727,0,0,0,0,0,0,0,0,0,-1,1896,1751,0,0
679,-727,0,0,0,0,0,0,0,0,0,-1,1903,1751,0,0
686,-727,0,0,0,0,0,0,0,0,0,-1,1910,1751,0,0
693,-727,0,0,0,0,0,0,0,0,0,-1,1917,1751,0,0
700,-727,0,0,0,0,0,0,0,0,0,-1,1924,1751,0,0
707,-727,0,0,0,0,0,0,0,0,0,-1,1931,1751,0,0
714,-727,0,0,0,0,0,0,0,0,0,-1,1938,1751,0,0
721,-727,0,0,0,0,0,0,0,0,0,-1,1945,1751,0,0
728,-727,0,0,0,0,0,0,0,0,0,-1,1952,1751,0,0
735,-727,0,0,0,0,0,0,0,0,0,-1,1959,1751,0,0
742,-727,0,0,0,0,0,0,0,0,0,-1,1966,1751,0,0
749,-727,0,0,0,0,0,0,0,0,0,-1,1973,1751,0,0
756,-727,0,0,0,0,0,0,0,0,0,-1,1980,1751,0,0
763,-727,0,0,0,0,0,0,0,0,0,-1,1987,1751,0,0
770,-727,0,0,0,0,0,0,0,0,0,-1,1994,1751,0,0
777,-727,0,0,0,0,0,0,0,0,0,-1,2001,1751,0,0
784,-727,0,0,0,0,0,0,0,0,0,-1,2008,1751,0,0
791,-727,0,0,0,0,0,0,0,0,0,-1,2015,1751,0,0
798,-727,0,0,0,0,0,0,0,0,0,-1,2022,1751,0,0
805,-727,0,0,0,0,0,0,0,0,0,-1,2029,1751,0,0
812,-727,0,0,0,0,0,0,0,0,0,-1,2036,1751,0,0
-700,-734,0,0,0,0,0,0,0,0,0,-1,524,1758,0,0
-693,-734,0,0,0,0,0,0,0,0,0,-1,531,1758,0,0
-686,-734,0,0,0,0,0,0,0,0,0,-1,538,1758,0,0
-679,-734,0,0,0,0,0,0,0,0,0,-1,545,1758,0,0
-672,-734,0,0,0,0,0,0,0,0,0,-1,552,1758,0,0
-665,-734,0,0,0,0,0,0,0,0,0,-1,559,1758,0,0
-658,-734,0,0,0,0,0,0,0,0,0,-1,566,1758,0,0
-651,-734,0,0,0,0,0,0,0,0,0,-1,573,1758,0,0
-644,-734,0,0,0,0,0,0,0,0,0,-1,580,1758,0,0
-637,-734,0,0,0,0,0,0,0,0,0,-1,587,1758,0,0
-630,-734,0,0,0,0,0,0,0,0,0,-1,594,1758,0,0
-623,-734,0,0,0,0,0,0,0,0,0,-1,601,1758,0,0
-616,-734,0,0,0,0,0,0,0,0,0,-1,608,1758,0,0
-609,-734,0,0,0,0,0,0,0,0,0,-1,615,1758,0,0
-602,-734,0,0,0,0,0,0,0,0,0,-1,622,1758,0,0
-595,-734,0,0,0,0,0,0,0,0,0,-1,629,1758,0,0
-588,-734,0,0,0,0,0,0,0,0,0,-1,636,1758,0,0
-581,-734,0,0,0,0,0,0,0,0,0,-1,643,1758,0,0
-574,-734,0,0,0,0,0,0,0,0,0,-1,650,1758,0,0
-567,-734,0,0,0,0,0,0,0,0,0,-1,657,1758,0,0
-560,-734,0,0,0,0,0,0,0,0,0,-1,664,1758,0,0
-553,-734,0,0,0,0,0,0,0,0,0,-1,671,1758,0,0
-546,-734,0,0,0,0,0,0,0,0,0,-1,678,1758,0,0
-539,-734,0,0,0,0,0,0,0,0,0,-1,685,1758,0,0
-532,-734,0,0,0,0,0,0,0,0,0,-1,692,1758,0,0
-525,-734,0,0,0,0,0,0,0,0,0,-1,699,1758,0,0
-518,-734,0,0,0,0,0,0,0,0,0,-1,706,1758,0,0
-511,-734,0,0,0,0,0,0,0,0,0,-1,713,1758,0,0
-504,-734,0,0,0,0,0,0,0,0,0,-1,720,1758,0,0
-497,-734,0,0,0,0,0,0,0,0,0,-1,727,1758,0,0
-490,-734,0,0,0,0,0,0,0,0,0,-1,734,1758,0,0
-483,-734,0,0,0,0,0,0,0,0,0,-1,741,1758,0,0
-476,-734,0,0,0,0,0,0,0,0,0,-1,748,1758,0,0
-469,-734,0,0,0,0,0,0,0,0,0,-1,755,1758,0,0
-462,-734,0,0,0,0,0,0,0,0,0,-1,762,1758,0,0
-455,-734,0,0,0,0,0,0,0,0,0,-1,769,1758,0,0
-448,-734,0,0,0,0,0,0,0,0,0,-1,776,1758,0,0
-441,-734,0,0,0,0,0,0,0,0,0,-1,783,1758,0,0
-434,-734,0,0,0,0,0,0,0,0,0,-1,790,1758,0,0
-427,-734,0,0,0,0,0,0,0,0,0,-1,797,1758,0,0
-420,-734,0,0,0,0,0,0,0,0,0,-1,804,1758,0,0
-413,-734,0,0,0,0,0,0,0,0,0,-1,811,1758,0,0
-406,-734,0,0,0,0,0,0,0,0,0,-1,818,1758,0,0
-399,-734,0,0,0,0,0,0,0,0,0,-1,825,1758,0,0
-392,-734,0,0,0,0,0,0,0,0,0,-1,832,1758,0,0
-385,-734,0,0,0,0,0,0,0,0,0,-1,839,1758,0,0
-378,-734,0,0,0,0,0,0,0,0,0,-1,846,1758,0,0
-371,-734,0,0,0,0,0,0,0,0,0,-1,853,1758,0,0
-364,-734,0,0,0,0,0,0,0,0,0,-1,860,1758,0,0
-357,-734,0,0,0,0,0,0,0,0,0,-1,867,1758,0,0
-350,-734,0,0,0,0,0,0,0,0,0,-1,874,1758,0,0
-343,-734,0,0,0,0,0,0,0,0,0,-1,881,1758,0,0
-336,-734,0,0,0,0,0,0,0,0,0,-1,888,1758,0,0
-329,-734,0,0,0,0,0,0,0,0,0,-1,895,1758,0,0
-322,-734,0,0,0,0,0,0,0,0,0,-1,902,1758,0,0
-315,-734,0,0,0,0,0,0,0,0,0,-1,909,1758,0,0
-308,-734,0,0,0,0,0,0,0,0,0,-1,916,1758,0,0
-301,-734,0,0,0,0,0,0,0,0,0,-1,923,1758,0,0
-294,-734,0,0,0,0,0,0,0,0,0,-1,930,1758,0,0
-287,-734,0,0,0,0,0,0,0,0,0,-1,937,1758,0,0
-280,-734,0,0,0,0,0,0,0,0,0,-1,944,1758,0,0
-273,-734,0,0,0,0,0,0,0,0,0,-1,951,1758,0,0
-266,-734,0,0,0,0,0,0,0,0,0,-1,958,1758,0,0
-259,-734,0,0,0,0,0,0,0,0,0,-1,965,1758,0,0
-252,-734,6.93439,18.351,0,0,0,0,0,0,0,-1,972,1758,6.93438,-18.3509
-245,-734,6.95746,19.5341,0,0,0,0,0,0,0,-1,979,1758,6.95746,-19.5341
-238,-734,4.33466,18.0819,0,0,0,0,0,0,0,-1,986,1758,4.33464,-18.0819
-231,-734,5.00385,17.5045,0,0,0,0,0,0,0,-1,993,1758,5.00388,-17.5045
-224,-734,5.60974,16.9055,0,0,0,0,0,0,0,-1,1000,1758,5.60974,-16.9056
-217,-734,6.61804,16.4808,0,0,0,0,0,0,0,-1,1007,1758,6.61804,-16.4808
-210,-734,7.62262,16.1628,0,0,0,0,0,0,0,-1,1014,1758,7.6226,-16.1628
-203,-734,7.41125,15.7953,0,0,0,0,0,0,0,-1,1021,1758,7.41123,-15.7953
-196,-734,3.42322,19.1584,0,0,0,0,0,0,0,-1,1028,1758,3.42318,-19.1585
-189,-734,5.99121,18.838,0,0,0,0,0,0,0,-1,1035,1758,5.99117,-18.838
-182,-734,4.38708,17.6525,0,0,0,0,0,0,0,-1,1042,1758,4.38708,-17.6525
-175,-734,5.05054,18.079,0,0,0,0,0,0,0,-1,1049,1758,5.05053,-18.0789
-168,-734,4.50208,15.4194,0,0,0,0,0,0,0,-1,1056,1758,4.50212,-15.4194
-161,-734,5.15601,18.8546,0,0,0,0,0,0,0,-1,1063,1758,5.15595,-18.8546
-154,-734,5.70605,20.2112,0,0,0,0,0,0,0,-1,1070,1758,5.70608,-20.2112
-147,-734,6.19751,20.5663,-0.0077134,0.00785416,0.00459113,0.00910729,-0.00896653,1.30434,0.010435,0.0485079,1077,1758,6.19748,-20.5662
-140,-734,5.59277,20.6259,-0.00730402,0.00843474,0.0049707,0.00987315,-0.00874243,1.28911,0.0107543,0.0438811,1084,1758,5.59272,-20.6258
-133,-734,5.77332,20.6597,-0.00631348,0.00922542,0.00513303,0.0107679,-0.00785598,1.27888,0.0107962,0.0424908,1091,1758,5.77335,-20.6597
-126,-734,5.67163,20.6482,-0.00544588,0.00991142,0.00500679,0.0113995,-0.006934,1.28189,0.010689,0.0369051,1098,1758,5.67164,-20.6482
-119,-734,5.58215,20.9037,-0.00449443,0.0104828,0.00510131,0.0120553,-0.00606687,1.2718,0.0106515,0.037541,1105,1758,5.5821,-20.9037
-112,-734,5.66333,21.0825,-0.00338626,0.0106714,0.00512554,0.0123417,-0.0050566,1.25576,0.0103343,0.0290525,1112,1758,5.66332,-21.0826
-105,-734,5.65771,21.2472,-0.00248052,0.0104331,0.00492841,0.0120991,-0.00414649,1.24482,0.00974679,0.0198291,1119,1758,5.65776,-21.2472
-98,-734,5.68262,21.3325,-0.00197169,0.00978121,0.00455546,0.0113401,-0.00353062,1.24108,0.00897161,0.0214264,1126,1758,5.68257,-21.3326
-91,-734,5.70081,21.4106,-0.000992419,0.00924952,0.0043746,0.0108636,-0.00260654,1.21732,0.00824969,0.0272362,1133,1758,5.70083,-21.4106
-84,-734,5.64246,21.5762,-0.000661795,0.00838806,0.00361952,0.0096576,-0.00193134,1.23345,0.00716942,0.0219223,1140,1758,5.6424,-21.5762
-77,-734,5.62549,21.7268,-0.000703797,0.00706629,0.00309077,0.00814576,-0.00178327,1.23478,0.00611227,0.0170227,1147,1758,5.62548,-21.7268
-70,-734,5.60596,21.7753,-0.000466713,0.00541119,0.00253579,0.00635395,-0.00140947,1.21485,0.00477563,0.0118649,1154,1758,5.60595,-21.7752
-63,-734,5.59424,21.8689,0.000101002,0.00361025,0.0020963,0.00458934,-0.000878083,1.13385,0.00339037,0.0121115,1161,1758,5.59424,-21.8689
-56,-734,5.58691,21.9977,0.000629547,0.00216335,0.00155883,0.00313371,-0.000340814,1.014,0.00221152,0.0125617,1168,1758,5.58687,-21.9977
-49,-734,5.58411,22.1195,0.00110322,0.00131284,0.00136387,0.00257592,-0.000159865,0.823746,0.00177297,0.0121393,1175,1758,5.58411,-22.1195
-42,-734,5.57898,22.2107,0.0015687,0.000920488,0.0015431,0.00282137,-0.000332181,0.681886,0.00200085,0.013532,1182,1758,5.57902,-22.2107
-35,-734,5.57007,22.2816,0.00220411,-0.000221961,0.00219366,0.00349779,-0.00151564,0.532836,0.00296896,0.0140071,1189,1758,5.57001,-22.2816
-28,-734,5.57935,22.3395,0.00280927,-0.000791285,0.00231651,0.0039428,-0.00192482,0.455072,0.00345381,0.00973418,1196,1758,5.5794,-22.3395
-21,-734,5.61194,22.4011,0.00328999,-0.00110785,0.00234925,0.00430886,-0.00212673,0.409219,0.00378612,0.0150099,1203,1758,5.61189,-22.4012
-14,-734,5.55029,22.5049,0.00378783,-0.00148445,0.00245569,0.00475442,-0.00245104,0.374987,0.00423033,0.0162006,1210,1758,5.55031,-22.5049
-7,-734,5.54797,22.561,0.00419649,-0.00165062,0.00248346,0.00510892,-0.00256305,0.352092,0.00450997,0.0176634,1217,1758,5.54797,-22.5611
0,-734,5.53674,22.5986,0.00437592,-0.00174466,0.00258564,0.00532199,-0.00269073,0.350763,0.00470856,0.0162503,1224,1758,5.53672,-22.5986
7,-734,5.5293,22.6421,0.00447208,-0.00170121,0.00258052,0.00540868,-0.0026378,0.348163,0.00473656,0.0126856,1231,1758,5.52935,-22.6421
14,-734,5.51233,22.7065,0.00445602,-0.00151818,0.00239976,0.00530058,-0.00236274,0.338397,0.0045315,0.0135125,1238,1758,5.5123,-22.7065
21,-734,5.49609,22.7593,0.00438174,-0.00125429,0.00212481,0.00509303,-0.00196558,0.323031,0.00420652,0.0119371,1245,1758,5.49612,-22.7593
28,-734,5.51196,22.8036,0.00420804,-0.000849929,0.00171384,0.00473405,-0.00137595,0.297795,0.00370095,0.0119958,1252,1758,5.51198,-22.8036
35,-734,5.51672,22.842,0.00396063,-0.000466283,0.00127246,0.00430032,-0.00080597,0.26087,0.00316988,0.014636,1259,1758,5.51669,-22.842
42,-734,5.51697,22.8461,0.00361405,7.74676e-05,0.000703168,0.00374873,-5.72122e-05,0.189241,0.00251844,0.011491,1266,1758,5.51696,-22.8461
49,-734,5.48779,22.8457,0.0031327,0.000554904,0.000158769,0.00314244,0.000545162,0.0612822,0.00193896,0.00985879,1273,1758,5.4878,-22.8457
56,-734,5.47278,22.8896,0.00270705,0.00106281,-0.000397971,0.00279831,0.000971551,-0.225414,0.00164056,0.0100722,1280,1758,5.4728,-22.8897
63,-734,5.49219,22.8981,0.00242149,0.00141019,-0.000812076,0.00287247,0.000959208,-0.506941,0.00168864,0.0119274,1287,1758,5.49214,-22.898
70,-734,5.49341,22.9098,0.00200946,0.00143649,-0.00134933,0.00310239,0.000343563,-0.680795,0.00196378,0.0121023,1294,1758,5.49346,-22.9098
77,-734,5.50061,22.9495,0.00153424,0.00128509,-0.00183056,0.00324445,-0.000425128,-0.751424,0.00231771,0.0169796,1301,1758,5.50065,-22.9494
84,-734,5.48767,22.9143,0.00121311,0.00087091,-0.00198092,0.00303031,-0.000946288,-0.742318,0.00239868,0.0177673,1308,1758,5.48771,-22.9144
91,-734,5.47864,22.8788,0.00102681,0.000479556,-0.00225468,0.00302441,-0.00151804,-0.725014,0.00267022,0.0188437,1315,1758,5.47867,-22.8788
98,-734,5.4967,22.8745,0.000978207,-0.000111069,-0.00249998,0.00299219,-0.00212505,-0.678145,0.00296854,0.0138926,1322,1758,5.49675,-22.8745
105,-734,5.49524,22.8597,0.00112828,-0.000623793,-0.0028032,0.00318914,-0.00268466,-0.63395,0.00339541,0.0153613,1329,1758,5.49519,-22.8598
112,-734,5.4873,22.8489,0.0012331,-0.00110418,-0.00303906,0.00332047,-0.00319156,-0.601844,0.00375997,0.0129851,1336,1758,5.48736,-22.8488
119,-734,5.50391,22.8137,0.00132479,-0.00154869,-0.00322666,0.00342013,-0.00364403,-0.575941,0.00407917,0.0130974,1343,1758,5.5039,-22.8137
126,-734,5.49243,22.7628,0.00142151,-0.00182637,-0.00340379,0.0035689,-0.00397377,-0.562819,0.00435685,0.0151712,1350,1758,5.49247,-22.7628
133,-734,5.45898,22.735,0.00143827,-0.00192003,-0.00347374,0.00361741,-0.00409917,-0.560265,0.00445806,0.0138198,1357,1758,5.45902,-22.735
140,-734,5.47913,22.728,0.00137821,-0.00168085,-0.00352916,0.00369503,-0.00399767,-0.580917,0.00444253,0.0179863,1364,1758,5.47918,-22.728
147,-734,5.47363,22.6775,0.00118355,-0.00151653,-0.00348917,0.00357475,-0.00390774,-0.600807,0.00432144,0.0134055,1371,1758,5.47359,-22.6775
154,-734,5.44946,22.6125,0.000967491,-0.00111048,-0.00353453,0.00361258,-0.00375557,-0.642448,0.00425427,0.00942488,1378,1758,5.44946,-22.6126
161,-734,5.44116,22.5673,0.000716215,-0.000718975,-0.00355714,0.00362742,-0.00363018,-0.685867,0.00419018,0.00903569,1385,1758,5.44118,-22.5673
168,-734,5.40417,22.5034,0.000358661,-0.000278413,-0.00351262,0.00356716,-0.00348691,-0.74018,0.00407276,0.0136873,1392,1758,5.40417,-22.5034
175,-734,5.42114,22.4342,0.000177945,0.000846809,-0.00339093,0.00391976,-0.00289501,-0.834552,0.00394931,0.0156788,1399,1758,5.42117,-22.4342
182,-734,5.45435,22.3433,-0.00112572,0.00116811,-0.00273617,0.00298801,-0.00294563,-0.983858,0.00342582,0.0145651,1406,1758,5.45435,-22.3432
189,-734,5.41003,22.2795,-0.0039929,0.00183181,-0.00211083,0.00251631,-0.0046774,-1.25721,0.0042153,0.0111102,1413,1758,5.41003,-22.2795
196,-734,5.39404,22.2186,-0.00703632,0.00335179,-0.0012688,0.00350452,-0.00718904,-1.451,0.0062949,0.0116445,1420,1758,5.39407,-22.2187
203,-734,5.39929,22.1244,-0.0090349,0.00768185,-0.00108746,0.00775229,-0.00910534,-1.50611,0.0097432,0.0123517,1427,1758,5.3993,-22.1243
210,-734,5.38354,22.0258,-0.0106986,0.00998571,-0.0010719,0.0100411,-0.010754,-1.51916,0.0120084,0.0133345,1434,1758,5.38359,-22.0257
217,-734,5.34204,21.9355,-0.0123366,0.0123575,-0.00117125,0.0124129,-0.012392,-1.52351,0.0143211,0.0111093,1441,1758,5.34208,-21.9356
224,-734,5.33533,21.8252,-0.0136998,0.0146893,-0.00124219,0.0147435,-0.0137541,-1.52715,0.0164564,0.0122991,1448,1758,5.33538,-21.8252
231,-734,5.31848,21.7271,-0.0147554,0.0170452,-0.00132128,0.0171,-0.0148102,-1.52934,0.0184391,0.0132889,1455,1758,5.31845,-21.7271
238,-734,5.29736,21.618,-0.0152672,0.0193336,-0.00144182,0.0193936,-0.0153272,-1.52922,0.0200918,0.0168881,1462,1758,5.29739,-21.6181
245,-734,5.29346,21.4343,-0.015226,0.0215535,-0.0016688,0.0216291,-0.0153015,-1.52555,0.0214259,0.0219611,1469,1758,5.29345,-21.4343
252,-734,5.30164,21.3032,-0.0148147,0.0234828,-0.00211024,0.0235987,-0.0149306,-1.51592,0.0224317,0.0278391,1476,1758,5.30169,-21.3032
259,-734,5.35339,21.3303,-0.0144028,0.0251261,-0.00277436,0.0253199,-0.0145966,-1.50107,0.0233213,0.0403031,1483,1758,5.35335,-21.3303
266,-734,5.27417,21.2303,0,0,0,0,0,0,0,-1,1490,1758,5.27414,-21.2303
273,-734,5.4165,21.3667,0,0,0,0,0,0,0,-1,1497,1758,5.41648,-21.3668
280,-734,16.6191,7.38013,0,0,0,0,0,0,0,-1,1504,1758,16.6192,-7.38011
287,-734,14.848,9.10046,0,0,0,0,0,0,0,-1,1511,1758,14.848,-9.1005
294,-734,12.0439,5.7876,0,0,0,0,0,0,0,-1,1518,1758,12.044,-5.78759
301,-734,10.5892,5.92322,0,0,0,0,0,0,0,-1,1525,1758,10.5893,-5.92319
308,-734,9.00854,5.43774,0,0,0,0,0,0,0,-1,1532,1758,9.00857,-5.4377
315,-734,10.1539,5.4939,0,0,0,0,0,0,0,-1,1539,1758,10.1539,-5.49391
322,-734,9.85913,7.48096,0,0,0,0,0,0,0,-1,1546,1758,9.85916,-7.48098
329,-734,5.45972,12.4125,0,0,0,0,0,0,0,-1,1553,1758,5.45969,-12.4125
336,-734,5.92188,13.8751,0,0,0,0,0,0,0,-1,1560,1758,5.92183,-13.8751
343,-734,5.54968,5.14221,0,0,0,0,0,0,0,-1,1567,1758,5.54973,-5.14225
350,-734,5.07397,6.73242,0,0,0,0,0,0,0,-1,1574,1758,5.07402,-6.73243
357,-734,5.05542,7.19189,0,0,0,0,0,0,0,-1,1581,1758,5.05541,-7.19184
364,-734,4.43896,10.4904,0,0,0,0,0,0,0,-1,1588,1758,4.43893,-10.4904
371,-734,7.36975,17.4751,0,0,0,0,0,0,0,-1,1595,1758,7.36972,-17.4752
378,-734,0,0,0,0,0,0,0,0,0,-1,1602,1758,0,0
385,-734,0,0,0,0,0,0,0,0,0,-1,1609,1758,0,0
392,-734,0,0,0,0,0,0,0,0,0,-1,1616,1758,0,0
399,-734,0,0,0,0,0,0,0,0,0,-1,1623,1758,0,0
406,-734,0,0,0,0,0,0,0,0,0,-1,1630,1758,0,0
413,-734,0,0,0,0,0,0,0,0,0,-1,1637,1758,0,0
420,-734,0,0,0,0,0,0,0,0,0,-1,1644,1758,0,0
427,-734,0,0,0,0,0,0,0,0,0,-1,1651,1758,0,0
434,-734,0,0,0,0,0,0,0,0,0,-1,1658,1758,0,0
441,-734,0,0,0,0,0,0,0,0,0,-1,1665,1758,0,0
448,-734,0,0,0,0,0,0,0,0,0,-1,1672,1758,0,0
455,-734,0,0,0,0,0,0,0,0,0,-1,1679,1758,0,0
462,-734,0,0,0,0,0,0,0,0,0,-1,1686,1758,0,0
469,-734,0,0,0,0,0,0,0,0,0,-1,1693,1758,0,0
476,-734,0,0,0,0,0,0,0,0,0,-1,1700,1758,0,0
483,-734,0,0,0,0,0,0,0,0,0,-1,1707,1758,0,0
490,-734,0,0,0,0,0,0,0,0,0,-1,1714,1758,0,0
497,-734,0,0,0,0,0,0,0,0,0,-1,1721,1758,0,0
504,-734,0,0,0,0,0,0,0,0,0,-1,1728,1758,0,0
511,-734,0,0,0,0,0,0,0,0,0,-1,1735,1758,0,0
518,-734,0,0,0,0,0,0,0,0,0,-1,1742,1758,0,0
525,-734,0,0,0,0,0,0,0,0,0,-1,1749,1758,0,0
532,-734,0,0,0,0,0,0,0,0,0,-1,1756,1758,0,0
539,-734,0,0,0,0,0,0,0,0,0,-1,1763,1758,0,0
546,-734,0,0,0,0,0,0,0,0,0,-1,1770,1758,0,0
553,-734,0,0,0,0,0,0,0,0,0,-1,1777,1758,0,0
560,-734,0,0,0,0,0,0,0,0,0,-1,1784,1758,0,0
567,-734,0,0,0,0,0,0,0,0,0,-1,1791,1758,0,0
574,-734,0,0,0,0,0,0,0,0,0,-1,1798,1758,0,0
581,-734,0,0,0,0,0,0,0,0,0,-1,1805,1758,0,0
588,-734,0,0,0,0,0,0,0,0,0,-1,1812,1758,0,0
595,-734,0,0,0,0,0,0,0,0,0,-1,1819,1758,0,0
602,-734,0,0,0,0,0,0,0,0,0,-1,1826,1758,0,0
609,-734,0,0,0,0,0,0,0,0,0,-1,1833,1758,0,0
616,-734,0,0,0,0,0,0,0,0,0,-1,1840,1758,0,0
623,-734,0,0,0,0,0,0,0,0,0,-1,1847,1758,0,0
630,-734,0,0,0,0,0,0,0,0,0,-1,1854,1758,0,0
637,-734,0,0,0,0,0,0,0,0,0,-1,1861,1758,0,0
644,-734,0,0,0,0,0,0,0,0,0,-1,1868,1758,0,0
651,-734,0,0,0,0,0,0,0,0,0,-1,1875,1758,0,0
658,-734,0,0,0,0,0,0,0,0,0,-1,1882,1758,0,0
665,-734,0,0,0,0,0,0,0,0,0,-1,1889,1758,0,0
672,-734,0,0,0,0,0,0,0,0,0,-1,1896,1758,0,0
679,-734,0,0,0,0,0,0,0,0,0,-1,1903,1758,0,0
686,-734,0,0,0,0,0,0,0,0,0,-1,1910,1758,0,0
693,-734,0,0,0,0,0,0,0,0,0,-1,1917,1758,0,0
700,-734,0,0,0,0,0,0,0,0,0,-1,1924,1758,0,0
707,-734,0,0,0,0,0,0,0,0,0,-1,1931,1758,0,0
714,-734,0,0,0,0,0,0,0,0,0,-1,1938,1758,0,0
721,-734,0,0,0,0,0,0,0,0,0,-1,1945,1758,0,0
728,-734,0,0,0,0,0,0,0,0,0,-1,1952,1758,0,0
735,-734,0,0,0,0,0,0,0,0,0,-1,1959,1758,0,0
742,-734,0,0,0,0,0,0,0,0,0,-1,1966,1758,0,0
749,-734,0,0,0,0,0,0,0,0,0,-1,1973,1758,0,0
756,-734,0,0,0,0,0,0,0,0,0,-1,1980,1758,0,0
763,-734,0,0,0,0,0,0,0,0,0,-1,1987,1758,0,0
770,-734,0,0,0,0,0,0,0,0,0,-1,1994,1758,0,0
777,-734,0,0,0,0,0,0,0,0,0,-1,2001,1758,0,0
784,-734,0,0,0,0,0,0,0,0,0,-1,2008,1758,0,0
791,-734,0,0,0,0,0,0,0,0,0,-1,2015,1758,0,0
798,-734,0,0,0,0,0,0,0,0,0,-1,2022,1758,0,0
805,-734,0,0,0,0,0,0,0,0,0,-1,2029,1758,0,0
812,-734,0,0,0,0,0,0,0,0,0,-1,2036,1758,0,0
-700,-741,0,0,0,0,0,0,0,0,0,-1,524,1765,0,0
-693,-741,0,0,0,0,0,0,0,0,0,-1,531,1765,0,0
-686,-741,0,0,0,0,0,0,0,0,0,-1,538,1765,0,0
-679,-741,0,0,0,0,0,0,0,0,0,-1,545,1765,0,0
-672,-741,0,0,0,0,0,0,0,0,0,-1,552,1765,0,0
-665,-741,0,0,0,0,0,0,0,0,0,-1,559,1765,0,0
-658,-741,0,0,0,0,0,0,0,0,0,-1,566,1765,0,0
-651,-741,0,0,0,0,0,0,0,0,0,-1,573,1765,0,0
-644,-741,0,0,0,0,0,0,0,0,0,-1,580,1765,0,0
-637,-741,0,0,0,0,0,0,0,0,0,-1,587,1765,0,0
-630,-741,0,0,0,0,0,0,0,0,0,-1,594,1765,0,0
-623,-741,0,0,0,0,0,0,0,0,0,-1,601,1765,0,0
-616,-741,0,0,0,0,0,0,0,0,0,-1,608,1765,0,0
-609,-741,0,0,0,0,0,0,0,0,0,-1,615,1765,0,0
-602,-741,0,0,0,0,0,0,0,0,0,-1,622,1765,0,0
-595,-741,0,0,0,0,0,0,0,0,0,-1,629,1765,0,0
-588,-741,0,0,0,0,0,0,0,0,0,-1,636,1765,0,0
-581,-741,0,0,0,0,0,0,0,0,0,-1,643,1765,0,0
-574,-741,0,0,0,0,0,0,0,0,0,-1,650,1765,0,0
-567,-741,0,0,0,0,0,0,0,0,0,-1,657,1765,0,0
-560,-741,0,0,0,0,0,0,0,0,0,-1,664,1765,0,0
-553,-741,0,0,0,0,0,0,0,0,0,-1,671,1765,0,0
-546,-741,0,0,0,0,0,0,0,0,0,-1,678,1765,0,0
-539,-741,0,0,0,0,0,0,0,0,0,-1,685,1765,0,0
-532,-741,0,0,0,0,0,0,0,0,0,-1,692,1765,0,0
-525,-741,0,0,0,0,0,0,0,0,0,-1,699,1765,0,0
-518,-741,0,0,0,0,0,0,0,0,0,-1,706,1765,0,0
-511,-741,0,0,0,0,0,0,0,0,0,-1,713,1765,0,0
-504,-741,0,0,0,0,0,0,0,0,0,-1,720,1765,0,0
-497,-741,0,0,0,0,0,0,0,0,0,-1,727,1765,0,0
-490,-741,0,0,0,0,0,0,0,0,0,-1,734,1765,0,0
-483,-741,0,0,0,0,0,0,0,0,0,-1,741,1765,0,0
-476,-741,0,0,0,0,0,0,0,0,0,-1,748,1765,0,0
-469,-741,0,0,0,0,0,0,0,0,0,-1,755,1765,0,0
-462,-741,0,0,0,0,0,0,0,0,0,-1,762,1765,0,0
-455,-741,0,0,0,0,0,0,0,0,0,-1,769,1765,0,0
-448,-741,0,0,0,0,0,0,0,0,0,-1,776,1765,0,0
-441,-741,0,0,0,0,0,0,0,0,0,-1,783,1765,0,0
-434,-741,0,0,0,0,0,0,0,0,0,-1,790,1765,0,0
-427,-741,0,0,0,0,0,0,0,0,0,-1,797,1765,0,0
-420,-741,0,0,0,0,0,0,0,0,0,-1,804,1765,0,0
-413,-741,0,0,0,0,0,0,0,0,0,-1,811,1765,0,0
-406,-741,0,0,0,0,0,0,0,0,0,-1,818,1765,0,0
-399,-741,0,0,0,0,0,0,0,0,0,-1,825,1765,0,0
-392,-741,0,0,0,0,0,0,0,0,0,-1,832,1765,0,0
-385,-741,0,0,0,0,0,0,0,0,0,-1,839,1765,0,0
-378,-741,0,0,0,0,0,0,0,0,0,-1,846,1765,0,0
-371,-741,0,0,0,0,0,0,0,0,0,-1,853,1765,0,0
-364,-741,0,0,0,0,0,0,0,0,0,-1,860,1765,0,0
-357,-741,0,0,0,0,0,0,0,0,0,-1,867,1765,0,0
-350,-741,0,0,0,0,0,0,0,0,0,-1,874,1765,0,0
-343,-741,0,0,0,0,0,0,0,0,0,-1,881,1765,0,0
-336,-741,0,0,0,0,0,0,0,0,0,-1,888,1765,0,0
-329,-741,0,0,0,0,0,0,0,0,0,-1,895,1765,0,0
-322,-741,0,0,0,0,0,0,0,0,0,-1,902,1765,0,0
-315,-741,0,0,0,0,0,0,0,0,0,-1,909,1765,0,0
-308,-741,0,0,0,0,0,0,0,0,0,-1,916,1765,0,0
-301,-741,0,0,0,0,0,0,0,0,0,-1,923,1765,0,0
-294,-741,0,0,0,0,0,0,0,0,0,-1,930,1765,0,0
-287,-741,0,0,0,0,0,0,0,0,0,-1,937,1765,0,0
-280,-741,0,0,0,0,0,0,0,0,0,-1,944,1765,0,0
-273,-741,0,0,0,0,0,0,0,0,0,-1,951,1765,0,0
-266,-741,0,0,0,0,0,0,0,0,0,-1,958,1765,0,0
-259,-741,0,0,0,0,0,0,0,0,0,-1,965,1765,0,0
-252,-741,0,0,0,0,0,0,0,0,0,-1,972,1765,0,0
-245,-741,0,0,0,0,0,0,0,0,0,-1,979,1765,0,0
-238,-741,4.22437,17.0699,0,0,0,0,0,0,0,-1,986,1765,4.22434,-17.07
-231,-741,5.12506,16.7758,0,0,0,0,0,0,0,-1,993,1765,5.12506,-16.7757
-224,-741,5.91974,16.7001,0,0,0,0,0,0,0,-1,1000,1765,5.91972,-16.7001
-217,-741,6.90027,16.573,0,0,0,0,0,0,0,-1,1007,1765,6.90029,-16.573
-210,-741,7.17267,16.792,0,0,0,0,0,0,0,-1,1014,1765,7.17268,-16.7919
-203,-741,7.51392,17.0526,0,0,0,0,0,0,0,-1,1021,1765,7.51395,-17.0526
-196,-741,7.88647,16.95,0,0,0,0,0,0,0,-1,1028,1765,7.88649,-16.9499
-189,-741,3.89563,18.7715,0,0,0,0,0,0,0,-1,1035,1765,3.89562,-18.7715
-182,-741,4.28748,17.9268,0,0,0,0,0,0,0,-1,1042,1765,4.28742,-17.9267
-175,-741,4.89868,17.0417,0,0,0,0,0,0,0,-1,1049,1765,4.89864,-17.0417
-168,-741,5.4801,16.3933,0,0,0,0,0,0,0,-1,1056,1765,5.4801,-16.3933
-161,-741,3.73047,14.4974,0,0,0,0,0,0,0,-1,1063,1765,3.73043,-14.4974
-154,-741,2.46143,9.75415,0,0,0,0,0,0,0,-1,1070,1765,2.46145,-9.75416
-147,-741,4.88977,21.1327,0,0,0,0,0,0,0,-1,1077,1765,4.8898,-21.1327
-140,-741,5.28674,20.6886,0,0,0,0,0,0,0,-1,1084,1765,5.2868,-20.6886
-133,-741,5.93811,20.8346,0,0,0,0,0,0,0,-1,1091,1765,5.93812,-20.8346
-126,-741,5.74304,20.5525,-0.00736878,0.0139098,0.00684847,0.0159234,-0.0093824,1.28483,0.0147721,0.0460943,1098,1765,5.74305,-20.5524
-119,-741,5.53296,20.6052,-0.00582329,0.0146348,0.0070778,0.0168448,-0.00803324,1.26815,0.0146606,0.0464905,1105,1765,5.53297,-20.6052
-112,-741,5.56274,20.7734,-0.00420475,0.014828,0.00715389,0.0172171,-0.00659381,1.24849,0.014196,0.0461669,1112,1765,5.56276,-20.7735
-105,-741,5.72229,21.1986,-0.00292495,0.0144746,0.00696477,0.0169191,-0.00536941,1.23325,0.0134318,0.0387259,1119,1765,5.72232,-21.1987
-98,-741,5.69507,21.2646,0,0,0,0,0,0,0,-1,1126,1765,5.69503,-21.2647
-91,-741,5.78015,21.3151,0,0,0,0,0,0,0,-1,1133,1765,5.78013,-21.3151
-84,-741,5.7074,21.3606,0,0,0,0,0,0,0,-1,1140,1765,5.70742,-21.3605
-77,-741,5.70923,21.4449,0,0,0,0,0,0,0,-1,1147,1765,5.70918,-21.4449
-70,-741,5.66956,21.5768,0,0,0,0,0,0,0,-1,1154,1765,5.66954,-21.5768
-63,-741,5.61902,21.7548,0,0,0,0,0,0,0,-1,1161,1765,5.61906,-21.7547
-56,-741,5.6731,21.9139,0,0,0,0,0,0,0,-1,1168,1765,5.67309,-21.9139
-49,-741,5.66467,22.1031,0,0,0,0,0,0,0,-1,1175,1765,5.66471,-22.1032
-42,-741,5.63745,22.1886,0,0,0,0,0,0,0,-1,1182,1765,5.63741,-22.1885
-35,-741,5.65186,22.2601,0.00748868,-0.00177221,0.00331287,0.00855176,-0.00283528,0.310511,0.00684489,0.0222689,1189,1765,5.65186,-22.2601
-28,-741,5.65967,22.3403,0.00822777,-0.00242747,0.00334336,0.00918995,-0.00338966,0.280216,0.00751578,0.013715,1196,1765,5.65964,-22.3404
-21,-741,5.66125,22.4186,0.00865494,-0.00269768,0.00324104,0.00951505,-0.00355779,0.259402,0.00780446,0.0172778,1203,1765,5.66129,-22.4186
-14,-741,5.61316,22.5183,0.00892986,-0.0030126,0.00317153,0.00971985,-0.00380259,0.244122,0.00805249,0.0188678,1210,1765,5.61321,-22.5183
-7,-741,5.62598,22.5656,0.00908126,-0.00308926,0.00295461,0.00976062,-0.00376862,0.226005,0.00806243,0.0160184,1217,1765,5.62593,-22.5655
0,-741,5.59998,22.5986,0.00901216,-0.00309675,0.00278647,0.0096226,-0.00370719,0.215666,0.00794455,0.0151969,1224,1765,5.59993,-22.5986
7,-741,5.5708,22.6489,0.00888854,-0.00292757,0.00251443,0.00940135,-0.00344038,0.201187,0.00767582,0.0169016,1231,1765,5.57082,-22.649
14,-741,5.5675,22.6967,0.0086177,-0.002535,0.00205412,0.008984,-0.0029013,0.17647,0.00715526,0.0165604,1238,1765,5.56755,-22.6967
21,-741,5.54736,22.739,0.00830125,-0.00203039,0.00151531,0.00851891,-0.00224805,0.142665,0.00655834,0.0132194,1245,1765,5.54741,-22.739
28,-741,5.52222,22.8059,0.0078901,-0.00133277,0.000850793,0.00796793,-0.00141059,0.0912224,0.00583922,0.013648,1252,1765,5.52224,-22.806
35,-741,5.53235,22.8438,0.00739417,-0.000655335,0.00019883,0.00739908,-0.000660243,0.0246808,0.00516688,0.0152508,1259,1765,5.53231,-22.8438
42,-741,5.56055,22.8539,0.00673983,0.000231875,-0.000578088,0.00679078,0.000180924,-0.0879107,0.0044681,0.0150076,1266,1765,5.56055,-22.8539
49,-741,5.53149,22.8505,0.00591117,0.0010642,-0.00117922,0.00618284,0.000792532,-0.226428,0.00388476,0.0101593,1273,1765,5.53148,-22.8504
56,-741,5.49902,22.8784,0.00509857,0.00192483,-0.00174115,0.00586749,0.0011559,-0.415862,0.00358895,0.0104468,1280,1765,5.49906,-22.8784
63,-741,5.51025,22.8853,0.00453691,0.00251964,-0.00211494,0.00587142,0.00118513,-0.562896,0.00358513,0.0145719,1287,1765,5.51022,-22.8852
70,-741,5.49976,22.8956,0.0037612,0.00257005,-0.00265477,0.00588638,0.000444868,-0.675054,0.00378469,0.0164875,1294,1765,5.49973,-22.8956
77,-741,5.49341,22.9358,0.00281078,0.00240375,-0.00316406,0.00577787,-0.000563334,-0.753282,0.00405276,0.0141394,1301,1765,5.49338,-22.9358
84,-741,5.48193,22.9167,0.00209101,0.00184863,-0.00319858,0.00517069,-0.00123105,-0.766463,0.00392241,0.0162626,1308,1765,5.48188,-22.9167
91,-741,5.47131,22.9039,0.00159099,0.00132626,-0.00345323,0.00491439,-0.00199715,-0.766242,0.00410715,0.0125577,1315,1765,5.47136,-22.9039
98,-741,5.47083,22.8875,0.00131389,0.000511383,-0.00370601,0.00464031,-0.00281503,-0.731472,0.00434713,0.0100024,1322,1765,5.47085,-22.8875
105,-741,5.47424,22.8466,0.00143523,-0.000258596,-0.00410266,0.00477748,-0.00360085,-0.683613,0.0048531,0.0106406,1329,1765,5.47425,-22.8466
112,-741,5.48157,22.8314,0.00162179,-0.001088,-0.00447339,0.00494097,-0.00440718,-0.63835,0.00540009,0.0108501,1336,1765,5.48156,-22.8314
119,-741,5.47937,22.7943,0.0018316,-0.00188917,-0.00481188,0.00513021,-0.00518778,-0.600937,0.00595713,0.01364,1343,1765,5.47937,-22.7943
126,-741,5.47021,22.7272,0.00197989,-0.00241455,-0.00517167,0.00540174,-0.0058364,-0.584523,0.00648996,0.0175944,1350,1765,5.47019,-22.7272
133,-741,5.44897,22.6965,0.00202932,-0.00268742,-0.00540944,0.00557213,-0.00623023,-0.579834,0.00681763,0.0138696,1357,1765,5.449,-22.6965
140,-741,5.40894,22.6827,0.00201169,-0.00247174,-0.00564004,0.00583918,-0.00629923,-0.596239,0.00700979,0.010664,1364,1765,5.40898,-22.6827
147,-741,5.40063,22.6536,0.00184226,-0.00239969,-0.00568343,0.00578758,-0.006345,-0.606808,0.00700721,0.0100045,1371,1765,5.40066,-22.6536
154,-741,5.40381,22.6172,0.00167222,-0.00195431,-0.00577049,0.00590763,-0.00618973,-0.633168,0.00698505,0.00843027,1378,1765,5.40385,-22.6171
161,-741,5.40112,22.5665,0.00137239,-0.00156986,-0.00571647,0.005804,-0.00600147,-0.659457,0.00681621,0.0104827,1385,1765,5.40109,-22.5666
168,-741,5.37134,22.5212,0.000955096,-0.00103874,-0.00560043,0.00564665,-0.00573029,-0.697317,0.00656854,0.0239015,1392,1765,5.3713,-22.5212
175,-741,5.32385,22.4451,0,0,0,0,0,0,0,-1,1399,1765,5.32383,-22.4451
182,-741,5.34961,22.3306,0,0,0,0,0,0,0,-1,1406,1765,5.3496,-22.3305
189,-741,5.32703,22.2797,0,0,0,0,0,0,0,-1,1413,1765,5.327,-22.2796
196,-741,5.32666,22.2479,0,0,0,0,0,0,0,-1,1420,1765,5.32667,-22.2479
203,-741,5.33728,22.1346,0,0,0,0,0,0,0,-1,1427,1765,5.33729,-22.1346
210,-741,5.30103,21.9855,0,0,0,0,0,0,0,-1,1434,1765,5.30104,-21.9855
217,-741,5.26892,21.8357,-0.0181209,0.0181574,-0.00212963,0.018282,-0.0182454,-1.51236,0.0210891,0.0434184,1441,1765,5.26898,-21.8357
224,-741,5.32092,21.7395,-0.0199598,0.0215924,-0.00228629,0.0217178,-0.0200853,-1.51599,0.0241412,0.0292747,1448,1765,5.32095,-21.7395
231,-741,5.30444,21.7382,-0.0212734,0.0250079,-0.00246012,0.0251383,-0.0214038,-1.51784,0.0268999,0.0350669,1455,1765,5.30444,-21.7381
238,-741,5.14868,21.6592,-0.0219064,0.0283968,-0.00269707,0.028541,-0.0220506,-1.51738,0.0292891,0.0379197,1462,1765,5.14874,-21.6592
245,-741,4.67834,21.4517,-0.0218676,0.0317774,-0.00307195,0.0319528,-0.0220429,-1.51378,0.0313489,0.0417367,1469,1765,4.6783,-21.4516
252,-741,4.53271,21.3326,0,0,0,0,0,0,0,-1,1476,1765,4.53275,-21.3326
259,-741,5.27783,21.4465,0,0,0,0,0,0,0,-1,1483,1765,5.27784,-21.4466
266,-741,4.40173,15.2345,0,0,0,0,0,0,0,-1,1490,1765,4.40175,-15.2345
273,-741,17.0328,7.54468,0,0,0,0,0,0,0,-1,1497,1765,17.0328,-7.54474
280,-741,16.2363,9.84546,0,0,0,0,0,0,0,-1,1504,1765,16.2363,-9.84547
287,-741,14.5045,8.71423,0,0,0,0,0,0,0,-1,1511,1765,14.5045,-8.71429
294,-741,11.9165,6.87305,0,0,0,0,0,0,0,-1,1518,1765,11.9165,-6.87305
301,-741,10.8608,6.83752,0,0,0,0,0,0,0,-1,1525,1765,10.8608,-6.83747
308,-741,9.80518,6.80188,0,0,0,0,0,0,0,-1,1532,1765,9.80519,-6.80189
315,-741,9.70715,6.86963,0,0,0,0,0,0,0,-1,1539,1765,9.70712,-6.86963
322,-741,9.21252,8.54858,0,0,0,0,0,0,0,-1,1546,1765,9.21251,-8.54858
329,-741,8.5603,10.1146,0,0,0,0,0,0,0,-1,1553,1765,8.56033,-10.1146
336,-741,4.74475,14.6453,0,0,0,0,0,0,0,-1,1560,1765,4.7447,-14.6452
343,-741,5.42297,5.93701,0,0,0,0,0,0,0,-1,1567,1765,5.42296,-5.937
350,-741,4.90369,5.44666,0,0,0,0,0,0,0,-1,1574,1765,4.90368,-5.44664
357,-741,4.02063,5.16626,0,0,0,0,0,0,0,-1,1581,1765,4.02058,-5.1662
364,-741,0,0,0,0,0,0,0,0,0,-1,1588,1765,0,0
371,-741,0,0,0,0,0,0,0,0,0,-1,1595,1765,0,0
378,-741,0,0,0,0,0,0,0,0,0,-1,1602,1765,0,0
385,-741,0,0,0,0,0,0,0,0,0,-1,1609,1765,0,0
392,-741,0,0,0,0,0,0,0,0,0,-1,1616,1765,0,0
399,-741,0,0,0,0,0,0,0,0,0,-1,1623,1765,0,0
406,-741,0,0,0,0,0,0,0,0,0,-1,1630,1765,0,0
413,-741,0,0,0,0,0,0,0,0,0,-1,1637,1765,0,0
420,-741,0,0,0,0,0,0,0,0,0,-1,1644,1765,0,0
427,-741,0,0,0,0,0,0,0,0,0,-1,1651,1765,0,0
434,-741,0,0,0,0,0,0,0,0,0,-1,1658,1765,0,0
441,-741,0,0,0,0,0,0,0,0,0,-1,1665,1765,0,0
448,-741,0,0,0,0,0,0,0,0,0,-1,1672,1765,0,0
455,-741,0,0,0,0,0,0,0,0,0,-1,1679,1765,0,0
462,-741,0,0,0,0,0,0,0,0,0,-1,1686,1765,0,0
469,-741,0,0,0,0,0,0,0,0,0,-1,1693,1765,0,0
476,-741,0,0,0,0,0,0,0,0,0,-1,1700,1765,0,0
483,-741,0,0,0,0,0,0,0,0,0,-1,1707,1765,0,0
490,-741,0,0,0,0,0,0,0,0,0,-1,1714,1765,0,0
497,-741,0,0,0,0,0,0,0,0,0,-1,1721,1765,0,0
504,-741,0,0,0,0,0,0,0,0,0,-1,1728,1765,0,0
511,-741,0,0,0,0,0,0,0,0,0,-1,1735,1765,0,0
518,-741,0,0,0,0,0,0,0,0,0,-1,1742,1765,0,0
525,-741,0,0,0,0,0,0,0,0,0,-1,1749,1765,0,0
532,-741,0,0,0,0,0,0,0,0,0,-1,1756,1765,0,0
539,-741,0,0,0,0,0,0,0,0,0,-1,1763,1765,0,0
546,-741,0,0,0,0,0,0,0,0,0,-1,1770,1765,0,0
553,-741,0,0,0,0,0,0,0,0,0,-1,1777,1765,0,0
560,-741,0,0,0,0,0,0,0,0,0,-1,1784,1765,0,0
567,-741,0,0,0,0,0,0,0,0,0,-1,1791,1765,0,0
574,-741,0,0,0,0,0,0,0,0,0,-1,1798,1765,0,0
581,-741,0,0,0,0,0,0,0,0,0,-1,1805,1765,0,0
588,-741,0,0,0,0,0,0,0,0,0,-1,1812,1765,0,0
595,-741,0,0,0,0,0,0,0,0,0,-1,1819,1765,0,0
602,-741,0,0,0,0,0,0,0,0,0,-1,1826,1765,0,0
609,-741,0,0,0,0,0,0,0,0,0,-1,1833,1765,0,0
616,-741,0,0,0,0,0,0,0,0,0,-1,1840,1765,0,0
623,-741,0,0,0,0,0,0,0,0,0,-1,1847,1765,0,0
630,-741,0,0,0,0,0,0,0,0,0,-1,1854,1765,0,0
637,-741,0,0,0,0,0,0,0,0,0,-1,1861,1765,0,0
644,-741,0,0,0,0,0,0,0,0,0,-1,1868,1765,0,0
651,-741,0,0,0,0,0,0,0,0,0,-1,1875,1765,0,0
658,-741,0,0,0,0,0,0,0,0,0,-1,1882,1765,0,0
665,-741,0,0,0,0,0,0,0,0,0,-1,1889,1765,0,0
672,-741,0,0,0,0,0,0,0,0,0,-1,1896,1765,0,0
679,-741,0,0,0,0,0,0,0,0,0,-1,1903,1765,0,0
686,-741,0,0,0,0,0,0,0,0,0,-1,1910,1765,0,0
693,-741,0,0,0,0,0,0,0,0,0,-1,1917,1765,0,0
700,-741,0,0,0,0,0,0,0,0,0,-1,1924,1765,0,0
707,-741,0,0,0,0,0,0,0,0,0,-1,1931,1765,0,0
714,-741,0,0,0,0,0,0,0,0,0,-1,1938,1765,0,0
721,-741,0,0,0,0,0,0,0,0,0,-1,1945,1765,0,0
728,-741,0,0,0,0,0,0,0,0,0,-1,1952,1765,0,0
735,-741,0,0,0,0,0,0,0,0,0,-1,1959,1765,0,0
742,-741,0,0,0,0,0,0,0,0,0,-1,1966,1765,0,0
749,-741,0,0,0,0,0,0,0,0,0,-1,1973,1765,0,0
756,-741,0,0,0,0,0,0,0,0,0,-1,1980,1765,0,0
763,-741,0,0,0,0,0,0,0,0,0,-1,1987,1765,0,0
770,-741,0,0,0,0,0,0,0,0,0,-1,1994,1765,0,0
777,-741,0,0,0,0,0,0,0,0,0,-1,2001,1765,0,0
784,-741,0,0,0,0,0,0,0,0,0,-1,2008,1765,0,0
791,-741,0,0,0,0,0,0,0,0,0,-1,2015,1765,0,0
798,-741,0,0,0,0,0,0,0,0,0,-1,2022,1765,0,0
805,-741,0,0,0,0,0,0,0,0,0,-1,2029,1765,0,0
812,-741,0,0,0,0,0,0,0,0,0,-1,2036,1765,0,0
-700,-748,0,0,0,0,0,0,0,0,0,-1,524,1772,0,0
-693,-748,0,0,0,0,0,0,0,0,0,-1,531,1772,0,0
-686,-748,0,0,0,0,0,0,0,0,0,-1,538,1772,0,0
-679,-748,0,0,0,0,0,0,0,0,0,-1,545,1772,0,0
-672,-748,0,0,0,0,0,0,0,0,0,-1,552,1772,0,0
-665,-748,0,0,0,0,0,0,0,0,0,-1,559,1772,0,0
-658,-748,0,0,0,0,0,0,0,0,0,-1,566,1772,0,0
-651,-748,0,0,0,0,0,0,0,0,0,-1,573,1772,0,0
-644,-748,0,0,0,0,0,0,0,0,0,-1,580,1772,0,0
-637,-748,0,0,0,0,0,0,0,0,0,-1,587,1772,0,0
-630,-748,0,0,0,0,0,0,0,0,0,-1,594,1772,0,0
-623,-748,0,0,0,0,0,0,0,0,0,-1,601,1772,0,0
-616,-748,0,0,0,0,0,0,0,0,0,-1,608,1772,0,0
-609,-748,0,0,0,0,0,0,0,0,0,-1,615,1772,0,0
-602,-748,0,0,0,0,0,0,0,0,0,-1,622,1772,0,0
-595,-748,0,0,0,0,0,0,0,0,0,-1,629,1772,0,0
-588,-748,0,0,0,0,0,0,0,0,0,-1,636,1772,0,0
-581,-748,0,0,0,0,0,0,0,0,0,-1,643,1772,0,0
-574,-748,0,0,0,0,0,0,0,0,0,-1,650,1772,0,0
-567,-748,0,0,0,0,0,0,0,0,0,-1,657,1772,0,0
-560,-748,0,0,0,0,0,0,0,0,0,-1,664,1772,0,0
-553,-748,0,0,0,0,0,0,0,0,0,-1,671,1772,0,0
-546,-748,0,0,0,0,0,0,0,0,0,-1,678,1772,0,0
-539,-748,0,0,0,0,0,0,0,0,0,-1,685,1772,0,0
-532,-748,0,0,0,0,0,0,0,0,0,-1,692,1772,0,0
-525,-748,0,0,0,0,0,0,0,0,0,-1,699,1772,0,0
-518,-748,0,0,0,0,0,0,0,0,0,-1,706,1772,0,0
-511,-748,0,0,0,0,0,0,0,0,0,-1,713,1772,0,0
-504,-748,0,0,0,0,0,0,0,0,0,-1,720,1772,0,0
-497,-748,0,0,0,0,0,0,0,0,0,-1,727,1772,0,0
-490,-748,0,0,0,0,0,0,0,0,0,-1,734,1772,0,0
-483,-748,0,0,0,0,0,0,0,0,0,-1,741,1772,0,0
-476,-748,0,0,0,0,0,0,0,0,0,-1,748,1772,0,0
-469,-748,0,0,0,0,0,0,0,0,0,-1,755,1772,0,0
-462,-748,0,0,0,0,0,0,0,0,0,-1,762,1772,0,0
-455,-748,0,0,0,0,0,0,0,0,0,-1,769,1772,0,0
-448,-748,0,0,0,0,0,0,0,0,0,-1,776,1772,0,0
-441,-748,0,0,0,0,0,0,0,0,0,-1,783,1772,0,0
-434,-748,0,0,0,0,0,0,0,0,0,-1,790,1772,0,0
-427,-748,0,0,0,0,0,0,0,0,0,-1,797,1772,0,0
-420,-748,0,0,0,0,0,0,0,0,0,-1,804,1772,0,0
-413,-748,0,0,0,0,0,0,0,0,0,-1,811,1772,0,0
-406,-748,0,0,0,0,0,0,0,0,0,-1,818,1772,0,0
-399,-748,0,0,0,0,0,0,0,0,0,-1,825,1772,0,0
-392,-748,0,0,0,0,0,0,0,0,0,-1,832,1772,0,0
-385,-748,0,0,0,0,0,0,0,0,0,-1,839,1772,0,0
-378,-748,0,0,0,0,0,0,0,0,0,-1,846,1772,0,0
-371,-748,0,0,0,0,0,0,0,0,0,-1,853,1772,0,0
-364,-748,0,0,0,0,0,0,0,0,0,-1,860,1772,0,0
-357,-748,0,0,0,0,0,0,0,0,0,-1,867,1772,0,0
-350,-748,0,0,0,0,0,0,0,0,0,-1,874,1772,0,0
-343,-748,0,0,0,0,0,0,0,0,0,-1,881,1772,0,0
-336,-748,0,0,0,0,0,0,0,0,0,-1,888,1772,0,0
-329,-748,0,0,0,0,0,0,0,0,0,-1,895,1772,0,0
-322,-748,0,0,0,0,0,0,0,0,0,-1,902,1772,0,0
-315,-748,0,0,0,0,0,0,0,0,0,-1,909,1772,0,0
-308,-748,0,0,0,0,0,0,0,0,0,-1,916,1772,0,0
-301,-748,0,0,0,0,0,0,0,0,0,-1,923,1772,0,0
-294,-748,0,0,0,0,0,0,0,0,0,-1,930,1772,0,0
-287,-748,0,0,0,0,0,0,0,0,0,-1,937,1772,0,0
-280,-748,0,0,0,0,0,0,0,0,0,-1,944,1772,0,0
-273,-748,0,0,0,0,0,0,0,0,0,-1,951,1772,0,0
-266,-748,0,0,0,0,0,0,0,0,0,-1,958,1772,0,0
-259,-748,0,0,0,0,0,0,0,0,0,-1,965,1772,0,0
-252,-748,0,0,0,0,0,0,0,0,0,-1,972,1772,0,0
-245,-748,0,0,0,0,0,0,0,0,0,-1,979,1772,0,0
-238,-748,0,0,0,0,0,0,0,0,0,-1,986,1772,0,0
-231,-748,0,0,0,0,0,0,0,0,0,-1,993,1772,0,0
-224,-748,0,0,0,0,0,0,0,0,0,-1,1000,1772,0,0
-217,-748,6.99335,16.3577,0,0,0,0,0,0,0,-1,1007,1772,6.99334,-16.3576
-210,-748,6.75439,17.6121,0,0,0,0,0,0,0,-1,1014,1772,6.75438,-17.6121
-203,-748,7.19336,18.3389,0,0,0,0,0,0,0,-1,1021,1772,7.19334,-18.3388
-196,-748,3.59167,20.0754,0,0,0,0,0,0,0,-1,1028,1772,3.59164,-20.0754
-189,-748,3.88757,19.2534,0,0,0,0,0,0,0,-1,1035,1772,3.88761,-19.2534
-182,-748,4.16626,18.2874,0,0,0,0,0,0,0,-1,1042,1772,4.16629,-18.2873
-175,-748,4.62305,16.7603,0,0,0,0,0,0,0,-1,1049,1772,4.62301,-16.7603
-168,-748,4.96484,14.9984,0,0,0,0,0,0,0,-1,1056,1772,4.96479,-14.9984
-161,-748,3.50562,13.2729,0,0,0,0,0,0,0,-1,1063,1772,3.5056,-13.2729
-154,-748,-3.38562,10.6989,0,0,0,0,0,0,0,-1,1070,1772,-3.38564,-10.6989
-147,-748,-6.38733,11.0702,0,0,0,0,0,0,0,-1,1077,1772,-6.38731,-11.0702
-140,-748,5.13477,20.4845,0,0,0,0,0,0,0,-1,1084,1772,5.13481,-20.4845
-133,-748,5.64526,20.6953,0,0,0,0,0,0,0,-1,1091,1772,5.64529,-20.6953
-126,-748,5.75305,20.3903,0,0,0,0,0,0,0,-1,1098,1772,5.75301,-20.3902
-119,-748,5.18103,20.4081,0,0,0,0,0,0,0,-1,1105,1772,5.181,-20.408
-112,-748,5.37708,20.5304,0,0,0,0,0,0,0,-1,1112,1772,5.3771,-20.5304
-105,-748,5.77124,21.1158,0,0,0,0,0,0,0,-1,1119,1772,5.77123,-21.1158
-98,-748,5.71484,19.6533,0,0,0,0,0,0,0,-1,1126,1772,5.71486,-19.6533
-91,-748,4.85352,15.3033,0,0,0,0,0,0,0,-1,1133,1772,4.85351,-15.3033
-84,-748,-0.192017,7.26196,0,0,0,0,0,0,0,-1,1140,1772,-0.192047,-7.26201
-77,-748,4.42615,13.5537,0,0,0,0,0,0,0,-1,1147,1772,4.4261,-13.5538
-70,-748,4.46191,13.7446,0,0,0,0,0,0,0,-1,1154,1772,4.4619,-13.7446
-63,-748,4.49768,13.9355,0,0,0,0,0,0,0,-1,1161,1772,4.49769,-13.9355
-56,-748,3.05762,7.87817,0,0,0,0,0,0,0,-1,1168,1772,3.05768,-7.87822
-49,-748,3.04102,7.82471,0,0,0,0,0,0,0,-1,1175,1772,3.04096,-7.82468
-42,-748,0.793457,14.9474,0,0,0,0,0,0,0,-1,1182,1772,0.793413,-14.9474
-35,-748,5.6582,22.3026,0,0,0,0,0,0,0,-1,1189,1772,5.65814,-22.3027
-28,-748,5.72656,22.3672,0.0202109,-0.00385429,0.00538791,0.0213621,-0.0050055,0.210501,0.0161703,0.0490367,1196,1772,5.72657,-22.3672
-21,-748,5.72363,22.4711,0.0197226,-0.00417399,0.00503246,0.0207391,-0.00519056,0.199318,0.0158423,0.0233479,1203,1772,5.72363,-22.471
-14,-748,5.67639,22.486,0.0189127,-0.00452368,0.00473199,0.019832,-0.00544304,0.191896,0.0153606,0.0165438,1210,1772,5.6764,-22.4859
-7,-748,5.66296,22.5374,0.0180172,-0.00456798,0.00415153,0.0187562,-0.00530693,0.176148,0.0145982,0.0152411,1217,1772,5.66299,-22.5374
0,-748,5.64868,22.5765,0.0169954,-0.00451274,0.00357283,0.0175733,-0.00509071,0.160379,0.0137307,0.0150112,1224,1772,5.6487,-22.5766
7,-748,5.63635,22.6019,0.0161279,-0.00426477,0.00288957,0.0165295,-0.0046663,0.138076,0.0128604,0.0139476,1231,1772,5.63637,-22.602
14,-748,5.61047,22.6793,0.0151937,-0.0037235,0.00202606,0.0154083,-0.00393806,0.105507,0.0118059,0.0151953,1238,1772,5.61053,-22.6794
21,-748,5.60071,22.7377,0.0143566,-0.00303824,0.00110205,0.0144262,-0.00310778,0.0630192,0.0108034,0.0116524,1245,1772,5.60073,-22.7377
28,-748,5.55249,22.7914,0.0135422,-0.00211315,6.81057e-05,0.0135425,-0.00211345,0.00435019,0.00980903,0.0118003,1252,1772,5.5525,-22.7914
35,-748,5.56079,22.8156,0.0127219,-0.00121953,-0.000904923,0.0127803,-0.00127803,-0.0645481,0.00897662,0.0128664,1259,1772,5.56078,-22.8156
42,-748,5.58374,22.8258,0.0116463,-8.41861e-05,-0.00203867,0.0119905,-0.00042839,-0.16726,0.00814025,0.0141804,1266,1772,5.58375,-22.8258
49,-748,5.57031,22.8408,0.0104386,0.0010775,-0.0028317,0.0112286,0.00028758,-0.27204,0.00739172,0.010956,1273,1772,5.5703,-22.8408
56,-748,5.53552,22.8655,0.0094283,0.00227857,-0.00353789,0.010883,0.00082389,-0.3901,0.00699688,0.0106922,1280,1772,5.53557,-22.8654
63,-748,5.5249,22.8679,0.00864636,0.00314831,-0.00394875,0.0107088,0.00108592,-0.481321,0.00680614,0.0124108,1287,1772,5.52496,-22.8679
70,-748,5.51404,22.8726,0.00748536,0.00315414,-0.00452562,0.0103368,0.000302664,-0.562239,0.00679258,0.0137261,1294,1772,5.51405,-22.8725
77,-748,5.50232,22.892,0.00599331,0.00295284,-0.00514747,0.00984035,-0.000894194,-0.641812,0.0068777,0.0130155,1301,1772,5.50237,-22.8919
84,-748,5.49182,22.9103,0.00471537,0.00226583,-0.00511751,0.00875263,-0.00177143,-0.667943,0.00650644,0.0147025,1308,1772,5.4918,-22.9103
91,-748,5.46997,22.9081,0.00372314,0.00159555,-0.00540829,0.00817126,-0.00285257,-0.688289,0.00660693,0.011044,1315,1772,5.46992,-22.9081
98,-748,5.44983,22.8868,0.00287792,0.000542456,-0.00564866,0.00747828,-0.00405791,-0.68347,0.0067573,0.0103774,1322,1772,5.4498,-22.8869
105,-748,5.44495,22.8468,0.00269594,-0.000492743,-0.00613509,0.00744046,-0.00523727,-0.658274,0.00735624,0.0121189,1329,1772,5.44493,-22.8468
112,-748,5.47803,22.8137,0.00269104,-0.00166802,-0.00667434,0.00753271,-0.00650969,-0.62758,0.00811455,0.0152245,1336,1772,5.478,-22.8137
119,-748,5.4574,22.7909,0.00305738,-0.00294986,-0.00717869,0.00783549,-0.00772797,-0.587261,0.00898564,0.0133104,1343,1772,5.45741,-22.7909
126,-748,5.44641,22.7722,0.00328909,-0.00384586,-0.00772692,0.00823232,-0.00878909,-0.56913,0.00982907,0.0140097,1350,1772,5.44635,-22.7722
133,-748,5.3822,22.7319,0.00340699,-0.00439427,-0.00812238,0.0085168,-0.00950408,-0.561544,0.0104096,0.00897511,1357,1772,5.38221,-22.732
140,-748,5.3728,22.7056,0.0034621,-0.0042241,-0.00852643,0.00897151,-0.00973351,-0.573669,0.0108023,0.0116142,1364,1772,5.37275,-22.7055
147,-748,5.3938,22.6472,0.00333401,-0.00424383,-0.00865251,0.00899082,-0.00990065,-0.579026,0.0109112,0.0132669,1371,1772,5.39384,-22.6472
154,-748,5.36841,22.6055,0.00323875,-0.00365056,-0.00877208,0.00921827,-0.00963008,-0.598306,0.010883,0.0118982,1378,1772,5.3684,-22.6055
161,-748,5.35925,22.5779,0.00296465,-0.00305644,-0.00867434,0.00913602,-0.00922781,-0.61837,0.0106024,0.0192544,1385,1772,5.3592,-22.5779
168,-748,5.33533,22.5759,0,0,0,0,0,0,0,-1,1392,1772,5.33532,-22.5759
175,-748,11.6235,16.8242,0,0,0,0,0,0,0,-1,1399,1772,11.6236,-16.8242
182,-748,7.62476,10.3058,0,0,0,0,0,0,0,-1,1406,1772,7.62476,-10.3058
189,-748,6.15857,6.95898,0,0,0,0,0,0,0,-1,1413,1772,6.15862,-6.95896
196,-748,3.9425,8.46021,0,0,0,0,0,0,0,-1,1420,1772,3.9425,-8.46026
203,-748,3.9668,12.9835,0,0,0,0,0,0,0,-1,1427,1772,3.96678,-12.9836
210,-748,4.71472,16.8318,0,0,0,0,0,0,0,-1,1434,1772,4.71471,-16.8317
217,-748,5.34521,21.6202,0,0,0,0,0,0,0,-1,1441,1772,5.34524,-21.6202
224,-748,5.3877,21.5887,0,0,0,0,0,0,0,-1,1448,1772,5.38766,-21.5887
231,-748,5.28174,21.7158,-0.0299431,0.0360342,-0.00424687,0.0363064,-0.0302154,-1.50678,0.03846,0.0446234,1455,1772,5.2818,-21.7158
238,-748,4.51709,21.5493,-0.0306596,0.0409412,-0.00467271,0.0412448,-0.0309633,-1.5059,0.04183,0.0419211,1462,1772,4.51712,-21.5494
245,-748,3.83862,21.4407,-0.0305779,0.0460172,-0.00529187,0.0463811,-0.0309418,-1.50214,0.0449381,0.0470434,1469,1772,3.83861,-21.4406
252,-748,3.86829,20.9729,-0.0298554,0.0510133,-0.00627301,0.051497,-0.0303391,-1.49384,0.0477715,0.0481792,1476,1772,3.86834,-20.9728
259,-748,3.5614,20.4832,0,0,0,0,0,0,0,-1,1483,1772,3.56142,-20.4832
266,-748,17.9011,7.59448,0,0,0,0,0,0,0,-1,1490,1772,17.9011,-7.59452
273,-748,16.4131,7.57129,0,0,0,0,0,0,0,-1,1497,1772,16.413,-7.57125
280,-748,15.2177,7.24829,0,0,0,0,0,0,0,-1,1504,1772,15.2176,-7.24833
287,-748,14.161,8.32813,0,0,0,0,0,0,0,-1,1511,1772,14.161,-8.32808
294,-748,12.2117,7.453,0,0,0,0,0,0,0,-1,1518,1772,12.2116,-7.45297
301,-748,11.0652,7.65405,0,0,0,0,0,0,0,-1,1525,1772,11.0651,-7.654
308,-748,9.92456,7.80225,0,0,0,0,0,0,0,-1,1532,1772,9.92453,-7.80224
315,-748,8.91541,8.29773,0,0,0,0,0,0,0,-1,1539,1772,8.91544,-8.29773
322,-748,7.83618,8.87122,0,0,0,0,0,0,0,-1,1546,1772,7.83613,-8.87124
329,-748,3.48315,14.6533,0,0,0,0,0,0,0,-1,1553,1772,3.48316,-14.6534
336,-748,3.76001,15.8163,0,0,0,0,0,0,0,-1,1560,1772,3.75995,-15.8163
343,-748,0,0,0,0,0,0,0,0,0,-1,1567,1772,0,0
350,-748,0,0,0,0,0,0,0,0,0,-1,1574,1772,0,0
357,-748,0,0,0,0,0,0,0,0,0,-1,1581,1772,0,0
364,-748,0,0,0,0,0,0,0,0,0,-1,1588,1772,0,0
371,-748,0,0,0,0,0,0,0,0,0,-1,1595,1772,0,0
378,-748,0,0,0,0,0,0,0,0,0,-1,1602,1772,0,0
385,-748,0,0,0,0,0,0,0,0,0,-1,1609,1772,0,0
392,-748,0,0,0,0,0,0,0,0,0,-1,1616,1772,0,0
399,-748,0,0,0,0,0,0,0,0,0,-1,1623,1772,0,0
406,-748,0,0,0,0,0,0,0,0,0,-1,1630,1772,0,0
413,-748,0,0,0,0,0,0,0,0,0,-1,1637,1772,0,0
420,-748,0,0,0,0,0,0,0,0,0,-1,1644,1772,0,0
427,-748,0,0,0,0,0,0,0,0,0,-1,1651,1772,0,0
434,-748,0,0,0,0,0,0,0,0,0,-1,1658,1772,0,0
441,-748,0,0,0,0,0,0,0,0,0,-1,1665,1772,0,0
448,-748,0,0,0,0,0,0,0,0,0,-1,1672,1772,0,0
455,-748,0,0,0,0,0,0,0,0,0,-1,1679,1772,0,0
462,-748,0,0,0,0,0,0,0,0,0,-1,1686,1772,0,0
469,-748,0,0,0,0,0,0,0,0,0,-1,1693,1772,0,0
476,-748,0,0,0,0,0,0,0,0,0,-1,1700,1772,0,0
483,-748,0,0,0,0,0,0,0,0,0,-1,1707,1772,0,0
490,-748,0,0,0,0,0,0,0,0,0,-1,1714,1772,0,0
497,-748,0,0,0,0,0,0,0,0,0,-1,1721,1772,0,0
504,-748,0,0,0,0,0,0,0,0,0,-1,1728,1772,0,0
511,-748,0,0,0,0,0,0,0,0,0,-1,1735,1772,0,0
518,-748,0,0,0,0,0,0,0,0,0,-1,1742,1772,0,0
525,-748,0,0,0,0,0,0,0,0,0,-1,1749,1772,0,0
532,-748,0,0,0,0,0,0,0,0,0,-1,1756,1772,0,0
539,-748,0,0,0,0,0,0,0,0,0,-1,1763,1772,0,0
546,-748,0,0,0,0,0,0,0,0,0,-1,1770,1772,0,0
553,-748,0,0,0,0,0,0,0,0,0,-1,1777,1772,0,0
560,-748,0,0,0,0,0,0,0,0,0,-1,1784,1772,0,0
567,-748,0,0,0,0,0,0,0,0,0,-1,1791,1772,0,0
574,-748,0,0,0,0,0,0,0,0,0,-1,1798,1772,0,0
581,-748,0,0,0,0,0,0,0,0,0,-1,1805,1772,0,0
588,-748,0,0,0,0,0,0,0,0,0,-1,1812,1772,0,0
595,-748,0,0,0,0,0,0,0,0,0,-1,1819,1772,0,0
602,-748,0,0,0,0,0,0,0,0,0,-1,1826,1772,0,0
609,-748,0,0,0,0,0,0,0,0,0,-1,1833,1772,0,0
616,-748,0,0,0,0,0,0,0,0,0,-1,1840,1772,0,0
623,-748,0,0,0,0,0,0,0,0,0,-1,1847,1772,0,0
630,-748,0,0,0,0,0,0,0,0,0,-1,1854,1772,0,0
637,-748,0,0,0,0,0,0,0,0,0,-1,1861,1772,0,0
644,-748,0,0,0,0,0,0,0,0,0,-1,1868,1772,0,0
651,-748,0,0,0,0,0,0,0,0,0,-1,1875,1772,0,0
658,-748,0,0,0,0,0,0,0,0,0,-1,1882,1772,0,0
665,-748,0,0,0,0,0,0,0,0,0,-1,1889,1772,0,0
672,-748,0,0,0,0,0,0,0,0,0,-1,1896,1772,0,0
679,-748,0,0,0,0,0,0,0,0,0,-1,1903,1772,0,0
686,-748,0,0,0,0,0,0,0,0,0,-1,1910,1772,0,0
693,-748,0,0,0,0,0,0,0,0,0,-1,1917,1772,0,0
700,-748,0,0,0,0,0,0,0,0,0,-1,1924,1772,0,0
707,-748,0,0,0,0,0,0,0,0,0,-1,1931,1772,0,0
714,-748,0,0,0,0,0,0,0,0,0,-1,1938,1772,0,0
721,-748,0,0,0,0,0,0,0,0,0,-1,1945,1772,0,0
728,-748,0,0,0,0,0,0,0,0,0,-1,1952,1772,0,0
735,-748,0,0,0,0,0,0,0,0,0,-1,1959,1772,0,0
742,-748,0,0,0,0,0,0,0,0,0,-1,1966,1772,0,0
749,-748,0,0,0,0,0,0,0,0,0,-1,1973,1772,0,0
756,-748,0,0,0,0,0,0,0,0,0,-1,1980,1772,0,0
763,-748,0,0,0,0,0,0,0,0,0,-1,1987,1772,0,0
770,-748,0,0,0,0,0,0,0,0,0,-1,1994,1772,0,0
777,-748,0,0,0,0,0,0,0,0,0,-1,2001,1772,0,0
784,-748,0,0,0,0,0,0,0,0,0,-1,2008,1772,0,0
791,-748,0,0,0,0,0,0,0,0,0,-1,2015,1772,0,0
798,-748,0,0,0,0,0,0,0,0,0,-1,2022,1772,0,0
805,-748,0,0,0,0,0,0,0,0,0,-1,2029,1772,0,0
812,-748,0,0,0,0,0,0,0,0,0,-1,2036,1772,0,0
-700,-755,0,0,0,0,0,0,0,0,0,-1,524,1779,0,0
-693,-755,0,0,0,0,0,0,0,0,0,-1,531,1779,0,0
-686,-755,0,0,0,0,0,0,0,0,0,-1,538,1779,0,0
-679,-755,0,0,0,0,0,0,0,0,0,-1,545,1779,0,0
-672,-755,0,0,0,0,0,0,0,0,0,-1,552,1779,0,0
-665,-755,0,0,0,0,0,0,0,0,0,-1,559,1779,0,0
-658,-755,0,0,0,0,0,0,0,0,0,-1,566,1779,0,0
-651,-755,0,0,0,0,0,0,0,0,0,-1,573,1779,0,0
-644,-755,0,0,0,0,0,0,0,0,0,-1,580,1779,0,0
-637,-755,0,0,0,0,0,0,0,0,0,-1,587,1779,0,0
-630,-755,0,0,0,0,0,0,0,0,0,-1,594,1779,0,0
-623,-755,0,0,0,0,0,0,0,0,0,-1,601,1779,0,0
-616,-755,0,0,0,0,0,0,0,0,0,-1,608,1779,0,0
-609,-755,0,0,0,0,0,0,0,0,0,-1,615,1779,0,0
-602,-755,0,0,0,0,0,0,0,0,0,-1,622,1779,0,0
-595,-755,0,0,0,0,0,0,0,0,0,-1,629,1779,0,0
-588,-755,0,0,0,0,0,0,0,0,0,-1,636,1779,0,0
-581,-755,0,0,0,0,0,0,0,0,0,-1,643,1779,0,0
-574,-755,0,0,0,0,0,0,0,0,0,-1,650,1779,0,0
-567,-755,0,0,0,0,0,0,0,0,0,-1,657,1779,0,0
-560,-755,0,0,0,0,0,0,0,0,0,-1,664,1779,0,0
-553,-755,0,0,0,0,0,0,0,0,0,-1,671,1779,0,0
-546,-755,0,0,0,0,0,0,0,0,0,-1,678,1779,0,0
-539,-755,0,0,0,0,0,0,0,0,0,-1,685,1779,0,0
-532,-755,0,0,0,0,0,0,0,0,0,-1,692,1779,0,0
-525,-755,0,0,0,0,0,0,0,0,0,-1,699,1779,0,0
-518,-755,0,0,0,0,0,0,0,0,0,-1,706,1779,0,0
-511,-755,0,0,0,0,0,0,0,0,0,-1,713,1779,0,0
-504,-755,0,0,0,0,0,0,0,0,0,-1,720,1779,0,0
-497,-755,0,0,0,0,0,0,0,0,0,-1,727,1779,0,0
-490,-755,0,0,0,0,0,0,0,0,0,-1,734,1779,0,0
-483,-755,0,0,0,0,0,0,0,0,0,-1,741,1779,0,0
-476,-755,0,0,0,0,0,0,0,0,0,-1,748,1779,0,0
-469,-755,0,0,0,0,0,0,0,0,0,-1,755,1779,0,0
-462,-755,0,0,0,0,0,0,0,0,0,-1,762,1779,0,0
-455,-755,0,0,0,0,0,0,0,0,0,-1,769,1779,0,0
-448,-755,0,0,0,0,0,0,0,0,0,-1,776,1779,0,0
-441,-755,0,0,0,0,0,0,0,0,0,-1,783,1779,0,0
-434,-755,0,0,0,0,0,0,0,0,0,-1,790,1779,0,0
-427,-755,0,0,0,0,0,0,0,0,0,-1,797,1779,0,0
-420,-755,0,0,0,0,0,0,0,0,0,-1,804,1779,0,0
-413,-755,0,0,0,0,0,0,0,0,0,-1,811,1779,0,0
-406,-755,0,0,0,0,0,0,0,0,0,-1,818,1779,0,0
-399,-755,0,0,0,0,0,0,0,0,0,-1,825,1779,0,0
-392,-755,0,0,0,0,0,0,0,0,0,-1,832,1779,0,0
-385,-755,0,0,0,0,0,0,0,0,0,-1,839,1779,0,0
-378,-755,0,0,0,0,0,0,0,0,0,-1,846,1779,0,0
-371,-755,0,0,0,0,0,0,0,0,0,-1,853,1779,0,0
-364,-755,0,0,0,0,0,0,0,0,0,-1,860,1779,0,0
-357,-755,0,0,0,0,0,0,0,0,0,-1,867,1779,0,0
-350,-755,0,0,0,0,0,0,0,0,0,-1,874,1779,0,0
-343,-755,0,0,0,0,0,0,0,0,0,-1,881,1779,0,0
-336,-755,0,0,0,0,0,0,0,0,0,-1,888,1779,0,0
-329,-755,0,0,0,0,0,0,0,0,0,-1,895,1779,0,0
-322,-755,0,0,0,0,0,0,0,0,0,-1,902,1779,0,0
-315,-755,0,0,0,0,0,0,0,0,0,-1,909,1779,0,0
-308,-755,0,0,0,0,0,0,0,0,0,-1,916,1779,0,0
-301,-755,0,0,0,0,0,0,0,0,0,-1,923,1779,0,0
-294,-755,0,0,0,0,0,0,0,0,0,-1,930,1779,0,0
-287,-755,0,0,0,0,0,0,0,0,0,-1,937,1779,0,0
-280,-755,0,0,0,0,0,0,0,0,0,-1,944,1779,0,0
-273,-755,0,0,0,0,0,0,0,0,0,-1,951,1779,0,0
-266,-755,0,0,0,0,0,0,0,0,0,-1,958,1779,0,0
-259,-755,0,0,0,0,0,0,0,0,0,-1,965,1779,0,0
-252,-755,0,0,0,0,0,0,0,0,0,-1,972,1779,0,0
-245,-755,0,0,0,0,0,0,0,0,0,-1,979,1779,0,0
-238,-755,0,0,0,0,0,0,0,0,0,-1,986,1779,0,0
-231,-755,0,0,0,0,0,0,0,0,0,-1,993,1779,0,0
-224,-755,0,0,0,0,0,0,0,0,0,-1,1000,1779,0,0
-217,-755,0,0,0,0,0,0,0,0,0,-1,1007,1779,0,0
-210,-755,0,0,0,0,0,0,0,0,0,-1,1014,1779,0,0
-203,-755,-3.07153,13.8969,0,0,0,0,0,0,0,-1,1021,1779,-3.07152,-13.8969
-196,-755,4.91333,14.9064,0,0,0,0,0,0,0,-1,1028,1779,4.91327,-14.9063
-189,-755,4.85864,12.9271,0,0,0,0,0,0,0,-1,1035,1779,4.85866,-12.9272
-182,-755,3.9259,18.85,0,0,0,0,0,0,0,-1,1042,1779,3.92588,-18.85
-175,-755,4.10266,16.8729,0,0,0,0,0,0,0,-1,1049,1779,4.10269,-16.8729
-168,-755,4.5177,13.7404,0,0,0,0,0,0,0,-1,1056,1779,4.5177,-13.7403
-161,-755,-2.85889,11.5868,0,0,0,0,0,0,0,-1,1063,1779,-2.85887,-11.5868
-154,-755,-5.39026,8.51416,0,0,0,0,0,0,0,-1,1070,1779,-5.3903,-8.51417
-147,-755,-6.45593,10.2422,0,0,0,0,0,0,0,-1,1077,1779,-6.45594,-10.2422
-140,-755,7.68909,20.5962,0,0,0,0,0,0,0,-1,1084,1779,7.68904,-20.5962
-133,-755,7.4823,20.6917,0,0,0,0,0,0,0,-1,1091,1779,7.48233,-20.6917
-126,-755,7.27563,20.7872,0,0,0,0,0,0,0,-1,1098,1779,7.27562,-20.7873
-119,-755,5.76672,20.0126,0,0,0,0,0,0,0,-1,1105,1779,5.7667,-20.0126
-112,-755,5.07825,19.8385,0,0,0,0,0,0,0,-1,1112,1779,5.07824,-19.8385
-105,-755,4.66101,19.4598,0,0,0,0,0,0,0,-1,1119,1779,4.661,-19.4598
-98,-755,4.26819,14.9769,0,0,0,0,0,0,0,-1,1126,1779,4.26815,-14.9769
-91,-755,3.91394,13.0228,0,0,0,0,0,0,0,-1,1133,1779,3.91399,-13.0228
-84,-755,0.169312,8.66443,0,0,0,0,0,0,0,-1,1140,1779,0.16932,-8.66446
-77,-755,-0.0491943,6.87439,0,0,0,0,0,0,0,-1,1147,1779,-0.0491385,-6.87443
-70,-755,4.5686,13.2169,0,0,0,0,0,0,0,-1,1154,1779,4.56865,-13.2169
-63,-755,-1.36316,7.3147,0,0,0,0,0,0,0,-1,1161,1779,-1.36312,-7.31473
-56,-755,0.0483398,5.06079,0,0,0,0,0,0,0,-1,1168,1779,0.0483138,-5.06084
-49,-755,-1.32263,5.33716,0,0,0,0,0,0,0,-1,1175,1779,-1.32264,-5.33718
-42,-755,-2.03613,4.01672,0,0,0,0,0,0,0,-1,1182,1779,-2.0361,-4.01671
-35,-755,-2.72498,2.37476,0,0,0,0,0,0,0,-1,1189,1779,-2.72502,-2.37473
-28,-755,5.67334,22.4351,0,0,0,0,0,0,0,-1,1196,1779,5.67331,-22.4351
-21,-755,5.71594,22.5851,0,0,0,0,0,0,0,-1,1203,1779,5.71593,-22.5851
-14,-755,5.73535,22.4663,0.0301043,-0.00672666,0.00613614,0.0310997,-0.00772206,0.160818,0.0237297,0.0310832,1210,1779,5.73537,-22.4664
-7,-755,5.66589,22.4908,0.0280996,-0.00672939,0.00523623,0.0288698,-0.00749958,0.146041,0.0221733,0.0207734,1217,1779,5.66584,-22.4908
0,-755,5.67529,22.556,0.026127,-0.00656151,0.00426861,0.0266752,-0.00710973,0.127731,0.0205672,0.0132535,1224,1779,5.67533,-22.556
7,-755,5.68201,22.6117,0.024478,-0.00619463,0.00319107,0.0248064,-0.0065231,0.102573,0.0190872,0.0117406,1231,1779,5.68201,-22.6117
14,-755,5.66064,22.6787,0.0228995,-0.00545193,0.00189885,0.0230261,-0.00557854,0.066579,0.017509,0.0107208,1238,1779,5.66067,-22.6788
21,-755,5.61414,22.7336,0.0215359,-0.00453357,0.000547155,0.0215473,-0.00454505,0.0209761,0.0160953,0.0152011,1245,1779,5.61419,-22.7336
28,-755,5.58069,22.7601,0.0202869,-0.00334941,-0.000899411,0.0203211,-0.00338358,-0.0379789,0.0148047,0.0182653,1252,1779,5.58072,-22.7602
35,-755,5.59839,22.8341,0.0191074,-0.00221415,-0.00225191,0.0193427,-0.00244939,-0.104086,0.0137843,0.0195667,1259,1779,5.59841,-22.834
42,-755,5.61121,22.8176,0.0176481,-0.000806709,-0.003772,0.0183893,-0.0015479,-0.194027,0.0128067,0.0155374,1266,1779,5.61124,-22.8176
49,-755,5.60046,22.8223,0.0161085,0.000679488,-0.00481786,0.0174894,-0.000701351,-0.279126,0.0119003,0.0105587,1273,1779,5.60048,-22.8223
56,-755,5.56238,22.8512,0.0148772,0.00220569,-0.00572194,0.0170786,4.33251e-06,-0.367268,0.0113843,0.00931049,1280,1779,5.56237,-22.8512
63,-755,5.53906,22.8704,0.013896,0.00334006,-0.00619337,0.0167553,0.000480777,-0.432514,0.0110134,0.00941933,1287,1779,5.539,-22.8704
70,-755,5.53284,22.8657,0.0123982,0.00314182,-0.00676411,0.0159659,-0.000425921,-0.485368,0.0107887,0.0117693,1294,1779,5.53285,-22.8658
77,-755,5.50439,22.8579,0.0104403,0.00280227,-0.00759244,0.0151201,-0.00187754,-0.552375,0.0107606,0.0108345,1301,1779,5.50445,-22.8579
84,-755,5.50171,22.8813,0.00865852,0.00191787,-0.00753968,0.0135469,-0.0029705,-0.575215,0.0101671,0.0116976,1308,1779,5.50177,-22.8813
91,-755,5.47791,22.8644,0.00715428,0.00105686,-0.00791245,0.012585,-0.00437391,-0.601511,0.0101666,0.0111638,1315,1779,5.47792,-22.8644
98,-755,5.43896,22.8422,0.00558637,-0.000255217,-0.00814275,0.0113163,-0.00598517,-0.613197,0.0101459,0.0121137,1322,1779,5.43901,-22.8422
105,-755,5.45935,22.844,0.00498596,-0.00156451,-0.00880238,0.0111027,-0.00768124,-0.607292,0.0109047,0.0166659,1329,1779,5.45941,-22.844
112,-755,5.47705,22.7917,0.00475338,-0.00308174,-0.00970513,0.0113018,-0.00963017,-0.59357,0.0120979,0.0219485,1336,1779,5.47707,-22.7917
119,-755,5.42798,22.7817,0.00537272,-0.00502762,-0.0104311,0.011828,-0.0114829,-0.554164,0.013459,0.0209215,1343,1779,5.42796,-22.7817
126,-755,5.3894,22.8224,0.00573959,-0.00640571,-0.0112298,0.0124335,-0.0130996,-0.537536,0.0147432,0.0222953,1350,1779,5.3894,-22.8223
133,-755,5.30615,22.7653,0.00596935,-0.00726532,-0.0118423,0.0129177,-0.0142137,-0.530615,0.0156703,0.023827,1357,1779,5.30618,-22.7652
140,-755,5.31738,22.7347,0.00613299,-0.00705707,-0.0125014,0.0136723,-0.0145964,-0.542679,0.0163238,0.0295341,1364,1779,5.31739,-22.7348
147,-755,5.47583,22.7084,0.00607376,-0.00707297,-0.0128018,0.0138912,-0.0148904,-0.548214,0.0166204,0.0310773,1371,1779,5.4758,-22.7084
154,-755,5.44128,22.6738,0.00609299,-0.00616749,-0.0130864,0.0144138,-0.0144883,-0.566355,0.0166867,0.0349903,1378,1779,5.44129,-22.6739
161,-755,5.36987,22.6707,0,0,0,0,0,0,0,-1,1385,1779,5.36993,-22.6707
168,-755,3.98181,7.35901,0,0,0,0,0,0,0,-1,1392,1779,3.98184,-7.35904
175,-755,8.17065,1.34363,0,0,0,0,0,0,0,-1,1399,1779,8.1706,-1.34368
182,-755,8.09216,2.96924,0,0,0,0,0,0,0,-1,1406,1779,8.09213,-2.9693
189,-755,8.04419,4.68042,0,0,0,0,0,0,0,-1,1413,1779,8.04419,-4.68046
196,-755,7.74841,7.4541,0,0,0,0,0,0,0,-1,1420,1779,7.74842,-7.45405
203,-755,4.80554,6.88696,0,0,0,0,0,0,0,-1,1427,1779,4.80554,-6.88697
210,-755,25.1694,7.35693,0,0,0,0,0,0,0,-1,1434,1779,25.1694,-7.35688
217,-755,5.01648,16.411,0,0,0,0,0,0,0,-1,1441,1779,5.01646,-16.411
224,-755,5.90662,20.4368,0,0,0,0,0,0,0,-1,1448,1779,5.90667,-20.4367
231,-755,5.37122,21.7295,0,0,0,0,0,0,0,-1,1455,1779,5.37115,-21.7294
238,-755,4.07178,21.4071,-0.0420372,0.0578902,-0.00779919,0.0584952,-0.0426423,-1.49337,0.0586304,0.0440498,1462,1779,4.07179,-21.4071
245,-755,3.59619,20.8771,-0.0417082,0.0651281,-0.00876739,0.0658428,-0.042423,-1.48946,0.0629929,0.0436577,1469,1779,3.59619,-20.877
252,-755,3.37878,19.7543,-0.0405879,0.0726512,-0.0102412,0.0735699,-0.0415067,-1.48133,0.0672937,0.0468708,1476,1779,3.37881,-19.7543
259,-755,3.17322,18.702,0,0,0,0,0,0,0,-1,1483,1779,3.17322,-18.7021
266,-755,17.255,7.86096,0,0,0,0,0,0,0,-1,1490,1779,17.255,-7.86092
273,-755,15.7932,7.59778,0,0,0,0,0,0,0,-1,1497,1779,15.7932,-7.59777
280,-755,14.6255,7.34802,0,0,0,0,0,0,0,-1,1504,1779,14.6254,-7.34806
287,-755,13.8279,7.83105,0,0,0,0,0,0,0,-1,1511,1779,13.8279,-7.83104
294,-755,12.5695,7.96814,0,0,0,0,0,0,0,-1,1518,1779,12.5694,-7.9682
301,-755,11.2659,8.27087,0,0,0,0,0,0,0,-1,1525,1779,11.2658,-8.27087
308,-755,9.94434,8.55811,0,0,0,0,0,0,0,-1,1532,1779,9.94428,-8.55806
315,-755,8.64502,9.04492,0,0,0,0,0,0,0,-1,1539,1779,8.64497,-9.04488
322,-755,0,0,0,0,0,0,0,0,0,-1,1546,1779,0,0
329,-755,0,0,0,0,0,0,0,0,0,-1,1553,1779,0,0
336,-755,0,0,0,0,0,0,0,0,0,-1,1560,1779,0,0
343,-755,0,0,0,0,0,0,0,0,0,-1,1567,1779,0,0
350,-755,0,0,0,0,0,0,0,0,0,-1,1574,1779,0,0
357,-755,0,0,0,0,0,0,0,0,0,-1,1581,1779,0,0
364,-755,0,0,0,0,0,0,0,0,0,-1,1588,1779,0,0
371,-755,0,0,0,0,0,0,0,0,0,-1,1595,1779,0,0
378,-755,0,0,0,0,0,0,0,0,0,-1,1602,1779,0,0
385,-755,0,0,0,0,0,0,0,0,0,-1,1609,1779,0,0
392,-755,0,0,0,0,0,0,0,0,0,-1,1616,1779,0,0
399,-755,0,0,0,0,0,0,0,0,0,-1,1623,1779,0,0
406,-755,0,0,0,0,0,0,0,0,0,-1,1630,1779,0,0
413,-755,0,0,0,0,0,0,0,0,0,-1,1637,1779,0,0
420,-755,0,0,0,0,0,0,0,0,0,-1,1644,1779,0,0
427,-755,0,0,0,0,0,0,0,0,0,-1,1651,1779,0,0
434,-755,0,0,0,0,0,0,0,0,0,-1,1658,1779,0,0
441,-755,0,0,0,0,0,0,0,0,0,-1,1665,1779,0,0
448,-755,0,0,0,0,0,0,0,0,0,-1,1672,1779,0,0
455,-755,0,0,0,0,0,0,0,0,0,-1,1679,1779,0,0
462,-755,0,0,0,0,0,0,0,0,0,-1,1686,1779,0,0
469,-755,0,0,0,0,0,0,0,0,0,-1,1693,1779,0,0
476,-755,0,0,0,0,0,0,0,0,0,-1,1700,1779,0,0
483,-755,0,0,0,0,0,0,0,0,0,-1,1707,1779,0,0
490,-755,0,0,0,0,0,0,0,0,0,-1,1714,1779,0,0
497,-755,0,0,0,0,0,0,0,0,0,-1,1721,1779,0,0
504,-755,0,0,0,0,0,0,0,0,0,-1,1728,1779,0,0
511,-755,0,0,0,0,0,0,0,0,0,-1,1735,1779,0,0
518,-755,0,0,0,0,0,0,0,0,0,-1,1742,1779,0,0
525,-755,0,0,0,0,0,0,0,0,0,-1,1749,1779,0,0
532,-755,0,0,0,0,0,0,0,0,0,-1,1756,1779,0,0
539,-755,0,0,0,0,0,0,0,0,0,-1,1763,1779,0,0
546,-755,0,0,0,0,0,0,0,0,0,-1,1770,1779,0,0
553,-755,0,0,0,0,0,0,0,0,0,-1,1777,1779,0,0
560,-755,0,0,0,0,0,0,0,0,0,-1,1784,1779,0,0
567,-755,0,0,0,0,0,0,0,0,0,-1,1791,1779,0,0
574,-755,0,0,0,0,0,0,0,0,0,-1,1798,1779,0,0
581,-755,0,0,0,0,0,0,0,0,0,-1,1805,1779,0,0
588,-755,0,0,0,0,0,0,0,0,0,-1,1812,1779,0,0
595,-755,0,0,0,0,0,0,0,0,0,-1,1819,1779,0,0
602,-755,0,0,0,0,0,0,0,0,0,-1,1826,1779,0,0
609,-755,0,0,0,0,0,0,0,0,0,-1,1833,1779,0,0
616,-755,0,0,0,0,0,0,0,0,0,-1,1840,1779,0,0
623,-755,0,0,0,0,0,0,0,0,0,-1,1847,1779,0,0
630,-755,0,0,0,0,0,0,0,0,0,-1,1854,1779,0,0
637,-755,0,0,0,0,0,0,0,0,0,-1,1861,1779,0,0
644,-755,0,0,0,0,0,0,0,0,0,-1,1868,1779,0,0
651,-755,0,0,0,0,0,0,0,0,0,-1,1875,1779,0,0
658,-755,0,0,0,0,0,0,0,0,0,-1,1882,1779,0,0
665,-755,0,0,0,0,0,0,0,0,0,-1,1889,1779,0,0
672,-755,0,0,0,0,0,0,0,0,0,-1,1896,1779,0,0
679,-755,0,0,0,0,0,0,0,0,0,-1,1903,1779,0,0
686,-755,0,0,0,0,0,0,0,0,0,-1,1910,1779,0,0
693,-755,0,0,0,0,0,0,0,0,0,-1,1917,1779,0,0
700,-755,0,0,0,0,0,0,0,0,0,-1,1924,1779,0,0
707,-755,0,0,0,0,0,0,0,0,0,-1,1931,1779,0,0
714,-755,0,0,0,0,0,0,0,0,0,-1,1938,1779,0,0
721,-755,0,0,0,0,0,0,0,0,0,-1,1945,1779,0,0
728,-755,0,0,0,0,0,0,0,0,0,-1,1952,1779,0,0
735,-755,0,0,0,0,0,0,0,0,0,-1,1959,1779,0,0
742,-755,0,0,0,0,0,0,0,0,0,-1,1966,1779,0,0
749,-755,0,0,0,0,0,0,0,0,0,-1,1973,1779,0,0
756,-755,0,0,0,0,0,0,0,0,0,-1,1980,1779,0,0
763,-755,0,0,0,0,0,0,0,0,0,-1,1987,1779,0,0
770,-755,0,0,0,0,0,0,0,0,0,-1,1994,1779,0,0
777,-755,0,0,0,0,0,0,0,0,0,-1,2001,1779,0,0
784,-755,0,0,0,0,0,0,0,0,0,-1,2008,1779,0,0
791,-755,0,0,0,0,0,0,0,0,0,-1,2015,1779,0,0
798,-755,0,0,0,0,0,0,0,0,0,-1,2022,1779,0,0
805,-755,0,0,0,0,0,0,0,0,0,-1,2029,1779,0,0
812,-755,0,0,0,0,0,0,0,0,0,-1,2036,1779,0,0
-700,-762,0,0,0,0,0,0,0,0,0,-1,524,1786,0,0
-693,-762,0,0,0,0,0,0,0,0,0,-1,531,1786,0,0
-686,-762,0,0,0,0,0,0,0,0,0,-1,538,1786,0,0
-679,-762,0,0,0,0,0,0,0,0,0,-1,545,1786,0,0
-672,-762,0,0,0,0,0,0,0,0,0,-1,552,1786,0,0
-665,-762,0,0,0,0,0,0,0,0,0,-1,559,1786,0,0
-658,-762,0,0,0,0,0,0,0,0,0,-1,566,1786,0,0
-651,-762,0,0,0,0,0,0,0,0,0,-1,573,1786,0,0
-644,-762,0,0,0,0,0,0,0,0,0,-1,580,1786,0,0
-637,-762,0,0,0,0,0,0,0,0,0,-1,587,1786,0,0
-630,-762,0,0,0,0,0,0,0,0,0,-1,594,1786,0,0
-623,-762,0,0,0,0,0,0,0,0,0,-1,601,1786,0,0
-616,-762,0,0,0,0,0,0,0,0,0,-1,608,1786,0,0
-609,-762,0,0,0,0,0,0,0,0,0,-1,615,1786,0,0
-602,-762,0,0,0,0,0,0,0,0,0,-1,622,1786,0,0
-595,-762,0,0,0,0,0,0,0,0,0,-1,629,1786,0,0
-588,-762,0,0,0,0,0,0,0,0,0,-1,636,1786,0,0
-581,-762,0,0,0,0,0,0,0,0,0,-1,643,1786,0,0
-574,-762,0,0,0,0,0,0,0,0,0,-1,650,1786,0,0
-567,-762,0,0,0,0,0,0,0,0,0,-1,657,1786,0,0
-560,-762,0,0,0,0,0,0,0,0,0,-1,664,1786,0,0
-553,-762,0,0,0,0,0,0,0,0,0,-1,671,1786,0,0
-546,-762,0,0,0,0,0,0,0,0,0,-1,678,1786,0,0
-539,-762,0,0,0,0,0,0,0,0,0,-1,685,1786,0,0
-532,-762,0,0,0,0,0,0,0,0,0,-1,692,1786,0,0
-525,-762,0,0,0,0,0,0,0,0,0,-1,699,1786,0,0
-518,-762,0,0,0,0,0,0,0,0,0,-1,706,1786,0,0
-511,-762,0,0,0,0,0,0,0,0,0,-1,713,1786,0,0
-504,-762,0,0,0,0,0,0,0,0,0,-1,720,1786,0,0
-497,-762,0,0,0,0,0,0,0,0,0,-1,727,1786,0,0
-490,-762,0,0,0,0,0,0,0,0,0,-1,734,1786,0,0
-483,-762,0,0,0,0,0,0,0,0,0,-1,741,1786,0,0
-476,-762,0,0,0,0,0,0,0,0,0,-1,748,1786,0,0
-469,-762,0,0,0,0,0,0,0,0,0,-1,755,1786,0,0
-462,-762,0,0,0,0,0,0,0,0,0,-1,762,1786,0,0
-455,-762,0,0,0,0,0,0,0,0,0,-1,769,1786,0,0
-448,-762,0,0,0,0,0,0,0,0,0,-1,776,1786,0,0
-441,-762,0,0,0,0,0,0,0,0,0,-1,783,1786,0,0
-434,-762,0,0,0,0,0,0,0,0,0,-1,790,1786,0,0
-427,-762,0,0,0,0,0,0,0,0,0,-1,797,1786,0,0
-420,-762,0,0,0,0,0,0,0,0,0,-1,804,1786,0,0
-413,-762,0,0,0,0,0,0,0,0,0,-1,811,1786,0,0
-406,-762,0,0,0,0,0,0,0,0,0,-1,818,1786,0,0
-399,-762,0,0,0,0,0,0,0,0,0,-1,825,1786,0,0
-392,-762,0,0,0,0,0,0,0,0,0,-1,832,1786,0,0
-385,-762,0,0,0,0,0,0,0,0,0,-1,839,1786,0,0
-378,-762,0,0,0,0,0,0,0,0,0,-1,846,1786,0,0
-371,-762,0,0,0,0,0,0,0,0,0,-1,853,1786,0,0
-364,-762,0,0,0,0,0,0,0,0,0,-1,860,1786,0,0
-357,-762,0,0,0,0,0,0,0,0,0,-1,867,1786,0,0
-350,-762,0,0,0,0,0,0,0,0,0,-1,874,1786,0,0
-343,-762,0,0,0,0,0,0,0,0,0,-1,881,1786,0,0
-336,-762,0,0,0,0,0,0,0,0,0,-1,888,1786,0,0
-329,-762,0,0,0,0,0,0,0,0,0,-1,895,1786,0,0
-322,-762,0,0,0,0,0,0,0,0,0,-1,902,1786,0,0
-315,-762,0,0,0,0,0,0,0,0,0,-1,909,1786,0,0
-308,-762,0,0,0,0,0,0,0,0,0,-1,916,1786,0,0
-301,-762,0,0,0,0,0,0,0,0,0,-1,923,1786,0,0
-294,-762,0,0,0,0,0,0,0,0,0,-1,930,1786,0,0
-287,-762,0,0,0,0,0,0,0,0,0,-1,937,1786,0,0
-280,-762,0,0,0,0,0,0,0,0,0,-1,944,1786,0,0
-273,-762,0,0,0,0,0,0,0,0,0,-1,951,1786,0,0
-266,-762,0,0,0,0,0,0,0,0,0,-1,958,1786,0,0
-259,-762,0,0,0,0,0,0,0,0,0,-1,965,1786,0,0
-252,-762,0,0,0,0,0,0,0,0,0,-1,972,1786,0,0
-245,-762,0,0,0,0,0,0,0,0,0,-1,979,1786,0,0
-238,-762,0,0,0,0,0,0,0,0,0,-1,986,1786,0,0
-231,-762,0,0,0,0,0,0,0,0,0,-1,993,1786,0,0
-224,-762,0,0,0,0,0,0,0,0,0,-1,1000,1786,0,0
-217,-762,0,0,0,0,0,0,0,0,0,-1,1007,1786,0,0
-210,-762,0,0,0,0,0,0,0,0,0,-1,1014,1786,0,0
-203,-762,0,0,0,0,0,0,0,0,0,-1,1021,1786,0,0
-196,-762,0,0,0,0,0,0,0,0,0,-1,1028,1786,0,0
-189,-762,0,0,0,0,0,0,0,0,0,-1,1035,1786,0,0
-182,-762,4.44226,13.2462,0,0,0,0,0,0,0,-1,1042,1786,4.44227,-13.2462
-175,-762,-1.29956,14.1766,0,0,0,0,0,0,0,-1,1049,1786,-1.29956,-14.1767
-168,-762,-2.08618,13.0768,0,0,0,0,0,0,0,-1,1056,1786,-2.08623,-13.0768
-161,-762,-3.29077,11.9508,0,0,0,0,0,0,0,-1,1063,1786,-3.29076,-11.9508
-154,-762,-4.55823,11.1176,0,0,0,0,0,0,0,-1,1070,1786,-4.55828,-11.1175
-147,-762,-6.52454,9.41418,0,0,0,0,0,0,0,-1,1077,1786,-6.52458,-9.41419
-140,-762,4.99792,5.28589,0,0,0,0,0,0,0,-1,1084,1786,4.99793,-5.28587
-133,-762,6.68982,18.3632,0,0,0,0,0,0,0,-1,1091,1786,6.68986,-18.3631
-126,-762,6.1062,19.6769,0,0,0,0,0,0,0,-1,1098,1786,6.10617,-19.6769
-119,-762,5.62537,19.9695,0,0,0,0,0,0,0,-1,1105,1786,5.6254,-19.9695
-112,-762,4.94165,20.5363,0,0,0,0,0,0,0,-1,1112,1786,4.94167,-20.5362
-105,-762,5.06091,19.0017,0,0,0,0,0,0,0,-1,1119,1786,5.06095,-19.0017
-98,-762,5.80432,18.0415,0,0,0,0,0,0,0,-1,1126,1786,5.80432,-18.0415
-91,-762,4.04016,14.6007,0,0,0,0,0,0,0,-1,1133,1786,4.04013,-14.6007
-84,-762,3.00232,10.7883,0,0,0,0,0,0,0,-1,1140,1786,3.0023,-10.7883
-77,-762,0.305054,8.49365,0,0,0,0,0,0,0,-1,1147,1786,0.305008,-8.49362
-70,-762,0.183716,6.74622,0,0,0,0,0,0,0,-1,1154,1786,0.183696,-6.74621
-63,-762,-0.883057,9.08813,0,0,0,0,0,0,0,-1,1161,1786,-0.88311,-9.08808
-56,-762,-0.578979,5.10254,0,0,0,0,0,0,0,-1,1168,1786,-0.578951,-5.10249
-49,-762,-2.04541,3.66321,0,0,0,0,0,0,0,-1,1175,1786,-2.0454,-3.66319
-42,-762,-2.23462,3.474,0,0,0,0,0,0,0,-1,1182,1786,-2.23459,-3.47399
-35,-762,-3.28992,1.68164,0,0,0,0,0,0,0,-1,1189,1786,-3.28998,-1.68164
-28,-762,-3.75378,1.37769,0,0,0,0,0,0,0,-1,1196,1786,-3.75373,-1.37767
-21,-762,5.52209,22.5023,0,0,0,0,0,0,0,-1,1203,1786,5.52215,-22.5023
-14,-762,5.37732,22.4554,0.0452783,-0.00925645,0.00762111,0.0463233,-0.0103015,0.136271,0.0348276,0.0433236,1210,1786,5.37738,-22.4554
-7,-762,5.49939,22.4363,0.0416867,-0.00932418,0.00640572,0.0424788,-0.0101163,0.123031,0.032225,0.0453745,1217,1786,5.49943,-22.4362
0,-762,5.69507,22.5432,0.0383911,-0.00905309,0.00495699,0.0389035,-0.00956547,0.102998,0.0296432,0.0353013,1224,1786,5.69503,-22.5432
7,-762,5.72754,22.6163,0.0356391,-0.00854686,0.00336968,0.0358946,-0.00880236,0.0756781,0.0273403,0.0208736,1231,1786,5.72755,-22.6163
14,-762,5.73669,22.7278,0.0331638,-0.00758084,0.00152984,0.0332212,-0.0076382,0.0374766,0.0250842,0.0337423,1238,1786,5.73665,-22.7278
21,-762,5.68921,22.7147,0.0310625,-0.00638785,-0.000366123,0.0310661,-0.00639143,-0.00977498,0.0231373,0.040337,1245,1786,5.68921,-22.7147
28,-762,5.54871,22.671,0.0292108,-0.00489546,-0.00232849,0.0293691,-0.0050537,-0.0678518,0.0214632,0.0404729,1252,1786,5.54869,-22.6711
35,-762,5.55188,22.8685,0.027538,-0.00345918,-0.00415964,0.0280864,-0.00400767,-0.131105,0.0201932,0.0453639,1259,1786,5.55186,-22.8686
42,-762,5.58875,22.8297,0.0255679,-0.0017289,-0.00616469,0.0268955,-0.00305656,-0.212125,0.0190312,0.044685,1266,1786,5.58869,-22.8298
49,-762,5.5625,22.8406,0.023616,0.000164373,-0.00752816,0.0258246,-0.00204423,-0.285371,0.0179367,0.0347869,1273,1786,5.56249,-22.8405
56,-762,5.58167,22.8467,0.0221403,0.00207846,-0.00867846,0.0253734,-0.00115468,-0.356618,0.0173134,0.023606,1280,1786,5.58169,-22.8467
63,-762,5.56519,22.8663,0.0209681,0.00351138,-0.00921555,0.0249327,-0.000453191,-0.406271,0.0167749,0.0209444,1287,1786,5.56513,-22.8664
70,-762,5.547,22.8748,0.0191518,0.00287022,-0.00968319,0.0236616,-0.00163955,-0.43586,0.0163483,0.0203161,1294,1786,5.54694,-22.8748
77,-762,5.52429,22.8463,0.0167614,0.00224009,-0.0108004,0.0225148,-0.00351331,-0.489466,0.0163076,0.0256219,1301,1786,5.52425,-22.8463
84,-762,5.66638,22.8109,0,0,0,0,0,0,0,-1,1308,1786,5.66636,-22.811
91,-762,5.82275,22.6672,0,0,0,0,0,0,0,-1,1315,1786,5.82278,-22.6672
98,-762,6.25049,22.8011,0,0,0,0,0,0,0,-1,1322,1786,6.25055,-22.8012
105,-762,6.73547,22.9413,0,0,0,0,0,0,0,-1,1329,1786,6.73542,-22.9413
112,-762,5.4679,22.8103,0.00833216,-0.00548586,-0.0138588,0.0169086,-0.0140623,-0.554163,0.0179062,0.0430521,1336,1786,5.46792,-22.8103
119,-762,5.79639,23.0764,0.00934214,-0.00834465,-0.0148853,0.0178129,-0.0168154,-0.517363,0.0199954,0.042299,1343,1786,5.79634,-23.0764
126,-762,5.34033,22.8864,0.00991482,-0.0103598,-0.016026,0.0187406,-0.0191856,-0.503392,0.0218972,0.0462156,1350,1786,5.34035,-22.8863
133,-762,5.3866,22.814,0.0103072,-0.0115929,-0.0169505,0.0195369,-0.0208226,-0.498618,0.0233055,0.048007,1357,1786,5.38666,-22.814
140,-762,5.72107,22.7261,0.0106309,-0.0112775,-0.0179903,0.0207395,-0.0213862,-0.511931,0.0243222,0.0440063,1364,1786,5.72109,-22.7261
147,-762,5.94238,22.634,0.0107198,-0.0112053,-0.0186053,0.021352,-0.0218375,-0.519172,0.024936,0.0395878,1371,1786,5.94239,-22.6341
154,-762,6.17737,22.5225,0,0,0,0,0,0,0,-1,1378,1786,6.17743,-22.5224
161,-762,7.93408,-0.126221,0,0,0,0,0,0,0,-1,1385,1786,7.93402,0.126232
168,-762,8.19287,0.880615,0,0,0,0,0,0,0,-1,1392,1786,8.19291,-0.880603
175,-762,8.33997,1.95947,0,0,0,0,0,0,0,-1,1399,1786,8.33997,-1.95942
182,-762,8.28418,3.56482,0,0,0,0,0,0,0,-1,1406,1786,8.28415,-3.56485
189,-762,8.21179,5.23389,0,0,0,0,0,0,0,-1,1413,1786,8.21183,-5.23383
196,-762,8.05969,6.95483,0,0,0,0,0,0,0,-1,1420,1786,8.05972,-6.9548
203,-762,24.0077,7.10425,0,0,0,0,0,0,0,-1,1427,1786,24.0077,-7.10426
210,-762,23.8073,7.6499,0,0,0,0,0,0,0,-1,1434,1786,23.8073,-7.64987
217,-762,23.3193,8.24426,0,0,0,0,0,0,0,-1,1441,1786,23.3194,-8.2442
224,-762,2.65149,20.6106,0,0,0,0,0,0,0,-1,1448,1786,2.65153,-20.6106
231,-762,6.46948,20.1884,0,0,0,0,0,0,0,-1,1455,1786,6.46951,-20.1883
238,-762,3.80127,21.3085,0,0,0,0,0,0,0,-1,1462,1786,3.80125,-21.3085
245,-762,3.33984,20.2131,0,0,0,0,0,0,0,-1,1469,1786,3.33979,-20.2131
252,-762,3.10474,18.8385,0,0,0,0,0,0,0,-1,1476,1786,3.10476,-18.8385
259,-762,17.4619,7.89832,0,0,0,0,0,0,0,-1,1483,1786,17.462,-7.89836
266,-762,16.451,7.67773,0,0,0,0,0,0,0,-1,1490,1786,16.4511,-7.67773
273,-762,15.287,7.5304,0,0,0,0,0,0,0,-1,1497,1786,15.2869,-7.53044
280,-762,14.1501,7.38379,0,0,0,0,0,0,0,-1,1504,1786,14.1502,-7.38376
287,-762,12.6891,7.99133,0,0,0,0,0,0,0,-1,1511,1786,12.6891,-7.99135
294,-762,12.6959,8.30371,0,0,0,0,0,0,0,-1,1518,1786,12.6959,-8.30368
301,-762,11.4222,8.84143,0,0,0,0,0,0,0,-1,1525,1786,11.4223,-8.84149
308,-762,0,0,0,0,0,0,0,0,0,-1,1532,1786,0,0
315,-762,0,0,0,0,0,0,0,0,0,-1,1539,1786,0,0
322,-762,0,0,0,0,0,0,0,0,0,-1,1546,1786,0,0
329,-762,0,0,0,0,0,0,0,0,0,-1,1553,1786,0,0
336,-762,0,0,0,0,0,0,0,0,0,-1,1560,1786,0,0
343,-762,0,0,0,0,0,0,0,0,0,-1,1567,1786,0,0
350,-762,0,0,0,0,0,0,0,0,0,-1,1574,1786,0,0
357,-762,0,0,0,0,0,0,0,0,0,-1,1581,1786,0,0
364,-762,0,0,0,0,0,0,0,0,0,-1,1588,1786,0,0
371,-762,0,0,0,0,0,0,0,0,0,-1,1595,1786,0,0
378,-762,0,0,0,0,0,0,0,0,0,-1,1602,1786,0,0
385,-762,0,0,0,0,0,0,0,0,0,-1,1609,1786,0,0
392,-762,0,0,0,0,0,0,0,0,0,-1,1616,1786,0,0
399,-762,0,0,0,0,0,0,0,0,0,-1,1623,1786,0,0
406,-762,0,0,0,0,0,0,0,0,0,-1,1630,1786,0,0
413,-762,0,0,0,0,0,0,0,0,0,-1,1637,1786,0,0
420,-762,0,0,0,0,0,0,0,0,0,-1,1644,1786,0,0
427,-762,0,0,0,0,0,0,0,0,0,-1,1651,1786,0,0
434,-762,0,0,0,0,0,0,0,0,0,-1,1658,1786,0,0
441,-762,0,0,0,0,0,0,0,0,0,-1,1665,1786,0,0
448,-762,0,0,0,0,0,0,0,0,0,-1,1672,1786,0,0
455,-762,0,0,0,0,0,0,0,0,0,-1,1679,1786,0,0
462,-762,0,0,0,0,0,0,0,0,0,-1,1686,1786,0,0
469,-762,0,0,0,0,0,0,0,0,0,-1,1693,1786,0,0
476,-762,0,0,0,0,0,0,0,0,0,-1,1700,1786,0,0
483,-762,0,0,0,0,0,0,0,0,0,-1,1707,1786,0,0
490,-762,0,0,0,0,0,0,0,0,0,-1,1714,1786,0,0
497,-762,0,0,0,0,0,0,0,0,0,-1,1721,1786,0,0
504,-762,0,0,0,0,0,0,0,0,0,-1,1728,1786,0,0
511,-762,0,0,0,0,0,0,0,0,0,-1,1735,1786,0,0
518,-762,0,0,0,0,0,0,0,0,0,-1,1742,1786,0,0
525,-762,0,0,0,0,0,0,0,0,0,-1,1749,1786,0,0
532,-762,0,0,0,0,0,0,0,0,0,-1,1756,1786,0,0
539,-762,0,0,0,0,0,0,0,0,0,-1,1763,1786,0,0
546,-762,0,0,0,0,0,0,0,0,0,-1,1770,1786,0,0
553,-762,0,0,0,0,0,0,0,0,0,-1,1777,1786,0,0
560,-762,0,0,0,0,0,0,0,0,0,-1,1784,1786,0,0
567,-762,0,0,0,0,0,0,0,0,0,-1,1791,1786,0,0
574,-762,0,0,0,0,0,0,0,0,0,-1,1798,1786,0,0
581,-762,0,0,0,0,0,0,0,0,0,-1,1805,1786,0,0
588,-762,0,0,0,0,0,0,0,0,0,-1,1812,1786,0,0
595,-762,0,0,0,0,0,0,0,0,0,-1,1819,1786,0,0
602,-762,0,0,0,0,0,0,0,0,0,-1,1826,1786,0,0
609,-762,0,0,0,0,0,0,0,0,0,-1,1833,1786,0,0
616,-762,0,0,0,0,0,0,0,0,0,-1,1840,1786,0,0
623,-762,0,0,0,0,0,0,0,0,0,-1,1847,1786,0,0
630,-762,0,0,0,0,0,0,0,0,0,-1,1854,1786,0,0
637,-762,0,0,0,0,0,0,0,0,0,-1,1861,1786,0,0
644,-762,0,0,0,0,0,0,0,0,0,-1,1868,1786,0,0
651,-762,0,0,0,0,0,0,0,0,0,-1,1875,1786,0,0
658,-762,0,0,0,0,0,0,0,0,0,-1,1882,1786,0,0
665,-762,0,0,0,0,0,0,0,0,0,-1,1889,1786,0,0
672,-762,0,0,0,0,0,0,0,0,0,-1,1896,1786,0,0
679,-762,0,0,0,0,0,0,0,0,0,-1,1903,1786,0,0
686,-762,0,0,0,0,0,0,0,0,0,-1,1910,1786,0,0
693,-762,0,0,0,0,0,0,0,0,0,-1,1917,1786,0,0
700,-762,0,0,0,0,0,0,0,0,0,-1,1924,1786,0,0
707,-762,0,0,0,0,0,0,0,0,0,-1,1931,1786,0,0
714,-762,0,0,0,0,0,0,0,0,0,-1,1938,1786,0,0
721,-762,0,0,0,0,0,0,0,0,0,-1,1945,1786,0,0
728,-762,0,0,0,0,0,0,0,0,0,-1,1952,1786,0,0
735,-762,0,0,0,0,0,0,0,0,0,-1,1959,1786,0,0
742,-762,0,0,0,0,0,0,0,0,0,-1,1966,1786,0,0
749,-762,0,0,0,0,0,0,0,0,0,-1,1973,1786,0,0
756,-762,0,0,0,0,0,0,0,0,0,-1,1980,1786,0,0
763,-762,0,0,0,0,0,0,0,0,0,-1,1987,1786,0,0
770,-762,0,0,0,0,0,0,0,0,0,-1,1994,1786,0,0
777,-762,0,0,0,0,0,0,0,0,0,-1,2001,1786,0,0
784,-762,0,0,0,0,0,0,0,0,0,-1,2008,1786,0,0
791,-762,0,0,0,0,0,0,0,0,0,-1,2015,1786,0,0
798,-762,0,0,0,0,0,0,0,0,0,-1,2022,1786,0,0
805,-762,0,0,0,0,0,0,0,0,0,-1,2029,1786,0,0
812,-762,0,0,0,0,0,0,0,0,0,-1,2036,1786,0,0
-700,-769,0,0,0,0,0,0,0,0,0,-1,524,1793,0,0
-693,-769,0,0,0,0,0,0,0,0,0,-1,531,1793,0,0
-686,-769,0,0,0,0,0,0,0,0,0,-1,538,1793,0,0
-679,-769,0,0,0,0,0,0,0,0,0,-1,545,1793,0,0
-672,-769,0,0,0,0,0,0,0,0,0,-1,552,1793,0,0
-665,-769,0,0,0,0,0,0,0,0,0,-1,559,1793,0,0
-658,-769,0,0,0,0,0,0,0,0,0,-1,566,1793,0,0
-651,-769,0,0,0,0,0,0,0,0,0,-1,573,1793,0,0
-644,-769,0,0,0,0,0,0,0,0,0,-1,580,1793,0,0
-637,-769,0,0,0,0,0,0,0,0,0,-1,587,1793,0,0
-630,-769,0,0,0,0,0,0,0,0,0,-1,594,1793,0,0
-623,-769,0,0,0,0,0,0,0,0,0,-1,601,1793,0,0
-616,-769,0,0,0,0,0,0,0,0,0,-1,608,1793,0,0
-609,-769,0,0,0,0,0,0,0,0,0,-1,615,1793,0,0
-602,-769,0,0,0,0,0,0,0,0,0,-1,622,1793,0,0
-595,-769,0,0,0,0,0,0,0,0,0,-1,629,1793,0,0
-588,-769,0,0,0,0,0,0,0,0,0,-1,636,1793,0,0
-581,-769,0,0,0,0,0,0,0,0,0,-1,643,1793,0,0
-574,-769,0,0,0,0,0,0,0,0,0,-1,650,1793,0,0
-567,-769,0,0,0,0,0,0,0,0,0,-1,657,1793,0,0
-560,-769,0,0,0,0,0,0,0,0,0,-1,664,1793,0,0
-553,-769,0,0,0,0,0,0,0,0,0,-1,671,1793,0,0
-546,-769,0,0,0,0,0,0,0,0,0,-1,678,1793,0,0
-539,-769,0,0,0,0,0,0,0,0,0,-1,685,1793,0,0
-532,-769,0,0,0,0,0,0,0,0,0,-1,692,1793,0,0
-525,-769,0,0,0,0,0,0,0,0,0,-1,699,1793,0,0
-518,-769,0,0,0,0,0,0,0,0,0,-1,706,1793,0,0
-511,-769,0,0,0,0,0,0,0,0,0,-1,713,1793,0,0
-504,-769,0,0,0,0,0,0,0,0,0,-1,720,1793,0,0
-497,-769,0,0,0,0,0,0,0,0,0,-1,727,1793,0,0
-490,-769,0,0,0,0,0,0,0,0,0,-1,734,1793,0,0
-483,-769,0,0,0,0,0,0,0,0,0,-1,741,1793,0,0
-476,-769,0,0,0,0,0,0,0,0,0,-1,748,1793,0,0
-469,-769,0,0,0,0,0,0,0,0,0,-1,755,1793,0,0
-462,-769,0,0,0,0,0,0,0,0,0,-1,762,1793,0,0
-455,-769,0,0,0,0,0,0,0,0,0,-1,769,1793,0,0
-448,-769,0,0,0,0,0,0,0,0,0,-1,776,1793,0,0
-441,-769,0,0,0,0,0,0,0,0,0,-1,783,1793,0,0
-434,-769,0,0,0,0,0,0,0,0,0,-1,790,1793,0,0
-427,-769,0,0,0,0,0,0,0,0,0,-1,797,1793,0,0
-420,-769,0,0,0,0,0,0,0,0,0,-1,804,1793,0,0
-413,-769,0,0,0,0,0,0,0,0,0,-1,811,1793,0,0
-406,-769,0,0,0,0,0,0,0,0,0,-1,818,1793,0,0
-399,-769,0,0,0,0,0,0,0,0,0,-1,825,1793,0,0
-392,-769,0,0,0,0,0,0,0,0,0,-1,832,1793,0,0
-385,-769,0,0,0,0,0,0,0,0,0,-1,839,1793,0,0
-378,-769,0,0,0,0,0,0,0,0,0,-1,846,1793,0,0
-371,-769,0,0,0,0,0,0,0,0,0,-1,853,1793,0,0
-364,-769,0,0,0,0,0,0,0,0,0,-1,860,1793,0,0
-357,-769,0,0,0,0,0,0,0,0,0,-1,867,1793,0,0
-350,-769,0,0,0,0,0,0,0,0,0,-1,874,1793,0,0
-343,-769,0,0,0,0,0,0,0,0,0,-1,881,1793,0,0
-336,-769,0,0,0,0,0,0,0,0,0,-1,888,1793,0,0
-329,-769,0,0,0,0,0,0,0,0,0,-1,895,1793,0,0
-322,-769,0,0,0,0,0,0,0,0,0,-1,902,1793,0,0
-315,-769,0,0,0,0,0,0,0,0,0,-1,909,1793,0,0
-308,-769,0,0,0,0,0,0,0,0,0,-1,916,1793,0,0
-301,-769,0,0,0,0,0,0,0,0,0,-1,923,1793,0,0
-294,-769,0,0,0,0,0,0,0,0,0,-1,930,1793,0,0
-287,-769,0,0,0,0,0,0,0,0,0,-1,937,1793,0,0
-280,-769,0,0,0,0,0,0,0,0,0,-1,944,1793,0,0
-273,-769,0,0,0,0,0,0,0,0,0,-1,951,1793,0,0
-266,-769,0,0,0,0,0,0,0,0,0,-1,958,1793,0,0
-259,-769,0,0,0,0,0,0,0,0,0,-1,965,1793,0,0
-252,-769,0,0,0,0,0,0,0,0,0,-1,972,1793,0,0
-245,-769,0,0,0,0,0,0,0,0,0,-1,979,1793,0,0
-238,-769,0,0,0,0,0,0,0,0,0,-1,986,1793,0,0
-231,-769,0,0,0,0,0,0,0,0,0,-1,993,1793,0,0
-224,-769,0,0,0,0,0,0,0,0,0,-1,1000,1793,0,0
-217,-769,0,0,0,0,0,0,0,0,0,-1,1007,1793,0,0
-210,-769,0,0,0,0,0,0,0,0,0,-1,1014,1793,0,0
-203,-769,0,0,0,0,0,0,0,0,0,-1,1021,1793,0,0
-196,-769,0,0,0,0,0,0,0,0,0,-1,1028,1793,0,0
-189,-769,0,0,0,0,0,0,0,0,0,-1,1035,1793,0,0
-182,-769,0,0,0,0,0,0,0,0,0,-1,1042,1793,0,0
-175,-769,0,0,0,0,0,0,0,0,0,-1,1049,1793,0,0
-168,-769,0,0,0,0,0,0,0,0,0,-1,1056,1793,0,0
-161,-769,-3.61145,12.4761,0,0,0,0,0,0,0,-1,1063,1793,-3.6114,-12.476
-154,-769,-0.813232,5.32874,0,0,0,0,0,0,0,-1,1070,1793,-0.813269,-5.32872
-147,-769,4.26587,4.7002,0,0,0,0,0,0,0,-1,1077,1793,4.26593,-4.70022
-140,-769,4.10376,5.28589,0,0,0,0,0,0,0,-1,1084,1793,4.10371,-5.28584
-133,-769,6.422,8.21777,0,0,0,0,0,0,0,-1,1091,1793,6.42198,-8.21773
-126,-769,5.61743,19.271,0,0,0,0,0,0,0,-1,1098,1793,5.61742,-19.271
-119,-769,6.01685,16.2577,0,0,0,0,0,0,0,-1,1105,1793,6.01689,-16.2576
-112,-769,2.77722,20.0741,0,0,0,0,0,0,0,-1,1112,1793,2.77727,-20.0741
-105,-769,3.62769,19.2856,0,0,0,0,0,0,0,-1,1119,1793,3.62772,-19.2856
-98,-769,4.47815,18.4971,0,0,0,0,0,0,0,-1,1126,1793,4.47817,-18.4971
-91,-769,3.46667,14.9108,0,0,0,0,0,0,0,-1,1133,1793,3.46666,-14.9108
-84,-769,2.97742,11.9479,0,0,0,0,0,0,0,-1,1140,1793,2.97741,-11.9478
-77,-769,2.48816,8.98486,0,0,0,0,0,0,0,-1,1147,1793,2.48815,-8.98489
-70,-769,1.04944,11.9852,0,0,0,0,0,0,0,-1,1154,1793,1.04947,-11.9852
-63,-769,-2.39709,9.60339,0,0,0,0,0,0,0,-1,1161,1793,-2.39706,-9.6034
-56,-769,-5.84363,7.22156,0,0,0,0,0,0,0,-1,1168,1793,-5.84359,-7.22157
-49,-769,-2.41443,3.95471,0,0,0,0,0,0,0,-1,1175,1793,-2.41446,-3.95471
-42,-769,-3.1991,2.64941,0,0,0,0,0,0,0,-1,1182,1793,-3.19914,-2.64944
-35,-769,-3.50183,1.73389,0,0,0,0,0,0,0,-1,1189,1793,-3.50189,-1.7339
-28,-769,-3.96985,1.14075,0,0,0,0,0,0,0,-1,1196,1793,-3.96985,-1.14078
-21,-769,3.32703,16.424,0,0,0,0,0,0,0,-1,1203,1793,3.32707,-16.424
-14,-769,5.01624,22.4576,0,0,0,0,0,0,0,-1,1210,1793,5.01623,-22.4577
-7,-769,5.54883,22.7817,0,0,0,0,0,0,0,-1,1217,1793,5.54888,-22.7817
0,-769,5.46619,22.6787,0.0539642,-0.0118641,0.00546754,0.0544152,-0.0123151,0.082306,0.041003,0.0490091,1224,1793,5.4662,-22.6787
7,-769,5.43933,22.5844,0.0497637,-0.0112457,0.00320704,0.0499319,-0.0114138,0.0523739,0.0376733,0.045902,1231,1793,5.43934,-22.5844
14,-769,5.76428,22.7893,0.0461061,-0.0100758,0.000669073,0.0461141,-0.0100838,0.0119068,0.0345973,0.0428228,1238,1793,5.76425,-22.7893
21,-769,5.828,22.6603,0.0430178,-0.00862064,-0.00189965,0.0430876,-0.00869042,-0.0367214,0.0320174,0.0456091,1245,1793,5.82806,-22.6603
28,-769,5.19751,22.9534,0,0,0,0,0,0,0,-1,1252,1793,5.19745,-22.9534
35,-769,5.3501,22.8594,0.0380518,-0.00512574,-0.00685993,0.0391155,-0.00618942,-0.153832,0.0283661,0.0474745,1259,1793,5.35009,-22.8594
42,-769,5.54944,22.8043,0.0354657,-0.00313158,-0.00940587,0.0376358,-0.0053017,-0.226752,0.0270317,0.0497044,1266,1793,5.54949,-22.8043
49,-769,5.52197,22.8915,0.0330796,-0.000863865,-0.0111116,0.0363935,-0.00417775,-0.289839,0.0257681,0.0473001,1273,1793,5.52196,-22.8915
56,-769,5.47668,22.847,0,0,0,0,0,0,0,-1,1280,1793,5.47674,-22.847
63,-769,5.854,22.6595,0.0301272,0.00305165,-0.0130912,0.0354216,-0.00224273,-0.384314,0.0243964,0.042466,1287,1793,5.85403,-22.6596
70,-769,5.6759,22.6829,0.0281392,0.00161638,-0.0132524,0.0336259,-0.00387026,-0.392528,0.0238124,0.0425595,1294,1793,5.67592,-22.6829
77,-769,5.88928,22.5482,0.0255317,0.000511904,-0.0147239,0.0323425,-0.00629891,-0.433257,0.0239392,0.0466286,1301,1793,5.88933,-22.5483
84,-769,5.901,22.4683,0,0,0,0,0,0,0,-1,1308,1793,5.90102,-22.4683
91,-769,6.05066,22.2085,0.0205336,-0.0026345,-0.015481,0.0282848,-0.0103857,-0.4642,0.0231099,0.0470344,1315,1793,6.05071,-22.2085
98,-769,6.34692,21.9126,0,0,0,0,0,0,0,-1,1322,1793,6.34695,-21.9125
105,-769,6.63892,21.9462,0,0,0,0,0,0,0,-1,1329,1793,6.63887,-21.9461
112,-769,6.84985,22.0481,0,0,0,0,0,0,0,-1,1336,1793,6.8499,-22.0481
119,-769,6.21936,23.326,0.0157926,-0.013251,-0.0209475,0.0267597,-0.0242181,-0.482309,0.0294442,0.0485715,1343,1793,6.21937,-23.326
126,-769,5.38184,22.7703,0.0166672,-0.016131,-0.0225441,0.0281459,-0.0276097,-0.470951,0.032191,0.0494115,1350,1793,5.38182,-22.7703
133,-769,5.58582,22.4186,0,0,0,0,0,0,0,-1,1357,1793,5.58587,-22.4186
140,-769,6.37573,22.442,0,0,0,0,0,0,0,-1,1364,1793,6.37575,-22.442
147,-769,6.19958,22.5649,0,0,0,0,0,0,0,-1,1371,1793,6.19964,-22.565
154,-769,6.37561,1.00024,0,0,0,0,0,0,0,-1,1378,1793,6.37566,-1.00028
161,-769,6.57019,1.53223,0,0,0,0,0,0,0,-1,1385,1793,6.57019,-1.53226
168,-769,8.27637,0.756958,0,0,0,0,0,0,0,-1,1392,1793,8.27639,-0.756944
175,-769,8.47144,2.41174,0,0,0,0,0,0,0,-1,1399,1793,8.47147,-2.4118
182,-769,8.41479,4.05994,0,0,0,0,0,0,0,-1,1406,1793,8.41479,-4.05997
189,-769,8.25049,5.68433,0,0,0,0,0,0,0,-1,1413,1793,8.25054,-5.68428
196,-769,7.97729,7.42847,0,0,0,0,0,0,0,-1,1420,1793,7.9773,-7.42848
203,-769,22.0977,6.73889,0,0,0,0,0,0,0,-1,1427,1793,22.0977,-6.7389
210,-769,22.1115,7.77246,0,0,0,0,0,0,0,-1,1434,1793,22.1115,-7.77248
217,-769,22.4723,8.79102,0,0,0,0,0,0,0,-1,1441,1793,22.4723,-8.79099
224,-769,22.1348,9.35278,0,0,0,0,0,0,0,-1,1448,1793,22.1348,-9.35283
231,-769,3.13318,19.7184,0,0,0,0,0,0,0,-1,1455,1793,3.13323,-19.7184
238,-769,5.74512,18.6597,0,0,0,0,0,0,0,-1,1462,1793,5.74512,-18.6596
245,-769,5.71143,16.2483,0,0,0,0,0,0,0,-1,1469,1793,5.71137,-16.2483
252,-769,4.34961,12.5251,0,0,0,0,0,0,0,-1,1476,1793,4.34959,-12.5252
259,-769,16.4871,7.42102,0,0,0,0,0,0,0,-1,1483,1793,16.4871,-7.42104
266,-769,15.8488,7.3905,0,0,0,0,0,0,0,-1,1490,1793,15.8488,-7.39046
273,-769,14.8075,7.56152,0,0,0,0,0,0,0,-1,1497,1793,14.8075,-7.56152
280,-769,13.6519,7.43054,0,0,0,0,0,0,0,-1,1504,1793,13.6518,-7.43058
287,-769,0,0,0,0,0,0,0,0,0,-1,1511,1793,0,0
294,-769,0,0,0,0,0,0,0,0,0,-1,1518,1793,0,0
301,-769,0,0,0,0,0,0,0,0,0,-1,1525,1793,0,0
308,-769,0,0,0,0,0,0,0,0,0,-1,1532,1793,0,0
315,-769,0,0,0,0,0,0,0,0,0,-1,1539,1793,0,0
322,-769,0,0,0,0,0,0,0,0,0,-1,1546,1793,0,0
329,-769,0,0,0,0,0,0,0,0,0,-1,1553,1793,0,0
336,-769,0,0,0,0,0,0,0,0,0,-1,1560,1793,0,0
343,-769,0,0,0,0,0,0,0,0,0,-1,1567,1793,0,0
350,-769,0,0,0,0,0,0,0,0,0,-1,1574,1793,0,0
357,-769,0,0,0,0,0,0,0,0,0,-1,1581,1793,0,0
364,-769,0,0,0,0,0,0,0,0,0,-1,1588,1793,0,0
371,-769,0,0,0,0,0,0,0,0,0,-1,1595,1793,0,0
378,-769,0,0,0,0,0,0,0,0,0,-1,1602,1793,0,0
385,-769,0,0,0,0,0,0,0,0,0,-1,1609,1793,0,0
392,-769,0,0,0,0,0,0,0,0,0,-1,1616,1793,0,0
399,-769,0,0,0,0,0,0,0,0,0,-1,1623,1793,0,0
406,-769,0,0,0,0,0,0,0,0,0,-1,1630,1793,0,0
413,-769,0,0,0,0,0,0,0,0,0,-1,1637,1793,0,0
420,-769,0,0,0,0,0,0,0,0,0,-1,1644,1793,0,0
427,-769,0,0,0,0,0,0,0,0,0,-1,1651,1793,0,0
434,-769,0,0,0,0,0,0,0,0,0,-1,1658,1793,0,0
441,-769,0,0,0,0,0,0,0,0,0,-1,1665,1793,0,0
448,-769,0,0,0,0,0,0,0,0,0,-1,1672,1793,0,0
455,-769,0,0,0,0,0,0,0,0,0,-1,1679,1793,0,0
462,-769,0,0,0,0,0,0,0,0,0,-1,1686,1793,0,0
469,-769,0,0,0,0,0,0,0,0,0,-1,1693,1793,0,0
476,-769,0,0,0,0,0,0,0,0,0,-1,1700,1793,0,0
483,-769,0,0,0,0,0,0,0,0,0,-1,1707,1793,0,0
490,-769,0,0,0,0,0,0,0,0,0,-1,1714,1793,0,0
497,-769,0,0,0,0,0,0,0,0,0,-1,1721,1793,0,0
504,-769,0,0,0,0,0,0,0,0,0,-1,1728,1793,0,0
511,-769,0,0,0,0,0,0,0,0,0,-1,1735,1793,0,0
518,-769,0,0,0,0,0,0,0,0,0,-1,1742,1793,0,0
525,-769,0,0,0,0,0,0,0,0,0,-1,1749,1793,0,0
532,-769,0,0,0,0,0,0,0,0,0,-1,1756,1793,0,0
539,-769,0,0,0,0,0,0,0,0,0,-1,1763,1793,0,0
546,-769,0,0,0,0,0,0,0,0,0,-1,1770,1793,0,0
553,-769,0,0,0,0,0,0,0,0,0,-1,1777,1793,0,0
560,-769,0,0,0,0,0,0,0,0,0,-1,1784,1793,0,0
567,-769,0,0,0,0,0,0,0,0,0,-1,1791,1793,0,0
574,-769,0,0,0,0,0,0,0,0,0,-1,1798,1793,0,0
581,-769,0,0,0,0,0,0,0,0,0,-1,1805,1793,0,0
588,-769,0,0,0,0,0,0,0,0,0,-1,1812,1793,0,0
595,-769,0,0,0,0,0,0,0,0,0,-1,1819,1793,0,0
602,-769,0,0,0,0,0,0,0,0,0,-1,1826,1793,0,0
609,-769,0,0,0,0,0,0,0,0,0,-1,1833,1793,0,0
616,-769,0,0,0,0,0,0,0,0,0,-1,1840,1793,0,0
623,-769,0,0,0,0,0,0,0,0,0,-1,1847,1793,0,0
630,-769,0,0,0,0,0,0,0,0,0,-1,1854,1793,0,0
637,-769,0,0,0,0,0,0,0,0,0,-1,1861,1793,0,0
644,-769,0,0,0,0,0,0,0,0,0,-1,1868,1793,0,0
651,-769,0,0,0,0,0,0,0,0,0,-1,1875,1793,0,0
658,-769,0,0,0,0,0,0,0,0,0,-1,1882,1793,0,0
665,-769,0,0,0,0,0,0,0,0,0,-1,1889,1793,0,0
672,-769,0,0,0,0,0,0,0,0,0,-1,1896,1793,0,0
679,-769,0,0,0,0,0,0,0,0,0,-1,1903,1793,0,0
686,-769,0,0,0,0,0,0,0,0,0,-1,1910,1793,0,0
693,-769,0,0,0,0,0,0,0,0,0,-1,1917,1793,0,0
700,-769,0,0,0,0,0,0,0,0,0,-1,1924,1793,0,0
707,-769,0,0,0,0,0,0,0,0,0,-1,1931,1793,0,0
714,-769,0,0,0,0,0,0,0,0,0,-1,1938,1793,0,0
721,-769,0,0,0,0,0,0,0,0,0,-1,1945,1793,0,0
728,-769,0,0,0,0,0,0,0,0,0,-1,1952,1793,0,0
735,-769,0,0,0,0,0,0,0,0,0,-1,1959,1793,0,0
742,-769,0,0,0,0,0,0,0,0,0,-1,1966,1793,0,0
749,-769,0,0,0,0,0,0,0,0,0,-1,1973,1793,0,0
756,-769,0,0,0,0,0,0,0,0,0,-1,1980,1793,0,0
763,-769,0,0,0,0,0,0,0,0,0,-1,1987,1793,0,0
770,-769,0,0,0,0,0,0,0,0,0,-1,1994,1793,0,0
777,-769,0,0,0,0,0,0,0,0,0,-1,2001,1793,0,0
784,-769,0,0,0,0,0,0,0,0,0,-1,2008,1793,0,0
791,-769,0,0,0,0,0,0,0,0,0,-1,2015,1793,0,0
798,-769,0,0,0,0,0,0,0,0,0,-1,2022,1793,0,0
805,-769,0,0,0,0,0,0,0,0,0,-1,2029,1793,0,0
812,-769,0,0,0,0,0,0,0,0,0,-1,2036,1793,0,0
-700,-776,0,0,0,0,0,0,0,0,0,-1,524,1800,0,0
-693,-776,0,0,0,0,0,0,0,0,0,-1,531,1800,0,0
-686,-776,0,0,0,0,0,0,0,0,0,-1,538,1800,0,0
-679,-776,0,0,0,0,0,0,0,0,0,-1,545,1800,0,0
-672,-776,0,0,0,0,0,0,0,0,0,-1,552,1800,0,0
-665,-776,0,0,0,0,0,0,0,0,0,-1,559,1800,0,0
-658,-776,0,0,0,0,0,0,0,0,0,-1,566,1800,0,0
-651,-776,0,0,0,0,0,0,0,0,0,-1,573,1800,0,0
-644,-776,0,0,0,0,0,0,0,0,0,-1,580,1800,0,0
-637,-776,0,0,0,0,0,0,0,0,0,-1,587,1800,0,0
-630,-776,0,0,0,0,0,0,0,0,0,-1,594,1800,0,0
-623,-776,0,0,0,0,0,0,0,0,0,-1,601,1800,0,0
-616,-776,0,0,0,0,0,0,0,0,0,-1,608,1800,0,0
-609,-776,0,0,0,0,0,0,0,0,0,-1,615,1800,0,0
-602,-776,0,0,0,0,0,0,0,0,0,-1,622,1800,0,0
-595,-776,0,0,0,0,0,0,0,0,0,-1,629,1800,0,0
-588,-776,0,0,0,0,0,0,0,0,0,-1,636,1800,0,0
-581,-776,0,0,0,0,0,0,0,0,0,-1,643,1800,0,0
-574,-776,0,0,0,0,0,0,0,0,0,-1,650,1800,0,0
-567,-776,0,0,0,0,0,0,0,0,0,-1,657,1800,0,0
-560,-776,0,0,0,0,0,0,0,0,0,-1,664,1800,0,0
-553,-776,0,0,0,0,0,0,0,0,0,-1,671,1800,0,0
-546,-776,0,0,0,0,0,0,0,0,0,-1,678,1800,0,0
-539,-776,0,0,0,0,0,0,0,0,0,-1,685,1800,0,0
-532,-776,0,0,0,0,0,0,0,0,0,-1,692,1800,0,0
-525,-776,0,0,0,0,0,0,0,0,0,-1,699,1800,0,0
-518,-776,0,0,0,0,0,0,0,0,0,-1,706,1800,0,0
-511,-776,0,0,0,0,0,0,0,0,0,-1,713,1800,0,0
-504,-776,0,0,0,0,0,0,0,0,0,-1,720,1800,0,0
-497,-776,0,0,0,0,0,0,0,0,0,-1,727,1800,0,0
-490,-776,0,0,0,0,0,0,0,0,0,-1,734,1800,0,0
-483,-776,0,0,0,0,0,0,0,0,0,-1,741,1800,0,0
-476,-776,0,0,0,0,0,0,0,0,0,-1,748,1800,0,0
-469,-776,0,0,0,0,0,0,0,0,0,-1,755,1800,0,0
-462,-776,0,0,0,0,0,0,0,0,0,-1,762,1800,0,0
-455,-776,0,0,0,0,0,0,0,0,0,-1,769,1800,0,0
-448,-776,0,0,0,0,0,0,0,0,0,-1,776,1800,0,0
-441,-776,0,0,0,0,0,0,0,0,0,-1,783,1800,0,0
-434,-776,0,0,0,0,0,0,0,0,0,-1,790,1800,0,0
-427,-776,0,0,0,0,0,0,0,0,0,-1,797,1800,0,0
-420,-776,0,0,0,0,0,0,0,0,0,-1,804,1800,0,0
-413,-776,0,0,0,0,0,0,0,0,0,-1,811,1800,0,0
-406,-776,0,0,0,0,0,0,0,0,0,-1,818,1800,0,0
-399,-776,0,0,0,0,0,0,0,0,0,-1,825,1800,0,0
-392,-776,0,0,0,0,0,0,0,0,0,-1,832,1800,0,0
-385,-776,0,0,0,0,0,0,0,0,0,-1,839,1800,0,0
-378,-776,0,0,0,0,0,0,0,0,0,-1,846,1800,0,0
-371,-776,0,0,0,0,0,0,0,0,0,-1,853,1800,0,0
-364,-776,0,0,0,0,0,0,0,0,0,-1,860,1800,0,0
-357,-776,0,0,0,0,0,0,0,0,0,-1,867,1800,0,0
-350,-776,0,0,0,0,0,0,0,0,0,-1,874,1800,0,0
-343,-776,0,0,0,0,0,0,0,0,0,-1,881,1800,0,0
-336,-776,0,0,0,0,0,0,0,0,0,-1,888,1800,0,0
-329,-776,0,0,0,0,0,0,0,0,0,-1,895,1800,0,0
-322,-776,0,0,0,0,0,0,0,0,0,-1,902,1800,0,0
-315,-776,0,0,0,0,0,0,0,0,0,-1,909,1800,0,0
-308,-776,0,0,0,0,0,0,0,0,0,-1,916,1800,0,0
-301,-776,0,0,0,0,0,0,0,0,0,-1,923,1800,0,0
-294,-776,0,0,0,0,0,0,0,0,0,-1,930,1800,0,0
-287,-776,0,0,0,0,0,0,0,0,0,-1,937,1800,0,0
-280,-776,0,0,0,0,0,0,0,0,0,-1,944,1800,0,0
-273,-776,0,0,0,0,0,0,0,0,0,-1,951,1800,0,0
-266,-776,0,0,0,0,0,0,0,0,0,-1,958,1800,0,0
-259,-776,0,0,0,0,0,0,0,0,0,-1,965,1800,0,0
-252,-776,0,0,0,0,0,0,0,0,0,-1,972,1800,0,0
-245,-776,0,0,0,0,0,0,0,0,0,-1,979,1800,0,0
-238,-776,0,0,0,0,0,0,0,0,0,-1,986,1800,0,0
-231,-776,0,0,0,0,0,0,0,0,0,-1,993,1800,0,0
-224,-776,0,0,0,0,0,0,0,0,0,-1,1000,1800,0,0
-217,-776,0,0,0,0,0,0,0,0,0,-1,1007,1800,0,0
-210,-776,0,0,0,0,0,0,0,0,0,-1,1014,1800,0,0
-203,-776,0,0,0,0,0,0,0,0,0,-1,1021,1800,0,0
-196,-776,0,0,0,0,0,0,0,0,0,-1,1028,1800,0,0
-189,-776,0,0,0,0,0,0,0,0,0,-1,1035,1800,0,0
-182,-776,0,0,0,0,0,0,0,0,0,-1,1042,1800,0,0
-175,-776,0,0,0,0,0,0,0,0,0,-1,1049,1800,0,0
-168,-776,0,0,0,0,0,0,0,0,0,-1,1056,1800,0,0
-161,-776,0,0,0,0,0,0,0,0,0,-1,1063,1800,0,0
-154,-776,0,0,0,0,0,0,0,0,0,-1,1070,1800,0,0
-147,-776,0,0,0,0,0,0,0,0,0,-1,1077,1800,0,0
-140,-776,2.98499,5.20911,0,0,0,0,0,0,0,-1,1084,1800,2.98493,-5.2091
-133,-776,6.72363,9.35828,0,0,0,0,0,0,0,-1,1091,1800,6.72358,-9.35824
-126,-776,6.55029,13.7832,0,0,0,0,0,0,0,-1,1098,1800,6.55029,-13.7832
-119,-776,5.72107,13.7787,0,0,0,0,0,0,0,-1,1105,1800,5.72106,-13.7787
-112,-776,6.84998,20.4421,0,0,0,0,0,0,0,-1,1112,1800,6.84993,-20.4421
-105,-776,2.15039,19.7095,0,0,0,0,0,0,0,-1,1119,1800,2.1504,-19.7095
-98,-776,5.25793,18.6969,0,0,0,0,0,0,0,-1,1126,1800,5.25788,-18.6969
-91,-776,4.09448,17.8494,0,0,0,0,0,0,0,-1,1133,1800,4.09446,-17.8494
-84,-776,2.95251,13.1073,0,0,0,0,0,0,0,-1,1140,1800,2.95251,-13.1073
-77,-776,0.580078,11.1272,0,0,0,0,0,0,0,-1,1147,1800,0.58002,-11.1272
-70,-776,-0.562866,12.3163,0,0,0,0,0,0,0,-1,1154,1800,-0.562897,-12.3163
-63,-776,-3.96106,9.97656,0,0,0,0,0,0,0,-1,1161,1800,-3.961,-9.97654
-56,-776,-7.35913,7.63672,0,0,0,0,0,0,0,-1,1168,1800,-7.3591,-7.63676
-49,-776,-7.62952,3.1908,0,0,0,0,0,0,0,-1,1175,1800,-7.62955,-3.19076
-42,-776,-3.41272,3.0249,0,0,0,0,0,0,0,-1,1182,1800,-3.41269,-3.02488
-35,-776,-3.71753,1.63635,0,0,0,0,0,0,0,-1,1189,1800,-3.71755,-1.63631
-28,-776,-4.03979,0.716064,0,0,0,0,0,0,0,-1,1196,1800,-4.03977,-0.716055
-21,-776,2.72485,17.3027,0,0,0,0,0,0,0,-1,1203,1800,2.72485,-17.3027
-14,-776,3.58154,23.5521,0,0,0,0,0,0,0,-1,1210,1800,3.5816,-23.5521
-7,-776,4.99414,22.8922,0,0,0,0,0,0,0,-1,1217,1800,4.99414,-22.8922
0,-776,5.18689,22.782,0,0,0,0,0,0,0,-1,1224,1800,5.18684,-22.782
7,-776,5.23975,22.5146,0,0,0,0,0,0,0,-1,1231,1800,5.23975,-22.5147
14,-776,3.60522,24.3179,0.061717,-0.0128464,-0.000813449,0.0617258,-0.0128553,-0.0109078,0.0460379,0.0439671,1238,1800,3.60525,-24.3178
21,-776,4.05688,23.8615,0.0573373,-0.0111836,-0.00417866,0.0575912,-0.0114375,-0.0606839,0.0427201,0.042344,1245,1800,4.05688,-23.8615
28,-776,4.71985,23.2473,0.0536384,-0.00918804,-0.00744555,0.0545087,-0.0100584,-0.116363,0.0401145,0.0430496,1252,1800,4.7198,-23.2473
35,-776,5.29419,22.771,0.0504792,-0.00725705,-0.0104297,0.0523055,-0.00908334,-0.173347,0.0382592,0.0432207,1259,1800,5.29423,-22.771
42,-776,5.86218,22.2678,0.0471369,-0.00510983,-0.0135367,0.0504359,-0.00840877,-0.239044,0.0367489,0.0439329,1266,1800,5.8622,-22.2678
49,-776,5.46887,22.9135,0,0,0,0,0,0,0,-1,1273,1800,5.46882,-22.9134
56,-776,6.14502,22.2601,0,0,0,0,0,0,0,-1,1280,1800,6.14502,-22.2601
63,-776,6.06238,22.4485,0,0,0,0,0,0,0,-1,1287,1800,6.06243,-22.4484
70,-776,5.97986,22.6368,0,0,0,0,0,0,0,-1,1294,1800,5.97985,-22.6368
77,-776,6.06738,22.2506,0,0,0,0,0,0,0,-1,1301,1800,6.06734,-22.2507
84,-776,6.13574,22.1256,0,0,0,0,0,0,0,-1,1308,1800,6.13568,-22.1255
91,-776,6.39905,21.5114,0,0,0,0,0,0,0,-1,1315,1800,6.39907,-21.5113
98,-776,6.74963,21.3107,0,0,0,0,0,0,0,-1,1322,1800,6.74966,-21.3107
105,-776,6.54236,20.9509,0,0,0,0,0,0,0,-1,1329,1800,6.54232,-20.9509
112,-776,4.0155,25.6375,0,0,0,0,0,0,0,-1,1336,1800,4.01548,-25.6375
119,-776,4.81567,24.3262,0.0260503,-0.0205154,-0.029184,0.040101,-0.0345661,-0.4487,0.0431486,0.0469294,1343,1800,4.81569,-24.3261
126,-776,5.66382,22.9979,0.0273779,-0.0245905,-0.0313894,0.0421426,-0.0393552,-0.439666,0.047062,0.0446361,1350,1800,5.66381,-22.998
133,-776,6.56323,21.689,0,0,0,0,0,0,0,-1,1357,1800,6.56322,-21.6889
140,-776,7.37122,20.3981,0,0,0,0,0,0,0,-1,1364,1800,7.37124,-20.3981
147,-776,0.692017,19.6906,0,0,0,0,0,0,0,-1,1371,1800,0.69197,-19.6906
154,-776,6.43774,0.344116,0,0,0,0,0,0,0,-1,1378,1800,6.43776,-0.344162
161,-776,6.50293,1.1731,0,0,0,0,0,0,0,-1,1385,1800,6.5029,-1.17313
168,-776,8.44971,1.22913,0,0,0,0,0,0,0,-1,1392,1800,8.44974,-1.22915
175,-776,8.61523,2.87061,0,0,0,0,0,0,0,-1,1399,1800,8.6152,-2.87063
182,-776,8.54065,4.60645,0,0,0,0,0,0,0,-1,1406,1800,8.5407,-4.60643
189,-776,8.35303,6.28223,0,0,0,0,0,0,0,-1,1413,1800,8.35297,-6.28225
196,-776,8.0387,8.21704,0,0,0,0,0,0,0,-1,1420,1800,8.03865,-8.217
203,-776,7.91736,9.79919,0,0,0,0,0,0,0,-1,1427,1800,7.91735,-9.79922
210,-776,20.2479,7.85718,0,0,0,0,0,0,0,-1,1434,1800,20.248,-7.85719
217,-776,21.5171,9.3418,0,0,0,0,0,0,0,-1,1441,1800,21.5171,-9.34182
224,-776,3.09253,14.9313,0,0,0,0,0,0,0,-1,1448,1800,3.09254,-14.9313
231,-776,20.8671,9.21057,0,0,0,0,0,0,0,-1,1455,1800,20.867,-9.21054
238,-776,20.7511,9.05847,0,0,0,0,0,0,0,-1,1462,1800,20.7511,-9.05848
245,-776,3.80823,15.4108,0,0,0,0,0,0,0,-1,1469,1800,3.80826,-15.4108
252,-776,16.6313,6.47168,0,0,0,0,0,0,0,-1,1476,1800,16.6313,-6.47165
259,-776,14.1882,7.69055,0,0,0,0,0,0,0,-1,1483,1800,14.1882,-7.69061
266,-776,0,0,0,0,0,0,0,0,0,-1,1490,1800,0,0
273,-776,0,0,0,0,0,0,0,0,0,-1,1497,1800,0,0
280,-776,0,0,0,0,0,0,0,0,0,-1,1504,1800,0,0
287,-776,0,0,0,0,0,0,0,0,0,-1,1511,1800,0,0
294,-776,0,0,0,0,0,0,0,0,0,-1,1518,1800,0,0
301,-776,0,0,0,0,0,0,0,0,0,-1,1525,1800,0,0
308,-776,0,0,0,0,0,0,0,0,0,-1,1532,1800,0,0
315,-776,0,0,0,0,0,0,0,0,0,-1,1539,1800,0,0
322,-776,0,0,0,0,0,0,0,0,0,-1,1546,1800,0,0
329,-776,0,0,0,0,0,0,0,0,0,-1,1553,1800,0,0
336,-776,0,0,0,0,0,0,0,0,0,-1,1560,1800,0,0
343,-776,0,0,0,0,0,0,0,0,0,-1,1567,1800,0,0
350,-776,0,0,0,0,0,0,0,0,0,-1,1574,1800,0,0
357,-776,0,0,0,0,0,0,0,0,0,-1,1581,1800,0,0
364,-776,0,0,0,0,0,0,0,0,0,-1,1588,1800,0,0
371,-776,0,0,0,0,0,0,0,0,0,-1,1595,1800,0,0
378,-776,0,0,0,0,0,0,0,0,0,-1,1602,1800,0,0
385,-776,0,0,0,0,0,0,0,0,0,-1,1609,1800,0,0
392,-776,0,0,0,0,0,0,0,0,0,-1,1616,1800,0,0
399,-776,0,0,0,0,0,0,0,0,0,-1,1623,1800,0,0
406,-776,0,0,0,0,0,0,0,0,0,-1,1630,1800,0,0
413,-776,0,0,0,0,0,0,0,0,0,-1,1637,1800,0,0
420,-776,0,0,0,0,0,0,0,0,0,-1,1644,1800,0,0
427,-776,0,0,0,0,0,0,0,0,0,-1,1651,1800,0,0
434,-776,0,0,0,0,0,0,0,0,0,-1,1658,1800,0,0
441,-776,0,0,0,0,0,0,0,0,0,-1,1665,1800,0,0
448,-776,0,0,0,0,0,0,0,0,0,-1,1672,1800,0,0
455,-776,0,0,0,0,0,0,0,0,0,-1,1679,1800,0,0
462,-776,0,0,0,0,0,0,0,0,0,-1,1686,1800,0,0
469,-776,0,0,0,0,0,0,0,0,0,-1,1693,1800,0,0
476,-776,0,0,0,0,0,0,0,0,0,-1,1700,1800,0,0
483,-776,0,0,0,0,0,0,0,0,0,-1,1707,1800,0,0
490,-776,0,0,0,0,0,0,0,0,0,-1,1714,1800,0,0
497,-776,0,0,0,0,0,0,0,0,0,-1,1721,1800,0,0
504,-776,0,0,0,0,0,0,0,0,0,-1,1728,1800,0,0
511,-776,0,0,0,0,0,0,0,0,0,-1,1735,1800,0,0
518,-776,0,0,0,0,0,0,0,0,0,-1,1742,1800,0,0
525,-776,0,0,0,0,0,0,0,0,0,-1,1749,1800,0,0
532,-776,0,0,0,0,0,0,0,0,0,-1,1756,1800,0,0
539,-776,0,0,0,0,0,0,0,0,0,-1,1763,1800,0,0
546,-776,0,0,0,0,0,0,0,0,0,-1,1770,1800,0,0
553,-776,0,0,0,0,0,0,0,0,0,-1,1777,1800,0,0
560,-776,0,0,0,0,0,0,0,0,0,-1,1784,1800,0,0
567,-776,0,0,0,0,0,0,0,0,0,-1,1791,1800,0,0
574,-776,0,0,0,0,0,0,0,0,0,-1,1798,1800,0,0
581,-776,0,0,0,0,0,0,0,0,0,-1,1805,1800,0,0
588,-776,0,0,0,0,0,0,0,0,0,-1,1812,1800,0,0
595,-776,0,0,0,0,0,0,0,0,0,-1,1819,1800,0,0
602,-776,0,0,0,0,0,0,0,0,0,-1,1826,1800,0,0
609,-776,0,0,0,0,0,0,0,0,0,-1,1833,1800,0,0
616,-776,0,0,0,0,0,0,0,0,0,-1,1840,1800,0,0
623,-776,0,0,0,0,0,0,0,0,0,-1,1847,1800,0,0
630,-776,0,0,0,0,0,0,0,0,0,-1,1854,1800,0,0
637,-776,0,0,0,0,0,0,0,0,0,-1,1861,1800,0,0
644,-776,0,0,0,0,0,0,0,0,0,-1,1868,1800,0,0
651,-776,0,0,0,0,0,0,0,0,0,-1,1875,1800,0,0
658,-776,0,0,0,0,0,0,0,0,0,-1,1882,1800,0,0
665,-776,0,0,0,0,0,0,0,0,0,-1,1889,1800,0,0
672,-776,0,0,0,0,0,0,0,0,0,-1,1896,1800,0,0
679,-776,0,0,0,0,0,0,0,0,0,-1,1903,1800,0,0
686,-776,0,0,0,0,0,0,0,0,0,-1,1910,1800,0,0
693,-776,0,0,0,0,0,0,0,0,0,-1,1917,1800,0,0
700,-776,0,0,0,0,0,0,0,0,0,-1,1924,1800,0,0
707,-776,0,0,0,0,0,0,0,0,0,-1,1931,1800,0,0
714,-776,0,0,0,0,0,0,0,0,0,-1,1938,1800,0,0
721,-776,0,0,0,0,0,0,0,0,0,-1,1945,1800,0,0
728,-776,0,0,0,0,0,0,0,0,0,-1,1952,1800,0,0
735,-776,0,0,0,0,0,0,0,0,0,-1,1959,1800,0,0
742,-776,0,0,0,0,0,0,0,0,0,-1,1966,1800,0,0
749,-776,0,0,0,0,0,0,0,0,0,-1,1973,1800,0,0
756,-776,0,0,0,0,0,0,0,0,0,-1,1980,1800,0,0
763,-776,0,0,0,0,0,0,0,0,0,-1,1987,1800,0,0
770,-776,0,0,0,0,0,0,0,0,0,-1,1994,1800,0,0
777,-776,0,0,0,0,0,0,0,0,0,-1,2001,1800,0,0
784,-776,0,0,0,0,0,0,0,0,0,-1,2008,1800,0,0
791,-776,0,0,0,0,0,0,0,0,0,-1,2015,1800,0,0
798,-776,0,0,0,0,0,0,0,0,0,-1,2022,1800,0,0
805,-776,0,0,0,0,0,0,0,0,0,-1,2029,1800,0,0
812,-776,0,0,0,0,0,0,0,0,0,-1,2036,1800,0,0
-700,-783,0,0,0,0,0,0,0,0,0,-1,524,1807,0,0
-693,-783,0,0,0,0,0,0,0,0,0,-1,531,1807,0,0
-686,-783,0,0,0,0,0,0,0,0,0,-1,538,1807,0,0
-679,-783,0,0,0,0,0,0,0,0,0,-1,545,1807,0,0
-672,-783,0,0,0,0,0,0,0,0,0,-1,552,1807,0,0
-665,-783,0,0,0,0,0,0,0,0,0,-1,559,1807,0,0
-658,-783,0,0,0,0,0,0,0,0,0,-1,566,1807,0,0
-651,-783,0,0,0,0,0,0,0,0,0,-1,573,1807,0,0
-644,-783,0,0,0,0,0,0,0,0,0,-1,580,1807,0,0
-637,-783,0,0,0,0,0,0,0,0,0,-1,587,1807,0,0
-630,-783,0,0,0,0,0,0,0,0,0,-1,594,1807,0,0
-623,-783,0,0,0,0,0,0,0,0,0,-1,601,1807,0,0
-616,-783,0,0,0,0,0,0,0,0,0,-1,608,1807,0,0
-609,-783,0,0,0,0,0,0,0,0,0,-1,615,1807,0,0
-602,-783,0,0,0,0,0,0,0,0,0,-1,622,1807,0,0
-595,-783,0,0,0,0,0,0,0,0,0,-1,629,1807,0,0
-588,-783,0,0,0,0,0,0,0,0,0,-1,636,1807,0,0
-581,-783,0,0,0,0,0,0,0,0,0,-1,643,1807,0,0
-574,-783,0,0,0,0,0,0,0,0,0,-1,650,1807,0,0
-567,-783,0,0,0,0,0,0,0,0,0,-1,657,1807,0,0
-560,-783,0,0,0,0,0,0,0,0,0,-1,664,1807,0,0
-553,-783,0,0,0,0,0,0,0,0,0,-1,671,1807,0,0
-546,-783,0,0,0,0,0,0,0,0,0,-1,678,1807,0,0
-539,-783,0,0,0,0,0,0,0,0,0,-1,685,1807,0,0
-532,-783,0,0,0,0,0,0,0,0,0,-1,692,1807,0,0
-525,-783,0,0,0,0,0,0,0,0,0,-1,699,1807,0,0
-518,-783,0,0,0,0,0,0,0,0,0,-1,706,1807,0,0
-511,-783,0,0,0,0,0,0,0,0,0,-1,713,1807,0,0
-504,-783,0,0,0,0,0,0,0,0,0,-1,720,1807,0,0
-497,-783,0,0,0,0,0,0,0,0,0,-1,727,1807,0,0
-490,-783,0,0,0,0,0,0,0,0,0,-1,734,1807,0,0
-483,-783,0,0,0,0,0,0,0,0,0,-1,741,1807,0,0
-476,-783,0,0,0,0,0,0,0,0,0,-1,748,1807,0,0
-469,-783,0,0,0,0,0,0,0,0,0,-1,755,1807,0,0
-462,-783,0,0,0,0,0,0,0,0,0,-1,762,1807,0,0
-455,-783,0,0,0,0,0,0,0,0,0,-1,769,1807,0,0
-448,-783,0,0,0,0,0,0,0,0,0,-1,776,1807,0,0
-441,-783,0,0,0,0,0,0,0,0,0,-1,783,1807,0,0
-434,-783,0,0,0,0,0,0,0,0,0,-1,790,1807,0,0
-427,-783,0,0,0,0,0,0,0,0,0,-1,797,1807,0,0
-420,-783,0,0,0,0,0,0,0,0,0,-1,804,1807,0,0
-413,-783,0,0,0,0,0,0,0,0,0,-1,811,1807,0,0
-406,-783,0,0,0,0,0,0,0,0,0,-1,818,1807,0,0
-399,-783,0,0,0,0,0,0,0,0,0,-1,825,1807,0,0
-392,-783,0,0,0,0,0,0,0,0,0,-1,832,1807,0,0
-385,-783,0,0,0,0,0,0,0,0,0,-1,839,1807,0,0
-378,-783,0,0,0,0,0,0,0,0,0,-1,846,1807,0,0
-371,-783,0,0,0,0,0,0,0,0,0,-1,853,1807,0,0
-364,-783,0,0,0,0,0,0,0,0,0,-1,860,1807,0,0
-357,-783,0,0,0,0,0,0,0,0,0,-1,867,1807,0,0
-350,-783,0,0,0,0,0,0,0,0,0,-1,874,1807,0,0
-343,-783,0,0,0,0,0,0,0,0,0,-1,881,1807,0,0
-336,-783,0,0,0,0,0,0,0,0,0,-1,888,1807,0,0
-329,-783,0,0,0,0,0,0,0,0,0,-1,895,1807,0,0
-322,-783,0,0,0,0,0,0,0,0,0,-1,902,1807,0,0
-315,-783,0,0,0,0,0,0,0,0,0,-1,909,1807,0,0
-308,-783,0,0,0,0,0,0,0,0,0,-1,916,1807,0,0
-301,-783,0,0,0,0,0,0,0,0,0,-1,923,1807,0,0
-294,-783,0,0,0,0,0,0,0,0,0,-1,930,1807,0,0
-287,-783,0,0,0,0,0,0,0,0,0,-1,937,1807,0,0
-280,-783,0,0,0,0,0,0,0,0,0,-1,944,1807,0,0
-273,-783,0,0,0,0,0,0,0,0,0,-1,951,1807,0,0
-266,-783,0,0,0,0,0,0,0,0,0,-1,958,1807,0,0
-259,-783,0,0,0,0,0,0,0,0,0,-1,965,1807,0,0
-252,-783,0,0,0,0,0,0,0,0,0,-1,972,1807,0,0
-245,-783,0,0,0,0,0,0,0,0,0,-1,979,1807,0,0
-238,-783,0,0,0,0,0,0,0,0,0,-1,986,1807,0,0
-231,-783,0,0,0,0,0,0,0,0,0,-1,993,1807,0,0
-224,-783,0,0,0,0,0,0,0,0,0,-1,1000,1807,0,0
-217,-783,0,0,0,0,0,0,0,0,0,-1,1007,1807,0,0
-210,-783,0,0,0,0,0,0,0,0,0,-1,1014,1807,0,0
-203,-783,0,0,0,0,0,0,0,0,0,-1,1021,1807,0,0
-196,-783,0,0,0,0,0,0,0,0,0,-1,1028,1807,0,0
-189,-783,0,0,0,0,0,0,0,0,0,-1,1035,1807,0,0
-182,-783,0,0,0,0,0,0,0,0,0,-1,1042,1807,0,0
-175,-783,0,0,0,0,0,0,0,0,0,-1,1049,1807,0,0
-168,-783,0,0,0,0,0,0,0,0,0,-1,1056,1807,0,0
-161,-783,0,0,0,0,0,0,0,0,0,-1,1063,1807,0,0
-154,-783,0,0,0,0,0,0,0,0,0,-1,1070,1807,0,0
-147,-783,0,0,0,0,0,0,0,0,0,-1,1077,1807,0,0
-140,-783,0,0,0,0,0,0,0,0,0,-1,1084,1807,0,0
-133,-783,0,0,0,0,0,0,0,0,0,-1,1091,1807,0,0
-126,-783,0,0,0,0,0,0,0,0,0,-1,1098,1807,0,0
-119,-783,0,0,0,0,0,0,0,0,0,-1,1105,1807,0,0
-112,-783,5.33936,14.7699,0,0,0,0,0,0,0,-1,1112,1807,5.33931,-14.7699
-105,-783,6.44263,21.2224,0,0,0,0,0,0,0,-1,1119,1807,6.44263,-21.2224
-98,-783,5.54773,20.5695,0,0,0,0,0,0,0,-1,1126,1807,5.54772,-20.5695
-91,-783,2.78186,14.2633,0,0,0,0,0,0,0,-1,1133,1807,2.78186,-14.2633
-84,-783,-0.0491943,14.5743,0,0,0,0,0,0,0,-1,1140,1807,-0.0491562,-14.5743
-77,-783,0.332764,12.7788,0,0,0,0,0,0,0,-1,1147,1807,0.332743,-12.7788
-70,-783,-1.93176,5.12817,0,0,0,0,0,0,0,-1,1154,1807,-1.93171,-5.12813
-63,-783,-5.31702,10.54,0,0,0,0,0,0,0,-1,1161,1807,-5.31703,-10.54
-56,-783,-6.26135,6.9679,0,0,0,0,0,0,0,-1,1168,1807,-6.26136,-6.96785
-49,-783,-3.17688,4.59705,0,0,0,0,0,0,0,-1,1175,1807,-3.17685,-4.5971
-42,-783,-3.72876,3.1405,0,0,0,0,0,0,0,-1,1182,1807,-3.72874,-3.14055
-35,-783,-3.97046,1.59399,0,0,0,0,0,0,0,-1,1189,1807,-3.97041,-1.59401
-28,-783,-4.12195,0.270386,0,0,0,0,0,0,0,-1,1196,1807,-4.12197,-0.270408
-21,-783,3.02087,23.9353,0,0,0,0,0,0,0,-1,1203,1807,3.02082,-23.9353
-14,-783,3.66724,23.8383,0.114444,-0.0166778,0.0129234,0.115706,-0.0179394,0.097312,0.08376,0.0452337,1210,1807,3.66721,-23.8383
-7,-783,4.31445,23.4897,0.104138,-0.0178987,0.00981153,0.104922,-0.0186825,0.0797156,0.0769355,0.0468323,1217,1807,4.3144,-23.4898
0,-783,5.06055,23.2378,0.0950279,-0.0176086,0.00553153,0.0952989,-0.0178796,0.0489525,0.070255,0.0462305,1224,1807,5.06055,-23.2377
7,-783,5.68945,23.3085,0,0,0,0,0,0,0,-1,1231,1807,5.68949,-23.3084
14,-783,3.57629,23.9149,0,0,0,0,0,0,0,-1,1238,1807,3.57635,-23.9149
21,-783,4.14355,23.5244,0.0738383,-0.0139468,-0.00729629,0.0744406,-0.0145491,-0.0823622,0.0551206,0.049947,1245,1807,4.14358,-23.5245
28,-783,4.75635,23.1569,0.0687674,-0.0118753,-0.0112966,0.0703199,-0.0134279,-0.136581,0.0519378,0.0479703,1252,1807,4.75636,-23.1569
35,-783,5.32056,22.769,0.0645001,-0.00985528,-0.0148699,0.0673636,-0.0127188,-0.19024,0.0496942,0.0471568,1259,1807,5.32058,-22.769
42,-783,5.92981,22.2069,0.0601982,-0.00772532,-0.0185015,0.0649108,-0.0124379,-0.249412,0.0479605,0.0452482,1266,1807,5.92975,-22.2069
49,-783,6.09192,21.6246,0,0,0,0,0,0,0,-1,1273,1807,6.09194,-21.6246
56,-783,5.5575,21.6246,0,0,0,0,0,0,0,-1,1280,1807,5.55751,-21.6246
63,-783,6.20593,22.2189,0,0,0,0,0,0,0,-1,1287,1807,6.20592,-22.2188
70,-783,5.27637,21.3348,0,0,0,0,0,0,0,-1,1294,1807,5.27633,-21.3349
77,-783,-3.047,27.1527,0,0,0,0,0,0,0,-1,1301,1807,-3.04694,-27.1528
84,-783,-3.67456,28.5562,0,0,0,0,0,0,0,-1,1308,1807,-3.67458,-28.5561
91,-783,6.80518,20.8999,0,0,0,0,0,0,0,-1,1315,1807,6.80522,-20.8999
98,-783,-3.48425,31.7728,0,0,0,0,0,0,0,-1,1322,1807,-3.48422,-31.7729
105,-783,4.30652,22.4915,0,0,0,0,0,0,0,-1,1329,1807,4.30647,-22.4914
112,-783,3.36365,23.1644,0,0,0,0,0,0,0,-1,1336,1807,3.36368,-23.1645
119,-783,5.27185,24.6313,0,0,0,0,0,0,0,-1,1343,1807,5.27182,-24.6313
126,-783,6.03589,23.29,0,0,0,0,0,0,0,-1,1350,1807,6.03584,-23.2901
133,-783,6.83972,21.9795,0,0,0,0,0,0,0,-1,1357,1807,6.83975,-21.9795
140,-783,0.687622,20.7561,0,0,0,0,0,0,0,-1,1364,1807,0.687569,-20.7562
147,-783,-0.104248,19.9227,0,0,0,0,0,0,0,-1,1371,1807,-0.104237,-19.9227
154,-783,6.37024,-0.145874,0,0,0,0,0,0,0,-1,1378,1807,6.37018,0.145866
161,-783,6.57568,1.16174,0,0,0,0,0,0,0,-1,1385,1807,6.57562,-1.1617
168,-783,8.62561,1.79944,0,0,0,0,0,0,0,-1,1392,1807,8.62561,-1.79946
175,-783,8.78699,3.40857,0,0,0,0,0,0,0,-1,1399,1807,8.78697,-3.40854
182,-783,8.70984,5.14661,0,0,0,0,0,0,0,-1,1406,1807,8.70989,-5.14666
189,-783,8.55762,6.79871,0,0,0,0,0,0,0,-1,1413,1807,8.55766,-6.79872
196,-783,8.25488,8.66626,0,0,0,0,0,0,0,-1,1420,1807,8.25492,-8.66628
203,-783,7.86755,10.5735,0,0,0,0,0,0,0,-1,1427,1807,7.8676,-10.5734
210,-783,5.6969,8.99231,0,0,0,0,0,0,0,-1,1434,1807,5.69693,-8.99234
217,-783,5.28503,3.80872,0,0,0,0,0,0,0,-1,1441,1807,5.285,-3.80868
224,-783,3.22571,6.62903,0,0,0,0,0,0,0,-1,1448,1807,3.2257,-6.62907
231,-783,4.27942,4.56262,0,0,0,0,0,0,0,-1,1455,1807,4.27948,-4.56267
238,-783,0,0,0,0,0,0,0,0,0,-1,1462,1807,0,0
245,-783,0,0,0,0,0,0,0,0,0,-1,1469,1807,0,0
252,-783,0,0,0,0,0,0,0,0,0,-1,1476,1807,0,0
259,-783,0,0,0,0,0,0,0,0,0,-1,1483,1807,0,0
266,-783,0,0,0,0,0,0,0,0,0,-1,1490,1807,0,0
273,-783,0,0,0,0,0,0,0,0,0,-1,1497,1807,0,0
280,-783,0,0,0,0,0,0,0,0,0,-1,1504,1807,0,0
287,-783,0,0,0,0,0,0,0,0,0,-1,1511,1807,0,0
294,-783,0,0,0,0,0,0,0,0,0,-1,1518,1807,0,0
301,-783,0,0,0,0,0,0,0,0,0,-1,1525,1807,0,0
308,-783,0,0,0,0,0,0,0,0,0,-1,1532,1807,0,0
315,-783,0,0,0,0,0,0,0,0,0,-1,1539,1807,0,0
322,-783,0,0,0,0,0,0,0,0,0,-1,1546,1807,0,0
329,-783,0,0,0,0,0,0,0,0,0,-1,1553,1807,0,0
336,-783,0,0,0,0,0,0,0,0,0,-1,1560,1807,0,0
343,-783,0,0,0,0,0,0,0,0,0,-1,1567,1807,0,0
350,-783,0,0,0,0,0,0,0,0,0,-1,1574,1807,0,0
357,-783,0,0,0,0,0,0,0,0,0,-1,1581,1807,0,0
364,-783,0,0,0,0,0,0,0,0,0,-1,1588,1807,0,0
371,-783,0,0,0,0,0,0,0,0,0,-1,1595,1807,0,0
378,-783,0,0,0,0,0,0,0,0,0,-1,1602,1807,0,0
385,-783,0,0,0,0,0,0,0,0,0,-1,1609,1807,0,0
392,-783,0,0,0,0,0,0,0,0,0,-1,1616,1807,0,0
399,-783,0,0,0,0,0,0,0,0,0,-1,1623,1807,0,0
406,-783,0,0,0,0,0,0,0,0,0,-1,1630,1807,0,0
413,-783,0,0,0,0,0,0,0,0,0,-1,1637,1807,0,0
420,-783,0,0,0,0,0,0,0,0,0,-1,1644,1807,0,0
427,-783,0,0,0,0,0,0,0,0,0,-1,1651,1807,0,0
434,-783,0,0,0,0,0,0,0,0,0,-1,1658,1807,0,0
441,-783,0,0,0,0,0,0,0,0,0,-1,1665,1807,0,0
448,-783,0,0,0,0,0,0,0,0,0,-1,1672,1807,0,0
455,-783,0,0,0,0,0,0,0,0,0,-1,1679,1807,0,0
462,-783,0,0,0,0,0,0,0,0,0,-1,1686,1807,0,0
469,-783,0,0,0,0,0,0,0,0,0,-1,1693,1807,0,0
476,-783,0,0,0,0,0,0,0,0,0,-1,1700,1807,0,0
483,-783,0,0,0,0,0,0,0,0,0,-1,1707,1807,0,0
490,-783,0,0,0,0,0,0,0,0,0,-1,1714,1807,0,0
497,-783,0,0,0,0,0,0,0,0,0,-1,1721,1807,0,0
504,-783,0,0,0,0,0,0,0,0,0,-1,1728,1807,0,0
511,-783,0,0,0,0,0,0,0,0,0,-1,1735,1807,0,0
518,-783,0,0,0,0,0,0,0,0,0,-1,1742,1807,0,0
525,-783,0,0,0,0,0,0,0,0,0,-1,1749,1807,0,0
532,-783,0,0,0,0,0,0,0,0,0,-1,1756,1807,0,0
539,-783,0,0,0,0,0,0,0,0,0,-1,1763,1807,0,0
546,-783,0,0,0,0,0,0,0,0,0,-1,1770,1807,0,0
553,-783,0,0,0,0,0,0,0,0,0,-1,1777,1807,0,0
560,-783,0,0,0,0,0,0,0,0,0,-1,1784,1807,0,0
567,-783,0,0,0,0,0,0,0,0,0,-1,1791,1807,0,0
574,-783,0,0,0,0,0,0,0,0,0,-1,1798,1807,0,0
581,-783,0,0,0,0,0,0,0,0,0,-1,1805,1807,0,0
588,-783,0,0,0,0,0,0,0,0,0,-1,1812,1807,0,0
595,-783,0,0,0,0,0,0,0,0,0,-1,1819,1807,0,0
602,-783,0,0,0,0,0,0,0,0,0,-1,1826,1807,0,0
609,-783,0,0,0,0,0,0,0,0,0,-1,1833,1807,0,0
616,-783,0,0,0,0,0,0,0,0,0,-1,1840,1807,0,0
623,-783,0,0,0,0,0,0,0,0,0,-1,1847,1807,0,0
630,-783,0,0,0,0,0,0,0,0,0,-1,1854,1807,0,0
637,-783,0,0,0,0,0,0,0,0,0,-1,1861,1807,0,0
644,-783,0,0,0,0,0,0,0,0,0,-1,1868,1807,0,0
651,-783,0,0,0,0,0,0,0,0,0,-1,1875,1807,0,0
658,-783,0,0,0,0,0,0,0,0,0,-1,1882,1807,0,0
665,-783,0,0,0,0,0,0,0,0,0,-1,1889,1807,0,0
672,-783,0,0,0,0,0,0,0,0,0,-1,1896,1807,0,0
679,-783,0,0,0,0,0,0,0,0,0,-1,1903,1807,0,0
686,-783,0,0,0,0,0,0,0,0,0,-1,1910,1807,0,0
693,-783,0,0,0,0,0,0,0,0,0,-1,1917,1807,0,0
700,-783,0,0,0,0,0,0,0,0,0,-1,1924,1807,0,0
707,-783,0,0,0,0,0,0,0,0,0,-1,1931,1807,0,0
714,-783,0,0,0,0,0,0,0,0,0,-1,1938,1807,0,0
721,-783,0,0,0,0,0,0,0,0,0,-1,1945,1807,0,0
728,-783,0,0,0,0,0,0,0,0,0,-1,1952,1807,0,0
735,-783,0,0,0,0,0,0,0,0,0,-1,1959,1807,0,0
742,-783,0,0,0,0,0,0,0,0,0,-1,1966,1807,0,0
749,-783,0,0,0,0,0,0,0,0,0,-1,1973,1807,0,0
756,-783,0,0,0,0,0,0,0,0,0,-1,1980,1807,0,0
763,-783,0,0,0,0,0,0,0,0,0,-1,1987,1807,0,0
770,-783,0,0,0,0,0,0,0,0,0,-1,1994,1807,0,0
777,-783,0,0,0,0,0,0,0,0,0,-1,2001,1807,0,0
784,-783,0,0,0,0,0,0,0,0,0,-1,2008,1807,0,0
791,-783,0,0,0,0,0,0,0,0,0,-1,2015,1807,0,0
798,-783,0,0,0,0,0,0,0,0,0,-1,2022,1807,0,0
805,-783,0,0,0,0,0,0,0,0,0,-1,2029,1807,0,0
812,-783,0,0,0,0,0,0,0,0,0,-1,2036,1807,0,0
-700,-790,0,0,0,0,0,0,0,0,0,-1,524,1814,0,0
-693,-790,0,0,0,0,0,0,0,0,0,-1,531,1814,0,0
-686,-790,0,0,0,0,0,0,0,0,0,-1,538,1814,0,0
-679,-790,0,0,0,0,0,0,0,0,0,-1,545,1814,0,0
-672,-790,0,0,0,0,0,0,0,0,0,-1,552,1814,0,0
-665,-790,0,0,0,0,0,0,0,0,0,-1,559,1814,0,0
-658,-790,0,0,0,0,0,0,0,0,0,-1,566,1814,0,0
-651,-790,0,0,0,0,0,0,0,0,0,-1,573,1814,0,0
-644,-790,0,0,0,0,0,0,0,0,0,-1,580,1814,0,0
-637,-790,0,0,0,0,0,0,0,0,0,-1,587,1814,0,0
-630,-790,0,0,0,0,0,0,0,0,0,-1,594,1814,0,0
-623,-790,0,0,0,0,0,0,0,0,0,-1,601,1814,0,0
-616,-790,0,0,0,0,0,0,0,0,0,-1,608,1814,0,0
-609,-790,0,0,0,0,0,0,0,0,0,-1,615,1814,0,0
-602,-790,0,0,0,0,0,0,0,0,0,-1,622,1814,0,0
-595,-790,0,0,0,0,0,0,0,0,0,-1,629,1814,0,0
-588,-790,0,0,0,0,0,0,0,0,0,-1,636,1814,0,0
-581,-790,0,0,0,0,0,0,0,0,0,-1,643,1814,0,0
-574,-790,0,0,0,0,0,0,0,0,0,-1,650,1814,0,0
-567,-790,0,0,0,0,0,0,0,0,0,-1,657,1814,0,0
-560,-790,0,0,0,0,0,0,0,0,0,-1,664,1814,0,0
-553,-790,0,0,0,0,0,0,0,0,0,-1,671,1814,0,0
-546,-790,0,0,0,0,0,0,0,0,0,-1,678,1814,0,0
-539,-790,0,0,0,0,0,0,0,0,0,-1,685,1814,0,0
-532,-790,0,0,0,0,0,0,0,0,0,-1,692,1814,0,0
-525,-790,0,0,0,0,0,0,0,0,0,-1,699,1814,0,0
-518,-790,0,0,0,0,0,0,0,0,0,-1,706,1814,0,0
-511,-790,0,0,0,0,0,0,0,0,0,-1,713,1814,0,0
-504,-790,0,0,0,0,0,0,0,0,0,-1,720,1814,0,0
-497,-790,0,0,0,0,0,0,0,0,0,-1,727,1814,0,0
-490,-790,0,0,0,0,0,0,0,0,0,-1,734,1814,0,0
-483,-790,0,0,0,0,0,0,0,0,0,-1,741,1814,0,0
-476,-790,0,0,0,0,0,0,0,0,0,-1,748,1814,0,0
-469,-790,0,0,0,0,0,0,0,0,0,-1,755,1814,0,0
-462,-790,0,0,0,0,0,0,0,0,0,-1,762,1814,0,0
-455,-790,0,0,0,0,0,0,0,0,0,-1,769,1814,0,0
-448,-790,0,0,0,0,0,0,0,0,0,-1,776,1814,0,0
-441,-790,0,0,0,0,0,0,0,0,0,-1,783,1814,0,0
-434,-790,0,0,0,0,0,0,0,0,0,-1,790,1814,0,0
-427,-790,0,0,0,0,0,0,0,0,0,-1,797,1814,0,0
-420,-790,0,0,0,0,0,0,0,0,0,-1,804,1814,0,0
-413,-790,0,0,0,0,0,0,0,0,0,-1,811,1814,0,0
-406,-790,0,0,0,0,0,0,0,0,0,-1,818,1814,0,0
-399,-790,0,0,0,0,0,0,0,0,0,-1,825,1814,0,0
-392,-790,0,0,0,0,0,0,0,0,0,-1,832,1814,0,0
-385,-790,0,0,0,0,0,0,0,0,0,-1,839,1814,0,0
-378,-790,0,0,0,0,0,0,0,0,0,-1,846,1814,0,0
-371,-790,0,0,0,0,0,0,0,0,0,-1,853,1814,0,0
-364,-790,0,0,0,0,0,0,0,0,0,-1,860,1814,0,0
-357,-790,0,0,0,0,0,0,0,0,0,-1,867,1814,0,0
-350,-790,0,0,0,0,0,0,0,0,0,-1,874,1814,0,0
-343,-790,0,0,0,0,0,0,0,0,0,-1,881,1814,0,0
-336,-790,0,0,0,0,0,0,0,0,0,-1,888,1814,0,0
-329,-790,0,0,0,0,0,0,0,0,0,-1,895,1814,0,0
-322,-790,0,0,0,0,0,0,0,0,0,-1,902,1814,0,0
-315,-790,0,0,0,0,0,0,0,0,0,-1,909,1814,0,0
-308,-790,0,0,0,0,0,0,0,0,0,-1,916,1814,0,0
-301,-790,0,0,0,0,0,0,0,0,0,-1,923,1814,0,0
-294,-790,0,0,0,0,0,0,0,0,0,-1,930,1814,0,0
-287,-790,0,0,0,0,0,0,0,0,0,-1,937,1814,0,0
-280,-790,0,0,0,0,0,0,0,0,0,-1,944,1814,0,0
-273,-790,0,0,0,0,0,0,0,0,0,-1,951,1814,0,0
-266,-790,0,0,0,0,0,0,0,0,0,-1,958,1814,0,0
-259,-790,0,0,0,0,0,0,0,0,0,-1,965,1814,0,0
-252,-790,0,0,0,0,0,0,0,0,0,-1,972,1814,0,0
-245,-790,0,0,0,0,0,0,0,0,0,-1,979,1814,0,0
-238,-790,0,0,0,0,0,0,0,0,0,-1,986,1814,0,0
-231,-790,0,0,0,0,0,0,0,0,0,-1,993,1814,0,0
-224,-790,0,0,0,0,0,0,0,0,0,-1,1000,1814,0,0
-217,-790,0,0,0,0,0,0,0,0,0,-1,1007,1814,0,0
-210,-790,0,0,0,0,0,0,0,0,0,-1,1014,1814,0,0
-203,-790,0,0,0,0,0,0,0,0,0,-1,1021,1814,0,0
-196,-790,0,0,0,0,0,0,0,0,0,-1,1028,1814,0,0
-189,-790,0,0,0,0,0,0,0,0,0,-1,1035,1814,0,0
-182,-790,0,0,0,0,0,0,0,0,0,-1,1042,1814,0,0
-175,-790,0,0,0,0,0,0,0,0,0,-1,1049,1814,0,0
-168,-790,0,0,0,0,0,0,0,0,0,-1,1056,1814,0,0
-161,-790,0,0,0,0,0,0,0,0,0,-1,1063,1814,0,0
-154,-790,0,0,0,0,0,0,0,0,0,-1,1070,1814,0,0
-147,-790,0,0,0,0,0,0,0,0,0,-1,1077,1814,0,0
-140,-790,0,0,0,0,0,0,0,0,0,-1,1084,1814,0,0
-133,-790,0,0,0,0,0,0,0,0,0,-1,1091,1814,0,0
-126,-790,0,0,0,0,0,0,0,0,0,-1,1098,1814,0,0
-119,-790,0,0,0,0,0,0,0,0,0,-1,1105,1814,0,0
-112,-790,0,0,0,0,0,0,0,0,0,-1,1112,1814,0,0
-105,-790,0,0,0,0,0,0,0,0,0,-1,1119,1814,0,0
-98,-790,0,0,0,0,0,0,0,0,0,-1,1126,1814,0,0
-91,-790,0,0,0,0,0,0,0,0,0,-1,1133,1814,0,0
-84,-790,0,0,0,0,0,0,0,0,0,-1,1140,1814,0,0
-77,-790,-0.969238,5.30847,0,0,0,0,0,0,0,-1,1147,1814,-0.969277,-5.3085
-70,-790,-1.23169,4.98914,0,0,0,0,0,0,0,-1,1154,1814,-1.23163,-4.98916
-63,-790,-1.69128,4.32263,0,0,0,0,0,0,0,-1,1161,1814,-1.69128,-4.32258
-56,-790,-2.24756,3.75305,0,0,0,0,0,0,0,-1,1168,1814,-2.24758,-3.75302
-49,-790,-3.11011,3.35779,0,0,0,0,0,0,0,-1,1175,1814,-3.11006,-3.35781
-42,-790,0.593262,1.19165,0,0,0,0,0,0,0,-1,1182,1814,0.593225,-1.19165
-35,-790,0.307129,-0.20105,0,0,0,0,0,0,0,-1,1189,1814,0.307178,0.201006
-28,-790,-2.78467,0.785156,0,0,0,0,0,0,0,-1,1196,1814,-2.78471,-0.785183
-21,-790,2.48096,23.9725,0,0,0,0,0,0,0,-1,1203,1814,2.48092,-23.9726
-14,-790,3.3927,23.9366,0.144927,-0.0183535,0.0152682,0.146343,-0.0197689,0.0924412,0.104775,0.0451962,1210,1814,3.39264,-23.9367
-7,-790,4.27258,23.8286,0.13193,-0.0201418,0.0105357,0.132656,-0.0208682,0.0688426,0.0961514,0.0456433,1217,1814,4.27257,-23.8286
0,-790,4.97437,23.6757,0.120301,-0.0199356,0.0046124,0.120452,-0.0200871,0.0328429,0.0877668,0.0455525,1224,1814,4.97433,-23.6757
7,-790,3.02222,24.4127,0,0,0,0,0,0,0,-1,1231,1814,3.02219,-24.4127
14,-790,3.63062,23.9679,0,0,0,0,0,0,0,-1,1238,1814,3.63056,-23.9679
21,-790,4.21802,23.5048,0.0922026,-0.0167648,-0.0113578,0.0933739,-0.017936,-0.102759,0.0690093,0.0486606,1245,1814,4.21806,-23.5047
28,-790,4.8374,23.137,0.0853522,-0.0148448,-0.0160509,0.0878607,-0.0173533,-0.155027,0.0651334,0.0477932,1252,1814,4.83741,-23.137
35,-790,5.38159,22.7819,0.0796536,-0.0129402,-0.0201226,0.0838376,-0.0171242,-0.205004,0.0623881,0.0489319,1259,1814,5.38154,-22.7818
42,-790,5.94482,22.4194,0.0741138,-0.0110862,-0.0241746,0.0804952,-0.0174676,-0.258082,0.0603348,0.0455315,1266,1814,5.94481,-22.4194
49,-790,6.48596,22.0535,0.0700791,-0.00836587,-0.0265553,0.0782231,-0.0165099,-0.297576,0.0584347,0.0471914,1273,1814,6.48597,-22.0534
56,-790,7.15039,21.6255,0,0,0,0,0,0,0,-1,1280,1814,7.15039,-21.6255
63,-790,8.43689,20.6261,0,0,0,0,0,0,0,-1,1287,1814,8.43692,-20.6261
70,-790,9.24121,20.1195,0,0,0,0,0,0,0,-1,1294,1814,9.24124,-20.1195
77,-790,-2.72192,27.7194,0,0,0,0,0,0,0,-1,1301,1814,-2.72191,-27.7194
84,-790,-3.27405,28.9789,0,0,0,0,0,0,0,-1,1308,1814,-3.27407,-28.9789
91,-790,-3.91809,30.3235,0,0,0,0,0,0,0,-1,1315,1814,-3.91813,-30.3234
98,-790,2.4425,25.3036,0,0,0,0,0,0,0,-1,1322,1814,2.44248,-25.3036
105,-790,2.51184,24.4602,0,0,0,0,0,0,0,-1,1329,1814,2.51186,-24.4602
112,-790,3.09204,26.7474,0,0,0,0,0,0,0,-1,1336,1814,3.09201,-26.7475
119,-790,4.80176,25.1755,0,0,0,0,0,0,0,-1,1343,1814,4.80173,-25.1755
126,-790,6.57043,23.6776,0,0,0,0,0,0,0,-1,1350,1814,6.57041,-23.6777
133,-790,8.54175,21.9899,0,0,0,0,0,0,0,-1,1357,1814,8.54179,-21.9899
140,-790,10.8209,20.0881,0,0,0,0,0,0,0,-1,1364,1814,10.8209,-20.0881
147,-790,2.77625,26.0901,0,0,0,0,0,0,0,-1,1371,1814,2.77628,-26.09
154,-790,6.34485,-0.540405,0,0,0,0,0,0,0,-1,1378,1814,6.34482,0.540409
161,-790,6.62683,1.1134,0,0,0,0,0,0,0,-1,1385,1814,6.62682,-1.11344
168,-790,7.04077,2.23279,0,0,0,0,0,0,0,-1,1392,1814,7.04082,-2.23275
175,-790,9.03918,3.98535,0,0,0,0,0,0,0,-1,1399,1814,9.0392,-3.98535
182,-790,8.96997,5.67896,0,0,0,0,0,0,0,-1,1406,1814,8.97001,-5.6789
189,-790,8.59729,6.86975,0,0,0,0,0,0,0,-1,1413,1814,8.59728,-6.86972
196,-790,8.21924,9.29053,0,0,0,0,0,0,0,-1,1420,1814,8.21924,-9.29048
203,-790,0,0,0,0,0,0,0,0,0,-1,1427,1814,0,0
210,-790,0,0,0,0,0,0,0,0,0,-1,1434,1814,0,0
217,-790,0,0,0,0,0,0,0,0,0,-1,1441,1814,0,0
224,-790,0,0,0,0,0,0,0,0,0,-1,1448,1814,0,0
231,-790,0,0,0,0,0,0,0,0,0,-1,1455,1814,0,0
238,-790,0,0,0,0,0,0,0,0,0,-1,1462,1814,0,0
245,-790,0,0,0,0,0,0,0,0,0,-1,1469,1814,0,0
252,-790,0,0,0,0,0,0,0,0,0,-1,1476,1814,0,0
259,-790,0,0,0,0,0,0,0,0,0,-1,1483,1814,0,0
266,-790,0,0,0,0,0,0,0,0,0,-1,1490,1814,0,0
273,-790,0,0,0,0,0,0,0,0,0,-1,1497,1814,0,0
280,-790,0,0,0,0,0,0,0,0,0,-1,1504,1814,0,0
287,-790,0,0,0,0,0,0,0,0,0,-1,1511,1814,0,0
294,-790,0,0,0,0,0,0,0,0,0,-1,1518,1814,0,0
301,-790,0,0,0,0,0,0,0,0,0,-1,1525,1814,0,0
308,-790,0,0,0,0,0,0,0,0,0,-1,1532,1814,0,0
315,-790,0,0,0,0,0,0,0,0,0,-1,1539,1814,0,0
322,-790,0,0,0,0,0,0,0,0,0,-1,1546,1814,0,0
329,-790,0,0,0,0,0,0,0,0,0,-1,1553,1814,0,0
336,-790,0,0,0,0,0,0,0,0,0,-1,1560,1814,0,0
343,-790,0,0,0,0,0,0,0,0,0,-1,1567,1814,0,0
350,-790,0,0,0,0,0,0,0,0,0,-1,1574,1814,0,0
357,-790,0,0,0,0,0,0,0,0,0,-1,1581,1814,0,0
364,-790,0,0,0,0,0,0,0,0,0,-1,1588,1814,0,0
371,-790,0,0,0,0,0,0,0,0,0,-1,1595,1814,0,0
378,-790,0,0,0,0,0,0,0,0,0,-1,1602,1814,0,0
385,-790,0,0,0,0,0,0,0,0,0,-1,1609,1814,0,0
392,-790,0,0,0,0,0,0,0,0,0,-1,1616,1814,0,0
399,-790,0,0,0,0,0,0,0,0,0,-1,1623,1814,0,0
406,-790,0,0,0,0,0,0,0,0,0,-1,1630,1814,0,0
413,-790,0,0,0,0,0,0,0,0,0,-1,1637,1814,0,0
420,-790,0,0,0,0,0,0,0,0,0,-1,1644,1814,0,0
427,-790,0,0,0,0,0,0,0,0,0,-1,1651,1814,0,0
434,-790,0,0,0,0,0,0,0,0,0,-1,1658,1814,0,0
441,-790,0,0,0,0,0,0,0,0,0,-1,1665,1814,0,0
448,-790,0,0,0,0,0,0,0,0,0,-1,1672,1814,0,0
455,-790,0,0,0,0,0,0,0,0,0,-1,1679,1814,0,0
462,-790,0,0,0,0,0,0,0,0,0,-1,1686,1814,0,0
469,-790,0,0,0,0,0,0,0,0,0,-1,1693,1814,0,0
476,-790,0,0,0,0,0,0,0,0,0,-1,1700,1814,0,0
483,-790,0,0,0,0,0,0,0,0,0,-1,1707,1814,0,0
490,-790,0,0,0,0,0,0,0,0,0,-1,1714,1814,0,0
497,-790,0,0,0,0,0,0,0,0,0,-1,1721,1814,0,0
504,-790,0,0,0,0,0,0,0,0,0,-1,1728,1814,0,0
511,-790,0,0,0,0,0,0,0,0,0,-1,1735,1814,0,0
518,-790,0,0,0,0,0,0,0,0,0,-1,1742,1814,0,0
525,-790,0,0,0,0,0,0,0,0,0,-1,1749,1814,0,0
532,-790,0,0,0,0,0,0,0,0,0,-1,1756,1814,0,0
539,-790,0,0,0,0,0,0,0,0,0,-1,1763,1814,0,0
546,-790,0,0,0,0,0,0,0,0,0,-1,1770,1814,0,0
553,-790,0,0,0,0,0,0,0,0,0,-1,1777,1814,0,0
560,-790,0,0,0,0,0,0,0,0,0,-1,1784,1814,0,0
567,-790,0,0,0,0,0,0,0,0,0,-1,1791,1814,0,0
574,-790,0,0,0,0,0,0,0,0,0,-1,1798,1814,0,0
581,-790,0,0,0,0,0,0,0,0,0,-1,1805,1814,0,0
588,-790,0,0,0,0,0,0,0,0,0,-1,1812,1814,0,0
595,-790,0,0,0,0,0,0,0,0,0,-1,1819,1814,0,0
602,-790,0,0,0,0,0,0,0,0,0,-1,1826,1814,0,0
609,-790,0,0,0,0,0,0,0,0,0,-1,1833,1814,0,0
616,-790,0,0,0,0,0,0,0,0,0,-1,1840,1814,0,0
623,-790,0,0,0,0,0,0,0,0,0,-1,1847,1814,0,0
630,-790,0,0,0,0,0,0,0,0,0,-1,1854,1814,0,0
637,-790,0,0,0,0,0,0,0,0,0,-1,1861,1814,0,0
644,-790,0,0,0,0,0,0,0,0,0,-1,1868,1814,0,0
651,-790,0,0,0,0,0,0,0,0,0,-1,1875,1814,0,0
658,-790,0,0,0,0,0,0,0,0,0,-1,1882,1814,0,0
665,-790,0,0,0,0,0,0,0,0,0,-1,1889,1814,0,0
672,-790,0,0,0,0,0,0,0,0,0,-1,1896,1814,0,0
679,-790,0,0,0,0,0,0,0,0,0,-1,1903,1814,0,0
686,-790,0,0,0,0,0,0,0,0,0,-1,1910,1814,0,0
693,-790,0,0,0,0,0,0,0,0,0,-1,1917,1814,0,0
700,-790,0,0,0,0,0,0,0,0,0,-1,1924,1814,0,0
707,-790,0,0,0,0,0,0,0,0,0,-1,1931,1814,0,0
714,-790,0,0,0,0,0,0,0,0,0,-1,1938,1814,0,0
721,-790,0,0,0,0,0,0,0,0,0,-1,1945,1814,0,0
728,-790,0,0,0,0,0,0,0,0,0,-1,1952,1814,0,0
735,-790,0,0,0,0,0,0,0,0,0,-1,1959,1814,0,0
742,-790,0,0,0,0,0,0,0,0,0,-1,1966,1814,0,0
749,-790,0,0,0,0,0,0,0,0,0,-1,1973,1814,0,0
756,-790,0,0,0,0,0,0,0,0,0,-1,1980,1814,0,0
763,-790,0,0,0,0,0,0,0,0,0,-1,1987,1814,0,0
770,-790,0,0,0,0,0,0,0,0,0,-1,1994,1814,0,0
777,-790,0,0,0,0,0,0,0,0,0,-1,2001,1814,0,0
784,-790,0,0,0,0,0,0,0,0,0,-1,2008,1814,0,0
791,-790,0,0,0,0,0,0,0,0,0,-1,2015,1814,0,0
798,-790,0,0,0,0,0,0,0,0,0,-1,2022,1814,0,0
805,-790,0,0,0,0,0,0,0,0,0,-1,2029,1814,0,0
812,-790,0,0,0,0,0,0,0,0,0,-1,2036,1814,0,0
-700,-797,0,0,0,0,0,0,0,0,0,-1,524,1821,0,0
-693,-797,0,0,0,0,0,0,0,0,0,-1,531,1821,0,0
-686,-797,0,0,0,0,0,0,0,0,0,-1,538,1821,0,0
-679,-797,0,0,0,0,0,0,0,0,0,-1,545,1821,0,0
-672,-797,0,0,0,0,0,0,0,0,0,-1,552,1821,0,0
-665,-797,0,0,0,0,0,0,0,0,0,-1,559,1821,0,0
-658,-797,0,0,0,0,0,0,0,0,0,-1,566,1821,0,0
-651,-797,0,0,0,0,0,0,0,0,0,-1,573,1821,0,0
-644,-797,0,0,0,0,0,0,0,0,0,-1,580,1821,0,0
-637,-797,0,0,0,0,0,0,0,0,0,-1,587,1821,0,0
-630,-797,0,0,0,0,0,0,0,0,0,-1,594,1821,0,0
-623,-797,0,0,0,0,0,0,0,0,0,-1,601,1821,0,0
-616,-797,0,0,0,0,0,0,0,0,0,-1,608,1821,0,0
-609,-797,0,0,0,0,0,0,0,0,0,-1,615,1821,0,0
-602,-797,0,0,0,0,0,0,0,0,0,-1,622,1821,0,0
-595,-797,0,0,0,0,0,0,0,0,0,-1,629,1821,0,0
-588,-797,0,0,0,0,0,0,0,0,0,-1,636,1821,0,0
-581,-797,0,0,0,0,0,0,0,0,0,-1,643,1821,0,0
-574,-797,0,0,0,0,0,0,0,0,0,-1,650,1821,0,0
-567,-797,0,0,0,0,0,0,0,0,0,-1,657,1821,0,0
-560,-797,0,0,0,0,0,0,0,0,0,-1,664,1821,0,0
-553,-797,0,0,0,0,0,0,0,0,0,-1,671,1821,0,0
-546,-797,0,0,0,0,0,0,0,0,0,-1,678,1821,0,0
-539,-797,0,0,0,0,0,0,0,0,0,-1,685,1821,0,0
-532,-797,0,0,0,0,0,0,0,0,0,-1,692,1821,0,0
-525,-797,0,0,0,0,0,0,0,0,0,-1,699,1821,0,0
-518,-797,0,0,0,0,0,0,0,0,0,-1,706,1821,0,0
-511,-797,0,0,0,0,0,0,0,0,0,-1,713,1821,0,0
-504,-797,0,0,0,0,0,0,0,0,0,-1,720,1821,0,0
-497,-797,0,0,0,0,0,0,0,0,0,-1,727,1821,0,0
-490,-797,0,0,0,0,0,0,0,0,0,-1,734,1821,0,0
-483,-797,0,0,0,0,0,0,0,0,0,-1,741,1821,0,0
-476,-797,0,0,0,0,0,0,0,0,0,-1,748,1821,0,0
-469,-797,0,0,0,0,0,0,0,0,0,-1,755,1821,0,0
-462,-797,0,0,0,0,0,0,0,0,0,-1,762,1821,0,0
-455,-797,0,0,0,0,0,0,0,0,0,-1,769,1821,0,0
-448,-797,0,0,0,0,0,0,0,0,0,-1,776,1821,0,0
-441,-797,0,0,0,0,0,0,0,0,0,-1,783,1821,0,0
-434,-797,0,0,0,0,0,0,0,0,0,-1,790,1821,0,0
-427,-797,0,0,0,0,0,0,0,0,0,-1,797,1821,0,0
-420,-797,0,0,0,0,0,0,0,0,0,-1,804,1821,0,0
-413,-797,0,0,0,0,0,0,0,0,0,-1,811,1821,0,0
-406,-797,0,0,0,0,0,0,0,0,0,-1,818,1821,0,0
-399,-797,0,0,0,0,0,0,0,0,0,-1,825,1821,0,0
-392,-797,0,0,0,0,0,0,0,0,0,-1,832,1821,0,0
-385,-797,0,0,0,0,0,0,0,0,0,-1,839,1821,0,0
-378,-797,0,0,0,0,0,0,0,0,0,-1,846,1821,0,0
-371,-797,0,0,0,0,0,0,0,0,0,-1,853,1821,0,0
-364,-797,0,0,0,0,0,0,0,0,0,-1,860,1821,0,0
-357,-797,0,0,0,0,0,0,0,0,0,-1,867,1821,0,0
-350,-797,0,0,0,0,0,0,0,0,0,-1,874,1821,0,0
-343,-797,0,0,0,0,0,0,0,0,0,-1,881,1821,0,0
-336,-797,0,0,0,0,0,0,0,0,0,-1,888,1821,0,0
-329,-797,0,0,0,0,0,0,0,0,0,-1,895,1821,0,0
-322,-797,0,0,0,0,0,0,0,0,0,-1,902,1821,0,0
-315,-797,0,0,0,0,0,0,0,0,0,-1,909,1821,0,0
-308,-797,0,0,0,0,0,0,0,0,0,-1,916,1821,0,0
-301,-797,0,0,0,0,0,0,0,0,0,-1,923,1821,0,0
-294,-797,0,0,0,0,0,0,0,0,0,-1,930,1821,0,0
-287,-797,0,0,0,0,0,0,0,0,0,-1,937,1821,0,0
-280,-797,0,0,0,0,0,0,0,0,0,-1,944,1821,0,0
-273,-797,0,0,0,0,0,0,0,0,0,-1,951,1821,0,0
-266,-797,0,0,0,0,0,0,0,0,0,-1,958,1821,0,0
-259,-797,0,0,0,0,0,0,0,0,0,-1,965,1821,0,0
-252,-797,0,0,0,0,0,0,0,0,0,-1,972,1821,0,0
-245,-797,0,0,0,0,0,0,0,0,0,-1,979,1821,0,0
-238,-797,0,0,0,0,0,0,0,0,0,-1,986,1821,0,0
-231,-797,0,0,0,0,0,0,0,0,0,-1,993,1821,0,0
-224,-797,0,0,0,0,0,0,0,0,0,-1,1000,1821,0,0
-217,-797,0,0,0,0,0,0,0,0,0,-1,1007,1821,0,0
-210,-797,0,0,0,0,0,0,0,0,0,-1,1014,1821,0,0
-203,-797,0,0,0,0,0,0,0,0,0,-1,1021,1821,0,0
-196,-797,0,0,0,0,0,0,0,0,0,-1,1028,1821,0,0
-189,-797,0,0,0,0,0,0,0,0,0,-1,1035,1821,0,0
-182,-797,0,0,0,0,0,0,0,0,0,-1,1042,1821,0,0
-175,-797,0,0,0,0,0,0,0,0,0,-1,1049,1821,0,0
-168,-797,0,0,0,0,0,0,0,0,0,-1,1056,1821,0,0
-161,-797,0,0,0,0,0,0,0,0,0,-1,1063,1821,0,0
-154,-797,0,0,0,0,0,0,0,0,0,-1,1070,1821,0,0
-147,-797,0,0,0,0,0,0,0,0,0,-1,1077,1821,0,0
-140,-797,0,0,0,0,0,0,0,0,0,-1,1084,1821,0,0
-133,-797,0,0,0,0,0,0,0,0,0,-1,1091,1821,0,0
-126,-797,0,0,0,0,0,0,0,0,0,-1,1098,1821,0,0
-119,-797,0,0,0,0,0,0,0,0,0,-1,1105,1821,0,0
-112,-797,0,0,0,0,0,0,0,0,0,-1,1112,1821,0,0
-105,-797,0,0,0,0,0,0,0,0,0,-1,1119,1821,0,0
-98,-797,0,0,0,0,0,0,0,0,0,-1,1126,1821,0,0
-91,-797,0,0,0,0,0,0,0,0,0,-1,1133,1821,0,0
-84,-797,0,0,0,0,0,0,0,0,0,-1,1140,1821,0,0
-77,-797,0,0,0,0,0,0,0,0,0,-1,1147,1821,0,0
-70,-797,0,0,0,0,0,0,0,0,0,-1,1154,1821,0,0
-63,-797,0,0,0,0,0,0,0,0,0,-1,1161,1821,0,0
-56,-797,0,0,0,0,0,0,0,0,0,-1,1168,1821,0,0
-49,-797,0,0,0,0,0,0,0,0,0,-1,1175,1821,0,0
-42,-797,0.579834,0.692871,0,0,0,0,0,0,0,-1,1182,1821,0.579856,-0.692816
-35,-797,-0.185425,5.55396,0,0,0,0,0,0,0,-1,1189,1821,-0.18542,-5.55396
-28,-797,-0.310181,4.71509,0,0,0,0,0,0,0,-1,1196,1821,-0.310228,-4.71503
-21,-797,1.67358,23.8325,0,0,0,0,0,0,0,-1,1203,1821,1.67354,-23.8325
-14,-797,2.83398,23.67,0.179106,-0.0189109,0.0163012,0.180439,-0.0202439,0.0815906,0.127577,0.0467874,1210,1821,2.83402,-23.6701
-7,-797,4.42957,24.0787,0.163007,-0.0210936,0.00960046,0.163507,-0.0215929,0.0519599,0.116869,0.0489155,1217,1821,4.42955,-24.0788
0,-797,4.96655,24.0062,0,0,0,0,0,0,0,-1,1224,1821,4.96652,-24.0062
7,-797,6.83411,23.4623,0,0,0,0,0,0,0,-1,1231,1821,6.83412,-23.4623
14,-797,3.72778,23.9523,0,0,0,0,0,0,0,-1,1238,1821,3.72778,-23.9522
21,-797,4.51611,23.4889,0.111883,-0.0193701,-0.0165291,0.113933,-0.0214197,-0.123367,0.0840101,0.046514,1245,1821,4.5161,-23.4888
28,-797,4.76953,23.1587,0.102788,-0.0179489,-0.0217392,0.106583,-0.0217439,-0.172825,0.0793032,0.0419857,1252,1821,4.76949,-23.1587
35,-797,5.39307,22.8474,0,0,0,0,0,0,0,-1,1259,1821,5.39312,-22.8474
42,-797,6.10571,22.5859,0.0881748,-0.0152772,-0.0303916,0.0964423,-0.0235448,-0.265607,0.0734127,0.0483325,1266,1821,6.10565,-22.586
49,-797,6.71082,22.2372,0.0833211,-0.0128024,-0.0326203,0.0933456,-0.0228269,-0.298149,0.071072,0.0477036,1273,1821,6.71082,-22.2372
56,-797,7.50745,21.7274,0.0807546,-0.0110801,-0.0339212,0.0919253,-0.0222508,-0.318129,0.0698913,0.046981,1280,1821,7.50743,-21.7275
63,-797,8.51904,20.9287,0,0,0,0,0,0,0,-1,1287,1821,8.51901,-20.9287
70,-797,9.28113,20.4027,0,0,0,0,0,0,0,-1,1294,1821,9.28119,-20.4027
77,-797,-2.43787,28.4353,0,0,0,0,0,0,0,-1,1301,1821,-2.43786,-28.4352
84,-797,-2.78601,29.1244,0,0,0,0,0,0,0,-1,1308,1821,-2.78603,-29.1244
91,-797,1.4856,26.0869,0,0,0,0,0,0,0,-1,1315,1821,1.48556,-26.0869
98,-797,1.60449,25.458,0,0,0,0,0,0,0,-1,1322,1821,1.6045,-25.458
105,-797,1.70618,24.7753,0,0,0,0,0,0,0,-1,1329,1821,1.70618,-24.7753
112,-797,1.83667,24.1033,0,0,0,0,0,0,0,-1,1336,1821,1.83671,-24.1033
119,-797,5.13525,25.3949,0,0,0,0,0,0,0,-1,1343,1821,5.13525,-25.395
126,-797,7.22119,23.7849,0,0,0,0,0,0,0,-1,1350,1821,7.22114,-23.7849
133,-797,9.4552,21.9813,0,0,0,0,0,0,0,-1,1357,1821,9.4552,-21.9813
140,-797,11.77,20.1493,0,0,0,0,0,0,0,-1,1364,1821,11.7701,-20.1493
147,-797,13.8749,18.3562,0,0,0,0,0,0,0,-1,1371,1821,13.8748,-18.3562
154,-797,14.49,10.5256,0,0,0,0,0,0,0,-1,1378,1821,14.49,-10.5256
161,-797,6.79199,1.12952,0,0,0,0,0,0,0,-1,1385,1821,6.79203,-1.12957
168,-797,0,0,0,0,0,0,0,0,0,-1,1392,1821,0,0
175,-797,0,0,0,0,0,0,0,0,0,-1,1399,1821,0,0
182,-797,0,0,0,0,0,0,0,0,0,-1,1406,1821,0,0
189,-797,0,0,0,0,0,0,0,0,0,-1,1413,1821,0,0
196,-797,0,0,0,0,0,0,0,0,0,-1,1420,1821,0,0
203,-797,0,0,0,0,0,0,0,0,0,-1,1427,1821,0,0
210,-797,0,0,0,0,0,0,0,0,0,-1,1434,1821,0,0
217,-797,0,0,0,0,0,0,0,0,0,-1,1441,1821,0,0
224,-797,0,0,0,0,0,0,0,0,0,-1,1448,1821,0,0
231,-797,0,0,0,0,0,0,0,0,0,-1,1455,1821,0,0
238,-797,0,0,0,0,0,0,0,0,0,-1,1462,1821,0,0
245,-797,0,0,0,0,0,0,0,0,0,-1,1469,1821,0,0
252,-797,0,0,0,0,0,0,0,0,0,-1,1476,1821,0,0
259,-797,0,0,0,0,0,0,0,0,0,-1,1483,1821,0,0
266,-797,0,0,0,0,0,0,0,0,0,-1,1490,1821,0,0
273,-797,0,0,0,0,0,0,0,0,0,-1,1497,1821,0,0
280,-797,0,0,0,0,0,0,0,0,0,-1,1504,1821,0,0
287,-797,0,0,0,0,0,0,0,0,0,-1,1511,1821,0,0
294,-797,0,0,0,0,0,0,0,0,0,-1,1518,1821,0,0
301,-797,0,0,0,0,0,0,0,0,0,-1,1525,1821,0,0
308,-797,0,0,0,0,0,0,0,0,0,-1,1532,1821,0,0
315,-797,0,0,0,0,0,0,0,0,0,-1,1539,1821,0,0
322,-797,0,0,0,0,0,0,0,0,0,-1,1546,1821,0,0
329,-797,0,0,0,0,0,0,0,0,0,-1,1553,1821,0,0
336,-797,0,0,0,0,0,0,0,0,0,-1,1560,1821,0,0
343,-797,0,0,0,0,0,0,0,0,0,-1,1567,1821,0,0
350,-797,0,0,0,0,0,0,0,0,0,-1,1574,1821,0,0
357,-797,0,0,0,0,0,0,0,0,0,-1,1581,1821,0,0
364,-797,0,0,0,0,0,0,0,0,0,-1,1588,1821,0,0
371,-797,0,0,0,0,0,0,0,0,0,-1,1595,1821,0,0
378,-797,0,0,0,0,0,0,0,0,0,-1,1602,1821,0,0
385,-797,0,0,0,0,0,0,0,0,0,-1,1609,1821,0,0
392,-797,0,0,0,0,0,0,0,0,0,-1,1616,1821,0,0
399,-797,0,0,0,0,0,0,0,0,0,-1,1623,1821,0,0
406,-797,0,0,0,0,0,0,0,0,0,-1,1630,1821,0,0
413,-797,0,0,0,0,0,0,0,0,0,-1,1637,1821,0,0
420,-797,0,0,0,0,0,0,0,0,0,-1,1644,1821,0,0
427,-797,0,0,0,0,0,0,0,0,0,-1,1651,1821,0,0
434,-797,0,0,0,0,0,0,0,0,0,-1,1658,1821,0,0
441,-797,0,0,0,0,0,0,0,0,0,-1,1665,1821,0,0
448,-797,0,0,0,0,0,0,0,0,0,-1,1672,1821,0,0
455,-797,0,0,0,0,0,0,0,0,0,-1,1679,1821,0,0
462,-797,0,0,0,0,0,0,0,0,0,-1,1686,1821,0,0
469,-797,0,0,0,0,0,0,0,0,0,-1,1693,1821,0,0
476,-797,0,0,0,0,0,0,0,0,0,-1,1700,1821,0,0
483,-797,0,0,0,0,0,0,0,0,0,-1,1707,1821,0,0
490,-797,0,0,0,0,0,0,0,0,0,-1,1714,1821,0,0
497,-797,0,0,0,0,0,0,0,0,0,-1,1721,1821,0,0
504,-797,0,0,0,0,0,0,0,0,0,-1,1728,1821,0,0
511,-797,0,0,0,0,0,0,0,0,0,-1,1735,1821,0,0
518,-797,0,0,0,0,0,0,0,0,0,-1,1742,1821,0,0
525,-797,0,0,0,0,0,0,0,0,0,-1,1749,1821,0,0
532,-797,0,0,0,0,0,0,0,0,0,-1,1756,1821,0,0
539,-797,0,0,0,0,0,0,0,0,0,-1,1763,1821,0,0
546,-797,0,0,0,0,0,0,0,0,0,-1,1770,1821,0,0
553,-797,0,0,0,0,0,0,0,0,0,-1,1777,1821,0,0
560,-797,0,0,0,0,0,0,0,0,0,-1,1784,1821,0,0
567,-797,0,0,0,0,0,0,0,0,0,-1,1791,1821,0,0
574,-797,0,0,0,0,0,0,0,0,0,-1,1798,1821,0,0
581,-797,0,0,0,0,0,0,0,0,0,-1,1805,1821,0,0
588,-797,0,0,0,0,0,0,0,0,0,-1,1812,1821,0,0
595,-797,0,0,0,0,0,0,0,0,0,-1,1819,1821,0,0
602,-797,0,0,0,0,0,0,0,0,0,-1,1826,1821,0,0
609,-797,0,0,0,0,0,0,0,0,0,-1,1833,1821,0,0
616,-797,0,0,0,0,0,0,0,0,0,-1,1840,1821,0,0
623,-797,0,0,0,0,0,0,0,0,0,-1,1847,1821,0,0
630,-797,0,0,0,0,0,0,0,0,0,-1,1854,1821,0,0
637,-797,0,0,0,0,0,0,0,0,0,-1,1861,1821,0,0
644,-797,0,0,0,0,0,0,0,0,0,-1,1868,1821,0,0
651,-797,0,0,0,0,0,0,0,0,0,-1,1875,1821,0,0
658,-797,0,0,0,0,0,0,0,0,0,-1,1882,1821,0,0
665,-797,0,0,0,0,0,0,0,0,0,-1,1889,1821,0,0
672,-797,0,0,0,0,0,0,0,0,0,-1,1896,1821,0,0
679,-797,0,0,0,0,0,0,0,0,0,-1,1903,1821,0,0
686,-797,0,0,0,0,0,0,0,0,0,-1,1910,1821,0,0
693,-797,0,0,0,0,0,0,0,0,0,-1,1917,1821,0,0
700,-797,0,0,0,0,0,0,0,0,0,-1,1924,1821,0,0
707,-797,0,0,0,0,0,0,0,0,0,-1,1931,1821,0,0
714,-797,0,0,0,0,0,0,0,0,0,-1,1938,1821,0,0
721,-797,0,0,0,0,0,0,0,0,0,-1,1945,1821,0,0
728,-797,0,0,0,0,0,0,0,0,0,-1,1952,1821,0,0
735,-797,0,0,0,0,0,0,0,0,0,-1,1959,1821,0,0
742,-797,0,0,0,0,0,0,0,0,0,-1,1966,1821,0,0
749,-797,0,0,0,0,0,0,0,0,0,-1,1973,1821,0,0
756,-797,0,0,0,0,0,0,0,0,0,-1,1980,1821,0,0
763,-797,0,0,0,0,0,0,0,0,0,-1,1987,1821,0,0
770,-797,0,0,0,0,0,0,0,0,0,-1,1994,1821,0,0
777,-797,0,0,0,0,0,0,0,0,0,-1,2001,1821,0,0
784,-797,0,0,0,0,0,0,0,0,0,-1,2008,1821,0,0
791,-797,0,0,0,0,0,0,0,0,0,-1,2015,1821,0,0
798,-797,0,0,0,0,0,0,0,0,0,-1,2022,1821,0,0
805,-797,0,0,0,0,0,0,0,0,0,-1,2029,1821,0,0
812,-797,0,0,0,0,0,0,0,0,0,-1,2036,1821,0,0
-700,-804,0,0,0,0,0,0,0,0,0,-1,524,1828,0,0
-693,-804,0,0,0,0,0,0,0,0,0,-1,531,1828,0,0
-686,-804,0,0,0,0,0,0,0,0,0,-1,538,1828,0,0
-679,-804,0,0,0,0,0,0,0,0,0,-1,545,1828,0,0
-672,-804,0,0,0,0,0,0,0,0,0,-1,552,1828,0,0
-665,-804,0,0,0,0,0,0,0,0,0,-1,559,1828,0,0
-658,-804,0,0,0,0,0,0,0,0,0,-1,566,1828,0,0
-651,-804,0,0,0,0,0,0,0,0,0,-1,573,1828,0,0
-644,-804,0,0,0,0,0,0,0,0,0,-1,580,1828,0,0
-637,-804,0,0,0,0,0,0,0,0,0,-1,587,1828,0,0
-630,-804,0,0,0,0,0,0,0,0,0,-1,594,1828,0,0
-623,-804,0,0,0,0,0,0,0,0,0,-1,601,1828,0,0
-616,-804,0,0,0,0,0,0,0,0,0,-1,608,1828,0,0
-609,-804,0,0,0,0,0,0,0,0,0,-1,615,1828,0,0
-602,-804,0,0,0,0,0,0,0,0,0,-1,622,1828,0,0
-595,-804,0,0,0,0,0,0,0,0,0,-1,629,1828,0,0
-588,-804,0,0,0,0,0,0,0,0,0,-1,636,1828,0,0
-581,-804,0,0,0,0,0,0,0,0,0,-1,643,1828,0,0
-574,-804,0,0,0,0,0,0,0,0,0,-1,650,1828,0,0
-567,-804,0,0,0,0,0,0,0,0,0,-1,657,1828,0,0
-560,-804,0,0,0,0,0,0,0,0,0,-1,664,1828,0,0
-553,-804,0,0,0,0,0,0,0,0,0,-1,671,1828,0,0
-546,-804,0,0,0,0,0,0,0,0,0,-1,678,1828,0,0
-539,-804,0,0,0,0,0,0,0,0,0,-1,685,1828,0,0
-532,-804,0,0,0,0,0,0,0,0,0,-1,692,1828,0,0
-525,-804,0,0,0,0,0,0,0,0,0,-1,699,1828,0,0
-518,-804,0,0,0,0,0,0,0,0,0,-1,706,1828,0,0
-511,-804,0,0,0,0,0,0,0,0,0,-1,713,1828,0,0
-504,-804,0,0,0,0,0,0,0,0,0,-1,720,1828,0,0
-497,-804,0,0,0,0,0,0,0,0,0,-1,727,1828,0,0
-490,-804,0,0,0,0,0,0,0,0,0,-1,734,1828,0,0
-483,-804,0,0,0,0,0,0,0,0,0,-1,741,1828,0,0
-476,-804,0,0,0,0,0,0,0,0,0,-1,748,1828,0,0
-469,-804,0,0,0,0,0,0,0,0,0,-1,755,1828,0,0
-462,-804,0,0,0,0,0,0,0,0,0,-1,762,1828,0,0
-455,-804,0,0,0,0,0,0,0,0,0,-1,769,1828,0,0
-448,-804,0,0,0,0,0,0,0,0,0,-1,776,1828,0,0
-441,-804,0,0,0,0,0,0,0,0,0,-1,783,1828,0,0
-434,-804,0,0,0,0,0,0,0,0,0,-1,790,1828,0,0
-427,-804,0,0,0,0,0,0,0,0,0,-1,797,1828,0,0
-420,-804,0,0,0,0,0,0,0,0,0,-1,804,1828,0,0
-413,-804,0,0,0,0,0,0,0,0,0,-1,811,1828,0,0
-406,-804,0,0,0,0,0,0,0,0,0,-1,818,1828,0,0
-399,-804,0,0,0,0,0,0,0,0,0,-1,825,1828,0,0
-392,-804,0,0,0,0,0,0,0,0,0,-1,832,1828,0,0
-385,-804,0,0,0,0,0,0,0,0,0,-1,839,1828,0,0
-378,-804,0,0,0,0,0,0,0,0,0,-1,846,1828,0,0
-371,-804,0,0,0,0,0,0,0,0,0,-1,853,1828,0,0
-364,-804,0,0,0,0,0,0,0,0,0,-1,860,1828,0,0
-357,-804,0,0,0,0,0,0,0,0,0,-1,867,1828,0,0
-350,-804,0,0,0,0,0,0,0,0,0,-1,874,1828,0,0
-343,-804,0,0,0,0,0,0,0,0,0,-1,881,1828,0,0
-336,-804,0,0,0,0,0,0,0,0,0,-1,888,1828,0,0
-329,-804,0,0,0,0,0,0,0,0,0,-1,895,1828,0,0
-322,-804,0,0,0,0,0,0,0,0,0,-1,902,1828,0,0
-315,-804,0,0,0,0,0,0,0,0,0,-1,909,1828,0,0
-308,-804,0,0,0,0,0,0,0,0,0,-1,916,1828,0,0
-301,-804,0,0,0,0,0,0,0,0,0,-1,923,1828,0,0
-294,-804,0,0,0,0,0,0,0,0,0,-1,930,1828,0,0
-287,-804,0,0,0,0,0,0,0,0,0,-1,937,1828,0,0
-280,-804,0,0,0,0,0,0,0,0,0,-1,944,1828,0,0
-273,-804,0,0,0,0,0,0,0,0,0,-1,951,1828,0,0
-266,-804,0,0,0,0,0,0,0,0,0,-1,958,1828,0,0
-259,-804,0,0,0,0,0,0,0,0,0,-1,965,1828,0,0
-252,-804,0,0,0,0,0,0,0,0,0,-1,972,1828,0,0
-245,-804,0,0,0,0,0,0,0,0,0,-1,979,1828,0,0
-238,-804,0,0,0,0,0,0,0,0,0,-1,986,1828,0,0
-231,-804,0,0,0,0,0,0,0,0,0,-1,993,1828,0,0
-224,-804,0,0,0,0,0,0,0,0,0,-1,1000,1828,0,0
-217,-804,0,0,0,0,0,0,0,0,0,-1,1007,1828,0,0
-210,-804,0,0,0,0,0,0,0,0,0,-1,1014,1828,0,0
-203,-804,0,0,0,0,0,0,0,0,0,-1,1021,1828,0,0
-196,-804,0,0,0,0,0,0,0,0,0,-1,1028,1828,0,0
-189,-804,0,0,0,0,0,0,0,0,0,-1,1035,1828,0,0
-182,-804,0,0,0,0,0,0,0,0,0,-1,1042,1828,0,0
-175,-804,0,0,0,0,0,0,0,0,0,-1,1049,1828,0,0
-168,-804,0,0,0,0,0,0,0,0,0,-1,1056,1828,0,0
-161,-804,0,0,0,0,0,0,0,0,0,-1,1063,1828,0,0
-154,-804,0,0,0,0,0,0,0,0,0,-1,1070,1828,0,0
-147,-804,0,0,0,0,0,0,0,0,0,-1,1077,1828,0,0
-140,-804,0,0,0,0,0,0,0,0,0,-1,1084,1828,0,0
-133,-804,0,0,0,0,0,0,0,0,0,-1,1091,1828,0,0
-126,-804,0,0,0,0,0,0,0,0,0,-1,1098,1828,0,0
-119,-804,0,0,0,0,0,0,0,0,0,-1,1105,1828,0,0
-112,-804,0,0,0,0,0,0,0,0,0,-1,1112,1828,0,0
-105,-804,0,0,0,0,0,0,0,0,0,-1,1119,1828,0,0
-98,-804,0,0,0,0,0,0,0,0,0,-1,1126,1828,0,0
-91,-804,0,0,0,0,0,0,0,0,0,-1,1133,1828,0,0
-84,-804,0,0,0,0,0,0,0,0,0,-1,1140,1828,0,0
-77,-804,0,0,0,0,0,0,0,0,0,-1,1147,1828,0,0
-70,-804,0,0,0,0,0,0,0,0,0,-1,1154,1828,0,0
-63,-804,0,0,0,0,0,0,0,0,0,-1,1161,1828,0,0
-56,-804,0,0,0,0,0,0,0,0,0,-1,1168,1828,0,0
-49,-804,0,0,0,0,0,0,0,0,0,-1,1175,1828,0,0
-42,-804,0,0,0,0,0,0,0,0,0,-1,1182,1828,0,0
-35,-804,0,0,0,0,0,0,0,0,0,-1,1189,1828,0,0
-28,-804,0,0,0,0,0,0,0,0,0,-1,1196,1828,0,0
-21,-804,0,0,0,0,0,0,0,0,0,-1,1203,1828,0,0
-14,-804,0,0,0,0,0,0,0,0,0,-1,1210,1828,0,0
-7,-804,0,0,0,0,0,0,0,0,0,-1,1217,1828,0,0
0,-804,0,0,0,0,0,0,0,0,0,-1,1224,1828,0,0
7,-804,0,0,0,0,0,0,0,0,0,-1,1231,1828,0,0
14,-804,0,0,0,0,0,0,0,0,0,-1,1238,1828,0,0
21,-804,0,0,0,0,0,0,0,0,0,-1,1245,1828,0,0
28,-804,0,0,0,0,0,0,0,0,0,-1,1252,1828,0,0
35,-804,5.96082,22.9558,0,0,0,0,0,0,0,-1,1259,1828,5.96083,-22.9558
42,-804,6.38147,22.6517,0.101241,-0.0205198,-0.0368078,0.111503,-0.0307818,-0.271896,0.0864422,0.0474558,1266,1828,6.38144,-22.6518
49,-804,6.80725,22.3484,0.0954015,-0.0186352,-0.0385358,0.107203,-0.0304362,-0.297167,0.0834841,0.0486293,1273,1828,6.80728,-22.3484
56,-804,7.1438,22.1031,0.0923618,-0.0177305,-0.0391151,0.104844,-0.0302126,-0.308898,0.0818472,0.0490657,1280,1828,7.14385,-22.1032
63,-804,7.50452,21.8597,0,0,0,0,0,0,0,-1,1287,1828,7.50456,-21.8597
70,-804,-1.89526,28.2434,0,0,0,0,0,0,0,-1,1294,1828,-1.89529,-28.2434
77,-804,-2.65283,28.0526,0,0,0,0,0,0,0,-1,1301,1828,-2.65279,-28.0526
84,-804,-3.50134,28.0104,0,0,0,0,0,0,0,-1,1308,1828,-3.50135,-28.0104
91,-804,0,0,0,0,0,0,0,0,0,-1,1315,1828,0,0
98,-804,0,0,0,0,0,0,0,0,0,-1,1322,1828,0,0
105,-804,0,0,0,0,0,0,0,0,0,-1,1329,1828,0,0
112,-804,0,0,0,0,0,0,0,0,0,-1,1336,1828,0,0
119,-804,0,0,0,0,0,0,0,0,0,-1,1343,1828,0,0
126,-804,0,0,0,0,0,0,0,0,0,-1,1350,1828,0,0
133,-804,0,0,0,0,0,0,0,0,0,-1,1357,1828,0,0
140,-804,0,0,0,0,0,0,0,0,0,-1,1364,1828,0,0
147,-804,0,0,0,0,0,0,0,0,0,-1,1371,1828,0,0
154,-804,0,0,0,0,0,0,0,0,0,-1,1378,1828,0,0
161,-804,0,0,0,0,0,0,0,0,0,-1,1385,1828,0,0
168,-804,0,0,0,0,0,0,0,0,0,-1,1392,1828,0,0
175,-804,0,0,0,0,0,0,0,0,0,-1,1399,1828,0,0
182,-804,0,0,0,0,0,0,0,0,0,-1,1406,1828,0,0
189,-804,0,0,0,0,0,0,0,0,0,-1,1413,1828,0,0
196,-804,0,0,0,0,0,0,0,0,0,-1,1420,1828,0,0
203,-804,0,0,0,0,0,0,0,0,0,-1,1427,1828,0,0
210,-804,0,0,0,0,0,0,0,0,0,-1,1434,1828,0,0
217,-804,0,0,0,0,0,0,0,0,0,-1,1441,1828,0,0
224,-804,0,0,0,0,0,0,0,0,0,-1,1448,1828,0,0
231,-804,0,0,0,0,0,0,0,0,0,-1,1455,1828,0,0
238,-804,0,0,0,0,0,0,0,0,0,-1,1462,1828,0,0
245,-804,0,0,0,0,0,0,0,0,0,-1,1469,1828,0,0
252,-804,0,0,0,0,0,0,0,0,0,-1,1476,1828,0,0
259,-804,0,0,0,0,0,0,0,0,0,-1,1483,1828,0,0
266,-804,0,0,0,0,0,0,0,0,0,-1,1490,1828,0,0
273,-804,0,0,0,0,0,0,0,0,0,-1,1497,1828,0,0
280,-804,0,0,0,0,0,0,0,0,0,-1,1504,1828,0,0
287,-804,0,0,0,0,0,0,0,0,0,-1,1511,1828,0,0
294,-804,0,0,0,0,0,0,0,0,0,-1,1518,1828,0,0
301,-804,0,0,0,0,0,0,0,0,0,-1,1525,1828,0,0
308,-804,0,0,0,0,0,0,0,0,0,-1,1532,1828,0,0
315,-804,0,0,0,0,0,0,0,0,0,-1,1539,1828,0,0
322,-804,0,0,0,0,0,0,0,0,0,-1,1546,1828,0,0
329,-804,0,0,0,0,0,0,0,0,0,-1,1553,1828,0,0
336,-804,0,0,0,0,0,0,0,0,0,-1,1560,1828,0,0
343,-804,0,0,0,0,0,0,0,0,0,-1,1567,1828,0,0
350,-804,0,0,0,0,0,0,0,0,0,-1,1574,1828,0,0
357,-804,0,0,0,0,0,0,0,0,0,-1,1581,1828,0,0
364,-804,0,0,0,0,0,0,0,0,0,-1,1588,1828,0,0
371,-804,0,0,0,0,0,0,0,0,0,-1,1595,1828,0,0
378,-804,0,0,0,0,0,0,0,0,0,-1,1602,1828,0,0
385,-804,0,0,0,0,0,0,0,0,0,-1,1609,1828,0,0
392,-804,0,0,0,0,0,0,0,0,0,-1,1616,1828,0,0
399,-804,0,0,0,0,0,0,0,0,0,-1,1623,1828,0,0
406,-804,0,0,0,0,0,0,0,0,0,-1,1630,1828,0,0
413,-804,0,0,0,0,0,0,0,0,0,-1,1637,1828,0,0
420,-804,0,0,0,0,0,0,0,0,0,-1,1644,1828,0,0
427,-804,0,0,0,0,0,0,0,0,0,-1,1651,1828,0,0
434,-804,0,0,0,0,0,0,0,0,0,-1,1658,1828,0,0
441,-804,0,0,0,0,0,0,0,0,0,-1,1665,1828,0,0
448,-804,0,0,0,0,0,0,0,0,0,-1,1672,1828,0,0
455,-804,0,0,0,0,0,0,0,0,0,-1,1679,1828,0,0
462,-804,0,0,0,0,0,0,0,0,0,-1,1686,1828,0,0
469,-804,0,0,0,0,0,0,0,0,0,-1,1693,1828,0,0
476,-804,0,0,0,0,0,0,0,0,0,-1,1700,1828,0,0
483,-804,0,0,0,0,0,0,0,0,0,-1,1707,1828,0,0
490,-804,0,0,0,0,0,0,0,0,0,-1,1714,1828,0,0
497,-804,0,0,0,0,0,0,0,0,0,-1,1721,1828,0,0
504,-804,0,0,0,0,0,0,0,0,0,-1,1728,1828,0,0
511,-804,0,0,0,0,0,0,0,0,0,-1,1735,1828,0,0
518,-804,0,0,0,0,0,0,0,0,0,-1,1742,1828,0,0
525,-804,0,0,0,0,0,0,0,0,0,-1,1749,1828,0,0
532,-804,0,0,0,0,0,0,0,0,0,-1,1756,1828,0,0
539,-804,0,0,0,0,0,0,0,0,0,-1,1763,1828,0,0
546,-804,0,0,0,0,0,0,0,0,0,-1,1770,1828,0,0
553,-804,0,0,0,0,0,0,0,0,0,-1,1777,1828,0,0
560,-804,0,0,0,0,0,0,0,0,0,-1,1784,1828,0,0
567,-804,0,0,0,0,0,0,0,0,0,-1,1791,1828,0,0
574,-804,0,0,0,0,0,0,0,0,0,-1,1798,1828,0,0
581,-804,0,0,0,0,0,0,0,0,0,-1,1805,1828,0,0
588,-804,0,0,0,0,0,0,0,0,0,-1,1812,1828,0,0
595,-804,0,0,0,0,0,0,0,0,0,-1,1819,1828,0,0
602,-804,0,0,0,0,0,0,0,0,0,-1,1826,1828,0,0
609,-804,0,0,0,0,0,0,0,0,0,-1,1833,1828,0,0
616,-804,0,0,0,0,0,0,0,0,0,-1,1840,1828,0,0
623,-804,0,0,0,0,0,0,0,0,0,-1,1847,1828,0,0
630,-804,0,0,0,0,0,0,0,0,0,-1,1854,1828,0,0
637,-804,0,0,0,0,0,0,0,0,0,-1,1861,1828,0,0
644,-804,0,0,0,0,0,0,0,0,0,-1,1868,1828,0,0
651,-804,0,0,0,0,0,0,0,0,0,-1,1875,1828,0,0
658,-804,0,0,0,0,0,0,0,0,0,-1,1882,1828,0,0
665,-804,0,0,0,0,0,0,0,0,0,-1,1889,1828,0,0
672,-804,0,0,0,0,0,0,0,0,0,-1,1896,1828,0,0
679,-804,0,0,0,0,0,0,0,0,0,-1,1903,1828,0,0
686,-804,0,0,0,0,0,0,0,0,0,-1,1910,1828,0,0
693,-804,0,0,0,0,0,0,0,0,0,-1,1917,1828,0,0
700,-804,0,0,0,0,0,0,0,0,0,-1,1924,1828,0,0
707,-804,0,0,0,0,0,0,0,0,0,-1,1931,1828,0,0
714,-804,0,0,0,0,0,0,0,0,0,-1,1938,1828,0,0
721,-804,0,0,0,0,0,0,0,0,0,-1,1945,1828,0,0
728,-804,0,0,0,0,0,0,0,0,0,-1,1952,1828,0,0
735,-804,0,0,0,0,0,0,0,0,0,-1,1959,1828,0,0
742,-804,0,0,0,0,0,0,0,0,0,-1,1966,1828,0,0
749,-804,0,0,0,0,0,0,0,0,0,-1,1973,1828,0,0
756,-804,0,0,0,0,0,0,0,0,0,-1,1980,1828,0,0
763,-804,0,0,0,0,0,0,0,0,0,-1,1987,1828,0,0
770,-804,0,0,0,0,0,0,0,0,0,-1,1994,1828,0,0
777,-804,0,0,0,0,0,0,0,0,0,-1,2001,1828,0,0
784,-804,0,0,0,0,0,0,0,0,0,-1,2008,1828,0,0
791,-804,0,0,0,0,0,0,0,0,0,-1,2015,1828,0,0
798,-804,0,0,0,0,0,0,0,0,0,-1,2022,1828,0,0
805,-804,0,0,0,0,0,0,0,0,0,-1,2029,1828,0,0
812,-804,0,0,0,0,0,0,0,0,0,-1,2036,1828,0,0

