 "x_c",  "y_c",  "u_c",  "v_c",  "exx",  "eyy",  "exy",  "e1",  "e2",  "gamma",  "e_vonmises",  "sigma",  "x",  "y",  "u",  "v"
-700,715,0,0,0,0,0,0,0,0,0,-1,524,309,0,0
-693,715,0,0,0,0,0,0,0,0,0,-1,531,309,0,0
-686,715,0,0,0,0,0,0,0,0,0,-1,538,309,0,0
-679,715,0,0,0,0,0,0,0,0,0,-1,545,309,0,0
-672,715,0,0,0,0,0,0,0,0,0,-1,552,309,0,0
-665,715,0,0,0,0,0,0,0,0,0,-1,559,309,0,0
-658,715,0,0,0,0,0,0,0,0,0,-1,566,309,0,0
-651,715,0,0,0,0,0,0,0,0,0,-1,573,309,0,0
-644,715,0,0,0,0,0,0,0,0,0,-1,580,309,0,0
-637,715,0,0,0,0,0,0,0,0,0,-1,587,309,0,0
-630,715,0,0,0,0,0,0,0,0,0,-1,594,309,0,0
-623,715,0,0,0,0,0,0,0,0,0,-1,601,309,0,0
-616,715,0,0,0,0,0,0,0,0,0,-1,608,309,0,0
-609,715,0,0,0,0,0,0,0,0,0,-1,615,309,0,0
-602,715,0,0,0,0,0,0,0,0,0,-1,622,309,0,0
-595,715,0,0,0,0,0,0,0,0,0,-1,629,309,0,0
-588,715,0,0,0,0,0,0,0,0,0,-1,636,309,0,0
-581,715,0,0,0,0,0,0,0,0,0,-1,643,309,0,0
-574,715,0,0,0,0,0,0,0,0,0,-1,650,309,0,0
-567,715,0,0,0,0,0,0,0,0,0,-1,657,309,0,0
-560,715,0,0,0,0,0,0,0,0,0,-1,664,309,0,0
-553,715,0,0,0,0,0,0,0,0,0,-1,671,309,0,0
-546,715,0,0,0,0,0,0,0,0,0,-1,678,309,0,0
-539,715,0,0,0,0,0,0,0,0,0,-1,685,309,0,0
-532,715,0,0,0,0,0,0,0,0,0,-1,692,309,0,0
-525,715,0,0,0,0,0,0,0,0,0,-1,699,309,0,0
-518,715,0,0,0,0,0,0,0,0,0,-1,706,309,0,0
-511,715,0,0,0,0,0,0,0,0,0,-1,713,309,0,0
-504,715,0,0,0,0,0,0,0,0,0,-1,720,309,0,0
-497,715,0,0,0,0,0,0,0,0,0,-1,727,309,0,0
-490,715,0,0,0,0,0,0,0,0,0,-1,734,309,0,0
-483,715,0,0,0,0,0,0,0,0,0,-1,741,309,0,0
-476,715,0,0,0,0,0,0,0,0,0,-1,748,309,0,0
-469,715,0,0,0,0,0,0,0,0,0,-1,755,309,0,0
-462,715,0,0,0,0,0,0,0,0,0,-1,762,309,0,0
-455,715,0,0,0,0,0,0,0,0,0,-1,769,309,0,0
-448,715,0,0,0,0,0,0,0,0,0,-1,776,309,0,0
-441,715,0,0,0,0,0,0,0,0,0,-1,783,309,0,0
-434,715,0,0,0,0,0,0,0,0,0,-1,790,309,0,0
-427,715,0,0,0,0,0,0,0,0,0,-1,797,309,0,0
-420,715,0,0,0,0,0,0,0,0,0,-1,804,309,0,0
-413,715,0,0,0,0,0,0,0,0,0,-1,811,309,0,0
-406,715,0,0,0,0,0,0,0,0,0,-1,818,309,0,0
-399,715,0,0,0,0,0,0,0,0,0,-1,825,309,0,0
-392,715,0,0,0,0,0,0,0,0,0,-1,832,309,0,0
-385,715,0,0,0,0,0,0,0,0,0,-1,839,309,0,0
-378,715,0,0,0,0,0,0,0,0,0,-1,846,309,0,0
-371,715,0,0,0,0,0,0,0,0,0,-1,853,309,0,0
-364,715,0,0,0,0,0,0,0,0,0,-1,860,309,0,0
-357,715,0,0,0,0,0,0,0,0,0,-1,867,309,0,0
-350,715,0,0,0,0,0,0,0,0,0,-1,874,309,0,0
-343,715,0,0,0,0,0,0,0,0,0,-1,881,309,0,0
-336,715,0,0,0,0,0,0,0,0,0,-1,888,309,0,0
-329,715,0,0,0,0,0,0,0,0,0,-1,895,309,0,0
-322,715,0,0,0,0,0,0,0,0,0,-1,902,309,0,0
-315,715,0,0,0,0,0,0,0,0,0,-1,909,309,0,0
-308,715,0,0,0,0,0,0,0,0,0,-1,916,309,0,0
-301,715,0,0,0,0,0,0,0,0,0,-1,923,309,0,0
-294,715,0,0,0,0,0,0,0,0,0,-1,930,309,0,0
-287,715,0,0,0,0,0,0,0,0,0,-1,937,309,0,0
-280,715,0,0,0,0,0,0,0,0,0,-1,944,309,0,0
-273,715,0,0,0,0,0,0,0,0,0,-1,951,309,0,0
-266,715,0,0,0,0,0,0,0,0,0,-1,958,309,0,0
-259,715,0,0,0,0,0,0,0,0,0,-1,965,309,0,0
-252,715,0,0,0,0,0,0,0,0,0,-1,972,309,0,0
-245,715,0,0,0,0,0,0,0,0,0,-1,979,309,0,0
-238,715,0,0,0,0,0,0,0,0,0,-1,986,309,0,0
-231,715,0,0,0,0,0,0,0,0,0,-1,993,309,0,0
-224,715,0,0,0,0,0,0,0,0,0,-1,1000,309,0,0
-217,715,0,0,0,0,0,0,0,0,0,-1,1007,309,0,0
-210,715,0,0,0,0,0,0,0,0,0,-1,1014,309,0,0
-203,715,0,0,0,0,0,0,0,0,0,-1,1021,309,0,0
-196,715,0,0,0,0,0,0,0,0,0,-1,1028,309,0,0
-189,715,0,0,0,0,0,0,0,0,0,-1,1035,309,0,0
-182,715,0,0,0,0,0,0,0,0,0,-1,1042,309,0,0
-175,715,0,0,0,0,0,0,0,0,0,-1,1049,309,0,0
-168,715,0,0,0,0,0,0,0,0,0,-1,1056,309,0,0
-161,715,0,0,0,0,0,0,0,0,0,-1,1063,309,0,0
-154,715,0,0,0,0,0,0,0,0,0,-1,1070,309,0,0
-147,715,0,0,0,0,0,0,0,0,0,-1,1077,309,0,0
-140,715,0,0,0,0,0,0,0,0,0,-1,1084,309,0,0
-133,715,0,0,0,0,0,0,0,0,0,-1,1091,309,0,0
-126,715,0,0,0,0,0,0,0,0,0,-1,1098,309,0,0
-119,715,0,0,0,0,0,0,0,0,0,-1,1105,309,0,0
-112,715,0,0,0,0,0,0,0,0,0,-1,1112,309,0,0
-105,715,0,0,0,0,0,0,0,0,0,-1,1119,309,0,0
-98,715,0,0,0,0,0,0,0,0,0,-1,1126,309,0,0
-91,715,0,0,0,0,0,0,0,0,0,-1,1133,309,0,0
-84,715,0,0,0,0,0,0,0,0,0,-1,1140,309,0,0
-77,715,0,0,0,0,0,0,0,0,0,-1,1147,309,0,0
-70,715,0,0,0,0,0,0,0,0,0,-1,1154,309,0,0
-63,715,0,0,0,0,0,0,0,0,0,-1,1161,309,0,0
-56,715,0,0,0,0,0,0,0,0,0,-1,1168,309,0,0
-49,715,0,0,0,0,0,0,0,0,0,-1,1175,309,0,0
-42,715,0,0,0,0,0,0,0,0,0,-1,1182,309,0,0
-35,715,0,0,0,0,0,0,0,0,0,-1,1189,309,0,0
-28,715,0,0,0,0,0,0,0,0,0,-1,1196,309,0,0
-21,715,0,0,0,0,0,0,0,0,0,-1,1203,309,0,0
-14,715,0,0,0,0,0,0,0,0,0,-1,1210,309,0,0
-7,715,0,0,0,0,0,0,0,0,0,-1,1217,309,0,0
0,715,0,0,0,0,0,0,0,0,0,-1,1224,309,0,0
7,715,0,0,0,0,0,0,0,0,0,-1,1231,309,0,0
14,715,0,0,0,0,0,0,0,0,0,-1,1238,309,0,0
21,715,0,0,0,0,0,0,0,0,0,-1,1245,309,0,0
28,715,0,0,0,0,0,0,0,0,0,-1,1252,309,0,0
35,715,0,0,0,0,0,0,0,0,0,-1,1259,309,0,0
42,715,0,0,0,0,0,0,0,0,0,-1,1266,309,0,0
49,715,0,0,0,0,0,0,0,0,0,-1,1273,309,0,0
56,715,0,0,0,0,0,0,0,0,0,-1,1280,309,0,0
63,715,7.46643,-59.1349,0,0,0,0,0,0,0,-1,1287,309,7.4664,59.1349
70,715,7.9906,-58.2627,0,0,0,0,0,0,0,-1,1294,309,7.99062,58.2627
77,715,0,0,0,0,0,0,0,0,0,-1,1301,309,0,0
84,715,0,0,0,0,0,0,0,0,0,-1,1308,309,0,0
91,715,0,0,0,0,0,0,0,0,0,-1,1315,309,0,0
98,715,0,0,0,0,0,0,0,0,0,-1,1322,309,0,0
105,715,0,0,0,0,0,0,0,0,0,-1,1329,309,0,0
112,715,0,0,0,0,0,0,0,0,0,-1,1336,309,0,0
119,715,0,0,0,0,0,0,0,0,0,-1,1343,309,0,0
126,715,0,0,0,0,0,0,0,0,0,-1,1350,309,0,0
133,715,0,0,0,0,0,0,0,0,0,-1,1357,309,0,0
140,715,0,0,0,0,0,0,0,0,0,-1,1364,309,0,0
147,715,0,0,0,0,0,0,0,0,0,-1,1371,309,0,0
154,715,0,0,0,0,0,0,0,0,0,-1,1378,309,0,0
161,715,0,0,0,0,0,0,0,0,0,-1,1385,309,0,0
168,715,0,0,0,0,0,0,0,0,0,-1,1392,309,0,0
175,715,0,0,0,0,0,0,0,0,0,-1,1399,309,0,0
182,715,0,0,0,0,0,0,0,0,0,-1,1406,309,0,0
189,715,0,0,0,0,0,0,0,0,0,-1,1413,309,0,0
196,715,0,0,0,0,0,0,0,0,0,-1,1420,309,0,0
203,715,0,0,0,0,0,0,0,0,0,-1,1427,309,0,0
210,715,0,0,0,0,0,0,0,0,0,-1,1434,309,0,0
217,715,0,0,0,0,0,0,0,0,0,-1,1441,309,0,0
224,715,0,0,0,0,0,0,0,0,0,-1,1448,309,0,0
231,715,0,0,0,0,0,0,0,0,0,-1,1455,309,0,0
238,715,0,0,0,0,0,0,0,0,0,-1,1462,309,0,0
245,715,0,0,0,0,0,0,0,0,0,-1,1469,309,0,0
252,715,0,0,0,0,0,0,0,0,0,-1,1476,309,0,0
259,715,0,0,0,0,0,0,0,0,0,-1,1483,309,0,0
266,715,0,0,0,0,0,0,0,0,0,-1,1490,309,0,0
273,715,0,0,0,0,0,0,0,0,0,-1,1497,309,0,0
280,715,0,0,0,0,0,0,0,0,0,-1,1504,309,0,0
287,715,0,0,0,0,0,0,0,0,0,-1,1511,309,0,0
294,715,0,0,0,0,0,0,0,0,0,-1,1518,309,0,0
301,715,0,0,0,0,0,0,0,0,0,-1,1525,309,0,0
308,715,0,0,0,0,0,0,0,0,0,-1,1532,309,0,0
315,715,0,0,0,0,0,0,0,0,0,-1,1539,309,0,0
322,715,0,0,0,0,0,0,0,0,0,-1,1546,309,0,0
329,715,0,0,0,0,0,0,0,0,0,-1,1553,309,0,0
336,715,0,0,0,0,0,0,0,0,0,-1,1560,309,0,0
343,715,0,0,0,0,0,0,0,0,0,-1,1567,309,0,0
350,715,0,0,0,0,0,0,0,0,0,-1,1574,309,0,0
357,715,0,0,0,0,0,0,0,0,0,-1,1581,309,0,0
364,715,0,0,0,0,0,0,0,0,0,-1,1588,309,0,0
371,715,0,0,0,0,0,0,0,0,0,-1,1595,309,0,0
378,715,0,0,0,0,0,0,0,0,0,-1,1602,309,0,0
385,715,0,0,0,0,0,0,0,0,0,-1,1609,309,0,0
392,715,0,0,0,0,0,0,0,0,0,-1,1616,309,0,0
399,715,0,0,0,0,0,0,0,0,0,-1,1623,309,0,0
406,715,0,0,0,0,0,0,0,0,0,-1,1630,309,0,0
413,715,0,0,0,0,0,0,0,0,0,-1,1637,309,0,0
420,715,0,0,0,0,0,0,0,0,0,-1,1644,309,0,0
427,715,0,0,0,0,0,0,0,0,0,-1,1651,309,0,0
434,715,0,0,0,0,0,0,0,0,0,-1,1658,309,0,0
441,715,0,0,0,0,0,0,0,0,0,-1,1665,309,0,0
448,715,0,0,0,0,0,0,0,0,0,-1,1672,309,0,0
455,715,0,0,0,0,0,0,0,0,0,-1,1679,309,0,0
462,715,0,0,0,0,0,0,0,0,0,-1,1686,309,0,0
469,715,0,0,0,0,0,0,0,0,0,-1,1693,309,0,0
476,715,0,0,0,0,0,0,0,0,0,-1,1700,309,0,0
483,715,0,0,0,0,0,0,0,0,0,-1,1707,309,0,0
490,715,0,0,0,0,0,0,0,0,0,-1,1714,309,0,0
497,715,0,0,0,0,0,0,0,0,0,-1,1721,309,0,0
504,715,0,0,0,0,0,0,0,0,0,-1,1728,309,0,0
511,715,0,0,0,0,0,0,0,0,0,-1,1735,309,0,0
518,715,0,0,0,0,0,0,0,0,0,-1,1742,309,0,0
525,715,0,0,0,0,0,0,0,0,0,-1,1749,309,0,0
532,715,0,0,0,0,0,0,0,0,0,-1,1756,309,0,0
539,715,0,0,0,0,0,0,0,0,0,-1,1763,309,0,0
546,715,0,0,0,0,0,0,0,0,0,-1,1770,309,0,0
553,715,0,0,0,0,0,0,0,0,0,-1,1777,309,0,0
560,715,0,0,0,0,0,0,0,0,0,-1,1784,309,0,0
567,715,0,0,0,0,0,0,0,0,0,-1,1791,309,0,0
574,715,0,0,0,0,0,0,0,0,0,-1,1798,309,0,0
581,715,0,0,0,0,0,0,0,0,0,-1,1805,309,0,0
588,715,0,0,0,0,0,0,0,0,0,-1,1812,309,0,0
595,715,0,0,0,0,0,0,0,0,0,-1,1819,309,0,0
602,715,0,0,0,0,0,0,0,0,0,-1,1826,309,0,0
609,715,0,0,0,0,0,0,0,0,0,-1,1833,309,0,0
616,715,0,0,0,0,0,0,0,0,0,-1,1840,309,0,0
623,715,0,0,0,0,0,0,0,0,0,-1,1847,309,0,0
630,715,0,0,0,0,0,0,0,0,0,-1,1854,309,0,0
637,715,0,0,0,0,0,0,0,0,0,-1,1861,309,0,0
644,715,0,0,0,0,0,0,0,0,0,-1,1868,309,0,0
651,715,0,0,0,0,0,0,0,0,0,-1,1875,309,0,0
658,715,0,0,0,0,0,0,0,0,0,-1,1882,309,0,0
665,715,0,0,0,0,0,0,0,0,0,-1,1889,309,0,0
672,715,0,0,0,0,0,0,0,0,0,-1,1896,309,0,0
679,715,0,0,0,0,0,0,0,0,0,-1,1903,309,0,0
686,715,0,0,0,0,0,0,0,0,0,-1,1910,309,0,0
693,715,0,0,0,0,0,0,0,0,0,-1,1917,309,0,0
700,715,0,0,0,0,0,0,0,0,0,-1,1924,309,0,0
707,715,0,0,0,0,0,0,0,0,0,-1,1931,309,0,0
714,715,0,0,0,0,0,0,0,0,0,-1,1938,309,0,0
721,715,0,0,0,0,0,0,0,0,0,-1,1945,309,0,0
728,715,0,0,0,0,0,0,0,0,0,-1,1952,309,0,0
735,715,0,0,0,0,0,0,0,0,0,-1,1959,309,0,0
742,715,0,0,0,0,0,0,0,0,0,-1,1966,309,0,0
749,715,0,0,0,0,0,0,0,0,0,-1,1973,309,0,0
756,715,0,0,0,0,0,0,0,0,0,-1,1980,309,0,0
763,715,0,0,0,0,0,0,0,0,0,-1,1987,309,0,0
770,715,0,0,0,0,0,0,0,0,0,-1,1994,309,0,0
777,715,0,0,0,0,0,0,0,0,0,-1,2001,309,0,0
784,715,0,0,0,0,0,0,0,0,0,-1,2008,309,0,0
791,715,0,0,0,0,0,0,0,0,0,-1,2015,309,0,0
798,715,0,0,0,0,0,0,0,0,0,-1,2022,309,0,0
805,715,0,0,0,0,0,0,0,0,0,-1,2029,309,0,0
812,715,0,0,0,0,0,0,0,0,0,-1,2036,309,0,0
-700,708,0,0,0,0,0,0,0,0,0,-1,524,316,0,0
-693,708,0,0,0,0,0,0,0,0,0,-1,531,316,0,0
-686,708,0,0,0,0,0,0,0,0,0,-1,538,316,0,0
-679,708,0,0,0,0,0,0,0,0,0,-1,545,316,0,0
-672,708,0,0,0,0,0,0,0,0,0,-1,552,316,0,0
-665,708,0,0,0,0,0,0,0,0,0,-1,559,316,0,0
-658,708,0,0,0,0,0,0,0,0,0,-1,566,316,0,0
-651,708,0,0,0,0,0,0,0,0,0,-1,573,316,0,0
-644,708,0,0,0,0,0,0,0,0,0,-1,580,316,0,0
-637,708,0,0,0,0,0,0,0,0,0,-1,587,316,0,0
-630,708,0,0,0,0,0,0,0,0,0,-1,594,316,0,0
-623,708,0,0,0,0,0,0,0,0,0,-1,601,316,0,0
-616,708,0,0,0,0,0,0,0,0,0,-1,608,316,0,0
-609,708,0,0,0,0,0,0,0,0,0,-1,615,316,0,0
-602,708,0,0,0,0,0,0,0,0,0,-1,622,316,0,0
-595,708,0,0,0,0,0,0,0,0,0,-1,629,316,0,0
-588,708,0,0,0,0,0,0,0,0,0,-1,636,316,0,0
-581,708,0,0,0,0,0,0,0,0,0,-1,643,316,0,0
-574,708,0,0,0,0,0,0,0,0,0,-1,650,316,0,0
-567,708,0,0,0,0,0,0,0,0,0,-1,657,316,0,0
-560,708,0,0,0,0,0,0,0,0,0,-1,664,316,0,0
-553,708,0,0,0,0,0,0,0,0,0,-1,671,316,0,0
-546,708,0,0,0,0,0,0,0,0,0,-1,678,316,0,0
-539,708,0,0,0,0,0,0,0,0,0,-1,685,316,0,0
-532,708,0,0,0,0,0,0,0,0,0,-1,692,316,0,0
-525,708,0,0,0,0,0,0,0,0,0,-1,699,316,0,0
-518,708,0,0,0,0,0,0,0,0,0,-1,706,316,0,0
-511,708,0,0,0,0,0,0,0,0,0,-1,713,316,0,0
-504,708,0,0,0,0,0,0,0,0,0,-1,720,316,0,0
-497,708,0,0,0,0,0,0,0,0,0,-1,727,316,0,0
-490,708,0,0,0,0,0,0,0,0,0,-1,734,316,0,0
-483,708,0,0,0,0,0,0,0,0,0,-1,741,316,0,0
-476,708,0,0,0,0,0,0,0,0,0,-1,748,316,0,0
-469,708,0,0,0,0,0,0,0,0,0,-1,755,316,0,0
-462,708,0,0,0,0,0,0,0,0,0,-1,762,316,0,0
-455,708,0,0,0,0,0,0,0,0,0,-1,769,316,0,0
-448,708,0,0,0,0,0,0,0,0,0,-1,776,316,0,0
-441,708,0,0,0,0,0,0,0,0,0,-1,783,316,0,0
-434,708,0,0,0,0,0,0,0,0,0,-1,790,316,0,0
-427,708,0,0,0,0,0,0,0,0,0,-1,797,316,0,0
-420,708,0,0,0,0,0,0,0,0,0,-1,804,316,0,0
-413,708,0,0,0,0,0,0,0,0,0,-1,811,316,0,0
-406,708,0,0,0,0,0,0,0,0,0,-1,818,316,0,0
-399,708,0,0,0,0,0,0,0,0,0,-1,825,316,0,0
-392,708,0,0,0,0,0,0,0,0,0,-1,832,316,0,0
-385,708,0,0,0,0,0,0,0,0,0,-1,839,316,0,0
-378,708,0,0,0,0,0,0,0,0,0,-1,846,316,0,0
-371,708,0,0,0,0,0,0,0,0,0,-1,853,316,0,0
-364,708,0,0,0,0,0,0,0,0,0,-1,860,316,0,0
-357,708,0,0,0,0,0,0,0,0,0,-1,867,316,0,0
-350,708,0,0,0,0,0,0,0,0,0,-1,874,316,0,0
-343,708,0,0,0,0,0,0,0,0,0,-1,881,316,0,0
-336,708,0,0,0,0,0,0,0,0,0,-1,888,316,0,0
-329,708,0,0,0,0,0,0,0,0,0,-1,895,316,0,0
-322,708,0,0,0,0,0,0,0,0,0,-1,902,316,0,0
-315,708,0,0,0,0,0,0,0,0,0,-1,909,316,0,0
-308,708,0,0,0,0,0,0,0,0,0,-1,916,316,0,0
-301,708,0,0,0,0,0,0,0,0,0,-1,923,316,0,0
-294,708,0,0,0,0,0,0,0,0,0,-1,930,316,0,0
-287,708,0,0,0,0,0,0,0,0,0,-1,937,316,0,0
-280,708,0,0,0,0,0,0,0,0,0,-1,944,316,0,0
-273,708,0,0,0,0,0,0,0,0,0,-1,951,316,0,0
-266,708,0,0,0,0,0,0,0,0,0,-1,958,316,0,0
-259,708,0,0,0,0,0,0,0,0,0,-1,965,316,0,0
-252,708,0,0,0,0,0,0,0,0,0,-1,972,316,0,0
-245,708,0,0,0,0,0,0,0,0,0,-1,979,316,0,0
-238,708,0,0,0,0,0,0,0,0,0,-1,986,316,0,0
-231,708,0,0,0,0,0,0,0,0,0,-1,993,316,0,0
-224,708,0,0,0,0,0,0,0,0,0,-1,1000,316,0,0
-217,708,0,0,0,0,0,0,0,0,0,-1,1007,316,0,0
-210,708,0,0,0,0,0,0,0,0,0,-1,1014,316,0,0
-203,708,0,0,0,0,0,0,0,0,0,-1,1021,316,0,0
-196,708,0,0,0,0,0,0,0,0,0,-1,1028,316,0,0
-189,708,0,0,0,0,0,0,0,0,0,-1,1035,316,0,0
-182,708,0,0,0,0,0,0,0,0,0,-1,1042,316,0,0
-175,708,0,0,0,0,0,0,0,0,0,-1,1049,316,0,0
-168,708,0,0,0,0,0,0,0,0,0,-1,1056,316,0,0
-161,708,0,0,0,0,0,0,0,0,0,-1,1063,316,0,0
-154,708,0,0,0,0,0,0,0,0,0,-1,1070,316,0,0
-147,708,0,0,0,0,0,0,0,0,0,-1,1077,316,0,0
-140,708,0,0,0,0,0,0,0,0,0,-1,1084,316,0,0
-133,708,0,0,0,0,0,0,0,0,0,-1,1091,316,0,0
-126,708,0,0,0,0,0,0,0,0,0,-1,1098,316,0,0
-119,708,0,0,0,0,0,0,0,0,0,-1,1105,316,0,0
-112,708,0,0,0,0,0,0,0,0,0,-1,1112,316,0,0
-105,708,0,0,0,0,0,0,0,0,0,-1,1119,316,0,0
-98,708,0,0,0,0,0,0,0,0,0,-1,1126,316,0,0
-91,708,0,0,0,0,0,0,0,0,0,-1,1133,316,0,0
-84,708,0,0,0,0,0,0,0,0,0,-1,1140,316,0,0
-77,708,0,0,0,0,0,0,0,0,0,-1,1147,316,0,0
-70,708,0,0,0,0,0,0,0,0,0,-1,1154,316,0,0
-63,708,0,0,0,0,0,0,0,0,0,-1,1161,316,0,0
-56,708,0,0,0,0,0,0,0,0,0,-1,1168,316,0,0
-49,708,0,0,0,0,0,0,0,0,0,-1,1175,316,0,0
-42,708,0,0,0,0,0,0,0,0,0,-1,1182,316,0,0
-35,708,-2.71204,-6.31558,0,0,0,0,0,0,0,-1,1189,316,-2.712,6.3156
-28,708,-2.92371,-5.53253,0,0,0,0,0,0,0,-1,1196,316,-2.92375,5.53254
-21,708,-0.417969,-24.5911,0,0,0,0,0,0,0,-1,1203,316,-0.418022,24.5911
-14,708,8.68311,-52.9001,0,0,0,0,0,0,0,-1,1210,316,8.68305,52.9001
-7,708,11.2405,-57.5552,0,0,0,0,0,0,0,-1,1217,316,11.2405,57.5552
0,708,8.2749,-56.1916,0,0,0,0,0,0,0,-1,1224,316,8.27489,56.1916
7,708,7.57776,-57.3801,-0.0795702,0.129262,-0.135008,0.19552,-0.145829,-1.11456,0.197773,0.046761,1231,316,7.57775,57.3801
14,708,6.82153,-58.4773,-0.0773569,0.124332,-0.130196,0.188171,-0.141196,-1.11492,0.190804,0.0442136,1238,316,6.82152,58.4773
21,708,6.00415,-59.6728,-0.0733836,0.121532,-0.123771,0.181609,-0.133461,-1.1189,0.182613,0.0428996,1245,316,6.00419,59.6728
28,708,4.88562,-61.6192,0,0,0,0,0,0,0,-1,1252,316,4.88564,61.6192
35,708,6.68762,-63.4297,0,0,0,0,0,0,0,-1,1259,316,6.68764,63.4297
42,708,10.3256,-59.9883,0,0,0,0,0,0,0,-1,1266,316,10.3255,59.9883
49,708,9.40649,-59.9045,0,0,0,0,0,0,0,-1,1273,316,9.40647,59.9045
56,708,8.46973,-59.5479,0,0,0,0,0,0,0,-1,1280,316,8.46975,59.5479
63,708,7.62109,-59.8318,0,0,0,0,0,0,0,-1,1287,316,7.62107,59.8318
70,708,8.16235,-58.9888,0,0,0,0,0,0,0,-1,1294,316,8.16235,58.9888
77,708,8.73792,-58.4846,0,0,0,0,0,0,0,-1,1301,316,8.73787,58.4846
84,708,1.3158,-65.5153,0,0,0,0,0,0,0,-1,1308,316,1.31578,65.5153
91,708,1.63672,-64.9898,0,0,0,0,0,0,0,-1,1315,316,1.63668,64.9898
98,708,1.82727,-64.4515,0,0,0,0,0,0,0,-1,1322,316,1.82726,64.4515
105,708,2.21277,-63.8014,0,0,0,0,0,0,0,-1,1329,316,2.21272,63.8014
112,708,2.54114,-63.2797,0,0,0,0,0,0,0,-1,1336,316,2.54111,63.2797
119,708,2.56201,-62.3444,0,0,0,0,0,0,0,-1,1343,316,2.56197,62.3444
126,708,3.08386,-61.2611,0,0,0,0,0,0,0,-1,1350,316,3.08388,61.2611
133,708,3.24695,-60.7403,0,0,0,0,0,0,0,-1,1357,316,3.24696,60.7403
140,708,0.773193,-56.3175,0,0,0,0,0,0,0,-1,1364,316,0.773212,56.3175
147,708,1.62256,-55.9,0,0,0,0,0,0,0,-1,1371,316,1.62253,55.9
154,708,0,0,0,0,0,0,0,0,0,-1,1378,316,0,0
161,708,0,0,0,0,0,0,0,0,0,-1,1385,316,0,0
168,708,0,0,0,0,0,0,0,0,0,-1,1392,316,0,0
175,708,0,0,0,0,0,0,0,0,0,-1,1399,316,0,0
182,708,0,0,0,0,0,0,0,0,0,-1,1406,316,0,0
189,708,0,0,0,0,0,0,0,0,0,-1,1413,316,0,0
196,708,0,0,0,0,0,0,0,0,0,-1,1420,316,0,0
203,708,0,0,0,0,0,0,0,0,0,-1,1427,316,0,0
210,708,0,0,0,0,0,0,0,0,0,-1,1434,316,0,0
217,708,0,0,0,0,0,0,0,0,0,-1,1441,316,0,0
224,708,0,0,0,0,0,0,0,0,0,-1,1448,316,0,0
231,708,0,0,0,0,0,0,0,0,0,-1,1455,316,0,0
238,708,0,0,0,0,0,0,0,0,0,-1,1462,316,0,0
245,708,0,0,0,0,0,0,0,0,0,-1,1469,316,0,0
252,708,0,0,0,0,0,0,0,0,0,-1,1476,316,0,0
259,708,0,0,0,0,0,0,0,0,0,-1,1483,316,0,0
266,708,0,0,0,0,0,0,0,0,0,-1,1490,316,0,0
273,708,0,0,0,0,0,0,0,0,0,-1,1497,316,0,0
280,708,0,0,0,0,0,0,0,0,0,-1,1504,316,0,0
287,708,0,0,0,0,0,0,0,0,0,-1,1511,316,0,0
294,708,0,0,0,0,0,0,0,0,0,-1,1518,316,0,0
301,708,0,0,0,0,0,0,0,0,0,-1,1525,316,0,0
308,708,0,0,0,0,0,0,0,0,0,-1,1532,316,0,0
315,708,0,0,0,0,0,0,0,0,0,-1,1539,316,0,0
322,708,0,0,0,0,0,0,0,0,0,-1,1546,316,0,0
329,708,0,0,0,0,0,0,0,0,0,-1,1553,316,0,0
336,708,0,0,0,0,0,0,0,0,0,-1,1560,316,0,0
343,708,0,0,0,0,0,0,0,0,0,-1,1567,316,0,0
350,708,0,0,0,0,0,0,0,0,0,-1,1574,316,0,0
357,708,0,0,0,0,0,0,0,0,0,-1,1581,316,0,0
364,708,0,0,0,0,0,0,0,0,0,-1,1588,316,0,0
371,708,0,0,0,0,0,0,0,0,0,-1,1595,316,0,0
378,708,0,0,0,0,0,0,0,0,0,-1,1602,316,0,0
385,708,0,0,0,0,0,0,0,0,0,-1,1609,316,0,0
392,708,0,0,0,0,0,0,0,0,0,-1,1616,316,0,0
399,708,0,0,0,0,0,0,0,0,0,-1,1623,316,0,0
406,708,0,0,0,0,0,0,0,0,0,-1,1630,316,0,0
413,708,0,0,0,0,0,0,0,0,0,-1,1637,316,0,0
420,708,0,0,0,0,0,0,0,0,0,-1,1644,316,0,0
427,708,0,0,0,0,0,0,0,0,0,-1,1651,316,0,0
434,708,0,0,0,0,0,0,0,0,0,-1,1658,316,0,0
441,708,0,0,0,0,0,0,0,0,0,-1,1665,316,0,0
448,708,0,0,0,0,0,0,0,0,0,-1,1672,316,0,0
455,708,0,0,0,0,0,0,0,0,0,-1,1679,316,0,0
462,708,0,0,0,0,0,0,0,0,0,-1,1686,316,0,0
469,708,0,0,0,0,0,0,0,0,0,-1,1693,316,0,0
476,708,0,0,0,0,0,0,0,0,0,-1,1700,316,0,0
483,708,0,0,0,0,0,0,0,0,0,-1,1707,316,0,0
490,708,0,0,0,0,0,0,0,0,0,-1,1714,316,0,0
497,708,0,0,0,0,0,0,0,0,0,-1,1721,316,0,0
504,708,0,0,0,0,0,0,0,0,0,-1,1728,316,0,0
511,708,0,0,0,0,0,0,0,0,0,-1,1735,316,0,0
518,708,0,0,0,0,0,0,0,0,0,-1,1742,316,0,0
525,708,0,0,0,0,0,0,0,0,0,-1,1749,316,0,0
532,708,0,0,0,0,0,0,0,0,0,-1,1756,316,0,0
539,708,0,0,0,0,0,0,0,0,0,-1,1763,316,0,0
546,708,0,0,0,0,0,0,0,0,0,-1,1770,316,0,0
553,708,0,0,0,0,0,0,0,0,0,-1,1777,316,0,0
560,708,0,0,0,0,0,0,0,0,0,-1,1784,316,0,0
567,708,0,0,0,0,0,0,0,0,0,-1,1791,316,0,0
574,708,0,0,0,0,0,0,0,0,0,-1,1798,316,0,0
581,708,0,0,0,0,0,0,0,0,0,-1,1805,316,0,0
588,708,0,0,0,0,0,0,0,0,0,-1,1812,316,0,0
595,708,0,0,0,0,0,0,0,0,0,-1,1819,316,0,0
602,708,0,0,0,0,0,0,0,0,0,-1,1826,316,0,0
609,708,0,0,0,0,0,0,0,0,0,-1,1833,316,0,0
616,708,0,0,0,0,0,0,0,0,0,-1,1840,316,0,0
623,708,0,0,0,0,0,0,0,0,0,-1,1847,316,0,0
630,708,0,0,0,0,0,0,0,0,0,-1,1854,316,0,0
637,708,0,0,0,0,0,0,0,0,0,-1,1861,316,0,0
644,708,0,0,0,0,0,0,0,0,0,-1,1868,316,0,0
651,708,0,0,0,0,0,0,0,0,0,-1,1875,316,0,0
658,708,0,0,0,0,0,0,0,0,0,-1,1882,316,0,0
665,708,0,0,0,0,0,0,0,0,0,-1,1889,316,0,0
672,708,0,0,0,0,0,0,0,0,0,-1,1896,316,0,0
679,708,0,0,0,0,0,0,0,0,0,-1,1903,316,0,0
686,708,0,0,0,0,0,0,0,0,0,-1,1910,316,0,0
693,708,0,0,0,0,0,0,0,0,0,-1,1917,316,0,0
700,708,0,0,0,0,0,0,0,0,0,-1,1924,316,0,0
707,708,0,0,0,0,0,0,0,0,0,-1,1931,316,0,0
714,708,0,0,0,0,0,0,0,0,0,-1,1938,316,0,0
721,708,0,0,0,0,0,0,0,0,0,-1,1945,316,0,0
728,708,0,0,0,0,0,0,0,0,0,-1,1952,316,0,0
735,708,0,0,0,0,0,0,0,0,0,-1,1959,316,0,0
742,708,0,0,0,0,0,0,0,0,0,-1,1966,316,0,0
749,708,0,0,0,0,0,0,0,0,0,-1,1973,316,0,0
756,708,0,0,0,0,0,0,0,0,0,-1,1980,316,0,0
763,708,0,0,0,0,0,0,0,0,0,-1,1987,316,0,0
770,708,0,0,0,0,0,0,0,0,0,-1,1994,316,0,0
777,708,0,0,0,0,0,0,0,0,0,-1,2001,316,0,0
784,708,0,0,0,0,0,0,0,0,0,-1,2008,316,0,0
791,708,0,0,0,0,0,0,0,0,0,-1,2015,316,0,0
798,708,0,0,0,0,0,0,0,0,0,-1,2022,316,0,0
805,708,0,0,0,0,0,0,0,0,0,-1,2029,316,0,0
812,708,0,0,0,0,0,0,0,0,0,-1,2036,316,0,0
-700,701,0,0,0,0,0,0,0,0,0,-1,524,323,0,0
-693,701,0,0,0,0,0,0,0,0,0,-1,531,323,0,0
-686,701,0,0,0,0,0,0,0,0,0,-1,538,323,0,0
-679,701,0,0,0,0,0,0,0,0,0,-1,545,323,0,0
-672,701,0,0,0,0,0,0,0,0,0,-1,552,323,0,0
-665,701,0,0,0,0,0,0,0,0,0,-1,559,323,0,0
-658,701,0,0,0,0,0,0,0,0,0,-1,566,323,0,0
-651,701,0,0,0,0,0,0,0,0,0,-1,573,323,0,0
-644,701,0,0,0,0,0,0,0,0,0,-1,580,323,0,0
-637,701,0,0,0,0,0,0,0,0,0,-1,587,323,0,0
-630,701,0,0,0,0,0,0,0,0,0,-1,594,323,0,0
-623,701,0,0,0,0,0,0,0,0,0,-1,601,323,0,0
-616,701,0,0,0,0,0,0,0,0,0,-1,608,323,0,0
-609,701,0,0,0,0,0,0,0,0,0,-1,615,323,0,0
-602,701,0,0,0,0,0,0,0,0,0,-1,622,323,0,0
-595,701,0,0,0,0,0,0,0,0,0,-1,629,323,0,0
-588,701,0,0,0,0,0,0,0,0,0,-1,636,323,0,0
-581,701,0,0,0,0,0,0,0,0,0,-1,643,323,0,0
-574,701,0,0,0,0,0,0,0,0,0,-1,650,323,0,0
-567,701,0,0,0,0,0,0,0,0,0,-1,657,323,0,0
-560,701,0,0,0,0,0,0,0,0,0,-1,664,323,0,0
-553,701,0,0,0,0,0,0,0,0,0,-1,671,323,0,0
-546,701,0,0,0,0,0,0,0,0,0,-1,678,323,0,0
-539,701,0,0,0,0,0,0,0,0,0,-1,685,323,0,0
-532,701,0,0,0,0,0,0,0,0,0,-1,692,323,0,0
-525,701,0,0,0,0,0,0,0,0,0,-1,699,323,0,0
-518,701,0,0,0,0,0,0,0,0,0,-1,706,323,0,0
-511,701,0,0,0,0,0,0,0,0,0,-1,713,323,0,0
-504,701,0,0,0,0,0,0,0,0,0,-1,720,323,0,0
-497,701,0,0,0,0,0,0,0,0,0,-1,727,323,0,0
-490,701,0,0,0,0,0,0,0,0,0,-1,734,323,0,0
-483,701,0,0,0,0,0,0,0,0,0,-1,741,323,0,0
-476,701,0,0,0,0,0,0,0,0,0,-1,748,323,0,0
-469,701,0,0,0,0,0,0,0,0,0,-1,755,323,0,0
-462,701,0,0,0,0,0,0,0,0,0,-1,762,323,0,0
-455,701,0,0,0,0,0,0,0,0,0,-1,769,323,0,0
-448,701,0,0,0,0,0,0,0,0,0,-1,776,323,0,0
-441,701,0,0,0,0,0,0,0,0,0,-1,783,323,0,0
-434,701,0,0,0,0,0,0,0,0,0,-1,790,323,0,0
-427,701,0,0,0,0,0,0,0,0,0,-1,797,323,0,0
-420,701,0,0,0,0,0,0,0,0,0,-1,804,323,0,0
-413,701,0,0,0,0,0,0,0,0,0,-1,811,323,0,0
-406,701,0,0,0,0,0,0,0,0,0,-1,818,323,0,0
-399,701,0,0,0,0,0,0,0,0,0,-1,825,323,0,0
-392,701,0,0,0,0,0,0,0,0,0,-1,832,323,0,0
-385,701,0,0,0,0,0,0,0,0,0,-1,839,323,0,0
-378,701,0,0,0,0,0,0,0,0,0,-1,846,323,0,0
-371,701,0,0,0,0,0,0,0,0,0,-1,853,323,0,0
-364,701,0,0,0,0,0,0,0,0,0,-1,860,323,0,0
-357,701,0,0,0,0,0,0,0,0,0,-1,867,323,0,0
-350,701,0,0,0,0,0,0,0,0,0,-1,874,323,0,0
-343,701,0,0,0,0,0,0,0,0,0,-1,881,323,0,0
-336,701,0,0,0,0,0,0,0,0,0,-1,888,323,0,0
-329,701,0,0,0,0,0,0,0,0,0,-1,895,323,0,0
-322,701,0,0,0,0,0,0,0,0,0,-1,902,323,0,0
-315,701,0,0,0,0,0,0,0,0,0,-1,909,323,0,0
-308,701,0,0,0,0,0,0,0,0,0,-1,916,323,0,0
-301,701,0,0,0,0,0,0,0,0,0,-1,923,323,0,0
-294,701,0,0,0,0,0,0,0,0,0,-1,930,323,0,0
-287,701,0,0,0,0,0,0,0,0,0,-1,937,323,0,0
-280,701,0,0,0,0,0,0,0,0,0,-1,944,323,0,0
-273,701,0,0,0,0,0,0,0,0,0,-1,951,323,0,0
-266,701,0,0,0,0,0,0,0,0,0,-1,958,323,0,0
-259,701,0,0,0,0,0,0,0,0,0,-1,965,323,0,0
-252,701,0,0,0,0,0,0,0,0,0,-1,972,323,0,0
-245,701,0,0,0,0,0,0,0,0,0,-1,979,323,0,0
-238,701,0,0,0,0,0,0,0,0,0,-1,986,323,0,0
-231,701,0,0,0,0,0,0,0,0,0,-1,993,323,0,0
-224,701,0,0,0,0,0,0,0,0,0,-1,1000,323,0,0
-217,701,0,0,0,0,0,0,0,0,0,-1,1007,323,0,0
-210,701,0,0,0,0,0,0,0,0,0,-1,1014,323,0,0
-203,701,0,0,0,0,0,0,0,0,0,-1,1021,323,0,0
-196,701,0,0,0,0,0,0,0,0,0,-1,1028,323,0,0
-189,701,0,0,0,0,0,0,0,0,0,-1,1035,323,0,0
-182,701,0,0,0,0,0,0,0,0,0,-1,1042,323,0,0
-175,701,0,0,0,0,0,0,0,0,0,-1,1049,323,0,0
-168,701,0,0,0,0,0,0,0,0,0,-1,1056,323,0,0
-161,701,0,0,0,0,0,0,0,0,0,-1,1063,323,0,0
-154,701,0,0,0,0,0,0,0,0,0,-1,1070,323,0,0
-147,701,0,0,0,0,0,0,0,0,0,-1,1077,323,0,0
-140,701,0,0,0,0,0,0,0,0,0,-1,1084,323,0,0
-133,701,0,0,0,0,0,0,0,0,0,-1,1091,323,0,0
-126,701,0,0,0,0,0,0,0,0,0,-1,1098,323,0,0
-119,701,0,0,0,0,0,0,0,0,0,-1,1105,323,0,0
-112,701,0,0,0,0,0,0,0,0,0,-1,1112,323,0,0
-105,701,0,0,0,0,0,0,0,0,0,-1,1119,323,0,0
-98,701,0,0,0,0,0,0,0,0,0,-1,1126,323,0,0
-91,701,0,0,0,0,0,0,0,0,0,-1,1133,323,0,0
-84,701,0,0,0,0,0,0,0,0,0,-1,1140,323,0,0
-77,701,0,0,0,0,0,0,0,0,0,-1,1147,323,0,0
-70,701,-12.7566,-30.413,0,0,0,0,0,0,0,-1,1154,323,-12.7566,30.413
-63,701,-18.3169,-21.2322,0,0,0,0,0,0,0,-1,1161,323,-18.3169,21.2322
-56,701,-0.420166,-0.101776,0,0,0,0,0,0,0,-1,1168,323,-0.420119,0.101777
-49,701,-1.09021,-0.155762,0,0,0,0,0,0,0,-1,1175,323,-1.09024,0.155768
-42,701,-0.210327,-0.299133,0,0,0,0,0,0,0,-1,1182,323,-0.210379,0.29914
-35,701,-2.9635,-7.98676,0,0,0,0,0,0,0,-1,1189,323,-2.9635,7.98676
-28,701,-6.64417,-5.4917,0,0,0,0,0,0,0,-1,1196,323,-6.64411,5.4917
-21,701,9.13025,-52.7033,0,0,0,0,0,0,0,-1,1203,323,9.1303,52.7033
-14,701,9.09619,-53.9633,0,0,0,0,0,0,0,-1,1210,323,9.09625,53.9633
-7,701,9.1283,-55.5368,0,0,0,0,0,0,0,-1,1217,323,9.12833,55.5368
0,701,8.59094,-56.8101,0,0,0,0,0,0,0,-1,1224,323,8.591,56.8101
7,701,7.83521,-58.0021,-0.0633196,0.116675,-0.112618,0.170838,-0.117483,-1.12251,0.167409,0.0461156,1231,323,7.83522,58.0021
14,701,7.01257,-59.1565,-0.0610938,0.112655,-0.107829,0.164252,-0.112691,-1.12449,0.160814,0.0453544,1238,323,7.01252,59.1565
21,701,6.38196,-60.531,-0.0573648,0.110693,-0.101386,0.158345,-0.105017,-1.13143,0.153088,0.0449459,1245,323,6.38195,60.531
28,701,6.74683,-62.7444,0,0,0,0,0,0,0,-1,1252,323,6.74684,62.7443
35,701,6.72119,-63.0958,0,0,0,0,0,0,0,-1,1259,323,6.7212,63.0958
42,701,6.69556,-63.4473,0,0,0,0,0,0,0,-1,1266,323,6.69557,63.4473
49,701,8.89221,-61.1788,0,0,0,0,0,0,0,-1,1273,323,8.89221,61.1788
56,701,8.0271,-61.0182,0,0,0,0,0,0,0,-1,1280,323,8.02716,61.0182
63,701,7.80115,-60.6511,0,0,0,0,0,0,0,-1,1287,323,7.80116,60.6511
70,701,8.77173,-59.5532,0,0,0,0,0,0,0,-1,1294,323,8.77169,59.5532
77,701,8.95569,-59.5044,0,0,0,0,0,0,0,-1,1301,323,8.95573,59.5044
84,701,1.78052,-66.1365,0,0,0,0,0,0,0,-1,1308,323,1.78053,66.1365
91,701,1.66748,-65.4139,0,0,0,0,0,0,0,-1,1315,323,1.66752,65.4139
98,701,1.78906,-64.7637,0,0,0,0,0,0,0,-1,1322,323,1.78906,64.7637
105,701,2.35608,-64.0697,0,0,0,0,0,0,0,-1,1329,323,2.35613,64.0697
112,701,2.69434,-63.4658,0,0,0,0,0,0,0,-1,1336,323,2.69434,63.4658
119,701,2.94739,-62.5141,0,0,0,0,0,0,0,-1,1343,323,2.94738,62.5141
126,701,3.26941,-61.7516,0,0,0,0,0,0,0,-1,1350,323,3.26937,61.7516
133,701,3.55347,-61.0449,0,0,0,0,0,0,0,-1,1357,323,3.55344,61.0449
140,701,3.82654,-60.349,0,0,0,0,0,0,0,-1,1364,323,3.82651,60.349
147,701,2.64539,-57.7896,0,0,0,0,0,0,0,-1,1371,323,2.64541,57.7896
154,701,-3.18616,-59.7673,0,0,0,0,0,0,0,-1,1378,323,-3.18613,59.7673
161,701,-4.83057,-59.3711,0,0,0,0,0,0,0,-1,1385,323,-4.83061,59.3711
168,701,30.7272,1.76184,0,0,0,0,0,0,0,-1,1392,323,30.7272,-1.76184
175,701,31.5035,2.25711,0,0,0,0,0,0,0,-1,1399,323,31.5036,-2.25712
182,701,8.80652,5.42807,0,0,0,0,0,0,0,-1,1406,323,8.8065,-5.42808
189,701,8.58081,4.24493,0,0,0,0,0,0,0,-1,1413,323,8.58082,-4.24494
196,701,0,0,0,0,0,0,0,0,0,-1,1420,323,0,0
203,701,0,0,0,0,0,0,0,0,0,-1,1427,323,0,0
210,701,0,0,0,0,0,0,0,0,0,-1,1434,323,0,0
217,701,0,0,0,0,0,0,0,0,0,-1,1441,323,0,0
224,701,0,0,0,0,0,0,0,0,0,-1,1448,323,0,0
231,701,0,0,0,0,0,0,0,0,0,-1,1455,323,0,0
238,701,0,0,0,0,0,0,0,0,0,-1,1462,323,0,0
245,701,0,0,0,0,0,0,0,0,0,-1,1469,323,0,0
252,701,0,0,0,0,0,0,0,0,0,-1,1476,323,0,0
259,701,0,0,0,0,0,0,0,0,0,-1,1483,323,0,0
266,701,0,0,0,0,0,0,0,0,0,-1,1490,323,0,0
273,701,0,0,0,0,0,0,0,0,0,-1,1497,323,0,0
280,701,0,0,0,0,0,0,0,0,0,-1,1504,323,0,0
287,701,0,0,0,0,0,0,0,0,0,-1,1511,323,0,0
294,701,0,0,0,0,0,0,0,0,0,-1,1518,323,0,0
301,701,0,0,0,0,0,0,0,0,0,-1,1525,323,0,0
308,701,0,0,0,0,0,0,0,0,0,-1,1532,323,0,0
315,701,0,0,0,0,0,0,0,0,0,-1,1539,323,0,0
322,701,0,0,0,0,0,0,0,0,0,-1,1546,323,0,0
329,701,0,0,0,0,0,0,0,0,0,-1,1553,323,0,0
336,701,0,0,0,0,0,0,0,0,0,-1,1560,323,0,0
343,701,0,0,0,0,0,0,0,0,0,-1,1567,323,0,0
350,701,0,0,0,0,0,0,0,0,0,-1,1574,323,0,0
357,701,0,0,0,0,0,0,0,0,0,-1,1581,323,0,0
364,701,0,0,0,0,0,0,0,0,0,-1,1588,323,0,0
371,701,0,0,0,0,0,0,0,0,0,-1,1595,323,0,0
378,701,0,0,0,0,0,0,0,0,0,-1,1602,323,0,0
385,701,0,0,0,0,0,0,0,0,0,-1,1609,323,0,0
392,701,0,0,0,0,0,0,0,0,0,-1,1616,323,0,0
399,701,0,0,0,0,0,0,0,0,0,-1,1623,323,0,0
406,701,0,0,0,0,0,0,0,0,0,-1,1630,323,0,0
413,701,0,0,0,0,0,0,0,0,0,-1,1637,323,0,0
420,701,0,0,0,0,0,0,0,0,0,-1,1644,323,0,0
427,701,0,0,0,0,0,0,0,0,0,-1,1651,323,0,0
434,701,0,0,0,0,0,0,0,0,0,-1,1658,323,0,0
441,701,0,0,0,0,0,0,0,0,0,-1,1665,323,0,0
448,701,0,0,0,0,0,0,0,0,0,-1,1672,323,0,0
455,701,0,0,0,0,0,0,0,0,0,-1,1679,323,0,0
462,701,0,0,0,0,0,0,0,0,0,-1,1686,323,0,0
469,701,0,0,0,0,0,0,0,0,0,-1,1693,323,0,0
476,701,0,0,0,0,0,0,0,0,0,-1,1700,323,0,0
483,701,0,0,0,0,0,0,0,0,0,-1,1707,323,0,0
490,701,0,0,0,0,0,0,0,0,0,-1,1714,323,0,0
497,701,0,0,0,0,0,0,0,0,0,-1,1721,323,0,0
504,701,0,0,0,0,0,0,0,0,0,-1,1728,323,0,0
511,701,0,0,0,0,0,0,0,0,0,-1,1735,323,0,0
518,701,0,0,0,0,0,0,0,0,0,-1,1742,323,0,0
525,701,0,0,0,0,0,0,0,0,0,-1,1749,323,0,0
532,701,0,0,0,0,0,0,0,0,0,-1,1756,323,0,0
539,701,0,0,0,0,0,0,0,0,0,-1,1763,323,0,0
546,701,0,0,0,0,0,0,0,0,0,-1,1770,323,0,0
553,701,0,0,0,0,0,0,0,0,0,-1,1777,323,0,0
560,701,0,0,0,0,0,0,0,0,0,-1,1784,323,0,0
567,701,0,0,0,0,0,0,0,0,0,-1,1791,323,0,0
574,701,0,0,0,0,0,0,0,0,0,-1,1798,323,0,0
581,701,0,0,0,0,0,0,0,0,0,-1,1805,323,0,0
588,701,0,0,0,0,0,0,0,0,0,-1,1812,323,0,0
595,701,0,0,0,0,0,0,0,0,0,-1,1819,323,0,0
602,701,0,0,0,0,0,0,0,0,0,-1,1826,323,0,0
609,701,0,0,0,0,0,0,0,0,0,-1,1833,323,0,0
616,701,0,0,0,0,0,0,0,0,0,-1,1840,323,0,0
623,701,0,0,0,0,0,0,0,0,0,-1,1847,323,0,0
630,701,0,0,0,0,0,0,0,0,0,-1,1854,323,0,0
637,701,0,0,0,0,0,0,0,0,0,-1,1861,323,0,0
644,701,0,0,0,0,0,0,0,0,0,-1,1868,323,0,0
651,701,0,0,0,0,0,0,0,0,0,-1,1875,323,0,0
658,701,0,0,0,0,0,0,0,0,0,-1,1882,323,0,0
665,701,0,0,0,0,0,0,0,0,0,-1,1889,323,0,0
672,701,0,0,0,0,0,0,0,0,0,-1,1896,323,0,0
679,701,0,0,0,0,0,0,0,0,0,-1,1903,323,0,0
686,701,0,0,0,0,0,0,0,0,0,-1,1910,323,0,0
693,701,0,0,0,0,0,0,0,0,0,-1,1917,323,0,0
700,701,0,0,0,0,0,0,0,0,0,-1,1924,323,0,0
707,701,0,0,0,0,0,0,0,0,0,-1,1931,323,0,0
714,701,0,0,0,0,0,0,0,0,0,-1,1938,323,0,0
721,701,0,0,0,0,0,0,0,0,0,-1,1945,323,0,0
728,701,0,0,0,0,0,0,0,0,0,-1,1952,323,0,0
735,701,0,0,0,0,0,0,0,0,0,-1,1959,323,0,0
742,701,0,0,0,0,0,0,0,0,0,-1,1966,323,0,0
749,701,0,0,0,0,0,0,0,0,0,-1,1973,323,0,0
756,701,0,0,0,0,0,0,0,0,0,-1,1980,323,0,0
763,701,0,0,0,0,0,0,0,0,0,-1,1987,323,0,0
770,701,0,0,0,0,0,0,0,0,0,-1,1994,323,0,0
777,701,0,0,0,0,0,0,0,0,0,-1,2001,323,0,0
784,701,0,0,0,0,0,0,0,0,0,-1,2008,323,0,0
791,701,0,0,0,0,0,0,0,0,0,-1,2015,323,0,0
798,701,0,0,0,0,0,0,0,0,0,-1,2022,323,0,0
805,701,0,0,0,0,0,0,0,0,0,-1,2029,323,0,0
812,701,0,0,0,0,0,0,0,0,0,-1,2036,323,0,0
-700,694,0,0,0,0,0,0,0,0,0,-1,524,330,0,0
-693,694,0,0,0,0,0,0,0,0,0,-1,531,330,0,0
-686,694,0,0,0,0,0,0,0,0,0,-1,538,330,0,0
-679,694,0,0,0,0,0,0,0,0,0,-1,545,330,0,0
-672,694,0,0,0,0,0,0,0,0,0,-1,552,330,0,0
-665,694,0,0,0,0,0,0,0,0,0,-1,559,330,0,0
-658,694,0,0,0,0,0,0,0,0,0,-1,566,330,0,0
-651,694,0,0,0,0,0,0,0,0,0,-1,573,330,0,0
-644,694,0,0,0,0,0,0,0,0,0,-1,580,330,0,0
-637,694,0,0,0,0,0,0,0,0,0,-1,587,330,0,0
-630,694,0,0,0,0,0,0,0,0,0,-1,594,330,0,0
-623,694,0,0,0,0,0,0,0,0,0,-1,601,330,0,0
-616,694,0,0,0,0,0,0,0,0,0,-1,608,330,0,0
-609,694,0,0,0,0,0,0,0,0,0,-1,615,330,0,0
-602,694,0,0,0,0,0,0,0,0,0,-1,622,330,0,0
-595,694,0,0,0,0,0,0,0,0,0,-1,629,330,0,0
-588,694,0,0,0,0,0,0,0,0,0,-1,636,330,0,0
-581,694,0,0,0,0,0,0,0,0,0,-1,643,330,0,0
-574,694,0,0,0,0,0,0,0,0,0,-1,650,330,0,0
-567,694,0,0,0,0,0,0,0,0,0,-1,657,330,0,0
-560,694,0,0,0,0,0,0,0,0,0,-1,664,330,0,0
-553,694,0,0,0,0,0,0,0,0,0,-1,671,330,0,0
-546,694,0,0,0,0,0,0,0,0,0,-1,678,330,0,0
-539,694,0,0,0,0,0,0,0,0,0,-1,685,330,0,0
-532,694,0,0,0,0,0,0,0,0,0,-1,692,330,0,0
-525,694,0,0,0,0,0,0,0,0,0,-1,699,330,0,0
-518,694,0,0,0,0,0,0,0,0,0,-1,706,330,0,0
-511,694,0,0,0,0,0,0,0,0,0,-1,713,330,0,0
-504,694,0,0,0,0,0,0,0,0,0,-1,720,330,0,0
-497,694,0,0,0,0,0,0,0,0,0,-1,727,330,0,0
-490,694,0,0,0,0,0,0,0,0,0,-1,734,330,0,0
-483,694,0,0,0,0,0,0,0,0,0,-1,741,330,0,0
-476,694,0,0,0,0,0,0,0,0,0,-1,748,330,0,0
-469,694,0,0,0,0,0,0,0,0,0,-1,755,330,0,0
-462,694,0,0,0,0,0,0,0,0,0,-1,762,330,0,0
-455,694,0,0,0,0,0,0,0,0,0,-1,769,330,0,0
-448,694,0,0,0,0,0,0,0,0,0,-1,776,330,0,0
-441,694,0,0,0,0,0,0,0,0,0,-1,783,330,0,0
-434,694,0,0,0,0,0,0,0,0,0,-1,790,330,0,0
-427,694,0,0,0,0,0,0,0,0,0,-1,797,330,0,0
-420,694,0,0,0,0,0,0,0,0,0,-1,804,330,0,0
-413,694,0,0,0,0,0,0,0,0,0,-1,811,330,0,0
-406,694,0,0,0,0,0,0,0,0,0,-1,818,330,0,0
-399,694,0,0,0,0,0,0,0,0,0,-1,825,330,0,0
-392,694,0,0,0,0,0,0,0,0,0,-1,832,330,0,0
-385,694,0,0,0,0,0,0,0,0,0,-1,839,330,0,0
-378,694,0,0,0,0,0,0,0,0,0,-1,846,330,0,0
-371,694,0,0,0,0,0,0,0,0,0,-1,853,330,0,0
-364,694,0,0,0,0,0,0,0,0,0,-1,860,330,0,0
-357,694,0,0,0,0,0,0,0,0,0,-1,867,330,0,0
-350,694,0,0,0,0,0,0,0,0,0,-1,874,330,0,0
-343,694,0,0,0,0,0,0,0,0,0,-1,881,330,0,0
-336,694,0,0,0,0,0,0,0,0,0,-1,888,330,0,0
-329,694,0,0,0,0,0,0,0,0,0,-1,895,330,0,0
-322,694,0,0,0,0,0,0,0,0,0,-1,902,330,0,0
-315,694,0,0,0,0,0,0,0,0,0,-1,909,330,0,0
-308,694,0,0,0,0,0,0,0,0,0,-1,916,330,0,0
-301,694,0,0,0,0,0,0,0,0,0,-1,923,330,0,0
-294,694,0,0,0,0,0,0,0,0,0,-1,930,330,0,0
-287,694,0,0,0,0,0,0,0,0,0,-1,937,330,0,0
-280,694,0,0,0,0,0,0,0,0,0,-1,944,330,0,0
-273,694,0,0,0,0,0,0,0,0,0,-1,951,330,0,0
-266,694,0,0,0,0,0,0,0,0,0,-1,958,330,0,0
-259,694,0,0,0,0,0,0,0,0,0,-1,965,330,0,0
-252,694,0,0,0,0,0,0,0,0,0,-1,972,330,0,0
-245,694,0,0,0,0,0,0,0,0,0,-1,979,330,0,0
-238,694,0,0,0,0,0,0,0,0,0,-1,986,330,0,0
-231,694,0,0,0,0,0,0,0,0,0,-1,993,330,0,0
-224,694,0,0,0,0,0,0,0,0,0,-1,1000,330,0,0
-217,694,0,0,0,0,0,0,0,0,0,-1,1007,330,0,0
-210,694,0,0,0,0,0,0,0,0,0,-1,1014,330,0,0
-203,694,0,0,0,0,0,0,0,0,0,-1,1021,330,0,0
-196,694,0,0,0,0,0,0,0,0,0,-1,1028,330,0,0
-189,694,0,0,0,0,0,0,0,0,0,-1,1035,330,0,0
-182,694,0,0,0,0,0,0,0,0,0,-1,1042,330,0,0
-175,694,0,0,0,0,0,0,0,0,0,-1,1049,330,0,0
-168,694,0,0,0,0,0,0,0,0,0,-1,1056,330,0,0
-161,694,0,0,0,0,0,0,0,0,0,-1,1063,330,0,0
-154,694,0,0,0,0,0,0,0,0,0,-1,1070,330,0,0
-147,694,0,0,0,0,0,0,0,0,0,-1,1077,330,0,0
-140,694,0,0,0,0,0,0,0,0,0,-1,1084,330,0,0
-133,694,0,0,0,0,0,0,0,0,0,-1,1091,330,0,0
-126,694,0,0,0,0,0,0,0,0,0,-1,1098,330,0,0
-119,694,0,0,0,0,0,0,0,0,0,-1,1105,330,0,0
-112,694,0,0,0,0,0,0,0,0,0,-1,1112,330,0,0
-105,694,2.5188,-19.3963,0,0,0,0,0,0,0,-1,1119,330,2.51882,19.3963
-98,694,1.34875,-10.1051,0,0,0,0,0,0,0,-1,1126,330,1.34874,10.1051
-91,694,6.62366,-46.8039,0,0,0,0,0,0,0,-1,1133,330,6.62363,46.8039
-84,694,0.0577393,-40.8823,0,0,0,0,0,0,0,-1,1140,330,0.0577026,40.8823
-77,694,-5.51379,-31.2714,0,0,0,0,0,0,0,-1,1147,330,-5.51383,31.2714
-70,694,-11.9945,-25.5143,0,0,0,0,0,0,0,-1,1154,330,-11.9945,25.5143
-63,694,-18.4752,-19.7572,0,0,0,0,0,0,0,-1,1161,330,-18.4752,19.7572
-56,694,-6.50623,-0.649139,0,0,0,0,0,0,0,-1,1168,330,-6.5062,0.649126
-49,694,-1.11426,0.0341797,0,0,0,0,0,0,0,-1,1175,330,-1.11424,-0.0341846
-42,694,-0.346313,-0.709595,0,0,0,0,0,0,0,-1,1182,330,-0.346298,0.709581
-35,694,-0.459106,-1.24713,0,0,0,0,0,0,0,-1,1189,330,-0.459142,1.24714
-28,694,-6.48413,-3.95972,0,0,0,0,0,0,0,-1,1196,330,-6.48414,3.9597
-21,694,9.71411,-53.743,0,0,0,0,0,0,0,-1,1203,330,9.71411,53.743
-14,694,9.59082,-55.0583,-0.0500316,0.112409,-0.102124,0.161673,-0.0992953,-1.12134,0.152098,0.0468214,1210,330,9.59084,55.0583
-7,694,9.38379,-56.3176,-0.0511528,0.108734,-0.0986953,0.155801,-0.09822,-1.1258,0.14791,0.0451206,1217,330,9.38375,56.3176
0,694,8.81799,-57.4637,0,0,0,0,0,0,0,-1,1224,330,8.818,57.4637
7,694,8.11926,-58.637,0,0,0,0,0,0,0,-1,1231,330,8.11927,58.637
14,694,6.83069,-60.6881,0,0,0,0,0,0,0,-1,1238,330,6.83066,60.6881
21,694,6.86475,-61.2744,0,0,0,0,0,0,0,-1,1245,330,6.86471,61.2744
28,694,6.82751,-62.2239,0,0,0,0,0,0,0,-1,1252,330,6.82748,62.2239
35,694,6.75879,-62.724,0,0,0,0,0,0,0,-1,1259,330,6.75874,62.724
42,694,6.93726,-63.0758,0,0,0,0,0,0,0,-1,1266,330,6.93725,63.0758
49,694,7.23291,-63.4245,0,0,0,0,0,0,0,-1,1273,330,7.23293,63.4245
56,694,7.65942,-62.8365,0,0,0,0,0,0,0,-1,1280,330,7.65948,62.8364
63,694,8.047,-60.6485,0,0,0,0,0,0,0,-1,1287,330,8.047,60.6485
70,694,8.80701,-60.5142,0,0,0,0,0,0,0,-1,1294,330,8.80703,60.5142
77,694,9.1991,-60.5038,0,0,0,0,0,0,0,-1,1301,330,9.19915,60.5039
84,694,9.68518,-60.5601,0,0,0,0,0,0,0,-1,1308,330,9.68523,60.5601
91,694,1.07605,-65.944,0,0,0,0,0,0,0,-1,1315,330,1.07608,65.944
98,694,1.37476,-65.3141,0,0,0,0,0,0,0,-1,1322,330,1.37478,65.3141
105,694,2.22815,-64.3872,0,0,0,0,0,0,0,-1,1329,330,2.2281,64.3872
112,694,2.77319,-63.8482,0,0,0,0,0,0,0,-1,1336,330,2.77318,63.8482
119,694,3.26746,-62.7639,0,0,0,0,0,0,0,-1,1343,330,3.26741,62.7639
126,694,3.99951,-62.028,0,0,0,0,0,0,0,-1,1350,330,3.9995,62.028
133,694,4.05457,-61.4005,0,0,0,0,0,0,0,-1,1357,330,4.05455,61.4005
140,694,4.10962,-60.773,0,0,0,0,0,0,0,-1,1364,330,4.10961,60.773
147,694,3.78748,-58.6999,0,0,0,0,0,0,0,-1,1371,330,3.78749,58.6999
154,694,4.50549,-58.4325,0,0,0,0,0,0,0,-1,1378,330,4.50555,58.4325
161,694,0.0187988,-38.6779,0,0,0,0,0,0,0,-1,1385,330,0.0187579,38.6779
168,694,30.451,0.196686,0,0,0,0,0,0,0,-1,1392,330,30.4511,-0.196674
175,694,31.0701,0.869873,0,0,0,0,0,0,0,-1,1399,330,31.07,-0.869874
182,694,8.29028,5.75238,0,0,0,0,0,0,0,-1,1406,330,8.29034,-5.75237
189,694,7.9801,4.46118,0,0,0,0,0,0,0,-1,1413,330,7.9801,-4.46118
196,694,7.39331,3.32632,0,0,0,0,0,0,0,-1,1420,330,7.39329,-3.32633
203,694,7.04492,2.20529,0,0,0,0,0,0,0,-1,1427,330,7.04496,-2.20529
210,694,6.44714,0.646912,0,0,0,0,0,0,0,-1,1434,330,6.44717,-0.646903
217,694,7.12061,-0.644958,0,0,0,0,0,0,0,-1,1441,330,7.12059,0.644961
224,694,6.74011,-1.70544,0,0,0,0,0,0,0,-1,1448,330,6.74013,1.70546
231,694,0,0,0,0,0,0,0,0,0,-1,1455,330,0,0
238,694,0,0,0,0,0,0,0,0,0,-1,1462,330,0,0
245,694,0,0,0,0,0,0,0,0,0,-1,1469,330,0,0
252,694,0,0,0,0,0,0,0,0,0,-1,1476,330,0,0
259,694,0,0,0,0,0,0,0,0,0,-1,1483,330,0,0
266,694,0,0,0,0,0,0,0,0,0,-1,1490,330,0,0
273,694,0,0,0,0,0,0,0,0,0,-1,1497,330,0,0
280,694,0,0,0,0,0,0,0,0,0,-1,1504,330,0,0
287,694,0,0,0,0,0,0,0,0,0,-1,1511,330,0,0
294,694,0,0,0,0,0,0,0,0,0,-1,1518,330,0,0
301,694,0,0,0,0,0,0,0,0,0,-1,1525,330,0,0
308,694,0,0,0,0,0,0,0,0,0,-1,1532,330,0,0
315,694,0,0,0,0,0,0,0,0,0,-1,1539,330,0,0
322,694,0,0,0,0,0,0,0,0,0,-1,1546,330,0,0
329,694,0,0,0,0,0,0,0,0,0,-1,1553,330,0,0
336,694,0,0,0,0,0,0,0,0,0,-1,1560,330,0,0
343,694,0,0,0,0,0,0,0,0,0,-1,1567,330,0,0
350,694,0,0,0,0,0,0,0,0,0,-1,1574,330,0,0
357,694,0,0,0,0,0,0,0,0,0,-1,1581,330,0,0
364,694,0,0,0,0,0,0,0,0,0,-1,1588,330,0,0
371,694,0,0,0,0,0,0,0,0,0,-1,1595,330,0,0
378,694,0,0,0,0,0,0,0,0,0,-1,1602,330,0,0
385,694,0,0,0,0,0,0,0,0,0,-1,1609,330,0,0
392,694,0,0,0,0,0,0,0,0,0,-1,1616,330,0,0
399,694,0,0,0,0,0,0,0,0,0,-1,1623,330,0,0
406,694,0,0,0,0,0,0,0,0,0,-1,1630,330,0,0
413,694,0,0,0,0,0,0,0,0,0,-1,1637,330,0,0
420,694,0,0,0,0,0,0,0,0,0,-1,1644,330,0,0
427,694,0,0,0,0,0,0,0,0,0,-1,1651,330,0,0
434,694,0,0,0,0,0,0,0,0,0,-1,1658,330,0,0
441,694,0,0,0,0,0,0,0,0,0,-1,1665,330,0,0
448,694,0,0,0,0,0,0,0,0,0,-1,1672,330,0,0
455,694,0,0,0,0,0,0,0,0,0,-1,1679,330,0,0
462,694,0,0,0,0,0,0,0,0,0,-1,1686,330,0,0
469,694,0,0,0,0,0,0,0,0,0,-1,1693,330,0,0
476,694,0,0,0,0,0,0,0,0,0,-1,1700,330,0,0
483,694,0,0,0,0,0,0,0,0,0,-1,1707,330,0,0
490,694,0,0,0,0,0,0,0,0,0,-1,1714,330,0,0
497,694,0,0,0,0,0,0,0,0,0,-1,1721,330,0,0
504,694,0,0,0,0,0,0,0,0,0,-1,1728,330,0,0
511,694,0,0,0,0,0,0,0,0,0,-1,1735,330,0,0
518,694,0,0,0,0,0,0,0,0,0,-1,1742,330,0,0
525,694,0,0,0,0,0,0,0,0,0,-1,1749,330,0,0
532,694,0,0,0,0,0,0,0,0,0,-1,1756,330,0,0
539,694,0,0,0,0,0,0,0,0,0,-1,1763,330,0,0
546,694,0,0,0,0,0,0,0,0,0,-1,1770,330,0,0
553,694,0,0,0,0,0,0,0,0,0,-1,1777,330,0,0
560,694,0,0,0,0,0,0,0,0,0,-1,1784,330,0,0
567,694,0,0,0,0,0,0,0,0,0,-1,1791,330,0,0
574,694,0,0,0,0,0,0,0,0,0,-1,1798,330,0,0
581,694,0,0,0,0,0,0,0,0,0,-1,1805,330,0,0
588,694,0,0,0,0,0,0,0,0,0,-1,1812,330,0,0
595,694,0,0,0,0,0,0,0,0,0,-1,1819,330,0,0
602,694,0,0,0,0,0,0,0,0,0,-1,1826,330,0,0
609,694,0,0,0,0,0,0,0,0,0,-1,1833,330,0,0
616,694,0,0,0,0,0,0,0,0,0,-1,1840,330,0,0
623,694,0,0,0,0,0,0,0,0,0,-1,1847,330,0,0
630,694,0,0,0,0,0,0,0,0,0,-1,1854,330,0,0
637,694,0,0,0,0,0,0,0,0,0,-1,1861,330,0,0
644,694,0,0,0,0,0,0,0,0,0,-1,1868,330,0,0
651,694,0,0,0,0,0,0,0,0,0,-1,1875,330,0,0
658,694,0,0,0,0,0,0,0,0,0,-1,1882,330,0,0
665,694,0,0,0,0,0,0,0,0,0,-1,1889,330,0,0
672,694,0,0,0,0,0,0,0,0,0,-1,1896,330,0,0
679,694,0,0,0,0,0,0,0,0,0,-1,1903,330,0,0
686,694,0,0,0,0,0,0,0,0,0,-1,1910,330,0,0
693,694,0,0,0,0,0,0,0,0,0,-1,1917,330,0,0
700,694,0,0,0,0,0,0,0,0,0,-1,1924,330,0,0
707,694,0,0,0,0,0,0,0,0,0,-1,1931,330,0,0
714,694,0,0,0,0,0,0,0,0,0,-1,1938,330,0,0
721,694,0,0,0,0,0,0,0,0,0,-1,1945,330,0,0
728,694,0,0,0,0,0,0,0,0,0,-1,1952,330,0,0
735,694,0,0,0,0,0,0,0,0,0,-1,1959,330,0,0
742,694,0,0,0,0,0,0,0,0,0,-1,1966,330,0,0
749,694,0,0,0,0,0,0,0,0,0,-1,1973,330,0,0
756,694,0,0,0,0,0,0,0,0,0,-1,1980,330,0,0
763,694,0,0,0,0,0,0,0,0,0,-1,1987,330,0,0
770,694,0,0,0,0,0,0,0,0,0,-1,1994,330,0,0
777,694,0,0,0,0,0,0,0,0,0,-1,2001,330,0,0
784,694,0,0,0,0,0,0,0,0,0,-1,2008,330,0,0
791,694,0,0,0,0,0,0,0,0,0,-1,2015,330,0,0
798,694,0,0,0,0,0,0,0,0,0,-1,2022,330,0,0
805,694,0,0,0,0,0,0,0,0,0,-1,2029,330,0,0
812,694,0,0,0,0,0,0,0,0,0,-1,2036,330,0,0
-700,687,0,0,0,0,0,0,0,0,0,-1,524,337,0,0
-693,687,0,0,0,0,0,0,0,0,0,-1,531,337,0,0
-686,687,0,0,0,0,0,0,0,0,0,-1,538,337,0,0
-679,687,0,0,0,0,0,0,0,0,0,-1,545,337,0,0
-672,687,0,0,0,0,0,0,0,0,0,-1,552,337,0,0
-665,687,0,0,0,0,0,0,0,0,0,-1,559,337,0,0
-658,687,0,0,0,0,0,0,0,0,0,-1,566,337,0,0
-651,687,0,0,0,0,0,0,0,0,0,-1,573,337,0,0
-644,687,0,0,0,0,0,0,0,0,0,-1,580,337,0,0
-637,687,0,0,0,0,0,0,0,0,0,-1,587,337,0,0
-630,687,0,0,0,0,0,0,0,0,0,-1,594,337,0,0
-623,687,0,0,0,0,0,0,0,0,0,-1,601,337,0,0
-616,687,0,0,0,0,0,0,0,0,0,-1,608,337,0,0
-609,687,0,0,0,0,0,0,0,0,0,-1,615,337,0,0
-602,687,0,0,0,0,0,0,0,0,0,-1,622,337,0,0
-595,687,0,0,0,0,0,0,0,0,0,-1,629,337,0,0
-588,687,0,0,0,0,0,0,0,0,0,-1,636,337,0,0
-581,687,0,0,0,0,0,0,0,0,0,-1,643,337,0,0
-574,687,0,0,0,0,0,0,0,0,0,-1,650,337,0,0
-567,687,0,0,0,0,0,0,0,0,0,-1,657,337,0,0
-560,687,0,0,0,0,0,0,0,0,0,-1,664,337,0,0
-553,687,0,0,0,0,0,0,0,0,0,-1,671,337,0,0
-546,687,0,0,0,0,0,0,0,0,0,-1,678,337,0,0
-539,687,0,0,0,0,0,0,0,0,0,-1,685,337,0,0
-532,687,0,0,0,0,0,0,0,0,0,-1,692,337,0,0
-525,687,0,0,0,0,0,0,0,0,0,-1,699,337,0,0
-518,687,0,0,0,0,0,0,0,0,0,-1,706,337,0,0
-511,687,0,0,0,0,0,0,0,0,0,-1,713,337,0,0
-504,687,0,0,0,0,0,0,0,0,0,-1,720,337,0,0
-497,687,0,0,0,0,0,0,0,0,0,-1,727,337,0,0
-490,687,0,0,0,0,0,0,0,0,0,-1,734,337,0,0
-483,687,0,0,0,0,0,0,0,0,0,-1,741,337,0,0
-476,687,0,0,0,0,0,0,0,0,0,-1,748,337,0,0
-469,687,0,0,0,0,0,0,0,0,0,-1,755,337,0,0
-462,687,0,0,0,0,0,0,0,0,0,-1,762,337,0,0
-455,687,0,0,0,0,0,0,0,0,0,-1,769,337,0,0
-448,687,0,0,0,0,0,0,0,0,0,-1,776,337,0,0
-441,687,0,0,0,0,0,0,0,0,0,-1,783,337,0,0
-434,687,0,0,0,0,0,0,0,0,0,-1,790,337,0,0
-427,687,0,0,0,0,0,0,0,0,0,-1,797,337,0,0
-420,687,0,0,0,0,0,0,0,0,0,-1,804,337,0,0
-413,687,0,0,0,0,0,0,0,0,0,-1,811,337,0,0
-406,687,0,0,0,0,0,0,0,0,0,-1,818,337,0,0
-399,687,0,0,0,0,0,0,0,0,0,-1,825,337,0,0
-392,687,0,0,0,0,0,0,0,0,0,-1,832,337,0,0
-385,687,0,0,0,0,0,0,0,0,0,-1,839,337,0,0
-378,687,0,0,0,0,0,0,0,0,0,-1,846,337,0,0
-371,687,0,0,0,0,0,0,0,0,0,-1,853,337,0,0
-364,687,0,0,0,0,0,0,0,0,0,-1,860,337,0,0
-357,687,0,0,0,0,0,0,0,0,0,-1,867,337,0,0
-350,687,0,0,0,0,0,0,0,0,0,-1,874,337,0,0
-343,687,0,0,0,0,0,0,0,0,0,-1,881,337,0,0
-336,687,0,0,0,0,0,0,0,0,0,-1,888,337,0,0
-329,687,0,0,0,0,0,0,0,0,0,-1,895,337,0,0
-322,687,0,0,0,0,0,0,0,0,0,-1,902,337,0,0
-315,687,0,0,0,0,0,0,0,0,0,-1,909,337,0,0
-308,687,0,0,0,0,0,0,0,0,0,-1,916,337,0,0
-301,687,0,0,0,0,0,0,0,0,0,-1,923,337,0,0
-294,687,0,0,0,0,0,0,0,0,0,-1,930,337,0,0
-287,687,0,0,0,0,0,0,0,0,0,-1,937,337,0,0
-280,687,0,0,0,0,0,0,0,0,0,-1,944,337,0,0
-273,687,0,0,0,0,0,0,0,0,0,-1,951,337,0,0
-266,687,0,0,0,0,0,0,0,0,0,-1,958,337,0,0
-259,687,0,0,0,0,0,0,0,0,0,-1,965,337,0,0
-252,687,0,0,0,0,0,0,0,0,0,-1,972,337,0,0
-245,687,0,0,0,0,0,0,0,0,0,-1,979,337,0,0
-238,687,0,0,0,0,0,0,0,0,0,-1,986,337,0,0
-231,687,0,0,0,0,0,0,0,0,0,-1,993,337,0,0
-224,687,0,0,0,0,0,0,0,0,0,-1,1000,337,0,0
-217,687,0,0,0,0,0,0,0,0,0,-1,1007,337,0,0
-210,687,0,0,0,0,0,0,0,0,0,-1,1014,337,0,0
-203,687,0,0,0,0,0,0,0,0,0,-1,1021,337,0,0
-196,687,0,0,0,0,0,0,0,0,0,-1,1028,337,0,0
-189,687,0,0,0,0,0,0,0,0,0,-1,1035,337,0,0
-182,687,0,0,0,0,0,0,0,0,0,-1,1042,337,0,0
-175,687,0,0,0,0,0,0,0,0,0,-1,1049,337,0,0
-168,687,0,0,0,0,0,0,0,0,0,-1,1056,337,0,0
-161,687,0,0,0,0,0,0,0,0,0,-1,1063,337,0,0
-154,687,0,0,0,0,0,0,0,0,0,-1,1070,337,0,0
-147,687,0,0,0,0,0,0,0,0,0,-1,1077,337,0,0
-140,687,0,0,0,0,0,0,0,0,0,-1,1084,337,0,0
-133,687,7.93958,-37.548,0,0,0,0,0,0,0,-1,1091,337,7.93957,37.548
-126,687,0.688477,-38.7298,0,0,0,0,0,0,0,-1,1098,337,0.688509,38.7298
-119,687,7.70825,-33.9236,0,0,0,0,0,0,0,-1,1105,337,7.70826,33.9236
-112,687,7.99866,-32.2983,0,0,0,0,0,0,0,-1,1112,337,7.99866,32.2983
-105,687,1.3208,-29.8313,0,0,0,0,0,0,0,-1,1119,337,1.3208,29.8313
-98,687,13.7111,-47.5645,0,0,0,0,0,0,0,-1,1126,337,13.711,47.5645
-91,687,7.22083,-41.1667,0,0,0,0,0,0,0,-1,1133,337,7.22079,41.1666
-84,687,0.745117,-35.0345,0,0,0,0,0,0,0,-1,1140,337,0.745155,35.0345
-77,687,-5.74353,-28.9553,0,0,0,0,0,0,0,-1,1147,337,-5.74357,28.9553
-70,687,-11.6842,-19.8473,0,0,0,0,0,0,0,-1,1154,337,-11.6842,19.8473
-63,687,-17.6757,-14.8966,0,0,0,0,0,0,0,-1,1161,337,-17.6756,14.8966
-56,687,-18.104,7.81931,0,0,0,0,0,0,0,-1,1168,337,-18.104,-7.81931
-49,687,-15.6449,-9.94391,0,0,0,0,0,0,0,-1,1175,337,-15.6449,9.94392
-42,687,-4.2019,-0.405609,0,0,0,0,0,0,0,-1,1182,337,-4.20192,0.405614
-35,687,-4.42273,-0.688171,0,0,0,0,0,0,0,-1,1189,337,-4.42276,0.688178
-28,687,-1.14038,-1.39072,0,0,0,0,0,0,0,-1,1196,337,-1.14035,1.3907
-21,687,10.0837,-54.7574,0,0,0,0,0,0,0,-1,1203,337,10.0837,54.7575
-14,687,10.0308,-56.1367,-0.0401233,0.0940349,-0.0806324,0.131842,-0.0779308,-1.13235,0.122439,0.0461605,1210,337,10.0307,56.1368
-7,687,9.62012,-57.0946,-0.0404914,0.0918258,-0.0779904,0.127939,-0.0766044,-1.13715,0.119326,0.0485797,1217,337,9.62017,57.0946
0,687,9.07068,-58.1495,0,0,0,0,0,0,0,-1,1224,337,9.07063,58.1495
7,687,7.3501,-60.5123,0,0,0,0,0,0,0,-1,1231,337,7.35008,60.5123
14,687,7.33264,-61.2037,-0.0369796,0.0844568,-0.0673961,0.114452,-0.0669748,-1.15206,0.105936,0.0477576,1238,337,7.3327,61.2037
21,687,7.3147,-61.9796,0,0,0,0,0,0,0,-1,1245,337,7.31467,61.9796
28,687,7.29248,-62.7429,0,0,0,0,0,0,0,-1,1252,337,7.29246,62.7429
35,687,7.12488,-63.0602,0,0,0,0,0,0,0,-1,1259,337,7.12487,63.0602
42,687,7.29431,-63.4775,-0.0228389,0.0810614,-0.0417188,0.0957391,-0.0375167,-1.2325,0.0793453,0.0465763,1266,337,7.2943,63.4775
49,687,7.51038,-63.8814,-0.018235,0.0815011,-0.0334907,0.0917034,-0.0284373,-1.2751,0.0724983,0.0489405,1273,337,7.51036,63.8814
56,687,7.81824,-63.9993,0,0,0,0,0,0,0,-1,1280,337,7.81828,63.9993
63,687,7.81177,-63.9229,0,0,0,0,0,0,0,-1,1287,337,7.81175,63.9229
70,687,8.16504,-62.1007,0,0,0,0,0,0,0,-1,1294,337,8.165,62.1007
77,687,9.26929,-61.17,0,0,0,0,0,0,0,-1,1301,337,9.26935,61.17
84,687,7.69446,-63.3308,0,0,0,0,0,0,0,-1,1308,337,7.69451,63.3309
91,687,10.5126,-60.4533,0,0,0,0,0,0,0,-1,1315,337,10.5126,60.4533
98,687,0.998413,-65.8437,0,0,0,0,0,0,0,-1,1322,337,0.9984,65.8437
105,687,2.87122,-64.81,0,0,0,0,0,0,0,-1,1329,337,2.87122,64.81
112,687,3.21436,-64.2246,0,0,0,0,0,0,0,-1,1336,337,3.2144,64.2246
119,687,3.2395,-63.5856,0,0,0,0,0,0,0,-1,1343,337,3.2395,63.5856
126,687,4.63672,-62.8865,0,0,0,0,0,0,0,-1,1350,337,4.63669,62.8865
133,687,4.65454,-62.2407,0,0,0,0,0,0,0,-1,1357,337,4.65456,62.2407
140,687,4.72937,-61.6392,0,0,0,0,0,0,0,-1,1364,337,4.72936,61.6391
147,687,4.70313,-61.0415,0,0,0,0,0,0,0,-1,1371,337,4.70316,61.0415
154,687,5.12952,-60.4371,0,0,0,0,0,0,0,-1,1378,337,5.12953,60.4371
161,687,29.3895,-1.90628,0,0,0,0,0,0,0,-1,1385,337,29.3895,1.90628
168,687,29.8564,-1.19434,0,0,0,0,0,0,0,-1,1392,337,29.8564,1.19434
175,687,30.3419,-0.453583,0,0,0,0,0,0,0,-1,1399,337,30.3419,0.45357
182,687,6.67249,0.289917,0,0,0,0,0,0,0,-1,1406,337,6.67247,-0.289916
189,687,7.76062,4.53635,0,0,0,0,0,0,0,-1,1413,337,7.76064,-4.53636
196,687,6.99048,3.2966,0,0,0,0,0,0,0,-1,1420,337,6.99046,-3.2966
203,687,6.36499,2.1445,0,0,0,0,0,0,0,-1,1427,337,6.36499,-2.14451
210,687,6.68066,0.674652,0,0,0,0,0,0,0,-1,1434,337,6.68062,-0.674655
217,687,5.99683,-0.630493,0,0,0,0,0,0,0,-1,1441,337,5.99684,0.630497
224,687,5.52917,0.524902,0,0,0,0,0,0,0,-1,1448,337,5.5292,-0.524915
231,687,5.85583,-1.73651,0,0,0,0,0,0,0,-1,1455,337,5.85577,1.73651
238,687,5.96582,-2.96774,0,0,0,0,0,0,0,-1,1462,337,5.96577,2.96773
245,687,1.28259,2.32211,0,0,0,0,0,0,0,-1,1469,337,1.28258,-2.32211
252,687,1.97278,3.88422,0,0,0,0,0,0,0,-1,1476,337,1.97281,-3.88421
259,687,0,0,0,0,0,0,0,0,0,-1,1483,337,0,0
266,687,0,0,0,0,0,0,0,0,0,-1,1490,337,0,0
273,687,0,0,0,0,0,0,0,0,0,-1,1497,337,0,0
280,687,0,0,0,0,0,0,0,0,0,-1,1504,337,0,0
287,687,0,0,0,0,0,0,0,0,0,-1,1511,337,0,0
294,687,0,0,0,0,0,0,0,0,0,-1,1518,337,0,0
301,687,0,0,0,0,0,0,0,0,0,-1,1525,337,0,0
308,687,0,0,0,0,0,0,0,0,0,-1,1532,337,0,0
315,687,0,0,0,0,0,0,0,0,0,-1,1539,337,0,0
322,687,0,0,0,0,0,0,0,0,0,-1,1546,337,0,0
329,687,0,0,0,0,0,0,0,0,0,-1,1553,337,0,0
336,687,0,0,0,0,0,0,0,0,0,-1,1560,337,0,0
343,687,0,0,0,0,0,0,0,0,0,-1,1567,337,0,0
350,687,0,0,0,0,0,0,0,0,0,-1,1574,337,0,0
357,687,0,0,0,0,0,0,0,0,0,-1,1581,337,0,0
364,687,0,0,0,0,0,0,0,0,0,-1,1588,337,0,0
371,687,0,0,0,0,0,0,0,0,0,-1,1595,337,0,0
378,687,0,0,0,0,0,0,0,0,0,-1,1602,337,0,0
385,687,0,0,0,0,0,0,0,0,0,-1,1609,337,0,0
392,687,0,0,0,0,0,0,0,0,0,-1,1616,337,0,0
399,687,0,0,0,0,0,0,0,0,0,-1,1623,337,0,0
406,687,0,0,0,0,0,0,0,0,0,-1,1630,337,0,0
413,687,0,0,0,0,0,0,0,0,0,-1,1637,337,0,0
420,687,0,0,0,0,0,0,0,0,0,-1,1644,337,0,0
427,687,0,0,0,0,0,0,0,0,0,-1,1651,337,0,0
434,687,0,0,0,0,0,0,0,0,0,-1,1658,337,0,0
441,687,0,0,0,0,0,0,0,0,0,-1,1665,337,0,0
448,687,0,0,0,0,0,0,0,0,0,-1,1672,337,0,0
455,687,0,0,0,0,0,0,0,0,0,-1,1679,337,0,0
462,687,0,0,0,0,0,0,0,0,0,-1,1686,337,0,0
469,687,0,0,0,0,0,0,0,0,0,-1,1693,337,0,0
476,687,0,0,0,0,0,0,0,0,0,-1,1700,337,0,0
483,687,0,0,0,0,0,0,0,0,0,-1,1707,337,0,0
490,687,0,0,0,0,0,0,0,0,0,-1,1714,337,0,0
497,687,0,0,0,0,0,0,0,0,0,-1,1721,337,0,0
504,687,0,0,0,0,0,0,0,0,0,-1,1728,337,0,0
511,687,0,0,0,0,0,0,0,0,0,-1,1735,337,0,0
518,687,0,0,0,0,0,0,0,0,0,-1,1742,337,0,0
525,687,0,0,0,0,0,0,0,0,0,-1,1749,337,0,0
532,687,0,0,0,0,0,0,0,0,0,-1,1756,337,0,0
539,687,0,0,0,0,0,0,0,0,0,-1,1763,337,0,0
546,687,0,0,0,0,0,0,0,0,0,-1,1770,337,0,0
553,687,0,0,0,0,0,0,0,0,0,-1,1777,337,0,0
560,687,0,0,0,0,0,0,0,0,0,-1,1784,337,0,0
567,687,0,0,0,0,0,0,0,0,0,-1,1791,337,0,0
574,687,0,0,0,0,0,0,0,0,0,-1,1798,337,0,0
581,687,0,0,0,0,0,0,0,0,0,-1,1805,337,0,0
588,687,0,0,0,0,0,0,0,0,0,-1,1812,337,0,0
595,687,0,0,0,0,0,0,0,0,0,-1,1819,337,0,0
602,687,0,0,0,0,0,0,0,0,0,-1,1826,337,0,0
609,687,0,0,0,0,0,0,0,0,0,-1,1833,337,0,0
616,687,0,0,0,0,0,0,0,0,0,-1,1840,337,0,0
623,687,0,0,0,0,0,0,0,0,0,-1,1847,337,0,0
630,687,0,0,0,0,0,0,0,0,0,-1,1854,337,0,0
637,687,0,0,0,0,0,0,0,0,0,-1,1861,337,0,0
644,687,0,0,0,0,0,0,0,0,0,-1,1868,337,0,0
651,687,0,0,0,0,0,0,0,0,0,-1,1875,337,0,0
658,687,0,0,0,0,0,0,0,0,0,-1,1882,337,0,0
665,687,0,0,0,0,0,0,0,0,0,-1,1889,337,0,0
672,687,0,0,0,0,0,0,0,0,0,-1,1896,337,0,0
679,687,0,0,0,0,0,0,0,0,0,-1,1903,337,0,0
686,687,0,0,0,0,0,0,0,0,0,-1,1910,337,0,0
693,687,0,0,0,0,0,0,0,0,0,-1,1917,337,0,0
700,687,0,0,0,0,0,0,0,0,0,-1,1924,337,0,0
707,687,0,0,0,0,0,0,0,0,0,-1,1931,337,0,0
714,687,0,0,0,0,0,0,0,0,0,-1,1938,337,0,0
721,687,0,0,0,0,0,0,0,0,0,-1,1945,337,0,0
728,687,0,0,0,0,0,0,0,0,0,-1,1952,337,0,0
735,687,0,0,0,0,0,0,0,0,0,-1,1959,337,0,0
742,687,0,0,0,0,0,0,0,0,0,-1,1966,337,0,0
749,687,0,0,0,0,0,0,0,0,0,-1,1973,337,0,0
756,687,0,0,0,0,0,0,0,0,0,-1,1980,337,0,0
763,687,0,0,0,0,0,0,0,0,0,-1,1987,337,0,0
770,687,0,0,0,0,0,0,0,0,0,-1,1994,337,0,0
777,687,0,0,0,0,0,0,0,0,0,-1,2001,337,0,0
784,687,0,0,0,0,0,0,0,0,0,-1,2008,337,0,0
791,687,0,0,0,0,0,0,0,0,0,-1,2015,337,0,0
798,687,0,0,0,0,0,0,0,0,0,-1,2022,337,0,0
805,687,0,0,0,0,0,0,0,0,0,-1,2029,337,0,0
812,687,0,0,0,0,0,0,0,0,0,-1,2036,337,0,0
-700,680,0,0,0,0,0,0,0,0,0,-1,524,344,0,0
-693,680,0,0,0,0,0,0,0,0,0,-1,531,344,0,0
-686,680,0,0,0,0,0,0,0,0,0,-1,538,344,0,0
-679,680,0,0,0,0,0,0,0,0,0,-1,545,344,0,0
-672,680,0,0,0,0,0,0,0,0,0,-1,552,344,0,0
-665,680,0,0,0,0,0,0,0,0,0,-1,559,344,0,0
-658,680,0,0,0,0,0,0,0,0,0,-1,566,344,0,0
-651,680,0,0,0,0,0,0,0,0,0,-1,573,344,0,0
-644,680,0,0,0,0,0,0,0,0,0,-1,580,344,0,0
-637,680,0,0,0,0,0,0,0,0,0,-1,587,344,0,0
-630,680,0,0,0,0,0,0,0,0,0,-1,594,344,0,0
-623,680,0,0,0,0,0,0,0,0,0,-1,601,344,0,0
-616,680,0,0,0,0,0,0,0,0,0,-1,608,344,0,0
-609,680,0,0,0,0,0,0,0,0,0,-1,615,344,0,0
-602,680,0,0,0,0,0,0,0,0,0,-1,622,344,0,0
-595,680,0,0,0,0,0,0,0,0,0,-1,629,344,0,0
-588,680,0,0,0,0,0,0,0,0,0,-1,636,344,0,0
-581,680,0,0,0,0,0,0,0,0,0,-1,643,344,0,0
-574,680,0,0,0,0,0,0,0,0,0,-1,650,344,0,0
-567,680,0,0,0,0,0,0,0,0,0,-1,657,344,0,0
-560,680,0,0,0,0,0,0,0,0,0,-1,664,344,0,0
-553,680,0,0,0,0,0,0,0,0,0,-1,671,344,0,0
-546,680,0,0,0,0,0,0,0,0,0,-1,678,344,0,0
-539,680,0,0,0,0,0,0,0,0,0,-1,685,344,0,0
-532,680,0,0,0,0,0,0,0,0,0,-1,692,344,0,0
-525,680,0,0,0,0,0,0,0,0,0,-1,699,344,0,0
-518,680,0,0,0,0,0,0,0,0,0,-1,706,344,0,0
-511,680,0,0,0,0,0,0,0,0,0,-1,713,344,0,0
-504,680,0,0,0,0,0,0,0,0,0,-1,720,344,0,0
-497,680,0,0,0,0,0,0,0,0,0,-1,727,344,0,0
-490,680,0,0,0,0,0,0,0,0,0,-1,734,344,0,0
-483,680,0,0,0,0,0,0,0,0,0,-1,741,344,0,0
-476,680,0,0,0,0,0,0,0,0,0,-1,748,344,0,0
-469,680,0,0,0,0,0,0,0,0,0,-1,755,344,0,0
-462,680,0,0,0,0,0,0,0,0,0,-1,762,344,0,0
-455,680,0,0,0,0,0,0,0,0,0,-1,769,344,0,0
-448,680,0,0,0,0,0,0,0,0,0,-1,776,344,0,0
-441,680,0,0,0,0,0,0,0,0,0,-1,783,344,0,0
-434,680,0,0,0,0,0,0,0,0,0,-1,790,344,0,0
-427,680,0,0,0,0,0,0,0,0,0,-1,797,344,0,0
-420,680,0,0,0,0,0,0,0,0,0,-1,804,344,0,0
-413,680,0,0,0,0,0,0,0,0,0,-1,811,344,0,0
-406,680,0,0,0,0,0,0,0,0,0,-1,818,344,0,0
-399,680,0,0,0,0,0,0,0,0,0,-1,825,344,0,0
-392,680,0,0,0,0,0,0,0,0,0,-1,832,344,0,0
-385,680,0,0,0,0,0,0,0,0,0,-1,839,344,0,0
-378,680,0,0,0,0,0,0,0,0,0,-1,846,344,0,0
-371,680,0,0,0,0,0,0,0,0,0,-1,853,344,0,0
-364,680,0,0,0,0,0,0,0,0,0,-1,860,344,0,0
-357,680,0,0,0,0,0,0,0,0,0,-1,867,344,0,0
-350,680,0,0,0,0,0,0,0,0,0,-1,874,344,0,0
-343,680,0,0,0,0,0,0,0,0,0,-1,881,344,0,0
-336,680,0,0,0,0,0,0,0,0,0,-1,888,344,0,0
-329,680,0,0,0,0,0,0,0,0,0,-1,895,344,0,0
-322,680,0,0,0,0,0,0,0,0,0,-1,902,344,0,0
-315,680,0,0,0,0,0,0,0,0,0,-1,909,344,0,0
-308,680,0,0,0,0,0,0,0,0,0,-1,916,344,0,0
-301,680,0,0,0,0,0,0,0,0,0,-1,923,344,0,0
-294,680,0,0,0,0,0,0,0,0,0,-1,930,344,0,0
-287,680,0,0,0,0,0,0,0,0,0,-1,937,344,0,0
-280,680,0,0,0,0,0,0,0,0,0,-1,944,344,0,0
-273,680,0,0,0,0,0,0,0,0,0,-1,951,344,0,0
-266,680,0,0,0,0,0,0,0,0,0,-1,958,344,0,0
-259,680,0,0,0,0,0,0,0,0,0,-1,965,344,0,0
-252,680,0,0,0,0,0,0,0,0,0,-1,972,344,0,0
-245,680,0,0,0,0,0,0,0,0,0,-1,979,344,0,0
-238,680,0,0,0,0,0,0,0,0,0,-1,986,344,0,0
-231,680,0,0,0,0,0,0,0,0,0,-1,993,344,0,0
-224,680,0,0,0,0,0,0,0,0,0,-1,1000,344,0,0
-217,680,0,0,0,0,0,0,0,0,0,-1,1007,344,0,0
-210,680,0,0,0,0,0,0,0,0,0,-1,1014,344,0,0
-203,680,0,0,0,0,0,0,0,0,0,-1,1021,344,0,0
-196,680,0,0,0,0,0,0,0,0,0,-1,1028,344,0,0
-189,680,0,0,0,0,0,0,0,0,0,-1,1035,344,0,0
-182,680,0,0,0,0,0,0,0,0,0,-1,1042,344,0,0
-175,680,0,0,0,0,0,0,0,0,0,-1,1049,344,0,0
-168,680,0,0,0,0,0,0,0,0,0,-1,1056,344,0,0
-161,680,0,0,0,0,0,0,0,0,0,-1,1063,344,0,0
-154,680,2.25244,-29.1442,0,0,0,0,0,0,0,-1,1070,344,2.25241,29.1442
-147,680,9.29614,-33.0369,0,0,0,0,0,0,0,-1,1077,344,9.29612,33.0369
-140,680,6.98022,-36.6899,0,0,0,0,0,0,0,-1,1084,344,6.98023,36.6899
-133,680,1.85693,-39.7233,0,0,0,0,0,0,0,-1,1091,344,1.85699,39.7233
-126,680,2.30017,-38.3751,0,0,0,0,0,0,0,-1,1098,344,2.30011,38.3751
-119,680,2.74329,-37.0269,0,0,0,0,0,0,0,-1,1105,344,2.74323,37.0269
-112,680,7.7467,-32.4407,0,0,0,0,0,0,0,-1,1112,344,7.74668,32.4407
-105,680,20.6371,-48.461,0,0,0,0,0,0,0,-1,1119,344,20.6371,48.461
-98,680,14.2684,-41.9997,0,0,0,0,0,0,0,-1,1126,344,14.2685,41.9997
-91,680,7.89648,-35.5147,0,0,0,0,0,0,0,-1,1133,344,7.8965,35.5147
-84,680,1.47168,-29.471,0,0,0,0,0,0,0,-1,1140,344,1.47163,29.471
-77,680,-4.95337,-23.3355,0,0,0,0,0,0,0,-1,1147,344,-4.9534,23.3356
-70,680,-11.5099,-17.4337,0,0,0,0,0,0,0,-1,1154,344,-11.5098,17.4338
-63,680,-17.2391,-1.43134,0,0,0,0,0,0,0,-1,1161,344,-17.2392,1.43133
-56,680,-6.96912,-8.83356,0,0,0,0,0,0,0,-1,1168,344,-6.96907,8.83354
-49,680,-6.7677,-2.24063,0,0,0,0,0,0,0,-1,1175,344,-6.76772,2.24063
-42,680,-1.02368,0.618805,0,0,0,0,0,0,0,-1,1182,344,-1.0237,-0.618797
-35,680,-0.947876,-0.942719,0,0,0,0,0,0,0,-1,1189,344,-0.947842,0.942731
-28,680,-1.46118,-1.10574,0,0,0,0,0,0,0,-1,1196,344,-1.4612,1.10575
-21,680,8.38293,-61.2525,0,0,0,0,0,0,0,-1,1203,344,8.38299,61.2525
-14,680,9.04333,-62.4304,0,0,0,0,0,0,0,-1,1210,344,9.04338,62.4304
-7,680,9.10938,-63.3922,0,0,0,0,0,0,0,-1,1217,344,9.1094,63.3923
0,680,8.48865,-62.8599,0,0,0,0,0,0,0,-1,1224,344,8.48859,62.8599
7,680,7.79419,-60.9588,0,0,0,0,0,0,0,-1,1231,344,7.79415,60.9588
14,680,7.88391,-61.7857,0,0,0,0,0,0,0,-1,1238,344,7.88395,61.7857
21,680,8.86841,-63.3362,0,0,0,0,0,0,0,-1,1245,344,8.86842,63.3363
28,680,8.77588,-63.55,0,0,0,0,0,0,0,-1,1252,344,8.7759,63.55
35,680,7.9978,-64.0695,0,0,0,0,0,0,0,-1,1259,344,7.99784,64.0695
42,680,7.82288,-64.1918,-0.0171403,0.0675711,-0.0284632,0.0762464,-0.0258155,-1.27495,0.0612764,0.0457613,1266,344,7.82284,64.1918
49,680,7.71887,-64.2019,-0.013922,0.0678477,-0.0218433,0.073317,-0.0193912,-1.32546,0.0564628,0.0443661,1273,344,7.7189,64.2019
56,680,7.82312,-64.2136,-0.0111717,0.0686664,-0.0159249,0.0717257,-0.014231,-1.381,0.0531991,0.0434674,1280,344,7.82307,64.2136
63,680,7.82385,-64.1182,-0.00765917,0.0697785,-0.00903584,0.0708189,-0.00869954,-1.45616,0.0503635,0.0419637,1287,344,7.82385,64.1182
70,680,7.9823,-63.1257,-0.0051835,0.0704009,-0.00172961,0.0704405,-0.00522306,-1.54793,0.0487946,0.0413504,1294,344,7.9823,63.1257
77,680,7.73523,-63.1554,0,0,0,0,0,0,0,-1,1301,344,7.73527,63.1554
84,680,7.70239,-63.8374,0,0,0,0,0,0,0,-1,1308,344,7.70244,63.8374
91,680,7.43921,-64.1537,0,0,0,0,0,0,0,-1,1315,344,7.43926,64.1537
98,680,11.3035,-60.1609,0,0,0,0,0,0,0,-1,1322,344,11.3034,60.1609
105,680,3.33484,-65.1942,0,0,0,0,0,0,0,-1,1329,344,3.33488,65.1942
112,680,3.37073,-64.364,0,0,0,0,0,0,0,-1,1336,344,3.37071,64.364
119,680,3.67908,-63.7809,0,0,0,0,0,0,0,-1,1343,344,3.67902,63.7809
126,680,5.15747,-63.6999,0,0,0,0,0,0,0,-1,1350,344,5.15746,63.6999
133,680,5.14856,-63.0459,0,0,0,0,0,0,0,-1,1357,344,5.14857,63.0459
140,680,5.14331,-62.2966,0,0,0,0,0,0,0,-1,1364,344,5.14329,62.2966
147,680,5.75134,-61.2714,0,0,0,0,0,0,0,-1,1371,344,5.75133,61.2714
154,680,5.64954,-60.7572,0,0,0,0,0,0,0,-1,1378,344,5.6495,60.7572
161,680,5.30676,-60.3476,0,0,0,0,0,0,0,-1,1385,344,5.30681,60.3476
168,680,29.4142,-2.51651,0,0,0,0,0,0,0,-1,1392,344,29.4142,2.51652
175,680,6.66541,0.942078,0,0,0,0,0,0,0,-1,1399,344,6.66538,-0.942088
182,680,6.52917,0.532379,0,0,0,0,0,0,0,-1,1406,344,6.52922,-0.532385
189,680,7.55884,4.77695,0,0,0,0,0,0,0,-1,1413,344,7.55886,-4.77694
196,680,6.55627,3.35254,0,0,0,0,0,0,0,-1,1420,344,6.55622,-3.35255
203,680,5.7334,1.90753,0,0,0,0,0,0,0,-1,1427,344,5.73341,-1.90754
210,680,5.27515,0.493622,0,0,0,0,0,0,0,-1,1434,344,5.27514,-0.493632
217,680,6.56384,-0.374176,0,0,0,0,0,0,0,-1,1441,344,6.56379,0.374176
224,680,3.9491,-0.640228,0,0,0,0,0,0,0,-1,1448,344,3.94908,0.64024
231,680,4.24866,-1.96881,0,0,0,0,0,0,0,-1,1455,344,4.2486,1.96882
238,680,4.29333,-3.23984,0,0,0,0,0,0,0,-1,1462,344,4.29332,3.23984
245,680,2.44397,0.985382,0,0,0,0,0,0,0,-1,1469,344,2.44402,-0.985394
252,680,3.07349,2.18951,0,0,0,0,0,0,0,-1,1476,344,3.0735,-2.18952
259,680,2.82971,1.30682,0,0,0,0,0,0,0,-1,1483,344,2.82972,-1.30684
266,680,2.67554,1.44067,0,0,0,0,0,0,0,-1,1490,344,2.67551,-1.44066
273,680,2.46411,1.54666,0,0,0,0,0,0,0,-1,1497,344,2.46407,-1.54666
280,680,0,0,0,0,0,0,0,0,0,-1,1504,344,0,0
287,680,0,0,0,0,0,0,0,0,0,-1,1511,344,0,0
294,680,0,0,0,0,0,0,0,0,0,-1,1518,344,0,0
301,680,0,0,0,0,0,0,0,0,0,-1,1525,344,0,0
308,680,0,0,0,0,0,0,0,0,0,-1,1532,344,0,0
315,680,0,0,0,0,0,0,0,0,0,-1,1539,344,0,0
322,680,0,0,0,0,0,0,0,0,0,-1,1546,344,0,0
329,680,0,0,0,0,0,0,0,0,0,-1,1553,344,0,0
336,680,0,0,0,0,0,0,0,0,0,-1,1560,344,0,0
343,680,0,0,0,0,0,0,0,0,0,-1,1567,344,0,0
350,680,0,0,0,0,0,0,0,0,0,-1,1574,344,0,0
357,680,0,0,0,0,0,0,0,0,0,-1,1581,344,0,0
364,680,0,0,0,0,0,0,0,0,0,-1,1588,344,0,0
371,680,0,0,0,0,0,0,0,0,0,-1,1595,344,0,0
378,680,0,0,0,0,0,0,0,0,0,-1,1602,344,0,0
385,680,0,0,0,0,0,0,0,0,0,-1,1609,344,0,0
392,680,0,0,0,0,0,0,0,0,0,-1,1616,344,0,0
399,680,0,0,0,0,0,0,0,0,0,-1,1623,344,0,0
406,680,0,0,0,0,0,0,0,0,0,-1,1630,344,0,0
413,680,0,0,0,0,0,0,0,0,0,-1,1637,344,0,0
420,680,0,0,0,0,0,0,0,0,0,-1,1644,344,0,0
427,680,0,0,0,0,0,0,0,0,0,-1,1651,344,0,0
434,680,0,0,0,0,0,0,0,0,0,-1,1658,344,0,0
441,680,0,0,0,0,0,0,0,0,0,-1,1665,344,0,0
448,680,0,0,0,0,0,0,0,0,0,-1,1672,344,0,0
455,680,0,0,0,0,0,0,0,0,0,-1,1679,344,0,0
462,680,0,0,0,0,0,0,0,0,0,-1,1686,344,0,0
469,680,0,0,0,0,0,0,0,0,0,-1,1693,344,0,0
476,680,0,0,0,0,0,0,0,0,0,-1,1700,344,0,0
483,680,0,0,0,0,0,0,0,0,0,-1,1707,344,0,0
490,680,0,0,0,0,0,0,0,0,0,-1,1714,344,0,0
497,680,0,0,0,0,0,0,0,0,0,-1,1721,344,0,0
504,680,0,0,0,0,0,0,0,0,0,-1,1728,344,0,0
511,680,0,0,0,0,0,0,0,0,0,-1,1735,344,0,0
518,680,0,0,0,0,0,0,0,0,0,-1,1742,344,0,0
525,680,0,0,0,0,0,0,0,0,0,-1,1749,344,0,0
532,680,0,0,0,0,0,0,0,0,0,-1,1756,344,0,0
539,680,0,0,0,0,0,0,0,0,0,-1,1763,344,0,0
546,680,0,0,0,0,0,0,0,0,0,-1,1770,344,0,0
553,680,0,0,0,0,0,0,0,0,0,-1,1777,344,0,0
560,680,0,0,0,0,0,0,0,0,0,-1,1784,344,0,0
567,680,0,0,0,0,0,0,0,0,0,-1,1791,344,0,0
574,680,0,0,0,0,0,0,0,0,0,-1,1798,344,0,0
581,680,0,0,0,0,0,0,0,0,0,-1,1805,344,0,0
588,680,0,0,0,0,0,0,0,0,0,-1,1812,344,0,0
595,680,0,0,0,0,0,0,0,0,0,-1,1819,344,0,0
602,680,0,0,0,0,0,0,0,0,0,-1,1826,344,0,0
609,680,0,0,0,0,0,0,0,0,0,-1,1833,344,0,0
616,680,0,0,0,0,0,0,0,0,0,-1,1840,344,0,0
623,680,0,0,0,0,0,0,0,0,0,-1,1847,344,0,0
630,680,0,0,0,0,0,0,0,0,0,-1,1854,344,0,0
637,680,0,0,0,0,0,0,0,0,0,-1,1861,344,0,0
644,680,0,0,0,0,0,0,0,0,0,-1,1868,344,0,0
651,680,0,0,0,0,0,0,0,0,0,-1,1875,344,0,0
658,680,0,0,0,0,0,0,0,0,0,-1,1882,344,0,0
665,680,0,0,0,0,0,0,0,0,0,-1,1889,344,0,0
672,680,0,0,0,0,0,0,0,0,0,-1,1896,344,0,0
679,680,0,0,0,0,0,0,0,0,0,-1,1903,344,0,0
686,680,0,0,0,0,0,0,0,0,0,-1,1910,344,0,0
693,680,0,0,0,0,0,0,0,0,0,-1,1917,344,0,0
700,680,0,0,0,0,0,0,0,0,0,-1,1924,344,0,0
707,680,0,0,0,0,0,0,0,0,0,-1,1931,344,0,0
714,680,0,0,0,0,0,0,0,0,0,-1,1938,344,0,0
721,680,0,0,0,0,0,0,0,0,0,-1,1945,344,0,0
728,680,0,0,0,0,0,0,0,0,0,-1,1952,344,0,0
735,680,0,0,0,0,0,0,0,0,0,-1,1959,344,0,0
742,680,0,0,0,0,0,0,0,0,0,-1,1966,344,0,0
749,680,0,0,0,0,0,0,0,0,0,-1,1973,344,0,0
756,680,0,0,0,0,0,0,0,0,0,-1,1980,344,0,0
763,680,0,0,0,0,0,0,0,0,0,-1,1987,344,0,0
770,680,0,0,0,0,0,0,0,0,0,-1,1994,344,0,0
777,680,0,0,0,0,0,0,0,0,0,-1,2001,344,0,0
784,680,0,0,0,0,0,0,0,0,0,-1,2008,344,0,0
791,680,0,0,0,0,0,0,0,0,0,-1,2015,344,0,0
798,680,0,0,0,0,0,0,0,0,0,-1,2022,344,0,0
805,680,0,0,0,0,0,0,0,0,0,-1,2029,344,0,0
812,680,0,0,0,0,0,0,0,0,0,-1,2036,344,0,0
-700,673,0,0,0,0,0,0,0,0,0,-1,524,351,0,0
-693,673,0,0,0,0,0,0,0,0,0,-1,531,351,0,0
-686,673,0,0,0,0,0,0,0,0,0,-1,538,351,0,0
-679,673,0,0,0,0,0,0,0,0,0,-1,545,351,0,0
-672,673,0,0,0,0,0,0,0,0,0,-1,552,351,0,0
-665,673,0,0,0,0,0,0,0,0,0,-1,559,351,0,0
-658,673,0,0,0,0,0,0,0,0,0,-1,566,351,0,0
-651,673,0,0,0,0,0,0,0,0,0,-1,573,351,0,0
-644,673,0,0,0,0,0,0,0,0,0,-1,580,351,0,0
-637,673,0,0,0,0,0,0,0,0,0,-1,587,351,0,0
-630,673,0,0,0,0,0,0,0,0,0,-1,594,351,0,0
-623,673,0,0,0,0,0,0,0,0,0,-1,601,351,0,0
-616,673,0,0,0,0,0,0,0,0,0,-1,608,351,0,0
-609,673,0,0,0,0,0,0,0,0,0,-1,615,351,0,0
-602,673,0,0,0,0,0,0,0,0,0,-1,622,351,0,0
-595,673,0,0,0,0,0,0,0,0,0,-1,629,351,0,0
-588,673,0,0,0,0,0,0,0,0,0,-1,636,351,0,0
-581,673,0,0,0,0,0,0,0,0,0,-1,643,351,0,0
-574,673,0,0,0,0,0,0,0,0,0,-1,650,351,0,0
-567,673,0,0,0,0,0,0,0,0,0,-1,657,351,0,0
-560,673,0,0,0,0,0,0,0,0,0,-1,664,351,0,0
-553,673,0,0,0,0,0,0,0,0,0,-1,671,351,0,0
-546,673,0,0,0,0,0,0,0,0,0,-1,678,351,0,0
-539,673,0,0,0,0,0,0,0,0,0,-1,685,351,0,0
-532,673,0,0,0,0,0,0,0,0,0,-1,692,351,0,0
-525,673,0,0,0,0,0,0,0,0,0,-1,699,351,0,0
-518,673,0,0,0,0,0,0,0,0,0,-1,706,351,0,0
-511,673,0,0,0,0,0,0,0,0,0,-1,713,351,0,0
-504,673,0,0,0,0,0,0,0,0,0,-1,720,351,0,0
-497,673,0,0,0,0,0,0,0,0,0,-1,727,351,0,0
-490,673,0,0,0,0,0,0,0,0,0,-1,734,351,0,0
-483,673,0,0,0,0,0,0,0,0,0,-1,741,351,0,0
-476,673,0,0,0,0,0,0,0,0,0,-1,748,351,0,0
-469,673,0,0,0,0,0,0,0,0,0,-1,755,351,0,0
-462,673,0,0,0,0,0,0,0,0,0,-1,762,351,0,0
-455,673,0,0,0,0,0,0,0,0,0,-1,769,351,0,0
-448,673,0,0,0,0,0,0,0,0,0,-1,776,351,0,0
-441,673,0,0,0,0,0,0,0,0,0,-1,783,351,0,0
-434,673,0,0,0,0,0,0,0,0,0,-1,790,351,0,0
-427,673,0,0,0,0,0,0,0,0,0,-1,797,351,0,0
-420,673,0,0,0,0,0,0,0,0,0,-1,804,351,0,0
-413,673,0,0,0,0,0,0,0,0,0,-1,811,351,0,0
-406,673,0,0,0,0,0,0,0,0,0,-1,818,351,0,0
-399,673,0,0,0,0,0,0,0,0,0,-1,825,351,0,0
-392,673,0,0,0,0,0,0,0,0,0,-1,832,351,0,0
-385,673,0,0,0,0,0,0,0,0,0,-1,839,351,0,0
-378,673,0,0,0,0,0,0,0,0,0,-1,846,351,0,0
-371,673,0,0,0,0,0,0,0,0,0,-1,853,351,0,0
-364,673,0,0,0,0,0,0,0,0,0,-1,860,351,0,0
-357,673,0,0,0,0,0,0,0,0,0,-1,867,351,0,0
-350,673,0,0,0,0,0,0,0,0,0,-1,874,351,0,0
-343,673,0,0,0,0,0,0,0,0,0,-1,881,351,0,0
-336,673,0,0,0,0,0,0,0,0,0,-1,888,351,0,0
-329,673,0,0,0,0,0,0,0,0,0,-1,895,351,0,0
-322,673,0,0,0,0,0,0,0,0,0,-1,902,351,0,0
-315,673,0,0,0,0,0,0,0,0,0,-1,909,351,0,0
-308,673,0,0,0,0,0,0,0,0,0,-1,916,351,0,0
-301,673,0,0,0,0,0,0,0,0,0,-1,923,351,0,0
-294,673,0,0,0,0,0,0,0,0,0,-1,930,351,0,0
-287,673,0,0,0,0,0,0,0,0,0,-1,937,351,0,0
-280,673,0,0,0,0,0,0,0,0,0,-1,944,351,0,0
-273,673,0,0,0,0,0,0,0,0,0,-1,951,351,0,0
-266,673,0,0,0,0,0,0,0,0,0,-1,958,351,0,0
-259,673,0,0,0,0,0,0,0,0,0,-1,965,351,0,0
-252,673,0,0,0,0,0,0,0,0,0,-1,972,351,0,0
-245,673,0,0,0,0,0,0,0,0,0,-1,979,351,0,0
-238,673,0,0,0,0,0,0,0,0,0,-1,986,351,0,0
-231,673,0,0,0,0,0,0,0,0,0,-1,993,351,0,0
-224,673,0,0,0,0,0,0,0,0,0,-1,1000,351,0,0
-217,673,0,0,0,0,0,0,0,0,0,-1,1007,351,0,0
-210,673,0,0,0,0,0,0,0,0,0,-1,1014,351,0,0
-203,673,0,0,0,0,0,0,0,0,0,-1,1021,351,0,0
-196,673,0,0,0,0,0,0,0,0,0,-1,1028,351,0,0
-189,673,0,0,0,0,0,0,0,0,0,-1,1035,351,0,0
-182,673,0,0,0,0,0,0,0,0,0,-1,1042,351,0,0
-175,673,7.10449,-31.8279,0,0,0,0,0,0,0,-1,1049,351,7.10448,31.8279
-168,673,7.33081,-32.7122,0,0,0,0,0,0,0,-1,1056,351,7.33085,32.7122
-161,673,7.8938,-33.5352,0,0,0,0,0,0,0,-1,1063,351,7.89385,33.5352
-154,673,8.80566,-35.3518,0,0,0,0,0,0,0,-1,1070,351,8.80563,35.3518
-147,673,2.89221,-37.7351,0,0,0,0,0,0,0,-1,1077,351,2.89224,37.7351
-140,673,3.35046,-37.7151,0,0,0,0,0,0,0,-1,1084,351,3.35046,37.715
-133,673,3.35339,-39.0288,0,0,0,0,0,0,0,-1,1091,351,3.35342,39.0288
-126,673,3.7533,-38.0453,0,0,0,0,0,0,0,-1,1098,351,3.7533,38.0453
-119,673,4.1532,-37.0618,0,0,0,0,0,0,0,-1,1105,351,4.15318,37.0618
-112,673,7.27234,-32.5801,0,0,0,0,0,0,0,-1,1112,351,7.27231,32.5801
-105,673,21.1144,-43.3143,0,0,0,0,0,0,0,-1,1119,351,21.1143,43.3143
-98,673,14.8014,-36.7519,0,0,0,0,0,0,0,-1,1126,351,14.8014,36.7519
-91,673,8.54944,-29.9639,0,0,0,0,0,0,0,-1,1133,351,8.54949,29.9639
-84,673,2.17102,-24.3204,0,0,0,0,0,0,0,-1,1140,351,2.17107,24.3204
-77,673,-4.25378,-18.8346,0,0,0,0,0,0,0,-1,1147,351,-4.25381,18.8346
-70,673,-10.7933,-13.6681,0,0,0,0,0,0,0,-1,1154,351,-10.7934,13.6681
-63,673,-17.3896,-8.24469,0,0,0,0,0,0,0,-1,1161,351,-17.3896,8.2447
-56,673,-18.0282,2.79053,0,0,0,0,0,0,0,-1,1168,351,-18.0283,-2.79052
-49,673,-0.926758,-0.115448,0,0,0,0,0,0,0,-1,1175,351,-0.926732,0.115444
-42,673,-1.15015,0.289917,0,0,0,0,0,0,0,-1,1182,351,-1.15017,-0.289932
-35,673,-0.919556,-1.00711,0,0,0,0,0,0,0,-1,1189,351,-0.919514,1.00711
-28,673,5.28918,-39.2331,0,0,0,0,0,0,0,-1,1196,351,5.28924,39.2331
-21,673,8.84814,-62.5027,0,0,0,0,0,0,0,-1,1203,351,8.8482,62.5027
-14,673,8.85754,-62.8692,-0.0239356,0.0601089,-0.0440607,0.0789736,-0.0428002,-1.16626,0.0713326,0.0454191,1210,351,8.85756,62.8692
-7,673,8.89404,-63.5311,-0.0237541,0.0597342,-0.0427725,0.0777567,-0.0417767,-1.17201,0.070047,0.0444203,1217,351,8.894,63.5311
0,673,8.77026,-63.8907,0,0,0,0,0,0,0,-1,1224,351,8.77028,63.8907
7,673,8.52625,-63.644,0,0,0,0,0,0,0,-1,1231,351,8.5263,63.644
14,673,8.50098,-63.5345,0,0,0,0,0,0,0,-1,1238,351,8.50101,63.5345
21,673,8.51672,-63.8705,-0.0190445,0.0564596,-0.0316565,0.0679757,-0.0305607,-1.2219,0.058241,0.0385648,1245,351,8.51674,63.8705
28,673,8.47351,-64.0706,-0.0170845,0.0563205,-0.0277186,0.0656114,-0.0263754,-1.24738,0.0546953,0.0350661,1252,351,8.47348,64.0707
35,673,8.49243,-63.907,0,0,0,0,0,0,0,-1,1259,351,8.49243,63.907
42,673,7.98181,-64.2776,-0.012864,0.0549448,-0.0184676,0.0596481,-0.0175674,-1.32142,0.0467351,0.0406643,1266,351,7.98186,64.2776
49,673,7.85132,-64.4134,-0.0107815,0.055126,-0.0135054,0.0577861,-0.0134416,-1.37632,0.0436992,0.0258818,1273,351,7.85131,64.4134
56,673,7.83496,-64.4175,-0.00915857,0.0556034,-0.00937612,0.0569336,-0.0104887,-1.42987,0.041892,0.0201116,1280,351,7.83498,64.4175
63,673,7.85938,-64.1466,-0.00721329,0.0560979,-0.00471953,0.0564478,-0.00756318,-1.4968,0.0403897,0.0242619,1287,351,7.85938,64.1466
70,673,7.7981,-64.0664,-0.00613115,0.0560748,2.95011e-05,0.0560749,-0.00613117,1.57032,0.0395855,0.0380039,1294,351,7.79812,64.0664
77,673,7.66528,-63.8919,-0.00569647,0.0552723,0.00397795,0.0555307,-0.00595492,1.50592,0.0391567,0.0421537,1301,351,7.66525,63.8919
84,673,7.6543,-64.2402,-0.00703579,0.0541943,0.00492139,0.0545874,-0.00742882,1.4911,0.0391038,0.0480943,1308,351,7.65432,64.2402
91,673,7.36267,-64.6273,0,0,0,0,0,0,0,-1,1315,351,7.36269,64.6273
98,673,7.1217,-64.4967,0,0,0,0,0,0,0,-1,1322,351,7.12165,64.4967
105,673,6.87427,-64.2445,0,0,0,0,0,0,0,-1,1329,351,6.87426,64.2445
112,673,3.54541,-64.5022,0,0,0,0,0,0,0,-1,1336,351,3.54544,64.5022
119,673,5.33801,-61.3758,0,0,0,0,0,0,0,-1,1343,351,5.33798,61.3758
126,673,4.74976,-59.7757,0,0,0,0,0,0,0,-1,1350,351,4.7498,59.7757
133,673,5.61047,-63.8758,0,0,0,0,0,0,0,-1,1357,351,5.61046,63.8758
140,673,6.21277,-62.6162,0,0,0,0,0,0,0,-1,1364,351,6.21276,62.6162
147,673,6.12268,-62.1351,-0.014079,0.0656876,0.00978332,0.06687,-0.0152614,1.45052,0.0504426,0.0491688,1371,351,6.12271,62.1351
154,673,6.01001,-61.5878,-0.0131589,0.0681202,0.0103851,0.0694261,-0.0144648,1.4457,0.0517835,0.0458905,1378,351,6.01,61.5878
161,673,6.17432,-61.4696,0,0,0,0,0,0,0,-1,1385,351,6.17435,61.4696
168,673,6.87061,1.83954,0,0,0,0,0,0,0,-1,1392,351,6.87063,-1.83953
175,673,6.6228,1.1459,0,0,0,0,0,0,0,-1,1399,351,6.62276,-1.14591
182,673,6.37244,0.796112,0,0,0,0,0,0,0,-1,1406,351,6.3724,-0.796102
189,673,6.12097,0.265472,0,0,0,0,0,0,0,-1,1413,351,6.121,-0.265482
196,673,6.02173,3.12717,0,0,0,0,0,0,0,-1,1420,351,6.02176,-3.12717
203,673,5.04456,1.6351,0,0,0,0,0,0,0,-1,1427,351,5.04455,-1.63509
210,673,4.79224,0.447479,0,0,0,0,0,0,0,-1,1434,351,4.79229,-0.447469
217,673,2.01648,0.972687,0,0,0,0,0,0,0,-1,1441,351,2.01644,-0.972691
224,673,2.3689,-1.80539,0,0,0,0,0,0,0,-1,1448,351,2.36896,1.80539
231,673,2.65857,-2.18497,0,0,0,0,0,0,0,-1,1455,351,2.65852,2.18496
238,673,3.77844,-2.06088,0,0,0,0,0,0,0,-1,1462,351,3.77839,2.06088
245,673,3.5376,-0.190399,0,0,0,0,0,0,0,-1,1469,351,3.53759,0.1904
252,673,3.80518,0.55603,0,0,0,0,0,0,0,-1,1476,351,3.80519,-0.556022
259,673,3.88562,1.29617,0,0,0,0,0,0,0,-1,1483,351,3.88562,-1.29618
266,673,4.22424,2.04834,0,0,0,0,0,0,0,-1,1490,351,4.22429,-2.04834
273,673,6.07886,0.385895,0,0,0,0,0,0,0,-1,1497,351,6.0789,-0.385906
280,673,6.97534,-0.0820007,0,0,0,0,0,0,0,-1,1504,351,6.97536,0.0820122
287,673,7.66968,-0.348541,0,0,0,0,0,0,0,-1,1511,351,7.66969,0.348534
294,673,8.20996,0.28537,0,0,0,0,0,0,0,-1,1518,351,8.20993,-0.28536
301,673,0,0,0,0,0,0,0,0,0,-1,1525,351,0,0
308,673,0,0,0,0,0,0,0,0,0,-1,1532,351,0,0
315,673,0,0,0,0,0,0,0,0,0,-1,1539,351,0,0
322,673,0,0,0,0,0,0,0,0,0,-1,1546,351,0,0
329,673,0,0,0,0,0,0,0,0,0,-1,1553,351,0,0
336,673,0,0,0,0,0,0,0,0,0,-1,1560,351,0,0
343,673,0,0,0,0,0,0,0,0,0,-1,1567,351,0,0
350,673,0,0,0,0,0,0,0,0,0,-1,1574,351,0,0
357,673,0,0,0,0,0,0,0,0,0,-1,1581,351,0,0
364,673,0,0,0,0,0,0,0,0,0,-1,1588,351,0,0
371,673,0,0,0,0,0,0,0,0,0,-1,1595,351,0,0
378,673,0,0,0,0,0,0,0,0,0,-1,1602,351,0,0
385,673,0,0,0,0,0,0,0,0,0,-1,1609,351,0,0
392,673,0,0,0,0,0,0,0,0,0,-1,1616,351,0,0
399,673,0,0,0,0,0,0,0,0,0,-1,1623,351,0,0
406,673,0,0,0,0,0,0,0,0,0,-1,1630,351,0,0
413,673,0,0,0,0,0,0,0,0,0,-1,1637,351,0,0
420,673,0,0,0,0,0,0,0,0,0,-1,1644,351,0,0
427,673,0,0,0,0,0,0,0,0,0,-1,1651,351,0,0
434,673,0,0,0,0,0,0,0,0,0,-1,1658,351,0,0
441,673,0,0,0,0,0,0,0,0,0,-1,1665,351,0,0
448,673,0,0,0,0,0,0,0,0,0,-1,1672,351,0,0
455,673,0,0,0,0,0,0,0,0,0,-1,1679,351,0,0
462,673,0,0,0,0,0,0,0,0,0,-1,1686,351,0,0
469,673,0,0,0,0,0,0,0,0,0,-1,1693,351,0,0
476,673,0,0,0,0,0,0,0,0,0,-1,1700,351,0,0
483,673,0,0,0,0,0,0,0,0,0,-1,1707,351,0,0
490,673,0,0,0,0,0,0,0,0,0,-1,1714,351,0,0
497,673,0,0,0,0,0,0,0,0,0,-1,1721,351,0,0
504,673,0,0,0,0,0,0,0,0,0,-1,1728,351,0,0
511,673,0,0,0,0,0,0,0,0,0,-1,1735,351,0,0
518,673,0,0,0,0,0,0,0,0,0,-1,1742,351,0,0
525,673,0,0,0,0,0,0,0,0,0,-1,1749,351,0,0
532,673,0,0,0,0,0,0,0,0,0,-1,1756,351,0,0
539,673,0,0,0,0,0,0,0,0,0,-1,1763,351,0,0
546,673,0,0,0,0,0,0,0,0,0,-1,1770,351,0,0
553,673,0,0,0,0,0,0,0,0,0,-1,1777,351,0,0
560,673,0,0,0,0,0,0,0,0,0,-1,1784,351,0,0
567,673,0,0,0,0,0,0,0,0,0,-1,1791,351,0,0
574,673,0,0,0,0,0,0,0,0,0,-1,1798,351,0,0
581,673,0,0,0,0,0,0,0,0,0,-1,1805,351,0,0
588,673,0,0,0,0,0,0,0,0,0,-1,1812,351,0,0
595,673,0,0,0,0,0,0,0,0,0,-1,1819,351,0,0
602,673,0,0,0,0,0,0,0,0,0,-1,1826,351,0,0
609,673,0,0,0,0,0,0,0,0,0,-1,1833,351,0,0
616,673,0,0,0,0,0,0,0,0,0,-1,1840,351,0,0
623,673,0,0,0,0,0,0,0,0,0,-1,1847,351,0,0
630,673,0,0,0,0,0,0,0,0,0,-1,1854,351,0,0
637,673,0,0,0,0,0,0,0,0,0,-1,1861,351,0,0
644,673,0,0,0,0,0,0,0,0,0,-1,1868,351,0,0
651,673,0,0,0,0,0,0,0,0,0,-1,1875,351,0,0
658,673,0,0,0,0,0,0,0,0,0,-1,1882,351,0,0
665,673,0,0,0,0,0,0,0,0,0,-1,1889,351,0,0
672,673,0,0,0,0,0,0,0,0,0,-1,1896,351,0,0
679,673,0,0,0,0,0,0,0,0,0,-1,1903,351,0,0
686,673,0,0,0,0,0,0,0,0,0,-1,1910,351,0,0
693,673,0,0,0,0,0,0,0,0,0,-1,1917,351,0,0
700,673,0,0,0,0,0,0,0,0,0,-1,1924,351,0,0
707,673,0,0,0,0,0,0,0,0,0,-1,1931,351,0,0
714,673,0,0,0,0,0,0,0,0,0,-1,1938,351,0,0
721,673,0,0,0,0,0,0,0,0,0,-1,1945,351,0,0
728,673,0,0,0,0,0,0,0,0,0,-1,1952,351,0,0
735,673,0,0,0,0,0,0,0,0,0,-1,1959,351,0,0
742,673,0,0,0,0,0,0,0,0,0,-1,1966,351,0,0
749,673,0,0,0,0,0,0,0,0,0,-1,1973,351,0,0
756,673,0,0,0,0,0,0,0,0,0,-1,1980,351,0,0
763,673,0,0,0,0,0,0,0,0,0,-1,1987,351,0,0
770,673,0,0,0,0,0,0,0,0,0,-1,1994,351,0,0
777,673,0,0,0,0,0,0,0,0,0,-1,2001,351,0,0
784,673,0,0,0,0,0,0,0,0,0,-1,2008,351,0,0
791,673,0,0,0,0,0,0,0,0,0,-1,2015,351,0,0
798,673,0,0,0,0,0,0,0,0,0,-1,2022,351,0,0
805,673,0,0,0,0,0,0,0,0,0,-1,2029,351,0,0
812,673,0,0,0,0,0,0,0,0,0,-1,2036,351,0,0
-700,666,0,0,0,0,0,0,0,0,0,-1,524,358,0,0
-693,666,0,0,0,0,0,0,0,0,0,-1,531,358,0,0
-686,666,0,0,0,0,0,0,0,0,0,-1,538,358,0,0
-679,666,0,0,0,0,0,0,0,0,0,-1,545,358,0,0
-672,666,0,0,0,0,0,0,0,0,0,-1,552,358,0,0
-665,666,0,0,0,0,0,0,0,0,0,-1,559,358,0,0
-658,666,0,0,0,0,0,0,0,0,0,-1,566,358,0,0
-651,666,0,0,0,0,0,0,0,0,0,-1,573,358,0,0
-644,666,0,0,0,0,0,0,0,0,0,-1,580,358,0,0
-637,666,0,0,0,0,0,0,0,0,0,-1,587,358,0,0
-630,666,0,0,0,0,0,0,0,0,0,-1,594,358,0,0
-623,666,0,0,0,0,0,0,0,0,0,-1,601,358,0,0
-616,666,0,0,0,0,0,0,0,0,0,-1,608,358,0,0
-609,666,0,0,0,0,0,0,0,0,0,-1,615,358,0,0
-602,666,0,0,0,0,0,0,0,0,0,-1,622,358,0,0
-595,666,0,0,0,0,0,0,0,0,0,-1,629,358,0,0
-588,666,0,0,0,0,0,0,0,0,0,-1,636,358,0,0
-581,666,0,0,0,0,0,0,0,0,0,-1,643,358,0,0
-574,666,0,0,0,0,0,0,0,0,0,-1,650,358,0,0
-567,666,0,0,0,0,0,0,0,0,0,-1,657,358,0,0
-560,666,0,0,0,0,0,0,0,0,0,-1,664,358,0,0
-553,666,0,0,0,0,0,0,0,0,0,-1,671,358,0,0
-546,666,0,0,0,0,0,0,0,0,0,-1,678,358,0,0
-539,666,0,0,0,0,0,0,0,0,0,-1,685,358,0,0
-532,666,0,0,0,0,0,0,0,0,0,-1,692,358,0,0
-525,666,0,0,0,0,0,0,0,0,0,-1,699,358,0,0
-518,666,0,0,0,0,0,0,0,0,0,-1,706,358,0,0
-511,666,0,0,0,0,0,0,0,0,0,-1,713,358,0,0
-504,666,0,0,0,0,0,0,0,0,0,-1,720,358,0,0
-497,666,0,0,0,0,0,0,0,0,0,-1,727,358,0,0
-490,666,0,0,0,0,0,0,0,0,0,-1,734,358,0,0
-483,666,0,0,0,0,0,0,0,0,0,-1,741,358,0,0
-476,666,0,0,0,0,0,0,0,0,0,-1,748,358,0,0
-469,666,0,0,0,0,0,0,0,0,0,-1,755,358,0,0
-462,666,0,0,0,0,0,0,0,0,0,-1,762,358,0,0
-455,666,0,0,0,0,0,0,0,0,0,-1,769,358,0,0
-448,666,0,0,0,0,0,0,0,0,0,-1,776,358,0,0
-441,666,0,0,0,0,0,0,0,0,0,-1,783,358,0,0
-434,666,0,0,0,0,0,0,0,0,0,-1,790,358,0,0
-427,666,0,0,0,0,0,0,0,0,0,-1,797,358,0,0
-420,666,0,0,0,0,0,0,0,0,0,-1,804,358,0,0
-413,666,0,0,0,0,0,0,0,0,0,-1,811,358,0,0
-406,666,0,0,0,0,0,0,0,0,0,-1,818,358,0,0
-399,666,0,0,0,0,0,0,0,0,0,-1,825,358,0,0
-392,666,0,0,0,0,0,0,0,0,0,-1,832,358,0,0
-385,666,0,0,0,0,0,0,0,0,0,-1,839,358,0,0
-378,666,0,0,0,0,0,0,0,0,0,-1,846,358,0,0
-371,666,0,0,0,0,0,0,0,0,0,-1,853,358,0,0
-364,666,0,0,0,0,0,0,0,0,0,-1,860,358,0,0
-357,666,0,0,0,0,0,0,0,0,0,-1,867,358,0,0
-350,666,0,0,0,0,0,0,0,0,0,-1,874,358,0,0
-343,666,0,0,0,0,0,0,0,0,0,-1,881,358,0,0
-336,666,0,0,0,0,0,0,0,0,0,-1,888,358,0,0
-329,666,0,0,0,0,0,0,0,0,0,-1,895,358,0,0
-322,666,0,0,0,0,0,0,0,0,0,-1,902,358,0,0
-315,666,0,0,0,0,0,0,0,0,0,-1,909,358,0,0
-308,666,0,0,0,0,0,0,0,0,0,-1,916,358,0,0
-301,666,0,0,0,0,0,0,0,0,0,-1,923,358,0,0
-294,666,0,0,0,0,0,0,0,0,0,-1,930,358,0,0
-287,666,0,0,0,0,0,0,0,0,0,-1,937,358,0,0
-280,666,0,0,0,0,0,0,0,0,0,-1,944,358,0,0
-273,666,0,0,0,0,0,0,0,0,0,-1,951,358,0,0
-266,666,0,0,0,0,0,0,0,0,0,-1,958,358,0,0
-259,666,0,0,0,0,0,0,0,0,0,-1,965,358,0,0
-252,666,0,0,0,0,0,0,0,0,0,-1,972,358,0,0
-245,666,0,0,0,0,0,0,0,0,0,-1,979,358,0,0
-238,666,0,0,0,0,0,0,0,0,0,-1,986,358,0,0
-231,666,0,0,0,0,0,0,0,0,0,-1,993,358,0,0
-224,666,0,0,0,0,0,0,0,0,0,-1,1000,358,0,0
-217,666,0,0,0,0,0,0,0,0,0,-1,1007,358,0,0
-210,666,0,0,0,0,0,0,0,0,0,-1,1014,358,0,0
-203,666,0,0,0,0,0,0,0,0,0,-1,1021,358,0,0
-196,666,4.03418,-28.8724,0,0,0,0,0,0,0,-1,1028,358,4.03422,28.8724
-189,666,5.00366,-29.597,0,0,0,0,0,0,0,-1,1035,358,5.00363,29.597
-182,666,6.83252,-30.9843,0,0,0,0,0,0,0,-1,1042,358,6.83247,30.9844
-175,666,7.01611,-31.8763,0,0,0,0,0,0,0,-1,1049,358,7.01617,31.8762
-168,666,7.21545,-32.7414,0,0,0,0,0,0,0,-1,1056,358,7.2154,32.7414
-161,666,7.69116,-33.6269,0,0,0,0,0,0,0,-1,1063,358,7.69121,33.6269
-154,666,3.79041,-37.9204,0,0,0,0,0,0,0,-1,1070,358,3.79034,37.9204
-147,666,4.17908,-37.7466,0,0,0,0,0,0,0,-1,1077,358,4.17912,37.7466
-140,666,4.54309,-37.735,0,0,0,0,0,0,0,-1,1084,358,4.54304,37.735
-133,666,4.65723,-39.0643,0,0,0,0,0,0,0,-1,1091,358,4.65727,39.0643
-126,666,5.02368,-38.0699,0,0,0,0,0,0,0,-1,1098,358,5.02363,38.0698
-119,666,5.39001,-37.0754,0,0,0,0,0,0,0,-1,1105,358,5.38999,37.0754
-112,666,6.77014,-32.8165,0,0,0,0,0,0,0,-1,1112,358,6.77013,32.8165
-105,666,6.30908,-29.0855,0,0,0,0,0,0,0,-1,1119,358,6.30905,29.0855
-98,666,15.4427,-31.5168,0,0,0,0,0,0,0,-1,1126,358,15.4428,31.5168
-91,666,9.5127,-25.1347,0,0,0,0,0,0,0,-1,1133,358,9.51269,25.1347
-84,666,2.91589,-19.4071,0,0,0,0,0,0,0,-1,1140,358,2.91592,19.4071
-77,666,-3.48083,-14.0782,0,0,0,0,0,0,0,-1,1147,358,-3.48081,14.0782
-70,666,-9.99438,-8.90146,0,0,0,0,0,0,0,-1,1154,358,-9.99433,8.90146
-63,666,-11.7778,-0.975189,0,0,0,0,0,0,0,-1,1161,358,-11.7778,0.97519
-56,666,0.424683,-2.04132,0,0,0,0,0,0,0,-1,1168,358,0.424665,2.04132
-49,666,0.754395,-2.23169,0,0,0,0,0,0,0,-1,1175,358,0.754383,2.23169
-42,666,1.34473,-3.53897,0,0,0,0,0,0,0,-1,1182,358,1.34476,3.53896
-35,666,8.86194,-62.8174,0,0,0,0,0,0,0,-1,1189,358,8.86194,62.8174
-28,666,8.97437,-62.9449,0,0,0,0,0,0,0,-1,1196,358,8.97437,62.9449
-21,666,8.79321,-63.0273,-0.0176034,0.0452302,-0.0305028,0.057602,-0.0299752,-1.18548,0.0513945,0.0426651,1203,358,8.79318,63.0273
-14,666,8.64917,-63.3,-0.0177388,0.0455512,-0.0300946,0.0575765,-0.029764,-1.19065,0.0512712,0.0382624,1210,358,8.64922,63.3
-7,666,8.58545,-63.5789,-0.017484,0.045713,-0.0293173,0.0572186,-0.0289897,-1.19681,0.050654,0.0237663,1217,358,8.58547,63.579
0,666,8.57166,-63.8836,-0.0168554,0.0452849,-0.028056,0.0560775,-0.027648,-1.20356,0.0492591,0.0161627,1224,358,8.57164,63.8836
7,666,8.44934,-64.0129,-0.0160904,0.0448195,-0.0263957,0.0546664,-0.0259373,-1.21374,0.0475117,0.0229228,1231,358,8.4493,64.0129
14,666,8.35803,-64.0912,-0.0150492,0.0440544,-0.0240962,0.0526331,-0.0236279,-1.22877,0.0450784,0.0228742,1238,358,8.35804,64.0912
21,666,8.26257,-64.3756,-0.0137673,0.0443395,-0.0210477,0.0511624,-0.0205902,-1.25732,0.0426614,0.0183732,1245,358,8.26257,64.3756
28,666,8.18433,-64.5689,-0.0123685,0.0444456,-0.0181216,0.0497336,-0.0176565,-1.28688,0.0403501,0.0233445,1252,358,8.1843,64.5689
35,666,8.14966,-64.5632,-0.0108261,0.0443953,-0.0151422,0.0482748,-0.0147057,-1.31998,0.0380446,0.0209157,1259,358,8.14961,64.5632
42,666,8.00085,-64.6836,-0.0095234,0.0435729,-0.0113872,0.0459119,-0.0118625,-1.3682,0.0352342,0.0167922,1266,358,8.00085,64.6836
49,666,7.89099,-64.7763,-0.00827773,0.043736,-0.00790392,0.0449105,-0.00945227,-1.42327,0.0335381,0.0173729,1273,358,7.891,64.7763
56,666,7.84448,-64.8162,-0.00739606,0.0440359,-0.00519735,0.0445559,-0.00791602,-1.47109,0.0326639,0.0185435,1280,358,7.84454,64.8162
63,666,7.77661,-64.9285,-0.00640589,0.0442081,-0.00221876,0.0443052,-0.00650296,-1.52707,0.031926,0.0214169,1287,358,7.77665,64.9285
70,666,7.69751,-64.8892,-0.00604866,0.0438943,0.000778973,0.0439065,-0.00606081,1.5552,0.0314863,0.0200001,1294,358,7.69749,64.8892
77,666,7.61914,-64.6751,-0.00615086,0.0430173,0.00309315,0.0432111,-0.00634469,1.50822,0.0311385,0.0212064,1301,358,7.61912,64.6751
84,666,7.58704,-64.6805,-0.00719893,0.0418958,0.0037304,0.0421776,-0.00748076,1.49539,0.0309152,0.029685,1308,358,7.587,64.6805
91,666,7.46106,-64.7749,-0.00845357,0.0403424,0.00403822,0.0406744,-0.0087855,1.48878,0.0304699,0.0276744,1315,358,7.46111,64.7749
98,666,7.24622,-64.6694,-0.00972278,0.0402774,0.00539976,0.0408539,-0.0102993,1.46444,0.0312401,0.0244382,1322,358,7.24619,64.6694
105,666,7.11255,-64.4659,-0.0109968,0.0419452,0.00641528,0.0427115,-0.011763,1.45191,0.0330996,0.0287615,1329,358,7.11255,64.4659
112,666,7.047,-64.2723,0,0,0,0,0,0,0,-1,1336,358,7.04699,64.2723
119,666,6.98853,-64.0783,0,0,0,0,0,0,0,-1,1343,358,6.9885,64.0783
126,666,6.8811,-63.7924,0,0,0,0,0,0,0,-1,1350,358,6.88106,63.7924
133,666,6.76416,-63.5806,0,0,0,0,0,0,0,-1,1357,358,6.7641,63.5806
140,666,6.55835,-63.281,-0.0126854,0.04526,0.00692549,0.0460762,-0.0135016,1.45348,0.0360704,0.0451771,1364,358,6.55837,63.281
147,666,6.38879,-62.96,-0.011956,0.0478851,0.00746675,0.0488027,-0.0128736,1.44852,0.0375689,0.0333749,1371,358,6.38878,62.96
154,666,6.35999,-62.3817,-0.0113658,0.0495287,0.00790898,0.0505391,-0.0123763,1.44372,0.0384873,0.028269,1378,358,6.36002,62.3817
161,666,6.37537,-62.0289,-0.010913,0.0500796,0.00834687,0.0512013,-0.0120346,1.43722,0.0387734,0.0370069,1385,358,6.37532,62.0289
168,666,6.26184,-62.0321,0,0,0,0,0,0,0,-1,1392,358,6.26184,62.0321
175,666,6.36169,-61.7209,0,0,0,0,0,0,0,-1,1399,358,6.3617,61.7209
182,666,2.60876,-5.17068,0,0,0,0,0,0,0,-1,1406,358,2.6088,5.17068
189,666,2.46973,-5.49979,0,0,0,0,0,0,0,-1,1413,358,2.46975,5.49979
196,666,2.32458,-5.23651,0,0,0,0,0,0,0,-1,1420,358,2.32461,5.23653
203,666,2.28064,-3.88004,0,0,0,0,0,0,0,-1,1427,358,2.28059,3.88003
210,666,3.02576,-5.83548,0,0,0,0,0,0,0,-1,1434,358,3.02581,5.83547
217,666,2.30444,-5.36011,0,0,0,0,0,0,0,-1,1441,358,2.30447,5.3601
224,666,1.82324,-6.03101,0,0,0,0,0,0,0,-1,1448,358,1.82322,6.031
231,666,2.29797,-10.1093,0,0,0,0,0,0,0,-1,1455,358,2.29801,10.1093
238,666,2.52429,-6.10568,0,0,0,0,0,0,0,-1,1462,358,2.52423,6.10567
245,666,4.53345,-1.38205,0,0,0,0,0,0,0,-1,1469,358,4.53349,1.38204
252,666,4.77405,-0.246979,0,0,0,0,0,0,0,-1,1476,358,4.77405,0.246993
259,666,4.83655,1.14087,0,0,0,0,0,0,0,-1,1483,358,4.83652,-1.14087
266,666,6.14148,0.749512,0,0,0,0,0,0,0,-1,1490,358,6.14144,-0.749519
273,666,3.17737,-33.7881,0,0,0,0,0,0,0,-1,1497,358,3.17735,33.7881
280,666,3.37268,-35.2123,0,0,0,0,0,0,0,-1,1504,358,3.37266,35.2123
287,666,-7.06934,-20.3464,0,0,0,0,0,0,0,-1,1511,358,-7.06933,20.3464
294,666,-2.11157,-23.2753,0,0,0,0,0,0,0,-1,1518,358,-2.11162,23.2753
301,666,-3.16162,-22.2271,0,0,0,0,0,0,0,-1,1525,358,-3.16161,22.2271
308,666,-4.24951,-20.9112,0,0,0,0,0,0,0,-1,1532,358,-4.24948,20.9112
315,666,-5.64954,-19.5784,0,0,0,0,0,0,0,-1,1539,358,-5.64959,19.5784
322,666,0,0,0,0,0,0,0,0,0,-1,1546,358,0,0
329,666,0,0,0,0,0,0,0,0,0,-1,1553,358,0,0
336,666,0,0,0,0,0,0,0,0,0,-1,1560,358,0,0
343,666,0,0,0,0,0,0,0,0,0,-1,1567,358,0,0
350,666,0,0,0,0,0,0,0,0,0,-1,1574,358,0,0
357,666,0,0,0,0,0,0,0,0,0,-1,1581,358,0,0
364,666,0,0,0,0,0,0,0,0,0,-1,1588,358,0,0
371,666,0,0,0,0,0,0,0,0,0,-1,1595,358,0,0
378,666,0,0,0,0,0,0,0,0,0,-1,1602,358,0,0
385,666,0,0,0,0,0,0,0,0,0,-1,1609,358,0,0
392,666,0,0,0,0,0,0,0,0,0,-1,1616,358,0,0
399,666,0,0,0,0,0,0,0,0,0,-1,1623,358,0,0
406,666,0,0,0,0,0,0,0,0,0,-1,1630,358,0,0
413,666,0,0,0,0,0,0,0,0,0,-1,1637,358,0,0
420,666,0,0,0,0,0,0,0,0,0,-1,1644,358,0,0
427,666,0,0,0,0,0,0,0,0,0,-1,1651,358,0,0
434,666,0,0,0,0,0,0,0,0,0,-1,1658,358,0,0
441,666,0,0,0,0,0,0,0,0,0,-1,1665,358,0,0
448,666,0,0,0,0,0,0,0,0,0,-1,1672,358,0,0
455,666,0,0,0,0,0,0,0,0,0,-1,1679,358,0,0
462,666,0,0,0,0,0,0,0,0,0,-1,1686,358,0,0
469,666,0,0,0,0,0,0,0,0,0,-1,1693,358,0,0
476,666,0,0,0,0,0,0,0,0,0,-1,1700,358,0,0
483,666,0,0,0,0,0,0,0,0,0,-1,1707,358,0,0
490,666,0,0,0,0,0,0,0,0,0,-1,1714,358,0,0
497,666,0,0,0,0,0,0,0,0,0,-1,1721,358,0,0
504,666,0,0,0,0,0,0,0,0,0,-1,1728,358,0,0
511,666,0,0,0,0,0,0,0,0,0,-1,1735,358,0,0
518,666,0,0,0,0,0,0,0,0,0,-1,1742,358,0,0
525,666,0,0,0,0,0,0,0,0,0,-1,1749,358,0,0
532,666,0,0,0,0,0,0,0,0,0,-1,1756,358,0,0
539,666,0,0,0,0,0,0,0,0,0,-1,1763,358,0,0
546,666,0,0,0,0,0,0,0,0,0,-1,1770,358,0,0
553,666,0,0,0,0,0,0,0,0,0,-1,1777,358,0,0
560,666,0,0,0,0,0,0,0,0,0,-1,1784,358,0,0
567,666,0,0,0,0,0,0,0,0,0,-1,1791,358,0,0
574,666,0,0,0,0,0,0,0,0,0,-1,1798,358,0,0
581,666,0,0,0,0,0,0,0,0,0,-1,1805,358,0,0
588,666,0,0,0,0,0,0,0,0,0,-1,1812,358,0,0
595,666,0,0,0,0,0,0,0,0,0,-1,1819,358,0,0
602,666,0,0,0,0,0,0,0,0,0,-1,1826,358,0,0
609,666,0,0,0,0,0,0,0,0,0,-1,1833,358,0,0
616,666,0,0,0,0,0,0,0,0,0,-1,1840,358,0,0
623,666,0,0,0,0,0,0,0,0,0,-1,1847,358,0,0
630,666,0,0,0,0,0,0,0,0,0,-1,1854,358,0,0
637,666,0,0,0,0,0,0,0,0,0,-1,1861,358,0,0
644,666,0,0,0,0,0,0,0,0,0,-1,1868,358,0,0
651,666,0,0,0,0,0,0,0,0,0,-1,1875,358,0,0
658,666,0,0,0,0,0,0,0,0,0,-1,1882,358,0,0
665,666,0,0,0,0,0,0,0,0,0,-1,1889,358,0,0
672,666,0,0,0,0,0,0,0,0,0,-1,1896,358,0,0
679,666,0,0,0,0,0,0,0,0,0,-1,1903,358,0,0
686,666,0,0,0,0,0,0,0,0,0,-1,1910,358,0,0
693,666,0,0,0,0,0,0,0,0,0,-1,1917,358,0,0
700,666,0,0,0,0,0,0,0,0,0,-1,1924,358,0,0
707,666,0,0,0,0,0,0,0,0,0,-1,1931,358,0,0
714,666,0,0,0,0,0,0,0,0,0,-1,1938,358,0,0
721,666,0,0,0,0,0,0,0,0,0,-1,1945,358,0,0
728,666,0,0,0,0,0,0,0,0,0,-1,1952,358,0,0
735,666,0,0,0,0,0,0,0,0,0,-1,1959,358,0,0
742,666,0,0,0,0,0,0,0,0,0,-1,1966,358,0,0
749,666,0,0,0,0,0,0,0,0,0,-1,1973,358,0,0
756,666,0,0,0,0,0,0,0,0,0,-1,1980,358,0,0
763,666,0,0,0,0,0,0,0,0,0,-1,1987,358,0,0
770,666,0,0,0,0,0,0,0,0,0,-1,1994,358,0,0
777,666,0,0,0,0,0,0,0,0,0,-1,2001,358,0,0
784,666,0,0,0,0,0,0,0,0,0,-1,2008,358,0,0
791,666,0,0,0,0,0,0,0,0,0,-1,2015,358,0,0
798,666,0,0,0,0,0,0,0,0,0,-1,2022,358,0,0
805,666,0,0,0,0,0,0,0,0,0,-1,2029,358,0,0
812,666,0,0,0,0,0,0,0,0,0,-1,2036,358,0,0
-700,659,0,0,0,0,0,0,0,0,0,-1,524,365,0,0
-693,659,0,0,0,0,0,0,0,0,0,-1,531,365,0,0
-686,659,0,0,0,0,0,0,0,0,0,-1,538,365,0,0
-679,659,0,0,0,0,0,0,0,0,0,-1,545,365,0,0
-672,659,0,0,0,0,0,0,0,0,0,-1,552,365,0,0
-665,659,0,0,0,0,0,0,0,0,0,-1,559,365,0,0
-658,659,0,0,0,0,0,0,0,0,0,-1,566,365,0,0
-651,659,0,0,0,0,0,0,0,0,0,-1,573,365,0,0
-644,659,0,0,0,0,0,0,0,0,0,-1,580,365,0,0
-637,659,0,0,0,0,0,0,0,0,0,-1,587,365,0,0
-630,659,0,0,0,0,0,0,0,0,0,-1,594,365,0,0
-623,659,0,0,0,0,0,0,0,0,0,-1,601,365,0,0
-616,659,0,0,0,0,0,0,0,0,0,-1,608,365,0,0
-609,659,0,0,0,0,0,0,0,0,0,-1,615,365,0,0
-602,659,0,0,0,0,0,0,0,0,0,-1,622,365,0,0
-595,659,0,0,0,0,0,0,0,0,0,-1,629,365,0,0
-588,659,0,0,0,0,0,0,0,0,0,-1,636,365,0,0
-581,659,0,0,0,0,0,0,0,0,0,-1,643,365,0,0
-574,659,0,0,0,0,0,0,0,0,0,-1,650,365,0,0
-567,659,0,0,0,0,0,0,0,0,0,-1,657,365,0,0
-560,659,0,0,0,0,0,0,0,0,0,-1,664,365,0,0
-553,659,0,0,0,0,0,0,0,0,0,-1,671,365,0,0
-546,659,0,0,0,0,0,0,0,0,0,-1,678,365,0,0
-539,659,0,0,0,0,0,0,0,0,0,-1,685,365,0,0
-532,659,0,0,0,0,0,0,0,0,0,-1,692,365,0,0
-525,659,0,0,0,0,0,0,0,0,0,-1,699,365,0,0
-518,659,0,0,0,0,0,0,0,0,0,-1,706,365,0,0
-511,659,0,0,0,0,0,0,0,0,0,-1,713,365,0,0
-504,659,0,0,0,0,0,0,0,0,0,-1,720,365,0,0
-497,659,0,0,0,0,0,0,0,0,0,-1,727,365,0,0
-490,659,0,0,0,0,0,0,0,0,0,-1,734,365,0,0
-483,659,0,0,0,0,0,0,0,0,0,-1,741,365,0,0
-476,659,0,0,0,0,0,0,0,0,0,-1,748,365,0,0
-469,659,0,0,0,0,0,0,0,0,0,-1,755,365,0,0
-462,659,0,0,0,0,0,0,0,0,0,-1,762,365,0,0
-455,659,0,0,0,0,0,0,0,0,0,-1,769,365,0,0
-448,659,0,0,0,0,0,0,0,0,0,-1,776,365,0,0
-441,659,0,0,0,0,0,0,0,0,0,-1,783,365,0,0
-434,659,0,0,0,0,0,0,0,0,0,-1,790,365,0,0
-427,659,0,0,0,0,0,0,0,0,0,-1,797,365,0,0
-420,659,0,0,0,0,0,0,0,0,0,-1,804,365,0,0
-413,659,0,0,0,0,0,0,0,0,0,-1,811,365,0,0
-406,659,0,0,0,0,0,0,0,0,0,-1,818,365,0,0
-399,659,0,0,0,0,0,0,0,0,0,-1,825,365,0,0
-392,659,0,0,0,0,0,0,0,0,0,-1,832,365,0,0
-385,659,0,0,0,0,0,0,0,0,0,-1,839,365,0,0
-378,659,0,0,0,0,0,0,0,0,0,-1,846,365,0,0
-371,659,0,0,0,0,0,0,0,0,0,-1,853,365,0,0
-364,659,0,0,0,0,0,0,0,0,0,-1,860,365,0,0
-357,659,0,0,0,0,0,0,0,0,0,-1,867,365,0,0
-350,659,0,0,0,0,0,0,0,0,0,-1,874,365,0,0
-343,659,0,0,0,0,0,0,0,0,0,-1,881,365,0,0
-336,659,0,0,0,0,0,0,0,0,0,-1,888,365,0,0
-329,659,0,0,0,0,0,0,0,0,0,-1,895,365,0,0
-322,659,0,0,0,0,0,0,0,0,0,-1,902,365,0,0
-315,659,0,0,0,0,0,0,0,0,0,-1,909,365,0,0
-308,659,0,0,0,0,0,0,0,0,0,-1,916,365,0,0
-301,659,0,0,0,0,0,0,0,0,0,-1,923,365,0,0
-294,659,0,0,0,0,0,0,0,0,0,-1,930,365,0,0
-287,659,0,0,0,0,0,0,0,0,0,-1,937,365,0,0
-280,659,0,0,0,0,0,0,0,0,0,-1,944,365,0,0
-273,659,0,0,0,0,0,0,0,0,0,-1,951,365,0,0
-266,659,0,0,0,0,0,0,0,0,0,-1,958,365,0,0
-259,659,0,0,0,0,0,0,0,0,0,-1,965,365,0,0
-252,659,0,0,0,0,0,0,0,0,0,-1,972,365,0,0
-245,659,0,0,0,0,0,0,0,0,0,-1,979,365,0,0
-238,659,0,0,0,0,0,0,0,0,0,-1,986,365,0,0
-231,659,0,0,0,0,0,0,0,0,0,-1,993,365,0,0
-224,659,0,0,0,0,0,0,0,0,0,-1,1000,365,0,0
-217,659,10.1305,-25.2622,0,0,0,0,0,0,0,-1,1007,365,10.1305,25.2622
-210,659,9.65643,-25.515,0,0,0,0,0,0,0,-1,1014,365,9.65642,25.515
-203,659,8.58911,-25.7432,0,0,0,0,0,0,0,-1,1021,365,8.58916,25.7432
-196,659,2.68323,-27.8121,0,0,0,0,0,0,0,-1,1028,365,2.6832,27.8121
-189,659,6.88049,-28.9412,0,0,0,0,0,0,0,-1,1035,365,6.88045,28.9412
-182,659,6.94189,-30.6316,0,0,0,0,0,0,0,-1,1042,365,6.94189,30.6316
-175,659,6.948,-32.0092,0,0,0,0,0,0,0,-1,1049,365,6.94798,32.0093
-168,659,7.1416,-32.7405,0,0,0,0,0,0,0,-1,1056,365,7.14157,32.7405
-161,659,7.57361,-33.7099,0,0,0,0,0,0,0,-1,1063,365,7.57355,33.7099
-154,659,7.71448,-34.8995,0,0,0,0,0,0,0,-1,1070,365,7.7145,34.8995
-147,659,5.46606,-37.758,0,0,0,0,0,0,0,-1,1077,365,5.46601,37.758
-140,659,5.7356,-37.755,0,0,0,0,0,0,0,-1,1084,365,5.73562,37.755
-133,659,5.91455,-37.9017,0,0,0,0,0,0,0,-1,1091,365,5.9146,37.9017
-126,659,6.31226,-37.9904,0,0,0,0,0,0,0,-1,1098,365,6.3122,37.9904
-119,659,6.26941,-35.0837,0,0,0,0,0,0,0,-1,1105,365,6.26943,35.0837
-112,659,6.24353,-35.0562,0,0,0,0,0,0,0,-1,1112,365,6.24349,35.0562
-105,659,5.38696,-30.5854,0,0,0,0,0,0,0,-1,1119,365,5.387,30.5854
-98,659,4.68042,-26.2438,0,0,0,0,0,0,0,-1,1126,365,4.68041,26.2438
-91,659,4.20776,-20.8654,0,0,0,0,0,0,0,-1,1133,365,4.20777,20.8654
-84,659,2.8584,-17.8303,0,0,0,0,0,0,0,-1,1140,365,2.85836,17.8303
-77,659,2.80139,-15.3457,0,0,0,0,0,0,0,-1,1147,365,2.80139,15.3457
-70,659,2.9353,-12.7028,0,0,0,0,0,0,0,-1,1154,365,2.93533,12.7028
-63,659,2.11267,-9.7796,0,0,0,0,0,0,0,-1,1161,365,2.11266,9.7796
-56,659,2.11182,-9.91541,0,0,0,0,0,0,0,-1,1168,365,2.11178,9.91541
-49,659,8.89075,-61.9832,0,0,0,0,0,0,0,-1,1175,365,8.89071,61.9832
-42,659,8.86719,-62.3468,0,0,0,0,0,0,0,-1,1182,365,8.86725,62.3468
-35,659,8.76709,-62.7335,-0.0127768,0.030268,-0.018554,0.0371615,-0.0196703,-1.21506,0.0333258,0.0422629,1189,365,8.76707,62.7335
-28,659,8.73962,-62.9783,-0.0129054,0.0317981,-0.0195203,0.039122,-0.0202293,-1.21186,0.0348404,0.017333,1196,365,8.73968,62.9783
-21,659,8.63745,-63.3255,-0.0127144,0.0327637,-0.0196692,0.0400902,-0.020041,-1.21423,0.0353542,0.0153254,1203,365,8.63741,63.3255
-14,659,8.50659,-63.6259,-0.0126829,0.0333226,-0.0194819,0.040464,-0.0198244,-1.21944,0.0354809,0.0130391,1210,365,8.50657,63.626
-7,659,8.42163,-63.8655,-0.0123742,0.0337516,-0.0190463,0.0405995,-0.0192222,-1.22565,0.0352655,0.0125319,1217,365,8.42163,63.8655
0,659,8.3894,-64.0942,-0.0118078,0.0336654,-0.0182358,0.0400749,-0.0182174,-1.2328,0.0344347,0.010312,1224,365,8.38935,64.0942
7,659,8.3479,-64.2765,-0.0111794,0.0335251,-0.0171054,0.0393192,-0.0169735,-1.2442,0.0333433,0.0103845,1231,365,8.34785,64.2765
14,659,8.24829,-64.4051,-0.0104091,0.0331343,-0.015482,0.0380778,-0.0153525,-1.26173,0.0317645,0.0128181,1238,365,8.24835,64.4051
21,659,8.16968,-64.5707,-0.00950901,0.033573,-0.0133136,0.0373552,-0.0132912,-1.294,0.030321,0.0127082,1245,365,8.16972,64.5707
28,659,8.07581,-64.7274,-0.00852921,0.0338397,-0.0112773,0.0366544,-0.0113439,-1.3262,0.0289676,0.0116899,1252,365,8.0758,64.7274
35,659,8.0188,-64.8366,-0.00747877,0.0339317,-0.00924939,0.0359037,-0.0094508,-1.36074,0.0276302,0.0129756,1259,365,8.01878,64.8366
42,659,7.96497,-64.9359,-0.00667152,0.0334392,-0.00667036,0.0345193,-0.00775171,-1.41025,0.0259851,0.014356,1266,365,7.96494,64.936
49,659,7.86487,-65.0069,-0.00597783,0.033643,-0.00436392,0.0341179,-0.00645279,-1.46239,0.0251734,0.0158464,1273,365,7.86484,65.0069
56,659,7.78931,-65.0524,-0.00553709,0.0338923,-0.00268161,0.0340738,-0.00571864,-1.5032,0.0248425,0.018959,1280,365,7.78936,65.0524
63,659,7.75244,-65.119,-0.00507455,0.033972,-0.000860774,0.033991,-0.00509351,-1.54877,0.0245353,0.0168873,1287,365,7.7525,65.119
70,659,7.66577,-65.1041,-0.00504701,0.0336342,0.000990274,0.0336595,-0.00507235,1.54522,0.0243075,0.0181845,1294,365,7.66581,65.1041
77,659,7.57068,-65.0735,-0.00533169,0.0328688,0.00236598,0.0330148,-0.00547767,1.50917,0.0240446,0.0204538,1301,365,7.57073,65.0735
84,659,7.53845,-65.0152,-0.00612007,0.031871,0.00280959,0.0320776,-0.00632673,1.49737,0.0237763,0.0144839,1308,365,7.53846,65.0152
91,659,7.46277,-64.9479,-0.00704149,0.0305969,0.00305575,0.0308434,-0.00728796,1.49031,0.0233734,0.0122057,1315,365,7.46282,64.9479
98,659,7.36475,-64.8121,-0.00796046,0.0302372,0.00401465,0.0306545,-0.00837785,1.4672,0.0237272,0.00926712,1322,365,7.36479,64.8121
105,659,7.29565,-64.63,-0.00882557,0.0310843,0.00474046,0.0316396,-0.00938091,1.45418,0.0248182,0.0103968,1329,365,7.29567,64.63
112,659,7.22058,-64.4385,-0.00938857,0.0315871,0.00487626,0.0321594,-0.00996087,1.45397,0.025419,0.0156186,1336,365,7.22063,64.4385
119,659,7.15002,-64.2553,-0.00989056,0.0319416,0.00471142,0.0324657,-0.0104146,1.46002,0.0258251,0.0182084,1343,365,7.15003,64.2553
126,659,7.0542,-63.9736,-0.0102174,0.0311871,0.00415368,0.0315997,-0.0106299,1.47179,0.0253635,0.0180094,1350,365,7.05416,63.9736
133,659,6.95837,-63.7155,-0.0101122,0.0318784,0.00469543,0.0323971,-0.0106309,1.46079,0.02588,0.0177477,1357,365,6.95835,63.7154
140,659,6.86914,-63.5241,-0.00993038,0.0334294,0.00543069,0.0340992,-0.0106002,1.44807,0.0269698,0.0137528,1364,365,6.86909,63.5241
147,659,6.80286,-63.2516,-0.00948819,0.0352736,0.00583497,0.0360217,-0.0102363,1.44328,0.0280561,0.0119944,1371,365,6.80286,63.2516
154,659,6.68982,-62.8772,-0.00915599,0.0364373,0.0061819,0.0372606,-0.00997931,1.43839,0.0287501,0.0131071,1378,365,6.68986,62.8772
161,659,6.61719,-62.5196,-0.00894584,0.0368555,0.00655822,0.0377761,-0.0098664,1.43134,0.0290371,0.0146518,1385,365,6.61724,62.5196
168,659,6.55371,-62.1458,-0.00891036,0.0363092,0.00687127,0.0373302,-0.00993142,1.42328,0.0287744,0.0209054,1392,365,6.55375,62.1458
175,659,6.5166,-61.7468,-0.00901492,0.0351959,0.00722314,0.0363461,-0.0101651,1.41289,0.0282357,0.0432613,1399,365,6.51659,61.7468
182,659,6.3761,-61.4257,0,0,0,0,0,0,0,-1,1406,365,6.37611,61.4256
189,659,6.32068,-60.8747,0,0,0,0,0,0,0,-1,1413,365,6.32072,60.8747
196,659,2.41248,-13.4371,0,0,0,0,0,0,0,-1,1420,365,2.41243,13.4371
203,659,2.38623,-12.2163,0,0,0,0,0,0,0,-1,1427,365,2.38617,12.2163
210,659,2.20789,-13.9792,0,0,0,0,0,0,0,-1,1434,365,2.20794,13.9792
217,659,2.24121,-13.487,0,0,0,0,0,0,0,-1,1441,365,2.24116,13.487
224,659,2.3479,-15.2926,0,0,0,0,0,0,0,-1,1448,365,2.34793,15.2926
231,659,2.47974,-17.8629,0,0,0,0,0,0,0,-1,1455,365,2.47976,17.8628
238,659,3.57886,-21.1258,0,0,0,0,0,0,0,-1,1462,365,3.57889,21.1258
245,659,3.29883,-25.0283,0,0,0,0,0,0,0,-1,1469,365,3.29889,25.0283
252,659,2.81909,-24.1604,0,0,0,0,0,0,0,-1,1476,365,2.81905,24.1604
259,659,2.33069,-3.36703,0,0,0,0,0,0,0,-1,1483,365,2.33073,3.36702
266,659,3.40918,-35.2544,0,0,0,0,0,0,0,-1,1490,365,3.40913,35.2544
273,659,4.45557,-42.3683,0,0,0,0,0,0,0,-1,1497,365,4.45554,42.3683
280,659,4.87903,-41.4995,0,0,0,0,0,0,0,-1,1504,365,4.87898,41.4995
287,659,1.09851,-23.7787,0,0,0,0,0,0,0,-1,1511,365,1.09847,23.7787
294,659,0.115601,-24.0352,0,0,0,0,0,0,0,-1,1518,365,0.115612,24.0352
301,659,-1.21362,-22.6162,0,0,0,0,0,0,0,-1,1525,365,-1.21358,22.6162
308,659,-2.32605,-21.2737,0,0,0,0,0,0,0,-1,1532,365,-2.32606,21.2737
315,659,-3.69629,-19.8803,0,0,0,0,0,0,0,-1,1539,365,-3.69631,19.8803
322,659,-4.9646,-18.5258,0,0,0,0,0,0,0,-1,1546,365,-4.96464,18.5257
329,659,-7.67749,-23.0449,0,0,0,0,0,0,0,-1,1553,365,-7.67745,23.0449
336,659,-7.71436,-22.4188,0,0,0,0,0,0,0,-1,1560,365,-7.71432,22.4188
343,659,0,0,0,0,0,0,0,0,0,-1,1567,365,0,0
350,659,0,0,0,0,0,0,0,0,0,-1,1574,365,0,0
357,659,0,0,0,0,0,0,0,0,0,-1,1581,365,0,0
364,659,0,0,0,0,0,0,0,0,0,-1,1588,365,0,0
371,659,0,0,0,0,0,0,0,0,0,-1,1595,365,0,0
378,659,0,0,0,0,0,0,0,0,0,-1,1602,365,0,0
385,659,0,0,0,0,0,0,0,0,0,-1,1609,365,0,0
392,659,0,0,0,0,0,0,0,0,0,-1,1616,365,0,0
399,659,0,0,0,0,0,0,0,0,0,-1,1623,365,0,0
406,659,0,0,0,0,0,0,0,0,0,-1,1630,365,0,0
413,659,0,0,0,0,0,0,0,0,0,-1,1637,365,0,0
420,659,0,0,0,0,0,0,0,0,0,-1,1644,365,0,0
427,659,0,0,0,0,0,0,0,0,0,-1,1651,365,0,0
434,659,0,0,0,0,0,0,0,0,0,-1,1658,365,0,0
441,659,0,0,0,0,0,0,0,0,0,-1,1665,365,0,0
448,659,0,0,0,0,0,0,0,0,0,-1,1672,365,0,0
455,659,0,0,0,0,0,0,0,0,0,-1,1679,365,0,0
462,659,0,0,0,0,0,0,0,0,0,-1,1686,365,0,0
469,659,0,0,0,0,0,0,0,0,0,-1,1693,365,0,0
476,659,0,0,0,0,0,0,0,0,0,-1,1700,365,0,0
483,659,0,0,0,0,0,0,0,0,0,-1,1707,365,0,0
490,659,0,0,0,0,0,0,0,0,0,-1,1714,365,0,0
497,659,0,0,0,0,0,0,0,0,0,-1,1721,365,0,0
504,659,0,0,0,0,0,0,0,0,0,-1,1728,365,0,0
511,659,0,0,0,0,0,0,0,0,0,-1,1735,365,0,0
518,659,0,0,0,0,0,0,0,0,0,-1,1742,365,0,0
525,659,0,0,0,0,0,0,0,0,0,-1,1749,365,0,0
532,659,0,0,0,0,0,0,0,0,0,-1,1756,365,0,0
539,659,0,0,0,0,0,0,0,0,0,-1,1763,365,0,0
546,659,0,0,0,0,0,0,0,0,0,-1,1770,365,0,0
553,659,0,0,0,0,0,0,0,0,0,-1,1777,365,0,0
560,659,0,0,0,0,0,0,0,0,0,-1,1784,365,0,0
567,659,0,0,0,0,0,0,0,0,0,-1,1791,365,0,0
574,659,0,0,0,0,0,0,0,0,0,-1,1798,365,0,0
581,659,0,0,0,0,0,0,0,0,0,-1,1805,365,0,0
588,659,0,0,0,0,0,0,0,0,0,-1,1812,365,0,0
595,659,0,0,0,0,0,0,0,0,0,-1,1819,365,0,0
602,659,0,0,0,0,0,0,0,0,0,-1,1826,365,0,0
609,659,0,0,0,0,0,0,0,0,0,-1,1833,365,0,0
616,659,0,0,0,0,0,0,0,0,0,-1,1840,365,0,0
623,659,0,0,0,0,0,0,0,0,0,-1,1847,365,0,0
630,659,0,0,0,0,0,0,0,0,0,-1,1854,365,0,0
637,659,0,0,0,0,0,0,0,0,0,-1,1861,365,0,0
644,659,0,0,0,0,0,0,0,0,0,-1,1868,365,0,0
651,659,0,0,0,0,0,0,0,0,0,-1,1875,365,0,0
658,659,0,0,0,0,0,0,0,0,0,-1,1882,365,0,0
665,659,0,0,0,0,0,0,0,0,0,-1,1889,365,0,0
672,659,0,0,0,0,0,0,0,0,0,-1,1896,365,0,0
679,659,0,0,0,0,0,0,0,0,0,-1,1903,365,0,0
686,659,0,0,0,0,0,0,0,0,0,-1,1910,365,0,0
693,659,0,0,0,0,0,0,0,0,0,-1,1917,365,0,0
700,659,0,0,0,0,0,0,0,0,0,-1,1924,365,0,0
707,659,0,0,0,0,0,0,0,0,0,-1,1931,365,0,0
714,659,0,0,0,0,0,0,0,0,0,-1,1938,365,0,0
721,659,0,0,0,0,0,0,0,0,0,-1,1945,365,0,0
728,659,0,0,0,0,0,0,0,0,0,-1,1952,365,0,0
735,659,0,0,0,0,0,0,0,0,0,-1,1959,365,0,0
742,659,0,0,0,0,0,0,0,0,0,-1,1966,365,0,0
749,659,0,0,0,0,0,0,0,0,0,-1,1973,365,0,0
756,659,0,0,0,0,0,0,0,0,0,-1,1980,365,0,0
763,659,0,0,0,0,0,0,0,0,0,-1,1987,365,0,0
770,659,0,0,0,0,0,0,0,0,0,-1,1994,365,0,0
777,659,0,0,0,0,0,0,0,0,0,-1,2001,365,0,0
784,659,0,0,0,0,0,0,0,0,0,-1,2008,365,0,0
791,659,0,0,0,0,0,0,0,0,0,-1,2015,365,0,0
798,659,0,0,0,0,0,0,0,0,0,-1,2022,365,0,0
805,659,0,0,0,0,0,0,0,0,0,-1,2029,365,0,0
812,659,0,0,0,0,0,0,0,0,0,-1,2036,365,0,0
-700,652,0,0,0,0,0,0,0,0,0,-1,524,372,0,0
-693,652,0,0,0,0,0,0,0,0,0,-1,531,372,0,0
-686,652,0,0,0,0,0,0,0,0,0,-1,538,372,0,0
-679,652,0,0,0,0,0,0,0,0,0,-1,545,372,0,0
-672,652,0,0,0,0,0,0,0,0,0,-1,552,372,0,0
-665,652,0,0,0,0,0,0,0,0,0,-1,559,372,0,0
-658,652,0,0,0,0,0,0,0,0,0,-1,566,372,0,0
-651,652,0,0,0,0,0,0,0,0,0,-1,573,372,0,0
-644,652,0,0,0,0,0,0,0,0,0,-1,580,372,0,0
-637,652,0,0,0,0,0,0,0,0,0,-1,587,372,0,0
-630,652,0,0,0,0,0,0,0,0,0,-1,594,372,0,0
-623,652,0,0,0,0,0,0,0,0,0,-1,601,372,0,0
-616,652,0,0,0,0,0,0,0,0,0,-1,608,372,0,0
-609,652,0,0,0,0,0,0,0,0,0,-1,615,372,0,0
-602,652,0,0,0,0,0,0,0,0,0,-1,622,372,0,0
-595,652,0,0,0,0,0,0,0,0,0,-1,629,372,0,0
-588,652,0,0,0,0,0,0,0,0,0,-1,636,372,0,0
-581,652,0,0,0,0,0,0,0,0,0,-1,643,372,0,0
-574,652,0,0,0,0,0,0,0,0,0,-1,650,372,0,0
-567,652,0,0,0,0,0,0,0,0,0,-1,657,372,0,0
-560,652,0,0,0,0,0,0,0,0,0,-1,664,372,0,0
-553,652,0,0,0,0,0,0,0,0,0,-1,671,372,0,0
-546,652,0,0,0,0,0,0,0,0,0,-1,678,372,0,0
-539,652,0,0,0,0,0,0,0,0,0,-1,685,372,0,0
-532,652,0,0,0,0,0,0,0,0,0,-1,692,372,0,0
-525,652,0,0,0,0,0,0,0,0,0,-1,699,372,0,0
-518,652,0,0,0,0,0,0,0,0,0,-1,706,372,0,0
-511,652,0,0,0,0,0,0,0,0,0,-1,713,372,0,0
-504,652,0,0,0,0,0,0,0,0,0,-1,720,372,0,0
-497,652,0,0,0,0,0,0,0,0,0,-1,727,372,0,0
-490,652,0,0,0,0,0,0,0,0,0,-1,734,372,0,0
-483,652,0,0,0,0,0,0,0,0,0,-1,741,372,0,0
-476,652,0,0,0,0,0,0,0,0,0,-1,748,372,0,0
-469,652,0,0,0,0,0,0,0,0,0,-1,755,372,0,0
-462,652,0,0,0,0,0,0,0,0,0,-1,762,372,0,0
-455,652,0,0,0,0,0,0,0,0,0,-1,769,372,0,0
-448,652,0,0,0,0,0,0,0,0,0,-1,776,372,0,0
-441,652,0,0,0,0,0,0,0,0,0,-1,783,372,0,0
-434,652,0,0,0,0,0,0,0,0,0,-1,790,372,0,0
-427,652,0,0,0,0,0,0,0,0,0,-1,797,372,0,0
-420,652,0,0,0,0,0,0,0,0,0,-1,804,372,0,0
-413,652,0,0,0,0,0,0,0,0,0,-1,811,372,0,0
-406,652,0,0,0,0,0,0,0,0,0,-1,818,372,0,0
-399,652,0,0,0,0,0,0,0,0,0,-1,825,372,0,0
-392,652,0,0,0,0,0,0,0,0,0,-1,832,372,0,0
-385,652,0,0,0,0,0,0,0,0,0,-1,839,372,0,0
-378,652,0,0,0,0,0,0,0,0,0,-1,846,372,0,0
-371,652,0,0,0,0,0,0,0,0,0,-1,853,372,0,0
-364,652,0,0,0,0,0,0,0,0,0,-1,860,372,0,0
-357,652,0,0,0,0,0,0,0,0,0,-1,867,372,0,0
-350,652,0,0,0,0,0,0,0,0,0,-1,874,372,0,0
-343,652,0,0,0,0,0,0,0,0,0,-1,881,372,0,0
-336,652,0,0,0,0,0,0,0,0,0,-1,888,372,0,0
-329,652,0,0,0,0,0,0,0,0,0,-1,895,372,0,0
-322,652,0,0,0,0,0,0,0,0,0,-1,902,372,0,0
-315,652,0,0,0,0,0,0,0,0,0,-1,909,372,0,0
-308,652,0,0,0,0,0,0,0,0,0,-1,916,372,0,0
-301,652,0,0,0,0,0,0,0,0,0,-1,923,372,0,0
-294,652,0,0,0,0,0,0,0,0,0,-1,930,372,0,0
-287,652,0,0,0,0,0,0,0,0,0,-1,937,372,0,0
-280,652,0,0,0,0,0,0,0,0,0,-1,944,372,0,0
-273,652,0,0,0,0,0,0,0,0,0,-1,951,372,0,0
-266,652,0,0,0,0,0,0,0,0,0,-1,958,372,0,0
-259,652,0,0,0,0,0,0,0,0,0,-1,965,372,0,0
-252,652,0,0,0,0,0,0,0,0,0,-1,972,372,0,0
-245,652,0,0,0,0,0,0,0,0,0,-1,979,372,0,0
-238,652,0,0,0,0,0,0,0,0,0,-1,986,372,0,0
-231,652,8.79358,-27.1656,0,0,0,0,0,0,0,-1,993,372,8.79357,27.1656
-224,652,8.84552,-27.675,0,0,0,0,0,0,0,-1,1000,372,8.84555,27.675
-217,652,9.03113,-27.7474,0,0,0,0,0,0,0,-1,1007,372,9.0311,27.7474
-210,652,9.72803,-30.4624,0,0,0,0,0,0,0,-1,1014,372,9.72805,30.4624
-203,652,7.2677,-26.0732,0,0,0,0,0,0,0,-1,1021,372,7.26775,26.0732
-196,652,5.90686,-26.957,0,0,0,0,0,0,0,-1,1028,372,5.9068,26.957
-189,652,6.21326,-28.3035,0,0,0,0,0,0,0,-1,1035,372,6.21331,28.3035
-182,652,6.45068,-29.9377,0,0,0,0,0,0,0,-1,1042,372,6.45074,29.9377
-175,652,6.72559,-31.6948,0,0,0,0,0,0,0,-1,1049,372,6.72563,31.6948
-168,652,7.08533,-32.8669,0,0,0,0,0,0,0,-1,1056,372,7.08532,32.8669
-161,652,7.85291,-37.3545,0,0,0,0,0,0,0,-1,1063,372,7.85294,37.3545
-154,652,7.54639,-37.9586,0,0,0,0,0,0,0,-1,1070,372,7.54642,37.9586
-147,652,7.85571,-42.3712,0,0,0,0,0,0,0,-1,1077,372,7.8557,42.3712
-140,652,5.6842,-33.9781,0,0,0,0,0,0,0,-1,1084,372,5.68421,33.9781
-133,652,6.3009,-35.2887,0,0,0,0,0,0,0,-1,1091,372,6.30093,35.2887
-126,652,5.86841,-37.0981,0,0,0,0,0,0,0,-1,1098,372,5.86845,37.0981
-119,652,8.18018,-49.52,0,0,0,0,0,0,0,-1,1105,372,8.18015,49.52
-112,652,7.81982,-48.4793,0,0,0,0,0,0,0,-1,1112,372,7.81981,48.4793
-105,652,6.63855,-39.9965,0,0,0,0,0,0,0,-1,1119,372,6.63852,39.9965
-98,652,5.84302,-35.2455,0,0,0,0,0,0,0,-1,1126,372,5.84307,35.2455
-91,652,5.66296,-32.9003,0,0,0,0,0,0,0,-1,1133,372,5.66297,32.9003
-84,652,5.46057,-34.9186,0,0,0,0,0,0,0,-1,1140,372,5.46057,34.9186
-77,652,8.92749,-60.0585,0,0,0,0,0,0,0,-1,1147,372,8.92754,60.0585
-70,652,8.85388,-60.6844,0,0,0,0,0,0,0,-1,1154,372,8.85391,60.6844
-63,652,8.78625,-61.1011,0,0,0,0,0,0,0,-1,1161,372,8.78622,61.1011
-56,652,8.66345,-61.5701,0,0,0,0,0,0,0,-1,1168,372,8.66348,61.5701
-49,652,8.62634,-62.0151,-0.00921742,0.0179155,-0.00945522,0.0208854,-0.0121873,-1.26646,0.0193134,0.0378356,1175,372,8.62638,62.0151
-42,652,8.53406,-62.3355,-0.00901625,0.019191,-0.0101619,0.0224705,-0.0122958,-1.25862,0.0203569,0.0132257,1182,372,8.53406,62.3355
-35,652,8.5061,-62.6863,-0.00872892,0.0204743,-0.011015,0.0241631,-0.0124177,-1.24765,0.0214798,0.0112967,1189,372,8.50605,62.6863
-28,652,8.4469,-63.0212,-0.00842465,0.0216803,-0.0113847,0.0255008,-0.0122451,-1.24702,0.022236,0.00921581,1196,372,8.44687,63.0212
-21,652,8.35791,-63.3577,-0.00803993,0.0225424,-0.0113926,0.0263199,-0.0118174,-1.25063,0.022543,0.00877392,1203,372,8.35793,63.3577
-14,652,8.2937,-63.6417,-0.00780274,0.023043,-0.0111959,0.0266783,-0.011438,-1.25684,0.0225852,0.0117227,1210,372,8.29374,63.6417
-7,652,8.21777,-63.9189,-0.00740479,0.023462,-0.0108838,0.0269137,-0.0108565,-1.26369,0.0224539,0.0152228,1217,372,8.21783,63.9189
0,652,8.16553,-64.1658,-0.00686243,0.0234519,-0.0103335,0.0266392,-0.0100498,-1.27161,0.0218923,0.0145175,1224,372,8.16556,64.1658
7,652,8.14282,-64.3137,-0.00633768,0.0234013,-0.00956685,0.0262131,-0.00914943,-1.28494,0.021194,0.0147013,1231,372,8.14282,64.3137
14,652,8.11292,-64.5099,-0.0057949,0.0231586,-0.00846996,0.0254544,-0.00809064,-1.30611,0.0202136,0.0121585,1238,372,8.11296,64.5098
21,652,8.02783,-64.6897,-0.00521644,0.0235764,-0.00702006,0.0251968,-0.00683682,-1.34395,0.0194809,0.0112091,1245,372,8.0278,64.6897
28,652,7.97961,-64.8489,-0.00460248,0.0238588,-0.00573024,0.0249692,-0.00571285,-1.37939,0.0188414,0.0106341,1252,372,7.97957,64.8489
35,652,7.91211,-64.9609,-0.00398203,0.0239955,-0.00451437,0.0247059,-0.00469242,-1.41472,0.0182371,0.0119572,1259,372,7.91212,64.9609
42,652,7.85486,-65.0268,-0.00358623,0.0237496,-0.00292521,0.0240591,-0.00389576,-1.46538,0.0174833,0.0128895,1266,372,7.85489,65.0268
49,652,7.8512,-65.0773,-0.00332353,0.0240234,-0.00159854,0.0241165,-0.00341666,-1.51261,0.0173292,0.0152387,1273,372,7.85121,65.0773
56,652,7.82312,-65.1172,-0.00322709,0.0243151,-0.000754387,0.0243357,-0.00324773,-1.54343,0.0174077,0.0166556,1280,372,7.82314,65.1172
63,652,7.75122,-65.1862,-0.00315642,0.0244708,0.000102637,0.0244712,-0.0031568,1.56708,0.0174618,0.0198025,1287,372,7.75127,65.1862
70,652,7.67407,-65.1437,-0.00334121,0.0243211,0.00103251,0.0243596,-0.0033797,1.53354,0.0174756,0.0181183,1294,372,7.6741,65.1437
77,652,7.59314,-65.1069,-0.00370656,0.0239106,0.00166425,0.0240105,-0.00380649,1.51082,0.0174151,0.0172193,1301,372,7.59318,65.1069
84,652,7.5896,-65.0954,-0.00425687,0.0232261,0.0019313,0.0233611,-0.00439192,1.50098,0.0172257,0.0144989,1308,372,7.5896,65.0954
91,652,7.53638,-65.0596,-0.0049254,0.0223229,0.00209016,0.0224823,-0.0050848,1.49468,0.0169395,0.0176743,1315,372,7.5364,65.0596
98,652,7.50122,-64.9172,-0.0056105,0.0219699,0.00274521,0.0222405,-0.00588109,1.47255,0.0171273,0.0145335,1322,372,7.50124,64.9172
105,652,7.43884,-64.7346,-0.00621473,0.022439,0.00327502,0.0228086,-0.00658428,1.45843,0.0178109,0.0118087,1329,372,7.43883,64.7347
112,652,7.35925,-64.5436,-0.00658765,0.0227751,0.0034525,0.0231756,-0.00698814,1.45531,0.0182318,0.0102548,1336,372,7.35923,64.5436
119,652,7.31543,-64.35,-0.00690217,0.0230174,0.00342388,0.0234042,-0.00728898,1.4583,0.018517,0.0110838,1343,372,7.31538,64.35
126,652,7.25061,-64.1051,-0.00711637,0.022655,0.00316268,0.0229873,-0.00744864,1.46612,0.0183196,0.0132394,1350,372,7.25056,64.1051
133,652,7.17566,-63.8432,-0.0071091,0.0231856,0.00357798,0.0236024,-0.00752595,1.45482,0.0187539,0.0135711,1357,372,7.17569,63.8432
140,652,7.12268,-63.6043,-0.00703546,0.0242598,0.00413437,0.0247968,-0.00757243,1.44164,0.0195504,0.010023,1364,372,7.12274,63.6043
147,652,7.08081,-63.3189,-0.00681252,0.0255366,0.00446696,0.0261421,-0.00741801,1.43607,0.0203563,0.00988426,1371,372,7.08081,63.3189
154,652,7.01392,-62.992,-0.00668606,0.0263757,0.00476676,0.0270492,-0.0073596,1.43043,0.020922,0.0104303,1378,372,7.01387,62.992
161,652,6.92883,-62.6376,-0.00665993,0.0267666,0.0051126,0.0275311,-0.00742442,1.42237,0.0212653,0.0125748,1385,372,6.92878,62.6376
168,652,6.86011,-62.2443,-0.00678437,0.0264976,0.00542719,0.0273602,-0.00764701,1.41317,0.0212528,0.0138264,1392,372,6.86005,62.2443
175,652,6.80811,-61.8261,-0.00700986,0.0258318,0.00577689,0.0268183,-0.00799639,1.40166,0.0210567,0.0138448,1399,372,6.80814,61.8261
182,652,6.72729,-61.4551,-0.00727297,0.0249285,0.00615519,0.0260649,-0.00840941,1.38822,0.0207556,0.0197379,1406,372,6.72732,61.4552
189,652,6.69714,-60.9975,-0.00735168,0.0237276,0.00651915,0.0250397,-0.00866373,1.37219,0.0202098,0.0317423,1413,372,6.69712,60.9975
196,652,6.61011,-60.5723,0,0,0,0,0,0,0,-1,1420,372,6.61009,60.5723
203,652,6.55676,-60.0622,0,0,0,0,0,0,0,-1,1427,372,6.55682,60.0622
210,652,6.54553,-59.4629,0,0,0,0,0,0,0,-1,1434,372,6.54551,59.4629
217,652,5.88513,-53.8912,0,0,0,0,0,0,0,-1,1441,372,5.88513,53.8913
224,652,3.63794,-31.2791,0,0,0,0,0,0,0,-1,1448,372,3.63799,31.2791
231,652,3.83936,-30.4812,0,0,0,0,0,0,0,-1,1455,372,3.8393,30.4812
238,652,4.42358,-36.4103,0,0,0,0,0,0,0,-1,1462,372,4.4236,36.4103
245,652,4.53296,-41.8512,0,0,0,0,0,0,0,-1,1469,372,4.5329,41.8512
252,652,5.00793,-47.7065,0,0,0,0,0,0,0,-1,1476,372,5.00791,47.7064
259,652,3.44922,-31.2655,0,0,0,0,0,0,0,-1,1483,372,3.44921,31.2655
266,652,5.5387,-50.3915,0,0,0,0,0,0,0,-1,1490,372,5.53875,50.3915
273,652,5.46423,-54.1099,0,0,0,0,0,0,0,-1,1497,372,5.46423,54.1099
280,652,4.05066,-24.6993,0,0,0,0,0,0,0,-1,1504,372,4.05066,24.6993
287,652,3.0979,-23.6951,0,0,0,0,0,0,0,-1,1511,372,3.09796,23.6951
294,652,2.06946,-24.1711,0,0,0,0,0,0,0,-1,1518,372,2.0694,24.1711
301,652,0.770264,-23.0697,0,0,0,0,0,0,0,-1,1525,372,0.770217,23.0697
308,652,-0.706299,-22.1083,0,0,0,0,0,0,0,-1,1532,372,-0.706291,22.1083
315,652,-1.65198,-21.8662,0,0,0,0,0,0,0,-1,1539,372,-1.65204,21.8662
322,652,-2.66101,-21.728,0,0,0,0,0,0,0,-1,1546,372,-2.66097,21.728
329,652,-7.12329,-21.7065,0,0,0,0,0,0,0,-1,1553,372,-7.12334,21.7065
336,652,-3.56519,-22.3688,0,0,0,0,0,0,0,-1,1560,372,-3.56517,22.3688
343,652,-3.58069,-21.9185,0,0,0,0,0,0,0,-1,1567,372,-3.58069,21.9185
350,652,5.28394,-25.6715,0,0,0,0,0,0,0,-1,1574,372,5.28393,25.6715
357,652,0,0,0,0,0,0,0,0,0,-1,1581,372,0,0
364,652,0,0,0,0,0,0,0,0,0,-1,1588,372,0,0
371,652,0,0,0,0,0,0,0,0,0,-1,1595,372,0,0
378,652,0,0,0,0,0,0,0,0,0,-1,1602,372,0,0
385,652,0,0,0,0,0,0,0,0,0,-1,1609,372,0,0
392,652,0,0,0,0,0,0,0,0,0,-1,1616,372,0,0
399,652,0,0,0,0,0,0,0,0,0,-1,1623,372,0,0
406,652,0,0,0,0,0,0,0,0,0,-1,1630,372,0,0
413,652,0,0,0,0,0,0,0,0,0,-1,1637,372,0,0
420,652,0,0,0,0,0,0,0,0,0,-1,1644,372,0,0
427,652,0,0,0,0,0,0,0,0,0,-1,1651,372,0,0
434,652,0,0,0,0,0,0,0,0,0,-1,1658,372,0,0
441,652,0,0,0,0,0,0,0,0,0,-1,1665,372,0,0
448,652,0,0,0,0,0,0,0,0,0,-1,1672,372,0,0
455,652,0,0,0,0,0,0,0,0,0,-1,1679,372,0,0
462,652,0,0,0,0,0,0,0,0,0,-1,1686,372,0,0
469,652,0,0,0,0,0,0,0,0,0,-1,1693,372,0,0
476,652,0,0,0,0,0,0,0,0,0,-1,1700,372,0,0
483,652,0,0,0,0,0,0,0,0,0,-1,1707,372,0,0
490,652,0,0,0,0,0,0,0,0,0,-1,1714,372,0,0
497,652,0,0,0,0,0,0,0,0,0,-1,1721,372,0,0
504,652,0,0,0,0,0,0,0,0,0,-1,1728,372,0,0
511,652,0,0,0,0,0,0,0,0,0,-1,1735,372,0,0
518,652,0,0,0,0,0,0,0,0,0,-1,1742,372,0,0
525,652,0,0,0,0,0,0,0,0,0,-1,1749,372,0,0
532,652,0,0,0,0,0,0,0,0,0,-1,1756,372,0,0
539,652,0,0,0,0,0,0,0,0,0,-1,1763,372,0,0
546,652,0,0,0,0,0,0,0,0,0,-1,1770,372,0,0
553,652,0,0,0,0,0,0,0,0,0,-1,1777,372,0,0
560,652,0,0,0,0,0,0,0,0,0,-1,1784,372,0,0
567,652,0,0,0,0,0,0,0,0,0,-1,1791,372,0,0
574,652,0,0,0,0,0,0,0,0,0,-1,1798,372,0,0
581,652,0,0,0,0,0,0,0,0,0,-1,1805,372,0,0
588,652,0,0,0,0,0,0,0,0,0,-1,1812,372,0,0
595,652,0,0,0,0,0,0,0,0,0,-1,1819,372,0,0
602,652,0,0,0,0,0,0,0,0,0,-1,1826,372,0,0
609,652,0,0,0,0,0,0,0,0,0,-1,1833,372,0,0
616,652,0,0,0,0,0,0,0,0,0,-1,1840,372,0,0
623,652,0,0,0,0,0,0,0,0,0,-1,1847,372,0,0
630,652,0,0,0,0,0,0,0,0,0,-1,1854,372,0,0
637,652,0,0,0,0,0,0,0,0,0,-1,1861,372,0,0
644,652,0,0,0,0,0,0,0,0,0,-1,1868,372,0,0
651,652,0,0,0,0,0,0,0,0,0,-1,1875,372,0,0
658,652,0,0,0,0,0,0,0,0,0,-1,1882,372,0,0
665,652,0,0,0,0,0,0,0,0,0,-1,1889,372,0,0
672,652,0,0,0,0,0,0,0,0,0,-1,1896,372,0,0
679,652,0,0,0,0,0,0,0,0,0,-1,1903,372,0,0
686,652,0,0,0,0,0,0,0,0,0,-1,1910,372,0,0
693,652,0,0,0,0,0,0,0,0,0,-1,1917,372,0,0
700,652,0,0,0,0,0,0,0,0,0,-1,1924,372,0,0
707,652,0,0,0,0,0,0,0,0,0,-1,1931,372,0,0
714,652,0,0,0,0,0,0,0,0,0,-1,1938,372,0,0
721,652,0,0,0,0,0,0,0,0,0,-1,1945,372,0,0
728,652,0,0,0,0,0,0,0,0,0,-1,1952,372,0,0
735,652,0,0,0,0,0,0,0,0,0,-1,1959,372,0,0
742,652,0,0,0,0,0,0,0,0,0,-1,1966,372,0,0
749,652,0,0,0,0,0,0,0,0,0,-1,1973,372,0,0
756,652,0,0,0,0,0,0,0,0,0,-1,1980,372,0,0
763,652,0,0,0,0,0,0,0,0,0,-1,1987,372,0,0
770,652,0,0,0,0,0,0,0,0,0,-1,1994,372,0,0
777,652,0,0,0,0,0,0,0,0,0,-1,2001,372,0,0
784,652,0,0,0,0,0,0,0,0,0,-1,2008,372,0,0
791,652,0,0,0,0,0,0,0,0,0,-1,2015,372,0,0
798,652,0,0,0,0,0,0,0,0,0,-1,2022,372,0,0
805,652,0,0,0,0,0,0,0,0,0,-1,2029,372,0,0
812,652,0,0,0,0,0,0,0,0,0,-1,2036,372,0,0
-700,645,0,0,0,0,0,0,0,0,0,-1,524,379,0,0
-693,645,0,0,0,0,0,0,0,0,0,-1,531,379,0,0
-686,645,0,0,0,0,0,0,0,0,0,-1,538,379,0,0
-679,645,0,0,0,0,0,0,0,0,0,-1,545,379,0,0
-672,645,0,0,0,0,0,0,0,0,0,-1,552,379,0,0
-665,645,0,0,0,0,0,0,0,0,0,-1,559,379,0,0
-658,645,0,0,0,0,0,0,0,0,0,-1,566,379,0,0
-651,645,0,0,0,0,0,0,0,0,0,-1,573,379,0,0
-644,645,0,0,0,0,0,0,0,0,0,-1,580,379,0,0
-637,645,0,0,0,0,0,0,0,0,0,-1,587,379,0,0
-630,645,0,0,0,0,0,0,0,0,0,-1,594,379,0,0
-623,645,0,0,0,0,0,0,0,0,0,-1,601,379,0,0
-616,645,0,0,0,0,0,0,0,0,0,-1,608,379,0,0
-609,645,0,0,0,0,0,0,0,0,0,-1,615,379,0,0
-602,645,0,0,0,0,0,0,0,0,0,-1,622,379,0,0
-595,645,0,0,0,0,0,0,0,0,0,-1,629,379,0,0
-588,645,0,0,0,0,0,0,0,0,0,-1,636,379,0,0
-581,645,0,0,0,0,0,0,0,0,0,-1,643,379,0,0
-574,645,0,0,0,0,0,0,0,0,0,-1,650,379,0,0
-567,645,0,0,0,0,0,0,0,0,0,-1,657,379,0,0
-560,645,0,0,0,0,0,0,0,0,0,-1,664,379,0,0
-553,645,0,0,0,0,0,0,0,0,0,-1,671,379,0,0
-546,645,0,0,0,0,0,0,0,0,0,-1,678,379,0,0
-539,645,0,0,0,0,0,0,0,0,0,-1,685,379,0,0
-532,645,0,0,0,0,0,0,0,0,0,-1,692,379,0,0
-525,645,0,0,0,0,0,0,0,0,0,-1,699,379,0,0
-518,645,0,0,0,0,0,0,0,0,0,-1,706,379,0,0
-511,645,0,0,0,0,0,0,0,0,0,-1,713,379,0,0
-504,645,0,0,0,0,0,0,0,0,0,-1,720,379,0,0
-497,645,0,0,0,0,0,0,0,0,0,-1,727,379,0,0
-490,645,0,0,0,0,0,0,0,0,0,-1,734,379,0,0
-483,645,0,0,0,0,0,0,0,0,0,-1,741,379,0,0
-476,645,0,0,0,0,0,0,0,0,0,-1,748,379,0,0
-469,645,0,0,0,0,0,0,0,0,0,-1,755,379,0,0
-462,645,0,0,0,0,0,0,0,0,0,-1,762,379,0,0
-455,645,0,0,0,0,0,0,0,0,0,-1,769,379,0,0
-448,645,0,0,0,0,0,0,0,0,0,-1,776,379,0,0
-441,645,0,0,0,0,0,0,0,0,0,-1,783,379,0,0
-434,645,0,0,0,0,0,0,0,0,0,-1,790,379,0,0
-427,645,0,0,0,0,0,0,0,0,0,-1,797,379,0,0
-420,645,0,0,0,0,0,0,0,0,0,-1,804,379,0,0
-413,645,0,0,0,0,0,0,0,0,0,-1,811,379,0,0
-406,645,0,0,0,0,0,0,0,0,0,-1,818,379,0,0
-399,645,0,0,0,0,0,0,0,0,0,-1,825,379,0,0
-392,645,0,0,0,0,0,0,0,0,0,-1,832,379,0,0
-385,645,0,0,0,0,0,0,0,0,0,-1,839,379,0,0
-378,645,0,0,0,0,0,0,0,0,0,-1,846,379,0,0
-371,645,0,0,0,0,0,0,0,0,0,-1,853,379,0,0
-364,645,0,0,0,0,0,0,0,0,0,-1,860,379,0,0
-357,645,0,0,0,0,0,0,0,0,0,-1,867,379,0,0
-350,645,0,0,0,0,0,0,0,0,0,-1,874,379,0,0
-343,645,0,0,0,0,0,0,0,0,0,-1,881,379,0,0
-336,645,0,0,0,0,0,0,0,0,0,-1,888,379,0,0
-329,645,0,0,0,0,0,0,0,0,0,-1,895,379,0,0
-322,645,0,0,0,0,0,0,0,0,0,-1,902,379,0,0
-315,645,0,0,0,0,0,0,0,0,0,-1,909,379,0,0
-308,645,0,0,0,0,0,0,0,0,0,-1,916,379,0,0
-301,645,0,0,0,0,0,0,0,0,0,-1,923,379,0,0
-294,645,0,0,0,0,0,0,0,0,0,-1,930,379,0,0
-287,645,0,0,0,0,0,0,0,0,0,-1,937,379,0,0
-280,645,0,0,0,0,0,0,0,0,0,-1,944,379,0,0
-273,645,0,0,0,0,0,0,0,0,0,-1,951,379,0,0
-266,645,0,0,0,0,0,0,0,0,0,-1,958,379,0,0
-259,645,0,0,0,0,0,0,0,0,0,-1,965,379,0,0
-252,645,2.95691,-26.9133,0,0,0,0,0,0,0,-1,972,379,2.9569,26.9133
-245,645,2.73169,-27.0215,0,0,0,0,0,0,0,-1,979,379,2.73172,27.0215
-238,645,2.6665,-26.9464,0,0,0,0,0,0,0,-1,986,379,2.66649,26.9464
-231,645,7.26807,-29.1054,0,0,0,0,0,0,0,-1,993,379,7.26806,29.1054
-224,645,7.69073,-29.5737,0,0,0,0,0,0,0,-1,1000,379,7.69071,29.5737
-217,645,8.65485,-33.4136,0,0,0,0,0,0,0,-1,1007,379,8.65487,33.4136
-210,645,9.21594,-32.5157,0,0,0,0,0,0,0,-1,1014,379,9.21591,32.5156
-203,645,9.77698,-31.6176,0,0,0,0,0,0,0,-1,1021,379,9.77696,31.6177
-196,645,10.2664,-29.7741,0,0,0,0,0,0,0,-1,1028,379,10.2664,29.7741
-189,645,5.88062,-28.2191,0,0,0,0,0,0,0,-1,1035,379,5.88062,28.2191
-182,645,6.34167,-29.2525,0,0,0,0,0,0,0,-1,1042,379,6.3417,29.2525
-175,645,6.36462,-35.5586,0,0,0,0,0,0,0,-1,1049,379,6.3646,35.5586
-168,645,7.19116,-39.5785,0,0,0,0,0,0,0,-1,1056,379,7.19115,39.5785
-161,645,7.22083,-37.6093,0,0,0,0,0,0,0,-1,1063,379,7.22085,37.6094
-154,645,7.42102,-41.6806,0,0,0,0,0,0,0,-1,1070,379,7.42105,41.6806
-147,645,8.89526,-50.6488,0,0,0,0,0,0,0,-1,1077,379,8.89521,50.6488
-140,645,9.03308,-54.5943,0,0,0,0,0,0,0,-1,1084,379,9.0331,54.5943
-133,645,9.04675,-55.6657,0,0,0,0,0,0,0,-1,1091,379,9.04675,55.6657
-126,645,9.05383,-56.1805,0,0,0,0,0,0,0,-1,1098,379,9.05385,56.1805
-119,645,8.88379,-56.761,0,0,0,0,0,0,0,-1,1105,379,8.88375,56.761
-112,645,8.78796,-57.4308,0,0,0,0,0,0,0,-1,1112,379,8.78797,57.4308
-105,645,8.74036,-58.1679,0,0,0,0,0,0,0,-1,1119,379,8.74037,58.1679
-98,645,8.65698,-58.7325,0,0,0,0,0,0,0,-1,1126,379,8.65702,58.7325
-91,645,8.51465,-59.2864,0,0,0,0,0,0,0,-1,1133,379,8.51459,59.2864
-84,645,8.4762,-59.817,0,0,0,0,0,0,0,-1,1140,379,8.4762,59.817
-77,645,8.53918,-60.2826,-0.00774809,0.00526468,-0.00252852,0.00573873,-0.00822214,-1.38547,0.00810271,0.0454072,1147,379,8.53915,60.2826
-70,645,8.422,-60.7372,-0.00758704,0.00575478,-0.00246103,0.00619427,-0.00802652,-1.39408,0.00823306,0.0163751,1154,379,8.42197,60.7372
-63,645,8.36658,-61.1621,-0.00718192,0.0091406,-0.0042543,0.0101829,-0.0082242,-1.33053,0.0106474,0.0124475,1161,379,8.36658,61.1621
-56,645,8.302,-61.5589,-0.00678681,0.010868,-0.00546758,0.0124241,-0.00834292,-1.29352,0.0120668,0.0145761,1168,379,8.30198,61.5589
-49,645,8.26318,-61.9686,-0.00627331,0.011669,-0.00570567,0.0133297,-0.00793401,-1.28756,0.0124076,0.0123551,1175,379,8.26321,61.9686
-42,645,8.1969,-62.3518,-0.00578332,0.0123009,-0.00583097,0.014018,-0.00750039,-1.28442,0.0126122,0.0116434,1182,379,8.19696,62.3518
-35,645,8.16565,-62.7343,-0.00530396,0.0130011,-0.00609082,0.0148425,-0.00714538,-1.27721,0.0129514,0.0124792,1189,379,8.16562,62.7343
-28,645,8.11597,-63.1018,-0.00484126,0.0136326,-0.00605059,0.0154379,-0.00664655,-1.28084,0.0130829,0.0101541,1196,379,8.11593,63.1018
-21,645,8.05322,-63.4075,-0.0043765,0.0141007,-0.00592099,0.0158353,-0.00611104,-1.28582,0.0130787,0.0109437,1203,379,8.05326,63.4075
-14,645,8.02551,-63.7069,-0.00402928,0.0143457,-0.00565713,0.0159477,-0.00563128,-1.29484,0.0129245,0.01141,1210,379,8.02556,63.7069
-7,645,8.00891,-63.9861,-0.00361093,0.0145154,-0.00539279,0.0159985,-0.00509401,-1.30242,0.0127086,0.0154035,1217,379,8.00896,63.9862
0,645,7.9751,-64.2082,-0.00312748,0.0143924,-0.0050132,0.0157255,-0.00446054,-1.3109,0.0122444,0.0272902,1224,379,7.97506,64.2082
7,645,7.92139,-64.3853,-0.00270642,0.0143024,-0.00453006,0.0154337,-0.0038377,-1.32608,0.0117786,0.0178235,1231,379,7.92141,64.3853
14,645,7.90173,-64.5549,-0.00234456,0.0140961,-0.00386551,0.0149596,-0.00320806,-1.35102,0.0111967,0.0165023,1238,379,7.90173,64.5549
21,645,7.84546,-64.7421,-0.00198986,0.0143814,-0.00300927,0.014917,-0.00252548,-1.39465,0.0108846,0.0112821,1245,379,7.84551,64.7421
28,645,7.83203,-64.8977,-0.00161106,0.0145964,-0.00229838,0.0149161,-0.00193069,-1.43262,0.0106461,0.0102709,1252,379,7.83203,64.8977
35,645,7.79358,-65.0101,-0.00126329,0.0147163,-0.00168866,0.0148928,-0.0014398,-1.46665,0.0104416,0.0103316,1259,379,7.79357,65.0101
42,645,7.76636,-65.101,-0.00110864,0.0146557,-0.000854848,0.0147019,-0.00115486,-1.51678,0.010208,0.0101833,1266,379,7.76641,65.1011
49,645,7.80908,-65.1533,-0.00106634,0.0149718,-0.000217916,0.0149748,-0.0010693,-1.55721,0.010358,0.0137937,1273,379,7.80908,65.1533
56,645,7.80408,-65.193,-0.00110522,0.0152998,0.000110329,0.0153006,-0.00110596,1.56407,0.0105883,0.0135253,1280,379,7.80413,65.193
63,645,7.76123,-65.2298,-0.00117911,0.0155431,0.000393154,0.0155523,-0.00118835,1.5473,0.0107862,0.0126848,1287,379,7.76128,65.2298
70,645,7.7041,-65.2015,-0.00138752,0.0155909,0.000759905,0.0156248,-0.00142147,1.52616,0.0109213,0.0163659,1294,379,7.70407,65.2015
77,645,7.69446,-65.1649,-0.0016758,0.0155508,0.000991477,0.0156077,-0.00173267,1.51349,0.0110281,0.0186219,1301,379,7.69445,65.165
84,645,7.68542,-65.106,-0.00202254,0.0152308,0.00110081,0.0153008,-0.00209249,1.50734,0.0109648,0.0142522,1308,379,7.68538,65.106
91,645,7.61633,-65.0602,-0.00248526,0.0146699,0.00115235,0.014747,-0.00256232,1.50402,0.0107873,0.017506,1315,379,7.61628,65.0602
98,645,7.59387,-64.9348,-0.002964,0.014455,0.00154102,0.0145903,-0.00309927,1.48324,0.0109077,0.0157005,1322,379,7.59386,64.9348
105,645,7.56152,-64.7635,-0.00335687,0.0147323,0.00188266,0.0149262,-0.00355073,1.46819,0.0113215,0.0117049,1329,379,7.56147,64.7636
112,645,7.5094,-64.5896,-0.00360303,0.0149202,0.00205464,0.0151454,-0.0038282,1.46164,0.0115858,0.0101189,1336,379,7.50938,64.5896
119,645,7.49744,-64.3901,-0.00380799,0.0150683,0.00209516,0.0152981,-0.00403775,1.46157,0.0117776,0.00966139,1343,379,7.49745,64.3901
126,645,7.46399,-64.1645,-0.00397326,0.0149313,0.0019937,0.0151393,-0.00418123,1.46686,0.0117375,0.0125116,1350,379,7.46404,64.1645
133,645,7.43677,-63.9264,-0.00405295,0.0153588,0.00231434,0.0156309,-0.00432506,1.45376,0.0121223,0.0137917,1357,379,7.43682,63.9264
140,645,7.40356,-63.6698,-0.00408193,0.0161586,0.00275224,0.0165262,-0.0044495,1.43803,0.0127618,0.013371,1364,379,7.40357,63.6698
147,645,7.34485,-63.3806,-0.0040284,0.0171017,0.00303531,0.017529,-0.00445578,1.43091,0.0134202,0.0142766,1371,379,7.34483,63.3806
154,645,7.31653,-63.0612,-0.00405682,0.0177984,0.00329406,0.0182841,-0.00454252,1.42441,0.0139523,0.0128067,1378,379,7.31654,63.0613
161,645,7.28174,-62.682,-0.00416965,0.018276,0.00360231,0.0188399,-0.00473361,1.4155,0.0143996,0.0164365,1385,379,7.28174,62.682
168,645,7.23096,-62.3018,-0.00440886,0.0183287,0.00391171,0.0189828,-0.005063,1.4051,0.0146377,0.0190908,1392,379,7.23095,62.3018
175,645,7.20447,-61.9177,-0.00471594,0.0181244,0.00424417,0.0188876,-0.00547909,1.39289,0.014761,0.0160264,1399,379,7.20441,61.9177
182,645,7.13672,-61.5029,-0.00505187,0.0177631,0.00459465,0.0186537,-0.00594242,1.37935,0.0148192,0.0117599,1406,379,7.13675,61.5029
189,645,7.08325,-61.03,-0.00523887,0.0171801,0.00495752,0.0182274,-0.0062862,1.3626,0.014702,0.0127092,1413,379,7.08329,61.03
196,645,7.0083,-60.6015,-0.00531684,0.0166004,0.0053821,0.0178508,-0.00656716,1.34253,0.0145908,0.0126174,1420,379,7.00831,60.6015
203,645,6.92053,-60.111,-0.00555936,0.0149198,0.00560351,0.0163528,-0.00699233,1.32044,0.0138347,0.012325,1427,379,6.9205,60.111
210,645,6.89355,-59.5249,-0.00568959,0.0130012,0.00577116,0.0146395,-0.00732794,1.29419,0.012915,0.0222557,1434,379,6.89351,59.5249
217,645,6.87439,-58.9426,0,0,0,0,0,0,0,-1,1441,379,6.87438,58.9426
224,645,6.74976,-58.555,0,0,0,0,0,0,0,-1,1448,379,6.74973,58.555
231,645,6.61987,-57.9534,0,0,0,0,0,0,0,-1,1455,379,6.61983,57.9534
238,645,6.53601,-57.3417,0,0,0,0,0,0,0,-1,1462,379,6.53603,57.3417
245,645,6.56189,-56.5547,0,0,0,0,0,0,0,-1,1469,379,6.56185,56.5547
252,645,6.27942,-52.6305,0,0,0,0,0,0,0,-1,1476,379,6.27947,52.6305
259,645,6.5321,-54.0518,0,0,0,0,0,0,0,-1,1483,379,6.53211,54.0518
266,645,6.06335,-54.6812,0,0,0,0,0,0,0,-1,1490,379,6.06333,54.6812
273,645,6.13574,-54.2405,0,0,0,0,0,0,0,-1,1497,379,6.13572,54.2405
280,645,6.20813,-53.7999,0,0,0,0,0,0,0,-1,1504,379,6.20811,53.7999
287,645,6.39001,-52.382,0,0,0,0,0,0,0,-1,1511,379,6.38998,52.382
294,645,3.76428,-22.9539,0,0,0,0,0,0,0,-1,1518,379,3.7643,22.9539
301,645,2.74219,-23.503,0,0,0,0,0,0,0,-1,1525,379,2.74222,23.503
308,645,1.82227,-23.9479,0,0,0,0,0,0,0,-1,1532,379,1.82227,23.9479
315,645,0.990356,-24.8735,0,0,0,0,0,0,0,-1,1539,379,0.990376,24.8735
322,645,-0.256714,-24.7577,0,0,0,0,0,0,0,-1,1546,379,-0.256653,24.7577
329,645,-4.45581,-22.707,0,0,0,0,0,0,0,-1,1553,379,-4.45579,22.707
336,645,-5.83154,-22.8404,0,0,0,0,0,0,0,-1,1560,379,-5.83149,22.8404
343,645,4.03186,-38.0623,0,0,0,0,0,0,0,-1,1567,379,4.03187,38.0623
350,645,4.76404,-22.1987,0,0,0,0,0,0,0,-1,1574,379,4.76399,22.1987
357,645,4.61316,-21.967,0,0,0,0,0,0,0,-1,1581,379,4.61316,21.967
364,645,-0.0794678,-3.22021,0,0,0,0,0,0,0,-1,1588,379,-0.0794987,3.22021
371,645,0,0,0,0,0,0,0,0,0,-1,1595,379,0,0
378,645,0,0,0,0,0,0,0,0,0,-1,1602,379,0,0
385,645,0,0,0,0,0,0,0,0,0,-1,1609,379,0,0
392,645,0,0,0,0,0,0,0,0,0,-1,1616,379,0,0
399,645,0,0,0,0,0,0,0,0,0,-1,1623,379,0,0
406,645,0,0,0,0,0,0,0,0,0,-1,1630,379,0,0
413,645,0,0,0,0,0,0,0,0,0,-1,1637,379,0,0
420,645,0,0,0,0,0,0,0,0,0,-1,1644,379,0,0
427,645,0,0,0,0,0,0,0,0,0,-1,1651,379,0,0
434,645,0,0,0,0,0,0,0,0,0,-1,1658,379,0,0
441,645,0,0,0,0,0,0,0,0,0,-1,1665,379,0,0
448,645,0,0,0,0,0,0,0,0,0,-1,1672,379,0,0
455,645,0,0,0,0,0,0,0,0,0,-1,1679,379,0,0
462,645,0,0,0,0,0,0,0,0,0,-1,1686,379,0,0
469,645,0,0,0,0,0,0,0,0,0,-1,1693,379,0,0
476,645,0,0,0,0,0,0,0,0,0,-1,1700,379,0,0
483,645,0,0,0,0,0,0,0,0,0,-1,1707,379,0,0
490,645,0,0,0,0,0,0,0,0,0,-1,1714,379,0,0
497,645,0,0,0,0,0,0,0,0,0,-1,1721,379,0,0
504,645,0,0,0,0,0,0,0,0,0,-1,1728,379,0,0
511,645,0,0,0,0,0,0,0,0,0,-1,1735,379,0,0
518,645,0,0,0,0,0,0,0,0,0,-1,1742,379,0,0
525,645,0,0,0,0,0,0,0,0,0,-1,1749,379,0,0
532,645,0,0,0,0,0,0,0,0,0,-1,1756,379,0,0
539,645,0,0,0,0,0,0,0,0,0,-1,1763,379,0,0
546,645,0,0,0,0,0,0,0,0,0,-1,1770,379,0,0
553,645,0,0,0,0,0,0,0,0,0,-1,1777,379,0,0
560,645,0,0,0,0,0,0,0,0,0,-1,1784,379,0,0
567,645,0,0,0,0,0,0,0,0,0,-1,1791,379,0,0
574,645,0,0,0,0,0,0,0,0,0,-1,1798,379,0,0
581,645,0,0,0,0,0,0,0,0,0,-1,1805,379,0,0
588,645,0,0,0,0,0,0,0,0,0,-1,1812,379,0,0
595,645,0,0,0,0,0,0,0,0,0,-1,1819,379,0,0
602,645,0,0,0,0,0,0,0,0,0,-1,1826,379,0,0
609,645,0,0,0,0,0,0,0,0,0,-1,1833,379,0,0
616,645,0,0,0,0,0,0,0,0,0,-1,1840,379,0,0
623,645,0,0,0,0,0,0,0,0,0,-1,1847,379,0,0
630,645,0,0,0,0,0,0,0,0,0,-1,1854,379,0,0
637,645,0,0,0,0,0,0,0,0,0,-1,1861,379,0,0
644,645,0,0,0,0,0,0,0,0,0,-1,1868,379,0,0
651,645,0,0,0,0,0,0,0,0,0,-1,1875,379,0,0
658,645,0,0,0,0,0,0,0,0,0,-1,1882,379,0,0
665,645,0,0,0,0,0,0,0,0,0,-1,1889,379,0,0
672,645,0,0,0,0,0,0,0,0,0,-1,1896,379,0,0
679,645,0,0,0,0,0,0,0,0,0,-1,1903,379,0,0
686,645,0,0,0,0,0,0,0,0,0,-1,1910,379,0,0
693,645,0,0,0,0,0,0,0,0,0,-1,1917,379,0,0
700,645,0,0,0,0,0,0,0,0,0,-1,1924,379,0,0
707,645,0,0,0,0,0,0,0,0,0,-1,1931,379,0,0
714,645,0,0,0,0,0,0,0,0,0,-1,1938,379,0,0
721,645,0,0,0,0,0,0,0,0,0,-1,1945,379,0,0
728,645,0,0,0,0,0,0,0,0,0,-1,1952,379,0,0
735,645,0,0,0,0,0,0,0,0,0,-1,1959,379,0,0
742,645,0,0,0,0,0,0,0,0,0,-1,1966,379,0,0
749,645,0,0,0,0,0,0,0,0,0,-1,1973,379,0,0
756,645,0,0,0,0,0,0,0,0,0,-1,1980,379,0,0
763,645,0,0,0,0,0,0,0,0,0,-1,1987,379,0,0
770,645,0,0,0,0,0,0,0,0,0,-1,1994,379,0,0
777,645,0,0,0,0,0,0,0,0,0,-1,2001,379,0,0
784,645,0,0,0,0,0,0,0,0,0,-1,2008,379,0,0
791,645,0,0,0,0,0,0,0,0,0,-1,2015,379,0,0
798,645,0,0,0,0,0,0,0,0,0,-1,2022,379,0,0
805,645,0,0,0,0,0,0,0,0,0,-1,2029,379,0,0
812,645,0,0,0,0,0,0,0,0,0,-1,2036,379,0,0
-700,638,0,0,0,0,0,0,0,0,0,-1,524,386,0,0
-693,638,0,0,0,0,0,0,0,0,0,-1,531,386,0,0
-686,638,0,0,0,0,0,0,0,0,0,-1,538,386,0,0
-679,638,0,0,0,0,0,0,0,0,0,-1,545,386,0,0
-672,638,0,0,0,0,0,0,0,0,0,-1,552,386,0,0
-665,638,0,0,0,0,0,0,0,0,0,-1,559,386,0,0
-658,638,0,0,0,0,0,0,0,0,0,-1,566,386,0,0
-651,638,0,0,0,0,0,0,0,0,0,-1,573,386,0,0
-644,638,0,0,0,0,0,0,0,0,0,-1,580,386,0,0
-637,638,0,0,0,0,0,0,0,0,0,-1,587,386,0,0
-630,638,0,0,0,0,0,0,0,0,0,-1,594,386,0,0
-623,638,0,0,0,0,0,0,0,0,0,-1,601,386,0,0
-616,638,0,0,0,0,0,0,0,0,0,-1,608,386,0,0
-609,638,0,0,0,0,0,0,0,0,0,-1,615,386,0,0
-602,638,0,0,0,0,0,0,0,0,0,-1,622,386,0,0
-595,638,0,0,0,0,0,0,0,0,0,-1,629,386,0,0
-588,638,0,0,0,0,0,0,0,0,0,-1,636,386,0,0
-581,638,0,0,0,0,0,0,0,0,0,-1,643,386,0,0
-574,638,0,0,0,0,0,0,0,0,0,-1,650,386,0,0
-567,638,0,0,0,0,0,0,0,0,0,-1,657,386,0,0
-560,638,0,0,0,0,0,0,0,0,0,-1,664,386,0,0
-553,638,0,0,0,0,0,0,0,0,0,-1,671,386,0,0
-546,638,0,0,0,0,0,0,0,0,0,-1,678,386,0,0
-539,638,0,0,0,0,0,0,0,0,0,-1,685,386,0,0
-532,638,0,0,0,0,0,0,0,0,0,-1,692,386,0,0
-525,638,0,0,0,0,0,0,0,0,0,-1,699,386,0,0
-518,638,0,0,0,0,0,0,0,0,0,-1,706,386,0,0
-511,638,0,0,0,0,0,0,0,0,0,-1,713,386,0,0
-504,638,0,0,0,0,0,0,0,0,0,-1,720,386,0,0
-497,638,0,0,0,0,0,0,0,0,0,-1,727,386,0,0
-490,638,0,0,0,0,0,0,0,0,0,-1,734,386,0,0
-483,638,0,0,0,0,0,0,0,0,0,-1,741,386,0,0
-476,638,0,0,0,0,0,0,0,0,0,-1,748,386,0,0
-469,638,0,0,0,0,0,0,0,0,0,-1,755,386,0,0
-462,638,0,0,0,0,0,0,0,0,0,-1,762,386,0,0
-455,638,0,0,0,0,0,0,0,0,0,-1,769,386,0,0
-448,638,0,0,0,0,0,0,0,0,0,-1,776,386,0,0
-441,638,0,0,0,0,0,0,0,0,0,-1,783,386,0,0
-434,638,0,0,0,0,0,0,0,0,0,-1,790,386,0,0
-427,638,0,0,0,0,0,0,0,0,0,-1,797,386,0,0
-420,638,0,0,0,0,0,0,0,0,0,-1,804,386,0,0
-413,638,0,0,0,0,0,0,0,0,0,-1,811,386,0,0
-406,638,0,0,0,0,0,0,0,0,0,-1,818,386,0,0
-399,638,0,0,0,0,0,0,0,0,0,-1,825,386,0,0
-392,638,0,0,0,0,0,0,0,0,0,-1,832,386,0,0
-385,638,0,0,0,0,0,0,0,0,0,-1,839,386,0,0
-378,638,0,0,0,0,0,0,0,0,0,-1,846,386,0,0
-371,638,0,0,0,0,0,0,0,0,0,-1,853,386,0,0
-364,638,0,0,0,0,0,0,0,0,0,-1,860,386,0,0
-357,638,0,0,0,0,0,0,0,0,0,-1,867,386,0,0
-350,638,0,0,0,0,0,0,0,0,0,-1,874,386,0,0
-343,638,0,0,0,0,0,0,0,0,0,-1,881,386,0,0
-336,638,0,0,0,0,0,0,0,0,0,-1,888,386,0,0
-329,638,0,0,0,0,0,0,0,0,0,-1,895,386,0,0
-322,638,0,0,0,0,0,0,0,0,0,-1,902,386,0,0
-315,638,0,0,0,0,0,0,0,0,0,-1,909,386,0,0
-308,638,0,0,0,0,0,0,0,0,0,-1,916,386,0,0
-301,638,0,0,0,0,0,0,0,0,0,-1,923,386,0,0
-294,638,0,0,0,0,0,0,0,0,0,-1,930,386,0,0
-287,638,0,0,0,0,0,0,0,0,0,-1,937,386,0,0
-280,638,0,0,0,0,0,0,0,0,0,-1,944,386,0,0
-273,638,0,0,0,0,0,0,0,0,0,-1,951,386,0,0
-266,638,10.1613,-36.3326,0,0,0,0,0,0,0,-1,958,386,10.1612,36.3326
-259,638,9.95282,-34.6103,0,0,0,0,0,0,0,-1,965,386,9.9528,34.6103
-252,638,9.95746,-33.6964,0,0,0,0,0,0,0,-1,972,386,9.95744,33.6965
-245,638,9.84143,-32.9009,0,0,0,0,0,0,0,-1,979,386,9.84145,32.9009
-238,638,2.93518,-26.3649,0,0,0,0,0,0,0,-1,986,386,2.93516,26.3649
-231,638,2.36829,-26.0088,0,0,0,0,0,0,0,-1,993,386,2.3683,26.0088
-224,638,6.3465,-30.9124,0,0,0,0,0,0,0,-1,1000,386,6.34648,30.9124
-217,638,7.41205,-32.7263,0,0,0,0,0,0,0,-1,1007,386,7.41204,32.7262
-210,638,8.7038,-34.5688,0,0,0,0,0,0,0,-1,1014,386,8.70378,34.5689
-203,638,4.32593,-27.5803,0,0,0,0,0,0,0,-1,1021,386,4.32594,27.5803
-196,638,6.0614,-28.4651,0,0,0,0,0,0,0,-1,1028,386,6.06143,28.4651
-189,638,11.4561,-30.1556,0,0,0,0,0,0,0,-1,1035,386,11.456,30.1556
-182,638,6.45471,-33.4271,0,0,0,0,0,0,0,-1,1042,386,6.45473,33.427
-175,638,8.39648,-48.7238,0,0,0,0,0,0,0,-1,1049,386,8.39643,48.7238
-168,638,8.81042,-52.8375,0,0,0,0,0,0,0,-1,1056,386,8.8104,52.8374
-161,638,8.84705,-53.5648,0,0,0,0,0,0,0,-1,1063,386,8.847,53.5648
-154,638,8.71533,-54.0945,0,0,0,0,0,0,0,-1,1070,386,8.71539,54.0945
-147,638,8.7998,-54.1152,0,0,0,0,0,0,0,-1,1077,386,8.79975,54.1152
-140,638,8.62109,-54.8941,-0.00515711,0.0166705,-0.00965453,0.020328,-0.00881454,-1.20867,0.0172576,0.044465,1084,386,8.62105,54.8941
-133,638,8.52002,-55.8588,-0.00532805,0.0151274,-0.0086312,0.0182827,-0.0084833,-1.22032,0.0157948,0.0375527,1091,386,8.52007,55.8588
-126,638,8.43323,-56.4393,-0.00558527,0.0133985,-0.00746182,0.0159803,-0.0081671,-1.23768,0.0141827,0.0279687,1098,386,8.43322,56.4393
-119,638,8.34668,-57.0676,-0.00583279,0.0114404,-0.00634367,0.0135198,-0.00791221,-1.25404,0.0125142,0.0293549,1105,386,8.34666,57.0676
-112,638,8.32178,-57.6483,-0.00590175,0.00987449,-0.00539183,0.0115412,-0.00756843,-1.271,0.0111121,0.0243451,1112,386,8.3218,57.6483
-105,638,8.28564,-58.2242,-0.00578623,0.00859458,-0.0046269,0.00995462,-0.00714627,-1.28491,0.00991748,0.0184497,1119,386,8.28562,58.2242
-98,638,8.20288,-58.7768,-0.00570409,0.00728763,-0.00387282,0.0083545,-0.00677096,-1.30199,0.00874863,0.0168427,1126,386,8.20293,58.7768
-91,638,8.09399,-59.3004,-0.00555697,0.00620254,-0.00324455,0.00703834,-0.00639276,-1.31868,0.00775743,0.0127307,1133,386,8.09398,59.3004
-84,638,8.05774,-59.7939,-0.0052667,0.00448967,-0.00249244,0.00508953,-0.00586656,-1.33462,0.0063308,0.0140174,1140,386,8.05775,59.7939
-77,638,8.01025,-60.2884,-0.00496716,0.00415694,-0.00208712,0.00461169,-0.00542192,-1.35626,0.0057992,0.0133605,1147,386,8.0102,60.2884
-70,638,7.96777,-60.7533,-0.00472352,0.00431285,-0.00194558,0.00471394,-0.00512461,-1.36749,0.00568194,0.0138334,1154,386,7.96774,60.7533
-63,638,7.93811,-61.2163,-0.00434207,0.00551426,-0.00235319,0.00604726,-0.00487507,-1.34805,0.0063181,0.0134078,1161,386,7.93806,61.2163
-56,638,7.92102,-61.6301,-0.00387113,0.00605226,-0.00261314,0.00669832,-0.00451719,-1.32842,0.00651597,0.0162298,1168,386,7.92103,61.6301
-49,638,7.89136,-62.0152,-0.00336362,0.00625543,-0.00253327,0.0068818,-0.00398999,-1.3284,0.00635042,0.0137334,1175,386,7.89137,62.0152
-42,638,7.86353,-62.3855,-0.00285889,0.00639813,-0.0024154,0.00699047,-0.00345123,-1.33031,0.00614287,0.0126375,1182,386,7.86348,62.3855
-35,638,7.83801,-62.7599,-0.00238342,0.00664646,-0.002427,0.00725743,-0.00299439,-1.32418,0.00608708,0.0121648,1189,386,7.83802,62.76
-28,638,7.80334,-63.1149,-0.00193765,0.0067925,-0.00233701,0.00737873,-0.00252389,-1.32502,0.0059419,0.0119104,1196,386,7.80334,63.1149
-21,638,7.75537,-63.4182,-0.00149818,0.00684295,-0.00225543,0.00741376,-0.00206899,-1.32292,0.00575745,0.0125974,1203,386,7.75535,63.4183
-14,638,7.72803,-63.7356,-0.00114973,0.00684662,-0.00213376,0.00738037,-0.00168348,-1.32568,0.00556691,0.0124406,1210,386,7.72801,63.7356
-7,638,7.74609,-64.0523,-0.000776516,0.00672221,-0.0020765,0.00725882,-0.00131313,-1.31791,0.00533111,0.0191534,1217,386,7.74612,64.0523
0,638,7.79517,-64.1964,-0.000380328,0.00640716,-0.00197005,0.00693752,-0.000910687,-1.30782,0.00495654,0.0367111,1224,386,7.79512,64.1964
7,638,7.71143,-64.3951,-5.72186e-05,0.0061949,-0.00182281,0.00668752,-0.000549844,-1.30685,0.00465247,0.0279357,1231,386,7.71148,64.3951
14,638,7.67664,-64.5864,0.000184171,0.00591883,-0.00156016,0.0063158,-0.000212803,-1.32164,0.00428323,0.0142796,1238,386,7.67663,64.5864
21,638,7.68286,-64.767,0.000426199,0.00596276,-0.00118076,0.00620406,0.000184898,-1.36921,0.0040758,0.0119268,1245,386,7.68282,64.767
28,638,7.68555,-64.9322,0.000708743,0.00601092,-0.000855195,0.00614544,0.00057422,-1.41477,0.0039196,0.00972279,1252,386,7.68551,64.9322
35,638,7.6864,-65.025,0.00093834,0.00603558,-0.00060671,0.0061068,0.000867121,-1.45394,0.00381515,0.0113148,1259,386,7.68635,65.025
42,638,7.70435,-65.1219,0.00101856,0.00611882,-0.000265112,0.00613256,0.00100481,-1.519,0.00379801,0.0114929,1266,386,7.70439,65.1219
49,638,7.74243,-65.1907,0.00101677,0.00647085,-1.11937e-05,0.00647087,0.00101675,-1.56874,0.00401811,0.0101015,1273,386,7.74248,65.1907
56,638,7.73474,-65.2324,0.000998974,0.00684166,0.000120726,0.00684415,0.00099648,1.55015,0.00426955,0.0125906,1280,386,7.73477,65.2324
63,638,7.72107,-65.2504,0.000966921,0.00718914,0.000180654,0.00719438,0.000961681,1.5418,0.00451,0.0149256,1287,386,7.72106,65.2504
70,638,7.72034,-65.2325,0.000843326,0.00745624,0.000271679,0.00746738,0.000832184,1.52981,0.00472535,0.0188365,1294,386,7.72029,65.2325
77,638,7.73145,-65.1818,0.000691149,0.0078185,0.000324539,0.00783325,0.000676401,1.52539,0.00501194,0.0181786,1301,386,7.7314,65.1818
84,638,7.74951,-65.1147,0.000525479,0.00790381,0.000285146,0.00791481,0.000514475,1.53223,0.00511368,0.0145444,1308,386,7.74952,65.1147
91,638,7.74084,-65.0139,0.000223727,0.00765682,0.000217561,0.00766318,0.000217364,1.54156,0.00503789,0.0176513,1315,386,7.74084,65.0139
98,638,7.71948,-64.8895,-9.71608e-05,0.00764337,0.00037686,0.00766167,-0.000115465,1.52226,0.0051467,0.0148357,1322,386,7.71948,64.8895
105,638,7.7002,-64.7745,-0.000332769,0.00784002,0.000548707,0.00787669,-0.000369444,1.50406,0.00537851,0.0109852,1329,386,7.70025,64.7745
112,638,7.703,-64.6089,-0.000497065,0.00789309,0.0006927,0.00794989,-0.00055387,1.48897,0.00549387,0.0106936,1336,386,7.70301,64.6089
119,638,7.71069,-64.3998,-0.000641403,0.00795087,0.000773349,0.00801992,-0.000710453,1.48174,0.00559848,0.0130517,1343,386,7.71068,64.3998
126,638,7.69958,-64.1697,-0.000796033,0.00793505,0.000772404,0.00800285,-0.000863838,1.48324,0.00564525,0.0168482,1350,386,7.69962,64.1697
133,638,7.67749,-63.9657,-0.000954642,0.00827436,0.00102732,0.00838734,-0.00106761,1.46127,0.00597929,0.0172509,1357,386,7.67744,63.9657
140,638,7.6532,-63.7278,-0.00107879,0.00888538,0.00138765,0.00907502,-0.00126843,1.43497,0.00651412,0.0188056,1364,386,7.65318,63.7278
147,638,7.63147,-63.414,-0.00116961,0.0095924,0.0016375,0.00983604,-0.00141325,1.42309,0.00707564,0.020087,1371,386,7.63151,63.414
154,638,7.61511,-63.0845,-0.00133224,0.0102156,0.00186538,0.0105094,-0.00162609,1.41455,0.00760648,0.0163904,1378,386,7.6151,63.0845
161,638,7.62891,-62.671,-0.00157005,0.0108126,0.00214032,0.0111721,-0.00192956,1.40438,0.0081676,0.0198791,1385,386,7.62896,62.671
168,638,7.62561,-62.2668,-0.00191186,0.011183,0.00244843,0.0116258,-0.00235468,1.39187,0.00864304,0.0261633,1392,386,7.62556,62.2668
175,638,7.60229,-61.9662,-0.00229306,0.0114013,0.00276443,0.0119383,-0.00283005,1.37894,0.00905089,0.0208196,1399,386,7.60228,61.9662
182,638,7.51624,-61.5288,-0.00270681,0.0115189,0.00308248,0.0121581,-0.00334601,1.36633,0.00942092,0.0135508,1406,386,7.51621,61.5288
189,638,7.47778,-61.063,-0.00301764,0.0115041,0.00343733,0.0122766,-0.00379017,1.34972,0.00969791,0.0127788,1413,386,7.47779,61.0631
196,638,7.42285,-60.6068,-0.00321566,0.0114888,0.00384907,0.0124354,-0.00416226,1.32965,0.00997161,0.0153145,1420,386,7.4229,60.6068
203,638,7.35706,-60.1634,-0.0035239,0.01077,0.00412263,0.0118738,-0.00462771,1.30919,0.00982854,0.0222676,1427,386,7.35705,60.1634
210,638,7.32153,-59.7175,-0.00374627,0.00988392,0.00434292,0.0111501,-0.00501241,1.28712,0.00955306,0.0183176,1434,386,7.32156,59.7175
217,638,7.29846,-59.1717,-0.0038108,0.00976708,0.00442327,0.0110809,-0.00512463,1.28207,0.00956462,0.0144277,1441,386,7.29843,59.1717
224,638,7.24255,-58.5861,-0.00365857,0.0102355,0.00452511,0.0115793,-0.00500236,1.28213,0.00982122,0.0122057,1448,386,7.2426,58.5861
231,638,7.13318,-58.0117,-0.0032594,0.010651,0.00481626,0.0121558,-0.00476417,1.26797,0.0100747,0.0129578,1455,386,7.13318,58.0117
238,638,7.0675,-57.4335,-0.00270486,0.0121453,0.00572759,0.0140977,-0.00465726,1.24227,0.0112761,0.0164184,1462,386,7.0675,57.4335
245,638,7.05994,-56.7816,-0.0024521,0.0133694,0.00633585,0.0155939,-0.00467658,1.23315,0.0122559,0.0320961,1469,386,7.05999,56.7816
252,638,6.93274,-56.3081,0,0,0,0,0,0,0,-1,1476,386,6.93277,56.3081
259,638,6.85059,-55.6633,0,0,0,0,0,0,0,-1,1483,386,6.85054,55.6633
266,638,6.76709,-55.0024,-6.62823e-05,0.0196115,0.00996498,0.0237763,-0.00423113,1.17491,0.0174333,0.0237776,1490,386,6.76709,55.0024
273,638,6.74731,-54.3673,0.000694953,0.0223478,0.011616,0.0274004,-0.00435765,1.16051,0.0198793,0.0140432,1497,386,6.74735,54.3673
280,638,6.79089,-53.6528,0.00164144,0.0252637,0.0134411,0.0313458,-0.00444063,1.14587,0.0225238,0.0233495,1504,386,6.79094,53.6528
287,638,6.85754,-52.6346,0.00269879,0.0287629,0.0156078,0.036064,-0.00460231,1.13325,0.0257144,0.0482218,1511,386,6.85758,52.6347
294,638,6.78882,-51.8018,0,0,0,0,0,0,0,-1,1518,386,6.78883,51.8018
301,638,6.29126,-51.244,0,0,0,0,0,0,0,-1,1525,386,6.29127,51.2439
308,638,6.56628,-49.9857,0,0,0,0,0,0,0,-1,1532,386,6.56625,49.9857
315,638,3.3927,-28.2032,0,0,0,0,0,0,0,-1,1539,386,3.39269,28.2032
322,638,6.1698,-44.6835,0,0,0,0,0,0,0,-1,1546,386,6.16984,44.6835
329,638,6.06885,-44.2856,0,0,0,0,0,0,0,-1,1553,386,6.06881,44.2855
336,638,5.15234,-38.1966,0,0,0,0,0,0,0,-1,1560,386,5.15238,38.1966
343,638,4.8208,-37.2159,0,0,0,0,0,0,0,-1,1567,386,4.82078,37.2159
350,638,4.35254,-37.1565,0,0,0,0,0,0,0,-1,1574,386,4.35259,37.1565
357,638,0.387329,-3.01077,0,0,0,0,0,0,0,-1,1581,386,0.387332,3.01077
364,638,3.78149,-6.45215,0,0,0,0,0,0,0,-1,1588,386,3.78155,6.45216
371,638,4.18604,-6.71164,0,0,0,0,0,0,0,-1,1595,386,4.18598,6.71164
378,638,4.59045,-6.97113,0,0,0,0,0,0,0,-1,1602,386,4.5904,6.97112
385,638,0,0,0,0,0,0,0,0,0,-1,1609,386,0,0
392,638,0,0,0,0,0,0,0,0,0,-1,1616,386,0,0
399,638,0,0,0,0,0,0,0,0,0,-1,1623,386,0,0
406,638,0,0,0,0,0,0,0,0,0,-1,1630,386,0,0
413,638,0,0,0,0,0,0,0,0,0,-1,1637,386,0,0
420,638,0,0,0,0,0,0,0,0,0,-1,1644,386,0,0
427,638,0,0,0,0,0,0,0,0,0,-1,1651,386,0,0
434,638,0,0,0,0,0,0,0,0,0,-1,1658,386,0,0
441,638,0,0,0,0,0,0,0,0,0,-1,1665,386,0,0
448,638,0,0,0,0,0,0,0,0,0,-1,1672,386,0,0
455,638,0,0,0,0,0,0,0,0,0,-1,1679,386,0,0
462,638,0,0,0,0,0,0,0,0,0,-1,1686,386,0,0
469,638,0,0,0,0,0,0,0,0,0,-1,1693,386,0,0
476,638,0,0,0,0,0,0,0,0,0,-1,1700,386,0,0
483,638,0,0,0,0,0,0,0,0,0,-1,1707,386,0,0
490,638,0,0,0,0,0,0,0,0,0,-1,1714,386,0,0
497,638,0,0,0,0,0,0,0,0,0,-1,1721,386,0,0
504,638,0,0,0,0,0,0,0,0,0,-1,1728,386,0,0
511,638,0,0,0,0,0,0,0,0,0,-1,1735,386,0,0
518,638,0,0,0,0,0,0,0,0,0,-1,1742,386,0,0
525,638,0,0,0,0,0,0,0,0,0,-1,1749,386,0,0
532,638,0,0,0,0,0,0,0,0,0,-1,1756,386,0,0
539,638,0,0,0,0,0,0,0,0,0,-1,1763,386,0,0
546,638,0,0,0,0,0,0,0,0,0,-1,1770,386,0,0
553,638,0,0,0,0,0,0,0,0,0,-1,1777,386,0,0
560,638,0,0,0,0,0,0,0,0,0,-1,1784,386,0,0
567,638,0,0,0,0,0,0,0,0,0,-1,1791,386,0,0
574,638,0,0,0,0,0,0,0,0,0,-1,1798,386,0,0
581,638,0,0,0,0,0,0,0,0,0,-1,1805,386,0,0
588,638,0,0,0,0,0,0,0,0,0,-1,1812,386,0,0
595,638,0,0,0,0,0,0,0,0,0,-1,1819,386,0,0
602,638,0,0,0,0,0,0,0,0,0,-1,1826,386,0,0
609,638,0,0,0,0,0,0,0,0,0,-1,1833,386,0,0
616,638,0,0,0,0,0,0,0,0,0,-1,1840,386,0,0
623,638,0,0,0,0,0,0,0,0,0,-1,1847,386,0,0
630,638,0,0,0,0,0,0,0,0,0,-1,1854,386,0,0
637,638,0,0,0,0,0,0,0,0,0,-1,1861,386,0,0
644,638,0,0,0,0,0,0,0,0,0,-1,1868,386,0,0
651,638,0,0,0,0,0,0,0,0,0,-1,1875,386,0,0
658,638,0,0,0,0,0,0,0,0,0,-1,1882,386,0,0
665,638,0,0,0,0,0,0,0,0,0,-1,1889,386,0,0
672,638,0,0,0,0,0,0,0,0,0,-1,1896,386,0,0
679,638,0,0,0,0,0,0,0,0,0,-1,1903,386,0,0
686,638,0,0,0,0,0,0,0,0,0,-1,1910,386,0,0
693,638,0,0,0,0,0,0,0,0,0,-1,1917,386,0,0
700,638,0,0,0,0,0,0,0,0,0,-1,1924,386,0,0
707,638,0,0,0,0,0,0,0,0,0,-1,1931,386,0,0
714,638,0,0,0,0,0,0,0,0,0,-1,1938,386,0,0
721,638,0,0,0,0,0,0,0,0,0,-1,1945,386,0,0
728,638,0,0,0,0,0,0,0,0,0,-1,1952,386,0,0
735,638,0,0,0,0,0,0,0,0,0,-1,1959,386,0,0
742,638,0,0,0,0,0,0,0,0,0,-1,1966,386,0,0
749,638,0,0,0,0,0,0,0,0,0,-1,1973,386,0,0
756,638,0,0,0,0,0,0,0,0,0,-1,1980,386,0,0
763,638,0,0,0,0,0,0,0,0,0,-1,1987,386,0,0
770,638,0,0,0,0,0,0,0,0,0,-1,1994,386,0,0
777,638,0,0,0,0,0,0,0,0,0,-1,2001,386,0,0
784,638,0,0,0,0,0,0,0,0,0,-1,2008,386,0,0
791,638,0,0,0,0,0,0,0,0,0,-1,2015,386,0,0
798,638,0,0,0,0,0,0,0,0,0,-1,2022,386,0,0
805,638,0,0,0,0,0,0,0,0,0,-1,2029,386,0,0
812,638,0,0,0,0,0,0,0,0,0,-1,2036,386,0,0
-700,631,0,0,0,0,0,0,0,0,0,-1,524,393,0,0
-693,631,0,0,0,0,0,0,0,0,0,-1,531,393,0,0
-686,631,0,0,0,0,0,0,0,0,0,-1,538,393,0,0
-679,631,0,0,0,0,0,0,0,0,0,-1,545,393,0,0
-672,631,0,0,0,0,0,0,0,0,0,-1,552,393,0,0
-665,631,0,0,0,0,0,0,0,0,0,-1,559,393,0,0
-658,631,0,0,0,0,0,0,0,0,0,-1,566,393,0,0
-651,631,0,0,0,0,0,0,0,0,0,-1,573,393,0,0
-644,631,0,0,0,0,0,0,0,0,0,-1,580,393,0,0
-637,631,0,0,0,0,0,0,0,0,0,-1,587,393,0,0
-630,631,0,0,0,0,0,0,0,0,0,-1,594,393,0,0
-623,631,0,0,0,0,0,0,0,0,0,-1,601,393,0,0
-616,631,0,0,0,0,0,0,0,0,0,-1,608,393,0,0
-609,631,0,0,0,0,0,0,0,0,0,-1,615,393,0,0
-602,631,0,0,0,0,0,0,0,0,0,-1,622,393,0,0
-595,631,0,0,0,0,0,0,0,0,0,-1,629,393,0,0
-588,631,0,0,0,0,0,0,0,0,0,-1,636,393,0,0
-581,631,0,0,0,0,0,0,0,0,0,-1,643,393,0,0
-574,631,0,0,0,0,0,0,0,0,0,-1,650,393,0,0
-567,631,0,0,0,0,0,0,0,0,0,-1,657,393,0,0
-560,631,0,0,0,0,0,0,0,0,0,-1,664,393,0,0
-553,631,0,0,0,0,0,0,0,0,0,-1,671,393,0,0
-546,631,0,0,0,0,0,0,0,0,0,-1,678,393,0,0
-539,631,0,0,0,0,0,0,0,0,0,-1,685,393,0,0
-532,631,0,0,0,0,0,0,0,0,0,-1,692,393,0,0
-525,631,0,0,0,0,0,0,0,0,0,-1,699,393,0,0
-518,631,0,0,0,0,0,0,0,0,0,-1,706,393,0,0
-511,631,0,0,0,0,0,0,0,0,0,-1,713,393,0,0
-504,631,0,0,0,0,0,0,0,0,0,-1,720,393,0,0
-497,631,0,0,0,0,0,0,0,0,0,-1,727,393,0,0
-490,631,0,0,0,0,0,0,0,0,0,-1,734,393,0,0
-483,631,0,0,0,0,0,0,0,0,0,-1,741,393,0,0
-476,631,0,0,0,0,0,0,0,0,0,-1,748,393,0,0
-469,631,0,0,0,0,0,0,0,0,0,-1,755,393,0,0
-462,631,0,0,0,0,0,0,0,0,0,-1,762,393,0,0
-455,631,0,0,0,0,0,0,0,0,0,-1,769,393,0,0
-448,631,0,0,0,0,0,0,0,0,0,-1,776,393,0,0
-441,631,0,0,0,0,0,0,0,0,0,-1,783,393,0,0
-434,631,0,0,0,0,0,0,0,0,0,-1,790,393,0,0
-427,631,0,0,0,0,0,0,0,0,0,-1,797,393,0,0
-420,631,0,0,0,0,0,0,0,0,0,-1,804,393,0,0
-413,631,0,0,0,0,0,0,0,0,0,-1,811,393,0,0
-406,631,0,0,0,0,0,0,0,0,0,-1,818,393,0,0
-399,631,0,0,0,0,0,0,0,0,0,-1,825,393,0,0
-392,631,0,0,0,0,0,0,0,0,0,-1,832,393,0,0
-385,631,0,0,0,0,0,0,0,0,0,-1,839,393,0,0
-378,631,0,0,0,0,0,0,0,0,0,-1,846,393,0,0
-371,631,0,0,0,0,0,0,0,0,0,-1,853,393,0,0
-364,631,0,0,0,0,0,0,0,0,0,-1,860,393,0,0
-357,631,0,0,0,0,0,0,0,0,0,-1,867,393,0,0
-350,631,0,0,0,0,0,0,0,0,0,-1,874,393,0,0
-343,631,0,0,0,0,0,0,0,0,0,-1,881,393,0,0
-336,631,0,0,0,0,0,0,0,0,0,-1,888,393,0,0
-329,631,0,0,0,0,0,0,0,0,0,-1,895,393,0,0
-322,631,0,0,0,0,0,0,0,0,0,-1,902,393,0,0
-315,631,0,0,0,0,0,0,0,0,0,-1,909,393,0,0
-308,631,0,0,0,0,0,0,0,0,0,-1,916,393,0,0
-301,631,0,0,0,0,0,0,0,0,0,-1,923,393,0,0
-294,631,0,0,0,0,0,0,0,0,0,-1,930,393,0,0
-287,631,0,0,0,0,0,0,0,0,0,-1,937,393,0,0
-280,631,7.71283,-34.969,0,0,0,0,0,0,0,-1,944,393,7.71282,34.969
-273,631,8.04437,-34.934,0,0,0,0,0,0,0,-1,951,393,8.04436,34.9339
-266,631,8.40277,-34.7584,0,0,0,0,0,0,0,-1,958,393,8.40275,34.7584
-259,631,8.56659,-34.037,0,0,0,0,0,0,0,-1,965,393,8.56662,34.037
-252,631,8.44446,-33.2643,0,0,0,0,0,0,0,-1,972,393,8.44445,33.2644
-245,631,8.34705,-32.527,0,0,0,0,0,0,0,-1,979,393,8.34704,32.527
-238,631,8.41888,-31.8855,0,0,0,0,0,0,0,-1,986,393,8.41887,31.8855
-231,631,2.14966,-25.2306,0,0,0,0,0,0,0,-1,993,393,2.14968,25.2306
-224,631,6.83575,-19.7909,0,0,0,0,0,0,0,-1,1000,393,6.83575,19.7909
-217,631,5.05188,-18.3867,0,0,0,0,0,0,0,-1,1007,393,5.0519,18.3866
-210,631,3.37842,-26.3769,0,0,0,0,0,0,0,-1,1014,393,3.37839,26.3769
-203,631,8.59509,-47.1953,0,0,0,0,0,0,0,-1,1021,393,8.5951,47.1954
-196,631,8.51001,-47.9163,0,0,0,0,0,0,0,-1,1028,393,8.50997,47.9163
-189,631,6.57983,-42.4494,0,0,0,0,0,0,0,-1,1035,393,6.57983,42.4494
-182,631,8.0531,-47.8031,0,0,0,0,0,0,0,-1,1042,393,8.05311,47.8031
-175,631,8.08411,-51.3992,0,0,0,0,0,0,0,-1,1049,393,8.08414,51.3992
-168,631,8.26294,-52.5704,-0.00295118,0.0177101,-0.0113396,0.0227193,-0.00796031,-1.15483,0.0183834,0.0440934,1056,393,8.26295,52.5704
-161,631,8.2218,-53.3688,-0.00324706,0.0165139,-0.0102947,0.0209024,-0.00763559,-1.16783,0.0170596,0.0234342,1063,393,8.22186,53.3688
-154,631,8.13452,-54.0701,-0.00350111,0.0152524,-0.00927861,0.0190672,-0.00731586,-1.18073,0.0157279,0.0203044,1070,393,8.1345,54.0701
-147,631,8.08862,-54.6871,-0.00375568,0.0140174,-0.00831529,0.0173011,-0.00703937,-1.1947,0.0144633,0.0169374,1077,393,8.08866,54.6871
-140,631,8.03967,-55.3255,-0.00383385,0.0127333,-0.0074753,0.0156076,-0.00670813,-1.20372,0.0132211,0.011852,1084,393,8.03965,55.3255
-133,631,7.95581,-55.9463,-0.00383043,0.011511,-0.0066507,0.0139927,-0.00631214,-1.21365,0.0119993,0.00846903,1091,393,7.95579,55.9463
-126,631,7.90662,-56.5478,-0.00388133,0.0101958,-0.00574926,0.0122454,-0.00593097,-1.22834,0.0107032,0.0129252,1098,393,7.90659,56.5478
-119,631,7.84827,-57.1185,-0.00391637,0.00866513,-0.00485078,0.0103182,-0.00556939,-1.24236,0.00930826,0.0169942,1105,393,7.84825,57.1185
-112,631,7.78918,-57.6853,-0.00380418,0.00744009,-0.0041049,0.00877918,-0.00514327,-1.25546,0.00812898,0.0154474,1112,393,7.78917,57.6853
-105,631,7.79028,-58.2483,-0.00356235,0.0064362,-0.00352284,0.00755274,-0.00467888,-1.26387,0.00712661,0.0188131,1119,393,7.79031,58.2483
-98,631,7.72046,-58.7952,-0.00332758,0.00544135,-0.0029658,0.00635023,-0.00423646,-1.27343,0.0061527,0.017251,1126,393,7.72045,58.7952
-91,631,7.66516,-59.3069,-0.00304321,0.00461173,-0.0024896,0.00535018,-0.00378166,-1.28245,0.00529813,0.0187281,1133,393,7.66519,59.3069
-84,631,7.63623,-59.8058,-0.00265297,0.00336712,-0.0019141,0.00392417,-0.00321002,-1.2876,0.0041258,0.017738,1140,393,7.63623,59.8058
-77,631,7.55945,-60.2906,-0.00225794,0.0030112,-0.00156468,0.00344081,-0.00268754,-1.30283,0.0035471,0.013173,1147,393,7.55948,60.2905
-70,631,7.54126,-60.7472,-0.00189328,0.00289441,-0.00135944,0.00325349,-0.00225236,-1.31256,0.00319627,0.0151619,1154,393,7.54123,60.7472
-63,631,7.53394,-61.225,-0.00140141,0.00296598,-0.00123629,0.00329165,-0.00172709,-1.31322,0.00294413,0.0155549,1161,393,7.53392,61.225
-56,631,7.50085,-61.6837,-0.000880457,0.00276855,-0.00108799,0.00306832,-0.00118023,-1.30194,0.00253236,0.0158176,1168,393,7.50085,61.6836
-49,631,7.49695,-62.0361,-0.000370483,0.0025105,-0.00086503,0.00275028,-0.000610256,-1.3004,0.00206718,0.0116001,1175,393,7.49689,62.0361
-42,631,7.5083,-62.4047,0.000162264,0.00225182,-0.000638644,0.00243155,-1.74688e-05,-1.29646,0.00162689,0.0099148,1182,393,7.50834,62.4047
-35,631,7.50525,-62.751,0.000642934,0.00206165,-0.000470216,0.00220334,0.000501238,-1.27811,0.00133359,0.0111038,1189,393,7.50529,62.751
-28,631,7.49707,-63.0928,0.00107163,0.00164308,-0.000349718,0.00180895,0.000905758,-1.12791,0.0010444,0.0143295,1196,393,7.49704,63.0928
-21,631,7.46008,-63.4079,0.00148097,0.0011584,-0.000296475,0.00165719,0.000982181,-0.536282,0.000962244,0.0123683,1203,393,7.46012,63.4079
-14,631,7.42627,-63.725,0.00182525,0.000812473,-0.00026412,0.00188999,0.000747732,-0.240381,0.00109908,0.0146116,1210,393,7.4263,63.725
-7,631,7.45483,-64.0826,0.00213032,0.000188469,-0.000290325,0.0021728,0.000145992,-0.145278,0.00140241,0.0241171,1217,393,7.45484,64.0826
0,631,7.48206,-64.3143,0.00241904,-0.000551982,-0.000286071,0.00244634,-0.000579276,-0.0951226,0.00185439,0.0286941,1224,393,7.4821,64.3143
7,631,7.48389,-64.4427,0.00263991,-0.00110048,-0.000294288,0.00266292,-0.00112349,-0.0780385,0.00224551,0.0219396,1231,393,7.48389,64.4427
14,631,7.51697,-64.6467,0.00276833,-0.00165398,-0.00023595,0.00278088,-0.00166653,-0.0531535,0.00259444,0.0119243,1238,393,7.51694,64.6467
21,631,7.55103,-64.8066,0.00292011,-0.00199344,-0.000133802,0.00292375,-0.00199708,-0.0272044,0.00285778,0.0145112,1245,393,7.55106,64.8066
28,631,7.5437,-64.918,0.00312443,-0.0022291,-2.4191e-05,0.00312454,-0.00222921,-0.00451859,0.00310536,0.0162788,1252,393,7.54369,64.918
35,631,7.61353,-65.007,0.00326016,-0.0023819,4.99955e-06,0.00326017,-0.0023819,0.000886121,0.00327058,0.0153899,1259,393,7.61349,65.007
42,631,7.66711,-65.0973,0.00329902,-0.00226204,7.35382e-05,0.00329999,-0.00226301,0.0132207,0.00323035,0.013878,1266,393,7.66715,65.0973
49,631,7.68213,-65.1953,0.00330966,-0.00185511,9.50422e-05,0.00331141,-0.00185686,0.0183937,0.00302304,0.0124206,1273,393,7.68208,65.1953
56,631,7.71216,-65.2776,0.0033358,-0.00136431,6.04176e-05,0.00333658,-0.00136508,0.0128517,0.00279292,0.0144364,1280,393,7.7122,65.2776
63,631,7.70178,-65.3123,0.00335099,-0.000833002,-7.43546e-05,0.00335231,-0.000834323,-0.0177637,0.00255873,0.0166689,1287,393,7.70181,65.3122
70,631,7.71021,-65.2612,0.00330692,-0.000278077,-0.000224198,0.00332089,-0.000292043,-0.0622147,0.00231741,0.0169659,1294,393,7.7102,65.2612
77,631,7.74927,-65.1911,0.00328499,0.000577812,-0.000344314,0.0033281,0.000534706,-0.124544,0.00206372,0.0171021,1301,393,7.74929,65.1911
84,631,7.80933,-65.1345,0.00328703,0.0011057,-0.00053027,0.0034091,0.000983627,-0.226269,0.00202608,0.014969,1308,393,7.80927,65.1345
91,631,7.82471,-65.0353,0.00311249,0.00113572,-0.000733032,0.00335465,0.000893557,-0.319067,0.00200605,0.0186062,1315,393,7.82467,65.0353
98,631,7.85901,-64.9193,0.00291921,0.00137055,-0.000790942,0.00325176,0.00103801,-0.398005,0.00191788,0.0152865,1322,393,7.85896,64.9193
105,631,7.8468,-64.7955,0.0028085,0.00156035,-0.000793755,0.00319414,0.00117472,-0.452253,0.00186551,0.0121158,1329,393,7.84676,64.7955
112,631,7.88281,-64.6353,0.00268782,0.00146559,-0.000696962,0.00300365,0.00114977,-0.425466,0.00174997,0.0129158,1336,393,7.88277,64.6354
119,631,7.89319,-64.4399,0.0025673,0.00141442,-0.000595276,0.0028195,0.00116223,-0.400736,0.00163618,0.0138133,1343,393,7.89317,64.4399
126,631,7.88184,-64.1843,0.00240047,0.00143705,-0.00053374,0.00263773,0.00119979,-0.418297,0.00152496,0.0184196,1350,393,7.88187,64.1843
133,631,7.89661,-63.9597,0.00217309,0.00170037,-0.000321123,0.00233546,0.001538,-0.468141,0.00137079,0.0197616,1357,393,7.89666,63.9598
140,631,7.9104,-63.7323,0.0019631,0.00219142,-5.11688e-06,0.00219153,0.00196299,-1.5484,0.00139111,0.0215885,1364,393,7.91042,63.7323
147,631,7.90942,-63.4147,0.00174916,0.0027428,0.000225638,0.00279163,0.00170032,1.35764,0.00162448,0.02434,1371,393,7.90946,63.4147
154,631,7.95056,-63.0779,0.00146972,0.00335211,0.000431034,0.00344611,0.00137571,1.35607,0.00200305,0.0217059,1378,393,7.95059,63.0779
161,631,7.98621,-62.6578,0.00111927,0.00410251,0.000676554,0.00424878,0.000973011,1.35789,0.00257032,0.0239172,1385,393,7.98618,62.6578
168,631,7.98376,-62.2609,0.000685373,0.00479778,0.000988608,0.00502309,0.000460059,1.34671,0.00320639,0.0303667,1392,393,7.9838,62.2609
175,631,7.93677,-61.9868,0.000235334,0.0054167,0.00129144,0.00572074,-6.87104e-05,1.33958,0.00383694,0.0229786,1399,393,7.93681,61.9868
182,631,7.88855,-61.5695,-0.000260698,0.00596328,0.00157554,0.00633939,-0.000636803,1.33647,0.00445373,0.011752,1406,393,7.88852,61.5695
189,631,7.85779,-61.0909,-0.000705549,0.0064667,0.00191894,0.00694784,-0.00118669,1.32513,0.00507393,0.0116198,1413,393,7.85782,61.0909
196,631,7.82434,-60.6327,-0.00102152,0.00697286,0.00232218,0.00759845,-0.00164711,1.30765,0.00569463,0.0128988,1420,393,7.82432,60.6327
203,631,7.83752,-60.1768,-0.00139235,0.00703515,0.00263823,0.00779291,-0.00215011,1.2911,0.0060409,0.0153481,1427,393,7.83751,60.1769
210,631,7.81287,-59.7058,-0.00173238,0.00692723,0.00290773,0.00781298,-0.00261813,1.2751,0.00626641,0.0167048,1434,393,7.81289,59.7059
217,631,7.77844,-59.2081,-0.00192174,0.00714361,0.00307184,0.00808646,-0.00286459,1.27299,0.00655781,0.0182278,1441,393,7.77846,59.2081
224,631,7.73877,-58.6431,-0.00193115,0.00762891,0.00324555,0.00862661,-0.00292886,1.27256,0.00693663,0.0149194,1448,393,7.73871,58.6431
231,631,7.67175,-58.0731,-0.00177067,0.0080557,0.00355215,0.00920528,-0.00292025,1.2578,0.00730743,0.0122517,1455,393,7.67175,58.0731
238,631,7.62866,-57.4751,-0.00150008,0.00921022,0.00426083,0.0106985,-0.00298834,1.23475,0.00830952,0.0181213,1462,393,7.62863,57.4751
245,631,7.60754,-56.9192,-0.00143549,0.0101845,0.00476388,0.0118879,-0.00313886,1.2274,0.00915273,0.0196587,1469,393,7.60754,56.9192
252,631,7.52356,-56.3382,-0.00112167,0.0115129,0.00546694,0.01355,-0.00315875,1.21411,0.0102498,0.0194154,1476,393,7.52354,56.3382
259,631,7.45764,-55.7182,-0.000523465,0.0135463,0.00659942,0.0161573,-0.0031344,1.19406,0.0119541,0.013873,1483,393,7.45766,55.7182
266,631,7.41846,-55.0961,-0.000173378,0.0151932,0.0076582,0.018358,-0.00333818,1.17891,0.0134898,0.0117166,1490,393,7.41849,55.0961
273,631,7.38293,-54.4294,0.000216115,0.0173206,0.00893014,0.0211331,-0.00359645,1.16729,0.0154279,0.0143043,1497,393,7.38289,54.4294
280,631,7.35901,-53.7101,0.000747134,0.0195421,0.0103339,0.0241125,-0.00382324,1.15439,0.0174893,0.0140486,1504,393,7.35903,53.7101
287,631,7.2688,-53.0254,0.00139249,0.0222067,0.0119993,0.0276832,-0.00408408,1.14263,0.0199566,0.0166834,1511,393,7.26875,53.0254
294,631,7.16528,-52.2339,0.0018898,0.0247873,0.0135617,0.0310866,-0.00440953,1.13596,0.0223398,0.0221043,1518,393,7.16524,52.2339
301,631,7.01343,-51.3896,0.00246423,0.0272708,0.0150947,0.0344044,-0.00466944,1.12931,0.0246407,0.0354904,1525,393,7.0134,51.3897
308,631,7.19885,-50.3604,0.00332441,0.0301474,0.0166513,0.0381166,-0.00464478,1.12442,0.0270924,0.0480977,1532,393,7.19888,50.3604
315,631,7.18457,-50.0136,0,0,0,0,0,0,0,-1,1539,393,7.18457,50.0136
322,631,7.12378,-49.4205,0,0,0,0,0,0,0,-1,1546,393,7.1238,49.4205
329,631,5.70972,-38.2651,0,0,0,0,0,0,0,-1,1553,393,5.70967,38.2651
336,631,5.38281,-39.6306,0,0,0,0,0,0,0,-1,1560,393,5.38277,39.6306
343,631,6.21558,-38.7278,0,0,0,0,0,0,0,-1,1567,393,6.21558,38.7278
350,631,5.18359,-35.9677,0,0,0,0,0,0,0,-1,1574,393,5.18355,35.9677
357,631,2.6449,-9.60303,0,0,0,0,0,0,0,-1,1581,393,2.64491,9.60304
364,631,3.39136,-5.7594,0,0,0,0,0,0,0,-1,1588,393,3.39137,5.75939
371,631,3.72839,-6.0574,0,0,0,0,0,0,0,-1,1595,393,3.72845,6.05742
378,631,4.06555,-6.35544,0,0,0,0,0,0,0,-1,1602,393,4.06553,6.35544
385,631,3.90442,-3.58298,0,0,0,0,0,0,0,-1,1609,393,3.90437,3.58299
392,631,0.352295,-2.21301,0,0,0,0,0,0,0,-1,1616,393,0.352345,2.213
399,631,0,0,0,0,0,0,0,0,0,-1,1623,393,0,0
406,631,0,0,0,0,0,0,0,0,0,-1,1630,393,0,0
413,631,0,0,0,0,0,0,0,0,0,-1,1637,393,0,0
420,631,0,0,0,0,0,0,0,0,0,-1,1644,393,0,0
427,631,0,0,0,0,0,0,0,0,0,-1,1651,393,0,0
434,631,0,0,0,0,0,0,0,0,0,-1,1658,393,0,0
441,631,0,0,0,0,0,0,0,0,0,-1,1665,393,0,0
448,631,0,0,0,0,0,0,0,0,0,-1,1672,393,0,0
455,631,0,0,0,0,0,0,0,0,0,-1,1679,393,0,0
462,631,0,0,0,0,0,0,0,0,0,-1,1686,393,0,0
469,631,0,0,0,0,0,0,0,0,0,-1,1693,393,0,0
476,631,0,0,0,0,0,0,0,0,0,-1,1700,393,0,0
483,631,0,0,0,0,0,0,0,0,0,-1,1707,393,0,0
490,631,0,0,0,0,0,0,0,0,0,-1,1714,393,0,0
497,631,0,0,0,0,0,0,0,0,0,-1,1721,393,0,0
504,631,0,0,0,0,0,0,0,0,0,-1,1728,393,0,0
511,631,0,0,0,0,0,0,0,0,0,-1,1735,393,0,0
518,631,0,0,0,0,0,0,0,0,0,-1,1742,393,0,0
525,631,0,0,0,0,0,0,0,0,0,-1,1749,393,0,0
532,631,0,0,0,0,0,0,0,0,0,-1,1756,393,0,0
539,631,0,0,0,0,0,0,0,0,0,-1,1763,393,0,0
546,631,0,0,0,0,0,0,0,0,0,-1,1770,393,0,0
553,631,0,0,0,0,0,0,0,0,0,-1,1777,393,0,0
560,631,0,0,0,0,0,0,0,0,0,-1,1784,393,0,0
567,631,0,0,0,0,0,0,0,0,0,-1,1791,393,0,0
574,631,0,0,0,0,0,0,0,0,0,-1,1798,393,0,0
581,631,0,0,0,0,0,0,0,0,0,-1,1805,393,0,0
588,631,0,0,0,0,0,0,0,0,0,-1,1812,393,0,0
595,631,0,0,0,0,0,0,0,0,0,-1,1819,393,0,0
602,631,0,0,0,0,0,0,0,0,0,-1,1826,393,0,0
609,631,0,0,0,0,0,0,0,0,0,-1,1833,393,0,0
616,631,0,0,0,0,0,0,0,0,0,-1,1840,393,0,0
623,631,0,0,0,0,0,0,0,0,0,-1,1847,393,0,0
630,631,0,0,0,0,0,0,0,0,0,-1,1854,393,0,0
637,631,0,0,0,0,0,0,0,0,0,-1,1861,393,0,0
644,631,0,0,0,0,0,0,0,0,0,-1,1868,393,0,0
651,631,0,0,0,0,0,0,0,0,0,-1,1875,393,0,0
658,631,0,0,0,0,0,0,0,0,0,-1,1882,393,0,0
665,631,0,0,0,0,0,0,0,0,0,-1,1889,393,0,0
672,631,0,0,0,0,0,0,0,0,0,-1,1896,393,0,0
679,631,0,0,0,0,0,0,0,0,0,-1,1903,393,0,0
686,631,0,0,0,0,0,0,0,0,0,-1,1910,393,0,0
693,631,0,0,0,0,0,0,0,0,0,-1,1917,393,0,0
700,631,0,0,0,0,0,0,0,0,0,-1,1924,393,0,0
707,631,0,0,0,0,0,0,0,0,0,-1,1931,393,0,0
714,631,0,0,0,0,0,0,0,0,0,-1,1938,393,0,0
721,631,0,0,0,0,0,0,0,0,0,-1,1945,393,0,0
728,631,0,0,0,0,0,0,0,0,0,-1,1952,393,0,0
735,631,0,0,0,0,0,0,0,0,0,-1,1959,393,0,0
742,631,0,0,0,0,0,0,0,0,0,-1,1966,393,0,0
749,631,0,0,0,0,0,0,0,0,0,-1,1973,393,0,0
756,631,0,0,0,0,0,0,0,0,0,-1,1980,393,0,0
763,631,0,0,0,0,0,0,0,0,0,-1,1987,393,0,0
770,631,0,0,0,0,0,0,0,0,0,-1,1994,393,0,0
777,631,0,0,0,0,0,0,0,0,0,-1,2001,393,0,0
784,631,0,0,0,0,0,0,0,0,0,-1,2008,393,0,0
791,631,0,0,0,0,0,0,0,0,0,-1,2015,393,0,0
798,631,0,0,0,0,0,0,0,0,0,-1,2022,393,0,0
805,631,0,0,0,0,0,0,0,0,0,-1,2029,393,0,0
812,631,0,0,0,0,0,0,0,0,0,-1,2036,393,0,0
-700,624,0,0,0,0,0,0,0,0,0,-1,524,400,0,0
-693,624,0,0,0,0,0,0,0,0,0,-1,531,400,0,0
-686,624,0,0,0,0,0,0,0,0,0,-1,538,400,0,0
-679,624,0,0,0,0,0,0,0,0,0,-1,545,400,0,0
-672,624,0,0,0,0,0,0,0,0,0,-1,552,400,0,0
-665,624,0,0,0,0,0,0,0,0,0,-1,559,400,0,0
-658,624,0,0,0,0,0,0,0,0,0,-1,566,400,0,0
-651,624,0,0,0,0,0,0,0,0,0,-1,573,400,0,0
-644,624,0,0,0,0,0,0,0,0,0,-1,580,400,0,0
-637,624,0,0,0,0,0,0,0,0,0,-1,587,400,0,0
-630,624,0,0,0,0,0,0,0,0,0,-1,594,400,0,0
-623,624,0,0,0,0,0,0,0,0,0,-1,601,400,0,0
-616,624,0,0,0,0,0,0,0,0,0,-1,608,400,0,0
-609,624,0,0,0,0,0,0,0,0,0,-1,615,400,0,0
-602,624,0,0,0,0,0,0,0,0,0,-1,622,400,0,0
-595,624,0,0,0,0,0,0,0,0,0,-1,629,400,0,0
-588,624,0,0,0,0,0,0,0,0,0,-1,636,400,0,0
-581,624,0,0,0,0,0,0,0,0,0,-1,643,400,0,0
-574,624,0,0,0,0,0,0,0,0,0,-1,650,400,0,0
-567,624,0,0,0,0,0,0,0,0,0,-1,657,400,0,0
-560,624,0,0,0,0,0,0,0,0,0,-1,664,400,0,0
-553,624,0,0,0,0,0,0,0,0,0,-1,671,400,0,0
-546,624,0,0,0,0,0,0,0,0,0,-1,678,400,0,0
-539,624,0,0,0,0,0,0,0,0,0,-1,685,400,0,0
-532,624,0,0,0,0,0,0,0,0,0,-1,692,400,0,0
-525,624,0,0,0,0,0,0,0,0,0,-1,699,400,0,0
-518,624,0,0,0,0,0,0,0,0,0,-1,706,400,0,0
-511,624,0,0,0,0,0,0,0,0,0,-1,713,400,0,0
-504,624,0,0,0,0,0,0,0,0,0,-1,720,400,0,0
-497,624,0,0,0,0,0,0,0,0,0,-1,727,400,0,0
-490,624,0,0,0,0,0,0,0,0,0,-1,734,400,0,0
-483,624,0,0,0,0,0,0,0,0,0,-1,741,400,0,0
-476,624,0,0,0,0,0,0,0,0,0,-1,748,400,0,0
-469,624,0,0,0,0,0,0,0,0,0,-1,755,400,0,0
-462,624,0,0,0,0,0,0,0,0,0,-1,762,400,0,0
-455,624,0,0,0,0,0,0,0,0,0,-1,769,400,0,0
-448,624,0,0,0,0,0,0,0,0,0,-1,776,400,0,0
-441,624,0,0,0,0,0,0,0,0,0,-1,783,400,0,0
-434,624,0,0,0,0,0,0,0,0,0,-1,790,400,0,0
-427,624,0,0,0,0,0,0,0,0,0,-1,797,400,0,0
-420,624,0,0,0,0,0,0,0,0,0,-1,804,400,0,0
-413,624,0,0,0,0,0,0,0,0,0,-1,811,400,0,0
-406,624,0,0,0,0,0,0,0,0,0,-1,818,400,0,0
-399,624,0,0,0,0,0,0,0,0,0,-1,825,400,0,0
-392,624,0,0,0,0,0,0,0,0,0,-1,832,400,0,0
-385,624,0,0,0,0,0,0,0,0,0,-1,839,400,0,0
-378,624,0,0,0,0,0,0,0,0,0,-1,846,400,0,0
-371,624,0,0,0,0,0,0,0,0,0,-1,853,400,0,0
-364,624,0,0,0,0,0,0,0,0,0,-1,860,400,0,0
-357,624,0,0,0,0,0,0,0,0,0,-1,867,400,0,0
-350,624,0,0,0,0,0,0,0,0,0,-1,874,400,0,0
-343,624,0,0,0,0,0,0,0,0,0,-1,881,400,0,0
-336,624,0,0,0,0,0,0,0,0,0,-1,888,400,0,0
-329,624,0,0,0,0,0,0,0,0,0,-1,895,400,0,0
-322,624,0,0,0,0,0,0,0,0,0,-1,902,400,0,0
-315,624,0,0,0,0,0,0,0,0,0,-1,909,400,0,0
-308,624,0,0,0,0,0,0,0,0,0,-1,916,400,0,0
-301,624,0,0,0,0,0,0,0,0,0,-1,923,400,0,0
-294,624,5.08527,-28.5311,0,0,0,0,0,0,0,-1,930,400,5.08525,28.5311
-287,624,6.70825,-33.8,0,0,0,0,0,0,0,-1,937,400,6.70827,33.8
-280,624,6.92474,-33.8738,0,0,0,0,0,0,0,-1,944,400,6.92477,33.8739
-273,624,8.617,-37.3463,0,0,0,0,0,0,0,-1,951,400,8.61697,37.3463
-266,624,7.71747,-37.0599,0,0,0,0,0,0,0,-1,958,400,7.7175,37.0599
-259,624,7.33569,-33.1199,0,0,0,0,0,0,0,-1,965,400,7.33567,33.1199
-252,624,7.5528,-32.8158,0,0,0,0,0,0,0,-1,972,400,7.5528,32.8158
-245,624,6.8396,-32.02,0,0,0,0,0,0,0,-1,979,400,6.83963,32.02
-238,624,6.99402,-31.5278,0,0,0,0,0,0,0,-1,986,400,6.99404,31.5278
-231,624,3.86121,-29.6032,0,0,0,0,0,0,0,-1,993,400,3.86122,29.6032
-224,624,4.59351,-27.4048,0,0,0,0,0,0,0,-1,1000,400,4.59353,27.4048
-217,624,5.90167,-32.048,0,0,0,0,0,0,0,-1,1007,400,5.90167,32.048
-210,624,7.9884,-48.0426,0,0,0,0,0,0,0,-1,1014,400,7.98838,48.0426
-203,624,7.88525,-48.8806,0,0,0,0,0,0,0,-1,1021,400,7.88527,48.8806
-196,624,7.98193,-49.6246,0,0,0,0,0,0,0,-1,1028,400,7.98192,49.6246
-189,624,7.88647,-50.4737,0,0,0,0,0,0,0,-1,1035,400,7.88644,50.4737
-182,624,7.76294,-51.2685,0,0,0,0,0,0,0,-1,1042,400,7.76297,51.2685
-175,624,7.61169,-51.7752,-0.00213686,0.0149016,-0.0096723,0.0192715,-0.00650681,-1.14645,0.0154794,0.032703,1049,400,7.61166,51.7752
-168,624,7.70313,-52.6714,-0.00230355,0.0134049,-0.00872597,0.0172908,-0.00618949,-1.15183,0.0140523,0.0238103,1056,400,7.70317,52.6714
-161,624,7.60669,-53.4027,-0.00242322,0.0123294,-0.00787791,0.0157452,-0.00583911,-1.16166,0.0128918,0.0124038,1063,400,7.60666,53.4027
-154,624,7.54895,-54.0524,-0.00250662,0.0112275,-0.00703148,0.0141889,-0.00546799,-1.17218,0.0117153,0.0107351,1070,400,7.54895,54.0524
-147,624,7.51062,-54.7125,-0.00257539,0.0101852,-0.00623555,0.0127262,-0.00511644,-1.18383,0.0106092,0.0115641,1077,400,7.51063,54.7125
-140,624,7.45471,-55.3457,-0.002493,0.00908577,-0.00553192,0.0113038,-0.00471106,-1.18947,0.00950377,0.0100332,1084,400,7.45476,55.3457
-133,624,7.37378,-55.9485,-0.00234965,0.00807744,-0.00484626,0.00998199,-0.0042542,-1.19634,0.00843811,0.0109561,1091,400,7.37375,55.9485
-126,624,7.33105,-56.5359,-0.00223494,0.00705476,-0.00413769,0.00863045,-0.00381063,-1.20694,0.00736034,0.0137276,1098,400,7.33107,56.5359
-119,624,7.28821,-57.124,-0.00208287,0.00587826,-0.00341514,0.00714251,-0.00334712,-1.21625,0.00618692,0.0160085,1105,400,7.28816,57.124
-112,624,7.25781,-57.6879,-0.00180462,0.00495363,-0.00283534,0.00598559,-0.00283658,-1.22174,0.00520051,0.0173079,1112,400,7.25781,57.6879
-105,624,7.2644,-58.243,-0.00144175,0.00421877,-0.00240359,0.00510168,-0.00232466,-1.21877,0.00438639,0.0131805,1119,400,7.26443,58.243
-98,624,7.21484,-58.7561,-0.00106205,0.00352361,-0.00200641,0.00427754,-0.00181598,-1.21136,0.00361251,0.0138977,1126,400,7.21486,58.7561
-91,624,7.20813,-59.274,-0.000627518,0.0029673,-0.00166862,0.00362243,-0.00128265,-1.19667,0.00293738,0.0217563,1133,400,7.20812,59.274
-84,624,7.20752,-59.8008,-0.00010505,0.00217861,-0.00125586,0.00273412,-0.000660557,-1.15434,0.00207822,0.0205168,1140,400,7.20747,59.8009
-77,624,7.14624,-60.3008,0.000410993,0.00182797,-0.000970198,0.00232083,-8.18686e-05,-1.10077,0.00157522,0.0149595,1147,400,7.14621,60.3008
-70,624,7.15198,-60.7354,0.000921436,0.00149121,-0.000713157,0.00197427,0.000438367,-0.975423,0.00119712,0.0163944,1154,400,7.15197,60.7353
-63,624,7.17236,-61.1972,0.00148685,0.00105524,-0.000456354,0.00177585,0.000766239,-0.564538,0.00102849,0.0190959,1161,400,7.17233,61.1972
-56,624,7.11621,-61.6315,0.00201072,0.000454917,-0.00020411,0.00203705,0.000428585,-0.128301,0.00124011,0.0154932,1168,400,7.11622,61.6315
-49,624,7.11438,-62.0425,0.00251473,-0.000153564,5.78032e-05,0.00251599,-0.000154815,0.0216494,0.00173124,0.0111646,1175,400,7.11432,62.0425
-42,624,7.12744,-62.4055,0.00307486,-0.000743798,0.000317065,0.00310101,-0.000769945,0.0822797,0.00236612,0.0104593,1182,400,7.12745,62.4055
-35,624,7.16394,-62.749,0.00359112,-0.00124942,0.000487756,0.00363978,-0.00129808,0.0994331,0.0029558,0.0155036,1189,400,7.16394,62.749
-28,624,7.17749,-63.1075,0.00401084,-0.00225705,0.000580092,0.00406408,-0.00231028,0.091514,0.00372638,0.0204047,1196,400,7.17744,63.1074
-21,624,7.17261,-63.4206,0.00440036,-0.00333841,0.000562335,0.00444101,-0.00337906,0.0721595,0.00452877,0.0148969,1203,400,7.1726,63.4206
-14,624,7.18604,-63.7166,0.00475599,-0.00409975,0.000479617,0.00478189,-0.00412564,0.0539486,0.00514742,0.0158928,1210,400,7.18601,63.7166
-7,624,7.21045,-63.977,0.00503715,-0.00532412,0.000333495,0.00504787,-0.00533484,0.0321423,0.00599523,0.0217527,1217,400,7.21041,63.977
0,624,7.26587,-64.2053,0.0052792,-0.00667236,0.000253424,0.00528457,-0.00667773,0.0211916,0.00692203,0.0230764,1224,400,7.26584,64.2053
7,624,7.28833,-64.4162,0.00544896,-0.00774068,0.000151795,0.0054507,-0.00774243,0.0115067,0.00765527,0.0163368,1231,400,7.28835,64.4162
14,624,7.36609,-64.6675,0.00552062,-0.00876178,9.81282e-05,0.00552129,-0.00876245,0.00687014,0.00831719,0.0132704,1238,400,7.36611,64.6675
21,624,7.40015,-64.8137,0.0056397,-0.00962513,3.83504e-05,0.0056398,-0.00962522,0.00251232,0.00891283,0.0155866,1245,400,7.40015,64.8137
28,624,7.40308,-64.9208,0.00580466,-0.0102782,5.44588e-05,0.00580485,-0.0102783,0.00338609,0.0094046,0.0150226,1252,400,7.40302,64.9208
35,624,7.47205,-65.0043,0.0058792,-0.0106998,-2.04024e-05,0.00587922,-0.0106998,-0.00123062,0.00970584,0.0169337,1259,400,7.47204,65.0043
42,624,7.55017,-65.1036,0.00592137,-0.0106164,-6.34311e-05,0.00592162,-0.0106167,-0.00383544,0.0096758,0.0178402,1266,400,7.55015,65.1036
49,624,7.63293,-65.157,0.00598309,-0.0101287,-0.000132479,0.00598418,-0.0101298,-0.00822175,0.00940546,0.0191113,1273,400,7.63291,65.157
56,624,7.67322,-65.2628,0.00606662,-0.00944279,-0.000233333,0.00607013,-0.0094463,-0.0150401,0.00902882,0.0196548,1280,400,7.67323,65.2628
63,624,7.71411,-65.2832,0.0061267,-0.00863467,-0.000495403,0.00614331,-0.00865128,-0.0335105,0.00858247,0.0158275,1287,400,7.71406,65.2832
70,624,7.71667,-65.2946,0.00614289,-0.00771734,-0.000806614,0.00618967,-0.00776413,-0.0579356,0.00807331,0.0150521,1294,400,7.71667,65.2946
77,624,7.78271,-65.2229,0.00623484,-0.00625195,-0.00107252,0.00632629,-0.0063434,-0.0850621,0.00731485,0.0169436,1301,400,7.78268,65.2229
84,624,7.8772,-65.1422,0.00637504,-0.00523843,-0.00139988,0.0065414,-0.00540479,-0.118283,0.00690753,0.0142191,1308,400,7.87718,65.1422
91,624,7.91565,-65.0407,0.00626621,-0.00498538,-0.00175939,0.0065349,-0.00525407,-0.15155,0.00681975,0.0144552,1315,400,7.91568,65.0407
98,624,7.94543,-64.9406,0.00611848,-0.0045123,-0.00199823,0.00648167,-0.00487549,-0.179794,0.00657888,0.014258,1322,400,7.94547,64.9406
105,624,7.99573,-64.8406,0.00605284,-0.0042834,-0.00217254,0.00649091,-0.00472147,-0.198973,0.00650029,0.0148029,1329,400,7.99569,64.8406
112,624,8.07092,-64.6866,0.00592788,-0.00456659,-0.00215537,0.0063533,-0.00499202,-0.194875,0.00656592,0.0157708,1336,400,8.07097,64.6866
119,624,8.10413,-64.5174,0.00579625,-0.0047656,-0.00205424,0.00618172,-0.00515108,-0.185491,0.00655201,0.0158276,1343,400,8.10413,64.5174
126,624,8.07446,-64.2386,0.00560315,-0.00477434,-0.00195701,0.00595994,-0.00513113,-0.180334,0.00640939,0.0184511,1350,400,8.0744,64.2386
133,624,8.14478,-63.9356,0.00531873,-0.00457679,-0.00176699,0.00562479,-0.00488284,-0.171506,0.00607162,0.0192883,1357,400,8.14473,63.9356
140,624,8.18262,-63.6964,0.00503334,-0.00414985,-0.00146749,0.00526215,-0.00437865,-0.154671,0.0055739,0.0191284,1364,400,8.18259,63.6964
147,624,8.19202,-63.4001,0.00471396,-0.00368692,-0.0012431,0.00489404,-0.003867,-0.143866,0.00506976,0.0244168,1371,400,8.19205,63.4001
154,624,8.30249,-63.087,0.00433227,-0.00303744,-0.00105315,0.00447981,-0.00318498,-0.139192,0.00444627,0.0260886,1378,400,8.30245,63.087
161,624,8.34204,-62.7242,0.00388023,-0.002096,-0.000833223,0.00399422,-0.00220999,-0.135969,0.00363104,0.0231808,1385,400,8.34204,62.7243
168,624,8.32751,-62.3235,0.00336341,-0.0010571,-0.000510398,0.00342157,-0.00111527,-0.113472,0.00272983,0.0244709,1392,400,8.32747,62.3235
175,624,8.33606,-61.9926,0.002848,-4.26241e-05,-0.000214842,0.00286388,-5.85049e-05,-0.0737837,0.00192905,0.0193905,1399,400,8.33602,61.9926
182,624,8.31714,-61.5805,0.00226396,0.000903808,3.77833e-05,0.00226501,0.000902759,0.0277502,0.00131664,0.0110351,1406,400,8.31718,61.5805
189,624,8.26855,-61.1171,0.00167485,0.00189368,0.000371662,0.0021717,0.00139684,0.928552,0.00127086,0.0107165,1413,400,8.26858,61.1171
196,624,8.25696,-60.6681,0.00124214,0.00289142,0.000776481,0.00319946,0.000934106,1.19313,0.00189976,0.0118314,1420,400,8.25698,60.6681
203,624,8.29053,-60.1717,0.000811679,0.0035918,0.00113484,0.00399621,0.000407265,1.22847,0.0025393,0.0148655,1427,400,8.29053,60.1717
210,624,8.26563,-59.6823,0.000333452,0.00410207,0.00147246,0.00460916,-0.000173634,1.23914,0.00313226,0.0181546,1434,400,8.26566,59.6823
217,624,8.23767,-59.1664,-1.71434e-05,0.00461732,0.00175431,0.00520649,-0.000606312,1.24679,0.00368974,0.0223859,1441,400,8.23765,59.1664
224,624,8.21326,-58.6235,-0.000200926,0.00519996,0.002035,0.00588088,-0.000881844,1.2479,0.00424517,0.0182276,1448,400,8.21321,58.6235
231,624,8.20874,-58.0815,-0.000266949,0.00570808,0.00241109,0.00655965,-0.00111852,1.23128,0.00478968,0.0129694,1455,400,8.20872,58.0815
238,624,8.1853,-57.5338,-0.00022566,0.00664372,0.00300162,0.00777047,-0.00135242,1.21169,0.005685,0.0191132,1462,400,8.18533,57.5338
245,624,8.16504,-56.9822,-0.000292218,0.00748538,0.00345408,0.00879788,-0.00160471,1.20766,0.00646687,0.0205639,1469,400,8.16498,56.9822
252,624,8.11072,-56.3633,-0.000219245,0.00858597,0.00404155,0.0101597,-0.00179301,1.19946,0.00744317,0.0152033,1476,400,8.11076,56.3633
259,624,8.07104,-55.7447,3.55845e-05,0.010194,0.00494823,0.0122058,-0.00197628,1.18463,0.00886968,0.00993337,1483,400,8.071,55.7447
266,624,8.04834,-55.1101,0.000136182,0.011526,0.00580431,0.0139627,-0.00230045,1.17334,0.0101624,0.0131238,1490,400,8.04834,55.1101
273,624,7.98975,-54.4493,0.000267445,0.013207,0.00680287,0.0161254,-0.00265091,1.16555,0.0117341,0.0157704,1497,400,7.98972,54.4493
280,624,7.92859,-53.7987,0.000504844,0.0149426,0.0079067,0.0184302,-0.00298273,1.15538,0.0133922,0.0148916,1504,400,7.92864,53.7987
287,624,7.86462,-53.1432,0.000859292,0.0170193,0.00921149,0.0211924,-0.00331379,1.14543,0.0153525,0.0126181,1511,400,7.86462,53.1432
294,624,7.80066,-52.4436,0.00108781,0.0189739,0.0104044,0.0237505,-0.00368882,1.1404,0.0171957,0.0115854,1518,400,7.80068,52.4436
301,624,7.7345,-51.6722,0.00137924,0.0208465,0.0115652,0.026229,-0.00400327,1.13521,0.0189618,0.0132421,1525,400,7.73445,51.6722
308,624,7.7323,-50.8717,0.00190531,0.0230445,0.0127381,0.0290271,-0.00407733,1.13171,0.0208439,0.020777,1532,400,7.73225,50.8717
315,624,7.71545,-50.1347,0.0026731,0.0252545,0.0140618,0.0319975,-0.00406989,1.12366,0.0228097,0.027701,1539,400,7.71546,50.1347
322,624,7.66797,-49.4105,0.00341844,0.0273572,0.0153161,0.0348261,-0.00405053,1.11707,0.0246787,0.0486674,1546,400,7.66797,49.4105
329,624,7.61047,-48.675,0,0,0,0,0,0,0,-1,1553,400,7.61042,48.675
336,624,7.4812,-47.3412,0,0,0,0,0,0,0,-1,1560,400,7.4812,47.3412
343,624,6.53369,-39.5615,0,0,0,0,0,0,0,-1,1567,400,6.53364,39.5615
350,624,1.99194,-7.29742,0,0,0,0,0,0,0,-1,1574,400,1.99198,7.29741
357,624,2.64075,-3.13092,0,0,0,0,0,0,0,-1,1581,400,2.64076,3.13091
364,624,3.16565,-4.9458,0,0,0,0,0,0,0,-1,1588,400,3.16564,4.94579
371,624,3.37561,-5.23529,0,0,0,0,0,0,0,-1,1595,400,3.37563,5.23529
378,624,1.50439,-5.22165,0,0,0,0,0,0,0,-1,1602,400,1.50438,5.22164
385,624,1.2301,-10.5866,0,0,0,0,0,0,0,-1,1609,400,1.2301,10.5866
392,624,4.26819,-5.14236,0,0,0,0,0,0,0,-1,1616,400,4.26818,5.14236
399,624,2.22168,-9.19293,0,0,0,0,0,0,0,-1,1623,400,2.22173,9.19294
406,624,2.68213,-9.91171,0,0,0,0,0,0,0,-1,1630,400,2.68213,9.91171
413,624,0,0,0,0,0,0,0,0,0,-1,1637,400,0,0
420,624,0,0,0,0,0,0,0,0,0,-1,1644,400,0,0
427,624,0,0,0,0,0,0,0,0,0,-1,1651,400,0,0
434,624,0,0,0,0,0,0,0,0,0,-1,1658,400,0,0
441,624,0,0,0,0,0,0,0,0,0,-1,1665,400,0,0
448,624,0,0,0,0,0,0,0,0,0,-1,1672,400,0,0
455,624,0,0,0,0,0,0,0,0,0,-1,1679,400,0,0
462,624,0,0,0,0,0,0,0,0,0,-1,1686,400,0,0
469,624,0,0,0,0,0,0,0,0,0,-1,1693,400,0,0
476,624,0,0,0,0,0,0,0,0,0,-1,1700,400,0,0
483,624,0,0,0,0,0,0,0,0,0,-1,1707,400,0,0
490,624,0,0,0,0,0,0,0,0,0,-1,1714,400,0,0
497,624,0,0,0,0,0,0,0,0,0,-1,1721,400,0,0
504,624,0,0,0,0,0,0,0,0,0,-1,1728,400,0,0
511,624,0,0,0,0,0,0,0,0,0,-1,1735,400,0,0
518,624,0,0,0,0,0,0,0,0,0,-1,1742,400,0,0
525,624,0,0,0,0,0,0,0,0,0,-1,1749,400,0,0
532,624,0,0,0,0,0,0,0,0,0,-1,1756,400,0,0
539,624,0,0,0,0,0,0,0,0,0,-1,1763,400,0,0
546,624,0,0,0,0,0,0,0,0,0,-1,1770,400,0,0
553,624,0,0,0,0,0,0,0,0,0,-1,1777,400,0,0
560,624,0,0,0,0,0,0,0,0,0,-1,1784,400,0,0
567,624,0,0,0,0,0,0,0,0,0,-1,1791,400,0,0
574,624,0,0,0,0,0,0,0,0,0,-1,1798,400,0,0
581,624,0,0,0,0,0,0,0,0,0,-1,1805,400,0,0
588,624,0,0,0,0,0,0,0,0,0,-1,1812,400,0,0
595,624,0,0,0,0,0,0,0,0,0,-1,1819,400,0,0
602,624,0,0,0,0,0,0,0,0,0,-1,1826,400,0,0
609,624,0,0,0,0,0,0,0,0,0,-1,1833,400,0,0
616,624,0,0,0,0,0,0,0,0,0,-1,1840,400,0,0
623,624,0,0,0,0,0,0,0,0,0,-1,1847,400,0,0
630,624,0,0,0,0,0,0,0,0,0,-1,1854,400,0,0
637,624,0,0,0,0,0,0,0,0,0,-1,1861,400,0,0
644,624,0,0,0,0,0,0,0,0,0,-1,1868,400,0,0
651,624,0,0,0,0,0,0,0,0,0,-1,1875,400,0,0
658,624,0,0,0,0,0,0,0,0,0,-1,1882,400,0,0
665,624,0,0,0,0,0,0,0,0,0,-1,1889,400,0,0
672,624,0,0,0,0,0,0,0,0,0,-1,1896,400,0,0
679,624,0,0,0,0,0,0,0,0,0,-1,1903,400,0,0
686,624,0,0,0,0,0,0,0,0,0,-1,1910,400,0,0
693,624,0,0,0,0,0,0,0,0,0,-1,1917,400,0,0
700,624,0,0,0,0,0,0,0,0,0,-1,1924,400,0,0
707,624,0,0,0,0,0,0,0,0,0,-1,1931,400,0,0
714,624,0,0,0,0,0,0,0,0,0,-1,1938,400,0,0
721,624,0,0,0,0,0,0,0,0,0,-1,1945,400,0,0
728,624,0,0,0,0,0,0,0,0,0,-1,1952,400,0,0
735,624,0,0,0,0,0,0,0,0,0,-1,1959,400,0,0
742,624,0,0,0,0,0,0,0,0,0,-1,1966,400,0,0
749,624,0,0,0,0,0,0,0,0,0,-1,1973,400,0,0
756,624,0,0,0,0,0,0,0,0,0,-1,1980,400,0,0
763,624,0,0,0,0,0,0,0,0,0,-1,1987,400,0,0
770,624,0,0,0,0,0,0,0,0,0,-1,1994,400,0,0
777,624,0,0,0,0,0,0,0,0,0,-1,2001,400,0,0
784,624,0,0,0,0,0,0,0,0,0,-1,2008,400,0,0
791,624,0,0,0,0,0,0,0,0,0,-1,2015,400,0,0
798,624,0,0,0,0,0,0,0,0,0,-1,2022,400,0,0
805,624,0,0,0,0,0,0,0,0,0,-1,2029,400,0,0
812,624,0,0,0,0,0,0,0,0,0,-1,2036,400,0,0
-700,617,0,0,0,0,0,0,0,0,0,-1,524,407,0,0
-693,617,0,0,0,0,0,0,0,0,0,-1,531,407,0,0
-686,617,0,0,0,0,0,0,0,0,0,-1,538,407,0,0
-679,617,0,0,0,0,0,0,0,0,0,-1,545,407,0,0
-672,617,0,0,0,0,0,0,0,0,0,-1,552,407,0,0
-665,617,0,0,0,0,0,0,0,0,0,-1,559,407,0,0
-658,617,0,0,0,0,0,0,0,0,0,-1,566,407,0,0
-651,617,0,0,0,0,0,0,0,0,0,-1,573,407,0,0
-644,617,0,0,0,0,0,0,0,0,0,-1,580,407,0,0
-637,617,0,0,0,0,0,0,0,0,0,-1,587,407,0,0
-630,617,0,0,0,0,0,0,0,0,0,-1,594,407,0,0
-623,617,0,0,0,0,0,0,0,0,0,-1,601,407,0,0
-616,617,0,0,0,0,0,0,0,0,0,-1,608,407,0,0
-609,617,0,0,0,0,0,0,0,0,0,-1,615,407,0,0
-602,617,0,0,0,0,0,0,0,0,0,-1,622,407,0,0
-595,617,0,0,0,0,0,0,0,0,0,-1,629,407,0,0
-588,617,0,0,0,0,0,0,0,0,0,-1,636,407,0,0
-581,617,0,0,0,0,0,0,0,0,0,-1,643,407,0,0
-574,617,0,0,0,0,0,0,0,0,0,-1,650,407,0,0
-567,617,0,0,0,0,0,0,0,0,0,-1,657,407,0,0
-560,617,0,0,0,0,0,0,0,0,0,-1,664,407,0,0
-553,617,0,0,0,0,0,0,0,0,0,-1,671,407,0,0
-546,617,0,0,0,0,0,0,0,0,0,-1,678,407,0,0
-539,617,0,0,0,0,0,0,0,0,0,-1,685,407,0,0
-532,617,0,0,0,0,0,0,0,0,0,-1,692,407,0,0
-525,617,0,0,0,0,0,0,0,0,0,-1,699,407,0,0
-518,617,0,0,0,0,0,0,0,0,0,-1,706,407,0,0
-511,617,0,0,0,0,0,0,0,0,0,-1,713,407,0,0
-504,617,0,0,0,0,0,0,0,0,0,-1,720,407,0,0
-497,617,0,0,0,0,0,0,0,0,0,-1,727,407,0,0
-490,617,0,0,0,0,0,0,0,0,0,-1,734,407,0,0
-483,617,0,0,0,0,0,0,0,0,0,-1,741,407,0,0
-476,617,0,0,0,0,0,0,0,0,0,-1,748,407,0,0
-469,617,0,0,0,0,0,0,0,0,0,-1,755,407,0,0
-462,617,0,0,0,0,0,0,0,0,0,-1,762,407,0,0
-455,617,0,0,0,0,0,0,0,0,0,-1,769,407,0,0
-448,617,0,0,0,0,0,0,0,0,0,-1,776,407,0,0
-441,617,0,0,0,0,0,0,0,0,0,-1,783,407,0,0
-434,617,0,0,0,0,0,0,0,0,0,-1,790,407,0,0
-427,617,0,0,0,0,0,0,0,0,0,-1,797,407,0,0
-420,617,0,0,0,0,0,0,0,0,0,-1,804,407,0,0
-413,617,0,0,0,0,0,0,0,0,0,-1,811,407,0,0
-406,617,0,0,0,0,0,0,0,0,0,-1,818,407,0,0
-399,617,0,0,0,0,0,0,0,0,0,-1,825,407,0,0
-392,617,0,0,0,0,0,0,0,0,0,-1,832,407,0,0
-385,617,0,0,0,0,0,0,0,0,0,-1,839,407,0,0
-378,617,0,0,0,0,0,0,0,0,0,-1,846,407,0,0
-371,617,0,0,0,0,0,0,0,0,0,-1,853,407,0,0
-364,617,0,0,0,0,0,0,0,0,0,-1,860,407,0,0
-357,617,0,0,0,0,0,0,0,0,0,-1,867,407,0,0
-350,617,0,0,0,0,0,0,0,0,0,-1,874,407,0,0
-343,617,0,0,0,0,0,0,0,0,0,-1,881,407,0,0
-336,617,0,0,0,0,0,0,0,0,0,-1,888,407,0,0
-329,617,0,0,0,0,0,0,0,0,0,-1,895,407,0,0
-322,617,0,0,0,0,0,0,0,0,0,-1,902,407,0,0
-315,617,0,0,0,0,0,0,0,0,0,-1,909,407,0,0
-308,617,0,0,0,0,0,0,0,0,0,-1,916,407,0,0
-301,617,6.81897,-24.525,0,0,0,0,0,0,0,-1,923,407,6.81899,24.525
-294,617,6.19263,-26.917,0,0,0,0,0,0,0,-1,930,407,6.19261,26.917
-287,617,7.00409,-31.9773,0,0,0,0,0,0,0,-1,937,407,7.00406,31.9773
-280,617,9.1106,-36.5021,0,0,0,0,0,0,0,-1,944,407,9.11059,36.5021
-273,617,8.35004,-36.2751,0,0,0,0,0,0,0,-1,951,407,8.35003,36.2751
-266,617,7.61749,-36.1671,0,0,0,0,0,0,0,-1,958,407,7.61746,36.1671
-259,617,6.83643,-36.3605,0,0,0,0,0,0,0,-1,965,407,6.83643,36.3605
-252,617,6.02264,-36.5001,0,0,0,0,0,0,0,-1,972,407,6.02265,36.5001
-245,617,6.72626,-34.4465,0,0,0,0,0,0,0,-1,979,407,6.72627,34.4465
-238,617,5.6474,-34.6842,0,0,0,0,0,0,0,-1,986,407,5.64741,34.6842
-231,617,7.66302,-45.3248,0,0,0,0,0,0,0,-1,993,407,7.663,45.3248
-224,617,7.28583,-46.3262,0,0,0,0,0,0,0,-1,1000,407,7.28586,46.3262
-217,617,7.39075,-47.3447,0,0,0,0,0,0,0,-1,1007,407,7.39077,47.3447
-210,617,7.36499,-48.2809,-0.0021113,0.023372,-0.0117466,0.0279604,-0.00669972,-1.1984,0.0212289,0.033344,1014,407,7.36496,48.2809
-203,617,7.30298,-49.1142,-0.00194546,0.0197784,-0.0105425,0.0240534,-0.00622042,-1.18556,0.0184617,0.0250691,1021,407,7.30296,49.1142
-196,617,7.27747,-49.7903,-0.00179161,0.0167364,-0.00945647,0.0207105,-0.00576568,-1.17296,0.0160773,0.0198206,1028,407,7.27745,49.7903
-189,617,7.19202,-50.5835,-0.00164134,0.014728,-0.0087419,0.0185187,-0.00543204,-1.16164,0.0144997,0.0175288,1035,407,7.19206,50.5835
-182,617,7.11536,-51.3248,-0.00149774,0.0127842,-0.008011,0.016375,-0.00508847,-1.14942,0.0129504,0.0193206,1042,407,7.11537,51.3248
-175,617,7.09338,-52.0149,-0.00137817,0.0109535,-0.00718025,0.014252,-0.00467666,-1.14017,0.011385,0.0172721,1049,407,7.09344,52.0149
-168,617,7.03906,-52.722,-0.00139962,0.00958954,-0.00638634,0.0125197,-0.00432975,-1.14064,0.0101038,0.0135922,1056,407,7.03903,52.722
-161,617,6.97388,-53.4255,-0.0013947,0.00858354,-0.00566523,0.0111433,-0.0039545,-1.14641,0.00904011,0.0125124,1063,407,6.9739,53.4255
-154,617,6.90967,-54.0691,-0.00136147,0.0075944,-0.00493562,0.00978071,-0.00354778,-1.15381,0.00797075,0.0125118,1070,407,6.90972,54.0691
-147,617,6.86206,-54.7101,-0.0013074,0.00670201,-0.00426093,0.0085448,-0.00315018,-1.1626,0.00698745,0.017487,1077,407,6.86212,54.7101
-140,617,6.83203,-55.3645,-0.00113013,0.00576274,-0.00365638,0.00734095,-0.00270834,-1.16332,0.00600394,0.0134708,1084,407,6.83202,55.3645
-133,617,6.78784,-55.9585,-0.000905737,0.0049343,-0.00307945,0.00625804,-0.00222948,-1.16481,0.00508094,0.0151135,1091,407,6.78787,55.9585
-126,617,6.75317,-56.5367,-0.000684906,0.00414824,-0.00252436,0.00522627,-0.00176293,-1.16719,0.0041971,0.0151465,1098,407,6.75314,56.5367
-119,617,6.69702,-57.1391,-0.000390326,0.0032874,-0.001962,0.00413757,-0.00124049,-1.1619,0.00325173,0.0151704,1105,407,6.69698,57.1391
-112,617,6.67664,-57.6865,2.0352e-05,0.00264212,-0.00153407,0.00334911,-0.000686634,-1.13895,0.00249333,0.0161883,1112,407,6.67667,57.6865
-105,617,6.67859,-58.2282,0.00047888,0.00216576,-0.00123654,0.00281912,-0.000174485,-1.0847,0.00194019,0.0173116,1119,407,6.67858,58.2282
-98,617,6.67151,-58.7567,0.000981877,0.00170722,-0.000975711,0.00238548,0.000303616,-0.963335,0.0014994,0.0133873,1126,407,6.67147,58.7567
-91,617,6.67725,-59.2807,0.00158205,0.00141103,-0.000779912,0.00228112,0.000711954,-0.730796,0.00134765,0.0196582,1133,407,6.67729,59.2807
-84,617,6.68176,-59.8007,0.002303,0.00102927,-0.000514488,0.00248485,0.000847421,-0.339753,0.0014586,0.0197349,1140,407,6.68182,59.8007
-77,617,6.65869,-60.2778,0.0030398,0.00063385,-0.000325144,0.00308297,0.000590684,-0.131988,0.00188945,0.0153622,1147,407,6.65866,60.2778
-70,617,6.70532,-60.7383,0.00371859,0.00010073,-1.39903e-05,0.00371865,0.000100676,-0.00386692,0.00244623,0.0179682,1154,407,6.7053,60.7383
-63,617,6.78076,-61.2118,0.00442347,-0.000759902,0.000341995,0.00444594,-0.000782369,0.0656003,0.00325623,0.021717,1161,407,6.78071,61.2118
-56,617,6.72839,-61.622,0.00501364,-0.00174091,0.000654673,0.00507651,-0.00180378,0.0957359,0.00411941,0.0166381,1168,407,6.72843,61.622
-49,617,6.73242,-62.0338,0.00554788,-0.00266824,0.000921561,0.00564998,-0.00277034,0.110338,0.00495533,0.0127285,1175,407,6.73242,62.0338
-42,617,6.76868,-62.416,0.00617158,-0.00357816,0.00119271,0.00631536,-0.00372195,0.119976,0.00585917,0.0126845,1182,407,6.76863,62.416
-35,617,6.82556,-62.7576,0.00674615,-0.00437891,0.00134417,0.00690626,-0.00453901,0.118551,0.00665488,0.0174575,1189,407,6.82557,62.7576
-28,617,6.83362,-63.0922,0.00717271,-0.00596822,0.00139417,0.00731899,-0.00611451,0.104543,0.00776622,0.02092,1196,407,6.83356,63.0922
-21,617,6.88208,-63.39,0.00755028,-0.00765169,0.00129576,0.00765993,-0.00776135,0.0844245,0.00890354,0.0153064,1203,407,6.88203,63.39
-14,617,6.92444,-63.6753,0.00791265,-0.0088493,0.00107834,0.00798174,-0.00891839,0.0639812,0.00976229,0.0154942,1210,407,6.92445,63.6753
-7,617,6.93152,-63.8862,0.00813281,-0.0107271,0.000776601,0.00816473,-0.0107591,0.0410846,0.0109598,0.0188156,1217,407,6.9315,63.8862
0,617,7.01721,-64.0979,0.00829242,-0.0127633,0.000597544,0.00830937,-0.0127803,0.0283487,0.012267,0.0185795,1224,407,7.01718,64.0979
7,617,7.12109,-64.4203,0.00839935,-0.0144329,0.000401463,0.00840641,-0.01444,0.0175759,0.0133428,0.0141054,1231,407,7.12109,64.4204
14,617,7.18823,-64.6667,0.00841001,-0.0160124,0.000256505,0.0084127,-0.0160151,0.0105013,0.0143293,0.0163301,1238,407,7.18818,64.6667
21,617,7.2583,-64.8091,0.00849705,-0.0174011,8.31269e-05,0.00849731,-0.0174014,0.00320971,0.0152444,0.0151474,1245,407,7.25828,64.8091
28,617,7.31287,-64.9563,0.00860951,-0.0184833,3.35039e-05,0.00860956,-0.0184834,0.00123663,0.0159846,0.0128464,1252,407,7.31284,64.9563
35,617,7.32898,-65.0701,0.00861741,-0.0191603,-0.000126443,0.00861798,-0.0191609,-0.00455183,0.0164186,0.0154438,1259,407,7.32898,65.0701
42,617,7.44275,-65.1075,0.00865388,-0.0190437,-0.000233376,0.00865584,-0.0190457,-0.00842508,0.0163642,0.0222635,1266,407,7.4428,65.1075
49,617,7.56335,-65.17,0.0087748,-0.0182957,-0.000357891,0.00877953,-0.0183005,-0.0132176,0.0159535,0.0226246,1273,407,7.56335,65.1699
56,617,7.63867,-65.2226,0.00894156,-0.0172164,-0.000518861,0.00895184,-0.0172267,-0.0198253,0.0153638,0.0164043,1280,407,7.63867,65.2226
63,617,7.67383,-65.2579,0.00906696,-0.0159289,-0.000933607,0.00910178,-0.0159638,-0.0372812,0.0146512,0.0121121,1287,407,7.67386,65.2579
70,617,7.73291,-65.2838,0.00916288,-0.0144875,-0.0014505,0.00925151,-0.0145761,-0.0610264,0.0138709,0.0189483,1294,407,7.73297,65.2838
77,617,7.87952,-65.2082,0.0093779,-0.0122472,-0.0019019,0.0095439,-0.0124132,-0.0870582,0.0127129,0.0177579,1301,407,7.87949,65.2082
84,617,7.97095,-65.1255,0.00967053,-0.0107319,-0.0023966,0.00994827,-0.0110097,-0.115374,0.0121052,0.0123917,1308,407,7.97095,65.1255
91,617,8.02307,-65.0487,0.00961354,-0.0103869,-0.00293786,0.0100361,-0.0108095,-0.14287,0.012038,0.0112596,1315,407,8.02308,65.0487
98,617,8.07996,-64.941,0.00949461,-0.00968071,-0.00332844,0.0100559,-0.010242,-0.167071,0.0117192,0.0125684,1322,407,8.07991,64.941
105,617,8.1582,-64.7962,0.00944764,-0.0093833,-0.00365808,0.0101333,-0.0100689,-0.185284,0.0116638,0.013998,1329,407,8.15817,64.7962
112,617,8.2605,-64.6555,0.00926138,-0.00996308,-0.00371545,0.00995446,-0.0106562,-0.184422,0.0119018,0.0168962,1336,407,8.26048,64.6556
119,617,8.31165,-64.4772,0.0090724,-0.0103937,-0.00361526,0.00972214,-0.0110435,-0.177823,0.0119971,0.0191771,1343,407,8.31168,64.4772
126,617,8.31995,-64.2238,0.00882671,-0.0105627,-0.00350803,0.00944189,-0.0111778,-0.173596,0.0119189,0.0212581,1350,407,8.31991,64.2238
133,617,8.38037,-63.9359,0.00849172,-0.0104567,-0.00331227,0.00905403,-0.011019,-0.168163,0.0116077,0.0192806,1357,407,8.38035,63.9359
140,617,8.48584,-63.6622,0.00813554,-0.010057,-0.0029937,0.00861551,-0.010537,-0.158973,0.0110762,0.0163733,1364,407,8.48582,63.6622
147,617,8.51794,-63.3435,0.00772339,-0.00963342,-0.00276506,0.00815324,-0.0100633,-0.154222,0.0105366,0.0209532,1371,407,8.51791,63.3435
154,617,8.60254,-63.0546,0.00724901,-0.00890707,-0.00258752,0.0076533,-0.00931136,-0.154994,0.00981013,0.023712,1378,407,8.60257,63.0546
161,617,8.67896,-62.7834,0.00670248,-0.00775148,-0.00239347,0.00708851,-0.00813751,-0.159908,0.0087977,0.0231805,1385,407,8.6789,62.7834
168,617,8.72278,-62.42,0.00610858,-0.00636169,-0.00205549,0.00643865,-0.00669177,-0.159221,0.00758132,0.0223721,1392,407,8.72275,62.42
175,617,8.7345,-62.0168,0.00552791,-0.00497146,-0.0017636,0.00581623,-0.00525978,-0.162049,0.00639742,0.0185017,1399,407,8.73456,62.0168
182,617,8.75916,-61.5794,0.00484699,-0.00367881,-0.00154232,0.00511742,-0.00394924,-0.173574,0.0052491,0.0122714,1406,407,8.7591,61.5794
189,617,8.7345,-61.1333,0.00410209,-0.00226029,-0.00121683,0.00432687,-0.00248507,-0.182668,0.00398051,0.0120151,1413,407,8.73445,61.1333
196,617,8.72729,-60.6934,0.00355248,-0.000826469,-0.00080017,0.00369411,-0.000968104,-0.175191,0.00284097,0.0159521,1420,407,8.72731,60.6934
203,617,8.73499,-60.2226,0.00306376,0.000361218,-0.000396706,0.00312079,0.000304189,-0.142778,0.0019869,0.0161011,1427,407,8.73499,60.2226
210,617,8.75745,-59.6903,0.00242713,0.00136705,2.83626e-05,0.00242789,0.00136629,0.0267296,0.00140542,0.0153711,1434,407,8.75743,59.6903
217,617,8.75085,-59.1563,0.00188441,0.00215554,0.000447354,0.00248742,0.00155253,0.932516,0.00145079,0.0203118,1441,407,8.75087,59.1563
224,617,8.76233,-58.646,0.00151558,0.00288242,0.000847747,0.00328791,0.00111008,1.12464,0.00193135,0.0195889,1448,407,8.76237,58.646
231,617,8.76453,-58.1098,0.00120448,0.00352357,0.00131393,0.00411644,0.000611614,1.14693,0.00256484,0.0148791,1455,407,8.7645,58.1098
238,617,8.74731,-57.5671,0.00104982,0.00430787,0.00181191,0.00511539,0.000242309,1.15155,0.00333243,0.0170369,1462,407,8.74736,57.5671
245,617,8.74463,-57.0057,0.000894009,0.00504148,0.00221193,0.00599974,-6.42573e-05,1.16198,0.00402142,0.0148133,1469,407,8.74459,57.0057
252,617,8.69629,-56.3622,0.000785487,0.00593943,0.00269855,0.00709381,-0.000368888,1.16658,0.00485684,0.0158074,1476,407,8.69627,56.3622
259,617,8.67285,-55.7372,0.00077351,0.00715966,0.00340957,0.00863786,-0.000704698,1.16171,0.00600727,0.0121795,1483,407,8.67288,55.7372
266,617,8.64758,-55.0972,0.000701136,0.00821848,0.00410074,0.0100225,-0.0011029,1.15635,0.00707801,0.0144048,1490,407,8.6476,55.0972
273,617,8.6001,-54.4318,0.000661264,0.00955741,0.00489417,0.0117228,-0.00150415,1.15424,0.00836182,0.0147849,1497,407,8.60012,54.4318
280,617,8.53442,-53.785,0.000703554,0.0109422,0.00578429,0.0135473,-0.00190146,1.14764,0.00972747,0.0131591,1504,407,8.53442,53.785
287,617,8.48743,-53.111,0.000865689,0.0125897,0.00683335,0.0157309,-0.00227552,1.13991,0.0113222,0.0126886,1511,407,8.48743,53.111
294,617,8.44299,-52.4183,0.000933542,0.0141232,0.00778413,0.0177306,-0.00267381,1.13684,0.012805,0.0100827,1518,407,8.44299,52.4183
301,617,8.39124,-51.7252,0.00105311,0.0156046,0.00870888,0.019677,-0.00301932,1.13339,0.0142316,0.00808875,1525,407,8.39118,51.7252
308,617,8.33008,-51.0056,0.00136138,0.017368,0.00964453,0.0218974,-0.00316808,1.13173,0.0157608,0.00837577,1532,407,8.33011,51.0056
315,617,8.27332,-50.2965,0.00184712,0.0191099,0.0106942,0.0242214,-0.00326433,1.12493,0.0173384,0.0100972,1539,407,8.27328,50.2965
322,617,8.2052,-49.5627,0.00227257,0.0207629,0.0116443,0.026386,-0.00335047,1.12092,0.0188072,0.0162712,1546,407,8.20518,49.5628
329,617,8.15149,-48.7632,0.00286045,0.0222164,0.0125296,0.0283705,-0.00329362,1.11424,0.0201017,0.0222283,1553,407,8.15147,48.7632
336,617,8.21948,-47.7704,0.00352568,0.0240464,0.0134536,0.0307057,-0.00313359,1.11117,0.0215909,0.0447349,1560,407,8.21947,47.7704
343,617,7.95959,-47.3157,0,0,0,0,0,0,0,-1,1567,407,7.95955,47.3157
350,617,7.84424,-46.3758,0,0,0,0,0,0,0,-1,1574,407,7.84419,46.3758
357,617,7.94348,-45.1591,0,0,0,0,0,0,0,-1,1581,407,7.94349,45.1591
364,617,8.33643,-44.4505,0,0,0,0,0,0,0,-1,1588,407,8.33647,44.4505
371,617,2.60266,-6.20667,0,0,0,0,0,0,0,-1,1595,407,2.60261,6.20668
378,617,1.56921,-10.3601,0,0,0,0,0,0,0,-1,1602,407,1.56918,10.3601
385,617,1.74146,-10.3561,0,0,0,0,0,0,0,-1,1609,407,1.7414,10.3561
392,617,1.96936,-5.10449,0,0,0,0,0,0,0,-1,1616,407,1.96931,5.10451
399,617,2.48889,-5.81256,0,0,0,0,0,0,0,-1,1623,407,2.48888,5.81255
406,617,3.01465,-6.51642,0,0,0,0,0,0,0,-1,1630,407,3.01461,6.51643
413,617,3.6427,-7.2074,0,0,0,0,0,0,0,-1,1637,407,3.64274,7.20739
420,617,3.42737,-4.47391,0,0,0,0,0,0,0,-1,1644,407,3.42737,4.47391
427,617,0,0,0,0,0,0,0,0,0,-1,1651,407,0,0
434,617,0,0,0,0,0,0,0,0,0,-1,1658,407,0,0
441,617,0,0,0,0,0,0,0,0,0,-1,1665,407,0,0
448,617,0,0,0,0,0,0,0,0,0,-1,1672,407,0,0
455,617,0,0,0,0,0,0,0,0,0,-1,1679,407,0,0
462,617,0,0,0,0,0,0,0,0,0,-1,1686,407,0,0
469,617,0,0,0,0,0,0,0,0,0,-1,1693,407,0,0
476,617,0,0,0,0,0,0,0,0,0,-1,1700,407,0,0
483,617,0,0,0,0,0,0,0,0,0,-1,1707,407,0,0
490,617,0,0,0,0,0,0,0,0,0,-1,1714,407,0,0
497,617,0,0,0,0,0,0,0,0,0,-1,1721,407,0,0
504,617,0,0,0,0,0,0,0,0,0,-1,1728,407,0,0
511,617,0,0,0,0,0,0,0,0,0,-1,1735,407,0,0
518,617,0,0,0,0,0,0,0,0,0,-1,1742,407,0,0
525,617,0,0,0,0,0,0,0,0,0,-1,1749,407,0,0
532,617,0,0,0,0,0,0,0,0,0,-1,1756,407,0,0
539,617,0,0,0,0,0,0,0,0,0,-1,1763,407,0,0
546,617,0,0,0,0,0,0,0,0,0,-1,1770,407,0,0
553,617,0,0,0,0,0,0,0,0,0,-1,1777,407,0,0
560,617,0,0,0,0,0,0,0,0,0,-1,1784,407,0,0
567,617,0,0,0,0,0,0,0,0,0,-1,1791,407,0,0
574,617,0,0,0,0,0,0,0,0,0,-1,1798,407,0,0
581,617,0,0,0,0,0,0,0,0,0,-1,1805,407,0,0
588,617,0,0,0,0,0,0,0,0,0,-1,1812,407,0,0
595,617,0,0,0,0,0,0,0,0,0,-1,1819,407,0,0
602,617,0,0,0,0,0,0,0,0,0,-1,1826,407,0,0
609,617,0,0,0,0,0,0,0,0,0,-1,1833,407,0,0
616,617,0,0,0,0,0,0,0,0,0,-1,1840,407,0,0
623,617,0,0,0,0,0,0,0,0,0,-1,1847,407,0,0
630,617,0,0,0,0,0,0,0,0,0,-1,1854,407,0,0
637,617,0,0,0,0,0,0,0,0,0,-1,1861,407,0,0
644,617,0,0,0,0,0,0,0,0,0,-1,1868,407,0,0
651,617,0,0,0,0,0,0,0,0,0,-1,1875,407,0,0
658,617,0,0,0,0,0,0,0,0,0,-1,1882,407,0,0
665,617,0,0,0,0,0,0,0,0,0,-1,1889,407,0,0
672,617,0,0,0,0,0,0,0,0,0,-1,1896,407,0,0
679,617,0,0,0,0,0,0,0,0,0,-1,1903,407,0,0
686,617,0,0,0,0,0,0,0,0,0,-1,1910,407,0,0
693,617,0,0,0,0,0,0,0,0,0,-1,1917,407,0,0
700,617,0,0,0,0,0,0,0,0,0,-1,1924,407,0,0
707,617,0,0,0,0,0,0,0,0,0,-1,1931,407,0,0
714,617,0,0,0,0,0,0,0,0,0,-1,1938,407,0,0
721,617,0,0,0,0,0,0,0,0,0,-1,1945,407,0,0
728,617,0,0,0,0,0,0,0,0,0,-1,1952,407,0,0
735,617,0,0,0,0,0,0,0,0,0,-1,1959,407,0,0
742,617,0,0,0,0,0,0,0,0,0,-1,1966,407,0,0
749,617,0,0,0,0,0,0,0,0,0,-1,1973,407,0,0
756,617,0,0,0,0,0,0,0,0,0,-1,1980,407,0,0
763,617,0,0,0,0,0,0,0,0,0,-1,1987,407,0,0
770,617,0,0,0,0,0,0,0,0,0,-1,1994,407,0,0
777,617,0,0,0,0,0,0,0,0,0,-1,2001,407,0,0
784,617,0,0,0,0,0,0,0,0,0,-1,2008,407,0,0
791,617,0,0,0,0,0,0,0,0,0,-1,2015,407,0,0
798,617,0,0,0,0,0,0,0,0,0,-1,2022,407,0,0
805,617,0,0,0,0,0,0,0,0,0,-1,2029,407,0,0
812,617,0,0,0,0,0,0,0,0,0,-1,2036,407,0,0
-700,610,0,0,0,0,0,0,0,0,0,-1,524,414,0,0
-693,610,0,0,0,0,0,0,0,0,0,-1,531,414,0,0
-686,610,0,0,0,0,0,0,0,0,0,-1,538,414,0,0
-679,610,0,0,0,0,0,0,0,0,0,-1,545,414,0,0
-672,610,0,0,0,0,0,0,0,0,0,-1,552,414,0,0
-665,610,0,0,0,0,0,0,0,0,0,-1,559,414,0,0
-658,610,0,0,0,0,0,0,0,0,0,-1,566,414,0,0
-651,610,0,0,0,0,0,0,0,0,0,-1,573,414,0,0
-644,610,0,0,0,0,0,0,0,0,0,-1,580,414,0,0
-637,610,0,0,0,0,0,0,0,0,0,-1,587,414,0,0
-630,610,0,0,0,0,0,0,0,0,0,-1,594,414,0,0
-623,610,0,0,0,0,0,0,0,0,0,-1,601,414,0,0
-616,610,0,0,0,0,0,0,0,0,0,-1,608,414,0,0
-609,610,0,0,0,0,0,0,0,0,0,-1,615,414,0,0
-602,610,0,0,0,0,0,0,0,0,0,-1,622,414,0,0
-595,610,0,0,0,0,0,0,0,0,0,-1,629,414,0,0
-588,610,0,0,0,0,0,0,0,0,0,-1,636,414,0,0
-581,610,0,0,0,0,0,0,0,0,0,-1,643,414,0,0
-574,610,0,0,0,0,0,0,0,0,0,-1,650,414,0,0
-567,610,0,0,0,0,0,0,0,0,0,-1,657,414,0,0
-560,610,0,0,0,0,0,0,0,0,0,-1,664,414,0,0
-553,610,0,0,0,0,0,0,0,0,0,-1,671,414,0,0
-546,610,0,0,0,0,0,0,0,0,0,-1,678,414,0,0
-539,610,0,0,0,0,0,0,0,0,0,-1,685,414,0,0
-532,610,0,0,0,0,0,0,0,0,0,-1,692,414,0,0
-525,610,0,0,0,0,0,0,0,0,0,-1,699,414,0,0
-518,610,0,0,0,0,0,0,0,0,0,-1,706,414,0,0
-511,610,0,0,0,0,0,0,0,0,0,-1,713,414,0,0
-504,610,0,0,0,0,0,0,0,0,0,-1,720,414,0,0
-497,610,0,0,0,0,0,0,0,0,0,-1,727,414,0,0
-490,610,0,0,0,0,0,0,0,0,0,-1,734,414,0,0
-483,610,0,0,0,0,0,0,0,0,0,-1,741,414,0,0
-476,610,0,0,0,0,0,0,0,0,0,-1,748,414,0,0
-469,610,0,0,0,0,0,0,0,0,0,-1,755,414,0,0
-462,610,0,0,0,0,0,0,0,0,0,-1,762,414,0,0
-455,610,0,0,0,0,0,0,0,0,0,-1,769,414,0,0
-448,610,0,0,0,0,0,0,0,0,0,-1,776,414,0,0
-441,610,0,0,0,0,0,0,0,0,0,-1,783,414,0,0
-434,610,0,0,0,0,0,0,0,0,0,-1,790,414,0,0
-427,610,0,0,0,0,0,0,0,0,0,-1,797,414,0,0
-420,610,0,0,0,0,0,0,0,0,0,-1,804,414,0,0
-413,610,0,0,0,0,0,0,0,0,0,-1,811,414,0,0
-406,610,0,0,0,0,0,0,0,0,0,-1,818,414,0,0
-399,610,0,0,0,0,0,0,0,0,0,-1,825,414,0,0
-392,610,0,0,0,0,0,0,0,0,0,-1,832,414,0,0
-385,610,0,0,0,0,0,0,0,0,0,-1,839,414,0,0
-378,610,0,0,0,0,0,0,0,0,0,-1,846,414,0,0
-371,610,0,0,0,0,0,0,0,0,0,-1,853,414,0,0
-364,610,0,0,0,0,0,0,0,0,0,-1,860,414,0,0
-357,610,0,0,0,0,0,0,0,0,0,-1,867,414,0,0
-350,610,0,0,0,0,0,0,0,0,0,-1,874,414,0,0
-343,610,0,0,0,0,0,0,0,0,0,-1,881,414,0,0
-336,610,0,0,0,0,0,0,0,0,0,-1,888,414,0,0
-329,610,0,0,0,0,0,0,0,0,0,-1,895,414,0,0
-322,610,0,0,0,0,0,0,0,0,0,-1,902,414,0,0
-315,610,7.68475,-21.5402,0,0,0,0,0,0,0,-1,909,414,7.68475,21.5402
-308,610,3.97211,-23.4133,0,0,0,0,0,0,0,-1,916,414,3.9721,23.4133
-301,610,7.38513,-22.4166,0,0,0,0,0,0,0,-1,923,414,7.38516,22.4166
-294,610,6.77832,-24.1945,0,0,0,0,0,0,0,-1,930,414,6.77829,24.1946
-287,610,3.39276,-28.5804,0,0,0,0,0,0,0,-1,937,414,3.39276,28.5803
-280,610,8.8728,-35.4336,0,0,0,0,0,0,0,-1,944,414,8.87283,35.4336
-273,610,8.14722,-35.5264,0,0,0,0,0,0,0,-1,951,414,8.14723,35.5264
-266,610,7.38361,-35.6366,0,0,0,0,0,0,0,-1,958,414,7.38359,35.6366
-259,610,6.47375,-35.762,0,0,0,0,0,0,0,-1,965,414,6.47373,35.762
-252,610,5.65308,-35.8931,0,0,0,0,0,0,0,-1,972,414,5.65305,35.8931
-245,610,7.25165,-43.9884,0,0,0,0,0,0,0,-1,979,414,7.25167,43.9884
-238,610,7.02356,-44.9168,0,0,0,0,0,0,0,-1,986,414,7.02354,44.9168
-231,610,6.90161,-45.6746,-0.00230228,0.0270546,-0.0120285,0.0313536,-0.00660126,-1.22755,0.0234151,0.0492578,993,414,6.90164,45.6746
-224,610,6.74396,-46.611,-0.00207461,0.02429,-0.0110738,0.028324,-0.00610862,-1.22145,0.0212141,0.0316326,1000,414,6.74397,46.611
-217,610,6.75024,-47.5597,-0.00180024,0.0211093,-0.010111,0.0249334,-0.00562436,-1.20921,0.0187799,0.0213774,1007,414,6.75025,47.5597
-210,610,6.70013,-48.4112,-0.00157148,0.0181914,-0.0090986,0.0217423,-0.00512237,-1.19871,0.01647,0.0158239,1014,414,6.70015,48.4112
-203,610,6.66711,-49.1889,-0.00136576,0.0153755,-0.00811022,0.0186601,-0.0046503,-1.186,0.0142454,0.0179097,1021,414,6.66709,49.1889
-196,610,6.58691,-49.8978,-0.0011814,0.0128803,-0.00720183,0.0159142,-0.00421529,-1.17209,0.0122586,0.0163622,1028,414,6.58689,49.8978
-189,610,6.52185,-50.6194,-0.000986914,0.0109928,-0.00655185,0.0138802,-0.00387428,-1.15571,0.0107795,0.0129431,1035,414,6.52179,50.6194
-182,610,6.4834,-51.3311,-0.000783412,0.00924662,-0.00588416,0.011963,-0.00349974,-1.13831,0.00936252,0.014773,1042,414,6.48335,51.3311
-175,610,6.44641,-52.0299,-0.000598299,0.00756156,-0.00514289,0.0100463,-0.00308306,-1.12072,0.00792765,0.0162226,1049,414,6.44641,52.0299
-168,610,6.37585,-52.7336,-0.00055074,0.00628544,-0.00442965,0.00846246,-0.00272775,-1.114,0.00673753,0.0141575,1056,414,6.37585,52.7336
-161,610,6.33374,-53.4482,-0.000484469,0.00531804,-0.00377016,0.00717404,-0.00234046,-1.11334,0.00572461,0.0123869,1063,414,6.3337,53.4482
-154,610,6.28894,-54.0886,-0.000380512,0.00440674,-0.00309898,0.00592887,-0.00190264,-1.11424,0.0047165,0.0150429,1070,414,6.28893,54.0886
-147,610,6.25256,-54.6801,-0.000233861,0.00362371,-0.00248791,0.00484292,-0.00145307,-1.11514,0.00380657,0.0178873,1077,414,6.25259,54.6801
-140,610,6.24402,-55.3115,1.88303e-05,0.00281219,-0.0019343,0.00380136,-0.000970333,-1.09809,0.00291208,0.0139007,1084,414,6.24407,55.3115
-133,610,6.21533,-55.9096,0.000314362,0.00212577,-0.00142291,0.00290676,-0.000466636,-1.06882,0.00211065,0.0145861,1091,414,6.2153,55.9096
-126,610,6.18677,-56.4912,0.000644467,0.00153186,-0.000972404,0.00215701,1.93161e-05,-0.999434,0.00143161,0.0131135,1098,414,6.18675,56.4912
-119,610,6.14465,-57.0988,0.0011009,0.000943774,-0.000546246,0.0015742,0.000470469,-0.713978,0.000933057,0.0115388,1105,414,6.1446,57.0988
-112,610,6.15723,-57.6499,0.00165318,0.000535502,-0.0002485,0.00170594,0.000482742,-0.209208,0.00101538,0.0200366,1112,414,6.15726,57.6499
-105,610,6.14673,-58.1844,0.00221981,0.000282157,-6.24807e-05,0.00222182,0.000280145,-0.032201,0.00139723,0.0206397,1119,414,6.14673,58.1844
-98,610,6.14099,-58.7374,0.00285802,-8.39576e-06,8.79873e-05,0.00286072,-1.10941e-05,0.0306574,0.00191086,0.0141907,1126,414,6.14101,58.7374
-91,610,6.1554,-59.2863,0.00365167,-7.56545e-05,0.000148547,0.00365758,-8.15653e-05,0.0397695,0.00246603,0.0158408,1133,414,6.15541,59.2863
-84,610,6.1665,-59.7748,0.00461728,-0.000107025,0.000288446,0.00463483,-0.000124571,0.0607549,0.00313223,0.0161868,1140,414,6.16656,59.7748
-77,610,6.16296,-60.2827,0.00562249,-0.000568035,0.00036247,0.00564364,-0.000589186,0.0582869,0.00397341,0.013269,1147,414,6.16291,60.2827
-70,610,6.21106,-60.7546,0.00648629,-0.001234,0.000722142,0.00655326,-0.00130096,0.0924694,0.00486088,0.017085,1154,414,6.21101,60.7546
-63,610,6.27429,-61.1877,0.00737746,-0.00239935,0.0011584,0.00751284,-0.00253473,0.116338,0.00603363,0.0171752,1161,414,6.27431,61.1877
-56,610,6.31494,-61.6095,0.00806882,-0.00368521,0.00151882,0.00826191,-0.00387829,0.12645,0.00715984,0.0158011,1168,414,6.31494,61.6095
-49,610,6.32654,-62.0015,0.0086461,-0.00483676,0.00178418,0.00887821,-0.00506887,0.129364,0.00815185,0.0148846,1175,414,6.32648,62.0015
-42,610,6.38208,-62.3858,0.00934022,-0.00599001,0.00208551,0.00961887,-0.00626866,0.132824,0.0092404,0.016257,1182,414,6.38204,62.3858
-35,610,6.4364,-62.7433,0.00997874,-0.00699318,0.00222085,0.0102645,-0.00727898,0.127984,0.0101775,0.0166546,1189,414,6.43646,62.7434
-28,610,6.49329,-63.0634,0.0104177,-0.00914385,0.00222012,0.0106665,-0.00939266,0.111603,0.011589,0.0149006,1196,414,6.49323,63.0634
-21,610,6.57385,-63.3466,0.0107904,-0.0114534,0.00203467,0.010975,-0.011638,0.0904706,0.0130575,0.0125799,1203,414,6.57385,63.3466
-14,610,6.63684,-63.6138,0.0111547,-0.0131232,0.00165495,0.011267,-0.0132355,0.0677491,0.0141618,0.012699,1210,414,6.63687,63.6138
-7,610,6.71887,-63.8371,0.0112689,-0.0157602,0.00114874,0.0113176,-0.0158089,0.0423981,0.0157329,0.0150766,1217,414,6.71882,63.8371
0,610,6.7821,-64.0988,0.0112912,-0.0186422,0.000843253,0.0113149,-0.0186659,0.0281413,0.017482,0.0136648,1224,414,6.78207,64.0988
7,610,6.88611,-64.4133,0.0112927,-0.0210713,0.000527425,0.0113013,-0.0210799,0.0162909,0.0189773,0.0173687,1231,414,6.88608,64.4133
14,610,7.09705,-64.5408,0.0111981,-0.0233435,0.000273231,0.0112002,-0.0233457,0.00790955,0.0203518,0.0248922,1238,414,7.0971,64.5408
21,610,7.16162,-64.6436,0.0112056,-0.0253646,-2.59534e-05,0.0112056,-0.0253646,-0.000709688,0.0216349,0.0241975,1245,414,7.16168,64.6436
28,610,7.13037,-64.8252,0.0112083,-0.0269337,-0.000131539,0.0112087,-0.0269342,-0.00344861,0.0226371,0.0201329,1252,414,7.13042,64.8252
35,610,7.30334,-64.957,0.0111064,-0.0278693,-0.000368806,0.0111099,-0.0278728,-0.00946132,0.0231899,0.0224823,1259,414,7.3033,64.957
42,610,7.33264,-65.0043,0.0111039,-0.0276563,-0.000532585,0.0111112,-0.0276636,-0.0137371,0.0230565,0.0218431,1266,414,7.33262,65.0043
49,610,7.38708,-65.15,0.0112641,-0.0264848,-0.000695486,0.011277,-0.0264976,-0.0184156,0.0223915,0.0231334,1273,414,7.38713,65.15
56,610,7.51111,-65.1529,0.0115042,-0.0248161,-0.000890467,0.011526,-0.0248379,-0.0244974,0.0214585,0.022506,1280,414,7.51113,65.1528
63,610,7.6178,-65.1997,0.0117061,-0.0228533,-0.00147844,0.0117692,-0.0229164,-0.0426758,0.0203676,0.0301648,1287,414,7.61782,65.1997
70,610,7.78918,-65.183,0.0119021,-0.020767,-0.00223597,0.0120544,-0.0209193,-0.0680201,0.0192654,0.043143,1294,414,7.78917,65.183
77,610,7.99255,-65.2203,0,0,0,0,0,0,0,-1,1301,414,7.99249,65.2203
84,610,8.16382,-64.969,0.0127514,-0.0155669,-0.00359307,0.0132002,-0.0160157,-0.124259,0.0168939,0.0419351,1308,414,8.16383,64.969
91,610,8.17908,-65.0716,0.0127598,-0.0153005,-0.00436194,0.0134222,-0.0159629,-0.150712,0.0169866,0.0296635,1315,414,8.17906,65.0716
98,610,8.32959,-64.9896,0.0126971,-0.0143982,-0.00492317,0.0135639,-0.015265,-0.17428,0.016654,0.0263675,1322,414,8.32962,64.9896
105,610,8.37793,-64.7671,0.0127192,-0.0140016,-0.00543455,0.0137822,-0.0150646,-0.193162,0.0166602,0.0221778,1329,414,8.37791,64.7671
112,610,8.43323,-64.5816,0.0125076,-0.0149275,-0.00556019,0.0135917,-0.0160115,-0.192548,0.0171104,0.014442,1336,414,8.43321,64.5816
119,610,8.51367,-64.4197,0.0122873,-0.0156658,-0.00543743,0.0133078,-0.0166863,-0.185511,0.0173536,0.0202154,1343,414,8.51366,64.4197
126,610,8.60596,-64.1885,0.0120312,-0.0160114,-0.00530078,0.0129998,-0.01698,-0.180721,0.0173596,0.0289919,1350,414,8.60601,64.1885
133,610,8.68079,-63.9679,0.0116852,-0.0159698,-0.00507091,0.0125856,-0.0168703,-0.175749,0.0170663,0.0225012,1357,414,8.68081,63.9679
140,610,8.82324,-63.7029,0.0112926,-0.015513,-0.00469291,0.0120905,-0.0163108,-0.168401,0.0164577,0.0190805,1364,414,8.8233,63.7029
147,610,8.85022,-63.3116,0.010822,-0.0150223,-0.00443179,0.0115609,-0.0157612,-0.165195,0.0158364,0.0207914,1371,414,8.85022,63.3116
154,610,8.8811,-62.9688,0.0102794,-0.0141255,-0.00425116,0.0109987,-0.0148449,-0.167618,0.0149758,0.0250551,1378,414,8.88112,62.9688
161,610,9.00049,-62.6872,0.00965032,-0.0126872,-0.00407145,0.0103693,-0.0134062,-0.174784,0.013764,0.0287496,1385,414,9.00054,62.6872
168,610,9.07141,-62.3519,0.00898079,-0.0109042,-0.00370339,0.00964812,-0.0115715,-0.17828,0.0122679,0.0280423,1392,414,9.07139,62.3519
175,610,9.11243,-61.9796,0.00832652,-0.00914112,-0.00340055,0.00896518,-0.00977978,-0.185647,0.0108258,0.023166,1399,414,9.11249,61.9796
182,610,9.16138,-61.5632,0.00752468,-0.00755091,-0.00319573,0.00817413,-0.00820036,-0.200495,0.00945382,0.0172525,1406,414,9.16134,61.5632
189,610,9.18225,-61.0926,0.00659884,-0.0057815,-0.0028649,0.00722965,-0.00641232,-0.21673,0.00788091,0.0154466,1413,414,9.18222,61.0926
196,610,9.20593,-60.6525,0.00592719,-0.00401413,-0.00241256,0.00648174,-0.00456868,-0.225933,0.00641175,0.0153381,1420,414,9.20592,60.6525
203,610,9.21887,-60.1908,0.00536662,-0.00256276,-0.00195518,0.00582251,-0.00301864,-0.229075,0.0051893,0.015587,1427,414,9.21884,60.1908
210,610,9.23718,-59.7238,0.00453548,-0.00124946,-0.00142041,0.00486542,-0.0015794,-0.228239,0.00387879,0.0114816,1434,414,9.23713,59.7238
217,610,9.28613,-59.1473,0.00376602,-0.000232714,-0.000846955,0.00393802,-0.000404706,-0.200347,0.00277012,0.0163994,1441,414,9.28613,59.1473
224,610,9.31177,-58.6287,0.00320683,0.000683902,-0.000316274,0.00324587,0.000644858,-0.122828,0.0019842,0.0195064,1448,414,9.31172,58.6287
231,610,9.31982,-58.1076,0.00264368,0.00149883,0.000260749,0.00270027,0.00144224,0.213715,0.00156021,0.0164957,1455,414,9.31976,58.1076
238,610,9.29663,-57.5399,0.00224672,0.00229496,0.000706718,0.00297797,0.00156371,0.802454,0.00172005,0.0125082,1462,414,9.29664,57.5399
245,610,9.32141,-56.952,0.00196851,0.00287187,0.00106283,0.00357502,0.00126536,0.986326,0.00209318,0.0135479,1469,414,9.32143,56.952
252,610,9.29712,-56.339,0.00167859,0.00354849,0.00145635,0.00434417,0.00088291,1.07076,0.00265127,0.015078,1476,414,9.29706,56.3389
259,610,9.28809,-55.7137,0.00142979,0.00439168,0.00198339,0.00538602,0.000435451,1.10608,0.00345469,0.0126205,1483,414,9.28809,55.7137
266,610,9.24719,-55.0697,0.0012125,0.00519588,0.00252109,0.00641709,-8.71089e-06,1.11971,0.00428096,0.0132509,1490,414,9.24722,55.0697
273,610,9.2124,-54.4146,0.00104214,0.00624072,0.00313858,0.0077166,-0.000433738,1.13124,0.0052949,0.010816,1497,414,9.21246,54.4146
280,610,9.17358,-53.7526,0.000949064,0.00734685,0.00385732,0.00915913,-0.000863214,1.13158,0.00641322,0.00980831,1504,414,9.17357,53.7526
287,610,9.12488,-53.0681,0.000986401,0.00865739,0.00470205,0.0108899,-0.00124608,1.12752,0.00770891,0.0128108,1511,414,9.12484,53.0681
294,610,9.10168,-52.3882,0.000974855,0.00990488,0.00547523,0.0125049,-0.00162515,1.12746,0.00892775,0.0111979,1518,414,9.1017,52.3883
301,610,9.09656,-51.7393,0.00101591,0.0111431,0.00623434,0.0141111,-0.00195212,1.12647,0.0101211,0.0105595,1525,414,9.09651,51.7393
308,610,9.03784,-51.0275,0.00121145,0.0126382,0.00701135,0.0159692,-0.00211961,1.12727,0.0114185,0.0124917,1532,414,9.03784,51.0275
315,610,8.94727,-50.3158,0.00153599,0.0141082,0.00788091,0.017903,-0.00225876,1.12205,0.0127551,0.013235,1539,414,8.94731,50.3158
322,610,8.88525,-49.5601,0.0017835,0.015536,0.00866115,0.0197186,-0.0023991,1.12091,0.0140141,0.0130592,1546,414,8.88524,49.5601
329,610,8.80908,-48.7949,0.0021423,0.0167667,0.00941047,0.021372,-0.00246292,1.11569,0.0151359,0.0127606,1553,414,8.80907,48.7949
336,610,8.76904,-48.0471,0.00256622,0.0182779,0.0102141,0.0233077,-0.00246364,1.11321,0.0164214,0.0143879,1560,414,8.769,48.0471
343,610,8.70825,-47.282,0.00302503,0.0195498,0.0109212,0.0249819,-0.00240713,1.10924,0.0175122,0.0220323,1567,414,8.70831,47.282
350,610,8.63123,-46.4146,0.00372661,0.0211512,0.0119494,0.0272272,-0.00234938,1.10039,0.0189831,0.0311641,1574,414,8.63122,46.4146
357,610,8.65247,-45.39,0.00433803,0.0226121,0.0130178,0.0293794,-0.00242931,1.09139,0.0204442,0.0378479,1581,414,8.65248,45.39
364,610,8.8269,-44.6129,0.00480318,0.0238313,0.0138358,0.0311085,-0.00247403,1.08659,0.0216109,0.044823,1588,414,8.82691,44.6129
371,610,8.875,-43.5054,0,0,0,0,0,0,0,-1,1595,414,8.87504,43.5054
378,610,8.6322,-43.2161,0,0,0,0,0,0,0,-1,1602,414,8.63226,43.2161
385,610,2.57104,-10.3878,0,0,0,0,0,0,0,-1,1609,414,2.57109,10.3878
392,610,1.99744,-1.83582,0,0,0,0,0,0,0,-1,1616,414,1.99741,1.8358
399,610,2.77136,-2.60333,0,0,0,0,0,0,0,-1,1623,414,2.77133,2.60332
406,610,3.54529,-3.37085,0,0,0,0,0,0,0,-1,1630,414,3.54525,3.37084
413,610,3.01929,-3.20306,0,0,0,0,0,0,0,-1,1637,414,3.01929,3.20306
420,610,4.78149,-3.64041,0,0,0,0,0,0,0,-1,1644,414,4.78152,3.64042
427,610,8.85168,-23.3853,0,0,0,0,0,0,0,-1,1651,414,8.85174,23.3853
434,610,8.73706,-22.6227,0,0,0,0,0,0,0,-1,1658,414,8.73703,22.6227
441,610,0,0,0,0,0,0,0,0,0,-1,1665,414,0,0
448,610,0,0,0,0,0,0,0,0,0,-1,1672,414,0,0
455,610,0,0,0,0,0,0,0,0,0,-1,1679,414,0,0
462,610,0,0,0,0,0,0,0,0,0,-1,1686,414,0,0
469,610,0,0,0,0,0,0,0,0,0,-1,1693,414,0,0
476,610,0,0,0,0,0,0,0,0,0,-1,1700,414,0,0
483,610,0,0,0,0,0,0,0,0,0,-1,1707,414,0,0
490,610,0,0,0,0,0,0,0,0,0,-1,1714,414,0,0
497,610,0,0,0,0,0,0,0,0,0,-1,1721,414,0,0
504,610,0,0,0,0,0,0,0,0,0,-1,1728,414,0,0
511,610,0,0,0,0,0,0,0,0,0,-1,1735,414,0,0
518,610,0,0,0,0,0,0,0,0,0,-1,1742,414,0,0
525,610,0,0,0,0,0,0,0,0,0,-1,1749,414,0,0
532,610,0,0,0,0,0,0,0,0,0,-1,1756,414,0,0
539,610,0,0,0,0,0,0,0,0,0,-1,1763,414,0,0
546,610,0,0,0,0,0,0,0,0,0,-1,1770,414,0,0
553,610,0,0,0,0,0,0,0,0,0,-1,1777,414,0,0
560,610,0,0,0,0,0,0,0,0,0,-1,1784,414,0,0
567,610,0,0,0,0,0,0,0,0,0,-1,1791,414,0,0
574,610,0,0,0,0,0,0,0,0,0,-1,1798,414,0,0
581,610,0,0,0,0,0,0,0,0,0,-1,1805,414,0,0
588,610,0,0,0,0,0,0,0,0,0,-1,1812,414,0,0
595,610,0,0,0,0,0,0,0,0,0,-1,1819,414,0,0
602,610,0,0,0,0,0,0,0,0,0,-1,1826,414,0,0
609,610,0,0,0,0,0,0,0,0,0,-1,1833,414,0,0
616,610,0,0,0,0,0,0,0,0,0,-1,1840,414,0,0
623,610,0,0,0,0,0,0,0,0,0,-1,1847,414,0,0
630,610,0,0,0,0,0,0,0,0,0,-1,1854,414,0,0
637,610,0,0,0,0,0,0,0,0,0,-1,1861,414,0,0
644,610,0,0,0,0,0,0,0,0,0,-1,1868,414,0,0
651,610,0,0,0,0,0,0,0,0,0,-1,1875,414,0,0
658,610,0,0,0,0,0,0,0,0,0,-1,1882,414,0,0
665,610,0,0,0,0,0,0,0,0,0,-1,1889,414,0,0
672,610,0,0,0,0,0,0,0,0,0,-1,1896,414,0,0
679,610,0,0,0,0,0,0,0,0,0,-1,1903,414,0,0
686,610,0,0,0,0,0,0,0,0,0,-1,1910,414,0,0
693,610,0,0,0,0,0,0,0,0,0,-1,1917,414,0,0
700,610,0,0,0,0,0,0,0,0,0,-1,1924,414,0,0
707,610,0,0,0,0,0,0,0,0,0,-1,1931,414,0,0
714,610,0,0,0,0,0,0,0,0,0,-1,1938,414,0,0
721,610,0,0,0,0,0,0,0,0,0,-1,1945,414,0,0
728,610,0,0,0,0,0,0,0,0,0,-1,1952,414,0,0
735,610,0,0,0,0,0,0,0,0,0,-1,1959,414,0,0
742,610,0,0,0,0,0,0,0,0,0,-1,1966,414,0,0
749,610,0,0,0,0,0,0,0,0,0,-1,1973,414,0,0
756,610,0,0,0,0,0,0,0,0,0,-1,1980,414,0,0
763,610,0,0,0,0,0,0,0,0,0,-1,1987,414,0,0
770,610,0,0,0,0,0,0,0,0,0,-1,1994,414,0,0
777,610,0,0,0,0,0,0,0,0,0,-1,2001,414,0,0
784,610,0,0,0,0,0,0,0,0,0,-1,2008,414,0,0
791,610,0,0,0,0,0,0,0,0,0,-1,2015,414,0,0
798,610,0,0,0,0,0,0,0,0,0,-1,2022,414,0,0
805,610,0,0,0,0,0,0,0,0,0,-1,2029,414,0,0
812,610,0,0,0,0,0,0,0,0,0,-1,2036,414,0,0
-700,603,0,0,0,0,0,0,0,0,0,-1,524,421,0,0
-693,603,0,0,0,0,0,0,0,0,0,-1,531,421,0,0
-686,603,0,0,0,0,0,0,0,0,0,-1,538,421,0,0
-679,603,0,0,0,0,0,0,0,0,0,-1,545,421,0,0
-672,603,0,0,0,0,0,0,0,0,0,-1,552,421,0,0
-665,603,0,0,0,0,0,0,0,0,0,-1,559,421,0,0
-658,603,0,0,0,0,0,0,0,0,0,-1,566,421,0,0
-651,603,0,0,0,0,0,0,0,0,0,-1,573,421,0,0
-644,603,0,0,0,0,0,0,0,0,0,-1,580,421,0,0
-637,603,0,0,0,0,0,0,0,0,0,-1,587,421,0,0
-630,603,0,0,0,0,0,0,0,0,0,-1,594,421,0,0
-623,603,0,0,0,0,0,0,0,0,0,-1,601,421,0,0
-616,603,0,0,0,0,0,0,0,0,0,-1,608,421,0,0
-609,603,0,0,0,0,0,0,0,0,0,-1,615,421,0,0
-602,603,0,0,0,0,0,0,0,0,0,-1,622,421,0,0
-595,603,0,0,0,0,0,0,0,0,0,-1,629,421,0,0
-588,603,0,0,0,0,0,0,0,0,0,-1,636,421,0,0
-581,603,0,0,0,0,0,0,0,0,0,-1,643,421,0,0
-574,603,0,0,0,0,0,0,0,0,0,-1,650,421,0,0
-567,603,0,0,0,0,0,0,0,0,0,-1,657,421,0,0
-560,603,0,0,0,0,0,0,0,0,0,-1,664,421,0,0
-553,603,0,0,0,0,0,0,0,0,0,-1,671,421,0,0
-546,603,0,0,0,0,0,0,0,0,0,-1,678,421,0,0
-539,603,0,0,0,0,0,0,0,0,0,-1,685,421,0,0
-532,603,0,0,0,0,0,0,0,0,0,-1,692,421,0,0
-525,603,0,0,0,0,0,0,0,0,0,-1,699,421,0,0
-518,603,0,0,0,0,0,0,0,0,0,-1,706,421,0,0
-511,603,0,0,0,0,0,0,0,0,0,-1,713,421,0,0
-504,603,0,0,0,0,0,0,0,0,0,-1,720,421,0,0
-497,603,0,0,0,0,0,0,0,0,0,-1,727,421,0,0
-490,603,0,0,0,0,0,0,0,0,0,-1,734,421,0,0
-483,603,0,0,0,0,0,0,0,0,0,-1,741,421,0,0
-476,603,0,0,0,0,0,0,0,0,0,-1,748,421,0,0
-469,603,0,0,0,0,0,0,0,0,0,-1,755,421,0,0
-462,603,0,0,0,0,0,0,0,0,0,-1,762,421,0,0
-455,603,0,0,0,0,0,0,0,0,0,-1,769,421,0,0
-448,603,0,0,0,0,0,0,0,0,0,-1,776,421,0,0
-441,603,0,0,0,0,0,0,0,0,0,-1,783,421,0,0
-434,603,0,0,0,0,0,0,0,0,0,-1,790,421,0,0
-427,603,0,0,0,0,0,0,0,0,0,-1,797,421,0,0
-420,603,0,0,0,0,0,0,0,0,0,-1,804,421,0,0
-413,603,0,0,0,0,0,0,0,0,0,-1,811,421,0,0
-406,603,0,0,0,0,0,0,0,0,0,-1,818,421,0,0
-399,603,0,0,0,0,0,0,0,0,0,-1,825,421,0,0
-392,603,0,0,0,0,0,0,0,0,0,-1,832,421,0,0
-385,603,0,0,0,0,0,0,0,0,0,-1,839,421,0,0
-378,603,0,0,0,0,0,0,0,0,0,-1,846,421,0,0
-371,603,0,0,0,0,0,0,0,0,0,-1,853,421,0,0
-364,603,0,0,0,0,0,0,0,0,0,-1,860,421,0,0
-357,603,0,0,0,0,0,0,0,0,0,-1,867,421,0,0
-350,603,0,0,0,0,0,0,0,0,0,-1,874,421,0,0
-343,603,0,0,0,0,0,0,0,0,0,-1,881,421,0,0
-336,603,0,0,0,0,0,0,0,0,0,-1,888,421,0,0
-329,603,4.09686,-17.9702,0,0,0,0,0,0,0,-1,895,421,4.09687,17.9702
-322,603,8.83179,-28.7376,0,0,0,0,0,0,0,-1,902,421,8.83179,28.7376
-315,603,5.99744,-20.4501,0,0,0,0,0,0,0,-1,909,421,5.99745,20.4501
-308,603,5.92249,-20.778,0,0,0,0,0,0,0,-1,916,421,5.92248,20.778
-301,603,2.72424,-20.9059,0,0,0,0,0,0,0,-1,923,421,2.72424,20.9059
-294,603,2.41553,-20.6767,0,0,0,0,0,0,0,-1,930,421,2.41554,20.6767
-287,603,1.91766,-21.2242,0,0,0,0,0,0,0,-1,937,421,1.91767,21.2242
-280,603,2.36121,-27.3314,0,0,0,0,0,0,0,-1,944,421,2.36119,27.3314
-273,603,7.96613,-34.8225,0,0,0,0,0,0,0,-1,951,421,7.96613,34.8225
-266,603,7.18787,-34.9736,0,0,0,0,0,0,0,-1,958,421,7.18788,34.9736
-259,603,5.44666,-36.8901,0,0,0,0,0,0,0,-1,965,421,5.44664,36.8901
-252,603,6.34375,-43.4662,0,0,0,0,0,0,0,-1,972,421,6.34373,43.4663
-245,603,6.37396,-44.2266,-0.00119679,0.0253774,-0.0117401,0.0298209,-0.00564034,-1.20897,0.0220031,0.041012,979,421,6.37397,44.2266
-238,603,6.28662,-45.1578,-0.00156653,0.0230792,-0.0106468,0.0270415,-0.00552882,-1.21452,0.0201254,0.0235479,986,421,6.28665,45.1578
-231,603,6.16034,-46.0503,-0.00173768,0.0207617,-0.00951618,0.0242468,-0.00522275,-1.21974,0.0181576,0.0148616,993,421,6.16037,46.0503
-224,603,6.09521,-46.8682,-0.00156418,0.018615,-0.00868238,0.0218364,-0.00478563,-1.21551,0.0163874,0.0162905,1000,421,6.09521,46.8682
-217,603,6.05597,-47.6275,-0.00131826,0.0160469,-0.0078379,0.0190613,-0.00433268,-1.20364,0.0143712,0.014998,1007,421,6.05595,47.6275
-210,603,6.00751,-48.4095,-0.00105991,0.0136163,-0.00695783,0.0163905,-0.00383413,-1.19139,0.0124042,0.0118919,1014,421,6.00753,48.4095
-203,603,5.98621,-49.2321,-0.00079579,0.0112717,-0.00609177,0.0138121,-0.00333617,-1.17571,0.0104983,0.0171114,1021,421,5.98622,49.2321
-196,603,5.95776,-49.9771,-0.00055871,0.0091069,-0.0052776,0.0114301,-0.00288195,-1.15611,0.00874058,0.0200975,1028,421,5.95781,49.9771
-189,603,5.89392,-50.6181,-0.000311736,0.00730109,-0.00464603,0.00950087,-0.00251152,-1.12859,0.00731622,0.0172807,1035,421,5.89398,50.6181
-182,603,5.81909,-51.2998,-4.6929e-05,0.00568784,-0.00398454,0.00772948,-0.00208856,-1.09729,0.00597217,0.0129556,1042,421,5.81908,51.2998
-175,603,5.78662,-51.9976,0.000207878,0.00412833,-0.00328345,0.00599218,-0.00165597,-1.0545,0.00464621,0.0131705,1049,421,5.78661,51.9976
-168,603,5.71838,-52.692,0.00032742,0.00294806,-0.0026138,0.00456159,-0.00128611,-1.01775,0.00354832,0.0158761,1056,421,5.71835,52.692
-161,603,5.68164,-53.3982,0.000451533,0.00204677,-0.00198668,0.00338997,-0.000891669,-0.97629,0.00260851,0.0150197,1063,421,5.68167,53.3982
-154,603,5.66162,-54.0339,0.00061422,0.00125095,-0.00135434,0.00232384,-0.000458675,-0.900836,0.0017226,0.0133982,1070,421,5.66159,54.0339
-147,603,5.6416,-54.6388,0.000829906,0.000622485,-0.000789429,0.00152241,-7.00164e-05,-0.720085,0.00103906,0.0147245,1077,421,5.64166,54.6388
-140,603,5.66187,-55.254,0.0011219,-8.66818e-06,-0.00027184,0.00118386,-7.06348e-05,-0.224123,0.00081381,0.0130641,1084,421,5.66186,55.254
-133,603,5.62036,-55.86,0.00144526,-0.000524641,0.000190887,0.00146359,-0.000542967,0.0957151,0.00119844,0.0131085,1091,421,5.62032,55.8601
-126,603,5.60071,-56.4422,0.00184222,-0.00089016,0.000559224,0.00195224,-0.00100018,0.194262,0.00173387,0.0117954,1098,421,5.60073,56.4422
-119,603,5.61072,-57.0476,0.00244154,-0.00122123,0.000866203,0.00263606,-0.00141574,0.220899,0.00237441,0.0123549,1105,421,5.6107,57.0476
-112,603,5.61646,-57.6369,0.00311698,-0.00140759,0.00104888,0.0033483,-0.00163891,0.217068,0.00293521,0.0175604,1112,421,5.61645,57.6369
-105,603,5.61353,-58.1833,0.00377817,-0.00145247,0.00114138,0.00401638,-0.00169068,0.205752,0.00338494,0.0179521,1119,421,5.61356,58.1833
-98,603,5.61523,-58.6891,0.00453754,-0.00162799,0.00120714,0.00476546,-0.00185591,0.186612,0.00394395,0.0152275,1126,421,5.61523,58.6891
-91,603,5.63477,-59.2189,0.00553444,-0.00148904,0.00113874,0.00571445,-0.00166905,0.156784,0.00447106,0.0113722,1133,421,5.63482,59.2189
-84,603,5.68164,-59.7487,0.00679661,-0.00123256,0.00118286,0.00696724,-0.00140319,0.143266,0.00517634,0.012658,1140,421,5.68168,59.7487
-77,603,5.74634,-60.2833,0.0081658,-0.00180667,0.0011007,0.00828584,-0.00192671,0.108631,0.00626567,0.0181705,1147,421,5.74632,60.2833
-70,603,5.79736,-60.8239,0,0,0,0,0,0,0,-1,1154,421,5.79732,60.8239
-63,603,5.73206,-61.0641,0,0,0,0,0,0,0,-1,1161,421,5.73206,61.0642
-56,603,5.84705,-61.5354,0,0,0,0,0,0,0,-1,1168,421,5.84707,61.5354
-49,603,5.91821,-61.9671,0,0,0,0,0,0,0,-1,1175,421,5.9182,61.9671
-42,603,6.00281,-62.334,0,0,0,0,0,0,0,-1,1182,421,6.00286,62.334
-35,603,5.97595,-62.6043,0.0133678,-0.00971537,0.0032428,0.0138147,-0.0101623,0.136953,0.0138966,0.0458533,1189,421,5.97591,62.6043
-28,603,6.08313,-62.8923,0.013806,-0.0124901,0.00318835,0.0141871,-0.0128712,0.118952,0.0156283,0.0319834,1196,421,6.08309,62.8923
-21,603,6.18359,-63.1996,0.0141472,-0.0155338,0.00288365,0.0144247,-0.0158114,0.0959591,0.0174629,0.026553,1203,421,6.18357,63.1996
-14,603,6.31311,-63.4718,0.0144883,-0.0177579,0.00227458,0.0146479,-0.0179176,0.0700757,0.0188332,0.0231264,1210,421,6.31317,63.4718
-7,603,6.45471,-63.7433,0.0144156,-0.021347,0.00148065,0.0144768,-0.0214082,0.041308,0.0208466,0.0273329,1217,421,6.45474,63.7433
0,603,6.49622,-64.078,0.0141898,-0.0253392,0.000992261,0.0142147,-0.0253641,0.025081,0.0231511,0.0371467,1224,421,6.49623,64.078
7,603,6.53284,-64.3663,0,0,0,0,0,0,0,-1,1231,421,6.53278,64.3663
14,603,6.87012,-64.0857,0,0,0,0,0,0,0,-1,1238,421,6.87007,64.0857
21,603,6.97363,-63.9566,0.0135479,-0.0350096,-0.000389652,0.013551,-0.0350127,-0.00802388,0.0289365,0.0471486,1245,421,6.97358,63.9566
28,603,7.04895,-64.2181,0.0133421,-0.0373514,-0.00057187,0.0133486,-0.0373579,-0.011279,0.0303496,0.0479699,1252,421,7.049,64.2181
35,603,7.32581,-64.1936,0,0,0,0,0,0,0,-1,1259,421,7.32584,64.1936
42,603,7.29565,-64.3529,0.0129812,-0.0386027,-0.00110679,0.0130049,-0.0386264,-0.0214431,0.0310087,0.047227,1266,421,7.2956,64.3529
49,603,7.23376,-64.5258,0.0131815,-0.0370477,-0.00129463,0.0132149,-0.0370811,-0.0257515,0.0301084,0.0258518,1273,421,7.23381,64.5258
56,603,7.1886,-64.7211,0,0,0,0,0,0,0,-1,1280,421,7.18855,64.7211
63,603,7.50781,-65.0894,0,0,0,0,0,0,0,-1,1287,421,7.50781,65.0895
70,603,7.77295,-65.015,0,0,0,0,0,0,0,-1,1294,421,7.77293,65.015
77,603,7.78809,-64.1618,0,0,0,0,0,0,0,-1,1301,421,7.78815,64.1618
84,603,8.33679,-64.8484,0,0,0,0,0,0,0,-1,1308,421,8.33684,64.8484
91,603,8.31909,-65.1204,0,0,0,0,0,0,0,-1,1315,421,8.31911,65.1204
98,603,8.62488,-65.25,0,0,0,0,0,0,0,-1,1322,421,8.62482,65.25
105,603,8.63098,-64.8969,0,0,0,0,0,0,0,-1,1329,421,8.63096,64.8969
112,603,8.82581,-64.2723,0.0156749,-0.0207362,-0.00798008,0.0173471,-0.0224083,-0.206555,0.0230147,0.0462789,1336,421,8.82582,64.2723
119,603,8.94397,-64.0947,0.0154089,-0.0218324,-0.00781851,0.0169837,-0.0234072,-0.198765,0.0234178,0.0472809,1343,421,8.94401,64.0947
126,603,8.93933,-64.0768,0,0,0,0,0,0,0,-1,1350,421,8.93928,64.0768
133,603,9.12915,-63.6333,0.0148404,-0.0223237,-0.00732453,0.0162319,-0.0237151,-0.187736,0.0231979,0.0471157,1357,421,9.12915,63.6333
140,603,9.29919,-63.2685,0.0144234,-0.0217213,-0.00685125,0.0156785,-0.0229764,-0.181181,0.0224496,0.0422878,1364,421,9.29914,63.2685
147,603,9.18579,-62.9969,0.0139015,-0.0210505,-0.00652405,0.0150796,-0.0222286,-0.178646,0.0216713,0.0341698,1371,421,9.1858,62.9969
154,603,9.11792,-62.8733,0.0132994,-0.0198383,-0.00631038,0.0144604,-0.0209993,-0.181949,0.0205884,0.0390759,1378,421,9.11796,62.8733
161,603,9.36084,-62.5564,0.0125965,-0.0179604,-0.00611309,0.0137741,-0.019138,-0.190301,0.0190857,0.0357827,1385,421,9.3608,62.5564
168,603,9.44824,-62.2,0.0118681,-0.0156357,-0.0056675,0.0129901,-0.0167578,-0.195457,0.0172208,0.036383,1392,421,9.44819,62.2
175,603,9.72388,-61.8828,0.0111501,-0.0133831,-0.00530581,0.0122484,-0.0144814,-0.20412,0.0154504,0.0409869,1399,421,9.72391,61.8828
182,603,9.83289,-61.4658,0.0102217,-0.0114006,-0.00506305,0.0113486,-0.0125274,-0.218991,0.0137904,0.0473527,1406,421,9.83293,61.4658
189,603,9.75647,-60.9692,0.0091076,-0.00922499,-0.00467042,0.0102289,-0.0103463,-0.235617,0.0118791,0.0403494,1413,421,9.75649,60.9692
196,603,9.69751,-60.5054,0.00830999,-0.00709276,-0.00412231,0.00934386,-0.00812664,-0.245732,0.0100948,0.0292886,1420,421,9.69751,60.5054
203,603,9.72607,-60.1133,0.00768079,-0.00538272,-0.00355853,0.00858724,-0.00628917,-0.249423,0.00862299,0.0171556,1427,421,9.72606,60.1132
210,603,9.76111,-59.7449,0.00664142,-0.00374902,-0.00286104,0.00737713,-0.00448472,-0.251693,0.00691597,0.0139962,1434,421,9.76106,59.7449
217,603,9.75085,-59.1646,0.00561995,-0.00253122,-0.00211992,0.00613833,-0.00304959,-0.239819,0.00540364,0.0140114,1441,421,9.75088,59.1646
224,603,9.83667,-58.6138,0.00486278,-0.00139057,-0.0014562,0.00518525,-0.00171304,-0.21793,0.00414749,0.0176157,1448,421,9.83663,58.6138
231,603,9.87268,-58.0731,0.00403281,-0.000363852,-0.000754308,0.00415862,-0.000489664,-0.16527,0.00294921,0.0158601,1455,421,9.87272,58.0731
238,603,9.88025,-57.5147,0.00340672,0.000520955,-0.000338177,0.00344582,0.000481854,-0.11511,0.00215463,0.0118874,1462,421,9.88019,57.5147
245,603,9.89233,-56.9478,0.0030125,0.000933482,-2.08466e-05,0.00301271,0.000933273,-0.0100258,0.00178085,0.0122529,1469,421,9.89236,56.9478
252,603,9.91016,-56.3351,0.00255077,0.00138843,0.000292906,0.00262041,0.00131879,0.233419,0.00151291,0.0111297,1476,421,9.91013,56.3351
259,603,9.89526,-55.7055,0.00208733,0.00186928,0.000656176,0.00264347,0.00131313,0.703074,0.00152622,0.0110546,1483,421,9.89522,55.7055
266,603,9.85669,-55.0605,0.00173197,0.00242604,0.00105556,0.00319014,0.000967862,0.944218,0.0018887,0.0126296,1490,421,9.85673,55.0606
273,603,9.87085,-54.4022,0.00142629,0.003169,0.00150583,0.00403742,0.000557881,1.04769,0.00252627,0.01135,1497,421,9.87089,54.4022
280,603,9.87036,-53.7485,0.00119807,0.00400641,0.00207496,0.00510766,9.6818e-05,1.08286,0.0033733,0.0119309,1504,421,9.8703,53.7485
287,603,9.81958,-53.0568,0.00110885,0.00499781,0.00273906,0.00641242,-0.000305752,1.09407,0.00438042,0.0114037,1511,421,9.81955,53.0568
294,603,9.76208,-52.3871,0.00101638,0.00600427,0.00337262,0.00770489,-0.000684232,1.10376,0.00537919,0.0104688,1518,421,9.76206,52.3871
301,603,9.75305,-51.7146,0.000983459,0.00704462,0.0040105,0.00904082,-0.00101274,1.10896,0.00639159,0.012242,1525,421,9.75301,51.7146
308,603,9.70166,-51.0136,0.00108369,0.0083277,0.00467891,0.0106227,-0.00121132,1.11478,0.00751818,0.0170627,1532,421,9.70165,51.0136
315,603,9.62683,-50.2982,0.00128954,0.0096029,0.00543185,0.012286,-0.00139358,1.11199,0.00869253,0.015396,1539,421,9.62687,50.2981
322,603,9.59009,-49.546,0.00143275,0.0109041,0.00613498,0.0139185,-0.00158172,1.11409,0.00984869,0.01568,1546,421,9.59012,49.546
329,603,9.52393,-48.7849,0.0016672,0.0120404,0.00684343,0.0154406,-0.00173302,1.10966,0.0109173,0.0121579,1553,421,9.52389,48.7848
336,603,9.49146,-48.0541,0.00196994,0.0133963,0.00762196,0.0172086,-0.00184236,1.10701,0.0121332,0.010353,1560,421,9.49144,48.0541
343,603,9.45691,-47.2951,0.00228797,0.0146112,0.00835391,0.01883,-0.00193083,1.10315,0.013244,0.0117638,1567,421,9.45687,47.2951
350,603,9.40381,-46.515,0.00272055,0.0161472,0.00931055,0.0209123,-0.0020446,1.09775,0.0146706,0.0136203,1574,421,9.40376,46.515
357,603,9.35303,-45.6996,0.00307921,0.0175389,0.0103009,0.022894,-0.00227582,1.09139,0.016075,0.0152371,1581,421,9.353,45.6996
364,603,9.32874,-44.8268,0.00336242,0.0187712,0.0111326,0.0246054,-0.00247173,1.08809,0.0172865,0.017755,1588,421,9.32872,44.8268
371,603,9.24951,-43.9939,0.00382771,0.0207518,0.0122083,0.0271441,-0.00256451,1.08845,0.0190086,0.0256464,1595,421,9.24954,43.9939
378,603,9.24634,-43.3072,0.00417793,0.0227614,0.0132464,0.02965,-0.00271065,1.09125,0.0207293,0.0454059,1602,421,9.24635,43.3072
385,603,9.21448,-42.6523,0,0,0,0,0,0,0,-1,1609,421,9.21443,42.6524
392,603,9.21814,-41.7033,0,0,0,0,0,0,0,-1,1616,421,9.21813,41.7033
399,603,8.59888,-39.9962,0,0,0,0,0,0,0,-1,1623,421,8.5989,39.9963
406,603,7.78699,-39.3859,0,0,0,0,0,0,0,-1,1630,421,7.78699,39.3859
413,603,2.38928,-2.41275,0,0,0,0,0,0,0,-1,1637,421,2.38926,2.41274
420,603,8.22217,-23.7068,0,0,0,0,0,0,0,-1,1644,421,8.22215,23.7068
427,603,8.20386,-23.1278,0,0,0,0,0,0,0,-1,1651,421,8.2039,23.1278
434,603,8.01489,-22.5655,0,0,0,0,0,0,0,-1,1658,421,8.01493,22.5655
441,603,8.00122,-22.3072,0,0,0,0,0,0,0,-1,1665,421,8.00116,22.3071
448,603,1.14355,-4.59842,0,0,0,0,0,0,0,-1,1672,421,1.14355,4.59841
455,603,0,0,0,0,0,0,0,0,0,-1,1679,421,0,0
462,603,0,0,0,0,0,0,0,0,0,-1,1686,421,0,0
469,603,0,0,0,0,0,0,0,0,0,-1,1693,421,0,0
476,603,0,0,0,0,0,0,0,0,0,-1,1700,421,0,0
483,603,0,0,0,0,0,0,0,0,0,-1,1707,421,0,0
490,603,0,0,0,0,0,0,0,0,0,-1,1714,421,0,0
497,603,0,0,0,0,0,0,0,0,0,-1,1721,421,0,0
504,603,0,0,0,0,0,0,0,0,0,-1,1728,421,0,0
511,603,0,0,0,0,0,0,0,0,0,-1,1735,421,0,0
518,603,0,0,0,0,0,0,0,0,0,-1,1742,421,0,0
525,603,0,0,0,0,0,0,0,0,0,-1,1749,421,0,0
532,603,0,0,0,0,0,0,0,0,0,-1,1756,421,0,0
539,603,0,0,0,0,0,0,0,0,0,-1,1763,421,0,0
546,603,0,0,0,0,0,0,0,0,0,-1,1770,421,0,0
553,603,0,0,0,0,0,0,0,0,0,-1,1777,421,0,0
560,603,0,0,0,0,0,0,0,0,0,-1,1784,421,0,0
567,603,0,0,0,0,0,0,0,0,0,-1,1791,421,0,0
574,603,0,0,0,0,0,0,0,0,0,-1,1798,421,0,0
581,603,0,0,0,0,0,0,0,0,0,-1,1805,421,0,0
588,603,0,0,0,0,0,0,0,0,0,-1,1812,421,0,0
595,603,0,0,0,0,0,0,0,0,0,-1,1819,421,0,0
602,603,0,0,0,0,0,0,0,0,0,-1,1826,421,0,0
609,603,0,0,0,0,0,0,0,0,0,-1,1833,421,0,0
616,603,0,0,0,0,0,0,0,0,0,-1,1840,421,0,0
623,603,0,0,0,0,0,0,0,0,0,-1,1847,421,0,0
630,603,0,0,0,0,0,0,0,0,0,-1,1854,421,0,0
637,603,0,0,0,0,0,0,0,0,0,-1,1861,421,0,0
644,603,0,0,0,0,0,0,0,0,0,-1,1868,421,0,0
651,603,0,0,0,0,0,0,0,0,0,-1,1875,421,0,0
658,603,0,0,0,0,0,0,0,0,0,-1,1882,421,0,0
665,603,0,0,0,0,0,0,0,0,0,-1,1889,421,0,0
672,603,0,0,0,0,0,0,0,0,0,-1,1896,421,0,0
679,603,0,0,0,0,0,0,0,0,0,-1,1903,421,0,0
686,603,0,0,0,0,0,0,0,0,0,-1,1910,421,0,0
693,603,0,0,0,0,0,0,0,0,0,-1,1917,421,0,0
700,603,0,0,0,0,0,0,0,0,0,-1,1924,421,0,0
707,603,0,0,0,0,0,0,0,0,0,-1,1931,421,0,0
714,603,0,0,0,0,0,0,0,0,0,-1,1938,421,0,0
721,603,0,0,0,0,0,0,0,0,0,-1,1945,421,0,0
728,603,0,0,0,0,0,0,0,0,0,-1,1952,421,0,0
735,603,0,0,0,0,0,0,0,0,0,-1,1959,421,0,0
742,603,0,0,0,0,0,0,0,0,0,-1,1966,421,0,0
749,603,0,0,0,0,0,0,0,0,0,-1,1973,421,0,0
756,603,0,0,0,0,0,0,0,0,0,-1,1980,421,0,0
763,603,0,0,0,0,0,0,0,0,0,-1,1987,421,0,0
770,603,0,0,0,0,0,0,0,0,0,-1,1994,421,0,0
777,603,0,0,0,0,0,0,0,0,0,-1,2001,421,0,0
784,603,0,0,0,0,0,0,0,0,0,-1,2008,421,0,0
791,603,0,0,0,0,0,0,0,0,0,-1,2015,421,0,0
798,603,0,0,0,0,0,0,0,0,0,-1,2022,421,0,0
805,603,0,0,0,0,0,0,0,0,0,-1,2029,421,0,0
812,603,0,0,0,0,0,0,0,0,0,-1,2036,421,0,0
-700,596,0,0,0,0,0,0,0,0,0,-1,524,428,0,0
-693,596,0,0,0,0,0,0,0,0,0,-1,531,428,0,0
-686,596,0,0,0,0,0,0,0,0,0,-1,538,428,0,0
-679,596,0,0,0,0,0,0,0,0,0,-1,545,428,0,0
-672,596,0,0,0,0,0,0,0,0,0,-1,552,428,0,0
-665,596,0,0,0,0,0,0,0,0,0,-1,559,428,0,0
-658,596,0,0,0,0,0,0,0,0,0,-1,566,428,0,0
-651,596,0,0,0,0,0,0,0,0,0,-1,573,428,0,0
-644,596,0,0,0,0,0,0,0,0,0,-1,580,428,0,0
-637,596,0,0,0,0,0,0,0,0,0,-1,587,428,0,0
-630,596,0,0,0,0,0,0,0,0,0,-1,594,428,0,0
-623,596,0,0,0,0,0,0,0,0,0,-1,601,428,0,0
-616,596,0,0,0,0,0,0,0,0,0,-1,608,428,0,0
-609,596,0,0,0,0,0,0,0,0,0,-1,615,428,0,0
-602,596,0,0,0,0,0,0,0,0,0,-1,622,428,0,0
-595,596,0,0,0,0,0,0,0,0,0,-1,629,428,0,0
-588,596,0,0,0,0,0,0,0,0,0,-1,636,428,0,0
-581,596,0,0,0,0,0,0,0,0,0,-1,643,428,0,0
-574,596,0,0,0,0,0,0,0,0,0,-1,650,428,0,0
-567,596,0,0,0,0,0,0,0,0,0,-1,657,428,0,0
-560,596,0,0,0,0,0,0,0,0,0,-1,664,428,0,0
-553,596,0,0,0,0,0,0,0,0,0,-1,671,428,0,0
-546,596,0,0,0,0,0,0,0,0,0,-1,678,428,0,0
-539,596,0,0,0,0,0,0,0,0,0,-1,685,428,0,0
-532,596,0,0,0,0,0,0,0,0,0,-1,692,428,0,0
-525,596,0,0,0,0,0,0,0,0,0,-1,699,428,0,0
-518,596,0,0,0,0,0,0,0,0,0,-1,706,428,0,0
-511,596,0,0,0,0,0,0,0,0,0,-1,713,428,0,0
-504,596,0,0,0,0,0,0,0,0,0,-1,720,428,0,0
-497,596,0,0,0,0,0,0,0,0,0,-1,727,428,0,0
-490,596,0,0,0,0,0,0,0,0,0,-1,734,428,0,0
-483,596,0,0,0,0,0,0,0,0,0,-1,741,428,0,0
-476,596,0,0,0,0,0,0,0,0,0,-1,748,428,0,0
-469,596,0,0,0,0,0,0,0,0,0,-1,755,428,0,0
-462,596,0,0,0,0,0,0,0,0,0,-1,762,428,0,0
-455,596,0,0,0,0,0,0,0,0,0,-1,769,428,0,0
-448,596,0,0,0,0,0,0,0,0,0,-1,776,428,0,0
-441,596,0,0,0,0,0,0,0,0,0,-1,783,428,0,0
-434,596,0,0,0,0,0,0,0,0,0,-1,790,428,0,0
-427,596,0,0,0,0,0,0,0,0,0,-1,797,428,0,0
-420,596,0,0,0,0,0,0,0,0,0,-1,804,428,0,0
-413,596,0,0,0,0,0,0,0,0,0,-1,811,428,0,0
-406,596,0,0,0,0,0,0,0,0,0,-1,818,428,0,0
-399,596,0,0,0,0,0,0,0,0,0,-1,825,428,0,0
-392,596,0,0,0,0,0,0,0,0,0,-1,832,428,0,0
-385,596,0,0,0,0,0,0,0,0,0,-1,839,428,0,0
-378,596,0,0,0,0,0,0,0,0,0,-1,846,428,0,0
-371,596,0,0,0,0,0,0,0,0,0,-1,853,428,0,0
-364,596,0,0,0,0,0,0,0,0,0,-1,860,428,0,0
-357,596,0,0,0,0,0,0,0,0,0,-1,867,428,0,0
-350,596,0,0,0,0,0,0,0,0,0,-1,874,428,0,0
-343,596,0,0,0,0,0,0,0,0,0,-1,881,428,0,0
-336,596,6.81445,-30.5258,0,0,0,0,0,0,0,-1,888,428,6.81446,30.5258
-329,596,6.84772,-28.9253,0,0,0,0,0,0,0,-1,895,428,6.84773,28.9253
-322,596,6.97449,-27.9047,0,0,0,0,0,0,0,-1,902,428,6.97451,27.9047
-315,596,7.10132,-26.8841,0,0,0,0,0,0,0,-1,909,428,7.10129,26.8841
-308,596,0.254761,-20.841,0,0,0,0,0,0,0,-1,916,428,0.254731,20.841
-301,596,3.43213,-26.756,0,0,0,0,0,0,0,-1,923,428,3.43214,26.756
-294,596,4.1767,-27.6454,0,0,0,0,0,0,0,-1,930,428,4.17667,27.6454
-287,596,4.36041,-27.6119,0,0,0,0,0,0,0,-1,937,428,4.3604,27.6119
-280,596,5.70032,-40.5395,0,0,0,0,0,0,0,-1,944,428,5.7003,40.5395
-273,596,5.6944,-41.0228,0,0,0,0,0,0,0,-1,951,428,5.69438,41.0228
-266,596,5.6076,-41.8813,0,0,0,0,0,0,0,-1,958,428,5.60762,41.8812
-259,596,5.58051,-42.8351,0,0,0,0,0,0,0,-1,965,428,5.58051,42.8351
-252,596,5.53375,-43.6196,-0.000512096,0.0205039,-0.0102001,0.0246404,-0.00464855,-1.18553,0.0181757,0.0234793,972,428,5.53375,43.6196
-245,596,5.54895,-44.5234,-0.000683553,0.0189772,-0.00938847,0.0227402,-0.00444654,-1.18959,0.0168391,0.0143906,979,428,5.54894,44.5234
-238,596,5.51544,-45.3251,-0.000865768,0.0171466,-0.00845258,0.0204918,-0.004211,-1.19395,0.0152598,0.0123427,986,428,5.51546,45.3251
-231,596,5.40936,-46.128,-0.000922131,0.0152433,-0.00746048,0.0181601,-0.00383891,-1.1981,0.0135686,0.0145798,993,428,5.40934,46.128
-224,596,5.36969,-46.9154,-0.000766242,0.0134099,-0.00665322,0.0160432,-0.00339959,-1.19391,0.0119904,0.0147101,1000,428,5.3697,46.9154
-217,596,5.32532,-47.6594,-0.000538282,0.0111835,-0.00582673,0.013587,-0.00294182,-1.17956,0.0101813,0.0149826,1007,428,5.32534,47.6594
-210,596,5.30157,-48.42,-0.000274768,0.00902809,-0.00497797,0.0111896,-0.00243627,-1.16115,0.00839056,0.0137776,1014,428,5.30158,48.42
-203,596,5.28699,-49.1921,1.04244e-05,0.00698923,-0.00415005,0.00892189,-0.00192224,-1.13497,0.00668149,0.0180453,1021,428,5.28703,49.1921
-196,596,5.26563,-49.9003,0.000261514,0.00506522,-0.00336643,0.00679879,-0.00147206,-1.09525,0.00509461,0.0173674,1028,428,5.26566,49.9003
-189,596,5.20422,-50.5945,0.00050751,0.00338353,-0.00272927,0.00503044,-0.00113941,-1.02786,0.00379094,0.0142772,1035,428,5.20424,50.5945
-182,596,5.14709,-51.2685,0.000771529,0.00194097,-0.00205811,0.0034958,-0.000783309,-0.923804,0.0026308,0.0124832,1042,428,5.14714,51.2685
-175,596,5.11609,-51.956,0.00104618,0.000562249,-0.00139385,0.00221891,-0.000610484,-0.699458,0.00171928,0.0146767,1049,428,5.11614,51.956
-168,596,5.08484,-52.6506,0.00119798,-0.000459066,-0.000776161,0.00150474,-0.000765829,-0.376389,0.00133385,0.0183098,1056,428,5.08482,52.6506
-161,596,5.05298,-53.3386,0.00134988,-0.00122588,-0.000195229,0.0013646,-0.00124059,-0.0752221,0.00150467,0.0171635,1063,428,5.05301,53.3386
-154,596,5.01624,-53.9846,0.00154758,-0.00184495,0.000379817,0.00158959,-0.00188695,0.11014,0.00200963,0.014126,1070,428,5.01623,53.9846
-147,596,5.03857,-54.5947,0.00181245,-0.00227136,0.000879532,0.00199382,-0.00245273,0.203362,0.00257177,0.0142303,1077,428,5.03858,54.5947
-140,596,5.0376,-55.2197,0.00212517,-0.00267365,0.00134386,0.00247587,-0.00302435,0.255274,0.00318081,0.0157626,1084,428,5.03756,55.2197
-133,596,5.02588,-55.8472,0.00244067,-0.00300435,0.00178289,0.0029725,-0.00353618,0.289896,0.00376248,0.016852,1091,428,5.02594,55.8472
-126,596,5.0282,-56.4353,0.00287577,-0.00313635,0.00209908,0.00353611,-0.0037967,0.304787,0.00423449,0.0126834,1098,428,5.02821,56.4353
-119,596,5.05811,-57.0525,0.00359741,-0.00321687,0.00230538,0.00430407,-0.00392353,0.297435,0.0047519,0.0160085,1105,428,5.05814,57.0525
-112,596,5.02673,-57.6152,0.00437342,-0.0031896,0.00238719,0.00506388,-0.00388006,0.281551,0.00517884,0.0176095,1112,428,5.02674,57.6152
-105,596,5.04407,-58.1883,0.00511198,-0.00303578,0.00240356,0.00576817,-0.00369197,0.266514,0.00550549,0.0250336,1119,428,5.04404,58.1883
-98,596,5.09985,-58.7453,0.00597141,-0.00315371,0.00241321,0.00657029,-0.00375259,0.243256,0.00603348,0.0338703,1126,428,5.09985,58.7453
-91,596,5.04919,-59.3752,0,0,0,0,0,0,0,-1,1133,428,5.04924,59.3753
-84,596,5.17578,-59.7473,0,0,0,0,0,0,0,-1,1140,428,5.17576,59.7473
-77,596,5.28467,-60.3124,0,0,0,0,0,0,0,-1,1147,428,5.28467,60.3124
-70,596,3.50696,-32.137,0,0,0,0,0,0,0,-1,1154,428,3.50696,32.137
-63,596,1.95569,-12.2758,0,0,0,0,0,0,0,-1,1161,428,1.95563,12.2759
-56,596,1.60107,-10.5827,0,0,0,0,0,0,0,-1,1168,428,1.60108,10.5827
-49,596,1.59473,-10.0393,0,0,0,0,0,0,0,-1,1175,428,1.59472,10.0393
-42,596,1.99585,-6.6246,0,0,0,0,0,0,0,-1,1182,428,1.99586,6.62459
-35,596,5.37659,-62.2968,0,0,0,0,0,0,0,-1,1189,428,5.37654,62.2968
-28,596,5.69189,-62.6622,0,0,0,0,0,0,0,-1,1196,428,5.69186,62.6622
-21,596,5.75757,-62.9821,0,0,0,0,0,0,0,-1,1203,428,5.75761,62.9821
-14,596,5.95605,-63.2486,0,0,0,0,0,0,0,-1,1210,428,5.95602,63.2486
-7,596,6.15881,-63.5881,0,0,0,0,0,0,0,-1,1217,428,6.15886,63.5881
0,596,6.18872,-64.0522,0,0,0,0,0,0,0,-1,1224,428,6.18878,64.0522
7,596,12.4609,-70.1392,0,0,0,0,0,0,0,-1,1231,428,12.4609,70.1392
14,596,11.766,-68.8787,0,0,0,0,0,0,0,-1,1238,428,11.766,68.8787
21,596,6.82825,-62.8952,0,0,0,0,0,0,0,-1,1245,428,6.82821,62.8952
28,596,6.93982,-63.4147,0,0,0,0,0,0,0,-1,1252,428,6.93979,63.4147
35,596,7.15198,-63.3271,0,0,0,0,0,0,0,-1,1259,428,7.15199,63.3271
42,596,7.20813,-63.7293,0,0,0,0,0,0,0,-1,1266,428,7.20813,63.7293
49,596,6.86523,-63.8727,0,0,0,0,0,0,0,-1,1273,428,6.86528,63.8727
56,596,6.26062,-64.3385,0,0,0,0,0,0,0,-1,1280,428,6.26066,64.3385
63,596,6.13513,-64.149,0,0,0,0,0,0,0,-1,1287,428,6.13518,64.149
70,596,5.56116,-63.8389,0,0,0,0,0,0,0,-1,1294,428,5.56112,63.8389
77,596,5.44385,-63.5715,0,0,0,0,0,0,0,-1,1301,428,5.44386,63.5715
84,596,5.55505,-63.3331,0,0,0,0,0,0,0,-1,1308,428,5.555,63.3331
91,596,5.75464,-63.3541,0,0,0,0,0,0,0,-1,1315,428,5.7547,63.3541
98,596,5.80151,-63.3639,0,0,0,0,0,0,0,-1,1322,428,5.80157,63.3639
105,596,5.82068,-63.2144,0,0,0,0,0,0,0,-1,1329,428,5.82065,63.2144
112,596,9.19189,-63.9403,0,0,0,0,0,0,0,-1,1336,428,9.19188,63.9403
119,596,9.43616,-63.5919,0,0,0,0,0,0,0,-1,1343,428,9.43613,63.5919
126,596,6.12146,-57.7535,0,0,0,0,0,0,0,-1,1350,428,6.12145,57.7535
133,596,9.67651,-63.1656,0,0,0,0,0,0,0,-1,1357,428,9.67646,63.1656
140,596,9.82886,-62.5508,0,0,0,0,0,0,0,-1,1364,428,9.82883,62.5507
147,596,9.45813,-62.2434,0,0,0,0,0,0,0,-1,1371,428,9.45811,62.2434
154,596,9.1095,-62.5196,0,0,0,0,0,0,0,-1,1378,428,9.10948,62.5196
161,596,9.76538,-62.2299,0,0,0,0,0,0,0,-1,1385,428,9.76532,62.23
168,596,9.88757,-61.6993,0,0,0,0,0,0,0,-1,1392,428,9.88751,61.6993
175,596,10.1653,-61.4009,0,0,0,0,0,0,0,-1,1399,428,10.1653,61.4009
182,596,10.3645,-61.2182,0,0,0,0,0,0,0,-1,1406,428,10.3645,61.2182
189,596,10.3407,-60.8225,0,0,0,0,0,0,0,-1,1413,428,10.3407,60.8225
196,596,10.2789,-60.1895,0,0,0,0,0,0,0,-1,1420,428,10.2789,60.1895
203,596,10.1975,-60.029,0,0,0,0,0,0,0,-1,1427,428,10.1975,60.029
210,596,10.2458,-59.7482,0,0,0,0,0,0,0,-1,1434,428,10.2459,59.7482
217,596,10.2433,-59.1554,0,0,0,0,0,0,0,-1,1441,428,10.2433,59.1554
224,596,10.3729,-58.5863,0,0,0,0,0,0,0,-1,1448,428,10.3729,58.5863
231,596,10.4973,-58.0746,0.00535118,-0.00206544,-0.00173772,0.00573814,-0.00245241,-0.219108,0.00485399,0.0283526,1455,428,10.4973,58.0746
238,596,10.4796,-57.4714,0.00446917,-0.000971643,-0.00133019,0.00477696,-0.00127944,-0.227391,0.0036859,0.0179799,1462,428,10.4796,57.4714
245,596,10.4835,-56.9077,0.00394735,-0.000782491,-0.00104725,0.00416885,-0.00100399,-0.208436,0.00316739,0.01484,1469,428,10.4835,56.9077
252,596,10.4972,-56.2954,0.00332073,-0.000567663,-0.000803677,0.00348029,-0.000727224,-0.19599,0.00259677,0.0110787,1476,428,10.4972,56.2954
259,596,10.4888,-55.6689,0.00267307,-0.000436822,-0.000588046,0.00278054,-0.0005443,-0.180777,0.00205925,0.00937011,1483,428,10.4888,55.6689
266,596,10.475,-55.0408,0.00219555,-0.000122946,-0.000316797,0.00223806,-0.000165454,-0.133382,0.00155014,0.0106928,1490,428,10.4749,55.0408
273,596,10.507,-54.4001,0.00177166,0.000325697,-1.91468e-05,0.00177192,0.000325444,-0.0132384,0.00108913,0.0124904,1497,428,10.5069,54.4001
280,596,10.5311,-53.768,0.00143347,0.000905196,0.000418607,0.00166431,0.000674358,0.503952,0.000966628,0.0134763,1504,428,10.5311,53.768
287,596,10.488,-53.0741,0.00121857,0.00158044,0.000886357,0.00230414,0.00049487,0.88608,0.00140059,0.0122896,1511,428,10.4881,53.0741
294,596,10.4246,-52.3757,0.00104696,0.00238424,0.00137743,0.00324674,0.000184466,1.01136,0.0021057,0.00990105,1518,428,10.4245,52.3757
301,596,10.4163,-51.6908,0.000947767,0.00323938,0.00189717,0.0043099,-0.000122758,1.05706,0.00291505,0.0108638,1525,428,10.4162,51.6908
308,596,10.3882,-50.9805,0.000964231,0.0043341,0.00245977,0.00563069,-0.000332359,1.08569,0.00386934,0.016674,1532,428,10.3882,50.9805
315,596,10.3042,-50.2346,0.00106955,0.00544504,0.00310587,0.00705633,-0.000541743,1.09223,0.0048948,0.0162846,1539,428,10.3042,50.2345
322,596,10.3168,-49.4967,0.00113834,0.00666027,0.0037583,0.00856275,-0.000764139,1.10219,0.00597951,0.0140839,1546,428,10.3167,49.4967
329,596,10.2682,-48.7633,0.00128997,0.00776427,0.00445474,0.0100338,-0.000979587,1.0996,0.00703851,0.0110828,1553,428,10.2682,48.7633
336,596,10.2017,-48.0492,0.00152662,0.00904234,0.00523572,0.0117292,-0.00116023,1.09666,0.00823349,0.00982508,1560,428,10.2016,48.0492
343,596,10.1686,-47.2967,0.0017826,0.010245,0.00600844,0.0133625,-0.00133498,1.09217,0.00938505,0.0129268,1567,428,10.1685,47.2967
350,596,10.132,-46.5053,0.00207994,0.0118011,0.00695094,0.0154223,-0.00154127,1.09052,0.0108319,0.0131223,1574,428,10.132,46.5053
357,596,10.0699,-45.7276,0.00232073,0.013202,0.00792413,0.0173735,-0.00185072,1.08623,0.0122459,0.0104054,1581,428,10.0699,45.7276
364,596,10.0035,-44.9197,0.00252228,0.0144651,0.00878748,0.0191181,-0.0021307,1.08383,0.0135117,0.010625,1588,428,10.0035,44.9197
371,596,9.95886,-44.1212,0.0027798,0.0161377,0.00976458,0.021289,-0.00237153,1.08535,0.0150456,0.0114796,1595,428,9.95885,44.1212
378,596,9.90381,-43.3162,0.00291313,0.0177847,0.0106508,0.0233385,-0.00264072,1.09014,0.0165098,0.0164951,1602,428,9.90383,43.3162
385,596,9.92029,-42.2884,0.00315404,0.0193294,0.0112366,0.0250863,-0.00260281,1.09733,0.0176558,0.0368806,1609,428,9.9203,42.2884
392,596,9.89001,-41.3974,0.00386024,0.0196236,0.0114892,0.0256747,-0.00219087,1.08603,0.0178915,0.0452044,1616,428,9.89002,41.3974
399,596,9.76685,-40.7234,0,0,0,0,0,0,0,-1,1623,428,9.76683,40.7234
406,596,9.2417,-39.3626,0,0,0,0,0,0,0,-1,1630,428,9.24169,39.3626
413,596,9.24194,-38.8945,0,0,0,0,0,0,0,-1,1637,428,9.2419,38.8945
420,596,2.6344,-3.06308,0,0,0,0,0,0,0,-1,1644,428,2.63439,3.06308
427,596,7.61975,-22.7222,0,0,0,0,0,0,0,-1,1651,428,7.61974,22.7222
434,596,5.09753,-22.5213,0,0,0,0,0,0,0,-1,1658,428,5.09755,22.5213
441,596,7.19043,-22.087,0,0,0,0,0,0,0,-1,1665,428,7.19046,22.087
448,596,1.0769,0.0083313,0,0,0,0,0,0,0,-1,1672,428,1.07684,-0.00832231
455,596,2.00769,-1.43329,0,0,0,0,0,0,0,-1,1679,428,2.00765,1.4333
462,596,0,0,0,0,0,0,0,0,0,-1,1686,428,0,0
469,596,0,0,0,0,0,0,0,0,0,-1,1693,428,0,0
476,596,0,0,0,0,0,0,0,0,0,-1,1700,428,0,0
483,596,0,0,0,0,0,0,0,0,0,-1,1707,428,0,0
490,596,0,0,0,0,0,0,0,0,0,-1,1714,428,0,0
497,596,0,0,0,0,0,0,0,0,0,-1,1721,428,0,0
504,596,0,0,0,0,0,0,0,0,0,-1,1728,428,0,0
511,596,0,0,0,0,0,0,0,0,0,-1,1735,428,0,0
518,596,0,0,0,0,0,0,0,0,0,-1,1742,428,0,0
525,596,0,0,0,0,0,0,0,0,0,-1,1749,428,0,0
532,596,0,0,0,0,0,0,0,0,0,-1,1756,428,0,0
539,596,0,0,0,0,0,0,0,0,0,-1,1763,428,0,0
546,596,0,0,0,0,0,0,0,0,0,-1,1770,428,0,0
553,596,0,0,0,0,0,0,0,0,0,-1,1777,428,0,0
560,596,0,0,0,0,0,0,0,0,0,-1,1784,428,0,0
567,596,0,0,0,0,0,0,0,0,0,-1,1791,428,0,0
574,596,0,0,0,0,0,0,0,0,0,-1,1798,428,0,0
581,596,0,0,0,0,0,0,0,0,0,-1,1805,428,0,0
588,596,0,0,0,0,0,0,0,0,0,-1,1812,428,0,0
595,596,0,0,0,0,0,0,0,0,0,-1,1819,428,0,0
602,596,0,0,0,0,0,0,0,0,0,-1,1826,428,0,0
609,596,0,0,0,0,0,0,0,0,0,-1,1833,428,0,0
616,596,0,0,0,0,0,0,0,0,0,-1,1840,428,0,0
623,596,0,0,0,0,0,0,0,0,0,-1,1847,428,0,0
630,596,0,0,0,0,0,0,0,0,0,-1,1854,428,0,0
637,596,0,0,0,0,0,0,0,0,0,-1,1861,428,0,0
644,596,0,0,0,0,0,0,0,0,0,-1,1868,428,0,0
651,596,0,0,0,0,0,0,0,0,0,-1,1875,428,0,0
658,596,0,0,0,0,0,0,0,0,0,-1,1882,428,0,0
665,596,0,0,0,0,0,0,0,0,0,-1,1889,428,0,0
672,596,0,0,0,0,0,0,0,0,0,-1,1896,428,0,0
679,596,0,0,0,0,0,0,0,0,0,-1,1903,428,0,0
686,596,0,0,0,0,0,0,0,0,0,-1,1910,428,0,0
693,596,0,0,0,0,0,0,0,0,0,-1,1917,428,0,0
700,596,0,0,0,0,0,0,0,0,0,-1,1924,428,0,0
707,596,0,0,0,0,0,0,0,0,0,-1,1931,428,0,0
714,596,0,0,0,0,0,0,0,0,0,-1,1938,428,0,0
721,596,0,0,0,0,0,0,0,0,0,-1,1945,428,0,0
728,596,0,0,0,0,0,0,0,0,0,-1,1952,428,0,0
735,596,0,0,0,0,0,0,0,0,0,-1,1959,428,0,0
742,596,0,0,0,0,0,0,0,0,0,-1,1966,428,0,0
749,596,0,0,0,0,0,0,0,0,0,-1,1973,428,0,0
756,596,0,0,0,0,0,0,0,0,0,-1,1980,428,0,0
763,596,0,0,0,0,0,0,0,0,0,-1,1987,428,0,0
770,596,0,0,0,0,0,0,0,0,0,-1,1994,428,0,0
777,596,0,0,0,0,0,0,0,0,0,-1,2001,428,0,0
784,596,0,0,0,0,0,0,0,0,0,-1,2008,428,0,0
791,596,0,0,0,0,0,0,0,0,0,-1,2015,428,0,0
798,596,0,0,0,0,0,0,0,0,0,-1,2022,428,0,0
805,596,0,0,0,0,0,0,0,0,0,-1,2029,428,0,0
812,596,0,0,0,0,0,0,0,0,0,-1,2036,428,0,0
-700,589,0,0,0,0,0,0,0,0,0,-1,524,435,0,0
-693,589,0,0,0,0,0,0,0,0,0,-1,531,435,0,0
-686,589,0,0,0,0,0,0,0,0,0,-1,538,435,0,0
-679,589,0,0,0,0,0,0,0,0,0,-1,545,435,0,0
-672,589,0,0,0,0,0,0,0,0,0,-1,552,435,0,0
-665,589,0,0,0,0,0,0,0,0,0,-1,559,435,0,0
-658,589,0,0,0,0,0,0,0,0,0,-1,566,435,0,0
-651,589,0,0,0,0,0,0,0,0,0,-1,573,435,0,0
-644,589,0,0,0,0,0,0,0,0,0,-1,580,435,0,0
-637,589,0,0,0,0,0,0,0,0,0,-1,587,435,0,0
-630,589,0,0,0,0,0,0,0,0,0,-1,594,435,0,0
-623,589,0,0,0,0,0,0,0,0,0,-1,601,435,0,0
-616,589,0,0,0,0,0,0,0,0,0,-1,608,435,0,0
-609,589,0,0,0,0,0,0,0,0,0,-1,615,435,0,0
-602,589,0,0,0,0,0,0,0,0,0,-1,622,435,0,0
-595,589,0,0,0,0,0,0,0,0,0,-1,629,435,0,0
-588,589,0,0,0,0,0,0,0,0,0,-1,636,435,0,0
-581,589,0,0,0,0,0,0,0,0,0,-1,643,435,0,0
-574,589,0,0,0,0,0,0,0,0,0,-1,650,435,0,0
-567,589,0,0,0,0,0,0,0,0,0,-1,657,435,0,0
-560,589,0,0,0,0,0,0,0,0,0,-1,664,435,0,0
-553,589,0,0,0,0,0,0,0,0,0,-1,671,435,0,0
-546,589,0,0,0,0,0,0,0,0,0,-1,678,435,0,0
-539,589,0,0,0,0,0,0,0,0,0,-1,685,435,0,0
-532,589,0,0,0,0,0,0,0,0,0,-1,692,435,0,0
-525,589,0,0,0,0,0,0,0,0,0,-1,699,435,0,0
-518,589,0,0,0,0,0,0,0,0,0,-1,706,435,0,0
-511,589,0,0,0,0,0,0,0,0,0,-1,713,435,0,0
-504,589,0,0,0,0,0,0,0,0,0,-1,720,435,0,0
-497,589,0,0,0,0,0,0,0,0,0,-1,727,435,0,0
-490,589,0,0,0,0,0,0,0,0,0,-1,734,435,0,0
-483,589,0,0,0,0,0,0,0,0,0,-1,741,435,0,0
-476,589,0,0,0,0,0,0,0,0,0,-1,748,435,0,0
-469,589,0,0,0,0,0,0,0,0,0,-1,755,435,0,0
-462,589,0,0,0,0,0,0,0,0,0,-1,762,435,0,0
-455,589,0,0,0,0,0,0,0,0,0,-1,769,435,0,0
-448,589,0,0,0,0,0,0,0,0,0,-1,776,435,0,0
-441,589,0,0,0,0,0,0,0,0,0,-1,783,435,0,0
-434,589,0,0,0,0,0,0,0,0,0,-1,790,435,0,0
-427,589,0,0,0,0,0,0,0,0,0,-1,797,435,0,0
-420,589,0,0,0,0,0,0,0,0,0,-1,804,435,0,0
-413,589,0,0,0,0,0,0,0,0,0,-1,811,435,0,0
-406,589,0,0,0,0,0,0,0,0,0,-1,818,435,0,0
-399,589,0,0,0,0,0,0,0,0,0,-1,825,435,0,0
-392,589,0,0,0,0,0,0,0,0,0,-1,832,435,0,0
-385,589,0,0,0,0,0,0,0,0,0,-1,839,435,0,0
-378,589,0,0,0,0,0,0,0,0,0,-1,846,435,0,0
-371,589,0,0,0,0,0,0,0,0,0,-1,853,435,0,0
-364,589,0,0,0,0,0,0,0,0,0,-1,860,435,0,0
-357,589,0,0,0,0,0,0,0,0,0,-1,867,435,0,0
-350,589,-0.799927,-20.664,0,0,0,0,0,0,0,-1,874,435,-0.799952,20.664
-343,589,5.15289,-30.4847,0,0,0,0,0,0,0,-1,881,435,5.15291,30.4847
-336,589,5.07684,-29.2368,0,0,0,0,0,0,0,-1,888,435,5.07687,29.2368
-329,589,4.9624,-28.1366,0,0,0,0,0,0,0,-1,895,435,4.96242,28.1366
-322,589,5.10156,-27.065,0,0,0,0,0,0,0,-1,902,435,5.10155,27.065
-315,589,4.22705,-27.9655,0,0,0,0,0,0,0,-1,909,435,4.22705,27.9655
-308,589,4.46698,-29.037,0,0,0,0,0,0,0,-1,916,435,4.46696,29.037
-301,589,4.94867,-33.7458,0,0,0,0,0,0,0,-1,923,435,4.94869,33.7458
-294,589,4.1037,-31.2976,0,0,0,0,0,0,0,-1,930,435,4.10371,31.2976
-287,589,4.84308,-39.5189,0,0,0,0,0,0,0,-1,937,435,4.84306,39.5189
-280,589,4.97137,-40.3156,0.000430918,0.0208732,-0.0106637,0.0254232,-0.00411905,-1.1675,0.0184755,0.0480693,944,435,4.97137,40.3156
-273,589,5.00079,-41.0437,0.000237682,0.0197211,-0.0100787,0.0239966,-0.00403777,-1.1696,0.0174996,0.0303897,951,435,5.00076,41.0437
-266,589,4.96191,-41.9812,-7.3738e-06,0.0183255,-0.00938078,0.0222748,-0.00395668,-1.17232,0.0163293,0.0284374,958,435,4.96191,41.9812
-259,589,4.88544,-42.8871,-0.00012002,0.0167334,-0.00868162,0.0204054,-0.00379207,-1.17065,0.015028,0.0229522,965,435,4.88545,42.8871
-252,589,4.86169,-43.7802,-0.000154554,0.0152283,-0.00794428,0.0185944,-0.00352069,-1.17001,0.0137212,0.011844,972,435,4.86172,43.7802
-245,589,4.83679,-44.5787,-0.000160352,0.0137694,-0.00722297,0.0168385,-0.00322946,-1.169,0.0124427,0.0105639,979,435,4.83681,44.5787
-238,589,4.7597,-45.3372,-0.000214155,0.0121003,-0.00634445,0.0147841,-0.00289794,-1.17061,0.0109506,0.0144759,986,435,4.75969,45.3372
-231,589,4.69263,-46.0887,-0.000200114,0.01033,-0.00539992,0.0126068,-0.00247694,-1.17177,0.00934031,0.0160917,993,435,4.69262,46.0887
-224,589,4.64355,-46.8743,-7.25569e-05,0.00859937,-0.00456215,0.0105574,-0.00203054,-1.16539,0.00780364,0.0154048,1000,435,4.64353,46.8743
-217,589,4.59882,-47.6567,0.000120088,0.0065393,-0.00370384,0.00823072,-0.00157133,-1.14241,0.006079,0.0161703,1007,435,4.5988,47.6567
-210,589,4.56403,-48.4088,0.00036297,0.00452772,-0.00284321,0.00596956,-0.00107888,-1.10147,0.00438381,0.0166175,1014,435,4.56403,48.4087
-203,589,4.53711,-49.1296,0.000647597,0.00269154,-0.0020242,0.00393712,-0.000597984,-1.01917,0.0028451,0.0128655,1021,435,4.53716,49.1296
-196,589,4.50757,-49.8486,0.000903548,0.000949092,-0.00125774,0.00218427,-0.000331631,-0.79445,0.00157838,0.0141926,1028,435,4.50755,49.8486
-189,589,4.48132,-50.5942,0.00114553,-0.000592519,-0.000629104,0.00134934,-0.00079633,-0.313301,0.00125244,0.0173869,1035,435,4.48136,50.5942
-182,589,4.45239,-51.2397,0.00140572,-0.00184769,3.59145e-05,0.00140611,-0.00184809,0.0110373,0.00188458,0.0131078,1042,435,4.45242,51.2397
-175,589,4.44873,-51.9311,0.00170584,-0.00301545,0.000641905,0.00179155,-0.00310117,0.13275,0.00285835,0.0164023,1049,435,4.4487,51.9311
-168,589,4.43274,-52.6609,0.00190143,-0.00383771,0.00117432,0.00213242,-0.0040687,0.19422,0.00363793,0.014583,1056,435,4.43272,52.6609
-161,589,4.40076,-53.3054,0.00209259,-0.00444719,0.00167676,0.00249743,-0.00485204,0.236913,0.0043152,0.0140166,1063,435,4.40075,53.3054
-154,589,4.36865,-53.9392,0.00234483,-0.0048605,0.00216947,0.00294761,-0.00546329,0.271012,0.00492791,0.0141974,1070,435,4.36867,53.9392
-147,589,4.37817,-54.5697,0.00267996,-0.00508099,0.00257046,0.00345409,-0.00585512,0.292524,0.00543394,0.0145257,1077,435,4.37821,54.5697
-140,589,4.39246,-55.1885,0.00301816,-0.00524855,0.00294189,0.0039582,-0.00618859,0.309283,0.00590524,0.0162762,1084,435,4.3925,55.1885
-133,589,4.39673,-55.8033,0.003276,-0.00535901,0.00338133,0.00444249,-0.00652551,0.332196,0.00637033,0.0158709,1091,435,4.39672,55.8034
-126,589,4.44141,-56.4054,0.00370794,-0.00521535,0.00367195,0.00502466,-0.00653207,0.344306,0.00669117,0.0128114,1098,435,4.44147,56.4054
-119,589,4.40137,-57.0115,0.00452625,-0.00504359,0.00379948,0.00585129,-0.00636862,0.335552,0.00705727,0.0280498,1105,435,4.40134,57.0115
-112,589,4.45264,-57.5719,0,0,0,0,0,0,0,-1,1112,435,4.45261,57.5719
-105,589,4.48877,-58.2145,0,0,0,0,0,0,0,-1,1119,435,4.48877,58.2145
-98,589,4.50684,-58.983,0,0,0,0,0,0,0,-1,1126,435,4.50685,58.983
-91,589,3.39563,-37.8231,0,0,0,0,0,0,0,-1,1133,435,3.39565,37.8231
-84,589,2.76538,-22.6013,0,0,0,0,0,0,0,-1,1140,435,2.76539,22.6014
-77,589,2.18152,-14.8023,0,0,0,0,0,0,0,-1,1147,435,2.18155,14.8023
-70,589,1.48267,-9.90961,0,0,0,0,0,0,0,-1,1154,435,1.48264,9.9096
-63,589,0.880127,-5.50586,0,0,0,0,0,0,0,-1,1161,435,0.880186,5.50587
-56,589,-2.78052,-7.28082,0,0,0,0,0,0,0,-1,1168,435,-2.78053,7.28082
-49,589,-0.525757,-2.76703,0,0,0,0,0,0,0,-1,1175,435,-0.525771,2.76702
-42,589,-2.7738,-2.87921,0,0,0,0,0,0,0,-1,1182,435,-2.77383,2.87922
-35,589,-2.55225,-3.27551,0,0,0,0,0,0,0,-1,1189,435,-2.55223,3.27552
-28,589,-0.0632324,-3.42938,0,0,0,0,0,0,0,-1,1196,435,-0.063241,3.42938
-21,589,-6.50256,-58.7001,0,0,0,0,0,0,0,-1,1203,435,-6.50254,58.7001
-14,589,11.7372,-73.3847,0,0,0,0,0,0,0,-1,1210,435,11.7372,73.3847
-7,589,10.9803,-72.0392,0,0,0,0,0,0,0,-1,1217,435,10.9803,72.0392
0,589,12.4886,-71.2278,0,0,0,0,0,0,0,-1,1224,435,12.4886,71.2278
7,589,11.9666,-70.0255,0,0,0,0,0,0,0,-1,1231,435,11.9666,70.0254
14,589,11.5107,-68.6598,0,0,0,0,0,0,0,-1,1238,435,11.5107,68.6597
21,589,10.4709,-67.7672,0,0,0,0,0,0,0,-1,1245,435,10.471,67.7672
28,589,7.39172,-62.5652,0,0,0,0,0,0,0,-1,1252,435,7.39167,62.5652
35,589,7.29736,-62.9438,0,0,0,0,0,0,0,-1,1259,435,7.29735,62.9438
42,589,7.24646,-63.4981,0,0,0,0,0,0,0,-1,1266,435,7.24644,63.4981
49,589,6.52844,-63.3007,0,0,0,0,0,0,0,-1,1273,435,6.52841,63.3007
56,589,6.56213,-64.3216,0,0,0,0,0,0,0,-1,1280,435,6.56213,64.3216
63,589,5.04956,-64.4102,0,0,0,0,0,0,0,-1,1287,435,5.04961,64.4102
70,589,4.81067,-64.3994,0,0,0,0,0,0,0,-1,1294,435,4.81062,64.3994
77,589,4.99731,-64.3433,0,0,0,0,0,0,0,-1,1301,435,4.99737,64.3433
84,589,5.06958,-64.0419,0,0,0,0,0,0,0,-1,1308,435,5.0696,64.0419
91,589,4.92261,-63.8457,0,0,0,0,0,0,0,-1,1315,435,4.92262,63.8457
98,589,4.98499,-63.8075,0,0,0,0,0,0,0,-1,1322,435,4.98501,63.8075
105,589,5.00818,-63.8215,0,0,0,0,0,0,0,-1,1329,435,5.00823,63.8215
112,589,5.021,-63.9838,0,0,0,0,0,0,0,-1,1336,435,5.02102,63.9838
119,589,5.12,-64.4488,0,0,0,0,0,0,0,-1,1343,435,5.12003,64.4488
126,589,2.03149,-63.1956,0,0,0,0,0,0,0,-1,1350,435,2.03147,63.1957
133,589,3.45996,-64.0468,0,0,0,0,0,0,0,-1,1357,435,3.46001,64.0468
140,589,3.48621,-62.7649,0,0,0,0,0,0,0,-1,1364,435,3.48624,62.7649
147,589,3.42444,-61.9071,0,0,0,0,0,0,0,-1,1371,435,3.42445,61.9071
154,589,3.5686,-61.2742,0,0,0,0,0,0,0,-1,1378,435,3.56863,61.2742
161,589,-6.32788,-58.6489,0,0,0,0,0,0,0,-1,1385,435,-6.32789,58.6489
168,589,20.0441,-47.9614,0,0,0,0,0,0,0,-1,1392,435,20.044,47.9613
175,589,8.66992,-7.65527,0,0,0,0,0,0,0,-1,1399,435,8.66994,7.65528
182,589,3.8136,-2.45389,0,0,0,0,0,0,0,-1,1406,435,3.81363,2.4539
189,589,3.69983,-3.68149,0,0,0,0,0,0,0,-1,1413,435,3.69987,3.68147
196,589,3.31055,-5.31677,0,0,0,0,0,0,0,-1,1420,435,3.31059,5.31678
203,589,2.72559,-8.84338,0,0,0,0,0,0,0,-1,1427,435,2.72558,8.84338
210,589,3.62378,-14.4032,0,0,0,0,0,0,0,-1,1434,435,3.62378,14.4032
217,589,4.65601,-22.3745,0,0,0,0,0,0,0,-1,1441,435,4.65607,22.3745
224,589,6.79028,-33.9412,0,0,0,0,0,0,0,-1,1448,435,6.79028,33.9412
231,589,11.1084,-58.1339,0,0,0,0,0,0,0,-1,1455,435,11.1084,58.1339
238,589,11.0697,-57.4536,0,0,0,0,0,0,0,-1,1462,435,11.0697,57.4536
245,589,11.0775,-56.8543,0,0,0,0,0,0,0,-1,1469,435,11.0775,56.8543
252,589,11.1066,-56.223,0.00391801,-0.00233964,-0.00184575,0.00442186,-0.00284349,-0.266486,0.00422752,0.0325693,1476,435,11.1066,56.223
259,589,11.12,-55.6425,0.0031137,-0.0025561,-0.00176611,0.00361882,-0.00306123,-0.278575,0.00386121,0.0119612,1483,435,11.12,55.6424
266,589,11.1265,-55.0112,0.00252497,-0.00248542,-0.00161508,0.00300046,-0.00296091,-0.286318,0.00344182,0.00999575,1490,435,11.1265,55.0112
273,589,11.1411,-54.411,0.00199212,-0.00234982,-0.00146729,0.00244147,-0.00279916,-0.297173,0.00302803,0.0122636,1497,435,11.1412,54.411
280,589,11.1555,-53.7665,0.00156561,-0.00203991,-0.0011519,0.00190219,-0.0023765,-0.284289,0.00247536,0.014196,1504,435,11.1555,53.7665
287,589,11.1471,-53.0739,0.00125232,-0.00167879,-0.000867405,0.00148977,-0.00191625,-0.267207,0.0019716,0.0131067,1511,435,11.1471,53.074
294,589,11.1138,-52.3492,0.00102835,-0.00106494,-0.000506216,0.00114434,-0.00118093,-0.225244,0.00134255,0.0108648,1518,435,11.1137,52.3492
301,589,11.109,-51.661,0.000891716,-0.000423304,-0.000115123,0.000901718,-0.000433307,-0.0866665,0.000786432,0.0107574,1525,435,11.109,51.661
308,589,11.0853,-50.9608,0.000842802,0.000488285,0.00032927,0.00103949,0.000291593,0.538475,0.000619126,0.0111199,1532,435,11.0853,50.9608
315,589,11.0417,-50.2401,0.000861494,0.00145743,0.000866098,0.00207538,0.000243542,0.951074,0.00130998,0.0109306,1539,435,11.0418,50.2401
322,589,11.0554,-49.4878,0.000872459,0.00262268,0.00147031,0.0034586,3.65386e-05,1.05384,0.00229365,0.0120198,1546,435,11.0554,49.4878
329,589,10.9988,-48.7516,0.000952006,0.00374742,0.0021504,0.00491444,-0.000215012,1.07358,0.00335026,0.0109775,1553,435,10.9988,48.7516
336,589,10.942,-48.0323,0.00112665,0.00500791,0.00292127,0.0065744,-0.000439836,1.07858,0.00453666,0.0104777,1560,435,10.9421,48.0323
343,589,10.9048,-47.2982,0.00132986,0.00623641,0.0037145,0.00823466,-0.000668383,1.07724,0.00572558,0.0123992,1567,435,10.9048,47.2982
350,589,10.8717,-46.5238,0.00153065,0.00788541,0.00465206,0.0103416,-0.000925568,1.08501,0.00722273,0.0184777,1574,435,10.8717,46.5238
357,589,10.8312,-45.7321,0.00169058,0.00936151,0.0056291,0.0123376,-0.00128553,1.08445,0.00868536,0.0146755,1581,435,10.8311,45.7321
364,589,10.7842,-44.9347,0.00183277,0.0106915,0.00653456,0.0141565,-0.00163214,1.08325,0.0100261,0.0118515,1588,435,10.7842,44.9346
371,589,10.7228,-44.1343,0.001974,0.0122092,0.00747783,0.0161529,-0.00196974,1.08548,0.0114816,0.0121377,1595,435,10.7227,44.1343
378,589,10.6659,-43.3198,0.00200432,0.0136749,0.00830254,0.0179877,-0.00230843,1.09171,0.0128307,0.0133433,1602,435,10.6659,43.3198
385,589,10.6293,-42.4731,0.00217175,0.0149578,0.00881208,0.0194517,-0.00232207,1.09921,0.013807,0.021959,1609,435,10.6293,42.4731
392,589,10.5591,-41.4648,0.00274147,0.0151854,0.00908723,0.0199766,-0.00204977,1.08559,0.0140509,0.0302433,1616,435,10.5591,41.4648
399,589,10.5356,-40.4797,0.00340372,0.0160775,0.00967996,0.0213103,-0.00182908,1.07521,0.0148542,0.0379636,1623,435,10.5357,40.4797
406,589,10.5308,-39.5865,0,0,0,0,0,0,0,-1,1630,435,10.5308,39.5865
413,589,5.61377,-19.0606,0,0,0,0,0,0,0,-1,1637,435,5.61372,19.0606
420,589,2.79724,-5.79956,0,0,0,0,0,0,0,-1,1644,435,2.7973,5.79955
427,589,9.58423,-37.7722,0,0,0,0,0,0,0,-1,1651,435,9.58418,37.7722
434,589,9.14709,-34.4435,0,0,0,0,0,0,0,-1,1658,435,9.1471,34.4435
441,589,7.85901,-29.8665,0,0,0,0,0,0,0,-1,1665,435,7.85898,29.8666
448,589,0.453735,-3.2868,0,0,0,0,0,0,0,-1,1672,435,0.453701,3.28681
455,589,0.664307,-3.46848,0,0,0,0,0,0,0,-1,1679,435,0.66425,3.46846
462,589,3.46716,-4.41891,0,0,0,0,0,0,0,-1,1686,435,3.4672,4.41891
469,589,0.0238037,-3.81497,0,0,0,0,0,0,0,-1,1693,435,0.0237965,3.81498
476,589,0,0,0,0,0,0,0,0,0,-1,1700,435,0,0
483,589,0,0,0,0,0,0,0,0,0,-1,1707,435,0,0
490,589,0,0,0,0,0,0,0,0,0,-1,1714,435,0,0
497,589,0,0,0,0,0,0,0,0,0,-1,1721,435,0,0
504,589,0,0,0,0,0,0,0,0,0,-1,1728,435,0,0
511,589,0,0,0,0,0,0,0,0,0,-1,1735,435,0,0
518,589,0,0,0,0,0,0,0,0,0,-1,1742,435,0,0
525,589,0,0,0,0,0,0,0,0,0,-1,1749,435,0,0
532,589,0,0,0,0,0,0,0,0,0,-1,1756,435,0,0
539,589,0,0,0,0,0,0,0,0,0,-1,1763,435,0,0
546,589,0,0,0,0,0,0,0,0,0,-1,1770,435,0,0
553,589,0,0,0,0,0,0,0,0,0,-1,1777,435,0,0
560,589,0,0,0,0,0,0,0,0,0,-1,1784,435,0,0
567,589,0,0,0,0,0,0,0,0,0,-1,1791,435,0,0
574,589,0,0,0,0,0,0,0,0,0,-1,1798,435,0,0
581,589,0,0,0,0,0,0,0,0,0,-1,1805,435,0,0
588,589,0,0,0,0,0,0,0,0,0,-1,1812,435,0,0
595,589,0,0,0,0,0,0,0,0,0,-1,1819,435,0,0
602,589,0,0,0,0,0,0,0,0,0,-1,1826,435,0,0
609,589,0,0,0,0,0,0,0,0,0,-1,1833,435,0,0
616,589,0,0,0,0,0,0,0,0,0,-1,1840,435,0,0
623,589,0,0,0,0,0,0,0,0,0,-1,1847,435,0,0
630,589,0,0,0,0,0,0,0,0,0,-1,1854,435,0,0
637,589,0,0,0,0,0,0,0,0,0,-1,1861,435,0,0
644,589,0,0,0,0,0,0,0,0,0,-1,1868,435,0,0
651,589,0,0,0,0,0,0,0,0,0,-1,1875,435,0,0
658,589,0,0,0,0,0,0,0,0,0,-1,1882,435,0,0
665,589,0,0,0,0,0,0,0,0,0,-1,1889,435,0,0
672,589,0,0,0,0,0,0,0,0,0,-1,1896,435,0,0
679,589,0,0,0,0,0,0,0,0,0,-1,1903,435,0,0
686,589,0,0,0,0,0,0,0,0,0,-1,1910,435,0,0
693,589,0,0,0,0,0,0,0,0,0,-1,1917,435,0,0
700,589,0,0,0,0,0,0,0,0,0,-1,1924,435,0,0
707,589,0,0,0,0,0,0,0,0,0,-1,1931,435,0,0
714,589,0,0,0,0,0,0,0,0,0,-1,1938,435,0,0
721,589,0,0,0,0,0,0,0,0,0,-1,1945,435,0,0
728,589,0,0,0,0,0,0,0,0,0,-1,1952,435,0,0
735,589,0,0,0,0,0,0,0,0,0,-1,1959,435,0,0
742,589,0,0,0,0,0,0,0,0,0,-1,1966,435,0,0
749,589,0,0,0,0,0,0,0,0,0,-1,1973,435,0,0
756,589,0,0,0,0,0,0,0,0,0,-1,1980,435,0,0
763,589,0,0,0,0,0,0,0,0,0,-1,1987,435,0,0
770,589,0,0,0,0,0,0,0,0,0,-1,1994,435,0,0
777,589,0,0,0,0,0,0,0,0,0,-1,2001,435,0,0
784,589,0,0,0,0,0,0,0,0,0,-1,2008,435,0,0
791,589,0,0,0,0,0,0,0,0,0,-1,2015,435,0,0
798,589,0,0,0,0,0,0,0,0,0,-1,2022,435,0,0
805,589,0,0,0,0,0,0,0,0,0,-1,2029,435,0,0
812,589,0,0,0,0,0,0,0,0,0,-1,2036,435,0,0
-700,582,0,0,0,0,0,0,0,0,0,-1,524,442,0,0
-693,582,0,0,0,0,0,0,0,0,0,-1,531,442,0,0
-686,582,0,0,0,0,0,0,0,0,0,-1,538,442,0,0
-679,582,0,0,0,0,0,0,0,0,0,-1,545,442,0,0
-672,582,0,0,0,0,0,0,0,0,0,-1,552,442,0,0
-665,582,0,0,0,0,0,0,0,0,0,-1,559,442,0,0
-658,582,0,0,0,0,0,0,0,0,0,-1,566,442,0,0
-651,582,0,0,0,0,0,0,0,0,0,-1,573,442,0,0
-644,582,0,0,0,0,0,0,0,0,0,-1,580,442,0,0
-637,582,0,0,0,0,0,0,0,0,0,-1,587,442,0,0
-630,582,0,0,0,0,0,0,0,0,0,-1,594,442,0,0
-623,582,0,0,0,0,0,0,0,0,0,-1,601,442,0,0
-616,582,0,0,0,0,0,0,0,0,0,-1,608,442,0,0
-609,582,0,0,0,0,0,0,0,0,0,-1,615,442,0,0
-602,582,0,0,0,0,0,0,0,0,0,-1,622,442,0,0
-595,582,0,0,0,0,0,0,0,0,0,-1,629,442,0,0
-588,582,0,0,0,0,0,0,0,0,0,-1,636,442,0,0
-581,582,0,0,0,0,0,0,0,0,0,-1,643,442,0,0
-574,582,0,0,0,0,0,0,0,0,0,-1,650,442,0,0
-567,582,0,0,0,0,0,0,0,0,0,-1,657,442,0,0
-560,582,0,0,0,0,0,0,0,0,0,-1,664,442,0,0
-553,582,0,0,0,0,0,0,0,0,0,-1,671,442,0,0
-546,582,0,0,0,0,0,0,0,0,0,-1,678,442,0,0
-539,582,0,0,0,0,0,0,0,0,0,-1,685,442,0,0
-532,582,0,0,0,0,0,0,0,0,0,-1,692,442,0,0
-525,582,0,0,0,0,0,0,0,0,0,-1,699,442,0,0
-518,582,0,0,0,0,0,0,0,0,0,-1,706,442,0,0
-511,582,0,0,0,0,0,0,0,0,0,-1,713,442,0,0
-504,582,0,0,0,0,0,0,0,0,0,-1,720,442,0,0
-497,582,0,0,0,0,0,0,0,0,0,-1,727,442,0,0
-490,582,0,0,0,0,0,0,0,0,0,-1,734,442,0,0
-483,582,0,0,0,0,0,0,0,0,0,-1,741,442,0,0
-476,582,0,0,0,0,0,0,0,0,0,-1,748,442,0,0
-469,582,0,0,0,0,0,0,0,0,0,-1,755,442,0,0
-462,582,0,0,0,0,0,0,0,0,0,-1,762,442,0,0
-455,582,0,0,0,0,0,0,0,0,0,-1,769,442,0,0
-448,582,0,0,0,0,0,0,0,0,0,-1,776,442,0,0
-441,582,0,0,0,0,0,0,0,0,0,-1,783,442,0,0
-434,582,0,0,0,0,0,0,0,0,0,-1,790,442,0,0
-427,582,0,0,0,0,0,0,0,0,0,-1,797,442,0,0
-420,582,0,0,0,0,0,0,0,0,0,-1,804,442,0,0
-413,582,0,0,0,0,0,0,0,0,0,-1,811,442,0,0
-406,582,0,0,0,0,0,0,0,0,0,-1,818,442,0,0
-399,582,0,0,0,0,0,0,0,0,0,-1,825,442,0,0
-392,582,0,0,0,0,0,0,0,0,0,-1,832,442,0,0
-385,582,0,0,0,0,0,0,0,0,0,-1,839,442,0,0
-378,582,0,0,0,0,0,0,0,0,0,-1,846,442,0,0
-371,582,0,0,0,0,0,0,0,0,0,-1,853,442,0,0
-364,582,0,0,0,0,0,0,0,0,0,-1,860,442,0,0
-357,582,-1.4903,-21.5295,0,0,0,0,0,0,0,-1,867,442,-1.49031,21.5295
-350,582,-0.880859,-19.7966,0,0,0,0,0,0,0,-1,874,442,-0.880885,19.7966
-343,582,0.939941,-19.1705,0,0,0,0,0,0,0,-1,881,442,0.939935,19.1705
-336,582,3.33929,-27.9479,0,0,0,0,0,0,0,-1,888,442,3.33928,27.9479
-329,582,3.63544,-26.4736,0,0,0,0,0,0,0,-1,895,442,3.63546,26.4736
-322,582,3.67145,-27.1796,0,0,0,0,0,0,0,-1,902,442,3.67143,27.1796
-315,582,3.90686,-27.6446,0,0,0,0,0,0,0,-1,909,442,3.90689,27.6446
-308,582,4.07587,-33.1895,0,0,0,0,0,0,0,-1,916,442,4.07588,33.1895
-301,582,4.59113,-37.5714,0,0,0,0,0,0,0,-1,923,442,4.59112,37.5713
-294,582,4.26752,-38.5344,0,0,0,0,0,0,0,-1,930,442,4.26751,38.5344
-287,582,4.30304,-39.443,-0.000151555,0.017438,-0.00912208,0.0213145,-0.00402803,-1.16896,0.0157252,0.0409052,937,442,4.30307,39.443
-280,582,4.29462,-40.2646,-3.3864e-05,0.0165009,-0.00849953,0.0200906,-0.00362362,-1.17117,0.0147507,0.020007,944,442,4.29459,40.2646
-273,582,4.30011,-41.2286,2.34437e-05,0.0154156,-0.00795415,0.0187874,-0.00334836,-1.16985,0.0137774,0.013946,951,442,4.30011,41.2286
-266,582,4.23254,-42.0867,-2.79265e-05,0.0139976,-0.00726726,0.017084,-0.00311426,-1.16919,0.0125568,0.011516,958,442,4.23254,42.0867
-259,582,4.16571,-42.9296,1.27973e-05,0.0123522,-0.00659301,0.015212,-0.00284707,-1.16152,0.0112115,0.0093557,965,442,4.16571,42.9296
-252,582,4.11304,-43.757,6.36199e-05,0.0108013,-0.00584488,0.0133689,-0.00250398,-1.15688,0.00985388,0.00811141,972,442,4.11306,43.757
-245,582,4.08429,-44.5288,0.000126232,0.00928055,-0.00508883,0.0115479,-0.00214107,-1.15165,0.0085026,0.0115394,979,442,4.08431,44.5289
-238,582,4.02881,-45.2834,0.000163322,0.00757746,-0.00421562,0.00948411,-0.00174333,-1.14605,0.00697683,0.0162777,986,442,4.02879,45.2835
-231,582,3.95142,-46.045,0.000240297,0.00574823,-0.0032815,0.00727825,-0.00128973,-1.13451,0.0053343,0.0135432,993,442,3.9514,46.045
-224,582,3.89459,-46.8416,0.000371085,0.00395968,-0.0024068,0.00516742,-0.000836651,-1.10571,0.00375503,0.0109822,1000,442,3.89459,46.8416
-217,582,3.8631,-47.6283,0.000570728,0.00191424,-0.00152004,0.00290435,-0.000419376,-0.993461,0.00209009,0.0132258,1007,442,3.8631,47.6283
-210,582,3.8349,-48.3508,0.000834201,-7.96899e-05,-0.000654406,0.00117541,-0.000420896,-0.48062,0.000955327,0.0142969,1014,442,3.83488,48.3508
-203,582,3.82422,-49.0741,0.00116028,-0.00181741,0.000147272,0.00116755,-0.00182468,0.0492979,0.0017414,0.0112385,1021,442,3.82423,49.0741
-196,582,3.78113,-49.8266,0.0014673,-0.00344838,0.000887303,0.00162256,-0.00360364,0.173224,0.00308876,0.0158764,1028,442,3.78108,49.8266
-189,582,3.74451,-50.5413,0.00174345,-0.00488673,0.00149463,0.0020648,-0.00520808,0.211783,0.00432775,0.0228569,1035,442,3.74457,50.5413
-182,582,3.72522,-51.2333,0.00202106,-0.0059419,0.00214282,0.00256107,-0.00648191,0.246868,0.00538206,0.0171346,1042,442,3.72519,51.2333
-175,582,3.72925,-51.9072,0.00237591,-0.00682105,0.00267751,0.00309863,-0.00754377,0.263637,0.00632052,0.0144086,1049,442,3.72928,51.9072
-168,582,3.73083,-52.6179,0.00262043,-0.00736859,0.00311974,0.00351471,-0.00826288,0.279168,0.00698156,0.0118039,1056,442,3.73082,52.6179
-161,582,3.71753,-53.2505,0.0028199,-0.00778714,0.00356025,0.00390408,-0.00887132,0.295601,0.00755944,0.0139796,1063,442,3.71754,53.2505
-154,582,3.71484,-53.885,0.00309295,-0.00792262,0.00394872,0.00436219,-0.00919186,0.311,0.00798931,0.0142415,1070,442,3.71488,53.885
-147,582,3.73206,-54.5336,0.00345123,-0.00783304,0.00422248,0.0048563,-0.0092381,0.321233,0.00826745,0.0134699,1077,442,3.73203,54.5336
-140,582,3.70044,-55.1247,0.00375257,-0.00761804,0.00446196,0.00529442,-0.00915989,0.332709,0.00844408,0.0150618,1084,442,3.70046,55.1247
-133,582,3.77295,-55.7346,0.00386317,-0.00735957,0.00488385,0.00569085,-0.00918724,0.358095,0.00866858,0.0210741,1091,442,3.77291,55.7345
-126,582,3.80457,-56.2394,0.00418583,-0.00675056,0.00513489,0.00621885,-0.00878358,0.376987,0.00870374,0.0213874,1098,442,3.8046,56.2394
-119,582,3.854,-56.8539,0,0,0,0,0,0,0,-1,1105,442,3.85405,56.8539
-112,582,3.47888,-53.7394,0,0,0,0,0,0,0,-1,1112,442,3.47883,53.7394
-105,582,2.87219,-43.073,0,0,0,0,0,0,0,-1,1119,442,2.87217,43.073
-98,582,2.61938,-32.8673,0,0,0,0,0,0,0,-1,1126,442,2.61944,32.8673
-91,582,2.16492,-24.1119,0,0,0,0,0,0,0,-1,1133,442,2.16496,24.1119
-84,582,2.10278,-16.7533,0,0,0,0,0,0,0,-1,1140,442,2.10279,16.7533
-77,582,2.30212,-11.4907,0,0,0,0,0,0,0,-1,1147,442,2.30207,11.4907
-70,582,1.49255,-6.36548,0,0,0,0,0,0,0,-1,1154,442,1.49251,6.36549
-63,582,-4.62915,-4.0347,0,0,0,0,0,0,0,-1,1161,442,-4.6292,4.03471
-56,582,-5.81714,-5.24149,0,0,0,0,0,0,0,-1,1168,442,-5.81718,5.24149
-49,582,-3.88672,-10.1064,0,0,0,0,0,0,0,-1,1175,442,-3.88678,10.1064
-42,582,-0.948975,1.13968,0,0,0,0,0,0,0,-1,1182,442,-0.949003,-1.13969
-35,582,-2.58435,-3.86911,0,0,0,0,0,0,0,-1,1189,442,-2.58437,3.86912
-28,582,-0.825317,-3.45941,0,0,0,0,0,0,0,-1,1196,442,-0.825377,3.45942
-21,582,13.1615,-74.4987,0,0,0,0,0,0,0,-1,1203,442,13.1615,74.4986
-14,582,12.3857,-73.1992,0,0,0,0,0,0,0,-1,1210,442,12.3858,73.1992
-7,582,11.6064,-71.89,0,0,0,0,0,0,0,-1,1217,442,11.6064,71.89
0,582,12.6638,-71.4258,0,0,0,0,0,0,0,-1,1224,442,12.6638,71.4258
7,582,11.6967,-70.6431,0,0,0,0,0,0,0,-1,1231,442,11.6967,70.643
14,582,2.0863,-58.6307,0,0,0,0,0,0,0,-1,1238,442,2.08625,58.6307
21,582,1.75256,-60.3447,0,0,0,0,0,0,0,-1,1245,442,1.75253,60.3447
28,582,7.77271,-62.3316,0,0,0,0,0,0,0,-1,1252,442,7.77274,62.3316
35,582,7.71423,-62.705,0,0,0,0,0,0,0,-1,1259,442,7.71426,62.7051
42,582,7.297,-63.2072,0,0,0,0,0,0,0,-1,1266,442,7.29704,63.2072
49,582,6.92078,-64.0069,0,0,0,0,0,0,0,-1,1273,442,6.92083,64.0069
56,582,3.90137,-64.326,0,0,0,0,0,0,0,-1,1280,442,3.90141,64.326
63,582,3.90881,-64.3369,0,0,0,0,0,0,0,-1,1287,442,3.90883,64.3369
70,582,3.854,-64.4315,0,0,0,0,0,0,0,-1,1294,442,3.854,64.4314
77,582,4.46631,-65.2288,0,0,0,0,0,0,0,-1,1301,442,4.46627,65.2288
84,582,4.35535,-64.906,0,0,0,0,0,0,0,-1,1308,442,4.35536,64.906
91,582,4.10913,-64.5009,0,0,0,0,0,0,0,-1,1315,442,4.10911,64.5009
98,582,4.20215,-63.8958,0,0,0,0,0,0,0,-1,1322,442,4.2021,63.8958
105,582,4.22144,-63.941,0,0,0,0,0,0,0,-1,1329,442,4.22145,63.941
112,582,2.44873,-62.8485,0,0,0,0,0,0,0,-1,1336,442,2.44873,62.8486
119,582,2.62292,-63.2002,0,0,0,0,0,0,0,-1,1343,442,2.62288,63.2002
126,582,2.19934,-63.1167,0,0,0,0,0,0,0,-1,1350,442,2.19936,63.1167
133,582,2.5249,-62.5316,0,0,0,0,0,0,0,-1,1357,442,2.5249,62.5316
140,582,2.88208,-62.2182,0,0,0,0,0,0,0,-1,1364,442,2.8821,62.2182
147,582,2.89258,-61.5295,0,0,0,0,0,0,0,-1,1371,442,2.89261,61.5295
154,582,3.01221,-60.8615,0,0,0,0,0,0,0,-1,1378,442,3.01218,60.8615
161,582,-8.04797,-54.6503,0,0,0,0,0,0,0,-1,1385,442,-8.04802,54.6503
168,582,0.081665,-40.4535,0,0,0,0,0,0,0,-1,1392,442,0.0816215,40.4535
175,582,6.50549,-2.00424,0,0,0,0,0,0,0,-1,1399,442,6.50546,2.00425
182,582,5.18958,-2.18652,0,0,0,0,0,0,0,-1,1406,442,5.1896,2.18652
189,582,6.19751,-0.880951,0,0,0,0,0,0,0,-1,1413,442,6.19754,0.88096
196,582,4.87354,-2.22327,0,0,0,0,0,0,0,-1,1420,442,4.87348,2.22325
203,582,3.11401,-4.48257,0,0,0,0,0,0,0,-1,1427,442,3.11404,4.48259
210,582,2.93115,-11.0731,0,0,0,0,0,0,0,-1,1434,442,2.93113,11.0731
217,582,4.94092,-16.5476,0,0,0,0,0,0,0,-1,1441,442,4.94087,16.5476
224,582,5.21008,-20.9908,0,0,0,0,0,0,0,-1,1448,442,5.21006,20.9908
231,582,5.70032,-25.622,0,0,0,0,0,0,0,-1,1455,442,5.70026,25.6221
238,582,6.44189,-30.7028,0,0,0,0,0,0,0,-1,1462,442,6.44195,30.7028
245,582,10.0378,-45.1569,0,0,0,0,0,0,0,-1,1469,442,10.0379,45.1568
252,582,11.7906,-56.3234,0,0,0,0,0,0,0,-1,1476,442,11.7906,56.3234
259,582,11.7571,-55.7357,0.00357539,-0.00423043,-0.00265992,0.0043956,-0.00505064,-0.299108,0.00545816,0.0421617,1483,442,11.7571,55.7357
266,582,11.7847,-54.9881,0.00282163,-0.00451424,-0.00268136,0.0036972,-0.00538981,-0.315624,0.00527664,0.0145588,1490,442,11.7846,54.9881
273,582,11.7988,-54.3511,0.00212331,-0.00480231,-0.0027398,0.00307611,-0.00575511,-0.334678,0.00517631,0.011178,1497,442,11.7988,54.3512
280,582,11.8121,-53.7155,0.00157929,-0.00483938,-0.0025879,0.0024927,-0.00575279,-0.339305,0.00488299,0.012194,1504,442,11.8121,53.7156
287,582,11.8146,-53.04,0.0011464,-0.0048422,-0.00253689,0.00207659,-0.00577239,-0.351445,0.00469608,0.0126763,1511,442,11.8146,53.0401
294,582,11.8083,-52.3268,0.000865201,-0.00442839,-0.00233715,0.00174938,-0.00531257,-0.361674,0.00424669,0.00966128,1518,442,11.8084,52.3268
301,582,11.8158,-51.6168,0.000704313,-0.00399996,-0.00208992,0.00149866,-0.0047943,-0.363219,0.00379569,0.00994243,1525,442,11.8158,51.6168
308,582,11.8073,-50.9078,0.000615246,-0.00325603,-0.0017714,0.00130345,-0.00394424,-0.370562,0.00315504,0.0126303,1532,442,11.8072,50.9078
315,582,11.7755,-50.2138,0.000579328,-0.00240541,-0.00134369,0.00109511,-0.00292119,-0.366511,0.00239737,0.0133658,1539,442,11.7755,50.2138
322,582,11.7552,-49.4732,0.000563604,-0.00126915,-0.00078611,0.000854586,-0.00156013,-0.354516,0.00141383,0.0110339,1546,442,11.7552,49.4732
329,582,11.7198,-48.7389,0.000604765,-0.000100443,-0.000121613,0.000625147,-0.000120826,-0.166062,0.000462333,0.011296,1553,442,11.7198,48.7389
336,582,11.6943,-48.0099,0.000752124,0.00116858,0.000647864,0.00164086,0.000279848,0.940888,0.00101358,0.0121452,1560,442,11.6943,48.0099
343,582,11.6699,-47.2572,0.000943836,0.00244088,0.0014738,0.00334535,3.93644e-05,1.02037,0.00221723,0.0146554,1567,442,11.67,47.2572
350,582,11.6385,-46.4713,0.00109426,0.00420481,0.00241542,0.00552237,-0.000223296,1.07143,0.00375822,0.0183115,1574,442,11.6386,46.4713
357,582,11.5929,-45.6862,0.00121118,0.00576018,0.0034089,0.00758372,-0.000612364,1.07959,0.0052718,0.015634,1581,442,11.5929,45.6862
364,582,11.5311,-44.9061,0.00131817,0.0071426,0.00436035,0.00947383,-0.00101305,1.07982,0.00667923,0.0117588,1588,442,11.5311,44.9061
371,582,11.4586,-44.116,0.00140359,0.00856709,0.00530378,0.0113853,-0.00141458,1.08238,0.00810297,0.0167937,1595,442,11.4587,44.116
378,582,11.3998,-43.3077,0.00140095,0.00994315,0.00611722,0.0131328,-0.00178869,1.09016,0.00940828,0.0180472,1602,442,11.3998,43.3077
385,582,11.3627,-42.4784,0.00153933,0.0110924,0.00661679,0.0144765,-0.00184486,1.09803,0.0103211,0.0131448,1609,442,11.3626,42.4784
392,582,11.3157,-41.6579,0.00202798,0.0113485,0.00695429,0.0150596,-0.00168316,1.08059,0.0106452,0.0114996,1616,442,11.3157,41.6579
399,582,11.2458,-40.86,0.00254669,0.0120785,0.0074939,0.0161936,-0.0015684,1.06862,0.0113547,0.0188274,1623,442,11.2458,40.86
406,582,11.1782,-39.8574,0.00301929,0.0120998,0.00774803,0.0165399,-0.00142076,1.05042,0.0115294,0.0325087,1630,442,11.1783,39.8574
413,582,11.0372,-39.1376,0,0,0,0,0,0,0,-1,1637,442,11.0372,39.1376
420,582,10.9827,-38.274,0,0,0,0,0,0,0,-1,1644,442,10.9826,38.274
427,582,10.7068,-37.4921,0,0,0,0,0,0,0,-1,1651,442,10.7068,37.4921
434,582,10.494,-36.6761,0,0,0,0,0,0,0,-1,1658,442,10.494,36.6761
441,582,10.8484,-36.2891,0,0,0,0,0,0,0,-1,1665,442,10.8484,36.2891
448,582,11.2651,-32.8669,0,0,0,0,0,0,0,-1,1672,442,11.2651,32.8668
455,582,6.4585,-19.4734,0,0,0,0,0,0,0,-1,1679,442,6.45854,19.4734
462,582,5.35022,-19.2616,0,0,0,0,0,0,0,-1,1686,442,5.35025,19.2616
469,582,6.28601,-21.5695,0,0,0,0,0,0,0,-1,1693,442,6.28597,21.5695
476,582,1.93579,-8.53891,0,0,0,0,0,0,0,-1,1700,442,1.93579,8.53892
483,582,0,0,0,0,0,0,0,0,0,-1,1707,442,0,0
490,582,0,0,0,0,0,0,0,0,0,-1,1714,442,0,0
497,582,0,0,0,0,0,0,0,0,0,-1,1721,442,0,0
504,582,0,0,0,0,0,0,0,0,0,-1,1728,442,0,0
511,582,0,0,0,0,0,0,0,0,0,-1,1735,442,0,0
518,582,0,0,0,0,0,0,0,0,0,-1,1742,442,0,0
525,582,0,0,0,0,0,0,0,0,0,-1,1749,442,0,0
532,582,0,0,0,0,0,0,0,0,0,-1,1756,442,0,0
539,582,0,0,0,0,0,0,0,0,0,-1,1763,442,0,0
546,582,0,0,0,0,0,0,0,0,0,-1,1770,442,0,0
553,582,0,0,0,0,0,0,0,0,0,-1,1777,442,0,0
560,582,0,0,0,0,0,0,0,0,0,-1,1784,442,0,0
567,582,0,0,0,0,0,0,0,0,0,-1,1791,442,0,0
574,582,0,0,0,0,0,0,0,0,0,-1,1798,442,0,0
581,582,0,0,0,0,0,0,0,0,0,-1,1805,442,0,0
588,582,0,0,0,0,0,0,0,0,0,-1,1812,442,0,0
595,582,0,0,0,0,0,0,0,0,0,-1,1819,442,0,0
602,582,0,0,0,0,0,0,0,0,0,-1,1826,442,0,0
609,582,0,0,0,0,0,0,0,0,0,-1,1833,442,0,0
616,582,0,0,0,0,0,0,0,0,0,-1,1840,442,0,0
623,582,0,0,0,0,0,0,0,0,0,-1,1847,442,0,0
630,582,0,0,0,0,0,0,0,0,0,-1,1854,442,0,0
637,582,0,0,0,0,0,0,0,0,0,-1,1861,442,0,0
644,582,0,0,0,0,0,0,0,0,0,-1,1868,442,0,0
651,582,0,0,0,0,0,0,0,0,0,-1,1875,442,0,0
658,582,0,0,0,0,0,0,0,0,0,-1,1882,442,0,0
665,582,0,0,0,0,0,0,0,0,0,-1,1889,442,0,0
672,582,0,0,0,0,0,0,0,0,0,-1,1896,442,0,0
679,582,0,0,0,0,0,0,0,0,0,-1,1903,442,0,0
686,582,0,0,0,0,0,0,0,0,0,-1,1910,442,0,0
693,582,0,0,0,0,0,0,0,0,0,-1,1917,442,0,0
700,582,0,0,0,0,0,0,0,0,0,-1,1924,442,0,0
707,582,0,0,0,0,0,0,0,0,0,-1,1931,442,0,0
714,582,0,0,0,0,0,0,0,0,0,-1,1938,442,0,0
721,582,0,0,0,0,0,0,0,0,0,-1,1945,442,0,0
728,582,0,0,0,0,0,0,0,0,0,-1,1952,442,0,0
735,582,0,0,0,0,0,0,0,0,0,-1,1959,442,0,0
742,582,0,0,0,0,0,0,0,0,0,-1,1966,442,0,0
749,582,0,0,0,0,0,0,0,0,0,-1,1973,442,0,0
756,582,0,0,0,0,0,0,0,0,0,-1,1980,442,0,0
763,582,0,0,0,0,0,0,0,0,0,-1,1987,442,0,0
770,582,0,0,0,0,0,0,0,0,0,-1,1994,442,0,0
777,582,0,0,0,0,0,0,0,0,0,-1,2001,442,0,0
784,582,0,0,0,0,0,0,0,0,0,-1,2008,442,0,0
791,582,0,0,0,0,0,0,0,0,0,-1,2015,442,0,0
798,582,0,0,0,0,0,0,0,0,0,-1,2022,442,0,0
805,582,0,0,0,0,0,0,0,0,0,-1,2029,442,0,0
812,582,0,0,0,0,0,0,0,0,0,-1,2036,442,0,0
-700,575,0,0,0,0,0,0,0,0,0,-1,524,449,0,0
-693,575,0,0,0,0,0,0,0,0,0,-1,531,449,0,0
-686,575,0,0,0,0,0,0,0,0,0,-1,538,449,0,0
-679,575,0,0,0,0,0,0,0,0,0,-1,545,449,0,0
-672,575,0,0,0,0,0,0,0,0,0,-1,552,449,0,0
-665,575,0,0,0,0,0,0,0,0,0,-1,559,449,0,0
-658,575,0,0,0,0,0,0,0,0,0,-1,566,449,0,0
-651,575,0,0,0,0,0,0,0,0,0,-1,573,449,0,0
-644,575,0,0,0,0,0,0,0,0,0,-1,580,449,0,0
-637,575,0,0,0,0,0,0,0,0,0,-1,587,449,0,0
-630,575,0,0,0,0,0,0,0,0,0,-1,594,449,0,0
-623,575,0,0,0,0,0,0,0,0,0,-1,601,449,0,0
-616,575,0,0,0,0,0,0,0,0,0,-1,608,449,0,0
-609,575,0,0,0,0,0,0,0,0,0,-1,615,449,0,0
-602,575,0,0,0,0,0,0,0,0,0,-1,622,449,0,0
-595,575,0,0,0,0,0,0,0,0,0,-1,629,449,0,0
-588,575,0,0,0,0,0,0,0,0,0,-1,636,449,0,0
-581,575,0,0,0,0,0,0,0,0,0,-1,643,449,0,0
-574,575,0,0,0,0,0,0,0,0,0,-1,650,449,0,0
-567,575,0,0,0,0,0,0,0,0,0,-1,657,449,0,0
-560,575,0,0,0,0,0,0,0,0,0,-1,664,449,0,0
-553,575,0,0,0,0,0,0,0,0,0,-1,671,449,0,0
-546,575,0,0,0,0,0,0,0,0,0,-1,678,449,0,0
-539,575,0,0,0,0,0,0,0,0,0,-1,685,449,0,0
-532,575,0,0,0,0,0,0,0,0,0,-1,692,449,0,0
-525,575,0,0,0,0,0,0,0,0,0,-1,699,449,0,0
-518,575,0,0,0,0,0,0,0,0,0,-1,706,449,0,0
-511,575,0,0,0,0,0,0,0,0,0,-1,713,449,0,0
-504,575,0,0,0,0,0,0,0,0,0,-1,720,449,0,0
-497,575,0,0,0,0,0,0,0,0,0,-1,727,449,0,0
-490,575,0,0,0,0,0,0,0,0,0,-1,734,449,0,0
-483,575,0,0,0,0,0,0,0,0,0,-1,741,449,0,0
-476,575,0,0,0,0,0,0,0,0,0,-1,748,449,0,0
-469,575,0,0,0,0,0,0,0,0,0,-1,755,449,0,0
-462,575,0,0,0,0,0,0,0,0,0,-1,762,449,0,0
-455,575,0,0,0,0,0,0,0,0,0,-1,769,449,0,0
-448,575,0,0,0,0,0,0,0,0,0,-1,776,449,0,0
-441,575,0,0,0,0,0,0,0,0,0,-1,783,449,0,0
-434,575,0,0,0,0,0,0,0,0,0,-1,790,449,0,0
-427,575,0,0,0,0,0,0,0,0,0,-1,797,449,0,0
-420,575,0,0,0,0,0,0,0,0,0,-1,804,449,0,0
-413,575,0,0,0,0,0,0,0,0,0,-1,811,449,0,0
-406,575,0,0,0,0,0,0,0,0,0,-1,818,449,0,0
-399,575,0,0,0,0,0,0,0,0,0,-1,825,449,0,0
-392,575,0,0,0,0,0,0,0,0,0,-1,832,449,0,0
-385,575,0,0,0,0,0,0,0,0,0,-1,839,449,0,0
-378,575,0,0,0,0,0,0,0,0,0,-1,846,449,0,0
-371,575,0.56897,-3.52304,0,0,0,0,0,0,0,-1,853,449,0.568955,3.52306
-364,575,1.49805,-4.67191,0,0,0,0,0,0,0,-1,860,449,1.49803,4.6719
-357,575,3.15521,-8.29892,0,0,0,0,0,0,0,-1,867,449,3.15521,8.29891
-350,575,-0.825928,-18.5347,0,0,0,0,0,0,0,-1,874,449,-0.825948,18.5347
-343,575,0.465393,-16.3569,0,0,0,0,0,0,0,-1,881,449,0.465397,16.3569
-336,575,3.1994,-17.5725,0,0,0,0,0,0,0,-1,888,449,3.19941,17.5725
-329,575,2.81946,-29.1576,0,0,0,0,0,0,0,-1,895,449,2.81945,29.1576
-322,575,4.28943,-27.9487,0,0,0,0,0,0,0,-1,902,449,4.28944,27.9487
-315,575,4.79004,-34.4812,0,0,0,0,0,0,0,-1,909,449,4.79002,34.4812
-308,575,3.70044,-36.9139,0,0,0,0,0,0,0,-1,916,449,3.70044,36.9139
-301,575,3.79895,-37.7577,-0.0012349,0.0175398,-0.00891045,0.0210953,-0.00479046,-1.19113,0.0159027,0.0438887,923,449,3.79896,37.7577
-294,575,3.69403,-38.6012,-0.000745029,0.0154137,-0.00799701,0.0187022,-0.00403354,-1.18066,0.0140076,0.0258106,930,449,3.69405,38.6012
-287,575,3.61761,-39.4914,-0.000553453,0.0136638,-0.007145,0.016634,-0.0035237,-1.17682,0.0124315,0.0175891,937,449,3.6176,39.4914
-280,575,3.58112,-40.3955,-0.00029818,0.0126143,-0.00656836,0.0153682,-0.00305206,-1.17379,0.0113998,0.013683,944,449,3.58113,40.3955
-273,575,3.53033,-41.2505,-0.000100615,0.0114311,-0.0060357,0.0140124,-0.00268189,-1.16667,0.010352,0.0126846,951,449,3.53031,41.2505
-266,575,3.48108,-42.0802,2.28845e-07,0.00998354,-0.00538527,0.0123348,-0.00235098,-1.15914,0.00910853,0.0138244,958,449,3.48111,42.0802
-259,575,3.41101,-42.9054,0.000144071,0.00826632,-0.00471592,0.0104288,-0.00201836,-1.14086,0.00771382,0.0132039,965,449,3.41103,42.9054
-252,575,3.32159,-43.7267,0.000253809,0.00664158,-0.00393525,0.00851594,-0.00162055,-1.12629,0.00628748,0.0118256,972,449,3.32158,43.7266
-245,575,3.26617,-44.5022,0.000361018,0.0050302,-0.00310698,0.00658195,-0.00119073,-1.1076,0.00483401,0.0152086,979,449,3.26617,44.5022
-238,575,3.23914,-45.2485,0.000468901,0.00325809,-0.00219589,0.0044648,-0.000737815,-1.06831,0.00325051,0.0151248,986,449,3.23915,45.2485
-231,575,3.19617,-46.0187,0.000600802,0.00132637,-0.00122358,0.00223981,-0.000312644,-0.929516,0.00160759,0.0126507,993,449,3.19617,46.0187
-224,575,3.14276,-46.7911,0.000736723,-0.000556272,-0.000267945,0.00079005,-0.000609599,-0.196453,0.000810323,0.0124908,1000,449,3.14277,46.7911
-217,575,3.12885,-47.5391,0.000941226,-0.00263222,0.000703647,0.00107479,-0.00276578,0.187584,0.00228788,0.0111027,1007,449,3.12887,47.5391
-210,575,3.13434,-48.3003,0.00121725,-0.00465717,0.00162642,0.00163749,-0.0050774,0.252851,0.00404286,0.010018,1014,449,3.13434,48.3003
-203,575,3.11548,-49.0331,0.00157351,-0.00634978,0.00245664,0.00227337,-0.00704965,0.277536,0.00561317,0.0131974,1021,449,3.11553,49.0331
-196,575,3.06238,-49.7612,0.00193325,-0.00790946,0.00319626,0.00288009,-0.00885631,0.288,0.00706277,0.0172151,1028,449,3.06232,49.7612
-189,575,3.04053,-50.4739,0.00224211,-0.00924436,0.0037783,0.00337348,-0.0103757,0.290944,0.00827415,0.0181621,1035,449,3.04058,50.4739
-182,575,3.02942,-51.1672,0.00252445,-0.0101212,0.00440761,0.0039091,-0.0115058,0.304388,0.00925304,0.0158883,1042,449,3.02944,51.1672
-175,575,3.03284,-51.8528,0.00291809,-0.0107461,0.00486821,0.00447509,-0.0123031,0.30955,0.0100322,0.012711,1049,449,3.03282,51.8528
-168,575,3.02014,-52.5352,0.00319941,-0.0110382,0.00520778,0.00490094,-0.0127397,0.315795,0.0105147,0.011046,1056,449,3.02009,52.5352
-161,575,3.02844,-53.1819,0.00339443,-0.0112675,0.00557023,0.00527056,-0.0131436,0.32488,0.0109505,0.0160518,1063,449,3.0285,53.1819
-154,575,3.05188,-53.8236,0.00367294,-0.0111027,0.00584039,0.00570265,-0.0131324,0.334474,0.0111529,0.0178154,1070,449,3.05193,53.8236
-147,575,3.08081,-54.4138,0.00403312,-0.0106772,0.0059656,0.00614828,-0.0127923,0.34073,0.0111574,0.0152637,1077,449,3.08075,54.4138
-140,575,3.0354,-54.9154,0.00425021,-0.0100128,0.00604789,0.0064694,-0.0122319,0.351682,0.0109668,0.023998,1084,449,3.03542,54.9154
-133,575,3.11694,-55.3746,0.0040752,-0.00930613,0.00655116,0.00674844,-0.0119794,0.387432,0.0109522,0.0411123,1091,449,3.11698,55.3746
-126,575,3.09644,-55.8446,0,0,0,0,0,0,0,-1,1098,449,3.09645,55.8446
-119,575,3.00208,-52.3971,0,0,0,0,0,0,0,-1,1105,449,3.00204,52.3971
-112,575,2.70337,-43.3701,0,0,0,0,0,0,0,-1,1112,449,2.70333,43.3701
-105,575,2.18347,-36.5414,0,0,0,0,0,0,0,-1,1119,449,2.18351,36.5414
-98,575,1.521,-25.6961,0,0,0,0,0,0,0,-1,1126,449,1.52105,25.6961
-91,575,1.60803,-16.4247,0,0,0,0,0,0,0,-1,1133,449,1.60802,16.4247
-84,575,1.16553,-11.9056,0,0,0,0,0,0,0,-1,1140,449,1.16558,11.9056
-77,575,0.205078,-11.2584,0,0,0,0,0,0,0,-1,1147,449,0.205117,11.2584
-70,575,-4.2467,-1.78738,0,0,0,0,0,0,0,-1,1154,449,-4.24674,1.78739
-63,575,-4.52209,-3.48798,0,0,0,0,0,0,0,-1,1161,449,-4.5221,3.48796
-56,575,-5.5968,-5.4928,0,0,0,0,0,0,0,-1,1168,449,-5.59683,5.49281
-49,575,-5.96863,-7.17612,0,0,0,0,0,0,0,-1,1175,449,-5.96868,7.1761
-42,575,-0.830322,0.773499,0,0,0,0,0,0,0,-1,1182,449,-0.83038,-0.77351
-35,575,-0.62085,0.205139,0,0,0,0,0,0,0,-1,1189,449,-0.620855,-0.205126
-28,575,0.49292,-3.87988,0,0,0,0,0,0,0,-1,1196,449,0.492941,3.87989
-21,575,13.4017,-73.5942,0,0,0,0,0,0,0,-1,1203,449,13.4018,73.5942
-14,575,12.9225,-72.7917,0,0,0,0,0,0,0,-1,1210,449,12.9225,72.7917
-7,575,12.2201,-71.7712,0,0,0,0,0,0,0,-1,1217,449,12.2201,71.7712
0,575,12.1516,-70.7345,0,0,0,0,0,0,0,-1,1224,449,12.1516,70.7345
7,575,0.855591,-60.1631,0,0,0,0,0,0,0,-1,1231,449,0.855571,60.1631
14,575,1.27429,-60.6416,0,0,0,0,0,0,0,-1,1238,449,1.27429,60.6416
21,575,1.61292,-61.2081,0,0,0,0,0,0,0,-1,1245,449,1.61295,61.2081
28,575,1.41504,-61.5732,0,0,0,0,0,0,0,-1,1252,449,1.41506,61.5732
35,575,8.08215,-62.4886,0,0,0,0,0,0,0,-1,1259,449,8.08216,62.4886
42,575,3.3446,-64.3171,0,0,0,0,0,0,0,-1,1266,449,3.34462,64.3172
49,575,3.22717,-64.5207,0,0,0,0,0,0,0,-1,1273,449,3.22711,64.5207
56,575,3.02258,-64.4297,0,0,0,0,0,0,0,-1,1280,449,3.02262,64.4297
63,575,2.96973,-64.3438,0,0,0,0,0,0,0,-1,1287,449,2.9697,64.3437
70,575,2.90283,-64.3782,0,0,0,0,0,0,0,-1,1294,449,2.90289,64.3782
77,575,4.06018,-65.9349,0,0,0,0,0,0,0,-1,1301,449,4.06021,65.935
84,575,3.74719,-66.1128,0,0,0,0,0,0,0,-1,1308,449,3.74717,66.1128
91,575,2.11548,-64.3893,0,0,0,0,0,0,0,-1,1315,449,2.11543,64.3893
98,575,3.46875,-63.9605,0,0,0,0,0,0,0,-1,1322,449,3.46871,63.9605
105,575,2.47522,-63.467,0,0,0,0,0,0,0,-1,1329,449,2.47525,63.4671
112,575,2.25476,-63.3841,0,0,0,0,0,0,0,-1,1336,449,2.25471,63.3841
119,575,2.10291,-63.5203,0,0,0,0,0,0,0,-1,1343,449,2.10288,63.5203
126,575,2.28186,-62.9849,0,0,0,0,0,0,0,-1,1350,449,2.28181,62.9849
133,575,2.40417,-62.257,0,0,0,0,0,0,0,-1,1357,449,2.40414,62.257
140,575,2.41919,-61.5429,0,0,0,0,0,0,0,-1,1364,449,2.41921,61.5429
147,575,2.48877,-60.8693,0,0,0,0,0,0,0,-1,1371,449,2.48879,60.8693
154,575,2.63013,-60.1744,0,0,0,0,0,0,0,-1,1378,449,2.63009,60.1744
161,575,-10.5699,-54.3822,0,0,0,0,0,0,0,-1,1385,449,-10.5699,54.3822
168,575,7.5509,-35.3165,0,0,0,0,0,0,0,-1,1392,449,7.5509,35.3165
175,575,4.32617,1.93634,0,0,0,0,0,0,0,-1,1399,449,4.32612,-1.93634
182,575,6.3147,-2.88345,0,0,0,0,0,0,0,-1,1406,449,6.31466,2.88346
189,575,6.10449,-1.30817,0,0,0,0,0,0,0,-1,1413,449,6.10455,1.30817
196,575,5.79895,0.818359,0,0,0,0,0,0,0,-1,1420,449,5.79895,-0.81837
203,575,3.29724,-1.46378,0,0,0,0,0,0,0,-1,1427,449,3.29722,1.46377
210,575,2.32739,-7.74503,0,0,0,0,0,0,0,-1,1434,449,2.32741,7.74502
217,575,3.33618,-11.5521,0,0,0,0,0,0,0,-1,1441,449,3.3362,11.5521
224,575,5.51709,-16.3903,0,0,0,0,0,0,0,-1,1448,449,5.51713,16.3903
231,575,5.48572,-20.4595,0,0,0,0,0,0,0,-1,1455,449,5.48571,20.4595
238,575,5.33484,-22.3575,0,0,0,0,0,0,0,-1,1462,449,5.33478,22.3575
245,575,5.59741,-23.513,0,0,0,0,0,0,0,-1,1469,449,5.5974,23.513
252,575,10.5602,-44.9309,0,0,0,0,0,0,0,-1,1476,449,10.5602,44.9309
259,575,12.3607,-55.6012,0,0,0,0,0,0,0,-1,1483,449,12.3607,55.6012
266,575,12.4596,-54.8835,0.0025716,-0.00570812,-0.00354354,0.00388106,-0.00701758,-0.353971,0.0063786,0.0387442,1490,449,12.4595,54.8835
273,575,12.4927,-54.2704,0.00183303,-0.00662216,-0.00382541,0.00330687,-0.00809599,-0.367748,0.00677423,0.0201226,1497,449,12.4927,54.2703
280,575,12.5088,-53.594,0.00128713,-0.00717627,-0.00384776,0.00277491,-0.00866406,-0.368957,0.00688987,0.015712,1504,449,12.5088,53.594
287,575,12.4939,-52.9768,0.00081128,-0.00769086,-0.00408011,0.00245249,-0.00933206,-0.382441,0.00717988,0.0138317,1511,449,12.4939,52.9768
294,575,12.5128,-52.298,0.000526138,-0.00755758,-0.00407538,0.00222408,-0.00925553,-0.394764,0.00702998,0.0115178,1518,449,12.5129,52.298
301,575,12.531,-51.5943,0.000385911,-0.00745044,-0.00401039,0.00207446,-0.00913898,-0.398514,0.00688905,0.00998251,1525,449,12.5309,51.5943
308,575,12.53,-50.8753,0.000285755,-0.00692942,-0.00385177,0.00195555,-0.00859922,-0.409061,0.00648372,0.01044,1532,449,12.53,50.8753
315,575,12.4946,-50.1754,0.000217892,-0.0062213,-0.00354912,0.00179017,-0.00779358,-0.417022,0.00588393,0.0111344,1539,449,12.4947,50.1754
322,575,12.4913,-49.4515,0.000197365,-0.00512153,-0.00304179,0.00157836,-0.00650252,-0.426181,0.00494581,0.010586,1546,449,12.4913,49.4515
329,575,12.486,-48.7173,0.000218914,-0.00389619,-0.00239633,0.00131983,-0.00499711,-0.430658,0.00384756,0.0118126,1553,449,12.4859,48.7173
336,575,12.452,-47.9745,0.000352088,-0.00259854,-0.00163774,0.00108103,-0.00332748,-0.418764,0.00265312,0.0140294,1560,449,12.452,47.9745
343,575,12.4243,-47.187,0.000549464,-0.00129651,-0.000796323,0.000845507,-0.00159256,-0.355929,0.00142947,0.0136456,1567,449,12.4243,47.187
350,575,12.4021,-46.4143,0.000697391,0.000644789,0.000186123,0.000859062,0.000483118,0.715207,0.000497265,0.0130091,1574,449,12.4021,46.4143
357,575,12.356,-45.6416,0.00081863,0.0023395,0.00123706,0.00303116,0.000126975,1.06098,0.00197981,0.0123849,1581,449,12.356,45.6416
364,575,12.2866,-44.8714,0.000934742,0.00383956,0.00227681,0.00508778,-0.000313473,1.06931,0.00350102,0.0113837,1588,449,12.2867,44.8714
371,575,12.2568,-44.0935,0.00100963,0.00524384,0.00326087,0.00701459,-0.000761122,1.07332,0.00494964,0.0215644,1595,449,12.2569,44.0935
378,575,12.1959,-43.2779,0.00102077,0.00662068,0.00410913,0.00879312,-0.00115167,1.08446,0.00628127,0.020844,1602,449,12.196,43.2779
385,575,12.1354,-42.4413,0.00114959,0.00773917,0.00465145,0.0101445,-0.00125577,1.09355,0.00721811,0.0128891,1609,449,12.1353,42.4413
392,575,12.1,-41.6473,0.00156746,0.00811584,0.00508915,0.0108931,-0.00120977,1.07125,0.00769706,0.010574,1616,449,12.1,41.6473
399,575,12.042,-40.8726,0.00197251,0.00877982,0.00561919,0.0119458,-0.00119347,1.05771,0.00839004,0.0114069,1623,449,12.0419,40.8726
406,575,11.9774,-39.9919,0.00228839,0.00890459,0.00590347,0.0123637,-0.00117068,1.04078,0.00865908,0.0122344,1630,449,11.9774,39.992
413,575,11.9125,-39.1236,0.00238438,0.00865621,0.00593607,0.0122338,-0.00119319,1.02841,0.00858128,0.0141866,1637,449,11.9125,39.1236
420,575,11.8358,-38.2709,0.00241465,0.00820469,0.00584916,0.0118361,-0.00121672,1.0152,0.00832597,0.0146133,1644,449,11.8358,38.2709
427,575,11.7382,-37.3758,0.0025751,0.00742133,0.00589248,0.0113695,-0.00137303,0.980469,0.00807632,0.0191013,1651,449,11.7382,37.3758
434,575,11.6166,-36.5935,0.0027712,0.00678301,0.00586681,0.0109774,-0.00142314,0.950122,0.00783581,0.0316654,1658,449,11.6166,36.5935
441,575,11.9384,-35.9771,0.00258223,0.00549289,0.00563399,0.00985648,-0.00178136,0.911791,0.00723821,0.0490856,1665,449,11.9384,35.9771
448,575,12.3824,-35.2605,0,0,0,0,0,0,0,-1,1672,449,12.3824,35.2605
455,575,11.7931,-31.6917,0,0,0,0,0,0,0,-1,1679,449,11.793,31.6917
462,575,7.12781,-21.7179,0,0,0,0,0,0,0,-1,1686,449,7.12778,21.7178
469,575,10.9834,-31.8652,0,0,0,0,0,0,0,-1,1693,449,10.9834,31.8652
476,575,10.3063,-31.0265,0,0,0,0,0,0,0,-1,1700,449,10.3063,31.0265
483,575,8.44177,-29.4231,0,0,0,0,0,0,0,-1,1707,449,8.44173,29.4231
490,575,7.42871,-25.5027,0,0,0,0,0,0,0,-1,1714,449,7.42869,25.5027
497,575,0,0,0,0,0,0,0,0,0,-1,1721,449,0,0
504,575,0,0,0,0,0,0,0,0,0,-1,1728,449,0,0
511,575,0,0,0,0,0,0,0,0,0,-1,1735,449,0,0
518,575,0,0,0,0,0,0,0,0,0,-1,1742,449,0,0
525,575,0,0,0,0,0,0,0,0,0,-1,1749,449,0,0
532,575,0,0,0,0,0,0,0,0,0,-1,1756,449,0,0
539,575,0,0,0,0,0,0,0,0,0,-1,1763,449,0,0
546,575,0,0,0,0,0,0,0,0,0,-1,1770,449,0,0
553,575,0,0,0,0,0,0,0,0,0,-1,1777,449,0,0
560,575,0,0,0,0,0,0,0,0,0,-1,1784,449,0,0
567,575,0,0,0,0,0,0,0,0,0,-1,1791,449,0,0
574,575,0,0,0,0,0,0,0,0,0,-1,1798,449,0,0
581,575,0,0,0,0,0,0,0,0,0,-1,1805,449,0,0
588,575,0,0,0,0,0,0,0,0,0,-1,1812,449,0,0
595,575,0,0,0,0,0,0,0,0,0,-1,1819,449,0,0
602,575,0,0,0,0,0,0,0,0,0,-1,1826,449,0,0
609,575,0,0,0,0,0,0,0,0,0,-1,1833,449,0,0
616,575,0,0,0,0,0,0,0,0,0,-1,1840,449,0,0
623,575,0,0,0,0,0,0,0,0,0,-1,1847,449,0,0
630,575,0,0,0,0,0,0,0,0,0,-1,1854,449,0,0
637,575,0,0,0,0,0,0,0,0,0,-1,1861,449,0,0
644,575,0,0,0,0,0,0,0,0,0,-1,1868,449,0,0
651,575,0,0,0,0,0,0,0,0,0,-1,1875,449,0,0
658,575,0,0,0,0,0,0,0,0,0,-1,1882,449,0,0
665,575,0,0,0,0,0,0,0,0,0,-1,1889,449,0,0
672,575,0,0,0,0,0,0,0,0,0,-1,1896,449,0,0
679,575,0,0,0,0,0,0,0,0,0,-1,1903,449,0,0
686,575,0,0,0,0,0,0,0,0,0,-1,1910,449,0,0
693,575,0,0,0,0,0,0,0,0,0,-1,1917,449,0,0
700,575,0,0,0,0,0,0,0,0,0,-1,1924,449,0,0
707,575,0,0,0,0,0,0,0,0,0,-1,1931,449,0,0
714,575,0,0,0,0,0,0,0,0,0,-1,1938,449,0,0
721,575,0,0,0,0,0,0,0,0,0,-1,1945,449,0,0
728,575,0,0,0,0,0,0,0,0,0,-1,1952,449,0,0
735,575,0,0,0,0,0,0,0,0,0,-1,1959,449,0,0
742,575,0,0,0,0,0,0,0,0,0,-1,1966,449,0,0
749,575,0,0,0,0,0,0,0,0,0,-1,1973,449,0,0
756,575,0,0,0,0,0,0,0,0,0,-1,1980,449,0,0
763,575,0,0,0,0,0,0,0,0,0,-1,1987,449,0,0
770,575,0,0,0,0,0,0,0,0,0,-1,1994,449,0,0
777,575,0,0,0,0,0,0,0,0,0,-1,2001,449,0,0
784,575,0,0,0,0,0,0,0,0,0,-1,2008,449,0,0
791,575,0,0,0,0,0,0,0,0,0,-1,2015,449,0,0
798,575,0,0,0,0,0,0,0,0,0,-1,2022,449,0,0
805,575,0,0,0,0,0,0,0,0,0,-1,2029,449,0,0
812,575,0,0,0,0,0,0,0,0,0,-1,2036,449,0,0
-700,568,0,0,0,0,0,0,0,0,0,-1,524,456,0,0
-693,568,0,0,0,0,0,0,0,0,0,-1,531,456,0,0
-686,568,0,0,0,0,0,0,0,0,0,-1,538,456,0,0
-679,568,0,0,0,0,0,0,0,0,0,-1,545,456,0,0
-672,568,0,0,0,0,0,0,0,0,0,-1,552,456,0,0
-665,568,0,0,0,0,0,0,0,0,0,-1,559,456,0,0
-658,568,0,0,0,0,0,0,0,0,0,-1,566,456,0,0
-651,568,0,0,0,0,0,0,0,0,0,-1,573,456,0,0
-644,568,0,0,0,0,0,0,0,0,0,-1,580,456,0,0
-637,568,0,0,0,0,0,0,0,0,0,-1,587,456,0,0
-630,568,0,0,0,0,0,0,0,0,0,-1,594,456,0,0
-623,568,0,0,0,0,0,0,0,0,0,-1,601,456,0,0
-616,568,0,0,0,0,0,0,0,0,0,-1,608,456,0,0
-609,568,0,0,0,0,0,0,0,0,0,-1,615,456,0,0
-602,568,0,0,0,0,0,0,0,0,0,-1,622,456,0,0
-595,568,0,0,0,0,0,0,0,0,0,-1,629,456,0,0
-588,568,0,0,0,0,0,0,0,0,0,-1,636,456,0,0
-581,568,0,0,0,0,0,0,0,0,0,-1,643,456,0,0
-574,568,0,0,0,0,0,0,0,0,0,-1,650,456,0,0
-567,568,0,0,0,0,0,0,0,0,0,-1,657,456,0,0
-560,568,0,0,0,0,0,0,0,0,0,-1,664,456,0,0
-553,568,0,0,0,0,0,0,0,0,0,-1,671,456,0,0
-546,568,0,0,0,0,0,0,0,0,0,-1,678,456,0,0
-539,568,0,0,0,0,0,0,0,0,0,-1,685,456,0,0
-532,568,0,0,0,0,0,0,0,0,0,-1,692,456,0,0
-525,568,0,0,0,0,0,0,0,0,0,-1,699,456,0,0
-518,568,0,0,0,0,0,0,0,0,0,-1,706,456,0,0
-511,568,0,0,0,0,0,0,0,0,0,-1,713,456,0,0
-504,568,0,0,0,0,0,0,0,0,0,-1,720,456,0,0
-497,568,0,0,0,0,0,0,0,0,0,-1,727,456,0,0
-490,568,0,0,0,0,0,0,0,0,0,-1,734,456,0,0
-483,568,0,0,0,0,0,0,0,0,0,-1,741,456,0,0
-476,568,0,0,0,0,0,0,0,0,0,-1,748,456,0,0
-469,568,0,0,0,0,0,0,0,0,0,-1,755,456,0,0
-462,568,0,0,0,0,0,0,0,0,0,-1,762,456,0,0
-455,568,0,0,0,0,0,0,0,0,0,-1,769,456,0,0
-448,568,0,0,0,0,0,0,0,0,0,-1,776,456,0,0
-441,568,0,0,0,0,0,0,0,0,0,-1,783,456,0,0
-434,568,0,0,0,0,0,0,0,0,0,-1,790,456,0,0
-427,568,0,0,0,0,0,0,0,0,0,-1,797,456,0,0
-420,568,0,0,0,0,0,0,0,0,0,-1,804,456,0,0
-413,568,0,0,0,0,0,0,0,0,0,-1,811,456,0,0
-406,568,0,0,0,0,0,0,0,0,0,-1,818,456,0,0
-399,568,0,0,0,0,0,0,0,0,0,-1,825,456,0,0
-392,568,0,0,0,0,0,0,0,0,0,-1,832,456,0,0
-385,568,0,0,0,0,0,0,0,0,0,-1,839,456,0,0
-378,568,0.321777,-7.29929,0,0,0,0,0,0,0,-1,846,456,0.321806,7.29927
-371,568,1.09595,-7.46707,0,0,0,0,0,0,0,-1,853,456,1.09597,7.46707
-364,568,2.70746,-23.4782,0,0,0,0,0,0,0,-1,860,456,2.70746,23.4782
-357,568,2.14166,-7.67645,0,0,0,0,0,0,0,-1,867,456,2.14167,7.67646
-350,568,2.7467,-11.2507,0,0,0,0,0,0,0,-1,874,456,2.7467,11.2507
-343,568,2.16516,-11.3762,0,0,0,0,0,0,0,-1,881,456,2.16514,11.3762
-336,568,1.14984,-29.3232,0,0,0,0,0,0,0,-1,888,456,1.14984,29.3231
-329,568,2.80359,-32.459,0,0,0,0,0,0,0,-1,895,456,2.80357,32.4591
-322,568,3.78552,-34.2626,0,0,0,0,0,0,0,-1,902,456,3.78553,34.2626
-315,568,3.58636,-35.1991,0,0,0,0,0,0,0,-1,909,456,3.58636,35.1991
-308,568,3.38721,-36.1355,0,0,0,0,0,0,0,-1,916,456,3.3872,36.1355
-301,568,2.98523,-37.8796,-0.00122254,0.0140335,-0.00715464,0.0168637,-0.0040528,-1.1941,0.012809,0.0254071,923,456,2.98524,37.8796
-294,568,2.91913,-38.6874,-0.000760298,0.0120919,-0.00628168,0.0146521,-0.00332054,-1.18378,0.0110426,0.0138239,930,456,2.91915,38.6874
-287,568,2.86127,-39.5532,-0.000543821,0.010505,-0.00547787,0.0127605,-0.00279926,-1.18021,0.0095774,0.0118585,937,456,2.86128,39.5532
-280,568,2.80389,-40.4341,-0.000260593,0.00936234,-0.00491236,0.011427,-0.00232528,-1.17291,0.0084998,0.012025,944,456,2.80388,40.4341
-273,568,2.74646,-41.267,-2.03785e-05,0.00805145,-0.00436065,0.00995724,-0.00192617,-1.15877,0.00736466,0.0138235,951,456,2.74643,41.267
-266,568,2.68524,-42.0596,0.000155555,0.00651416,-0.00371156,0.00822195,-0.00155223,-1.13955,0.00606528,0.0134683,958,456,2.68527,42.0596
-259,568,2.62537,-42.8662,0.000336443,0.00465827,-0.0030111,0.00620361,-0.00120889,-1.09663,0.00459205,0.0138001,965,456,2.62535,42.8662
-252,568,2.5451,-43.6627,0.000452708,0.00286946,-0.00215939,0.00413558,-0.000813411,-1.04049,0.00306439,0.0133117,972,456,2.54512,43.6627
-245,568,2.4953,-44.405,0.000556144,0.00107127,-0.00121025,0.00205106,-0.000423647,-0.890242,0.00152829,0.0154784,979,456,2.49529,44.405
-238,568,2.47223,-45.1833,0.000696452,-0.000868044,-0.000217998,0.00072626,-0.000897852,-0.135893,0.000939424,0.0144825,986,456,2.47223,45.1833
-231,568,2.42206,-45.9745,0.000856164,-0.00299845,0.000838858,0.00103081,-0.00317309,0.20526,0.00252999,0.0126629,993,456,2.42208,45.9745
-224,568,2.37189,-46.7345,0.000971721,-0.00506844,0.0019274,0.00153434,-0.00563106,0.284016,0.0043565,0.0142327,1000,456,2.3719,46.7345
-217,568,2.38794,-47.4751,0.00116117,-0.00724471,0.00302467,0.00213639,-0.00821993,0.311898,0.00631374,0.0122156,1007,456,2.38797,47.4751
-210,568,2.40051,-48.2139,0.00143315,-0.00936673,0.00404879,0.00278243,-0.010716,0.321681,0.0082298,0.0122768,1014,456,2.40053,48.2139
-203,568,2.36456,-48.98,0.00180512,-0.0110863,0.00494937,0.00348612,-0.0127673,0.327415,0.00988076,0.0113548,1021,456,2.36456,48.98
-196,568,2.37415,-49.7043,0.00221359,-0.0126335,0.00572435,0.00416433,-0.0145843,0.328436,0.0113681,0.0156931,1028,456,2.37413,49.7043
-189,568,2.35938,-50.3908,0.00256121,-0.0138894,0.00630164,0.00469768,-0.0160258,0.326872,0.0125464,0.0157369,1035,456,2.35936,50.3908
-182,568,2.35669,-51.1225,0.00285469,-0.0145917,0.00692234,0.0052676,-0.0170046,0.335399,0.0134409,0.0155021,1042,456,2.35669,51.1225
-175,568,2.34729,-51.7924,0.00330869,-0.014929,0.00730884,0.00587628,-0.0174966,0.337831,0.0140392,0.0158595,1049,456,2.34724,51.7924
-168,568,2.34851,-52.3369,0.00364979,-0.0149215,0.00753407,0.00632179,-0.0175935,0.340817,0.0143096,0.0224543,1056,456,2.34855,52.3369
-161,568,2.33386,-52.9635,0.00384655,-0.0149579,0.00781483,0.00667026,-0.0177816,0.34673,0.0145951,0.033557,1063,456,2.33383,52.9635
-154,568,2.41956,-53.8821,0.00414513,-0.014445,0.00792811,0.007067,-0.0173668,0.353099,0.0145186,0.0378633,1070,456,2.41956,53.8821
-147,568,2.47766,-54.3123,0.00451445,-0.0136449,0.00783359,0.00742667,-0.0165571,0.355928,0.0141776,0.0418123,1077,456,2.47771,54.3123
-140,568,2.47363,-54.8341,0.00461516,-0.0124435,0.00764951,0.00754291,-0.0153712,0.365536,0.0134844,0.0470633,1084,456,2.47361,54.8341
-133,568,2.25647,-55.4437,0.00394459,-0.0111654,0.00832505,0.00763168,-0.0148525,0.416926,0.0132025,0.0463664,1091,456,2.25652,55.4436
-126,568,1.99146,-55.7586,0,0,0,0,0,0,0,-1,1098,456,1.9914,55.7586
-119,568,1.89978,-50.8443,0,0,0,0,0,0,0,-1,1105,456,1.89978,50.8443
-112,568,1.98242,-35.0942,0,0,0,0,0,0,0,-1,1112,456,1.98247,35.0942
-105,568,2.02454,-25.038,0,0,0,0,0,0,0,-1,1119,456,2.02459,25.038
-98,568,1.58618,-14.7874,0,0,0,0,0,0,0,-1,1126,456,1.58617,14.7874
-91,568,1.11621,-11.1853,0,0,0,0,0,0,0,-1,1133,456,1.11626,11.1853
-84,568,0.461792,-9.7959,0,0,0,0,0,0,0,-1,1140,456,0.461793,9.7959
-77,568,-1.13806,-8.57822,0,0,0,0,0,0,0,-1,1147,456,-1.13807,8.57821
-70,568,-4.09766,-1.42911,0,0,0,0,0,0,0,-1,1154,456,-4.09767,1.4291
-63,568,-5.92273,-3.70752,0,0,0,0,0,0,0,-1,1161,456,-5.92272,3.70751
-56,568,-5.24158,-6.01385,0,0,0,0,0,0,0,-1,1168,456,-5.24161,6.01386
-49,568,-5.24365,-8.33557,0,0,0,0,0,0,0,-1,1175,456,-5.24371,8.33557
-42,568,-0.664795,0.521973,0,0,0,0,0,0,0,-1,1182,456,-0.664829,-0.521984
-35,568,-0.153076,-1.67731,0,0,0,0,0,0,0,-1,1189,456,-0.153068,1.67731
-28,568,1.25439,-4.48798,0,0,0,0,0,0,0,-1,1196,456,1.2544,4.48797
-21,568,13.8694,-73.3303,0,0,0,0,0,0,0,-1,1203,456,13.8693,73.3302
-14,568,13.6119,-72.5482,0,0,0,0,0,0,0,-1,1210,456,13.6119,72.5482
-7,568,13.0646,-71.5406,0,0,0,0,0,0,0,-1,1217,456,13.0645,71.5407
0,568,12.1121,-69.9474,0,0,0,0,0,0,0,-1,1224,456,12.1121,69.9474
7,568,11.1014,-68.7214,0,0,0,0,0,0,0,-1,1231,456,11.1015,68.7214
14,568,0.46228,-62.6524,0,0,0,0,0,0,0,-1,1238,456,0.462339,62.6524
21,568,1.44434,-61.9376,0,0,0,0,0,0,0,-1,1245,456,1.4443,61.9376
28,568,1.30151,-62.3994,0,0,0,0,0,0,0,-1,1252,456,1.3015,62.3993
35,568,1.22546,-62.8837,0,0,0,0,0,0,0,-1,1259,456,1.22546,62.8837
42,568,2.0874,-64.2875,0,0,0,0,0,0,0,-1,1266,456,2.08742,64.2875
49,568,2.19641,-64.6988,0,0,0,0,0,0,0,-1,1273,456,2.19645,64.6988
56,568,2.12744,-64.5045,0,0,0,0,0,0,0,-1,1280,456,2.12746,64.5044
63,568,2.04382,-64.3789,0,0,0,0,0,0,0,-1,1287,456,2.04378,64.3789
70,568,1.72522,-64.712,0,0,0,0,0,0,0,-1,1294,456,1.72519,64.712
77,568,3.42859,-66.3593,0,0,0,0,0,0,0,-1,1301,456,3.42858,66.3593
84,568,3.09485,-66.4651,0,0,0,0,0,0,0,-1,1308,456,3.09485,66.4651
91,568,2.38733,-65.7076,0,0,0,0,0,0,0,-1,1315,456,2.38728,65.7076
98,568,2.28796,-65.0645,0,0,0,0,0,0,0,-1,1322,456,2.28793,65.0645
105,568,2.28906,-64.4473,0,0,0,0,0,0,0,-1,1329,456,2.28908,64.4473
112,568,2.02319,-64.0015,0,0,0,0,0,0,0,-1,1336,456,2.02314,64.0015
119,568,1.71545,-63.3145,0,0,0,0,0,0,0,-1,1343,456,1.71547,63.3144
126,568,1.67957,-62.6832,0,0,0,0,0,0,0,-1,1350,456,1.67951,62.6832
133,568,2.43152,-61.9455,0,0,0,0,0,0,0,-1,1357,456,2.43152,61.9455
140,568,3.19592,-61.435,0,0,0,0,0,0,0,-1,1364,456,3.19591,61.435
147,568,2.11145,-60.2296,0,0,0,0,0,0,0,-1,1371,456,2.11149,60.2296
154,568,4.48779,-60.4576,0,0,0,0,0,0,0,-1,1378,456,4.48781,60.4577
161,568,4.04431,-60.2704,0,0,0,0,0,0,0,-1,1385,456,4.04434,60.2704
168,568,-11.53,-55.4321,0,0,0,0,0,0,0,-1,1392,456,-11.53,55.4321
175,568,10.5151,0.747498,0,0,0,0,0,0,0,-1,1399,456,10.5152,-0.747501
182,568,6.35095,-3.63361,0,0,0,0,0,0,0,-1,1406,456,6.35093,3.63359
189,568,6.17493,-1.70911,0,0,0,0,0,0,0,-1,1413,456,6.17497,1.70911
196,568,6.04724,0.200836,0,0,0,0,0,0,0,-1,1420,456,6.04724,-0.200835
203,568,5.9281,2.08649,0,0,0,0,0,0,0,-1,1427,456,5.92812,-2.08648
210,568,1.46216,-2.50446,0,0,0,0,0,0,0,-1,1434,456,1.46219,2.50446
217,568,2.62366,-7.86703,0,0,0,0,0,0,0,-1,1441,456,2.62365,7.86704
224,568,3.43494,-12.1555,0,0,0,0,0,0,0,-1,1448,456,3.43492,12.1555
231,568,4.38245,-9.3205,0,0,0,0,0,0,0,-1,1455,456,4.38244,9.32048
238,568,5.88879,-20.7448,0,0,0,0,0,0,0,-1,1462,456,5.88876,20.7449
245,568,3.34387,-10.6774,0,0,0,0,0,0,0,-1,1469,456,3.34389,10.6774
252,568,3.56946,-9.28928,0,0,0,0,0,0,0,-1,1476,456,3.56948,9.28928
259,568,3.38843,-8.73068,0,0,0,0,0,0,0,-1,1483,456,3.38842,8.73068
266,568,13.1481,-54.7576,0,0,0,0,0,0,0,-1,1490,456,13.148,54.7576
273,568,13.1436,-54.2108,0,0,0,0,0,0,0,-1,1497,456,13.1436,54.2108
280,568,13.38,-53.6226,0.000182664,-0.00961895,-0.00521831,0.00244067,-0.011877,-0.408382,0.0088445,0.0384534,1504,456,13.38,53.6225
287,568,13.209,-52.7487,-0.000218501,-0.0106629,-0.00576943,0.00234118,-0.0132226,-0.417572,0.00969019,0.0268347,1511,456,13.2089,52.7486
294,568,13.2607,-52.1032,-0.000390454,-0.0107464,-0.00595761,0.00232489,-0.0134618,-0.427648,0.00984143,0.0231398,1518,456,13.2607,52.1032
301,568,13.2471,-51.4782,-0.000377248,-0.0109623,-0.00607314,0.00238591,-0.0137254,-0.426987,0.0100405,0.0197406,1525,456,13.2471,51.4782
308,568,13.2256,-50.7984,-0.000377506,-0.0106165,-0.00606575,0.00244042,-0.0134344,-0.434898,0.00987082,0.0139287,1532,456,13.2256,50.7984
315,568,13.2129,-50.1303,-0.000381898,-0.00999383,-0.00585845,0.00238965,-0.0127654,-0.441886,0.00940851,0.00863802,1539,456,13.2129,50.1303
322,568,13.2142,-49.4221,-0.000322868,-0.0088873,-0.0053729,0.00226554,-0.0114757,-0.448943,0.00850681,0.0103831,1546,456,13.2142,49.4221
329,568,13.22,-48.6669,-0.00025368,-0.00757037,-0.0047266,0.00206495,-0.009889,-0.456059,0.00737795,0.0115271,1553,456,13.22,48.6669
336,568,13.2063,-47.8901,-8.21477e-05,-0.00621976,-0.00395934,0.00185844,-0.00816034,-0.455719,0.00615397,0.0119856,1560,456,13.2064,47.8901
343,568,13.201,-47.1183,0.000169393,-0.0048902,-0.00308692,0.00163071,-0.00635151,-0.442133,0.00486979,0.0122644,1567,456,13.201,47.1183
350,568,13.1581,-46.385,0.000358628,-0.00275685,-0.00204548,0.00137198,-0.00377021,-0.459971,0.00307459,0.011146,1574,456,13.158,46.385
357,568,13.1139,-45.6192,0.000519205,-0.000896472,-0.00090522,0.000960479,-0.00133775,-0.453579,0.00133283,0.0103175,1581,456,13.1139,45.6192
364,568,13.0898,-44.8518,0.000650467,0.000736093,0.000238508,0.0009356,0.000450959,0.874204,0.000540286,0.0126718,1588,456,13.0899,44.8518
371,568,13.0426,-44.0386,0.000756245,0.00220852,0.00131218,0.00298209,-1.73158e-05,1.03812,0.00199385,0.0227496,1595,456,13.0425,44.0386
378,568,12.9912,-43.2053,0.000819894,0.00367834,0.00224927,0.00491406,-0.00041582,1.06843,0.00342307,0.0209016,1602,456,12.9912,43.2053
385,568,12.9274,-42.4008,0.000957012,0.00485638,0.0028932,0.00639552,-0.000582124,1.08189,0.00447037,0.0105807,1609,456,12.9274,42.4009
392,568,12.8663,-41.6251,0.00131642,0.00543152,0.00347959,0.00741638,-0.000668437,1.0524,0.00518146,0.0119008,1616,456,12.8663,41.625
399,568,12.8145,-40.8914,0.00162923,0.00610254,0.0040473,0.00849009,-0.000758321,1.03783,0.00592902,0.0200555,1623,456,12.8144,40.8914
406,568,12.7943,-40.0115,0.00182281,0.00639699,0.00440722,0.00907522,-0.000855421,1.02474,0.00635451,0.0173354,1630,456,12.7944,40.0115
413,568,12.7467,-39.1045,0.00181681,0.00633194,0.00455005,0.00915371,-0.00100495,1.01568,0.00646355,0.0134439,1637,456,12.7467,39.1045
420,568,12.6814,-38.2411,0.00173209,0.00606806,0.00458801,0.00897452,-0.00117438,1.00611,0.00641043,0.0125355,1644,456,12.6814,38.241
427,568,12.599,-37.3831,0.00168479,0.00555322,0.00470747,0.00870834,-0.00147034,0.980324,0.00635265,0.0153098,1651,456,12.599,37.3831
434,568,12.5568,-36.5215,0.00168096,0.00514548,0.00482191,0.00853685,-0.00171041,0.957843,0.00633876,0.0215905,1658,456,12.5568,36.5215
441,568,12.5691,-35.7034,0.00134007,0.00440593,0.00484925,0.00795878,-0.00221278,0.938486,0.006177,0.0280748,1665,456,12.5691,35.7034
448,568,12.6281,-34.5839,0.000702017,0.00367587,0.00491235,0.0073214,-0.00294352,0.93236,0.00610348,0.0409976,1672,456,12.628,34.5839
455,568,12.6086,-33.5763,0,0,0,0,0,0,0,-1,1679,456,12.6086,33.5763
462,568,12.2467,-32.8571,0,0,0,0,0,0,0,-1,1686,456,12.2467,32.8571
469,568,11.9171,-32.0245,0,0,0,0,0,0,0,-1,1693,456,11.9171,32.0245
476,568,11.8632,-31.2303,0,0,0,0,0,0,0,-1,1700,456,11.8631,31.2303
483,568,10.9017,-29.747,0,0,0,0,0,0,0,-1,1707,456,10.9018,29.747
490,568,9.21021,-25.4427,0,0,0,0,0,0,0,-1,1714,456,9.21025,25.4427
497,568,9.19275,-22.8114,0,0,0,0,0,0,0,-1,1721,456,9.19273,22.8114
504,568,0,0,0,0,0,0,0,0,0,-1,1728,456,0,0
511,568,0,0,0,0,0,0,0,0,0,-1,1735,456,0,0
518,568,0,0,0,0,0,0,0,0,0,-1,1742,456,0,0
525,568,0,0,0,0,0,0,0,0,0,-1,1749,456,0,0
532,568,0,0,0,0,0,0,0,0,0,-1,1756,456,0,0
539,568,0,0,0,0,0,0,0,0,0,-1,1763,456,0,0
546,568,0,0,0,0,0,0,0,0,0,-1,1770,456,0,0
553,568,0,0,0,0,0,0,0,0,0,-1,1777,456,0,0
560,568,0,0,0,0,0,0,0,0,0,-1,1784,456,0,0
567,568,0,0,0,0,0,0,0,0,0,-1,1791,456,0,0
574,568,0,0,0,0,0,0,0,0,0,-1,1798,456,0,0
581,568,0,0,0,0,0,0,0,0,0,-1,1805,456,0,0
588,568,0,0,0,0,0,0,0,0,0,-1,1812,456,0,0
595,568,0,0,0,0,0,0,0,0,0,-1,1819,456,0,0
602,568,0,0,0,0,0,0,0,0,0,-1,1826,456,0,0
609,568,0,0,0,0,0,0,0,0,0,-1,1833,456,0,0
616,568,0,0,0,0,0,0,0,0,0,-1,1840,456,0,0
623,568,0,0,0,0,0,0,0,0,0,-1,1847,456,0,0
630,568,0,0,0,0,0,0,0,0,0,-1,1854,456,0,0
637,568,0,0,0,0,0,0,0,0,0,-1,1861,456,0,0
644,568,0,0,0,0,0,0,0,0,0,-1,1868,456,0,0
651,568,0,0,0,0,0,0,0,0,0,-1,1875,456,0,0
658,568,0,0,0,0,0,0,0,0,0,-1,1882,456,0,0
665,568,0,0,0,0,0,0,0,0,0,-1,1889,456,0,0
672,568,0,0,0,0,0,0,0,0,0,-1,1896,456,0,0
679,568,0,0,0,0,0,0,0,0,0,-1,1903,456,0,0
686,568,0,0,0,0,0,0,0,0,0,-1,1910,456,0,0
693,568,0,0,0,0,0,0,0,0,0,-1,1917,456,0,0
700,568,0,0,0,0,0,0,0,0,0,-1,1924,456,0,0
707,568,0,0,0,0,0,0,0,0,0,-1,1931,456,0,0
714,568,0,0,0,0,0,0,0,0,0,-1,1938,456,0,0
721,568,0,0,0,0,0,0,0,0,0,-1,1945,456,0,0
728,568,0,0,0,0,0,0,0,0,0,-1,1952,456,0,0
735,568,0,0,0,0,0,0,0,0,0,-1,1959,456,0,0
742,568,0,0,0,0,0,0,0,0,0,-1,1966,456,0,0
749,568,0,0,0,0,0,0,0,0,0,-1,1973,456,0,0
756,568,0,0,0,0,0,0,0,0,0,-1,1980,456,0,0
763,568,0,0,0,0,0,0,0,0,0,-1,1987,456,0,0
770,568,0,0,0,0,0,0,0,0,0,-1,1994,456,0,0
777,568,0,0,0,0,0,0,0,0,0,-1,2001,456,0,0
784,568,0,0,0,0,0,0,0,0,0,-1,2008,456,0,0
791,568,0,0,0,0,0,0,0,0,0,-1,2015,456,0,0
798,568,0,0,0,0,0,0,0,0,0,-1,2022,456,0,0
805,568,0,0,0,0,0,0,0,0,0,-1,2029,456,0,0
812,568,0,0,0,0,0,0,0,0,0,-1,2036,456,0,0
-700,561,0,0,0,0,0,0,0,0,0,-1,524,463,0,0
-693,561,0,0,0,0,0,0,0,0,0,-1,531,463,0,0
-686,561,0,0,0,0,0,0,0,0,0,-1,538,463,0,0
-679,561,0,0,0,0,0,0,0,0,0,-1,545,463,0,0
-672,561,0,0,0,0,0,0,0,0,0,-1,552,463,0,0
-665,561,0,0,0,0,0,0,0,0,0,-1,559,463,0,0
-658,561,0,0,0,0,0,0,0,0,0,-1,566,463,0,0
-651,561,0,0,0,0,0,0,0,0,0,-1,573,463,0,0
-644,561,0,0,0,0,0,0,0,0,0,-1,580,463,0,0
-637,561,0,0,0,0,0,0,0,0,0,-1,587,463,0,0
-630,561,0,0,0,0,0,0,0,0,0,-1,594,463,0,0
-623,561,0,0,0,0,0,0,0,0,0,-1,601,463,0,0
-616,561,0,0,0,0,0,0,0,0,0,-1,608,463,0,0
-609,561,0,0,0,0,0,0,0,0,0,-1,615,463,0,0
-602,561,0,0,0,0,0,0,0,0,0,-1,622,463,0,0
-595,561,0,0,0,0,0,0,0,0,0,-1,629,463,0,0
-588,561,0,0,0,0,0,0,0,0,0,-1,636,463,0,0
-581,561,0,0,0,0,0,0,0,0,0,-1,643,463,0,0
-574,561,0,0,0,0,0,0,0,0,0,-1,650,463,0,0
-567,561,0,0,0,0,0,0,0,0,0,-1,657,463,0,0
-560,561,0,0,0,0,0,0,0,0,0,-1,664,463,0,0
-553,561,0,0,0,0,0,0,0,0,0,-1,671,463,0,0
-546,561,0,0,0,0,0,0,0,0,0,-1,678,463,0,0
-539,561,0,0,0,0,0,0,0,0,0,-1,685,463,0,0
-532,561,0,0,0,0,0,0,0,0,0,-1,692,463,0,0
-525,561,0,0,0,0,0,0,0,0,0,-1,699,463,0,0
-518,561,0,0,0,0,0,0,0,0,0,-1,706,463,0,0
-511,561,0,0,0,0,0,0,0,0,0,-1,713,463,0,0
-504,561,0,0,0,0,0,0,0,0,0,-1,720,463,0,0
-497,561,0,0,0,0,0,0,0,0,0,-1,727,463,0,0
-490,561,0,0,0,0,0,0,0,0,0,-1,734,463,0,0
-483,561,0,0,0,0,0,0,0,0,0,-1,741,463,0,0
-476,561,0,0,0,0,0,0,0,0,0,-1,748,463,0,0
-469,561,0,0,0,0,0,0,0,0,0,-1,755,463,0,0
-462,561,0,0,0,0,0,0,0,0,0,-1,762,463,0,0
-455,561,0,0,0,0,0,0,0,0,0,-1,769,463,0,0
-448,561,0,0,0,0,0,0,0,0,0,-1,776,463,0,0
-441,561,0,0,0,0,0,0,0,0,0,-1,783,463,0,0
-434,561,0,0,0,0,0,0,0,0,0,-1,790,463,0,0
-427,561,0,0,0,0,0,0,0,0,0,-1,797,463,0,0
-420,561,0,0,0,0,0,0,0,0,0,-1,804,463,0,0
-413,561,0,0,0,0,0,0,0,0,0,-1,811,463,0,0
-406,561,0,0,0,0,0,0,0,0,0,-1,818,463,0,0
-399,561,0,0,0,0,0,0,0,0,0,-1,825,463,0,0
-392,561,4.92407,-2.54578,0,0,0,0,0,0,0,-1,832,463,4.92408,2.54576
-385,561,5.55634,-1.02338,0,0,0,0,0,0,0,-1,839,463,5.55634,1.02338
-378,561,0.160522,-4.51785,0,0,0,0,0,0,0,-1,846,463,0.160542,4.51785
-371,561,2.62524,-27.795,0,0,0,0,0,0,0,-1,853,463,2.62525,27.7949
-364,561,4.14691,-28.3236,0,0,0,0,0,0,0,-1,860,463,4.14693,28.3236
-357,561,2.16742,-23.5582,0,0,0,0,0,0,0,-1,867,463,2.1674,23.5582
-350,561,1.33124,-11.9406,0,0,0,0,0,0,0,-1,874,463,1.33127,11.9406
-343,561,1.13214,-14.1837,0,0,0,0,0,0,0,-1,881,463,1.13217,14.1837
-336,561,2.50641,-33.4365,0,0,0,0,0,0,0,-1,888,463,2.50642,33.4365
-329,561,2.32758,-34.5303,0,0,0,0,0,0,0,-1,895,463,2.32755,34.5303
-322,561,2.63721,-34.8345,0,0,0,0,0,0,0,-1,902,463,2.6372,34.8345
-315,561,2.40967,-35.7549,-0.00173622,0.0158277,-0.00758631,0.0186507,-0.00455922,-1.21456,0.0141996,0.0368306,909,463,2.40964,35.7549
-308,561,2.25482,-36.7755,-0.00162674,0.0133584,-0.00640767,0.0157247,-0.00399301,-1.21704,0.0120369,0.0304088,916,463,2.25482,36.7756
-301,561,2.17133,-37.8651,-0.00105951,0.0109704,-0.00561212,0.0131819,-0.00327107,-1.19541,0.0100572,0.0167662,923,463,2.17132,37.8651
-294,561,2.09937,-38.7151,-0.000617059,0.00921846,-0.00477218,0.0111533,-0.0025519,-1.18561,0.00841613,0.0113137,930,463,2.09936,38.7152
-287,561,2.05585,-39.5317,-0.00037671,0.0077662,-0.00400309,0.00940452,-0.00201502,-1.18233,0.00703817,0.0102195,937,463,2.05584,39.5317
-280,561,1.97986,-40.372,-9.51718e-05,0.00651919,-0.00342964,0.00797644,-0.00155243,-1.16901,0.00590354,0.0127233,944,463,1.97986,40.372
-273,561,1.90826,-41.1733,0.000157561,0.00504976,-0.00284184,0.00635326,-0.00114593,-1.14075,0.00466464,0.0154662,951,463,1.90829,41.1734
-266,561,1.87616,-41.9698,0.000384699,0.00338761,-0.0021769,0.00453063,-0.000758321,-1.0873,0.00330235,0.0100066,958,463,1.87613,41.9698
-259,561,1.83801,-42.8024,0.000573852,0.00135055,-0.00142202,0.0024363,-0.000511897,-0.918696,0.001819,0.0111705,965,463,1.83802,42.8024
-252,561,1.77875,-43.5822,0.000666277,-0.00066057,-0.000473988,0.000818203,-0.000812497,-0.310182,0.000941487,0.0157357,972,463,1.77873,43.5821
-245,561,1.73346,-44.349,0.000728147,-0.00271933,0.00063189,0.000840317,-0.0028315,0.175685,0.0022214,0.0168059,979,463,1.73344,44.349
-238,561,1.72101,-45.1443,0.000861005,-0.00490651,0.00174151,0.00134606,-0.00539157,0.271642,0.00411708,0.0133742,986,463,1.72104,45.1444
-231,561,1.66278,-45.9432,0.00101619,-0.00729981,0.00292397,0.00194136,-0.00822497,0.30644,0.00623205,0.0123501,993,463,1.66278,45.9432
-224,561,1.60938,-46.6946,0.0010988,-0.00960616,0.004172,0.00253267,-0.01104,0.331043,0.00833354,0.0124658,1000,463,1.60935,46.6946
-217,561,1.63361,-47.424,0.00125499,-0.0119456,0.0054376,0.00320638,-0.013897,0.344555,0.010498,0.0122922,1007,463,1.63362,47.4241
-210,561,1.64795,-48.1727,0.00149472,-0.0142261,0.0066186,0.0039101,-0.0166415,0.349921,0.0126015,0.0135577,1014,463,1.64795,48.1727
-203,561,1.63373,-48.9015,0.00184783,-0.0160476,0.00765684,0.00467674,-0.0188765,0.353906,0.0143987,0.0150983,1021,463,1.63375,48.9015
-196,561,1.56311,-49.5768,0.00227359,-0.0176519,0.00853764,0.00543135,-0.0208097,0.354259,0.015994,0.0170634,1028,463,1.5631,49.5768
-189,561,1.64624,-50.2557,0.00262146,-0.0188992,0.00918442,0.00600816,-0.0222859,0.353275,0.0172131,0.023042,1035,463,1.64623,50.2557
-182,561,1.73474,-50.9085,0.00286776,-0.0194624,0.00987247,0.00660652,-0.0232012,0.362016,0.0180766,0.0267977,1042,463,1.7347,50.9085
-175,561,1.6073,-51.5633,0.00332167,-0.0194859,0.01026,0.00725785,-0.0234221,0.366326,0.0185144,0.0416158,1049,463,1.60734,51.5633
-168,561,1.45581,-52.2037,0,0,0,0,0,0,0,-1,1056,463,1.45581,52.2037
-161,561,1.65649,-52.7493,0,0,0,0,0,0,0,-1,1063,463,1.65652,52.7494
-154,561,1.88,-54.1002,0,0,0,0,0,0,0,-1,1070,463,1.88,54.1001
-147,561,1.8606,-54.2405,0,0,0,0,0,0,0,-1,1077,463,1.86058,54.2405
-140,561,1.99658,-54.7071,0,0,0,0,0,0,0,-1,1084,463,1.99654,54.7071
-133,561,1.77405,-55.336,0,0,0,0,0,0,0,-1,1091,463,1.774,55.336
-126,561,1.77014,-49.4318,0,0,0,0,0,0,0,-1,1098,463,1.7702,49.4318
-119,561,-0.336304,-35.422,0,0,0,0,0,0,0,-1,1105,463,-0.336245,35.422
-112,561,1.24365,-29.1982,0,0,0,0,0,0,0,-1,1112,463,1.2437,29.1981
-105,561,0.530518,-13.5379,0,0,0,0,0,0,0,-1,1119,463,0.530477,13.5379
-98,561,1.5387,-7.54352,0,0,0,0,0,0,0,-1,1126,463,1.53871,7.54351
-91,561,1.29553,-6.57968,0,0,0,0,0,0,0,-1,1133,463,1.29549,6.5797
-84,561,1.23364,-5.84555,0,0,0,0,0,0,0,-1,1140,463,1.23363,5.84556
-77,561,-2.36023,1.00204,0,0,0,0,0,0,0,-1,1147,463,-2.3602,-1.00205
-70,561,-3.90015,-1.41541,0,0,0,0,0,0,0,-1,1154,463,-3.90009,1.4154
-63,561,-6.95691,-4.02756,0,0,0,0,0,0,0,-1,1161,463,-6.95696,4.02756
-56,561,-5.37988,-6.66855,0,0,0,0,0,0,0,-1,1168,463,-5.37988,6.66854
-49,561,-5.7439,-9.11029,0,0,0,0,0,0,0,-1,1175,463,-5.74387,9.1103
-42,561,-1.72644,-5.63065,0,0,0,0,0,0,0,-1,1182,463,-1.72648,5.63064
-35,561,-1.65674,-4.87994,0,0,0,0,0,0,0,-1,1189,463,-1.6567,4.87993
-28,561,-1.91418,-3.86896,0,0,0,0,0,0,0,-1,1196,463,-1.91414,3.86895
-21,561,15.1812,-72.9163,0,0,0,0,0,0,0,-1,1203,463,15.1811,72.9163
-14,561,14.6139,-72.0037,0,0,0,0,0,0,0,-1,1210,463,14.6138,72.0037
-7,561,13.9314,-71.0831,0,0,0,0,0,0,0,-1,1217,463,13.9314,71.0831
0,561,11.9266,-68.8576,0,0,0,0,0,0,0,-1,1224,463,11.9267,68.8576
7,561,10.8009,-67.8018,0,0,0,0,0,0,0,-1,1231,463,10.801,67.8018
14,561,1.47253,-62.5308,0,0,0,0,0,0,0,-1,1238,463,1.47251,62.5308
21,561,1.40417,-63.0129,0,0,0,0,0,0,0,-1,1245,463,1.40413,63.0129
28,561,1.24988,-63.4568,0,0,0,0,0,0,0,-1,1252,463,1.24985,63.4568
35,561,1.11975,-63.8941,0,0,0,0,0,0,0,-1,1259,463,1.11975,63.8941
42,561,1.03687,-64.5596,0,0,0,0,0,0,0,-1,1266,463,1.03691,64.5596
49,561,1.11646,-64.9819,0,0,0,0,0,0,0,-1,1273,463,1.11647,64.9818
56,561,0.93335,-64.9754,0,0,0,0,0,0,0,-1,1280,463,0.933325,64.9754
63,561,3.87695,-67.3115,0,0,0,0,0,0,0,-1,1287,463,3.87693,67.3115
70,561,3.50256,-67.2985,0,0,0,0,0,0,0,-1,1294,463,3.50256,67.2984
77,561,2.84021,-67.0701,0,0,0,0,0,0,0,-1,1301,463,2.84023,67.0701
84,561,2.20752,-67.0845,0,0,0,0,0,0,0,-1,1308,463,2.20747,67.0844
91,561,1.99731,-66.8182,0,0,0,0,0,0,0,-1,1315,463,1.99732,66.8182
98,561,2.448,-66.2285,0,0,0,0,0,0,0,-1,1322,463,2.44805,66.2285
105,561,3.12573,-65.8265,0,0,0,0,0,0,0,-1,1329,463,3.12579,65.8265
112,561,3.52454,-65.6844,0,0,0,0,0,0,0,-1,1336,463,3.52448,65.6844
119,561,1.61938,-63.7061,0,0,0,0,0,0,0,-1,1343,463,1.61943,63.7061
126,561,1.74207,-63.006,0,0,0,0,0,0,0,-1,1350,463,1.74208,63.006
133,561,1.99146,-62.2302,0,0,0,0,0,0,0,-1,1357,463,1.99142,62.2302
140,561,3.92444,-61.762,0,0,0,0,0,0,0,-1,1364,463,3.92448,61.762
147,561,3.32739,-61.6937,0,0,0,0,0,0,0,-1,1371,463,3.32739,61.6937
154,561,3.17456,-61.5465,0,0,0,0,0,0,0,-1,1378,463,3.17454,61.5465
161,561,2.98389,-61.4235,0,0,0,0,0,0,0,-1,1385,463,2.98387,61.4235
168,561,-10.8822,-56.4584,0,0,0,0,0,0,0,-1,1392,463,-10.8822,56.4584
175,561,10.4185,0.276398,0,0,0,0,0,0,0,-1,1399,463,10.4185,-0.276394
182,561,6.45703,-4.02127,0,0,0,0,0,0,0,-1,1406,463,6.45704,4.02127
189,561,6.50854,-2.08685,0,0,0,0,0,0,0,-1,1413,463,6.50851,2.08686
196,561,6.44775,-0.27182,0,0,0,0,0,0,0,-1,1420,463,6.44773,0.271814
203,561,6.18591,1.1301,0,0,0,0,0,0,0,-1,1427,463,6.18592,-1.13009
210,561,5.68713,2.68427,0,0,0,0,0,0,0,-1,1434,463,5.6871,-2.68425
217,561,3.61743,-7.33582,0,0,0,0,0,0,0,-1,1441,463,3.61738,7.33581
224,561,4.27466,-8.59171,0,0,0,0,0,0,0,-1,1448,463,4.27466,8.59171
231,561,4.93188,-9.8476,0,0,0,0,0,0,0,-1,1455,463,4.93193,9.84761
238,561,2.18018,-5.18359,0,0,0,0,0,0,0,-1,1462,463,2.18023,5.18359
245,561,3.07568,-3.50238,0,0,0,0,0,0,0,-1,1469,463,3.0757,3.50238
252,561,3.47412,-3.71109,0,0,0,0,0,0,0,-1,1476,463,3.47413,3.71109
259,561,3.42212,-3.2334,0,0,0,0,0,0,0,-1,1483,463,3.42214,3.2334
266,561,4.44373,-5.90027,0,0,0,0,0,0,0,-1,1490,463,4.44372,5.90026
273,561,2.59485,-3.65268,0,0,0,0,0,0,0,-1,1497,463,2.5948,3.65268
280,561,14.3066,-53.6276,0,0,0,0,0,0,0,-1,1504,463,14.3066,53.6276
287,561,14.4623,-52.9605,-0.00222136,-0.0145568,-0.007636,0.00142669,-0.0182048,-0.445685,0.012639,0.0427982,1511,463,14.4623,52.9605
294,561,14.1251,-51.7559,-0.00211306,-0.0146809,-0.00804667,0.00181265,-0.0186066,-0.453895,0.0130507,0.0399781,1518,463,14.1251,51.7559
301,561,13.943,-51.1009,-0.0017597,-0.015141,-0.00836718,0.00226294,-0.0191637,-0.44814,0.013593,0.0363971,1525,463,13.943,51.1009
308,561,13.9738,-50.588,-0.00151791,-0.0148192,-0.00851705,0.00263752,-0.0189746,-0.453917,0.0136143,0.0281885,1532,463,13.9737,50.588
315,561,13.9934,-50.0488,-0.00134344,-0.0141237,-0.00837565,0.00280137,-0.0182686,-0.459531,0.0132122,0.0150076,1539,463,13.9934,50.0488
322,561,13.9635,-49.387,-0.00110358,-0.0128758,-0.00788095,0.00284675,-0.0168261,-0.464648,0.0122769,0.0147417,1546,463,13.9635,49.387
329,561,13.9692,-48.6294,-0.000909349,-0.0113576,-0.00720854,0.00276902,-0.015036,-0.471837,0.0110631,0.0127718,1553,463,13.9693,48.6294
336,561,13.969,-47.8499,-0.00064419,-0.00987049,-0.0064031,0.00263448,-0.0131492,-0.473237,0.00976347,0.0124462,1560,463,13.969,47.8498
343,561,13.9402,-47.102,-0.000290192,-0.0084567,-0.00546925,0.00245192,-0.0111988,-0.464742,0.00840328,0.0112198,1567,463,13.9402,47.102
350,561,13.8949,-46.3322,-1.06676e-05,-0.00607662,-0.00433276,0.00224519,-0.00833248,-0.480032,0.00643529,0.0109093,1574,463,13.8949,46.3322
357,561,13.8772,-45.5462,0.000224421,-0.00401889,-0.00306888,0.00183365,-0.00562811,-0.482951,0.00448988,0.010933,1581,463,13.8771,45.5462
364,561,13.8754,-44.8143,0.000398498,-0.00222986,-0.00179076,0.00130556,-0.00313691,-0.468851,0.00263651,0.0103042,1588,463,13.8754,44.8143
371,561,13.8203,-44.0037,0.000568515,-0.000608775,-0.000584456,0.000809383,-0.000849643,-0.390914,0.000957933,0.0168834,1595,463,13.8203,44.0037
378,561,13.757,-43.1888,0.000714857,0.00104229,0.000491666,0.00139678,0.000360368,0.946117,0.000837327,0.0128048,1602,463,13.757,43.1889
385,561,13.6937,-42.3736,0.000878042,0.00237164,0.00129538,0.00312008,0.000129611,1.04688,0.00203822,0.0116417,1609,463,13.6938,42.3736
392,561,13.6615,-41.5599,0.00120213,0.00323978,0.00208013,0.00453719,-9.52806e-05,1.01312,0.00305705,0.0159804,1616,463,13.6615,41.5599
399,561,13.6525,-40.7616,0.00144522,0.00399397,0.00271503,0.00571883,-0.000279634,1.00482,0.0039091,0.0227168,1623,463,13.6524,40.7616
406,561,13.6255,-39.9301,0.00155574,0.00452726,0.00317215,0.00654436,-0.000461357,1.00441,0.00452454,0.0197766,1630,463,13.6255,39.9301
413,561,13.5773,-39.0749,0.00150041,0.00466039,0.00342798,0.00685498,-0.000694172,1.00134,0.00481807,0.0180206,1637,463,13.5773,39.0749
420,561,13.4933,-38.2243,0.00136039,0.00458068,0.00356673,0.00688386,-0.000942793,0.997421,0.00493362,0.0150328,1644,463,13.4932,38.2243
427,561,13.4406,-37.3465,0.0012094,0.00429493,0.00375,0.00680711,-0.00130278,0.980547,0.0050289,0.0119677,1651,463,13.4406,37.3465
434,561,13.4064,-36.4844,0.00111745,0.00407036,0.00396321,0.00682321,-0.00163539,0.963704,0.0051807,0.0129348,1658,463,13.4064,36.4844
441,561,13.3755,-35.6212,0.000750623,0.0036944,0.00414902,0.00662488,-0.00217985,0.955851,0.00529494,0.0147149,1665,463,13.3754,35.6212
448,561,13.339,-34.7057,0.000138898,0.00330589,0.00435246,0.00635396,-0.00290917,0.959863,0.00546995,0.0207635,1672,463,13.339,34.7057
455,561,13.3679,-33.8236,-0.000714121,0.00281686,0.00460326,0.00598158,-0.00387884,0.968512,0.0057359,0.040757,1679,463,13.3679,33.8236
462,561,13.0781,-32.9992,-0.00176305,0.00273735,0.00494801,0.00592279,-0.0049485,0.998805,0.00628494,0.0395304,1686,463,13.0782,32.9992
469,561,12.8433,-32.1798,-0.00302491,0.00290734,0.00532057,0.00603272,-0.00615029,1.03968,0.00703397,0.0264879,1693,463,12.8433,32.1798
476,561,12.6847,-31.3107,-0.00442947,0.0030335,0.00562188,0.00604957,-0.00744554,1.07839,0.00780529,0.0447622,1700,463,12.6847,31.3107
483,561,12.4972,-30.4225,0,0,0,0,0,0,0,-1,1707,463,12.4972,30.4226
490,561,10.2549,-20.4551,0,0,0,0,0,0,0,-1,1714,463,10.2548,20.4551
497,561,11.7618,-20.3894,0,0,0,0,0,0,0,-1,1721,463,11.7618,20.3894
504,561,12.9351,-20.1285,0,0,0,0,0,0,0,-1,1728,463,12.935,20.1285
511,561,0,0,0,0,0,0,0,0,0,-1,1735,463,0,0
518,561,0,0,0,0,0,0,0,0,0,-1,1742,463,0,0
525,561,0,0,0,0,0,0,0,0,0,-1,1749,463,0,0
532,561,0,0,0,0,0,0,0,0,0,-1,1756,463,0,0
539,561,0,0,0,0,0,0,0,0,0,-1,1763,463,0,0
546,561,0,0,0,0,0,0,0,0,0,-1,1770,463,0,0
553,561,0,0,0,0,0,0,0,0,0,-1,1777,463,0,0
560,561,0,0,0,0,0,0,0,0,0,-1,1784,463,0,0
567,561,0,0,0,0,0,0,0,0,0,-1,1791,463,0,0
574,561,0,0,0,0,0,0,0,0,0,-1,1798,463,0,0
581,561,0,0,0,0,0,0,0,0,0,-1,1805,463,0,0
588,561,0,0,0,0,0,0,0,0,0,-1,1812,463,0,0
595,561,0,0,0,0,0,0,0,0,0,-1,1819,463,0,0
602,561,0,0,0,0,0,0,0,0,0,-1,1826,463,0,0
609,561,0,0,0,0,0,0,0,0,0,-1,1833,463,0,0
616,561,0,0,0,0,0,0,0,0,0,-1,1840,463,0,0
623,561,0,0,0,0,0,0,0,0,0,-1,1847,463,0,0
630,561,0,0,0,0,0,0,0,0,0,-1,1854,463,0,0
637,561,0,0,0,0,0,0,0,0,0,-1,1861,463,0,0
644,561,0,0,0,0,0,0,0,0,0,-1,1868,463,0,0
651,561,0,0,0,0,0,0,0,0,0,-1,1875,463,0,0
658,561,0,0,0,0,0,0,0,0,0,-1,1882,463,0,0
665,561,0,0,0,0,0,0,0,0,0,-1,1889,463,0,0
672,561,0,0,0,0,0,0,0,0,0,-1,1896,463,0,0
679,561,0,0,0,0,0,0,0,0,0,-1,1903,463,0,0
686,561,0,0,0,0,0,0,0,0,0,-1,1910,463,0,0
693,561,0,0,0,0,0,0,0,0,0,-1,1917,463,0,0
700,561,0,0,0,0,0,0,0,0,0,-1,1924,463,0,0
707,561,0,0,0,0,0,0,0,0,0,-1,1931,463,0,0
714,561,0,0,0,0,0,0,0,0,0,-1,1938,463,0,0
721,561,0,0,0,0,0,0,0,0,0,-1,1945,463,0,0
728,561,0,0,0,0,0,0,0,0,0,-1,1952,463,0,0
735,561,0,0,0,0,0,0,0,0,0,-1,1959,463,0,0
742,561,0,0,0,0,0,0,0,0,0,-1,1966,463,0,0
749,561,0,0,0,0,0,0,0,0,0,-1,1973,463,0,0
756,561,0,0,0,0,0,0,0,0,0,-1,1980,463,0,0
763,561,0,0,0,0,0,0,0,0,0,-1,1987,463,0,0
770,561,0,0,0,0,0,0,0,0,0,-1,1994,463,0,0
777,561,0,0,0,0,0,0,0,0,0,-1,2001,463,0,0
784,561,0,0,0,0,0,0,0,0,0,-1,2008,463,0,0
791,561,0,0,0,0,0,0,0,0,0,-1,2015,463,0,0
798,561,0,0,0,0,0,0,0,0,0,-1,2022,463,0,0
805,561,0,0,0,0,0,0,0,0,0,-1,2029,463,0,0
812,561,0,0,0,0,0,0,0,0,0,-1,2036,463,0,0
-700,554,0,0,0,0,0,0,0,0,0,-1,524,470,0,0
-693,554,0,0,0,0,0,0,0,0,0,-1,531,470,0,0
-686,554,0,0,0,0,0,0,0,0,0,-1,538,470,0,0
-679,554,0,0,0,0,0,0,0,0,0,-1,545,470,0,0
-672,554,0,0,0,0,0,0,0,0,0,-1,552,470,0,0
-665,554,0,0,0,0,0,0,0,0,0,-1,559,470,0,0
-658,554,0,0,0,0,0,0,0,0,0,-1,566,470,0,0
-651,554,0,0,0,0,0,0,0,0,0,-1,573,470,0,0
-644,554,0,0,0,0,0,0,0,0,0,-1,580,470,0,0
-637,554,0,0,0,0,0,0,0,0,0,-1,587,470,0,0
-630,554,0,0,0,0,0,0,0,0,0,-1,594,470,0,0
-623,554,0,0,0,0,0,0,0,0,0,-1,601,470,0,0
-616,554,0,0,0,0,0,0,0,0,0,-1,608,470,0,0
-609,554,0,0,0,0,0,0,0,0,0,-1,615,470,0,0
-602,554,0,0,0,0,0,0,0,0,0,-1,622,470,0,0
-595,554,0,0,0,0,0,0,0,0,0,-1,629,470,0,0
-588,554,0,0,0,0,0,0,0,0,0,-1,636,470,0,0
-581,554,0,0,0,0,0,0,0,0,0,-1,643,470,0,0
-574,554,0,0,0,0,0,0,0,0,0,-1,650,470,0,0
-567,554,0,0,0,0,0,0,0,0,0,-1,657,470,0,0
-560,554,0,0,0,0,0,0,0,0,0,-1,664,470,0,0
-553,554,0,0,0,0,0,0,0,0,0,-1,671,470,0,0
-546,554,0,0,0,0,0,0,0,0,0,-1,678,470,0,0
-539,554,0,0,0,0,0,0,0,0,0,-1,685,470,0,0
-532,554,0,0,0,0,0,0,0,0,0,-1,692,470,0,0
-525,554,0,0,0,0,0,0,0,0,0,-1,699,470,0,0
-518,554,0,0,0,0,0,0,0,0,0,-1,706,470,0,0
-511,554,0,0,0,0,0,0,0,0,0,-1,713,470,0,0
-504,554,0,0,0,0,0,0,0,0,0,-1,720,470,0,0
-497,554,0,0,0,0,0,0,0,0,0,-1,727,470,0,0
-490,554,0,0,0,0,0,0,0,0,0,-1,734,470,0,0
-483,554,0,0,0,0,0,0,0,0,0,-1,741,470,0,0
-476,554,0,0,0,0,0,0,0,0,0,-1,748,470,0,0
-469,554,0,0,0,0,0,0,0,0,0,-1,755,470,0,0
-462,554,0,0,0,0,0,0,0,0,0,-1,762,470,0,0
-455,554,0,0,0,0,0,0,0,0,0,-1,769,470,0,0
-448,554,0,0,0,0,0,0,0,0,0,-1,776,470,0,0
-441,554,0,0,0,0,0,0,0,0,0,-1,783,470,0,0
-434,554,0,0,0,0,0,0,0,0,0,-1,790,470,0,0
-427,554,0,0,0,0,0,0,0,0,0,-1,797,470,0,0
-420,554,0,0,0,0,0,0,0,0,0,-1,804,470,0,0
-413,554,0,0,0,0,0,0,0,0,0,-1,811,470,0,0
-406,554,0,0,0,0,0,0,0,0,0,-1,818,470,0,0
-399,554,-1.32275,-3.95142,0,0,0,0,0,0,0,-1,825,470,-1.32275,3.95141
-392,554,-1.35632,-3.7406,0,0,0,0,0,0,0,-1,832,470,-1.35632,3.7406
-385,554,3.35229,-26.2258,0,0,0,0,0,0,0,-1,839,470,3.35228,26.2258
-378,554,3.22717,-26.7279,0,0,0,0,0,0,0,-1,846,470,3.22719,26.7279
-371,554,3.1283,-27.7664,0,0,0,0,0,0,0,-1,853,470,3.12828,27.7664
-364,554,2.94336,-28.6333,0,0,0,0,0,0,0,-1,860,470,2.94334,28.6333
-357,554,2.74353,-29.5953,0,0,0,0,0,0,0,-1,867,470,2.74353,29.5953
-350,554,1.17157,-18.1341,0,0,0,0,0,0,0,-1,874,470,1.17156,18.1341
-343,554,1.82056,-32.7437,0,0,0,0,0,0,0,-1,881,470,1.82056,32.7437
-336,554,1.68134,-33.4782,-0.0014257,0.0217502,-0.0110034,0.0261421,-0.00581757,-1.19103,0.0196564,0.0437086,888,470,1.68136,33.4782
-329,554,1.54614,-34.4063,-0.00138734,0.018036,-0.00908825,0.0216252,-0.00497653,-1.19467,0.0163304,0.0234332,895,470,1.54612,34.4063
-322,554,1.46698,-35.2574,-0.00128471,0.0151869,-0.00752661,0.0181081,-0.0042059,-1.20058,0.0136911,0.0170179,902,470,1.46698,35.2574
-315,554,1.44336,-36.0975,-0.00128404,0.0124895,-0.006068,0.0147814,-0.00357595,-1.20966,0.0112375,0.0157351,909,470,1.44338,36.0975
-308,554,1.39856,-36.9615,-0.00123184,0.0103771,-0.00496532,0.0122111,-0.00306585,-1.21698,0.00933208,0.0150948,916,470,1.39854,36.9615
-301,554,1.33936,-37.8441,-0.000754616,0.0082844,-0.0042122,0.00994296,-0.00241318,-1.19569,0.00756248,0.014009,923,470,1.33937,37.844
-294,554,1.25641,-38.6893,-0.000332079,0.0067163,-0.00342269,0.00810482,-0.0017206,-1.1854,0.00605874,0.0123053,930,470,1.25639,38.6893
-287,554,1.22156,-39.5211,-7.15901e-05,0.00536942,-0.00269637,0.00647926,-0.00118143,-1.18032,0.00476242,0.0126675,937,470,1.22159,39.5211
-280,554,1.15216,-40.3287,0.000192093,0.00396152,-0.00210317,0.0049009,-0.000747283,-1.15073,0.00354273,0.0123058,944,470,1.15213,40.3287
-273,554,1.09131,-41.1391,0.000431799,0.00227821,-0.00145761,0.00308038,-0.000370372,-1.0677,0.00218752,0.0148383,951,470,1.09132,41.1391
-266,554,1.06219,-41.9368,0.000688563,0.000454558,-0.000756223,0.00133678,-0.00019366,-0.708647,0.000962259,0.0119063,958,470,1.0622,41.9368
-259,554,1.04053,-42.7099,0.000859728,-0.00178287,6.99372e-05,0.000861577,-0.00178472,0.0264406,0.00155852,0.0125201,965,470,1.0405,42.7099
-252,554,0.975891,-43.4915,0.000897808,-0.00405597,0.00113508,0.00114551,-0.00430367,0.214854,0.00331754,0.0157222,972,470,0.975871,43.4915
-245,554,0.922852,-44.2919,0.000876176,-0.00643218,0.00243291,0.001612,-0.007168,0.293698,0.00539686,0.0160895,979,470,0.922828,44.2919
-238,554,0.92395,-45.123,0.000951145,-0.00892145,0.00368648,0.00217579,-0.0101461,0.320729,0.00759394,0.0115263,986,470,0.923958,45.1231
-231,554,0.908447,-45.909,0.00105183,-0.0116404,0.00503421,0.00280611,-0.0133947,0.335313,0.00999731,0.0110573,993,470,0.908418,45.909
-224,554,0.882019,-46.6384,0.00105105,-0.0142469,0.00648984,0.00343326,-0.0166292,0.351799,0.0123901,0.0114632,1000,470,0.882026,46.6384
-217,554,0.880859,-47.3703,0.00111759,-0.016809,0.00798929,0.00416135,-0.0198527,0.364004,0.0148183,0.0113392,1007,470,0.880829,47.3703
-210,554,0.870422,-48.1023,0.00126219,-0.0192998,0.00940667,0.00491619,-0.0229538,0.370508,0.0171774,0.0157489,1014,470,0.870424,48.1023
-203,554,0.845337,-48.7541,0.00152721,-0.0212842,0.0106753,0.00574369,-0.0255007,0.376167,0.0192035,0.0239447,1021,470,0.845333,48.7541
-196,554,0.858765,-49.3908,0.00191933,-0.0229953,0.0117497,0.0065863,-0.0276623,0.378088,0.0209844,0.0313117,1028,470,0.858732,49.3908
-189,554,0.950073,-49.9916,0.00222163,-0.0242879,0.0125497,0.0072202,-0.0292864,0.379041,0.0223237,0.0364363,1035,470,0.950071,49.9916
-182,554,1.12012,-50.4473,0.00235835,-0.0247427,0.0133878,0.00785642,-0.0302408,0.389678,0.0232265,0.0451069,1042,470,1.12006,50.4473
-175,554,1.14246,-50.8876,0,0,0,0,0,0,0,-1,1049,470,1.14248,50.8876
-168,554,1.8866,-48.7592,0,0,0,0,0,0,0,-1,1056,470,1.88665,48.7591
-161,554,1.09583,-42.015,0,0,0,0,0,0,0,-1,1063,470,1.09577,42.015
-154,554,1.03186,-42.7216,0,0,0,0,0,0,0,-1,1070,470,1.03187,42.7216
-147,554,1.4552,-41.5187,0,0,0,0,0,0,0,-1,1077,470,1.45525,41.5187
-140,554,0.428101,-38.9893,0,0,0,0,0,0,0,-1,1084,470,0.428152,38.9893
-133,554,2.67163,-32.8187,0,0,0,0,0,0,0,-1,1091,470,2.67161,32.8187
-126,554,0.851929,-33.5393,0,0,0,0,0,0,0,-1,1098,470,0.851942,33.5393
-119,554,-1.03479,-32.1628,0,0,0,0,0,0,0,-1,1105,470,-1.03476,32.1628
-112,554,1.03162,-24.5784,0,0,0,0,0,0,0,-1,1112,470,1.03156,24.5784
-105,554,0.608765,-21.0475,0,0,0,0,0,0,0,-1,1119,470,0.608728,21.0475
-98,554,1.51929,-7.3624,0,0,0,0,0,0,0,-1,1126,470,1.51928,7.36241
-91,554,1.41089,-6.5864,0,0,0,0,0,0,0,-1,1133,470,1.41093,6.58638
-84,554,1.62305,-5.87186,0,0,0,0,0,0,0,-1,1140,470,1.62299,5.87186
-77,554,-2.56958,1.33258,0,0,0,0,0,0,0,-1,1147,470,-2.56959,-1.33257
-70,554,-3.68164,-1.18332,0,0,0,0,0,0,0,-1,1154,470,-3.68158,1.18331
-63,554,-4.86853,-3.88708,0,0,0,0,0,0,0,-1,1161,470,-4.86853,3.88708
-56,554,-5.69958,-6.45422,0,0,0,0,0,0,0,-1,1168,470,-5.69955,6.45422
-49,554,-6.23645,-8.8569,0,0,0,0,0,0,0,-1,1175,470,-6.23643,8.85689
-42,554,-6.62524,-11.5382,0,0,0,0,0,0,0,-1,1182,470,-6.62522,11.5382
-35,554,-2.40173,-4.59482,0,0,0,0,0,0,0,-1,1189,470,-2.40169,4.59481
-28,554,-0.760132,-1.65555,0,0,0,0,0,0,0,-1,1196,470,-0.760095,1.65556
-21,554,16.1113,-72.7191,0,0,0,0,0,0,0,-1,1203,470,16.1114,72.7191
-14,554,15.4349,-71.5927,0,0,0,0,0,0,0,-1,1210,470,15.4349,71.5927
-7,554,14.7338,-70.4525,0,0,0,0,0,0,0,-1,1217,470,14.7337,70.4525
0,554,11.4496,-68.0853,0,0,0,0,0,0,0,-1,1224,470,11.4495,68.0853
7,554,10.713,-66.7925,0,0,0,0,0,0,0,-1,1231,470,10.713,66.7925
14,554,1.64172,-63.4273,0,0,0,0,0,0,0,-1,1238,470,1.64175,63.4273
21,554,1.52246,-64.317,0,0,0,0,0,0,0,-1,1245,470,1.52247,64.317
28,554,1.12048,-64.8347,0,0,0,0,0,0,0,-1,1252,470,1.12052,64.8346
35,554,0.277466,-65.1754,0,0,0,0,0,0,0,-1,1259,470,0.277483,65.1753
42,554,0.208008,-65.28,0,0,0,0,0,0,0,-1,1266,470,0.207957,65.2799
49,554,0.147217,-65.3747,0,0,0,0,0,0,0,-1,1273,470,0.147262,65.3747
56,554,0.0828857,-65.498,0,0,0,0,0,0,0,-1,1280,470,0.0829256,65.498
63,554,3.61829,-68.4168,0,0,0,0,0,0,0,-1,1287,470,3.61832,68.4168
70,554,3.06323,-67.7574,0,0,0,0,0,0,0,-1,1294,470,3.0632,67.7574
77,554,2.39111,-67.7446,0,0,0,0,0,0,0,-1,1301,470,2.39114,67.7446
84,554,1.55652,-68.3318,0,0,0,0,0,0,0,-1,1308,470,1.55657,68.3318
91,554,1.59167,-67.7973,0,0,0,0,0,0,0,-1,1315,470,1.59167,67.7973
98,554,1.49353,-67.3151,0,0,0,0,0,0,0,-1,1322,470,1.49348,67.315
105,554,3.99695,-67.7166,0,0,0,0,0,0,0,-1,1329,470,3.99694,67.7166
112,554,4.69556,-67.9523,0,0,0,0,0,0,0,-1,1336,470,4.69552,67.9523
119,554,1.52075,-63.6495,0,0,0,0,0,0,0,-1,1343,470,1.52072,63.6495
126,554,1.26697,-63.6493,0,0,0,0,0,0,0,-1,1350,470,1.26691,63.6493
133,554,1.7157,-62.9403,0,0,0,0,0,0,0,-1,1357,470,1.71569,62.9403
140,554,1.94421,-62.6774,0,0,0,0,0,0,0,-1,1364,470,1.94419,62.6774
147,554,2.08496,-62.6651,0,0,0,0,0,0,0,-1,1371,470,2.08498,62.6651
154,554,1.89771,-62.5449,0,0,0,0,0,0,0,-1,1378,470,1.89774,62.5448
161,554,1.8855,-62.7299,0,0,0,0,0,0,0,-1,1385,470,1.88547,62.7299
168,554,1.78137,-62.6296,0,0,0,0,0,0,0,-1,1392,470,1.78139,62.6296
175,554,10.663,0.286957,0,0,0,0,0,0,0,-1,1399,470,10.663,-0.286966
182,554,6.71106,-4.50217,0,0,0,0,0,0,0,-1,1406,470,6.71107,4.50215
189,554,6.90479,-2.50348,0,0,0,0,0,0,0,-1,1413,470,6.90477,2.50348
196,554,6.96216,-0.740906,0,0,0,0,0,0,0,-1,1420,470,6.96214,0.740912
203,554,6.43518,0.414154,0,0,0,0,0,0,0,-1,1427,470,6.43523,-0.414141
210,554,6.21167,1.96707,0,0,0,0,0,0,0,-1,1434,470,6.21165,-1.96706
217,554,5.64551,3.4989,0,0,0,0,0,0,0,-1,1441,470,5.64555,-3.49891
224,554,4.85144,-8.85172,0,0,0,0,0,0,0,-1,1448,470,4.85146,8.85173
231,554,3.25073,-5.29642,0,0,0,0,0,0,0,-1,1455,470,3.25078,5.29642
238,554,4.28625,-3.25253,0,0,0,0,0,0,0,-1,1462,470,4.28622,3.25252
245,554,4.0752,-2.90033,0,0,0,0,0,0,0,-1,1469,470,4.07515,2.90032
252,554,3.52112,-0.934998,0,0,0,0,0,0,0,-1,1476,470,3.52113,0.934996
259,554,3.96448,-2.16425,0,0,0,0,0,0,0,-1,1483,470,3.96446,2.16424
266,554,3.0592,-2.71716,0,0,0,0,0,0,0,-1,1490,470,3.05923,2.71718
273,554,2.58521,-3.06876,0,0,0,0,0,0,0,-1,1497,470,2.58524,3.06874
280,554,15.1957,-53.1852,0,0,0,0,0,0,0,-1,1504,470,15.1957,53.1852
287,554,15.7233,-53.0808,0,0,0,0,0,0,0,-1,1511,470,15.7232,53.0808
294,554,14.9994,-50.8336,0,0,0,0,0,0,0,-1,1518,470,14.9994,50.8336
301,554,14.5538,-50.5275,0,0,0,0,0,0,0,-1,1525,470,14.5539,50.5275
308,554,14.7383,-50.3859,0,0,0,0,0,0,0,-1,1532,470,14.7383,50.3858
315,554,14.8777,-49.5742,0,0,0,0,0,0,0,-1,1539,470,14.8777,49.5742
322,554,14.8757,-49.011,-0.00232902,-0.0173663,-0.0109248,0.00341439,-0.0231097,-0.484012,0.0166616,0.0390971,1546,470,14.8757,49.011
329,554,14.7637,-48.4005,-0.00183601,-0.0154569,-0.0101171,0.00354937,-0.0208423,-0.489155,0.0152166,0.0246921,1553,470,14.7637,48.4004
336,554,14.7074,-47.7682,-0.0013462,-0.0136738,-0.00915691,0.00352818,-0.0185482,-0.489166,0.0136939,0.0153859,1560,470,14.7074,47.7682
343,554,14.668,-47.0591,-0.000789628,-0.0120519,-0.00805252,0.00340536,-0.0162469,-0.48027,0.0121268,0.0122127,1567,470,14.6679,47.0591
350,554,14.6718,-46.2716,-0.000341234,-0.00931599,-0.00671436,0.00324723,-0.0129045,-0.490823,0.00986516,0.0109853,1574,470,14.6718,46.2716
357,554,14.6752,-45.5005,2.12094e-05,-0.0069831,-0.00523531,0.00281775,-0.00977965,-0.490608,0.00763436,0.0120823,1581,470,14.6752,45.5005
364,554,14.6433,-44.7675,0.000258766,-0.00497977,-0.00376085,0.00222257,-0.00694357,-0.481226,0.0055211,0.00934013,1588,470,14.6433,44.7675
371,554,14.6066,-43.963,0.000496926,-0.00317132,-0.0023816,0.0016688,-0.0043432,-0.45727,0.00358368,0.00890423,1595,470,14.6065,43.963
378,554,14.5525,-43.1447,0.000718595,-0.00126663,-0.00111634,0.0012198,-0.00176783,-0.421999,0.00173455,0.010982,1602,470,14.5524,43.1447
385,554,14.5149,-42.3363,0.000887977,0.000267719,-0.00010631,0.000905692,0.000250003,-0.16512,0.000540104,0.0105782,1609,470,14.5149,42.3363
392,554,14.4961,-41.4901,0.00115772,0.00145596,0.000889673,0.00220892,0.000404752,0.868432,0.00135795,0.0143453,1616,470,14.496,41.4901
399,554,14.4736,-40.6538,0.00133487,0.00233185,0.00160797,0.00351683,0.000149894,0.935706,0.00229622,0.0186957,1623,470,14.4736,40.6538
406,554,14.4258,-39.8376,0.00138651,0.0031415,0.00217175,0.00460633,-7.83203e-05,0.977395,0.00309732,0.0175599,1630,470,14.4258,39.8376
413,554,14.386,-39.0258,0.00132397,0.00348656,0.00253446,0.00516075,-0.000350215,0.987026,0.00356298,0.0166166,1637,470,14.386,39.0258
420,554,14.3237,-38.1798,0.00117489,0.00358219,0.00274941,0.00537988,-0.000622796,0.991722,0.00381118,0.017289,1644,470,14.3237,38.1798
427,554,14.2787,-37.3312,0.000967142,0.00347746,0.00296708,0.00544395,-0.000999345,0.985498,0.0040042,0.0126311,1651,470,14.2787,37.3312
434,554,14.2281,-36.5064,0.00083436,0.00338477,0.00322967,0.00558187,-0.00136274,0.973424,0.00424897,0.0110762,1658,470,14.2281,36.5064
441,554,14.1813,-35.636,0.000495354,0.00324109,0.00349418,0.00562243,-0.00188599,0.972584,0.00451036,0.0119824,1665,470,14.1813,35.636
448,554,14.1239,-34.7128,-3.42136e-05,0.003045,0.00375435,0.00556316,-0.00255238,0.979984,0.00479178,0.015627,1672,470,14.1239,34.7128
455,554,14.0403,-33.8502,-0.000699064,0.00282503,0.00405393,0.0054833,-0.00335733,0.990407,0.0051531,0.0176505,1679,470,14.0403,33.8502
462,554,13.9136,-33.0359,-0.00137765,0.00286673,0.00440686,0.00563577,-0.00414668,1.00979,0.00566967,0.0203499,1686,470,13.9136,33.0359
469,554,13.7611,-32.1696,-0.00198813,0.00311358,0.00476807,0.00597025,-0.0048448,1.03102,0.00625533,0.0273455,1693,470,13.7611,32.1697
476,554,13.585,-31.162,-0.00259021,0.00336339,0.0050991,0.00629101,-0.00551783,1.04961,0.00682271,0.0454854,1700,470,13.585,31.162
483,554,13.4342,-30.1357,0,0,0,0,0,0,0,-1,1707,470,13.4342,30.1357
490,554,12.5504,-17.9805,0,0,0,0,0,0,0,-1,1714,470,12.5505,17.9805
497,554,14.3204,-17.9055,0,0,0,0,0,0,0,-1,1721,470,14.3204,17.9055
504,554,2.13257,-3.81628,0,0,0,0,0,0,0,-1,1728,470,2.1326,3.8163
511,554,1.31396,-4.02713,0,0,0,0,0,0,0,-1,1735,470,1.31398,4.02712
518,554,5.04236,-5.9472,0,0,0,0,0,0,0,-1,1742,470,5.04231,5.94721
525,554,0,0,0,0,0,0,0,0,0,-1,1749,470,0,0
532,554,0,0,0,0,0,0,0,0,0,-1,1756,470,0,0
539,554,0,0,0,0,0,0,0,0,0,-1,1763,470,0,0
546,554,0,0,0,0,0,0,0,0,0,-1,1770,470,0,0
553,554,0,0,0,0,0,0,0,0,0,-1,1777,470,0,0
560,554,0,0,0,0,0,0,0,0,0,-1,1784,470,0,0
567,554,0,0,0,0,0,0,0,0,0,-1,1791,470,0,0
574,554,0,0,0,0,0,0,0,0,0,-1,1798,470,0,0
581,554,0,0,0,0,0,0,0,0,0,-1,1805,470,0,0
588,554,0,0,0,0,0,0,0,0,0,-1,1812,470,0,0
595,554,0,0,0,0,0,0,0,0,0,-1,1819,470,0,0
602,554,0,0,0,0,0,0,0,0,0,-1,1826,470,0,0
609,554,0,0,0,0,0,0,0,0,0,-1,1833,470,0,0
616,554,0,0,0,0,0,0,0,0,0,-1,1840,470,0,0
623,554,0,0,0,0,0,0,0,0,0,-1,1847,470,0,0
630,554,0,0,0,0,0,0,0,0,0,-1,1854,470,0,0
637,554,0,0,0,0,0,0,0,0,0,-1,1861,470,0,0
644,554,0,0,0,0,0,0,0,0,0,-1,1868,470,0,0
651,554,0,0,0,0,0,0,0,0,0,-1,1875,470,0,0
658,554,0,0,0,0,0,0,0,0,0,-1,1882,470,0,0
665,554,0,0,0,0,0,0,0,0,0,-1,1889,470,0,0
672,554,0,0,0,0,0,0,0,0,0,-1,1896,470,0,0
679,554,0,0,0,0,0,0,0,0,0,-1,1903,470,0,0
686,554,0,0,0,0,0,0,0,0,0,-1,1910,470,0,0
693,554,0,0,0,0,0,0,0,0,0,-1,1917,470,0,0
700,554,0,0,0,0,0,0,0,0,0,-1,1924,470,0,0
707,554,0,0,0,0,0,0,0,0,0,-1,1931,470,0,0
714,554,0,0,0,0,0,0,0,0,0,-1,1938,470,0,0
721,554,0,0,0,0,0,0,0,0,0,-1,1945,470,0,0
728,554,0,0,0,0,0,0,0,0,0,-1,1952,470,0,0
735,554,0,0,0,0,0,0,0,0,0,-1,1959,470,0,0
742,554,0,0,0,0,0,0,0,0,0,-1,1966,470,0,0
749,554,0,0,0,0,0,0,0,0,0,-1,1973,470,0,0
756,554,0,0,0,0,0,0,0,0,0,-1,1980,470,0,0
763,554,0,0,0,0,0,0,0,0,0,-1,1987,470,0,0
770,554,0,0,0,0,0,0,0,0,0,-1,1994,470,0,0
777,554,0,0,0,0,0,0,0,0,0,-1,2001,470,0,0
784,554,0,0,0,0,0,0,0,0,0,-1,2008,470,0,0
791,554,0,0,0,0,0,0,0,0,0,-1,2015,470,0,0
798,554,0,0,0,0,0,0,0,0,0,-1,2022,470,0,0
805,554,0,0,0,0,0,0,0,0,0,-1,2029,470,0,0
812,554,0,0,0,0,0,0,0,0,0,-1,2036,470,0,0
-700,547,0,0,0,0,0,0,0,0,0,-1,524,477,0,0
-693,547,0,0,0,0,0,0,0,0,0,-1,531,477,0,0
-686,547,0,0,0,0,0,0,0,0,0,-1,538,477,0,0
-679,547,0,0,0,0,0,0,0,0,0,-1,545,477,0,0
-672,547,0,0,0,0,0,0,0,0,0,-1,552,477,0,0
-665,547,0,0,0,0,0,0,0,0,0,-1,559,477,0,0
-658,547,0,0,0,0,0,0,0,0,0,-1,566,477,0,0
-651,547,0,0,0,0,0,0,0,0,0,-1,573,477,0,0
-644,547,0,0,0,0,0,0,0,0,0,-1,580,477,0,0
-637,547,0,0,0,0,0,0,0,0,0,-1,587,477,0,0
-630,547,0,0,0,0,0,0,0,0,0,-1,594,477,0,0
-623,547,0,0,0,0,0,0,0,0,0,-1,601,477,0,0
-616,547,0,0,0,0,0,0,0,0,0,-1,608,477,0,0
-609,547,0,0,0,0,0,0,0,0,0,-1,615,477,0,0
-602,547,0,0,0,0,0,0,0,0,0,-1,622,477,0,0
-595,547,0,0,0,0,0,0,0,0,0,-1,629,477,0,0
-588,547,0,0,0,0,0,0,0,0,0,-1,636,477,0,0
-581,547,0,0,0,0,0,0,0,0,0,-1,643,477,0,0
-574,547,0,0,0,0,0,0,0,0,0,-1,650,477,0,0
-567,547,0,0,0,0,0,0,0,0,0,-1,657,477,0,0
-560,547,0,0,0,0,0,0,0,0,0,-1,664,477,0,0
-553,547,0,0,0,0,0,0,0,0,0,-1,671,477,0,0
-546,547,0,0,0,0,0,0,0,0,0,-1,678,477,0,0
-539,547,0,0,0,0,0,0,0,0,0,-1,685,477,0,0
-532,547,0,0,0,0,0,0,0,0,0,-1,692,477,0,0
-525,547,0,0,0,0,0,0,0,0,0,-1,699,477,0,0
-518,547,0,0,0,0,0,0,0,0,0,-1,706,477,0,0
-511,547,0,0,0,0,0,0,0,0,0,-1,713,477,0,0
-504,547,0,0,0,0,0,0,0,0,0,-1,720,477,0,0
-497,547,0,0,0,0,0,0,0,0,0,-1,727,477,0,0
-490,547,0,0,0,0,0,0,0,0,0,-1,734,477,0,0
-483,547,0,0,0,0,0,0,0,0,0,-1,741,477,0,0
-476,547,0,0,0,0,0,0,0,0,0,-1,748,477,0,0
-469,547,0,0,0,0,0,0,0,0,0,-1,755,477,0,0
-462,547,0,0,0,0,0,0,0,0,0,-1,762,477,0,0
-455,547,0,0,0,0,0,0,0,0,0,-1,769,477,0,0
-448,547,0,0,0,0,0,0,0,0,0,-1,776,477,0,0
-441,547,0,0,0,0,0,0,0,0,0,-1,783,477,0,0
-434,547,0,0,0,0,0,0,0,0,0,-1,790,477,0,0
-427,547,0,0,0,0,0,0,0,0,0,-1,797,477,0,0
-420,547,0,0,0,0,0,0,0,0,0,-1,804,477,0,0
-413,547,0,0,0,0,0,0,0,0,0,-1,811,477,0,0
-406,547,0.144592,-11.0292,0,0,0,0,0,0,0,-1,818,477,0.144583,11.0292
-399,547,0.775513,-10.0294,0,0,0,0,0,0,0,-1,825,477,0.775482,10.0295
-392,547,2.80377,-25.0129,0,0,0,0,0,0,0,-1,832,477,2.8038,25.0129
-385,547,2.26447,-26.0353,0,0,0,0,0,0,0,-1,839,477,2.26448,26.0353
-378,547,2.08917,-27.085,0,0,0,0,0,0,0,-1,846,477,2.08918,27.085
-371,547,1.9483,-28.0656,0,0,0,0,0,0,0,-1,853,477,1.94832,28.0657
-364,547,1.79816,-29.0081,0,0,0,0,0,0,0,-1,860,477,1.79814,29.0081
-357,547,1.58539,-29.9227,0,0,0,0,0,0,0,-1,867,477,1.58537,29.9227
-350,547,0.856567,-31.2868,0,0,0,0,0,0,0,-1,874,477,0.856564,31.2868
-343,547,0.805908,-32.3594,-0.000182465,0.0214465,-0.0114334,0.0263697,-0.00510569,-1.16419,0.0195057,0.0461992,881,477,0.805888,32.3594
-336,547,0.832275,-33.4676,-0.000578509,0.0177362,-0.00935849,0.0216723,-0.00451461,-1.17267,0.0161646,0.0202423,888,477,0.832245,33.4676
-329,547,0.721191,-34.3527,-0.000725702,0.0145384,-0.00759025,0.0176702,-0.00385749,-1.17947,0.0132544,0.0110014,895,477,0.72122,34.3527
-322,547,0.659058,-35.22,-0.000748564,0.0119875,-0.00611951,0.0144513,-0.0032123,-1.18805,0.0108644,0.011187,902,477,0.659085,35.2201
-315,547,0.617798,-36.1158,-0.000811158,0.00958131,-0.00472544,0.0114087,-0.0026385,-1.2018,0.00862093,0.0105592,909,477,0.617781,36.1159
-308,547,0.570618,-36.9637,-0.000779305,0.00774129,-0.00368785,0.00911574,-0.00215375,-1.21405,0.00690791,0.0122081,916,477,0.570603,36.9637
-301,547,0.514099,-37.8022,-0.000370392,0.00591583,-0.00296708,0.00709507,-0.00154963,-1.1925,0.00532233,0.011655,923,477,0.514071,37.8023
-294,547,0.430298,-38.6404,4.12771e-05,0.00449916,-0.00221706,0.00541402,-0.000873588,-1.17943,0.00393302,0.0100921,930,477,0.430274,38.6404
-287,547,0.37207,-39.4728,0.000332334,0.00321812,-0.00152197,0.00387245,-0.00032199,-1.16477,0.00269538,0.0120213,937,477,0.372069,39.4728
-280,547,0.344421,-40.2938,0.000557547,0.0016497,-0.000907273,0.00216256,4.46901e-05,-1.0563,0.00142704,0.01345,944,477,0.34444,40.2937
-273,547,0.309082,-41.0972,0.000763879,-0.000254992,-0.000208931,0.000805058,-0.000296171,-0.194601,0.000658034,0.0125893,951,477,0.309062,41.0972
-266,547,0.270203,-41.8907,0.00104138,-0.00224014,0.000526964,0.00112393,-0.00232269,0.155382,0.00202963,0.0119539,958,477,0.270228,41.8907
-259,547,0.213623,-42.6785,0.00117466,-0.0046633,0.00143008,0.00150615,-0.0049948,0.227777,0.00392934,0.0112011,965,477,0.213635,42.6785
-252,547,0.203247,-43.4802,0.00112654,-0.00721127,0.00262405,0.00188363,-0.00796836,0.280891,0.00603885,0.0120889,972,477,0.203267,43.4802
-245,547,0.184387,-44.2697,0.000976353,-0.00993739,0.00413263,0.00236463,-0.0113257,0.324087,0.00844968,0.013341,979,477,0.184402,44.2697
-238,547,0.154297,-45.0794,0.000931877,-0.0128098,0.00556838,0.00290498,-0.0147829,0.340536,0.0109528,0.00925858,986,477,0.154275,45.0794
-231,547,0.123291,-45.8449,0.000914512,-0.0159499,0.00714646,0.00353554,-0.0185709,0.351526,0.0137119,0.00916935,993,477,0.123291,45.8449
-224,547,0.101868,-46.5575,0.000761706,-0.0189861,0.00890117,0.00418159,-0.0224059,0.366818,0.0165086,0.0118588,1000,477,0.101864,46.5575
-217,547,0.0925903,-47.2406,0.000659802,-0.0218945,0.0107545,0.00496577,-0.0262005,0.38084,0.019336,0.0164575,1007,477,0.092561,47.2406
-210,547,0.0689697,-47.8625,0.000619252,-0.0247173,0.0125574,0.00578837,-0.0298864,0.390501,0.0221078,0.0266346,1014,477,0.0689702,47.8625
-203,547,0.0525513,-48.3186,0.000692506,-0.0269947,0.0142317,0.00670305,-0.0330052,0.399611,0.0245448,0.0382963,1021,477,0.0525313,48.3186
-196,547,-0.024292,-48.7571,0.000967239,-0.0289192,0.015671,0.00767768,-0.0356297,0.404583,0.0266831,0.0474491,1028,477,-0.0243101,48.7572
-189,547,-0.0916748,-49.1779,0,0,0,0,0,0,0,-1,1035,477,-0.0917041,49.1779
-182,547,0.495972,-49.8461,0,0,0,0,0,0,0,-1,1042,477,0.495918,49.8461
-175,547,1.37634,-47.526,0,0,0,0,0,0,0,-1,1049,477,1.3763,47.526
-168,547,0.761719,-32.9387,0,0,0,0,0,0,0,-1,1056,477,0.761738,32.9387
-161,547,0.0430908,-34.6016,0,0,0,0,0,0,0,-1,1063,477,0.0431231,34.6016
-154,547,-0.284424,-31.1176,0,0,0,0,0,0,0,-1,1070,477,-0.284395,31.1176
-147,547,3.69434,-26.413,0,0,0,0,0,0,0,-1,1077,477,3.69437,26.413
-140,547,1.55676,-22.5229,0,0,0,0,0,0,0,-1,1084,477,1.5568,22.5229
-133,547,2.31665,-17.9421,0,0,0,0,0,0,0,-1,1091,477,2.31667,17.9421
-126,547,-1.15271,-30.6984,0,0,0,0,0,0,0,-1,1098,477,-1.15267,30.6984
-119,547,0.967651,-24.9351,0,0,0,0,0,0,0,-1,1105,477,0.967657,24.9351
-112,547,1.15674,-22.2276,0,0,0,0,0,0,0,-1,1112,477,1.15677,22.2276
-105,547,0.966797,-20.5777,0,0,0,0,0,0,0,-1,1119,477,0.966804,20.5777
-98,547,0.70166,-18.9755,0,0,0,0,0,0,0,-1,1126,477,0.701713,18.9755
-91,547,1.37805,-7.12024,0,0,0,0,0,0,0,-1,1133,477,1.37804,7.12025
-84,547,1.94202,-6.66241,0,0,0,0,0,0,0,-1,1140,477,1.94201,6.66241
-77,547,-2.28357,1.8588,0,0,0,0,0,0,0,-1,1147,477,-2.28356,-1.85879
-70,547,-3.70178,-0.874908,0,0,0,0,0,0,0,-1,1154,477,-3.70182,0.874918
-63,547,-5.12012,-3.60861,0,0,0,0,0,0,0,-1,1161,477,-5.12009,3.60862
-56,547,-6.01917,-6.2399,0,0,0,0,0,0,0,-1,1168,477,-6.01921,6.23991
-49,547,-6.729,-8.60349,0,0,0,0,0,0,0,-1,1175,477,-6.72899,8.60348
-42,547,-2.41736,-5.53012,0,0,0,0,0,0,0,-1,1182,477,-2.41734,5.53011
-35,547,-2.96838,-4.45734,0,0,0,0,0,0,0,-1,1189,477,-2.96839,4.45734
-28,547,-0.869141,-1.29901,0,0,0,0,0,0,0,-1,1196,477,-0.869135,1.29901
-21,547,-7.68262,-30.8089,0,0,0,0,0,0,0,-1,1203,477,-7.68256,30.8089
-14,547,16.0194,-71.2816,0,0,0,0,0,0,0,-1,1210,477,16.0195,71.2816
-7,547,15.4246,-69.7585,0,0,0,0,0,0,0,-1,1217,477,15.4245,69.7586
0,547,14.8218,-68.1481,0,0,0,0,0,0,0,-1,1224,477,14.8217,68.1481
7,547,10.7118,-65.8726,0,0,0,0,0,0,0,-1,1231,477,10.7117,65.8726
14,547,0,0,0,0,0,0,0,0,0,-1,1238,477,0,0
21,547,0,0,0,0,0,0,0,0,0,-1,1245,477,0,0
28,547,0,0,0,0,0,0,0,0,0,-1,1252,477,0,0
35,547,0,0,0,0,0,0,0,0,0,-1,1259,477,0,0
42,547,0,0,0,0,0,0,0,0,0,-1,1266,477,0,0
49,547,0,0,0,0,0,0,0,0,0,-1,1273,477,0,0
56,547,0,0,0,0,0,0,0,0,0,-1,1280,477,0,0
63,547,0,0,0,0,0,0,0,0,0,-1,1287,477,0,0
70,547,0,0,0,0,0,0,0,0,0,-1,1294,477,0,0
77,547,0,0,0,0,0,0,0,0,0,-1,1301,477,0,0
84,547,0,0,0,0,0,0,0,0,0,-1,1308,477,0,0
91,547,0,0,0,0,0,0,0,0,0,-1,1315,477,0,0
98,547,0,0,0,0,0,0,0,0,0,-1,1322,477,0,0
105,547,4.67786,-69.7896,0,0,0,0,0,0,0,-1,1329,477,4.67785,69.7896
112,547,5.58362,-69.924,0,0,0,0,0,0,0,-1,1336,477,5.58359,69.924
119,547,1.32068,-63.6773,0,0,0,0,0,0,0,-1,1343,477,1.32067,63.6773
126,547,1.26221,-63.611,0,0,0,0,0,0,0,-1,1350,477,1.26225,63.611
133,547,1.15564,-63.6553,0,0,0,0,0,0,0,-1,1357,477,1.15558,63.6553
140,547,1.14575,-63.5521,0,0,0,0,0,0,0,-1,1364,477,1.14579,63.5521
147,547,1.26367,-63.8025,0,0,0,0,0,0,0,-1,1371,477,1.26363,63.8025
154,547,1.12451,-63.9427,0,0,0,0,0,0,0,-1,1378,477,1.12457,63.9427
161,547,0.512329,-63.751,0,0,0,0,0,0,0,-1,1385,477,0.512293,63.751
168,547,0.68689,-68.7853,0,0,0,0,0,0,0,-1,1392,477,0.68688,68.7854
175,547,3.35034,-0.26532,0,0,0,0,0,0,0,-1,1399,477,3.3503,0.265306
182,547,4.26038,3.72672,0,0,0,0,0,0,0,-1,1406,477,4.26039,-3.7267
189,547,3.40454,1.28671,0,0,0,0,0,0,0,-1,1413,477,3.40457,-1.28673
196,547,3.53931,1.87793,0,0,0,0,0,0,0,-1,1420,477,3.53928,-1.87794
203,547,6.49414,-0.425842,0,0,0,0,0,0,0,-1,1427,477,6.4941,0.425844
210,547,4.82092,0.53595,0,0,0,0,0,0,0,-1,1434,477,4.82096,-0.535942
217,547,4.68579,0.480072,0,0,0,0,0,0,0,-1,1441,477,4.68577,-0.480069
224,547,4.55615,0.739807,0,0,0,0,0,0,0,-1,1448,477,4.55613,-0.73981
231,547,5.90869,-3.57721,0,0,0,0,0,0,0,-1,1455,477,5.90871,3.57722
238,547,5.50049,-3.15356,0,0,0,0,0,0,0,-1,1462,477,5.50045,3.15356
245,547,5.13708,-2.65213,0,0,0,0,0,0,0,-1,1469,477,5.13708,2.65212
252,547,3.73511,-0.645233,0,0,0,0,0,0,0,-1,1476,477,3.73515,0.645237
259,547,5.86816,-3.20816,0,0,0,0,0,0,0,-1,1483,477,5.86815,3.20816
266,547,5.40222,-2.45731,0,0,0,0,0,0,0,-1,1490,477,5.40221,2.45732
273,547,3.05737,0.495789,0,0,0,0,0,0,0,-1,1497,477,3.05742,-0.49578
280,547,2.0885,1.47797,0,0,0,0,0,0,0,-1,1504,477,2.08848,-1.47795
287,547,16.7034,-52.6257,0,0,0,0,0,0,0,-1,1511,477,16.7033,52.6258
294,547,16.1288,-49.8537,0,0,0,0,0,0,0,-1,1518,477,16.1288,49.8537
301,547,16.5122,-48.5859,0,0,0,0,0,0,0,-1,1525,477,16.5122,48.5859
308,547,14.5352,-46.2472,0,0,0,0,0,0,0,-1,1532,477,14.5351,46.2472
315,547,16.3188,-48.3778,0,0,0,0,0,0,0,-1,1539,477,16.3188,48.3778
322,547,15.8108,-48.6792,0,0,0,0,0,0,0,-1,1546,477,15.8108,48.6792
329,547,15.9598,-48.0178,0,0,0,0,0,0,0,-1,1553,477,15.9599,48.0178
336,547,15.7906,-47.4711,-0.00262076,-0.0181256,-0.0125858,0.00440861,-0.025155,-0.509359,0.0184163,0.0448911,1560,477,15.7907,47.4711
343,547,15.6099,-47.0198,-0.00170378,-0.0160755,-0.0111546,0.00437917,-0.0221585,-0.499252,0.0164278,0.0363801,1567,477,15.6099,47.0198
350,547,15.5092,-46.2509,-0.000929718,-0.0127571,-0.00944142,0.00429715,-0.017984,-0.505611,0.0136491,0.0237219,1574,477,15.5092,46.2509
357,547,15.4755,-45.485,-0.000294556,-0.0099485,-0.00758175,0.00386639,-0.0141094,-0.501929,0.0109256,0.0150343,1581,477,15.4754,45.4851
364,547,15.4333,-44.7175,0.000115821,-0.0075661,-0.00578428,0.00321826,-0.0106685,-0.492309,0.00839336,0.0106827,1588,477,15.4333,44.7175
371,547,15.4225,-43.9067,0.00050745,-0.00542679,-0.00413213,0.0026274,-0.00754675,-0.474026,0.00609863,0.00985234,1595,477,15.4225,43.9067
378,547,15.399,-43.1049,0.000858796,-0.00317985,-0.00260778,0.00213768,-0.00445873,-0.455947,0.00388623,0.0112709,1602,477,15.399,43.1049
385,547,15.3435,-42.2998,0.00109615,-0.0013801,-0.00130628,0.00165784,-0.00194179,-0.406089,0.0020804,0.0117557,1609,477,15.3435,42.2998
392,547,15.295,-41.4548,0.0013515,0.00011711,-6.71618e-05,0.00135514,0.000113467,-0.0541958,0.000868081,0.0123578,1616,477,15.295,41.4548
399,547,15.2489,-40.6332,0.00147904,0.00111516,0.000746638,0.00206559,0.000528616,0.665888,0.00123903,0.0138167,1623,477,15.2489,40.6332
406,547,15.2395,-39.8142,0.00148324,0.00217854,0.00141174,0.0032848,0.000376976,0.906123,0.00207565,0.0143904,1630,477,15.2396,39.8142
413,547,15.2136,-38.9977,0.00141308,0.0026715,0.00186542,0.00401097,7.36131e-05,0.948058,0.00264978,0.0146271,1637,477,15.2136,38.9977
420,547,15.1777,-38.1721,0.00124017,0.00288969,0.00213197,0.00435087,-0.000221012,0.969958,0.00297699,0.0164213,1644,477,15.1778,38.1721
427,547,15.1394,-37.3103,0.00099138,0.00292721,0.00236874,0.00451816,-0.000599573,0.979356,0.00323057,0.0161471,1651,477,15.1394,37.3103
434,547,15.0618,-36.4788,0.000818543,0.00292616,0.00264991,0.00472411,-0.000979411,0.974649,0.00352157,0.0111504,1658,477,15.0618,36.4788
441,547,14.9894,-35.6432,0.000500192,0.00293442,0.00294767,0.00490637,-0.00147176,0.98119,0.00385628,0.011503,1665,477,14.9894,35.6432
448,547,14.9185,-34.7383,3.24641e-05,0.00285652,0.00322152,0.00496188,-0.0020729,0.991943,0.00417414,0.0120508,1672,477,14.9185,34.7383
455,547,14.8623,-33.8538,-0.000504254,0.00279915,0.00352875,0.00504362,-0.00274873,1.00429,0.00456349,0.0117537,1679,477,14.8623,33.8538
462,547,14.7972,-33.0012,-0.000938693,0.0029253,0.00386962,0.00531842,-0.00333181,1.01693,0.00503792,0.01208,1686,477,14.7973,33.0012
469,547,14.6588,-32.1188,-0.00117807,0.00322661,0.0042296,0.0057929,-0.00374436,1.02543,0.00554851,0.0226412,1693,477,14.6589,32.1188
476,547,14.5526,-30.9984,-0.00143759,0.00356657,0.00456533,0.00627051,-0.00414153,1.03607,0.00605314,0.0365782,1700,477,14.5526,30.9984
483,547,14.5076,-29.7892,0,0,0,0,0,0,0,-1,1707,477,14.5076,29.7892
490,547,3.65271,-3.71707,0,0,0,0,0,0,0,-1,1714,477,3.65277,3.71708
497,547,2.55481,-3.81421,0,0,0,0,0,0,0,-1,1721,477,2.55476,3.8142
504,547,4.01953,-2.22714,0,0,0,0,0,0,0,-1,1728,477,4.0195,2.22713
511,547,5.2146,-6.9552,0,0,0,0,0,0,0,-1,1735,477,5.21464,6.95521
518,547,5.24243,-6.56122,0,0,0,0,0,0,0,-1,1742,477,5.24241,6.56121
525,547,5.89368,-5.49866,0,0,0,0,0,0,0,-1,1749,477,5.89372,5.49866
532,547,0,0,0,0,0,0,0,0,0,-1,1756,477,0,0
539,547,0,0,0,0,0,0,0,0,0,-1,1763,477,0,0
546,547,0,0,0,0,0,0,0,0,0,-1,1770,477,0,0
553,547,0,0,0,0,0,0,0,0,0,-1,1777,477,0,0
560,547,0,0,0,0,0,0,0,0,0,-1,1784,477,0,0
567,547,0,0,0,0,0,0,0,0,0,-1,1791,477,0,0
574,547,0,0,0,0,0,0,0,0,0,-1,1798,477,0,0
581,547,0,0,0,0,0,0,0,0,0,-1,1805,477,0,0
588,547,0,0,0,0,0,0,0,0,0,-1,1812,477,0,0
595,547,0,0,0,0,0,0,0,0,0,-1,1819,477,0,0
602,547,0,0,0,0,0,0,0,0,0,-1,1826,477,0,0
609,547,0,0,0,0,0,0,0,0,0,-1,1833,477,0,0
616,547,0,0,0,0,0,0,0,0,0,-1,1840,477,0,0
623,547,0,0,0,0,0,0,0,0,0,-1,1847,477,0,0
630,547,0,0,0,0,0,0,0,0,0,-1,1854,477,0,0
637,547,0,0,0,0,0,0,0,0,0,-1,1861,477,0,0
644,547,0,0,0,0,0,0,0,0,0,-1,1868,477,0,0
651,547,0,0,0,0,0,0,0,0,0,-1,1875,477,0,0
658,547,0,0,0,0,0,0,0,0,0,-1,1882,477,0,0
665,547,0,0,0,0,0,0,0,0,0,-1,1889,477,0,0
672,547,0,0,0,0,0,0,0,0,0,-1,1896,477,0,0
679,547,0,0,0,0,0,0,0,0,0,-1,1903,477,0,0
686,547,0,0,0,0,0,0,0,0,0,-1,1910,477,0,0
693,547,0,0,0,0,0,0,0,0,0,-1,1917,477,0,0
700,547,0,0,0,0,0,0,0,0,0,-1,1924,477,0,0
707,547,0,0,0,0,0,0,0,0,0,-1,1931,477,0,0
714,547,0,0,0,0,0,0,0,0,0,-1,1938,477,0,0
721,547,0,0,0,0,0,0,0,0,0,-1,1945,477,0,0
728,547,0,0,0,0,0,0,0,0,0,-1,1952,477,0,0
735,547,0,0,0,0,0,0,0,0,0,-1,1959,477,0,0
742,547,0,0,0,0,0,0,0,0,0,-1,1966,477,0,0
749,547,0,0,0,0,0,0,0,0,0,-1,1973,477,0,0
756,547,0,0,0,0,0,0,0,0,0,-1,1980,477,0,0
763,547,0,0,0,0,0,0,0,0,0,-1,1987,477,0,0
770,547,0,0,0,0,0,0,0,0,0,-1,1994,477,0,0
777,547,0,0,0,0,0,0,0,0,0,-1,2001,477,0,0
784,547,0,0,0,0,0,0,0,0,0,-1,2008,477,0,0
791,547,0,0,0,0,0,0,0,0,0,-1,2015,477,0,0
798,547,0,0,0,0,0,0,0,0,0,-1,2022,477,0,0
805,547,0,0,0,0,0,0,0,0,0,-1,2029,477,0,0
812,547,0,0,0,0,0,0,0,0,0,-1,2036,477,0,0
-700,540,0,0,0,0,0,0,0,0,0,-1,524,484,0,0
-693,540,0,0,0,0,0,0,0,0,0,-1,531,484,0,0
-686,540,0,0,0,0,0,0,0,0,0,-1,538,484,0,0
-679,540,0,0,0,0,0,0,0,0,0,-1,545,484,0,0
-672,540,0,0,0,0,0,0,0,0,0,-1,552,484,0,0
-665,540,0,0,0,0,0,0,0,0,0,-1,559,484,0,0
-658,540,0,0,0,0,0,0,0,0,0,-1,566,484,0,0
-651,540,0,0,0,0,0,0,0,0,0,-1,573,484,0,0
-644,540,0,0,0,0,0,0,0,0,0,-1,580,484,0,0
-637,540,0,0,0,0,0,0,0,0,0,-1,587,484,0,0
-630,540,0,0,0,0,0,0,0,0,0,-1,594,484,0,0
-623,540,0,0,0,0,0,0,0,0,0,-1,601,484,0,0
-616,540,0,0,0,0,0,0,0,0,0,-1,608,484,0,0
-609,540,0,0,0,0,0,0,0,0,0,-1,615,484,0,0
-602,540,0,0,0,0,0,0,0,0,0,-1,622,484,0,0
-595,540,0,0,0,0,0,0,0,0,0,-1,629,484,0,0
-588,540,0,0,0,0,0,0,0,0,0,-1,636,484,0,0
-581,540,0,0,0,0,0,0,0,0,0,-1,643,484,0,0
-574,540,0,0,0,0,0,0,0,0,0,-1,650,484,0,0
-567,540,0,0,0,0,0,0,0,0,0,-1,657,484,0,0
-560,540,0,0,0,0,0,0,0,0,0,-1,664,484,0,0
-553,540,0,0,0,0,0,0,0,0,0,-1,671,484,0,0
-546,540,0,0,0,0,0,0,0,0,0,-1,678,484,0,0
-539,540,0,0,0,0,0,0,0,0,0,-1,685,484,0,0
-532,540,0,0,0,0,0,0,0,0,0,-1,692,484,0,0
-525,540,0,0,0,0,0,0,0,0,0,-1,699,484,0,0
-518,540,0,0,0,0,0,0,0,0,0,-1,706,484,0,0
-511,540,0,0,0,0,0,0,0,0,0,-1,713,484,0,0
-504,540,0,0,0,0,0,0,0,0,0,-1,720,484,0,0
-497,540,0,0,0,0,0,0,0,0,0,-1,727,484,0,0
-490,540,0,0,0,0,0,0,0,0,0,-1,734,484,0,0
-483,540,0,0,0,0,0,0,0,0,0,-1,741,484,0,0
-476,540,0,0,0,0,0,0,0,0,0,-1,748,484,0,0
-469,540,0,0,0,0,0,0,0,0,0,-1,755,484,0,0
-462,540,0,0,0,0,0,0,0,0,0,-1,762,484,0,0
-455,540,0,0,0,0,0,0,0,0,0,-1,769,484,0,0
-448,540,0,0,0,0,0,0,0,0,0,-1,776,484,0,0
-441,540,0,0,0,0,0,0,0,0,0,-1,783,484,0,0
-434,540,0,0,0,0,0,0,0,0,0,-1,790,484,0,0
-427,540,0,0,0,0,0,0,0,0,0,-1,797,484,0,0
-420,540,0.227051,-10.0402,0,0,0,0,0,0,0,-1,804,484,0.227063,10.0402
-413,540,-0.0393677,-10.3862,0,0,0,0,0,0,0,-1,811,484,-0.0393683,10.3862
-406,540,-0.518372,-11.5288,0,0,0,0,0,0,0,-1,818,484,-0.518402,11.5288
-399,540,0.0863037,-11.3801,0,0,0,0,0,0,0,-1,825,484,0.0863201,11.3801
-392,540,-0.517395,-10.6735,0,0,0,0,0,0,0,-1,832,484,-0.517377,10.6735
-385,540,1.1767,-25.8448,0,0,0,0,0,0,0,-1,839,484,1.17668,25.8448
-378,540,0.951172,-27.4421,0,0,0,0,0,0,0,-1,846,484,0.951175,27.4421
-371,540,0.798157,-28.4438,0,0,0,0,0,0,0,-1,853,484,0.798127,28.4439
-364,540,0.207031,-29.4515,0,0,0,0,0,0,0,-1,860,484,0.207003,29.4516
-357,540,0.427734,-30.2444,0.00227381,0.0261038,-0.0145475,0.0329929,-0.00461533,-1.12852,0.0236841,0.047906,867,484,0.427734,30.2444
-350,540,0.0842285,-31.302,0.00125317,0.0213902,-0.0118957,0.0269063,-0.00426298,-1.1366,0.0195144,0.035736,874,484,0.0842202,31.302
-343,540,0.00817871,-32.4688,0.000506663,0.0174324,-0.00964969,0.0218045,-0.00386545,-1.14538,0.0159814,0.019413,881,484,0.00815241,32.4688
-336,540,-0.0671997,-33.5068,7.03675e-05,0.0141972,-0.00778028,0.0176421,-0.00337452,-1.15397,0.0130327,0.0137614,888,484,-0.0672278,33.5069
-329,540,-0.126404,-34.359,-0.000178937,0.0114063,-0.00615966,0.0140692,-0.00284183,-1.16275,0.0104563,0.0101957,895,484,-0.126417,34.359
-322,540,-0.184631,-35.2035,-0.000281226,0.00911518,-0.0047846,0.0111226,-0.00228866,-1.17354,0.00828402,0.0140727,902,484,-0.184623,35.2035
-315,540,-0.218872,-36.0775,-0.000374899,0.00696705,-0.00346914,0.00834692,-0.00175477,-1.19223,0.00623243,0.0127691,909,484,-0.218867,36.0775
-308,540,-0.237305,-36.9219,-0.000333195,0.00535755,-0.00250344,0.00630208,-0.00127772,-1.21002,0.00468573,0.0126345,916,484,-0.237276,36.9219
-301,540,-0.328674,-37.7247,1.89099e-05,0.00378626,-0.00181013,0.00451501,-0.000709846,-1.18805,0.00327239,0.0137564,923,484,-0.32868,37.7247
-294,540,-0.396362,-38.558,0.00042142,0.00255344,-0.00110657,0.00302394,-4.9083e-05,-1.16876,0.00203252,0.0119865,930,484,-0.396338,38.5581
-287,540,-0.427124,-39.4036,0.000752191,0.00134888,-0.000450761,0.00159109,0.000509985,-1.07774,0.000938133,0.00850992,937,484,-0.427114,39.4035
-280,540,-0.467896,-40.2247,0.000945211,-0.00037462,0.000185144,0.00097069,-0.0004001,0.136762,0.00081396,0.0100695,944,484,-0.467907,40.2247
-273,540,-0.488403,-41.0383,0.00111506,-0.00251306,0.000936082,0.00134233,-0.00274034,0.238189,0.00240275,0.0123857,951,484,-0.488387,41.0383
-266,540,-0.516052,-41.8511,0.00142033,-0.00467396,0.00170613,0.00186546,-0.00511909,0.25521,0.00417583,0.0135684,958,484,-0.51606,41.8511
-259,540,-0.581116,-42.6783,0.00153483,-0.00728955,0.00269024,0.00229031,-0.00804503,0.273771,0.00626786,0.0130021,965,484,-0.581115,42.6783
-252,540,-0.588379,-43.4332,0.00139836,-0.0101616,0.00402546,0.00266199,-0.0114253,0.304169,0.00864193,0.0129823,972,484,-0.588353,43.4332
-245,540,-0.580994,-44.1882,0.00109267,-0.0133518,0.00578023,0.00312093,-0.0153801,0.337473,0.0114365,0.0138874,979,484,-0.580994,44.1882
-238,540,-0.640198,-44.9557,0.000872412,-0.0167697,0.00745084,0.00359804,-0.0194954,0.350694,0.0143474,0.0113588,986,484,-0.640179,44.9557
-231,540,-0.68158,-45.7057,0.000669959,-0.0205085,0.00934612,0.00420454,-0.024043,0.361561,0.0175984,0.0147216,993,484,-0.6816,45.7058
-224,540,-0.746216,-46.4026,0.000286825,-0.0241958,0.0115199,0.004855,-0.0287639,0.377524,0.0209824,0.0201225,1000,484,-0.746242,46.4027
-217,540,-0.763611,-46.9537,-8.35722e-05,-0.0276469,0.013881,0.00569533,-0.0334258,0.394494,0.0244049,0.0299981,1007,484,-0.763633,46.9537
-210,540,-0.777344,-47.5598,-0.000432895,-0.0309797,0.0162658,0.00660634,-0.038019,0.408427,0.0278109,0.0425131,1014,484,-0.777314,47.5598
-203,540,-0.990601,-48.1749,-0.000701285,-0.033712,0.0185916,0.00765445,-0.0420678,0.422385,0.0309142,0.0437273,1021,484,-0.990619,48.1749
-196,540,-1.16541,-48.6613,-0.000691584,-0.0359446,0.0206453,0.00882825,-0.0454644,0.432057,0.0336407,0.0488199,1028,484,-1.16545,48.6613
-189,540,-1.2511,-49.0358,0,0,0,0,0,0,0,-1,1035,484,-1.25113,49.0358
-182,540,-0.826782,-43.3494,0,0,0,0,0,0,0,-1,1042,484,-0.826777,43.3494
-175,540,1.73413,-10.728,0,0,0,0,0,0,0,-1,1049,484,1.73414,10.728
-168,540,1.18164,-7.65347,0,0,0,0,0,0,0,-1,1056,484,1.18163,7.65347
-161,540,-0.405884,-9.86481,0,0,0,0,0,0,0,-1,1063,484,-0.405886,9.8648
-154,540,1.96863,-22.0727,0,0,0,0,0,0,0,-1,1070,484,1.96859,22.0727
-147,540,1.32764,-21.9952,0,0,0,0,0,0,0,-1,1077,484,1.32762,21.9952
-140,540,1.40735,-15.6289,0,0,0,0,0,0,0,-1,1084,484,1.4073,15.6289
-133,540,2.28345,-17.6413,0,0,0,0,0,0,0,-1,1091,484,2.2835,17.6413
-126,540,1.25293,-23.9108,0,0,0,0,0,0,0,-1,1098,484,1.25288,23.9108
-119,540,1.55969,-23.0125,0,0,0,0,0,0,0,-1,1105,484,1.55968,23.0125
-112,540,1.4801,-21.6515,0,0,0,0,0,0,0,-1,1112,484,1.4801,21.6515
-105,540,1.30078,-19.8938,0,0,0,0,0,0,0,-1,1119,484,1.30077,19.8938
-98,540,1.08105,-18.1304,0,0,0,0,0,0,0,-1,1126,484,1.08101,18.1304
-91,540,1.56519,-7.48666,0,0,0,0,0,0,0,-1,1133,484,1.56514,7.48667
-84,540,-0.945923,4.43073,0,0,0,0,0,0,0,-1,1140,484,-0.945891,-4.43074
-77,540,-2.28894,2.14368,0,0,0,0,0,0,0,-1,1147,484,-2.28894,-2.14368
-70,540,-3.75244,-0.452576,0,0,0,0,0,0,0,-1,1154,484,-3.75244,0.452576
-63,540,-5.26257,-3.04767,0,0,0,0,0,0,0,-1,1161,484,-5.26262,3.04766
-56,540,-5.19055,-6.12595,0,0,0,0,0,0,0,-1,1168,484,-5.19057,6.12595
-49,540,-5.63867,-8.52298,0,0,0,0,0,0,0,-1,1175,484,-5.63871,8.52298
-42,540,0,0,0,0,0,0,0,0,0,-1,1182,484,0,0
-35,540,0,0,0,0,0,0,0,0,0,-1,1189,484,0,0
-28,540,0,0,0,0,0,0,0,0,0,-1,1196,484,0,0
-21,540,0,0,0,0,0,0,0,0,0,-1,1203,484,0,0
-14,540,0,0,0,0,0,0,0,0,0,-1,1210,484,0,0
-7,540,0,0,0,0,0,0,0,0,0,-1,1217,484,0,0
0,540,0,0,0,0,0,0,0,0,0,-1,1224,484,0,0
7,540,0,0,0,0,0,0,0,0,0,-1,1231,484,0,0
14,540,0,0,0,0,0,0,0,0,0,-1,1238,484,0,0
21,540,0,0,0,0,0,0,0,0,0,-1,1245,484,0,0
28,540,0,0,0,0,0,0,0,0,0,-1,1252,484,0,0
35,540,0,0,0,0,0,0,0,0,0,-1,1259,484,0,0
42,540,0,0,0,0,0,0,0,0,0,-1,1266,484,0,0
49,540,0,0,0,0,0,0,0,0,0,-1,1273,484,0,0
56,540,0,0,0,0,0,0,0,0,0,-1,1280,484,0,0
63,540,0,0,0,0,0,0,0,0,0,-1,1287,484,0,0
70,540,0,0,0,0,0,0,0,0,0,-1,1294,484,0,0
77,540,0,0,0,0,0,0,0,0,0,-1,1301,484,0,0
84,540,0,0,0,0,0,0,0,0,0,-1,1308,484,0,0
91,540,0,0,0,0,0,0,0,0,0,-1,1315,484,0,0
98,540,0,0,0,0,0,0,0,0,0,-1,1322,484,0,0
105,540,0,0,0,0,0,0,0,0,0,-1,1329,484,0,0
112,540,0,0,0,0,0,0,0,0,0,-1,1336,484,0,0
119,540,0,0,0,0,0,0,0,0,0,-1,1343,484,0,0
126,540,0,0,0,0,0,0,0,0,0,-1,1350,484,0,0
133,540,0,0,0,0,0,0,0,0,0,-1,1357,484,0,0
140,540,0,0,0,0,0,0,0,0,0,-1,1364,484,0,0
147,540,0,0,0,0,0,0,0,0,0,-1,1371,484,0,0
154,540,0,0,0,0,0,0,0,0,0,-1,1378,484,0,0
161,540,0,0,0,0,0,0,0,0,0,-1,1385,484,0,0
168,540,3.05078,-0.0010376,0,0,0,0,0,0,0,-1,1392,484,3.05084,0.00102554
175,540,3.37708,0.617035,0,0,0,0,0,0,0,-1,1399,484,3.37707,-0.617046
182,540,3.32678,1.23267,0,0,0,0,0,0,0,-1,1406,484,3.32678,-1.23266
189,540,3.5813,2.15619,0,0,0,0,0,0,0,-1,1413,484,3.58129,-2.1562
196,540,1.84448,-0.801483,0,0,0,0,0,0,0,-1,1420,484,1.84446,0.80148
203,540,4.14648,0.702087,0,0,0,0,0,0,0,-1,1427,484,4.14645,-0.702089
210,540,4.50671,-0.56076,0,0,0,0,0,0,0,-1,1434,484,4.50667,0.560771
217,540,5.00452,-0.278717,0,0,0,0,0,0,0,-1,1441,484,5.00452,0.278709
224,540,6.44458,-2.83527,0,0,0,0,0,0,0,-1,1448,484,6.44457,2.83525
231,540,6.9231,-3.10504,0,0,0,0,0,0,0,-1,1455,484,6.92307,3.10505
238,540,6.4823,-2.58365,0,0,0,0,0,0,0,-1,1462,484,6.48225,2.58363
245,540,6.02087,-1.97916,0,0,0,0,0,0,0,-1,1469,484,6.02088,1.97915
252,540,6.50647,-3.56006,0,0,0,0,0,0,0,-1,1476,484,6.50649,3.56006
259,540,6.01941,-2.798,0,0,0,0,0,0,0,-1,1483,484,6.01941,2.79801
266,540,5.5332,-2.02853,0,0,0,0,0,0,0,-1,1490,484,5.53323,2.02855
273,540,5.06787,-1.28137,0,0,0,0,0,0,0,-1,1497,484,5.06786,1.28136
280,540,1.62903,-2.14609,0,0,0,0,0,0,0,-1,1504,484,1.62906,2.1461
287,540,1.97156,-2.45053,0,0,0,0,0,0,0,-1,1511,484,1.97159,2.45053
294,540,2.44165,-2.6185,0,0,0,0,0,0,0,-1,1518,484,2.44167,2.6185
301,540,4.36169,-2.54272,0,0,0,0,0,0,0,-1,1525,484,4.36165,2.54272
308,540,4.2019,-4.30469,0,0,0,0,0,0,0,-1,1532,484,4.20193,4.3047
315,540,4.45923,-5.32101,0,0,0,0,0,0,0,-1,1539,484,4.45923,5.32103
322,540,4.71655,-6.33737,0,0,0,0,0,0,0,-1,1546,484,4.71653,6.33736
329,540,15.0289,-44.3801,0,0,0,0,0,0,0,-1,1553,484,15.0289,44.3801
336,540,17.0203,-47.3203,0,0,0,0,0,0,0,-1,1560,484,17.0202,47.3203
343,540,16.6062,-47.0673,0,0,0,0,0,0,0,-1,1567,484,16.6062,47.0673
350,540,16.3751,-45.7587,-0.00179044,-0.0166697,-0.0125625,0.0053701,-0.0238302,-0.518063,0.0179467,0.0441513,1574,484,16.3751,45.7587
357,540,16.3628,-45.2659,-0.000716962,-0.0130898,-0.0100828,0.00492599,-0.0187328,-0.510231,0.0144139,0.0327973,1581,484,16.3628,45.2659
364,540,16.1954,-44.608,-3.01751e-05,-0.010087,-0.00779713,0.00421934,-0.0143366,-0.499005,0.0112315,0.0207894,1588,484,16.1954,44.608
371,540,16.1809,-43.8591,0.000581819,-0.00740923,-0.00575916,0.00359573,-0.0104231,-0.482132,0.00840766,0.0169064,1595,484,16.1809,43.8591
378,540,16.1941,-43.0519,0.00109146,-0.00466763,-0.00389801,0.00305818,-0.00663435,-0.467276,0.00572154,0.0142476,1602,484,16.1941,43.0519
385,540,16.1429,-42.2458,0.00139177,-0.00254914,-0.00227158,0.00242843,-0.0035858,-0.428133,0.00349369,0.0145897,1609,484,16.1429,42.2458
392,540,16.0847,-41.4226,0.0016081,-0.00082363,-0.000854584,0.00187838,-0.00109392,-0.306322,0.00173587,0.0129415,1616,484,16.0847,41.4226
399,540,16.0535,-40.6307,0.00167625,0.000257029,-4.04654e-06,0.00167626,0.000257018,-0.00285122,0.00104245,0.0174253,1623,484,16.0534,40.6306
406,540,16.0796,-39.7904,0.00164724,0.00151167,0.000718894,0.00230154,0.000857373,0.738393,0.00134311,0.0191223,1630,484,16.0796,39.7904
413,540,16.0392,-38.9544,0.00159147,0.00207031,0.00122253,0.00307664,0.000585143,0.882094,0.00188654,0.0154328,1637,484,16.0391,38.9544
420,540,15.9989,-38.1126,0.00142386,0.00233824,0.00150814,0.00345696,0.000305136,0.932569,0.00220996,0.0143504,1644,484,15.9989,38.1126
427,540,15.9299,-37.2597,0.00116451,0.00244249,0.00175976,0.00367568,-6.86785e-05,0.959551,0.00247366,0.0153636,1651,484,15.93,37.2597
434,540,15.8635,-36.4094,0.000976268,0.00248807,0.00206312,0.00392941,-0.00046507,0.960997,0.00278759,0.0182767,1658,484,15.8635,36.4094
441,540,15.859,-35.5555,0.000704133,0.00259475,0.0023953,0.00422453,-0.000925648,0.973341,0.00317027,0.0216429,1665,484,15.859,35.5555
448,540,15.7698,-34.6971,0.000316753,0.00258858,0.00269602,0.00437821,-0.00147287,0.984778,0.0035142,0.0124542,1672,484,15.7698,34.6971
455,540,15.7095,-33.8195,-0.000100491,0.00262891,0.00302384,0.00458174,-0.00205332,0.997372,0.00392237,0.0109138,1679,484,15.7094,33.8195
462,540,15.6327,-32.9478,-0.000349534,0.00282008,0.00337991,0.00496829,-0.00249774,1.00462,0.00438847,0.0121503,1686,484,15.6327,32.9477
469,540,15.5428,-32.0673,-0.00032796,0.00318481,0.00376994,0.00558743,-0.00273058,1.00339,0.00489591,0.0169309,1693,484,15.5428,32.0672
476,540,15.4993,-31.2028,-0.00033397,0.00361531,0.00413926,0.00622682,-0.00294547,1.00796,0.0054074,0.0232348,1700,484,15.4993,31.2028
483,540,15.5826,-30.2378,-0.000118473,0.00420048,0.00453115,0.00706044,-0.00297843,1.00777,0.00595352,0.0398541,1707,484,15.5827,30.2378
490,540,15.8004,-29.1813,0,0,0,0,0,0,0,-1,1714,484,15.8004,29.1813
497,540,10.3452,-16.9359,0,0,0,0,0,0,0,-1,1721,484,10.3453,16.9359
504,540,12.519,-18.0764,0,0,0,0,0,0,0,-1,1728,484,12.519,18.0765
511,540,5.82471,-6.83521,0,0,0,0,0,0,0,-1,1735,484,5.82465,6.83522
518,540,9.98181,-12.4608,0,0,0,0,0,0,0,-1,1742,484,9.98187,12.4608
525,540,12.4843,-16.3481,0,0,0,0,0,0,0,-1,1749,484,12.4842,16.3481
532,540,2.84265,-1.07925,0,0,0,0,0,0,0,-1,1756,484,2.84269,1.07927
539,540,0,0,0,0,0,0,0,0,0,-1,1763,484,0,0
546,540,0,0,0,0,0,0,0,0,0,-1,1770,484,0,0
553,540,0,0,0,0,0,0,0,0,0,-1,1777,484,0,0
560,540,0,0,0,0,0,0,0,0,0,-1,1784,484,0,0
567,540,0,0,0,0,0,0,0,0,0,-1,1791,484,0,0
574,540,0,0,0,0,0,0,0,0,0,-1,1798,484,0,0
581,540,0,0,0,0,0,0,0,0,0,-1,1805,484,0,0
588,540,0,0,0,0,0,0,0,0,0,-1,1812,484,0,0
595,540,0,0,0,0,0,0,0,0,0,-1,1819,484,0,0
602,540,0,0,0,0,0,0,0,0,0,-1,1826,484,0,0
609,540,0,0,0,0,0,0,0,0,0,-1,1833,484,0,0
616,540,0,0,0,0,0,0,0,0,0,-1,1840,484,0,0
623,540,0,0,0,0,0,0,0,0,0,-1,1847,484,0,0
630,540,0,0,0,0,0,0,0,0,0,-1,1854,484,0,0
637,540,0,0,0,0,0,0,0,0,0,-1,1861,484,0,0
644,540,0,0,0,0,0,0,0,0,0,-1,1868,484,0,0
651,540,0,0,0,0,0,0,0,0,0,-1,1875,484,0,0
658,540,0,0,0,0,0,0,0,0,0,-1,1882,484,0,0
665,540,0,0,0,0,0,0,0,0,0,-1,1889,484,0,0
672,540,0,0,0,0,0,0,0,0,0,-1,1896,484,0,0
679,540,0,0,0,0,0,0,0,0,0,-1,1903,484,0,0
686,540,0,0,0,0,0,0,0,0,0,-1,1910,484,0,0
693,540,0,0,0,0,0,0,0,0,0,-1,1917,484,0,0
700,540,0,0,0,0,0,0,0,0,0,-1,1924,484,0,0
707,540,0,0,0,0,0,0,0,0,0,-1,1931,484,0,0
714,540,0,0,0,0,0,0,0,0,0,-1,1938,484,0,0
721,540,0,0,0,0,0,0,0,0,0,-1,1945,484,0,0
728,540,0,0,0,0,0,0,0,0,0,-1,1952,484,0,0
735,540,0,0,0,0,0,0,0,0,0,-1,1959,484,0,0
742,540,0,0,0,0,0,0,0,0,0,-1,1966,484,0,0
749,540,0,0,0,0,0,0,0,0,0,-1,1973,484,0,0
756,540,0,0,0,0,0,0,0,0,0,-1,1980,484,0,0
763,540,0,0,0,0,0,0,0,0,0,-1,1987,484,0,0
770,540,0,0,0,0,0,0,0,0,0,-1,1994,484,0,0
777,540,0,0,0,0,0,0,0,0,0,-1,2001,484,0,0
784,540,0,0,0,0,0,0,0,0,0,-1,2008,484,0,0
791,540,0,0,0,0,0,0,0,0,0,-1,2015,484,0,0
798,540,0,0,0,0,0,0,0,0,0,-1,2022,484,0,0
805,540,0,0,0,0,0,0,0,0,0,-1,2029,484,0,0
812,540,0,0,0,0,0,0,0,0,0,-1,2036,484,0,0
-700,533,0,0,0,0,0,0,0,0,0,-1,524,491,0,0
-693,533,0,0,0,0,0,0,0,0,0,-1,531,491,0,0
-686,533,0,0,0,0,0,0,0,0,0,-1,538,491,0,0
-679,533,0,0,0,0,0,0,0,0,0,-1,545,491,0,0
-672,533,0,0,0,0,0,0,0,0,0,-1,552,491,0,0
-665,533,0,0,0,0,0,0,0,0,0,-1,559,491,0,0
-658,533,0,0,0,0,0,0,0,0,0,-1,566,491,0,0
-651,533,0,0,0,0,0,0,0,0,0,-1,573,491,0,0
-644,533,0,0,0,0,0,0,0,0,0,-1,580,491,0,0
-637,533,0,0,0,0,0,0,0,0,0,-1,587,491,0,0
-630,533,0,0,0,0,0,0,0,0,0,-1,594,491,0,0
-623,533,0,0,0,0,0,0,0,0,0,-1,601,491,0,0
-616,533,0,0,0,0,0,0,0,0,0,-1,608,491,0,0
-609,533,0,0,0,0,0,0,0,0,0,-1,615,491,0,0
-602,533,0,0,0,0,0,0,0,0,0,-1,622,491,0,0
-595,533,0,0,0,0,0,0,0,0,0,-1,629,491,0,0
-588,533,0,0,0,0,0,0,0,0,0,-1,636,491,0,0
-581,533,0,0,0,0,0,0,0,0,0,-1,643,491,0,0
-574,533,0,0,0,0,0,0,0,0,0,-1,650,491,0,0
-567,533,0,0,0,0,0,0,0,0,0,-1,657,491,0,0
-560,533,0,0,0,0,0,0,0,0,0,-1,664,491,0,0
-553,533,0,0,0,0,0,0,0,0,0,-1,671,491,0,0
-546,533,0,0,0,0,0,0,0,0,0,-1,678,491,0,0
-539,533,0,0,0,0,0,0,0,0,0,-1,685,491,0,0
-532,533,0,0,0,0,0,0,0,0,0,-1,692,491,0,0
-525,533,0,0,0,0,0,0,0,0,0,-1,699,491,0,0
-518,533,0,0,0,0,0,0,0,0,0,-1,706,491,0,0
-511,533,0,0,0,0,0,0,0,0,0,-1,713,491,0,0
-504,533,0,0,0,0,0,0,0,0,0,-1,720,491,0,0
-497,533,0,0,0,0,0,0,0,0,0,-1,727,491,0,0
-490,533,0,0,0,0,0,0,0,0,0,-1,734,491,0,0
-483,533,0,0,0,0,0,0,0,0,0,-1,741,491,0,0
-476,533,0,0,0,0,0,0,0,0,0,-1,748,491,0,0
-469,533,0,0,0,0,0,0,0,0,0,-1,755,491,0,0
-462,533,0,0,0,0,0,0,0,0,0,-1,762,491,0,0
-455,533,0,0,0,0,0,0,0,0,0,-1,769,491,0,0
-448,533,0,0,0,0,0,0,0,0,0,-1,776,491,0,0
-441,533,0,0,0,0,0,0,0,0,0,-1,783,491,0,0
-434,533,0,0,0,0,0,0,0,0,0,-1,790,491,0,0
-427,533,0.559814,-4.40222,0,0,0,0,0,0,0,-1,797,491,0.559816,4.40222
-420,533,-1.11127,-10.9054,0,0,0,0,0,0,0,-1,804,491,-1.11124,10.9054
-413,533,-0.704773,-11.0942,0,0,0,0,0,0,0,-1,811,491,-0.704742,11.0942
-406,533,-0.670898,-12.0899,0,0,0,0,0,0,0,-1,818,491,-0.670908,12.0899
-399,533,-0.455017,-12.4423,0,0,0,0,0,0,0,-1,825,491,-0.455032,12.4423
-392,533,-1.89661,-10.3905,0,0,0,0,0,0,0,-1,832,491,-1.89661,10.3905
-385,533,0.797729,-17.0485,0,0,0,0,0,0,0,-1,839,491,0.797746,17.0485
-378,533,-1.89435,-19.6771,0,0,0,0,0,0,0,-1,846,491,-1.89433,19.6771
-371,533,-0.875488,-28.0881,0,0,0,0,0,0,0,-1,853,491,-0.875475,28.0881
-364,533,-0.779541,-29.5623,0.0032881,0.0251067,-0.014512,0.0323526,-0.00395779,-1.10771,0.0230014,0.0495329,860,491,-0.779562,29.5623
-357,533,-0.692932,-30.6323,0.00236686,0.0209274,-0.0120532,0.0268591,-0.00356479,-1.11347,0.0192049,0.0246517,867,491,-0.692915,30.6323
-350,533,-0.749329,-31.6087,0.00152053,0.0170897,-0.00980354,0.0218235,-0.00321324,-1.12095,0.0157298,0.013566,874,491,-0.749324,31.6087
-343,533,-0.809204,-32.5167,0.000892784,0.0137257,-0.00785887,0.0174548,-0.00283634,-1.12775,0.0126881,0.0125663,881,491,-0.809224,32.5167
-336,533,-0.898743,-33.4233,0.000475772,0.0109357,-0.00620008,0.013817,-0.00240559,-1.13576,0.0101091,0.0166472,888,491,-0.898715,33.4233
-329,533,-0.959595,-34.3016,0.000183015,0.00853348,-0.00474428,0.0106781,-0.00196162,-1.14624,0.0078547,0.0149967,895,491,-0.959615,34.3016
-322,533,-1.01093,-35.1401,4.27682e-05,0.00649107,-0.00348202,0.0080124,-0.00147857,-1.15888,0.00589658,0.0121353,902,491,-1.01091,35.1401
-315,533,-1.06067,-36.019,-4.01759e-05,0.00460283,-0.00227132,0.00552914,-0.000966481,-1.18356,0.00404691,0.0122882,909,491,-1.06066,36.019
-308,533,-1.0976,-36.877,5.12166e-05,0.00320789,-0.00139257,0.00373441,-0.0004753,-1.20932,0.00266222,0.0122254,916,491,-1.09759,36.877
-301,533,-1.18585,-37.6797,0.000385514,0.00190808,-0.000743402,0.00221084,8.27485e-05,-1.18404,0.0014471,0.0150078,923,491,-1.18586,37.6797
-294,533,-1.22156,-38.4988,0.000809322,0.000878616,-9.83038e-05,0.0009482,0.000739738,-0.954827,0.000575375,0.0134945,930,491,-1.22153,38.4988
-287,533,-1.22803,-39.3421,0.00121107,-0.000246487,0.000508503,0.00137094,-0.000406355,0.304606,0.00107532,0.00989283,937,491,-1.22803,39.3421
-280,533,-1.26025,-40.1851,0.00140545,-0.00214777,0.00116216,0.00175179,-0.00249412,0.289641,0.00246384,0.0091632,944,491,-1.26024,40.1851
-273,533,-1.30927,-40.9928,0.0015686,-0.00455844,0.0019581,0.00214092,-0.00513076,0.284361,0.00431498,0.0126942,951,491,-1.30925,40.9928
-266,533,-1.34253,-41.8011,0.00192007,-0.00695499,0.00275719,0.00270688,-0.0077418,0.277979,0.00626166,0.0125976,958,491,-1.34256,41.8011
-259,533,-1.35944,-42.627,0.00202367,-0.0098306,0.00382819,0.00315246,-0.0109594,0.286735,0.00855297,0.0135043,965,491,-1.35945,42.627
-252,533,-1.36322,-43.3899,0.00177317,-0.0131617,0.00532985,0.00348015,-0.0148687,0.309946,0.0112533,0.0187446,972,491,-1.36322,43.3899
-245,533,-1.41827,-44.1097,0.0012403,-0.0170426,0.00739078,0.00385426,-0.0196566,0.339949,0.0145602,0.0263591,979,491,-1.4183,44.1097
-238,533,-1.36523,-44.6998,0.000733828,-0.0212833,0.00937097,0.00418221,-0.0247317,0.352607,0.0180442,0.0271972,986,491,-1.36522,44.6998
-231,533,-1.43713,-45.2006,0.000222561,-0.0258924,0.0117017,0.00469871,-0.0303685,0.365348,0.02198,0.033974,993,491,-1.43711,45.2006
-224,533,-1.65411,-45.7353,-0.000547507,-0.0304438,0.0144126,0.005269,-0.0362603,0.38358,0.0261077,0.0414466,1000,491,-1.65412,45.7353
-217,533,-1.63416,-46.7638,-0.001362,-0.03465,0.0174496,0.00610852,-0.0421205,0.404511,0.0303223,0.0478535,1007,491,-1.63417,46.7638
-210,533,-1.54504,-47.3707,0,0,0,0,0,0,0,-1,1014,491,-1.54506,47.3707
-203,533,-1.89447,-48.0954,0,0,0,0,0,0,0,-1,1021,491,-1.89446,48.0954
-196,533,-2.22546,-48.6072,0,0,0,0,0,0,0,-1,1028,491,-2.22546,48.6072
-189,533,-1.75317,-43.4744,0,0,0,0,0,0,0,-1,1035,491,-1.75312,43.4744
-182,533,1.26123,-11.4969,0,0,0,0,0,0,0,-1,1042,491,1.26128,11.4969
-175,533,0.937744,-7.36966,0,0,0,0,0,0,0,-1,1049,491,0.937769,7.36965
-168,533,2.64807,-2.7543,0,0,0,0,0,0,0,-1,1056,491,2.64812,2.7543
-161,533,1.91833,-1.76553,0,0,0,0,0,0,0,-1,1063,491,1.91836,1.76554
-154,533,0.376709,-11.0633,0,0,0,0,0,0,0,-1,1070,491,0.376715,11.0632
-147,533,0.383789,-12.1586,0,0,0,0,0,0,0,-1,1077,491,0.383829,12.1586
-140,533,1.14001,-15.4608,0,0,0,0,0,0,0,-1,1084,491,1.14005,15.4608
-133,533,0.189941,-16.0795,0,0,0,0,0,0,0,-1,1091,491,0.18994,16.0795
-126,533,2.89612,-2.59003,0,0,0,0,0,0,0,-1,1098,491,2.89608,2.59003
-119,533,1.78284,-22.5394,0,0,0,0,0,0,0,-1,1105,491,1.78279,22.5394
-112,533,1.83862,-21.2401,0,0,0,0,0,0,0,-1,1112,491,1.83859,21.24
-105,533,1.67554,-19.4018,0,0,0,0,0,0,0,-1,1119,491,1.6755,19.4018
-98,533,-1.39392,-5.16367,0,0,0,0,0,0,0,-1,1126,491,-1.39394,5.16367
-91,533,0.367432,4.49753,0,0,0,0,0,0,0,-1,1133,491,0.367468,-4.49754
-84,533,-0.88623,3.03604,0,0,0,0,0,0,0,-1,1140,491,-0.886288,-3.03605
-77,533,0,0,0,0,0,0,0,0,0,-1,1147,491,0,0
-70,533,0,0,0,0,0,0,0,0,0,-1,1154,491,0,0
-63,533,0,0,0,0,0,0,0,0,0,-1,1161,491,0,0
-56,533,0,0,0,0,0,0,0,0,0,-1,1168,491,0,0
-49,533,0,0,0,0,0,0,0,0,0,-1,1175,491,0,0
-42,533,0,0,0,0,0,0,0,0,0,-1,1182,491,0,0
-35,533,0,0,0,0,0,0,0,0,0,-1,1189,491,0,0
-28,533,0,0,0,0,0,0,0,0,0,-1,1196,491,0,0
-21,533,0,0,0,0,0,0,0,0,0,-1,1203,491,0,0
-14,533,0,0,0,0,0,0,0,0,0,-1,1210,491,0,0
-7,533,0,0,0,0,0,0,0,0,0,-1,1217,491,0,0
0,533,0,0,0,0,0,0,0,0,0,-1,1224,491,0,0
7,533,0,0,0,0,0,0,0,0,0,-1,1231,491,0,0
14,533,0,0,0,0,0,0,0,0,0,-1,1238,491,0,0
21,533,0,0,0,0,0,0,0,0,0,-1,1245,491,0,0
28,533,0,0,0,0,0,0,0,0,0,-1,1252,491,0,0
35,533,0,0,0,0,0,0,0,0,0,-1,1259,491,0,0
42,533,0,0,0,0,0,0,0,0,0,-1,1266,491,0,0
49,533,0,0,0,0,0,0,0,0,0,-1,1273,491,0,0
56,533,0,0,0,0,0,0,0,0,0,-1,1280,491,0,0
63,533,0,0,0,0,0,0,0,0,0,-1,1287,491,0,0
70,533,0,0,0,0,0,0,0,0,0,-1,1294,491,0,0
77,533,0,0,0,0,0,0,0,0,0,-1,1301,491,0,0
84,533,0,0,0,0,0,0,0,0,0,-1,1308,491,0,0
91,533,0,0,0,0,0,0,0,0,0,-1,1315,491,0,0
98,533,0,0,0,0,0,0,0,0,0,-1,1322,491,0,0
105,533,0,0,0,0,0,0,0,0,0,-1,1329,491,0,0
112,533,0,0,0,0,0,0,0,0,0,-1,1336,491,0,0
119,533,0,0,0,0,0,0,0,0,0,-1,1343,491,0,0
126,533,0,0,0,0,0,0,0,0,0,-1,1350,491,0,0
133,533,0,0,0,0,0,0,0,0,0,-1,1357,491,0,0
140,533,0,0,0,0,0,0,0,0,0,-1,1364,491,0,0
147,533,0,0,0,0,0,0,0,0,0,-1,1371,491,0,0
154,533,0,0,0,0,0,0,0,0,0,-1,1378,491,0,0
161,533,0,0,0,0,0,0,0,0,0,-1,1385,491,0,0
168,533,0,0,0,0,0,0,0,0,0,-1,1392,491,0,0
175,533,0,0,0,0,0,0,0,0,0,-1,1399,491,0,0
182,533,0,0,0,0,0,0,0,0,0,-1,1406,491,0,0
189,533,0,0,0,0,0,0,0,0,0,-1,1413,491,0,0
196,533,0,0,0,0,0,0,0,0,0,-1,1420,491,0,0
203,533,3.7887,1.16193,0,0,0,0,0,0,0,-1,1427,491,3.78872,-1.16193
210,533,5.09558,-0.216034,0,0,0,0,0,0,0,-1,1434,491,5.09559,0.216028
217,533,6.91614,-2.46814,0,0,0,0,0,0,0,-1,1441,491,6.91618,2.46814
224,533,7.23621,-2.1857,0,0,0,0,0,0,0,-1,1448,491,7.23621,2.1857
231,533,7.23474,-1.92282,0,0,0,0,0,0,0,-1,1455,491,7.2347,1.92282
238,533,7.23535,-1.67258,0,0,0,0,0,0,0,-1,1462,491,7.23539,1.67258
245,533,6.86682,-1.2301,0,0,0,0,0,0,0,-1,1469,491,6.86686,1.23011
252,533,6.63354,-3.07825,0,0,0,0,0,0,0,-1,1476,491,6.6335,3.07824
259,533,6.16431,-2.35037,0,0,0,0,0,0,0,-1,1483,491,6.1643,2.35037
266,533,5.68884,-1.6214,0,0,0,0,0,0,0,-1,1490,491,5.68885,1.6214
273,533,5.21399,-0.864227,0,0,0,0,0,0,0,-1,1497,491,5.21403,0.864227
280,533,1.41089,-1.97946,0,0,0,0,0,0,0,-1,1504,491,1.41087,1.97946
287,533,1.6814,-2.44443,0,0,0,0,0,0,0,-1,1511,491,1.6814,2.44444
294,533,2.2384,-2.57626,0,0,0,0,0,0,0,-1,1518,491,2.23839,2.57625
301,533,3.39941,-4.0817,0,0,0,0,0,0,0,-1,1525,491,3.3994,4.08171
308,533,4.13733,-4.14752,0,0,0,0,0,0,0,-1,1532,491,4.13727,4.14752
315,533,4.80762,-5.29349,0,0,0,0,0,0,0,-1,1539,491,4.80762,5.29347
322,533,5.47803,-6.43942,0,0,0,0,0,0,0,-1,1546,491,5.47798,6.43943
329,533,3.88477,-3.86301,0,0,0,0,0,0,0,-1,1553,491,3.88475,3.86299
336,533,14.5214,-40.908,0,0,0,0,0,0,0,-1,1560,491,14.5214,40.908
343,533,16.3387,-44.9998,0,0,0,0,0,0,0,-1,1567,491,16.3387,44.9998
350,533,17.0449,-45.187,0,0,0,0,0,0,0,-1,1574,491,17.0449,45.1869
357,533,17.1943,-45.088,0,0,0,0,0,0,0,-1,1581,491,17.1944,45.088
364,533,16.9093,-44.5931,0,0,0,0,0,0,0,-1,1588,491,16.9093,44.5931
371,533,16.933,-43.8421,0,0,0,0,0,0,0,-1,1595,491,16.933,43.8421
378,533,16.9921,-42.9684,0,0,0,0,0,0,0,-1,1602,491,16.992,42.9685
385,533,16.9741,-42.1591,0.00178652,-0.00292418,-0.00284563,0.00312513,-0.00426278,-0.439693,0.00428223,0.0395266,1609,491,16.9742,42.1591
392,533,16.9222,-41.3847,0.00198442,-0.00107806,-0.00128674,0.00245328,-0.00154693,-0.349426,0.0023292,0.0154883,1616,491,16.9222,41.3847
399,533,16.9205,-40.606,0.00200566,-3.59598e-05,-0.000455517,0.00210268,-0.000132982,-0.209857,0.00144815,0.0135797,1623,491,16.9206,40.606
406,533,16.9242,-39.7545,0.00196152,0.00128581,0.000272643,0.00205781,0.00118952,0.339494,0.00119289,0.0163799,1630,491,16.9242,39.7545
413,533,16.8647,-38.8864,0.001932,0.00179104,0.000771897,0.00263662,0.00108641,0.73987,0.00153009,0.0149215,1637,491,16.8647,38.8864
420,533,16.7922,-38.0432,0.00176729,0.00200603,0.00103107,0.00292462,0.000848702,0.843029,0.00173737,0.0149601,1644,491,16.7922,38.0431
427,533,16.7461,-37.1943,0.00148455,0.00208677,0.00125843,0.0030796,0.000491708,0.902828,0.00191038,0.0157983,1651,491,16.746,37.1944
434,533,16.6921,-36.3773,0.00125935,0.0021168,0.00153338,0.00328026,9.58935e-05,0.921715,0.00215559,0.0143182,1658,491,16.6921,36.3772
441,533,16.698,-35.5093,0.00100712,0.00223903,0.0018499,0.00357283,-0.00032668,0.946108,0.00249791,0.0157638,1665,491,16.6979,35.5093
448,533,16.6394,-34.6387,0.000671992,0.0022549,0.00214266,0.00374761,-0.000820718,0.962315,0.00281219,0.0168074,1672,491,16.6394,34.6387
455,533,16.5652,-33.7677,0.00033264,0.00235234,0.00246629,0.00400752,-0.00132253,0.979717,0.00320481,0.0162222,1679,491,16.5652,33.7677
462,533,16.483,-32.8716,0.000191551,0.00255534,0.00280302,0.00441544,-0.00166856,0.984913,0.00362998,0.0162428,1686,491,16.483,32.8716
469,533,16.4354,-32.0456,0.000353442,0.00292976,0.00318689,0.00507899,-0.00179578,0.977462,0.00411727,0.0109559,1693,491,16.4354,32.0456
476,533,16.4122,-31.1308,0.000468218,0.00337819,0.003559,0.00576814,-0.00192172,0.979441,0.00462117,0.0129468,1700,491,16.4123,31.1308
483,533,16.428,-30.203,0.000775238,0.00395094,0.00397793,0.00664622,-0.00192004,0.975291,0.00519058,0.0239462,1707,491,16.428,30.203
490,533,16.4375,-28.899,0,0,0,0,0,0,0,-1,1714,491,16.4375,28.8991
497,533,15.4799,-26.3297,0,0,0,0,0,0,0,-1,1721,491,15.4799,26.3297
504,533,14.6896,-22.6455,0,0,0,0,0,0,0,-1,1728,491,14.6895,22.6455
511,533,13.6221,-19.2798,0,0,0,0,0,0,0,-1,1735,491,13.6221,19.2798
518,533,14.1954,-19.4995,0,0,0,0,0,0,0,-1,1742,491,14.1955,19.4995
525,533,13.7935,-19.6901,0,0,0,0,0,0,0,-1,1749,491,13.7934,19.6901
532,533,15.4377,-17.9016,0,0,0,0,0,0,0,-1,1756,491,15.4377,17.9015
539,533,12.8733,-18.2556,0,0,0,0,0,0,0,-1,1763,491,12.8733,18.2556
546,533,3.59607,1.65799,0,0,0,0,0,0,0,-1,1770,491,3.59605,-1.658
553,533,0,0,0,0,0,0,0,0,0,-1,1777,491,0,0
560,533,0,0,0,0,0,0,0,0,0,-1,1784,491,0,0
567,533,0,0,0,0,0,0,0,0,0,-1,1791,491,0,0
574,533,0,0,0,0,0,0,0,0,0,-1,1798,491,0,0
581,533,0,0,0,0,0,0,0,0,0,-1,1805,491,0,0
588,533,0,0,0,0,0,0,0,0,0,-1,1812,491,0,0
595,533,0,0,0,0,0,0,0,0,0,-1,1819,491,0,0
602,533,0,0,0,0,0,0,0,0,0,-1,1826,491,0,0
609,533,0,0,0,0,0,0,0,0,0,-1,1833,491,0,0
616,533,0,0,0,0,0,0,0,0,0,-1,1840,491,0,0
623,533,0,0,0,0,0,0,0,0,0,-1,1847,491,0,0
630,533,0,0,0,0,0,0,0,0,0,-1,1854,491,0,0
637,533,0,0,0,0,0,0,0,0,0,-1,1861,491,0,0
644,533,0,0,0,0,0,0,0,0,0,-1,1868,491,0,0
651,533,0,0,0,0,0,0,0,0,0,-1,1875,491,0,0
658,533,0,0,0,0,0,0,0,0,0,-1,1882,491,0,0
665,533,0,0,0,0,0,0,0,0,0,-1,1889,491,0,0
672,533,0,0,0,0,0,0,0,0,0,-1,1896,491,0,0
679,533,0,0,0,0,0,0,0,0,0,-1,1903,491,0,0
686,533,0,0,0,0,0,0,0,0,0,-1,1910,491,0,0
693,533,0,0,0,0,0,0,0,0,0,-1,1917,491,0,0
700,533,0,0,0,0,0,0,0,0,0,-1,1924,491,0,0
707,533,0,0,0,0,0,0,0,0,0,-1,1931,491,0,0
714,533,0,0,0,0,0,0,0,0,0,-1,1938,491,0,0
721,533,0,0,0,0,0,0,0,0,0,-1,1945,491,0,0
728,533,0,0,0,0,0,0,0,0,0,-1,1952,491,0,0
735,533,0,0,0,0,0,0,0,0,0,-1,1959,491,0,0
742,533,0,0,0,0,0,0,0,0,0,-1,1966,491,0,0
749,533,0,0,0,0,0,0,0,0,0,-1,1973,491,0,0
756,533,0,0,0,0,0,0,0,0,0,-1,1980,491,0,0
763,533,0,0,0,0,0,0,0,0,0,-1,1987,491,0,0
770,533,0,0,0,0,0,0,0,0,0,-1,1994,491,0,0
777,533,0,0,0,0,0,0,0,0,0,-1,2001,491,0,0
784,533,0,0,0,0,0,0,0,0,0,-1,2008,491,0,0
791,533,0,0,0,0,0,0,0,0,0,-1,2015,491,0,0
798,533,0,0,0,0,0,0,0,0,0,-1,2022,491,0,0
805,533,0,0,0,0,0,0,0,0,0,-1,2029,491,0,0
812,533,0,0,0,0,0,0,0,0,0,-1,2036,491,0,0
-700,526,0,0,0,0,0,0,0,0,0,-1,524,498,0,0
-693,526,0,0,0,0,0,0,0,0,0,-1,531,498,0,0
-686,526,0,0,0,0,0,0,0,0,0,-1,538,498,0,0
-679,526,0,0,0,0,0,0,0,0,0,-1,545,498,0,0
-672,526,0,0,0,0,0,0,0,0,0,-1,552,498,0,0
-665,526,0,0,0,0,0,0,0,0,0,-1,559,498,0,0
-658,526,0,0,0,0,0,0,0,0,0,-1,566,498,0,0
-651,526,0,0,0,0,0,0,0,0,0,-1,573,498,0,0
-644,526,0,0,0,0,0,0,0,0,0,-1,580,498,0,0
-637,526,0,0,0,0,0,0,0,0,0,-1,587,498,0,0
-630,526,0,0,0,0,0,0,0,0,0,-1,594,498,0,0
-623,526,0,0,0,0,0,0,0,0,0,-1,601,498,0,0
-616,526,0,0,0,0,0,0,0,0,0,-1,608,498,0,0
-609,526,0,0,0,0,0,0,0,0,0,-1,615,498,0,0
-602,526,0,0,0,0,0,0,0,0,0,-1,622,498,0,0
-595,526,0,0,0,0,0,0,0,0,0,-1,629,498,0,0
-588,526,0,0,0,0,0,0,0,0,0,-1,636,498,0,0
-581,526,0,0,0,0,0,0,0,0,0,-1,643,498,0,0
-574,526,0,0,0,0,0,0,0,0,0,-1,650,498,0,0
-567,526,0,0,0,0,0,0,0,0,0,-1,657,498,0,0
-560,526,0,0,0,0,0,0,0,0,0,-1,664,498,0,0
-553,526,0,0,0,0,0,0,0,0,0,-1,671,498,0,0
-546,526,0,0,0,0,0,0,0,0,0,-1,678,498,0,0
-539,526,0,0,0,0,0,0,0,0,0,-1,685,498,0,0
-532,526,0,0,0,0,0,0,0,0,0,-1,692,498,0,0
-525,526,0,0,0,0,0,0,0,0,0,-1,699,498,0,0
-518,526,0,0,0,0,0,0,0,0,0,-1,706,498,0,0
-511,526,0,0,0,0,0,0,0,0,0,-1,713,498,0,0
-504,526,0,0,0,0,0,0,0,0,0,-1,720,498,0,0
-497,526,0,0,0,0,0,0,0,0,0,-1,727,498,0,0
-490,526,0,0,0,0,0,0,0,0,0,-1,734,498,0,0
-483,526,0,0,0,0,0,0,0,0,0,-1,741,498,0,0
-476,526,0,0,0,0,0,0,0,0,0,-1,748,498,0,0
-469,526,0,0,0,0,0,0,0,0,0,-1,755,498,0,0
-462,526,0,0,0,0,0,0,0,0,0,-1,762,498,0,0
-455,526,0,0,0,0,0,0,0,0,0,-1,769,498,0,0
-448,526,0,0,0,0,0,0,0,0,0,-1,776,498,0,0
-441,526,0,0,0,0,0,0,0,0,0,-1,783,498,0,0
-434,526,-0.153564,-5.96649,0,0,0,0,0,0,0,-1,790,498,-0.153589,5.9665
-427,526,1.23206,-4.59808,0,0,0,0,0,0,0,-1,797,498,1.23208,4.59809
-420,526,-1.76373,-11.6241,0,0,0,0,0,0,0,-1,804,498,-1.76373,11.6241
-413,526,-1.38965,-11.7916,0,0,0,0,0,0,0,-1,811,498,-1.38963,11.7916
-406,526,-1.35187,-12.5182,0,0,0,0,0,0,0,-1,818,498,-1.35185,12.5181
-399,526,-1.32715,-13.2116,0,0,0,0,0,0,0,-1,825,498,-1.32713,13.2116
-392,526,0.197571,-15.303,0,0,0,0,0,0,0,-1,832,498,0.197598,15.303
-385,526,-2.69397,-19.6176,0,0,0,0,0,0,0,-1,839,498,-2.69399,19.6176
-378,526,-2.33783,-27.0275,0,0,0,0,0,0,0,-1,846,498,-2.33784,27.0275
-371,526,-1.66223,-28.3094,0.00331507,0.0231042,-0.0138748,0.0302511,-0.00383184,-1.09514,0.0215585,0.0482644,853,498,-1.66222,28.3094
-364,526,-1.59332,-29.6707,0.00273817,0.0195274,-0.0116508,0.0254928,-0.00322726,-1.09758,0.0181667,0.02271,860,498,-1.59331,29.6707
-357,526,-1.56378,-30.6788,0.00211375,0.016224,-0.00964429,0.0211183,-0.00278047,-1.10119,0.0150913,0.0130683,867,498,-1.56379,30.6788
-350,526,-1.59723,-31.5789,0.00150339,0.0131435,-0.00777538,0.0170358,-0.00238889,-1.10668,0.0122315,0.0127591,874,498,-1.59725,31.5789
-343,526,-1.68396,-32.453,0.00105426,0.0103301,-0.00612426,0.0133744,-0.00199007,-1.10948,0.00964827,0.0169434,881,498,-1.68396,32.453
-336,526,-1.74292,-33.3361,0.000722333,0.00796652,-0.00468108,0.0102632,-0.00157437,-1.11467,0.0074228,0.0171559,888,498,-1.74295,33.336
-329,526,-1.7981,-34.2359,0.000467138,0.00590556,-0.00338785,0.0075305,-0.0011578,-1.12357,0.00544743,0.0177815,895,498,-1.79807,34.2359
-322,526,-1.83423,-35.0815,0.000346455,0.00412119,-0.00224738,0.00516859,-0.000700948,-1.13467,0.00370157,0.0118475,902,498,-1.83422,35.0815
-315,526,-1.89459,-35.9687,0.00031842,0.00250779,-0.00116992,0.00301531,-0.0001891,-1.16149,0.00207611,0.00967645,909,498,-1.89462,35.9687
-308,526,-1.94775,-36.8388,0.00049572,0.00131935,-0.00039726,0.00147973,0.000335339,-1.18709,0.000895875,0.00882918,916,498,-1.94778,36.8388
-301,526,-2.02838,-37.6512,0.000832989,0.000304962,0.000195574,0.000897536,0.000240414,0.318785,0.000536487,0.0108428,923,498,-2.02838,37.6512
-294,526,-2.03857,-38.4501,0.00127662,-0.00051696,0.000768087,0.00156059,-0.000800928,0.354123,0.00138674,0.0106894,930,498,-2.03856,38.4501
-287,526,-2.05133,-39.27,0.00174603,-0.00156832,0.00131454,0.00220409,-0.00202639,0.335304,0.00244319,0.0106883,937,498,-2.05132,39.2699
-280,526,-2.11053,-40.1074,0.00193722,-0.00369389,0.00198773,0.00256817,-0.00432485,0.307365,0.00402254,0.0134131,944,498,-2.11052,40.1074
-273,526,-2.13892,-40.9461,0.00209486,-0.00645022,0.00281208,0.00293724,-0.0072926,0.291051,0.00608201,0.0115723,951,498,-2.13894,40.9461
-266,526,-2.19012,-41.7565,0.00250376,-0.00917715,0.00363698,0.00354361,-0.010217,0.27848,0.00825023,0.0176225,958,498,-2.19012,41.7566
-259,526,-2.12567,-42.5507,0.00261314,-0.0123966,0.00481096,0.00402278,-0.0138062,0.285027,0.0107978,0.0463596,965,498,-2.12568,42.5507
-252,526,-2.12579,-43.389,0,0,0,0,0,0,0,-1,972,498,-2.12577,43.389
-245,526,-2.17865,-44.0757,0,0,0,0,0,0,0,-1,979,498,-2.17863,44.0758
-238,526,-2.08984,-44.4459,0,0,0,0,0,0,0,-1,986,498,-2.08983,44.4459
-231,526,-2.13599,-44.0786,0,0,0,0,0,0,0,-1,993,498,-2.13599,44.0785
-224,526,-2.47449,-44.5629,0,0,0,0,0,0,0,-1,1000,498,-2.4745,44.5629
-217,526,-2.39307,-46.6579,0,0,0,0,0,0,0,-1,1007,498,-2.39305,46.6579
-210,526,-1.77289,-44.7313,0,0,0,0,0,0,0,-1,1014,498,-1.77289,44.7313
-203,526,-0.659302,-18.8818,0,0,0,0,0,0,0,-1,1021,498,-0.659273,18.8818
-196,526,-0.328247,-12.179,0,0,0,0,0,0,0,-1,1028,498,-0.328238,12.179
-189,526,0.401245,-5.96826,0,0,0,0,0,0,0,-1,1035,498,0.401197,5.96826
-182,526,1.7323,-2.99405,0,0,0,0,0,0,0,-1,1042,498,1.73226,2.99404
-175,526,2.27637,-2.07983,0,0,0,0,0,0,0,-1,1049,498,2.27639,2.07984
-168,526,2.12036,-1.66049,0,0,0,0,0,0,0,-1,1056,498,2.12035,1.66048
-161,526,2.09082,-1.20572,0,0,0,0,0,0,0,-1,1063,498,2.09086,1.2057
-154,526,-1.3446,-5.37799,0,0,0,0,0,0,0,-1,1070,498,-1.34457,5.37799
-147,526,-0.472656,-6.64996,0,0,0,0,0,0,0,-1,1077,498,-0.472659,6.64997
-140,526,0.422852,-8.03339,0,0,0,0,0,0,0,-1,1084,498,0.422844,8.0334
-133,526,1.09583,-9.2215,0,0,0,0,0,0,0,-1,1091,498,1.09581,9.2215
-126,526,3.42529,-2.36053,0,0,0,0,0,0,0,-1,1098,498,3.42523,2.36052
-119,526,2.7771,-0.764099,0,0,0,0,0,0,0,-1,1105,498,2.7771,0.764107
-112,526,2.57715,-1.1893,0,0,0,0,0,0,0,-1,1112,498,2.57718,1.1893
-105,526,0,0,0,0,0,0,0,0,0,-1,1119,498,0,0
-98,526,0,0,0,0,0,0,0,0,0,-1,1126,498,0,0
-91,526,0,0,0,0,0,0,0,0,0,-1,1133,498,0,0
-84,526,0,0,0,0,0,0,0,0,0,-1,1140,498,0,0
-77,526,0,0,0,0,0,0,0,0,0,-1,1147,498,0,0
-70,526,0,0,0,0,0,0,0,0,0,-1,1154,498,0,0
-63,526,0,0,0,0,0,0,0,0,0,-1,1161,498,0,0
-56,526,0,0,0,0,0,0,0,0,0,-1,1168,498,0,0
-49,526,0,0,0,0,0,0,0,0,0,-1,1175,498,0,0
-42,526,0,0,0,0,0,0,0,0,0,-1,1182,498,0,0
-35,526,0,0,0,0,0,0,0,0,0,-1,1189,498,0,0
-28,526,0,0,0,0,0,0,0,0,0,-1,1196,498,0,0
-21,526,0,0,0,0,0,0,0,0,0,-1,1203,498,0,0
-14,526,0,0,0,0,0,0,0,0,0,-1,1210,498,0,0
-7,526,0,0,0,0,0,0,0,0,0,-1,1217,498,0,0
0,526,0,0,0,0,0,0,0,0,0,-1,1224,498,0,0
7,526,0,0,0,0,0,0,0,0,0,-1,1231,498,0,0
14,526,0,0,0,0,0,0,0,0,0,-1,1238,498,0,0
21,526,0,0,0,0,0,0,0,0,0,-1,1245,498,0,0
28,526,0,0,0,0,0,0,0,0,0,-1,1252,498,0,0
35,526,0,0,0,0,0,0,0,0,0,-1,1259,498,0,0
42,526,0,0,0,0,0,0,0,0,0,-1,1266,498,0,0
49,526,0,0,0,0,0,0,0,0,0,-1,1273,498,0,0
56,526,0,0,0,0,0,0,0,0,0,-1,1280,498,0,0
63,526,0,0,0,0,0,0,0,0,0,-1,1287,498,0,0
70,526,0,0,0,0,0,0,0,0,0,-1,1294,498,0,0
77,526,0,0,0,0,0,0,0,0,0,-1,1301,498,0,0
84,526,0,0,0,0,0,0,0,0,0,-1,1308,498,0,0
91,526,0,0,0,0,0,0,0,0,0,-1,1315,498,0,0
98,526,0,0,0,0,0,0,0,0,0,-1,1322,498,0,0
105,526,0,0,0,0,0,0,0,0,0,-1,1329,498,0,0
112,526,0,0,0,0,0,0,0,0,0,-1,1336,498,0,0
119,526,0,0,0,0,0,0,0,0,0,-1,1343,498,0,0
126,526,0,0,0,0,0,0,0,0,0,-1,1350,498,0,0
133,526,0,0,0,0,0,0,0,0,0,-1,1357,498,0,0
140,526,0,0,0,0,0,0,0,0,0,-1,1364,498,0,0
147,526,0,0,0,0,0,0,0,0,0,-1,1371,498,0,0
154,526,0,0,0,0,0,0,0,0,0,-1,1378,498,0,0
161,526,0,0,0,0,0,0,0,0,0,-1,1385,498,0,0
168,526,0,0,0,0,0,0,0,0,0,-1,1392,498,0,0
175,526,0,0,0,0,0,0,0,0,0,-1,1399,498,0,0
182,526,0,0,0,0,0,0,0,0,0,-1,1406,498,0,0
189,526,0,0,0,0,0,0,0,0,0,-1,1413,498,0,0
196,526,0,0,0,0,0,0,0,0,0,-1,1420,498,0,0
203,526,0,0,0,0,0,0,0,0,0,-1,1427,498,0,0
210,526,0,0,0,0,0,0,0,0,0,-1,1434,498,0,0
217,526,0,0,0,0,0,0,0,0,0,-1,1441,498,0,0
224,526,0,0,0,0,0,0,0,0,0,-1,1448,498,0,0
231,526,7.93237,-1.30618,0,0,0,0,0,0,0,-1,1455,498,7.93238,1.30618
238,526,7.97717,-1.08197,0,0,0,0,0,0,0,-1,1462,498,7.97723,1.08196
245,526,7.2793,-0.792938,0,0,0,0,0,0,0,-1,1469,498,7.27931,0.792926
252,526,6.73523,-2.23608,0,0,0,0,0,0,0,-1,1476,498,6.73525,2.23608
259,526,6.22949,-1.84967,0,0,0,0,0,0,0,-1,1483,498,6.22953,1.84968
266,526,5.72375,-1.46329,0,0,0,0,0,0,0,-1,1490,498,5.72381,1.46328
273,526,4.33984,0.49173,0,0,0,0,0,0,0,-1,1497,498,4.33979,-0.491727
280,526,1.4585,-1.59897,0,0,0,0,0,0,0,-1,1504,498,1.45846,1.59895
287,526,1.46411,-2.40134,0,0,0,0,0,0,0,-1,1511,498,1.46406,2.40133
294,526,5.57471,-4.59085,0,0,0,0,0,0,0,-1,1518,498,5.57466,4.59084
301,526,4.42786,-3.99677,0,0,0,0,0,0,0,-1,1525,498,4.42788,3.99676
308,526,5.79529,-4.19366,0,0,0,0,0,0,0,-1,1532,498,5.79528,4.19368
315,526,5.09851,-5.20068,0,0,0,0,0,0,0,-1,1539,498,5.09851,5.20068
322,526,5.50708,-4.72348,0,0,0,0,0,0,0,-1,1546,498,5.50713,4.72347
329,526,3.88672,-4.345,0,0,0,0,0,0,0,-1,1553,498,3.88674,4.34501
336,526,4.97876,-2.23828,0,0,0,0,0,0,0,-1,1560,498,4.97877,2.23828
343,526,3.31665,-2.69696,0,0,0,0,0,0,0,-1,1567,498,3.31667,2.69696
350,526,6.06287,-6.12015,0,0,0,0,0,0,0,-1,1574,498,6.06286,6.12014
357,526,12.9944,-29.1665,0,0,0,0,0,0,0,-1,1581,498,12.9943,29.1665
364,526,13.2582,-29.5416,0,0,0,0,0,0,0,-1,1588,498,13.2581,29.5416
371,526,12.4481,-29.0131,0,0,0,0,0,0,0,-1,1595,498,12.4481,29.0131
378,526,15.619,-39.1503,0,0,0,0,0,0,0,-1,1602,498,15.619,39.1503
385,526,17.7208,-42.3264,0,0,0,0,0,0,0,-1,1609,498,17.7208,42.3264
392,526,17.7865,-41.3663,0,0,0,0,0,0,0,-1,1616,498,17.7864,41.3663
399,526,17.7216,-40.5681,0.0024122,0.000105556,-0.00071838,0.00261764,-9.98788e-05,-0.278536,0.00177932,0.0281474,1623,498,17.7216,40.5681
406,526,17.7306,-39.6951,0.00239398,0.00142599,5.65344e-06,0.00239402,0.00142595,0.00584008,0.00139059,0.0136238,1630,498,17.7306,39.6951
413,526,17.6787,-38.8557,0.0024119,0.0018049,0.000481203,0.00267732,0.00153948,0.504049,0.00155154,0.0134525,1637,498,17.6787,38.8557
420,526,17.6139,-38.0005,0.00225233,0.00189801,0.000691083,0.0027886,0.00136174,0.659924,0.00161014,0.015027,1644,498,17.6139,38.0006
427,526,17.6066,-37.1656,0.0019365,0.00189439,0.000864392,0.0027801,0.0010508,0.773221,0.00162094,0.0154691,1651,498,17.6066,37.1657
434,526,17.557,-36.3334,0.00165051,0.0018608,0.00107532,0.00283611,0.000675203,0.834132,0.00171068,0.0129904,1658,498,17.557,36.3335
441,526,17.5002,-35.4569,0.00138772,0.00193715,0.00133916,0.00302949,0.000295385,0.886566,0.00192875,0.0114417,1665,498,17.5003,35.4569
448,526,17.4585,-34.5959,0.00106987,0.00193837,0.00159791,0.00315998,-0.000151748,0.918075,0.00215902,0.0106576,1672,498,17.4586,34.5959
455,526,17.4073,-33.7325,0.000762645,0.00204168,0.00189291,0.00340018,-0.000595859,0.948303,0.00248929,0.0132374,1679,498,17.4073,33.7325
462,526,17.3616,-32.8627,0.000666185,0.00225757,0.00220628,0.00380726,-0.000883497,0.958464,0.00287823,0.0111289,1686,498,17.3615,32.8628
469,526,17.3254,-32.0085,0.000874168,0.00262388,0.00257711,0.00447058,-0.000972532,0.949031,0.00335193,0.00863906,1693,498,17.3254,32.0085
476,526,17.2677,-31.111,0.00101571,0.0030585,0.00294067,0.00515011,-0.00107589,0.952547,0.00384257,0.010413,1700,498,17.2677,31.111
483,526,17.2249,-30.1612,0.0013243,0.00357337,0.00336026,0.00599227,-0.0010946,0.946869,0.00440528,0.014921,1707,498,17.2248,30.1612
490,526,17.2603,-29.1501,0.00163827,0.0038991,0.00375981,0.00669476,-0.00115738,0.931428,0.00489479,0.038182,1714,498,17.2603,29.1501
497,526,17.3347,-28.2424,0,0,0,0,0,0,0,-1,1721,498,17.3347,28.2424
504,526,17.2335,-27.078,0,0,0,0,0,0,0,-1,1728,498,17.2335,27.078
511,526,16.8915,-24.8813,0,0,0,0,0,0,0,-1,1735,498,16.8914,24.8813
518,526,14.7889,-20.4046,0,0,0,0,0,0,0,-1,1742,498,14.7889,20.4046
525,526,14.7009,-19.7487,0,0,0,0,0,0,0,-1,1749,498,14.7009,19.7486
532,526,15.7457,-17.9624,0,0,0,0,0,0,0,-1,1756,498,15.7458,17.9624
539,526,16.1064,-16.42,0,0,0,0,0,0,0,-1,1763,498,16.1065,16.42
546,526,12.4675,-17.1617,0,0,0,0,0,0,0,-1,1770,498,12.4675,17.1617
553,526,3.40796,1.37137,0,0,0,0,0,0,0,-1,1777,498,3.40792,-1.37138
560,526,0,0,0,0,0,0,0,0,0,-1,1784,498,0,0
567,526,0,0,0,0,0,0,0,0,0,-1,1791,498,0,0
574,526,0,0,0,0,0,0,0,0,0,-1,1798,498,0,0
581,526,0,0,0,0,0,0,0,0,0,-1,1805,498,0,0
588,526,0,0,0,0,0,0,0,0,0,-1,1812,498,0,0
595,526,0,0,0,0,0,0,0,0,0,-1,1819,498,0,0
602,526,0,0,0,0,0,0,0,0,0,-1,1826,498,0,0
609,526,0,0,0,0,0,0,0,0,0,-1,1833,498,0,0
616,526,0,0,0,0,0,0,0,0,0,-1,1840,498,0,0
623,526,0,0,0,0,0,0,0,0,0,-1,1847,498,0,0
630,526,0,0,0,0,0,0,0,0,0,-1,1854,498,0,0
637,526,0,0,0,0,0,0,0,0,0,-1,1861,498,0,0
644,526,0,0,0,0,0,0,0,0,0,-1,1868,498,0,0
651,526,0,0,0,0,0,0,0,0,0,-1,1875,498,0,0
658,526,0,0,0,0,0,0,0,0,0,-1,1882,498,0,0
665,526,0,0,0,0,0,0,0,0,0,-1,1889,498,0,0
672,526,0,0,0,0,0,0,0,0,0,-1,1896,498,0,0
679,526,0,0,0,0,0,0,0,0,0,-1,1903,498,0,0
686,526,0,0,0,0,0,0,0,0,0,-1,1910,498,0,0
693,526,0,0,0,0,0,0,0,0,0,-1,1917,498,0,0
700,526,0,0,0,0,0,0,0,0,0,-1,1924,498,0,0
707,526,0,0,0,0,0,0,0,0,0,-1,1931,498,0,0
714,526,0,0,0,0,0,0,0,0,0,-1,1938,498,0,0
721,526,0,0,0,0,0,0,0,0,0,-1,1945,498,0,0
728,526,0,0,0,0,0,0,0,0,0,-1,1952,498,0,0
735,526,0,0,0,0,0,0,0,0,0,-1,1959,498,0,0
742,526,0,0,0,0,0,0,0,0,0,-1,1966,498,0,0
749,526,0,0,0,0,0,0,0,0,0,-1,1973,498,0,0
756,526,0,0,0,0,0,0,0,0,0,-1,1980,498,0,0
763,526,0,0,0,0,0,0,0,0,0,-1,1987,498,0,0
770,526,0,0,0,0,0,0,0,0,0,-1,1994,498,0,0
777,526,0,0,0,0,0,0,0,0,0,-1,2001,498,0,0
784,526,0,0,0,0,0,0,0,0,0,-1,2008,498,0,0
791,526,0,0,0,0,0,0,0,0,0,-1,2015,498,0,0
798,526,0,0,0,0,0,0,0,0,0,-1,2022,498,0,0
805,526,0,0,0,0,0,0,0,0,0,-1,2029,498,0,0
812,526,0,0,0,0,0,0,0,0,0,-1,2036,498,0,0
-700,519,0,0,0,0,0,0,0,0,0,-1,524,505,0,0
-693,519,0,0,0,0,0,0,0,0,0,-1,531,505,0,0
-686,519,0,0,0,0,0,0,0,0,0,-1,538,505,0,0
-679,519,0,0,0,0,0,0,0,0,0,-1,545,505,0,0
-672,519,0,0,0,0,0,0,0,0,0,-1,552,505,0,0
-665,519,0,0,0,0,0,0,0,0,0,-1,559,505,0,0
-658,519,0,0,0,0,0,0,0,0,0,-1,566,505,0,0
-651,519,0,0,0,0,0,0,0,0,0,-1,573,505,0,0
-644,519,0,0,0,0,0,0,0,0,0,-1,580,505,0,0
-637,519,0,0,0,0,0,0,0,0,0,-1,587,505,0,0
-630,519,0,0,0,0,0,0,0,0,0,-1,594,505,0,0
-623,519,0,0,0,0,0,0,0,0,0,-1,601,505,0,0
-616,519,0,0,0,0,0,0,0,0,0,-1,608,505,0,0
-609,519,0,0,0,0,0,0,0,0,0,-1,615,505,0,0
-602,519,0,0,0,0,0,0,0,0,0,-1,622,505,0,0
-595,519,0,0,0,0,0,0,0,0,0,-1,629,505,0,0
-588,519,0,0,0,0,0,0,0,0,0,-1,636,505,0,0
-581,519,0,0,0,0,0,0,0,0,0,-1,643,505,0,0
-574,519,0,0,0,0,0,0,0,0,0,-1,650,505,0,0
-567,519,0,0,0,0,0,0,0,0,0,-1,657,505,0,0
-560,519,0,0,0,0,0,0,0,0,0,-1,664,505,0,0
-553,519,0,0,0,0,0,0,0,0,0,-1,671,505,0,0
-546,519,0,0,0,0,0,0,0,0,0,-1,678,505,0,0
-539,519,0,0,0,0,0,0,0,0,0,-1,685,505,0,0
-532,519,0,0,0,0,0,0,0,0,0,-1,692,505,0,0
-525,519,0,0,0,0,0,0,0,0,0,-1,699,505,0,0
-518,519,0,0,0,0,0,0,0,0,0,-1,706,505,0,0
-511,519,0,0,0,0,0,0,0,0,0,-1,713,505,0,0
-504,519,0,0,0,0,0,0,0,0,0,-1,720,505,0,0
-497,519,0,0,0,0,0,0,0,0,0,-1,727,505,0,0
-490,519,0,0,0,0,0,0,0,0,0,-1,734,505,0,0
-483,519,0,0,0,0,0,0,0,0,0,-1,741,505,0,0
-476,519,0,0,0,0,0,0,0,0,0,-1,748,505,0,0
-469,519,0,0,0,0,0,0,0,0,0,-1,755,505,0,0
-462,519,0,0,0,0,0,0,0,0,0,-1,762,505,0,0
-455,519,0,0,0,0,0,0,0,0,0,-1,769,505,0,0
-448,519,0,0,0,0,0,0,0,0,0,-1,776,505,0,0
-441,519,1.34839,-5.29346,0,0,0,0,0,0,0,-1,783,505,1.3484,5.29347
-434,519,0.949585,-5.77313,0,0,0,0,0,0,0,-1,790,505,0.949598,5.77315
-427,519,-0.0523682,-9.31567,0,0,0,0,0,0,0,-1,797,505,-0.0523854,9.31568
-420,519,-2.38867,-12.1938,0,0,0,0,0,0,0,-1,804,505,-2.38867,12.1938
-413,519,-2.2298,-12.4998,0,0,0,0,0,0,0,-1,811,505,-2.22979,12.4998
-406,519,-1.44373,-12.3475,0,0,0,0,0,0,0,-1,818,505,-1.44376,12.3475
-399,519,-1.60516,-15.0849,0,0,0,0,0,0,0,-1,825,505,-1.60518,15.0849
-392,519,-1.94183,-24.8959,0,0,0,0,0,0,0,-1,832,505,-1.94183,24.8958
-385,519,-3.10938,-26.2477,0,0,0,0,0,0,0,-1,839,505,-3.10936,26.2478
-378,519,-2.7326,-27.4387,0,0,0,0,0,0,0,-1,846,505,-2.73259,27.4387
-371,519,-2.39532,-28.6677,0.00266852,0.0178211,-0.0109635,0.0235715,-0.00308184,-1.08774,0.0168359,0.022496,853,505,-2.39531,28.6677
-364,519,-2.38647,-29.6995,0.00231411,0.0148736,-0.00917528,0.0197123,-0.00252464,-1.08549,0.0140589,0.012089,860,505,-2.38645,29.6996
-357,519,-2.4024,-30.658,0.00189112,0.01219,-0.00751121,0.0161474,-0.00206631,-1.08588,0.0115157,0.0109134,867,505,-2.40239,30.658
-350,519,-2.45081,-31.5405,0.00145953,0.00967196,-0.00594033,0.0127871,-0.00165565,-1.08781,0.00912684,0.0136416,874,505,-2.45081,31.5404
-343,519,-2.55493,-32.3914,0.00114948,0.00729215,-0.00452314,0.00968816,-0.00124653,-1.08365,0.00691185,0.0173076,881,505,-2.55492,32.3914
-336,519,-2.63715,-33.2682,0.000898201,0.00526847,-0.00325629,0.00700485,-0.000838172,-1.08091,0.00497289,0.0172605,888,505,-2.63717,33.2682
-329,519,-2.64673,-34.1677,0.000692381,0.00348519,-0.00210555,0.0046153,-0.000437733,-1.0782,0.00323267,0.0155926,895,505,-2.64674,34.1677
-322,519,-2.67761,-35.0284,0.000601718,0.0019337,-0.00108015,0.00253667,-1.25181e-06,-1.06166,0.00169153,0.0127776,902,505,-2.67762,35.0285
-315,519,-2.73627,-35.9083,0.000638594,0.000598142,-0.000148167,0.000767909,0.000468827,-0.717563,0.000446948,0.0100902,909,505,-2.73628,35.9083
-308,519,-2.79297,-36.7784,0.000911524,-0.000382122,0.000508815,0.00108767,-0.000558265,0.33327,0.000966525,0.00829276,916,505,-2.793,36.7785
-301,519,-2.85901,-37.6099,0.00124593,-0.00107966,0.00104526,0.00164667,-0.0014804,0.36611,0.00180627,0.012746,923,505,-2.85899,37.61
-294,519,-2.87457,-38.3866,0.00167683,-0.00165443,0.00154888,0.0022857,-0.0022633,0.374547,0.00262637,0.0157431,930,505,-2.87455,38.3866
-287,519,-2.92651,-39.2097,0.00218804,-0.00257928,0.00201937,0.00292843,-0.00331967,0.351425,0.0036097,0.012004,937,505,-2.92649,39.2097
-280,519,-2.98364,-40.0605,0.00235122,-0.00492337,0.00270499,0.00324679,-0.00581895,0.319722,0.00530386,0.0259909,944,505,-2.98367,40.0605
-273,519,-2.97845,-40.9248,0,0,0,0,0,0,0,-1,951,505,-2.97847,40.9248
-266,519,-3.02618,-41.754,0,0,0,0,0,0,0,-1,958,505,-3.02621,41.754
-259,519,-2.82745,-42.7338,0,0,0,0,0,0,0,-1,965,505,-2.82746,42.7338
-252,519,-1.84009,-26.8372,0,0,0,0,0,0,0,-1,972,505,-1.8401,26.8372
-245,519,-1.23254,-23.2696,0,0,0,0,0,0,0,-1,979,505,-1.23256,23.2696
-238,519,-1.83044,-42.0023,0,0,0,0,0,0,0,-1,986,505,-1.83043,42.0022
-231,519,-2.75574,-43.0626,0,0,0,0,0,0,0,-1,993,505,-2.75572,43.0626
-224,519,-3.33752,-42.7635,0,0,0,0,0,0,0,-1,1000,505,-3.33753,42.7635
-217,519,-2.87396,-38.149,0,0,0,0,0,0,0,-1,1007,505,-2.87394,38.149
-210,519,-0.883362,-34.799,0,0,0,0,0,0,0,-1,1014,505,-0.883379,34.799
-203,519,-0.513611,-5.39017,0,0,0,0,0,0,0,-1,1021,505,-0.513585,5.39017
-196,519,-0.374023,-5.41635,0,0,0,0,0,0,0,-1,1028,505,-0.374047,5.41635
-189,519,-0.234497,-5.44254,0,0,0,0,0,0,0,-1,1035,505,-0.234508,5.44253
-182,519,2.76697,-1.19659,0,0,0,0,0,0,0,-1,1042,505,2.76696,1.19661
-175,519,2.31323,-0.960938,0,0,0,0,0,0,0,-1,1049,505,2.31319,0.960941
-168,519,2.01074,-0.721405,0,0,0,0,0,0,0,-1,1056,505,2.01072,0.721407
-161,519,2.32056,-0.522339,0,0,0,0,0,0,0,-1,1063,505,2.32057,0.522328
-154,519,2.55566,0.116669,0,0,0,0,0,0,0,-1,1070,505,2.55563,-0.116661
-147,519,-0.55127,-6.14001,0,0,0,0,0,0,0,-1,1077,505,-0.551252,6.14001
-140,519,0.240601,-7.53503,0,0,0,0,0,0,0,-1,1084,505,0.240653,7.53501
-133,519,2.70911,-4.4516,0,0,0,0,0,0,0,-1,1091,505,2.70915,4.45161
-126,519,0,0,0,0,0,0,0,0,0,-1,1098,505,0,0
-119,519,0,0,0,0,0,0,0,0,0,-1,1105,505,0,0
-112,519,0,0,0,0,0,0,0,0,0,-1,1112,505,0,0
-105,519,0,0,0,0,0,0,0,0,0,-1,1119,505,0,0
-98,519,0,0,0,0,0,0,0,0,0,-1,1126,505,0,0
-91,519,0,0,0,0,0,0,0,0,0,-1,1133,505,0,0
-84,519,0,0,0,0,0,0,0,0,0,-1,1140,505,0,0
-77,519,0,0,0,0,0,0,0,0,0,-1,1147,505,0,0
-70,519,0,0,0,0,0,0,0,0,0,-1,1154,505,0,0
-63,519,0,0,0,0,0,0,0,0,0,-1,1161,505,0,0
-56,519,0,0,0,0,0,0,0,0,0,-1,1168,505,0,0
-49,519,0,0,0,0,0,0,0,0,0,-1,1175,505,0,0
-42,519,0,0,0,0,0,0,0,0,0,-1,1182,505,0,0
-35,519,0,0,0,0,0,0,0,0,0,-1,1189,505,0,0
-28,519,0,0,0,0,0,0,0,0,0,-1,1196,505,0,0
-21,519,0,0,0,0,0,0,0,0,0,-1,1203,505,0,0
-14,519,0,0,0,0,0,0,0,0,0,-1,1210,505,0,0
-7,519,0,0,0,0,0,0,0,0,0,-1,1217,505,0,0
0,519,0,0,0,0,0,0,0,0,0,-1,1224,505,0,0
7,519,0,0,0,0,0,0,0,0,0,-1,1231,505,0,0
14,519,0,0,0,0,0,0,0,0,0,-1,1238,505,0,0
21,519,0,0,0,0,0,0,0,0,0,-1,1245,505,0,0
28,519,0,0,0,0,0,0,0,0,0,-1,1252,505,0,0
35,519,0,0,0,0,0,0,0,0,0,-1,1259,505,0,0
42,519,0,0,0,0,0,0,0,0,0,-1,1266,505,0,0
49,519,0,0,0,0,0,0,0,0,0,-1,1273,505,0,0
56,519,0,0,0,0,0,0,0,0,0,-1,1280,505,0,0
63,519,0,0,0,0,0,0,0,0,0,-1,1287,505,0,0
70,519,0,0,0,0,0,0,0,0,0,-1,1294,505,0,0
77,519,0,0,0,0,0,0,0,0,0,-1,1301,505,0,0
84,519,0,0,0,0,0,0,0,0,0,-1,1308,505,0,0
91,519,0,0,0,0,0,0,0,0,0,-1,1315,505,0,0
98,519,0,0,0,0,0,0,0,0,0,-1,1322,505,0,0
105,519,0,0,0,0,0,0,0,0,0,-1,1329,505,0,0
112,519,0,0,0,0,0,0,0,0,0,-1,1336,505,0,0
119,519,0,0,0,0,0,0,0,0,0,-1,1343,505,0,0
126,519,0,0,0,0,0,0,0,0,0,-1,1350,505,0,0
133,519,0,0,0,0,0,0,0,0,0,-1,1357,505,0,0
140,519,0,0,0,0,0,0,0,0,0,-1,1364,505,0,0
147,519,0,0,0,0,0,0,0,0,0,-1,1371,505,0,0
154,519,0,0,0,0,0,0,0,0,0,-1,1378,505,0,0
161,519,0,0,0,0,0,0,0,0,0,-1,1385,505,0,0
168,519,0,0,0,0,0,0,0,0,0,-1,1392,505,0,0
175,519,0,0,0,0,0,0,0,0,0,-1,1399,505,0,0
182,519,0,0,0,0,0,0,0,0,0,-1,1406,505,0,0
189,519,0,0,0,0,0,0,0,0,0,-1,1413,505,0,0
196,519,0,0,0,0,0,0,0,0,0,-1,1420,505,0,0
203,519,0,0,0,0,0,0,0,0,0,-1,1427,505,0,0
210,519,0,0,0,0,0,0,0,0,0,-1,1434,505,0,0
217,519,0,0,0,0,0,0,0,0,0,-1,1441,505,0,0
224,519,0,0,0,0,0,0,0,0,0,-1,1448,505,0,0
231,519,0,0,0,0,0,0,0,0,0,-1,1455,505,0,0
238,519,0,0,0,0,0,0,0,0,0,-1,1462,505,0,0
245,519,0,0,0,0,0,0,0,0,0,-1,1469,505,0,0
252,519,5.26208,0.0938416,0,0,0,0,0,0,0,-1,1476,505,5.26207,-0.0938493
259,519,6.14246,-1.36441,0,0,0,0,0,0,0,-1,1483,505,6.14241,1.36441
266,519,5.31909,-0.400787,0,0,0,0,0,0,0,-1,1490,505,5.31912,0.400773
273,519,4.02393,0.325531,0,0,0,0,0,0,0,-1,1497,505,4.0239,-0.325522
280,519,4.68848,0.53006,0,0,0,0,0,0,0,-1,1504,505,4.68842,-0.530073
287,519,7.9519,-3.80801,0,0,0,0,0,0,0,-1,1511,505,7.95193,3.808
294,519,6.92273,-3.38889,0,0,0,0,0,0,0,-1,1518,505,6.92268,3.38888
301,519,5.35669,-2.92661,0,0,0,0,0,0,0,-1,1525,505,5.35675,2.9266
308,519,7.37549,-5.64529,0,0,0,0,0,0,0,-1,1532,505,7.3755,5.64529
315,519,6.30029,-4.53754,0,0,0,0,0,0,0,-1,1539,505,6.30024,4.53753
322,519,5.84302,-5.45117,0,0,0,0,0,0,0,-1,1546,505,5.84303,5.45116
329,519,4.92407,0.62384,0,0,0,0,0,0,0,-1,1553,505,4.92403,-0.623832
336,519,3.10095,-0.329285,0,0,0,0,0,0,0,-1,1560,505,3.1009,0.329283
343,519,2.49146,-2.31119,0,0,0,0,0,0,0,-1,1567,505,2.49145,2.31119
350,519,3.47729,-2.22516,0,0,0,0,0,0,0,-1,1574,505,3.47726,2.22515
357,519,13.271,-29.6344,0,0,0,0,0,0,0,-1,1581,505,13.271,29.6344
364,519,12.8292,-28.3627,0,0,0,0,0,0,0,-1,1588,505,12.8292,28.3627
371,519,12.3875,-27.0911,0,0,0,0,0,0,0,-1,1595,505,12.3874,27.091
378,519,6.36597,-10.0967,0,0,0,0,0,0,0,-1,1602,505,6.36597,10.0967
385,519,6.24756,-9.72186,0,0,0,0,0,0,0,-1,1609,505,6.24752,9.72183
392,519,16.8391,-37.6736,0,0,0,0,0,0,0,-1,1616,505,16.8391,37.6737
399,519,18.4303,-40.6029,0,0,0,0,0,0,0,-1,1623,505,18.4303,40.6029
406,519,18.5342,-39.7026,0.00322772,0.0015312,-0.000406672,0.00332017,0.00143876,-0.223524,0.00192257,0.0405557,1630,505,18.5342,39.7026
413,519,18.5693,-38.8614,0.0032683,0.00180466,0.000104236,0.00327568,0.00179727,0.070741,0.0018942,0.0166437,1637,505,18.5694,38.8614
420,519,18.4872,-37.9542,0.00304193,0.00179033,0.000314309,0.00311643,0.00171583,0.232723,0.00180234,0.0156819,1644,505,18.4872,37.9542
427,519,18.4791,-37.1434,0.0025967,0.00170304,0.000470597,0.0027988,0.00150093,0.405649,0.00161731,0.0153269,1651,505,18.4792,37.1434
434,519,18.4185,-36.3087,0.00213978,0.00161787,0.000635174,0.00256551,0.00119213,0.590491,0.00148243,0.0141529,1658,505,18.4185,36.3087
441,519,18.338,-35.4056,0.00177159,0.00165561,0.000857475,0.00257303,0.000854164,0.751637,0.00151324,0.012548,1665,505,18.3381,35.4056
448,519,18.306,-34.5445,0.00139727,0.00165046,0.00109185,0.00262303,0.000424701,0.843112,0.00162572,0.00966226,1672,505,18.306,34.5445
455,519,18.2531,-33.7053,0.00105681,0.00175514,0.00135092,0.00280128,1.06588e-05,0.911862,0.00186398,0.0107161,1679,505,18.253,33.7053
462,519,18.2192,-32.8319,0.000933153,0.00197462,0.00163113,0.00316612,-0.000258352,0.939907,0.00220192,0.0104357,1686,505,18.2192,32.8319
469,519,18.1957,-31.9481,0.00111797,0.00232228,0.0019833,0.00379282,-0.000352568,0.932782,0.00265389,0.0114117,1693,505,18.1956,31.9481
476,519,18.1504,-31.04,0.00124785,0.0027282,0.00233162,0.00443431,-0.000458254,0.939092,0.00312019,0.0138658,1700,505,18.1504,31.04
483,519,18.1031,-30.1436,0.00152753,0.00317362,0.00272998,0.00520192,-0.000500773,0.931807,0.00364635,0.0150192,1707,505,18.1032,30.1436
490,519,18.0325,-29.2219,0.00179941,0.00341975,0.00305629,0.00577142,-0.000552265,0.91496,0.00404429,0.0132848,1714,505,18.0325,29.2219
497,519,17.9669,-28.4538,0.00226897,0.00354359,0.00321984,0.00618859,-0.000376031,0.883102,0.00425661,0.0393057,1721,505,17.967,28.4538
504,519,17.9559,-27.3516,0,0,0,0,0,0,0,-1,1728,505,17.956,27.3516
511,519,18.0732,-26.213,0,0,0,0,0,0,0,-1,1735,505,18.0733,26.2129
518,519,18.0547,-25.2675,0,0,0,0,0,0,0,-1,1742,505,18.0547,25.2675
525,519,15.9647,-20.5714,0,0,0,0,0,0,0,-1,1749,505,15.9648,20.5714
532,519,15.825,-19.0025,0,0,0,0,0,0,0,-1,1756,505,15.8249,19.0025
539,519,16.5902,-16.8075,0,0,0,0,0,0,0,-1,1763,505,16.5903,16.8075
546,519,12.4001,-16.5616,0,0,0,0,0,0,0,-1,1770,505,12.4002,16.5616
553,519,4.14136,0.0667419,0,0,0,0,0,0,0,-1,1777,505,4.14141,-0.0667503
560,519,3.77856,0.279724,0,0,0,0,0,0,0,-1,1784,505,3.77861,-0.279731
567,519,0,0,0,0,0,0,0,0,0,-1,1791,505,0,0
574,519,0,0,0,0,0,0,0,0,0,-1,1798,505,0,0
581,519,0,0,0,0,0,0,0,0,0,-1,1805,505,0,0
588,519,0,0,0,0,0,0,0,0,0,-1,1812,505,0,0
595,519,0,0,0,0,0,0,0,0,0,-1,1819,505,0,0
602,519,0,0,0,0,0,0,0,0,0,-1,1826,505,0,0
609,519,0,0,0,0,0,0,0,0,0,-1,1833,505,0,0
616,519,0,0,0,0,0,0,0,0,0,-1,1840,505,0,0
623,519,0,0,0,0,0,0,0,0,0,-1,1847,505,0,0
630,519,0,0,0,0,0,0,0,0,0,-1,1854,505,0,0
637,519,0,0,0,0,0,0,0,0,0,-1,1861,505,0,0
644,519,0,0,0,0,0,0,0,0,0,-1,1868,505,0,0
651,519,0,0,0,0,0,0,0,0,0,-1,1875,505,0,0
658,519,0,0,0,0,0,0,0,0,0,-1,1882,505,0,0
665,519,0,0,0,0,0,0,0,0,0,-1,1889,505,0,0
672,519,0,0,0,0,0,0,0,0,0,-1,1896,505,0,0
679,519,0,0,0,0,0,0,0,0,0,-1,1903,505,0,0
686,519,0,0,0,0,0,0,0,0,0,-1,1910,505,0,0
693,519,0,0,0,0,0,0,0,0,0,-1,1917,505,0,0
700,519,0,0,0,0,0,0,0,0,0,-1,1924,505,0,0
707,519,0,0,0,0,0,0,0,0,0,-1,1931,505,0,0
714,519,0,0,0,0,0,0,0,0,0,-1,1938,505,0,0
721,519,0,0,0,0,0,0,0,0,0,-1,1945,505,0,0
728,519,0,0,0,0,0,0,0,0,0,-1,1952,505,0,0
735,519,0,0,0,0,0,0,0,0,0,-1,1959,505,0,0
742,519,0,0,0,0,0,0,0,0,0,-1,1966,505,0,0
749,519,0,0,0,0,0,0,0,0,0,-1,1973,505,0,0
756,519,0,0,0,0,0,0,0,0,0,-1,1980,505,0,0
763,519,0,0,0,0,0,0,0,0,0,-1,1987,505,0,0
770,519,0,0,0,0,0,0,0,0,0,-1,1994,505,0,0
777,519,0,0,0,0,0,0,0,0,0,-1,2001,505,0,0
784,519,0,0,0,0,0,0,0,0,0,-1,2008,505,0,0
791,519,0,0,0,0,0,0,0,0,0,-1,2015,505,0,0
798,519,0,0,0,0,0,0,0,0,0,-1,2022,505,0,0
805,519,0,0,0,0,0,0,0,0,0,-1,2029,505,0,0
812,519,0,0,0,0,0,0,0,0,0,-1,2036,505,0,0
-700,512,0,0,0,0,0,0,0,0,0,-1,524,512,0,0
-693,512,0,0,0,0,0,0,0,0,0,-1,531,512,0,0
-686,512,0,0,0,0,0,0,0,0,0,-1,538,512,0,0
-679,512,0,0,0,0,0,0,0,0,0,-1,545,512,0,0
-672,512,0,0,0,0,0,0,0,0,0,-1,552,512,0,0
-665,512,0,0,0,0,0,0,0,0,0,-1,559,512,0,0
-658,512,0,0,0,0,0,0,0,0,0,-1,566,512,0,0
-651,512,0,0,0,0,0,0,0,0,0,-1,573,512,0,0
-644,512,0,0,0,0,0,0,0,0,0,-1,580,512,0,0
-637,512,0,0,0,0,0,0,0,0,0,-1,587,512,0,0
-630,512,0,0,0,0,0,0,0,0,0,-1,594,512,0,0
-623,512,0,0,0,0,0,0,0,0,0,-1,601,512,0,0
-616,512,0,0,0,0,0,0,0,0,0,-1,608,512,0,0
-609,512,0,0,0,0,0,0,0,0,0,-1,615,512,0,0
-602,512,0,0,0,0,0,0,0,0,0,-1,622,512,0,0
-595,512,0,0,0,0,0,0,0,0,0,-1,629,512,0,0
-588,512,0,0,0,0,0,0,0,0,0,-1,636,512,0,0
-581,512,0,0,0,0,0,0,0,0,0,-1,643,512,0,0
-574,512,0,0,0,0,0,0,0,0,0,-1,650,512,0,0
-567,512,0,0,0,0,0,0,0,0,0,-1,657,512,0,0
-560,512,0,0,0,0,0,0,0,0,0,-1,664,512,0,0
-553,512,0,0,0,0,0,0,0,0,0,-1,671,512,0,0
-546,512,0,0,0,0,0,0,0,0,0,-1,678,512,0,0
-539,512,0,0,0,0,0,0,0,0,0,-1,685,512,0,0
-532,512,0,0,0,0,0,0,0,0,0,-1,692,512,0,0
-525,512,0,0,0,0,0,0,0,0,0,-1,699,512,0,0
-518,512,0,0,0,0,0,0,0,0,0,-1,706,512,0,0
-511,512,0,0,0,0,0,0,0,0,0,-1,713,512,0,0
-504,512,0,0,0,0,0,0,0,0,0,-1,720,512,0,0
-497,512,0,0,0,0,0,0,0,0,0,-1,727,512,0,0
-490,512,0,0,0,0,0,0,0,0,0,-1,734,512,0,0
-483,512,0,0,0,0,0,0,0,0,0,-1,741,512,0,0
-476,512,0,0,0,0,0,0,0,0,0,-1,748,512,0,0
-469,512,0,0,0,0,0,0,0,0,0,-1,755,512,0,0
-462,512,0,0,0,0,0,0,0,0,0,-1,762,512,0,0
-455,512,0,0,0,0,0,0,0,0,0,-1,769,512,0,0
-448,512,1.96283,-4.15674,0,0,0,0,0,0,0,-1,776,512,1.96285,4.15677
-441,512,1.78198,-4.88824,0,0,0,0,0,0,0,-1,783,512,1.78201,4.88826
-434,512,0.0726929,-9.85822,0,0,0,0,0,0,0,-1,790,512,0.0727008,9.85819
-427,512,-0.384583,-9.94824,0,0,0,0,0,0,0,-1,797,512,-0.384552,9.94823
-420,512,-2.93219,-12.4855,0,0,0,0,0,0,0,-1,804,512,-2.93219,12.4855
-413,512,-2.22711,-11.4485,0,0,0,0,0,0,0,-1,811,512,-2.22712,11.4485
-406,512,-2.38037,-13.5743,0,0,0,0,0,0,0,-1,818,512,-2.38034,13.5743
-399,512,-3.13367,-23.934,0,0,0,0,0,0,0,-1,825,512,-3.13368,23.934
-392,512,-3.03046,-26.0927,0,0,0,0,0,0,0,-1,832,512,-3.03046,26.0926
-385,512,-3.08453,-26.9483,0,0,0,0,0,0,0,-1,839,512,-3.08451,26.9483
-378,512,-3.12732,-27.8499,0,0,0,0,0,0,0,-1,846,512,-3.12735,27.8499
-371,512,-3.19904,-28.7531,0.00198781,0.0133015,-0.00837368,0.01775,-0.00246071,-1.08246,0.0127331,0.0153516,853,512,-3.19904,28.7531
-364,512,-3.25134,-29.7386,0.00185226,0.0108571,-0.00694458,0.0146311,-0.00192173,-1.073,0.0104537,0.0101184,860,512,-3.25135,29.7386
-357,512,-3.27539,-30.6394,0.00164217,0.00866259,-0.00557761,0.0117426,-0.00143786,-1.06625,0.00834908,0.0110077,867,512,-3.27539,30.6394
-350,512,-3.33081,-31.5027,0.00139458,0.00660448,-0.00427139,0.00900259,-0.00100353,-1.05922,0.00636267,0.0122466,874,512,-3.33084,31.5028
-343,512,-3.42993,-32.36,0.00122346,0.00459887,-0.00306822,0.00641293,-0.000590597,-1.03684,0.00448513,0.0149399,881,512,-3.4299,32.36
-336,512,-3.50531,-33.2713,0.00105949,0.00286707,-0.0019666,0.00412761,-0.000201054,-1.00079,0.00282115,0.0162099,888,512,-3.50531,33.2713
-329,512,-3.49292,-34.1443,0.000911845,0.00133303,-0.000949011,0.00209453,0.00015034,-0.894582,0.00134904,0.0181023,895,512,-3.49295,34.1444
-322,512,-3.54211,-34.9893,0.000857051,-7.19019e-06,-3.0599e-05,0.000858133,-8.27224e-06,-0.0353466,0.000574866,0.0149874,902,512,-3.54212,34.9893
-315,512,-3.60254,-35.8748,0.00096546,-0.00106714,0.000749398,0.00121188,-0.00131356,0.317687,0.00145846,0.0119406,909,512,-3.60256,35.8748
-308,512,-3.66455,-36.7307,0.0013411,-0.00186285,0.0012955,0.00179938,-0.00232113,0.340008,0.00238532,0.011425,916,512,-3.66453,36.7307
-301,512,-3.72449,-37.5637,0.00165882,-0.00226726,0.00180396,0.00236182,-0.00297027,0.371597,0.00308516,0.0155937,923,512,-3.72449,37.5637
-294,512,-3.7312,-38.3518,0.00200831,-0.00263846,0.00230614,0.00295852,-0.00358867,0.390837,0.00378585,0.0162077,930,512,-3.7312,38.3518
-287,512,-3.76685,-39.1472,0,0,0,0,0,0,0,-1,937,512,-3.76683,39.1472
-280,512,-3.84656,-40.0237,0,0,0,0,0,0,0,-1,944,512,-3.84657,40.0238
-273,512,-2.90118,-34.7153,0,0,0,0,0,0,0,-1,951,512,-2.90121,34.7153
-266,512,-2.33594,-25.9839,0,0,0,0,0,0,0,-1,958,512,-2.33592,25.9839
-259,512,-0.525452,-14.0815,0,0,0,0,0,0,0,-1,965,512,-0.525475,14.0815
-252,512,1.45941,-3.43475,0,0,0,0,0,0,0,-1,972,512,1.45938,3.43475
-245,512,-1.6731,-22.8959,0,0,0,0,0,0,0,-1,979,512,-1.67312,22.8959
-238,512,0.227051,-8.92969,0,0,0,0,0,0,0,-1,986,512,0.227073,8.92968
-231,512,-1.90576,-38.0918,0,0,0,0,0,0,0,-1,993,512,-1.90575,38.0918
-224,512,-1.29974,-33.6304,0,0,0,0,0,0,0,-1,1000,512,-1.29974,33.6304
-217,512,-0.963196,-34.1697,0,0,0,0,0,0,0,-1,1007,512,-0.963226,34.1697
-210,512,-3.76642,-1.94702,0,0,0,0,0,0,0,-1,1014,512,-3.76641,1.94702
-203,512,-2.48328,-5.19061,0,0,0,0,0,0,0,-1,1021,512,-2.48328,5.19059
-196,512,-1.14929,-4.63202,0,0,0,0,0,0,0,-1,1028,512,-1.14934,4.632
-189,512,0.197998,4.55505,0,0,0,0,0,0,0,-1,1035,512,0.197996,-4.55506
-182,512,2.73938,0.0778503,0,0,0,0,0,0,0,-1,1042,512,2.73944,-0.077852
-175,512,2.29565,0.209808,0,0,0,0,0,0,0,-1,1049,512,2.29565,-0.209813
-168,512,2.09399,-0.302856,0,0,0,0,0,0,0,-1,1056,512,2.09403,0.302826
-161,512,2.76636,0.0921021,0,0,0,0,0,0,0,-1,1063,512,2.76633,-0.0921104
-154,512,3.41382,0.466187,0,0,0,0,0,0,0,-1,1070,512,3.41382,-0.466178
-147,512,0,0,0,0,0,0,0,0,0,-1,1077,512,0,0
-140,512,0,0,0,0,0,0,0,0,0,-1,1084,512,0,0
-133,512,0,0,0,0,0,0,0,0,0,-1,1091,512,0,0
-126,512,0,0,0,0,0,0,0,0,0,-1,1098,512,0,0
-119,512,0,0,0,0,0,0,0,0,0,-1,1105,512,0,0
-112,512,0,0,0,0,0,0,0,0,0,-1,1112,512,0,0
-105,512,0,0,0,0,0,0,0,0,0,-1,1119,512,0,0
-98,512,0,0,0,0,0,0,0,0,0,-1,1126,512,0,0
-91,512,0,0,0,0,0,0,0,0,0,-1,1133,512,0,0
-84,512,0,0,0,0,0,0,0,0,0,-1,1140,512,0,0
-77,512,0,0,0,0,0,0,0,0,0,-1,1147,512,0,0
-70,512,0,0,0,0,0,0,0,0,0,-1,1154,512,0,0
-63,512,0,0,0,0,0,0,0,0,0,-1,1161,512,0,0
-56,512,0,0,0,0,0,0,0,0,0,-1,1168,512,0,0
-49,512,0,0,0,0,0,0,0,0,0,-1,1175,512,0,0
-42,512,0,0,0,0,0,0,0,0,0,-1,1182,512,0,0
-35,512,0,0,0,0,0,0,0,0,0,-1,1189,512,0,0
-28,512,0,0,0,0,0,0,0,0,0,-1,1196,512,0,0
-21,512,0,0,0,0,0,0,0,0,0,-1,1203,512,0,0
-14,512,0,0,0,0,0,0,0,0,0,-1,1210,512,0,0
-7,512,0,0,0,0,0,0,0,0,0,-1,1217,512,0,0
0,512,0,0,0,0,0,0,0,0,0,-1,1224,512,0,0
7,512,0,0,0,0,0,0,0,0,0,-1,1231,512,0,0
14,512,0,0,0,0,0,0,0,0,0,-1,1238,512,0,0
21,512,0,0,0,0,0,0,0,0,0,-1,1245,512,0,0
28,512,0,0,0,0,0,0,0,0,0,-1,1252,512,0,0
35,512,0,0,0,0,0,0,0,0,0,-1,1259,512,0,0
42,512,0,0,0,0,0,0,0,0,0,-1,1266,512,0,0
49,512,0,0,0,0,0,0,0,0,0,-1,1273,512,0,0
56,512,0,0,0,0,0,0,0,0,0,-1,1280,512,0,0
63,512,0,0,0,0,0,0,0,0,0,-1,1287,512,0,0
70,512,0,0,0,0,0,0,0,0,0,-1,1294,512,0,0
77,512,0,0,0,0,0,0,0,0,0,-1,1301,512,0,0
84,512,0,0,0,0,0,0,0,0,0,-1,1308,512,0,0
91,512,0,0,0,0,0,0,0,0,0,-1,1315,512,0,0
98,512,0,0,0,0,0,0,0,0,0,-1,1322,512,0,0
105,512,0,0,0,0,0,0,0,0,0,-1,1329,512,0,0
112,512,0,0,0,0,0,0,0,0,0,-1,1336,512,0,0
119,512,0,0,0,0,0,0,0,0,0,-1,1343,512,0,0
126,512,0,0,0,0,0,0,0,0,0,-1,1350,512,0,0
133,512,0,0,0,0,0,0,0,0,0,-1,1357,512,0,0
140,512,0,0,0,0,0,0,0,0,0,-1,1364,512,0,0
147,512,0,0,0,0,0,0,0,0,0,-1,1371,512,0,0
154,512,0,0,0,0,0,0,0,0,0,-1,1378,512,0,0
161,512,0,0,0,0,0,0,0,0,0,-1,1385,512,0,0
168,512,0,0,0,0,0,0,0,0,0,-1,1392,512,0,0
175,512,0,0,0,0,0,0,0,0,0,-1,1399,512,0,0
182,512,0,0,0,0,0,0,0,0,0,-1,1406,512,0,0
189,512,0,0,0,0,0,0,0,0,0,-1,1413,512,0,0
196,512,0,0,0,0,0,0,0,0,0,-1,1420,512,0,0
203,512,0,0,0,0,0,0,0,0,0,-1,1427,512,0,0
210,512,0,0,0,0,0,0,0,0,0,-1,1434,512,0,0
217,512,0,0,0,0,0,0,0,0,0,-1,1441,512,0,0
224,512,0,0,0,0,0,0,0,0,0,-1,1448,512,0,0
231,512,0,0,0,0,0,0,0,0,0,-1,1455,512,0,0
238,512,0,0,0,0,0,0,0,0,0,-1,1462,512,0,0
245,512,0,0,0,0,0,0,0,0,0,-1,1469,512,0,0
252,512,0,0,0,0,0,0,0,0,0,-1,1476,512,0,0
259,512,0,0,0,0,0,0,0,0,0,-1,1483,512,0,0
266,512,0,0,0,0,0,0,0,0,0,-1,1490,512,0,0
273,512,4.00745,0.618622,0,0,0,0,0,0,0,-1,1497,512,4.00747,-0.618611
280,512,4.49609,0.649841,0,0,0,0,0,0,0,-1,1504,512,4.49612,-0.649834
287,512,4.77234,0.458069,0,0,0,0,0,0,0,-1,1511,512,4.77233,-0.458083
294,512,8.54956,-2.36273,0,0,0,0,0,0,0,-1,1518,512,8.54952,2.36274
301,512,6.302,-1.69092,0,0,0,0,0,0,0,-1,1525,512,6.30196,1.69093
308,512,8.2439,-6.22754,0,0,0,0,0,0,0,-1,1532,512,8.24394,6.22757
315,512,7.53687,-6.04211,0,0,0,0,0,0,0,-1,1539,512,7.53691,6.04211
322,512,6.82983,-5.85663,0,0,0,0,0,0,0,-1,1546,512,6.82988,5.85666
329,512,4.38147,-0.329651,0,0,0,0,0,0,0,-1,1553,512,4.38144,0.329662
336,512,4.41467,-0.741455,0,0,0,0,0,0,0,-1,1560,512,4.41467,0.741442
343,512,4.44727,-1.21667,0,0,0,0,0,0,0,-1,1567,512,4.44732,1.21666
350,512,4.55469,-1.65082,0,0,0,0,0,0,0,-1,1574,512,4.5547,1.65083
357,512,5.79993,-2.67456,0,0,0,0,0,0,0,-1,1581,512,5.79991,2.67454
364,512,13.118,-28.5485,0,0,0,0,0,0,0,-1,1588,512,13.1181,28.5485
371,512,5.28467,-7.69269,0,0,0,0,0,0,0,-1,1595,512,5.28464,7.69269
378,512,6.29407,-9.88055,0,0,0,0,0,0,0,-1,1602,512,6.29412,9.88057
385,512,6.45569,-9.32233,0,0,0,0,0,0,0,-1,1609,512,6.45565,9.3223
392,512,6.35522,-8.98425,0,0,0,0,0,0,0,-1,1616,512,6.35526,8.98422
399,512,16.9089,-33.7311,0,0,0,0,0,0,0,-1,1623,512,16.9089,33.7311
406,512,19.4512,-39.8038,0,0,0,0,0,0,0,-1,1630,512,19.4511,39.8038
413,512,19.3717,-39.0043,0,0,0,0,0,0,0,-1,1637,512,19.3717,39.0043
420,512,19.384,-37.9943,0.00404214,0.00169628,0.000181984,0.00405618,0.00168224,0.0769627,0.00235316,0.0291667,1644,512,19.384,37.9943
427,512,19.3435,-37.1184,0.00343276,0.00148891,0.000218082,0.00345692,0.00146474,0.110363,0.00200358,0.0168457,1651,512,19.3435,37.1184
434,512,19.2745,-36.2706,0.0027775,0.00131846,0.000238892,0.00281562,0.00128034,0.158229,0.00162782,0.0129604,1658,512,19.2745,36.2706
441,512,19.1953,-35.3691,0.00227358,0.00130159,0.000355789,0.0023899,0.00118527,0.315966,0.00137982,0.0136496,1665,512,19.1953,35.3692
448,512,19.1592,-34.5248,0.00182304,0.00127914,0.000524911,0.00214226,0.000959917,0.546395,0.00123906,0.0102154,1672,512,19.1591,34.5248
455,512,19.1062,-33.6609,0.00143075,0.00136851,0.000721306,0.00212161,0.000677656,0.763841,0.00125126,0.0093952,1679,512,19.1062,33.6609
462,512,19.0704,-32.7748,0.00123845,0.00157034,0.000958878,0.00237752,0.00043126,0.871081,0.00146261,0.00942116,1686,512,19.0705,32.7748
469,512,19.026,-31.8898,0.00133424,0.00188995,0.00129078,0.00293244,0.000291745,0.89141,0.00186533,0.0116244,1693,512,19.026,31.8897
476,512,18.9674,-30.9971,0.00140487,0.00226321,0.00162796,0.00351762,0.000150462,0.914278,0.00229657,0.0148634,1700,512,18.9674,30.9971
483,512,18.9425,-30.0864,0.00160798,0.00264006,0.00200726,0.00419655,5.14928e-05,0.911217,0.0027807,0.0138263,1707,512,18.9425,30.0864
490,512,18.9099,-29.2006,0.00176033,0.00282962,0.00227641,0.00463332,-4.33766e-05,0.900739,0.00310344,0.0108876,1714,512,18.9099,29.2006
497,512,18.8445,-28.3047,0.0020931,0.00293699,0.00246429,0.00501519,1.48977e-05,0.870187,0.00333851,0.0122157,1721,512,18.8445,28.3047
504,512,18.7479,-27.376,0.0024758,0.00301611,0.00256436,0.00532451,0.000167412,0.83788,0.0034952,0.0183335,1728,512,18.7479,27.376
511,512,18.7008,-26.4009,0.00278955,0.00296301,0.00250221,0.00537999,0.000372567,0.802722,0.00346915,0.0287049,1735,512,18.7009,26.4009
518,512,18.8285,-25.4866,0.00299505,0.00276766,0.00223176,0.00511602,0.000646701,0.759948,0.00321685,0.0387929,1742,512,18.8285,25.4866
525,512,19.0848,-24.5494,0,0,0,0,0,0,0,-1,1749,512,19.0848,24.5494
532,512,16.6807,-19.0635,0,0,0,0,0,0,0,-1,1756,512,16.6807,19.0635
539,512,12.6367,-16.4022,0,0,0,0,0,0,0,-1,1763,512,12.6367,16.4021
546,512,2.77551,-0.66449,0,0,0,0,0,0,0,-1,1770,512,2.77548,0.664503
553,512,3.927,-0.448853,0,0,0,0,0,0,0,-1,1777,512,3.92704,0.448843
560,512,3.55762,-0.201233,0,0,0,0,0,0,0,-1,1784,512,3.55768,0.201259
567,512,3.09045,0.191193,0,0,0,0,0,0,0,-1,1791,512,3.09045,-0.191203
574,512,0,0,0,0,0,0,0,0,0,-1,1798,512,0,0
581,512,0,0,0,0,0,0,0,0,0,-1,1805,512,0,0
588,512,0,0,0,0,0,0,0,0,0,-1,1812,512,0,0
595,512,0,0,0,0,0,0,0,0,0,-1,1819,512,0,0
602,512,0,0,0,0,0,0,0,0,0,-1,1826,512,0,0
609,512,0,0,0,0,0,0,0,0,0,-1,1833,512,0,0
616,512,0,0,0,0,0,0,0,0,0,-1,1840,512,0,0
623,512,0,0,0,0,0,0,0,0,0,-1,1847,512,0,0
630,512,0,0,0,0,0,0,0,0,0,-1,1854,512,0,0
637,512,0,0,0,0,0,0,0,0,0,-1,1861,512,0,0
644,512,0,0,0,0,0,0,0,0,0,-1,1868,512,0,0
651,512,0,0,0,0,0,0,0,0,0,-1,1875,512,0,0
658,512,0,0,0,0,0,0,0,0,0,-1,1882,512,0,0
665,512,0,0,0,0,0,0,0,0,0,-1,1889,512,0,0
672,512,0,0,0,0,0,0,0,0,0,-1,1896,512,0,0
679,512,0,0,0,0,0,0,0,0,0,-1,1903,512,0,0
686,512,0,0,0,0,0,0,0,0,0,-1,1910,512,0,0
693,512,0,0,0,0,0,0,0,0,0,-1,1917,512,0,0
700,512,0,0,0,0,0,0,0,0,0,-1,1924,512,0,0
707,512,0,0,0,0,0,0,0,0,0,-1,1931,512,0,0
714,512,0,0,0,0,0,0,0,0,0,-1,1938,512,0,0
721,512,0,0,0,0,0,0,0,0,0,-1,1945,512,0,0
728,512,0,0,0,0,0,0,0,0,0,-1,1952,512,0,0
735,512,0,0,0,0,0,0,0,0,0,-1,1959,512,0,0
742,512,0,0,0,0,0,0,0,0,0,-1,1966,512,0,0
749,512,0,0,0,0,0,0,0,0,0,-1,1973,512,0,0
756,512,0,0,0,0,0,0,0,0,0,-1,1980,512,0,0
763,512,0,0,0,0,0,0,0,0,0,-1,1987,512,0,0
770,512,0,0,0,0,0,0,0,0,0,-1,1994,512,0,0
777,512,0,0,0,0,0,0,0,0,0,-1,2001,512,0,0
784,512,0,0,0,0,0,0,0,0,0,-1,2008,512,0,0
791,512,0,0,0,0,0,0,0,0,0,-1,2015,512,0,0
798,512,0,0,0,0,0,0,0,0,0,-1,2022,512,0,0
805,512,0,0,0,0,0,0,0,0,0,-1,2029,512,0,0
812,512,0,0,0,0,0,0,0,0,0,-1,2036,512,0,0
-700,505,0,0,0,0,0,0,0,0,0,-1,524,519,0,0
-693,505,0,0,0,0,0,0,0,0,0,-1,531,519,0,0
-686,505,0,0,0,0,0,0,0,0,0,-1,538,519,0,0
-679,505,0,0,0,0,0,0,0,0,0,-1,545,519,0,0
-672,505,0,0,0,0,0,0,0,0,0,-1,552,519,0,0
-665,505,0,0,0,0,0,0,0,0,0,-1,559,519,0,0
-658,505,0,0,0,0,0,0,0,0,0,-1,566,519,0,0
-651,505,0,0,0,0,0,0,0,0,0,-1,573,519,0,0
-644,505,0,0,0,0,0,0,0,0,0,-1,580,519,0,0
-637,505,0,0,0,0,0,0,0,0,0,-1,587,519,0,0
-630,505,0,0,0,0,0,0,0,0,0,-1,594,519,0,0
-623,505,0,0,0,0,0,0,0,0,0,-1,601,519,0,0
-616,505,0,0,0,0,0,0,0,0,0,-1,608,519,0,0
-609,505,0,0,0,0,0,0,0,0,0,-1,615,519,0,0
-602,505,0,0,0,0,0,0,0,0,0,-1,622,519,0,0
-595,505,0,0,0,0,0,0,0,0,0,-1,629,519,0,0
-588,505,0,0,0,0,0,0,0,0,0,-1,636,519,0,0
-581,505,0,0,0,0,0,0,0,0,0,-1,643,519,0,0
-574,505,0,0,0,0,0,0,0,0,0,-1,650,519,0,0
-567,505,0,0,0,0,0,0,0,0,0,-1,657,519,0,0
-560,505,0,0,0,0,0,0,0,0,0,-1,664,519,0,0
-553,505,0,0,0,0,0,0,0,0,0,-1,671,519,0,0
-546,505,0,0,0,0,0,0,0,0,0,-1,678,519,0,0
-539,505,0,0,0,0,0,0,0,0,0,-1,685,519,0,0
-532,505,0,0,0,0,0,0,0,0,0,-1,692,519,0,0
-525,505,0,0,0,0,0,0,0,0,0,-1,699,519,0,0
-518,505,0,0,0,0,0,0,0,0,0,-1,706,519,0,0
-511,505,0,0,0,0,0,0,0,0,0,-1,713,519,0,0
-504,505,0,0,0,0,0,0,0,0,0,-1,720,519,0,0
-497,505,0,0,0,0,0,0,0,0,0,-1,727,519,0,0
-490,505,0,0,0,0,0,0,0,0,0,-1,734,519,0,0
-483,505,0,0,0,0,0,0,0,0,0,-1,741,519,0,0
-476,505,0,0,0,0,0,0,0,0,0,-1,748,519,0,0
-469,505,0,0,0,0,0,0,0,0,0,-1,755,519,0,0
-462,505,0,0,0,0,0,0,0,0,0,-1,762,519,0,0
-455,505,2.72137,-3.26379,0,0,0,0,0,0,0,-1,769,519,2.72135,3.26377
-448,505,2.51111,-3.94989,0,0,0,0,0,0,0,-1,776,519,2.51112,3.94986
-441,505,2.80212,-6.8902,0,0,0,0,0,0,0,-1,783,519,2.80209,6.89019
-434,505,-0.155212,-10.6374,0,0,0,0,0,0,0,-1,790,519,-0.155194,10.6374
-427,505,-0.474426,-10.4702,0,0,0,0,0,0,0,-1,797,519,-0.474433,10.4702
-420,505,-0.922546,-10.1928,0,0,0,0,0,0,0,-1,804,519,-0.92257,10.1928
-413,505,-3.33948,-13.6183,0,0,0,0,0,0,0,-1,811,519,-3.33949,13.6184
-406,505,-3.2439,-18.3408,0,0,0,0,0,0,0,-1,818,519,-3.24389,18.3408
-399,505,-3.86108,-24.9794,0,0,0,0,0,0,0,-1,825,519,-3.86109,24.9794
-392,505,-3.88055,-25.9646,0.00118767,0.0168806,-0.00967555,0.0214914,-0.00342312,-1.12609,0.0155944,0.0281252,832,519,-3.88054,25.9646
-385,505,-3.97131,-26.9138,0.00132988,0.0141724,-0.00842888,0.0183473,-0.00284503,-1.11091,0.0132818,0.0121704,839,519,-3.97134,26.9138
-378,505,-4.02118,-27.8343,0.00145537,0.0118399,-0.00729902,0.015605,-0.00230979,-1.09455,0.0112526,0.012617,846,519,-4.02119,27.8343
-371,505,-4.05743,-28.7887,0.00154017,0.009577,-0.00621943,0.0129632,-0.00184607,-1.07221,0.00931867,0.0149254,853,519,-4.05743,28.7887
-364,505,-4.13257,-29.7098,0.00154269,0.007437,-0.00503492,0.0103239,-0.0013442,-1.05018,0.00737163,0.0158956,860,519,-4.13256,29.7098
-357,505,-4.15967,-30.618,0.00148106,0.0055642,-0.00387774,0.00790497,-0.000859701,-1.0277,0.00557867,0.0127436,867,519,-4.15967,30.618
-350,505,-4.22589,-31.4805,0.00136711,0.00383598,-0.00276401,0.00562869,-0.000425591,-0.995414,0.00390207,0.0122509,874,519,-4.22587,31.4805
-343,505,-4.30005,-32.3438,0.00129347,0.00212965,-0.00172617,0.00348764,-6.45202e-05,-0.904214,0.00234689,0.0119476,881,519,-4.30007,32.3438
-336,505,-4.35156,-33.2313,0.00119244,0.000639044,-0.00075797,0.00172264,0.000108845,-0.610389,0.00111392,0.015156,888,519,-4.35155,33.2313
-329,505,-4.35919,-34.0765,0.00109216,-0.000662564,0.000144699,0.00110401,-0.000674417,0.0817268,0.00103671,0.0205211,895,519,-4.35921,34.0765
-322,505,-4.3963,-34.9451,0.00106222,-0.00177215,0.000960184,0.00135686,-0.0020668,0.297743,0.00199077,0.0241203,902,519,-4.3963,34.9451
-315,505,-4.47516,-35.823,0.00122404,-0.00248463,0.00156337,0.00179513,-0.00305571,0.350234,0.00283198,0.0173995,909,519,-4.47518,35.823
-308,505,-4.53253,-36.659,0.00167652,-0.00299867,0.00196112,0.00239021,-0.00371235,0.349021,0.00355077,0.0125316,916,519,-4.53254,36.659
-301,505,-4.56152,-37.5413,0.0019468,-0.00297611,0.00240526,0.00292687,-0.00395617,0.386926,0.00398871,0.0205871,923,519,-4.56155,37.5413
-294,505,-4.59167,-38.317,0,0,0,0,0,0,0,-1,930,519,-4.59169,38.3169
-287,505,-4.48944,-38.5596,0,0,0,0,0,0,0,-1,937,519,-4.48946,38.5596
-280,505,-2.79846,-27.7252,0,0,0,0,0,0,0,-1,944,519,-2.79845,27.7252
-273,505,-0.0680542,-9.44867,0,0,0,0,0,0,0,-1,951,519,-0.0680462,9.44866
-266,505,-0.036377,-9.07922,0,0,0,0,0,0,0,-1,958,519,-0.0364055,9.0792
-259,505,0.10321,-6.69824,0,0,0,0,0,0,0,-1,965,519,0.103235,6.69826
-252,505,6.82312,-15.6972,0,0,0,0,0,0,0,-1,972,519,6.82314,15.6972
-245,505,4.26727,-12.9861,0,0,0,0,0,0,0,-1,979,519,4.2673,12.9861
-238,505,1.67432,-11.2307,0,0,0,0,0,0,0,-1,986,519,1.67429,11.2307
-231,505,-0.958435,-8.3075,0,0,0,0,0,0,0,-1,993,519,-0.958421,8.30751
-224,505,-1.46399,-33.4399,0,0,0,0,0,0,0,-1,1000,519,-1.46397,33.4399
-217,505,-6.34302,-1.65533,0,0,0,0,0,0,0,-1,1007,519,-6.34299,1.65535
-210,505,-3.06128,-0.396301,0,0,0,0,0,0,0,-1,1014,519,-3.06129,0.396294
-203,505,-4.26465,2.03607,0,0,0,0,0,0,0,-1,1021,519,-4.26462,-2.03606
-196,505,-5.47595,4.27295,0,0,0,0,0,0,0,-1,1028,519,-5.47597,-4.27292
-189,505,1.51526,5.56207,0,0,0,0,0,0,0,-1,1035,519,1.51523,-5.56209
-182,505,2.97815,7.5097,0,0,0,0,0,0,0,-1,1042,519,2.97812,-7.5097
-175,505,-2.38416,-2.17548,0,0,0,0,0,0,0,-1,1049,519,-2.38411,2.1755
-168,505,0,0,0,0,0,0,0,0,0,-1,1056,519,0,0
-161,505,0,0,0,0,0,0,0,0,0,-1,1063,519,0,0
-154,505,0,0,0,0,0,0,0,0,0,-1,1070,519,0,0
-147,505,0,0,0,0,0,0,0,0,0,-1,1077,519,0,0
-140,505,0,0,0,0,0,0,0,0,0,-1,1084,519,0,0
-133,505,0,0,0,0,0,0,0,0,0,-1,1091,519,0,0
-126,505,0,0,0,0,0,0,0,0,0,-1,1098,519,0,0
-119,505,0,0,0,0,0,0,0,0,0,-1,1105,519,0,0
-112,505,0,0,0,0,0,0,0,0,0,-1,1112,519,0,0
-105,505,0,0,0,0,0,0,0,0,0,-1,1119,519,0,0
-98,505,0,0,0,0,0,0,0,0,0,-1,1126,519,0,0
-91,505,0,0,0,0,0,0,0,0,0,-1,1133,519,0,0
-84,505,0,0,0,0,0,0,0,0,0,-1,1140,519,0,0
-77,505,0,0,0,0,0,0,0,0,0,-1,1147,519,0,0
-70,505,0,0,0,0,0,0,0,0,0,-1,1154,519,0,0
-63,505,0,0,0,0,0,0,0,0,0,-1,1161,519,0,0
-56,505,0,0,0,0,0,0,0,0,0,-1,1168,519,0,0
-49,505,0,0,0,0,0,0,0,0,0,-1,1175,519,0,0
-42,505,0,0,0,0,0,0,0,0,0,-1,1182,519,0,0
-35,505,0,0,0,0,0,0,0,0,0,-1,1189,519,0,0
-28,505,0,0,0,0,0,0,0,0,0,-1,1196,519,0,0
-21,505,0,0,0,0,0,0,0,0,0,-1,1203,519,0,0
-14,505,0,0,0,0,0,0,0,0,0,-1,1210,519,0,0
-7,505,0,0,0,0,0,0,0,0,0,-1,1217,519,0,0
0,505,0,0,0,0,0,0,0,0,0,-1,1224,519,0,0
7,505,0,0,0,0,0,0,0,0,0,-1,1231,519,0,0
14,505,0,0,0,0,0,0,0,0,0,-1,1238,519,0,0
21,505,0,0,0,0,0,0,0,0,0,-1,1245,519,0,0
28,505,0,0,0,0,0,0,0,0,0,-1,1252,519,0,0
35,505,0,0,0,0,0,0,0,0,0,-1,1259,519,0,0
42,505,0,0,0,0,0,0,0,0,0,-1,1266,519,0,0
49,505,0,0,0,0,0,0,0,0,0,-1,1273,519,0,0
56,505,0,0,0,0,0,0,0,0,0,-1,1280,519,0,0
63,505,0,0,0,0,0,0,0,0,0,-1,1287,519,0,0
70,505,0,0,0,0,0,0,0,0,0,-1,1294,519,0,0
77,505,0,0,0,0,0,0,0,0,0,-1,1301,519,0,0
84,505,0,0,0,0,0,0,0,0,0,-1,1308,519,0,0
91,505,0,0,0,0,0,0,0,0,0,-1,1315,519,0,0
98,505,0,0,0,0,0,0,0,0,0,-1,1322,519,0,0
105,505,0,0,0,0,0,0,0,0,0,-1,1329,519,0,0
112,505,0,0,0,0,0,0,0,0,0,-1,1336,519,0,0
119,505,0,0,0,0,0,0,0,0,0,-1,1343,519,0,0
126,505,0,0,0,0,0,0,0,0,0,-1,1350,519,0,0
133,505,0,0,0,0,0,0,0,0,0,-1,1357,519,0,0
140,505,0,0,0,0,0,0,0,0,0,-1,1364,519,0,0
147,505,0,0,0,0,0,0,0,0,0,-1,1371,519,0,0
154,505,0,0,0,0,0,0,0,0,0,-1,1378,519,0,0
161,505,0,0,0,0,0,0,0,0,0,-1,1385,519,0,0
168,505,0,0,0,0,0,0,0,0,0,-1,1392,519,0,0
175,505,0,0,0,0,0,0,0,0,0,-1,1399,519,0,0
182,505,0,0,0,0,0,0,0,0,0,-1,1406,519,0,0
189,505,0,0,0,0,0,0,0,0,0,-1,1413,519,0,0
196,505,0,0,0,0,0,0,0,0,0,-1,1420,519,0,0
203,505,0,0,0,0,0,0,0,0,0,-1,1427,519,0,0
210,505,0,0,0,0,0,0,0,0,0,-1,1434,519,0,0
217,505,0,0,0,0,0,0,0,0,0,-1,1441,519,0,0
224,505,0,0,0,0,0,0,0,0,0,-1,1448,519,0,0
231,505,0,0,0,0,0,0,0,0,0,-1,1455,519,0,0
238,505,0,0,0,0,0,0,0,0,0,-1,1462,519,0,0
245,505,0,0,0,0,0,0,0,0,0,-1,1469,519,0,0
252,505,0,0,0,0,0,0,0,0,0,-1,1476,519,0,0
259,505,0,0,0,0,0,0,0,0,0,-1,1483,519,0,0
266,505,0,0,0,0,0,0,0,0,0,-1,1490,519,0,0
273,505,0,0,0,0,0,0,0,0,0,-1,1497,519,0,0
280,505,0,0,0,0,0,0,0,0,0,-1,1504,519,0,0
287,505,4.39478,0.499512,0,0,0,0,0,0,0,-1,1511,519,4.39476,-0.499506
294,505,4.88867,0.0822754,0,0,0,0,0,0,0,-1,1518,519,4.88871,-0.0822748
301,505,4.82153,-0.0704346,0,0,0,0,0,0,0,-1,1525,519,4.82156,0.0704312
308,505,4.67761,-0.29187,0,0,0,0,0,0,0,-1,1532,519,4.67762,0.291845
315,505,8.44055,-6.54352,0,0,0,0,0,0,0,-1,1539,519,8.44059,6.54349
322,505,4.78955,-0.594116,0,0,0,0,0,0,0,-1,1546,519,4.78957,0.594096
329,505,5.16321,0.434631,0,0,0,0,0,0,0,-1,1553,519,5.16316,-0.434614
336,505,4.94495,-0.920471,0,0,0,0,0,0,0,-1,1560,519,4.945,0.920495
343,505,5.01855,-1.4823,0,0,0,0,0,0,0,-1,1567,519,5.01851,1.48227
350,505,5.33154,-1.77838,0,0,0,0,0,0,0,-1,1574,519,5.33152,1.77838
357,505,5.56567,-1.9425,0,0,0,0,0,0,0,-1,1581,519,5.56562,1.94248
364,505,5.85205,-2.6579,0,0,0,0,0,0,0,-1,1588,519,5.85211,2.65788
371,505,5.88477,-7.00922,0,0,0,0,0,0,0,-1,1595,519,5.88473,7.00924
378,505,5.44104,-7.10162,0,0,0,0,0,0,0,-1,1602,519,5.44099,7.10162
385,505,6.64661,-8.65015,0,0,0,0,0,0,0,-1,1609,519,6.64662,8.65014
392,505,6.34558,-8.3429,0,0,0,0,0,0,0,-1,1616,519,6.34554,8.34288
399,505,7.45898,-9.70386,0,0,0,0,0,0,0,-1,1623,519,7.45899,9.70388
406,505,7.08679,-9.4928,0,0,0,0,0,0,0,-1,1630,519,7.08678,9.49278
413,505,8.4032,-14.0308,0,0,0,0,0,0,0,-1,1637,519,8.4032,14.0308
420,505,20.2031,-38.1733,0,0,0,0,0,0,0,-1,1644,519,20.2031,38.1733
427,505,20.1929,-37.199,0.00405796,0.00127204,-4.5745e-05,0.00405871,0.00127129,-0.0164142,0.00239717,0.0346893,1651,519,20.1929,37.199
434,505,20.1334,-36.2468,0.00319252,0.000995226,-0.000190678,0.00320894,0.000978802,-0.0859228,0.00189906,0.0143435,1658,519,20.1334,36.2468
441,505,20.0925,-35.3014,0.00257969,0.000891121,-0.000182405,0.00259917,0.000871642,-0.106389,0.00152751,0.0115928,1665,519,20.0926,35.3014
448,505,20.0297,-34.446,0.00211078,0.000856082,-5.92502e-05,0.00211357,0.00085329,-0.0470831,0.00122779,0.0117026,1672,519,20.0296,34.4461
455,505,19.9904,-33.5883,0.00174424,0.000930559,0.000101562,0.00175672,0.000918074,0.122319,0.00101459,0.0116167,1679,519,19.9904,33.5883
462,505,19.9507,-32.7249,0.001539,0.00112159,0.000324486,0.00171611,0.000944485,0.49961,0.000992468,0.0111481,1686,519,19.9507,32.7248
469,505,19.9048,-31.8477,0.00158094,0.00142657,0.000663877,0.0021721,0.000835405,0.727524,0.00126515,0.0111107,1693,519,19.9048,31.8477
476,505,19.8311,-30.9738,0.0016447,0.00178703,0.00102233,0.00274067,0.000691064,0.820147,0.00164585,0.0122107,1700,519,19.831,30.9738
483,505,19.8096,-30.0718,0.00181372,0.00212686,0.00141453,0.00339347,0.000547119,0.840517,0.00210379,0.0133777,1707,519,19.8095,30.0718
490,505,19.786,-29.1673,0.00187487,0.00232108,0.00167177,0.00378457,0.000411384,0.851734,0.00239771,0.0121325,1714,519,19.786,29.1673
497,505,19.7211,-28.2836,0.00206842,0.00248391,0.00190227,0.00418974,0.000362583,0.839787,0.00268049,0.01246,1721,519,19.721,28.2835
504,505,19.6292,-27.3486,0.00228697,0.00252954,0.00205409,0.00446591,0.000350588,0.814887,0.00286757,0.0133539,1728,519,19.6291,27.3486
511,505,19.5739,-26.438,0.00233216,0.00246798,0.00205395,0.00445514,0.000345,0.801923,0.00286203,0.014999,1735,519,19.5738,26.438
518,505,19.717,-25.5888,0.00211337,0.0022879,0.00181999,0.00402271,0.00037856,0.809354,0.00256495,0.0443049,1742,519,19.7171,25.5888
525,505,19.8348,-24.5706,0,0,0,0,0,0,0,-1,1749,519,19.8349,24.5706
532,505,19.2581,-23.6527,0,0,0,0,0,0,0,-1,1756,519,19.2581,23.6527
539,505,13.9879,-13.9018,0,0,0,0,0,0,0,-1,1763,519,13.988,13.9018
546,505,7.94946,-6.64539,0,0,0,0,0,0,0,-1,1770,519,7.94947,6.64539
553,505,2.82837,0.162659,0,0,0,0,0,0,0,-1,1777,519,2.82841,-0.162672
560,505,3.66223,-0.479797,0,0,0,0,0,0,0,-1,1784,519,3.66219,0.47982
567,505,4.65271,-0.950256,0,0,0,0,0,0,0,-1,1791,519,4.65274,0.95028
574,505,5.54443,-1.19977,0,0,0,0,0,0,0,-1,1798,519,5.54443,1.19974
581,505,0,0,0,0,0,0,0,0,0,-1,1805,519,0,0
588,505,0,0,0,0,0,0,0,0,0,-1,1812,519,0,0
595,505,0,0,0,0,0,0,0,0,0,-1,1819,519,0,0
602,505,0,0,0,0,0,0,0,0,0,-1,1826,519,0,0
609,505,0,0,0,0,0,0,0,0,0,-1,1833,519,0,0
616,505,0,0,0,0,0,0,0,0,0,-1,1840,519,0,0
623,505,0,0,0,0,0,0,0,0,0,-1,1847,519,0,0
630,505,0,0,0,0,0,0,0,0,0,-1,1854,519,0,0
637,505,0,0,0,0,0,0,0,0,0,-1,1861,519,0,0
644,505,0,0,0,0,0,0,0,0,0,-1,1868,519,0,0
651,505,0,0,0,0,0,0,0,0,0,-1,1875,519,0,0
658,505,0,0,0,0,0,0,0,0,0,-1,1882,519,0,0
665,505,0,0,0,0,0,0,0,0,0,-1,1889,519,0,0
672,505,0,0,0,0,0,0,0,0,0,-1,1896,519,0,0
679,505,0,0,0,0,0,0,0,0,0,-1,1903,519,0,0
686,505,0,0,0,0,0,0,0,0,0,-1,1910,519,0,0
693,505,0,0,0,0,0,0,0,0,0,-1,1917,519,0,0
700,505,0,0,0,0,0,0,0,0,0,-1,1924,519,0,0
707,505,0,0,0,0,0,0,0,0,0,-1,1931,519,0,0
714,505,0,0,0,0,0,0,0,0,0,-1,1938,519,0,0
721,505,0,0,0,0,0,0,0,0,0,-1,1945,519,0,0
728,505,0,0,0,0,0,0,0,0,0,-1,1952,519,0,0
735,505,0,0,0,0,0,0,0,0,0,-1,1959,519,0,0
742,505,0,0,0,0,0,0,0,0,0,-1,1966,519,0,0
749,505,0,0,0,0,0,0,0,0,0,-1,1973,519,0,0
756,505,0,0,0,0,0,0,0,0,0,-1,1980,519,0,0
763,505,0,0,0,0,0,0,0,0,0,-1,1987,519,0,0
770,505,0,0,0,0,0,0,0,0,0,-1,1994,519,0,0
777,505,0,0,0,0,0,0,0,0,0,-1,2001,519,0,0
784,505,0,0,0,0,0,0,0,0,0,-1,2008,519,0,0
791,505,0,0,0,0,0,0,0,0,0,-1,2015,519,0,0
798,505,0,0,0,0,0,0,0,0,0,-1,2022,519,0,0
805,505,0,0,0,0,0,0,0,0,0,-1,2029,519,0,0
812,505,0,0,0,0,0,0,0,0,0,-1,2036,519,0,0
-700,498,0,0,0,0,0,0,0,0,0,-1,524,526,0,0
-693,498,0,0,0,0,0,0,0,0,0,-1,531,526,0,0
-686,498,0,0,0,0,0,0,0,0,0,-1,538,526,0,0
-679,498,0,0,0,0,0,0,0,0,0,-1,545,526,0,0
-672,498,0,0,0,0,0,0,0,0,0,-1,552,526,0,0
-665,498,0,0,0,0,0,0,0,0,0,-1,559,526,0,0
-658,498,0,0,0,0,0,0,0,0,0,-1,566,526,0,0
-651,498,0,0,0,0,0,0,0,0,0,-1,573,526,0,0
-644,498,0,0,0,0,0,0,0,0,0,-1,580,526,0,0
-637,498,0,0,0,0,0,0,0,0,0,-1,587,526,0,0
-630,498,0,0,0,0,0,0,0,0,0,-1,594,526,0,0
-623,498,0,0,0,0,0,0,0,0,0,-1,601,526,0,0
-616,498,0,0,0,0,0,0,0,0,0,-1,608,526,0,0
-609,498,0,0,0,0,0,0,0,0,0,-1,615,526,0,0
-602,498,0,0,0,0,0,0,0,0,0,-1,622,526,0,0
-595,498,0,0,0,0,0,0,0,0,0,-1,629,526,0,0
-588,498,0,0,0,0,0,0,0,0,0,-1,636,526,0,0
-581,498,0,0,0,0,0,0,0,0,0,-1,643,526,0,0
-574,498,0,0,0,0,0,0,0,0,0,-1,650,526,0,0
-567,498,0,0,0,0,0,0,0,0,0,-1,657,526,0,0
-560,498,0,0,0,0,0,0,0,0,0,-1,664,526,0,0
-553,498,0,0,0,0,0,0,0,0,0,-1,671,526,0,0
-546,498,0,0,0,0,0,0,0,0,0,-1,678,526,0,0
-539,498,0,0,0,0,0,0,0,0,0,-1,685,526,0,0
-532,498,0,0,0,0,0,0,0,0,0,-1,692,526,0,0
-525,498,0,0,0,0,0,0,0,0,0,-1,699,526,0,0
-518,498,0,0,0,0,0,0,0,0,0,-1,706,526,0,0
-511,498,0,0,0,0,0,0,0,0,0,-1,713,526,0,0
-504,498,0,0,0,0,0,0,0,0,0,-1,720,526,0,0
-497,498,0,0,0,0,0,0,0,0,0,-1,727,526,0,0
-490,498,0,0,0,0,0,0,0,0,0,-1,734,526,0,0
-483,498,0,0,0,0,0,0,0,0,0,-1,741,526,0,0
-476,498,0,0,0,0,0,0,0,0,0,-1,748,526,0,0
-469,498,0,0,0,0,0,0,0,0,0,-1,755,526,0,0
-462,498,6.81024,1.15515,0,0,0,0,0,0,0,-1,762,526,6.81026,-1.15514
-455,498,3.25757,-3.0592,0,0,0,0,0,0,0,-1,769,526,3.25754,3.05921
-448,498,3.05939,-3.74298,0,0,0,0,0,0,0,-1,776,526,3.05939,3.74296
-441,498,2.77191,-6.08209,0,0,0,0,0,0,0,-1,783,526,2.77189,6.08207
-434,498,2.10681,-6.95929,0,0,0,0,0,0,0,-1,790,526,2.10682,6.9593
-427,498,-0.368042,-10.7726,0,0,0,0,0,0,0,-1,797,526,-0.36807,10.7726
-420,498,-1.05035,-10.5142,0,0,0,0,0,0,0,-1,804,526,-1.05034,10.5142
-413,498,-4.52112,-18.8354,0,0,0,0,0,0,0,-1,811,526,-4.52111,18.8354
-406,498,-4.55798,-23.8069,0,0,0,0,0,0,0,-1,818,526,-4.55801,23.807
-399,498,-4.63837,-24.9077,0.000301572,0.0150351,-0.00805004,0.0185803,-0.0032437,-1.15595,0.0135977,0.03211,825,526,-4.63835,24.9077
-392,498,-4.78802,-25.9546,0.000579801,0.0126088,-0.00715956,0.0159449,-0.00275628,-1.13475,0.0116578,0.0168347,832,526,-4.78801,25.9546
-385,498,-4.84161,-26.8826,0.000865357,0.0104071,-0.00621699,0.0134729,-0.00220036,-1.11267,0.00979806,0.0100988,839,526,-4.84163,26.8826
-378,498,-4.8905,-27.8061,0.00111282,0.00845481,-0.00529894,0.0112301,-0.0016625,-1.08833,0.00809801,0.0106812,846,526,-4.8905,27.8061
-371,498,-4.93188,-28.7197,0.00128929,0.00654204,-0.00442335,0.00905997,-0.00122864,-1.05331,0.00648841,0.0169128,853,526,-4.93186,28.7197
-364,498,-5.0116,-29.643,0.00138062,0.00467236,-0.00343456,0.00683504,-0.00078206,-1.00884,0.0048385,0.0169819,860,526,-5.0116,29.643
-357,498,-5.0401,-30.5466,0.00142762,0.00305984,-0.0024589,0.00483453,-0.000347069,-0.945629,0.00334472,0.0116875,867,526,-5.0401,30.5465
-350,498,-5.10223,-31.3981,0.00141594,0.00157794,-0.00151449,0.0030136,-1.97156e-05,-0.812114,0.00201567,0.0121923,874,526,-5.10221,31.3981
-343,498,-5.16528,-32.3306,0.00140546,0.000107235,-0.000614598,0.00165026,-0.000137564,-0.379046,0.00114878,0.0158874,881,526,-5.16527,32.3306
-336,498,-5.21503,-33.2366,0.00133933,-0.00121882,0.000248982,0.00136333,-0.00124283,0.096127,0.0015052,0.0204551,888,526,-5.21502,33.2366
-329,498,-5.22156,-34.0197,0.00126972,-0.00238091,0.00107308,0.00156178,-0.00267297,0.265733,0.00247284,0.0259915,895,526,-5.22154,34.0197
-322,498,-5.26892,-34.875,0.00125156,-0.00336461,0.0018351,0.00189218,-0.00400522,0.335865,0.00347696,0.0273961,902,526,-5.2689,34.875
-315,498,-5.36487,-35.7296,0.00145865,-0.00381477,0.00230649,0.0023251,-0.00468122,0.359348,0.00412064,0.0204547,909,526,-5.36487,35.7296
-308,498,-5.39136,-36.5811,0.00200993,-0.00414311,0.00260126,0.00296225,-0.00509543,0.350944,0.00470613,0.0235563,916,526,-5.39138,36.5811
-301,498,-5.38879,-37.5132,0,0,0,0,0,0,0,-1,923,526,-5.3888,37.5132
-294,498,-4.91913,-37.795,0,0,0,0,0,0,0,-1,930,526,-4.91914,37.7951
-287,498,-0.91394,-13.4327,0,0,0,0,0,0,0,-1,937,526,-0.913935,13.4327
-280,498,-0.341614,-8.66608,0,0,0,0,0,0,0,-1,944,526,-0.341589,8.66606
-273,498,-0.988892,-8.62921,0,0,0,0,0,0,0,-1,951,526,-0.988906,8.62922
-266,498,0.362488,-6.33545,0,0,0,0,0,0,0,-1,958,526,0.362478,6.33547
-259,498,10.9454,-17.3615,0,0,0,0,0,0,0,-1,965,526,10.9454,17.3614
-252,498,8.56586,-14.6886,0,0,0,0,0,0,0,-1,972,526,8.56584,14.6886
-245,498,5.97382,-11.928,0,0,0,0,0,0,0,-1,979,526,5.97381,11.928
-238,498,2.24841,-13.8145,0,0,0,0,0,0,0,-1,986,526,2.24838,13.8145
-231,498,0.665894,-10.4898,0,0,0,0,0,0,0,-1,993,526,0.665863,10.4898
-224,498,-2.11243,-4.76312,0,0,0,0,0,0,0,-1,1000,526,-2.11245,4.76314
-217,498,-3.82239,-1.42841,0,0,0,0,0,0,0,-1,1007,526,-3.82241,1.42843
-210,498,-1.80591,-0.358215,0,0,0,0,0,0,0,-1,1014,526,-1.8059,0.3582
-203,498,-3.17316,1.06641,0,0,0,0,0,0,0,-1,1021,526,-3.17313,-1.0664
-196,498,-0.103271,5.40527,0,0,0,0,0,0,0,-1,1028,526,-0.103285,-5.40528
-189,498,3.00256,6.47137,0,0,0,0,0,0,0,-1,1035,526,3.00256,-6.47139
-182,498,0,0,0,0,0,0,0,0,0,-1,1042,526,0,0
-175,498,0,0,0,0,0,0,0,0,0,-1,1049,526,0,0
-168,498,0,0,0,0,0,0,0,0,0,-1,1056,526,0,0
-161,498,0,0,0,0,0,0,0,0,0,-1,1063,526,0,0
-154,498,0,0,0,0,0,0,0,0,0,-1,1070,526,0,0
-147,498,0,0,0,0,0,0,0,0,0,-1,1077,526,0,0
-140,498,0,0,0,0,0,0,0,0,0,-1,1084,526,0,0
-133,498,0,0,0,0,0,0,0,0,0,-1,1091,526,0,0
-126,498,0,0,0,0,0,0,0,0,0,-1,1098,526,0,0
-119,498,0,0,0,0,0,0,0,0,0,-1,1105,526,0,0
-112,498,0,0,0,0,0,0,0,0,0,-1,1112,526,0,0
-105,498,0,0,0,0,0,0,0,0,0,-1,1119,526,0,0
-98,498,0,0,0,0,0,0,0,0,0,-1,1126,526,0,0
-91,498,0,0,0,0,0,0,0,0,0,-1,1133,526,0,0
-84,498,0,0,0,0,0,0,0,0,0,-1,1140,526,0,0
-77,498,0,0,0,0,0,0,0,0,0,-1,1147,526,0,0
-70,498,0,0,0,0,0,0,0,0,0,-1,1154,526,0,0
-63,498,0,0,0,0,0,0,0,0,0,-1,1161,526,0,0
-56,498,0,0,0,0,0,0,0,0,0,-1,1168,526,0,0
-49,498,0,0,0,0,0,0,0,0,0,-1,1175,526,0,0
-42,498,0,0,0,0,0,0,0,0,0,-1,1182,526,0,0
-35,498,0,0,0,0,0,0,0,0,0,-1,1189,526,0,0
-28,498,0,0,0,0,0,0,0,0,0,-1,1196,526,0,0
-21,498,0,0,0,0,0,0,0,0,0,-1,1203,526,0,0
-14,498,0,0,0,0,0,0,0,0,0,-1,1210,526,0,0
-7,498,0,0,0,0,0,0,0,0,0,-1,1217,526,0,0
0,498,0,0,0,0,0,0,0,0,0,-1,1224,526,0,0
7,498,0,0,0,0,0,0,0,0,0,-1,1231,526,0,0
14,498,0,0,0,0,0,0,0,0,0,-1,1238,526,0,0
21,498,0,0,0,0,0,0,0,0,0,-1,1245,526,0,0
28,498,0,0,0,0,0,0,0,0,0,-1,1252,526,0,0
35,498,0,0,0,0,0,0,0,0,0,-1,1259,526,0,0
42,498,0,0,0,0,0,0,0,0,0,-1,1266,526,0,0
49,498,0,0,0,0,0,0,0,0,0,-1,1273,526,0,0
56,498,0,0,0,0,0,0,0,0,0,-1,1280,526,0,0
63,498,0,0,0,0,0,0,0,0,0,-1,1287,526,0,0
70,498,0,0,0,0,0,0,0,0,0,-1,1294,526,0,0
77,498,0,0,0,0,0,0,0,0,0,-1,1301,526,0,0
84,498,0,0,0,0,0,0,0,0,0,-1,1308,526,0,0
91,498,0,0,0,0,0,0,0,0,0,-1,1315,526,0,0
98,498,0,0,0,0,0,0,0,0,0,-1,1322,526,0,0
105,498,0,0,0,0,0,0,0,0,0,-1,1329,526,0,0
112,498,0,0,0,0,0,0,0,0,0,-1,1336,526,0,0
119,498,0,0,0,0,0,0,0,0,0,-1,1343,526,0,0
126,498,0,0,0,0,0,0,0,0,0,-1,1350,526,0,0
133,498,0,0,0,0,0,0,0,0,0,-1,1357,526,0,0
140,498,0,0,0,0,0,0,0,0,0,-1,1364,526,0,0
147,498,0,0,0,0,0,0,0,0,0,-1,1371,526,0,0
154,498,0,0,0,0,0,0,0,0,0,-1,1378,526,0,0
161,498,0,0,0,0,0,0,0,0,0,-1,1385,526,0,0
168,498,0,0,0,0,0,0,0,0,0,-1,1392,526,0,0
175,498,0,0,0,0,0,0,0,0,0,-1,1399,526,0,0
182,498,0,0,0,0,0,0,0,0,0,-1,1406,526,0,0
189,498,0,0,0,0,0,0,0,0,0,-1,1413,526,0,0
196,498,0,0,0,0,0,0,0,0,0,-1,1420,526,0,0
203,498,0,0,0,0,0,0,0,0,0,-1,1427,526,0,0
210,498,0,0,0,0,0,0,0,0,0,-1,1434,526,0,0
217,498,0,0,0,0,0,0,0,0,0,-1,1441,526,0,0
224,498,0,0,0,0,0,0,0,0,0,-1,1448,526,0,0
231,498,0,0,0,0,0,0,0,0,0,-1,1455,526,0,0
238,498,0,0,0,0,0,0,0,0,0,-1,1462,526,0,0
245,498,0,0,0,0,0,0,0,0,0,-1,1469,526,0,0
252,498,0,0,0,0,0,0,0,0,0,-1,1476,526,0,0
259,498,0,0,0,0,0,0,0,0,0,-1,1483,526,0,0
266,498,0,0,0,0,0,0,0,0,0,-1,1490,526,0,0
273,498,0,0,0,0,0,0,0,0,0,-1,1497,526,0,0
280,498,0,0,0,0,0,0,0,0,0,-1,1504,526,0,0
287,498,0,0,0,0,0,0,0,0,0,-1,1511,526,0,0
294,498,0,0,0,0,0,0,0,0,0,-1,1518,526,0,0
301,498,0,0,0,0,0,0,0,0,0,-1,1525,526,0,0
308,498,4.77942,-0.293884,0,0,0,0,0,0,0,-1,1532,526,4.77939,0.293899
315,498,4.56091,-0.564148,0,0,0,0,0,0,0,-1,1539,526,4.56097,0.564142
322,498,4.52344,-0.447266,0,0,0,0,0,0,0,-1,1546,526,4.52341,0.447295
329,498,4.63232,-0.156982,0,0,0,0,0,0,0,-1,1553,526,4.63238,0.156991
336,498,5.22644,0.0925903,0,0,0,0,0,0,0,-1,1560,526,5.22648,-0.0926188
343,498,6.22607,-1.67615,0,0,0,0,0,0,0,-1,1567,526,6.22605,1.67617
350,498,6.19373,-1.59906,0,0,0,0,0,0,0,-1,1574,526,6.19367,1.59906
357,498,6.21472,-1.58929,0,0,0,0,0,0,0,-1,1581,526,6.21476,1.58927
364,498,5.73547,-1.2019,0,0,0,0,0,0,0,-1,1588,526,5.73547,1.20192
371,498,3.27087,-4.55334,0,0,0,0,0,0,0,-1,1595,526,3.27089,4.55332
378,498,8.42944,-4.70624,0,0,0,0,0,0,0,-1,1602,526,8.42942,4.70624
385,498,4.7793,-5.15314,0,0,0,0,0,0,0,-1,1609,526,4.77935,5.15311
392,498,9.12439,-8.57953,0,0,0,0,0,0,0,-1,1616,526,9.12443,8.57955
399,498,7.98938,-9.46021,0,0,0,0,0,0,0,-1,1623,526,7.98936,9.4602
406,498,7.58081,-9.26819,0,0,0,0,0,0,0,-1,1630,526,7.58085,9.26817
413,498,7.17236,-9.07611,0,0,0,0,0,0,0,-1,1637,526,7.17234,9.07614
420,498,11.4314,-16.1147,0,0,0,0,0,0,0,-1,1644,526,11.4313,16.1147
427,498,20.87,-37.2391,0,0,0,0,0,0,0,-1,1651,526,20.87,37.2391
434,498,20.8558,-36.2197,0.00347623,0.000538814,-0.000660634,0.00361797,0.000397075,-0.211346,0.00229112,0.043285,1658,526,20.8558,36.2197
441,498,20.9481,-35.2781,0.0026986,0.000377792,-0.000760204,0.00292544,0.000150951,-0.289983,0.00190197,0.014223,1665,526,20.9481,35.2781
448,498,20.9305,-34.374,0.00218169,0.000380409,-0.00067365,0.00240575,0.000156346,-0.3211,0.00155434,0.0113622,1672,526,20.9306,34.374
455,498,20.8726,-33.5198,0.0018196,0.000474407,-0.000550861,0.00201639,0.000277616,-0.343112,0.00126194,0.0150603,1679,526,20.8726,33.5198
462,498,20.8431,-32.6855,0.00156145,0.000681386,-0.000334003,0.00167385,0.000568981,-0.324632,0.00098277,0.0162409,1686,526,20.8431,32.6856
469,498,20.7955,-31.825,0.00149686,0.000975818,1.36358e-05,0.00149721,0.000975461,0.0261466,0.000877547,0.0137992,1693,526,20.7955,31.8249
476,498,20.7529,-30.9357,0.00153507,0.00132484,0.000394256,0.00183798,0.00102193,0.655121,0.00106338,0.0108616,1700,526,20.7529,30.9357
483,498,20.6847,-30.035,0.0016588,0.00163558,0.000793882,0.00244116,0.000853222,0.778085,0.00143052,0.00901858,1707,526,20.6847,30.035
490,498,20.6235,-29.1637,0.00165143,0.00185165,0.00105221,0.0028085,0.000694576,0.832827,0.0016891,0.0109914,1714,526,20.6235,29.1637
497,498,20.5731,-28.2452,0.00174878,0.0020757,0.00133738,0.00325957,0.000564908,0.846209,0.00201137,0.0128591,1721,526,20.5731,28.2452
504,498,20.5065,-27.3114,0.00186234,0.00207119,0.00153642,0.00350673,0.000426799,0.819329,0.00220934,0.0151927,1728,526,20.5065,27.3114
511,498,20.4532,-26.3971,0.00177455,0.00198114,0.00159082,0.00347201,0.000283674,0.817819,0.00222615,0.0174069,1735,526,20.4532,26.3971
518,498,20.5203,-25.454,0.00140271,0.00178175,0.00142834,0.00303309,0.000151375,0.851357,0.00197353,0.0250283,1742,526,20.5203,25.4541
525,498,20.2961,-24.5657,0.000796385,0.00137252,0.00111978,0.00224069,-7.17831e-05,0.911296,0.00151829,0.0450178,1749,526,20.2962,24.5658
532,498,20.2417,-23.6228,0,0,0,0,0,0,0,-1,1756,526,20.2417,23.6228
539,498,19.5333,-22.7072,0,0,0,0,0,0,0,-1,1763,526,19.5333,22.7072
546,498,10.2014,-8.47589,0,0,0,0,0,0,0,-1,1770,526,10.2014,8.47589
553,498,5.93958,-1.71448,0,0,0,0,0,0,0,-1,1777,526,5.93956,1.71447
560,498,3.69385,-0.615112,0,0,0,0,0,0,0,-1,1784,526,3.69381,0.615118
567,498,5.12695,-0.581604,0,0,0,0,0,0,0,-1,1791,526,5.12699,0.58159
574,498,3.88,0.0286255,0,0,0,0,0,0,0,-1,1798,526,3.87999,-0.0286535
581,498,10.8722,2.58551,0,0,0,0,0,0,0,-1,1805,526,10.8723,-2.58551
588,498,0,0,0,0,0,0,0,0,0,-1,1812,526,0,0
595,498,0,0,0,0,0,0,0,0,0,-1,1819,526,0,0
602,498,0,0,0,0,0,0,0,0,0,-1,1826,526,0,0
609,498,0,0,0,0,0,0,0,0,0,-1,1833,526,0,0
616,498,0,0,0,0,0,0,0,0,0,-1,1840,526,0,0
623,498,0,0,0,0,0,0,0,0,0,-1,1847,526,0,0
630,498,0,0,0,0,0,0,0,0,0,-1,1854,526,0,0
637,498,0,0,0,0,0,0,0,0,0,-1,1861,526,0,0
644,498,0,0,0,0,0,0,0,0,0,-1,1868,526,0,0
651,498,0,0,0,0,0,0,0,0,0,-1,1875,526,0,0
658,498,0,0,0,0,0,0,0,0,0,-1,1882,526,0,0
665,498,0,0,0,0,0,0,0,0,0,-1,1889,526,0,0
672,498,0,0,0,0,0,0,0,0,0,-1,1896,526,0,0
679,498,0,0,0,0,0,0,0,0,0,-1,1903,526,0,0
686,498,0,0,0,0,0,0,0,0,0,-1,1910,526,0,0
693,498,0,0,0,0,0,0,0,0,0,-1,1917,526,0,0
700,498,0,0,0,0,0,0,0,0,0,-1,1924,526,0,0
707,498,0,0,0,0,0,0,0,0,0,-1,1931,526,0,0
714,498,0,0,0,0,0,0,0,0,0,-1,1938,526,0,0
721,498,0,0,0,0,0,0,0,0,0,-1,1945,526,0,0
728,498,0,0,0,0,0,0,0,0,0,-1,1952,526,0,0
735,498,0,0,0,0,0,0,0,0,0,-1,1959,526,0,0
742,498,0,0,0,0,0,0,0,0,0,-1,1966,526,0,0
749,498,0,0,0,0,0,0,0,0,0,-1,1973,526,0,0
756,498,0,0,0,0,0,0,0,0,0,-1,1980,526,0,0
763,498,0,0,0,0,0,0,0,0,0,-1,1987,526,0,0
770,498,0,0,0,0,0,0,0,0,0,-1,1994,526,0,0
777,498,0,0,0,0,0,0,0,0,0,-1,2001,526,0,0
784,498,0,0,0,0,0,0,0,0,0,-1,2008,526,0,0
791,498,0,0,0,0,0,0,0,0,0,-1,2015,526,0,0
798,498,0,0,0,0,0,0,0,0,0,-1,2022,526,0,0
805,498,0,0,0,0,0,0,0,0,0,-1,2029,526,0,0
812,498,0,0,0,0,0,0,0,0,0,-1,2036,526,0,0
-700,491,0,0,0,0,0,0,0,0,0,-1,524,533,0,0
-693,491,0,0,0,0,0,0,0,0,0,-1,531,533,0,0
-686,491,0,0,0,0,0,0,0,0,0,-1,538,533,0,0
-679,491,0,0,0,0,0,0,0,0,0,-1,545,533,0,0
-672,491,0,0,0,0,0,0,0,0,0,-1,552,533,0,0
-665,491,0,0,0,0,0,0,0,0,0,-1,559,533,0,0
-658,491,0,0,0,0,0,0,0,0,0,-1,566,533,0,0
-651,491,0,0,0,0,0,0,0,0,0,-1,573,533,0,0
-644,491,0,0,0,0,0,0,0,0,0,-1,580,533,0,0
-637,491,0,0,0,0,0,0,0,0,0,-1,587,533,0,0
-630,491,0,0,0,0,0,0,0,0,0,-1,594,533,0,0
-623,491,0,0,0,0,0,0,0,0,0,-1,601,533,0,0
-616,491,0,0,0,0,0,0,0,0,0,-1,608,533,0,0
-609,491,0,0,0,0,0,0,0,0,0,-1,615,533,0,0
-602,491,0,0,0,0,0,0,0,0,0,-1,622,533,0,0
-595,491,0,0,0,0,0,0,0,0,0,-1,629,533,0,0
-588,491,0,0,0,0,0,0,0,0,0,-1,636,533,0,0
-581,491,0,0,0,0,0,0,0,0,0,-1,643,533,0,0
-574,491,0,0,0,0,0,0,0,0,0,-1,650,533,0,0
-567,491,0,0,0,0,0,0,0,0,0,-1,657,533,0,0
-560,491,0,0,0,0,0,0,0,0,0,-1,664,533,0,0
-553,491,0,0,0,0,0,0,0,0,0,-1,671,533,0,0
-546,491,0,0,0,0,0,0,0,0,0,-1,678,533,0,0
-539,491,0,0,0,0,0,0,0,0,0,-1,685,533,0,0
-532,491,0,0,0,0,0,0,0,0,0,-1,692,533,0,0
-525,491,0,0,0,0,0,0,0,0,0,-1,699,533,0,0
-518,491,0,0,0,0,0,0,0,0,0,-1,706,533,0,0
-511,491,0,0,0,0,0,0,0,0,0,-1,713,533,0,0
-504,491,0,0,0,0,0,0,0,0,0,-1,720,533,0,0
-497,491,0,0,0,0,0,0,0,0,0,-1,727,533,0,0
-490,491,0,0,0,0,0,0,0,0,0,-1,734,533,0,0
-483,491,0,0,0,0,0,0,0,0,0,-1,741,533,0,0
-476,491,0,0,0,0,0,0,0,0,0,-1,748,533,0,0
-469,491,-5.85913,4.55011,0,0,0,0,0,0,0,-1,755,533,-5.8591,-4.55009
-462,491,-9.93713,4.90381,0,0,0,0,0,0,0,-1,762,533,-9.93716,-4.9038
-455,491,1.9494,-0.27887,0,0,0,0,0,0,0,-1,769,533,1.94941,0.27885
-448,491,2.68909,-1.8999,0,0,0,0,0,0,0,-1,776,533,2.6891,1.89988
-441,491,3.46069,-3.51855,0,0,0,0,0,0,0,-1,783,533,3.46071,3.51854
-434,491,2.67145,-7.44061,0,0,0,0,0,0,0,-1,790,533,2.67146,7.44061
-427,491,2.27136,-8.34546,0,0,0,0,0,0,0,-1,797,533,2.27136,8.34546
-420,491,-6.21356,-21.6202,0,0,0,0,0,0,0,-1,804,533,-6.21355,21.6202
-413,491,-5.55365,-22.8505,0,0,0,0,0,0,0,-1,811,533,-5.55364,22.8505
-406,491,-5.51703,-24.0634,-0.000139346,0.0135955,-0.00668624,0.0163129,-0.00285666,-1.18478,0.0119419,0.0288051,818,533,-5.517,24.0634
-399,491,-5.56281,-25.1076,-1.34447e-05,0.011245,-0.00590916,0.0137771,-0.00254549,-1.16597,0.0101403,0.0147802,825,533,-5.5628,25.1076
-392,491,-5.67963,-26.0091,0.000261064,0.00918629,-0.00516615,0.0115504,-0.00210304,-1.14163,0.00848856,0.0118271,832,533,-5.67961,26.0091
-385,491,-5.71887,-26.8823,0.000589546,0.00734584,-0.00441041,0.0095232,-0.00158781,-1.11221,0.00693889,0.00994714,839,533,-5.71885,26.8823
-378,491,-5.75964,-27.7657,0.000892803,0.00566751,-0.00363196,0.00762649,-0.00106618,-1.07615,0.00547444,0.0140911,846,533,-5.75964,27.7657
-371,491,-5.81738,-28.6557,0.00113095,0.00401683,-0.00289608,0.00580953,-0.000661747,-1.01652,0.00411139,0.0154942,853,533,-5.81739,28.6557
-364,491,-5.88422,-29.583,0.00129249,0.00238072,-0.00205433,0.00396176,-0.000288563,-0.914857,0.00274243,0.0144454,860,533,-5.88423,29.583
-357,491,-5.91534,-30.4532,0.00143799,0.000980482,-0.00123221,0.0024625,-4.40236e-05,-0.69362,0.00165653,0.0127043,867,533,-5.91535,30.4532
-350,491,-5.97009,-31.2925,0.00153311,-0.000309662,-0.000446271,0.00163549,-0.000412048,-0.225524,0.00125052,0.0163119,874,533,-5.97009,31.2925
-343,491,-6.02032,-32.2104,0.00160085,-0.00157562,0.000315085,0.00163181,-0.00160657,0.0979219,0.0018697,0.028559,881,533,-6.0203,32.2105
-336,491,-6.10077,-33.139,0.00160053,-0.00277507,0.0010643,0.00184567,-0.00302021,0.226382,0.00283647,0.0287673,888,533,-6.10077,33.139
-329,491,-6.16217,-33.9405,0.00160449,-0.00384717,0.00179477,0.00214229,-0.00438498,0.291139,0.00384195,0.0267016,895,533,-6.16216,33.9405
-322,491,-6.16248,-34.7921,0.00164647,-0.0047741,0.00248866,0.00249812,-0.00562576,0.329722,0.00480479,0.0228604,902,533,-6.1625,34.7921
-315,491,-6.25098,-35.5858,0.00196149,-0.00501236,0.00276851,0.00292691,-0.00597778,0.335526,0.00524074,0.0220109,909,533,-6.25099,35.5858
-308,491,-6.23877,-36.6324,0,0,0,0,0,0,0,-1,916,533,-6.23876,36.6325
-301,491,-5.89954,-37.2919,0,0,0,0,0,0,0,-1,923,533,-5.89955,37.292
-294,491,-0.777283,-8.60913,0,0,0,0,0,0,0,-1,930,533,-0.777288,8.6091
-287,491,-0.26123,-8.69055,0,0,0,0,0,0,0,-1,937,533,-0.261204,8.69053
-280,491,0.2948,-5.99219,0,0,0,0,0,0,0,-1,944,533,0.294811,5.99221
-273,491,0.369995,-5.33691,0,0,0,0,0,0,0,-1,951,533,0.369985,5.33693
-266,491,1.1167,-5.0321,0,0,0,0,0,0,0,-1,958,533,1.11668,5.0321
-259,491,12.0862,-16.9615,0,0,0,0,0,0,0,-1,965,533,12.0862,16.9615
-252,491,9.72443,-13.8417,0,0,0,0,0,0,0,-1,972,533,9.72444,13.8418
-245,491,5.27258,-14.3619,0,0,0,0,0,0,0,-1,979,533,5.27255,14.3619
-238,491,3.65381,-11.1472,0,0,0,0,0,0,0,-1,986,533,3.6538,11.1472
-231,491,2.17719,-7.86835,0,0,0,0,0,0,0,-1,993,533,2.17719,7.86832
-224,491,0.554626,-4.61725,0,0,0,0,0,0,0,-1,1000,533,0.554608,4.61727
-217,491,-2.92743,-1.0766,0,0,0,0,0,0,0,-1,1007,533,-2.92743,1.07659
-210,491,-0.92395,0.374512,0,0,0,0,0,0,0,-1,1014,533,-0.923959,-0.374531
-203,491,0.417419,4.77161,0,0,0,0,0,0,0,-1,1021,533,0.417446,-4.77162
-196,491,0,0,0,0,0,0,0,0,0,-1,1028,533,0,0
-189,491,0,0,0,0,0,0,0,0,0,-1,1035,533,0,0
-182,491,0,0,0,0,0,0,0,0,0,-1,1042,533,0,0
-175,491,0,0,0,0,0,0,0,0,0,-1,1049,533,0,0
-168,491,0,0,0,0,0,0,0,0,0,-1,1056,533,0,0
-161,491,0,0,0,0,0,0,0,0,0,-1,1063,533,0,0
-154,491,0,0,0,0,0,0,0,0,0,-1,1070,533,0,0
-147,491,0,0,0,0,0,0,0,0,0,-1,1077,533,0,0
-140,491,0,0,0,0,0,0,0,0,0,-1,1084,533,0,0
-133,491,0,0,0,0,0,0,0,0,0,-1,1091,533,0,0
-126,491,0,0,0,0,0,0,0,0,0,-1,1098,533,0,0
-119,491,0,0,0,0,0,0,0,0,0,-1,1105,533,0,0
-112,491,0,0,0,0,0,0,0,0,0,-1,1112,533,0,0
-105,491,0,0,0,0,0,0,0,0,0,-1,1119,533,0,0
-98,491,0,0,0,0,0,0,0,0,0,-1,1126,533,0,0
-91,491,0,0,0,0,0,0,0,0,0,-1,1133,533,0,0
-84,491,0,0,0,0,0,0,0,0,0,-1,1140,533,0,0
-77,491,0,0,0,0,0,0,0,0,0,-1,1147,533,0,0
-70,491,0,0,0,0,0,0,0,0,0,-1,1154,533,0,0
-63,491,0,0,0,0,0,0,0,0,0,-1,1161,533,0,0
-56,491,0,0,0,0,0,0,0,0,0,-1,1168,533,0,0
-49,491,0,0,0,0,0,0,0,0,0,-1,1175,533,0,0
-42,491,0,0,0,0,0,0,0,0,0,-1,1182,533,0,0
-35,491,0,0,0,0,0,0,0,0,0,-1,1189,533,0,0
-28,491,0,0,0,0,0,0,0,0,0,-1,1196,533,0,0
-21,491,0,0,0,0,0,0,0,0,0,-1,1203,533,0,0
-14,491,0,0,0,0,0,0,0,0,0,-1,1210,533,0,0
-7,491,0,0,0,0,0,0,0,0,0,-1,1217,533,0,0
0,491,0,0,0,0,0,0,0,0,0,-1,1224,533,0,0
7,491,0,0,0,0,0,0,0,0,0,-1,1231,533,0,0
14,491,0,0,0,0,0,0,0,0,0,-1,1238,533,0,0
21,491,0,0,0,0,0,0,0,0,0,-1,1245,533,0,0
28,491,0,0,0,0,0,0,0,0,0,-1,1252,533,0,0
35,491,0,0,0,0,0,0,0,0,0,-1,1259,533,0,0
42,491,0,0,0,0,0,0,0,0,0,-1,1266,533,0,0
49,491,0,0,0,0,0,0,0,0,0,-1,1273,533,0,0
56,491,0,0,0,0,0,0,0,0,0,-1,1280,533,0,0
63,491,0,0,0,0,0,0,0,0,0,-1,1287,533,0,0
70,491,0,0,0,0,0,0,0,0,0,-1,1294,533,0,0
77,491,0,0,0,0,0,0,0,0,0,-1,1301,533,0,0
84,491,0,0,0,0,0,0,0,0,0,-1,1308,533,0,0
91,491,0,0,0,0,0,0,0,0,0,-1,1315,533,0,0
98,491,0,0,0,0,0,0,0,0,0,-1,1322,533,0,0
105,491,0,0,0,0,0,0,0,0,0,-1,1329,533,0,0
112,491,0,0,0,0,0,0,0,0,0,-1,1336,533,0,0
119,491,0,0,0,0,0,0,0,0,0,-1,1343,533,0,0
126,491,0,0,0,0,0,0,0,0,0,-1,1350,533,0,0
133,491,0,0,0,0,0,0,0,0,0,-1,1357,533,0,0
140,491,0,0,0,0,0,0,0,0,0,-1,1364,533,0,0
147,491,0,0,0,0,0,0,0,0,0,-1,1371,533,0,0
154,491,0,0,0,0,0,0,0,0,0,-1,1378,533,0,0
161,491,0,0,0,0,0,0,0,0,0,-1,1385,533,0,0
168,491,0,0,0,0,0,0,0,0,0,-1,1392,533,0,0
175,491,0,0,0,0,0,0,0,0,0,-1,1399,533,0,0
182,491,0,0,0,0,0,0,0,0,0,-1,1406,533,0,0
189,491,0,0,0,0,0,0,0,0,0,-1,1413,533,0,0
196,491,0,0,0,0,0,0,0,0,0,-1,1420,533,0,0
203,491,0,0,0,0,0,0,0,0,0,-1,1427,533,0,0
210,491,0,0,0,0,0,0,0,0,0,-1,1434,533,0,0
217,491,0,0,0,0,0,0,0,0,0,-1,1441,533,0,0
224,491,0,0,0,0,0,0,0,0,0,-1,1448,533,0,0
231,491,0,0,0,0,0,0,0,0,0,-1,1455,533,0,0
238,491,0,0,0,0,0,0,0,0,0,-1,1462,533,0,0
245,491,0,0,0,0,0,0,0,0,0,-1,1469,533,0,0
252,491,0,0,0,0,0,0,0,0,0,-1,1476,533,0,0
259,491,0,0,0,0,0,0,0,0,0,-1,1483,533,0,0
266,491,0,0,0,0,0,0,0,0,0,-1,1490,533,0,0
273,491,0,0,0,0,0,0,0,0,0,-1,1497,533,0,0
280,491,0,0,0,0,0,0,0,0,0,-1,1504,533,0,0
287,491,0,0,0,0,0,0,0,0,0,-1,1511,533,0,0
294,491,0,0,0,0,0,0,0,0,0,-1,1518,533,0,0
301,491,0,0,0,0,0,0,0,0,0,-1,1525,533,0,0
308,491,0,0,0,0,0,0,0,0,0,-1,1532,533,0,0
315,491,0,0,0,0,0,0,0,0,0,-1,1539,533,0,0
322,491,4.26331,-0.734314,0,0,0,0,0,0,0,-1,1546,533,4.26326,0.734324
329,491,4.25354,-0.783752,0,0,0,0,0,0,0,-1,1553,533,4.25359,0.783734
336,491,4.81604,-0.722107,0,0,0,0,0,0,0,-1,1560,533,4.81605,0.722115
343,491,6.14478,-1.44281,0,0,0,0,0,0,0,-1,1567,533,6.14474,1.44281
350,491,6.36353,-1.30792,0,0,0,0,0,0,0,-1,1574,533,6.36352,1.3079
357,491,6.69482,-1.06018,0,0,0,0,0,0,0,-1,1581,533,6.69489,1.06018
364,491,8.01086,-1.69604,0,0,0,0,0,0,0,-1,1588,533,8.01087,1.69607
371,491,8.2135,-0.539307,0,0,0,0,0,0,0,-1,1595,533,8.21348,0.53929
378,491,13.3589,2.17267,0,0,0,0,0,0,0,-1,1602,533,13.3589,-2.17264
385,491,8.08228,-4.95471,0,0,0,0,0,0,0,-1,1609,533,8.08227,4.95474
392,491,2.88721,-4.30988,0,0,0,0,0,0,0,-1,1616,533,2.88716,4.30986
399,491,8.95862,-8.55518,0,0,0,0,0,0,0,-1,1623,533,8.95864,8.55516
406,491,8.16541,-9.00806,0,0,0,0,0,0,0,-1,1630,533,8.16535,9.00807
413,491,5.31848,-3.7124,0,0,0,0,0,0,0,-1,1637,533,5.31849,3.7124
420,491,4.86389,-3.95892,0,0,0,0,0,0,0,-1,1644,533,4.86387,3.95893
427,491,11.5096,-15.2742,0,0,0,0,0,0,0,-1,1651,533,11.5096,15.2742
434,491,21.6489,-36.197,0,0,0,0,0,0,0,-1,1658,533,21.6489,36.197
441,491,21.8176,-34.972,0.00273967,-0.000261564,-0.00136228,0.00326579,-0.000787684,-0.368558,0.00248177,0.0389133,1665,533,21.8177,34.972
448,491,21.7794,-34.3633,0.00214503,-0.000112046,-0.00129048,0.00273082,-0.000697837,-0.426121,0.00209232,0.0228061,1672,533,21.7795,34.3633
455,491,21.7529,-33.4736,0.0017876,5.81208e-05,-0.00118991,0.0023938,-0.00054808,-0.471179,0.00180649,0.016354,1679,533,21.753,33.4736
462,491,21.7286,-32.618,0.00144897,0.000297444,-0.000965042,0.00199695,-0.000250541,-0.516433,0.00142219,0.0163387,1686,533,21.7287,32.618
469,491,21.6686,-31.7649,0.00123296,0.000571104,-0.000602043,0.00158903,0.000215031,-0.534102,0.000995448,0.0152561,1693,533,21.6686,31.7649
476,491,21.6332,-30.8674,0.00124554,0.00088688,-0.000191321,0.00132844,0.000803983,-0.408869,0.000772612,0.0110956,1700,533,21.6332,30.8674
483,491,21.5808,-29.9651,0.00133306,0.00115451,0.000216367,0.00147785,0.00100973,0.589735,0.000872126,0.012704,1707,533,21.5808,29.9651
490,491,21.5131,-29.1102,0.00129474,0.00139056,0.000493327,0.0018383,0.000847003,0.833802,0.00106243,0.0116761,1714,533,21.5131,29.1103
497,491,21.451,-28.2109,0.00133451,0.0016642,0.000844073,0.00235938,0.000639335,0.881835,0.00140901,0.012833,1721,533,21.4511,28.2109
504,491,21.4246,-27.2839,0.00138921,0.00161434,0.00109719,0.00260472,0.000398834,0.836516,0.00161999,0.0144545,1728,533,21.4246,27.2839
511,491,21.35,-26.3536,0.00124615,0.00151492,0.00122126,0.00260917,0.000151906,0.840197,0.00169109,0.0145119,1735,533,21.35,26.3536
518,491,21.3011,-25.4523,0.00083204,0.00133808,0.00116416,0.0022764,-0.000106281,0.892404,0.00155424,0.0115528,1742,533,21.3012,25.4522
525,491,21.2793,-24.5377,0.000255249,0.00101107,0.00100935,0.00171094,-0.000444615,0.964526,0.00131414,0.0119239,1749,533,21.2793,24.5377
532,491,21.2477,-23.6641,-0.000559391,0.000641628,0.000760925,0.00101046,-0.000928221,1.11945,0.00111963,0.0292455,1756,533,21.2476,23.6641
539,491,20.9868,-22.902,-0.00178024,0.000282268,0.000257199,0.000313858,-0.00181183,1.44859,0.00132495,0.0488377,1763,533,20.9868,22.902
546,491,20.4917,-21.8658,0,0,0,0,0,0,0,-1,1770,533,20.4917,21.8658
553,491,10.5021,-7.77869,0,0,0,0,0,0,0,-1,1777,533,10.502,7.77871
560,491,6.28455,-1.43585,0,0,0,0,0,0,0,-1,1784,533,6.28458,1.43586
567,491,5.67651,-1.3562,0,0,0,0,0,0,0,-1,1791,533,5.67649,1.3562
574,491,8.0719,1.58325,0,0,0,0,0,0,0,-1,1798,533,8.07195,-1.58326
581,491,9.44812,1.60931,0,0,0,0,0,0,0,-1,1805,533,9.44808,-1.60933
588,491,11.0497,1.54962,0,0,0,0,0,0,0,-1,1812,533,11.0496,-1.54963
595,491,0,0,0,0,0,0,0,0,0,-1,1819,533,0,0
602,491,0,0,0,0,0,0,0,0,0,-1,1826,533,0,0
609,491,0,0,0,0,0,0,0,0,0,-1,1833,533,0,0
616,491,0,0,0,0,0,0,0,0,0,-1,1840,533,0,0
623,491,0,0,0,0,0,0,0,0,0,-1,1847,533,0,0
630,491,0,0,0,0,0,0,0,0,0,-1,1854,533,0,0
637,491,0,0,0,0,0,0,0,0,0,-1,1861,533,0,0
644,491,0,0,0,0,0,0,0,0,0,-1,1868,533,0,0
651,491,0,0,0,0,0,0,0,0,0,-1,1875,533,0,0
658,491,0,0,0,0,0,0,0,0,0,-1,1882,533,0,0
665,491,0,0,0,0,0,0,0,0,0,-1,1889,533,0,0
672,491,0,0,0,0,0,0,0,0,0,-1,1896,533,0,0
679,491,0,0,0,0,0,0,0,0,0,-1,1903,533,0,0
686,491,0,0,0,0,0,0,0,0,0,-1,1910,533,0,0
693,491,0,0,0,0,0,0,0,0,0,-1,1917,533,0,0
700,491,0,0,0,0,0,0,0,0,0,-1,1924,533,0,0
707,491,0,0,0,0,0,0,0,0,0,-1,1931,533,0,0
714,491,0,0,0,0,0,0,0,0,0,-1,1938,533,0,0
721,491,0,0,0,0,0,0,0,0,0,-1,1945,533,0,0
728,491,0,0,0,0,0,0,0,0,0,-1,1952,533,0,0
735,491,0,0,0,0,0,0,0,0,0,-1,1959,533,0,0
742,491,0,0,0,0,0,0,0,0,0,-1,1966,533,0,0
749,491,0,0,0,0,0,0,0,0,0,-1,1973,533,0,0
756,491,0,0,0,0,0,0,0,0,0,-1,1980,533,0,0
763,491,0,0,0,0,0,0,0,0,0,-1,1987,533,0,0
770,491,0,0,0,0,0,0,0,0,0,-1,1994,533,0,0
777,491,0,0,0,0,0,0,0,0,0,-1,2001,533,0,0
784,491,0,0,0,0,0,0,0,0,0,-1,2008,533,0,0
791,491,0,0,0,0,0,0,0,0,0,-1,2015,533,0,0
798,491,0,0,0,0,0,0,0,0,0,-1,2022,533,0,0
805,491,0,0,0,0,0,0,0,0,0,-1,2029,533,0,0
812,491,0,0,0,0,0,0,0,0,0,-1,2036,533,0,0
-700,484,0,0,0,0,0,0,0,0,0,-1,524,540,0,0
-693,484,0,0,0,0,0,0,0,0,0,-1,531,540,0,0
-686,484,0,0,0,0,0,0,0,0,0,-1,538,540,0,0
-679,484,0,0,0,0,0,0,0,0,0,-1,545,540,0,0
-672,484,0,0,0,0,0,0,0,0,0,-1,552,540,0,0
-665,484,0,0,0,0,0,0,0,0,0,-1,559,540,0,0
-658,484,0,0,0,0,0,0,0,0,0,-1,566,540,0,0
-651,484,0,0,0,0,0,0,0,0,0,-1,573,540,0,0
-644,484,0,0,0,0,0,0,0,0,0,-1,580,540,0,0
-637,484,0,0,0,0,0,0,0,0,0,-1,587,540,0,0
-630,484,0,0,0,0,0,0,0,0,0,-1,594,540,0,0
-623,484,0,0,0,0,0,0,0,0,0,-1,601,540,0,0
-616,484,0,0,0,0,0,0,0,0,0,-1,608,540,0,0
-609,484,0,0,0,0,0,0,0,0,0,-1,615,540,0,0
-602,484,0,0,0,0,0,0,0,0,0,-1,622,540,0,0
-595,484,0,0,0,0,0,0,0,0,0,-1,629,540,0,0
-588,484,0,0,0,0,0,0,0,0,0,-1,636,540,0,0
-581,484,0,0,0,0,0,0,0,0,0,-1,643,540,0,0
-574,484,0,0,0,0,0,0,0,0,0,-1,650,540,0,0
-567,484,0,0,0,0,0,0,0,0,0,-1,657,540,0,0
-560,484,0,0,0,0,0,0,0,0,0,-1,664,540,0,0
-553,484,0,0,0,0,0,0,0,0,0,-1,671,540,0,0
-546,484,0,0,0,0,0,0,0,0,0,-1,678,540,0,0
-539,484,0,0,0,0,0,0,0,0,0,-1,685,540,0,0
-532,484,0,0,0,0,0,0,0,0,0,-1,692,540,0,0
-525,484,0,0,0,0,0,0,0,0,0,-1,699,540,0,0
-518,484,0,0,0,0,0,0,0,0,0,-1,706,540,0,0
-511,484,0,0,0,0,0,0,0,0,0,-1,713,540,0,0
-504,484,0,0,0,0,0,0,0,0,0,-1,720,540,0,0
-497,484,0,0,0,0,0,0,0,0,0,-1,727,540,0,0
-490,484,0,0,0,0,0,0,0,0,0,-1,734,540,0,0
-483,484,0,0,0,0,0,0,0,0,0,-1,741,540,0,0
-476,484,-8.46552,1.44702,0,0,0,0,0,0,0,-1,748,540,-8.46554,-1.44702
-469,484,-7.82343,1.70355,0,0,0,0,0,0,0,-1,755,540,-7.82345,-1.70355
-462,484,-8.36987,3.08612,0,0,0,0,0,0,0,-1,762,540,-8.36988,-3.0861
-455,484,-6.77197,2.07092,0,0,0,0,0,0,0,-1,769,540,-6.77197,-2.07094
-448,484,3.54895,-1.40106,0,0,0,0,0,0,0,-1,776,540,3.54897,1.40106
-441,484,4.28906,-3.05884,0,0,0,0,0,0,0,-1,783,540,4.28905,3.05883
-434,484,-2.17548,-5.07245,0,0,0,0,0,0,0,-1,790,540,-2.17546,5.07243
-427,484,-6.19489,-20.6364,0,0,0,0,0,0,0,-1,797,540,-6.19486,20.6364
-420,484,-6.18146,-21.8563,0,0,0,0,0,0,0,-1,804,540,-6.18146,21.8563
-413,484,-6.23468,-22.9707,-0.000373391,0.0122443,-0.00536898,0.0142196,-0.00234872,-1.21825,0.0103518,0.0361694,811,540,-6.23469,22.9707
-406,484,-6.35126,-24.0542,-0.000116819,0.0100942,-0.00489876,0.0120642,-0.00208691,-1.18843,0.00882114,0.0191363,818,540,-6.35128,24.0542
-399,484,-6.4967,-25.0383,4.40831e-05,0.00806748,-0.00423028,0.00988579,-0.00177423,-1.16484,0.00725462,0.0166483,825,540,-6.49671,25.0383
-392,484,-6.58264,-25.9299,0.000328615,0.00628901,-0.00359825,0.00798096,-0.00136334,-1.13126,0.00582848,0.0199065,832,540,-6.58265,25.9299
-385,484,-6.63232,-26.8342,0.00068562,0.00471997,-0.00297841,0.0063,-0.000894417,-1.08305,0.00452769,0.0146008,839,540,-6.63231,26.8342
-378,484,-6.66852,-27.7252,0.00101158,0.00326125,-0.00230329,0.00469969,-0.000426861,-1.01254,0.00328467,0.0152886,846,540,-6.66849,27.7252
-371,484,-6.72974,-28.5936,0.00127922,0.00185352,-0.00167037,0.00326124,-0.000128497,-0.870521,0.00221823,0.016786,853,540,-6.72976,28.5936
-364,484,-6.78632,-29.4868,0.00146471,0.000479294,-0.000955549,0.0020471,-0.000103095,-0.547362,0.00140036,0.0122981,860,540,-6.7863,29.4868
-357,484,-6.82111,-30.3562,0.00164229,-0.000667831,-0.000279959,0.00167573,-0.000701274,-0.118895,0.00141028,0.0132878,867,540,-6.82111,30.3562
-350,484,-6.89325,-31.2197,0.00176395,-0.00170827,0.000342024,0.00179732,-0.00174164,0.0972576,0.0020433,0.0153868,874,540,-6.89327,31.2197
-343,484,-6.92242,-32.1368,0.00181208,-0.00267512,0.000953773,0.00200639,-0.00286943,0.200981,0.00282972,0.0239908,881,540,-6.92243,32.1368
-336,484,-6.95996,-33.005,0.0017729,-0.00366191,0.00157332,0.0021955,-0.00408451,0.26241,0.00368004,0.0261761,888,540,-6.95993,33.005
-329,484,-7.03931,-33.8099,0.00175876,-0.00456852,0.00219126,0.00244353,-0.00525328,0.302884,0.00454138,0.0358322,895,540,-7.03933,33.8099
-322,484,-6.97821,-34.6998,0,0,0,0,0,0,0,-1,902,540,-6.9782,34.6997
-315,484,-6.90869,-35.5856,0,0,0,0,0,0,0,-1,909,540,-6.90868,35.5856
-308,484,-1.32623,-8.9317,0,0,0,0,0,0,0,-1,916,540,-1.32626,8.93173
-301,484,-1.33453,-6.52667,0,0,0,0,0,0,0,-1,923,540,-1.33454,6.5267
-294,484,-1.61224,-8.17059,0,0,0,0,0,0,0,-1,930,540,-1.61227,8.17058
-287,484,-0.715759,-5.62103,0,0,0,0,0,0,0,-1,937,540,-0.715772,5.62105
-280,484,2.66742,-1.6795,0,0,0,0,0,0,0,-1,944,540,2.6674,1.67949
-273,484,2.53125,-2.22296,0,0,0,0,0,0,0,-1,951,540,2.53128,2.22295
-266,484,2.6778,-2.72058,0,0,0,0,0,0,0,-1,958,540,2.6778,2.72061
-259,484,2.41718,-2.59894,0,0,0,0,0,0,0,-1,965,540,2.41717,2.59892
-252,484,10.6069,-11.696,0,0,0,0,0,0,0,-1,972,540,10.6069,11.696
-245,484,6.34106,-11.6107,0,0,0,0,0,0,0,-1,979,540,6.34104,11.6107
-238,484,4.89319,-8.54059,0,0,0,0,0,0,0,-1,986,540,4.89321,8.5406
-231,484,3.47675,-5.22064,0,0,0,0,0,0,0,-1,993,540,3.47676,5.22067
-224,484,1.71344,-2.03473,0,0,0,0,0,0,0,-1,1000,540,1.71342,2.03472
-217,484,-0.745056,1.17358,0,0,0,0,0,0,0,-1,1007,540,-0.745043,-1.17359
-210,484,0,0,0,0,0,0,0,0,0,-1,1014,540,0,0
-203,484,0,0,0,0,0,0,0,0,0,-1,1021,540,0,0
-196,484,0,0,0,0,0,0,0,0,0,-1,1028,540,0,0
-189,484,0,0,0,0,0,0,0,0,0,-1,1035,540,0,0
-182,484,0,0,0,0,0,0,0,0,0,-1,1042,540,0,0
-175,484,0,0,0,0,0,0,0,0,0,-1,1049,540,0,0
-168,484,0,0,0,0,0,0,0,0,0,-1,1056,540,0,0
-161,484,0,0,0,0,0,0,0,0,0,-1,1063,540,0,0
-154,484,0,0,0,0,0,0,0,0,0,-1,1070,540,0,0
-147,484,0,0,0,0,0,0,0,0,0,-1,1077,540,0,0
-140,484,0,0,0,0,0,0,0,0,0,-1,1084,540,0,0
-133,484,0,0,0,0,0,0,0,0,0,-1,1091,540,0,0
-126,484,0,0,0,0,0,0,0,0,0,-1,1098,540,0,0
-119,484,0,0,0,0,0,0,0,0,0,-1,1105,540,0,0
-112,484,0,0,0,0,0,0,0,0,0,-1,1112,540,0,0
-105,484,0,0,0,0,0,0,0,0,0,-1,1119,540,0,0
-98,484,0,0,0,0,0,0,0,0,0,-1,1126,540,0,0
-91,484,0,0,0,0,0,0,0,0,0,-1,1133,540,0,0
-84,484,0,0,0,0,0,0,0,0,0,-1,1140,540,0,0
-77,484,0,0,0,0,0,0,0,0,0,-1,1147,540,0,0
-70,484,0,0,0,0,0,0,0,0,0,-1,1154,540,0,0
-63,484,0,0,0,0,0,0,0,0,0,-1,1161,540,0,0
-56,484,0,0,0,0,0,0,0,0,0,-1,1168,540,0,0
-49,484,0,0,0,0,0,0,0,0,0,-1,1175,540,0,0
-42,484,0,0,0,0,0,0,0,0,0,-1,1182,540,0,0
-35,484,0,0,0,0,0,0,0,0,0,-1,1189,540,0,0
-28,484,0,0,0,0,0,0,0,0,0,-1,1196,540,0,0
-21,484,0,0,0,0,0,0,0,0,0,-1,1203,540,0,0
-14,484,0,0,0,0,0,0,0,0,0,-1,1210,540,0,0
-7,484,0,0,0,0,0,0,0,0,0,-1,1217,540,0,0
0,484,0,0,0,0,0,0,0,0,0,-1,1224,540,0,0
7,484,0,0,0,0,0,0,0,0,0,-1,1231,540,0,0
14,484,0,0,0,0,0,0,0,0,0,-1,1238,540,0,0
21,484,0,0,0,0,0,0,0,0,0,-1,1245,540,0,0
28,484,0,0,0,0,0,0,0,0,0,-1,1252,540,0,0
35,484,0,0,0,0,0,0,0,0,0,-1,1259,540,0,0
42,484,0,0,0,0,0,0,0,0,0,-1,1266,540,0,0
49,484,0,0,0,0,0,0,0,0,0,-1,1273,540,0,0
56,484,0,0,0,0,0,0,0,0,0,-1,1280,540,0,0
63,484,0,0,0,0,0,0,0,0,0,-1,1287,540,0,0
70,484,0,0,0,0,0,0,0,0,0,-1,1294,540,0,0
77,484,0,0,0,0,0,0,0,0,0,-1,1301,540,0,0
84,484,0,0,0,0,0,0,0,0,0,-1,1308,540,0,0
91,484,0,0,0,0,0,0,0,0,0,-1,1315,540,0,0
98,484,0,0,0,0,0,0,0,0,0,-1,1322,540,0,0
105,484,0,0,0,0,0,0,0,0,0,-1,1329,540,0,0
112,484,0,0,0,0,0,0,0,0,0,-1,1336,540,0,0
119,484,0,0,0,0,0,0,0,0,0,-1,1343,540,0,0
126,484,0,0,0,0,0,0,0,0,0,-1,1350,540,0,0
133,484,0,0,0,0,0,0,0,0,0,-1,1357,540,0,0
140,484,0,0,0,0,0,0,0,0,0,-1,1364,540,0,0
147,484,0,0,0,0,0,0,0,0,0,-1,1371,540,0,0
154,484,0,0,0,0,0,0,0,0,0,-1,1378,540,0,0
161,484,0,0,0,0,0,0,0,0,0,-1,1385,540,0,0
168,484,0,0,0,0,0,0,0,0,0,-1,1392,540,0,0
175,484,0,0,0,0,0,0,0,0,0,-1,1399,540,0,0
182,484,0,0,0,0,0,0,0,0,0,-1,1406,540,0,0
189,484,0,0,0,0,0,0,0,0,0,-1,1413,540,0,0
196,484,0,0,0,0,0,0,0,0,0,-1,1420,540,0,0
203,484,0,0,0,0,0,0,0,0,0,-1,1427,540,0,0
210,484,0,0,0,0,0,0,0,0,0,-1,1434,540,0,0
217,484,0,0,0,0,0,0,0,0,0,-1,1441,540,0,0
224,484,0,0,0,0,0,0,0,0,0,-1,1448,540,0,0
231,484,0,0,0,0,0,0,0,0,0,-1,1455,540,0,0
238,484,0,0,0,0,0,0,0,0,0,-1,1462,540,0,0
245,484,0,0,0,0,0,0,0,0,0,-1,1469,540,0,0
252,484,0,0,0,0,0,0,0,0,0,-1,1476,540,0,0
259,484,0,0,0,0,0,0,0,0,0,-1,1483,540,0,0
266,484,0,0,0,0,0,0,0,0,0,-1,1490,540,0,0
273,484,0,0,0,0,0,0,0,0,0,-1,1497,540,0,0
280,484,0,0,0,0,0,0,0,0,0,-1,1504,540,0,0
287,484,0,0,0,0,0,0,0,0,0,-1,1511,540,0,0
294,484,0,0,0,0,0,0,0,0,0,-1,1518,540,0,0
301,484,0,0,0,0,0,0,0,0,0,-1,1525,540,0,0
308,484,0,0,0,0,0,0,0,0,0,-1,1532,540,0,0
315,484,0,0,0,0,0,0,0,0,0,-1,1539,540,0,0
322,484,0,0,0,0,0,0,0,0,0,-1,1546,540,0,0
329,484,0,0,0,0,0,0,0,0,0,-1,1553,540,0,0
336,484,4.38708,-1.64136,0,0,0,0,0,0,0,-1,1560,540,4.38704,1.64138
343,484,7.57996,-1.05457,0,0,0,0,0,0,0,-1,1567,540,7.57995,1.05454
350,484,8.10425,-1.18878,0,0,0,0,0,0,0,-1,1574,540,8.1043,1.18877
357,484,7.74902,-3.80286,0,0,0,0,0,0,0,-1,1581,540,7.74901,3.80287
364,484,6.31262,-3.87213,0,0,0,0,0,0,0,-1,1588,540,6.31263,3.87215
371,484,7.21008,0.973511,0,0,0,0,0,0,0,-1,1595,540,7.21014,-0.973541
378,484,11.0563,1.5014,0,0,0,0,0,0,0,-1,1602,540,11.0563,-1.5014
385,484,14.3469,2.5545,0,0,0,0,0,0,0,-1,1609,540,14.3469,-2.55453
392,484,7.39453,-4.95026,0,0,0,0,0,0,0,-1,1616,540,7.39448,4.95023
399,484,7.14417,-2.5639,0,0,0,0,0,0,0,-1,1623,540,7.14417,2.56391
406,484,7.88953,-2.47321,0,0,0,0,0,0,0,-1,1630,540,7.88954,2.47323
413,484,4.4895,-1.08673,0,0,0,0,0,0,0,-1,1637,540,4.48952,1.08674
420,484,4.50012,-2.11255,0,0,0,0,0,0,0,-1,1644,540,4.50012,2.11256
427,484,5.28601,-3.54053,0,0,0,0,0,0,0,-1,1651,540,5.28599,3.54051
434,484,11.1488,-13.5359,0,0,0,0,0,0,0,-1,1658,540,11.1489,13.5359
441,484,22.6024,-34.5848,0,0,0,0,0,0,0,-1,1665,540,22.6024,34.5848
448,484,22.5973,-34.434,0,0,0,0,0,0,0,-1,1672,540,22.5973,34.4339
455,484,22.65,-33.4603,0,0,0,0,0,0,0,-1,1679,540,22.65,33.4603
462,484,22.6351,-32.5628,0.00148734,-2.53127e-05,-0.00167617,0.00256992,-0.00110789,-0.573463,0.0021786,0.0312456,1686,540,22.6351,32.5628
469,484,22.5959,-31.7003,0.00103724,0.000255791,-0.00121456,0.00192238,-0.000629342,-0.629775,0.00153499,0.0198269,1693,540,22.5959,31.7003
476,484,22.5122,-30.7568,0.00100135,0.000566874,-0.000695329,0.00151259,5.56389e-05,-0.633988,0.000990368,0.0186324,1700,540,22.5122,30.7568
483,484,22.4644,-29.8806,0.00104436,0.000811429,-0.000231292,0.00118686,0.000668936,-0.552157,0.000687078,0.0158361,1707,540,22.4644,29.8806
490,484,22.4218,-29.06,0.000996507,0.00109862,0.000111531,0.00117022,0.000924902,1.00005,0.000712593,0.0153142,1714,540,22.4218,29.06
497,484,22.3557,-28.1639,0.000994916,0.00142229,0.000543382,0.00179249,0.000624714,0.972737,0.00105061,0.0156417,1721,540,22.3557,28.1639
504,484,22.3125,-27.2336,0.0010058,0.00132871,0.000839226,0.00202187,0.000312637,0.880431,0.00125673,0.0171403,1728,540,22.3125,27.2336
511,484,22.2871,-26.3091,0.000846542,0.00120956,0.00101354,0.00205772,-1.61654e-06,0.874,0.00137235,0.0211422,1735,540,22.2871,26.3091
518,484,22.2233,-25.4194,0.000457812,0.00104273,0.00103495,0.00182575,-0.000325213,0.923098,0.0013388,0.0179931,1742,540,22.2232,25.4193
525,484,22.1549,-24.5139,-3.16859e-05,0.000781424,0.000970575,0.00142715,-0.000677415,0.983736,0.00124051,0.014953,1749,540,22.1549,24.5139
532,484,22.1229,-23.5734,-0.000656493,0.000567579,0.000853559,0.00100585,-0.00109477,1.09643,0.00121316,0.0166336,1756,540,22.123,23.5733
539,484,22.0072,-22.6046,-0.00151399,0.000395498,0.000605385,0.000571252,-0.00168975,1.28825,0.00135759,0.0432298,1763,540,22.0073,22.6046
546,484,21.8911,-21.5,0,0,0,0,0,0,0,-1,1770,540,21.8911,21.5
553,484,12.4246,-8.96423,0,0,0,0,0,0,0,-1,1777,540,12.4246,8.96422
560,484,10.0549,-5.47931,0,0,0,0,0,0,0,-1,1784,540,10.055,5.47928
567,484,7.78223,-1.38312,0,0,0,0,0,0,0,-1,1791,540,7.78224,1.38311
574,484,5.74463,1.50922,0,0,0,0,0,0,0,-1,1798,540,5.74463,-1.50924
581,484,10.34,2.9491,0,0,0,0,0,0,0,-1,1805,540,10.34,-2.94912
588,484,10.6669,2.88568,0,0,0,0,0,0,0,-1,1812,540,10.6669,-2.88567
595,484,10.7233,1.04767,0,0,0,0,0,0,0,-1,1819,540,10.7233,-1.04766
602,484,0,0,0,0,0,0,0,0,0,-1,1826,540,0,0
609,484,0,0,0,0,0,0,0,0,0,-1,1833,540,0,0
616,484,0,0,0,0,0,0,0,0,0,-1,1840,540,0,0
623,484,0,0,0,0,0,0,0,0,0,-1,1847,540,0,0
630,484,0,0,0,0,0,0,0,0,0,-1,1854,540,0,0
637,484,0,0,0,0,0,0,0,0,0,-1,1861,540,0,0
644,484,0,0,0,0,0,0,0,0,0,-1,1868,540,0,0
651,484,0,0,0,0,0,0,0,0,0,-1,1875,540,0,0
658,484,0,0,0,0,0,0,0,0,0,-1,1882,540,0,0
665,484,0,0,0,0,0,0,0,0,0,-1,1889,540,0,0
672,484,0,0,0,0,0,0,0,0,0,-1,1896,540,0,0
679,484,0,0,0,0,0,0,0,0,0,-1,1903,540,0,0
686,484,0,0,0,0,0,0,0,0,0,-1,1910,540,0,0
693,484,0,0,0,0,0,0,0,0,0,-1,1917,540,0,0
700,484,0,0,0,0,0,0,0,0,0,-1,1924,540,0,0
707,484,0,0,0,0,0,0,0,0,0,-1,1931,540,0,0
714,484,0,0,0,0,0,0,0,0,0,-1,1938,540,0,0
721,484,0,0,0,0,0,0,0,0,0,-1,1945,540,0,0
728,484,0,0,0,0,0,0,0,0,0,-1,1952,540,0,0
735,484,0,0,0,0,0,0,0,0,0,-1,1959,540,0,0
742,484,0,0,0,0,0,0,0,0,0,-1,1966,540,0,0
749,484,0,0,0,0,0,0,0,0,0,-1,1973,540,0,0
756,484,0,0,0,0,0,0,0,0,0,-1,1980,540,0,0
763,484,0,0,0,0,0,0,0,0,0,-1,1987,540,0,0
770,484,0,0,0,0,0,0,0,0,0,-1,1994,540,0,0
777,484,0,0,0,0,0,0,0,0,0,-1,2001,540,0,0
784,484,0,0,0,0,0,0,0,0,0,-1,2008,540,0,0
791,484,0,0,0,0,0,0,0,0,0,-1,2015,540,0,0
798,484,0,0,0,0,0,0,0,0,0,-1,2022,540,0,0
805,484,0,0,0,0,0,0,0,0,0,-1,2029,540,0,0
812,484,0,0,0,0,0,0,0,0,0,-1,2036,540,0,0
-700,477,0,0,0,0,0,0,0,0,0,-1,524,547,0,0
-693,477,0,0,0,0,0,0,0,0,0,-1,531,547,0,0
-686,477,0,0,0,0,0,0,0,0,0,-1,538,547,0,0
-679,477,0,0,0,0,0,0,0,0,0,-1,545,547,0,0
-672,477,0,0,0,0,0,0,0,0,0,-1,552,547,0,0
-665,477,0,0,0,0,0,0,0,0,0,-1,559,547,0,0
-658,477,0,0,0,0,0,0,0,0,0,-1,566,547,0,0
-651,477,0,0,0,0,0,0,0,0,0,-1,573,547,0,0
-644,477,0,0,0,0,0,0,0,0,0,-1,580,547,0,0
-637,477,0,0,0,0,0,0,0,0,0,-1,587,547,0,0
-630,477,0,0,0,0,0,0,0,0,0,-1,594,547,0,0
-623,477,0,0,0,0,0,0,0,0,0,-1,601,547,0,0
-616,477,0,0,0,0,0,0,0,0,0,-1,608,547,0,0
-609,477,0,0,0,0,0,0,0,0,0,-1,615,547,0,0
-602,477,0,0,0,0,0,0,0,0,0,-1,622,547,0,0
-595,477,0,0,0,0,0,0,0,0,0,-1,629,547,0,0
-588,477,0,0,0,0,0,0,0,0,0,-1,636,547,0,0
-581,477,0,0,0,0,0,0,0,0,0,-1,643,547,0,0
-574,477,0,0,0,0,0,0,0,0,0,-1,650,547,0,0
-567,477,0,0,0,0,0,0,0,0,0,-1,657,547,0,0
-560,477,0,0,0,0,0,0,0,0,0,-1,664,547,0,0
-553,477,0,0,0,0,0,0,0,0,0,-1,671,547,0,0
-546,477,0,0,0,0,0,0,0,0,0,-1,678,547,0,0
-539,477,0,0,0,0,0,0,0,0,0,-1,685,547,0,0
-532,477,0,0,0,0,0,0,0,0,0,-1,692,547,0,0
-525,477,0,0,0,0,0,0,0,0,0,-1,699,547,0,0
-518,477,0,0,0,0,0,0,0,0,0,-1,706,547,0,0
-511,477,0,0,0,0,0,0,0,0,0,-1,713,547,0,0
-504,477,0,0,0,0,0,0,0,0,0,-1,720,547,0,0
-497,477,0,0,0,0,0,0,0,0,0,-1,727,547,0,0
-490,477,0,0,0,0,0,0,0,0,0,-1,734,547,0,0
-483,477,-7.73151,-0.224182,0,0,0,0,0,0,0,-1,741,547,-7.73152,0.224176
-476,477,-6.25806,-0.310547,0,0,0,0,0,0,0,-1,748,547,-6.25804,0.310549
-469,477,-7.26617,0.525085,0,0,0,0,0,0,0,-1,755,547,-7.2662,-0.525111
-462,477,-6.65143,1.06042,0,0,0,0,0,0,0,-1,762,547,-6.65143,-1.06043
-455,477,-5.31757,0.429016,0,0,0,0,0,0,0,-1,769,547,-5.31756,-0.42902
-448,477,-4.0697,0.273376,0,0,0,0,0,0,0,-1,776,547,-4.06971,-0.273363
-441,477,-2.47504,-4.76971,0,0,0,0,0,0,0,-1,783,547,-2.47505,4.76973
-434,477,-6.84875,-20.4194,0,0,0,0,0,0,0,-1,790,547,-6.84873,20.4194
-427,477,-7.10211,-20.9914,-0.000937516,0.0129755,-0.00392287,0.0140053,-0.00196737,-1.31406,0.010057,0.0475136,797,547,-7.1021,20.9914
-420,477,-7.18433,-21.7833,-0.000651864,0.0111194,-0.00398664,0.0123425,-0.00187495,-1.27312,0.00891927,0.0384975,804,547,-7.18431,21.7832
-413,477,-7.2052,-22.9727,-0.00034984,0.00922929,-0.00386529,0.0105944,-0.00171498,-1.23129,0.00769855,0.0221987,811,547,-7.2052,22.9727
-406,477,-7.32617,-24.0074,-0.000157282,0.00738209,-0.00345969,0.00872904,-0.00150424,-1.19952,0.00638016,0.0115509,818,547,-7.32619,24.0074
-399,477,-7.36688,-24.9341,-1.2387e-06,0.0056916,-0.00290859,0.00691483,-0.00122447,-1.1727,0.00506759,0.0203915,825,547,-7.36688,24.9341
-392,477,-7.44788,-25.8554,0.000281318,0.004183,-0.00239538,0.00532144,-0.000857119,-1.12713,0.00386514,0.0191148,832,547,-7.44786,25.8554
-385,477,-7.51367,-26.7601,0.000658065,0.00285823,-0.00190067,0.00395422,-0.000437926,-1.04774,0.00279359,0.0155876,839,547,-7.51368,26.7601
-378,477,-7.58044,-27.6593,0.00101989,0.00159381,-0.0013269,0.00266442,-5.07206e-05,-0.891889,0.00179343,0.0135969,846,547,-7.58047,27.6593
-371,477,-7.63348,-28.5261,0.00136533,0.000403754,-0.000787981,0.00180761,-3.8536e-05,-0.511474,0.00121813,0.0137509,853,547,-7.6335,28.5261
-364,477,-7.67743,-29.4057,0.00166053,-0.000728564,-0.000196827,0.00167663,-0.000744671,-0.081652,0.00143204,0.0143735,860,547,-7.67742,29.4057
-357,477,-7.73505,-30.2855,0.00197862,-0.00167807,0.000337748,0.00200955,-0.001709,0.0913348,0.00214925,0.0118947,867,547,-7.73506,30.2855
-350,477,-7.78308,-31.1534,0.00225757,-0.0025589,0.000803415,0.00238805,-0.00268938,0.161001,0.00293317,0.0107166,874,547,-7.7831,31.1534
-343,477,-7.75781,-32.0944,0.00243067,-0.00331862,0.00129249,0.00270786,-0.00359582,0.211267,0.00365145,0.0208477,881,547,-7.75783,32.0944
-336,477,-7.72504,-32.985,0.00251239,-0.00424043,0.00182477,0.00297394,-0.00470198,0.24774,0.00446897,0.040015,888,547,-7.72502,32.9851
-329,477,-7.77478,-33.8196,0,0,0,0,0,0,0,-1,895,547,-7.7748,33.8196
-322,477,-5.91638,-27.4468,0,0,0,0,0,0,0,-1,902,547,-5.91639,27.4468
-315,477,-1.67358,-9.15253,0,0,0,0,0,0,0,-1,909,547,-1.67356,9.15253
-308,477,-1.30127,-6.55188,0,0,0,0,0,0,0,-1,916,547,-1.30128,6.55185
-301,477,-1.21185,-6.28351,0,0,0,0,0,0,0,-1,923,547,-1.21184,6.28352
-294,477,-0.352905,3.27142,0,0,0,0,0,0,0,-1,930,547,-0.35292,-3.27144
-287,477,3.54364,2.15399,0,0,0,0,0,0,0,-1,937,547,3.54362,-2.15396
-280,477,1.97308,-0.954163,0,0,0,0,0,0,0,-1,944,547,1.9731,0.954178
-273,477,2.11621,-3.76709,0,0,0,0,0,0,0,-1,951,547,2.11619,3.76706
-266,477,2.04669,-3.42389,0,0,0,0,0,0,0,-1,958,547,2.04671,3.42391
-259,477,-1.33478,-3.41205,0,0,0,0,0,0,0,-1,965,547,-1.3348,3.41206
-252,477,0.597168,-5.32922,0,0,0,0,0,0,0,-1,972,547,0.597144,5.32924
-245,477,8.2309,-8.48492,0,0,0,0,0,0,0,-1,979,547,8.23091,8.48494
-238,477,6.60938,-5.64063,0,0,0,0,0,0,0,-1,986,547,6.60938,5.64063
-231,477,4.71716,-2.52484,0,0,0,0,0,0,0,-1,993,547,4.71716,2.52483
-224,477,0,0,0,0,0,0,0,0,0,-1,1000,547,0,0
-217,477,0,0,0,0,0,0,0,0,0,-1,1007,547,0,0
-210,477,0,0,0,0,0,0,0,0,0,-1,1014,547,0,0
-203,477,0,0,0,0,0,0,0,0,0,-1,1021,547,0,0
-196,477,0,0,0,0,0,0,0,0,0,-1,1028,547,0,0
-189,477,0,0,0,0,0,0,0,0,0,-1,1035,547,0,0
-182,477,0,0,0,0,0,0,0,0,0,-1,1042,547,0,0
-175,477,0,0,0,0,0,0,0,0,0,-1,1049,547,0,0
-168,477,0,0,0,0,0,0,0,0,0,-1,1056,547,0,0
-161,477,0,0,0,0,0,0,0,0,0,-1,1063,547,0,0
-154,477,0,0,0,0,0,0,0,0,0,-1,1070,547,0,0
-147,477,0,0,0,0,0,0,0,0,0,-1,1077,547,0,0
-140,477,0,0,0,0,0,0,0,0,0,-1,1084,547,0,0
-133,477,0,0,0,0,0,0,0,0,0,-1,1091,547,0,0
-126,477,0,0,0,0,0,0,0,0,0,-1,1098,547,0,0
-119,477,0,0,0,0,0,0,0,0,0,-1,1105,547,0,0
-112,477,0,0,0,0,0,0,0,0,0,-1,1112,547,0,0
-105,477,0,0,0,0,0,0,0,0,0,-1,1119,547,0,0
-98,477,0,0,0,0,0,0,0,0,0,-1,1126,547,0,0
-91,477,0,0,0,0,0,0,0,0,0,-1,1133,547,0,0
-84,477,0,0,0,0,0,0,0,0,0,-1,1140,547,0,0
-77,477,0,0,0,0,0,0,0,0,0,-1,1147,547,0,0
-70,477,0,0,0,0,0,0,0,0,0,-1,1154,547,0,0
-63,477,0,0,0,0,0,0,0,0,0,-1,1161,547,0,0
-56,477,0,0,0,0,0,0,0,0,0,-1,1168,547,0,0
-49,477,0,0,0,0,0,0,0,0,0,-1,1175,547,0,0
-42,477,0,0,0,0,0,0,0,0,0,-1,1182,547,0,0
-35,477,0,0,0,0,0,0,0,0,0,-1,1189,547,0,0
-28,477,0,0,0,0,0,0,0,0,0,-1,1196,547,0,0
-21,477,0,0,0,0,0,0,0,0,0,-1,1203,547,0,0
-14,477,0,0,0,0,0,0,0,0,0,-1,1210,547,0,0
-7,477,0,0,0,0,0,0,0,0,0,-1,1217,547,0,0
0,477,0,0,0,0,0,0,0,0,0,-1,1224,547,0,0
7,477,0,0,0,0,0,0,0,0,0,-1,1231,547,0,0
14,477,0,0,0,0,0,0,0,0,0,-1,1238,547,0,0
21,477,0,0,0,0,0,0,0,0,0,-1,1245,547,0,0
28,477,0,0,0,0,0,0,0,0,0,-1,1252,547,0,0
35,477,0,0,0,0,0,0,0,0,0,-1,1259,547,0,0
42,477,0,0,0,0,0,0,0,0,0,-1,1266,547,0,0
49,477,0,0,0,0,0,0,0,0,0,-1,1273,547,0,0
56,477,0,0,0,0,0,0,0,0,0,-1,1280,547,0,0
63,477,0,0,0,0,0,0,0,0,0,-1,1287,547,0,0
70,477,0,0,0,0,0,0,0,0,0,-1,1294,547,0,0
77,477,0,0,0,0,0,0,0,0,0,-1,1301,547,0,0
84,477,0,0,0,0,0,0,0,0,0,-1,1308,547,0,0
91,477,0,0,0,0,0,0,0,0,0,-1,1315,547,0,0
98,477,0,0,0,0,0,0,0,0,0,-1,1322,547,0,0
105,477,0,0,0,0,0,0,0,0,0,-1,1329,547,0,0
112,477,0,0,0,0,0,0,0,0,0,-1,1336,547,0,0
119,477,0,0,0,0,0,0,0,0,0,-1,1343,547,0,0
126,477,0,0,0,0,0,0,0,0,0,-1,1350,547,0,0
133,477,0,0,0,0,0,0,0,0,0,-1,1357,547,0,0
140,477,0,0,0,0,0,0,0,0,0,-1,1364,547,0,0
147,477,0,0,0,0,0,0,0,0,0,-1,1371,547,0,0
154,477,0,0,0,0,0,0,0,0,0,-1,1378,547,0,0
161,477,0,0,0,0,0,0,0,0,0,-1,1385,547,0,0
168,477,0,0,0,0,0,0,0,0,0,-1,1392,547,0,0
175,477,0,0,0,0,0,0,0,0,0,-1,1399,547,0,0
182,477,0,0,0,0,0,0,0,0,0,-1,1406,547,0,0
189,477,0,0,0,0,0,0,0,0,0,-1,1413,547,0,0
196,477,0,0,0,0,0,0,0,0,0,-1,1420,547,0,0
203,477,0,0,0,0,0,0,0,0,0,-1,1427,547,0,0
210,477,0,0,0,0,0,0,0,0,0,-1,1434,547,0,0
217,477,0,0,0,0,0,0,0,0,0,-1,1441,547,0,0
224,477,0,0,0,0,0,0,0,0,0,-1,1448,547,0,0
231,477,0,0,0,0,0,0,0,0,0,-1,1455,547,0,0
238,477,0,0,0,0,0,0,0,0,0,-1,1462,547,0,0
245,477,0,0,0,0,0,0,0,0,0,-1,1469,547,0,0
252,477,0,0,0,0,0,0,0,0,0,-1,1476,547,0,0
259,477,0,0,0,0,0,0,0,0,0,-1,1483,547,0,0
266,477,0,0,0,0,0,0,0,0,0,-1,1490,547,0,0
273,477,0,0,0,0,0,0,0,0,0,-1,1497,547,0,0
280,477,0,0,0,0,0,0,0,0,0,-1,1504,547,0,0
287,477,0,0,0,0,0,0,0,0,0,-1,1511,547,0,0
294,477,0,0,0,0,0,0,0,0,0,-1,1518,547,0,0
301,477,0,0,0,0,0,0,0,0,0,-1,1525,547,0,0
308,477,0,0,0,0,0,0,0,0,0,-1,1532,547,0,0
315,477,0,0,0,0,0,0,0,0,0,-1,1539,547,0,0
322,477,0,0,0,0,0,0,0,0,0,-1,1546,547,0,0
329,477,0,0,0,0,0,0,0,0,0,-1,1553,547,0,0
336,477,0,0,0,0,0,0,0,0,0,-1,1560,547,0,0
343,477,0,0,0,0,0,0,0,0,0,-1,1567,547,0,0
350,477,1.7699,-3.32275,0,0,0,0,0,0,0,-1,1574,547,1.7699,3.32272
357,477,3.073,-4.83313,0,0,0,0,0,0,0,-1,1581,547,3.07303,4.83316
364,477,4.30127,-4.22864,0,0,0,0,0,0,0,-1,1588,547,4.30125,4.22865
371,477,4.57703,0.283264,0,0,0,0,0,0,0,-1,1595,547,4.57706,-0.283262
378,477,8.57947,1.05969,0,0,0,0,0,0,0,-1,1602,547,8.5795,-1.05972
385,477,12.3726,2.02356,0,0,0,0,0,0,0,-1,1609,547,12.3725,-2.02355
392,477,16.4678,2.76843,0,0,0,0,0,0,0,-1,1616,547,16.4678,-2.76845
399,477,8.00037,-2.29523,0,0,0,0,0,0,0,-1,1623,547,8.00031,2.2952
406,477,4.82495,2.7475,0,0,0,0,0,0,0,-1,1630,547,4.825,-2.74752
413,477,4.88171,-0.336426,0,0,0,0,0,0,0,-1,1637,547,4.88169,0.336398
420,477,3.34875,0.102722,0,0,0,0,0,0,0,-1,1644,547,3.34871,-0.1027
427,477,1.66772,-0.373108,0,0,0,0,0,0,0,-1,1651,547,1.66768,0.373104
434,477,3.76978,-2.30798,0,0,0,0,0,0,0,-1,1658,547,3.76974,2.30801
441,477,4.05444,-2.80402,0,0,0,0,0,0,0,-1,1665,547,4.05444,2.804
448,477,10.4247,-11.7421,0,0,0,0,0,0,0,-1,1672,547,10.4247,11.7421
455,477,13.3054,-16.8109,0,0,0,0,0,0,0,-1,1679,547,13.3054,16.8109
462,477,23.4856,-32.7122,0,0,0,0,0,0,0,-1,1686,547,23.4856,32.7121
469,477,23.5171,-31.6363,0,0,0,0,0,0,0,-1,1693,547,23.517,31.6363
476,477,23.4323,-30.7653,0.000885009,0.000328564,-0.00103206,0.00167569,-0.000462113,-0.653738,0.00129886,0.0309249,1700,547,23.4322,30.7653
483,477,23.395,-29.8486,0.000969096,0.000607281,-0.000477479,0.00129879,0.000277587,-0.604314,0.000789763,0.0168971,1707,547,23.3951,29.8487
490,477,23.3151,-29.0123,0.000991103,0.00100388,-4.87809e-05,0.00104669,0.000948292,-0.850487,0.000667415,0.0156384,1714,547,23.3151,29.0123
497,477,23.2456,-28.0977,0.000991765,0.00140045,0.000464155,0.00170325,0.000688961,0.992753,0.000989333,0.0150076,1721,547,23.2457,28.0977
504,477,23.1929,-27.1774,0.000975313,0.00127656,0.000783341,0.00192363,0.000328247,0.880382,0.00118821,0.0193307,1728,547,23.1929,27.1774
511,477,23.2069,-26.3016,0.000809298,0.00112676,0.000977923,0.00195875,-2.26905e-05,0.865854,0.00131346,0.0245277,1735,547,23.2069,26.3016
518,477,23.1211,-25.4097,0.00044257,0.000952601,0.00103412,0.00176268,-0.000367509,0.906287,0.00131486,0.0219874,1742,547,23.121,25.4097
525,477,23.0249,-24.463,-2.18231e-06,0.000729404,0.00100137,0.0014297,-0.000702478,0.960515,0.00125465,0.0186703,1749,547,23.0249,24.463
532,477,22.9491,-23.5334,-0.000540802,0.000581363,0.000932992,0.00110899,-0.00106843,1.05611,0.00125721,0.020425,1756,547,22.9491,23.5334
539,477,22.9088,-22.5499,-0.0012198,0.000539194,0.000794875,0.000845168,-0.00152578,1.20335,0.00138754,0.0193772,1763,547,22.9088,22.55
546,477,22.7881,-21.7004,-0.00194844,0.000794099,0.00068598,0.00095611,-0.00211045,1.33887,0.00181181,0.0448868,1770,547,22.7881,21.7004
553,477,22.7891,-20.3675,0,0,0,0,0,0,0,-1,1777,547,22.789,20.3675
560,477,19.4597,-16.1135,0,0,0,0,0,0,0,-1,1784,547,19.4597,16.1135
567,477,13.9529,-8.70972,0,0,0,0,0,0,0,-1,1791,547,13.9529,8.7097
574,477,6.82593,-0.916992,0,0,0,0,0,0,0,-1,1798,547,6.82598,0.916977
581,477,9.29321,-0.557007,0,0,0,0,0,0,0,-1,1805,547,9.29324,0.55703
588,477,9.75195,0.422729,0,0,0,0,0,0,0,-1,1812,547,9.75198,-0.42273
595,477,9.89172,1.21326,0,0,0,0,0,0,0,-1,1819,547,9.89174,-1.21328
602,477,6.5271,-0.964417,0,0,0,0,0,0,0,-1,1826,547,6.52706,0.964427
609,477,0,0,0,0,0,0,0,0,0,-1,1833,547,0,0
616,477,0,0,0,0,0,0,0,0,0,-1,1840,547,0,0
623,477,0,0,0,0,0,0,0,0,0,-1,1847,547,0,0
630,477,0,0,0,0,0,0,0,0,0,-1,1854,547,0,0
637,477,0,0,0,0,0,0,0,0,0,-1,1861,547,0,0
644,477,0,0,0,0,0,0,0,0,0,-1,1868,547,0,0
651,477,0,0,0,0,0,0,0,0,0,-1,1875,547,0,0
658,477,0,0,0,0,0,0,0,0,0,-1,1882,547,0,0
665,477,0,0,0,0,0,0,0,0,0,-1,1889,547,0,0
672,477,0,0,0,0,0,0,0,0,0,-1,1896,547,0,0
679,477,0,0,0,0,0,0,0,0,0,-1,1903,547,0,0
686,477,0,0,0,0,0,0,0,0,0,-1,1910,547,0,0
693,477,0,0,0,0,0,0,0,0,0,-1,1917,547,0,0
700,477,0,0,0,0,0,0,0,0,0,-1,1924,547,0,0
707,477,0,0,0,0,0,0,0,0,0,-1,1931,547,0,0
714,477,0,0,0,0,0,0,0,0,0,-1,1938,547,0,0
721,477,0,0,0,0,0,0,0,0,0,-1,1945,547,0,0
728,477,0,0,0,0,0,0,0,0,0,-1,1952,547,0,0
735,477,0,0,0,0,0,0,0,0,0,-1,1959,547,0,0
742,477,0,0,0,0,0,0,0,0,0,-1,1966,547,0,0
749,477,0,0,0,0,0,0,0,0,0,-1,1973,547,0,0
756,477,0,0,0,0,0,0,0,0,0,-1,1980,547,0,0
763,477,0,0,0,0,0,0,0,0,0,-1,1987,547,0,0
770,477,0,0,0,0,0,0,0,0,0,-1,1994,547,0,0
777,477,0,0,0,0,0,0,0,0,0,-1,2001,547,0,0
784,477,0,0,0,0,0,0,0,0,0,-1,2008,547,0,0
791,477,0,0,0,0,0,0,0,0,0,-1,2015,547,0,0
798,477,0,0,0,0,0,0,0,0,0,-1,2022,547,0,0
805,477,0,0,0,0,0,0,0,0,0,-1,2029,547,0,0
812,477,0,0,0,0,0,0,0,0,0,-1,2036,547,0,0
-700,470,0,0,0,0,0,0,0,0,0,-1,524,554,0,0
-693,470,0,0,0,0,0,0,0,0,0,-1,531,554,0,0
-686,470,0,0,0,0,0,0,0,0,0,-1,538,554,0,0
-679,470,0,0,0,0,0,0,0,0,0,-1,545,554,0,0
-672,470,0,0,0,0,0,0,0,0,0,-1,552,554,0,0
-665,470,0,0,0,0,0,0,0,0,0,-1,559,554,0,0
-658,470,0,0,0,0,0,0,0,0,0,-1,566,554,0,0
-651,470,0,0,0,0,0,0,0,0,0,-1,573,554,0,0
-644,470,0,0,0,0,0,0,0,0,0,-1,580,554,0,0
-637,470,0,0,0,0,0,0,0,0,0,-1,587,554,0,0
-630,470,0,0,0,0,0,0,0,0,0,-1,594,554,0,0
-623,470,0,0,0,0,0,0,0,0,0,-1,601,554,0,0
-616,470,0,0,0,0,0,0,0,0,0,-1,608,554,0,0
-609,470,0,0,0,0,0,0,0,0,0,-1,615,554,0,0
-602,470,0,0,0,0,0,0,0,0,0,-1,622,554,0,0
-595,470,0,0,0,0,0,0,0,0,0,-1,629,554,0,0
-588,470,0,0,0,0,0,0,0,0,0,-1,636,554,0,0
-581,470,0,0,0,0,0,0,0,0,0,-1,643,554,0,0
-574,470,0,0,0,0,0,0,0,0,0,-1,650,554,0,0
-567,470,0,0,0,0,0,0,0,0,0,-1,657,554,0,0
-560,470,0,0,0,0,0,0,0,0,0,-1,664,554,0,0
-553,470,0,0,0,0,0,0,0,0,0,-1,671,554,0,0
-546,470,0,0,0,0,0,0,0,0,0,-1,678,554,0,0
-539,470,0,0,0,0,0,0,0,0,0,-1,685,554,0,0
-532,470,0,0,0,0,0,0,0,0,0,-1,692,554,0,0
-525,470,0,0,0,0,0,0,0,0,0,-1,699,554,0,0
-518,470,0,0,0,0,0,0,0,0,0,-1,706,554,0,0
-511,470,0,0,0,0,0,0,0,0,0,-1,713,554,0,0
-504,470,0,0,0,0,0,0,0,0,0,-1,720,554,0,0
-497,470,0,0,0,0,0,0,0,0,0,-1,727,554,0,0
-490,470,-9.13263,-1.03125,0,0,0,0,0,0,0,-1,734,554,-9.1326,1.03127
-483,470,-7.68677,-1.03955,0,0,0,0,0,0,0,-1,741,554,-7.68678,1.03958
-476,470,-6.17969,-1.03394,0,0,0,0,0,0,0,-1,748,554,-6.17971,1.03395
-469,470,-6.23016,-0.651855,0,0,0,0,0,0,0,-1,755,554,-6.23014,0.651829
-462,470,-4.87915,-1.03705,0,0,0,0,0,0,0,-1,762,554,-4.87914,1.03702
-455,470,-4.14777,-1.37079,0,0,0,0,0,0,0,-1,769,554,-4.14779,1.37078
-448,470,-2.9314,-5.74518,0,0,0,0,0,0,0,-1,776,554,-2.93137,5.74518
-441,470,-7.10535,-17.8693,0,0,0,0,0,0,0,-1,783,554,-7.10533,17.8693
-434,470,-7.99615,-20.1718,0,0,0,0,0,0,0,-1,790,554,-7.99614,20.1718
-427,470,-8.09021,-21.1048,-0.000767444,0.00977347,-0.00277123,0.0104576,-0.0014516,-1.32876,0.00750257,0.0275607,797,554,-8.09022,21.1048
-420,470,-8.10718,-22.0668,-0.000457621,0.00826209,-0.00281234,0.00909045,-0.00128598,-1.28435,0.0065313,0.0179644,804,554,-8.10717,22.0668
-413,470,-8.17334,-23.0323,-0.000218885,0.00674024,-0.00266839,0.00764561,-0.00112426,-1.24369,0.00551019,0.0147599,811,554,-8.17333,23.0323
-406,470,-8.23218,-23.9733,-9.10803e-05,0.00519363,-0.00227125,0.00603562,-0.000933064,-1.21579,0.00436811,0.0132047,818,554,-8.23216,23.9734
-399,470,-8.27527,-24.8832,5.97202e-05,0.0038132,-0.00180179,0.00453812,-0.000665197,-1.18828,0.00326978,0.0169885,825,554,-8.27525,24.8832
-392,470,-8.31622,-25.773,0.00034441,0.0025565,-0.00137776,0.00321725,-0.000316341,-1.12362,0.00225768,0.01559,832,554,-8.3162,25.773
-385,470,-8.39941,-26.6814,0.000751079,0.00145881,-0.000995645,0.0021616,4.8283e-05,-0.956142,0.00142525,0.011695,839,554,-8.39939,26.6814
-378,470,-8.46234,-27.6155,0.00117374,0.000392465,-0.000545038,0.00145367,0.000112533,-0.47447,0.000933866,0.0161292,846,554,-8.46235,27.6155
-371,470,-8.52338,-28.5008,0.00164066,-0.000562053,-0.000144356,0.00165008,-0.000571473,-0.0651639,0.00133205,0.0148762,853,554,-8.52339,28.5008
-364,470,-8.58282,-29.3499,0.00211036,-0.00141637,0.000244162,0.00212719,-0.0014332,0.0687944,0.00206856,0.0164413,860,554,-8.58282,29.3499
-357,470,-8.65375,-30.217,0.0026466,-0.00216129,0.000537227,0.0027059,-0.00222058,0.109932,0.0028489,0.0154653,867,554,-8.65374,30.217
-350,470,-8.66797,-31.1378,0.00318447,-0.00292961,0.000734845,0.00327155,-0.00301669,0.117951,0.00363151,0.0128982,874,554,-8.66798,31.1377
-343,470,-8.59106,-32.0683,0,0,0,0,0,0,0,-1,881,554,-8.59109,32.0683
-336,470,-8.40143,-32.9952,0,0,0,0,0,0,0,-1,888,554,-8.40144,32.9952
-329,470,-2.78516,-12.3594,0,0,0,0,0,0,0,-1,895,554,-2.78517,12.3594
-322,470,-2.30829,-11.4527,0,0,0,0,0,0,0,-1,902,554,-2.30827,11.4527
-315,470,-1.04797,-8.29529,0,0,0,0,0,0,0,-1,909,554,-1.04797,8.29526
-308,470,-1.39368,-6.68152,0,0,0,0,0,0,0,-1,916,554,-1.39369,6.68149
-301,470,-0.0340576,3.34888,0,0,0,0,0,0,0,-1,923,554,-0.0340496,-3.3489
-294,470,-1.18378,3.22266,0,0,0,0,0,0,0,-1,930,554,-1.18376,-3.22268
-287,470,-2.15454,3.2204,0,0,0,0,0,0,0,-1,937,554,-2.15452,-3.22037
-280,470,-3.00537,3.099,0,0,0,0,0,0,0,-1,944,554,-3.00536,-3.09898
-273,470,-12.3932,3.65009,0,0,0,0,0,0,0,-1,951,554,-12.3932,-3.65011
-266,470,-11.5706,1.16028,0,0,0,0,0,0,0,-1,958,554,-11.5706,-1.16031
-259,470,-7.50415,-2.77167,0,0,0,0,0,0,0,-1,965,554,-7.50413,2.7717
-252,470,-0.371155,-5.87823,0,0,0,0,0,0,0,-1,972,554,-0.37114,5.87821
-245,470,1.33221,-6.81122,0,0,0,0,0,0,0,-1,979,554,1.33223,6.8112
-238,470,0,0,0,0,0,0,0,0,0,-1,986,554,0,0
-231,470,0,0,0,0,0,0,0,0,0,-1,993,554,0,0
-224,470,0,0,0,0,0,0,0,0,0,-1,1000,554,0,0
-217,470,0,0,0,0,0,0,0,0,0,-1,1007,554,0,0
-210,470,0,0,0,0,0,0,0,0,0,-1,1014,554,0,0
-203,470,0,0,0,0,0,0,0,0,0,-1,1021,554,0,0
-196,470,0,0,0,0,0,0,0,0,0,-1,1028,554,0,0
-189,470,0,0,0,0,0,0,0,0,0,-1,1035,554,0,0
-182,470,0,0,0,0,0,0,0,0,0,-1,1042,554,0,0
-175,470,0,0,0,0,0,0,0,0,0,-1,1049,554,0,0
-168,470,0,0,0,0,0,0,0,0,0,-1,1056,554,0,0
-161,470,0,0,0,0,0,0,0,0,0,-1,1063,554,0,0
-154,470,0,0,0,0,0,0,0,0,0,-1,1070,554,0,0
-147,470,0,0,0,0,0,0,0,0,0,-1,1077,554,0,0
-140,470,0,0,0,0,0,0,0,0,0,-1,1084,554,0,0
-133,470,0,0,0,0,0,0,0,0,0,-1,1091,554,0,0
-126,470,0,0,0,0,0,0,0,0,0,-1,1098,554,0,0
-119,470,0,0,0,0,0,0,0,0,0,-1,1105,554,0,0
-112,470,0,0,0,0,0,0,0,0,0,-1,1112,554,0,0
-105,470,0,0,0,0,0,0,0,0,0,-1,1119,554,0,0
-98,470,0,0,0,0,0,0,0,0,0,-1,1126,554,0,0
-91,470,0,0,0,0,0,0,0,0,0,-1,1133,554,0,0
-84,470,0,0,0,0,0,0,0,0,0,-1,1140,554,0,0
-77,470,0,0,0,0,0,0,0,0,0,-1,1147,554,0,0
-70,470,0,0,0,0,0,0,0,0,0,-1,1154,554,0,0
-63,470,0,0,0,0,0,0,0,0,0,-1,1161,554,0,0
-56,470,0,0,0,0,0,0,0,0,0,-1,1168,554,0,0
-49,470,0,0,0,0,0,0,0,0,0,-1,1175,554,0,0
-42,470,0,0,0,0,0,0,0,0,0,-1,1182,554,0,0
-35,470,0,0,0,0,0,0,0,0,0,-1,1189,554,0,0
-28,470,0,0,0,0,0,0,0,0,0,-1,1196,554,0,0
-21,470,0,0,0,0,0,0,0,0,0,-1,1203,554,0,0
-14,470,0,0,0,0,0,0,0,0,0,-1,1210,554,0,0
-7,470,0,0,0,0,0,0,0,0,0,-1,1217,554,0,0
0,470,0,0,0,0,0,0,0,0,0,-1,1224,554,0,0
7,470,0,0,0,0,0,0,0,0,0,-1,1231,554,0,0
14,470,0,0,0,0,0,0,0,0,0,-1,1238,554,0,0
21,470,0,0,0,0,0,0,0,0,0,-1,1245,554,0,0
28,470,0,0,0,0,0,0,0,0,0,-1,1252,554,0,0
35,470,0,0,0,0,0,0,0,0,0,-1,1259,554,0,0
42,470,0,0,0,0,0,0,0,0,0,-1,1266,554,0,0
49,470,0,0,0,0,0,0,0,0,0,-1,1273,554,0,0
56,470,0,0,0,0,0,0,0,0,0,-1,1280,554,0,0
63,470,0,0,0,0,0,0,0,0,0,-1,1287,554,0,0
70,470,0,0,0,0,0,0,0,0,0,-1,1294,554,0,0
77,470,0,0,0,0,0,0,0,0,0,-1,1301,554,0,0
84,470,0,0,0,0,0,0,0,0,0,-1,1308,554,0,0
91,470,0,0,0,0,0,0,0,0,0,-1,1315,554,0,0
98,470,0,0,0,0,0,0,0,0,0,-1,1322,554,0,0
105,470,0,0,0,0,0,0,0,0,0,-1,1329,554,0,0
112,470,0,0,0,0,0,0,0,0,0,-1,1336,554,0,0
119,470,0,0,0,0,0,0,0,0,0,-1,1343,554,0,0
126,470,0,0,0,0,0,0,0,0,0,-1,1350,554,0,0
133,470,0,0,0,0,0,0,0,0,0,-1,1357,554,0,0
140,470,0,0,0,0,0,0,0,0,0,-1,1364,554,0,0
147,470,0,0,0,0,0,0,0,0,0,-1,1371,554,0,0
154,470,0,0,0,0,0,0,0,0,0,-1,1378,554,0,0
161,470,0,0,0,0,0,0,0,0,0,-1,1385,554,0,0
168,470,0,0,0,0,0,0,0,0,0,-1,1392,554,0,0
175,470,0,0,0,0,0,0,0,0,0,-1,1399,554,0,0
182,470,0,0,0,0,0,0,0,0,0,-1,1406,554,0,0
189,470,0,0,0,0,0,0,0,0,0,-1,1413,554,0,0
196,470,0,0,0,0,0,0,0,0,0,-1,1420,554,0,0
203,470,0,0,0,0,0,0,0,0,0,-1,1427,554,0,0
210,470,0,0,0,0,0,0,0,0,0,-1,1434,554,0,0
217,470,0,0,0,0,0,0,0,0,0,-1,1441,554,0,0
224,470,0,0,0,0,0,0,0,0,0,-1,1448,554,0,0
231,470,0,0,0,0,0,0,0,0,0,-1,1455,554,0,0
238,470,0,0,0,0,0,0,0,0,0,-1,1462,554,0,0
245,470,0,0,0,0,0,0,0,0,0,-1,1469,554,0,0
252,470,0,0,0,0,0,0,0,0,0,-1,1476,554,0,0
259,470,0,0,0,0,0,0,0,0,0,-1,1483,554,0,0
266,470,0,0,0,0,0,0,0,0,0,-1,1490,554,0,0
273,470,0,0,0,0,0,0,0,0,0,-1,1497,554,0,0
280,470,0,0,0,0,0,0,0,0,0,-1,1504,554,0,0
287,470,0,0,0,0,0,0,0,0,0,-1,1511,554,0,0
294,470,0,0,0,0,0,0,0,0,0,-1,1518,554,0,0
301,470,0,0,0,0,0,0,0,0,0,-1,1525,554,0,0
308,470,0,0,0,0,0,0,0,0,0,-1,1532,554,0,0
315,470,0,0,0,0,0,0,0,0,0,-1,1539,554,0,0
322,470,0,0,0,0,0,0,0,0,0,-1,1546,554,0,0
329,470,0,0,0,0,0,0,0,0,0,-1,1553,554,0,0
336,470,0,0,0,0,0,0,0,0,0,-1,1560,554,0,0
343,470,0,0,0,0,0,0,0,0,0,-1,1567,554,0,0
350,470,0,0,0,0,0,0,0,0,0,-1,1574,554,0,0
357,470,0,0,0,0,0,0,0,0,0,-1,1581,554,0,0
364,470,1.33423,0.293335,0,0,0,0,0,0,0,-1,1588,554,1.33422,-0.293348
371,470,2.22498,-0.0305176,0,0,0,0,0,0,0,-1,1595,554,2.22494,0.0305046
378,470,6.27051,0.710083,0,0,0,0,0,0,0,-1,1602,554,6.27054,-0.710093
385,470,10.3657,1.47296,0,0,0,0,0,0,0,-1,1609,554,10.3657,-1.47299
392,470,15.3881,3.01935,0,0,0,0,0,0,0,-1,1616,554,15.388,-3.01937
399,470,18.4479,2.93793,0,0,0,0,0,0,0,-1,1623,554,18.4479,-2.93792
406,470,15.1896,1.36676,0,0,0,0,0,0,0,-1,1630,554,15.1896,-1.36679
413,470,6.55383,1.99207,0,0,0,0,0,0,0,-1,1637,554,6.5538,-1.99208
420,470,4.47095,0.845703,0,0,0,0,0,0,0,-1,1644,554,4.47098,-0.845718
427,470,3.51038,1.19684,0,0,0,0,0,0,0,-1,1651,554,3.51039,-1.19684
434,470,3.31775,-1.37427,0,0,0,0,0,0,0,-1,1658,554,3.31781,1.37426
441,470,2.55457,-2.05902,0,0,0,0,0,0,0,-1,1665,554,2.55461,2.05904
448,470,3.27258,-2.64032,0,0,0,0,0,0,0,-1,1672,554,3.27257,2.64029
455,470,10.3658,-9.82233,0,0,0,0,0,0,0,-1,1679,554,10.3659,9.82233
462,470,11.0651,-11.9958,0,0,0,0,0,0,0,-1,1686,554,11.0651,11.9958
469,470,15.4242,-19.0521,0,0,0,0,0,0,0,-1,1693,554,15.4242,19.0521
476,470,24.3066,-30.8345,0,0,0,0,0,0,0,-1,1700,554,24.3066,30.8345
483,470,24.3208,-29.8143,0.00114626,0.000614694,-0.000442615,0.00139676,0.000364195,-0.515009,0.000836632,0.0215097,1707,554,24.3209,29.8143
490,470,24.2156,-28.9365,0.00128295,0.00110704,1.55699e-05,0.00128431,0.00110567,0.0876032,0.000803309,0.0137009,1714,554,24.2156,28.9365
497,470,24.1482,-28.0291,0.00128533,0.00154802,0.000555137,0.00198714,0.00084621,0.901564,0.00115147,0.0140279,1721,554,24.1481,28.0291
504,470,24.1368,-27.1849,0.00122863,0.00137713,0.0008482,0.00215433,0.00045144,0.829055,0.00131189,0.0201458,1728,554,24.1369,27.1849
511,470,24.1143,-26.3102,0.00105707,0.00117717,0.00102872,0.00214759,8.66542e-05,0.814551,0.00140374,0.0276358,1735,554,24.1143,26.3102
518,470,24.0476,-25.3599,0.000716932,0.000978775,0.00110172,0.00195733,-0.000261622,0.844537,0.00140026,0.0270271,1742,554,24.0476,25.3599
525,470,23.964,-24.3945,0.000300002,0.000779519,0.00109054,0.00165634,-0.000576822,0.893604,0.00133859,0.0171314,1749,554,23.964,24.3945
532,470,23.8807,-23.4207,-0.000186589,0.000681727,0.00105845,0.0013916,-0.000896465,0.980025,0.00133129,0.0157425,1756,554,23.8807,23.4207
539,470,23.8073,-22.5059,-0.000744091,0.000732392,0.000995114,0.0012332,-0.0012449,1.10454,0.00143074,0.019375,1763,554,23.8072,22.5059
546,470,23.7504,-21.5837,-0.00128361,0.00108211,0.000968656,0.00142813,-0.00162962,1.22771,0.00176667,0.0164928,1770,554,23.7503,21.5837
553,470,23.7655,-20.5905,-0.00172253,0.00171558,0.00103057,0.00200082,-0.00200778,1.30077,0.00231437,0.0274482,1777,554,23.7655,20.5905
560,470,23.7808,-19.3685,0,0,0,0,0,0,0,-1,1784,554,23.7808,19.3685
567,470,23.6775,-18.3802,0,0,0,0,0,0,0,-1,1791,554,23.6775,18.3802
574,470,14.2793,-8.07147,0,0,0,0,0,0,0,-1,1798,554,14.2793,8.07147
581,470,8.24646,-4.06317,0,0,0,0,0,0,0,-1,1805,554,8.24648,4.06318
588,470,11.1803,1.74927,0,0,0,0,0,0,0,-1,1812,554,11.1803,-1.74926
595,470,4.72192,3.44116,0,0,0,0,0,0,0,-1,1819,554,4.72191,-3.44116
602,470,14.4307,2.76141,0,0,0,0,0,0,0,-1,1826,554,14.4306,-2.76139
609,470,20.9181,4.41058,0,0,0,0,0,0,0,-1,1833,554,20.9181,-4.4106
616,470,0,0,0,0,0,0,0,0,0,-1,1840,554,0,0
623,470,0,0,0,0,0,0,0,0,0,-1,1847,554,0,0
630,470,0,0,0,0,0,0,0,0,0,-1,1854,554,0,0
637,470,0,0,0,0,0,0,0,0,0,-1,1861,554,0,0
644,470,0,0,0,0,0,0,0,0,0,-1,1868,554,0,0
651,470,0,0,0,0,0,0,0,0,0,-1,1875,554,0,0
658,470,0,0,0,0,0,0,0,0,0,-1,1882,554,0,0
665,470,0,0,0,0,0,0,0,0,0,-1,1889,554,0,0
672,470,0,0,0,0,0,0,0,0,0,-1,1896,554,0,0
679,470,0,0,0,0,0,0,0,0,0,-1,1903,554,0,0
686,470,0,0,0,0,0,0,0,0,0,-1,1910,554,0,0
693,470,0,0,0,0,0,0,0,0,0,-1,1917,554,0,0
700,470,0,0,0,0,0,0,0,0,0,-1,1924,554,0,0
707,470,0,0,0,0,0,0,0,0,0,-1,1931,554,0,0
714,470,0,0,0,0,0,0,0,0,0,-1,1938,554,0,0
721,470,0,0,0,0,0,0,0,0,0,-1,1945,554,0,0
728,470,0,0,0,0,0,0,0,0,0,-1,1952,554,0,0
735,470,0,0,0,0,0,0,0,0,0,-1,1959,554,0,0
742,470,0,0,0,0,0,0,0,0,0,-1,1966,554,0,0
749,470,0,0,0,0,0,0,0,0,0,-1,1973,554,0,0
756,470,0,0,0,0,0,0,0,0,0,-1,1980,554,0,0
763,470,0,0,0,0,0,0,0,0,0,-1,1987,554,0,0
770,470,0,0,0,0,0,0,0,0,0,-1,1994,554,0,0
777,470,0,0,0,0,0,0,0,0,0,-1,2001,554,0,0
784,470,0,0,0,0,0,0,0,0,0,-1,2008,554,0,0
791,470,0,0,0,0,0,0,0,0,0,-1,2015,554,0,0
798,470,0,0,0,0,0,0,0,0,0,-1,2022,554,0,0
805,470,0,0,0,0,0,0,0,0,0,-1,2029,554,0,0
812,470,0,0,0,0,0,0,0,0,0,-1,2036,554,0,0
-700,463,0,0,0,0,0,0,0,0,0,-1,524,561,0,0
-693,463,0,0,0,0,0,0,0,0,0,-1,531,561,0,0
-686,463,0,0,0,0,0,0,0,0,0,-1,538,561,0,0
-679,463,0,0,0,0,0,0,0,0,0,-1,545,561,0,0
-672,463,0,0,0,0,0,0,0,0,0,-1,552,561,0,0
-665,463,0,0,0,0,0,0,0,0,0,-1,559,561,0,0
-658,463,0,0,0,0,0,0,0,0,0,-1,566,561,0,0
-651,463,0,0,0,0,0,0,0,0,0,-1,573,561,0,0
-644,463,0,0,0,0,0,0,0,0,0,-1,580,561,0,0
-637,463,0,0,0,0,0,0,0,0,0,-1,587,561,0,0
-630,463,0,0,0,0,0,0,0,0,0,-1,594,561,0,0
-623,463,0,0,0,0,0,0,0,0,0,-1,601,561,0,0
-616,463,0,0,0,0,0,0,0,0,0,-1,608,561,0,0
-609,463,0,0,0,0,0,0,0,0,0,-1,615,561,0,0
-602,463,0,0,0,0,0,0,0,0,0,-1,622,561,0,0
-595,463,0,0,0,0,0,0,0,0,0,-1,629,561,0,0
-588,463,0,0,0,0,0,0,0,0,0,-1,636,561,0,0
-581,463,0,0,0,0,0,0,0,0,0,-1,643,561,0,0
-574,463,0,0,0,0,0,0,0,0,0,-1,650,561,0,0
-567,463,0,0,0,0,0,0,0,0,0,-1,657,561,0,0
-560,463,0,0,0,0,0,0,0,0,0,-1,664,561,0,0
-553,463,0,0,0,0,0,0,0,0,0,-1,671,561,0,0
-546,463,0,0,0,0,0,0,0,0,0,-1,678,561,0,0
-539,463,0,0,0,0,0,0,0,0,0,-1,685,561,0,0
-532,463,0,0,0,0,0,0,0,0,0,-1,692,561,0,0
-525,463,0,0,0,0,0,0,0,0,0,-1,699,561,0,0
-518,463,0,0,0,0,0,0,0,0,0,-1,706,561,0,0
-511,463,0,0,0,0,0,0,0,0,0,-1,713,561,0,0
-504,463,0,0,0,0,0,0,0,0,0,-1,720,561,0,0
-497,463,-9.81451,-1.67126,0,0,0,0,0,0,0,-1,727,561,-9.81452,1.67127
-490,463,-8.57043,-1.58942,0,0,0,0,0,0,0,-1,734,561,-8.57045,1.58944
-483,463,-7.29224,-1.7226,0,0,0,0,0,0,0,-1,741,561,-7.29226,1.72261
-476,463,-5.77704,-1.7312,0,0,0,0,0,0,0,-1,748,561,-5.77703,1.73121
-469,463,-5.14545,-2.138,0,0,0,0,0,0,0,-1,755,561,-5.14546,2.13799
-462,463,-3.13672,-3.07977,0,0,0,0,0,0,0,-1,762,561,-3.13672,3.07974
-455,463,-2.91406,-5.61798,0,0,0,0,0,0,0,-1,769,561,-2.91406,5.61801
-448,463,-4.00177,-8.54681,0,0,0,0,0,0,0,-1,776,561,-4.00175,8.54683
-441,463,-9.01465,-18.9293,0,0,0,0,0,0,0,-1,783,561,-9.01464,18.9293
-434,463,-8.9104,-20.1617,-0.00118017,0.00821041,-0.00158977,0.00847225,-0.00144201,-1.40756,0.00618512,0.0407421,790,561,-8.91043,20.1617
-427,463,-8.96771,-21.1335,-0.000647392,0.00706495,-0.00181535,0.00747088,-0.00105333,-1.3508,0.00536627,0.0118425,797,561,-8.96769,21.1335
-420,463,-8.99426,-22.0706,-0.000265001,0.00595635,-0.00194136,0.00651244,-0.000821094,-1.29182,0.00463961,0.0096361,804,561,-8.99429,22.0705
-413,463,-9.06738,-23.0002,2.95416e-06,0.00479635,-0.00186575,0.00543695,-0.000637648,-1.24006,0.0038548,0.0108096,811,561,-9.06739,23.0002
-406,463,-9.14862,-23.9255,0.000145956,0.00357024,-0.00154427,0.00416378,-0.000447589,-1.20385,0.00293644,0.0115754,818,561,-9.14864,23.9255
-399,463,-9.1947,-24.8137,0.000339158,0.00249248,-0.00118733,0.00301861,-0.000186975,-1.15368,0.00207754,0.0125104,825,561,-9.19468,24.8137
-392,463,-9.24908,-25.6934,0.000652134,0.00147759,-0.000859405,0.00201824,0.00011149,-1.00926,0.00130991,0.0122764,832,561,-9.24907,25.6934
-385,463,-9.30847,-26.6251,0.00109435,0.000579448,-0.000572169,0.00146432,0.000209475,-0.573991,0.00091442,0.0123203,839,561,-9.30848,26.6251
-378,463,-9.37323,-27.5368,0.00157205,-0.000315976,-0.000216046,0.00159645,-0.000340383,-0.112493,0.00119405,0.0132496,846,561,-9.37321,27.5368
-371,463,-9.43585,-28.4548,0.00214398,-0.0010569,9.66853e-05,0.0021469,-0.00105981,0.0301692,0.00188653,0.013944,853,561,-9.43586,28.4548
-364,463,-9.48254,-29.3036,0.00276351,-0.00163601,0.000340472,0.0027897,-0.0016622,0.0767792,0.00259764,0.0168668,860,561,-9.48257,29.3037
-357,463,-9.55865,-30.1335,0.00347241,-0.00218889,0.000468414,0.00351091,-0.00222739,0.0819966,0.00334052,0.0213864,867,561,-9.55865,30.1335
-350,463,-9.47888,-31.0945,0.00421855,-0.00291539,0.000509473,0.00425475,-0.0029516,0.0709356,0.0041832,0.0455564,874,561,-9.4789,31.0945
-343,463,-9.14716,-32.0824,0,0,0,0,0,0,0,-1,881,561,-9.14717,32.0824
-336,463,-2.94928,-12.2127,0,0,0,0,0,0,0,-1,888,561,-2.94925,12.2127
-329,463,-2.64307,-12.7037,0,0,0,0,0,0,0,-1,895,561,-2.64307,12.7038
-322,463,-1.82898,-9.11957,0,0,0,0,0,0,0,-1,902,561,-1.829,9.11957
-315,463,-0.944763,-5.96234,0,0,0,0,0,0,0,-1,909,561,-0.94479,5.96237
-308,463,-1.1535,-3.17889,0,0,0,0,0,0,0,-1,916,561,-1.15352,3.17889
-301,463,-1.50366,-3.15338,0,0,0,0,0,0,0,-1,923,561,-1.50364,3.15341
-294,463,-2.35889,-3.93463,0,0,0,0,0,0,0,-1,930,561,-2.35886,3.93465
-287,463,-2.80322,2.73999,0,0,0,0,0,0,0,-1,937,561,-2.80322,-2.74
-280,463,-12.864,5.25146,0,0,0,0,0,0,0,-1,944,561,-12.864,-5.25149
-273,463,-12.4598,3.39178,0,0,0,0,0,0,0,-1,951,561,-12.4598,-3.3918
-266,463,-8.78101,-3.7356,0,0,0,0,0,0,0,-1,958,561,-8.78098,3.73562
-259,463,-6.23285,-5.68842,0,0,0,0,0,0,0,-1,965,561,-6.23288,5.68843
-252,463,0,0,0,0,0,0,0,0,0,-1,972,561,0,0
-245,463,0,0,0,0,0,0,0,0,0,-1,979,561,0,0
-238,463,0,0,0,0,0,0,0,0,0,-1,986,561,0,0
-231,463,0,0,0,0,0,0,0,0,0,-1,993,561,0,0
-224,463,0,0,0,0,0,0,0,0,0,-1,1000,561,0,0
-217,463,0,0,0,0,0,0,0,0,0,-1,1007,561,0,0
-210,463,0,0,0,0,0,0,0,0,0,-1,1014,561,0,0
-203,463,0,0,0,0,0,0,0,0,0,-1,1021,561,0,0
-196,463,0,0,0,0,0,0,0,0,0,-1,1028,561,0,0
-189,463,0,0,0,0,0,0,0,0,0,-1,1035,561,0,0
-182,463,0,0,0,0,0,0,0,0,0,-1,1042,561,0,0
-175,463,0,0,0,0,0,0,0,0,0,-1,1049,561,0,0
-168,463,0,0,0,0,0,0,0,0,0,-1,1056,561,0,0
-161,463,0,0,0,0,0,0,0,0,0,-1,1063,561,0,0
-154,463,0,0,0,0,0,0,0,0,0,-1,1070,561,0,0
-147,463,0,0,0,0,0,0,0,0,0,-1,1077,561,0,0
-140,463,0,0,0,0,0,0,0,0,0,-1,1084,561,0,0
-133,463,0,0,0,0,0,0,0,0,0,-1,1091,561,0,0
-126,463,0,0,0,0,0,0,0,0,0,-1,1098,561,0,0
-119,463,0,0,0,0,0,0,0,0,0,-1,1105,561,0,0
-112,463,0,0,0,0,0,0,0,0,0,-1,1112,561,0,0
-105,463,0,0,0,0,0,0,0,0,0,-1,1119,561,0,0
-98,463,0,0,0,0,0,0,0,0,0,-1,1126,561,0,0
-91,463,0,0,0,0,0,0,0,0,0,-1,1133,561,0,0
-84,463,0,0,0,0,0,0,0,0,0,-1,1140,561,0,0
-77,463,0,0,0,0,0,0,0,0,0,-1,1147,561,0,0
-70,463,0,0,0,0,0,0,0,0,0,-1,1154,561,0,0
-63,463,0,0,0,0,0,0,0,0,0,-1,1161,561,0,0
-56,463,0,0,0,0,0,0,0,0,0,-1,1168,561,0,0
-49,463,0,0,0,0,0,0,0,0,0,-1,1175,561,0,0
-42,463,0,0,0,0,0,0,0,0,0,-1,1182,561,0,0
-35,463,0,0,0,0,0,0,0,0,0,-1,1189,561,0,0
-28,463,0,0,0,0,0,0,0,0,0,-1,1196,561,0,0
-21,463,0,0,0,0,0,0,0,0,0,-1,1203,561,0,0
-14,463,0,0,0,0,0,0,0,0,0,-1,1210,561,0,0
-7,463,0,0,0,0,0,0,0,0,0,-1,1217,561,0,0
0,463,0,0,0,0,0,0,0,0,0,-1,1224,561,0,0
7,463,0,0,0,0,0,0,0,0,0,-1,1231,561,0,0
14,463,0,0,0,0,0,0,0,0,0,-1,1238,561,0,0
21,463,0,0,0,0,0,0,0,0,0,-1,1245,561,0,0
28,463,0,0,0,0,0,0,0,0,0,-1,1252,561,0,0
35,463,0,0,0,0,0,0,0,0,0,-1,1259,561,0,0
42,463,0,0,0,0,0,0,0,0,0,-1,1266,561,0,0
49,463,0,0,0,0,0,0,0,0,0,-1,1273,561,0,0
56,463,0,0,0,0,0,0,0,0,0,-1,1280,561,0,0
63,463,0,0,0,0,0,0,0,0,0,-1,1287,561,0,0
70,463,0,0,0,0,0,0,0,0,0,-1,1294,561,0,0
77,463,0,0,0,0,0,0,0,0,0,-1,1301,561,0,0
84,463,0,0,0,0,0,0,0,0,0,-1,1308,561,0,0
91,463,0,0,0,0,0,0,0,0,0,-1,1315,561,0,0
98,463,0,0,0,0,0,0,0,0,0,-1,1322,561,0,0
105,463,0,0,0,0,0,0,0,0,0,-1,1329,561,0,0
112,463,0,0,0,0,0,0,0,0,0,-1,1336,561,0,0
119,463,0,0,0,0,0,0,0,0,0,-1,1343,561,0,0
126,463,0,0,0,0,0,0,0,0,0,-1,1350,561,0,0
133,463,0,0,0,0,0,0,0,0,0,-1,1357,561,0,0
140,463,0,0,0,0,0,0,0,0,0,-1,1364,561,0,0
147,463,0,0,0,0,0,0,0,0,0,-1,1371,561,0,0
154,463,0,0,0,0,0,0,0,0,0,-1,1378,561,0,0
161,463,0,0,0,0,0,0,0,0,0,-1,1385,561,0,0
168,463,0,0,0,0,0,0,0,0,0,-1,1392,561,0,0
175,463,0,0,0,0,0,0,0,0,0,-1,1399,561,0,0
182,463,0,0,0,0,0,0,0,0,0,-1,1406,561,0,0
189,463,0,0,0,0,0,0,0,0,0,-1,1413,561,0,0
196,463,0,0,0,0,0,0,0,0,0,-1,1420,561,0,0
203,463,0,0,0,0,0,0,0,0,0,-1,1427,561,0,0
210,463,0,0,0,0,0,0,0,0,0,-1,1434,561,0,0
217,463,0,0,0,0,0,0,0,0,0,-1,1441,561,0,0
224,463,0,0,0,0,0,0,0,0,0,-1,1448,561,0,0
231,463,0,0,0,0,0,0,0,0,0,-1,1455,561,0,0
238,463,0,0,0,0,0,0,0,0,0,-1,1462,561,0,0
245,463,0,0,0,0,0,0,0,0,0,-1,1469,561,0,0
252,463,0,0,0,0,0,0,0,0,0,-1,1476,561,0,0
259,463,0,0,0,0,0,0,0,0,0,-1,1483,561,0,0
266,463,0,0,0,0,0,0,0,0,0,-1,1490,561,0,0
273,463,0,0,0,0,0,0,0,0,0,-1,1497,561,0,0
280,463,0,0,0,0,0,0,0,0,0,-1,1504,561,0,0
287,463,0,0,0,0,0,0,0,0,0,-1,1511,561,0,0
294,463,0,0,0,0,0,0,0,0,0,-1,1518,561,0,0
301,463,0,0,0,0,0,0,0,0,0,-1,1525,561,0,0
308,463,0,0,0,0,0,0,0,0,0,-1,1532,561,0,0
315,463,0,0,0,0,0,0,0,0,0,-1,1539,561,0,0
322,463,0,0,0,0,0,0,0,0,0,-1,1546,561,0,0
329,463,0,0,0,0,0,0,0,0,0,-1,1553,561,0,0
336,463,0,0,0,0,0,0,0,0,0,-1,1560,561,0,0
343,463,0,0,0,0,0,0,0,0,0,-1,1567,561,0,0
350,463,0,0,0,0,0,0,0,0,0,-1,1574,561,0,0
357,463,0,0,0,0,0,0,0,0,0,-1,1581,561,0,0
364,463,0,0,0,0,0,0,0,0,0,-1,1588,561,0,0
371,463,1.75842,0.152588,0,0,0,0,0,0,0,-1,1595,561,1.75844,-0.152558
378,463,4.58813,-0.0444336,0,0,0,0,0,0,0,-1,1602,561,4.58809,0.0444505
385,463,8.88574,1.65057,0,0,0,0,0,0,0,-1,1609,561,8.88575,-1.65055
392,463,14.0912,2.50513,0,0,0,0,0,0,0,-1,1616,561,14.0912,-2.5051
399,463,21.4769,2.7002,0,0,0,0,0,0,0,-1,1623,561,21.477,-2.70017
406,463,26.2987,4.32318,0,0,0,0,0,0,0,-1,1630,561,26.2987,-4.3232
413,463,26.5011,2.65222,0,0,0,0,0,0,0,-1,1637,561,26.5011,-2.65224
420,463,8.849,2.26611,0,0,0,0,0,0,0,-1,1644,561,8.84899,-2.26613
427,463,5.12207,1.69183,0,0,0,0,0,0,0,-1,1651,561,5.12206,-1.69184
434,463,4.59814,1.81995,0,0,0,0,0,0,0,-1,1658,561,4.59812,-1.81994
441,463,1.76392,-5.99225,0,0,0,0,0,0,0,-1,1665,561,1.7639,5.99225
448,463,2.49939,-4.30536,0,0,0,0,0,0,0,-1,1672,561,2.49941,4.30536
455,463,4.40295,-3.02557,0,0,0,0,0,0,0,-1,1679,561,4.40299,3.02558
462,463,5.38293,-4.06445,0,0,0,0,0,0,0,-1,1686,561,5.38289,4.06444
469,463,5.94373,-4.50647,0,0,0,0,0,0,0,-1,1693,561,5.94368,4.50646
476,463,15.2559,-17.3189,0,0,0,0,0,0,0,-1,1700,561,15.2558,17.3189
483,463,25.1982,-29.8917,0,0,0,0,0,0,0,-1,1707,561,25.1982,29.8917
490,463,25.1625,-28.9731,0.00163729,0.00129598,0.000169516,0.00170717,0.0012261,0.391026,0.00101644,0.0340959,1714,561,25.1625,28.9731
497,463,25.072,-27.9592,0.00170938,0.00182486,0.000767276,0.00253656,0.000997674,0.822955,0.00147556,0.0159892,1721,561,25.0721,27.9592
504,463,25.0497,-27.0912,0.00164066,0.00163745,0.00104335,0.00268241,0.000595709,0.784629,0.00162648,0.0165539,1728,561,25.0497,27.0912
511,463,25.0465,-26.1792,0.00148847,0.00138471,0.0012073,0.002645,0.000228179,0.763926,0.00169241,0.0244274,1735,561,25.0465,26.1792
518,463,24.9965,-25.2322,0.00119339,0.00114364,0.00128731,0.00245606,-0.000119038,0.775739,0.00167846,0.0251388,1742,561,24.9964,25.2322
525,463,24.9043,-24.3226,0.0008041,0.000949104,0.00126994,0.00214861,-0.000395408,0.813913,0.00158078,0.0202601,1749,561,24.9042,24.3226
532,463,24.8688,-23.378,0.000364528,0.000868025,0.00123472,0.0018764,-0.000643844,0.885965,0.00151195,0.0193788,1756,561,24.8688,23.378
539,463,24.7444,-22.3969,-0.000103699,0.000954127,0.00119369,0.00173083,-0.000880406,0.993945,0.00153402,0.0219293,1763,561,24.7444,22.3969
546,463,24.6591,-21.5342,-0.00053196,0.00131537,0.00118474,0.00189396,-0.00111055,1.1165,0.0017542,0.017439,1770,561,24.659,21.5342
553,463,24.6407,-20.573,-0.000886412,0.00193084,0.00125061,0.00240589,-0.00136147,1.20777,0.00220277,0.0125336,1777,561,24.6408,20.573
560,463,24.6328,-19.498,-0.00102197,0.00284583,0.00146023,0.0033352,-0.00151134,1.24743,0.00286344,0.0241963,1784,561,24.6328,19.4981
567,463,24.4325,-18.5776,-0.00107598,0.00415629,0.00188124,0.00476246,-0.00168214,1.25908,0.00385986,0.0398531,1791,561,24.4325,18.5776
574,463,24.5576,-17.6186,0,0,0,0,0,0,0,-1,1798,561,24.5576,17.6186
581,463,9.4939,-3.88245,0,0,0,0,0,0,0,-1,1805,561,9.49392,3.88245
588,463,1.97424,2.16016,0,0,0,0,0,0,0,-1,1812,561,1.97422,-2.16013
595,463,9.98657,2.99854,0,0,0,0,0,0,0,-1,1819,561,9.98662,-2.99856
602,463,17.2202,4.91302,0,0,0,0,0,0,0,-1,1826,561,17.2202,-4.91305
609,463,17.96,4.03131,0,0,0,0,0,0,0,-1,1833,561,17.96,-4.03132
616,463,20.8352,3.15131,0,0,0,0,0,0,0,-1,1840,561,20.8352,-3.1513
623,463,0,0,0,0,0,0,0,0,0,-1,1847,561,0,0
630,463,0,0,0,0,0,0,0,0,0,-1,1854,561,0,0
637,463,0,0,0,0,0,0,0,0,0,-1,1861,561,0,0
644,463,0,0,0,0,0,0,0,0,0,-1,1868,561,0,0
651,463,0,0,0,0,0,0,0,0,0,-1,1875,561,0,0
658,463,0,0,0,0,0,0,0,0,0,-1,1882,561,0,0
665,463,0,0,0,0,0,0,0,0,0,-1,1889,561,0,0
672,463,0,0,0,0,0,0,0,0,0,-1,1896,561,0,0
679,463,0,0,0,0,0,0,0,0,0,-1,1903,561,0,0
686,463,0,0,0,0,0,0,0,0,0,-1,1910,561,0,0
693,463,0,0,0,0,0,0,0,0,0,-1,1917,561,0,0
700,463,0,0,0,0,0,0,0,0,0,-1,1924,561,0,0
707,463,0,0,0,0,0,0,0,0,0,-1,1931,561,0,0
714,463,0,0,0,0,0,0,0,0,0,-1,1938,561,0,0
721,463,0,0,0,0,0,0,0,0,0,-1,1945,561,0,0
728,463,0,0,0,0,0,0,0,0,0,-1,1952,561,0,0
735,463,0,0,0,0,0,0,0,0,0,-1,1959,561,0,0
742,463,0,0,0,0,0,0,0,0,0,-1,1966,561,0,0
749,463,0,0,0,0,0,0,0,0,0,-1,1973,561,0,0
756,463,0,0,0,0,0,0,0,0,0,-1,1980,561,0,0
763,463,0,0,0,0,0,0,0,0,0,-1,1987,561,0,0
770,463,0,0,0,0,0,0,0,0,0,-1,1994,561,0,0
777,463,0,0,0,0,0,0,0,0,0,-1,2001,561,0,0
784,463,0,0,0,0,0,0,0,0,0,-1,2008,561,0,0
791,463,0,0,0,0,0,0,0,0,0,-1,2015,561,0,0
798,463,0,0,0,0,0,0,0,0,0,-1,2022,561,0,0
805,463,0,0,0,0,0,0,0,0,0,-1,2029,561,0,0
812,463,0,0,0,0,0,0,0,0,0,-1,2036,561,0,0
-700,456,0,0,0,0,0,0,0,0,0,-1,524,568,0,0
-693,456,0,0,0,0,0,0,0,0,0,-1,531,568,0,0
-686,456,0,0,0,0,0,0,0,0,0,-1,538,568,0,0
-679,456,0,0,0,0,0,0,0,0,0,-1,545,568,0,0
-672,456,0,0,0,0,0,0,0,0,0,-1,552,568,0,0
-665,456,0,0,0,0,0,0,0,0,0,-1,559,568,0,0
-658,456,0,0,0,0,0,0,0,0,0,-1,566,568,0,0
-651,456,0,0,0,0,0,0,0,0,0,-1,573,568,0,0
-644,456,0,0,0,0,0,0,0,0,0,-1,580,568,0,0
-637,456,0,0,0,0,0,0,0,0,0,-1,587,568,0,0
-630,456,0,0,0,0,0,0,0,0,0,-1,594,568,0,0
-623,456,0,0,0,0,0,0,0,0,0,-1,601,568,0,0
-616,456,0,0,0,0,0,0,0,0,0,-1,608,568,0,0
-609,456,0,0,0,0,0,0,0,0,0,-1,615,568,0,0
-602,456,0,0,0,0,0,0,0,0,0,-1,622,568,0,0
-595,456,0,0,0,0,0,0,0,0,0,-1,629,568,0,0
-588,456,0,0,0,0,0,0,0,0,0,-1,636,568,0,0
-581,456,0,0,0,0,0,0,0,0,0,-1,643,568,0,0
-574,456,0,0,0,0,0,0,0,0,0,-1,650,568,0,0
-567,456,0,0,0,0,0,0,0,0,0,-1,657,568,0,0
-560,456,0,0,0,0,0,0,0,0,0,-1,664,568,0,0
-553,456,0,0,0,0,0,0,0,0,0,-1,671,568,0,0
-546,456,0,0,0,0,0,0,0,0,0,-1,678,568,0,0
-539,456,0,0,0,0,0,0,0,0,0,-1,685,568,0,0
-532,456,0,0,0,0,0,0,0,0,0,-1,692,568,0,0
-525,456,0,0,0,0,0,0,0,0,0,-1,699,568,0,0
-518,456,0,0,0,0,0,0,0,0,0,-1,706,568,0,0
-511,456,0,0,0,0,0,0,0,0,0,-1,713,568,0,0
-504,456,-10.3994,-2.34839,0,0,0,0,0,0,0,-1,720,568,-10.3994,2.3484
-497,456,-9.21375,-2.38068,0,0,0,0,0,0,0,-1,727,568,-9.21372,2.38069
-490,456,-8.09058,-2.31824,0,0,0,0,0,0,0,-1,734,568,-8.09057,2.31821
-483,456,-6.66119,-2.24329,0,0,0,0,0,0,0,-1,741,568,-6.66121,2.24331
-476,456,-5.1499,-2.21185,0,0,0,0,0,0,0,-1,748,568,-5.14992,2.21184
-469,456,-2.81238,-3.51501,0,0,0,0,0,0,0,-1,755,568,-2.81237,3.51501
-462,456,-4.2431,-5.27478,0,0,0,0,0,0,0,-1,762,568,-4.24312,5.27476
-455,456,-5.98364,-8.72119,0,0,0,0,0,0,0,-1,769,568,-5.98364,8.72122
-448,456,-8.57849,-16.2391,0,0,0,0,0,0,0,-1,776,568,-8.57846,16.2392
-441,456,-9.89911,-19.0317,0,0,0,0,0,0,0,-1,783,568,-9.89911,19.0317
-434,456,-9.82452,-20.1119,-0.00107612,0.00589461,-0.0010158,0.00603962,-0.00122113,-1.429,0.00448917,0.0239916,790,568,-9.82451,20.1119
-427,456,-9.86279,-21.0626,-0.000477665,0.00505565,-0.00125189,0.0053257,-0.000747719,-1.35833,0.00382415,0.00972989,797,568,-9.86281,21.0626
-420,456,-9.91937,-21.9993,-2.8848e-05,0.0042305,-0.00140026,0.0046496,-0.000447944,-1.27998,0.00325932,0.00917876,804,568,-9.9194,21.9993
-413,456,-9.98828,-22.9273,0.000273271,0.00333267,-0.00135262,0.00384492,-0.00023898,-1.20878,0.00264654,0.00940416,811,568,-9.98829,22.9273
-406,456,-10.0767,-23.8306,0.000437455,0.00235737,-0.00107852,0.00284127,-4.64467e-05,-1.14905,0.00190985,0.00999152,818,568,-10.0767,23.8306
-399,456,-10.1326,-24.7208,0.000668735,0.00152504,-0.000804144,0.00200791,0.000185863,-1.03003,0.00128115,0.0121249,825,568,-10.1326,24.7208
-392,456,-10.162,-25.6202,0.00100428,0.000716411,-0.000548826,0.00142773,0.000292959,-0.657156,0.000870754,0.0121491,832,568,-10.1621,25.6202
-385,456,-10.2074,-26.5229,0.00147499,-1.54059e-05,-0.000330355,0.00154493,-8.53485e-05,-0.208639,0.00105955,0.0115372,839,568,-10.2074,26.5229
-378,456,-10.2782,-27.452,0.00200605,-0.000760474,-5.4857e-05,0.00200714,-0.000761562,-0.0198185,0.00165155,0.0124098,846,568,-10.2782,27.4519
-371,456,-10.3436,-28.36,0.00267791,-0.0012951,0.000183768,0.00268639,-0.00130359,0.0461226,0.00234928,0.0135979,853,568,-10.3436,28.3601
-364,456,-10.3732,-29.2083,0.0034397,-0.00159183,0.000294743,0.00345691,-0.00160904,0.0583133,0.00298898,0.0238601,860,568,-10.3732,29.2082
-357,456,-10.356,-30.137,0,0,0,0,0,0,0,-1,867,568,-10.356,30.1369
-350,456,-10.2015,-31.277,0,0,0,0,0,0,0,-1,874,568,-10.2015,31.277
-343,456,-3.39081,-12.0217,0,0,0,0,0,0,0,-1,881,568,-3.39078,12.0217
-336,456,-3.04517,-12.4623,0,0,0,0,0,0,0,-1,888,568,-3.04519,12.4624
-329,456,-1.06183,-10.7184,0,0,0,0,0,0,0,-1,895,568,-1.06184,10.7184
-322,456,-0.662537,-7.66632,0,0,0,0,0,0,0,-1,902,568,-0.662564,7.66633
-315,456,-0.675476,-3.38397,0,0,0,0,0,0,0,-1,909,568,-0.675473,3.38399
-308,456,-1.1618,-3.15314,0,0,0,0,0,0,0,-1,916,568,-1.16178,3.15314
-301,456,-1.83551,-3.26447,0,0,0,0,0,0,0,-1,923,568,-1.8355,3.26449
-294,456,-2.93414,-3.35449,0,0,0,0,0,0,0,-1,930,568,-2.93413,3.35451
-287,456,-3.7569,-3.53101,0,0,0,0,0,0,0,-1,937,568,-3.75692,3.53101
-280,456,-13.072,4.52856,0,0,0,0,0,0,0,-1,944,568,-13.072,-4.52855
-273,456,-8.26538,-6.66748,0,0,0,0,0,0,0,-1,951,568,-8.26536,6.66745
-266,456,-5.71527,-9.36884,0,0,0,0,0,0,0,-1,958,568,-5.71529,9.36885
-259,456,0,0,0,0,0,0,0,0,0,-1,965,568,0,0
-252,456,0,0,0,0,0,0,0,0,0,-1,972,568,0,0
-245,456,0,0,0,0,0,0,0,0,0,-1,979,568,0,0
-238,456,0,0,0,0,0,0,0,0,0,-1,986,568,0,0
-231,456,0,0,0,0,0,0,0,0,0,-1,993,568,0,0
-224,456,0,0,0,0,0,0,0,0,0,-1,1000,568,0,0
-217,456,0,0,0,0,0,0,0,0,0,-1,1007,568,0,0
-210,456,0,0,0,0,0,0,0,0,0,-1,1014,568,0,0
-203,456,0,0,0,0,0,0,0,0,0,-1,1021,568,0,0
-196,456,0,0,0,0,0,0,0,0,0,-1,1028,568,0,0
-189,456,0,0,0,0,0,0,0,0,0,-1,1035,568,0,0
-182,456,0,0,0,0,0,0,0,0,0,-1,1042,568,0,0
-175,456,0,0,0,0,0,0,0,0,0,-1,1049,568,0,0
-168,456,0,0,0,0,0,0,0,0,0,-1,1056,568,0,0
-161,456,0,0,0,0,0,0,0,0,0,-1,1063,568,0,0
-154,456,0,0,0,0,0,0,0,0,0,-1,1070,568,0,0
-147,456,0,0,0,0,0,0,0,0,0,-1,1077,568,0,0
-140,456,0,0,0,0,0,0,0,0,0,-1,1084,568,0,0
-133,456,0,0,0,0,0,0,0,0,0,-1,1091,568,0,0
-126,456,0,0,0,0,0,0,0,0,0,-1,1098,568,0,0
-119,456,0,0,0,0,0,0,0,0,0,-1,1105,568,0,0
-112,456,0,0,0,0,0,0,0,0,0,-1,1112,568,0,0
-105,456,0,0,0,0,0,0,0,0,0,-1,1119,568,0,0
-98,456,0,0,0,0,0,0,0,0,0,-1,1126,568,0,0
-91,456,0,0,0,0,0,0,0,0,0,-1,1133,568,0,0
-84,456,0,0,0,0,0,0,0,0,0,-1,1140,568,0,0
-77,456,0,0,0,0,0,0,0,0,0,-1,1147,568,0,0
-70,456,0,0,0,0,0,0,0,0,0,-1,1154,568,0,0
-63,456,0,0,0,0,0,0,0,0,0,-1,1161,568,0,0
-56,456,0,0,0,0,0,0,0,0,0,-1,1168,568,0,0
-49,456,0,0,0,0,0,0,0,0,0,-1,1175,568,0,0
-42,456,0,0,0,0,0,0,0,0,0,-1,1182,568,0,0
-35,456,0,0,0,0,0,0,0,0,0,-1,1189,568,0,0
-28,456,0,0,0,0,0,0,0,0,0,-1,1196,568,0,0
-21,456,0,0,0,0,0,0,0,0,0,-1,1203,568,0,0
-14,456,0,0,0,0,0,0,0,0,0,-1,1210,568,0,0
-7,456,0,0,0,0,0,0,0,0,0,-1,1217,568,0,0
0,456,0,0,0,0,0,0,0,0,0,-1,1224,568,0,0
7,456,0,0,0,0,0,0,0,0,0,-1,1231,568,0,0
14,456,0,0,0,0,0,0,0,0,0,-1,1238,568,0,0
21,456,0,0,0,0,0,0,0,0,0,-1,1245,568,0,0
28,456,0,0,0,0,0,0,0,0,0,-1,1252,568,0,0
35,456,0,0,0,0,0,0,0,0,0,-1,1259,568,0,0
42,456,0,0,0,0,0,0,0,0,0,-1,1266,568,0,0
49,456,0,0,0,0,0,0,0,0,0,-1,1273,568,0,0
56,456,0,0,0,0,0,0,0,0,0,-1,1280,568,0,0
63,456,0,0,0,0,0,0,0,0,0,-1,1287,568,0,0
70,456,0,0,0,0,0,0,0,0,0,-1,1294,568,0,0
77,456,0,0,0,0,0,0,0,0,0,-1,1301,568,0,0
84,456,0,0,0,0,0,0,0,0,0,-1,1308,568,0,0
91,456,0,0,0,0,0,0,0,0,0,-1,1315,568,0,0
98,456,0,0,0,0,0,0,0,0,0,-1,1322,568,0,0
105,456,0,0,0,0,0,0,0,0,0,-1,1329,568,0,0
112,456,0,0,0,0,0,0,0,0,0,-1,1336,568,0,0
119,456,0,0,0,0,0,0,0,0,0,-1,1343,568,0,0
126,456,0,0,0,0,0,0,0,0,0,-1,1350,568,0,0
133,456,0,0,0,0,0,0,0,0,0,-1,1357,568,0,0
140,456,0,0,0,0,0,0,0,0,0,-1,1364,568,0,0
147,456,0,0,0,0,0,0,0,0,0,-1,1371,568,0,0
154,456,0,0,0,0,0,0,0,0,0,-1,1378,568,0,0
161,456,0,0,0,0,0,0,0,0,0,-1,1385,568,0,0
168,456,0,0,0,0,0,0,0,0,0,-1,1392,568,0,0
175,456,0,0,0,0,0,0,0,0,0,-1,1399,568,0,0
182,456,0,0,0,0,0,0,0,0,0,-1,1406,568,0,0
189,456,0,0,0,0,0,0,0,0,0,-1,1413,568,0,0
196,456,0,0,0,0,0,0,0,0,0,-1,1420,568,0,0
203,456,0,0,0,0,0,0,0,0,0,-1,1427,568,0,0
210,456,0,0,0,0,0,0,0,0,0,-1,1434,568,0,0
217,456,0,0,0,0,0,0,0,0,0,-1,1441,568,0,0
224,456,0,0,0,0,0,0,0,0,0,-1,1448,568,0,0
231,456,0,0,0,0,0,0,0,0,0,-1,1455,568,0,0
238,456,0,0,0,0,0,0,0,0,0,-1,1462,568,0,0
245,456,0,0,0,0,0,0,0,0,0,-1,1469,568,0,0
252,456,0,0,0,0,0,0,0,0,0,-1,1476,568,0,0
259,456,0,0,0,0,0,0,0,0,0,-1,1483,568,0,0
266,456,0,0,0,0,0,0,0,0,0,-1,1490,568,0,0
273,456,0,0,0,0,0,0,0,0,0,-1,1497,568,0,0
280,456,0,0,0,0,0,0,0,0,0,-1,1504,568,0,0
287,456,0,0,0,0,0,0,0,0,0,-1,1511,568,0,0
294,456,0,0,0,0,0,0,0,0,0,-1,1518,568,0,0
301,456,0,0,0,0,0,0,0,0,0,-1,1525,568,0,0
308,456,0,0,0,0,0,0,0,0,0,-1,1532,568,0,0
315,456,0,0,0,0,0,0,0,0,0,-1,1539,568,0,0
322,456,0,0,0,0,0,0,0,0,0,-1,1546,568,0,0
329,456,0,0,0,0,0,0,0,0,0,-1,1553,568,0,0
336,456,0,0,0,0,0,0,0,0,0,-1,1560,568,0,0
343,456,0,0,0,0,0,0,0,0,0,-1,1567,568,0,0
350,456,0,0,0,0,0,0,0,0,0,-1,1574,568,0,0
357,456,0,0,0,0,0,0,0,0,0,-1,1581,568,0,0
364,456,0,0,0,0,0,0,0,0,0,-1,1588,568,0,0
371,456,0,0,0,0,0,0,0,0,0,-1,1595,568,0,0
378,456,0,0,0,0,0,0,0,0,0,-1,1602,568,0,0
385,456,5.66284,0.660645,0,0,0,0,0,0,0,-1,1609,568,5.66285,-0.660615
392,456,17.5027,4.32971,0,0,0,0,0,0,0,-1,1616,568,17.5026,-4.32971
399,456,24.1917,5.99652,0,0,0,0,0,0,0,-1,1623,568,24.1916,-5.99651
406,456,24.446,4.53003,0,0,0,0,0,0,0,-1,1630,568,24.446,-4.53005
413,456,24.9418,2.90521,0,0,0,0,0,0,0,-1,1637,568,24.9418,-2.90524
420,456,25.3048,1.04712,0,0,0,0,0,0,0,-1,1644,568,25.3048,-1.04713
427,456,6.21375,2.02905,0,0,0,0,0,0,0,-1,1651,568,6.21372,-2.02904
434,456,3.0719,-4.86285,0,0,0,0,0,0,0,-1,1658,568,3.07184,4.86287
441,456,2.90344,-4.70459,0,0,0,0,0,0,0,-1,1665,568,2.90346,4.7046
448,456,3.06995,-4.93689,0,0,0,0,0,0,0,-1,1672,568,3.06991,4.93687
455,456,3.46582,-3.43701,0,0,0,0,0,0,0,-1,1679,568,3.46585,3.43698
462,456,4.68445,-4.45831,0,0,0,0,0,0,0,-1,1686,568,4.68439,4.45833
469,456,4.93201,-2.289,0,0,0,0,0,0,0,-1,1693,568,4.93197,2.28903
476,456,4.8363,-2.79364,0,0,0,0,0,0,0,-1,1700,568,4.83636,2.79363
483,456,12.8522,-13.692,0,0,0,0,0,0,0,-1,1707,568,12.8522,13.6919
490,456,25.9481,-29.2692,0,0,0,0,0,0,0,-1,1714,568,25.9481,29.2692
497,456,25.9757,-27.9133,0,0,0,0,0,0,0,-1,1721,568,25.9757,27.9132
504,456,25.8951,-27.0211,0.00243054,0.00225188,0.00141667,0.00376069,0.000921727,0.753911,0.00226334,0.0170645,1728,568,25.8952,27.021
511,456,25.9194,-26.1068,0.00217166,0.00179059,0.00148583,0.00347912,0.000483128,0.72163,0.00217632,0.0153944,1735,568,25.9194,26.1067
518,456,25.9053,-25.1738,0.00181326,0.00138528,0.00151327,0.0031276,7.09445e-05,0.71516,0.00206183,0.0181739,1742,568,25.9053,25.1738
525,456,25.8121,-24.2576,0.00134697,0.00110669,0.00143989,0.00267173,-0.00021807,0.743777,0.00185811,0.0177199,1749,568,25.8121,24.2575
532,456,25.7834,-23.2869,0.00086892,0.000967695,0.00136292,0.00228212,-0.000445502,0.803509,0.0016896,0.0182642,1756,568,25.7834,23.2869
539,456,25.6869,-22.3047,0.000426699,0.00102016,0.00130737,0.00206405,-0.000617189,0.896992,0.0016214,0.0268517,1763,568,25.6868,22.3047
546,456,25.5449,-21.4095,5.9404e-05,0.00132917,0.00128292,0.00212571,-0.000737129,1.01517,0.00171644,0.0305463,1770,568,25.5449,21.4095
553,456,25.484,-20.4592,-0.000250022,0.00189652,0.00134473,0.00254377,-0.000897277,1.1222,0.0020611,0.0166663,1777,568,25.484,20.4592
560,456,25.484,-19.5615,-0.000366447,0.00272226,0.00156828,0.00337894,-0.00102313,1.17425,0.00266008,0.0119716,1784,568,25.484,19.5615
567,456,25.4321,-18.6132,-0.000278475,0.00393279,0.00205369,0.00476847,-0.00111416,1.18434,0.00360817,0.022156,1791,568,25.4321,18.6132
574,456,25.3921,-17.6805,0,0,0,0,0,0,0,-1,1798,568,25.3921,17.6805
581,456,16.2228,-9.08563,0,0,0,0,0,0,0,-1,1805,568,16.2228,9.08562
588,456,5.23901,-0.0901489,0,0,0,0,0,0,0,-1,1812,568,5.23906,0.0901656
595,456,6.90063,3.14886,0,0,0,0,0,0,0,-1,1819,568,6.90066,-3.14887
602,456,16.894,4.10938,0,0,0,0,0,0,0,-1,1826,568,16.8941,-4.1094
609,456,14.9966,3.5708,0,0,0,0,0,0,0,-1,1833,568,14.9966,-3.57083
616,456,17.7407,2.6579,0,0,0,0,0,0,0,-1,1840,568,17.7408,-2.6579
623,456,20.6838,1.7121,0,0,0,0,0,0,0,-1,1847,568,20.6838,-1.71208
630,456,0,0,0,0,0,0,0,0,0,-1,1854,568,0,0
637,456,0,0,0,0,0,0,0,0,0,-1,1861,568,0,0
644,456,0,0,0,0,0,0,0,0,0,-1,1868,568,0,0
651,456,0,0,0,0,0,0,0,0,0,-1,1875,568,0,0
658,456,0,0,0,0,0,0,0,0,0,-1,1882,568,0,0
665,456,0,0,0,0,0,0,0,0,0,-1,1889,568,0,0
672,456,0,0,0,0,0,0,0,0,0,-1,1896,568,0,0
679,456,0,0,0,0,0,0,0,0,0,-1,1903,568,0,0
686,456,0,0,0,0,0,0,0,0,0,-1,1910,568,0,0
693,456,0,0,0,0,0,0,0,0,0,-1,1917,568,0,0
700,456,0,0,0,0,0,0,0,0,0,-1,1924,568,0,0
707,456,0,0,0,0,0,0,0,0,0,-1,1931,568,0,0
714,456,0,0,0,0,0,0,0,0,0,-1,1938,568,0,0
721,456,0,0,0,0,0,0,0,0,0,-1,1945,568,0,0
728,456,0,0,0,0,0,0,0,0,0,-1,1952,568,0,0
735,456,0,0,0,0,0,0,0,0,0,-1,1959,568,0,0
742,456,0,0,0,0,0,0,0,0,0,-1,1966,568,0,0
749,456,0,0,0,0,0,0,0,0,0,-1,1973,568,0,0
756,456,0,0,0,0,0,0,0,0,0,-1,1980,568,0,0
763,456,0,0,0,0,0,0,0,0,0,-1,1987,568,0,0
770,456,0,0,0,0,0,0,0,0,0,-1,1994,568,0,0
777,456,0,0,0,0,0,0,0,0,0,-1,2001,568,0,0
784,456,0,0,0,0,0,0,0,0,0,-1,2008,568,0,0
791,456,0,0,0,0,0,0,0,0,0,-1,2015,568,0,0
798,456,0,0,0,0,0,0,0,0,0,-1,2022,568,0,0
805,456,0,0,0,0,0,0,0,0,0,-1,2029,568,0,0
812,456,0,0,0,0,0,0,0,0,0,-1,2036,568,0,0
-700,449,0,0,0,0,0,0,0,0,0,-1,524,575,0,0
-693,449,0,0,0,0,0,0,0,0,0,-1,531,575,0,0
-686,449,0,0,0,0,0,0,0,0,0,-1,538,575,0,0
-679,449,0,0,0,0,0,0,0,0,0,-1,545,575,0,0
-672,449,0,0,0,0,0,0,0,0,0,-1,552,575,0,0
-665,449,0,0,0,0,0,0,0,0,0,-1,559,575,0,0
-658,449,0,0,0,0,0,0,0,0,0,-1,566,575,0,0
-651,449,0,0,0,0,0,0,0,0,0,-1,573,575,0,0
-644,449,0,0,0,0,0,0,0,0,0,-1,580,575,0,0
-637,449,0,0,0,0,0,0,0,0,0,-1,587,575,0,0
-630,449,0,0,0,0,0,0,0,0,0,-1,594,575,0,0
-623,449,0,0,0,0,0,0,0,0,0,-1,601,575,0,0
-616,449,0,0,0,0,0,0,0,0,0,-1,608,575,0,0
-609,449,0,0,0,0,0,0,0,0,0,-1,615,575,0,0
-602,449,0,0,0,0,0,0,0,0,0,-1,622,575,0,0
-595,449,0,0,0,0,0,0,0,0,0,-1,629,575,0,0
-588,449,0,0,0,0,0,0,0,0,0,-1,636,575,0,0
-581,449,0,0,0,0,0,0,0,0,0,-1,643,575,0,0
-574,449,0,0,0,0,0,0,0,0,0,-1,650,575,0,0
-567,449,0,0,0,0,0,0,0,0,0,-1,657,575,0,0
-560,449,0,0,0,0,0,0,0,0,0,-1,664,575,0,0
-553,449,0,0,0,0,0,0,0,0,0,-1,671,575,0,0
-546,449,0,0,0,0,0,0,0,0,0,-1,678,575,0,0
-539,449,0,0,0,0,0,0,0,0,0,-1,685,575,0,0
-532,449,0,0,0,0,0,0,0,0,0,-1,692,575,0,0
-525,449,0,0,0,0,0,0,0,0,0,-1,699,575,0,0
-518,449,0,0,0,0,0,0,0,0,0,-1,706,575,0,0
-511,449,-0.941345,-4.4519,0,0,0,0,0,0,0,-1,713,575,-0.941356,4.45191
-504,449,-14.1078,0.318237,0,0,0,0,0,0,0,-1,720,575,-14.1078,-0.318231
-497,449,-8.61292,-3.09009,0,0,0,0,0,0,0,-1,727,575,-8.61291,3.09011
-490,449,-7.50995,-2.96252,0,0,0,0,0,0,0,-1,734,575,-7.50995,2.96251
-483,449,-5.77789,-2.50061,0,0,0,0,0,0,0,-1,741,575,-5.77792,2.50059
-476,449,-4.1723,-2.07739,0,0,0,0,0,0,0,-1,748,575,-4.17228,2.0774
-469,449,-5.0976,-5.78448,0,0,0,0,0,0,0,-1,755,575,-5.09758,5.78451
-462,449,-6.54181,-9.54535,0,0,0,0,0,0,0,-1,762,575,-6.54178,9.54536
-455,449,-8.67291,-13.2226,0,0,0,0,0,0,0,-1,769,575,-8.67289,13.2226
-448,449,-10.5574,-18.0743,0,0,0,0,0,0,0,-1,776,575,-10.5574,18.0743
-441,449,-10.6427,-19.1959,-0.00181325,0.00484321,-0.000160614,0.00484708,-0.00181713,-1.54669,0.00397793,0.0262739,783,575,-10.6427,19.1959
-434,449,-10.7734,-20.0713,-0.000893486,0.00416058,-0.000604948,0.00423198,-0.000964887,-1.45331,0.00319194,0.01482,790,575,-10.7735,20.0713
-427,449,-10.7982,-20.9698,-0.000259473,0.00355484,-0.000854131,0.00373737,-0.000442002,-1.36026,0.00265122,0.0137847,797,575,-10.7981,20.9698
-420,449,-10.8405,-21.9,0.00024502,0.00295625,-0.00104094,0.0033098,-0.000108529,-1.24338,0.00224359,0.0131403,804,575,-10.8405,21.9
-413,449,-10.905,-22.8428,0.000580005,0.00227958,-0.00103131,0.0027661,9.34793e-05,-1.13,0.00181371,0.0112744,811,575,-10.905,22.8428
-406,449,-10.975,-23.756,0.000770392,0.00153203,-0.000819934,0.00205527,0.000247157,-1.0028,0.00129567,0.0104582,818,575,-10.975,23.756
-399,449,-11.0412,-24.6555,0.00104171,0.000916687,-0.00063717,0.00161943,0.000338971,-0.7365,0.000986241,0.00982465,825,575,-11.0412,24.6555
-392,449,-11.0732,-25.5595,0.00139638,0.000297589,-0.000463358,0.00156569,0.00012828,-0.350324,0.00100377,0.0111615,832,575,-11.0732,25.5595
-385,449,-11.1182,-26.4631,0.00188877,-0.000288022,-0.000316964,0.00193398,-0.000333236,-0.141692,0.00141355,0.0117661,839,575,-11.1182,26.4631
-378,449,-11.1895,-27.3593,0.00248303,-0.000883475,-0.000135286,0.00248845,-0.000888903,-0.0400998,0.0020215,0.0107771,846,575,-11.1895,27.3593
-371,449,-11.2131,-28.2798,0.00326901,-0.00119698,1.93162e-05,0.0032691,-0.00119707,0.00432506,0.00266944,0.0186855,853,575,-11.2131,28.2798
-364,449,-11.2305,-29.2228,0,0,0,0,0,0,0,-1,860,575,-11.2306,29.2228
-357,449,-5.88049,-15.8704,0,0,0,0,0,0,0,-1,867,575,-5.88051,15.8704
-350,449,-2.8764,-9.90204,0,0,0,0,0,0,0,-1,874,575,-2.87638,9.90203
-343,449,-2.98492,-9.2254,0,0,0,0,0,0,0,-1,881,575,-2.98491,9.22541
-336,449,-1.29523,-9.54626,0,0,0,0,0,0,0,-1,888,575,-1.29525,9.54626
-329,449,-0.733398,-7.78937,0,0,0,0,0,0,0,-1,895,575,-0.733398,7.78937
-322,449,-0.628845,-3.16669,0,0,0,0,0,0,0,-1,902,575,-0.628861,3.16667
-315,449,-0.540344,-3.21918,0,0,0,0,0,0,0,-1,909,575,-0.540336,3.21917
-308,449,-1.04413,-2.99341,0,0,0,0,0,0,0,-1,916,575,-1.04415,2.99338
-301,449,-1.58691,-2.80725,0,0,0,0,0,0,0,-1,923,575,-1.58692,2.80728
-294,449,-3.71118,-2.76086,0,0,0,0,0,0,0,-1,930,575,-3.71119,2.76087
-287,449,-4.4082,-2.69525,0,0,0,0,0,0,0,-1,937,575,-4.40822,2.69526
-280,449,0.723999,-14.2697,0,0,0,0,0,0,0,-1,944,575,0.723977,14.2696
-273,449,0,0,0,0,0,0,0,0,0,-1,951,575,0,0
-266,449,0,0,0,0,0,0,0,0,0,-1,958,575,0,0
-259,449,0,0,0,0,0,0,0,0,0,-1,965,575,0,0
-252,449,0,0,0,0,0,0,0,0,0,-1,972,575,0,0
-245,449,0,0,0,0,0,0,0,0,0,-1,979,575,0,0
-238,449,0,0,0,0,0,0,0,0,0,-1,986,575,0,0
-231,449,0,0,0,0,0,0,0,0,0,-1,993,575,0,0
-224,449,0,0,0,0,0,0,0,0,0,-1,1000,575,0,0
-217,449,0,0,0,0,0,0,0,0,0,-1,1007,575,0,0
-210,449,0,0,0,0,0,0,0,0,0,-1,1014,575,0,0
-203,449,0,0,0,0,0,0,0,0,0,-1,1021,575,0,0
-196,449,0,0,0,0,0,0,0,0,0,-1,1028,575,0,0
-189,449,0,0,0,0,0,0,0,0,0,-1,1035,575,0,0
-182,449,0,0,0,0,0,0,0,0,0,-1,1042,575,0,0
-175,449,0,0,0,0,0,0,0,0,0,-1,1049,575,0,0
-168,449,0,0,0,0,0,0,0,0,0,-1,1056,575,0,0
-161,449,0,0,0,0,0,0,0,0,0,-1,1063,575,0,0
-154,449,0,0,0,0,0,0,0,0,0,-1,1070,575,0,0
-147,449,0,0,0,0,0,0,0,0,0,-1,1077,575,0,0
-140,449,0,0,0,0,0,0,0,0,0,-1,1084,575,0,0
-133,449,0,0,0,0,0,0,0,0,0,-1,1091,575,0,0
-126,449,0,0,0,0,0,0,0,0,0,-1,1098,575,0,0
-119,449,0,0,0,0,0,0,0,0,0,-1,1105,575,0,0
-112,449,0,0,0,0,0,0,0,0,0,-1,1112,575,0,0
-105,449,0,0,0,0,0,0,0,0,0,-1,1119,575,0,0
-98,449,0,0,0,0,0,0,0,0,0,-1,1126,575,0,0
-91,449,0,0,0,0,0,0,0,0,0,-1,1133,575,0,0
-84,449,0,0,0,0,0,0,0,0,0,-1,1140,575,0,0
-77,449,0,0,0,0,0,0,0,0,0,-1,1147,575,0,0
-70,449,0,0,0,0,0,0,0,0,0,-1,1154,575,0,0
-63,449,0,0,0,0,0,0,0,0,0,-1,1161,575,0,0
-56,449,0,0,0,0,0,0,0,0,0,-1,1168,575,0,0
-49,449,0,0,0,0,0,0,0,0,0,-1,1175,575,0,0
-42,449,0,0,0,0,0,0,0,0,0,-1,1182,575,0,0
-35,449,0,0,0,0,0,0,0,0,0,-1,1189,575,0,0
-28,449,0,0,0,0,0,0,0,0,0,-1,1196,575,0,0
-21,449,0,0,0,0,0,0,0,0,0,-1,1203,575,0,0
-14,449,0,0,0,0,0,0,0,0,0,-1,1210,575,0,0
-7,449,0,0,0,0,0,0,0,0,0,-1,1217,575,0,0
0,449,0,0,0,0,0,0,0,0,0,-1,1224,575,0,0
7,449,0,0,0,0,0,0,0,0,0,-1,1231,575,0,0
14,449,0,0,0,0,0,0,0,0,0,-1,1238,575,0,0
21,449,0,0,0,0,0,0,0,0,0,-1,1245,575,0,0
28,449,0,0,0,0,0,0,0,0,0,-1,1252,575,0,0
35,449,0,0,0,0,0,0,0,0,0,-1,1259,575,0,0
42,449,0,0,0,0,0,0,0,0,0,-1,1266,575,0,0
49,449,0,0,0,0,0,0,0,0,0,-1,1273,575,0,0
56,449,0,0,0,0,0,0,0,0,0,-1,1280,575,0,0
63,449,0,0,0,0,0,0,0,0,0,-1,1287,575,0,0
70,449,0,0,0,0,0,0,0,0,0,-1,1294,575,0,0
77,449,0,0,0,0,0,0,0,0,0,-1,1301,575,0,0
84,449,0,0,0,0,0,0,0,0,0,-1,1308,575,0,0
91,449,0,0,0,0,0,0,0,0,0,-1,1315,575,0,0
98,449,0,0,0,0,0,0,0,0,0,-1,1322,575,0,0
105,449,0,0,0,0,0,0,0,0,0,-1,1329,575,0,0
112,449,0,0,0,0,0,0,0,0,0,-1,1336,575,0,0
119,449,0,0,0,0,0,0,0,0,0,-1,1343,575,0,0
126,449,0,0,0,0,0,0,0,0,0,-1,1350,575,0,0
133,449,0,0,0,0,0,0,0,0,0,-1,1357,575,0,0
140,449,0,0,0,0,0,0,0,0,0,-1,1364,575,0,0
147,449,0,0,0,0,0,0,0,0,0,-1,1371,575,0,0
154,449,0,0,0,0,0,0,0,0,0,-1,1378,575,0,0
161,449,0,0,0,0,0,0,0,0,0,-1,1385,575,0,0
168,449,0,0,0,0,0,0,0,0,0,-1,1392,575,0,0
175,449,0,0,0,0,0,0,0,0,0,-1,1399,575,0,0
182,449,0,0,0,0,0,0,0,0,0,-1,1406,575,0,0
189,449,0,0,0,0,0,0,0,0,0,-1,1413,575,0,0
196,449,0,0,0,0,0,0,0,0,0,-1,1420,575,0,0
203,449,0,0,0,0,0,0,0,0,0,-1,1427,575,0,0
210,449,0,0,0,0,0,0,0,0,0,-1,1434,575,0,0
217,449,0,0,0,0,0,0,0,0,0,-1,1441,575,0,0
224,449,0,0,0,0,0,0,0,0,0,-1,1448,575,0,0
231,449,0,0,0,0,0,0,0,0,0,-1,1455,575,0,0
238,449,0,0,0,0,0,0,0,0,0,-1,1462,575,0,0
245,449,0,0,0,0,0,0,0,0,0,-1,1469,575,0,0
252,449,0,0,0,0,0,0,0,0,0,-1,1476,575,0,0
259,449,0,0,0,0,0,0,0,0,0,-1,1483,575,0,0
266,449,0,0,0,0,0,0,0,0,0,-1,1490,575,0,0
273,449,0,0,0,0,0,0,0,0,0,-1,1497,575,0,0
280,449,0,0,0,0,0,0,0,0,0,-1,1504,575,0,0
287,449,0,0,0,0,0,0,0,0,0,-1,1511,575,0,0
294,449,0,0,0,0,0,0,0,0,0,-1,1518,575,0,0
301,449,0,0,0,0,0,0,0,0,0,-1,1525,575,0,0
308,449,0,0,0,0,0,0,0,0,0,-1,1532,575,0,0
315,449,0,0,0,0,0,0,0,0,0,-1,1539,575,0,0
322,449,0,0,0,0,0,0,0,0,0,-1,1546,575,0,0
329,449,0,0,0,0,0,0,0,0,0,-1,1553,575,0,0
336,449,0,0,0,0,0,0,0,0,0,-1,1560,575,0,0
343,449,0,0,0,0,0,0,0,0,0,-1,1567,575,0,0
350,449,0,0,0,0,0,0,0,0,0,-1,1574,575,0,0
357,449,0,0,0,0,0,0,0,0,0,-1,1581,575,0,0
364,449,0,0,0,0,0,0,0,0,0,-1,1588,575,0,0
371,449,0,0,0,0,0,0,0,0,0,-1,1595,575,0,0
378,449,0,0,0,0,0,0,0,0,0,-1,1602,575,0,0
385,449,0,0,0,0,0,0,0,0,0,-1,1609,575,0,0
392,449,7.95471,3.66217,0,0,0,0,0,0,0,-1,1616,575,7.95471,-3.66218
399,449,19.9791,5.565,0,0,0,0,0,0,0,-1,1623,575,19.9791,-5.56499
406,449,24.9847,4.55969,0,0,0,0,0,0,0,-1,1630,575,24.9848,-4.55968
413,449,30.4159,3.15027,0,0,0,0,0,0,0,-1,1637,575,30.4159,-3.15028
420,449,23.9675,1.29718,0,0,0,0,0,0,0,-1,1644,575,23.9675,-1.29721
427,449,24.4276,-0.596558,0,0,0,0,0,0,0,-1,1651,575,24.4277,0.596569
434,449,25.61,-2.96594,0,0,0,0,0,0,0,-1,1658,575,25.61,2.96595
441,449,3.89856,-6.06458,0,0,0,0,0,0,0,-1,1665,575,3.89855,6.06459
448,449,4.03198,-5.18207,0,0,0,0,0,0,0,-1,1672,575,4.03197,5.18207
455,449,4.21948,-4.09467,0,0,0,0,0,0,0,-1,1679,575,4.21952,4.09465
462,449,4.23181,-2.96924,0,0,0,0,0,0,0,-1,1686,575,4.23185,2.96926
469,449,4.51672,-2.95135,0,0,0,0,0,0,0,-1,1693,575,4.51672,2.95135
476,449,4.71838,-1.86688,0,0,0,0,0,0,0,-1,1700,575,4.71842,1.86689
483,449,4.87878,-1.73126,0,0,0,0,0,0,0,-1,1707,575,4.87875,1.73128
490,449,5.73279,-2.74573,0,0,0,0,0,0,0,-1,1714,575,5.73282,2.74575
497,449,17.2095,-16.4381,0,0,0,0,0,0,0,-1,1721,575,17.2094,16.4381
504,449,26.7042,-27.0754,0,0,0,0,0,0,0,-1,1728,575,26.7043,27.0755
511,449,26.8257,-26.0883,0.00320705,0.00230625,0.00191662,0.00472548,0.000787824,0.669993,0.00292331,0.0176955,1735,575,26.8257,26.0883
518,449,26.7855,-25.1396,0.00274803,0.00173099,0.00187603,0.00418324,0.000295779,0.653048,0.00269565,0.0148755,1742,575,26.7856,25.1396
525,449,26.6912,-24.2084,0.00216035,0.00136668,0.00172298,0.0035316,-4.57256e-06,0.672212,0.00235592,0.0146652,1749,575,26.6912,24.2084
532,449,26.6083,-23.2676,0.00159542,0.00115883,0.0015712,0.00296341,-0.000209165,0.716373,0.00204889,0.0128072,1756,575,26.6083,23.2676
539,449,26.5383,-22.3405,0.00112159,0.00115639,0.00146312,0.00260222,-0.00032423,0.791344,0.00185237,0.0193301,1763,575,26.5383,22.3404
546,449,26.4912,-21.3395,0.000738694,0.00137924,0.00138007,0.00247571,-0.000357772,0.899416,0.00178174,0.0342837,1770,575,26.4912,21.3395
553,449,26.4161,-20.4252,0.000390192,0.00185796,0.00138445,0.00269101,-0.000442859,1.02911,0.00195839,0.0224689,1777,575,26.4161,20.4252
560,449,26.4066,-19.5483,0.000186047,0.00255122,0.00153974,0.0033101,-0.000572837,1.11287,0.00242038,0.0148993,1784,575,26.4067,19.5483
567,449,26.344,-18.5867,0.000208671,0.00359165,0.00194176,0.00447535,-0.000675025,1.14371,0.00323216,0.0105793,1791,575,26.344,18.5867
574,449,26.3126,-17.6088,0.000275891,0.00487988,0.00249194,0.00597036,-0.000814596,1.1583,0.00427771,0.0279577,1798,575,26.3126,17.6088
581,449,26.2936,-16.5552,0,0,0,0,0,0,0,-1,1805,575,26.2935,16.5553
588,449,12.3274,-4.5672,0,0,0,0,0,0,0,-1,1812,575,12.3274,4.5672
595,449,15.9352,-5.65479,0,0,0,0,0,0,0,-1,1819,575,15.9352,5.65478
602,449,9.46167,4.17444,0,0,0,0,0,0,0,-1,1826,575,9.46164,-4.17442
609,449,12.2028,3.18652,0,0,0,0,0,0,0,-1,1833,575,12.2027,-3.18655
616,449,14.9438,2.19867,0,0,0,0,0,0,0,-1,1840,575,14.9438,-2.19867
623,449,9.83789,-0.0820313,0,0,0,0,0,0,0,-1,1847,575,9.83794,0.0820443
630,449,8.90686,4.99329,0,0,0,0,0,0,0,-1,1854,575,8.90685,-4.99327
637,449,0,0,0,0,0,0,0,0,0,-1,1861,575,0,0
644,449,0,0,0,0,0,0,0,0,0,-1,1868,575,0,0
651,449,0,0,0,0,0,0,0,0,0,-1,1875,575,0,0
658,449,0,0,0,0,0,0,0,0,0,-1,1882,575,0,0
665,449,0,0,0,0,0,0,0,0,0,-1,1889,575,0,0
672,449,0,0,0,0,0,0,0,0,0,-1,1896,575,0,0
679,449,0,0,0,0,0,0,0,0,0,-1,1903,575,0,0
686,449,0,0,0,0,0,0,0,0,0,-1,1910,575,0,0
693,449,0,0,0,0,0,0,0,0,0,-1,1917,575,0,0
700,449,0,0,0,0,0,0,0,0,0,-1,1924,575,0,0
707,449,0,0,0,0,0,0,0,0,0,-1,1931,575,0,0
714,449,0,0,0,0,0,0,0,0,0,-1,1938,575,0,0
721,449,0,0,0,0,0,0,0,0,0,-1,1945,575,0,0
728,449,0,0,0,0,0,0,0,0,0,-1,1952,575,0,0
735,449,0,0,0,0,0,0,0,0,0,-1,1959,575,0,0
742,449,0,0,0,0,0,0,0,0,0,-1,1966,575,0,0
749,449,0,0,0,0,0,0,0,0,0,-1,1973,575,0,0
756,449,0,0,0,0,0,0,0,0,0,-1,1980,575,0,0
763,449,0,0,0,0,0,0,0,0,0,-1,1987,575,0,0
770,449,0,0,0,0,0,0,0,0,0,-1,1994,575,0,0
777,449,0,0,0,0,0,0,0,0,0,-1,2001,575,0,0
784,449,0,0,0,0,0,0,0,0,0,-1,2008,575,0,0
791,449,0,0,0,0,0,0,0,0,0,-1,2015,575,0,0
798,449,0,0,0,0,0,0,0,0,0,-1,2022,575,0,0
805,449,0,0,0,0,0,0,0,0,0,-1,2029,575,0,0
812,449,0,0,0,0,0,0,0,0,0,-1,2036,575,0,0
-700,442,0,0,0,0,0,0,0,0,0,-1,524,582,0,0
-693,442,0,0,0,0,0,0,0,0,0,-1,531,582,0,0
-686,442,0,0,0,0,0,0,0,0,0,-1,538,582,0,0
-679,442,0,0,0,0,0,0,0,0,0,-1,545,582,0,0
-672,442,0,0,0,0,0,0,0,0,0,-1,552,582,0,0
-665,442,0,0,0,0,0,0,0,0,0,-1,559,582,0,0
-658,442,0,0,0,0,0,0,0,0,0,-1,566,582,0,0
-651,442,0,0,0,0,0,0,0,0,0,-1,573,582,0,0
-644,442,0,0,0,0,0,0,0,0,0,-1,580,582,0,0
-637,442,0,0,0,0,0,0,0,0,0,-1,587,582,0,0
-630,442,0,0,0,0,0,0,0,0,0,-1,594,582,0,0
-623,442,0,0,0,0,0,0,0,0,0,-1,601,582,0,0
-616,442,0,0,0,0,0,0,0,0,0,-1,608,582,0,0
-609,442,0,0,0,0,0,0,0,0,0,-1,615,582,0,0
-602,442,0,0,0,0,0,0,0,0,0,-1,622,582,0,0
-595,442,0,0,0,0,0,0,0,0,0,-1,629,582,0,0
-588,442,0,0,0,0,0,0,0,0,0,-1,636,582,0,0
-581,442,0,0,0,0,0,0,0,0,0,-1,643,582,0,0
-574,442,0,0,0,0,0,0,0,0,0,-1,650,582,0,0
-567,442,0,0,0,0,0,0,0,0,0,-1,657,582,0,0
-560,442,0,0,0,0,0,0,0,0,0,-1,664,582,0,0
-553,442,0,0,0,0,0,0,0,0,0,-1,671,582,0,0
-546,442,0,0,0,0,0,0,0,0,0,-1,678,582,0,0
-539,442,0,0,0,0,0,0,0,0,0,-1,685,582,0,0
-532,442,0,0,0,0,0,0,0,0,0,-1,692,582,0,0
-525,442,0,0,0,0,0,0,0,0,0,-1,699,582,0,0
-518,442,-0.493774,-5.72943,0,0,0,0,0,0,0,-1,706,582,-0.493791,5.72946
-511,442,-1.33008,-6.18512,0,0,0,0,0,0,0,-1,713,582,-1.33006,6.18511
-504,442,-3.20807,-6.34082,0,0,0,0,0,0,0,-1,720,582,-3.2081,6.34083
-497,442,-13.6886,-0.250122,0,0,0,0,0,0,0,-1,727,582,-13.6886,0.250143
-490,442,-9.09039,-3.64862,0,0,0,0,0,0,0,-1,734,582,-9.09037,3.64861
-483,442,-7.36499,-1.01892,0,0,0,0,0,0,0,-1,741,582,-7.365,1.01895
-476,442,-4.84784,-4.44141,0,0,0,0,0,0,0,-1,748,582,-4.84787,4.44138
-469,442,-11.7724,-14.4221,0,0,0,0,0,0,0,-1,755,582,-11.7724,14.4221
-462,442,-10.2018,-14.6873,0,0,0,0,0,0,0,-1,762,582,-10.2019,14.6873
-455,442,-11.5117,-17.0693,0,0,0,0,0,0,0,-1,769,582,-11.5117,17.0693
-448,442,-11.5231,-18.1209,-0.00270958,0.00397227,0.000625658,0.00403035,-0.00276766,1.47823,0.00394734,0.0239022,776,582,-11.5231,18.1209
-441,442,-11.6298,-19.0752,-0.00146803,0.00334803,3.7887e-05,0.00334833,-0.00146832,1.56293,0.00285063,0.0145069,783,582,-11.6298,19.0752
-434,442,-11.6844,-20.0161,-0.000584957,0.00282009,-0.000353065,0.00285631,-0.000621181,-1.46856,0.00214151,0.0139663,790,582,-11.6844,20.0161
-427,442,-11.7344,-20.9263,6.51225e-05,0.0023999,-0.000613059,0.00255108,-8.60628e-05,-1.32901,0.00173012,0.0134106,797,582,-11.7344,20.9263
-420,442,-11.778,-21.8505,0.000597701,0.0019988,-0.000832715,0.00238645,0.000210049,-1.1351,0.00152578,0.0137149,804,582,-11.778,21.8505
-413,442,-11.826,-22.784,0.000941726,0.00153716,-0.000863005,0.00215236,0.000326529,-0.951495,0.0013394,0.0121947,811,582,-11.826,22.784
-406,442,-11.8892,-23.7119,0.00114427,0.00104468,-0.000733858,0.00183002,0.00035893,-0.751521,0.00111971,0.0104543,818,582,-11.8892,23.7119
-399,442,-11.9576,-24.6089,0.00144225,0.000677526,-0.000665536,0.00182744,0.000292334,-0.524663,0.00113349,0.00930878,825,582,-11.9576,24.6089
-392,442,-12.0061,-25.4907,0.00179787,0.000309375,-0.000602346,0.00201108,9.61645e-05,-0.340204,0.00130984,0.0114399,832,582,-12.0061,25.4907
-385,442,-12.0581,-26.3929,0.00228384,-6.12532e-05,-0.000567111,0.00241379,-0.000191197,-0.225244,0.00167656,0.0129977,839,582,-12.0581,26.3929
-378,442,-12.0847,-27.3259,0.00292109,-0.00041391,-0.000540793,0.00300659,-0.000499411,-0.156805,0.00218993,0.018496,846,582,-12.0847,27.3259
-371,442,-12.0516,-28.3386,0,0,0,0,0,0,0,-1,853,582,-12.0517,28.3386
-364,442,-6.89764,-17.5333,0,0,0,0,0,0,0,-1,860,582,-6.89765,17.5333
-357,442,-4.9115,-11.2649,0,0,0,0,0,0,0,-1,867,582,-4.91147,11.2649
-350,442,-1.75372,-6.27618,0,0,0,0,0,0,0,-1,874,582,-1.75371,6.27618
-343,442,-1.4599,-4.63605,0,0,0,0,0,0,0,-1,881,582,-1.4599,4.63607
-336,442,-1.4054,-2.64313,0,0,0,0,0,0,0,-1,888,582,-1.40539,2.64315
-329,442,-0.952576,-2.76923,0,0,0,0,0,0,0,-1,895,582,-0.952571,2.7692
-322,442,-0.972534,-2.63208,0,0,0,0,0,0,0,-1,902,582,-0.972512,2.6321
-315,442,-0.445557,-2.89764,0,0,0,0,0,0,0,-1,909,582,-0.445582,2.89765
-308,442,-0.654175,-3.07831,0,0,0,0,0,0,0,-1,916,582,-0.654145,3.07832
-301,442,-1.37427,-2.41455,0,0,0,0,0,0,0,-1,923,582,-1.37425,2.41453
-294,442,-2.99963,-2.07855,0,0,0,0,0,0,0,-1,930,582,-2.99964,2.07857
-287,442,3.91034,-10.1913,0,0,0,0,0,0,0,-1,937,582,3.91034,10.1913
-280,442,0,0,0,0,0,0,0,0,0,-1,944,582,0,0
-273,442,0,0,0,0,0,0,0,0,0,-1,951,582,0,0
-266,442,0,0,0,0,0,0,0,0,0,-1,958,582,0,0
-259,442,0,0,0,0,0,0,0,0,0,-1,965,582,0,0
-252,442,0,0,0,0,0,0,0,0,0,-1,972,582,0,0
-245,442,0,0,0,0,0,0,0,0,0,-1,979,582,0,0
-238,442,0,0,0,0,0,0,0,0,0,-1,986,582,0,0
-231,442,0,0,0,0,0,0,0,0,0,-1,993,582,0,0
-224,442,0,0,0,0,0,0,0,0,0,-1,1000,582,0,0
-217,442,0,0,0,0,0,0,0,0,0,-1,1007,582,0,0
-210,442,0,0,0,0,0,0,0,0,0,-1,1014,582,0,0
-203,442,0,0,0,0,0,0,0,0,0,-1,1021,582,0,0
-196,442,0,0,0,0,0,0,0,0,0,-1,1028,582,0,0
-189,442,0,0,0,0,0,0,0,0,0,-1,1035,582,0,0
-182,442,0,0,0,0,0,0,0,0,0,-1,1042,582,0,0
-175,442,0,0,0,0,0,0,0,0,0,-1,1049,582,0,0
-168,442,0,0,0,0,0,0,0,0,0,-1,1056,582,0,0
-161,442,0,0,0,0,0,0,0,0,0,-1,1063,582,0,0
-154,442,0,0,0,0,0,0,0,0,0,-1,1070,582,0,0
-147,442,0,0,0,0,0,0,0,0,0,-1,1077,582,0,0
-140,442,0,0,0,0,0,0,0,0,0,-1,1084,582,0,0
-133,442,0,0,0,0,0,0,0,0,0,-1,1091,582,0,0
-126,442,0,0,0,0,0,0,0,0,0,-1,1098,582,0,0
-119,442,0,0,0,0,0,0,0,0,0,-1,1105,582,0,0
-112,442,0,0,0,0,0,0,0,0,0,-1,1112,582,0,0
-105,442,0,0,0,0,0,0,0,0,0,-1,1119,582,0,0
-98,442,0,0,0,0,0,0,0,0,0,-1,1126,582,0,0
-91,442,0,0,0,0,0,0,0,0,0,-1,1133,582,0,0
-84,442,0,0,0,0,0,0,0,0,0,-1,1140,582,0,0
-77,442,0,0,0,0,0,0,0,0,0,-1,1147,582,0,0
-70,442,0,0,0,0,0,0,0,0,0,-1,1154,582,0,0
-63,442,0,0,0,0,0,0,0,0,0,-1,1161,582,0,0
-56,442,0,0,0,0,0,0,0,0,0,-1,1168,582,0,0
-49,442,0,0,0,0,0,0,0,0,0,-1,1175,582,0,0
-42,442,0,0,0,0,0,0,0,0,0,-1,1182,582,0,0
-35,442,0,0,0,0,0,0,0,0,0,-1,1189,582,0,0
-28,442,0,0,0,0,0,0,0,0,0,-1,1196,582,0,0
-21,442,0,0,0,0,0,0,0,0,0,-1,1203,582,0,0
-14,442,0,0,0,0,0,0,0,0,0,-1,1210,582,0,0
-7,442,0,0,0,0,0,0,0,0,0,-1,1217,582,0,0
0,442,0,0,0,0,0,0,0,0,0,-1,1224,582,0,0
7,442,0,0,0,0,0,0,0,0,0,-1,1231,582,0,0
14,442,0,0,0,0,0,0,0,0,0,-1,1238,582,0,0
21,442,0,0,0,0,0,0,0,0,0,-1,1245,582,0,0
28,442,0,0,0,0,0,0,0,0,0,-1,1252,582,0,0
35,442,0,0,0,0,0,0,0,0,0,-1,1259,582,0,0
42,442,0,0,0,0,0,0,0,0,0,-1,1266,582,0,0
49,442,0,0,0,0,0,0,0,0,0,-1,1273,582,0,0
56,442,0,0,0,0,0,0,0,0,0,-1,1280,582,0,0
63,442,0,0,0,0,0,0,0,0,0,-1,1287,582,0,0
70,442,0,0,0,0,0,0,0,0,0,-1,1294,582,0,0
77,442,0,0,0,0,0,0,0,0,0,-1,1301,582,0,0
84,442,0,0,0,0,0,0,0,0,0,-1,1308,582,0,0
91,442,0,0,0,0,0,0,0,0,0,-1,1315,582,0,0
98,442,0,0,0,0,0,0,0,0,0,-1,1322,582,0,0
105,442,0,0,0,0,0,0,0,0,0,-1,1329,582,0,0
112,442,0,0,0,0,0,0,0,0,0,-1,1336,582,0,0
119,442,0,0,0,0,0,0,0,0,0,-1,1343,582,0,0
126,442,0,0,0,0,0,0,0,0,0,-1,1350,582,0,0
133,442,0,0,0,0,0,0,0,0,0,-1,1357,582,0,0
140,442,0,0,0,0,0,0,0,0,0,-1,1364,582,0,0
147,442,0,0,0,0,0,0,0,0,0,-1,1371,582,0,0
154,442,0,0,0,0,0,0,0,0,0,-1,1378,582,0,0
161,442,0,0,0,0,0,0,0,0,0,-1,1385,582,0,0
168,442,0,0,0,0,0,0,0,0,0,-1,1392,582,0,0
175,442,0,0,0,0,0,0,0,0,0,-1,1399,582,0,0
182,442,0,0,0,0,0,0,0,0,0,-1,1406,582,0,0
189,442,0,0,0,0,0,0,0,0,0,-1,1413,582,0,0
196,442,0,0,0,0,0,0,0,0,0,-1,1420,582,0,0
203,442,0,0,0,0,0,0,0,0,0,-1,1427,582,0,0
210,442,0,0,0,0,0,0,0,0,0,-1,1434,582,0,0
217,442,0,0,0,0,0,0,0,0,0,-1,1441,582,0,0
224,442,0,0,0,0,0,0,0,0,0,-1,1448,582,0,0
231,442,0,0,0,0,0,0,0,0,0,-1,1455,582,0,0
238,442,0,0,0,0,0,0,0,0,0,-1,1462,582,0,0
245,442,0,0,0,0,0,0,0,0,0,-1,1469,582,0,0
252,442,0,0,0,0,0,0,0,0,0,-1,1476,582,0,0
259,442,0,0,0,0,0,0,0,0,0,-1,1483,582,0,0
266,442,0,0,0,0,0,0,0,0,0,-1,1490,582,0,0
273,442,0,0,0,0,0,0,0,0,0,-1,1497,582,0,0
280,442,0,0,0,0,0,0,0,0,0,-1,1504,582,0,0
287,442,0,0,0,0,0,0,0,0,0,-1,1511,582,0,0
294,442,0,0,0,0,0,0,0,0,0,-1,1518,582,0,0
301,442,0,0,0,0,0,0,0,0,0,-1,1525,582,0,0
308,442,0,0,0,0,0,0,0,0,0,-1,1532,582,0,0
315,442,0,0,0,0,0,0,0,0,0,-1,1539,582,0,0
322,442,0,0,0,0,0,0,0,0,0,-1,1546,582,0,0
329,442,0,0,0,0,0,0,0,0,0,-1,1553,582,0,0
336,442,0,0,0,0,0,0,0,0,0,-1,1560,582,0,0
343,442,0,0,0,0,0,0,0,0,0,-1,1567,582,0,0
350,442,0,0,0,0,0,0,0,0,0,-1,1574,582,0,0
357,442,0,0,0,0,0,0,0,0,0,-1,1581,582,0,0
364,442,0,0,0,0,0,0,0,0,0,-1,1588,582,0,0
371,442,0,0,0,0,0,0,0,0,0,-1,1595,582,0,0
378,442,0,0,0,0,0,0,0,0,0,-1,1602,582,0,0
385,442,0,0,0,0,0,0,0,0,0,-1,1609,582,0,0
392,442,0,0,0,0,0,0,0,0,0,-1,1616,582,0,0
399,442,0,0,0,0,0,0,0,0,0,-1,1623,582,0,0
406,442,17.6321,4.08295,0,0,0,0,0,0,0,-1,1630,582,17.6321,-4.08293
413,442,25.4768,2.74445,0,0,0,0,0,0,0,-1,1637,582,25.4768,-2.74444
420,442,22.7478,1.55011,0,0,0,0,0,0,0,-1,1644,582,22.7478,-1.55009
427,442,23.2969,-0.456787,0,0,0,0,0,0,0,-1,1651,582,23.2968,0.456769
434,442,23.9512,-2.49365,0,0,0,0,0,0,0,-1,1658,582,23.9512,2.49366
441,442,24.8251,-4.43958,0,0,0,0,0,0,0,-1,1665,582,24.8251,4.43956
448,442,4.7749,-5.88562,0,0,0,0,0,0,0,-1,1672,582,4.7749,5.8856
455,442,4.87024,-4.60687,0,0,0,0,0,0,0,-1,1679,582,4.87019,4.60686
462,442,5.02307,-3.72821,0,0,0,0,0,0,0,-1,1686,582,5.02311,3.7282
469,442,5.12976,-2.98834,0,0,0,0,0,0,0,-1,1693,582,5.12971,2.98834
476,442,5.4624,1.76947,0,0,0,0,0,0,0,-1,1700,582,5.46234,-1.76944
483,442,5.98486,1.87042,0,0,0,0,0,0,0,-1,1707,582,5.98492,-1.87045
490,442,5.04407,-2.35834,0,0,0,0,0,0,0,-1,1714,582,5.04411,2.35837
497,442,6.20984,-3.07831,0,0,0,0,0,0,0,-1,1721,582,6.2098,3.07833
504,442,20.9276,-19.7709,0,0,0,0,0,0,0,-1,1728,582,20.9276,19.771
511,442,27.7207,-26.0082,0,0,0,0,0,0,0,-1,1735,582,27.7207,26.0082
518,442,27.6661,-25.0504,0.00365049,0.00218297,0.00236009,0.00538825,0.000445212,0.634683,0.00345334,0.017671,1742,582,27.6661,25.0504
525,442,27.5898,-24.1238,0.00300455,0.00169404,0.00208449,0.00453435,0.00016424,0.633116,0.00296967,0.0115929,1749,582,27.5898,24.1239
532,442,27.541,-23.1909,0.0023877,0.00138314,0.00181943,0.00377291,-2.0666e-06,0.650721,0.00251596,0.0129825,1756,582,27.541,23.1909
539,442,27.4949,-22.2571,0.00189626,0.0013009,0.00162915,0.0032547,-5.75463e-05,0.695035,0.00218924,0.016632,1763,582,27.4949,22.2571
546,442,27.4835,-21.2944,0.00149205,0.0014181,0.00146909,0.00292463,-1.44786e-05,0.772816,0.0019546,0.0229303,1770,582,27.4835,21.2944
553,442,27.3694,-20.3831,0.00110272,0.00178393,0.00140351,0.00288758,-9.24105e-07,0.904436,0.00192536,0.0228192,1777,582,27.3694,20.3831
560,442,27.3217,-19.4886,0.00082164,0.00233248,0.0014761,0.00323523,-8.11144e-05,1.02191,0.00218436,0.015697,1784,582,27.3217,19.4886
567,442,27.2621,-18.5442,0.000780661,0.00317979,0.00178664,0.00413221,-0.000171758,1.08104,0.00281381,0.0109901,1791,582,27.262,18.5442
574,442,27.2136,-17.6122,0.000827915,0.0042417,0.00224236,0.0053529,-0.000283292,1.11071,0.00366668,0.0134399,1798,582,27.2136,17.6122
581,442,27.231,-16.5677,0.00109737,0.00569328,0.00306582,0.00722676,-0.000436109,1.107,0.00496959,0.0319387,1805,582,27.2309,16.5678
588,442,27.3125,-15.4892,0,0,0,0,0,0,0,-1,1812,582,27.3125,15.4892
595,442,16.27,-6.47083,0,0,0,0,0,0,0,-1,1819,582,16.27,6.47082
602,442,16.2213,-4.49225,0,0,0,0,0,0,0,-1,1826,582,16.2213,4.49223
609,442,12.761,2.97223,0,0,0,0,0,0,0,-1,1833,582,12.761,-2.97221
616,442,9.78345,-0.103394,0,0,0,0,0,0,0,-1,1840,582,9.78341,0.103424
623,442,9.23828,0.326721,0,0,0,0,0,0,0,-1,1847,582,9.23829,-0.326727
630,442,7.74304,2.3924,0,0,0,0,0,0,0,-1,1854,582,7.7431,-2.39238
637,442,5.87805,1.84027,0,0,0,0,0,0,0,-1,1861,582,5.87807,-1.84025
644,442,0,0,0,0,0,0,0,0,0,-1,1868,582,0,0
651,442,0,0,0,0,0,0,0,0,0,-1,1875,582,0,0
658,442,0,0,0,0,0,0,0,0,0,-1,1882,582,0,0
665,442,0,0,0,0,0,0,0,0,0,-1,1889,582,0,0
672,442,0,0,0,0,0,0,0,0,0,-1,1896,582,0,0
679,442,0,0,0,0,0,0,0,0,0,-1,1903,582,0,0
686,442,0,0,0,0,0,0,0,0,0,-1,1910,582,0,0
693,442,0,0,0,0,0,0,0,0,0,-1,1917,582,0,0
700,442,0,0,0,0,0,0,0,0,0,-1,1924,582,0,0
707,442,0,0,0,0,0,0,0,0,0,-1,1931,582,0,0
714,442,0,0,0,0,0,0,0,0,0,-1,1938,582,0,0
721,442,0,0,0,0,0,0,0,0,0,-1,1945,582,0,0
728,442,0,0,0,0,0,0,0,0,0,-1,1952,582,0,0
735,442,0,0,0,0,0,0,0,0,0,-1,1959,582,0,0
742,442,0,0,0,0,0,0,0,0,0,-1,1966,582,0,0
749,442,0,0,0,0,0,0,0,0,0,-1,1973,582,0,0
756,442,0,0,0,0,0,0,0,0,0,-1,1980,582,0,0
763,442,0,0,0,0,0,0,0,0,0,-1,1987,582,0,0
770,442,0,0,0,0,0,0,0,0,0,-1,1994,582,0,0
777,442,0,0,0,0,0,0,0,0,0,-1,2001,582,0,0
784,442,0,0,0,0,0,0,0,0,0,-1,2008,582,0,0
791,442,0,0,0,0,0,0,0,0,0,-1,2015,582,0,0
798,442,0,0,0,0,0,0,0,0,0,-1,2022,582,0,0
805,442,0,0,0,0,0,0,0,0,0,-1,2029,582,0,0
812,442,0,0,0,0,0,0,0,0,0,-1,2036,582,0,0
-700,435,0,0,0,0,0,0,0,0,0,-1,524,589,0,0
-693,435,0,0,0,0,0,0,0,0,0,-1,531,589,0,0
-686,435,0,0,0,0,0,0,0,0,0,-1,538,589,0,0
-679,435,0,0,0,0,0,0,0,0,0,-1,545,589,0,0
-672,435,0,0,0,0,0,0,0,0,0,-1,552,589,0,0
-665,435,0,0,0,0,0,0,0,0,0,-1,559,589,0,0
-658,435,0,0,0,0,0,0,0,0,0,-1,566,589,0,0
-651,435,0,0,0,0,0,0,0,0,0,-1,573,589,0,0
-644,435,0,0,0,0,0,0,0,0,0,-1,580,589,0,0
-637,435,0,0,0,0,0,0,0,0,0,-1,587,589,0,0
-630,435,0,0,0,0,0,0,0,0,0,-1,594,589,0,0
-623,435,0,0,0,0,0,0,0,0,0,-1,601,589,0,0
-616,435,0,0,0,0,0,0,0,0,0,-1,608,589,0,0
-609,435,0,0,0,0,0,0,0,0,0,-1,615,589,0,0
-602,435,0,0,0,0,0,0,0,0,0,-1,622,589,0,0
-595,435,0,0,0,0,0,0,0,0,0,-1,629,589,0,0
-588,435,0,0,0,0,0,0,0,0,0,-1,636,589,0,0
-581,435,0,0,0,0,0,0,0,0,0,-1,643,589,0,0
-574,435,0,0,0,0,0,0,0,0,0,-1,650,589,0,0
-567,435,0,0,0,0,0,0,0,0,0,-1,657,589,0,0
-560,435,0,0,0,0,0,0,0,0,0,-1,664,589,0,0
-553,435,0,0,0,0,0,0,0,0,0,-1,671,589,0,0
-546,435,0,0,0,0,0,0,0,0,0,-1,678,589,0,0
-539,435,0,0,0,0,0,0,0,0,0,-1,685,589,0,0
-532,435,0,0,0,0,0,0,0,0,0,-1,692,589,0,0
-525,435,-10.0776,10.0547,0,0,0,0,0,0,0,-1,699,589,-10.0776,-10.0547
-518,435,-1.83093,-5.82367,0,0,0,0,0,0,0,-1,706,589,-1.83093,5.8237
-511,435,-2.45154,-5.33118,0,0,0,0,0,0,0,-1,713,589,-2.45151,5.33115
-504,435,-3.07208,-4.83862,0,0,0,0,0,0,0,-1,720,589,-3.0721,4.8386
-497,435,-6.31012,-5.84698,0,0,0,0,0,0,0,-1,727,589,-6.31012,5.84697
-490,435,-5.81903,-0.458679,0,0,0,0,0,0,0,-1,734,589,-5.81902,0.458684
-483,435,-6.96503,-3.01624,0,0,0,0,0,0,0,-1,741,589,-6.96505,3.01623
-476,435,-12.7586,-13.5792,0,0,0,0,0,0,0,-1,748,589,-12.7586,13.5791
-469,435,-12.3864,-14.795,0,0,0,0,0,0,0,-1,755,589,-12.3864,14.795
-462,435,-12.3604,-15.8597,0,0,0,0,0,0,0,-1,762,589,-12.3604,15.8598
-455,435,-12.4465,-17.0775,-0.00365334,0.00333339,0.00136978,0.00359235,-0.00391229,1.38395,0.00433412,0.0290208,769,589,-12.4465,17.0775
-448,435,-12.4617,-18.0853,-0.00220828,0.00283488,0.000641356,0.00291516,-0.00228856,1.44626,0.00301162,0.0141177,776,589,-12.4617,18.0853
-441,435,-12.5308,-19.0176,-0.00105485,0.00236808,9.92839e-05,0.00237095,-0.00105773,1.54182,0.00202737,0.0121222,783,589,-12.5307,19.0176
-434,435,-12.5922,-19.9479,-0.000213337,0.00197135,-0.000275144,0.00200547,-0.000247456,-1.44742,0.00142664,0.0132415,790,589,-12.5922,19.9479
-427,435,-12.6577,-20.8931,0.000442164,0.00170524,-0.000566569,0.00192213,0.000225268,-1.20518,0.00121332,0.0104127,797,589,-12.6577,20.8931
-420,435,-12.6973,-21.82,0.000985629,0.00147011,-0.000826465,0.0020891,0.000366634,-0.927957,0.00128804,0.0109351,804,589,-12.6973,21.82
-413,435,-12.7423,-22.732,0.00132729,0.00120355,-0.000908799,0.00217632,0.000354517,-0.751411,0.00134834,0.0121428,811,589,-12.7423,22.732
-406,435,-12.7911,-23.6469,0.00154734,0.000961606,-0.000885935,0.00218756,0.000321387,-0.625765,0.00136393,0.0121941,818,589,-12.7911,23.6469
-399,435,-12.8594,-24.5583,0.00189267,0.000821632,-0.000955786,0.00245274,0.000261565,-0.530043,0.00155532,0.0106446,825,589,-12.8594,24.5583
-392,435,-12.9328,-25.4634,0.00227985,0.000697024,-0.00102061,0.00277994,0.000196931,-0.45561,0.00179126,0.0114366,832,589,-12.9328,25.4634
-385,435,-12.9806,-26.3711,0.00278549,0.000536147,-0.00109627,0.00323139,9.02453e-05,-0.386306,0.00212482,0.0240768,839,589,-12.9806,26.3711
-378,435,-12.9402,-27.2965,0,0,0,0,0,0,0,-1,846,589,-12.9402,27.2965
-371,435,-10.247,-21.7153,0,0,0,0,0,0,0,-1,853,589,-10.247,21.7153
-364,435,-5.62848,-11.5937,0,0,0,0,0,0,0,-1,860,589,-5.62847,11.5937
-357,435,-5.57343,-10.9666,0,0,0,0,0,0,0,-1,867,589,-5.57342,10.9666
-350,435,-0.86676,-3.69836,0,0,0,0,0,0,0,-1,874,589,-0.866784,3.69834
-343,435,-1.60706,-2.36835,0,0,0,0,0,0,0,-1,881,589,-1.60706,2.36838
-336,435,-2.07263,-1.94012,0,0,0,0,0,0,0,-1,888,589,-2.07265,1.94014
-329,435,-2.55963,-1.5517,0,0,0,0,0,0,0,-1,895,589,-2.5596,1.55168
-322,435,-3.08545,-1.55255,0,0,0,0,0,0,0,-1,902,589,-3.08544,1.55254
-315,435,-0.404297,-2.63763,0,0,0,0,0,0,0,-1,909,589,-0.404276,2.63761
-308,435,-1.70056,-1.90369,0,0,0,0,0,0,0,-1,916,589,-1.70056,1.90367
-301,435,-1.19391,-2.41632,0,0,0,0,0,0,0,-1,923,589,-1.1939,2.41635
-294,435,3.78278,-10.3275,0,0,0,0,0,0,0,-1,930,589,3.78281,10.3275
-287,435,0,0,0,0,0,0,0,0,0,-1,937,589,0,0
-280,435,0,0,0,0,0,0,0,0,0,-1,944,589,0,0
-273,435,0,0,0,0,0,0,0,0,0,-1,951,589,0,0
-266,435,0,0,0,0,0,0,0,0,0,-1,958,589,0,0
-259,435,0,0,0,0,0,0,0,0,0,-1,965,589,0,0
-252,435,0,0,0,0,0,0,0,0,0,-1,972,589,0,0
-245,435,0,0,0,0,0,0,0,0,0,-1,979,589,0,0
-238,435,0,0,0,0,0,0,0,0,0,-1,986,589,0,0
-231,435,0,0,0,0,0,0,0,0,0,-1,993,589,0,0
-224,435,0,0,0,0,0,0,0,0,0,-1,1000,589,0,0
-217,435,0,0,0,0,0,0,0,0,0,-1,1007,589,0,0
-210,435,0,0,0,0,0,0,0,0,0,-1,1014,589,0,0
-203,435,0,0,0,0,0,0,0,0,0,-1,1021,589,0,0
-196,435,0,0,0,0,0,0,0,0,0,-1,1028,589,0,0
-189,435,0,0,0,0,0,0,0,0,0,-1,1035,589,0,0
-182,435,0,0,0,0,0,0,0,0,0,-1,1042,589,0,0
-175,435,0,0,0,0,0,0,0,0,0,-1,1049,589,0,0
-168,435,0,0,0,0,0,0,0,0,0,-1,1056,589,0,0
-161,435,0,0,0,0,0,0,0,0,0,-1,1063,589,0,0
-154,435,0,0,0,0,0,0,0,0,0,-1,1070,589,0,0
-147,435,0,0,0,0,0,0,0,0,0,-1,1077,589,0,0
-140,435,0,0,0,0,0,0,0,0,0,-1,1084,589,0,0
-133,435,0,0,0,0,0,0,0,0,0,-1,1091,589,0,0
-126,435,0,0,0,0,0,0,0,0,0,-1,1098,589,0,0
-119,435,0,0,0,0,0,0,0,0,0,-1,1105,589,0,0
-112,435,0,0,0,0,0,0,0,0,0,-1,1112,589,0,0
-105,435,0,0,0,0,0,0,0,0,0,-1,1119,589,0,0
-98,435,0,0,0,0,0,0,0,0,0,-1,1126,589,0,0
-91,435,0,0,0,0,0,0,0,0,0,-1,1133,589,0,0
-84,435,0,0,0,0,0,0,0,0,0,-1,1140,589,0,0
-77,435,0,0,0,0,0,0,0,0,0,-1,1147,589,0,0
-70,435,0,0,0,0,0,0,0,0,0,-1,1154,589,0,0
-63,435,0,0,0,0,0,0,0,0,0,-1,1161,589,0,0
-56,435,0,0,0,0,0,0,0,0,0,-1,1168,589,0,0
-49,435,0,0,0,0,0,0,0,0,0,-1,1175,589,0,0
-42,435,0,0,0,0,0,0,0,0,0,-1,1182,589,0,0
-35,435,0,0,0,0,0,0,0,0,0,-1,1189,589,0,0
-28,435,0,0,0,0,0,0,0,0,0,-1,1196,589,0,0
-21,435,0,0,0,0,0,0,0,0,0,-1,1203,589,0,0
-14,435,0,0,0,0,0,0,0,0,0,-1,1210,589,0,0
-7,435,0,0,0,0,0,0,0,0,0,-1,1217,589,0,0
0,435,0,0,0,0,0,0,0,0,0,-1,1224,589,0,0
7,435,0,0,0,0,0,0,0,0,0,-1,1231,589,0,0
14,435,0,0,0,0,0,0,0,0,0,-1,1238,589,0,0
21,435,0,0,0,0,0,0,0,0,0,-1,1245,589,0,0
28,435,0,0,0,0,0,0,0,0,0,-1,1252,589,0,0
35,435,0,0,0,0,0,0,0,0,0,-1,1259,589,0,0
42,435,0,0,0,0,0,0,0,0,0,-1,1266,589,0,0
49,435,0,0,0,0,0,0,0,0,0,-1,1273,589,0,0
56,435,0,0,0,0,0,0,0,0,0,-1,1280,589,0,0
63,435,0,0,0,0,0,0,0,0,0,-1,1287,589,0,0
70,435,0,0,0,0,0,0,0,0,0,-1,1294,589,0,0
77,435,0,0,0,0,0,0,0,0,0,-1,1301,589,0,0
84,435,0,0,0,0,0,0,0,0,0,-1,1308,589,0,0
91,435,0,0,0,0,0,0,0,0,0,-1,1315,589,0,0
98,435,0,0,0,0,0,0,0,0,0,-1,1322,589,0,0
105,435,0,0,0,0,0,0,0,0,0,-1,1329,589,0,0
112,435,0,0,0,0,0,0,0,0,0,-1,1336,589,0,0
119,435,0,0,0,0,0,0,0,0,0,-1,1343,589,0,0
126,435,0,0,0,0,0,0,0,0,0,-1,1350,589,0,0
133,435,0,0,0,0,0,0,0,0,0,-1,1357,589,0,0
140,435,0,0,0,0,0,0,0,0,0,-1,1364,589,0,0
147,435,0,0,0,0,0,0,0,0,0,-1,1371,589,0,0
154,435,0,0,0,0,0,0,0,0,0,-1,1378,589,0,0
161,435,0,0,0,0,0,0,0,0,0,-1,1385,589,0,0
168,435,0,0,0,0,0,0,0,0,0,-1,1392,589,0,0
175,435,0,0,0,0,0,0,0,0,0,-1,1399,589,0,0
182,435,0,0,0,0,0,0,0,0,0,-1,1406,589,0,0
189,435,0,0,0,0,0,0,0,0,0,-1,1413,589,0,0
196,435,0,0,0,0,0,0,0,0,0,-1,1420,589,0,0
203,435,0,0,0,0,0,0,0,0,0,-1,1427,589,0,0
210,435,0,0,0,0,0,0,0,0,0,-1,1434,589,0,0
217,435,0,0,0,0,0,0,0,0,0,-1,1441,589,0,0
224,435,0,0,0,0,0,0,0,0,0,-1,1448,589,0,0
231,435,0,0,0,0,0,0,0,0,0,-1,1455,589,0,0
238,435,0,0,0,0,0,0,0,0,0,-1,1462,589,0,0
245,435,0,0,0,0,0,0,0,0,0,-1,1469,589,0,0
252,435,0,0,0,0,0,0,0,0,0,-1,1476,589,0,0
259,435,0,0,0,0,0,0,0,0,0,-1,1483,589,0,0
266,435,0,0,0,0,0,0,0,0,0,-1,1490,589,0,0
273,435,0,0,0,0,0,0,0,0,0,-1,1497,589,0,0
280,435,0,0,0,0,0,0,0,0,0,-1,1504,589,0,0
287,435,0,0,0,0,0,0,0,0,0,-1,1511,589,0,0
294,435,0,0,0,0,0,0,0,0,0,-1,1518,589,0,0
301,435,0,0,0,0,0,0,0,0,0,-1,1525,589,0,0
308,435,0,0,0,0,0,0,0,0,0,-1,1532,589,0,0
315,435,0,0,0,0,0,0,0,0,0,-1,1539,589,0,0
322,435,0,0,0,0,0,0,0,0,0,-1,1546,589,0,0
329,435,0,0,0,0,0,0,0,0,0,-1,1553,589,0,0
336,435,0,0,0,0,0,0,0,0,0,-1,1560,589,0,0
343,435,0,0,0,0,0,0,0,0,0,-1,1567,589,0,0
350,435,0,0,0,0,0,0,0,0,0,-1,1574,589,0,0
357,435,0,0,0,0,0,0,0,0,0,-1,1581,589,0,0
364,435,0,0,0,0,0,0,0,0,0,-1,1588,589,0,0
371,435,0,0,0,0,0,0,0,0,0,-1,1595,589,0,0
378,435,0,0,0,0,0,0,0,0,0,-1,1602,589,0,0
385,435,0,0,0,0,0,0,0,0,0,-1,1609,589,0,0
392,435,0,0,0,0,0,0,0,0,0,-1,1616,589,0,0
399,435,0,0,0,0,0,0,0,0,0,-1,1623,589,0,0
406,435,0,0,0,0,0,0,0,0,0,-1,1630,589,0,0
413,435,20.4565,3.49835,0,0,0,0,0,0,0,-1,1637,589,20.4565,-3.49836
420,435,21.4015,1.49609,0,0,0,0,0,0,0,-1,1644,589,21.4015,-1.49609
427,435,22.0464,-0.373962,0,0,0,0,0,0,0,-1,1651,589,22.0464,0.373972
434,435,22.1863,-1.54407,0,0,0,0,0,0,0,-1,1658,589,22.1862,1.54405
441,435,22.3992,-2.38287,0,0,0,0,0,0,0,-1,1665,589,22.3992,2.38289
448,435,7.4585,-0.00292969,0,0,0,0,0,0,0,-1,1672,589,7.45848,0.00294131
455,435,5.49915,-5.047,0,0,0,0,0,0,0,-1,1679,589,5.49914,5.04703
462,435,5.60669,-4.71466,0,0,0,0,0,0,0,-1,1686,589,5.60675,4.71469
469,435,5.87708,1.22351,0,0,0,0,0,0,0,-1,1693,589,5.87703,-1.22351
476,435,6.14136,1.37714,0,0,0,0,0,0,0,-1,1700,589,6.14138,-1.37712
483,435,6.49243,1.36169,0,0,0,0,0,0,0,-1,1707,589,6.49242,-1.36171
490,435,4.38391,-1.36218,0,0,0,0,0,0,0,-1,1714,589,4.38389,1.3622
497,435,7.23499,-3.64551,0,0,0,0,0,0,0,-1,1721,589,7.23495,3.64551
504,435,7.31189,-3.75909,0,0,0,0,0,0,0,-1,1728,589,7.31184,3.75911
511,435,28.3998,-26.1373,0,0,0,0,0,0,0,-1,1735,589,28.3997,26.1373
518,435,28.6107,-25.0108,0.00453422,0.00251172,0.00281338,0.00651257,0.000533364,0.612867,0.0041753,0.0483908,1742,589,28.6108,25.0108
525,435,28.5192,-24.0595,0.00379258,0.00190403,0.00242061,0.00544657,0.000250039,0.599427,0.00355064,0.0143682,1749,589,28.5192,24.0595
532,435,28.4863,-23.1169,0.00311102,0.00151611,0.00204431,0.00450791,0.000119226,0.599434,0.00296633,0.0162463,1756,589,28.4863,23.1169
539,435,28.4397,-22.1631,0.0025933,0.00139409,0.00178385,0.00387562,0.000111767,0.623265,0.00254731,0.0177974,1763,589,28.4397,22.1631
546,435,28.3875,-21.2588,0.00215086,0.00144436,0.00156301,0.00340004,0.00019518,0.674262,0.00220451,0.0186986,1770,589,28.3874,21.2588
553,435,28.3206,-20.3586,0.00172289,0.00173197,0.0014459,0.00317333,0.000281524,0.786968,0.00202823,0.0130149,1777,589,28.3205,20.3586
560,435,28.2509,-19.4499,0.00138098,0.00217214,0.00146236,0.00329148,0.000261639,0.917489,0.00211252,0.00990917,1784,589,28.2508,19.4499
567,435,28.2129,-18.4971,0.00127006,0.00287349,0.00171237,0.00396253,0.000181027,1.00434,0.00258346,0.00943331,1791,589,28.2129,18.4971
574,435,28.1594,-17.5602,0.00129291,0.00376272,0.00209862,0.0049628,9.28212e-05,1.05134,0.00327803,0.010893,1798,589,28.1595,17.5602
581,435,28.1011,-16.6082,0.00152987,0.00491463,0.00275951,0.00645939,-1.48844e-05,1.06046,0.00431123,0.0186759,1805,589,28.101,16.6081
588,435,28.0227,-15.618,0,0,0,0,0,0,0,-1,1812,589,28.0227,15.618
595,435,27.8438,-14.3811,0,0,0,0,0,0,0,-1,1819,589,27.8438,14.3811
602,435,16.8671,-6.39026,0,0,0,0,0,0,0,-1,1826,589,16.867,6.39024
609,435,15.2611,-3.42242,0,0,0,0,0,0,0,-1,1833,589,15.2611,3.42242
616,435,5.05151,-2.75269,0,0,0,0,0,0,0,-1,1840,589,5.05157,2.7527
623,435,11.7588,3.9704,0,0,0,0,0,0,0,-1,1847,589,11.7587,-3.97043
630,435,4.72742,-0.87561,0,0,0,0,0,0,0,-1,1854,589,4.7274,0.875636
637,435,5.05286,1.48792,0,0,0,0,0,0,0,-1,1861,589,5.05291,-1.48792
644,435,0,0,0,0,0,0,0,0,0,-1,1868,589,0,0
651,435,0,0,0,0,0,0,0,0,0,-1,1875,589,0,0
658,435,0,0,0,0,0,0,0,0,0,-1,1882,589,0,0
665,435,0,0,0,0,0,0,0,0,0,-1,1889,589,0,0
672,435,0,0,0,0,0,0,0,0,0,-1,1896,589,0,0
679,435,0,0,0,0,0,0,0,0,0,-1,1903,589,0,0
686,435,0,0,0,0,0,0,0,0,0,-1,1910,589,0,0
693,435,0,0,0,0,0,0,0,0,0,-1,1917,589,0,0
700,435,0,0,0,0,0,0,0,0,0,-1,1924,589,0,0
707,435,0,0,0,0,0,0,0,0,0,-1,1931,589,0,0
714,435,0,0,0,0,0,0,0,0,0,-1,1938,589,0,0
721,435,0,0,0,0,0,0,0,0,0,-1,1945,589,0,0
728,435,0,0,0,0,0,0,0,0,0,-1,1952,589,0,0
735,435,0,0,0,0,0,0,0,0,0,-1,1959,589,0,0
742,435,0,0,0,0,0,0,0,0,0,-1,1966,589,0,0
749,435,0,0,0,0,0,0,0,0,0,-1,1973,589,0,0
756,435,0,0,0,0,0,0,0,0,0,-1,1980,589,0,0
763,435,0,0,0,0,0,0,0,0,0,-1,1987,589,0,0
770,435,0,0,0,0,0,0,0,0,0,-1,1994,589,0,0
777,435,0,0,0,0,0,0,0,0,0,-1,2001,589,0,0
784,435,0,0,0,0,0,0,0,0,0,-1,2008,589,0,0
791,435,0,0,0,0,0,0,0,0,0,-1,2015,589,0,0
798,435,0,0,0,0,0,0,0,0,0,-1,2022,589,0,0
805,435,0,0,0,0,0,0,0,0,0,-1,2029,589,0,0
812,435,0,0,0,0,0,0,0,0,0,-1,2036,589,0,0
-700,428,0,0,0,0,0,0,0,0,0,-1,524,596,0,0
-693,428,0,0,0,0,0,0,0,0,0,-1,531,596,0,0
-686,428,0,0,0,0,0,0,0,0,0,-1,538,596,0,0
-679,428,0,0,0,0,0,0,0,0,0,-1,545,596,0,0
-672,428,0,0,0,0,0,0,0,0,0,-1,552,596,0,0
-665,428,0,0,0,0,0,0,0,0,0,-1,559,596,0,0
-658,428,0,0,0,0,0,0,0,0,0,-1,566,596,0,0
-651,428,0,0,0,0,0,0,0,0,0,-1,573,596,0,0
-644,428,0,0,0,0,0,0,0,0,0,-1,580,596,0,0
-637,428,0,0,0,0,0,0,0,0,0,-1,587,596,0,0
-630,428,0,0,0,0,0,0,0,0,0,-1,594,596,0,0
-623,428,0,0,0,0,0,0,0,0,0,-1,601,596,0,0
-616,428,0,0,0,0,0,0,0,0,0,-1,608,596,0,0
-609,428,0,0,0,0,0,0,0,0,0,-1,615,596,0,0
-602,428,0,0,0,0,0,0,0,0,0,-1,622,596,0,0
-595,428,0,0,0,0,0,0,0,0,0,-1,629,596,0,0
-588,428,0,0,0,0,0,0,0,0,0,-1,636,596,0,0
-581,428,0,0,0,0,0,0,0,0,0,-1,643,596,0,0
-574,428,0,0,0,0,0,0,0,0,0,-1,650,596,0,0
-567,428,0,0,0,0,0,0,0,0,0,-1,657,596,0,0
-560,428,0,0,0,0,0,0,0,0,0,-1,664,596,0,0
-553,428,0,0,0,0,0,0,0,0,0,-1,671,596,0,0
-546,428,0,0,0,0,0,0,0,0,0,-1,678,596,0,0
-539,428,0,0,0,0,0,0,0,0,0,-1,685,596,0,0
-532,428,0,0,0,0,0,0,0,0,0,-1,692,596,0,0
-525,428,-9.59918,7.58618,0,0,0,0,0,0,0,-1,699,596,-9.59918,-7.5862
-518,428,-2.92285,-4.81854,0,0,0,0,0,0,0,-1,706,596,-2.92285,4.81856
-511,428,-3.68811,-4.79474,0,0,0,0,0,0,0,-1,713,596,-3.68811,4.79474
-504,428,-4.45337,-4.77094,0,0,0,0,0,0,0,-1,720,596,-4.45337,4.77092
-497,428,-2.98108,-3.77502,0,0,0,0,0,0,0,-1,727,596,-2.98106,3.77505
-490,428,-6.39044,-2.80481,0,0,0,0,0,0,0,-1,734,596,-6.39047,2.80483
-483,428,-10.8474,-9.11322,0,0,0,0,0,0,0,-1,741,596,-10.8473,9.11321
-476,428,-13.0168,-14.1182,0,0,0,0,0,0,0,-1,748,596,-13.0168,14.1182
-469,428,-12.9968,-15.1012,-0.00623968,0.00360846,0.00293506,0.00441685,-0.00704807,1.30204,0.00667712,0.0365114,755,596,-12.9968,15.1012
-462,428,-13.2246,-15.9459,-0.00440568,0.00311893,0.00188831,0.00356621,-0.00485296,1.33821,0.0048797,0.0386476,762,596,-13.2246,15.9459
-455,428,-13.3345,-17.0036,-0.00285424,0.00245536,0.00115664,0.00269638,-0.00309526,1.36536,0.00334645,0.0179688,769,596,-13.3346,17.0036
-448,428,-13.3909,-17.9985,-0.00154798,0.00204691,0.000516938,0.00211976,-0.00162084,1.43078,0.00216603,0.0120818,776,596,-13.3909,17.9985
-441,428,-13.4525,-18.931,-0.000481544,0.00170569,1.67097e-05,0.00170582,-0.000481672,1.56316,0.00132723,0.0145641,783,596,-13.4525,18.931
-434,428,-13.5104,-19.8911,0.000319237,0.00142723,-0.000352105,0.00152966,0.000216812,-1.28771,0.000955735,0.0112258,790,596,-13.5104,19.8911
-427,428,-13.5542,-20.8441,0.000971039,0.00129731,-0.000683325,0.00183671,0.000431647,-0.902574,0.00110895,0.0110465,797,596,-13.5542,20.844
-420,428,-13.5951,-21.7427,0.00150011,0.00121203,-0.000984288,0.00235084,0.000361295,-0.712744,0.00146175,0.0117865,804,596,-13.5951,21.7427
-413,428,-13.649,-22.6516,0.0018068,0.00113649,-0.00113005,0.00265035,0.000292938,-0.641237,0.0016778,0.0146274,811,596,-13.649,22.6515
-406,428,-13.7067,-23.5781,0.002014,0.00115462,-0.00124598,0.0029023,0.000266321,-0.619353,0.00185249,0.0168822,818,596,-13.7066,23.5781
-399,428,-13.7435,-24.5124,0.00237666,0.00122682,-0.00149881,0.00340704,0.000196449,-0.602261,0.00220879,0.0171196,825,596,-13.7435,24.5124
-392,428,-13.806,-25.4866,0.00274449,0.00131735,-0.00173942,0.00391102,0.000150827,-0.590749,0.00255855,0.0376438,832,596,-13.806,25.4867
-385,428,-13.8733,-26.387,0,0,0,0,0,0,0,-1,839,596,-13.8733,26.3869
-378,428,-10.8172,-20.952,0,0,0,0,0,0,0,-1,846,596,-10.8172,20.952
-371,428,-5.96155,-11.0703,0,0,0,0,0,0,0,-1,853,596,-5.96154,11.0702
-364,428,-6.33643,-10.7223,0,0,0,0,0,0,0,-1,860,596,-6.33645,10.7223
-357,428,-3.20996,-4.70966,0,0,0,0,0,0,0,-1,867,596,-3.20997,4.70965
-350,428,-1.62793,-3.94055,0,0,0,0,0,0,0,-1,874,596,-1.62794,3.94055
-343,428,-0.0567017,-4.80994,0,0,0,0,0,0,0,-1,881,596,-0.0567096,4.80996
-336,428,-3.29175,-1.39569,0,0,0,0,0,0,0,-1,888,596,-3.29172,1.39568
-329,428,-3.71564,-0.791321,0,0,0,0,0,0,0,-1,895,596,-3.71564,0.791299
-322,428,-5.52863,-3.59827,0,0,0,0,0,0,0,-1,902,596,-5.52865,3.59829
-315,428,-4.57172,-1.22052,0,0,0,0,0,0,0,-1,909,596,-4.57171,1.22052
-308,428,-5.60742,-3.40961,0,0,0,0,0,0,0,-1,916,596,-5.60744,3.40959
-301,428,0,0,0,0,0,0,0,0,0,-1,923,596,0,0
-294,428,0,0,0,0,0,0,0,0,0,-1,930,596,0,0
-287,428,0,0,0,0,0,0,0,0,0,-1,937,596,0,0
-280,428,0,0,0,0,0,0,0,0,0,-1,944,596,0,0
-273,428,0,0,0,0,0,0,0,0,0,-1,951,596,0,0
-266,428,0,0,0,0,0,0,0,0,0,-1,958,596,0,0
-259,428,0,0,0,0,0,0,0,0,0,-1,965,596,0,0
-252,428,0,0,0,0,0,0,0,0,0,-1,972,596,0,0
-245,428,0,0,0,0,0,0,0,0,0,-1,979,596,0,0
-238,428,0,0,0,0,0,0,0,0,0,-1,986,596,0,0
-231,428,0,0,0,0,0,0,0,0,0,-1,993,596,0,0
-224,428,0,0,0,0,0,0,0,0,0,-1,1000,596,0,0
-217,428,0,0,0,0,0,0,0,0,0,-1,1007,596,0,0
-210,428,0,0,0,0,0,0,0,0,0,-1,1014,596,0,0
-203,428,0,0,0,0,0,0,0,0,0,-1,1021,596,0,0
-196,428,0,0,0,0,0,0,0,0,0,-1,1028,596,0,0
-189,428,0,0,0,0,0,0,0,0,0,-1,1035,596,0,0
-182,428,0,0,0,0,0,0,0,0,0,-1,1042,596,0,0
-175,428,0,0,0,0,0,0,0,0,0,-1,1049,596,0,0
-168,428,0,0,0,0,0,0,0,0,0,-1,1056,596,0,0
-161,428,0,0,0,0,0,0,0,0,0,-1,1063,596,0,0
-154,428,0,0,0,0,0,0,0,0,0,-1,1070,596,0,0
-147,428,0,0,0,0,0,0,0,0,0,-1,1077,596,0,0
-140,428,0,0,0,0,0,0,0,0,0,-1,1084,596,0,0
-133,428,0,0,0,0,0,0,0,0,0,-1,1091,596,0,0
-126,428,0,0,0,0,0,0,0,0,0,-1,1098,596,0,0
-119,428,0,0,0,0,0,0,0,0,0,-1,1105,596,0,0
-112,428,0,0,0,0,0,0,0,0,0,-1,1112,596,0,0
-105,428,0,0,0,0,0,0,0,0,0,-1,1119,596,0,0
-98,428,0,0,0,0,0,0,0,0,0,-1,1126,596,0,0
-91,428,0,0,0,0,0,0,0,0,0,-1,1133,596,0,0
-84,428,0,0,0,0,0,0,0,0,0,-1,1140,596,0,0
-77,428,0,0,0,0,0,0,0,0,0,-1,1147,596,0,0
-70,428,0,0,0,0,0,0,0,0,0,-1,1154,596,0,0
-63,428,0,0,0,0,0,0,0,0,0,-1,1161,596,0,0
-56,428,0,0,0,0,0,0,0,0,0,-1,1168,596,0,0
-49,428,0,0,0,0,0,0,0,0,0,-1,1175,596,0,0
-42,428,0,0,0,0,0,0,0,0,0,-1,1182,596,0,0
-35,428,0,0,0,0,0,0,0,0,0,-1,1189,596,0,0
-28,428,0,0,0,0,0,0,0,0,0,-1,1196,596,0,0
-21,428,0,0,0,0,0,0,0,0,0,-1,1203,596,0,0
-14,428,0,0,0,0,0,0,0,0,0,-1,1210,596,0,0
-7,428,0,0,0,0,0,0,0,0,0,-1,1217,596,0,0
0,428,0,0,0,0,0,0,0,0,0,-1,1224,596,0,0
7,428,0,0,0,0,0,0,0,0,0,-1,1231,596,0,0
14,428,0,0,0,0,0,0,0,0,0,-1,1238,596,0,0
21,428,0,0,0,0,0,0,0,0,0,-1,1245,596,0,0
28,428,0,0,0,0,0,0,0,0,0,-1,1252,596,0,0
35,428,0,0,0,0,0,0,0,0,0,-1,1259,596,0,0
42,428,0,0,0,0,0,0,0,0,0,-1,1266,596,0,0
49,428,0,0,0,0,0,0,0,0,0,-1,1273,596,0,0
56,428,0,0,0,0,0,0,0,0,0,-1,1280,596,0,0
63,428,0,0,0,0,0,0,0,0,0,-1,1287,596,0,0
70,428,0,0,0,0,0,0,0,0,0,-1,1294,596,0,0
77,428,0,0,0,0,0,0,0,0,0,-1,1301,596,0,0
84,428,0,0,0,0,0,0,0,0,0,-1,1308,596,0,0
91,428,0,0,0,0,0,0,0,0,0,-1,1315,596,0,0
98,428,0,0,0,0,0,0,0,0,0,-1,1322,596,0,0
105,428,0,0,0,0,0,0,0,0,0,-1,1329,596,0,0
112,428,0,0,0,0,0,0,0,0,0,-1,1336,596,0,0
119,428,0,0,0,0,0,0,0,0,0,-1,1343,596,0,0
126,428,0,0,0,0,0,0,0,0,0,-1,1350,596,0,0
133,428,0,0,0,0,0,0,0,0,0,-1,1357,596,0,0
140,428,0,0,0,0,0,0,0,0,0,-1,1364,596,0,0
147,428,0,0,0,0,0,0,0,0,0,-1,1371,596,0,0
154,428,0,0,0,0,0,0,0,0,0,-1,1378,596,0,0
161,428,0,0,0,0,0,0,0,0,0,-1,1385,596,0,0
168,428,0,0,0,0,0,0,0,0,0,-1,1392,596,0,0
175,428,0,0,0,0,0,0,0,0,0,-1,1399,596,0,0
182,428,0,0,0,0,0,0,0,0,0,-1,1406,596,0,0
189,428,0,0,0,0,0,0,0,0,0,-1,1413,596,0,0
196,428,0,0,0,0,0,0,0,0,0,-1,1420,596,0,0
203,428,0,0,0,0,0,0,0,0,0,-1,1427,596,0,0
210,428,0,0,0,0,0,0,0,0,0,-1,1434,596,0,0
217,428,0,0,0,0,0,0,0,0,0,-1,1441,596,0,0
224,428,0,0,0,0,0,0,0,0,0,-1,1448,596,0,0
231,428,0,0,0,0,0,0,0,0,0,-1,1455,596,0,0
238,428,0,0,0,0,0,0,0,0,0,-1,1462,596,0,0
245,428,0,0,0,0,0,0,0,0,0,-1,1469,596,0,0
252,428,0,0,0,0,0,0,0,0,0,-1,1476,596,0,0
259,428,0,0,0,0,0,0,0,0,0,-1,1483,596,0,0
266,428,0,0,0,0,0,0,0,0,0,-1,1490,596,0,0
273,428,0,0,0,0,0,0,0,0,0,-1,1497,596,0,0
280,428,0,0,0,0,0,0,0,0,0,-1,1504,596,0,0
287,428,0,0,0,0,0,0,0,0,0,-1,1511,596,0,0
294,428,0,0,0,0,0,0,0,0,0,-1,1518,596,0,0
301,428,0,0,0,0,0,0,0,0,0,-1,1525,596,0,0
308,428,0,0,0,0,0,0,0,0,0,-1,1532,596,0,0
315,428,0,0,0,0,0,0,0,0,0,-1,1539,596,0,0
322,428,0,0,0,0,0,0,0,0,0,-1,1546,596,0,0
329,428,0,0,0,0,0,0,0,0,0,-1,1553,596,0,0
336,428,0,0,0,0,0,0,0,0,0,-1,1560,596,0,0
343,428,0,0,0,0,0,0,0,0,0,-1,1567,596,0,0
350,428,0,0,0,0,0,0,0,0,0,-1,1574,596,0,0
357,428,0,0,0,0,0,0,0,0,0,-1,1581,596,0,0
364,428,0,0,0,0,0,0,0,0,0,-1,1588,596,0,0
371,428,0,0,0,0,0,0,0,0,0,-1,1595,596,0,0
378,428,0,0,0,0,0,0,0,0,0,-1,1602,596,0,0
385,428,0,0,0,0,0,0,0,0,0,-1,1609,596,0,0
392,428,0,0,0,0,0,0,0,0,0,-1,1616,596,0,0
399,428,0,0,0,0,0,0,0,0,0,-1,1623,596,0,0
406,428,0,0,0,0,0,0,0,0,0,-1,1630,596,0,0
413,428,0,0,0,0,0,0,0,0,0,-1,1637,596,0,0
420,428,19.8469,1.3399,0,0,0,0,0,0,0,-1,1644,596,19.8469,-1.33992
427,428,20.7299,-0.225281,0,0,0,0,0,0,0,-1,1651,596,20.7299,0.225262
434,428,19.8915,-0.583069,0,0,0,0,0,0,0,-1,1658,596,19.8915,0.583075
441,428,8.17993,0.607483,0,0,0,0,0,0,0,-1,1665,596,8.17997,-0.607513
448,428,7.84338,-0.385986,0,0,0,0,0,0,0,-1,1672,596,7.84336,0.385978
455,428,6.64038,2.1123,0,0,0,0,0,0,0,-1,1679,596,6.64037,-2.11229
462,428,4.84106,4.12341,0,0,0,0,0,0,0,-1,1686,596,4.84107,-4.12339
469,428,7.83789,3.10083,0,0,0,0,0,0,0,-1,1693,596,7.83785,-3.10086
476,428,7.61255,1.73956,0,0,0,0,0,0,0,-1,1700,596,7.61252,-1.73958
483,428,7.22766,1.05121,0,0,0,0,0,0,0,-1,1707,596,7.2277,-1.05121
490,428,5.4071,-3.2793,0,0,0,0,0,0,0,-1,1714,596,5.40707,3.27929
497,428,7.84106,-3.65491,0,0,0,0,0,0,0,-1,1721,596,7.84107,3.65491
504,428,6.92139,-2.83356,0,0,0,0,0,0,0,-1,1728,596,6.92137,2.83353
511,428,7.88501,-3.78723,0,0,0,0,0,0,0,-1,1735,596,7.88502,3.78722
518,428,29.4589,-25.0709,0,0,0,0,0,0,0,-1,1742,596,29.4588,25.0708
525,428,29.3525,-24.1201,0.00480065,0.00215726,0.00300516,0.00676192,0.00019599,0.578224,0.00444406,0.0460631,1749,596,29.3526,24.12
532,428,29.3722,-23.0441,0.00392062,0.00162895,0.002378,0.00541445,0.000135125,0.560888,0.00356544,0.0223528,1756,596,29.3722,23.0441
539,428,29.368,-22.0879,0.00326993,0.0014147,0.00195256,0.00450401,0.000180616,0.563643,0.00294432,0.0224656,1763,596,29.3681,22.0879
546,428,29.3022,-21.2086,0.00269632,0.0013533,0.00160433,0.003764,0.000285613,0.587197,0.00241976,0.0176294,1770,596,29.3023,21.2086
553,428,29.2357,-20.3118,0.00216788,0.00153353,0.00139134,0.00327775,0.000423671,0.673332,0.00205853,0.0120875,1777,596,29.2357,20.3118
560,428,29.2041,-19.3683,0.00172524,0.00185122,0.00132842,0.00311815,0.000458316,0.809088,0.00194408,0.0124008,1784,596,29.2041,19.3683
567,428,29.1549,-18.4443,0.00151679,0.00240792,0.00150925,0.003536,0.000388703,0.928931,0.00223904,0.011879,1791,596,29.1549,18.4443
574,428,29.1088,-17.5337,0.00148269,0.00313998,0.00183756,0.0043271,0.000295574,0.997219,0.00279143,0.0143184,1798,596,29.1088,17.5337
581,428,29.0325,-16.5737,0.00164705,0.00404736,0.00239324,0.00552451,0.0001699,1.01781,0.0036277,0.0127573,1805,596,29.0325,16.5737
588,428,28.9415,-15.5947,0.00213975,0.00524801,0.00323421,0.00728211,0.000105643,1.00937,0.00481991,0.0185482,1812,596,28.9416,15.5947
595,428,28.879,-14.5887,0.00284673,0.00662956,0.00419278,0.0093378,0.000138495,0.997288,0.00617955,0.0320747,1819,596,28.879,14.5887
602,428,29.0194,-13.5419,0,0,0,0,0,0,0,-1,1826,596,29.0195,13.5419
609,428,17.2073,-4.82446,0,0,0,0,0,0,0,-1,1833,596,17.2073,4.82447
616,428,15.7817,-3.09558,0,0,0,0,0,0,0,-1,1840,596,15.7817,3.09556
623,428,9.53577,1.12518,0,0,0,0,0,0,0,-1,1847,596,9.5358,-1.1252
630,428,7.07996,6.88562,0,0,0,0,0,0,0,-1,1854,596,7.0799,-6.88565
637,428,3.95435,1.90857,0,0,0,0,0,0,0,-1,1861,596,3.95439,-1.90858
644,428,5.75476,0.888977,0,0,0,0,0,0,0,-1,1868,596,5.75472,-0.888955
651,428,0,0,0,0,0,0,0,0,0,-1,1875,596,0,0
658,428,0,0,0,0,0,0,0,0,0,-1,1882,596,0,0
665,428,0,0,0,0,0,0,0,0,0,-1,1889,596,0,0
672,428,0,0,0,0,0,0,0,0,0,-1,1896,596,0,0
679,428,0,0,0,0,0,0,0,0,0,-1,1903,596,0,0
686,428,0,0,0,0,0,0,0,0,0,-1,1910,596,0,0
693,428,0,0,0,0,0,0,0,0,0,-1,1917,596,0,0
700,428,0,0,0,0,0,0,0,0,0,-1,1924,596,0,0
707,428,0,0,0,0,0,0,0,0,0,-1,1931,596,0,0
714,428,0,0,0,0,0,0,0,0,0,-1,1938,596,0,0
721,428,0,0,0,0,0,0,0,0,0,-1,1945,596,0,0
728,428,0,0,0,0,0,0,0,0,0,-1,1952,596,0,0
735,428,0,0,0,0,0,0,0,0,0,-1,1959,596,0,0
742,428,0,0,0,0,0,0,0,0,0,-1,1966,596,0,0
749,428,0,0,0,0,0,0,0,0,0,-1,1973,596,0,0
756,428,0,0,0,0,0,0,0,0,0,-1,1980,596,0,0
763,428,0,0,0,0,0,0,0,0,0,-1,1987,596,0,0
770,428,0,0,0,0,0,0,0,0,0,-1,1994,596,0,0
777,428,0,0,0,0,0,0,0,0,0,-1,2001,596,0,0
784,428,0,0,0,0,0,0,0,0,0,-1,2008,596,0,0
791,428,0,0,0,0,0,0,0,0,0,-1,2015,596,0,0
798,428,0,0,0,0,0,0,0,0,0,-1,2022,596,0,0
805,428,0,0,0,0,0,0,0,0,0,-1,2029,596,0,0
812,428,0,0,0,0,0,0,0,0,0,-1,2036,596,0,0
-700,421,0,0,0,0,0,0,0,0,0,-1,524,603,0,0
-693,421,0,0,0,0,0,0,0,0,0,-1,531,603,0,0
-686,421,0,0,0,0,0,0,0,0,0,-1,538,603,0,0
-679,421,0,0,0,0,0,0,0,0,0,-1,545,603,0,0
-672,421,0,0,0,0,0,0,0,0,0,-1,552,603,0,0
-665,421,0,0,0,0,0,0,0,0,0,-1,559,603,0,0
-658,421,0,0,0,0,0,0,0,0,0,-1,566,603,0,0
-651,421,0,0,0,0,0,0,0,0,0,-1,573,603,0,0
-644,421,0,0,0,0,0,0,0,0,0,-1,580,603,0,0
-637,421,0,0,0,0,0,0,0,0,0,-1,587,603,0,0
-630,421,0,0,0,0,0,0,0,0,0,-1,594,603,0,0
-623,421,0,0,0,0,0,0,0,0,0,-1,601,603,0,0
-616,421,0,0,0,0,0,0,0,0,0,-1,608,603,0,0
-609,421,0,0,0,0,0,0,0,0,0,-1,615,603,0,0
-602,421,0,0,0,0,0,0,0,0,0,-1,622,603,0,0
-595,421,0,0,0,0,0,0,0,0,0,-1,629,603,0,0
-588,421,0,0,0,0,0,0,0,0,0,-1,636,603,0,0
-581,421,0,0,0,0,0,0,0,0,0,-1,643,603,0,0
-574,421,0,0,0,0,0,0,0,0,0,-1,650,603,0,0
-567,421,0,0,0,0,0,0,0,0,0,-1,657,603,0,0
-560,421,0,0,0,0,0,0,0,0,0,-1,664,603,0,0
-553,421,0,0,0,0,0,0,0,0,0,-1,671,603,0,0
-546,421,0,0,0,0,0,0,0,0,0,-1,678,603,0,0
-539,421,0,0,0,0,0,0,0,0,0,-1,685,603,0,0
-532,421,-8.97382,6.95636,0,0,0,0,0,0,0,-1,692,603,-8.97384,-6.95634
-525,421,-2.11481,-8.04272,0,0,0,0,0,0,0,-1,699,603,-2.11483,8.0427
-518,421,-3.05908,-5.07233,0,0,0,0,0,0,0,-1,706,603,-3.0591,5.07235
-511,421,-4.63525,-4.08447,0,0,0,0,0,0,0,-1,713,603,-4.63524,4.08449
-504,421,-5.17029,-4.94458,0,0,0,0,0,0,0,-1,720,603,-5.17029,4.9446
-497,421,-6.63141,-2.32501,0,0,0,0,0,0,0,-1,727,603,-6.6314,2.32498
-490,421,-6.7616,-4.14783,0,0,0,0,0,0,0,-1,734,603,-6.76159,4.1478
-483,421,-13.7347,-13.4179,0,0,0,0,0,0,0,-1,741,603,-13.7347,13.4179
-476,421,-13.9047,-14.2554,-0.00623693,0.00310467,0.00321989,0.00410697,-0.00723923,1.26902,0.00663341,0.0451212,748,603,-13.9047,14.2554
-469,421,-14.1416,-14.9911,-0.00476576,0.0026058,0.00222507,0.00322535,-0.00538532,1.29923,0.00502324,0.0372533,755,603,-14.1416,14.9911
-462,421,-14.2332,-16.049,-0.00331294,0.00211201,0.00143489,0.00246816,-0.00366909,1.32751,0.00356588,0.0235322,762,603,-14.2332,16.049
-455,421,-14.2964,-17.0225,-0.00201704,0.00159469,0.000815364,0.00177023,-0.00219258,1.35874,0.00229225,0.0214463,769,603,-14.2964,17.0225
-448,421,-14.3341,-17.9303,-0.000865907,0.00125659,0.00026303,0.0012887,-0.000898017,1.44932,0.0012692,0.0201208,776,603,-14.3341,17.9303
-441,421,-14.3849,-18.8687,0.000112354,0.00103896,-0.000192776,0.00107746,7.38484e-05,-1.37365,0.000695002,0.0155882,783,603,-14.3849,18.8687
-434,421,-14.4501,-19.8336,0.000885286,0.000914056,-0.000555244,0.0014551,0.000344241,-0.798349,0.000878108,0.0113424,790,603,-14.4501,19.8336
-427,421,-14.4807,-20.7755,0.00154628,0.000981946,-0.000920459,0.00222685,0.000301377,-0.63667,0.001395,0.0101276,797,603,-14.4807,20.7755
-420,421,-14.5192,-21.6663,0.00207068,0.00114085,-0.00124804,0.00293758,0.000273943,-0.607104,0.00187376,0.0113217,804,603,-14.5192,21.6663
-413,421,-14.5838,-22.5715,0.00235975,0.00140172,-0.00145637,0.00341386,0.00034761,-0.626515,0.00216934,0.0142847,811,603,-14.5838,22.5715
-406,421,-14.6939,-23.5427,0.00258917,0.00188618,-0.00174275,0.00401552,0.000459834,-0.685888,0.00253766,0.0220895,818,603,-14.6939,23.5427
-399,421,-14.8086,-24.5654,0,0,0,0,0,0,0,-1,825,603,-14.8086,24.5654
-392,421,-14.6201,-25.5296,0,0,0,0,0,0,0,-1,832,603,-14.62,25.5296
-385,421,-11.5825,-18.8583,0,0,0,0,0,0,0,-1,839,603,-11.5825,18.8583
-378,421,-4.94733,-8.87909,0,0,0,0,0,0,0,-1,846,603,-4.94731,8.87906
-371,421,-5.65082,-7.01849,0,0,0,0,0,0,0,-1,853,603,-5.65082,7.0185
-364,421,-5.94189,-7.09875,0,0,0,0,0,0,0,-1,860,603,-5.94192,7.09878
-357,421,-7.62531,-8.26337,0,0,0,0,0,0,0,-1,867,603,-7.62532,8.26337
-350,421,-5.38019,-3.75024,0,0,0,0,0,0,0,-1,874,603,-5.38017,3.75026
-343,421,-6.22797,-2.57123,0,0,0,0,0,0,0,-1,881,603,-6.22798,2.57121
-336,421,-6.22882,-2.59369,0,0,0,0,0,0,0,-1,888,603,-6.22883,2.5937
-329,421,-4.50134,-1.49469,0,0,0,0,0,0,0,-1,895,603,-4.50137,1.49468
-322,421,-7.55817,1.13263,0,0,0,0,0,0,0,-1,902,603,-7.55818,-1.13263
-315,421,-4.16144,-1.96649,0,0,0,0,0,0,0,-1,909,603,-4.16146,1.9665
-308,421,0,0,0,0,0,0,0,0,0,-1,916,603,0,0
-301,421,0,0,0,0,0,0,0,0,0,-1,923,603,0,0
-294,421,0,0,0,0,0,0,0,0,0,-1,930,603,0,0
-287,421,0,0,0,0,0,0,0,0,0,-1,937,603,0,0
-280,421,0,0,0,0,0,0,0,0,0,-1,944,603,0,0
-273,421,0,0,0,0,0,0,0,0,0,-1,951,603,0,0
-266,421,0,0,0,0,0,0,0,0,0,-1,958,603,0,0
-259,421,0,0,0,0,0,0,0,0,0,-1,965,603,0,0
-252,421,0,0,0,0,0,0,0,0,0,-1,972,603,0,0
-245,421,0,0,0,0,0,0,0,0,0,-1,979,603,0,0
-238,421,0,0,0,0,0,0,0,0,0,-1,986,603,0,0
-231,421,0,0,0,0,0,0,0,0,0,-1,993,603,0,0
-224,421,0,0,0,0,0,0,0,0,0,-1,1000,603,0,0
-217,421,0,0,0,0,0,0,0,0,0,-1,1007,603,0,0
-210,421,0,0,0,0,0,0,0,0,0,-1,1014,603,0,0
-203,421,0,0,0,0,0,0,0,0,0,-1,1021,603,0,0
-196,421,0,0,0,0,0,0,0,0,0,-1,1028,603,0,0
-189,421,0,0,0,0,0,0,0,0,0,-1,1035,603,0,0
-182,421,0,0,0,0,0,0,0,0,0,-1,1042,603,0,0
-175,421,0,0,0,0,0,0,0,0,0,-1,1049,603,0,0
-168,421,0,0,0,0,0,0,0,0,0,-1,1056,603,0,0
-161,421,0,0,0,0,0,0,0,0,0,-1,1063,603,0,0
-154,421,0,0,0,0,0,0,0,0,0,-1,1070,603,0,0
-147,421,0,0,0,0,0,0,0,0,0,-1,1077,603,0,0
-140,421,0,0,0,0,0,0,0,0,0,-1,1084,603,0,0
-133,421,0,0,0,0,0,0,0,0,0,-1,1091,603,0,0
-126,421,0,0,0,0,0,0,0,0,0,-1,1098,603,0,0
-119,421,0,0,0,0,0,0,0,0,0,-1,1105,603,0,0
-112,421,0,0,0,0,0,0,0,0,0,-1,1112,603,0,0
-105,421,0,0,0,0,0,0,0,0,0,-1,1119,603,0,0
-98,421,0,0,0,0,0,0,0,0,0,-1,1126,603,0,0
-91,421,0,0,0,0,0,0,0,0,0,-1,1133,603,0,0
-84,421,0,0,0,0,0,0,0,0,0,-1,1140,603,0,0
-77,421,0,0,0,0,0,0,0,0,0,-1,1147,603,0,0
-70,421,0,0,0,0,0,0,0,0,0,-1,1154,603,0,0
-63,421,0,0,0,0,0,0,0,0,0,-1,1161,603,0,0
-56,421,0,0,0,0,0,0,0,0,0,-1,1168,603,0,0
-49,421,0,0,0,0,0,0,0,0,0,-1,1175,603,0,0
-42,421,0,0,0,0,0,0,0,0,0,-1,1182,603,0,0
-35,421,0,0,0,0,0,0,0,0,0,-1,1189,603,0,0
-28,421,0,0,0,0,0,0,0,0,0,-1,1196,603,0,0
-21,421,0,0,0,0,0,0,0,0,0,-1,1203,603,0,0
-14,421,0,0,0,0,0,0,0,0,0,-1,1210,603,0,0
-7,421,0,0,0,0,0,0,0,0,0,-1,1217,603,0,0
0,421,0,0,0,0,0,0,0,0,0,-1,1224,603,0,0
7,421,0,0,0,0,0,0,0,0,0,-1,1231,603,0,0
14,421,0,0,0,0,0,0,0,0,0,-1,1238,603,0,0
21,421,0,0,0,0,0,0,0,0,0,-1,1245,603,0,0
28,421,0,0,0,0,0,0,0,0,0,-1,1252,603,0,0
35,421,0,0,0,0,0,0,0,0,0,-1,1259,603,0,0
42,421,0,0,0,0,0,0,0,0,0,-1,1266,603,0,0
49,421,0,0,0,0,0,0,0,0,0,-1,1273,603,0,0
56,421,0,0,0,0,0,0,0,0,0,-1,1280,603,0,0
63,421,0,0,0,0,0,0,0,0,0,-1,1287,603,0,0
70,421,0,0,0,0,0,0,0,0,0,-1,1294,603,0,0
77,421,0,0,0,0,0,0,0,0,0,-1,1301,603,0,0
84,421,0,0,0,0,0,0,0,0,0,-1,1308,603,0,0
91,421,0,0,0,0,0,0,0,0,0,-1,1315,603,0,0
98,421,0,0,0,0,0,0,0,0,0,-1,1322,603,0,0
105,421,0,0,0,0,0,0,0,0,0,-1,1329,603,0,0
112,421,0,0,0,0,0,0,0,0,0,-1,1336,603,0,0
119,421,0,0,0,0,0,0,0,0,0,-1,1343,603,0,0
126,421,0,0,0,0,0,0,0,0,0,-1,1350,603,0,0
133,421,0,0,0,0,0,0,0,0,0,-1,1357,603,0,0
140,421,0,0,0,0,0,0,0,0,0,-1,1364,603,0,0
147,421,0,0,0,0,0,0,0,0,0,-1,1371,603,0,0
154,421,0,0,0,0,0,0,0,0,0,-1,1378,603,0,0
161,421,0,0,0,0,0,0,0,0,0,-1,1385,603,0,0
168,421,0,0,0,0,0,0,0,0,0,-1,1392,603,0,0
175,421,0,0,0,0,0,0,0,0,0,-1,1399,603,0,0
182,421,0,0,0,0,0,0,0,0,0,-1,1406,603,0,0
189,421,0,0,0,0,0,0,0,0,0,-1,1413,603,0,0
196,421,0,0,0,0,0,0,0,0,0,-1,1420,603,0,0
203,421,0,0,0,0,0,0,0,0,0,-1,1427,603,0,0
210,421,0,0,0,0,0,0,0,0,0,-1,1434,603,0,0
217,421,0,0,0,0,0,0,0,0,0,-1,1441,603,0,0
224,421,0,0,0,0,0,0,0,0,0,-1,1448,603,0,0
231,421,0,0,0,0,0,0,0,0,0,-1,1455,603,0,0
238,421,0,0,0,0,0,0,0,0,0,-1,1462,603,0,0
245,421,0,0,0,0,0,0,0,0,0,-1,1469,603,0,0
252,421,0,0,0,0,0,0,0,0,0,-1,1476,603,0,0
259,421,0,0,0,0,0,0,0,0,0,-1,1483,603,0,0
266,421,0,0,0,0,0,0,0,0,0,-1,1490,603,0,0
273,421,0,0,0,0,0,0,0,0,0,-1,1497,603,0,0
280,421,0,0,0,0,0,0,0,0,0,-1,1504,603,0,0
287,421,0,0,0,0,0,0,0,0,0,-1,1511,603,0,0
294,421,0,0,0,0,0,0,0,0,0,-1,1518,603,0,0
301,421,0,0,0,0,0,0,0,0,0,-1,1525,603,0,0
308,421,0,0,0,0,0,0,0,0,0,-1,1532,603,0,0
315,421,0,0,0,0,0,0,0,0,0,-1,1539,603,0,0
322,421,0,0,0,0,0,0,0,0,0,-1,1546,603,0,0
329,421,0,0,0,0,0,0,0,0,0,-1,1553,603,0,0
336,421,0,0,0,0,0,0,0,0,0,-1,1560,603,0,0
343,421,0,0,0,0,0,0,0,0,0,-1,1567,603,0,0
350,421,0,0,0,0,0,0,0,0,0,-1,1574,603,0,0
357,421,0,0,0,0,0,0,0,0,0,-1,1581,603,0,0
364,421,0,0,0,0,0,0,0,0,0,-1,1588,603,0,0
371,421,0,0,0,0,0,0,0,0,0,-1,1595,603,0,0
378,421,0,0,0,0,0,0,0,0,0,-1,1602,603,0,0
385,421,0,0,0,0,0,0,0,0,0,-1,1609,603,0,0
392,421,0,0,0,0,0,0,0,0,0,-1,1616,603,0,0
399,421,0,0,0,0,0,0,0,0,0,-1,1623,603,0,0
406,421,0,0,0,0,0,0,0,0,0,-1,1630,603,0,0
413,421,0,0,0,0,0,0,0,0,0,-1,1637,603,0,0
420,421,0,0,0,0,0,0,0,0,0,-1,1644,603,0,0
427,421,0,0,0,0,0,0,0,0,0,-1,1651,603,0,0
434,421,3.68176,-0.0327759,0,0,0,0,0,0,0,-1,1658,603,3.6818,0.0328037
441,421,8.06689,0.527832,0,0,0,0,0,0,0,-1,1665,603,8.06693,-0.527851
448,421,6.93921,0.802246,0,0,0,0,0,0,0,-1,1672,603,6.93923,-0.802251
455,421,7.29456,2.14825,0,0,0,0,0,0,0,-1,1679,603,7.29461,-2.14827
462,421,7.86902,3.53174,0,0,0,0,0,0,0,-1,1686,603,7.869,-3.53173
469,421,8.06604,2.81213,0,0,0,0,0,0,0,-1,1693,603,8.06606,-2.81212
476,421,8.26306,2.09253,0,0,0,0,0,0,0,-1,1700,603,8.26312,-2.09251
483,421,8.05322,0.798096,0,0,0,0,0,0,0,-1,1707,603,8.05323,-0.7981
490,421,7.51233,0.213074,0,0,0,0,0,0,0,-1,1714,603,7.51235,-0.213043
497,421,7.49634,-2.86688,0,0,0,0,0,0,0,-1,1721,603,7.4963,2.86688
504,421,6.90491,-2.18671,0,0,0,0,0,0,0,-1,1728,603,6.90491,2.18669
511,421,6.31348,-1.50653,0,0,0,0,0,0,0,-1,1735,603,6.31353,1.5065
518,421,6.27588,-2.49878,0,0,0,0,0,0,0,-1,1742,603,6.2759,2.4988
525,421,30.1749,-24.1868,0,0,0,0,0,0,0,-1,1749,603,30.175,24.1869
532,421,30.2217,-23.0449,0.00472587,0.00170372,0.002691,0.00630103,0.000128559,0.529572,0.00415849,0.0478633,1756,603,30.2216,23.045
539,421,30.3021,-22.0423,0.00390508,0.00139709,0.002093,0.00509099,0.000211173,0.515506,0.00332584,0.0256991,1763,603,30.3021,22.0423
546,421,30.2341,-21.1534,0.00317132,0.00121365,0.00161999,0.00408523,0.000299738,0.513638,0.00262928,0.0141648,1770,603,30.2341,21.1534
553,421,30.1752,-20.2206,0.00253829,0.00129172,0.00132354,0.00337796,0.000452041,0.565341,0.00211744,0.0134755,1777,603,30.1752,20.2206
560,421,30.1273,-19.2687,0.00199572,0.00149755,0.00119463,0.00296696,0.000526317,0.682618,0.00182797,0.0151952,1784,603,30.1273,19.2687
567,421,30.0818,-18.3813,0.00169028,0.00191282,0.00131428,0.00312053,0.000482572,0.827629,0.00193961,0.0170058,1791,603,30.0818,18.3813
574,421,30.0249,-17.4964,0.00160104,0.00251139,0.00160442,0.00372396,0.000388476,0.923617,0.00236381,0.0210623,1798,603,30.025,17.4964
581,421,29.9772,-16.5002,0.0017032,0.00322806,0.00207713,0.00467826,0.000252997,0.961293,0.00303802,0.0225601,1805,603,29.9772,16.5003
588,421,29.8981,-15.5937,0.00209414,0.00425075,0.00280736,0.00617977,0.000165116,0.96876,0.00406593,0.0147832,1812,603,29.8981,15.5937
595,421,29.8984,-14.6046,0.00272384,0.00544795,0.00369518,0.00802412,0.000147678,0.961973,0.00530087,0.0219765,1819,603,29.8985,14.6046
602,421,29.922,-13.5776,0,0,0,0,0,0,0,-1,1826,603,29.922,13.5776
609,421,22.8762,-8.37524,0,0,0,0,0,0,0,-1,1833,603,22.8762,8.37525
616,421,17.7633,-4.72491,0,0,0,0,0,0,0,-1,1840,603,17.7633,4.7249
623,421,6.19885,0.376648,0,0,0,0,0,0,0,-1,1847,603,6.19881,-0.376624
630,421,6.54993,0.778748,0,0,0,0,0,0,0,-1,1854,603,6.54991,-0.778744
637,421,3.74512,1.65405,0,0,0,0,0,0,0,-1,1861,603,3.74517,-1.65407
644,421,3.58081,0.354675,0,0,0,0,0,0,0,-1,1868,603,3.58082,-0.354704
651,421,3.28687,3.66351,0,0,0,0,0,0,0,-1,1875,603,3.28688,-3.66353
658,421,0,0,0,0,0,0,0,0,0,-1,1882,603,0,0
665,421,0,0,0,0,0,0,0,0,0,-1,1889,603,0,0
672,421,0,0,0,0,0,0,0,0,0,-1,1896,603,0,0
679,421,0,0,0,0,0,0,0,0,0,-1,1903,603,0,0
686,421,0,0,0,0,0,0,0,0,0,-1,1910,603,0,0
693,421,0,0,0,0,0,0,0,0,0,-1,1917,603,0,0
700,421,0,0,0,0,0,0,0,0,0,-1,1924,603,0,0
707,421,0,0,0,0,0,0,0,0,0,-1,1931,603,0,0
714,421,0,0,0,0,0,0,0,0,0,-1,1938,603,0,0
721,421,0,0,0,0,0,0,0,0,0,-1,1945,603,0,0
728,421,0,0,0,0,0,0,0,0,0,-1,1952,603,0,0
735,421,0,0,0,0,0,0,0,0,0,-1,1959,603,0,0
742,421,0,0,0,0,0,0,0,0,0,-1,1966,603,0,0
749,421,0,0,0,0,0,0,0,0,0,-1,1973,603,0,0
756,421,0,0,0,0,0,0,0,0,0,-1,1980,603,0,0
763,421,0,0,0,0,0,0,0,0,0,-1,1987,603,0,0
770,421,0,0,0,0,0,0,0,0,0,-1,1994,603,0,0
777,421,0,0,0,0,0,0,0,0,0,-1,2001,603,0,0
784,421,0,0,0,0,0,0,0,0,0,-1,2008,603,0,0
791,421,0,0,0,0,0,0,0,0,0,-1,2015,603,0,0
798,421,0,0,0,0,0,0,0,0,0,-1,2022,603,0,0
805,421,0,0,0,0,0,0,0,0,0,-1,2029,603,0,0
812,421,0,0,0,0,0,0,0,0,0,-1,2036,603,0,0
-700,414,0,0,0,0,0,0,0,0,0,-1,524,610,0,0
-693,414,0,0,0,0,0,0,0,0,0,-1,531,610,0,0
-686,414,0,0,0,0,0,0,0,0,0,-1,538,610,0,0
-679,414,0,0,0,0,0,0,0,0,0,-1,545,610,0,0
-672,414,0,0,0,0,0,0,0,0,0,-1,552,610,0,0
-665,414,0,0,0,0,0,0,0,0,0,-1,559,610,0,0
-658,414,0,0,0,0,0,0,0,0,0,-1,566,610,0,0
-651,414,0,0,0,0,0,0,0,0,0,-1,573,610,0,0
-644,414,0,0,0,0,0,0,0,0,0,-1,580,610,0,0
-637,414,0,0,0,0,0,0,0,0,0,-1,587,610,0,0
-630,414,0,0,0,0,0,0,0,0,0,-1,594,610,0,0
-623,414,0,0,0,0,0,0,0,0,0,-1,601,610,0,0
-616,414,0,0,0,0,0,0,0,0,0,-1,608,610,0,0
-609,414,0,0,0,0,0,0,0,0,0,-1,615,610,0,0
-602,414,0,0,0,0,0,0,0,0,0,-1,622,610,0,0
-595,414,0,0,0,0,0,0,0,0,0,-1,629,610,0,0
-588,414,0,0,0,0,0,0,0,0,0,-1,636,610,0,0
-581,414,0,0,0,0,0,0,0,0,0,-1,643,610,0,0
-574,414,0,0,0,0,0,0,0,0,0,-1,650,610,0,0
-567,414,0,0,0,0,0,0,0,0,0,-1,657,610,0,0
-560,414,0,0,0,0,0,0,0,0,0,-1,664,610,0,0
-553,414,0,0,0,0,0,0,0,0,0,-1,671,610,0,0
-546,414,0,0,0,0,0,0,0,0,0,-1,678,610,0,0
-539,414,-7.50146,5.65619,0,0,0,0,0,0,0,-1,685,610,-7.50149,-5.65617
-532,414,-8.15204,4.01605,0,0,0,0,0,0,0,-1,692,610,-8.15206,-4.01606
-525,414,-3.47137,-3.27924,0,0,0,0,0,0,0,-1,699,610,-3.47136,3.27922
-518,414,-4.12909,-4.36908,0,0,0,0,0,0,0,-1,706,610,-4.12909,4.36909
-511,414,-3.92542,-4.97021,0,0,0,0,0,0,0,-1,713,610,-3.92542,4.97023
-504,414,-9.35394,-5.49896,0,0,0,0,0,0,0,-1,720,610,-9.35394,5.49898
-497,414,-9.67627,-6.54761,0,0,0,0,0,0,0,-1,727,610,-9.6763,6.5476
-490,414,-10.9006,-8.3277,0,0,0,0,0,0,0,-1,734,610,-10.9006,8.3277
-483,414,-14.8466,-13.2671,0,0,0,0,0,0,0,-1,741,610,-14.8466,13.2671
-476,414,-15.0347,-14.1699,-0.00451103,0.00240327,0.00226081,0.00307688,-0.00518464,1.28122,0.00482126,0.0256335,748,610,-15.0348,14.1699
-469,414,-15.1267,-15.0478,-0.00342343,0.00191557,0.00158825,0.00235232,-0.00386017,1.30244,0.00362183,0.0155983,755,610,-15.1267,15.0478
-462,414,-15.1913,-15.9982,-0.00227285,0.00145484,0.00100242,0.0017073,-0.00252532,1.32407,0.00245887,0.0237567,762,610,-15.1913,15.9982
-455,414,-15.2491,-16.9532,-0.00119476,0.00107191,0.00048432,0.00117106,-0.00129391,1.36887,0.00142374,0.0284678,769,610,-15.2491,16.9533
-448,414,-15.2718,-17.8851,-0.000171195,0.000803669,8.04662e-07,0.000803669,-0.000171196,1.56997,0.000601028,0.027784,776,610,-15.2718,17.8852
-441,414,-15.3161,-18.841,0.000744521,0.000691967,-0.000435208,0.00115424,0.000282244,-0.755246,0.000694794,0.019066,783,610,-15.3161,18.841
-434,414,-15.395,-19.775,0.00152068,0.000699725,-0.000820851,0.00202797,0.000192441,-0.553548,0.00129261,0.0107706,790,610,-15.3949,19.775
-427,414,-15.4302,-20.7048,0.00221877,0.000928192,-0.00124536,0.00297609,0.00017087,-0.546365,0.00192963,0.0110005,797,610,-15.4302,20.7047
-420,414,-15.4672,-21.608,0.00276475,0.00129175,-0.00161337,0.00380177,0.000254724,-0.571276,0.00245402,0.0108538,804,610,-15.4672,21.608
-413,414,-15.5319,-22.5291,0.00308312,0.00187007,-0.00191215,0.00448263,0.000470552,-0.63182,0.00284457,0.011582,811,610,-15.5319,22.5291
-406,414,-15.551,-23.6516,0.00339435,0.00284502,-0.00242032,0.00555554,0.00068383,-0.728899,0.0034981,0.0435862,818,610,-15.551,23.6515
-399,414,-15.4151,-24.7661,0,0,0,0,0,0,0,-1,825,610,-15.4151,24.7661
-392,414,-9.43781,-14.5624,0,0,0,0,0,0,0,-1,832,610,-9.43779,14.5624
-385,414,-8.14691,-13.0653,0,0,0,0,0,0,0,-1,839,610,-8.14692,13.0653
-378,414,-8.04907,-11.3331,0,0,0,0,0,0,0,-1,846,610,-8.04905,11.3331
-371,414,-5.20886,-8.05151,0,0,0,0,0,0,0,-1,853,610,-5.20887,8.05153
-364,414,-6.76282,-6.58759,0,0,0,0,0,0,0,-1,860,610,-6.7628,6.58756
-357,414,-9.08685,-8.86188,0,0,0,0,0,0,0,-1,867,610,-9.08688,8.86187
-350,414,-6.4502,-2.41821,0,0,0,0,0,0,0,-1,874,610,-6.45021,2.41822
-343,414,-6.80249,-2.32117,0,0,0,0,0,0,0,-1,881,610,-6.80252,2.32116
-336,414,-7.11017,-2.52026,0,0,0,0,0,0,0,-1,888,610,-7.11016,2.52026
-329,414,-7.59747,-2.70313,0,0,0,0,0,0,0,-1,895,610,-7.59747,2.70315
-322,414,-4.42236,-1.29163,0,0,0,0,0,0,0,-1,902,610,-4.42238,1.2916
-315,414,0,0,0,0,0,0,0,0,0,-1,909,610,0,0
-308,414,0,0,0,0,0,0,0,0,0,-1,916,610,0,0
-301,414,0,0,0,0,0,0,0,0,0,-1,923,610,0,0
-294,414,0,0,0,0,0,0,0,0,0,-1,930,610,0,0
-287,414,0,0,0,0,0,0,0,0,0,-1,937,610,0,0
-280,414,0,0,0,0,0,0,0,0,0,-1,944,610,0,0
-273,414,0,0,0,0,0,0,0,0,0,-1,951,610,0,0
-266,414,0,0,0,0,0,0,0,0,0,-1,958,610,0,0
-259,414,0,0,0,0,0,0,0,0,0,-1,965,610,0,0
-252,414,0,0,0,0,0,0,0,0,0,-1,972,610,0,0
-245,414,0,0,0,0,0,0,0,0,0,-1,979,610,0,0
-238,414,0,0,0,0,0,0,0,0,0,-1,986,610,0,0
-231,414,0,0,0,0,0,0,0,0,0,-1,993,610,0,0
-224,414,0,0,0,0,0,0,0,0,0,-1,1000,610,0,0
-217,414,0,0,0,0,0,0,0,0,0,-1,1007,610,0,0
-210,414,0,0,0,0,0,0,0,0,0,-1,1014,610,0,0
-203,414,0,0,0,0,0,0,0,0,0,-1,1021,610,0,0
-196,414,0,0,0,0,0,0,0,0,0,-1,1028,610,0,0
-189,414,0,0,0,0,0,0,0,0,0,-1,1035,610,0,0
-182,414,0,0,0,0,0,0,0,0,0,-1,1042,610,0,0
-175,414,0,0,0,0,0,0,0,0,0,-1,1049,610,0,0
-168,414,0,0,0,0,0,0,0,0,0,-1,1056,610,0,0
-161,414,0,0,0,0,0,0,0,0,0,-1,1063,610,0,0
-154,414,0,0,0,0,0,0,0,0,0,-1,1070,610,0,0
-147,414,0,0,0,0,0,0,0,0,0,-1,1077,610,0,0
-140,414,0,0,0,0,0,0,0,0,0,-1,1084,610,0,0
-133,414,0,0,0,0,0,0,0,0,0,-1,1091,610,0,0
-126,414,0,0,0,0,0,0,0,0,0,-1,1098,610,0,0
-119,414,0,0,0,0,0,0,0,0,0,-1,1105,610,0,0
-112,414,0,0,0,0,0,0,0,0,0,-1,1112,610,0,0
-105,414,0,0,0,0,0,0,0,0,0,-1,1119,610,0,0
-98,414,0,0,0,0,0,0,0,0,0,-1,1126,610,0,0
-91,414,0,0,0,0,0,0,0,0,0,-1,1133,610,0,0
-84,414,0,0,0,0,0,0,0,0,0,-1,1140,610,0,0
-77,414,0,0,0,0,0,0,0,0,0,-1,1147,610,0,0
-70,414,0,0,0,0,0,0,0,0,0,-1,1154,610,0,0
-63,414,0,0,0,0,0,0,0,0,0,-1,1161,610,0,0
-56,414,0,0,0,0,0,0,0,0,0,-1,1168,610,0,0
-49,414,0,0,0,0,0,0,0,0,0,-1,1175,610,0,0
-42,414,0,0,0,0,0,0,0,0,0,-1,1182,610,0,0
-35,414,0,0,0,0,0,0,0,0,0,-1,1189,610,0,0
-28,414,0,0,0,0,0,0,0,0,0,-1,1196,610,0,0
-21,414,0,0,0,0,0,0,0,0,0,-1,1203,610,0,0
-14,414,0,0,0,0,0,0,0,0,0,-1,1210,610,0,0
-7,414,0,0,0,0,0,0,0,0,0,-1,1217,610,0,0
0,414,0,0,0,0,0,0,0,0,0,-1,1224,610,0,0
7,414,0,0,0,0,0,0,0,0,0,-1,1231,610,0,0
14,414,0,0,0,0,0,0,0,0,0,-1,1238,610,0,0
21,414,0,0,0,0,0,0,0,0,0,-1,1245,610,0,0
28,414,0,0,0,0,0,0,0,0,0,-1,1252,610,0,0
35,414,0,0,0,0,0,0,0,0,0,-1,1259,610,0,0
42,414,0,0,0,0,0,0,0,0,0,-1,1266,610,0,0
49,414,0,0,0,0,0,0,0,0,0,-1,1273,610,0,0
56,414,0,0,0,0,0,0,0,0,0,-1,1280,610,0,0
63,414,0,0,0,0,0,0,0,0,0,-1,1287,610,0,0
70,414,0,0,0,0,0,0,0,0,0,-1,1294,610,0,0
77,414,0,0,0,0,0,0,0,0,0,-1,1301,610,0,0
84,414,0,0,0,0,0,0,0,0,0,-1,1308,610,0,0
91,414,0,0,0,0,0,0,0,0,0,-1,1315,610,0,0
98,414,0,0,0,0,0,0,0,0,0,-1,1322,610,0,0
105,414,0,0,0,0,0,0,0,0,0,-1,1329,610,0,0
112,414,0,0,0,0,0,0,0,0,0,-1,1336,610,0,0
119,414,0,0,0,0,0,0,0,0,0,-1,1343,610,0,0
126,414,0,0,0,0,0,0,0,0,0,-1,1350,610,0,0
133,414,0,0,0,0,0,0,0,0,0,-1,1357,610,0,0
140,414,0,0,0,0,0,0,0,0,0,-1,1364,610,0,0
147,414,0,0,0,0,0,0,0,0,0,-1,1371,610,0,0
154,414,0,0,0,0,0,0,0,0,0,-1,1378,610,0,0
161,414,0,0,0,0,0,0,0,0,0,-1,1385,610,0,0
168,414,0,0,0,0,0,0,0,0,0,-1,1392,610,0,0
175,414,0,0,0,0,0,0,0,0,0,-1,1399,610,0,0
182,414,0,0,0,0,0,0,0,0,0,-1,1406,610,0,0
189,414,0,0,0,0,0,0,0,0,0,-1,1413,610,0,0
196,414,0,0,0,0,0,0,0,0,0,-1,1420,610,0,0
203,414,0,0,0,0,0,0,0,0,0,-1,1427,610,0,0
210,414,0,0,0,0,0,0,0,0,0,-1,1434,610,0,0
217,414,0,0,0,0,0,0,0,0,0,-1,1441,610,0,0
224,414,0,0,0,0,0,0,0,0,0,-1,1448,610,0,0
231,414,0,0,0,0,0,0,0,0,0,-1,1455,610,0,0
238,414,0,0,0,0,0,0,0,0,0,-1,1462,610,0,0
245,414,0,0,0,0,0,0,0,0,0,-1,1469,610,0,0
252,414,0,0,0,0,0,0,0,0,0,-1,1476,610,0,0
259,414,0,0,0,0,0,0,0,0,0,-1,1483,610,0,0
266,414,0,0,0,0,0,0,0,0,0,-1,1490,610,0,0
273,414,0,0,0,0,0,0,0,0,0,-1,1497,610,0,0
280,414,0,0,0,0,0,0,0,0,0,-1,1504,610,0,0
287,414,0,0,0,0,0,0,0,0,0,-1,1511,610,0,0
294,414,0,0,0,0,0,0,0,0,0,-1,1518,610,0,0
301,414,0,0,0,0,0,0,0,0,0,-1,1525,610,0,0
308,414,0,0,0,0,0,0,0,0,0,-1,1532,610,0,0
315,414,0,0,0,0,0,0,0,0,0,-1,1539,610,0,0
322,414,0,0,0,0,0,0,0,0,0,-1,1546,610,0,0
329,414,0,0,0,0,0,0,0,0,0,-1,1553,610,0,0
336,414,0,0,0,0,0,0,0,0,0,-1,1560,610,0,0
343,414,0,0,0,0,0,0,0,0,0,-1,1567,610,0,0
350,414,0,0,0,0,0,0,0,0,0,-1,1574,610,0,0
357,414,0,0,0,0,0,0,0,0,0,-1,1581,610,0,0
364,414,0,0,0,0,0,0,0,0,0,-1,1588,610,0,0
371,414,0,0,0,0,0,0,0,0,0,-1,1595,610,0,0
378,414,0,0,0,0,0,0,0,0,0,-1,1602,610,0,0
385,414,0,0,0,0,0,0,0,0,0,-1,1609,610,0,0
392,414,0,0,0,0,0,0,0,0,0,-1,1616,610,0,0
399,414,0,0,0,0,0,0,0,0,0,-1,1623,610,0,0
406,414,0,0,0,0,0,0,0,0,0,-1,1630,610,0,0
413,414,0,0,0,0,0,0,0,0,0,-1,1637,610,0,0
420,414,0,0,0,0,0,0,0,0,0,-1,1644,610,0,0
427,414,0,0,0,0,0,0,0,0,0,-1,1651,610,0,0
434,414,0,0,0,0,0,0,0,0,0,-1,1658,610,0,0
441,414,7.84375,0.584412,0,0,0,0,0,0,0,-1,1665,610,7.84379,-0.584394
448,414,7.40808,1.25446,0,0,0,0,0,0,0,-1,1672,610,7.40807,-1.25446
455,414,6.3512,1.73846,0,0,0,0,0,0,0,-1,1679,610,6.3512,-1.73847
462,414,8.18103,3.22113,0,0,0,0,0,0,0,-1,1686,610,8.18108,-3.22112
469,414,8.38513,2.49579,0,0,0,0,0,0,0,-1,1693,610,8.38516,-2.49576
476,414,8.64099,1.71161,0,0,0,0,0,0,0,-1,1700,610,8.64097,-1.71164
483,414,8.62744,0.687622,0,0,0,0,0,0,0,-1,1707,610,8.62749,-0.687615
490,414,8.38831,-0.0302734,0,0,0,0,0,0,0,-1,1714,610,8.38835,0.0302913
497,414,4.71094,-0.110046,0,0,0,0,0,0,0,-1,1721,610,4.71089,0.110024
504,414,7.19568,-1.43835,0,0,0,0,0,0,0,-1,1728,610,7.19563,1.43836
511,414,5.94153,-1.28772,0,0,0,0,0,0,0,-1,1735,610,5.94151,1.28769
518,414,4.53381,-0.0996704,0,0,0,0,0,0,0,-1,1742,610,4.53378,0.0996819
525,414,6.18811,-1.64056,0,0,0,0,0,0,0,-1,1749,610,6.18814,1.64055
532,414,31.0973,-23.124,0,0,0,0,0,0,0,-1,1756,610,31.0973,23.124
539,414,31.2461,-22.0486,0,0,0,0,0,0,0,-1,1763,610,31.246,22.0486
546,414,31.1636,-21.1028,0.00375091,0.00119986,0.0017923,0.00467523,0.000275545,0.47614,0.00302915,0.0184428,1770,610,31.1635,21.1029
553,414,31.126,-20.1665,0.00293803,0.00114986,0.00137713,0.00368585,0.000402032,0.497479,0.00233479,0.0145748,1777,610,31.1259,20.1665
560,414,31.0903,-19.2366,0.00224142,0.00121876,0.00114718,0.00298607,0.000474111,0.57575,0.00185301,0.0165987,1784,610,31.0903,19.2366
567,414,31.0306,-18.296,0.00179348,0.00146028,0.00116133,0.0028001,0.000453661,0.714157,0.00173539,0.0255184,1791,610,31.0307,18.2959
574,414,30.9504,-17.3951,0.00161412,0.00191835,0.00137317,0.00314781,0.000384664,0.840562,0.00198279,0.0243522,1798,610,30.9504,17.3951
581,414,30.9159,-16.4607,0.0016245,0.00247455,0.00173247,0.00383337,0.000265682,0.905686,0.00247179,0.0209366,1805,610,30.9158,16.4607
588,414,30.8699,-15.5439,0.00188997,0.00334289,0.00232153,0.00504897,0.000183894,0.937033,0.00330639,0.0192588,1812,610,30.8699,15.5439
595,414,30.7744,-14.5215,0.00241647,0.00438981,0.0030839,0.00664104,0.000165248,0.940223,0.00437332,0.0212994,1819,610,30.7744,14.5216
602,414,30.7057,-13.5746,0.00316373,0.00571088,0.00397754,0.00861377,0.00026084,0.940337,0.00565757,0.0280713,1826,610,30.7057,13.5746
609,414,30.7198,-12.5231,0,0,0,0,0,0,0,-1,1833,610,30.7198,12.523
616,414,30.9778,-11.2947,0,0,0,0,0,0,0,-1,1840,610,30.9778,11.2947
623,414,9.6969,0.0378418,0,0,0,0,0,0,0,-1,1847,610,9.69685,-0.0378644
630,414,5.47144,0.499329,0,0,0,0,0,0,0,-1,1854,610,5.47142,-0.499303
637,414,8.36707,4.16278,0,0,0,0,0,0,0,-1,1861,610,8.36709,-4.16278
644,414,5.87073,1.51422,0,0,0,0,0,0,0,-1,1868,610,5.87076,-1.51424
651,414,3.6377,0.820557,0,0,0,0,0,0,0,-1,1875,610,3.6377,-0.820543
658,414,2.29761,3.87323,0,0,0,0,0,0,0,-1,1882,610,2.29758,-3.87325
665,414,0,0,0,0,0,0,0,0,0,-1,1889,610,0,0
672,414,0,0,0,0,0,0,0,0,0,-1,1896,610,0,0
679,414,0,0,0,0,0,0,0,0,0,-1,1903,610,0,0
686,414,0,0,0,0,0,0,0,0,0,-1,1910,610,0,0
693,414,0,0,0,0,0,0,0,0,0,-1,1917,610,0,0
700,414,0,0,0,0,0,0,0,0,0,-1,1924,610,0,0
707,414,0,0,0,0,0,0,0,0,0,-1,1931,610,0,0
714,414,0,0,0,0,0,0,0,0,0,-1,1938,610,0,0
721,414,0,0,0,0,0,0,0,0,0,-1,1945,610,0,0
728,414,0,0,0,0,0,0,0,0,0,-1,1952,610,0,0
735,414,0,0,0,0,0,0,0,0,0,-1,1959,610,0,0
742,414,0,0,0,0,0,0,0,0,0,-1,1966,610,0,0
749,414,0,0,0,0,0,0,0,0,0,-1,1973,610,0,0
756,414,0,0,0,0,0,0,0,0,0,-1,1980,610,0,0
763,414,0,0,0,0,0,0,0,0,0,-1,1987,610,0,0
770,414,0,0,0,0,0,0,0,0,0,-1,1994,610,0,0
777,414,0,0,0,0,0,0,0,0,0,-1,2001,610,0,0
784,414,0,0,0,0,0,0,0,0,0,-1,2008,610,0,0
791,414,0,0,0,0,0,0,0,0,0,-1,2015,610,0,0
798,414,0,0,0,0,0,0,0,0,0,-1,2022,610,0,0
805,414,0,0,0,0,0,0,0,0,0,-1,2029,610,0,0
812,414,0,0,0,0,0,0,0,0,0,-1,2036,610,0,0
-700,407,0,0,0,0,0,0,0,0,0,-1,524,617,0,0
-693,407,0,0,0,0,0,0,0,0,0,-1,531,617,0,0
-686,407,0,0,0,0,0,0,0,0,0,-1,538,617,0,0
-679,407,0,0,0,0,0,0,0,0,0,-1,545,617,0,0
-672,407,0,0,0,0,0,0,0,0,0,-1,552,617,0,0
-665,407,0,0,0,0,0,0,0,0,0,-1,559,617,0,0
-658,407,0,0,0,0,0,0,0,0,0,-1,566,617,0,0
-651,407,0,0,0,0,0,0,0,0,0,-1,573,617,0,0
-644,407,0,0,0,0,0,0,0,0,0,-1,580,617,0,0
-637,407,0,0,0,0,0,0,0,0,0,-1,587,617,0,0
-630,407,0,0,0,0,0,0,0,0,0,-1,594,617,0,0
-623,407,0,0,0,0,0,0,0,0,0,-1,601,617,0,0
-616,407,0,0,0,0,0,0,0,0,0,-1,608,617,0,0
-609,407,0,0,0,0,0,0,0,0,0,-1,615,617,0,0
-602,407,0,0,0,0,0,0,0,0,0,-1,622,617,0,0
-595,407,0,0,0,0,0,0,0,0,0,-1,629,617,0,0
-588,407,0,0,0,0,0,0,0,0,0,-1,636,617,0,0
-581,407,0,0,0,0,0,0,0,0,0,-1,643,617,0,0
-574,407,0,0,0,0,0,0,0,0,0,-1,650,617,0,0
-567,407,0,0,0,0,0,0,0,0,0,-1,657,617,0,0
-560,407,0,0,0,0,0,0,0,0,0,-1,664,617,0,0
-553,407,0,0,0,0,0,0,0,0,0,-1,671,617,0,0
-546,407,-8.54517,-0.658142,0,0,0,0,0,0,0,-1,678,617,-8.54515,0.658112
-539,407,-6.09442,-1.01154,0,0,0,0,0,0,0,-1,685,617,-6.09441,1.01155
-532,407,-7.75665,1.62152,0,0,0,0,0,0,0,-1,692,617,-7.75667,-1.62154
-525,407,-3.78247,-2.67639,0,0,0,0,0,0,0,-1,699,617,-3.78246,2.67638
-518,407,-5.013,-5.87323,0,0,0,0,0,0,0,-1,706,617,-5.013,5.87324
-511,407,-9.42743,-4.94189,0,0,0,0,0,0,0,-1,713,617,-9.42745,4.94191
-504,407,-10.8291,-8.05927,0,0,0,0,0,0,0,-1,720,617,-10.8291,8.05927
-497,407,-9.84467,-6.81641,0,0,0,0,0,0,0,-1,727,617,-9.84468,6.8164
-490,407,-15.8975,-11.8431,0,0,0,0,0,0,0,-1,734,617,-15.8975,11.8432
-483,407,-15.8385,-13.1091,-0.00369329,0.00211236,0.00201848,0.00274516,-0.00432609,1.267,0.00411645,0.0324425,741,617,-15.8385,13.1092
-476,407,-15.9365,-14.0483,-0.00305555,0.00173805,0.00154029,0.00219031,-0.00350781,1.2852,0.003319,0.016671,748,617,-15.9365,14.0484
-469,407,-16.0213,-14.9742,-0.00223803,0.00132876,0.00107006,0.00162515,-0.00253443,1.30058,0.00242059,0.0138399,755,617,-16.0213,14.9743
-462,407,-16.1113,-15.9166,-0.00131499,0.000940955,0.000618746,0.00109952,-0.00147355,1.31993,0.00149078,0.0211549,762,617,-16.1113,15.9166
-455,407,-16.1636,-16.8943,-0.00039868,0.000691753,0.00016174,0.000715237,-0.000422164,1.4266,0.000663906,0.0247004,769,617,-16.1636,16.8943
-448,407,-16.1604,-17.8336,0.000527464,0.000508685,-0.000284344,0.000802574,0.000233575,-0.768893,0.000476665,0.0217849,776,617,-16.1604,17.8336
-441,407,-16.237,-18.7606,0.00140162,0.000494083,-0.000723916,0.00180223,9.34741e-05,-0.505443,0.00117157,0.0158288,783,617,-16.237,18.7605
-434,407,-16.3409,-19.6813,0.00220673,0.000622449,-0.00116133,0.00282035,8.823e-06,-0.486094,0.0018773,0.0122563,790,617,-16.3409,19.6813
-427,407,-16.3796,-20.6102,0.0029628,0.000966023,-0.00166809,0.00390845,2.0367e-05,-0.515733,0.00259887,0.0124859,797,617,-16.3796,20.6102
-420,407,-16.3936,-21.5355,0.00354243,0.00146859,-0.00209349,0.00484172,0.000169293,-0.555455,0.00317289,0.0116045,804,617,-16.3936,21.5355
-413,407,-16.4232,-22.4581,0.00391193,0.00230921,-0.00251242,0.0057477,0.000473442,-0.631018,0.00368414,0.0205245,811,617,-16.4232,22.4581
-406,407,-16.3876,-23.4155,0,0,0,0,0,0,0,-1,818,617,-16.3876,23.4154
-399,407,-16.5686,-23.1791,0,0,0,0,0,0,0,-1,825,617,-16.5686,23.1791
-392,407,-8.33612,-12.195,0,0,0,0,0,0,0,-1,832,617,-8.33611,12.195
-385,407,-7.65765,-10.7744,0,0,0,0,0,0,0,-1,839,617,-7.65767,10.7744
-378,407,-6.08655,-7.42291,0,0,0,0,0,0,0,-1,846,617,-6.08652,7.42292
-371,407,-7.4007,-5.79449,0,0,0,0,0,0,0,-1,853,617,-7.40072,5.79447
-364,407,-10.0638,-6.6228,0,0,0,0,0,0,0,-1,860,617,-10.0639,6.62279
-357,407,-6.64447,-1.83337,0,0,0,0,0,0,0,-1,867,617,-6.64446,1.8334
-350,407,-7.03351,-1.77551,0,0,0,0,0,0,0,-1,874,617,-7.03349,1.77551
-343,407,-7.40967,-1.95026,0,0,0,0,0,0,0,-1,881,617,-7.40969,1.95026
-336,407,-8.10229,-2.40662,0,0,0,0,0,0,0,-1,888,617,-8.10229,2.40664
-329,407,-8.81232,-2.76331,0,0,0,0,0,0,0,-1,895,617,-8.81235,2.76331
-322,407,0,0,0,0,0,0,0,0,0,-1,902,617,0,0
-315,407,0,0,0,0,0,0,0,0,0,-1,909,617,0,0
-308,407,0,0,0,0,0,0,0,0,0,-1,916,617,0,0
-301,407,0,0,0,0,0,0,0,0,0,-1,923,617,0,0
-294,407,0,0,0,0,0,0,0,0,0,-1,930,617,0,0
-287,407,0,0,0,0,0,0,0,0,0,-1,937,617,0,0
-280,407,0,0,0,0,0,0,0,0,0,-1,944,617,0,0
-273,407,0,0,0,0,0,0,0,0,0,-1,951,617,0,0
-266,407,0,0,0,0,0,0,0,0,0,-1,958,617,0,0
-259,407,0,0,0,0,0,0,0,0,0,-1,965,617,0,0
-252,407,0,0,0,0,0,0,0,0,0,-1,972,617,0,0
-245,407,0,0,0,0,0,0,0,0,0,-1,979,617,0,0
-238,407,0,0,0,0,0,0,0,0,0,-1,986,617,0,0
-231,407,0,0,0,0,0,0,0,0,0,-1,993,617,0,0
-224,407,0,0,0,0,0,0,0,0,0,-1,1000,617,0,0
-217,407,0,0,0,0,0,0,0,0,0,-1,1007,617,0,0
-210,407,0,0,0,0,0,0,0,0,0,-1,1014,617,0,0
-203,407,0,0,0,0,0,0,0,0,0,-1,1021,617,0,0
-196,407,0,0,0,0,0,0,0,0,0,-1,1028,617,0,0
-189,407,0,0,0,0,0,0,0,0,0,-1,1035,617,0,0
-182,407,0,0,0,0,0,0,0,0,0,-1,1042,617,0,0
-175,407,0,0,0,0,0,0,0,0,0,-1,1049,617,0,0
-168,407,0,0,0,0,0,0,0,0,0,-1,1056,617,0,0
-161,407,0,0,0,0,0,0,0,0,0,-1,1063,617,0,0
-154,407,0,0,0,0,0,0,0,0,0,-1,1070,617,0,0
-147,407,0,0,0,0,0,0,0,0,0,-1,1077,617,0,0
-140,407,0,0,0,0,0,0,0,0,0,-1,1084,617,0,0
-133,407,0,0,0,0,0,0,0,0,0,-1,1091,617,0,0
-126,407,0,0,0,0,0,0,0,0,0,-1,1098,617,0,0
-119,407,0,0,0,0,0,0,0,0,0,-1,1105,617,0,0
-112,407,0,0,0,0,0,0,0,0,0,-1,1112,617,0,0
-105,407,0,0,0,0,0,0,0,0,0,-1,1119,617,0,0
-98,407,0,0,0,0,0,0,0,0,0,-1,1126,617,0,0
-91,407,0,0,0,0,0,0,0,0,0,-1,1133,617,0,0
-84,407,0,0,0,0,0,0,0,0,0,-1,1140,617,0,0
-77,407,0,0,0,0,0,0,0,0,0,-1,1147,617,0,0
-70,407,0,0,0,0,0,0,0,0,0,-1,1154,617,0,0
-63,407,0,0,0,0,0,0,0,0,0,-1,1161,617,0,0
-56,407,0,0,0,0,0,0,0,0,0,-1,1168,617,0,0
-49,407,0,0,0,0,0,0,0,0,0,-1,1175,617,0,0
-42,407,0,0,0,0,0,0,0,0,0,-1,1182,617,0,0
-35,407,0,0,0,0,0,0,0,0,0,-1,1189,617,0,0
-28,407,0,0,0,0,0,0,0,0,0,-1,1196,617,0,0
-21,407,0,0,0,0,0,0,0,0,0,-1,1203,617,0,0
-14,407,0,0,0,0,0,0,0,0,0,-1,1210,617,0,0
-7,407,0,0,0,0,0,0,0,0,0,-1,1217,617,0,0
0,407,0,0,0,0,0,0,0,0,0,-1,1224,617,0,0
7,407,0,0,0,0,0,0,0,0,0,-1,1231,617,0,0
14,407,0,0,0,0,0,0,0,0,0,-1,1238,617,0,0
21,407,0,0,0,0,0,0,0,0,0,-1,1245,617,0,0
28,407,0,0,0,0,0,0,0,0,0,-1,1252,617,0,0
35,407,0,0,0,0,0,0,0,0,0,-1,1259,617,0,0
42,407,0,0,0,0,0,0,0,0,0,-1,1266,617,0,0
49,407,0,0,0,0,0,0,0,0,0,-1,1273,617,0,0
56,407,0,0,0,0,0,0,0,0,0,-1,1280,617,0,0
63,407,0,0,0,0,0,0,0,0,0,-1,1287,617,0,0
70,407,0,0,0,0,0,0,0,0,0,-1,1294,617,0,0
77,407,0,0,0,0,0,0,0,0,0,-1,1301,617,0,0
84,407,0,0,0,0,0,0,0,0,0,-1,1308,617,0,0
91,407,0,0,0,0,0,0,0,0,0,-1,1315,617,0,0
98,407,0,0,0,0,0,0,0,0,0,-1,1322,617,0,0
105,407,0,0,0,0,0,0,0,0,0,-1,1329,617,0,0
112,407,0,0,0,0,0,0,0,0,0,-1,1336,617,0,0
119,407,0,0,0,0,0,0,0,0,0,-1,1343,617,0,0
126,407,0,0,0,0,0,0,0,0,0,-1,1350,617,0,0
133,407,0,0,0,0,0,0,0,0,0,-1,1357,617,0,0
140,407,0,0,0,0,0,0,0,0,0,-1,1364,617,0,0
147,407,0,0,0,0,0,0,0,0,0,-1,1371,617,0,0
154,407,0,0,0,0,0,0,0,0,0,-1,1378,617,0,0
161,407,0,0,0,0,0,0,0,0,0,-1,1385,617,0,0
168,407,0,0,0,0,0,0,0,0,0,-1,1392,617,0,0
175,407,0,0,0,0,0,0,0,0,0,-1,1399,617,0,0
182,407,0,0,0,0,0,0,0,0,0,-1,1406,617,0,0
189,407,0,0,0,0,0,0,0,0,0,-1,1413,617,0,0
196,407,0,0,0,0,0,0,0,0,0,-1,1420,617,0,0
203,407,0,0,0,0,0,0,0,0,0,-1,1427,617,0,0
210,407,0,0,0,0,0,0,0,0,0,-1,1434,617,0,0
217,407,0,0,0,0,0,0,0,0,0,-1,1441,617,0,0
224,407,0,0,0,0,0,0,0,0,0,-1,1448,617,0,0
231,407,0,0,0,0,0,0,0,0,0,-1,1455,617,0,0
238,407,0,0,0,0,0,0,0,0,0,-1,1462,617,0,0
245,407,0,0,0,0,0,0,0,0,0,-1,1469,617,0,0
252,407,0,0,0,0,0,0,0,0,0,-1,1476,617,0,0
259,407,0,0,0,0,0,0,0,0,0,-1,1483,617,0,0
266,407,0,0,0,0,0,0,0,0,0,-1,1490,617,0,0
273,407,0,0,0,0,0,0,0,0,0,-1,1497,617,0,0
280,407,0,0,0,0,0,0,0,0,0,-1,1504,617,0,0
287,407,0,0,0,0,0,0,0,0,0,-1,1511,617,0,0
294,407,0,0,0,0,0,0,0,0,0,-1,1518,617,0,0
301,407,0,0,0,0,0,0,0,0,0,-1,1525,617,0,0
308,407,0,0,0,0,0,0,0,0,0,-1,1532,617,0,0
315,407,0,0,0,0,0,0,0,0,0,-1,1539,617,0,0
322,407,0,0,0,0,0,0,0,0,0,-1,1546,617,0,0
329,407,0,0,0,0,0,0,0,0,0,-1,1553,617,0,0
336,407,0,0,0,0,0,0,0,0,0,-1,1560,617,0,0
343,407,0,0,0,0,0,0,0,0,0,-1,1567,617,0,0
350,407,0,0,0,0,0,0,0,0,0,-1,1574,617,0,0
357,407,0,0,0,0,0,0,0,0,0,-1,1581,617,0,0
364,407,0,0,0,0,0,0,0,0,0,-1,1588,617,0,0
371,407,0,0,0,0,0,0,0,0,0,-1,1595,617,0,0
378,407,0,0,0,0,0,0,0,0,0,-1,1602,617,0,0
385,407,0,0,0,0,0,0,0,0,0,-1,1609,617,0,0
392,407,0,0,0,0,0,0,0,0,0,-1,1616,617,0,0
399,407,0,0,0,0,0,0,0,0,0,-1,1623,617,0,0
406,407,0,0,0,0,0,0,0,0,0,-1,1630,617,0,0
413,407,0,0,0,0,0,0,0,0,0,-1,1637,617,0,0
420,407,0,0,0,0,0,0,0,0,0,-1,1644,617,0,0
427,407,0,0,0,0,0,0,0,0,0,-1,1651,617,0,0
434,407,0,0,0,0,0,0,0,0,0,-1,1658,617,0,0
441,407,0,0,0,0,0,0,0,0,0,-1,1665,617,0,0
448,407,7.02893,2.13843,0,0,0,0,0,0,0,-1,1672,617,7.02899,-2.13844
455,407,7.55237,2.29242,0,0,0,0,0,0,0,-1,1679,617,7.55236,-2.29244
462,407,8.2926,2.46173,0,0,0,0,0,0,0,-1,1686,617,8.29261,-2.46174
469,407,8.71509,2.22681,0,0,0,0,0,0,0,-1,1693,617,8.71511,-2.22681
476,407,8.89917,1.47766,0,0,0,0,0,0,0,-1,1700,617,8.89914,-1.47768
483,407,9.02612,0.682983,0,0,0,0,0,0,0,-1,1707,617,9.02608,-0.683004
490,407,9.12659,0.000671387,0,0,0,0,0,0,0,-1,1714,617,9.12653,-0.000675931
497,407,7.76819,0.855835,0,0,0,0,0,0,0,-1,1721,617,7.7682,-0.855865
504,407,4.69336,0.160706,0,0,0,0,0,0,0,-1,1728,617,4.69337,-0.1607
511,407,4.07104,-0.00140381,0,0,0,0,0,0,0,-1,1735,617,4.07109,0.00141425
518,407,6.09534,1.9411,0,0,0,0,0,0,0,-1,1742,617,6.09532,-1.94113
525,407,5.72534,-1.35986,0,0,0,0,0,0,0,-1,1749,617,5.72529,1.35988
532,407,18.5767,-10.6388,0,0,0,0,0,0,0,-1,1756,617,18.5766,10.6388
539,407,32.0178,-22.1183,0,0,0,0,0,0,0,-1,1763,617,32.0178,22.1183
546,407,32.1124,-21.0463,0.00411101,0.00140081,0.0020309,0.0051974,0.000314419,0.491199,0.00336502,0.0305177,1770,617,32.1124,21.0463
553,407,32.0437,-20.1302,0.00318185,0.00117183,0.00146904,0.00395677,0.000396924,0.485401,0.00251599,0.0183596,1777,617,32.0438,20.1302
560,407,32.0323,-19.1794,0.00239962,0.00106207,0.00111152,0.00302805,0.000433647,0.514572,0.0018908,0.0198287,1784,617,32.0323,19.1794
567,407,32.0078,-18.2396,0.00186241,0.00109331,0.000990536,0.00254042,0.000415297,0.600241,0.00157356,0.0345361,1791,617,32.0079,18.2395
574,407,31.9305,-17.3546,0.00163777,0.00140532,0.00111865,0.00264622,0.00039688,0.733635,0.00164786,0.0283308,1798,617,31.9305,17.3546
581,407,31.8119,-16.3751,0.0015976,0.00182546,0.00138563,0.00310184,0.000321219,0.826416,0.00196957,0.0187741,1805,617,31.8119,16.3751
588,407,31.73,-15.4442,0.00178699,0.00255585,0.00186899,0.00407954,0.000263308,0.886828,0.00263631,0.0142825,1812,617,31.73,15.4442
595,407,31.7402,-14.5267,0.00224959,0.00346081,0.00253743,0.0054639,0.000246503,0.902542,0.00356327,0.0284159,1819,617,31.7403,14.5266
602,407,31.6667,-13.499,0.00294173,0.00458826,0.00332096,0.00718648,0.000343508,0.906898,0.00468069,0.0235782,1826,617,31.6668,13.499
609,407,31.5453,-12.5113,0.00397626,0.00598466,0.00429538,0.00939166,0.000569256,0.900229,0.00608024,0.0221967,1833,617,31.5453,12.5113
616,407,31.5896,-11.3967,0.00531032,0.00776837,0.0054099,0.0120871,0.000991599,0.897093,0.00774871,0.0409273,1840,617,31.5896,11.3967
623,407,31.8788,-10.1292,0,0,0,0,0,0,0,-1,1847,617,31.8787,10.1292
630,407,7.06177,0.814575,0,0,0,0,0,0,0,-1,1854,617,7.06178,-0.814579
637,407,11.1063,0.391846,0,0,0,0,0,0,0,-1,1861,617,11.1063,-0.391862
644,407,5.09766,2.27747,0,0,0,0,0,0,0,-1,1868,617,5.09764,-2.27746
651,407,7.37524,0.0513916,0,0,0,0,0,0,0,-1,1875,617,7.3752,-0.0513923
658,407,3.76685,0.594177,0,0,0,0,0,0,0,-1,1882,617,3.76683,-0.594184
665,407,5.76123,0.375061,0,0,0,0,0,0,0,-1,1889,617,5.76118,-0.37509
672,407,0,0,0,0,0,0,0,0,0,-1,1896,617,0,0
679,407,0,0,0,0,0,0,0,0,0,-1,1903,617,0,0
686,407,0,0,0,0,0,0,0,0,0,-1,1910,617,0,0
693,407,0,0,0,0,0,0,0,0,0,-1,1917,617,0,0
700,407,0,0,0,0,0,0,0,0,0,-1,1924,617,0,0
707,407,0,0,0,0,0,0,0,0,0,-1,1931,617,0,0
714,407,0,0,0,0,0,0,0,0,0,-1,1938,617,0,0
721,407,0,0,0,0,0,0,0,0,0,-1,1945,617,0,0
728,407,0,0,0,0,0,0,0,0,0,-1,1952,617,0,0
735,407,0,0,0,0,0,0,0,0,0,-1,1959,617,0,0
742,407,0,0,0,0,0,0,0,0,0,-1,1966,617,0,0
749,407,0,0,0,0,0,0,0,0,0,-1,1973,617,0,0
756,407,0,0,0,0,0,0,0,0,0,-1,1980,617,0,0
763,407,0,0,0,0,0,0,0,0,0,-1,1987,617,0,0
770,407,0,0,0,0,0,0,0,0,0,-1,1994,617,0,0
777,407,0,0,0,0,0,0,0,0,0,-1,2001,617,0,0
784,407,0,0,0,0,0,0,0,0,0,-1,2008,617,0,0
791,407,0,0,0,0,0,0,0,0,0,-1,2015,617,0,0
798,407,0,0,0,0,0,0,0,0,0,-1,2022,617,0,0
805,407,0,0,0,0,0,0,0,0,0,-1,2029,617,0,0
812,407,0,0,0,0,0,0,0,0,0,-1,2036,617,0,0
-700,400,0,0,0,0,0,0,0,0,0,-1,524,624,0,0
-693,400,0,0,0,0,0,0,0,0,0,-1,531,624,0,0
-686,400,0,0,0,0,0,0,0,0,0,-1,538,624,0,0
-679,400,0,0,0,0,0,0,0,0,0,-1,545,624,0,0
-672,400,0,0,0,0,0,0,0,0,0,-1,552,624,0,0
-665,400,0,0,0,0,0,0,0,0,0,-1,559,624,0,0
-658,400,0,0,0,0,0,0,0,0,0,-1,566,624,0,0
-651,400,0,0,0,0,0,0,0,0,0,-1,573,624,0,0
-644,400,0,0,0,0,0,0,0,0,0,-1,580,624,0,0
-637,400,0,0,0,0,0,0,0,0,0,-1,587,624,0,0
-630,400,0,0,0,0,0,0,0,0,0,-1,594,624,0,0
-623,400,0,0,0,0,0,0,0,0,0,-1,601,624,0,0
-616,400,0,0,0,0,0,0,0,0,0,-1,608,624,0,0
-609,400,0,0,0,0,0,0,0,0,0,-1,615,624,0,0
-602,400,0,0,0,0,0,0,0,0,0,-1,622,624,0,0
-595,400,0,0,0,0,0,0,0,0,0,-1,629,624,0,0
-588,400,0,0,0,0,0,0,0,0,0,-1,636,624,0,0
-581,400,0,0,0,0,0,0,0,0,0,-1,643,624,0,0
-574,400,0,0,0,0,0,0,0,0,0,-1,650,624,0,0
-567,400,0,0,0,0,0,0,0,0,0,-1,657,624,0,0
-560,400,0,0,0,0,0,0,0,0,0,-1,664,624,0,0
-553,400,0,0,0,0,0,0,0,0,0,-1,671,624,0,0
-546,400,-8.41174,-1.4599,0,0,0,0,0,0,0,-1,678,624,-8.41173,1.45989
-539,400,-5.69104,-1.7337,0,0,0,0,0,0,0,-1,685,624,-5.69103,1.7337
-532,400,-3.03632,-2.03912,0,0,0,0,0,0,0,-1,692,624,-3.03632,2.03909
-525,400,-6.20813,-7.04071,0,0,0,0,0,0,0,-1,699,624,-6.20814,7.04071
-518,400,-5.26544,-1.58661,0,0,0,0,0,0,0,-1,706,624,-5.26544,1.58658
-511,400,-10.6307,-6.7121,0,0,0,0,0,0,0,-1,713,624,-10.6307,6.71209
-504,400,-10.2663,-6.55109,0,0,0,0,0,0,0,-1,720,624,-10.2663,6.55106
-497,400,-17.0034,-10.8596,0,0,0,0,0,0,0,-1,727,624,-17.0034,10.8595
-490,400,-16.7661,-11.9519,-0.0026305,0.00169678,0.00161541,0.00223331,-0.00316703,1.25013,0.00313338,0.044433,734,624,-16.7661,11.9519
-483,400,-16.8068,-13.0146,-0.00232582,0.00135329,0.00131172,0.00177306,-0.0027456,1.26108,0.00262892,0.0171952,741,624,-16.8068,13.0146
-476,400,-16.8699,-13.9671,-0.00187299,0.00108499,0.000976973,0.00137853,-0.00216654,1.27891,0.00206353,0.0147754,748,624,-16.8699,13.9671
-469,400,-16.9496,-14.9278,-0.00122552,0.000789059,0.000615228,0.000962082,-0.00139855,1.29664,0.00137065,0.0166602,755,624,-16.9496,14.9278
-462,400,-17.0183,-15.8958,-0.000462423,0.000496319,0.000238483,0.000552364,-0.000518468,1.33998,0.000618349,0.0205368,762,624,-17.0183,15.8957
-455,400,-17.0638,-16.8118,0.000350928,0.00037527,-0.000193669,0.00055715,0.000169048,-0.816778,0.000329854,0.0219693,769,624,-17.0638,16.8118
-448,400,-17.1016,-17.7502,0.00121998,0.000278514,-0.000625077,0.00153175,-3.32561e-05,-0.462664,0.00103243,0.0168765,776,624,-17.1016,17.7502
-441,400,-17.1699,-18.6699,0.0020808,0.00034795,-0.0010797,0.00259873,-0.00016998,-0.447276,0.00179184,0.0153611,783,624,-17.1699,18.6699
-434,400,-17.2559,-19.5828,0.00294765,0.000592594,-0.00158039,0.00374096,-0.00020072,-0.465224,0.0025635,0.0131143,790,624,-17.2559,19.5828
-427,400,-17.3191,-20.4933,0.00379206,0.00102148,-0.00216647,0.00497827,-0.000164731,-0.500947,0.0033751,0.0117315,797,624,-17.3191,20.4934
-420,400,-17.2877,-21.4929,0.0044251,0.00161812,-0.00264084,0.00601223,3.09914e-05,-0.541151,0.00399786,0.0253469,804,624,-17.2876,21.4928
-413,400,-17.235,-22.3655,0,0,0,0,0,0,0,-1,811,624,-17.235,22.3655
-406,400,-17.7161,-22.9142,0,0,0,0,0,0,0,-1,818,624,-17.7161,22.9142
-399,400,-11.0176,-13.2944,0,0,0,0,0,0,0,-1,825,624,-11.0176,13.2944
-392,400,-4.92285,-6.63354,0,0,0,0,0,0,0,-1,832,624,-4.92285,6.63354
-385,400,-3.68738,-5.04205,0,0,0,0,0,0,0,-1,839,624,-3.68736,5.04207
-378,400,-6.84064,-1.28662,0,0,0,0,0,0,0,-1,846,624,-6.84062,1.28662
-371,400,-6.98865,-1.2572,0,0,0,0,0,0,0,-1,853,624,-6.98865,1.25721
-364,400,-6.97247,-1.24133,0,0,0,0,0,0,0,-1,860,624,-6.97249,1.24135
-357,400,-7.18329,-1.23218,0,0,0,0,0,0,0,-1,867,624,-7.18327,1.2322
-350,400,-7.40186,-1.19409,0,0,0,0,0,0,0,-1,874,624,-7.40187,1.19407
-343,400,-8.09357,-1.51147,0,0,0,0,0,0,0,-1,881,624,-8.09355,1.51148
-336,400,0,0,0,0,0,0,0,0,0,-1,888,624,0,0
-329,400,0,0,0,0,0,0,0,0,0,-1,895,624,0,0
-322,400,0,0,0,0,0,0,0,0,0,-1,902,624,0,0
-315,400,0,0,0,0,0,0,0,0,0,-1,909,624,0,0
-308,400,0,0,0,0,0,0,0,0,0,-1,916,624,0,0
-301,400,0,0,0,0,0,0,0,0,0,-1,923,624,0,0
-294,400,0,0,0,0,0,0,0,0,0,-1,930,624,0,0
-287,400,0,0,0,0,0,0,0,0,0,-1,937,624,0,0
-280,400,0,0,0,0,0,0,0,0,0,-1,944,624,0,0
-273,400,0,0,0,0,0,0,0,0,0,-1,951,624,0,0
-266,400,0,0,0,0,0,0,0,0,0,-1,958,624,0,0
-259,400,0,0,0,0,0,0,0,0,0,-1,965,624,0,0
-252,400,0,0,0,0,0,0,0,0,0,-1,972,624,0,0
-245,400,0,0,0,0,0,0,0,0,0,-1,979,624,0,0
-238,400,0,0,0,0,0,0,0,0,0,-1,986,624,0,0
-231,400,0,0,0,0,0,0,0,0,0,-1,993,624,0,0
-224,400,0,0,0,0,0,0,0,0,0,-1,1000,624,0,0
-217,400,0,0,0,0,0,0,0,0,0,-1,1007,624,0,0
-210,400,0,0,0,0,0,0,0,0,0,-1,1014,624,0,0
-203,400,0,0,0,0,0,0,0,0,0,-1,1021,624,0,0
-196,400,0,0,0,0,0,0,0,0,0,-1,1028,624,0,0
-189,400,0,0,0,0,0,0,0,0,0,-1,1035,624,0,0
-182,400,0,0,0,0,0,0,0,0,0,-1,1042,624,0,0
-175,400,0,0,0,0,0,0,0,0,0,-1,1049,624,0,0
-168,400,0,0,0,0,0,0,0,0,0,-1,1056,624,0,0
-161,400,0,0,0,0,0,0,0,0,0,-1,1063,624,0,0
-154,400,0,0,0,0,0,0,0,0,0,-1,1070,624,0,0
-147,400,0,0,0,0,0,0,0,0,0,-1,1077,624,0,0
-140,400,0,0,0,0,0,0,0,0,0,-1,1084,624,0,0
-133,400,0,0,0,0,0,0,0,0,0,-1,1091,624,0,0
-126,400,0,0,0,0,0,0,0,0,0,-1,1098,624,0,0
-119,400,0,0,0,0,0,0,0,0,0,-1,1105,624,0,0
-112,400,0,0,0,0,0,0,0,0,0,-1,1112,624,0,0
-105,400,0,0,0,0,0,0,0,0,0,-1,1119,624,0,0
-98,400,0,0,0,0,0,0,0,0,0,-1,1126,624,0,0
-91,400,0,0,0,0,0,0,0,0,0,-1,1133,624,0,0
-84,400,0,0,0,0,0,0,0,0,0,-1,1140,624,0,0
-77,400,0,0,0,0,0,0,0,0,0,-1,1147,624,0,0
-70,400,0,0,0,0,0,0,0,0,0,-1,1154,624,0,0
-63,400,0,0,0,0,0,0,0,0,0,-1,1161,624,0,0
-56,400,0,0,0,0,0,0,0,0,0,-1,1168,624,0,0
-49,400,0,0,0,0,0,0,0,0,0,-1,1175,624,0,0
-42,400,0,0,0,0,0,0,0,0,0,-1,1182,624,0,0
-35,400,0,0,0,0,0,0,0,0,0,-1,1189,624,0,0
-28,400,0,0,0,0,0,0,0,0,0,-1,1196,624,0,0
-21,400,0,0,0,0,0,0,0,0,0,-1,1203,624,0,0
-14,400,0,0,0,0,0,0,0,0,0,-1,1210,624,0,0
-7,400,0,0,0,0,0,0,0,0,0,-1,1217,624,0,0
0,400,0,0,0,0,0,0,0,0,0,-1,1224,624,0,0
7,400,0,0,0,0,0,0,0,0,0,-1,1231,624,0,0
14,400,0,0,0,0,0,0,0,0,0,-1,1238,624,0,0
21,400,0,0,0,0,0,0,0,0,0,-1,1245,624,0,0
28,400,0,0,0,0,0,0,0,0,0,-1,1252,624,0,0
35,400,0,0,0,0,0,0,0,0,0,-1,1259,624,0,0
42,400,0,0,0,0,0,0,0,0,0,-1,1266,624,0,0
49,400,0,0,0,0,0,0,0,0,0,-1,1273,624,0,0
56,400,0,0,0,0,0,0,0,0,0,-1,1280,624,0,0
63,400,0,0,0,0,0,0,0,0,0,-1,1287,624,0,0
70,400,0,0,0,0,0,0,0,0,0,-1,1294,624,0,0
77,400,0,0,0,0,0,0,0,0,0,-1,1301,624,0,0
84,400,0,0,0,0,0,0,0,0,0,-1,1308,624,0,0
91,400,0,0,0,0,0,0,0,0,0,-1,1315,624,0,0
98,400,0,0,0,0,0,0,0,0,0,-1,1322,624,0,0
105,400,0,0,0,0,0,0,0,0,0,-1,1329,624,0,0
112,400,0,0,0,0,0,0,0,0,0,-1,1336,624,0,0
119,400,0,0,0,0,0,0,0,0,0,-1,1343,624,0,0
126,400,0,0,0,0,0,0,0,0,0,-1,1350,624,0,0
133,400,0,0,0,0,0,0,0,0,0,-1,1357,624,0,0
140,400,0,0,0,0,0,0,0,0,0,-1,1364,624,0,0
147,400,0,0,0,0,0,0,0,0,0,-1,1371,624,0,0
154,400,0,0,0,0,0,0,0,0,0,-1,1378,624,0,0
161,400,0,0,0,0,0,0,0,0,0,-1,1385,624,0,0
168,400,0,0,0,0,0,0,0,0,0,-1,1392,624,0,0
175,400,0,0,0,0,0,0,0,0,0,-1,1399,624,0,0
182,400,0,0,0,0,0,0,0,0,0,-1,1406,624,0,0
189,400,0,0,0,0,0,0,0,0,0,-1,1413,624,0,0
196,400,0,0,0,0,0,0,0,0,0,-1,1420,624,0,0
203,400,0,0,0,0,0,0,0,0,0,-1,1427,624,0,0
210,400,0,0,0,0,0,0,0,0,0,-1,1434,624,0,0
217,400,0,0,0,0,0,0,0,0,0,-1,1441,624,0,0
224,400,0,0,0,0,0,0,0,0,0,-1,1448,624,0,0
231,400,0,0,0,0,0,0,0,0,0,-1,1455,624,0,0
238,400,0,0,0,0,0,0,0,0,0,-1,1462,624,0,0
245,400,0,0,0,0,0,0,0,0,0,-1,1469,624,0,0
252,400,0,0,0,0,0,0,0,0,0,-1,1476,624,0,0
259,400,0,0,0,0,0,0,0,0,0,-1,1483,624,0,0
266,400,0,0,0,0,0,0,0,0,0,-1,1490,624,0,0
273,400,0,0,0,0,0,0,0,0,0,-1,1497,624,0,0
280,400,0,0,0,0,0,0,0,0,0,-1,1504,624,0,0
287,400,0,0,0,0,0,0,0,0,0,-1,1511,624,0,0
294,400,0,0,0,0,0,0,0,0,0,-1,1518,624,0,0
301,400,0,0,0,0,0,0,0,0,0,-1,1525,624,0,0
308,400,0,0,0,0,0,0,0,0,0,-1,1532,624,0,0
315,400,0,0,0,0,0,0,0,0,0,-1,1539,624,0,0
322,400,0,0,0,0,0,0,0,0,0,-1,1546,624,0,0
329,400,0,0,0,0,0,0,0,0,0,-1,1553,624,0,0
336,400,0,0,0,0,0,0,0,0,0,-1,1560,624,0,0
343,400,0,0,0,0,0,0,0,0,0,-1,1567,624,0,0
350,400,0,0,0,0,0,0,0,0,0,-1,1574,624,0,0
357,400,0,0,0,0,0,0,0,0,0,-1,1581,624,0,0
364,400,0,0,0,0,0,0,0,0,0,-1,1588,624,0,0
371,400,0,0,0,0,0,0,0,0,0,-1,1595,624,0,0
378,400,0,0,0,0,0,0,0,0,0,-1,1602,624,0,0
385,400,0,0,0,0,0,0,0,0,0,-1,1609,624,0,0
392,400,0,0,0,0,0,0,0,0,0,-1,1616,624,0,0
399,400,0,0,0,0,0,0,0,0,0,-1,1623,624,0,0
406,400,0,0,0,0,0,0,0,0,0,-1,1630,624,0,0
413,400,0,0,0,0,0,0,0,0,0,-1,1637,624,0,0
420,400,0,0,0,0,0,0,0,0,0,-1,1644,624,0,0
427,400,0,0,0,0,0,0,0,0,0,-1,1651,624,0,0
434,400,0,0,0,0,0,0,0,0,0,-1,1658,624,0,0
441,400,0,0,0,0,0,0,0,0,0,-1,1665,624,0,0
448,400,0,0,0,0,0,0,0,0,0,-1,1672,624,0,0
455,400,8.91309,2.75885,0,0,0,0,0,0,0,-1,1679,624,8.91312,-2.75885
462,400,8.90356,2.37878,0,0,0,0,0,0,0,-1,1686,624,8.90353,-2.37878
469,400,9.14429,1.76849,0,0,0,0,0,0,0,-1,1693,624,9.14432,-1.76847
476,400,9.23254,1.25995,0,0,0,0,0,0,0,-1,1700,624,9.23252,-1.25994
483,400,9.59766,0.562439,0,0,0,0,0,0,0,-1,1707,624,9.59771,-0.56242
490,400,9.92578,-0.213745,0,0,0,0,0,0,0,-1,1714,624,9.92579,0.21376
497,400,9.19141,0.175232,0,0,0,0,0,0,0,-1,1721,624,9.19138,-0.175209
504,400,9.23438,0.00823975,0,0,0,0,0,0,0,-1,1728,624,9.23436,-0.00823766
511,400,6.16687,3.3501,0,0,0,0,0,0,0,-1,1735,624,6.16682,-3.35007
518,400,6.55237,1.74994,0,0,0,0,0,0,0,-1,1742,624,6.55236,-1.74993
525,400,6.99731,1.08783,0,0,0,0,0,0,0,-1,1749,624,6.99736,-1.08785
532,400,6.96582,-1.74982,0,0,0,0,0,0,0,-1,1756,624,6.96585,1.74983
539,400,21.2305,-10.5841,0,0,0,0,0,0,0,-1,1763,624,21.2304,10.5841
546,400,33.0774,-21.0105,0,0,0,0,0,0,0,-1,1770,624,33.0774,21.0105
553,400,32.8965,-20.0977,0.00351566,0.0012645,0.00149699,0.00426302,0.000517134,0.463042,0.00268628,0.0463479,1777,624,32.8965,20.0976
560,400,32.955,-19.1088,0.00261985,0.00101433,0.00103594,0.00312767,0.000506517,0.455772,0.00193846,0.0184822,1784,624,32.9549,19.1088
567,400,32.9268,-18.1953,0.00193624,0.000858045,0.000785518,0.00234986,0.000444429,0.484663,0.00144145,0.0206832,1791,624,32.9267,18.1952
574,400,32.8478,-17.286,0.00160915,0.0010459,0.000847209,0.00222031,0.000434732,0.624936,0.00135868,0.0226733,1798,624,32.8478,17.286
581,400,32.703,-16.3105,0.0014701,0.00136505,0.00104988,0.00246877,0.000366384,0.760405,0.00153833,0.0229929,1805,624,32.703,16.3106
588,400,32.6058,-15.304,0.00155582,0.0019637,0.00145094,0.00322497,0.000294554,0.855221,0.00205883,0.0198321,1812,624,32.6058,15.304
595,400,32.6244,-14.3747,0.00192546,0.00272671,0.00203551,0.00440065,0.000251528,0.882566,0.00285362,0.0183705,1819,624,32.6244,14.3747
602,400,32.6072,-13.434,0.00251237,0.00366025,0.00271954,0.00586575,0.000306865,0.889393,0.00381233,0.0180563,1826,624,32.6071,13.434
609,400,32.4596,-12.4695,0.00332438,0.00478002,0.0035203,0.00764695,0.000457451,0.887336,0.00495253,0.0167519,1833,624,32.4596,12.4695
616,400,32.3925,-11.5261,0.00437619,0.00618448,0.00443786,0.00980936,0.000751308,0.88589,0.00630407,0.0197708,1840,624,32.3925,11.5261
623,400,32.3928,-10.5461,0,0,0,0,0,0,0,-1,1847,624,32.3928,10.5461
630,400,11.9432,0.09021,0,0,0,0,0,0,0,-1,1854,624,11.9432,-0.0902007
637,400,6.92896,1.01917,0,0,0,0,0,0,0,-1,1861,624,6.92899,-1.01918
644,400,8.65381,1.4599,0,0,0,0,0,0,0,-1,1868,624,8.65379,-1.45991
651,400,7.90601,0.424072,0,0,0,0,0,0,0,-1,1875,624,7.90598,-0.424097
658,400,8.69031,1.0484,0,0,0,0,0,0,0,-1,1882,624,8.6903,-1.0484
665,400,5.98438,0.522522,0,0,0,0,0,0,0,-1,1889,624,5.98442,-0.522552
672,400,0,0,0,0,0,0,0,0,0,-1,1896,624,0,0
679,400,0,0,0,0,0,0,0,0,0,-1,1903,624,0,0
686,400,0,0,0,0,0,0,0,0,0,-1,1910,624,0,0
693,400,0,0,0,0,0,0,0,0,0,-1,1917,624,0,0
700,400,0,0,0,0,0,0,0,0,0,-1,1924,624,0,0
707,400,0,0,0,0,0,0,0,0,0,-1,1931,624,0,0
714,400,0,0,0,0,0,0,0,0,0,-1,1938,624,0,0
721,400,0,0,0,0,0,0,0,0,0,-1,1945,624,0,0
728,400,0,0,0,0,0,0,0,0,0,-1,1952,624,0,0
735,400,0,0,0,0,0,0,0,0,0,-1,1959,624,0,0
742,400,0,0,0,0,0,0,0,0,0,-1,1966,624,0,0
749,400,0,0,0,0,0,0,0,0,0,-1,1973,624,0,0
756,400,0,0,0,0,0,0,0,0,0,-1,1980,624,0,0
763,400,0,0,0,0,0,0,0,0,0,-1,1987,624,0,0
770,400,0,0,0,0,0,0,0,0,0,-1,1994,624,0,0
777,400,0,0,0,0,0,0,0,0,0,-1,2001,624,0,0
784,400,0,0,0,0,0,0,0,0,0,-1,2008,624,0,0
791,400,0,0,0,0,0,0,0,0,0,-1,2015,624,0,0
798,400,0,0,0,0,0,0,0,0,0,-1,2022,624,0,0
805,400,0,0,0,0,0,0,0,0,0,-1,2029,624,0,0
812,400,0,0,0,0,0,0,0,0,0,-1,2036,624,0,0
-700,393,0,0,0,0,0,0,0,0,0,-1,524,631,0,0
-693,393,0,0,0,0,0,0,0,0,0,-1,531,631,0,0
-686,393,0,0,0,0,0,0,0,0,0,-1,538,631,0,0
-679,393,0,0,0,0,0,0,0,0,0,-1,545,631,0,0
-672,393,0,0,0,0,0,0,0,0,0,-1,552,631,0,0
-665,393,0,0,0,0,0,0,0,0,0,-1,559,631,0,0
-658,393,0,0,0,0,0,0,0,0,0,-1,566,631,0,0
-651,393,0,0,0,0,0,0,0,0,0,-1,573,631,0,0
-644,393,0,0,0,0,0,0,0,0,0,-1,580,631,0,0
-637,393,0,0,0,0,0,0,0,0,0,-1,587,631,0,0
-630,393,0,0,0,0,0,0,0,0,0,-1,594,631,0,0
-623,393,0,0,0,0,0,0,0,0,0,-1,601,631,0,0
-616,393,0,0,0,0,0,0,0,0,0,-1,608,631,0,0
-609,393,0,0,0,0,0,0,0,0,0,-1,615,631,0,0
-602,393,0,0,0,0,0,0,0,0,0,-1,622,631,0,0
-595,393,0,0,0,0,0,0,0,0,0,-1,629,631,0,0
-588,393,0,0,0,0,0,0,0,0,0,-1,636,631,0,0
-581,393,0,0,0,0,0,0,0,0,0,-1,643,631,0,0
-574,393,0,0,0,0,0,0,0,0,0,-1,650,631,0,0
-567,393,0,0,0,0,0,0,0,0,0,-1,657,631,0,0
-560,393,0,0,0,0,0,0,0,0,0,-1,664,631,0,0
-553,393,-2.35107,3.92633,0,0,0,0,0,0,0,-1,671,631,-2.35108,-3.92634
-546,393,-1.78778,2.4856,0,0,0,0,0,0,0,-1,678,631,-1.78778,-2.48557
-539,393,-5.2113,-2.20245,0,0,0,0,0,0,0,-1,685,631,-5.21128,2.20247
-532,393,-2.83643,-2.01624,0,0,0,0,0,0,0,-1,692,631,-2.83642,2.01626
-525,393,-5.9505,-0.952698,0,0,0,0,0,0,0,-1,699,631,-5.95053,0.95268
-518,393,-5.80219,-1.57739,0,0,0,0,0,0,0,-1,706,631,-5.80219,1.57738
-511,393,-6.15527,-2.09906,0,0,0,0,0,0,0,-1,713,631,-6.15526,2.09903
-504,393,-13.6063,-6.95947,0,0,0,0,0,0,0,-1,720,631,-13.6063,6.95946
-497,393,-17.7648,-10.9567,0,0,0,0,0,0,0,-1,727,631,-17.7648,10.9567
-490,393,-17.7242,-11.9649,-0.00143891,0.000930669,0.000967931,0.00127579,-0.00178403,1.2283,0.00177469,0.0273009,734,631,-17.7242,11.9649
-483,393,-17.757,-12.9446,-0.0012441,0.000752187,0.000761293,0.00100938,-0.00150129,1.245,0.00145878,0.0201468,741,631,-17.757,12.9447
-476,393,-17.8166,-13.8815,-0.000890765,0.00059469,0.000506331,0.000750859,-0.00104693,1.27162,0.00104264,0.0168132,748,631,-17.8166,13.8815
-469,393,-17.8684,-14.8478,-0.000349881,0.000404675,0.000209329,0.000458857,-0.000404062,1.31752,0.000498541,0.0130018,755,631,-17.8684,14.8477
-462,393,-17.9371,-15.8301,0.000302393,0.000195806,-0.000118888,0.000379386,0.000118813,-0.574693,0.000224078,0.0154012,762,631,-17.9371,15.8302
-455,393,-18.0156,-16.7711,0.00104024,0.000165584,-0.000531039,0.00129085,-8.50258e-05,-0.440935,0.000890263,0.0154362,769,631,-18.0156,16.771
-448,393,-18.0917,-17.7187,0.00186274,0.000127122,-0.000946324,0.00227891,-0.000289056,-0.414326,0.00162422,0.0150156,776,631,-18.0917,17.7187
-441,393,-18.1497,-18.6309,0.00271271,0.000251689,-0.00140882,0.00335274,-0.000388343,-0.426427,0.00237522,0.013788,783,631,-18.1496,18.6309
-434,393,-18.1966,-19.514,0.00365014,0.00059962,-0.00197049,0.00461671,-0.000366959,-0.45604,0.00320713,0.0132425,790,631,-18.1966,19.514
-427,393,-18.1876,-20.4669,0.00458567,0.00108069,-0.00262588,0.00599015,-0.00032379,-0.491145,0.00410562,0.0266776,797,631,-18.1876,20.4669
-420,393,-18.0703,-21.5508,0,0,0,0,0,0,0,-1,804,631,-18.0703,21.5508
-413,393,-15.0913,-18.3777,0,0,0,0,0,0,0,-1,811,631,-15.0913,18.3777
-406,393,-11.826,-12.7987,0,0,0,0,0,0,0,-1,818,631,-11.8261,12.7987
-399,393,-5.07343,-5.92365,0,0,0,0,0,0,0,-1,825,631,-5.07344,5.92364
-392,393,-2.08063,-3.02386,0,0,0,0,0,0,0,-1,832,631,-2.08063,3.02384
-385,393,-3.16931,-0.624756,0,0,0,0,0,0,0,-1,839,631,-3.16928,0.624764
-378,393,-7.33081,-0.872314,0,0,0,0,0,0,0,-1,846,631,-7.33081,0.872325
-371,393,-7.47858,-0.811096,0,0,0,0,0,0,0,-1,853,631,-7.47859,0.811075
-364,393,-7.64917,-0.662415,0,0,0,0,0,0,0,-1,860,631,-7.64917,0.662406
-357,393,-8.09686,-0.726013,0,0,0,0,0,0,0,-1,867,631,-8.09689,0.726029
-350,393,-8.38788,-0.511841,0,0,0,0,0,0,0,-1,874,631,-8.38785,0.511811
-343,393,0,0,0,0,0,0,0,0,0,-1,881,631,0,0
-336,393,0,0,0,0,0,0,0,0,0,-1,888,631,0,0
-329,393,0,0,0,0,0,0,0,0,0,-1,895,631,0,0
-322,393,0,0,0,0,0,0,0,0,0,-1,902,631,0,0
-315,393,0,0,0,0,0,0,0,0,0,-1,909,631,0,0
-308,393,0,0,0,0,0,0,0,0,0,-1,916,631,0,0
-301,393,0,0,0,0,0,0,0,0,0,-1,923,631,0,0
-294,393,0,0,0,0,0,0,0,0,0,-1,930,631,0,0
-287,393,0,0,0,0,0,0,0,0,0,-1,937,631,0,0
-280,393,0,0,0,0,0,0,0,0,0,-1,944,631,0,0
-273,393,0,0,0,0,0,0,0,0,0,-1,951,631,0,0
-266,393,0,0,0,0,0,0,0,0,0,-1,958,631,0,0
-259,393,0,0,0,0,0,0,0,0,0,-1,965,631,0,0
-252,393,0,0,0,0,0,0,0,0,0,-1,972,631,0,0
-245,393,0,0,0,0,0,0,0,0,0,-1,979,631,0,0
-238,393,0,0,0,0,0,0,0,0,0,-1,986,631,0,0
-231,393,0,0,0,0,0,0,0,0,0,-1,993,631,0,0
-224,393,0,0,0,0,0,0,0,0,0,-1,1000,631,0,0
-217,393,0,0,0,0,0,0,0,0,0,-1,1007,631,0,0
-210,393,0,0,0,0,0,0,0,0,0,-1,1014,631,0,0
-203,393,0,0,0,0,0,0,0,0,0,-1,1021,631,0,0
-196,393,0,0,0,0,0,0,0,0,0,-1,1028,631,0,0
-189,393,0,0,0,0,0,0,0,0,0,-1,1035,631,0,0
-182,393,0,0,0,0,0,0,0,0,0,-1,1042,631,0,0
-175,393,0,0,0,0,0,0,0,0,0,-1,1049,631,0,0
-168,393,0,0,0,0,0,0,0,0,0,-1,1056,631,0,0
-161,393,0,0,0,0,0,0,0,0,0,-1,1063,631,0,0
-154,393,0,0,0,0,0,0,0,0,0,-1,1070,631,0,0
-147,393,0,0,0,0,0,0,0,0,0,-1,1077,631,0,0
-140,393,0,0,0,0,0,0,0,0,0,-1,1084,631,0,0
-133,393,0,0,0,0,0,0,0,0,0,-1,1091,631,0,0
-126,393,0,0,0,0,0,0,0,0,0,-1,1098,631,0,0
-119,393,0,0,0,0,0,0,0,0,0,-1,1105,631,0,0
-112,393,0,0,0,0,0,0,0,0,0,-1,1112,631,0,0
-105,393,0,0,0,0,0,0,0,0,0,-1,1119,631,0,0
-98,393,0,0,0,0,0,0,0,0,0,-1,1126,631,0,0
-91,393,0,0,0,0,0,0,0,0,0,-1,1133,631,0,0
-84,393,0,0,0,0,0,0,0,0,0,-1,1140,631,0,0
-77,393,0,0,0,0,0,0,0,0,0,-1,1147,631,0,0
-70,393,0,0,0,0,0,0,0,0,0,-1,1154,631,0,0
-63,393,0,0,0,0,0,0,0,0,0,-1,1161,631,0,0
-56,393,0,0,0,0,0,0,0,0,0,-1,1168,631,0,0
-49,393,0,0,0,0,0,0,0,0,0,-1,1175,631,0,0
-42,393,0,0,0,0,0,0,0,0,0,-1,1182,631,0,0
-35,393,0,0,0,0,0,0,0,0,0,-1,1189,631,0,0
-28,393,0,0,0,0,0,0,0,0,0,-1,1196,631,0,0
-21,393,0,0,0,0,0,0,0,0,0,-1,1203,631,0,0
-14,393,0,0,0,0,0,0,0,0,0,-1,1210,631,0,0
-7,393,0,0,0,0,0,0,0,0,0,-1,1217,631,0,0
0,393,0,0,0,0,0,0,0,0,0,-1,1224,631,0,0
7,393,0,0,0,0,0,0,0,0,0,-1,1231,631,0,0
14,393,0,0,0,0,0,0,0,0,0,-1,1238,631,0,0
21,393,0,0,0,0,0,0,0,0,0,-1,1245,631,0,0
28,393,0,0,0,0,0,0,0,0,0,-1,1252,631,0,0
35,393,0,0,0,0,0,0,0,0,0,-1,1259,631,0,0
42,393,0,0,0,0,0,0,0,0,0,-1,1266,631,0,0
49,393,0,0,0,0,0,0,0,0,0,-1,1273,631,0,0
56,393,0,0,0,0,0,0,0,0,0,-1,1280,631,0,0
63,393,0,0,0,0,0,0,0,0,0,-1,1287,631,0,0
70,393,0,0,0,0,0,0,0,0,0,-1,1294,631,0,0
77,393,0,0,0,0,0,0,0,0,0,-1,1301,631,0,0
84,393,0,0,0,0,0,0,0,0,0,-1,1308,631,0,0
91,393,0,0,0,0,0,0,0,0,0,-1,1315,631,0,0
98,393,0,0,0,0,0,0,0,0,0,-1,1322,631,0,0
105,393,0,0,0,0,0,0,0,0,0,-1,1329,631,0,0
112,393,0,0,0,0,0,0,0,0,0,-1,1336,631,0,0
119,393,0,0,0,0,0,0,0,0,0,-1,1343,631,0,0
126,393,0,0,0,0,0,0,0,0,0,-1,1350,631,0,0
133,393,0,0,0,0,0,0,0,0,0,-1,1357,631,0,0
140,393,0,0,0,0,0,0,0,0,0,-1,1364,631,0,0
147,393,0,0,0,0,0,0,0,0,0,-1,1371,631,0,0
154,393,0,0,0,0,0,0,0,0,0,-1,1378,631,0,0
161,393,0,0,0,0,0,0,0,0,0,-1,1385,631,0,0
168,393,0,0,0,0,0,0,0,0,0,-1,1392,631,0,0
175,393,0,0,0,0,0,0,0,0,0,-1,1399,631,0,0
182,393,0,0,0,0,0,0,0,0,0,-1,1406,631,0,0
189,393,0,0,0,0,0,0,0,0,0,-1,1413,631,0,0
196,393,0,0,0,0,0,0,0,0,0,-1,1420,631,0,0
203,393,0,0,0,0,0,0,0,0,0,-1,1427,631,0,0
210,393,0,0,0,0,0,0,0,0,0,-1,1434,631,0,0
217,393,0,0,0,0,0,0,0,0,0,-1,1441,631,0,0
224,393,0,0,0,0,0,0,0,0,0,-1,1448,631,0,0
231,393,0,0,0,0,0,0,0,0,0,-1,1455,631,0,0
238,393,0,0,0,0,0,0,0,0,0,-1,1462,631,0,0
245,393,0,0,0,0,0,0,0,0,0,-1,1469,631,0,0
252,393,0,0,0,0,0,0,0,0,0,-1,1476,631,0,0
259,393,0,0,0,0,0,0,0,0,0,-1,1483,631,0,0
266,393,0,0,0,0,0,0,0,0,0,-1,1490,631,0,0
273,393,0,0,0,0,0,0,0,0,0,-1,1497,631,0,0
280,393,0,0,0,0,0,0,0,0,0,-1,1504,631,0,0
287,393,0,0,0,0,0,0,0,0,0,-1,1511,631,0,0
294,393,0,0,0,0,0,0,0,0,0,-1,1518,631,0,0
301,393,0,0,0,0,0,0,0,0,0,-1,1525,631,0,0
308,393,0,0,0,0,0,0,0,0,0,-1,1532,631,0,0
315,393,0,0,0,0,0,0,0,0,0,-1,1539,631,0,0
322,393,0,0,0,0,0,0,0,0,0,-1,1546,631,0,0
329,393,0,0,0,0,0,0,0,0,0,-1,1553,631,0,0
336,393,0,0,0,0,0,0,0,0,0,-1,1560,631,0,0
343,393,0,0,0,0,0,0,0,0,0,-1,1567,631,0,0
350,393,0,0,0,0,0,0,0,0,0,-1,1574,631,0,0
357,393,0,0,0,0,0,0,0,0,0,-1,1581,631,0,0
364,393,0,0,0,0,0,0,0,0,0,-1,1588,631,0,0
371,393,0,0,0,0,0,0,0,0,0,-1,1595,631,0,0
378,393,0,0,0,0,0,0,0,0,0,-1,1602,631,0,0
385,393,0,0,0,0,0,0,0,0,0,-1,1609,631,0,0
392,393,0,0,0,0,0,0,0,0,0,-1,1616,631,0,0
399,393,0,0,0,0,0,0,0,0,0,-1,1623,631,0,0
406,393,0,0,0,0,0,0,0,0,0,-1,1630,631,0,0
413,393,0,0,0,0,0,0,0,0,0,-1,1637,631,0,0
420,393,0,0,0,0,0,0,0,0,0,-1,1644,631,0,0
427,393,0,0,0,0,0,0,0,0,0,-1,1651,631,0,0
434,393,0,0,0,0,0,0,0,0,0,-1,1658,631,0,0
441,393,0,0,0,0,0,0,0,0,0,-1,1665,631,0,0
448,393,0,0,0,0,0,0,0,0,0,-1,1672,631,0,0
455,393,0,0,0,0,0,0,0,0,0,-1,1679,631,0,0
462,393,8.51099,1.89502,0,0,0,0,0,0,0,-1,1686,631,8.51103,-1.89504
469,393,9.39465,1.51703,0,0,0,0,0,0,0,-1,1693,631,9.39465,-1.51703
476,393,9.95569,1.185,0,0,0,0,0,0,0,-1,1700,631,9.95575,-1.18497
483,393,10.5267,0.887329,0,0,0,0,0,0,0,-1,1707,631,10.5267,-0.887321
490,393,10.9303,0.761414,0,0,0,0,0,0,0,-1,1714,631,10.9303,-0.761386
497,393,8.32153,1.88104,0,0,0,0,0,0,0,-1,1721,631,8.32148,-1.88103
504,393,9.46985,1.78711,0,0,0,0,0,0,0,-1,1728,631,9.46986,-1.78713
511,393,9.66565,-0.375977,0,0,0,0,0,0,0,-1,1735,631,9.66571,0.375949
518,393,7.01599,1.62482,0,0,0,0,0,0,0,-1,1742,631,7.01597,-1.62483
525,393,7.88245,-1.13422,0,0,0,0,0,0,0,-1,1749,631,7.88246,1.13423
532,393,7.06335,-1.18103,0,0,0,0,0,0,0,-1,1756,631,7.06332,1.18101
539,393,9.91626,-2.46301,0,0,0,0,0,0,0,-1,1763,631,9.91625,2.46302
546,393,16.4094,-8.04651,0,0,0,0,0,0,0,-1,1770,631,16.4094,8.04649
553,393,33.5524,-20.2979,0,0,0,0,0,0,0,-1,1777,631,33.5524,20.2979
560,393,33.8484,-19.1312,0.00280167,0.00101066,0.000913045,0.00318507,0.000627269,0.397548,0.00194824,0.0437357,1784,631,33.8484,19.1312
567,393,33.7963,-18.1452,0.00191749,0.000646771,0.000521397,0.00210404,0.00046022,0.343598,0.00127723,0.0186865,1791,631,33.7962,18.1452
574,393,33.7617,-17.199,0.00146635,0.000703441,0.00052469,0.0017336,0.0004362,0.471085,0.00104125,0.0178952,1798,631,33.7617,17.199
581,393,33.641,-16.2178,0.00123057,0.000951462,0.000682223,0.00178736,0.000394664,0.684513,0.00108423,0.0183754,1805,631,33.641,16.2178
588,393,33.5696,-15.2202,0.00125101,0.00143808,0.00101728,0.00236612,0.000322973,0.831242,0.00148154,0.0217079,1812,631,33.5696,15.2201
595,393,33.5745,-14.3062,0.00158144,0.00209027,0.00152759,0.00338449,0.000287221,0.867914,0.00216694,0.0188762,1819,631,33.5745,14.3062
602,393,33.5219,-13.3904,0.00212678,0.00288527,0.00212684,0.00466642,0.000345632,0.873628,0.00300237,0.0204628,1826,631,33.5219,13.3904
609,393,33.4203,-12.4509,0.00280864,0.00382957,0.00278636,0.00615184,0.000486371,0.875994,0.0039491,0.0178805,1833,631,33.4203,12.4509
616,393,33.3492,-11.4874,0.00362904,0.00499874,0.0034936,0.00787398,0.000753792,0.882186,0.00501697,0.0157615,1840,631,33.3492,11.4874
623,393,33.3279,-10.4119,0.00453289,0.00623927,0.00424925,0.00972014,0.00105202,0.884474,0.00615944,0.0360132,1847,631,33.3279,10.4119
630,393,33.3667,-9.23187,0,0,0,0,0,0,0,-1,1854,631,33.3667,9.23189
637,393,11.4626,0.608887,0,0,0,0,0,0,0,-1,1861,631,11.4627,-0.608904
644,393,8.97583,1.30585,0,0,0,0,0,0,0,-1,1868,631,8.97586,-1.30584
651,393,11.348,0.53302,0,0,0,0,0,0,0,-1,1875,631,11.348,-0.53305
658,393,9.21338,1.50836,0,0,0,0,0,0,0,-1,1882,631,9.21338,-1.50834
665,393,6.1001,2.32129,0,0,0,0,0,0,0,-1,1889,631,6.10012,-2.3213
672,393,7.14575,2.43225,0,0,0,0,0,0,0,-1,1896,631,7.14572,-2.43222
679,393,0,0,0,0,0,0,0,0,0,-1,1903,631,0,0
686,393,0,0,0,0,0,0,0,0,0,-1,1910,631,0,0
693,393,0,0,0,0,0,0,0,0,0,-1,1917,631,0,0
700,393,0,0,0,0,0,0,0,0,0,-1,1924,631,0,0
707,393,0,0,0,0,0,0,0,0,0,-1,1931,631,0,0
714,393,0,0,0,0,0,0,0,0,0,-1,1938,631,0,0
721,393,0,0,0,0,0,0,0,0,0,-1,1945,631,0,0
728,393,0,0,0,0,0,0,0,0,0,-1,1952,631,0,0
735,393,0,0,0,0,0,0,0,0,0,-1,1959,631,0,0
742,393,0,0,0,0,0,0,0,0,0,-1,1966,631,0,0
749,393,0,0,0,0,0,0,0,0,0,-1,1973,631,0,0
756,393,0,0,0,0,0,0,0,0,0,-1,1980,631,0,0
763,393,0,0,0,0,0,0,0,0,0,-1,1987,631,0,0
770,393,0,0,0,0,0,0,0,0,0,-1,1994,631,0,0
777,393,0,0,0,0,0,0,0,0,0,-1,2001,631,0,0
784,393,0,0,0,0,0,0,0,0,0,-1,2008,631,0,0
791,393,0,0,0,0,0,0,0,0,0,-1,2015,631,0,0
798,393,0,0,0,0,0,0,0,0,0,-1,2022,631,0,0
805,393,0,0,0,0,0,0,0,0,0,-1,2029,631,0,0
812,393,0,0,0,0,0,0,0,0,0,-1,2036,631,0,0
-700,386,0,0,0,0,0,0,0,0,0,-1,524,638,0,0
-693,386,0,0,0,0,0,0,0,0,0,-1,531,638,0,0
-686,386,0,0,0,0,0,0,0,0,0,-1,538,638,0,0
-679,386,0,0,0,0,0,0,0,0,0,-1,545,638,0,0
-672,386,0,0,0,0,0,0,0,0,0,-1,552,638,0,0
-665,386,0,0,0,0,0,0,0,0,0,-1,559,638,0,0
-658,386,0,0,0,0,0,0,0,0,0,-1,566,638,0,0
-651,386,0,0,0,0,0,0,0,0,0,-1,573,638,0,0
-644,386,0,0,0,0,0,0,0,0,0,-1,580,638,0,0
-637,386,0,0,0,0,0,0,0,0,0,-1,587,638,0,0
-630,386,0,0,0,0,0,0,0,0,0,-1,594,638,0,0
-623,386,0,0,0,0,0,0,0,0,0,-1,601,638,0,0
-616,386,0,0,0,0,0,0,0,0,0,-1,608,638,0,0
-609,386,0,0,0,0,0,0,0,0,0,-1,615,638,0,0
-602,386,0,0,0,0,0,0,0,0,0,-1,622,638,0,0
-595,386,0,0,0,0,0,0,0,0,0,-1,629,638,0,0
-588,386,0,0,0,0,0,0,0,0,0,-1,636,638,0,0
-581,386,0,0,0,0,0,0,0,0,0,-1,643,638,0,0
-574,386,0,0,0,0,0,0,0,0,0,-1,650,638,0,0
-567,386,0,0,0,0,0,0,0,0,0,-1,657,638,0,0
-560,386,-3.97229,-5.13898,0,0,0,0,0,0,0,-1,664,638,-3.97232,5.13897
-553,386,-4.94244,-5.54309,0,0,0,0,0,0,0,-1,671,638,-4.94242,5.5431
-546,386,-1.78668,1.72827,0,0,0,0,0,0,0,-1,678,638,-1.78668,-1.72829
-539,386,-0.879456,-2.90009,0,0,0,0,0,0,0,-1,685,638,-0.879442,2.90008
-532,386,-5.4884,1.73328,0,0,0,0,0,0,0,-1,692,638,-5.4884,-1.73325
-525,386,-6.64148,-1.50604,0,0,0,0,0,0,0,-1,699,638,-6.64149,1.50603
-518,386,-11.1217,-4.10382,0,0,0,0,0,0,0,-1,706,638,-11.1217,4.1038
-511,386,-13.0612,-5.05151,0,0,0,0,0,0,0,-1,713,638,-13.0612,5.05149
-504,386,-18.6318,-9.85223,0,0,0,0,0,0,0,-1,720,638,-18.6319,9.85225
-497,386,-18.6267,-10.973,0,0,0,0,0,0,0,-1,727,638,-18.6267,10.973
-490,386,-18.6397,-11.9971,-0.000497667,0.000434049,0.000494882,0.000647847,-0.000711465,1.163,0.000785085,0.0143081,734,638,-18.6397,11.9971
-483,386,-18.694,-12.9235,-0.000385386,0.000343974,0.000366418,0.00049626,-0.000537672,1.17691,0.000597101,0.0175839,741,638,-18.694,12.9235
-476,386,-18.7664,-13.8517,-0.00010757,0.000245886,0.000170686,0.000314854,-0.000176538,1.18679,0.000287427,0.0163055,748,638,-18.7664,13.8517
-469,386,-18.8331,-14.7788,0.0003433,0.000115719,-7.87975e-05,0.000367919,9.10993e-05,-0.30283,0.000221256,0.011946,755,638,-18.8332,14.7788
-462,386,-18.885,-15.7551,0.000910566,-3.05833e-05,-0.000381824,0.00104599,-0.000166004,-0.340826,0.000758736,0.0116096,762,638,-18.885,15.7551
-455,386,-18.9436,-16.7029,0.00159958,-2.58649e-06,-0.000793233,0.00192586,-0.000328868,-0.390237,0.00140641,0.0135861,769,638,-18.9436,16.703
-448,386,-19.0172,-17.6415,0.00239867,5.50272e-06,-0.00122223,0.00291254,-0.000508367,-0.397999,0.00213146,0.0135608,776,638,-19.0172,17.6415
-441,386,-19.0858,-18.5773,0.00326674,0.000187733,-0.00173633,0.00404778,-0.000593307,-0.422706,0.00291647,0.0140566,783,638,-19.0858,18.5773
-434,386,-19.0934,-19.5393,0.00432513,0.000673098,-0.00241822,0.00552932,-0.00053109,-0.462018,0.00387539,0.0333216,790,638,-19.0934,19.5393
-427,386,-19.0443,-20.4936,0,0,0,0,0,0,0,-1,797,638,-19.0443,20.4936
-420,386,-14.5338,-16.0451,0,0,0,0,0,0,0,-1,804,638,-14.5338,16.0451
-413,386,-5.45691,-5.35785,0,0,0,0,0,0,0,-1,811,638,-5.45691,5.35783
-406,386,-4.51135,-4.10999,0,0,0,0,0,0,0,-1,818,638,-4.51135,4.10996
-399,386,-3.57117,-3.42126,0,0,0,0,0,0,0,-1,825,638,-3.57116,3.42129
-392,386,-4.00977,0.403625,0,0,0,0,0,0,0,-1,832,638,-4.0098,-0.403616
-385,386,-3.2406,-0.118469,0,0,0,0,0,0,0,-1,839,638,-3.24058,0.118485
-378,386,-2.55243,-1.22748,0,0,0,0,0,0,0,-1,846,638,-2.55243,1.22748
-371,386,-7.95807,-0.330261,0,0,0,0,0,0,0,-1,853,638,-7.95806,0.330284
-364,386,-8.90637,-0.665955,0,0,0,0,0,0,0,-1,860,638,-8.90635,0.665951
-357,386,-9.10364,-0.388733,0,0,0,0,0,0,0,-1,867,638,-9.10364,0.388744
-350,386,0,0,0,0,0,0,0,0,0,-1,874,638,0,0
-343,386,0,0,0,0,0,0,0,0,0,-1,881,638,0,0
-336,386,0,0,0,0,0,0,0,0,0,-1,888,638,0,0
-329,386,0,0,0,0,0,0,0,0,0,-1,895,638,0,0
-322,386,0,0,0,0,0,0,0,0,0,-1,902,638,0,0
-315,386,0,0,0,0,0,0,0,0,0,-1,909,638,0,0
-308,386,0,0,0,0,0,0,0,0,0,-1,916,638,0,0
-301,386,0,0,0,0,0,0,0,0,0,-1,923,638,0,0
-294,386,0,0,0,0,0,0,0,0,0,-1,930,638,0,0
-287,386,0,0,0,0,0,0,0,0,0,-1,937,638,0,0
-280,386,0,0,0,0,0,0,0,0,0,-1,944,638,0,0
-273,386,0,0,0,0,0,0,0,0,0,-1,951,638,0,0
-266,386,0,0,0,0,0,0,0,0,0,-1,958,638,0,0
-259,386,0,0,0,0,0,0,0,0,0,-1,965,638,0,0
-252,386,0,0,0,0,0,0,0,0,0,-1,972,638,0,0
-245,386,0,0,0,0,0,0,0,0,0,-1,979,638,0,0
-238,386,0,0,0,0,0,0,0,0,0,-1,986,638,0,0
-231,386,0,0,0,0,0,0,0,0,0,-1,993,638,0,0
-224,386,0,0,0,0,0,0,0,0,0,-1,1000,638,0,0
-217,386,0,0,0,0,0,0,0,0,0,-1,1007,638,0,0
-210,386,0,0,0,0,0,0,0,0,0,-1,1014,638,0,0
-203,386,0,0,0,0,0,0,0,0,0,-1,1021,638,0,0
-196,386,0,0,0,0,0,0,0,0,0,-1,1028,638,0,0
-189,386,0,0,0,0,0,0,0,0,0,-1,1035,638,0,0
-182,386,0,0,0,0,0,0,0,0,0,-1,1042,638,0,0
-175,386,0,0,0,0,0,0,0,0,0,-1,1049,638,0,0
-168,386,0,0,0,0,0,0,0,0,0,-1,1056,638,0,0
-161,386,0,0,0,0,0,0,0,0,0,-1,1063,638,0,0
-154,386,0,0,0,0,0,0,0,0,0,-1,1070,638,0,0
-147,386,0,0,0,0,0,0,0,0,0,-1,1077,638,0,0
-140,386,0,0,0,0,0,0,0,0,0,-1,1084,638,0,0
-133,386,0,0,0,0,0,0,0,0,0,-1,1091,638,0,0
-126,386,0,0,0,0,0,0,0,0,0,-1,1098,638,0,0
-119,386,0,0,0,0,0,0,0,0,0,-1,1105,638,0,0
-112,386,0,0,0,0,0,0,0,0,0,-1,1112,638,0,0
-105,386,0,0,0,0,0,0,0,0,0,-1,1119,638,0,0
-98,386,0,0,0,0,0,0,0,0,0,-1,1126,638,0,0
-91,386,0,0,0,0,0,0,0,0,0,-1,1133,638,0,0
-84,386,0,0,0,0,0,0,0,0,0,-1,1140,638,0,0
-77,386,0,0,0,0,0,0,0,0,0,-1,1147,638,0,0
-70,386,0,0,0,0,0,0,0,0,0,-1,1154,638,0,0
-63,386,0,0,0,0,0,0,0,0,0,-1,1161,638,0,0
-56,386,0,0,0,0,0,0,0,0,0,-1,1168,638,0,0
-49,386,0,0,0,0,0,0,0,0,0,-1,1175,638,0,0
-42,386,0,0,0,0,0,0,0,0,0,-1,1182,638,0,0
-35,386,0,0,0,0,0,0,0,0,0,-1,1189,638,0,0
-28,386,0,0,0,0,0,0,0,0,0,-1,1196,638,0,0
-21,386,0,0,0,0,0,0,0,0,0,-1,1203,638,0,0
-14,386,0,0,0,0,0,0,0,0,0,-1,1210,638,0,0
-7,386,0,0,0,0,0,0,0,0,0,-1,1217,638,0,0
0,386,0,0,0,0,0,0,0,0,0,-1,1224,638,0,0
7,386,0,0,0,0,0,0,0,0,0,-1,1231,638,0,0
14,386,0,0,0,0,0,0,0,0,0,-1,1238,638,0,0
21,386,0,0,0,0,0,0,0,0,0,-1,1245,638,0,0
28,386,0,0,0,0,0,0,0,0,0,-1,1252,638,0,0
35,386,0,0,0,0,0,0,0,0,0,-1,1259,638,0,0
42,386,0,0,0,0,0,0,0,0,0,-1,1266,638,0,0
49,386,0,0,0,0,0,0,0,0,0,-1,1273,638,0,0
56,386,0,0,0,0,0,0,0,0,0,-1,1280,638,0,0
63,386,0,0,0,0,0,0,0,0,0,-1,1287,638,0,0
70,386,0,0,0,0,0,0,0,0,0,-1,1294,638,0,0
77,386,0,0,0,0,0,0,0,0,0,-1,1301,638,0,0
84,386,0,0,0,0,0,0,0,0,0,-1,1308,638,0,0
91,386,0,0,0,0,0,0,0,0,0,-1,1315,638,0,0
98,386,0,0,0,0,0,0,0,0,0,-1,1322,638,0,0
105,386,0,0,0,0,0,0,0,0,0,-1,1329,638,0,0
112,386,0,0,0,0,0,0,0,0,0,-1,1336,638,0,0
119,386,0,0,0,0,0,0,0,0,0,-1,1343,638,0,0
126,386,0,0,0,0,0,0,0,0,0,-1,1350,638,0,0
133,386,0,0,0,0,0,0,0,0,0,-1,1357,638,0,0
140,386,0,0,0,0,0,0,0,0,0,-1,1364,638,0,0
147,386,0,0,0,0,0,0,0,0,0,-1,1371,638,0,0
154,386,0,0,0,0,0,0,0,0,0,-1,1378,638,0,0
161,386,0,0,0,0,0,0,0,0,0,-1,1385,638,0,0
168,386,0,0,0,0,0,0,0,0,0,-1,1392,638,0,0
175,386,0,0,0,0,0,0,0,0,0,-1,1399,638,0,0
182,386,0,0,0,0,0,0,0,0,0,-1,1406,638,0,0
189,386,0,0,0,0,0,0,0,0,0,-1,1413,638,0,0
196,386,0,0,0,0,0,0,0,0,0,-1,1420,638,0,0
203,386,0,0,0,0,0,0,0,0,0,-1,1427,638,0,0
210,386,0,0,0,0,0,0,0,0,0,-1,1434,638,0,0
217,386,0,0,0,0,0,0,0,0,0,-1,1441,638,0,0
224,386,0,0,0,0,0,0,0,0,0,-1,1448,638,0,0
231,386,0,0,0,0,0,0,0,0,0,-1,1455,638,0,0
238,386,0,0,0,0,0,0,0,0,0,-1,1462,638,0,0
245,386,0,0,0,0,0,0,0,0,0,-1,1469,638,0,0
252,386,0,0,0,0,0,0,0,0,0,-1,1476,638,0,0
259,386,0,0,0,0,0,0,0,0,0,-1,1483,638,0,0
266,386,0,0,0,0,0,0,0,0,0,-1,1490,638,0,0
273,386,0,0,0,0,0,0,0,0,0,-1,1497,638,0,0
280,386,0,0,0,0,0,0,0,0,0,-1,1504,638,0,0
287,386,0,0,0,0,0,0,0,0,0,-1,1511,638,0,0
294,386,0,0,0,0,0,0,0,0,0,-1,1518,638,0,0
301,386,0,0,0,0,0,0,0,0,0,-1,1525,638,0,0
308,386,0,0,0,0,0,0,0,0,0,-1,1532,638,0,0
315,386,0,0,0,0,0,0,0,0,0,-1,1539,638,0,0
322,386,0,0,0,0,0,0,0,0,0,-1,1546,638,0,0
329,386,0,0,0,0,0,0,0,0,0,-1,1553,638,0,0
336,386,0,0,0,0,0,0,0,0,0,-1,1560,638,0,0
343,386,0,0,0,0,0,0,0,0,0,-1,1567,638,0,0
350,386,0,0,0,0,0,0,0,0,0,-1,1574,638,0,0
357,386,0,0,0,0,0,0,0,0,0,-1,1581,638,0,0
364,386,0,0,0,0,0,0,0,0,0,-1,1588,638,0,0
371,386,0,0,0,0,0,0,0,0,0,-1,1595,638,0,0
378,386,0,0,0,0,0,0,0,0,0,-1,1602,638,0,0
385,386,0,0,0,0,0,0,0,0,0,-1,1609,638,0,0
392,386,0,0,0,0,0,0,0,0,0,-1,1616,638,0,0
399,386,0,0,0,0,0,0,0,0,0,-1,1623,638,0,0
406,386,0,0,0,0,0,0,0,0,0,-1,1630,638,0,0
413,386,0,0,0,0,0,0,0,0,0,-1,1637,638,0,0
420,386,0,0,0,0,0,0,0,0,0,-1,1644,638,0,0
427,386,0,0,0,0,0,0,0,0,0,-1,1651,638,0,0
434,386,0,0,0,0,0,0,0,0,0,-1,1658,638,0,0
441,386,0,0,0,0,0,0,0,0,0,-1,1665,638,0,0
448,386,0,0,0,0,0,0,0,0,0,-1,1672,638,0,0
455,386,0,0,0,0,0,0,0,0,0,-1,1679,638,0,0
462,386,0,0,0,0,0,0,0,0,0,-1,1686,638,0,0
469,386,9.84692,1.55804,0,0,0,0,0,0,0,-1,1693,638,9.84691,-1.55807
476,386,10.6145,0.986511,0,0,0,0,0,0,0,-1,1700,638,10.6145,-0.986529
483,386,11.4113,0.732971,0,0,0,0,0,0,0,-1,1707,638,11.4112,-0.732958
490,386,7.79785,1.79572,0,0,0,0,0,0,0,-1,1714,638,7.79788,-1.7957
497,386,8.96362,1.77081,0,0,0,0,0,0,0,-1,1721,638,8.96357,-1.77081
504,386,10.0555,1.69427,0,0,0,0,0,0,0,-1,1728,638,10.0555,-1.69426
511,386,11.2172,1.534,0,0,0,0,0,0,0,-1,1735,638,11.2172,-1.53398
518,386,7.41553,1.75238,0,0,0,0,0,0,0,-1,1742,638,7.41547,-1.75238
525,386,8.82422,-1.1449,0,0,0,0,0,0,0,-1,1749,638,8.82426,1.14492
532,386,10.6432,0.617371,0,0,0,0,0,0,0,-1,1756,638,10.6432,-0.617359
539,386,9.62061,-0.393616,0,0,0,0,0,0,0,-1,1763,638,9.62059,0.393634
546,386,10.7963,-2.854,0,0,0,0,0,0,0,-1,1770,638,10.7962,2.854
553,386,16.9939,-7.27942,0,0,0,0,0,0,0,-1,1777,638,16.9939,7.27944
560,386,34.6895,-19.2559,0,0,0,0,0,0,0,-1,1784,638,34.6894,19.2559
567,386,34.6678,-18.1152,0,0,0,0,0,0,0,-1,1791,638,34.6678,18.1152
574,386,34.6997,-17.1093,0.00136417,0.00046178,0.000284385,0.00144631,0.000379635,0.281198,0.000865865,0.0165,1798,638,34.6997,17.1092
581,386,34.608,-16.1925,0.00101545,0.00064092,0.000393966,0.0012644,0.000391979,0.563536,0.00074736,0.0162237,1805,638,34.608,16.1925
588,386,34.5664,-15.2415,0.000966175,0.0010022,0.000654638,0.00163907,0.0003293,0.799151,0.00100117,0.0152816,1812,638,34.5664,15.2415
595,386,34.4983,-14.2903,0.00124366,0.00154005,0.00107368,0.00247571,0.000307994,0.853977,0.00155799,0.0170647,1819,638,34.4983,14.2903
602,386,34.4291,-13.364,0.0017254,0.00220381,0.00156799,0.00355074,0.000378482,0.861092,0.00225162,0.018187,1826,638,34.4291,13.364
609,386,34.405,-12.4194,0.00228905,0.0029911,0.00207958,0.00474908,0.000531075,0.869009,0.00300471,0.0162723,1833,638,34.405,12.4194
616,386,34.3539,-11.4453,0.00295242,0.00394575,0.00259334,0.00608956,0.000808617,0.88001,0.00381881,0.0132685,1840,638,34.3538,11.4453
623,386,34.2623,-10.48,0.00369484,0.00498009,0.00314792,0.00755031,0.00112462,0.886086,0.0047037,0.0115867,1847,638,34.2623,10.4801
630,386,34.2914,-9.55841,0.00434292,0.00596714,0.00355735,0.0088039,0.00150616,0.897621,0.0054372,0.0371644,1854,638,34.2913,9.55842
637,386,34.3794,-8.61157,0,0,0,0,0,0,0,-1,1861,638,34.3794,8.6116
644,386,11.6521,0.723328,0,0,0,0,0,0,0,-1,1868,638,11.6521,-0.723355
651,386,9.3866,1.31097,0,0,0,0,0,0,0,-1,1875,638,9.3866,-1.31095
658,386,12.0731,-0.00415039,0,0,0,0,0,0,0,-1,1882,638,12.0731,0.00412803
665,386,6.33167,1.78601,0,0,0,0,0,0,0,-1,1889,638,6.33171,-1.78601
672,386,7.23352,2.14435,0,0,0,0,0,0,0,-1,1896,638,7.23353,-2.14433
679,386,8.07764,2.57104,0,0,0,0,0,0,0,-1,1903,638,8.07758,-2.57103
686,386,0,0,0,0,0,0,0,0,0,-1,1910,638,0,0
693,386,0,0,0,0,0,0,0,0,0,-1,1917,638,0,0
700,386,0,0,0,0,0,0,0,0,0,-1,1924,638,0,0
707,386,0,0,0,0,0,0,0,0,0,-1,1931,638,0,0
714,386,0,0,0,0,0,0,0,0,0,-1,1938,638,0,0
721,386,0,0,0,0,0,0,0,0,0,-1,1945,638,0,0
728,386,0,0,0,0,0,0,0,0,0,-1,1952,638,0,0
735,386,0,0,0,0,0,0,0,0,0,-1,1959,638,0,0
742,386,0,0,0,0,0,0,0,0,0,-1,1966,638,0,0
749,386,0,0,0,0,0,0,0,0,0,-1,1973,638,0,0
756,386,0,0,0,0,0,0,0,0,0,-1,1980,638,0,0
763,386,0,0,0,0,0,0,0,0,0,-1,1987,638,0,0
770,386,0,0,0,0,0,0,0,0,0,-1,1994,638,0,0
777,386,0,0,0,0,0,0,0,0,0,-1,2001,638,0,0
784,386,0,0,0,0,0,0,0,0,0,-1,2008,638,0,0
791,386,0,0,0,0,0,0,0,0,0,-1,2015,638,0,0
798,386,0,0,0,0,0,0,0,0,0,-1,2022,638,0,0
805,386,0,0,0,0,0,0,0,0,0,-1,2029,638,0,0
812,386,0,0,0,0,0,0,0,0,0,-1,2036,638,0,0
-700,379,0,0,0,0,0,0,0,0,0,-1,524,645,0,0
-693,379,0,0,0,0,0,0,0,0,0,-1,531,645,0,0
-686,379,0,0,0,0,0,0,0,0,0,-1,538,645,0,0
-679,379,0,0,0,0,0,0,0,0,0,-1,545,645,0,0
-672,379,0,0,0,0,0,0,0,0,0,-1,552,645,0,0
-665,379,0,0,0,0,0,0,0,0,0,-1,559,645,0,0
-658,379,0,0,0,0,0,0,0,0,0,-1,566,645,0,0
-651,379,0,0,0,0,0,0,0,0,0,-1,573,645,0,0
-644,379,0,0,0,0,0,0,0,0,0,-1,580,645,0,0
-637,379,0,0,0,0,0,0,0,0,0,-1,587,645,0,0
-630,379,0,0,0,0,0,0,0,0,0,-1,594,645,0,0
-623,379,0,0,0,0,0,0,0,0,0,-1,601,645,0,0
-616,379,0,0,0,0,0,0,0,0,0,-1,608,645,0,0
-609,379,0,0,0,0,0,0,0,0,0,-1,615,645,0,0
-602,379,0,0,0,0,0,0,0,0,0,-1,622,645,0,0
-595,379,0,0,0,0,0,0,0,0,0,-1,629,645,0,0
-588,379,0,0,0,0,0,0,0,0,0,-1,636,645,0,0
-581,379,0,0,0,0,0,0,0,0,0,-1,643,645,0,0
-574,379,0,0,0,0,0,0,0,0,0,-1,650,645,0,0
-567,379,-8.78058,0.59668,0,0,0,0,0,0,0,-1,657,645,-8.7806,-0.596692
-560,379,-9.53485,-0.211304,0,0,0,0,0,0,0,-1,664,645,-9.53487,0.211282
-553,379,-5.17108,-4.53119,0,0,0,0,0,0,0,-1,671,645,-5.17106,4.53117
-546,379,-6.23053,-4.92102,0,0,0,0,0,0,0,-1,678,645,-6.23054,4.92105
-539,379,-0.71698,-2.19427,0,0,0,0,0,0,0,-1,685,645,-0.716959,2.19427
-532,379,-7.69611,0.217224,0,0,0,0,0,0,0,-1,692,645,-7.69614,-0.217204
-525,379,-7.09833,-1.13043,0,0,0,0,0,0,0,-1,699,645,-7.0983,1.13041
-518,379,-13.126,-5.33893,0,0,0,0,0,0,0,-1,706,645,-13.126,5.33895
-511,379,-19.4263,-8.97223,0,0,0,0,0,0,0,-1,713,645,-19.4263,8.97223
-504,379,-19.4227,-10.0408,0.000465801,-1.43137e-05,1.98893e-07,0.000465801,-1.43138e-05,0.00041426,0.000315414,0.0370771,720,645,-19.4226,10.0409
-497,379,-19.5432,-10.9788,0.000272714,0.000124714,0.000134662,0.000352369,4.5059e-05,0.534159,0.000221427,0.0162318,727,645,-19.5432,10.9787
-490,379,-19.588,-11.9307,0.000198595,0.000115957,0.000179702,0.000341668,-2.7115e-05,0.672397,0.000237334,0.0114973,734,645,-19.588,11.9307
-483,379,-19.6334,-12.8591,0.000252236,7.00804e-05,0.000107616,0.000302142,2.01747e-05,0.43422,0.000195051,0.0131362,741,645,-19.6334,12.8591
-476,379,-19.6821,-13.7762,0.000467732,4.13821e-06,-4.41846e-05,0.000471905,-3.54048e-08,-0.0941792,0.000314615,0.0142408,748,645,-19.6821,13.7762
-469,379,-19.7654,-14.7067,0.000863128,-8.05401e-05,-0.000279784,0.000939844,-0.000157255,-0.267617,0.000685024,0.0137504,755,645,-19.7654,14.7067
-462,379,-19.8334,-15.6743,0.00138781,-0.000172982,-0.000591333,0.00158654,-0.000371715,-0.324217,0.00120093,0.0102494,762,645,-19.8334,15.6743
-455,379,-19.8983,-16.6116,0.00207161,-0.000110848,-0.00103236,0.00248256,-0.0005218,-0.378842,0.00185362,0.010425,769,645,-19.8982,16.6116
-448,379,-19.9442,-17.5407,0.00289926,-6.64685e-05,-0.00151315,0.003535,-0.000702213,-0.397753,0.00262227,0.0127404,776,645,-19.9441,17.5407
-441,379,-19.9725,-18.5401,0.00385126,0.000158647,-0.00212569,0.00482052,-0.000810612,-0.42781,0.00351518,0.0235937,783,645,-19.9725,18.5401
-434,379,-19.9384,-19.6934,0,0,0,0,0,0,0,-1,790,645,-19.9384,19.6934
-427,379,-4.16113,-4.13452,0,0,0,0,0,0,0,-1,797,645,-4.16116,4.1345
-420,379,-4.63953,-3.46869,0,0,0,0,0,0,0,-1,804,645,-4.63953,3.46872
-413,379,-4.62543,-3.7912,0,0,0,0,0,0,0,-1,811,645,-4.62541,3.79123
-406,379,-4.64063,-4.38489,0,0,0,0,0,0,0,-1,818,645,-4.64065,4.3849
-399,379,-2.93536,-1.40118,0,0,0,0,0,0,0,-1,825,645,-2.93534,1.40119
-392,379,-4.16711,-0.466003,0,0,0,0,0,0,0,-1,832,645,-4.16714,0.465992
-385,379,-3.51862,0.441101,0,0,0,0,0,0,0,-1,839,645,-3.51859,-0.441072
-378,379,-5.3504,0.212219,0,0,0,0,0,0,0,-1,846,645,-5.35038,-0.212241
-371,379,-4.32092,-0.186707,0,0,0,0,0,0,0,-1,853,645,-4.3209,0.186707
-364,379,-3.40887,-0.549805,0,0,0,0,0,0,0,-1,860,645,-3.4089,0.549802
-357,379,0,0,0,0,0,0,0,0,0,-1,867,645,0,0
-350,379,0,0,0,0,0,0,0,0,0,-1,874,645,0,0
-343,379,0,0,0,0,0,0,0,0,0,-1,881,645,0,0
-336,379,0,0,0,0,0,0,0,0,0,-1,888,645,0,0
-329,379,0,0,0,0,0,0,0,0,0,-1,895,645,0,0
-322,379,0,0,0,0,0,0,0,0,0,-1,902,645,0,0
-315,379,0,0,0,0,0,0,0,0,0,-1,909,645,0,0
-308,379,0,0,0,0,0,0,0,0,0,-1,916,645,0,0
-301,379,0,0,0,0,0,0,0,0,0,-1,923,645,0,0
-294,379,0,0,0,0,0,0,0,0,0,-1,930,645,0,0
-287,379,0,0,0,0,0,0,0,0,0,-1,937,645,0,0
-280,379,0,0,0,0,0,0,0,0,0,-1,944,645,0,0
-273,379,0,0,0,0,0,0,0,0,0,-1,951,645,0,0
-266,379,0,0,0,0,0,0,0,0,0,-1,958,645,0,0
-259,379,0,0,0,0,0,0,0,0,0,-1,965,645,0,0
-252,379,0,0,0,0,0,0,0,0,0,-1,972,645,0,0
-245,379,0,0,0,0,0,0,0,0,0,-1,979,645,0,0
-238,379,0,0,0,0,0,0,0,0,0,-1,986,645,0,0
-231,379,0,0,0,0,0,0,0,0,0,-1,993,645,0,0
-224,379,0,0,0,0,0,0,0,0,0,-1,1000,645,0,0
-217,379,0,0,0,0,0,0,0,0,0,-1,1007,645,0,0
-210,379,0,0,0,0,0,0,0,0,0,-1,1014,645,0,0
-203,379,0,0,0,0,0,0,0,0,0,-1,1021,645,0,0
-196,379,0,0,0,0,0,0,0,0,0,-1,1028,645,0,0
-189,379,0,0,0,0,0,0,0,0,0,-1,1035,645,0,0
-182,379,0,0,0,0,0,0,0,0,0,-1,1042,645,0,0
-175,379,0,0,0,0,0,0,0,0,0,-1,1049,645,0,0
-168,379,0,0,0,0,0,0,0,0,0,-1,1056,645,0,0
-161,379,0,0,0,0,0,0,0,0,0,-1,1063,645,0,0
-154,379,0,0,0,0,0,0,0,0,0,-1,1070,645,0,0
-147,379,0,0,0,0,0,0,0,0,0,-1,1077,645,0,0
-140,379,0,0,0,0,0,0,0,0,0,-1,1084,645,0,0
-133,379,0,0,0,0,0,0,0,0,0,-1,1091,645,0,0
-126,379,0,0,0,0,0,0,0,0,0,-1,1098,645,0,0
-119,379,0,0,0,0,0,0,0,0,0,-1,1105,645,0,0
-112,379,0,0,0,0,0,0,0,0,0,-1,1112,645,0,0
-105,379,0,0,0,0,0,0,0,0,0,-1,1119,645,0,0
-98,379,0,0,0,0,0,0,0,0,0,-1,1126,645,0,0
-91,379,0,0,0,0,0,0,0,0,0,-1,1133,645,0,0
-84,379,0,0,0,0,0,0,0,0,0,-1,1140,645,0,0
-77,379,0,0,0,0,0,0,0,0,0,-1,1147,645,0,0
-70,379,0,0,0,0,0,0,0,0,0,-1,1154,645,0,0
-63,379,0,0,0,0,0,0,0,0,0,-1,1161,645,0,0
-56,379,0,0,0,0,0,0,0,0,0,-1,1168,645,0,0
-49,379,0,0,0,0,0,0,0,0,0,-1,1175,645,0,0
-42,379,0,0,0,0,0,0,0,0,0,-1,1182,645,0,0
-35,379,0,0,0,0,0,0,0,0,0,-1,1189,645,0,0
-28,379,0,0,0,0,0,0,0,0,0,-1,1196,645,0,0
-21,379,0,0,0,0,0,0,0,0,0,-1,1203,645,0,0
-14,379,0,0,0,0,0,0,0,0,0,-1,1210,645,0,0
-7,379,0,0,0,0,0,0,0,0,0,-1,1217,645,0,0
0,379,0,0,0,0,0,0,0,0,0,-1,1224,645,0,0
7,379,0,0,0,0,0,0,0,0,0,-1,1231,645,0,0
14,379,0,0,0,0,0,0,0,0,0,-1,1238,645,0,0
21,379,0,0,0,0,0,0,0,0,0,-1,1245,645,0,0
28,379,0,0,0,0,0,0,0,0,0,-1,1252,645,0,0
35,379,0,0,0,0,0,0,0,0,0,-1,1259,645,0,0
42,379,0,0,0,0,0,0,0,0,0,-1,1266,645,0,0
49,379,0,0,0,0,0,0,0,0,0,-1,1273,645,0,0
56,379,0,0,0,0,0,0,0,0,0,-1,1280,645,0,0
63,379,0,0,0,0,0,0,0,0,0,-1,1287,645,0,0
70,379,0,0,0,0,0,0,0,0,0,-1,1294,645,0,0
77,379,0,0,0,0,0,0,0,0,0,-1,1301,645,0,0
84,379,0,0,0,0,0,0,0,0,0,-1,1308,645,0,0
91,379,0,0,0,0,0,0,0,0,0,-1,1315,645,0,0
98,379,0,0,0,0,0,0,0,0,0,-1,1322,645,0,0
105,379,0,0,0,0,0,0,0,0,0,-1,1329,645,0,0
112,379,0,0,0,0,0,0,0,0,0,-1,1336,645,0,0
119,379,0,0,0,0,0,0,0,0,0,-1,1343,645,0,0
126,379,0,0,0,0,0,0,0,0,0,-1,1350,645,0,0
133,379,0,0,0,0,0,0,0,0,0,-1,1357,645,0,0
140,379,0,0,0,0,0,0,0,0,0,-1,1364,645,0,0
147,379,0,0,0,0,0,0,0,0,0,-1,1371,645,0,0
154,379,0,0,0,0,0,0,0,0,0,-1,1378,645,0,0
161,379,0,0,0,0,0,0,0,0,0,-1,1385,645,0,0
168,379,0,0,0,0,0,0,0,0,0,-1,1392,645,0,0
175,379,0,0,0,0,0,0,0,0,0,-1,1399,645,0,0
182,379,0,0,0,0,0,0,0,0,0,-1,1406,645,0,0
189,379,0,0,0,0,0,0,0,0,0,-1,1413,645,0,0
196,379,0,0,0,0,0,0,0,0,0,-1,1420,645,0,0
203,379,0,0,0,0,0,0,0,0,0,-1,1427,645,0,0
210,379,0,0,0,0,0,0,0,0,0,-1,1434,645,0,0
217,379,0,0,0,0,0,0,0,0,0,-1,1441,645,0,0
224,379,0,0,0,0,0,0,0,0,0,-1,1448,645,0,0
231,379,0,0,0,0,0,0,0,0,0,-1,1455,645,0,0
238,379,0,0,0,0,0,0,0,0,0,-1,1462,645,0,0
245,379,0,0,0,0,0,0,0,0,0,-1,1469,645,0,0
252,379,0,0,0,0,0,0,0,0,0,-1,1476,645,0,0
259,379,0,0,0,0,0,0,0,0,0,-1,1483,645,0,0
266,379,0,0,0,0,0,0,0,0,0,-1,1490,645,0,0
273,379,0,0,0,0,0,0,0,0,0,-1,1497,645,0,0
280,379,0,0,0,0,0,0,0,0,0,-1,1504,645,0,0
287,379,0,0,0,0,0,0,0,0,0,-1,1511,645,0,0
294,379,0,0,0,0,0,0,0,0,0,-1,1518,645,0,0
301,379,0,0,0,0,0,0,0,0,0,-1,1525,645,0,0
308,379,0,0,0,0,0,0,0,0,0,-1,1532,645,0,0
315,379,0,0,0,0,0,0,0,0,0,-1,1539,645,0,0
322,379,0,0,0,0,0,0,0,0,0,-1,1546,645,0,0
329,379,0,0,0,0,0,0,0,0,0,-1,1553,645,0,0
336,379,0,0,0,0,0,0,0,0,0,-1,1560,645,0,0
343,379,0,0,0,0,0,0,0,0,0,-1,1567,645,0,0
350,379,0,0,0,0,0,0,0,0,0,-1,1574,645,0,0
357,379,0,0,0,0,0,0,0,0,0,-1,1581,645,0,0
364,379,0,0,0,0,0,0,0,0,0,-1,1588,645,0,0
371,379,0,0,0,0,0,0,0,0,0,-1,1595,645,0,0
378,379,0,0,0,0,0,0,0,0,0,-1,1602,645,0,0
385,379,0,0,0,0,0,0,0,0,0,-1,1609,645,0,0
392,379,0,0,0,0,0,0,0,0,0,-1,1616,645,0,0
399,379,0,0,0,0,0,0,0,0,0,-1,1623,645,0,0
406,379,0,0,0,0,0,0,0,0,0,-1,1630,645,0,0
413,379,0,0,0,0,0,0,0,0,0,-1,1637,645,0,0
420,379,0,0,0,0,0,0,0,0,0,-1,1644,645,0,0
427,379,0,0,0,0,0,0,0,0,0,-1,1651,645,0,0
434,379,0,0,0,0,0,0,0,0,0,-1,1658,645,0,0
441,379,0,0,0,0,0,0,0,0,0,-1,1665,645,0,0
448,379,0,0,0,0,0,0,0,0,0,-1,1672,645,0,0
455,379,0,0,0,0,0,0,0,0,0,-1,1679,645,0,0
462,379,0,0,0,0,0,0,0,0,0,-1,1686,645,0,0
469,379,0,0,0,0,0,0,0,0,0,-1,1693,645,0,0
476,379,11.1787,0.830383,0,0,0,0,0,0,0,-1,1700,645,11.1787,-0.830365
483,379,7.4231,1.54321,0,0,0,0,0,0,0,-1,1707,645,7.42314,-1.54324
490,379,8.52881,1.56677,0,0,0,0,0,0,0,-1,1714,645,8.52878,-1.56677
497,379,9.63599,1.49573,0,0,0,0,0,0,0,-1,1721,645,9.63604,-1.4957
504,379,10.0833,1.35229,0,0,0,0,0,0,0,-1,1728,645,10.0832,-1.35227
511,379,8.14343,1.59912,0,0,0,0,0,0,0,-1,1735,645,8.14347,-1.59912
518,379,12.7955,-0.324097,0,0,0,0,0,0,0,-1,1742,645,12.7955,0.324101
525,379,6.03711,1.10352,0,0,0,0,0,0,0,-1,1749,645,6.03711,-1.10351
532,379,8.70947,0.887817,0,0,0,0,0,0,0,-1,1756,645,8.70953,-0.887808
539,379,9.87097,0.111389,0,0,0,0,0,0,0,-1,1763,645,9.87095,-0.111395
546,379,8.42383,-0.730652,0,0,0,0,0,0,0,-1,1770,645,8.42378,0.730638
553,379,19.2905,-7.67834,0,0,0,0,0,0,0,-1,1777,645,19.2905,7.67837
560,379,22.5734,-10.4749,0,0,0,0,0,0,0,-1,1784,645,22.5734,10.4749
567,379,35.6919,-18.006,0,0,0,0,0,0,0,-1,1791,645,35.6919,18.006
574,379,35.6478,-17.0408,0.00124293,0.000199578,-1.20637e-05,0.00124307,0.000199439,-0.0115604,0.000770881,0.0185856,1798,645,35.6478,17.0408
581,379,35.6038,-16.1259,0.000827491,0.000368893,0.000116862,0.000855553,0.000340831,0.235668,0.000497343,0.0172943,1805,645,35.6038,16.1258
588,379,35.5192,-15.1855,0.000749855,0.000621266,0.000348286,0.00103973,0.00033139,0.694124,0.000613299,0.0188863,1812,645,35.5192,15.1855
595,379,35.4519,-14.2408,0.00099568,0.00107206,0.000705061,0.00173996,0.000327775,0.812453,0.00106762,0.0153712,1819,645,35.452,14.2408
602,379,35.3969,-13.3102,0.00142356,0.00162915,0.00111864,0.0026497,0.000403002,0.831215,0.00164864,0.0183752,1826,645,35.3968,13.3103
609,379,35.33,-12.4007,0.0018824,0.00228294,0.00152312,0.0036189,0.000546443,0.850766,0.00225266,0.0209025,1833,645,35.33,12.4007
616,379,35.2565,-11.4459,0.00240373,0.00305732,0.0019073,0.00466562,0.000795427,0.870243,0.0028821,0.0163301,1840,645,35.2565,11.4459
623,379,35.2167,-10.4174,0.00301083,0.00388839,0.00233641,0.00582686,0.00107236,0.878217,0.00358105,0.0134941,1847,645,35.2167,10.4174
630,379,35.1816,-9.48773,0.0035024,0.00470944,0.00264801,0.00682184,0.00139001,0.897442,0.00416265,0.0150061,1854,645,35.1816,9.48775
637,379,35.1569,-8.43939,0.00379042,0.00570315,0.00288763,0.00778866,0.00170491,0.945311,0.00472774,0.0471231,1861,645,35.1569,8.43942
644,379,35.3608,-7.24011,0,0,0,0,0,0,0,-1,1868,645,35.3608,7.24011
651,379,12.9515,0.220825,0,0,0,0,0,0,0,-1,1875,645,12.9515,-0.220814
658,379,13.7498,0.37439,0,0,0,0,0,0,0,-1,1882,645,13.7498,-0.374371
665,379,11.9719,0.353333,0,0,0,0,0,0,0,-1,1889,645,11.9719,-0.353321
672,379,7.57605,2.15326,0,0,0,0,0,0,0,-1,1896,645,7.57599,-2.15326
679,379,8.55078,2.50409,0,0,0,0,0,0,0,-1,1903,645,8.55073,-2.50406
686,379,0,0,0,0,0,0,0,0,0,-1,1910,645,0,0
693,379,0,0,0,0,0,0,0,0,0,-1,1917,645,0,0
700,379,0,0,0,0,0,0,0,0,0,-1,1924,645,0,0
707,379,0,0,0,0,0,0,0,0,0,-1,1931,645,0,0
714,379,0,0,0,0,0,0,0,0,0,-1,1938,645,0,0
721,379,0,0,0,0,0,0,0,0,0,-1,1945,645,0,0
728,379,0,0,0,0,0,0,0,0,0,-1,1952,645,0,0
735,379,0,0,0,0,0,0,0,0,0,-1,1959,645,0,0
742,379,0,0,0,0,0,0,0,0,0,-1,1966,645,0,0
749,379,0,0,0,0,0,0,0,0,0,-1,1973,645,0,0
756,379,0,0,0,0,0,0,0,0,0,-1,1980,645,0,0
763,379,0,0,0,0,0,0,0,0,0,-1,1987,645,0,0
770,379,0,0,0,0,0,0,0,0,0,-1,1994,645,0,0
777,379,0,0,0,0,0,0,0,0,0,-1,2001,645,0,0
784,379,0,0,0,0,0,0,0,0,0,-1,2008,645,0,0
791,379,0,0,0,0,0,0,0,0,0,-1,2015,645,0,0
798,379,0,0,0,0,0,0,0,0,0,-1,2022,645,0,0
805,379,0,0,0,0,0,0,0,0,0,-1,2029,645,0,0
812,379,0,0,0,0,0,0,0,0,0,-1,2036,645,0,0
-700,372,0,0,0,0,0,0,0,0,0,-1,524,652,0,0
-693,372,0,0,0,0,0,0,0,0,0,-1,531,652,0,0
-686,372,0,0,0,0,0,0,0,0,0,-1,538,652,0,0
-679,372,0,0,0,0,0,0,0,0,0,-1,545,652,0,0
-672,372,0,0,0,0,0,0,0,0,0,-1,552,652,0,0
-665,372,0,0,0,0,0,0,0,0,0,-1,559,652,0,0
-658,372,0,0,0,0,0,0,0,0,0,-1,566,652,0,0
-651,372,0,0,0,0,0,0,0,0,0,-1,573,652,0,0
-644,372,0,0,0,0,0,0,0,0,0,-1,580,652,0,0
-637,372,0,0,0,0,0,0,0,0,0,-1,587,652,0,0
-630,372,0,0,0,0,0,0,0,0,0,-1,594,652,0,0
-623,372,0,0,0,0,0,0,0,0,0,-1,601,652,0,0
-616,372,0,0,0,0,0,0,0,0,0,-1,608,652,0,0
-609,372,0,0,0,0,0,0,0,0,0,-1,615,652,0,0
-602,372,0,0,0,0,0,0,0,0,0,-1,622,652,0,0
-595,372,0,0,0,0,0,0,0,0,0,-1,629,652,0,0
-588,372,0,0,0,0,0,0,0,0,0,-1,636,652,0,0
-581,372,0,0,0,0,0,0,0,0,0,-1,643,652,0,0
-574,372,0,0,0,0,0,0,0,0,0,-1,650,652,0,0
-567,372,-7.93744,0.73407,0,0,0,0,0,0,0,-1,657,652,-7.93741,-0.734076
-560,372,-8.78552,-0.158203,0,0,0,0,0,0,0,-1,664,652,-8.78552,0.158216
-553,372,-7.95551,1.61694,0,0,0,0,0,0,0,-1,671,652,-7.95552,-1.61697
-546,372,-4.2403,-3.75372,0,0,0,0,0,0,0,-1,678,652,-4.24028,3.75369
-539,372,-7.92285,-0.0650024,0,0,0,0,0,0,0,-1,685,652,-7.92287,0.0649772
-532,372,-8.59589,-0.419556,0,0,0,0,0,0,0,-1,692,652,-8.59591,0.419539
-525,372,-8.03674,-1.36804,0,0,0,0,0,0,0,-1,699,652,-8.03676,1.36806
-518,372,-20.3539,-7.93585,0,0,0,0,0,0,0,-1,706,652,-20.3539,7.93583
-511,372,-20.3617,-9.02942,0.00128065,-0.000265669,-0.000752697,0.00158653,-0.00057155,-0.385994,0.00129109,0.0418112,713,652,-20.3617,9.0294
-504,372,-20.4335,-9.92505,0.00104115,-0.000129443,-0.000423492,0.00117829,-0.000266585,-0.313179,0.000887834,0.0200423,720,652,-20.4335,9.92506
-497,372,-20.4578,-10.929,0.000890757,-0.000108884,-0.000207189,0.000931998,-0.000150125,-0.196483,0.000676946,0.0125142,727,652,-20.4578,10.929
-490,372,-20.5263,-11.8504,0.000816832,-0.000142282,-0.000106341,0.000828481,-0.000153931,-0.109109,0.000610138,0.0124489,734,652,-20.5263,11.8504
-483,372,-20.5649,-12.7729,0.000847376,-0.00017547,-0.000121948,0.000861714,-0.000189808,-0.117039,0.000647092,0.0122136,741,652,-20.5649,12.7729
-476,372,-20.6118,-13.6933,0.00100323,-0.000196148,-0.000231647,0.00104641,-0.000239334,-0.184311,0.000789571,0.0152683,748,652,-20.6118,13.6933
-469,372,-20.7197,-14.6176,0.00131219,-0.000204929,-0.00044572,0.00143345,-0.000326187,-0.265621,0.00108089,0.0129908,755,652,-20.7197,14.6176
-462,372,-20.7849,-15.5729,0.00174436,-0.000197998,-0.000750653,0.00200065,-0.000454283,-0.329007,0.00150817,0.0102797,762,652,-20.7849,15.5729
-455,372,-20.8433,-16.5087,0.00235338,-6.17426e-05,-0.00120315,0.00285045,-0.000558812,-0.391783,0.00211137,0.0103404,769,652,-20.8432,16.5086
-448,372,-20.8843,-17.4673,0.0031138,8.68863e-05,-0.00171566,0.00388815,-0.000687456,-0.423967,0.00284903,0.0164215,776,652,-20.8843,17.4673
-441,372,-20.8693,-18.5386,0,0,0,0,0,0,0,-1,783,652,-20.8693,18.5386
-434,372,-9.86865,-9.68494,0,0,0,0,0,0,0,-1,790,652,-9.86863,9.68492
-427,372,-4.54248,-3.56268,0,0,0,0,0,0,0,-1,797,652,-4.54247,3.56266
-420,372,-4.66168,-2.93597,0,0,0,0,0,0,0,-1,804,652,-4.66166,2.93599
-413,372,-4.74762,-3.29541,0,0,0,0,0,0,0,-1,811,652,-4.74763,3.29542
-406,372,-0.885437,-0.583923,0,0,0,0,0,0,0,-1,818,652,-0.885437,0.5839
-399,372,-3.97357,-0.825012,0,0,0,0,0,0,0,-1,825,652,-3.97359,0.825037
-392,372,-7.64337,0.173035,0,0,0,0,0,0,0,-1,832,652,-7.64337,-0.173019
-385,372,-6.48871,-0.0271606,0,0,0,0,0,0,0,-1,839,652,-6.48874,0.0271353
-378,372,-5.33044,-0.242432,0,0,0,0,0,0,0,-1,846,652,-5.33042,0.242457
-371,372,-4.40802,-0.495667,0,0,0,0,0,0,0,-1,853,652,-4.40802,0.495661
-364,372,0,0,0,0,0,0,0,0,0,-1,860,652,0,0
-357,372,0,0,0,0,0,0,0,0,0,-1,867,652,0,0
-350,372,0,0,0,0,0,0,0,0,0,-1,874,652,0,0
-343,372,0,0,0,0,0,0,0,0,0,-1,881,652,0,0
-336,372,0,0,0,0,0,0,0,0,0,-1,888,652,0,0
-329,372,0,0,0,0,0,0,0,0,0,-1,895,652,0,0
-322,372,0,0,0,0,0,0,0,0,0,-1,902,652,0,0
-315,372,0,0,0,0,0,0,0,0,0,-1,909,652,0,0
-308,372,0,0,0,0,0,0,0,0,0,-1,916,652,0,0
-301,372,0,0,0,0,0,0,0,0,0,-1,923,652,0,0
-294,372,0,0,0,0,0,0,0,0,0,-1,930,652,0,0
-287,372,0,0,0,0,0,0,0,0,0,-1,937,652,0,0
-280,372,0,0,0,0,0,0,0,0,0,-1,944,652,0,0
-273,372,0,0,0,0,0,0,0,0,0,-1,951,652,0,0
-266,372,0,0,0,0,0,0,0,0,0,-1,958,652,0,0
-259,372,0,0,0,0,0,0,0,0,0,-1,965,652,0,0
-252,372,0,0,0,0,0,0,0,0,0,-1,972,652,0,0
-245,372,0,0,0,0,0,0,0,0,0,-1,979,652,0,0
-238,372,0,0,0,0,0,0,0,0,0,-1,986,652,0,0
-231,372,0,0,0,0,0,0,0,0,0,-1,993,652,0,0
-224,372,0,0,0,0,0,0,0,0,0,-1,1000,652,0,0
-217,372,0,0,0,0,0,0,0,0,0,-1,1007,652,0,0
-210,372,0,0,0,0,0,0,0,0,0,-1,1014,652,0,0
-203,372,0,0,0,0,0,0,0,0,0,-1,1021,652,0,0
-196,372,0,0,0,0,0,0,0,0,0,-1,1028,652,0,0
-189,372,0,0,0,0,0,0,0,0,0,-1,1035,652,0,0
-182,372,0,0,0,0,0,0,0,0,0,-1,1042,652,0,0
-175,372,0,0,0,0,0,0,0,0,0,-1,1049,652,0,0
-168,372,0,0,0,0,0,0,0,0,0,-1,1056,652,0,0
-161,372,0,0,0,0,0,0,0,0,0,-1,1063,652,0,0
-154,372,0,0,0,0,0,0,0,0,0,-1,1070,652,0,0
-147,372,0,0,0,0,0,0,0,0,0,-1,1077,652,0,0
-140,372,0,0,0,0,0,0,0,0,0,-1,1084,652,0,0
-133,372,0,0,0,0,0,0,0,0,0,-1,1091,652,0,0
-126,372,0,0,0,0,0,0,0,0,0,-1,1098,652,0,0
-119,372,0,0,0,0,0,0,0,0,0,-1,1105,652,0,0
-112,372,0,0,0,0,0,0,0,0,0,-1,1112,652,0,0
-105,372,0,0,0,0,0,0,0,0,0,-1,1119,652,0,0
-98,372,0,0,0,0,0,0,0,0,0,-1,1126,652,0,0
-91,372,0,0,0,0,0,0,0,0,0,-1,1133,652,0,0
-84,372,0,0,0,0,0,0,0,0,0,-1,1140,652,0,0
-77,372,0,0,0,0,0,0,0,0,0,-1,1147,652,0,0
-70,372,0,0,0,0,0,0,0,0,0,-1,1154,652,0,0
-63,372,0,0,0,0,0,0,0,0,0,-1,1161,652,0,0
-56,372,0,0,0,0,0,0,0,0,0,-1,1168,652,0,0
-49,372,0,0,0,0,0,0,0,0,0,-1,1175,652,0,0
-42,372,0,0,0,0,0,0,0,0,0,-1,1182,652,0,0
-35,372,0,0,0,0,0,0,0,0,0,-1,1189,652,0,0
-28,372,0,0,0,0,0,0,0,0,0,-1,1196,652,0,0
-21,372,0,0,0,0,0,0,0,0,0,-1,1203,652,0,0
-14,372,0,0,0,0,0,0,0,0,0,-1,1210,652,0,0
-7,372,0,0,0,0,0,0,0,0,0,-1,1217,652,0,0
0,372,0,0,0,0,0,0,0,0,0,-1,1224,652,0,0
7,372,0,0,0,0,0,0,0,0,0,-1,1231,652,0,0
14,372,0,0,0,0,0,0,0,0,0,-1,1238,652,0,0
21,372,0,0,0,0,0,0,0,0,0,-1,1245,652,0,0
28,372,0,0,0,0,0,0,0,0,0,-1,1252,652,0,0
35,372,0,0,0,0,0,0,0,0,0,-1,1259,652,0,0
42,372,0,0,0,0,0,0,0,0,0,-1,1266,652,0,0
49,372,0,0,0,0,0,0,0,0,0,-1,1273,652,0,0
56,372,0,0,0,0,0,0,0,0,0,-1,1280,652,0,0
63,372,0,0,0,0,0,0,0,0,0,-1,1287,652,0,0
70,372,0,0,0,0,0,0,0,0,0,-1,1294,652,0,0
77,372,0,0,0,0,0,0,0,0,0,-1,1301,652,0,0
84,372,0,0,0,0,0,0,0,0,0,-1,1308,652,0,0
91,372,0,0,0,0,0,0,0,0,0,-1,1315,652,0,0
98,372,0,0,0,0,0,0,0,0,0,-1,1322,652,0,0
105,372,0,0,0,0,0,0,0,0,0,-1,1329,652,0,0
112,372,0,0,0,0,0,0,0,0,0,-1,1336,652,0,0
119,372,0,0,0,0,0,0,0,0,0,-1,1343,652,0,0
126,372,0,0,0,0,0,0,0,0,0,-1,1350,652,0,0
133,372,0,0,0,0,0,0,0,0,0,-1,1357,652,0,0
140,372,0,0,0,0,0,0,0,0,0,-1,1364,652,0,0
147,372,0,0,0,0,0,0,0,0,0,-1,1371,652,0,0
154,372,0,0,0,0,0,0,0,0,0,-1,1378,652,0,0
161,372,0,0,0,0,0,0,0,0,0,-1,1385,652,0,0
168,372,0,0,0,0,0,0,0,0,0,-1,1392,652,0,0
175,372,0,0,0,0,0,0,0,0,0,-1,1399,652,0,0
182,372,0,0,0,0,0,0,0,0,0,-1,1406,652,0,0
189,372,0,0,0,0,0,0,0,0,0,-1,1413,652,0,0
196,372,0,0,0,0,0,0,0,0,0,-1,1420,652,0,0
203,372,0,0,0,0,0,0,0,0,0,-1,1427,652,0,0
210,372,0,0,0,0,0,0,0,0,0,-1,1434,652,0,0
217,372,0,0,0,0,0,0,0,0,0,-1,1441,652,0,0
224,372,0,0,0,0,0,0,0,0,0,-1,1448,652,0,0
231,372,0,0,0,0,0,0,0,0,0,-1,1455,652,0,0
238,372,0,0,0,0,0,0,0,0,0,-1,1462,652,0,0
245,372,0,0,0,0,0,0,0,0,0,-1,1469,652,0,0
252,372,0,0,0,0,0,0,0,0,0,-1,1476,652,0,0
259,372,0,0,0,0,0,0,0,0,0,-1,1483,652,0,0
266,372,0,0,0,0,0,0,0,0,0,-1,1490,652,0,0
273,372,0,0,0,0,0,0,0,0,0,-1,1497,652,0,0
280,372,0,0,0,0,0,0,0,0,0,-1,1504,652,0,0
287,372,0,0,0,0,0,0,0,0,0,-1,1511,652,0,0
294,372,0,0,0,0,0,0,0,0,0,-1,1518,652,0,0
301,372,0,0,0,0,0,0,0,0,0,-1,1525,652,0,0
308,372,0,0,0,0,0,0,0,0,0,-1,1532,652,0,0
315,372,0,0,0,0,0,0,0,0,0,-1,1539,652,0,0
322,372,0,0,0,0,0,0,0,0,0,-1,1546,652,0,0
329,372,0,0,0,0,0,0,0,0,0,-1,1553,652,0,0
336,372,0,0,0,0,0,0,0,0,0,-1,1560,652,0,0
343,372,0,0,0,0,0,0,0,0,0,-1,1567,652,0,0
350,372,0,0,0,0,0,0,0,0,0,-1,1574,652,0,0
357,372,0,0,0,0,0,0,0,0,0,-1,1581,652,0,0
364,372,0,0,0,0,0,0,0,0,0,-1,1588,652,0,0
371,372,0,0,0,0,0,0,0,0,0,-1,1595,652,0,0
378,372,0,0,0,0,0,0,0,0,0,-1,1602,652,0,0
385,372,0,0,0,0,0,0,0,0,0,-1,1609,652,0,0
392,372,0,0,0,0,0,0,0,0,0,-1,1616,652,0,0
399,372,0,0,0,0,0,0,0,0,0,-1,1623,652,0,0
406,372,0,0,0,0,0,0,0,0,0,-1,1630,652,0,0
413,372,0,0,0,0,0,0,0,0,0,-1,1637,652,0,0
420,372,0,0,0,0,0,0,0,0,0,-1,1644,652,0,0
427,372,0,0,0,0,0,0,0,0,0,-1,1651,652,0,0
434,372,0,0,0,0,0,0,0,0,0,-1,1658,652,0,0
441,372,0,0,0,0,0,0,0,0,0,-1,1665,652,0,0
448,372,0,0,0,0,0,0,0,0,0,-1,1672,652,0,0
455,372,0,0,0,0,0,0,0,0,0,-1,1679,652,0,0
462,372,0,0,0,0,0,0,0,0,0,-1,1686,652,0,0
469,372,0,0,0,0,0,0,0,0,0,-1,1693,652,0,0
476,372,0,0,0,0,0,0,0,0,0,-1,1700,652,0,0
483,372,8.74182,1.53125,0,0,0,0,0,0,0,-1,1707,652,8.74186,-1.53126
490,372,9.78455,1.67096,0,0,0,0,0,0,0,-1,1714,652,9.7846,-1.67093
497,372,9.97644,1.46069,0,0,0,0,0,0,0,-1,1721,652,9.97647,-1.46071
504,372,10.1216,1.28375,0,0,0,0,0,0,0,-1,1728,652,10.1216,-1.28376
511,372,11.7367,-0.0272217,0,0,0,0,0,0,0,-1,1735,652,11.7367,0.0272326
518,372,12.0657,-0.0995483,0,0,0,0,0,0,0,-1,1742,652,12.0657,0.0995285
525,372,12.3947,-0.171814,0,0,0,0,0,0,0,-1,1749,652,12.3946,0.171824
532,372,9.36597,1.72034,0,0,0,0,0,0,0,-1,1756,652,9.36597,-1.72036
539,372,7.82886,-0.0865479,0,0,0,0,0,0,0,-1,1763,652,7.82882,0.0865771
546,372,10.953,-0.187195,0,0,0,0,0,0,0,-1,1770,652,10.953,0.187181
553,372,14.1201,-4.83234,0,0,0,0,0,0,0,-1,1777,652,14.1201,4.83235
560,372,20.1057,-8.06934,0,0,0,0,0,0,0,-1,1784,652,20.1058,8.06936
567,372,36.6619,-18.1057,0,0,0,0,0,0,0,-1,1791,652,36.6619,18.1057
574,372,36.6062,-16.8959,0.0011731,-6.303e-06,-0.000310116,0.00124967,-8.28744e-05,-0.24207,0.00086207,0.0449518,1798,652,36.6062,16.8959
581,372,36.5491,-16.0679,0.000770173,0.000191042,-6.94684e-05,0.00077839,0.000182826,-0.117728,0.000469991,0.0231616,1805,652,36.5491,16.0679
588,372,36.4635,-15.1548,0.000702108,0.000323366,0.000165641,0.000764329,0.000261145,0.359327,0.0004486,0.0176623,1812,652,36.4635,15.1548
595,372,36.4025,-14.2022,0.000921501,0.000683501,0.000465017,0.0012825,0.000322499,0.660134,0.000770343,0.014839,1819,652,36.4024,14.2022
602,372,36.3811,-13.2645,0.00128097,0.00112806,0.000800736,0.00200889,0.000400138,0.737802,0.00122781,0.0191596,1826,652,36.3811,13.2645
609,372,36.2227,-12.3297,0.00162654,0.00165103,0.00111363,0.00275248,0.000525084,0.790896,0.00168741,0.0218705,1833,652,36.2226,12.3296
616,372,36.1603,-11.3574,0.00198922,0.0022656,0.00139035,0.00352461,0.000730213,0.834932,0.00214811,0.0202017,1840,652,36.1603,11.3573
623,372,36.1532,-10.3501,0.00242198,0.00293499,0.00171349,0.00441106,0.000945903,0.859695,0.0026816,0.014442,1847,652,36.1532,10.3501
630,372,36.1384,-9.40588,0.00271993,0.00363237,0.00195014,0.00517895,0.00117336,0.900303,0.00313557,0.0187184,1854,652,36.1384,9.40589
637,372,36.1398,-8.49457,0.00283134,0.00442616,0.00211842,0.00589228,0.00136521,0.965404,0.00356143,0.0291237,1861,652,36.1397,8.49456
644,372,36.0868,-7.45544,0,0,0,0,0,0,0,-1,1868,652,36.0868,7.45546
651,372,21.3998,-0.888,0,0,0,0,0,0,0,-1,1875,652,21.3998,0.887992
658,372,14.157,0.280273,0,0,0,0,0,0,0,-1,1882,652,14.157,-0.280264
665,372,15.2286,0.463867,0,0,0,0,0,0,0,-1,1889,652,15.2287,-0.463854
672,372,9.34106,1.48444,0,0,0,0,0,0,0,-1,1896,652,9.34109,-1.48444
679,372,10.7308,2.32391,0,0,0,0,0,0,0,-1,1903,652,10.7309,-2.3239
686,372,11.6295,2.52997,0,0,0,0,0,0,0,-1,1910,652,11.6296,-2.52996
693,372,0,0,0,0,0,0,0,0,0,-1,1917,652,0,0
700,372,0,0,0,0,0,0,0,0,0,-1,1924,652,0,0
707,372,0,0,0,0,0,0,0,0,0,-1,1931,652,0,0
714,372,0,0,0,0,0,0,0,0,0,-1,1938,652,0,0
721,372,0,0,0,0,0,0,0,0,0,-1,1945,652,0,0
728,372,0,0,0,0,0,0,0,0,0,-1,1952,652,0,0
735,372,0,0,0,0,0,0,0,0,0,-1,1959,652,0,0
742,372,0,0,0,0,0,0,0,0,0,-1,1966,652,0,0
749,372,0,0,0,0,0,0,0,0,0,-1,1973,652,0,0
756,372,0,0,0,0,0,0,0,0,0,-1,1980,652,0,0
763,372,0,0,0,0,0,0,0,0,0,-1,1987,652,0,0
770,372,0,0,0,0,0,0,0,0,0,-1,1994,652,0,0
777,372,0,0,0,0,0,0,0,0,0,-1,2001,652,0,0
784,372,0,0,0,0,0,0,0,0,0,-1,2008,652,0,0
791,372,0,0,0,0,0,0,0,0,0,-1,2015,652,0,0
798,372,0,0,0,0,0,0,0,0,0,-1,2022,652,0,0
805,372,0,0,0,0,0,0,0,0,0,-1,2029,652,0,0
812,372,0,0,0,0,0,0,0,0,0,-1,2036,652,0,0
-700,365,0,0,0,0,0,0,0,0,0,-1,524,659,0,0
-693,365,0,0,0,0,0,0,0,0,0,-1,531,659,0,0
-686,365,0,0,0,0,0,0,0,0,0,-1,538,659,0,0
-679,365,0,0,0,0,0,0,0,0,0,-1,545,659,0,0
-672,365,0,0,0,0,0,0,0,0,0,-1,552,659,0,0
-665,365,0,0,0,0,0,0,0,0,0,-1,559,659,0,0
-658,365,0,0,0,0,0,0,0,0,0,-1,566,659,0,0
-651,365,0,0,0,0,0,0,0,0,0,-1,573,659,0,0
-644,365,0,0,0,0,0,0,0,0,0,-1,580,659,0,0
-637,365,0,0,0,0,0,0,0,0,0,-1,587,659,0,0
-630,365,0,0,0,0,0,0,0,0,0,-1,594,659,0,0
-623,365,0,0,0,0,0,0,0,0,0,-1,601,659,0,0
-616,365,0,0,0,0,0,0,0,0,0,-1,608,659,0,0
-609,365,0,0,0,0,0,0,0,0,0,-1,615,659,0,0
-602,365,0,0,0,0,0,0,0,0,0,-1,622,659,0,0
-595,365,0,0,0,0,0,0,0,0,0,-1,629,659,0,0
-588,365,0,0,0,0,0,0,0,0,0,-1,636,659,0,0
-581,365,0,0,0,0,0,0,0,0,0,-1,643,659,0,0
-574,365,-7.69281,1.59015,0,0,0,0,0,0,0,-1,650,659,-7.69282,-1.59018
-567,365,-8.2583,1.72638,0,0,0,0,0,0,0,-1,657,659,-8.25827,-1.72637
-560,365,-7.17767,0.275757,0,0,0,0,0,0,0,-1,664,659,-7.17768,-0.27577
-553,365,-10.0349,-0.169617,0,0,0,0,0,0,0,-1,671,659,-10.0349,0.169593
-546,365,-10.6303,-1.51642,0,0,0,0,0,0,0,-1,678,659,-10.6303,1.5164
-539,365,-8.38599,1.52936,0,0,0,0,0,0,0,-1,685,659,-8.38598,-1.52935
-532,365,-8.52863,0.166504,0,0,0,0,0,0,0,-1,692,659,-8.52863,-0.166501
-525,365,-9.28229,-2.62726,0,0,0,0,0,0,0,-1,699,659,-9.28227,2.62724
-518,365,-21.265,-7.80115,0,0,0,0,0,0,0,-1,706,659,-21.265,7.80114
-511,365,-21.3217,-8.87946,0.00163254,-0.00015327,-0.00105192,0.00211943,-0.000640152,-0.433489,0.0016678,0.0382986,713,659,-21.3216,8.87945
-504,365,-21.3438,-9.86877,0.00146261,-0.000180956,-0.000699549,0.00172004,-0.000438384,-0.352612,0.00131736,0.0130744,720,659,-21.3438,9.8688
-497,365,-21.4064,-10.8668,0.00134582,-0.000231317,-0.00045871,0.00146953,-0.000355029,-0.263427,0.001117,0.0135003,727,659,-21.4065,10.8668
-490,365,-21.4861,-11.8157,0.00127487,-0.000268917,-0.000333699,0.00134391,-0.00033796,-0.204024,0.0010273,0.0146535,734,659,-21.4861,11.8157
-483,365,-21.5427,-12.7113,0.0012839,-0.000271383,-0.000314756,0.00134519,-0.000332668,-0.1923,0.00102582,0.0137562,741,659,-21.5426,12.7113
-476,365,-21.5302,-13.6376,0.00138115,-0.000231314,-0.000390608,0.00147079,-0.000320952,-0.22558,0.00110319,0.019581,748,659,-21.5302,13.6375
-469,365,-21.6349,-14.5776,0.00160815,-0.000150621,-0.000577407,0.00178077,-0.000323242,-0.290501,0.00130831,0.0195728,755,659,-21.6349,14.5776
-462,365,-21.7441,-15.4837,0.00196522,-2.45162e-05,-0.000861814,0.00228659,-0.000345888,-0.356929,0.0016518,0.0151539,762,659,-21.7442,15.4837
-455,365,-21.7796,-16.4143,0.00253127,0.000177969,-0.00129031,0.00310088,-0.000391635,-0.415719,0.0022094,0.0174892,769,659,-21.7796,16.4143
-448,365,-21.8417,-17.4071,0,0,0,0,0,0,0,-1,776,659,-21.8417,17.4071
-441,365,-16.9571,-15.1896,0,0,0,0,0,0,0,-1,783,659,-16.9571,15.1896
-434,365,-5.45056,-3.98041,0,0,0,0,0,0,0,-1,790,659,-5.45055,3.98042
-427,365,-5.05377,-4.74689,0,0,0,0,0,0,0,-1,797,659,-5.05376,4.7469
-420,365,-4.58813,-3.16376,0,0,0,0,0,0,0,-1,804,659,-4.58816,3.16374
-413,365,0.141357,0.672729,0,0,0,0,0,0,0,-1,811,659,0.141365,-0.672714
-406,365,-1.75067,-0.934448,0,0,0,0,0,0,0,-1,818,659,-1.7507,0.934424
-399,365,-4.10242,-1.25439,0,0,0,0,0,0,0,-1,825,659,-4.10244,1.25438
-392,365,-7.46545,-0.779724,0,0,0,0,0,0,0,-1,832,659,-7.46543,0.779744
-385,365,-6.27875,-0.887573,0,0,0,0,0,0,0,-1,839,659,-6.27874,0.887545
-378,365,-5.34503,-0.263306,0,0,0,0,0,0,0,-1,846,659,-5.34504,0.263275
-371,365,0,0,0,0,0,0,0,0,0,-1,853,659,0,0
-364,365,0,0,0,0,0,0,0,0,0,-1,860,659,0,0
-357,365,0,0,0,0,0,0,0,0,0,-1,867,659,0,0
-350,365,0,0,0,0,0,0,0,0,0,-1,874,659,0,0
-343,365,0,0,0,0,0,0,0,0,0,-1,881,659,0,0
-336,365,0,0,0,0,0,0,0,0,0,-1,888,659,0,0
-329,365,0,0,0,0,0,0,0,0,0,-1,895,659,0,0
-322,365,0,0,0,0,0,0,0,0,0,-1,902,659,0,0
-315,365,0,0,0,0,0,0,0,0,0,-1,909,659,0,0
-308,365,0,0,0,0,0,0,0,0,0,-1,916,659,0,0
-301,365,0,0,0,0,0,0,0,0,0,-1,923,659,0,0
-294,365,0,0,0,0,0,0,0,0,0,-1,930,659,0,0
-287,365,0,0,0,0,0,0,0,0,0,-1,937,659,0,0
-280,365,0,0,0,0,0,0,0,0,0,-1,944,659,0,0
-273,365,0,0,0,0,0,0,0,0,0,-1,951,659,0,0
-266,365,0,0,0,0,0,0,0,0,0,-1,958,659,0,0
-259,365,0,0,0,0,0,0,0,0,0,-1,965,659,0,0
-252,365,0,0,0,0,0,0,0,0,0,-1,972,659,0,0
-245,365,0,0,0,0,0,0,0,0,0,-1,979,659,0,0
-238,365,0,0,0,0,0,0,0,0,0,-1,986,659,0,0
-231,365,0,0,0,0,0,0,0,0,0,-1,993,659,0,0
-224,365,0,0,0,0,0,0,0,0,0,-1,1000,659,0,0
-217,365,0,0,0,0,0,0,0,0,0,-1,1007,659,0,0
-210,365,0,0,0,0,0,0,0,0,0,-1,1014,659,0,0
-203,365,0,0,0,0,0,0,0,0,0,-1,1021,659,0,0
-196,365,0,0,0,0,0,0,0,0,0,-1,1028,659,0,0
-189,365,0,0,0,0,0,0,0,0,0,-1,1035,659,0,0
-182,365,0,0,0,0,0,0,0,0,0,-1,1042,659,0,0
-175,365,0,0,0,0,0,0,0,0,0,-1,1049,659,0,0
-168,365,0,0,0,0,0,0,0,0,0,-1,1056,659,0,0
-161,365,0,0,0,0,0,0,0,0,0,-1,1063,659,0,0
-154,365,0,0,0,0,0,0,0,0,0,-1,1070,659,0,0
-147,365,0,0,0,0,0,0,0,0,0,-1,1077,659,0,0
-140,365,0,0,0,0,0,0,0,0,0,-1,1084,659,0,0
-133,365,0,0,0,0,0,0,0,0,0,-1,1091,659,0,0
-126,365,0,0,0,0,0,0,0,0,0,-1,1098,659,0,0
-119,365,0,0,0,0,0,0,0,0,0,-1,1105,659,0,0
-112,365,0,0,0,0,0,0,0,0,0,-1,1112,659,0,0
-105,365,0,0,0,0,0,0,0,0,0,-1,1119,659,0,0
-98,365,0,0,0,0,0,0,0,0,0,-1,1126,659,0,0
-91,365,0,0,0,0,0,0,0,0,0,-1,1133,659,0,0
-84,365,0,0,0,0,0,0,0,0,0,-1,1140,659,0,0
-77,365,0,0,0,0,0,0,0,0,0,-1,1147,659,0,0
-70,365,0,0,0,0,0,0,0,0,0,-1,1154,659,0,0
-63,365,0,0,0,0,0,0,0,0,0,-1,1161,659,0,0
-56,365,0,0,0,0,0,0,0,0,0,-1,1168,659,0,0
-49,365,0,0,0,0,0,0,0,0,0,-1,1175,659,0,0
-42,365,0,0,0,0,0,0,0,0,0,-1,1182,659,0,0
-35,365,0,0,0,0,0,0,0,0,0,-1,1189,659,0,0
-28,365,0,0,0,0,0,0,0,0,0,-1,1196,659,0,0
-21,365,0,0,0,0,0,0,0,0,0,-1,1203,659,0,0
-14,365,0,0,0,0,0,0,0,0,0,-1,1210,659,0,0
-7,365,0,0,0,0,0,0,0,0,0,-1,1217,659,0,0
0,365,0,0,0,0,0,0,0,0,0,-1,1224,659,0,0
7,365,0,0,0,0,0,0,0,0,0,-1,1231,659,0,0
14,365,0,0,0,0,0,0,0,0,0,-1,1238,659,0,0
21,365,0,0,0,0,0,0,0,0,0,-1,1245,659,0,0
28,365,0,0,0,0,0,0,0,0,0,-1,1252,659,0,0
35,365,0,0,0,0,0,0,0,0,0,-1,1259,659,0,0
42,365,0,0,0,0,0,0,0,0,0,-1,1266,659,0,0
49,365,0,0,0,0,0,0,0,0,0,-1,1273,659,0,0
56,365,0,0,0,0,0,0,0,0,0,-1,1280,659,0,0
63,365,0,0,0,0,0,0,0,0,0,-1,1287,659,0,0
70,365,0,0,0,0,0,0,0,0,0,-1,1294,659,0,0
77,365,0,0,0,0,0,0,0,0,0,-1,1301,659,0,0
84,365,0,0,0,0,0,0,0,0,0,-1,1308,659,0,0
91,365,0,0,0,0,0,0,0,0,0,-1,1315,659,0,0
98,365,0,0,0,0,0,0,0,0,0,-1,1322,659,0,0
105,365,0,0,0,0,0,0,0,0,0,-1,1329,659,0,0
112,365,0,0,0,0,0,0,0,0,0,-1,1336,659,0,0
119,365,0,0,0,0,0,0,0,0,0,-1,1343,659,0,0
126,365,0,0,0,0,0,0,0,0,0,-1,1350,659,0,0
133,365,0,0,0,0,0,0,0,0,0,-1,1357,659,0,0
140,365,0,0,0,0,0,0,0,0,0,-1,1364,659,0,0
147,365,0,0,0,0,0,0,0,0,0,-1,1371,659,0,0
154,365,0,0,0,0,0,0,0,0,0,-1,1378,659,0,0
161,365,0,0,0,0,0,0,0,0,0,-1,1385,659,0,0
168,365,0,0,0,0,0,0,0,0,0,-1,1392,659,0,0
175,365,0,0,0,0,0,0,0,0,0,-1,1399,659,0,0
182,365,0,0,0,0,0,0,0,0,0,-1,1406,659,0,0
189,365,0,0,0,0,0,0,0,0,0,-1,1413,659,0,0
196,365,0,0,0,0,0,0,0,0,0,-1,1420,659,0,0
203,365,0,0,0,0,0,0,0,0,0,-1,1427,659,0,0
210,365,0,0,0,0,0,0,0,0,0,-1,1434,659,0,0
217,365,0,0,0,0,0,0,0,0,0,-1,1441,659,0,0
224,365,0,0,0,0,0,0,0,0,0,-1,1448,659,0,0
231,365,0,0,0,0,0,0,0,0,0,-1,1455,659,0,0
238,365,0,0,0,0,0,0,0,0,0,-1,1462,659,0,0
245,365,0,0,0,0,0,0,0,0,0,-1,1469,659,0,0
252,365,0,0,0,0,0,0,0,0,0,-1,1476,659,0,0
259,365,0,0,0,0,0,0,0,0,0,-1,1483,659,0,0
266,365,0,0,0,0,0,0,0,0,0,-1,1490,659,0,0
273,365,0,0,0,0,0,0,0,0,0,-1,1497,659,0,0
280,365,0,0,0,0,0,0,0,0,0,-1,1504,659,0,0
287,365,0,0,0,0,0,0,0,0,0,-1,1511,659,0,0
294,365,0,0,0,0,0,0,0,0,0,-1,1518,659,0,0
301,365,0,0,0,0,0,0,0,0,0,-1,1525,659,0,0
308,365,0,0,0,0,0,0,0,0,0,-1,1532,659,0,0
315,365,0,0,0,0,0,0,0,0,0,-1,1539,659,0,0
322,365,0,0,0,0,0,0,0,0,0,-1,1546,659,0,0
329,365,0,0,0,0,0,0,0,0,0,-1,1553,659,0,0
336,365,0,0,0,0,0,0,0,0,0,-1,1560,659,0,0
343,365,0,0,0,0,0,0,0,0,0,-1,1567,659,0,0
350,365,0,0,0,0,0,0,0,0,0,-1,1574,659,0,0
357,365,0,0,0,0,0,0,0,0,0,-1,1581,659,0,0
364,365,0,0,0,0,0,0,0,0,0,-1,1588,659,0,0
371,365,0,0,0,0,0,0,0,0,0,-1,1595,659,0,0
378,365,0,0,0,0,0,0,0,0,0,-1,1602,659,0,0
385,365,0,0,0,0,0,0,0,0,0,-1,1609,659,0,0
392,365,0,0,0,0,0,0,0,0,0,-1,1616,659,0,0
399,365,0,0,0,0,0,0,0,0,0,-1,1623,659,0,0
406,365,0,0,0,0,0,0,0,0,0,-1,1630,659,0,0
413,365,0,0,0,0,0,0,0,0,0,-1,1637,659,0,0
420,365,0,0,0,0,0,0,0,0,0,-1,1644,659,0,0
427,365,0,0,0,0,0,0,0,0,0,-1,1651,659,0,0
434,365,0,0,0,0,0,0,0,0,0,-1,1658,659,0,0
441,365,0,0,0,0,0,0,0,0,0,-1,1665,659,0,0
448,365,0,0,0,0,0,0,0,0,0,-1,1672,659,0,0
455,365,0,0,0,0,0,0,0,0,0,-1,1679,659,0,0
462,365,0,0,0,0,0,0,0,0,0,-1,1686,659,0,0
469,365,0,0,0,0,0,0,0,0,0,-1,1693,659,0,0
476,365,0,0,0,0,0,0,0,0,0,-1,1700,659,0,0
483,365,0,0,0,0,0,0,0,0,0,-1,1707,659,0,0
490,365,8.39551,0.471252,0,0,0,0,0,0,0,-1,1714,659,8.39551,-0.471241
497,365,9.89233,1.35394,0,0,0,0,0,0,0,-1,1721,659,9.89237,-1.35396
504,365,10.1414,1.18005,0,0,0,0,0,0,0,-1,1728,659,10.1413,-1.18004
511,365,10.5151,0.993896,0,0,0,0,0,0,0,-1,1735,659,10.5152,-0.993894
518,365,11.2029,0.398132,0,0,0,0,0,0,0,-1,1742,659,11.2029,-0.398136
525,365,15.5748,3.85303,0,0,0,0,0,0,0,-1,1749,659,15.5748,-3.85303
532,365,11.2446,1.00629,0,0,0,0,0,0,0,-1,1756,659,11.2446,-1.00631
539,365,12.6301,1.03204,0,0,0,0,0,0,0,-1,1763,659,12.6302,-1.03204
546,365,11.647,0.84198,0,0,0,0,0,0,0,-1,1770,659,11.6469,-0.841955
553,365,12.028,-0.558899,0,0,0,0,0,0,0,-1,1777,659,12.028,0.558873
560,365,14.5372,-4.55548,0,0,0,0,0,0,0,-1,1784,659,14.5373,4.55547
567,365,20.5676,-7.53888,0,0,0,0,0,0,0,-1,1791,659,20.5676,7.53887
574,365,37.7996,-16.7919,0,0,0,0,0,0,0,-1,1798,659,37.7996,16.7919
581,365,37.3916,-16.1272,0,0,0,0,0,0,0,-1,1805,659,37.3916,16.1272
588,365,37.3651,-15.1505,0.000622159,7.7421e-05,5.56888e-05,0.000627794,7.17862e-05,0.100841,0.000396771,0.0235761,1812,659,37.3651,15.1505
595,365,37.3422,-14.1323,0.000823514,0.000390515,0.000307422,0.00098302,0.000231009,0.478615,0.000593523,0.0145668,1819,659,37.3422,14.1322
602,365,37.2771,-13.1526,0.0011234,0.000746794,0.000573958,0.00153915,0.000331039,0.626892,0.000935488,0.0181015,1826,659,37.2771,13.1526
609,365,37.1145,-12.2082,0.00139713,0.00115912,0.000817868,0.0021046,0.000451641,0.713151,0.00127938,0.0212688,1833,659,37.1145,12.2082
616,365,37.0864,-11.2407,0.00165853,0.00163994,0.00101812,0.0026674,0.000631069,0.780835,0.00160969,0.0226778,1840,659,37.0864,11.2406
623,365,37.1105,-10.2823,0.00197808,0.0021753,0.00125621,0.00333676,0.000816615,0.824568,0.00200843,0.0132748,1847,659,37.1105,10.2823
630,365,37.0784,-9.35034,0.00216419,0.00276208,0.00144055,0.00393437,0.000991894,0.887707,0.00236273,0.0169671,1854,659,37.0783,9.35035
637,365,37.0226,-8.44647,0.00218939,0.00339818,0.00155497,0.00446209,0.00112549,0.970755,0.00267955,0.0227249,1861,659,37.0226,8.4465
644,365,36.962,-7.4967,0.00207306,0.00420059,0.00168375,0.00512846,0.00114519,1.06713,0.00310838,0.0277318,1868,659,36.9621,7.4967
651,365,37.0942,-6.35913,0,0,0,0,0,0,0,-1,1875,659,37.0943,6.35914
658,365,24.745,-2.13275,0,0,0,0,0,0,0,-1,1882,659,24.745,2.13277
665,365,14.0961,0.769043,0,0,0,0,0,0,0,-1,1889,659,14.0961,-0.769063
672,365,10.0579,2.15088,0,0,0,0,0,0,0,-1,1896,659,10.0579,-2.15088
679,365,10.9718,2.19208,0,0,0,0,0,0,0,-1,1903,659,10.9718,-2.19211
686,365,12.2134,2.17108,0,0,0,0,0,0,0,-1,1910,659,12.2134,-2.17109
693,365,13.7141,1.98279,0,0,0,0,0,0,0,-1,1917,659,13.7141,-1.98278
700,365,0,0,0,0,0,0,0,0,0,-1,1924,659,0,0
707,365,0,0,0,0,0,0,0,0,0,-1,1931,659,0,0
714,365,0,0,0,0,0,0,0,0,0,-1,1938,659,0,0
721,365,0,0,0,0,0,0,0,0,0,-1,1945,659,0,0
728,365,0,0,0,0,0,0,0,0,0,-1,1952,659,0,0
735,365,0,0,0,0,0,0,0,0,0,-1,1959,659,0,0
742,365,0,0,0,0,0,0,0,0,0,-1,1966,659,0,0
749,365,0,0,0,0,0,0,0,0,0,-1,1973,659,0,0
756,365,0,0,0,0,0,0,0,0,0,-1,1980,659,0,0
763,365,0,0,0,0,0,0,0,0,0,-1,1987,659,0,0
770,365,0,0,0,0,0,0,0,0,0,-1,1994,659,0,0
777,365,0,0,0,0,0,0,0,0,0,-1,2001,659,0,0
784,365,0,0,0,0,0,0,0,0,0,-1,2008,659,0,0
791,365,0,0,0,0,0,0,0,0,0,-1,2015,659,0,0
798,365,0,0,0,0,0,0,0,0,0,-1,2022,659,0,0
805,365,0,0,0,0,0,0,0,0,0,-1,2029,659,0,0
812,365,0,0,0,0,0,0,0,0,0,-1,2036,659,0,0
-700,358,0,0,0,0,0,0,0,0,0,-1,524,666,0,0
-693,358,0,0,0,0,0,0,0,0,0,-1,531,666,0,0
-686,358,0,0,0,0,0,0,0,0,0,-1,538,666,0,0
-679,358,0,0,0,0,0,0,0,0,0,-1,545,666,0,0
-672,358,0,0,0,0,0,0,0,0,0,-1,552,666,0,0
-665,358,0,0,0,0,0,0,0,0,0,-1,559,666,0,0
-658,358,0,0,0,0,0,0,0,0,0,-1,566,666,0,0
-651,358,0,0,0,0,0,0,0,0,0,-1,573,666,0,0
-644,358,0,0,0,0,0,0,0,0,0,-1,580,666,0,0
-637,358,0,0,0,0,0,0,0,0,0,-1,587,666,0,0
-630,358,0,0,0,0,0,0,0,0,0,-1,594,666,0,0
-623,358,0,0,0,0,0,0,0,0,0,-1,601,666,0,0
-616,358,0,0,0,0,0,0,0,0,0,-1,608,666,0,0
-609,358,0,0,0,0,0,0,0,0,0,-1,615,666,0,0
-602,358,0,0,0,0,0,0,0,0,0,-1,622,666,0,0
-595,358,0,0,0,0,0,0,0,0,0,-1,629,666,0,0
-588,358,0,0,0,0,0,0,0,0,0,-1,636,666,0,0
-581,358,-8.31616,1.61993,0,0,0,0,0,0,0,-1,643,666,-8.31614,-1.61993
-574,358,-8.22406,1.75385,0,0,0,0,0,0,0,-1,650,666,-8.22408,-1.75383
-567,358,-8.14215,1.91577,0,0,0,0,0,0,0,-1,657,666,-8.14214,-1.91579
-560,358,-10.6086,2.18872,0,0,0,0,0,0,0,-1,664,666,-10.6086,-2.18873
-553,358,-13.4767,1.09552,0,0,0,0,0,0,0,-1,671,666,-13.4767,-1.09551
-546,358,-13.3743,-0.185059,0,0,0,0,0,0,0,-1,678,666,-13.3743,0.185037
-539,358,-9.43884,-2.04785,0,0,0,0,0,0,0,-1,685,666,-9.43884,2.04785
-532,358,-12.4141,-2.36572,0,0,0,0,0,0,0,-1,692,666,-12.4141,2.3657
-525,358,-12.731,-3.88031,0,0,0,0,0,0,0,-1,699,666,-12.731,3.88029
-518,358,-22.176,-7.87543,0,0,0,0,0,0,0,-1,706,666,-22.176,7.87542
-511,358,-22.2374,-8.82587,0.00197008,6.40393e-05,-0.00119912,0.00254877,-0.000514647,-0.449626,0.00189418,0.0171566,713,666,-22.2374,8.82585
-504,358,-22.3043,-9.79486,0.0017335,-8.35366e-05,-0.000787457,0.00202727,-0.000377305,-0.357068,0.00149326,0.0123196,720,666,-22.3043,9.79486
-497,358,-22.3604,-10.7855,0.00158458,-0.000188963,-0.000507709,0.00171963,-0.000324019,-0.25999,0.0012683,0.0121332,727,666,-22.3604,10.7855
-490,358,-22.4177,-11.732,0.00148837,-0.000235227,-0.000355787,0.00155893,-0.00030578,-0.195764,0.00115479,0.0119259,734,666,-22.4177,11.732
-483,358,-22.4736,-12.6253,0.00150057,-0.000206068,-0.000335536,0.00156417,-0.000269666,-0.187321,0.00114332,0.0111012,741,666,-22.4736,12.6253
-476,358,-22.4595,-13.5292,0.00160231,-0.000114412,-0.000428481,0.00170331,-0.000215415,-0.231498,0.00121374,0.0149242,748,666,-22.4595,13.5292
-469,358,-22.5714,-14.463,0.00183161,3.71937e-05,-0.000650698,0.00204273,-0.000173926,-0.313735,0.00142334,0.0193973,755,666,-22.5714,14.4629
-462,358,-22.6761,-15.4097,0.00219917,0.000263258,-0.000979997,0.00260865,-0.000146223,-0.39579,0.00178983,0.0192546,762,666,-22.6761,15.4097
-455,358,-22.6891,-16.395,0,0,0,0,0,0,0,-1,769,666,-22.6891,16.395
-448,358,-17.7847,-14.434,0,0,0,0,0,0,0,-1,776,666,-17.7847,14.434
-441,358,-5.56293,-3.98041,0,0,0,0,0,0,0,-1,783,666,-5.56291,3.98043
-434,358,-5.21558,-4.43127,0,0,0,0,0,0,0,-1,790,666,-5.21559,4.43125
-427,358,-3.56189,-3.15729,0,0,0,0,0,0,0,-1,797,666,-3.56192,3.15729
-420,358,0.200195,1.08234,0,0,0,0,0,0,0,-1,804,666,0.200174,-1.08231
-413,358,0.0325317,0.161072,0,0,0,0,0,0,0,-1,811,666,0.0325501,-0.161098
-406,358,-3.85846,0.753113,0,0,0,0,0,0,0,-1,818,666,-3.85846,-0.753129
-399,358,-1.31213,0.190735,0,0,0,0,0,0,0,-1,825,666,-1.31215,-0.190763
-392,358,-3.73914,-0.832214,0,0,0,0,0,0,0,-1,832,666,-3.73915,0.832202
-385,358,-5.95178,-1.69141,0,0,0,0,0,0,0,-1,839,666,-5.9518,1.69143
-378,358,0,0,0,0,0,0,0,0,0,-1,846,666,0,0
-371,358,0,0,0,0,0,0,0,0,0,-1,853,666,0,0
-364,358,0,0,0,0,0,0,0,0,0,-1,860,666,0,0
-357,358,0,0,0,0,0,0,0,0,0,-1,867,666,0,0
-350,358,0,0,0,0,0,0,0,0,0,-1,874,666,0,0
-343,358,0,0,0,0,0,0,0,0,0,-1,881,666,0,0
-336,358,0,0,0,0,0,0,0,0,0,-1,888,666,0,0
-329,358,0,0,0,0,0,0,0,0,0,-1,895,666,0,0
-322,358,0,0,0,0,0,0,0,0,0,-1,902,666,0,0
-315,358,0,0,0,0,0,0,0,0,0,-1,909,666,0,0
-308,358,0,0,0,0,0,0,0,0,0,-1,916,666,0,0
-301,358,0,0,0,0,0,0,0,0,0,-1,923,666,0,0
-294,358,0,0,0,0,0,0,0,0,0,-1,930,666,0,0
-287,358,0,0,0,0,0,0,0,0,0,-1,937,666,0,0
-280,358,0,0,0,0,0,0,0,0,0,-1,944,666,0,0
-273,358,0,0,0,0,0,0,0,0,0,-1,951,666,0,0
-266,358,0,0,0,0,0,0,0,0,0,-1,958,666,0,0
-259,358,0,0,0,0,0,0,0,0,0,-1,965,666,0,0
-252,358,0,0,0,0,0,0,0,0,0,-1,972,666,0,0
-245,358,0,0,0,0,0,0,0,0,0,-1,979,666,0,0
-238,358,0,0,0,0,0,0,0,0,0,-1,986,666,0,0
-231,358,0,0,0,0,0,0,0,0,0,-1,993,666,0,0
-224,358,0,0,0,0,0,0,0,0,0,-1,1000,666,0,0
-217,358,0,0,0,0,0,0,0,0,0,-1,1007,666,0,0
-210,358,0,0,0,0,0,0,0,0,0,-1,1014,666,0,0
-203,358,0,0,0,0,0,0,0,0,0,-1,1021,666,0,0
-196,358,0,0,0,0,0,0,0,0,0,-1,1028,666,0,0
-189,358,0,0,0,0,0,0,0,0,0,-1,1035,666,0,0
-182,358,0,0,0,0,0,0,0,0,0,-1,1042,666,0,0
-175,358,0,0,0,0,0,0,0,0,0,-1,1049,666,0,0
-168,358,0,0,0,0,0,0,0,0,0,-1,1056,666,0,0
-161,358,0,0,0,0,0,0,0,0,0,-1,1063,666,0,0
-154,358,0,0,0,0,0,0,0,0,0,-1,1070,666,0,0
-147,358,0,0,0,0,0,0,0,0,0,-1,1077,666,0,0
-140,358,0,0,0,0,0,0,0,0,0,-1,1084,666,0,0
-133,358,0,0,0,0,0,0,0,0,0,-1,1091,666,0,0
-126,358,0,0,0,0,0,0,0,0,0,-1,1098,666,0,0
-119,358,0,0,0,0,0,0,0,0,0,-1,1105,666,0,0
-112,358,0,0,0,0,0,0,0,0,0,-1,1112,666,0,0
-105,358,0,0,0,0,0,0,0,0,0,-1,1119,666,0,0
-98,358,0,0,0,0,0,0,0,0,0,-1,1126,666,0,0
-91,358,0,0,0,0,0,0,0,0,0,-1,1133,666,0,0
-84,358,0,0,0,0,0,0,0,0,0,-1,1140,666,0,0
-77,358,0,0,0,0,0,0,0,0,0,-1,1147,666,0,0
-70,358,0,0,0,0,0,0,0,0,0,-1,1154,666,0,0
-63,358,0,0,0,0,0,0,0,0,0,-1,1161,666,0,0
-56,358,0,0,0,0,0,0,0,0,0,-1,1168,666,0,0
-49,358,0,0,0,0,0,0,0,0,0,-1,1175,666,0,0
-42,358,0,0,0,0,0,0,0,0,0,-1,1182,666,0,0
-35,358,0,0,0,0,0,0,0,0,0,-1,1189,666,0,0
-28,358,0,0,0,0,0,0,0,0,0,-1,1196,666,0,0
-21,358,0,0,0,0,0,0,0,0,0,-1,1203,666,0,0
-14,358,0,0,0,0,0,0,0,0,0,-1,1210,666,0,0
-7,358,0,0,0,0,0,0,0,0,0,-1,1217,666,0,0
0,358,0,0,0,0,0,0,0,0,0,-1,1224,666,0,0
7,358,0,0,0,0,0,0,0,0,0,-1,1231,666,0,0
14,358,0,0,0,0,0,0,0,0,0,-1,1238,666,0,0
21,358,0,0,0,0,0,0,0,0,0,-1,1245,666,0,0
28,358,0,0,0,0,0,0,0,0,0,-1,1252,666,0,0
35,358,0,0,0,0,0,0,0,0,0,-1,1259,666,0,0
42,358,0,0,0,0,0,0,0,0,0,-1,1266,666,0,0
49,358,0,0,0,0,0,0,0,0,0,-1,1273,666,0,0
56,358,0,0,0,0,0,0,0,0,0,-1,1280,666,0,0
63,358,0,0,0,0,0,0,0,0,0,-1,1287,666,0,0
70,358,0,0,0,0,0,0,0,0,0,-1,1294,666,0,0
77,358,0,0,0,0,0,0,0,0,0,-1,1301,666,0,0
84,358,0,0,0,0,0,0,0,0,0,-1,1308,666,0,0
91,358,0,0,0,0,0,0,0,0,0,-1,1315,666,0,0
98,358,0,0,0,0,0,0,0,0,0,-1,1322,666,0,0
105,358,0,0,0,0,0,0,0,0,0,-1,1329,666,0,0
112,358,0,0,0,0,0,0,0,0,0,-1,1336,666,0,0
119,358,0,0,0,0,0,0,0,0,0,-1,1343,666,0,0
126,358,0,0,0,0,0,0,0,0,0,-1,1350,666,0,0
133,358,0,0,0,0,0,0,0,0,0,-1,1357,666,0,0
140,358,0,0,0,0,0,0,0,0,0,-1,1364,666,0,0
147,358,0,0,0,0,0,0,0,0,0,-1,1371,666,0,0
154,358,0,0,0,0,0,0,0,0,0,-1,1378,666,0,0
161,358,0,0,0,0,0,0,0,0,0,-1,1385,666,0,0
168,358,0,0,0,0,0,0,0,0,0,-1,1392,666,0,0
175,358,0,0,0,0,0,0,0,0,0,-1,1399,666,0,0
182,358,0,0,0,0,0,0,0,0,0,-1,1406,666,0,0
189,358,0,0,0,0,0,0,0,0,0,-1,1413,666,0,0
196,358,0,0,0,0,0,0,0,0,0,-1,1420,666,0,0
203,358,0,0,0,0,0,0,0,0,0,-1,1427,666,0,0
210,358,0,0,0,0,0,0,0,0,0,-1,1434,666,0,0
217,358,0,0,0,0,0,0,0,0,0,-1,1441,666,0,0
224,358,0,0,0,0,0,0,0,0,0,-1,1448,666,0,0
231,358,0,0,0,0,0,0,0,0,0,-1,1455,666,0,0
238,358,0,0,0,0,0,0,0,0,0,-1,1462,666,0,0
245,358,0,0,0,0,0,0,0,0,0,-1,1469,666,0,0
252,358,0,0,0,0,0,0,0,0,0,-1,1476,666,0,0
259,358,0,0,0,0,0,0,0,0,0,-1,1483,666,0,0
266,358,0,0,0,0,0,0,0,0,0,-1,1490,666,0,0
273,358,0,0,0,0,0,0,0,0,0,-1,1497,666,0,0
280,358,0,0,0,0,0,0,0,0,0,-1,1504,666,0,0
287,358,0,0,0,0,0,0,0,0,0,-1,1511,666,0,0
294,358,0,0,0,0,0,0,0,0,0,-1,1518,666,0,0
301,358,0,0,0,0,0,0,0,0,0,-1,1525,666,0,0
308,358,0,0,0,0,0,0,0,0,0,-1,1532,666,0,0
315,358,0,0,0,0,0,0,0,0,0,-1,1539,666,0,0
322,358,0,0,0,0,0,0,0,0,0,-1,1546,666,0,0
329,358,0,0,0,0,0,0,0,0,0,-1,1553,666,0,0
336,358,0,0,0,0,0,0,0,0,0,-1,1560,666,0,0
343,358,0,0,0,0,0,0,0,0,0,-1,1567,666,0,0
350,358,0,0,0,0,0,0,0,0,0,-1,1574,666,0,0
357,358,0,0,0,0,0,0,0,0,0,-1,1581,666,0,0
364,358,0,0,0,0,0,0,0,0,0,-1,1588,666,0,0
371,358,0,0,0,0,0,0,0,0,0,-1,1595,666,0,0
378,358,0,0,0,0,0,0,0,0,0,-1,1602,666,0,0
385,358,0,0,0,0,0,0,0,0,0,-1,1609,666,0,0
392,358,0,0,0,0,0,0,0,0,0,-1,1616,666,0,0
399,358,0,0,0,0,0,0,0,0,0,-1,1623,666,0,0
406,358,0,0,0,0,0,0,0,0,0,-1,1630,666,0,0
413,358,0,0,0,0,0,0,0,0,0,-1,1637,666,0,0
420,358,0,0,0,0,0,0,0,0,0,-1,1644,666,0,0
427,358,0,0,0,0,0,0,0,0,0,-1,1651,666,0,0
434,358,0,0,0,0,0,0,0,0,0,-1,1658,666,0,0
441,358,0,0,0,0,0,0,0,0,0,-1,1665,666,0,0
448,358,0,0,0,0,0,0,0,0,0,-1,1672,666,0,0
455,358,0,0,0,0,0,0,0,0,0,-1,1679,666,0,0
462,358,0,0,0,0,0,0,0,0,0,-1,1686,666,0,0
469,358,0,0,0,0,0,0,0,0,0,-1,1693,666,0,0
476,358,0,0,0,0,0,0,0,0,0,-1,1700,666,0,0
483,358,0,0,0,0,0,0,0,0,0,-1,1707,666,0,0
490,358,0,0,0,0,0,0,0,0,0,-1,1714,666,0,0
497,358,8.57239,1.1322,0,0,0,0,0,0,0,-1,1721,666,8.57234,-1.13219
504,358,10.5972,0.832947,0,0,0,0,0,0,0,-1,1728,666,10.5972,-0.832968
511,358,10.6873,0.868469,0,0,0,0,0,0,0,-1,1735,666,10.6872,-0.868484
518,358,16.5884,2.34894,0,0,0,0,0,0,0,-1,1742,666,16.5884,-2.34894
525,358,15.7626,3.65344,0,0,0,0,0,0,0,-1,1749,666,15.7626,-3.65342
532,358,14.9368,4.95789,0,0,0,0,0,0,0,-1,1756,666,14.9367,-4.9579
539,358,15.1597,3.42694,0,0,0,0,0,0,0,-1,1763,666,15.1597,-3.42692
546,358,12.3792,1.53558,0,0,0,0,0,0,0,-1,1770,666,12.3792,-1.5356
553,358,11.6584,1.26172,0,0,0,0,0,0,0,-1,1777,666,11.6585,-1.26175
560,358,10.8234,1.43042,0,0,0,0,0,0,0,-1,1784,666,10.8233,-1.43041
567,358,10.1333,-0.955139,0,0,0,0,0,0,0,-1,1791,666,10.1333,0.955132
574,358,14.7886,-2.69293,0,0,0,0,0,0,0,-1,1798,666,14.7885,2.6929
581,358,20.1738,-6.76135,0,0,0,0,0,0,0,-1,1805,666,20.1738,6.76137
588,358,38.2411,-15.1449,0,0,0,0,0,0,0,-1,1812,666,38.2411,15.1449
595,358,38.2677,-14.0444,0.000840684,0.00016904,0.000288529,0.000947609,6.21142e-05,0.354897,0.000612086,0.0173446,1819,666,38.2677,14.0445
602,358,38.1886,-13.0509,0.00111598,0.000460796,0.000473837,0.00136444,0.000212334,0.482946,0.000847761,0.0142715,1826,666,38.1885,13.0509
609,358,38.0764,-12.1168,0.00135405,0.000784274,0.00064958,0.00177847,0.000359857,0.578742,0.00108576,0.0180529,1833,666,38.0765,12.1168
616,358,38.0326,-11.1726,0.00153393,0.00115451,0.000787855,0.00215459,0.000533846,0.667252,0.00129564,0.0178666,1840,666,38.0326,11.1726
623,358,38.063,-10.2478,0.00173897,0.00157726,0.000951881,0.00261342,0.000702803,0.743029,0.00156165,0.0149598,1847,666,38.063,10.2478
630,358,38.0138,-9.31677,0.0018352,0.00207602,0.00110046,0.00306263,0.000848584,0.83989,0.00182585,0.0176753,1854,666,38.0138,9.31676
637,358,37.9163,-8.41064,0.00179971,0.00259026,0.00118476,0.00344394,0.000946023,0.946408,0.00205455,0.0253023,1861,666,37.9163,8.41067
644,358,37.8757,-7.47217,0.0016489,0.00322243,0.00126767,0.00392764,0.000943686,1.06313,0.00236741,0.0213641,1868,666,37.8758,7.47216
651,358,37.9351,-6.44354,0,0,0,0,0,0,0,-1,1875,666,37.935,6.44356
658,358,37.6674,-5.16614,0,0,0,0,0,0,0,-1,1882,666,37.6674,5.16616
665,358,28.0272,-2.07764,0,0,0,0,0,0,0,-1,1889,666,28.0272,2.07764
672,358,12.4299,1.47272,0,0,0,0,0,0,0,-1,1896,666,12.4299,-1.4727
679,358,12.1294,2.19702,0,0,0,0,0,0,0,-1,1903,666,12.1294,-2.19703
686,358,11.9557,2.2002,0,0,0,0,0,0,0,-1,1910,666,11.9557,-2.20021
693,358,13.188,2.52203,0,0,0,0,0,0,0,-1,1917,666,13.188,-2.52202
700,358,0,0,0,0,0,0,0,0,0,-1,1924,666,0,0
707,358,0,0,0,0,0,0,0,0,0,-1,1931,666,0,0
714,358,0,0,0,0,0,0,0,0,0,-1,1938,666,0,0
721,358,0,0,0,0,0,0,0,0,0,-1,1945,666,0,0
728,358,0,0,0,0,0,0,0,0,0,-1,1952,666,0,0
735,358,0,0,0,0,0,0,0,0,0,-1,1959,666,0,0
742,358,0,0,0,0,0,0,0,0,0,-1,1966,666,0,0
749,358,0,0,0,0,0,0,0,0,0,-1,1973,666,0,0
756,358,0,0,0,0,0,0,0,0,0,-1,1980,666,0,0
763,358,0,0,0,0,0,0,0,0,0,-1,1987,666,0,0
770,358,0,0,0,0,0,0,0,0,0,-1,1994,666,0,0
777,358,0,0,0,0,0,0,0,0,0,-1,2001,666,0,0
784,358,0,0,0,0,0,0,0,0,0,-1,2008,666,0,0
791,358,0,0,0,0,0,0,0,0,0,-1,2015,666,0,0
798,358,0,0,0,0,0,0,0,0,0,-1,2022,666,0,0
805,358,0,0,0,0,0,0,0,0,0,-1,2029,666,0,0
812,358,0,0,0,0,0,0,0,0,0,-1,2036,666,0,0
-700,351,0,0,0,0,0,0,0,0,0,-1,524,673,0,0
-693,351,0,0,0,0,0,0,0,0,0,-1,531,673,0,0
-686,351,0,0,0,0,0,0,0,0,0,-1,538,673,0,0
-679,351,0,0,0,0,0,0,0,0,0,-1,545,673,0,0
-672,351,0,0,0,0,0,0,0,0,0,-1,552,673,0,0
-665,351,0,0,0,0,0,0,0,0,0,-1,559,673,0,0
-658,351,0,0,0,0,0,0,0,0,0,-1,566,673,0,0
-651,351,0,0,0,0,0,0,0,0,0,-1,573,673,0,0
-644,351,0,0,0,0,0,0,0,0,0,-1,580,673,0,0
-637,351,0,0,0,0,0,0,0,0,0,-1,587,673,0,0
-630,351,0,0,0,0,0,0,0,0,0,-1,594,673,0,0
-623,351,0,0,0,0,0,0,0,0,0,-1,601,673,0,0
-616,351,0,0,0,0,0,0,0,0,0,-1,608,673,0,0
-609,351,0,0,0,0,0,0,0,0,0,-1,615,673,0,0
-602,351,0,0,0,0,0,0,0,0,0,-1,622,673,0,0
-595,351,0,0,0,0,0,0,0,0,0,-1,629,673,0,0
-588,351,0,0,0,0,0,0,0,0,0,-1,636,673,0,0
-581,351,-9.0647,1.71906,0,0,0,0,0,0,0,-1,643,673,-9.06472,-1.71908
-574,351,-8.23584,2.64764,0,0,0,0,0,0,0,-1,650,673,-8.23584,-2.64764
-567,351,-10.8027,4.56836,0,0,0,0,0,0,0,-1,657,673,-10.8027,-4.56839
-560,351,-14.2001,2.17084,0,0,0,0,0,0,0,-1,664,673,-14.2002,-2.17086
-553,351,-13.4979,0.779541,0,0,0,0,0,0,0,-1,671,673,-13.4978,-0.779519
-546,351,-14.0065,0.73645,0,0,0,0,0,0,0,-1,678,673,-14.0065,-0.736473
-539,351,-12.8123,-1.46393,0,0,0,0,0,0,0,-1,685,673,-12.8123,1.46395
-532,351,-16.0198,-4.03937,0,0,0,0,0,0,0,-1,692,673,-16.0198,4.03936
-525,351,-23.199,-6.84393,0,0,0,0,0,0,0,-1,699,673,-23.199,6.84395
-518,351,-23.1584,-7.77972,0.00261761,0.000915693,-0.0020196,0.0039582,-0.000424903,-0.586011,0.00279124,0.0233745,706,673,-23.1584,7.77973
-511,351,-23.1799,-8.76971,0.00221477,0.00038889,-0.00125515,0.00285388,-0.00025022,-0.470973,0.00199124,0.0121478,713,673,-23.1799,8.76972
-504,351,-23.2512,-9.71069,0.00192013,8.69924e-05,-0.000785141,0.00221043,-0.000203313,-0.354159,0.00154586,0.011886,720,673,-23.2512,9.71068
-497,351,-23.3082,-10.6782,0.00172917,-0.000123003,-0.0004579,0.00183619,-0.000230023,-0.229597,0.00130756,0.0114723,727,673,-23.3082,10.6782
-490,351,-23.3575,-11.6262,0.00161875,-0.000193768,-0.000296174,0.00166592,-0.000240937,-0.157934,0.00119902,0.0108372,734,673,-23.3575,11.6262
-483,351,-23.403,-12.5313,0.00162594,-0.000147058,-0.000291245,0.00167256,-0.000193674,-0.158712,0.00118488,0.0126184,741,673,-23.403,12.5313
-476,351,-23.4574,-13.4629,0.00172099,-1.2744e-05,-0.000431112,0.00182227,-0.000114028,-0.230752,0.00125459,0.0113725,748,673,-23.4574,13.4629
-469,351,-23.4935,-14.3706,0.00194223,0.000208617,-0.000727031,0.00220677,-5.59145e-05,-0.348962,0.00149017,0.0129676,755,673,-23.4935,14.3706
-462,351,-23.5375,-15.39,0.00231644,0.000553714,-0.00117146,0.00290106,-3.09121e-05,-0.462893,0.00194443,0.0409416,762,673,-23.5375,15.39
-455,351,-23.5234,-16.4799,0,0,0,0,0,0,0,-1,769,673,-23.5234,16.4799
-448,351,-6.61456,-4.38654,0,0,0,0,0,0,0,-1,776,673,-6.61456,4.38654
-441,351,-4.31567,-2.3009,0,0,0,0,0,0,0,-1,783,673,-4.31565,2.30089
-434,351,-3.81708,-2.28003,0,0,0,0,0,0,0,-1,790,673,-3.81706,2.28006
-427,351,-2.05157,-2.7785,0,0,0,0,0,0,0,-1,797,673,-2.05157,2.77848
-420,351,-1.06989,-2.43665,0,0,0,0,0,0,0,-1,804,673,-1.06991,2.43663
-413,351,-0.392334,-2.06671,0,0,0,0,0,0,0,-1,811,673,-0.392363,2.06672
-406,351,-1.86316,-2.58105,0,0,0,0,0,0,0,-1,818,673,-1.86313,2.58106
-399,351,1.00952,-1.53455,0,0,0,0,0,0,0,-1,825,673,1.00954,1.53457
-392,351,-1.02197,0.877136,0,0,0,0,0,0,0,-1,832,673,-1.02195,-0.877143
-385,351,-1.47205,1.04437,0,0,0,0,0,0,0,-1,839,673,-1.47207,-1.04435
-378,351,0,0,0,0,0,0,0,0,0,-1,846,673,0,0
-371,351,0,0,0,0,0,0,0,0,0,-1,853,673,0,0
-364,351,0,0,0,0,0,0,0,0,0,-1,860,673,0,0
-357,351,0,0,0,0,0,0,0,0,0,-1,867,673,0,0
-350,351,0,0,0,0,0,0,0,0,0,-1,874,673,0,0
-343,351,0,0,0,0,0,0,0,0,0,-1,881,673,0,0
-336,351,0,0,0,0,0,0,0,0,0,-1,888,673,0,0
-329,351,0,0,0,0,0,0,0,0,0,-1,895,673,0,0
-322,351,0,0,0,0,0,0,0,0,0,-1,902,673,0,0
-315,351,0,0,0,0,0,0,0,0,0,-1,909,673,0,0
-308,351,0,0,0,0,0,0,0,0,0,-1,916,673,0,0
-301,351,0,0,0,0,0,0,0,0,0,-1,923,673,0,0
-294,351,0,0,0,0,0,0,0,0,0,-1,930,673,0,0
-287,351,0,0,0,0,0,0,0,0,0,-1,937,673,0,0
-280,351,0,0,0,0,0,0,0,0,0,-1,944,673,0,0
-273,351,0,0,0,0,0,0,0,0,0,-1,951,673,0,0
-266,351,0,0,0,0,0,0,0,0,0,-1,958,673,0,0
-259,351,0,0,0,0,0,0,0,0,0,-1,965,673,0,0
-252,351,0,0,0,0,0,0,0,0,0,-1,972,673,0,0
-245,351,0,0,0,0,0,0,0,0,0,-1,979,673,0,0
-238,351,0,0,0,0,0,0,0,0,0,-1,986,673,0,0
-231,351,0,0,0,0,0,0,0,0,0,-1,993,673,0,0
-224,351,0,0,0,0,0,0,0,0,0,-1,1000,673,0,0
-217,351,0,0,0,0,0,0,0,0,0,-1,1007,673,0,0
-210,351,0,0,0,0,0,0,0,0,0,-1,1014,673,0,0
-203,351,0,0,0,0,0,0,0,0,0,-1,1021,673,0,0
-196,351,0,0,0,0,0,0,0,0,0,-1,1028,673,0,0
-189,351,0,0,0,0,0,0,0,0,0,-1,1035,673,0,0
-182,351,0,0,0,0,0,0,0,0,0,-1,1042,673,0,0
-175,351,0,0,0,0,0,0,0,0,0,-1,1049,673,0,0
-168,351,0,0,0,0,0,0,0,0,0,-1,1056,673,0,0
-161,351,0,0,0,0,0,0,0,0,0,-1,1063,673,0,0
-154,351,0,0,0,0,0,0,0,0,0,-1,1070,673,0,0
-147,351,0,0,0,0,0,0,0,0,0,-1,1077,673,0,0
-140,351,0,0,0,0,0,0,0,0,0,-1,1084,673,0,0
-133,351,0,0,0,0,0,0,0,0,0,-1,1091,673,0,0
-126,351,0,0,0,0,0,0,0,0,0,-1,1098,673,0,0
-119,351,0,0,0,0,0,0,0,0,0,-1,1105,673,0,0
-112,351,0,0,0,0,0,0,0,0,0,-1,1112,673,0,0
-105,351,0,0,0,0,0,0,0,0,0,-1,1119,673,0,0
-98,351,0,0,0,0,0,0,0,0,0,-1,1126,673,0,0
-91,351,0,0,0,0,0,0,0,0,0,-1,1133,673,0,0
-84,351,0,0,0,0,0,0,0,0,0,-1,1140,673,0,0
-77,351,0,0,0,0,0,0,0,0,0,-1,1147,673,0,0
-70,351,0,0,0,0,0,0,0,0,0,-1,1154,673,0,0
-63,351,0,0,0,0,0,0,0,0,0,-1,1161,673,0,0
-56,351,0,0,0,0,0,0,0,0,0,-1,1168,673,0,0
-49,351,0,0,0,0,0,0,0,0,0,-1,1175,673,0,0
-42,351,0,0,0,0,0,0,0,0,0,-1,1182,673,0,0
-35,351,0,0,0,0,0,0,0,0,0,-1,1189,673,0,0
-28,351,0,0,0,0,0,0,0,0,0,-1,1196,673,0,0
-21,351,0,0,0,0,0,0,0,0,0,-1,1203,673,0,0
-14,351,0,0,0,0,0,0,0,0,0,-1,1210,673,0,0
-7,351,0,0,0,0,0,0,0,0,0,-1,1217,673,0,0
0,351,0,0,0,0,0,0,0,0,0,-1,1224,673,0,0
7,351,0,0,0,0,0,0,0,0,0,-1,1231,673,0,0
14,351,0,0,0,0,0,0,0,0,0,-1,1238,673,0,0
21,351,0,0,0,0,0,0,0,0,0,-1,1245,673,0,0
28,351,0,0,0,0,0,0,0,0,0,-1,1252,673,0,0
35,351,0,0,0,0,0,0,0,0,0,-1,1259,673,0,0
42,351,0,0,0,0,0,0,0,0,0,-1,1266,673,0,0
49,351,0,0,0,0,0,0,0,0,0,-1,1273,673,0,0
56,351,0,0,0,0,0,0,0,0,0,-1,1280,673,0,0
63,351,0,0,0,0,0,0,0,0,0,-1,1287,673,0,0
70,351,0,0,0,0,0,0,0,0,0,-1,1294,673,0,0
77,351,0,0,0,0,0,0,0,0,0,-1,1301,673,0,0
84,351,0,0,0,0,0,0,0,0,0,-1,1308,673,0,0
91,351,0,0,0,0,0,0,0,0,0,-1,1315,673,0,0
98,351,0,0,0,0,0,0,0,0,0,-1,1322,673,0,0
105,351,0,0,0,0,0,0,0,0,0,-1,1329,673,0,0
112,351,0,0,0,0,0,0,0,0,0,-1,1336,673,0,0
119,351,0,0,0,0,0,0,0,0,0,-1,1343,673,0,0
126,351,0,0,0,0,0,0,0,0,0,-1,1350,673,0,0
133,351,0,0,0,0,0,0,0,0,0,-1,1357,673,0,0
140,351,0,0,0,0,0,0,0,0,0,-1,1364,673,0,0
147,351,0,0,0,0,0,0,0,0,0,-1,1371,673,0,0
154,351,0,0,0,0,0,0,0,0,0,-1,1378,673,0,0
161,351,0,0,0,0,0,0,0,0,0,-1,1385,673,0,0
168,351,0,0,0,0,0,0,0,0,0,-1,1392,673,0,0
175,351,0,0,0,0,0,0,0,0,0,-1,1399,673,0,0
182,351,0,0,0,0,0,0,0,0,0,-1,1406,673,0,0
189,351,0,0,0,0,0,0,0,0,0,-1,1413,673,0,0
196,351,0,0,0,0,0,0,0,0,0,-1,1420,673,0,0
203,351,0,0,0,0,0,0,0,0,0,-1,1427,673,0,0
210,351,0,0,0,0,0,0,0,0,0,-1,1434,673,0,0
217,351,0,0,0,0,0,0,0,0,0,-1,1441,673,0,0
224,351,0,0,0,0,0,0,0,0,0,-1,1448,673,0,0
231,351,0,0,0,0,0,0,0,0,0,-1,1455,673,0,0
238,351,0,0,0,0,0,0,0,0,0,-1,1462,673,0,0
245,351,0,0,0,0,0,0,0,0,0,-1,1469,673,0,0
252,351,0,0,0,0,0,0,0,0,0,-1,1476,673,0,0
259,351,0,0,0,0,0,0,0,0,0,-1,1483,673,0,0
266,351,0,0,0,0,0,0,0,0,0,-1,1490,673,0,0
273,351,0,0,0,0,0,0,0,0,0,-1,1497,673,0,0
280,351,0,0,0,0,0,0,0,0,0,-1,1504,673,0,0
287,351,0,0,0,0,0,0,0,0,0,-1,1511,673,0,0
294,351,0,0,0,0,0,0,0,0,0,-1,1518,673,0,0
301,351,0,0,0,0,0,0,0,0,0,-1,1525,673,0,0
308,351,0,0,0,0,0,0,0,0,0,-1,1532,673,0,0
315,351,0,0,0,0,0,0,0,0,0,-1,1539,673,0,0
322,351,0,0,0,0,0,0,0,0,0,-1,1546,673,0,0
329,351,0,0,0,0,0,0,0,0,0,-1,1553,673,0,0
336,351,0,0,0,0,0,0,0,0,0,-1,1560,673,0,0
343,351,0,0,0,0,0,0,0,0,0,-1,1567,673,0,0
350,351,0,0,0,0,0,0,0,0,0,-1,1574,673,0,0
357,351,0,0,0,0,0,0,0,0,0,-1,1581,673,0,0
364,351,0,0,0,0,0,0,0,0,0,-1,1588,673,0,0
371,351,0,0,0,0,0,0,0,0,0,-1,1595,673,0,0
378,351,0,0,0,0,0,0,0,0,0,-1,1602,673,0,0
385,351,0,0,0,0,0,0,0,0,0,-1,1609,673,0,0
392,351,0,0,0,0,0,0,0,0,0,-1,1616,673,0,0
399,351,0,0,0,0,0,0,0,0,0,-1,1623,673,0,0
406,351,0,0,0,0,0,0,0,0,0,-1,1630,673,0,0
413,351,0,0,0,0,0,0,0,0,0,-1,1637,673,0,0
420,351,0,0,0,0,0,0,0,0,0,-1,1644,673,0,0
427,351,0,0,0,0,0,0,0,0,0,-1,1651,673,0,0
434,351,0,0,0,0,0,0,0,0,0,-1,1658,673,0,0
441,351,0,0,0,0,0,0,0,0,0,-1,1665,673,0,0
448,351,0,0,0,0,0,0,0,0,0,-1,1672,673,0,0
455,351,0,0,0,0,0,0,0,0,0,-1,1679,673,0,0
462,351,0,0,0,0,0,0,0,0,0,-1,1686,673,0,0
469,351,0,0,0,0,0,0,0,0,0,-1,1693,673,0,0
476,351,0,0,0,0,0,0,0,0,0,-1,1700,673,0,0
483,351,0,0,0,0,0,0,0,0,0,-1,1707,673,0,0
490,351,0,0,0,0,0,0,0,0,0,-1,1714,673,0,0
497,351,0,0,0,0,0,0,0,0,0,-1,1721,673,0,0
504,351,10.8842,1.61615,0,0,0,0,0,0,0,-1,1728,673,10.8842,-1.61618
511,351,15.4548,0.0236816,0,0,0,0,0,0,0,-1,1735,673,15.4549,-0.0236664
518,351,16.7448,2.49268,0,0,0,0,0,0,0,-1,1742,673,16.7448,-2.49269
525,351,16.0701,3.43225,0,0,0,0,0,0,0,-1,1749,673,16.07,-3.43227
532,351,32.3822,3.03021,0,0,0,0,0,0,0,-1,1756,673,32.3822,-3.03019
539,351,15.3387,3.54486,0,0,0,0,0,0,0,-1,1763,673,15.3387,-3.54485
546,351,13.9387,4.59357,0,0,0,0,0,0,0,-1,1770,673,13.9388,-4.59359
553,351,12.0682,2.02832,0,0,0,0,0,0,0,-1,1777,673,12.0683,-2.02831
560,351,12.0173,0.55304,0,0,0,0,0,0,0,-1,1784,673,12.0174,-0.553028
567,351,10.7827,0.130188,0,0,0,0,0,0,0,-1,1791,673,10.7827,-0.130183
574,351,13.405,-1.09204,0,0,0,0,0,0,0,-1,1798,673,13.405,1.09207
581,351,15.2351,-3.06049,0,0,0,0,0,0,0,-1,1805,673,15.2351,3.06046
588,351,39.1105,-15.0378,0,0,0,0,0,0,0,-1,1812,673,39.1104,15.0378
595,351,39.1819,-14.0313,0.000977018,0.000115368,0.000486833,0.00119628,-0.000103896,0.423178,0.000834313,0.0427904,1819,673,39.1819,14.0313
602,351,39.158,-13.0352,0.00117642,0.000293671,0.000502533,0.00140389,6.6202e-05,0.425051,0.000914656,0.0188891,1826,673,39.1579,13.0352
609,351,39.1226,-12.1107,0.00136401,0.000490043,0.000558923,0.0016365,0.000217556,0.453616,0.0010262,0.0175601,1833,673,39.1226,12.1106
616,351,39.0543,-11.1645,0.00145762,0.000729177,0.000613327,0.00180672,0.000380078,0.517456,0.0010999,0.0155736,1840,673,39.0543,11.1645
623,351,39.0491,-10.2295,0.00154501,0.00104374,0.000686487,0.00202519,0.00056357,0.610368,0.00120695,0.015754,1847,673,39.049,10.2295
630,351,38.9773,-9.2771,0.00156533,0.00145529,0.000790642,0.00230287,0.000717757,0.750661,0.00136063,0.0249938,1854,673,38.9773,9.27712
637,351,38.86,-8.35339,0.00150409,0.00189208,0.00086518,0.00258475,0.000811422,0.895687,0.00152636,0.0299593,1861,673,38.8599,8.35341
644,351,38.7948,-7.39325,0.00137016,0.0024188,0.000940248,0.00297104,0.000817922,1.03974,0.00177213,0.0218975,1868,673,38.7948,7.39327
651,351,38.7722,-6.3559,0.00122128,0.00308067,0.00106108,0.00356173,0.000740222,1.14515,0.00217024,0.0178354,1875,673,38.7723,6.35592
658,351,38.6453,-5.33972,0.000966777,0.00388312,0.00112559,0.00426702,0.000582877,1.2421,0.00267167,0.0477871,1882,673,38.6453,5.33974
665,351,38.3322,-4.245,0,0,0,0,0,0,0,-1,1889,673,38.3321,4.24499
672,351,34.9646,-3.1748,0,0,0,0,0,0,0,-1,1896,673,34.9646,3.17482
679,351,14.1252,1.85681,0,0,0,0,0,0,0,-1,1903,673,14.1253,-1.85682
686,351,13.0294,2.1189,0,0,0,0,0,0,0,-1,1910,673,13.0294,-2.11892
693,351,13.5187,2.34595,0,0,0,0,0,0,0,-1,1917,673,13.5187,-2.34596
700,351,14.5629,-2.40173,0,0,0,0,0,0,0,-1,1924,673,14.5629,2.40172
707,351,0,0,0,0,0,0,0,0,0,-1,1931,673,0,0
714,351,0,0,0,0,0,0,0,0,0,-1,1938,673,0,0
721,351,0,0,0,0,0,0,0,0,0,-1,1945,673,0,0
728,351,0,0,0,0,0,0,0,0,0,-1,1952,673,0,0
735,351,0,0,0,0,0,0,0,0,0,-1,1959,673,0,0
742,351,0,0,0,0,0,0,0,0,0,-1,1966,673,0,0
749,351,0,0,0,0,0,0,0,0,0,-1,1973,673,0,0
756,351,0,0,0,0,0,0,0,0,0,-1,1980,673,0,0
763,351,0,0,0,0,0,0,0,0,0,-1,1987,673,0,0
770,351,0,0,0,0,0,0,0,0,0,-1,1994,673,0,0
777,351,0,0,0,0,0,0,0,0,0,-1,2001,673,0,0
784,351,0,0,0,0,0,0,0,0,0,-1,2008,673,0,0
791,351,0,0,0,0,0,0,0,0,0,-1,2015,673,0,0
798,351,0,0,0,0,0,0,0,0,0,-1,2022,673,0,0
805,351,0,0,0,0,0,0,0,0,0,-1,2029,673,0,0
812,351,0,0,0,0,0,0,0,0,0,-1,2036,673,0,0
-700,344,0,0,0,0,0,0,0,0,0,-1,524,680,0,0
-693,344,0,0,0,0,0,0,0,0,0,-1,531,680,0,0
-686,344,0,0,0,0,0,0,0,0,0,-1,538,680,0,0
-679,344,0,0,0,0,0,0,0,0,0,-1,545,680,0,0
-672,344,0,0,0,0,0,0,0,0,0,-1,552,680,0,0
-665,344,0,0,0,0,0,0,0,0,0,-1,559,680,0,0
-658,344,0,0,0,0,0,0,0,0,0,-1,566,680,0,0
-651,344,0,0,0,0,0,0,0,0,0,-1,573,680,0,0
-644,344,0,0,0,0,0,0,0,0,0,-1,580,680,0,0
-637,344,0,0,0,0,0,0,0,0,0,-1,587,680,0,0
-630,344,0,0,0,0,0,0,0,0,0,-1,594,680,0,0
-623,344,0,0,0,0,0,0,0,0,0,-1,601,680,0,0
-616,344,0,0,0,0,0,0,0,0,0,-1,608,680,0,0
-609,344,0,0,0,0,0,0,0,0,0,-1,615,680,0,0
-602,344,0,0,0,0,0,0,0,0,0,-1,622,680,0,0
-595,344,0,0,0,0,0,0,0,0,0,-1,629,680,0,0
-588,344,-9.27826,1.47302,0,0,0,0,0,0,0,-1,636,680,-9.27829,-1.473
-581,344,-10.0098,1.71753,0,0,0,0,0,0,0,-1,643,680,-10.0098,-1.7175
-574,344,-10.2208,3.04871,0,0,0,0,0,0,0,-1,650,680,-10.2208,-3.04869
-567,344,-14.3779,2.29016,0,0,0,0,0,0,0,-1,657,680,-14.3779,-2.29014
-560,344,-14.1238,1.8374,0,0,0,0,0,0,0,-1,664,680,-14.1238,-1.83743
-553,344,-14.7884,2.00116,0,0,0,0,0,0,0,-1,671,680,-14.7884,-2.00115
-546,344,-17.4192,0.157654,0,0,0,0,0,0,0,-1,678,680,-17.4192,-0.157635
-539,344,-17.2671,-2.75714,0,0,0,0,0,0,0,-1,685,680,-17.2671,2.75712
-532,344,-18.4417,-4.38605,0,0,0,0,0,0,0,-1,692,680,-18.4417,4.38603
-525,344,-24.0536,-6.78979,0,0,0,0,0,0,0,-1,699,680,-24.0536,6.78981
-518,344,-24.1049,-7.73804,0.00269393,0.0012338,-0.00191724,0.0040154,-8.76687e-05,-0.603479,0.00270663,0.0202001,706,680,-24.1049,7.73803
-511,344,-24.1523,-8.69873,0.00222999,0.000537909,-0.00116299,0.00282212,-5.42178e-05,-0.470935,0.00189974,0.0171905,713,680,-24.1523,8.69875
-504,344,-24.2014,-9.64648,0.00189977,7.13926e-05,-0.000654393,0.00210985,-0.000138683,-0.310631,0.001455,0.018473,720,680,-24.2014,9.6465
-497,344,-24.2579,-10.6305,0.0016857,-0.00023223,-0.000298833,0.00173119,-0.000277713,-0.151041,0.00125696,0.0167415,727,680,-24.2579,10.6305
-490,344,-24.3034,-11.5881,0.00157297,-0.000336364,-0.00014097,0.00158332,-0.000346716,-0.0733021,0.0011881,0.0151014,734,680,-24.3034,11.5881
-483,344,-24.3307,-12.4886,0.00158565,-0.00027022,-0.00016571,0.00160033,-0.0002849,-0.0883583,0.00117344,0.0150085,741,680,-24.3307,12.4887
-476,344,-24.378,-13.4273,0.00170049,-8.40722e-05,-0.000380429,0.00177821,-0.000161787,-0.201509,0.00124291,0.0146159,748,680,-24.378,13.4273
-469,344,-24.4083,-14.4029,0.00192873,0.000242081,-0.00077857,0.00223317,-6.23607e-05,-0.372747,0.00151,0.0228827,755,680,-24.4083,14.4029
-462,344,-24.3671,-15.4482,0,0,0,0,0,0,0,-1,762,680,-24.3671,15.4482
-455,344,-12.1653,-7.99176,0,0,0,0,0,0,0,-1,769,680,-12.1653,7.99174
-448,344,-5.67657,-2.72864,0,0,0,0,0,0,0,-1,776,680,-5.6766,2.72863
-441,344,-5.09229,-2.34167,0,0,0,0,0,0,0,-1,783,680,-5.09229,2.34168
-434,344,-4.28778,-2.08807,0,0,0,0,0,0,0,-1,790,680,-4.28778,2.08809
-427,344,-3.06506,-1.45404,0,0,0,0,0,0,0,-1,797,680,-3.06505,1.45402
-420,344,-1.96582,-1.57574,0,0,0,0,0,0,0,-1,804,680,-1.96579,1.57574
-413,344,-0.817993,-1.4751,0,0,0,0,0,0,0,-1,811,680,-0.818017,1.47511
-406,344,-0.00714111,-1.25189,0,0,0,0,0,0,0,-1,818,680,-0.00714956,1.25191
-399,344,0.240051,-1.75769,0,0,0,0,0,0,0,-1,825,680,0.240079,1.75767
-392,344,1.11353,-2.05615,0,0,0,0,0,0,0,-1,832,680,1.11351,2.05616
-385,344,0,0,0,0,0,0,0,0,0,-1,839,680,0,0
-378,344,0,0,0,0,0,0,0,0,0,-1,846,680,0,0
-371,344,0,0,0,0,0,0,0,0,0,-1,853,680,0,0
-364,344,0,0,0,0,0,0,0,0,0,-1,860,680,0,0
-357,344,0,0,0,0,0,0,0,0,0,-1,867,680,0,0
-350,344,0,0,0,0,0,0,0,0,0,-1,874,680,0,0
-343,344,0,0,0,0,0,0,0,0,0,-1,881,680,0,0
-336,344,0,0,0,0,0,0,0,0,0,-1,888,680,0,0
-329,344,0,0,0,0,0,0,0,0,0,-1,895,680,0,0
-322,344,0,0,0,0,0,0,0,0,0,-1,902,680,0,0
-315,344,0,0,0,0,0,0,0,0,0,-1,909,680,0,0
-308,344,0,0,0,0,0,0,0,0,0,-1,916,680,0,0
-301,344,0,0,0,0,0,0,0,0,0,-1,923,680,0,0
-294,344,0,0,0,0,0,0,0,0,0,-1,930,680,0,0
-287,344,0,0,0,0,0,0,0,0,0,-1,937,680,0,0
-280,344,0,0,0,0,0,0,0,0,0,-1,944,680,0,0
-273,344,0,0,0,0,0,0,0,0,0,-1,951,680,0,0
-266,344,0,0,0,0,0,0,0,0,0,-1,958,680,0,0
-259,344,0,0,0,0,0,0,0,0,0,-1,965,680,0,0
-252,344,0,0,0,0,0,0,0,0,0,-1,972,680,0,0
-245,344,0,0,0,0,0,0,0,0,0,-1,979,680,0,0
-238,344,0,0,0,0,0,0,0,0,0,-1,986,680,0,0
-231,344,0,0,0,0,0,0,0,0,0,-1,993,680,0,0
-224,344,0,0,0,0,0,0,0,0,0,-1,1000,680,0,0
-217,344,0,0,0,0,0,0,0,0,0,-1,1007,680,0,0
-210,344,0,0,0,0,0,0,0,0,0,-1,1014,680,0,0
-203,344,0,0,0,0,0,0,0,0,0,-1,1021,680,0,0
-196,344,0,0,0,0,0,0,0,0,0,-1,1028,680,0,0
-189,344,0,0,0,0,0,0,0,0,0,-1,1035,680,0,0
-182,344,0,0,0,0,0,0,0,0,0,-1,1042,680,0,0
-175,344,0,0,0,0,0,0,0,0,0,-1,1049,680,0,0
-168,344,0,0,0,0,0,0,0,0,0,-1,1056,680,0,0
-161,344,0,0,0,0,0,0,0,0,0,-1,1063,680,0,0
-154,344,0,0,0,0,0,0,0,0,0,-1,1070,680,0,0
-147,344,0,0,0,0,0,0,0,0,0,-1,1077,680,0,0
-140,344,0,0,0,0,0,0,0,0,0,-1,1084,680,0,0
-133,344,0,0,0,0,0,0,0,0,0,-1,1091,680,0,0
-126,344,0,0,0,0,0,0,0,0,0,-1,1098,680,0,0
-119,344,0,0,0,0,0,0,0,0,0,-1,1105,680,0,0
-112,344,0,0,0,0,0,0,0,0,0,-1,1112,680,0,0
-105,344,0,0,0,0,0,0,0,0,0,-1,1119,680,0,0
-98,344,0,0,0,0,0,0,0,0,0,-1,1126,680,0,0
-91,344,0,0,0,0,0,0,0,0,0,-1,1133,680,0,0
-84,344,0,0,0,0,0,0,0,0,0,-1,1140,680,0,0
-77,344,0,0,0,0,0,0,0,0,0,-1,1147,680,0,0
-70,344,0,0,0,0,0,0,0,0,0,-1,1154,680,0,0
-63,344,0,0,0,0,0,0,0,0,0,-1,1161,680,0,0
-56,344,0,0,0,0,0,0,0,0,0,-1,1168,680,0,0
-49,344,0,0,0,0,0,0,0,0,0,-1,1175,680,0,0
-42,344,0,0,0,0,0,0,0,0,0,-1,1182,680,0,0
-35,344,0,0,0,0,0,0,0,0,0,-1,1189,680,0,0
-28,344,0,0,0,0,0,0,0,0,0,-1,1196,680,0,0
-21,344,0,0,0,0,0,0,0,0,0,-1,1203,680,0,0
-14,344,0,0,0,0,0,0,0,0,0,-1,1210,680,0,0
-7,344,0,0,0,0,0,0,0,0,0,-1,1217,680,0,0
0,344,0,0,0,0,0,0,0,0,0,-1,1224,680,0,0
7,344,0,0,0,0,0,0,0,0,0,-1,1231,680,0,0
14,344,0,0,0,0,0,0,0,0,0,-1,1238,680,0,0
21,344,0,0,0,0,0,0,0,0,0,-1,1245,680,0,0
28,344,0,0,0,0,0,0,0,0,0,-1,1252,680,0,0
35,344,0,0,0,0,0,0,0,0,0,-1,1259,680,0,0
42,344,0,0,0,0,0,0,0,0,0,-1,1266,680,0,0
49,344,0,0,0,0,0,0,0,0,0,-1,1273,680,0,0
56,344,0,0,0,0,0,0,0,0,0,-1,1280,680,0,0
63,344,0,0,0,0,0,0,0,0,0,-1,1287,680,0,0
70,344,0,0,0,0,0,0,0,0,0,-1,1294,680,0,0
77,344,0,0,0,0,0,0,0,0,0,-1,1301,680,0,0
84,344,0,0,0,0,0,0,0,0,0,-1,1308,680,0,0
91,344,0,0,0,0,0,0,0,0,0,-1,1315,680,0,0
98,344,0,0,0,0,0,0,0,0,0,-1,1322,680,0,0
105,344,0,0,0,0,0,0,0,0,0,-1,1329,680,0,0
112,344,0,0,0,0,0,0,0,0,0,-1,1336,680,0,0
119,344,0,0,0,0,0,0,0,0,0,-1,1343,680,0,0
126,344,0,0,0,0,0,0,0,0,0,-1,1350,680,0,0
133,344,0,0,0,0,0,0,0,0,0,-1,1357,680,0,0
140,344,0,0,0,0,0,0,0,0,0,-1,1364,680,0,0
147,344,0,0,0,0,0,0,0,0,0,-1,1371,680,0,0
154,344,0,0,0,0,0,0,0,0,0,-1,1378,680,0,0
161,344,0,0,0,0,0,0,0,0,0,-1,1385,680,0,0
168,344,0,0,0,0,0,0,0,0,0,-1,1392,680,0,0
175,344,0,0,0,0,0,0,0,0,0,-1,1399,680,0,0
182,344,0,0,0,0,0,0,0,0,0,-1,1406,680,0,0
189,344,0,0,0,0,0,0,0,0,0,-1,1413,680,0,0
196,344,0,0,0,0,0,0,0,0,0,-1,1420,680,0,0
203,344,0,0,0,0,0,0,0,0,0,-1,1427,680,0,0
210,344,0,0,0,0,0,0,0,0,0,-1,1434,680,0,0
217,344,0,0,0,0,0,0,0,0,0,-1,1441,680,0,0
224,344,0,0,0,0,0,0,0,0,0,-1,1448,680,0,0
231,344,0,0,0,0,0,0,0,0,0,-1,1455,680,0,0
238,344,0,0,0,0,0,0,0,0,0,-1,1462,680,0,0
245,344,0,0,0,0,0,0,0,0,0,-1,1469,680,0,0
252,344,0,0,0,0,0,0,0,0,0,-1,1476,680,0,0
259,344,0,0,0,0,0,0,0,0,0,-1,1483,680,0,0
266,344,0,0,0,0,0,0,0,0,0,-1,1490,680,0,0
273,344,0,0,0,0,0,0,0,0,0,-1,1497,680,0,0
280,344,0,0,0,0,0,0,0,0,0,-1,1504,680,0,0
287,344,0,0,0,0,0,0,0,0,0,-1,1511,680,0,0
294,344,0,0,0,0,0,0,0,0,0,-1,1518,680,0,0
301,344,0,0,0,0,0,0,0,0,0,-1,1525,680,0,0
308,344,0,0,0,0,0,0,0,0,0,-1,1532,680,0,0
315,344,0,0,0,0,0,0,0,0,0,-1,1539,680,0,0
322,344,0,0,0,0,0,0,0,0,0,-1,1546,680,0,0
329,344,0,0,0,0,0,0,0,0,0,-1,1553,680,0,0
336,344,0,0,0,0,0,0,0,0,0,-1,1560,680,0,0
343,344,0,0,0,0,0,0,0,0,0,-1,1567,680,0,0
350,344,0,0,0,0,0,0,0,0,0,-1,1574,680,0,0
357,344,0,0,0,0,0,0,0,0,0,-1,1581,680,0,0
364,344,0,0,0,0,0,0,0,0,0,-1,1588,680,0,0
371,344,0,0,0,0,0,0,0,0,0,-1,1595,680,0,0
378,344,0,0,0,0,0,0,0,0,0,-1,1602,680,0,0
385,344,0,0,0,0,0,0,0,0,0,-1,1609,680,0,0
392,344,0,0,0,0,0,0,0,0,0,-1,1616,680,0,0
399,344,0,0,0,0,0,0,0,0,0,-1,1623,680,0,0
406,344,0,0,0,0,0,0,0,0,0,-1,1630,680,0,0
413,344,0,0,0,0,0,0,0,0,0,-1,1637,680,0,0
420,344,0,0,0,0,0,0,0,0,0,-1,1644,680,0,0
427,344,0,0,0,0,0,0,0,0,0,-1,1651,680,0,0
434,344,0,0,0,0,0,0,0,0,0,-1,1658,680,0,0
441,344,0,0,0,0,0,0,0,0,0,-1,1665,680,0,0
448,344,0,0,0,0,0,0,0,0,0,-1,1672,680,0,0
455,344,0,0,0,0,0,0,0,0,0,-1,1679,680,0,0
462,344,0,0,0,0,0,0,0,0,0,-1,1686,680,0,0
469,344,0,0,0,0,0,0,0,0,0,-1,1693,680,0,0
476,344,0,0,0,0,0,0,0,0,0,-1,1700,680,0,0
483,344,0,0,0,0,0,0,0,0,0,-1,1707,680,0,0
490,344,0,0,0,0,0,0,0,0,0,-1,1714,680,0,0
497,344,0,0,0,0,0,0,0,0,0,-1,1721,680,0,0
504,344,0,0,0,0,0,0,0,0,0,-1,1728,680,0,0
511,344,15.4819,0.452637,0,0,0,0,0,0,0,-1,1735,680,15.4819,-0.452656
518,344,17.1357,2.31207,0,0,0,0,0,0,0,-1,1742,680,17.1358,-2.31207
525,344,31.5201,2.6217,0,0,0,0,0,0,0,-1,1749,680,31.5201,-2.62168
532,344,31.9766,2.61047,0,0,0,0,0,0,0,-1,1756,680,31.9765,-2.6105
539,344,32.4379,2.65314,0,0,0,0,0,0,0,-1,1763,680,32.4378,-2.65316
546,344,14.6722,4.30243,0,0,0,0,0,0,0,-1,1770,680,14.6722,-4.30241
553,344,14.8136,4.35681,0,0,0,0,0,0,0,-1,1777,680,14.8136,-4.35679
560,344,11.9363,2.14185,0,0,0,0,0,0,0,-1,1784,680,11.9362,-2.14182
567,344,11.397,0.925842,0,0,0,0,0,0,0,-1,1791,680,11.397,-0.92583
574,344,10.0004,0.504639,0,0,0,0,0,0,0,-1,1798,680,10.0004,-0.504645
581,344,13.6709,-0.969604,0,0,0,0,0,0,0,-1,1805,680,13.6709,0.969629
588,344,16.1447,-3.15948,0,0,0,0,0,0,0,-1,1812,680,16.1447,3.15946
595,344,40.0643,-14.0059,0,0,0,0,0,0,0,-1,1819,680,40.0643,14.0059
602,344,40.2029,-12.9525,0.00130423,0.000162797,0.000553663,0.00152866,-6.16339e-05,0.385116,0.00104026,0.0342391,1826,680,40.2028,12.9525
609,344,40.092,-12.0601,0.00154299,0.000235006,0.000576313,0.00176068,1.73083e-05,0.361172,0.00116806,0.0170732,1833,680,40.0921,12.0601
616,344,39.9939,-11.0958,0.00158698,0.000365341,0.000613263,0.00184172,0.000110603,0.393697,0.00119266,0.0242719,1840,680,39.9938,11.0957
623,344,40.0167,-10.1545,0.00156515,0.000602896,0.000636531,0.00188193,0.000286116,0.461779,0.00117096,0.0205565,1847,680,40.0167,10.1545
630,344,39.9097,-9.21747,0.00152155,0.000947306,0.000715402,0.0020053,0.000463559,0.594566,0.00121226,0.0256122,1854,680,39.9097,9.21744
637,344,39.8207,-8.26233,0.00143671,0.00133829,0.0007841,0.00217314,0.000601855,0.754059,0.00129561,0.0253996,1861,680,39.8207,8.2623
644,344,39.7697,-7.30457,0.00131623,0.00180817,0.000853192,0.00245014,0.000674262,0.925739,0.00146147,0.0175698,1868,680,39.7697,7.30458
651,344,39.7153,-6.33185,0.00122313,0.00241581,0.000971774,0.00295963,0.000679313,1.0606,0.00179014,0.011923,1875,680,39.7153,6.33187
658,344,39.6544,-5.27417,0.00112688,0.00317208,0.00109425,0.00364718,0.000651783,1.16118,0.00224594,0.029067,1882,680,39.6544,5.27417
665,344,39.4374,-4.3736,0.00128227,0.00403781,0.00131356,0.00456364,0.000756438,1.19002,0.00282425,0.0477477,1889,680,39.4373,4.37357
672,344,39.4709,-3.513,0,0,0,0,0,0,0,-1,1896,680,39.4709,3.51298
679,344,36.7468,-2.59857,0,0,0,0,0,0,0,-1,1903,680,36.7468,2.59857
686,344,15.024,1.82709,0,0,0,0,0,0,0,-1,1910,680,15.024,-1.82706
693,344,12.4362,-1.42346,0,0,0,0,0,0,0,-1,1917,680,12.4361,1.42348
700,344,17.5396,2.61206,0,0,0,0,0,0,0,-1,1924,680,17.5396,-2.61204
707,344,18.5829,3.29352,0,0,0,0,0,0,0,-1,1931,680,18.5828,-3.2935
714,344,0,0,0,0,0,0,0,0,0,-1,1938,680,0,0
721,344,0,0,0,0,0,0,0,0,0,-1,1945,680,0,0
728,344,0,0,0,0,0,0,0,0,0,-1,1952,680,0,0
735,344,0,0,0,0,0,0,0,0,0,-1,1959,680,0,0
742,344,0,0,0,0,0,0,0,0,0,-1,1966,680,0,0
749,344,0,0,0,0,0,0,0,0,0,-1,1973,680,0,0
756,344,0,0,0,0,0,0,0,0,0,-1,1980,680,0,0
763,344,0,0,0,0,0,0,0,0,0,-1,1987,680,0,0
770,344,0,0,0,0,0,0,0,0,0,-1,1994,680,0,0
777,344,0,0,0,0,0,0,0,0,0,-1,2001,680,0,0
784,344,0,0,0,0,0,0,0,0,0,-1,2008,680,0,0
791,344,0,0,0,0,0,0,0,0,0,-1,2015,680,0,0
798,344,0,0,0,0,0,0,0,0,0,-1,2022,680,0,0
805,344,0,0,0,0,0,0,0,0,0,-1,2029,680,0,0
812,344,0,0,0,0,0,0,0,0,0,-1,2036,680,0,0
-700,337,0,0,0,0,0,0,0,0,0,-1,524,687,0,0
-693,337,0,0,0,0,0,0,0,0,0,-1,531,687,0,0
-686,337,0,0,0,0,0,0,0,0,0,-1,538,687,0,0
-679,337,0,0,0,0,0,0,0,0,0,-1,545,687,0,0
-672,337,0,0,0,0,0,0,0,0,0,-1,552,687,0,0
-665,337,0,0,0,0,0,0,0,0,0,-1,559,687,0,0
-658,337,0,0,0,0,0,0,0,0,0,-1,566,687,0,0
-651,337,0,0,0,0,0,0,0,0,0,-1,573,687,0,0
-644,337,0,0,0,0,0,0,0,0,0,-1,580,687,0,0
-637,337,0,0,0,0,0,0,0,0,0,-1,587,687,0,0
-630,337,0,0,0,0,0,0,0,0,0,-1,594,687,0,0
-623,337,0,0,0,0,0,0,0,0,0,-1,601,687,0,0
-616,337,0,0,0,0,0,0,0,0,0,-1,608,687,0,0
-609,337,0,0,0,0,0,0,0,0,0,-1,615,687,0,0
-602,337,0,0,0,0,0,0,0,0,0,-1,622,687,0,0
-595,337,0,0,0,0,0,0,0,0,0,-1,629,687,0,0
-588,337,-10.8413,1.27863,0,0,0,0,0,0,0,-1,636,687,-10.8413,-1.27861
-581,337,-11.2157,1.31567,0,0,0,0,0,0,0,-1,643,687,-11.2157,-1.3157
-574,337,-6.03339,2.0321,0,0,0,0,0,0,0,-1,650,687,-6.03337,-2.03213
-567,337,-13.8102,1.56787,0,0,0,0,0,0,0,-1,657,687,-13.8102,-1.56789
-560,337,-15.5435,2.34247,0,0,0,0,0,0,0,-1,664,687,-15.5435,-2.34247
-553,337,-18.0128,1.12927,0,0,0,0,0,0,0,-1,671,687,-18.0128,-1.12926
-546,337,-18.0244,-2.03845,0,0,0,0,0,0,0,-1,678,687,-18.0244,2.03846
-539,337,-19.2426,-3.53815,0,0,0,0,0,0,0,-1,685,687,-19.2426,3.53813
-532,337,-24.9953,-5.67596,0,0,0,0,0,0,0,-1,692,687,-24.9953,5.67594
-525,337,-25.0345,-6.7403,0.00304154,0.00236204,-0.00270465,0.00542769,-2.41173e-05,-0.722917,0.00362653,0.0219589,699,687,-25.0345,6.74028
-518,337,-25.0438,-7.70721,0.00249049,0.00124909,-0.00175027,0.00372686,1.2723e-05,-0.615001,0.00248034,0.0224481,706,687,-25.0438,7.7072
-511,337,-25.0987,-8.66022,0.0021002,0.000456683,-0.000996848,0.00257033,-1.34545e-05,-0.44069,0.00171806,0.0245825,713,687,-25.0987,8.66021
-504,337,-25.1638,-9.60748,0.00177125,-0.000130654,-0.000410686,0.00185614,-0.000215546,-0.203837,0.00131517,0.024997,720,687,-25.1637,9.60746
-497,337,-25.2003,-10.5771,0.00154842,-0.000521843,1.93407e-05,0.0015486,-0.000522024,0.00934105,0.00124349,0.0182136,727,687,-25.2003,10.5771
-490,337,-25.2393,-11.538,0.00145419,-0.000683514,0.000233483,0.00147939,-0.000708718,0.107533,0.00128916,0.0163331,734,687,-25.2393,11.538
-483,337,-25.2873,-12.4587,0.00147023,-0.000631308,0.000245402,0.00149851,-0.000659583,0.114717,0.00127697,0.0162833,741,687,-25.2873,12.4587
-476,337,-25.3241,-13.4224,0.00160021,-0.000439162,5.94968e-06,0.00160022,-0.000439179,0.00291738,0.00123942,0.0185939,748,687,-25.3241,13.4224
-469,337,-25.3131,-14.4399,0,0,0,0,0,0,0,-1,755,687,-25.3131,14.4399
-462,337,-14.186,-8.89264,0,0,0,0,0,0,0,-1,762,687,-14.186,8.89266
-455,337,-6.00574,-3.12933,0,0,0,0,0,0,0,-1,769,687,-6.00576,3.12934
-448,337,-5.30627,-2.07202,0,0,0,0,0,0,0,-1,776,687,-5.30628,2.07205
-441,337,-4.24762,-1.49597,0,0,0,0,0,0,0,-1,783,687,-4.24762,1.49598
-434,337,-6.86908,1.37531,0,0,0,0,0,0,0,-1,790,687,-6.86908,-1.3753
-427,337,-9.92004,2.487,0,0,0,0,0,0,0,-1,797,687,-9.92002,-2.48701
-420,337,-2.95996,-1.76697,0,0,0,0,0,0,0,-1,804,687,-2.95998,1.76696
-413,337,-1.29169,-1.99487,0,0,0,0,0,0,0,-1,811,687,-1.29171,1.9949
-406,337,-1.02356,-1.89563,0,0,0,0,0,0,0,-1,818,687,-1.02357,1.89564
-399,337,-0.472839,-2.21338,0,0,0,0,0,0,0,-1,825,687,-0.472837,2.2134
-392,337,0,0,0,0,0,0,0,0,0,-1,832,687,0,0
-385,337,0,0,0,0,0,0,0,0,0,-1,839,687,0,0
-378,337,0,0,0,0,0,0,0,0,0,-1,846,687,0,0
-371,337,0,0,0,0,0,0,0,0,0,-1,853,687,0,0
-364,337,0,0,0,0,0,0,0,0,0,-1,860,687,0,0
-357,337,0,0,0,0,0,0,0,0,0,-1,867,687,0,0
-350,337,0,0,0,0,0,0,0,0,0,-1,874,687,0,0
-343,337,0,0,0,0,0,0,0,0,0,-1,881,687,0,0
-336,337,0,0,0,0,0,0,0,0,0,-1,888,687,0,0
-329,337,0,0,0,0,0,0,0,0,0,-1,895,687,0,0
-322,337,0,0,0,0,0,0,0,0,0,-1,902,687,0,0
-315,337,0,0,0,0,0,0,0,0,0,-1,909,687,0,0
-308,337,0,0,0,0,0,0,0,0,0,-1,916,687,0,0
-301,337,0,0,0,0,0,0,0,0,0,-1,923,687,0,0
-294,337,0,0,0,0,0,0,0,0,0,-1,930,687,0,0
-287,337,0,0,0,0,0,0,0,0,0,-1,937,687,0,0
-280,337,0,0,0,0,0,0,0,0,0,-1,944,687,0,0
-273,337,0,0,0,0,0,0,0,0,0,-1,951,687,0,0
-266,337,0,0,0,0,0,0,0,0,0,-1,958,687,0,0
-259,337,0,0,0,0,0,0,0,0,0,-1,965,687,0,0
-252,337,0,0,0,0,0,0,0,0,0,-1,972,687,0,0
-245,337,0,0,0,0,0,0,0,0,0,-1,979,687,0,0
-238,337,0,0,0,0,0,0,0,0,0,-1,986,687,0,0
-231,337,0,0,0,0,0,0,0,0,0,-1,993,687,0,0
-224,337,0,0,0,0,0,0,0,0,0,-1,1000,687,0,0
-217,337,0,0,0,0,0,0,0,0,0,-1,1007,687,0,0
-210,337,0,0,0,0,0,0,0,0,0,-1,1014,687,0,0
-203,337,0,0,0,0,0,0,0,0,0,-1,1021,687,0,0
-196,337,0,0,0,0,0,0,0,0,0,-1,1028,687,0,0
-189,337,0,0,0,0,0,0,0,0,0,-1,1035,687,0,0
-182,337,0,0,0,0,0,0,0,0,0,-1,1042,687,0,0
-175,337,0,0,0,0,0,0,0,0,0,-1,1049,687,0,0
-168,337,0,0,0,0,0,0,0,0,0,-1,1056,687,0,0
-161,337,0,0,0,0,0,0,0,0,0,-1,1063,687,0,0
-154,337,0,0,0,0,0,0,0,0,0,-1,1070,687,0,0
-147,337,0,0,0,0,0,0,0,0,0,-1,1077,687,0,0
-140,337,0,0,0,0,0,0,0,0,0,-1,1084,687,0,0
-133,337,0,0,0,0,0,0,0,0,0,-1,1091,687,0,0
-126,337,0,0,0,0,0,0,0,0,0,-1,1098,687,0,0
-119,337,0,0,0,0,0,0,0,0,0,-1,1105,687,0,0
-112,337,0,0,0,0,0,0,0,0,0,-1,1112,687,0,0
-105,337,0,0,0,0,0,0,0,0,0,-1,1119,687,0,0
-98,337,0,0,0,0,0,0,0,0,0,-1,1126,687,0,0
-91,337,0,0,0,0,0,0,0,0,0,-1,1133,687,0,0
-84,337,0,0,0,0,0,0,0,0,0,-1,1140,687,0,0
-77,337,0,0,0,0,0,0,0,0,0,-1,1147,687,0,0
-70,337,0,0,0,0,0,0,0,0,0,-1,1154,687,0,0
-63,337,0,0,0,0,0,0,0,0,0,-1,1161,687,0,0
-56,337,0,0,0,0,0,0,0,0,0,-1,1168,687,0,0
-49,337,0,0,0,0,0,0,0,0,0,-1,1175,687,0,0
-42,337,0,0,0,0,0,0,0,0,0,-1,1182,687,0,0
-35,337,0,0,0,0,0,0,0,0,0,-1,1189,687,0,0
-28,337,0,0,0,0,0,0,0,0,0,-1,1196,687,0,0
-21,337,0,0,0,0,0,0,0,0,0,-1,1203,687,0,0
-14,337,0,0,0,0,0,0,0,0,0,-1,1210,687,0,0
-7,337,0,0,0,0,0,0,0,0,0,-1,1217,687,0,0
0,337,0,0,0,0,0,0,0,0,0,-1,1224,687,0,0
7,337,0,0,0,0,0,0,0,0,0,-1,1231,687,0,0
14,337,0,0,0,0,0,0,0,0,0,-1,1238,687,0,0
21,337,0,0,0,0,0,0,0,0,0,-1,1245,687,0,0
28,337,0,0,0,0,0,0,0,0,0,-1,1252,687,0,0
35,337,0,0,0,0,0,0,0,0,0,-1,1259,687,0,0
42,337,0,0,0,0,0,0,0,0,0,-1,1266,687,0,0
49,337,0,0,0,0,0,0,0,0,0,-1,1273,687,0,0
56,337,0,0,0,0,0,0,0,0,0,-1,1280,687,0,0
63,337,0,0,0,0,0,0,0,0,0,-1,1287,687,0,0
70,337,0,0,0,0,0,0,0,0,0,-1,1294,687,0,0
77,337,0,0,0,0,0,0,0,0,0,-1,1301,687,0,0
84,337,0,0,0,0,0,0,0,0,0,-1,1308,687,0,0
91,337,0,0,0,0,0,0,0,0,0,-1,1315,687,0,0
98,337,0,0,0,0,0,0,0,0,0,-1,1322,687,0,0
105,337,0,0,0,0,0,0,0,0,0,-1,1329,687,0,0
112,337,0,0,0,0,0,0,0,0,0,-1,1336,687,0,0
119,337,0,0,0,0,0,0,0,0,0,-1,1343,687,0,0
126,337,0,0,0,0,0,0,0,0,0,-1,1350,687,0,0
133,337,0,0,0,0,0,0,0,0,0,-1,1357,687,0,0
140,337,0,0,0,0,0,0,0,0,0,-1,1364,687,0,0
147,337,0,0,0,0,0,0,0,0,0,-1,1371,687,0,0
154,337,0,0,0,0,0,0,0,0,0,-1,1378,687,0,0
161,337,0,0,0,0,0,0,0,0,0,-1,1385,687,0,0
168,337,0,0,0,0,0,0,0,0,0,-1,1392,687,0,0
175,337,0,0,0,0,0,0,0,0,0,-1,1399,687,0,0
182,337,0,0,0,0,0,0,0,0,0,-1,1406,687,0,0
189,337,0,0,0,0,0,0,0,0,0,-1,1413,687,0,0
196,337,0,0,0,0,0,0,0,0,0,-1,1420,687,0,0
203,337,0,0,0,0,0,0,0,0,0,-1,1427,687,0,0
210,337,0,0,0,0,0,0,0,0,0,-1,1434,687,0,0
217,337,0,0,0,0,0,0,0,0,0,-1,1441,687,0,0
224,337,0,0,0,0,0,0,0,0,0,-1,1448,687,0,0
231,337,0,0,0,0,0,0,0,0,0,-1,1455,687,0,0
238,337,0,0,0,0,0,0,0,0,0,-1,1462,687,0,0
245,337,0,0,0,0,0,0,0,0,0,-1,1469,687,0,0
252,337,0,0,0,0,0,0,0,0,0,-1,1476,687,0,0
259,337,0,0,0,0,0,0,0,0,0,-1,1483,687,0,0
266,337,0,0,0,0,0,0,0,0,0,-1,1490,687,0,0
273,337,0,0,0,0,0,0,0,0,0,-1,1497,687,0,0
280,337,0,0,0,0,0,0,0,0,0,-1,1504,687,0,0
287,337,0,0,0,0,0,0,0,0,0,-1,1511,687,0,0
294,337,0,0,0,0,0,0,0,0,0,-1,1518,687,0,0
301,337,0,0,0,0,0,0,0,0,0,-1,1525,687,0,0
308,337,0,0,0,0,0,0,0,0,0,-1,1532,687,0,0
315,337,0,0,0,0,0,0,0,0,0,-1,1539,687,0,0
322,337,0,0,0,0,0,0,0,0,0,-1,1546,687,0,0
329,337,0,0,0,0,0,0,0,0,0,-1,1553,687,0,0
336,337,0,0,0,0,0,0,0,0,0,-1,1560,687,0,0
343,337,0,0,0,0,0,0,0,0,0,-1,1567,687,0,0
350,337,0,0,0,0,0,0,0,0,0,-1,1574,687,0,0
357,337,0,0,0,0,0,0,0,0,0,-1,1581,687,0,0
364,337,0,0,0,0,0,0,0,0,0,-1,1588,687,0,0
371,337,0,0,0,0,0,0,0,0,0,-1,1595,687,0,0
378,337,0,0,0,0,0,0,0,0,0,-1,1602,687,0,0
385,337,0,0,0,0,0,0,0,0,0,-1,1609,687,0,0
392,337,0,0,0,0,0,0,0,0,0,-1,1616,687,0,0
399,337,0,0,0,0,0,0,0,0,0,-1,1623,687,0,0
406,337,0,0,0,0,0,0,0,0,0,-1,1630,687,0,0
413,337,0,0,0,0,0,0,0,0,0,-1,1637,687,0,0
420,337,0,0,0,0,0,0,0,0,0,-1,1644,687,0,0
427,337,0,0,0,0,0,0,0,0,0,-1,1651,687,0,0
434,337,0,0,0,0,0,0,0,0,0,-1,1658,687,0,0
441,337,0,0,0,0,0,0,0,0,0,-1,1665,687,0,0
448,337,0,0,0,0,0,0,0,0,0,-1,1672,687,0,0
455,337,0,0,0,0,0,0,0,0,0,-1,1679,687,0,0
462,337,0,0,0,0,0,0,0,0,0,-1,1686,687,0,0
469,337,0,0,0,0,0,0,0,0,0,-1,1693,687,0,0
476,337,0,0,0,0,0,0,0,0,0,-1,1700,687,0,0
483,337,0,0,0,0,0,0,0,0,0,-1,1707,687,0,0
490,337,0,0,0,0,0,0,0,0,0,-1,1714,687,0,0
497,337,0,0,0,0,0,0,0,0,0,-1,1721,687,0,0
504,337,0,0,0,0,0,0,0,0,0,-1,1728,687,0,0
511,337,0,0,0,0,0,0,0,0,0,-1,1735,687,0,0
518,337,18.0369,1.64581,0,0,0,0,0,0,0,-1,1742,687,18.0368,-1.64581
525,337,31.0717,2.13745,0,0,0,0,0,0,0,-1,1749,687,31.0717,-2.13747
532,337,31.5126,2.13904,0,0,0,0,0,0,0,-1,1756,687,31.5125,-2.13905
539,337,31.9684,2.15594,0,0,0,0,0,0,0,-1,1763,687,31.9684,-2.15596
546,337,32.3584,1.43719,0,0,0,0,0,0,0,-1,1770,687,32.3585,-1.43722
553,337,32.1809,1.36395,0,0,0,0,0,0,0,-1,1777,687,32.181,-1.36396
560,337,18.4053,3.62793,0,0,0,0,0,0,0,-1,1784,687,18.4052,-3.6279
567,337,11.9288,1.38776,0,0,0,0,0,0,0,-1,1791,687,11.9288,-1.38777
574,337,10.704,1.19476,0,0,0,0,0,0,0,-1,1798,687,10.704,-1.19478
581,337,8.50427,0.561768,0,0,0,0,0,0,0,-1,1805,687,8.5043,-0.561754
588,337,8.5885,-0.0536499,0,0,0,0,0,0,0,-1,1812,687,8.58844,0.0536788
595,337,40.8973,-14.1456,0,0,0,0,0,0,0,-1,1819,687,40.8973,14.1456
602,337,41.0933,-12.9254,0.00175591,-4.1436e-06,0.000708001,0.00200536,-0.000253591,0.338745,0.00142896,0.045643,1826,687,41.0933,12.9254
609,337,41.0409,-11.98,0.00194521,-7.38505e-05,0.000674295,0.00214969,-0.000278333,0.294439,0.00153434,0.0232275,1833,687,41.0409,11.98
616,337,40.962,-11.0054,0.00187679,-3.96366e-05,0.000701254,0.00210598,-0.000268828,0.315887,0.00150164,0.0194038,1840,687,40.9621,11.0054
623,337,40.8883,-10.0875,0.00170228,0.000139263,0.000665765,0.00194742,-0.000105872,0.352796,0.00133497,0.0159784,1847,687,40.8883,10.0875
630,337,40.8314,-9.13531,0.00156715,0.000432233,0.000704194,0.00190407,9.53147e-05,0.446256,0.00123883,0.0199851,1854,687,40.8315,9.13531
637,337,40.8013,-8.17249,0.00143202,0.000801269,0.000757786,0.00193744,0.000295852,0.58821,0.00120517,0.0185401,1861,687,40.8013,8.17247
644,337,40.738,-7.21143,0.00131462,0.00126967,0.000834976,0.00212743,0.000456869,0.771943,0.00129318,0.0123288,1868,687,40.7381,7.21141
651,337,40.668,-6.26434,0.00125643,0.00186834,0.000967416,0.00257703,0.000547744,0.938552,0.00156767,0.0110032,1875,687,40.668,6.26432
658,337,40.6176,-5.31494,0.00127766,0.002622,0.00115754,0.00328838,0.000611287,1.04845,0.00201957,0.0129905,1882,687,40.6175,5.31493
665,337,40.5782,-4.38043,0.0015738,0.00351541,0.00147497,0.0043104,0.000778819,1.07645,0.00265238,0.0167981,1889,687,40.5783,4.38043
672,337,40.5964,-3.39087,0,0,0,0,0,0,0,-1,1896,687,40.5965,3.39086
679,337,40.5684,-2.60254,0,0,0,0,0,0,0,-1,1903,687,40.5683,2.60255
686,337,18.5614,1.68597,0,0,0,0,0,0,0,-1,1910,687,18.5614,-1.68598
693,337,16.5415,2.21411,0,0,0,0,0,0,0,-1,1917,687,16.5415,-2.2141
700,337,17.2661,2.44379,0,0,0,0,0,0,0,-1,1924,687,17.2661,-2.44378
707,337,17.3544,5.61853,0,0,0,0,0,0,0,-1,1931,687,17.3543,-5.61851
714,337,0,0,0,0,0,0,0,0,0,-1,1938,687,0,0
721,337,0,0,0,0,0,0,0,0,0,-1,1945,687,0,0
728,337,0,0,0,0,0,0,0,0,0,-1,1952,687,0,0
735,337,0,0,0,0,0,0,0,0,0,-1,1959,687,0,0
742,337,0,0,0,0,0,0,0,0,0,-1,1966,687,0,0
749,337,0,0,0,0,0,0,0,0,0,-1,1973,687,0,0
756,337,0,0,0,0,0,0,0,0,0,-1,1980,687,0,0
763,337,0,0,0,0,0,0,0,0,0,-1,1987,687,0,0
770,337,0,0,0,0,0,0,0,0,0,-1,1994,687,0,0
777,337,0,0,0,0,0,0,0,0,0,-1,2001,687,0,0
784,337,0,0,0,0,0,0,0,0,0,-1,2008,687,0,0
791,337,0,0,0,0,0,0,0,0,0,-1,2015,687,0,0
798,337,0,0,0,0,0,0,0,0,0,-1,2022,687,0,0
805,337,0,0,0,0,0,0,0,0,0,-1,2029,687,0,0
812,337,0,0,0,0,0,0,0,0,0,-1,2036,687,0,0
-700,330,0,0,0,0,0,0,0,0,0,-1,524,694,0,0
-693,330,0,0,0,0,0,0,0,0,0,-1,531,694,0,0
-686,330,0,0,0,0,0,0,0,0,0,-1,538,694,0,0
-679,330,0,0,0,0,0,0,0,0,0,-1,545,694,0,0
-672,330,0,0,0,0,0,0,0,0,0,-1,552,694,0,0
-665,330,0,0,0,0,0,0,0,0,0,-1,559,694,0,0
-658,330,0,0,0,0,0,0,0,0,0,-1,566,694,0,0
-651,330,0,0,0,0,0,0,0,0,0,-1,573,694,0,0
-644,330,0,0,0,0,0,0,0,0,0,-1,580,694,0,0
-637,330,0,0,0,0,0,0,0,0,0,-1,587,694,0,0
-630,330,0,0,0,0,0,0,0,0,0,-1,594,694,0,0
-623,330,0,0,0,0,0,0,0,0,0,-1,601,694,0,0
-616,330,0,0,0,0,0,0,0,0,0,-1,608,694,0,0
-609,330,0,0,0,0,0,0,0,0,0,-1,615,694,0,0
-602,330,0,0,0,0,0,0,0,0,0,-1,622,694,0,0
-595,330,-4.67883,1.65515,0,0,0,0,0,0,0,-1,629,694,-4.67881,-1.65515
-588,330,-8.5047,2.67346,0,0,0,0,0,0,0,-1,636,694,-8.50469,-2.67348
-581,330,-12.4227,0.947083,0,0,0,0,0,0,0,-1,643,694,-12.4227,-0.947109
-574,330,-9.02118,1.87952,0,0,0,0,0,0,0,-1,650,694,-9.02115,-1.87953
-567,330,-8.35577,0.909973,0,0,0,0,0,0,0,-1,657,694,-8.35575,-0.909945
-560,330,-13.1036,-0.584656,0,0,0,0,0,0,0,-1,664,694,-13.1035,0.584658
-553,330,-17.5484,-1.21545,0,0,0,0,0,0,0,-1,671,694,-17.5484,1.21547
-546,330,-25.6266,-3.52612,0,0,0,0,0,0,0,-1,678,694,-25.6267,3.5261
-539,330,-25.9888,-4.68176,0,0,0,0,0,0,0,-1,685,694,-25.9889,4.68176
-532,330,-25.9396,-5.71643,0.00344879,0.00338577,-0.00321878,0.00663622,0.000198344,-0.780503,0.00435953,0.0289086,692,694,-25.9396,5.71642
-525,330,-25.9191,-6.73798,0.00282611,0.00207588,-0.00225773,0.00473967,0.000162317,-0.703077,0.00310709,0.0101924,699,694,-25.9191,6.73796
-518,330,-25.9728,-7.65845,0.00227738,0.00104129,-0.00138941,0.00318,0.000138668,-0.576127,0.00207532,0.0146821,706,694,-25.9728,7.65846
-511,330,-26.0341,-8.60199,0.00187505,0.000253105,-0.000683088,0.0021244,3.75474e-06,-0.350005,0.00141502,0.0213189,713,694,-26.0341,8.60199
-504,330,-26.0948,-9.55267,0.00150667,-0.00035815,-7.5975e-05,0.00150976,-0.00036124,-0.0406515,0.00114605,0.020072,720,694,-26.0948,9.55268
-497,330,-26.1682,-10.4881,0.00124928,-0.000769625,0.000383805,0.00131978,-0.000840126,0.181666,0.00125723,0.0148394,727,694,-26.1682,10.4881
-490,330,-26.1931,-11.4494,0.00114936,-0.000951554,0.00063543,0.0013266,-0.00112879,0.27201,0.00141915,0.0154226,734,694,-26.193,11.4494
-483,330,-26.2294,-12.4127,0.00113381,-0.000900147,0.000702767,0.001353,-0.00111934,0.302342,0.00142953,0.0154048,741,694,-26.2294,12.4127
-476,330,-26.318,-13.382,0,0,0,0,0,0,0,-1,748,694,-26.318,13.382
-469,330,-16.1478,-9.23303,0,0,0,0,0,0,0,-1,755,694,-16.1478,9.23301
-462,330,-7.26733,-3.84833,0,0,0,0,0,0,0,-1,762,694,-7.26731,3.84832
-455,330,-5.04254,-1.79303,0,0,0,0,0,0,0,-1,769,694,-5.04252,1.79305
-448,330,-4.89886,-1.66156,0,0,0,0,0,0,0,-1,776,694,-4.89886,1.66157
-441,330,-5.30676,-2.34045,0,0,0,0,0,0,0,-1,783,694,-5.30679,2.34048
-434,330,-7.20428,1.00024,0,0,0,0,0,0,0,-1,790,694,-7.20431,-1.00027
-427,330,-16.0428,2.89258,0,0,0,0,0,0,0,-1,797,694,-16.0428,-2.89259
-420,330,-29.0331,0.271606,0,0,0,0,0,0,0,-1,804,694,-29.0331,-0.27158
-413,330,-29.0896,0.56366,0,0,0,0,0,0,0,-1,811,694,-29.0896,-0.563671
-406,330,-1.65375,-1.74371,0,0,0,0,0,0,0,-1,818,694,-1.65375,1.74371
-399,330,0,0,0,0,0,0,0,0,0,-1,825,694,0,0
-392,330,0,0,0,0,0,0,0,0,0,-1,832,694,0,0
-385,330,0,0,0,0,0,0,0,0,0,-1,839,694,0,0
-378,330,0,0,0,0,0,0,0,0,0,-1,846,694,0,0
-371,330,0,0,0,0,0,0,0,0,0,-1,853,694,0,0
-364,330,0,0,0,0,0,0,0,0,0,-1,860,694,0,0
-357,330,0,0,0,0,0,0,0,0,0,-1,867,694,0,0
-350,330,0,0,0,0,0,0,0,0,0,-1,874,694,0,0
-343,330,0,0,0,0,0,0,0,0,0,-1,881,694,0,0
-336,330,0,0,0,0,0,0,0,0,0,-1,888,694,0,0
-329,330,0,0,0,0,0,0,0,0,0,-1,895,694,0,0
-322,330,0,0,0,0,0,0,0,0,0,-1,902,694,0,0
-315,330,0,0,0,0,0,0,0,0,0,-1,909,694,0,0
-308,330,0,0,0,0,0,0,0,0,0,-1,916,694,0,0
-301,330,0,0,0,0,0,0,0,0,0,-1,923,694,0,0
-294,330,0,0,0,0,0,0,0,0,0,-1,930,694,0,0
-287,330,0,0,0,0,0,0,0,0,0,-1,937,694,0,0
-280,330,0,0,0,0,0,0,0,0,0,-1,944,694,0,0
-273,330,0,0,0,0,0,0,0,0,0,-1,951,694,0,0
-266,330,0,0,0,0,0,0,0,0,0,-1,958,694,0,0
-259,330,0,0,0,0,0,0,0,0,0,-1,965,694,0,0
-252,330,0,0,0,0,0,0,0,0,0,-1,972,694,0,0
-245,330,0,0,0,0,0,0,0,0,0,-1,979,694,0,0
-238,330,0,0,0,0,0,0,0,0,0,-1,986,694,0,0
-231,330,0,0,0,0,0,0,0,0,0,-1,993,694,0,0
-224,330,0,0,0,0,0,0,0,0,0,-1,1000,694,0,0
-217,330,0,0,0,0,0,0,0,0,0,-1,1007,694,0,0
-210,330,0,0,0,0,0,0,0,0,0,-1,1014,694,0,0
-203,330,0,0,0,0,0,0,0,0,0,-1,1021,694,0,0
-196,330,0,0,0,0,0,0,0,0,0,-1,1028,694,0,0
-189,330,0,0,0,0,0,0,0,0,0,-1,1035,694,0,0
-182,330,0,0,0,0,0,0,0,0,0,-1,1042,694,0,0
-175,330,0,0,0,0,0,0,0,0,0,-1,1049,694,0,0
-168,330,0,0,0,0,0,0,0,0,0,-1,1056,694,0,0
-161,330,0,0,0,0,0,0,0,0,0,-1,1063,694,0,0
-154,330,0,0,0,0,0,0,0,0,0,-1,1070,694,0,0
-147,330,0,0,0,0,0,0,0,0,0,-1,1077,694,0,0
-140,330,0,0,0,0,0,0,0,0,0,-1,1084,694,0,0
-133,330,0,0,0,0,0,0,0,0,0,-1,1091,694,0,0
-126,330,0,0,0,0,0,0,0,0,0,-1,1098,694,0,0
-119,330,0,0,0,0,0,0,0,0,0,-1,1105,694,0,0
-112,330,0,0,0,0,0,0,0,0,0,-1,1112,694,0,0
-105,330,0,0,0,0,0,0,0,0,0,-1,1119,694,0,0
-98,330,0,0,0,0,0,0,0,0,0,-1,1126,694,0,0
-91,330,0,0,0,0,0,0,0,0,0,-1,1133,694,0,0
-84,330,0,0,0,0,0,0,0,0,0,-1,1140,694,0,0
-77,330,0,0,0,0,0,0,0,0,0,-1,1147,694,0,0
-70,330,0,0,0,0,0,0,0,0,0,-1,1154,694,0,0
-63,330,0,0,0,0,0,0,0,0,0,-1,1161,694,0,0
-56,330,0,0,0,0,0,0,0,0,0,-1,1168,694,0,0
-49,330,0,0,0,0,0,0,0,0,0,-1,1175,694,0,0
-42,330,0,0,0,0,0,0,0,0,0,-1,1182,694,0,0
-35,330,0,0,0,0,0,0,0,0,0,-1,1189,694,0,0
-28,330,0,0,0,0,0,0,0,0,0,-1,1196,694,0,0
-21,330,0,0,0,0,0,0,0,0,0,-1,1203,694,0,0
-14,330,0,0,0,0,0,0,0,0,0,-1,1210,694,0,0
-7,330,0,0,0,0,0,0,0,0,0,-1,1217,694,0,0
0,330,0,0,0,0,0,0,0,0,0,-1,1224,694,0,0
7,330,0,0,0,0,0,0,0,0,0,-1,1231,694,0,0
14,330,0,0,0,0,0,0,0,0,0,-1,1238,694,0,0
21,330,0,0,0,0,0,0,0,0,0,-1,1245,694,0,0
28,330,0,0,0,0,0,0,0,0,0,-1,1252,694,0,0
35,330,0,0,0,0,0,0,0,0,0,-1,1259,694,0,0
42,330,0,0,0,0,0,0,0,0,0,-1,1266,694,0,0
49,330,0,0,0,0,0,0,0,0,0,-1,1273,694,0,0
56,330,0,0,0,0,0,0,0,0,0,-1,1280,694,0,0
63,330,0,0,0,0,0,0,0,0,0,-1,1287,694,0,0
70,330,0,0,0,0,0,0,0,0,0,-1,1294,694,0,0
77,330,0,0,0,0,0,0,0,0,0,-1,1301,694,0,0
84,330,0,0,0,0,0,0,0,0,0,-1,1308,694,0,0
91,330,0,0,0,0,0,0,0,0,0,-1,1315,694,0,0
98,330,0,0,0,0,0,0,0,0,0,-1,1322,694,0,0
105,330,0,0,0,0,0,0,0,0,0,-1,1329,694,0,0
112,330,0,0,0,0,0,0,0,0,0,-1,1336,694,0,0
119,330,0,0,0,0,0,0,0,0,0,-1,1343,694,0,0
126,330,0,0,0,0,0,0,0,0,0,-1,1350,694,0,0
133,330,0,0,0,0,0,0,0,0,0,-1,1357,694,0,0
140,330,0,0,0,0,0,0,0,0,0,-1,1364,694,0,0
147,330,0,0,0,0,0,0,0,0,0,-1,1371,694,0,0
154,330,0,0,0,0,0,0,0,0,0,-1,1378,694,0,0
161,330,0,0,0,0,0,0,0,0,0,-1,1385,694,0,0
168,330,0,0,0,0,0,0,0,0,0,-1,1392,694,0,0
175,330,0,0,0,0,0,0,0,0,0,-1,1399,694,0,0
182,330,0,0,0,0,0,0,0,0,0,-1,1406,694,0,0
189,330,0,0,0,0,0,0,0,0,0,-1,1413,694,0,0
196,330,0,0,0,0,0,0,0,0,0,-1,1420,694,0,0
203,330,0,0,0,0,0,0,0,0,0,-1,1427,694,0,0
210,330,0,0,0,0,0,0,0,0,0,-1,1434,694,0,0
217,330,0,0,0,0,0,0,0,0,0,-1,1441,694,0,0
224,330,0,0,0,0,0,0,0,0,0,-1,1448,694,0,0
231,330,0,0,0,0,0,0,0,0,0,-1,1455,694,0,0
238,330,0,0,0,0,0,0,0,0,0,-1,1462,694,0,0
245,330,0,0,0,0,0,0,0,0,0,-1,1469,694,0,0
252,330,0,0,0,0,0,0,0,0,0,-1,1476,694,0,0
259,330,0,0,0,0,0,0,0,0,0,-1,1483,694,0,0
266,330,0,0,0,0,0,0,0,0,0,-1,1490,694,0,0
273,330,0,0,0,0,0,0,0,0,0,-1,1497,694,0,0
280,330,0,0,0,0,0,0,0,0,0,-1,1504,694,0,0
287,330,0,0,0,0,0,0,0,0,0,-1,1511,694,0,0
294,330,0,0,0,0,0,0,0,0,0,-1,1518,694,0,0
301,330,0,0,0,0,0,0,0,0,0,-1,1525,694,0,0
308,330,0,0,0,0,0,0,0,0,0,-1,1532,694,0,0
315,330,0,0,0,0,0,0,0,0,0,-1,1539,694,0,0
322,330,0,0,0,0,0,0,0,0,0,-1,1546,694,0,0
329,330,0,0,0,0,0,0,0,0,0,-1,1553,694,0,0
336,330,0,0,0,0,0,0,0,0,0,-1,1560,694,0,0
343,330,0,0,0,0,0,0,0,0,0,-1,1567,694,0,0
350,330,0,0,0,0,0,0,0,0,0,-1,1574,694,0,0
357,330,0,0,0,0,0,0,0,0,0,-1,1581,694,0,0
364,330,0,0,0,0,0,0,0,0,0,-1,1588,694,0,0
371,330,0,0,0,0,0,0,0,0,0,-1,1595,694,0,0
378,330,0,0,0,0,0,0,0,0,0,-1,1602,694,0,0
385,330,0,0,0,0,0,0,0,0,0,-1,1609,694,0,0
392,330,0,0,0,0,0,0,0,0,0,-1,1616,694,0,0
399,330,0,0,0,0,0,0,0,0,0,-1,1623,694,0,0
406,330,0,0,0,0,0,0,0,0,0,-1,1630,694,0,0
413,330,0,0,0,0,0,0,0,0,0,-1,1637,694,0,0
420,330,0,0,0,0,0,0,0,0,0,-1,1644,694,0,0
427,330,0,0,0,0,0,0,0,0,0,-1,1651,694,0,0
434,330,0,0,0,0,0,0,0,0,0,-1,1658,694,0,0
441,330,0,0,0,0,0,0,0,0,0,-1,1665,694,0,0
448,330,0,0,0,0,0,0,0,0,0,-1,1672,694,0,0
455,330,0,0,0,0,0,0,0,0,0,-1,1679,694,0,0
462,330,0,0,0,0,0,0,0,0,0,-1,1686,694,0,0
469,330,0,0,0,0,0,0,0,0,0,-1,1693,694,0,0
476,330,0,0,0,0,0,0,0,0,0,-1,1700,694,0,0
483,330,0,0,0,0,0,0,0,0,0,-1,1707,694,0,0
490,330,0,0,0,0,0,0,0,0,0,-1,1714,694,0,0
497,330,0,0,0,0,0,0,0,0,0,-1,1721,694,0,0
504,330,0,0,0,0,0,0,0,0,0,-1,1728,694,0,0
511,330,0,0,0,0,0,0,0,0,0,-1,1735,694,0,0
518,330,0,0,0,0,0,0,0,0,0,-1,1742,694,0,0
525,330,30.6694,0.69519,0,0,0,0,0,0,0,-1,1749,694,30.6694,-0.695206
532,330,30.9469,1.32501,0,0,0,0,0,0,0,-1,1756,694,30.9469,-1.32501
539,330,31.5155,1.62506,0,0,0,0,0,0,0,-1,1763,694,31.5155,-1.62507
546,330,31.4187,1.85651,0,0,0,0,0,0,0,-1,1770,694,31.4187,-1.85651
553,330,31.8452,1.81476,0,0,0,0,0,0,0,-1,1777,694,31.8452,-1.81475
560,330,32.2401,2.43225,0,0,0,0,0,0,0,-1,1784,694,32.2401,-2.43227
567,330,18.0321,3.98578,0,0,0,0,0,0,0,-1,1791,694,18.0321,-3.98576
574,330,12.0454,2.1662,0,0,0,0,0,0,0,-1,1798,694,12.0455,-2.16618
581,330,11.4215,4.50836,0,0,0,0,0,0,0,-1,1805,694,11.4215,-4.50837
588,330,6.45667,-0.0630493,0,0,0,0,0,0,0,-1,1812,694,6.45661,0.0630695
595,330,8.23193,-0.258484,0,0,0,0,0,0,0,-1,1819,694,8.23188,0.258459
602,330,41.8444,-12.9039,0,0,0,0,0,0,0,-1,1826,694,41.8444,12.9039
609,330,41.9186,-11.8931,0.00255606,-0.000276141,0.000904917,0.0028205,-0.00054058,0.284309,0.00208403,0.0276618,1833,694,41.9185,11.8931
616,330,41.9055,-10.9604,0.0023205,-0.000324906,0.000896027,0.00259542,-0.000599829,0.297706,0.00196105,0.0123344,1840,694,41.9055,10.9604
623,330,41.822,-10.0358,0.00195503,-0.000174039,0.000788189,0.00221506,-0.00043407,0.318666,0.00164065,0.0133235,1847,694,41.822,10.0358
630,330,41.7883,-9.06335,0.00171175,7.92087e-05,0.00077987,0.00202442,-0.000233455,0.381298,0.00143378,0.0138744,1854,694,41.7883,9.06334
637,330,41.7557,-8.0976,0.00151334,0.000426489,0.000806531,0.00194244,-2.61021e-06,0.488943,0.00129583,0.0137912,1861,694,41.7558,8.09763
644,330,41.6735,-7.15308,0.00137551,0.000878555,0.000877772,0.00203929,0.000214768,0.647469,0.00129389,0.0090939,1868,694,41.6735,7.1531
651,330,41.6226,-6.19849,0.00132545,0.00144227,0.00100924,0.00239479,0.000372927,0.814305,0.00148788,0.0124064,1875,694,41.6226,6.19847
658,330,41.5541,-5.25885,0.00140423,0.00214592,0.00122186,0.00305197,0.000498183,0.932734,0.00189059,0.0131672,1882,694,41.5541,5.25882
665,330,41.4631,-4.31354,0.0017442,0.00298638,0.0015668,0.00405071,0.000679878,0.974101,0.00250479,0.0118474,1889,694,41.4631,4.31356
672,330,41.521,-3.3338,0.00242746,0.00405852,0.00201093,0.00541299,0.00107299,0.978038,0.00330949,0.0393439,1896,694,41.521,3.33381
679,330,41.6984,-2.28491,0,0,0,0,0,0,0,-1,1903,694,41.6984,2.28494
686,330,30.6691,0.582825,0,0,0,0,0,0,0,-1,1910,694,30.6691,-0.582798
693,330,17.3999,2.5976,0,0,0,0,0,0,0,-1,1917,694,17.4,-2.59759
700,330,17.1072,4.13,0,0,0,0,0,0,0,-1,1924,694,17.1071,-4.13002
707,330,16.663,4.88672,0,0,0,0,0,0,0,-1,1931,694,16.6629,-4.88673
714,330,16.5454,5.80896,0,0,0,0,0,0,0,-1,1938,694,16.5454,-5.80899
721,330,0,0,0,0,0,0,0,0,0,-1,1945,694,0,0
728,330,0,0,0,0,0,0,0,0,0,-1,1952,694,0,0
735,330,0,0,0,0,0,0,0,0,0,-1,1959,694,0,0
742,330,0,0,0,0,0,0,0,0,0,-1,1966,694,0,0
749,330,0,0,0,0,0,0,0,0,0,-1,1973,694,0,0
756,330,0,0,0,0,0,0,0,0,0,-1,1980,694,0,0
763,330,0,0,0,0,0,0,0,0,0,-1,1987,694,0,0
770,330,0,0,0,0,0,0,0,0,0,-1,1994,694,0,0
777,330,0,0,0,0,0,0,0,0,0,-1,2001,694,0,0
784,330,0,0,0,0,0,0,0,0,0,-1,2008,694,0,0
791,330,0,0,0,0,0,0,0,0,0,-1,2015,694,0,0
798,330,0,0,0,0,0,0,0,0,0,-1,2022,694,0,0
805,330,0,0,0,0,0,0,0,0,0,-1,2029,694,0,0
812,330,0,0,0,0,0,0,0,0,0,-1,2036,694,0,0
-700,323,0,0,0,0,0,0,0,0,0,-1,524,701,0,0
-693,323,0,0,0,0,0,0,0,0,0,-1,531,701,0,0
-686,323,0,0,0,0,0,0,0,0,0,-1,538,701,0,0
-679,323,0,0,0,0,0,0,0,0,0,-1,545,701,0,0
-672,323,0,0,0,0,0,0,0,0,0,-1,552,701,0,0
-665,323,0,0,0,0,0,0,0,0,0,-1,559,701,0,0
-658,323,0,0,0,0,0,0,0,0,0,-1,566,701,0,0
-651,323,0,0,0,0,0,0,0,0,0,-1,573,701,0,0
-644,323,0,0,0,0,0,0,0,0,0,-1,580,701,0,0
-637,323,0,0,0,0,0,0,0,0,0,-1,587,701,0,0
-630,323,0,0,0,0,0,0,0,0,0,-1,594,701,0,0
-623,323,0,0,0,0,0,0,0,0,0,-1,601,701,0,0
-616,323,0,0,0,0,0,0,0,0,0,-1,608,701,0,0
-609,323,0,0,0,0,0,0,0,0,0,-1,615,701,0,0
-602,323,-4.15833,2.12256,0,0,0,0,0,0,0,-1,622,701,-4.1583,-2.12257
-595,323,-4.052,1.79156,0,0,0,0,0,0,0,-1,629,701,-4.05198,-1.79158
-588,323,-4.07019,1.94543,0,0,0,0,0,0,0,-1,636,701,-4.07019,-1.94542
-581,323,-6.63727,0.562805,0,0,0,0,0,0,0,-1,643,701,-6.63728,-0.56279
-574,323,-6.15887,0.426697,0,0,0,0,0,0,0,-1,650,701,-6.15887,-0.426727
-567,323,-10.0015,0.0371094,0,0,0,0,0,0,0,-1,657,701,-10.0015,-0.037126
-560,323,-16.3503,-1.16956,0,0,0,0,0,0,0,-1,664,701,-16.3503,1.16957
-553,323,-26.8358,-3.04242,0,0,0,0,0,0,0,-1,671,701,-26.8357,3.04242
-546,323,-26.743,-3.82684,0,0,0,0,0,0,0,-1,678,701,-26.743,3.82687
-539,323,-26.7052,-4.65942,0.00368674,0.00408267,-0.00341393,0.00730437,0.000465042,-0.81436,0.0047222,0.0325925,685,701,-26.7052,4.65942
-532,323,-26.8019,-5.6806,0.00311632,0.00282329,-0.00257826,0.00555222,0.000387383,-0.757015,0.00357935,0.0130702,692,701,-26.8019,5.68061
-525,323,-26.8755,-6.66998,0.0025371,0.00171697,-0.0017609,0.00393505,0.000319018,-0.671001,0.00252376,0.0080685,699,701,-26.8755,6.66998
-518,323,-26.9277,-7.58704,0.00197426,0.000806727,-0.00100027,0.00254865,0.000232337,-0.521258,0.0016272,0.0107952,706,701,-26.9277,7.58703
-511,323,-26.9987,-8.52765,0.00152121,7.22435e-05,-0.000357126,0.00160445,-1.0995e-05,-0.228991,0.00107332,0.0152085,713,701,-26.9987,8.52766
-504,323,-27.0837,-9.46216,0.00107445,-0.000524306,0.000246206,0.00111151,-0.000561362,0.149389,0.000983086,0.0162261,720,701,-27.0837,9.46214
-497,323,-27.1143,-10.4025,0.000733525,-0.000934978,0.000724668,0.00100432,-0.00120577,0.35761,0.00127776,0.0130923,727,701,-27.1142,10.4025
-490,323,-27.1639,-11.3522,0.000575056,-0.0011478,0.00102566,0.00105304,-0.00162579,0.436105,0.00155836,0.0141292,734,701,-27.1639,11.3522
-483,323,-27.2128,-12.296,0.000484411,-0.00108545,0.00117053,0.00110883,-0.00170986,0.490045,0.00163966,0.0341644,741,701,-27.2128,12.296
-476,323,-27.2092,-13.2783,0,0,0,0,0,0,0,-1,748,701,-27.2092,13.2783
-469,323,-8.33301,-3.64001,0,0,0,0,0,0,0,-1,755,701,-8.33298,3.64
-462,323,-5.29431,-1.45697,0,0,0,0,0,0,0,-1,762,701,-5.29431,1.45699
-455,323,-5.0658,-1.36639,0,0,0,0,0,0,0,-1,769,701,-5.06578,1.3664
-448,323,-4.91608,-1.59601,0,0,0,0,0,0,0,-1,776,701,-4.91606,1.59604
-441,323,-14.4006,0.535217,0,0,0,0,0,0,0,-1,783,701,-14.4006,-0.535203
-434,323,-15.3158,2.479,0,0,0,0,0,0,0,-1,790,701,-15.3158,-2.47898
-427,323,-28.3923,1.16797,0,0,0,0,0,0,0,-1,797,701,-28.3923,-1.16796
-420,323,-28.7292,1.09302,0,0,0,0,0,0,0,-1,804,701,-28.7292,-1.09304
-413,323,-28.7955,1.22418,0,0,0,0,0,0,0,-1,811,701,-28.7956,-1.22419
-406,323,0,0,0,0,0,0,0,0,0,-1,818,701,0,0
-399,323,0,0,0,0,0,0,0,0,0,-1,825,701,0,0
-392,323,0,0,0,0,0,0,0,0,0,-1,832,701,0,0
-385,323,0,0,0,0,0,0,0,0,0,-1,839,701,0,0
-378,323,0,0,0,0,0,0,0,0,0,-1,846,701,0,0
-371,323,0,0,0,0,0,0,0,0,0,-1,853,701,0,0
-364,323,0,0,0,0,0,0,0,0,0,-1,860,701,0,0
-357,323,0,0,0,0,0,0,0,0,0,-1,867,701,0,0
-350,323,0,0,0,0,0,0,0,0,0,-1,874,701,0,0
-343,323,0,0,0,0,0,0,0,0,0,-1,881,701,0,0
-336,323,0,0,0,0,0,0,0,0,0,-1,888,701,0,0
-329,323,0,0,0,0,0,0,0,0,0,-1,895,701,0,0
-322,323,0,0,0,0,0,0,0,0,0,-1,902,701,0,0
-315,323,0,0,0,0,0,0,0,0,0,-1,909,701,0,0
-308,323,0,0,0,0,0,0,0,0,0,-1,916,701,0,0
-301,323,0,0,0,0,0,0,0,0,0,-1,923,701,0,0
-294,323,0,0,0,0,0,0,0,0,0,-1,930,701,0,0
-287,323,0,0,0,0,0,0,0,0,0,-1,937,701,0,0
-280,323,0,0,0,0,0,0,0,0,0,-1,944,701,0,0
-273,323,0,0,0,0,0,0,0,0,0,-1,951,701,0,0
-266,323,0,0,0,0,0,0,0,0,0,-1,958,701,0,0
-259,323,0,0,0,0,0,0,0,0,0,-1,965,701,0,0
-252,323,0,0,0,0,0,0,0,0,0,-1,972,701,0,0
-245,323,0,0,0,0,0,0,0,0,0,-1,979,701,0,0
-238,323,0,0,0,0,0,0,0,0,0,-1,986,701,0,0
-231,323,0,0,0,0,0,0,0,0,0,-1,993,701,0,0
-224,323,0,0,0,0,0,0,0,0,0,-1,1000,701,0,0
-217,323,0,0,0,0,0,0,0,0,0,-1,1007,701,0,0
-210,323,0,0,0,0,0,0,0,0,0,-1,1014,701,0,0
-203,323,0,0,0,0,0,0,0,0,0,-1,1021,701,0,0
-196,323,0,0,0,0,0,0,0,0,0,-1,1028,701,0,0
-189,323,0,0,0,0,0,0,0,0,0,-1,1035,701,0,0
-182,323,0,0,0,0,0,0,0,0,0,-1,1042,701,0,0
-175,323,0,0,0,0,0,0,0,0,0,-1,1049,701,0,0
-168,323,0,0,0,0,0,0,0,0,0,-1,1056,701,0,0
-161,323,0,0,0,0,0,0,0,0,0,-1,1063,701,0,0
-154,323,0,0,0,0,0,0,0,0,0,-1,1070,701,0,0
-147,323,0,0,0,0,0,0,0,0,0,-1,1077,701,0,0
-140,323,0,0,0,0,0,0,0,0,0,-1,1084,701,0,0
-133,323,0,0,0,0,0,0,0,0,0,-1,1091,701,0,0
-126,323,0,0,0,0,0,0,0,0,0,-1,1098,701,0,0
-119,323,0,0,0,0,0,0,0,0,0,-1,1105,701,0,0
-112,323,0,0,0,0,0,0,0,0,0,-1,1112,701,0,0
-105,323,0,0,0,0,0,0,0,0,0,-1,1119,701,0,0
-98,323,0,0,0,0,0,0,0,0,0,-1,1126,701,0,0
-91,323,0,0,0,0,0,0,0,0,0,-1,1133,701,0,0
-84,323,0,0,0,0,0,0,0,0,0,-1,1140,701,0,0
-77,323,0,0,0,0,0,0,0,0,0,-1,1147,701,0,0
-70,323,0,0,0,0,0,0,0,0,0,-1,1154,701,0,0
-63,323,0,0,0,0,0,0,0,0,0,-1,1161,701,0,0
-56,323,0,0,0,0,0,0,0,0,0,-1,1168,701,0,0
-49,323,0,0,0,0,0,0,0,0,0,-1,1175,701,0,0
-42,323,0,0,0,0,0,0,0,0,0,-1,1182,701,0,0
-35,323,0,0,0,0,0,0,0,0,0,-1,1189,701,0,0
-28,323,0,0,0,0,0,0,0,0,0,-1,1196,701,0,0
-21,323,0,0,0,0,0,0,0,0,0,-1,1203,701,0,0
-14,323,0,0,0,0,0,0,0,0,0,-1,1210,701,0,0
-7,323,0,0,0,0,0,0,0,0,0,-1,1217,701,0,0
0,323,0,0,0,0,0,0,0,0,0,-1,1224,701,0,0
7,323,0,0,0,0,0,0,0,0,0,-1,1231,701,0,0
14,323,0,0,0,0,0,0,0,0,0,-1,1238,701,0,0
21,323,0,0,0,0,0,0,0,0,0,-1,1245,701,0,0
28,323,0,0,0,0,0,0,0,0,0,-1,1252,701,0,0
35,323,0,0,0,0,0,0,0,0,0,-1,1259,701,0,0
42,323,0,0,0,0,0,0,0,0,0,-1,1266,701,0,0
49,323,0,0,0,0,0,0,0,0,0,-1,1273,701,0,0
56,323,0,0,0,0,0,0,0,0,0,-1,1280,701,0,0
63,323,0,0,0,0,0,0,0,0,0,-1,1287,701,0,0
70,323,0,0,0,0,0,0,0,0,0,-1,1294,701,0,0
77,323,0,0,0,0,0,0,0,0,0,-1,1301,701,0,0
84,323,0,0,0,0,0,0,0,0,0,-1,1308,701,0,0
91,323,0,0,0,0,0,0,0,0,0,-1,1315,701,0,0
98,323,0,0,0,0,0,0,0,0,0,-1,1322,701,0,0
105,323,0,0,0,0,0,0,0,0,0,-1,1329,701,0,0
112,323,0,0,0,0,0,0,0,0,0,-1,1336,701,0,0
119,323,0,0,0,0,0,0,0,0,0,-1,1343,701,0,0
126,323,0,0,0,0,0,0,0,0,0,-1,1350,701,0,0
133,323,0,0,0,0,0,0,0,0,0,-1,1357,701,0,0
140,323,0,0,0,0,0,0,0,0,0,-1,1364,701,0,0
147,323,0,0,0,0,0,0,0,0,0,-1,1371,701,0,0
154,323,0,0,0,0,0,0,0,0,0,-1,1378,701,0,0
161,323,0,0,0,0,0,0,0,0,0,-1,1385,701,0,0
168,323,0,0,0,0,0,0,0,0,0,-1,1392,701,0,0
175,323,0,0,0,0,0,0,0,0,0,-1,1399,701,0,0
182,323,0,0,0,0,0,0,0,0,0,-1,1406,701,0,0
189,323,0,0,0,0,0,0,0,0,0,-1,1413,701,0,0
196,323,0,0,0,0,0,0,0,0,0,-1,1420,701,0,0
203,323,0,0,0,0,0,0,0,0,0,-1,1427,701,0,0
210,323,0,0,0,0,0,0,0,0,0,-1,1434,701,0,0
217,323,0,0,0,0,0,0,0,0,0,-1,1441,701,0,0
224,323,0,0,0,0,0,0,0,0,0,-1,1448,701,0,0
231,323,0,0,0,0,0,0,0,0,0,-1,1455,701,0,0
238,323,0,0,0,0,0,0,0,0,0,-1,1462,701,0,0
245,323,0,0,0,0,0,0,0,0,0,-1,1469,701,0,0
252,323,0,0,0,0,0,0,0,0,0,-1,1476,701,0,0
259,323,0,0,0,0,0,0,0,0,0,-1,1483,701,0,0
266,323,0,0,0,0,0,0,0,0,0,-1,1490,701,0,0
273,323,0,0,0,0,0,0,0,0,0,-1,1497,701,0,0
280,323,0,0,0,0,0,0,0,0,0,-1,1504,701,0,0
287,323,0,0,0,0,0,0,0,0,0,-1,1511,701,0,0
294,323,0,0,0,0,0,0,0,0,0,-1,1518,701,0,0
301,323,0,0,0,0,0,0,0,0,0,-1,1525,701,0,0
308,323,0,0,0,0,0,0,0,0,0,-1,1532,701,0,0
315,323,0,0,0,0,0,0,0,0,0,-1,1539,701,0,0
322,323,0,0,0,0,0,0,0,0,0,-1,1546,701,0,0
329,323,0,0,0,0,0,0,0,0,0,-1,1553,701,0,0
336,323,0,0,0,0,0,0,0,0,0,-1,1560,701,0,0
343,323,0,0,0,0,0,0,0,0,0,-1,1567,701,0,0
350,323,0,0,0,0,0,0,0,0,0,-1,1574,701,0,0
357,323,0,0,0,0,0,0,0,0,0,-1,1581,701,0,0
364,323,0,0,0,0,0,0,0,0,0,-1,1588,701,0,0
371,323,0,0,0,0,0,0,0,0,0,-1,1595,701,0,0
378,323,0,0,0,0,0,0,0,0,0,-1,1602,701,0,0
385,323,0,0,0,0,0,0,0,0,0,-1,1609,701,0,0
392,323,0,0,0,0,0,0,0,0,0,-1,1616,701,0,0
399,323,0,0,0,0,0,0,0,0,0,-1,1623,701,0,0
406,323,0,0,0,0,0,0,0,0,0,-1,1630,701,0,0
413,323,0,0,0,0,0,0,0,0,0,-1,1637,701,0,0
420,323,0,0,0,0,0,0,0,0,0,-1,1644,701,0,0
427,323,0,0,0,0,0,0,0,0,0,-1,1651,701,0,0
434,323,0,0,0,0,0,0,0,0,0,-1,1658,701,0,0
441,323,0,0,0,0,0,0,0,0,0,-1,1665,701,0,0
448,323,0,0,0,0,0,0,0,0,0,-1,1672,701,0,0
455,323,0,0,0,0,0,0,0,0,0,-1,1679,701,0,0
462,323,0,0,0,0,0,0,0,0,0,-1,1686,701,0,0
469,323,0,0,0,0,0,0,0,0,0,-1,1693,701,0,0
476,323,0,0,0,0,0,0,0,0,0,-1,1700,701,0,0
483,323,0,0,0,0,0,0,0,0,0,-1,1707,701,0,0
490,323,0,0,0,0,0,0,0,0,0,-1,1714,701,0,0
497,323,0,0,0,0,0,0,0,0,0,-1,1721,701,0,0
504,323,0,0,0,0,0,0,0,0,0,-1,1728,701,0,0
511,323,0,0,0,0,0,0,0,0,0,-1,1735,701,0,0
518,323,0,0,0,0,0,0,0,0,0,-1,1742,701,0,0
525,323,0,0,0,0,0,0,0,0,0,-1,1749,701,0,0
532,323,33.6193,1.69446,0,0,0,0,0,0,0,-1,1756,701,33.6193,-1.69444
539,323,32.2698,2.44037,0,0,0,0,0,0,0,-1,1763,701,32.2697,-2.44036
546,323,31.1644,3.9444,0,0,0,0,0,0,0,-1,1770,701,31.1644,-3.94438
553,323,30.2488,5.8775,0,0,0,0,0,0,0,-1,1777,701,30.2487,-5.87752
560,323,40.6711,1.25153,0,0,0,0,0,0,0,-1,1784,701,40.6711,-1.25154
567,323,42.1637,2.01208,0,0,0,0,0,0,0,-1,1791,701,42.1637,-2.01207
574,323,12.514,5.89685,0,0,0,0,0,0,0,-1,1798,701,12.5141,-5.89683
581,323,11.821,5.3476,0,0,0,0,0,0,0,-1,1805,701,11.821,-5.34762
588,323,11.7933,7.00818,0,0,0,0,0,0,0,-1,1812,701,11.7933,-7.00819
595,323,6.67847,0.06604,0,0,0,0,0,0,0,-1,1819,701,6.67841,-0.0660418
602,323,42.6322,-12.8628,0,0,0,0,0,0,0,-1,1826,701,42.6322,12.8628
609,323,42.7712,-11.8408,0.00342558,-0.000187107,0.00132194,0.00385764,-0.000619158,0.315886,0.00280105,0.039935,1833,701,42.7712,11.8408
616,323,42.837,-10.8742,0.00299371,-0.000350863,0.00122926,0.0033969,-0.000754057,0.316941,0.00255334,0.014085,1840,701,42.837,10.8742
623,323,42.7788,-9.94482,0.00240774,-0.000257565,0.00100643,0.00274508,-0.000594898,0.323412,0.00205723,0.0135249,1847,701,42.7789,9.9448
630,323,42.715,-8.97614,0.00204583,-8.19526e-05,0.000913824,0.00238442,-0.000420537,0.354832,0.00174675,0.0137597,1854,701,42.7149,8.97615
637,323,42.6774,-8.0141,0.00175686,0.000203689,0.000880568,0.00215436,-0.000193815,0.424032,0.00150501,0.01126,1861,701,42.6773,8.01412
644,323,42.626,-7.10272,0.00155983,0.000599245,0.00091399,0.00211204,4.70364e-05,0.543483,0.00139261,0.00863481,1868,701,42.6259,7.10273
651,323,42.5875,-6.14056,0.00145693,0.00109624,0.00101518,0.00230766,0.000245509,0.697491,0.00146348,0.0132989,1875,701,42.5875,6.14059
658,323,42.4597,-5.17633,0.00146203,0.0017418,0.00119538,0.00280545,0.000398374,0.843643,0.00175267,0.0231912,1882,701,42.4597,5.17636
665,323,42.3518,-4.24469,0.00168263,0.00251636,0.00150578,0.00366192,0.000537072,0.920437,0.00228341,0.0185411,1889,701,42.3518,4.24468
672,323,42.3795,-3.22296,0.0021382,0.00349977,0.00193194,0.00486736,0.00077061,0.954797,0.00302098,0.0226148,1896,701,42.3795,3.22297
679,323,42.4426,-2.08514,0,0,0,0,0,0,0,-1,1903,701,42.4426,2.08512
686,323,30.4916,0.378235,0,0,0,0,0,0,0,-1,1910,701,30.4916,-0.37825
693,323,23.8806,1.08844,0,0,0,0,0,0,0,-1,1917,701,23.8806,-1.08845
700,323,10.7705,0.828613,0,0,0,0,0,0,0,-1,1924,701,10.7705,-0.828591
707,323,16.9005,4.79193,0,0,0,0,0,0,0,-1,1931,701,16.9005,-4.7919
714,323,16.2346,6.25958,0,0,0,0,0,0,0,-1,1938,701,16.2346,-6.25956
721,323,0,0,0,0,0,0,0,0,0,-1,1945,701,0,0
728,323,0,0,0,0,0,0,0,0,0,-1,1952,701,0,0
735,323,0,0,0,0,0,0,0,0,0,-1,1959,701,0,0
742,323,0,0,0,0,0,0,0,0,0,-1,1966,701,0,0
749,323,0,0,0,0,0,0,0,0,0,-1,1973,701,0,0
756,323,0,0,0,0,0,0,0,0,0,-1,1980,701,0,0
763,323,0,0,0,0,0,0,0,0,0,-1,1987,701,0,0
770,323,0,0,0,0,0,0,0,0,0,-1,1994,701,0,0
777,323,0,0,0,0,0,0,0,0,0,-1,2001,701,0,0
784,323,0,0,0,0,0,0,0,0,0,-1,2008,701,0,0
791,323,0,0,0,0,0,0,0,0,0,-1,2015,701,0,0
798,323,0,0,0,0,0,0,0,0,0,-1,2022,701,0,0
805,323,0,0,0,0,0,0,0,0,0,-1,2029,701,0,0
812,323,0,0,0,0,0,0,0,0,0,-1,2036,701,0,0
-700,316,0,0,0,0,0,0,0,0,0,-1,524,708,0,0
-693,316,0,0,0,0,0,0,0,0,0,-1,531,708,0,0
-686,316,0,0,0,0,0,0,0,0,0,-1,538,708,0,0
-679,316,0,0,0,0,0,0,0,0,0,-1,545,708,0,0
-672,316,0,0,0,0,0,0,0,0,0,-1,552,708,0,0
-665,316,0,0,0,0,0,0,0,0,0,-1,559,708,0,0
-658,316,0,0,0,0,0,0,0,0,0,-1,566,708,0,0
-651,316,0,0,0,0,0,0,0,0,0,-1,573,708,0,0
-644,316,0,0,0,0,0,0,0,0,0,-1,580,708,0,0
-637,316,0,0,0,0,0,0,0,0,0,-1,587,708,0,0
-630,316,0,0,0,0,0,0,0,0,0,-1,594,708,0,0
-623,316,0,0,0,0,0,0,0,0,0,-1,601,708,0,0
-616,316,0,0,0,0,0,0,0,0,0,-1,608,708,0,0
-609,316,0,0,0,0,0,0,0,0,0,-1,615,708,0,0
-602,316,-0.451782,-0.0494995,0,0,0,0,0,0,0,-1,622,708,-0.451768,0.0495022
-595,316,-3.3761,2.17188,0,0,0,0,0,0,0,-1,629,708,-3.37609,-2.17189
-588,316,-5.00177,2.60675,0,0,0,0,0,0,0,-1,636,708,-5.00175,-2.60676
-581,316,-3.94653,0.393433,0,0,0,0,0,0,0,-1,643,708,-3.94655,-0.39342
-574,316,-9.67395,1.06067,0,0,0,0,0,0,0,-1,650,708,-9.67396,-1.06065
-567,316,-10.1962,0.448425,0,0,0,0,0,0,0,-1,657,708,-10.1962,-0.448411
-560,316,-18.9941,-1.75067,0,0,0,0,0,0,0,-1,664,708,-18.9941,1.75068
-553,316,-25.6896,-2.78827,0,0,0,0,0,0,0,-1,671,708,-25.6896,2.78827
-546,316,-27.8593,-4.12762,0,0,0,0,0,0,0,-1,678,708,-27.8593,4.12763
-539,316,-27.662,-4.68286,0.00288988,0.0036374,-0.00269005,0.00597953,0.00054774,-0.854427,0.0038169,0.015094,685,708,-27.662,4.68286
-532,316,-27.7437,-5.62445,0.00248238,0.00243018,-0.00199524,0.00445169,0.000460865,-0.778857,0.00282673,0.0117575,692,708,-27.7437,5.62442
-525,316,-27.7991,-6.55676,0.00200426,0.00133597,-0.00128411,0.00299699,0.000343236,-0.658113,0.00189398,0.0107358,699,708,-27.799,6.55679
-518,316,-27.8499,-7.50598,0.00150555,0.000475631,-0.000602163,0.00178292,0.000198263,-0.43165,0.00112835,0.0107654,706,708,-27.8499,7.50598
-511,316,-27.9493,-8.45911,0.00106249,-0.000256283,1.16097e-05,0.00106259,-0.000256386,0.00880246,0.00080754,0.0127051,713,708,-27.9494,8.45911
-504,316,-28.0363,-9.40924,0.000589417,-0.000886646,0.000634837,0.000824889,-0.00112212,0.355186,0.00112846,0.0172423,720,708,-28.0363,9.40923
-497,316,-28.0415,-10.3249,0.000222227,-0.00133844,0.00115686,0.000837335,-0.00195355,0.488687,0.00165372,0.0144395,727,708,-28.0415,10.3249
-490,316,-28.0737,-11.2797,8.01041e-05,-0.00162183,0.00151635,0.000967945,-0.00250967,0.529699,0.00207253,0.0190782,734,708,-28.0736,11.2797
-483,316,-28.049,-12.2256,0,0,0,0,0,0,0,-1,741,708,-28.049,12.2256
-476,316,-8.90894,-3.31207,0,0,0,0,0,0,0,-1,748,708,-8.90896,3.31206
-469,316,-6.24194,-1.42725,0,0,0,0,0,0,0,-1,755,708,-6.24192,1.42725
-462,316,-5.74237,-1.40039,0,0,0,0,0,0,0,-1,762,708,-5.74238,1.40039
-455,316,-5.44745,-1.21899,0,0,0,0,0,0,0,-1,769,708,-5.44746,1.21898
-448,316,-14.8945,0.655396,0,0,0,0,0,0,0,-1,776,708,-14.8946,-0.655396
-441,316,-14.9626,0.576111,0,0,0,0,0,0,0,-1,783,708,-14.9626,-0.576115
-434,316,-27.7723,1.15576,0,0,0,0,0,0,0,-1,790,708,-27.7723,-1.15579
-427,316,-28.0504,1.31427,0,0,0,0,0,0,0,-1,797,708,-28.0504,-1.31427
-420,316,-28.198,1.62891,0,0,0,0,0,0,0,-1,804,708,-28.198,-1.62889
-413,316,0,0,0,0,0,0,0,0,0,-1,811,708,0,0
-406,316,0,0,0,0,0,0,0,0,0,-1,818,708,0,0
-399,316,0,0,0,0,0,0,0,0,0,-1,825,708,0,0
-392,316,0,0,0,0,0,0,0,0,0,-1,832,708,0,0
-385,316,0,0,0,0,0,0,0,0,0,-1,839,708,0,0
-378,316,0,0,0,0,0,0,0,0,0,-1,846,708,0,0
-371,316,0,0,0,0,0,0,0,0,0,-1,853,708,0,0
-364,316,0,0,0,0,0,0,0,0,0,-1,860,708,0,0
-357,316,0,0,0,0,0,0,0,0,0,-1,867,708,0,0
-350,316,0,0,0,0,0,0,0,0,0,-1,874,708,0,0
-343,316,0,0,0,0,0,0,0,0,0,-1,881,708,0,0
-336,316,0,0,0,0,0,0,0,0,0,-1,888,708,0,0
-329,316,0,0,0,0,0,0,0,0,0,-1,895,708,0,0
-322,316,0,0,0,0,0,0,0,0,0,-1,902,708,0,0
-315,316,0,0,0,0,0,0,0,0,0,-1,909,708,0,0
-308,316,0,0,0,0,0,0,0,0,0,-1,916,708,0,0
-301,316,0,0,0,0,0,0,0,0,0,-1,923,708,0,0
-294,316,0,0,0,0,0,0,0,0,0,-1,930,708,0,0
-287,316,0,0,0,0,0,0,0,0,0,-1,937,708,0,0
-280,316,0,0,0,0,0,0,0,0,0,-1,944,708,0,0
-273,316,0,0,0,0,0,0,0,0,0,-1,951,708,0,0
-266,316,0,0,0,0,0,0,0,0,0,-1,958,708,0,0
-259,316,0,0,0,0,0,0,0,0,0,-1,965,708,0,0
-252,316,0,0,0,0,0,0,0,0,0,-1,972,708,0,0
-245,316,0,0,0,0,0,0,0,0,0,-1,979,708,0,0
-238,316,0,0,0,0,0,0,0,0,0,-1,986,708,0,0
-231,316,0,0,0,0,0,0,0,0,0,-1,993,708,0,0
-224,316,0,0,0,0,0,0,0,0,0,-1,1000,708,0,0
-217,316,0,0,0,0,0,0,0,0,0,-1,1007,708,0,0
-210,316,0,0,0,0,0,0,0,0,0,-1,1014,708,0,0
-203,316,0,0,0,0,0,0,0,0,0,-1,1021,708,0,0
-196,316,0,0,0,0,0,0,0,0,0,-1,1028,708,0,0
-189,316,0,0,0,0,0,0,0,0,0,-1,1035,708,0,0
-182,316,0,0,0,0,0,0,0,0,0,-1,1042,708,0,0
-175,316,0,0,0,0,0,0,0,0,0,-1,1049,708,0,0
-168,316,0,0,0,0,0,0,0,0,0,-1,1056,708,0,0
-161,316,0,0,0,0,0,0,0,0,0,-1,1063,708,0,0
-154,316,0,0,0,0,0,0,0,0,0,-1,1070,708,0,0
-147,316,0,0,0,0,0,0,0,0,0,-1,1077,708,0,0
-140,316,0,0,0,0,0,0,0,0,0,-1,1084,708,0,0
-133,316,0,0,0,0,0,0,0,0,0,-1,1091,708,0,0
-126,316,0,0,0,0,0,0,0,0,0,-1,1098,708,0,0
-119,316,0,0,0,0,0,0,0,0,0,-1,1105,708,0,0
-112,316,0,0,0,0,0,0,0,0,0,-1,1112,708,0,0
-105,316,0,0,0,0,0,0,0,0,0,-1,1119,708,0,0
-98,316,0,0,0,0,0,0,0,0,0,-1,1126,708,0,0
-91,316,0,0,0,0,0,0,0,0,0,-1,1133,708,0,0
-84,316,0,0,0,0,0,0,0,0,0,-1,1140,708,0,0
-77,316,0,0,0,0,0,0,0,0,0,-1,1147,708,0,0
-70,316,0,0,0,0,0,0,0,0,0,-1,1154,708,0,0
-63,316,0,0,0,0,0,0,0,0,0,-1,1161,708,0,0
-56,316,0,0,0,0,0,0,0,0,0,-1,1168,708,0,0
-49,316,0,0,0,0,0,0,0,0,0,-1,1175,708,0,0
-42,316,0,0,0,0,0,0,0,0,0,-1,1182,708,0,0
-35,316,0,0,0,0,0,0,0,0,0,-1,1189,708,0,0
-28,316,0,0,0,0,0,0,0,0,0,-1,1196,708,0,0
-21,316,0,0,0,0,0,0,0,0,0,-1,1203,708,0,0
-14,316,0,0,0,0,0,0,0,0,0,-1,1210,708,0,0
-7,316,0,0,0,0,0,0,0,0,0,-1,1217,708,0,0
0,316,0,0,0,0,0,0,0,0,0,-1,1224,708,0,0
7,316,0,0,0,0,0,0,0,0,0,-1,1231,708,0,0
14,316,0,0,0,0,0,0,0,0,0,-1,1238,708,0,0
21,316,0,0,0,0,0,0,0,0,0,-1,1245,708,0,0
28,316,0,0,0,0,0,0,0,0,0,-1,1252,708,0,0
35,316,0,0,0,0,0,0,0,0,0,-1,1259,708,0,0
42,316,0,0,0,0,0,0,0,0,0,-1,1266,708,0,0
49,316,0,0,0,0,0,0,0,0,0,-1,1273,708,0,0
56,316,0,0,0,0,0,0,0,0,0,-1,1280,708,0,0
63,316,0,0,0,0,0,0,0,0,0,-1,1287,708,0,0
70,316,0,0,0,0,0,0,0,0,0,-1,1294,708,0,0
77,316,0,0,0,0,0,0,0,0,0,-1,1301,708,0,0
84,316,0,0,0,0,0,0,0,0,0,-1,1308,708,0,0
91,316,0,0,0,0,0,0,0,0,0,-1,1315,708,0,0
98,316,0,0,0,0,0,0,0,0,0,-1,1322,708,0,0
105,316,0,0,0,0,0,0,0,0,0,-1,1329,708,0,0
112,316,0,0,0,0,0,0,0,0,0,-1,1336,708,0,0
119,316,0,0,0,0,0,0,0,0,0,-1,1343,708,0,0
126,316,0,0,0,0,0,0,0,0,0,-1,1350,708,0,0
133,316,0,0,0,0,0,0,0,0,0,-1,1357,708,0,0
140,316,0,0,0,0,0,0,0,0,0,-1,1364,708,0,0
147,316,0,0,0,0,0,0,0,0,0,-1,1371,708,0,0
154,316,0,0,0,0,0,0,0,0,0,-1,1378,708,0,0
161,316,0,0,0,0,0,0,0,0,0,-1,1385,708,0,0
168,316,0,0,0,0,0,0,0,0,0,-1,1392,708,0,0
175,316,0,0,0,0,0,0,0,0,0,-1,1399,708,0,0
182,316,0,0,0,0,0,0,0,0,0,-1,1406,708,0,0
189,316,0,0,0,0,0,0,0,0,0,-1,1413,708,0,0
196,316,0,0,0,0,0,0,0,0,0,-1,1420,708,0,0
203,316,0,0,0,0,0,0,0,0,0,-1,1427,708,0,0
210,316,0,0,0,0,0,0,0,0,0,-1,1434,708,0,0
217,316,0,0,0,0,0,0,0,0,0,-1,1441,708,0,0
224,316,0,0,0,0,0,0,0,0,0,-1,1448,708,0,0
231,316,0,0,0,0,0,0,0,0,0,-1,1455,708,0,0
238,316,0,0,0,0,0,0,0,0,0,-1,1462,708,0,0
245,316,0,0,0,0,0,0,0,0,0,-1,1469,708,0,0
252,316,0,0,0,0,0,0,0,0,0,-1,1476,708,0,0
259,316,0,0,0,0,0,0,0,0,0,-1,1483,708,0,0
266,316,0,0,0,0,0,0,0,0,0,-1,1490,708,0,0
273,316,0,0,0,0,0,0,0,0,0,-1,1497,708,0,0
280,316,0,0,0,0,0,0,0,0,0,-1,1504,708,0,0
287,316,0,0,0,0,0,0,0,0,0,-1,1511,708,0,0
294,316,0,0,0,0,0,0,0,0,0,-1,1518,708,0,0
301,316,0,0,0,0,0,0,0,0,0,-1,1525,708,0,0
308,316,0,0,0,0,0,0,0,0,0,-1,1532,708,0,0
315,316,0,0,0,0,0,0,0,0,0,-1,1539,708,0,0
322,316,0,0,0,0,0,0,0,0,0,-1,1546,708,0,0
329,316,0,0,0,0,0,0,0,0,0,-1,1553,708,0,0
336,316,0,0,0,0,0,0,0,0,0,-1,1560,708,0,0
343,316,0,0,0,0,0,0,0,0,0,-1,1567,708,0,0
350,316,0,0,0,0,0,0,0,0,0,-1,1574,708,0,0
357,316,0,0,0,0,0,0,0,0,0,-1,1581,708,0,0
364,316,0,0,0,0,0,0,0,0,0,-1,1588,708,0,0
371,316,0,0,0,0,0,0,0,0,0,-1,1595,708,0,0
378,316,0,0,0,0,0,0,0,0,0,-1,1602,708,0,0
385,316,0,0,0,0,0,0,0,0,0,-1,1609,708,0,0
392,316,0,0,0,0,0,0,0,0,0,-1,1616,708,0,0
399,316,0,0,0,0,0,0,0,0,0,-1,1623,708,0,0
406,316,0,0,0,0,0,0,0,0,0,-1,1630,708,0,0
413,316,0,0,0,0,0,0,0,0,0,-1,1637,708,0,0
420,316,0,0,0,0,0,0,0,0,0,-1,1644,708,0,0
427,316,0,0,0,0,0,0,0,0,0,-1,1651,708,0,0
434,316,0,0,0,0,0,0,0,0,0,-1,1658,708,0,0
441,316,0,0,0,0,0,0,0,0,0,-1,1665,708,0,0
448,316,0,0,0,0,0,0,0,0,0,-1,1672,708,0,0
455,316,0,0,0,0,0,0,0,0,0,-1,1679,708,0,0
462,316,0,0,0,0,0,0,0,0,0,-1,1686,708,0,0
469,316,0,0,0,0,0,0,0,0,0,-1,1693,708,0,0
476,316,0,0,0,0,0,0,0,0,0,-1,1700,708,0,0
483,316,0,0,0,0,0,0,0,0,0,-1,1707,708,0,0
490,316,0,0,0,0,0,0,0,0,0,-1,1714,708,0,0
497,316,0,0,0,0,0,0,0,0,0,-1,1721,708,0,0
504,316,0,0,0,0,0,0,0,0,0,-1,1728,708,0,0
511,316,0,0,0,0,0,0,0,0,0,-1,1735,708,0,0
518,316,0,0,0,0,0,0,0,0,0,-1,1742,708,0,0
525,316,0,0,0,0,0,0,0,0,0,-1,1749,708,0,0
532,316,33.8604,0.531128,0,0,0,0,0,0,0,-1,1756,708,33.8604,-0.531151
539,316,44.4543,2.73468,0,0,0,0,0,0,0,-1,1763,708,44.4543,-2.7347
546,316,44.713,3.35498,0,0,0,0,0,0,0,-1,1770,708,44.7131,-3.35501
553,316,39.9031,6.57275,0,0,0,0,0,0,0,-1,1777,708,39.9031,-6.57274
560,316,39.1196,1.10046,0,0,0,0,0,0,0,-1,1784,708,39.1197,-1.10048
567,316,47.3683,6.04919,0,0,0,0,0,0,0,-1,1791,708,47.3683,-6.04918
574,316,45.9872,6.7655,0,0,0,0,0,0,0,-1,1798,708,45.9871,-6.76552
581,316,24.6815,7.77496,0,0,0,0,0,0,0,-1,1805,708,24.6815,-7.77499
588,316,19.7659,2.90198,0,0,0,0,0,0,0,-1,1812,708,19.7659,-2.902
595,316,12.5363,1.50702,0,0,0,0,0,0,0,-1,1819,708,12.5363,-1.50701
602,316,7.79919,0.0422363,0,0,0,0,0,0,0,-1,1826,708,7.79923,-0.0422066
609,316,43.6421,-11.7785,0,0,0,0,0,0,0,-1,1833,708,43.642,11.7785
616,316,43.7562,-10.8016,0.00376315,-0.000325628,0.0015646,0.00429315,-0.000855634,0.326616,0.00318585,0.0163618,1840,708,43.7562,10.8016
623,316,43.7092,-9.85742,0.00291466,-0.000276942,0.00123196,0.00333487,-0.000697152,0.328716,0.0024884,0.0126552,1847,708,43.7093,9.85744
630,316,43.6342,-8.9491,0.00242245,-0.000171775,0.00105844,0.00279949,-0.000548819,0.34221,0.00207362,0.0135924,1854,708,43.6342,8.94908
637,316,43.5934,-7.96765,0.00203988,6.47948e-05,0.000978775,0.00244275,-0.000338074,0.39047,0.00175209,0.0127828,1861,708,43.5933,7.96767
644,316,43.5785,-7.01428,0.00177946,0.000423807,0.000987398,0.0022993,-9.60322e-05,0.484601,0.00156586,0.0126888,1868,708,43.5785,7.01429
651,316,43.516,-6.06537,0.00162797,0.000878063,0.00107138,0.00238812,0.000117916,0.617073,0.00155427,0.0186646,1875,708,43.516,6.06539
658,316,43.3854,-5.10193,0.00158156,0.00148669,0.00122655,0.00276159,0.000306658,0.76607,0.00174783,0.0392486,1882,708,43.3853,5.10195
665,316,43.2605,-4.1582,0.00171082,0.00222357,0.00150788,0.00349672,0.000437673,0.869605,0.00219982,0.0266742,1889,708,43.2605,4.15818
672,316,43.2892,-3.21503,0.00203147,0.00315828,0.00191372,0.0045898,0.000599948,0.928555,0.00288078,0.0142092,1896,708,43.2892,3.21504
679,316,43.3065,-2.2522,0,0,0,0,0,0,0,-1,1903,708,43.3065,2.25222
686,316,34.0828,0.223206,0,0,0,0,0,0,0,-1,1910,708,34.0828,-0.223183
693,316,26.4315,1.80652,0,0,0,0,0,0,0,-1,1917,708,26.4315,-1.80651
700,316,12.8749,2.89136,0,0,0,0,0,0,0,-1,1924,708,12.8748,-2.89137
707,316,15.7089,5.41486,0,0,0,0,0,0,0,-1,1931,708,15.7088,-5.41487
714,316,16.1727,5.52045,0,0,0,0,0,0,0,-1,1938,708,16.1728,-5.52042
721,316,16.7094,6.53351,0,0,0,0,0,0,0,-1,1945,708,16.7094,-6.5335
728,316,0,0,0,0,0,0,0,0,0,-1,1952,708,0,0
735,316,0,0,0,0,0,0,0,0,0,-1,1959,708,0,0
742,316,0,0,0,0,0,0,0,0,0,-1,1966,708,0,0
749,316,0,0,0,0,0,0,0,0,0,-1,1973,708,0,0
756,316,0,0,0,0,0,0,0,0,0,-1,1980,708,0,0
763,316,0,0,0,0,0,0,0,0,0,-1,1987,708,0,0
770,316,0,0,0,0,0,0,0,0,0,-1,1994,708,0,0
777,316,0,0,0,0,0,0,0,0,0,-1,2001,708,0,0
784,316,0,0,0,0,0,0,0,0,0,-1,2008,708,0,0
791,316,0,0,0,0,0,0,0,0,0,-1,2015,708,0,0
798,316,0,0,0,0,0,0,0,0,0,-1,2022,708,0,0
805,316,0,0,0,0,0,0,0,0,0,-1,2029,708,0,0
812,316,0,0,0,0,0,0,0,0,0,-1,2036,708,0,0
-700,309,0,0,0,0,0,0,0,0,0,-1,524,715,0,0
-693,309,0,0,0,0,0,0,0,0,0,-1,531,715,0,0
-686,309,0,0,0,0,0,0,0,0,0,-1,538,715,0,0
-679,309,0,0,0,0,0,0,0,0,0,-1,545,715,0,0
-672,309,0,0,0,0,0,0,0,0,0,-1,552,715,0,0
-665,309,0,0,0,0,0,0,0,0,0,-1,559,715,0,0
-658,309,0,0,0,0,0,0,0,0,0,-1,566,715,0,0
-651,309,0,0,0,0,0,0,0,0,0,-1,573,715,0,0
-644,309,0,0,0,0,0,0,0,0,0,-1,580,715,0,0
-637,309,0,0,0,0,0,0,0,0,0,-1,587,715,0,0
-630,309,0,0,0,0,0,0,0,0,0,-1,594,715,0,0
-623,309,0,0,0,0,0,0,0,0,0,-1,601,715,0,0
-616,309,0,0,0,0,0,0,0,0,0,-1,608,715,0,0
-609,309,-5.95392,-3.93689,0,0,0,0,0,0,0,-1,615,715,-5.95392,3.93686
-602,309,-4.99786,-3.31287,0,0,0,0,0,0,0,-1,622,715,-4.99786,3.31284
-595,309,-6.80847,2.4046,0,0,0,0,0,0,0,-1,629,715,-6.80845,-2.40458
-588,309,-6.08795,2.19324,0,0,0,0,0,0,0,-1,636,715,-6.08793,-2.19325
-581,309,-5.97552,1.3277,0,0,0,0,0,0,0,-1,643,715,-5.97552,-1.32769
-574,309,-8.73602,0.208435,0,0,0,0,0,0,0,-1,650,715,-8.73604,-0.208437
-567,309,-10.3909,0.85968,0,0,0,0,0,0,0,-1,657,715,-10.3909,-0.859696
-560,309,-18.6088,-1.73389,0,0,0,0,0,0,0,-1,664,715,-18.6088,1.73389
-553,309,-28.7068,-2.49139,0,0,0,0,0,0,0,-1,671,715,-28.7069,2.49138
-546,309,-28.7088,-3.6203,0.00259564,0.00441245,-0.00240754,0.00607727,0.000930829,-0.965798,0.00377964,0.0413298,678,715,-28.7088,3.62031
-539,309,-28.6182,-4.62195,0.00231309,0.00306948,-0.00187959,0.00460855,0.00077402,-0.884678,0.00284962,0.0160257,685,715,-28.6181,4.62197
-532,309,-28.6596,-5.55481,0.00189206,0.00192123,-0.00131539,0.00322211,0.000591178,-0.790942,0.00198064,0.0127888,692,715,-28.6596,5.55481
-525,309,-28.7144,-6.52393,0.00137108,0.000866861,-0.000716358,0.00187839,0.000359543,-0.616202,0.00115128,0.0169415,699,715,-28.7143,6.52392
-518,309,-28.7985,-7.45117,0.000822665,6.31238e-05,-0.00011142,0.000838672,4.71165e-05,-0.14269,0.00054409,0.0170893,706,715,-28.7984,7.45118
-511,309,-28.8966,-8.38062,0.000293741,-0.000646351,0.000474631,0.00049169,-0.0008443,0.395126,0.000780238,0.0140949,713,715,-28.8966,8.38064
-504,309,-28.9473,-9.33868,-0.00027224,-0.0012757,0.00110092,0.000435892,-0.00198383,0.571592,0.00148927,0.0121266,720,715,-28.9473,9.33866
-497,309,-28.9938,-10.2461,-0.000697963,-0.00172564,0.00163247,0.000499623,-0.00292323,0.632926,0.00213494,0.0166348,727,715,-28.9938,10.2461
-490,309,-28.9252,-11.2502,0,0,0,0,0,0,0,-1,734,715,-28.9253,11.2503
-483,309,-17.7261,-7.75836,0,0,0,0,0,0,0,-1,741,715,-17.7261,7.75839
-476,309,-5.29486,-1.2262,0,0,0,0,0,0,0,-1,748,715,-5.29484,1.22622
-469,309,-4.22717,-0.592896,0,0,0,0,0,0,0,-1,755,715,-4.2272,0.592905
-462,309,-10.428,2.46948,0,0,0,0,0,0,0,-1,762,715,-10.428,-2.46947
-455,309,-15.8216,0.00915527,0,0,0,0,0,0,0,-1,769,715,-15.8216,-0.00913359
-448,309,-37.3543,-1.02441,0,0,0,0,0,0,0,-1,776,715,-37.3543,1.02444
-441,309,-19.8181,1.4425,0,0,0,0,0,0,0,-1,783,715,-19.8181,-1.44249
-434,309,-46.7953,1.72064,0,0,0,0,0,0,0,-1,790,715,-46.7953,-1.72067
-427,309,-27.8553,1.40332,0,0,0,0,0,0,0,-1,797,715,-27.8553,-1.40334
-420,309,-27.3148,1.90747,0,0,0,0,0,0,0,-1,804,715,-27.3148,-1.90745
-413,309,0,0,0,0,0,0,0,0,0,-1,811,715,0,0
-406,309,0,0,0,0,0,0,0,0,0,-1,818,715,0,0
-399,309,0,0,0,0,0,0,0,0,0,-1,825,715,0,0
-392,309,0,0,0,0,0,0,0,0,0,-1,832,715,0,0
-385,309,0,0,0,0,0,0,0,0,0,-1,839,715,0,0
-378,309,0,0,0,0,0,0,0,0,0,-1,846,715,0,0
-371,309,0,0,0,0,0,0,0,0,0,-1,853,715,0,0
-364,309,0,0,0,0,0,0,0,0,0,-1,860,715,0,0
-357,309,0,0,0,0,0,0,0,0,0,-1,867,715,0,0
-350,309,0,0,0,0,0,0,0,0,0,-1,874,715,0,0
-343,309,0,0,0,0,0,0,0,0,0,-1,881,715,0,0
-336,309,0,0,0,0,0,0,0,0,0,-1,888,715,0,0
-329,309,0,0,0,0,0,0,0,0,0,-1,895,715,0,0
-322,309,0,0,0,0,0,0,0,0,0,-1,902,715,0,0
-315,309,0,0,0,0,0,0,0,0,0,-1,909,715,0,0
-308,309,0,0,0,0,0,0,0,0,0,-1,916,715,0,0
-301,309,0,0,0,0,0,0,0,0,0,-1,923,715,0,0
-294,309,0,0,0,0,0,0,0,0,0,-1,930,715,0,0
-287,309,0,0,0,0,0,0,0,0,0,-1,937,715,0,0
-280,309,0,0,0,0,0,0,0,0,0,-1,944,715,0,0
-273,309,0,0,0,0,0,0,0,0,0,-1,951,715,0,0
-266,309,0,0,0,0,0,0,0,0,0,-1,958,715,0,0
-259,309,0,0,0,0,0,0,0,0,0,-1,965,715,0,0
-252,309,0,0,0,0,0,0,0,0,0,-1,972,715,0,0
-245,309,0,0,0,0,0,0,0,0,0,-1,979,715,0,0
-238,309,0,0,0,0,0,0,0,0,0,-1,986,715,0,0
-231,309,0,0,0,0,0,0,0,0,0,-1,993,715,0,0
-224,309,0,0,0,0,0,0,0,0,0,-1,1000,715,0,0
-217,309,0,0,0,0,0,0,0,0,0,-1,1007,715,0,0
-210,309,0,0,0,0,0,0,0,0,0,-1,1014,715,0,0
-203,309,0,0,0,0,0,0,0,0,0,-1,1021,715,0,0
-196,309,0,0,0,0,0,0,0,0,0,-1,1028,715,0,0
-189,309,0,0,0,0,0,0,0,0,0,-1,1035,715,0,0
-182,309,0,0,0,0,0,0,0,0,0,-1,1042,715,0,0
-175,309,0,0,0,0,0,0,0,0,0,-1,1049,715,0,0
-168,309,0,0,0,0,0,0,0,0,0,-1,1056,715,0,0
-161,309,0,0,0,0,0,0,0,0,0,-1,1063,715,0,0
-154,309,0,0,0,0,0,0,0,0,0,-1,1070,715,0,0
-147,309,0,0,0,0,0,0,0,0,0,-1,1077,715,0,0
-140,309,0,0,0,0,0,0,0,0,0,-1,1084,715,0,0
-133,309,0,0,0,0,0,0,0,0,0,-1,1091,715,0,0
-126,309,0,0,0,0,0,0,0,0,0,-1,1098,715,0,0
-119,309,0,0,0,0,0,0,0,0,0,-1,1105,715,0,0
-112,309,0,0,0,0,0,0,0,0,0,-1,1112,715,0,0
-105,309,0,0,0,0,0,0,0,0,0,-1,1119,715,0,0
-98,309,0,0,0,0,0,0,0,0,0,-1,1126,715,0,0
-91,309,0,0,0,0,0,0,0,0,0,-1,1133,715,0,0
-84,309,0,0,0,0,0,0,0,0,0,-1,1140,715,0,0
-77,309,0,0,0,0,0,0,0,0,0,-1,1147,715,0,0
-70,309,0,0,0,0,0,0,0,0,0,-1,1154,715,0,0
-63,309,0,0,0,0,0,0,0,0,0,-1,1161,715,0,0
-56,309,0,0,0,0,0,0,0,0,0,-1,1168,715,0,0
-49,309,0,0,0,0,0,0,0,0,0,-1,1175,715,0,0
-42,309,0,0,0,0,0,0,0,0,0,-1,1182,715,0,0
-35,309,0,0,0,0,0,0,0,0,0,-1,1189,715,0,0
-28,309,0,0,0,0,0,0,0,0,0,-1,1196,715,0,0
-21,309,0,0,0,0,0,0,0,0,0,-1,1203,715,0,0
-14,309,0,0,0,0,0,0,0,0,0,-1,1210,715,0,0
-7,309,0,0,0,0,0,0,0,0,0,-1,1217,715,0,0
0,309,0,0,0,0,0,0,0,0,0,-1,1224,715,0,0
7,309,0,0,0,0,0,0,0,0,0,-1,1231,715,0,0
14,309,0,0,0,0,0,0,0,0,0,-1,1238,715,0,0
21,309,0,0,0,0,0,0,0,0,0,-1,1245,715,0,0
28,309,0,0,0,0,0,0,0,0,0,-1,1252,715,0,0
35,309,0,0,0,0,0,0,0,0,0,-1,1259,715,0,0
42,309,0,0,0,0,0,0,0,0,0,-1,1266,715,0,0
49,309,0,0,0,0,0,0,0,0,0,-1,1273,715,0,0
56,309,0,0,0,0,0,0,0,0,0,-1,1280,715,0,0
63,309,0,0,0,0,0,0,0,0,0,-1,1287,715,0,0
70,309,0,0,0,0,0,0,0,0,0,-1,1294,715,0,0
77,309,0,0,0,0,0,0,0,0,0,-1,1301,715,0,0
84,309,0,0,0,0,0,0,0,0,0,-1,1308,715,0,0
91,309,0,0,0,0,0,0,0,0,0,-1,1315,715,0,0
98,309,0,0,0,0,0,0,0,0,0,-1,1322,715,0,0
105,309,0,0,0,0,0,0,0,0,0,-1,1329,715,0,0
112,309,0,0,0,0,0,0,0,0,0,-1,1336,715,0,0
119,309,0,0,0,0,0,0,0,0,0,-1,1343,715,0,0
126,309,0,0,0,0,0,0,0,0,0,-1,1350,715,0,0
133,309,0,0,0,0,0,0,0,0,0,-1,1357,715,0,0
140,309,0,0,0,0,0,0,0,0,0,-1,1364,715,0,0
147,309,0,0,0,0,0,0,0,0,0,-1,1371,715,0,0
154,309,0,0,0,0,0,0,0,0,0,-1,1378,715,0,0
161,309,0,0,0,0,0,0,0,0,0,-1,1385,715,0,0
168,309,0,0,0,0,0,0,0,0,0,-1,1392,715,0,0
175,309,0,0,0,0,0,0,0,0,0,-1,1399,715,0,0
182,309,0,0,0,0,0,0,0,0,0,-1,1406,715,0,0
189,309,0,0,0,0,0,0,0,0,0,-1,1413,715,0,0
196,309,0,0,0,0,0,0,0,0,0,-1,1420,715,0,0
203,309,0,0,0,0,0,0,0,0,0,-1,1427,715,0,0
210,309,0,0,0,0,0,0,0,0,0,-1,1434,715,0,0
217,309,0,0,0,0,0,0,0,0,0,-1,1441,715,0,0
224,309,0,0,0,0,0,0,0,0,0,-1,1448,715,0,0
231,309,0,0,0,0,0,0,0,0,0,-1,1455,715,0,0
238,309,0,0,0,0,0,0,0,0,0,-1,1462,715,0,0
245,309,0,0,0,0,0,0,0,0,0,-1,1469,715,0,0
252,309,0,0,0,0,0,0,0,0,0,-1,1476,715,0,0
259,309,0,0,0,0,0,0,0,0,0,-1,1483,715,0,0
266,309,0,0,0,0,0,0,0,0,0,-1,1490,715,0,0
273,309,0,0,0,0,0,0,0,0,0,-1,1497,715,0,0
280,309,0,0,0,0,0,0,0,0,0,-1,1504,715,0,0
287,309,0,0,0,0,0,0,0,0,0,-1,1511,715,0,0
294,309,0,0,0,0,0,0,0,0,0,-1,1518,715,0,0
301,309,0,0,0,0,0,0,0,0,0,-1,1525,715,0,0
308,309,0,0,0,0,0,0,0,0,0,-1,1532,715,0,0
315,309,0,0,0,0,0,0,0,0,0,-1,1539,715,0,0
322,309,0,0,0,0,0,0,0,0,0,-1,1546,715,0,0
329,309,0,0,0,0,0,0,0,0,0,-1,1553,715,0,0
336,309,0,0,0,0,0,0,0,0,0,-1,1560,715,0,0
343,309,0,0,0,0,0,0,0,0,0,-1,1567,715,0,0
350,309,0,0,0,0,0,0,0,0,0,-1,1574,715,0,0
357,309,0,0,0,0,0,0,0,0,0,-1,1581,715,0,0
364,309,0,0,0,0,0,0,0,0,0,-1,1588,715,0,0
371,309,0,0,0,0,0,0,0,0,0,-1,1595,715,0,0
378,309,0,0,0,0,0,0,0,0,0,-1,1602,715,0,0
385,309,0,0,0,0,0,0,0,0,0,-1,1609,715,0,0
392,309,0,0,0,0,0,0,0,0,0,-1,1616,715,0,0
399,309,0,0,0,0,0,0,0,0,0,-1,1623,715,0,0
406,309,0,0,0,0,0,0,0,0,0,-1,1630,715,0,0
413,309,0,0,0,0,0,0,0,0,0,-1,1637,715,0,0
420,309,0,0,0,0,0,0,0,0,0,-1,1644,715,0,0
427,309,0,0,0,0,0,0,0,0,0,-1,1651,715,0,0
434,309,0,0,0,0,0,0,0,0,0,-1,1658,715,0,0
441,309,0,0,0,0,0,0,0,0,0,-1,1665,715,0,0
448,309,0,0,0,0,0,0,0,0,0,-1,1672,715,0,0
455,309,0,0,0,0,0,0,0,0,0,-1,1679,715,0,0
462,309,0,0,0,0,0,0,0,0,0,-1,1686,715,0,0
469,309,0,0,0,0,0,0,0,0,0,-1,1693,715,0,0
476,309,0,0,0,0,0,0,0,0,0,-1,1700,715,0,0
483,309,0,0,0,0,0,0,0,0,0,-1,1707,715,0,0
490,309,0,0,0,0,0,0,0,0,0,-1,1714,715,0,0
497,309,0,0,0,0,0,0,0,0,0,-1,1721,715,0,0
504,309,0,0,0,0,0,0,0,0,0,-1,1728,715,0,0
511,309,0,0,0,0,0,0,0,0,0,-1,1735,715,0,0
518,309,0,0,0,0,0,0,0,0,0,-1,1742,715,0,0
525,309,0,0,0,0,0,0,0,0,0,-1,1749,715,0,0
532,309,0,0,0,0,0,0,0,0,0,-1,1756,715,0,0
539,309,44.2073,2.66235,0,0,0,0,0,0,0,-1,1763,715,44.2073,-2.66238
546,309,44.4976,3.25531,0,0,0,0,0,0,0,-1,1770,715,44.4976,-3.25533
553,309,47.9611,4.06433,0,0,0,0,0,0,0,-1,1777,715,47.9611,-4.06434
560,309,47.9784,4.64801,0,0,0,0,0,0,0,-1,1784,715,47.9784,-4.64799
567,309,47.0073,5.43121,0,0,0,0,0,0,0,-1,1791,715,47.0073,-5.43121
574,309,45.8746,6.53271,0,0,0,0,0,0,0,-1,1798,715,45.8747,-6.53269
581,309,45.0629,7.73468,0,0,0,0,0,0,0,-1,1805,715,45.0629,-7.73471
588,309,26.2064,7.76422,0,0,0,0,0,0,0,-1,1812,715,26.2064,-7.7642
595,309,19.585,3.71558,0,0,0,0,0,0,0,-1,1819,715,19.5849,-3.71555
602,309,11.0811,3.47772,0,0,0,0,0,0,0,-1,1826,715,11.0811,-3.47772
609,309,44.7073,-11.7431,0,0,0,0,0,0,0,-1,1833,715,44.7073,11.7431
616,309,44.6895,-10.7567,0.0043025,-0.000283136,0.00170756,0.00486849,-0.000849123,0.320064,0.00356259,0.0341007,1840,715,44.6894,10.7567
623,309,44.6759,-9.78711,0.00321045,-0.000275141,0.00132,0.00365391,-0.000718604,0.324111,0.00270745,0.0126053,1847,715,44.676,9.7871
630,309,44.5864,-8.8656,0.00261002,-0.0002301,0.00110121,0.00298697,-0.000607047,0.329801,0.00222148,0.0122091,1854,715,44.5865,8.86561
637,309,44.5081,-7.91449,0.00214932,-5.46615e-05,0.000984575,0.00252508,-0.00043043,0.364593,0.00184369,0.0150548,1861,715,44.508,7.91447
644,309,44.4517,-6.95288,0.00184391,0.000266629,0.000973328,0.002308,-0.000197455,0.444918,0.00160853,0.0151947,1868,715,44.4516,6.95286
651,309,44.4064,-6.00653,0.00167219,0.00068284,0.00104613,0.00233471,2.0326e-05,0.564546,0.00154974,0.0155911,1875,715,44.4064,6.00653
658,309,44.3239,-5.03265,0.00161749,0.00125418,0.00118686,0.00263651,0.000235154,0.709458,0.00168477,0.0227125,1882,715,44.3239,5.03268
665,309,44.3043,-4.09027,0.00172425,0.00194118,0.00143539,0.0032722,0.000393231,0.82311,0.00206292,0.018589,1889,715,44.3043,4.09025
672,309,44.2444,-3.16913,0.0020176,0.00281011,0.0018132,0.00426985,0.000557861,0.892977,0.00268004,0.0163832,1896,715,44.2444,3.16912
679,309,44.2303,-2.16174,0.00240599,0.00387051,0.00229111,0.00554353,0.000732962,0.940072,0.00347721,0.0317839,1903,715,44.2304,2.16176
686,309,44.2579,-1.04449,0,0,0,0,0,0,0,-1,1910,715,44.2579,1.04451
693,309,32.7026,1.51727,0,0,0,0,0,0,0,-1,1917,715,32.7026,-1.51727
700,309,23.0179,3.08337,0,0,0,0,0,0,0,-1,1924,715,23.018,-3.08336
707,309,15.6318,4.58655,0,0,0,0,0,0,0,-1,1931,715,15.6318,-4.58657
714,309,16.7573,6.68286,0,0,0,0,0,0,0,-1,1938,715,16.7574,-6.68284
721,309,16.8337,5.4458,0,0,0,0,0,0,0,-1,1945,715,16.8338,-5.44582
728,309,0,0,0,0,0,0,0,0,0,-1,1952,715,0,0
735,309,0,0,0,0,0,0,0,0,0,-1,1959,715,0,0
742,309,0,0,0,0,0,0,0,0,0,-1,1966,715,0,0
749,309,0,0,0,0,0,0,0,0,0,-1,1973,715,0,0
756,309,0,0,0,0,0,0,0,0,0,-1,1980,715,0,0
763,309,0,0,0,0,0,0,0,0,0,-1,1987,715,0,0
770,309,0,0,0,0,0,0,0,0,0,-1,1994,715,0,0
777,309,0,0,0,0,0,0,0,0,0,-1,2001,715,0,0
784,309,0,0,0,0,0,0,0,0,0,-1,2008,715,0,0
791,309,0,0,0,0,0,0,0,0,0,-1,2015,715,0,0
798,309,0,0,0,0,0,0,0,0,0,-1,2022,715,0,0
805,309,0,0,0,0,0,0,0,0,0,-1,2029,715,0,0
812,309,0,0,0,0,0,0,0,0,0,-1,2036,715,0,0
-700,302,0,0,0,0,0,0,0,0,0,-1,524,722,0,0
-693,302,0,0,0,0,0,0,0,0,0,-1,531,722,0,0
-686,302,0,0,0,0,0,0,0,0,0,-1,538,722,0,0
-679,302,0,0,0,0,0,0,0,0,0,-1,545,722,0,0
-672,302,0,0,0,0,0,0,0,0,0,-1,552,722,0,0
-665,302,0,0,0,0,0,0,0,0,0,-1,559,722,0,0
-658,302,0,0,0,0,0,0,0,0,0,-1,566,722,0,0
-651,302,0,0,0,0,0,0,0,0,0,-1,573,722,0,0
-644,302,0,0,0,0,0,0,0,0,0,-1,580,722,0,0
-637,302,0,0,0,0,0,0,0,0,0,-1,587,722,0,0
-630,302,0,0,0,0,0,0,0,0,0,-1,594,722,0,0
-623,302,0,0,0,0,0,0,0,0,0,-1,601,722,0,0
-616,302,0,0,0,0,0,0,0,0,0,-1,608,722,0,0
-609,302,-7.79266,-3.71649,0,0,0,0,0,0,0,-1,615,722,-7.79267,3.7165
-602,302,0.92865,-1.99158,0,0,0,0,0,0,0,-1,622,722,0.928637,1.99157
-595,302,-7.89941,2.13641,0,0,0,0,0,0,0,-1,629,722,-7.89939,-2.13639
-588,302,-7.10895,1.79163,0,0,0,0,0,0,0,-1,636,722,-7.10896,-1.79163
-581,302,-9.17566,1.09448,0,0,0,0,0,0,0,-1,643,722,-9.17569,-1.09445
-574,302,-11.5183,-0.344543,0,0,0,0,0,0,0,-1,650,722,-11.5183,0.344557
-567,302,-12.1534,-0.672241,0,0,0,0,0,0,0,-1,657,722,-12.1535,0.672246
-560,302,-29.6743,-1.60303,0,0,0,0,0,0,0,-1,664,722,-29.6743,1.60301
-553,302,-29.5392,-2.58435,0.00192839,0.00482363,-0.001677,0.00559139,0.00116063,-1.14146,0.00340726,0.0446211,671,722,-29.5392,2.58434
-546,302,-29.5424,-3.61249,0.00193737,0.00361441,-0.00152447,0.00451575,0.00103602,-1.03683,0.00273146,0.020195,678,722,-29.5424,3.61247
-539,302,-29.5853,-4.53845,0.00166052,0.00242214,-0.00114888,0.00325168,0.00083098,-0.94543,0.00195071,0.0155298,685,722,-29.5853,4.53843
-532,302,-29.6182,-5.48077,0.00121769,0.00140626,-0.000715256,0.00203342,0.000590533,-0.850931,0.00120789,0.0150924,692,722,-29.6182,5.48079
-525,302,-29.6375,-6.48041,0.000650573,0.000472962,-0.000238508,0.000816272,0.000307263,-0.607181,0.000476049,0.0201952,699,722,-29.6375,6.48042
-518,302,-29.7231,-7.39099,3.93999e-05,-0.000227612,0.000274566,0.000211198,-0.00039941,0.559107,0.000358074,0.0230374,706,722,-29.7231,7.39101
-511,302,-29.8168,-8.29877,-0.000604973,-0.000869749,0.000821074,9.43173e-05,-0.00156904,0.705468,0.00107884,0.01223,713,722,-29.8168,8.29878
-504,302,-29.8599,-9.2616,-0.00128695,-0.00145522,0.00143068,6.2066e-05,-0.00280424,0.756027,0.00189052,0.0104579,720,722,-29.8599,9.26157
-497,302,-29.9615,-10.171,-0.00179221,-0.0018689,0.001968,0.000137817,-0.00379892,0.775658,0.00257978,0.0167438,727,722,-29.9616,10.171
-490,302,-30.0748,-11.0811,0,0,0,0,0,0,0,-1,734,722,-30.0747,11.081
-483,302,-9.53412,-3.1673,0,0,0,0,0,0,0,-1,741,722,-9.53411,3.1673
-476,302,-4.29749,-0.203491,0,0,0,0,0,0,0,-1,748,722,-4.29751,0.203464
-469,302,-12.369,1.42859,0,0,0,0,0,0,0,-1,755,722,-12.3689,-1.42857
-462,302,-17.4766,0.310791,0,0,0,0,0,0,0,-1,762,722,-17.4766,-0.310788
-455,302,-36.7368,-2.97418,0,0,0,0,0,0,0,-1,769,722,-36.7368,2.97416
-448,302,-42.1174,-1.44232,0,0,0,0,0,0,0,-1,776,722,-42.1174,1.44229
-441,302,-46.7637,0.580078,0,0,0,0,0,0,0,-1,783,722,-46.7636,-0.58007
-434,302,-46.574,1.30511,0,0,0,0,0,0,0,-1,790,722,-46.574,-1.30509
-427,302,-46.7514,1.51532,0,0,0,0,0,0,0,-1,797,722,-46.7514,-1.51532
-420,302,0,0,0,0,0,0,0,0,0,-1,804,722,0,0
-413,302,0,0,0,0,0,0,0,0,0,-1,811,722,0,0
-406,302,0,0,0,0,0,0,0,0,0,-1,818,722,0,0
-399,302,0,0,0,0,0,0,0,0,0,-1,825,722,0,0
-392,302,0,0,0,0,0,0,0,0,0,-1,832,722,0,0
-385,302,0,0,0,0,0,0,0,0,0,-1,839,722,0,0
-378,302,0,0,0,0,0,0,0,0,0,-1,846,722,0,0
-371,302,0,0,0,0,0,0,0,0,0,-1,853,722,0,0
-364,302,0,0,0,0,0,0,0,0,0,-1,860,722,0,0
-357,302,0,0,0,0,0,0,0,0,0,-1,867,722,0,0
-350,302,0,0,0,0,0,0,0,0,0,-1,874,722,0,0
-343,302,0,0,0,0,0,0,0,0,0,-1,881,722,0,0
-336,302,0,0,0,0,0,0,0,0,0,-1,888,722,0,0
-329,302,0,0,0,0,0,0,0,0,0,-1,895,722,0,0
-322,302,0,0,0,0,0,0,0,0,0,-1,902,722,0,0
-315,302,0,0,0,0,0,0,0,0,0,-1,909,722,0,0
-308,302,0,0,0,0,0,0,0,0,0,-1,916,722,0,0
-301,302,0,0,0,0,0,0,0,0,0,-1,923,722,0,0
-294,302,0,0,0,0,0,0,0,0,0,-1,930,722,0,0
-287,302,0,0,0,0,0,0,0,0,0,-1,937,722,0,0
-280,302,0,0,0,0,0,0,0,0,0,-1,944,722,0,0
-273,302,0,0,0,0,0,0,0,0,0,-1,951,722,0,0
-266,302,0,0,0,0,0,0,0,0,0,-1,958,722,0,0
-259,302,0,0,0,0,0,0,0,0,0,-1,965,722,0,0
-252,302,0,0,0,0,0,0,0,0,0,-1,972,722,0,0
-245,302,0,0,0,0,0,0,0,0,0,-1,979,722,0,0
-238,302,0,0,0,0,0,0,0,0,0,-1,986,722,0,0
-231,302,0,0,0,0,0,0,0,0,0,-1,993,722,0,0
-224,302,0,0,0,0,0,0,0,0,0,-1,1000,722,0,0
-217,302,0,0,0,0,0,0,0,0,0,-1,1007,722,0,0
-210,302,0,0,0,0,0,0,0,0,0,-1,1014,722,0,0
-203,302,0,0,0,0,0,0,0,0,0,-1,1021,722,0,0
-196,302,0,0,0,0,0,0,0,0,0,-1,1028,722,0,0
-189,302,0,0,0,0,0,0,0,0,0,-1,1035,722,0,0
-182,302,0,0,0,0,0,0,0,0,0,-1,1042,722,0,0
-175,302,0,0,0,0,0,0,0,0,0,-1,1049,722,0,0
-168,302,0,0,0,0,0,0,0,0,0,-1,1056,722,0,0
-161,302,0,0,0,0,0,0,0,0,0,-1,1063,722,0,0
-154,302,0,0,0,0,0,0,0,0,0,-1,1070,722,0,0
-147,302,0,0,0,0,0,0,0,0,0,-1,1077,722,0,0
-140,302,0,0,0,0,0,0,0,0,0,-1,1084,722,0,0
-133,302,0,0,0,0,0,0,0,0,0,-1,1091,722,0,0
-126,302,0,0,0,0,0,0,0,0,0,-1,1098,722,0,0
-119,302,0,0,0,0,0,0,0,0,0,-1,1105,722,0,0
-112,302,0,0,0,0,0,0,0,0,0,-1,1112,722,0,0
-105,302,0,0,0,0,0,0,0,0,0,-1,1119,722,0,0
-98,302,0,0,0,0,0,0,0,0,0,-1,1126,722,0,0
-91,302,0,0,0,0,0,0,0,0,0,-1,1133,722,0,0
-84,302,0,0,0,0,0,0,0,0,0,-1,1140,722,0,0
-77,302,0,0,0,0,0,0,0,0,0,-1,1147,722,0,0
-70,302,0,0,0,0,0,0,0,0,0,-1,1154,722,0,0
-63,302,0,0,0,0,0,0,0,0,0,-1,1161,722,0,0
-56,302,0,0,0,0,0,0,0,0,0,-1,1168,722,0,0
-49,302,0,0,0,0,0,0,0,0,0,-1,1175,722,0,0
-42,302,0,0,0,0,0,0,0,0,0,-1,1182,722,0,0
-35,302,0,0,0,0,0,0,0,0,0,-1,1189,722,0,0
-28,302,0,0,0,0,0,0,0,0,0,-1,1196,722,0,0
-21,302,0,0,0,0,0,0,0,0,0,-1,1203,722,0,0
-14,302,0,0,0,0,0,0,0,0,0,-1,1210,722,0,0
-7,302,0,0,0,0,0,0,0,0,0,-1,1217,722,0,0
0,302,0,0,0,0,0,0,0,0,0,-1,1224,722,0,0
7,302,0,0,0,0,0,0,0,0,0,-1,1231,722,0,0
14,302,0,0,0,0,0,0,0,0,0,-1,1238,722,0,0
21,302,0,0,0,0,0,0,0,0,0,-1,1245,722,0,0
28,302,0,0,0,0,0,0,0,0,0,-1,1252,722,0,0
35,302,0,0,0,0,0,0,0,0,0,-1,1259,722,0,0
42,302,0,0,0,0,0,0,0,0,0,-1,1266,722,0,0
49,302,0,0,0,0,0,0,0,0,0,-1,1273,722,0,0
56,302,0,0,0,0,0,0,0,0,0,-1,1280,722,0,0
63,302,0,0,0,0,0,0,0,0,0,-1,1287,722,0,0
70,302,0,0,0,0,0,0,0,0,0,-1,1294,722,0,0
77,302,0,0,0,0,0,0,0,0,0,-1,1301,722,0,0
84,302,0,0,0,0,0,0,0,0,0,-1,1308,722,0,0
91,302,0,0,0,0,0,0,0,0,0,-1,1315,722,0,0
98,302,0,0,0,0,0,0,0,0,0,-1,1322,722,0,0
105,302,0,0,0,0,0,0,0,0,0,-1,1329,722,0,0
112,302,0,0,0,0,0,0,0,0,0,-1,1336,722,0,0
119,302,0,0,0,0,0,0,0,0,0,-1,1343,722,0,0
126,302,0,0,0,0,0,0,0,0,0,-1,1350,722,0,0
133,302,0,0,0,0,0,0,0,0,0,-1,1357,722,0,0
140,302,0,0,0,0,0,0,0,0,0,-1,1364,722,0,0
147,302,0,0,0,0,0,0,0,0,0,-1,1371,722,0,0
154,302,0,0,0,0,0,0,0,0,0,-1,1378,722,0,0
161,302,0,0,0,0,0,0,0,0,0,-1,1385,722,0,0
168,302,0,0,0,0,0,0,0,0,0,-1,1392,722,0,0
175,302,0,0,0,0,0,0,0,0,0,-1,1399,722,0,0
182,302,0,0,0,0,0,0,0,0,0,-1,1406,722,0,0
189,302,0,0,0,0,0,0,0,0,0,-1,1413,722,0,0
196,302,0,0,0,0,0,0,0,0,0,-1,1420,722,0,0
203,302,0,0,0,0,0,0,0,0,0,-1,1427,722,0,0
210,302,0,0,0,0,0,0,0,0,0,-1,1434,722,0,0
217,302,0,0,0,0,0,0,0,0,0,-1,1441,722,0,0
224,302,0,0,0,0,0,0,0,0,0,-1,1448,722,0,0
231,302,0,0,0,0,0,0,0,0,0,-1,1455,722,0,0
238,302,0,0,0,0,0,0,0,0,0,-1,1462,722,0,0
245,302,0,0,0,0,0,0,0,0,0,-1,1469,722,0,0
252,302,0,0,0,0,0,0,0,0,0,-1,1476,722,0,0
259,302,0,0,0,0,0,0,0,0,0,-1,1483,722,0,0
266,302,0,0,0,0,0,0,0,0,0,-1,1490,722,0,0
273,302,0,0,0,0,0,0,0,0,0,-1,1497,722,0,0
280,302,0,0,0,0,0,0,0,0,0,-1,1504,722,0,0
287,302,0,0,0,0,0,0,0,0,0,-1,1511,722,0,0
294,302,0,0,0,0,0,0,0,0,0,-1,1518,722,0,0
301,302,0,0,0,0,0,0,0,0,0,-1,1525,722,0,0
308,302,0,0,0,0,0,0,0,0,0,-1,1532,722,0,0
315,302,0,0,0,0,0,0,0,0,0,-1,1539,722,0,0
322,302,0,0,0,0,0,0,0,0,0,-1,1546,722,0,0
329,302,0,0,0,0,0,0,0,0,0,-1,1553,722,0,0
336,302,0,0,0,0,0,0,0,0,0,-1,1560,722,0,0
343,302,0,0,0,0,0,0,0,0,0,-1,1567,722,0,0
350,302,0,0,0,0,0,0,0,0,0,-1,1574,722,0,0
357,302,0,0,0,0,0,0,0,0,0,-1,1581,722,0,0
364,302,0,0,0,0,0,0,0,0,0,-1,1588,722,0,0
371,302,0,0,0,0,0,0,0,0,0,-1,1595,722,0,0
378,302,0,0,0,0,0,0,0,0,0,-1,1602,722,0,0
385,302,0,0,0,0,0,0,0,0,0,-1,1609,722,0,0
392,302,0,0,0,0,0,0,0,0,0,-1,1616,722,0,0
399,302,0,0,0,0,0,0,0,0,0,-1,1623,722,0,0
406,302,0,0,0,0,0,0,0,0,0,-1,1630,722,0,0
413,302,0,0,0,0,0,0,0,0,0,-1,1637,722,0,0
420,302,0,0,0,0,0,0,0,0,0,-1,1644,722,0,0
427,302,0,0,0,0,0,0,0,0,0,-1,1651,722,0,0
434,302,0,0,0,0,0,0,0,0,0,-1,1658,722,0,0
441,302,0,0,0,0,0,0,0,0,0,-1,1665,722,0,0
448,302,0,0,0,0,0,0,0,0,0,-1,1672,722,0,0
455,302,0,0,0,0,0,0,0,0,0,-1,1679,722,0,0
462,302,0,0,0,0,0,0,0,0,0,-1,1686,722,0,0
469,302,0,0,0,0,0,0,0,0,0,-1,1693,722,0,0
476,302,0,0,0,0,0,0,0,0,0,-1,1700,722,0,0
483,302,0,0,0,0,0,0,0,0,0,-1,1707,722,0,0
490,302,0,0,0,0,0,0,0,0,0,-1,1714,722,0,0
497,302,0,0,0,0,0,0,0,0,0,-1,1721,722,0,0
504,302,0,0,0,0,0,0,0,0,0,-1,1728,722,0,0
511,302,0,0,0,0,0,0,0,0,0,-1,1735,722,0,0
518,302,0,0,0,0,0,0,0,0,0,-1,1742,722,0,0
525,302,0,0,0,0,0,0,0,0,0,-1,1749,722,0,0
532,302,0,0,0,0,0,0,0,0,0,-1,1756,722,0,0
539,302,0,0,0,0,0,0,0,0,0,-1,1763,722,0,0
546,302,48.9873,1.50562,0,0,0,0,0,0,0,-1,1770,722,48.9873,-1.50562
553,302,56.7844,3.46533,0,0,0,0,0,0,0,-1,1777,722,56.7844,-3.4653
560,302,56.7115,3.84808,0,0,0,0,0,0,0,-1,1784,722,56.7116,-3.84806
567,302,55.9475,4.24542,0,0,0,0,0,0,0,-1,1791,722,55.9475,-4.24542
574,302,45.9537,6.00867,0,0,0,0,0,0,0,-1,1798,722,45.9537,-6.00864
581,302,45.137,7.38043,0,0,0,0,0,0,0,-1,1805,722,45.1369,-7.38044
588,302,26.9731,7.19983,0,0,0,0,0,0,0,-1,1812,722,26.9732,-7.19981
595,302,27.3826,8.13104,0,0,0,0,0,0,0,-1,1819,722,27.3825,-8.13102
602,302,14.7349,5.21246,0,0,0,0,0,0,0,-1,1826,722,14.7349,-5.21247
609,302,31.1039,-6.34253,0,0,0,0,0,0,0,-1,1833,722,31.1039,6.34254
616,302,45.6647,-10.7037,0,0,0,0,0,0,0,-1,1840,722,45.6647,10.7037
623,302,45.6213,-9.72986,0.00360876,-0.000240727,0.00153503,0.00414592,-0.000777883,0.336614,0.00305642,0.0179955,1847,722,45.6214,9.72986
630,302,45.5265,-8.78241,0.00286743,-0.00025477,0.00123562,0.00329726,-0.000684599,0.334771,0.00245835,0.0125255,1854,722,45.5265,8.78241
637,302,45.4213,-7.84076,0.00229359,-0.000139742,0.00104658,0.0026818,-0.000527946,0.355194,0.00198736,0.0159832,1861,722,45.4212,7.84076
644,302,45.3937,-6.89368,0.00190265,0.00013883,0.000971865,0.0023331,-0.00029162,0.416943,0.00166116,0.0160047,1868,722,45.3937,6.89365
651,302,45.3628,-5.94434,0.00167515,0.000525292,0.00100148,0.002255,-5.45513e-05,0.524826,0.00152184,0.0149934,1875,722,45.3628,5.94433
658,302,45.3057,-5.01886,0.00157836,0.00105812,0.00109719,0.00244584,0.000190637,0.66901,0.00157088,0.0165522,1882,722,45.3057,5.01888
665,302,45.265,-4.05872,0.00164197,0.00168378,0.0012835,0.00294655,0.000379202,0.793541,0.00185096,0.0161782,1889,722,45.265,4.05873
672,302,45.1873,-3.1181,0.00191433,0.00244159,0.00161224,0.00381161,0.000544304,0.86644,0.00238047,0.012358,1896,722,45.1873,3.11812
679,302,45.1266,-2.16357,0.00230547,0.00336451,0.00202872,0.00493168,0.000738304,0.913057,0.00307141,0.0104613,1903,722,45.1266,2.16355
686,302,45.095,-1.13538,0.00289945,0.00435571,0.00259173,0.00631965,0.000935512,0.922341,0.00393847,0.0262764,1910,722,45.095,1.13535
693,302,44.9943,-0.111511,0,0,0,0,0,0,0,-1,1917,722,44.9943,0.111511
700,302,25.4069,1.97308,0,0,0,0,0,0,0,-1,1924,722,25.4068,-1.97311
707,302,16.7321,4.76685,0,0,0,0,0,0,0,-1,1931,722,16.7321,-4.76687
714,302,17.2,5.77594,0,0,0,0,0,0,0,-1,1938,722,17.2,-5.77595
721,302,17.7914,6.60394,0,0,0,0,0,0,0,-1,1945,722,17.7914,-6.60395
728,302,17.2798,4.81702,0,0,0,0,0,0,0,-1,1952,722,17.2798,-4.81703
735,302,0,0,0,0,0,0,0,0,0,-1,1959,722,0,0
742,302,0,0,0,0,0,0,0,0,0,-1,1966,722,0,0
749,302,0,0,0,0,0,0,0,0,0,-1,1973,722,0,0
756,302,0,0,0,0,0,0,0,0,0,-1,1980,722,0,0
763,302,0,0,0,0,0,0,0,0,0,-1,1987,722,0,0
770,302,0,0,0,0,0,0,0,0,0,-1,1994,722,0,0
777,302,0,0,0,0,0,0,0,0,0,-1,2001,722,0,0
784,302,0,0,0,0,0,0,0,0,0,-1,2008,722,0,0
791,302,0,0,0,0,0,0,0,0,0,-1,2015,722,0,0
798,302,0,0,0,0,0,0,0,0,0,-1,2022,722,0,0
805,302,0,0,0,0,0,0,0,0,0,-1,2029,722,0,0
812,302,0,0,0,0,0,0,0,0,0,-1,2036,722,0,0
-700,295,0,0,0,0,0,0,0,0,0,-1,524,729,0,0
-693,295,0,0,0,0,0,0,0,0,0,-1,531,729,0,0
-686,295,0,0,0,0,0,0,0,0,0,-1,538,729,0,0
-679,295,0,0,0,0,0,0,0,0,0,-1,545,729,0,0
-672,295,0,0,0,0,0,0,0,0,0,-1,552,729,0,0
-665,295,0,0,0,0,0,0,0,0,0,-1,559,729,0,0
-658,295,0,0,0,0,0,0,0,0,0,-1,566,729,0,0
-651,295,0,0,0,0,0,0,0,0,0,-1,573,729,0,0
-644,295,0,0,0,0,0,0,0,0,0,-1,580,729,0,0
-637,295,0,0,0,0,0,0,0,0,0,-1,587,729,0,0
-630,295,0,0,0,0,0,0,0,0,0,-1,594,729,0,0
-623,295,0,0,0,0,0,0,0,0,0,-1,601,729,0,0
-616,295,-13.4911,1.31738,0,0,0,0,0,0,0,-1,608,729,-13.4911,-1.3174
-609,295,-10.2864,0.832031,0,0,0,0,0,0,0,-1,615,729,-10.2863,-0.832034
-602,295,-8.19006,3.01587,0,0,0,0,0,0,0,-1,622,729,-8.19005,-3.01588
-595,295,-0.615479,-1.95447,0,0,0,0,0,0,0,-1,629,729,-0.615481,1.95445
-588,295,-7.98999,1.56903,0,0,0,0,0,0,0,-1,636,729,-7.98997,-1.56905
-581,295,-12.0404,0.150574,0,0,0,0,0,0,0,-1,643,729,-12.0404,-0.150604
-574,295,-12.1605,-0.0739746,0,0,0,0,0,0,0,-1,650,729,-12.1605,0.0739856
-567,295,-30.0453,-0.555176,0,0,0,0,0,0,0,-1,657,729,-30.0453,0.555156
-560,295,-30.3298,-1.68555,0.000428848,0.00566978,-0.00161903,0.00612959,-3.09625e-05,-1.29408,0.00409675,0.0398057,664,729,-30.3298,1.68552
-553,295,-30.3856,-2.67426,0.0010105,0.00388944,-0.00129105,0.00438359,0.000516355,-1.20525,0.00276639,0.0221453,671,729,-30.3856,2.67427
-546,295,-30.4895,-3.56842,0.00108665,0.00281165,-0.00102209,0.00328653,0.00061177,-1.13586,0.00201825,0.022182,678,729,-30.4895,3.56842
-539,295,-30.5468,-4.47723,0.000905321,0.00178119,-0.000602406,0.00208802,0.000598487,-1.0997,0.00124157,0.0198664,685,729,-30.5467,4.47726
-532,295,-30.5947,-5.43176,0.00047362,0.00092972,-0.000221461,0.00101956,0.000383784,-1.18543,0.000594604,0.0167576,692,729,-30.5947,5.43178
-525,295,-30.619,-6.4071,-0.000132972,0.000103319,0.000166983,0.000189726,-0.000219379,1.09328,0.000236403,0.0157402,699,729,-30.619,6.40713
-518,295,-30.6559,-7.31702,-0.000805857,-0.000513436,0.000616647,-2.59025e-05,-0.00129339,0.901801,0.000853757,0.0122988,706,729,-30.6559,7.317
-511,295,-30.7285,-8.22858,-0.00158728,-0.00110329,0.00115992,-0.000160387,-0.00253018,0.888238,0.00163595,0.0106165,713,729,-30.7284,8.22856
-504,295,-30.7956,-9.16357,-0.00241641,-0.00166956,0.00178573,-0.000218628,-0.00386734,0.88847,0.00250853,0.0114669,720,729,-30.7956,9.16359
-497,295,-30.9221,-10.0088,-0.00306089,-0.00208901,0.00238266,-0.000143239,-0.00500667,0.885993,0.00329107,0.0252307,727,729,-30.9221,10.0088
-490,295,-31.0578,-10.825,0,0,0,0,0,0,0,-1,734,729,-31.0578,10.825
-483,295,-6.84503,-0.454651,0,0,0,0,0,0,0,-1,741,729,-6.84505,0.454639
-476,295,-13.1738,-0.836243,0,0,0,0,0,0,0,-1,748,729,-13.1738,0.836223
-469,295,-26.5608,-0.466187,0,0,0,0,0,0,0,-1,755,729,-26.5608,0.466162
-462,295,-29.7701,-0.792664,0,0,0,0,0,0,0,-1,762,729,-29.7701,0.792642
-455,295,-45.11,-2.79272,0,0,0,0,0,0,0,-1,769,729,-45.11,2.79272
-448,295,-48.0288,1.41229,0,0,0,0,0,0,0,-1,776,729,-48.0288,-1.41227
-441,295,-47.1089,1.03058,0,0,0,0,0,0,0,-1,783,729,-47.109,-1.0306
-434,295,-46.2319,1.10614,0,0,0,0,0,0,0,-1,790,729,-46.2319,-1.10612
-427,295,0,0,0,0,0,0,0,0,0,-1,797,729,0,0
-420,295,0,0,0,0,0,0,0,0,0,-1,804,729,0,0
-413,295,0,0,0,0,0,0,0,0,0,-1,811,729,0,0
-406,295,0,0,0,0,0,0,0,0,0,-1,818,729,0,0
-399,295,0,0,0,0,0,0,0,0,0,-1,825,729,0,0
-392,295,0,0,0,0,0,0,0,0,0,-1,832,729,0,0
-385,295,0,0,0,0,0,0,0,0,0,-1,839,729,0,0
-378,295,0,0,0,0,0,0,0,0,0,-1,846,729,0,0
-371,295,0,0,0,0,0,0,0,0,0,-1,853,729,0,0
-364,295,0,0,0,0,0,0,0,0,0,-1,860,729,0,0
-357,295,0,0,0,0,0,0,0,0,0,-1,867,729,0,0
-350,295,0,0,0,0,0,0,0,0,0,-1,874,729,0,0
-343,295,0,0,0,0,0,0,0,0,0,-1,881,729,0,0
-336,295,0,0,0,0,0,0,0,0,0,-1,888,729,0,0
-329,295,0,0,0,0,0,0,0,0,0,-1,895,729,0,0
-322,295,0,0,0,0,0,0,0,0,0,-1,902,729,0,0
-315,295,0,0,0,0,0,0,0,0,0,-1,909,729,0,0
-308,295,0,0,0,0,0,0,0,0,0,-1,916,729,0,0
-301,295,0,0,0,0,0,0,0,0,0,-1,923,729,0,0
-294,295,0,0,0,0,0,0,0,0,0,-1,930,729,0,0
-287,295,0,0,0,0,0,0,0,0,0,-1,937,729,0,0
-280,295,0,0,0,0,0,0,0,0,0,-1,944,729,0,0
-273,295,0,0,0,0,0,0,0,0,0,-1,951,729,0,0
-266,295,0,0,0,0,0,0,0,0,0,-1,958,729,0,0
-259,295,0,0,0,0,0,0,0,0,0,-1,965,729,0,0
-252,295,0,0,0,0,0,0,0,0,0,-1,972,729,0,0
-245,295,0,0,0,0,0,0,0,0,0,-1,979,729,0,0
-238,295,0,0,0,0,0,0,0,0,0,-1,986,729,0,0
-231,295,0,0,0,0,0,0,0,0,0,-1,993,729,0,0
-224,295,0,0,0,0,0,0,0,0,0,-1,1000,729,0,0
-217,295,0,0,0,0,0,0,0,0,0,-1,1007,729,0,0
-210,295,0,0,0,0,0,0,0,0,0,-1,1014,729,0,0
-203,295,0,0,0,0,0,0,0,0,0,-1,1021,729,0,0
-196,295,0,0,0,0,0,0,0,0,0,-1,1028,729,0,0
-189,295,0,0,0,0,0,0,0,0,0,-1,1035,729,0,0
-182,295,0,0,0,0,0,0,0,0,0,-1,1042,729,0,0
-175,295,0,0,0,0,0,0,0,0,0,-1,1049,729,0,0
-168,295,0,0,0,0,0,0,0,0,0,-1,1056,729,0,0
-161,295,0,0,0,0,0,0,0,0,0,-1,1063,729,0,0
-154,295,0,0,0,0,0,0,0,0,0,-1,1070,729,0,0
-147,295,0,0,0,0,0,0,0,0,0,-1,1077,729,0,0
-140,295,0,0,0,0,0,0,0,0,0,-1,1084,729,0,0
-133,295,0,0,0,0,0,0,0,0,0,-1,1091,729,0,0
-126,295,0,0,0,0,0,0,0,0,0,-1,1098,729,0,0
-119,295,0,0,0,0,0,0,0,0,0,-1,1105,729,0,0
-112,295,0,0,0,0,0,0,0,0,0,-1,1112,729,0,0
-105,295,0,0,0,0,0,0,0,0,0,-1,1119,729,0,0
-98,295,0,0,0,0,0,0,0,0,0,-1,1126,729,0,0
-91,295,0,0,0,0,0,0,0,0,0,-1,1133,729,0,0
-84,295,0,0,0,0,0,0,0,0,0,-1,1140,729,0,0
-77,295,0,0,0,0,0,0,0,0,0,-1,1147,729,0,0
-70,295,0,0,0,0,0,0,0,0,0,-1,1154,729,0,0
-63,295,0,0,0,0,0,0,0,0,0,-1,1161,729,0,0
-56,295,0,0,0,0,0,0,0,0,0,-1,1168,729,0,0
-49,295,0,0,0,0,0,0,0,0,0,-1,1175,729,0,0
-42,295,0,0,0,0,0,0,0,0,0,-1,1182,729,0,0
-35,295,0,0,0,0,0,0,0,0,0,-1,1189,729,0,0
-28,295,0,0,0,0,0,0,0,0,0,-1,1196,729,0,0
-21,295,0,0,0,0,0,0,0,0,0,-1,1203,729,0,0
-14,295,0,0,0,0,0,0,0,0,0,-1,1210,729,0,0
-7,295,0,0,0,0,0,0,0,0,0,-1,1217,729,0,0
0,295,0,0,0,0,0,0,0,0,0,-1,1224,729,0,0
7,295,0,0,0,0,0,0,0,0,0,-1,1231,729,0,0
14,295,0,0,0,0,0,0,0,0,0,-1,1238,729,0,0
21,295,0,0,0,0,0,0,0,0,0,-1,1245,729,0,0
28,295,0,0,0,0,0,0,0,0,0,-1,1252,729,0,0
35,295,0,0,0,0,0,0,0,0,0,-1,1259,729,0,0
42,295,0,0,0,0,0,0,0,0,0,-1,1266,729,0,0
49,295,0,0,0,0,0,0,0,0,0,-1,1273,729,0,0
56,295,0,0,0,0,0,0,0,0,0,-1,1280,729,0,0
63,295,0,0,0,0,0,0,0,0,0,-1,1287,729,0,0
70,295,0,0,0,0,0,0,0,0,0,-1,1294,729,0,0
77,295,0,0,0,0,0,0,0,0,0,-1,1301,729,0,0
84,295,0,0,0,0,0,0,0,0,0,-1,1308,729,0,0
91,295,0,0,0,0,0,0,0,0,0,-1,1315,729,0,0
98,295,0,0,0,0,0,0,0,0,0,-1,1322,729,0,0
105,295,0,0,0,0,0,0,0,0,0,-1,1329,729,0,0
112,295,0,0,0,0,0,0,0,0,0,-1,1336,729,0,0
119,295,0,0,0,0,0,0,0,0,0,-1,1343,729,0,0
126,295,0,0,0,0,0,0,0,0,0,-1,1350,729,0,0
133,295,0,0,0,0,0,0,0,0,0,-1,1357,729,0,0
140,295,0,0,0,0,0,0,0,0,0,-1,1364,729,0,0
147,295,0,0,0,0,0,0,0,0,0,-1,1371,729,0,0
154,295,0,0,0,0,0,0,0,0,0,-1,1378,729,0,0
161,295,0,0,0,0,0,0,0,0,0,-1,1385,729,0,0
168,295,0,0,0,0,0,0,0,0,0,-1,1392,729,0,0
175,295,0,0,0,0,0,0,0,0,0,-1,1399,729,0,0
182,295,0,0,0,0,0,0,0,0,0,-1,1406,729,0,0
189,295,0,0,0,0,0,0,0,0,0,-1,1413,729,0,0
196,295,0,0,0,0,0,0,0,0,0,-1,1420,729,0,0
203,295,0,0,0,0,0,0,0,0,0,-1,1427,729,0,0
210,295,0,0,0,0,0,0,0,0,0,-1,1434,729,0,0
217,295,0,0,0,0,0,0,0,0,0,-1,1441,729,0,0
224,295,0,0,0,0,0,0,0,0,0,-1,1448,729,0,0
231,295,0,0,0,0,0,0,0,0,0,-1,1455,729,0,0
238,295,0,0,0,0,0,0,0,0,0,-1,1462,729,0,0
245,295,0,0,0,0,0,0,0,0,0,-1,1469,729,0,0
252,295,0,0,0,0,0,0,0,0,0,-1,1476,729,0,0
259,295,0,0,0,0,0,0,0,0,0,-1,1483,729,0,0
266,295,0,0,0,0,0,0,0,0,0,-1,1490,729,0,0
273,295,0,0,0,0,0,0,0,0,0,-1,1497,729,0,0
280,295,0,0,0,0,0,0,0,0,0,-1,1504,729,0,0
287,295,0,0,0,0,0,0,0,0,0,-1,1511,729,0,0
294,295,0,0,0,0,0,0,0,0,0,-1,1518,729,0,0
301,295,0,0,0,0,0,0,0,0,0,-1,1525,729,0,0
308,295,0,0,0,0,0,0,0,0,0,-1,1532,729,0,0
315,295,0,0,0,0,0,0,0,0,0,-1,1539,729,0,0
322,295,0,0,0,0,0,0,0,0,0,-1,1546,729,0,0
329,295,0,0,0,0,0,0,0,0,0,-1,1553,729,0,0
336,295,0,0,0,0,0,0,0,0,0,-1,1560,729,0,0
343,295,0,0,0,0,0,0,0,0,0,-1,1567,729,0,0
350,295,0,0,0,0,0,0,0,0,0,-1,1574,729,0,0
357,295,0,0,0,0,0,0,0,0,0,-1,1581,729,0,0
364,295,0,0,0,0,0,0,0,0,0,-1,1588,729,0,0
371,295,0,0,0,0,0,0,0,0,0,-1,1595,729,0,0
378,295,0,0,0,0,0,0,0,0,0,-1,1602,729,0,0
385,295,0,0,0,0,0,0,0,0,0,-1,1609,729,0,0
392,295,0,0,0,0,0,0,0,0,0,-1,1616,729,0,0
399,295,0,0,0,0,0,0,0,0,0,-1,1623,729,0,0
406,295,0,0,0,0,0,0,0,0,0,-1,1630,729,0,0
413,295,0,0,0,0,0,0,0,0,0,-1,1637,729,0,0
420,295,0,0,0,0,0,0,0,0,0,-1,1644,729,0,0
427,295,0,0,0,0,0,0,0,0,0,-1,1651,729,0,0
434,295,0,0,0,0,0,0,0,0,0,-1,1658,729,0,0
441,295,0,0,0,0,0,0,0,0,0,-1,1665,729,0,0
448,295,0,0,0,0,0,0,0,0,0,-1,1672,729,0,0
455,295,0,0,0,0,0,0,0,0,0,-1,1679,729,0,0
462,295,0,0,0,0,0,0,0,0,0,-1,1686,729,0,0
469,295,0,0,0,0,0,0,0,0,0,-1,1693,729,0,0
476,295,0,0,0,0,0,0,0,0,0,-1,1700,729,0,0
483,295,0,0,0,0,0,0,0,0,0,-1,1707,729,0,0
490,295,0,0,0,0,0,0,0,0,0,-1,1714,729,0,0
497,295,0,0,0,0,0,0,0,0,0,-1,1721,729,0,0
504,295,0,0,0,0,0,0,0,0,0,-1,1728,729,0,0
511,295,0,0,0,0,0,0,0,0,0,-1,1735,729,0,0
518,295,0,0,0,0,0,0,0,0,0,-1,1742,729,0,0
525,295,0,0,0,0,0,0,0,0,0,-1,1749,729,0,0
532,295,0,0,0,0,0,0,0,0,0,-1,1756,729,0,0
539,295,0,0,0,0,0,0,0,0,0,-1,1763,729,0,0
546,295,57.4674,2.36884,0,0,0,0,0,0,0,-1,1770,729,57.4674,-2.36883
553,295,57.1969,2.73846,0,0,0,0,0,0,0,-1,1777,729,57.197,-2.73843
560,295,57.0291,3.27454,0,0,0,0,0,0,0,-1,1784,729,57.029,-3.27454
567,295,56.6243,3.88239,0,0,0,0,0,0,0,-1,1791,729,56.6242,-3.8824
574,295,56.5275,4.755,0,0,0,0,0,0,0,-1,1798,729,56.5274,-4.75501
581,295,37.8191,2.19592,0,0,0,0,0,0,0,-1,1805,729,37.8191,-2.19594
588,295,39.0542,2.45679,0,0,0,0,0,0,0,-1,1812,729,39.0542,-2.45676
595,295,27.2102,6.99121,0,0,0,0,0,0,0,-1,1819,729,27.2103,-6.99121
602,295,26.9065,7.82141,0,0,0,0,0,0,0,-1,1826,729,26.9064,-7.8214
609,295,11.7737,2.19989,0,0,0,0,0,0,0,-1,1833,729,11.7736,-2.19988
616,295,45.2537,-10.4867,0,0,0,0,0,0,0,-1,1840,729,45.2537,10.4867
623,295,46.501,-9.71454,0,0,0,0,0,0,0,-1,1847,729,46.501,9.71452
630,295,46.4537,-8.71924,0.00356325,-0.000254716,0.00113951,0.00387749,-0.000568954,0.269077,0.00279402,0.0153692,1854,729,46.4537,8.71922
637,295,46.3934,-7.76892,0.00276841,-0.00023476,0.00105602,0.00310257,-0.000568911,0.306458,0.00228178,0.0158311,1861,729,46.3935,7.76891
644,295,46.3599,-6.81238,0.00214063,2.56117e-05,0.000954557,0.00250773,-0.000341486,0.367138,0.0017965,0.0139006,1868,729,46.3599,6.81238
651,295,46.2957,-5.85999,0.00175107,0.000393925,0.000928347,0.0022224,-7.7412e-05,0.469801,0.00150807,0.0137324,1875,729,46.2956,5.85999
658,295,46.2496,-4.95715,0.00159594,0.000864641,0.000965024,0.00226227,0.000198317,0.604304,0.00144661,0.0139051,1882,729,46.2496,4.95718
665,295,46.1981,-4.04449,0.00157392,0.00141852,0.00108492,0.00258392,0.000408525,0.74965,0.00160387,0.0128193,1889,729,46.1981,4.04448
672,295,46.1161,-3.09021,0.00175787,0.00207548,0.00135896,0.00328488,0.000548467,0.843565,0.00203192,0.0143076,1896,729,46.1161,3.09021
679,295,46.0524,-2.12891,0.00211219,0.00290993,0.00175946,0.00431516,0.000706953,0.896864,0.00267248,0.0114074,1903,729,46.0523,2.12891
686,295,46.0327,-1.16925,0.00261648,0.0038088,0.00226767,0.00555737,0.000867914,0.913937,0.00345217,0.0127023,1910,729,46.0328,1.16923
693,295,46.0193,-0.210999,0,0,0,0,0,0,0,-1,1917,729,46.0193,0.210986
700,295,31.3757,2.06982,0,0,0,0,0,0,0,-1,1924,729,31.3758,-2.0698
707,295,22.2661,3.05206,0,0,0,0,0,0,0,-1,1931,729,22.2662,-3.05207
714,295,17.4906,4.63068,0,0,0,0,0,0,0,-1,1938,729,17.4906,-4.63066
721,295,18.3792,5.32281,0,0,0,0,0,0,0,-1,1945,729,18.3791,-5.32283
728,295,17.379,3.74866,0,0,0,0,0,0,0,-1,1952,729,17.379,-3.74863
735,295,0,0,0,0,0,0,0,0,0,-1,1959,729,0,0
742,295,0,0,0,0,0,0,0,0,0,-1,1966,729,0,0
749,295,0,0,0,0,0,0,0,0,0,-1,1973,729,0,0
756,295,0,0,0,0,0,0,0,0,0,-1,1980,729,0,0
763,295,0,0,0,0,0,0,0,0,0,-1,1987,729,0,0
770,295,0,0,0,0,0,0,0,0,0,-1,1994,729,0,0
777,295,0,0,0,0,0,0,0,0,0,-1,2001,729,0,0
784,295,0,0,0,0,0,0,0,0,0,-1,2008,729,0,0
791,295,0,0,0,0,0,0,0,0,0,-1,2015,729,0,0
798,295,0,0,0,0,0,0,0,0,0,-1,2022,729,0,0
805,295,0,0,0,0,0,0,0,0,0,-1,2029,729,0,0
812,295,0,0,0,0,0,0,0,0,0,-1,2036,729,0,0
-700,288,0,0,0,0,0,0,0,0,0,-1,524,736,0,0
-693,288,0,0,0,0,0,0,0,0,0,-1,531,736,0,0
-686,288,0,0,0,0,0,0,0,0,0,-1,538,736,0,0
-679,288,0,0,0,0,0,0,0,0,0,-1,545,736,0,0
-672,288,0,0,0,0,0,0,0,0,0,-1,552,736,0,0
-665,288,0,0,0,0,0,0,0,0,0,-1,559,736,0,0
-658,288,0,0,0,0,0,0,0,0,0,-1,566,736,0,0
-651,288,0,0,0,0,0,0,0,0,0,-1,573,736,0,0
-644,288,0,0,0,0,0,0,0,0,0,-1,580,736,0,0
-637,288,0,0,0,0,0,0,0,0,0,-1,587,736,0,0
-630,288,0,0,0,0,0,0,0,0,0,-1,594,736,0,0
-623,288,0,0,0,0,0,0,0,0,0,-1,601,736,0,0
-616,288,-11.7584,2.4425,0,0,0,0,0,0,0,-1,608,736,-11.7584,-2.44251
-609,288,-10.3007,2.32178,0,0,0,0,0,0,0,-1,615,736,-10.3007,-2.32178
-602,288,-10.1458,-1.85559,0,0,0,0,0,0,0,-1,622,736,-10.1458,1.85556
-595,288,-7.63208,1.81769,0,0,0,0,0,0,0,-1,629,736,-7.63205,-1.81766
-588,288,-8.19269,1.50598,0,0,0,0,0,0,0,-1,636,736,-8.19268,-1.50601
-581,288,-13.1915,0.659241,0,0,0,0,0,0,0,-1,643,736,-13.1915,-0.659228
-574,288,-30.8439,0.274475,0,0,0,0,0,0,0,-1,650,736,-30.8439,-0.274495
-567,288,-31.0363,-0.711731,-0.00103392,0.00661315,-0.0025379,0.00737877,-0.00179954,-1.2778,0.00561597,0.0360304,657,736,-31.0362,0.711718
-560,288,-31.3116,-1.71869,-0.000192204,0.00472799,-0.00159653,0.00520064,-0.000664851,-1.28297,0.00370863,0.0173956,664,736,-31.3116,1.71866
-553,288,-31.2955,-2.61768,0.00028652,0.00318325,-0.00104246,0.00351939,-4.96277e-05,-1.25887,0.00236298,0.0194321,671,736,-31.2955,2.61766
-546,288,-31.3802,-3.50195,0.000310644,0.00213029,-0.000610847,0.00231632,0.000124606,-1.27516,0.0015044,0.0219175,678,736,-31.3803,3.50193
-539,288,-31.4678,-4.41595,0.000120222,0.00117313,-0.00010311,0.00118313,0.00011022,-1.47409,0.000754704,0.0190438,685,736,-31.4678,4.41596
-532,288,-31.4686,-5.36383,-0.000364848,0.000413193,0.000291019,0.000510001,-0.000461655,1.24966,0.000561217,0.016127,692,736,-31.4686,5.36384
-525,288,-31.5266,-6.3089,-0.00105222,-0.00033376,0.000650503,5.01124e-05,-0.00143609,1.03768,0.000974526,0.0142014,699,736,-31.5266,6.30889
-518,288,-31.6135,-7.24518,-0.00182262,-0.000888238,0.00106641,-0.000191168,-0.00251969,0.991853,0.00161984,0.0125794,706,736,-31.6135,7.24518
-511,288,-31.6984,-8.16241,-0.00277742,-0.00141511,0.00159781,-0.000359324,-0.0038332,0.986885,0.00244451,0.0100684,713,736,-31.6984,8.16244
-504,288,-31.7782,-9.10217,-0.00378209,-0.00195026,0.00221147,-0.000472535,-0.00525982,0.981727,0.00336013,0.0120322,720,736,-31.7782,9.10218
-497,288,-31.8104,-9.78784,-0.00459701,-0.00236638,0.00281299,-0.000455665,-0.00650772,0.974135,0.00419485,0.037155,727,736,-31.8105,9.78784
-490,288,-31.701,-10.3816,0,0,0,0,0,0,0,-1,734,736,-31.7011,10.3816
-483,288,-17.3287,0.564758,0,0,0,0,0,0,0,-1,741,736,-17.3287,-0.56477
-476,288,-26.136,0.452148,0,0,0,0,0,0,0,-1,748,736,-26.136,-0.452177
-469,288,-27.7904,0.649841,0,0,0,0,0,0,0,-1,755,736,-27.7904,-0.649854
-462,288,-44.999,-2.65112,0,0,0,0,0,0,0,-1,762,736,-44.999,2.65111
-455,288,-49.1631,1.86432,0,0,0,0,0,0,0,-1,769,736,-49.1632,-1.8643
-448,288,-55.5283,0.0455933,0,0,0,0,0,0,0,-1,776,736,-55.5284,-0.0456
-441,288,-55.0096,0.39325,0,0,0,0,0,0,0,-1,783,736,-55.0096,-0.393269
-434,288,-46.7119,1.66388,0,0,0,0,0,0,0,-1,790,736,-46.7119,-1.66385
-427,288,0,0,0,0,0,0,0,0,0,-1,797,736,0,0
-420,288,0,0,0,0,0,0,0,0,0,-1,804,736,0,0
-413,288,0,0,0,0,0,0,0,0,0,-1,811,736,0,0
-406,288,0,0,0,0,0,0,0,0,0,-1,818,736,0,0
-399,288,0,0,0,0,0,0,0,0,0,-1,825,736,0,0
-392,288,0,0,0,0,0,0,0,0,0,-1,832,736,0,0
-385,288,0,0,0,0,0,0,0,0,0,-1,839,736,0,0
-378,288,0,0,0,0,0,0,0,0,0,-1,846,736,0,0
-371,288,0,0,0,0,0,0,0,0,0,-1,853,736,0,0
-364,288,0,0,0,0,0,0,0,0,0,-1,860,736,0,0
-357,288,0,0,0,0,0,0,0,0,0,-1,867,736,0,0
-350,288,0,0,0,0,0,0,0,0,0,-1,874,736,0,0
-343,288,0,0,0,0,0,0,0,0,0,-1,881,736,0,0
-336,288,0,0,0,0,0,0,0,0,0,-1,888,736,0,0
-329,288,0,0,0,0,0,0,0,0,0,-1,895,736,0,0
-322,288,0,0,0,0,0,0,0,0,0,-1,902,736,0,0
-315,288,0,0,0,0,0,0,0,0,0,-1,909,736,0,0
-308,288,0,0,0,0,0,0,0,0,0,-1,916,736,0,0
-301,288,0,0,0,0,0,0,0,0,0,-1,923,736,0,0
-294,288,0,0,0,0,0,0,0,0,0,-1,930,736,0,0
-287,288,0,0,0,0,0,0,0,0,0,-1,937,736,0,0
-280,288,0,0,0,0,0,0,0,0,0,-1,944,736,0,0
-273,288,0,0,0,0,0,0,0,0,0,-1,951,736,0,0
-266,288,0,0,0,0,0,0,0,0,0,-1,958,736,0,0
-259,288,0,0,0,0,0,0,0,0,0,-1,965,736,0,0
-252,288,0,0,0,0,0,0,0,0,0,-1,972,736,0,0
-245,288,0,0,0,0,0,0,0,0,0,-1,979,736,0,0
-238,288,0,0,0,0,0,0,0,0,0,-1,986,736,0,0
-231,288,0,0,0,0,0,0,0,0,0,-1,993,736,0,0
-224,288,0,0,0,0,0,0,0,0,0,-1,1000,736,0,0
-217,288,0,0,0,0,0,0,0,0,0,-1,1007,736,0,0
-210,288,0,0,0,0,0,0,0,0,0,-1,1014,736,0,0
-203,288,0,0,0,0,0,0,0,0,0,-1,1021,736,0,0
-196,288,0,0,0,0,0,0,0,0,0,-1,1028,736,0,0
-189,288,0,0,0,0,0,0,0,0,0,-1,1035,736,0,0
-182,288,0,0,0,0,0,0,0,0,0,-1,1042,736,0,0
-175,288,0,0,0,0,0,0,0,0,0,-1,1049,736,0,0
-168,288,0,0,0,0,0,0,0,0,0,-1,1056,736,0,0
-161,288,0,0,0,0,0,0,0,0,0,-1,1063,736,0,0
-154,288,0,0,0,0,0,0,0,0,0,-1,1070,736,0,0
-147,288,0,0,0,0,0,0,0,0,0,-1,1077,736,0,0
-140,288,0,0,0,0,0,0,0,0,0,-1,1084,736,0,0
-133,288,0,0,0,0,0,0,0,0,0,-1,1091,736,0,0
-126,288,0,0,0,0,0,0,0,0,0,-1,1098,736,0,0
-119,288,0,0,0,0,0,0,0,0,0,-1,1105,736,0,0
-112,288,0,0,0,0,0,0,0,0,0,-1,1112,736,0,0
-105,288,0,0,0,0,0,0,0,0,0,-1,1119,736,0,0
-98,288,0,0,0,0,0,0,0,0,0,-1,1126,736,0,0
-91,288,0,0,0,0,0,0,0,0,0,-1,1133,736,0,0
-84,288,0,0,0,0,0,0,0,0,0,-1,1140,736,0,0
-77,288,0,0,0,0,0,0,0,0,0,-1,1147,736,0,0
-70,288,0,0,0,0,0,0,0,0,0,-1,1154,736,0,0
-63,288,0,0,0,0,0,0,0,0,0,-1,1161,736,0,0
-56,288,0,0,0,0,0,0,0,0,0,-1,1168,736,0,0
-49,288,0,0,0,0,0,0,0,0,0,-1,1175,736,0,0
-42,288,0,0,0,0,0,0,0,0,0,-1,1182,736,0,0
-35,288,0,0,0,0,0,0,0,0,0,-1,1189,736,0,0
-28,288,0,0,0,0,0,0,0,0,0,-1,1196,736,0,0
-21,288,0,0,0,0,0,0,0,0,0,-1,1203,736,0,0
-14,288,0,0,0,0,0,0,0,0,0,-1,1210,736,0,0
-7,288,0,0,0,0,0,0,0,0,0,-1,1217,736,0,0
0,288,0,0,0,0,0,0,0,0,0,-1,1224,736,0,0
7,288,0,0,0,0,0,0,0,0,0,-1,1231,736,0,0
14,288,0,0,0,0,0,0,0,0,0,-1,1238,736,0,0
21,288,0,0,0,0,0,0,0,0,0,-1,1245,736,0,0
28,288,0,0,0,0,0,0,0,0,0,-1,1252,736,0,0
35,288,0,0,0,0,0,0,0,0,0,-1,1259,736,0,0
42,288,0,0,0,0,0,0,0,0,0,-1,1266,736,0,0
49,288,0,0,0,0,0,0,0,0,0,-1,1273,736,0,0
56,288,0,0,0,0,0,0,0,0,0,-1,1280,736,0,0
63,288,0,0,0,0,0,0,0,0,0,-1,1287,736,0,0
70,288,0,0,0,0,0,0,0,0,0,-1,1294,736,0,0
77,288,0,0,0,0,0,0,0,0,0,-1,1301,736,0,0
84,288,0,0,0,0,0,0,0,0,0,-1,1308,736,0,0
91,288,0,0,0,0,0,0,0,0,0,-1,1315,736,0,0
98,288,0,0,0,0,0,0,0,0,0,-1,1322,736,0,0
105,288,0,0,0,0,0,0,0,0,0,-1,1329,736,0,0
112,288,0,0,0,0,0,0,0,0,0,-1,1336,736,0,0
119,288,0,0,0,0,0,0,0,0,0,-1,1343,736,0,0
126,288,0,0,0,0,0,0,0,0,0,-1,1350,736,0,0
133,288,0,0,0,0,0,0,0,0,0,-1,1357,736,0,0
140,288,0,0,0,0,0,0,0,0,0,-1,1364,736,0,0
147,288,0,0,0,0,0,0,0,0,0,-1,1371,736,0,0
154,288,0,0,0,0,0,0,0,0,0,-1,1378,736,0,0
161,288,0,0,0,0,0,0,0,0,0,-1,1385,736,0,0
168,288,0,0,0,0,0,0,0,0,0,-1,1392,736,0,0
175,288,0,0,0,0,0,0,0,0,0,-1,1399,736,0,0
182,288,0,0,0,0,0,0,0,0,0,-1,1406,736,0,0
189,288,0,0,0,0,0,0,0,0,0,-1,1413,736,0,0
196,288,0,0,0,0,0,0,0,0,0,-1,1420,736,0,0
203,288,0,0,0,0,0,0,0,0,0,-1,1427,736,0,0
210,288,0,0,0,0,0,0,0,0,0,-1,1434,736,0,0
217,288,0,0,0,0,0,0,0,0,0,-1,1441,736,0,0
224,288,0,0,0,0,0,0,0,0,0,-1,1448,736,0,0
231,288,0,0,0,0,0,0,0,0,0,-1,1455,736,0,0
238,288,0,0,0,0,0,0,0,0,0,-1,1462,736,0,0
245,288,0,0,0,0,0,0,0,0,0,-1,1469,736,0,0
252,288,0,0,0,0,0,0,0,0,0,-1,1476,736,0,0
259,288,0,0,0,0,0,0,0,0,0,-1,1483,736,0,0
266,288,0,0,0,0,0,0,0,0,0,-1,1490,736,0,0
273,288,0,0,0,0,0,0,0,0,0,-1,1497,736,0,0
280,288,0,0,0,0,0,0,0,0,0,-1,1504,736,0,0
287,288,0,0,0,0,0,0,0,0,0,-1,1511,736,0,0
294,288,0,0,0,0,0,0,0,0,0,-1,1518,736,0,0
301,288,0,0,0,0,0,0,0,0,0,-1,1525,736,0,0
308,288,0,0,0,0,0,0,0,0,0,-1,1532,736,0,0
315,288,0,0,0,0,0,0,0,0,0,-1,1539,736,0,0
322,288,0,0,0,0,0,0,0,0,0,-1,1546,736,0,0
329,288,0,0,0,0,0,0,0,0,0,-1,1553,736,0,0
336,288,0,0,0,0,0,0,0,0,0,-1,1560,736,0,0
343,288,0,0,0,0,0,0,0,0,0,-1,1567,736,0,0
350,288,0,0,0,0,0,0,0,0,0,-1,1574,736,0,0
357,288,0,0,0,0,0,0,0,0,0,-1,1581,736,0,0
364,288,0,0,0,0,0,0,0,0,0,-1,1588,736,0,0
371,288,0,0,0,0,0,0,0,0,0,-1,1595,736,0,0
378,288,0,0,0,0,0,0,0,0,0,-1,1602,736,0,0
385,288,0,0,0,0,0,0,0,0,0,-1,1609,736,0,0
392,288,0,0,0,0,0,0,0,0,0,-1,1616,736,0,0
399,288,0,0,0,0,0,0,0,0,0,-1,1623,736,0,0
406,288,0,0,0,0,0,0,0,0,0,-1,1630,736,0,0
413,288,0,0,0,0,0,0,0,0,0,-1,1637,736,0,0
420,288,0,0,0,0,0,0,0,0,0,-1,1644,736,0,0
427,288,0,0,0,0,0,0,0,0,0,-1,1651,736,0,0
434,288,0,0,0,0,0,0,0,0,0,-1,1658,736,0,0
441,288,0,0,0,0,0,0,0,0,0,-1,1665,736,0,0
448,288,0,0,0,0,0,0,0,0,0,-1,1672,736,0,0
455,288,0,0,0,0,0,0,0,0,0,-1,1679,736,0,0
462,288,0,0,0,0,0,0,0,0,0,-1,1686,736,0,0
469,288,0,0,0,0,0,0,0,0,0,-1,1693,736,0,0
476,288,0,0,0,0,0,0,0,0,0,-1,1700,736,0,0
483,288,0,0,0,0,0,0,0,0,0,-1,1707,736,0,0
490,288,0,0,0,0,0,0,0,0,0,-1,1714,736,0,0
497,288,0,0,0,0,0,0,0,0,0,-1,1721,736,0,0
504,288,0,0,0,0,0,0,0,0,0,-1,1728,736,0,0
511,288,0,0,0,0,0,0,0,0,0,-1,1735,736,0,0
518,288,0,0,0,0,0,0,0,0,0,-1,1742,736,0,0
525,288,0,0,0,0,0,0,0,0,0,-1,1749,736,0,0
532,288,0,0,0,0,0,0,0,0,0,-1,1756,736,0,0
539,288,0,0,0,0,0,0,0,0,0,-1,1763,736,0,0
546,288,0,0,0,0,0,0,0,0,0,-1,1770,736,0,0
553,288,57.4934,2.28064,0,0,0,0,0,0,0,-1,1777,736,57.4934,-2.28064
560,288,57.3807,3.02881,0,0,0,0,0,0,0,-1,1784,736,57.3808,-3.0288
567,288,57.2081,3.74274,0,0,0,0,0,0,0,-1,1791,736,57.2081,-3.74273
574,288,56.9817,4.36981,0,0,0,0,0,0,0,-1,1798,736,56.9816,-4.36984
581,288,53.4904,5.33215,0,0,0,0,0,0,0,-1,1805,736,53.4904,-5.33218
588,288,54.9313,3.29852,0,0,0,0,0,0,0,-1,1812,736,54.9313,-3.29849
595,288,47.035,3.35156,0,0,0,0,0,0,0,-1,1819,736,47.035,-3.35157
602,288,26.7634,7.61279,0,0,0,0,0,0,0,-1,1826,736,26.7635,-7.61279
609,288,17.5223,4.86414,0,0,0,0,0,0,0,-1,1833,736,17.5223,-4.86412
616,288,13.4886,0.801331,0,0,0,0,0,0,0,-1,1840,736,13.4886,-0.80132
623,288,47.3002,-9.50763,0,0,0,0,0,0,0,-1,1847,736,47.3002,9.50764
630,288,47.3237,-8.59644,0.00391973,-0.000281409,0.000940684,0.00412075,-0.000482422,0.210521,0.00292128,0.0373991,1854,736,47.3238,8.59642
637,288,47.3491,-7.69244,0.003247,-0.000337364,0.000991412,0.00350294,-0.000593307,0.252644,0.00255612,0.0132696,1861,736,47.3491,7.69243
644,288,47.2996,-6.74457,0.00246835,-5.82706e-05,0.000906971,0.00276021,-0.000350129,0.31133,0.00196726,0.0112755,1868,736,47.2996,6.74458
651,288,47.2208,-5.79474,0.00189327,0.000285943,0.00085433,0.00226253,-8.33196e-05,0.407974,0.00153688,0.0127199,1875,736,47.2208,5.79475
658,288,47.1787,-4.85248,0.00166611,0.000647807,0.000869058,0.00216418,0.000149737,0.520416,0.00139556,0.0181009,1882,736,47.1787,4.85245
665,288,47.1134,-3.97125,0.00157128,0.00110115,0.000943899,0.00230894,0.000363484,0.663363,0.00143358,0.01894,1889,736,47.1134,3.97125
672,288,47.062,-3.04321,0.00166598,0.00165069,0.00115986,0.00281822,0.000498457,0.782103,0.00173667,0.0178787,1896,736,47.062,3.04324
679,288,47.0013,-2.07727,0.00192342,0.00241813,0.00151004,0.00370094,0.000640616,0.866581,0.0022839,0.014708,1903,736,47.0013,2.07725
686,288,46.9231,-1.14679,0.00227695,0.00326184,0.0019209,0.00475242,0.000786373,0.910876,0.0029414,0.0120306,1910,736,46.923,1.14678
693,288,46.9287,-0.118286,0.00297252,0.00441936,0.00253723,0.00633429,0.0010576,0.924274,0.0039182,0.0274632,1917,736,46.9287,0.118261
700,288,46.9373,0.969238,0,0,0,0,0,0,0,-1,1924,736,46.9373,-0.969256
707,288,30.9496,3.07977,0,0,0,0,0,0,0,-1,1931,736,30.9496,-3.07975
714,288,23.0149,3.82544,0,0,0,0,0,0,0,-1,1938,736,23.0149,-3.82541
721,288,18.0732,3.69385,0,0,0,0,0,0,0,-1,1945,736,18.0732,-3.69387
728,288,19.3208,3.91455,0,0,0,0,0,0,0,-1,1952,736,19.3209,-3.91455
735,288,18.7712,3.51312,0,0,0,0,0,0,0,-1,1959,736,18.7713,-3.51309
742,288,0,0,0,0,0,0,0,0,0,-1,1966,736,0,0
749,288,0,0,0,0,0,0,0,0,0,-1,1973,736,0,0
756,288,0,0,0,0,0,0,0,0,0,-1,1980,736,0,0
763,288,0,0,0,0,0,0,0,0,0,-1,1987,736,0,0
770,288,0,0,0,0,0,0,0,0,0,-1,1994,736,0,0
777,288,0,0,0,0,0,0,0,0,0,-1,2001,736,0,0
784,288,0,0,0,0,0,0,0,0,0,-1,2008,736,0,0
791,288,0,0,0,0,0,0,0,0,0,-1,2015,736,0,0
798,288,0,0,0,0,0,0,0,0,0,-1,2022,736,0,0
805,288,0,0,0,0,0,0,0,0,0,-1,2029,736,0,0
812,288,0,0,0,0,0,0,0,0,0,-1,2036,736,0,0
-700,281,0,0,0,0,0,0,0,0,0,-1,524,743,0,0
-693,281,0,0,0,0,0,0,0,0,0,-1,531,743,0,0
-686,281,0,0,0,0,0,0,0,0,0,-1,538,743,0,0
-679,281,0,0,0,0,0,0,0,0,0,-1,545,743,0,0
-672,281,0,0,0,0,0,0,0,0,0,-1,552,743,0,0
-665,281,0,0,0,0,0,0,0,0,0,-1,559,743,0,0
-658,281,0,0,0,0,0,0,0,0,0,-1,566,743,0,0
-651,281,0,0,0,0,0,0,0,0,0,-1,573,743,0,0
-644,281,0,0,0,0,0,0,0,0,0,-1,580,743,0,0
-637,281,0,0,0,0,0,0,0,0,0,-1,587,743,0,0
-630,281,0,0,0,0,0,0,0,0,0,-1,594,743,0,0
-623,281,-19.1697,5.67017,0,0,0,0,0,0,0,-1,601,743,-19.1697,-5.67019
-616,281,-11.5906,2.6853,0,0,0,0,0,0,0,-1,608,743,-11.5906,-2.68529
-609,281,-16.1972,4.14838,0,0,0,0,0,0,0,-1,615,743,-16.1972,-4.14837
-602,281,-21.9772,6.77417,0,0,0,0,0,0,0,-1,622,743,-21.9771,-6.77415
-595,281,-10.4797,-1.07404,0,0,0,0,0,0,0,-1,629,743,-10.4798,1.07402
-588,281,-13.277,1.49817,0,0,0,0,0,0,0,-1,636,743,-13.2771,-1.49817
-581,281,-32.1045,1.17529,0,0,0,0,0,0,0,-1,643,743,-32.1045,-1.17529
-574,281,-31.9579,0.252075,0,0,0,0,0,0,0,-1,650,743,-31.9579,-0.252049
-567,281,-32.1595,-0.642761,-0.00149505,0.00575098,-0.00254453,0.00655525,-0.00229933,-1.26465,0.00530538,0.0226091,657,743,-32.1595,0.642775
-560,281,-32.2786,-1.59808,-0.000755832,0.00399475,-0.00143836,0.00439631,-0.00115739,-1.29855,0.00338331,0.00940739,664,743,-32.2786,1.59806
-553,281,-32.2903,-2.53522,-0.000378043,0.00259276,-0.000744243,0.00276878,-0.000554061,-1.33856,0.00205558,0.0159827,671,743,-32.2903,2.53524
-546,281,-32.3362,-3.41388,-0.000411712,0.00155064,-0.000213714,0.00157364,-0.000434718,-1.46356,0.00122009,0.017443,678,743,-32.3362,3.41385
-539,281,-32.3969,-4.34119,-0.000640399,0.000638542,0.00034092,0.000723743,-0.0007256,1.3259,0.000836779,0.0152869,685,743,-32.3969,4.34118
-532,281,-32.4329,-5.26276,-0.00119195,-2.13e-05,0.000714129,0.00031673,-0.00152998,1.1287,0.00114032,0.01572,692,743,-32.4329,5.26278
-525,281,-32.5154,-6.21082,-0.00196501,-0.00063743,0.00101242,-9.05914e-05,-0.00251184,1.07556,0.0016452,0.0176096,699,743,-32.5154,6.21084
-518,281,-32.581,-7.17078,-0.00284111,-0.00106317,0.00135474,-0.000331769,-0.00357251,1.07575,0.00227915,0.0133546,706,743,-32.581,7.17075
-511,281,-32.649,-8.1098,-0.00400197,-0.00144927,0.00183414,-0.00049109,-0.00496015,1.08938,0.00315583,0.0133932,713,743,-32.649,8.10978
-504,281,-32.7691,-9.05219,-0.00521381,-0.00184745,0.00237859,-0.000616734,-0.00644453,1.09331,0.00410624,0.0178802,720,743,-32.7691,9.05217
-497,281,-32.8845,-9.97717,0,0,0,0,0,0,0,-1,727,743,-32.8845,9.9772
-490,281,-27.6985,-9.63165,0,0,0,0,0,0,0,-1,734,743,-27.6986,9.63165
-483,281,-22.1078,-2.34973,0,0,0,0,0,0,0,-1,741,743,-22.1078,2.3497
-476,281,-28.0016,2.17786,0,0,0,0,0,0,0,-1,748,743,-28.0016,-2.17786
-469,281,-34.6448,0.171692,0,0,0,0,0,0,0,-1,755,743,-34.6448,-0.171685
-462,281,-46.6214,0.0193481,0,0,0,0,0,0,0,-1,762,743,-46.6214,-0.0193665
-455,281,-56.0239,-0.1521,0,0,0,0,0,0,0,-1,769,743,-56.024,0.152123
-448,281,-55.8145,0.304321,0,0,0,0,0,0,0,-1,776,743,-55.8145,-0.304294
-441,281,-55.4486,0.766052,0,0,0,0,0,0,0,-1,783,743,-55.4486,-0.766078
-434,281,0,0,0,0,0,0,0,0,0,-1,790,743,0,0
-427,281,0,0,0,0,0,0,0,0,0,-1,797,743,0,0
-420,281,0,0,0,0,0,0,0,0,0,-1,804,743,0,0
-413,281,0,0,0,0,0,0,0,0,0,-1,811,743,0,0
-406,281,0,0,0,0,0,0,0,0,0,-1,818,743,0,0
-399,281,0,0,0,0,0,0,0,0,0,-1,825,743,0,0
-392,281,0,0,0,0,0,0,0,0,0,-1,832,743,0,0
-385,281,0,0,0,0,0,0,0,0,0,-1,839,743,0,0
-378,281,0,0,0,0,0,0,0,0,0,-1,846,743,0,0
-371,281,0,0,0,0,0,0,0,0,0,-1,853,743,0,0
-364,281,0,0,0,0,0,0,0,0,0,-1,860,743,0,0
-357,281,0,0,0,0,0,0,0,0,0,-1,867,743,0,0
-350,281,0,0,0,0,0,0,0,0,0,-1,874,743,0,0
-343,281,0,0,0,0,0,0,0,0,0,-1,881,743,0,0
-336,281,0,0,0,0,0,0,0,0,0,-1,888,743,0,0
-329,281,0,0,0,0,0,0,0,0,0,-1,895,743,0,0
-322,281,0,0,0,0,0,0,0,0,0,-1,902,743,0,0
-315,281,0,0,0,0,0,0,0,0,0,-1,909,743,0,0
-308,281,0,0,0,0,0,0,0,0,0,-1,916,743,0,0
-301,281,0,0,0,0,0,0,0,0,0,-1,923,743,0,0
-294,281,0,0,0,0,0,0,0,0,0,-1,930,743,0,0
-287,281,0,0,0,0,0,0,0,0,0,-1,937,743,0,0
-280,281,0,0,0,0,0,0,0,0,0,-1,944,743,0,0
-273,281,0,0,0,0,0,0,0,0,0,-1,951,743,0,0
-266,281,0,0,0,0,0,0,0,0,0,-1,958,743,0,0
-259,281,0,0,0,0,0,0,0,0,0,-1,965,743,0,0
-252,281,0,0,0,0,0,0,0,0,0,-1,972,743,0,0
-245,281,0,0,0,0,0,0,0,0,0,-1,979,743,0,0
-238,281,0,0,0,0,0,0,0,0,0,-1,986,743,0,0
-231,281,0,0,0,0,0,0,0,0,0,-1,993,743,0,0
-224,281,0,0,0,0,0,0,0,0,0,-1,1000,743,0,0
-217,281,0,0,0,0,0,0,0,0,0,-1,1007,743,0,0
-210,281,0,0,0,0,0,0,0,0,0,-1,1014,743,0,0
-203,281,0,0,0,0,0,0,0,0,0,-1,1021,743,0,0
-196,281,0,0,0,0,0,0,0,0,0,-1,1028,743,0,0
-189,281,0,0,0,0,0,0,0,0,0,-1,1035,743,0,0
-182,281,0,0,0,0,0,0,0,0,0,-1,1042,743,0,0
-175,281,0,0,0,0,0,0,0,0,0,-1,1049,743,0,0
-168,281,0,0,0,0,0,0,0,0,0,-1,1056,743,0,0
-161,281,0,0,0,0,0,0,0,0,0,-1,1063,743,0,0
-154,281,0,0,0,0,0,0,0,0,0,-1,1070,743,0,0
-147,281,0,0,0,0,0,0,0,0,0,-1,1077,743,0,0
-140,281,0,0,0,0,0,0,0,0,0,-1,1084,743,0,0
-133,281,0,0,0,0,0,0,0,0,0,-1,1091,743,0,0
-126,281,0,0,0,0,0,0,0,0,0,-1,1098,743,0,0
-119,281,0,0,0,0,0,0,0,0,0,-1,1105,743,0,0
-112,281,0,0,0,0,0,0,0,0,0,-1,1112,743,0,0
-105,281,0,0,0,0,0,0,0,0,0,-1,1119,743,0,0
-98,281,0,0,0,0,0,0,0,0,0,-1,1126,743,0,0
-91,281,0,0,0,0,0,0,0,0,0,-1,1133,743,0,0
-84,281,0,0,0,0,0,0,0,0,0,-1,1140,743,0,0
-77,281,0,0,0,0,0,0,0,0,0,-1,1147,743,0,0
-70,281,0,0,0,0,0,0,0,0,0,-1,1154,743,0,0
-63,281,0,0,0,0,0,0,0,0,0,-1,1161,743,0,0
-56,281,0,0,0,0,0,0,0,0,0,-1,1168,743,0,0
-49,281,0,0,0,0,0,0,0,0,0,-1,1175,743,0,0
-42,281,0,0,0,0,0,0,0,0,0,-1,1182,743,0,0
-35,281,0,0,0,0,0,0,0,0,0,-1,1189,743,0,0
-28,281,0,0,0,0,0,0,0,0,0,-1,1196,743,0,0
-21,281,0,0,0,0,0,0,0,0,0,-1,1203,743,0,0
-14,281,0,0,0,0,0,0,0,0,0,-1,1210,743,0,0
-7,281,0,0,0,0,0,0,0,0,0,-1,1217,743,0,0
0,281,0,0,0,0,0,0,0,0,0,-1,1224,743,0,0
7,281,0,0,0,0,0,0,0,0,0,-1,1231,743,0,0
14,281,0,0,0,0,0,0,0,0,0,-1,1238,743,0,0
21,281,0,0,0,0,0,0,0,0,0,-1,1245,743,0,0
28,281,0,0,0,0,0,0,0,0,0,-1,1252,743,0,0
35,281,0,0,0,0,0,0,0,0,0,-1,1259,743,0,0
42,281,0,0,0,0,0,0,0,0,0,-1,1266,743,0,0
49,281,0,0,0,0,0,0,0,0,0,-1,1273,743,0,0
56,281,0,0,0,0,0,0,0,0,0,-1,1280,743,0,0
63,281,0,0,0,0,0,0,0,0,0,-1,1287,743,0,0
70,281,0,0,0,0,0,0,0,0,0,-1,1294,743,0,0
77,281,0,0,0,0,0,0,0,0,0,-1,1301,743,0,0
84,281,0,0,0,0,0,0,0,0,0,-1,1308,743,0,0
91,281,0,0,0,0,0,0,0,0,0,-1,1315,743,0,0
98,281,0,0,0,0,0,0,0,0,0,-1,1322,743,0,0
105,281,0,0,0,0,0,0,0,0,0,-1,1329,743,0,0
112,281,0,0,0,0,0,0,0,0,0,-1,1336,743,0,0
119,281,0,0,0,0,0,0,0,0,0,-1,1343,743,0,0
126,281,0,0,0,0,0,0,0,0,0,-1,1350,743,0,0
133,281,0,0,0,0,0,0,0,0,0,-1,1357,743,0,0
140,281,0,0,0,0,0,0,0,0,0,-1,1364,743,0,0
147,281,0,0,0,0,0,0,0,0,0,-1,1371,743,0,0
154,281,0,0,0,0,0,0,0,0,0,-1,1378,743,0,0
161,281,0,0,0,0,0,0,0,0,0,-1,1385,743,0,0
168,281,0,0,0,0,0,0,0,0,0,-1,1392,743,0,0
175,281,0,0,0,0,0,0,0,0,0,-1,1399,743,0,0
182,281,0,0,0,0,0,0,0,0,0,-1,1406,743,0,0
189,281,0,0,0,0,0,0,0,0,0,-1,1413,743,0,0
196,281,0,0,0,0,0,0,0,0,0,-1,1420,743,0,0
203,281,0,0,0,0,0,0,0,0,0,-1,1427,743,0,0
210,281,0,0,0,0,0,0,0,0,0,-1,1434,743,0,0
217,281,0,0,0,0,0,0,0,0,0,-1,1441,743,0,0
224,281,0,0,0,0,0,0,0,0,0,-1,1448,743,0,0
231,281,0,0,0,0,0,0,0,0,0,-1,1455,743,0,0
238,281,0,0,0,0,0,0,0,0,0,-1,1462,743,0,0
245,281,0,0,0,0,0,0,0,0,0,-1,1469,743,0,0
252,281,0,0,0,0,0,0,0,0,0,-1,1476,743,0,0
259,281,0,0,0,0,0,0,0,0,0,-1,1483,743,0,0
266,281,0,0,0,0,0,0,0,0,0,-1,1490,743,0,0
273,281,0,0,0,0,0,0,0,0,0,-1,1497,743,0,0
280,281,0,0,0,0,0,0,0,0,0,-1,1504,743,0,0
287,281,0,0,0,0,0,0,0,0,0,-1,1511,743,0,0
294,281,0,0,0,0,0,0,0,0,0,-1,1518,743,0,0
301,281,0,0,0,0,0,0,0,0,0,-1,1525,743,0,0
308,281,0,0,0,0,0,0,0,0,0,-1,1532,743,0,0
315,281,0,0,0,0,0,0,0,0,0,-1,1539,743,0,0
322,281,0,0,0,0,0,0,0,0,0,-1,1546,743,0,0
329,281,0,0,0,0,0,0,0,0,0,-1,1553,743,0,0
336,281,0,0,0,0,0,0,0,0,0,-1,1560,743,0,0
343,281,0,0,0,0,0,0,0,0,0,-1,1567,743,0,0
350,281,0,0,0,0,0,0,0,0,0,-1,1574,743,0,0
357,281,0,0,0,0,0,0,0,0,0,-1,1581,743,0,0
364,281,0,0,0,0,0,0,0,0,0,-1,1588,743,0,0
371,281,0,0,0,0,0,0,0,0,0,-1,1595,743,0,0
378,281,0,0,0,0,0,0,0,0,0,-1,1602,743,0,0
385,281,0,0,0,0,0,0,0,0,0,-1,1609,743,0,0
392,281,0,0,0,0,0,0,0,0,0,-1,1616,743,0,0
399,281,0,0,0,0,0,0,0,0,0,-1,1623,743,0,0
406,281,0,0,0,0,0,0,0,0,0,-1,1630,743,0,0
413,281,0,0,0,0,0,0,0,0,0,-1,1637,743,0,0
420,281,0,0,0,0,0,0,0,0,0,-1,1644,743,0,0
427,281,0,0,0,0,0,0,0,0,0,-1,1651,743,0,0
434,281,0,0,0,0,0,0,0,0,0,-1,1658,743,0,0
441,281,0,0,0,0,0,0,0,0,0,-1,1665,743,0,0
448,281,0,0,0,0,0,0,0,0,0,-1,1672,743,0,0
455,281,0,0,0,0,0,0,0,0,0,-1,1679,743,0,0
462,281,0,0,0,0,0,0,0,0,0,-1,1686,743,0,0
469,281,0,0,0,0,0,0,0,0,0,-1,1693,743,0,0
476,281,0,0,0,0,0,0,0,0,0,-1,1700,743,0,0
483,281,0,0,0,0,0,0,0,0,0,-1,1707,743,0,0
490,281,0,0,0,0,0,0,0,0,0,-1,1714,743,0,0
497,281,0,0,0,0,0,0,0,0,0,-1,1721,743,0,0
504,281,0,0,0,0,0,0,0,0,0,-1,1728,743,0,0
511,281,0,0,0,0,0,0,0,0,0,-1,1735,743,0,0
518,281,0,0,0,0,0,0,0,0,0,-1,1742,743,0,0
525,281,0,0,0,0,0,0,0,0,0,-1,1749,743,0,0
532,281,0,0,0,0,0,0,0,0,0,-1,1756,743,0,0
539,281,0,0,0,0,0,0,0,0,0,-1,1763,743,0,0
546,281,0,0,0,0,0,0,0,0,0,-1,1770,743,0,0
553,281,0,0,0,0,0,0,0,0,0,-1,1777,743,0,0
560,281,57.8354,3.06482,0,0,0,0,0,0,0,-1,1784,743,57.8354,-3.06479
567,281,57.6156,3.64508,0,0,0,0,0,0,0,-1,1791,743,57.6156,-3.64511
574,281,57.3431,4.17767,0,0,0,0,0,0,0,-1,1798,743,57.3431,-4.17769
581,281,57.0648,4.53906,0,0,0,0,0,0,0,-1,1805,743,57.0648,-4.53908
588,281,53.5422,6.00092,0,0,0,0,0,0,0,-1,1812,743,53.5422,-6.00092
595,281,54.8569,3.32269,0,0,0,0,0,0,0,-1,1819,743,54.857,-3.32269
602,281,45.9985,3.98254,0,0,0,0,0,0,0,-1,1826,743,45.9985,-3.98254
609,281,32.7925,1.28723,0,0,0,0,0,0,0,-1,1833,743,32.7925,-1.28722
616,281,21.3191,-0.253906,0,0,0,0,0,0,0,-1,1840,743,21.3191,0.253931
623,281,31.8741,-4.74182,0,0,0,0,0,0,0,-1,1847,743,31.8741,4.74184
630,281,48.1503,-8.42963,0,0,0,0,0,0,0,-1,1854,743,48.1503,8.4296
637,281,48.1896,-7.62653,0.00359639,-0.000846802,0.000684283,0.00369939,-0.000949799,0.149396,0.00283637,0.0253776,1861,743,48.1895,7.6265
644,281,48.2124,-6.68115,0.00272647,-0.000356887,0.000696563,0.00287653,-0.000506945,0.212184,0.00210709,0.0113261,1868,743,48.2124,6.68116
651,281,48.1632,-5.73669,0.00190841,0.000105985,0.000677285,0.00213454,-0.000120144,0.322239,0.00146472,0.0126248,1875,743,48.1632,5.73671
658,281,48.0934,-4.78955,0.00156854,0.000440226,0.000708805,0.0019103,9.84708e-05,0.449271,0.00124201,0.022497,1882,743,48.0934,4.78953
665,281,48.0103,-3.89929,0.00138597,0.000842545,0.000742265,0.00190469,0.000323825,0.609943,0.0011768,0.0243689,1889,743,48.0103,3.89932
672,281,47.9764,-2.96838,0.00138239,0.001293,0.000879803,0.00221863,0.00045676,0.760019,0.00135279,0.015323,1896,743,47.9764,2.96835
679,281,47.9291,-2.0274,0.00154168,0.00198438,0.00113818,0.00292254,0.000603531,0.881438,0.00178159,0.0233795,1903,743,47.9291,2.02738
686,281,47.8043,-1.11475,0.00178486,0.00275077,0.00142903,0.00377625,0.000759378,0.948352,0.00230643,0.0190894,1910,743,47.8044,1.11472
693,281,47.7875,-0.166687,0.00227994,0.00374306,0.00185588,0.00500636,0.00101665,0.97314,0.0030556,0.0142767,1917,743,47.7875,0.166662
700,281,47.7493,0.825134,0.00300736,0.0049873,0.00246546,0.00665412,0.00134054,0.976312,0.00406362,0.0479141,1924,743,47.7493,-0.825121
707,281,47.8516,1.80176,0,0,0,0,0,0,0,-1,1931,743,47.8516,-1.80175
714,281,25.0125,2.5105,0,0,0,0,0,0,0,-1,1938,743,25.0124,-2.51053
721,281,16.9656,3.22174,0,0,0,0,0,0,0,-1,1945,743,16.9656,-3.22172
728,281,19.0251,3.63934,0,0,0,0,0,0,0,-1,1952,743,19.0252,-3.63932
735,281,19.0869,2.50311,0,0,0,0,0,0,0,-1,1959,743,19.0869,-2.5031
742,281,0,0,0,0,0,0,0,0,0,-1,1966,743,0,0
749,281,0,0,0,0,0,0,0,0,0,-1,1973,743,0,0
756,281,0,0,0,0,0,0,0,0,0,-1,1980,743,0,0
763,281,0,0,0,0,0,0,0,0,0,-1,1987,743,0,0
770,281,0,0,0,0,0,0,0,0,0,-1,1994,743,0,0
777,281,0,0,0,0,0,0,0,0,0,-1,2001,743,0,0
784,281,0,0,0,0,0,0,0,0,0,-1,2008,743,0,0
791,281,0,0,0,0,0,0,0,0,0,-1,2015,743,0,0
798,281,0,0,0,0,0,0,0,0,0,-1,2022,743,0,0
805,281,0,0,0,0,0,0,0,0,0,-1,2029,743,0,0
812,281,0,0,0,0,0,0,0,0,0,-1,2036,743,0,0
-700,274,0,0,0,0,0,0,0,0,0,-1,524,750,0,0
-693,274,0,0,0,0,0,0,0,0,0,-1,531,750,0,0
-686,274,0,0,0,0,0,0,0,0,0,-1,538,750,0,0
-679,274,0,0,0,0,0,0,0,0,0,-1,545,750,0,0
-672,274,0,0,0,0,0,0,0,0,0,-1,552,750,0,0
-665,274,0,0,0,0,0,0,0,0,0,-1,559,750,0,0
-658,274,0,0,0,0,0,0,0,0,0,-1,566,750,0,0
-651,274,0,0,0,0,0,0,0,0,0,-1,573,750,0,0
-644,274,0,0,0,0,0,0,0,0,0,-1,580,750,0,0
-637,274,0,0,0,0,0,0,0,0,0,-1,587,750,0,0
-630,274,0,0,0,0,0,0,0,0,0,-1,594,750,0,0
-623,274,-19.6909,5.12701,0,0,0,0,0,0,0,-1,601,750,-19.6908,-5.12703
-616,274,-17.9133,3.9024,0,0,0,0,0,0,0,-1,608,750,-17.9133,-3.90239
-609,274,-26.0861,5.57306,0,0,0,0,0,0,0,-1,615,750,-26.0861,-5.57307
-602,274,-25.7372,3.73846,0,0,0,0,0,0,0,-1,622,750,-25.7372,-3.73849
-595,274,-25.258,2.53473,0,0,0,0,0,0,0,-1,629,750,-25.258,-2.53474
-588,274,-24.9805,2.2334,0,0,0,0,0,0,0,-1,636,750,-24.9805,-2.23341
-581,274,-32.8348,1.77289,0,0,0,0,0,0,0,-1,643,750,-32.8348,-1.77287
-574,274,-33.0229,0.402893,0,0,0,0,0,0,0,-1,650,750,-33.023,-0.40288
-567,274,-33.0967,-0.631531,-0.0018348,0.00487829,-0.00242555,0.00566296,-0.00261947,-1.25792,0.0048883,0.0307483,657,750,-33.0968,0.631556
-560,274,-33.1535,-1.5152,-0.00120079,0.00332275,-0.00122691,0.0036341,-0.00151213,-1.32228,0.00305421,0.0153724,664,750,-33.1535,1.5152
-553,274,-33.2368,-2.47363,-0.000930693,0.00211253,-0.000440754,0.00217508,-0.000993243,-1.42982,0.00187117,0.0105678,671,750,-33.2368,2.47363
-546,274,-33.3037,-3.38568,-0.00103282,0.00114301,0.000157893,0.00115441,-0.00104422,1.49873,0.00126991,0.0123588,678,750,-33.3037,3.38567
-539,274,-33.3463,-4.30988,-0.00133327,0.000304367,0.000731676,0.000583643,-0.00161255,1.20617,0.00131354,0.0127674,685,750,-33.3462,4.30991
-532,274,-33.4073,-5.22754,-0.00197543,-0.000238974,0.00107362,0.00027355,-0.00248796,1.12541,0.00175693,0.0138026,692,750,-33.4073,5.22752
-525,274,-33.4903,-6.1499,-0.00284585,-0.000681095,0.0013091,-6.48618e-05,-0.00346208,1.13084,0.00228674,0.0141569,699,750,-33.4903,6.14992
-518,274,-33.5363,-7.10632,-0.00385047,-0.000960802,0.00157123,-0.000271088,-0.00454019,1.15716,0.0029406,0.0139943,706,750,-33.5363,7.1063
-511,274,-33.5882,-8.07751,-0.00526434,-0.0011717,0.0019776,-0.000372262,-0.00606377,1.18664,0.00392432,0.0217555,713,750,-33.5882,8.0775
-504,274,-33.759,-9.11871,-0.00673146,-0.00136678,0.00240141,-0.000448879,-0.00764936,1.2057,0.00495672,0.0396591,720,750,-33.7591,9.1187
-497,274,-34.0238,-10.2032,0,0,0,0,0,0,0,-1,727,750,-34.0238,10.2032
-490,274,-13.6545,-3.58826,0,0,0,0,0,0,0,-1,734,750,-13.6546,3.58825
-483,274,-27.8608,1.30981,0,0,0,0,0,0,0,-1,741,750,-27.8608,-1.30979
-476,274,-33.7561,-0.508606,0,0,0,0,0,0,0,-1,748,750,-33.7561,0.508636
-469,274,-41.1387,0.907715,0,0,0,0,0,0,0,-1,755,750,-41.1387,-0.907744
-462,274,-56.4362,0.240723,0,0,0,0,0,0,0,-1,762,750,-56.4362,-0.240732
-455,274,-56.3354,0.39563,0,0,0,0,0,0,0,-1,769,750,-56.3354,-0.395609
-448,274,-56.1052,0.421143,0,0,0,0,0,0,0,-1,776,750,-56.1052,-0.421134
-441,274,0,0,0,0,0,0,0,0,0,-1,783,750,0,0
-434,274,0,0,0,0,0,0,0,0,0,-1,790,750,0,0
-427,274,0,0,0,0,0,0,0,0,0,-1,797,750,0,0
-420,274,0,0,0,0,0,0,0,0,0,-1,804,750,0,0
-413,274,0,0,0,0,0,0,0,0,0,-1,811,750,0,0
-406,274,0,0,0,0,0,0,0,0,0,-1,818,750,0,0
-399,274,0,0,0,0,0,0,0,0,0,-1,825,750,0,0
-392,274,0,0,0,0,0,0,0,0,0,-1,832,750,0,0
-385,274,0,0,0,0,0,0,0,0,0,-1,839,750,0,0
-378,274,0,0,0,0,0,0,0,0,0,-1,846,750,0,0
-371,274,0,0,0,0,0,0,0,0,0,-1,853,750,0,0
-364,274,0,0,0,0,0,0,0,0,0,-1,860,750,0,0
-357,274,0,0,0,0,0,0,0,0,0,-1,867,750,0,0
-350,274,0,0,0,0,0,0,0,0,0,-1,874,750,0,0
-343,274,0,0,0,0,0,0,0,0,0,-1,881,750,0,0
-336,274,0,0,0,0,0,0,0,0,0,-1,888,750,0,0
-329,274,0,0,0,0,0,0,0,0,0,-1,895,750,0,0
-322,274,0,0,0,0,0,0,0,0,0,-1,902,750,0,0
-315,274,0,0,0,0,0,0,0,0,0,-1,909,750,0,0
-308,274,0,0,0,0,0,0,0,0,0,-1,916,750,0,0
-301,274,0,0,0,0,0,0,0,0,0,-1,923,750,0,0
-294,274,0,0,0,0,0,0,0,0,0,-1,930,750,0,0
-287,274,0,0,0,0,0,0,0,0,0,-1,937,750,0,0
-280,274,0,0,0,0,0,0,0,0,0,-1,944,750,0,0
-273,274,0,0,0,0,0,0,0,0,0,-1,951,750,0,0
-266,274,0,0,0,0,0,0,0,0,0,-1,958,750,0,0
-259,274,0,0,0,0,0,0,0,0,0,-1,965,750,0,0
-252,274,0,0,0,0,0,0,0,0,0,-1,972,750,0,0
-245,274,0,0,0,0,0,0,0,0,0,-1,979,750,0,0
-238,274,0,0,0,0,0,0,0,0,0,-1,986,750,0,0
-231,274,0,0,0,0,0,0,0,0,0,-1,993,750,0,0
-224,274,0,0,0,0,0,0,0,0,0,-1,1000,750,0,0
-217,274,0,0,0,0,0,0,0,0,0,-1,1007,750,0,0
-210,274,0,0,0,0,0,0,0,0,0,-1,1014,750,0,0
-203,274,0,0,0,0,0,0,0,0,0,-1,1021,750,0,0
-196,274,0,0,0,0,0,0,0,0,0,-1,1028,750,0,0
-189,274,0,0,0,0,0,0,0,0,0,-1,1035,750,0,0
-182,274,0,0,0,0,0,0,0,0,0,-1,1042,750,0,0
-175,274,0,0,0,0,0,0,0,0,0,-1,1049,750,0,0
-168,274,0,0,0,0,0,0,0,0,0,-1,1056,750,0,0
-161,274,0,0,0,0,0,0,0,0,0,-1,1063,750,0,0
-154,274,0,0,0,0,0,0,0,0,0,-1,1070,750,0,0
-147,274,0,0,0,0,0,0,0,0,0,-1,1077,750,0,0
-140,274,0,0,0,0,0,0,0,0,0,-1,1084,750,0,0
-133,274,0,0,0,0,0,0,0,0,0,-1,1091,750,0,0
-126,274,0,0,0,0,0,0,0,0,0,-1,1098,750,0,0
-119,274,0,0,0,0,0,0,0,0,0,-1,1105,750,0,0
-112,274,0,0,0,0,0,0,0,0,0,-1,1112,750,0,0
-105,274,0,0,0,0,0,0,0,0,0,-1,1119,750,0,0
-98,274,0,0,0,0,0,0,0,0,0,-1,1126,750,0,0
-91,274,0,0,0,0,0,0,0,0,0,-1,1133,750,0,0
-84,274,0,0,0,0,0,0,0,0,0,-1,1140,750,0,0
-77,274,0,0,0,0,0,0,0,0,0,-1,1147,750,0,0
-70,274,0,0,0,0,0,0,0,0,0,-1,1154,750,0,0
-63,274,0,0,0,0,0,0,0,0,0,-1,1161,750,0,0
-56,274,0,0,0,0,0,0,0,0,0,-1,1168,750,0,0
-49,274,0,0,0,0,0,0,0,0,0,-1,1175,750,0,0
-42,274,0,0,0,0,0,0,0,0,0,-1,1182,750,0,0
-35,274,0,0,0,0,0,0,0,0,0,-1,1189,750,0,0
-28,274,0,0,0,0,0,0,0,0,0,-1,1196,750,0,0
-21,274,0,0,0,0,0,0,0,0,0,-1,1203,750,0,0
-14,274,0,0,0,0,0,0,0,0,0,-1,1210,750,0,0
-7,274,0,0,0,0,0,0,0,0,0,-1,1217,750,0,0
0,274,0,0,0,0,0,0,0,0,0,-1,1224,750,0,0
7,274,0,0,0,0,0,0,0,0,0,-1,1231,750,0,0
14,274,0,0,0,0,0,0,0,0,0,-1,1238,750,0,0
21,274,0,0,0,0,0,0,0,0,0,-1,1245,750,0,0
28,274,0,0,0,0,0,0,0,0,0,-1,1252,750,0,0
35,274,0,0,0,0,0,0,0,0,0,-1,1259,750,0,0
42,274,0,0,0,0,0,0,0,0,0,-1,1266,750,0,0
49,274,0,0,0,0,0,0,0,0,0,-1,1273,750,0,0
56,274,0,0,0,0,0,0,0,0,0,-1,1280,750,0,0
63,274,0,0,0,0,0,0,0,0,0,-1,1287,750,0,0
70,274,0,0,0,0,0,0,0,0,0,-1,1294,750,0,0
77,274,0,0,0,0,0,0,0,0,0,-1,1301,750,0,0
84,274,0,0,0,0,0,0,0,0,0,-1,1308,750,0,0
91,274,0,0,0,0,0,0,0,0,0,-1,1315,750,0,0
98,274,0,0,0,0,0,0,0,0,0,-1,1322,750,0,0
105,274,0,0,0,0,0,0,0,0,0,-1,1329,750,0,0
112,274,0,0,0,0,0,0,0,0,0,-1,1336,750,0,0
119,274,0,0,0,0,0,0,0,0,0,-1,1343,750,0,0
126,274,0,0,0,0,0,0,0,0,0,-1,1350,750,0,0
133,274,0,0,0,0,0,0,0,0,0,-1,1357,750,0,0
140,274,0,0,0,0,0,0,0,0,0,-1,1364,750,0,0
147,274,0,0,0,0,0,0,0,0,0,-1,1371,750,0,0
154,274,0,0,0,0,0,0,0,0,0,-1,1378,750,0,0
161,274,0,0,0,0,0,0,0,0,0,-1,1385,750,0,0
168,274,0,0,0,0,0,0,0,0,0,-1,1392,750,0,0
175,274,0,0,0,0,0,0,0,0,0,-1,1399,750,0,0
182,274,0,0,0,0,0,0,0,0,0,-1,1406,750,0,0
189,274,0,0,0,0,0,0,0,0,0,-1,1413,750,0,0
196,274,0,0,0,0,0,0,0,0,0,-1,1420,750,0,0
203,274,0,0,0,0,0,0,0,0,0,-1,1427,750,0,0
210,274,0,0,0,0,0,0,0,0,0,-1,1434,750,0,0
217,274,0,0,0,0,0,0,0,0,0,-1,1441,750,0,0
224,274,0,0,0,0,0,0,0,0,0,-1,1448,750,0,0
231,274,0,0,0,0,0,0,0,0,0,-1,1455,750,0,0
238,274,0,0,0,0,0,0,0,0,0,-1,1462,750,0,0
245,274,0,0,0,0,0,0,0,0,0,-1,1469,750,0,0
252,274,0,0,0,0,0,0,0,0,0,-1,1476,750,0,0
259,274,0,0,0,0,0,0,0,0,0,-1,1483,750,0,0
266,274,0,0,0,0,0,0,0,0,0,-1,1490,750,0,0
273,274,0,0,0,0,0,0,0,0,0,-1,1497,750,0,0
280,274,0,0,0,0,0,0,0,0,0,-1,1504,750,0,0
287,274,0,0,0,0,0,0,0,0,0,-1,1511,750,0,0
294,274,0,0,0,0,0,0,0,0,0,-1,1518,750,0,0
301,274,0,0,0,0,0,0,0,0,0,-1,1525,750,0,0
308,274,0,0,0,0,0,0,0,0,0,-1,1532,750,0,0
315,274,0,0,0,0,0,0,0,0,0,-1,1539,750,0,0
322,274,0,0,0,0,0,0,0,0,0,-1,1546,750,0,0
329,274,0,0,0,0,0,0,0,0,0,-1,1553,750,0,0
336,274,0,0,0,0,0,0,0,0,0,-1,1560,750,0,0
343,274,0,0,0,0,0,0,0,0,0,-1,1567,750,0,0
350,274,0,0,0,0,0,0,0,0,0,-1,1574,750,0,0
357,274,0,0,0,0,0,0,0,0,0,-1,1581,750,0,0
364,274,0,0,0,0,0,0,0,0,0,-1,1588,750,0,0
371,274,0,0,0,0,0,0,0,0,0,-1,1595,750,0,0
378,274,0,0,0,0,0,0,0,0,0,-1,1602,750,0,0
385,274,0,0,0,0,0,0,0,0,0,-1,1609,750,0,0
392,274,0,0,0,0,0,0,0,0,0,-1,1616,750,0,0
399,274,0,0,0,0,0,0,0,0,0,-1,1623,750,0,0
406,274,0,0,0,0,0,0,0,0,0,-1,1630,750,0,0
413,274,0,0,0,0,0,0,0,0,0,-1,1637,750,0,0
420,274,0,0,0,0,0,0,0,0,0,-1,1644,750,0,0
427,274,0,0,0,0,0,0,0,0,0,-1,1651,750,0,0
434,274,0,0,0,0,0,0,0,0,0,-1,1658,750,0,0
441,274,0,0,0,0,0,0,0,0,0,-1,1665,750,0,0
448,274,0,0,0,0,0,0,0,0,0,-1,1672,750,0,0
455,274,0,0,0,0,0,0,0,0,0,-1,1679,750,0,0
462,274,0,0,0,0,0,0,0,0,0,-1,1686,750,0,0
469,274,0,0,0,0,0,0,0,0,0,-1,1693,750,0,0
476,274,0,0,0,0,0,0,0,0,0,-1,1700,750,0,0
483,274,0,0,0,0,0,0,0,0,0,-1,1707,750,0,0
490,274,0,0,0,0,0,0,0,0,0,-1,1714,750,0,0
497,274,0,0,0,0,0,0,0,0,0,-1,1721,750,0,0
504,274,0,0,0,0,0,0,0,0,0,-1,1728,750,0,0
511,274,0,0,0,0,0,0,0,0,0,-1,1735,750,0,0
518,274,0,0,0,0,0,0,0,0,0,-1,1742,750,0,0
525,274,0,0,0,0,0,0,0,0,0,-1,1749,750,0,0
532,274,0,0,0,0,0,0,0,0,0,-1,1756,750,0,0
539,274,0,0,0,0,0,0,0,0,0,-1,1763,750,0,0
546,274,0,0,0,0,0,0,0,0,0,-1,1770,750,0,0
553,274,0,0,0,0,0,0,0,0,0,-1,1777,750,0,0
560,274,57.9182,3.24518,0,0,0,0,0,0,0,-1,1784,750,57.9182,-3.24516
567,274,57.8315,3.4137,0,0,0,0,0,0,0,-1,1791,750,57.8315,-3.41368
574,274,58.2571,3.11115,0,0,0,0,0,0,0,-1,1798,750,58.2571,-3.11114
581,274,54.4941,4.68127,0,0,0,0,0,0,0,-1,1805,750,54.4941,-4.68125
588,274,53.9908,5.6676,0,0,0,0,0,0,0,-1,1812,750,53.9908,-5.66763
595,274,66.2316,2.66986,0,0,0,0,0,0,0,-1,1819,750,66.2315,-2.66988
602,274,55.6321,2.56519,0,0,0,0,0,0,0,-1,1826,750,55.6321,-2.56521
609,274,44.6676,3.10461,0,0,0,0,0,0,0,-1,1833,750,44.6676,-3.1046
616,274,32.7869,1.78436,0,0,0,0,0,0,0,-1,1840,750,32.7868,-1.78437
623,274,24.8231,-1.80353,0,0,0,0,0,0,0,-1,1847,750,24.8232,1.80351
630,274,49.1647,-8.54449,0,0,0,0,0,0,0,-1,1854,750,49.1647,8.54452
637,274,49.0677,-7.67761,0.0036487,-0.00154333,0.000399234,0.00367922,-0.00157385,0.0762959,0.003113,0.0324611,1861,750,49.0677,7.67762
644,274,49.1155,-6.65631,0.00283821,-0.000865343,0.000500433,0.00290464,-0.000931771,0.13197,0.00231051,0.0151331,1868,750,49.1155,6.65634
651,274,49.0845,-5.69006,0.00189162,-0.000230726,0.000541032,0.00202159,-0.000360688,0.235745,0.00148265,0.0143993,1875,750,49.0844,5.69009
658,274,49.0188,-4.75879,0.00150535,0.000172957,0.000578079,0.00172119,-4.28857e-05,0.357349,0.00116202,0.0178853,1882,750,49.0188,4.75876
665,274,48.9492,-3.82098,0.00128874,0.000614763,0.000552795,0.00159917,0.000304339,0.511671,0.000980536,0.0180389,1889,750,48.9492,3.82099
672,274,48.9351,-2.90076,0.00119484,0.00101122,0.000589721,0.00169986,0.000506208,0.708175,0.00100781,0.0148842,1896,750,48.9351,2.90077
679,274,48.8754,-1.95703,0.00122637,0.00161338,0.000728983,0.0021741,0.000665644,0.915131,0.00128627,0.0169844,1903,750,48.8753,1.95701
686,274,48.7854,-1.03607,0.00133883,0.00228998,0.000893548,0.00282663,0.000802182,1.02995,0.00168204,0.0199079,1910,750,48.7854,1.03605
693,274,48.6971,-0.0844727,0.00162955,0.00309956,0.00114156,0.00372227,0.00100684,1.07142,0.00222324,0.014292,1917,750,48.6972,0.0844711
700,274,48.6715,0.872314,0.00212785,0.00410092,0.00152298,0.00492897,0.00129979,1.0728,0.00294977,0.0205579,1924,750,48.6715,-0.872303
707,274,48.474,1.83728,0.0026139,0.00510911,0.00177902,0.00603439,0.00168862,1.09119,0.00359478,0.0491364,1931,750,48.474,-1.83728
714,274,48.2205,2.92371,0,0,0,0,0,0,0,-1,1938,750,48.2205,-2.92373
721,274,25.6215,3.91144,0,0,0,0,0,0,0,-1,1945,750,25.6214,-3.91141
728,274,19.2209,3.95154,0,0,0,0,0,0,0,-1,1952,750,19.221,-3.95151
735,274,20.6608,4.10931,0,0,0,0,0,0,0,-1,1959,750,20.6607,-4.10932
742,274,11.7815,-0.740234,0,0,0,0,0,0,0,-1,1966,750,11.7815,0.740253
749,274,0,0,0,0,0,0,0,0,0,-1,1973,750,0,0
756,274,0,0,0,0,0,0,0,0,0,-1,1980,750,0,0
763,274,0,0,0,0,0,0,0,0,0,-1,1987,750,0,0
770,274,0,0,0,0,0,0,0,0,0,-1,1994,750,0,0
777,274,0,0,0,0,0,0,0,0,0,-1,2001,750,0,0
784,274,0,0,0,0,0,0,0,0,0,-1,2008,750,0,0
791,274,0,0,0,0,0,0,0,0,0,-1,2015,750,0,0
798,274,0,0,0,0,0,0,0,0,0,-1,2022,750,0,0
805,274,0,0,0,0,0,0,0,0,0,-1,2029,750,0,0
812,274,0,0,0,0,0,0,0,0,0,-1,2036,750,0,0
-700,267,0,0,0,0,0,0,0,0,0,-1,524,757,0,0
-693,267,0,0,0,0,0,0,0,0,0,-1,531,757,0,0
-686,267,0,0,0,0,0,0,0,0,0,-1,538,757,0,0
-679,267,0,0,0,0,0,0,0,0,0,-1,545,757,0,0
-672,267,0,0,0,0,0,0,0,0,0,-1,552,757,0,0
-665,267,0,0,0,0,0,0,0,0,0,-1,559,757,0,0
-658,267,0,0,0,0,0,0,0,0,0,-1,566,757,0,0
-651,267,0,0,0,0,0,0,0,0,0,-1,573,757,0,0
-644,267,0,0,0,0,0,0,0,0,0,-1,580,757,0,0
-637,267,0,0,0,0,0,0,0,0,0,-1,587,757,0,0
-630,267,-21.3979,5.17529,0,0,0,0,0,0,0,-1,594,757,-21.3979,-5.17529
-623,267,-20.043,4.43115,0,0,0,0,0,0,0,-1,601,757,-20.043,-4.43116
-616,267,-27.1628,5.9325,0,0,0,0,0,0,0,-1,608,757,-27.1629,-5.93249
-609,267,-26.9868,4.99658,0,0,0,0,0,0,0,-1,615,757,-26.9868,-4.99656
-602,267,-26.6637,3.74072,0,0,0,0,0,0,0,-1,622,757,-26.6637,-3.74075
-595,267,-32.7299,2.1203,0,0,0,0,0,0,0,-1,629,757,-32.7299,-2.12028
-588,267,-33.7107,2.75842,0,0,0,0,0,0,0,-1,636,757,-33.7107,-2.75844
-581,267,-33.772,1.55713,-0.00525267,0.00711948,-0.00642473,0.00985219,-0.00798537,-1.16864,0.0103173,0.0485619,643,757,-33.7721,-1.55712
-574,267,-33.8391,0.404846,-0.0032543,0.00543066,-0.00397919,0.0069781,-0.00480174,-1.19991,0.00683967,0.0284969,650,757,-33.8391,-0.404866
-567,267,-34.0153,-0.54425,-0.00199193,0.00385226,-0.00220357,0.00459,-0.00272967,-1.24773,0.00427127,0.031833,657,757,-34.0152,0.544271
-560,267,-34.0846,-1.37573,-0.00147858,0.00265162,-0.00101056,0.00288562,-0.00171259,-1.34325,0.00268342,0.0241063,664,757,-34.0846,1.37574
-553,267,-34.152,-2.38422,-0.00135668,0.001744,-0.000193543,0.00175604,-0.00136872,-1.5087,0.00180869,0.0189965,671,757,-34.152,2.38419
-546,267,-34.2233,-3.32373,-0.00157977,0.000970346,0.000430983,0.00104121,-0.00165064,1.40782,0.00156736,0.0125361,678,757,-34.2233,3.32376
-539,267,-34.2529,-4.27338,-0.0020422,0.000293188,0.000996792,0.00066078,-0.00240979,1.21749,0.0018662,0.0122477,685,757,-34.2529,4.27337
-532,267,-34.2839,-5.2002,-0.00287634,-0.000105647,0.00130233,0.000410384,-0.00339237,1.19354,0.00241005,0.0131786,692,757,-34.2839,5.20021
-525,267,-34.3961,-6.08862,-0.00393631,-0.00033627,0.00149584,0.000204138,-0.00447671,1.22411,0.0030548,0.0126576,699,757,-34.3961,6.0886
-518,267,-34.4935,-7.03589,-0.00516747,-0.000468258,0.00170276,8.38647e-05,-0.0057196,1.25724,0.00384132,0.0165667,706,757,-34.4936,7.03587
-511,267,-34.4947,-8.03308,-0.00697544,-0.000503721,0.00206149,9.71537e-05,-0.00757632,1.28718,0.00508357,0.0363633,713,757,-34.4947,8.03309
-504,267,-34.4741,-8.98462,0,0,0,0,0,0,0,-1,720,757,-34.4741,8.98461
-497,267,-31.5913,-8.72119,0,0,0,0,0,0,0,-1,727,757,-31.5913,8.72117
-490,267,-23.4949,-0.494995,0,0,0,0,0,0,0,-1,734,757,-23.4949,0.494981
-483,267,-33.2785,-0.448425,0,0,0,0,0,0,0,-1,741,757,-33.2785,0.448407
-476,267,-40.2954,0.52002,0,0,0,0,0,0,0,-1,748,757,-40.2954,-0.520037
-469,267,-52.9857,0.187744,0,0,0,0,0,0,0,-1,755,757,-52.9857,-0.187726
-462,267,-58.0247,0.0516357,0,0,0,0,0,0,0,-1,762,757,-58.0247,-0.0516229
-455,267,-56.5999,0.790771,0,0,0,0,0,0,0,-1,769,757,-56.5999,-0.790769
-448,267,-56.4718,0.802429,0,0,0,0,0,0,0,-1,776,757,-56.4718,-0.802434
-441,267,0,0,0,0,0,0,0,0,0,-1,783,757,0,0
-434,267,0,0,0,0,0,0,0,0,0,-1,790,757,0,0
-427,267,0,0,0,0,0,0,0,0,0,-1,797,757,0,0
-420,267,0,0,0,0,0,0,0,0,0,-1,804,757,0,0
-413,267,0,0,0,0,0,0,0,0,0,-1,811,757,0,0
-406,267,0,0,0,0,0,0,0,0,0,-1,818,757,0,0
-399,267,0,0,0,0,0,0,0,0,0,-1,825,757,0,0
-392,267,0,0,0,0,0,0,0,0,0,-1,832,757,0,0
-385,267,0,0,0,0,0,0,0,0,0,-1,839,757,0,0
-378,267,0,0,0,0,0,0,0,0,0,-1,846,757,0,0
-371,267,0,0,0,0,0,0,0,0,0,-1,853,757,0,0
-364,267,0,0,0,0,0,0,0,0,0,-1,860,757,0,0
-357,267,0,0,0,0,0,0,0,0,0,-1,867,757,0,0
-350,267,0,0,0,0,0,0,0,0,0,-1,874,757,0,0
-343,267,0,0,0,0,0,0,0,0,0,-1,881,757,0,0
-336,267,0,0,0,0,0,0,0,0,0,-1,888,757,0,0
-329,267,0,0,0,0,0,0,0,0,0,-1,895,757,0,0
-322,267,0,0,0,0,0,0,0,0,0,-1,902,757,0,0
-315,267,0,0,0,0,0,0,0,0,0,-1,909,757,0,0
-308,267,0,0,0,0,0,0,0,0,0,-1,916,757,0,0
-301,267,0,0,0,0,0,0,0,0,0,-1,923,757,0,0
-294,267,0,0,0,0,0,0,0,0,0,-1,930,757,0,0
-287,267,0,0,0,0,0,0,0,0,0,-1,937,757,0,0
-280,267,0,0,0,0,0,0,0,0,0,-1,944,757,0,0
-273,267,0,0,0,0,0,0,0,0,0,-1,951,757,0,0
-266,267,0,0,0,0,0,0,0,0,0,-1,958,757,0,0
-259,267,0,0,0,0,0,0,0,0,0,-1,965,757,0,0
-252,267,0,0,0,0,0,0,0,0,0,-1,972,757,0,0
-245,267,0,0,0,0,0,0,0,0,0,-1,979,757,0,0
-238,267,0,0,0,0,0,0,0,0,0,-1,986,757,0,0
-231,267,0,0,0,0,0,0,0,0,0,-1,993,757,0,0
-224,267,0,0,0,0,0,0,0,0,0,-1,1000,757,0,0
-217,267,0,0,0,0,0,0,0,0,0,-1,1007,757,0,0
-210,267,0,0,0,0,0,0,0,0,0,-1,1014,757,0,0
-203,267,0,0,0,0,0,0,0,0,0,-1,1021,757,0,0
-196,267,0,0,0,0,0,0,0,0,0,-1,1028,757,0,0
-189,267,0,0,0,0,0,0,0,0,0,-1,1035,757,0,0
-182,267,0,0,0,0,0,0,0,0,0,-1,1042,757,0,0
-175,267,0,0,0,0,0,0,0,0,0,-1,1049,757,0,0
-168,267,0,0,0,0,0,0,0,0,0,-1,1056,757,0,0
-161,267,0,0,0,0,0,0,0,0,0,-1,1063,757,0,0
-154,267,0,0,0,0,0,0,0,0,0,-1,1070,757,0,0
-147,267,0,0,0,0,0,0,0,0,0,-1,1077,757,0,0
-140,267,0,0,0,0,0,0,0,0,0,-1,1084,757,0,0
-133,267,0,0,0,0,0,0,0,0,0,-1,1091,757,0,0
-126,267,0,0,0,0,0,0,0,0,0,-1,1098,757,0,0
-119,267,0,0,0,0,0,0,0,0,0,-1,1105,757,0,0
-112,267,0,0,0,0,0,0,0,0,0,-1,1112,757,0,0
-105,267,0,0,0,0,0,0,0,0,0,-1,1119,757,0,0
-98,267,0,0,0,0,0,0,0,0,0,-1,1126,757,0,0
-91,267,0,0,0,0,0,0,0,0,0,-1,1133,757,0,0
-84,267,0,0,0,0,0,0,0,0,0,-1,1140,757,0,0
-77,267,0,0,0,0,0,0,0,0,0,-1,1147,757,0,0
-70,267,0,0,0,0,0,0,0,0,0,-1,1154,757,0,0
-63,267,0,0,0,0,0,0,0,0,0,-1,1161,757,0,0
-56,267,0,0,0,0,0,0,0,0,0,-1,1168,757,0,0
-49,267,0,0,0,0,0,0,0,0,0,-1,1175,757,0,0
-42,267,0,0,0,0,0,0,0,0,0,-1,1182,757,0,0
-35,267,0,0,0,0,0,0,0,0,0,-1,1189,757,0,0
-28,267,0,0,0,0,0,0,0,0,0,-1,1196,757,0,0
-21,267,0,0,0,0,0,0,0,0,0,-1,1203,757,0,0
-14,267,0,0,0,0,0,0,0,0,0,-1,1210,757,0,0
-7,267,0,0,0,0,0,0,0,0,0,-1,1217,757,0,0
0,267,0,0,0,0,0,0,0,0,0,-1,1224,757,0,0
7,267,0,0,0,0,0,0,0,0,0,-1,1231,757,0,0
14,267,0,0,0,0,0,0,0,0,0,-1,1238,757,0,0
21,267,0,0,0,0,0,0,0,0,0,-1,1245,757,0,0
28,267,0,0,0,0,0,0,0,0,0,-1,1252,757,0,0
35,267,0,0,0,0,0,0,0,0,0,-1,1259,757,0,0
42,267,0,0,0,0,0,0,0,0,0,-1,1266,757,0,0
49,267,0,0,0,0,0,0,0,0,0,-1,1273,757,0,0
56,267,0,0,0,0,0,0,0,0,0,-1,1280,757,0,0
63,267,0,0,0,0,0,0,0,0,0,-1,1287,757,0,0
70,267,0,0,0,0,0,0,0,0,0,-1,1294,757,0,0
77,267,0,0,0,0,0,0,0,0,0,-1,1301,757,0,0
84,267,0,0,0,0,0,0,0,0,0,-1,1308,757,0,0
91,267,0,0,0,0,0,0,0,0,0,-1,1315,757,0,0
98,267,0,0,0,0,0,0,0,0,0,-1,1322,757,0,0
105,267,0,0,0,0,0,0,0,0,0,-1,1329,757,0,0
112,267,0,0,0,0,0,0,0,0,0,-1,1336,757,0,0
119,267,0,0,0,0,0,0,0,0,0,-1,1343,757,0,0
126,267,0,0,0,0,0,0,0,0,0,-1,1350,757,0,0
133,267,0,0,0,0,0,0,0,0,0,-1,1357,757,0,0
140,267,0,0,0,0,0,0,0,0,0,-1,1364,757,0,0
147,267,0,0,0,0,0,0,0,0,0,-1,1371,757,0,0
154,267,0,0,0,0,0,0,0,0,0,-1,1378,757,0,0
161,267,0,0,0,0,0,0,0,0,0,-1,1385,757,0,0
168,267,0,0,0,0,0,0,0,0,0,-1,1392,757,0,0
175,267,0,0,0,0,0,0,0,0,0,-1,1399,757,0,0
182,267,0,0,0,0,0,0,0,0,0,-1,1406,757,0,0
189,267,0,0,0,0,0,0,0,0,0,-1,1413,757,0,0
196,267,0,0,0,0,0,0,0,0,0,-1,1420,757,0,0
203,267,0,0,0,0,0,0,0,0,0,-1,1427,757,0,0
210,267,0,0,0,0,0,0,0,0,0,-1,1434,757,0,0
217,267,0,0,0,0,0,0,0,0,0,-1,1441,757,0,0
224,267,0,0,0,0,0,0,0,0,0,-1,1448,757,0,0
231,267,0,0,0,0,0,0,0,0,0,-1,1455,757,0,0
238,267,0,0,0,0,0,0,0,0,0,-1,1462,757,0,0
245,267,0,0,0,0,0,0,0,0,0,-1,1469,757,0,0
252,267,0,0,0,0,0,0,0,0,0,-1,1476,757,0,0
259,267,0,0,0,0,0,0,0,0,0,-1,1483,757,0,0
266,267,0,0,0,0,0,0,0,0,0,-1,1490,757,0,0
273,267,0,0,0,0,0,0,0,0,0,-1,1497,757,0,0
280,267,0,0,0,0,0,0,0,0,0,-1,1504,757,0,0
287,267,0,0,0,0,0,0,0,0,0,-1,1511,757,0,0
294,267,0,0,0,0,0,0,0,0,0,-1,1518,757,0,0
301,267,0,0,0,0,0,0,0,0,0,-1,1525,757,0,0
308,267,0,0,0,0,0,0,0,0,0,-1,1532,757,0,0
315,267,0,0,0,0,0,0,0,0,0,-1,1539,757,0,0
322,267,0,0,0,0,0,0,0,0,0,-1,1546,757,0,0
329,267,0,0,0,0,0,0,0,0,0,-1,1553,757,0,0
336,267,0,0,0,0,0,0,0,0,0,-1,1560,757,0,0
343,267,0,0,0,0,0,0,0,0,0,-1,1567,757,0,0
350,267,0,0,0,0,0,0,0,0,0,-1,1574,757,0,0
357,267,0,0,0,0,0,0,0,0,0,-1,1581,757,0,0
364,267,0,0,0,0,0,0,0,0,0,-1,1588,757,0,0
371,267,0,0,0,0,0,0,0,0,0,-1,1595,757,0,0
378,267,0,0,0,0,0,0,0,0,0,-1,1602,757,0,0
385,267,0,0,0,0,0,0,0,0,0,-1,1609,757,0,0
392,267,0,0,0,0,0,0,0,0,0,-1,1616,757,0,0
399,267,0,0,0,0,0,0,0,0,0,-1,1623,757,0,0
406,267,0,0,0,0,0,0,0,0,0,-1,1630,757,0,0
413,267,0,0,0,0,0,0,0,0,0,-1,1637,757,0,0
420,267,0,0,0,0,0,0,0,0,0,-1,1644,757,0,0
427,267,0,0,0,0,0,0,0,0,0,-1,1651,757,0,0
434,267,0,0,0,0,0,0,0,0,0,-1,1658,757,0,0
441,267,0,0,0,0,0,0,0,0,0,-1,1665,757,0,0
448,267,0,0,0,0,0,0,0,0,0,-1,1672,757,0,0
455,267,0,0,0,0,0,0,0,0,0,-1,1679,757,0,0
462,267,0,0,0,0,0,0,0,0,0,-1,1686,757,0,0
469,267,0,0,0,0,0,0,0,0,0,-1,1693,757,0,0
476,267,0,0,0,0,0,0,0,0,0,-1,1700,757,0,0
483,267,0,0,0,0,0,0,0,0,0,-1,1707,757,0,0
490,267,0,0,0,0,0,0,0,0,0,-1,1714,757,0,0
497,267,0,0,0,0,0,0,0,0,0,-1,1721,757,0,0
504,267,0,0,0,0,0,0,0,0,0,-1,1728,757,0,0
511,267,0,0,0,0,0,0,0,0,0,-1,1735,757,0,0
518,267,0,0,0,0,0,0,0,0,0,-1,1742,757,0,0
525,267,0,0,0,0,0,0,0,0,0,-1,1749,757,0,0
532,267,0,0,0,0,0,0,0,0,0,-1,1756,757,0,0
539,267,0,0,0,0,0,0,0,0,0,-1,1763,757,0,0
546,267,0,0,0,0,0,0,0,0,0,-1,1770,757,0,0
553,267,0,0,0,0,0,0,0,0,0,-1,1777,757,0,0
560,267,0,0,0,0,0,0,0,0,0,-1,1784,757,0,0
567,267,58.0104,3.24304,0,0,0,0,0,0,0,-1,1791,757,58.0104,-3.24306
574,267,64.5414,2.91858,0,0,0,0,0,0,0,-1,1798,757,64.5414,-2.91855
581,267,58.374,2.95636,0,0,0,0,0,0,0,-1,1805,757,58.3741,-2.95639
588,267,65.9681,2.6438,0,0,0,0,0,0,0,-1,1812,757,65.9682,-2.64382
595,267,66.191,2.60791,0,0,0,0,0,0,0,-1,1819,757,66.191,-2.60792
602,267,66.4139,2.57202,0,0,0,0,0,0,0,-1,1826,757,66.4139,-2.57203
609,267,54.5498,3.24054,0,0,0,0,0,0,0,-1,1833,757,54.5498,-3.24052
616,267,44.2543,3.28918,0,0,0,0,0,0,0,-1,1840,757,44.2542,-3.28918
623,267,24.1475,-1.1391,0,0,0,0,0,0,0,-1,1847,757,24.1475,1.13913
630,267,40.7198,-5.42108,0,0,0,0,0,0,0,-1,1854,757,40.7198,5.4211
637,267,49.9325,-7.46497,0,0,0,0,0,0,0,-1,1861,757,49.9325,7.46494
644,267,50.033,-6.6767,0.00263128,-0.00119323,0.000192533,0.00264095,-0.0012029,0.0501728,0.00227043,0.0245338,1868,757,50.0329,6.67672
651,267,49.9865,-5.6098,0.00171666,-0.000536271,0.000357054,0.0017719,-0.000591505,0.153475,0.00142011,0.0177332,1875,757,49.9865,5.60981
658,267,49.9662,-4.67975,0.00139734,-0.000114947,0.000454427,0.00152339,-0.000240992,0.270569,0.00110472,0.0152407,1882,757,49.9662,4.67972
665,267,49.9225,-3.75366,0.00126337,0.000372253,0.000404721,0.00141974,0.00021588,0.368705,0.00088337,0.0156858,1889,757,49.9225,3.75365
672,267,49.8925,-2.83405,0.00116374,0.000715118,0.00036433,0.00136728,0.000511585,0.509461,0.000797688,0.0140346,1896,757,49.8924,2.83407
679,267,49.8286,-1.90631,0.00112106,0.00121088,0.00040912,0.00157755,0.000754392,0.840065,0.000911085,0.0133451,1903,757,49.8286,1.90633
686,267,49.7437,-0.968567,0.00114678,0.00178991,0.000481035,0.00204696,0.000889728,1.08003,0.00118517,0.0184289,1910,757,49.7437,0.968594
693,267,49.6312,-0.0585938,0.0013062,0.00243619,0.000607248,0.00270064,0.00104175,1.16008,0.00157272,0.0176663,1917,757,49.6312,0.0585776
700,267,49.5687,0.878845,0.00166703,0.00323128,0.000840987,0.00359762,0.00130068,1.15997,0.00210347,0.0164317,1924,757,49.5688,-0.878864
707,267,49.5411,1.80682,0.00206823,0.00404558,0.00101393,0.00447307,0.00164073,1.17179,0.0026129,0.0247515,1931,757,49.5411,-1.80679
714,267,49.5172,2.82361,0,0,0,0,0,0,0,-1,1938,757,49.5172,-2.82361
721,267,47.0829,3.73804,0,0,0,0,0,0,0,-1,1945,757,47.0828,-3.73803
728,267,26.7886,3.90027,0,0,0,0,0,0,0,-1,1952,757,26.7886,-3.90028
735,267,24.6713,2.82483,0,0,0,0,0,0,0,-1,1959,757,24.6713,-2.82483
742,267,18.1177,3.56561,0,0,0,0,0,0,0,-1,1966,757,18.1176,-3.56564
749,267,0,0,0,0,0,0,0,0,0,-1,1973,757,0,0
756,267,0,0,0,0,0,0,0,0,0,-1,1980,757,0,0
763,267,0,0,0,0,0,0,0,0,0,-1,1987,757,0,0
770,267,0,0,0,0,0,0,0,0,0,-1,1994,757,0,0
777,267,0,0,0,0,0,0,0,0,0,-1,2001,757,0,0
784,267,0,0,0,0,0,0,0,0,0,-1,2008,757,0,0
791,267,0,0,0,0,0,0,0,0,0,-1,2015,757,0,0
798,267,0,0,0,0,0,0,0,0,0,-1,2022,757,0,0
805,267,0,0,0,0,0,0,0,0,0,-1,2029,757,0,0
812,267,0,0,0,0,0,0,0,0,0,-1,2036,757,0,0
-700,260,0,0,0,0,0,0,0,0,0,-1,524,764,0,0
-693,260,0,0,0,0,0,0,0,0,0,-1,531,764,0,0
-686,260,0,0,0,0,0,0,0,0,0,-1,538,764,0,0
-679,260,0,0,0,0,0,0,0,0,0,-1,545,764,0,0
-672,260,0,0,0,0,0,0,0,0,0,-1,552,764,0,0
-665,260,0,0,0,0,0,0,0,0,0,-1,559,764,0,0
-658,260,0,0,0,0,0,0,0,0,0,-1,566,764,0,0
-651,260,0,0,0,0,0,0,0,0,0,-1,573,764,0,0
-644,260,0,0,0,0,0,0,0,0,0,-1,580,764,0,0
-637,260,0,0,0,0,0,0,0,0,0,-1,587,764,0,0
-630,260,-21.8905,4.49341,0,0,0,0,0,0,0,-1,594,764,-21.8905,-4.49342
-623,260,-20.3127,3.53546,0,0,0,0,0,0,0,-1,601,764,-20.3127,-3.53544
-616,260,-23.4346,3.65009,0,0,0,0,0,0,0,-1,608,764,-23.4345,-3.65008
-609,260,-27.8874,4.42004,0,0,0,0,0,0,0,-1,615,764,-27.8874,-4.42005
-602,260,-32.8671,3.61243,0,0,0,0,0,0,0,-1,622,764,-32.867,-3.61241
-595,260,-35.0158,3.69556,0,0,0,0,0,0,0,-1,629,764,-35.0158,-3.69558
-588,260,-35.2898,2.55389,0,0,0,0,0,0,0,-1,636,764,-35.2898,-2.55389
-581,260,-34.8846,1.34241,-0.00520389,0.00584076,-0.00599402,0.00846854,-0.00783168,-1.15763,0.00941333,0.0327838,643,764,-34.8846,-1.34242
-574,260,-34.9061,0.457703,-0.00336279,0.00446956,-0.00372885,0.00596086,-0.00485409,-1.19035,0.0062549,0.0209703,650,764,-34.9061,-0.457699
-567,260,-34.9662,-0.408386,-0.00223955,0.00319561,-0.00202791,0.00386885,-0.00291279,-1.25026,0.00392833,0.0193389,657,764,-34.9663,0.408389
-560,260,-35.0419,-1.32465,-0.00178096,0.00220813,-0.000845856,0.00238007,-0.00195291,-1.37025,0.0025057,0.0223876,664,764,-35.042,1.32463
-553,260,-35.0997,-2.29333,-0.00174647,0.00149458,-5.97066e-06,0.0014946,-0.00174649,-1.56895,0.00187312,0.0194153,671,764,-35.0997,2.29331
-546,260,-35.1558,-3.25684,-0.00207093,0.000839907,0.00066136,0.000983126,-0.00221415,1.35754,0.001891,0.0131679,678,764,-35.1558,3.25684
-539,260,-35.1696,-4.18494,-0.00270976,0.000273511,0.00122352,0.000711119,-0.00314737,1.22731,0.0023711,0.014965,685,764,-35.1696,4.18495
-532,260,-35.1851,-5.05389,-0.00374796,-4.8828e-05,0.00151393,0.000491768,-0.00428855,1.22783,0.00303626,0.0196167,692,764,-35.1851,5.05388
-525,260,-35.3167,-5.95441,-0.00501525,-8.11129e-05,0.00170636,0.000451498,-0.00554786,1.26825,0.00385789,0.0194921,699,764,-35.3167,5.9544
-518,260,-35.5743,-6.9054,-0.00650754,-8.08099e-05,0.00189978,0.000438769,-0.00702712,1.30383,0.00483764,0.0297881,706,764,-35.5743,6.90538
-511,260,-35.4159,-7.91461,0,0,0,0,0,0,0,-1,713,764,-35.4159,7.91461
-504,260,-34.7117,-8.67163,0,0,0,0,0,0,0,-1,720,764,-34.7117,8.6716
-497,260,-16.6542,-3.67334,0,0,0,0,0,0,0,-1,727,764,-16.6542,3.67331
-490,260,-29.4557,0.921387,0,0,0,0,0,0,0,-1,734,764,-29.4557,-0.921369
-483,260,-40.8972,1.04193,0,0,0,0,0,0,0,-1,741,764,-40.8972,-1.04193
-476,260,-53.8282,0.00378418,0,0,0,0,0,0,0,-1,748,764,-53.8283,-0.00378825
-469,260,-59.9272,0.081604,0,0,0,0,0,0,0,-1,755,764,-59.9272,-0.0816007
-462,260,-58.0533,0.0831299,0,0,0,0,0,0,0,-1,762,764,-58.0533,-0.0831578
-455,260,-58.0157,0.299377,0,0,0,0,0,0,0,-1,769,764,-58.0157,-0.299348
-448,260,0,0,0,0,0,0,0,0,0,-1,776,764,0,0
-441,260,0,0,0,0,0,0,0,0,0,-1,783,764,0,0
-434,260,0,0,0,0,0,0,0,0,0,-1,790,764,0,0
-427,260,0,0,0,0,0,0,0,0,0,-1,797,764,0,0
-420,260,0,0,0,0,0,0,0,0,0,-1,804,764,0,0
-413,260,0,0,0,0,0,0,0,0,0,-1,811,764,0,0
-406,260,0,0,0,0,0,0,0,0,0,-1,818,764,0,0
-399,260,0,0,0,0,0,0,0,0,0,-1,825,764,0,0
-392,260,0,0,0,0,0,0,0,0,0,-1,832,764,0,0
-385,260,0,0,0,0,0,0,0,0,0,-1,839,764,0,0
-378,260,0,0,0,0,0,0,0,0,0,-1,846,764,0,0
-371,260,0,0,0,0,0,0,0,0,0,-1,853,764,0,0
-364,260,0,0,0,0,0,0,0,0,0,-1,860,764,0,0
-357,260,0,0,0,0,0,0,0,0,0,-1,867,764,0,0
-350,260,0,0,0,0,0,0,0,0,0,-1,874,764,0,0
-343,260,0,0,0,0,0,0,0,0,0,-1,881,764,0,0
-336,260,0,0,0,0,0,0,0,0,0,-1,888,764,0,0
-329,260,0,0,0,0,0,0,0,0,0,-1,895,764,0,0
-322,260,0,0,0,0,0,0,0,0,0,-1,902,764,0,0
-315,260,0,0,0,0,0,0,0,0,0,-1,909,764,0,0
-308,260,0,0,0,0,0,0,0,0,0,-1,916,764,0,0
-301,260,0,0,0,0,0,0,0,0,0,-1,923,764,0,0
-294,260,0,0,0,0,0,0,0,0,0,-1,930,764,0,0
-287,260,0,0,0,0,0,0,0,0,0,-1,937,764,0,0
-280,260,0,0,0,0,0,0,0,0,0,-1,944,764,0,0
-273,260,0,0,0,0,0,0,0,0,0,-1,951,764,0,0
-266,260,0,0,0,0,0,0,0,0,0,-1,958,764,0,0
-259,260,0,0,0,0,0,0,0,0,0,-1,965,764,0,0
-252,260,0,0,0,0,0,0,0,0,0,-1,972,764,0,0
-245,260,0,0,0,0,0,0,0,0,0,-1,979,764,0,0
-238,260,0,0,0,0,0,0,0,0,0,-1,986,764,0,0
-231,260,0,0,0,0,0,0,0,0,0,-1,993,764,0,0
-224,260,0,0,0,0,0,0,0,0,0,-1,1000,764,0,0
-217,260,0,0,0,0,0,0,0,0,0,-1,1007,764,0,0
-210,260,0,0,0,0,0,0,0,0,0,-1,1014,764,0,0
-203,260,0,0,0,0,0,0,0,0,0,-1,1021,764,0,0
-196,260,0,0,0,0,0,0,0,0,0,-1,1028,764,0,0
-189,260,0,0,0,0,0,0,0,0,0,-1,1035,764,0,0
-182,260,0,0,0,0,0,0,0,0,0,-1,1042,764,0,0
-175,260,0,0,0,0,0,0,0,0,0,-1,1049,764,0,0
-168,260,0,0,0,0,0,0,0,0,0,-1,1056,764,0,0
-161,260,0,0,0,0,0,0,0,0,0,-1,1063,764,0,0
-154,260,0,0,0,0,0,0,0,0,0,-1,1070,764,0,0
-147,260,0,0,0,0,0,0,0,0,0,-1,1077,764,0,0
-140,260,0,0,0,0,0,0,0,0,0,-1,1084,764,0,0
-133,260,0,0,0,0,0,0,0,0,0,-1,1091,764,0,0
-126,260,0,0,0,0,0,0,0,0,0,-1,1098,764,0,0
-119,260,0,0,0,0,0,0,0,0,0,-1,1105,764,0,0
-112,260,0,0,0,0,0,0,0,0,0,-1,1112,764,0,0
-105,260,0,0,0,0,0,0,0,0,0,-1,1119,764,0,0
-98,260,0,0,0,0,0,0,0,0,0,-1,1126,764,0,0
-91,260,0,0,0,0,0,0,0,0,0,-1,1133,764,0,0
-84,260,0,0,0,0,0,0,0,0,0,-1,1140,764,0,0
-77,260,0,0,0,0,0,0,0,0,0,-1,1147,764,0,0
-70,260,0,0,0,0,0,0,0,0,0,-1,1154,764,0,0
-63,260,0,0,0,0,0,0,0,0,0,-1,1161,764,0,0
-56,260,0,0,0,0,0,0,0,0,0,-1,1168,764,0,0
-49,260,0,0,0,0,0,0,0,0,0,-1,1175,764,0,0
-42,260,0,0,0,0,0,0,0,0,0,-1,1182,764,0,0
-35,260,0,0,0,0,0,0,0,0,0,-1,1189,764,0,0
-28,260,0,0,0,0,0,0,0,0,0,-1,1196,764,0,0
-21,260,0,0,0,0,0,0,0,0,0,-1,1203,764,0,0
-14,260,0,0,0,0,0,0,0,0,0,-1,1210,764,0,0
-7,260,0,0,0,0,0,0,0,0,0,-1,1217,764,0,0
0,260,0,0,0,0,0,0,0,0,0,-1,1224,764,0,0
7,260,0,0,0,0,0,0,0,0,0,-1,1231,764,0,0
14,260,0,0,0,0,0,0,0,0,0,-1,1238,764,0,0
21,260,0,0,0,0,0,0,0,0,0,-1,1245,764,0,0
28,260,0,0,0,0,0,0,0,0,0,-1,1252,764,0,0
35,260,0,0,0,0,0,0,0,0,0,-1,1259,764,0,0
42,260,0,0,0,0,0,0,0,0,0,-1,1266,764,0,0
49,260,0,0,0,0,0,0,0,0,0,-1,1273,764,0,0
56,260,0,0,0,0,0,0,0,0,0,-1,1280,764,0,0
63,260,0,0,0,0,0,0,0,0,0,-1,1287,764,0,0
70,260,0,0,0,0,0,0,0,0,0,-1,1294,764,0,0
77,260,0,0,0,0,0,0,0,0,0,-1,1301,764,0,0
84,260,0,0,0,0,0,0,0,0,0,-1,1308,764,0,0
91,260,0,0,0,0,0,0,0,0,0,-1,1315,764,0,0
98,260,0,0,0,0,0,0,0,0,0,-1,1322,764,0,0
105,260,0,0,0,0,0,0,0,0,0,-1,1329,764,0,0
112,260,0,0,0,0,0,0,0,0,0,-1,1336,764,0,0
119,260,0,0,0,0,0,0,0,0,0,-1,1343,764,0,0
126,260,0,0,0,0,0,0,0,0,0,-1,1350,764,0,0
133,260,0,0,0,0,0,0,0,0,0,-1,1357,764,0,0
140,260,0,0,0,0,0,0,0,0,0,-1,1364,764,0,0
147,260,0,0,0,0,0,0,0,0,0,-1,1371,764,0,0
154,260,0,0,0,0,0,0,0,0,0,-1,1378,764,0,0
161,260,0,0,0,0,0,0,0,0,0,-1,1385,764,0,0
168,260,0,0,0,0,0,0,0,0,0,-1,1392,764,0,0
175,260,0,0,0,0,0,0,0,0,0,-1,1399,764,0,0
182,260,0,0,0,0,0,0,0,0,0,-1,1406,764,0,0
189,260,0,0,0,0,0,0,0,0,0,-1,1413,764,0,0
196,260,0,0,0,0,0,0,0,0,0,-1,1420,764,0,0
203,260,0,0,0,0,0,0,0,0,0,-1,1427,764,0,0
210,260,0,0,0,0,0,0,0,0,0,-1,1434,764,0,0
217,260,0,0,0,0,0,0,0,0,0,-1,1441,764,0,0
224,260,0,0,0,0,0,0,0,0,0,-1,1448,764,0,0
231,260,0,0,0,0,0,0,0,0,0,-1,1455,764,0,0
238,260,0,0,0,0,0,0,0,0,0,-1,1462,764,0,0
245,260,0,0,0,0,0,0,0,0,0,-1,1469,764,0,0
252,260,0,0,0,0,0,0,0,0,0,-1,1476,764,0,0
259,260,0,0,0,0,0,0,0,0,0,-1,1483,764,0,0
266,260,0,0,0,0,0,0,0,0,0,-1,1490,764,0,0
273,260,0,0,0,0,0,0,0,0,0,-1,1497,764,0,0
280,260,0,0,0,0,0,0,0,0,0,-1,1504,764,0,0
287,260,0,0,0,0,0,0,0,0,0,-1,1511,764,0,0
294,260,0,0,0,0,0,0,0,0,0,-1,1518,764,0,0
301,260,0,0,0,0,0,0,0,0,0,-1,1525,764,0,0
308,260,0,0,0,0,0,0,0,0,0,-1,1532,764,0,0
315,260,0,0,0,0,0,0,0,0,0,-1,1539,764,0,0
322,260,0,0,0,0,0,0,0,0,0,-1,1546,764,0,0
329,260,0,0,0,0,0,0,0,0,0,-1,1553,764,0,0
336,260,0,0,0,0,0,0,0,0,0,-1,1560,764,0,0
343,260,0,0,0,0,0,0,0,0,0,-1,1567,764,0,0
350,260,0,0,0,0,0,0,0,0,0,-1,1574,764,0,0
357,260,0,0,0,0,0,0,0,0,0,-1,1581,764,0,0
364,260,0,0,0,0,0,0,0,0,0,-1,1588,764,0,0
371,260,0,0,0,0,0,0,0,0,0,-1,1595,764,0,0
378,260,0,0,0,0,0,0,0,0,0,-1,1602,764,0,0
385,260,0,0,0,0,0,0,0,0,0,-1,1609,764,0,0
392,260,0,0,0,0,0,0,0,0,0,-1,1616,764,0,0
399,260,0,0,0,0,0,0,0,0,0,-1,1623,764,0,0
406,260,0,0,0,0,0,0,0,0,0,-1,1630,764,0,0
413,260,0,0,0,0,0,0,0,0,0,-1,1637,764,0,0
420,260,0,0,0,0,0,0,0,0,0,-1,1644,764,0,0
427,260,0,0,0,0,0,0,0,0,0,-1,1651,764,0,0
434,260,0,0,0,0,0,0,0,0,0,-1,1658,764,0,0
441,260,0,0,0,0,0,0,0,0,0,-1,1665,764,0,0
448,260,0,0,0,0,0,0,0,0,0,-1,1672,764,0,0
455,260,0,0,0,0,0,0,0,0,0,-1,1679,764,0,0
462,260,0,0,0,0,0,0,0,0,0,-1,1686,764,0,0
469,260,0,0,0,0,0,0,0,0,0,-1,1693,764,0,0
476,260,0,0,0,0,0,0,0,0,0,-1,1700,764,0,0
483,260,0,0,0,0,0,0,0,0,0,-1,1707,764,0,0
490,260,0,0,0,0,0,0,0,0,0,-1,1714,764,0,0
497,260,0,0,0,0,0,0,0,0,0,-1,1721,764,0,0
504,260,0,0,0,0,0,0,0,0,0,-1,1728,764,0,0
511,260,0,0,0,0,0,0,0,0,0,-1,1735,764,0,0
518,260,0,0,0,0,0,0,0,0,0,-1,1742,764,0,0
525,260,0,0,0,0,0,0,0,0,0,-1,1749,764,0,0
532,260,0,0,0,0,0,0,0,0,0,-1,1756,764,0,0
539,260,0,0,0,0,0,0,0,0,0,-1,1763,764,0,0
546,260,0,0,0,0,0,0,0,0,0,-1,1770,764,0,0
553,260,0,0,0,0,0,0,0,0,0,-1,1777,764,0,0
560,260,0,0,0,0,0,0,0,0,0,-1,1784,764,0,0
567,260,0,0,0,0,0,0,0,0,0,-1,1791,764,0,0
574,260,75.9293,2.46222,0,0,0,0,0,0,0,-1,1798,764,75.9293,-2.46221
581,260,75.6823,2.67383,0,0,0,0,0,0,0,-1,1805,764,75.6823,-2.67382
588,260,70.8303,2.6853,0,0,0,0,0,0,0,-1,1812,764,70.8304,-2.6853
595,260,66.1678,2.56989,0,0,0,0,0,0,0,-1,1819,764,66.1678,-2.56989
602,260,65.9274,2.69824,0,0,0,0,0,0,0,-1,1826,764,65.9274,-2.69825
609,260,65.4674,3.08105,0,0,0,0,0,0,0,-1,1833,764,65.4673,-3.08107
616,260,46.0709,2.74542,0,0,0,0,0,0,0,-1,1840,764,46.0709,-2.74545
623,260,32.2268,3.25836,0,0,0,0,0,0,0,-1,1847,764,32.2268,-3.25833
630,260,24.3739,-0.536316,0,0,0,0,0,0,0,-1,1854,764,24.3739,0.536343
637,260,42.7155,-5.35486,0,0,0,0,0,0,0,-1,1861,764,42.7154,5.35488
644,260,51.0104,-6.74554,0,0,0,0,0,0,0,-1,1868,764,51.0104,6.74553
651,260,51.1658,-5.50696,0.00146372,-0.000539792,0.000128461,0.00147192,-0.000547995,0.06377,0.00120618,0.0288124,1875,764,51.1657,5.50695
658,260,50.9531,-4.54156,0.00125966,-0.000172869,0.000290131,0.00131619,-0.000229399,0.192431,0.000963075,0.0178788,1882,764,50.9532,4.54155
665,260,50.8484,-3.66321,0.00124751,0.000296235,0.000263344,0.00131555,0.000228198,0.252827,0.000811728,0.015867,1889,764,50.8483,3.6632
672,260,50.7921,-2.75092,0.00119051,0.000531184,0.00021003,0.00125173,0.000469963,0.28363,0.000730121,0.013778,1896,764,50.7921,2.75093
679,260,50.712,-1.82886,0.00111807,0.000876278,0.000209973,0.00123946,0.000754883,0.524194,0.000721254,0.0128536,1903,764,50.712,1.82888
686,260,50.6227,-0.89679,0.00110716,0.00134357,0.000245844,0.00149815,0.000952581,1.00949,0.000875532,0.023012,1910,764,50.6226,0.896787
693,260,50.5132,-0.0116577,0.00119534,0.0018627,0.000295077,0.00197446,0.00108359,1.20876,0.00114176,0.0230731,1917,764,50.5132,0.0116671
700,260,50.4456,0.908264,0.00148369,0.00251166,0.000434242,0.00267054,0.00132481,1.22005,0.00154185,0.0178923,1924,764,50.4456,-0.908289
707,260,50.4731,1.83282,0.00186046,0.00321599,0.000573047,0.00342578,0.00165067,1.21986,0.00197831,0.0194683,1931,764,50.4732,-1.83283
714,260,50.4395,2.69464,0.00224636,0.00388498,0.000769857,0.00418993,0.00194141,1.19365,0.00242122,0.0405787,1938,764,50.4395,-2.69463
721,260,50.3931,3.55554,0,0,0,0,0,0,0,-1,1945,764,50.3931,-3.55552
728,260,33.4344,5.75409,0,0,0,0,0,0,0,-1,1952,764,33.4345,-5.75408
735,260,26.9788,4.85681,0,0,0,0,0,0,0,-1,1959,764,26.9787,-4.85678
742,260,32.1443,1.73688,0,0,0,0,0,0,0,-1,1966,764,32.1442,-1.73688
749,260,33.6013,2.94733,0,0,0,0,0,0,0,-1,1973,764,33.6013,-2.9473
756,260,0,0,0,0,0,0,0,0,0,-1,1980,764,0,0
763,260,0,0,0,0,0,0,0,0,0,-1,1987,764,0,0
770,260,0,0,0,0,0,0,0,0,0,-1,1994,764,0,0
777,260,0,0,0,0,0,0,0,0,0,-1,2001,764,0,0
784,260,0,0,0,0,0,0,0,0,0,-1,2008,764,0,0
791,260,0,0,0,0,0,0,0,0,0,-1,2015,764,0,0
798,260,0,0,0,0,0,0,0,0,0,-1,2022,764,0,0
805,260,0,0,0,0,0,0,0,0,0,-1,2029,764,0,0
812,260,0,0,0,0,0,0,0,0,0,-1,2036,764,0,0
-700,253,0,0,0,0,0,0,0,0,0,-1,524,771,0,0
-693,253,0,0,0,0,0,0,0,0,0,-1,531,771,0,0
-686,253,0,0,0,0,0,0,0,0,0,-1,538,771,0,0
-679,253,0,0,0,0,0,0,0,0,0,-1,545,771,0,0
-672,253,0,0,0,0,0,0,0,0,0,-1,552,771,0,0
-665,253,0,0,0,0,0,0,0,0,0,-1,559,771,0,0
-658,253,0,0,0,0,0,0,0,0,0,-1,566,771,0,0
-651,253,0,0,0,0,0,0,0,0,0,-1,573,771,0,0
-644,253,0,0,0,0,0,0,0,0,0,-1,580,771,0,0
-637,253,-24.7979,-0.491394,0,0,0,0,0,0,0,-1,587,771,-24.7978,0.491371
-630,253,-25.156,0.540405,0,0,0,0,0,0,0,-1,594,771,-25.156,-0.540421
-623,253,-20.808,2.84314,0,0,0,0,0,0,0,-1,601,771,-20.8081,-2.84312
-616,253,-25.0877,2.96875,0,0,0,0,0,0,0,-1,608,771,-25.0877,-2.96876
-609,253,-24.28,2.08228,0,0,0,0,0,0,0,-1,615,771,-24.2801,-2.08227
-602,253,-35.1644,5.40277,0,0,0,0,0,0,0,-1,622,771,-35.1644,-5.40274
-595,253,-35.5679,3.85553,0,0,0,0,0,0,0,-1,629,771,-35.5679,-3.85552
-588,253,-35.9715,2.30829,0,0,0,0,0,0,0,-1,636,771,-35.9715,-2.3083
-581,253,-35.78,1.35413,-0.0052272,0.00492625,-0.00542376,0.00727855,-0.00757949,-1.16158,0.00857888,0.0283018,643,771,-35.78,-1.35412
-574,253,-35.8412,0.467346,-0.00345299,0.00377944,-0.00338225,0.00511465,-0.0047882,-1.19481,0.00571845,0.0222324,650,771,-35.8412,-0.467344
-567,253,-35.9197,-0.486633,-0.00238705,0.0027443,-0.00181132,0.00331926,-0.002962,-1.26343,0.00362844,0.0177389,657,771,-35.9197,0.48666
-560,253,-35.9296,-1.30603,-0.00191968,0.00193379,-0.000680785,0.00205053,-0.00203642,-1.40097,0.00235961,0.0146956,664,771,-35.9296,1.30603
-553,253,-36.0033,-2.22095,-0.0019087,0.00138116,0.000147451,0.00138775,-0.00191529,1.5261,0.00191511,0.0140043,671,771,-36.0033,2.22094
-546,253,-36.0861,-3.16742,-0.00228,0.000845823,0.000824419,0.00104993,-0.0024841,1.3281,0.00209563,0.0125771,678,771,-36.0861,3.16745
-539,253,-36.1592,-4.09912,-0.00306979,0.000422844,0.00132066,0.000865996,-0.00351294,1.24705,0.00267772,0.0146323,685,771,-36.1592,4.0991
-532,253,-36.176,-5.00055,-0.00428527,0.000158513,0.00155735,0.000649949,-0.00477671,1.26513,0.00342176,0.0208949,692,771,-36.176,5.00054
-525,253,-36.2681,-5.87592,-0.00572525,0.000346315,0.0017452,0.000812204,-0.00619113,1.30993,0.00442308,0.0298246,699,771,-36.2681,5.87589
-518,253,-36.5042,-6.9317,-0.00745548,0.000485777,0.00192382,0.000927286,-0.00789699,1.34521,0.00559941,0.0469706,706,771,-36.5041,6.93168
-511,253,-36.9741,-7.95148,0,0,0,0,0,0,0,-1,713,771,-36.9741,7.95146
-504,253,-19.317,-4.1723,0,0,0,0,0,0,0,-1,720,771,-19.317,4.1723
-497,253,-21.7737,-1.76837,0,0,0,0,0,0,0,-1,727,771,-21.7738,1.7684
-490,253,-29.7674,0.438354,0,0,0,0,0,0,0,-1,734,771,-29.7674,-0.438339
-483,253,-45.4489,1.59302,0,0,0,0,0,0,0,-1,741,771,-45.4489,-1.59303
-476,253,-59.5293,0.400208,0,0,0,0,0,0,0,-1,748,771,-59.5293,-0.40018
-469,253,-59.7595,0.221741,0,0,0,0,0,0,0,-1,755,771,-59.7595,-0.221751
-462,253,-59.9898,0.043335,0,0,0,0,0,0,0,-1,762,771,-59.9898,-0.043322
-455,253,-57.998,0.343689,0,0,0,0,0,0,0,-1,769,771,-57.9981,-0.343679
-448,253,0,0,0,0,0,0,0,0,0,-1,776,771,0,0
-441,253,0,0,0,0,0,0,0,0,0,-1,783,771,0,0
-434,253,0,0,0,0,0,0,0,0,0,-1,790,771,0,0
-427,253,0,0,0,0,0,0,0,0,0,-1,797,771,0,0
-420,253,0,0,0,0,0,0,0,0,0,-1,804,771,0,0
-413,253,0,0,0,0,0,0,0,0,0,-1,811,771,0,0
-406,253,0,0,0,0,0,0,0,0,0,-1,818,771,0,0
-399,253,0,0,0,0,0,0,0,0,0,-1,825,771,0,0
-392,253,0,0,0,0,0,0,0,0,0,-1,832,771,0,0
-385,253,0,0,0,0,0,0,0,0,0,-1,839,771,0,0
-378,253,0,0,0,0,0,0,0,0,0,-1,846,771,0,0
-371,253,0,0,0,0,0,0,0,0,0,-1,853,771,0,0
-364,253,0,0,0,0,0,0,0,0,0,-1,860,771,0,0
-357,253,0,0,0,0,0,0,0,0,0,-1,867,771,0,0
-350,253,0,0,0,0,0,0,0,0,0,-1,874,771,0,0
-343,253,0,0,0,0,0,0,0,0,0,-1,881,771,0,0
-336,253,0,0,0,0,0,0,0,0,0,-1,888,771,0,0
-329,253,0,0,0,0,0,0,0,0,0,-1,895,771,0,0
-322,253,0,0,0,0,0,0,0,0,0,-1,902,771,0,0
-315,253,0,0,0,0,0,0,0,0,0,-1,909,771,0,0
-308,253,0,0,0,0,0,0,0,0,0,-1,916,771,0,0
-301,253,0,0,0,0,0,0,0,0,0,-1,923,771,0,0
-294,253,0,0,0,0,0,0,0,0,0,-1,930,771,0,0
-287,253,0,0,0,0,0,0,0,0,0,-1,937,771,0,0
-280,253,0,0,0,0,0,0,0,0,0,-1,944,771,0,0
-273,253,0,0,0,0,0,0,0,0,0,-1,951,771,0,0
-266,253,0,0,0,0,0,0,0,0,0,-1,958,771,0,0
-259,253,0,0,0,0,0,0,0,0,0,-1,965,771,0,0
-252,253,0,0,0,0,0,0,0,0,0,-1,972,771,0,0
-245,253,0,0,0,0,0,0,0,0,0,-1,979,771,0,0
-238,253,0,0,0,0,0,0,0,0,0,-1,986,771,0,0
-231,253,0,0,0,0,0,0,0,0,0,-1,993,771,0,0
-224,253,0,0,0,0,0,0,0,0,0,-1,1000,771,0,0
-217,253,0,0,0,0,0,0,0,0,0,-1,1007,771,0,0
-210,253,0,0,0,0,0,0,0,0,0,-1,1014,771,0,0
-203,253,0,0,0,0,0,0,0,0,0,-1,1021,771,0,0
-196,253,0,0,0,0,0,0,0,0,0,-1,1028,771,0,0
-189,253,0,0,0,0,0,0,0,0,0,-1,1035,771,0,0
-182,253,0,0,0,0,0,0,0,0,0,-1,1042,771,0,0
-175,253,0,0,0,0,0,0,0,0,0,-1,1049,771,0,0
-168,253,0,0,0,0,0,0,0,0,0,-1,1056,771,0,0
-161,253,0,0,0,0,0,0,0,0,0,-1,1063,771,0,0
-154,253,0,0,0,0,0,0,0,0,0,-1,1070,771,0,0
-147,253,0,0,0,0,0,0,0,0,0,-1,1077,771,0,0
-140,253,0,0,0,0,0,0,0,0,0,-1,1084,771,0,0
-133,253,0,0,0,0,0,0,0,0,0,-1,1091,771,0,0
-126,253,0,0,0,0,0,0,0,0,0,-1,1098,771,0,0
-119,253,0,0,0,0,0,0,0,0,0,-1,1105,771,0,0
-112,253,0,0,0,0,0,0,0,0,0,-1,1112,771,0,0
-105,253,0,0,0,0,0,0,0,0,0,-1,1119,771,0,0
-98,253,0,0,0,0,0,0,0,0,0,-1,1126,771,0,0
-91,253,0,0,0,0,0,0,0,0,0,-1,1133,771,0,0
-84,253,0,0,0,0,0,0,0,0,0,-1,1140,771,0,0
-77,253,0,0,0,0,0,0,0,0,0,-1,1147,771,0,0
-70,253,0,0,0,0,0,0,0,0,0,-1,1154,771,0,0
-63,253,0,0,0,0,0,0,0,0,0,-1,1161,771,0,0
-56,253,0,0,0,0,0,0,0,0,0,-1,1168,771,0,0
-49,253,0,0,0,0,0,0,0,0,0,-1,1175,771,0,0
-42,253,0,0,0,0,0,0,0,0,0,-1,1182,771,0,0
-35,253,0,0,0,0,0,0,0,0,0,-1,1189,771,0,0
-28,253,0,0,0,0,0,0,0,0,0,-1,1196,771,0,0
-21,253,0,0,0,0,0,0,0,0,0,-1,1203,771,0,0
-14,253,0,0,0,0,0,0,0,0,0,-1,1210,771,0,0
-7,253,0,0,0,0,0,0,0,0,0,-1,1217,771,0,0
0,253,0,0,0,0,0,0,0,0,0,-1,1224,771,0,0
7,253,0,0,0,0,0,0,0,0,0,-1,1231,771,0,0
14,253,0,0,0,0,0,0,0,0,0,-1,1238,771,0,0
21,253,0,0,0,0,0,0,0,0,0,-1,1245,771,0,0
28,253,0,0,0,0,0,0,0,0,0,-1,1252,771,0,0
35,253,0,0,0,0,0,0,0,0,0,-1,1259,771,0,0
42,253,0,0,0,0,0,0,0,0,0,-1,1266,771,0,0
49,253,0,0,0,0,0,0,0,0,0,-1,1273,771,0,0
56,253,0,0,0,0,0,0,0,0,0,-1,1280,771,0,0
63,253,0,0,0,0,0,0,0,0,0,-1,1287,771,0,0
70,253,0,0,0,0,0,0,0,0,0,-1,1294,771,0,0
77,253,0,0,0,0,0,0,0,0,0,-1,1301,771,0,0
84,253,0,0,0,0,0,0,0,0,0,-1,1308,771,0,0
91,253,0,0,0,0,0,0,0,0,0,-1,1315,771,0,0
98,253,0,0,0,0,0,0,0,0,0,-1,1322,771,0,0
105,253,0,0,0,0,0,0,0,0,0,-1,1329,771,0,0
112,253,0,0,0,0,0,0,0,0,0,-1,1336,771,0,0
119,253,0,0,0,0,0,0,0,0,0,-1,1343,771,0,0
126,253,0,0,0,0,0,0,0,0,0,-1,1350,771,0,0
133,253,0,0,0,0,0,0,0,0,0,-1,1357,771,0,0
140,253,0,0,0,0,0,0,0,0,0,-1,1364,771,0,0
147,253,0,0,0,0,0,0,0,0,0,-1,1371,771,0,0
154,253,0,0,0,0,0,0,0,0,0,-1,1378,771,0,0
161,253,0,0,0,0,0,0,0,0,0,-1,1385,771,0,0
168,253,0,0,0,0,0,0,0,0,0,-1,1392,771,0,0
175,253,0,0,0,0,0,0,0,0,0,-1,1399,771,0,0
182,253,0,0,0,0,0,0,0,0,0,-1,1406,771,0,0
189,253,0,0,0,0,0,0,0,0,0,-1,1413,771,0,0
196,253,0,0,0,0,0,0,0,0,0,-1,1420,771,0,0
203,253,0,0,0,0,0,0,0,0,0,-1,1427,771,0,0
210,253,0,0,0,0,0,0,0,0,0,-1,1434,771,0,0
217,253,0,0,0,0,0,0,0,0,0,-1,1441,771,0,0
224,253,0,0,0,0,0,0,0,0,0,-1,1448,771,0,0
231,253,0,0,0,0,0,0,0,0,0,-1,1455,771,0,0
238,253,0,0,0,0,0,0,0,0,0,-1,1462,771,0,0
245,253,0,0,0,0,0,0,0,0,0,-1,1469,771,0,0
252,253,0,0,0,0,0,0,0,0,0,-1,1476,771,0,0
259,253,0,0,0,0,0,0,0,0,0,-1,1483,771,0,0
266,253,0,0,0,0,0,0,0,0,0,-1,1490,771,0,0
273,253,0,0,0,0,0,0,0,0,0,-1,1497,771,0,0
280,253,0,0,0,0,0,0,0,0,0,-1,1504,771,0,0
287,253,0,0,0,0,0,0,0,0,0,-1,1511,771,0,0
294,253,0,0,0,0,0,0,0,0,0,-1,1518,771,0,0
301,253,0,0,0,0,0,0,0,0,0,-1,1525,771,0,0
308,253,0,0,0,0,0,0,0,0,0,-1,1532,771,0,0
315,253,0,0,0,0,0,0,0,0,0,-1,1539,771,0,0
322,253,0,0,0,0,0,0,0,0,0,-1,1546,771,0,0
329,253,0,0,0,0,0,0,0,0,0,-1,1553,771,0,0
336,253,0,0,0,0,0,0,0,0,0,-1,1560,771,0,0
343,253,0,0,0,0,0,0,0,0,0,-1,1567,771,0,0
350,253,0,0,0,0,0,0,0,0,0,-1,1574,771,0,0
357,253,0,0,0,0,0,0,0,0,0,-1,1581,771,0,0
364,253,0,0,0,0,0,0,0,0,0,-1,1588,771,0,0
371,253,0,0,0,0,0,0,0,0,0,-1,1595,771,0,0
378,253,0,0,0,0,0,0,0,0,0,-1,1602,771,0,0
385,253,0,0,0,0,0,0,0,0,0,-1,1609,771,0,0
392,253,0,0,0,0,0,0,0,0,0,-1,1616,771,0,0
399,253,0,0,0,0,0,0,0,0,0,-1,1623,771,0,0
406,253,0,0,0,0,0,0,0,0,0,-1,1630,771,0,0
413,253,0,0,0,0,0,0,0,0,0,-1,1637,771,0,0
420,253,0,0,0,0,0,0,0,0,0,-1,1644,771,0,0
427,253,0,0,0,0,0,0,0,0,0,-1,1651,771,0,0
434,253,0,0,0,0,0,0,0,0,0,-1,1658,771,0,0
441,253,0,0,0,0,0,0,0,0,0,-1,1665,771,0,0
448,253,0,0,0,0,0,0,0,0,0,-1,1672,771,0,0
455,253,0,0,0,0,0,0,0,0,0,-1,1679,771,0,0
462,253,0,0,0,0,0,0,0,0,0,-1,1686,771,0,0
469,253,0,0,0,0,0,0,0,0,0,-1,1693,771,0,0
476,253,0,0,0,0,0,0,0,0,0,-1,1700,771,0,0
483,253,0,0,0,0,0,0,0,0,0,-1,1707,771,0,0
490,253,0,0,0,0,0,0,0,0,0,-1,1714,771,0,0
497,253,0,0,0,0,0,0,0,0,0,-1,1721,771,0,0
504,253,0,0,0,0,0,0,0,0,0,-1,1728,771,0,0
511,253,0,0,0,0,0,0,0,0,0,-1,1735,771,0,0
518,253,0,0,0,0,0,0,0,0,0,-1,1742,771,0,0
525,253,0,0,0,0,0,0,0,0,0,-1,1749,771,0,0
532,253,0,0,0,0,0,0,0,0,0,-1,1756,771,0,0
539,253,0,0,0,0,0,0,0,0,0,-1,1763,771,0,0
546,253,0,0,0,0,0,0,0,0,0,-1,1770,771,0,0
553,253,0,0,0,0,0,0,0,0,0,-1,1777,771,0,0
560,253,0,0,0,0,0,0,0,0,0,-1,1784,771,0,0
567,253,0,0,0,0,0,0,0,0,0,-1,1791,771,0,0
574,253,75.9802,2.50391,0,0,0,0,0,0,0,-1,1798,771,75.9803,-2.50392
581,253,75.8031,2.59137,0,0,0,0,0,0,0,-1,1805,771,75.8031,-2.59138
588,253,75.8961,2.47693,0,0,0,0,0,0,0,-1,1812,771,75.8961,-2.47694
595,253,76.2937,2.3269,0,0,0,0,0,0,0,-1,1819,771,76.2937,-2.3269
602,253,66.4502,2.6098,0,0,0,0,0,0,0,-1,1826,771,66.4502,-2.60979
609,253,65.2542,3.18195,0,0,0,0,0,0,0,-1,1833,771,65.2541,-3.18193
616,253,58.416,2.69031,0,0,0,0,0,0,0,-1,1840,771,58.4161,-2.69031
623,253,48.8328,3.01001,0,0,0,0,0,0,0,-1,1847,771,48.8328,-3.01002
630,253,33.561,2.96838,0,0,0,0,0,0,0,-1,1854,771,33.561,-2.96836
637,253,22.3192,-0.604004,0,0,0,0,0,0,0,-1,1861,771,22.3192,0.603986
644,253,48.2843,-5.22784,0,0,0,0,0,0,0,-1,1868,771,48.2843,5.22783
651,253,52.1024,-5.19171,0,0,0,0,0,0,0,-1,1875,771,52.1024,5.19171
658,253,51.8622,-4.45831,0.00101809,9.4584e-05,-5.49487e-05,0.00102135,9.1326e-05,-0.0592217,0.000652589,0.0270635,1882,771,51.8622,4.4583
665,253,51.7032,-3.62817,0.00109334,0.000524896,-2.69931e-05,0.00109461,0.000523617,-0.0473444,0.000632173,0.0214279,1889,771,51.7033,3.62817
672,253,51.6604,-2.72729,0.00109302,0.00058308,-1.97662e-05,0.00109378,0.000582315,-0.0386845,0.000631938,0.0171967,1896,771,51.6604,2.72728
679,253,51.6554,-1.77576,0.00102199,0.000678493,-3.2699e-06,0.00102202,0.000678462,-0.00951825,0.000600532,0.0137761,1903,771,51.6555,1.77573
686,253,51.5663,-0.847351,0.00100712,0.000966134,3.00483e-05,0.001023,0.000950255,0.486141,0.00065909,0.0255281,1910,771,51.5663,0.847343
693,253,51.465,0.0514526,0.00103781,0.00135703,2.58384e-05,0.0013591,0.00103573,1.49055,0.000819821,0.0253816,1917,771,51.465,-0.0514481
700,253,51.4149,0.962524,0.00117752,0.0018674,9.08569e-05,0.00187916,0.00116575,1.44202,0.00109536,0.0190083,1924,771,51.4149,-0.962506
707,253,51.4019,1.90497,0.00141665,0.00246757,0.000193477,0.00250206,0.00138216,1.3944,0.00144721,0.0179357,1931,771,51.4019,-1.90497
714,253,51.3628,2.77588,0.00158602,0.00305879,0.000327341,0.00312827,0.00151654,1.36165,0.00180638,0.0279786,1938,771,51.3628,-2.77588
721,253,51.4272,3.64893,0.00210168,0.00386996,0.000710472,0.00412005,0.00185159,1.23234,0.00238277,0.0436648,1945,771,51.4272,-3.64893
728,253,51.5582,4.57849,0,0,0,0,0,0,0,-1,1952,771,51.5582,-4.57849
735,253,34.5735,6.15118,0,0,0,0,0,0,0,-1,1959,771,34.5734,-6.1512
742,253,31.0571,5.7337,0,0,0,0,0,0,0,-1,1966,771,31.0571,-5.73373
749,253,33.7754,3.21533,0,0,0,0,0,0,0,-1,1973,771,33.7754,-3.21533
756,253,0,0,0,0,0,0,0,0,0,-1,1980,771,0,0
763,253,0,0,0,0,0,0,0,0,0,-1,1987,771,0,0
770,253,0,0,0,0,0,0,0,0,0,-1,1994,771,0,0
777,253,0,0,0,0,0,0,0,0,0,-1,2001,771,0,0
784,253,0,0,0,0,0,0,0,0,0,-1,2008,771,0,0
791,253,0,0,0,0,0,0,0,0,0,-1,2015,771,0,0
798,253,0,0,0,0,0,0,0,0,0,-1,2022,771,0,0
805,253,0,0,0,0,0,0,0,0,0,-1,2029,771,0,0
812,253,0,0,0,0,0,0,0,0,0,-1,2036,771,0,0
-700,246,0,0,0,0,0,0,0,0,0,-1,524,778,0,0
-693,246,0,0,0,0,0,0,0,0,0,-1,531,778,0,0
-686,246,0,0,0,0,0,0,0,0,0,-1,538,778,0,0
-679,246,0,0,0,0,0,0,0,0,0,-1,545,778,0,0
-672,246,0,0,0,0,0,0,0,0,0,-1,552,778,0,0
-665,246,0,0,0,0,0,0,0,0,0,-1,559,778,0,0
-658,246,0,0,0,0,0,0,0,0,0,-1,566,778,0,0
-651,246,0,0,0,0,0,0,0,0,0,-1,573,778,0,0
-644,246,0,0,0,0,0,0,0,0,0,-1,580,778,0,0
-637,246,-24.1234,0.130432,0,0,0,0,0,0,0,-1,587,778,-24.1234,-0.130438
-630,246,-24.0781,1.38916,0,0,0,0,0,0,0,-1,594,778,-24.0781,-1.38913
-623,246,-23.9183,2.49573,0,0,0,0,0,0,0,-1,601,778,-23.9183,-2.49575
-616,246,-26.8182,2.0705,0,0,0,0,0,0,0,-1,608,778,-26.8182,-2.07052
-609,246,-26.0615,1.16388,0,0,0,0,0,0,0,-1,615,778,-26.0615,-1.16388
-602,246,-35.7474,5.39642,0,0,0,0,0,0,0,-1,622,778,-35.7474,-5.39644
-595,246,-36.18,3.95233,-0.0108297,0.00613637,-0.00936052,0.0102859,-0.0149792,-1.15353,0.0146705,0.0474306,629,778,-36.18,-3.95233
-588,246,-36.6582,2.30652,-0.00722441,0.00504954,-0.00679245,0.00806679,-0.0102417,-1.15277,0.0105952,0.0338723,636,778,-36.6582,-2.30653
-581,246,-36.7397,1.50702,-0.00489516,0.00418429,-0.0048078,0.00625698,-0.00696785,-1.16376,0.00763903,0.0196334,643,778,-36.7397,-1.50699
-574,246,-36.7028,0.476196,-0.00322019,0.00325067,-0.00297647,0.00441154,-0.00438105,-1.19893,0.00507641,0.0193721,650,778,-36.7028,-0.476183
-567,246,-36.7828,-0.449219,-0.00224149,0.0024524,-0.00153648,0.00291062,-0.00269971,-1.28097,0.00323988,0.0271361,657,778,-36.7828,0.449195
-560,246,-36.899,-1.30725,-0.00180477,0.00183814,-0.000459012,0.00189509,-0.00186171,-1.44736,0.00216902,0.0209778,664,778,-36.8991,1.30728
-553,246,-36.9349,-2.15326,-0.00185218,0.00146536,0.000353857,0.00150268,-0.0018895,1.46571,0.00196272,0.0133475,671,778,-36.9349,2.15323
-546,246,-37.0094,-3.06927,-0.00230998,0.00110211,0.0010378,0.00139297,-0.00260084,1.29754,0.00234071,0.011692,678,778,-37.0094,3.06927
-539,246,-37.0884,-4.03839,-0.00332587,0.000918201,0.00142737,0.00135359,-0.00376126,1.27473,0.00306017,0.0127243,685,778,-37.0884,4.03841
-532,246,-37.2808,-5.25,0,0,0,0,0,0,0,-1,692,778,-37.2808,5.25003
-525,246,-37.3441,-6.21265,0,0,0,0,0,0,0,-1,699,778,-37.3441,6.21264
-518,246,-37.4454,-7.25702,0,0,0,0,0,0,0,-1,706,778,-37.4454,7.25702
-511,246,-28.5886,-5.38635,0,0,0,0,0,0,0,-1,713,778,-28.5886,5.38633
-504,246,-20.0047,-2.88214,0,0,0,0,0,0,0,-1,720,778,-20.0047,2.88216
-497,246,-29.4669,1.82684,0,0,0,0,0,0,0,-1,727,778,-29.4669,-1.82687
-490,246,-40.4299,1.04309,0,0,0,0,0,0,0,-1,734,778,-40.4299,-1.04308
-483,246,-55.5514,-0.0795898,0,0,0,0,0,0,0,-1,741,778,-55.5514,0.0795595
-476,246,-59.5438,0.49823,0,0,0,0,0,0,0,-1,748,778,-59.5438,-0.498208
-469,246,-59.5747,0.413574,0,0,0,0,0,0,0,-1,755,778,-59.5747,-0.413575
-462,246,-59.7189,0.306641,0,0,0,0,0,0,0,-1,762,778,-59.719,-0.306617
-455,246,0,0,0,0,0,0,0,0,0,-1,769,778,0,0
-448,246,0,0,0,0,0,0,0,0,0,-1,776,778,0,0
-441,246,0,0,0,0,0,0,0,0,0,-1,783,778,0,0
-434,246,0,0,0,0,0,0,0,0,0,-1,790,778,0,0
-427,246,0,0,0,0,0,0,0,0,0,-1,797,778,0,0
-420,246,0,0,0,0,0,0,0,0,0,-1,804,778,0,0
-413,246,0,0,0,0,0,0,0,0,0,-1,811,778,0,0
-406,246,0,0,0,0,0,0,0,0,0,-1,818,778,0,0
-399,246,0,0,0,0,0,0,0,0,0,-1,825,778,0,0
-392,246,0,0,0,0,0,0,0,0,0,-1,832,778,0,0
-385,246,0,0,0,0,0,0,0,0,0,-1,839,778,0,0
-378,246,0,0,0,0,0,0,0,0,0,-1,846,778,0,0
-371,246,0,0,0,0,0,0,0,0,0,-1,853,778,0,0
-364,246,0,0,0,0,0,0,0,0,0,-1,860,778,0,0
-357,246,0,0,0,0,0,0,0,0,0,-1,867,778,0,0
-350,246,0,0,0,0,0,0,0,0,0,-1,874,778,0,0
-343,246,0,0,0,0,0,0,0,0,0,-1,881,778,0,0
-336,246,0,0,0,0,0,0,0,0,0,-1,888,778,0,0
-329,246,0,0,0,0,0,0,0,0,0,-1,895,778,0,0
-322,246,0,0,0,0,0,0,0,0,0,-1,902,778,0,0
-315,246,0,0,0,0,0,0,0,0,0,-1,909,778,0,0
-308,246,0,0,0,0,0,0,0,0,0,-1,916,778,0,0
-301,246,0,0,0,0,0,0,0,0,0,-1,923,778,0,0
-294,246,0,0,0,0,0,0,0,0,0,-1,930,778,0,0
-287,246,0,0,0,0,0,0,0,0,0,-1,937,778,0,0
-280,246,0,0,0,0,0,0,0,0,0,-1,944,778,0,0
-273,246,0,0,0,0,0,0,0,0,0,-1,951,778,0,0
-266,246,0,0,0,0,0,0,0,0,0,-1,958,778,0,0
-259,246,0,0,0,0,0,0,0,0,0,-1,965,778,0,0
-252,246,0,0,0,0,0,0,0,0,0,-1,972,778,0,0
-245,246,0,0,0,0,0,0,0,0,0,-1,979,778,0,0
-238,246,0,0,0,0,0,0,0,0,0,-1,986,778,0,0
-231,246,0,0,0,0,0,0,0,0,0,-1,993,778,0,0
-224,246,0,0,0,0,0,0,0,0,0,-1,1000,778,0,0
-217,246,0,0,0,0,0,0,0,0,0,-1,1007,778,0,0
-210,246,0,0,0,0,0,0,0,0,0,-1,1014,778,0,0
-203,246,0,0,0,0,0,0,0,0,0,-1,1021,778,0,0
-196,246,0,0,0,0,0,0,0,0,0,-1,1028,778,0,0
-189,246,0,0,0,0,0,0,0,0,0,-1,1035,778,0,0
-182,246,0,0,0,0,0,0,0,0,0,-1,1042,778,0,0
-175,246,0,0,0,0,0,0,0,0,0,-1,1049,778,0,0
-168,246,0,0,0,0,0,0,0,0,0,-1,1056,778,0,0
-161,246,0,0,0,0,0,0,0,0,0,-1,1063,778,0,0
-154,246,0,0,0,0,0,0,0,0,0,-1,1070,778,0,0
-147,246,0,0,0,0,0,0,0,0,0,-1,1077,778,0,0
-140,246,0,0,0,0,0,0,0,0,0,-1,1084,778,0,0
-133,246,0,0,0,0,0,0,0,0,0,-1,1091,778,0,0
-126,246,0,0,0,0,0,0,0,0,0,-1,1098,778,0,0
-119,246,0,0,0,0,0,0,0,0,0,-1,1105,778,0,0
-112,246,0,0,0,0,0,0,0,0,0,-1,1112,778,0,0
-105,246,0,0,0,0,0,0,0,0,0,-1,1119,778,0,0
-98,246,0,0,0,0,0,0,0,0,0,-1,1126,778,0,0
-91,246,0,0,0,0,0,0,0,0,0,-1,1133,778,0,0
-84,246,0,0,0,0,0,0,0,0,0,-1,1140,778,0,0
-77,246,0,0,0,0,0,0,0,0,0,-1,1147,778,0,0
-70,246,0,0,0,0,0,0,0,0,0,-1,1154,778,0,0
-63,246,0,0,0,0,0,0,0,0,0,-1,1161,778,0,0
-56,246,0,0,0,0,0,0,0,0,0,-1,1168,778,0,0
-49,246,0,0,0,0,0,0,0,0,0,-1,1175,778,0,0
-42,246,0,0,0,0,0,0,0,0,0,-1,1182,778,0,0
-35,246,0,0,0,0,0,0,0,0,0,-1,1189,778,0,0
-28,246,0,0,0,0,0,0,0,0,0,-1,1196,778,0,0
-21,246,0,0,0,0,0,0,0,0,0,-1,1203,778,0,0
-14,246,0,0,0,0,0,0,0,0,0,-1,1210,778,0,0
-7,246,0,0,0,0,0,0,0,0,0,-1,1217,778,0,0
0,246,0,0,0,0,0,0,0,0,0,-1,1224,778,0,0
7,246,0,0,0,0,0,0,0,0,0,-1,1231,778,0,0
14,246,0,0,0,0,0,0,0,0,0,-1,1238,778,0,0
21,246,0,0,0,0,0,0,0,0,0,-1,1245,778,0,0
28,246,0,0,0,0,0,0,0,0,0,-1,1252,778,0,0
35,246,0,0,0,0,0,0,0,0,0,-1,1259,778,0,0
42,246,0,0,0,0,0,0,0,0,0,-1,1266,778,0,0
49,246,0,0,0,0,0,0,0,0,0,-1,1273,778,0,0
56,246,0,0,0,0,0,0,0,0,0,-1,1280,778,0,0
63,246,0,0,0,0,0,0,0,0,0,-1,1287,778,0,0
70,246,0,0,0,0,0,0,0,0,0,-1,1294,778,0,0
77,246,0,0,0,0,0,0,0,0,0,-1,1301,778,0,0
84,246,0,0,0,0,0,0,0,0,0,-1,1308,778,0,0
91,246,0,0,0,0,0,0,0,0,0,-1,1315,778,0,0
98,246,0,0,0,0,0,0,0,0,0,-1,1322,778,0,0
105,246,0,0,0,0,0,0,0,0,0,-1,1329,778,0,0
112,246,0,0,0,0,0,0,0,0,0,-1,1336,778,0,0
119,246,0,0,0,0,0,0,0,0,0,-1,1343,778,0,0
126,246,0,0,0,0,0,0,0,0,0,-1,1350,778,0,0
133,246,0,0,0,0,0,0,0,0,0,-1,1357,778,0,0
140,246,0,0,0,0,0,0,0,0,0,-1,1364,778,0,0
147,246,0,0,0,0,0,0,0,0,0,-1,1371,778,0,0
154,246,0,0,0,0,0,0,0,0,0,-1,1378,778,0,0
161,246,0,0,0,0,0,0,0,0,0,-1,1385,778,0,0
168,246,0,0,0,0,0,0,0,0,0,-1,1392,778,0,0
175,246,0,0,0,0,0,0,0,0,0,-1,1399,778,0,0
182,246,0,0,0,0,0,0,0,0,0,-1,1406,778,0,0
189,246,0,0,0,0,0,0,0,0,0,-1,1413,778,0,0
196,246,0,0,0,0,0,0,0,0,0,-1,1420,778,0,0
203,246,0,0,0,0,0,0,0,0,0,-1,1427,778,0,0
210,246,0,0,0,0,0,0,0,0,0,-1,1434,778,0,0
217,246,0,0,0,0,0,0,0,0,0,-1,1441,778,0,0
224,246,0,0,0,0,0,0,0,0,0,-1,1448,778,0,0
231,246,0,0,0,0,0,0,0,0,0,-1,1455,778,0,0
238,246,0,0,0,0,0,0,0,0,0,-1,1462,778,0,0
245,246,0,0,0,0,0,0,0,0,0,-1,1469,778,0,0
252,246,0,0,0,0,0,0,0,0,0,-1,1476,778,0,0
259,246,0,0,0,0,0,0,0,0,0,-1,1483,778,0,0
266,246,0,0,0,0,0,0,0,0,0,-1,1490,778,0,0
273,246,0,0,0,0,0,0,0,0,0,-1,1497,778,0,0
280,246,0,0,0,0,0,0,0,0,0,-1,1504,778,0,0
287,246,0,0,0,0,0,0,0,0,0,-1,1511,778,0,0
294,246,0,0,0,0,0,0,0,0,0,-1,1518,778,0,0
301,246,0,0,0,0,0,0,0,0,0,-1,1525,778,0,0
308,246,0,0,0,0,0,0,0,0,0,-1,1532,778,0,0
315,246,0,0,0,0,0,0,0,0,0,-1,1539,778,0,0
322,246,0,0,0,0,0,0,0,0,0,-1,1546,778,0,0
329,246,0,0,0,0,0,0,0,0,0,-1,1553,778,0,0
336,246,0,0,0,0,0,0,0,0,0,-1,1560,778,0,0
343,246,0,0,0,0,0,0,0,0,0,-1,1567,778,0,0
350,246,0,0,0,0,0,0,0,0,0,-1,1574,778,0,0
357,246,0,0,0,0,0,0,0,0,0,-1,1581,778,0,0
364,246,0,0,0,0,0,0,0,0,0,-1,1588,778,0,0
371,246,0,0,0,0,0,0,0,0,0,-1,1595,778,0,0
378,246,0,0,0,0,0,0,0,0,0,-1,1602,778,0,0
385,246,0,0,0,0,0,0,0,0,0,-1,1609,778,0,0
392,246,0,0,0,0,0,0,0,0,0,-1,1616,778,0,0
399,246,0,0,0,0,0,0,0,0,0,-1,1623,778,0,0
406,246,0,0,0,0,0,0,0,0,0,-1,1630,778,0,0
413,246,0,0,0,0,0,0,0,0,0,-1,1637,778,0,0
420,246,0,0,0,0,0,0,0,0,0,-1,1644,778,0,0
427,246,0,0,0,0,0,0,0,0,0,-1,1651,778,0,0
434,246,0,0,0,0,0,0,0,0,0,-1,1658,778,0,0
441,246,0,0,0,0,0,0,0,0,0,-1,1665,778,0,0
448,246,0,0,0,0,0,0,0,0,0,-1,1672,778,0,0
455,246,0,0,0,0,0,0,0,0,0,-1,1679,778,0,0
462,246,0,0,0,0,0,0,0,0,0,-1,1686,778,0,0
469,246,0,0,0,0,0,0,0,0,0,-1,1693,778,0,0
476,246,0,0,0,0,0,0,0,0,0,-1,1700,778,0,0
483,246,0,0,0,0,0,0,0,0,0,-1,1707,778,0,0
490,246,0,0,0,0,0,0,0,0,0,-1,1714,778,0,0
497,246,0,0,0,0,0,0,0,0,0,-1,1721,778,0,0
504,246,0,0,0,0,0,0,0,0,0,-1,1728,778,0,0
511,246,0,0,0,0,0,0,0,0,0,-1,1735,778,0,0
518,246,0,0,0,0,0,0,0,0,0,-1,1742,778,0,0
525,246,0,0,0,0,0,0,0,0,0,-1,1749,778,0,0
532,246,0,0,0,0,0,0,0,0,0,-1,1756,778,0,0
539,246,0,0,0,0,0,0,0,0,0,-1,1763,778,0,0
546,246,0,0,0,0,0,0,0,0,0,-1,1770,778,0,0
553,246,0,0,0,0,0,0,0,0,0,-1,1777,778,0,0
560,246,0,0,0,0,0,0,0,0,0,-1,1784,778,0,0
567,246,0,0,0,0,0,0,0,0,0,-1,1791,778,0,0
574,246,0,0,0,0,0,0,0,0,0,-1,1798,778,0,0
581,246,75.9353,2.52509,0.00688828,-0.00254172,-0.00517232,0.00917214,-0.00482558,-0.415809,0.00821044,0.0375875,1805,778,75.9353,-2.52508
588,246,75.9352,2.50269,0.00769597,-0.00432998,-0.00438485,0.00912495,-0.00575896,-0.315038,0.00866617,0.0426326,1812,778,75.9351,-2.50271
595,246,76.1692,2.35706,0.00741339,-0.00449419,-0.00340144,0.00831652,-0.00539732,-0.259527,0.00797726,0.0480629,1819,778,76.1692,-2.35703
602,246,76.4122,2.23865,0,0,0,0,0,0,0,-1,1826,778,76.4122,-2.23863
609,246,65.04,3.03278,0,0,0,0,0,0,0,-1,1833,778,65.04,-3.03277
616,246,60.4568,3.98492,0,0,0,0,0,0,0,-1,1840,778,60.4568,-3.98491
623,246,55.8947,3.95953,0,0,0,0,0,0,0,-1,1847,778,55.8947,-3.95952
630,246,49.5938,1.99902,0,0,0,0,0,0,0,-1,1854,778,49.5937,-1.999
637,246,29.5785,0.837585,0,0,0,0,0,0,0,-1,1861,778,29.5785,-0.837606
644,246,28.1232,-1.43188,0,0,0,0,0,0,0,-1,1868,778,28.1232,1.43188
651,246,48.5865,-4.32922,0,0,0,0,0,0,0,-1,1875,778,48.5865,4.32921
658,246,52.7039,-4.40948,0,0,0,0,0,0,0,-1,1882,778,52.7038,4.40949
665,246,52.5951,-3.62378,0.000782335,0.000646485,-0.000197057,0.000922845,0.000505974,-0.619427,0.000533632,0.0308946,1889,778,52.5951,3.62377
672,246,52.599,-2.66418,0.000806143,0.000661158,-0.000109528,0.000864996,0.000602305,-0.493064,0.000512076,0.0225405,1896,778,52.599,2.66417
679,246,52.5853,-1.72229,0.000778199,0.000580932,-7.70743e-05,0.000804741,0.000554389,-0.331655,0.000475542,0.0226421,1903,778,52.5853,1.72232
686,246,52.5265,-0.767822,0.000831223,0.000698596,-8.89551e-05,0.000875862,0.000653957,-0.465099,0.000525788,0.0230746,1910,778,52.5264,0.767823
693,246,52.476,0.112976,0.000862265,0.000972988,-0.000180628,0.00110655,0.000728704,-0.934101,0.000649483,0.0188498,1917,778,52.476,-0.112965
700,246,52.4119,1.00854,0.000848687,0.00134531,-0.000213855,0.00142471,0.000769291,-1.21531,0.00082343,0.0162159,1924,778,52.4119,-1.00853
707,246,52.3373,1.95813,0.00091912,0.00183655,-0.000175681,0.00186904,0.000886629,-1.38792,0.00107956,0.0154396,1931,778,52.3372,-1.95814
714,246,52.2621,2.90765,0.000820527,0.00232403,-0.000125743,0.00233447,0.000810083,-1.48793,0.00136868,0.0158709,1938,778,52.2621,-2.90765
721,246,52.1653,3.74432,0.000735181,0.00291814,8.04057e-05,0.0029211,0.000732224,1.53403,0.001755,0.0197973,1945,778,52.1652,-3.74431
728,246,52.2692,4.80072,0.000416879,0.00335932,0.000312763,0.0033922,0.000384002,1.46606,0.00214495,0.0408542,1952,778,52.2692,-4.8007
735,246,52.3895,5.92328,0,0,0,0,0,0,0,-1,1959,778,52.3895,-5.92329
742,246,31.7356,6.70013,0,0,0,0,0,0,0,-1,1966,778,31.7356,-6.70011
749,246,32.3883,7.69324,0,0,0,0,0,0,0,-1,1973,778,32.3883,-7.69322
756,246,33.6919,3.45264,0,0,0,0,0,0,0,-1,1980,778,33.6919,-3.45262
763,246,0,0,0,0,0,0,0,0,0,-1,1987,778,0,0
770,246,0,0,0,0,0,0,0,0,0,-1,1994,778,0,0
777,246,0,0,0,0,0,0,0,0,0,-1,2001,778,0,0
784,246,0,0,0,0,0,0,0,0,0,-1,2008,778,0,0
791,246,0,0,0,0,0,0,0,0,0,-1,2015,778,0,0
798,246,0,0,0,0,0,0,0,0,0,-1,2022,778,0,0
805,246,0,0,0,0,0,0,0,0,0,-1,2029,778,0,0
812,246,0,0,0,0,0,0,0,0,0,-1,2036,778,0,0
-700,239,0,0,0,0,0,0,0,0,0,-1,524,785,0,0
-693,239,0,0,0,0,0,0,0,0,0,-1,531,785,0,0
-686,239,0,0,0,0,0,0,0,0,0,-1,538,785,0,0
-679,239,0,0,0,0,0,0,0,0,0,-1,545,785,0,0
-672,239,0,0,0,0,0,0,0,0,0,-1,552,785,0,0
-665,239,0,0,0,0,0,0,0,0,0,-1,559,785,0,0
-658,239,0,0,0,0,0,0,0,0,0,-1,566,785,0,0
-651,239,0,0,0,0,0,0,0,0,0,-1,573,785,0,0
-644,239,0,0,0,0,0,0,0,0,0,-1,580,785,0,0
-637,239,-23.2709,0.465088,0,0,0,0,0,0,0,-1,587,785,-23.271,-0.465116
-630,239,-23.4006,0.956299,0,0,0,0,0,0,0,-1,594,785,-23.4005,-0.956285
-623,239,-30.6328,2.52185,0,0,0,0,0,0,0,-1,601,785,-30.6328,-2.52183
-616,239,-29.1425,1.42139,0,0,0,0,0,0,0,-1,608,785,-29.1425,-1.42139
-609,239,-27.8569,0.322937,0,0,0,0,0,0,0,-1,615,785,-27.857,-0.322963
-602,239,-36.8768,5.38629,0,0,0,0,0,0,0,-1,622,785,-36.8767,-5.38628
-595,239,-37.1818,3.97943,-0.00917626,0.00439556,-0.00722918,0.00752477,-0.0123055,-1.16229,0.0115594,0.0424566,629,785,-37.1818,-3.97943
-588,239,-37.5067,2.59467,-0.00608622,0.00390051,-0.00545029,0.00629898,-0.0084847,-1.15624,0.0085664,0.0213844,636,785,-37.5067,-2.59465
-581,239,-37.6516,1.55383,-0.00399798,0.00341845,-0.00393037,0.00511381,-0.00569334,-1.16356,0.0062425,0.0117643,643,785,-37.6516,-1.55381
-574,239,-37.6571,0.59021,-0.00248188,0.00283226,-0.00246729,0.00380115,-0.00345077,-1.19661,0.00418852,0.0129251,650,785,-37.6571,-0.590198
-567,239,-37.7256,-0.347778,-0.00160808,0.00235294,-0.00127112,0.00272576,-0.0019809,-1.2855,0.00272871,0.0200882,657,785,-37.7256,0.347768
-560,239,-37.8284,-1.21936,-0.00124687,0.00203117,-0.000333583,0.00206477,-0.00128047,-1.4704,0.00194899,0.0201411,664,785,-37.8284,1.21937
-553,239,-37.8764,-2.10181,-0.00135491,0.00186008,0.000415435,0.0019129,-0.00140772,1.44435,0.00192454,0.0146789,671,785,-37.8764,2.10182
-546,239,-37.9365,-3.01044,-0.00191538,0.00170439,0.00109788,0.00201135,-0.00222234,1.29817,0.00244533,0.0168956,678,785,-37.9365,3.01045
-539,239,-38.1373,-3.94958,-0.0032353,0.00186328,0.0013466,0.00219708,-0.0035691,1.32781,0.00336037,0.033822,685,785,-38.1372,3.94956
-532,239,-38.4232,-4.85809,-0.00504411,0.00179759,0.00140295,0.0020741,-0.00532062,1.3762,0.00440436,0.0361769,692,785,-38.4232,4.85807
-525,239,-38.2922,-5.47571,0,0,0,0,0,0,0,-1,699,785,-38.2922,5.47569
-518,239,-38.3489,-6.02283,0,0,0,0,0,0,0,-1,706,785,-38.3489,6.02283
-511,239,-20.9849,-2.09235,0,0,0,0,0,0,0,-1,713,785,-20.9848,2.09234
-504,239,-25.5015,2.00421,0,0,0,0,0,0,0,-1,720,785,-25.5015,-2.00422
-497,239,-40.2453,1.4447,0,0,0,0,0,0,0,-1,727,785,-40.2453,-1.4447
-490,239,-55.7633,-0.30426,0,0,0,0,0,0,0,-1,734,785,-55.7633,0.304271
-483,239,-59.9614,0.237366,0,0,0,0,0,0,0,-1,741,785,-59.9614,-0.237347
-476,239,-59.6375,0.39856,0,0,0,0,0,0,0,-1,748,785,-59.6375,-0.398563
-469,239,-59.5909,0.411682,0,0,0,0,0,0,0,-1,755,785,-59.5909,-0.411702
-462,239,-59.6257,0.423035,0,0,0,0,0,0,0,-1,762,785,-59.6257,-0.423065
-455,239,0,0,0,0,0,0,0,0,0,-1,769,785,0,0
-448,239,0,0,0,0,0,0,0,0,0,-1,776,785,0,0
-441,239,0,0,0,0,0,0,0,0,0,-1,783,785,0,0
-434,239,0,0,0,0,0,0,0,0,0,-1,790,785,0,0
-427,239,0,0,0,0,0,0,0,0,0,-1,797,785,0,0
-420,239,0,0,0,0,0,0,0,0,0,-1,804,785,0,0
-413,239,0,0,0,0,0,0,0,0,0,-1,811,785,0,0
-406,239,0,0,0,0,0,0,0,0,0,-1,818,785,0,0
-399,239,0,0,0,0,0,0,0,0,0,-1,825,785,0,0
-392,239,0,0,0,0,0,0,0,0,0,-1,832,785,0,0
-385,239,0,0,0,0,0,0,0,0,0,-1,839,785,0,0
-378,239,0,0,0,0,0,0,0,0,0,-1,846,785,0,0
-371,239,0,0,0,0,0,0,0,0,0,-1,853,785,0,0
-364,239,0,0,0,0,0,0,0,0,0,-1,860,785,0,0
-357,239,0,0,0,0,0,0,0,0,0,-1,867,785,0,0
-350,239,0,0,0,0,0,0,0,0,0,-1,874,785,0,0
-343,239,0,0,0,0,0,0,0,0,0,-1,881,785,0,0
-336,239,0,0,0,0,0,0,0,0,0,-1,888,785,0,0
-329,239,0,0,0,0,0,0,0,0,0,-1,895,785,0,0
-322,239,0,0,0,0,0,0,0,0,0,-1,902,785,0,0
-315,239,0,0,0,0,0,0,0,0,0,-1,909,785,0,0
-308,239,0,0,0,0,0,0,0,0,0,-1,916,785,0,0
-301,239,0,0,0,0,0,0,0,0,0,-1,923,785,0,0
-294,239,0,0,0,0,0,0,0,0,0,-1,930,785,0,0
-287,239,0,0,0,0,0,0,0,0,0,-1,937,785,0,0
-280,239,0,0,0,0,0,0,0,0,0,-1,944,785,0,0
-273,239,0,0,0,0,0,0,0,0,0,-1,951,785,0,0
-266,239,0,0,0,0,0,0,0,0,0,-1,958,785,0,0
-259,239,0,0,0,0,0,0,0,0,0,-1,965,785,0,0
-252,239,0,0,0,0,0,0,0,0,0,-1,972,785,0,0
-245,239,0,0,0,0,0,0,0,0,0,-1,979,785,0,0
-238,239,0,0,0,0,0,0,0,0,0,-1,986,785,0,0
-231,239,0,0,0,0,0,0,0,0,0,-1,993,785,0,0
-224,239,0,0,0,0,0,0,0,0,0,-1,1000,785,0,0
-217,239,0,0,0,0,0,0,0,0,0,-1,1007,785,0,0
-210,239,0,0,0,0,0,0,0,0,0,-1,1014,785,0,0
-203,239,0,0,0,0,0,0,0,0,0,-1,1021,785,0,0
-196,239,0,0,0,0,0,0,0,0,0,-1,1028,785,0,0
-189,239,0,0,0,0,0,0,0,0,0,-1,1035,785,0,0
-182,239,0,0,0,0,0,0,0,0,0,-1,1042,785,0,0
-175,239,0,0,0,0,0,0,0,0,0,-1,1049,785,0,0
-168,239,0,0,0,0,0,0,0,0,0,-1,1056,785,0,0
-161,239,0,0,0,0,0,0,0,0,0,-1,1063,785,0,0
-154,239,0,0,0,0,0,0,0,0,0,-1,1070,785,0,0
-147,239,0,0,0,0,0,0,0,0,0,-1,1077,785,0,0
-140,239,0,0,0,0,0,0,0,0,0,-1,1084,785,0,0
-133,239,0,0,0,0,0,0,0,0,0,-1,1091,785,0,0
-126,239,0,0,0,0,0,0,0,0,0,-1,1098,785,0,0
-119,239,0,0,0,0,0,0,0,0,0,-1,1105,785,0,0
-112,239,0,0,0,0,0,0,0,0,0,-1,1112,785,0,0
-105,239,0,0,0,0,0,0,0,0,0,-1,1119,785,0,0
-98,239,0,0,0,0,0,0,0,0,0,-1,1126,785,0,0
-91,239,0,0,0,0,0,0,0,0,0,-1,1133,785,0,0
-84,239,0,0,0,0,0,0,0,0,0,-1,1140,785,0,0
-77,239,0,0,0,0,0,0,0,0,0,-1,1147,785,0,0
-70,239,0,0,0,0,0,0,0,0,0,-1,1154,785,0,0
-63,239,0,0,0,0,0,0,0,0,0,-1,1161,785,0,0
-56,239,0,0,0,0,0,0,0,0,0,-1,1168,785,0,0
-49,239,0,0,0,0,0,0,0,0,0,-1,1175,785,0,0
-42,239,0,0,0,0,0,0,0,0,0,-1,1182,785,0,0
-35,239,0,0,0,0,0,0,0,0,0,-1,1189,785,0,0
-28,239,0,0,0,0,0,0,0,0,0,-1,1196,785,0,0
-21,239,0,0,0,0,0,0,0,0,0,-1,1203,785,0,0
-14,239,0,0,0,0,0,0,0,0,0,-1,1210,785,0,0
-7,239,0,0,0,0,0,0,0,0,0,-1,1217,785,0,0
0,239,0,0,0,0,0,0,0,0,0,-1,1224,785,0,0
7,239,0,0,0,0,0,0,0,0,0,-1,1231,785,0,0
14,239,0,0,0,0,0,0,0,0,0,-1,1238,785,0,0
21,239,0,0,0,0,0,0,0,0,0,-1,1245,785,0,0
28,239,0,0,0,0,0,0,0,0,0,-1,1252,785,0,0
35,239,0,0,0,0,0,0,0,0,0,-1,1259,785,0,0
42,239,0,0,0,0,0,0,0,0,0,-1,1266,785,0,0
49,239,0,0,0,0,0,0,0,0,0,-1,1273,785,0,0
56,239,0,0,0,0,0,0,0,0,0,-1,1280,785,0,0
63,239,0,0,0,0,0,0,0,0,0,-1,1287,785,0,0
70,239,0,0,0,0,0,0,0,0,0,-1,1294,785,0,0
77,239,0,0,0,0,0,0,0,0,0,-1,1301,785,0,0
84,239,0,0,0,0,0,0,0,0,0,-1,1308,785,0,0
91,239,0,0,0,0,0,0,0,0,0,-1,1315,785,0,0
98,239,0,0,0,0,0,0,0,0,0,-1,1322,785,0,0
105,239,0,0,0,0,0,0,0,0,0,-1,1329,785,0,0
112,239,0,0,0,0,0,0,0,0,0,-1,1336,785,0,0
119,239,0,0,0,0,0,0,0,0,0,-1,1343,785,0,0
126,239,0,0,0,0,0,0,0,0,0,-1,1350,785,0,0
133,239,0,0,0,0,0,0,0,0,0,-1,1357,785,0,0
140,239,0,0,0,0,0,0,0,0,0,-1,1364,785,0,0
147,239,0,0,0,0,0,0,0,0,0,-1,1371,785,0,0
154,239,0,0,0,0,0,0,0,0,0,-1,1378,785,0,0
161,239,0,0,0,0,0,0,0,0,0,-1,1385,785,0,0
168,239,0,0,0,0,0,0,0,0,0,-1,1392,785,0,0
175,239,0,0,0,0,0,0,0,0,0,-1,1399,785,0,0
182,239,0,0,0,0,0,0,0,0,0,-1,1406,785,0,0
189,239,0,0,0,0,0,0,0,0,0,-1,1413,785,0,0
196,239,0,0,0,0,0,0,0,0,0,-1,1420,785,0,0
203,239,0,0,0,0,0,0,0,0,0,-1,1427,785,0,0
210,239,0,0,0,0,0,0,0,0,0,-1,1434,785,0,0
217,239,0,0,0,0,0,0,0,0,0,-1,1441,785,0,0
224,239,0,0,0,0,0,0,0,0,0,-1,1448,785,0,0
231,239,0,0,0,0,0,0,0,0,0,-1,1455,785,0,0
238,239,0,0,0,0,0,0,0,0,0,-1,1462,785,0,0
245,239,0,0,0,0,0,0,0,0,0,-1,1469,785,0,0
252,239,0,0,0,0,0,0,0,0,0,-1,1476,785,0,0
259,239,0,0,0,0,0,0,0,0,0,-1,1483,785,0,0
266,239,0,0,0,0,0,0,0,0,0,-1,1490,785,0,0
273,239,0,0,0,0,0,0,0,0,0,-1,1497,785,0,0
280,239,0,0,0,0,0,0,0,0,0,-1,1504,785,0,0
287,239,0,0,0,0,0,0,0,0,0,-1,1511,785,0,0
294,239,0,0,0,0,0,0,0,0,0,-1,1518,785,0,0
301,239,0,0,0,0,0,0,0,0,0,-1,1525,785,0,0
308,239,0,0,0,0,0,0,0,0,0,-1,1532,785,0,0
315,239,0,0,0,0,0,0,0,0,0,-1,1539,785,0,0
322,239,0,0,0,0,0,0,0,0,0,-1,1546,785,0,0
329,239,0,0,0,0,0,0,0,0,0,-1,1553,785,0,0
336,239,0,0,0,0,0,0,0,0,0,-1,1560,785,0,0
343,239,0,0,0,0,0,0,0,0,0,-1,1567,785,0,0
350,239,0,0,0,0,0,0,0,0,0,-1,1574,785,0,0
357,239,0,0,0,0,0,0,0,0,0,-1,1581,785,0,0
364,239,0,0,0,0,0,0,0,0,0,-1,1588,785,0,0
371,239,0,0,0,0,0,0,0,0,0,-1,1595,785,0,0
378,239,0,0,0,0,0,0,0,0,0,-1,1602,785,0,0
385,239,0,0,0,0,0,0,0,0,0,-1,1609,785,0,0
392,239,0,0,0,0,0,0,0,0,0,-1,1616,785,0,0
399,239,0,0,0,0,0,0,0,0,0,-1,1623,785,0,0
406,239,0,0,0,0,0,0,0,0,0,-1,1630,785,0,0
413,239,0,0,0,0,0,0,0,0,0,-1,1637,785,0,0
420,239,0,0,0,0,0,0,0,0,0,-1,1644,785,0,0
427,239,0,0,0,0,0,0,0,0,0,-1,1651,785,0,0
434,239,0,0,0,0,0,0,0,0,0,-1,1658,785,0,0
441,239,0,0,0,0,0,0,0,0,0,-1,1665,785,0,0
448,239,0,0,0,0,0,0,0,0,0,-1,1672,785,0,0
455,239,0,0,0,0,0,0,0,0,0,-1,1679,785,0,0
462,239,0,0,0,0,0,0,0,0,0,-1,1686,785,0,0
469,239,0,0,0,0,0,0,0,0,0,-1,1693,785,0,0
476,239,0,0,0,0,0,0,0,0,0,-1,1700,785,0,0
483,239,0,0,0,0,0,0,0,0,0,-1,1707,785,0,0
490,239,0,0,0,0,0,0,0,0,0,-1,1714,785,0,0
497,239,0,0,0,0,0,0,0,0,0,-1,1721,785,0,0
504,239,0,0,0,0,0,0,0,0,0,-1,1728,785,0,0
511,239,0,0,0,0,0,0,0,0,0,-1,1735,785,0,0
518,239,0,0,0,0,0,0,0,0,0,-1,1742,785,0,0
525,239,0,0,0,0,0,0,0,0,0,-1,1749,785,0,0
532,239,0,0,0,0,0,0,0,0,0,-1,1756,785,0,0
539,239,0,0,0,0,0,0,0,0,0,-1,1763,785,0,0
546,239,0,0,0,0,0,0,0,0,0,-1,1770,785,0,0
553,239,0,0,0,0,0,0,0,0,0,-1,1777,785,0,0
560,239,0,0,0,0,0,0,0,0,0,-1,1784,785,0,0
567,239,0,0,0,0,0,0,0,0,0,-1,1791,785,0,0
574,239,0,0,0,0,0,0,0,0,0,-1,1798,785,0,0
581,239,76.079,2.4281,0.00425653,-0.00169582,-0.00483342,0.00695658,-0.00439588,-0.509439,0.00660969,0.0368574,1805,785,76.079,-2.42809
588,239,75.9644,2.5282,0.00595776,-0.00433486,-0.00454105,0.00767481,-0.00605191,-0.3615,0.00794357,0.0368431,1812,785,75.9643,-2.5282
595,239,76.0706,2.44214,0.00620188,-0.00469451,-0.00369019,0.00733398,-0.00582661,-0.297672,0.00761487,0.0359934,1819,785,76.0705,-2.44213
602,239,76.1219,2.34326,0.00553769,-0.00437617,-0.00302159,0.00638602,-0.00522451,-0.273713,0.00671452,0.0488073,1826,785,76.1219,-2.34328
609,239,76.0715,2.29865,0,0,0,0,0,0,0,-1,1833,785,76.0715,-2.29864
616,239,55.8469,3.72443,0,0,0,0,0,0,0,-1,1840,785,55.8469,-3.72445
623,239,65.0618,2.66516,0,0,0,0,0,0,0,-1,1847,785,65.0617,-2.66519
630,239,54.5767,3.64667,0,0,0,0,0,0,0,-1,1854,785,54.5766,-3.64667
637,239,39.5542,2.54114,0,0,0,0,0,0,0,-1,1861,785,39.5543,-2.54114
644,239,18.3466,0.735413,0,0,0,0,0,0,0,-1,1868,785,18.3465,-0.735414
651,239,34.2471,-2.15778,0,0,0,0,0,0,0,-1,1875,785,34.2471,2.1578
658,239,53.3126,-4.70605,0,0,0,0,0,0,0,-1,1882,785,53.3126,4.70607
665,239,53.499,-3.59155,0.000394968,0.000648248,-0.000157692,0.000723857,0.000319359,-1.12371,0.000418881,0.0429801,1889,785,53.4991,3.59155
672,239,53.5801,-2.5542,0.000342877,0.00072698,-5.94626e-05,0.000735975,0.000333882,-1.42067,0.000425523,0.0251279,1896,785,53.5801,2.55423
679,239,53.5068,-1.61377,0.000375396,0.000597707,-4.38686e-05,0.000606051,0.000367053,-1.38285,0.000352497,0.0242997,1903,785,53.5068,1.61378
686,239,53.4081,-0.655579,0.000548084,0.000604311,-0.000124234,0.000703572,0.000448822,-0.896672,0.000411327,0.0251613,1910,785,53.4081,0.655584
693,239,53.3928,0.197754,0.000653245,0.000779064,-0.000292626,0.00101547,0.000416843,-0.891278,0.000589402,0.0171122,1917,785,53.3929,-0.197766
700,239,53.3311,1.07996,0.000548707,0.00102934,-0.00038598,0.0012437,0.000334345,-1.06384,0.000743194,0.0129639,1924,785,53.331,-1.07999
707,239,53.252,2.01141,0.000417149,0.00138499,-0.00042378,0.00154432,0.000257821,-1.21118,0.000955273,0.0124239,1931,785,53.252,-2.01139
714,239,53.2009,2.92853,5.68386e-05,0.0017384,-0.000457865,0.00185498,-5.97487e-05,-1.32146,0.00125705,0.0118764,1938,785,53.201,-2.92851
721,239,53.1116,3.80481,-0.000538507,0.00209413,-0.000429646,0.00216247,-0.000606851,-1.41305,0.00168085,0.0225469,1945,785,53.1116,-3.80481
728,239,53.0338,4.74347,-0.00158324,0.002257,-0.000447315,0.00230841,-0.00163466,-1.45636,0.00228758,0.0435926,1952,785,53.0338,-4.74346
735,239,53.2164,5.84686,0,0,0,0,0,0,0,-1,1959,785,53.2164,-5.84687
742,239,32.4141,7.6665,0,0,0,0,0,0,0,-1,1966,785,32.4141,-7.6665
749,239,32.1489,3.4411,0,0,0,0,0,0,0,-1,1973,785,32.149,-3.44109
756,239,32.9064,3.6687,0,0,0,0,0,0,0,-1,1980,785,32.9063,-3.66873
763,239,0,0,0,0,0,0,0,0,0,-1,1987,785,0,0
770,239,0,0,0,0,0,0,0,0,0,-1,1994,785,0,0
777,239,0,0,0,0,0,0,0,0,0,-1,2001,785,0,0
784,239,0,0,0,0,0,0,0,0,0,-1,2008,785,0,0
791,239,0,0,0,0,0,0,0,0,0,-1,2015,785,0,0
798,239,0,0,0,0,0,0,0,0,0,-1,2022,785,0,0
805,239,0,0,0,0,0,0,0,0,0,-1,2029,785,0,0
812,239,0,0,0,0,0,0,0,0,0,-1,2036,785,0,0
-700,232,0,0,0,0,0,0,0,0,0,-1,524,792,0,0
-693,232,0,0,0,0,0,0,0,0,0,-1,531,792,0,0
-686,232,0,0,0,0,0,0,0,0,0,-1,538,792,0,0
-679,232,0,0,0,0,0,0,0,0,0,-1,545,792,0,0
-672,232,0,0,0,0,0,0,0,0,0,-1,552,792,0,0
-665,232,0,0,0,0,0,0,0,0,0,-1,559,792,0,0
-658,232,0,0,0,0,0,0,0,0,0,-1,566,792,0,0
-651,232,0,0,0,0,0,0,0,0,0,-1,573,792,0,0
-644,232,-41.2348,4.28168,0,0,0,0,0,0,0,-1,580,792,-41.2348,-4.28166
-637,232,-42.1427,3.51453,0,0,0,0,0,0,0,-1,587,792,-42.1427,-3.51452
-630,232,-32.2345,1.80212,0,0,0,0,0,0,0,-1,594,792,-32.2345,-1.80211
-623,232,-31.5665,1.05115,0,0,0,0,0,0,0,-1,601,792,-31.5664,-1.05112
-616,232,-30.6812,0.432861,0,0,0,0,0,0,0,-1,608,792,-30.6812,-0.432881
-609,232,-29.7142,-0.478943,0,0,0,0,0,0,0,-1,615,792,-29.7142,0.478965
-602,232,-38.2302,5.35962,0,0,0,0,0,0,0,-1,622,792,-38.2302,-5.35965
-595,232,-38.325,3.97882,-0.00741662,0.00339469,-0.00566855,0.00582188,-0.00984382,-1.16623,0.00914341,0.0367175,629,792,-38.3249,-3.97884
-588,232,-38.4771,2.60632,-0.00476967,0.00323713,-0.00439191,0.00517647,-0.00670901,-1.15498,0.00688107,0.0133188,636,792,-38.477,-2.60632
-581,232,-38.5433,1.58997,-0.00289982,0.00299136,-0.00318867,0.00438675,-0.00429521,-1.15829,0.00501262,0.00938566,643,792,-38.5433,-1.58994
-574,232,-38.6069,0.671631,-0.00153641,0.00265514,-0.00200293,0.00345833,-0.0023396,-1.18942,0.00336814,0.00941272,650,792,-38.6069,-0.671645
-567,232,-38.6794,-0.235413,-0.000780943,0.00241541,-0.000996327,0.00270053,-0.00106607,-1.29207,0.00224186,0.0122537,657,792,-38.6795,0.235383
-560,232,-38.7611,-1.14502,-0.000498969,0.00232285,-0.000152926,0.00233111,-0.000507232,-1.51681,0.00174786,0.0164503,664,792,-38.7611,1.14504
-553,232,-38.8548,-2.06915,-0.000722126,0.00230829,0.000561828,0.0024091,-0.000822934,1.39326,0.00193947,0.0153945,671,792,-38.8548,2.06912
-546,232,-38.8856,-2.92432,-0.00149687,0.00232977,0.00125905,0.00270687,-0.00187397,1.27979,0.00265928,0.0350154,678,792,-38.8856,2.92432
-539,232,-39.1848,-3.82062,0,0,0,0,0,0,0,-1,685,792,-39.1848,3.82064
-532,232,-39.6265,-4.53656,0,0,0,0,0,0,0,-1,692,792,-39.6264,4.53658
-525,232,-39.379,-5.69604,0,0,0,0,0,0,0,-1,699,792,-39.379,5.69604
-518,232,-20.8098,-3.08154,0,0,0,0,0,0,0,-1,706,792,-20.8098,3.08155
-511,232,-21.6708,-0.962708,0,0,0,0,0,0,0,-1,713,792,-21.6708,0.962731
-504,232,-34.2155,0.346985,0,0,0,0,0,0,0,-1,720,792,-34.2155,-0.346955
-497,232,-52.7195,0.518677,0,0,0,0,0,0,0,-1,727,792,-52.7195,-0.518678
-490,232,-59.6912,0.209351,0,0,0,0,0,0,0,-1,734,792,-59.6912,-0.209347
-483,232,-59.8095,0.262939,0,0,0,0,0,0,0,-1,741,792,-59.8095,-0.262957
-476,232,-59.6579,0.314941,0,0,0,0,0,0,0,-1,748,792,-59.6579,-0.31492
-469,232,-59.6252,0.336121,0,0,0,0,0,0,0,-1,755,792,-59.6252,-0.336151
-462,232,0,0,0,0,0,0,0,0,0,-1,762,792,0,0
-455,232,0,0,0,0,0,0,0,0,0,-1,769,792,0,0
-448,232,0,0,0,0,0,0,0,0,0,-1,776,792,0,0
-441,232,0,0,0,0,0,0,0,0,0,-1,783,792,0,0
-434,232,0,0,0,0,0,0,0,0,0,-1,790,792,0,0
-427,232,0,0,0,0,0,0,0,0,0,-1,797,792,0,0
-420,232,0,0,0,0,0,0,0,0,0,-1,804,792,0,0
-413,232,0,0,0,0,0,0,0,0,0,-1,811,792,0,0
-406,232,0,0,0,0,0,0,0,0,0,-1,818,792,0,0
-399,232,0,0,0,0,0,0,0,0,0,-1,825,792,0,0
-392,232,0,0,0,0,0,0,0,0,0,-1,832,792,0,0
-385,232,0,0,0,0,0,0,0,0,0,-1,839,792,0,0
-378,232,0,0,0,0,0,0,0,0,0,-1,846,792,0,0
-371,232,0,0,0,0,0,0,0,0,0,-1,853,792,0,0
-364,232,0,0,0,0,0,0,0,0,0,-1,860,792,0,0
-357,232,0,0,0,0,0,0,0,0,0,-1,867,792,0,0
-350,232,0,0,0,0,0,0,0,0,0,-1,874,792,0,0
-343,232,0,0,0,0,0,0,0,0,0,-1,881,792,0,0
-336,232,0,0,0,0,0,0,0,0,0,-1,888,792,0,0
-329,232,0,0,0,0,0,0,0,0,0,-1,895,792,0,0
-322,232,0,0,0,0,0,0,0,0,0,-1,902,792,0,0
-315,232,0,0,0,0,0,0,0,0,0,-1,909,792,0,0
-308,232,0,0,0,0,0,0,0,0,0,-1,916,792,0,0
-301,232,0,0,0,0,0,0,0,0,0,-1,923,792,0,0
-294,232,0,0,0,0,0,0,0,0,0,-1,930,792,0,0
-287,232,0,0,0,0,0,0,0,0,0,-1,937,792,0,0
-280,232,0,0,0,0,0,0,0,0,0,-1,944,792,0,0
-273,232,0,0,0,0,0,0,0,0,0,-1,951,792,0,0
-266,232,0,0,0,0,0,0,0,0,0,-1,958,792,0,0
-259,232,0,0,0,0,0,0,0,0,0,-1,965,792,0,0
-252,232,0,0,0,0,0,0,0,0,0,-1,972,792,0,0
-245,232,0,0,0,0,0,0,0,0,0,-1,979,792,0,0
-238,232,0,0,0,0,0,0,0,0,0,-1,986,792,0,0
-231,232,0,0,0,0,0,0,0,0,0,-1,993,792,0,0
-224,232,0,0,0,0,0,0,0,0,0,-1,1000,792,0,0
-217,232,0,0,0,0,0,0,0,0,0,-1,1007,792,0,0
-210,232,0,0,0,0,0,0,0,0,0,-1,1014,792,0,0
-203,232,0,0,0,0,0,0,0,0,0,-1,1021,792,0,0
-196,232,0,0,0,0,0,0,0,0,0,-1,1028,792,0,0
-189,232,0,0,0,0,0,0,0,0,0,-1,1035,792,0,0
-182,232,0,0,0,0,0,0,0,0,0,-1,1042,792,0,0
-175,232,0,0,0,0,0,0,0,0,0,-1,1049,792,0,0
-168,232,0,0,0,0,0,0,0,0,0,-1,1056,792,0,0
-161,232,0,0,0,0,0,0,0,0,0,-1,1063,792,0,0
-154,232,0,0,0,0,0,0,0,0,0,-1,1070,792,0,0
-147,232,0,0,0,0,0,0,0,0,0,-1,1077,792,0,0
-140,232,0,0,0,0,0,0,0,0,0,-1,1084,792,0,0
-133,232,0,0,0,0,0,0,0,0,0,-1,1091,792,0,0
-126,232,0,0,0,0,0,0,0,0,0,-1,1098,792,0,0
-119,232,0,0,0,0,0,0,0,0,0,-1,1105,792,0,0
-112,232,0,0,0,0,0,0,0,0,0,-1,1112,792,0,0
-105,232,0,0,0,0,0,0,0,0,0,-1,1119,792,0,0
-98,232,0,0,0,0,0,0,0,0,0,-1,1126,792,0,0
-91,232,0,0,0,0,0,0,0,0,0,-1,1133,792,0,0
-84,232,0,0,0,0,0,0,0,0,0,-1,1140,792,0,0
-77,232,0,0,0,0,0,0,0,0,0,-1,1147,792,0,0
-70,232,0,0,0,0,0,0,0,0,0,-1,1154,792,0,0
-63,232,0,0,0,0,0,0,0,0,0,-1,1161,792,0,0
-56,232,0,0,0,0,0,0,0,0,0,-1,1168,792,0,0
-49,232,0,0,0,0,0,0,0,0,0,-1,1175,792,0,0
-42,232,0,0,0,0,0,0,0,0,0,-1,1182,792,0,0
-35,232,0,0,0,0,0,0,0,0,0,-1,1189,792,0,0
-28,232,0,0,0,0,0,0,0,0,0,-1,1196,792,0,0
-21,232,0,0,0,0,0,0,0,0,0,-1,1203,792,0,0
-14,232,0,0,0,0,0,0,0,0,0,-1,1210,792,0,0
-7,232,0,0,0,0,0,0,0,0,0,-1,1217,792,0,0
0,232,0,0,0,0,0,0,0,0,0,-1,1224,792,0,0
7,232,0,0,0,0,0,0,0,0,0,-1,1231,792,0,0
14,232,0,0,0,0,0,0,0,0,0,-1,1238,792,0,0
21,232,0,0,0,0,0,0,0,0,0,-1,1245,792,0,0
28,232,0,0,0,0,0,0,0,0,0,-1,1252,792,0,0
35,232,0,0,0,0,0,0,0,0,0,-1,1259,792,0,0
42,232,0,0,0,0,0,0,0,0,0,-1,1266,792,0,0
49,232,0,0,0,0,0,0,0,0,0,-1,1273,792,0,0
56,232,0,0,0,0,0,0,0,0,0,-1,1280,792,0,0
63,232,0,0,0,0,0,0,0,0,0,-1,1287,792,0,0
70,232,0,0,0,0,0,0,0,0,0,-1,1294,792,0,0
77,232,0,0,0,0,0,0,0,0,0,-1,1301,792,0,0
84,232,0,0,0,0,0,0,0,0,0,-1,1308,792,0,0
91,232,0,0,0,0,0,0,0,0,0,-1,1315,792,0,0
98,232,0,0,0,0,0,0,0,0,0,-1,1322,792,0,0
105,232,0,0,0,0,0,0,0,0,0,-1,1329,792,0,0
112,232,0,0,0,0,0,0,0,0,0,-1,1336,792,0,0
119,232,0,0,0,0,0,0,0,0,0,-1,1343,792,0,0
126,232,0,0,0,0,0,0,0,0,0,-1,1350,792,0,0
133,232,0,0,0,0,0,0,0,0,0,-1,1357,792,0,0
140,232,0,0,0,0,0,0,0,0,0,-1,1364,792,0,0
147,232,0,0,0,0,0,0,0,0,0,-1,1371,792,0,0
154,232,0,0,0,0,0,0,0,0,0,-1,1378,792,0,0
161,232,0,0,0,0,0,0,0,0,0,-1,1385,792,0,0
168,232,0,0,0,0,0,0,0,0,0,-1,1392,792,0,0
175,232,0,0,0,0,0,0,0,0,0,-1,1399,792,0,0
182,232,0,0,0,0,0,0,0,0,0,-1,1406,792,0,0
189,232,0,0,0,0,0,0,0,0,0,-1,1413,792,0,0
196,232,0,0,0,0,0,0,0,0,0,-1,1420,792,0,0
203,232,0,0,0,0,0,0,0,0,0,-1,1427,792,0,0
210,232,0,0,0,0,0,0,0,0,0,-1,1434,792,0,0
217,232,0,0,0,0,0,0,0,0,0,-1,1441,792,0,0
224,232,0,0,0,0,0,0,0,0,0,-1,1448,792,0,0
231,232,0,0,0,0,0,0,0,0,0,-1,1455,792,0,0
238,232,0,0,0,0,0,0,0,0,0,-1,1462,792,0,0
245,232,0,0,0,0,0,0,0,0,0,-1,1469,792,0,0
252,232,0,0,0,0,0,0,0,0,0,-1,1476,792,0,0
259,232,0,0,0,0,0,0,0,0,0,-1,1483,792,0,0
266,232,0,0,0,0,0,0,0,0,0,-1,1490,792,0,0
273,232,0,0,0,0,0,0,0,0,0,-1,1497,792,0,0
280,232,0,0,0,0,0,0,0,0,0,-1,1504,792,0,0
287,232,0,0,0,0,0,0,0,0,0,-1,1511,792,0,0
294,232,0,0,0,0,0,0,0,0,0,-1,1518,792,0,0
301,232,0,0,0,0,0,0,0,0,0,-1,1525,792,0,0
308,232,0,0,0,0,0,0,0,0,0,-1,1532,792,0,0
315,232,0,0,0,0,0,0,0,0,0,-1,1539,792,0,0
322,232,0,0,0,0,0,0,0,0,0,-1,1546,792,0,0
329,232,0,0,0,0,0,0,0,0,0,-1,1553,792,0,0
336,232,0,0,0,0,0,0,0,0,0,-1,1560,792,0,0
343,232,0,0,0,0,0,0,0,0,0,-1,1567,792,0,0
350,232,0,0,0,0,0,0,0,0,0,-1,1574,792,0,0
357,232,0,0,0,0,0,0,0,0,0,-1,1581,792,0,0
364,232,0,0,0,0,0,0,0,0,0,-1,1588,792,0,0
371,232,0,0,0,0,0,0,0,0,0,-1,1595,792,0,0
378,232,0,0,0,0,0,0,0,0,0,-1,1602,792,0,0
385,232,0,0,0,0,0,0,0,0,0,-1,1609,792,0,0
392,232,0,0,0,0,0,0,0,0,0,-1,1616,792,0,0
399,232,0,0,0,0,0,0,0,0,0,-1,1623,792,0,0
406,232,0,0,0,0,0,0,0,0,0,-1,1630,792,0,0
413,232,0,0,0,0,0,0,0,0,0,-1,1637,792,0,0
420,232,0,0,0,0,0,0,0,0,0,-1,1644,792,0,0
427,232,0,0,0,0,0,0,0,0,0,-1,1651,792,0,0
434,232,0,0,0,0,0,0,0,0,0,-1,1658,792,0,0
441,232,0,0,0,0,0,0,0,0,0,-1,1665,792,0,0
448,232,0,0,0,0,0,0,0,0,0,-1,1672,792,0,0
455,232,0,0,0,0,0,0,0,0,0,-1,1679,792,0,0
462,232,0,0,0,0,0,0,0,0,0,-1,1686,792,0,0
469,232,0,0,0,0,0,0,0,0,0,-1,1693,792,0,0
476,232,0,0,0,0,0,0,0,0,0,-1,1700,792,0,0
483,232,0,0,0,0,0,0,0,0,0,-1,1707,792,0,0
490,232,0,0,0,0,0,0,0,0,0,-1,1714,792,0,0
497,232,0,0,0,0,0,0,0,0,0,-1,1721,792,0,0
504,232,0,0,0,0,0,0,0,0,0,-1,1728,792,0,0
511,232,0,0,0,0,0,0,0,0,0,-1,1735,792,0,0
518,232,0,0,0,0,0,0,0,0,0,-1,1742,792,0,0
525,232,0,0,0,0,0,0,0,0,0,-1,1749,792,0,0
532,232,0,0,0,0,0,0,0,0,0,-1,1756,792,0,0
539,232,0,0,0,0,0,0,0,0,0,-1,1763,792,0,0
546,232,0,0,0,0,0,0,0,0,0,-1,1770,792,0,0
553,232,0,0,0,0,0,0,0,0,0,-1,1777,792,0,0
560,232,0,0,0,0,0,0,0,0,0,-1,1784,792,0,0
567,232,0,0,0,0,0,0,0,0,0,-1,1791,792,0,0
574,232,0,0,0,0,0,0,0,0,0,-1,1798,792,0,0
581,232,0,0,0,0,0,0,0,0,0,-1,1805,792,0,0
588,232,75.9648,2.61786,0.00438569,-0.00396211,-0.0044481,0.00631154,-0.00588797,-0.408594,0.00704481,0.0373982,1812,792,75.9648,-2.61783
595,232,75.9692,2.57147,0.00483794,-0.00471279,-0.00385295,0.00619848,-0.00607333,-0.339449,0.00708525,0.0371982,1819,792,75.9693,-2.57149
602,232,76.0894,2.38037,0.0043904,-0.00439486,-0.00318874,0.00542577,-0.00543024,-0.313958,0.00626772,0.041243,1826,792,76.0893,-2.38039
609,232,76.0885,2.26422,0.00339013,-0.00384949,-0.00265717,0.00426071,-0.00472007,-0.316612,0.00518732,0.0491109,1833,792,76.0885,-2.26424
616,232,76.0236,2.30524,0,0,0,0,0,0,0,-1,1840,792,76.0236,-2.30527
623,232,74.9668,2.53278,0,0,0,0,0,0,0,-1,1847,792,74.9667,-2.5328
630,232,64.9034,2.97992,0,0,0,0,0,0,0,-1,1854,792,64.9035,-2.9799
637,232,47.0471,4.04309,0,0,0,0,0,0,0,-1,1861,792,47.0471,-4.04309
644,232,30.7756,4.24139,0,0,0,0,0,0,0,-1,1868,792,30.7757,-4.24141
651,232,31.6797,-0.564087,0,0,0,0,0,0,0,-1,1875,792,31.6797,0.564059
658,232,46.7423,-3.10736,0,0,0,0,0,0,0,-1,1882,792,46.7423,3.10735
665,232,54.2218,-3.52594,0,0,0,0,0,0,0,-1,1889,792,54.2218,3.52591
672,232,54.4133,-2.47076,0,0,0,0,0,0,0,-1,1896,792,54.4133,2.47079
679,232,54.3896,-1.5531,0.0001489,0.000728969,-6.28007e-05,0.00073569,0.000142179,-1.46418,0.000450607,0.0227392,1903,792,54.3896,1.55313
686,232,54.3184,-0.597778,0.000378684,0.000601231,-0.000213076,0.000730339,0.000249577,-1.02603,0.000428645,0.0207357,1910,792,54.3184,0.597772
693,232,54.2992,0.261841,0.000538312,0.000653214,-0.000441701,0.00104118,0.000150342,-0.850069,0.000649833,0.0120555,1917,792,54.2992,-0.261812
700,232,54.2582,1.13757,0.000380972,0.000793474,-0.000571584,0.00119488,-2.04338e-05,-0.958548,0.000803485,0.0137668,1924,792,54.2581,-1.13754
707,232,54.1831,2.05566,0.000137834,0.00103928,-0.000643685,0.00137436,-0.000197243,-1.09084,0.000988567,0.0134447,1931,792,54.1831,-2.05566
714,232,54.1276,2.96765,-0.000354315,0.00130471,-0.000707783,0.00156564,-0.000615237,-1.21761,0.00129837,0.0138674,1938,792,54.1276,-2.96765
721,232,54.0872,3.8551,-0.00118468,0.0015163,-0.000764158,0.00171751,-0.00138589,-1.31334,0.00179515,0.0212879,1945,792,54.0872,-3.85512
728,232,53.9668,4.59625,-0.00249529,0.00153733,-0.000890708,0.0017253,-0.00268326,-1.36281,0.00256524,0.0485721,1952,792,53.9668,-4.59623
735,232,54.0814,5.58173,0,0,0,0,0,0,0,-1,1959,792,54.0815,-5.58173
742,232,25.6461,6.00684,0,0,0,0,0,0,0,-1,1966,792,25.6461,-6.00684
749,232,31.2874,3.74713,0,0,0,0,0,0,0,-1,1973,792,31.2874,-3.74713
756,232,34.9586,15.3984,0,0,0,0,0,0,0,-1,1980,792,34.9586,-15.3984
763,232,33.09,17.3107,0,0,0,0,0,0,0,-1,1987,792,33.0899,-17.3106
770,232,0,0,0,0,0,0,0,0,0,-1,1994,792,0,0
777,232,0,0,0,0,0,0,0,0,0,-1,2001,792,0,0
784,232,0,0,0,0,0,0,0,0,0,-1,2008,792,0,0
791,232,0,0,0,0,0,0,0,0,0,-1,2015,792,0,0
798,232,0,0,0,0,0,0,0,0,0,-1,2022,792,0,0
805,232,0,0,0,0,0,0,0,0,0,-1,2029,792,0,0
812,232,0,0,0,0,0,0,0,0,0,-1,2036,792,0,0
-700,225,0,0,0,0,0,0,0,0,0,-1,524,799,0,0
-693,225,0,0,0,0,0,0,0,0,0,-1,531,799,0,0
-686,225,0,0,0,0,0,0,0,0,0,-1,538,799,0,0
-679,225,0,0,0,0,0,0,0,0,0,-1,545,799,0,0
-672,225,0,0,0,0,0,0,0,0,0,-1,552,799,0,0
-665,225,0,0,0,0,0,0,0,0,0,-1,559,799,0,0
-658,225,0,0,0,0,0,0,0,0,0,-1,566,799,0,0
-651,225,0,0,0,0,0,0,0,0,0,-1,573,799,0,0
-644,225,-40.8898,4.14661,0,0,0,0,0,0,0,-1,580,799,-40.8898,-4.14661
-637,225,-41.61,3.36749,0,0,0,0,0,0,0,-1,587,799,-41.61,-3.36751
-630,225,-30.244,4.82196,0,0,0,0,0,0,0,-1,594,799,-30.244,-4.82193
-623,225,-32.8276,-0.00836182,0,0,0,0,0,0,0,-1,601,799,-32.8276,0.00837668
-616,225,-32.0569,-0.549255,0,0,0,0,0,0,0,-1,608,799,-32.0569,0.549265
-609,225,-38.3466,5.74518,0,0,0,0,0,0,0,-1,615,799,-38.3466,-5.7452
-602,225,-39.4033,4.64124,0,0,0,0,0,0,0,-1,622,799,-39.4033,-4.64123
-595,225,-39.4094,3.58893,-0.00570705,0.00273354,-0.00404864,0.00436152,-0.00733504,-1.18848,0.00682536,0.029559,629,799,-39.4094,-3.58895
-588,225,-39.4156,2.55243,-0.00353359,0.0027704,-0.00322754,0.00412973,-0.00489292,-1.17218,0.00521544,0.0124077,636,799,-39.4156,-2.55241
-581,225,-39.4634,1.63885,-0.00189338,0.00268065,-0.00234517,0.00366935,-0.00288207,-1.17182,0.00379156,0.0117664,643,799,-39.4635,-1.63889
-574,225,-39.5302,0.724976,-0.000660632,0.00253696,-0.0014478,0.00309508,-0.00121875,-1.20286,0.00256792,0.00994393,650,799,-39.5302,-0.724946
-567,225,-39.5992,-0.207703,2.6291e-05,0.0024901,-0.00065248,0.00265223,-0.000135834,-1.32725,0.00181513,0.0132675,657,799,-39.5992,0.207722
-560,225,-39.6641,-1.09943,0.000305491,0.00257442,7.56395e-05,0.00257694,0.000302973,1.53751,0.0016264,0.0146214,664,799,-39.6641,1.09945
-553,225,-39.7293,-2.01715,4.83102e-05,0.00269254,0.00077551,0.0029032,-0.000162351,1.30555,0.00199179,0.0124389,671,799,-39.7293,2.01714
-546,225,-39.7401,-2.81403,-0.000873371,0.00283343,0.00152715,0.00338154,-0.00142149,1.2262,0.00284896,0.0370299,678,799,-39.7401,2.81405
-539,225,-39.6987,-3.41888,0,0,0,0,0,0,0,-1,685,799,-39.6987,3.41888
-532,225,-40.9899,-4.36157,0,0,0,0,0,0,0,-1,692,799,-40.9899,4.36158
-525,225,-29.1705,-3.88239,0,0,0,0,0,0,0,-1,699,799,-29.1705,3.88237
-518,225,-21.963,0.171326,0,0,0,0,0,0,0,-1,706,799,-21.9629,-0.171319
-511,225,-33.0002,0.660217,0,0,0,0,0,0,0,-1,713,799,-33.0002,-0.660239
-504,225,-50.4542,0.524109,0,0,0,0,0,0,0,-1,720,799,-50.4542,-0.524105
-497,225,-59.6252,0.235229,0,0,0,0,0,0,0,-1,727,799,-59.6252,-0.235202
-490,225,-59.6482,0.261353,0,0,0,0,0,0,0,-1,734,799,-59.6482,-0.261333
-483,225,-59.6668,0.308655,0,0,0,0,0,0,0,-1,741,799,-59.6668,-0.308673
-476,225,-59.6197,0.350098,0,0,0,0,0,0,0,-1,748,799,-59.6197,-0.350079
-469,225,-59.6483,0.380676,0,0,0,0,0,0,0,-1,755,799,-59.6483,-0.3807
-462,225,0,0,0,0,0,0,0,0,0,-1,762,799,0,0
-455,225,0,0,0,0,0,0,0,0,0,-1,769,799,0,0
-448,225,0,0,0,0,0,0,0,0,0,-1,776,799,0,0
-441,225,0,0,0,0,0,0,0,0,0,-1,783,799,0,0
-434,225,0,0,0,0,0,0,0,0,0,-1,790,799,0,0
-427,225,0,0,0,0,0,0,0,0,0,-1,797,799,0,0
-420,225,0,0,0,0,0,0,0,0,0,-1,804,799,0,0
-413,225,0,0,0,0,0,0,0,0,0,-1,811,799,0,0
-406,225,0,0,0,0,0,0,0,0,0,-1,818,799,0,0
-399,225,0,0,0,0,0,0,0,0,0,-1,825,799,0,0
-392,225,0,0,0,0,0,0,0,0,0,-1,832,799,0,0
-385,225,0,0,0,0,0,0,0,0,0,-1,839,799,0,0
-378,225,0,0,0,0,0,0,0,0,0,-1,846,799,0,0
-371,225,0,0,0,0,0,0,0,0,0,-1,853,799,0,0
-364,225,0,0,0,0,0,0,0,0,0,-1,860,799,0,0
-357,225,0,0,0,0,0,0,0,0,0,-1,867,799,0,0
-350,225,0,0,0,0,0,0,0,0,0,-1,874,799,0,0
-343,225,0,0,0,0,0,0,0,0,0,-1,881,799,0,0
-336,225,0,0,0,0,0,0,0,0,0,-1,888,799,0,0
-329,225,0,0,0,0,0,0,0,0,0,-1,895,799,0,0
-322,225,0,0,0,0,0,0,0,0,0,-1,902,799,0,0
-315,225,0,0,0,0,0,0,0,0,0,-1,909,799,0,0
-308,225,0,0,0,0,0,0,0,0,0,-1,916,799,0,0
-301,225,0,0,0,0,0,0,0,0,0,-1,923,799,0,0
-294,225,0,0,0,0,0,0,0,0,0,-1,930,799,0,0
-287,225,0,0,0,0,0,0,0,0,0,-1,937,799,0,0
-280,225,0,0,0,0,0,0,0,0,0,-1,944,799,0,0
-273,225,0,0,0,0,0,0,0,0,0,-1,951,799,0,0
-266,225,0,0,0,0,0,0,0,0,0,-1,958,799,0,0
-259,225,0,0,0,0,0,0,0,0,0,-1,965,799,0,0
-252,225,0,0,0,0,0,0,0,0,0,-1,972,799,0,0
-245,225,0,0,0,0,0,0,0,0,0,-1,979,799,0,0
-238,225,0,0,0,0,0,0,0,0,0,-1,986,799,0,0
-231,225,0,0,0,0,0,0,0,0,0,-1,993,799,0,0
-224,225,0,0,0,0,0,0,0,0,0,-1,1000,799,0,0
-217,225,0,0,0,0,0,0,0,0,0,-1,1007,799,0,0
-210,225,0,0,0,0,0,0,0,0,0,-1,1014,799,0,0
-203,225,0,0,0,0,0,0,0,0,0,-1,1021,799,0,0
-196,225,0,0,0,0,0,0,0,0,0,-1,1028,799,0,0
-189,225,0,0,0,0,0,0,0,0,0,-1,1035,799,0,0
-182,225,0,0,0,0,0,0,0,0,0,-1,1042,799,0,0
-175,225,0,0,0,0,0,0,0,0,0,-1,1049,799,0,0
-168,225,0,0,0,0,0,0,0,0,0,-1,1056,799,0,0
-161,225,0,0,0,0,0,0,0,0,0,-1,1063,799,0,0
-154,225,0,0,0,0,0,0,0,0,0,-1,1070,799,0,0
-147,225,0,0,0,0,0,0,0,0,0,-1,1077,799,0,0
-140,225,0,0,0,0,0,0,0,0,0,-1,1084,799,0,0
-133,225,0,0,0,0,0,0,0,0,0,-1,1091,799,0,0
-126,225,0,0,0,0,0,0,0,0,0,-1,1098,799,0,0
-119,225,0,0,0,0,0,0,0,0,0,-1,1105,799,0,0
-112,225,0,0,0,0,0,0,0,0,0,-1,1112,799,0,0
-105,225,0,0,0,0,0,0,0,0,0,-1,1119,799,0,0
-98,225,0,0,0,0,0,0,0,0,0,-1,1126,799,0,0
-91,225,0,0,0,0,0,0,0,0,0,-1,1133,799,0,0
-84,225,0,0,0,0,0,0,0,0,0,-1,1140,799,0,0
-77,225,0,0,0,0,0,0,0,0,0,-1,1147,799,0,0
-70,225,0,0,0,0,0,0,0,0,0,-1,1154,799,0,0
-63,225,0,0,0,0,0,0,0,0,0,-1,1161,799,0,0
-56,225,0,0,0,0,0,0,0,0,0,-1,1168,799,0,0
-49,225,0,0,0,0,0,0,0,0,0,-1,1175,799,0,0
-42,225,0,0,0,0,0,0,0,0,0,-1,1182,799,0,0
-35,225,0,0,0,0,0,0,0,0,0,-1,1189,799,0,0
-28,225,0,0,0,0,0,0,0,0,0,-1,1196,799,0,0
-21,225,0,0,0,0,0,0,0,0,0,-1,1203,799,0,0
-14,225,0,0,0,0,0,0,0,0,0,-1,1210,799,0,0
-7,225,0,0,0,0,0,0,0,0,0,-1,1217,799,0,0
0,225,0,0,0,0,0,0,0,0,0,-1,1224,799,0,0
7,225,0,0,0,0,0,0,0,0,0,-1,1231,799,0,0
14,225,0,0,0,0,0,0,0,0,0,-1,1238,799,0,0
21,225,0,0,0,0,0,0,0,0,0,-1,1245,799,0,0
28,225,0,0,0,0,0,0,0,0,0,-1,1252,799,0,0
35,225,0,0,0,0,0,0,0,0,0,-1,1259,799,0,0
42,225,0,0,0,0,0,0,0,0,0,-1,1266,799,0,0
49,225,0,0,0,0,0,0,0,0,0,-1,1273,799,0,0
56,225,0,0,0,0,0,0,0,0,0,-1,1280,799,0,0
63,225,0,0,0,0,0,0,0,0,0,-1,1287,799,0,0
70,225,0,0,0,0,0,0,0,0,0,-1,1294,799,0,0
77,225,0,0,0,0,0,0,0,0,0,-1,1301,799,0,0
84,225,0,0,0,0,0,0,0,0,0,-1,1308,799,0,0
91,225,0,0,0,0,0,0,0,0,0,-1,1315,799,0,0
98,225,0,0,0,0,0,0,0,0,0,-1,1322,799,0,0
105,225,0,0,0,0,0,0,0,0,0,-1,1329,799,0,0
112,225,0,0,0,0,0,0,0,0,0,-1,1336,799,0,0
119,225,0,0,0,0,0,0,0,0,0,-1,1343,799,0,0
126,225,0,0,0,0,0,0,0,0,0,-1,1350,799,0,0
133,225,0,0,0,0,0,0,0,0,0,-1,1357,799,0,0
140,225,0,0,0,0,0,0,0,0,0,-1,1364,799,0,0
147,225,0,0,0,0,0,0,0,0,0,-1,1371,799,0,0
154,225,0,0,0,0,0,0,0,0,0,-1,1378,799,0,0
161,225,0,0,0,0,0,0,0,0,0,-1,1385,799,0,0
168,225,0,0,0,0,0,0,0,0,0,-1,1392,799,0,0
175,225,0,0,0,0,0,0,0,0,0,-1,1399,799,0,0
182,225,0,0,0,0,0,0,0,0,0,-1,1406,799,0,0
189,225,0,0,0,0,0,0,0,0,0,-1,1413,799,0,0
196,225,0,0,0,0,0,0,0,0,0,-1,1420,799,0,0
203,225,0,0,0,0,0,0,0,0,0,-1,1427,799,0,0
210,225,0,0,0,0,0,0,0,0,0,-1,1434,799,0,0
217,225,0,0,0,0,0,0,0,0,0,-1,1441,799,0,0
224,225,0,0,0,0,0,0,0,0,0,-1,1448,799,0,0
231,225,0,0,0,0,0,0,0,0,0,-1,1455,799,0,0
238,225,0,0,0,0,0,0,0,0,0,-1,1462,799,0,0
245,225,0,0,0,0,0,0,0,0,0,-1,1469,799,0,0
252,225,0,0,0,0,0,0,0,0,0,-1,1476,799,0,0
259,225,0,0,0,0,0,0,0,0,0,-1,1483,799,0,0
266,225,0,0,0,0,0,0,0,0,0,-1,1490,799,0,0
273,225,0,0,0,0,0,0,0,0,0,-1,1497,799,0,0
280,225,0,0,0,0,0,0,0,0,0,-1,1504,799,0,0
287,225,0,0,0,0,0,0,0,0,0,-1,1511,799,0,0
294,225,0,0,0,0,0,0,0,0,0,-1,1518,799,0,0
301,225,0,0,0,0,0,0,0,0,0,-1,1525,799,0,0
308,225,0,0,0,0,0,0,0,0,0,-1,1532,799,0,0
315,225,0,0,0,0,0,0,0,0,0,-1,1539,799,0,0
322,225,0,0,0,0,0,0,0,0,0,-1,1546,799,0,0
329,225,0,0,0,0,0,0,0,0,0,-1,1553,799,0,0
336,225,0,0,0,0,0,0,0,0,0,-1,1560,799,0,0
343,225,0,0,0,0,0,0,0,0,0,-1,1567,799,0,0
350,225,0,0,0,0,0,0,0,0,0,-1,1574,799,0,0
357,225,0,0,0,0,0,0,0,0,0,-1,1581,799,0,0
364,225,0,0,0,0,0,0,0,0,0,-1,1588,799,0,0
371,225,0,0,0,0,0,0,0,0,0,-1,1595,799,0,0
378,225,0,0,0,0,0,0,0,0,0,-1,1602,799,0,0
385,225,0,0,0,0,0,0,0,0,0,-1,1609,799,0,0
392,225,0,0,0,0,0,0,0,0,0,-1,1616,799,0,0
399,225,0,0,0,0,0,0,0,0,0,-1,1623,799,0,0
406,225,0,0,0,0,0,0,0,0,0,-1,1630,799,0,0
413,225,0,0,0,0,0,0,0,0,0,-1,1637,799,0,0
420,225,0,0,0,0,0,0,0,0,0,-1,1644,799,0,0
427,225,0,0,0,0,0,0,0,0,0,-1,1651,799,0,0
434,225,0,0,0,0,0,0,0,0,0,-1,1658,799,0,0
441,225,0,0,0,0,0,0,0,0,0,-1,1665,799,0,0
448,225,0,0,0,0,0,0,0,0,0,-1,1672,799,0,0
455,225,0,0,0,0,0,0,0,0,0,-1,1679,799,0,0
462,225,0,0,0,0,0,0,0,0,0,-1,1686,799,0,0
469,225,0,0,0,0,0,0,0,0,0,-1,1693,799,0,0
476,225,0,0,0,0,0,0,0,0,0,-1,1700,799,0,0
483,225,0,0,0,0,0,0,0,0,0,-1,1707,799,0,0
490,225,0,0,0,0,0,0,0,0,0,-1,1714,799,0,0
497,225,0,0,0,0,0,0,0,0,0,-1,1721,799,0,0
504,225,0,0,0,0,0,0,0,0,0,-1,1728,799,0,0
511,225,0,0,0,0,0,0,0,0,0,-1,1735,799,0,0
518,225,0,0,0,0,0,0,0,0,0,-1,1742,799,0,0
525,225,0,0,0,0,0,0,0,0,0,-1,1749,799,0,0
532,225,0,0,0,0,0,0,0,0,0,-1,1756,799,0,0
539,225,0,0,0,0,0,0,0,0,0,-1,1763,799,0,0
546,225,0,0,0,0,0,0,0,0,0,-1,1770,799,0,0
553,225,0,0,0,0,0,0,0,0,0,-1,1777,799,0,0
560,225,0,0,0,0,0,0,0,0,0,-1,1784,799,0,0
567,225,0,0,0,0,0,0,0,0,0,-1,1791,799,0,0
574,225,0,0,0,0,0,0,0,0,0,-1,1798,799,0,0
581,225,0,0,0,0,0,0,0,0,0,-1,1805,799,0,0
588,225,75.8645,2.71063,0.00326681,-0.00356242,-0.00388235,0.00502252,-0.00531813,-0.424705,0.00597099,0.0389031,1812,799,75.8645,-2.71064
595,225,75.9313,2.58533,0.00377915,-0.00461946,-0.00367055,0.00515721,-0.00599753,-0.359155,0.00644628,0.0363669,1819,799,75.9313,-2.58534
602,225,76.0206,2.47198,0.00350135,-0.00445733,-0.00314593,0.00459469,-0.00555066,-0.334481,0.00586608,0.0356985,1826,799,76.0206,-2.47201
609,225,76.0516,2.4126,0.00261564,-0.00393487,-0.00268777,0.00357729,-0.00489652,-0.343597,0.00491208,0.0330449,1833,799,76.0516,-2.41262
616,225,75.9869,2.39734,0.00210526,-0.00315626,-0.00208504,0.00283133,-0.00388232,-0.335094,0.00389193,0.0380822,1840,799,75.9869,-2.39735
623,225,75.9371,2.42438,0,0,0,0,0,0,0,-1,1847,799,75.9372,-2.4244
630,225,75.2485,2.28778,0,0,0,0,0,0,0,-1,1854,799,75.2485,-2.28778
637,225,55.6359,2.8064,0,0,0,0,0,0,0,-1,1861,799,55.6359,-2.80637
644,225,42.0298,2.46411,0,0,0,0,0,0,0,-1,1868,799,42.0298,-2.4641
651,225,27.9657,0.579529,0,0,0,0,0,0,0,-1,1875,799,27.9657,-0.579541
658,225,47.9047,-1.92926,0,0,0,0,0,0,0,-1,1882,799,47.9047,1.92927
665,225,47.541,-2.27985,0,0,0,0,0,0,0,-1,1889,799,47.5411,2.27983
672,225,55.3586,-2.79248,0,0,0,0,0,0,0,-1,1896,799,55.3587,2.7925
679,225,55.2382,-1.5191,-9.45309e-05,0.000589663,-0.000223301,0.000656092,-0.00016096,-1.28165,0.000499764,0.0459941,1903,799,55.2381,1.5191
686,225,55.2301,-0.583374,9.96722e-05,0.000442968,-0.00036831,0.000677664,-0.000135024,-1.00345,0.000502863,0.0129379,1910,799,55.2301,0.583369
693,225,55.2045,0.310303,0.00033455,0.000448936,-0.000635971,0.00103028,-0.000246794,-0.830243,0.000782205,0.0105617,1917,799,55.2044,-0.310331
700,225,55.153,1.20087,0.000172814,0.000541218,-0.00078428,0.00116264,-0.000448605,-0.900742,0.000960217,0.011871,1924,799,55.1529,-1.20086
707,225,55.0791,2.10144,-0.000173781,0.000741531,-0.000863066,0.00126077,-0.000693024,-1.02918,0.00114379,0.011901,1931,799,55.0791,-2.10145
714,225,55.0403,3.03412,-0.000783591,0.000971234,-0.000923538,0.0013677,-0.00118006,-1.16529,0.00147228,0.0127013,1938,799,55.0403,-3.03411
721,225,55.0339,3.93665,-0.00180942,0.00110766,-0.00101039,0.00142344,-0.0021252,-1.26788,0.00206212,0.0165707,1945,799,55.0339,-3.93666
728,225,54.8926,4.63745,-0.003358,0.00105182,-0.00117857,0.00134704,-0.00365322,-1.32536,0.0029875,0.0375144,1952,799,54.8926,-4.63745
735,225,55.0135,5.60773,0,0,0,0,0,0,0,-1,1959,799,55.0136,-5.60771
742,225,29.0922,3.2132,0,0,0,0,0,0,0,-1,1966,799,29.0921,-3.21322
749,225,29.9529,4.45538,0,0,0,0,0,0,0,-1,1973,799,29.9529,-4.45537
756,225,39.1752,11.743,0,0,0,0,0,0,0,-1,1980,799,39.1751,-11.743
763,225,39.9703,12.194,0,0,0,0,0,0,0,-1,1987,799,39.9703,-12.194
770,225,0,0,0,0,0,0,0,0,0,-1,1994,799,0,0
777,225,0,0,0,0,0,0,0,0,0,-1,2001,799,0,0
784,225,0,0,0,0,0,0,0,0,0,-1,2008,799,0,0
791,225,0,0,0,0,0,0,0,0,0,-1,2015,799,0,0
798,225,0,0,0,0,0,0,0,0,0,-1,2022,799,0,0
805,225,0,0,0,0,0,0,0,0,0,-1,2029,799,0,0
812,225,0,0,0,0,0,0,0,0,0,-1,2036,799,0,0
-700,218,0,0,0,0,0,0,0,0,0,-1,524,806,0,0
-693,218,0,0,0,0,0,0,0,0,0,-1,531,806,0,0
-686,218,0,0,0,0,0,0,0,0,0,-1,538,806,0,0
-679,218,0,0,0,0,0,0,0,0,0,-1,545,806,0,0
-672,218,0,0,0,0,0,0,0,0,0,-1,552,806,0,0
-665,218,0,0,0,0,0,0,0,0,0,-1,559,806,0,0
-658,218,0,0,0,0,0,0,0,0,0,-1,566,806,0,0
-651,218,-40.3778,5.1792,0,0,0,0,0,0,0,-1,573,806,-40.3778,-5.1792
-644,218,-40.7704,4.19714,0,0,0,0,0,0,0,-1,580,806,-40.7704,-4.19714
-637,218,-41.541,3.36328,0,0,0,0,0,0,0,-1,587,806,-41.541,-3.36326
-630,218,-42.1423,2.85565,0,0,0,0,0,0,0,-1,594,806,-42.1423,-2.85567
-623,218,-42.7292,2.59015,0,0,0,0,0,0,0,-1,601,806,-42.7292,-2.59015
-616,218,-20.0258,1.87585,0,0,0,0,0,0,0,-1,608,806,-20.0258,-1.87585
-609,218,-39.96,5.12952,0,0,0,0,0,0,0,-1,615,806,-39.96,-5.12952
-602,218,-40.1528,4.27332,-0.00586701,0.00228965,-0.00279104,0.00315325,-0.00673062,-1.27072,0.00582971,0.0441029,622,806,-40.1528,-4.27332
-595,218,-40.3392,3.50122,-0.0039579,0.00217754,-0.00251075,0.00307401,-0.00485437,-1.22785,0.00461576,0.0182026,629,806,-40.3392,-3.50123
-588,218,-40.3644,2.57764,-0.0022097,0.00238956,-0.00206874,0.00318315,-0.00300329,-1.2045,0.00357224,0.0118547,636,806,-40.3644,-2.57767
-581,218,-40.4012,1.69586,-0.000768989,0.00245761,-0.00148921,0.00303987,-0.00135125,-1.19809,0.00259695,0.0124317,643,806,-40.4013,-1.69588
-574,218,-40.4616,0.803284,0.00037021,0.00250515,-0.000876577,0.00281894,5.64196e-05,-1.22704,0.00186077,0.0113031,650,806,-40.4616,-0.803256
-567,218,-40.5125,-0.114136,0.00103184,0.00264868,-0.000303183,0.00270366,0.000976854,-1.3914,0.00158085,0.0188492,657,806,-40.5124,0.114139
-560,218,-40.5427,-1.01349,0.00136518,0.00288466,0.000292265,0.00293894,0.00131091,1.38718,0.00170009,0.0191925,664,806,-40.5427,1.0135
-553,218,-40.4771,-2.14233,0.00111233,0.00312566,0.000993064,0.00353305,0.000704939,1.1815,0.00215909,0.0207706,671,806,-40.4771,2.14234
-546,218,-40.714,-3.10748,2.03508e-05,0.00336886,0.00182533,0.00417149,-0.000782278,1.15653,0.0030751,0.0306471,678,806,-40.714,3.10751
-539,218,-40.8942,-3.82239,-0.00251267,0.00501116,0.00165931,0.00536085,-0.00286237,1.36309,0.00482017,0.0344162,685,806,-40.8942,3.82239
-532,218,-40.8301,-4.4317,0,0,0,0,0,0,0,-1,692,806,-40.8301,4.43172
-525,218,-29.3521,-3.64417,0,0,0,0,0,0,0,-1,699,806,-29.3521,3.64414
-518,218,-23.61,2.54181,0,0,0,0,0,0,0,-1,706,806,-23.61,-2.54183
-511,218,-41.0953,1.06879,0,0,0,0,0,0,0,-1,713,806,-41.0953,-1.06876
-504,218,-59.1388,0.682068,0,0,0,0,0,0,0,-1,720,806,-59.1388,-0.682072
-497,218,-59.4254,0.465515,0,0,0,0,0,0,0,-1,727,806,-59.4254,-0.465539
-490,218,-59.6271,0.299744,0,0,0,0,0,0,0,-1,734,806,-59.6272,-0.29974
-483,218,-59.6849,0.356323,0,0,0,0,0,0,0,-1,741,806,-59.6849,-0.356311
-476,218,-59.606,0.508362,0,0,0,0,0,0,0,-1,748,806,-59.606,-0.508337
-469,218,0,0,0,0,0,0,0,0,0,-1,755,806,0,0
-462,218,0,0,0,0,0,0,0,0,0,-1,762,806,0,0
-455,218,0,0,0,0,0,0,0,0,0,-1,769,806,0,0
-448,218,0,0,0,0,0,0,0,0,0,-1,776,806,0,0
-441,218,0,0,0,0,0,0,0,0,0,-1,783,806,0,0
-434,218,0,0,0,0,0,0,0,0,0,-1,790,806,0,0
-427,218,0,0,0,0,0,0,0,0,0,-1,797,806,0,0
-420,218,0,0,0,0,0,0,0,0,0,-1,804,806,0,0
-413,218,0,0,0,0,0,0,0,0,0,-1,811,806,0,0
-406,218,0,0,0,0,0,0,0,0,0,-1,818,806,0,0
-399,218,0,0,0,0,0,0,0,0,0,-1,825,806,0,0
-392,218,0,0,0,0,0,0,0,0,0,-1,832,806,0,0
-385,218,0,0,0,0,0,0,0,0,0,-1,839,806,0,0
-378,218,0,0,0,0,0,0,0,0,0,-1,846,806,0,0
-371,218,0,0,0,0,0,0,0,0,0,-1,853,806,0,0
-364,218,0,0,0,0,0,0,0,0,0,-1,860,806,0,0
-357,218,0,0,0,0,0,0,0,0,0,-1,867,806,0,0
-350,218,0,0,0,0,0,0,0,0,0,-1,874,806,0,0
-343,218,0,0,0,0,0,0,0,0,0,-1,881,806,0,0
-336,218,0,0,0,0,0,0,0,0,0,-1,888,806,0,0
-329,218,0,0,0,0,0,0,0,0,0,-1,895,806,0,0
-322,218,0,0,0,0,0,0,0,0,0,-1,902,806,0,0
-315,218,0,0,0,0,0,0,0,0,0,-1,909,806,0,0
-308,218,0,0,0,0,0,0,0,0,0,-1,916,806,0,0
-301,218,0,0,0,0,0,0,0,0,0,-1,923,806,0,0
-294,218,0,0,0,0,0,0,0,0,0,-1,930,806,0,0
-287,218,0,0,0,0,0,0,0,0,0,-1,937,806,0,0
-280,218,0,0,0,0,0,0,0,0,0,-1,944,806,0,0
-273,218,0,0,0,0,0,0,0,0,0,-1,951,806,0,0
-266,218,0,0,0,0,0,0,0,0,0,-1,958,806,0,0
-259,218,0,0,0,0,0,0,0,0,0,-1,965,806,0,0
-252,218,0,0,0,0,0,0,0,0,0,-1,972,806,0,0
-245,218,0,0,0,0,0,0,0,0,0,-1,979,806,0,0
-238,218,0,0,0,0,0,0,0,0,0,-1,986,806,0,0
-231,218,0,0,0,0,0,0,0,0,0,-1,993,806,0,0
-224,218,0,0,0,0,0,0,0,0,0,-1,1000,806,0,0
-217,218,0,0,0,0,0,0,0,0,0,-1,1007,806,0,0
-210,218,0,0,0,0,0,0,0,0,0,-1,1014,806,0,0
-203,218,0,0,0,0,0,0,0,0,0,-1,1021,806,0,0
-196,218,0,0,0,0,0,0,0,0,0,-1,1028,806,0,0
-189,218,0,0,0,0,0,0,0,0,0,-1,1035,806,0,0
-182,218,0,0,0,0,0,0,0,0,0,-1,1042,806,0,0
-175,218,0,0,0,0,0,0,0,0,0,-1,1049,806,0,0
-168,218,0,0,0,0,0,0,0,0,0,-1,1056,806,0,0
-161,218,0,0,0,0,0,0,0,0,0,-1,1063,806,0,0
-154,218,0,0,0,0,0,0,0,0,0,-1,1070,806,0,0
-147,218,0,0,0,0,0,0,0,0,0,-1,1077,806,0,0
-140,218,0,0,0,0,0,0,0,0,0,-1,1084,806,0,0
-133,218,0,0,0,0,0,0,0,0,0,-1,1091,806,0,0
-126,218,0,0,0,0,0,0,0,0,0,-1,1098,806,0,0
-119,218,0,0,0,0,0,0,0,0,0,-1,1105,806,0,0
-112,218,0,0,0,0,0,0,0,0,0,-1,1112,806,0,0
-105,218,0,0,0,0,0,0,0,0,0,-1,1119,806,0,0
-98,218,0,0,0,0,0,0,0,0,0,-1,1126,806,0,0
-91,218,0,0,0,0,0,0,0,0,0,-1,1133,806,0,0
-84,218,0,0,0,0,0,0,0,0,0,-1,1140,806,0,0
-77,218,0,0,0,0,0,0,0,0,0,-1,1147,806,0,0
-70,218,0,0,0,0,0,0,0,0,0,-1,1154,806,0,0
-63,218,0,0,0,0,0,0,0,0,0,-1,1161,806,0,0
-56,218,0,0,0,0,0,0,0,0,0,-1,1168,806,0,0
-49,218,0,0,0,0,0,0,0,0,0,-1,1175,806,0,0
-42,218,0,0,0,0,0,0,0,0,0,-1,1182,806,0,0
-35,218,0,0,0,0,0,0,0,0,0,-1,1189,806,0,0
-28,218,0,0,0,0,0,0,0,0,0,-1,1196,806,0,0
-21,218,0,0,0,0,0,0,0,0,0,-1,1203,806,0,0
-14,218,0,0,0,0,0,0,0,0,0,-1,1210,806,0,0
-7,218,0,0,0,0,0,0,0,0,0,-1,1217,806,0,0
0,218,0,0,0,0,0,0,0,0,0,-1,1224,806,0,0
7,218,0,0,0,0,0,0,0,0,0,-1,1231,806,0,0
14,218,0,0,0,0,0,0,0,0,0,-1,1238,806,0,0
21,218,0,0,0,0,0,0,0,0,0,-1,1245,806,0,0
28,218,0,0,0,0,0,0,0,0,0,-1,1252,806,0,0
35,218,0,0,0,0,0,0,0,0,0,-1,1259,806,0,0
42,218,0,0,0,0,0,0,0,0,0,-1,1266,806,0,0
49,218,0,0,0,0,0,0,0,0,0,-1,1273,806,0,0
56,218,0,0,0,0,0,0,0,0,0,-1,1280,806,0,0
63,218,0,0,0,0,0,0,0,0,0,-1,1287,806,0,0
70,218,0,0,0,0,0,0,0,0,0,-1,1294,806,0,0
77,218,0,0,0,0,0,0,0,0,0,-1,1301,806,0,0
84,218,0,0,0,0,0,0,0,0,0,-1,1308,806,0,0
91,218,0,0,0,0,0,0,0,0,0,-1,1315,806,0,0
98,218,0,0,0,0,0,0,0,0,0,-1,1322,806,0,0
105,218,0,0,0,0,0,0,0,0,0,-1,1329,806,0,0
112,218,0,0,0,0,0,0,0,0,0,-1,1336,806,0,0
119,218,0,0,0,0,0,0,0,0,0,-1,1343,806,0,0
126,218,0,0,0,0,0,0,0,0,0,-1,1350,806,0,0
133,218,0,0,0,0,0,0,0,0,0,-1,1357,806,0,0
140,218,0,0,0,0,0,0,0,0,0,-1,1364,806,0,0
147,218,0,0,0,0,0,0,0,0,0,-1,1371,806,0,0
154,218,0,0,0,0,0,0,0,0,0,-1,1378,806,0,0
161,218,0,0,0,0,0,0,0,0,0,-1,1385,806,0,0
168,218,0,0,0,0,0,0,0,0,0,-1,1392,806,0,0
175,218,0,0,0,0,0,0,0,0,0,-1,1399,806,0,0
182,218,0,0,0,0,0,0,0,0,0,-1,1406,806,0,0
189,218,0,0,0,0,0,0,0,0,0,-1,1413,806,0,0
196,218,0,0,0,0,0,0,0,0,0,-1,1420,806,0,0
203,218,0,0,0,0,0,0,0,0,0,-1,1427,806,0,0
210,218,0,0,0,0,0,0,0,0,0,-1,1434,806,0,0
217,218,0,0,0,0,0,0,0,0,0,-1,1441,806,0,0
224,218,0,0,0,0,0,0,0,0,0,-1,1448,806,0,0
231,218,0,0,0,0,0,0,0,0,0,-1,1455,806,0,0
238,218,0,0,0,0,0,0,0,0,0,-1,1462,806,0,0
245,218,0,0,0,0,0,0,0,0,0,-1,1469,806,0,0
252,218,0,0,0,0,0,0,0,0,0,-1,1476,806,0,0
259,218,0,0,0,0,0,0,0,0,0,-1,1483,806,0,0
266,218,0,0,0,0,0,0,0,0,0,-1,1490,806,0,0
273,218,0,0,0,0,0,0,0,0,0,-1,1497,806,0,0
280,218,0,0,0,0,0,0,0,0,0,-1,1504,806,0,0
287,218,0,0,0,0,0,0,0,0,0,-1,1511,806,0,0
294,218,0,0,0,0,0,0,0,0,0,-1,1518,806,0,0
301,218,0,0,0,0,0,0,0,0,0,-1,1525,806,0,0
308,218,0,0,0,0,0,0,0,0,0,-1,1532,806,0,0
315,218,0,0,0,0,0,0,0,0,0,-1,1539,806,0,0
322,218,0,0,0,0,0,0,0,0,0,-1,1546,806,0,0
329,218,0,0,0,0,0,0,0,0,0,-1,1553,806,0,0
336,218,0,0,0,0,0,0,0,0,0,-1,1560,806,0,0
343,218,0,0,0,0,0,0,0,0,0,-1,1567,806,0,0
350,218,0,0,0,0,0,0,0,0,0,-1,1574,806,0,0
357,218,0,0,0,0,0,0,0,0,0,-1,1581,806,0,0
364,218,0,0,0,0,0,0,0,0,0,-1,1588,806,0,0
371,218,0,0,0,0,0,0,0,0,0,-1,1595,806,0,0
378,218,0,0,0,0,0,0,0,0,0,-1,1602,806,0,0
385,218,0,0,0,0,0,0,0,0,0,-1,1609,806,0,0
392,218,0,0,0,0,0,0,0,0,0,-1,1616,806,0,0
399,218,0,0,0,0,0,0,0,0,0,-1,1623,806,0,0
406,218,0,0,0,0,0,0,0,0,0,-1,1630,806,0,0
413,218,0,0,0,0,0,0,0,0,0,-1,1637,806,0,0
420,218,0,0,0,0,0,0,0,0,0,-1,1644,806,0,0
427,218,0,0,0,0,0,0,0,0,0,-1,1651,806,0,0
434,218,0,0,0,0,0,0,0,0,0,-1,1658,806,0,0
441,218,0,0,0,0,0,0,0,0,0,-1,1665,806,0,0
448,218,0,0,0,0,0,0,0,0,0,-1,1672,806,0,0
455,218,0,0,0,0,0,0,0,0,0,-1,1679,806,0,0
462,218,0,0,0,0,0,0,0,0,0,-1,1686,806,0,0
469,218,0,0,0,0,0,0,0,0,0,-1,1693,806,0,0
476,218,0,0,0,0,0,0,0,0,0,-1,1700,806,0,0
483,218,0,0,0,0,0,0,0,0,0,-1,1707,806,0,0
490,218,0,0,0,0,0,0,0,0,0,-1,1714,806,0,0
497,218,0,0,0,0,0,0,0,0,0,-1,1721,806,0,0
504,218,0,0,0,0,0,0,0,0,0,-1,1728,806,0,0
511,218,0,0,0,0,0,0,0,0,0,-1,1735,806,0,0
518,218,0,0,0,0,0,0,0,0,0,-1,1742,806,0,0
525,218,0,0,0,0,0,0,0,0,0,-1,1749,806,0,0
532,218,0,0,0,0,0,0,0,0,0,-1,1756,806,0,0
539,218,0,0,0,0,0,0,0,0,0,-1,1763,806,0,0
546,218,0,0,0,0,0,0,0,0,0,-1,1770,806,0,0
553,218,0,0,0,0,0,0,0,0,0,-1,1777,806,0,0
560,218,0,0,0,0,0,0,0,0,0,-1,1784,806,0,0
567,218,0,0,0,0,0,0,0,0,0,-1,1791,806,0,0
574,218,0,0,0,0,0,0,0,0,0,-1,1798,806,0,0
581,218,0,0,0,0,0,0,0,0,0,-1,1805,806,0,0
588,218,0,0,0,0,0,0,0,0,0,-1,1812,806,0,0
595,218,75.9718,2.64038,0.0033041,-0.00454636,-0.00315445,0.00441454,-0.0056568,-0.338476,0.00582941,0.0388504,1819,806,75.9718,-2.64037
602,218,75.9951,2.54224,0.00299561,-0.00456904,-0.00285716,0.00395348,-0.0055269,-0.323474,0.00549857,0.0335086,1826,806,75.9951,-2.54223
609,218,76.0134,2.5014,0.00208154,-0.00407602,-0.00260518,0.00303585,-0.00503034,-0.351134,0.00470424,0.0285472,1833,806,76.0134,-2.50141
616,218,75.9921,2.466,0.00143727,-0.00330502,-0.00212081,0.00224735,-0.0041151,-0.364863,0.00372575,0.0297108,1840,806,75.9921,-2.466
623,218,75.9552,2.43231,0.00105932,-0.00268889,-0.00165155,0.00168319,-0.00331276,-0.361179,0.00293512,0.0374511,1847,806,75.9552,-2.4323
630,218,75.8571,2.41504,0,0,0,0,0,0,0,-1,1854,806,75.8571,-2.41505
637,218,75.0532,2.44513,0,0,0,0,0,0,0,-1,1861,806,75.0532,-2.44515
644,218,52.4042,2.47949,0,0,0,0,0,0,0,-1,1868,806,52.4041,-2.47949
651,218,41.7338,1.99164,0,0,0,0,0,0,0,-1,1875,806,41.7338,-1.99162
658,218,28.41,0.514954,0,0,0,0,0,0,0,-1,1882,806,28.41,-0.514983
665,218,52.1176,-2.84406,0,0,0,0,0,0,0,-1,1889,806,52.1176,2.84404
672,218,52.8506,-2.1853,0,0,0,0,0,0,0,-1,1896,806,52.8506,2.18533
679,218,56.0914,-1.4837,0,0,0,0,0,0,0,-1,1903,806,56.0915,1.48368
686,218,56.1295,-0.542236,-0.000302503,0.000275096,-0.000562108,0.000618254,-0.000645661,-1.0227,0.000729779,0.0265265,1910,806,56.1295,0.542218
693,218,56.1228,0.366272,4.25892e-05,0.000262408,-0.000836853,0.000996539,-0.000691541,-0.850693,0.000979902,0.0123805,1917,806,56.1228,-0.366277
700,218,56.0504,1.25403,-4.09785e-05,0.000299427,-0.00097869,0.0011226,-0.000864155,-0.871491,0.00115029,0.0102122,1924,806,56.0504,-1.25403
707,218,55.9799,2.14661,-0.000424689,0.000430285,-0.00104494,0.0011318,-0.0011262,-0.979563,0.00130366,0.00820136,1931,806,55.9799,-2.14663
714,218,55.9512,3.06268,-0.00107713,0.000597549,-0.00108426,0.00113016,-0.00160974,-1.1142,0.00158994,0.010864,1938,806,55.9511,-3.06266
721,218,55.9319,3.9566,-0.00218063,0.000644639,-0.00118009,0.0010727,-0.00260869,-1.22282,0.00218624,0.0147394,1945,806,55.9319,-3.95659
728,218,55.8834,4.92322,-0.00381545,0.000496971,-0.00137305,0.000897027,-0.0042155,-1.28728,0.00315218,0.0305071,1952,806,55.8834,-4.92322
735,218,56.0116,6.00867,0,0,0,0,0,0,0,-1,1959,806,56.0116,-6.00865
742,218,47.8733,6.84155,0,0,0,0,0,0,0,-1,1966,806,47.8733,-6.84158
749,218,42.0249,6.64703,0,0,0,0,0,0,0,-1,1973,806,42.0249,-6.64703
756,218,52.5194,6.16064,0,0,0,0,0,0,0,-1,1980,806,52.5194,-6.16066
763,218,44.9403,8.54736,0,0,0,0,0,0,0,-1,1987,806,44.9403,-8.54737
770,218,0,0,0,0,0,0,0,0,0,-1,1994,806,0,0
777,218,0,0,0,0,0,0,0,0,0,-1,2001,806,0,0
784,218,0,0,0,0,0,0,0,0,0,-1,2008,806,0,0
791,218,0,0,0,0,0,0,0,0,0,-1,2015,806,0,0
798,218,0,0,0,0,0,0,0,0,0,-1,2022,806,0,0
805,218,0,0,0,0,0,0,0,0,0,-1,2029,806,0,0
812,218,0,0,0,0,0,0,0,0,0,-1,2036,806,0,0
-700,211,0,0,0,0,0,0,0,0,0,-1,524,813,0,0
-693,211,0,0,0,0,0,0,0,0,0,-1,531,813,0,0
-686,211,0,0,0,0,0,0,0,0,0,-1,538,813,0,0
-679,211,0,0,0,0,0,0,0,0,0,-1,545,813,0,0
-672,211,0,0,0,0,0,0,0,0,0,-1,552,813,0,0
-665,211,0,0,0,0,0,0,0,0,0,-1,559,813,0,0
-658,211,0,0,0,0,0,0,0,0,0,-1,566,813,0,0
-651,211,-40.2495,5.20386,0,0,0,0,0,0,0,-1,573,813,-40.2494,-5.20384
-644,211,-40.6288,4.32092,0,0,0,0,0,0,0,-1,580,813,-40.6288,-4.3209
-637,211,-41.3664,3.51849,0,0,0,0,0,0,0,-1,587,813,-41.3664,-3.51847
-630,211,-41.9262,2.94977,0,0,0,0,0,0,0,-1,594,813,-41.9262,-2.94975
-623,211,-42.5012,2.62903,0,0,0,0,0,0,0,-1,601,813,-42.5011,-2.629
-616,211,-40.8027,6.20734,0,0,0,0,0,0,0,-1,608,813,-40.8027,-6.20732
-609,211,-40.8706,5.29327,-0.00413619,0.00101971,-0.00136592,0.00135922,-0.0044757,-1.32718,0.00352532,0.0430546,615,813,-40.8706,-5.29327
-602,211,-41.0594,4.41553,-0.0034239,0.00137308,-0.00126938,0.00168828,-0.00373909,-1.32741,0.00320719,0.0235748,622,813,-41.0595,-4.41552
-595,211,-41.2326,3.53833,-0.00223154,0.00153926,-0.00127238,0.00192843,-0.00262071,-1.27397,0.00263657,0.011599,629,813,-41.2326,-3.53834
-588,211,-41.2898,2.63214,-0.00099222,0.00189357,-0.00110021,0.00226518,-0.00136382,-1.24507,0.00211664,0.0119039,636,813,-41.2898,-2.63215
-581,211,-41.321,1.75372,0.000168259,0.00212559,-0.00076408,0.00238854,-9.46879e-05,-1.23935,0.00162484,0.0127397,643,813,-41.3211,-1.75374
-574,211,-41.3745,0.872742,0.00116493,0.00238707,-0.000392018,0.002502,0.00104999,-1.2856,0.00145074,0.0145015,650,813,-41.3745,-0.872712
-567,211,-41.4408,-0.0335083,0.00178489,0.0027699,-1.49027e-05,0.00277012,0.00178467,-1.55567,0.00162137,0.0229899,657,813,-41.4408,0.033485
-560,211,-41.4669,-1.01794,0.00218099,0.00318307,0.000449314,0.00335503,0.00200903,1.20529,0.00194959,0.0411674,664,813,-41.4669,1.01796
-553,211,-41.5312,-2.16614,0,0,0,0,0,0,0,-1,671,813,-41.5312,2.16616
-546,211,-41.5198,-3.39215,0,0,0,0,0,0,0,-1,678,813,-41.5198,3.39216
-539,211,-41.7512,-3.71283,0,0,0,0,0,0,0,-1,685,813,-41.7511,3.71284
-532,211,-41.7032,-4.40015,0,0,0,0,0,0,0,-1,692,813,-41.7033,4.40015
-525,211,-14.3009,2.3233,0,0,0,0,0,0,0,-1,699,813,-14.3009,-2.3233
-518,211,-34.952,1.93011,0,0,0,0,0,0,0,-1,706,813,-34.952,-1.9301
-511,211,-53.0876,0.677734,0,0,0,0,0,0,0,-1,713,813,-53.0876,-0.677737
-504,211,-59.1596,0.743164,0,0,0,0,0,0,0,-1,720,813,-59.1596,-0.743192
-497,211,-59.421,0.517334,0,0,0,0,0,0,0,-1,727,813,-59.421,-0.517344
-490,211,-59.7004,0.364807,0,0,0,0,0,0,0,-1,734,813,-59.7004,-0.364796
-483,211,-59.7394,0.45752,0,0,0,0,0,0,0,-1,741,813,-59.7395,-0.4575
-476,211,-59.7159,0.563477,0,0,0,0,0,0,0,-1,748,813,-59.7159,-0.563484
-469,211,0,0,0,0,0,0,0,0,0,-1,755,813,0,0
-462,211,0,0,0,0,0,0,0,0,0,-1,762,813,0,0
-455,211,0,0,0,0,0,0,0,0,0,-1,769,813,0,0
-448,211,0,0,0,0,0,0,0,0,0,-1,776,813,0,0
-441,211,0,0,0,0,0,0,0,0,0,-1,783,813,0,0
-434,211,0,0,0,0,0,0,0,0,0,-1,790,813,0,0
-427,211,0,0,0,0,0,0,0,0,0,-1,797,813,0,0
-420,211,0,0,0,0,0,0,0,0,0,-1,804,813,0,0
-413,211,0,0,0,0,0,0,0,0,0,-1,811,813,0,0
-406,211,0,0,0,0,0,0,0,0,0,-1,818,813,0,0
-399,211,0,0,0,0,0,0,0,0,0,-1,825,813,0,0
-392,211,0,0,0,0,0,0,0,0,0,-1,832,813,0,0
-385,211,0,0,0,0,0,0,0,0,0,-1,839,813,0,0
-378,211,0,0,0,0,0,0,0,0,0,-1,846,813,0,0
-371,211,0,0,0,0,0,0,0,0,0,-1,853,813,0,0
-364,211,0,0,0,0,0,0,0,0,0,-1,860,813,0,0
-357,211,0,0,0,0,0,0,0,0,0,-1,867,813,0,0
-350,211,0,0,0,0,0,0,0,0,0,-1,874,813,0,0
-343,211,0,0,0,0,0,0,0,0,0,-1,881,813,0,0
-336,211,0,0,0,0,0,0,0,0,0,-1,888,813,0,0
-329,211,0,0,0,0,0,0,0,0,0,-1,895,813,0,0
-322,211,0,0,0,0,0,0,0,0,0,-1,902,813,0,0
-315,211,0,0,0,0,0,0,0,0,0,-1,909,813,0,0
-308,211,0,0,0,0,0,0,0,0,0,-1,916,813,0,0
-301,211,0,0,0,0,0,0,0,0,0,-1,923,813,0,0
-294,211,0,0,0,0,0,0,0,0,0,-1,930,813,0,0
-287,211,0,0,0,0,0,0,0,0,0,-1,937,813,0,0
-280,211,0,0,0,0,0,0,0,0,0,-1,944,813,0,0
-273,211,0,0,0,0,0,0,0,0,0,-1,951,813,0,0
-266,211,0,0,0,0,0,0,0,0,0,-1,958,813,0,0
-259,211,0,0,0,0,0,0,0,0,0,-1,965,813,0,0
-252,211,0,0,0,0,0,0,0,0,0,-1,972,813,0,0
-245,211,0,0,0,0,0,0,0,0,0,-1,979,813,0,0
-238,211,0,0,0,0,0,0,0,0,0,-1,986,813,0,0
-231,211,0,0,0,0,0,0,0,0,0,-1,993,813,0,0
-224,211,0,0,0,0,0,0,0,0,0,-1,1000,813,0,0
-217,211,0,0,0,0,0,0,0,0,0,-1,1007,813,0,0
-210,211,0,0,0,0,0,0,0,0,0,-1,1014,813,0,0
-203,211,0,0,0,0,0,0,0,0,0,-1,1021,813,0,0
-196,211,0,0,0,0,0,0,0,0,0,-1,1028,813,0,0
-189,211,0,0,0,0,0,0,0,0,0,-1,1035,813,0,0
-182,211,0,0,0,0,0,0,0,0,0,-1,1042,813,0,0
-175,211,0,0,0,0,0,0,0,0,0,-1,1049,813,0,0
-168,211,0,0,0,0,0,0,0,0,0,-1,1056,813,0,0
-161,211,0,0,0,0,0,0,0,0,0,-1,1063,813,0,0
-154,211,0,0,0,0,0,0,0,0,0,-1,1070,813,0,0
-147,211,0,0,0,0,0,0,0,0,0,-1,1077,813,0,0
-140,211,0,0,0,0,0,0,0,0,0,-1,1084,813,0,0
-133,211,0,0,0,0,0,0,0,0,0,-1,1091,813,0,0
-126,211,0,0,0,0,0,0,0,0,0,-1,1098,813,0,0
-119,211,0,0,0,0,0,0,0,0,0,-1,1105,813,0,0
-112,211,0,0,0,0,0,0,0,0,0,-1,1112,813,0,0
-105,211,0,0,0,0,0,0,0,0,0,-1,1119,813,0,0
-98,211,0,0,0,0,0,0,0,0,0,-1,1126,813,0,0
-91,211,0,0,0,0,0,0,0,0,0,-1,1133,813,0,0
-84,211,0,0,0,0,0,0,0,0,0,-1,1140,813,0,0
-77,211,0,0,0,0,0,0,0,0,0,-1,1147,813,0,0
-70,211,0,0,0,0,0,0,0,0,0,-1,1154,813,0,0
-63,211,0,0,0,0,0,0,0,0,0,-1,1161,813,0,0
-56,211,0,0,0,0,0,0,0,0,0,-1,1168,813,0,0
-49,211,0,0,0,0,0,0,0,0,0,-1,1175,813,0,0
-42,211,0,0,0,0,0,0,0,0,0,-1,1182,813,0,0
-35,211,0,0,0,0,0,0,0,0,0,-1,1189,813,0,0
-28,211,0,0,0,0,0,0,0,0,0,-1,1196,813,0,0
-21,211,0,0,0,0,0,0,0,0,0,-1,1203,813,0,0
-14,211,0,0,0,0,0,0,0,0,0,-1,1210,813,0,0
-7,211,0,0,0,0,0,0,0,0,0,-1,1217,813,0,0
0,211,0,0,0,0,0,0,0,0,0,-1,1224,813,0,0
7,211,0,0,0,0,0,0,0,0,0,-1,1231,813,0,0
14,211,0,0,0,0,0,0,0,0,0,-1,1238,813,0,0
21,211,0,0,0,0,0,0,0,0,0,-1,1245,813,0,0
28,211,0,0,0,0,0,0,0,0,0,-1,1252,813,0,0
35,211,0,0,0,0,0,0,0,0,0,-1,1259,813,0,0
42,211,0,0,0,0,0,0,0,0,0,-1,1266,813,0,0
49,211,0,0,0,0,0,0,0,0,0,-1,1273,813,0,0
56,211,0,0,0,0,0,0,0,0,0,-1,1280,813,0,0
63,211,0,0,0,0,0,0,0,0,0,-1,1287,813,0,0
70,211,0,0,0,0,0,0,0,0,0,-1,1294,813,0,0
77,211,0,0,0,0,0,0,0,0,0,-1,1301,813,0,0
84,211,0,0,0,0,0,0,0,0,0,-1,1308,813,0,0
91,211,0,0,0,0,0,0,0,0,0,-1,1315,813,0,0
98,211,0,0,0,0,0,0,0,0,0,-1,1322,813,0,0
105,211,0,0,0,0,0,0,0,0,0,-1,1329,813,0,0
112,211,0,0,0,0,0,0,0,0,0,-1,1336,813,0,0
119,211,0,0,0,0,0,0,0,0,0,-1,1343,813,0,0
126,211,0,0,0,0,0,0,0,0,0,-1,1350,813,0,0
133,211,0,0,0,0,0,0,0,0,0,-1,1357,813,0,0
140,211,0,0,0,0,0,0,0,0,0,-1,1364,813,0,0
147,211,0,0,0,0,0,0,0,0,0,-1,1371,813,0,0
154,211,0,0,0,0,0,0,0,0,0,-1,1378,813,0,0
161,211,0,0,0,0,0,0,0,0,0,-1,1385,813,0,0
168,211,0,0,0,0,0,0,0,0,0,-1,1392,813,0,0
175,211,0,0,0,0,0,0,0,0,0,-1,1399,813,0,0
182,211,0,0,0,0,0,0,0,0,0,-1,1406,813,0,0
189,211,0,0,0,0,0,0,0,0,0,-1,1413,813,0,0
196,211,0,0,0,0,0,0,0,0,0,-1,1420,813,0,0
203,211,0,0,0,0,0,0,0,0,0,-1,1427,813,0,0
210,211,0,0,0,0,0,0,0,0,0,-1,1434,813,0,0
217,211,0,0,0,0,0,0,0,0,0,-1,1441,813,0,0
224,211,0,0,0,0,0,0,0,0,0,-1,1448,813,0,0
231,211,0,0,0,0,0,0,0,0,0,-1,1455,813,0,0
238,211,0,0,0,0,0,0,0,0,0,-1,1462,813,0,0
245,211,0,0,0,0,0,0,0,0,0,-1,1469,813,0,0
252,211,0,0,0,0,0,0,0,0,0,-1,1476,813,0,0
259,211,0,0,0,0,0,0,0,0,0,-1,1483,813,0,0
266,211,0,0,0,0,0,0,0,0,0,-1,1490,813,0,0
273,211,0,0,0,0,0,0,0,0,0,-1,1497,813,0,0
280,211,0,0,0,0,0,0,0,0,0,-1,1504,813,0,0
287,211,0,0,0,0,0,0,0,0,0,-1,1511,813,0,0
294,211,0,0,0,0,0,0,0,0,0,-1,1518,813,0,0
301,211,0,0,0,0,0,0,0,0,0,-1,1525,813,0,0
308,211,0,0,0,0,0,0,0,0,0,-1,1532,813,0,0
315,211,0,0,0,0,0,0,0,0,0,-1,1539,813,0,0
322,211,0,0,0,0,0,0,0,0,0,-1,1546,813,0,0
329,211,0,0,0,0,0,0,0,0,0,-1,1553,813,0,0
336,211,0,0,0,0,0,0,0,0,0,-1,1560,813,0,0
343,211,0,0,0,0,0,0,0,0,0,-1,1567,813,0,0
350,211,0,0,0,0,0,0,0,0,0,-1,1574,813,0,0
357,211,0,0,0,0,0,0,0,0,0,-1,1581,813,0,0
364,211,0,0,0,0,0,0,0,0,0,-1,1588,813,0,0
371,211,0,0,0,0,0,0,0,0,0,-1,1595,813,0,0
378,211,0,0,0,0,0,0,0,0,0,-1,1602,813,0,0
385,211,0,0,0,0,0,0,0,0,0,-1,1609,813,0,0
392,211,0,0,0,0,0,0,0,0,0,-1,1616,813,0,0
399,211,0,0,0,0,0,0,0,0,0,-1,1623,813,0,0
406,211,0,0,0,0,0,0,0,0,0,-1,1630,813,0,0
413,211,0,0,0,0,0,0,0,0,0,-1,1637,813,0,0
420,211,0,0,0,0,0,0,0,0,0,-1,1644,813,0,0
427,211,0,0,0,0,0,0,0,0,0,-1,1651,813,0,0
434,211,0,0,0,0,0,0,0,0,0,-1,1658,813,0,0
441,211,0,0,0,0,0,0,0,0,0,-1,1665,813,0,0
448,211,0,0,0,0,0,0,0,0,0,-1,1672,813,0,0
455,211,0,0,0,0,0,0,0,0,0,-1,1679,813,0,0
462,211,0,0,0,0,0,0,0,0,0,-1,1686,813,0,0
469,211,0,0,0,0,0,0,0,0,0,-1,1693,813,0,0
476,211,0,0,0,0,0,0,0,0,0,-1,1700,813,0,0
483,211,0,0,0,0,0,0,0,0,0,-1,1707,813,0,0
490,211,0,0,0,0,0,0,0,0,0,-1,1714,813,0,0
497,211,0,0,0,0,0,0,0,0,0,-1,1721,813,0,0
504,211,0,0,0,0,0,0,0,0,0,-1,1728,813,0,0
511,211,0,0,0,0,0,0,0,0,0,-1,1735,813,0,0
518,211,0,0,0,0,0,0,0,0,0,-1,1742,813,0,0
525,211,0,0,0,0,0,0,0,0,0,-1,1749,813,0,0
532,211,0,0,0,0,0,0,0,0,0,-1,1756,813,0,0
539,211,0,0,0,0,0,0,0,0,0,-1,1763,813,0,0
546,211,0,0,0,0,0,0,0,0,0,-1,1770,813,0,0
553,211,0,0,0,0,0,0,0,0,0,-1,1777,813,0,0
560,211,0,0,0,0,0,0,0,0,0,-1,1784,813,0,0
567,211,0,0,0,0,0,0,0,0,0,-1,1791,813,0,0
574,211,0,0,0,0,0,0,0,0,0,-1,1798,813,0,0
581,211,0,0,0,0,0,0,0,0,0,-1,1805,813,0,0
588,211,0,0,0,0,0,0,0,0,0,-1,1812,813,0,0
595,211,76.0664,2.52386,0.00342033,-0.00410509,-0.0025924,0.00422693,-0.00491168,-0.301643,0.00528111,0.038806,1819,813,76.0664,-2.52386
602,211,76.0026,2.46838,0.00309508,-0.00435187,-0.00240118,0.00380217,-0.00505896,-0.286382,0.0051331,0.0360528,1826,813,76.0025,-2.46836
609,211,75.9502,2.49078,0.00218786,-0.00396549,-0.00226055,0.00292903,-0.00470667,-0.316831,0.00444812,0.0361586,1833,813,75.9502,-2.49078
616,211,75.9512,2.47998,0.00125291,-0.00319417,-0.00194146,0.00198122,-0.00392247,-0.358888,0.00346938,0.0304432,1840,813,75.9512,-2.47996
623,211,75.96,2.46716,0.000706007,-0.002433,-0.00154295,0.00133742,-0.00306442,-0.388434,0.00260579,0.0314772,1847,813,75.96,-2.46715
630,211,75.951,2.42938,0.000595626,-0.00155834,-0.00105497,0.00102624,-0.00198896,-0.387536,0.00177016,0.0383339,1854,813,75.951,-2.42938
637,211,75.918,2.52472,0,0,0,0,0,0,0,-1,1861,813,75.918,-2.52474
644,211,66.401,2.3595,0,0,0,0,0,0,0,-1,1868,813,66.401,-2.35952
651,211,48.5043,2.95557,0,0,0,0,0,0,0,-1,1875,813,48.5043,-2.95558
658,211,27.7909,1.52234,0,0,0,0,0,0,0,-1,1882,813,27.7909,-1.52234
665,211,42.2053,-0.745605,0,0,0,0,0,0,0,-1,1889,813,42.2054,0.745605
672,211,53.189,-1.99603,0,0,0,0,0,0,0,-1,1896,813,53.189,1.99603
679,211,56.9824,-1.26404,0,0,0,0,0,0,0,-1,1903,813,56.9824,1.26401
686,211,57.0797,-0.515381,-0.000816705,0.000425765,-0.000794727,0.000813255,-0.00120419,-1.11714,0.00117204,0.0315217,1910,813,57.0797,0.515391
693,211,57.0059,0.378235,-0.000503677,0.00031163,-0.00107736,0.00105588,-0.00124793,-0.966264,0.00133164,0.0153186,1917,813,57.0058,-0.378239
700,211,56.8824,1.25958,-0.000537736,0.000213286,-0.00119891,0.00109411,-0.00141856,-0.937164,0.00145472,0.0150778,1924,813,56.8824,-1.25959
707,211,56.8917,2.21075,-0.00092672,0.00021827,-0.00125116,0.0010217,-0.00173015,-0.999964,0.00160623,0.0216995,1931,813,56.8917,-2.21078
714,211,56.8878,3.14398,-0.00155725,0.000299832,-0.00126583,0.000941166,-0.00219858,-1.10184,0.00186056,0.0232681,1938,813,56.8878,-3.14398
721,211,56.8546,3.99445,-0.00264189,0.000278581,-0.00136273,0.000815676,-0.00317898,-1.19536,0.00243715,0.0182334,1945,813,56.8546,-3.99446
728,211,56.8165,4.90485,-0.00423911,6.50432e-05,-0.00157861,0.000581942,-0.00475601,-1.25436,0.00338139,0.0201937,1952,813,56.8165,-4.90482
735,211,56.842,5.88489,-0.00655784,-0.000328739,-0.00198686,0.000251034,-0.00713762,-1.28688,0.00484426,0.0392949,1959,813,56.842,-5.8849
742,211,57.0272,6.83295,0,0,0,0,0,0,0,-1,1966,813,57.0272,-6.83296
749,211,56.4197,7.422,0,0,0,0,0,0,0,-1,1973,813,56.4197,-7.42201
756,211,53.679,6.68317,0,0,0,0,0,0,0,-1,1980,813,53.6789,-6.68316
763,211,53.2612,7.49786,0,0,0,0,0,0,0,-1,1987,813,53.2612,-7.49788
770,211,46.2148,12.9099,0,0,0,0,0,0,0,-1,1994,813,46.2148,-12.9099
777,211,0,0,0,0,0,0,0,0,0,-1,2001,813,0,0
784,211,0,0,0,0,0,0,0,0,0,-1,2008,813,0,0
791,211,0,0,0,0,0,0,0,0,0,-1,2015,813,0,0
798,211,0,0,0,0,0,0,0,0,0,-1,2022,813,0,0
805,211,0,0,0,0,0,0,0,0,0,-1,2029,813,0,0
812,211,0,0,0,0,0,0,0,0,0,-1,2036,813,0,0
-700,204,0,0,0,0,0,0,0,0,0,-1,524,820,0,0
-693,204,0,0,0,0,0,0,0,0,0,-1,531,820,0,0
-686,204,0,0,0,0,0,0,0,0,0,-1,538,820,0,0
-679,204,0,0,0,0,0,0,0,0,0,-1,545,820,0,0
-672,204,0,0,0,0,0,0,0,0,0,-1,552,820,0,0
-665,204,0,0,0,0,0,0,0,0,0,-1,559,820,0,0
-658,204,0,0,0,0,0,0,0,0,0,-1,566,820,0,0
-651,204,-40.064,5.25806,0,0,0,0,0,0,0,-1,573,820,-40.064,-5.25806
-644,204,-40.4117,4.54321,0,0,0,0,0,0,0,-1,580,820,-40.4117,-4.54323
-637,204,-40.8671,3.93817,0,0,0,0,0,0,0,-1,587,820,-40.8671,-3.93819
-630,204,-41.7101,3.04382,0,0,0,0,0,0,0,-1,594,820,-41.7101,-3.04383
-623,204,-41.8597,2.11951,0,0,0,0,0,0,0,-1,601,820,-41.8597,-2.11951
-616,204,-41.9003,6.40265,0,0,0,0,0,0,0,-1,608,820,-41.9003,-6.40268
-609,204,-41.8973,5.43805,-0.00149786,0.000212938,-0.000209017,0.000238104,-0.00152303,-1.45097,0.00110332,0.0404179,615,820,-41.8973,-5.43802
-602,204,-42.0327,4.49298,-0.00148537,0.000728303,-0.000272759,0.000761416,-0.00151848,-1.44999,0.00134027,0.019682,622,820,-42.0327,-4.49295
-595,204,-42.1428,3.59601,-0.000933538,0.0010979,-0.00038151,0.00116718,-0.00100282,-1.39114,0.00125405,0.0164403,629,820,-42.1428,-3.59601
-588,204,-42.215,2.68414,-0.000191039,0.00153484,-0.00034144,0.00159993,-0.000256133,-1.38241,0.00116145,0.0139329,636,820,-42.215,-2.68412
-581,204,-42.2486,1.79327,0.00065963,0.00187431,-0.000151625,0.00189295,0.000640989,-1.44847,0.00111171,0.0134404,643,820,-42.2486,-1.79327
-574,204,-42.2633,0.918396,0.00149828,0.00228434,6.7571e-05,0.0022901,0.00149252,1.48567,0.00134233,0.0160339,650,820,-42.2633,-0.918401
-567,204,-42.3107,0.038208,0.00216356,0.00285165,0.00032611,0.00298165,0.00203356,1.19148,0.00175907,0.0169503,657,820,-42.3107,-0.038229
-560,204,-42.1558,-0.982239,0.00278675,0.00333005,0.00069727,0.00380672,0.00231008,0.971151,0.00221447,0.0380292,664,820,-42.1558,0.982265
-553,204,-42.4702,-1.90778,0,0,0,0,0,0,0,-1,671,820,-42.4701,1.9078
-546,204,-42.5779,-2.8291,0,0,0,0,0,0,0,-1,678,820,-42.5779,2.82907
-539,204,-42.5875,-3.43481,0,0,0,0,0,0,0,-1,685,820,-42.5875,3.43481
-532,204,-30.0565,-3.29065,0,0,0,0,0,0,0,-1,692,820,-30.0565,3.29063
-525,204,-25.7137,1.52496,0,0,0,0,0,0,0,-1,699,820,-25.7137,-1.52496
-518,204,-43.4591,0.383972,0,0,0,0,0,0,0,-1,706,820,-43.4591,-0.383942
-511,204,-59.0981,0.594971,0,0,0,0,0,0,0,-1,713,820,-59.0982,-0.594998
-504,204,-59.2518,0.64801,0,0,0,0,0,0,0,-1,720,820,-59.2518,-0.648028
-497,204,-59.432,0.530945,0,0,0,0,0,0,0,-1,727,820,-59.432,-0.530964
-490,204,-59.5638,0.486816,0,0,0,0,0,0,0,-1,734,820,-59.5638,-0.486845
-483,204,-59.5609,0.517273,0,0,0,0,0,0,0,-1,741,820,-59.5609,-0.51726
-476,204,0,0,0,0,0,0,0,0,0,-1,748,820,0,0
-469,204,0,0,0,0,0,0,0,0,0,-1,755,820,0,0
-462,204,0,0,0,0,0,0,0,0,0,-1,762,820,0,0
-455,204,0,0,0,0,0,0,0,0,0,-1,769,820,0,0
-448,204,0,0,0,0,0,0,0,0,0,-1,776,820,0,0
-441,204,0,0,0,0,0,0,0,0,0,-1,783,820,0,0
-434,204,0,0,0,0,0,0,0,0,0,-1,790,820,0,0
-427,204,0,0,0,0,0,0,0,0,0,-1,797,820,0,0
-420,204,0,0,0,0,0,0,0,0,0,-1,804,820,0,0
-413,204,0,0,0,0,0,0,0,0,0,-1,811,820,0,0
-406,204,0,0,0,0,0,0,0,0,0,-1,818,820,0,0
-399,204,0,0,0,0,0,0,0,0,0,-1,825,820,0,0
-392,204,0,0,0,0,0,0,0,0,0,-1,832,820,0,0
-385,204,0,0,0,0,0,0,0,0,0,-1,839,820,0,0
-378,204,0,0,0,0,0,0,0,0,0,-1,846,820,0,0
-371,204,0,0,0,0,0,0,0,0,0,-1,853,820,0,0
-364,204,0,0,0,0,0,0,0,0,0,-1,860,820,0,0
-357,204,0,0,0,0,0,0,0,0,0,-1,867,820,0,0
-350,204,0,0,0,0,0,0,0,0,0,-1,874,820,0,0
-343,204,0,0,0,0,0,0,0,0,0,-1,881,820,0,0
-336,204,0,0,0,0,0,0,0,0,0,-1,888,820,0,0
-329,204,0,0,0,0,0,0,0,0,0,-1,895,820,0,0
-322,204,0,0,0,0,0,0,0,0,0,-1,902,820,0,0
-315,204,0,0,0,0,0,0,0,0,0,-1,909,820,0,0
-308,204,0,0,0,0,0,0,0,0,0,-1,916,820,0,0
-301,204,0,0,0,0,0,0,0,0,0,-1,923,820,0,0
-294,204,0,0,0,0,0,0,0,0,0,-1,930,820,0,0
-287,204,0,0,0,0,0,0,0,0,0,-1,937,820,0,0
-280,204,0,0,0,0,0,0,0,0,0,-1,944,820,0,0
-273,204,0,0,0,0,0,0,0,0,0,-1,951,820,0,0
-266,204,0,0,0,0,0,0,0,0,0,-1,958,820,0,0
-259,204,0,0,0,0,0,0,0,0,0,-1,965,820,0,0
-252,204,0,0,0,0,0,0,0,0,0,-1,972,820,0,0
-245,204,0,0,0,0,0,0,0,0,0,-1,979,820,0,0
-238,204,0,0,0,0,0,0,0,0,0,-1,986,820,0,0
-231,204,0,0,0,0,0,0,0,0,0,-1,993,820,0,0
-224,204,0,0,0,0,0,0,0,0,0,-1,1000,820,0,0
-217,204,0,0,0,0,0,0,0,0,0,-1,1007,820,0,0
-210,204,0,0,0,0,0,0,0,0,0,-1,1014,820,0,0
-203,204,0,0,0,0,0,0,0,0,0,-1,1021,820,0,0
-196,204,0,0,0,0,0,0,0,0,0,-1,1028,820,0,0
-189,204,0,0,0,0,0,0,0,0,0,-1,1035,820,0,0
-182,204,0,0,0,0,0,0,0,0,0,-1,1042,820,0,0
-175,204,0,0,0,0,0,0,0,0,0,-1,1049,820,0,0
-168,204,0,0,0,0,0,0,0,0,0,-1,1056,820,0,0
-161,204,0,0,0,0,0,0,0,0,0,-1,1063,820,0,0
-154,204,0,0,0,0,0,0,0,0,0,-1,1070,820,0,0
-147,204,0,0,0,0,0,0,0,0,0,-1,1077,820,0,0
-140,204,0,0,0,0,0,0,0,0,0,-1,1084,820,0,0
-133,204,0,0,0,0,0,0,0,0,0,-1,1091,820,0,0
-126,204,0,0,0,0,0,0,0,0,0,-1,1098,820,0,0
-119,204,0,0,0,0,0,0,0,0,0,-1,1105,820,0,0
-112,204,0,0,0,0,0,0,0,0,0,-1,1112,820,0,0
-105,204,0,0,0,0,0,0,0,0,0,-1,1119,820,0,0
-98,204,0,0,0,0,0,0,0,0,0,-1,1126,820,0,0
-91,204,0,0,0,0,0,0,0,0,0,-1,1133,820,0,0
-84,204,0,0,0,0,0,0,0,0,0,-1,1140,820,0,0
-77,204,0,0,0,0,0,0,0,0,0,-1,1147,820,0,0
-70,204,0,0,0,0,0,0,0,0,0,-1,1154,820,0,0
-63,204,0,0,0,0,0,0,0,0,0,-1,1161,820,0,0
-56,204,0,0,0,0,0,0,0,0,0,-1,1168,820,0,0
-49,204,0,0,0,0,0,0,0,0,0,-1,1175,820,0,0
-42,204,0,0,0,0,0,0,0,0,0,-1,1182,820,0,0
-35,204,0,0,0,0,0,0,0,0,0,-1,1189,820,0,0
-28,204,0,0,0,0,0,0,0,0,0,-1,1196,820,0,0
-21,204,0,0,0,0,0,0,0,0,0,-1,1203,820,0,0
-14,204,0,0,0,0,0,0,0,0,0,-1,1210,820,0,0
-7,204,0,0,0,0,0,0,0,0,0,-1,1217,820,0,0
0,204,0,0,0,0,0,0,0,0,0,-1,1224,820,0,0
7,204,0,0,0,0,0,0,0,0,0,-1,1231,820,0,0
14,204,0,0,0,0,0,0,0,0,0,-1,1238,820,0,0
21,204,0,0,0,0,0,0,0,0,0,-1,1245,820,0,0
28,204,0,0,0,0,0,0,0,0,0,-1,1252,820,0,0
35,204,0,0,0,0,0,0,0,0,0,-1,1259,820,0,0
42,204,0,0,0,0,0,0,0,0,0,-1,1266,820,0,0
49,204,0,0,0,0,0,0,0,0,0,-1,1273,820,0,0
56,204,0,0,0,0,0,0,0,0,0,-1,1280,820,0,0
63,204,0,0,0,0,0,0,0,0,0,-1,1287,820,0,0
70,204,0,0,0,0,0,0,0,0,0,-1,1294,820,0,0
77,204,0,0,0,0,0,0,0,0,0,-1,1301,820,0,0
84,204,0,0,0,0,0,0,0,0,0,-1,1308,820,0,0
91,204,0,0,0,0,0,0,0,0,0,-1,1315,820,0,0
98,204,0,0,0,0,0,0,0,0,0,-1,1322,820,0,0
105,204,0,0,0,0,0,0,0,0,0,-1,1329,820,0,0
112,204,0,0,0,0,0,0,0,0,0,-1,1336,820,0,0
119,204,0,0,0,0,0,0,0,0,0,-1,1343,820,0,0
126,204,0,0,0,0,0,0,0,0,0,-1,1350,820,0,0
133,204,0,0,0,0,0,0,0,0,0,-1,1357,820,0,0
140,204,0,0,0,0,0,0,0,0,0,-1,1364,820,0,0
147,204,0,0,0,0,0,0,0,0,0,-1,1371,820,0,0
154,204,0,0,0,0,0,0,0,0,0,-1,1378,820,0,0
161,204,0,0,0,0,0,0,0,0,0,-1,1385,820,0,0
168,204,0,0,0,0,0,0,0,0,0,-1,1392,820,0,0
175,204,0,0,0,0,0,0,0,0,0,-1,1399,820,0,0
182,204,0,0,0,0,0,0,0,0,0,-1,1406,820,0,0
189,204,0,0,0,0,0,0,0,0,0,-1,1413,820,0,0
196,204,0,0,0,0,0,0,0,0,0,-1,1420,820,0,0
203,204,0,0,0,0,0,0,0,0,0,-1,1427,820,0,0
210,204,0,0,0,0,0,0,0,0,0,-1,1434,820,0,0
217,204,0,0,0,0,0,0,0,0,0,-1,1441,820,0,0
224,204,0,0,0,0,0,0,0,0,0,-1,1448,820,0,0
231,204,0,0,0,0,0,0,0,0,0,-1,1455,820,0,0
238,204,0,0,0,0,0,0,0,0,0,-1,1462,820,0,0
245,204,0,0,0,0,0,0,0,0,0,-1,1469,820,0,0
252,204,0,0,0,0,0,0,0,0,0,-1,1476,820,0,0
259,204,0,0,0,0,0,0,0,0,0,-1,1483,820,0,0
266,204,0,0,0,0,0,0,0,0,0,-1,1490,820,0,0
273,204,0,0,0,0,0,0,0,0,0,-1,1497,820,0,0
280,204,0,0,0,0,0,0,0,0,0,-1,1504,820,0,0
287,204,0,0,0,0,0,0,0,0,0,-1,1511,820,0,0
294,204,0,0,0,0,0,0,0,0,0,-1,1518,820,0,0
301,204,0,0,0,0,0,0,0,0,0,-1,1525,820,0,0
308,204,0,0,0,0,0,0,0,0,0,-1,1532,820,0,0
315,204,0,0,0,0,0,0,0,0,0,-1,1539,820,0,0
322,204,0,0,0,0,0,0,0,0,0,-1,1546,820,0,0
329,204,0,0,0,0,0,0,0,0,0,-1,1553,820,0,0
336,204,0,0,0,0,0,0,0,0,0,-1,1560,820,0,0
343,204,0,0,0,0,0,0,0,0,0,-1,1567,820,0,0
350,204,0,0,0,0,0,0,0,0,0,-1,1574,820,0,0
357,204,0,0,0,0,0,0,0,0,0,-1,1581,820,0,0
364,204,0,0,0,0,0,0,0,0,0,-1,1588,820,0,0
371,204,0,0,0,0,0,0,0,0,0,-1,1595,820,0,0
378,204,0,0,0,0,0,0,0,0,0,-1,1602,820,0,0
385,204,0,0,0,0,0,0,0,0,0,-1,1609,820,0,0
392,204,0,0,0,0,0,0,0,0,0,-1,1616,820,0,0
399,204,0,0,0,0,0,0,0,0,0,-1,1623,820,0,0
406,204,0,0,0,0,0,0,0,0,0,-1,1630,820,0,0
413,204,0,0,0,0,0,0,0,0,0,-1,1637,820,0,0
420,204,0,0,0,0,0,0,0,0,0,-1,1644,820,0,0
427,204,0,0,0,0,0,0,0,0,0,-1,1651,820,0,0
434,204,0,0,0,0,0,0,0,0,0,-1,1658,820,0,0
441,204,0,0,0,0,0,0,0,0,0,-1,1665,820,0,0
448,204,0,0,0,0,0,0,0,0,0,-1,1672,820,0,0
455,204,0,0,0,0,0,0,0,0,0,-1,1679,820,0,0
462,204,0,0,0,0,0,0,0,0,0,-1,1686,820,0,0
469,204,0,0,0,0,0,0,0,0,0,-1,1693,820,0,0
476,204,0,0,0,0,0,0,0,0,0,-1,1700,820,0,0
483,204,0,0,0,0,0,0,0,0,0,-1,1707,820,0,0
490,204,0,0,0,0,0,0,0,0,0,-1,1714,820,0,0
497,204,0,0,0,0,0,0,0,0,0,-1,1721,820,0,0
504,204,0,0,0,0,0,0,0,0,0,-1,1728,820,0,0
511,204,0,0,0,0,0,0,0,0,0,-1,1735,820,0,0
518,204,0,0,0,0,0,0,0,0,0,-1,1742,820,0,0
525,204,0,0,0,0,0,0,0,0,0,-1,1749,820,0,0
532,204,0,0,0,0,0,0,0,0,0,-1,1756,820,0,0
539,204,0,0,0,0,0,0,0,0,0,-1,1763,820,0,0
546,204,0,0,0,0,0,0,0,0,0,-1,1770,820,0,0
553,204,0,0,0,0,0,0,0,0,0,-1,1777,820,0,0
560,204,0,0,0,0,0,0,0,0,0,-1,1784,820,0,0
567,204,0,0,0,0,0,0,0,0,0,-1,1791,820,0,0
574,204,0,0,0,0,0,0,0,0,0,-1,1798,820,0,0
581,204,0,0,0,0,0,0,0,0,0,-1,1805,820,0,0
588,204,0,0,0,0,0,0,0,0,0,-1,1812,820,0,0
595,204,0,0,0,0,0,0,0,0,0,-1,1819,820,0,0
602,204,75.9614,2.48242,0.00284961,-0.00372116,-0.00204296,0.003433,-0.00430456,-0.278159,0.00447672,0.0371428,1826,820,75.9614,-2.48243
609,204,75.8998,2.51526,0.00234356,-0.00357286,-0.001882,0.00289148,-0.00412078,-0.283305,0.00406921,0.0400325,1833,820,75.8998,-2.51527
616,204,75.9404,2.45483,0.00147725,-0.0029699,-0.00164026,0.00201678,-0.00350942,-0.317781,0.00322912,0.0358267,1840,820,75.9405,-2.45485
623,204,75.9861,2.422,0.000846813,-0.00215593,-0.00127125,0.00131272,-0.00262184,-0.351295,0.00231316,0.0272317,1847,820,75.9861,-2.422
630,204,76.0261,2.36694,0.000678354,-0.00112283,-0.000831523,0.00100353,-0.001448,-0.372772,0.00142312,0.0290983,1854,820,76.0261,-2.36694
637,204,75.9855,2.41418,0.000499859,-0.000874027,-0.000724982,0.000811659,-0.00118583,-0.406166,0.00115997,0.0409292,1861,820,75.9855,-2.41416
644,204,75.9211,2.48889,0,0,0,0,0,0,0,-1,1868,820,75.9211,-2.48892
651,204,53.7611,2.32251,0,0,0,0,0,0,0,-1,1875,820,53.7611,-2.32249
658,204,34.9631,1.64844,0,0,0,0,0,0,0,-1,1882,820,34.9631,-1.64842
665,204,21.8292,1.51099,0,0,0,0,0,0,0,-1,1889,820,21.8292,-1.51099
672,204,58.1437,-1.94287,0,0,0,0,0,0,0,-1,1896,820,58.1437,1.94285
679,204,58.1604,-1.21405,-0.00101359,0.000619923,-0.000851203,0.000982844,-0.00137651,-1.16777,0.00136848,0.0454082,1903,820,58.1603,1.21406
686,204,58.1467,-0.461731,-0.00115746,0.000560786,-0.000975451,0.00100151,-0.00159818,-1.14643,0.00151405,0.027149,1910,820,58.1468,0.461703
693,204,57.7782,0.401672,-0.000970791,0.000382132,-0.00128015,0.00115356,-0.00174222,-1.02846,0.00168335,0.0288814,1917,820,57.7782,-0.40168
700,204,57.7997,1.34619,-0.00100527,0.000151446,-0.0014404,0.00112526,-0.00197909,-0.97631,0.00181475,0.019153,1924,820,57.7996,-1.34619
707,204,57.7582,2.30115,-0.00138771,4.52974e-05,-0.0015094,0.000999621,-0.00234203,-1.007,0.00198052,0.0162861,1931,820,57.7582,-2.30117
714,204,57.7516,3.24518,-0.00194608,7.37638e-05,-0.00149643,0.00086918,-0.0027415,-1.08223,0.00217605,0.0261161,1938,820,57.7516,-3.24515
721,204,57.7346,4.06219,-0.00297566,4.49297e-05,-0.00156872,0.000712221,-0.00364295,-1.16861,0.00269756,0.0236772,1945,820,57.7347,-4.06221
728,204,57.6736,4.92883,-0.00451193,-0.000181218,-0.00176814,0.000448975,-0.00514212,-1.22842,0.00358712,0.0149936,1952,820,57.6736,-4.92884
735,204,57.5593,5.83521,-0.00670988,-0.000621687,-0.00218281,8.00365e-05,-0.0074116,-1.25975,0.00496796,0.0191873,1959,820,57.5593,-5.83518
742,204,57.4772,6.67871,-0.0100671,-0.00173543,-0.00298107,-0.000778675,-0.0110239,-1.26024,0.00710394,0.0350976,1966,820,57.4772,-6.67868
749,204,57.13,7.33893,-0.0151885,-0.00389594,-0.00451737,-0.00231124,-0.0167732,-1.23341,0.0104969,0.048762,1973,820,57.13,-7.33896
756,204,56.7339,7.99963,0,0,0,0,0,0,0,-1,1980,820,56.7339,-7.99961
763,204,54.1107,7.71759,0,0,0,0,0,0,0,-1,1987,820,54.1107,-7.71761
770,204,53.3718,8.26947,0,0,0,0,0,0,0,-1,1994,820,53.3718,-8.26946
777,204,0,0,0,0,0,0,0,0,0,-1,2001,820,0,0
784,204,0,0,0,0,0,0,0,0,0,-1,2008,820,0,0
791,204,0,0,0,0,0,0,0,0,0,-1,2015,820,0,0
798,204,0,0,0,0,0,0,0,0,0,-1,2022,820,0,0
805,204,0,0,0,0,0,0,0,0,0,-1,2029,820,0,0
812,204,0,0,0,0,0,0,0,0,0,-1,2036,820,0,0
-700,197,0,0,0,0,0,0,0,0,0,-1,524,827,0,0
-693,197,0,0,0,0,0,0,0,0,0,-1,531,827,0,0
-686,197,0,0,0,0,0,0,0,0,0,-1,538,827,0,0
-679,197,0,0,0,0,0,0,0,0,0,-1,545,827,0,0
-672,197,0,0,0,0,0,0,0,0,0,-1,552,827,0,0
-665,197,0,0,0,0,0,0,0,0,0,-1,559,827,0,0
-658,197,-39.9774,5.66638,0,0,0,0,0,0,0,-1,566,827,-39.9774,-5.66637
-651,197,-39.9665,5.23578,0,0,0,0,0,0,0,-1,573,827,-39.9665,-5.23575
-644,197,-38.9225,4.75665,0,0,0,0,0,0,0,-1,580,827,-38.9225,-4.75665
-637,197,-45.2572,7.41498,0,0,0,0,0,0,0,-1,587,827,-45.2572,-7.415
-630,197,-40.4908,2.45648,0,0,0,0,0,0,0,-1,594,827,-40.4908,-2.45649
-623,197,-43.6929,7.67633,0,0,0,0,0,0,0,-1,601,827,-43.6929,-7.67635
-616,197,-42.864,6.35956,0,0,0,0,0,0,0,-1,608,827,-42.864,-6.35955
-609,197,-42.8311,5.42688,0.000283134,-0.000167852,0.000519364,0.000623844,-0.000508562,0.580591,0.000654923,0.037519,615,827,-42.831,-5.42686
-602,197,-42.9055,4.51538,-0.000216741,0.000449929,0.000450756,0.000677213,-0.000444025,1.10377,0.000651997,0.0215483,622,827,-42.9055,-4.51538
-595,197,-43.0415,3.66638,-0.000173807,0.000960017,0.000354188,0.00106156,-0.000275354,1.29158,0.000815147,0.0210573,629,827,-43.0415,-3.66636
-588,197,-43.1083,2.74219,0.000140681,0.00144806,0.000356045,0.00153874,5.00066e-05,1.32143,0.00100957,0.022547,636,827,-43.1082,-2.74217
-581,197,-43.1652,1.83429,0.000685133,0.00185524,0.00045915,0.00201389,0.000526475,1.23809,0.00120604,0.0128537,643,827,-43.1652,-1.8343
-574,197,-43.1788,0.955017,0.00133851,0.00235379,0.00057035,0.00260969,0.00108261,1.14904,0.00151397,0.0144948,650,827,-43.1788,-0.955033
-567,197,-43.1273,0.105835,0.00205877,0.0030291,0.000749327,0.00343661,0.00165125,1.07269,0.00198463,0.0214991,657,827,-43.1272,-0.105828
-560,197,-43.1133,-0.976013,0,0,0,0,0,0,0,-1,664,827,-43.1133,0.975989
-553,197,-33.1771,-1.4881,0,0,0,0,0,0,0,-1,671,827,-33.1771,1.4881
-546,197,-43.6169,-2.573,0,0,0,0,0,0,0,-1,678,827,-43.617,2.57302
-539,197,-32.8993,-2.61737,0,0,0,0,0,0,0,-1,685,827,-32.8993,2.61737
-532,197,-16.0519,0.0410156,0,0,0,0,0,0,0,-1,692,827,-16.0519,-0.0410415
-525,197,-35.3785,2.11829,0,0,0,0,0,0,0,-1,699,827,-35.3785,-2.11826
-518,197,-57.6698,0.308533,0,0,0,0,0,0,0,-1,706,827,-57.6698,-0.308561
-511,197,-59.646,0.165161,0,0,0,0,0,0,0,-1,713,827,-59.646,-0.165183
-504,197,-59.4758,0.600891,0,0,0,0,0,0,0,-1,720,827,-59.4759,-0.600891
-497,197,-59.5123,0.548645,0,0,0,0,0,0,0,-1,727,827,-59.5123,-0.548647
-490,197,-59.4669,0.445007,0,0,0,0,0,0,0,-1,734,827,-59.4669,-0.445012
-483,197,-59.3628,0.431213,0,0,0,0,0,0,0,-1,741,827,-59.3628,-0.431243
-476,197,0,0,0,0,0,0,0,0,0,-1,748,827,0,0
-469,197,0,0,0,0,0,0,0,0,0,-1,755,827,0,0
-462,197,0,0,0,0,0,0,0,0,0,-1,762,827,0,0
-455,197,0,0,0,0,0,0,0,0,0,-1,769,827,0,0
-448,197,0,0,0,0,0,0,0,0,0,-1,776,827,0,0
-441,197,0,0,0,0,0,0,0,0,0,-1,783,827,0,0
-434,197,0,0,0,0,0,0,0,0,0,-1,790,827,0,0
-427,197,0,0,0,0,0,0,0,0,0,-1,797,827,0,0
-420,197,0,0,0,0,0,0,0,0,0,-1,804,827,0,0
-413,197,0,0,0,0,0,0,0,0,0,-1,811,827,0,0
-406,197,0,0,0,0,0,0,0,0,0,-1,818,827,0,0
-399,197,0,0,0,0,0,0,0,0,0,-1,825,827,0,0
-392,197,0,0,0,0,0,0,0,0,0,-1,832,827,0,0
-385,197,0,0,0,0,0,0,0,0,0,-1,839,827,0,0
-378,197,0,0,0,0,0,0,0,0,0,-1,846,827,0,0
-371,197,0,0,0,0,0,0,0,0,0,-1,853,827,0,0
-364,197,0,0,0,0,0,0,0,0,0,-1,860,827,0,0
-357,197,0,0,0,0,0,0,0,0,0,-1,867,827,0,0
-350,197,0,0,0,0,0,0,0,0,0,-1,874,827,0,0
-343,197,0,0,0,0,0,0,0,0,0,-1,881,827,0,0
-336,197,0,0,0,0,0,0,0,0,0,-1,888,827,0,0
-329,197,0,0,0,0,0,0,0,0,0,-1,895,827,0,0
-322,197,0,0,0,0,0,0,0,0,0,-1,902,827,0,0
-315,197,0,0,0,0,0,0,0,0,0,-1,909,827,0,0
-308,197,0,0,0,0,0,0,0,0,0,-1,916,827,0,0
-301,197,0,0,0,0,0,0,0,0,0,-1,923,827,0,0
-294,197,0,0,0,0,0,0,0,0,0,-1,930,827,0,0
-287,197,0,0,0,0,0,0,0,0,0,-1,937,827,0,0
-280,197,0,0,0,0,0,0,0,0,0,-1,944,827,0,0
-273,197,0,0,0,0,0,0,0,0,0,-1,951,827,0,0
-266,197,0,0,0,0,0,0,0,0,0,-1,958,827,0,0
-259,197,0,0,0,0,0,0,0,0,0,-1,965,827,0,0
-252,197,0,0,0,0,0,0,0,0,0,-1,972,827,0,0
-245,197,0,0,0,0,0,0,0,0,0,-1,979,827,0,0
-238,197,0,0,0,0,0,0,0,0,0,-1,986,827,0,0
-231,197,0,0,0,0,0,0,0,0,0,-1,993,827,0,0
-224,197,0,0,0,0,0,0,0,0,0,-1,1000,827,0,0
-217,197,0,0,0,0,0,0,0,0,0,-1,1007,827,0,0
-210,197,0,0,0,0,0,0,0,0,0,-1,1014,827,0,0
-203,197,0,0,0,0,0,0,0,0,0,-1,1021,827,0,0
-196,197,0,0,0,0,0,0,0,0,0,-1,1028,827,0,0
-189,197,0,0,0,0,0,0,0,0,0,-1,1035,827,0,0
-182,197,0,0,0,0,0,0,0,0,0,-1,1042,827,0,0
-175,197,0,0,0,0,0,0,0,0,0,-1,1049,827,0,0
-168,197,0,0,0,0,0,0,0,0,0,-1,1056,827,0,0
-161,197,0,0,0,0,0,0,0,0,0,-1,1063,827,0,0
-154,197,0,0,0,0,0,0,0,0,0,-1,1070,827,0,0
-147,197,0,0,0,0,0,0,0,0,0,-1,1077,827,0,0
-140,197,0,0,0,0,0,0,0,0,0,-1,1084,827,0,0
-133,197,0,0,0,0,0,0,0,0,0,-1,1091,827,0,0
-126,197,0,0,0,0,0,0,0,0,0,-1,1098,827,0,0
-119,197,0,0,0,0,0,0,0,0,0,-1,1105,827,0,0
-112,197,0,0,0,0,0,0,0,0,0,-1,1112,827,0,0
-105,197,0,0,0,0,0,0,0,0,0,-1,1119,827,0,0
-98,197,0,0,0,0,0,0,0,0,0,-1,1126,827,0,0
-91,197,0,0,0,0,0,0,0,0,0,-1,1133,827,0,0
-84,197,0,0,0,0,0,0,0,0,0,-1,1140,827,0,0
-77,197,0,0,0,0,0,0,0,0,0,-1,1147,827,0,0
-70,197,0,0,0,0,0,0,0,0,0,-1,1154,827,0,0
-63,197,0,0,0,0,0,0,0,0,0,-1,1161,827,0,0
-56,197,0,0,0,0,0,0,0,0,0,-1,1168,827,0,0
-49,197,0,0,0,0,0,0,0,0,0,-1,1175,827,0,0
-42,197,0,0,0,0,0,0,0,0,0,-1,1182,827,0,0
-35,197,0,0,0,0,0,0,0,0,0,-1,1189,827,0,0
-28,197,0,0,0,0,0,0,0,0,0,-1,1196,827,0,0
-21,197,0,0,0,0,0,0,0,0,0,-1,1203,827,0,0
-14,197,0,0,0,0,0,0,0,0,0,-1,1210,827,0,0
-7,197,0,0,0,0,0,0,0,0,0,-1,1217,827,0,0
0,197,0,0,0,0,0,0,0,0,0,-1,1224,827,0,0
7,197,0,0,0,0,0,0,0,0,0,-1,1231,827,0,0
14,197,0,0,0,0,0,0,0,0,0,-1,1238,827,0,0
21,197,0,0,0,0,0,0,0,0,0,-1,1245,827,0,0
28,197,0,0,0,0,0,0,0,0,0,-1,1252,827,0,0
35,197,0,0,0,0,0,0,0,0,0,-1,1259,827,0,0
42,197,0,0,0,0,0,0,0,0,0,-1,1266,827,0,0
49,197,0,0,0,0,0,0,0,0,0,-1,1273,827,0,0
56,197,0,0,0,0,0,0,0,0,0,-1,1280,827,0,0
63,197,0,0,0,0,0,0,0,0,0,-1,1287,827,0,0
70,197,0,0,0,0,0,0,0,0,0,-1,1294,827,0,0
77,197,0,0,0,0,0,0,0,0,0,-1,1301,827,0,0
84,197,0,0,0,0,0,0,0,0,0,-1,1308,827,0,0
91,197,0,0,0,0,0,0,0,0,0,-1,1315,827,0,0
98,197,0,0,0,0,0,0,0,0,0,-1,1322,827,0,0
105,197,0,0,0,0,0,0,0,0,0,-1,1329,827,0,0
112,197,0,0,0,0,0,0,0,0,0,-1,1336,827,0,0
119,197,0,0,0,0,0,0,0,0,0,-1,1343,827,0,0
126,197,0,0,0,0,0,0,0,0,0,-1,1350,827,0,0
133,197,0,0,0,0,0,0,0,0,0,-1,1357,827,0,0
140,197,0,0,0,0,0,0,0,0,0,-1,1364,827,0,0
147,197,0,0,0,0,0,0,0,0,0,-1,1371,827,0,0
154,197,0,0,0,0,0,0,0,0,0,-1,1378,827,0,0
161,197,0,0,0,0,0,0,0,0,0,-1,1385,827,0,0
168,197,0,0,0,0,0,0,0,0,0,-1,1392,827,0,0
175,197,0,0,0,0,0,0,0,0,0,-1,1399,827,0,0
182,197,0,0,0,0,0,0,0,0,0,-1,1406,827,0,0
189,197,0,0,0,0,0,0,0,0,0,-1,1413,827,0,0
196,197,0,0,0,0,0,0,0,0,0,-1,1420,827,0,0
203,197,0,0,0,0,0,0,0,0,0,-1,1427,827,0,0
210,197,0,0,0,0,0,0,0,0,0,-1,1434,827,0,0
217,197,0,0,0,0,0,0,0,0,0,-1,1441,827,0,0
224,197,0,0,0,0,0,0,0,0,0,-1,1448,827,0,0
231,197,0,0,0,0,0,0,0,0,0,-1,1455,827,0,0
238,197,0,0,0,0,0,0,0,0,0,-1,1462,827,0,0
245,197,0,0,0,0,0,0,0,0,0,-1,1469,827,0,0
252,197,0,0,0,0,0,0,0,0,0,-1,1476,827,0,0
259,197,0,0,0,0,0,0,0,0,0,-1,1483,827,0,0
266,197,0,0,0,0,0,0,0,0,0,-1,1490,827,0,0
273,197,0,0,0,0,0,0,0,0,0,-1,1497,827,0,0
280,197,0,0,0,0,0,0,0,0,0,-1,1504,827,0,0
287,197,0,0,0,0,0,0,0,0,0,-1,1511,827,0,0
294,197,0,0,0,0,0,0,0,0,0,-1,1518,827,0,0
301,197,0,0,0,0,0,0,0,0,0,-1,1525,827,0,0
308,197,0,0,0,0,0,0,0,0,0,-1,1532,827,0,0
315,197,0,0,0,0,0,0,0,0,0,-1,1539,827,0,0
322,197,0,0,0,0,0,0,0,0,0,-1,1546,827,0,0
329,197,0,0,0,0,0,0,0,0,0,-1,1553,827,0,0
336,197,0,0,0,0,0,0,0,0,0,-1,1560,827,0,0
343,197,0,0,0,0,0,0,0,0,0,-1,1567,827,0,0
350,197,0,0,0,0,0,0,0,0,0,-1,1574,827,0,0
357,197,0,0,0,0,0,0,0,0,0,-1,1581,827,0,0
364,197,0,0,0,0,0,0,0,0,0,-1,1588,827,0,0
371,197,0,0,0,0,0,0,0,0,0,-1,1595,827,0,0
378,197,0,0,0,0,0,0,0,0,0,-1,1602,827,0,0
385,197,0,0,0,0,0,0,0,0,0,-1,1609,827,0,0
392,197,0,0,0,0,0,0,0,0,0,-1,1616,827,0,0
399,197,0,0,0,0,0,0,0,0,0,-1,1623,827,0,0
406,197,0,0,0,0,0,0,0,0,0,-1,1630,827,0,0
413,197,0,0,0,0,0,0,0,0,0,-1,1637,827,0,0
420,197,0,0,0,0,0,0,0,0,0,-1,1644,827,0,0
427,197,0,0,0,0,0,0,0,0,0,-1,1651,827,0,0
434,197,0,0,0,0,0,0,0,0,0,-1,1658,827,0,0
441,197,0,0,0,0,0,0,0,0,0,-1,1665,827,0,0
448,197,0,0,0,0,0,0,0,0,0,-1,1672,827,0,0
455,197,0,0,0,0,0,0,0,0,0,-1,1679,827,0,0
462,197,0,0,0,0,0,0,0,0,0,-1,1686,827,0,0
469,197,0,0,0,0,0,0,0,0,0,-1,1693,827,0,0
476,197,0,0,0,0,0,0,0,0,0,-1,1700,827,0,0
483,197,0,0,0,0,0,0,0,0,0,-1,1707,827,0,0
490,197,0,0,0,0,0,0,0,0,0,-1,1714,827,0,0
497,197,0,0,0,0,0,0,0,0,0,-1,1721,827,0,0
504,197,0,0,0,0,0,0,0,0,0,-1,1728,827,0,0
511,197,0,0,0,0,0,0,0,0,0,-1,1735,827,0,0
518,197,0,0,0,0,0,0,0,0,0,-1,1742,827,0,0
525,197,0,0,0,0,0,0,0,0,0,-1,1749,827,0,0
532,197,0,0,0,0,0,0,0,0,0,-1,1756,827,0,0
539,197,0,0,0,0,0,0,0,0,0,-1,1763,827,0,0
546,197,0,0,0,0,0,0,0,0,0,-1,1770,827,0,0
553,197,0,0,0,0,0,0,0,0,0,-1,1777,827,0,0
560,197,0,0,0,0,0,0,0,0,0,-1,1784,827,0,0
567,197,0,0,0,0,0,0,0,0,0,-1,1791,827,0,0
574,197,0,0,0,0,0,0,0,0,0,-1,1798,827,0,0
581,197,0,0,0,0,0,0,0,0,0,-1,1805,827,0,0
588,197,0,0,0,0,0,0,0,0,0,-1,1812,827,0,0
595,197,0,0,0,0,0,0,0,0,0,-1,1819,827,0,0
602,197,75.903,2.56787,0.00276466,-0.0032338,-0.00164391,0.00318564,-0.00365477,-0.250696,0.00395241,0.0406832,1826,827,75.903,-2.56787
609,197,75.9213,2.57434,0.00247258,-0.00321898,-0.00154321,0.00286407,-0.00361048,-0.248448,0.00374635,0.0416849,1833,827,75.9212,-2.57436
616,197,76.0326,2.42511,0.00168102,-0.00275907,-0.00140141,0.00208635,-0.0031644,-0.281542,0.00305274,0.039148,1840,827,76.0326,-2.4251
623,197,76.1144,2.3042,0.000898873,-0.00199649,-0.00108593,0.0012609,-0.00235851,-0.321789,0.00212145,0.0337309,1847,827,76.1144,-2.30421
630,197,76.1432,2.25299,0.00052338,-0.000904449,-0.000685924,0.000799499,-0.00118057,-0.382703,0.00115023,0.030259,1854,827,76.1432,-2.25297
637,197,76.0253,2.3609,0.000264095,-0.000577458,-0.000572413,0.000553747,-0.000867111,-0.468452,0.000826956,0.0289719,1861,827,76.0253,-2.36091
644,197,75.9274,2.48761,0,0,0,0,0,0,0,-1,1868,827,75.9274,-2.48762
651,197,73.8147,2.2644,0,0,0,0,0,0,0,-1,1875,827,73.8147,-2.26442
658,197,40.4694,3.05927,0,0,0,0,0,0,0,-1,1882,827,40.4694,-3.05926
665,197,14.0618,1.80304,0,0,0,0,0,0,0,-1,1889,827,14.0617,-1.80303
672,197,59.2043,-2.46454,0,0,0,0,0,0,0,-1,1896,827,59.2044,2.46457
679,197,59.072,-1.26331,-0.00141798,0.000625944,-0.000943865,0.000995128,-0.00178716,-1.19795,0.00162791,0.0404401,1903,827,59.072,1.2633
686,197,59.0072,-0.283752,-0.00166417,0.000632446,-0.00105824,0.0010457,-0.00207742,-1.19849,0.00183564,0.0300159,1910,827,59.0072,0.283735
693,197,58.7529,0.675415,-0.00159767,0.000458877,-0.00137656,0.00114882,-0.00228761,-1.10618,0.00202001,0.0391475,1917,827,58.7529,-0.675412
700,197,58.6919,1.40967,-0.00163095,0.000151746,-0.00161349,0.00110372,-0.00258293,-1.03775,0.00218485,0.033379,1924,827,58.6919,-1.40969
707,197,58.6757,2.36261,-0.00193302,-3.99245e-05,-0.00174819,0.00100153,-0.00297447,-1.03352,0.00238789,0.00985077,1931,827,58.6756,-2.36259
714,197,58.6449,3.23749,-0.00231935,-3.14739e-05,-0.00176577,0.000928523,-0.00327935,-1.07283,0.00255267,0.012783,1938,827,58.6449,-3.23749
721,197,58.5979,4.09619,-0.0032011,-5.44568e-06,-0.00183268,0.00082814,-0.00403468,-1.14392,0.00300413,0.0132958,1945,827,58.5979,-4.09617
728,197,58.5311,4.97357,-0.00461448,-0.000178251,-0.00200612,0.000594378,-0.00538711,-1.20317,0.00380504,0.0111322,1952,827,58.5311,-4.97355
735,197,58.4431,5.86487,-0.00662233,-0.000580477,-0.00240239,0.00025832,-0.00746112,-1.23488,0.00506239,0.0119809,1959,827,58.4431,-5.86487
742,197,58.3774,6.77576,-0.00958865,-0.00154137,-0.00314617,-0.000457359,-0.0106727,-1.23899,0.00696766,0.0227562,1966,827,58.3775,-6.77577
749,197,57.905,7.46741,-0.0139917,-0.00341594,-0.00454838,-0.0017289,-0.0156787,-1.21562,0.00992651,0.04629,1973,827,57.905,-7.46739
756,197,57.434,8.18524,0,0,0,0,0,0,0,-1,1980,827,57.434,-8.18524
763,197,57.4331,9.17389,0,0,0,0,0,0,0,-1,1987,827,57.4331,-9.17388
770,197,54.2329,8.28735,0,0,0,0,0,0,0,-1,1994,827,54.233,-8.28735
777,197,0,0,0,0,0,0,0,0,0,-1,2001,827,0,0
784,197,0,0,0,0,0,0,0,0,0,-1,2008,827,0,0
791,197,0,0,0,0,0,0,0,0,0,-1,2015,827,0,0
798,197,0,0,0,0,0,0,0,0,0,-1,2022,827,0,0
805,197,0,0,0,0,0,0,0,0,0,-1,2029,827,0,0
812,197,0,0,0,0,0,0,0,0,0,-1,2036,827,0,0
-700,190,0,0,0,0,0,0,0,0,0,-1,524,834,0,0
-693,190,0,0,0,0,0,0,0,0,0,-1,531,834,0,0
-686,190,0,0,0,0,0,0,0,0,0,-1,538,834,0,0
-679,190,0,0,0,0,0,0,0,0,0,-1,545,834,0,0
-672,190,0,0,0,0,0,0,0,0,0,-1,552,834,0,0
-665,190,0,0,0,0,0,0,0,0,0,-1,559,834,0,0
-658,190,-41.9736,5.50092,0,0,0,0,0,0,0,-1,566,834,-41.9736,-5.50089
-651,190,-40.1895,4.99677,0,0,0,0,0,0,0,-1,573,834,-40.1894,-4.99677
-644,190,-43.4772,11.1134,0,0,0,0,0,0,0,-1,580,834,-43.4771,-11.1134
-637,190,-43.1797,9.53918,0,0,0,0,0,0,0,-1,587,834,-43.1797,-9.53917
-630,190,-43.9639,8.85596,0,0,0,0,0,0,0,-1,594,834,-43.9639,-8.85598
-623,190,-43.8893,7.22333,0,0,0,0,0,0,0,-1,601,834,-43.8893,-7.22334
-616,190,-44.0918,5.9248,0.00359044,-0.000754593,0.00132728,0.00396381,-0.00112796,0.274213,0.00308797,0.0463475,608,834,-44.0918,-5.9248
-609,190,-43.7286,5.40613,0.00159001,9.04675e-05,0.0014303,0.00245514,-0.00077467,0.543987,0.00194705,0.0268157,615,834,-43.7286,-5.4061
-602,190,-43.8494,4.59039,0.000529598,0.000615569,0.00131571,0.00188899,-0.000743826,0.801728,0.00156726,0.0193718,622,834,-43.8495,-4.59041
-595,190,-43.9477,3.70862,-2.67403e-05,0.00106549,0.0011553,0.00179725,-0.000758497,1.00619,0.00151564,0.0207823,629,834,-43.9477,-3.70859
-588,190,-43.999,2.77759,-0.000271874,0.00143924,0.00103147,0.00192379,-0.000756428,1.13162,0.0015956,0.0209388,636,834,-43.999,-2.77761
-581,190,-44.0264,1.87744,-0.000214186,0.00174214,0.000957263,0.00213261,-0.000604656,1.1835,0.00166041,0.0151306,643,834,-44.0264,-1.87744
-574,190,-44.0588,1.00336,2.58856e-05,0.00212977,0.000862815,0.00243836,-0.000282698,1.22732,0.00172753,0.014274,650,834,-44.0588,-1.00338
-567,190,-43.9303,-0.0307617,0.000543731,0.00273461,0.00079933,0.00299524,0.000283104,1.25561,0.00190947,0.0331845,657,834,-43.9303,0.0307711
-560,190,-43.6972,-1.10327,0,0,0,0,0,0,0,-1,664,834,-43.6972,1.10327
-553,190,-33.9625,-1.6355,0,0,0,0,0,0,0,-1,671,834,-33.9625,1.63552
-546,190,-33.7621,-2.04889,0,0,0,0,0,0,0,-1,678,834,-33.7621,2.04886
-539,190,-16.4624,-0.542542,0,0,0,0,0,0,0,-1,685,834,-16.4624,0.542527
-532,190,-21.6292,2.06122,0,0,0,0,0,0,0,-1,692,834,-21.6292,-2.06123
-525,190,-38.9377,1.03369,0,0,0,0,0,0,0,-1,699,834,-38.9377,-1.0337
-518,190,-59.5134,0.224304,0,0,0,0,0,0,0,-1,706,834,-59.5134,-0.224305
-511,190,-59.635,0.134094,0,0,0,0,0,0,0,-1,713,834,-59.635,-0.134066
-504,190,-59.5089,0.78949,0,0,0,0,0,0,0,-1,720,834,-59.5089,-0.78947
-497,190,-59.4914,0.625,0,0,0,0,0,0,0,-1,727,834,-59.4914,-0.624973
-490,190,-59.5574,0.446411,0,0,0,0,0,0,0,-1,734,834,-59.5574,-0.446387
-483,190,0,0,0,0,0,0,0,0,0,-1,741,834,0,0
-476,190,0,0,0,0,0,0,0,0,0,-1,748,834,0,0
-469,190,0,0,0,0,0,0,0,0,0,-1,755,834,0,0
-462,190,0,0,0,0,0,0,0,0,0,-1,762,834,0,0
-455,190,0,0,0,0,0,0,0,0,0,-1,769,834,0,0
-448,190,0,0,0,0,0,0,0,0,0,-1,776,834,0,0
-441,190,0,0,0,0,0,0,0,0,0,-1,783,834,0,0
-434,190,0,0,0,0,0,0,0,0,0,-1,790,834,0,0
-427,190,0,0,0,0,0,0,0,0,0,-1,797,834,0,0
-420,190,0,0,0,0,0,0,0,0,0,-1,804,834,0,0
-413,190,0,0,0,0,0,0,0,0,0,-1,811,834,0,0
-406,190,0,0,0,0,0,0,0,0,0,-1,818,834,0,0
-399,190,0,0,0,0,0,0,0,0,0,-1,825,834,0,0
-392,190,0,0,0,0,0,0,0,0,0,-1,832,834,0,0
-385,190,0,0,0,0,0,0,0,0,0,-1,839,834,0,0
-378,190,0,0,0,0,0,0,0,0,0,-1,846,834,0,0
-371,190,0,0,0,0,0,0,0,0,0,-1,853,834,0,0
-364,190,0,0,0,0,0,0,0,0,0,-1,860,834,0,0
-357,190,0,0,0,0,0,0,0,0,0,-1,867,834,0,0
-350,190,0,0,0,0,0,0,0,0,0,-1,874,834,0,0
-343,190,0,0,0,0,0,0,0,0,0,-1,881,834,0,0
-336,190,0,0,0,0,0,0,0,0,0,-1,888,834,0,0
-329,190,0,0,0,0,0,0,0,0,0,-1,895,834,0,0
-322,190,0,0,0,0,0,0,0,0,0,-1,902,834,0,0
-315,190,0,0,0,0,0,0,0,0,0,-1,909,834,0,0
-308,190,0,0,0,0,0,0,0,0,0,-1,916,834,0,0
-301,190,0,0,0,0,0,0,0,0,0,-1,923,834,0,0
-294,190,0,0,0,0,0,0,0,0,0,-1,930,834,0,0
-287,190,0,0,0,0,0,0,0,0,0,-1,937,834,0,0
-280,190,0,0,0,0,0,0,0,0,0,-1,944,834,0,0
-273,190,0,0,0,0,0,0,0,0,0,-1,951,834,0,0
-266,190,0,0,0,0,0,0,0,0,0,-1,958,834,0,0
-259,190,0,0,0,0,0,0,0,0,0,-1,965,834,0,0
-252,190,0,0,0,0,0,0,0,0,0,-1,972,834,0,0
-245,190,0,0,0,0,0,0,0,0,0,-1,979,834,0,0
-238,190,0,0,0,0,0,0,0,0,0,-1,986,834,0,0
-231,190,0,0,0,0,0,0,0,0,0,-1,993,834,0,0
-224,190,0,0,0,0,0,0,0,0,0,-1,1000,834,0,0
-217,190,0,0,0,0,0,0,0,0,0,-1,1007,834,0,0
-210,190,0,0,0,0,0,0,0,0,0,-1,1014,834,0,0
-203,190,0,0,0,0,0,0,0,0,0,-1,1021,834,0,0
-196,190,0,0,0,0,0,0,0,0,0,-1,1028,834,0,0
-189,190,0,0,0,0,0,0,0,0,0,-1,1035,834,0,0
-182,190,0,0,0,0,0,0,0,0,0,-1,1042,834,0,0
-175,190,0,0,0,0,0,0,0,0,0,-1,1049,834,0,0
-168,190,0,0,0,0,0,0,0,0,0,-1,1056,834,0,0
-161,190,0,0,0,0,0,0,0,0,0,-1,1063,834,0,0
-154,190,0,0,0,0,0,0,0,0,0,-1,1070,834,0,0
-147,190,0,0,0,0,0,0,0,0,0,-1,1077,834,0,0
-140,190,0,0,0,0,0,0,0,0,0,-1,1084,834,0,0
-133,190,0,0,0,0,0,0,0,0,0,-1,1091,834,0,0
-126,190,0,0,0,0,0,0,0,0,0,-1,1098,834,0,0
-119,190,0,0,0,0,0,0,0,0,0,-1,1105,834,0,0
-112,190,0,0,0,0,0,0,0,0,0,-1,1112,834,0,0
-105,190,0,0,0,0,0,0,0,0,0,-1,1119,834,0,0
-98,190,0,0,0,0,0,0,0,0,0,-1,1126,834,0,0
-91,190,0,0,0,0,0,0,0,0,0,-1,1133,834,0,0
-84,190,0,0,0,0,0,0,0,0,0,-1,1140,834,0,0
-77,190,0,0,0,0,0,0,0,0,0,-1,1147,834,0,0
-70,190,0,0,0,0,0,0,0,0,0,-1,1154,834,0,0
-63,190,0,0,0,0,0,0,0,0,0,-1,1161,834,0,0
-56,190,0,0,0,0,0,0,0,0,0,-1,1168,834,0,0
-49,190,0,0,0,0,0,0,0,0,0,-1,1175,834,0,0
-42,190,0,0,0,0,0,0,0,0,0,-1,1182,834,0,0
-35,190,0,0,0,0,0,0,0,0,0,-1,1189,834,0,0
-28,190,0,0,0,0,0,0,0,0,0,-1,1196,834,0,0
-21,190,0,0,0,0,0,0,0,0,0,-1,1203,834,0,0
-14,190,0,0,0,0,0,0,0,0,0,-1,1210,834,0,0
-7,190,0,0,0,0,0,0,0,0,0,-1,1217,834,0,0
0,190,0,0,0,0,0,0,0,0,0,-1,1224,834,0,0
7,190,0,0,0,0,0,0,0,0,0,-1,1231,834,0,0
14,190,0,0,0,0,0,0,0,0,0,-1,1238,834,0,0
21,190,0,0,0,0,0,0,0,0,0,-1,1245,834,0,0
28,190,0,0,0,0,0,0,0,0,0,-1,1252,834,0,0
35,190,0,0,0,0,0,0,0,0,0,-1,1259,834,0,0
42,190,0,0,0,0,0,0,0,0,0,-1,1266,834,0,0
49,190,0,0,0,0,0,0,0,0,0,-1,1273,834,0,0
56,190,0,0,0,0,0,0,0,0,0,-1,1280,834,0,0
63,190,0,0,0,0,0,0,0,0,0,-1,1287,834,0,0
70,190,0,0,0,0,0,0,0,0,0,-1,1294,834,0,0
77,190,0,0,0,0,0,0,0,0,0,-1,1301,834,0,0
84,190,0,0,0,0,0,0,0,0,0,-1,1308,834,0,0
91,190,0,0,0,0,0,0,0,0,0,-1,1315,834,0,0
98,190,0,0,0,0,0,0,0,0,0,-1,1322,834,0,0
105,190,0,0,0,0,0,0,0,0,0,-1,1329,834,0,0
112,190,0,0,0,0,0,0,0,0,0,-1,1336,834,0,0
119,190,0,0,0,0,0,0,0,0,0,-1,1343,834,0,0
126,190,0,0,0,0,0,0,0,0,0,-1,1350,834,0,0
133,190,0,0,0,0,0,0,0,0,0,-1,1357,834,0,0
140,190,0,0,0,0,0,0,0,0,0,-1,1364,834,0,0
147,190,0,0,0,0,0,0,0,0,0,-1,1371,834,0,0
154,190,0,0,0,0,0,0,0,0,0,-1,1378,834,0,0
161,190,0,0,0,0,0,0,0,0,0,-1,1385,834,0,0
168,190,0,0,0,0,0,0,0,0,0,-1,1392,834,0,0
175,190,0,0,0,0,0,0,0,0,0,-1,1399,834,0,0
182,190,0,0,0,0,0,0,0,0,0,-1,1406,834,0,0
189,190,0,0,0,0,0,0,0,0,0,-1,1413,834,0,0
196,190,0,0,0,0,0,0,0,0,0,-1,1420,834,0,0
203,190,0,0,0,0,0,0,0,0,0,-1,1427,834,0,0
210,190,0,0,0,0,0,0,0,0,0,-1,1434,834,0,0
217,190,0,0,0,0,0,0,0,0,0,-1,1441,834,0,0
224,190,0,0,0,0,0,0,0,0,0,-1,1448,834,0,0
231,190,0,0,0,0,0,0,0,0,0,-1,1455,834,0,0
238,190,0,0,0,0,0,0,0,0,0,-1,1462,834,0,0
245,190,0,0,0,0,0,0,0,0,0,-1,1469,834,0,0
252,190,0,0,0,0,0,0,0,0,0,-1,1476,834,0,0
259,190,0,0,0,0,0,0,0,0,0,-1,1483,834,0,0
266,190,0,0,0,0,0,0,0,0,0,-1,1490,834,0,0
273,190,0,0,0,0,0,0,0,0,0,-1,1497,834,0,0
280,190,0,0,0,0,0,0,0,0,0,-1,1504,834,0,0
287,190,0,0,0,0,0,0,0,0,0,-1,1511,834,0,0
294,190,0,0,0,0,0,0,0,0,0,-1,1518,834,0,0
301,190,0,0,0,0,0,0,0,0,0,-1,1525,834,0,0
308,190,0,0,0,0,0,0,0,0,0,-1,1532,834,0,0
315,190,0,0,0,0,0,0,0,0,0,-1,1539,834,0,0
322,190,0,0,0,0,0,0,0,0,0,-1,1546,834,0,0
329,190,0,0,0,0,0,0,0,0,0,-1,1553,834,0,0
336,190,0,0,0,0,0,0,0,0,0,-1,1560,834,0,0
343,190,0,0,0,0,0,0,0,0,0,-1,1567,834,0,0
350,190,0,0,0,0,0,0,0,0,0,-1,1574,834,0,0
357,190,0,0,0,0,0,0,0,0,0,-1,1581,834,0,0
364,190,0,0,0,0,0,0,0,0,0,-1,1588,834,0,0
371,190,0,0,0,0,0,0,0,0,0,-1,1595,834,0,0
378,190,0,0,0,0,0,0,0,0,0,-1,1602,834,0,0
385,190,0,0,0,0,0,0,0,0,0,-1,1609,834,0,0
392,190,0,0,0,0,0,0,0,0,0,-1,1616,834,0,0
399,190,0,0,0,0,0,0,0,0,0,-1,1623,834,0,0
406,190,0,0,0,0,0,0,0,0,0,-1,1630,834,0,0
413,190,0,0,0,0,0,0,0,0,0,-1,1637,834,0,0
420,190,0,0,0,0,0,0,0,0,0,-1,1644,834,0,0
427,190,0,0,0,0,0,0,0,0,0,-1,1651,834,0,0
434,190,0,0,0,0,0,0,0,0,0,-1,1658,834,0,0
441,190,0,0,0,0,0,0,0,0,0,-1,1665,834,0,0
448,190,0,0,0,0,0,0,0,0,0,-1,1672,834,0,0
455,190,0,0,0,0,0,0,0,0,0,-1,1679,834,0,0
462,190,0,0,0,0,0,0,0,0,0,-1,1686,834,0,0
469,190,0,0,0,0,0,0,0,0,0,-1,1693,834,0,0
476,190,0,0,0,0,0,0,0,0,0,-1,1700,834,0,0
483,190,0,0,0,0,0,0,0,0,0,-1,1707,834,0,0
490,190,0,0,0,0,0,0,0,0,0,-1,1714,834,0,0
497,190,0,0,0,0,0,0,0,0,0,-1,1721,834,0,0
504,190,0,0,0,0,0,0,0,0,0,-1,1728,834,0,0
511,190,0,0,0,0,0,0,0,0,0,-1,1735,834,0,0
518,190,0,0,0,0,0,0,0,0,0,-1,1742,834,0,0
525,190,0,0,0,0,0,0,0,0,0,-1,1749,834,0,0
532,190,0,0,0,0,0,0,0,0,0,-1,1756,834,0,0
539,190,0,0,0,0,0,0,0,0,0,-1,1763,834,0,0
546,190,0,0,0,0,0,0,0,0,0,-1,1770,834,0,0
553,190,0,0,0,0,0,0,0,0,0,-1,1777,834,0,0
560,190,0,0,0,0,0,0,0,0,0,-1,1784,834,0,0
567,190,0,0,0,0,0,0,0,0,0,-1,1791,834,0,0
574,190,0,0,0,0,0,0,0,0,0,-1,1798,834,0,0
581,190,0,0,0,0,0,0,0,0,0,-1,1805,834,0,0
588,190,0,0,0,0,0,0,0,0,0,-1,1812,834,0,0
595,190,0,0,0,0,0,0,0,0,0,-1,1819,834,0,0
602,190,75.83,2.67322,0.00233761,-0.00287349,-0.00134734,0.00266535,-0.00320123,-0.238618,0.00339178,0.0453884,1826,834,75.8299,-2.67321
609,190,75.7095,2.61365,0.00234024,-0.00293475,-0.00134411,0.00266298,-0.0032575,-0.235656,0.00342393,0.0420307,1833,834,75.7095,-2.61368
616,190,76.0001,2.47211,0.00178179,-0.00253307,-0.00129252,0.00213934,-0.00289062,-0.26988,0.00291483,0.0393719,1840,834,76.0001,-2.4721
623,190,76.1282,2.4115,0.000941769,-0.00183421,-0.0010473,0.00129256,-0.002185,-0.323201,0.00202969,0.0361661,1847,834,76.1282,-2.41149
630,190,76.1088,2.37463,0.000278516,-0.000737519,-0.000717017,0.000649245,-0.00110825,-0.477189,0.00102616,0.0365324,1854,834,76.1087,-2.37463
637,190,76.0356,2.40833,-0.00014556,-0.000229833,-0.00059183,0.000405632,-0.000781025,-0.74986,0.00069645,0.0330971,1861,834,76.0357,-2.40835
644,190,75.9202,2.50256,-0.000561449,-5.54249e-05,-0.000667504,0.00040541,-0.00102228,-0.966553,0.00084954,0.0294102,1868,834,75.9202,-2.50255
651,190,75.9187,2.54657,0,0,0,0,0,0,0,-1,1875,834,75.9187,-2.5466
658,190,54.0599,3.0943,0,0,0,0,0,0,0,-1,1882,834,54.0599,-3.09428
665,190,25.9916,3.05157,0,0,0,0,0,0,0,-1,1889,834,25.9916,-3.05156
672,190,27.2662,1.70862,0,0,0,0,0,0,0,-1,1896,834,27.2662,-1.70861
679,190,59.8546,-1.09723,0,0,0,0,0,0,0,-1,1903,834,59.8547,1.09724
686,190,59.8783,-0.202271,-0.00211957,0.000954929,-0.00130803,0.00143611,-0.00260075,-1.21829,0.0023628,0.0304457,1910,834,59.8783,0.202296
693,190,59.8754,0.713806,-0.00212322,0.000840684,-0.0015657,0.00151456,-0.0027971,-1.16436,0.00252578,0.0375274,1917,834,59.8754,-0.713784
700,190,59.5898,1.52118,-0.00218364,0.000498801,-0.00181241,0.00141229,-0.00309713,-1.10394,0.0026634,0.0256343,1924,834,59.5898,-1.52116
707,190,59.563,2.40863,-0.00240313,0.000209991,-0.00201242,0.00130279,-0.00349593,-1.07332,0.00286537,0.0143693,1931,834,59.563,-2.4086
714,190,59.5436,3.26959,-0.00254084,0.000116114,-0.00210524,0.00127699,-0.00370172,-1.06686,0.00298593,0.0127394,1938,834,59.5436,-3.2696
721,190,59.5039,4.13251,-0.00319354,0.000107396,-0.00219657,0.00120447,-0.00429061,-1.10759,0.0033352,0.0114712,1945,834,59.5039,-4.13253
728,190,59.4403,5.01074,-0.0044489,-7.07094e-05,-0.00235274,0.000953843,-0.00547345,-1.16009,0.00400496,0.013104,1952,834,59.4403,-5.01076
735,190,59.3672,5.88098,-0.00626174,-0.000461743,-0.00273786,0.000626475,-0.00734995,-1.19247,0.00512158,0.0128034,1959,834,59.3672,-5.88096
742,190,59.313,6.78064,-0.00886163,-0.00130919,-0.00343976,2.26055e-05,-0.0101934,-1.20139,0.00680316,0.0185536,1966,834,59.3129,-6.78064
749,190,59.0076,7.8811,-0.0126104,-0.00294537,-0.00472117,-0.00102195,-0.0145338,-1.18392,0.00936718,0.0418944,1973,834,59.0076,-7.88112
756,190,58.6663,8.95947,-0.0176356,-0.00534533,-0.00675345,-0.00235965,-0.0206213,-1.15453,0.0130324,0.0490453,1980,834,58.6663,-8.95946
763,190,58.5272,9.88953,0,0,0,0,0,0,0,-1,1987,834,58.5273,-9.88955
770,190,54.7947,10.1494,0,0,0,0,0,0,0,-1,1994,834,54.7947,-10.1494
777,190,51.4365,10.3331,0,0,0,0,0,0,0,-1,2001,834,51.4366,-10.3331
784,190,0,0,0,0,0,0,0,0,0,-1,2008,834,0,0
791,190,0,0,0,0,0,0,0,0,0,-1,2015,834,0,0
798,190,0,0,0,0,0,0,0,0,0,-1,2022,834,0,0
805,190,0,0,0,0,0,0,0,0,0,-1,2029,834,0,0
812,190,0,0,0,0,0,0,0,0,0,-1,2036,834,0,0
-700,183,0,0,0,0,0,0,0,0,0,-1,524,841,0,0
-693,183,0,0,0,0,0,0,0,0,0,-1,531,841,0,0
-686,183,0,0,0,0,0,0,0,0,0,-1,538,841,0,0
-679,183,0,0,0,0,0,0,0,0,0,-1,545,841,0,0
-672,183,0,0,0,0,0,0,0,0,0,-1,552,841,0,0
-665,183,0,0,0,0,0,0,0,0,0,-1,559,841,0,0
-658,183,-56.7401,1.32843,0,0,0,0,0,0,0,-1,566,841,-56.7401,-1.32844
-651,183,-44.3059,12.2423,0,0,0,0,0,0,0,-1,573,841,-44.3059,-12.2423
-644,183,-44.0252,10.6679,0,0,0,0,0,0,0,-1,580,841,-44.0252,-10.6679
-637,183,-44.7339,9.56293,0,0,0,0,0,0,0,-1,587,841,-44.7339,-9.5629
-630,183,-44.7515,8.0575,0,0,0,0,0,0,0,-1,594,841,-44.7515,-8.05749
-623,183,-44.7323,7.18488,0.00732298,-0.000709066,0.0013593,0.00754678,-0.000932868,0.163182,0.00536922,0.0497953,601,841,-44.7323,-7.18489
-616,183,-44.7229,6.33051,0.00391461,-0.000220518,0.00172891,0.00454222,-0.000848124,0.348215,0.00334687,0.0414015,608,841,-44.7229,-6.33049
-609,183,-44.7404,5.49786,0.00169573,0.000358042,0.00184879,0.00299294,-0.000939173,0.611836,0.00237118,0.0196963,615,841,-44.7404,-5.49787
-602,183,-44.7968,4.60455,0.000197702,0.00073104,0.0017553,0.00223982,-0.00131107,0.860783,0.00207335,0.0126276,622,841,-44.7968,-4.60453
-595,183,-44.8486,3.70355,-0.00087746,0.00107789,0.00159634,0.00197215,-0.00177172,1.06016,0.00216256,0.0124638,629,841,-44.8487,-3.70355
-588,183,-44.8572,2.81097,-0.00163074,0.00134687,0.00141498,0.00191202,-0.00219589,1.19081,0.00237359,0.0152164,636,841,-44.8572,-2.81095
-581,183,-44.9338,1.94421,-0.00205075,0.00163875,0.00116214,0.00197429,-0.00238629,1.28971,0.00252133,0.0161601,643,841,-44.9338,-1.94423
-574,183,-44.9558,1.07745,-0.00223634,0.0020239,0.000845369,0.00218552,-0.00239796,1.3819,0.00264722,0.0225782,650,841,-44.9558,-1.07746
-567,183,-44.7935,-0.0956421,0,0,0,0,0,0,0,-1,657,841,-44.7934,0.0956376
-560,183,-34.0303,-1.05511,0,0,0,0,0,0,0,-1,664,841,-34.0303,1.05511
-553,183,-32.2224,-1.71942,0,0,0,0,0,0,0,-1,671,841,-32.2224,1.71944
-546,183,-27.8053,-1.91199,0,0,0,0,0,0,0,-1,678,841,-27.8053,1.91201
-539,183,-16.8032,-0.417297,0,0,0,0,0,0,0,-1,685,841,-16.8032,0.41732
-532,183,-29.9686,0.953613,0,0,0,0,0,0,0,-1,692,841,-29.9686,-0.953627
-525,183,-55.6847,0.842468,0,0,0,0,0,0,0,-1,699,841,-55.6847,-0.842446
-518,183,-59.6412,0.0793457,0,0,0,0,0,0,0,-1,706,841,-59.6412,-0.0793375
-511,183,-59.6447,0.0438232,0,0,0,0,0,0,0,-1,713,841,-59.6447,-0.0438505
-504,183,-59.5415,0.307678,0,0,0,0,0,0,0,-1,720,841,-59.5415,-0.307671
-497,183,-59.5554,0.656372,0,0,0,0,0,0,0,-1,727,841,-59.5554,-0.65638
-490,183,-59.494,0.444885,0,0,0,0,0,0,0,-1,734,841,-59.494,-0.444898
-483,183,0,0,0,0,0,0,0,0,0,-1,741,841,0,0
-476,183,0,0,0,0,0,0,0,0,0,-1,748,841,0,0
-469,183,0,0,0,0,0,0,0,0,0,-1,755,841,0,0
-462,183,0,0,0,0,0,0,0,0,0,-1,762,841,0,0
-455,183,0,0,0,0,0,0,0,0,0,-1,769,841,0,0
-448,183,0,0,0,0,0,0,0,0,0,-1,776,841,0,0
-441,183,0,0,0,0,0,0,0,0,0,-1,783,841,0,0
-434,183,0,0,0,0,0,0,0,0,0,-1,790,841,0,0
-427,183,0,0,0,0,0,0,0,0,0,-1,797,841,0,0
-420,183,0,0,0,0,0,0,0,0,0,-1,804,841,0,0
-413,183,0,0,0,0,0,0,0,0,0,-1,811,841,0,0
-406,183,0,0,0,0,0,0,0,0,0,-1,818,841,0,0
-399,183,0,0,0,0,0,0,0,0,0,-1,825,841,0,0
-392,183,0,0,0,0,0,0,0,0,0,-1,832,841,0,0
-385,183,0,0,0,0,0,0,0,0,0,-1,839,841,0,0
-378,183,0,0,0,0,0,0,0,0,0,-1,846,841,0,0
-371,183,0,0,0,0,0,0,0,0,0,-1,853,841,0,0
-364,183,0,0,0,0,0,0,0,0,0,-1,860,841,0,0
-357,183,0,0,0,0,0,0,0,0,0,-1,867,841,0,0
-350,183,0,0,0,0,0,0,0,0,0,-1,874,841,0,0
-343,183,0,0,0,0,0,0,0,0,0,-1,881,841,0,0
-336,183,0,0,0,0,0,0,0,0,0,-1,888,841,0,0
-329,183,0,0,0,0,0,0,0,0,0,-1,895,841,0,0
-322,183,0,0,0,0,0,0,0,0,0,-1,902,841,0,0
-315,183,0,0,0,0,0,0,0,0,0,-1,909,841,0,0
-308,183,0,0,0,0,0,0,0,0,0,-1,916,841,0,0
-301,183,0,0,0,0,0,0,0,0,0,-1,923,841,0,0
-294,183,0,0,0,0,0,0,0,0,0,-1,930,841,0,0
-287,183,0,0,0,0,0,0,0,0,0,-1,937,841,0,0
-280,183,0,0,0,0,0,0,0,0,0,-1,944,841,0,0
-273,183,0,0,0,0,0,0,0,0,0,-1,951,841,0,0
-266,183,0,0,0,0,0,0,0,0,0,-1,958,841,0,0
-259,183,0,0,0,0,0,0,0,0,0,-1,965,841,0,0
-252,183,0,0,0,0,0,0,0,0,0,-1,972,841,0,0
-245,183,0,0,0,0,0,0,0,0,0,-1,979,841,0,0
-238,183,0,0,0,0,0,0,0,0,0,-1,986,841,0,0
-231,183,0,0,0,0,0,0,0,0,0,-1,993,841,0,0
-224,183,0,0,0,0,0,0,0,0,0,-1,1000,841,0,0
-217,183,0,0,0,0,0,0,0,0,0,-1,1007,841,0,0
-210,183,0,0,0,0,0,0,0,0,0,-1,1014,841,0,0
-203,183,0,0,0,0,0,0,0,0,0,-1,1021,841,0,0
-196,183,0,0,0,0,0,0,0,0,0,-1,1028,841,0,0
-189,183,0,0,0,0,0,0,0,0,0,-1,1035,841,0,0
-182,183,0,0,0,0,0,0,0,0,0,-1,1042,841,0,0
-175,183,0,0,0,0,0,0,0,0,0,-1,1049,841,0,0
-168,183,0,0,0,0,0,0,0,0,0,-1,1056,841,0,0
-161,183,0,0,0,0,0,0,0,0,0,-1,1063,841,0,0
-154,183,0,0,0,0,0,0,0,0,0,-1,1070,841,0,0
-147,183,0,0,0,0,0,0,0,0,0,-1,1077,841,0,0
-140,183,0,0,0,0,0,0,0,0,0,-1,1084,841,0,0
-133,183,0,0,0,0,0,0,0,0,0,-1,1091,841,0,0
-126,183,0,0,0,0,0,0,0,0,0,-1,1098,841,0,0
-119,183,0,0,0,0,0,0,0,0,0,-1,1105,841,0,0
-112,183,0,0,0,0,0,0,0,0,0,-1,1112,841,0,0
-105,183,0,0,0,0,0,0,0,0,0,-1,1119,841,0,0
-98,183,0,0,0,0,0,0,0,0,0,-1,1126,841,0,0
-91,183,0,0,0,0,0,0,0,0,0,-1,1133,841,0,0
-84,183,0,0,0,0,0,0,0,0,0,-1,1140,841,0,0
-77,183,0,0,0,0,0,0,0,0,0,-1,1147,841,0,0
-70,183,0,0,0,0,0,0,0,0,0,-1,1154,841,0,0
-63,183,0,0,0,0,0,0,0,0,0,-1,1161,841,0,0
-56,183,0,0,0,0,0,0,0,0,0,-1,1168,841,0,0
-49,183,0,0,0,0,0,0,0,0,0,-1,1175,841,0,0
-42,183,0,0,0,0,0,0,0,0,0,-1,1182,841,0,0
-35,183,0,0,0,0,0,0,0,0,0,-1,1189,841,0,0
-28,183,0,0,0,0,0,0,0,0,0,-1,1196,841,0,0
-21,183,0,0,0,0,0,0,0,0,0,-1,1203,841,0,0
-14,183,0,0,0,0,0,0,0,0,0,-1,1210,841,0,0
-7,183,0,0,0,0,0,0,0,0,0,-1,1217,841,0,0
0,183,0,0,0,0,0,0,0,0,0,-1,1224,841,0,0
7,183,0,0,0,0,0,0,0,0,0,-1,1231,841,0,0
14,183,0,0,0,0,0,0,0,0,0,-1,1238,841,0,0
21,183,0,0,0,0,0,0,0,0,0,-1,1245,841,0,0
28,183,0,0,0,0,0,0,0,0,0,-1,1252,841,0,0
35,183,0,0,0,0,0,0,0,0,0,-1,1259,841,0,0
42,183,0,0,0,0,0,0,0,0,0,-1,1266,841,0,0
49,183,0,0,0,0,0,0,0,0,0,-1,1273,841,0,0
56,183,0,0,0,0,0,0,0,0,0,-1,1280,841,0,0
63,183,0,0,0,0,0,0,0,0,0,-1,1287,841,0,0
70,183,0,0,0,0,0,0,0,0,0,-1,1294,841,0,0
77,183,0,0,0,0,0,0,0,0,0,-1,1301,841,0,0
84,183,0,0,0,0,0,0,0,0,0,-1,1308,841,0,0
91,183,0,0,0,0,0,0,0,0,0,-1,1315,841,0,0
98,183,0,0,0,0,0,0,0,0,0,-1,1322,841,0,0
105,183,0,0,0,0,0,0,0,0,0,-1,1329,841,0,0
112,183,0,0,0,0,0,0,0,0,0,-1,1336,841,0,0
119,183,0,0,0,0,0,0,0,0,0,-1,1343,841,0,0
126,183,0,0,0,0,0,0,0,0,0,-1,1350,841,0,0
133,183,0,0,0,0,0,0,0,0,0,-1,1357,841,0,0
140,183,0,0,0,0,0,0,0,0,0,-1,1364,841,0,0
147,183,0,0,0,0,0,0,0,0,0,-1,1371,841,0,0
154,183,0,0,0,0,0,0,0,0,0,-1,1378,841,0,0
161,183,0,0,0,0,0,0,0,0,0,-1,1385,841,0,0
168,183,0,0,0,0,0,0,0,0,0,-1,1392,841,0,0
175,183,0,0,0,0,0,0,0,0,0,-1,1399,841,0,0
182,183,0,0,0,0,0,0,0,0,0,-1,1406,841,0,0
189,183,0,0,0,0,0,0,0,0,0,-1,1413,841,0,0
196,183,0,0,0,0,0,0,0,0,0,-1,1420,841,0,0
203,183,0,0,0,0,0,0,0,0,0,-1,1427,841,0,0
210,183,0,0,0,0,0,0,0,0,0,-1,1434,841,0,0
217,183,0,0,0,0,0,0,0,0,0,-1,1441,841,0,0
224,183,0,0,0,0,0,0,0,0,0,-1,1448,841,0,0
231,183,0,0,0,0,0,0,0,0,0,-1,1455,841,0,0
238,183,0,0,0,0,0,0,0,0,0,-1,1462,841,0,0
245,183,0,0,0,0,0,0,0,0,0,-1,1469,841,0,0
252,183,0,0,0,0,0,0,0,0,0,-1,1476,841,0,0
259,183,0,0,0,0,0,0,0,0,0,-1,1483,841,0,0
266,183,0,0,0,0,0,0,0,0,0,-1,1490,841,0,0
273,183,0,0,0,0,0,0,0,0,0,-1,1497,841,0,0
280,183,0,0,0,0,0,0,0,0,0,-1,1504,841,0,0
287,183,0,0,0,0,0,0,0,0,0,-1,1511,841,0,0
294,183,0,0,0,0,0,0,0,0,0,-1,1518,841,0,0
301,183,0,0,0,0,0,0,0,0,0,-1,1525,841,0,0
308,183,0,0,0,0,0,0,0,0,0,-1,1532,841,0,0
315,183,0,0,0,0,0,0,0,0,0,-1,1539,841,0,0
322,183,0,0,0,0,0,0,0,0,0,-1,1546,841,0,0
329,183,0,0,0,0,0,0,0,0,0,-1,1553,841,0,0
336,183,0,0,0,0,0,0,0,0,0,-1,1560,841,0,0
343,183,0,0,0,0,0,0,0,0,0,-1,1567,841,0,0
350,183,0,0,0,0,0,0,0,0,0,-1,1574,841,0,0
357,183,0,0,0,0,0,0,0,0,0,-1,1581,841,0,0
364,183,0,0,0,0,0,0,0,0,0,-1,1588,841,0,0
371,183,0,0,0,0,0,0,0,0,0,-1,1595,841,0,0
378,183,0,0,0,0,0,0,0,0,0,-1,1602,841,0,0
385,183,0,0,0,0,0,0,0,0,0,-1,1609,841,0,0
392,183,0,0,0,0,0,0,0,0,0,-1,1616,841,0,0
399,183,0,0,0,0,0,0,0,0,0,-1,1623,841,0,0
406,183,0,0,0,0,0,0,0,0,0,-1,1630,841,0,0
413,183,0,0,0,0,0,0,0,0,0,-1,1637,841,0,0
420,183,0,0,0,0,0,0,0,0,0,-1,1644,841,0,0
427,183,0,0,0,0,0,0,0,0,0,-1,1651,841,0,0
434,183,0,0,0,0,0,0,0,0,0,-1,1658,841,0,0
441,183,0,0,0,0,0,0,0,0,0,-1,1665,841,0,0
448,183,0,0,0,0,0,0,0,0,0,-1,1672,841,0,0
455,183,0,0,0,0,0,0,0,0,0,-1,1679,841,0,0
462,183,0,0,0,0,0,0,0,0,0,-1,1686,841,0,0
469,183,0,0,0,0,0,0,0,0,0,-1,1693,841,0,0
476,183,0,0,0,0,0,0,0,0,0,-1,1700,841,0,0
483,183,0,0,0,0,0,0,0,0,0,-1,1707,841,0,0
490,183,0,0,0,0,0,0,0,0,0,-1,1714,841,0,0
497,183,0,0,0,0,0,0,0,0,0,-1,1721,841,0,0
504,183,0,0,0,0,0,0,0,0,0,-1,1728,841,0,0
511,183,0,0,0,0,0,0,0,0,0,-1,1735,841,0,0
518,183,0,0,0,0,0,0,0,0,0,-1,1742,841,0,0
525,183,0,0,0,0,0,0,0,0,0,-1,1749,841,0,0
532,183,0,0,0,0,0,0,0,0,0,-1,1756,841,0,0
539,183,0,0,0,0,0,0,0,0,0,-1,1763,841,0,0
546,183,0,0,0,0,0,0,0,0,0,-1,1770,841,0,0
553,183,0,0,0,0,0,0,0,0,0,-1,1777,841,0,0
560,183,0,0,0,0,0,0,0,0,0,-1,1784,841,0,0
567,183,0,0,0,0,0,0,0,0,0,-1,1791,841,0,0
574,183,0,0,0,0,0,0,0,0,0,-1,1798,841,0,0
581,183,0,0,0,0,0,0,0,0,0,-1,1805,841,0,0
588,183,0,0,0,0,0,0,0,0,0,-1,1812,841,0,0
595,183,0,0,0,0,0,0,0,0,0,-1,1819,841,0,0
602,183,0,0,0,0,0,0,0,0,0,-1,1826,841,0,0
609,183,75.7782,2.57312,0.00247594,-0.00239808,-0.00155546,0.00293003,-0.00285218,-0.284041,0.00333846,0.0392822,1833,841,75.7782,-2.5731
616,183,75.8816,2.50195,0.00218118,-0.00211116,-0.00150429,0.00265587,-0.00258586,-0.305671,0.00302641,0.0377899,1840,841,75.8815,-2.50192
623,183,75.9973,2.41211,0.00131469,-0.0015939,-0.00123967,0.00177135,-0.00205056,-0.352948,0.00220854,0.0424077,1847,841,75.9973,-2.41211
630,183,75.9026,2.46893,0.000354154,-0.000662843,-0.000888246,0.000869156,-0.00117784,-0.525431,0.00118631,0.0389524,1854,841,75.9026,-2.46894
637,183,75.9492,2.43787,-0.000342402,-1.59957e-05,-0.000702998,0.000542494,-0.000900892,-0.899454,0.000841859,0.0337373,1861,841,75.9492,-2.43788
644,183,75.8761,2.44849,-0.000865691,0.000207864,-0.000756386,0.000598582,-0.00125641,-1.09399,0.0010932,0.0289227,1868,841,75.8761,-2.44848
651,183,75.9529,2.48651,-0.00120113,0.000319049,-0.000812057,0.000671242,-0.00155332,-1.16158,0.00131758,0.0381883,1875,841,75.9529,-2.48653
658,183,76.0245,2.47858,0,0,0,0,0,0,0,-1,1882,841,76.0245,-2.47856
665,183,38.4337,2.66992,0,0,0,0,0,0,0,-1,1889,841,38.4337,-2.6699
672,183,29.168,1.54572,0,0,0,0,0,0,0,-1,1896,841,29.168,-1.54574
679,183,60.767,-0.954102,0,0,0,0,0,0,0,-1,1903,841,60.7669,0.9541
686,183,60.734,-0.130798,-0.00237573,0.00103729,-0.00156691,0.00164754,-0.00298598,-1.19941,0.00271211,0.0393669,1910,841,60.734,0.130791
693,183,60.6849,0.664978,-0.00241443,0.000988003,-0.00176083,0.00173518,-0.00316161,-1.16949,0.00286687,0.0361498,1917,841,60.685,-0.664996
700,183,60.4323,1.57251,0,0,0,0,0,0,0,-1,1924,841,60.4322,-1.57253
707,183,60.4316,2.46368,-0.00252943,0.000446731,-0.00227385,0.00167615,-0.00375885,-1.07514,0.00321378,0.0151717,1931,841,60.4316,-2.4637
714,183,60.459,3.31769,-0.00240871,0.000346751,-0.00242607,0.001759,-0.00382095,-1.04363,0.00329409,0.0177158,1938,841,60.459,-3.31767
721,183,60.3899,4.19147,-0.00279744,0.000335433,-0.00249167,0.00171215,-0.00417416,-1.06601,0.00349615,0.0160877,1945,841,60.39,-4.19149
728,183,60.3193,5.06403,-0.00387382,0.000172119,-0.0025433,0.00139889,-0.00510058,-1.12137,0.00395013,0.0141047,1952,841,60.3193,-5.064
735,183,60.2843,5.90979,-0.00546465,-0.000165047,-0.00280792,0.00104596,-0.00667566,-1.16362,0.00483694,0.0131955,1959,841,60.2842,-5.90978
742,183,60.2411,6.77429,-0.00770022,-0.000826654,-0.00335985,0.000542815,-0.00906969,-1.18376,0.00623528,0.0138297,1966,841,60.2411,-6.77427
749,183,60.2477,7.92719,-0.0108342,-0.00210066,-0.00439795,-0.000269794,-0.0126651,-1.17632,0.0083549,0.0364927,1973,841,60.2477,-7.92719
756,183,60.1769,9.2713,-0.0150271,-0.00390533,-0.00608458,-0.00122331,-0.0177091,-1.15563,0.0114202,0.0470312,1980,841,60.1769,-9.27129
763,183,60.2441,10.362,0,0,0,0,0,0,0,-1,1987,841,60.2441,-10.362
770,183,51.5659,9.50665,0,0,0,0,0,0,0,-1,1994,841,51.5659,-9.50663
777,183,42.1948,7.22906,0,0,0,0,0,0,0,-1,2001,841,42.1948,-7.22905
784,183,0,0,0,0,0,0,0,0,0,-1,2008,841,0,0
791,183,0,0,0,0,0,0,0,0,0,-1,2015,841,0,0
798,183,0,0,0,0,0,0,0,0,0,-1,2022,841,0,0
805,183,0,0,0,0,0,0,0,0,0,-1,2029,841,0,0
812,183,0,0,0,0,0,0,0,0,0,-1,2036,841,0,0
-700,176,0,0,0,0,0,0,0,0,0,-1,524,848,0,0
-693,176,0,0,0,0,0,0,0,0,0,-1,531,848,0,0
-686,176,0,0,0,0,0,0,0,0,0,-1,538,848,0,0
-679,176,0,0,0,0,0,0,0,0,0,-1,545,848,0,0
-672,176,0,0,0,0,0,0,0,0,0,-1,552,848,0,0
-665,176,-59.6962,8.75854,0,0,0,0,0,0,0,-1,559,848,-59.6962,-8.75853
-658,176,-59.6349,7.95142,0,0,0,0,0,0,0,-1,566,848,-59.6349,-7.95144
-651,176,-44.4019,11.7273,0,0,0,0,0,0,0,-1,573,848,-44.4018,-11.7273
-644,176,-44.2437,10.2178,0,0,0,0,0,0,0,-1,580,848,-44.2437,-10.2178
-637,176,-44.488,9.01129,0,0,0,0,0,0,0,-1,587,848,-44.488,-9.01132
-630,176,-45.5476,7.97845,0,0,0,0,0,0,0,-1,594,848,-45.5476,-7.97843
-623,176,-45.5339,7.17767,0.00618783,0.000241487,0.00132219,0.00646858,-3.92541e-05,0.209222,0.00432553,0.0455749,601,848,-45.5339,-7.17765
-616,176,-45.498,6.44104,0.00304729,0.000350341,0.0017942,0.00394326,-0.000545629,0.463144,0.00282832,0.0297065,608,848,-45.498,-6.44105
-609,176,-45.6443,5.53174,0.000807021,0.000634355,0.00201216,0.0027347,-0.00129333,0.763959,0.0023747,0.0138049,615,848,-45.6443,-5.53175
-602,176,-45.6803,4.62579,-0.000905794,0.000816185,0.0020407,0.00217009,-0.0022597,0.985023,0.00255771,0.0136543,622,848,-45.6803,-4.62579
-595,176,-45.7382,3.73108,-0.00229602,0.00103345,0.00199302,0.00196553,-0.0032281,1.13334,0.00302794,0.0128225,629,848,-45.7382,-3.73105
-588,176,-45.7557,2.88,-0.0034236,0.00120949,0.00189182,0.00188382,-0.00409793,1.22839,0.00353155,0.0147282,636,848,-45.7558,-2.87998
-581,176,-45.8456,2.06506,-0.00425972,0.00144815,0.00169074,0.00191138,-0.00472294,1.30338,0.00394331,0.0149492,643,848,-45.8457,-2.06506
-574,176,-45.9736,1.22333,-0.00488121,0.00181271,0.00139135,0.00209039,-0.00515889,1.37381,0.00430854,0.0321589,650,848,-45.9736,-1.22333
-567,176,-45.9779,0.234863,0,0,0,0,0,0,0,-1,657,848,-45.9779,-0.234886
-560,176,-31.6935,-0.0994873,0,0,0,0,0,0,0,-1,664,848,-31.6936,0.0994584
-553,176,-29.4605,-1.50214,0,0,0,0,0,0,0,-1,671,848,-29.4605,1.50211
-546,176,-16.657,-0.403198,0,0,0,0,0,0,0,-1,678,848,-16.657,0.403182
-539,176,-22.7061,1.48657,0,0,0,0,0,0,0,-1,685,848,-22.7061,-1.48657
-532,176,-38.8326,1.29749,0,0,0,0,0,0,0,-1,692,848,-38.8326,-1.29747
-525,176,-59.5065,0.222046,0,0,0,0,0,0,0,-1,699,848,-59.5065,-0.222064
-518,176,-59.5884,0.294983,0,0,0,0,0,0,0,-1,706,848,-59.5885,-0.29497
-511,176,-59.6273,0.251282,0,0,0,0,0,0,0,-1,713,848,-59.6272,-0.251298
-504,176,-59.6698,0.282654,0,0,0,0,0,0,0,-1,720,848,-59.6698,-0.28263
-497,176,-59.6453,0.494934,0,0,0,0,0,0,0,-1,727,848,-59.6453,-0.494957
-490,176,-59.5159,0.457275,0,0,0,0,0,0,0,-1,734,848,-59.5159,-0.457291
-483,176,0,0,0,0,0,0,0,0,0,-1,741,848,0,0
-476,176,0,0,0,0,0,0,0,0,0,-1,748,848,0,0
-469,176,0,0,0,0,0,0,0,0,0,-1,755,848,0,0
-462,176,0,0,0,0,0,0,0,0,0,-1,762,848,0,0
-455,176,0,0,0,0,0,0,0,0,0,-1,769,848,0,0
-448,176,0,0,0,0,0,0,0,0,0,-1,776,848,0,0
-441,176,0,0,0,0,0,0,0,0,0,-1,783,848,0,0
-434,176,0,0,0,0,0,0,0,0,0,-1,790,848,0,0
-427,176,0,0,0,0,0,0,0,0,0,-1,797,848,0,0
-420,176,0,0,0,0,0,0,0,0,0,-1,804,848,0,0
-413,176,0,0,0,0,0,0,0,0,0,-1,811,848,0,0
-406,176,0,0,0,0,0,0,0,0,0,-1,818,848,0,0
-399,176,0,0,0,0,0,0,0,0,0,-1,825,848,0,0
-392,176,0,0,0,0,0,0,0,0,0,-1,832,848,0,0
-385,176,0,0,0,0,0,0,0,0,0,-1,839,848,0,0
-378,176,0,0,0,0,0,0,0,0,0,-1,846,848,0,0
-371,176,0,0,0,0,0,0,0,0,0,-1,853,848,0,0
-364,176,0,0,0,0,0,0,0,0,0,-1,860,848,0,0
-357,176,0,0,0,0,0,0,0,0,0,-1,867,848,0,0
-350,176,0,0,0,0,0,0,0,0,0,-1,874,848,0,0
-343,176,0,0,0,0,0,0,0,0,0,-1,881,848,0,0
-336,176,0,0,0,0,0,0,0,0,0,-1,888,848,0,0
-329,176,0,0,0,0,0,0,0,0,0,-1,895,848,0,0
-322,176,0,0,0,0,0,0,0,0,0,-1,902,848,0,0
-315,176,0,0,0,0,0,0,0,0,0,-1,909,848,0,0
-308,176,0,0,0,0,0,0,0,0,0,-1,916,848,0,0
-301,176,0,0,0,0,0,0,0,0,0,-1,923,848,0,0
-294,176,0,0,0,0,0,0,0,0,0,-1,930,848,0,0
-287,176,0,0,0,0,0,0,0,0,0,-1,937,848,0,0
-280,176,0,0,0,0,0,0,0,0,0,-1,944,848,0,0
-273,176,0,0,0,0,0,0,0,0,0,-1,951,848,0,0
-266,176,0,0,0,0,0,0,0,0,0,-1,958,848,0,0
-259,176,0,0,0,0,0,0,0,0,0,-1,965,848,0,0
-252,176,0,0,0,0,0,0,0,0,0,-1,972,848,0,0
-245,176,0,0,0,0,0,0,0,0,0,-1,979,848,0,0
-238,176,0,0,0,0,0,0,0,0,0,-1,986,848,0,0
-231,176,0,0,0,0,0,0,0,0,0,-1,993,848,0,0
-224,176,0,0,0,0,0,0,0,0,0,-1,1000,848,0,0
-217,176,0,0,0,0,0,0,0,0,0,-1,1007,848,0,0
-210,176,0,0,0,0,0,0,0,0,0,-1,1014,848,0,0
-203,176,0,0,0,0,0,0,0,0,0,-1,1021,848,0,0
-196,176,0,0,0,0,0,0,0,0,0,-1,1028,848,0,0
-189,176,0,0,0,0,0,0,0,0,0,-1,1035,848,0,0
-182,176,0,0,0,0,0,0,0,0,0,-1,1042,848,0,0
-175,176,0,0,0,0,0,0,0,0,0,-1,1049,848,0,0
-168,176,0,0,0,0,0,0,0,0,0,-1,1056,848,0,0
-161,176,0,0,0,0,0,0,0,0,0,-1,1063,848,0,0
-154,176,0,0,0,0,0,0,0,0,0,-1,1070,848,0,0
-147,176,0,0,0,0,0,0,0,0,0,-1,1077,848,0,0
-140,176,0,0,0,0,0,0,0,0,0,-1,1084,848,0,0
-133,176,0,0,0,0,0,0,0,0,0,-1,1091,848,0,0
-126,176,0,0,0,0,0,0,0,0,0,-1,1098,848,0,0
-119,176,0,0,0,0,0,0,0,0,0,-1,1105,848,0,0
-112,176,0,0,0,0,0,0,0,0,0,-1,1112,848,0,0
-105,176,0,0,0,0,0,0,0,0,0,-1,1119,848,0,0
-98,176,0,0,0,0,0,0,0,0,0,-1,1126,848,0,0
-91,176,0,0,0,0,0,0,0,0,0,-1,1133,848,0,0
-84,176,0,0,0,0,0,0,0,0,0,-1,1140,848,0,0
-77,176,0,0,0,0,0,0,0,0,0,-1,1147,848,0,0
-70,176,0,0,0,0,0,0,0,0,0,-1,1154,848,0,0
-63,176,0,0,0,0,0,0,0,0,0,-1,1161,848,0,0
-56,176,0,0,0,0,0,0,0,0,0,-1,1168,848,0,0
-49,176,0,0,0,0,0,0,0,0,0,-1,1175,848,0,0
-42,176,0,0,0,0,0,0,0,0,0,-1,1182,848,0,0
-35,176,0,0,0,0,0,0,0,0,0,-1,1189,848,0,0
-28,176,0,0,0,0,0,0,0,0,0,-1,1196,848,0,0
-21,176,0,0,0,0,0,0,0,0,0,-1,1203,848,0,0
-14,176,0,0,0,0,0,0,0,0,0,-1,1210,848,0,0
-7,176,0,0,0,0,0,0,0,0,0,-1,1217,848,0,0
0,176,0,0,0,0,0,0,0,0,0,-1,1224,848,0,0
7,176,0,0,0,0,0,0,0,0,0,-1,1231,848,0,0
14,176,0,0,0,0,0,0,0,0,0,-1,1238,848,0,0
21,176,0,0,0,0,0,0,0,0,0,-1,1245,848,0,0
28,176,0,0,0,0,0,0,0,0,0,-1,1252,848,0,0
35,176,0,0,0,0,0,0,0,0,0,-1,1259,848,0,0
42,176,0,0,0,0,0,0,0,0,0,-1,1266,848,0,0
49,176,0,0,0,0,0,0,0,0,0,-1,1273,848,0,0
56,176,0,0,0,0,0,0,0,0,0,-1,1280,848,0,0
63,176,0,0,0,0,0,0,0,0,0,-1,1287,848,0,0
70,176,0,0,0,0,0,0,0,0,0,-1,1294,848,0,0
77,176,0,0,0,0,0,0,0,0,0,-1,1301,848,0,0
84,176,0,0,0,0,0,0,0,0,0,-1,1308,848,0,0
91,176,0,0,0,0,0,0,0,0,0,-1,1315,848,0,0
98,176,0,0,0,0,0,0,0,0,0,-1,1322,848,0,0
105,176,0,0,0,0,0,0,0,0,0,-1,1329,848,0,0
112,176,0,0,0,0,0,0,0,0,0,-1,1336,848,0,0
119,176,0,0,0,0,0,0,0,0,0,-1,1343,848,0,0
126,176,0,0,0,0,0,0,0,0,0,-1,1350,848,0,0
133,176,0,0,0,0,0,0,0,0,0,-1,1357,848,0,0
140,176,0,0,0,0,0,0,0,0,0,-1,1364,848,0,0
147,176,0,0,0,0,0,0,0,0,0,-1,1371,848,0,0
154,176,0,0,0,0,0,0,0,0,0,-1,1378,848,0,0
161,176,0,0,0,0,0,0,0,0,0,-1,1385,848,0,0
168,176,0,0,0,0,0,0,0,0,0,-1,1392,848,0,0
175,176,0,0,0,0,0,0,0,0,0,-1,1399,848,0,0
182,176,0,0,0,0,0,0,0,0,0,-1,1406,848,0,0
189,176,0,0,0,0,0,0,0,0,0,-1,1413,848,0,0
196,176,0,0,0,0,0,0,0,0,0,-1,1420,848,0,0
203,176,0,0,0,0,0,0,0,0,0,-1,1427,848,0,0
210,176,0,0,0,0,0,0,0,0,0,-1,1434,848,0,0
217,176,0,0,0,0,0,0,0,0,0,-1,1441,848,0,0
224,176,0,0,0,0,0,0,0,0,0,-1,1448,848,0,0
231,176,0,0,0,0,0,0,0,0,0,-1,1455,848,0,0
238,176,0,0,0,0,0,0,0,0,0,-1,1462,848,0,0
245,176,0,0,0,0,0,0,0,0,0,-1,1469,848,0,0
252,176,0,0,0,0,0,0,0,0,0,-1,1476,848,0,0
259,176,0,0,0,0,0,0,0,0,0,-1,1483,848,0,0
266,176,0,0,0,0,0,0,0,0,0,-1,1490,848,0,0
273,176,0,0,0,0,0,0,0,0,0,-1,1497,848,0,0
280,176,0,0,0,0,0,0,0,0,0,-1,1504,848,0,0
287,176,0,0,0,0,0,0,0,0,0,-1,1511,848,0,0
294,176,0,0,0,0,0,0,0,0,0,-1,1518,848,0,0
301,176,0,0,0,0,0,0,0,0,0,-1,1525,848,0,0
308,176,0,0,0,0,0,0,0,0,0,-1,1532,848,0,0
315,176,0,0,0,0,0,0,0,0,0,-1,1539,848,0,0
322,176,0,0,0,0,0,0,0,0,0,-1,1546,848,0,0
329,176,0,0,0,0,0,0,0,0,0,-1,1553,848,0,0
336,176,0,0,0,0,0,0,0,0,0,-1,1560,848,0,0
343,176,0,0,0,0,0,0,0,0,0,-1,1567,848,0,0
350,176,0,0,0,0,0,0,0,0,0,-1,1574,848,0,0
357,176,0,0,0,0,0,0,0,0,0,-1,1581,848,0,0
364,176,0,0,0,0,0,0,0,0,0,-1,1588,848,0,0
371,176,0,0,0,0,0,0,0,0,0,-1,1595,848,0,0
378,176,0,0,0,0,0,0,0,0,0,-1,1602,848,0,0
385,176,0,0,0,0,0,0,0,0,0,-1,1609,848,0,0
392,176,0,0,0,0,0,0,0,0,0,-1,1616,848,0,0
399,176,0,0,0,0,0,0,0,0,0,-1,1623,848,0,0
406,176,0,0,0,0,0,0,0,0,0,-1,1630,848,0,0
413,176,0,0,0,0,0,0,0,0,0,-1,1637,848,0,0
420,176,0,0,0,0,0,0,0,0,0,-1,1644,848,0,0
427,176,0,0,0,0,0,0,0,0,0,-1,1651,848,0,0
434,176,0,0,0,0,0,0,0,0,0,-1,1658,848,0,0
441,176,0,0,0,0,0,0,0,0,0,-1,1665,848,0,0
448,176,0,0,0,0,0,0,0,0,0,-1,1672,848,0,0
455,176,0,0,0,0,0,0,0,0,0,-1,1679,848,0,0
462,176,0,0,0,0,0,0,0,0,0,-1,1686,848,0,0
469,176,0,0,0,0,0,0,0,0,0,-1,1693,848,0,0
476,176,0,0,0,0,0,0,0,0,0,-1,1700,848,0,0
483,176,0,0,0,0,0,0,0,0,0,-1,1707,848,0,0
490,176,0,0,0,0,0,0,0,0,0,-1,1714,848,0,0
497,176,0,0,0,0,0,0,0,0,0,-1,1721,848,0,0
504,176,0,0,0,0,0,0,0,0,0,-1,1728,848,0,0
511,176,0,0,0,0,0,0,0,0,0,-1,1735,848,0,0
518,176,0,0,0,0,0,0,0,0,0,-1,1742,848,0,0
525,176,0,0,0,0,0,0,0,0,0,-1,1749,848,0,0
532,176,0,0,0,0,0,0,0,0,0,-1,1756,848,0,0
539,176,0,0,0,0,0,0,0,0,0,-1,1763,848,0,0
546,176,0,0,0,0,0,0,0,0,0,-1,1770,848,0,0
553,176,0,0,0,0,0,0,0,0,0,-1,1777,848,0,0
560,176,0,0,0,0,0,0,0,0,0,-1,1784,848,0,0
567,176,0,0,0,0,0,0,0,0,0,-1,1791,848,0,0
574,176,0,0,0,0,0,0,0,0,0,-1,1798,848,0,0
581,176,0,0,0,0,0,0,0,0,0,-1,1805,848,0,0
588,176,0,0,0,0,0,0,0,0,0,-1,1812,848,0,0
595,176,0,0,0,0,0,0,0,0,0,-1,1819,848,0,0
602,176,0,0,0,0,0,0,0,0,0,-1,1826,848,0,0
609,176,75.8926,2.54224,0.00232675,-0.00116928,-0.00161909,0.00296139,-0.00180391,-0.373564,0.00277817,0.039247,1833,848,75.8925,-2.54223
616,176,75.7963,2.67529,0.00234703,-0.00114314,-0.00165324,0.0030058,-0.00180191,-0.37919,0.00280459,0.0410317,1840,848,75.7963,-2.67529
623,176,75.7701,2.69098,0.00163302,-0.000938791,-0.00141069,0.00225593,-0.00156171,-0.415821,0.00221623,0.0481654,1847,848,75.7701,-2.69097
630,176,75.8971,2.45209,0.000675195,-0.00038174,-0.00105445,0.00132619,-0.00103274,-0.553103,0.00136544,0.041166,1854,848,75.8971,-2.45206
637,176,75.9344,2.4118,-0.000167619,0.00021863,-0.000792985,0.000841668,-0.000790658,-0.904843,0.000942577,0.0326906,1861,848,75.9344,-2.4118
644,176,75.8861,2.38257,-0.000802717,0.000464998,-0.000777597,0.000834351,-0.00117207,-1.12735,0.00116387,0.0320579,1868,848,75.8861,-2.38255
651,176,75.932,2.42041,-0.00125039,0.000587943,-0.00084626,0.000918185,-0.00158064,-1.19873,0.0014595,0.0351264,1875,848,75.932,-2.42039
658,176,75.9561,2.41425,0,0,0,0,0,0,0,-1,1882,848,75.956,-2.41426
665,176,54.3333,2.34277,0,0,0,0,0,0,0,-1,1889,848,54.3333,-2.34279
672,176,16.9304,2.80719,0,0,0,0,0,0,0,-1,1896,848,16.9305,-2.80719
679,176,50.9341,0.315979,0,0,0,0,0,0,0,-1,1903,848,50.9341,-0.315984
686,176,61.7802,0.00909424,0,0,0,0,0,0,0,-1,1910,848,61.7802,-0.00909822
693,176,61.603,0.839661,-0.00245498,0.000937958,-0.00183996,0.00174418,-0.0032612,-1.15782,0.00293377,0.0358989,1917,848,61.603,-0.839681
700,176,61.5546,1.83643,-0.00250946,0.000676919,-0.002083,0.00170616,-0.0035387,-1.11187,0.00308912,0.0433219,1924,848,61.5546,-1.83645
707,176,61.4893,2.61798,-0.00252855,0.00046663,-0.0024218,0.00181648,-0.0038784,-1.06231,0.00335901,0.0323522,1931,848,61.4893,-2.61801
714,176,61.2848,3.37549,-0.00224361,0.000414681,-0.00264642,0.00204698,-0.00387591,-1.01812,0.0034735,0.0150622,1938,848,61.2848,-3.37552
721,176,61.2736,4.22357,-0.00241362,0.000483028,-0.0027117,0.00210895,-0.00403954,-1.03068,0.00360769,0.0142984,1945,848,61.2736,-4.2236
728,176,61.2079,5.10876,-0.00330582,0.000430113,-0.00266979,0.00182053,-0.00469624,-1.09065,0.00388265,0.0167441,1952,848,61.2078,-5.10876
735,176,61.1465,5.95447,-0.00463852,0.000277883,-0.00280174,0.00154694,-0.00590758,-1.14549,0.0045427,0.0145213,1959,848,61.1464,-5.95447
742,176,61.1122,6.80487,-0.0064944,-6.1907e-05,-0.00319185,0.00125309,-0.0078094,-1.18,0.0056703,0.0240049,1966,848,61.1122,-6.80489
749,176,61.3622,7.96265,0,0,0,0,0,0,0,-1,1973,848,61.3622,-7.96266
756,176,61.7153,9.42267,0,0,0,0,0,0,0,-1,1980,848,61.7154,-9.42266
763,176,44.4343,7.70581,0,0,0,0,0,0,0,-1,1987,848,44.4343,-7.70578
770,176,36.4186,4.25641,0,0,0,0,0,0,0,-1,1994,848,36.4186,-4.25639
777,176,43.8328,7.50177,0,0,0,0,0,0,0,-1,2001,848,43.8328,-7.50178
784,176,0,0,0,0,0,0,0,0,0,-1,2008,848,0,0
791,176,0,0,0,0,0,0,0,0,0,-1,2015,848,0,0
798,176,0,0,0,0,0,0,0,0,0,-1,2022,848,0,0
805,176,0,0,0,0,0,0,0,0,0,-1,2029,848,0,0
812,176,0,0,0,0,0,0,0,0,0,-1,2036,848,0,0
-700,169,0,0,0,0,0,0,0,0,0,-1,524,855,0,0
-693,169,0,0,0,0,0,0,0,0,0,-1,531,855,0,0
-686,169,0,0,0,0,0,0,0,0,0,-1,538,855,0,0
-679,169,0,0,0,0,0,0,0,0,0,-1,545,855,0,0
-672,169,0,0,0,0,0,0,0,0,0,-1,552,855,0,0
-665,169,-50.4697,8.3269,0,0,0,0,0,0,0,-1,559,855,-50.4697,-8.32688
-658,169,-58.8608,8.22839,0,0,0,0,0,0,0,-1,566,855,-58.8608,-8.2284
-651,169,-45.7366,10.7646,0,0,0,0,0,0,0,-1,573,855,-45.7366,-10.7647
-644,169,-45.5977,10.3019,0,0,0,0,0,0,0,-1,580,855,-45.5977,-10.3019
-637,169,-45.5289,9.14014,0,0,0,0,0,0,0,-1,587,855,-45.5289,-9.14013
-630,169,-46.587,8.00873,0,0,0,0,0,0,0,-1,594,855,-46.587,-8.00871
-623,169,-46.4844,7.22253,0.00425783,0.00157953,0.00114433,0.00468016,0.0011572,0.353557,0.00281481,0.0418614,601,855,-46.4844,-7.22254
-616,169,-46.4138,6.43988,0.00154614,0.0012654,0.00168878,0.00310038,-0.000288841,0.743935,0.00216962,0.023901,608,855,-46.4138,-6.43991
-609,169,-46.4935,5.57904,-0.00055871,0.00117087,0.00203348,0.00251581,-0.00190365,0.98645,0.00255972,0.0154806,615,855,-46.4935,-5.57904
-602,169,-46.5614,4.68976,-0.00233769,0.00104813,0.00224524,0.00216717,-0.00345673,1.10843,0.00327529,0.0142007,622,855,-46.5614,-4.68977
-595,169,-46.6242,3.78607,-0.00392473,0.000977521,0.00239684,0.00195464,-0.00490185,1.1837,0.00407868,0.0120514,629,855,-46.6242,-3.78609
-588,169,-46.6428,2.9505,-0.00534094,0.000903305,0.00249331,0.00177671,-0.00621435,1.23385,0.00484497,0.010977,636,855,-46.6427,-2.95048
-581,169,-46.7364,2.15833,-0.00654459,0.000908809,0.00248683,0.00166236,-0.00729814,1.27658,0.00550387,0.0269742,643,855,-46.7364,-2.15835
-574,169,-47.0308,1.35876,0,0,0,0,0,0,0,-1,650,855,-47.0308,-1.35876
-567,169,-46.6271,0.0708618,0,0,0,0,0,0,0,-1,657,855,-46.6271,-0.0708511
-560,169,-46.6846,-0.682922,0,0,0,0,0,0,0,-1,664,855,-46.6846,0.682904
-553,169,-32.1944,-0.787964,0,0,0,0,0,0,0,-1,671,855,-32.1944,0.787959
-546,169,-19.0852,-1.05609,0,0,0,0,0,0,0,-1,678,855,-19.0852,1.05612
-539,169,-33.2307,1.10706,0,0,0,0,0,0,0,-1,685,855,-33.2307,-1.10708
-532,169,-59.4035,0.336365,0,0,0,0,0,0,0,-1,692,855,-59.4035,-0.336337
-525,169,-59.4854,0.292297,0,0,0,0,0,0,0,-1,699,855,-59.4854,-0.292323
-518,169,-59.5464,0.376221,0,0,0,0,0,0,0,-1,706,855,-59.5464,-0.376211
-511,169,-59.5764,0.297546,0,0,0,0,0,0,0,-1,713,855,-59.5763,-0.297525
-504,169,-59.6174,0.0984497,0,0,0,0,0,0,0,-1,720,855,-59.6174,-0.0984619
-497,169,-59.5975,0.163147,0,0,0,0,0,0,0,-1,727,855,-59.5975,-0.163175
-490,169,0,0,0,0,0,0,0,0,0,-1,734,855,0,0
-483,169,0,0,0,0,0,0,0,0,0,-1,741,855,0,0
-476,169,0,0,0,0,0,0,0,0,0,-1,748,855,0,0
-469,169,0,0,0,0,0,0,0,0,0,-1,755,855,0,0
-462,169,0,0,0,0,0,0,0,0,0,-1,762,855,0,0
-455,169,0,0,0,0,0,0,0,0,0,-1,769,855,0,0
-448,169,0,0,0,0,0,0,0,0,0,-1,776,855,0,0
-441,169,0,0,0,0,0,0,0,0,0,-1,783,855,0,0
-434,169,0,0,0,0,0,0,0,0,0,-1,790,855,0,0
-427,169,0,0,0,0,0,0,0,0,0,-1,797,855,0,0
-420,169,0,0,0,0,0,0,0,0,0,-1,804,855,0,0
-413,169,0,0,0,0,0,0,0,0,0,-1,811,855,0,0
-406,169,0,0,0,0,0,0,0,0,0,-1,818,855,0,0
-399,169,0,0,0,0,0,0,0,0,0,-1,825,855,0,0
-392,169,0,0,0,0,0,0,0,0,0,-1,832,855,0,0
-385,169,0,0,0,0,0,0,0,0,0,-1,839,855,0,0
-378,169,0,0,0,0,0,0,0,0,0,-1,846,855,0,0
-371,169,0,0,0,0,0,0,0,0,0,-1,853,855,0,0
-364,169,0,0,0,0,0,0,0,0,0,-1,860,855,0,0
-357,169,0,0,0,0,0,0,0,0,0,-1,867,855,0,0
-350,169,0,0,0,0,0,0,0,0,0,-1,874,855,0,0
-343,169,0,0,0,0,0,0,0,0,0,-1,881,855,0,0
-336,169,0,0,0,0,0,0,0,0,0,-1,888,855,0,0
-329,169,0,0,0,0,0,0,0,0,0,-1,895,855,0,0
-322,169,0,0,0,0,0,0,0,0,0,-1,902,855,0,0
-315,169,0,0,0,0,0,0,0,0,0,-1,909,855,0,0
-308,169,0,0,0,0,0,0,0,0,0,-1,916,855,0,0
-301,169,0,0,0,0,0,0,0,0,0,-1,923,855,0,0
-294,169,0,0,0,0,0,0,0,0,0,-1,930,855,0,0
-287,169,0,0,0,0,0,0,0,0,0,-1,937,855,0,0
-280,169,0,0,0,0,0,0,0,0,0,-1,944,855,0,0
-273,169,0,0,0,0,0,0,0,0,0,-1,951,855,0,0
-266,169,0,0,0,0,0,0,0,0,0,-1,958,855,0,0
-259,169,0,0,0,0,0,0,0,0,0,-1,965,855,0,0
-252,169,0,0,0,0,0,0,0,0,0,-1,972,855,0,0
-245,169,0,0,0,0,0,0,0,0,0,-1,979,855,0,0
-238,169,0,0,0,0,0,0,0,0,0,-1,986,855,0,0
-231,169,0,0,0,0,0,0,0,0,0,-1,993,855,0,0
-224,169,0,0,0,0,0,0,0,0,0,-1,1000,855,0,0
-217,169,0,0,0,0,0,0,0,0,0,-1,1007,855,0,0
-210,169,0,0,0,0,0,0,0,0,0,-1,1014,855,0,0
-203,169,0,0,0,0,0,0,0,0,0,-1,1021,855,0,0
-196,169,0,0,0,0,0,0,0,0,0,-1,1028,855,0,0
-189,169,0,0,0,0,0,0,0,0,0,-1,1035,855,0,0
-182,169,0,0,0,0,0,0,0,0,0,-1,1042,855,0,0
-175,169,0,0,0,0,0,0,0,0,0,-1,1049,855,0,0
-168,169,0,0,0,0,0,0,0,0,0,-1,1056,855,0,0
-161,169,0,0,0,0,0,0,0,0,0,-1,1063,855,0,0
-154,169,0,0,0,0,0,0,0,0,0,-1,1070,855,0,0
-147,169,0,0,0,0,0,0,0,0,0,-1,1077,855,0,0
-140,169,0,0,0,0,0,0,0,0,0,-1,1084,855,0,0
-133,169,0,0,0,0,0,0,0,0,0,-1,1091,855,0,0
-126,169,0,0,0,0,0,0,0,0,0,-1,1098,855,0,0
-119,169,0,0,0,0,0,0,0,0,0,-1,1105,855,0,0
-112,169,0,0,0,0,0,0,0,0,0,-1,1112,855,0,0
-105,169,0,0,0,0,0,0,0,0,0,-1,1119,855,0,0
-98,169,0,0,0,0,0,0,0,0,0,-1,1126,855,0,0
-91,169,0,0,0,0,0,0,0,0,0,-1,1133,855,0,0
-84,169,0,0,0,0,0,0,0,0,0,-1,1140,855,0,0
-77,169,0,0,0,0,0,0,0,0,0,-1,1147,855,0,0
-70,169,0,0,0,0,0,0,0,0,0,-1,1154,855,0,0
-63,169,0,0,0,0,0,0,0,0,0,-1,1161,855,0,0
-56,169,0,0,0,0,0,0,0,0,0,-1,1168,855,0,0
-49,169,0,0,0,0,0,0,0,0,0,-1,1175,855,0,0
-42,169,0,0,0,0,0,0,0,0,0,-1,1182,855,0,0
-35,169,0,0,0,0,0,0,0,0,0,-1,1189,855,0,0
-28,169,0,0,0,0,0,0,0,0,0,-1,1196,855,0,0
-21,169,0,0,0,0,0,0,0,0,0,-1,1203,855,0,0
-14,169,0,0,0,0,0,0,0,0,0,-1,1210,855,0,0
-7,169,0,0,0,0,0,0,0,0,0,-1,1217,855,0,0
0,169,0,0,0,0,0,0,0,0,0,-1,1224,855,0,0
7,169,0,0,0,0,0,0,0,0,0,-1,1231,855,0,0
14,169,0,0,0,0,0,0,0,0,0,-1,1238,855,0,0
21,169,0,0,0,0,0,0,0,0,0,-1,1245,855,0,0
28,169,0,0,0,0,0,0,0,0,0,-1,1252,855,0,0
35,169,0,0,0,0,0,0,0,0,0,-1,1259,855,0,0
42,169,0,0,0,0,0,0,0,0,0,-1,1266,855,0,0
49,169,0,0,0,0,0,0,0,0,0,-1,1273,855,0,0
56,169,0,0,0,0,0,0,0,0,0,-1,1280,855,0,0
63,169,0,0,0,0,0,0,0,0,0,-1,1287,855,0,0
70,169,0,0,0,0,0,0,0,0,0,-1,1294,855,0,0
77,169,0,0,0,0,0,0,0,0,0,-1,1301,855,0,0
84,169,0,0,0,0,0,0,0,0,0,-1,1308,855,0,0
91,169,0,0,0,0,0,0,0,0,0,-1,1315,855,0,0
98,169,0,0,0,0,0,0,0,0,0,-1,1322,855,0,0
105,169,0,0,0,0,0,0,0,0,0,-1,1329,855,0,0
112,169,0,0,0,0,0,0,0,0,0,-1,1336,855,0,0
119,169,0,0,0,0,0,0,0,0,0,-1,1343,855,0,0
126,169,0,0,0,0,0,0,0,0,0,-1,1350,855,0,0
133,169,0,0,0,0,0,0,0,0,0,-1,1357,855,0,0
140,169,0,0,0,0,0,0,0,0,0,-1,1364,855,0,0
147,169,0,0,0,0,0,0,0,0,0,-1,1371,855,0,0
154,169,0,0,0,0,0,0,0,0,0,-1,1378,855,0,0
161,169,0,0,0,0,0,0,0,0,0,-1,1385,855,0,0
168,169,0,0,0,0,0,0,0,0,0,-1,1392,855,0,0
175,169,0,0,0,0,0,0,0,0,0,-1,1399,855,0,0
182,169,0,0,0,0,0,0,0,0,0,-1,1406,855,0,0
189,169,0,0,0,0,0,0,0,0,0,-1,1413,855,0,0
196,169,0,0,0,0,0,0,0,0,0,-1,1420,855,0,0
203,169,0,0,0,0,0,0,0,0,0,-1,1427,855,0,0
210,169,0,0,0,0,0,0,0,0,0,-1,1434,855,0,0
217,169,0,0,0,0,0,0,0,0,0,-1,1441,855,0,0
224,169,0,0,0,0,0,0,0,0,0,-1,1448,855,0,0
231,169,0,0,0,0,0,0,0,0,0,-1,1455,855,0,0
238,169,0,0,0,0,0,0,0,0,0,-1,1462,855,0,0
245,169,0,0,0,0,0,0,0,0,0,-1,1469,855,0,0
252,169,0,0,0,0,0,0,0,0,0,-1,1476,855,0,0
259,169,0,0,0,0,0,0,0,0,0,-1,1483,855,0,0
266,169,0,0,0,0,0,0,0,0,0,-1,1490,855,0,0
273,169,0,0,0,0,0,0,0,0,0,-1,1497,855,0,0
280,169,0,0,0,0,0,0,0,0,0,-1,1504,855,0,0
287,169,0,0,0,0,0,0,0,0,0,-1,1511,855,0,0
294,169,0,0,0,0,0,0,0,0,0,-1,1518,855,0,0
301,169,0,0,0,0,0,0,0,0,0,-1,1525,855,0,0
308,169,0,0,0,0,0,0,0,0,0,-1,1532,855,0,0
315,169,0,0,0,0,0,0,0,0,0,-1,1539,855,0,0
322,169,0,0,0,0,0,0,0,0,0,-1,1546,855,0,0
329,169,0,0,0,0,0,0,0,0,0,-1,1553,855,0,0
336,169,0,0,0,0,0,0,0,0,0,-1,1560,855,0,0
343,169,0,0,0,0,0,0,0,0,0,-1,1567,855,0,0
350,169,0,0,0,0,0,0,0,0,0,-1,1574,855,0,0
357,169,0,0,0,0,0,0,0,0,0,-1,1581,855,0,0
364,169,0,0,0,0,0,0,0,0,0,-1,1588,855,0,0
371,169,0,0,0,0,0,0,0,0,0,-1,1595,855,0,0
378,169,0,0,0,0,0,0,0,0,0,-1,1602,855,0,0
385,169,0,0,0,0,0,0,0,0,0,-1,1609,855,0,0
392,169,0,0,0,0,0,0,0,0,0,-1,1616,855,0,0
399,169,0,0,0,0,0,0,0,0,0,-1,1623,855,0,0
406,169,0,0,0,0,0,0,0,0,0,-1,1630,855,0,0
413,169,0,0,0,0,0,0,0,0,0,-1,1637,855,0,0
420,169,0,0,0,0,0,0,0,0,0,-1,1644,855,0,0
427,169,0,0,0,0,0,0,0,0,0,-1,1651,855,0,0
434,169,0,0,0,0,0,0,0,0,0,-1,1658,855,0,0
441,169,0,0,0,0,0,0,0,0,0,-1,1665,855,0,0
448,169,0,0,0,0,0,0,0,0,0,-1,1672,855,0,0
455,169,0,0,0,0,0,0,0,0,0,-1,1679,855,0,0
462,169,0,0,0,0,0,0,0,0,0,-1,1686,855,0,0
469,169,0,0,0,0,0,0,0,0,0,-1,1693,855,0,0
476,169,0,0,0,0,0,0,0,0,0,-1,1700,855,0,0
483,169,0,0,0,0,0,0,0,0,0,-1,1707,855,0,0
490,169,0,0,0,0,0,0,0,0,0,-1,1714,855,0,0
497,169,0,0,0,0,0,0,0,0,0,-1,1721,855,0,0
504,169,0,0,0,0,0,0,0,0,0,-1,1728,855,0,0
511,169,0,0,0,0,0,0,0,0,0,-1,1735,855,0,0
518,169,0,0,0,0,0,0,0,0,0,-1,1742,855,0,0
525,169,0,0,0,0,0,0,0,0,0,-1,1749,855,0,0
532,169,0,0,0,0,0,0,0,0,0,-1,1756,855,0,0
539,169,0,0,0,0,0,0,0,0,0,-1,1763,855,0,0
546,169,0,0,0,0,0,0,0,0,0,-1,1770,855,0,0
553,169,0,0,0,0,0,0,0,0,0,-1,1777,855,0,0
560,169,0,0,0,0,0,0,0,0,0,-1,1784,855,0,0
567,169,0,0,0,0,0,0,0,0,0,-1,1791,855,0,0
574,169,0,0,0,0,0,0,0,0,0,-1,1798,855,0,0
581,169,0,0,0,0,0,0,0,0,0,-1,1805,855,0,0
588,169,0,0,0,0,0,0,0,0,0,-1,1812,855,0,0
595,169,0,0,0,0,0,0,0,0,0,-1,1819,855,0,0
602,169,0,0,0,0,0,0,0,0,0,-1,1826,855,0,0
609,169,0,0,0,0,0,0,0,0,0,-1,1833,855,0,0
616,169,75.8202,2.75604,0,0,0,0,0,0,0,-1,1840,855,75.8202,-2.75604
623,169,75.9326,2.98114,0,0,0,0,0,0,0,-1,1847,855,75.9326,-2.98112
630,169,76.0117,2.61627,0.000962873,0.000180134,-0.00140493,0.00202993,-0.000886923,-0.649558,0.00172661,0.0451447,1854,855,76.0118,-2.6163
637,169,75.9965,2.50177,5.08412e-05,0.000620872,-0.00105459,0.00142828,-0.000756569,-0.917376,0.00128114,0.0370747,1861,855,75.9964,-2.50179
644,169,75.9348,2.4715,-0.000694424,0.000837129,-0.000933548,0.0012788,-0.00113609,-1.12889,0.00139505,0.0347623,1868,855,75.9348,-2.4715
651,169,75.9048,2.48737,-0.00126981,0.000953177,-0.000968176,0.00131572,-0.00163235,-1.2125,0.00170534,0.0355836,1875,855,75.9048,-2.48736
658,169,75.9008,2.5097,0,0,0,0,0,0,0,-1,1882,855,75.9008,-2.50971
665,169,74.1068,1.9809,0,0,0,0,0,0,0,-1,1889,855,74.1069,-1.98093
672,169,31.2465,2.96387,0,0,0,0,0,0,0,-1,1896,855,31.2464,-2.9639
679,169,38.4297,1.08197,0,0,0,0,0,0,0,-1,1903,855,38.4296,-1.08194
686,169,62.4536,0.0157471,0,0,0,0,0,0,0,-1,1910,855,62.4536,-0.0157626
693,169,62.6115,0.97644,-0.00252363,0.00103211,-0.00193375,0.00188106,-0.00337258,-1.15711,0.00307367,0.0415312,1917,855,62.6115,-0.976412
700,169,62.6243,1.96539,-0.00261558,0.000798569,-0.00215908,0.0018439,-0.00366091,-1.1199,0.0032354,0.0348143,1924,855,62.6242,-1.96538
707,169,62.4952,2.7923,-0.00261967,0.000600373,-0.0025384,0.00199629,-0.00401559,-1.06802,0.00353562,0.0386446,1931,855,62.4953,-2.79231
714,169,62.1251,3.37103,-0.00225033,0.000561089,-0.00282134,0.00230752,-0.00399676,-1.01652,0.00368308,0.0218252,1938,855,62.1251,-3.37105
721,169,62.151,4.26294,-0.00222559,0.000700953,-0.00292069,0.00250442,-0.00402906,-1.01762,0.00380619,0.0202382,1945,855,62.1509,-4.26296
728,169,62.0928,5.15576,-0.00292112,0.00077384,-0.00283907,0.00231361,-0.00446089,-1.07384,0.00397622,0.0161709,1952,855,62.0928,-5.15579
735,169,62.0239,6.03613,-0.00398404,0.00081896,-0.00287898,0.00216656,-0.00533164,-1.13301,0.00445579,0.0203591,1959,855,62.0239,-6.03613
742,169,62.004,6.87683,-0.00550583,0.000775112,-0.00311741,0.00205966,-0.00679038,-1.17994,0.00534737,0.018648,1966,855,62.004,-6.87681
749,169,61.9432,7.6283,-0.00754466,0.000456057,-0.00368705,0.00189603,-0.00898463,-1.19846,0.00671164,0.0293617,1973,855,61.9433,-7.62831
756,169,61.6876,8.43939,0,0,0,0,0,0,0,-1,1980,855,61.6876,-8.43942
763,169,61.2976,7.40009,0,0,0,0,0,0,0,-1,1987,855,61.2975,-7.40007
770,169,37.2059,3.97021,0,0,0,0,0,0,0,-1,1994,855,37.2059,-3.97022
777,169,41.7505,8.7085,0,0,0,0,0,0,0,-1,2001,855,41.7505,-8.70852
784,169,40.7385,9.24359,0,0,0,0,0,0,0,-1,2008,855,40.7384,-9.24361
791,169,0,0,0,0,0,0,0,0,0,-1,2015,855,0,0
798,169,0,0,0,0,0,0,0,0,0,-1,2022,855,0,0
805,169,0,0,0,0,0,0,0,0,0,-1,2029,855,0,0
812,169,0,0,0,0,0,0,0,0,0,-1,2036,855,0,0
-700,162,0,0,0,0,0,0,0,0,0,-1,524,862,0,0
-693,162,0,0,0,0,0,0,0,0,0,-1,531,862,0,0
-686,162,0,0,0,0,0,0,0,0,0,-1,538,862,0,0
-679,162,0,0,0,0,0,0,0,0,0,-1,545,862,0,0
-672,162,0,0,0,0,0,0,0,0,0,-1,552,862,0,0
-665,162,-50.6751,7.18884,0,0,0,0,0,0,0,-1,559,862,-50.6751,-7.18885
-658,162,-50.7888,6.02673,0,0,0,0,0,0,0,-1,566,862,-50.7888,-6.02673
-651,162,-46.6468,10.7962,0,0,0,0,0,0,0,-1,573,862,-46.6468,-10.7962
-644,162,-46.5665,9.83966,0,0,0,0,0,0,0,-1,580,862,-46.5665,-9.83966
-637,162,-46.1418,8.17126,0,0,0,0,0,0,0,-1,587,862,-46.1419,-8.1713
-630,162,-47.6383,8.03857,0,0,0,0,0,0,0,-1,594,862,-47.6383,-8.03859
-623,162,-47.4157,7.26178,0.00227454,0.0030505,0.00105026,0.00378215,0.00154289,0.962331,0.00219593,0.0350308,601,862,-47.4157,-7.26176
-616,162,-47.2654,6.44073,2.0852e-05,0.00241465,0.00165221,0.00325794,-0.000822433,1.09886,0.00249176,0.021546,608,862,-47.2654,-6.44072
-609,162,-47.3887,5.5658,-0.00192397,0.00197572,0.00212067,0.0029067,-0.00285495,1.15713,0.00332653,0.0145288,615,862,-47.3887,-5.56582
-602,162,-47.4685,4.71973,-0.00377559,0.00151331,0.00253542,0.00253239,-0.00479467,1.18862,0.00429697,0.0116324,622,862,-47.4685,-4.71972
-595,162,-47.5111,3.86578,-0.00557865,0.0010201,0.00293965,0.00213971,-0.00669826,1.20689,0.00532405,0.0111746,629,862,-47.5111,-3.86581
-588,162,-47.5084,3.02191,-0.00730037,0.000512311,0.00331087,0.00172665,-0.00851471,1.21926,0.006331,0.0177629,636,862,-47.5084,-3.0219
-581,162,-47.7995,2.18585,-0.00889967,1.14021e-05,0.00362001,0.00129662,-0.0101849,1.22965,0.00726083,0.0474418,643,862,-47.7995,-2.18587
-574,162,-47.9731,1.37463,0,0,0,0,0,0,0,-1,650,862,-47.9731,-1.37462
-567,162,-47.986,-0.0360718,0,0,0,0,0,0,0,-1,657,862,-47.986,0.0360826
-560,162,-36.5075,-0.831665,0,0,0,0,0,0,0,-1,664,862,-36.5075,0.831657
-553,162,-35.9823,-1.60956,0,0,0,0,0,0,0,-1,671,862,-35.9823,1.60954
-546,162,-22.8181,-1.51154,0,0,0,0,0,0,0,-1,678,862,-22.8181,1.51155
-539,162,-53.0229,0.9328,0,0,0,0,0,0,0,-1,685,862,-53.0229,-0.932798
-532,162,-59.3757,0.44397,0,0,0,0,0,0,0,-1,692,862,-59.3757,-0.443946
-525,162,-59.4663,0.381897,0,0,0,0,0,0,0,-1,699,862,-59.4663,-0.3819
-518,162,-59.5802,0.351013,0,0,0,0,0,0,0,-1,706,862,-59.5802,-0.350993
-511,162,-59.5925,0.20813,0,0,0,0,0,0,0,-1,713,862,-59.5924,-0.208111
-504,162,-59.5756,0.0702515,0,0,0,0,0,0,0,-1,720,862,-59.5756,-0.0702383
-497,162,-59.5298,-0.112854,0,0,0,0,0,0,0,-1,727,862,-59.5298,0.112828
-490,162,0,0,0,0,0,0,0,0,0,-1,734,862,0,0
-483,162,0,0,0,0,0,0,0,0,0,-1,741,862,0,0
-476,162,0,0,0,0,0,0,0,0,0,-1,748,862,0,0
-469,162,0,0,0,0,0,0,0,0,0,-1,755,862,0,0
-462,162,0,0,0,0,0,0,0,0,0,-1,762,862,0,0
-455,162,0,0,0,0,0,0,0,0,0,-1,769,862,0,0
-448,162,0,0,0,0,0,0,0,0,0,-1,776,862,0,0
-441,162,0,0,0,0,0,0,0,0,0,-1,783,862,0,0
-434,162,0,0,0,0,0,0,0,0,0,-1,790,862,0,0
-427,162,0,0,0,0,0,0,0,0,0,-1,797,862,0,0
-420,162,0,0,0,0,0,0,0,0,0,-1,804,862,0,0
-413,162,0,0,0,0,0,0,0,0,0,-1,811,862,0,0
-406,162,0,0,0,0,0,0,0,0,0,-1,818,862,0,0
-399,162,0,0,0,0,0,0,0,0,0,-1,825,862,0,0
-392,162,0,0,0,0,0,0,0,0,0,-1,832,862,0,0
-385,162,0,0,0,0,0,0,0,0,0,-1,839,862,0,0
-378,162,0,0,0,0,0,0,0,0,0,-1,846,862,0,0
-371,162,0,0,0,0,0,0,0,0,0,-1,853,862,0,0
-364,162,0,0,0,0,0,0,0,0,0,-1,860,862,0,0
-357,162,0,0,0,0,0,0,0,0,0,-1,867,862,0,0
-350,162,0,0,0,0,0,0,0,0,0,-1,874,862,0,0
-343,162,0,0,0,0,0,0,0,0,0,-1,881,862,0,0
-336,162,0,0,0,0,0,0,0,0,0,-1,888,862,0,0
-329,162,0,0,0,0,0,0,0,0,0,-1,895,862,0,0
-322,162,0,0,0,0,0,0,0,0,0,-1,902,862,0,0
-315,162,0,0,0,0,0,0,0,0,0,-1,909,862,0,0
-308,162,0,0,0,0,0,0,0,0,0,-1,916,862,0,0
-301,162,0,0,0,0,0,0,0,0,0,-1,923,862,0,0
-294,162,0,0,0,0,0,0,0,0,0,-1,930,862,0,0
-287,162,0,0,0,0,0,0,0,0,0,-1,937,862,0,0
-280,162,0,0,0,0,0,0,0,0,0,-1,944,862,0,0
-273,162,0,0,0,0,0,0,0,0,0,-1,951,862,0,0
-266,162,0,0,0,0,0,0,0,0,0,-1,958,862,0,0
-259,162,0,0,0,0,0,0,0,0,0,-1,965,862,0,0
-252,162,0,0,0,0,0,0,0,0,0,-1,972,862,0,0
-245,162,0,0,0,0,0,0,0,0,0,-1,979,862,0,0
-238,162,0,0,0,0,0,0,0,0,0,-1,986,862,0,0
-231,162,0,0,0,0,0,0,0,0,0,-1,993,862,0,0
-224,162,0,0,0,0,0,0,0,0,0,-1,1000,862,0,0
-217,162,0,0,0,0,0,0,0,0,0,-1,1007,862,0,0
-210,162,0,0,0,0,0,0,0,0,0,-1,1014,862,0,0
-203,162,0,0,0,0,0,0,0,0,0,-1,1021,862,0,0
-196,162,0,0,0,0,0,0,0,0,0,-1,1028,862,0,0
-189,162,0,0,0,0,0,0,0,0,0,-1,1035,862,0,0
-182,162,0,0,0,0,0,0,0,0,0,-1,1042,862,0,0
-175,162,0,0,0,0,0,0,0,0,0,-1,1049,862,0,0
-168,162,0,0,0,0,0,0,0,0,0,-1,1056,862,0,0
-161,162,0,0,0,0,0,0,0,0,0,-1,1063,862,0,0
-154,162,0,0,0,0,0,0,0,0,0,-1,1070,862,0,0
-147,162,0,0,0,0,0,0,0,0,0,-1,1077,862,0,0
-140,162,0,0,0,0,0,0,0,0,0,-1,1084,862,0,0
-133,162,0,0,0,0,0,0,0,0,0,-1,1091,862,0,0
-126,162,0,0,0,0,0,0,0,0,0,-1,1098,862,0,0
-119,162,0,0,0,0,0,0,0,0,0,-1,1105,862,0,0
-112,162,0,0,0,0,0,0,0,0,0,-1,1112,862,0,0
-105,162,0,0,0,0,0,0,0,0,0,-1,1119,862,0,0
-98,162,0,0,0,0,0,0,0,0,0,-1,1126,862,0,0
-91,162,0,0,0,0,0,0,0,0,0,-1,1133,862,0,0
-84,162,0,0,0,0,0,0,0,0,0,-1,1140,862,0,0
-77,162,0,0,0,0,0,0,0,0,0,-1,1147,862,0,0
-70,162,0,0,0,0,0,0,0,0,0,-1,1154,862,0,0
-63,162,0,0,0,0,0,0,0,0,0,-1,1161,862,0,0
-56,162,0,0,0,0,0,0,0,0,0,-1,1168,862,0,0
-49,162,0,0,0,0,0,0,0,0,0,-1,1175,862,0,0
-42,162,0,0,0,0,0,0,0,0,0,-1,1182,862,0,0
-35,162,0,0,0,0,0,0,0,0,0,-1,1189,862,0,0
-28,162,0,0,0,0,0,0,0,0,0,-1,1196,862,0,0
-21,162,0,0,0,0,0,0,0,0,0,-1,1203,862,0,0
-14,162,0,0,0,0,0,0,0,0,0,-1,1210,862,0,0
-7,162,0,0,0,0,0,0,0,0,0,-1,1217,862,0,0
0,162,0,0,0,0,0,0,0,0,0,-1,1224,862,0,0
7,162,0,0,0,0,0,0,0,0,0,-1,1231,862,0,0
14,162,0,0,0,0,0,0,0,0,0,-1,1238,862,0,0
21,162,0,0,0,0,0,0,0,0,0,-1,1245,862,0,0
28,162,0,0,0,0,0,0,0,0,0,-1,1252,862,0,0
35,162,0,0,0,0,0,0,0,0,0,-1,1259,862,0,0
42,162,0,0,0,0,0,0,0,0,0,-1,1266,862,0,0
49,162,0,0,0,0,0,0,0,0,0,-1,1273,862,0,0
56,162,0,0,0,0,0,0,0,0,0,-1,1280,862,0,0
63,162,0,0,0,0,0,0,0,0,0,-1,1287,862,0,0
70,162,0,0,0,0,0,0,0,0,0,-1,1294,862,0,0
77,162,0,0,0,0,0,0,0,0,0,-1,1301,862,0,0
84,162,0,0,0,0,0,0,0,0,0,-1,1308,862,0,0
91,162,0,0,0,0,0,0,0,0,0,-1,1315,862,0,0
98,162,0,0,0,0,0,0,0,0,0,-1,1322,862,0,0
105,162,0,0,0,0,0,0,0,0,0,-1,1329,862,0,0
112,162,0,0,0,0,0,0,0,0,0,-1,1336,862,0,0
119,162,0,0,0,0,0,0,0,0,0,-1,1343,862,0,0
126,162,0,0,0,0,0,0,0,0,0,-1,1350,862,0,0
133,162,0,0,0,0,0,0,0,0,0,-1,1357,862,0,0
140,162,0,0,0,0,0,0,0,0,0,-1,1364,862,0,0
147,162,0,0,0,0,0,0,0,0,0,-1,1371,862,0,0
154,162,0,0,0,0,0,0,0,0,0,-1,1378,862,0,0
161,162,0,0,0,0,0,0,0,0,0,-1,1385,862,0,0
168,162,0,0,0,0,0,0,0,0,0,-1,1392,862,0,0
175,162,0,0,0,0,0,0,0,0,0,-1,1399,862,0,0
182,162,0,0,0,0,0,0,0,0,0,-1,1406,862,0,0
189,162,0,0,0,0,0,0,0,0,0,-1,1413,862,0,0
196,162,0,0,0,0,0,0,0,0,0,-1,1420,862,0,0
203,162,0,0,0,0,0,0,0,0,0,-1,1427,862,0,0
210,162,0,0,0,0,0,0,0,0,0,-1,1434,862,0,0
217,162,0,0,0,0,0,0,0,0,0,-1,1441,862,0,0
224,162,0,0,0,0,0,0,0,0,0,-1,1448,862,0,0
231,162,0,0,0,0,0,0,0,0,0,-1,1455,862,0,0
238,162,0,0,0,0,0,0,0,0,0,-1,1462,862,0,0
245,162,0,0,0,0,0,0,0,0,0,-1,1469,862,0,0
252,162,0,0,0,0,0,0,0,0,0,-1,1476,862,0,0
259,162,0,0,0,0,0,0,0,0,0,-1,1483,862,0,0
266,162,0,0,0,0,0,0,0,0,0,-1,1490,862,0,0
273,162,0,0,0,0,0,0,0,0,0,-1,1497,862,0,0
280,162,0,0,0,0,0,0,0,0,0,-1,1504,862,0,0
287,162,0,0,0,0,0,0,0,0,0,-1,1511,862,0,0
294,162,0,0,0,0,0,0,0,0,0,-1,1518,862,0,0
301,162,0,0,0,0,0,0,0,0,0,-1,1525,862,0,0
308,162,0,0,0,0,0,0,0,0,0,-1,1532,862,0,0
315,162,0,0,0,0,0,0,0,0,0,-1,1539,862,0,0
322,162,0,0,0,0,0,0,0,0,0,-1,1546,862,0,0
329,162,0,0,0,0,0,0,0,0,0,-1,1553,862,0,0
336,162,0,0,0,0,0,0,0,0,0,-1,1560,862,0,0
343,162,0,0,0,0,0,0,0,0,0,-1,1567,862,0,0
350,162,0,0,0,0,0,0,0,0,0,-1,1574,862,0,0
357,162,0,0,0,0,0,0,0,0,0,-1,1581,862,0,0
364,162,0,0,0,0,0,0,0,0,0,-1,1588,862,0,0
371,162,0,0,0,0,0,0,0,0,0,-1,1595,862,0,0
378,162,0,0,0,0,0,0,0,0,0,-1,1602,862,0,0
385,162,0,0,0,0,0,0,0,0,0,-1,1609,862,0,0
392,162,0,0,0,0,0,0,0,0,0,-1,1616,862,0,0
399,162,0,0,0,0,0,0,0,0,0,-1,1623,862,0,0
406,162,0,0,0,0,0,0,0,0,0,-1,1630,862,0,0
413,162,0,0,0,0,0,0,0,0,0,-1,1637,862,0,0
420,162,0,0,0,0,0,0,0,0,0,-1,1644,862,0,0
427,162,0,0,0,0,0,0,0,0,0,-1,1651,862,0,0
434,162,0,0,0,0,0,0,0,0,0,-1,1658,862,0,0
441,162,0,0,0,0,0,0,0,0,0,-1,1665,862,0,0
448,162,0,0,0,0,0,0,0,0,0,-1,1672,862,0,0
455,162,0,0,0,0,0,0,0,0,0,-1,1679,862,0,0
462,162,0,0,0,0,0,0,0,0,0,-1,1686,862,0,0
469,162,0,0,0,0,0,0,0,0,0,-1,1693,862,0,0
476,162,0,0,0,0,0,0,0,0,0,-1,1700,862,0,0
483,162,0,0,0,0,0,0,0,0,0,-1,1707,862,0,0
490,162,0,0,0,0,0,0,0,0,0,-1,1714,862,0,0
497,162,0,0,0,0,0,0,0,0,0,-1,1721,862,0,0
504,162,0,0,0,0,0,0,0,0,0,-1,1728,862,0,0
511,162,0,0,0,0,0,0,0,0,0,-1,1735,862,0,0
518,162,0,0,0,0,0,0,0,0,0,-1,1742,862,0,0
525,162,0,0,0,0,0,0,0,0,0,-1,1749,862,0,0
532,162,0,0,0,0,0,0,0,0,0,-1,1756,862,0,0
539,162,0,0,0,0,0,0,0,0,0,-1,1763,862,0,0
546,162,0,0,0,0,0,0,0,0,0,-1,1770,862,0,0
553,162,0,0,0,0,0,0,0,0,0,-1,1777,862,0,0
560,162,0,0,0,0,0,0,0,0,0,-1,1784,862,0,0
567,162,0,0,0,0,0,0,0,0,0,-1,1791,862,0,0
574,162,0,0,0,0,0,0,0,0,0,-1,1798,862,0,0
581,162,0,0,0,0,0,0,0,0,0,-1,1805,862,0,0
588,162,0,0,0,0,0,0,0,0,0,-1,1812,862,0,0
595,162,0,0,0,0,0,0,0,0,0,-1,1819,862,0,0
602,162,0,0,0,0,0,0,0,0,0,-1,1826,862,0,0
609,162,0,0,0,0,0,0,0,0,0,-1,1833,862,0,0
616,162,75.7731,2.63208,0.00244536,0.00108635,-0.00214385,0.00401481,-0.000483102,-0.631928,0.00285125,0.0452252,1840,862,75.7731,-2.63208
623,162,75.8132,2.80975,0.00202378,0.000761491,-0.00199314,0.00348332,-0.000698051,-0.632064,0.00258649,0.0483686,1847,862,75.8132,-2.80976
630,162,75.9672,2.6369,0.00124192,0.000702531,-0.00168057,0.0026743,-0.000729846,-0.705837,0.0020695,0.0451856,1854,862,75.9672,-2.6369
637,162,76.0144,2.51819,0.000333974,0.000984504,-0.00130884,0.00200789,-0.000689411,-0.907188,0.00161811,0.040191,1861,862,76.0143,-2.51816
644,162,75.9962,2.44122,-0.000496279,0.00116363,-0.0010875,0.0017017,-0.00103435,-1.11134,0.00159524,0.0361515,1868,862,75.9962,-2.44125
651,162,75.9802,2.4458,-0.00118924,0.00127027,-0.00105381,0.00166002,-0.001579,-1.21655,0.00187024,0.0325307,1875,862,75.9803,-2.44582
658,162,75.9451,2.48181,-0.00184184,0.00120597,-0.00137068,0.00173171,-0.00236758,-1.20454,0.0023762,0.0330432,1882,862,75.9451,-2.48183
665,162,75.8517,2.55206,0,0,0,0,0,0,0,-1,1889,862,75.8517,-2.55207
672,162,56.9712,3.04034,0,0,0,0,0,0,0,-1,1896,862,56.9711,-3.04034
679,162,26.5077,2.54785,0,0,0,0,0,0,0,-1,1903,862,26.5077,-2.54787
686,162,62.5638,-0.33844,0,0,0,0,0,0,0,-1,1910,862,62.5638,0.338421
693,162,63.5891,1.04144,0,0,0,0,0,0,0,-1,1917,862,63.5891,-1.04147
700,162,63.469,1.95984,-0.00252048,0.00102163,-0.00225929,0.0021213,-0.00362014,-1.11782,0.00335226,0.0462463,1924,862,63.4689,-1.95984
707,162,63.3185,2.76752,-0.00252415,0.00085071,-0.00263834,0.0022951,-0.00396854,-1.06991,0.00365908,0.0321042,1931,862,63.3185,-2.76753
714,162,63.0577,3.39093,-0.0021148,0.000810859,-0.00296932,0.00265813,-0.00396207,-1.01427,0.00384681,0.0366025,1938,862,63.0577,-3.39092
721,162,62.8495,4.39282,-0.00195188,0.000974566,-0.00311536,0.00295322,-0.00393053,-1.00495,0.00398766,0.0355868,1945,862,62.8494,-4.39285
728,162,62.8348,5.2334,-0.00254457,0.00114433,-0.0030238,0.00284183,-0.00424206,-1.05926,0.00411643,0.0280027,1952,862,62.8349,-5.23339
735,162,62.8774,6.06866,-0.00347856,0.00136244,-0.00299921,0.00279604,-0.00491216,-1.12491,0.00450589,0.0122721,1959,862,62.8774,-6.06869
742,162,62.8325,6.89032,-0.00482714,0.00159732,-0.00308504,0.00283884,-0.00606866,-1.1882,0.00525423,0.0137283,1966,862,62.8325,-6.89031
749,162,62.7065,7.70978,-0.00658681,0.00167405,-0.00340592,0.0028972,-0.00780995,-1.22602,0.006395,0.020713,1973,862,62.7065,-7.7098
756,162,62.5813,8.45416,-0.00890242,0.00173066,-0.00405214,0.00309884,-0.0102706,-1.24517,0.00808056,0.0486083,1980,862,62.5812,-8.45414
763,162,62.5464,9.22711,0,0,0,0,0,0,0,-1,1987,862,62.5464,-9.22713
770,162,54.8257,9.36987,0,0,0,0,0,0,0,-1,1994,862,54.8256,-9.36988
777,162,54.9807,10.2266,0,0,0,0,0,0,0,-1,2001,862,54.9806,-10.2265
784,162,55.6492,10.6049,0,0,0,0,0,0,0,-1,2008,862,55.6491,-10.6049
791,162,0,0,0,0,0,0,0,0,0,-1,2015,862,0,0
798,162,0,0,0,0,0,0,0,0,0,-1,2022,862,0,0
805,162,0,0,0,0,0,0,0,0,0,-1,2029,862,0,0
812,162,0,0,0,0,0,0,0,0,0,-1,2036,862,0,0
-700,155,0,0,0,0,0,0,0,0,0,-1,524,869,0,0
-693,155,0,0,0,0,0,0,0,0,0,-1,531,869,0,0
-686,155,0,0,0,0,0,0,0,0,0,-1,538,869,0,0
-679,155,0,0,0,0,0,0,0,0,0,-1,545,869,0,0
-672,155,0,0,0,0,0,0,0,0,0,-1,552,869,0,0
-665,155,-50.9639,6.01917,0,0,0,0,0,0,0,-1,559,869,-50.9639,-6.01917
-658,155,-51.2028,4.90723,0,0,0,0,0,0,0,-1,566,869,-51.2028,-4.90722
-651,155,-51.22,3.81226,0,0,0,0,0,0,0,-1,573,869,-51.2201,-3.81228
-644,155,-47.5779,9.1366,0,0,0,0,0,0,0,-1,580,869,-47.5779,-9.13658
-637,155,-47.4189,8.37805,0,0,0,0,0,0,0,-1,587,869,-47.4189,-8.37807
-630,155,-48.1227,8.18439,0,0,0,0,0,0,0,-1,594,869,-48.1227,-8.18436
-623,155,-48.0968,7.36029,0.000128719,0.00445159,0.000997774,0.00467078,-9.04666e-05,1.35456,0.00314444,0.0310834,601,869,-48.0968,-7.36029
-616,155,-48.1523,6.4942,-0.00164619,0.00349386,0.00167684,0.00399251,-0.00214484,1.28174,0.00359653,0.0173651,608,869,-48.1524,-6.4942
-609,155,-48.2773,5.59076,-0.00340061,0.00268754,0.00227785,0.00344544,-0.00415851,1.24959,0.00439657,0.014668,615,869,-48.2773,-5.59079
-602,155,-48.3533,4.74567,-0.00528804,0.00185914,0.00287972,0.00287503,-0.00630393,1.23165,0.00542133,0.0135878,622,869,-48.3533,-4.74567
-595,155,-48.4064,3.92682,-0.00732165,0.00101438,0.00350044,0.00228929,-0.00859656,1.22151,0.00662727,0.0130102,629,869,-48.4064,-3.92681
-588,155,-48.3931,3.14734,-0.00946708,0.000169248,0.00412505,0.00169385,-0.0109917,1.21677,0.00795277,0.0254489,636,869,-48.3931,-3.14734
-581,155,-48.6824,2.4939,-0.0116799,-0.000655756,0.00473228,0.00109697,-0.0134327,1.21608,0.00934226,0.0482226,643,869,-48.6824,-2.49392
-574,155,-48.9472,1.95435,0,0,0,0,0,0,0,-1,650,869,-48.9472,-1.95434
-567,155,-38.0134,0.582214,0,0,0,0,0,0,0,-1,657,869,-38.0134,-0.582192
-560,155,-37.1416,-0.708008,0,0,0,0,0,0,0,-1,664,869,-37.1416,0.70801
-553,155,-36.7729,-1.71521,0,0,0,0,0,0,0,-1,671,869,-36.7729,1.71523
-546,155,-22.7988,0.873657,0,0,0,0,0,0,0,-1,678,869,-22.7988,-0.873645
-539,155,-59.4105,0.205811,0,0,0,0,0,0,0,-1,685,869,-59.4105,-0.205782
-532,155,-59.3234,0.402222,0,0,0,0,0,0,0,-1,692,869,-59.3234,-0.402207
-525,155,-59.4236,0.428406,0,0,0,0,0,0,0,-1,699,869,-59.4236,-0.42838
-518,155,-59.5536,0.340393,0,0,0,0,0,0,0,-1,706,869,-59.5536,-0.340369
-511,155,-59.5096,0.347778,0,0,0,0,0,0,0,-1,713,869,-59.5096,-0.347793
-504,155,-59.4596,0.216614,0,0,0,0,0,0,0,-1,720,869,-59.4596,-0.21663
-497,155,0,0,0,0,0,0,0,0,0,-1,727,869,0,0
-490,155,0,0,0,0,0,0,0,0,0,-1,734,869,0,0
-483,155,0,0,0,0,0,0,0,0,0,-1,741,869,0,0
-476,155,0,0,0,0,0,0,0,0,0,-1,748,869,0,0
-469,155,0,0,0,0,0,0,0,0,0,-1,755,869,0,0
-462,155,0,0,0,0,0,0,0,0,0,-1,762,869,0,0
-455,155,0,0,0,0,0,0,0,0,0,-1,769,869,0,0
-448,155,0,0,0,0,0,0,0,0,0,-1,776,869,0,0
-441,155,0,0,0,0,0,0,0,0,0,-1,783,869,0,0
-434,155,0,0,0,0,0,0,0,0,0,-1,790,869,0,0
-427,155,0,0,0,0,0,0,0,0,0,-1,797,869,0,0
-420,155,0,0,0,0,0,0,0,0,0,-1,804,869,0,0
-413,155,0,0,0,0,0,0,0,0,0,-1,811,869,0,0
-406,155,0,0,0,0,0,0,0,0,0,-1,818,869,0,0
-399,155,0,0,0,0,0,0,0,0,0,-1,825,869,0,0
-392,155,0,0,0,0,0,0,0,0,0,-1,832,869,0,0
-385,155,0,0,0,0,0,0,0,0,0,-1,839,869,0,0
-378,155,0,0,0,0,0,0,0,0,0,-1,846,869,0,0
-371,155,0,0,0,0,0,0,0,0,0,-1,853,869,0,0
-364,155,0,0,0,0,0,0,0,0,0,-1,860,869,0,0
-357,155,0,0,0,0,0,0,0,0,0,-1,867,869,0,0
-350,155,0,0,0,0,0,0,0,0,0,-1,874,869,0,0
-343,155,0,0,0,0,0,0,0,0,0,-1,881,869,0,0
-336,155,0,0,0,0,0,0,0,0,0,-1,888,869,0,0
-329,155,0,0,0,0,0,0,0,0,0,-1,895,869,0,0
-322,155,0,0,0,0,0,0,0,0,0,-1,902,869,0,0
-315,155,0,0,0,0,0,0,0,0,0,-1,909,869,0,0
-308,155,0,0,0,0,0,0,0,0,0,-1,916,869,0,0
-301,155,0,0,0,0,0,0,0,0,0,-1,923,869,0,0
-294,155,0,0,0,0,0,0,0,0,0,-1,930,869,0,0
-287,155,0,0,0,0,0,0,0,0,0,-1,937,869,0,0
-280,155,0,0,0,0,0,0,0,0,0,-1,944,869,0,0
-273,155,0,0,0,0,0,0,0,0,0,-1,951,869,0,0
-266,155,0,0,0,0,0,0,0,0,0,-1,958,869,0,0
-259,155,0,0,0,0,0,0,0,0,0,-1,965,869,0,0
-252,155,0,0,0,0,0,0,0,0,0,-1,972,869,0,0
-245,155,0,0,0,0,0,0,0,0,0,-1,979,869,0,0
-238,155,0,0,0,0,0,0,0,0,0,-1,986,869,0,0
-231,155,0,0,0,0,0,0,0,0,0,-1,993,869,0,0
-224,155,0,0,0,0,0,0,0,0,0,-1,1000,869,0,0
-217,155,0,0,0,0,0,0,0,0,0,-1,1007,869,0,0
-210,155,0,0,0,0,0,0,0,0,0,-1,1014,869,0,0
-203,155,0,0,0,0,0,0,0,0,0,-1,1021,869,0,0
-196,155,0,0,0,0,0,0,0,0,0,-1,1028,869,0,0
-189,155,0,0,0,0,0,0,0,0,0,-1,1035,869,0,0
-182,155,0,0,0,0,0,0,0,0,0,-1,1042,869,0,0
-175,155,0,0,0,0,0,0,0,0,0,-1,1049,869,0,0
-168,155,0,0,0,0,0,0,0,0,0,-1,1056,869,0,0
-161,155,0,0,0,0,0,0,0,0,0,-1,1063,869,0,0
-154,155,0,0,0,0,0,0,0,0,0,-1,1070,869,0,0
-147,155,0,0,0,0,0,0,0,0,0,-1,1077,869,0,0
-140,155,0,0,0,0,0,0,0,0,0,-1,1084,869,0,0
-133,155,0,0,0,0,0,0,0,0,0,-1,1091,869,0,0
-126,155,0,0,0,0,0,0,0,0,0,-1,1098,869,0,0
-119,155,0,0,0,0,0,0,0,0,0,-1,1105,869,0,0
-112,155,0,0,0,0,0,0,0,0,0,-1,1112,869,0,0
-105,155,0,0,0,0,0,0,0,0,0,-1,1119,869,0,0
-98,155,0,0,0,0,0,0,0,0,0,-1,1126,869,0,0
-91,155,0,0,0,0,0,0,0,0,0,-1,1133,869,0,0
-84,155,0,0,0,0,0,0,0,0,0,-1,1140,869,0,0
-77,155,0,0,0,0,0,0,0,0,0,-1,1147,869,0,0
-70,155,0,0,0,0,0,0,0,0,0,-1,1154,869,0,0
-63,155,0,0,0,0,0,0,0,0,0,-1,1161,869,0,0
-56,155,0,0,0,0,0,0,0,0,0,-1,1168,869,0,0
-49,155,0,0,0,0,0,0,0,0,0,-1,1175,869,0,0
-42,155,0,0,0,0,0,0,0,0,0,-1,1182,869,0,0
-35,155,0,0,0,0,0,0,0,0,0,-1,1189,869,0,0
-28,155,0,0,0,0,0,0,0,0,0,-1,1196,869,0,0
-21,155,0,0,0,0,0,0,0,0,0,-1,1203,869,0,0
-14,155,0,0,0,0,0,0,0,0,0,-1,1210,869,0,0
-7,155,0,0,0,0,0,0,0,0,0,-1,1217,869,0,0
0,155,0,0,0,0,0,0,0,0,0,-1,1224,869,0,0
7,155,0,0,0,0,0,0,0,0,0,-1,1231,869,0,0
14,155,0,0,0,0,0,0,0,0,0,-1,1238,869,0,0
21,155,0,0,0,0,0,0,0,0,0,-1,1245,869,0,0
28,155,0,0,0,0,0,0,0,0,0,-1,1252,869,0,0
35,155,0,0,0,0,0,0,0,0,0,-1,1259,869,0,0
42,155,0,0,0,0,0,0,0,0,0,-1,1266,869,0,0
49,155,0,0,0,0,0,0,0,0,0,-1,1273,869,0,0
56,155,0,0,0,0,0,0,0,0,0,-1,1280,869,0,0
63,155,0,0,0,0,0,0,0,0,0,-1,1287,869,0,0
70,155,0,0,0,0,0,0,0,0,0,-1,1294,869,0,0
77,155,0,0,0,0,0,0,0,0,0,-1,1301,869,0,0
84,155,0,0,0,0,0,0,0,0,0,-1,1308,869,0,0
91,155,0,0,0,0,0,0,0,0,0,-1,1315,869,0,0
98,155,0,0,0,0,0,0,0,0,0,-1,1322,869,0,0
105,155,0,0,0,0,0,0,0,0,0,-1,1329,869,0,0
112,155,0,0,0,0,0,0,0,0,0,-1,1336,869,0,0
119,155,0,0,0,0,0,0,0,0,0,-1,1343,869,0,0
126,155,0,0,0,0,0,0,0,0,0,-1,1350,869,0,0
133,155,0,0,0,0,0,0,0,0,0,-1,1357,869,0,0
140,155,0,0,0,0,0,0,0,0,0,-1,1364,869,0,0
147,155,0,0,0,0,0,0,0,0,0,-1,1371,869,0,0
154,155,0,0,0,0,0,0,0,0,0,-1,1378,869,0,0
161,155,0,0,0,0,0,0,0,0,0,-1,1385,869,0,0
168,155,0,0,0,0,0,0,0,0,0,-1,1392,869,0,0
175,155,0,0,0,0,0,0,0,0,0,-1,1399,869,0,0
182,155,0,0,0,0,0,0,0,0,0,-1,1406,869,0,0
189,155,0,0,0,0,0,0,0,0,0,-1,1413,869,0,0
196,155,0,0,0,0,0,0,0,0,0,-1,1420,869,0,0
203,155,0,0,0,0,0,0,0,0,0,-1,1427,869,0,0
210,155,0,0,0,0,0,0,0,0,0,-1,1434,869,0,0
217,155,0,0,0,0,0,0,0,0,0,-1,1441,869,0,0
224,155,0,0,0,0,0,0,0,0,0,-1,1448,869,0,0
231,155,0,0,0,0,0,0,0,0,0,-1,1455,869,0,0
238,155,0,0,0,0,0,0,0,0,0,-1,1462,869,0,0
245,155,0,0,0,0,0,0,0,0,0,-1,1469,869,0,0
252,155,0,0,0,0,0,0,0,0,0,-1,1476,869,0,0
259,155,0,0,0,0,0,0,0,0,0,-1,1483,869,0,0
266,155,0,0,0,0,0,0,0,0,0,-1,1490,869,0,0
273,155,0,0,0,0,0,0,0,0,0,-1,1497,869,0,0
280,155,0,0,0,0,0,0,0,0,0,-1,1504,869,0,0
287,155,0,0,0,0,0,0,0,0,0,-1,1511,869,0,0
294,155,0,0,0,0,0,0,0,0,0,-1,1518,869,0,0
301,155,0,0,0,0,0,0,0,0,0,-1,1525,869,0,0
308,155,0,0,0,0,0,0,0,0,0,-1,1532,869,0,0
315,155,0,0,0,0,0,0,0,0,0,-1,1539,869,0,0
322,155,0,0,0,0,0,0,0,0,0,-1,1546,869,0,0
329,155,0,0,0,0,0,0,0,0,0,-1,1553,869,0,0
336,155,0,0,0,0,0,0,0,0,0,-1,1560,869,0,0
343,155,0,0,0,0,0,0,0,0,0,-1,1567,869,0,0
350,155,0,0,0,0,0,0,0,0,0,-1,1574,869,0,0
357,155,0,0,0,0,0,0,0,0,0,-1,1581,869,0,0
364,155,0,0,0,0,0,0,0,0,0,-1,1588,869,0,0
371,155,0,0,0,0,0,0,0,0,0,-1,1595,869,0,0
378,155,0,0,0,0,0,0,0,0,0,-1,1602,869,0,0
385,155,0,0,0,0,0,0,0,0,0,-1,1609,869,0,0
392,155,0,0,0,0,0,0,0,0,0,-1,1616,869,0,0
399,155,0,0,0,0,0,0,0,0,0,-1,1623,869,0,0
406,155,0,0,0,0,0,0,0,0,0,-1,1630,869,0,0
413,155,0,0,0,0,0,0,0,0,0,-1,1637,869,0,0
420,155,0,0,0,0,0,0,0,0,0,-1,1644,869,0,0
427,155,0,0,0,0,0,0,0,0,0,-1,1651,869,0,0
434,155,0,0,0,0,0,0,0,0,0,-1,1658,869,0,0
441,155,0,0,0,0,0,0,0,0,0,-1,1665,869,0,0
448,155,0,0,0,0,0,0,0,0,0,-1,1672,869,0,0
455,155,0,0,0,0,0,0,0,0,0,-1,1679,869,0,0
462,155,0,0,0,0,0,0,0,0,0,-1,1686,869,0,0
469,155,0,0,0,0,0,0,0,0,0,-1,1693,869,0,0
476,155,0,0,0,0,0,0,0,0,0,-1,1700,869,0,0
483,155,0,0,0,0,0,0,0,0,0,-1,1707,869,0,0
490,155,0,0,0,0,0,0,0,0,0,-1,1714,869,0,0
497,155,0,0,0,0,0,0,0,0,0,-1,1721,869,0,0
504,155,0,0,0,0,0,0,0,0,0,-1,1728,869,0,0
511,155,0,0,0,0,0,0,0,0,0,-1,1735,869,0,0
518,155,0,0,0,0,0,0,0,0,0,-1,1742,869,0,0
525,155,0,0,0,0,0,0,0,0,0,-1,1749,869,0,0
532,155,0,0,0,0,0,0,0,0,0,-1,1756,869,0,0
539,155,0,0,0,0,0,0,0,0,0,-1,1763,869,0,0
546,155,0,0,0,0,0,0,0,0,0,-1,1770,869,0,0
553,155,0,0,0,0,0,0,0,0,0,-1,1777,869,0,0
560,155,0,0,0,0,0,0,0,0,0,-1,1784,869,0,0
567,155,0,0,0,0,0,0,0,0,0,-1,1791,869,0,0
574,155,0,0,0,0,0,0,0,0,0,-1,1798,869,0,0
581,155,0,0,0,0,0,0,0,0,0,-1,1805,869,0,0
588,155,0,0,0,0,0,0,0,0,0,-1,1812,869,0,0
595,155,0,0,0,0,0,0,0,0,0,-1,1819,869,0,0
602,155,0,0,0,0,0,0,0,0,0,-1,1826,869,0,0
609,155,0,0,0,0,0,0,0,0,0,-1,1833,869,0,0
616,155,75.9733,2.4491,0.00237728,0.00232176,-0.00196316,0.00431288,0.000386162,-0.778328,0.00275557,0.0442097,1840,869,75.9733,-2.44913
623,155,75.7866,2.63562,0.00204389,0.00173868,-0.00191968,0.00381702,-3.4453e-05,-0.745734,0.00255624,0.0452209,1847,869,75.7866,-2.63565
630,155,75.8646,2.70062,0.00137359,0.00140072,-0.00173373,0.00312094,-0.000346623,-0.789309,0.00220526,0.0433791,1854,869,75.8646,-2.70064
637,155,76.0066,2.52917,0.000560377,0.00144905,-0.00143613,0.00250801,-0.000498583,-0.935427,0.0018606,0.0396624,1861,869,76.0066,-2.52916
644,155,76.0417,2.39893,-0.000259246,0.00150102,-0.00118003,0.00209299,-0.00085122,-1.10582,0.00174951,0.0359106,1868,869,76.0418,-2.39893
651,155,76.1091,2.36194,-0.00100887,0.00155717,-0.00108433,0.00195401,-0.0014057,-1.21997,0.00194832,0.0320048,1875,869,76.1092,-2.36193
658,155,76.0326,2.35419,-0.00177389,0.00147573,-0.00133407,0.00195324,-0.0022514,-1.22707,0.00242958,0.0265003,1882,869,76.0326,-2.35417
665,155,75.8627,2.44116,-0.00221258,0.00152542,-0.00171112,0.00219041,-0.00287757,-1.20013,0.00293495,0.03789,1889,869,75.8627,-2.44116
672,155,75.7572,2.59174,0,0,0,0,0,0,0,-1,1896,869,75.7572,-2.59175
679,155,35.1565,2.78528,0,0,0,0,0,0,0,-1,1903,869,35.1565,-2.7853
686,155,43.6101,1.63361,0,0,0,0,0,0,0,-1,1910,869,43.6101,-1.63362
693,155,64.0889,1.09558,0,0,0,0,0,0,0,-1,1917,869,64.0888,-1.09558
700,155,64.17,1.86572,0,0,0,0,0,0,0,-1,1924,869,64.17,-1.86571
707,155,64.2556,2.89667,0,0,0,0,0,0,0,-1,1931,869,64.2556,-2.89667
714,155,64.0352,3.39911,0,0,0,0,0,0,0,-1,1938,869,64.0352,-3.39909
721,155,63.4971,4.54041,0,0,0,0,0,0,0,-1,1945,869,63.4971,-4.54042
728,155,63.7289,5.29828,-0.00230866,0.00148904,-0.00324532,0.0033502,-0.00416983,-1.0501,0.00435028,0.0220996,1952,869,63.7288,-5.29828
735,155,63.7098,6.10327,-0.00315668,0.00188379,-0.00318984,0.00342886,-0.00470174,-1.11973,0.00471334,0.0175269,1959,869,63.7099,-6.10326
742,155,63.7161,6.93567,-0.00439187,0.00242643,-0.00314521,0.00365567,-0.00562112,-1.19822,0.00539587,0.0189851,1966,869,63.7161,-6.93567
749,155,63.584,7.72729,-0.00596725,0.00290853,-0.00323343,0.00396154,-0.00702026,-1.25597,0.00642179,0.0176377,1973,869,63.584,-7.72732
756,155,63.4747,8.53442,-0.00796477,0.00349854,-0.00352799,0.00449731,-0.00896353,-1.29492,0.00791293,0.0312145,1980,869,63.4747,-8.53443
763,155,63.3518,9.42914,0,0,0,0,0,0,0,-1,1987,869,63.3517,-9.42913
770,155,62.4395,10.1653,0,0,0,0,0,0,0,-1,1994,869,62.4394,-10.1653
777,155,66.1169,10.5297,0,0,0,0,0,0,0,-1,2001,869,66.1171,-10.5298
784,155,55.3955,10.5024,0,0,0,0,0,0,0,-1,2008,869,55.3955,-10.5024
791,155,0,0,0,0,0,0,0,0,0,-1,2015,869,0,0
798,155,0,0,0,0,0,0,0,0,0,-1,2022,869,0,0
805,155,0,0,0,0,0,0,0,0,0,-1,2029,869,0,0
812,155,0,0,0,0,0,0,0,0,0,-1,2036,869,0,0
-700,148,0,0,0,0,0,0,0,0,0,-1,524,876,0,0
-693,148,0,0,0,0,0,0,0,0,0,-1,531,876,0,0
-686,148,0,0,0,0,0,0,0,0,0,-1,538,876,0,0
-679,148,0,0,0,0,0,0,0,0,0,-1,545,876,0,0
-672,148,-48.1407,-0.726746,0,0,0,0,0,0,0,-1,552,876,-48.1407,0.726755
-665,148,-48.2041,-3.97095,0,0,0,0,0,0,0,-1,559,876,-48.2041,3.97096
-658,148,-51.7661,3.82794,0,0,0,0,0,0,0,-1,566,876,-51.7661,-3.82797
-651,148,-52.0392,2.79663,0,0,0,0,0,0,0,-1,573,876,-52.0392,-2.79661
-644,148,-52.2687,1.81482,0,0,0,0,0,0,0,-1,580,876,-52.2687,-1.81482
-637,148,-52.5708,0.881165,0,0,0,0,0,0,0,-1,587,876,-52.5708,-0.88117
-630,148,-48.566,8.47528,0,0,0,0,0,0,0,-1,594,876,-48.566,-8.4753
-623,148,-48.7834,7.47888,-0.00285675,0.00573928,0.00213289,0.0062394,-0.00335688,1.34047,0.00562311,0.0299058,601,876,-48.7834,-7.47886
-616,148,-48.99,6.51855,-0.00378709,0.00438267,0.00244568,0.00505884,-0.00446326,1.30106,0.00550117,0.0149284,608,876,-48.99,-6.51856
-609,148,-49.1439,5.61334,-0.00500692,0.00312627,0.00280541,0.00400007,-0.00588072,1.26885,0.00573902,0.0137792,615,876,-49.1439,-5.61334
-602,148,-49.2516,4.76685,-0.00661782,0.00185209,0.0032593,0.00296109,-0.00772682,1.24283,0.00637187,0.0163984,622,876,-49.2516,-4.76687
-595,148,-49.2784,3.95953,-0.00859499,0.00057197,0.00379427,0.00193868,-0.0099617,1.22506,0.00737282,0.0143023,629,876,-49.2784,-3.95954
-588,148,-49.2685,3.06921,-0.0109041,-0.000700177,0.0043971,0.000933185,-0.0125374,1.21513,0.00868607,0.0342747,636,876,-49.2685,-3.06918
-581,148,-49.4637,2.47742,-0.0135463,-0.0019418,0.00511242,-1.08173e-05,-0.0154773,1.20966,0.0103146,0.0487892,643,876,-49.4638,-2.47739
-574,148,-49.5073,2.12958,0,0,0,0,0,0,0,-1,650,876,-49.5073,-2.12956
-567,148,-35.6293,0.615784,0,0,0,0,0,0,0,-1,657,876,-35.6293,-0.615792
-560,148,-37.7973,-0.588135,0,0,0,0,0,0,0,-1,664,876,-37.7973,0.588143
-553,148,-18.3896,-0.00280762,0,0,0,0,0,0,0,-1,671,876,-18.3897,0.00278524
-546,148,-59.4573,0.14978,0,0,0,0,0,0,0,-1,678,876,-59.4573,-0.149785
-539,148,-59.3772,0.218872,0,0,0,0,0,0,0,-1,685,876,-59.3772,-0.218901
-532,148,-59.4132,0.320435,0,0,0,0,0,0,0,-1,692,876,-59.4132,-0.320425
-525,148,-59.4404,0.346619,0,0,0,0,0,0,0,-1,699,876,-59.4404,-0.346603
-518,148,-59.4836,0.333862,0,0,0,0,0,0,0,-1,706,876,-59.4837,-0.333873
-511,148,-59.4555,0.39447,0,0,0,0,0,0,0,-1,713,876,-59.4555,-0.394451
-504,148,-59.4153,0.435913,0,0,0,0,0,0,0,-1,720,876,-59.4154,-0.435912
-497,148,0,0,0,0,0,0,0,0,0,-1,727,876,0,0
-490,148,0,0,0,0,0,0,0,0,0,-1,734,876,0,0
-483,148,0,0,0,0,0,0,0,0,0,-1,741,876,0,0
-476,148,0,0,0,0,0,0,0,0,0,-1,748,876,0,0
-469,148,0,0,0,0,0,0,0,0,0,-1,755,876,0,0
-462,148,0,0,0,0,0,0,0,0,0,-1,762,876,0,0
-455,148,0,0,0,0,0,0,0,0,0,-1,769,876,0,0
-448,148,0,0,0,0,0,0,0,0,0,-1,776,876,0,0
-441,148,0,0,0,0,0,0,0,0,0,-1,783,876,0,0
-434,148,0,0,0,0,0,0,0,0,0,-1,790,876,0,0
-427,148,0,0,0,0,0,0,0,0,0,-1,797,876,0,0
-420,148,0,0,0,0,0,0,0,0,0,-1,804,876,0,0
-413,148,0,0,0,0,0,0,0,0,0,-1,811,876,0,0
-406,148,0,0,0,0,0,0,0,0,0,-1,818,876,0,0
-399,148,0,0,0,0,0,0,0,0,0,-1,825,876,0,0
-392,148,0,0,0,0,0,0,0,0,0,-1,832,876,0,0
-385,148,0,0,0,0,0,0,0,0,0,-1,839,876,0,0
-378,148,0,0,0,0,0,0,0,0,0,-1,846,876,0,0
-371,148,0,0,0,0,0,0,0,0,0,-1,853,876,0,0
-364,148,0,0,0,0,0,0,0,0,0,-1,860,876,0,0
-357,148,0,0,0,0,0,0,0,0,0,-1,867,876,0,0
-350,148,0,0,0,0,0,0,0,0,0,-1,874,876,0,0
-343,148,0,0,0,0,0,0,0,0,0,-1,881,876,0,0
-336,148,0,0,0,0,0,0,0,0,0,-1,888,876,0,0
-329,148,0,0,0,0,0,0,0,0,0,-1,895,876,0,0
-322,148,0,0,0,0,0,0,0,0,0,-1,902,876,0,0
-315,148,0,0,0,0,0,0,0,0,0,-1,909,876,0,0
-308,148,0,0,0,0,0,0,0,0,0,-1,916,876,0,0
-301,148,0,0,0,0,0,0,0,0,0,-1,923,876,0,0
-294,148,0,0,0,0,0,0,0,0,0,-1,930,876,0,0
-287,148,0,0,0,0,0,0,0,0,0,-1,937,876,0,0
-280,148,0,0,0,0,0,0,0,0,0,-1,944,876,0,0
-273,148,0,0,0,0,0,0,0,0,0,-1,951,876,0,0
-266,148,0,0,0,0,0,0,0,0,0,-1,958,876,0,0
-259,148,0,0,0,0,0,0,0,0,0,-1,965,876,0,0
-252,148,0,0,0,0,0,0,0,0,0,-1,972,876,0,0
-245,148,0,0,0,0,0,0,0,0,0,-1,979,876,0,0
-238,148,0,0,0,0,0,0,0,0,0,-1,986,876,0,0
-231,148,0,0,0,0,0,0,0,0,0,-1,993,876,0,0
-224,148,0,0,0,0,0,0,0,0,0,-1,1000,876,0,0
-217,148,0,0,0,0,0,0,0,0,0,-1,1007,876,0,0
-210,148,0,0,0,0,0,0,0,0,0,-1,1014,876,0,0
-203,148,0,0,0,0,0,0,0,0,0,-1,1021,876,0,0
-196,148,0,0,0,0,0,0,0,0,0,-1,1028,876,0,0
-189,148,0,0,0,0,0,0,0,0,0,-1,1035,876,0,0
-182,148,0,0,0,0,0,0,0,0,0,-1,1042,876,0,0
-175,148,0,0,0,0,0,0,0,0,0,-1,1049,876,0,0
-168,148,0,0,0,0,0,0,0,0,0,-1,1056,876,0,0
-161,148,0,0,0,0,0,0,0,0,0,-1,1063,876,0,0
-154,148,0,0,0,0,0,0,0,0,0,-1,1070,876,0,0
-147,148,0,0,0,0,0,0,0,0,0,-1,1077,876,0,0
-140,148,0,0,0,0,0,0,0,0,0,-1,1084,876,0,0
-133,148,0,0,0,0,0,0,0,0,0,-1,1091,876,0,0
-126,148,0,0,0,0,0,0,0,0,0,-1,1098,876,0,0
-119,148,0,0,0,0,0,0,0,0,0,-1,1105,876,0,0
-112,148,0,0,0,0,0,0,0,0,0,-1,1112,876,0,0
-105,148,0,0,0,0,0,0,0,0,0,-1,1119,876,0,0
-98,148,0,0,0,0,0,0,0,0,0,-1,1126,876,0,0
-91,148,0,0,0,0,0,0,0,0,0,-1,1133,876,0,0
-84,148,0,0,0,0,0,0,0,0,0,-1,1140,876,0,0
-77,148,0,0,0,0,0,0,0,0,0,-1,1147,876,0,0
-70,148,0,0,0,0,0,0,0,0,0,-1,1154,876,0,0
-63,148,0,0,0,0,0,0,0,0,0,-1,1161,876,0,0
-56,148,0,0,0,0,0,0,0,0,0,-1,1168,876,0,0
-49,148,0,0,0,0,0,0,0,0,0,-1,1175,876,0,0
-42,148,0,0,0,0,0,0,0,0,0,-1,1182,876,0,0
-35,148,0,0,0,0,0,0,0,0,0,-1,1189,876,0,0
-28,148,0,0,0,0,0,0,0,0,0,-1,1196,876,0,0
-21,148,0,0,0,0,0,0,0,0,0,-1,1203,876,0,0
-14,148,0,0,0,0,0,0,0,0,0,-1,1210,876,0,0
-7,148,0,0,0,0,0,0,0,0,0,-1,1217,876,0,0
0,148,0,0,0,0,0,0,0,0,0,-1,1224,876,0,0
7,148,0,0,0,0,0,0,0,0,0,-1,1231,876,0,0
14,148,0,0,0,0,0,0,0,0,0,-1,1238,876,0,0
21,148,0,0,0,0,0,0,0,0,0,-1,1245,876,0,0
28,148,0,0,0,0,0,0,0,0,0,-1,1252,876,0,0
35,148,0,0,0,0,0,0,0,0,0,-1,1259,876,0,0
42,148,0,0,0,0,0,0,0,0,0,-1,1266,876,0,0
49,148,0,0,0,0,0,0,0,0,0,-1,1273,876,0,0
56,148,0,0,0,0,0,0,0,0,0,-1,1280,876,0,0
63,148,0,0,0,0,0,0,0,0,0,-1,1287,876,0,0
70,148,0,0,0,0,0,0,0,0,0,-1,1294,876,0,0
77,148,0,0,0,0,0,0,0,0,0,-1,1301,876,0,0
84,148,0,0,0,0,0,0,0,0,0,-1,1308,876,0,0
91,148,0,0,0,0,0,0,0,0,0,-1,1315,876,0,0
98,148,0,0,0,0,0,0,0,0,0,-1,1322,876,0,0
105,148,0,0,0,0,0,0,0,0,0,-1,1329,876,0,0
112,148,0,0,0,0,0,0,0,0,0,-1,1336,876,0,0
119,148,0,0,0,0,0,0,0,0,0,-1,1343,876,0,0
126,148,0,0,0,0,0,0,0,0,0,-1,1350,876,0,0
133,148,0,0,0,0,0,0,0,0,0,-1,1357,876,0,0
140,148,0,0,0,0,0,0,0,0,0,-1,1364,876,0,0
147,148,0,0,0,0,0,0,0,0,0,-1,1371,876,0,0
154,148,0,0,0,0,0,0,0,0,0,-1,1378,876,0,0
161,148,0,0,0,0,0,0,0,0,0,-1,1385,876,0,0
168,148,0,0,0,0,0,0,0,0,0,-1,1392,876,0,0
175,148,0,0,0,0,0,0,0,0,0,-1,1399,876,0,0
182,148,0,0,0,0,0,0,0,0,0,-1,1406,876,0,0
189,148,0,0,0,0,0,0,0,0,0,-1,1413,876,0,0
196,148,0,0,0,0,0,0,0,0,0,-1,1420,876,0,0
203,148,0,0,0,0,0,0,0,0,0,-1,1427,876,0,0
210,148,0,0,0,0,0,0,0,0,0,-1,1434,876,0,0
217,148,0,0,0,0,0,0,0,0,0,-1,1441,876,0,0
224,148,0,0,0,0,0,0,0,0,0,-1,1448,876,0,0
231,148,0,0,0,0,0,0,0,0,0,-1,1455,876,0,0
238,148,0,0,0,0,0,0,0,0,0,-1,1462,876,0,0
245,148,0,0,0,0,0,0,0,0,0,-1,1469,876,0,0
252,148,0,0,0,0,0,0,0,0,0,-1,1476,876,0,0
259,148,0,0,0,0,0,0,0,0,0,-1,1483,876,0,0
266,148,0,0,0,0,0,0,0,0,0,-1,1490,876,0,0
273,148,0,0,0,0,0,0,0,0,0,-1,1497,876,0,0
280,148,0,0,0,0,0,0,0,0,0,-1,1504,876,0,0
287,148,0,0,0,0,0,0,0,0,0,-1,1511,876,0,0
294,148,0,0,0,0,0,0,0,0,0,-1,1518,876,0,0
301,148,0,0,0,0,0,0,0,0,0,-1,1525,876,0,0
308,148,0,0,0,0,0,0,0,0,0,-1,1532,876,0,0
315,148,0,0,0,0,0,0,0,0,0,-1,1539,876,0,0
322,148,0,0,0,0,0,0,0,0,0,-1,1546,876,0,0
329,148,0,0,0,0,0,0,0,0,0,-1,1553,876,0,0
336,148,0,0,0,0,0,0,0,0,0,-1,1560,876,0,0
343,148,0,0,0,0,0,0,0,0,0,-1,1567,876,0,0
350,148,0,0,0,0,0,0,0,0,0,-1,1574,876,0,0
357,148,0,0,0,0,0,0,0,0,0,-1,1581,876,0,0
364,148,0,0,0,0,0,0,0,0,0,-1,1588,876,0,0
371,148,0,0,0,0,0,0,0,0,0,-1,1595,876,0,0
378,148,0,0,0,0,0,0,0,0,0,-1,1602,876,0,0
385,148,0,0,0,0,0,0,0,0,0,-1,1609,876,0,0
392,148,0,0,0,0,0,0,0,0,0,-1,1616,876,0,0
399,148,0,0,0,0,0,0,0,0,0,-1,1623,876,0,0
406,148,0,0,0,0,0,0,0,0,0,-1,1630,876,0,0
413,148,0,0,0,0,0,0,0,0,0,-1,1637,876,0,0
420,148,0,0,0,0,0,0,0,0,0,-1,1644,876,0,0
427,148,0,0,0,0,0,0,0,0,0,-1,1651,876,0,0
434,148,0,0,0,0,0,0,0,0,0,-1,1658,876,0,0
441,148,0,0,0,0,0,0,0,0,0,-1,1665,876,0,0
448,148,0,0,0,0,0,0,0,0,0,-1,1672,876,0,0
455,148,0,0,0,0,0,0,0,0,0,-1,1679,876,0,0
462,148,0,0,0,0,0,0,0,0,0,-1,1686,876,0,0
469,148,0,0,0,0,0,0,0,0,0,-1,1693,876,0,0
476,148,0,0,0,0,0,0,0,0,0,-1,1700,876,0,0
483,148,0,0,0,0,0,0,0,0,0,-1,1707,876,0,0
490,148,0,0,0,0,0,0,0,0,0,-1,1714,876,0,0
497,148,0,0,0,0,0,0,0,0,0,-1,1721,876,0,0
504,148,0,0,0,0,0,0,0,0,0,-1,1728,876,0,0
511,148,0,0,0,0,0,0,0,0,0,-1,1735,876,0,0
518,148,0,0,0,0,0,0,0,0,0,-1,1742,876,0,0
525,148,0,0,0,0,0,0,0,0,0,-1,1749,876,0,0
532,148,0,0,0,0,0,0,0,0,0,-1,1756,876,0,0
539,148,0,0,0,0,0,0,0,0,0,-1,1763,876,0,0
546,148,0,0,0,0,0,0,0,0,0,-1,1770,876,0,0
553,148,0,0,0,0,0,0,0,0,0,-1,1777,876,0,0
560,148,0,0,0,0,0,0,0,0,0,-1,1784,876,0,0
567,148,0,0,0,0,0,0,0,0,0,-1,1791,876,0,0
574,148,0,0,0,0,0,0,0,0,0,-1,1798,876,0,0
581,148,0,0,0,0,0,0,0,0,0,-1,1805,876,0,0
588,148,0,0,0,0,0,0,0,0,0,-1,1812,876,0,0
595,148,0,0,0,0,0,0,0,0,0,-1,1819,876,0,0
602,148,0,0,0,0,0,0,0,0,0,-1,1826,876,0,0
609,148,0,0,0,0,0,0,0,0,0,-1,1833,876,0,0
616,148,0,0,0,0,0,0,0,0,0,-1,1840,876,0,0
623,148,75.9092,2.49799,0.00222838,0.00342823,-0.00222726,0.00513494,0.000521668,-0.916955,0.00326334,0.0422135,1847,876,75.9091,-2.49796
630,148,75.8324,2.61609,0.00161591,0.00271323,-0.00203729,0.00427445,5.46924e-05,-0.916932,0.00283158,0.0410116,1854,876,75.8324,-2.61609
637,148,75.937,2.52271,0.000828699,0.0023593,-0.0016998,0.00345814,-0.000270135,-0.996921,0.00240054,0.0369942,1861,876,75.937,-2.52271
644,148,75.9487,2.40234,2.13456e-05,0.00212147,-0.00132353,0.00276089,-0.000618082,-1.12074,0.0020775,0.0361019,1868,876,75.9487,-2.40236
651,148,76.0577,2.24591,-0.000749263,0.00199369,-0.00108703,0.00237224,-0.00112781,-1.23569,0.00206289,0.0366995,1875,876,76.0577,-2.24594
658,148,76.0868,2.27936,-0.00156844,0.00183718,-0.00119752,0.0022161,-0.00194736,-1.26434,0.00240544,0.0310339,1882,876,76.0868,-2.27936
665,148,75.8682,2.48413,-0.00200309,0.00184846,-0.00155678,0.002399,-0.00255363,-1.23088,0.00285987,0.0247375,1889,876,75.8682,-2.4841
672,148,75.7852,2.55975,0,0,0,0,0,0,0,-1,1896,876,75.7851,-2.55976
679,148,75.6455,2.68793,0,0,0,0,0,0,0,-1,1903,876,75.6456,-2.68793
686,148,21.6195,2.40845,0,0,0,0,0,0,0,-1,1910,876,21.6196,-2.40846
693,148,48.1387,1.97351,0,0,0,0,0,0,0,-1,1917,876,48.1387,-1.97351
700,148,65.1393,2.54236,0,0,0,0,0,0,0,-1,1924,876,65.1393,-2.54237
707,148,65.1377,3.14984,0,0,0,0,0,0,0,-1,1931,876,65.1377,-3.14986
714,148,65.0116,3.80499,0,0,0,0,0,0,0,-1,1938,876,65.0116,-3.80501
721,148,64.6122,4.56897,-0.00140271,0.00144555,-0.00331203,0.00362665,-0.00358381,-0.988442,0.00416299,0.0359846,1945,876,64.6121,-4.56899
728,148,64.5969,5.34821,-0.00169954,0.00177328,-0.00329952,0.0037654,-0.00369166,-1.02762,0.00430541,0.0234796,1952,876,64.5969,-5.3482
735,148,64.6029,6.1629,-0.00212556,0.00230072,-0.00326295,0.00403027,-0.00385512,-1.08339,0.00455301,0.0233532,1959,876,64.6029,-6.16292
742,148,64.5625,6.99963,-0.00259567,0.00300285,-0.00324587,0.00448979,-0.00408261,-1.14123,0.00495114,0.0238669,1966,876,64.5625,-6.99962
749,148,64.4397,7.7713,-0.0029418,0.00361972,-0.00327116,0.00497187,-0.00429395,-1.17883,0.0053544,0.0223515,1973,876,64.4397,-7.7713
756,148,64.3235,8.55896,-0.00294444,0.00414803,-0.00355231,0.00562123,-0.00441764,-1.17767,0.00580981,0.0269549,1980,876,64.3234,-8.55896
763,148,64.2668,9.44751,-0.00248368,0.00434982,-0.00433422,0.0064521,-0.00458595,-1.11919,0.00640311,0.0458275,1987,876,64.2669,-9.4475
770,148,64.1948,10.3261,0,0,0,0,0,0,0,-1,1994,876,64.1949,-10.3261
777,148,67.3845,10.6894,0,0,0,0,0,0,0,-1,2001,876,67.3844,-10.6894
784,148,69.7029,11.9343,0,0,0,0,0,0,0,-1,2008,876,69.7029,-11.9343
791,148,71.9668,12.1055,0,0,0,0,0,0,0,-1,2015,876,71.9667,-12.1055
798,148,0,0,0,0,0,0,0,0,0,-1,2022,876,0,0
805,148,0,0,0,0,0,0,0,0,0,-1,2029,876,0,0
812,148,0,0,0,0,0,0,0,0,0,-1,2036,876,0,0
-700,141,0,0,0,0,0,0,0,0,0,-1,524,883,0,0
-693,141,0,0,0,0,0,0,0,0,0,-1,531,883,0,0
-686,141,0,0,0,0,0,0,0,0,0,-1,538,883,0,0
-679,141,0,0,0,0,0,0,0,0,0,-1,545,883,0,0
-672,141,-48.7804,-0.600891,0,0,0,0,0,0,0,-1,552,883,-48.7804,0.600898
-665,141,-48.764,-3.67065,0,0,0,0,0,0,0,-1,559,883,-48.764,3.67066
-658,141,-52.3438,3.12531,0,0,0,0,0,0,0,-1,566,883,-52.3438,-3.1253
-651,141,-53.1779,1.50293,0,0,0,0,0,0,0,-1,573,883,-53.1778,-1.50292
-644,141,-52.4205,-0.191956,0,0,0,0,0,0,0,-1,580,883,-52.4205,0.191941
-637,141,-52.859,0.400024,0,0,0,0,0,0,0,-1,587,883,-52.859,-0.400006
-630,141,-49.346,8.32343,0,0,0,0,0,0,0,-1,594,883,-49.346,-8.32345
-623,141,-49.5833,7.35376,-0.00674734,0.00667381,0.00345594,0.00751144,-0.00758497,1.33301,0.00871595,0.0363228,601,883,-49.5833,-7.35374
-616,141,-49.8627,6.47601,-0.00636947,0.00522828,0.00333251,0.00611765,-0.00725883,1.31,0.00773228,0.0150488,608,883,-49.8627,-6.47604
-609,141,-50.0128,5.63806,-0.00675961,0.00348116,0.00336646,0.0044887,-0.00776714,1.28,0.0071598,0.015383,615,883,-50.0128,-5.63807
-602,141,-50.0845,4.81409,-0.0080191,0.00172065,0.00356512,0.00288615,-0.0091846,1.25483,0.00727843,0.0164346,622,883,-50.0845,-4.81406
-595,141,-50.0461,3.98999,-0.0101932,-5.54136e-05,0.00395884,0.00130734,-0.011556,1.23927,0.0081747,0.0203757,629,883,-50.0461,-3.98997
-588,141,-50.4898,3.12433,-0.0131647,-0.00180781,0.00443571,-0.000280684,-0.0146918,1.23923,0.00970234,0.0395525,636,883,-50.4898,-3.12432
-581,141,-50.859,2.22687,0,0,0,0,0,0,0,-1,643,883,-50.859,-2.22687
-574,141,-42.7302,0.864685,0,0,0,0,0,0,0,-1,650,883,-42.7301,-0.864692
-567,141,-30.5335,0.480103,0,0,0,0,0,0,0,-1,657,883,-30.5335,-0.480081
-560,141,-30.5542,0.23175,0,0,0,0,0,0,0,-1,664,883,-30.5542,-0.231742
-553,141,-32.0876,1.39459,0,0,0,0,0,0,0,-1,671,883,-32.0876,-1.3946
-546,141,-59.3972,0.213318,0,0,0,0,0,0,0,-1,678,883,-59.3972,-0.213298
-539,141,-59.4081,0.246521,0,0,0,0,0,0,0,-1,685,883,-59.4081,-0.246505
-532,141,-59.4408,0.266357,0,0,0,0,0,0,0,-1,692,883,-59.4408,-0.266364
-525,141,-59.4749,0.296326,0,0,0,0,0,0,0,-1,699,883,-59.4749,-0.296327
-518,141,-59.4861,0.379761,0,0,0,0,0,0,0,-1,706,883,-59.4862,-0.379752
-511,141,-59.5165,0.447266,0,0,0,0,0,0,0,-1,713,883,-59.5165,-0.447275
-504,141,-59.5291,0.438293,0,0,0,0,0,0,0,-1,720,883,-59.529,-0.438302
-497,141,0,0,0,0,0,0,0,0,0,-1,727,883,0,0
-490,141,0,0,0,0,0,0,0,0,0,-1,734,883,0,0
-483,141,0,0,0,0,0,0,0,0,0,-1,741,883,0,0
-476,141,0,0,0,0,0,0,0,0,0,-1,748,883,0,0
-469,141,0,0,0,0,0,0,0,0,0,-1,755,883,0,0
-462,141,0,0,0,0,0,0,0,0,0,-1,762,883,0,0
-455,141,0,0,0,0,0,0,0,0,0,-1,769,883,0,0
-448,141,0,0,0,0,0,0,0,0,0,-1,776,883,0,0
-441,141,0,0,0,0,0,0,0,0,0,-1,783,883,0,0
-434,141,0,0,0,0,0,0,0,0,0,-1,790,883,0,0
-427,141,0,0,0,0,0,0,0,0,0,-1,797,883,0,0
-420,141,0,0,0,0,0,0,0,0,0,-1,804,883,0,0
-413,141,0,0,0,0,0,0,0,0,0,-1,811,883,0,0
-406,141,0,0,0,0,0,0,0,0,0,-1,818,883,0,0
-399,141,0,0,0,0,0,0,0,0,0,-1,825,883,0,0
-392,141,0,0,0,0,0,0,0,0,0,-1,832,883,0,0
-385,141,0,0,0,0,0,0,0,0,0,-1,839,883,0,0
-378,141,0,0,0,0,0,0,0,0,0,-1,846,883,0,0
-371,141,0,0,0,0,0,0,0,0,0,-1,853,883,0,0
-364,141,0,0,0,0,0,0,0,0,0,-1,860,883,0,0
-357,141,0,0,0,0,0,0,0,0,0,-1,867,883,0,0
-350,141,0,0,0,0,0,0,0,0,0,-1,874,883,0,0
-343,141,0,0,0,0,0,0,0,0,0,-1,881,883,0,0
-336,141,0,0,0,0,0,0,0,0,0,-1,888,883,0,0
-329,141,0,0,0,0,0,0,0,0,0,-1,895,883,0,0
-322,141,0,0,0,0,0,0,0,0,0,-1,902,883,0,0
-315,141,0,0,0,0,0,0,0,0,0,-1,909,883,0,0
-308,141,0,0,0,0,0,0,0,0,0,-1,916,883,0,0
-301,141,0,0,0,0,0,0,0,0,0,-1,923,883,0,0
-294,141,0,0,0,0,0,0,0,0,0,-1,930,883,0,0
-287,141,0,0,0,0,0,0,0,0,0,-1,937,883,0,0
-280,141,0,0,0,0,0,0,0,0,0,-1,944,883,0,0
-273,141,0,0,0,0,0,0,0,0,0,-1,951,883,0,0
-266,141,0,0,0,0,0,0,0,0,0,-1,958,883,0,0
-259,141,0,0,0,0,0,0,0,0,0,-1,965,883,0,0
-252,141,0,0,0,0,0,0,0,0,0,-1,972,883,0,0
-245,141,0,0,0,0,0,0,0,0,0,-1,979,883,0,0
-238,141,0,0,0,0,0,0,0,0,0,-1,986,883,0,0
-231,141,0,0,0,0,0,0,0,0,0,-1,993,883,0,0
-224,141,0,0,0,0,0,0,0,0,0,-1,1000,883,0,0
-217,141,0,0,0,0,0,0,0,0,0,-1,1007,883,0,0
-210,141,0,0,0,0,0,0,0,0,0,-1,1014,883,0,0
-203,141,0,0,0,0,0,0,0,0,0,-1,1021,883,0,0
-196,141,0,0,0,0,0,0,0,0,0,-1,1028,883,0,0
-189,141,0,0,0,0,0,0,0,0,0,-1,1035,883,0,0
-182,141,0,0,0,0,0,0,0,0,0,-1,1042,883,0,0
-175,141,0,0,0,0,0,0,0,0,0,-1,1049,883,0,0
-168,141,0,0,0,0,0,0,0,0,0,-1,1056,883,0,0
-161,141,0,0,0,0,0,0,0,0,0,-1,1063,883,0,0
-154,141,0,0,0,0,0,0,0,0,0,-1,1070,883,0,0
-147,141,0,0,0,0,0,0,0,0,0,-1,1077,883,0,0
-140,141,0,0,0,0,0,0,0,0,0,-1,1084,883,0,0
-133,141,0,0,0,0,0,0,0,0,0,-1,1091,883,0,0
-126,141,0,0,0,0,0,0,0,0,0,-1,1098,883,0,0
-119,141,0,0,0,0,0,0,0,0,0,-1,1105,883,0,0
-112,141,0,0,0,0,0,0,0,0,0,-1,1112,883,0,0
-105,141,0,0,0,0,0,0,0,0,0,-1,1119,883,0,0
-98,141,0,0,0,0,0,0,0,0,0,-1,1126,883,0,0
-91,141,0,0,0,0,0,0,0,0,0,-1,1133,883,0,0
-84,141,0,0,0,0,0,0,0,0,0,-1,1140,883,0,0
-77,141,0,0,0,0,0,0,0,0,0,-1,1147,883,0,0
-70,141,0,0,0,0,0,0,0,0,0,-1,1154,883,0,0
-63,141,0,0,0,0,0,0,0,0,0,-1,1161,883,0,0
-56,141,0,0,0,0,0,0,0,0,0,-1,1168,883,0,0
-49,141,0,0,0,0,0,0,0,0,0,-1,1175,883,0,0
-42,141,0,0,0,0,0,0,0,0,0,-1,1182,883,0,0
-35,141,0,0,0,0,0,0,0,0,0,-1,1189,883,0,0
-28,141,0,0,0,0,0,0,0,0,0,-1,1196,883,0,0
-21,141,0,0,0,0,0,0,0,0,0,-1,1203,883,0,0
-14,141,0,0,0,0,0,0,0,0,0,-1,1210,883,0,0
-7,141,0,0,0,0,0,0,0,0,0,-1,1217,883,0,0
0,141,0,0,0,0,0,0,0,0,0,-1,1224,883,0,0
7,141,0,0,0,0,0,0,0,0,0,-1,1231,883,0,0
14,141,0,0,0,0,0,0,0,0,0,-1,1238,883,0,0
21,141,0,0,0,0,0,0,0,0,0,-1,1245,883,0,0
28,141,0,0,0,0,0,0,0,0,0,-1,1252,883,0,0
35,141,0,0,0,0,0,0,0,0,0,-1,1259,883,0,0
42,141,0,0,0,0,0,0,0,0,0,-1,1266,883,0,0
49,141,0,0,0,0,0,0,0,0,0,-1,1273,883,0,0
56,141,0,0,0,0,0,0,0,0,0,-1,1280,883,0,0
63,141,0,0,0,0,0,0,0,0,0,-1,1287,883,0,0
70,141,0,0,0,0,0,0,0,0,0,-1,1294,883,0,0
77,141,0,0,0,0,0,0,0,0,0,-1,1301,883,0,0
84,141,0,0,0,0,0,0,0,0,0,-1,1308,883,0,0
91,141,0,0,0,0,0,0,0,0,0,-1,1315,883,0,0
98,141,0,0,0,0,0,0,0,0,0,-1,1322,883,0,0
105,141,0,0,0,0,0,0,0,0,0,-1,1329,883,0,0
112,141,0,0,0,0,0,0,0,0,0,-1,1336,883,0,0
119,141,0,0,0,0,0,0,0,0,0,-1,1343,883,0,0
126,141,0,0,0,0,0,0,0,0,0,-1,1350,883,0,0
133,141,0,0,0,0,0,0,0,0,0,-1,1357,883,0,0
140,141,0,0,0,0,0,0,0,0,0,-1,1364,883,0,0
147,141,0,0,0,0,0,0,0,0,0,-1,1371,883,0,0
154,141,0,0,0,0,0,0,0,0,0,-1,1378,883,0,0
161,141,0,0,0,0,0,0,0,0,0,-1,1385,883,0,0
168,141,0,0,0,0,0,0,0,0,0,-1,1392,883,0,0
175,141,0,0,0,0,0,0,0,0,0,-1,1399,883,0,0
182,141,0,0,0,0,0,0,0,0,0,-1,1406,883,0,0
189,141,0,0,0,0,0,0,0,0,0,-1,1413,883,0,0
196,141,0,0,0,0,0,0,0,0,0,-1,1420,883,0,0
203,141,0,0,0,0,0,0,0,0,0,-1,1427,883,0,0
210,141,0,0,0,0,0,0,0,0,0,-1,1434,883,0,0
217,141,0,0,0,0,0,0,0,0,0,-1,1441,883,0,0
224,141,0,0,0,0,0,0,0,0,0,-1,1448,883,0,0
231,141,0,0,0,0,0,0,0,0,0,-1,1455,883,0,0
238,141,0,0,0,0,0,0,0,0,0,-1,1462,883,0,0
245,141,0,0,0,0,0,0,0,0,0,-1,1469,883,0,0
252,141,0,0,0,0,0,0,0,0,0,-1,1476,883,0,0
259,141,0,0,0,0,0,0,0,0,0,-1,1483,883,0,0
266,141,0,0,0,0,0,0,0,0,0,-1,1490,883,0,0
273,141,0,0,0,0,0,0,0,0,0,-1,1497,883,0,0
280,141,0,0,0,0,0,0,0,0,0,-1,1504,883,0,0
287,141,0,0,0,0,0,0,0,0,0,-1,1511,883,0,0
294,141,0,0,0,0,0,0,0,0,0,-1,1518,883,0,0
301,141,0,0,0,0,0,0,0,0,0,-1,1525,883,0,0
308,141,0,0,0,0,0,0,0,0,0,-1,1532,883,0,0
315,141,0,0,0,0,0,0,0,0,0,-1,1539,883,0,0
322,141,0,0,0,0,0,0,0,0,0,-1,1546,883,0,0
329,141,0,0,0,0,0,0,0,0,0,-1,1553,883,0,0
336,141,0,0,0,0,0,0,0,0,0,-1,1560,883,0,0
343,141,0,0,0,0,0,0,0,0,0,-1,1567,883,0,0
350,141,0,0,0,0,0,0,0,0,0,-1,1574,883,0,0
357,141,0,0,0,0,0,0,0,0,0,-1,1581,883,0,0
364,141,0,0,0,0,0,0,0,0,0,-1,1588,883,0,0
371,141,0,0,0,0,0,0,0,0,0,-1,1595,883,0,0
378,141,0,0,0,0,0,0,0,0,0,-1,1602,883,0,0
385,141,0,0,0,0,0,0,0,0,0,-1,1609,883,0,0
392,141,0,0,0,0,0,0,0,0,0,-1,1616,883,0,0
399,141,0,0,0,0,0,0,0,0,0,-1,1623,883,0,0
406,141,0,0,0,0,0,0,0,0,0,-1,1630,883,0,0
413,141,0,0,0,0,0,0,0,0,0,-1,1637,883,0,0
420,141,0,0,0,0,0,0,0,0,0,-1,1644,883,0,0
427,141,0,0,0,0,0,0,0,0,0,-1,1651,883,0,0
434,141,0,0,0,0,0,0,0,0,0,-1,1658,883,0,0
441,141,0,0,0,0,0,0,0,0,0,-1,1665,883,0,0
448,141,0,0,0,0,0,0,0,0,0,-1,1672,883,0,0
455,141,0,0,0,0,0,0,0,0,0,-1,1679,883,0,0
462,141,0,0,0,0,0,0,0,0,0,-1,1686,883,0,0
469,141,0,0,0,0,0,0,0,0,0,-1,1693,883,0,0
476,141,0,0,0,0,0,0,0,0,0,-1,1700,883,0,0
483,141,0,0,0,0,0,0,0,0,0,-1,1707,883,0,0
490,141,0,0,0,0,0,0,0,0,0,-1,1714,883,0,0
497,141,0,0,0,0,0,0,0,0,0,-1,1721,883,0,0
504,141,0,0,0,0,0,0,0,0,0,-1,1728,883,0,0
511,141,0,0,0,0,0,0,0,0,0,-1,1735,883,0,0
518,141,0,0,0,0,0,0,0,0,0,-1,1742,883,0,0
525,141,0,0,0,0,0,0,0,0,0,-1,1749,883,0,0
532,141,0,0,0,0,0,0,0,0,0,-1,1756,883,0,0
539,141,0,0,0,0,0,0,0,0,0,-1,1763,883,0,0
546,141,0,0,0,0,0,0,0,0,0,-1,1770,883,0,0
553,141,0,0,0,0,0,0,0,0,0,-1,1777,883,0,0
560,141,0,0,0,0,0,0,0,0,0,-1,1784,883,0,0
567,141,0,0,0,0,0,0,0,0,0,-1,1791,883,0,0
574,141,0,0,0,0,0,0,0,0,0,-1,1798,883,0,0
581,141,0,0,0,0,0,0,0,0,0,-1,1805,883,0,0
588,141,0,0,0,0,0,0,0,0,0,-1,1812,883,0,0
595,141,0,0,0,0,0,0,0,0,0,-1,1819,883,0,0
602,141,0,0,0,0,0,0,0,0,0,-1,1826,883,0,0
609,141,0,0,0,0,0,0,0,0,0,-1,1833,883,0,0
616,141,0,0,0,0,0,0,0,0,0,-1,1840,883,0,0
623,141,75.8955,2.64154,0.0018121,0.00595235,-0.00256195,0.00717601,0.00058844,-1.12521,0.00460042,0.046253,1847,883,75.8956,-2.64152
630,141,75.8646,2.63147,0.00140072,0.00485703,-0.00230571,0.00601034,0.00024741,-1.10699,0.00392702,0.0462422,1854,883,75.8646,-2.63144
637,141,75.8689,2.53571,0.000782837,0.00403535,-0.00194061,0.00494102,-0.000122839,-1.13414,0.00333572,0.0425893,1861,883,75.8689,-2.53569
644,141,75.8428,2.41376,0.000107098,0.0033604,-0.00149454,0.00394274,-0.000475244,-1.19925,0.00280038,0.0391121,1868,883,75.8427,-2.41376
651,141,75.9999,2.25519,-0.000572635,0.00285947,-0.00112953,0.00319785,-0.000911011,-1.27973,0.00249172,0.0382353,1875,883,75.9999,-2.25516
658,141,76.0499,2.20575,-0.0013559,0.00245683,-0.00106042,0.00273191,-0.00163098,-1.31698,0.00254551,0.0354281,1882,883,76.05,-2.20573
665,141,75.8517,2.44543,-0.00174949,0.00231824,-0.00133881,0.00271933,-0.00215058,-1.27972,0.00281803,0.0302172,1889,883,75.8517,-2.44544
672,141,75.8796,2.42688,-0.00153409,0.00199292,-0.00153502,0.00256741,-0.00210859,-1.21268,0.00270402,0.0228918,1896,883,75.8797,-2.42687
679,141,75.8628,2.40869,-0.00138003,0.00179534,-0.00180002,0.00260783,-0.00219252,-1.1468,0.00277494,0.0353934,1903,883,75.8628,-2.40869
686,141,75.8318,2.33246,0,0,0,0,0,0,0,-1,1910,883,75.8318,-2.33248
693,141,51.7202,1.76593,0,0,0,0,0,0,0,-1,1917,883,51.7202,-1.76595
700,141,62.7651,1.95361,0,0,0,0,0,0,0,-1,1924,883,62.7651,-1.95364
707,141,65.6591,3.09003,0,0,0,0,0,0,0,-1,1931,883,65.659,-3.09003
714,141,65.3552,3.80884,0,0,0,0,0,0,0,-1,1938,883,65.3552,-3.80882
721,141,65.4569,4.55475,-0.00124734,0.00144012,-0.00320823,0.00357466,-0.00338188,-0.983718,0.00401687,0.0234529,1945,883,65.4569,-4.55473
728,141,65.5238,5.32391,-0.00139397,0.00179061,-0.00323413,0.00380318,-0.00340654,-1.01415,0.00416463,0.0188094,1952,883,65.5238,-5.3239
735,141,65.4637,6.22516,-0.00137937,0.00244066,-0.00319814,0.00425573,-0.00319444,-1.05459,0.00431588,0.0228975,1959,883,65.4637,-6.22516
742,141,65.3739,7.02649,-0.000793363,0.00333008,-0.00321682,0.00508917,-0.00255246,-1.07038,0.0044922,0.0228845,1966,883,65.3738,-7.02648
749,141,65.3517,7.75745,0.000487172,0.00415348,-0.00314133,0.00595741,-0.00131676,-1.04952,0.00447557,0.0162196,1973,883,65.3517,-7.75742
756,141,65.2892,8.57629,0.00292754,0.00469178,-0.00333162,0.00725608,0.000363236,-0.914814,0.00472097,0.0221981,1980,883,65.2892,-8.57631
763,141,65.2336,9.36212,0.00685774,0.00467241,-0.0040302,0.00994077,0.00158938,-0.653021,0.00616605,0.045571,1987,883,65.2337,-9.36211
770,141,65.1572,10.1335,0,0,0,0,0,0,0,-1,1994,883,65.1573,-10.1335
777,141,68.2373,10.8281,0,0,0,0,0,0,0,-1,2001,883,68.2373,-10.8281
784,141,70.6033,11.7555,0,0,0,0,0,0,0,-1,2008,883,70.6033,-11.7555
791,141,72.6221,12.8146,0,0,0,0,0,0,0,-1,2015,883,72.622,-12.8147
798,141,0,0,0,0,0,0,0,0,0,-1,2022,883,0,0
805,141,0,0,0,0,0,0,0,0,0,-1,2029,883,0,0
812,141,0,0,0,0,0,0,0,0,0,-1,2036,883,0,0
-700,134,0,0,0,0,0,0,0,0,0,-1,524,890,0,0
-693,134,0,0,0,0,0,0,0,0,0,-1,531,890,0,0
-686,134,0,0,0,0,0,0,0,0,0,-1,538,890,0,0
-679,134,0,0,0,0,0,0,0,0,0,-1,545,890,0,0
-672,134,-49.3306,-0.500671,0,0,0,0,0,0,0,-1,552,890,-49.3306,0.500651
-665,134,-49.3356,-3.00098,0,0,0,0,0,0,0,-1,559,890,-49.3356,3.00096
-658,134,-49.3368,-5.46246,0,0,0,0,0,0,0,-1,566,890,-49.3368,5.46248
-651,134,-53.0905,0.530762,0,0,0,0,0,0,0,-1,573,890,-53.0905,-0.530792
-644,134,-51.8253,-1.26782,0,0,0,0,0,0,0,-1,580,890,-51.8253,1.26783
-637,134,-50.5067,-2.83545,0,0,0,0,0,0,0,-1,587,890,-50.5066,2.83545
-630,134,-50.2784,7.81055,0,0,0,0,0,0,0,-1,594,890,-50.2785,-7.81054
-623,134,-50.4401,7.21088,-0.0111548,0.007612,0.00426777,0.00853695,-0.0120798,1.35737,0.0119615,0.0351289,601,890,-50.4401,-7.21087
-616,134,-50.7345,6.49933,-0.00919008,0.00609246,0.00392936,0.00704356,-0.0101412,1.33331,0.0099752,0.0149583,608,890,-50.7345,-6.49934
-609,134,-50.8813,5.68616,-0.00827242,0.00382171,0.00374446,0.00488717,-0.00933788,1.29358,0.00834576,0.0128721,615,890,-50.8813,-5.68618
-602,134,-50.9052,4.85577,-0.00859432,0.00148036,0.00378016,0.00274099,-0.00985494,1.24891,0.00764912,0.0138627,622,890,-50.9052,-4.85575
-595,134,-50.7938,4.10431,-0.0103613,-0.000934896,0.00411044,0.000605697,-0.0119019,1.2122,0.00814404,0.0313535,629,890,-50.7938,-4.10432
-588,134,-51.3364,3.30597,-0.013406,-0.003345,0.00453362,-0.00160353,-0.0151475,1.20405,0.00960853,0.0492535,636,890,-51.3364,-3.30596
-581,134,-51.3468,2.29413,0,0,0,0,0,0,0,-1,643,890,-51.3468,-2.29414
-574,134,-31.1517,0.757751,0,0,0,0,0,0,0,-1,650,890,-31.1517,-0.757758
-567,134,-30.9003,0.296326,0,0,0,0,0,0,0,-1,657,890,-30.9002,-0.296302
-560,134,-22.9123,0.106567,0,0,0,0,0,0,0,-1,664,890,-22.9123,-0.106594
-553,134,-59.3293,0.287476,0,0,0,0,0,0,0,-1,671,890,-59.3294,-0.28745
-546,134,-59.4061,0.252197,0,0,0,0,0,0,0,-1,678,890,-59.4061,-0.252224
-539,134,-59.4183,0.227966,0,0,0,0,0,0,0,-1,685,890,-59.4182,-0.227994
-532,134,-59.4028,0.222595,0,0,0,0,0,0,0,-1,692,890,-59.4028,-0.22262
-525,134,-59.434,0.351501,0,0,0,0,0,0,0,-1,699,890,-59.4339,-0.351512
-518,134,-59.4307,0.533081,0,0,0,0,0,0,0,-1,706,890,-59.4308,-0.533079
-511,134,-59.4276,0.566956,0,0,0,0,0,0,0,-1,713,890,-59.4276,-0.566943
-504,134,0,0,0,0,0,0,0,0,0,-1,720,890,0,0
-497,134,0,0,0,0,0,0,0,0,0,-1,727,890,0,0
-490,134,0,0,0,0,0,0,0,0,0,-1,734,890,0,0
-483,134,0,0,0,0,0,0,0,0,0,-1,741,890,0,0
-476,134,0,0,0,0,0,0,0,0,0,-1,748,890,0,0
-469,134,0,0,0,0,0,0,0,0,0,-1,755,890,0,0
-462,134,0,0,0,0,0,0,0,0,0,-1,762,890,0,0
-455,134,0,0,0,0,0,0,0,0,0,-1,769,890,0,0
-448,134,0,0,0,0,0,0,0,0,0,-1,776,890,0,0
-441,134,0,0,0,0,0,0,0,0,0,-1,783,890,0,0
-434,134,0,0,0,0,0,0,0,0,0,-1,790,890,0,0
-427,134,0,0,0,0,0,0,0,0,0,-1,797,890,0,0
-420,134,0,0,0,0,0,0,0,0,0,-1,804,890,0,0
-413,134,0,0,0,0,0,0,0,0,0,-1,811,890,0,0
-406,134,0,0,0,0,0,0,0,0,0,-1,818,890,0,0
-399,134,0,0,0,0,0,0,0,0,0,-1,825,890,0,0
-392,134,0,0,0,0,0,0,0,0,0,-1,832,890,0,0
-385,134,0,0,0,0,0,0,0,0,0,-1,839,890,0,0
-378,134,0,0,0,0,0,0,0,0,0,-1,846,890,0,0
-371,134,0,0,0,0,0,0,0,0,0,-1,853,890,0,0
-364,134,0,0,0,0,0,0,0,0,0,-1,860,890,0,0
-357,134,0,0,0,0,0,0,0,0,0,-1,867,890,0,0
-350,134,0,0,0,0,0,0,0,0,0,-1,874,890,0,0
-343,134,0,0,0,0,0,0,0,0,0,-1,881,890,0,0
-336,134,0,0,0,0,0,0,0,0,0,-1,888,890,0,0
-329,134,0,0,0,0,0,0,0,0,0,-1,895,890,0,0
-322,134,0,0,0,0,0,0,0,0,0,-1,902,890,0,0
-315,134,0,0,0,0,0,0,0,0,0,-1,909,890,0,0
-308,134,0,0,0,0,0,0,0,0,0,-1,916,890,0,0
-301,134,0,0,0,0,0,0,0,0,0,-1,923,890,0,0
-294,134,0,0,0,0,0,0,0,0,0,-1,930,890,0,0
-287,134,0,0,0,0,0,0,0,0,0,-1,937,890,0,0
-280,134,0,0,0,0,0,0,0,0,0,-1,944,890,0,0
-273,134,0,0,0,0,0,0,0,0,0,-1,951,890,0,0
-266,134,0,0,0,0,0,0,0,0,0,-1,958,890,0,0
-259,134,0,0,0,0,0,0,0,0,0,-1,965,890,0,0
-252,134,0,0,0,0,0,0,0,0,0,-1,972,890,0,0
-245,134,0,0,0,0,0,0,0,0,0,-1,979,890,0,0
-238,134,0,0,0,0,0,0,0,0,0,-1,986,890,0,0
-231,134,0,0,0,0,0,0,0,0,0,-1,993,890,0,0
-224,134,0,0,0,0,0,0,0,0,0,-1,1000,890,0,0
-217,134,0,0,0,0,0,0,0,0,0,-1,1007,890,0,0
-210,134,0,0,0,0,0,0,0,0,0,-1,1014,890,0,0
-203,134,0,0,0,0,0,0,0,0,0,-1,1021,890,0,0
-196,134,0,0,0,0,0,0,0,0,0,-1,1028,890,0,0
-189,134,0,0,0,0,0,0,0,0,0,-1,1035,890,0,0
-182,134,0,0,0,0,0,0,0,0,0,-1,1042,890,0,0
-175,134,0,0,0,0,0,0,0,0,0,-1,1049,890,0,0
-168,134,0,0,0,0,0,0,0,0,0,-1,1056,890,0,0
-161,134,0,0,0,0,0,0,0,0,0,-1,1063,890,0,0
-154,134,0,0,0,0,0,0,0,0,0,-1,1070,890,0,0
-147,134,0,0,0,0,0,0,0,0,0,-1,1077,890,0,0
-140,134,0,0,0,0,0,0,0,0,0,-1,1084,890,0,0
-133,134,0,0,0,0,0,0,0,0,0,-1,1091,890,0,0
-126,134,0,0,0,0,0,0,0,0,0,-1,1098,890,0,0
-119,134,0,0,0,0,0,0,0,0,0,-1,1105,890,0,0
-112,134,0,0,0,0,0,0,0,0,0,-1,1112,890,0,0
-105,134,0,0,0,0,0,0,0,0,0,-1,1119,890,0,0
-98,134,0,0,0,0,0,0,0,0,0,-1,1126,890,0,0
-91,134,0,0,0,0,0,0,0,0,0,-1,1133,890,0,0
-84,134,0,0,0,0,0,0,0,0,0,-1,1140,890,0,0
-77,134,0,0,0,0,0,0,0,0,0,-1,1147,890,0,0
-70,134,0,0,0,0,0,0,0,0,0,-1,1154,890,0,0
-63,134,0,0,0,0,0,0,0,0,0,-1,1161,890,0,0
-56,134,0,0,0,0,0,0,0,0,0,-1,1168,890,0,0
-49,134,0,0,0,0,0,0,0,0,0,-1,1175,890,0,0
-42,134,0,0,0,0,0,0,0,0,0,-1,1182,890,0,0
-35,134,0,0,0,0,0,0,0,0,0,-1,1189,890,0,0
-28,134,0,0,0,0,0,0,0,0,0,-1,1196,890,0,0
-21,134,0,0,0,0,0,0,0,0,0,-1,1203,890,0,0
-14,134,0,0,0,0,0,0,0,0,0,-1,1210,890,0,0
-7,134,0,0,0,0,0,0,0,0,0,-1,1217,890,0,0
0,134,0,0,0,0,0,0,0,0,0,-1,1224,890,0,0
7,134,0,0,0,0,0,0,0,0,0,-1,1231,890,0,0
14,134,0,0,0,0,0,0,0,0,0,-1,1238,890,0,0
21,134,0,0,0,0,0,0,0,0,0,-1,1245,890,0,0
28,134,0,0,0,0,0,0,0,0,0,-1,1252,890,0,0
35,134,0,0,0,0,0,0,0,0,0,-1,1259,890,0,0
42,134,0,0,0,0,0,0,0,0,0,-1,1266,890,0,0
49,134,0,0,0,0,0,0,0,0,0,-1,1273,890,0,0
56,134,0,0,0,0,0,0,0,0,0,-1,1280,890,0,0
63,134,0,0,0,0,0,0,0,0,0,-1,1287,890,0,0
70,134,0,0,0,0,0,0,0,0,0,-1,1294,890,0,0
77,134,0,0,0,0,0,0,0,0,0,-1,1301,890,0,0
84,134,0,0,0,0,0,0,0,0,0,-1,1308,890,0,0
91,134,0,0,0,0,0,0,0,0,0,-1,1315,890,0,0
98,134,0,0,0,0,0,0,0,0,0,-1,1322,890,0,0
105,134,0,0,0,0,0,0,0,0,0,-1,1329,890,0,0
112,134,0,0,0,0,0,0,0,0,0,-1,1336,890,0,0
119,134,0,0,0,0,0,0,0,0,0,-1,1343,890,0,0
126,134,0,0,0,0,0,0,0,0,0,-1,1350,890,0,0
133,134,0,0,0,0,0,0,0,0,0,-1,1357,890,0,0
140,134,0,0,0,0,0,0,0,0,0,-1,1364,890,0,0
147,134,0,0,0,0,0,0,0,0,0,-1,1371,890,0,0
154,134,0,0,0,0,0,0,0,0,0,-1,1378,890,0,0
161,134,0,0,0,0,0,0,0,0,0,-1,1385,890,0,0
168,134,0,0,0,0,0,0,0,0,0,-1,1392,890,0,0
175,134,0,0,0,0,0,0,0,0,0,-1,1399,890,0,0
182,134,0,0,0,0,0,0,0,0,0,-1,1406,890,0,0
189,134,0,0,0,0,0,0,0,0,0,-1,1413,890,0,0
196,134,0,0,0,0,0,0,0,0,0,-1,1420,890,0,0
203,134,0,0,0,0,0,0,0,0,0,-1,1427,890,0,0
210,134,0,0,0,0,0,0,0,0,0,-1,1434,890,0,0
217,134,0,0,0,0,0,0,0,0,0,-1,1441,890,0,0
224,134,0,0,0,0,0,0,0,0,0,-1,1448,890,0,0
231,134,0,0,0,0,0,0,0,0,0,-1,1455,890,0,0
238,134,0,0,0,0,0,0,0,0,0,-1,1462,890,0,0
245,134,0,0,0,0,0,0,0,0,0,-1,1469,890,0,0
252,134,0,0,0,0,0,0,0,0,0,-1,1476,890,0,0
259,134,0,0,0,0,0,0,0,0,0,-1,1483,890,0,0
266,134,0,0,0,0,0,0,0,0,0,-1,1490,890,0,0
273,134,0,0,0,0,0,0,0,0,0,-1,1497,890,0,0
280,134,0,0,0,0,0,0,0,0,0,-1,1504,890,0,0
287,134,0,0,0,0,0,0,0,0,0,-1,1511,890,0,0
294,134,0,0,0,0,0,0,0,0,0,-1,1518,890,0,0
301,134,0,0,0,0,0,0,0,0,0,-1,1525,890,0,0
308,134,0,0,0,0,0,0,0,0,0,-1,1532,890,0,0
315,134,0,0,0,0,0,0,0,0,0,-1,1539,890,0,0
322,134,0,0,0,0,0,0,0,0,0,-1,1546,890,0,0
329,134,0,0,0,0,0,0,0,0,0,-1,1553,890,0,0
336,134,0,0,0,0,0,0,0,0,0,-1,1560,890,0,0
343,134,0,0,0,0,0,0,0,0,0,-1,1567,890,0,0
350,134,0,0,0,0,0,0,0,0,0,-1,1574,890,0,0
357,134,0,0,0,0,0,0,0,0,0,-1,1581,890,0,0
364,134,0,0,0,0,0,0,0,0,0,-1,1588,890,0,0
371,134,0,0,0,0,0,0,0,0,0,-1,1595,890,0,0
378,134,0,0,0,0,0,0,0,0,0,-1,1602,890,0,0
385,134,0,0,0,0,0,0,0,0,0,-1,1609,890,0,0
392,134,0,0,0,0,0,0,0,0,0,-1,1616,890,0,0
399,134,0,0,0,0,0,0,0,0,0,-1,1623,890,0,0
406,134,0,0,0,0,0,0,0,0,0,-1,1630,890,0,0
413,134,0,0,0,0,0,0,0,0,0,-1,1637,890,0,0
420,134,0,0,0,0,0,0,0,0,0,-1,1644,890,0,0
427,134,0,0,0,0,0,0,0,0,0,-1,1651,890,0,0
434,134,0,0,0,0,0,0,0,0,0,-1,1658,890,0,0
441,134,0,0,0,0,0,0,0,0,0,-1,1665,890,0,0
448,134,0,0,0,0,0,0,0,0,0,-1,1672,890,0,0
455,134,0,0,0,0,0,0,0,0,0,-1,1679,890,0,0
462,134,0,0,0,0,0,0,0,0,0,-1,1686,890,0,0
469,134,0,0,0,0,0,0,0,0,0,-1,1693,890,0,0
476,134,0,0,0,0,0,0,0,0,0,-1,1700,890,0,0
483,134,0,0,0,0,0,0,0,0,0,-1,1707,890,0,0
490,134,0,0,0,0,0,0,0,0,0,-1,1714,890,0,0
497,134,0,0,0,0,0,0,0,0,0,-1,1721,890,0,0
504,134,0,0,0,0,0,0,0,0,0,-1,1728,890,0,0
511,134,0,0,0,0,0,0,0,0,0,-1,1735,890,0,0
518,134,0,0,0,0,0,0,0,0,0,-1,1742,890,0,0
525,134,0,0,0,0,0,0,0,0,0,-1,1749,890,0,0
532,134,0,0,0,0,0,0,0,0,0,-1,1756,890,0,0
539,134,0,0,0,0,0,0,0,0,0,-1,1763,890,0,0
546,134,0,0,0,0,0,0,0,0,0,-1,1770,890,0,0
553,134,0,0,0,0,0,0,0,0,0,-1,1777,890,0,0
560,134,0,0,0,0,0,0,0,0,0,-1,1784,890,0,0
567,134,0,0,0,0,0,0,0,0,0,-1,1791,890,0,0
574,134,0,0,0,0,0,0,0,0,0,-1,1798,890,0,0
581,134,0,0,0,0,0,0,0,0,0,-1,1805,890,0,0
588,134,0,0,0,0,0,0,0,0,0,-1,1812,890,0,0
595,134,0,0,0,0,0,0,0,0,0,-1,1819,890,0,0
602,134,0,0,0,0,0,0,0,0,0,-1,1826,890,0,0
609,134,0,0,0,0,0,0,0,0,0,-1,1833,890,0,0
616,134,0,0,0,0,0,0,0,0,0,-1,1840,890,0,0
623,134,75.8927,2.7179,0.00149511,0.00807186,-0.00270144,0.00903921,0.000527757,-1.22694,0.00585815,0.0463305,1847,890,75.8927,-2.71791
630,134,75.8734,2.57129,0.00125389,0.00658068,-0.0024372,0.0075275,0.00030707,-1.20026,0.00491917,0.0455297,1854,890,75.8734,-2.57126
637,134,76.0225,2.43298,0.000799509,0.00543445,-0.00208634,0.00623523,-1.27312e-06,-1.20431,0.00415725,0.0427592,1861,890,76.0224,-2.43299
644,134,76.0742,2.36218,0.000225943,0.00445292,-0.00162774,0.00500708,-0.00032822,-1.24265,0.00345267,0.0388596,1868,890,76.0742,-2.36217
651,134,76.0077,2.23486,-0.000348849,0.00362735,-0.00117557,0.0039489,-0.000670406,-1.30379,0.00288218,0.0411235,1875,890,76.0076,-2.23486
658,134,75.9016,2.32263,-0.00105421,0.00295127,-0.000922644,0.00315358,-0.00125652,-1.35494,0.00262352,0.0392422,1882,890,75.9016,-2.32265
665,134,75.8435,2.28131,-0.00139335,0.0026059,-0.00105786,0.00286848,-0.00165593,-1.3275,0.00264326,0.036688,1889,890,75.8435,-2.28129
672,134,75.9138,2.32135,-0.00121913,0.00216834,-0.00121907,0.00256144,-0.00161223,-1.25887,0.00243035,0.0252812,1896,890,75.9138,-2.32132
679,134,75.9429,2.30939,-0.00112446,0.00185971,-0.00148027,0.00246941,-0.00173416,-1.18009,0.00243928,0.0220073,1903,890,75.9429,-2.3094
686,134,75.932,2.29547,0,0,0,0,0,0,0,-1,1910,890,75.932,-2.29546
693,134,34.5778,2.48096,0,0,0,0,0,0,0,-1,1917,890,34.5777,-2.48099
700,134,66.121,1.81128,0,0,0,0,0,0,0,-1,1924,890,66.121,-1.81127
707,134,66.127,2.64276,0,0,0,0,0,0,0,-1,1931,890,66.127,-2.64276
714,134,66.2458,3.591,-0.00147051,0.00140421,-0.00262661,0.00296102,-0.00302733,-1.03576,0.00345745,0.0302509,1938,890,66.2458,-3.59099
721,134,66.3647,4.41321,-0.0012892,0.0014397,-0.00295931,0.00333397,-0.00318347,-1.00141,0.00376318,0.0284351,1945,890,66.3648,-4.41319
728,134,66.4008,5.24664,-0.00144042,0.00179798,-0.00305766,0.0036387,-0.00328114,-1.0289,0.00399695,0.0245688,1952,890,66.4007,-5.24662
735,134,66.3082,6.20673,-0.00129644,0.00254304,-0.00309611,0.00426628,-0.00301968,-1.06291,0.00422702,0.0317935,1959,890,66.3083,-6.2067
742,134,66.2009,7.02618,-0.000249612,0.00366315,-0.00314609,0.00541154,-0.001998,-1.06356,0.00442663,0.0201653,1966,890,66.2009,-7.02617
749,134,66.214,7.76489,0.0018227,0.00482904,-0.00296962,0.00665426,-2.51294e-06,-1.01969,0.00443701,0.0130403,1973,890,66.214,-7.76487
756,134,66.1705,8.54883,0.00537331,0.00566048,-0.00296202,0.00848239,0.0025514,-0.809617,0.00502521,0.0178541,1980,890,66.1705,-8.5488
763,134,66.0686,9.37427,0.0106126,0.00585309,-0.00339048,0.0123751,0.00409055,-0.479401,0.00728027,0.0394512,1987,890,66.0686,-9.37426
770,134,65.9583,10.1922,0,0,0,0,0,0,0,-1,1994,890,65.9582,-10.1922
777,134,69.6218,11.1589,0,0,0,0,0,0,0,-1,2001,890,69.6219,-11.1589
784,134,71.5513,12.4056,0,0,0,0,0,0,0,-1,2008,890,71.5512,-12.4055
791,134,73.1692,13.4717,0,0,0,0,0,0,0,-1,2015,890,73.1691,-13.4717
798,134,0,0,0,0,0,0,0,0,0,-1,2022,890,0,0
805,134,0,0,0,0,0,0,0,0,0,-1,2029,890,0,0
812,134,0,0,0,0,0,0,0,0,0,-1,2036,890,0,0
-700,127,0,0,0,0,0,0,0,0,0,-1,524,897,0,0
-693,127,0,0,0,0,0,0,0,0,0,-1,531,897,0,0
-686,127,0,0,0,0,0,0,0,0,0,-1,538,897,0,0
-679,127,-52.0821,4.30957,0,0,0,0,0,0,0,-1,545,897,-52.0821,-4.30955
-672,127,-50.373,4.8219,0,0,0,0,0,0,0,-1,552,897,-50.373,-4.8219
-665,127,-49.6271,-2.44153,0,0,0,0,0,0,0,-1,559,897,-49.6271,2.44154
-658,127,-48.965,-4.18744,0,0,0,0,0,0,0,-1,566,897,-48.965,4.18745
-651,127,-52.9149,-0.455505,0,0,0,0,0,0,0,-1,573,897,-52.9149,0.455524
-644,127,-51.6913,-2.33765,0,0,0,0,0,0,0,-1,580,897,-51.6914,2.33763
-637,127,-50.3104,-4.18658,0,0,0,0,0,0,0,-1,587,897,-50.3104,4.18656
-630,127,-51.4767,7.72247,0,0,0,0,0,0,0,-1,594,897,-51.4767,-7.72245
-623,127,-51.5312,7.1579,-0.0139426,0.00787823,0.00514535,0.00903064,-0.015095,1.35046,0.0140749,0.0225035,601,897,-51.5312,-7.15791
-616,127,-51.6345,6.50317,-0.0109262,0.00628601,0.00459779,0.0074372,-0.0120774,1.32546,0.0113724,0.0126534,608,897,-51.6345,-6.50317
-609,127,-51.7374,5.68707,-0.0089543,0.00373969,0.00414324,0.00497232,-0.0101869,1.28163,0.00892314,0.0148566,615,897,-51.7374,-5.68708
-602,127,-51.7394,4.88446,-0.00845329,0.00102801,0.00390929,0.00243197,-0.00985726,1.22601,0.00751451,0.0173802,622,897,-51.7394,-4.88446
-595,127,-52.1685,4.32385,0,0,0,0,0,0,0,-1,629,897,-52.1684,-4.32386
-588,127,-51.6306,3.16003,0,0,0,0,0,0,0,-1,636,897,-51.6306,-3.16006
-581,127,-51.0927,1.99628,0,0,0,0,0,0,0,-1,643,897,-51.0927,-1.99627
-574,127,-25.2603,0.511169,0,0,0,0,0,0,0,-1,650,897,-25.2603,-0.51117
-567,127,-24.5417,-0.0447388,0,0,0,0,0,0,0,-1,657,897,-24.5417,0.0447226
-560,127,-18.9678,1.21667,0,0,0,0,0,0,0,-1,664,897,-18.9677,-1.2167
-553,127,-59.3816,0.35614,0,0,0,0,0,0,0,-1,671,897,-59.3816,-0.356161
-546,127,-59.4139,0.304871,0,0,0,0,0,0,0,-1,678,897,-59.414,-0.304844
-539,127,-59.4113,0.261353,0,0,0,0,0,0,0,-1,685,897,-59.4113,-0.261383
-532,127,-59.3245,0.25708,0,0,0,0,0,0,0,-1,692,897,-59.3245,-0.257088
-525,127,-59.4163,0.490845,0,0,0,0,0,0,0,-1,699,897,-59.4163,-0.490815
-518,127,-59.3793,0.652039,0,0,0,0,0,0,0,-1,706,897,-59.3792,-0.652026
-511,127,-59.2629,0.427734,0,0,0,0,0,0,0,-1,713,897,-59.2629,-0.427717
-504,127,0,0,0,0,0,0,0,0,0,-1,720,897,0,0
-497,127,0,0,0,0,0,0,0,0,0,-1,727,897,0,0
-490,127,0,0,0,0,0,0,0,0,0,-1,734,897,0,0
-483,127,0,0,0,0,0,0,0,0,0,-1,741,897,0,0
-476,127,0,0,0,0,0,0,0,0,0,-1,748,897,0,0
-469,127,0,0,0,0,0,0,0,0,0,-1,755,897,0,0
-462,127,0,0,0,0,0,0,0,0,0,-1,762,897,0,0
-455,127,0,0,0,0,0,0,0,0,0,-1,769,897,0,0
-448,127,0,0,0,0,0,0,0,0,0,-1,776,897,0,0
-441,127,0,0,0,0,0,0,0,0,0,-1,783,897,0,0
-434,127,0,0,0,0,0,0,0,0,0,-1,790,897,0,0
-427,127,0,0,0,0,0,0,0,0,0,-1,797,897,0,0
-420,127,0,0,0,0,0,0,0,0,0,-1,804,897,0,0
-413,127,0,0,0,0,0,0,0,0,0,-1,811,897,0,0
-406,127,0,0,0,0,0,0,0,0,0,-1,818,897,0,0
-399,127,0,0,0,0,0,0,0,0,0,-1,825,897,0,0
-392,127,0,0,0,0,0,0,0,0,0,-1,832,897,0,0
-385,127,0,0,0,0,0,0,0,0,0,-1,839,897,0,0
-378,127,0,0,0,0,0,0,0,0,0,-1,846,897,0,0
-371,127,0,0,0,0,0,0,0,0,0,-1,853,897,0,0
-364,127,0,0,0,0,0,0,0,0,0,-1,860,897,0,0
-357,127,0,0,0,0,0,0,0,0,0,-1,867,897,0,0
-350,127,0,0,0,0,0,0,0,0,0,-1,874,897,0,0
-343,127,0,0,0,0,0,0,0,0,0,-1,881,897,0,0
-336,127,0,0,0,0,0,0,0,0,0,-1,888,897,0,0
-329,127,0,0,0,0,0,0,0,0,0,-1,895,897,0,0
-322,127,0,0,0,0,0,0,0,0,0,-1,902,897,0,0
-315,127,0,0,0,0,0,0,0,0,0,-1,909,897,0,0
-308,127,0,0,0,0,0,0,0,0,0,-1,916,897,0,0
-301,127,0,0,0,0,0,0,0,0,0,-1,923,897,0,0
-294,127,0,0,0,0,0,0,0,0,0,-1,930,897,0,0
-287,127,0,0,0,0,0,0,0,0,0,-1,937,897,0,0
-280,127,0,0,0,0,0,0,0,0,0,-1,944,897,0,0
-273,127,0,0,0,0,0,0,0,0,0,-1,951,897,0,0
-266,127,0,0,0,0,0,0,0,0,0,-1,958,897,0,0
-259,127,0,0,0,0,0,0,0,0,0,-1,965,897,0,0
-252,127,0,0,0,0,0,0,0,0,0,-1,972,897,0,0
-245,127,0,0,0,0,0,0,0,0,0,-1,979,897,0,0
-238,127,0,0,0,0,0,0,0,0,0,-1,986,897,0,0
-231,127,0,0,0,0,0,0,0,0,0,-1,993,897,0,0
-224,127,0,0,0,0,0,0,0,0,0,-1,1000,897,0,0
-217,127,0,0,0,0,0,0,0,0,0,-1,1007,897,0,0
-210,127,0,0,0,0,0,0,0,0,0,-1,1014,897,0,0
-203,127,0,0,0,0,0,0,0,0,0,-1,1021,897,0,0
-196,127,0,0,0,0,0,0,0,0,0,-1,1028,897,0,0
-189,127,0,0,0,0,0,0,0,0,0,-1,1035,897,0,0
-182,127,0,0,0,0,0,0,0,0,0,-1,1042,897,0,0
-175,127,0,0,0,0,0,0,0,0,0,-1,1049,897,0,0
-168,127,0,0,0,0,0,0,0,0,0,-1,1056,897,0,0
-161,127,0,0,0,0,0,0,0,0,0,-1,1063,897,0,0
-154,127,0,0,0,0,0,0,0,0,0,-1,1070,897,0,0
-147,127,0,0,0,0,0,0,0,0,0,-1,1077,897,0,0
-140,127,0,0,0,0,0,0,0,0,0,-1,1084,897,0,0
-133,127,0,0,0,0,0,0,0,0,0,-1,1091,897,0,0
-126,127,0,0,0,0,0,0,0,0,0,-1,1098,897,0,0
-119,127,0,0,0,0,0,0,0,0,0,-1,1105,897,0,0
-112,127,0,0,0,0,0,0,0,0,0,-1,1112,897,0,0
-105,127,0,0,0,0,0,0,0,0,0,-1,1119,897,0,0
-98,127,0,0,0,0,0,0,0,0,0,-1,1126,897,0,0
-91,127,0,0,0,0,0,0,0,0,0,-1,1133,897,0,0
-84,127,0,0,0,0,0,0,0,0,0,-1,1140,897,0,0
-77,127,0,0,0,0,0,0,0,0,0,-1,1147,897,0,0
-70,127,0,0,0,0,0,0,0,0,0,-1,1154,897,0,0
-63,127,0,0,0,0,0,0,0,0,0,-1,1161,897,0,0
-56,127,0,0,0,0,0,0,0,0,0,-1,1168,897,0,0
-49,127,0,0,0,0,0,0,0,0,0,-1,1175,897,0,0
-42,127,0,0,0,0,0,0,0,0,0,-1,1182,897,0,0
-35,127,0,0,0,0,0,0,0,0,0,-1,1189,897,0,0
-28,127,0,0,0,0,0,0,0,0,0,-1,1196,897,0,0
-21,127,0,0,0,0,0,0,0,0,0,-1,1203,897,0,0
-14,127,0,0,0,0,0,0,0,0,0,-1,1210,897,0,0
-7,127,0,0,0,0,0,0,0,0,0,-1,1217,897,0,0
0,127,0,0,0,0,0,0,0,0,0,-1,1224,897,0,0
7,127,0,0,0,0,0,0,0,0,0,-1,1231,897,0,0
14,127,0,0,0,0,0,0,0,0,0,-1,1238,897,0,0
21,127,0,0,0,0,0,0,0,0,0,-1,1245,897,0,0
28,127,0,0,0,0,0,0,0,0,0,-1,1252,897,0,0
35,127,0,0,0,0,0,0,0,0,0,-1,1259,897,0,0
42,127,0,0,0,0,0,0,0,0,0,-1,1266,897,0,0
49,127,0,0,0,0,0,0,0,0,0,-1,1273,897,0,0
56,127,0,0,0,0,0,0,0,0,0,-1,1280,897,0,0
63,127,0,0,0,0,0,0,0,0,0,-1,1287,897,0,0
70,127,0,0,0,0,0,0,0,0,0,-1,1294,897,0,0
77,127,0,0,0,0,0,0,0,0,0,-1,1301,897,0,0
84,127,0,0,0,0,0,0,0,0,0,-1,1308,897,0,0
91,127,0,0,0,0,0,0,0,0,0,-1,1315,897,0,0
98,127,0,0,0,0,0,0,0,0,0,-1,1322,897,0,0
105,127,0,0,0,0,0,0,0,0,0,-1,1329,897,0,0
112,127,0,0,0,0,0,0,0,0,0,-1,1336,897,0,0
119,127,0,0,0,0,0,0,0,0,0,-1,1343,897,0,0
126,127,0,0,0,0,0,0,0,0,0,-1,1350,897,0,0
133,127,0,0,0,0,0,0,0,0,0,-1,1357,897,0,0
140,127,0,0,0,0,0,0,0,0,0,-1,1364,897,0,0
147,127,0,0,0,0,0,0,0,0,0,-1,1371,897,0,0
154,127,0,0,0,0,0,0,0,0,0,-1,1378,897,0,0
161,127,0,0,0,0,0,0,0,0,0,-1,1385,897,0,0
168,127,0,0,0,0,0,0,0,0,0,-1,1392,897,0,0
175,127,0,0,0,0,0,0,0,0,0,-1,1399,897,0,0
182,127,0,0,0,0,0,0,0,0,0,-1,1406,897,0,0
189,127,0,0,0,0,0,0,0,0,0,-1,1413,897,0,0
196,127,0,0,0,0,0,0,0,0,0,-1,1420,897,0,0
203,127,0,0,0,0,0,0,0,0,0,-1,1427,897,0,0
210,127,0,0,0,0,0,0,0,0,0,-1,1434,897,0,0
217,127,0,0,0,0,0,0,0,0,0,-1,1441,897,0,0
224,127,0,0,0,0,0,0,0,0,0,-1,1448,897,0,0
231,127,0,0,0,0,0,0,0,0,0,-1,1455,897,0,0
238,127,0,0,0,0,0,0,0,0,0,-1,1462,897,0,0
245,127,0,0,0,0,0,0,0,0,0,-1,1469,897,0,0
252,127,0,0,0,0,0,0,0,0,0,-1,1476,897,0,0
259,127,0,0,0,0,0,0,0,0,0,-1,1483,897,0,0
266,127,0,0,0,0,0,0,0,0,0,-1,1490,897,0,0
273,127,0,0,0,0,0,0,0,0,0,-1,1497,897,0,0
280,127,0,0,0,0,0,0,0,0,0,-1,1504,897,0,0
287,127,0,0,0,0,0,0,0,0,0,-1,1511,897,0,0
294,127,0,0,0,0,0,0,0,0,0,-1,1518,897,0,0
301,127,0,0,0,0,0,0,0,0,0,-1,1525,897,0,0
308,127,0,0,0,0,0,0,0,0,0,-1,1532,897,0,0
315,127,0,0,0,0,0,0,0,0,0,-1,1539,897,0,0
322,127,0,0,0,0,0,0,0,0,0,-1,1546,897,0,0
329,127,0,0,0,0,0,0,0,0,0,-1,1553,897,0,0
336,127,0,0,0,0,0,0,0,0,0,-1,1560,897,0,0
343,127,0,0,0,0,0,0,0,0,0,-1,1567,897,0,0
350,127,0,0,0,0,0,0,0,0,0,-1,1574,897,0,0
357,127,0,0,0,0,0,0,0,0,0,-1,1581,897,0,0
364,127,0,0,0,0,0,0,0,0,0,-1,1588,897,0,0
371,127,0,0,0,0,0,0,0,0,0,-1,1595,897,0,0
378,127,0,0,0,0,0,0,0,0,0,-1,1602,897,0,0
385,127,0,0,0,0,0,0,0,0,0,-1,1609,897,0,0
392,127,0,0,0,0,0,0,0,0,0,-1,1616,897,0,0
399,127,0,0,0,0,0,0,0,0,0,-1,1623,897,0,0
406,127,0,0,0,0,0,0,0,0,0,-1,1630,897,0,0
413,127,0,0,0,0,0,0,0,0,0,-1,1637,897,0,0
420,127,0,0,0,0,0,0,0,0,0,-1,1644,897,0,0
427,127,0,0,0,0,0,0,0,0,0,-1,1651,897,0,0
434,127,0,0,0,0,0,0,0,0,0,-1,1658,897,0,0
441,127,0,0,0,0,0,0,0,0,0,-1,1665,897,0,0
448,127,0,0,0,0,0,0,0,0,0,-1,1672,897,0,0
455,127,0,0,0,0,0,0,0,0,0,-1,1679,897,0,0
462,127,0,0,0,0,0,0,0,0,0,-1,1686,897,0,0
469,127,0,0,0,0,0,0,0,0,0,-1,1693,897,0,0
476,127,0,0,0,0,0,0,0,0,0,-1,1700,897,0,0
483,127,0,0,0,0,0,0,0,0,0,-1,1707,897,0,0
490,127,0,0,0,0,0,0,0,0,0,-1,1714,897,0,0
497,127,0,0,0,0,0,0,0,0,0,-1,1721,897,0,0
504,127,0,0,0,0,0,0,0,0,0,-1,1728,897,0,0
511,127,0,0,0,0,0,0,0,0,0,-1,1735,897,0,0
518,127,0,0,0,0,0,0,0,0,0,-1,1742,897,0,0
525,127,0,0,0,0,0,0,0,0,0,-1,1749,897,0,0
532,127,0,0,0,0,0,0,0,0,0,-1,1756,897,0,0
539,127,0,0,0,0,0,0,0,0,0,-1,1763,897,0,0
546,127,0,0,0,0,0,0,0,0,0,-1,1770,897,0,0
553,127,0,0,0,0,0,0,0,0,0,-1,1777,897,0,0
560,127,0,0,0,0,0,0,0,0,0,-1,1784,897,0,0
567,127,0,0,0,0,0,0,0,0,0,-1,1791,897,0,0
574,127,0,0,0,0,0,0,0,0,0,-1,1798,897,0,0
581,127,0,0,0,0,0,0,0,0,0,-1,1805,897,0,0
588,127,0,0,0,0,0,0,0,0,0,-1,1812,897,0,0
595,127,0,0,0,0,0,0,0,0,0,-1,1819,897,0,0
602,127,0,0,0,0,0,0,0,0,0,-1,1826,897,0,0
609,127,0,0,0,0,0,0,0,0,0,-1,1833,897,0,0
616,127,0,0,0,0,0,0,0,0,0,-1,1840,897,0,0
623,127,0,0,0,0,0,0,0,0,0,-1,1847,897,0,0
630,127,75.9033,2.51184,0.000816313,0.00863024,-0.0026613,0.00945053,-3.97349e-06,-1.27181,0.00630168,0.0421037,1854,897,75.9034,-2.51184
637,127,75.9526,2.40002,0.000527221,0.00704582,-0.00227405,0.00776073,-0.000187689,-1.2662,0.0052375,0.0414261,1861,897,75.9526,-2.39999
644,127,76.0022,2.4613,9.08017e-05,0.00566498,-0.00176032,0.00617434,-0.000418558,-1.28913,0.0042626,0.0422678,1868,897,76.0022,-2.46128
651,127,75.8677,2.43884,-0.000359434,0.00443969,-0.00121019,0.00472759,-0.000647336,-1.33724,0.00338818,0.0439433,1875,897,75.8677,-2.43886
658,127,75.7809,2.53241,-0.000938898,0.00342692,-0.000771802,0.00355935,-0.00107132,-1.40087,0.0027992,0.0421455,1882,897,75.7809,-2.53244
665,127,75.8218,2.42462,-0.00121357,0.00280459,-0.000721669,0.00293027,-0.00133925,-1.39837,0.00252141,0.0403502,1889,897,75.8218,-2.42461
672,127,75.8906,2.26288,-0.00108372,0.00222877,-0.000814906,0.00241839,-0.00127334,-1.34217,0.00216532,0.0358761,1896,897,75.8906,-2.26286
679,127,75.9384,2.36426,-0.00104909,0.00181649,-0.00105348,0.0021621,-0.0013947,-1.2538,0.00206939,0.0266698,1903,897,75.9383,-2.36429
686,127,75.9082,2.38239,0,0,0,0,0,0,0,-1,1910,897,75.9082,-2.38241
693,127,59.2523,2.33673,0,0,0,0,0,0,0,-1,1917,897,59.2524,-2.33674
700,127,58.717,1.80957,0,0,0,0,0,0,0,-1,1924,897,58.717,-1.80956
707,127,66.595,2.1955,0,0,0,0,0,0,0,-1,1931,897,66.5949,-2.19548
714,127,67.3488,3.6496,-0.00168733,0.00140302,-0.00231303,0.00263951,-0.00292381,-1.07987,0.00321339,0.0285855,1938,897,67.3488,-3.64957
721,127,67.3978,4.63556,-0.00159989,0.00141843,-0.00266566,0.00297249,-0.00315395,-1.04298,0.00353762,0.0285322,1945,897,67.3978,-4.63554
728,127,67.2289,5.39484,-0.00177543,0.00179244,-0.00285145,0.00337202,-0.003355,-1.06492,0.00388385,0.0256832,1952,897,67.2289,-5.39483
735,127,67.1212,6.22626,-0.00162689,0.00257815,-0.00300731,0.00414503,-0.00319377,-1.09047,0.0042489,0.0224575,1959,897,67.1212,-6.22625
742,127,67.054,7.0152,-0.000395816,0.00380951,-0.00318587,0.00552403,-0.00211034,-1.07708,0.00455222,0.0206018,1966,897,67.054,-7.01522
749,127,67.0128,7.77844,0.00211968,0.00518144,-0.00306196,0.00707389,0.000227227,-1.01721,0.00464204,0.0135722,1973,897,67.0128,-7.77843
756,127,66.9379,8.52667,0.00639197,0.00617831,-0.00302259,0.00930962,0.00326066,-0.767734,0.00545468,0.0163229,1980,897,66.9378,-8.52666
763,127,66.844,9.31158,0.0125016,0.00645054,-0.00336659,0.0140024,0.00494973,-0.419351,0.00819917,0.0270628,1987,897,66.844,-9.31157
770,127,66.8142,10.0943,0,0,0,0,0,0,0,-1,1994,897,66.8143,-10.0943
777,127,42.703,5.33789,0,0,0,0,0,0,0,-1,2001,897,42.7031,-5.33791
784,127,71.8792,12.5832,0,0,0,0,0,0,0,-1,2008,897,71.8792,-12.5832
791,127,73.6824,14.1336,0,0,0,0,0,0,0,-1,2015,897,73.6823,-14.1336
798,127,0,0,0,0,0,0,0,0,0,-1,2022,897,0,0
805,127,0,0,0,0,0,0,0,0,0,-1,2029,897,0,0
812,127,0,0,0,0,0,0,0,0,0,-1,2036,897,0,0
-700,120,0,0,0,0,0,0,0,0,0,-1,524,904,0,0
-693,120,0,0,0,0,0,0,0,0,0,-1,531,904,0,0
-686,120,0,0,0,0,0,0,0,0,0,-1,538,904,0,0
-679,120,-52.0888,4.76025,0,0,0,0,0,0,0,-1,545,904,-52.0888,-4.76024
-672,120,-51.1454,5.42755,0,0,0,0,0,0,0,-1,552,904,-51.1454,-5.42753
-665,120,-50.2376,-2.67987,0,0,0,0,0,0,0,-1,559,904,-50.2376,2.67988
-658,120,-54.6443,7.5307,0,0,0,0,0,0,0,-1,566,904,-54.6443,-7.53071
-651,120,-52.9452,-1.22644,0,0,0,0,0,0,0,-1,573,904,-52.9452,1.22647
-644,120,-51.6526,-3.15863,0,0,0,0,0,0,0,-1,580,904,-51.6526,3.15864
-637,120,-52.3339,8.50104,0,0,0,0,0,0,0,-1,587,904,-52.3338,-8.50107
-630,120,-52.3143,7.87262,-0.0201961,0.00721738,0.00542847,0.00825319,-0.0212319,1.38225,0.0175644,0.0431658,594,904,-52.3143,-7.87262
-623,120,-52.4076,7.17841,-0.0158279,0.00767211,0.00544231,0.00887129,-0.0170271,1.35392,0.0151976,0.0152435,601,904,-52.4076,-7.17842
-616,120,-52.4894,6.45667,-0.0119775,0.00605956,0.00486625,0.00728868,-0.0132066,1.32339,0.0119962,0.0112685,608,904,-52.4894,-6.45669
-609,120,-52.5347,5.69666,-0.0090839,0.00333398,0.0043232,0.00469082,-0.0104407,1.26668,0.00894398,0.0141801,615,904,-52.5347,-5.69665
-602,120,-52.5648,4.95514,-0.00779384,0.000328249,0.00395908,0.00193875,-0.00940434,1.18445,0.0070058,0.0178454,622,904,-52.5648,-4.95513
-595,120,-52.4755,4.24396,-0.00869087,-0.00304672,0.00383104,-0.00111054,-0.010627,1.10284,0.00674506,0.0379821,629,904,-52.4755,-4.24398
-588,120,-52.1315,2.93921,0,0,0,0,0,0,0,-1,636,904,-52.1315,-2.93919
-581,120,-52.6244,2.93817,0,0,0,0,0,0,0,-1,643,904,-52.6244,-2.93816
-574,120,-27.5438,0.505066,0,0,0,0,0,0,0,-1,650,904,-27.5438,-0.505085
-567,120,-25.2822,-0.410645,0,0,0,0,0,0,0,-1,657,904,-25.2821,0.410629
-560,120,-27.3358,1.10327,0,0,0,0,0,0,0,-1,664,904,-27.3358,-1.10324
-553,120,-59.348,0.537781,0,0,0,0,0,0,0,-1,671,904,-59.348,-0.53778
-546,120,-59.3577,0.439514,0,0,0,0,0,0,0,-1,678,904,-59.3577,-0.439539
-539,120,-59.3615,0.332214,0,0,0,0,0,0,0,-1,685,904,-59.3614,-0.3322
-532,120,-59.3935,0.350586,0,0,0,0,0,0,0,-1,692,904,-59.3935,-0.350595
-525,120,-59.5295,0.450317,0,0,0,0,0,0,0,-1,699,904,-59.5295,-0.450336
-518,120,-59.6951,0.549011,0,0,0,0,0,0,0,-1,706,904,-59.695,-0.54904
-511,120,-59.5521,0.535828,0,0,0,0,0,0,0,-1,713,904,-59.5521,-0.535827
-504,120,0,0,0,0,0,0,0,0,0,-1,720,904,0,0
-497,120,0,0,0,0,0,0,0,0,0,-1,727,904,0,0
-490,120,0,0,0,0,0,0,0,0,0,-1,734,904,0,0
-483,120,0,0,0,0,0,0,0,0,0,-1,741,904,0,0
-476,120,0,0,0,0,0,0,0,0,0,-1,748,904,0,0
-469,120,0,0,0,0,0,0,0,0,0,-1,755,904,0,0
-462,120,0,0,0,0,0,0,0,0,0,-1,762,904,0,0
-455,120,0,0,0,0,0,0,0,0,0,-1,769,904,0,0
-448,120,0,0,0,0,0,0,0,0,0,-1,776,904,0,0
-441,120,0,0,0,0,0,0,0,0,0,-1,783,904,0,0
-434,120,0,0,0,0,0,0,0,0,0,-1,790,904,0,0
-427,120,0,0,0,0,0,0,0,0,0,-1,797,904,0,0
-420,120,0,0,0,0,0,0,0,0,0,-1,804,904,0,0
-413,120,0,0,0,0,0,0,0,0,0,-1,811,904,0,0
-406,120,0,0,0,0,0,0,0,0,0,-1,818,904,0,0
-399,120,0,0,0,0,0,0,0,0,0,-1,825,904,0,0
-392,120,0,0,0,0,0,0,0,0,0,-1,832,904,0,0
-385,120,0,0,0,0,0,0,0,0,0,-1,839,904,0,0
-378,120,0,0,0,0,0,0,0,0,0,-1,846,904,0,0
-371,120,0,0,0,0,0,0,0,0,0,-1,853,904,0,0
-364,120,0,0,0,0,0,0,0,0,0,-1,860,904,0,0
-357,120,0,0,0,0,0,0,0,0,0,-1,867,904,0,0
-350,120,0,0,0,0,0,0,0,0,0,-1,874,904,0,0
-343,120,0,0,0,0,0,0,0,0,0,-1,881,904,0,0
-336,120,0,0,0,0,0,0,0,0,0,-1,888,904,0,0
-329,120,0,0,0,0,0,0,0,0,0,-1,895,904,0,0
-322,120,0,0,0,0,0,0,0,0,0,-1,902,904,0,0
-315,120,0,0,0,0,0,0,0,0,0,-1,909,904,0,0
-308,120,0,0,0,0,0,0,0,0,0,-1,916,904,0,0
-301,120,0,0,0,0,0,0,0,0,0,-1,923,904,0,0
-294,120,0,0,0,0,0,0,0,0,0,-1,930,904,0,0
-287,120,0,0,0,0,0,0,0,0,0,-1,937,904,0,0
-280,120,0,0,0,0,0,0,0,0,0,-1,944,904,0,0
-273,120,0,0,0,0,0,0,0,0,0,-1,951,904,0,0
-266,120,0,0,0,0,0,0,0,0,0,-1,958,904,0,0
-259,120,0,0,0,0,0,0,0,0,0,-1,965,904,0,0
-252,120,0,0,0,0,0,0,0,0,0,-1,972,904,0,0
-245,120,0,0,0,0,0,0,0,0,0,-1,979,904,0,0
-238,120,0,0,0,0,0,0,0,0,0,-1,986,904,0,0
-231,120,0,0,0,0,0,0,0,0,0,-1,993,904,0,0
-224,120,0,0,0,0,0,0,0,0,0,-1,1000,904,0,0
-217,120,0,0,0,0,0,0,0,0,0,-1,1007,904,0,0
-210,120,0,0,0,0,0,0,0,0,0,-1,1014,904,0,0
-203,120,0,0,0,0,0,0,0,0,0,-1,1021,904,0,0
-196,120,0,0,0,0,0,0,0,0,0,-1,1028,904,0,0
-189,120,0,0,0,0,0,0,0,0,0,-1,1035,904,0,0
-182,120,0,0,0,0,0,0,0,0,0,-1,1042,904,0,0
-175,120,0,0,0,0,0,0,0,0,0,-1,1049,904,0,0
-168,120,0,0,0,0,0,0,0,0,0,-1,1056,904,0,0
-161,120,0,0,0,0,0,0,0,0,0,-1,1063,904,0,0
-154,120,0,0,0,0,0,0,0,0,0,-1,1070,904,0,0
-147,120,0,0,0,0,0,0,0,0,0,-1,1077,904,0,0
-140,120,0,0,0,0,0,0,0,0,0,-1,1084,904,0,0
-133,120,0,0,0,0,0,0,0,0,0,-1,1091,904,0,0
-126,120,0,0,0,0,0,0,0,0,0,-1,1098,904,0,0
-119,120,0,0,0,0,0,0,0,0,0,-1,1105,904,0,0
-112,120,0,0,0,0,0,0,0,0,0,-1,1112,904,0,0
-105,120,0,0,0,0,0,0,0,0,0,-1,1119,904,0,0
-98,120,0,0,0,0,0,0,0,0,0,-1,1126,904,0,0
-91,120,0,0,0,0,0,0,0,0,0,-1,1133,904,0,0
-84,120,0,0,0,0,0,0,0,0,0,-1,1140,904,0,0
-77,120,0,0,0,0,0,0,0,0,0,-1,1147,904,0,0
-70,120,0,0,0,0,0,0,0,0,0,-1,1154,904,0,0
-63,120,0,0,0,0,0,0,0,0,0,-1,1161,904,0,0
-56,120,0,0,0,0,0,0,0,0,0,-1,1168,904,0,0
-49,120,0,0,0,0,0,0,0,0,0,-1,1175,904,0,0
-42,120,0,0,0,0,0,0,0,0,0,-1,1182,904,0,0
-35,120,0,0,0,0,0,0,0,0,0,-1,1189,904,0,0
-28,120,0,0,0,0,0,0,0,0,0,-1,1196,904,0,0
-21,120,0,0,0,0,0,0,0,0,0,-1,1203,904,0,0
-14,120,0,0,0,0,0,0,0,0,0,-1,1210,904,0,0
-7,120,0,0,0,0,0,0,0,0,0,-1,1217,904,0,0
0,120,0,0,0,0,0,0,0,0,0,-1,1224,904,0,0
7,120,0,0,0,0,0,0,0,0,0,-1,1231,904,0,0
14,120,0,0,0,0,0,0,0,0,0,-1,1238,904,0,0
21,120,0,0,0,0,0,0,0,0,0,-1,1245,904,0,0
28,120,0,0,0,0,0,0,0,0,0,-1,1252,904,0,0
35,120,0,0,0,0,0,0,0,0,0,-1,1259,904,0,0
42,120,0,0,0,0,0,0,0,0,0,-1,1266,904,0,0
49,120,0,0,0,0,0,0,0,0,0,-1,1273,904,0,0
56,120,0,0,0,0,0,0,0,0,0,-1,1280,904,0,0
63,120,0,0,0,0,0,0,0,0,0,-1,1287,904,0,0
70,120,0,0,0,0,0,0,0,0,0,-1,1294,904,0,0
77,120,0,0,0,0,0,0,0,0,0,-1,1301,904,0,0
84,120,0,0,0,0,0,0,0,0,0,-1,1308,904,0,0
91,120,0,0,0,0,0,0,0,0,0,-1,1315,904,0,0
98,120,0,0,0,0,0,0,0,0,0,-1,1322,904,0,0
105,120,0,0,0,0,0,0,0,0,0,-1,1329,904,0,0
112,120,0,0,0,0,0,0,0,0,0,-1,1336,904,0,0
119,120,0,0,0,0,0,0,0,0,0,-1,1343,904,0,0
126,120,0,0,0,0,0,0,0,0,0,-1,1350,904,0,0
133,120,0,0,0,0,0,0,0,0,0,-1,1357,904,0,0
140,120,0,0,0,0,0,0,0,0,0,-1,1364,904,0,0
147,120,0,0,0,0,0,0,0,0,0,-1,1371,904,0,0
154,120,0,0,0,0,0,0,0,0,0,-1,1378,904,0,0
161,120,0,0,0,0,0,0,0,0,0,-1,1385,904,0,0
168,120,0,0,0,0,0,0,0,0,0,-1,1392,904,0,0
175,120,0,0,0,0,0,0,0,0,0,-1,1399,904,0,0
182,120,0,0,0,0,0,0,0,0,0,-1,1406,904,0,0
189,120,0,0,0,0,0,0,0,0,0,-1,1413,904,0,0
196,120,0,0,0,0,0,0,0,0,0,-1,1420,904,0,0
203,120,0,0,0,0,0,0,0,0,0,-1,1427,904,0,0
210,120,0,0,0,0,0,0,0,0,0,-1,1434,904,0,0
217,120,0,0,0,0,0,0,0,0,0,-1,1441,904,0,0
224,120,0,0,0,0,0,0,0,0,0,-1,1448,904,0,0
231,120,0,0,0,0,0,0,0,0,0,-1,1455,904,0,0
238,120,0,0,0,0,0,0,0,0,0,-1,1462,904,0,0
245,120,0,0,0,0,0,0,0,0,0,-1,1469,904,0,0
252,120,0,0,0,0,0,0,0,0,0,-1,1476,904,0,0
259,120,0,0,0,0,0,0,0,0,0,-1,1483,904,0,0
266,120,0,0,0,0,0,0,0,0,0,-1,1490,904,0,0
273,120,0,0,0,0,0,0,0,0,0,-1,1497,904,0,0
280,120,0,0,0,0,0,0,0,0,0,-1,1504,904,0,0
287,120,0,0,0,0,0,0,0,0,0,-1,1511,904,0,0
294,120,0,0,0,0,0,0,0,0,0,-1,1518,904,0,0
301,120,0,0,0,0,0,0,0,0,0,-1,1525,904,0,0
308,120,0,0,0,0,0,0,0,0,0,-1,1532,904,0,0
315,120,0,0,0,0,0,0,0,0,0,-1,1539,904,0,0
322,120,0,0,0,0,0,0,0,0,0,-1,1546,904,0,0
329,120,0,0,0,0,0,0,0,0,0,-1,1553,904,0,0
336,120,0,0,0,0,0,0,0,0,0,-1,1560,904,0,0
343,120,0,0,0,0,0,0,0,0,0,-1,1567,904,0,0
350,120,0,0,0,0,0,0,0,0,0,-1,1574,904,0,0
357,120,0,0,0,0,0,0,0,0,0,-1,1581,904,0,0
364,120,0,0,0,0,0,0,0,0,0,-1,1588,904,0,0
371,120,0,0,0,0,0,0,0,0,0,-1,1595,904,0,0
378,120,0,0,0,0,0,0,0,0,0,-1,1602,904,0,0
385,120,0,0,0,0,0,0,0,0,0,-1,1609,904,0,0
392,120,0,0,0,0,0,0,0,0,0,-1,1616,904,0,0
399,120,0,0,0,0,0,0,0,0,0,-1,1623,904,0,0
406,120,0,0,0,0,0,0,0,0,0,-1,1630,904,0,0
413,120,0,0,0,0,0,0,0,0,0,-1,1637,904,0,0
420,120,0,0,0,0,0,0,0,0,0,-1,1644,904,0,0
427,120,0,0,0,0,0,0,0,0,0,-1,1651,904,0,0
434,120,0,0,0,0,0,0,0,0,0,-1,1658,904,0,0
441,120,0,0,0,0,0,0,0,0,0,-1,1665,904,0,0
448,120,0,0,0,0,0,0,0,0,0,-1,1672,904,0,0
455,120,0,0,0,0,0,0,0,0,0,-1,1679,904,0,0
462,120,0,0,0,0,0,0,0,0,0,-1,1686,904,0,0
469,120,0,0,0,0,0,0,0,0,0,-1,1693,904,0,0
476,120,0,0,0,0,0,0,0,0,0,-1,1700,904,0,0
483,120,0,0,0,0,0,0,0,0,0,-1,1707,904,0,0
490,120,0,0,0,0,0,0,0,0,0,-1,1714,904,0,0
497,120,0,0,0,0,0,0,0,0,0,-1,1721,904,0,0
504,120,0,0,0,0,0,0,0,0,0,-1,1728,904,0,0
511,120,0,0,0,0,0,0,0,0,0,-1,1735,904,0,0
518,120,0,0,0,0,0,0,0,0,0,-1,1742,904,0,0
525,120,0,0,0,0,0,0,0,0,0,-1,1749,904,0,0
532,120,0,0,0,0,0,0,0,0,0,-1,1756,904,0,0
539,120,0,0,0,0,0,0,0,0,0,-1,1763,904,0,0
546,120,0,0,0,0,0,0,0,0,0,-1,1770,904,0,0
553,120,0,0,0,0,0,0,0,0,0,-1,1777,904,0,0
560,120,0,0,0,0,0,0,0,0,0,-1,1784,904,0,0
567,120,0,0,0,0,0,0,0,0,0,-1,1791,904,0,0
574,120,0,0,0,0,0,0,0,0,0,-1,1798,904,0,0
581,120,0,0,0,0,0,0,0,0,0,-1,1805,904,0,0
588,120,0,0,0,0,0,0,0,0,0,-1,1812,904,0,0
595,120,0,0,0,0,0,0,0,0,0,-1,1819,904,0,0
602,120,0,0,0,0,0,0,0,0,0,-1,1826,904,0,0
609,120,0,0,0,0,0,0,0,0,0,-1,1833,904,0,0
616,120,0,0,0,0,0,0,0,0,0,-1,1840,904,0,0
623,120,0,0,0,0,0,0,0,0,0,-1,1847,904,0,0
630,120,75.9152,2.41589,0.000151306,0.0112011,-0.00285588,0.0118955,-0.000543165,-1.33225,0.00811747,0.0406069,1854,904,75.9151,-2.41592
637,120,75.9272,2.27783,1.61062e-05,0.0091289,-0.00236831,0.00970764,-0.000562635,-1.33112,0.00666722,0.0444908,1861,904,75.9273,-2.27784
644,120,76.0005,2.19672,-0.000237403,0.00733623,-0.00178947,0.00773776,-0.000638927,-1.35007,0.00538413,0.0448332,1868,904,76.0004,-2.19674
651,120,75.8175,2.4397,-0.000501205,0.00569704,-0.00117131,0.005911,-0.000715166,-1.39012,0.0041994,0.0429798,1875,904,75.8175,-2.43968
658,120,75.8422,2.49585,-0.000855059,0.0043037,-0.000597393,0.00437197,-0.000923335,-1.457,0.00326622,0.0424847,1882,904,75.8422,-2.49587
665,120,75.896,2.43018,-0.000977413,0.00331564,-0.000354885,0.00334478,-0.00100655,-1.48887,0.00263037,0.0384957,1889,904,75.8961,-2.43015
672,120,75.9319,2.27484,-0.000923041,0.00251277,-0.000350811,0.00254822,-0.000958494,-1.47008,0.0020928,0.0369156,1896,904,75.9318,-2.27487
679,120,75.9047,2.31018,-0.000963707,0.00193329,-0.000537398,0.00202976,-0.00106018,-1.39316,0.00181302,0.0333316,1903,904,75.9047,-2.31017
686,120,75.8997,2.39282,-0.00114458,0.00152039,-0.000774098,0.00172893,-0.00135312,-1.30765,0.00178382,0.0326053,1910,904,75.8996,-2.39281
693,120,76.0573,2.29266,0,0,0,0,0,0,0,-1,1917,904,76.0572,-2.29263
700,120,42.2007,3.00946,0,0,0,0,0,0,0,-1,1924,904,42.2007,-3.00944
707,120,66.8478,3.06818,0,0,0,0,0,0,0,-1,1931,904,66.8478,-3.06816
714,120,68.6234,3.77209,0,0,0,0,0,0,0,-1,1938,904,68.6235,-3.77211
721,120,68.188,4.87335,-0.00188948,0.00140953,-0.00226858,0.0025649,-0.00304485,-1.09974,0.00324274,0.0268532,1945,904,68.188,-4.87338
728,120,68.0332,5.61334,-0.00206049,0.00175955,-0.00251013,0.00300373,-0.00330466,-1.11063,0.00364353,0.0175821,1952,904,68.0332,-5.61334
735,120,67.9567,6.29047,-0.00186294,0.0025451,-0.00279349,0.00389935,-0.00321719,-1.11939,0.00411503,0.014451,1959,904,67.9566,-6.29048
742,120,67.8729,7.06464,-0.000437321,0.00385126,-0.003175,0.00553823,-0.0021243,-1.0824,0.00456798,0.0156039,1966,904,67.8729,-7.06462
749,120,67.8374,7.78735,0.0025953,0.00541599,-0.00326883,0.00756575,0.000445545,-0.98906,0.00490207,0.0118583,1973,904,67.8374,-7.78734
756,120,67.7284,8.53967,0.00769088,0.00660977,-0.00339848,0.0105915,0.00370912,-0.70653,0.00620583,0.0152088,1980,904,67.7284,-8.53967
763,120,67.5754,9.29272,0.0147544,0.00704583,-0.00386931,0.0163616,0.00543871,-0.39367,0.00962161,0.0347735,1987,904,67.5754,-9.29273
770,120,67.4507,10.066,0,0,0,0,0,0,0,-1,1994,904,67.4507,-10.066
777,120,59.313,9.57587,0,0,0,0,0,0,0,-1,2001,904,59.3129,-9.57587
784,120,60.7788,13.7254,0,0,0,0,0,0,0,-1,2008,904,60.7789,-13.7254
791,120,74.3335,14.8156,0,0,0,0,0,0,0,-1,2015,904,74.3336,-14.8156
798,120,62.2224,11.3201,0,0,0,0,0,0,0,-1,2022,904,62.2225,-11.3201
805,120,0,0,0,0,0,0,0,0,0,-1,2029,904,0,0
812,120,0,0,0,0,0,0,0,0,0,-1,2036,904,0,0
-700,113,0,0,0,0,0,0,0,0,0,-1,524,911,0,0
-693,113,0,0,0,0,0,0,0,0,0,-1,531,911,0,0
-686,113,0,0,0,0,0,0,0,0,0,-1,538,911,0,0
-679,113,-55.4734,4.82983,0,0,0,0,0,0,0,-1,545,911,-55.4735,-4.82983
-672,113,-52.5881,5.49811,0,0,0,0,0,0,0,-1,552,911,-52.5881,-5.49808
-665,113,-56.8114,7.23682,0,0,0,0,0,0,0,-1,559,911,-56.8114,-7.23679
-658,113,-54.1535,7.58624,0,0,0,0,0,0,0,-1,566,911,-54.1535,-7.58627
-651,113,-53.3762,7.8313,0,0,0,0,0,0,0,-1,573,911,-53.3762,-7.8313
-644,113,-48.5211,7.83691,0,0,0,0,0,0,0,-1,580,911,-48.5211,-7.83694
-637,113,-53.1021,8.65405,0,0,0,0,0,0,0,-1,587,911,-53.1021,-8.65408
-630,113,-53.1362,7.89142,-0.0214761,0.00731991,0.00579335,0.00844175,-0.022598,1.37952,0.0185316,0.0258139,594,911,-53.1362,-7.89141
-623,113,-53.2587,7.16608,-0.0166765,0.00770722,0.0057683,0.00900293,-0.0179723,1.34984,0.0158585,0.0138299,601,911,-53.2587,-7.1661
-616,113,-53.3085,6.43237,-0.0122633,0.00590864,0.00513166,0.00725765,-0.0136123,1.31373,0.0122341,0.0118496,608,911,-53.3084,-6.43237
-609,113,-53.324,5.75323,-0.00870535,0.00288215,0.00450144,0.00442533,-0.0102485,1.24053,0.00869147,0.0121089,615,911,-53.3241,-5.75326
-602,113,-53.3573,4.98395,-0.00677106,-0.000498333,0.00403477,0.0014757,-0.00874509,1.11578,0.00637911,0.0221074,622,911,-53.3573,-4.98394
-595,113,-53.4035,4.38849,-0.00718294,-0.00438789,0.00376375,-0.00177058,-0.00980025,0.963165,0.00603058,0.0297307,629,911,-53.4035,-4.38851
-588,113,-53.3238,3.56421,0,0,0,0,0,0,0,-1,636,911,-53.3238,-3.56419
-581,113,-53.3665,2.83301,0,0,0,0,0,0,0,-1,643,911,-53.3665,-2.83299
-574,113,-53.3799,1.87878,0,0,0,0,0,0,0,-1,650,911,-53.3799,-1.87879
-567,113,-21.8396,0.437378,0,0,0,0,0,0,0,-1,657,911,-21.8396,-0.437351
-560,113,-59.4086,0.22406,0,0,0,0,0,0,0,-1,664,911,-59.4086,-0.224048
-553,113,-59.3559,0.359741,0,0,0,0,0,0,0,-1,671,911,-59.3559,-0.359734
-546,113,-59.3227,0.325317,0,0,0,0,0,0,0,-1,678,911,-59.3227,-0.325315
-539,113,-59.3674,0.30365,0,0,0,0,0,0,0,-1,685,911,-59.3673,-0.303638
-532,113,-59.4904,0.280457,0,0,0,0,0,0,0,-1,692,911,-59.4903,-0.280457
-525,113,-59.5949,0.301147,0,0,0,0,0,0,0,-1,699,911,-59.5949,-0.301159
-518,113,-59.5745,0.430542,0,0,0,0,0,0,0,-1,706,911,-59.5745,-0.430512
-511,113,-59.6911,0.452209,0,0,0,0,0,0,0,-1,713,911,-59.6911,-0.452199
-504,113,0,0,0,0,0,0,0,0,0,-1,720,911,0,0
-497,113,0,0,0,0,0,0,0,0,0,-1,727,911,0,0
-490,113,0,0,0,0,0,0,0,0,0,-1,734,911,0,0
-483,113,0,0,0,0,0,0,0,0,0,-1,741,911,0,0
-476,113,0,0,0,0,0,0,0,0,0,-1,748,911,0,0
-469,113,0,0,0,0,0,0,0,0,0,-1,755,911,0,0
-462,113,0,0,0,0,0,0,0,0,0,-1,762,911,0,0
-455,113,0,0,0,0,0,0,0,0,0,-1,769,911,0,0
-448,113,0,0,0,0,0,0,0,0,0,-1,776,911,0,0
-441,113,0,0,0,0,0,0,0,0,0,-1,783,911,0,0
-434,113,0,0,0,0,0,0,0,0,0,-1,790,911,0,0
-427,113,0,0,0,0,0,0,0,0,0,-1,797,911,0,0
-420,113,0,0,0,0,0,0,0,0,0,-1,804,911,0,0
-413,113,0,0,0,0,0,0,0,0,0,-1,811,911,0,0
-406,113,0,0,0,0,0,0,0,0,0,-1,818,911,0,0
-399,113,0,0,0,0,0,0,0,0,0,-1,825,911,0,0
-392,113,0,0,0,0,0,0,0,0,0,-1,832,911,0,0
-385,113,0,0,0,0,0,0,0,0,0,-1,839,911,0,0
-378,113,0,0,0,0,0,0,0,0,0,-1,846,911,0,0
-371,113,0,0,0,0,0,0,0,0,0,-1,853,911,0,0
-364,113,0,0,0,0,0,0,0,0,0,-1,860,911,0,0
-357,113,0,0,0,0,0,0,0,0,0,-1,867,911,0,0
-350,113,0,0,0,0,0,0,0,0,0,-1,874,911,0,0
-343,113,0,0,0,0,0,0,0,0,0,-1,881,911,0,0
-336,113,0,0,0,0,0,0,0,0,0,-1,888,911,0,0
-329,113,0,0,0,0,0,0,0,0,0,-1,895,911,0,0
-322,113,0,0,0,0,0,0,0,0,0,-1,902,911,0,0
-315,113,0,0,0,0,0,0,0,0,0,-1,909,911,0,0
-308,113,0,0,0,0,0,0,0,0,0,-1,916,911,0,0
-301,113,0,0,0,0,0,0,0,0,0,-1,923,911,0,0
-294,113,0,0,0,0,0,0,0,0,0,-1,930,911,0,0
-287,113,0,0,0,0,0,0,0,0,0,-1,937,911,0,0
-280,113,0,0,0,0,0,0,0,0,0,-1,944,911,0,0
-273,113,0,0,0,0,0,0,0,0,0,-1,951,911,0,0
-266,113,0,0,0,0,0,0,0,0,0,-1,958,911,0,0
-259,113,0,0,0,0,0,0,0,0,0,-1,965,911,0,0
-252,113,0,0,0,0,0,0,0,0,0,-1,972,911,0,0
-245,113,0,0,0,0,0,0,0,0,0,-1,979,911,0,0
-238,113,0,0,0,0,0,0,0,0,0,-1,986,911,0,0
-231,113,0,0,0,0,0,0,0,0,0,-1,993,911,0,0
-224,113,0,0,0,0,0,0,0,0,0,-1,1000,911,0,0
-217,113,0,0,0,0,0,0,0,0,0,-1,1007,911,0,0
-210,113,0,0,0,0,0,0,0,0,0,-1,1014,911,0,0
-203,113,0,0,0,0,0,0,0,0,0,-1,1021,911,0,0
-196,113,0,0,0,0,0,0,0,0,0,-1,1028,911,0,0
-189,113,0,0,0,0,0,0,0,0,0,-1,1035,911,0,0
-182,113,0,0,0,0,0,0,0,0,0,-1,1042,911,0,0
-175,113,0,0,0,0,0,0,0,0,0,-1,1049,911,0,0
-168,113,0,0,0,0,0,0,0,0,0,-1,1056,911,0,0
-161,113,0,0,0,0,0,0,0,0,0,-1,1063,911,0,0
-154,113,0,0,0,0,0,0,0,0,0,-1,1070,911,0,0
-147,113,0,0,0,0,0,0,0,0,0,-1,1077,911,0,0
-140,113,0,0,0,0,0,0,0,0,0,-1,1084,911,0,0
-133,113,0,0,0,0,0,0,0,0,0,-1,1091,911,0,0
-126,113,0,0,0,0,0,0,0,0,0,-1,1098,911,0,0
-119,113,0,0,0,0,0,0,0,0,0,-1,1105,911,0,0
-112,113,0,0,0,0,0,0,0,0,0,-1,1112,911,0,0
-105,113,0,0,0,0,0,0,0,0,0,-1,1119,911,0,0
-98,113,0,0,0,0,0,0,0,0,0,-1,1126,911,0,0
-91,113,0,0,0,0,0,0,0,0,0,-1,1133,911,0,0
-84,113,0,0,0,0,0,0,0,0,0,-1,1140,911,0,0
-77,113,0,0,0,0,0,0,0,0,0,-1,1147,911,0,0
-70,113,0,0,0,0,0,0,0,0,0,-1,1154,911,0,0
-63,113,0,0,0,0,0,0,0,0,0,-1,1161,911,0,0
-56,113,0,0,0,0,0,0,0,0,0,-1,1168,911,0,0
-49,113,0,0,0,0,0,0,0,0,0,-1,1175,911,0,0
-42,113,0,0,0,0,0,0,0,0,0,-1,1182,911,0,0
-35,113,0,0,0,0,0,0,0,0,0,-1,1189,911,0,0
-28,113,0,0,0,0,0,0,0,0,0,-1,1196,911,0,0
-21,113,0,0,0,0,0,0,0,0,0,-1,1203,911,0,0
-14,113,0,0,0,0,0,0,0,0,0,-1,1210,911,0,0
-7,113,0,0,0,0,0,0,0,0,0,-1,1217,911,0,0
0,113,0,0,0,0,0,0,0,0,0,-1,1224,911,0,0
7,113,0,0,0,0,0,0,0,0,0,-1,1231,911,0,0
14,113,0,0,0,0,0,0,0,0,0,-1,1238,911,0,0
21,113,0,0,0,0,0,0,0,0,0,-1,1245,911,0,0
28,113,0,0,0,0,0,0,0,0,0,-1,1252,911,0,0
35,113,0,0,0,0,0,0,0,0,0,-1,1259,911,0,0
42,113,0,0,0,0,0,0,0,0,0,-1,1266,911,0,0
49,113,0,0,0,0,0,0,0,0,0,-1,1273,911,0,0
56,113,0,0,0,0,0,0,0,0,0,-1,1280,911,0,0
63,113,0,0,0,0,0,0,0,0,0,-1,1287,911,0,0
70,113,0,0,0,0,0,0,0,0,0,-1,1294,911,0,0
77,113,0,0,0,0,0,0,0,0,0,-1,1301,911,0,0
84,113,0,0,0,0,0,0,0,0,0,-1,1308,911,0,0
91,113,0,0,0,0,0,0,0,0,0,-1,1315,911,0,0
98,113,0,0,0,0,0,0,0,0,0,-1,1322,911,0,0
105,113,0,0,0,0,0,0,0,0,0,-1,1329,911,0,0
112,113,0,0,0,0,0,0,0,0,0,-1,1336,911,0,0
119,113,0,0,0,0,0,0,0,0,0,-1,1343,911,0,0
126,113,0,0,0,0,0,0,0,0,0,-1,1350,911,0,0
133,113,0,0,0,0,0,0,0,0,0,-1,1357,911,0,0
140,113,0,0,0,0,0,0,0,0,0,-1,1364,911,0,0
147,113,0,0,0,0,0,0,0,0,0,-1,1371,911,0,0
154,113,0,0,0,0,0,0,0,0,0,-1,1378,911,0,0
161,113,0,0,0,0,0,0,0,0,0,-1,1385,911,0,0
168,113,0,0,0,0,0,0,0,0,0,-1,1392,911,0,0
175,113,0,0,0,0,0,0,0,0,0,-1,1399,911,0,0
182,113,0,0,0,0,0,0,0,0,0,-1,1406,911,0,0
189,113,0,0,0,0,0,0,0,0,0,-1,1413,911,0,0
196,113,0,0,0,0,0,0,0,0,0,-1,1420,911,0,0
203,113,0,0,0,0,0,0,0,0,0,-1,1427,911,0,0
210,113,0,0,0,0,0,0,0,0,0,-1,1434,911,0,0
217,113,0,0,0,0,0,0,0,0,0,-1,1441,911,0,0
224,113,0,0,0,0,0,0,0,0,0,-1,1448,911,0,0
231,113,0,0,0,0,0,0,0,0,0,-1,1455,911,0,0
238,113,0,0,0,0,0,0,0,0,0,-1,1462,911,0,0
245,113,0,0,0,0,0,0,0,0,0,-1,1469,911,0,0
252,113,0,0,0,0,0,0,0,0,0,-1,1476,911,0,0
259,113,0,0,0,0,0,0,0,0,0,-1,1483,911,0,0
266,113,0,0,0,0,0,0,0,0,0,-1,1490,911,0,0
273,113,0,0,0,0,0,0,0,0,0,-1,1497,911,0,0
280,113,0,0,0,0,0,0,0,0,0,-1,1504,911,0,0
287,113,0,0,0,0,0,0,0,0,0,-1,1511,911,0,0
294,113,0,0,0,0,0,0,0,0,0,-1,1518,911,0,0
301,113,0,0,0,0,0,0,0,0,0,-1,1525,911,0,0
308,113,0,0,0,0,0,0,0,0,0,-1,1532,911,0,0
315,113,0,0,0,0,0,0,0,0,0,-1,1539,911,0,0
322,113,0,0,0,0,0,0,0,0,0,-1,1546,911,0,0
329,113,0,0,0,0,0,0,0,0,0,-1,1553,911,0,0
336,113,0,0,0,0,0,0,0,0,0,-1,1560,911,0,0
343,113,0,0,0,0,0,0,0,0,0,-1,1567,911,0,0
350,113,0,0,0,0,0,0,0,0,0,-1,1574,911,0,0
357,113,0,0,0,0,0,0,0,0,0,-1,1581,911,0,0
364,113,0,0,0,0,0,0,0,0,0,-1,1588,911,0,0
371,113,0,0,0,0,0,0,0,0,0,-1,1595,911,0,0
378,113,0,0,0,0,0,0,0,0,0,-1,1602,911,0,0
385,113,0,0,0,0,0,0,0,0,0,-1,1609,911,0,0
392,113,0,0,0,0,0,0,0,0,0,-1,1616,911,0,0
399,113,0,0,0,0,0,0,0,0,0,-1,1623,911,0,0
406,113,0,0,0,0,0,0,0,0,0,-1,1630,911,0,0
413,113,0,0,0,0,0,0,0,0,0,-1,1637,911,0,0
420,113,0,0,0,0,0,0,0,0,0,-1,1644,911,0,0
427,113,0,0,0,0,0,0,0,0,0,-1,1651,911,0,0
434,113,0,0,0,0,0,0,0,0,0,-1,1658,911,0,0
441,113,0,0,0,0,0,0,0,0,0,-1,1665,911,0,0
448,113,0,0,0,0,0,0,0,0,0,-1,1672,911,0,0
455,113,0,0,0,0,0,0,0,0,0,-1,1679,911,0,0
462,113,0,0,0,0,0,0,0,0,0,-1,1686,911,0,0
469,113,0,0,0,0,0,0,0,0,0,-1,1693,911,0,0
476,113,0,0,0,0,0,0,0,0,0,-1,1700,911,0,0
483,113,0,0,0,0,0,0,0,0,0,-1,1707,911,0,0
490,113,0,0,0,0,0,0,0,0,0,-1,1714,911,0,0
497,113,0,0,0,0,0,0,0,0,0,-1,1721,911,0,0
504,113,0,0,0,0,0,0,0,0,0,-1,1728,911,0,0
511,113,0,0,0,0,0,0,0,0,0,-1,1735,911,0,0
518,113,0,0,0,0,0,0,0,0,0,-1,1742,911,0,0
525,113,0,0,0,0,0,0,0,0,0,-1,1749,911,0,0
532,113,0,0,0,0,0,0,0,0,0,-1,1756,911,0,0
539,113,0,0,0,0,0,0,0,0,0,-1,1763,911,0,0
546,113,0,0,0,0,0,0,0,0,0,-1,1770,911,0,0
553,113,0,0,0,0,0,0,0,0,0,-1,1777,911,0,0
560,113,0,0,0,0,0,0,0,0,0,-1,1784,911,0,0
567,113,0,0,0,0,0,0,0,0,0,-1,1791,911,0,0
574,113,0,0,0,0,0,0,0,0,0,-1,1798,911,0,0
581,113,0,0,0,0,0,0,0,0,0,-1,1805,911,0,0
588,113,0,0,0,0,0,0,0,0,0,-1,1812,911,0,0
595,113,0,0,0,0,0,0,0,0,0,-1,1819,911,0,0
602,113,0,0,0,0,0,0,0,0,0,-1,1826,911,0,0
609,113,0,0,0,0,0,0,0,0,0,-1,1833,911,0,0
616,113,0,0,0,0,0,0,0,0,0,-1,1840,911,0,0
623,113,0,0,0,0,0,0,0,0,0,-1,1847,911,0,0
630,113,75.9697,2.29541,-0.000269234,0.0132133,-0.00275474,0.0137544,-0.000810361,-1.37683,0.00945132,0.0392169,1854,911,75.9697,-2.29544
637,113,75.9708,2.34894,-0.000218105,0.010854,-0.00226313,0.0112987,-0.000662825,-1.37676,0.00776283,0.0410891,1861,911,75.9709,-2.34893
644,113,75.9618,2.41687,-0.000329507,0.00882602,-0.0016902,0.00912808,-0.000631569,-1.39395,0.00630646,0.0406844,1868,911,75.9618,-2.41686
651,113,76.0039,2.32422,-0.000485802,0.00692238,-0.00105077,0.00706853,-0.000631958,-1.43259,0.00493651,0.0429764,1875,911,76.0039,-2.32421
658,113,76.0906,2.37579,-0.000708711,0.00523833,-0.000407752,0.00526615,-0.000736537,-1.50266,0.00378027,0.0448959,1882,911,76.0905,-2.37577
665,113,76.0726,2.40002,-0.000744478,0.00389593,9.27392e-06,0.00389594,-0.000744497,1.5688,0.00287774,0.0394463,1889,911,76.0727,-2.4
672,113,75.946,2.36011,-0.000831303,0.00281954,0.000131554,0.00282427,-0.000836037,1.53482,0.00221477,0.0372496,1896,911,75.946,-2.3601
679,113,75.8734,2.33838,-0.000995337,0.00202678,1.30198e-05,0.00202683,-0.000995393,1.56649,0.00177843,0.0338588,1903,911,75.8734,-2.33839
686,113,75.9154,2.39258,-0.00121229,0.00145977,-0.000264048,0.00148561,-0.00123813,-1.47324,0.00157472,0.0284113,1910,911,75.9154,-2.39255
693,113,75.9202,2.41473,0,0,0,0,0,0,0,-1,1917,911,75.9201,-2.41475
700,113,43.897,2.79669,0,0,0,0,0,0,0,-1,1924,911,43.897,-2.79671
707,113,68.8726,3.3858,0,0,0,0,0,0,0,-1,1931,911,68.8726,-3.38582
714,113,68.8441,4.10669,0,0,0,0,0,0,0,-1,1938,911,68.8442,-4.10669
721,113,68.8353,4.83258,-0.00234521,0.00132186,-0.00188797,0.00212011,-0.00314346,-1.17078,0.00305801,0.027668,1945,911,68.8353,-4.83256
728,113,68.8918,5.63416,-0.00247973,0.00165414,-0.00216116,0.00257766,-0.00340325,-1.16696,0.00346403,0.0276912,1952,911,68.8919,-5.63415
735,113,68.7687,6.35571,-0.0022011,0.0024563,-0.00255873,0.00358735,-0.00333216,-1.15458,0.00399589,0.0235025,1959,911,68.7686,-6.35569
742,113,68.6401,7.03223,-0.0006641,0.0038635,-0.00313553,0.00546705,-0.00226764,-1.09806,0.00459121,0.0137607,1966,911,68.6401,-7.03222
749,113,68.6482,7.76917,0.00267004,0.00565583,-0.00345425,0.00792598,0.000399883,-0.989371,0.00515587,0.0108926,1973,911,68.6482,-7.76918
756,113,68.5522,8.54651,0.00830463,0.00710619,-0.00374819,0.0115012,0.00390962,-0.706135,0.00675269,0.0165716,1980,911,68.5523,-8.54653
763,113,68.3401,9.47925,0.0159666,0.00777814,-0.00433196,0.0178329,0.00591177,-0.406802,0.0104889,0.0402471,1987,911,68.3401,-9.47923
770,113,68.1987,10.4167,0,0,0,0,0,0,0,-1,1994,911,68.1987,-10.4167
777,113,58.1719,9.65338,0,0,0,0,0,0,0,-1,2001,911,58.172,-9.6534
784,113,59.4839,11.6239,0,0,0,0,0,0,0,-1,2008,911,59.4839,-11.6239
791,113,63.7207,8.32813,0,0,0,0,0,0,0,-1,2015,911,63.7207,-8.32813
798,113,67.3394,10.7512,0,0,0,0,0,0,0,-1,2022,911,67.3393,-10.7512
805,113,0,0,0,0,0,0,0,0,0,-1,2029,911,0,0
812,113,0,0,0,0,0,0,0,0,0,-1,2036,911,0,0
-700,106,0,0,0,0,0,0,0,0,0,-1,524,918,0,0
-693,106,0,0,0,0,0,0,0,0,0,-1,531,918,0,0
-686,106,0,0,0,0,0,0,0,0,0,-1,538,918,0,0
-679,106,-52.6735,9.90375,0,0,0,0,0,0,0,-1,545,918,-52.6735,-9.90374
-672,106,-54.8782,5.55206,0,0,0,0,0,0,0,-1,552,918,-54.8782,-5.55205
-665,106,-53.5263,9.70886,0,0,0,0,0,0,0,-1,559,918,-53.5263,-9.70888
-658,106,-53.7712,10.2163,0,0,0,0,0,0,0,-1,566,918,-53.7712,-10.2163
-651,106,-52.8008,8.01733,0,0,0,0,0,0,0,-1,573,918,-52.8008,-8.01734
-644,106,-52.5258,9.12427,0,0,0,0,0,0,0,-1,580,918,-52.5258,-9.12424
-637,106,-53.4421,8.51166,0,0,0,0,0,0,0,-1,587,918,-53.4421,-8.51166
-630,106,-53.8494,7.96259,-0.0220878,0.00729763,0.00613208,0.00852592,-0.0233161,1.37311,0.0190336,0.0193233,594,918,-53.8494,-7.96256
-623,106,-54.0865,7.11493,-0.0169579,0.00762347,0.0060652,0.00903854,-0.018373,1.34159,0.016129,0.0203853,601,918,-54.0865,-7.11495
-616,106,-54.1572,6.39307,-0.0121125,0.0057099,0.00538076,0.00720841,-0.013611,1.29919,0.0122081,0.0202905,608,918,-54.1572,-6.39308
-609,106,-54.137,5.75336,-0.00803192,0.00249116,0.00468552,0.00427504,-0.0098158,1.20702,0.00834236,0.0137651,615,918,-54.137,-5.75338
-602,106,-54.1638,5.00592,-0.00555943,-0.00115311,0.00414655,0.00133924,-0.00805177,1.02959,0.00586545,0.0233294,622,918,-54.1638,-5.00594
-595,106,-54.3224,4.31622,-0.00551506,-0.00545645,0.003769,-0.00171664,-0.00925487,0.789286,0.00568476,0.0289365,629,918,-54.3224,-4.31625
-588,106,-54.4372,3.60468,0,0,0,0,0,0,0,-1,636,918,-54.4372,-3.60465
-581,106,-54.2023,2.77716,0,0,0,0,0,0,0,-1,643,918,-54.2023,-2.77716
-574,106,-54.515,1.96381,0,0,0,0,0,0,0,-1,650,918,-54.515,-1.96379
-567,106,-41.3706,0.420776,0,0,0,0,0,0,0,-1,657,918,-41.3706,-0.420794
-560,106,-59.375,0.205444,0,0,0,0,0,0,0,-1,664,918,-59.375,-0.205419
-553,106,-59.4038,0.260193,0,0,0,0,0,0,0,-1,671,918,-59.4038,-0.260216
-546,106,-59.3525,0.144836,0,0,0,0,0,0,0,-1,678,918,-59.3526,-0.144817
-539,106,-59.3738,0.185974,0,0,0,0,0,0,0,-1,685,918,-59.3738,-0.18596
-532,106,-59.4594,0.345581,0,0,0,0,0,0,0,-1,692,918,-59.4594,-0.345589
-525,106,-59.4985,0.267334,0,0,0,0,0,0,0,-1,699,918,-59.4985,-0.267341
-518,106,-59.4891,0.248901,0,0,0,0,0,0,0,-1,706,918,-59.489,-0.248907
-511,106,0,0,0,0,0,0,0,0,0,-1,713,918,0,0
-504,106,0,0,0,0,0,0,0,0,0,-1,720,918,0,0
-497,106,0,0,0,0,0,0,0,0,0,-1,727,918,0,0
-490,106,0,0,0,0,0,0,0,0,0,-1,734,918,0,0
-483,106,0,0,0,0,0,0,0,0,0,-1,741,918,0,0
-476,106,0,0,0,0,0,0,0,0,0,-1,748,918,0,0
-469,106,0,0,0,0,0,0,0,0,0,-1,755,918,0,0
-462,106,0,0,0,0,0,0,0,0,0,-1,762,918,0,0
-455,106,0,0,0,0,0,0,0,0,0,-1,769,918,0,0
-448,106,0,0,0,0,0,0,0,0,0,-1,776,918,0,0
-441,106,0,0,0,0,0,0,0,0,0,-1,783,918,0,0
-434,106,0,0,0,0,0,0,0,0,0,-1,790,918,0,0
-427,106,0,0,0,0,0,0,0,0,0,-1,797,918,0,0
-420,106,0,0,0,0,0,0,0,0,0,-1,804,918,0,0
-413,106,0,0,0,0,0,0,0,0,0,-1,811,918,0,0
-406,106,0,0,0,0,0,0,0,0,0,-1,818,918,0,0
-399,106,0,0,0,0,0,0,0,0,0,-1,825,918,0,0
-392,106,0,0,0,0,0,0,0,0,0,-1,832,918,0,0
-385,106,0,0,0,0,0,0,0,0,0,-1,839,918,0,0
-378,106,0,0,0,0,0,0,0,0,0,-1,846,918,0,0
-371,106,0,0,0,0,0,0,0,0,0,-1,853,918,0,0
-364,106,0,0,0,0,0,0,0,0,0,-1,860,918,0,0
-357,106,0,0,0,0,0,0,0,0,0,-1,867,918,0,0
-350,106,0,0,0,0,0,0,0,0,0,-1,874,918,0,0
-343,106,0,0,0,0,0,0,0,0,0,-1,881,918,0,0
-336,106,0,0,0,0,0,0,0,0,0,-1,888,918,0,0
-329,106,0,0,0,0,0,0,0,0,0,-1,895,918,0,0
-322,106,0,0,0,0,0,0,0,0,0,-1,902,918,0,0
-315,106,0,0,0,0,0,0,0,0,0,-1,909,918,0,0
-308,106,0,0,0,0,0,0,0,0,0,-1,916,918,0,0
-301,106,0,0,0,0,0,0,0,0,0,-1,923,918,0,0
-294,106,0,0,0,0,0,0,0,0,0,-1,930,918,0,0
-287,106,0,0,0,0,0,0,0,0,0,-1,937,918,0,0
-280,106,0,0,0,0,0,0,0,0,0,-1,944,918,0,0
-273,106,0,0,0,0,0,0,0,0,0,-1,951,918,0,0
-266,106,0,0,0,0,0,0,0,0,0,-1,958,918,0,0
-259,106,0,0,0,0,0,0,0,0,0,-1,965,918,0,0
-252,106,0,0,0,0,0,0,0,0,0,-1,972,918,0,0
-245,106,0,0,0,0,0,0,0,0,0,-1,979,918,0,0
-238,106,0,0,0,0,0,0,0,0,0,-1,986,918,0,0
-231,106,0,0,0,0,0,0,0,0,0,-1,993,918,0,0
-224,106,0,0,0,0,0,0,0,0,0,-1,1000,918,0,0
-217,106,0,0,0,0,0,0,0,0,0,-1,1007,918,0,0
-210,106,0,0,0,0,0,0,0,0,0,-1,1014,918,0,0
-203,106,0,0,0,0,0,0,0,0,0,-1,1021,918,0,0
-196,106,0,0,0,0,0,0,0,0,0,-1,1028,918,0,0
-189,106,0,0,0,0,0,0,0,0,0,-1,1035,918,0,0
-182,106,0,0,0,0,0,0,0,0,0,-1,1042,918,0,0
-175,106,0,0,0,0,0,0,0,0,0,-1,1049,918,0,0
-168,106,0,0,0,0,0,0,0,0,0,-1,1056,918,0,0
-161,106,0,0,0,0,0,0,0,0,0,-1,1063,918,0,0
-154,106,0,0,0,0,0,0,0,0,0,-1,1070,918,0,0
-147,106,0,0,0,0,0,0,0,0,0,-1,1077,918,0,0
-140,106,0,0,0,0,0,0,0,0,0,-1,1084,918,0,0
-133,106,0,0,0,0,0,0,0,0,0,-1,1091,918,0,0
-126,106,0,0,0,0,0,0,0,0,0,-1,1098,918,0,0
-119,106,0,0,0,0,0,0,0,0,0,-1,1105,918,0,0
-112,106,0,0,0,0,0,0,0,0,0,-1,1112,918,0,0
-105,106,0,0,0,0,0,0,0,0,0,-1,1119,918,0,0
-98,106,0,0,0,0,0,0,0,0,0,-1,1126,918,0,0
-91,106,0,0,0,0,0,0,0,0,0,-1,1133,918,0,0
-84,106,0,0,0,0,0,0,0,0,0,-1,1140,918,0,0
-77,106,0,0,0,0,0,0,0,0,0,-1,1147,918,0,0
-70,106,0,0,0,0,0,0,0,0,0,-1,1154,918,0,0
-63,106,0,0,0,0,0,0,0,0,0,-1,1161,918,0,0
-56,106,0,0,0,0,0,0,0,0,0,-1,1168,918,0,0
-49,106,0,0,0,0,0,0,0,0,0,-1,1175,918,0,0
-42,106,0,0,0,0,0,0,0,0,0,-1,1182,918,0,0
-35,106,0,0,0,0,0,0,0,0,0,-1,1189,918,0,0
-28,106,0,0,0,0,0,0,0,0,0,-1,1196,918,0,0
-21,106,0,0,0,0,0,0,0,0,0,-1,1203,918,0,0
-14,106,0,0,0,0,0,0,0,0,0,-1,1210,918,0,0
-7,106,0,0,0,0,0,0,0,0,0,-1,1217,918,0,0
0,106,0,0,0,0,0,0,0,0,0,-1,1224,918,0,0
7,106,0,0,0,0,0,0,0,0,0,-1,1231,918,0,0
14,106,0,0,0,0,0,0,0,0,0,-1,1238,918,0,0
21,106,0,0,0,0,0,0,0,0,0,-1,1245,918,0,0
28,106,0,0,0,0,0,0,0,0,0,-1,1252,918,0,0
35,106,0,0,0,0,0,0,0,0,0,-1,1259,918,0,0
42,106,0,0,0,0,0,0,0,0,0,-1,1266,918,0,0
49,106,0,0,0,0,0,0,0,0,0,-1,1273,918,0,0
56,106,0,0,0,0,0,0,0,0,0,-1,1280,918,0,0
63,106,0,0,0,0,0,0,0,0,0,-1,1287,918,0,0
70,106,0,0,0,0,0,0,0,0,0,-1,1294,918,0,0
77,106,0,0,0,0,0,0,0,0,0,-1,1301,918,0,0
84,106,0,0,0,0,0,0,0,0,0,-1,1308,918,0,0
91,106,0,0,0,0,0,0,0,0,0,-1,1315,918,0,0
98,106,0,0,0,0,0,0,0,0,0,-1,1322,918,0,0
105,106,0,0,0,0,0,0,0,0,0,-1,1329,918,0,0
112,106,0,0,0,0,0,0,0,0,0,-1,1336,918,0,0
119,106,0,0,0,0,0,0,0,0,0,-1,1343,918,0,0
126,106,0,0,0,0,0,0,0,0,0,-1,1350,918,0,0
133,106,0,0,0,0,0,0,0,0,0,-1,1357,918,0,0
140,106,0,0,0,0,0,0,0,0,0,-1,1364,918,0,0
147,106,0,0,0,0,0,0,0,0,0,-1,1371,918,0,0
154,106,0,0,0,0,0,0,0,0,0,-1,1378,918,0,0
161,106,0,0,0,0,0,0,0,0,0,-1,1385,918,0,0
168,106,0,0,0,0,0,0,0,0,0,-1,1392,918,0,0
175,106,0,0,0,0,0,0,0,0,0,-1,1399,918,0,0
182,106,0,0,0,0,0,0,0,0,0,-1,1406,918,0,0
189,106,0,0,0,0,0,0,0,0,0,-1,1413,918,0,0
196,106,0,0,0,0,0,0,0,0,0,-1,1420,918,0,0
203,106,0,0,0,0,0,0,0,0,0,-1,1427,918,0,0
210,106,0,0,0,0,0,0,0,0,0,-1,1434,918,0,0
217,106,0,0,0,0,0,0,0,0,0,-1,1441,918,0,0
224,106,0,0,0,0,0,0,0,0,0,-1,1448,918,0,0
231,106,0,0,0,0,0,0,0,0,0,-1,1455,918,0,0
238,106,0,0,0,0,0,0,0,0,0,-1,1462,918,0,0
245,106,0,0,0,0,0,0,0,0,0,-1,1469,918,0,0
252,106,0,0,0,0,0,0,0,0,0,-1,1476,918,0,0
259,106,0,0,0,0,0,0,0,0,0,-1,1483,918,0,0
266,106,0,0,0,0,0,0,0,0,0,-1,1490,918,0,0
273,106,0,0,0,0,0,0,0,0,0,-1,1497,918,0,0
280,106,0,0,0,0,0,0,0,0,0,-1,1504,918,0,0
287,106,0,0,0,0,0,0,0,0,0,-1,1511,918,0,0
294,106,0,0,0,0,0,0,0,0,0,-1,1518,918,0,0
301,106,0,0,0,0,0,0,0,0,0,-1,1525,918,0,0
308,106,0,0,0,0,0,0,0,0,0,-1,1532,918,0,0
315,106,0,0,0,0,0,0,0,0,0,-1,1539,918,0,0
322,106,0,0,0,0,0,0,0,0,0,-1,1546,918,0,0
329,106,0,0,0,0,0,0,0,0,0,-1,1553,918,0,0
336,106,0,0,0,0,0,0,0,0,0,-1,1560,918,0,0
343,106,0,0,0,0,0,0,0,0,0,-1,1567,918,0,0
350,106,0,0,0,0,0,0,0,0,0,-1,1574,918,0,0
357,106,0,0,0,0,0,0,0,0,0,-1,1581,918,0,0
364,106,0,0,0,0,0,0,0,0,0,-1,1588,918,0,0
371,106,0,0,0,0,0,0,0,0,0,-1,1595,918,0,0
378,106,0,0,0,0,0,0,0,0,0,-1,1602,918,0,0
385,106,0,0,0,0,0,0,0,0,0,-1,1609,918,0,0
392,106,0,0,0,0,0,0,0,0,0,-1,1616,918,0,0
399,106,0,0,0,0,0,0,0,0,0,-1,1623,918,0,0
406,106,0,0,0,0,0,0,0,0,0,-1,1630,918,0,0
413,106,0,0,0,0,0,0,0,0,0,-1,1637,918,0,0
420,106,0,0,0,0,0,0,0,0,0,-1,1644,918,0,0
427,106,0,0,0,0,0,0,0,0,0,-1,1651,918,0,0
434,106,0,0,0,0,0,0,0,0,0,-1,1658,918,0,0
441,106,0,0,0,0,0,0,0,0,0,-1,1665,918,0,0
448,106,0,0,0,0,0,0,0,0,0,-1,1672,918,0,0
455,106,0,0,0,0,0,0,0,0,0,-1,1679,918,0,0
462,106,0,0,0,0,0,0,0,0,0,-1,1686,918,0,0
469,106,0,0,0,0,0,0,0,0,0,-1,1693,918,0,0
476,106,0,0,0,0,0,0,0,0,0,-1,1700,918,0,0
483,106,0,0,0,0,0,0,0,0,0,-1,1707,918,0,0
490,106,0,0,0,0,0,0,0,0,0,-1,1714,918,0,0
497,106,0,0,0,0,0,0,0,0,0,-1,1721,918,0,0
504,106,0,0,0,0,0,0,0,0,0,-1,1728,918,0,0
511,106,0,0,0,0,0,0,0,0,0,-1,1735,918,0,0
518,106,0,0,0,0,0,0,0,0,0,-1,1742,918,0,0
525,106,0,0,0,0,0,0,0,0,0,-1,1749,918,0,0
532,106,0,0,0,0,0,0,0,0,0,-1,1756,918,0,0
539,106,0,0,0,0,0,0,0,0,0,-1,1763,918,0,0
546,106,0,0,0,0,0,0,0,0,0,-1,1770,918,0,0
553,106,0,0,0,0,0,0,0,0,0,-1,1777,918,0,0
560,106,0,0,0,0,0,0,0,0,0,-1,1784,918,0,0
567,106,0,0,0,0,0,0,0,0,0,-1,1791,918,0,0
574,106,0,0,0,0,0,0,0,0,0,-1,1798,918,0,0
581,106,0,0,0,0,0,0,0,0,0,-1,1805,918,0,0
588,106,0,0,0,0,0,0,0,0,0,-1,1812,918,0,0
595,106,0,0,0,0,0,0,0,0,0,-1,1819,918,0,0
602,106,0,0,0,0,0,0,0,0,0,-1,1826,918,0,0
609,106,0,0,0,0,0,0,0,0,0,-1,1833,918,0,0
616,106,0,0,0,0,0,0,0,0,0,-1,1840,918,0,0
623,106,0,0,0,0,0,0,0,0,0,-1,1847,918,0,0
630,106,75.9948,2.08563,-0.000980662,0.0146802,-0.00275568,0.0151509,-0.0014514,-1.4016,0.0106176,0.0439851,1854,918,75.9948,-2.08565
637,106,75.8433,2.32635,-0.000626092,0.012084,-0.00219925,0.0124538,-0.000995876,-1.40421,0.00865358,0.0408117,1861,918,75.8433,-2.32633
644,106,75.8497,2.68719,-0.000567073,0.00987928,-0.00157282,0.0101109,-0.000798741,-1.42455,0.00702204,0.0380803,1868,918,75.8498,-2.68717
651,106,75.9895,2.31659,-0.000593136,0.00780065,-0.000880811,0.00789208,-0.000684569,-1.46736,0.00550379,0.0412406,1875,918,75.9896,-2.31657
658,106,76.0552,2.2738,-0.00067305,0.00592613,-0.000171115,0.00593056,-0.000677484,-1.54489,0.0041978,0.0436222,1882,918,76.0552,-2.27382
665,106,76.0814,2.27588,-0.000609204,0.00432111,0.00039822,0.00435307,-0.000641161,1.49072,0.00313768,0.0423265,1889,918,76.0814,-2.27589
672,106,76.0276,2.34912,-0.00075465,0.00302375,0.000645895,0.00313111,-0.000862012,1.40608,0.00242634,0.039484,1896,918,76.0275,-2.34912
679,106,75.9473,2.31152,-0.00100139,0.00202482,0.000612241,0.00214399,-0.00112057,1.37855,0.00191541,0.0352876,1903,918,75.9473,-2.31153
686,106,75.9847,2.33917,-0.00123282,0.00129172,0.000302113,0.00132737,-0.00126847,1.45334,0.00149884,0.0315435,1910,918,75.9848,-2.33918
693,106,75.9598,2.29156,-0.00145848,0.000912049,-9.81767e-05,0.000916108,-0.00146254,-1.52948,0.00138534,0.0388123,1917,918,75.9599,-2.29158
700,106,75.9426,2.23615,0,0,0,0,0,0,0,-1,1924,918,75.9427,-2.23614
707,106,59.4137,3.22595,0,0,0,0,0,0,0,-1,1931,918,59.4136,-3.22598
714,106,69.7472,4.18768,0,0,0,0,0,0,0,-1,1938,918,69.7472,-4.1877
721,106,69.7037,4.93793,-0.00272325,0.0012119,-0.00155734,0.00175364,-0.00326499,-1.23603,0.00294098,0.034709,1945,918,69.7037,-4.93795
728,106,69.7529,5.72736,-0.00276588,0.00159271,-0.00188605,0.00229551,-0.00346869,-1.2141,0.00335086,0.0327442,1952,918,69.753,-5.72733
735,106,69.6129,6.41132,-0.00237495,0.00242801,-0.00241056,0.00342916,-0.00337611,-1.17715,0.00392907,0.028303,1959,918,69.6129,-6.41133
742,106,69.4608,7.03986,-0.00084811,0.0038927,-0.00314778,0.00546277,-0.00241818,-1.10812,0.00466188,0.0142456,1966,918,69.4608,-7.03983
749,106,69.426,7.75024,0.00247171,0.00586085,-0.00362279,0.0081658,0.000166752,-1.00416,0.00538915,0.0116152,1973,918,69.4261,-7.75026
756,106,69.3569,8.46326,0.00832266,0.00755754,-0.00402975,0.011988,0.00389223,-0.738073,0.00706166,0.0154905,1980,918,69.3569,-8.46326
763,106,69.2229,9.36121,0.0162845,0.00848641,-0.00467423,0.0184724,0.0062985,-0.437786,0.0108434,0.0334463,1987,918,69.2229,-9.36118
770,106,69.1399,10.2903,0,0,0,0,0,0,0,-1,1994,918,69.1399,-10.2904
777,106,70.8394,10.3517,0,0,0,0,0,0,0,-1,2001,918,70.8393,-10.3518
784,106,71.0598,10.3541,0,0,0,0,0,0,0,-1,2008,918,71.0597,-10.3541
791,106,70.8381,11.1007,0,0,0,0,0,0,0,-1,2015,918,70.8382,-11.1007
798,106,71.9023,11.7274,0,0,0,0,0,0,0,-1,2022,918,71.9024,-11.7274
805,106,0,0,0,0,0,0,0,0,0,-1,2029,918,0,0
812,106,0,0,0,0,0,0,0,0,0,-1,2036,918,0,0
-700,99,0,0,0,0,0,0,0,0,0,-1,524,925,0,0
-693,99,0,0,0,0,0,0,0,0,0,-1,531,925,0,0
-686,99,0,0,0,0,0,0,0,0,0,-1,538,925,0,0
-679,99,-52.9857,10.6029,0,0,0,0,0,0,0,-1,545,925,-52.9857,-10.6029
-672,99,-52.4904,10.1713,0,0,0,0,0,0,0,-1,552,925,-52.4904,-10.1713
-665,99,-53.4944,9.35168,0,0,0,0,0,0,0,-1,559,925,-53.4944,-9.35171
-658,99,-53.8534,9.78381,0,0,0,0,0,0,0,-1,566,925,-53.8534,-9.78379
-651,99,-53.5699,9.45013,0,0,0,0,0,0,0,-1,573,925,-53.5699,-9.45014
-644,99,-54.071,8.63586,0,0,0,0,0,0,0,-1,580,925,-54.071,-8.63589
-637,99,-54.3365,8.32281,-0.0270862,0.00464257,0.00588647,0.00569945,-0.0281431,1.39314,0.0209222,0.0356288,587,925,-54.3365,-8.32284
-630,99,-54.6242,7.8985,-0.0218189,0.00728245,0.00650804,0.00867157,-0.023208,1.36051,0.0190328,0.0197542,594,925,-54.6242,-7.89849
-623,99,-54.8943,7.14514,-0.0165146,0.00746474,0.00636539,0.00904969,-0.0180995,1.32676,0.0159622,0.014396,601,925,-54.8943,-7.14517
-616,99,-54.9232,6.43811,-0.0114312,0.0054135,0.00560615,0.0071087,-0.0131264,1.27716,0.0118537,0.0167838,608,925,-54.9232,-6.43813
-609,99,-54.92,5.80847,-0.00703049,0.00201009,0.00481621,0.00409501,-0.00911541,1.16226,0.00780847,0.0130946,615,925,-54.92,-5.80848
-602,99,-54.9123,5.14563,-0.00415824,-0.00190901,0.0041743,0.00128951,-0.00735676,0.916981,0.00538605,0.0188348,622,925,-54.9123,-5.14565
-595,99,-55.032,4.46082,-0.00370007,-0.00672428,0.00367626,-0.00123708,-0.00918727,0.590286,0.00575696,0.0258227,629,925,-55.032,-4.46082
-588,99,-55.066,3.73608,-0.00588751,-0.0115717,0.00283105,-0.00471808,-0.0127412,0.391723,0.00743815,0.0294405,636,925,-55.066,-3.73611
-581,99,-55.2495,2.81702,-0.0104505,-0.0160789,0.00292925,-0.00920268,-0.0173267,0.402717,0.0100101,0.0295799,643,925,-55.2495,-2.81704
-574,99,-55.781,1.91925,0,0,0,0,0,0,0,-1,650,925,-55.781,-1.91925
-567,99,-50.5977,0.659485,0,0,0,0,0,0,0,-1,657,925,-50.5977,-0.659461
-560,99,-59.2361,0.200562,0,0,0,0,0,0,0,-1,664,925,-59.2361,-0.200539
-553,99,-59.3926,0.273193,0,0,0,0,0,0,0,-1,671,925,-59.3926,-0.273192
-546,99,-59.3121,0.157959,0,0,0,0,0,0,0,-1,678,925,-59.3121,-0.157931
-539,99,-59.3013,0.0560913,0,0,0,0,0,0,0,-1,685,925,-59.3013,-0.056076
-532,99,-59.3549,0.155884,0,0,0,0,0,0,0,-1,692,925,-59.3549,-0.155883
-525,99,-59.4698,0.219299,0,0,0,0,0,0,0,-1,699,925,-59.4698,-0.219293
-518,99,-59.5801,0.110168,0,0,0,0,0,0,0,-1,706,925,-59.5801,-0.110181
-511,99,0,0,0,0,0,0,0,0,0,-1,713,925,0,0
-504,99,0,0,0,0,0,0,0,0,0,-1,720,925,0,0
-497,99,0,0,0,0,0,0,0,0,0,-1,727,925,0,0
-490,99,0,0,0,0,0,0,0,0,0,-1,734,925,0,0
-483,99,0,0,0,0,0,0,0,0,0,-1,741,925,0,0
-476,99,0,0,0,0,0,0,0,0,0,-1,748,925,0,0
-469,99,0,0,0,0,0,0,0,0,0,-1,755,925,0,0
-462,99,0,0,0,0,0,0,0,0,0,-1,762,925,0,0
-455,99,0,0,0,0,0,0,0,0,0,-1,769,925,0,0
-448,99,0,0,0,0,0,0,0,0,0,-1,776,925,0,0
-441,99,0,0,0,0,0,0,0,0,0,-1,783,925,0,0
-434,99,0,0,0,0,0,0,0,0,0,-1,790,925,0,0
-427,99,0,0,0,0,0,0,0,0,0,-1,797,925,0,0
-420,99,0,0,0,0,0,0,0,0,0,-1,804,925,0,0
-413,99,0,0,0,0,0,0,0,0,0,-1,811,925,0,0
-406,99,0,0,0,0,0,0,0,0,0,-1,818,925,0,0
-399,99,0,0,0,0,0,0,0,0,0,-1,825,925,0,0
-392,99,0,0,0,0,0,0,0,0,0,-1,832,925,0,0
-385,99,0,0,0,0,0,0,0,0,0,-1,839,925,0,0
-378,99,0,0,0,0,0,0,0,0,0,-1,846,925,0,0
-371,99,0,0,0,0,0,0,0,0,0,-1,853,925,0,0
-364,99,0,0,0,0,0,0,0,0,0,-1,860,925,0,0
-357,99,0,0,0,0,0,0,0,0,0,-1,867,925,0,0
-350,99,0,0,0,0,0,0,0,0,0,-1,874,925,0,0
-343,99,0,0,0,0,0,0,0,0,0,-1,881,925,0,0
-336,99,0,0,0,0,0,0,0,0,0,-1,888,925,0,0
-329,99,0,0,0,0,0,0,0,0,0,-1,895,925,0,0
-322,99,0,0,0,0,0,0,0,0,0,-1,902,925,0,0
-315,99,0,0,0,0,0,0,0,0,0,-1,909,925,0,0
-308,99,0,0,0,0,0,0,0,0,0,-1,916,925,0,0
-301,99,0,0,0,0,0,0,0,0,0,-1,923,925,0,0
-294,99,0,0,0,0,0,0,0,0,0,-1,930,925,0,0
-287,99,0,0,0,0,0,0,0,0,0,-1,937,925,0,0
-280,99,0,0,0,0,0,0,0,0,0,-1,944,925,0,0
-273,99,0,0,0,0,0,0,0,0,0,-1,951,925,0,0
-266,99,0,0,0,0,0,0,0,0,0,-1,958,925,0,0
-259,99,0,0,0,0,0,0,0,0,0,-1,965,925,0,0
-252,99,0,0,0,0,0,0,0,0,0,-1,972,925,0,0
-245,99,0,0,0,0,0,0,0,0,0,-1,979,925,0,0
-238,99,0,0,0,0,0,0,0,0,0,-1,986,925,0,0
-231,99,0,0,0,0,0,0,0,0,0,-1,993,925,0,0
-224,99,0,0,0,0,0,0,0,0,0,-1,1000,925,0,0
-217,99,0,0,0,0,0,0,0,0,0,-1,1007,925,0,0
-210,99,0,0,0,0,0,0,0,0,0,-1,1014,925,0,0
-203,99,0,0,0,0,0,0,0,0,0,-1,1021,925,0,0
-196,99,0,0,0,0,0,0,0,0,0,-1,1028,925,0,0
-189,99,0,0,0,0,0,0,0,0,0,-1,1035,925,0,0
-182,99,0,0,0,0,0,0,0,0,0,-1,1042,925,0,0
-175,99,0,0,0,0,0,0,0,0,0,-1,1049,925,0,0
-168,99,0,0,0,0,0,0,0,0,0,-1,1056,925,0,0
-161,99,0,0,0,0,0,0,0,0,0,-1,1063,925,0,0
-154,99,0,0,0,0,0,0,0,0,0,-1,1070,925,0,0
-147,99,0,0,0,0,0,0,0,0,0,-1,1077,925,0,0
-140,99,0,0,0,0,0,0,0,0,0,-1,1084,925,0,0
-133,99,0,0,0,0,0,0,0,0,0,-1,1091,925,0,0
-126,99,0,0,0,0,0,0,0,0,0,-1,1098,925,0,0
-119,99,0,0,0,0,0,0,0,0,0,-1,1105,925,0,0
-112,99,0,0,0,0,0,0,0,0,0,-1,1112,925,0,0
-105,99,0,0,0,0,0,0,0,0,0,-1,1119,925,0,0
-98,99,0,0,0,0,0,0,0,0,0,-1,1126,925,0,0
-91,99,0,0,0,0,0,0,0,0,0,-1,1133,925,0,0
-84,99,0,0,0,0,0,0,0,0,0,-1,1140,925,0,0
-77,99,0,0,0,0,0,0,0,0,0,-1,1147,925,0,0
-70,99,0,0,0,0,0,0,0,0,0,-1,1154,925,0,0
-63,99,0,0,0,0,0,0,0,0,0,-1,1161,925,0,0
-56,99,0,0,0,0,0,0,0,0,0,-1,1168,925,0,0
-49,99,0,0,0,0,0,0,0,0,0,-1,1175,925,0,0
-42,99,0,0,0,0,0,0,0,0,0,-1,1182,925,0,0
-35,99,0,0,0,0,0,0,0,0,0,-1,1189,925,0,0
-28,99,0,0,0,0,0,0,0,0,0,-1,1196,925,0,0
-21,99,0,0,0,0,0,0,0,0,0,-1,1203,925,0,0
-14,99,0,0,0,0,0,0,0,0,0,-1,1210,925,0,0
-7,99,0,0,0,0,0,0,0,0,0,-1,1217,925,0,0
0,99,0,0,0,0,0,0,0,0,0,-1,1224,925,0,0
7,99,0,0,0,0,0,0,0,0,0,-1,1231,925,0,0
14,99,0,0,0,0,0,0,0,0,0,-1,1238,925,0,0
21,99,0,0,0,0,0,0,0,0,0,-1,1245,925,0,0
28,99,0,0,0,0,0,0,0,0,0,-1,1252,925,0,0
35,99,0,0,0,0,0,0,0,0,0,-1,1259,925,0,0
42,99,0,0,0,0,0,0,0,0,0,-1,1266,925,0,0
49,99,0,0,0,0,0,0,0,0,0,-1,1273,925,0,0
56,99,0,0,0,0,0,0,0,0,0,-1,1280,925,0,0
63,99,0,0,0,0,0,0,0,0,0,-1,1287,925,0,0
70,99,0,0,0,0,0,0,0,0,0,-1,1294,925,0,0
77,99,0,0,0,0,0,0,0,0,0,-1,1301,925,0,0
84,99,0,0,0,0,0,0,0,0,0,-1,1308,925,0,0
91,99,0,0,0,0,0,0,0,0,0,-1,1315,925,0,0
98,99,0,0,0,0,0,0,0,0,0,-1,1322,925,0,0
105,99,0,0,0,0,0,0,0,0,0,-1,1329,925,0,0
112,99,0,0,0,0,0,0,0,0,0,-1,1336,925,0,0
119,99,0,0,0,0,0,0,0,0,0,-1,1343,925,0,0
126,99,0,0,0,0,0,0,0,0,0,-1,1350,925,0,0
133,99,0,0,0,0,0,0,0,0,0,-1,1357,925,0,0
140,99,0,0,0,0,0,0,0,0,0,-1,1364,925,0,0
147,99,0,0,0,0,0,0,0,0,0,-1,1371,925,0,0
154,99,0,0,0,0,0,0,0,0,0,-1,1378,925,0,0
161,99,0,0,0,0,0,0,0,0,0,-1,1385,925,0,0
168,99,0,0,0,0,0,0,0,0,0,-1,1392,925,0,0
175,99,0,0,0,0,0,0,0,0,0,-1,1399,925,0,0
182,99,0,0,0,0,0,0,0,0,0,-1,1406,925,0,0
189,99,0,0,0,0,0,0,0,0,0,-1,1413,925,0,0
196,99,0,0,0,0,0,0,0,0,0,-1,1420,925,0,0
203,99,0,0,0,0,0,0,0,0,0,-1,1427,925,0,0
210,99,0,0,0,0,0,0,0,0,0,-1,1434,925,0,0
217,99,0,0,0,0,0,0,0,0,0,-1,1441,925,0,0
224,99,0,0,0,0,0,0,0,0,0,-1,1448,925,0,0
231,99,0,0,0,0,0,0,0,0,0,-1,1455,925,0,0
238,99,0,0,0,0,0,0,0,0,0,-1,1462,925,0,0
245,99,0,0,0,0,0,0,0,0,0,-1,1469,925,0,0
252,99,0,0,0,0,0,0,0,0,0,-1,1476,925,0,0
259,99,0,0,0,0,0,0,0,0,0,-1,1483,925,0,0
266,99,0,0,0,0,0,0,0,0,0,-1,1490,925,0,0
273,99,0,0,0,0,0,0,0,0,0,-1,1497,925,0,0
280,99,0,0,0,0,0,0,0,0,0,-1,1504,925,0,0
287,99,0,0,0,0,0,0,0,0,0,-1,1511,925,0,0
294,99,0,0,0,0,0,0,0,0,0,-1,1518,925,0,0
301,99,0,0,0,0,0,0,0,0,0,-1,1525,925,0,0
308,99,0,0,0,0,0,0,0,0,0,-1,1532,925,0,0
315,99,0,0,0,0,0,0,0,0,0,-1,1539,925,0,0
322,99,0,0,0,0,0,0,0,0,0,-1,1546,925,0,0
329,99,0,0,0,0,0,0,0,0,0,-1,1553,925,0,0
336,99,0,0,0,0,0,0,0,0,0,-1,1560,925,0,0
343,99,0,0,0,0,0,0,0,0,0,-1,1567,925,0,0
350,99,0,0,0,0,0,0,0,0,0,-1,1574,925,0,0
357,99,0,0,0,0,0,0,0,0,0,-1,1581,925,0,0
364,99,0,0,0,0,0,0,0,0,0,-1,1588,925,0,0
371,99,0,0,0,0,0,0,0,0,0,-1,1595,925,0,0
378,99,0,0,0,0,0,0,0,0,0,-1,1602,925,0,0
385,99,0,0,0,0,0,0,0,0,0,-1,1609,925,0,0
392,99,0,0,0,0,0,0,0,0,0,-1,1616,925,0,0
399,99,0,0,0,0,0,0,0,0,0,-1,1623,925,0,0
406,99,0,0,0,0,0,0,0,0,0,-1,1630,925,0,0
413,99,0,0,0,0,0,0,0,0,0,-1,1637,925,0,0
420,99,0,0,0,0,0,0,0,0,0,-1,1644,925,0,0
427,99,0,0,0,0,0,0,0,0,0,-1,1651,925,0,0
434,99,0,0,0,0,0,0,0,0,0,-1,1658,925,0,0
441,99,0,0,0,0,0,0,0,0,0,-1,1665,925,0,0
448,99,0,0,0,0,0,0,0,0,0,-1,1672,925,0,0
455,99,0,0,0,0,0,0,0,0,0,-1,1679,925,0,0
462,99,0,0,0,0,0,0,0,0,0,-1,1686,925,0,0
469,99,0,0,0,0,0,0,0,0,0,-1,1693,925,0,0
476,99,0,0,0,0,0,0,0,0,0,-1,1700,925,0,0
483,99,0,0,0,0,0,0,0,0,0,-1,1707,925,0,0
490,99,0,0,0,0,0,0,0,0,0,-1,1714,925,0,0
497,99,0,0,0,0,0,0,0,0,0,-1,1721,925,0,0
504,99,0,0,0,0,0,0,0,0,0,-1,1728,925,0,0
511,99,0,0,0,0,0,0,0,0,0,-1,1735,925,0,0
518,99,0,0,0,0,0,0,0,0,0,-1,1742,925,0,0
525,99,0,0,0,0,0,0,0,0,0,-1,1749,925,0,0
532,99,0,0,0,0,0,0,0,0,0,-1,1756,925,0,0
539,99,0,0,0,0,0,0,0,0,0,-1,1763,925,0,0
546,99,0,0,0,0,0,0,0,0,0,-1,1770,925,0,0
553,99,0,0,0,0,0,0,0,0,0,-1,1777,925,0,0
560,99,0,0,0,0,0,0,0,0,0,-1,1784,925,0,0
567,99,0,0,0,0,0,0,0,0,0,-1,1791,925,0,0
574,99,0,0,0,0,0,0,0,0,0,-1,1798,925,0,0
581,99,0,0,0,0,0,0,0,0,0,-1,1805,925,0,0
588,99,0,0,0,0,0,0,0,0,0,-1,1812,925,0,0
595,99,0,0,0,0,0,0,0,0,0,-1,1819,925,0,0
602,99,0,0,0,0,0,0,0,0,0,-1,1826,925,0,0
609,99,0,0,0,0,0,0,0,0,0,-1,1833,925,0,0
616,99,0,0,0,0,0,0,0,0,0,-1,1840,925,0,0
623,99,0,0,0,0,0,0,0,0,0,-1,1847,925,0,0
630,99,0,0,0,0,0,0,0,0,0,-1,1854,925,0,0
637,99,75.9044,2.3764,-0.00113323,0.0128013,-0.00231343,0.0131753,-0.00150727,-1.4105,0.00932665,0.0438528,1861,925,75.9044,-2.37641
644,99,76.0239,2.38757,-0.000914891,0.0104296,-0.00159584,0.0106499,-0.0011351,-1.43367,0.00750693,0.0368192,1868,925,76.0239,-2.38757
651,99,76.0549,2.2876,-0.000795234,0.00823185,-0.000824475,0.00830653,-0.000869918,-1.48046,0.00584926,0.0373723,1875,925,76.0549,-2.2876
658,99,75.9852,2.36292,-0.000723999,0.00629596,-5.30813e-05,0.00629636,-0.0007244,-1.56324,0.0044587,0.0407729,1882,925,75.9853,-2.36292
665,99,76.0459,2.3208,-0.000598069,0.00461369,0.000621902,0.00468687,-0.000671251,1.45366,0.00337069,0.0415766,1889,925,76.0459,-2.32078
672,99,76.0387,2.32202,-0.000834817,0.00320031,0.00102095,0.00344392,-0.00107843,1.33657,0.00272744,0.039226,1896,925,76.0387,-2.322
679,99,75.962,2.25287,-0.00118448,0.00204985,0.00112495,0.00240264,-0.00153727,1.2669,0.00229293,0.0367536,1903,925,75.9621,-2.25288
686,99,75.9246,2.28601,-0.00145643,0.00116326,0.000858884,0.00141974,-0.00171291,1.28061,0.00181128,0.0305637,1910,925,75.9246,-2.28603
693,99,75.9661,2.3833,-0.00172359,0.000632203,0.000460934,0.000719178,-0.00181057,1.3843,0.00150517,0.0355863,1917,925,75.9661,-2.38328
700,99,75.8962,2.35645,0,0,0,0,0,0,0,-1,1924,925,75.8963,-2.35645
707,99,47.9915,3.27429,0,0,0,0,0,0,0,-1,1931,925,47.9914,-3.27427
714,99,70.2,4.04834,0,0,0,0,0,0,0,-1,1938,925,70.1999,-4.04833
721,99,70.4558,4.91949,-0.00341608,0.00107123,-0.0011791,0.00136219,-0.00370704,-1.32887,0.0030293,0.0380772,1945,925,70.4558,-4.91951
728,99,70.4641,5.65466,-0.00332437,0.00159474,-0.00157268,0.00205455,-0.00378419,-1.28635,0.00341995,0.0310787,1952,925,70.4641,-5.65467
735,99,70.3779,6.39502,-0.00273405,0.00250025,-0.00222089,0.00331557,-0.00354937,-1.21896,0.00396424,0.024172,1959,925,70.378,-6.395
742,99,70.2632,7.0802,-0.00121244,0.00400545,-0.00311257,0.00545787,-0.00266486,-1.1342,0.00478118,0.016194,1966,925,70.2632,-7.0802
749,99,70.1731,7.74957,0.00190041,0.00609392,-0.00375319,0.00829633,-0.000301997,-1.04013,0.00563425,0.0141104,1973,925,70.1731,-7.74958
756,99,70.0977,8.39581,0.00759721,0.00802697,-0.00431573,0.0121332,0.00349101,-0.810272,0.00721246,0.01448,1980,925,70.0976,-8.39584
763,99,70.0762,9.08551,0.0155432,0.009276,-0.00506156,0.0183627,0.00645654,-0.508226,0.0107562,0.0186207,1987,925,70.0761,-9.08548
770,99,70.4199,9.68445,0.0257423,0.00950694,-0.00623699,0.0278616,0.00738759,-0.327562,0.0166669,0.0314541,1994,925,70.4199,-9.68447
777,99,71.1587,10.0654,0.0398726,0.00776285,-0.0079607,0.0417379,0.00589757,-0.230158,0.0260826,0.0425871,2001,925,71.1587,-10.0653
784,99,71.8286,10.6916,0.059607,0.00300957,-0.0109441,0.0616495,0.00096705,-0.184509,0.0407812,0.0429743,2008,925,71.8286,-10.6916
791,99,72.1985,11.043,0.0868893,-0.00563882,-0.0168548,0.0898639,-0.00861344,-0.174686,0.0629771,0.0462403,2015,925,72.1985,-11.043
798,99,72.4973,11.3943,0,0,0,0,0,0,0,-1,2022,925,72.4973,-11.3943
805,99,0,0,0,0,0,0,0,0,0,-1,2029,925,0,0
812,99,0,0,0,0,0,0,0,0,0,-1,2036,925,0,0
-700,92,0,0,0,0,0,0,0,0,0,-1,524,932,0,0
-693,92,0,0,0,0,0,0,0,0,0,-1,531,932,0,0
-686,92,-52.9706,11.9905,-0.0277148,-0.0553924,-0.0178067,-0.0190017,-0.0641056,-0.455066,0.0380203,0.0462916,538,932,-52.9706,-11.9905
-679,92,-53.2947,11.1642,-0.0345782,-0.0431912,-0.0105556,-0.0274844,-0.050285,-0.591714,0.029074,0.0487104,545,932,-53.2947,-11.1642
-672,92,-53.275,10.4072,-0.0378279,-0.0320084,-0.00545509,-0.0287356,-0.0411008,-1.0304,0.0243489,0.0494146,552,932,-53.275,-10.4072
-665,92,-53.3901,10.1399,0,0,0,0,0,0,0,-1,559,932,-53.3901,-10.1399
-658,92,-53.8627,9.62677,-0.0383194,-0.0123692,0.00162642,-0.0122677,-0.038421,1.50845,0.0226601,0.0441373,566,932,-53.8627,-9.62674
-651,92,-54.2542,9.34149,-0.0357832,-0.00451368,0.0038921,-0.00403651,-0.0362604,1.44881,0.0229467,0.048144,573,932,-54.2542,-9.34148
-644,92,-55.4734,8.86328,-0.031666,0.00143262,0.00530588,0.00226238,-0.0324957,1.41567,0.022456,0.0468194,580,932,-55.4734,-8.86328
-637,92,-55.4001,8.32593,-0.0264723,0.00506545,0.00602578,0.00617755,-0.0275844,1.38829,0.0207575,0.029875,587,932,-55.4001,-8.32596
-630,92,-55.4391,7.7619,-0.0211922,0.00733407,0.00661206,0.00879215,-0.0226503,1.35375,0.0187318,0.0155678,594,932,-55.4392,-7.7619
-623,92,-55.6048,7.1452,-0.0157808,0.00724783,0.00645103,0.00893182,-0.0174648,1.31545,0.0155032,0.0106992,601,932,-55.6048,-7.14523
-616,92,-55.6362,6.50476,-0.0105772,0.00496997,0.00570442,0.00683843,-0.0124457,1.25426,0.0112895,0.0100427,608,932,-55.6362,-6.50476
-609,92,-55.6825,5.85547,-0.00601882,0.00132735,0.0049168,0.00379157,-0.00848304,1.1062,0.00725724,0.00969853,615,932,-55.6825,-5.85546
-602,92,-55.6689,5.17584,-0.00290305,-0.00291098,0.0042614,0.00135439,-0.00716842,0.784933,0.00528854,0.0122942,622,932,-55.6689,-5.17587
-595,92,-55.5602,4.39532,-0.00216518,-0.0082728,0.00371038,-0.000413503,-0.0100245,0.441081,0.0065495,0.0256641,629,932,-55.5603,-4.3953
-588,92,-55.5526,3.73792,-0.00409426,-0.0137268,0.00278661,-0.00334621,-0.0144748,0.262262,0.00875041,0.0351405,636,932,-55.5526,-3.73791
-581,92,-56.3421,3.04016,-0.00844978,-0.0188579,0.00273444,-0.00777511,-0.0195325,0.241898,0.011355,0.0467009,643,932,-56.3421,-3.04019
-574,92,-57.243,2.17462,0,0,0,0,0,0,0,-1,650,932,-57.243,-2.17465
-567,92,-59.2786,0.11322,0,0,0,0,0,0,0,-1,657,932,-59.2785,-0.113225
-560,92,-59.2092,0.131226,0,0,0,0,0,0,0,-1,664,932,-59.2092,-0.131212
-553,92,-59.3226,0.280457,0,0,0,0,0,0,0,-1,671,932,-59.3226,-0.280468
-546,92,-59.2946,0.204468,0,0,0,0,0,0,0,-1,678,932,-59.2945,-0.204484
-539,92,-59.2684,0.0769043,0,0,0,0,0,0,0,-1,685,932,-59.2684,-0.0768761
-532,92,-59.3472,0.114441,0,0,0,0,0,0,0,-1,692,932,-59.3471,-0.114415
-525,92,-59.4371,0.23407,0,0,0,0,0,0,0,-1,699,932,-59.4371,-0.234058
-518,92,-59.6153,0.283691,0,0,0,0,0,0,0,-1,706,932,-59.6153,-0.283667
-511,92,0,0,0,0,0,0,0,0,0,-1,713,932,0,0
-504,92,0,0,0,0,0,0,0,0,0,-1,720,932,0,0
-497,92,0,0,0,0,0,0,0,0,0,-1,727,932,0,0
-490,92,0,0,0,0,0,0,0,0,0,-1,734,932,0,0
-483,92,0,0,0,0,0,0,0,0,0,-1,741,932,0,0
-476,92,0,0,0,0,0,0,0,0,0,-1,748,932,0,0
-469,92,0,0,0,0,0,0,0,0,0,-1,755,932,0,0
-462,92,0,0,0,0,0,0,0,0,0,-1,762,932,0,0
-455,92,0,0,0,0,0,0,0,0,0,-1,769,932,0,0
-448,92,0,0,0,0,0,0,0,0,0,-1,776,932,0,0
-441,92,0,0,0,0,0,0,0,0,0,-1,783,932,0,0
-434,92,0,0,0,0,0,0,0,0,0,-1,790,932,0,0
-427,92,0,0,0,0,0,0,0,0,0,-1,797,932,0,0
-420,92,0,0,0,0,0,0,0,0,0,-1,804,932,0,0
-413,92,0,0,0,0,0,0,0,0,0,-1,811,932,0,0
-406,92,0,0,0,0,0,0,0,0,0,-1,818,932,0,0
-399,92,0,0,0,0,0,0,0,0,0,-1,825,932,0,0
-392,92,0,0,0,0,0,0,0,0,0,-1,832,932,0,0
-385,92,0,0,0,0,0,0,0,0,0,-1,839,932,0,0
-378,92,0,0,0,0,0,0,0,0,0,-1,846,932,0,0
-371,92,0,0,0,0,0,0,0,0,0,-1,853,932,0,0
-364,92,0,0,0,0,0,0,0,0,0,-1,860,932,0,0
-357,92,0,0,0,0,0,0,0,0,0,-1,867,932,0,0
-350,92,0,0,0,0,0,0,0,0,0,-1,874,932,0,0
-343,92,0,0,0,0,0,0,0,0,0,-1,881,932,0,0
-336,92,0,0,0,0,0,0,0,0,0,-1,888,932,0,0
-329,92,0,0,0,0,0,0,0,0,0,-1,895,932,0,0
-322,92,0,0,0,0,0,0,0,0,0,-1,902,932,0,0
-315,92,0,0,0,0,0,0,0,0,0,-1,909,932,0,0
-308,92,0,0,0,0,0,0,0,0,0,-1,916,932,0,0
-301,92,0,0,0,0,0,0,0,0,0,-1,923,932,0,0
-294,92,0,0,0,0,0,0,0,0,0,-1,930,932,0,0
-287,92,0,0,0,0,0,0,0,0,0,-1,937,932,0,0
-280,92,0,0,0,0,0,0,0,0,0,-1,944,932,0,0
-273,92,0,0,0,0,0,0,0,0,0,-1,951,932,0,0
-266,92,0,0,0,0,0,0,0,0,0,-1,958,932,0,0
-259,92,0,0,0,0,0,0,0,0,0,-1,965,932,0,0
-252,92,0,0,0,0,0,0,0,0,0,-1,972,932,0,0
-245,92,0,0,0,0,0,0,0,0,0,-1,979,932,0,0
-238,92,0,0,0,0,0,0,0,0,0,-1,986,932,0,0
-231,92,0,0,0,0,0,0,0,0,0,-1,993,932,0,0
-224,92,0,0,0,0,0,0,0,0,0,-1,1000,932,0,0
-217,92,0,0,0,0,0,0,0,0,0,-1,1007,932,0,0
-210,92,0,0,0,0,0,0,0,0,0,-1,1014,932,0,0
-203,92,0,0,0,0,0,0,0,0,0,-1,1021,932,0,0
-196,92,0,0,0,0,0,0,0,0,0,-1,1028,932,0,0
-189,92,0,0,0,0,0,0,0,0,0,-1,1035,932,0,0
-182,92,0,0,0,0,0,0,0,0,0,-1,1042,932,0,0
-175,92,0,0,0,0,0,0,0,0,0,-1,1049,932,0,0
-168,92,0,0,0,0,0,0,0,0,0,-1,1056,932,0,0
-161,92,0,0,0,0,0,0,0,0,0,-1,1063,932,0,0
-154,92,0,0,0,0,0,0,0,0,0,-1,1070,932,0,0
-147,92,0,0,0,0,0,0,0,0,0,-1,1077,932,0,0
-140,92,0,0,0,0,0,0,0,0,0,-1,1084,932,0,0
-133,92,0,0,0,0,0,0,0,0,0,-1,1091,932,0,0
-126,92,0,0,0,0,0,0,0,0,0,-1,1098,932,0,0
-119,92,0,0,0,0,0,0,0,0,0,-1,1105,932,0,0
-112,92,0,0,0,0,0,0,0,0,0,-1,1112,932,0,0
-105,92,0,0,0,0,0,0,0,0,0,-1,1119,932,0,0
-98,92,0,0,0,0,0,0,0,0,0,-1,1126,932,0,0
-91,92,0,0,0,0,0,0,0,0,0,-1,1133,932,0,0
-84,92,0,0,0,0,0,0,0,0,0,-1,1140,932,0,0
-77,92,0,0,0,0,0,0,0,0,0,-1,1147,932,0,0
-70,92,0,0,0,0,0,0,0,0,0,-1,1154,932,0,0
-63,92,0,0,0,0,0,0,0,0,0,-1,1161,932,0,0
-56,92,0,0,0,0,0,0,0,0,0,-1,1168,932,0,0
-49,92,0,0,0,0,0,0,0,0,0,-1,1175,932,0,0
-42,92,0,0,0,0,0,0,0,0,0,-1,1182,932,0,0
-35,92,0,0,0,0,0,0,0,0,0,-1,1189,932,0,0
-28,92,0,0,0,0,0,0,0,0,0,-1,1196,932,0,0
-21,92,0,0,0,0,0,0,0,0,0,-1,1203,932,0,0
-14,92,0,0,0,0,0,0,0,0,0,-1,1210,932,0,0
-7,92,0,0,0,0,0,0,0,0,0,-1,1217,932,0,0
0,92,0,0,0,0,0,0,0,0,0,-1,1224,932,0,0
7,92,0,0,0,0,0,0,0,0,0,-1,1231,932,0,0
14,92,0,0,0,0,0,0,0,0,0,-1,1238,932,0,0
21,92,0,0,0,0,0,0,0,0,0,-1,1245,932,0,0
28,92,0,0,0,0,0,0,0,0,0,-1,1252,932,0,0
35,92,0,0,0,0,0,0,0,0,0,-1,1259,932,0,0
42,92,0,0,0,0,0,0,0,0,0,-1,1266,932,0,0
49,92,0,0,0,0,0,0,0,0,0,-1,1273,932,0,0
56,92,0,0,0,0,0,0,0,0,0,-1,1280,932,0,0
63,92,0,0,0,0,0,0,0,0,0,-1,1287,932,0,0
70,92,0,0,0,0,0,0,0,0,0,-1,1294,932,0,0
77,92,0,0,0,0,0,0,0,0,0,-1,1301,932,0,0
84,92,0,0,0,0,0,0,0,0,0,-1,1308,932,0,0
91,92,0,0,0,0,0,0,0,0,0,-1,1315,932,0,0
98,92,0,0,0,0,0,0,0,0,0,-1,1322,932,0,0
105,92,0,0,0,0,0,0,0,0,0,-1,1329,932,0,0
112,92,0,0,0,0,0,0,0,0,0,-1,1336,932,0,0
119,92,0,0,0,0,0,0,0,0,0,-1,1343,932,0,0
126,92,0,0,0,0,0,0,0,0,0,-1,1350,932,0,0
133,92,0,0,0,0,0,0,0,0,0,-1,1357,932,0,0
140,92,0,0,0,0,0,0,0,0,0,-1,1364,932,0,0
147,92,0,0,0,0,0,0,0,0,0,-1,1371,932,0,0
154,92,0,0,0,0,0,0,0,0,0,-1,1378,932,0,0
161,92,0,0,0,0,0,0,0,0,0,-1,1385,932,0,0
168,92,0,0,0,0,0,0,0,0,0,-1,1392,932,0,0
175,92,0,0,0,0,0,0,0,0,0,-1,1399,932,0,0
182,92,0,0,0,0,0,0,0,0,0,-1,1406,932,0,0
189,92,0,0,0,0,0,0,0,0,0,-1,1413,932,0,0
196,92,0,0,0,0,0,0,0,0,0,-1,1420,932,0,0
203,92,0,0,0,0,0,0,0,0,0,-1,1427,932,0,0
210,92,0,0,0,0,0,0,0,0,0,-1,1434,932,0,0
217,92,0,0,0,0,0,0,0,0,0,-1,1441,932,0,0
224,92,0,0,0,0,0,0,0,0,0,-1,1448,932,0,0
231,92,0,0,0,0,0,0,0,0,0,-1,1455,932,0,0
238,92,0,0,0,0,0,0,0,0,0,-1,1462,932,0,0
245,92,0,0,0,0,0,0,0,0,0,-1,1469,932,0,0
252,92,0,0,0,0,0,0,0,0,0,-1,1476,932,0,0
259,92,0,0,0,0,0,0,0,0,0,-1,1483,932,0,0
266,92,0,0,0,0,0,0,0,0,0,-1,1490,932,0,0
273,92,0,0,0,0,0,0,0,0,0,-1,1497,932,0,0
280,92,0,0,0,0,0,0,0,0,0,-1,1504,932,0,0
287,92,0,0,0,0,0,0,0,0,0,-1,1511,932,0,0
294,92,0,0,0,0,0,0,0,0,0,-1,1518,932,0,0
301,92,0,0,0,0,0,0,0,0,0,-1,1525,932,0,0
308,92,0,0,0,0,0,0,0,0,0,-1,1532,932,0,0
315,92,0,0,0,0,0,0,0,0,0,-1,1539,932,0,0
322,92,0,0,0,0,0,0,0,0,0,-1,1546,932,0,0
329,92,0,0,0,0,0,0,0,0,0,-1,1553,932,0,0
336,92,0,0,0,0,0,0,0,0,0,-1,1560,932,0,0
343,92,0,0,0,0,0,0,0,0,0,-1,1567,932,0,0
350,92,0,0,0,0,0,0,0,0,0,-1,1574,932,0,0
357,92,0,0,0,0,0,0,0,0,0,-1,1581,932,0,0
364,92,0,0,0,0,0,0,0,0,0,-1,1588,932,0,0
371,92,0,0,0,0,0,0,0,0,0,-1,1595,932,0,0
378,92,0,0,0,0,0,0,0,0,0,-1,1602,932,0,0
385,92,0,0,0,0,0,0,0,0,0,-1,1609,932,0,0
392,92,0,0,0,0,0,0,0,0,0,-1,1616,932,0,0
399,92,0,0,0,0,0,0,0,0,0,-1,1623,932,0,0
406,92,0,0,0,0,0,0,0,0,0,-1,1630,932,0,0
413,92,0,0,0,0,0,0,0,0,0,-1,1637,932,0,0
420,92,0,0,0,0,0,0,0,0,0,-1,1644,932,0,0
427,92,0,0,0,0,0,0,0,0,0,-1,1651,932,0,0
434,92,0,0,0,0,0,0,0,0,0,-1,1658,932,0,0
441,92,0,0,0,0,0,0,0,0,0,-1,1665,932,0,0
448,92,0,0,0,0,0,0,0,0,0,-1,1672,932,0,0
455,92,0,0,0,0,0,0,0,0,0,-1,1679,932,0,0
462,92,0,0,0,0,0,0,0,0,0,-1,1686,932,0,0
469,92,0,0,0,0,0,0,0,0,0,-1,1693,932,0,0
476,92,0,0,0,0,0,0,0,0,0,-1,1700,932,0,0
483,92,0,0,0,0,0,0,0,0,0,-1,1707,932,0,0
490,92,0,0,0,0,0,0,0,0,0,-1,1714,932,0,0
497,92,0,0,0,0,0,0,0,0,0,-1,1721,932,0,0
504,92,0,0,0,0,0,0,0,0,0,-1,1728,932,0,0
511,92,0,0,0,0,0,0,0,0,0,-1,1735,932,0,0
518,92,0,0,0,0,0,0,0,0,0,-1,1742,932,0,0
525,92,0,0,0,0,0,0,0,0,0,-1,1749,932,0,0
532,92,0,0,0,0,0,0,0,0,0,-1,1756,932,0,0
539,92,0,0,0,0,0,0,0,0,0,-1,1763,932,0,0
546,92,0,0,0,0,0,0,0,0,0,-1,1770,932,0,0
553,92,0,0,0,0,0,0,0,0,0,-1,1777,932,0,0
560,92,0,0,0,0,0,0,0,0,0,-1,1784,932,0,0
567,92,0,0,0,0,0,0,0,0,0,-1,1791,932,0,0
574,92,0,0,0,0,0,0,0,0,0,-1,1798,932,0,0
581,92,0,0,0,0,0,0,0,0,0,-1,1805,932,0,0
588,92,0,0,0,0,0,0,0,0,0,-1,1812,932,0,0
595,92,0,0,0,0,0,0,0,0,0,-1,1819,932,0,0
602,92,0,0,0,0,0,0,0,0,0,-1,1826,932,0,0
609,92,0,0,0,0,0,0,0,0,0,-1,1833,932,0,0
616,92,0,0,0,0,0,0,0,0,0,-1,1840,932,0,0
623,92,0,0,0,0,0,0,0,0,0,-1,1847,932,0,0
630,92,0,0,0,0,0,0,0,0,0,-1,1854,932,0,0
637,92,76.1384,2.08868,-0.00155849,0.0134099,-0.00266008,0.0138686,-0.00201716,-1.40005,0.00998625,0.0491696,1861,932,76.1385,-2.08869
644,92,76.0713,1.96783,-0.00115395,0.0107692,-0.0018675,0.0110549,-0.00143961,-1.41901,0.00789366,0.0410934,1868,932,76.0713,-1.96781
651,92,76.0607,2.03937,-0.000918515,0.00840423,-0.00102287,0.00851514,-0.00102942,-1.46279,0.00604917,0.0378585,1875,932,76.0607,-2.03936
658,92,76.0083,2.09015,-0.000747405,0.00639339,-0.000185118,0.00639819,-0.000752201,-1.5449,0.00453703,0.0397182,1882,932,76.0083,-2.09012
665,92,75.9407,2.33667,-0.000591335,0.00464079,0.000589504,0.00470639,-0.000656932,1.45998,0.00337793,0.0408328,1889,932,75.9407,-2.33664
672,92,75.9362,2.3316,-0.000889534,0.00311231,0.00114788,0.00341818,-0.00119541,1.31038,0.00276479,0.0396684,1896,932,75.9361,-2.33159
679,92,75.9414,2.27356,-0.00131828,0.00182858,0.00141046,0.00236822,-0.00185792,1.20538,0.00244589,0.0375702,1903,932,75.9415,-2.27357
686,92,75.8929,2.26624,-0.00162089,0.000828637,0.00122972,0.00133946,-0.00213171,1.17709,0.00202141,0.0310487,1910,932,75.8929,-2.26626
693,92,75.9291,2.4903,-0.00191825,0.000186343,0.000872792,0.000501194,-0.0022331,1.22459,0.00168089,0.0294495,1917,932,75.9291,-2.49029
700,92,75.86,2.57281,0,0,0,0,0,0,0,-1,1924,932,75.8599,-2.5728
707,92,32.9893,3.26874,0,0,0,0,0,0,0,-1,1931,932,32.9893,-3.26874
714,92,71.6116,4.33038,0,0,0,0,0,0,0,-1,1938,932,71.6116,-4.33039
721,92,71.3707,5.10559,-0.00395719,0.000792429,-0.000848292,0.000939389,-0.00410415,-1.39926,0.00309709,0.03741,1945,932,71.3707,-5.10561
728,92,71.1061,5.78046,-0.00378009,0.00146019,-0.00128149,0.00175679,-0.00407669,-1.34335,0.0034556,0.0311502,1952,932,71.106,-5.78048
735,92,71.0548,6.44366,-0.00306243,0.00244769,-0.00201477,0.00310579,-0.00372053,-1.25508,0.0039465,0.0235331,1959,932,71.0547,-6.44365
742,92,71.0719,7.0752,-0.00163855,0.00406035,-0.00298868,0.00534025,-0.00291845,-1.16618,0.00483602,0.0227061,1966,932,71.0719,-7.07519
749,92,70.962,7.73163,0.00110816,0.00632204,-0.00373442,0.00826944,-0.000839241,-1.09012,0.00581294,0.0197275,1973,932,70.962,-7.73163
756,92,70.8169,8.35565,0.00633841,0.00858462,-0.00441352,0.0120157,0.00290734,-0.909989,0.00723866,0.015764,1980,932,70.817,-8.35563
763,92,70.8066,8.99426,0.0139091,0.0103082,-0.00521941,0.0176299,0.00658744,-0.619313,0.0102864,0.0186202,1987,932,70.8067,-8.99426
770,92,70.8989,9.5636,0.0235102,0.0111077,-0.00636311,0.026194,0.00842385,-0.399139,0.0154407,0.0282361,1994,932,70.8988,-9.56359
777,92,71.5396,10.1743,0.0363673,0.0102808,-0.00794363,0.0385959,0.00805229,-0.273514,0.0235107,0.0439073,2001,932,71.5395,-10.1743
784,92,72.252,10.9762,0.0544216,0.00682797,-0.0105215,0.0566439,0.00460573,-0.20815,0.0363248,0.0442985,2008,932,72.2519,-10.9762
791,92,73.3909,11.346,0.0794061,-1.92187e-05,-0.0156122,0.0823647,-0.0029778,-0.187284,0.0559288,0.0442289,2015,932,73.3909,-11.346
798,92,74.3687,11.3952,0,0,0,0,0,0,0,-1,2022,932,74.3686,-11.3952
805,92,0,0,0,0,0,0,0,0,0,-1,2029,932,0,0
812,92,0,0,0,0,0,0,0,0,0,-1,2036,932,0,0
-700,85,0,0,0,0,0,0,0,0,0,-1,524,939,0,0
-693,85,0,0,0,0,0,0,0,0,0,-1,531,939,0,0
-686,85,-53.5167,12.4844,-0.0255251,-0.0559324,-0.0202777,-0.0153844,-0.0660731,-0.463721,0.0399213,0.0480122,538,939,-53.5167,-12.4845
-679,85,-53.8109,11.5817,-0.0342162,-0.0424794,-0.0115754,-0.0260572,-0.0506385,-0.613981,0.0292403,0.0459535,545,939,-53.8109,-11.5818
-672,85,-54.0513,10.6376,-0.0381962,-0.0304884,-0.00583309,-0.027351,-0.0413336,-1.07733,0.0242764,0.0443882,552,939,-54.0513,-10.6376
-665,85,-54.331,10.1263,0,0,0,0,0,0,0,-1,559,939,-54.331,-10.1263
-658,85,-54.6888,9.66669,-0.0385306,-0.0103507,0.00159724,-0.0102605,-0.0386209,1.51436,0.0230996,0.0480765,566,939,-54.6887,-9.66671
-651,85,-55.126,9.18835,-0.0356128,-0.0026856,0.00385822,-0.00223956,-0.0360588,1.4557,0.0233286,0.04172,573,939,-55.1261,-9.18835
-644,85,-55.7302,8.69061,-0.0311181,0.00285518,0.00523501,0.00364356,-0.0319064,1.42132,0.0225837,0.0358902,580,939,-55.7302,-8.69061
-637,85,-56.0754,8.25891,-0.0257232,0.00598663,0.00592861,0.00705882,-0.0267954,1.39188,0.0206232,0.0245754,587,939,-56.0754,-8.2589
-630,85,-56.2064,7.67554,-0.0203722,0.00776611,0.00648946,0.00919064,-0.0217967,1.35471,0.0183774,0.0152251,594,939,-56.2064,-7.67554
-623,85,-56.3251,7.07965,-0.0148816,0.00727196,0.00635041,0.00896322,-0.0165728,1.31051,0.0149599,0.0102531,601,939,-56.3251,-7.07962
-616,85,-56.3642,6.46521,-0.00962265,0.00467713,0.00568364,0.00666095,-0.0116065,1.23498,0.0106748,0.0103429,608,939,-56.3642,-6.46524
-609,85,-56.4237,5.82739,-0.00499718,0.000767268,0.0049823,0.00364096,-0.00787087,1.04763,0.00679427,0.0127404,615,939,-56.4237,-5.8274
-602,85,-56.4222,5.1803,-0.00170916,-0.00376237,0.00440738,0.00178959,-0.00726112,0.670974,0.00553458,0.0180254,622,939,-56.4223,-5.1803
-595,85,-56.2964,4.51691,-0.000694423,-0.00953602,0.00391985,0.000793139,-0.0110236,0.362705,0.00762719,0.0227602,629,939,-56.2965,-4.51692
-588,85,-56.2165,3.85571,-0.0022277,-0.015357,0.00307707,-0.00154231,-0.0160423,0.219162,0.0102197,0.0280294,636,939,-56.2165,-3.85574
-581,85,-56.1786,3.15906,0,0,0,0,0,0,0,-1,643,939,-56.1786,-3.15903
-574,85,-57.1787,1.97198,0,0,0,0,0,0,0,-1,650,939,-57.1787,-1.97196
-567,85,-59.2852,0.0960083,0,0,0,0,0,0,0,-1,657,939,-59.2852,-0.0960106
-560,85,-59.2506,0.172607,0,0,0,0,0,0,0,-1,664,939,-59.2506,-0.172628
-553,85,-59.2308,0.199158,0,0,0,0,0,0,0,-1,671,939,-59.2309,-0.199156
-546,85,-59.2869,0.186218,0,0,0,0,0,0,0,-1,678,939,-59.2869,-0.186195
-539,85,-59.3288,0.184326,0,0,0,0,0,0,0,-1,685,939,-59.3288,-0.184353
-532,85,-59.3163,0.203125,0,0,0,0,0,0,0,-1,692,939,-59.3163,-0.203139
-525,85,-59.3694,0.212646,0,0,0,0,0,0,0,-1,699,939,-59.3695,-0.212634
-518,85,-59.4431,0.403198,0,0,0,0,0,0,0,-1,706,939,-59.4431,-0.403199
-511,85,0,0,0,0,0,0,0,0,0,-1,713,939,0,0
-504,85,0,0,0,0,0,0,0,0,0,-1,720,939,0,0
-497,85,0,0,0,0,0,0,0,0,0,-1,727,939,0,0
-490,85,0,0,0,0,0,0,0,0,0,-1,734,939,0,0
-483,85,0,0,0,0,0,0,0,0,0,-1,741,939,0,0
-476,85,0,0,0,0,0,0,0,0,0,-1,748,939,0,0
-469,85,0,0,0,0,0,0,0,0,0,-1,755,939,0,0
-462,85,0,0,0,0,0,0,0,0,0,-1,762,939,0,0
-455,85,0,0,0,0,0,0,0,0,0,-1,769,939,0,0
-448,85,0,0,0,0,0,0,0,0,0,-1,776,939,0,0
-441,85,0,0,0,0,0,0,0,0,0,-1,783,939,0,0
-434,85,0,0,0,0,0,0,0,0,0,-1,790,939,0,0
-427,85,0,0,0,0,0,0,0,0,0,-1,797,939,0,0
-420,85,0,0,0,0,0,0,0,0,0,-1,804,939,0,0
-413,85,0,0,0,0,0,0,0,0,0,-1,811,939,0,0
-406,85,0,0,0,0,0,0,0,0,0,-1,818,939,0,0
-399,85,0,0,0,0,0,0,0,0,0,-1,825,939,0,0
-392,85,0,0,0,0,0,0,0,0,0,-1,832,939,0,0
-385,85,0,0,0,0,0,0,0,0,0,-1,839,939,0,0
-378,85,0,0,0,0,0,0,0,0,0,-1,846,939,0,0
-371,85,0,0,0,0,0,0,0,0,0,-1,853,939,0,0
-364,85,0,0,0,0,0,0,0,0,0,-1,860,939,0,0
-357,85,0,0,0,0,0,0,0,0,0,-1,867,939,0,0
-350,85,0,0,0,0,0,0,0,0,0,-1,874,939,0,0
-343,85,0,0,0,0,0,0,0,0,0,-1,881,939,0,0
-336,85,0,0,0,0,0,0,0,0,0,-1,888,939,0,0
-329,85,0,0,0,0,0,0,0,0,0,-1,895,939,0,0
-322,85,0,0,0,0,0,0,0,0,0,-1,902,939,0,0
-315,85,0,0,0,0,0,0,0,0,0,-1,909,939,0,0
-308,85,0,0,0,0,0,0,0,0,0,-1,916,939,0,0
-301,85,0,0,0,0,0,0,0,0,0,-1,923,939,0,0
-294,85,0,0,0,0,0,0,0,0,0,-1,930,939,0,0
-287,85,0,0,0,0,0,0,0,0,0,-1,937,939,0,0
-280,85,0,0,0,0,0,0,0,0,0,-1,944,939,0,0
-273,85,0,0,0,0,0,0,0,0,0,-1,951,939,0,0
-266,85,0,0,0,0,0,0,0,0,0,-1,958,939,0,0
-259,85,0,0,0,0,0,0,0,0,0,-1,965,939,0,0
-252,85,0,0,0,0,0,0,0,0,0,-1,972,939,0,0
-245,85,0,0,0,0,0,0,0,0,0,-1,979,939,0,0
-238,85,0,0,0,0,0,0,0,0,0,-1,986,939,0,0
-231,85,0,0,0,0,0,0,0,0,0,-1,993,939,0,0
-224,85,0,0,0,0,0,0,0,0,0,-1,1000,939,0,0
-217,85,0,0,0,0,0,0,0,0,0,-1,1007,939,0,0
-210,85,0,0,0,0,0,0,0,0,0,-1,1014,939,0,0
-203,85,0,0,0,0,0,0,0,0,0,-1,1021,939,0,0
-196,85,0,0,0,0,0,0,0,0,0,-1,1028,939,0,0
-189,85,0,0,0,0,0,0,0,0,0,-1,1035,939,0,0
-182,85,0,0,0,0,0,0,0,0,0,-1,1042,939,0,0
-175,85,0,0,0,0,0,0,0,0,0,-1,1049,939,0,0
-168,85,0,0,0,0,0,0,0,0,0,-1,1056,939,0,0
-161,85,0,0,0,0,0,0,0,0,0,-1,1063,939,0,0
-154,85,0,0,0,0,0,0,0,0,0,-1,1070,939,0,0
-147,85,0,0,0,0,0,0,0,0,0,-1,1077,939,0,0
-140,85,0,0,0,0,0,0,0,0,0,-1,1084,939,0,0
-133,85,0,0,0,0,0,0,0,0,0,-1,1091,939,0,0
-126,85,0,0,0,0,0,0,0,0,0,-1,1098,939,0,0
-119,85,0,0,0,0,0,0,0,0,0,-1,1105,939,0,0
-112,85,0,0,0,0,0,0,0,0,0,-1,1112,939,0,0
-105,85,0,0,0,0,0,0,0,0,0,-1,1119,939,0,0
-98,85,0,0,0,0,0,0,0,0,0,-1,1126,939,0,0
-91,85,0,0,0,0,0,0,0,0,0,-1,1133,939,0,0
-84,85,0,0,0,0,0,0,0,0,0,-1,1140,939,0,0
-77,85,0,0,0,0,0,0,0,0,0,-1,1147,939,0,0
-70,85,0,0,0,0,0,0,0,0,0,-1,1154,939,0,0
-63,85,0,0,0,0,0,0,0,0,0,-1,1161,939,0,0
-56,85,0,0,0,0,0,0,0,0,0,-1,1168,939,0,0
-49,85,0,0,0,0,0,0,0,0,0,-1,1175,939,0,0
-42,85,0,0,0,0,0,0,0,0,0,-1,1182,939,0,0
-35,85,0,0,0,0,0,0,0,0,0,-1,1189,939,0,0
-28,85,0,0,0,0,0,0,0,0,0,-1,1196,939,0,0
-21,85,0,0,0,0,0,0,0,0,0,-1,1203,939,0,0
-14,85,0,0,0,0,0,0,0,0,0,-1,1210,939,0,0
-7,85,0,0,0,0,0,0,0,0,0,-1,1217,939,0,0
0,85,0,0,0,0,0,0,0,0,0,-1,1224,939,0,0
7,85,0,0,0,0,0,0,0,0,0,-1,1231,939,0,0
14,85,0,0,0,0,0,0,0,0,0,-1,1238,939,0,0
21,85,0,0,0,0,0,0,0,0,0,-1,1245,939,0,0
28,85,0,0,0,0,0,0,0,0,0,-1,1252,939,0,0
35,85,0,0,0,0,0,0,0,0,0,-1,1259,939,0,0
42,85,0,0,0,0,0,0,0,0,0,-1,1266,939,0,0
49,85,0,0,0,0,0,0,0,0,0,-1,1273,939,0,0
56,85,0,0,0,0,0,0,0,0,0,-1,1280,939,0,0
63,85,0,0,0,0,0,0,0,0,0,-1,1287,939,0,0
70,85,0,0,0,0,0,0,0,0,0,-1,1294,939,0,0
77,85,0,0,0,0,0,0,0,0,0,-1,1301,939,0,0
84,85,0,0,0,0,0,0,0,0,0,-1,1308,939,0,0
91,85,0,0,0,0,0,0,0,0,0,-1,1315,939,0,0
98,85,0,0,0,0,0,0,0,0,0,-1,1322,939,0,0
105,85,0,0,0,0,0,0,0,0,0,-1,1329,939,0,0
112,85,0,0,0,0,0,0,0,0,0,-1,1336,939,0,0
119,85,0,0,0,0,0,0,0,0,0,-1,1343,939,0,0
126,85,0,0,0,0,0,0,0,0,0,-1,1350,939,0,0
133,85,0,0,0,0,0,0,0,0,0,-1,1357,939,0,0
140,85,0,0,0,0,0,0,0,0,0,-1,1364,939,0,0
147,85,0,0,0,0,0,0,0,0,0,-1,1371,939,0,0
154,85,0,0,0,0,0,0,0,0,0,-1,1378,939,0,0
161,85,0,0,0,0,0,0,0,0,0,-1,1385,939,0,0
168,85,0,0,0,0,0,0,0,0,0,-1,1392,939,0,0
175,85,0,0,0,0,0,0,0,0,0,-1,1399,939,0,0
182,85,0,0,0,0,0,0,0,0,0,-1,1406,939,0,0
189,85,0,0,0,0,0,0,0,0,0,-1,1413,939,0,0
196,85,0,0,0,0,0,0,0,0,0,-1,1420,939,0,0
203,85,0,0,0,0,0,0,0,0,0,-1,1427,939,0,0
210,85,0,0,0,0,0,0,0,0,0,-1,1434,939,0,0
217,85,0,0,0,0,0,0,0,0,0,-1,1441,939,0,0
224,85,0,0,0,0,0,0,0,0,0,-1,1448,939,0,0
231,85,0,0,0,0,0,0,0,0,0,-1,1455,939,0,0
238,85,0,0,0,0,0,0,0,0,0,-1,1462,939,0,0
245,85,0,0,0,0,0,0,0,0,0,-1,1469,939,0,0
252,85,0,0,0,0,0,0,0,0,0,-1,1476,939,0,0
259,85,0,0,0,0,0,0,0,0,0,-1,1483,939,0,0
266,85,0,0,0,0,0,0,0,0,0,-1,1490,939,0,0
273,85,0,0,0,0,0,0,0,0,0,-1,1497,939,0,0
280,85,0,0,0,0,0,0,0,0,0,-1,1504,939,0,0
287,85,0,0,0,0,0,0,0,0,0,-1,1511,939,0,0
294,85,0,0,0,0,0,0,0,0,0,-1,1518,939,0,0
301,85,0,0,0,0,0,0,0,0,0,-1,1525,939,0,0
308,85,0,0,0,0,0,0,0,0,0,-1,1532,939,0,0
315,85,0,0,0,0,0,0,0,0,0,-1,1539,939,0,0
322,85,0,0,0,0,0,0,0,0,0,-1,1546,939,0,0
329,85,0,0,0,0,0,0,0,0,0,-1,1553,939,0,0
336,85,0,0,0,0,0,0,0,0,0,-1,1560,939,0,0
343,85,0,0,0,0,0,0,0,0,0,-1,1567,939,0,0
350,85,0,0,0,0,0,0,0,0,0,-1,1574,939,0,0
357,85,0,0,0,0,0,0,0,0,0,-1,1581,939,0,0
364,85,0,0,0,0,0,0,0,0,0,-1,1588,939,0,0
371,85,0,0,0,0,0,0,0,0,0,-1,1595,939,0,0
378,85,0,0,0,0,0,0,0,0,0,-1,1602,939,0,0
385,85,0,0,0,0,0,0,0,0,0,-1,1609,939,0,0
392,85,0,0,0,0,0,0,0,0,0,-1,1616,939,0,0
399,85,0,0,0,0,0,0,0,0,0,-1,1623,939,0,0
406,85,0,0,0,0,0,0,0,0,0,-1,1630,939,0,0
413,85,0,0,0,0,0,0,0,0,0,-1,1637,939,0,0
420,85,0,0,0,0,0,0,0,0,0,-1,1644,939,0,0
427,85,0,0,0,0,0,0,0,0,0,-1,1651,939,0,0
434,85,0,0,0,0,0,0,0,0,0,-1,1658,939,0,0
441,85,0,0,0,0,0,0,0,0,0,-1,1665,939,0,0
448,85,0,0,0,0,0,0,0,0,0,-1,1672,939,0,0
455,85,0,0,0,0,0,0,0,0,0,-1,1679,939,0,0
462,85,0,0,0,0,0,0,0,0,0,-1,1686,939,0,0
469,85,0,0,0,0,0,0,0,0,0,-1,1693,939,0,0
476,85,0,0,0,0,0,0,0,0,0,-1,1700,939,0,0
483,85,0,0,0,0,0,0,0,0,0,-1,1707,939,0,0
490,85,0,0,0,0,0,0,0,0,0,-1,1714,939,0,0
497,85,0,0,0,0,0,0,0,0,0,-1,1721,939,0,0
504,85,0,0,0,0,0,0,0,0,0,-1,1728,939,0,0
511,85,0,0,0,0,0,0,0,0,0,-1,1735,939,0,0
518,85,0,0,0,0,0,0,0,0,0,-1,1742,939,0,0
525,85,0,0,0,0,0,0,0,0,0,-1,1749,939,0,0
532,85,0,0,0,0,0,0,0,0,0,-1,1756,939,0,0
539,85,0,0,0,0,0,0,0,0,0,-1,1763,939,0,0
546,85,0,0,0,0,0,0,0,0,0,-1,1770,939,0,0
553,85,0,0,0,0,0,0,0,0,0,-1,1777,939,0,0
560,85,0,0,0,0,0,0,0,0,0,-1,1784,939,0,0
567,85,0,0,0,0,0,0,0,0,0,-1,1791,939,0,0
574,85,0,0,0,0,0,0,0,0,0,-1,1798,939,0,0
581,85,0,0,0,0,0,0,0,0,0,-1,1805,939,0,0
588,85,0,0,0,0,0,0,0,0,0,-1,1812,939,0,0
595,85,0,0,0,0,0,0,0,0,0,-1,1819,939,0,0
602,85,0,0,0,0,0,0,0,0,0,-1,1826,939,0,0
609,85,0,0,0,0,0,0,0,0,0,-1,1833,939,0,0
616,85,0,0,0,0,0,0,0,0,0,-1,1840,939,0,0
623,85,0,0,0,0,0,0,0,0,0,-1,1847,939,0,0
630,85,0,0,0,0,0,0,0,0,0,-1,1854,939,0,0
637,85,75.8124,2.21362,0,0,0,0,0,0,0,-1,1861,939,75.8124,-2.21363
644,85,75.9534,1.91406,0,0,0,0,0,0,0,-1,1868,939,75.9534,-1.91408
651,85,75.9515,2.0401,-0.000970488,0.00826182,-0.00106029,0.00838203,-0.00109069,-1.45791,0.0059848,0.0405628,1875,939,75.9516,-2.04009
658,85,75.9395,2.06641,-0.000758399,0.00617837,-0.000160453,0.00618208,-0.000762109,-1.54768,0.00439749,0.0384444,1882,939,75.9395,-2.06638
665,85,75.9213,2.06769,-0.000600998,0.00437825,0.000677659,0.00446883,-0.000691578,1.43792,0.00323448,0.040123,1889,939,75.9212,-2.06771
672,85,75.9716,2.19446,-0.00094205,0.00277348,0.0013417,0.00320732,-0.00137589,1.25806,0.00271562,0.0399626,1896,939,75.9716,-2.19445
679,85,76.0232,2.28644,-0.00141147,0.00139201,0.00171825,0.00220776,-0.00222721,1.12755,0.00256054,0.0383364,1903,939,76.0232,-2.28645
686,85,75.9241,2.25574,-0.00171519,0.000310926,0.00160477,0.00119565,-0.00259991,1.06695,0.0022408,0.0350189,1910,939,75.9241,-2.25576
693,85,75.8629,2.43042,-0.00202644,-0.000409978,0.00128481,0.000299678,-0.00273609,1.06616,0.00193172,0.0311357,1917,939,75.8629,-2.43042
700,85,75.9363,2.44061,-0.00255508,-0.000814486,0.000893689,-0.000437347,-0.00293222,1.17147,0.00182657,0.0425929,1924,939,75.9363,-2.44064
707,85,76.0946,2.33698,0,0,0,0,0,0,0,-1,1931,939,76.0945,-2.33701
714,85,72.4397,4.43213,0,0,0,0,0,0,0,-1,1938,939,72.4397,-4.43213
721,85,72.0909,5.19763,-0.00432684,0.000403532,-0.000509283,0.000457741,-0.00438105,-1.46475,0.00308462,0.0355034,1945,939,72.0909,-5.19765
728,85,71.7659,6.03186,-0.00412032,0.00123466,-0.000987725,0.00141104,-0.00429669,-1.39409,0.00343287,0.0403466,1952,939,71.7659,-6.03188
735,85,71.7418,6.55396,-0.00333036,0.00235195,-0.00179868,0.00287344,-0.00385186,-1.2886,0.00389653,0.0369651,1959,939,71.7419,-6.55398
742,85,71.7959,7.13959,-0.00206297,0.00412225,-0.00280485,0.00520474,-0.00314546,-1.20248,0.00486961,0.022806,1966,939,71.7959,-7.13959
749,85,71.683,7.7453,0.000223982,0.00661643,-0.00359412,0.00822994,-0.00138953,-1.14883,0.00600364,0.0156114,1973,939,71.6829,-7.7453
756,85,71.5281,8.3241,0.00477336,0.00930816,-0.00434096,0.0119382,0.00214331,-1.02607,0.0073493,0.0139765,1980,939,71.5281,-8.32409
763,85,71.4683,8.88812,0.0116956,0.0116751,-0.00517849,0.0168639,0.00650689,-0.784408,0.00982058,0.0148318,1987,939,71.4683,-8.88813
770,85,71.3816,9.42712,0.020471,0.0132516,-0.00627169,0.0240976,0.00962502,-0.524273,0.0140063,0.0210081,1994,939,71.3816,-9.42713
777,85,71.2578,9.96777,0.0318787,0.013568,-0.00768461,0.0346763,0.0107704,-0.349142,0.0204936,0.0439693,2001,939,71.2577,-9.96775
784,85,71.2109,10.5568,0,0,0,0,0,0,0,-1,2008,939,71.2109,-10.5568
791,85,74.2952,11.9297,0,0,0,0,0,0,0,-1,2015,939,74.2951,-11.9297
798,85,75.4956,11.9659,0,0,0,0,0,0,0,-1,2022,939,75.4955,-11.966
805,85,67.4045,8.44751,0,0,0,0,0,0,0,-1,2029,939,67.4046,-8.4475
812,85,0,0,0,0,0,0,0,0,0,-1,2036,939,0,0
-700,78,0,0,0,0,0,0,0,0,0,-1,524,946,0,0
-693,78,0,0,0,0,0,0,0,0,0,-1,531,946,0,0
-686,78,-53.8047,12.5635,0,0,0,0,0,0,0,-1,538,946,-53.8046,-12.5635
-679,78,-54.406,11.876,0,0,0,0,0,0,0,-1,545,946,-54.406,-11.876
-672,78,-54.8523,10.8541,0,0,0,0,0,0,0,-1,552,946,-54.8523,-10.8541
-665,78,-55.2719,10.1127,0,0,0,0,0,0,0,-1,559,946,-55.2718,-10.1126
-658,78,-55.5054,9.88354,0,0,0,0,0,0,0,-1,566,946,-55.5054,-9.88356
-651,78,-55.9429,9.26123,-0.0352753,-0.000282479,0.0038944,0.000145696,-0.0357034,1.46129,0.023851,0.0435828,573,946,-55.9429,-9.26125
-644,78,-56.3647,8.63239,-0.0305129,0.00482322,0.00520609,0.00557428,-0.0312639,1.42752,0.0229277,0.0321788,580,946,-56.3647,-8.63237
-637,78,-56.7321,8.09607,-0.0249838,0.00740199,0.00585896,0.00842935,-0.0260111,1.39721,0.0207299,0.0235383,587,946,-56.7321,-8.09608
-630,78,-56.9325,7.56274,-0.0195614,0.00859907,0.00636043,0.00996902,-0.0209314,1.35865,0.0182107,0.0202201,594,946,-56.9325,-7.56277
-623,78,-56.988,6.98914,-0.0140744,0.00758792,0.00622923,0.00925145,-0.0157379,1.30983,0.0145887,0.0137417,601,946,-56.9881,-6.98914
-616,78,-57.0355,6.39893,-0.00886985,0.00458467,0.0056446,0.00663907,-0.0109242,1.22174,0.0102403,0.0124463,608,946,-57.0354,-6.39893
-609,78,-57.0676,5.85718,-0.00431222,0.000335428,0.00504439,0.00356553,-0.00754232,1.00125,0.00654869,0.0128925,615,946,-57.0676,-5.85721
-602,78,-57.0797,5.25195,-0.000994286,-0.00455511,0.00457687,0.00213627,-0.00768566,0.599903,0.00596477,0.0180826,622,946,-57.0796,-5.25193
-595,78,-56.9615,4.59204,0.000171813,-0.0108263,0.00419395,0.0015886,-0.012243,0.32578,0.00873982,0.0188396,629,946,-56.9615,-4.59201
-588,78,-56.9357,4.02722,-0.00108249,-0.0170821,0.00351573,-0.000344033,-0.0178205,0.207035,0.0117673,0.0164885,636,946,-56.9357,-4.02724
-581,78,-56.9105,3.39246,0,0,0,0,0,0,0,-1,643,946,-56.9105,-3.39247
-574,78,-59.2811,0.0726929,0,0,0,0,0,0,0,-1,650,946,-59.2811,-0.072711
-567,78,-59.2733,0.175354,0,0,0,0,0,0,0,-1,657,946,-59.2732,-0.175381
-560,78,-59.2611,0.25531,0,0,0,0,0,0,0,-1,664,946,-59.2611,-0.255307
-553,78,-59.2423,0.211182,0,0,0,0,0,0,0,-1,671,946,-59.2423,-0.211172
-546,78,-59.3374,0.22821,0,0,0,0,0,0,0,-1,678,946,-59.3374,-0.228193
-539,78,-59.2411,0.266418,0,0,0,0,0,0,0,-1,685,946,-59.2411,-0.26643
-532,78,-59.2227,0.141968,0,0,0,0,0,0,0,-1,692,946,-59.2227,-0.141964
-525,78,-59.3226,0.192505,0,0,0,0,0,0,0,-1,699,946,-59.3226,-0.192488
-518,78,-59.2895,0.39209,0,0,0,0,0,0,0,-1,706,946,-59.2895,-0.392082
-511,78,0,0,0,0,0,0,0,0,0,-1,713,946,0,0
-504,78,0,0,0,0,0,0,0,0,0,-1,720,946,0,0
-497,78,0,0,0,0,0,0,0,0,0,-1,727,946,0,0
-490,78,0,0,0,0,0,0,0,0,0,-1,734,946,0,0
-483,78,0,0,0,0,0,0,0,0,0,-1,741,946,0,0
-476,78,0,0,0,0,0,0,0,0,0,-1,748,946,0,0
-469,78,0,0,0,0,0,0,0,0,0,-1,755,946,0,0
-462,78,0,0,0,0,0,0,0,0,0,-1,762,946,0,0
-455,78,0,0,0,0,0,0,0,0,0,-1,769,946,0,0
-448,78,0,0,0,0,0,0,0,0,0,-1,776,946,0,0
-441,78,0,0,0,0,0,0,0,0,0,-1,783,946,0,0
-434,78,0,0,0,0,0,0,0,0,0,-1,790,946,0,0
-427,78,0,0,0,0,0,0,0,0,0,-1,797,946,0,0
-420,78,0,0,0,0,0,0,0,0,0,-1,804,946,0,0
-413,78,0,0,0,0,0,0,0,0,0,-1,811,946,0,0
-406,78,0,0,0,0,0,0,0,0,0,-1,818,946,0,0
-399,78,0,0,0,0,0,0,0,0,0,-1,825,946,0,0
-392,78,0,0,0,0,0,0,0,0,0,-1,832,946,0,0
-385,78,0,0,0,0,0,0,0,0,0,-1,839,946,0,0
-378,78,0,0,0,0,0,0,0,0,0,-1,846,946,0,0
-371,78,0,0,0,0,0,0,0,0,0,-1,853,946,0,0
-364,78,0,0,0,0,0,0,0,0,0,-1,860,946,0,0
-357,78,0,0,0,0,0,0,0,0,0,-1,867,946,0,0
-350,78,0,0,0,0,0,0,0,0,0,-1,874,946,0,0
-343,78,0,0,0,0,0,0,0,0,0,-1,881,946,0,0
-336,78,0,0,0,0,0,0,0,0,0,-1,888,946,0,0
-329,78,0,0,0,0,0,0,0,0,0,-1,895,946,0,0
-322,78,0,0,0,0,0,0,0,0,0,-1,902,946,0,0
-315,78,0,0,0,0,0,0,0,0,0,-1,909,946,0,0
-308,78,0,0,0,0,0,0,0,0,0,-1,916,946,0,0
-301,78,0,0,0,0,0,0,0,0,0,-1,923,946,0,0
-294,78,0,0,0,0,0,0,0,0,0,-1,930,946,0,0
-287,78,0,0,0,0,0,0,0,0,0,-1,937,946,0,0
-280,78,0,0,0,0,0,0,0,0,0,-1,944,946,0,0
-273,78,0,0,0,0,0,0,0,0,0,-1,951,946,0,0
-266,78,0,0,0,0,0,0,0,0,0,-1,958,946,0,0
-259,78,0,0,0,0,0,0,0,0,0,-1,965,946,0,0
-252,78,0,0,0,0,0,0,0,0,0,-1,972,946,0,0
-245,78,0,0,0,0,0,0,0,0,0,-1,979,946,0,0
-238,78,0,0,0,0,0,0,0,0,0,-1,986,946,0,0
-231,78,0,0,0,0,0,0,0,0,0,-1,993,946,0,0
-224,78,0,0,0,0,0,0,0,0,0,-1,1000,946,0,0
-217,78,0,0,0,0,0,0,0,0,0,-1,1007,946,0,0
-210,78,0,0,0,0,0,0,0,0,0,-1,1014,946,0,0
-203,78,0,0,0,0,0,0,0,0,0,-1,1021,946,0,0
-196,78,0,0,0,0,0,0,0,0,0,-1,1028,946,0,0
-189,78,0,0,0,0,0,0,0,0,0,-1,1035,946,0,0
-182,78,0,0,0,0,0,0,0,0,0,-1,1042,946,0,0
-175,78,0,0,0,0,0,0,0,0,0,-1,1049,946,0,0
-168,78,0,0,0,0,0,0,0,0,0,-1,1056,946,0,0
-161,78,0,0,0,0,0,0,0,0,0,-1,1063,946,0,0
-154,78,0,0,0,0,0,0,0,0,0,-1,1070,946,0,0
-147,78,0,0,0,0,0,0,0,0,0,-1,1077,946,0,0
-140,78,0,0,0,0,0,0,0,0,0,-1,1084,946,0,0
-133,78,0,0,0,0,0,0,0,0,0,-1,1091,946,0,0
-126,78,0,0,0,0,0,0,0,0,0,-1,1098,946,0,0
-119,78,0,0,0,0,0,0,0,0,0,-1,1105,946,0,0
-112,78,0,0,0,0,0,0,0,0,0,-1,1112,946,0,0
-105,78,0,0,0,0,0,0,0,0,0,-1,1119,946,0,0
-98,78,0,0,0,0,0,0,0,0,0,-1,1126,946,0,0
-91,78,0,0,0,0,0,0,0,0,0,-1,1133,946,0,0
-84,78,0,0,0,0,0,0,0,0,0,-1,1140,946,0,0
-77,78,0,0,0,0,0,0,0,0,0,-1,1147,946,0,0
-70,78,0,0,0,0,0,0,0,0,0,-1,1154,946,0,0
-63,78,0,0,0,0,0,0,0,0,0,-1,1161,946,0,0
-56,78,0,0,0,0,0,0,0,0,0,-1,1168,946,0,0
-49,78,0,0,0,0,0,0,0,0,0,-1,1175,946,0,0
-42,78,0,0,0,0,0,0,0,0,0,-1,1182,946,0,0
-35,78,0,0,0,0,0,0,0,0,0,-1,1189,946,0,0
-28,78,0,0,0,0,0,0,0,0,0,-1,1196,946,0,0
-21,78,0,0,0,0,0,0,0,0,0,-1,1203,946,0,0
-14,78,0,0,0,0,0,0,0,0,0,-1,1210,946,0,0
-7,78,0,0,0,0,0,0,0,0,0,-1,1217,946,0,0
0,78,0,0,0,0,0,0,0,0,0,-1,1224,946,0,0
7,78,0,0,0,0,0,0,0,0,0,-1,1231,946,0,0
14,78,0,0,0,0,0,0,0,0,0,-1,1238,946,0,0
21,78,0,0,0,0,0,0,0,0,0,-1,1245,946,0,0
28,78,0,0,0,0,0,0,0,0,0,-1,1252,946,0,0
35,78,0,0,0,0,0,0,0,0,0,-1,1259,946,0,0
42,78,0,0,0,0,0,0,0,0,0,-1,1266,946,0,0
49,78,0,0,0,0,0,0,0,0,0,-1,1273,946,0,0
56,78,0,0,0,0,0,0,0,0,0,-1,1280,946,0,0
63,78,0,0,0,0,0,0,0,0,0,-1,1287,946,0,0
70,78,0,0,0,0,0,0,0,0,0,-1,1294,946,0,0
77,78,0,0,0,0,0,0,0,0,0,-1,1301,946,0,0
84,78,0,0,0,0,0,0,0,0,0,-1,1308,946,0,0
91,78,0,0,0,0,0,0,0,0,0,-1,1315,946,0,0
98,78,0,0,0,0,0,0,0,0,0,-1,1322,946,0,0
105,78,0,0,0,0,0,0,0,0,0,-1,1329,946,0,0
112,78,0,0,0,0,0,0,0,0,0,-1,1336,946,0,0
119,78,0,0,0,0,0,0,0,0,0,-1,1343,946,0,0
126,78,0,0,0,0,0,0,0,0,0,-1,1350,946,0,0
133,78,0,0,0,0,0,0,0,0,0,-1,1357,946,0,0
140,78,0,0,0,0,0,0,0,0,0,-1,1364,946,0,0
147,78,0,0,0,0,0,0,0,0,0,-1,1371,946,0,0
154,78,0,0,0,0,0,0,0,0,0,-1,1378,946,0,0
161,78,0,0,0,0,0,0,0,0,0,-1,1385,946,0,0
168,78,0,0,0,0,0,0,0,0,0,-1,1392,946,0,0
175,78,0,0,0,0,0,0,0,0,0,-1,1399,946,0,0
182,78,0,0,0,0,0,0,0,0,0,-1,1406,946,0,0
189,78,0,0,0,0,0,0,0,0,0,-1,1413,946,0,0
196,78,0,0,0,0,0,0,0,0,0,-1,1420,946,0,0
203,78,0,0,0,0,0,0,0,0,0,-1,1427,946,0,0
210,78,0,0,0,0,0,0,0,0,0,-1,1434,946,0,0
217,78,0,0,0,0,0,0,0,0,0,-1,1441,946,0,0
224,78,0,0,0,0,0,0,0,0,0,-1,1448,946,0,0
231,78,0,0,0,0,0,0,0,0,0,-1,1455,946,0,0
238,78,0,0,0,0,0,0,0,0,0,-1,1462,946,0,0
245,78,0,0,0,0,0,0,0,0,0,-1,1469,946,0,0
252,78,0,0,0,0,0,0,0,0,0,-1,1476,946,0,0
259,78,0,0,0,0,0,0,0,0,0,-1,1483,946,0,0
266,78,0,0,0,0,0,0,0,0,0,-1,1490,946,0,0
273,78,0,0,0,0,0,0,0,0,0,-1,1497,946,0,0
280,78,0,0,0,0,0,0,0,0,0,-1,1504,946,0,0
287,78,0,0,0,0,0,0,0,0,0,-1,1511,946,0,0
294,78,0,0,0,0,0,0,0,0,0,-1,1518,946,0,0
301,78,0,0,0,0,0,0,0,0,0,-1,1525,946,0,0
308,78,0,0,0,0,0,0,0,0,0,-1,1532,946,0,0
315,78,0,0,0,0,0,0,0,0,0,-1,1539,946,0,0
322,78,0,0,0,0,0,0,0,0,0,-1,1546,946,0,0
329,78,0,0,0,0,0,0,0,0,0,-1,1553,946,0,0
336,78,0,0,0,0,0,0,0,0,0,-1,1560,946,0,0
343,78,0,0,0,0,0,0,0,0,0,-1,1567,946,0,0
350,78,0,0,0,0,0,0,0,0,0,-1,1574,946,0,0
357,78,0,0,0,0,0,0,0,0,0,-1,1581,946,0,0
364,78,0,0,0,0,0,0,0,0,0,-1,1588,946,0,0
371,78,0,0,0,0,0,0,0,0,0,-1,1595,946,0,0
378,78,0,0,0,0,0,0,0,0,0,-1,1602,946,0,0
385,78,0,0,0,0,0,0,0,0,0,-1,1609,946,0,0
392,78,0,0,0,0,0,0,0,0,0,-1,1616,946,0,0
399,78,0,0,0,0,0,0,0,0,0,-1,1623,946,0,0
406,78,0,0,0,0,0,0,0,0,0,-1,1630,946,0,0
413,78,0,0,0,0,0,0,0,0,0,-1,1637,946,0,0
420,78,0,0,0,0,0,0,0,0,0,-1,1644,946,0,0
427,78,0,0,0,0,0,0,0,0,0,-1,1651,946,0,0
434,78,0,0,0,0,0,0,0,0,0,-1,1658,946,0,0
441,78,0,0,0,0,0,0,0,0,0,-1,1665,946,0,0
448,78,0,0,0,0,0,0,0,0,0,-1,1672,946,0,0
455,78,0,0,0,0,0,0,0,0,0,-1,1679,946,0,0
462,78,0,0,0,0,0,0,0,0,0,-1,1686,946,0,0
469,78,0,0,0,0,0,0,0,0,0,-1,1693,946,0,0
476,78,0,0,0,0,0,0,0,0,0,-1,1700,946,0,0
483,78,0,0,0,0,0,0,0,0,0,-1,1707,946,0,0
490,78,0,0,0,0,0,0,0,0,0,-1,1714,946,0,0
497,78,0,0,0,0,0,0,0,0,0,-1,1721,946,0,0
504,78,0,0,0,0,0,0,0,0,0,-1,1728,946,0,0
511,78,0,0,0,0,0,0,0,0,0,-1,1735,946,0,0
518,78,0,0,0,0,0,0,0,0,0,-1,1742,946,0,0
525,78,0,0,0,0,0,0,0,0,0,-1,1749,946,0,0
532,78,0,0,0,0,0,0,0,0,0,-1,1756,946,0,0
539,78,0,0,0,0,0,0,0,0,0,-1,1763,946,0,0
546,78,0,0,0,0,0,0,0,0,0,-1,1770,946,0,0
553,78,0,0,0,0,0,0,0,0,0,-1,1777,946,0,0
560,78,0,0,0,0,0,0,0,0,0,-1,1784,946,0,0
567,78,0,0,0,0,0,0,0,0,0,-1,1791,946,0,0
574,78,0,0,0,0,0,0,0,0,0,-1,1798,946,0,0
581,78,0,0,0,0,0,0,0,0,0,-1,1805,946,0,0
588,78,0,0,0,0,0,0,0,0,0,-1,1812,946,0,0
595,78,0,0,0,0,0,0,0,0,0,-1,1819,946,0,0
602,78,0,0,0,0,0,0,0,0,0,-1,1826,946,0,0
609,78,0,0,0,0,0,0,0,0,0,-1,1833,946,0,0
616,78,0,0,0,0,0,0,0,0,0,-1,1840,946,0,0
623,78,0,0,0,0,0,0,0,0,0,-1,1847,946,0,0
630,78,0,0,0,0,0,0,0,0,0,-1,1854,946,0,0
637,78,75.9426,2.64227,-0.00231489,0.0140973,-0.00311892,0.01467,-0.00288762,-1.38919,0.0108711,0.0469767,1861,946,75.9426,-2.64227
644,78,75.8097,2.63019,-0.00153063,0.0109079,-0.00208484,0.011248,-0.00187077,-1.40907,0.00819378,0.0461233,1868,946,75.8097,-2.63016
651,78,75.8994,2.37524,-0.00112528,0.00821425,-0.00106926,0.0083351,-0.00124613,-1.45825,0.00601529,0.0423946,1875,946,75.8994,-2.37526
658,78,75.903,2.38959,-0.000836457,0.00609758,-0.000121122,0.0060997,-0.000838573,-1.55334,0.00437287,0.0379682,1882,946,75.903,-2.38956
665,78,75.9904,2.11511,0,0,0,0,0,0,0,-1,1889,946,75.9904,-2.11511
672,78,75.9598,2.28546,-0.000981414,0.00264797,0.00149648,0.00318542,-0.00151886,1.226,0.00277225,0.0395741,1896,946,75.9599,-2.28543
679,78,75.9384,2.40308,-0.00146917,0.0012119,0.00195364,0.0022407,-0.00249797,1.08609,0.00273722,0.0388611,1903,946,75.9383,-2.40306
686,78,75.8911,2.3681,-0.00176792,7.51277e-05,0.00189123,0.0012574,-0.0029502,1.0121,0.00249393,0.0361512,1910,946,75.8912,-2.36811
693,78,75.8063,2.33771,-0.0020845,-0.000704338,0.00160274,0.000350571,-0.00313941,0.988685,0.00221905,0.0300753,1917,946,75.8063,-2.33773
700,78,75.8688,2.34473,-0.00263627,-0.00111678,0.00121659,-0.000442196,-0.00331085,1.06451,0.0020756,0.0247205,1924,946,75.8687,-2.34474
707,78,75.9694,2.38721,0,0,0,0,0,0,0,-1,1931,946,75.9694,-2.3872
714,78,72.8062,4.57007,0,0,0,0,0,0,0,-1,1938,946,72.8062,-4.57009
721,78,72.6235,5.26532,-0.00460599,0.000292036,-0.000285146,0.00030858,-0.00462254,-1.51284,0.00318953,0.0335605,1945,946,72.6235,-5.26532
728,78,72.5143,6.11731,-0.00442012,0.00127667,-0.000808785,0.00138927,-0.00453272,-1.43247,0.00357602,0.0493661,1952,946,72.5142,-6.11733
735,78,72.5082,6.6485,-0.00364237,0.00251038,-0.00168605,0.00294211,-0.00407411,-1.32012,0.00406835,0.032657,1959,946,72.5082,-6.64851
742,78,72.4746,7.17059,-0.00262232,0.00441135,-0.00269416,0.00532471,-0.00353569,-1.24394,0.00515019,0.0224225,1966,946,72.4746,-7.17058
749,78,72.3279,7.72968,-0.000864367,0.00708728,-0.00347614,0.00839262,-0.00216971,-1.21157,0.0064413,0.0165913,1973,946,72.3279,-7.72966
756,78,72.2588,8.24371,0.00286688,0.010168,-0.00422748,0.012103,0.000931903,-1.14155,0.00777664,0.0159099,1980,946,72.2587,-8.24372
763,78,72.1487,8.72528,0.00892107,0.0131902,-0.00503705,0.0165263,0.00558496,-0.985813,0.00970708,0.0171822,1987,946,72.1486,-8.72531
770,78,72.0017,9.21973,0.0166842,0.0155753,-0.00602417,0.0221794,0.0100801,-0.739509,0.012823,0.0227967,1994,946,72.0016,-9.21971
777,78,71.7471,9.87445,0.0265382,0.0170154,-0.00718827,0.030399,0.0131546,-0.492881,0.0176037,0.042065,2001,946,71.7471,-9.87447
784,78,72.2874,10.1691,0,0,0,0,0,0,0,-1,2008,946,72.2874,-10.169
791,78,71.0723,11.4932,0,0,0,0,0,0,0,-1,2015,946,71.0722,-11.4931
798,78,67.9287,7.90448,0,0,0,0,0,0,0,-1,2022,946,67.9287,-7.90446
805,78,68.5852,7.34106,0,0,0,0,0,0,0,-1,2029,946,68.5853,-7.34105
812,78,0,0,0,0,0,0,0,0,0,-1,2036,946,0,0
-700,71,0,0,0,0,0,0,0,0,0,-1,524,953,0,0
-693,71,0,0,0,0,0,0,0,0,0,-1,531,953,0,0
-686,71,-54.2404,12.8521,0,0,0,0,0,0,0,-1,538,953,-54.2405,-12.8521
-679,71,-58.8521,5.59479,0,0,0,0,0,0,0,-1,545,953,-58.8521,-5.59481
-672,71,-57.6769,6.68195,0,0,0,0,0,0,0,-1,552,953,-57.6769,-6.68194
-665,71,-56.3976,6.53619,0,0,0,0,0,0,0,-1,559,953,-56.3976,-6.5362
-658,71,-56.0558,10.6519,0,0,0,0,0,0,0,-1,566,953,-56.0558,-10.6519
-651,71,-56.5652,9.74341,-0.0352645,0.00261416,0.00422364,0.0030794,-0.0357298,1.46109,0.0249098,0.0467709,573,953,-56.5653,-9.74342
-644,71,-57.0488,8.77063,-0.0302603,0.00722797,0.00539628,0.00798928,-0.0310216,1.43064,0.0237955,0.0364147,580,953,-57.0487,-8.77062
-637,71,-57.3897,8.03149,-0.0246118,0.00920982,0.00594264,0.0102236,-0.0256256,1.40183,0.0213248,0.0216628,587,953,-57.3897,-8.03148
-630,71,-57.5532,7.45044,-0.0191084,0.00974928,0.00631227,0.0110696,-0.0204287,1.3646,0.0184512,0.0187488,594,953,-57.5531,-7.45046
-623,71,-57.6121,6.9071,-0.0136421,0.00816301,0.00612163,0.00976406,-0.0152431,1.31499,0.014553,0.0154673,601,953,-57.6121,-6.90713
-616,71,-57.6526,6.34399,-0.00851297,0.00472414,0.00555563,0.00674679,-0.0105356,1.22164,0.0100576,0.0154791,608,953,-57.6526,-6.34402
-609,71,-57.6749,5.84979,-0.00406106,0.000141115,0.00499298,0.00345707,-0.00737702,0.984556,0.00639009,0.0167047,615,953,-57.6748,-5.84981
-602,71,-57.6721,5.36993,-0.000777037,-0.00510075,0.00457227,0.00211871,-0.00799649,0.564565,0.00615991,0.0186952,622,953,-57.672,-5.36993
-595,71,-57.6362,4.83563,0.000430533,-0.0118572,0.00422355,0.00174223,-0.0131689,0.301124,0.00941388,0.0229986,629,953,-57.6362,-4.83566
-588,71,-57.5822,4.27997,-0.000746231,-0.0185357,0.00362861,-3.4553e-05,-0.0192473,0.193671,0.0128201,0.0306257,636,953,-57.5822,-4.27999
-581,71,-57.3578,3.6441,0,0,0,0,0,0,0,-1,643,953,-57.3578,-3.64412
-574,71,-59.2797,0.0828857,0,0,0,0,0,0,0,-1,650,953,-59.2797,-0.0828634
-567,71,-59.254,0.198975,0,0,0,0,0,0,0,-1,657,953,-59.254,-0.198984
-560,71,-59.2732,0.266357,0,0,0,0,0,0,0,-1,664,953,-59.2732,-0.266383
-553,71,-59.3641,0.307434,0,0,0,0,0,0,0,-1,671,953,-59.3641,-0.307419
-546,71,-59.4073,0.363159,0,0,0,0,0,0,0,-1,678,953,-59.4073,-0.36318
-539,71,-59.2318,0.210327,0,0,0,0,0,0,0,-1,685,953,-59.2318,-0.210303
-532,71,-59.2302,-0.0519409,0,0,0,0,0,0,0,-1,692,953,-59.2303,0.0519492
-525,71,-59.3516,0.0454102,0,0,0,0,0,0,0,-1,699,953,-59.3516,-0.0454189
-518,71,0,0,0,0,0,0,0,0,0,-1,706,953,0,0
-511,71,0,0,0,0,0,0,0,0,0,-1,713,953,0,0
-504,71,0,0,0,0,0,0,0,0,0,-1,720,953,0,0
-497,71,0,0,0,0,0,0,0,0,0,-1,727,953,0,0
-490,71,0,0,0,0,0,0,0,0,0,-1,734,953,0,0
-483,71,0,0,0,0,0,0,0,0,0,-1,741,953,0,0
-476,71,0,0,0,0,0,0,0,0,0,-1,748,953,0,0
-469,71,0,0,0,0,0,0,0,0,0,-1,755,953,0,0
-462,71,0,0,0,0,0,0,0,0,0,-1,762,953,0,0
-455,71,0,0,0,0,0,0,0,0,0,-1,769,953,0,0
-448,71,0,0,0,0,0,0,0,0,0,-1,776,953,0,0
-441,71,0,0,0,0,0,0,0,0,0,-1,783,953,0,0
-434,71,0,0,0,0,0,0,0,0,0,-1,790,953,0,0
-427,71,0,0,0,0,0,0,0,0,0,-1,797,953,0,0
-420,71,0,0,0,0,0,0,0,0,0,-1,804,953,0,0
-413,71,0,0,0,0,0,0,0,0,0,-1,811,953,0,0
-406,71,0,0,0,0,0,0,0,0,0,-1,818,953,0,0
-399,71,0,0,0,0,0,0,0,0,0,-1,825,953,0,0
-392,71,0,0,0,0,0,0,0,0,0,-1,832,953,0,0
-385,71,0,0,0,0,0,0,0,0,0,-1,839,953,0,0
-378,71,0,0,0,0,0,0,0,0,0,-1,846,953,0,0
-371,71,0,0,0,0,0,0,0,0,0,-1,853,953,0,0
-364,71,0,0,0,0,0,0,0,0,0,-1,860,953,0,0
-357,71,0,0,0,0,0,0,0,0,0,-1,867,953,0,0
-350,71,0,0,0,0,0,0,0,0,0,-1,874,953,0,0
-343,71,0,0,0,0,0,0,0,0,0,-1,881,953,0,0
-336,71,0,0,0,0,0,0,0,0,0,-1,888,953,0,0
-329,71,0,0,0,0,0,0,0,0,0,-1,895,953,0,0
-322,71,0,0,0,0,0,0,0,0,0,-1,902,953,0,0
-315,71,0,0,0,0,0,0,0,0,0,-1,909,953,0,0
-308,71,0,0,0,0,0,0,0,0,0,-1,916,953,0,0
-301,71,0,0,0,0,0,0,0,0,0,-1,923,953,0,0
-294,71,0,0,0,0,0,0,0,0,0,-1,930,953,0,0
-287,71,0,0,0,0,0,0,0,0,0,-1,937,953,0,0
-280,71,0,0,0,0,0,0,0,0,0,-1,944,953,0,0
-273,71,0,0,0,0,0,0,0,0,0,-1,951,953,0,0
-266,71,0,0,0,0,0,0,0,0,0,-1,958,953,0,0
-259,71,0,0,0,0,0,0,0,0,0,-1,965,953,0,0
-252,71,0,0,0,0,0,0,0,0,0,-1,972,953,0,0
-245,71,0,0,0,0,0,0,0,0,0,-1,979,953,0,0
-238,71,0,0,0,0,0,0,0,0,0,-1,986,953,0,0
-231,71,0,0,0,0,0,0,0,0,0,-1,993,953,0,0
-224,71,0,0,0,0,0,0,0,0,0,-1,1000,953,0,0
-217,71,0,0,0,0,0,0,0,0,0,-1,1007,953,0,0
-210,71,0,0,0,0,0,0,0,0,0,-1,1014,953,0,0
-203,71,0,0,0,0,0,0,0,0,0,-1,1021,953,0,0
-196,71,0,0,0,0,0,0,0,0,0,-1,1028,953,0,0
-189,71,0,0,0,0,0,0,0,0,0,-1,1035,953,0,0
-182,71,0,0,0,0,0,0,0,0,0,-1,1042,953,0,0
-175,71,0,0,0,0,0,0,0,0,0,-1,1049,953,0,0
-168,71,0,0,0,0,0,0,0,0,0,-1,1056,953,0,0
-161,71,0,0,0,0,0,0,0,0,0,-1,1063,953,0,0
-154,71,0,0,0,0,0,0,0,0,0,-1,1070,953,0,0
-147,71,0,0,0,0,0,0,0,0,0,-1,1077,953,0,0
-140,71,0,0,0,0,0,0,0,0,0,-1,1084,953,0,0
-133,71,0,0,0,0,0,0,0,0,0,-1,1091,953,0,0
-126,71,0,0,0,0,0,0,0,0,0,-1,1098,953,0,0
-119,71,0,0,0,0,0,0,0,0,0,-1,1105,953,0,0
-112,71,0,0,0,0,0,0,0,0,0,-1,1112,953,0,0
-105,71,0,0,0,0,0,0,0,0,0,-1,1119,953,0,0
-98,71,0,0,0,0,0,0,0,0,0,-1,1126,953,0,0
-91,71,0,0,0,0,0,0,0,0,0,-1,1133,953,0,0
-84,71,0,0,0,0,0,0,0,0,0,-1,1140,953,0,0
-77,71,0,0,0,0,0,0,0,0,0,-1,1147,953,0,0
-70,71,0,0,0,0,0,0,0,0,0,-1,1154,953,0,0
-63,71,0,0,0,0,0,0,0,0,0,-1,1161,953,0,0
-56,71,0,0,0,0,0,0,0,0,0,-1,1168,953,0,0
-49,71,0,0,0,0,0,0,0,0,0,-1,1175,953,0,0
-42,71,0,0,0,0,0,0,0,0,0,-1,1182,953,0,0
-35,71,0,0,0,0,0,0,0,0,0,-1,1189,953,0,0
-28,71,0,0,0,0,0,0,0,0,0,-1,1196,953,0,0
-21,71,0,0,0,0,0,0,0,0,0,-1,1203,953,0,0
-14,71,0,0,0,0,0,0,0,0,0,-1,1210,953,0,0
-7,71,0,0,0,0,0,0,0,0,0,-1,1217,953,0,0
0,71,0,0,0,0,0,0,0,0,0,-1,1224,953,0,0
7,71,0,0,0,0,0,0,0,0,0,-1,1231,953,0,0
14,71,0,0,0,0,0,0,0,0,0,-1,1238,953,0,0
21,71,0,0,0,0,0,0,0,0,0,-1,1245,953,0,0
28,71,0,0,0,0,0,0,0,0,0,-1,1252,953,0,0
35,71,0,0,0,0,0,0,0,0,0,-1,1259,953,0,0
42,71,0,0,0,0,0,0,0,0,0,-1,1266,953,0,0
49,71,0,0,0,0,0,0,0,0,0,-1,1273,953,0,0
56,71,0,0,0,0,0,0,0,0,0,-1,1280,953,0,0
63,71,0,0,0,0,0,0,0,0,0,-1,1287,953,0,0
70,71,0,0,0,0,0,0,0,0,0,-1,1294,953,0,0
77,71,0,0,0,0,0,0,0,0,0,-1,1301,953,0,0
84,71,0,0,0,0,0,0,0,0,0,-1,1308,953,0,0
91,71,0,0,0,0,0,0,0,0,0,-1,1315,953,0,0
98,71,0,0,0,0,0,0,0,0,0,-1,1322,953,0,0
105,71,0,0,0,0,0,0,0,0,0,-1,1329,953,0,0
112,71,0,0,0,0,0,0,0,0,0,-1,1336,953,0,0
119,71,0,0,0,0,0,0,0,0,0,-1,1343,953,0,0
126,71,0,0,0,0,0,0,0,0,0,-1,1350,953,0,0
133,71,0,0,0,0,0,0,0,0,0,-1,1357,953,0,0
140,71,0,0,0,0,0,0,0,0,0,-1,1364,953,0,0
147,71,0,0,0,0,0,0,0,0,0,-1,1371,953,0,0
154,71,0,0,0,0,0,0,0,0,0,-1,1378,953,0,0
161,71,0,0,0,0,0,0,0,0,0,-1,1385,953,0,0
168,71,0,0,0,0,0,0,0,0,0,-1,1392,953,0,0
175,71,0,0,0,0,0,0,0,0,0,-1,1399,953,0,0
182,71,0,0,0,0,0,0,0,0,0,-1,1406,953,0,0
189,71,0,0,0,0,0,0,0,0,0,-1,1413,953,0,0
196,71,0,0,0,0,0,0,0,0,0,-1,1420,953,0,0
203,71,0,0,0,0,0,0,0,0,0,-1,1427,953,0,0
210,71,0,0,0,0,0,0,0,0,0,-1,1434,953,0,0
217,71,0,0,0,0,0,0,0,0,0,-1,1441,953,0,0
224,71,0,0,0,0,0,0,0,0,0,-1,1448,953,0,0
231,71,0,0,0,0,0,0,0,0,0,-1,1455,953,0,0
238,71,0,0,0,0,0,0,0,0,0,-1,1462,953,0,0
245,71,0,0,0,0,0,0,0,0,0,-1,1469,953,0,0
252,71,0,0,0,0,0,0,0,0,0,-1,1476,953,0,0
259,71,0,0,0,0,0,0,0,0,0,-1,1483,953,0,0
266,71,0,0,0,0,0,0,0,0,0,-1,1490,953,0,0
273,71,0,0,0,0,0,0,0,0,0,-1,1497,953,0,0
280,71,0,0,0,0,0,0,0,0,0,-1,1504,953,0,0
287,71,0,0,0,0,0,0,0,0,0,-1,1511,953,0,0
294,71,0,0,0,0,0,0,0,0,0,-1,1518,953,0,0
301,71,0,0,0,0,0,0,0,0,0,-1,1525,953,0,0
308,71,0,0,0,0,0,0,0,0,0,-1,1532,953,0,0
315,71,0,0,0,0,0,0,0,0,0,-1,1539,953,0,0
322,71,0,0,0,0,0,0,0,0,0,-1,1546,953,0,0
329,71,0,0,0,0,0,0,0,0,0,-1,1553,953,0,0
336,71,0,0,0,0,0,0,0,0,0,-1,1560,953,0,0
343,71,0,0,0,0,0,0,0,0,0,-1,1567,953,0,0
350,71,0,0,0,0,0,0,0,0,0,-1,1574,953,0,0
357,71,0,0,0,0,0,0,0,0,0,-1,1581,953,0,0
364,71,0,0,0,0,0,0,0,0,0,-1,1588,953,0,0
371,71,0,0,0,0,0,0,0,0,0,-1,1595,953,0,0
378,71,0,0,0,0,0,0,0,0,0,-1,1602,953,0,0
385,71,0,0,0,0,0,0,0,0,0,-1,1609,953,0,0
392,71,0,0,0,0,0,0,0,0,0,-1,1616,953,0,0
399,71,0,0,0,0,0,0,0,0,0,-1,1623,953,0,0
406,71,0,0,0,0,0,0,0,0,0,-1,1630,953,0,0
413,71,0,0,0,0,0,0,0,0,0,-1,1637,953,0,0
420,71,0,0,0,0,0,0,0,0,0,-1,1644,953,0,0
427,71,0,0,0,0,0,0,0,0,0,-1,1651,953,0,0
434,71,0,0,0,0,0,0,0,0,0,-1,1658,953,0,0
441,71,0,0,0,0,0,0,0,0,0,-1,1665,953,0,0
448,71,0,0,0,0,0,0,0,0,0,-1,1672,953,0,0
455,71,0,0,0,0,0,0,0,0,0,-1,1679,953,0,0
462,71,0,0,0,0,0,0,0,0,0,-1,1686,953,0,0
469,71,0,0,0,0,0,0,0,0,0,-1,1693,953,0,0
476,71,0,0,0,0,0,0,0,0,0,-1,1700,953,0,0
483,71,0,0,0,0,0,0,0,0,0,-1,1707,953,0,0
490,71,0,0,0,0,0,0,0,0,0,-1,1714,953,0,0
497,71,0,0,0,0,0,0,0,0,0,-1,1721,953,0,0
504,71,0,0,0,0,0,0,0,0,0,-1,1728,953,0,0
511,71,0,0,0,0,0,0,0,0,0,-1,1735,953,0,0
518,71,0,0,0,0,0,0,0,0,0,-1,1742,953,0,0
525,71,0,0,0,0,0,0,0,0,0,-1,1749,953,0,0
532,71,0,0,0,0,0,0,0,0,0,-1,1756,953,0,0
539,71,0,0,0,0,0,0,0,0,0,-1,1763,953,0,0
546,71,0,0,0,0,0,0,0,0,0,-1,1770,953,0,0
553,71,0,0,0,0,0,0,0,0,0,-1,1777,953,0,0
560,71,0,0,0,0,0,0,0,0,0,-1,1784,953,0,0
567,71,0,0,0,0,0,0,0,0,0,-1,1791,953,0,0
574,71,0,0,0,0,0,0,0,0,0,-1,1798,953,0,0
581,71,0,0,0,0,0,0,0,0,0,-1,1805,953,0,0
588,71,0,0,0,0,0,0,0,0,0,-1,1812,953,0,0
595,71,0,0,0,0,0,0,0,0,0,-1,1819,953,0,0
602,71,0,0,0,0,0,0,0,0,0,-1,1826,953,0,0
609,71,0,0,0,0,0,0,0,0,0,-1,1833,953,0,0
616,71,0,0,0,0,0,0,0,0,0,-1,1840,953,0,0
623,71,0,0,0,0,0,0,0,0,0,-1,1847,953,0,0
630,71,0,0,0,0,0,0,0,0,0,-1,1854,953,0,0
637,71,76.0562,2.40765,-0.00295733,0.0138045,-0.00368192,0.0145776,-0.00373045,-1.36383,0.0111715,0.0407046,1861,953,76.0561,-2.40766
644,71,75.7987,2.46356,-0.00192806,0.0105866,-0.00239179,0.0110282,-0.00236959,-1.38825,0.00825612,0.0472341,1868,953,75.7987,-2.46356
651,71,75.8328,2.35547,-0.0013855,0.00788921,-0.0012175,0.00804636,-0.00154266,-1.44242,0.00594555,0.0443568,1875,953,75.8328,-2.35547
658,71,75.9355,2.36017,-0.000997465,0.0058177,-0.000185826,0.00582276,-0.00100253,-1.54356,0.00425556,0.0389468,1882,953,75.9356,-2.36017
665,71,75.9581,2.32513,-0.000725239,0.00406926,0.000722512,0.00417577,-0.000831753,1.42443,0.00309853,0.0390889,1889,953,75.9582,-2.32512
672,71,75.8827,2.29901,-0.000973121,0.0024832,0.0015052,0.0030468,-0.00153672,1.21252,0.00269374,0.0409404,1896,953,75.8828,-2.29901
679,71,75.8086,2.42828,-0.00138647,0.00108561,0.00201731,0.00221544,-0.0025163,1.06026,0.00273371,0.0402621,1903,953,75.8086,-2.42827
686,71,75.8068,2.42902,-0.00162299,-4.73544e-05,0.00200099,0.00131532,-0.00298566,0.972936,0.00254483,0.0365835,1910,953,75.8068,-2.42901
693,71,75.8729,2.28625,-0.00190627,-0.0008388,0.0017454,0.000452646,-0.00319772,0.933781,0.0022976,0.0327531,1917,953,75.8729,-2.28628
700,71,75.8749,2.33063,-0.00242516,-0.00121858,0.00137744,-0.000318108,-0.00332564,0.991805,0.00211903,0.0304039,1924,953,75.8749,-2.3306
707,71,75.9071,2.3963,0,0,0,0,0,0,0,-1,1931,953,75.9071,-2.39632
714,71,73.6985,4.7287,0,0,0,0,0,0,0,-1,1938,953,73.6985,-4.72871
721,71,73.3356,5.38776,-0.00454057,0.000391859,-0.00017599,0.000398131,-0.00454684,-1.53518,0.00317228,0.0373432,1945,953,73.3355,-5.38778
728,71,73.0736,6.14197,-0.00445408,0.00152811,-0.000723458,0.00161435,-0.00454033,-1.45214,0.00368483,0.039783,1952,953,73.0736,-6.14197
735,71,73.0626,6.72845,-0.00378214,0.00286793,-0.00162137,0.00324217,-0.00415639,-1.34395,0.00428242,0.0272672,1959,953,73.0627,-6.72845
742,71,73.074,7.21149,-0.00309524,0.0048753,-0.00258744,0.00564157,-0.00386152,-1.28287,0.0055186,0.0258988,1966,953,73.074,-7.21146
749,71,73.0094,7.71124,-0.00193097,0.00766248,-0.00332195,0.00870048,-0.00296896,-1.26794,0.007003,0.0207556,1973,953,73.0095,-7.71127
756,71,72.9309,8.16193,0.00086483,0.0110485,-0.00404055,0.0124569,-0.000543557,-1.2354,0.00849156,0.0181917,1980,953,72.9309,-8.16195
763,71,72.8228,8.65051,0.00583165,0.014681,-0.00479779,0.0167829,0.00372972,-1.15788,0.0101758,0.021953,1987,953,72.8228,-8.65052
770,71,72.5393,9.0863,0.0124082,0.0178625,-0.00567023,0.0214273,0.00884338,-1.00955,0.0124337,0.0257294,1994,953,72.5393,-9.08628
777,71,72.3511,9.72449,0.0206383,0.0203835,-0.00658797,0.0271001,0.0139217,-0.775731,0.0156482,0.045516,2001,953,72.351,-9.72447
784,71,72.8323,9.79529,0.0323074,0.0216912,-0.00772849,0.0363751,0.0176235,-0.484485,0.0210045,0.0497443,2008,953,72.8324,-9.79532
791,71,73.0435,9.8634,0,0,0,0,0,0,0,-1,2015,953,73.0435,-9.86342
798,71,68.2634,9.50574,0,0,0,0,0,0,0,-1,2022,953,68.2634,-9.50571
805,71,59.978,6.41992,0,0,0,0,0,0,0,-1,2029,953,59.9781,-6.41992
812,71,0,0,0,0,0,0,0,0,0,-1,2036,953,0,0
-700,64,0,0,0,0,0,0,0,0,0,-1,524,960,0,0
-693,64,0,0,0,0,0,0,0,0,0,-1,531,960,0,0
-686,64,-60.274,4.05615,0,0,0,0,0,0,0,-1,538,960,-60.2739,-4.05614
-679,64,-59.7413,5.72864,0,0,0,0,0,0,0,-1,545,960,-59.7413,-5.72864
-672,64,-58.6182,6.78094,0,0,0,0,0,0,0,-1,552,960,-58.6182,-6.78093
-665,64,-58.3022,6.2099,0,0,0,0,0,0,0,-1,559,960,-58.3022,-6.20988
-658,64,-57.7641,8.20935,0,0,0,0,0,0,0,-1,566,960,-57.7641,-8.20937
-651,64,-57.1985,9.89673,0,0,0,0,0,0,0,-1,573,960,-57.1985,-9.89672
-644,64,-57.9911,8.60889,-0.0297319,0.00990178,0.00553394,0.01066,-0.0304901,1.43464,0.0246604,0.036849,580,960,-57.9911,-8.6089
-637,64,-58.0593,7.80048,-0.0240573,0.0111995,0.00594511,0.012175,-0.0250328,1.40816,0.0219053,0.0197699,587,960,-58.0593,-7.80048
-630,64,-58.1494,7.32233,-0.0185664,0.0110034,0.00615756,0.0122344,-0.0197974,1.37348,0.0186646,0.0153029,594,960,-58.1494,-7.32232
-623,64,-58.2166,6.85962,-0.0132467,0.00878266,0.00587796,0.0102529,-0.0147169,1.3257,0.0144929,0.0151516,601,960,-58.2166,-6.85962
-616,64,-58.2581,6.3587,-0.00833503,0.00486156,0.00529207,0.00672161,-0.0101951,1.23281,0.00983524,0.0186079,608,960,-58.2581,-6.35868
-609,64,-58.233,5.92761,-0.00413508,-9.29501e-05,0.00472308,0.00302332,-0.00725135,0.987566,0.0060972,0.0190517,615,960,-58.2331,-5.9276
-602,64,-58.2427,5.45319,-0.00104134,-0.00570678,0.00430186,0.00151956,-0.00826769,0.536958,0.00608192,0.0186847,622,960,-58.2428,-5.4532
-595,64,-58.2496,5.00385,8.54245e-06,-0.0130001,0.003944,0.00111088,-0.0141025,0.272544,0.00979296,0.0308562,629,960,-58.2496,-5.00381
-588,64,-58.0581,4.53326,-0.00129092,-0.0201003,0.00341005,-0.000691779,-0.0206995,0.173923,0.0135749,0.0471961,636,960,-58.0581,-4.53325
-581,64,-57.7453,3.92084,0,0,0,0,0,0,0,-1,643,960,-57.7453,-3.92085
-574,64,-59.2761,0.0512085,0,0,0,0,0,0,0,-1,650,960,-59.2761,-0.051237
-567,64,-59.248,0.147705,0,0,0,0,0,0,0,-1,657,960,-59.248,-0.147711
-560,64,-59.2758,0.220337,0,0,0,0,0,0,0,-1,664,960,-59.2758,-0.220321
-553,64,-59.2795,0.33429,0,0,0,0,0,0,0,-1,671,960,-59.2795,-0.334261
-546,64,-59.3006,0.371094,0,0,0,0,0,0,0,-1,678,960,-59.3006,-0.371075
-539,64,-59.3581,0.239746,0,0,0,0,0,0,0,-1,685,960,-59.3581,-0.239756
-532,64,-59.4197,0.115784,0,0,0,0,0,0,0,-1,692,960,-59.4197,-0.115791
-525,64,-59.3929,0.153381,0,0,0,0,0,0,0,-1,699,960,-59.393,-0.153352
-518,64,0,0,0,0,0,0,0,0,0,-1,706,960,0,0
-511,64,0,0,0,0,0,0,0,0,0,-1,713,960,0,0
-504,64,0,0,0,0,0,0,0,0,0,-1,720,960,0,0
-497,64,0,0,0,0,0,0,0,0,0,-1,727,960,0,0
-490,64,0,0,0,0,0,0,0,0,0,-1,734,960,0,0
-483,64,0,0,0,0,0,0,0,0,0,-1,741,960,0,0
-476,64,0,0,0,0,0,0,0,0,0,-1,748,960,0,0
-469,64,0,0,0,0,0,0,0,0,0,-1,755,960,0,0
-462,64,0,0,0,0,0,0,0,0,0,-1,762,960,0,0
-455,64,0,0,0,0,0,0,0,0,0,-1,769,960,0,0
-448,64,0,0,0,0,0,0,0,0,0,-1,776,960,0,0
-441,64,0,0,0,0,0,0,0,0,0,-1,783,960,0,0
-434,64,0,0,0,0,0,0,0,0,0,-1,790,960,0,0
-427,64,0,0,0,0,0,0,0,0,0,-1,797,960,0,0
-420,64,0,0,0,0,0,0,0,0,0,-1,804,960,0,0
-413,64,0,0,0,0,0,0,0,0,0,-1,811,960,0,0
-406,64,0,0,0,0,0,0,0,0,0,-1,818,960,0,0
-399,64,0,0,0,0,0,0,0,0,0,-1,825,960,0,0
-392,64,0,0,0,0,0,0,0,0,0,-1,832,960,0,0
-385,64,0,0,0,0,0,0,0,0,0,-1,839,960,0,0
-378,64,0,0,0,0,0,0,0,0,0,-1,846,960,0,0
-371,64,0,0,0,0,0,0,0,0,0,-1,853,960,0,0
-364,64,0,0,0,0,0,0,0,0,0,-1,860,960,0,0
-357,64,0,0,0,0,0,0,0,0,0,-1,867,960,0,0
-350,64,0,0,0,0,0,0,0,0,0,-1,874,960,0,0
-343,64,0,0,0,0,0,0,0,0,0,-1,881,960,0,0
-336,64,0,0,0,0,0,0,0,0,0,-1,888,960,0,0
-329,64,0,0,0,0,0,0,0,0,0,-1,895,960,0,0
-322,64,0,0,0,0,0,0,0,0,0,-1,902,960,0,0
-315,64,0,0,0,0,0,0,0,0,0,-1,909,960,0,0
-308,64,0,0,0,0,0,0,0,0,0,-1,916,960,0,0
-301,64,0,0,0,0,0,0,0,0,0,-1,923,960,0,0
-294,64,0,0,0,0,0,0,0,0,0,-1,930,960,0,0
-287,64,0,0,0,0,0,0,0,0,0,-1,937,960,0,0
-280,64,0,0,0,0,0,0,0,0,0,-1,944,960,0,0
-273,64,0,0,0,0,0,0,0,0,0,-1,951,960,0,0
-266,64,0,0,0,0,0,0,0,0,0,-1,958,960,0,0
-259,64,0,0,0,0,0,0,0,0,0,-1,965,960,0,0
-252,64,0,0,0,0,0,0,0,0,0,-1,972,960,0,0
-245,64,0,0,0,0,0,0,0,0,0,-1,979,960,0,0
-238,64,0,0,0,0,0,0,0,0,0,-1,986,960,0,0
-231,64,0,0,0,0,0,0,0,0,0,-1,993,960,0,0
-224,64,0,0,0,0,0,0,0,0,0,-1,1000,960,0,0
-217,64,0,0,0,0,0,0,0,0,0,-1,1007,960,0,0
-210,64,0,0,0,0,0,0,0,0,0,-1,1014,960,0,0
-203,64,0,0,0,0,0,0,0,0,0,-1,1021,960,0,0
-196,64,0,0,0,0,0,0,0,0,0,-1,1028,960,0,0
-189,64,0,0,0,0,0,0,0,0,0,-1,1035,960,0,0
-182,64,0,0,0,0,0,0,0,0,0,-1,1042,960,0,0
-175,64,0,0,0,0,0,0,0,0,0,-1,1049,960,0,0
-168,64,0,0,0,0,0,0,0,0,0,-1,1056,960,0,0
-161,64,0,0,0,0,0,0,0,0,0,-1,1063,960,0,0
-154,64,0,0,0,0,0,0,0,0,0,-1,1070,960,0,0
-147,64,0,0,0,0,0,0,0,0,0,-1,1077,960,0,0
-140,64,0,0,0,0,0,0,0,0,0,-1,1084,960,0,0
-133,64,0,0,0,0,0,0,0,0,0,-1,1091,960,0,0
-126,64,0,0,0,0,0,0,0,0,0,-1,1098,960,0,0
-119,64,0,0,0,0,0,0,0,0,0,-1,1105,960,0,0
-112,64,0,0,0,0,0,0,0,0,0,-1,1112,960,0,0
-105,64,0,0,0,0,0,0,0,0,0,-1,1119,960,0,0
-98,64,0,0,0,0,0,0,0,0,0,-1,1126,960,0,0
-91,64,0,0,0,0,0,0,0,0,0,-1,1133,960,0,0
-84,64,0,0,0,0,0,0,0,0,0,-1,1140,960,0,0
-77,64,0,0,0,0,0,0,0,0,0,-1,1147,960,0,0
-70,64,0,0,0,0,0,0,0,0,0,-1,1154,960,0,0
-63,64,0,0,0,0,0,0,0,0,0,-1,1161,960,0,0
-56,64,0,0,0,0,0,0,0,0,0,-1,1168,960,0,0
-49,64,0,0,0,0,0,0,0,0,0,-1,1175,960,0,0
-42,64,0,0,0,0,0,0,0,0,0,-1,1182,960,0,0
-35,64,0,0,0,0,0,0,0,0,0,-1,1189,960,0,0
-28,64,0,0,0,0,0,0,0,0,0,-1,1196,960,0,0
-21,64,0,0,0,0,0,0,0,0,0,-1,1203,960,0,0
-14,64,0,0,0,0,0,0,0,0,0,-1,1210,960,0,0
-7,64,0,0,0,0,0,0,0,0,0,-1,1217,960,0,0
0,64,0,0,0,0,0,0,0,0,0,-1,1224,960,0,0
7,64,0,0,0,0,0,0,0,0,0,-1,1231,960,0,0
14,64,0,0,0,0,0,0,0,0,0,-1,1238,960,0,0
21,64,0,0,0,0,0,0,0,0,0,-1,1245,960,0,0
28,64,0,0,0,0,0,0,0,0,0,-1,1252,960,0,0
35,64,0,0,0,0,0,0,0,0,0,-1,1259,960,0,0
42,64,0,0,0,0,0,0,0,0,0,-1,1266,960,0,0
49,64,0,0,0,0,0,0,0,0,0,-1,1273,960,0,0
56,64,0,0,0,0,0,0,0,0,0,-1,1280,960,0,0
63,64,0,0,0,0,0,0,0,0,0,-1,1287,960,0,0
70,64,0,0,0,0,0,0,0,0,0,-1,1294,960,0,0
77,64,0,0,0,0,0,0,0,0,0,-1,1301,960,0,0
84,64,0,0,0,0,0,0,0,0,0,-1,1308,960,0,0
91,64,0,0,0,0,0,0,0,0,0,-1,1315,960,0,0
98,64,0,0,0,0,0,0,0,0,0,-1,1322,960,0,0
105,64,0,0,0,0,0,0,0,0,0,-1,1329,960,0,0
112,64,0,0,0,0,0,0,0,0,0,-1,1336,960,0,0
119,64,0,0,0,0,0,0,0,0,0,-1,1343,960,0,0
126,64,0,0,0,0,0,0,0,0,0,-1,1350,960,0,0
133,64,0,0,0,0,0,0,0,0,0,-1,1357,960,0,0
140,64,0,0,0,0,0,0,0,0,0,-1,1364,960,0,0
147,64,0,0,0,0,0,0,0,0,0,-1,1371,960,0,0
154,64,0,0,0,0,0,0,0,0,0,-1,1378,960,0,0
161,64,0,0,0,0,0,0,0,0,0,-1,1385,960,0,0
168,64,0,0,0,0,0,0,0,0,0,-1,1392,960,0,0
175,64,0,0,0,0,0,0,0,0,0,-1,1399,960,0,0
182,64,0,0,0,0,0,0,0,0,0,-1,1406,960,0,0
189,64,0,0,0,0,0,0,0,0,0,-1,1413,960,0,0
196,64,0,0,0,0,0,0,0,0,0,-1,1420,960,0,0
203,64,0,0,0,0,0,0,0,0,0,-1,1427,960,0,0
210,64,0,0,0,0,0,0,0,0,0,-1,1434,960,0,0
217,64,0,0,0,0,0,0,0,0,0,-1,1441,960,0,0
224,64,0,0,0,0,0,0,0,0,0,-1,1448,960,0,0
231,64,0,0,0,0,0,0,0,0,0,-1,1455,960,0,0
238,64,0,0,0,0,0,0,0,0,0,-1,1462,960,0,0
245,64,0,0,0,0,0,0,0,0,0,-1,1469,960,0,0
252,64,0,0,0,0,0,0,0,0,0,-1,1476,960,0,0
259,64,0,0,0,0,0,0,0,0,0,-1,1483,960,0,0
266,64,0,0,0,0,0,0,0,0,0,-1,1490,960,0,0
273,64,0,0,0,0,0,0,0,0,0,-1,1497,960,0,0
280,64,0,0,0,0,0,0,0,0,0,-1,1504,960,0,0
287,64,0,0,0,0,0,0,0,0,0,-1,1511,960,0,0
294,64,0,0,0,0,0,0,0,0,0,-1,1518,960,0,0
301,64,0,0,0,0,0,0,0,0,0,-1,1525,960,0,0
308,64,0,0,0,0,0,0,0,0,0,-1,1532,960,0,0
315,64,0,0,0,0,0,0,0,0,0,-1,1539,960,0,0
322,64,0,0,0,0,0,0,0,0,0,-1,1546,960,0,0
329,64,0,0,0,0,0,0,0,0,0,-1,1553,960,0,0
336,64,0,0,0,0,0,0,0,0,0,-1,1560,960,0,0
343,64,0,0,0,0,0,0,0,0,0,-1,1567,960,0,0
350,64,0,0,0,0,0,0,0,0,0,-1,1574,960,0,0
357,64,0,0,0,0,0,0,0,0,0,-1,1581,960,0,0
364,64,0,0,0,0,0,0,0,0,0,-1,1588,960,0,0
371,64,0,0,0,0,0,0,0,0,0,-1,1595,960,0,0
378,64,0,0,0,0,0,0,0,0,0,-1,1602,960,0,0
385,64,0,0,0,0,0,0,0,0,0,-1,1609,960,0,0
392,64,0,0,0,0,0,0,0,0,0,-1,1616,960,0,0
399,64,0,0,0,0,0,0,0,0,0,-1,1623,960,0,0
406,64,0,0,0,0,0,0,0,0,0,-1,1630,960,0,0
413,64,0,0,0,0,0,0,0,0,0,-1,1637,960,0,0
420,64,0,0,0,0,0,0,0,0,0,-1,1644,960,0,0
427,64,0,0,0,0,0,0,0,0,0,-1,1651,960,0,0
434,64,0,0,0,0,0,0,0,0,0,-1,1658,960,0,0
441,64,0,0,0,0,0,0,0,0,0,-1,1665,960,0,0
448,64,0,0,0,0,0,0,0,0,0,-1,1672,960,0,0
455,64,0,0,0,0,0,0,0,0,0,-1,1679,960,0,0
462,64,0,0,0,0,0,0,0,0,0,-1,1686,960,0,0
469,64,0,0,0,0,0,0,0,0,0,-1,1693,960,0,0
476,64,0,0,0,0,0,0,0,0,0,-1,1700,960,0,0
483,64,0,0,0,0,0,0,0,0,0,-1,1707,960,0,0
490,64,0,0,0,0,0,0,0,0,0,-1,1714,960,0,0
497,64,0,0,0,0,0,0,0,0,0,-1,1721,960,0,0
504,64,0,0,0,0,0,0,0,0,0,-1,1728,960,0,0
511,64,0,0,0,0,0,0,0,0,0,-1,1735,960,0,0
518,64,0,0,0,0,0,0,0,0,0,-1,1742,960,0,0
525,64,0,0,0,0,0,0,0,0,0,-1,1749,960,0,0
532,64,0,0,0,0,0,0,0,0,0,-1,1756,960,0,0
539,64,0,0,0,0,0,0,0,0,0,-1,1763,960,0,0
546,64,0,0,0,0,0,0,0,0,0,-1,1770,960,0,0
553,64,0,0,0,0,0,0,0,0,0,-1,1777,960,0,0
560,64,0,0,0,0,0,0,0,0,0,-1,1784,960,0,0
567,64,0,0,0,0,0,0,0,0,0,-1,1791,960,0,0
574,64,0,0,0,0,0,0,0,0,0,-1,1798,960,0,0
581,64,0,0,0,0,0,0,0,0,0,-1,1805,960,0,0
588,64,0,0,0,0,0,0,0,0,0,-1,1812,960,0,0
595,64,0,0,0,0,0,0,0,0,0,-1,1819,960,0,0
602,64,0,0,0,0,0,0,0,0,0,-1,1826,960,0,0
609,64,0,0,0,0,0,0,0,0,0,-1,1833,960,0,0
616,64,0,0,0,0,0,0,0,0,0,-1,1840,960,0,0
623,64,0,0,0,0,0,0,0,0,0,-1,1847,960,0,0
630,64,0,0,0,0,0,0,0,0,0,-1,1854,960,0,0
637,64,0,0,0,0,0,0,0,0,0,-1,1861,960,0,0
644,64,75.8273,2.31799,-0.00230322,0.00927902,-0.00255795,0.00981879,-0.00284299,-1.36283,0.00767118,0.0449368,1868,960,75.8272,-2.318
651,64,75.874,2.39703,-0.00162715,0.00671541,-0.00125268,0.00689945,-0.00181119,-1.42493,0.0053074,0.0455534,1875,960,75.874,-2.39701
658,64,75.9144,2.37891,-0.00114005,0.00483121,-0.00017405,0.00483628,-0.00114512,-1.54168,0.003666,0.0394318,1882,960,75.9145,-2.37893
665,64,75.9617,2.29504,-0.00076885,0.00331929,0.000721774,0.00344298,-0.00089254,1.40108,0.00264354,0.0396038,1889,960,75.9617,-2.29503
672,64,76.0461,2.09692,-0.000871444,0.00196069,0.00148399,0.00259584,-0.00150659,1.16639,0.0023962,0.0437765,1896,960,76.0462,-2.09693
679,64,75.91,2.276,-0.00115403,0.000733209,0.00200488,0.00200543,-0.00242625,1.00535,0.00256248,0.0419524,1903,960,75.91,-2.276
686,64,75.8235,2.43231,-0.00128813,-0.000303146,0.00202219,0.00128566,-0.00287694,0.904845,0.00246112,0.0365345,1910,960,75.8235,-2.4323
693,64,75.8394,2.34576,-0.0015056,-0.00106314,0.00179264,0.000521868,-0.0030906,0.846793,0.00225458,0.0331943,1917,960,75.8393,-2.34579
700,64,75.8737,2.38965,-0.00195703,-0.00139069,0.00144413,-0.000202222,-0.00314549,0.882211,0.00203294,0.0310727,1924,960,75.8736,-2.38963
707,64,75.7356,2.81464,0,0,0,0,0,0,0,-1,1931,960,75.7356,-2.81466
714,64,74.5472,4.96887,0,0,0,0,0,0,0,-1,1938,960,74.5472,-4.96884
721,64,73.8831,5.5329,-0.00418078,0.000491489,-0.000107958,0.000493982,-0.00418328,-1.54771,0.00296725,0.0373156,1945,960,73.8831,-5.5329
728,64,73.5293,6.19135,-0.00425849,0.00178207,-0.000660295,0.00185341,-0.00432983,-1.46318,0.00366409,0.0277974,1952,960,73.5293,-6.19135
735,64,73.4442,6.79651,-0.00375766,0.00322637,-0.00154677,0.0035536,-0.00408489,-1.36231,0.00441364,0.0368968,1959,960,73.4443,-6.79651
742,64,73.5944,7.17529,-0.00342206,0.00534105,-0.00243902,0.00597416,-0.00405517,-1.31683,0.00582566,0.0309457,1966,960,73.5944,-7.17528
749,64,73.5807,7.67114,-0.00285334,0.00824305,-0.00309507,0.00904796,-0.00365825,-1.31637,0.00755272,0.0170955,1973,960,73.5807,-7.67112
756,64,73.5073,8.11694,-0.0010271,0.0119233,-0.00374628,0.0129289,-0.00203274,-1.30854,0.00937062,0.0163418,1980,960,73.5074,-8.11694
763,64,73.4453,8.5799,0.00270589,0.0161706,-0.00441307,0.0174881,0.00138842,-1.28068,0.0112246,0.0195133,1987,960,73.4452,-8.5799
770,64,73.1638,8.93982,0.00799169,0.020203,-0.0051323,0.0220735,0.00612116,-1.2213,0.0131587,0.0201346,1994,960,73.1639,-8.9398
777,64,73.0447,9.37848,0.014577,0.0238129,-0.00577186,0.0265868,0.0118031,-1.12279,0.015382,0.0367762,2001,960,73.0448,-9.37849
784,64,73.2781,9.60443,0.024012,0.0266454,-0.00638183,0.031845,0.0188124,-0.887132,0.0184864,0.0447999,2008,960,73.278,-9.60445
791,64,73.4421,9.94403,0,0,0,0,0,0,0,-1,2015,960,73.442,-9.94405
798,64,70.9221,7.01788,0,0,0,0,0,0,0,-1,2022,960,70.9221,-7.01791
805,64,71.8018,7.16925,0,0,0,0,0,0,0,-1,2029,960,71.8016,-7.16926
812,64,0,0,0,0,0,0,0,0,0,-1,2036,960,0,0
-700,57,0,0,0,0,0,0,0,0,0,-1,524,967,0,0
-693,57,0,0,0,0,0,0,0,0,0,-1,531,967,0,0
-686,57,-53.1282,5.49811,0,0,0,0,0,0,0,-1,538,967,-53.1282,-5.49809
-679,57,-53.1553,5.75092,0,0,0,0,0,0,0,-1,545,967,-53.1553,-5.75094
-672,57,-53.3279,5.89252,0,0,0,0,0,0,0,-1,552,967,-53.3278,-5.89251
-665,57,-59.2086,5.76245,0,0,0,0,0,0,0,-1,559,967,-59.2086,-5.76246
-658,57,-58.6369,7.15204,0,0,0,0,0,0,0,-1,566,967,-58.6369,-7.15206
-651,57,-58.7504,7.38452,0,0,0,0,0,0,0,-1,573,967,-58.7504,-7.3845
-644,57,-58.7089,8.37915,0,0,0,0,0,0,0,-1,580,967,-58.7088,-8.37913
-637,57,-58.6107,7.56628,-0.0236839,0.0134189,0.00608262,0.0143906,-0.0246556,1.41238,0.0228015,0.0215649,587,967,-58.6107,-7.56629
-630,57,-58.7219,7.16626,-0.0181759,0.0123779,0.00609731,0.0135498,-0.0193477,1.38092,0.0190914,0.0142,594,967,-58.7219,-7.16627
-623,57,-58.7766,6.78839,-0.0129783,0.00944515,0.00568755,0.0108053,-0.0143384,1.33607,0.0145644,0.0134479,601,967,-58.7766,-6.7884
-616,57,-58.7664,6.39697,-0.00826497,0.00498454,0.00503561,0.00668113,-0.00996157,1.24582,0.00967068,0.0161888,608,967,-58.7664,-6.39695
-609,57,-58.7697,5.96631,-0.00429848,-0.000384773,0.00441202,0.00248488,-0.00716814,0.994128,0.00578768,0.0171736,615,967,-58.7697,-5.96633
-602,57,-58.772,5.47473,-0.00139161,-0.00639036,0.00393795,0.000773164,-0.00855513,0.50263,0.00597783,0.0120855,622,967,-58.772,-5.47474
-595,57,-58.7532,5.03015,-0.000521569,-0.0142369,0.00351534,0.000326944,-0.0150854,0.236844,0.0101677,0.0229755,629,967,-58.7532,-5.03016
-588,57,-58.4392,4.8382,0,0,0,0,0,0,0,-1,636,967,-58.4392,-4.83822
-581,57,-59.3738,2.58087,0,0,0,0,0,0,0,-1,643,967,-59.3738,-2.58084
-574,57,-59.2191,0.184021,0,0,0,0,0,0,0,-1,650,967,-59.219,-0.184014
-567,57,-59.2574,0.146851,0,0,0,0,0,0,0,-1,657,967,-59.2574,-0.146869
-560,57,-59.2071,0.0689087,0,0,0,0,0,0,0,-1,664,967,-59.2071,-0.0689062
-553,57,-59.2083,0.397156,0,0,0,0,0,0,0,-1,671,967,-59.2082,-0.397148
-546,57,-59.3013,0.546143,0,0,0,0,0,0,0,-1,678,967,-59.3013,-0.546163
-539,57,-59.3953,0.513733,0,0,0,0,0,0,0,-1,685,967,-59.3953,-0.51373
-532,57,-59.4037,0.344666,0,0,0,0,0,0,0,-1,692,967,-59.4037,-0.344695
-525,57,-59.4495,0.183716,0,0,0,0,0,0,0,-1,699,967,-59.4496,-0.183746
-518,57,0,0,0,0,0,0,0,0,0,-1,706,967,0,0
-511,57,0,0,0,0,0,0,0,0,0,-1,713,967,0,0
-504,57,0,0,0,0,0,0,0,0,0,-1,720,967,0,0
-497,57,0,0,0,0,0,0,0,0,0,-1,727,967,0,0
-490,57,0,0,0,0,0,0,0,0,0,-1,734,967,0,0
-483,57,0,0,0,0,0,0,0,0,0,-1,741,967,0,0
-476,57,0,0,0,0,0,0,0,0,0,-1,748,967,0,0
-469,57,0,0,0,0,0,0,0,0,0,-1,755,967,0,0
-462,57,0,0,0,0,0,0,0,0,0,-1,762,967,0,0
-455,57,0,0,0,0,0,0,0,0,0,-1,769,967,0,0
-448,57,0,0,0,0,0,0,0,0,0,-1,776,967,0,0
-441,57,0,0,0,0,0,0,0,0,0,-1,783,967,0,0
-434,57,0,0,0,0,0,0,0,0,0,-1,790,967,0,0
-427,57,0,0,0,0,0,0,0,0,0,-1,797,967,0,0
-420,57,0,0,0,0,0,0,0,0,0,-1,804,967,0,0
-413,57,0,0,0,0,0,0,0,0,0,-1,811,967,0,0
-406,57,0,0,0,0,0,0,0,0,0,-1,818,967,0,0
-399,57,0,0,0,0,0,0,0,0,0,-1,825,967,0,0
-392,57,0,0,0,0,0,0,0,0,0,-1,832,967,0,0
-385,57,0,0,0,0,0,0,0,0,0,-1,839,967,0,0
-378,57,0,0,0,0,0,0,0,0,0,-1,846,967,0,0
-371,57,0,0,0,0,0,0,0,0,0,-1,853,967,0,0
-364,57,0,0,0,0,0,0,0,0,0,-1,860,967,0,0
-357,57,0,0,0,0,0,0,0,0,0,-1,867,967,0,0
-350,57,0,0,0,0,0,0,0,0,0,-1,874,967,0,0
-343,57,0,0,0,0,0,0,0,0,0,-1,881,967,0,0
-336,57,0,0,0,0,0,0,0,0,0,-1,888,967,0,0
-329,57,0,0,0,0,0,0,0,0,0,-1,895,967,0,0
-322,57,0,0,0,0,0,0,0,0,0,-1,902,967,0,0
-315,57,0,0,0,0,0,0,0,0,0,-1,909,967,0,0
-308,57,0,0,0,0,0,0,0,0,0,-1,916,967,0,0
-301,57,0,0,0,0,0,0,0,0,0,-1,923,967,0,0
-294,57,0,0,0,0,0,0,0,0,0,-1,930,967,0,0
-287,57,0,0,0,0,0,0,0,0,0,-1,937,967,0,0
-280,57,0,0,0,0,0,0,0,0,0,-1,944,967,0,0
-273,57,0,0,0,0,0,0,0,0,0,-1,951,967,0,0
-266,57,0,0,0,0,0,0,0,0,0,-1,958,967,0,0
-259,57,0,0,0,0,0,0,0,0,0,-1,965,967,0,0
-252,57,0,0,0,0,0,0,0,0,0,-1,972,967,0,0
-245,57,0,0,0,0,0,0,0,0,0,-1,979,967,0,0
-238,57,0,0,0,0,0,0,0,0,0,-1,986,967,0,0
-231,57,0,0,0,0,0,0,0,0,0,-1,993,967,0,0
-224,57,0,0,0,0,0,0,0,0,0,-1,1000,967,0,0
-217,57,0,0,0,0,0,0,0,0,0,-1,1007,967,0,0
-210,57,0,0,0,0,0,0,0,0,0,-1,1014,967,0,0
-203,57,0,0,0,0,0,0,0,0,0,-1,1021,967,0,0
-196,57,0,0,0,0,0,0,0,0,0,-1,1028,967,0,0
-189,57,0,0,0,0,0,0,0,0,0,-1,1035,967,0,0
-182,57,0,0,0,0,0,0,0,0,0,-1,1042,967,0,0
-175,57,0,0,0,0,0,0,0,0,0,-1,1049,967,0,0
-168,57,0,0,0,0,0,0,0,0,0,-1,1056,967,0,0
-161,57,0,0,0,0,0,0,0,0,0,-1,1063,967,0,0
-154,57,0,0,0,0,0,0,0,0,0,-1,1070,967,0,0
-147,57,0,0,0,0,0,0,0,0,0,-1,1077,967,0,0
-140,57,0,0,0,0,0,0,0,0,0,-1,1084,967,0,0
-133,57,0,0,0,0,0,0,0,0,0,-1,1091,967,0,0
-126,57,0,0,0,0,0,0,0,0,0,-1,1098,967,0,0
-119,57,0,0,0,0,0,0,0,0,0,-1,1105,967,0,0
-112,57,0,0,0,0,0,0,0,0,0,-1,1112,967,0,0
-105,57,0,0,0,0,0,0,0,0,0,-1,1119,967,0,0
-98,57,0,0,0,0,0,0,0,0,0,-1,1126,967,0,0
-91,57,0,0,0,0,0,0,0,0,0,-1,1133,967,0,0
-84,57,0,0,0,0,0,0,0,0,0,-1,1140,967,0,0
-77,57,0,0,0,0,0,0,0,0,0,-1,1147,967,0,0
-70,57,0,0,0,0,0,0,0,0,0,-1,1154,967,0,0
-63,57,0,0,0,0,0,0,0,0,0,-1,1161,967,0,0
-56,57,0,0,0,0,0,0,0,0,0,-1,1168,967,0,0
-49,57,0,0,0,0,0,0,0,0,0,-1,1175,967,0,0
-42,57,0,0,0,0,0,0,0,0,0,-1,1182,967,0,0
-35,57,0,0,0,0,0,0,0,0,0,-1,1189,967,0,0
-28,57,0,0,0,0,0,0,0,0,0,-1,1196,967,0,0
-21,57,0,0,0,0,0,0,0,0,0,-1,1203,967,0,0
-14,57,0,0,0,0,0,0,0,0,0,-1,1210,967,0,0
-7,57,0,0,0,0,0,0,0,0,0,-1,1217,967,0,0
0,57,0,0,0,0,0,0,0,0,0,-1,1224,967,0,0
7,57,0,0,0,0,0,0,0,0,0,-1,1231,967,0,0
14,57,0,0,0,0,0,0,0,0,0,-1,1238,967,0,0
21,57,0,0,0,0,0,0,0,0,0,-1,1245,967,0,0
28,57,0,0,0,0,0,0,0,0,0,-1,1252,967,0,0
35,57,0,0,0,0,0,0,0,0,0,-1,1259,967,0,0
42,57,0,0,0,0,0,0,0,0,0,-1,1266,967,0,0
49,57,0,0,0,0,0,0,0,0,0,-1,1273,967,0,0
56,57,0,0,0,0,0,0,0,0,0,-1,1280,967,0,0
63,57,0,0,0,0,0,0,0,0,0,-1,1287,967,0,0
70,57,0,0,0,0,0,0,0,0,0,-1,1294,967,0,0
77,57,0,0,0,0,0,0,0,0,0,-1,1301,967,0,0
84,57,0,0,0,0,0,0,0,0,0,-1,1308,967,0,0
91,57,0,0,0,0,0,0,0,0,0,-1,1315,967,0,0
98,57,0,0,0,0,0,0,0,0,0,-1,1322,967,0,0
105,57,0,0,0,0,0,0,0,0,0,-1,1329,967,0,0
112,57,0,0,0,0,0,0,0,0,0,-1,1336,967,0,0
119,57,0,0,0,0,0,0,0,0,0,-1,1343,967,0,0
126,57,0,0,0,0,0,0,0,0,0,-1,1350,967,0,0
133,57,0,0,0,0,0,0,0,0,0,-1,1357,967,0,0
140,57,0,0,0,0,0,0,0,0,0,-1,1364,967,0,0
147,57,0,0,0,0,0,0,0,0,0,-1,1371,967,0,0
154,57,0,0,0,0,0,0,0,0,0,-1,1378,967,0,0
161,57,0,0,0,0,0,0,0,0,0,-1,1385,967,0,0
168,57,0,0,0,0,0,0,0,0,0,-1,1392,967,0,0
175,57,0,0,0,0,0,0,0,0,0,-1,1399,967,0,0
182,57,0,0,0,0,0,0,0,0,0,-1,1406,967,0,0
189,57,0,0,0,0,0,0,0,0,0,-1,1413,967,0,0
196,57,0,0,0,0,0,0,0,0,0,-1,1420,967,0,0
203,57,0,0,0,0,0,0,0,0,0,-1,1427,967,0,0
210,57,0,0,0,0,0,0,0,0,0,-1,1434,967,0,0
217,57,0,0,0,0,0,0,0,0,0,-1,1441,967,0,0
224,57,0,0,0,0,0,0,0,0,0,-1,1448,967,0,0
231,57,0,0,0,0,0,0,0,0,0,-1,1455,967,0,0
238,57,0,0,0,0,0,0,0,0,0,-1,1462,967,0,0
245,57,0,0,0,0,0,0,0,0,0,-1,1469,967,0,0
252,57,0,0,0,0,0,0,0,0,0,-1,1476,967,0,0
259,57,0,0,0,0,0,0,0,0,0,-1,1483,967,0,0
266,57,0,0,0,0,0,0,0,0,0,-1,1490,967,0,0
273,57,0,0,0,0,0,0,0,0,0,-1,1497,967,0,0
280,57,0,0,0,0,0,0,0,0,0,-1,1504,967,0,0
287,57,0,0,0,0,0,0,0,0,0,-1,1511,967,0,0
294,57,0,0,0,0,0,0,0,0,0,-1,1518,967,0,0
301,57,0,0,0,0,0,0,0,0,0,-1,1525,967,0,0
308,57,0,0,0,0,0,0,0,0,0,-1,1532,967,0,0
315,57,0,0,0,0,0,0,0,0,0,-1,1539,967,0,0
322,57,0,0,0,0,0,0,0,0,0,-1,1546,967,0,0
329,57,0,0,0,0,0,0,0,0,0,-1,1553,967,0,0
336,57,0,0,0,0,0,0,0,0,0,-1,1560,967,0,0
343,57,0,0,0,0,0,0,0,0,0,-1,1567,967,0,0
350,57,0,0,0,0,0,0,0,0,0,-1,1574,967,0,0
357,57,0,0,0,0,0,0,0,0,0,-1,1581,967,0,0
364,57,0,0,0,0,0,0,0,0,0,-1,1588,967,0,0
371,57,0,0,0,0,0,0,0,0,0,-1,1595,967,0,0
378,57,0,0,0,0,0,0,0,0,0,-1,1602,967,0,0
385,57,0,0,0,0,0,0,0,0,0,-1,1609,967,0,0
392,57,0,0,0,0,0,0,0,0,0,-1,1616,967,0,0
399,57,0,0,0,0,0,0,0,0,0,-1,1623,967,0,0
406,57,0,0,0,0,0,0,0,0,0,-1,1630,967,0,0
413,57,0,0,0,0,0,0,0,0,0,-1,1637,967,0,0
420,57,0,0,0,0,0,0,0,0,0,-1,1644,967,0,0
427,57,0,0,0,0,0,0,0,0,0,-1,1651,967,0,0
434,57,0,0,0,0,0,0,0,0,0,-1,1658,967,0,0
441,57,0,0,0,0,0,0,0,0,0,-1,1665,967,0,0
448,57,0,0,0,0,0,0,0,0,0,-1,1672,967,0,0
455,57,0,0,0,0,0,0,0,0,0,-1,1679,967,0,0
462,57,0,0,0,0,0,0,0,0,0,-1,1686,967,0,0
469,57,0,0,0,0,0,0,0,0,0,-1,1693,967,0,0
476,57,0,0,0,0,0,0,0,0,0,-1,1700,967,0,0
483,57,0,0,0,0,0,0,0,0,0,-1,1707,967,0,0
490,57,0,0,0,0,0,0,0,0,0,-1,1714,967,0,0
497,57,0,0,0,0,0,0,0,0,0,-1,1721,967,0,0
504,57,0,0,0,0,0,0,0,0,0,-1,1728,967,0,0
511,57,0,0,0,0,0,0,0,0,0,-1,1735,967,0,0
518,57,0,0,0,0,0,0,0,0,0,-1,1742,967,0,0
525,57,0,0,0,0,0,0,0,0,0,-1,1749,967,0,0
532,57,0,0,0,0,0,0,0,0,0,-1,1756,967,0,0
539,57,0,0,0,0,0,0,0,0,0,-1,1763,967,0,0
546,57,0,0,0,0,0,0,0,0,0,-1,1770,967,0,0
553,57,0,0,0,0,0,0,0,0,0,-1,1777,967,0,0
560,57,0,0,0,0,0,0,0,0,0,-1,1784,967,0,0
567,57,0,0,0,0,0,0,0,0,0,-1,1791,967,0,0
574,57,0,0,0,0,0,0,0,0,0,-1,1798,967,0,0
581,57,0,0,0,0,0,0,0,0,0,-1,1805,967,0,0
588,57,0,0,0,0,0,0,0,0,0,-1,1812,967,0,0
595,57,0,0,0,0,0,0,0,0,0,-1,1819,967,0,0
602,57,0,0,0,0,0,0,0,0,0,-1,1826,967,0,0
609,57,0,0,0,0,0,0,0,0,0,-1,1833,967,0,0
616,57,0,0,0,0,0,0,0,0,0,-1,1840,967,0,0
623,57,0,0,0,0,0,0,0,0,0,-1,1847,967,0,0
630,57,0,0,0,0,0,0,0,0,0,-1,1854,967,0,0
637,57,0,0,0,0,0,0,0,0,0,-1,1861,967,0,0
644,57,75.823,2.25458,-0.00249982,0.00753982,-0.00277164,0.00825416,-0.00321416,-1.31855,0.00683104,0.0416857,1868,967,75.823,-2.25456
651,57,75.8525,2.38403,-0.00173105,0.00519705,-0.00133404,0.00544505,-0.00197905,-1.38699,0.00443929,0.0379761,1875,967,75.8526,-2.38404
658,57,75.8511,2.39075,-0.0011813,0.0035478,-0.000222617,0.00355826,-0.00119176,-1.52386,0.00285362,0.0358641,1882,967,75.851,-2.39076
665,57,76.0497,2.04669,-0.000741228,0.00230966,0.000642126,0.0024393,-0.000870869,1.37158,0.00198135,0.0402192,1889,967,76.0497,-2.04669
672,57,76.1289,1.76227,-0.000728966,0.0012253,0.00136146,0.00192398,-0.00142766,1.09665,0.00194213,0.0446795,1896,967,76.1289,-1.76224
679,57,75.9642,2.13391,-0.00090074,0.000209291,0.00186686,0.00160189,-0.00229334,0.929887,0.0022607,0.0446046,1903,967,75.9642,-2.1339
686,57,75.8494,2.43713,-0.000950472,-0.000688598,0.00191104,0.00109599,-0.00273506,0.819603,0.00227833,0.040404,1910,967,75.8493,-2.43713
693,57,75.7732,2.46643,-0.00112038,-0.00137699,0.0017096,0.000465728,-0.00296309,0.747943,0.00214754,0.0325397,1917,967,75.7732,-2.46645
700,57,75.8306,2.4054,-0.00151038,-0.00163563,0.0013788,-0.000192787,-0.00295322,0.762705,0.0019078,0.0261037,1924,967,75.8306,-2.4054
707,57,76.0149,2.56885,0,0,0,0,0,0,0,-1,1931,967,76.0149,-2.56884
714,57,72.0231,3.23383,0,0,0,0,0,0,0,-1,1938,967,72.023,-3.23382
721,57,74.5452,5.59631,0,0,0,0,0,0,0,-1,1945,967,74.5452,-5.59631
728,57,74.1243,6.31927,-0.00417049,0.00208037,-0.00065272,0.0021478,-0.00423792,-1.46785,0.00375205,0.0249951,1952,967,74.1243,-6.31925
735,57,74.1149,6.81934,-0.00387865,0.00365126,-0.00148334,0.00393293,-0.00416032,-1.38314,0.00467325,0.0327551,1959,967,74.1148,-6.81931
742,57,74.1621,7.14417,-0.00392109,0.0058658,-0.00227779,0.00636995,-0.00442525,-1.35297,0.00626623,0.0243993,1966,967,74.1621,-7.14415
749,57,74.087,7.63013,-0.00393273,0.00887015,-0.00282368,0.00946525,-0.00452783,-1.36308,0.00824485,0.0161314,1973,967,74.087,-7.6301
756,57,74.0024,8.0639,-0.00301389,0.0127863,-0.00336874,0.0134746,-0.00370215,-1.36926,0.0104383,0.0132964,1980,967,74.0025,-8.06391
763,57,73.8794,8.4679,-0.000464925,0.0175504,-0.00391873,0.0183658,-0.00128042,-1.36562,0.0126923,0.0146344,1987,967,73.8793,-8.46792
770,57,73.717,8.80042,0.00361259,0.0223586,-0.00447576,0.0233724,0.00259879,-1.34805,0.0147916,0.0140063,1994,967,73.7171,-8.80042
777,57,73.5815,9.19812,0.00872834,0.0269429,-0.00483945,0.0281489,0.00752238,-1.32658,0.0168285,0.0299255,2001,967,73.5815,-9.19811
784,57,73.7273,9.47729,0.0162434,0.0311015,-0.00494963,0.0325994,0.0147455,-1.27694,0.0188498,0.0473018,2008,967,73.7273,-9.47728
791,57,73.8213,9.82635,0,0,0,0,0,0,0,-1,2015,967,73.8213,-9.82632
798,57,73.5361,10.7311,0,0,0,0,0,0,0,-1,2022,967,73.5362,-10.7311
805,57,72.4939,10.9913,0,0,0,0,0,0,0,-1,2029,967,72.4939,-10.9913
812,57,0,0,0,0,0,0,0,0,0,-1,2036,967,0,0
-700,50,0,0,0,0,0,0,0,0,0,-1,524,974,0,0
-693,50,-54.0315,0.366699,0,0,0,0,0,0,0,-1,531,974,-54.0315,-0.366708
-686,50,-74.1836,-2.89618,0,0,0,0,0,0,0,-1,538,974,-74.1836,2.89617
-679,50,-52.8586,4.81293,0,0,0,0,0,0,0,-1,545,974,-52.8586,-4.81296
-672,50,-57.1591,3.89862,0,0,0,0,0,0,0,-1,552,974,-57.1591,-3.89863
-665,50,-59.9923,5.35925,0,0,0,0,0,0,0,-1,559,974,-59.9923,-5.35923
-658,50,-58.3775,7.42145,0,0,0,0,0,0,0,-1,566,974,-58.3775,-7.42143
-651,50,-58.689,7.43591,-0.0353574,0.0136357,0.00572588,0.0142959,-0.0360177,1.45599,0.0299374,0.0466745,573,974,-58.689,-7.43594
-644,50,-58.8788,7.56641,-0.0291871,0.0160571,0.00621982,0.0168966,-0.0300266,1.43664,0.0274424,0.0345684,580,974,-58.8788,-7.56639
-637,50,-59.07,7.31281,-0.0233001,0.0156525,0.00625461,0.0166321,-0.0242797,1.41543,0.0237576,0.0202069,587,974,-59.07,-7.31282
-630,50,-59.2083,7.00305,-0.0177527,0.0137512,0.00607912,0.0148836,-0.0188851,1.38664,0.0195419,0.0121125,594,974,-59.2083,-7.00307
-623,50,-59.2539,6.7016,-0.0126746,0.0101185,0.00554518,0.0113959,-0.0139521,1.34437,0.0146595,0.0133702,601,974,-59.2539,-6.70158
-616,50,-59.2611,6.37189,-0.00818707,0.00513784,0.00482859,0.00670361,-0.00975283,1.25723,0.00955534,0.0147014,608,974,-59.2611,-6.3719
-609,50,-59.267,5.94635,-0.00451266,-0.000624359,0.0041487,0.00201313,-0.00715015,1.00451,0.00556064,0.0136615,615,974,-59.267,-5.94634
-602,50,-59.2598,5.51953,-0.00189674,-0.00700126,0.00361454,-2.41925e-05,-0.0088738,0.477991,0.00590782,0.0126953,622,974,-59.2597,-5.51956
-595,50,-59.2823,5.13025,-0.00138911,-0.0153949,0.00310805,-0.000730373,-0.0160536,0.208853,0.0104675,0.0182305,629,974,-59.2823,-5.13025
-588,50,-59.2687,4.5188,0,0,0,0,0,0,0,-1,636,974,-59.2687,-4.51878
-581,50,-59.5363,1.84924,0,0,0,0,0,0,0,-1,643,974,-59.5363,-1.84927
-574,50,-59.6561,-0.479004,0,0,0,0,0,0,0,-1,650,974,-59.6561,0.479019
-567,50,-59.2444,0.142944,0,0,0,0,0,0,0,-1,657,974,-59.2444,-0.142925
-560,50,-59.1902,0.0116577,0,0,0,0,0,0,0,-1,664,974,-59.1902,-0.0116511
-553,50,-59.2704,-0.00286865,0,0,0,0,0,0,0,-1,671,974,-59.2704,0.00285353
-546,50,-59.2801,0.361084,0,0,0,0,0,0,0,-1,678,974,-59.2801,-0.361099
-539,50,-59.2058,0.453125,0,0,0,0,0,0,0,-1,685,974,-59.2058,-0.453103
-532,50,-59.0146,0.445679,0,0,0,0,0,0,0,-1,692,974,-59.0146,-0.445684
-525,50,-59.3355,0.185547,0,0,0,0,0,0,0,-1,699,974,-59.3355,-0.185551
-518,50,0,0,0,0,0,0,0,0,0,-1,706,974,0,0
-511,50,0,0,0,0,0,0,0,0,0,-1,713,974,0,0
-504,50,0,0,0,0,0,0,0,0,0,-1,720,974,0,0
-497,50,0,0,0,0,0,0,0,0,0,-1,727,974,0,0
-490,50,0,0,0,0,0,0,0,0,0,-1,734,974,0,0
-483,50,0,0,0,0,0,0,0,0,0,-1,741,974,0,0
-476,50,0,0,0,0,0,0,0,0,0,-1,748,974,0,0
-469,50,0,0,0,0,0,0,0,0,0,-1,755,974,0,0
-462,50,0,0,0,0,0,0,0,0,0,-1,762,974,0,0
-455,50,0,0,0,0,0,0,0,0,0,-1,769,974,0,0
-448,50,0,0,0,0,0,0,0,0,0,-1,776,974,0,0
-441,50,0,0,0,0,0,0,0,0,0,-1,783,974,0,0
-434,50,0,0,0,0,0,0,0,0,0,-1,790,974,0,0
-427,50,0,0,0,0,0,0,0,0,0,-1,797,974,0,0
-420,50,0,0,0,0,0,0,0,0,0,-1,804,974,0,0
-413,50,0,0,0,0,0,0,0,0,0,-1,811,974,0,0
-406,50,0,0,0,0,0,0,0,0,0,-1,818,974,0,0
-399,50,0,0,0,0,0,0,0,0,0,-1,825,974,0,0
-392,50,0,0,0,0,0,0,0,0,0,-1,832,974,0,0
-385,50,0,0,0,0,0,0,0,0,0,-1,839,974,0,0
-378,50,0,0,0,0,0,0,0,0,0,-1,846,974,0,0
-371,50,0,0,0,0,0,0,0,0,0,-1,853,974,0,0
-364,50,0,0,0,0,0,0,0,0,0,-1,860,974,0,0
-357,50,0,0,0,0,0,0,0,0,0,-1,867,974,0,0
-350,50,0,0,0,0,0,0,0,0,0,-1,874,974,0,0
-343,50,0,0,0,0,0,0,0,0,0,-1,881,974,0,0
-336,50,0,0,0,0,0,0,0,0,0,-1,888,974,0,0
-329,50,0,0,0,0,0,0,0,0,0,-1,895,974,0,0
-322,50,0,0,0,0,0,0,0,0,0,-1,902,974,0,0
-315,50,0,0,0,0,0,0,0,0,0,-1,909,974,0,0
-308,50,0,0,0,0,0,0,0,0,0,-1,916,974,0,0
-301,50,0,0,0,0,0,0,0,0,0,-1,923,974,0,0
-294,50,0,0,0,0,0,0,0,0,0,-1,930,974,0,0
-287,50,0,0,0,0,0,0,0,0,0,-1,937,974,0,0
-280,50,0,0,0,0,0,0,0,0,0,-1,944,974,0,0
-273,50,0,0,0,0,0,0,0,0,0,-1,951,974,0,0
-266,50,0,0,0,0,0,0,0,0,0,-1,958,974,0,0
-259,50,0,0,0,0,0,0,0,0,0,-1,965,974,0,0
-252,50,0,0,0,0,0,0,0,0,0,-1,972,974,0,0
-245,50,0,0,0,0,0,0,0,0,0,-1,979,974,0,0
-238,50,0,0,0,0,0,0,0,0,0,-1,986,974,0,0
-231,50,0,0,0,0,0,0,0,0,0,-1,993,974,0,0
-224,50,0,0,0,0,0,0,0,0,0,-1,1000,974,0,0
-217,50,0,0,0,0,0,0,0,0,0,-1,1007,974,0,0
-210,50,0,0,0,0,0,0,0,0,0,-1,1014,974,0,0
-203,50,0,0,0,0,0,0,0,0,0,-1,1021,974,0,0
-196,50,0,0,0,0,0,0,0,0,0,-1,1028,974,0,0
-189,50,0,0,0,0,0,0,0,0,0,-1,1035,974,0,0
-182,50,0,0,0,0,0,0,0,0,0,-1,1042,974,0,0
-175,50,0,0,0,0,0,0,0,0,0,-1,1049,974,0,0
-168,50,0,0,0,0,0,0,0,0,0,-1,1056,974,0,0
-161,50,0,0,0,0,0,0,0,0,0,-1,1063,974,0,0
-154,50,0,0,0,0,0,0,0,0,0,-1,1070,974,0,0
-147,50,0,0,0,0,0,0,0,0,0,-1,1077,974,0,0
-140,50,0,0,0,0,0,0,0,0,0,-1,1084,974,0,0
-133,50,0,0,0,0,0,0,0,0,0,-1,1091,974,0,0
-126,50,0,0,0,0,0,0,0,0,0,-1,1098,974,0,0
-119,50,0,0,0,0,0,0,0,0,0,-1,1105,974,0,0
-112,50,0,0,0,0,0,0,0,0,0,-1,1112,974,0,0
-105,50,0,0,0,0,0,0,0,0,0,-1,1119,974,0,0
-98,50,0,0,0,0,0,0,0,0,0,-1,1126,974,0,0
-91,50,0,0,0,0,0,0,0,0,0,-1,1133,974,0,0
-84,50,0,0,0,0,0,0,0,0,0,-1,1140,974,0,0
-77,50,0,0,0,0,0,0,0,0,0,-1,1147,974,0,0
-70,50,0,0,0,0,0,0,0,0,0,-1,1154,974,0,0
-63,50,0,0,0,0,0,0,0,0,0,-1,1161,974,0,0
-56,50,0,0,0,0,0,0,0,0,0,-1,1168,974,0,0
-49,50,0,0,0,0,0,0,0,0,0,-1,1175,974,0,0
-42,50,0,0,0,0,0,0,0,0,0,-1,1182,974,0,0
-35,50,0,0,0,0,0,0,0,0,0,-1,1189,974,0,0
-28,50,0,0,0,0,0,0,0,0,0,-1,1196,974,0,0
-21,50,0,0,0,0,0,0,0,0,0,-1,1203,974,0,0
-14,50,0,0,0,0,0,0,0,0,0,-1,1210,974,0,0
-7,50,0,0,0,0,0,0,0,0,0,-1,1217,974,0,0
0,50,0,0,0,0,0,0,0,0,0,-1,1224,974,0,0
7,50,0,0,0,0,0,0,0,0,0,-1,1231,974,0,0
14,50,0,0,0,0,0,0,0,0,0,-1,1238,974,0,0
21,50,0,0,0,0,0,0,0,0,0,-1,1245,974,0,0
28,50,0,0,0,0,0,0,0,0,0,-1,1252,974,0,0
35,50,0,0,0,0,0,0,0,0,0,-1,1259,974,0,0
42,50,0,0,0,0,0,0,0,0,0,-1,1266,974,0,0
49,50,0,0,0,0,0,0,0,0,0,-1,1273,974,0,0
56,50,0,0,0,0,0,0,0,0,0,-1,1280,974,0,0
63,50,0,0,0,0,0,0,0,0,0,-1,1287,974,0,0
70,50,0,0,0,0,0,0,0,0,0,-1,1294,974,0,0
77,50,0,0,0,0,0,0,0,0,0,-1,1301,974,0,0
84,50,0,0,0,0,0,0,0,0,0,-1,1308,974,0,0
91,50,0,0,0,0,0,0,0,0,0,-1,1315,974,0,0
98,50,0,0,0,0,0,0,0,0,0,-1,1322,974,0,0
105,50,0,0,0,0,0,0,0,0,0,-1,1329,974,0,0
112,50,0,0,0,0,0,0,0,0,0,-1,1336,974,0,0
119,50,0,0,0,0,0,0,0,0,0,-1,1343,974,0,0
126,50,0,0,0,0,0,0,0,0,0,-1,1350,974,0,0
133,50,0,0,0,0,0,0,0,0,0,-1,1357,974,0,0
140,50,0,0,0,0,0,0,0,0,0,-1,1364,974,0,0
147,50,0,0,0,0,0,0,0,0,0,-1,1371,974,0,0
154,50,0,0,0,0,0,0,0,0,0,-1,1378,974,0,0
161,50,0,0,0,0,0,0,0,0,0,-1,1385,974,0,0
168,50,0,0,0,0,0,0,0,0,0,-1,1392,974,0,0
175,50,0,0,0,0,0,0,0,0,0,-1,1399,974,0,0
182,50,0,0,0,0,0,0,0,0,0,-1,1406,974,0,0
189,50,0,0,0,0,0,0,0,0,0,-1,1413,974,0,0
196,50,0,0,0,0,0,0,0,0,0,-1,1420,974,0,0
203,50,0,0,0,0,0,0,0,0,0,-1,1427,974,0,0
210,50,0,0,0,0,0,0,0,0,0,-1,1434,974,0,0
217,50,0,0,0,0,0,0,0,0,0,-1,1441,974,0,0
224,50,0,0,0,0,0,0,0,0,0,-1,1448,974,0,0
231,50,0,0,0,0,0,0,0,0,0,-1,1455,974,0,0
238,50,0,0,0,0,0,0,0,0,0,-1,1462,974,0,0
245,50,0,0,0,0,0,0,0,0,0,-1,1469,974,0,0
252,50,0,0,0,0,0,0,0,0,0,-1,1476,974,0,0
259,50,0,0,0,0,0,0,0,0,0,-1,1483,974,0,0
266,50,0,0,0,0,0,0,0,0,0,-1,1490,974,0,0
273,50,0,0,0,0,0,0,0,0,0,-1,1497,974,0,0
280,50,0,0,0,0,0,0,0,0,0,-1,1504,974,0,0
287,50,0,0,0,0,0,0,0,0,0,-1,1511,974,0,0
294,50,0,0,0,0,0,0,0,0,0,-1,1518,974,0,0
301,50,0,0,0,0,0,0,0,0,0,-1,1525,974,0,0
308,50,0,0,0,0,0,0,0,0,0,-1,1532,974,0,0
315,50,0,0,0,0,0,0,0,0,0,-1,1539,974,0,0
322,50,0,0,0,0,0,0,0,0,0,-1,1546,974,0,0
329,50,0,0,0,0,0,0,0,0,0,-1,1553,974,0,0
336,50,0,0,0,0,0,0,0,0,0,-1,1560,974,0,0
343,50,0,0,0,0,0,0,0,0,0,-1,1567,974,0,0
350,50,0,0,0,0,0,0,0,0,0,-1,1574,974,0,0
357,50,0,0,0,0,0,0,0,0,0,-1,1581,974,0,0
364,50,0,0,0,0,0,0,0,0,0,-1,1588,974,0,0
371,50,0,0,0,0,0,0,0,0,0,-1,1595,974,0,0
378,50,0,0,0,0,0,0,0,0,0,-1,1602,974,0,0
385,50,0,0,0,0,0,0,0,0,0,-1,1609,974,0,0
392,50,0,0,0,0,0,0,0,0,0,-1,1616,974,0,0
399,50,0,0,0,0,0,0,0,0,0,-1,1623,974,0,0
406,50,0,0,0,0,0,0,0,0,0,-1,1630,974,0,0
413,50,0,0,0,0,0,0,0,0,0,-1,1637,974,0,0
420,50,0,0,0,0,0,0,0,0,0,-1,1644,974,0,0
427,50,0,0,0,0,0,0,0,0,0,-1,1651,974,0,0
434,50,0,0,0,0,0,0,0,0,0,-1,1658,974,0,0
441,50,0,0,0,0,0,0,0,0,0,-1,1665,974,0,0
448,50,0,0,0,0,0,0,0,0,0,-1,1672,974,0,0
455,50,0,0,0,0,0,0,0,0,0,-1,1679,974,0,0
462,50,0,0,0,0,0,0,0,0,0,-1,1686,974,0,0
469,50,0,0,0,0,0,0,0,0,0,-1,1693,974,0,0
476,50,0,0,0,0,0,0,0,0,0,-1,1700,974,0,0
483,50,0,0,0,0,0,0,0,0,0,-1,1707,974,0,0
490,50,0,0,0,0,0,0,0,0,0,-1,1714,974,0,0
497,50,0,0,0,0,0,0,0,0,0,-1,1721,974,0,0
504,50,0,0,0,0,0,0,0,0,0,-1,1728,974,0,0
511,50,0,0,0,0,0,0,0,0,0,-1,1735,974,0,0
518,50,0,0,0,0,0,0,0,0,0,-1,1742,974,0,0
525,50,0,0,0,0,0,0,0,0,0,-1,1749,974,0,0
532,50,0,0,0,0,0,0,0,0,0,-1,1756,974,0,0
539,50,0,0,0,0,0,0,0,0,0,-1,1763,974,0,0
546,50,0,0,0,0,0,0,0,0,0,-1,1770,974,0,0
553,50,0,0,0,0,0,0,0,0,0,-1,1777,974,0,0
560,50,0,0,0,0,0,0,0,0,0,-1,1784,974,0,0
567,50,0,0,0,0,0,0,0,0,0,-1,1791,974,0,0
574,50,0,0,0,0,0,0,0,0,0,-1,1798,974,0,0
581,50,0,0,0,0,0,0,0,0,0,-1,1805,974,0,0
588,50,0,0,0,0,0,0,0,0,0,-1,1812,974,0,0
595,50,0,0,0,0,0,0,0,0,0,-1,1819,974,0,0
602,50,0,0,0,0,0,0,0,0,0,-1,1826,974,0,0
609,50,0,0,0,0,0,0,0,0,0,-1,1833,974,0,0
616,50,0,0,0,0,0,0,0,0,0,-1,1840,974,0,0
623,50,0,0,0,0,0,0,0,0,0,-1,1847,974,0,0
630,50,0,0,0,0,0,0,0,0,0,-1,1854,974,0,0
637,50,0,0,0,0,0,0,0,0,0,-1,1861,974,0,0
644,50,75.8721,2.38739,-0.00270472,0.00585415,-0.00318503,0.00690932,-0.00375988,-1.25089,0.00624868,0.0379081,1868,974,75.872,-2.38737
651,50,75.7526,2.3396,-0.00189752,0.00384414,-0.00154741,0.00423462,-0.002288,-1.32361,0.00382133,0.033228,1875,974,75.7525,-2.33961
658,50,75.6918,2.34369,-0.00130743,0.00246554,-0.000368525,0.00250119,-0.00134309,-1.47434,0.00225282,0.0379225,1882,974,75.6918,-2.34371
665,50,75.834,2.18604,-0.000802691,0.00148205,0.000482209,0.00157965,-0.000900294,1.37108,0.00144959,0.0408123,1889,974,75.834,-2.18602
672,50,75.9688,1.91083,-0.000659011,0.000657149,0.00116275,0.00133513,-0.00133699,1.04291,0.00154275,0.0425233,1896,974,75.9688,-1.91084
679,50,75.8114,2.2359,-0.000689504,-0.000155112,0.00164204,0.00124133,-0.00208595,0.866052,0.00194153,0.0436175,1903,974,75.8115,-2.2359
686,50,75.7211,2.34766,-0.000636216,-0.000929725,0.00170773,0.000931056,-0.002497,0.742536,0.00204686,0.043207,1910,974,75.7211,-2.34768
693,50,75.6888,2.46375,-0.000733636,-0.00155291,0.00153387,0.000444354,-0.0027309,0.654913,0.00198536,0.0383794,1917,974,75.6888,-2.46374
700,50,75.7617,2.39648,-0.00104159,-0.00175057,0.00121969,-0.000125918,-0.00266624,0.643976,0.00173704,0.0224891,1924,974,75.7618,-2.39651
707,50,75.8523,2.31769,-0.00160546,-0.00130177,0.000752149,-0.000686292,-0.00222094,0.884998,0.00131307,0.0345858,1931,974,75.8523,-2.31769
714,50,75.8073,2.22504,0,0,0,0,0,0,0,-1,1938,974,75.8072,-2.22505
721,50,74.632,5.88373,0,0,0,0,0,0,0,-1,1945,974,74.632,-5.88376
728,50,74.6565,6.32928,-0.00414244,0.00238145,-0.000697889,0.00245527,-0.00421626,-1.46541,0.00389628,0.0211217,1952,974,74.6565,-6.32927
735,50,74.6821,6.80817,-0.00411195,0.00408571,-0.00143448,0.00432948,-0.00435572,-1.40247,0.00501441,0.0224491,1959,974,74.6821,-6.80818
742,50,74.6958,7.23846,-0.00457243,0.00638483,-0.00211733,0.00677974,-0.00496734,-1.3864,0.00680903,0.0188936,1966,974,74.6958,-7.23845
749,50,74.5853,7.59192,-0.00516194,0.00945244,-0.00254686,0.00988357,-0.00559306,-1.40311,0.00904917,0.0192447,1973,974,74.5853,-7.59194
756,50,74.4707,7.96344,-0.00509418,0.0135316,-0.0029626,0.0139915,-0.00555405,-1.4168,0.0116298,0.016207,1980,974,74.4708,-7.96346
763,50,74.3477,8.33594,-0.00368891,0.0187012,-0.00338083,0.0192005,-0.00418827,-1.42415,0.0144009,0.0162326,1987,974,74.3477,-8.33595
770,50,74.21,8.64325,-0.000779121,0.0242076,-0.00377298,0.0247649,-0.00133641,-1.42415,0.016973,0.015125,1994,974,74.21,-8.64323
777,50,74.1465,9.02795,0.0030024,0.0296794,-0.0038822,0.0302329,0.00244892,-1.42918,0.0193906,0.0264253,2001,974,74.1465,-9.02794
784,50,74.2412,9.43622,0.00883614,0.0350324,-0.00355705,0.0355068,0.00836174,-1.43821,0.0214347,0.0432747,2008,974,74.2411,-9.43619
791,50,74.3281,9.89838,0,0,0,0,0,0,0,-1,2015,974,74.3282,-9.89838
798,50,74.7449,10.7426,0,0,0,0,0,0,0,-1,2022,974,74.745,-10.7426
805,50,75.4502,11.3271,0,0,0,0,0,0,0,-1,2029,974,75.4501,-11.3271
812,50,0,0,0,0,0,0,0,0,0,-1,2036,974,0,0
-700,43,0,0,0,0,0,0,0,0,0,-1,524,981,0,0
-693,43,-73.9099,-5.63873,0,0,0,0,0,0,0,-1,531,981,-73.9099,5.63874
-686,43,-73.2479,-2.8576,0,0,0,0,0,0,0,-1,538,981,-73.2479,2.85763
-679,43,-72.5858,-0.0765381,0,0,0,0,0,0,0,-1,545,981,-72.5858,0.0765161
-672,43,-54.7086,-1.5506,0,0,0,0,0,0,0,-1,552,981,-54.7086,1.55062
-665,43,-55.2656,-1.75293,0,0,0,0,0,0,0,-1,559,981,-55.2656,1.75292
-658,43,-58.5523,7.91919,0,0,0,0,0,0,0,-1,566,981,-58.5523,-7.91916
-651,43,-58.949,7.65576,-0.0355722,0.0178449,0.00616598,0.0185474,-0.0362747,1.45735,0.0321984,0.0439619,573,981,-58.9489,-7.65579
-644,43,-59.3248,7.3819,-0.0287272,0.019128,0.00622292,0.019924,-0.0295232,1.44358,0.0287271,0.0255456,580,981,-59.3248,-7.38187
-637,43,-59.5265,7.11493,-0.0227463,0.0177286,0.00599905,0.0185991,-0.0236168,1.42671,0.0244307,0.0189302,587,981,-59.5265,-7.11493
-630,43,-59.5963,6.87537,-0.0172034,0.0149094,0.00565137,0.015875,-0.0181689,1.40158,0.0196701,0.0150921,594,981,-59.5963,-6.87535
-623,43,-59.6213,6.61249,-0.0122431,0.0105416,0.00503415,0.0116043,-0.0133058,1.36275,0.0143931,0.0142467,601,981,-59.6213,-6.61248
-616,43,-59.647,6.28168,-0.00795516,0.00499926,0.00430699,0.00630051,-0.00925641,1.27739,0.00903567,0.0143383,608,981,-59.647,-6.28169
-609,43,-59.662,5.91949,-0.0045084,-0.00121978,0.00364,0.00113007,-0.00685825,0.997546,0.00499168,0.0159544,615,981,-59.662,-5.91947
-602,43,-59.639,5.57007,-0.00208649,-0.0080154,0.00311945,-0.000747578,-0.00935431,0.405434,0.00600255,0.0173349,622,981,-59.639,-5.57009
-595,43,-59.7928,5.27148,-0.00180696,-0.0170029,0.00263071,-0.00136443,-0.0174454,0.16666,0.0112032,0.0198683,629,981,-59.7928,-5.27147
-588,43,-60.1075,5.0979,0,0,0,0,0,0,0,-1,636,981,-60.1075,-5.09788
-581,43,-59.6989,1.11768,0,0,0,0,0,0,0,-1,643,981,-59.6989,-1.1177
-574,43,-59.2077,0.168518,0,0,0,0,0,0,0,-1,650,981,-59.2077,-0.168524
-567,43,-59.1868,0.140259,0,0,0,0,0,0,0,-1,657,981,-59.1868,-0.140259
-560,43,-59.142,0.0767212,0,0,0,0,0,0,0,-1,664,981,-59.142,-0.0767484
-553,43,-59.25,0.108215,0,0,0,0,0,0,0,-1,671,981,-59.25,-0.108244
-546,43,-59.1761,0.365173,0,0,0,0,0,0,0,-1,678,981,-59.1761,-0.365181
-539,43,-59.1536,0.494202,0,0,0,0,0,0,0,-1,685,981,-59.1536,-0.49423
-532,43,-59.108,0.317505,0,0,0,0,0,0,0,-1,692,981,-59.108,-0.317533
-525,43,-59.169,0.097168,0,0,0,0,0,0,0,-1,699,981,-59.169,-0.0971693
-518,43,0,0,0,0,0,0,0,0,0,-1,706,981,0,0
-511,43,0,0,0,0,0,0,0,0,0,-1,713,981,0,0
-504,43,0,0,0,0,0,0,0,0,0,-1,720,981,0,0
-497,43,0,0,0,0,0,0,0,0,0,-1,727,981,0,0
-490,43,0,0,0,0,0,0,0,0,0,-1,734,981,0,0
-483,43,0,0,0,0,0,0,0,0,0,-1,741,981,0,0
-476,43,0,0,0,0,0,0,0,0,0,-1,748,981,0,0
-469,43,0,0,0,0,0,0,0,0,0,-1,755,981,0,0
-462,43,0,0,0,0,0,0,0,0,0,-1,762,981,0,0
-455,43,0,0,0,0,0,0,0,0,0,-1,769,981,0,0
-448,43,0,0,0,0,0,0,0,0,0,-1,776,981,0,0
-441,43,0,0,0,0,0,0,0,0,0,-1,783,981,0,0
-434,43,0,0,0,0,0,0,0,0,0,-1,790,981,0,0
-427,43,0,0,0,0,0,0,0,0,0,-1,797,981,0,0
-420,43,0,0,0,0,0,0,0,0,0,-1,804,981,0,0
-413,43,0,0,0,0,0,0,0,0,0,-1,811,981,0,0
-406,43,0,0,0,0,0,0,0,0,0,-1,818,981,0,0
-399,43,0,0,0,0,0,0,0,0,0,-1,825,981,0,0
-392,43,0,0,0,0,0,0,0,0,0,-1,832,981,0,0
-385,43,0,0,0,0,0,0,0,0,0,-1,839,981,0,0
-378,43,0,0,0,0,0,0,0,0,0,-1,846,981,0,0
-371,43,0,0,0,0,0,0,0,0,0,-1,853,981,0,0
-364,43,0,0,0,0,0,0,0,0,0,-1,860,981,0,0
-357,43,0,0,0,0,0,0,0,0,0,-1,867,981,0,0
-350,43,0,0,0,0,0,0,0,0,0,-1,874,981,0,0
-343,43,0,0,0,0,0,0,0,0,0,-1,881,981,0,0
-336,43,0,0,0,0,0,0,0,0,0,-1,888,981,0,0
-329,43,0,0,0,0,0,0,0,0,0,-1,895,981,0,0
-322,43,0,0,0,0,0,0,0,0,0,-1,902,981,0,0
-315,43,0,0,0,0,0,0,0,0,0,-1,909,981,0,0
-308,43,0,0,0,0,0,0,0,0,0,-1,916,981,0,0
-301,43,0,0,0,0,0,0,0,0,0,-1,923,981,0,0
-294,43,0,0,0,0,0,0,0,0,0,-1,930,981,0,0
-287,43,0,0,0,0,0,0,0,0,0,-1,937,981,0,0
-280,43,0,0,0,0,0,0,0,0,0,-1,944,981,0,0
-273,43,0,0,0,0,0,0,0,0,0,-1,951,981,0,0
-266,43,0,0,0,0,0,0,0,0,0,-1,958,981,0,0
-259,43,0,0,0,0,0,0,0,0,0,-1,965,981,0,0
-252,43,0,0,0,0,0,0,0,0,0,-1,972,981,0,0
-245,43,0,0,0,0,0,0,0,0,0,-1,979,981,0,0
-238,43,0,0,0,0,0,0,0,0,0,-1,986,981,0,0
-231,43,0,0,0,0,0,0,0,0,0,-1,993,981,0,0
-224,43,0,0,0,0,0,0,0,0,0,-1,1000,981,0,0
-217,43,0,0,0,0,0,0,0,0,0,-1,1007,981,0,0
-210,43,0,0,0,0,0,0,0,0,0,-1,1014,981,0,0
-203,43,0,0,0,0,0,0,0,0,0,-1,1021,981,0,0
-196,43,0,0,0,0,0,0,0,0,0,-1,1028,981,0,0
-189,43,0,0,0,0,0,0,0,0,0,-1,1035,981,0,0
-182,43,0,0,0,0,0,0,0,0,0,-1,1042,981,0,0
-175,43,0,0,0,0,0,0,0,0,0,-1,1049,981,0,0
-168,43,0,0,0,0,0,0,0,0,0,-1,1056,981,0,0
-161,43,0,0,0,0,0,0,0,0,0,-1,1063,981,0,0
-154,43,0,0,0,0,0,0,0,0,0,-1,1070,981,0,0
-147,43,0,0,0,0,0,0,0,0,0,-1,1077,981,0,0
-140,43,0,0,0,0,0,0,0,0,0,-1,1084,981,0,0
-133,43,0,0,0,0,0,0,0,0,0,-1,1091,981,0,0
-126,43,0,0,0,0,0,0,0,0,0,-1,1098,981,0,0
-119,43,0,0,0,0,0,0,0,0,0,-1,1105,981,0,0
-112,43,0,0,0,0,0,0,0,0,0,-1,1112,981,0,0
-105,43,0,0,0,0,0,0,0,0,0,-1,1119,981,0,0
-98,43,0,0,0,0,0,0,0,0,0,-1,1126,981,0,0
-91,43,0,0,0,0,0,0,0,0,0,-1,1133,981,0,0
-84,43,0,0,0,0,0,0,0,0,0,-1,1140,981,0,0
-77,43,0,0,0,0,0,0,0,0,0,-1,1147,981,0,0
-70,43,0,0,0,0,0,0,0,0,0,-1,1154,981,0,0
-63,43,0,0,0,0,0,0,0,0,0,-1,1161,981,0,0
-56,43,0,0,0,0,0,0,0,0,0,-1,1168,981,0,0
-49,43,0,0,0,0,0,0,0,0,0,-1,1175,981,0,0
-42,43,0,0,0,0,0,0,0,0,0,-1,1182,981,0,0
-35,43,0,0,0,0,0,0,0,0,0,-1,1189,981,0,0
-28,43,0,0,0,0,0,0,0,0,0,-1,1196,981,0,0
-21,43,0,0,0,0,0,0,0,0,0,-1,1203,981,0,0
-14,43,0,0,0,0,0,0,0,0,0,-1,1210,981,0,0
-7,43,0,0,0,0,0,0,0,0,0,-1,1217,981,0,0
0,43,0,0,0,0,0,0,0,0,0,-1,1224,981,0,0
7,43,0,0,0,0,0,0,0,0,0,-1,1231,981,0,0
14,43,0,0,0,0,0,0,0,0,0,-1,1238,981,0,0
21,43,0,0,0,0,0,0,0,0,0,-1,1245,981,0,0
28,43,0,0,0,0,0,0,0,0,0,-1,1252,981,0,0
35,43,0,0,0,0,0,0,0,0,0,-1,1259,981,0,0
42,43,0,0,0,0,0,0,0,0,0,-1,1266,981,0,0
49,43,0,0,0,0,0,0,0,0,0,-1,1273,981,0,0
56,43,0,0,0,0,0,0,0,0,0,-1,1280,981,0,0
63,43,0,0,0,0,0,0,0,0,0,-1,1287,981,0,0
70,43,0,0,0,0,0,0,0,0,0,-1,1294,981,0,0
77,43,0,0,0,0,0,0,0,0,0,-1,1301,981,0,0
84,43,0,0,0,0,0,0,0,0,0,-1,1308,981,0,0
91,43,0,0,0,0,0,0,0,0,0,-1,1315,981,0,0
98,43,0,0,0,0,0,0,0,0,0,-1,1322,981,0,0
105,43,0,0,0,0,0,0,0,0,0,-1,1329,981,0,0
112,43,0,0,0,0,0,0,0,0,0,-1,1336,981,0,0
119,43,0,0,0,0,0,0,0,0,0,-1,1343,981,0,0
126,43,0,0,0,0,0,0,0,0,0,-1,1350,981,0,0
133,43,0,0,0,0,0,0,0,0,0,-1,1357,981,0,0
140,43,0,0,0,0,0,0,0,0,0,-1,1364,981,0,0
147,43,0,0,0,0,0,0,0,0,0,-1,1371,981,0,0
154,43,0,0,0,0,0,0,0,0,0,-1,1378,981,0,0
161,43,0,0,0,0,0,0,0,0,0,-1,1385,981,0,0
168,43,0,0,0,0,0,0,0,0,0,-1,1392,981,0,0
175,43,0,0,0,0,0,0,0,0,0,-1,1399,981,0,0
182,43,0,0,0,0,0,0,0,0,0,-1,1406,981,0,0
189,43,0,0,0,0,0,0,0,0,0,-1,1413,981,0,0
196,43,0,0,0,0,0,0,0,0,0,-1,1420,981,0,0
203,43,0,0,0,0,0,0,0,0,0,-1,1427,981,0,0
210,43,0,0,0,0,0,0,0,0,0,-1,1434,981,0,0
217,43,0,0,0,0,0,0,0,0,0,-1,1441,981,0,0
224,43,0,0,0,0,0,0,0,0,0,-1,1448,981,0,0
231,43,0,0,0,0,0,0,0,0,0,-1,1455,981,0,0
238,43,0,0,0,0,0,0,0,0,0,-1,1462,981,0,0
245,43,0,0,0,0,0,0,0,0,0,-1,1469,981,0,0
252,43,0,0,0,0,0,0,0,0,0,-1,1476,981,0,0
259,43,0,0,0,0,0,0,0,0,0,-1,1483,981,0,0
266,43,0,0,0,0,0,0,0,0,0,-1,1490,981,0,0
273,43,0,0,0,0,0,0,0,0,0,-1,1497,981,0,0
280,43,0,0,0,0,0,0,0,0,0,-1,1504,981,0,0
287,43,0,0,0,0,0,0,0,0,0,-1,1511,981,0,0
294,43,0,0,0,0,0,0,0,0,0,-1,1518,981,0,0
301,43,0,0,0,0,0,0,0,0,0,-1,1525,981,0,0
308,43,0,0,0,0,0,0,0,0,0,-1,1532,981,0,0
315,43,0,0,0,0,0,0,0,0,0,-1,1539,981,0,0
322,43,0,0,0,0,0,0,0,0,0,-1,1546,981,0,0
329,43,0,0,0,0,0,0,0,0,0,-1,1553,981,0,0
336,43,0,0,0,0,0,0,0,0,0,-1,1560,981,0,0
343,43,0,0,0,0,0,0,0,0,0,-1,1567,981,0,0
350,43,0,0,0,0,0,0,0,0,0,-1,1574,981,0,0
357,43,0,0,0,0,0,0,0,0,0,-1,1581,981,0,0
364,43,0,0,0,0,0,0,0,0,0,-1,1588,981,0,0
371,43,0,0,0,0,0,0,0,0,0,-1,1595,981,0,0
378,43,0,0,0,0,0,0,0,0,0,-1,1602,981,0,0
385,43,0,0,0,0,0,0,0,0,0,-1,1609,981,0,0
392,43,0,0,0,0,0,0,0,0,0,-1,1616,981,0,0
399,43,0,0,0,0,0,0,0,0,0,-1,1623,981,0,0
406,43,0,0,0,0,0,0,0,0,0,-1,1630,981,0,0
413,43,0,0,0,0,0,0,0,0,0,-1,1637,981,0,0
420,43,0,0,0,0,0,0,0,0,0,-1,1644,981,0,0
427,43,0,0,0,0,0,0,0,0,0,-1,1651,981,0,0
434,43,0,0,0,0,0,0,0,0,0,-1,1658,981,0,0
441,43,0,0,0,0,0,0,0,0,0,-1,1665,981,0,0
448,43,0,0,0,0,0,0,0,0,0,-1,1672,981,0,0
455,43,0,0,0,0,0,0,0,0,0,-1,1679,981,0,0
462,43,0,0,0,0,0,0,0,0,0,-1,1686,981,0,0
469,43,0,0,0,0,0,0,0,0,0,-1,1693,981,0,0
476,43,0,0,0,0,0,0,0,0,0,-1,1700,981,0,0
483,43,0,0,0,0,0,0,0,0,0,-1,1707,981,0,0
490,43,0,0,0,0,0,0,0,0,0,-1,1714,981,0,0
497,43,0,0,0,0,0,0,0,0,0,-1,1721,981,0,0
504,43,0,0,0,0,0,0,0,0,0,-1,1728,981,0,0
511,43,0,0,0,0,0,0,0,0,0,-1,1735,981,0,0
518,43,0,0,0,0,0,0,0,0,0,-1,1742,981,0,0
525,43,0,0,0,0,0,0,0,0,0,-1,1749,981,0,0
532,43,0,0,0,0,0,0,0,0,0,-1,1756,981,0,0
539,43,0,0,0,0,0,0,0,0,0,-1,1763,981,0,0
546,43,0,0,0,0,0,0,0,0,0,-1,1770,981,0,0
553,43,0,0,0,0,0,0,0,0,0,-1,1777,981,0,0
560,43,0,0,0,0,0,0,0,0,0,-1,1784,981,0,0
567,43,0,0,0,0,0,0,0,0,0,-1,1791,981,0,0
574,43,0,0,0,0,0,0,0,0,0,-1,1798,981,0,0
581,43,0,0,0,0,0,0,0,0,0,-1,1805,981,0,0
588,43,0,0,0,0,0,0,0,0,0,-1,1812,981,0,0
595,43,0,0,0,0,0,0,0,0,0,-1,1819,981,0,0
602,43,0,0,0,0,0,0,0,0,0,-1,1826,981,0,0
609,43,0,0,0,0,0,0,0,0,0,-1,1833,981,0,0
616,43,0,0,0,0,0,0,0,0,0,-1,1840,981,0,0
623,43,0,0,0,0,0,0,0,0,0,-1,1847,981,0,0
630,43,0,0,0,0,0,0,0,0,0,-1,1854,981,0,0
637,43,0,0,0,0,0,0,0,0,0,-1,1861,981,0,0
644,43,75.749,2.51886,-0.00321611,0.00390644,-0.00292784,0.00495547,-0.00426514,-1.22675,0.0053285,0.036292,1868,981,75.7491,-2.51883
651,43,75.6577,2.38867,-0.00222258,0.00240649,-0.00137813,0.00278571,-0.0026018,-1.30227,0.00311108,0.0374032,1875,981,75.6578,-2.38869
658,43,75.8297,2.25183,-0.00151062,0.001426,-0.000314662,0.00145933,-0.00154396,-1.46524,0.00173418,0.0416666,1882,981,75.8298,-2.25185
665,43,75.9575,2.26349,-0.000904921,0.000765987,0.00039256,0.000853619,-0.000992552,1.35117,0.00106689,0.0406715,1889,981,75.9575,-2.26347
672,43,75.9288,2.17126,-0.000610517,0.000261838,0.000928488,0.000851498,-0.00120018,1.00499,0.00119022,0.0403047,1896,981,75.9288,-2.17127
679,43,75.8477,2.28394,-0.000486387,-0.000277294,0.001299,0.000921358,-0.00168504,0.825553,0.00152618,0.041779,1903,981,75.8477,-2.28396
686,43,75.7979,2.4339,-0.000326879,-0.000889596,0.00132627,0.000747551,-0.00196403,0.680877,0.00161719,0.040827,1910,981,75.7978,-2.43393
693,43,75.7781,2.43317,-0.000345385,-0.00141908,0.00114441,0.000381843,-0.00214631,0.566085,0.00157367,0.0369805,1917,981,75.7781,-2.43317
700,43,75.7783,2.37952,-0.000574683,-0.00155326,0.000841727,-9.03659e-05,-0.00203758,0.522124,0.00132929,0.0331159,1924,981,75.7783,-2.37949
707,43,75.8806,2.31061,-0.00115656,-0.00106202,0.000416092,-0.000690521,-0.00152806,0.84196,0.000883585,0.0303864,1931,981,75.8806,-2.31062
714,43,75.8336,2.27057,0,0,0,0,0,0,0,-1,1938,981,75.8336,-2.27056
721,43,74.9991,5.94336,0,0,0,0,0,0,0,-1,1945,981,74.9991,-5.94333
728,43,75.0508,6.38806,-0.00435539,0.00295446,-0.000872545,0.00305717,-0.0044581,-1.45362,0.004364,0.0183471,1952,981,75.0507,-6.38806
735,43,75.1216,6.82196,-0.00465017,0.00478442,-0.00147728,0.00501033,-0.00487608,-1.41905,0.0057081,0.0154329,1959,981,75.1215,-6.82197
742,43,75.0701,7.21808,-0.00551911,0.00712756,-0.00201526,0.00744093,-0.00583248,-1.41653,0.00768214,0.0187414,1966,981,75.0701,-7.21806
749,43,74.9727,7.56049,-0.00667898,0.010201,-0.00230747,0.0105108,-0.00698873,-1.43736,0.0101713,0.0220328,1973,981,74.9726,-7.56047
756,43,74.9221,7.87781,-0.00744155,0.0143699,-0.00258406,0.0146718,-0.00774351,-1.45447,0.0131459,0.0249896,1980,981,74.9221,-7.87784
763,43,74.8591,8.14264,-0.00717364,0.0198862,-0.00286983,0.0201872,-0.00747465,-1.46629,0.0165232,0.0280114,1987,981,74.8591,-8.14262
770,43,74.7288,8.51349,-0.00543509,0.0261073,-0.00311901,0.0264128,-0.00574055,-1.47317,0.0198014,0.0226686,1994,981,74.7288,-8.51346
777,43,74.7256,8.89038,-0.00278834,0.0324279,-0.00305361,0.0326907,-0.00305116,-1.48494,0.0228788,0.0261517,2001,981,74.7256,-8.8904
784,43,74.75,9.36316,0.00181759,0.038806,-0.00247011,0.0389702,0.00165336,-1.50441,0.0254469,0.0442859,2008,981,74.7501,-9.36314
791,43,74.7451,10.0496,0.0103506,0.0446784,-0.00172029,0.0447644,0.0102646,-1.52085,0.0270778,0.0460613,2015,981,74.7451,-10.0495
798,43,74.9248,10.7494,0,0,0,0,0,0,0,-1,2022,981,74.9248,-10.7494
805,43,75.4236,10.5087,0,0,0,0,0,0,0,-1,2029,981,75.4237,-10.5087
812,43,75.9934,10.9659,0,0,0,0,0,0,0,-1,2036,981,75.9934,-10.966
-700,36,0,0,0,0,0,0,0,0,0,-1,524,988,0,0
-693,36,-72.9533,-5.49408,0,0,0,0,0,0,0,-1,531,988,-72.9533,5.49406
-686,36,-72.3343,-2.78955,0,0,0,0,0,0,0,-1,538,988,-72.3343,2.78957
-679,36,-71.7153,-0.085083,0,0,0,0,0,0,0,-1,545,988,-71.7153,0.0850845
-672,36,-55.0911,-1.58173,0,0,0,0,0,0,0,-1,552,988,-55.0911,1.58172
-665,36,-55.481,-1.90393,0,0,0,0,0,0,0,-1,559,988,-55.481,1.90391
-658,36,-58.961,7.77551,0,0,0,0,0,0,0,-1,566,988,-58.961,-7.77552
-651,36,-59.3685,7.48572,-0.0347127,0.0229084,0.0085098,0.0241389,-0.0359432,1.42719,0.0349109,0.0445516,573,988,-59.3685,-7.48572
-644,36,-59.7552,7.12354,-0.0272161,0.0225573,0.00746222,0.023652,-0.0283108,1.42514,0.0300409,0.0288714,580,988,-59.7552,-7.12351
-637,36,-59.9187,6.89917,-0.0214336,0.0198898,0.0065681,0.0209086,-0.0224525,1.4169,0.0250398,0.0218792,587,988,-59.9187,-6.89915
-630,36,-59.9531,6.74799,-0.0161661,0.0159081,0.00571528,0.0168961,-0.0171541,1.39962,0.0196591,0.0160226,594,988,-59.9531,-6.748
-623,36,-60.0042,6.52789,-0.01149,0.0107592,0.00475904,0.0117344,-0.0124652,1.36868,0.0139738,0.0146024,601,988,-60.0041,-6.52789
-616,36,-60.0125,6.29425,-0.00751263,0.00471095,0.00381563,0.00580422,-0.00860591,1.29175,0.00837194,0.0134243,608,988,-60.0125,-6.29426
-609,36,-59.9189,6.05475,-0.00428916,-0.00191345,0.00297426,0.000101382,-0.00630399,0.975383,0.00423686,0.0193717,615,988,-59.9189,-6.05473
-602,36,-59.9849,5.66162,-0.00187588,-0.00902739,0.00226232,-0.0012203,-0.00968296,0.282053,0.00608944,0.0221394,622,988,-59.9849,-5.66159
-595,36,-60.2769,5.36224,-0.00120215,-0.0185847,0.00161855,-0.00105273,-0.0187341,0.0920593,0.0121537,0.0267522,629,988,-60.2769,-5.36224
-588,36,-60.5738,5.19403,0,0,0,0,0,0,0,-1,636,988,-60.5738,-5.19401
-581,36,-59.1882,0.273865,0,0,0,0,0,0,0,-1,643,988,-59.1882,-0.273867
-574,36,-59.174,0.197144,0,0,0,0,0,0,0,-1,650,988,-59.174,-0.197161
-567,36,-59.1498,0.112366,0,0,0,0,0,0,0,-1,657,988,-59.1498,-0.112368
-560,36,-59.1128,0.205444,0,0,0,0,0,0,0,-1,664,988,-59.1128,-0.205422
-553,36,-59.1577,0.265442,0,0,0,0,0,0,0,-1,671,988,-59.1577,-0.265414
-546,36,-59.1229,0.354858,0,0,0,0,0,0,0,-1,678,988,-59.1229,-0.354879
-539,36,-59.2148,0.513062,0,0,0,0,0,0,0,-1,685,988,-59.2148,-0.513077
-532,36,-59.3206,0.440674,0,0,0,0,0,0,0,-1,692,988,-59.3206,-0.44069
-525,36,-59.2268,0.277893,0,0,0,0,0,0,0,-1,699,988,-59.2268,-0.277886
-518,36,0,0,0,0,0,0,0,0,0,-1,706,988,0,0
-511,36,0,0,0,0,0,0,0,0,0,-1,713,988,0,0
-504,36,0,0,0,0,0,0,0,0,0,-1,720,988,0,0
-497,36,0,0,0,0,0,0,0,0,0,-1,727,988,0,0
-490,36,0,0,0,0,0,0,0,0,0,-1,734,988,0,0
-483,36,0,0,0,0,0,0,0,0,0,-1,741,988,0,0
-476,36,0,0,0,0,0,0,0,0,0,-1,748,988,0,0
-469,36,0,0,0,0,0,0,0,0,0,-1,755,988,0,0
-462,36,0,0,0,0,0,0,0,0,0,-1,762,988,0,0
-455,36,0,0,0,0,0,0,0,0,0,-1,769,988,0,0
-448,36,0,0,0,0,0,0,0,0,0,-1,776,988,0,0
-441,36,0,0,0,0,0,0,0,0,0,-1,783,988,0,0
-434,36,0,0,0,0,0,0,0,0,0,-1,790,988,0,0
-427,36,0,0,0,0,0,0,0,0,0,-1,797,988,0,0
-420,36,0,0,0,0,0,0,0,0,0,-1,804,988,0,0
-413,36,0,0,0,0,0,0,0,0,0,-1,811,988,0,0
-406,36,0,0,0,0,0,0,0,0,0,-1,818,988,0,0
-399,36,0,0,0,0,0,0,0,0,0,-1,825,988,0,0
-392,36,0,0,0,0,0,0,0,0,0,-1,832,988,0,0
-385,36,0,0,0,0,0,0,0,0,0,-1,839,988,0,0
-378,36,0,0,0,0,0,0,0,0,0,-1,846,988,0,0
-371,36,0,0,0,0,0,0,0,0,0,-1,853,988,0,0
-364,36,0,0,0,0,0,0,0,0,0,-1,860,988,0,0
-357,36,0,0,0,0,0,0,0,0,0,-1,867,988,0,0
-350,36,0,0,0,0,0,0,0,0,0,-1,874,988,0,0
-343,36,0,0,0,0,0,0,0,0,0,-1,881,988,0,0
-336,36,0,0,0,0,0,0,0,0,0,-1,888,988,0,0
-329,36,0,0,0,0,0,0,0,0,0,-1,895,988,0,0
-322,36,0,0,0,0,0,0,0,0,0,-1,902,988,0,0
-315,36,0,0,0,0,0,0,0,0,0,-1,909,988,0,0
-308,36,0,0,0,0,0,0,0,0,0,-1,916,988,0,0
-301,36,0,0,0,0,0,0,0,0,0,-1,923,988,0,0
-294,36,0,0,0,0,0,0,0,0,0,-1,930,988,0,0
-287,36,0,0,0,0,0,0,0,0,0,-1,937,988,0,0
-280,36,0,0,0,0,0,0,0,0,0,-1,944,988,0,0
-273,36,0,0,0,0,0,0,0,0,0,-1,951,988,0,0
-266,36,0,0,0,0,0,0,0,0,0,-1,958,988,0,0
-259,36,0,0,0,0,0,0,0,0,0,-1,965,988,0,0
-252,36,0,0,0,0,0,0,0,0,0,-1,972,988,0,0
-245,36,0,0,0,0,0,0,0,0,0,-1,979,988,0,0
-238,36,0,0,0,0,0,0,0,0,0,-1,986,988,0,0
-231,36,0,0,0,0,0,0,0,0,0,-1,993,988,0,0
-224,36,0,0,0,0,0,0,0,0,0,-1,1000,988,0,0
-217,36,0,0,0,0,0,0,0,0,0,-1,1007,988,0,0
-210,36,0,0,0,0,0,0,0,0,0,-1,1014,988,0,0
-203,36,0,0,0,0,0,0,0,0,0,-1,1021,988,0,0
-196,36,0,0,0,0,0,0,0,0,0,-1,1028,988,0,0
-189,36,0,0,0,0,0,0,0,0,0,-1,1035,988,0,0
-182,36,0,0,0,0,0,0,0,0,0,-1,1042,988,0,0
-175,36,0,0,0,0,0,0,0,0,0,-1,1049,988,0,0
-168,36,0,0,0,0,0,0,0,0,0,-1,1056,988,0,0
-161,36,0,0,0,0,0,0,0,0,0,-1,1063,988,0,0
-154,36,0,0,0,0,0,0,0,0,0,-1,1070,988,0,0
-147,36,0,0,0,0,0,0,0,0,0,-1,1077,988,0,0
-140,36,0,0,0,0,0,0,0,0,0,-1,1084,988,0,0
-133,36,0,0,0,0,0,0,0,0,0,-1,1091,988,0,0
-126,36,0,0,0,0,0,0,0,0,0,-1,1098,988,0,0
-119,36,0,0,0,0,0,0,0,0,0,-1,1105,988,0,0
-112,36,0,0,0,0,0,0,0,0,0,-1,1112,988,0,0
-105,36,0,0,0,0,0,0,0,0,0,-1,1119,988,0,0
-98,36,0,0,0,0,0,0,0,0,0,-1,1126,988,0,0
-91,36,0,0,0,0,0,0,0,0,0,-1,1133,988,0,0
-84,36,0,0,0,0,0,0,0,0,0,-1,1140,988,0,0
-77,36,0,0,0,0,0,0,0,0,0,-1,1147,988,0,0
-70,36,0,0,0,0,0,0,0,0,0,-1,1154,988,0,0
-63,36,0,0,0,0,0,0,0,0,0,-1,1161,988,0,0
-56,36,0,0,0,0,0,0,0,0,0,-1,1168,988,0,0
-49,36,0,0,0,0,0,0,0,0,0,-1,1175,988,0,0
-42,36,0,0,0,0,0,0,0,0,0,-1,1182,988,0,0
-35,36,0,0,0,0,0,0,0,0,0,-1,1189,988,0,0
-28,36,0,0,0,0,0,0,0,0,0,-1,1196,988,0,0
-21,36,0,0,0,0,0,0,0,0,0,-1,1203,988,0,0
-14,36,0,0,0,0,0,0,0,0,0,-1,1210,988,0,0
-7,36,0,0,0,0,0,0,0,0,0,-1,1217,988,0,0
0,36,0,0,0,0,0,0,0,0,0,-1,1224,988,0,0
7,36,0,0,0,0,0,0,0,0,0,-1,1231,988,0,0
14,36,0,0,0,0,0,0,0,0,0,-1,1238,988,0,0
21,36,0,0,0,0,0,0,0,0,0,-1,1245,988,0,0
28,36,0,0,0,0,0,0,0,0,0,-1,1252,988,0,0
35,36,0,0,0,0,0,0,0,0,0,-1,1259,988,0,0
42,36,0,0,0,0,0,0,0,0,0,-1,1266,988,0,0
49,36,0,0,0,0,0,0,0,0,0,-1,1273,988,0,0
56,36,0,0,0,0,0,0,0,0,0,-1,1280,988,0,0
63,36,0,0,0,0,0,0,0,0,0,-1,1287,988,0,0
70,36,0,0,0,0,0,0,0,0,0,-1,1294,988,0,0
77,36,0,0,0,0,0,0,0,0,0,-1,1301,988,0,0
84,36,0,0,0,0,0,0,0,0,0,-1,1308,988,0,0
91,36,0,0,0,0,0,0,0,0,0,-1,1315,988,0,0
98,36,0,0,0,0,0,0,0,0,0,-1,1322,988,0,0
105,36,0,0,0,0,0,0,0,0,0,-1,1329,988,0,0
112,36,0,0,0,0,0,0,0,0,0,-1,1336,988,0,0
119,36,0,0,0,0,0,0,0,0,0,-1,1343,988,0,0
126,36,0,0,0,0,0,0,0,0,0,-1,1350,988,0,0
133,36,0,0,0,0,0,0,0,0,0,-1,1357,988,0,0
140,36,0,0,0,0,0,0,0,0,0,-1,1364,988,0,0
147,36,0,0,0,0,0,0,0,0,0,-1,1371,988,0,0
154,36,0,0,0,0,0,0,0,0,0,-1,1378,988,0,0
161,36,0,0,0,0,0,0,0,0,0,-1,1385,988,0,0
168,36,0,0,0,0,0,0,0,0,0,-1,1392,988,0,0
175,36,0,0,0,0,0,0,0,0,0,-1,1399,988,0,0
182,36,0,0,0,0,0,0,0,0,0,-1,1406,988,0,0
189,36,0,0,0,0,0,0,0,0,0,-1,1413,988,0,0
196,36,0,0,0,0,0,0,0,0,0,-1,1420,988,0,0
203,36,0,0,0,0,0,0,0,0,0,-1,1427,988,0,0
210,36,0,0,0,0,0,0,0,0,0,-1,1434,988,0,0
217,36,0,0,0,0,0,0,0,0,0,-1,1441,988,0,0
224,36,0,0,0,0,0,0,0,0,0,-1,1448,988,0,0
231,36,0,0,0,0,0,0,0,0,0,-1,1455,988,0,0
238,36,0,0,0,0,0,0,0,0,0,-1,1462,988,0,0
245,36,0,0,0,0,0,0,0,0,0,-1,1469,988,0,0
252,36,0,0,0,0,0,0,0,0,0,-1,1476,988,0,0
259,36,0,0,0,0,0,0,0,0,0,-1,1483,988,0,0
266,36,0,0,0,0,0,0,0,0,0,-1,1490,988,0,0
273,36,0,0,0,0,0,0,0,0,0,-1,1497,988,0,0
280,36,0,0,0,0,0,0,0,0,0,-1,1504,988,0,0
287,36,0,0,0,0,0,0,0,0,0,-1,1511,988,0,0
294,36,0,0,0,0,0,0,0,0,0,-1,1518,988,0,0
301,36,0,0,0,0,0,0,0,0,0,-1,1525,988,0,0
308,36,0,0,0,0,0,0,0,0,0,-1,1532,988,0,0
315,36,0,0,0,0,0,0,0,0,0,-1,1539,988,0,0
322,36,0,0,0,0,0,0,0,0,0,-1,1546,988,0,0
329,36,0,0,0,0,0,0,0,0,0,-1,1553,988,0,0
336,36,0,0,0,0,0,0,0,0,0,-1,1560,988,0,0
343,36,0,0,0,0,0,0,0,0,0,-1,1567,988,0,0
350,36,0,0,0,0,0,0,0,0,0,-1,1574,988,0,0
357,36,0,0,0,0,0,0,0,0,0,-1,1581,988,0,0
364,36,0,0,0,0,0,0,0,0,0,-1,1588,988,0,0
371,36,0,0,0,0,0,0,0,0,0,-1,1595,988,0,0
378,36,0,0,0,0,0,0,0,0,0,-1,1602,988,0,0
385,36,0,0,0,0,0,0,0,0,0,-1,1609,988,0,0
392,36,0,0,0,0,0,0,0,0,0,-1,1616,988,0,0
399,36,0,0,0,0,0,0,0,0,0,-1,1623,988,0,0
406,36,0,0,0,0,0,0,0,0,0,-1,1630,988,0,0
413,36,0,0,0,0,0,0,0,0,0,-1,1637,988,0,0
420,36,0,0,0,0,0,0,0,0,0,-1,1644,988,0,0
427,36,0,0,0,0,0,0,0,0,0,-1,1651,988,0,0
434,36,0,0,0,0,0,0,0,0,0,-1,1658,988,0,0
441,36,0,0,0,0,0,0,0,0,0,-1,1665,988,0,0
448,36,0,0,0,0,0,0,0,0,0,-1,1672,988,0,0
455,36,0,0,0,0,0,0,0,0,0,-1,1679,988,0,0
462,36,0,0,0,0,0,0,0,0,0,-1,1686,988,0,0
469,36,0,0,0,0,0,0,0,0,0,-1,1693,988,0,0
476,36,0,0,0,0,0,0,0,0,0,-1,1700,988,0,0
483,36,0,0,0,0,0,0,0,0,0,-1,1707,988,0,0
490,36,0,0,0,0,0,0,0,0,0,-1,1714,988,0,0
497,36,0,0,0,0,0,0,0,0,0,-1,1721,988,0,0
504,36,0,0,0,0,0,0,0,0,0,-1,1728,988,0,0
511,36,0,0,0,0,0,0,0,0,0,-1,1735,988,0,0
518,36,0,0,0,0,0,0,0,0,0,-1,1742,988,0,0
525,36,0,0,0,0,0,0,0,0,0,-1,1749,988,0,0
532,36,0,0,0,0,0,0,0,0,0,-1,1756,988,0,0
539,36,0,0,0,0,0,0,0,0,0,-1,1763,988,0,0
546,36,0,0,0,0,0,0,0,0,0,-1,1770,988,0,0
553,36,0,0,0,0,0,0,0,0,0,-1,1777,988,0,0
560,36,0,0,0,0,0,0,0,0,0,-1,1784,988,0,0
567,36,0,0,0,0,0,0,0,0,0,-1,1791,988,0,0
574,36,0,0,0,0,0,0,0,0,0,-1,1798,988,0,0
581,36,0,0,0,0,0,0,0,0,0,-1,1805,988,0,0
588,36,0,0,0,0,0,0,0,0,0,-1,1812,988,0,0
595,36,0,0,0,0,0,0,0,0,0,-1,1819,988,0,0
602,36,0,0,0,0,0,0,0,0,0,-1,1826,988,0,0
609,36,0,0,0,0,0,0,0,0,0,-1,1833,988,0,0
616,36,0,0,0,0,0,0,0,0,0,-1,1840,988,0,0
623,36,0,0,0,0,0,0,0,0,0,-1,1847,988,0,0
630,36,0,0,0,0,0,0,0,0,0,-1,1854,988,0,0
637,36,0,0,0,0,0,0,0,0,0,-1,1861,988,0,0
644,36,75.7621,2.45721,-0.0032923,0.00195901,-0.00276291,0.00314488,-0.00447817,-1.16536,0.00442355,0.0384811,1868,988,75.7621,-2.4572
651,36,75.6517,2.50287,-0.00222442,0.000974622,-0.00131859,0.00144806,-0.00269786,-1.22609,0.00242963,0.0390527,1875,988,75.6517,-2.50288
658,36,75.9255,2.33173,-0.00147895,0.000426463,-0.000372066,0.000496539,-0.00154903,-1.38464,0.00123202,0.0407336,1882,988,75.9255,-2.33174
665,36,76.0034,2.32428,-0.000847358,0.000108433,0.00021318,0.000153825,-0.00089275,1.361,0.000652514,0.0405408,1889,988,76.0034,-2.32428
672,36,76.0342,2.28882,-0.000458753,-5.52128e-05,0.000628342,0.00040296,-0.000916926,0.940755,0.000781058,0.0395704,1896,988,76.0341,-2.28879
679,36,75.9153,2.30334,-0.000205151,-0.000260505,0.000908859,0.000676452,-0.00114211,0.770177,0.00106136,0.041439,1903,988,75.9153,-2.30337
686,36,75.7628,2.56531,4.0495e-05,-0.000655497,0.000900807,0.000658187,-0.00127319,0.601071,0.00113377,0.0394213,1910,988,75.7628,-2.5653
693,36,75.7595,2.6059,9.61505e-05,-0.0010196,0.000730734,0.000457621,-0.00138107,0.459373,0.0011053,0.0370872,1917,988,75.7596,-2.60589
700,36,75.7881,2.50739,-4.4215e-05,-0.00106331,0.000467824,0.000137973,-0.0012455,0.371368,0.000879935,0.0362765,1924,988,75.7881,-2.5074
707,36,75.9044,2.37604,-0.000623902,-0.000530186,0.000115601,-0.000452307,-0.000701781,0.97795,0.000410776,0.030322,1931,988,75.9044,-2.37605
714,36,75.8964,2.2381,0,0,0,0,0,0,0,-1,1938,988,75.8963,-2.23811
721,36,75.2114,6.0368,0,0,0,0,0,0,0,-1,1945,988,75.2114,-6.03682
728,36,75.2927,6.4989,-0.00432816,0.00371728,-0.00100282,0.0038404,-0.00445127,-1.44864,0.00479152,0.0240485,1952,988,75.2927,-6.49892
735,36,75.3862,6.93433,-0.00486851,0.00557936,-0.00148692,0.00578686,-0.005076,-1.43215,0.00627615,0.0203373,1959,988,75.3862,-6.93431
742,36,75.317,7.18365,-0.0060122,0.00786288,-0.00191302,0.00812181,-0.00627112,-1.43626,0.00833263,0.0173814,1966,988,75.317,-7.18367
749,36,75.2666,7.52161,-0.00753948,0.0108102,-0.00210609,0.0110488,-0.00777811,-1.45798,0.0109242,0.0192114,1973,988,75.2666,-7.52159
756,36,75.2524,7.84766,-0.00894214,0.014903,-0.00230377,0.0151235,-0.00916268,-1.47536,0.0141617,0.0196997,1980,988,75.2525,-7.84768
763,36,75.1531,8.03894,-0.00973117,0.0205349,-0.00254029,0.0207467,-0.0099429,-1.48764,0.0180809,0.0219929,1987,988,75.1531,-8.03896
770,36,75.0693,8.32483,-0.00933267,0.0272314,-0.00273981,0.0274356,-0.00953683,-1.49642,0.0221641,0.0185319,1994,988,75.0694,-8.32481
777,36,75.0691,8.70313,-0.00804793,0.0341228,-0.00262607,0.0342857,-0.00821083,-1.50884,0.0260294,0.0270989,2001,988,75.0692,-8.7031
784,36,75.1555,9.10217,-0.00502975,0.0411396,-0.00198475,0.0412247,-0.00511491,-1.52791,0.0293371,0.0478136,2008,988,75.1554,-9.10219
791,36,75.311,9.63843,0.00143751,0.0477312,-0.00106214,0.0477555,0.00141315,-1.54787,0.0313766,0.0460985,2015,988,75.311,-9.63842
798,36,75.5776,10.4714,0,0,0,0,0,0,0,-1,2022,988,75.5778,-10.4714
805,36,75.3972,9.69043,0,0,0,0,0,0,0,-1,2029,988,75.3972,-9.6904
812,36,71.4768,9.2749,0,0,0,0,0,0,0,-1,2036,988,71.4769,-9.27489
-700,29,0,0,0,0,0,0,0,0,0,-1,524,995,0,0
-693,29,-72.0915,-5.29596,0,0,0,0,0,0,0,-1,531,995,-72.0915,5.29595
-686,29,-71.477,-2.59906,0,0,0,0,0,0,0,-1,538,995,-71.477,2.59905
-679,29,-70.9157,-0.0524292,0,0,0,0,0,0,0,-1,545,995,-70.9157,0.0524263
-672,29,-59.3404,4.76837,0,0,0,0,0,0,0,-1,552,995,-59.3404,-4.76836
-665,29,-59.0006,5.09985,0,0,0,0,0,0,0,-1,559,995,-59.0006,-5.09983
-658,29,-55.8938,-2.22638,0,0,0,0,0,0,0,-1,566,995,-55.8938,2.22638
-651,29,-59.7805,7.27386,0,0,0,0,0,0,0,-1,573,995,-59.7805,-7.27387
-644,29,-59.9482,6.61017,-0.025357,0.0261596,0.00850739,0.0275282,-0.0267256,1.4113,0.0313245,0.0496167,580,995,-59.9482,-6.61019
-637,29,-60.1863,6.6734,-0.0198661,0.0219516,0.00691973,0.0230669,-0.0209814,1.411,0.0254408,0.0287357,587,995,-60.1863,-6.67339
-630,29,-60.2287,6.58862,-0.0149905,0.016746,0.00550859,0.017675,-0.0159195,1.40373,0.0194046,0.0145608,594,995,-60.2287,-6.58863
-623,29,-60.2471,6.46515,-0.010825,0.0108326,0.00422787,0.0116287,-0.0116211,1.38468,0.0134233,0.013547,601,995,-60.2471,-6.46513
-616,29,-60.2786,6.26233,-0.00738517,0.00434422,0.00307683,0.00510233,-0.00814328,1.32922,0.00771424,0.0165012,608,995,-60.2786,-6.26232
-609,29,-60.199,6.14172,-0.00467593,-0.00260512,0.00205614,-0.0013384,-0.00594265,1.01865,0.00359955,0.0277428,615,995,-60.199,-6.14175
-602,29,-60.389,5.87195,-0.00269276,-0.00991832,0.00116812,-0.00250861,-0.0101025,0.15636,0.00607398,0.0285036,622,995,-60.389,-5.87195
-595,29,-60.691,5.5296,-0.00231435,-0.0197905,0.000387604,-0.00230576,-0.0197991,0.0221645,0.0125019,0.028025,629,995,-60.691,-5.52963
-588,29,-60.9432,5.22388,0,0,0,0,0,0,0,-1,636,995,-60.9432,-5.22387
-581,29,-59.1389,0.238708,0,0,0,0,0,0,0,-1,643,995,-59.1389,-0.238684
-574,29,-59.1542,0.170105,0,0,0,0,0,0,0,-1,650,995,-59.1543,-0.170092
-567,29,-59.1394,0.0742798,0,0,0,0,0,0,0,-1,657,995,-59.1394,-0.0742718
-560,29,-59.1266,0.205261,0,0,0,0,0,0,0,-1,664,995,-59.1266,-0.20526
-553,29,-59.0894,0.2854,0,0,0,0,0,0,0,-1,671,995,-59.0894,-0.285431
-546,29,-59.0907,0.345642,0,0,0,0,0,0,0,-1,678,995,-59.0907,-0.345632
-539,29,-59.2111,0.460327,0,0,0,0,0,0,0,-1,685,995,-59.2111,-0.460324
-532,29,-59.2653,0.462219,0,0,0,0,0,0,0,-1,692,995,-59.2653,-0.462214
-525,29,-59.1238,0.353027,0,0,0,0,0,0,0,-1,699,995,-59.1239,-0.35305
-518,29,0,0,0,0,0,0,0,0,0,-1,706,995,0,0
-511,29,0,0,0,0,0,0,0,0,0,-1,713,995,0,0
-504,29,0,0,0,0,0,0,0,0,0,-1,720,995,0,0
-497,29,0,0,0,0,0,0,0,0,0,-1,727,995,0,0
-490,29,0,0,0,0,0,0,0,0,0,-1,734,995,0,0
-483,29,0,0,0,0,0,0,0,0,0,-1,741,995,0,0
-476,29,0,0,0,0,0,0,0,0,0,-1,748,995,0,0
-469,29,0,0,0,0,0,0,0,0,0,-1,755,995,0,0
-462,29,0,0,0,0,0,0,0,0,0,-1,762,995,0,0
-455,29,0,0,0,0,0,0,0,0,0,-1,769,995,0,0
-448,29,0,0,0,0,0,0,0,0,0,-1,776,995,0,0
-441,29,0,0,0,0,0,0,0,0,0,-1,783,995,0,0
-434,29,0,0,0,0,0,0,0,0,0,-1,790,995,0,0
-427,29,0,0,0,0,0,0,0,0,0,-1,797,995,0,0
-420,29,0,0,0,0,0,0,0,0,0,-1,804,995,0,0
-413,29,0,0,0,0,0,0,0,0,0,-1,811,995,0,0
-406,29,0,0,0,0,0,0,0,0,0,-1,818,995,0,0
-399,29,0,0,0,0,0,0,0,0,0,-1,825,995,0,0
-392,29,0,0,0,0,0,0,0,0,0,-1,832,995,0,0
-385,29,0,0,0,0,0,0,0,0,0,-1,839,995,0,0
-378,29,0,0,0,0,0,0,0,0,0,-1,846,995,0,0
-371,29,0,0,0,0,0,0,0,0,0,-1,853,995,0,0
-364,29,0,0,0,0,0,0,0,0,0,-1,860,995,0,0
-357,29,0,0,0,0,0,0,0,0,0,-1,867,995,0,0
-350,29,0,0,0,0,0,0,0,0,0,-1,874,995,0,0
-343,29,0,0,0,0,0,0,0,0,0,-1,881,995,0,0
-336,29,0,0,0,0,0,0,0,0,0,-1,888,995,0,0
-329,29,0,0,0,0,0,0,0,0,0,-1,895,995,0,0
-322,29,0,0,0,0,0,0,0,0,0,-1,902,995,0,0
-315,29,0,0,0,0,0,0,0,0,0,-1,909,995,0,0
-308,29,0,0,0,0,0,0,0,0,0,-1,916,995,0,0
-301,29,0,0,0,0,0,0,0,0,0,-1,923,995,0,0
-294,29,0,0,0,0,0,0,0,0,0,-1,930,995,0,0
-287,29,0,0,0,0,0,0,0,0,0,-1,937,995,0,0
-280,29,0,0,0,0,0,0,0,0,0,-1,944,995,0,0
-273,29,0,0,0,0,0,0,0,0,0,-1,951,995,0,0
-266,29,0,0,0,0,0,0,0,0,0,-1,958,995,0,0
-259,29,0,0,0,0,0,0,0,0,0,-1,965,995,0,0
-252,29,0,0,0,0,0,0,0,0,0,-1,972,995,0,0
-245,29,0,0,0,0,0,0,0,0,0,-1,979,995,0,0
-238,29,0,0,0,0,0,0,0,0,0,-1,986,995,0,0
-231,29,0,0,0,0,0,0,0,0,0,-1,993,995,0,0
-224,29,0,0,0,0,0,0,0,0,0,-1,1000,995,0,0
-217,29,0,0,0,0,0,0,0,0,0,-1,1007,995,0,0
-210,29,0,0,0,0,0,0,0,0,0,-1,1014,995,0,0
-203,29,0,0,0,0,0,0,0,0,0,-1,1021,995,0,0
-196,29,0,0,0,0,0,0,0,0,0,-1,1028,995,0,0
-189,29,0,0,0,0,0,0,0,0,0,-1,1035,995,0,0
-182,29,0,0,0,0,0,0,0,0,0,-1,1042,995,0,0
-175,29,0,0,0,0,0,0,0,0,0,-1,1049,995,0,0
-168,29,0,0,0,0,0,0,0,0,0,-1,1056,995,0,0
-161,29,0,0,0,0,0,0,0,0,0,-1,1063,995,0,0
-154,29,0,0,0,0,0,0,0,0,0,-1,1070,995,0,0
-147,29,0,0,0,0,0,0,0,0,0,-1,1077,995,0,0
-140,29,0,0,0,0,0,0,0,0,0,-1,1084,995,0,0
-133,29,0,0,0,0,0,0,0,0,0,-1,1091,995,0,0
-126,29,0,0,0,0,0,0,0,0,0,-1,1098,995,0,0
-119,29,0,0,0,0,0,0,0,0,0,-1,1105,995,0,0
-112,29,0,0,0,0,0,0,0,0,0,-1,1112,995,0,0
-105,29,0,0,0,0,0,0,0,0,0,-1,1119,995,0,0
-98,29,0,0,0,0,0,0,0,0,0,-1,1126,995,0,0
-91,29,0,0,0,0,0,0,0,0,0,-1,1133,995,0,0
-84,29,0,0,0,0,0,0,0,0,0,-1,1140,995,0,0
-77,29,0,0,0,0,0,0,0,0,0,-1,1147,995,0,0
-70,29,0,0,0,0,0,0,0,0,0,-1,1154,995,0,0
-63,29,0,0,0,0,0,0,0,0,0,-1,1161,995,0,0
-56,29,0,0,0,0,0,0,0,0,0,-1,1168,995,0,0
-49,29,0,0,0,0,0,0,0,0,0,-1,1175,995,0,0
-42,29,0,0,0,0,0,0,0,0,0,-1,1182,995,0,0
-35,29,0,0,0,0,0,0,0,0,0,-1,1189,995,0,0
-28,29,0,0,0,0,0,0,0,0,0,-1,1196,995,0,0
-21,29,0,0,0,0,0,0,0,0,0,-1,1203,995,0,0
-14,29,0,0,0,0,0,0,0,0,0,-1,1210,995,0,0
-7,29,0,0,0,0,0,0,0,0,0,-1,1217,995,0,0
0,29,0,0,0,0,0,0,0,0,0,-1,1224,995,0,0
7,29,0,0,0,0,0,0,0,0,0,-1,1231,995,0,0
14,29,0,0,0,0,0,0,0,0,0,-1,1238,995,0,0
21,29,0,0,0,0,0,0,0,0,0,-1,1245,995,0,0
28,29,0,0,0,0,0,0,0,0,0,-1,1252,995,0,0
35,29,0,0,0,0,0,0,0,0,0,-1,1259,995,0,0
42,29,0,0,0,0,0,0,0,0,0,-1,1266,995,0,0
49,29,0,0,0,0,0,0,0,0,0,-1,1273,995,0,0
56,29,0,0,0,0,0,0,0,0,0,-1,1280,995,0,0
63,29,0,0,0,0,0,0,0,0,0,-1,1287,995,0,0
70,29,0,0,0,0,0,0,0,0,0,-1,1294,995,0,0
77,29,0,0,0,0,0,0,0,0,0,-1,1301,995,0,0
84,29,0,0,0,0,0,0,0,0,0,-1,1308,995,0,0
91,29,0,0,0,0,0,0,0,0,0,-1,1315,995,0,0
98,29,0,0,0,0,0,0,0,0,0,-1,1322,995,0,0
105,29,0,0,0,0,0,0,0,0,0,-1,1329,995,0,0
112,29,0,0,0,0,0,0,0,0,0,-1,1336,995,0,0
119,29,0,0,0,0,0,0,0,0,0,-1,1343,995,0,0
126,29,0,0,0,0,0,0,0,0,0,-1,1350,995,0,0
133,29,0,0,0,0,0,0,0,0,0,-1,1357,995,0,0
140,29,0,0,0,0,0,0,0,0,0,-1,1364,995,0,0
147,29,0,0,0,0,0,0,0,0,0,-1,1371,995,0,0
154,29,0,0,0,0,0,0,0,0,0,-1,1378,995,0,0
161,29,0,0,0,0,0,0,0,0,0,-1,1385,995,0,0
168,29,0,0,0,0,0,0,0,0,0,-1,1392,995,0,0
175,29,0,0,0,0,0,0,0,0,0,-1,1399,995,0,0
182,29,0,0,0,0,0,0,0,0,0,-1,1406,995,0,0
189,29,0,0,0,0,0,0,0,0,0,-1,1413,995,0,0
196,29,0,0,0,0,0,0,0,0,0,-1,1420,995,0,0
203,29,0,0,0,0,0,0,0,0,0,-1,1427,995,0,0
210,29,0,0,0,0,0,0,0,0,0,-1,1434,995,0,0
217,29,0,0,0,0,0,0,0,0,0,-1,1441,995,0,0
224,29,0,0,0,0,0,0,0,0,0,-1,1448,995,0,0
231,29,0,0,0,0,0,0,0,0,0,-1,1455,995,0,0
238,29,0,0,0,0,0,0,0,0,0,-1,1462,995,0,0
245,29,0,0,0,0,0,0,0,0,0,-1,1469,995,0,0
252,29,0,0,0,0,0,0,0,0,0,-1,1476,995,0,0
259,29,0,0,0,0,0,0,0,0,0,-1,1483,995,0,0
266,29,0,0,0,0,0,0,0,0,0,-1,1490,995,0,0
273,29,0,0,0,0,0,0,0,0,0,-1,1497,995,0,0
280,29,0,0,0,0,0,0,0,0,0,-1,1504,995,0,0
287,29,0,0,0,0,0,0,0,0,0,-1,1511,995,0,0
294,29,0,0,0,0,0,0,0,0,0,-1,1518,995,0,0
301,29,0,0,0,0,0,0,0,0,0,-1,1525,995,0,0
308,29,0,0,0,0,0,0,0,0,0,-1,1532,995,0,0
315,29,0,0,0,0,0,0,0,0,0,-1,1539,995,0,0
322,29,0,0,0,0,0,0,0,0,0,-1,1546,995,0,0
329,29,0,0,0,0,0,0,0,0,0,-1,1553,995,0,0
336,29,0,0,0,0,0,0,0,0,0,-1,1560,995,0,0
343,29,0,0,0,0,0,0,0,0,0,-1,1567,995,0,0
350,29,0,0,0,0,0,0,0,0,0,-1,1574,995,0,0
357,29,0,0,0,0,0,0,0,0,0,-1,1581,995,0,0
364,29,0,0,0,0,0,0,0,0,0,-1,1588,995,0,0
371,29,0,0,0,0,0,0,0,0,0,-1,1595,995,0,0
378,29,0,0,0,0,0,0,0,0,0,-1,1602,995,0,0
385,29,0,0,0,0,0,0,0,0,0,-1,1609,995,0,0
392,29,0,0,0,0,0,0,0,0,0,-1,1616,995,0,0
399,29,0,0,0,0,0,0,0,0,0,-1,1623,995,0,0
406,29,0,0,0,0,0,0,0,0,0,-1,1630,995,0,0
413,29,0,0,0,0,0,0,0,0,0,-1,1637,995,0,0
420,29,0,0,0,0,0,0,0,0,0,-1,1644,995,0,0
427,29,0,0,0,0,0,0,0,0,0,-1,1651,995,0,0
434,29,0,0,0,0,0,0,0,0,0,-1,1658,995,0,0
441,29,0,0,0,0,0,0,0,0,0,-1,1665,995,0,0
448,29,0,0,0,0,0,0,0,0,0,-1,1672,995,0,0
455,29,0,0,0,0,0,0,0,0,0,-1,1679,995,0,0
462,29,0,0,0,0,0,0,0,0,0,-1,1686,995,0,0
469,29,0,0,0,0,0,0,0,0,0,-1,1693,995,0,0
476,29,0,0,0,0,0,0,0,0,0,-1,1700,995,0,0
483,29,0,0,0,0,0,0,0,0,0,-1,1707,995,0,0
490,29,0,0,0,0,0,0,0,0,0,-1,1714,995,0,0
497,29,0,0,0,0,0,0,0,0,0,-1,1721,995,0,0
504,29,0,0,0,0,0,0,0,0,0,-1,1728,995,0,0
511,29,0,0,0,0,0,0,0,0,0,-1,1735,995,0,0
518,29,0,0,0,0,0,0,0,0,0,-1,1742,995,0,0
525,29,0,0,0,0,0,0,0,0,0,-1,1749,995,0,0
532,29,0,0,0,0,0,0,0,0,0,-1,1756,995,0,0
539,29,0,0,0,0,0,0,0,0,0,-1,1763,995,0,0
546,29,0,0,0,0,0,0,0,0,0,-1,1770,995,0,0
553,29,0,0,0,0,0,0,0,0,0,-1,1777,995,0,0
560,29,0,0,0,0,0,0,0,0,0,-1,1784,995,0,0
567,29,0,0,0,0,0,0,0,0,0,-1,1791,995,0,0
574,29,0,0,0,0,0,0,0,0,0,-1,1798,995,0,0
581,29,0,0,0,0,0,0,0,0,0,-1,1805,995,0,0
588,29,0,0,0,0,0,0,0,0,0,-1,1812,995,0,0
595,29,0,0,0,0,0,0,0,0,0,-1,1819,995,0,0
602,29,0,0,0,0,0,0,0,0,0,-1,1826,995,0,0
609,29,0,0,0,0,0,0,0,0,0,-1,1833,995,0,0
616,29,0,0,0,0,0,0,0,0,0,-1,1840,995,0,0
623,29,0,0,0,0,0,0,0,0,0,-1,1847,995,0,0
630,29,0,0,0,0,0,0,0,0,0,-1,1854,995,0,0
637,29,0,0,0,0,0,0,0,0,0,-1,1861,995,0,0
644,29,75.8641,2.45569,-0.00357232,0.00170687,-0.00287073,0.00296709,-0.00483254,-1.15714,0.00454585,0.0403817,1868,995,75.8641,-2.4557
651,29,75.7947,2.4494,-0.00236636,0.000898927,-0.0014533,0.00145205,-0.00291949,-1.20712,0.00257087,0.040625,1875,995,75.7947,-2.44942
658,29,75.7782,2.47375,-0.00154919,0.000479802,-0.000551512,0.000620021,-0.00168941,-1.32183,0.00138018,0.0432899,1882,995,75.7782,-2.47377
665,29,75.8079,2.37421,-0.000871164,0.000256936,-1.02881e-05,0.00025703,-0.000871258,-1.56168,0.000682835,0.0427882,1889,995,75.8079,-2.3742
672,29,75.854,2.32349,-0.00039154,0.000208953,0.000351965,0.000371338,-0.000553924,1.13853,0.000537656,0.0390454,1896,995,75.854,-2.32349
679,29,75.77,2.25085,-2.03967e-05,0.000152254,0.000592915,0.000665095,-0.000533237,0.857688,0.000693252,0.0396481,1903,995,75.77,-2.25087
686,29,75.7533,2.54254,0.000250101,-0.000153984,0.000575933,0.000658403,-0.000562286,0.616701,0.000705493,0.0395651,1910,995,75.7533,-2.54252
693,29,75.8052,2.67432,0.000324911,-0.000470519,0.000436548,0.000517748,-0.000663356,0.415956,0.000683636,0.0378597,1917,995,75.8051,-2.67434
700,29,75.8193,2.50073,0.000232122,-0.000511773,0.000226324,0.000295568,-0.000575219,0.273317,0.000511318,0.0354369,1924,995,75.8193,-2.50074
707,29,75.8632,2.3833,-0.000394995,8.07863e-06,-4.27351e-05,1.25597e-05,-0.000399476,-1.46632,0.000270601,0.0267591,1931,995,75.8631,-2.3833
714,29,75.8953,2.10785,0,0,0,0,0,0,0,-1,1938,995,75.8953,-2.10786
721,29,74.6213,6.08148,0,0,0,0,0,0,0,-1,1945,995,74.6214,-6.08147
728,29,75.4685,6.625,0,0,0,0,0,0,0,-1,1952,995,75.4685,-6.62497
735,29,75.625,7.02026,-0.00514322,0.00615517,-0.00138001,0.00632128,-0.00530934,-1.451,0.00672341,0.0187366,1959,995,75.6249,-7.02024
742,29,75.5946,7.21863,-0.00635847,0.00828635,-0.00173154,0.0084883,-0.00656042,-1.45469,0.00871211,0.0151769,1966,995,75.5945,-7.2186
749,29,75.553,7.50519,-0.00794002,0.011027,-0.00187423,0.0112105,-0.00812345,-1.47324,0.0112098,0.016412,1973,995,75.553,-7.50519
756,29,75.5244,7.75848,-0.0093985,0.0149287,-0.00206997,0.0151036,-0.00957337,-1.48652,0.014366,0.0162554,1980,995,75.5245,-7.7585
763,29,75.4707,7.91412,-0.0103071,0.0204691,-0.00236785,0.0206502,-0.0104882,-1.49446,0.0182941,0.0131271,1987,995,75.4708,-7.91411
770,29,75.3545,8.04266,-0.00997721,0.0272899,-0.00270122,0.0274847,-0.010172,-1.49882,0.022494,0.0185564,1994,995,75.3544,-8.04266
777,29,75.2195,8.3606,-0.00851735,0.0344776,-0.00289046,0.0346711,-0.0087108,-1.50397,0.0264993,0.0322937,2001,995,75.2194,-8.36057
784,29,75.1323,8.6438,-0.00530669,0.0419104,-0.00280896,0.0420769,-0.00547321,-1.51158,0.0300423,0.0485177,2008,995,75.1323,-8.64383
791,29,75.0496,8.91205,0,0,0,0,0,0,0,-1,2015,995,75.0497,-8.91203
798,29,74.4092,8.72858,0,0,0,0,0,0,0,-1,2022,995,74.4093,-8.72859
805,29,74.6421,8.94165,0,0,0,0,0,0,0,-1,2029,995,74.6421,-8.94166
812,29,71.2014,6.55267,0,0,0,0,0,0,0,-1,2036,995,71.2014,-6.55267
-700,22,0,0,0,0,0,0,0,0,0,-1,524,1002,0,0
-693,22,-70.8194,-4.94739,0,0,0,0,0,0,0,-1,531,1002,-70.8194,4.94738
-686,22,-70.3534,-2.4563,0,0,0,0,0,0,0,-1,538,1002,-70.3534,2.45631
-679,22,-60.3727,4.12701,0,0,0,0,0,0,0,-1,545,1002,-60.3727,-4.127
-672,22,-59.425,4.79077,0,0,0,0,0,0,0,-1,552,1002,-59.4249,-4.79074
-665,22,-59.0871,5.10864,0,0,0,0,0,0,0,-1,559,1002,-59.0871,-5.10862
-658,22,-58.7256,5.39417,0,0,0,0,0,0,0,-1,566,1002,-58.7256,-5.39416
-651,22,-59.2713,6.03247,0,0,0,0,0,0,0,-1,573,1002,-59.2713,-6.03246
-644,22,-59.9902,6.26868,-0.022004,0.0307978,0.0093934,0.0324191,-0.0236253,1.39988,0.0324898,0.0462162,580,1002,-59.9902,-6.26865
-637,22,-60.4451,6.43677,-0.0175587,0.0245743,0.00728786,0.0257992,-0.0187837,1.40427,0.025846,0.0307185,587,1002,-60.4452,-6.43679
-630,22,-60.436,6.43024,-0.0134915,0.0180114,0.00541805,0.0189172,-0.0143973,1.40515,0.0192931,0.0167317,594,1002,-60.436,-6.43021
-623,22,-60.4702,6.33972,-0.00995842,0.0111515,0.00375112,0.0117982,-0.0106052,1.40006,0.0129407,0.0125622,601,1002,-60.4702,-6.33971
-616,22,-60.4641,6.13153,-0.007018,0.00401719,0.0022791,0.00446936,-0.00747018,1.37494,0.00696549,0.0204377,608,1002,-60.4641,-6.13154
-609,22,-60.5425,5.99854,-0.00469703,-0.00325125,0.00101157,-0.00273082,-0.00521747,1.09563,0.0030134,0.0355742,615,1002,-60.5425,-5.99856
-602,22,-61.0291,5.96338,0,0,0,0,0,0,0,-1,622,1002,-61.0291,-5.96339
-595,22,-61.0582,5.61389,0,0,0,0,0,0,0,-1,629,1002,-61.0582,-5.6139
-588,22,-61.1085,5.1767,0,0,0,0,0,0,0,-1,636,1002,-61.1084,-5.17669
-581,22,-59.1094,0.396179,0,0,0,0,0,0,0,-1,643,1002,-59.1094,-0.396176
-574,22,-59.1392,0.259705,0,0,0,0,0,0,0,-1,650,1002,-59.1392,-0.259711
-567,22,-59.1463,0.0577393,0,0,0,0,0,0,0,-1,657,1002,-59.1463,-0.0577147
-560,22,-59.1368,0.0974731,0,0,0,0,0,0,0,-1,664,1002,-59.1368,-0.0974444
-553,22,-59.08,0.22229,0,0,0,0,0,0,0,-1,671,1002,-59.08,-0.222286
-546,22,-59.0344,0.272766,0,0,0,0,0,0,0,-1,678,1002,-59.0344,-0.272792
-539,22,-59.1768,0.320129,0,0,0,0,0,0,0,-1,685,1002,-59.1768,-0.320135
-532,22,-59.2405,0.174133,0,0,0,0,0,0,0,-1,692,1002,-59.2405,-0.17416
-525,22,0,0,0,0,0,0,0,0,0,-1,699,1002,0,0
-518,22,0,0,0,0,0,0,0,0,0,-1,706,1002,0,0
-511,22,0,0,0,0,0,0,0,0,0,-1,713,1002,0,0
-504,22,0,0,0,0,0,0,0,0,0,-1,720,1002,0,0
-497,22,0,0,0,0,0,0,0,0,0,-1,727,1002,0,0
-490,22,0,0,0,0,0,0,0,0,0,-1,734,1002,0,0
-483,22,0,0,0,0,0,0,0,0,0,-1,741,1002,0,0
-476,22,0,0,0,0,0,0,0,0,0,-1,748,1002,0,0
-469,22,0,0,0,0,0,0,0,0,0,-1,755,1002,0,0
-462,22,0,0,0,0,0,0,0,0,0,-1,762,1002,0,0
-455,22,0,0,0,0,0,0,0,0,0,-1,769,1002,0,0
-448,22,0,0,0,0,0,0,0,0,0,-1,776,1002,0,0
-441,22,0,0,0,0,0,0,0,0,0,-1,783,1002,0,0
-434,22,0,0,0,0,0,0,0,0,0,-1,790,1002,0,0
-427,22,0,0,0,0,0,0,0,0,0,-1,797,1002,0,0
-420,22,0,0,0,0,0,0,0,0,0,-1,804,1002,0,0
-413,22,0,0,0,0,0,0,0,0,0,-1,811,1002,0,0
-406,22,0,0,0,0,0,0,0,0,0,-1,818,1002,0,0
-399,22,0,0,0,0,0,0,0,0,0,-1,825,1002,0,0
-392,22,0,0,0,0,0,0,0,0,0,-1,832,1002,0,0
-385,22,0,0,0,0,0,0,0,0,0,-1,839,1002,0,0
-378,22,0,0,0,0,0,0,0,0,0,-1,846,1002,0,0
-371,22,0,0,0,0,0,0,0,0,0,-1,853,1002,0,0
-364,22,0,0,0,0,0,0,0,0,0,-1,860,1002,0,0
-357,22,0,0,0,0,0,0,0,0,0,-1,867,1002,0,0
-350,22,0,0,0,0,0,0,0,0,0,-1,874,1002,0,0
-343,22,0,0,0,0,0,0,0,0,0,-1,881,1002,0,0
-336,22,0,0,0,0,0,0,0,0,0,-1,888,1002,0,0
-329,22,0,0,0,0,0,0,0,0,0,-1,895,1002,0,0
-322,22,0,0,0,0,0,0,0,0,0,-1,902,1002,0,0
-315,22,0,0,0,0,0,0,0,0,0,-1,909,1002,0,0
-308,22,0,0,0,0,0,0,0,0,0,-1,916,1002,0,0
-301,22,0,0,0,0,0,0,0,0,0,-1,923,1002,0,0
-294,22,0,0,0,0,0,0,0,0,0,-1,930,1002,0,0
-287,22,0,0,0,0,0,0,0,0,0,-1,937,1002,0,0
-280,22,0,0,0,0,0,0,0,0,0,-1,944,1002,0,0
-273,22,0,0,0,0,0,0,0,0,0,-1,951,1002,0,0
-266,22,0,0,0,0,0,0,0,0,0,-1,958,1002,0,0
-259,22,0,0,0,0,0,0,0,0,0,-1,965,1002,0,0
-252,22,0,0,0,0,0,0,0,0,0,-1,972,1002,0,0
-245,22,0,0,0,0,0,0,0,0,0,-1,979,1002,0,0
-238,22,0,0,0,0,0,0,0,0,0,-1,986,1002,0,0
-231,22,0,0,0,0,0,0,0,0,0,-1,993,1002,0,0
-224,22,0,0,0,0,0,0,0,0,0,-1,1000,1002,0,0
-217,22,0,0,0,0,0,0,0,0,0,-1,1007,1002,0,0
-210,22,0,0,0,0,0,0,0,0,0,-1,1014,1002,0,0
-203,22,0,0,0,0,0,0,0,0,0,-1,1021,1002,0,0
-196,22,0,0,0,0,0,0,0,0,0,-1,1028,1002,0,0
-189,22,0,0,0,0,0,0,0,0,0,-1,1035,1002,0,0
-182,22,0,0,0,0,0,0,0,0,0,-1,1042,1002,0,0
-175,22,0,0,0,0,0,0,0,0,0,-1,1049,1002,0,0
-168,22,0,0,0,0,0,0,0,0,0,-1,1056,1002,0,0
-161,22,0,0,0,0,0,0,0,0,0,-1,1063,1002,0,0
-154,22,0,0,0,0,0,0,0,0,0,-1,1070,1002,0,0
-147,22,0,0,0,0,0,0,0,0,0,-1,1077,1002,0,0
-140,22,0,0,0,0,0,0,0,0,0,-1,1084,1002,0,0
-133,22,0,0,0,0,0,0,0,0,0,-1,1091,1002,0,0
-126,22,0,0,0,0,0,0,0,0,0,-1,1098,1002,0,0
-119,22,0,0,0,0,0,0,0,0,0,-1,1105,1002,0,0
-112,22,0,0,0,0,0,0,0,0,0,-1,1112,1002,0,0
-105,22,0,0,0,0,0,0,0,0,0,-1,1119,1002,0,0
-98,22,0,0,0,0,0,0,0,0,0,-1,1126,1002,0,0
-91,22,0,0,0,0,0,0,0,0,0,-1,1133,1002,0,0
-84,22,0,0,0,0,0,0,0,0,0,-1,1140,1002,0,0
-77,22,0,0,0,0,0,0,0,0,0,-1,1147,1002,0,0
-70,22,0,0,0,0,0,0,0,0,0,-1,1154,1002,0,0
-63,22,0,0,0,0,0,0,0,0,0,-1,1161,1002,0,0
-56,22,0,0,0,0,0,0,0,0,0,-1,1168,1002,0,0
-49,22,0,0,0,0,0,0,0,0,0,-1,1175,1002,0,0
-42,22,0,0,0,0,0,0,0,0,0,-1,1182,1002,0,0
-35,22,0,0,0,0,0,0,0,0,0,-1,1189,1002,0,0
-28,22,0,0,0,0,0,0,0,0,0,-1,1196,1002,0,0
-21,22,0,0,0,0,0,0,0,0,0,-1,1203,1002,0,0
-14,22,0,0,0,0,0,0,0,0,0,-1,1210,1002,0,0
-7,22,0,0,0,0,0,0,0,0,0,-1,1217,1002,0,0
0,22,0,0,0,0,0,0,0,0,0,-1,1224,1002,0,0
7,22,0,0,0,0,0,0,0,0,0,-1,1231,1002,0,0
14,22,0,0,0,0,0,0,0,0,0,-1,1238,1002,0,0
21,22,0,0,0,0,0,0,0,0,0,-1,1245,1002,0,0
28,22,0,0,0,0,0,0,0,0,0,-1,1252,1002,0,0
35,22,0,0,0,0,0,0,0,0,0,-1,1259,1002,0,0
42,22,0,0,0,0,0,0,0,0,0,-1,1266,1002,0,0
49,22,0,0,0,0,0,0,0,0,0,-1,1273,1002,0,0
56,22,0,0,0,0,0,0,0,0,0,-1,1280,1002,0,0
63,22,0,0,0,0,0,0,0,0,0,-1,1287,1002,0,0
70,22,0,0,0,0,0,0,0,0,0,-1,1294,1002,0,0
77,22,0,0,0,0,0,0,0,0,0,-1,1301,1002,0,0
84,22,0,0,0,0,0,0,0,0,0,-1,1308,1002,0,0
91,22,0,0,0,0,0,0,0,0,0,-1,1315,1002,0,0
98,22,0,0,0,0,0,0,0,0,0,-1,1322,1002,0,0
105,22,0,0,0,0,0,0,0,0,0,-1,1329,1002,0,0
112,22,0,0,0,0,0,0,0,0,0,-1,1336,1002,0,0
119,22,0,0,0,0,0,0,0,0,0,-1,1343,1002,0,0
126,22,0,0,0,0,0,0,0,0,0,-1,1350,1002,0,0
133,22,0,0,0,0,0,0,0,0,0,-1,1357,1002,0,0
140,22,0,0,0,0,0,0,0,0,0,-1,1364,1002,0,0
147,22,0,0,0,0,0,0,0,0,0,-1,1371,1002,0,0
154,22,0,0,0,0,0,0,0,0,0,-1,1378,1002,0,0
161,22,0,0,0,0,0,0,0,0,0,-1,1385,1002,0,0
168,22,0,0,0,0,0,0,0,0,0,-1,1392,1002,0,0
175,22,0,0,0,0,0,0,0,0,0,-1,1399,1002,0,0
182,22,0,0,0,0,0,0,0,0,0,-1,1406,1002,0,0
189,22,0,0,0,0,0,0,0,0,0,-1,1413,1002,0,0
196,22,0,0,0,0,0,0,0,0,0,-1,1420,1002,0,0
203,22,0,0,0,0,0,0,0,0,0,-1,1427,1002,0,0
210,22,0,0,0,0,0,0,0,0,0,-1,1434,1002,0,0
217,22,0,0,0,0,0,0,0,0,0,-1,1441,1002,0,0
224,22,0,0,0,0,0,0,0,0,0,-1,1448,1002,0,0
231,22,0,0,0,0,0,0,0,0,0,-1,1455,1002,0,0
238,22,0,0,0,0,0,0,0,0,0,-1,1462,1002,0,0
245,22,0,0,0,0,0,0,0,0,0,-1,1469,1002,0,0
252,22,0,0,0,0,0,0,0,0,0,-1,1476,1002,0,0
259,22,0,0,0,0,0,0,0,0,0,-1,1483,1002,0,0
266,22,0,0,0,0,0,0,0,0,0,-1,1490,1002,0,0
273,22,0,0,0,0,0,0,0,0,0,-1,1497,1002,0,0
280,22,0,0,0,0,0,0,0,0,0,-1,1504,1002,0,0
287,22,0,0,0,0,0,0,0,0,0,-1,1511,1002,0,0
294,22,0,0,0,0,0,0,0,0,0,-1,1518,1002,0,0
301,22,0,0,0,0,0,0,0,0,0,-1,1525,1002,0,0
308,22,0,0,0,0,0,0,0,0,0,-1,1532,1002,0,0
315,22,0,0,0,0,0,0,0,0,0,-1,1539,1002,0,0
322,22,0,0,0,0,0,0,0,0,0,-1,1546,1002,0,0
329,22,0,0,0,0,0,0,0,0,0,-1,1553,1002,0,0
336,22,0,0,0,0,0,0,0,0,0,-1,1560,1002,0,0
343,22,0,0,0,0,0,0,0,0,0,-1,1567,1002,0,0
350,22,0,0,0,0,0,0,0,0,0,-1,1574,1002,0,0
357,22,0,0,0,0,0,0,0,0,0,-1,1581,1002,0,0
364,22,0,0,0,0,0,0,0,0,0,-1,1588,1002,0,0
371,22,0,0,0,0,0,0,0,0,0,-1,1595,1002,0,0
378,22,0,0,0,0,0,0,0,0,0,-1,1602,1002,0,0
385,22,0,0,0,0,0,0,0,0,0,-1,1609,1002,0,0
392,22,0,0,0,0,0,0,0,0,0,-1,1616,1002,0,0
399,22,0,0,0,0,0,0,0,0,0,-1,1623,1002,0,0
406,22,0,0,0,0,0,0,0,0,0,-1,1630,1002,0,0
413,22,0,0,0,0,0,0,0,0,0,-1,1637,1002,0,0
420,22,0,0,0,0,0,0,0,0,0,-1,1644,1002,0,0
427,22,0,0,0,0,0,0,0,0,0,-1,1651,1002,0,0
434,22,0,0,0,0,0,0,0,0,0,-1,1658,1002,0,0
441,22,0,0,0,0,0,0,0,0,0,-1,1665,1002,0,0
448,22,0,0,0,0,0,0,0,0,0,-1,1672,1002,0,0
455,22,0,0,0,0,0,0,0,0,0,-1,1679,1002,0,0
462,22,0,0,0,0,0,0,0,0,0,-1,1686,1002,0,0
469,22,0,0,0,0,0,0,0,0,0,-1,1693,1002,0,0
476,22,0,0,0,0,0,0,0,0,0,-1,1700,1002,0,0
483,22,0,0,0,0,0,0,0,0,0,-1,1707,1002,0,0
490,22,0,0,0,0,0,0,0,0,0,-1,1714,1002,0,0
497,22,0,0,0,0,0,0,0,0,0,-1,1721,1002,0,0
504,22,0,0,0,0,0,0,0,0,0,-1,1728,1002,0,0
511,22,0,0,0,0,0,0,0,0,0,-1,1735,1002,0,0
518,22,0,0,0,0,0,0,0,0,0,-1,1742,1002,0,0
525,22,0,0,0,0,0,0,0,0,0,-1,1749,1002,0,0
532,22,0,0,0,0,0,0,0,0,0,-1,1756,1002,0,0
539,22,0,0,0,0,0,0,0,0,0,-1,1763,1002,0,0
546,22,0,0,0,0,0,0,0,0,0,-1,1770,1002,0,0
553,22,0,0,0,0,0,0,0,0,0,-1,1777,1002,0,0
560,22,0,0,0,0,0,0,0,0,0,-1,1784,1002,0,0
567,22,0,0,0,0,0,0,0,0,0,-1,1791,1002,0,0
574,22,0,0,0,0,0,0,0,0,0,-1,1798,1002,0,0
581,22,0,0,0,0,0,0,0,0,0,-1,1805,1002,0,0
588,22,0,0,0,0,0,0,0,0,0,-1,1812,1002,0,0
595,22,0,0,0,0,0,0,0,0,0,-1,1819,1002,0,0
602,22,0,0,0,0,0,0,0,0,0,-1,1826,1002,0,0
609,22,0,0,0,0,0,0,0,0,0,-1,1833,1002,0,0
616,22,0,0,0,0,0,0,0,0,0,-1,1840,1002,0,0
623,22,0,0,0,0,0,0,0,0,0,-1,1847,1002,0,0
630,22,0,0,0,0,0,0,0,0,0,-1,1854,1002,0,0
637,22,0,0,0,0,0,0,0,0,0,-1,1861,1002,0,0
644,22,75.96,2.25659,-0.00380392,0.00111076,-0.00283149,0.00240253,-0.00509569,-1.14278,0.0044212,0.0387299,1868,1002,75.9599,-2.25658
651,22,75.875,2.16821,-0.00250032,0.000674841,-0.00148183,0.00125895,-0.00308443,-1.19532,0.00258042,0.0420602,1875,1002,75.875,-2.16822
658,22,75.7484,2.27563,-0.00163641,0.00050283,-0.00064263,0.000681032,-0.00181461,-1.30029,0.00148958,0.0432132,1882,1002,75.7484,-2.27564
665,22,75.6512,2.33533,-0.000927704,0.000432395,-0.000144997,0.000447681,-0.00094299,-1.46576,0.000819704,0.0405898,1889,1002,75.6513,-2.33531
672,22,75.6833,2.34894,-0.000386062,0.000522192,0.000178853,0.000556143,-0.000420013,1.3832,0.000565407,0.0388076,1896,1002,75.6834,-2.34893
679,22,75.6997,2.30884,5.54699e-05,0.000596728,0.000390125,0.000800902,-0.000148704,1.08864,0.000589785,0.0369913,1903,1002,75.6996,-2.30886
686,22,75.8033,2.53461,0.000309901,0.000347945,0.000384216,0.00071361,-5.57637e-05,0.810133,0.000495375,0.0383381,1910,1002,75.8034,-2.53464
693,22,75.8922,2.55505,0.000372787,3.26699e-05,0.000281401,0.000531523,-0.000126067,0.5136,0.000402998,0.0367518,1917,1002,75.8922,-2.55504
700,22,75.8737,2.42816,0.000299746,-6.7409e-05,0.000128637,0.000340329,-0.000107993,0.305605,0.000270176,0.0322984,1924,1002,75.8736,-2.42815
707,22,75.8334,2.36761,-0.000396911,0.000397235,-5.33107e-05,0.000400798,-0.000400474,-1.50407,0.000462615,0.0315331,1931,1002,75.8334,-2.36762
714,22,75.7993,2.35425,0,0,0,0,0,0,0,-1,1938,1002,75.7993,-2.35425
721,22,74.8076,2.73041,0,0,0,0,0,0,0,-1,1945,1002,74.8076,-2.73038
728,22,75.8181,6.95496,0,0,0,0,0,0,0,-1,1952,1002,75.8181,-6.95499
735,22,75.8293,7.10803,-0.00555159,0.00647834,-0.00108068,0.00657465,-0.0056479,-1.48191,0.00706345,0.0200429,1959,1002,75.8293,-7.108
742,22,75.8374,7.26721,-0.00678854,0.00844499,-0.00134483,0.00856281,-0.00690635,-1.48342,0.00894817,0.0188567,1966,1002,75.8374,-7.26722
749,22,75.7715,7.46753,-0.00838861,0.0110152,-0.00144566,0.0111223,-0.00849573,-1.49684,0.0113603,0.0147926,1973,1002,75.7716,-7.46752
756,22,75.7734,7.60828,-0.00985094,0.0147567,-0.00164677,0.0148664,-0.00996065,-1.50427,0.0144269,0.0205369,1980,1002,75.7735,-7.60826
763,22,75.6953,7.81079,-0.0108231,0.0201898,-0.00200759,0.0203192,-0.0109525,-1.50642,0.0183227,0.020531,1987,1002,75.6954,-7.81082
770,22,75.47,7.9408,-0.0105626,0.0270834,-0.00248079,0.0272462,-0.0107254,-1.50528,0.022604,0.0212368,1994,1002,75.4699,-7.94077
777,22,75.0747,8.00549,-0.00904666,0.03459,-0.00300338,0.0347958,-0.00925241,-1.5024,0.0268187,0.0441158,2001,1002,75.0747,-8.00547
784,22,74.7612,8.1571,0,0,0,0,0,0,0,-1,2008,1002,74.7612,-8.15712
791,22,73.9402,8.15717,0,0,0,0,0,0,0,-1,2015,1002,73.9402,-8.15719
798,22,73.9695,8.43646,0,0,0,0,0,0,0,-1,2022,1002,73.9694,-8.43649
805,22,74.3533,8.9101,0,0,0,0,0,0,0,-1,2029,1002,74.3533,-8.91011
812,22,74.7207,4.20471,0,0,0,0,0,0,0,-1,2036,1002,74.7206,-4.20471
-700,15,0,0,0,0,0,0,0,0,0,-1,524,1009,0,0
-693,15,-70.0776,-4.84076,0,0,0,0,0,0,0,-1,531,1009,-70.0776,4.84076
-686,15,-69.4113,-2.55273,0,0,0,0,0,0,0,-1,538,1009,-69.4113,2.55274
-679,15,-59.8005,4.40851,0,0,0,0,0,0,0,-1,545,1009,-59.8005,-4.40851
-672,15,-59.5018,4.77869,0,0,0,0,0,0,0,-1,552,1009,-59.5018,-4.77866
-665,15,-59.3424,4.46161,0,0,0,0,0,0,0,-1,559,1009,-59.3424,-4.46161
-658,15,-59.0594,4.48022,0,0,0,0,0,0,0,-1,566,1009,-59.0594,-4.48023
-651,15,-51.4943,3.62128,0,0,0,0,0,0,0,-1,573,1009,-51.4943,-3.62128
-644,15,-60.3434,6.15613,0,0,0,0,0,0,0,-1,580,1009,-60.3434,-6.15611
-637,15,-60.5144,6.40674,-0.0145833,0.0275426,0.00885074,0.0293266,-0.0163673,1.3719,0.0267327,0.0339407,587,1009,-60.5144,-6.40673
-630,15,-60.5171,6.31879,-0.0115978,0.0194081,0.00597113,0.0205183,-0.0127079,1.38697,0.019359,0.0186789,594,1009,-60.5171,-6.31879
-623,15,-60.5873,6.23529,-0.00889728,0.0114833,0.003541,0.012081,-0.00949497,1.40358,0.0124867,0.011353,601,1009,-60.5873,-6.23528
-616,15,-60.614,6.1402,-0.00659598,0.00367392,0.0015054,0.00389004,-0.0068121,1.42821,0.00625518,0.0185112,608,1009,-60.6139,-6.14017
-609,15,-60.7274,6.08148,-0.00472232,-0.003734,-5.76376e-05,-0.00373065,-0.00472567,-1.51274,0.00287672,0.0263929,615,1009,-60.7274,-6.08149
-602,15,-60.8483,6.01654,-0.00335758,-0.0111638,-0.00128246,-0.00315229,-0.0113691,-0.158729,0.00677759,0.0269581,622,1009,-60.8483,-6.01652
-595,15,-60.8724,5.88666,0,0,0,0,0,0,0,-1,629,1009,-60.8724,-5.88664
-588,15,-59.1528,0.265076,0,0,0,0,0,0,0,-1,636,1009,-59.1528,-0.265081
-581,15,-59.1093,0.235657,0,0,0,0,0,0,0,-1,643,1009,-59.1093,-0.235657
-574,15,-59.0847,0.182678,0,0,0,0,0,0,0,-1,650,1009,-59.0847,-0.182665
-567,15,-59.1239,0.0950317,0,0,0,0,0,0,0,-1,657,1009,-59.1239,-0.0950021
-560,15,-59.1846,0.144836,0,0,0,0,0,0,0,-1,664,1009,-59.1847,-0.144821
-553,15,-59.0191,0.265869,0,0,0,0,0,0,0,-1,671,1009,-59.0191,-0.265844
-546,15,-58.9612,0.314026,0,0,0,0,0,0,0,-1,678,1009,-58.9612,-0.314019
-539,15,-59.1346,0.318848,0,0,0,0,0,0,0,-1,685,1009,-59.1346,-0.31882
-532,15,-59.2388,0.0264282,0,0,0,0,0,0,0,-1,692,1009,-59.2388,-0.0264214
-525,15,0,0,0,0,0,0,0,0,0,-1,699,1009,0,0
-518,15,0,0,0,0,0,0,0,0,0,-1,706,1009,0,0
-511,15,0,0,0,0,0,0,0,0,0,-1,713,1009,0,0
-504,15,0,0,0,0,0,0,0,0,0,-1,720,1009,0,0
-497,15,0,0,0,0,0,0,0,0,0,-1,727,1009,0,0
-490,15,0,0,0,0,0,0,0,0,0,-1,734,1009,0,0
-483,15,0,0,0,0,0,0,0,0,0,-1,741,1009,0,0
-476,15,0,0,0,0,0,0,0,0,0,-1,748,1009,0,0
-469,15,0,0,0,0,0,0,0,0,0,-1,755,1009,0,0
-462,15,0,0,0,0,0,0,0,0,0,-1,762,1009,0,0
-455,15,0,0,0,0,0,0,0,0,0,-1,769,1009,0,0
-448,15,0,0,0,0,0,0,0,0,0,-1,776,1009,0,0
-441,15,0,0,0,0,0,0,0,0,0,-1,783,1009,0,0
-434,15,0,0,0,0,0,0,0,0,0,-1,790,1009,0,0
-427,15,0,0,0,0,0,0,0,0,0,-1,797,1009,0,0
-420,15,0,0,0,0,0,0,0,0,0,-1,804,1009,0,0
-413,15,0,0,0,0,0,0,0,0,0,-1,811,1009,0,0
-406,15,0,0,0,0,0,0,0,0,0,-1,818,1009,0,0
-399,15,0,0,0,0,0,0,0,0,0,-1,825,1009,0,0
-392,15,0,0,0,0,0,0,0,0,0,-1,832,1009,0,0
-385,15,0,0,0,0,0,0,0,0,0,-1,839,1009,0,0
-378,15,0,0,0,0,0,0,0,0,0,-1,846,1009,0,0
-371,15,0,0,0,0,0,0,0,0,0,-1,853,1009,0,0
-364,15,0,0,0,0,0,0,0,0,0,-1,860,1009,0,0
-357,15,0,0,0,0,0,0,0,0,0,-1,867,1009,0,0
-350,15,0,0,0,0,0,0,0,0,0,-1,874,1009,0,0
-343,15,0,0,0,0,0,0,0,0,0,-1,881,1009,0,0
-336,15,0,0,0,0,0,0,0,0,0,-1,888,1009,0,0
-329,15,0,0,0,0,0,0,0,0,0,-1,895,1009,0,0
-322,15,0,0,0,0,0,0,0,0,0,-1,902,1009,0,0
-315,15,0,0,0,0,0,0,0,0,0,-1,909,1009,0,0
-308,15,0,0,0,0,0,0,0,0,0,-1,916,1009,0,0
-301,15,0,0,0,0,0,0,0,0,0,-1,923,1009,0,0
-294,15,0,0,0,0,0,0,0,0,0,-1,930,1009,0,0
-287,15,0,0,0,0,0,0,0,0,0,-1,937,1009,0,0
-280,15,0,0,0,0,0,0,0,0,0,-1,944,1009,0,0
-273,15,0,0,0,0,0,0,0,0,0,-1,951,1009,0,0
-266,15,0,0,0,0,0,0,0,0,0,-1,958,1009,0,0
-259,15,0,0,0,0,0,0,0,0,0,-1,965,1009,0,0
-252,15,0,0,0,0,0,0,0,0,0,-1,972,1009,0,0
-245,15,0,0,0,0,0,0,0,0,0,-1,979,1009,0,0
-238,15,0,0,0,0,0,0,0,0,0,-1,986,1009,0,0
-231,15,0,0,0,0,0,0,0,0,0,-1,993,1009,0,0
-224,15,0,0,0,0,0,0,0,0,0,-1,1000,1009,0,0
-217,15,0,0,0,0,0,0,0,0,0,-1,1007,1009,0,0
-210,15,0,0,0,0,0,0,0,0,0,-1,1014,1009,0,0
-203,15,0,0,0,0,0,0,0,0,0,-1,1021,1009,0,0
-196,15,0,0,0,0,0,0,0,0,0,-1,1028,1009,0,0
-189,15,0,0,0,0,0,0,0,0,0,-1,1035,1009,0,0
-182,15,0,0,0,0,0,0,0,0,0,-1,1042,1009,0,0
-175,15,0,0,0,0,0,0,0,0,0,-1,1049,1009,0,0
-168,15,0,0,0,0,0,0,0,0,0,-1,1056,1009,0,0
-161,15,0,0,0,0,0,0,0,0,0,-1,1063,1009,0,0
-154,15,0,0,0,0,0,0,0,0,0,-1,1070,1009,0,0
-147,15,0,0,0,0,0,0,0,0,0,-1,1077,1009,0,0
-140,15,0,0,0,0,0,0,0,0,0,-1,1084,1009,0,0
-133,15,0,0,0,0,0,0,0,0,0,-1,1091,1009,0,0
-126,15,0,0,0,0,0,0,0,0,0,-1,1098,1009,0,0
-119,15,0,0,0,0,0,0,0,0,0,-1,1105,1009,0,0
-112,15,0,0,0,0,0,0,0,0,0,-1,1112,1009,0,0
-105,15,0,0,0,0,0,0,0,0,0,-1,1119,1009,0,0
-98,15,0,0,0,0,0,0,0,0,0,-1,1126,1009,0,0
-91,15,0,0,0,0,0,0,0,0,0,-1,1133,1009,0,0
-84,15,0,0,0,0,0,0,0,0,0,-1,1140,1009,0,0
-77,15,0,0,0,0,0,0,0,0,0,-1,1147,1009,0,0
-70,15,0,0,0,0,0,0,0,0,0,-1,1154,1009,0,0
-63,15,0,0,0,0,0,0,0,0,0,-1,1161,1009,0,0
-56,15,0,0,0,0,0,0,0,0,0,-1,1168,1009,0,0
-49,15,0,0,0,0,0,0,0,0,0,-1,1175,1009,0,0
-42,15,0,0,0,0,0,0,0,0,0,-1,1182,1009,0,0
-35,15,0,0,0,0,0,0,0,0,0,-1,1189,1009,0,0
-28,15,0,0,0,0,0,0,0,0,0,-1,1196,1009,0,0
-21,15,0,0,0,0,0,0,0,0,0,-1,1203,1009,0,0
-14,15,0,0,0,0,0,0,0,0,0,-1,1210,1009,0,0
-7,15,0,0,0,0,0,0,0,0,0,-1,1217,1009,0,0
0,15,0,0,0,0,0,0,0,0,0,-1,1224,1009,0,0
7,15,0,0,0,0,0,0,0,0,0,-1,1231,1009,0,0
14,15,0,0,0,0,0,0,0,0,0,-1,1238,1009,0,0
21,15,0,0,0,0,0,0,0,0,0,-1,1245,1009,0,0
28,15,0,0,0,0,0,0,0,0,0,-1,1252,1009,0,0
35,15,0,0,0,0,0,0,0,0,0,-1,1259,1009,0,0
42,15,0,0,0,0,0,0,0,0,0,-1,1266,1009,0,0
49,15,0,0,0,0,0,0,0,0,0,-1,1273,1009,0,0
56,15,0,0,0,0,0,0,0,0,0,-1,1280,1009,0,0
63,15,0,0,0,0,0,0,0,0,0,-1,1287,1009,0,0
70,15,0,0,0,0,0,0,0,0,0,-1,1294,1009,0,0
77,15,0,0,0,0,0,0,0,0,0,-1,1301,1009,0,0
84,15,0,0,0,0,0,0,0,0,0,-1,1308,1009,0,0
91,15,0,0,0,0,0,0,0,0,0,-1,1315,1009,0,0
98,15,0,0,0,0,0,0,0,0,0,-1,1322,1009,0,0
105,15,0,0,0,0,0,0,0,0,0,-1,1329,1009,0,0
112,15,0,0,0,0,0,0,0,0,0,-1,1336,1009,0,0
119,15,0,0,0,0,0,0,0,0,0,-1,1343,1009,0,0
126,15,0,0,0,0,0,0,0,0,0,-1,1350,1009,0,0
133,15,0,0,0,0,0,0,0,0,0,-1,1357,1009,0,0
140,15,0,0,0,0,0,0,0,0,0,-1,1364,1009,0,0
147,15,0,0,0,0,0,0,0,0,0,-1,1371,1009,0,0
154,15,0,0,0,0,0,0,0,0,0,-1,1378,1009,0,0
161,15,0,0,0,0,0,0,0,0,0,-1,1385,1009,0,0
168,15,0,0,0,0,0,0,0,0,0,-1,1392,1009,0,0
175,15,0,0,0,0,0,0,0,0,0,-1,1399,1009,0,0
182,15,0,0,0,0,0,0,0,0,0,-1,1406,1009,0,0
189,15,0,0,0,0,0,0,0,0,0,-1,1413,1009,0,0
196,15,0,0,0,0,0,0,0,0,0,-1,1420,1009,0,0
203,15,0,0,0,0,0,0,0,0,0,-1,1427,1009,0,0
210,15,0,0,0,0,0,0,0,0,0,-1,1434,1009,0,0
217,15,0,0,0,0,0,0,0,0,0,-1,1441,1009,0,0
224,15,0,0,0,0,0,0,0,0,0,-1,1448,1009,0,0
231,15,0,0,0,0,0,0,0,0,0,-1,1455,1009,0,0
238,15,0,0,0,0,0,0,0,0,0,-1,1462,1009,0,0
245,15,0,0,0,0,0,0,0,0,0,-1,1469,1009,0,0
252,15,0,0,0,0,0,0,0,0,0,-1,1476,1009,0,0
259,15,0,0,0,0,0,0,0,0,0,-1,1483,1009,0,0
266,15,0,0,0,0,0,0,0,0,0,-1,1490,1009,0,0
273,15,0,0,0,0,0,0,0,0,0,-1,1497,1009,0,0
280,15,0,0,0,0,0,0,0,0,0,-1,1504,1009,0,0
287,15,0,0,0,0,0,0,0,0,0,-1,1511,1009,0,0
294,15,0,0,0,0,0,0,0,0,0,-1,1518,1009,0,0
301,15,0,0,0,0,0,0,0,0,0,-1,1525,1009,0,0
308,15,0,0,0,0,0,0,0,0,0,-1,1532,1009,0,0
315,15,0,0,0,0,0,0,0,0,0,-1,1539,1009,0,0
322,15,0,0,0,0,0,0,0,0,0,-1,1546,1009,0,0
329,15,0,0,0,0,0,0,0,0,0,-1,1553,1009,0,0
336,15,0,0,0,0,0,0,0,0,0,-1,1560,1009,0,0
343,15,0,0,0,0,0,0,0,0,0,-1,1567,1009,0,0
350,15,0,0,0,0,0,0,0,0,0,-1,1574,1009,0,0
357,15,0,0,0,0,0,0,0,0,0,-1,1581,1009,0,0
364,15,0,0,0,0,0,0,0,0,0,-1,1588,1009,0,0
371,15,0,0,0,0,0,0,0,0,0,-1,1595,1009,0,0
378,15,0,0,0,0,0,0,0,0,0,-1,1602,1009,0,0
385,15,0,0,0,0,0,0,0,0,0,-1,1609,1009,0,0
392,15,0,0,0,0,0,0,0,0,0,-1,1616,1009,0,0
399,15,0,0,0,0,0,0,0,0,0,-1,1623,1009,0,0
406,15,0,0,0,0,0,0,0,0,0,-1,1630,1009,0,0
413,15,0,0,0,0,0,0,0,0,0,-1,1637,1009,0,0
420,15,0,0,0,0,0,0,0,0,0,-1,1644,1009,0,0
427,15,0,0,0,0,0,0,0,0,0,-1,1651,1009,0,0
434,15,0,0,0,0,0,0,0,0,0,-1,1658,1009,0,0
441,15,0,0,0,0,0,0,0,0,0,-1,1665,1009,0,0
448,15,0,0,0,0,0,0,0,0,0,-1,1672,1009,0,0
455,15,0,0,0,0,0,0,0,0,0,-1,1679,1009,0,0
462,15,0,0,0,0,0,0,0,0,0,-1,1686,1009,0,0
469,15,0,0,0,0,0,0,0,0,0,-1,1693,1009,0,0
476,15,0,0,0,0,0,0,0,0,0,-1,1700,1009,0,0
483,15,0,0,0,0,0,0,0,0,0,-1,1707,1009,0,0
490,15,0,0,0,0,0,0,0,0,0,-1,1714,1009,0,0
497,15,0,0,0,0,0,0,0,0,0,-1,1721,1009,0,0
504,15,0,0,0,0,0,0,0,0,0,-1,1728,1009,0,0
511,15,0,0,0,0,0,0,0,0,0,-1,1735,1009,0,0
518,15,0,0,0,0,0,0,0,0,0,-1,1742,1009,0,0
525,15,0,0,0,0,0,0,0,0,0,-1,1749,1009,0,0
532,15,0,0,0,0,0,0,0,0,0,-1,1756,1009,0,0
539,15,0,0,0,0,0,0,0,0,0,-1,1763,1009,0,0
546,15,0,0,0,0,0,0,0,0,0,-1,1770,1009,0,0
553,15,0,0,0,0,0,0,0,0,0,-1,1777,1009,0,0
560,15,0,0,0,0,0,0,0,0,0,-1,1784,1009,0,0
567,15,0,0,0,0,0,0,0,0,0,-1,1791,1009,0,0
574,15,0,0,0,0,0,0,0,0,0,-1,1798,1009,0,0
581,15,0,0,0,0,0,0,0,0,0,-1,1805,1009,0,0
588,15,0,0,0,0,0,0,0,0,0,-1,1812,1009,0,0
595,15,0,0,0,0,0,0,0,0,0,-1,1819,1009,0,0
602,15,0,0,0,0,0,0,0,0,0,-1,1826,1009,0,0
609,15,0,0,0,0,0,0,0,0,0,-1,1833,1009,0,0
616,15,0,0,0,0,0,0,0,0,0,-1,1840,1009,0,0
623,15,0,0,0,0,0,0,0,0,0,-1,1847,1009,0,0
630,15,0,0,0,0,0,0,0,0,0,-1,1854,1009,0,0
637,15,0,0,0,0,0,0,0,0,0,-1,1861,1009,0,0
644,15,75.9232,2.2428,-0.00387567,0.000533252,-0.00272465,0.00183355,-0.00517597,-1.12553,0.00419751,0.0395476,1868,1009,75.9233,-2.24279
651,15,75.8917,2.12225,-0.00257576,0.000304254,-0.0014322,0.000895213,-0.00316671,-1.17946,0.00246436,0.0396019,1875,1009,75.8917,-2.12226
658,15,75.7208,2.14069,-0.00172716,0.000289386,-0.00065484,0.000483373,-0.00192115,-1.2828,0.00146865,0.0400929,1882,1009,75.7208,-2.14067
665,15,75.6859,2.2951,-0.00103489,0.000322892,-0.000198171,0.000351224,-0.00106322,-1.42879,0.000850418,0.0402707,1889,1009,75.6859,-2.29508
672,15,75.7238,2.37823,-0.000468116,0.00052531,9.49024e-05,0.000534295,-0.0004771,1.4764,0.000584241,0.0382795,1896,1009,75.7238,-2.37825
679,15,75.7961,2.41711,2.80305e-05,0.000734281,0.000277175,0.000830069,-6.77576e-05,1.23806,0.000577292,0.0365359,1903,1009,75.7962,-2.41712
686,15,75.8123,2.53595,0.000271236,0.000585359,0.000263811,0.000735323,0.000121271,1.0539,0.000455209,0.0429095,1910,1009,75.8123,-2.53592
693,15,75.8098,2.42859,0.000328545,0.000335747,0.000186223,0.000518403,0.000145889,0.795066,0.000308686,0.0406825,1917,1009,75.8098,-2.42856
700,15,75.8291,2.30261,0.00028897,0.00022688,8.55234e-05,0.000348909,0.000166941,0.611292,0.000201505,0.0298506,1924,1009,75.829,-2.30261
707,15,75.7983,2.32227,-0.000455545,0.000671596,-2.5099e-05,0.000672155,-0.000456104,-1.54854,0.00065537,0.0271838,1931,1009,75.7983,-2.32227
714,15,75.8051,2.40167,-0.00162583,0.00160989,-0.000181792,0.00162007,-0.00163601,-1.51485,0.0018799,0.0386861,1938,1009,75.8051,-2.40165
721,15,75.6965,2.37415,0,0,0,0,0,0,0,-1,1945,1009,75.6965,-2.37416
728,15,76.0374,7.08917,0,0,0,0,0,0,0,-1,1952,1009,76.0374,-7.08919
735,15,75.9338,7.25549,-0.00599411,0.00676857,-0.000733572,0.00681059,-0.00603613,-1.51357,0.00742155,0.0234414,1959,1009,75.9338,-7.25549
742,15,75.9658,7.44263,-0.00727528,0.00865897,-0.000908322,0.00871058,-0.00732689,-1.51404,0.00927072,0.048042,1966,1009,75.9658,-7.44261
749,15,75.9463,7.52075,-0.00893168,0.0111045,-0.000949988,0.0111494,-0.00897662,-1.52352,0.0116423,0.0298599,1973,1009,75.9462,-7.52072
756,15,75.9475,7.45526,-0.0105007,0.0147627,-0.00115263,0.0148152,-0.0105532,-1.5253,0.0147151,0.0217455,1980,1009,75.9475,-7.45526
763,15,75.844,7.62024,-0.0117276,0.0201441,-0.00155821,0.0202201,-0.0118036,-1.52206,0.0187005,0.0157348,1987,1009,75.844,-7.62025
770,15,75.6504,7.66461,-0.0118784,0.0271557,-0.00215131,0.0272739,-0.0119966,-1.5159,0.0232377,0.0216179,1994,1009,75.6504,-7.66463
777,15,75.1777,7.73761,-0.0107784,0.0351219,-0.00296829,0.035313,-0.0109696,-1.50648,0.0279262,0.0473558,2001,1009,75.1778,-7.73759
784,15,74.7588,7.85742,0,0,0,0,0,0,0,-1,2008,1009,74.7589,-7.85745
791,15,71.5635,6.11658,0,0,0,0,0,0,0,-1,2015,1009,71.5636,-6.1166
798,15,73.218,8.20026,0,0,0,0,0,0,0,-1,2022,1009,73.2179,-8.20025
805,15,73.0918,5.70203,0,0,0,0,0,0,0,-1,2029,1009,73.0919,-5.70202
812,15,74.7666,4.17609,0,0,0,0,0,0,0,-1,2036,1009,74.7665,-4.17609
-700,8,0,0,0,0,0,0,0,0,0,-1,524,1016,0,0
-693,8,-69.2416,-5.01489,0,0,0,0,0,0,0,-1,531,1016,-69.2416,5.01487
-686,8,-68.7694,-2.52966,0,0,0,0,0,0,0,-1,538,1016,-68.7694,2.52968
-679,8,-59.8243,4.43701,0,0,0,0,0,0,0,-1,545,1016,-59.8243,-4.43704
-672,8,-59.5292,4.77765,0,0,0,0,0,0,0,-1,552,1016,-59.5292,-4.77765
-665,8,-59.1773,4.76471,0,0,0,0,0,0,0,-1,559,1016,-59.1773,-4.76471
-658,8,-58.8746,4.82581,0,0,0,0,0,0,0,-1,566,1016,-58.8746,-4.82578
-651,8,-58.2461,5.43817,0,0,0,0,0,0,0,-1,573,1016,-58.2461,-5.43819
-644,8,-60.2536,5.82562,0,0,0,0,0,0,0,-1,580,1016,-60.2536,-5.82562
-637,8,-60.3047,6.02539,-0.0136679,0.0286916,0.00884421,0.030464,-0.0154404,1.37301,0.0269719,0.0469491,587,1016,-60.3047,-6.02538
-630,8,-60.5809,6.1936,-0.0109782,0.0197874,0.00561604,0.0207805,-0.0119713,1.39577,0.0191359,0.0285828,594,1016,-60.5809,-6.1936
-623,8,-60.5524,6.20673,-0.008532,0.0113567,0.00288251,0.0117661,-0.00894135,1.42973,0.0119924,0.0177094,601,1016,-60.5524,-6.20673
-616,8,-60.6215,6.15967,-0.00646224,0.00325564,0.000585276,0.00329076,-0.00649736,1.51086,0.00575137,0.0200496,608,1016,-60.6215,-6.15968
-609,8,-60.7173,6.06476,-0.00478347,-0.00404528,-0.00111688,-0.00323809,-0.00559066,-0.944983,0.00324124,0.0245634,615,1016,-60.7173,-6.06478
-602,8,-60.6849,6.11169,-0.00372238,-0.0112522,-0.00249758,-0.00296928,-0.0120053,-0.292864,0.00722024,0.0278006,622,1016,-60.6849,-6.1117
-595,8,-60.8275,6.01074,0,0,0,0,0,0,0,-1,629,1016,-60.8275,-6.01073
-588,8,-59.0349,0.081604,0,0,0,0,0,0,0,-1,636,1016,-59.0349,-0.0815991
-581,8,-59.0782,0.102417,0,0,0,0,0,0,0,-1,643,1016,-59.0782,-0.102406
-574,8,-59.0635,0.112915,0,0,0,0,0,0,0,-1,650,1016,-59.0635,-0.112932
-567,8,-59.1721,0.180847,0,0,0,0,0,0,0,-1,657,1016,-59.1721,-0.180834
-560,8,-59.2191,0.207031,0,0,0,0,0,0,0,-1,664,1016,-59.2191,-0.207018
-553,8,-59.0987,0.240479,0,0,0,0,0,0,0,-1,671,1016,-59.0987,-0.240449
-546,8,-59.145,0.349792,0,0,0,0,0,0,0,-1,678,1016,-59.145,-0.349781
-539,8,-59.2209,0.504456,0,0,0,0,0,0,0,-1,685,1016,-59.2209,-0.504472
-532,8,-59.1678,0.401306,0,0,0,0,0,0,0,-1,692,1016,-59.1678,-0.4013
-525,8,0,0,0,0,0,0,0,0,0,-1,699,1016,0,0
-518,8,0,0,0,0,0,0,0,0,0,-1,706,1016,0,0
-511,8,0,0,0,0,0,0,0,0,0,-1,713,1016,0,0
-504,8,0,0,0,0,0,0,0,0,0,-1,720,1016,0,0
-497,8,0,0,0,0,0,0,0,0,0,-1,727,1016,0,0
-490,8,0,0,0,0,0,0,0,0,0,-1,734,1016,0,0
-483,8,0,0,0,0,0,0,0,0,0,-1,741,1016,0,0
-476,8,0,0,0,0,0,0,0,0,0,-1,748,1016,0,0
-469,8,0,0,0,0,0,0,0,0,0,-1,755,1016,0,0
-462,8,0,0,0,0,0,0,0,0,0,-1,762,1016,0,0
-455,8,0,0,0,0,0,0,0,0,0,-1,769,1016,0,0
-448,8,0,0,0,0,0,0,0,0,0,-1,776,1016,0,0
-441,8,0,0,0,0,0,0,0,0,0,-1,783,1016,0,0
-434,8,0,0,0,0,0,0,0,0,0,-1,790,1016,0,0
-427,8,0,0,0,0,0,0,0,0,0,-1,797,1016,0,0
-420,8,0,0,0,0,0,0,0,0,0,-1,804,1016,0,0
-413,8,0,0,0,0,0,0,0,0,0,-1,811,1016,0,0
-406,8,0,0,0,0,0,0,0,0,0,-1,818,1016,0,0
-399,8,0,0,0,0,0,0,0,0,0,-1,825,1016,0,0
-392,8,0,0,0,0,0,0,0,0,0,-1,832,1016,0,0
-385,8,0,0,0,0,0,0,0,0,0,-1,839,1016,0,0
-378,8,0,0,0,0,0,0,0,0,0,-1,846,1016,0,0
-371,8,0,0,0,0,0,0,0,0,0,-1,853,1016,0,0
-364,8,0,0,0,0,0,0,0,0,0,-1,860,1016,0,0
-357,8,0,0,0,0,0,0,0,0,0,-1,867,1016,0,0
-350,8,0,0,0,0,0,0,0,0,0,-1,874,1016,0,0
-343,8,0,0,0,0,0,0,0,0,0,-1,881,1016,0,0
-336,8,0,0,0,0,0,0,0,0,0,-1,888,1016,0,0
-329,8,0,0,0,0,0,0,0,0,0,-1,895,1016,0,0
-322,8,0,0,0,0,0,0,0,0,0,-1,902,1016,0,0
-315,8,0,0,0,0,0,0,0,0,0,-1,909,1016,0,0
-308,8,0,0,0,0,0,0,0,0,0,-1,916,1016,0,0
-301,8,0,0,0,0,0,0,0,0,0,-1,923,1016,0,0
-294,8,0,0,0,0,0,0,0,0,0,-1,930,1016,0,0
-287,8,0,0,0,0,0,0,0,0,0,-1,937,1016,0,0
-280,8,0,0,0,0,0,0,0,0,0,-1,944,1016,0,0
-273,8,0,0,0,0,0,0,0,0,0,-1,951,1016,0,0
-266,8,0,0,0,0,0,0,0,0,0,-1,958,1016,0,0
-259,8,0,0,0,0,0,0,0,0,0,-1,965,1016,0,0
-252,8,0,0,0,0,0,0,0,0,0,-1,972,1016,0,0
-245,8,0,0,0,0,0,0,0,0,0,-1,979,1016,0,0
-238,8,0,0,0,0,0,0,0,0,0,-1,986,1016,0,0
-231,8,0,0,0,0,0,0,0,0,0,-1,993,1016,0,0
-224,8,0,0,0,0,0,0,0,0,0,-1,1000,1016,0,0
-217,8,0,0,0,0,0,0,0,0,0,-1,1007,1016,0,0
-210,8,0,0,0,0,0,0,0,0,0,-1,1014,1016,0,0
-203,8,0,0,0,0,0,0,0,0,0,-1,1021,1016,0,0
-196,8,0,0,0,0,0,0,0,0,0,-1,1028,1016,0,0
-189,8,0,0,0,0,0,0,0,0,0,-1,1035,1016,0,0
-182,8,0,0,0,0,0,0,0,0,0,-1,1042,1016,0,0
-175,8,0,0,0,0,0,0,0,0,0,-1,1049,1016,0,0
-168,8,0,0,0,0,0,0,0,0,0,-1,1056,1016,0,0
-161,8,0,0,0,0,0,0,0,0,0,-1,1063,1016,0,0
-154,8,0,0,0,0,0,0,0,0,0,-1,1070,1016,0,0
-147,8,0,0,0,0,0,0,0,0,0,-1,1077,1016,0,0
-140,8,0,0,0,0,0,0,0,0,0,-1,1084,1016,0,0
-133,8,0,0,0,0,0,0,0,0,0,-1,1091,1016,0,0
-126,8,0,0,0,0,0,0,0,0,0,-1,1098,1016,0,0
-119,8,0,0,0,0,0,0,0,0,0,-1,1105,1016,0,0
-112,8,0,0,0,0,0,0,0,0,0,-1,1112,1016,0,0
-105,8,0,0,0,0,0,0,0,0,0,-1,1119,1016,0,0
-98,8,0,0,0,0,0,0,0,0,0,-1,1126,1016,0,0
-91,8,0,0,0,0,0,0,0,0,0,-1,1133,1016,0,0
-84,8,0,0,0,0,0,0,0,0,0,-1,1140,1016,0,0
-77,8,0,0,0,0,0,0,0,0,0,-1,1147,1016,0,0
-70,8,0,0,0,0,0,0,0,0,0,-1,1154,1016,0,0
-63,8,0,0,0,0,0,0,0,0,0,-1,1161,1016,0,0
-56,8,0,0,0,0,0,0,0,0,0,-1,1168,1016,0,0
-49,8,0,0,0,0,0,0,0,0,0,-1,1175,1016,0,0
-42,8,0,0,0,0,0,0,0,0,0,-1,1182,1016,0,0
-35,8,0,0,0,0,0,0,0,0,0,-1,1189,1016,0,0
-28,8,0,0,0,0,0,0,0,0,0,-1,1196,1016,0,0
-21,8,0,0,0,0,0,0,0,0,0,-1,1203,1016,0,0
-14,8,0,0,0,0,0,0,0,0,0,-1,1210,1016,0,0
-7,8,0,0,0,0,0,0,0,0,0,-1,1217,1016,0,0
0,8,0,0,0,0,0,0,0,0,0,-1,1224,1016,0,0
7,8,0,0,0,0,0,0,0,0,0,-1,1231,1016,0,0
14,8,0,0,0,0,0,0,0,0,0,-1,1238,1016,0,0
21,8,0,0,0,0,0,0,0,0,0,-1,1245,1016,0,0
28,8,0,0,0,0,0,0,0,0,0,-1,1252,1016,0,0
35,8,0,0,0,0,0,0,0,0,0,-1,1259,1016,0,0
42,8,0,0,0,0,0,0,0,0,0,-1,1266,1016,0,0
49,8,0,0,0,0,0,0,0,0,0,-1,1273,1016,0,0
56,8,0,0,0,0,0,0,0,0,0,-1,1280,1016,0,0
63,8,0,0,0,0,0,0,0,0,0,-1,1287,1016,0,0
70,8,0,0,0,0,0,0,0,0,0,-1,1294,1016,0,0
77,8,0,0,0,0,0,0,0,0,0,-1,1301,1016,0,0
84,8,0,0,0,0,0,0,0,0,0,-1,1308,1016,0,0
91,8,0,0,0,0,0,0,0,0,0,-1,1315,1016,0,0
98,8,0,0,0,0,0,0,0,0,0,-1,1322,1016,0,0
105,8,0,0,0,0,0,0,0,0,0,-1,1329,1016,0,0
112,8,0,0,0,0,0,0,0,0,0,-1,1336,1016,0,0
119,8,0,0,0,0,0,0,0,0,0,-1,1343,1016,0,0
126,8,0,0,0,0,0,0,0,0,0,-1,1350,1016,0,0
133,8,0,0,0,0,0,0,0,0,0,-1,1357,1016,0,0
140,8,0,0,0,0,0,0,0,0,0,-1,1364,1016,0,0
147,8,0,0,0,0,0,0,0,0,0,-1,1371,1016,0,0
154,8,0,0,0,0,0,0,0,0,0,-1,1378,1016,0,0
161,8,0,0,0,0,0,0,0,0,0,-1,1385,1016,0,0
168,8,0,0,0,0,0,0,0,0,0,-1,1392,1016,0,0
175,8,0,0,0,0,0,0,0,0,0,-1,1399,1016,0,0
182,8,0,0,0,0,0,0,0,0,0,-1,1406,1016,0,0
189,8,0,0,0,0,0,0,0,0,0,-1,1413,1016,0,0
196,8,0,0,0,0,0,0,0,0,0,-1,1420,1016,0,0
203,8,0,0,0,0,0,0,0,0,0,-1,1427,1016,0,0
210,8,0,0,0,0,0,0,0,0,0,-1,1434,1016,0,0
217,8,0,0,0,0,0,0,0,0,0,-1,1441,1016,0,0
224,8,0,0,0,0,0,0,0,0,0,-1,1448,1016,0,0
231,8,0,0,0,0,0,0,0,0,0,-1,1455,1016,0,0
238,8,0,0,0,0,0,0,0,0,0,-1,1462,1016,0,0
245,8,0,0,0,0,0,0,0,0,0,-1,1469,1016,0,0
252,8,0,0,0,0,0,0,0,0,0,-1,1476,1016,0,0
259,8,0,0,0,0,0,0,0,0,0,-1,1483,1016,0,0
266,8,0,0,0,0,0,0,0,0,0,-1,1490,1016,0,0
273,8,0,0,0,0,0,0,0,0,0,-1,1497,1016,0,0
280,8,0,0,0,0,0,0,0,0,0,-1,1504,1016,0,0
287,8,0,0,0,0,0,0,0,0,0,-1,1511,1016,0,0
294,8,0,0,0,0,0,0,0,0,0,-1,1518,1016,0,0
301,8,0,0,0,0,0,0,0,0,0,-1,1525,1016,0,0
308,8,0,0,0,0,0,0,0,0,0,-1,1532,1016,0,0
315,8,0,0,0,0,0,0,0,0,0,-1,1539,1016,0,0
322,8,0,0,0,0,0,0,0,0,0,-1,1546,1016,0,0
329,8,0,0,0,0,0,0,0,0,0,-1,1553,1016,0,0
336,8,0,0,0,0,0,0,0,0,0,-1,1560,1016,0,0
343,8,0,0,0,0,0,0,0,0,0,-1,1567,1016,0,0
350,8,0,0,0,0,0,0,0,0,0,-1,1574,1016,0,0
357,8,0,0,0,0,0,0,0,0,0,-1,1581,1016,0,0
364,8,0,0,0,0,0,0,0,0,0,-1,1588,1016,0,0
371,8,0,0,0,0,0,0,0,0,0,-1,1595,1016,0,0
378,8,0,0,0,0,0,0,0,0,0,-1,1602,1016,0,0
385,8,0,0,0,0,0,0,0,0,0,-1,1609,1016,0,0
392,8,0,0,0,0,0,0,0,0,0,-1,1616,1016,0,0
399,8,0,0,0,0,0,0,0,0,0,-1,1623,1016,0,0
406,8,0,0,0,0,0,0,0,0,0,-1,1630,1016,0,0
413,8,0,0,0,0,0,0,0,0,0,-1,1637,1016,0,0
420,8,0,0,0,0,0,0,0,0,0,-1,1644,1016,0,0
427,8,0,0,0,0,0,0,0,0,0,-1,1651,1016,0,0
434,8,0,0,0,0,0,0,0,0,0,-1,1658,1016,0,0
441,8,0,0,0,0,0,0,0,0,0,-1,1665,1016,0,0
448,8,0,0,0,0,0,0,0,0,0,-1,1672,1016,0,0
455,8,0,0,0,0,0,0,0,0,0,-1,1679,1016,0,0
462,8,0,0,0,0,0,0,0,0,0,-1,1686,1016,0,0
469,8,0,0,0,0,0,0,0,0,0,-1,1693,1016,0,0
476,8,0,0,0,0,0,0,0,0,0,-1,1700,1016,0,0
483,8,0,0,0,0,0,0,0,0,0,-1,1707,1016,0,0
490,8,0,0,0,0,0,0,0,0,0,-1,1714,1016,0,0
497,8,0,0,0,0,0,0,0,0,0,-1,1721,1016,0,0
504,8,0,0,0,0,0,0,0,0,0,-1,1728,1016,0,0
511,8,0,0,0,0,0,0,0,0,0,-1,1735,1016,0,0
518,8,0,0,0,0,0,0,0,0,0,-1,1742,1016,0,0
525,8,0,0,0,0,0,0,0,0,0,-1,1749,1016,0,0
532,8,0,0,0,0,0,0,0,0,0,-1,1756,1016,0,0
539,8,0,0,0,0,0,0,0,0,0,-1,1763,1016,0,0
546,8,0,0,0,0,0,0,0,0,0,-1,1770,1016,0,0
553,8,0,0,0,0,0,0,0,0,0,-1,1777,1016,0,0
560,8,0,0,0,0,0,0,0,0,0,-1,1784,1016,0,0
567,8,0,0,0,0,0,0,0,0,0,-1,1791,1016,0,0
574,8,0,0,0,0,0,0,0,0,0,-1,1798,1016,0,0
581,8,0,0,0,0,0,0,0,0,0,-1,1805,1016,0,0
588,8,0,0,0,0,0,0,0,0,0,-1,1812,1016,0,0
595,8,0,0,0,0,0,0,0,0,0,-1,1819,1016,0,0
602,8,0,0,0,0,0,0,0,0,0,-1,1826,1016,0,0
609,8,0,0,0,0,0,0,0,0,0,-1,1833,1016,0,0
616,8,0,0,0,0,0,0,0,0,0,-1,1840,1016,0,0
623,8,0,0,0,0,0,0,0,0,0,-1,1847,1016,0,0
630,8,0,0,0,0,0,0,0,0,0,-1,1854,1016,0,0
637,8,0,0,0,0,0,0,0,0,0,-1,1861,1016,0,0
644,8,75.803,2.38733,-0.00475504,0.000560949,-0.00230658,0.00142222,-0.00561631,-1.21343,0.00429746,0.0417604,1868,1016,75.803,-2.38731
651,8,75.8625,2.36615,-0.00316395,0.000298176,-0.00108778,0.00061158,-0.00347735,-1.29028,0.00254669,0.0382943,1875,1016,75.8625,-2.36615
658,8,75.7798,2.38269,-0.00213181,0.00027574,-0.000420399,0.000347037,-0.00220311,-1.4028,0.00159704,0.0392648,1882,1016,75.7798,-2.38269
665,8,75.7762,2.48206,-0.00133369,0.000304132,-5.02856e-05,0.000305675,-0.00133523,-1.54013,0.00100762,0.041499,1889,1016,75.7763,-2.48208
672,8,75.89,2.61652,-0.000667438,0.000537271,0.000166975,0.000559986,-0.000690152,1.43559,0.000723071,0.0409596,1896,1016,75.8901,-2.61654
679,8,75.7805,2.3764,-6.72095e-05,0.000822836,0.000280988,0.000904121,-0.000148494,1.2892,0.000657856,0.0381954,1903,1016,75.7805,-2.37641
686,8,75.7634,2.24084,0.000180372,0.00074192,0.000232097,0.00082543,9.68615e-05,1.22541,0.000521009,0.0427285,1910,1016,75.7634,-2.24082
693,8,75.8029,2.3537,0.000229843,0.000537721,0.000169399,0.000612678,0.000154886,1.15421,0.000367858,0.0409445,1917,1016,75.8029,-2.3537
700,8,75.818,2.27252,0.000213013,0.000431204,0.000119476,0.000483899,0.000160318,1.15541,0.000284631,0.0309414,1924,1016,75.818,-2.27251
707,8,75.7783,2.30713,-0.000581746,0.000854301,7.88083e-05,0.000858613,-0.000586058,1.51614,0.000839015,0.0242112,1931,1016,75.7784,-2.30716
714,8,75.8029,2.28223,-0.00177435,0.00177926,-1.20162e-05,0.0017793,-0.00177439,-1.56741,0.00205172,0.0336223,1938,1016,75.8029,-2.28226
721,8,75.8087,2.12659,0,0,0,0,0,0,0,-1,1945,1016,75.8087,-2.12661
728,8,52.1681,5.36774,0,0,0,0,0,0,0,-1,1952,1016,52.168,-5.36773
735,8,76.0134,7.44208,0,0,0,0,0,0,0,-1,1959,1016,76.0134,-7.44208
742,8,75.8771,7.59412,0,0,0,0,0,0,0,-1,1966,1016,75.8771,-7.59412
749,8,76.3193,7.4884,0,0,0,0,0,0,0,-1,1973,1016,76.3193,-7.48843
756,8,76.0229,7.30371,-0.01098,0.0146142,-0.000677518,0.0146322,-0.010998,-1.54435,0.0148471,0.0432909,1980,1016,76.0229,-7.30371
763,8,75.9458,7.42554,-0.0122906,0.019868,-0.00115451,0.0199094,-0.012332,-1.53496,0.0187852,0.0181954,1987,1016,75.9459,-7.42551
770,8,75.7935,7.38593,-0.0126153,0.0268117,-0.00191352,0.0269044,-0.012708,-1.52241,0.0233546,0.022925,1994,1016,75.7935,-7.38593
777,8,75.3889,7.39526,-0.0116645,0.0350039,-0.00303375,0.0352002,-0.0118609,-1.50615,0.0282626,0.0376283,2001,1016,75.3889,-7.39524
784,8,74.9888,7.38721,0,0,0,0,0,0,0,-1,2008,1016,74.9889,-7.3872
791,8,71.7517,6.66052,0,0,0,0,0,0,0,-1,2015,1016,71.7516,-6.66053
798,8,72.3938,5.91559,0,0,0,0,0,0,0,-1,2022,1016,72.3939,-5.91561
805,8,74.0225,5.54028,0,0,0,0,0,0,0,-1,2029,1016,74.0224,-5.54026
812,8,75.1099,3.87701,0,0,0,0,0,0,0,-1,2036,1016,75.1098,-3.877
-700,1,0,0,0,0,0,0,0,0,0,-1,524,1023,0,0
-693,1,-68.1547,-5.27759,0,0,0,0,0,0,0,-1,531,1023,-68.1547,5.27762
-686,1,-67.2436,-3.32556,0,0,0,0,0,0,0,-1,538,1023,-67.2436,3.32553
-679,1,-56.7238,0.455078,0,0,0,0,0,0,0,-1,545,1023,-56.7238,-0.455081
-672,1,-59.5455,4.8078,0,0,0,0,0,0,0,-1,552,1023,-59.5455,-4.80781
-665,1,-59.6253,2.46619,0,0,0,0,0,0,0,-1,559,1023,-59.6253,-2.46619
-658,1,-60.7065,5.63171,0,0,0,0,0,0,0,-1,566,1023,-60.7065,-5.63173
-651,1,-60.356,5.88428,0,0,0,0,0,0,0,-1,573,1023,-60.356,-5.8843
-644,1,-60.0929,6.07892,0,0,0,0,0,0,0,-1,580,1023,-60.0929,-6.07894
-637,1,-60.3268,5.97198,-0.0120763,0.0296813,0.0091832,0.0316116,-0.0140066,1.36361,0.0269835,0.0446456,587,1023,-60.3269,-5.97201
-630,1,-60.6807,6.01385,-0.00985779,0.0200425,0.00552539,0.0210308,-0.0108462,1.39379,0.0187147,0.0400966,594,1023,-60.6808,-6.01385
-623,1,-60.5173,6.13257,-0.00775455,0.01111,0.00242581,0.011417,-0.0080615,1.44493,0.0113014,0.0189048,601,1023,-60.5173,-6.13255
-616,1,-60.6648,5.86829,0,0,0,0,0,0,0,-1,608,1023,-60.6648,-5.86827
-609,1,-60.7211,6.07813,0,0,0,0,0,0,0,-1,615,1023,-60.7211,-6.07814
-602,1,-60.7775,6.28802,0,0,0,0,0,0,0,-1,622,1023,-60.7775,-6.28801
-595,1,-60.0756,5.93909,0,0,0,0,0,0,0,-1,629,1023,-60.0756,-5.93911
-588,1,-60.0053,6.09814,0,0,0,0,0,0,0,-1,636,1023,-60.0053,-6.09814
-581,1,-59.096,0.139709,0,0,0,0,0,0,0,-1,643,1023,-59.096,-0.139714
-574,1,-59.1521,0.151367,0,0,0,0,0,0,0,-1,650,1023,-59.1521,-0.151344
-567,1,-59.2006,0.313721,0,0,0,0,0,0,0,-1,657,1023,-59.2006,-0.31371
-560,1,-59.1703,0.411377,0,0,0,0,0,0,0,-1,664,1023,-59.1704,-0.4114
-553,1,-59.196,0.234802,0,0,0,0,0,0,0,-1,671,1023,-59.196,-0.234792
-546,1,-59.2491,0.204285,0,0,0,0,0,0,0,-1,678,1023,-59.2491,-0.204276
-539,1,-59.2364,0.365906,0,0,0,0,0,0,0,-1,685,1023,-59.2364,-0.365929
-532,1,-59.1412,0.273621,0,0,0,0,0,0,0,-1,692,1023,-59.1411,-0.273592
-525,1,0,0,0,0,0,0,0,0,0,-1,699,1023,0,0
-518,1,0,0,0,0,0,0,0,0,0,-1,706,1023,0,0
-511,1,0,0,0,0,0,0,0,0,0,-1,713,1023,0,0
-504,1,0,0,0,0,0,0,0,0,0,-1,720,1023,0,0
-497,1,0,0,0,0,0,0,0,0,0,-1,727,1023,0,0
-490,1,0,0,0,0,0,0,0,0,0,-1,734,1023,0,0
-483,1,0,0,0,0,0,0,0,0,0,-1,741,1023,0,0
-476,1,0,0,0,0,0,0,0,0,0,-1,748,1023,0,0
-469,1,0,0,0,0,0,0,0,0,0,-1,755,1023,0,0
-462,1,0,0,0,0,0,0,0,0,0,-1,762,1023,0,0
-455,1,0,0,0,0,0,0,0,0,0,-1,769,1023,0,0
-448,1,0,0,0,0,0,0,0,0,0,-1,776,1023,0,0
-441,1,0,0,0,0,0,0,0,0,0,-1,783,1023,0,0
-434,1,0,0,0,0,0,0,0,0,0,-1,790,1023,0,0
-427,1,0,0,0,0,0,0,0,0,0,-1,797,1023,0,0
-420,1,0,0,0,0,0,0,0,0,0,-1,804,1023,0,0
-413,1,0,0,0,0,0,0,0,0,0,-1,811,1023,0,0
-406,1,0,0,0,0,0,0,0,0,0,-1,818,1023,0,0
-399,1,0,0,0,0,0,0,0,0,0,-1,825,1023,0,0
-392,1,0,0,0,0,0,0,0,0,0,-1,832,1023,0,0
-385,1,0,0,0,0,0,0,0,0,0,-1,839,1023,0,0
-378,1,0,0,0,0,0,0,0,0,0,-1,846,1023,0,0
-371,1,0,0,0,0,0,0,0,0,0,-1,853,1023,0,0
-364,1,0,0,0,0,0,0,0,0,0,-1,860,1023,0,0
-357,1,0,0,0,0,0,0,0,0,0,-1,867,1023,0,0
-350,1,0,0,0,0,0,0,0,0,0,-1,874,1023,0,0
-343,1,0,0,0,0,0,0,0,0,0,-1,881,1023,0,0
-336,1,0,0,0,0,0,0,0,0,0,-1,888,1023,0,0
-329,1,0,0,0,0,0,0,0,0,0,-1,895,1023,0,0
-322,1,0,0,0,0,0,0,0,0,0,-1,902,1023,0,0
-315,1,0,0,0,0,0,0,0,0,0,-1,909,1023,0,0
-308,1,0,0,0,0,0,0,0,0,0,-1,916,1023,0,0
-301,1,0,0,0,0,0,0,0,0,0,-1,923,1023,0,0
-294,1,0,0,0,0,0,0,0,0,0,-1,930,1023,0,0
-287,1,0,0,0,0,0,0,0,0,0,-1,937,1023,0,0
-280,1,0,0,0,0,0,0,0,0,0,-1,944,1023,0,0
-273,1,0,0,0,0,0,0,0,0,0,-1,951,1023,0,0
-266,1,0,0,0,0,0,0,0,0,0,-1,958,1023,0,0
-259,1,0,0,0,0,0,0,0,0,0,-1,965,1023,0,0
-252,1,0,0,0,0,0,0,0,0,0,-1,972,1023,0,0
-245,1,0,0,0,0,0,0,0,0,0,-1,979,1023,0,0
-238,1,0,0,0,0,0,0,0,0,0,-1,986,1023,0,0
-231,1,0,0,0,0,0,0,0,0,0,-1,993,1023,0,0
-224,1,0,0,0,0,0,0,0,0,0,-1,1000,1023,0,0
-217,1,0,0,0,0,0,0,0,0,0,-1,1007,1023,0,0
-210,1,0,0,0,0,0,0,0,0,0,-1,1014,1023,0,0
-203,1,0,0,0,0,0,0,0,0,0,-1,1021,1023,0,0
-196,1,0,0,0,0,0,0,0,0,0,-1,1028,1023,0,0
-189,1,0,0,0,0,0,0,0,0,0,-1,1035,1023,0,0
-182,1,0,0,0,0,0,0,0,0,0,-1,1042,1023,0,0
-175,1,0,0,0,0,0,0,0,0,0,-1,1049,1023,0,0
-168,1,0,0,0,0,0,0,0,0,0,-1,1056,1023,0,0
-161,1,0,0,0,0,0,0,0,0,0,-1,1063,1023,0,0
-154,1,0,0,0,0,0,0,0,0,0,-1,1070,1023,0,0
-147,1,0,0,0,0,0,0,0,0,0,-1,1077,1023,0,0
-140,1,0,0,0,0,0,0,0,0,0,-1,1084,1023,0,0
-133,1,0,0,0,0,0,0,0,0,0,-1,1091,1023,0,0
-126,1,0,0,0,0,0,0,0,0,0,-1,1098,1023,0,0
-119,1,0,0,0,0,0,0,0,0,0,-1,1105,1023,0,0
-112,1,0,0,0,0,0,0,0,0,0,-1,1112,1023,0,0
-105,1,0,0,0,0,0,0,0,0,0,-1,1119,1023,0,0
-98,1,0,0,0,0,0,0,0,0,0,-1,1126,1023,0,0
-91,1,0,0,0,0,0,0,0,0,0,-1,1133,1023,0,0
-84,1,0,0,0,0,0,0,0,0,0,-1,1140,1023,0,0
-77,1,0,0,0,0,0,0,0,0,0,-1,1147,1023,0,0
-70,1,0,0,0,0,0,0,0,0,0,-1,1154,1023,0,0
-63,1,0,0,0,0,0,0,0,0,0,-1,1161,1023,0,0
-56,1,0,0,0,0,0,0,0,0,0,-1,1168,1023,0,0
-49,1,0,0,0,0,0,0,0,0,0,-1,1175,1023,0,0
-42,1,0,0,0,0,0,0,0,0,0,-1,1182,1023,0,0
-35,1,0,0,0,0,0,0,0,0,0,-1,1189,1023,0,0
-28,1,0,0,0,0,0,0,0,0,0,-1,1196,1023,0,0
-21,1,0,0,0,0,0,0,0,0,0,-1,1203,1023,0,0
-14,1,0,0,0,0,0,0,0,0,0,-1,1210,1023,0,0
-7,1,0,0,0,0,0,0,0,0,0,-1,1217,1023,0,0
0,1,0,0,0,0,0,0,0,0,0,-1,1224,1023,0,0
7,1,0,0,0,0,0,0,0,0,0,-1,1231,1023,0,0
14,1,0,0,0,0,0,0,0,0,0,-1,1238,1023,0,0
21,1,0,0,0,0,0,0,0,0,0,-1,1245,1023,0,0
28,1,0,0,0,0,0,0,0,0,0,-1,1252,1023,0,0
35,1,0,0,0,0,0,0,0,0,0,-1,1259,1023,0,0
42,1,0,0,0,0,0,0,0,0,0,-1,1266,1023,0,0
49,1,0,0,0,0,0,0,0,0,0,-1,1273,1023,0,0
56,1,0,0,0,0,0,0,0,0,0,-1,1280,1023,0,0
63,1,0,0,0,0,0,0,0,0,0,-1,1287,1023,0,0
70,1,0,0,0,0,0,0,0,0,0,-1,1294,1023,0,0
77,1,0,0,0,0,0,0,0,0,0,-1,1301,1023,0,0
84,1,0,0,0,0,0,0,0,0,0,-1,1308,1023,0,0
91,1,0,0,0,0,0,0,0,0,0,-1,1315,1023,0,0
98,1,0,0,0,0,0,0,0,0,0,-1,1322,1023,0,0
105,1,0,0,0,0,0,0,0,0,0,-1,1329,1023,0,0
112,1,0,0,0,0,0,0,0,0,0,-1,1336,1023,0,0
119,1,0,0,0,0,0,0,0,0,0,-1,1343,1023,0,0
126,1,0,0,0,0,0,0,0,0,0,-1,1350,1023,0,0
133,1,0,0,0,0,0,0,0,0,0,-1,1357,1023,0,0
140,1,0,0,0,0,0,0,0,0,0,-1,1364,1023,0,0
147,1,0,0,0,0,0,0,0,0,0,-1,1371,1023,0,0
154,1,0,0,0,0,0,0,0,0,0,-1,1378,1023,0,0
161,1,0,0,0,0,0,0,0,0,0,-1,1385,1023,0,0
168,1,0,0,0,0,0,0,0,0,0,-1,1392,1023,0,0
175,1,0,0,0,0,0,0,0,0,0,-1,1399,1023,0,0
182,1,0,0,0,0,0,0,0,0,0,-1,1406,1023,0,0
189,1,0,0,0,0,0,0,0,0,0,-1,1413,1023,0,0
196,1,0,0,0,0,0,0,0,0,0,-1,1420,1023,0,0
203,1,0,0,0,0,0,0,0,0,0,-1,1427,1023,0,0
210,1,0,0,0,0,0,0,0,0,0,-1,1434,1023,0,0
217,1,0,0,0,0,0,0,0,0,0,-1,1441,1023,0,0
224,1,0,0,0,0,0,0,0,0,0,-1,1448,1023,0,0
231,1,0,0,0,0,0,0,0,0,0,-1,1455,1023,0,0
238,1,0,0,0,0,0,0,0,0,0,-1,1462,1023,0,0
245,1,0,0,0,0,0,0,0,0,0,-1,1469,1023,0,0
252,1,0,0,0,0,0,0,0,0,0,-1,1476,1023,0,0
259,1,0,0,0,0,0,0,0,0,0,-1,1483,1023,0,0
266,1,0,0,0,0,0,0,0,0,0,-1,1490,1023,0,0
273,1,0,0,0,0,0,0,0,0,0,-1,1497,1023,0,0
280,1,0,0,0,0,0,0,0,0,0,-1,1504,1023,0,0
287,1,0,0,0,0,0,0,0,0,0,-1,1511,1023,0,0
294,1,0,0,0,0,0,0,0,0,0,-1,1518,1023,0,0
301,1,0,0,0,0,0,0,0,0,0,-1,1525,1023,0,0
308,1,0,0,0,0,0,0,0,0,0,-1,1532,1023,0,0
315,1,0,0,0,0,0,0,0,0,0,-1,1539,1023,0,0
322,1,0,0,0,0,0,0,0,0,0,-1,1546,1023,0,0
329,1,0,0,0,0,0,0,0,0,0,-1,1553,1023,0,0
336,1,0,0,0,0,0,0,0,0,0,-1,1560,1023,0,0
343,1,0,0,0,0,0,0,0,0,0,-1,1567,1023,0,0
350,1,0,0,0,0,0,0,0,0,0,-1,1574,1023,0,0
357,1,0,0,0,0,0,0,0,0,0,-1,1581,1023,0,0
364,1,0,0,0,0,0,0,0,0,0,-1,1588,1023,0,0
371,1,0,0,0,0,0,0,0,0,0,-1,1595,1023,0,0
378,1,0,0,0,0,0,0,0,0,0,-1,1602,1023,0,0
385,1,0,0,0,0,0,0,0,0,0,-1,1609,1023,0,0
392,1,0,0,0,0,0,0,0,0,0,-1,1616,1023,0,0
399,1,0,0,0,0,0,0,0,0,0,-1,1623,1023,0,0
406,1,0,0,0,0,0,0,0,0,0,-1,1630,1023,0,0
413,1,0,0,0,0,0,0,0,0,0,-1,1637,1023,0,0
420,1,0,0,0,0,0,0,0,0,0,-1,1644,1023,0,0
427,1,0,0,0,0,0,0,0,0,0,-1,1651,1023,0,0
434,1,0,0,0,0,0,0,0,0,0,-1,1658,1023,0,0
441,1,0,0,0,0,0,0,0,0,0,-1,1665,1023,0,0
448,1,0,0,0,0,0,0,0,0,0,-1,1672,1023,0,0
455,1,0,0,0,0,0,0,0,0,0,-1,1679,1023,0,0
462,1,0,0,0,0,0,0,0,0,0,-1,1686,1023,0,0
469,1,0,0,0,0,0,0,0,0,0,-1,1693,1023,0,0
476,1,0,0,0,0,0,0,0,0,0,-1,1700,1023,0,0
483,1,0,0,0,0,0,0,0,0,0,-1,1707,1023,0,0
490,1,0,0,0,0,0,0,0,0,0,-1,1714,1023,0,0
497,1,0,0,0,0,0,0,0,0,0,-1,1721,1023,0,0
504,1,0,0,0,0,0,0,0,0,0,-1,1728,1023,0,0
511,1,0,0,0,0,0,0,0,0,0,-1,1735,1023,0,0
518,1,0,0,0,0,0,0,0,0,0,-1,1742,1023,0,0
525,1,0,0,0,0,0,0,0,0,0,-1,1749,1023,0,0
532,1,0,0,0,0,0,0,0,0,0,-1,1756,1023,0,0
539,1,0,0,0,0,0,0,0,0,0,-1,1763,1023,0,0
546,1,0,0,0,0,0,0,0,0,0,-1,1770,1023,0,0
553,1,0,0,0,0,0,0,0,0,0,-1,1777,1023,0,0
560,1,0,0,0,0,0,0,0,0,0,-1,1784,1023,0,0
567,1,0,0,0,0,0,0,0,0,0,-1,1791,1023,0,0
574,1,0,0,0,0,0,0,0,0,0,-1,1798,1023,0,0
581,1,0,0,0,0,0,0,0,0,0,-1,1805,1023,0,0
588,1,0,0,0,0,0,0,0,0,0,-1,1812,1023,0,0
595,1,0,0,0,0,0,0,0,0,0,-1,1819,1023,0,0
602,1,0,0,0,0,0,0,0,0,0,-1,1826,1023,0,0
609,1,0,0,0,0,0,0,0,0,0,-1,1833,1023,0,0
616,1,0,0,0,0,0,0,0,0,0,-1,1840,1023,0,0
623,1,0,0,0,0,0,0,0,0,0,-1,1847,1023,0,0
630,1,0,0,0,0,0,0,0,0,0,-1,1854,1023,0,0
637,1,0,0,0,0,0,0,0,0,0,-1,1861,1023,0,0
644,1,0,0,0,0,0,0,0,0,0,-1,1868,1023,0,0
651,1,75.8574,2.54285,-0.00372637,0.000385615,-0.000782455,0.000529473,-0.00387023,-1.38897,0.00277354,0.0362198,1875,1023,75.8574,-2.54288
658,1,75.8107,2.52576,-0.0025023,0.000427599,-0.000247867,0.00044842,-0.00252312,-1.48699,0.00184976,0.040428,1882,1023,75.8106,-2.52575
665,1,75.8097,2.46271,-0.00160152,0.000470885,4.328e-05,0.000471788,-0.00160243,1.54992,0.00125545,0.0442272,1889,1023,75.8096,-2.4627
672,1,75.9156,2.50977,-0.000865062,0.000721618,0.000211014,0.000749202,-0.000892646,1.44081,0.000949126,0.0439172,1896,1023,75.9156,-2.50977
679,1,75.7098,2.48041,-0.000235818,0.00102938,0.000303546,0.00109843,-0.000304876,1.3471,0.000852289,0.03878,1903,1023,75.7099,-2.48042
686,1,75.6964,2.22736,-6.44739e-05,0.00094449,0.00027404,0.00101412,-0.0001341,1.32199,0.000724923,0.0385368,1910,1023,75.6964,-2.22734
693,1,75.8165,2.4209,-9.1379e-05,0.000726225,0.000265277,0.000804754,-0.000169907,1.28299,0.000601195,0.0360101,1917,1023,75.8165,-2.42088
700,1,75.7816,2.41846,-0.000138105,0.000574273,0.000289471,0.000677066,-0.000240897,1.22958,0.000549567,0.0315842,1924,1023,75.7816,-2.41844
707,1,75.775,2.35486,-0.00097398,0.000938578,0.00033076,0.000994164,-0.00102957,1.4043,0.00116846,0.0268295,1931,1023,75.775,-2.35483
714,1,75.7689,2.23907,-0.00216361,0.00180848,0.000306537,0.001832,-0.00218713,1.49423,0.00232346,0.0306564,1938,1023,75.7689,-2.23908
721,1,75.8396,2.06744,0,0,0,0,0,0,0,-1,1945,1023,75.8397,-2.06746
728,1,52.4639,5.59277,0,0,0,0,0,0,0,-1,1952,1023,52.4639,-5.59276
735,1,53.3617,6.10699,0,0,0,0,0,0,0,-1,1959,1023,53.3617,-6.10698
742,1,52.4393,5.81525,0,0,0,0,0,0,0,-1,1966,1023,52.4393,-5.81527
749,1,76.3733,7.29889,0,0,0,0,0,0,0,-1,1973,1023,76.3733,-7.2989
756,1,76.2051,7.3316,-0.0113923,0.0140888,-0.000195881,0.0140903,-0.0113938,-1.56311,0.0147406,0.047157,1980,1023,76.2052,-7.33161
763,1,75.9028,7.29492,-0.012681,0.0191203,-0.000764877,0.0191387,-0.0126994,-1.54676,0.0185066,0.0193198,1987,1023,75.9029,-7.29491
770,1,75.832,7.21436,-0.0130972,0.0257195,-0.00170428,0.0257942,-0.0131719,-1.527,0.0228871,0.0207642,1994,1023,75.8321,-7.21435
777,1,75.501,7.05316,-0.012298,0.0337963,-0.00312756,0.0340075,-0.0125092,-1.50336,0.0277961,0.0278476,2001,1023,75.501,-7.05316
784,1,75.2019,6.85522,0,0,0,0,0,0,0,-1,2008,1023,75.2019,-6.85522
791,1,75.4451,6.42072,0,0,0,0,0,0,0,-1,2015,1023,75.4452,-6.42071
798,1,73.8259,5.2641,0,0,0,0,0,0,0,-1,2022,1023,73.8259,-5.26407
805,1,74.8782,4.77771,0,0,0,0,0,0,0,-1,2029,1023,74.8782,-4.77768
812,1,76.012,3.40363,0,0,0,0,0,0,0,-1,2036,1023,76.012,-3.40363
-700,-6,0,0,0,0,0,0,0,0,0,-1,524,1030,0,0
-693,-6,-67.2183,-5.43787,0,0,0,0,0,0,0,-1,531,1030,-67.2183,5.43784
-686,-6,-66.2718,-3.52441,0,0,0,0,0,0,0,-1,538,1030,-66.2718,3.5244
-679,-6,-56.519,1.1947,0,0,0,0,0,0,0,-1,545,1030,-56.519,-1.19472
-672,-6,-60.0334,1.4303,0,0,0,0,0,0,0,-1,552,1030,-60.0334,-1.43025
-665,-6,-61.3111,4.67981,0,0,0,0,0,0,0,-1,559,1030,-61.3111,-4.67985
-658,-6,-60.8128,4.95276,0,0,0,0,0,0,0,-1,566,1030,-60.8128,-4.95278
-651,-6,-60.4011,5.14612,0,0,0,0,0,0,0,-1,573,1030,-60.4011,-5.14616
-644,-6,-60.0942,5.91797,0,0,0,0,0,0,0,-1,580,1030,-60.0942,-5.91795
-637,-6,-60.5477,6.12109,0,0,0,0,0,0,0,-1,587,1030,-60.5476,-6.12112
-630,-6,-60.4794,5.9873,-0.008631,0.0203288,0.00512881,0.0212103,-0.00951249,1.40059,0.0181613,0.0273198,594,1030,-60.4794,-5.98735
-623,-6,-60.4673,6.04877,-0.00675858,0.0108552,0.0018786,0.0110533,-0.00695672,1.46572,0.0104874,0.021001,601,1030,-60.4674,-6.04877
-616,-6,-60.5441,6.02643,-0.00501834,0.00212349,-0.000865458,0.00222687,-0.00512172,-1.45191,0.00435106,0.0257076,608,1030,-60.5441,-6.02643
-609,-6,-60.5073,6.17706,-0.00336806,-0.00508707,-0.00282279,-0.00127682,-0.00717831,-0.637614,0.00442182,0.0252487,615,1030,-60.5073,-6.17704
-602,-6,-60.3729,6.34821,-0.00218721,-0.0120082,-0.00452608,-0.000419508,-0.0137759,-0.372342,0.00904734,0.0156851,622,1030,-60.373,-6.34821
-595,-6,-60.4658,6.45844,0,0,0,0,0,0,0,-1,629,1030,-60.4658,-6.45841
-588,-6,-59.0716,0.217651,0,0,0,0,0,0,0,-1,636,1030,-59.0716,-0.217608
-581,-6,-59.0996,0.140869,0,0,0,0,0,0,0,-1,643,1030,-59.0996,-0.140848
-574,-6,-59.0958,0.100708,0,0,0,0,0,0,0,-1,650,1030,-59.0958,-0.100675
-567,-6,-59.0923,0.251953,0,0,0,0,0,0,0,-1,657,1030,-59.0924,-0.251987
-560,-6,-59.0208,0.254272,0,0,0,0,0,0,0,-1,664,1030,-59.0208,-0.254235
-553,-6,-58.9398,0.0118408,0,0,0,0,0,0,0,-1,671,1030,-58.9398,-0.0118726
-546,-6,-59.0554,0.109619,0,0,0,0,0,0,0,-1,678,1030,-59.0554,-0.109573
-539,-6,-59.1171,0.161011,0,0,0,0,0,0,0,-1,685,1030,-59.1171,-0.161025
-532,-6,-59.2073,0.217896,0,0,0,0,0,0,0,-1,692,1030,-59.2072,-0.217867
-525,-6,0,0,0,0,0,0,0,0,0,-1,699,1030,0,0
-518,-6,0,0,0,0,0,0,0,0,0,-1,706,1030,0,0
-511,-6,0,0,0,0,0,0,0,0,0,-1,713,1030,0,0
-504,-6,0,0,0,0,0,0,0,0,0,-1,720,1030,0,0
-497,-6,0,0,0,0,0,0,0,0,0,-1,727,1030,0,0
-490,-6,0,0,0,0,0,0,0,0,0,-1,734,1030,0,0
-483,-6,0,0,0,0,0,0,0,0,0,-1,741,1030,0,0
-476,-6,0,0,0,0,0,0,0,0,0,-1,748,1030,0,0
-469,-6,0,0,0,0,0,0,0,0,0,-1,755,1030,0,0
-462,-6,0,0,0,0,0,0,0,0,0,-1,762,1030,0,0
-455,-6,0,0,0,0,0,0,0,0,0,-1,769,1030,0,0
-448,-6,0,0,0,0,0,0,0,0,0,-1,776,1030,0,0
-441,-6,0,0,0,0,0,0,0,0,0,-1,783,1030,0,0
-434,-6,0,0,0,0,0,0,0,0,0,-1,790,1030,0,0
-427,-6,0,0,0,0,0,0,0,0,0,-1,797,1030,0,0
-420,-6,0,0,0,0,0,0,0,0,0,-1,804,1030,0,0
-413,-6,0,0,0,0,0,0,0,0,0,-1,811,1030,0,0
-406,-6,0,0,0,0,0,0,0,0,0,-1,818,1030,0,0
-399,-6,0,0,0,0,0,0,0,0,0,-1,825,1030,0,0
-392,-6,0,0,0,0,0,0,0,0,0,-1,832,1030,0,0
-385,-6,0,0,0,0,0,0,0,0,0,-1,839,1030,0,0
-378,-6,0,0,0,0,0,0,0,0,0,-1,846,1030,0,0
-371,-6,0,0,0,0,0,0,0,0,0,-1,853,1030,0,0
-364,-6,0,0,0,0,0,0,0,0,0,-1,860,1030,0,0
-357,-6,0,0,0,0,0,0,0,0,0,-1,867,1030,0,0
-350,-6,0,0,0,0,0,0,0,0,0,-1,874,1030,0,0
-343,-6,0,0,0,0,0,0,0,0,0,-1,881,1030,0,0
-336,-6,0,0,0,0,0,0,0,0,0,-1,888,1030,0,0
-329,-6,0,0,0,0,0,0,0,0,0,-1,895,1030,0,0
-322,-6,0,0,0,0,0,0,0,0,0,-1,902,1030,0,0
-315,-6,0,0,0,0,0,0,0,0,0,-1,909,1030,0,0
-308,-6,0,0,0,0,0,0,0,0,0,-1,916,1030,0,0
-301,-6,0,0,0,0,0,0,0,0,0,-1,923,1030,0,0
-294,-6,0,0,0,0,0,0,0,0,0,-1,930,1030,0,0
-287,-6,0,0,0,0,0,0,0,0,0,-1,937,1030,0,0
-280,-6,0,0,0,0,0,0,0,0,0,-1,944,1030,0,0
-273,-6,0,0,0,0,0,0,0,0,0,-1,951,1030,0,0
-266,-6,0,0,0,0,0,0,0,0,0,-1,958,1030,0,0
-259,-6,0,0,0,0,0,0,0,0,0,-1,965,1030,0,0
-252,-6,0,0,0,0,0,0,0,0,0,-1,972,1030,0,0
-245,-6,0,0,0,0,0,0,0,0,0,-1,979,1030,0,0
-238,-6,0,0,0,0,0,0,0,0,0,-1,986,1030,0,0
-231,-6,0,0,0,0,0,0,0,0,0,-1,993,1030,0,0
-224,-6,0,0,0,0,0,0,0,0,0,-1,1000,1030,0,0
-217,-6,0,0,0,0,0,0,0,0,0,-1,1007,1030,0,0
-210,-6,0,0,0,0,0,0,0,0,0,-1,1014,1030,0,0
-203,-6,0,0,0,0,0,0,0,0,0,-1,1021,1030,0,0
-196,-6,0,0,0,0,0,0,0,0,0,-1,1028,1030,0,0
-189,-6,0,0,0,0,0,0,0,0,0,-1,1035,1030,0,0
-182,-6,0,0,0,0,0,0,0,0,0,-1,1042,1030,0,0
-175,-6,0,0,0,0,0,0,0,0,0,-1,1049,1030,0,0
-168,-6,0,0,0,0,0,0,0,0,0,-1,1056,1030,0,0
-161,-6,0,0,0,0,0,0,0,0,0,-1,1063,1030,0,0
-154,-6,0,0,0,0,0,0,0,0,0,-1,1070,1030,0,0
-147,-6,0,0,0,0,0,0,0,0,0,-1,1077,1030,0,0
-140,-6,0,0,0,0,0,0,0,0,0,-1,1084,1030,0,0
-133,-6,0,0,0,0,0,0,0,0,0,-1,1091,1030,0,0
-126,-6,0,0,0,0,0,0,0,0,0,-1,1098,1030,0,0
-119,-6,0,0,0,0,0,0,0,0,0,-1,1105,1030,0,0
-112,-6,0,0,0,0,0,0,0,0,0,-1,1112,1030,0,0
-105,-6,0,0,0,0,0,0,0,0,0,-1,1119,1030,0,0
-98,-6,0,0,0,0,0,0,0,0,0,-1,1126,1030,0,0
-91,-6,0,0,0,0,0,0,0,0,0,-1,1133,1030,0,0
-84,-6,0,0,0,0,0,0,0,0,0,-1,1140,1030,0,0
-77,-6,0,0,0,0,0,0,0,0,0,-1,1147,1030,0,0
-70,-6,0,0,0,0,0,0,0,0,0,-1,1154,1030,0,0
-63,-6,0,0,0,0,0,0,0,0,0,-1,1161,1030,0,0
-56,-6,0,0,0,0,0,0,0,0,0,-1,1168,1030,0,0
-49,-6,0,0,0,0,0,0,0,0,0,-1,1175,1030,0,0
-42,-6,0,0,0,0,0,0,0,0,0,-1,1182,1030,0,0
-35,-6,0,0,0,0,0,0,0,0,0,-1,1189,1030,0,0
-28,-6,0,0,0,0,0,0,0,0,0,-1,1196,1030,0,0
-21,-6,0,0,0,0,0,0,0,0,0,-1,1203,1030,0,0
-14,-6,0,0,0,0,0,0,0,0,0,-1,1210,1030,0,0
-7,-6,0,0,0,0,0,0,0,0,0,-1,1217,1030,0,0
0,-6,0,0,0,0,0,0,0,0,0,-1,1224,1030,0,0
7,-6,0,0,0,0,0,0,0,0,0,-1,1231,1030,0,0
14,-6,0,0,0,0,0,0,0,0,0,-1,1238,1030,0,0
21,-6,0,0,0,0,0,0,0,0,0,-1,1245,1030,0,0
28,-6,0,0,0,0,0,0,0,0,0,-1,1252,1030,0,0
35,-6,0,0,0,0,0,0,0,0,0,-1,1259,1030,0,0
42,-6,0,0,0,0,0,0,0,0,0,-1,1266,1030,0,0
49,-6,0,0,0,0,0,0,0,0,0,-1,1273,1030,0,0
56,-6,0,0,0,0,0,0,0,0,0,-1,1280,1030,0,0
63,-6,0,0,0,0,0,0,0,0,0,-1,1287,1030,0,0
70,-6,0,0,0,0,0,0,0,0,0,-1,1294,1030,0,0
77,-6,0,0,0,0,0,0,0,0,0,-1,1301,1030,0,0
84,-6,0,0,0,0,0,0,0,0,0,-1,1308,1030,0,0
91,-6,0,0,0,0,0,0,0,0,0,-1,1315,1030,0,0
98,-6,0,0,0,0,0,0,0,0,0,-1,1322,1030,0,0
105,-6,0,0,0,0,0,0,0,0,0,-1,1329,1030,0,0
112,-6,0,0,0,0,0,0,0,0,0,-1,1336,1030,0,0
119,-6,0,0,0,0,0,0,0,0,0,-1,1343,1030,0,0
126,-6,0,0,0,0,0,0,0,0,0,-1,1350,1030,0,0
133,-6,0,0,0,0,0,0,0,0,0,-1,1357,1030,0,0
140,-6,0,0,0,0,0,0,0,0,0,-1,1364,1030,0,0
147,-6,0,0,0,0,0,0,0,0,0,-1,1371,1030,0,0
154,-6,0,0,0,0,0,0,0,0,0,-1,1378,1030,0,0
161,-6,0,0,0,0,0,0,0,0,0,-1,1385,1030,0,0
168,-6,0,0,0,0,0,0,0,0,0,-1,1392,1030,0,0
175,-6,0,0,0,0,0,0,0,0,0,-1,1399,1030,0,0
182,-6,0,0,0,0,0,0,0,0,0,-1,1406,1030,0,0
189,-6,0,0,0,0,0,0,0,0,0,-1,1413,1030,0,0
196,-6,0,0,0,0,0,0,0,0,0,-1,1420,1030,0,0
203,-6,0,0,0,0,0,0,0,0,0,-1,1427,1030,0,0
210,-6,0,0,0,0,0,0,0,0,0,-1,1434,1030,0,0
217,-6,0,0,0,0,0,0,0,0,0,-1,1441,1030,0,0
224,-6,0,0,0,0,0,0,0,0,0,-1,1448,1030,0,0
231,-6,0,0,0,0,0,0,0,0,0,-1,1455,1030,0,0
238,-6,0,0,0,0,0,0,0,0,0,-1,1462,1030,0,0
245,-6,0,0,0,0,0,0,0,0,0,-1,1469,1030,0,0
252,-6,0,0,0,0,0,0,0,0,0,-1,1476,1030,0,0
259,-6,0,0,0,0,0,0,0,0,0,-1,1483,1030,0,0
266,-6,0,0,0,0,0,0,0,0,0,-1,1490,1030,0,0
273,-6,0,0,0,0,0,0,0,0,0,-1,1497,1030,0,0
280,-6,0,0,0,0,0,0,0,0,0,-1,1504,1030,0,0
287,-6,0,0,0,0,0,0,0,0,0,-1,1511,1030,0,0
294,-6,0,0,0,0,0,0,0,0,0,-1,1518,1030,0,0
301,-6,0,0,0,0,0,0,0,0,0,-1,1525,1030,0,0
308,-6,0,0,0,0,0,0,0,0,0,-1,1532,1030,0,0
315,-6,0,0,0,0,0,0,0,0,0,-1,1539,1030,0,0
322,-6,0,0,0,0,0,0,0,0,0,-1,1546,1030,0,0
329,-6,0,0,0,0,0,0,0,0,0,-1,1553,1030,0,0
336,-6,0,0,0,0,0,0,0,0,0,-1,1560,1030,0,0
343,-6,0,0,0,0,0,0,0,0,0,-1,1567,1030,0,0
350,-6,0,0,0,0,0,0,0,0,0,-1,1574,1030,0,0
357,-6,0,0,0,0,0,0,0,0,0,-1,1581,1030,0,0
364,-6,0,0,0,0,0,0,0,0,0,-1,1588,1030,0,0
371,-6,0,0,0,0,0,0,0,0,0,-1,1595,1030,0,0
378,-6,0,0,0,0,0,0,0,0,0,-1,1602,1030,0,0
385,-6,0,0,0,0,0,0,0,0,0,-1,1609,1030,0,0
392,-6,0,0,0,0,0,0,0,0,0,-1,1616,1030,0,0
399,-6,0,0,0,0,0,0,0,0,0,-1,1623,1030,0,0
406,-6,0,0,0,0,0,0,0,0,0,-1,1630,1030,0,0
413,-6,0,0,0,0,0,0,0,0,0,-1,1637,1030,0,0
420,-6,0,0,0,0,0,0,0,0,0,-1,1644,1030,0,0
427,-6,0,0,0,0,0,0,0,0,0,-1,1651,1030,0,0
434,-6,0,0,0,0,0,0,0,0,0,-1,1658,1030,0,0
441,-6,0,0,0,0,0,0,0,0,0,-1,1665,1030,0,0
448,-6,0,0,0,0,0,0,0,0,0,-1,1672,1030,0,0
455,-6,0,0,0,0,0,0,0,0,0,-1,1679,1030,0,0
462,-6,0,0,0,0,0,0,0,0,0,-1,1686,1030,0,0
469,-6,0,0,0,0,0,0,0,0,0,-1,1693,1030,0,0
476,-6,0,0,0,0,0,0,0,0,0,-1,1700,1030,0,0
483,-6,0,0,0,0,0,0,0,0,0,-1,1707,1030,0,0
490,-6,0,0,0,0,0,0,0,0,0,-1,1714,1030,0,0
497,-6,0,0,0,0,0,0,0,0,0,-1,1721,1030,0,0
504,-6,0,0,0,0,0,0,0,0,0,-1,1728,1030,0,0
511,-6,0,0,0,0,0,0,0,0,0,-1,1735,1030,0,0
518,-6,0,0,0,0,0,0,0,0,0,-1,1742,1030,0,0
525,-6,0,0,0,0,0,0,0,0,0,-1,1749,1030,0,0
532,-6,0,0,0,0,0,0,0,0,0,-1,1756,1030,0,0
539,-6,0,0,0,0,0,0,0,0,0,-1,1763,1030,0,0
546,-6,0,0,0,0,0,0,0,0,0,-1,1770,1030,0,0
553,-6,0,0,0,0,0,0,0,0,0,-1,1777,1030,0,0
560,-6,0,0,0,0,0,0,0,0,0,-1,1784,1030,0,0
567,-6,0,0,0,0,0,0,0,0,0,-1,1791,1030,0,0
574,-6,0,0,0,0,0,0,0,0,0,-1,1798,1030,0,0
581,-6,0,0,0,0,0,0,0,0,0,-1,1805,1030,0,0
588,-6,0,0,0,0,0,0,0,0,0,-1,1812,1030,0,0
595,-6,0,0,0,0,0,0,0,0,0,-1,1819,1030,0,0
602,-6,0,0,0,0,0,0,0,0,0,-1,1826,1030,0,0
609,-6,0,0,0,0,0,0,0,0,0,-1,1833,1030,0,0
616,-6,0,0,0,0,0,0,0,0,0,-1,1840,1030,0,0
623,-6,0,0,0,0,0,0,0,0,0,-1,1847,1030,0,0
630,-6,0,0,0,0,0,0,0,0,0,-1,1854,1030,0,0
637,-6,0,0,0,0,0,0,0,0,0,-1,1861,1030,0,0
644,-6,0,0,0,0,0,0,0,0,0,-1,1868,1030,0,0
651,-6,75.7676,2.49731,-0.00388699,0.000638747,-0.000582299,0.000712466,-0.00396071,-1.44486,0.00290721,0.0352965,1875,1030,75.7676,-2.4973
658,-6,75.6857,2.46313,-0.00260808,0.000732512,-0.000176069,0.000741766,-0.00261733,-1.51828,0.00203766,0.0386287,1882,1030,75.6857,-2.46313
665,-6,75.7362,2.18237,-0.00171043,0.000757895,6.19596e-05,0.000759449,-0.00171198,1.54572,0.00146178,0.0445874,1889,1030,75.7362,-2.18243
672,-6,75.9197,2.25439,-0.000983568,0.000982677,0.000217039,0.00100635,-0.00100724,1.46216,0.00116255,0.0444157,1896,1030,75.9197,-2.25437
679,-6,75.843,2.49036,-0.000386086,0.00125423,0.00032139,0.00131496,-0.000446809,1.38406,0.00105752,0.0430513,1903,1030,75.843,-2.4903
686,-6,75.7566,2.35767,-0.000307822,0.00112505,0.00032495,0.0011953,-0.000378071,1.35789,0.000948351,0.0388646,1910,1030,75.7567,-2.35771
693,-6,75.7361,2.36365,-0.000405286,0.000867935,0.000363943,0.000964624,-0.000501974,1.31113,0.00086067,0.0353362,1917,1030,75.7361,-2.3637
700,-6,75.7644,2.44055,-0.000481477,0.000669263,0.000452441,0.000825845,-0.000638058,1.23762,0.0008475,0.0311203,1924,1030,75.7644,-2.44056
707,-6,75.7312,2.37634,-0.00133131,0.000962378,0.000563631,0.0010934,-0.00146233,1.3424,0.00148066,0.0271568,1931,1030,75.7312,-2.37634
714,-6,75.7773,2.14673,-0.00249092,0.00175657,0.000600057,0.00183972,-0.00257406,1.43311,0.00256003,0.036324,1938,1030,75.7774,-2.14669
721,-6,75.8312,1.88208,0,0,0,0,0,0,0,-1,1945,1030,75.8312,-1.88207
728,-6,53.1713,6.25494,0,0,0,0,0,0,0,-1,1952,1030,53.1713,-6.25495
735,-6,75.8203,7.45831,0,0,0,0,0,0,0,-1,1959,1030,75.8204,-7.4583
742,-6,76.0216,7.72766,0,0,0,0,0,0,0,-1,1966,1030,76.0216,-7.72768
749,-6,76.1836,7.1626,0,0,0,0,0,0,0,-1,1973,1030,76.1835,-7.1626
756,-6,76.1421,7.19092,-0.0115171,0.013393,0.000297391,0.0133966,-0.0115206,1.55886,0.0143995,0.0398419,1980,1030,76.1422,-7.1909
763,-6,75.833,7.08881,-0.0127063,0.0182062,-0.000418312,0.0182119,-0.0127119,-1.55727,0.0179477,0.0238591,1987,1030,75.8329,-7.08878
770,-6,75.7185,6.97534,-0.0131239,0.0243359,-0.00158108,0.0244025,-0.0131905,-1.52869,0.0220238,0.02093,1994,1030,75.7186,-6.97535
777,-6,75.5693,6.87634,-0.0123514,0.032107,-0.0034416,0.0323718,-0.0126162,-1.49399,0.0267956,0.0216127,2001,1030,75.5693,-6.87635
784,-6,75.4231,6.70496,-0.0107218,0.0406811,-0.00594451,0.0413596,-0.0114003,-1.45715,0.0320562,0.0473747,2008,1030,75.4231,-6.70493
791,-6,75.5359,6.4646,-0.00806094,0.0507541,-0.00962259,0.0522884,-0.00959524,-1.41268,0.0384584,0.0493899,2015,1030,75.5358,-6.46458
798,-6,75.428,6.29785,0,0,0,0,0,0,0,-1,2022,1030,75.428,-6.29787
805,-6,75.8367,3.92761,0,0,0,0,0,0,0,-1,2029,1030,75.8366,-3.92757
812,-6,76.9097,2.96362,0,0,0,0,0,0,0,-1,2036,1030,76.9098,-2.96358
-700,-13,0,0,0,0,0,0,0,0,0,-1,524,1037,0,0
-693,-13,-59.7419,-3.81152,0,0,0,0,0,0,0,-1,531,1037,-59.7419,3.81154
-686,-13,-66.0693,-3.97852,0,0,0,0,0,0,0,-1,538,1037,-66.0693,3.97855
-679,-13,-65.2463,-2.0094,0,0,0,0,0,0,0,-1,545,1037,-65.2463,2.00935
-672,-13,-60.142,1.4353,0,0,0,0,0,0,0,-1,552,1037,-60.142,-1.43525
-665,-13,-59.839,2.32849,0,0,0,0,0,0,0,-1,559,1037,-59.839,-2.32855
-658,-13,-60.1505,3.23499,0,0,0,0,0,0,0,-1,566,1037,-60.1504,-3.23498
-651,-13,-60.0658,4.34106,-0.0112066,0.059063,0.0198339,0.0642747,-0.0164182,1.31384,0.0492435,0.0446976,573,1037,-60.0658,-4.34101
-644,-13,-59.9581,5.47461,-0.0101292,0.0437808,0.0137458,0.0470834,-0.0134318,1.33501,0.036695,0.0370888,580,1037,-59.9582,-5.47464
-637,-13,-60.093,5.70325,-0.00886083,0.0313209,0.00892725,0.033215,-0.0107549,1.36173,0.026467,0.0294202,587,1037,-60.0929,-5.70319
-630,-13,-60.2759,5.776,-0.00727833,0.0203972,0.00485357,0.0212237,-0.00810484,1.40213,0.0174884,0.0182508,594,1037,-60.2759,-5.77597
-623,-13,-60.3481,5.94299,-0.00553971,0.0106701,0.001408,0.0107915,-0.0056611,1.48479,0.00965162,0.0161306,601,1037,-60.3481,-5.94299
-616,-13,-60.3228,6.12512,-0.00379573,0.00186444,-0.0015121,0.00224306,-0.00417435,-1.32544,0.00376061,0.0151257,608,1037,-60.3228,-6.12511
-609,-13,-60.2574,6.29126,-0.00197975,-0.00517177,-0.00360105,0.000363128,-0.00751464,-0.576803,0.00513509,0.0187525,615,1037,-60.2574,-6.29121
-602,-13,-60.2344,6.42834,-0.000507333,-0.0117507,-0.00547819,0.00172044,-0.0139784,-0.386236,0.00994218,0.0145851,622,1037,-60.2344,-6.42839
-595,-13,-60.2825,6.53345,0,0,0,0,0,0,0,-1,629,1037,-60.2826,-6.5334
-588,-13,-59.1347,0.150391,0,0,0,0,0,0,0,-1,636,1037,-59.1347,-0.150397
-581,-13,-59.0809,0.09729,0,0,0,0,0,0,0,-1,643,1037,-59.0809,-0.0972374
-574,-13,-59.062,0.128052,0,0,0,0,0,0,0,-1,650,1037,-59.062,-0.128105
-567,-13,-59.0314,0.171143,0,0,0,0,0,0,0,-1,657,1037,-59.0314,-0.171189
-560,-13,-58.8736,-0.0698242,0,0,0,0,0,0,0,-1,664,1037,-58.8736,0.0698144
-553,-13,-58.83,-0.0852051,0,0,0,0,0,0,0,-1,671,1037,-58.83,0.0852295
-546,-13,-58.9819,0.199951,0,0,0,0,0,0,0,-1,678,1037,-58.9819,-0.199997
-539,-13,-59.123,0.417847,0,0,0,0,0,0,0,-1,685,1037,-59.1231,-0.417812
-532,-13,-59.1501,0.435303,0,0,0,0,0,0,0,-1,692,1037,-59.1501,-0.435319
-525,-13,0,0,0,0,0,0,0,0,0,-1,699,1037,0,0
-518,-13,0,0,0,0,0,0,0,0,0,-1,706,1037,0,0
-511,-13,0,0,0,0,0,0,0,0,0,-1,713,1037,0,0
-504,-13,0,0,0,0,0,0,0,0,0,-1,720,1037,0,0
-497,-13,0,0,0,0,0,0,0,0,0,-1,727,1037,0,0
-490,-13,0,0,0,0,0,0,0,0,0,-1,734,1037,0,0
-483,-13,0,0,0,0,0,0,0,0,0,-1,741,1037,0,0
-476,-13,0,0,0,0,0,0,0,0,0,-1,748,1037,0,0
-469,-13,0,0,0,0,0,0,0,0,0,-1,755,1037,0,0
-462,-13,0,0,0,0,0,0,0,0,0,-1,762,1037,0,0
-455,-13,0,0,0,0,0,0,0,0,0,-1,769,1037,0,0
-448,-13,0,0,0,0,0,0,0,0,0,-1,776,1037,0,0
-441,-13,0,0,0,0,0,0,0,0,0,-1,783,1037,0,0
-434,-13,0,0,0,0,0,0,0,0,0,-1,790,1037,0,0
-427,-13,0,0,0,0,0,0,0,0,0,-1,797,1037,0,0
-420,-13,0,0,0,0,0,0,0,0,0,-1,804,1037,0,0
-413,-13,0,0,0,0,0,0,0,0,0,-1,811,1037,0,0
-406,-13,0,0,0,0,0,0,0,0,0,-1,818,1037,0,0
-399,-13,0,0,0,0,0,0,0,0,0,-1,825,1037,0,0
-392,-13,0,0,0,0,0,0,0,0,0,-1,832,1037,0,0
-385,-13,0,0,0,0,0,0,0,0,0,-1,839,1037,0,0
-378,-13,0,0,0,0,0,0,0,0,0,-1,846,1037,0,0
-371,-13,0,0,0,0,0,0,0,0,0,-1,853,1037,0,0
-364,-13,0,0,0,0,0,0,0,0,0,-1,860,1037,0,0
-357,-13,0,0,0,0,0,0,0,0,0,-1,867,1037,0,0
-350,-13,0,0,0,0,0,0,0,0,0,-1,874,1037,0,0
-343,-13,0,0,0,0,0,0,0,0,0,-1,881,1037,0,0
-336,-13,0,0,0,0,0,0,0,0,0,-1,888,1037,0,0
-329,-13,0,0,0,0,0,0,0,0,0,-1,895,1037,0,0
-322,-13,0,0,0,0,0,0,0,0,0,-1,902,1037,0,0
-315,-13,0,0,0,0,0,0,0,0,0,-1,909,1037,0,0
-308,-13,0,0,0,0,0,0,0,0,0,-1,916,1037,0,0
-301,-13,0,0,0,0,0,0,0,0,0,-1,923,1037,0,0
-294,-13,0,0,0,0,0,0,0,0,0,-1,930,1037,0,0
-287,-13,0,0,0,0,0,0,0,0,0,-1,937,1037,0,0
-280,-13,0,0,0,0,0,0,0,0,0,-1,944,1037,0,0
-273,-13,0,0,0,0,0,0,0,0,0,-1,951,1037,0,0
-266,-13,0,0,0,0,0,0,0,0,0,-1,958,1037,0,0
-259,-13,0,0,0,0,0,0,0,0,0,-1,965,1037,0,0
-252,-13,0,0,0,0,0,0,0,0,0,-1,972,1037,0,0
-245,-13,0,0,0,0,0,0,0,0,0,-1,979,1037,0,0
-238,-13,0,0,0,0,0,0,0,0,0,-1,986,1037,0,0
-231,-13,0,0,0,0,0,0,0,0,0,-1,993,1037,0,0
-224,-13,0,0,0,0,0,0,0,0,0,-1,1000,1037,0,0
-217,-13,0,0,0,0,0,0,0,0,0,-1,1007,1037,0,0
-210,-13,0,0,0,0,0,0,0,0,0,-1,1014,1037,0,0
-203,-13,0,0,0,0,0,0,0,0,0,-1,1021,1037,0,0
-196,-13,0,0,0,0,0,0,0,0,0,-1,1028,1037,0,0
-189,-13,0,0,0,0,0,0,0,0,0,-1,1035,1037,0,0
-182,-13,0,0,0,0,0,0,0,0,0,-1,1042,1037,0,0
-175,-13,0,0,0,0,0,0,0,0,0,-1,1049,1037,0,0
-168,-13,0,0,0,0,0,0,0,0,0,-1,1056,1037,0,0
-161,-13,0,0,0,0,0,0,0,0,0,-1,1063,1037,0,0
-154,-13,0,0,0,0,0,0,0,0,0,-1,1070,1037,0,0
-147,-13,0,0,0,0,0,0,0,0,0,-1,1077,1037,0,0
-140,-13,0,0,0,0,0,0,0,0,0,-1,1084,1037,0,0
-133,-13,0,0,0,0,0,0,0,0,0,-1,1091,1037,0,0
-126,-13,0,0,0,0,0,0,0,0,0,-1,1098,1037,0,0
-119,-13,0,0,0,0,0,0,0,0,0,-1,1105,1037,0,0
-112,-13,0,0,0,0,0,0,0,0,0,-1,1112,1037,0,0
-105,-13,0,0,0,0,0,0,0,0,0,-1,1119,1037,0,0
-98,-13,0,0,0,0,0,0,0,0,0,-1,1126,1037,0,0
-91,-13,0,0,0,0,0,0,0,0,0,-1,1133,1037,0,0
-84,-13,0,0,0,0,0,0,0,0,0,-1,1140,1037,0,0
-77,-13,0,0,0,0,0,0,0,0,0,-1,1147,1037,0,0
-70,-13,0,0,0,0,0,0,0,0,0,-1,1154,1037,0,0
-63,-13,0,0,0,0,0,0,0,0,0,-1,1161,1037,0,0
-56,-13,0,0,0,0,0,0,0,0,0,-1,1168,1037,0,0
-49,-13,0,0,0,0,0,0,0,0,0,-1,1175,1037,0,0
-42,-13,0,0,0,0,0,0,0,0,0,-1,1182,1037,0,0
-35,-13,0,0,0,0,0,0,0,0,0,-1,1189,1037,0,0
-28,-13,0,0,0,0,0,0,0,0,0,-1,1196,1037,0,0
-21,-13,0,0,0,0,0,0,0,0,0,-1,1203,1037,0,0
-14,-13,0,0,0,0,0,0,0,0,0,-1,1210,1037,0,0
-7,-13,0,0,0,0,0,0,0,0,0,-1,1217,1037,0,0
0,-13,0,0,0,0,0,0,0,0,0,-1,1224,1037,0,0
7,-13,0,0,0,0,0,0,0,0,0,-1,1231,1037,0,0
14,-13,0,0,0,0,0,0,0,0,0,-1,1238,1037,0,0
21,-13,0,0,0,0,0,0,0,0,0,-1,1245,1037,0,0
28,-13,0,0,0,0,0,0,0,0,0,-1,1252,1037,0,0
35,-13,0,0,0,0,0,0,0,0,0,-1,1259,1037,0,0
42,-13,0,0,0,0,0,0,0,0,0,-1,1266,1037,0,0
49,-13,0,0,0,0,0,0,0,0,0,-1,1273,1037,0,0
56,-13,0,0,0,0,0,0,0,0,0,-1,1280,1037,0,0
63,-13,0,0,0,0,0,0,0,0,0,-1,1287,1037,0,0
70,-13,0,0,0,0,0,0,0,0,0,-1,1294,1037,0,0
77,-13,0,0,0,0,0,0,0,0,0,-1,1301,1037,0,0
84,-13,0,0,0,0,0,0,0,0,0,-1,1308,1037,0,0
91,-13,0,0,0,0,0,0,0,0,0,-1,1315,1037,0,0
98,-13,0,0,0,0,0,0,0,0,0,-1,1322,1037,0,0
105,-13,0,0,0,0,0,0,0,0,0,-1,1329,1037,0,0
112,-13,0,0,0,0,0,0,0,0,0,-1,1336,1037,0,0
119,-13,0,0,0,0,0,0,0,0,0,-1,1343,1037,0,0
126,-13,0,0,0,0,0,0,0,0,0,-1,1350,1037,0,0
133,-13,0,0,0,0,0,0,0,0,0,-1,1357,1037,0,0
140,-13,0,0,0,0,0,0,0,0,0,-1,1364,1037,0,0
147,-13,0,0,0,0,0,0,0,0,0,-1,1371,1037,0,0
154,-13,0,0,0,0,0,0,0,0,0,-1,1378,1037,0,0
161,-13,0,0,0,0,0,0,0,0,0,-1,1385,1037,0,0
168,-13,0,0,0,0,0,0,0,0,0,-1,1392,1037,0,0
175,-13,0,0,0,0,0,0,0,0,0,-1,1399,1037,0,0
182,-13,0,0,0,0,0,0,0,0,0,-1,1406,1037,0,0
189,-13,0,0,0,0,0,0,0,0,0,-1,1413,1037,0,0
196,-13,0,0,0,0,0,0,0,0,0,-1,1420,1037,0,0
203,-13,0,0,0,0,0,0,0,0,0,-1,1427,1037,0,0
210,-13,0,0,0,0,0,0,0,0,0,-1,1434,1037,0,0
217,-13,0,0,0,0,0,0,0,0,0,-1,1441,1037,0,0
224,-13,0,0,0,0,0,0,0,0,0,-1,1448,1037,0,0
231,-13,0,0,0,0,0,0,0,0,0,-1,1455,1037,0,0
238,-13,0,0,0,0,0,0,0,0,0,-1,1462,1037,0,0
245,-13,0,0,0,0,0,0,0,0,0,-1,1469,1037,0,0
252,-13,0,0,0,0,0,0,0,0,0,-1,1476,1037,0,0
259,-13,0,0,0,0,0,0,0,0,0,-1,1483,1037,0,0
266,-13,0,0,0,0,0,0,0,0,0,-1,1490,1037,0,0
273,-13,0,0,0,0,0,0,0,0,0,-1,1497,1037,0,0
280,-13,0,0,0,0,0,0,0,0,0,-1,1504,1037,0,0
287,-13,0,0,0,0,0,0,0,0,0,-1,1511,1037,0,0
294,-13,0,0,0,0,0,0,0,0,0,-1,1518,1037,0,0
301,-13,0,0,0,0,0,0,0,0,0,-1,1525,1037,0,0
308,-13,0,0,0,0,0,0,0,0,0,-1,1532,1037,0,0
315,-13,0,0,0,0,0,0,0,0,0,-1,1539,1037,0,0
322,-13,0,0,0,0,0,0,0,0,0,-1,1546,1037,0,0
329,-13,0,0,0,0,0,0,0,0,0,-1,1553,1037,0,0
336,-13,0,0,0,0,0,0,0,0,0,-1,1560,1037,0,0
343,-13,0,0,0,0,0,0,0,0,0,-1,1567,1037,0,0
350,-13,0,0,0,0,0,0,0,0,0,-1,1574,1037,0,0
357,-13,0,0,0,0,0,0,0,0,0,-1,1581,1037,0,0
364,-13,0,0,0,0,0,0,0,0,0,-1,1588,1037,0,0
371,-13,0,0,0,0,0,0,0,0,0,-1,1595,1037,0,0
378,-13,0,0,0,0,0,0,0,0,0,-1,1602,1037,0,0
385,-13,0,0,0,0,0,0,0,0,0,-1,1609,1037,0,0
392,-13,0,0,0,0,0,0,0,0,0,-1,1616,1037,0,0
399,-13,0,0,0,0,0,0,0,0,0,-1,1623,1037,0,0
406,-13,0,0,0,0,0,0,0,0,0,-1,1630,1037,0,0
413,-13,0,0,0,0,0,0,0,0,0,-1,1637,1037,0,0
420,-13,0,0,0,0,0,0,0,0,0,-1,1644,1037,0,0
427,-13,0,0,0,0,0,0,0,0,0,-1,1651,1037,0,0
434,-13,0,0,0,0,0,0,0,0,0,-1,1658,1037,0,0
441,-13,0,0,0,0,0,0,0,0,0,-1,1665,1037,0,0
448,-13,0,0,0,0,0,0,0,0,0,-1,1672,1037,0,0
455,-13,0,0,0,0,0,0,0,0,0,-1,1679,1037,0,0
462,-13,0,0,0,0,0,0,0,0,0,-1,1686,1037,0,0
469,-13,0,0,0,0,0,0,0,0,0,-1,1693,1037,0,0
476,-13,0,0,0,0,0,0,0,0,0,-1,1700,1037,0,0
483,-13,0,0,0,0,0,0,0,0,0,-1,1707,1037,0,0
490,-13,0,0,0,0,0,0,0,0,0,-1,1714,1037,0,0
497,-13,0,0,0,0,0,0,0,0,0,-1,1721,1037,0,0
504,-13,0,0,0,0,0,0,0,0,0,-1,1728,1037,0,0
511,-13,0,0,0,0,0,0,0,0,0,-1,1735,1037,0,0
518,-13,0,0,0,0,0,0,0,0,0,-1,1742,1037,0,0
525,-13,0,0,0,0,0,0,0,0,0,-1,1749,1037,0,0
532,-13,0,0,0,0,0,0,0,0,0,-1,1756,1037,0,0
539,-13,0,0,0,0,0,0,0,0,0,-1,1763,1037,0,0
546,-13,0,0,0,0,0,0,0,0,0,-1,1770,1037,0,0
553,-13,0,0,0,0,0,0,0,0,0,-1,1777,1037,0,0
560,-13,0,0,0,0,0,0,0,0,0,-1,1784,1037,0,0
567,-13,0,0,0,0,0,0,0,0,0,-1,1791,1037,0,0
574,-13,0,0,0,0,0,0,0,0,0,-1,1798,1037,0,0
581,-13,0,0,0,0,0,0,0,0,0,-1,1805,1037,0,0
588,-13,0,0,0,0,0,0,0,0,0,-1,1812,1037,0,0
595,-13,0,0,0,0,0,0,0,0,0,-1,1819,1037,0,0
602,-13,0,0,0,0,0,0,0,0,0,-1,1826,1037,0,0
609,-13,0,0,0,0,0,0,0,0,0,-1,1833,1037,0,0
616,-13,0,0,0,0,0,0,0,0,0,-1,1840,1037,0,0
623,-13,0,0,0,0,0,0,0,0,0,-1,1847,1037,0,0
630,-13,0,0,0,0,0,0,0,0,0,-1,1854,1037,0,0
637,-13,0,0,0,0,0,0,0,0,0,-1,1861,1037,0,0
644,-13,0,0,0,0,0,0,0,0,0,-1,1868,1037,0,0
651,-13,75.7444,2.42053,-0.00394995,0.00106801,-0.000213268,0.00107705,-0.003959,-1.5284,0.00306215,0.0368838,1875,1037,75.7444,-2.42053
658,-13,75.6676,2.30872,-0.00265429,0.00110975,7.1856e-05,0.00111112,-0.00265566,1.55172,0.00223486,0.0423038,1882,1037,75.6676,-2.30871
665,-13,75.6772,2.2124,-0.00178139,0.00105873,0.000243515,0.00107946,-0.00180212,1.48588,0.00168102,0.042639,1889,1037,75.6772,-2.21238
672,-13,75.9126,2.22119,-0.00107677,0.00121587,0.00036819,0.00127355,-0.00113445,1.4154,0.00139103,0.038131,1896,1037,75.9127,-2.22123
679,-13,75.9447,2.33838,-0.000516246,0.00143043,0.000457029,0.00153239,-0.000618204,1.3513,0.00127849,0.0388058,1903,1037,75.9447,-2.33837
686,-13,75.7983,2.35022,-0.000528011,0.00126567,0.00046596,0.00137949,-0.000641834,1.33121,0.00119263,0.0404917,1910,1037,75.7984,-2.35017
693,-13,75.8588,2.35571,-0.000701325,0.00097796,0.000523573,0.00112783,-0.000851192,1.29201,0.0011463,0.038485,1917,1037,75.8587,-2.35567
700,-13,75.8063,2.3136,-0.000830168,0.000763263,0.000661711,0.00100222,-0.00106912,1.22425,0.0011961,0.0353237,1924,1037,75.8063,-2.3136
707,-13,75.8121,2.34131,-0.00168403,0.000988466,0.000829814,0.00122516,-0.00192072,1.29294,0.00183102,0.0302842,1931,1037,75.8122,-2.3413
714,-13,75.766,2.05469,0,0,0,0,0,0,0,-1,1938,1037,75.766,-2.05469
721,-13,75.0331,2.36389,0,0,0,0,0,0,0,-1,1945,1037,75.033,-2.36386
728,-13,75.7809,7.60693,0,0,0,0,0,0,0,-1,1952,1037,75.7809,-7.60693
735,-13,75.7089,7.55444,-0.00755025,0.0061538,0.000950408,0.0062194,-0.00761585,1.50188,0.00800134,0.0477849,1959,1037,75.7089,-7.55449
742,-13,75.7297,7.44812,-0.00886253,0.00768373,0.00104071,0.00774893,-0.00892773,1.50823,0.00963629,0.0321145,1966,1037,75.7298,-7.44813
749,-13,75.8835,7.29626,-0.0103396,0.00956886,0.00108494,0.00962781,-0.0103986,1.51651,0.0115651,0.0423512,1973,1037,75.8836,-7.29621
756,-13,75.8564,7.16431,-0.0115493,0.0126486,0.000652981,0.0126662,-0.0115669,1.54384,0.0139958,0.0238859,1980,1037,75.8564,-7.16434
763,-13,75.7732,7.00391,-0.0125099,0.0173055,-0.000320318,0.0173089,-0.0125134,-1.56005,0.017292,0.0320273,1987,1037,75.7733,-7.00396
770,-13,75.6631,6.85791,-0.0127209,0.0230643,-0.00187087,0.0231618,-0.0128184,-1.51871,0.0210574,0.0269727,1994,1037,75.663,-6.85797
777,-13,75.447,6.62988,-0.0116377,0.030582,-0.0044367,0.0310432,-0.0120989,-1.46722,0.0256961,0.0190132,2001,1037,75.4471,-6.62985
784,-13,75.4219,6.48035,-0.00972112,0.0389535,-0.0078535,0.0401892,-0.0109569,-1.41472,0.0310954,0.0391541,2008,1037,75.4218,-6.48031
791,-13,75.5776,6.36108,-0.00683757,0.0488795,-0.0126794,0.0516292,-0.00958729,-1.35724,0.0380203,0.0488663,2015,1037,75.5776,-6.36106
798,-13,75.6746,6.15295,-0.00242044,0.06108,-0.0189774,0.0663192,-0.00765967,-1.30143,0.0469747,0.0481227,2022,1037,75.6745,-6.15299
805,-13,75.7749,6.0127,0,0,0,0,0,0,0,-1,2029,1037,75.7749,-6.01269
812,-13,75.3831,6.67737,0,0,0,0,0,0,0,-1,2036,1037,75.383,-6.67736
-700,-20,-59.4762,-4.20142,0,0,0,0,0,0,0,-1,524,1044,-59.4762,4.20136
-693,-20,-59.2371,-3.81921,0,0,0,0,0,0,0,-1,531,1044,-59.2371,3.81924
-686,-20,-58.9052,-3.20142,0,0,0,0,0,0,0,-1,538,1044,-58.9052,3.2014
-679,-20,-59.1296,-2.22351,0,0,0,0,0,0,0,-1,545,1044,-59.1296,2.22356
-672,-20,-60.3438,6.05212,0,0,0,0,0,0,0,-1,552,1044,-60.3438,-6.05216
-665,-20,-59.6971,4.06067,0,0,0,0,0,0,0,-1,559,1044,-59.6971,-4.06061
-658,-20,-59.6844,4.50354,0,0,0,0,0,0,0,-1,566,1044,-59.6844,-4.50356
-651,-20,-59.7503,4.83203,-0.009322,0.0601164,0.0200832,0.0655065,-0.0147121,1.30859,0.0493121,0.0466611,573,1044,-59.7503,-4.83201
-644,-20,-59.7717,5.13477,-0.00874222,0.0441403,0.0136896,0.047474,-0.0120759,1.33193,0.0363495,0.0307656,580,1044,-59.7717,-5.13476
-637,-20,-59.8783,5.33728,-0.00768755,0.031332,0.008681,0.0331762,-0.00953173,1.36147,0.0258864,0.0229245,587,1044,-59.8783,-5.33732
-630,-20,-60.015,5.60022,-0.00621016,0.0202382,0.00447092,0.0209736,-0.0069455,1.40779,0.0167836,0.0180992,594,1044,-60.015,-5.60024
-623,-20,-60.0962,5.87927,-0.00446941,0.0104893,0.000924409,0.0105462,-0.00452631,1.50931,0.0089305,0.0157674,601,1044,-60.0962,-5.87923
-616,-20,-60.0961,6.10303,-0.00261567,0.00178137,-0.00207854,0.00260838,-0.00344268,-1.19212,0.00350463,0.0155333,608,1044,-60.0961,-6.10304
-609,-20,-60.1042,6.34277,-0.0005654,-0.0050553,-0.00423768,0.00198525,-0.00760595,-0.541813,0.00584585,0.0163579,615,1044,-60.1042,-6.34275
-602,-20,-60.0682,6.49658,0.00127622,-0.0112573,-0.00619665,0.00382256,-0.0138037,-0.389886,0.0107066,0.0156824,622,1044,-60.0683,-6.4966
-595,-20,-60.1036,6.66028,0,0,0,0,0,0,0,-1,629,1044,-60.1036,-6.66033
-588,-20,-59.0878,0.224976,0,0,0,0,0,0,0,-1,636,1044,-59.0878,-0.225019
-581,-20,-59.0354,0.128296,0,0,0,0,0,0,0,-1,643,1044,-59.0354,-0.128264
-574,-20,-59.0943,0.30249,0,0,0,0,0,0,0,-1,650,1044,-59.0943,-0.302545
-567,-20,-58.9407,0.415039,0,0,0,0,0,0,0,-1,657,1044,-58.9407,-0.415032
-560,-20,-58.7933,0.1698,0,0,0,0,0,0,0,-1,664,1044,-58.7933,-0.169805
-553,-20,-58.7734,-0.00976563,0,0,0,0,0,0,0,-1,671,1044,-58.7735,0.00972265
-546,-20,-58.9213,0.347656,0,0,0,0,0,0,0,-1,678,1044,-58.9212,-0.347712
-539,-20,-59.0709,0.634155,0,0,0,0,0,0,0,-1,685,1044,-59.0709,-0.634212
-532,-20,-59.0451,0.529541,0,0,0,0,0,0,0,-1,692,1044,-59.0451,-0.529585
-525,-20,0,0,0,0,0,0,0,0,0,-1,699,1044,0,0
-518,-20,0,0,0,0,0,0,0,0,0,-1,706,1044,0,0
-511,-20,0,0,0,0,0,0,0,0,0,-1,713,1044,0,0
-504,-20,0,0,0,0,0,0,0,0,0,-1,720,1044,0,0
-497,-20,0,0,0,0,0,0,0,0,0,-1,727,1044,0,0
-490,-20,0,0,0,0,0,0,0,0,0,-1,734,1044,0,0
-483,-20,0,0,0,0,0,0,0,0,0,-1,741,1044,0,0
-476,-20,0,0,0,0,0,0,0,0,0,-1,748,1044,0,0
-469,-20,0,0,0,0,0,0,0,0,0,-1,755,1044,0,0
-462,-20,0,0,0,0,0,0,0,0,0,-1,762,1044,0,0
-455,-20,0,0,0,0,0,0,0,0,0,-1,769,1044,0,0
-448,-20,0,0,0,0,0,0,0,0,0,-1,776,1044,0,0
-441,-20,0,0,0,0,0,0,0,0,0,-1,783,1044,0,0
-434,-20,0,0,0,0,0,0,0,0,0,-1,790,1044,0,0
-427,-20,0,0,0,0,0,0,0,0,0,-1,797,1044,0,0
-420,-20,0,0,0,0,0,0,0,0,0,-1,804,1044,0,0
-413,-20,0,0,0,0,0,0,0,0,0,-1,811,1044,0,0
-406,-20,0,0,0,0,0,0,0,0,0,-1,818,1044,0,0
-399,-20,0,0,0,0,0,0,0,0,0,-1,825,1044,0,0
-392,-20,0,0,0,0,0,0,0,0,0,-1,832,1044,0,0
-385,-20,0,0,0,0,0,0,0,0,0,-1,839,1044,0,0
-378,-20,0,0,0,0,0,0,0,0,0,-1,846,1044,0,0
-371,-20,0,0,0,0,0,0,0,0,0,-1,853,1044,0,0
-364,-20,0,0,0,0,0,0,0,0,0,-1,860,1044,0,0
-357,-20,0,0,0,0,0,0,0,0,0,-1,867,1044,0,0
-350,-20,0,0,0,0,0,0,0,0,0,-1,874,1044,0,0
-343,-20,0,0,0,0,0,0,0,0,0,-1,881,1044,0,0
-336,-20,0,0,0,0,0,0,0,0,0,-1,888,1044,0,0
-329,-20,0,0,0,0,0,0,0,0,0,-1,895,1044,0,0
-322,-20,0,0,0,0,0,0,0,0,0,-1,902,1044,0,0
-315,-20,0,0,0,0,0,0,0,0,0,-1,909,1044,0,0
-308,-20,0,0,0,0,0,0,0,0,0,-1,916,1044,0,0
-301,-20,0,0,0,0,0,0,0,0,0,-1,923,1044,0,0
-294,-20,0,0,0,0,0,0,0,0,0,-1,930,1044,0,0
-287,-20,0,0,0,0,0,0,0,0,0,-1,937,1044,0,0
-280,-20,0,0,0,0,0,0,0,0,0,-1,944,1044,0,0
-273,-20,0,0,0,0,0,0,0,0,0,-1,951,1044,0,0
-266,-20,0,0,0,0,0,0,0,0,0,-1,958,1044,0,0
-259,-20,0,0,0,0,0,0,0,0,0,-1,965,1044,0,0
-252,-20,0,0,0,0,0,0,0,0,0,-1,972,1044,0,0
-245,-20,0,0,0,0,0,0,0,0,0,-1,979,1044,0,0
-238,-20,0,0,0,0,0,0,0,0,0,-1,986,1044,0,0
-231,-20,0,0,0,0,0,0,0,0,0,-1,993,1044,0,0
-224,-20,0,0,0,0,0,0,0,0,0,-1,1000,1044,0,0
-217,-20,0,0,0,0,0,0,0,0,0,-1,1007,1044,0,0
-210,-20,0,0,0,0,0,0,0,0,0,-1,1014,1044,0,0
-203,-20,0,0,0,0,0,0,0,0,0,-1,1021,1044,0,0
-196,-20,0,0,0,0,0,0,0,0,0,-1,1028,1044,0,0
-189,-20,0,0,0,0,0,0,0,0,0,-1,1035,1044,0,0
-182,-20,0,0,0,0,0,0,0,0,0,-1,1042,1044,0,0
-175,-20,0,0,0,0,0,0,0,0,0,-1,1049,1044,0,0
-168,-20,0,0,0,0,0,0,0,0,0,-1,1056,1044,0,0
-161,-20,0,0,0,0,0,0,0,0,0,-1,1063,1044,0,0
-154,-20,0,0,0,0,0,0,0,0,0,-1,1070,1044,0,0
-147,-20,0,0,0,0,0,0,0,0,0,-1,1077,1044,0,0
-140,-20,0,0,0,0,0,0,0,0,0,-1,1084,1044,0,0
-133,-20,0,0,0,0,0,0,0,0,0,-1,1091,1044,0,0
-126,-20,0,0,0,0,0,0,0,0,0,-1,1098,1044,0,0
-119,-20,0,0,0,0,0,0,0,0,0,-1,1105,1044,0,0
-112,-20,0,0,0,0,0,0,0,0,0,-1,1112,1044,0,0
-105,-20,0,0,0,0,0,0,0,0,0,-1,1119,1044,0,0
-98,-20,0,0,0,0,0,0,0,0,0,-1,1126,1044,0,0
-91,-20,0,0,0,0,0,0,0,0,0,-1,1133,1044,0,0
-84,-20,0,0,0,0,0,0,0,0,0,-1,1140,1044,0,0
-77,-20,0,0,0,0,0,0,0,0,0,-1,1147,1044,0,0
-70,-20,0,0,0,0,0,0,0,0,0,-1,1154,1044,0,0
-63,-20,0,0,0,0,0,0,0,0,0,-1,1161,1044,0,0
-56,-20,0,0,0,0,0,0,0,0,0,-1,1168,1044,0,0
-49,-20,0,0,0,0,0,0,0,0,0,-1,1175,1044,0,0
-42,-20,0,0,0,0,0,0,0,0,0,-1,1182,1044,0,0
-35,-20,0,0,0,0,0,0,0,0,0,-1,1189,1044,0,0
-28,-20,0,0,0,0,0,0,0,0,0,-1,1196,1044,0,0
-21,-20,0,0,0,0,0,0,0,0,0,-1,1203,1044,0,0
-14,-20,0,0,0,0,0,0,0,0,0,-1,1210,1044,0,0
-7,-20,0,0,0,0,0,0,0,0,0,-1,1217,1044,0,0
0,-20,0,0,0,0,0,0,0,0,0,-1,1224,1044,0,0
7,-20,0,0,0,0,0,0,0,0,0,-1,1231,1044,0,0
14,-20,0,0,0,0,0,0,0,0,0,-1,1238,1044,0,0
21,-20,0,0,0,0,0,0,0,0,0,-1,1245,1044,0,0
28,-20,0,0,0,0,0,0,0,0,0,-1,1252,1044,0,0
35,-20,0,0,0,0,0,0,0,0,0,-1,1259,1044,0,0
42,-20,0,0,0,0,0,0,0,0,0,-1,1266,1044,0,0
49,-20,0,0,0,0,0,0,0,0,0,-1,1273,1044,0,0
56,-20,0,0,0,0,0,0,0,0,0,-1,1280,1044,0,0
63,-20,0,0,0,0,0,0,0,0,0,-1,1287,1044,0,0
70,-20,0,0,0,0,0,0,0,0,0,-1,1294,1044,0,0
77,-20,0,0,0,0,0,0,0,0,0,-1,1301,1044,0,0
84,-20,0,0,0,0,0,0,0,0,0,-1,1308,1044,0,0
91,-20,0,0,0,0,0,0,0,0,0,-1,1315,1044,0,0
98,-20,0,0,0,0,0,0,0,0,0,-1,1322,1044,0,0
105,-20,0,0,0,0,0,0,0,0,0,-1,1329,1044,0,0
112,-20,0,0,0,0,0,0,0,0,0,-1,1336,1044,0,0
119,-20,0,0,0,0,0,0,0,0,0,-1,1343,1044,0,0
126,-20,0,0,0,0,0,0,0,0,0,-1,1350,1044,0,0
133,-20,0,0,0,0,0,0,0,0,0,-1,1357,1044,0,0
140,-20,0,0,0,0,0,0,0,0,0,-1,1364,1044,0,0
147,-20,0,0,0,0,0,0,0,0,0,-1,1371,1044,0,0
154,-20,0,0,0,0,0,0,0,0,0,-1,1378,1044,0,0
161,-20,0,0,0,0,0,0,0,0,0,-1,1385,1044,0,0
168,-20,0,0,0,0,0,0,0,0,0,-1,1392,1044,0,0
175,-20,0,0,0,0,0,0,0,0,0,-1,1399,1044,0,0
182,-20,0,0,0,0,0,0,0,0,0,-1,1406,1044,0,0
189,-20,0,0,0,0,0,0,0,0,0,-1,1413,1044,0,0
196,-20,0,0,0,0,0,0,0,0,0,-1,1420,1044,0,0
203,-20,0,0,0,0,0,0,0,0,0,-1,1427,1044,0,0
210,-20,0,0,0,0,0,0,0,0,0,-1,1434,1044,0,0
217,-20,0,0,0,0,0,0,0,0,0,-1,1441,1044,0,0
224,-20,0,0,0,0,0,0,0,0,0,-1,1448,1044,0,0
231,-20,0,0,0,0,0,0,0,0,0,-1,1455,1044,0,0
238,-20,0,0,0,0,0,0,0,0,0,-1,1462,1044,0,0
245,-20,0,0,0,0,0,0,0,0,0,-1,1469,1044,0,0
252,-20,0,0,0,0,0,0,0,0,0,-1,1476,1044,0,0
259,-20,0,0,0,0,0,0,0,0,0,-1,1483,1044,0,0
266,-20,0,0,0,0,0,0,0,0,0,-1,1490,1044,0,0
273,-20,0,0,0,0,0,0,0,0,0,-1,1497,1044,0,0
280,-20,0,0,0,0,0,0,0,0,0,-1,1504,1044,0,0
287,-20,0,0,0,0,0,0,0,0,0,-1,1511,1044,0,0
294,-20,0,0,0,0,0,0,0,0,0,-1,1518,1044,0,0
301,-20,0,0,0,0,0,0,0,0,0,-1,1525,1044,0,0
308,-20,0,0,0,0,0,0,0,0,0,-1,1532,1044,0,0
315,-20,0,0,0,0,0,0,0,0,0,-1,1539,1044,0,0
322,-20,0,0,0,0,0,0,0,0,0,-1,1546,1044,0,0
329,-20,0,0,0,0,0,0,0,0,0,-1,1553,1044,0,0
336,-20,0,0,0,0,0,0,0,0,0,-1,1560,1044,0,0
343,-20,0,0,0,0,0,0,0,0,0,-1,1567,1044,0,0
350,-20,0,0,0,0,0,0,0,0,0,-1,1574,1044,0,0
357,-20,0,0,0,0,0,0,0,0,0,-1,1581,1044,0,0
364,-20,0,0,0,0,0,0,0,0,0,-1,1588,1044,0,0
371,-20,0,0,0,0,0,0,0,0,0,-1,1595,1044,0,0
378,-20,0,0,0,0,0,0,0,0,0,-1,1602,1044,0,0
385,-20,0,0,0,0,0,0,0,0,0,-1,1609,1044,0,0
392,-20,0,0,0,0,0,0,0,0,0,-1,1616,1044,0,0
399,-20,0,0,0,0,0,0,0,0,0,-1,1623,1044,0,0
406,-20,0,0,0,0,0,0,0,0,0,-1,1630,1044,0,0
413,-20,0,0,0,0,0,0,0,0,0,-1,1637,1044,0,0
420,-20,0,0,0,0,0,0,0,0,0,-1,1644,1044,0,0
427,-20,0,0,0,0,0,0,0,0,0,-1,1651,1044,0,0
434,-20,0,0,0,0,0,0,0,0,0,-1,1658,1044,0,0
441,-20,0,0,0,0,0,0,0,0,0,-1,1665,1044,0,0
448,-20,0,0,0,0,0,0,0,0,0,-1,1672,1044,0,0
455,-20,0,0,0,0,0,0,0,0,0,-1,1679,1044,0,0
462,-20,0,0,0,0,0,0,0,0,0,-1,1686,1044,0,0
469,-20,0,0,0,0,0,0,0,0,0,-1,1693,1044,0,0
476,-20,0,0,0,0,0,0,0,0,0,-1,1700,1044,0,0
483,-20,0,0,0,0,0,0,0,0,0,-1,1707,1044,0,0
490,-20,0,0,0,0,0,0,0,0,0,-1,1714,1044,0,0
497,-20,0,0,0,0,0,0,0,0,0,-1,1721,1044,0,0
504,-20,0,0,0,0,0,0,0,0,0,-1,1728,1044,0,0
511,-20,0,0,0,0,0,0,0,0,0,-1,1735,1044,0,0
518,-20,0,0,0,0,0,0,0,0,0,-1,1742,1044,0,0
525,-20,0,0,0,0,0,0,0,0,0,-1,1749,1044,0,0
532,-20,0,0,0,0,0,0,0,0,0,-1,1756,1044,0,0
539,-20,0,0,0,0,0,0,0,0,0,-1,1763,1044,0,0
546,-20,0,0,0,0,0,0,0,0,0,-1,1770,1044,0,0
553,-20,0,0,0,0,0,0,0,0,0,-1,1777,1044,0,0
560,-20,0,0,0,0,0,0,0,0,0,-1,1784,1044,0,0
567,-20,0,0,0,0,0,0,0,0,0,-1,1791,1044,0,0
574,-20,0,0,0,0,0,0,0,0,0,-1,1798,1044,0,0
581,-20,0,0,0,0,0,0,0,0,0,-1,1805,1044,0,0
588,-20,0,0,0,0,0,0,0,0,0,-1,1812,1044,0,0
595,-20,0,0,0,0,0,0,0,0,0,-1,1819,1044,0,0
602,-20,0,0,0,0,0,0,0,0,0,-1,1826,1044,0,0
609,-20,0,0,0,0,0,0,0,0,0,-1,1833,1044,0,0
616,-20,0,0,0,0,0,0,0,0,0,-1,1840,1044,0,0
623,-20,0,0,0,0,0,0,0,0,0,-1,1847,1044,0,0
630,-20,0,0,0,0,0,0,0,0,0,-1,1854,1044,0,0
637,-20,0,0,0,0,0,0,0,0,0,-1,1861,1044,0,0
644,-20,0,0,0,0,0,0,0,0,0,-1,1868,1044,0,0
651,-20,75.7377,2.28906,-0.00382916,0.00159173,0.000133627,0.00159502,-0.00383245,1.54617,0.00322108,0.0397103,1875,1044,75.7377,-2.28906
658,-20,75.7162,2.15552,-0.00254987,0.00152977,0.000315626,0.00155404,-0.00257415,1.49404,0.00240755,0.0433375,1882,1044,75.7162,-2.15553
665,-20,75.7465,2.29529,-0.00172591,0.00138092,0.000426977,0.00143853,-0.00178353,1.43668,0.00186381,0.0385305,1889,1044,75.7465,-2.29526
672,-20,75.814,2.41089,-0.0010652,0.00145602,0.000515376,0.0015573,-0.00116649,1.37675,0.00157797,0.0249601,1896,1044,75.8139,-2.41086
679,-20,75.7744,2.30835,-0.000560584,0.00160631,0.000575971,0.00174989,-0.000704166,1.32649,0.0014591,0.0289326,1903,1044,75.7744,-2.30834
686,-20,75.8098,2.31726,-0.000672313,0.00139605,0.000586837,0.00155095,-0.000827211,1.31273,0.00139406,0.0387604,1910,1044,75.8098,-2.31722
693,-20,75.9678,2.01062,-0.000952348,0.00107086,0.000665081,0.00126991,-0.0011514,1.28,0.0013985,0.0418958,1917,1044,75.9678,-2.01064
700,-20,75.8627,2.14709,-0.00116999,0.000833161,0.000850368,0.00114546,-0.00148229,1.21883,0.00152129,0.0376355,1924,1044,75.8627,-2.14711
707,-20,75.7969,2.30591,-0.00201107,0.000985769,0.00107402,0.00133093,-0.00235623,1.25985,0.00215604,0.0328138,1931,1044,75.7969,-2.30596
714,-20,75.7972,2.52051,-0.00309848,0.00159344,0.0011986,0.0018819,-0.00338694,1.33462,0.00308306,0.0347955,1938,1044,75.7972,-2.52048
721,-20,75.6021,2.51892,0,0,0,0,0,0,0,-1,1945,1044,75.602,-2.51894
728,-20,76.1342,7.7854,0,0,0,0,0,0,0,-1,1952,1044,76.1342,-7.78546
735,-20,75.8004,7.63782,-0.00777377,0.00570291,0.00134274,0.00583539,-0.00790625,1.47245,0.00796372,0.0356019,1959,1044,75.8004,-7.63785
742,-20,75.4944,7.31262,-0.00911983,0.00712911,0.00146338,0.00725985,-0.00925057,1.48169,0.00955536,0.0387031,1966,1044,75.4943,-7.31265
749,-20,75.655,7.20325,-0.0105818,0.00879294,0.00148725,0.00890644,-0.0106953,1.49463,0.0113328,0.0378013,1973,1044,75.655,-7.20321
756,-20,75.6604,7.09668,-0.0117122,0.011678,0.000955429,0.011717,-0.0117512,1.53004,0.0135494,0.0218513,1980,1044,75.6605,-7.0967
763,-20,75.5676,6.94934,-0.0126307,0.0161078,-0.000200445,0.0161092,-0.0126321,-1.56382,0.0166343,0.0330593,1987,1044,75.5676,-6.94935
770,-20,75.4563,6.81555,-0.012976,0.0214082,-0.00200439,0.0215246,-0.0130925,-1.51276,0.0201829,0.0280692,1994,1044,75.4562,-6.81558
777,-20,75.2532,6.47644,-0.0120873,0.0284806,-0.00502106,0.0290928,-0.0126996,-1.44947,0.0247399,0.019057,2001,1044,75.2532,-6.47641
784,-20,75.239,6.31653,-0.0104226,0.0364045,-0.00897572,0.038066,-0.0120841,-1.38776,0.0302217,0.0236909,2008,1044,75.2391,-6.31648
791,-20,75.5295,5.98694,-0.00785942,0.0458324,-0.0143838,0.049443,-0.01147,-1.32486,0.0373767,0.0372959,2015,1044,75.5295,-5.987
798,-20,75.6089,5.89282,-0.00383489,0.0574728,-0.0214018,0.0642048,-0.0105668,-1.26605,0.0467254,0.0443828,2022,1044,75.6088,-5.89279
805,-20,75.6995,5.80676,0.00207301,0.0722333,-0.0299533,0.0832814,-0.00897508,-1.21743,0.0587416,0.0455726,2029,1044,75.6996,-5.80677
812,-20,75.7451,5.84875,0.00879996,0.0915272,-0.0407608,0.108236,-0.0079087,-1.18177,0.0749328,0.0483594,2036,1044,75.745,-5.84879
-700,-27,-59.0108,-4.72083,0,0,0,0,0,0,0,-1,524,1051,-59.0108,4.72086
-693,-27,-58.757,-3.84692,0,0,0,0,0,0,0,-1,531,1051,-58.7571,3.84696
-686,-27,-58.6404,-3.20178,0,0,0,0,0,0,0,-1,538,1051,-58.6404,3.20178
-679,-27,-58.8738,-2.27966,0,0,0,0,0,0,0,-1,545,1051,-58.8738,2.27961
-672,-27,-59.2275,3.42236,0,0,0,0,0,0,0,-1,552,1051,-59.2275,-3.42242
-665,-27,-59.4628,3.7467,-0.00457823,0.109675,0.0394286,0.121961,-0.0168639,1.26874,0.0874721,0.0482156,559,1051,-59.4628,-3.74668
-658,-27,-59.4774,4.25916,-0.00797417,0.0814267,0.0278429,0.0893889,-0.0159364,1.29226,0.0655537,0.0474646,566,1051,-59.4773,-4.25913
-651,-27,-59.5099,4.61499,-0.00891514,0.0601927,0.0193146,0.0652244,-0.0139469,1.31594,0.0488008,0.0371625,573,1051,-59.5099,-4.61503
-644,-27,-59.5671,4.90881,-0.00835731,0.0439315,0.0129589,0.046967,-0.0113927,1.34071,0.0357197,0.0193816,580,1051,-59.5671,-4.90885
-637,-27,-59.6339,5.12061,-0.00720331,0.0309885,0.00800504,0.0325985,-0.0088133,1.37232,0.0251894,0.0168603,587,1051,-59.6338,-5.12058
-630,-27,-59.7302,5.51941,-0.00558735,0.0198563,0.00385696,0.0204281,-0.00615917,1.42361,0.0160702,0.0207888,594,1051,-59.7302,-5.51937
-623,-27,-59.8007,5.85278,-0.00366181,0.0101504,0.000368632,0.0101603,-0.00367164,1.54413,0.00827356,0.0177535,601,1051,-59.8007,-5.85282
-616,-27,-59.7667,6.11829,-0.00156993,0.00155179,-0.00259103,0.00301579,-0.00303392,-1.05649,0.00349281,0.0151311,608,1051,-59.7667,-6.11827
-609,-27,-59.7546,6.37109,0.000776997,-0.00520345,-0.00475245,0.00340168,-0.00782813,-0.504593,0.00664931,0.0148835,615,1051,-59.7546,-6.3711
-602,-27,-59.7285,6.62671,0.00301817,-0.0111638,-0.00672295,0.00569857,-0.0138442,-0.379381,0.0116051,0.0147618,622,1051,-59.7284,-6.6267
-595,-27,-59.7589,6.87292,0.00511063,-0.0175515,-0.00778284,0.00752604,-0.0199669,-0.300926,0.0164058,0.0264646,629,1051,-59.7588,-6.87291
-588,-27,-59.9688,7.1123,0,0,0,0,0,0,0,-1,636,1051,-59.9687,-7.11234
-581,-27,-59.0255,0.179443,0,0,0,0,0,0,0,-1,643,1051,-59.0255,-0.179459
-574,-27,-59.0418,0.194214,0,0,0,0,0,0,0,-1,650,1051,-59.0418,-0.194182
-567,-27,-58.9329,0.35791,0,0,0,0,0,0,0,-1,657,1051,-58.9329,-0.35792
-560,-27,-58.9689,0.371216,0,0,0,0,0,0,0,-1,664,1051,-58.9689,-0.371256
-553,-27,-59.1014,0.0505371,0,0,0,0,0,0,0,-1,671,1051,-59.1014,-0.0505439
-546,-27,-59.1461,-0.153564,0,0,0,0,0,0,0,-1,678,1051,-59.146,0.153607
-539,-27,-59.0056,0.5177,0,0,0,0,0,0,0,-1,685,1051,-59.0056,-0.517685
-532,-27,-59.0136,0.299438,0,0,0,0,0,0,0,-1,692,1051,-59.0136,-0.299421
-525,-27,0,0,0,0,0,0,0,0,0,-1,699,1051,0,0
-518,-27,0,0,0,0,0,0,0,0,0,-1,706,1051,0,0
-511,-27,0,0,0,0,0,0,0,0,0,-1,713,1051,0,0
-504,-27,0,0,0,0,0,0,0,0,0,-1,720,1051,0,0
-497,-27,0,0,0,0,0,0,0,0,0,-1,727,1051,0,0
-490,-27,0,0,0,0,0,0,0,0,0,-1,734,1051,0,0
-483,-27,0,0,0,0,0,0,0,0,0,-1,741,1051,0,0
-476,-27,0,0,0,0,0,0,0,0,0,-1,748,1051,0,0
-469,-27,0,0,0,0,0,0,0,0,0,-1,755,1051,0,0
-462,-27,0,0,0,0,0,0,0,0,0,-1,762,1051,0,0
-455,-27,0,0,0,0,0,0,0,0,0,-1,769,1051,0,0
-448,-27,0,0,0,0,0,0,0,0,0,-1,776,1051,0,0
-441,-27,0,0,0,0,0,0,0,0,0,-1,783,1051,0,0
-434,-27,0,0,0,0,0,0,0,0,0,-1,790,1051,0,0
-427,-27,0,0,0,0,0,0,0,0,0,-1,797,1051,0,0
-420,-27,0,0,0,0,0,0,0,0,0,-1,804,1051,0,0
-413,-27,0,0,0,0,0,0,0,0,0,-1,811,1051,0,0
-406,-27,0,0,0,0,0,0,0,0,0,-1,818,1051,0,0
-399,-27,0,0,0,0,0,0,0,0,0,-1,825,1051,0,0
-392,-27,0,0,0,0,0,0,0,0,0,-1,832,1051,0,0
-385,-27,0,0,0,0,0,0,0,0,0,-1,839,1051,0,0
-378,-27,0,0,0,0,0,0,0,0,0,-1,846,1051,0,0
-371,-27,0,0,0,0,0,0,0,0,0,-1,853,1051,0,0
-364,-27,0,0,0,0,0,0,0,0,0,-1,860,1051,0,0
-357,-27,0,0,0,0,0,0,0,0,0,-1,867,1051,0,0
-350,-27,0,0,0,0,0,0,0,0,0,-1,874,1051,0,0
-343,-27,0,0,0,0,0,0,0,0,0,-1,881,1051,0,0
-336,-27,0,0,0,0,0,0,0,0,0,-1,888,1051,0,0
-329,-27,0,0,0,0,0,0,0,0,0,-1,895,1051,0,0
-322,-27,0,0,0,0,0,0,0,0,0,-1,902,1051,0,0
-315,-27,0,0,0,0,0,0,0,0,0,-1,909,1051,0,0
-308,-27,0,0,0,0,0,0,0,0,0,-1,916,1051,0,0
-301,-27,0,0,0,0,0,0,0,0,0,-1,923,1051,0,0
-294,-27,0,0,0,0,0,0,0,0,0,-1,930,1051,0,0
-287,-27,0,0,0,0,0,0,0,0,0,-1,937,1051,0,0
-280,-27,0,0,0,0,0,0,0,0,0,-1,944,1051,0,0
-273,-27,0,0,0,0,0,0,0,0,0,-1,951,1051,0,0
-266,-27,0,0,0,0,0,0,0,0,0,-1,958,1051,0,0
-259,-27,0,0,0,0,0,0,0,0,0,-1,965,1051,0,0
-252,-27,0,0,0,0,0,0,0,0,0,-1,972,1051,0,0
-245,-27,0,0,0,0,0,0,0,0,0,-1,979,1051,0,0
-238,-27,0,0,0,0,0,0,0,0,0,-1,986,1051,0,0
-231,-27,0,0,0,0,0,0,0,0,0,-1,993,1051,0,0
-224,-27,0,0,0,0,0,0,0,0,0,-1,1000,1051,0,0
-217,-27,0,0,0,0,0,0,0,0,0,-1,1007,1051,0,0
-210,-27,0,0,0,0,0,0,0,0,0,-1,1014,1051,0,0
-203,-27,0,0,0,0,0,0,0,0,0,-1,1021,1051,0,0
-196,-27,0,0,0,0,0,0,0,0,0,-1,1028,1051,0,0
-189,-27,0,0,0,0,0,0,0,0,0,-1,1035,1051,0,0
-182,-27,0,0,0,0,0,0,0,0,0,-1,1042,1051,0,0
-175,-27,0,0,0,0,0,0,0,0,0,-1,1049,1051,0,0
-168,-27,0,0,0,0,0,0,0,0,0,-1,1056,1051,0,0
-161,-27,0,0,0,0,0,0,0,0,0,-1,1063,1051,0,0
-154,-27,0,0,0,0,0,0,0,0,0,-1,1070,1051,0,0
-147,-27,0,0,0,0,0,0,0,0,0,-1,1077,1051,0,0
-140,-27,0,0,0,0,0,0,0,0,0,-1,1084,1051,0,0
-133,-27,0,0,0,0,0,0,0,0,0,-1,1091,1051,0,0
-126,-27,0,0,0,0,0,0,0,0,0,-1,1098,1051,0,0
-119,-27,0,0,0,0,0,0,0,0,0,-1,1105,1051,0,0
-112,-27,0,0,0,0,0,0,0,0,0,-1,1112,1051,0,0
-105,-27,0,0,0,0,0,0,0,0,0,-1,1119,1051,0,0
-98,-27,0,0,0,0,0,0,0,0,0,-1,1126,1051,0,0
-91,-27,0,0,0,0,0,0,0,0,0,-1,1133,1051,0,0
-84,-27,0,0,0,0,0,0,0,0,0,-1,1140,1051,0,0
-77,-27,0,0,0,0,0,0,0,0,0,-1,1147,1051,0,0
-70,-27,0,0,0,0,0,0,0,0,0,-1,1154,1051,0,0
-63,-27,0,0,0,0,0,0,0,0,0,-1,1161,1051,0,0
-56,-27,0,0,0,0,0,0,0,0,0,-1,1168,1051,0,0
-49,-27,0,0,0,0,0,0,0,0,0,-1,1175,1051,0,0
-42,-27,0,0,0,0,0,0,0,0,0,-1,1182,1051,0,0
-35,-27,0,0,0,0,0,0,0,0,0,-1,1189,1051,0,0
-28,-27,0,0,0,0,0,0,0,0,0,-1,1196,1051,0,0
-21,-27,0,0,0,0,0,0,0,0,0,-1,1203,1051,0,0
-14,-27,0,0,0,0,0,0,0,0,0,-1,1210,1051,0,0
-7,-27,0,0,0,0,0,0,0,0,0,-1,1217,1051,0,0
0,-27,0,0,0,0,0,0,0,0,0,-1,1224,1051,0,0
7,-27,0,0,0,0,0,0,0,0,0,-1,1231,1051,0,0
14,-27,0,0,0,0,0,0,0,0,0,-1,1238,1051,0,0
21,-27,0,0,0,0,0,0,0,0,0,-1,1245,1051,0,0
28,-27,0,0,0,0,0,0,0,0,0,-1,1252,1051,0,0
35,-27,0,0,0,0,0,0,0,0,0,-1,1259,1051,0,0
42,-27,0,0,0,0,0,0,0,0,0,-1,1266,1051,0,0
49,-27,0,0,0,0,0,0,0,0,0,-1,1273,1051,0,0
56,-27,0,0,0,0,0,0,0,0,0,-1,1280,1051,0,0
63,-27,0,0,0,0,0,0,0,0,0,-1,1287,1051,0,0
70,-27,0,0,0,0,0,0,0,0,0,-1,1294,1051,0,0
77,-27,0,0,0,0,0,0,0,0,0,-1,1301,1051,0,0
84,-27,0,0,0,0,0,0,0,0,0,-1,1308,1051,0,0
91,-27,0,0,0,0,0,0,0,0,0,-1,1315,1051,0,0
98,-27,0,0,0,0,0,0,0,0,0,-1,1322,1051,0,0
105,-27,0,0,0,0,0,0,0,0,0,-1,1329,1051,0,0
112,-27,0,0,0,0,0,0,0,0,0,-1,1336,1051,0,0
119,-27,0,0,0,0,0,0,0,0,0,-1,1343,1051,0,0
126,-27,0,0,0,0,0,0,0,0,0,-1,1350,1051,0,0
133,-27,0,0,0,0,0,0,0,0,0,-1,1357,1051,0,0
140,-27,0,0,0,0,0,0,0,0,0,-1,1364,1051,0,0
147,-27,0,0,0,0,0,0,0,0,0,-1,1371,1051,0,0
154,-27,0,0,0,0,0,0,0,0,0,-1,1378,1051,0,0
161,-27,0,0,0,0,0,0,0,0,0,-1,1385,1051,0,0
168,-27,0,0,0,0,0,0,0,0,0,-1,1392,1051,0,0
175,-27,0,0,0,0,0,0,0,0,0,-1,1399,1051,0,0
182,-27,0,0,0,0,0,0,0,0,0,-1,1406,1051,0,0
189,-27,0,0,0,0,0,0,0,0,0,-1,1413,1051,0,0
196,-27,0,0,0,0,0,0,0,0,0,-1,1420,1051,0,0
203,-27,0,0,0,0,0,0,0,0,0,-1,1427,1051,0,0
210,-27,0,0,0,0,0,0,0,0,0,-1,1434,1051,0,0
217,-27,0,0,0,0,0,0,0,0,0,-1,1441,1051,0,0
224,-27,0,0,0,0,0,0,0,0,0,-1,1448,1051,0,0
231,-27,0,0,0,0,0,0,0,0,0,-1,1455,1051,0,0
238,-27,0,0,0,0,0,0,0,0,0,-1,1462,1051,0,0
245,-27,0,0,0,0,0,0,0,0,0,-1,1469,1051,0,0
252,-27,0,0,0,0,0,0,0,0,0,-1,1476,1051,0,0
259,-27,0,0,0,0,0,0,0,0,0,-1,1483,1051,0,0
266,-27,0,0,0,0,0,0,0,0,0,-1,1490,1051,0,0
273,-27,0,0,0,0,0,0,0,0,0,-1,1497,1051,0,0
280,-27,0,0,0,0,0,0,0,0,0,-1,1504,1051,0,0
287,-27,0,0,0,0,0,0,0,0,0,-1,1511,1051,0,0
294,-27,0,0,0,0,0,0,0,0,0,-1,1518,1051,0,0
301,-27,0,0,0,0,0,0,0,0,0,-1,1525,1051,0,0
308,-27,0,0,0,0,0,0,0,0,0,-1,1532,1051,0,0
315,-27,0,0,0,0,0,0,0,0,0,-1,1539,1051,0,0
322,-27,0,0,0,0,0,0,0,0,0,-1,1546,1051,0,0
329,-27,0,0,0,0,0,0,0,0,0,-1,1553,1051,0,0
336,-27,0,0,0,0,0,0,0,0,0,-1,1560,1051,0,0
343,-27,0,0,0,0,0,0,0,0,0,-1,1567,1051,0,0
350,-27,0,0,0,0,0,0,0,0,0,-1,1574,1051,0,0
357,-27,0,0,0,0,0,0,0,0,0,-1,1581,1051,0,0
364,-27,0,0,0,0,0,0,0,0,0,-1,1588,1051,0,0
371,-27,0,0,0,0,0,0,0,0,0,-1,1595,1051,0,0
378,-27,0,0,0,0,0,0,0,0,0,-1,1602,1051,0,0
385,-27,0,0,0,0,0,0,0,0,0,-1,1609,1051,0,0
392,-27,0,0,0,0,0,0,0,0,0,-1,1616,1051,0,0
399,-27,0,0,0,0,0,0,0,0,0,-1,1623,1051,0,0
406,-27,0,0,0,0,0,0,0,0,0,-1,1630,1051,0,0
413,-27,0,0,0,0,0,0,0,0,0,-1,1637,1051,0,0
420,-27,0,0,0,0,0,0,0,0,0,-1,1644,1051,0,0
427,-27,0,0,0,0,0,0,0,0,0,-1,1651,1051,0,0
434,-27,0,0,0,0,0,0,0,0,0,-1,1658,1051,0,0
441,-27,0,0,0,0,0,0,0,0,0,-1,1665,1051,0,0
448,-27,0,0,0,0,0,0,0,0,0,-1,1672,1051,0,0
455,-27,0,0,0,0,0,0,0,0,0,-1,1679,1051,0,0
462,-27,0,0,0,0,0,0,0,0,0,-1,1686,1051,0,0
469,-27,0,0,0,0,0,0,0,0,0,-1,1693,1051,0,0
476,-27,0,0,0,0,0,0,0,0,0,-1,1700,1051,0,0
483,-27,0,0,0,0,0,0,0,0,0,-1,1707,1051,0,0
490,-27,0,0,0,0,0,0,0,0,0,-1,1714,1051,0,0
497,-27,0,0,0,0,0,0,0,0,0,-1,1721,1051,0,0
504,-27,0,0,0,0,0,0,0,0,0,-1,1728,1051,0,0
511,-27,0,0,0,0,0,0,0,0,0,-1,1735,1051,0,0
518,-27,0,0,0,0,0,0,0,0,0,-1,1742,1051,0,0
525,-27,0,0,0,0,0,0,0,0,0,-1,1749,1051,0,0
532,-27,0,0,0,0,0,0,0,0,0,-1,1756,1051,0,0
539,-27,0,0,0,0,0,0,0,0,0,-1,1763,1051,0,0
546,-27,0,0,0,0,0,0,0,0,0,-1,1770,1051,0,0
553,-27,0,0,0,0,0,0,0,0,0,-1,1777,1051,0,0
560,-27,0,0,0,0,0,0,0,0,0,-1,1784,1051,0,0
567,-27,0,0,0,0,0,0,0,0,0,-1,1791,1051,0,0
574,-27,0,0,0,0,0,0,0,0,0,-1,1798,1051,0,0
581,-27,0,0,0,0,0,0,0,0,0,-1,1805,1051,0,0
588,-27,0,0,0,0,0,0,0,0,0,-1,1812,1051,0,0
595,-27,0,0,0,0,0,0,0,0,0,-1,1819,1051,0,0
602,-27,0,0,0,0,0,0,0,0,0,-1,1826,1051,0,0
609,-27,0,0,0,0,0,0,0,0,0,-1,1833,1051,0,0
616,-27,0,0,0,0,0,0,0,0,0,-1,1840,1051,0,0
623,-27,0,0,0,0,0,0,0,0,0,-1,1847,1051,0,0
630,-27,0,0,0,0,0,0,0,0,0,-1,1854,1051,0,0
637,-27,0,0,0,0,0,0,0,0,0,-1,1861,1051,0,0
644,-27,0,0,0,0,0,0,0,0,0,-1,1868,1051,0,0
651,-27,75.8575,2.17297,-0.00349211,0.00169222,0.000479622,0.00173622,-0.00353611,1.47932,0.00310255,0.040336,1875,1051,75.8576,-2.17296
658,-27,75.8517,2.11328,-0.00230015,0.00154709,0.000570057,0.00162978,-0.00238284,1.42675,0.00233025,0.041202,1882,1051,75.8517,-2.11329
665,-27,75.8015,2.24963,-0.00156928,0.00132644,0.000631532,0.00145818,-0.00170102,1.36514,0.00182576,0.0372788,1889,1051,75.8016,-2.24968
672,-27,75.7477,2.36816,-0.000988324,0.0013382,0.000692731,0.00152884,-0.00117897,1.30224,0.0015677,0.0297587,1896,1051,75.7477,-2.36822
679,-27,75.7634,2.29993,-0.000560848,0.00142365,0.000741073,0.00166985,-0.000807045,1.25005,0.00145867,0.0290325,1903,1051,75.7634,-2.29998
686,-27,75.8164,2.18018,-0.000751982,0.00116803,0.000774237,0.00144133,-0.00102529,1.23145,0.00143084,0.0389782,1910,1051,75.8163,-2.1802
693,-27,75.7578,2.11475,-0.00112298,0.000809245,0.000891881,0.00115798,-0.00147171,1.19806,0.00152185,0.0412713,1917,1051,75.7579,-2.11478
700,-27,75.764,2.177,-0.00140969,0.000548183,0.00112912,0.00106364,-0.00192515,1.14254,0.00174932,0.0362248,1924,1051,75.7641,-2.17699
707,-27,75.7054,2.29626,-0.00222292,0.000641248,0.00141406,0.00122173,-0.0028034,1.18126,0.00238296,0.0251819,1931,1051,75.7054,-2.29628
714,-27,75.7871,2.44324,-0.00325878,0.00116613,0.00159826,0.00168303,-0.00377568,1.258,0.00322786,0.0259196,1938,1051,75.7871,-2.44318
721,-27,75.7386,2.6178,0,0,0,0,0,0,0,-1,1945,1051,75.7386,-2.61782
728,-27,76.1226,7.823,0,0,0,0,0,0,0,-1,1952,1051,76.1225,-7.82303
735,-27,75.6202,7.75305,-0.00768314,0.00494428,0.00187742,0.0052175,-0.00795637,1.42628,0.00766053,0.0308766,1959,1051,75.6202,-7.75307
742,-27,75.3678,7.55432,-0.0089795,0.00630654,0.00205565,0.00657816,-0.00925111,1.43943,0.00918236,0.0242388,1966,1051,75.3678,-7.5543
749,-27,75.4182,7.22864,-0.0103911,0.00777079,0.00209275,0.00800881,-0.0106291,1.45755,0.010796,0.0179135,1973,1051,75.4182,-7.22868
756,-27,75.3982,7.02124,-0.011428,0.0104684,0.00145946,0.0105653,-0.0115249,1.50453,0.0127578,0.0171696,1980,1051,75.3981,-7.02119
763,-27,75.3008,6.78076,-0.0123124,0.0146068,0.000106675,0.0146072,-0.0123128,1.56683,0.0155611,0.0178522,1987,1051,75.3009,-6.78075
770,-27,75.1951,6.50452,-0.0128279,0.019363,-0.00190675,0.0194756,-0.0129405,-1.51184,0.0188418,0.0185309,1994,1051,75.1951,-6.50454
777,-27,75.05,6.39331,-0.0122712,0.0257206,-0.00529409,0.0264445,-0.0129951,-1.4349,0.0232076,0.0225036,2001,1051,75.0501,-6.39325
784,-27,74.9822,6.36194,-0.0110432,0.0328187,-0.00970519,0.0348702,-0.0130947,-1.36248,0.028628,0.0323377,2008,1051,74.9822,-6.36195
791,-27,75.0205,6.15369,-0.00902409,0.0411841,-0.0156075,0.0456403,-0.0134803,-1.29268,0.035777,0.0428231,2015,1051,75.0205,-6.15366
798,-27,75.4346,5.95593,0,0,0,0,0,0,0,-1,2022,1051,75.4346,-5.95588
805,-27,76.0862,5.20398,-0.000549248,0.0647523,-0.03286,0.0784249,-0.0142218,-1.1765,0.057612,0.0439985,2029,1051,76.0861,-5.20399
812,-27,76.0713,4.8739,0.00570016,0.0820635,-0.0449686,0.102874,-0.0151098,-1.13738,0.074134,0.0444066,2036,1051,76.0712,-4.87388
-700,-34,-58.0298,-6.30835,0,0,0,0,0,0,0,-1,524,1058,-58.0298,6.30837
-693,-34,-58.0621,-4.5011,0,0,0,0,0,0,0,-1,531,1058,-58.0621,4.50108
-686,-34,-58.3533,-3.25537,0,0,0,0,0,0,0,-1,538,1058,-58.3533,3.25532
-679,-34,-59.8882,-0.995117,0,0,0,0,0,0,0,-1,545,1058,-59.8882,0.995158
-672,-34,-59.0862,1.21069,0,0,0,0,0,0,0,-1,552,1058,-59.0862,-1.21075
-665,-34,-59.3403,2.22302,-0.00557902,0.110261,0.0380258,0.121628,-0.016946,1.28032,0.0872843,0.0470161,559,1058,-59.3403,-2.22301
-658,-34,-59.2083,3.89929,-0.00853681,0.0814986,0.0266324,0.0887865,-0.0158247,1.30369,0.0651101,0.044433,566,1058,-59.2083,-3.89928
-651,-34,-59.2095,4.39758,-0.00915194,0.0599467,0.0182693,0.0644796,-0.0136849,1.32759,0.0482,0.0322297,573,1058,-59.2096,-4.39764
-644,-34,-59.3539,4.73145,-0.008388,0.0435523,0.0120848,0.0462264,-0.0110621,1.35303,0.0350911,0.0157516,580,1058,-59.3539,-4.73149
-637,-34,-59.3868,5.0376,-0.00702762,0.030603,0.00730379,0.0319709,-0.0083955,1.38566,0.0245948,0.0166717,587,1058,-59.3869,-5.03754
-630,-34,-59.424,5.44324,-0.00523179,0.019512,0.00331733,0.019949,-0.00566882,1.43981,0.0155376,0.0184485,594,1058,-59.4239,-5.44323
-623,-34,-59.4246,5.78528,-0.00314089,0.00988643,-2.56313e-05,0.00988648,-0.00314095,-1.56883,0.00785029,0.0150655,601,1058,-59.4246,-5.78522
-616,-34,-59.3738,6.15173,-0.000887706,0.00139978,-0.00286044,0.00333667,-0.00282459,-0.975586,0.0035613,0.0212067,608,1058,-59.3738,-6.15169
-609,-34,-59.3632,6.45898,0.00159467,-0.00538698,-0.00497796,0.00418381,-0.00797612,-0.479614,0.00713344,0.0202763,615,1058,-59.3632,-6.45893
-602,-34,-59.3735,6.70544,0.00401067,-0.0112385,-0.00687619,0.00665333,-0.0138812,-0.366917,0.0120979,0.0162031,622,1058,-59.3735,-6.70543
-595,-34,-59.5063,6.97375,0.0062585,-0.0171444,-0.00793335,0.00869431,-0.0195802,-0.297897,0.0167227,0.0202221,629,1058,-59.5064,-6.9737
-588,-34,-59.863,7.22998,0,0,0,0,0,0,0,-1,636,1058,-59.863,-7.23003
-581,-34,-59.0255,0.21875,0,0,0,0,0,0,0,-1,643,1058,-59.0254,-0.218702
-574,-34,-58.9785,0.241455,0,0,0,0,0,0,0,-1,650,1058,-58.9785,-0.241455
-567,-34,-59.0067,0.322632,0,0,0,0,0,0,0,-1,657,1058,-59.0067,-0.32261
-560,-34,-59.0737,0.343628,0,0,0,0,0,0,0,-1,664,1058,-59.0737,-0.343573
-553,-34,-59.0677,0.0819092,0,0,0,0,0,0,0,-1,671,1058,-59.0677,-0.081961
-546,-34,-59.0863,-0.060791,0,0,0,0,0,0,0,-1,678,1058,-59.0863,0.0608381
-539,-34,-59.0732,0.23584,0,0,0,0,0,0,0,-1,685,1058,-59.0732,-0.235819
-532,-34,-59.1036,0.161133,0,0,0,0,0,0,0,-1,692,1058,-59.1037,-0.16118
-525,-34,0,0,0,0,0,0,0,0,0,-1,699,1058,0,0
-518,-34,0,0,0,0,0,0,0,0,0,-1,706,1058,0,0
-511,-34,0,0,0,0,0,0,0,0,0,-1,713,1058,0,0
-504,-34,0,0,0,0,0,0,0,0,0,-1,720,1058,0,0
-497,-34,0,0,0,0,0,0,0,0,0,-1,727,1058,0,0
-490,-34,0,0,0,0,0,0,0,0,0,-1,734,1058,0,0
-483,-34,0,0,0,0,0,0,0,0,0,-1,741,1058,0,0
-476,-34,0,0,0,0,0,0,0,0,0,-1,748,1058,0,0
-469,-34,0,0,0,0,0,0,0,0,0,-1,755,1058,0,0
-462,-34,0,0,0,0,0,0,0,0,0,-1,762,1058,0,0
-455,-34,0,0,0,0,0,0,0,0,0,-1,769,1058,0,0
-448,-34,0,0,0,0,0,0,0,0,0,-1,776,1058,0,0
-441,-34,0,0,0,0,0,0,0,0,0,-1,783,1058,0,0
-434,-34,0,0,0,0,0,0,0,0,0,-1,790,1058,0,0
-427,-34,0,0,0,0,0,0,0,0,0,-1,797,1058,0,0
-420,-34,0,0,0,0,0,0,0,0,0,-1,804,1058,0,0
-413,-34,0,0,0,0,0,0,0,0,0,-1,811,1058,0,0
-406,-34,0,0,0,0,0,0,0,0,0,-1,818,1058,0,0
-399,-34,0,0,0,0,0,0,0,0,0,-1,825,1058,0,0
-392,-34,0,0,0,0,0,0,0,0,0,-1,832,1058,0,0
-385,-34,0,0,0,0,0,0,0,0,0,-1,839,1058,0,0
-378,-34,0,0,0,0,0,0,0,0,0,-1,846,1058,0,0
-371,-34,0,0,0,0,0,0,0,0,0,-1,853,1058,0,0
-364,-34,0,0,0,0,0,0,0,0,0,-1,860,1058,0,0
-357,-34,0,0,0,0,0,0,0,0,0,-1,867,1058,0,0
-350,-34,0,0,0,0,0,0,0,0,0,-1,874,1058,0,0
-343,-34,0,0,0,0,0,0,0,0,0,-1,881,1058,0,0
-336,-34,0,0,0,0,0,0,0,0,0,-1,888,1058,0,0
-329,-34,0,0,0,0,0,0,0,0,0,-1,895,1058,0,0
-322,-34,0,0,0,0,0,0,0,0,0,-1,902,1058,0,0
-315,-34,0,0,0,0,0,0,0,0,0,-1,909,1058,0,0
-308,-34,0,0,0,0,0,0,0,0,0,-1,916,1058,0,0
-301,-34,0,0,0,0,0,0,0,0,0,-1,923,1058,0,0
-294,-34,0,0,0,0,0,0,0,0,0,-1,930,1058,0,0
-287,-34,0,0,0,0,0,0,0,0,0,-1,937,1058,0,0
-280,-34,0,0,0,0,0,0,0,0,0,-1,944,1058,0,0
-273,-34,0,0,0,0,0,0,0,0,0,-1,951,1058,0,0
-266,-34,0,0,0,0,0,0,0,0,0,-1,958,1058,0,0
-259,-34,0,0,0,0,0,0,0,0,0,-1,965,1058,0,0
-252,-34,0,0,0,0,0,0,0,0,0,-1,972,1058,0,0
-245,-34,0,0,0,0,0,0,0,0,0,-1,979,1058,0,0
-238,-34,0,0,0,0,0,0,0,0,0,-1,986,1058,0,0
-231,-34,0,0,0,0,0,0,0,0,0,-1,993,1058,0,0
-224,-34,0,0,0,0,0,0,0,0,0,-1,1000,1058,0,0
-217,-34,0,0,0,0,0,0,0,0,0,-1,1007,1058,0,0
-210,-34,0,0,0,0,0,0,0,0,0,-1,1014,1058,0,0
-203,-34,0,0,0,0,0,0,0,0,0,-1,1021,1058,0,0
-196,-34,0,0,0,0,0,0,0,0,0,-1,1028,1058,0,0
-189,-34,0,0,0,0,0,0,0,0,0,-1,1035,1058,0,0
-182,-34,0,0,0,0,0,0,0,0,0,-1,1042,1058,0,0
-175,-34,0,0,0,0,0,0,0,0,0,-1,1049,1058,0,0
-168,-34,0,0,0,0,0,0,0,0,0,-1,1056,1058,0,0
-161,-34,0,0,0,0,0,0,0,0,0,-1,1063,1058,0,0
-154,-34,0,0,0,0,0,0,0,0,0,-1,1070,1058,0,0
-147,-34,0,0,0,0,0,0,0,0,0,-1,1077,1058,0,0
-140,-34,0,0,0,0,0,0,0,0,0,-1,1084,1058,0,0
-133,-34,0,0,0,0,0,0,0,0,0,-1,1091,1058,0,0
-126,-34,0,0,0,0,0,0,0,0,0,-1,1098,1058,0,0
-119,-34,0,0,0,0,0,0,0,0,0,-1,1105,1058,0,0
-112,-34,0,0,0,0,0,0,0,0,0,-1,1112,1058,0,0
-105,-34,0,0,0,0,0,0,0,0,0,-1,1119,1058,0,0
-98,-34,0,0,0,0,0,0,0,0,0,-1,1126,1058,0,0
-91,-34,0,0,0,0,0,0,0,0,0,-1,1133,1058,0,0
-84,-34,0,0,0,0,0,0,0,0,0,-1,1140,1058,0,0
-77,-34,0,0,0,0,0,0,0,0,0,-1,1147,1058,0,0
-70,-34,0,0,0,0,0,0,0,0,0,-1,1154,1058,0,0
-63,-34,0,0,0,0,0,0,0,0,0,-1,1161,1058,0,0
-56,-34,0,0,0,0,0,0,0,0,0,-1,1168,1058,0,0
-49,-34,0,0,0,0,0,0,0,0,0,-1,1175,1058,0,0
-42,-34,0,0,0,0,0,0,0,0,0,-1,1182,1058,0,0
-35,-34,0,0,0,0,0,0,0,0,0,-1,1189,1058,0,0
-28,-34,0,0,0,0,0,0,0,0,0,-1,1196,1058,0,0
-21,-34,0,0,0,0,0,0,0,0,0,-1,1203,1058,0,0
-14,-34,0,0,0,0,0,0,0,0,0,-1,1210,1058,0,0
-7,-34,0,0,0,0,0,0,0,0,0,-1,1217,1058,0,0
0,-34,0,0,0,0,0,0,0,0,0,-1,1224,1058,0,0
7,-34,0,0,0,0,0,0,0,0,0,-1,1231,1058,0,0
14,-34,0,0,0,0,0,0,0,0,0,-1,1238,1058,0,0
21,-34,0,0,0,0,0,0,0,0,0,-1,1245,1058,0,0
28,-34,0,0,0,0,0,0,0,0,0,-1,1252,1058,0,0
35,-34,0,0,0,0,0,0,0,0,0,-1,1259,1058,0,0
42,-34,0,0,0,0,0,0,0,0,0,-1,1266,1058,0,0
49,-34,0,0,0,0,0,0,0,0,0,-1,1273,1058,0,0
56,-34,0,0,0,0,0,0,0,0,0,-1,1280,1058,0,0
63,-34,0,0,0,0,0,0,0,0,0,-1,1287,1058,0,0
70,-34,0,0,0,0,0,0,0,0,0,-1,1294,1058,0,0
77,-34,0,0,0,0,0,0,0,0,0,-1,1301,1058,0,0
84,-34,0,0,0,0,0,0,0,0,0,-1,1308,1058,0,0
91,-34,0,0,0,0,0,0,0,0,0,-1,1315,1058,0,0
98,-34,0,0,0,0,0,0,0,0,0,-1,1322,1058,0,0
105,-34,0,0,0,0,0,0,0,0,0,-1,1329,1058,0,0
112,-34,0,0,0,0,0,0,0,0,0,-1,1336,1058,0,0
119,-34,0,0,0,0,0,0,0,0,0,-1,1343,1058,0,0
126,-34,0,0,0,0,0,0,0,0,0,-1,1350,1058,0,0
133,-34,0,0,0,0,0,0,0,0,0,-1,1357,1058,0,0
140,-34,0,0,0,0,0,0,0,0,0,-1,1364,1058,0,0
147,-34,0,0,0,0,0,0,0,0,0,-1,1371,1058,0,0
154,-34,0,0,0,0,0,0,0,0,0,-1,1378,1058,0,0
161,-34,0,0,0,0,0,0,0,0,0,-1,1385,1058,0,0
168,-34,0,0,0,0,0,0,0,0,0,-1,1392,1058,0,0
175,-34,0,0,0,0,0,0,0,0,0,-1,1399,1058,0,0
182,-34,0,0,0,0,0,0,0,0,0,-1,1406,1058,0,0
189,-34,0,0,0,0,0,0,0,0,0,-1,1413,1058,0,0
196,-34,0,0,0,0,0,0,0,0,0,-1,1420,1058,0,0
203,-34,0,0,0,0,0,0,0,0,0,-1,1427,1058,0,0
210,-34,0,0,0,0,0,0,0,0,0,-1,1434,1058,0,0
217,-34,0,0,0,0,0,0,0,0,0,-1,1441,1058,0,0
224,-34,0,0,0,0,0,0,0,0,0,-1,1448,1058,0,0
231,-34,0,0,0,0,0,0,0,0,0,-1,1455,1058,0,0
238,-34,0,0,0,0,0,0,0,0,0,-1,1462,1058,0,0
245,-34,0,0,0,0,0,0,0,0,0,-1,1469,1058,0,0
252,-34,0,0,0,0,0,0,0,0,0,-1,1476,1058,0,0
259,-34,0,0,0,0,0,0,0,0,0,-1,1483,1058,0,0
266,-34,0,0,0,0,0,0,0,0,0,-1,1490,1058,0,0
273,-34,0,0,0,0,0,0,0,0,0,-1,1497,1058,0,0
280,-34,0,0,0,0,0,0,0,0,0,-1,1504,1058,0,0
287,-34,0,0,0,0,0,0,0,0,0,-1,1511,1058,0,0
294,-34,0,0,0,0,0,0,0,0,0,-1,1518,1058,0,0
301,-34,0,0,0,0,0,0,0,0,0,-1,1525,1058,0,0
308,-34,0,0,0,0,0,0,0,0,0,-1,1532,1058,0,0
315,-34,0,0,0,0,0,0,0,0,0,-1,1539,1058,0,0
322,-34,0,0,0,0,0,0,0,0,0,-1,1546,1058,0,0
329,-34,0,0,0,0,0,0,0,0,0,-1,1553,1058,0,0
336,-34,0,0,0,0,0,0,0,0,0,-1,1560,1058,0,0
343,-34,0,0,0,0,0,0,0,0,0,-1,1567,1058,0,0
350,-34,0,0,0,0,0,0,0,0,0,-1,1574,1058,0,0
357,-34,0,0,0,0,0,0,0,0,0,-1,1581,1058,0,0
364,-34,0,0,0,0,0,0,0,0,0,-1,1588,1058,0,0
371,-34,0,0,0,0,0,0,0,0,0,-1,1595,1058,0,0
378,-34,0,0,0,0,0,0,0,0,0,-1,1602,1058,0,0
385,-34,0,0,0,0,0,0,0,0,0,-1,1609,1058,0,0
392,-34,0,0,0,0,0,0,0,0,0,-1,1616,1058,0,0
399,-34,0,0,0,0,0,0,0,0,0,-1,1623,1058,0,0
406,-34,0,0,0,0,0,0,0,0,0,-1,1630,1058,0,0
413,-34,0,0,0,0,0,0,0,0,0,-1,1637,1058,0,0
420,-34,0,0,0,0,0,0,0,0,0,-1,1644,1058,0,0
427,-34,0,0,0,0,0,0,0,0,0,-1,1651,1058,0,0
434,-34,0,0,0,0,0,0,0,0,0,-1,1658,1058,0,0
441,-34,0,0,0,0,0,0,0,0,0,-1,1665,1058,0,0
448,-34,0,0,0,0,0,0,0,0,0,-1,1672,1058,0,0
455,-34,0,0,0,0,0,0,0,0,0,-1,1679,1058,0,0
462,-34,0,0,0,0,0,0,0,0,0,-1,1686,1058,0,0
469,-34,0,0,0,0,0,0,0,0,0,-1,1693,1058,0,0
476,-34,0,0,0,0,0,0,0,0,0,-1,1700,1058,0,0
483,-34,0,0,0,0,0,0,0,0,0,-1,1707,1058,0,0
490,-34,0,0,0,0,0,0,0,0,0,-1,1714,1058,0,0
497,-34,0,0,0,0,0,0,0,0,0,-1,1721,1058,0,0
504,-34,0,0,0,0,0,0,0,0,0,-1,1728,1058,0,0
511,-34,0,0,0,0,0,0,0,0,0,-1,1735,1058,0,0
518,-34,0,0,0,0,0,0,0,0,0,-1,1742,1058,0,0
525,-34,0,0,0,0,0,0,0,0,0,-1,1749,1058,0,0
532,-34,0,0,0,0,0,0,0,0,0,-1,1756,1058,0,0
539,-34,0,0,0,0,0,0,0,0,0,-1,1763,1058,0,0
546,-34,0,0,0,0,0,0,0,0,0,-1,1770,1058,0,0
553,-34,0,0,0,0,0,0,0,0,0,-1,1777,1058,0,0
560,-34,0,0,0,0,0,0,0,0,0,-1,1784,1058,0,0
567,-34,0,0,0,0,0,0,0,0,0,-1,1791,1058,0,0
574,-34,0,0,0,0,0,0,0,0,0,-1,1798,1058,0,0
581,-34,0,0,0,0,0,0,0,0,0,-1,1805,1058,0,0
588,-34,0,0,0,0,0,0,0,0,0,-1,1812,1058,0,0
595,-34,0,0,0,0,0,0,0,0,0,-1,1819,1058,0,0
602,-34,0,0,0,0,0,0,0,0,0,-1,1826,1058,0,0
609,-34,0,0,0,0,0,0,0,0,0,-1,1833,1058,0,0
616,-34,0,0,0,0,0,0,0,0,0,-1,1840,1058,0,0
623,-34,0,0,0,0,0,0,0,0,0,-1,1847,1058,0,0
630,-34,0,0,0,0,0,0,0,0,0,-1,1854,1058,0,0
637,-34,0,0,0,0,0,0,0,0,0,-1,1861,1058,0,0
644,-34,0,0,0,0,0,0,0,0,0,-1,1868,1058,0,0
651,-34,75.994,2.1156,-0.00274959,0.00117571,0.000622874,0.00127217,-0.00284606,1.41714,0.00243486,0.0400154,1875,1058,75.9941,-2.1156
658,-34,75.9762,2.15088,-0.00180186,0.00111403,0.000750957,0.00129606,-0.0019839,1.33298,0.00190752,0.0427524,1882,1058,75.9762,-2.15083
665,-34,75.837,2.26587,-0.00124479,0.000932219,0.000816068,0.00120416,-0.00151673,1.24914,0.00157436,0.0412336,1889,1058,75.8371,-2.26582
672,-34,75.7534,2.33789,-0.00079577,0.0009458,0.000865036,0.00130243,-0.0011524,1.17975,0.00141818,0.0389141,1896,1058,75.7534,-2.33787
679,-34,75.765,2.3584,-0.000477052,0.00100771,0.000892067,0.0014259,-0.000895236,1.13243,0.00135173,0.0375291,1903,1058,75.7651,-2.35843
686,-34,75.7819,2.28369,-0.00075108,0.000733379,0.000928663,0.00117998,-0.00119768,1.12254,0.00137276,0.0415981,1910,1058,75.7819,-2.28369
693,-34,75.7814,2.21741,-0.00117655,0.000370142,0.00107461,0.000920749,-0.00172715,1.09729,0.00155222,0.0424437,1917,1058,75.7814,-2.21737
700,-34,75.7361,2.24121,-0.00150523,0.000131657,0.00134742,0.000889721,-0.0022633,1.05833,0.00187709,0.0392761,1924,1058,75.736,-2.24123
707,-34,75.6655,2.31616,-0.00227996,0.000205393,0.0016756,0.00104883,-0.0031234,1.10446,0.00250613,0.0271376,1931,1058,75.6656,-2.31616
714,-34,75.7291,2.474,-0.00324638,0.000680268,0.00189486,0.00144552,-0.00401164,1.18697,0.00326474,0.0252237,1938,1058,75.7291,-2.47401
721,-34,75.7435,2.59436,0,0,0,0,0,0,0,-1,1945,1058,75.7435,-2.59435
728,-34,75.3778,8.05444,0,0,0,0,0,0,0,-1,1952,1058,75.3778,-8.05447
735,-34,75.1998,7.82422,-0.00731007,0.00420899,0.00235091,0.00467031,-0.00777139,1.37703,0.00725721,0.0229913,1959,1058,75.1999,-7.82419
742,-34,75.092,7.52368,-0.00856939,0.00554852,0.00259137,0.00600915,-0.00903001,1.39488,0.00874106,0.0205864,1966,1058,75.092,-7.52373
749,-34,75.0811,7.26392,-0.00995436,0.00683682,0.00265826,0.00724761,-0.0103651,1.41748,0.0102217,0.0180978,1973,1058,75.081,-7.26389
756,-34,75.0935,6.95032,-0.0109529,0.00933187,0.00196969,0.00952136,-0.0111424,1.47489,0.0119425,0.0141308,1980,1058,75.0935,-6.95033
763,-34,74.9897,6.67297,-0.0118988,0.0131114,0.000468774,0.0131202,-0.0119076,1.55206,0.0144555,0.0148264,1987,1058,74.9898,-6.673
770,-34,74.8259,6.40332,-0.0126898,0.0172998,-0.00171484,0.0173975,-0.0127875,-1.51386,0.017495,0.0201075,1994,1058,74.8258,-6.40328
777,-34,74.6221,6.22583,-0.0126513,0.0228187,-0.0054161,0.0236272,-0.0134599,-1.4226,0.0216788,0.0240669,2001,1058,74.6222,-6.22579
784,-34,74.3916,6.08362,-0.0120557,0.0289121,-0.0102139,0.0313173,-0.014461,-1.33952,0.0270208,0.0441825,2008,1058,74.3916,-6.08366
791,-34,74.1729,5.9303,0,0,0,0,0,0,0,-1,2015,1058,74.1729,-5.93035
798,-34,75.2874,3.36792,0,0,0,0,0,0,0,-1,2022,1058,75.2875,-3.36792
805,-34,76.4011,4.39795,-0.00424122,0.0559309,-0.0353033,0.0722291,-0.0205394,-1.13829,0.056263,0.0474787,2029,1058,76.4012,-4.39796
812,-34,76.158,4.10352,0.00108896,0.0707131,-0.0486868,0.0957532,-0.0239512,-1.09577,0.0731384,0.0462968,2036,1058,76.1581,-4.10349
-700,-41,-58.1523,-6.33606,0,0,0,0,0,0,0,-1,524,1065,-58.1524,6.33606
-693,-41,-58.0748,-4.53638,0,0,0,0,0,0,0,-1,531,1065,-58.0748,4.53643
-686,-41,-58.1749,-3.22925,0,0,0,0,0,0,0,-1,538,1065,-58.1749,3.22926
-679,-41,-59.0339,-1.37244,0,0,0,0,0,0,0,-1,545,1065,-59.0339,1.37244
-672,-41,-58.8704,-0.199097,0,0,0,0,0,0,0,-1,552,1065,-58.8704,0.199125
-665,-41,-57.7852,2.60986,0,0,0,0,0,0,0,-1,559,1065,-57.7851,-2.60981
-658,-41,-58.1516,3.32678,-0.0102185,0.0770904,0.0254256,0.0839549,-0.0170831,1.3071,0.0624481,0.0477355,566,1065,-58.1516,-3.32681
-651,-41,-58.5961,4.07849,-0.0103345,0.0566855,0.0173429,0.0609074,-0.0145564,1.332,0.0462274,0.0351687,573,1065,-58.5961,-4.0785
-644,-41,-58.9444,4.59607,-0.00914941,0.041147,0.0113983,0.0436096,-0.0116119,1.35802,0.0336189,0.0172621,580,1065,-58.9444,-4.59611
-637,-41,-59.0259,4.95654,-0.00741282,0.0289426,0.0068404,0.0301871,-0.00865726,1.39084,0.0235471,0.0183695,587,1065,-59.0259,-4.95655
-630,-41,-59.0452,5.3468,-0.00527326,0.0184741,0.00304429,0.0188582,-0.00565731,1.4453,0.0148222,0.0169522,594,1065,-59.0452,-5.34675
-623,-41,-59.0379,5.74585,-0.00286205,0.00937057,-0.000137562,0.00937212,-0.0028636,-1.55955,0.00738992,0.013894,601,1065,-59.0379,-5.74582
-616,-41,-59.0227,6.1825,-0.000301246,0.0013245,-0.00283591,0.00346174,-0.00243849,-0.924973,0.00342353,0.0176275,608,1065,-59.0227,-6.1825
-609,-41,-59.0103,6.54211,0.00245852,-0.00523908,-0.00489407,0.00483588,-0.00761644,-0.452195,0.00724885,0.0230692,615,1065,-59.0103,-6.5421
-602,-41,-59.0419,6.81702,0.00520058,-0.0109239,-0.00669351,0.00761702,-0.0133404,-0.346452,0.0122492,0.0150233,622,1065,-59.0419,-6.81706
-595,-41,-59.1912,7.04431,0.00777383,-0.0164678,-0.00767459,0.00999922,-0.0186932,-0.282228,0.0168172,0.0252346,629,1065,-59.1912,-7.04429
-588,-41,-59.6386,7.12805,0,0,0,0,0,0,0,-1,636,1065,-59.6386,-7.12801
-581,-41,-58.9869,0.22583,0,0,0,0,0,0,0,-1,643,1065,-58.9869,-0.225847
-574,-41,-59.006,0.274048,0,0,0,0,0,0,0,-1,650,1065,-59.006,-0.274088
-567,-41,-59.0736,0.33252,0,0,0,0,0,0,0,-1,657,1065,-59.0736,-0.332466
-560,-41,-58.8008,0.189209,0,0,0,0,0,0,0,-1,664,1065,-58.8008,-0.189235
-553,-41,-58.9282,0.0422363,0,0,0,0,0,0,0,-1,671,1065,-58.9282,-0.0422755
-546,-41,-59.0068,0.0145264,0,0,0,0,0,0,0,-1,678,1065,-59.0068,-0.0144876
-539,-41,-59.0361,0.297729,0,0,0,0,0,0,0,-1,685,1065,-59.0361,-0.297753
-532,-41,-59.0988,0.28125,0,0,0,0,0,0,0,-1,692,1065,-59.0988,-0.28127
-525,-41,0,0,0,0,0,0,0,0,0,-1,699,1065,0,0
-518,-41,0,0,0,0,0,0,0,0,0,-1,706,1065,0,0
-511,-41,0,0,0,0,0,0,0,0,0,-1,713,1065,0,0
-504,-41,0,0,0,0,0,0,0,0,0,-1,720,1065,0,0
-497,-41,0,0,0,0,0,0,0,0,0,-1,727,1065,0,0
-490,-41,0,0,0,0,0,0,0,0,0,-1,734,1065,0,0
-483,-41,0,0,0,0,0,0,0,0,0,-1,741,1065,0,0
-476,-41,0,0,0,0,0,0,0,0,0,-1,748,1065,0,0
-469,-41,0,0,0,0,0,0,0,0,0,-1,755,1065,0,0
-462,-41,0,0,0,0,0,0,0,0,0,-1,762,1065,0,0
-455,-41,0,0,0,0,0,0,0,0,0,-1,769,1065,0,0
-448,-41,0,0,0,0,0,0,0,0,0,-1,776,1065,0,0
-441,-41,0,0,0,0,0,0,0,0,0,-1,783,1065,0,0
-434,-41,0,0,0,0,0,0,0,0,0,-1,790,1065,0,0
-427,-41,0,0,0,0,0,0,0,0,0,-1,797,1065,0,0
-420,-41,0,0,0,0,0,0,0,0,0,-1,804,1065,0,0
-413,-41,0,0,0,0,0,0,0,0,0,-1,811,1065,0,0
-406,-41,0,0,0,0,0,0,0,0,0,-1,818,1065,0,0
-399,-41,0,0,0,0,0,0,0,0,0,-1,825,1065,0,0
-392,-41,0,0,0,0,0,0,0,0,0,-1,832,1065,0,0
-385,-41,0,0,0,0,0,0,0,0,0,-1,839,1065,0,0
-378,-41,0,0,0,0,0,0,0,0,0,-1,846,1065,0,0
-371,-41,0,0,0,0,0,0,0,0,0,-1,853,1065,0,0
-364,-41,0,0,0,0,0,0,0,0,0,-1,860,1065,0,0
-357,-41,0,0,0,0,0,0,0,0,0,-1,867,1065,0,0
-350,-41,0,0,0,0,0,0,0,0,0,-1,874,1065,0,0
-343,-41,0,0,0,0,0,0,0,0,0,-1,881,1065,0,0
-336,-41,0,0,0,0,0,0,0,0,0,-1,888,1065,0,0
-329,-41,0,0,0,0,0,0,0,0,0,-1,895,1065,0,0
-322,-41,0,0,0,0,0,0,0,0,0,-1,902,1065,0,0
-315,-41,0,0,0,0,0,0,0,0,0,-1,909,1065,0,0
-308,-41,0,0,0,0,0,0,0,0,0,-1,916,1065,0,0
-301,-41,0,0,0,0,0,0,0,0,0,-1,923,1065,0,0
-294,-41,0,0,0,0,0,0,0,0,0,-1,930,1065,0,0
-287,-41,0,0,0,0,0,0,0,0,0,-1,937,1065,0,0
-280,-41,0,0,0,0,0,0,0,0,0,-1,944,1065,0,0
-273,-41,0,0,0,0,0,0,0,0,0,-1,951,1065,0,0
-266,-41,0,0,0,0,0,0,0,0,0,-1,958,1065,0,0
-259,-41,0,0,0,0,0,0,0,0,0,-1,965,1065,0,0
-252,-41,0,0,0,0,0,0,0,0,0,-1,972,1065,0,0
-245,-41,0,0,0,0,0,0,0,0,0,-1,979,1065,0,0
-238,-41,0,0,0,0,0,0,0,0,0,-1,986,1065,0,0
-231,-41,0,0,0,0,0,0,0,0,0,-1,993,1065,0,0
-224,-41,0,0,0,0,0,0,0,0,0,-1,1000,1065,0,0
-217,-41,0,0,0,0,0,0,0,0,0,-1,1007,1065,0,0
-210,-41,0,0,0,0,0,0,0,0,0,-1,1014,1065,0,0
-203,-41,0,0,0,0,0,0,0,0,0,-1,1021,1065,0,0
-196,-41,0,0,0,0,0,0,0,0,0,-1,1028,1065,0,0
-189,-41,0,0,0,0,0,0,0,0,0,-1,1035,1065,0,0
-182,-41,0,0,0,0,0,0,0,0,0,-1,1042,1065,0,0
-175,-41,0,0,0,0,0,0,0,0,0,-1,1049,1065,0,0
-168,-41,0,0,0,0,0,0,0,0,0,-1,1056,1065,0,0
-161,-41,0,0,0,0,0,0,0,0,0,-1,1063,1065,0,0
-154,-41,0,0,0,0,0,0,0,0,0,-1,1070,1065,0,0
-147,-41,0,0,0,0,0,0,0,0,0,-1,1077,1065,0,0
-140,-41,0,0,0,0,0,0,0,0,0,-1,1084,1065,0,0
-133,-41,0,0,0,0,0,0,0,0,0,-1,1091,1065,0,0
-126,-41,0,0,0,0,0,0,0,0,0,-1,1098,1065,0,0
-119,-41,0,0,0,0,0,0,0,0,0,-1,1105,1065,0,0
-112,-41,0,0,0,0,0,0,0,0,0,-1,1112,1065,0,0
-105,-41,0,0,0,0,0,0,0,0,0,-1,1119,1065,0,0
-98,-41,0,0,0,0,0,0,0,0,0,-1,1126,1065,0,0
-91,-41,0,0,0,0,0,0,0,0,0,-1,1133,1065,0,0
-84,-41,0,0,0,0,0,0,0,0,0,-1,1140,1065,0,0
-77,-41,0,0,0,0,0,0,0,0,0,-1,1147,1065,0,0
-70,-41,0,0,0,0,0,0,0,0,0,-1,1154,1065,0,0
-63,-41,0,0,0,0,0,0,0,0,0,-1,1161,1065,0,0
-56,-41,0,0,0,0,0,0,0,0,0,-1,1168,1065,0,0
-49,-41,0,0,0,0,0,0,0,0,0,-1,1175,1065,0,0
-42,-41,0,0,0,0,0,0,0,0,0,-1,1182,1065,0,0
-35,-41,0,0,0,0,0,0,0,0,0,-1,1189,1065,0,0
-28,-41,0,0,0,0,0,0,0,0,0,-1,1196,1065,0,0
-21,-41,0,0,0,0,0,0,0,0,0,-1,1203,1065,0,0
-14,-41,0,0,0,0,0,0,0,0,0,-1,1210,1065,0,0
-7,-41,0,0,0,0,0,0,0,0,0,-1,1217,1065,0,0
0,-41,0,0,0,0,0,0,0,0,0,-1,1224,1065,0,0
7,-41,0,0,0,0,0,0,0,0,0,-1,1231,1065,0,0
14,-41,0,0,0,0,0,0,0,0,0,-1,1238,1065,0,0
21,-41,0,0,0,0,0,0,0,0,0,-1,1245,1065,0,0
28,-41,0,0,0,0,0,0,0,0,0,-1,1252,1065,0,0
35,-41,0,0,0,0,0,0,0,0,0,-1,1259,1065,0,0
42,-41,0,0,0,0,0,0,0,0,0,-1,1266,1065,0,0
49,-41,0,0,0,0,0,0,0,0,0,-1,1273,1065,0,0
56,-41,0,0,0,0,0,0,0,0,0,-1,1280,1065,0,0
63,-41,0,0,0,0,0,0,0,0,0,-1,1287,1065,0,0
70,-41,0,0,0,0,0,0,0,0,0,-1,1294,1065,0,0
77,-41,0,0,0,0,0,0,0,0,0,-1,1301,1065,0,0
84,-41,0,0,0,0,0,0,0,0,0,-1,1308,1065,0,0
91,-41,0,0,0,0,0,0,0,0,0,-1,1315,1065,0,0
98,-41,0,0,0,0,0,0,0,0,0,-1,1322,1065,0,0
105,-41,0,0,0,0,0,0,0,0,0,-1,1329,1065,0,0
112,-41,0,0,0,0,0,0,0,0,0,-1,1336,1065,0,0
119,-41,0,0,0,0,0,0,0,0,0,-1,1343,1065,0,0
126,-41,0,0,0,0,0,0,0,0,0,-1,1350,1065,0,0
133,-41,0,0,0,0,0,0,0,0,0,-1,1357,1065,0,0
140,-41,0,0,0,0,0,0,0,0,0,-1,1364,1065,0,0
147,-41,0,0,0,0,0,0,0,0,0,-1,1371,1065,0,0
154,-41,0,0,0,0,0,0,0,0,0,-1,1378,1065,0,0
161,-41,0,0,0,0,0,0,0,0,0,-1,1385,1065,0,0
168,-41,0,0,0,0,0,0,0,0,0,-1,1392,1065,0,0
175,-41,0,0,0,0,0,0,0,0,0,-1,1399,1065,0,0
182,-41,0,0,0,0,0,0,0,0,0,-1,1406,1065,0,0
189,-41,0,0,0,0,0,0,0,0,0,-1,1413,1065,0,0
196,-41,0,0,0,0,0,0,0,0,0,-1,1420,1065,0,0
203,-41,0,0,0,0,0,0,0,0,0,-1,1427,1065,0,0
210,-41,0,0,0,0,0,0,0,0,0,-1,1434,1065,0,0
217,-41,0,0,0,0,0,0,0,0,0,-1,1441,1065,0,0
224,-41,0,0,0,0,0,0,0,0,0,-1,1448,1065,0,0
231,-41,0,0,0,0,0,0,0,0,0,-1,1455,1065,0,0
238,-41,0,0,0,0,0,0,0,0,0,-1,1462,1065,0,0
245,-41,0,0,0,0,0,0,0,0,0,-1,1469,1065,0,0
252,-41,0,0,0,0,0,0,0,0,0,-1,1476,1065,0,0
259,-41,0,0,0,0,0,0,0,0,0,-1,1483,1065,0,0
266,-41,0,0,0,0,0,0,0,0,0,-1,1490,1065,0,0
273,-41,0,0,0,0,0,0,0,0,0,-1,1497,1065,0,0
280,-41,0,0,0,0,0,0,0,0,0,-1,1504,1065,0,0
287,-41,0,0,0,0,0,0,0,0,0,-1,1511,1065,0,0
294,-41,0,0,0,0,0,0,0,0,0,-1,1518,1065,0,0
301,-41,0,0,0,0,0,0,0,0,0,-1,1525,1065,0,0
308,-41,0,0,0,0,0,0,0,0,0,-1,1532,1065,0,0
315,-41,0,0,0,0,0,0,0,0,0,-1,1539,1065,0,0
322,-41,0,0,0,0,0,0,0,0,0,-1,1546,1065,0,0
329,-41,0,0,0,0,0,0,0,0,0,-1,1553,1065,0,0
336,-41,0,0,0,0,0,0,0,0,0,-1,1560,1065,0,0
343,-41,0,0,0,0,0,0,0,0,0,-1,1567,1065,0,0
350,-41,0,0,0,0,0,0,0,0,0,-1,1574,1065,0,0
357,-41,0,0,0,0,0,0,0,0,0,-1,1581,1065,0,0
364,-41,0,0,0,0,0,0,0,0,0,-1,1588,1065,0,0
371,-41,0,0,0,0,0,0,0,0,0,-1,1595,1065,0,0
378,-41,0,0,0,0,0,0,0,0,0,-1,1602,1065,0,0
385,-41,0,0,0,0,0,0,0,0,0,-1,1609,1065,0,0
392,-41,0,0,0,0,0,0,0,0,0,-1,1616,1065,0,0
399,-41,0,0,0,0,0,0,0,0,0,-1,1623,1065,0,0
406,-41,0,0,0,0,0,0,0,0,0,-1,1630,1065,0,0
413,-41,0,0,0,0,0,0,0,0,0,-1,1637,1065,0,0
420,-41,0,0,0,0,0,0,0,0,0,-1,1644,1065,0,0
427,-41,0,0,0,0,0,0,0,0,0,-1,1651,1065,0,0
434,-41,0,0,0,0,0,0,0,0,0,-1,1658,1065,0,0
441,-41,0,0,0,0,0,0,0,0,0,-1,1665,1065,0,0
448,-41,0,0,0,0,0,0,0,0,0,-1,1672,1065,0,0
455,-41,0,0,0,0,0,0,0,0,0,-1,1679,1065,0,0
462,-41,0,0,0,0,0,0,0,0,0,-1,1686,1065,0,0
469,-41,0,0,0,0,0,0,0,0,0,-1,1693,1065,0,0
476,-41,0,0,0,0,0,0,0,0,0,-1,1700,1065,0,0
483,-41,0,0,0,0,0,0,0,0,0,-1,1707,1065,0,0
490,-41,0,0,0,0,0,0,0,0,0,-1,1714,1065,0,0
497,-41,0,0,0,0,0,0,0,0,0,-1,1721,1065,0,0
504,-41,0,0,0,0,0,0,0,0,0,-1,1728,1065,0,0
511,-41,0,0,0,0,0,0,0,0,0,-1,1735,1065,0,0
518,-41,0,0,0,0,0,0,0,0,0,-1,1742,1065,0,0
525,-41,0,0,0,0,0,0,0,0,0,-1,1749,1065,0,0
532,-41,0,0,0,0,0,0,0,0,0,-1,1756,1065,0,0
539,-41,0,0,0,0,0,0,0,0,0,-1,1763,1065,0,0
546,-41,0,0,0,0,0,0,0,0,0,-1,1770,1065,0,0
553,-41,0,0,0,0,0,0,0,0,0,-1,1777,1065,0,0
560,-41,0,0,0,0,0,0,0,0,0,-1,1784,1065,0,0
567,-41,0,0,0,0,0,0,0,0,0,-1,1791,1065,0,0
574,-41,0,0,0,0,0,0,0,0,0,-1,1798,1065,0,0
581,-41,0,0,0,0,0,0,0,0,0,-1,1805,1065,0,0
588,-41,0,0,0,0,0,0,0,0,0,-1,1812,1065,0,0
595,-41,0,0,0,0,0,0,0,0,0,-1,1819,1065,0,0
602,-41,0,0,0,0,0,0,0,0,0,-1,1826,1065,0,0
609,-41,0,0,0,0,0,0,0,0,0,-1,1833,1065,0,0
616,-41,0,0,0,0,0,0,0,0,0,-1,1840,1065,0,0
623,-41,0,0,0,0,0,0,0,0,0,-1,1847,1065,0,0
630,-41,0,0,0,0,0,0,0,0,0,-1,1854,1065,0,0
637,-41,0,0,0,0,0,0,0,0,0,-1,1861,1065,0,0
644,-41,0,0,0,0,0,0,0,0,0,-1,1868,1065,0,0
651,-41,75.9517,2.11951,-0.00193061,0.000860639,0.000606643,0.000986785,-0.00205675,1.36578,0.00179302,0.0378858,1875,1065,75.9516,-2.11947
658,-41,75.8652,2.16394,-0.00121898,0.000858399,0.000849005,0.00116123,-0.00152181,1.22817,0.00155371,0.0424433,1882,1065,75.8652,-2.16396
665,-41,75.7483,2.33801,-0.000833074,0.000713876,0.000952659,0.00116752,-0.00128672,1.12638,0.00141751,0.0404749,1889,1065,75.7483,-2.33802
672,-41,75.7712,2.4408,-0.000520276,0.00071469,0.000993529,0.00126699,-0.00107257,1.06344,0.0013523,0.0388362,1896,1065,75.7712,-2.4408
679,-41,75.7329,2.40027,-0.000318609,0.000742791,0.000985695,0.00133157,-0.00090739,1.03235,0.00130038,0.0400531,1903,1065,75.7329,-2.40033
686,-41,75.8285,2.47437,-0.000649195,0.000465552,0.000970226,0.00102711,-0.00121075,1.04612,0.00129348,0.0419755,1910,1065,75.8284,-2.47431
693,-41,75.9015,2.39148,-0.00107504,0.000110926,0.00108579,0.000755103,-0.00171922,1.03533,0.00146425,0.0448906,1917,1065,75.9014,-2.39151
700,-41,75.8488,2.35962,-0.00139155,-9.219e-05,0.00135317,0.000759183,-0.00224293,1.00921,0.00180245,0.0406078,1924,1065,75.8487,-2.35964
707,-41,75.7345,2.27271,-0.0021062,-1.77968e-05,0.00169583,0.000929537,-0.00305353,1.06136,0.00240615,0.0313171,1931,1065,75.7344,-2.27276
714,-41,75.7399,2.42871,-0.00298766,0.000407733,0.00193434,0.00128372,-0.00386365,1.14557,0.00309376,0.0302748,1938,1065,75.7398,-2.42865
721,-41,75.7754,2.51868,0,0,0,0,0,0,0,-1,1945,1065,75.7754,-2.51864
728,-41,74.9781,8.12439,0,0,0,0,0,0,0,-1,1952,1065,74.9781,-8.12439
735,-41,74.8441,7.79382,-0.00669852,0.00364343,0.00254231,0.0042346,-0.00728969,1.34232,0.00673103,0.0235064,1959,1065,74.8441,-7.79378
742,-41,74.7462,7.4718,-0.00794964,0.0049911,0.00285001,0.00559096,-0.0085495,1.36335,0.00822335,0.0201406,1966,1065,74.7462,-7.47182
749,-41,74.7198,7.24548,-0.00935815,0.00612515,0.00298025,0.00667898,-0.00991198,1.38706,0.00963923,0.018191,1973,1065,74.7199,-7.24548
756,-41,74.719,6.96265,-0.0103842,0.00838947,0.00231394,0.00867047,-0.0106652,1.44995,0.0111832,0.0167976,1980,1065,74.7189,-6.96261
763,-41,74.5896,6.59583,-0.0114655,0.0118312,0.000749704,0.0118553,-0.0114896,1.53866,0.0134787,0.0135106,1987,1065,74.5897,-6.59578
770,-41,74.4482,6.29907,-0.0125907,0.0155989,-0.00153755,0.0156825,-0.0126743,-1.51647,0.0164025,0.0142076,1994,1065,74.4482,-6.29906
777,-41,74.2471,5.98584,-0.0131334,0.0204321,-0.00544422,0.0212931,-0.0139943,-1.41395,0.0205179,0.0182033,2001,1065,74.247,-5.98581
784,-41,74.0403,5.64734,-0.0132027,0.0256784,-0.0105385,0.028351,-0.0158754,-1.32242,0.0258705,0.0313757,2008,1065,74.0404,-5.64739
791,-41,73.908,5.3064,0,0,0,0,0,0,0,-1,2015,1065,73.9079,-5.30643
798,-41,74.3152,4.17944,0,0,0,0,0,0,0,-1,2022,1065,74.3151,-4.1795
805,-41,74.4443,4.21643,0,0,0,0,0,0,0,-1,2029,1065,74.4444,-4.21646
812,-41,72.8123,3.52832,0,0,0,0,0,0,0,-1,2036,1065,72.8123,-3.52828
-700,-48,-58.3206,-6.36108,0,0,0,0,0,0,0,-1,524,1072,-58.3207,6.36104
-693,-48,-58.2588,-4.69019,0,0,0,0,0,0,0,-1,531,1072,-58.2588,4.69024
-686,-48,-58.2608,-3.03125,0,0,0,0,0,0,0,-1,538,1072,-58.2608,3.03126
-679,-48,-58.3409,-1.41516,0,0,0,0,0,0,0,-1,545,1072,-58.3409,1.41512
-672,-48,-58.4281,-0.224854,0,0,0,0,0,0,0,-1,552,1072,-58.4281,0.224819
-665,-48,-58.5634,0.849365,0,0,0,0,0,0,0,-1,559,1072,-58.5634,-0.849342
-658,-48,-57.436,2.60046,0,0,0,0,0,0,0,-1,566,1072,-57.436,-2.60041
-651,-48,-58.2451,3.3938,-0.0114042,0.0515701,0.0160867,0.0554415,-0.0152755,1.33463,0.0429677,0.046162,573,1072,-58.2451,-3.39376
-644,-48,-58.4258,4.54749,-0.00983962,0.0375095,0.0104452,0.0397113,-0.0120414,1.36304,0.0312706,0.0259618,580,1072,-58.4259,-4.54754
-637,-48,-58.4929,4.81458,-0.00779,0.0264682,0.00617225,0.0275463,-0.00886812,1.39787,0.0219264,0.0269075,587,1072,-58.4929,-4.81456
-630,-48,-58.5507,5.27075,-0.00538759,0.0169374,0.00263588,0.0172444,-0.00569459,1.45485,0.0137921,0.0319653,594,1072,-58.5507,-5.2708
-623,-48,-58.6693,5.67529,-0.00275179,0.00858856,-0.000311641,0.00859711,-0.00276035,-1.54334,0.00683978,0.0149059,601,1072,-58.6693,-5.67526
-616,-48,-58.6503,6.08911,9.68473e-06,0.0011504,-0.00280082,0.00343834,-0.00227826,-0.885845,0.00332306,0.0120828,608,1072,-58.6502,-6.08916
-609,-48,-58.5975,6.52869,0.00293104,-0.0050574,-0.00472547,0.00512421,-0.00725057,-0.434532,0.00717966,0.0135206,615,1072,-58.5975,-6.52868
-602,-48,-58.6,6.89954,0.00586281,-0.0105306,-0.00636044,0.00804113,-0.0127089,-0.329959,0.0120807,0.0146467,622,1072,-58.6,-6.89951
-595,-48,-58.6148,7.23071,0.00862852,-0.0157735,-0.00720803,0.0105986,-0.0177436,-0.266804,0.0165358,0.0355297,629,1072,-58.6148,-7.23075
-588,-48,-58.8346,7.54895,0,0,0,0,0,0,0,-1,636,1072,-58.8346,-7.549
-581,-48,-58.9891,0.203003,0,0,0,0,0,0,0,-1,643,1072,-58.9891,-0.202978
-574,-48,-59.0392,0.28418,0,0,0,0,0,0,0,-1,650,1072,-59.0392,-0.284129
-567,-48,-59.148,0.360962,0,0,0,0,0,0,0,-1,657,1072,-59.148,-0.360949
-560,-48,-58.9595,0.367065,0,0,0,0,0,0,0,-1,664,1072,-58.9595,-0.367047
-553,-48,-58.756,0.0192871,0,0,0,0,0,0,0,-1,671,1072,-58.756,-0.0192596
-546,-48,-59.1279,-0.250732,0,0,0,0,0,0,0,-1,678,1072,-59.1278,0.250694
-539,-48,-59.1282,0.199829,0,0,0,0,0,0,0,-1,685,1072,-59.1282,-0.199856
-532,-48,-59.1241,0.383179,0,0,0,0,0,0,0,-1,692,1072,-59.1242,-0.383162
-525,-48,0,0,0,0,0,0,0,0,0,-1,699,1072,0,0
-518,-48,0,0,0,0,0,0,0,0,0,-1,706,1072,0,0
-511,-48,0,0,0,0,0,0,0,0,0,-1,713,1072,0,0
-504,-48,0,0,0,0,0,0,0,0,0,-1,720,1072,0,0
-497,-48,0,0,0,0,0,0,0,0,0,-1,727,1072,0,0
-490,-48,0,0,0,0,0,0,0,0,0,-1,734,1072,0,0
-483,-48,0,0,0,0,0,0,0,0,0,-1,741,1072,0,0
-476,-48,0,0,0,0,0,0,0,0,0,-1,748,1072,0,0
-469,-48,0,0,0,0,0,0,0,0,0,-1,755,1072,0,0
-462,-48,0,0,0,0,0,0,0,0,0,-1,762,1072,0,0
-455,-48,0,0,0,0,0,0,0,0,0,-1,769,1072,0,0
-448,-48,0,0,0,0,0,0,0,0,0,-1,776,1072,0,0
-441,-48,0,0,0,0,0,0,0,0,0,-1,783,1072,0,0
-434,-48,0,0,0,0,0,0,0,0,0,-1,790,1072,0,0
-427,-48,0,0,0,0,0,0,0,0,0,-1,797,1072,0,0
-420,-48,0,0,0,0,0,0,0,0,0,-1,804,1072,0,0
-413,-48,0,0,0,0,0,0,0,0,0,-1,811,1072,0,0
-406,-48,0,0,0,0,0,0,0,0,0,-1,818,1072,0,0
-399,-48,0,0,0,0,0,0,0,0,0,-1,825,1072,0,0
-392,-48,0,0,0,0,0,0,0,0,0,-1,832,1072,0,0
-385,-48,0,0,0,0,0,0,0,0,0,-1,839,1072,0,0
-378,-48,0,0,0,0,0,0,0,0,0,-1,846,1072,0,0
-371,-48,0,0,0,0,0,0,0,0,0,-1,853,1072,0,0
-364,-48,0,0,0,0,0,0,0,0,0,-1,860,1072,0,0
-357,-48,0,0,0,0,0,0,0,0,0,-1,867,1072,0,0
-350,-48,0,0,0,0,0,0,0,0,0,-1,874,1072,0,0
-343,-48,0,0,0,0,0,0,0,0,0,-1,881,1072,0,0
-336,-48,0,0,0,0,0,0,0,0,0,-1,888,1072,0,0
-329,-48,0,0,0,0,0,0,0,0,0,-1,895,1072,0,0
-322,-48,0,0,0,0,0,0,0,0,0,-1,902,1072,0,0
-315,-48,0,0,0,0,0,0,0,0,0,-1,909,1072,0,0
-308,-48,0,0,0,0,0,0,0,0,0,-1,916,1072,0,0
-301,-48,0,0,0,0,0,0,0,0,0,-1,923,1072,0,0
-294,-48,0,0,0,0,0,0,0,0,0,-1,930,1072,0,0
-287,-48,0,0,0,0,0,0,0,0,0,-1,937,1072,0,0
-280,-48,0,0,0,0,0,0,0,0,0,-1,944,1072,0,0
-273,-48,0,0,0,0,0,0,0,0,0,-1,951,1072,0,0
-266,-48,0,0,0,0,0,0,0,0,0,-1,958,1072,0,0
-259,-48,0,0,0,0,0,0,0,0,0,-1,965,1072,0,0
-252,-48,0,0,0,0,0,0,0,0,0,-1,972,1072,0,0
-245,-48,0,0,0,0,0,0,0,0,0,-1,979,1072,0,0
-238,-48,0,0,0,0,0,0,0,0,0,-1,986,1072,0,0
-231,-48,0,0,0,0,0,0,0,0,0,-1,993,1072,0,0
-224,-48,0,0,0,0,0,0,0,0,0,-1,1000,1072,0,0
-217,-48,0,0,0,0,0,0,0,0,0,-1,1007,1072,0,0
-210,-48,0,0,0,0,0,0,0,0,0,-1,1014,1072,0,0
-203,-48,0,0,0,0,0,0,0,0,0,-1,1021,1072,0,0
-196,-48,0,0,0,0,0,0,0,0,0,-1,1028,1072,0,0
-189,-48,0,0,0,0,0,0,0,0,0,-1,1035,1072,0,0
-182,-48,0,0,0,0,0,0,0,0,0,-1,1042,1072,0,0
-175,-48,0,0,0,0,0,0,0,0,0,-1,1049,1072,0,0
-168,-48,0,0,0,0,0,0,0,0,0,-1,1056,1072,0,0
-161,-48,0,0,0,0,0,0,0,0,0,-1,1063,1072,0,0
-154,-48,0,0,0,0,0,0,0,0,0,-1,1070,1072,0,0
-147,-48,0,0,0,0,0,0,0,0,0,-1,1077,1072,0,0
-140,-48,0,0,0,0,0,0,0,0,0,-1,1084,1072,0,0
-133,-48,0,0,0,0,0,0,0,0,0,-1,1091,1072,0,0
-126,-48,0,0,0,0,0,0,0,0,0,-1,1098,1072,0,0
-119,-48,0,0,0,0,0,0,0,0,0,-1,1105,1072,0,0
-112,-48,0,0,0,0,0,0,0,0,0,-1,1112,1072,0,0
-105,-48,0,0,0,0,0,0,0,0,0,-1,1119,1072,0,0
-98,-48,0,0,0,0,0,0,0,0,0,-1,1126,1072,0,0
-91,-48,0,0,0,0,0,0,0,0,0,-1,1133,1072,0,0
-84,-48,0,0,0,0,0,0,0,0,0,-1,1140,1072,0,0
-77,-48,0,0,0,0,0,0,0,0,0,-1,1147,1072,0,0
-70,-48,0,0,0,0,0,0,0,0,0,-1,1154,1072,0,0
-63,-48,0,0,0,0,0,0,0,0,0,-1,1161,1072,0,0
-56,-48,0,0,0,0,0,0,0,0,0,-1,1168,1072,0,0
-49,-48,0,0,0,0,0,0,0,0,0,-1,1175,1072,0,0
-42,-48,0,0,0,0,0,0,0,0,0,-1,1182,1072,0,0
-35,-48,0,0,0,0,0,0,0,0,0,-1,1189,1072,0,0
-28,-48,0,0,0,0,0,0,0,0,0,-1,1196,1072,0,0
-21,-48,0,0,0,0,0,0,0,0,0,-1,1203,1072,0,0
-14,-48,0,0,0,0,0,0,0,0,0,-1,1210,1072,0,0
-7,-48,0,0,0,0,0,0,0,0,0,-1,1217,1072,0,0
0,-48,0,0,0,0,0,0,0,0,0,-1,1224,1072,0,0
7,-48,0,0,0,0,0,0,0,0,0,-1,1231,1072,0,0
14,-48,0,0,0,0,0,0,0,0,0,-1,1238,1072,0,0
21,-48,0,0,0,0,0,0,0,0,0,-1,1245,1072,0,0
28,-48,0,0,0,0,0,0,0,0,0,-1,1252,1072,0,0
35,-48,0,0,0,0,0,0,0,0,0,-1,1259,1072,0,0
42,-48,0,0,0,0,0,0,0,0,0,-1,1266,1072,0,0
49,-48,0,0,0,0,0,0,0,0,0,-1,1273,1072,0,0
56,-48,0,0,0,0,0,0,0,0,0,-1,1280,1072,0,0
63,-48,0,0,0,0,0,0,0,0,0,-1,1287,1072,0,0
70,-48,0,0,0,0,0,0,0,0,0,-1,1294,1072,0,0
77,-48,0,0,0,0,0,0,0,0,0,-1,1301,1072,0,0
84,-48,0,0,0,0,0,0,0,0,0,-1,1308,1072,0,0
91,-48,0,0,0,0,0,0,0,0,0,-1,1315,1072,0,0
98,-48,0,0,0,0,0,0,0,0,0,-1,1322,1072,0,0
105,-48,0,0,0,0,0,0,0,0,0,-1,1329,1072,0,0
112,-48,0,0,0,0,0,0,0,0,0,-1,1336,1072,0,0
119,-48,0,0,0,0,0,0,0,0,0,-1,1343,1072,0,0
126,-48,0,0,0,0,0,0,0,0,0,-1,1350,1072,0,0
133,-48,0,0,0,0,0,0,0,0,0,-1,1357,1072,0,0
140,-48,0,0,0,0,0,0,0,0,0,-1,1364,1072,0,0
147,-48,0,0,0,0,0,0,0,0,0,-1,1371,1072,0,0
154,-48,0,0,0,0,0,0,0,0,0,-1,1378,1072,0,0
161,-48,0,0,0,0,0,0,0,0,0,-1,1385,1072,0,0
168,-48,0,0,0,0,0,0,0,0,0,-1,1392,1072,0,0
175,-48,0,0,0,0,0,0,0,0,0,-1,1399,1072,0,0
182,-48,0,0,0,0,0,0,0,0,0,-1,1406,1072,0,0
189,-48,0,0,0,0,0,0,0,0,0,-1,1413,1072,0,0
196,-48,0,0,0,0,0,0,0,0,0,-1,1420,1072,0,0
203,-48,0,0,0,0,0,0,0,0,0,-1,1427,1072,0,0
210,-48,0,0,0,0,0,0,0,0,0,-1,1434,1072,0,0
217,-48,0,0,0,0,0,0,0,0,0,-1,1441,1072,0,0
224,-48,0,0,0,0,0,0,0,0,0,-1,1448,1072,0,0
231,-48,0,0,0,0,0,0,0,0,0,-1,1455,1072,0,0
238,-48,0,0,0,0,0,0,0,0,0,-1,1462,1072,0,0
245,-48,0,0,0,0,0,0,0,0,0,-1,1469,1072,0,0
252,-48,0,0,0,0,0,0,0,0,0,-1,1476,1072,0,0
259,-48,0,0,0,0,0,0,0,0,0,-1,1483,1072,0,0
266,-48,0,0,0,0,0,0,0,0,0,-1,1490,1072,0,0
273,-48,0,0,0,0,0,0,0,0,0,-1,1497,1072,0,0
280,-48,0,0,0,0,0,0,0,0,0,-1,1504,1072,0,0
287,-48,0,0,0,0,0,0,0,0,0,-1,1511,1072,0,0
294,-48,0,0,0,0,0,0,0,0,0,-1,1518,1072,0,0
301,-48,0,0,0,0,0,0,0,0,0,-1,1525,1072,0,0
308,-48,0,0,0,0,0,0,0,0,0,-1,1532,1072,0,0
315,-48,0,0,0,0,0,0,0,0,0,-1,1539,1072,0,0
322,-48,0,0,0,0,0,0,0,0,0,-1,1546,1072,0,0
329,-48,0,0,0,0,0,0,0,0,0,-1,1553,1072,0,0
336,-48,0,0,0,0,0,0,0,0,0,-1,1560,1072,0,0
343,-48,0,0,0,0,0,0,0,0,0,-1,1567,1072,0,0
350,-48,0,0,0,0,0,0,0,0,0,-1,1574,1072,0,0
357,-48,0,0,0,0,0,0,0,0,0,-1,1581,1072,0,0
364,-48,0,0,0,0,0,0,0,0,0,-1,1588,1072,0,0
371,-48,0,0,0,0,0,0,0,0,0,-1,1595,1072,0,0
378,-48,0,0,0,0,0,0,0,0,0,-1,1602,1072,0,0
385,-48,0,0,0,0,0,0,0,0,0,-1,1609,1072,0,0
392,-48,0,0,0,0,0,0,0,0,0,-1,1616,1072,0,0
399,-48,0,0,0,0,0,0,0,0,0,-1,1623,1072,0,0
406,-48,0,0,0,0,0,0,0,0,0,-1,1630,1072,0,0
413,-48,0,0,0,0,0,0,0,0,0,-1,1637,1072,0,0
420,-48,0,0,0,0,0,0,0,0,0,-1,1644,1072,0,0
427,-48,0,0,0,0,0,0,0,0,0,-1,1651,1072,0,0
434,-48,0,0,0,0,0,0,0,0,0,-1,1658,1072,0,0
441,-48,0,0,0,0,0,0,0,0,0,-1,1665,1072,0,0
448,-48,0,0,0,0,0,0,0,0,0,-1,1672,1072,0,0
455,-48,0,0,0,0,0,0,0,0,0,-1,1679,1072,0,0
462,-48,0,0,0,0,0,0,0,0,0,-1,1686,1072,0,0
469,-48,0,0,0,0,0,0,0,0,0,-1,1693,1072,0,0
476,-48,0,0,0,0,0,0,0,0,0,-1,1700,1072,0,0
483,-48,0,0,0,0,0,0,0,0,0,-1,1707,1072,0,0
490,-48,0,0,0,0,0,0,0,0,0,-1,1714,1072,0,0
497,-48,0,0,0,0,0,0,0,0,0,-1,1721,1072,0,0
504,-48,0,0,0,0,0,0,0,0,0,-1,1728,1072,0,0
511,-48,0,0,0,0,0,0,0,0,0,-1,1735,1072,0,0
518,-48,0,0,0,0,0,0,0,0,0,-1,1742,1072,0,0
525,-48,0,0,0,0,0,0,0,0,0,-1,1749,1072,0,0
532,-48,0,0,0,0,0,0,0,0,0,-1,1756,1072,0,0
539,-48,0,0,0,0,0,0,0,0,0,-1,1763,1072,0,0
546,-48,0,0,0,0,0,0,0,0,0,-1,1770,1072,0,0
553,-48,0,0,0,0,0,0,0,0,0,-1,1777,1072,0,0
560,-48,0,0,0,0,0,0,0,0,0,-1,1784,1072,0,0
567,-48,0,0,0,0,0,0,0,0,0,-1,1791,1072,0,0
574,-48,0,0,0,0,0,0,0,0,0,-1,1798,1072,0,0
581,-48,0,0,0,0,0,0,0,0,0,-1,1805,1072,0,0
588,-48,0,0,0,0,0,0,0,0,0,-1,1812,1072,0,0
595,-48,0,0,0,0,0,0,0,0,0,-1,1819,1072,0,0
602,-48,0,0,0,0,0,0,0,0,0,-1,1826,1072,0,0
609,-48,0,0,0,0,0,0,0,0,0,-1,1833,1072,0,0
616,-48,0,0,0,0,0,0,0,0,0,-1,1840,1072,0,0
623,-48,0,0,0,0,0,0,0,0,0,-1,1847,1072,0,0
630,-48,0,0,0,0,0,0,0,0,0,-1,1854,1072,0,0
637,-48,0,0,0,0,0,0,0,0,0,-1,1861,1072,0,0
644,-48,0,0,0,0,0,0,0,0,0,-1,1868,1072,0,0
651,-48,75.8099,2.20447,-0.00135421,0.000166878,0.000455084,0.000292635,-0.00147996,1.30119,0.00109727,0.0356814,1875,1072,75.8099,-2.2045
658,-48,75.7632,2.26294,-0.000769762,0.000318757,0.000833994,0.000770372,-0.00122138,1.0745,0.00115972,0.0391851,1882,1072,75.7632,-2.26297
665,-48,75.5814,2.35864,-0.000484369,0.000331572,0.00101216,0.00101488,-0.00116768,0.976974,0.00126113,0.0413279,1889,1072,75.5814,-2.35869
672,-48,75.5754,2.36108,-0.000267563,0.000439205,0.00107195,0.00121452,-0.00104288,0.944621,0.00130456,0.0399824,1896,1072,75.5755,-2.36106
679,-48,75.6001,2.30884,-0.000166354,0.000563758,0.00104714,0.00130765,-0.000910247,0.953122,0.00128734,0.0394718,1903,1072,75.6001,-2.3089
686,-48,75.7906,2.43298,-0.000545484,0.000372151,0.000985702,0.00100059,-0.00117392,1.00322,0.00125678,0.0390997,1910,1072,75.7907,-2.43296
693,-48,75.8517,2.42957,-0.000970327,6.17507e-05,0.00106335,0.000727667,-0.00163624,1.0113,0.001398,0.0402978,1917,1072,75.8517,-2.42955
700,-48,75.8467,2.41919,-0.00126728,-0.000108247,0.00129784,0.000733581,-0.00210911,0.995379,0.00170407,0.0354327,1924,1072,75.8467,-2.4192
707,-48,75.7897,2.37122,-0.00191268,-3.56106e-05,0.00163146,0.000908013,-0.00285631,1.04642,0.00226829,0.028053,1931,1072,75.7897,-2.37118
714,-48,75.7067,2.36816,-0.00270762,0.000326891,0.00187483,0.0012215,-0.00360222,1.12558,0.00289583,0.0458049,1938,1072,75.7067,-2.36815
721,-48,75.7612,2.36438,0,0,0,0,0,0,0,-1,1945,1072,75.7612,-2.36433
728,-48,74.5524,8.32092,0,0,0,0,0,0,0,-1,1952,1072,74.5524,-8.32093
735,-48,74.4362,7.96631,-0.00605579,0.00316231,0.00252969,0.00381089,-0.00670438,1.31982,0.00614713,0.0256141,1959,1072,74.4361,-7.96635
742,-48,74.3083,7.58984,-0.00728067,0.00451481,0.00285598,0.00516993,-0.00793579,1.34531,0.00762255,0.0194269,1966,1072,74.3083,-7.58983
749,-48,74.299,7.25549,-0.00870885,0.00554538,0.00299295,0.0061483,-0.00931178,1.37201,0.00898795,0.016843,1973,1072,74.299,-7.25548
756,-48,74.2693,6.9093,-0.00979634,0.00760677,0.00230916,0.00790795,-0.0100975,1.4411,0.0104211,0.0147637,1980,1072,74.2692,-6.90924
763,-48,74.1536,6.5376,-0.0110374,0.0107892,0.000613933,0.0108064,-0.0110547,1.5427,0.0126218,0.0136439,1987,1072,74.1537,-6.53764
770,-48,74.0898,6.18835,-0.0124693,0.0143296,-0.00185878,0.0144579,-0.0125976,-1.50188,0.0156328,0.0151801,1994,1072,74.0899,-6.18834
777,-48,73.929,5.79639,-0.0135377,0.0187204,-0.00601601,0.0198058,-0.0146231,-1.39229,0.0199525,0.0145872,2001,1072,73.9289,-5.79634
784,-48,73.7446,5.37769,-0.0142305,0.0233642,-0.0114346,0.0265689,-0.0174352,-1.29754,0.0255876,0.0262339,2008,1072,73.7447,-5.37771
791,-48,73.6003,4.91431,-0.0144682,0.0284741,-0.018583,0.035399,-0.0213931,-1.21409,0.0331196,0.0387995,2015,1072,73.6004,-4.91427
798,-48,73.3464,4.7063,-0.0138412,0.0344,-0.0280884,0.0473033,-0.0267444,-1.14017,0.0432972,0.0426595,2022,1072,73.3466,-4.70626
805,-48,73.1567,4.58411,0,0,0,0,0,0,0,-1,2029,1072,73.1567,-4.58405
812,-48,73.0928,4.11169,0,0,0,0,0,0,0,-1,2036,1072,73.0927,-4.11173
-700,-55,-58.3967,-6.42908,0,0,0,0,0,0,0,-1,524,1079,-58.3967,6.42912
-693,-55,-58.3287,-4.70374,0,0,0,0,0,0,0,-1,531,1079,-58.3287,4.70372
-686,-55,-58.4556,-2.89514,0,0,0,0,0,0,0,-1,538,1079,-58.4556,2.89517
-679,-55,-58.4693,-1.1958,0,0,0,0,0,0,0,-1,545,1079,-58.4693,1.19582
-672,-55,-58.5247,-0.567017,0,0,0,0,0,0,0,-1,552,1079,-58.5247,0.567062
-665,-55,-58.0163,0.643555,0,0,0,0,0,0,0,-1,559,1079,-58.0163,-0.64361
-658,-55,-57.8398,1.13464,0,0,0,0,0,0,0,-1,566,1079,-57.8398,-1.13459
-651,-55,-57.831,3.0459,0,0,0,0,0,0,0,-1,573,1079,-57.831,-3.04593
-644,-55,-58.0217,4.40894,-0.0104728,0.0335554,0.00930595,0.0354415,-0.012359,1.37082,0.0286501,0.0334869,580,1079,-58.0217,-4.40893
-637,-55,-58.0737,4.71851,-0.00829193,0.0237148,0.00536361,0.0245897,-0.00916683,1.4091,0.020156,0.0255024,587,1079,-58.0737,-4.71847
-630,-55,-58.1415,5.20874,-0.00577059,0.0151445,0.00212225,0.0153577,-0.00598377,1.47069,0.0127115,0.0274237,594,1079,-58.1416,-5.20868
-623,-55,-58.3135,5.72461,-0.00301025,0.00756338,-0.000561869,0.00759316,-0.00304002,-1.51786,0.00632389,0.020618,601,1079,-58.3135,-5.72465
-616,-55,-58.3137,6.11804,-9.98211e-05,0.000740287,-0.0028156,0.00316699,-0.00252652,-0.859446,0.00329408,0.0182093,608,1079,-58.3137,-6.11798
-609,-55,-58.2415,6.61084,0.00299803,-0.00503933,-0.00455462,0.00505342,-0.00709472,-0.423915,0.00704666,0.0195022,615,1079,-58.2415,-6.61078
-602,-55,-58.1501,7.02271,0.00617464,-0.0102445,-0.00601495,0.00814234,-0.0122122,-0.316161,0.0118297,0.0156928,622,1079,-58.1501,-7.02265
-595,-55,-57.9982,7.42029,0.00931692,-0.0152703,-0.00670798,0.0110279,-0.0169813,-0.249748,0.0162924,0.0339661,629,1079,-57.9982,-7.42033
-588,-55,-58.0336,7.86829,0,0,0,0,0,0,0,-1,636,1079,-58.0336,-7.86829
-581,-55,-58.9733,0.092041,0,0,0,0,0,0,0,-1,643,1079,-58.9732,-0.0919986
-574,-55,-58.9361,0.258179,0,0,0,0,0,0,0,-1,650,1079,-58.9361,-0.258229
-567,-55,-59.0733,0.368164,0,0,0,0,0,0,0,-1,657,1079,-59.0733,-0.368117
-560,-55,-59.1132,0.449097,0,0,0,0,0,0,0,-1,664,1079,-59.1132,-0.44905
-553,-55,-58.7822,0.277954,0,0,0,0,0,0,0,-1,671,1079,-58.7822,-0.277958
-546,-55,-58.8835,-0.0234375,0,0,0,0,0,0,0,-1,678,1079,-58.8835,0.0234004
-539,-55,-59.1575,0.118408,0,0,0,0,0,0,0,-1,685,1079,-59.1575,-0.118458
-532,-55,-59.2037,0.341797,0,0,0,0,0,0,0,-1,692,1079,-59.2038,-0.341767
-525,-55,0,0,0,0,0,0,0,0,0,-1,699,1079,0,0
-518,-55,0,0,0,0,0,0,0,0,0,-1,706,1079,0,0
-511,-55,0,0,0,0,0,0,0,0,0,-1,713,1079,0,0
-504,-55,0,0,0,0,0,0,0,0,0,-1,720,1079,0,0
-497,-55,0,0,0,0,0,0,0,0,0,-1,727,1079,0,0
-490,-55,0,0,0,0,0,0,0,0,0,-1,734,1079,0,0
-483,-55,0,0,0,0,0,0,0,0,0,-1,741,1079,0,0
-476,-55,0,0,0,0,0,0,0,0,0,-1,748,1079,0,0
-469,-55,0,0,0,0,0,0,0,0,0,-1,755,1079,0,0
-462,-55,0,0,0,0,0,0,0,0,0,-1,762,1079,0,0
-455,-55,0,0,0,0,0,0,0,0,0,-1,769,1079,0,0
-448,-55,0,0,0,0,0,0,0,0,0,-1,776,1079,0,0
-441,-55,0,0,0,0,0,0,0,0,0,-1,783,1079,0,0
-434,-55,0,0,0,0,0,0,0,0,0,-1,790,1079,0,0
-427,-55,0,0,0,0,0,0,0,0,0,-1,797,1079,0,0
-420,-55,0,0,0,0,0,0,0,0,0,-1,804,1079,0,0
-413,-55,0,0,0,0,0,0,0,0,0,-1,811,1079,0,0
-406,-55,0,0,0,0,0,0,0,0,0,-1,818,1079,0,0
-399,-55,0,0,0,0,0,0,0,0,0,-1,825,1079,0,0
-392,-55,0,0,0,0,0,0,0,0,0,-1,832,1079,0,0
-385,-55,0,0,0,0,0,0,0,0,0,-1,839,1079,0,0
-378,-55,0,0,0,0,0,0,0,0,0,-1,846,1079,0,0
-371,-55,0,0,0,0,0,0,0,0,0,-1,853,1079,0,0
-364,-55,0,0,0,0,0,0,0,0,0,-1,860,1079,0,0
-357,-55,0,0,0,0,0,0,0,0,0,-1,867,1079,0,0
-350,-55,0,0,0,0,0,0,0,0,0,-1,874,1079,0,0
-343,-55,0,0,0,0,0,0,0,0,0,-1,881,1079,0,0
-336,-55,0,0,0,0,0,0,0,0,0,-1,888,1079,0,0
-329,-55,0,0,0,0,0,0,0,0,0,-1,895,1079,0,0
-322,-55,0,0,0,0,0,0,0,0,0,-1,902,1079,0,0
-315,-55,0,0,0,0,0,0,0,0,0,-1,909,1079,0,0
-308,-55,0,0,0,0,0,0,0,0,0,-1,916,1079,0,0
-301,-55,0,0,0,0,0,0,0,0,0,-1,923,1079,0,0
-294,-55,0,0,0,0,0,0,0,0,0,-1,930,1079,0,0
-287,-55,0,0,0,0,0,0,0,0,0,-1,937,1079,0,0
-280,-55,0,0,0,0,0,0,0,0,0,-1,944,1079,0,0
-273,-55,0,0,0,0,0,0,0,0,0,-1,951,1079,0,0
-266,-55,0,0,0,0,0,0,0,0,0,-1,958,1079,0,0
-259,-55,0,0,0,0,0,0,0,0,0,-1,965,1079,0,0
-252,-55,0,0,0,0,0,0,0,0,0,-1,972,1079,0,0
-245,-55,0,0,0,0,0,0,0,0,0,-1,979,1079,0,0
-238,-55,0,0,0,0,0,0,0,0,0,-1,986,1079,0,0
-231,-55,0,0,0,0,0,0,0,0,0,-1,993,1079,0,0
-224,-55,0,0,0,0,0,0,0,0,0,-1,1000,1079,0,0
-217,-55,0,0,0,0,0,0,0,0,0,-1,1007,1079,0,0
-210,-55,0,0,0,0,0,0,0,0,0,-1,1014,1079,0,0
-203,-55,0,0,0,0,0,0,0,0,0,-1,1021,1079,0,0
-196,-55,0,0,0,0,0,0,0,0,0,-1,1028,1079,0,0
-189,-55,0,0,0,0,0,0,0,0,0,-1,1035,1079,0,0
-182,-55,0,0,0,0,0,0,0,0,0,-1,1042,1079,0,0
-175,-55,0,0,0,0,0,0,0,0,0,-1,1049,1079,0,0
-168,-55,0,0,0,0,0,0,0,0,0,-1,1056,1079,0,0
-161,-55,0,0,0,0,0,0,0,0,0,-1,1063,1079,0,0
-154,-55,0,0,0,0,0,0,0,0,0,-1,1070,1079,0,0
-147,-55,0,0,0,0,0,0,0,0,0,-1,1077,1079,0,0
-140,-55,0,0,0,0,0,0,0,0,0,-1,1084,1079,0,0
-133,-55,0,0,0,0,0,0,0,0,0,-1,1091,1079,0,0
-126,-55,0,0,0,0,0,0,0,0,0,-1,1098,1079,0,0
-119,-55,0,0,0,0,0,0,0,0,0,-1,1105,1079,0,0
-112,-55,0,0,0,0,0,0,0,0,0,-1,1112,1079,0,0
-105,-55,0,0,0,0,0,0,0,0,0,-1,1119,1079,0,0
-98,-55,0,0,0,0,0,0,0,0,0,-1,1126,1079,0,0
-91,-55,0,0,0,0,0,0,0,0,0,-1,1133,1079,0,0
-84,-55,0,0,0,0,0,0,0,0,0,-1,1140,1079,0,0
-77,-55,0,0,0,0,0,0,0,0,0,-1,1147,1079,0,0
-70,-55,0,0,0,0,0,0,0,0,0,-1,1154,1079,0,0
-63,-55,0,0,0,0,0,0,0,0,0,-1,1161,1079,0,0
-56,-55,0,0,0,0,0,0,0,0,0,-1,1168,1079,0,0
-49,-55,0,0,0,0,0,0,0,0,0,-1,1175,1079,0,0
-42,-55,0,0,0,0,0,0,0,0,0,-1,1182,1079,0,0
-35,-55,0,0,0,0,0,0,0,0,0,-1,1189,1079,0,0
-28,-55,0,0,0,0,0,0,0,0,0,-1,1196,1079,0,0
-21,-55,0,0,0,0,0,0,0,0,0,-1,1203,1079,0,0
-14,-55,0,0,0,0,0,0,0,0,0,-1,1210,1079,0,0
-7,-55,0,0,0,0,0,0,0,0,0,-1,1217,1079,0,0
0,-55,0,0,0,0,0,0,0,0,0,-1,1224,1079,0,0
7,-55,0,0,0,0,0,0,0,0,0,-1,1231,1079,0,0
14,-55,0,0,0,0,0,0,0,0,0,-1,1238,1079,0,0
21,-55,0,0,0,0,0,0,0,0,0,-1,1245,1079,0,0
28,-55,0,0,0,0,0,0,0,0,0,-1,1252,1079,0,0
35,-55,0,0,0,0,0,0,0,0,0,-1,1259,1079,0,0
42,-55,0,0,0,0,0,0,0,0,0,-1,1266,1079,0,0
49,-55,0,0,0,0,0,0,0,0,0,-1,1273,1079,0,0
56,-55,0,0,0,0,0,0,0,0,0,-1,1280,1079,0,0
63,-55,0,0,0,0,0,0,0,0,0,-1,1287,1079,0,0
70,-55,0,0,0,0,0,0,0,0,0,-1,1294,1079,0,0
77,-55,0,0,0,0,0,0,0,0,0,-1,1301,1079,0,0
84,-55,0,0,0,0,0,0,0,0,0,-1,1308,1079,0,0
91,-55,0,0,0,0,0,0,0,0,0,-1,1315,1079,0,0
98,-55,0,0,0,0,0,0,0,0,0,-1,1322,1079,0,0
105,-55,0,0,0,0,0,0,0,0,0,-1,1329,1079,0,0
112,-55,0,0,0,0,0,0,0,0,0,-1,1336,1079,0,0
119,-55,0,0,0,0,0,0,0,0,0,-1,1343,1079,0,0
126,-55,0,0,0,0,0,0,0,0,0,-1,1350,1079,0,0
133,-55,0,0,0,0,0,0,0,0,0,-1,1357,1079,0,0
140,-55,0,0,0,0,0,0,0,0,0,-1,1364,1079,0,0
147,-55,0,0,0,0,0,0,0,0,0,-1,1371,1079,0,0
154,-55,0,0,0,0,0,0,0,0,0,-1,1378,1079,0,0
161,-55,0,0,0,0,0,0,0,0,0,-1,1385,1079,0,0
168,-55,0,0,0,0,0,0,0,0,0,-1,1392,1079,0,0
175,-55,0,0,0,0,0,0,0,0,0,-1,1399,1079,0,0
182,-55,0,0,0,0,0,0,0,0,0,-1,1406,1079,0,0
189,-55,0,0,0,0,0,0,0,0,0,-1,1413,1079,0,0
196,-55,0,0,0,0,0,0,0,0,0,-1,1420,1079,0,0
203,-55,0,0,0,0,0,0,0,0,0,-1,1427,1079,0,0
210,-55,0,0,0,0,0,0,0,0,0,-1,1434,1079,0,0
217,-55,0,0,0,0,0,0,0,0,0,-1,1441,1079,0,0
224,-55,0,0,0,0,0,0,0,0,0,-1,1448,1079,0,0
231,-55,0,0,0,0,0,0,0,0,0,-1,1455,1079,0,0
238,-55,0,0,0,0,0,0,0,0,0,-1,1462,1079,0,0
245,-55,0,0,0,0,0,0,0,0,0,-1,1469,1079,0,0
252,-55,0,0,0,0,0,0,0,0,0,-1,1476,1079,0,0
259,-55,0,0,0,0,0,0,0,0,0,-1,1483,1079,0,0
266,-55,0,0,0,0,0,0,0,0,0,-1,1490,1079,0,0
273,-55,0,0,0,0,0,0,0,0,0,-1,1497,1079,0,0
280,-55,0,0,0,0,0,0,0,0,0,-1,1504,1079,0,0
287,-55,0,0,0,0,0,0,0,0,0,-1,1511,1079,0,0
294,-55,0,0,0,0,0,0,0,0,0,-1,1518,1079,0,0
301,-55,0,0,0,0,0,0,0,0,0,-1,1525,1079,0,0
308,-55,0,0,0,0,0,0,0,0,0,-1,1532,1079,0,0
315,-55,0,0,0,0,0,0,0,0,0,-1,1539,1079,0,0
322,-55,0,0,0,0,0,0,0,0,0,-1,1546,1079,0,0
329,-55,0,0,0,0,0,0,0,0,0,-1,1553,1079,0,0
336,-55,0,0,0,0,0,0,0,0,0,-1,1560,1079,0,0
343,-55,0,0,0,0,0,0,0,0,0,-1,1567,1079,0,0
350,-55,0,0,0,0,0,0,0,0,0,-1,1574,1079,0,0
357,-55,0,0,0,0,0,0,0,0,0,-1,1581,1079,0,0
364,-55,0,0,0,0,0,0,0,0,0,-1,1588,1079,0,0
371,-55,0,0,0,0,0,0,0,0,0,-1,1595,1079,0,0
378,-55,0,0,0,0,0,0,0,0,0,-1,1602,1079,0,0
385,-55,0,0,0,0,0,0,0,0,0,-1,1609,1079,0,0
392,-55,0,0,0,0,0,0,0,0,0,-1,1616,1079,0,0
399,-55,0,0,0,0,0,0,0,0,0,-1,1623,1079,0,0
406,-55,0,0,0,0,0,0,0,0,0,-1,1630,1079,0,0
413,-55,0,0,0,0,0,0,0,0,0,-1,1637,1079,0,0
420,-55,0,0,0,0,0,0,0,0,0,-1,1644,1079,0,0
427,-55,0,0,0,0,0,0,0,0,0,-1,1651,1079,0,0
434,-55,0,0,0,0,0,0,0,0,0,-1,1658,1079,0,0
441,-55,0,0,0,0,0,0,0,0,0,-1,1665,1079,0,0
448,-55,0,0,0,0,0,0,0,0,0,-1,1672,1079,0,0
455,-55,0,0,0,0,0,0,0,0,0,-1,1679,1079,0,0
462,-55,0,0,0,0,0,0,0,0,0,-1,1686,1079,0,0
469,-55,0,0,0,0,0,0,0,0,0,-1,1693,1079,0,0
476,-55,0,0,0,0,0,0,0,0,0,-1,1700,1079,0,0
483,-55,0,0,0,0,0,0,0,0,0,-1,1707,1079,0,0
490,-55,0,0,0,0,0,0,0,0,0,-1,1714,1079,0,0
497,-55,0,0,0,0,0,0,0,0,0,-1,1721,1079,0,0
504,-55,0,0,0,0,0,0,0,0,0,-1,1728,1079,0,0
511,-55,0,0,0,0,0,0,0,0,0,-1,1735,1079,0,0
518,-55,0,0,0,0,0,0,0,0,0,-1,1742,1079,0,0
525,-55,0,0,0,0,0,0,0,0,0,-1,1749,1079,0,0
532,-55,0,0,0,0,0,0,0,0,0,-1,1756,1079,0,0
539,-55,0,0,0,0,0,0,0,0,0,-1,1763,1079,0,0
546,-55,0,0,0,0,0,0,0,0,0,-1,1770,1079,0,0
553,-55,0,0,0,0,0,0,0,0,0,-1,1777,1079,0,0
560,-55,0,0,0,0,0,0,0,0,0,-1,1784,1079,0,0
567,-55,0,0,0,0,0,0,0,0,0,-1,1791,1079,0,0
574,-55,0,0,0,0,0,0,0,0,0,-1,1798,1079,0,0
581,-55,0,0,0,0,0,0,0,0,0,-1,1805,1079,0,0
588,-55,0,0,0,0,0,0,0,0,0,-1,1812,1079,0,0
595,-55,0,0,0,0,0,0,0,0,0,-1,1819,1079,0,0
602,-55,0,0,0,0,0,0,0,0,0,-1,1826,1079,0,0
609,-55,0,0,0,0,0,0,0,0,0,-1,1833,1079,0,0
616,-55,0,0,0,0,0,0,0,0,0,-1,1840,1079,0,0
623,-55,0,0,0,0,0,0,0,0,0,-1,1847,1079,0,0
630,-55,0,0,0,0,0,0,0,0,0,-1,1854,1079,0,0
637,-55,0,0,0,0,0,0,0,0,0,-1,1861,1079,0,0
644,-55,0,0,0,0,0,0,0,0,0,-1,1868,1079,0,0
651,-55,75.8223,2.33472,-0.00025895,-0.0016835,0.000409445,-0.000149653,-0.0017928,0.260857,0.00114857,0.0386007,1875,1079,75.8222,-2.33466
658,-55,75.8827,2.32007,1.70926e-05,-0.00109047,0.000805742,0.000441009,-0.00151439,0.484325,0.00118429,0.0351906,1882,1079,75.8827,-2.32007
665,-55,75.67,2.36389,8.90397e-05,-0.000688615,0.00100474,0.000777567,-0.00137714,0.600777,0.00125997,0.0387783,1889,1079,75.67,-2.36389
672,-55,75.5726,2.33118,0.000131162,-0.000272882,0.00106411,0.00101226,-0.00115398,0.69159,0.00125157,0.0388685,1896,1079,75.5726,-2.33112
679,-55,75.6412,2.19409,9.05012e-05,0.000120685,0.00102728,0.00113298,-0.000921795,0.792743,0.00118841,0.0358555,1903,1079,75.6413,-2.19411
686,-55,75.7635,2.35522,-0.000340792,0.000127231,0.000936616,0.000858626,-0.00107219,0.907816,0.00111703,0.0361016,1910,1079,75.7636,-2.35528
693,-55,75.7714,2.45203,-0.000768442,-7.28467e-05,0.000998687,0.000636871,-0.00147816,0.952958,0.0012529,0.0376416,1917,1079,75.7713,-2.452
700,-55,75.7798,2.44226,-0.00104621,-0.000160163,0.00120679,0.000682355,-0.00188872,0.961315,0.00153791,0.0332053,1924,1079,75.7798,-2.4423
707,-55,75.7682,2.38232,-0.00160922,-5.25757e-05,0.00154339,0.000897643,-0.00255944,1.01894,0.00207139,0.0254367,1931,1079,75.7682,-2.3823
714,-55,75.7372,2.29248,-0.0023141,0.000289535,0.00180569,0.00121375,-0.00323831,1.09772,0.00265752,0.0489527,1938,1079,75.7372,-2.2925
721,-55,75.7639,2.17676,0,0,0,0,0,0,0,-1,1945,1079,75.7639,-2.1768
728,-55,73.9919,8.53735,0,0,0,0,0,0,0,-1,1952,1079,73.992,-8.53741
735,-55,73.8983,8.09741,-0.00531907,0.00280097,0.00248228,0.00349968,-0.00601777,1.29642,0.00555864,0.0252274,1959,1079,73.8983,-8.09744
742,-55,73.9138,7.69727,-0.00652169,0.00408474,0.00281927,0.00478755,-0.0072245,1.32649,0.00698257,0.0238476,1966,1079,73.9139,-7.69723
749,-55,73.9447,7.30505,-0.00796142,0.00508244,0.00292137,0.00570684,-0.00858581,1.36023,0.00830748,0.0158885,1973,1079,73.9447,-7.30501
756,-55,73.8118,6.89307,-0.00912387,0.00703669,0.00219046,0.00732833,-0.00941551,1.43843,0.00969206,0.0133678,1980,1079,73.8119,-6.89311
763,-55,73.7148,6.49036,-0.0105584,0.0100617,0.000324683,0.0100668,-0.0105635,1.55506,0.0119121,0.0151381,1987,1079,73.7147,-6.49037
770,-55,73.625,6.07727,-0.0123133,0.0135147,-0.00241475,0.0137386,-0.0125371,-1.47837,0.0151756,0.0170275,1994,1079,73.6249,-6.07723
777,-55,73.5176,5.67773,-0.0138815,0.0177092,-0.00692126,0.0191591,-0.0153313,-1.3643,0.0199539,0.01482,2001,1079,73.5177,-5.67773
784,-55,73.3706,5.28625,-0.0151541,0.0220875,-0.01276,0.02604,-0.0191065,-1.27042,0.0261676,0.0297425,2008,1079,73.3707,-5.28626
791,-55,73.21,4.92749,-0.0160618,0.0268191,-0.020405,0.0349769,-0.0242196,-1.19047,0.0343647,0.0420837,2015,1079,73.21,-4.92751
798,-55,73.1987,5.19836,-0.0162673,0.0321443,-0.0305398,0.0469077,-0.0310307,-1.1205,0.0453079,0.0439904,2022,1079,73.1987,-5.19834
805,-55,73.2808,5.12378,-0.0151479,0.0385573,-0.0436336,0.062939,-0.0395296,-1.06124,0.0596727,0.0442428,2029,1079,73.2807,-5.12372
812,-55,73.3479,4.67224,-0.0128672,0.0467272,-0.0604552,0.0843296,-0.0504695,-1.01437,0.0786405,0.0459696,2036,1079,73.3479,-4.67227
-700,-62,-58.4833,-6.41736,0,0,0,0,0,0,0,-1,524,1086,-58.4833,6.41737
-693,-62,-58.5746,-4.15515,0,0,0,0,0,0,0,-1,531,1086,-58.5746,4.15514
-686,-62,-58.5395,-2.56067,0,0,0,0,0,0,0,-1,538,1086,-58.5395,2.56069
-679,-62,-58.6198,-0.918335,0,0,0,0,0,0,0,-1,545,1086,-58.6198,0.918352
-672,-62,-58.4396,0.469238,0,0,0,0,0,0,0,-1,552,1086,-58.4396,-0.469223
-665,-62,-57.0623,0.520386,0,0,0,0,0,0,0,-1,559,1086,-57.0624,-0.520427
-658,-62,-56.6419,1.87793,0,0,0,0,0,0,0,-1,566,1086,-56.6419,-1.87797
-651,-62,-57.4457,3.5271,0,0,0,0,0,0,0,-1,573,1086,-57.4457,-3.52709
-644,-62,-57.5888,4.2522,-0.0113252,0.0290914,0.00801932,0.0306245,-0.0128582,1.38191,0.0257938,0.0413062,580,1086,-57.5888,-4.25225
-637,-62,-57.6532,4.74255,-0.00899899,0.020612,0.00443685,0.0212625,-0.00964951,1.42522,0.0182621,0.0181688,587,1086,-57.6532,-4.7426
-630,-62,-57.7562,5.2074,-0.00634135,0.0131457,0.0015188,0.0132634,-0.00645901,1.49348,0.0116104,0.0169901,594,1086,-57.7562,-5.20744
-623,-62,-57.8376,5.73206,-0.00344296,0.00645495,-0.000874991,0.00653171,-0.00351971,-1.4833,0.0058894,0.0189984,601,1086,-57.8376,-5.732
-616,-62,-57.8342,6.24829,-0.000380399,0.000346215,-0.00286696,0.0028728,-0.00290698,-0.848423,0.00333697,0.0198004,608,1086,-57.8342,-6.24828
-609,-62,-57.7841,6.70581,0.00288704,-0.00490957,-0.0043846,0.00485572,-0.00687825,-0.422021,0.00680808,0.0202527,615,1086,-57.784,-6.70582
-602,-62,-57.6263,7.10522,0.00627813,-0.00980805,-0.00563751,0.0080571,-0.011587,-0.305669,0.0114024,0.0164956,622,1086,-57.6263,-7.1052
-595,-62,-57.4341,7.51831,0.00972508,-0.0145899,-0.00613448,0.0111851,-0.0160499,-0.233655,0.0158075,0.0414435,629,1086,-57.4341,-7.5183
-588,-62,-57.3116,7.90857,0,0,0,0,0,0,0,-1,636,1086,-57.3116,-7.90852
-581,-62,-58.9436,0.171387,0,0,0,0,0,0,0,-1,643,1086,-58.9436,-0.171328
-574,-62,-59.0489,0.208496,0,0,0,0,0,0,0,-1,650,1086,-59.0489,-0.208546
-567,-62,-59.1623,0.19397,0,0,0,0,0,0,0,-1,657,1086,-59.1623,-0.193971
-560,-62,-59.0502,0.165527,0,0,0,0,0,0,0,-1,664,1086,-59.0502,-0.165522
-553,-62,-58.8185,0.151489,0,0,0,0,0,0,0,-1,671,1086,-58.8185,-0.151496
-546,-62,-58.9147,0.131836,0,0,0,0,0,0,0,-1,678,1086,-58.9147,-0.131888
-539,-62,-59.1626,0.153687,0,0,0,0,0,0,0,-1,685,1086,-59.1626,-0.153715
-532,-62,-59.1537,0.134399,0,0,0,0,0,0,0,-1,692,1086,-59.1537,-0.134383
-525,-62,0,0,0,0,0,0,0,0,0,-1,699,1086,0,0
-518,-62,0,0,0,0,0,0,0,0,0,-1,706,1086,0,0
-511,-62,0,0,0,0,0,0,0,0,0,-1,713,1086,0,0
-504,-62,0,0,0,0,0,0,0,0,0,-1,720,1086,0,0
-497,-62,0,0,0,0,0,0,0,0,0,-1,727,1086,0,0
-490,-62,0,0,0,0,0,0,0,0,0,-1,734,1086,0,0
-483,-62,0,0,0,0,0,0,0,0,0,-1,741,1086,0,0
-476,-62,0,0,0,0,0,0,0,0,0,-1,748,1086,0,0
-469,-62,0,0,0,0,0,0,0,0,0,-1,755,1086,0,0
-462,-62,0,0,0,0,0,0,0,0,0,-1,762,1086,0,0
-455,-62,0,0,0,0,0,0,0,0,0,-1,769,1086,0,0
-448,-62,0,0,0,0,0,0,0,0,0,-1,776,1086,0,0
-441,-62,0,0,0,0,0,0,0,0,0,-1,783,1086,0,0
-434,-62,0,0,0,0,0,0,0,0,0,-1,790,1086,0,0
-427,-62,0,0,0,0,0,0,0,0,0,-1,797,1086,0,0
-420,-62,0,0,0,0,0,0,0,0,0,-1,804,1086,0,0
-413,-62,0,0,0,0,0,0,0,0,0,-1,811,1086,0,0
-406,-62,0,0,0,0,0,0,0,0,0,-1,818,1086,0,0
-399,-62,0,0,0,0,0,0,0,0,0,-1,825,1086,0,0
-392,-62,0,0,0,0,0,0,0,0,0,-1,832,1086,0,0
-385,-62,0,0,0,0,0,0,0,0,0,-1,839,1086,0,0
-378,-62,0,0,0,0,0,0,0,0,0,-1,846,1086,0,0
-371,-62,0,0,0,0,0,0,0,0,0,-1,853,1086,0,0
-364,-62,0,0,0,0,0,0,0,0,0,-1,860,1086,0,0
-357,-62,0,0,0,0,0,0,0,0,0,-1,867,1086,0,0
-350,-62,0,0,0,0,0,0,0,0,0,-1,874,1086,0,0
-343,-62,0,0,0,0,0,0,0,0,0,-1,881,1086,0,0
-336,-62,0,0,0,0,0,0,0,0,0,-1,888,1086,0,0
-329,-62,0,0,0,0,0,0,0,0,0,-1,895,1086,0,0
-322,-62,0,0,0,0,0,0,0,0,0,-1,902,1086,0,0
-315,-62,0,0,0,0,0,0,0,0,0,-1,909,1086,0,0
-308,-62,0,0,0,0,0,0,0,0,0,-1,916,1086,0,0
-301,-62,0,0,0,0,0,0,0,0,0,-1,923,1086,0,0
-294,-62,0,0,0,0,0,0,0,0,0,-1,930,1086,0,0
-287,-62,0,0,0,0,0,0,0,0,0,-1,937,1086,0,0
-280,-62,0,0,0,0,0,0,0,0,0,-1,944,1086,0,0
-273,-62,0,0,0,0,0,0,0,0,0,-1,951,1086,0,0
-266,-62,0,0,0,0,0,0,0,0,0,-1,958,1086,0,0
-259,-62,0,0,0,0,0,0,0,0,0,-1,965,1086,0,0
-252,-62,0,0,0,0,0,0,0,0,0,-1,972,1086,0,0
-245,-62,0,0,0,0,0,0,0,0,0,-1,979,1086,0,0
-238,-62,0,0,0,0,0,0,0,0,0,-1,986,1086,0,0
-231,-62,0,0,0,0,0,0,0,0,0,-1,993,1086,0,0
-224,-62,0,0,0,0,0,0,0,0,0,-1,1000,1086,0,0
-217,-62,0,0,0,0,0,0,0,0,0,-1,1007,1086,0,0
-210,-62,0,0,0,0,0,0,0,0,0,-1,1014,1086,0,0
-203,-62,0,0,0,0,0,0,0,0,0,-1,1021,1086,0,0
-196,-62,0,0,0,0,0,0,0,0,0,-1,1028,1086,0,0
-189,-62,0,0,0,0,0,0,0,0,0,-1,1035,1086,0,0
-182,-62,0,0,0,0,0,0,0,0,0,-1,1042,1086,0,0
-175,-62,0,0,0,0,0,0,0,0,0,-1,1049,1086,0,0
-168,-62,0,0,0,0,0,0,0,0,0,-1,1056,1086,0,0
-161,-62,0,0,0,0,0,0,0,0,0,-1,1063,1086,0,0
-154,-62,0,0,0,0,0,0,0,0,0,-1,1070,1086,0,0
-147,-62,0,0,0,0,0,0,0,0,0,-1,1077,1086,0,0
-140,-62,0,0,0,0,0,0,0,0,0,-1,1084,1086,0,0
-133,-62,0,0,0,0,0,0,0,0,0,-1,1091,1086,0,0
-126,-62,0,0,0,0,0,0,0,0,0,-1,1098,1086,0,0
-119,-62,0,0,0,0,0,0,0,0,0,-1,1105,1086,0,0
-112,-62,0,0,0,0,0,0,0,0,0,-1,1112,1086,0,0
-105,-62,0,0,0,0,0,0,0,0,0,-1,1119,1086,0,0
-98,-62,0,0,0,0,0,0,0,0,0,-1,1126,1086,0,0
-91,-62,0,0,0,0,0,0,0,0,0,-1,1133,1086,0,0
-84,-62,0,0,0,0,0,0,0,0,0,-1,1140,1086,0,0
-77,-62,0,0,0,0,0,0,0,0,0,-1,1147,1086,0,0
-70,-62,0,0,0,0,0,0,0,0,0,-1,1154,1086,0,0
-63,-62,0,0,0,0,0,0,0,0,0,-1,1161,1086,0,0
-56,-62,0,0,0,0,0,0,0,0,0,-1,1168,1086,0,0
-49,-62,0,0,0,0,0,0,0,0,0,-1,1175,1086,0,0
-42,-62,0,0,0,0,0,0,0,0,0,-1,1182,1086,0,0
-35,-62,0,0,0,0,0,0,0,0,0,-1,1189,1086,0,0
-28,-62,0,0,0,0,0,0,0,0,0,-1,1196,1086,0,0
-21,-62,0,0,0,0,0,0,0,0,0,-1,1203,1086,0,0
-14,-62,0,0,0,0,0,0,0,0,0,-1,1210,1086,0,0
-7,-62,0,0,0,0,0,0,0,0,0,-1,1217,1086,0,0
0,-62,0,0,0,0,0,0,0,0,0,-1,1224,1086,0,0
7,-62,0,0,0,0,0,0,0,0,0,-1,1231,1086,0,0
14,-62,0,0,0,0,0,0,0,0,0,-1,1238,1086,0,0
21,-62,0,0,0,0,0,0,0,0,0,-1,1245,1086,0,0
28,-62,0,0,0,0,0,0,0,0,0,-1,1252,1086,0,0
35,-62,0,0,0,0,0,0,0,0,0,-1,1259,1086,0,0
42,-62,0,0,0,0,0,0,0,0,0,-1,1266,1086,0,0
49,-62,0,0,0,0,0,0,0,0,0,-1,1273,1086,0,0
56,-62,0,0,0,0,0,0,0,0,0,-1,1280,1086,0,0
63,-62,0,0,0,0,0,0,0,0,0,-1,1287,1086,0,0
70,-62,0,0,0,0,0,0,0,0,0,-1,1294,1086,0,0
77,-62,0,0,0,0,0,0,0,0,0,-1,1301,1086,0,0
84,-62,0,0,0,0,0,0,0,0,0,-1,1308,1086,0,0
91,-62,0,0,0,0,0,0,0,0,0,-1,1315,1086,0,0
98,-62,0,0,0,0,0,0,0,0,0,-1,1322,1086,0,0
105,-62,0,0,0,0,0,0,0,0,0,-1,1329,1086,0,0
112,-62,0,0,0,0,0,0,0,0,0,-1,1336,1086,0,0
119,-62,0,0,0,0,0,0,0,0,0,-1,1343,1086,0,0
126,-62,0,0,0,0,0,0,0,0,0,-1,1350,1086,0,0
133,-62,0,0,0,0,0,0,0,0,0,-1,1357,1086,0,0
140,-62,0,0,0,0,0,0,0,0,0,-1,1364,1086,0,0
147,-62,0,0,0,0,0,0,0,0,0,-1,1371,1086,0,0
154,-62,0,0,0,0,0,0,0,0,0,-1,1378,1086,0,0
161,-62,0,0,0,0,0,0,0,0,0,-1,1385,1086,0,0
168,-62,0,0,0,0,0,0,0,0,0,-1,1392,1086,0,0
175,-62,0,0,0,0,0,0,0,0,0,-1,1399,1086,0,0
182,-62,0,0,0,0,0,0,0,0,0,-1,1406,1086,0,0
189,-62,0,0,0,0,0,0,0,0,0,-1,1413,1086,0,0
196,-62,0,0,0,0,0,0,0,0,0,-1,1420,1086,0,0
203,-62,0,0,0,0,0,0,0,0,0,-1,1427,1086,0,0
210,-62,0,0,0,0,0,0,0,0,0,-1,1434,1086,0,0
217,-62,0,0,0,0,0,0,0,0,0,-1,1441,1086,0,0
224,-62,0,0,0,0,0,0,0,0,0,-1,1448,1086,0,0
231,-62,0,0,0,0,0,0,0,0,0,-1,1455,1086,0,0
238,-62,0,0,0,0,0,0,0,0,0,-1,1462,1086,0,0
245,-62,0,0,0,0,0,0,0,0,0,-1,1469,1086,0,0
252,-62,0,0,0,0,0,0,0,0,0,-1,1476,1086,0,0
259,-62,0,0,0,0,0,0,0,0,0,-1,1483,1086,0,0
266,-62,0,0,0,0,0,0,0,0,0,-1,1490,1086,0,0
273,-62,0,0,0,0,0,0,0,0,0,-1,1497,1086,0,0
280,-62,0,0,0,0,0,0,0,0,0,-1,1504,1086,0,0
287,-62,0,0,0,0,0,0,0,0,0,-1,1511,1086,0,0
294,-62,0,0,0,0,0,0,0,0,0,-1,1518,1086,0,0
301,-62,0,0,0,0,0,0,0,0,0,-1,1525,1086,0,0
308,-62,0,0,0,0,0,0,0,0,0,-1,1532,1086,0,0
315,-62,0,0,0,0,0,0,0,0,0,-1,1539,1086,0,0
322,-62,0,0,0,0,0,0,0,0,0,-1,1546,1086,0,0
329,-62,0,0,0,0,0,0,0,0,0,-1,1553,1086,0,0
336,-62,0,0,0,0,0,0,0,0,0,-1,1560,1086,0,0
343,-62,0,0,0,0,0,0,0,0,0,-1,1567,1086,0,0
350,-62,0,0,0,0,0,0,0,0,0,-1,1574,1086,0,0
357,-62,0,0,0,0,0,0,0,0,0,-1,1581,1086,0,0
364,-62,0,0,0,0,0,0,0,0,0,-1,1588,1086,0,0
371,-62,0,0,0,0,0,0,0,0,0,-1,1595,1086,0,0
378,-62,0,0,0,0,0,0,0,0,0,-1,1602,1086,0,0
385,-62,0,0,0,0,0,0,0,0,0,-1,1609,1086,0,0
392,-62,0,0,0,0,0,0,0,0,0,-1,1616,1086,0,0
399,-62,0,0,0,0,0,0,0,0,0,-1,1623,1086,0,0
406,-62,0,0,0,0,0,0,0,0,0,-1,1630,1086,0,0
413,-62,0,0,0,0,0,0,0,0,0,-1,1637,1086,0,0
420,-62,0,0,0,0,0,0,0,0,0,-1,1644,1086,0,0
427,-62,0,0,0,0,0,0,0,0,0,-1,1651,1086,0,0
434,-62,0,0,0,0,0,0,0,0,0,-1,1658,1086,0,0
441,-62,0,0,0,0,0,0,0,0,0,-1,1665,1086,0,0
448,-62,0,0,0,0,0,0,0,0,0,-1,1672,1086,0,0
455,-62,0,0,0,0,0,0,0,0,0,-1,1679,1086,0,0
462,-62,0,0,0,0,0,0,0,0,0,-1,1686,1086,0,0
469,-62,0,0,0,0,0,0,0,0,0,-1,1693,1086,0,0
476,-62,0,0,0,0,0,0,0,0,0,-1,1700,1086,0,0
483,-62,0,0,0,0,0,0,0,0,0,-1,1707,1086,0,0
490,-62,0,0,0,0,0,0,0,0,0,-1,1714,1086,0,0
497,-62,0,0,0,0,0,0,0,0,0,-1,1721,1086,0,0
504,-62,0,0,0,0,0,0,0,0,0,-1,1728,1086,0,0
511,-62,0,0,0,0,0,0,0,0,0,-1,1735,1086,0,0
518,-62,0,0,0,0,0,0,0,0,0,-1,1742,1086,0,0
525,-62,0,0,0,0,0,0,0,0,0,-1,1749,1086,0,0
532,-62,0,0,0,0,0,0,0,0,0,-1,1756,1086,0,0
539,-62,0,0,0,0,0,0,0,0,0,-1,1763,1086,0,0
546,-62,0,0,0,0,0,0,0,0,0,-1,1770,1086,0,0
553,-62,0,0,0,0,0,0,0,0,0,-1,1777,1086,0,0
560,-62,0,0,0,0,0,0,0,0,0,-1,1784,1086,0,0
567,-62,0,0,0,0,0,0,0,0,0,-1,1791,1086,0,0
574,-62,0,0,0,0,0,0,0,0,0,-1,1798,1086,0,0
581,-62,0,0,0,0,0,0,0,0,0,-1,1805,1086,0,0
588,-62,0,0,0,0,0,0,0,0,0,-1,1812,1086,0,0
595,-62,0,0,0,0,0,0,0,0,0,-1,1819,1086,0,0
602,-62,0,0,0,0,0,0,0,0,0,-1,1826,1086,0,0
609,-62,0,0,0,0,0,0,0,0,0,-1,1833,1086,0,0
616,-62,0,0,0,0,0,0,0,0,0,-1,1840,1086,0,0
623,-62,0,0,0,0,0,0,0,0,0,-1,1847,1086,0,0
630,-62,0,0,0,0,0,0,0,0,0,-1,1854,1086,0,0
637,-62,0,0,0,0,0,0,0,0,0,-1,1861,1086,0,0
644,-62,0,0,0,0,0,0,0,0,0,-1,1868,1086,0,0
651,-62,75.7295,2.375,0.00119028,-0.00293852,0.000346006,0.00121907,-0.00296732,0.0830312,0.00248627,0.0405738,1875,1086,75.7295,-2.37494
658,-62,75.8352,2.1936,0.00102925,-0.00211457,0.000709935,0.00118213,-0.00226745,0.212108,0.00202421,0.0400718,1882,1086,75.8352,-2.19355
665,-62,75.8245,2.38599,0.000810721,-0.00149888,0.000913903,0.0011286,-0.00181676,0.334736,0.0017159,0.037648,1889,1086,75.8244,-2.38596
672,-62,75.725,2.39832,0.000629142,-0.000913021,0.000982501,0.00110701,-0.00139089,0.452692,0.00144526,0.0357741,1896,1086,75.725,-2.39836
679,-62,75.7888,2.28125,0.000431489,-0.000385375,0.000964417,0.0010704,-0.00102428,0.585098,0.00120946,0.0342383,1903,1086,75.7888,-2.28128
686,-62,75.8617,2.36401,-3.10506e-05,-0.000268194,0.000879119,0.000737457,-0.0010367,0.718365,0.00102916,0.0351006,1910,1086,75.8617,-2.36403
693,-62,75.7448,2.47913,-0.000437452,-0.000401528,0.000952037,0.000532717,-0.0013717,0.794831,0.00113452,0.0355421,1917,1086,75.7447,-2.47918
700,-62,75.7531,2.40283,-0.000687421,-0.000425092,0.00114216,0.000593415,-0.00170593,0.842567,0.00137835,0.0307452,1924,1086,75.7531,-2.40288
707,-62,75.7383,2.37048,-0.00118473,-0.000286469,0.00147681,0.000807993,-0.0022792,0.933016,0.00184862,0.0220003,1931,1086,75.7383,-2.37054
714,-62,75.7672,2.29126,-0.00180881,5.32388e-05,0.00175559,0.0011094,-0.00286497,1.0292,0.00236804,0.039254,1938,1086,75.7672,-2.29124
721,-62,75.7711,2.15723,0,0,0,0,0,0,0,-1,1945,1086,75.7712,-2.15721
728,-62,73.5482,8.74036,0,0,0,0,0,0,0,-1,1952,1086,73.5482,-8.74034
735,-62,73.4683,8.16687,-0.00455415,0.00234319,0.00244578,0.00312242,-0.00533338,1.26236,0.00493727,0.0330471,1959,1086,73.4683,-8.16686
742,-62,73.413,7.78406,-0.00577053,0.003589,0.00278155,0.00435324,-0.00653478,1.30266,0.00632812,0.033913,1966,1086,73.413,-7.78407
749,-62,73.3944,7.33411,-0.00726752,0.0045936,0.00284335,0.00523999,-0.00791391,1.34726,0.00764653,0.0248856,1973,1086,73.3944,-7.3341
756,-62,73.2908,6.93347,-0.00858527,0.00653206,0.00206775,0.00680979,-0.00886299,1.43728,0.00907453,0.015881,1980,1086,73.2909,-6.93343
763,-62,73.2244,6.45459,-0.0102829,0.00948729,6.01408e-05,0.00948747,-0.0102831,1.56775,0.0114176,0.0195039,1987,1086,73.2243,-6.45459
770,-62,73.1462,5.96875,-0.012435,0.0129452,-0.00290323,0.0132731,-0.0127628,-1.45834,0.0150328,0.0180648,1994,1086,73.1463,-5.96872
777,-62,72.9761,5.49365,-0.0145434,0.0170723,-0.00765814,0.0188296,-0.0163007,-1.34523,0.0203,0.0180587,2001,1086,72.976,-5.49369
784,-62,72.9097,5.09595,-0.0164152,0.0213621,-0.0138046,0.0258689,-0.020922,-1.25523,0.027065,0.0279044,2008,1086,72.9097,-5.096
791,-62,72.8259,4.88062,-0.0179794,0.0259589,-0.0218246,0.0349568,-0.0269773,-1.17975,0.0358564,0.0439867,2015,1086,72.826,-4.88066
798,-62,72.7803,4.58521,0,0,0,0,0,0,0,-1,2022,1086,72.7802,-4.58516
805,-62,73.7849,5.25244,-0.0187508,0.0370084,-0.0461422,0.0630395,-0.044782,-1.05715,0.0625476,0.0440931,2029,1086,73.785,-5.25242
812,-62,74.48,4.05029,-0.017319,0.044437,-0.063661,0.0843134,-0.0571954,-1.0112,0.0821986,0.0446175,2036,1086,74.4799,-4.05028
-700,-69,-59.7918,-5.1864,0,0,0,0,0,0,0,-1,524,1093,-59.7918,5.18634
-693,-69,-59.0265,-3.51233,0,0,0,0,0,0,0,-1,531,1093,-59.0265,3.51228
-686,-69,-58.4359,-2.17468,0,0,0,0,0,0,0,-1,538,1093,-58.4359,2.17464
-679,-69,-58.6721,-0.594238,0,0,0,0,0,0,0,-1,545,1093,-58.6721,0.594193
-672,-69,-58.8005,0.983398,0,0,0,0,0,0,0,-1,552,1093,-58.8005,-0.983359
-665,-69,-56.2058,0.667358,0,0,0,0,0,0,0,-1,559,1093,-56.2058,-0.667414
-658,-69,-55.6333,2.0238,0,0,0,0,0,0,0,-1,566,1093,-55.6333,-2.02378
-651,-69,-55.8527,3.82422,0,0,0,0,0,0,0,-1,573,1093,-55.8526,-3.82421
-644,-69,-56.8376,4.24878,-0.0123036,0.0249429,0.00663033,0.026088,-0.0134486,1.39978,0.023212,0.0487966,580,1093,-56.8376,-4.24873
-637,-69,-57.0923,4.74731,-0.00986645,0.017687,0.00338447,0.0180967,-0.0102761,1.45035,0.0165872,0.0205979,587,1093,-57.0923,-4.74733
-630,-69,-57.1317,5.20557,-0.00711845,0.0112161,0.000772532,0.0112486,-0.00715094,1.52876,0.0107104,0.0158725,594,1093,-57.1316,-5.20561
-623,-69,-57.1407,5.67896,-0.00413702,0.00534379,-0.00133764,0.00552891,-0.00432213,-1.43328,0.00570171,0.0205437,601,1093,-57.1407,-5.67901
-616,-69,-57.157,6.17224,-0.000983692,-8.4751e-05,-0.00306066,0.00255927,-0.00362771,-0.858304,0.00358976,0.0259512,608,1093,-57.157,-6.1722
-609,-69,-57.1763,6.65967,0.00238919,-0.00480334,-0.0043269,0.00441922,-0.00683337,-0.438677,0.00654633,0.0224239,615,1093,-57.1763,-6.65965
-602,-69,-57.1205,7.17419,0.00593198,-0.00934969,-0.00531468,0.00759857,-0.0110163,-0.303871,0.0108075,0.0213132,622,1093,-57.1205,-7.17422
-595,-69,-57.0162,7.49524,0.00955581,-0.0137051,-0.00559159,0.0108301,-0.0149794,-0.224073,0.0149652,0.0472113,629,1093,-57.0162,-7.49528
-588,-69,-57.0566,7.65369,0,0,0,0,0,0,0,-1,636,1093,-57.0566,-7.65373
-581,-69,-58.9317,0.177734,0,0,0,0,0,0,0,-1,643,1093,-58.9317,-0.177782
-574,-69,-59.0239,0.217041,0,0,0,0,0,0,0,-1,650,1093,-59.0239,-0.216985
-567,-69,-59.137,0.205444,0,0,0,0,0,0,0,-1,657,1093,-59.1369,-0.205461
-560,-69,-59.0838,0.119751,0,0,0,0,0,0,0,-1,664,1093,-59.0838,-0.119695
-553,-69,-58.9969,0.104614,0,0,0,0,0,0,0,-1,671,1093,-58.9969,-0.104619
-546,-69,-58.9518,0.126343,0,0,0,0,0,0,0,-1,678,1093,-58.9518,-0.126378
-539,-69,-59.02,0.120728,0,0,0,0,0,0,0,-1,685,1093,-59.02,-0.12078
-532,-69,-58.9091,0.170898,0,0,0,0,0,0,0,-1,692,1093,-58.9091,-0.17091
-525,-69,0,0,0,0,0,0,0,0,0,-1,699,1093,0,0
-518,-69,0,0,0,0,0,0,0,0,0,-1,706,1093,0,0
-511,-69,0,0,0,0,0,0,0,0,0,-1,713,1093,0,0
-504,-69,0,0,0,0,0,0,0,0,0,-1,720,1093,0,0
-497,-69,0,0,0,0,0,0,0,0,0,-1,727,1093,0,0
-490,-69,0,0,0,0,0,0,0,0,0,-1,734,1093,0,0
-483,-69,0,0,0,0,0,0,0,0,0,-1,741,1093,0,0
-476,-69,0,0,0,0,0,0,0,0,0,-1,748,1093,0,0
-469,-69,0,0,0,0,0,0,0,0,0,-1,755,1093,0,0
-462,-69,0,0,0,0,0,0,0,0,0,-1,762,1093,0,0
-455,-69,0,0,0,0,0,0,0,0,0,-1,769,1093,0,0
-448,-69,0,0,0,0,0,0,0,0,0,-1,776,1093,0,0
-441,-69,0,0,0,0,0,0,0,0,0,-1,783,1093,0,0
-434,-69,0,0,0,0,0,0,0,0,0,-1,790,1093,0,0
-427,-69,0,0,0,0,0,0,0,0,0,-1,797,1093,0,0
-420,-69,0,0,0,0,0,0,0,0,0,-1,804,1093,0,0
-413,-69,0,0,0,0,0,0,0,0,0,-1,811,1093,0,0
-406,-69,0,0,0,0,0,0,0,0,0,-1,818,1093,0,0
-399,-69,0,0,0,0,0,0,0,0,0,-1,825,1093,0,0
-392,-69,0,0,0,0,0,0,0,0,0,-1,832,1093,0,0
-385,-69,0,0,0,0,0,0,0,0,0,-1,839,1093,0,0
-378,-69,0,0,0,0,0,0,0,0,0,-1,846,1093,0,0
-371,-69,0,0,0,0,0,0,0,0,0,-1,853,1093,0,0
-364,-69,0,0,0,0,0,0,0,0,0,-1,860,1093,0,0
-357,-69,0,0,0,0,0,0,0,0,0,-1,867,1093,0,0
-350,-69,0,0,0,0,0,0,0,0,0,-1,874,1093,0,0
-343,-69,0,0,0,0,0,0,0,0,0,-1,881,1093,0,0
-336,-69,0,0,0,0,0,0,0,0,0,-1,888,1093,0,0
-329,-69,0,0,0,0,0,0,0,0,0,-1,895,1093,0,0
-322,-69,0,0,0,0,0,0,0,0,0,-1,902,1093,0,0
-315,-69,0,0,0,0,0,0,0,0,0,-1,909,1093,0,0
-308,-69,0,0,0,0,0,0,0,0,0,-1,916,1093,0,0
-301,-69,0,0,0,0,0,0,0,0,0,-1,923,1093,0,0
-294,-69,0,0,0,0,0,0,0,0,0,-1,930,1093,0,0
-287,-69,0,0,0,0,0,0,0,0,0,-1,937,1093,0,0
-280,-69,0,0,0,0,0,0,0,0,0,-1,944,1093,0,0
-273,-69,0,0,0,0,0,0,0,0,0,-1,951,1093,0,0
-266,-69,0,0,0,0,0,0,0,0,0,-1,958,1093,0,0
-259,-69,0,0,0,0,0,0,0,0,0,-1,965,1093,0,0
-252,-69,0,0,0,0,0,0,0,0,0,-1,972,1093,0,0
-245,-69,0,0,0,0,0,0,0,0,0,-1,979,1093,0,0
-238,-69,0,0,0,0,0,0,0,0,0,-1,986,1093,0,0
-231,-69,0,0,0,0,0,0,0,0,0,-1,993,1093,0,0
-224,-69,0,0,0,0,0,0,0,0,0,-1,1000,1093,0,0
-217,-69,0,0,0,0,0,0,0,0,0,-1,1007,1093,0,0
-210,-69,0,0,0,0,0,0,0,0,0,-1,1014,1093,0,0
-203,-69,0,0,0,0,0,0,0,0,0,-1,1021,1093,0,0
-196,-69,0,0,0,0,0,0,0,0,0,-1,1028,1093,0,0
-189,-69,0,0,0,0,0,0,0,0,0,-1,1035,1093,0,0
-182,-69,0,0,0,0,0,0,0,0,0,-1,1042,1093,0,0
-175,-69,0,0,0,0,0,0,0,0,0,-1,1049,1093,0,0
-168,-69,0,0,0,0,0,0,0,0,0,-1,1056,1093,0,0
-161,-69,0,0,0,0,0,0,0,0,0,-1,1063,1093,0,0
-154,-69,0,0,0,0,0,0,0,0,0,-1,1070,1093,0,0
-147,-69,0,0,0,0,0,0,0,0,0,-1,1077,1093,0,0
-140,-69,0,0,0,0,0,0,0,0,0,-1,1084,1093,0,0
-133,-69,0,0,0,0,0,0,0,0,0,-1,1091,1093,0,0
-126,-69,0,0,0,0,0,0,0,0,0,-1,1098,1093,0,0
-119,-69,0,0,0,0,0,0,0,0,0,-1,1105,1093,0,0
-112,-69,0,0,0,0,0,0,0,0,0,-1,1112,1093,0,0
-105,-69,0,0,0,0,0,0,0,0,0,-1,1119,1093,0,0
-98,-69,0,0,0,0,0,0,0,0,0,-1,1126,1093,0,0
-91,-69,0,0,0,0,0,0,0,0,0,-1,1133,1093,0,0
-84,-69,0,0,0,0,0,0,0,0,0,-1,1140,1093,0,0
-77,-69,0,0,0,0,0,0,0,0,0,-1,1147,1093,0,0
-70,-69,0,0,0,0,0,0,0,0,0,-1,1154,1093,0,0
-63,-69,0,0,0,0,0,0,0,0,0,-1,1161,1093,0,0
-56,-69,0,0,0,0,0,0,0,0,0,-1,1168,1093,0,0
-49,-69,0,0,0,0,0,0,0,0,0,-1,1175,1093,0,0
-42,-69,0,0,0,0,0,0,0,0,0,-1,1182,1093,0,0
-35,-69,0,0,0,0,0,0,0,0,0,-1,1189,1093,0,0
-28,-69,0,0,0,0,0,0,0,0,0,-1,1196,1093,0,0
-21,-69,0,0,0,0,0,0,0,0,0,-1,1203,1093,0,0
-14,-69,0,0,0,0,0,0,0,0,0,-1,1210,1093,0,0
-7,-69,0,0,0,0,0,0,0,0,0,-1,1217,1093,0,0
0,-69,0,0,0,0,0,0,0,0,0,-1,1224,1093,0,0
7,-69,0,0,0,0,0,0,0,0,0,-1,1231,1093,0,0
14,-69,0,0,0,0,0,0,0,0,0,-1,1238,1093,0,0
21,-69,0,0,0,0,0,0,0,0,0,-1,1245,1093,0,0
28,-69,0,0,0,0,0,0,0,0,0,-1,1252,1093,0,0
35,-69,0,0,0,0,0,0,0,0,0,-1,1259,1093,0,0
42,-69,0,0,0,0,0,0,0,0,0,-1,1266,1093,0,0
49,-69,0,0,0,0,0,0,0,0,0,-1,1273,1093,0,0
56,-69,0,0,0,0,0,0,0,0,0,-1,1280,1093,0,0
63,-69,0,0,0,0,0,0,0,0,0,-1,1287,1093,0,0
70,-69,0,0,0,0,0,0,0,0,0,-1,1294,1093,0,0
77,-69,0,0,0,0,0,0,0,0,0,-1,1301,1093,0,0
84,-69,0,0,0,0,0,0,0,0,0,-1,1308,1093,0,0
91,-69,0,0,0,0,0,0,0,0,0,-1,1315,1093,0,0
98,-69,0,0,0,0,0,0,0,0,0,-1,1322,1093,0,0
105,-69,0,0,0,0,0,0,0,0,0,-1,1329,1093,0,0
112,-69,0,0,0,0,0,0,0,0,0,-1,1336,1093,0,0
119,-69,0,0,0,0,0,0,0,0,0,-1,1343,1093,0,0
126,-69,0,0,0,0,0,0,0,0,0,-1,1350,1093,0,0
133,-69,0,0,0,0,0,0,0,0,0,-1,1357,1093,0,0
140,-69,0,0,0,0,0,0,0,0,0,-1,1364,1093,0,0
147,-69,0,0,0,0,0,0,0,0,0,-1,1371,1093,0,0
154,-69,0,0,0,0,0,0,0,0,0,-1,1378,1093,0,0
161,-69,0,0,0,0,0,0,0,0,0,-1,1385,1093,0,0
168,-69,0,0,0,0,0,0,0,0,0,-1,1392,1093,0,0
175,-69,0,0,0,0,0,0,0,0,0,-1,1399,1093,0,0
182,-69,0,0,0,0,0,0,0,0,0,-1,1406,1093,0,0
189,-69,0,0,0,0,0,0,0,0,0,-1,1413,1093,0,0
196,-69,0,0,0,0,0,0,0,0,0,-1,1420,1093,0,0
203,-69,0,0,0,0,0,0,0,0,0,-1,1427,1093,0,0
210,-69,0,0,0,0,0,0,0,0,0,-1,1434,1093,0,0
217,-69,0,0,0,0,0,0,0,0,0,-1,1441,1093,0,0
224,-69,0,0,0,0,0,0,0,0,0,-1,1448,1093,0,0
231,-69,0,0,0,0,0,0,0,0,0,-1,1455,1093,0,0
238,-69,0,0,0,0,0,0,0,0,0,-1,1462,1093,0,0
245,-69,0,0,0,0,0,0,0,0,0,-1,1469,1093,0,0
252,-69,0,0,0,0,0,0,0,0,0,-1,1476,1093,0,0
259,-69,0,0,0,0,0,0,0,0,0,-1,1483,1093,0,0
266,-69,0,0,0,0,0,0,0,0,0,-1,1490,1093,0,0
273,-69,0,0,0,0,0,0,0,0,0,-1,1497,1093,0,0
280,-69,0,0,0,0,0,0,0,0,0,-1,1504,1093,0,0
287,-69,0,0,0,0,0,0,0,0,0,-1,1511,1093,0,0
294,-69,0,0,0,0,0,0,0,0,0,-1,1518,1093,0,0
301,-69,0,0,0,0,0,0,0,0,0,-1,1525,1093,0,0
308,-69,0,0,0,0,0,0,0,0,0,-1,1532,1093,0,0
315,-69,0,0,0,0,0,0,0,0,0,-1,1539,1093,0,0
322,-69,0,0,0,0,0,0,0,0,0,-1,1546,1093,0,0
329,-69,0,0,0,0,0,0,0,0,0,-1,1553,1093,0,0
336,-69,0,0,0,0,0,0,0,0,0,-1,1560,1093,0,0
343,-69,0,0,0,0,0,0,0,0,0,-1,1567,1093,0,0
350,-69,0,0,0,0,0,0,0,0,0,-1,1574,1093,0,0
357,-69,0,0,0,0,0,0,0,0,0,-1,1581,1093,0,0
364,-69,0,0,0,0,0,0,0,0,0,-1,1588,1093,0,0
371,-69,0,0,0,0,0,0,0,0,0,-1,1595,1093,0,0
378,-69,0,0,0,0,0,0,0,0,0,-1,1602,1093,0,0
385,-69,0,0,0,0,0,0,0,0,0,-1,1609,1093,0,0
392,-69,0,0,0,0,0,0,0,0,0,-1,1616,1093,0,0
399,-69,0,0,0,0,0,0,0,0,0,-1,1623,1093,0,0
406,-69,0,0,0,0,0,0,0,0,0,-1,1630,1093,0,0
413,-69,0,0,0,0,0,0,0,0,0,-1,1637,1093,0,0
420,-69,0,0,0,0,0,0,0,0,0,-1,1644,1093,0,0
427,-69,0,0,0,0,0,0,0,0,0,-1,1651,1093,0,0
434,-69,0,0,0,0,0,0,0,0,0,-1,1658,1093,0,0
441,-69,0,0,0,0,0,0,0,0,0,-1,1665,1093,0,0
448,-69,0,0,0,0,0,0,0,0,0,-1,1672,1093,0,0
455,-69,0,0,0,0,0,0,0,0,0,-1,1679,1093,0,0
462,-69,0,0,0,0,0,0,0,0,0,-1,1686,1093,0,0
469,-69,0,0,0,0,0,0,0,0,0,-1,1693,1093,0,0
476,-69,0,0,0,0,0,0,0,0,0,-1,1700,1093,0,0
483,-69,0,0,0,0,0,0,0,0,0,-1,1707,1093,0,0
490,-69,0,0,0,0,0,0,0,0,0,-1,1714,1093,0,0
497,-69,0,0,0,0,0,0,0,0,0,-1,1721,1093,0,0
504,-69,0,0,0,0,0,0,0,0,0,-1,1728,1093,0,0
511,-69,0,0,0,0,0,0,0,0,0,-1,1735,1093,0,0
518,-69,0,0,0,0,0,0,0,0,0,-1,1742,1093,0,0
525,-69,0,0,0,0,0,0,0,0,0,-1,1749,1093,0,0
532,-69,0,0,0,0,0,0,0,0,0,-1,1756,1093,0,0
539,-69,0,0,0,0,0,0,0,0,0,-1,1763,1093,0,0
546,-69,0,0,0,0,0,0,0,0,0,-1,1770,1093,0,0
553,-69,0,0,0,0,0,0,0,0,0,-1,1777,1093,0,0
560,-69,0,0,0,0,0,0,0,0,0,-1,1784,1093,0,0
567,-69,0,0,0,0,0,0,0,0,0,-1,1791,1093,0,0
574,-69,0,0,0,0,0,0,0,0,0,-1,1798,1093,0,0
581,-69,0,0,0,0,0,0,0,0,0,-1,1805,1093,0,0
588,-69,0,0,0,0,0,0,0,0,0,-1,1812,1093,0,0
595,-69,0,0,0,0,0,0,0,0,0,-1,1819,1093,0,0
602,-69,0,0,0,0,0,0,0,0,0,-1,1826,1093,0,0
609,-69,0,0,0,0,0,0,0,0,0,-1,1833,1093,0,0
616,-69,0,0,0,0,0,0,0,0,0,-1,1840,1093,0,0
623,-69,0,0,0,0,0,0,0,0,0,-1,1847,1093,0,0
630,-69,0,0,0,0,0,0,0,0,0,-1,1854,1093,0,0
637,-69,0,0,0,0,0,0,0,0,0,-1,1861,1093,0,0
644,-69,0,0,0,0,0,0,0,0,0,-1,1868,1093,0,0
651,-69,75.6453,2.23657,0.00273665,-0.00299369,-6.10038e-05,0.00273729,-0.00299434,-0.0106441,0.00331027,0.0391635,1875,1093,75.6452,-2.23659
658,-69,75.7104,2.03357,0.00210691,-0.00215297,0.000394979,0.00214323,-0.00218928,0.0916791,0.00250142,0.0428459,1882,1093,75.7105,-2.03359
665,-69,75.8145,2.22705,0.00157438,-0.00152665,0.000672756,0.00171404,-0.00166631,0.204689,0.00195171,0.0408065,1889,1093,75.8145,-2.22699
672,-69,75.756,2.45215,0.00115772,-0.000951961,0.000790527,0.00142107,-0.00121531,0.321567,0.00152366,0.0374767,1896,1093,75.756,-2.45216
679,-69,75.8184,2.4519,0.00080644,-0.000475198,0.000815157,0.00120251,-0.000871264,0.452285,0.00120237,0.03621,1903,1093,75.8184,-2.45192
686,-69,75.8904,2.39465,0.000322468,-0.000369534,0.000750411,0.000802804,-0.00084987,0.569383,0.000954301,0.0356628,1910,1093,75.8904,-2.39469
693,-69,75.8248,2.32947,-6.67195e-05,-0.000532714,0.000836106,0.000568247,-0.00116768,0.649511,0.00102196,0.0333231,1917,1093,75.8249,-2.32946
700,-69,75.7585,2.28064,-0.000309354,-0.000577293,0.00102313,0.000588544,-0.00147519,0.720298,0.00122761,0.0277183,1924,1093,75.7586,-2.28066
707,-69,75.7395,2.3468,-0.000783536,-0.000465375,0.00135741,0.00074224,-0.00199115,0.843729,0.00163211,0.023774,1931,1093,75.7395,-2.34681
714,-69,75.7838,2.24353,-0.00137238,-0.000138612,0.001644,0.00100043,-0.00251142,0.964886,0.00208919,0.0389931,1938,1093,75.7838,-2.24353
721,-69,75.7953,2.06335,0,0,0,0,0,0,0,-1,1945,1093,75.7953,-2.06341
728,-69,72.5803,8.91223,0,0,0,0,0,0,0,-1,1952,1093,72.5804,-8.91224
735,-69,72.9451,8.32129,-0.00396495,0.00194326,0.00232131,0.00274618,-0.00476787,1.23779,0.00439027,0.0483584,1959,1093,72.9451,-8.32127
742,-69,72.835,7.94507,-0.00519364,0.00317483,0.00265716,0.00394724,-0.00596605,1.2879,0.00576287,0.0354966,1966,1093,72.8349,-7.94502
749,-69,72.6588,7.39099,-0.0067485,0.00424408,0.00267216,0.00485923,-0.00736365,1.34453,0.00710609,0.035932,1973,1093,72.6588,-7.39096
756,-69,72.7371,6.92554,-0.00823266,0.00619253,0.00187368,0.00643193,-0.00847205,1.44372,0.00863165,0.017835,1980,1093,72.7371,-6.92555
763,-69,72.6895,6.42297,-0.0101874,0.00911131,-0.000217781,0.00911376,-0.0101899,-1.55951,0.0111507,0.0209526,1987,1093,72.6894,-6.42293
770,-69,72.5591,5.97144,-0.0127029,0.0126036,-0.00335561,0.013041,-0.0131403,-1.44118,0.0151158,0.0229878,1994,1093,72.559,-5.97143
777,-69,72.3904,5.54297,-0.0152805,0.0167217,-0.0083063,0.0187492,-0.0173079,-1.33139,0.0208231,0.0279996,2001,1093,72.3904,-5.54297
784,-69,72.3726,4.92004,-0.0177031,0.0209863,-0.0146929,0.0259336,-0.0226503,-1.24601,0.0280713,0.0346136,2008,1093,72.3726,-4.92005
791,-69,72.4749,4.36841,-0.0199141,0.025517,-0.0230294,0.0351488,-0.0295459,-1.17467,0.0373981,0.0453367,2015,1093,72.4749,-4.3684
798,-69,71.2158,3.01111,-0.0216767,0.0304331,-0.0340096,0.0472211,-0.0384647,-1.11226,0.0495568,0.0451124,2022,1093,71.2158,-3.0111
805,-69,70.6289,2.69958,0,0,0,0,0,0,0,-1,2029,1093,70.629,-2.69964
812,-69,69.2124,2.22815,0,0,0,0,0,0,0,-1,2036,1093,69.2124,-2.22818
-700,-76,0,0,0,0,0,0,0,0,0,-1,524,1100,0,0
-693,-76,-52.4576,-3.34009,0,0,0,0,0,0,0,-1,531,1100,-52.4576,3.34008
-686,-76,-58.4082,-1.75012,0,0,0,0,0,0,0,-1,538,1100,-58.4082,1.75015
-679,-76,-58.6841,-0.268433,0,0,0,0,0,0,0,-1,545,1100,-58.6841,0.268455
-672,-76,-58.7924,1.30518,0,0,0,0,0,0,0,-1,552,1100,-58.7924,-1.30519
-665,-76,-55.8329,0.884644,0,0,0,0,0,0,0,-1,559,1100,-55.8329,-0.884611
-658,-76,-55.1025,2.12158,0,0,0,0,0,0,0,-1,566,1100,-55.1025,-2.12162
-651,-76,-55.1196,3.9519,0,0,0,0,0,0,0,-1,573,1100,-55.1196,-3.95193
-644,-76,-56.1066,4.22107,-0.0115327,0.0205774,0.00529241,0.0214272,-0.0123825,1.41158,0.0197515,0.0476945,580,1100,-56.1066,-4.22102
-637,-76,-56.4322,4.63721,-0.00941236,0.0146074,0.00240782,0.0148464,-0.00965135,1.47186,0.0142494,0.0257003,587,1100,-56.4322,-4.63724
-630,-76,-56.4843,5.13721,-0.0069607,0.00918928,0.00011582,0.00919011,-0.00696153,1.56363,0.00935469,0.0167642,594,1100,-56.4842,-5.13716
-623,-76,-56.5325,5.63623,-0.00424487,0.00418278,-0.00169959,0.00451262,-0.00457472,-1.37911,0.00524662,0.0222842,601,1100,-56.5325,-5.63623
-616,-76,-56.6059,6.20789,-0.00131635,-0.000530539,-0.00313958,0.00224062,-0.00408752,-0.847648,0.00370506,0.02333,608,1100,-56.6059,-6.20785
-609,-76,-56.636,6.72998,0.00187479,-0.0046723,-0.00412861,0.00387017,-0.00666768,-0.450203,0.00615508,0.0222309,615,1100,-56.636,-6.73004
-602,-76,-56.5526,7.28406,0.00528159,-0.00884828,-0.00481832,0.00676823,-0.0103349,-0.299273,0.00994583,0.0220407,622,1100,-56.5526,-7.28408
-595,-76,-56.5591,7.68042,0.00898356,-0.0128904,-0.00478744,0.00998547,-0.0138923,-0.206301,0.0138472,0.0424668,629,1100,-56.5591,-7.68039
-588,-76,-56.6884,7.98401,0,0,0,0,0,0,0,-1,636,1100,-56.6884,-7.98403
-581,-76,-58.9321,0.197021,0,0,0,0,0,0,0,-1,643,1100,-58.9321,-0.196978
-574,-76,-59.0034,0.071167,0,0,0,0,0,0,0,-1,650,1100,-59.0034,-0.0711082
-567,-76,-58.9824,-0.0161133,0,0,0,0,0,0,0,-1,657,1100,-58.9824,0.0160786
-560,-76,-58.8414,0.0953369,0,0,0,0,0,0,0,-1,664,1100,-58.8414,-0.0953616
-553,-76,-58.9285,0.0413818,0,0,0,0,0,0,0,-1,671,1100,-58.9286,-0.0413871
-546,-76,-58.9413,0.034668,0,0,0,0,0,0,0,-1,678,1100,-58.9413,-0.0346602
-539,-76,-58.9575,-0.0250244,0,0,0,0,0,0,0,-1,685,1100,-58.9575,0.0249766
-532,-76,-58.8691,0.166138,0,0,0,0,0,0,0,-1,692,1100,-58.8692,-0.166083
-525,-76,0,0,0,0,0,0,0,0,0,-1,699,1100,0,0
-518,-76,0,0,0,0,0,0,0,0,0,-1,706,1100,0,0
-511,-76,0,0,0,0,0,0,0,0,0,-1,713,1100,0,0
-504,-76,0,0,0,0,0,0,0,0,0,-1,720,1100,0,0
-497,-76,0,0,0,0,0,0,0,0,0,-1,727,1100,0,0
-490,-76,0,0,0,0,0,0,0,0,0,-1,734,1100,0,0
-483,-76,0,0,0,0,0,0,0,0,0,-1,741,1100,0,0
-476,-76,0,0,0,0,0,0,0,0,0,-1,748,1100,0,0
-469,-76,0,0,0,0,0,0,0,0,0,-1,755,1100,0,0
-462,-76,0,0,0,0,0,0,0,0,0,-1,762,1100,0,0
-455,-76,0,0,0,0,0,0,0,0,0,-1,769,1100,0,0
-448,-76,0,0,0,0,0,0,0,0,0,-1,776,1100,0,0
-441,-76,0,0,0,0,0,0,0,0,0,-1,783,1100,0,0
-434,-76,0,0,0,0,0,0,0,0,0,-1,790,1100,0,0
-427,-76,0,0,0,0,0,0,0,0,0,-1,797,1100,0,0
-420,-76,0,0,0,0,0,0,0,0,0,-1,804,1100,0,0
-413,-76,0,0,0,0,0,0,0,0,0,-1,811,1100,0,0
-406,-76,0,0,0,0,0,0,0,0,0,-1,818,1100,0,0
-399,-76,0,0,0,0,0,0,0,0,0,-1,825,1100,0,0
-392,-76,0,0,0,0,0,0,0,0,0,-1,832,1100,0,0
-385,-76,0,0,0,0,0,0,0,0,0,-1,839,1100,0,0
-378,-76,0,0,0,0,0,0,0,0,0,-1,846,1100,0,0
-371,-76,0,0,0,0,0,0,0,0,0,-1,853,1100,0,0
-364,-76,0,0,0,0,0,0,0,0,0,-1,860,1100,0,0
-357,-76,0,0,0,0,0,0,0,0,0,-1,867,1100,0,0
-350,-76,0,0,0,0,0,0,0,0,0,-1,874,1100,0,0
-343,-76,0,0,0,0,0,0,0,0,0,-1,881,1100,0,0
-336,-76,0,0,0,0,0,0,0,0,0,-1,888,1100,0,0
-329,-76,0,0,0,0,0,0,0,0,0,-1,895,1100,0,0
-322,-76,0,0,0,0,0,0,0,0,0,-1,902,1100,0,0
-315,-76,0,0,0,0,0,0,0,0,0,-1,909,1100,0,0
-308,-76,0,0,0,0,0,0,0,0,0,-1,916,1100,0,0
-301,-76,0,0,0,0,0,0,0,0,0,-1,923,1100,0,0
-294,-76,0,0,0,0,0,0,0,0,0,-1,930,1100,0,0
-287,-76,0,0,0,0,0,0,0,0,0,-1,937,1100,0,0
-280,-76,0,0,0,0,0,0,0,0,0,-1,944,1100,0,0
-273,-76,0,0,0,0,0,0,0,0,0,-1,951,1100,0,0
-266,-76,0,0,0,0,0,0,0,0,0,-1,958,1100,0,0
-259,-76,0,0,0,0,0,0,0,0,0,-1,965,1100,0,0
-252,-76,0,0,0,0,0,0,0,0,0,-1,972,1100,0,0
-245,-76,0,0,0,0,0,0,0,0,0,-1,979,1100,0,0
-238,-76,0,0,0,0,0,0,0,0,0,-1,986,1100,0,0
-231,-76,0,0,0,0,0,0,0,0,0,-1,993,1100,0,0
-224,-76,0,0,0,0,0,0,0,0,0,-1,1000,1100,0,0
-217,-76,0,0,0,0,0,0,0,0,0,-1,1007,1100,0,0
-210,-76,0,0,0,0,0,0,0,0,0,-1,1014,1100,0,0
-203,-76,0,0,0,0,0,0,0,0,0,-1,1021,1100,0,0
-196,-76,0,0,0,0,0,0,0,0,0,-1,1028,1100,0,0
-189,-76,0,0,0,0,0,0,0,0,0,-1,1035,1100,0,0
-182,-76,0,0,0,0,0,0,0,0,0,-1,1042,1100,0,0
-175,-76,0,0,0,0,0,0,0,0,0,-1,1049,1100,0,0
-168,-76,0,0,0,0,0,0,0,0,0,-1,1056,1100,0,0
-161,-76,0,0,0,0,0,0,0,0,0,-1,1063,1100,0,0
-154,-76,0,0,0,0,0,0,0,0,0,-1,1070,1100,0,0
-147,-76,0,0,0,0,0,0,0,0,0,-1,1077,1100,0,0
-140,-76,0,0,0,0,0,0,0,0,0,-1,1084,1100,0,0
-133,-76,0,0,0,0,0,0,0,0,0,-1,1091,1100,0,0
-126,-76,0,0,0,0,0,0,0,0,0,-1,1098,1100,0,0
-119,-76,0,0,0,0,0,0,0,0,0,-1,1105,1100,0,0
-112,-76,0,0,0,0,0,0,0,0,0,-1,1112,1100,0,0
-105,-76,0,0,0,0,0,0,0,0,0,-1,1119,1100,0,0
-98,-76,0,0,0,0,0,0,0,0,0,-1,1126,1100,0,0
-91,-76,0,0,0,0,0,0,0,0,0,-1,1133,1100,0,0
-84,-76,0,0,0,0,0,0,0,0,0,-1,1140,1100,0,0
-77,-76,0,0,0,0,0,0,0,0,0,-1,1147,1100,0,0
-70,-76,0,0,0,0,0,0,0,0,0,-1,1154,1100,0,0
-63,-76,0,0,0,0,0,0,0,0,0,-1,1161,1100,0,0
-56,-76,0,0,0,0,0,0,0,0,0,-1,1168,1100,0,0
-49,-76,0,0,0,0,0,0,0,0,0,-1,1175,1100,0,0
-42,-76,0,0,0,0,0,0,0,0,0,-1,1182,1100,0,0
-35,-76,0,0,0,0,0,0,0,0,0,-1,1189,1100,0,0
-28,-76,0,0,0,0,0,0,0,0,0,-1,1196,1100,0,0
-21,-76,0,0,0,0,0,0,0,0,0,-1,1203,1100,0,0
-14,-76,0,0,0,0,0,0,0,0,0,-1,1210,1100,0,0
-7,-76,0,0,0,0,0,0,0,0,0,-1,1217,1100,0,0
0,-76,0,0,0,0,0,0,0,0,0,-1,1224,1100,0,0
7,-76,0,0,0,0,0,0,0,0,0,-1,1231,1100,0,0
14,-76,0,0,0,0,0,0,0,0,0,-1,1238,1100,0,0
21,-76,0,0,0,0,0,0,0,0,0,-1,1245,1100,0,0
28,-76,0,0,0,0,0,0,0,0,0,-1,1252,1100,0,0
35,-76,0,0,0,0,0,0,0,0,0,-1,1259,1100,0,0
42,-76,0,0,0,0,0,0,0,0,0,-1,1266,1100,0,0
49,-76,0,0,0,0,0,0,0,0,0,-1,1273,1100,0,0
56,-76,0,0,0,0,0,0,0,0,0,-1,1280,1100,0,0
63,-76,0,0,0,0,0,0,0,0,0,-1,1287,1100,0,0
70,-76,0,0,0,0,0,0,0,0,0,-1,1294,1100,0,0
77,-76,0,0,0,0,0,0,0,0,0,-1,1301,1100,0,0
84,-76,0,0,0,0,0,0,0,0,0,-1,1308,1100,0,0
91,-76,0,0,0,0,0,0,0,0,0,-1,1315,1100,0,0
98,-76,0,0,0,0,0,0,0,0,0,-1,1322,1100,0,0
105,-76,0,0,0,0,0,0,0,0,0,-1,1329,1100,0,0
112,-76,0,0,0,0,0,0,0,0,0,-1,1336,1100,0,0
119,-76,0,0,0,0,0,0,0,0,0,-1,1343,1100,0,0
126,-76,0,0,0,0,0,0,0,0,0,-1,1350,1100,0,0
133,-76,0,0,0,0,0,0,0,0,0,-1,1357,1100,0,0
140,-76,0,0,0,0,0,0,0,0,0,-1,1364,1100,0,0
147,-76,0,0,0,0,0,0,0,0,0,-1,1371,1100,0,0
154,-76,0,0,0,0,0,0,0,0,0,-1,1378,1100,0,0
161,-76,0,0,0,0,0,0,0,0,0,-1,1385,1100,0,0
168,-76,0,0,0,0,0,0,0,0,0,-1,1392,1100,0,0
175,-76,0,0,0,0,0,0,0,0,0,-1,1399,1100,0,0
182,-76,0,0,0,0,0,0,0,0,0,-1,1406,1100,0,0
189,-76,0,0,0,0,0,0,0,0,0,-1,1413,1100,0,0
196,-76,0,0,0,0,0,0,0,0,0,-1,1420,1100,0,0
203,-76,0,0,0,0,0,0,0,0,0,-1,1427,1100,0,0
210,-76,0,0,0,0,0,0,0,0,0,-1,1434,1100,0,0
217,-76,0,0,0,0,0,0,0,0,0,-1,1441,1100,0,0
224,-76,0,0,0,0,0,0,0,0,0,-1,1448,1100,0,0
231,-76,0,0,0,0,0,0,0,0,0,-1,1455,1100,0,0
238,-76,0,0,0,0,0,0,0,0,0,-1,1462,1100,0,0
245,-76,0,0,0,0,0,0,0,0,0,-1,1469,1100,0,0
252,-76,0,0,0,0,0,0,0,0,0,-1,1476,1100,0,0
259,-76,0,0,0,0,0,0,0,0,0,-1,1483,1100,0,0
266,-76,0,0,0,0,0,0,0,0,0,-1,1490,1100,0,0
273,-76,0,0,0,0,0,0,0,0,0,-1,1497,1100,0,0
280,-76,0,0,0,0,0,0,0,0,0,-1,1504,1100,0,0
287,-76,0,0,0,0,0,0,0,0,0,-1,1511,1100,0,0
294,-76,0,0,0,0,0,0,0,0,0,-1,1518,1100,0,0
301,-76,0,0,0,0,0,0,0,0,0,-1,1525,1100,0,0
308,-76,0,0,0,0,0,0,0,0,0,-1,1532,1100,0,0
315,-76,0,0,0,0,0,0,0,0,0,-1,1539,1100,0,0
322,-76,0,0,0,0,0,0,0,0,0,-1,1546,1100,0,0
329,-76,0,0,0,0,0,0,0,0,0,-1,1553,1100,0,0
336,-76,0,0,0,0,0,0,0,0,0,-1,1560,1100,0,0
343,-76,0,0,0,0,0,0,0,0,0,-1,1567,1100,0,0
350,-76,0,0,0,0,0,0,0,0,0,-1,1574,1100,0,0
357,-76,0,0,0,0,0,0,0,0,0,-1,1581,1100,0,0
364,-76,0,0,0,0,0,0,0,0,0,-1,1588,1100,0,0
371,-76,0,0,0,0,0,0,0,0,0,-1,1595,1100,0,0
378,-76,0,0,0,0,0,0,0,0,0,-1,1602,1100,0,0
385,-76,0,0,0,0,0,0,0,0,0,-1,1609,1100,0,0
392,-76,0,0,0,0,0,0,0,0,0,-1,1616,1100,0,0
399,-76,0,0,0,0,0,0,0,0,0,-1,1623,1100,0,0
406,-76,0,0,0,0,0,0,0,0,0,-1,1630,1100,0,0
413,-76,0,0,0,0,0,0,0,0,0,-1,1637,1100,0,0
420,-76,0,0,0,0,0,0,0,0,0,-1,1644,1100,0,0
427,-76,0,0,0,0,0,0,0,0,0,-1,1651,1100,0,0
434,-76,0,0,0,0,0,0,0,0,0,-1,1658,1100,0,0
441,-76,0,0,0,0,0,0,0,0,0,-1,1665,1100,0,0
448,-76,0,0,0,0,0,0,0,0,0,-1,1672,1100,0,0
455,-76,0,0,0,0,0,0,0,0,0,-1,1679,1100,0,0
462,-76,0,0,0,0,0,0,0,0,0,-1,1686,1100,0,0
469,-76,0,0,0,0,0,0,0,0,0,-1,1693,1100,0,0
476,-76,0,0,0,0,0,0,0,0,0,-1,1700,1100,0,0
483,-76,0,0,0,0,0,0,0,0,0,-1,1707,1100,0,0
490,-76,0,0,0,0,0,0,0,0,0,-1,1714,1100,0,0
497,-76,0,0,0,0,0,0,0,0,0,-1,1721,1100,0,0
504,-76,0,0,0,0,0,0,0,0,0,-1,1728,1100,0,0
511,-76,0,0,0,0,0,0,0,0,0,-1,1735,1100,0,0
518,-76,0,0,0,0,0,0,0,0,0,-1,1742,1100,0,0
525,-76,0,0,0,0,0,0,0,0,0,-1,1749,1100,0,0
532,-76,0,0,0,0,0,0,0,0,0,-1,1756,1100,0,0
539,-76,0,0,0,0,0,0,0,0,0,-1,1763,1100,0,0
546,-76,0,0,0,0,0,0,0,0,0,-1,1770,1100,0,0
553,-76,0,0,0,0,0,0,0,0,0,-1,1777,1100,0,0
560,-76,0,0,0,0,0,0,0,0,0,-1,1784,1100,0,0
567,-76,0,0,0,0,0,0,0,0,0,-1,1791,1100,0,0
574,-76,0,0,0,0,0,0,0,0,0,-1,1798,1100,0,0
581,-76,0,0,0,0,0,0,0,0,0,-1,1805,1100,0,0
588,-76,0,0,0,0,0,0,0,0,0,-1,1812,1100,0,0
595,-76,0,0,0,0,0,0,0,0,0,-1,1819,1100,0,0
602,-76,0,0,0,0,0,0,0,0,0,-1,1826,1100,0,0
609,-76,0,0,0,0,0,0,0,0,0,-1,1833,1100,0,0
616,-76,0,0,0,0,0,0,0,0,0,-1,1840,1100,0,0
623,-76,0,0,0,0,0,0,0,0,0,-1,1847,1100,0,0
630,-76,0,0,0,0,0,0,0,0,0,-1,1854,1100,0,0
637,-76,0,0,0,0,0,0,0,0,0,-1,1861,1100,0,0
644,-76,0,0,0,0,0,0,0,0,0,-1,1868,1100,0,0
651,-76,75.6974,2.11609,0.00407402,-0.00287972,-0.000899979,0.00418861,-0.00299432,-0.126644,0.00416613,0.0391424,1875,1100,75.6974,-2.11613
658,-76,75.7289,2.04468,0.00304971,-0.00206206,-0.000216443,0.00305886,-0.00207121,-0.0422413,0.00298008,0.0409093,1882,1100,75.7289,-2.04474
665,-76,75.7125,2.14709,0.00224826,-0.00143251,0.000221227,0.00226151,-0.00144576,0.0598165,0.00215759,0.0378005,1889,1100,75.7125,-2.14712
672,-76,75.6641,2.32678,0.00162214,-0.00086608,0.000457473,0.00170358,-0.000947523,0.176183,0.00155123,0.0364673,1896,1100,75.664,-2.32678
679,-76,75.7209,2.48193,0.00115629,-0.000448151,0.000578814,0.00134331,-0.000635164,0.31251,0.0011664,0.0368257,1903,1100,75.7209,-2.4819
686,-76,75.8334,2.25757,0.000715574,-0.000371267,0.000569096,0.000959031,-0.000614725,0.404237,0.000915828,0.0351869,1910,1100,75.8334,-2.25754
693,-76,75.8513,2.10608,0.000393981,-0.000552186,0.000694971,0.000761607,-0.000919813,0.486562,0.0009722,0.0353205,1917,1100,75.8513,-2.10605
700,-76,75.7351,2.14551,0.000189375,-0.00062575,0.000906124,0.000775376,-0.00121175,0.57406,0.00115645,0.0314756,1924,1100,75.7351,-2.14545
707,-76,75.6949,2.28308,-0.000229027,-0.000536936,0.00123516,0.000861739,-0.0016277,0.723396,0.00145978,0.026606,1931,1100,75.6949,-2.2831
714,-76,75.8167,2.19666,0,0,0,0,0,0,0,-1,1938,1100,75.8166,-2.19669
721,-76,45.1713,3.04919,0,0,0,0,0,0,0,-1,1945,1100,45.1713,-3.04915
728,-76,60.937,8.08447,0,0,0,0,0,0,0,-1,1952,1100,60.937,-8.08446
735,-76,72.1298,8.6001,0,0,0,0,0,0,0,-1,1959,1100,72.1298,-8.60015
742,-76,72.2324,8.00659,-0.00438795,0.00284899,0.00247979,0.00361717,-0.00515613,1.2704,0.00509118,0.0369387,1966,1100,72.2324,-8.00653
749,-76,72.1082,7.42334,-0.00596637,0.00401141,0.00245289,0.00458181,-0.00653677,1.34232,0.00645231,0.0331887,1973,1100,72.1082,-7.42328
756,-76,72.1721,6.93591,-0.00764789,0.00599709,0.00164822,0.00619336,-0.00784416,1.45227,0.00812322,0.0179445,1980,1100,72.1722,-6.93587
763,-76,72.0952,6.40662,-0.00990904,0.00892989,-0.000529094,0.00894474,-0.00992389,-1.54274,0.0108987,0.0190636,1987,1100,72.0952,-6.40657
770,-76,71.9651,5.90515,-0.0128197,0.012549,-0.00386681,0.0131253,-0.013396,-1.42285,0.0153123,0.0206454,1994,1100,71.9651,-5.90509
777,-76,71.8052,5.53381,-0.0158622,0.0167449,-0.00898488,0.0190568,-0.0181741,-1.31895,0.0214973,0.0250409,2001,1100,71.8051,-5.53381
784,-76,71.783,4.85803,-0.0188171,0.0211001,-0.015585,0.0264642,-0.0241812,-1.23931,0.0292501,0.0361506,2008,1100,71.7831,-4.85809
791,-76,71.655,4.24609,0,0,0,0,0,0,0,-1,2015,1100,71.655,-4.24608
798,-76,70.7053,3.44702,-0.0241409,0.0306514,-0.0356047,0.0481801,-0.0416696,-1.11332,0.0519201,0.0446218,2022,1100,70.7052,-3.44702
805,-76,69.8066,3.44812,-0.0257815,0.0361162,-0.0502303,0.0641667,-0.0538319,-1.0615,0.0682136,0.046909,2029,1100,69.8067,-3.44815
812,-76,69.1653,2.51868,-0.0263938,0.0424261,-0.0687508,0.0848974,-0.068865,-1.01742,0.0889355,0.0486633,2036,1100,69.1653,-2.51871
-700,-83,0,0,0,0,0,0,0,0,0,-1,524,1107,0,0
-693,-83,-52.6258,-2.85242,0,0,0,0,0,0,0,-1,531,1107,-52.6258,2.85245
-686,-83,-53.0503,-1.75952,0,0,0,0,0,0,0,-1,538,1107,-53.0503,1.75953
-679,-83,-58.7447,0.0737305,0,0,0,0,0,0,0,-1,545,1107,-58.7446,-0.0737793
-672,-83,-53.3892,0.988281,0,0,0,0,0,0,0,-1,552,1107,-53.3892,-0.988275
-665,-83,-54.0684,1.9386,0,0,0,0,0,0,0,-1,559,1107,-54.0684,-1.93864
-658,-83,-55.4481,1.98132,0,0,0,0,0,0,0,-1,566,1107,-55.4481,-1.98131
-651,-83,-55.4479,2.83594,0,0,0,0,0,0,0,-1,573,1107,-55.4479,-2.83597
-644,-83,-55.5646,4.05383,-0.0105418,0.0150091,0.00379001,0.0155594,-0.0110921,1.4266,0.0154591,0.0340651,580,1107,-55.5646,-4.05383
-637,-83,-55.8022,4.5509,-0.00880509,0.0108997,0.00129754,0.0109847,-0.00889016,1.50532,0.011496,0.0166793,587,1107,-55.8022,-4.55088
-630,-83,-55.8583,5.09521,-0.0067421,0.00694384,-0.000642803,0.00697397,-0.00677223,-1.52397,0.00793665,0.0179267,594,1107,-55.8583,-5.09516
-623,-83,-55.9279,5.61877,-0.00440153,0.00307747,-0.0021364,0.00364471,-0.00496877,-1.31127,0.00499255,0.0230951,601,1107,-55.9279,-5.61881
-616,-83,-56.0585,6.21582,-0.00181838,-0.000752753,-0.00327364,0.00203115,-0.00460228,-0.86607,0.00392454,0.0196387,608,1107,-56.0586,-6.21586
-609,-83,-56.0339,6.73901,0.00105086,-0.00437809,-0.00399694,0.00316793,-0.00649517,-0.487105,0.00568817,0.0246747,615,1107,-56.0338,-6.73901
-602,-83,-55.9978,7.36011,0.00417196,-0.00824618,-0.00439054,0.00556745,-0.00964168,-0.307743,0.00888539,0.0213486,622,1107,-55.9978,-7.36009
-595,-83,-55.9207,7.87561,0.00785633,-0.0121396,-0.00404882,0.00864504,-0.0129283,-0.19239,0.0125369,0.031562,629,1107,-55.9207,-7.8756
-588,-83,-56.0002,8.25293,0,0,0,0,0,0,0,-1,636,1107,-56.0002,-8.25291
-581,-83,-58.907,0.254517,0,0,0,0,0,0,0,-1,643,1107,-58.9071,-0.254466
-574,-83,-58.9521,0.0408936,0,0,0,0,0,0,0,-1,650,1107,-58.9522,-0.0409234
-567,-83,-58.8683,-0.450806,0,0,0,0,0,0,0,-1,657,1107,-58.8683,0.450834
-560,-83,-58.4761,-0.214478,0,0,0,0,0,0,0,-1,664,1107,-58.476,0.21452
-553,-83,-58.8508,-0.00793457,0,0,0,0,0,0,0,-1,671,1107,-58.8508,0.00799408
-546,-83,-58.9302,0.187622,0,0,0,0,0,0,0,-1,678,1107,-58.9302,-0.187637
-539,-83,-59.0041,0.181763,0,0,0,0,0,0,0,-1,685,1107,-59.0041,-0.181703
-532,-83,-58.7422,-0.12207,0,0,0,0,0,0,0,-1,692,1107,-58.7423,0.122101
-525,-83,0,0,0,0,0,0,0,0,0,-1,699,1107,0,0
-518,-83,0,0,0,0,0,0,0,0,0,-1,706,1107,0,0
-511,-83,0,0,0,0,0,0,0,0,0,-1,713,1107,0,0
-504,-83,0,0,0,0,0,0,0,0,0,-1,720,1107,0,0
-497,-83,0,0,0,0,0,0,0,0,0,-1,727,1107,0,0
-490,-83,0,0,0,0,0,0,0,0,0,-1,734,1107,0,0
-483,-83,0,0,0,0,0,0,0,0,0,-1,741,1107,0,0
-476,-83,0,0,0,0,0,0,0,0,0,-1,748,1107,0,0
-469,-83,0,0,0,0,0,0,0,0,0,-1,755,1107,0,0
-462,-83,0,0,0,0,0,0,0,0,0,-1,762,1107,0,0
-455,-83,0,0,0,0,0,0,0,0,0,-1,769,1107,0,0
-448,-83,0,0,0,0,0,0,0,0,0,-1,776,1107,0,0
-441,-83,0,0,0,0,0,0,0,0,0,-1,783,1107,0,0
-434,-83,0,0,0,0,0,0,0,0,0,-1,790,1107,0,0
-427,-83,0,0,0,0,0,0,0,0,0,-1,797,1107,0,0
-420,-83,0,0,0,0,0,0,0,0,0,-1,804,1107,0,0
-413,-83,0,0,0,0,0,0,0,0,0,-1,811,1107,0,0
-406,-83,0,0,0,0,0,0,0,0,0,-1,818,1107,0,0
-399,-83,0,0,0,0,0,0,0,0,0,-1,825,1107,0,0
-392,-83,0,0,0,0,0,0,0,0,0,-1,832,1107,0,0
-385,-83,0,0,0,0,0,0,0,0,0,-1,839,1107,0,0
-378,-83,0,0,0,0,0,0,0,0,0,-1,846,1107,0,0
-371,-83,0,0,0,0,0,0,0,0,0,-1,853,1107,0,0
-364,-83,0,0,0,0,0,0,0,0,0,-1,860,1107,0,0
-357,-83,0,0,0,0,0,0,0,0,0,-1,867,1107,0,0
-350,-83,0,0,0,0,0,0,0,0,0,-1,874,1107,0,0
-343,-83,0,0,0,0,0,0,0,0,0,-1,881,1107,0,0
-336,-83,0,0,0,0,0,0,0,0,0,-1,888,1107,0,0
-329,-83,0,0,0,0,0,0,0,0,0,-1,895,1107,0,0
-322,-83,0,0,0,0,0,0,0,0,0,-1,902,1107,0,0
-315,-83,0,0,0,0,0,0,0,0,0,-1,909,1107,0,0
-308,-83,0,0,0,0,0,0,0,0,0,-1,916,1107,0,0
-301,-83,0,0,0,0,0,0,0,0,0,-1,923,1107,0,0
-294,-83,0,0,0,0,0,0,0,0,0,-1,930,1107,0,0
-287,-83,0,0,0,0,0,0,0,0,0,-1,937,1107,0,0
-280,-83,0,0,0,0,0,0,0,0,0,-1,944,1107,0,0
-273,-83,0,0,0,0,0,0,0,0,0,-1,951,1107,0,0
-266,-83,0,0,0,0,0,0,0,0,0,-1,958,1107,0,0
-259,-83,0,0,0,0,0,0,0,0,0,-1,965,1107,0,0
-252,-83,0,0,0,0,0,0,0,0,0,-1,972,1107,0,0
-245,-83,0,0,0,0,0,0,0,0,0,-1,979,1107,0,0
-238,-83,0,0,0,0,0,0,0,0,0,-1,986,1107,0,0
-231,-83,0,0,0,0,0,0,0,0,0,-1,993,1107,0,0
-224,-83,0,0,0,0,0,0,0,0,0,-1,1000,1107,0,0
-217,-83,0,0,0,0,0,0,0,0,0,-1,1007,1107,0,0
-210,-83,0,0,0,0,0,0,0,0,0,-1,1014,1107,0,0
-203,-83,0,0,0,0,0,0,0,0,0,-1,1021,1107,0,0
-196,-83,0,0,0,0,0,0,0,0,0,-1,1028,1107,0,0
-189,-83,0,0,0,0,0,0,0,0,0,-1,1035,1107,0,0
-182,-83,0,0,0,0,0,0,0,0,0,-1,1042,1107,0,0
-175,-83,0,0,0,0,0,0,0,0,0,-1,1049,1107,0,0
-168,-83,0,0,0,0,0,0,0,0,0,-1,1056,1107,0,0
-161,-83,0,0,0,0,0,0,0,0,0,-1,1063,1107,0,0
-154,-83,0,0,0,0,0,0,0,0,0,-1,1070,1107,0,0
-147,-83,0,0,0,0,0,0,0,0,0,-1,1077,1107,0,0
-140,-83,0,0,0,0,0,0,0,0,0,-1,1084,1107,0,0
-133,-83,0,0,0,0,0,0,0,0,0,-1,1091,1107,0,0
-126,-83,0,0,0,0,0,0,0,0,0,-1,1098,1107,0,0
-119,-83,0,0,0,0,0,0,0,0,0,-1,1105,1107,0,0
-112,-83,0,0,0,0,0,0,0,0,0,-1,1112,1107,0,0
-105,-83,0,0,0,0,0,0,0,0,0,-1,1119,1107,0,0
-98,-83,0,0,0,0,0,0,0,0,0,-1,1126,1107,0,0
-91,-83,0,0,0,0,0,0,0,0,0,-1,1133,1107,0,0
-84,-83,0,0,0,0,0,0,0,0,0,-1,1140,1107,0,0
-77,-83,0,0,0,0,0,0,0,0,0,-1,1147,1107,0,0
-70,-83,0,0,0,0,0,0,0,0,0,-1,1154,1107,0,0
-63,-83,0,0,0,0,0,0,0,0,0,-1,1161,1107,0,0
-56,-83,0,0,0,0,0,0,0,0,0,-1,1168,1107,0,0
-49,-83,0,0,0,0,0,0,0,0,0,-1,1175,1107,0,0
-42,-83,0,0,0,0,0,0,0,0,0,-1,1182,1107,0,0
-35,-83,0,0,0,0,0,0,0,0,0,-1,1189,1107,0,0
-28,-83,0,0,0,0,0,0,0,0,0,-1,1196,1107,0,0
-21,-83,0,0,0,0,0,0,0,0,0,-1,1203,1107,0,0
-14,-83,0,0,0,0,0,0,0,0,0,-1,1210,1107,0,0
-7,-83,0,0,0,0,0,0,0,0,0,-1,1217,1107,0,0
0,-83,0,0,0,0,0,0,0,0,0,-1,1224,1107,0,0
7,-83,0,0,0,0,0,0,0,0,0,-1,1231,1107,0,0
14,-83,0,0,0,0,0,0,0,0,0,-1,1238,1107,0,0
21,-83,0,0,0,0,0,0,0,0,0,-1,1245,1107,0,0
28,-83,0,0,0,0,0,0,0,0,0,-1,1252,1107,0,0
35,-83,0,0,0,0,0,0,0,0,0,-1,1259,1107,0,0
42,-83,0,0,0,0,0,0,0,0,0,-1,1266,1107,0,0
49,-83,0,0,0,0,0,0,0,0,0,-1,1273,1107,0,0
56,-83,0,0,0,0,0,0,0,0,0,-1,1280,1107,0,0
63,-83,0,0,0,0,0,0,0,0,0,-1,1287,1107,0,0
70,-83,0,0,0,0,0,0,0,0,0,-1,1294,1107,0,0
77,-83,0,0,0,0,0,0,0,0,0,-1,1301,1107,0,0
84,-83,0,0,0,0,0,0,0,0,0,-1,1308,1107,0,0
91,-83,0,0,0,0,0,0,0,0,0,-1,1315,1107,0,0
98,-83,0,0,0,0,0,0,0,0,0,-1,1322,1107,0,0
105,-83,0,0,0,0,0,0,0,0,0,-1,1329,1107,0,0
112,-83,0,0,0,0,0,0,0,0,0,-1,1336,1107,0,0
119,-83,0,0,0,0,0,0,0,0,0,-1,1343,1107,0,0
126,-83,0,0,0,0,0,0,0,0,0,-1,1350,1107,0,0
133,-83,0,0,0,0,0,0,0,0,0,-1,1357,1107,0,0
140,-83,0,0,0,0,0,0,0,0,0,-1,1364,1107,0,0
147,-83,0,0,0,0,0,0,0,0,0,-1,1371,1107,0,0
154,-83,0,0,0,0,0,0,0,0,0,-1,1378,1107,0,0
161,-83,0,0,0,0,0,0,0,0,0,-1,1385,1107,0,0
168,-83,0,0,0,0,0,0,0,0,0,-1,1392,1107,0,0
175,-83,0,0,0,0,0,0,0,0,0,-1,1399,1107,0,0
182,-83,0,0,0,0,0,0,0,0,0,-1,1406,1107,0,0
189,-83,0,0,0,0,0,0,0,0,0,-1,1413,1107,0,0
196,-83,0,0,0,0,0,0,0,0,0,-1,1420,1107,0,0
203,-83,0,0,0,0,0,0,0,0,0,-1,1427,1107,0,0
210,-83,0,0,0,0,0,0,0,0,0,-1,1434,1107,0,0
217,-83,0,0,0,0,0,0,0,0,0,-1,1441,1107,0,0
224,-83,0,0,0,0,0,0,0,0,0,-1,1448,1107,0,0
231,-83,0,0,0,0,0,0,0,0,0,-1,1455,1107,0,0
238,-83,0,0,0,0,0,0,0,0,0,-1,1462,1107,0,0
245,-83,0,0,0,0,0,0,0,0,0,-1,1469,1107,0,0
252,-83,0,0,0,0,0,0,0,0,0,-1,1476,1107,0,0
259,-83,0,0,0,0,0,0,0,0,0,-1,1483,1107,0,0
266,-83,0,0,0,0,0,0,0,0,0,-1,1490,1107,0,0
273,-83,0,0,0,0,0,0,0,0,0,-1,1497,1107,0,0
280,-83,0,0,0,0,0,0,0,0,0,-1,1504,1107,0,0
287,-83,0,0,0,0,0,0,0,0,0,-1,1511,1107,0,0
294,-83,0,0,0,0,0,0,0,0,0,-1,1518,1107,0,0
301,-83,0,0,0,0,0,0,0,0,0,-1,1525,1107,0,0
308,-83,0,0,0,0,0,0,0,0,0,-1,1532,1107,0,0
315,-83,0,0,0,0,0,0,0,0,0,-1,1539,1107,0,0
322,-83,0,0,0,0,0,0,0,0,0,-1,1546,1107,0,0
329,-83,0,0,0,0,0,0,0,0,0,-1,1553,1107,0,0
336,-83,0,0,0,0,0,0,0,0,0,-1,1560,1107,0,0
343,-83,0,0,0,0,0,0,0,0,0,-1,1567,1107,0,0
350,-83,0,0,0,0,0,0,0,0,0,-1,1574,1107,0,0
357,-83,0,0,0,0,0,0,0,0,0,-1,1581,1107,0,0
364,-83,0,0,0,0,0,0,0,0,0,-1,1588,1107,0,0
371,-83,0,0,0,0,0,0,0,0,0,-1,1595,1107,0,0
378,-83,0,0,0,0,0,0,0,0,0,-1,1602,1107,0,0
385,-83,0,0,0,0,0,0,0,0,0,-1,1609,1107,0,0
392,-83,0,0,0,0,0,0,0,0,0,-1,1616,1107,0,0
399,-83,0,0,0,0,0,0,0,0,0,-1,1623,1107,0,0
406,-83,0,0,0,0,0,0,0,0,0,-1,1630,1107,0,0
413,-83,0,0,0,0,0,0,0,0,0,-1,1637,1107,0,0
420,-83,0,0,0,0,0,0,0,0,0,-1,1644,1107,0,0
427,-83,0,0,0,0,0,0,0,0,0,-1,1651,1107,0,0
434,-83,0,0,0,0,0,0,0,0,0,-1,1658,1107,0,0
441,-83,0,0,0,0,0,0,0,0,0,-1,1665,1107,0,0
448,-83,0,0,0,0,0,0,0,0,0,-1,1672,1107,0,0
455,-83,0,0,0,0,0,0,0,0,0,-1,1679,1107,0,0
462,-83,0,0,0,0,0,0,0,0,0,-1,1686,1107,0,0
469,-83,0,0,0,0,0,0,0,0,0,-1,1693,1107,0,0
476,-83,0,0,0,0,0,0,0,0,0,-1,1700,1107,0,0
483,-83,0,0,0,0,0,0,0,0,0,-1,1707,1107,0,0
490,-83,0,0,0,0,0,0,0,0,0,-1,1714,1107,0,0
497,-83,0,0,0,0,0,0,0,0,0,-1,1721,1107,0,0
504,-83,0,0,0,0,0,0,0,0,0,-1,1728,1107,0,0
511,-83,0,0,0,0,0,0,0,0,0,-1,1735,1107,0,0
518,-83,0,0,0,0,0,0,0,0,0,-1,1742,1107,0,0
525,-83,0,0,0,0,0,0,0,0,0,-1,1749,1107,0,0
532,-83,0,0,0,0,0,0,0,0,0,-1,1756,1107,0,0
539,-83,0,0,0,0,0,0,0,0,0,-1,1763,1107,0,0
546,-83,0,0,0,0,0,0,0,0,0,-1,1770,1107,0,0
553,-83,0,0,0,0,0,0,0,0,0,-1,1777,1107,0,0
560,-83,0,0,0,0,0,0,0,0,0,-1,1784,1107,0,0
567,-83,0,0,0,0,0,0,0,0,0,-1,1791,1107,0,0
574,-83,0,0,0,0,0,0,0,0,0,-1,1798,1107,0,0
581,-83,0,0,0,0,0,0,0,0,0,-1,1805,1107,0,0
588,-83,0,0,0,0,0,0,0,0,0,-1,1812,1107,0,0
595,-83,0,0,0,0,0,0,0,0,0,-1,1819,1107,0,0
602,-83,0,0,0,0,0,0,0,0,0,-1,1826,1107,0,0
609,-83,0,0,0,0,0,0,0,0,0,-1,1833,1107,0,0
616,-83,0,0,0,0,0,0,0,0,0,-1,1840,1107,0,0
623,-83,0,0,0,0,0,0,0,0,0,-1,1847,1107,0,0
630,-83,0,0,0,0,0,0,0,0,0,-1,1854,1107,0,0
637,-83,0,0,0,0,0,0,0,0,0,-1,1861,1107,0,0
644,-83,75.6624,2.26477,0.00639321,-0.00406239,-0.00241667,0.00692477,-0.00459395,-0.216507,0.00669557,0.0378687,1868,1107,75.6624,-2.26483
651,-83,75.6987,2.01904,0.00477327,-0.00291346,-0.00140492,0.005022,-0.00316219,-0.175227,0.00476564,0.0419049,1875,1107,75.6987,-2.0191
658,-83,75.769,2.00757,0.00354593,-0.00215745,-0.000623065,0.0036132,-0.00222472,-0.107555,0.00340216,0.043456,1882,1107,75.7691,-2.00754
665,-83,75.691,2.25671,0.00258712,-0.0015305,-9.95022e-05,0.00258952,-0.0015329,-0.0241462,0.002406,0.0384242,1889,1107,75.691,-2.25669
672,-83,75.6254,2.33765,0.00181695,-0.000958924,0.000222272,0.00183464,-0.00097661,0.0793986,0.00164808,0.0355625,1896,1107,75.6254,-2.33764
679,-83,75.691,2.47742,0.00129319,-0.000578649,0.000427448,0.00138618,-0.00067164,0.214212,0.00121172,0.0357521,1903,1107,75.691,-2.47745
686,-83,75.7875,2.3136,0.000911043,-0.000513016,0.00045305,0.00104296,-0.00064493,0.283335,0.000983492,0.033311,1910,1107,75.7874,-2.31361
693,-83,75.8015,2.21021,0.00066406,-0.000668735,0.000604228,0.000897205,-0.000901881,0.368254,0.0010387,0.0348457,1917,1107,75.8015,-2.21024
700,-83,75.7135,2.32813,0.00052093,-0.000730321,0.000820884,0.000927417,-0.00113681,0.459787,0.00119382,0.0350247,1924,1107,75.7135,-2.32816
707,-83,75.7029,2.30042,0.000173585,-0.000622365,0.00113392,0.000977339,-0.00142612,0.616627,0.00139568,0.0271429,1931,1107,75.7029,-2.30039
714,-83,75.74,2.24597,0,0,0,0,0,0,0,-1,1938,1107,75.74,-2.24602
721,-83,49.1162,7.36719,0,0,0,0,0,0,0,-1,1945,1107,49.1162,-7.36721
728,-83,66.6315,8.32141,0,0,0,0,0,0,0,-1,1952,1107,66.6314,-8.32147
735,-83,71.6024,8.38184,0,0,0,0,0,0,0,-1,1959,1107,71.6024,-8.38183
742,-83,71.528,8.00708,-0.00357889,0.00256329,0.00224829,0.0032983,-0.0043139,1.25483,0.00440792,0.0318285,1966,1107,71.528,-8.00709
749,-83,71.6237,7.46289,-0.00508739,0.00381292,0.00216604,0.00431207,-0.00558654,1.34431,0.00573073,0.0215995,1973,1107,71.6236,-7.46285
756,-83,71.6086,6.91321,-0.00687975,0.00589032,0.00132998,0.00602737,-0.0070168,1.46812,0.00753827,0.0184221,1980,1107,71.6087,-6.91324
763,-83,71.5422,6.35864,-0.00932573,0.00897452,-0.000957456,0.00902448,-0.00937569,-1.51867,0.010624,0.0138145,1987,1107,71.5422,-6.35862
770,-83,71.427,5.85645,-0.012429,0.0129031,-0.0044686,0.0136683,-0.0131941,-1.40121,0.0155098,0.0172851,1994,1107,71.427,-5.85646
777,-83,71.2737,5.33875,-0.0156901,0.0174516,-0.00967194,0.0200677,-0.0183063,-1.30663,0.022163,0.0190056,2001,1107,71.2737,-5.33872
784,-83,71.1257,4.81836,-0.0189212,0.0222863,-0.0163707,0.0279982,-0.0246332,-1.23509,0.0304074,0.0276664,2008,1107,71.1257,-4.81833
791,-83,70.9202,4.37598,-0.0221127,0.0275225,-0.025195,0.0380701,-0.0326604,-1.17432,0.040876,0.0416683,2015,1107,70.9202,-4.37597
798,-83,70.4204,3.92883,-0.0250874,0.0332495,-0.0367357,0.0509886,-0.0428265,-1.12094,0.0542324,0.0467779,2022,1107,70.4204,-3.92888
805,-83,69.8608,3.37451,-0.0273917,0.0395866,-0.0515066,0.0675341,-0.0553392,-1.07365,0.0710573,0.0495461,2029,1107,69.8608,-3.37445
812,-83,69.2034,2.83923,-0.0288645,0.0466757,-0.0700717,0.0885085,-0.0706974,-1.03259,0.0921091,0.0496063,2036,1107,69.2034,-2.8392
-700,-90,0,0,0,0,0,0,0,0,0,-1,524,1114,0,0
-693,-90,-52.8228,-2.44409,0,0,0,0,0,0,0,-1,531,1114,-52.8228,2.44415
-686,-90,-53.0698,-1.33179,0,0,0,0,0,0,0,-1,538,1114,-53.0698,1.33175
-679,-90,-53.0252,-0.648193,0,0,0,0,0,0,0,-1,545,1114,-53.0252,0.648157
-672,-90,-53.2955,0.377319,0,0,0,0,0,0,0,-1,552,1114,-53.2955,-0.377315
-665,-90,-54.7429,1.2406,0,0,0,0,0,0,0,-1,559,1114,-54.7429,-1.24057
-658,-90,-54.8525,2.06287,-0.0106963,0.01149,0.00731912,0.013687,-0.0128933,1.27918,0.0153484,0.0491225,566,1114,-54.8526,-2.06284
-651,-90,-54.9367,2.92493,-0.0109434,0.0110891,0.00396785,0.0117819,-0.0116362,1.39794,0.0135205,0.0405809,573,1114,-54.9367,-2.92488
-644,-90,-55.1063,3.79688,-0.0101932,0.00984499,0.00156854,0.00996703,-0.0103153,1.49315,0.0117106,0.02219,580,1114,-55.1063,-3.79682
-637,-90,-55.2037,4.51538,-0.0085519,0.00762619,-0.00016944,0.00762797,-0.00855368,-1.56032,0.00934757,0.0168534,587,1114,-55.2037,-4.51533
-630,-90,-55.2663,5.10974,-0.00667763,0.0051083,-0.00153434,0.00530477,-0.0068741,-1.44344,0.00705091,0.0136436,594,1114,-55.2663,-5.10978
-623,-90,-55.3026,5.7168,-0.00458044,0.00232928,-0.00258118,0.00318703,-0.00543819,-1.24997,0.00503599,0.0150161,601,1114,-55.3025,-5.71675
-616,-90,-55.364,6.30212,-0.0022665,-0.000681804,-0.00335922,0.00197725,-0.00492556,-0.901218,0.00410472,0.0159169,608,1114,-55.3639,-6.30214
-609,-90,-55.3196,6.84265,0.000263301,-0.00390462,-0.003911,0.00261091,-0.00625223,-0.540609,0.00525912,0.0261033,615,1114,-55.3196,-6.84263
-602,-90,-55.4327,7.40613,0.00304172,-0.00755649,-0.00406375,0.00442053,-0.00893531,-0.327107,0.00785648,0.0254518,622,1114,-55.4327,-7.40612
-595,-90,-55.3169,8.10168,0.00663575,-0.0113844,-0.00341082,0.00725974,-0.0120084,-0.180942,0.0112365,0.0259261,629,1114,-55.3169,-8.10166
-588,-90,-55.4439,8.59485,0,0,0,0,0,0,0,-1,636,1114,-55.4439,-8.59484
-581,-90,-58.9319,0.315674,0,0,0,0,0,0,0,-1,643,1114,-58.9319,-0.315715
-574,-90,-58.9315,0.190796,0,0,0,0,0,0,0,-1,650,1114,-58.9315,-0.190742
-567,-90,-59.0308,0.223633,0,0,0,0,0,0,0,-1,657,1114,-59.0308,-0.22368
-560,-90,-58.9883,0.25708,0,0,0,0,0,0,0,-1,664,1114,-58.9883,-0.257094
-553,-90,-58.9023,0.453003,0,0,0,0,0,0,0,-1,671,1114,-58.9023,-0.453009
-546,-90,-58.912,0.589722,0,0,0,0,0,0,0,-1,678,1114,-58.912,-0.589693
-539,-90,-58.9636,0.421509,0,0,0,0,0,0,0,-1,685,1114,-58.9636,-0.421522
-532,-90,-58.9385,0.0532227,0,0,0,0,0,0,0,-1,692,1114,-58.9385,-0.0532034
-525,-90,0,0,0,0,0,0,0,0,0,-1,699,1114,0,0
-518,-90,0,0,0,0,0,0,0,0,0,-1,706,1114,0,0
-511,-90,0,0,0,0,0,0,0,0,0,-1,713,1114,0,0
-504,-90,0,0,0,0,0,0,0,0,0,-1,720,1114,0,0
-497,-90,0,0,0,0,0,0,0,0,0,-1,727,1114,0,0
-490,-90,0,0,0,0,0,0,0,0,0,-1,734,1114,0,0
-483,-90,0,0,0,0,0,0,0,0,0,-1,741,1114,0,0
-476,-90,0,0,0,0,0,0,0,0,0,-1,748,1114,0,0
-469,-90,0,0,0,0,0,0,0,0,0,-1,755,1114,0,0
-462,-90,0,0,0,0,0,0,0,0,0,-1,762,1114,0,0
-455,-90,0,0,0,0,0,0,0,0,0,-1,769,1114,0,0
-448,-90,0,0,0,0,0,0,0,0,0,-1,776,1114,0,0
-441,-90,0,0,0,0,0,0,0,0,0,-1,783,1114,0,0
-434,-90,0,0,0,0,0,0,0,0,0,-1,790,1114,0,0
-427,-90,0,0,0,0,0,0,0,0,0,-1,797,1114,0,0
-420,-90,0,0,0,0,0,0,0,0,0,-1,804,1114,0,0
-413,-90,0,0,0,0,0,0,0,0,0,-1,811,1114,0,0
-406,-90,0,0,0,0,0,0,0,0,0,-1,818,1114,0,0
-399,-90,0,0,0,0,0,0,0,0,0,-1,825,1114,0,0
-392,-90,0,0,0,0,0,0,0,0,0,-1,832,1114,0,0
-385,-90,0,0,0,0,0,0,0,0,0,-1,839,1114,0,0
-378,-90,0,0,0,0,0,0,0,0,0,-1,846,1114,0,0
-371,-90,0,0,0,0,0,0,0,0,0,-1,853,1114,0,0
-364,-90,0,0,0,0,0,0,0,0,0,-1,860,1114,0,0
-357,-90,0,0,0,0,0,0,0,0,0,-1,867,1114,0,0
-350,-90,0,0,0,0,0,0,0,0,0,-1,874,1114,0,0
-343,-90,0,0,0,0,0,0,0,0,0,-1,881,1114,0,0
-336,-90,0,0,0,0,0,0,0,0,0,-1,888,1114,0,0
-329,-90,0,0,0,0,0,0,0,0,0,-1,895,1114,0,0
-322,-90,0,0,0,0,0,0,0,0,0,-1,902,1114,0,0
-315,-90,0,0,0,0,0,0,0,0,0,-1,909,1114,0,0
-308,-90,0,0,0,0,0,0,0,0,0,-1,916,1114,0,0
-301,-90,0,0,0,0,0,0,0,0,0,-1,923,1114,0,0
-294,-90,0,0,0,0,0,0,0,0,0,-1,930,1114,0,0
-287,-90,0,0,0,0,0,0,0,0,0,-1,937,1114,0,0
-280,-90,0,0,0,0,0,0,0,0,0,-1,944,1114,0,0
-273,-90,0,0,0,0,0,0,0,0,0,-1,951,1114,0,0
-266,-90,0,0,0,0,0,0,0,0,0,-1,958,1114,0,0
-259,-90,0,0,0,0,0,0,0,0,0,-1,965,1114,0,0
-252,-90,0,0,0,0,0,0,0,0,0,-1,972,1114,0,0
-245,-90,0,0,0,0,0,0,0,0,0,-1,979,1114,0,0
-238,-90,0,0,0,0,0,0,0,0,0,-1,986,1114,0,0
-231,-90,0,0,0,0,0,0,0,0,0,-1,993,1114,0,0
-224,-90,0,0,0,0,0,0,0,0,0,-1,1000,1114,0,0
-217,-90,0,0,0,0,0,0,0,0,0,-1,1007,1114,0,0
-210,-90,0,0,0,0,0,0,0,0,0,-1,1014,1114,0,0
-203,-90,0,0,0,0,0,0,0,0,0,-1,1021,1114,0,0
-196,-90,0,0,0,0,0,0,0,0,0,-1,1028,1114,0,0
-189,-90,0,0,0,0,0,0,0,0,0,-1,1035,1114,0,0
-182,-90,0,0,0,0,0,0,0,0,0,-1,1042,1114,0,0
-175,-90,0,0,0,0,0,0,0,0,0,-1,1049,1114,0,0
-168,-90,0,0,0,0,0,0,0,0,0,-1,1056,1114,0,0
-161,-90,0,0,0,0,0,0,0,0,0,-1,1063,1114,0,0
-154,-90,0,0,0,0,0,0,0,0,0,-1,1070,1114,0,0
-147,-90,0,0,0,0,0,0,0,0,0,-1,1077,1114,0,0
-140,-90,0,0,0,0,0,0,0,0,0,-1,1084,1114,0,0
-133,-90,0,0,0,0,0,0,0,0,0,-1,1091,1114,0,0
-126,-90,0,0,0,0,0,0,0,0,0,-1,1098,1114,0,0
-119,-90,0,0,0,0,0,0,0,0,0,-1,1105,1114,0,0
-112,-90,0,0,0,0,0,0,0,0,0,-1,1112,1114,0,0
-105,-90,0,0,0,0,0,0,0,0,0,-1,1119,1114,0,0
-98,-90,0,0,0,0,0,0,0,0,0,-1,1126,1114,0,0
-91,-90,0,0,0,0,0,0,0,0,0,-1,1133,1114,0,0
-84,-90,0,0,0,0,0,0,0,0,0,-1,1140,1114,0,0
-77,-90,0,0,0,0,0,0,0,0,0,-1,1147,1114,0,0
-70,-90,0,0,0,0,0,0,0,0,0,-1,1154,1114,0,0
-63,-90,0,0,0,0,0,0,0,0,0,-1,1161,1114,0,0
-56,-90,0,0,0,0,0,0,0,0,0,-1,1168,1114,0,0
-49,-90,0,0,0,0,0,0,0,0,0,-1,1175,1114,0,0
-42,-90,0,0,0,0,0,0,0,0,0,-1,1182,1114,0,0
-35,-90,0,0,0,0,0,0,0,0,0,-1,1189,1114,0,0
-28,-90,0,0,0,0,0,0,0,0,0,-1,1196,1114,0,0
-21,-90,0,0,0,0,0,0,0,0,0,-1,1203,1114,0,0
-14,-90,0,0,0,0,0,0,0,0,0,-1,1210,1114,0,0
-7,-90,0,0,0,0,0,0,0,0,0,-1,1217,1114,0,0
0,-90,0,0,0,0,0,0,0,0,0,-1,1224,1114,0,0
7,-90,0,0,0,0,0,0,0,0,0,-1,1231,1114,0,0
14,-90,0,0,0,0,0,0,0,0,0,-1,1238,1114,0,0
21,-90,0,0,0,0,0,0,0,0,0,-1,1245,1114,0,0
28,-90,0,0,0,0,0,0,0,0,0,-1,1252,1114,0,0
35,-90,0,0,0,0,0,0,0,0,0,-1,1259,1114,0,0
42,-90,0,0,0,0,0,0,0,0,0,-1,1266,1114,0,0
49,-90,0,0,0,0,0,0,0,0,0,-1,1273,1114,0,0
56,-90,0,0,0,0,0,0,0,0,0,-1,1280,1114,0,0
63,-90,0,0,0,0,0,0,0,0,0,-1,1287,1114,0,0
70,-90,0,0,0,0,0,0,0,0,0,-1,1294,1114,0,0
77,-90,0,0,0,0,0,0,0,0,0,-1,1301,1114,0,0
84,-90,0,0,0,0,0,0,0,0,0,-1,1308,1114,0,0
91,-90,0,0,0,0,0,0,0,0,0,-1,1315,1114,0,0
98,-90,0,0,0,0,0,0,0,0,0,-1,1322,1114,0,0
105,-90,0,0,0,0,0,0,0,0,0,-1,1329,1114,0,0
112,-90,0,0,0,0,0,0,0,0,0,-1,1336,1114,0,0
119,-90,0,0,0,0,0,0,0,0,0,-1,1343,1114,0,0
126,-90,0,0,0,0,0,0,0,0,0,-1,1350,1114,0,0
133,-90,0,0,0,0,0,0,0,0,0,-1,1357,1114,0,0
140,-90,0,0,0,0,0,0,0,0,0,-1,1364,1114,0,0
147,-90,0,0,0,0,0,0,0,0,0,-1,1371,1114,0,0
154,-90,0,0,0,0,0,0,0,0,0,-1,1378,1114,0,0
161,-90,0,0,0,0,0,0,0,0,0,-1,1385,1114,0,0
168,-90,0,0,0,0,0,0,0,0,0,-1,1392,1114,0,0
175,-90,0,0,0,0,0,0,0,0,0,-1,1399,1114,0,0
182,-90,0,0,0,0,0,0,0,0,0,-1,1406,1114,0,0
189,-90,0,0,0,0,0,0,0,0,0,-1,1413,1114,0,0
196,-90,0,0,0,0,0,0,0,0,0,-1,1420,1114,0,0
203,-90,0,0,0,0,0,0,0,0,0,-1,1427,1114,0,0
210,-90,0,0,0,0,0,0,0,0,0,-1,1434,1114,0,0
217,-90,0,0,0,0,0,0,0,0,0,-1,1441,1114,0,0
224,-90,0,0,0,0,0,0,0,0,0,-1,1448,1114,0,0
231,-90,0,0,0,0,0,0,0,0,0,-1,1455,1114,0,0
238,-90,0,0,0,0,0,0,0,0,0,-1,1462,1114,0,0
245,-90,0,0,0,0,0,0,0,0,0,-1,1469,1114,0,0
252,-90,0,0,0,0,0,0,0,0,0,-1,1476,1114,0,0
259,-90,0,0,0,0,0,0,0,0,0,-1,1483,1114,0,0
266,-90,0,0,0,0,0,0,0,0,0,-1,1490,1114,0,0
273,-90,0,0,0,0,0,0,0,0,0,-1,1497,1114,0,0
280,-90,0,0,0,0,0,0,0,0,0,-1,1504,1114,0,0
287,-90,0,0,0,0,0,0,0,0,0,-1,1511,1114,0,0
294,-90,0,0,0,0,0,0,0,0,0,-1,1518,1114,0,0
301,-90,0,0,0,0,0,0,0,0,0,-1,1525,1114,0,0
308,-90,0,0,0,0,0,0,0,0,0,-1,1532,1114,0,0
315,-90,0,0,0,0,0,0,0,0,0,-1,1539,1114,0,0
322,-90,0,0,0,0,0,0,0,0,0,-1,1546,1114,0,0
329,-90,0,0,0,0,0,0,0,0,0,-1,1553,1114,0,0
336,-90,0,0,0,0,0,0,0,0,0,-1,1560,1114,0,0
343,-90,0,0,0,0,0,0,0,0,0,-1,1567,1114,0,0
350,-90,0,0,0,0,0,0,0,0,0,-1,1574,1114,0,0
357,-90,0,0,0,0,0,0,0,0,0,-1,1581,1114,0,0
364,-90,0,0,0,0,0,0,0,0,0,-1,1588,1114,0,0
371,-90,0,0,0,0,0,0,0,0,0,-1,1595,1114,0,0
378,-90,0,0,0,0,0,0,0,0,0,-1,1602,1114,0,0
385,-90,0,0,0,0,0,0,0,0,0,-1,1609,1114,0,0
392,-90,0,0,0,0,0,0,0,0,0,-1,1616,1114,0,0
399,-90,0,0,0,0,0,0,0,0,0,-1,1623,1114,0,0
406,-90,0,0,0,0,0,0,0,0,0,-1,1630,1114,0,0
413,-90,0,0,0,0,0,0,0,0,0,-1,1637,1114,0,0
420,-90,0,0,0,0,0,0,0,0,0,-1,1644,1114,0,0
427,-90,0,0,0,0,0,0,0,0,0,-1,1651,1114,0,0
434,-90,0,0,0,0,0,0,0,0,0,-1,1658,1114,0,0
441,-90,0,0,0,0,0,0,0,0,0,-1,1665,1114,0,0
448,-90,0,0,0,0,0,0,0,0,0,-1,1672,1114,0,0
455,-90,0,0,0,0,0,0,0,0,0,-1,1679,1114,0,0
462,-90,0,0,0,0,0,0,0,0,0,-1,1686,1114,0,0
469,-90,0,0,0,0,0,0,0,0,0,-1,1693,1114,0,0
476,-90,0,0,0,0,0,0,0,0,0,-1,1700,1114,0,0
483,-90,0,0,0,0,0,0,0,0,0,-1,1707,1114,0,0
490,-90,0,0,0,0,0,0,0,0,0,-1,1714,1114,0,0
497,-90,0,0,0,0,0,0,0,0,0,-1,1721,1114,0,0
504,-90,0,0,0,0,0,0,0,0,0,-1,1728,1114,0,0
511,-90,0,0,0,0,0,0,0,0,0,-1,1735,1114,0,0
518,-90,0,0,0,0,0,0,0,0,0,-1,1742,1114,0,0
525,-90,0,0,0,0,0,0,0,0,0,-1,1749,1114,0,0
532,-90,0,0,0,0,0,0,0,0,0,-1,1756,1114,0,0
539,-90,0,0,0,0,0,0,0,0,0,-1,1763,1114,0,0
546,-90,0,0,0,0,0,0,0,0,0,-1,1770,1114,0,0
553,-90,0,0,0,0,0,0,0,0,0,-1,1777,1114,0,0
560,-90,0,0,0,0,0,0,0,0,0,-1,1784,1114,0,0
567,-90,0,0,0,0,0,0,0,0,0,-1,1791,1114,0,0
574,-90,0,0,0,0,0,0,0,0,0,-1,1798,1114,0,0
581,-90,0,0,0,0,0,0,0,0,0,-1,1805,1114,0,0
588,-90,0,0,0,0,0,0,0,0,0,-1,1812,1114,0,0
595,-90,0,0,0,0,0,0,0,0,0,-1,1819,1114,0,0
602,-90,0,0,0,0,0,0,0,0,0,-1,1826,1114,0,0
609,-90,0,0,0,0,0,0,0,0,0,-1,1833,1114,0,0
616,-90,0,0,0,0,0,0,0,0,0,-1,1840,1114,0,0
623,-90,0,0,0,0,0,0,0,0,0,-1,1847,1114,0,0
630,-90,0,0,0,0,0,0,0,0,0,-1,1854,1114,0,0
637,-90,0,0,0,0,0,0,0,0,0,-1,1861,1114,0,0
644,-90,75.5814,2.40308,0.00762409,-0.00358838,-0.00280431,0.00828635,-0.00425064,-0.231909,0.00736218,0.034798,1868,1114,75.5814,-2.40313
651,-90,75.6356,2.3457,0.00557699,-0.00262907,-0.00179739,0.00595341,-0.00300549,-0.206442,0.00526494,0.0384704,1875,1114,75.6357,-2.34571
658,-90,75.691,2.18408,0.00411416,-0.00197952,-0.0009722,0.0042655,-0.00213087,-0.154436,0.00376087,0.0428245,1882,1114,75.691,-2.18413
665,-90,75.6716,1.9574,0.0029643,-0.00140984,-0.000379492,0.00299698,-0.00144252,-0.0859027,0.00261499,0.0425641,1889,1114,75.6716,-1.95738
672,-90,75.7189,2.18994,0.00203389,-0.000885848,3.27383e-05,0.00203426,-0.000886215,0.0112109,0.00172902,0.0403896,1896,1114,75.7189,-2.18995
679,-90,75.7562,2.51062,0.00146621,-0.000588805,0.00033105,0.00151822,-0.000640818,0.155843,0.00128037,0.0360819,1903,1114,75.7563,-2.51065
686,-90,75.7795,2.48474,0.00116157,-0.000564358,0.000389733,0.00124549,-0.000648283,0.212101,0.00111135,0.0335154,1910,1114,75.7796,-2.48473
693,-90,75.7274,2.354,0.00099249,-0.000725329,0.000542506,0.00114947,-0.000882312,0.281674,0.00117643,0.0350757,1917,1114,75.7274,-2.354
700,-90,75.6962,2.354,0.000894158,-0.000794537,0.000745202,0.00117598,-0.00107635,0.361553,0.00130081,0.0344103,1924,1114,75.6962,-2.35395
707,-90,75.7119,2.26428,0.000601469,-0.000685233,0.00103489,0.00117668,-0.00126044,0.5073,0.00140735,0.0260556,1931,1114,75.7119,-2.26431
714,-90,75.74,2.12146,0,0,0,0,0,0,0,-1,1938,1114,75.74,-2.12147
721,-90,63.521,8.76965,0,0,0,0,0,0,0,-1,1945,1114,63.521,-8.7697
728,-90,70.8101,9.23425,0,0,0,0,0,0,0,-1,1952,1114,70.81,-9.2342
735,-90,70.6715,8.67529,-0.00163638,0.00114687,0.00180596,0.00203518,-0.0025247,1.11367,0.0026377,0.0398988,1959,1114,70.6715,-8.67533
742,-90,70.8158,8.01233,-0.00264411,0.00219093,0.00207689,0.00296055,-0.00341373,1.21592,0.0036833,0.0379403,1966,1114,70.8158,-8.01237
749,-90,71.1548,7.30408,-0.00405687,0.0034864,0.00197716,0.00397321,-0.00454368,1.32938,0.00492091,0.0244449,1973,1114,71.1547,-7.30408
756,-90,71.0671,6.81201,-0.00589722,0.0056538,0.00116114,0.00576937,-0.00601278,1.4716,0.00680291,0.019398,1980,1114,71.0672,-6.81203
763,-90,70.9746,6.28906,-0.0083961,0.00894217,-0.00114121,0.00901696,-0.00847089,-1.50535,0.0100983,0.0141155,1987,1114,70.9746,-6.2891
770,-90,70.8818,5.74658,-0.0114805,0.0132272,-0.00466863,0.0140799,-0.0123332,-1.39014,0.0152607,0.0183897,1994,1114,70.8817,-5.74655
777,-90,70.7637,5.22388,-0.0147038,0.0182345,-0.0098035,0.0209315,-0.0174008,-1.30233,0.0221624,0.0177731,2001,1114,70.7636,-5.22393
784,-90,70.6477,4.75293,-0.0179303,0.0237535,-0.0164886,0.0294871,-0.0236639,-1.23614,0.0307481,0.03118,2008,1114,70.6477,-4.7529
791,-90,70.4795,4.3844,-0.0211721,0.0299938,-0.0254184,0.0404745,-0.0316527,-1.17971,0.0417464,0.0436666,2015,1114,70.4795,-4.38439
798,-90,70.123,4.33923,-0.024276,0.0371091,-0.0371509,0.054606,-0.0417729,-1.13064,0.0558086,0.0480394,2022,1114,70.123,-4.33926
805,-90,69.6682,3.77014,0,0,0,0,0,0,0,-1,2029,1114,69.6682,-3.77009
812,-90,69.0085,3.35559,0,0,0,0,0,0,0,-1,2036,1114,69.0086,-3.35557
-700,-97,0,0,0,0,0,0,0,0,0,-1,524,1121,0,0
-693,-97,-52.8828,-2.00745,0,0,0,0,0,0,0,-1,531,1121,-52.8828,2.0075
-686,-97,-52.8419,-1.3125,0,0,0,0,0,0,0,-1,538,1121,-52.8419,1.31248
-679,-97,-52.8293,-0.756958,0,0,0,0,0,0,0,-1,545,1121,-52.8293,0.756919
-672,-97,-53.0425,-0.0928955,0,0,0,0,0,0,0,-1,552,1121,-53.0425,0.0928653
-665,-97,-54.1696,1.33337,0,0,0,0,0,0,0,-1,559,1121,-54.1696,-1.33335
-658,-97,-54.2701,2.19617,-0.00476642,0.00642416,0.00618569,0.00916974,-0.00751199,1.15306,0.00964704,0.046,566,1121,-54.2701,-2.19616
-651,-97,-54.412,3.09277,-0.0066342,0.00731788,0.00304087,0.00795184,-0.00726815,1.36526,0.00879022,0.0395687,573,1121,-54.412,-3.09271
-644,-97,-54.5276,3.83252,-0.00727961,0.00721269,0.000770739,0.00725356,-0.00732049,1.51781,0.00841436,0.0171912,580,1121,-54.5276,-3.8325
-637,-97,-54.5776,4.50757,-0.00669489,0.00592364,-0.000831297,0.00597817,-0.00674942,-1.50529,0.00735277,0.0162039,587,1121,-54.5775,-4.50753
-630,-97,-54.6288,5.09985,-0.00575706,0.00419393,-0.0020497,0.00459959,-0.00616272,-1.37541,0.00623543,0.0118909,594,1121,-54.6288,-5.09988
-623,-97,-54.6778,5.62048,-0.00448408,0.00208395,-0.00293836,0.0032066,-0.00560673,-1.20584,0.00515089,0.0155065,601,1121,-54.6778,-5.62048
-616,-97,-54.7685,6.30078,-0.00289201,-0.000356882,-0.00354398,0.00213939,-0.00538829,-0.957143,0.004479,0.0212677,608,1121,-54.7685,-6.30078
-609,-97,-54.8181,6.93457,-0.000993146,-0.00308991,-0.00390536,0.00200211,-0.00608516,-0.654266,0.0048635,0.0307694,615,1121,-54.8181,-6.93459
-602,-97,-54.8998,7.46472,0.00130814,-0.00656081,-0.0037327,0.00279706,-0.00804972,-0.379544,0.00650255,0.0329962,622,1121,-54.8999,-7.46478
-595,-97,-54.9027,8.12231,0.00482086,-0.0103948,-0.00285596,0.00533926,-0.0109132,-0.17956,0.00956552,0.0296885,629,1121,-54.9027,-8.12232
-588,-97,-55.293,8.68591,0,0,0,0,0,0,0,-1,636,1121,-55.293,-8.6859
-581,-97,-51.2355,3.23926,0,0,0,0,0,0,0,-1,643,1121,-51.2355,-3.23926
-574,-97,-58.9521,0.246826,0,0,0,0,0,0,0,-1,650,1121,-58.9521,-0.246887
-567,-97,-58.9872,0.250854,0,0,0,0,0,0,0,-1,657,1121,-58.9872,-0.250841
-560,-97,-58.9394,0.403687,0,0,0,0,0,0,0,-1,664,1121,-58.9394,-0.403677
-553,-97,-58.6727,0.277344,0,0,0,0,0,0,0,-1,671,1121,-58.6727,-0.277368
-546,-97,-58.7512,0.547485,0,0,0,0,0,0,0,-1,678,1121,-58.7512,-0.547543
-539,-97,-58.8448,0.31897,0,0,0,0,0,0,0,-1,685,1121,-58.8448,-0.31898
-532,-97,-58.8849,-0.00683594,0,0,0,0,0,0,0,-1,692,1121,-58.885,0.00681729
-525,-97,0,0,0,0,0,0,0,0,0,-1,699,1121,0,0
-518,-97,0,0,0,0,0,0,0,0,0,-1,706,1121,0,0
-511,-97,0,0,0,0,0,0,0,0,0,-1,713,1121,0,0
-504,-97,0,0,0,0,0,0,0,0,0,-1,720,1121,0,0
-497,-97,0,0,0,0,0,0,0,0,0,-1,727,1121,0,0
-490,-97,0,0,0,0,0,0,0,0,0,-1,734,1121,0,0
-483,-97,0,0,0,0,0,0,0,0,0,-1,741,1121,0,0
-476,-97,0,0,0,0,0,0,0,0,0,-1,748,1121,0,0
-469,-97,0,0,0,0,0,0,0,0,0,-1,755,1121,0,0
-462,-97,0,0,0,0,0,0,0,0,0,-1,762,1121,0,0
-455,-97,0,0,0,0,0,0,0,0,0,-1,769,1121,0,0
-448,-97,0,0,0,0,0,0,0,0,0,-1,776,1121,0,0
-441,-97,0,0,0,0,0,0,0,0,0,-1,783,1121,0,0
-434,-97,0,0,0,0,0,0,0,0,0,-1,790,1121,0,0
-427,-97,0,0,0,0,0,0,0,0,0,-1,797,1121,0,0
-420,-97,0,0,0,0,0,0,0,0,0,-1,804,1121,0,0
-413,-97,0,0,0,0,0,0,0,0,0,-1,811,1121,0,0
-406,-97,0,0,0,0,0,0,0,0,0,-1,818,1121,0,0
-399,-97,0,0,0,0,0,0,0,0,0,-1,825,1121,0,0
-392,-97,0,0,0,0,0,0,0,0,0,-1,832,1121,0,0
-385,-97,0,0,0,0,0,0,0,0,0,-1,839,1121,0,0
-378,-97,0,0,0,0,0,0,0,0,0,-1,846,1121,0,0
-371,-97,0,0,0,0,0,0,0,0,0,-1,853,1121,0,0
-364,-97,0,0,0,0,0,0,0,0,0,-1,860,1121,0,0
-357,-97,0,0,0,0,0,0,0,0,0,-1,867,1121,0,0
-350,-97,0,0,0,0,0,0,0,0,0,-1,874,1121,0,0
-343,-97,0,0,0,0,0,0,0,0,0,-1,881,1121,0,0
-336,-97,0,0,0,0,0,0,0,0,0,-1,888,1121,0,0
-329,-97,0,0,0,0,0,0,0,0,0,-1,895,1121,0,0
-322,-97,0,0,0,0,0,0,0,0,0,-1,902,1121,0,0
-315,-97,0,0,0,0,0,0,0,0,0,-1,909,1121,0,0
-308,-97,0,0,0,0,0,0,0,0,0,-1,916,1121,0,0
-301,-97,0,0,0,0,0,0,0,0,0,-1,923,1121,0,0
-294,-97,0,0,0,0,0,0,0,0,0,-1,930,1121,0,0
-287,-97,0,0,0,0,0,0,0,0,0,-1,937,1121,0,0
-280,-97,0,0,0,0,0,0,0,0,0,-1,944,1121,0,0
-273,-97,0,0,0,0,0,0,0,0,0,-1,951,1121,0,0
-266,-97,0,0,0,0,0,0,0,0,0,-1,958,1121,0,0
-259,-97,0,0,0,0,0,0,0,0,0,-1,965,1121,0,0
-252,-97,0,0,0,0,0,0,0,0,0,-1,972,1121,0,0
-245,-97,0,0,0,0,0,0,0,0,0,-1,979,1121,0,0
-238,-97,0,0,0,0,0,0,0,0,0,-1,986,1121,0,0
-231,-97,0,0,0,0,0,0,0,0,0,-1,993,1121,0,0
-224,-97,0,0,0,0,0,0,0,0,0,-1,1000,1121,0,0
-217,-97,0,0,0,0,0,0,0,0,0,-1,1007,1121,0,0
-210,-97,0,0,0,0,0,0,0,0,0,-1,1014,1121,0,0
-203,-97,0,0,0,0,0,0,0,0,0,-1,1021,1121,0,0
-196,-97,0,0,0,0,0,0,0,0,0,-1,1028,1121,0,0
-189,-97,0,0,0,0,0,0,0,0,0,-1,1035,1121,0,0
-182,-97,0,0,0,0,0,0,0,0,0,-1,1042,1121,0,0
-175,-97,0,0,0,0,0,0,0,0,0,-1,1049,1121,0,0
-168,-97,0,0,0,0,0,0,0,0,0,-1,1056,1121,0,0
-161,-97,0,0,0,0,0,0,0,0,0,-1,1063,1121,0,0
-154,-97,0,0,0,0,0,0,0,0,0,-1,1070,1121,0,0
-147,-97,0,0,0,0,0,0,0,0,0,-1,1077,1121,0,0
-140,-97,0,0,0,0,0,0,0,0,0,-1,1084,1121,0,0
-133,-97,0,0,0,0,0,0,0,0,0,-1,1091,1121,0,0
-126,-97,0,0,0,0,0,0,0,0,0,-1,1098,1121,0,0
-119,-97,0,0,0,0,0,0,0,0,0,-1,1105,1121,0,0
-112,-97,0,0,0,0,0,0,0,0,0,-1,1112,1121,0,0
-105,-97,0,0,0,0,0,0,0,0,0,-1,1119,1121,0,0
-98,-97,0,0,0,0,0,0,0,0,0,-1,1126,1121,0,0
-91,-97,0,0,0,0,0,0,0,0,0,-1,1133,1121,0,0
-84,-97,0,0,0,0,0,0,0,0,0,-1,1140,1121,0,0
-77,-97,0,0,0,0,0,0,0,0,0,-1,1147,1121,0,0
-70,-97,0,0,0,0,0,0,0,0,0,-1,1154,1121,0,0
-63,-97,0,0,0,0,0,0,0,0,0,-1,1161,1121,0,0
-56,-97,0,0,0,0,0,0,0,0,0,-1,1168,1121,0,0
-49,-97,0,0,0,0,0,0,0,0,0,-1,1175,1121,0,0
-42,-97,0,0,0,0,0,0,0,0,0,-1,1182,1121,0,0
-35,-97,0,0,0,0,0,0,0,0,0,-1,1189,1121,0,0
-28,-97,0,0,0,0,0,0,0,0,0,-1,1196,1121,0,0
-21,-97,0,0,0,0,0,0,0,0,0,-1,1203,1121,0,0
-14,-97,0,0,0,0,0,0,0,0,0,-1,1210,1121,0,0
-7,-97,0,0,0,0,0,0,0,0,0,-1,1217,1121,0,0
0,-97,0,0,0,0,0,0,0,0,0,-1,1224,1121,0,0
7,-97,0,0,0,0,0,0,0,0,0,-1,1231,1121,0,0
14,-97,0,0,0,0,0,0,0,0,0,-1,1238,1121,0,0
21,-97,0,0,0,0,0,0,0,0,0,-1,1245,1121,0,0
28,-97,0,0,0,0,0,0,0,0,0,-1,1252,1121,0,0
35,-97,0,0,0,0,0,0,0,0,0,-1,1259,1121,0,0
42,-97,0,0,0,0,0,0,0,0,0,-1,1266,1121,0,0
49,-97,0,0,0,0,0,0,0,0,0,-1,1273,1121,0,0
56,-97,0,0,0,0,0,0,0,0,0,-1,1280,1121,0,0
63,-97,0,0,0,0,0,0,0,0,0,-1,1287,1121,0,0
70,-97,0,0,0,0,0,0,0,0,0,-1,1294,1121,0,0
77,-97,0,0,0,0,0,0,0,0,0,-1,1301,1121,0,0
84,-97,0,0,0,0,0,0,0,0,0,-1,1308,1121,0,0
91,-97,0,0,0,0,0,0,0,0,0,-1,1315,1121,0,0
98,-97,0,0,0,0,0,0,0,0,0,-1,1322,1121,0,0
105,-97,0,0,0,0,0,0,0,0,0,-1,1329,1121,0,0
112,-97,0,0,0,0,0,0,0,0,0,-1,1336,1121,0,0
119,-97,0,0,0,0,0,0,0,0,0,-1,1343,1121,0,0
126,-97,0,0,0,0,0,0,0,0,0,-1,1350,1121,0,0
133,-97,0,0,0,0,0,0,0,0,0,-1,1357,1121,0,0
140,-97,0,0,0,0,0,0,0,0,0,-1,1364,1121,0,0
147,-97,0,0,0,0,0,0,0,0,0,-1,1371,1121,0,0
154,-97,0,0,0,0,0,0,0,0,0,-1,1378,1121,0,0
161,-97,0,0,0,0,0,0,0,0,0,-1,1385,1121,0,0
168,-97,0,0,0,0,0,0,0,0,0,-1,1392,1121,0,0
175,-97,0,0,0,0,0,0,0,0,0,-1,1399,1121,0,0
182,-97,0,0,0,0,0,0,0,0,0,-1,1406,1121,0,0
189,-97,0,0,0,0,0,0,0,0,0,-1,1413,1121,0,0
196,-97,0,0,0,0,0,0,0,0,0,-1,1420,1121,0,0
203,-97,0,0,0,0,0,0,0,0,0,-1,1427,1121,0,0
210,-97,0,0,0,0,0,0,0,0,0,-1,1434,1121,0,0
217,-97,0,0,0,0,0,0,0,0,0,-1,1441,1121,0,0
224,-97,0,0,0,0,0,0,0,0,0,-1,1448,1121,0,0
231,-97,0,0,0,0,0,0,0,0,0,-1,1455,1121,0,0
238,-97,0,0,0,0,0,0,0,0,0,-1,1462,1121,0,0
245,-97,0,0,0,0,0,0,0,0,0,-1,1469,1121,0,0
252,-97,0,0,0,0,0,0,0,0,0,-1,1476,1121,0,0
259,-97,0,0,0,0,0,0,0,0,0,-1,1483,1121,0,0
266,-97,0,0,0,0,0,0,0,0,0,-1,1490,1121,0,0
273,-97,0,0,0,0,0,0,0,0,0,-1,1497,1121,0,0
280,-97,0,0,0,0,0,0,0,0,0,-1,1504,1121,0,0
287,-97,0,0,0,0,0,0,0,0,0,-1,1511,1121,0,0
294,-97,0,0,0,0,0,0,0,0,0,-1,1518,1121,0,0
301,-97,0,0,0,0,0,0,0,0,0,-1,1525,1121,0,0
308,-97,0,0,0,0,0,0,0,0,0,-1,1532,1121,0,0
315,-97,0,0,0,0,0,0,0,0,0,-1,1539,1121,0,0
322,-97,0,0,0,0,0,0,0,0,0,-1,1546,1121,0,0
329,-97,0,0,0,0,0,0,0,0,0,-1,1553,1121,0,0
336,-97,0,0,0,0,0,0,0,0,0,-1,1560,1121,0,0
343,-97,0,0,0,0,0,0,0,0,0,-1,1567,1121,0,0
350,-97,0,0,0,0,0,0,0,0,0,-1,1574,1121,0,0
357,-97,0,0,0,0,0,0,0,0,0,-1,1581,1121,0,0
364,-97,0,0,0,0,0,0,0,0,0,-1,1588,1121,0,0
371,-97,0,0,0,0,0,0,0,0,0,-1,1595,1121,0,0
378,-97,0,0,0,0,0,0,0,0,0,-1,1602,1121,0,0
385,-97,0,0,0,0,0,0,0,0,0,-1,1609,1121,0,0
392,-97,0,0,0,0,0,0,0,0,0,-1,1616,1121,0,0
399,-97,0,0,0,0,0,0,0,0,0,-1,1623,1121,0,0
406,-97,0,0,0,0,0,0,0,0,0,-1,1630,1121,0,0
413,-97,0,0,0,0,0,0,0,0,0,-1,1637,1121,0,0
420,-97,0,0,0,0,0,0,0,0,0,-1,1644,1121,0,0
427,-97,0,0,0,0,0,0,0,0,0,-1,1651,1121,0,0
434,-97,0,0,0,0,0,0,0,0,0,-1,1658,1121,0,0
441,-97,0,0,0,0,0,0,0,0,0,-1,1665,1121,0,0
448,-97,0,0,0,0,0,0,0,0,0,-1,1672,1121,0,0
455,-97,0,0,0,0,0,0,0,0,0,-1,1679,1121,0,0
462,-97,0,0,0,0,0,0,0,0,0,-1,1686,1121,0,0
469,-97,0,0,0,0,0,0,0,0,0,-1,1693,1121,0,0
476,-97,0,0,0,0,0,0,0,0,0,-1,1700,1121,0,0
483,-97,0,0,0,0,0,0,0,0,0,-1,1707,1121,0,0
490,-97,0,0,0,0,0,0,0,0,0,-1,1714,1121,0,0
497,-97,0,0,0,0,0,0,0,0,0,-1,1721,1121,0,0
504,-97,0,0,0,0,0,0,0,0,0,-1,1728,1121,0,0
511,-97,0,0,0,0,0,0,0,0,0,-1,1735,1121,0,0
518,-97,0,0,0,0,0,0,0,0,0,-1,1742,1121,0,0
525,-97,0,0,0,0,0,0,0,0,0,-1,1749,1121,0,0
532,-97,0,0,0,0,0,0,0,0,0,-1,1756,1121,0,0
539,-97,0,0,0,0,0,0,0,0,0,-1,1763,1121,0,0
546,-97,0,0,0,0,0,0,0,0,0,-1,1770,1121,0,0
553,-97,0,0,0,0,0,0,0,0,0,-1,1777,1121,0,0
560,-97,0,0,0,0,0,0,0,0,0,-1,1784,1121,0,0
567,-97,0,0,0,0,0,0,0,0,0,-1,1791,1121,0,0
574,-97,0,0,0,0,0,0,0,0,0,-1,1798,1121,0,0
581,-97,0,0,0,0,0,0,0,0,0,-1,1805,1121,0,0
588,-97,0,0,0,0,0,0,0,0,0,-1,1812,1121,0,0
595,-97,0,0,0,0,0,0,0,0,0,-1,1819,1121,0,0
602,-97,0,0,0,0,0,0,0,0,0,-1,1826,1121,0,0
609,-97,0,0,0,0,0,0,0,0,0,-1,1833,1121,0,0
616,-97,0,0,0,0,0,0,0,0,0,-1,1840,1121,0,0
623,-97,0,0,0,0,0,0,0,0,0,-1,1847,1121,0,0
630,-97,0,0,0,0,0,0,0,0,0,-1,1854,1121,0,0
637,-97,0,0,0,0,0,0,0,0,0,-1,1861,1121,0,0
644,-97,75.6456,2.53613,0.00817447,-0.0028599,-0.00310786,0.00898959,-0.00367502,-0.256501,0.00752346,0.0355249,1868,1121,75.6457,-2.53611
651,-97,75.6387,2.65552,0.00591204,-0.00207964,-0.00217576,0.006466,-0.0026336,-0.249308,0.00540674,0.0374922,1875,1121,75.6387,-2.65553
658,-97,75.7047,2.4187,0.00433412,-0.0015655,-0.00134711,0.00462716,-0.00185854,-0.214196,0.00385657,0.0404528,1882,1121,75.7047,-2.41866
665,-97,75.7372,2.01843,0.00307523,-0.00109325,-0.00069545,0.00318819,-0.00120621,-0.161027,0.00262172,0.042012,1889,1121,75.7372,-2.01846
672,-97,75.7823,2.12366,0.00205996,-0.0006582,-0.000188534,0.00207297,-0.000671215,-0.0689212,0.00165182,0.0423854,1896,1121,75.7823,-2.12362
679,-97,75.7489,2.53674,0.00152257,-0.000493416,0.000210841,0.00154439,-0.000515231,0.103098,0.00123762,0.0412143,1903,1121,75.7489,-2.53672
686,-97,75.7417,2.56323,0.00136643,-0.000510594,0.000323412,0.00142059,-0.000564756,0.165929,0.00118121,0.0381895,1910,1121,75.7417,-2.56319
693,-97,75.7695,2.32202,0.00130143,-0.000680432,0.000498995,0.00141998,-0.000798979,0.233246,0.00129773,0.0358056,1917,1121,75.7696,-2.32197
700,-97,75.6643,2.22693,0.00124511,-0.00078027,0.000709797,0.00146909,-0.00100425,0.305666,0.00143636,0.0302703,1924,1121,75.6643,-2.22694
707,-97,75.6917,2.26746,0.00100662,-0.000701795,0.000984484,0.00145582,-0.001151,0.428067,0.00150847,0.0275821,1931,1121,75.6917,-2.26743
714,-97,75.7632,2.23181,0,0,0,0,0,0,0,-1,1938,1121,75.7632,-2.23184
721,-97,70.5569,9.46252,0,0,0,0,0,0,0,-1,1945,1121,70.5569,-9.46257
728,-97,70.5117,9.11108,-0.000173349,0.000414483,0.00157905,0.00172674,-0.00148561,0.877412,0.00185639,0.0422811,1952,1121,70.5117,-9.11108
735,-97,70.4272,8.51111,-0.000810052,0.000925227,0.00179198,0.00204857,-0.00193339,1.01085,0.0022993,0.031322,1959,1121,70.4273,-8.51112
742,-97,70.3701,7.97925,-0.00170011,0.0018393,0.00207223,0.00279466,-0.00265547,1.13881,0.00314698,0.027323,1966,1121,70.3701,-7.97922
749,-97,70.4717,7.36755,-0.00303197,0.00314709,0.00199182,0.0037335,-0.00361839,1.28448,0.00424479,0.0262133,1973,1121,70.4716,-7.36758
756,-97,70.4478,6.802,-0.00493046,0.0054607,0.00120428,0.00559845,-0.00506821,1.45691,0.00616093,0.017765,1980,1121,70.4477,-6.80194
763,-97,70.3438,6.28589,-0.00744267,0.00907185,-0.00107237,0.0091412,-0.00751202,-1.50622,0.00963006,0.0145011,1987,1121,70.3439,-6.28587
770,-97,70.2561,5.76868,-0.0104165,0.0138215,-0.00452109,0.0146374,-0.0112323,-1.39226,0.014979,0.0144198,1994,1121,70.2562,-5.76873
777,-97,70.175,5.18909,-0.0134771,0.0194485,-0.00950074,0.0219933,-0.0160218,-1.30909,0.0220381,0.0195148,2001,1121,70.175,-5.1891
784,-97,70.1387,4.54041,-0.0165389,0.0259039,-0.0161004,0.0313203,-0.0219553,-1.24628,0.0309167,0.040299,2008,1121,70.1387,-4.54047
791,-97,70.1899,3.6792,-0.0196141,0.0335529,-0.0250589,0.043502,-0.0295632,-1.19285,0.0424393,0.0456256,2015,1121,70.1899,-3.67919
798,-97,70.2996,3.07068,-0.022561,0.0426889,-0.0369234,0.0593359,-0.039208,-1.14723,0.0572886,0.0451722,2022,1121,70.2995,-3.07068
805,-97,70.4973,2.31519,0,0,0,0,0,0,0,-1,2029,1121,70.4973,-2.31517
812,-97,70.2966,1.51721,0,0,0,0,0,0,0,-1,2036,1121,70.2965,-1.51715
-700,-104,0,0,0,0,0,0,0,0,0,-1,524,1128,0,0
-693,-104,-52.0305,-0.689209,0,0,0,0,0,0,0,-1,531,1128,-52.0306,0.689227
-686,-104,-52.4796,-1.50977,0,0,0,0,0,0,0,-1,538,1128,-52.4796,1.50977
-679,-104,-52.5093,-0.963745,0,0,0,0,0,0,0,-1,545,1128,-52.5093,0.963762
-672,-104,-52.8906,-0.393555,0,0,0,0,0,0,0,-1,552,1128,-52.8906,0.393611
-665,-104,-53.9697,0.14502,0,0,0,0,0,0,0,-1,559,1128,-53.9697,-0.14496
-658,-104,-53.7816,2.46387,0,0,0,0,0,0,0,-1,566,1128,-53.7815,-2.46384
-651,-104,-53.8557,3.15234,-0.00362863,0.00574884,0.000836868,0.00582293,-0.00370273,1.48248,0.00554487,0.0463695,573,1128,-53.8556,-3.15229
-644,-104,-53.8656,3.83679,-0.00517291,0.00596639,-0.000837241,0.00602897,-0.00523549,-1.49619,0.00650891,0.0186602,580,1128,-53.8656,-3.83676
-637,-104,-53.8948,4.4751,-0.00539488,0.00510835,-0.00197633,0.00546791,-0.00575444,-1.39083,0.00647993,0.0135546,587,1128,-53.8948,-4.47506
-630,-104,-53.9276,5.00671,-0.00522748,0.00379947,-0.00280603,0.00460062,-0.00602863,-1.29268,0.00615524,0.0193294,594,1128,-53.9276,-5.00671
-623,-104,-54.0355,5.6272,-0.00468463,0.00209197,-0.0033669,0.00348034,-0.00607301,-1.17968,0.00558292,0.0216968,601,1128,-54.0355,-5.62715
-616,-104,-54.4082,6.35913,-0.0037791,2.97856e-05,-0.00369284,0.00228033,-0.00602965,-1.02347,0.00495788,0.0301862,608,1128,-54.4082,-6.35916
-609,-104,-54.5355,6.90491,-0.00252108,-0.00235164,-0.00381062,0.0013752,-0.00624792,-0.796513,0.00469135,0.0401327,615,1128,-54.5355,-6.90493
-602,-104,-53.9535,7.46655,0,0,0,0,0,0,0,-1,622,1128,-53.9535,-7.46655
-595,-104,-54.1658,8.25537,0,0,0,0,0,0,0,-1,629,1128,-54.1658,-8.25534
-588,-104,-54.3781,9.04419,0,0,0,0,0,0,0,-1,636,1128,-54.3781,-9.04414
-581,-104,-23.9373,2.85864,0,0,0,0,0,0,0,-1,643,1128,-23.9373,-2.85861
-574,-104,-58.8723,0.186401,0,0,0,0,0,0,0,-1,650,1128,-58.8723,-0.186443
-567,-104,-58.9076,0.267456,0,0,0,0,0,0,0,-1,657,1128,-58.9076,-0.267439
-560,-104,-58.9099,0.481079,0,0,0,0,0,0,0,-1,664,1128,-58.9099,-0.481087
-553,-104,-58.8408,0.230103,0,0,0,0,0,0,0,-1,671,1128,-58.8408,-0.230108
-546,-104,-58.8677,0.310303,0,0,0,0,0,0,0,-1,678,1128,-58.8678,-0.31029
-539,-104,-58.8643,0.222168,0,0,0,0,0,0,0,-1,685,1128,-58.8643,-0.222212
-532,-104,-58.8907,0.0115967,0,0,0,0,0,0,0,-1,692,1128,-58.8907,-0.0115982
-525,-104,-58.957,0.246582,0,0,0,0,0,0,0,-1,699,1128,-58.957,-0.246571
-518,-104,0,0,0,0,0,0,0,0,0,-1,706,1128,0,0
-511,-104,0,0,0,0,0,0,0,0,0,-1,713,1128,0,0
-504,-104,0,0,0,0,0,0,0,0,0,-1,720,1128,0,0
-497,-104,0,0,0,0,0,0,0,0,0,-1,727,1128,0,0
-490,-104,0,0,0,0,0,0,0,0,0,-1,734,1128,0,0
-483,-104,0,0,0,0,0,0,0,0,0,-1,741,1128,0,0
-476,-104,0,0,0,0,0,0,0,0,0,-1,748,1128,0,0
-469,-104,0,0,0,0,0,0,0,0,0,-1,755,1128,0,0
-462,-104,0,0,0,0,0,0,0,0,0,-1,762,1128,0,0
-455,-104,0,0,0,0,0,0,0,0,0,-1,769,1128,0,0
-448,-104,0,0,0,0,0,0,0,0,0,-1,776,1128,0,0
-441,-104,0,0,0,0,0,0,0,0,0,-1,783,1128,0,0
-434,-104,0,0,0,0,0,0,0,0,0,-1,790,1128,0,0
-427,-104,0,0,0,0,0,0,0,0,0,-1,797,1128,0,0
-420,-104,0,0,0,0,0,0,0,0,0,-1,804,1128,0,0
-413,-104,0,0,0,0,0,0,0,0,0,-1,811,1128,0,0
-406,-104,0,0,0,0,0,0,0,0,0,-1,818,1128,0,0
-399,-104,0,0,0,0,0,0,0,0,0,-1,825,1128,0,0
-392,-104,0,0,0,0,0,0,0,0,0,-1,832,1128,0,0
-385,-104,0,0,0,0,0,0,0,0,0,-1,839,1128,0,0
-378,-104,0,0,0,0,0,0,0,0,0,-1,846,1128,0,0
-371,-104,0,0,0,0,0,0,0,0,0,-1,853,1128,0,0
-364,-104,0,0,0,0,0,0,0,0,0,-1,860,1128,0,0
-357,-104,0,0,0,0,0,0,0,0,0,-1,867,1128,0,0
-350,-104,0,0,0,0,0,0,0,0,0,-1,874,1128,0,0
-343,-104,0,0,0,0,0,0,0,0,0,-1,881,1128,0,0
-336,-104,0,0,0,0,0,0,0,0,0,-1,888,1128,0,0
-329,-104,0,0,0,0,0,0,0,0,0,-1,895,1128,0,0
-322,-104,0,0,0,0,0,0,0,0,0,-1,902,1128,0,0
-315,-104,0,0,0,0,0,0,0,0,0,-1,909,1128,0,0
-308,-104,0,0,0,0,0,0,0,0,0,-1,916,1128,0,0
-301,-104,0,0,0,0,0,0,0,0,0,-1,923,1128,0,0
-294,-104,0,0,0,0,0,0,0,0,0,-1,930,1128,0,0
-287,-104,0,0,0,0,0,0,0,0,0,-1,937,1128,0,0
-280,-104,0,0,0,0,0,0,0,0,0,-1,944,1128,0,0
-273,-104,0,0,0,0,0,0,0,0,0,-1,951,1128,0,0
-266,-104,0,0,0,0,0,0,0,0,0,-1,958,1128,0,0
-259,-104,0,0,0,0,0,0,0,0,0,-1,965,1128,0,0
-252,-104,0,0,0,0,0,0,0,0,0,-1,972,1128,0,0
-245,-104,0,0,0,0,0,0,0,0,0,-1,979,1128,0,0
-238,-104,0,0,0,0,0,0,0,0,0,-1,986,1128,0,0
-231,-104,0,0,0,0,0,0,0,0,0,-1,993,1128,0,0
-224,-104,0,0,0,0,0,0,0,0,0,-1,1000,1128,0,0
-217,-104,0,0,0,0,0,0,0,0,0,-1,1007,1128,0,0
-210,-104,0,0,0,0,0,0,0,0,0,-1,1014,1128,0,0
-203,-104,0,0,0,0,0,0,0,0,0,-1,1021,1128,0,0
-196,-104,0,0,0,0,0,0,0,0,0,-1,1028,1128,0,0
-189,-104,0,0,0,0,0,0,0,0,0,-1,1035,1128,0,0
-182,-104,0,0,0,0,0,0,0,0,0,-1,1042,1128,0,0
-175,-104,0,0,0,0,0,0,0,0,0,-1,1049,1128,0,0
-168,-104,0,0,0,0,0,0,0,0,0,-1,1056,1128,0,0
-161,-104,0,0,0,0,0,0,0,0,0,-1,1063,1128,0,0
-154,-104,0,0,0,0,0,0,0,0,0,-1,1070,1128,0,0
-147,-104,0,0,0,0,0,0,0,0,0,-1,1077,1128,0,0
-140,-104,0,0,0,0,0,0,0,0,0,-1,1084,1128,0,0
-133,-104,0,0,0,0,0,0,0,0,0,-1,1091,1128,0,0
-126,-104,0,0,0,0,0,0,0,0,0,-1,1098,1128,0,0
-119,-104,0,0,0,0,0,0,0,0,0,-1,1105,1128,0,0
-112,-104,0,0,0,0,0,0,0,0,0,-1,1112,1128,0,0
-105,-104,0,0,0,0,0,0,0,0,0,-1,1119,1128,0,0
-98,-104,0,0,0,0,0,0,0,0,0,-1,1126,1128,0,0
-91,-104,0,0,0,0,0,0,0,0,0,-1,1133,1128,0,0
-84,-104,0,0,0,0,0,0,0,0,0,-1,1140,1128,0,0
-77,-104,0,0,0,0,0,0,0,0,0,-1,1147,1128,0,0
-70,-104,0,0,0,0,0,0,0,0,0,-1,1154,1128,0,0
-63,-104,0,0,0,0,0,0,0,0,0,-1,1161,1128,0,0
-56,-104,0,0,0,0,0,0,0,0,0,-1,1168,1128,0,0
-49,-104,0,0,0,0,0,0,0,0,0,-1,1175,1128,0,0
-42,-104,0,0,0,0,0,0,0,0,0,-1,1182,1128,0,0
-35,-104,0,0,0,0,0,0,0,0,0,-1,1189,1128,0,0
-28,-104,0,0,0,0,0,0,0,0,0,-1,1196,1128,0,0
-21,-104,0,0,0,0,0,0,0,0,0,-1,1203,1128,0,0
-14,-104,0,0,0,0,0,0,0,0,0,-1,1210,1128,0,0
-7,-104,0,0,0,0,0,0,0,0,0,-1,1217,1128,0,0
0,-104,0,0,0,0,0,0,0,0,0,-1,1224,1128,0,0
7,-104,0,0,0,0,0,0,0,0,0,-1,1231,1128,0,0
14,-104,0,0,0,0,0,0,0,0,0,-1,1238,1128,0,0
21,-104,0,0,0,0,0,0,0,0,0,-1,1245,1128,0,0
28,-104,0,0,0,0,0,0,0,0,0,-1,1252,1128,0,0
35,-104,0,0,0,0,0,0,0,0,0,-1,1259,1128,0,0
42,-104,0,0,0,0,0,0,0,0,0,-1,1266,1128,0,0
49,-104,0,0,0,0,0,0,0,0,0,-1,1273,1128,0,0
56,-104,0,0,0,0,0,0,0,0,0,-1,1280,1128,0,0
63,-104,0,0,0,0,0,0,0,0,0,-1,1287,1128,0,0
70,-104,0,0,0,0,0,0,0,0,0,-1,1294,1128,0,0
77,-104,0,0,0,0,0,0,0,0,0,-1,1301,1128,0,0
84,-104,0,0,0,0,0,0,0,0,0,-1,1308,1128,0,0
91,-104,0,0,0,0,0,0,0,0,0,-1,1315,1128,0,0
98,-104,0,0,0,0,0,0,0,0,0,-1,1322,1128,0,0
105,-104,0,0,0,0,0,0,0,0,0,-1,1329,1128,0,0
112,-104,0,0,0,0,0,0,0,0,0,-1,1336,1128,0,0
119,-104,0,0,0,0,0,0,0,0,0,-1,1343,1128,0,0
126,-104,0,0,0,0,0,0,0,0,0,-1,1350,1128,0,0
133,-104,0,0,0,0,0,0,0,0,0,-1,1357,1128,0,0
140,-104,0,0,0,0,0,0,0,0,0,-1,1364,1128,0,0
147,-104,0,0,0,0,0,0,0,0,0,-1,1371,1128,0,0
154,-104,0,0,0,0,0,0,0,0,0,-1,1378,1128,0,0
161,-104,0,0,0,0,0,0,0,0,0,-1,1385,1128,0,0
168,-104,0,0,0,0,0,0,0,0,0,-1,1392,1128,0,0
175,-104,0,0,0,0,0,0,0,0,0,-1,1399,1128,0,0
182,-104,0,0,0,0,0,0,0,0,0,-1,1406,1128,0,0
189,-104,0,0,0,0,0,0,0,0,0,-1,1413,1128,0,0
196,-104,0,0,0,0,0,0,0,0,0,-1,1420,1128,0,0
203,-104,0,0,0,0,0,0,0,0,0,-1,1427,1128,0,0
210,-104,0,0,0,0,0,0,0,0,0,-1,1434,1128,0,0
217,-104,0,0,0,0,0,0,0,0,0,-1,1441,1128,0,0
224,-104,0,0,0,0,0,0,0,0,0,-1,1448,1128,0,0
231,-104,0,0,0,0,0,0,0,0,0,-1,1455,1128,0,0
238,-104,0,0,0,0,0,0,0,0,0,-1,1462,1128,0,0
245,-104,0,0,0,0,0,0,0,0,0,-1,1469,1128,0,0
252,-104,0,0,0,0,0,0,0,0,0,-1,1476,1128,0,0
259,-104,0,0,0,0,0,0,0,0,0,-1,1483,1128,0,0
266,-104,0,0,0,0,0,0,0,0,0,-1,1490,1128,0,0
273,-104,0,0,0,0,0,0,0,0,0,-1,1497,1128,0,0
280,-104,0,0,0,0,0,0,0,0,0,-1,1504,1128,0,0
287,-104,0,0,0,0,0,0,0,0,0,-1,1511,1128,0,0
294,-104,0,0,0,0,0,0,0,0,0,-1,1518,1128,0,0
301,-104,0,0,0,0,0,0,0,0,0,-1,1525,1128,0,0
308,-104,0,0,0,0,0,0,0,0,0,-1,1532,1128,0,0
315,-104,0,0,0,0,0,0,0,0,0,-1,1539,1128,0,0
322,-104,0,0,0,0,0,0,0,0,0,-1,1546,1128,0,0
329,-104,0,0,0,0,0,0,0,0,0,-1,1553,1128,0,0
336,-104,0,0,0,0,0,0,0,0,0,-1,1560,1128,0,0
343,-104,0,0,0,0,0,0,0,0,0,-1,1567,1128,0,0
350,-104,0,0,0,0,0,0,0,0,0,-1,1574,1128,0,0
357,-104,0,0,0,0,0,0,0,0,0,-1,1581,1128,0,0
364,-104,0,0,0,0,0,0,0,0,0,-1,1588,1128,0,0
371,-104,0,0,0,0,0,0,0,0,0,-1,1595,1128,0,0
378,-104,0,0,0,0,0,0,0,0,0,-1,1602,1128,0,0
385,-104,0,0,0,0,0,0,0,0,0,-1,1609,1128,0,0
392,-104,0,0,0,0,0,0,0,0,0,-1,1616,1128,0,0
399,-104,0,0,0,0,0,0,0,0,0,-1,1623,1128,0,0
406,-104,0,0,0,0,0,0,0,0,0,-1,1630,1128,0,0
413,-104,0,0,0,0,0,0,0,0,0,-1,1637,1128,0,0
420,-104,0,0,0,0,0,0,0,0,0,-1,1644,1128,0,0
427,-104,0,0,0,0,0,0,0,0,0,-1,1651,1128,0,0
434,-104,0,0,0,0,0,0,0,0,0,-1,1658,1128,0,0
441,-104,0,0,0,0,0,0,0,0,0,-1,1665,1128,0,0
448,-104,0,0,0,0,0,0,0,0,0,-1,1672,1128,0,0
455,-104,0,0,0,0,0,0,0,0,0,-1,1679,1128,0,0
462,-104,0,0,0,0,0,0,0,0,0,-1,1686,1128,0,0
469,-104,0,0,0,0,0,0,0,0,0,-1,1693,1128,0,0
476,-104,0,0,0,0,0,0,0,0,0,-1,1700,1128,0,0
483,-104,0,0,0,0,0,0,0,0,0,-1,1707,1128,0,0
490,-104,0,0,0,0,0,0,0,0,0,-1,1714,1128,0,0
497,-104,0,0,0,0,0,0,0,0,0,-1,1721,1128,0,0
504,-104,0,0,0,0,0,0,0,0,0,-1,1728,1128,0,0
511,-104,0,0,0,0,0,0,0,0,0,-1,1735,1128,0,0
518,-104,0,0,0,0,0,0,0,0,0,-1,1742,1128,0,0
525,-104,0,0,0,0,0,0,0,0,0,-1,1749,1128,0,0
532,-104,0,0,0,0,0,0,0,0,0,-1,1756,1128,0,0
539,-104,0,0,0,0,0,0,0,0,0,-1,1763,1128,0,0
546,-104,0,0,0,0,0,0,0,0,0,-1,1770,1128,0,0
553,-104,0,0,0,0,0,0,0,0,0,-1,1777,1128,0,0
560,-104,0,0,0,0,0,0,0,0,0,-1,1784,1128,0,0
567,-104,0,0,0,0,0,0,0,0,0,-1,1791,1128,0,0
574,-104,0,0,0,0,0,0,0,0,0,-1,1798,1128,0,0
581,-104,0,0,0,0,0,0,0,0,0,-1,1805,1128,0,0
588,-104,0,0,0,0,0,0,0,0,0,-1,1812,1128,0,0
595,-104,0,0,0,0,0,0,0,0,0,-1,1819,1128,0,0
602,-104,0,0,0,0,0,0,0,0,0,-1,1826,1128,0,0
609,-104,0,0,0,0,0,0,0,0,0,-1,1833,1128,0,0
616,-104,0,0,0,0,0,0,0,0,0,-1,1840,1128,0,0
623,-104,0,0,0,0,0,0,0,0,0,-1,1847,1128,0,0
630,-104,0,0,0,0,0,0,0,0,0,-1,1854,1128,0,0
637,-104,0,0,0,0,0,0,0,0,0,-1,1861,1128,0,0
644,-104,75.5754,2.63562,0.00833142,-0.00186585,-0.00289051,0.00909378,-0.0026282,-0.25787,0.00710256,0.037118,1868,1128,75.5754,-2.63557
651,-104,75.6306,2.77393,0.0059463,-0.00131799,-0.00208908,0.00650423,-0.00187592,-0.260979,0.0050783,0.0394086,1875,1128,75.6306,-2.77393
658,-104,75.7666,2.7074,0.004292,-0.000999639,-0.00133083,0.00460785,-0.00131548,-0.233019,0.00359161,0.0432411,1882,1128,75.7666,-2.70742
665,-104,75.7318,2.33582,0.0029545,-0.000691821,-0.000695518,0.00308266,-0.000819983,-0.182224,0.00237607,0.0442075,1889,1128,75.7318,-2.33577
672,-104,75.738,2.15283,0.00188801,-0.000411984,-0.000167616,0.00190016,-0.000424135,-0.0723673,0.00142928,0.0446845,1896,1128,75.7381,-2.1528
679,-104,75.6613,2.30566,0.00141658,-0.000436333,0.000269788,0.00145506,-0.000474815,0.141684,0.00116114,0.043367,1903,1128,75.6612,-2.30562
686,-104,75.6014,2.40027,0.00142452,-0.000548016,0.000401188,0.00150299,-0.000626491,0.193166,0.0012637,0.0399771,1910,1128,75.6014,-2.40032
693,-104,75.7378,2.24536,0.00146686,-0.000738307,0.000588666,0.00161417,-0.00088561,0.245198,0.00146354,0.0362886,1917,1128,75.7378,-2.2454
700,-104,75.6947,2.23132,0.00145461,-0.000871897,0.000807094,0.00170718,-0.00112447,0.303285,0.00164635,0.0295852,1924,1128,75.6947,-2.23135
707,-104,75.6837,2.36133,0,0,0,0,0,0,0,-1,1931,1128,75.6838,-2.36134
714,-104,45.5221,2.32166,0,0,0,0,0,0,0,-1,1938,1128,45.5221,-2.3216
721,-104,69.7915,9.89075,0,0,0,0,0,0,0,-1,1945,1128,69.7914,-9.8908
728,-104,69.98,9.09399,0.000420542,0.000187804,0.00166928,0.0019775,-0.00136916,0.750598,0.00194281,0.0465333,1952,1128,69.98,-9.09399
735,-104,70.0858,8.47778,-3.52679e-05,0.000639956,0.00190246,0.00223453,-0.00162984,0.873214,0.00224018,0.0398915,1959,1128,70.0859,-8.47777
742,-104,69.8658,7.99634,-0.000765346,0.00141564,0.0021781,0.00276098,-0.00211069,1.01749,0.002821,0.0261251,1966,1128,69.8659,-7.99635
749,-104,69.774,7.41516,-0.0019934,0.0027633,0.00213842,0.00358329,-0.0028134,1.20463,0.00370204,0.0242766,1973,1128,69.774,-7.41515
756,-104,69.7495,6.82605,-0.0038911,0.00523422,0.00138961,0.00544113,-0.00409802,1.42298,0.0055256,0.0178081,1980,1128,69.7494,-6.82603
763,-104,69.6934,6.27148,-0.00628756,0.0091406,-0.000854551,0.00918779,-0.00633475,-1.51563,0.00901226,0.018974,1987,1128,69.6933,-6.27149
770,-104,69.6099,5.74951,-0.00896314,0.0142054,-0.00421831,0.0149496,-0.00970726,-1.39619,0.0143425,0.018055,1994,1128,69.6098,-5.74952
777,-104,69.4929,5.09802,-0.0116452,0.0202236,-0.00905584,0.0226172,-0.0140387,-1.3124,0.0213556,0.0276073,2001,1128,69.493,-5.098
784,-104,69.498,4.36597,-0.0142904,0.0273008,-0.0156054,0.0325049,-0.0194945,-1.24891,0.0303335,0.0444357,2008,1128,69.4981,-4.36593
791,-104,69.9666,3.27979,0,0,0,0,0,0,0,-1,2015,1128,69.9666,-3.27982
798,-104,70.802,2.12744,-0.0193021,0.0464484,-0.0366583,0.0628135,-0.0356672,-1.15092,0.0575734,0.0490022,2022,1128,70.8021,-2.1274
805,-104,70.9792,1.40112,-0.0212634,0.0592119,-0.0521859,0.0848714,-0.0469229,-1.11382,0.0771358,0.0489264,2029,1128,70.9793,-1.40112
812,-104,70.8337,0.764404,-0.0227479,0.074568,-0.0716105,0.112488,-0.0606674,-1.08381,0.101452,0.047076,2036,1128,70.8338,-0.764422
-700,-111,0,0,0,0,0,0,0,0,0,-1,524,1135,0,0
-693,-111,-51.8448,-1.43689,0,0,0,0,0,0,0,-1,531,1135,-51.8449,1.43692
-686,-111,-52.0363,-1.66309,0,0,0,0,0,0,0,-1,538,1135,-52.0363,1.66306
-679,-111,-52.2934,-1.88159,0,0,0,0,0,0,0,-1,545,1135,-52.2934,1.88155
-672,-111,-52.6997,-1.04944,0,0,0,0,0,0,0,-1,552,1135,-52.6997,1.04945
-665,-111,-54.1876,-0.150513,0,0,0,0,0,0,0,-1,559,1135,-54.1876,0.150564
-658,-111,-53.1594,2.9082,0,0,0,0,0,0,0,-1,566,1135,-53.1593,-2.90815
-651,-111,-52.9713,3.29016,0,0,0,0,0,0,0,-1,573,1135,-52.9712,-3.29015
-644,-111,-53.1025,3.88245,-0.00309575,0.00604321,-0.00174619,0.00636549,-0.00341803,-1.38829,0.00573333,0.0291022,580,1135,-53.1025,-3.8824
-637,-111,-53.2278,4.47278,-0.00422047,0.00517177,-0.00263652,0.00586126,-0.00490995,-1.31501,0.00622684,0.0138238,587,1135,-53.2278,-4.47284
-630,-111,-53.2748,5.00598,-0.00492239,0.00391969,-0.00327393,0.00499994,-0.00600264,-1.25209,0.00636113,0.0289801,594,1135,-53.2749,-5.00599
-623,-111,-53.1394,5.86621,0,0,0,0,0,0,0,-1,601,1135,-53.1394,-5.86621
-616,-111,-53.7116,6.33923,-0.00510271,0.000395787,-0.00388866,0.00240889,-0.00711581,-1.0931,0.00571854,0.0304097,608,1135,-53.7116,-6.3392
-609,-111,-53.9349,6.92688,-0.00459489,-0.00183086,-0.00390376,0.0009283,-0.00735405,-0.955525,0.00523962,0.0376474,615,1135,-53.9349,-6.92692
-602,-111,-53.8945,7.61267,0,0,0,0,0,0,0,-1,622,1135,-53.8945,-7.6127
-595,-111,-53.4669,8.31482,0,0,0,0,0,0,0,-1,629,1135,-53.4669,-8.31477
-588,-111,-53.1042,9.20911,0,0,0,0,0,0,0,-1,636,1135,-53.1043,-9.20914
-581,-111,-21.0555,3.14551,0,0,0,0,0,0,0,-1,643,1135,-21.0555,-3.14548
-574,-111,-58.9141,0.351074,0,0,0,0,0,0,0,-1,650,1135,-58.9141,-0.351036
-567,-111,-58.9231,0.435059,0,0,0,0,0,0,0,-1,657,1135,-58.9231,-0.435039
-560,-111,-58.9604,0.557617,0,0,0,0,0,0,0,-1,664,1135,-58.9604,-0.557637
-553,-111,-58.9692,0.349976,0,0,0,0,0,0,0,-1,671,1135,-58.9692,-0.349927
-546,-111,-58.9092,0.159058,0,0,0,0,0,0,0,-1,678,1135,-58.9093,-0.15905
-539,-111,-58.8631,0.103394,0,0,0,0,0,0,0,-1,685,1135,-58.8631,-0.10341
-532,-111,-58.8098,0.24231,0,0,0,0,0,0,0,-1,692,1135,-58.8098,-0.242254
-525,-111,-58.9196,0.4198,0,0,0,0,0,0,0,-1,699,1135,-58.9195,-0.419853
-518,-111,0,0,0,0,0,0,0,0,0,-1,706,1135,0,0
-511,-111,0,0,0,0,0,0,0,0,0,-1,713,1135,0,0
-504,-111,0,0,0,0,0,0,0,0,0,-1,720,1135,0,0
-497,-111,0,0,0,0,0,0,0,0,0,-1,727,1135,0,0
-490,-111,0,0,0,0,0,0,0,0,0,-1,734,1135,0,0
-483,-111,0,0,0,0,0,0,0,0,0,-1,741,1135,0,0
-476,-111,0,0,0,0,0,0,0,0,0,-1,748,1135,0,0
-469,-111,0,0,0,0,0,0,0,0,0,-1,755,1135,0,0
-462,-111,0,0,0,0,0,0,0,0,0,-1,762,1135,0,0
-455,-111,0,0,0,0,0,0,0,0,0,-1,769,1135,0,0
-448,-111,0,0,0,0,0,0,0,0,0,-1,776,1135,0,0
-441,-111,0,0,0,0,0,0,0,0,0,-1,783,1135,0,0
-434,-111,0,0,0,0,0,0,0,0,0,-1,790,1135,0,0
-427,-111,0,0,0,0,0,0,0,0,0,-1,797,1135,0,0
-420,-111,0,0,0,0,0,0,0,0,0,-1,804,1135,0,0
-413,-111,0,0,0,0,0,0,0,0,0,-1,811,1135,0,0
-406,-111,0,0,0,0,0,0,0,0,0,-1,818,1135,0,0
-399,-111,0,0,0,0,0,0,0,0,0,-1,825,1135,0,0
-392,-111,0,0,0,0,0,0,0,0,0,-1,832,1135,0,0
-385,-111,0,0,0,0,0,0,0,0,0,-1,839,1135,0,0
-378,-111,0,0,0,0,0,0,0,0,0,-1,846,1135,0,0
-371,-111,0,0,0,0,0,0,0,0,0,-1,853,1135,0,0
-364,-111,0,0,0,0,0,0,0,0,0,-1,860,1135,0,0
-357,-111,0,0,0,0,0,0,0,0,0,-1,867,1135,0,0
-350,-111,0,0,0,0,0,0,0,0,0,-1,874,1135,0,0
-343,-111,0,0,0,0,0,0,0,0,0,-1,881,1135,0,0
-336,-111,0,0,0,0,0,0,0,0,0,-1,888,1135,0,0
-329,-111,0,0,0,0,0,0,0,0,0,-1,895,1135,0,0
-322,-111,0,0,0,0,0,0,0,0,0,-1,902,1135,0,0
-315,-111,0,0,0,0,0,0,0,0,0,-1,909,1135,0,0
-308,-111,0,0,0,0,0,0,0,0,0,-1,916,1135,0,0
-301,-111,0,0,0,0,0,0,0,0,0,-1,923,1135,0,0
-294,-111,0,0,0,0,0,0,0,0,0,-1,930,1135,0,0
-287,-111,0,0,0,0,0,0,0,0,0,-1,937,1135,0,0
-280,-111,0,0,0,0,0,0,0,0,0,-1,944,1135,0,0
-273,-111,0,0,0,0,0,0,0,0,0,-1,951,1135,0,0
-266,-111,0,0,0,0,0,0,0,0,0,-1,958,1135,0,0
-259,-111,0,0,0,0,0,0,0,0,0,-1,965,1135,0,0
-252,-111,0,0,0,0,0,0,0,0,0,-1,972,1135,0,0
-245,-111,0,0,0,0,0,0,0,0,0,-1,979,1135,0,0
-238,-111,0,0,0,0,0,0,0,0,0,-1,986,1135,0,0
-231,-111,0,0,0,0,0,0,0,0,0,-1,993,1135,0,0
-224,-111,0,0,0,0,0,0,0,0,0,-1,1000,1135,0,0
-217,-111,0,0,0,0,0,0,0,0,0,-1,1007,1135,0,0
-210,-111,0,0,0,0,0,0,0,0,0,-1,1014,1135,0,0
-203,-111,0,0,0,0,0,0,0,0,0,-1,1021,1135,0,0
-196,-111,0,0,0,0,0,0,0,0,0,-1,1028,1135,0,0
-189,-111,0,0,0,0,0,0,0,0,0,-1,1035,1135,0,0
-182,-111,0,0,0,0,0,0,0,0,0,-1,1042,1135,0,0
-175,-111,0,0,0,0,0,0,0,0,0,-1,1049,1135,0,0
-168,-111,0,0,0,0,0,0,0,0,0,-1,1056,1135,0,0
-161,-111,0,0,0,0,0,0,0,0,0,-1,1063,1135,0,0
-154,-111,0,0,0,0,0,0,0,0,0,-1,1070,1135,0,0
-147,-111,0,0,0,0,0,0,0,0,0,-1,1077,1135,0,0
-140,-111,0,0,0,0,0,0,0,0,0,-1,1084,1135,0,0
-133,-111,0,0,0,0,0,0,0,0,0,-1,1091,1135,0,0
-126,-111,0,0,0,0,0,0,0,0,0,-1,1098,1135,0,0
-119,-111,0,0,0,0,0,0,0,0,0,-1,1105,1135,0,0
-112,-111,0,0,0,0,0,0,0,0,0,-1,1112,1135,0,0
-105,-111,0,0,0,0,0,0,0,0,0,-1,1119,1135,0,0
-98,-111,0,0,0,0,0,0,0,0,0,-1,1126,1135,0,0
-91,-111,0,0,0,0,0,0,0,0,0,-1,1133,1135,0,0
-84,-111,0,0,0,0,0,0,0,0,0,-1,1140,1135,0,0
-77,-111,0,0,0,0,0,0,0,0,0,-1,1147,1135,0,0
-70,-111,0,0,0,0,0,0,0,0,0,-1,1154,1135,0,0
-63,-111,0,0,0,0,0,0,0,0,0,-1,1161,1135,0,0
-56,-111,0,0,0,0,0,0,0,0,0,-1,1168,1135,0,0
-49,-111,0,0,0,0,0,0,0,0,0,-1,1175,1135,0,0
-42,-111,0,0,0,0,0,0,0,0,0,-1,1182,1135,0,0
-35,-111,0,0,0,0,0,0,0,0,0,-1,1189,1135,0,0
-28,-111,0,0,0,0,0,0,0,0,0,-1,1196,1135,0,0
-21,-111,0,0,0,0,0,0,0,0,0,-1,1203,1135,0,0
-14,-111,0,0,0,0,0,0,0,0,0,-1,1210,1135,0,0
-7,-111,0,0,0,0,0,0,0,0,0,-1,1217,1135,0,0
0,-111,0,0,0,0,0,0,0,0,0,-1,1224,1135,0,0
7,-111,0,0,0,0,0,0,0,0,0,-1,1231,1135,0,0
14,-111,0,0,0,0,0,0,0,0,0,-1,1238,1135,0,0
21,-111,0,0,0,0,0,0,0,0,0,-1,1245,1135,0,0
28,-111,0,0,0,0,0,0,0,0,0,-1,1252,1135,0,0
35,-111,0,0,0,0,0,0,0,0,0,-1,1259,1135,0,0
42,-111,0,0,0,0,0,0,0,0,0,-1,1266,1135,0,0
49,-111,0,0,0,0,0,0,0,0,0,-1,1273,1135,0,0
56,-111,0,0,0,0,0,0,0,0,0,-1,1280,1135,0,0
63,-111,0,0,0,0,0,0,0,0,0,-1,1287,1135,0,0
70,-111,0,0,0,0,0,0,0,0,0,-1,1294,1135,0,0
77,-111,0,0,0,0,0,0,0,0,0,-1,1301,1135,0,0
84,-111,0,0,0,0,0,0,0,0,0,-1,1308,1135,0,0
91,-111,0,0,0,0,0,0,0,0,0,-1,1315,1135,0,0
98,-111,0,0,0,0,0,0,0,0,0,-1,1322,1135,0,0
105,-111,0,0,0,0,0,0,0,0,0,-1,1329,1135,0,0
112,-111,0,0,0,0,0,0,0,0,0,-1,1336,1135,0,0
119,-111,0,0,0,0,0,0,0,0,0,-1,1343,1135,0,0
126,-111,0,0,0,0,0,0,0,0,0,-1,1350,1135,0,0
133,-111,0,0,0,0,0,0,0,0,0,-1,1357,1135,0,0
140,-111,0,0,0,0,0,0,0,0,0,-1,1364,1135,0,0
147,-111,0,0,0,0,0,0,0,0,0,-1,1371,1135,0,0
154,-111,0,0,0,0,0,0,0,0,0,-1,1378,1135,0,0
161,-111,0,0,0,0,0,0,0,0,0,-1,1385,1135,0,0
168,-111,0,0,0,0,0,0,0,0,0,-1,1392,1135,0,0
175,-111,0,0,0,0,0,0,0,0,0,-1,1399,1135,0,0
182,-111,0,0,0,0,0,0,0,0,0,-1,1406,1135,0,0
189,-111,0,0,0,0,0,0,0,0,0,-1,1413,1135,0,0
196,-111,0,0,0,0,0,0,0,0,0,-1,1420,1135,0,0
203,-111,0,0,0,0,0,0,0,0,0,-1,1427,1135,0,0
210,-111,0,0,0,0,0,0,0,0,0,-1,1434,1135,0,0
217,-111,0,0,0,0,0,0,0,0,0,-1,1441,1135,0,0
224,-111,0,0,0,0,0,0,0,0,0,-1,1448,1135,0,0
231,-111,0,0,0,0,0,0,0,0,0,-1,1455,1135,0,0
238,-111,0,0,0,0,0,0,0,0,0,-1,1462,1135,0,0
245,-111,0,0,0,0,0,0,0,0,0,-1,1469,1135,0,0
252,-111,0,0,0,0,0,0,0,0,0,-1,1476,1135,0,0
259,-111,0,0,0,0,0,0,0,0,0,-1,1483,1135,0,0
266,-111,0,0,0,0,0,0,0,0,0,-1,1490,1135,0,0
273,-111,0,0,0,0,0,0,0,0,0,-1,1497,1135,0,0
280,-111,0,0,0,0,0,0,0,0,0,-1,1504,1135,0,0
287,-111,0,0,0,0,0,0,0,0,0,-1,1511,1135,0,0
294,-111,0,0,0,0,0,0,0,0,0,-1,1518,1135,0,0
301,-111,0,0,0,0,0,0,0,0,0,-1,1525,1135,0,0
308,-111,0,0,0,0,0,0,0,0,0,-1,1532,1135,0,0
315,-111,0,0,0,0,0,0,0,0,0,-1,1539,1135,0,0
322,-111,0,0,0,0,0,0,0,0,0,-1,1546,1135,0,0
329,-111,0,0,0,0,0,0,0,0,0,-1,1553,1135,0,0
336,-111,0,0,0,0,0,0,0,0,0,-1,1560,1135,0,0
343,-111,0,0,0,0,0,0,0,0,0,-1,1567,1135,0,0
350,-111,0,0,0,0,0,0,0,0,0,-1,1574,1135,0,0
357,-111,0,0,0,0,0,0,0,0,0,-1,1581,1135,0,0
364,-111,0,0,0,0,0,0,0,0,0,-1,1588,1135,0,0
371,-111,0,0,0,0,0,0,0,0,0,-1,1595,1135,0,0
378,-111,0,0,0,0,0,0,0,0,0,-1,1602,1135,0,0
385,-111,0,0,0,0,0,0,0,0,0,-1,1609,1135,0,0
392,-111,0,0,0,0,0,0,0,0,0,-1,1616,1135,0,0
399,-111,0,0,0,0,0,0,0,0,0,-1,1623,1135,0,0
406,-111,0,0,0,0,0,0,0,0,0,-1,1630,1135,0,0
413,-111,0,0,0,0,0,0,0,0,0,-1,1637,1135,0,0
420,-111,0,0,0,0,0,0,0,0,0,-1,1644,1135,0,0
427,-111,0,0,0,0,0,0,0,0,0,-1,1651,1135,0,0
434,-111,0,0,0,0,0,0,0,0,0,-1,1658,1135,0,0
441,-111,0,0,0,0,0,0,0,0,0,-1,1665,1135,0,0
448,-111,0,0,0,0,0,0,0,0,0,-1,1672,1135,0,0
455,-111,0,0,0,0,0,0,0,0,0,-1,1679,1135,0,0
462,-111,0,0,0,0,0,0,0,0,0,-1,1686,1135,0,0
469,-111,0,0,0,0,0,0,0,0,0,-1,1693,1135,0,0
476,-111,0,0,0,0,0,0,0,0,0,-1,1700,1135,0,0
483,-111,0,0,0,0,0,0,0,0,0,-1,1707,1135,0,0
490,-111,0,0,0,0,0,0,0,0,0,-1,1714,1135,0,0
497,-111,0,0,0,0,0,0,0,0,0,-1,1721,1135,0,0
504,-111,0,0,0,0,0,0,0,0,0,-1,1728,1135,0,0
511,-111,0,0,0,0,0,0,0,0,0,-1,1735,1135,0,0
518,-111,0,0,0,0,0,0,0,0,0,-1,1742,1135,0,0
525,-111,0,0,0,0,0,0,0,0,0,-1,1749,1135,0,0
532,-111,0,0,0,0,0,0,0,0,0,-1,1756,1135,0,0
539,-111,0,0,0,0,0,0,0,0,0,-1,1763,1135,0,0
546,-111,0,0,0,0,0,0,0,0,0,-1,1770,1135,0,0
553,-111,0,0,0,0,0,0,0,0,0,-1,1777,1135,0,0
560,-111,0,0,0,0,0,0,0,0,0,-1,1784,1135,0,0
567,-111,0,0,0,0,0,0,0,0,0,-1,1791,1135,0,0
574,-111,0,0,0,0,0,0,0,0,0,-1,1798,1135,0,0
581,-111,0,0,0,0,0,0,0,0,0,-1,1805,1135,0,0
588,-111,0,0,0,0,0,0,0,0,0,-1,1812,1135,0,0
595,-111,0,0,0,0,0,0,0,0,0,-1,1819,1135,0,0
602,-111,0,0,0,0,0,0,0,0,0,-1,1826,1135,0,0
609,-111,0,0,0,0,0,0,0,0,0,-1,1833,1135,0,0
616,-111,0,0,0,0,0,0,0,0,0,-1,1840,1135,0,0
623,-111,0,0,0,0,0,0,0,0,0,-1,1847,1135,0,0
630,-111,0,0,0,0,0,0,0,0,0,-1,1854,1135,0,0
637,-111,0,0,0,0,0,0,0,0,0,-1,1861,1135,0,0
644,-111,75.4265,2.68738,0.00816151,-0.000801741,-0.00210808,0.00863256,-0.00127279,-0.219837,0.00622284,0.0398071,1868,1135,75.4265,-2.68734
651,-111,75.6155,2.83557,0.00580522,-0.00045822,-0.00148959,0.00614143,-0.00079443,-0.221987,0.00438316,0.0407634,1875,1135,75.6155,-2.83563
658,-111,75.8646,2.68774,0.00416169,-0.000313084,-0.000863775,0.00432264,-0.000474031,-0.184218,0.00305206,0.0445508,1882,1135,75.8646,-2.68774
665,-111,75.8082,2.60962,0.00281189,-0.000167464,-0.00031915,0.0028457,-0.000201268,-0.105525,0.00196766,0.0473304,1889,1135,75.8083,-2.60957
672,-111,75.6948,2.45349,0.0017416,-4.36892e-05,0.00014708,0.00175363,-5.57251e-05,0.0816507,0.0011881,0.0471723,1896,1135,75.6949,-2.45343
679,-111,75.6167,2.2489,0.00134733,-0.000250014,0.000553162,0.00152018,-0.000422869,0.302872,0.00117995,0.0433457,1903,1135,75.6167,-2.24886
686,-111,75.5753,2.20532,0.00149439,-0.000459886,0.000657765,0.00169515,-0.00066065,0.296241,0.00140315,0.0388382,1910,1135,75.5754,-2.20535
693,-111,75.6176,2.25342,0.00159728,-0.00067849,0.0008161,0.00185969,-0.00094089,0.31109,0.00164566,0.0368418,1917,1135,75.6175,-2.25339
700,-111,75.7474,2.37427,0.00159892,-0.000848625,0.00101774,0.00196682,-0.00121653,0.346871,0.00185484,0.0284281,1924,1135,75.7475,-2.37426
707,-111,75.7747,2.49707,0,0,0,0,0,0,0,-1,1931,1135,75.7746,-2.49707
714,-111,45.1654,7.39746,0,0,0,0,0,0,0,-1,1938,1135,45.1654,-7.39745
721,-111,69.1648,10.0726,0,0,0,0,0,0,0,-1,1945,1135,69.1648,-10.0726
728,-111,69.2386,9.28784,0.000830938,3.47746e-05,0.00181591,0.00229189,-0.00142617,0.677495,0.00216593,0.0308901,1952,1135,69.2387,-9.28785
735,-111,69.3469,8.65247,0.000534299,0.000403956,0.00206402,0.00253417,-0.00159592,0.769616,0.00240493,0.0300385,1959,1135,69.3469,-8.65247
742,-111,69.2341,8.11267,-6.58628e-05,0.000998068,0.00230086,0.00282766,-0.00189545,0.899004,0.00274453,0.0197189,1966,1135,69.2341,-8.11262
749,-111,69.0953,7.48486,-0.00123424,0.00231265,0.00230065,0.00344404,-0.00236564,1.11375,0.00337343,0.020523,1973,1135,69.0954,-7.48482
756,-111,69.0579,6.85974,-0.00315748,0.00491674,0.00157582,0.00521339,-0.00345413,1.38472,0.00503844,0.0174343,1980,1135,69.0579,-6.85974
763,-111,69.0459,6.28467,-0.00546787,0.00902188,-0.000602316,0.00904688,-0.00549287,-1.52932,0.00847771,0.0169136,1987,1135,69.0458,-6.28462
770,-111,69.0059,5.69751,-0.0079255,0.0142387,-0.00386294,0.0148927,-0.00857947,-1.40309,0.0137141,0.0155449,1994,1135,69.0058,-5.69755
777,-111,68.7959,5.05554,-0.0103489,0.0204588,-0.00855142,0.0226732,-0.0125633,-1.3174,0.0206211,0.0301106,2001,1135,68.7959,-5.05559
784,-111,68.6028,4.69128,-0.0126936,0.0279231,-0.0150502,0.032892,-0.0176625,-1.25191,0.0296258,0.0445578,2008,1135,68.6027,-4.6913
791,-111,68.4988,4.41797,0,0,0,0,0,0,0,-1,2015,1135,68.4988,-4.418
798,-111,71.2842,1.25391,0,0,0,0,0,0,0,-1,2022,1135,71.2842,-1.25389
805,-111,71.3879,0.6073,-0.0183585,0.0626578,-0.0522038,0.0882265,-0.0439272,-1.11535,0.0777147,0.0485272,2029,1135,71.388,-0.607345
812,-111,71.3135,-0.000244141,-0.0190323,0.0796932,-0.0720678,0.117683,-0.057022,-1.08567,0.102873,0.0479293,2036,1135,71.3134,0.000187902
-700,-118,0,0,0,0,0,0,0,0,0,-1,524,1142,0,0
-693,-118,-51.813,-2.20532,0,0,0,0,0,0,0,-1,531,1142,-51.8131,2.20528
-686,-118,-51.7892,-2.48987,0,0,0,0,0,0,0,-1,538,1142,-51.7891,2.48986
-679,-118,-51.8085,-3.04895,0,0,0,0,0,0,0,-1,545,1142,-51.8085,3.04899
-672,-118,-52.4218,-1.83081,0,0,0,0,0,0,0,-1,552,1142,-52.4217,1.83086
-665,-118,-53.1361,-0.695679,0,0,0,0,0,0,0,-1,559,1142,-53.1362,0.695645
-658,-118,-55.0958,-1.94812,0,0,0,0,0,0,0,-1,566,1142,-55.0958,1.94813
-651,-118,-51.946,2.97803,0,0,0,0,0,0,0,-1,573,1142,-51.946,-2.97797
-644,-118,-52.2947,3.7467,-0.00104688,0.00675466,-0.00260419,0.00754408,-0.00183629,-1.27647,0.00574024,0.0393974,580,1142,-52.2947,-3.74676
-637,-118,-52.5398,4.49121,-0.0031101,0.00561688,-0.00319686,0.00666264,-0.00415586,-1.25465,0.00630171,0.0202589,587,1142,-52.5398,-4.49125
-630,-118,-52.6184,5.08862,-0.00474995,0.00419742,-0.00362781,0.0054835,-0.00603603,-1.23011,0.00665335,0.0286614,594,1142,-52.6184,-5.0886
-623,-118,-52.5796,5.76904,-0.00597823,0.00251213,-0.00391357,0.00404082,-0.00750692,-1.19841,0.00676646,0.0230686,601,1142,-52.5796,-5.76906
-616,-118,-52.745,6.40662,-0.00680163,0.000571472,-0.00406811,0.00237493,-0.00860509,-1.15352,0.00667081,0.036555,608,1142,-52.745,-6.40665
-609,-118,-53.081,6.84045,-0.00722085,-0.00161933,-0.00410288,0.000547586,-0.00938777,-1.08489,0.0064488,0.0447038,615,1142,-53.081,-6.84046
-602,-118,-53.6286,7.21094,0,0,0,0,0,0,0,-1,622,1142,-53.6286,-7.21099
-595,-118,-52.9353,8.25842,0,0,0,0,0,0,0,-1,629,1142,-52.9353,-8.25844
-588,-118,-52.242,9.30591,0,0,0,0,0,0,0,-1,636,1142,-52.242,-9.30589
-581,-118,-24.6116,3.89648,0,0,0,0,0,0,0,-1,643,1142,-24.6116,-3.89645
-574,-118,-58.8491,0.326416,0,0,0,0,0,0,0,-1,650,1142,-58.8491,-0.326392
-567,-118,-58.9409,0.536743,0,0,0,0,0,0,0,-1,657,1142,-58.9409,-0.536765
-560,-118,-59.0244,0.636475,0,0,0,0,0,0,0,-1,664,1142,-59.0243,-0.636414
-553,-118,-59.02,0.458374,0,0,0,0,0,0,0,-1,671,1142,-59.02,-0.458382
-546,-118,-58.8955,0.38269,0,0,0,0,0,0,0,-1,678,1142,-58.8955,-0.382713
-539,-118,-58.8032,0.265259,0,0,0,0,0,0,0,-1,685,1142,-58.8032,-0.265313
-532,-118,-58.8404,0.304077,0,0,0,0,0,0,0,-1,692,1142,-58.8404,-0.304134
-525,-118,-58.9954,0.370728,0,0,0,0,0,0,0,-1,699,1142,-58.9953,-0.370776
-518,-118,0,0,0,0,0,0,0,0,0,-1,706,1142,0,0
-511,-118,0,0,0,0,0,0,0,0,0,-1,713,1142,0,0
-504,-118,0,0,0,0,0,0,0,0,0,-1,720,1142,0,0
-497,-118,0,0,0,0,0,0,0,0,0,-1,727,1142,0,0
-490,-118,0,0,0,0,0,0,0,0,0,-1,734,1142,0,0
-483,-118,0,0,0,0,0,0,0,0,0,-1,741,1142,0,0
-476,-118,0,0,0,0,0,0,0,0,0,-1,748,1142,0,0
-469,-118,0,0,0,0,0,0,0,0,0,-1,755,1142,0,0
-462,-118,0,0,0,0,0,0,0,0,0,-1,762,1142,0,0
-455,-118,0,0,0,0,0,0,0,0,0,-1,769,1142,0,0
-448,-118,0,0,0,0,0,0,0,0,0,-1,776,1142,0,0
-441,-118,0,0,0,0,0,0,0,0,0,-1,783,1142,0,0
-434,-118,0,0,0,0,0,0,0,0,0,-1,790,1142,0,0
-427,-118,0,0,0,0,0,0,0,0,0,-1,797,1142,0,0
-420,-118,0,0,0,0,0,0,0,0,0,-1,804,1142,0,0
-413,-118,0,0,0,0,0,0,0,0,0,-1,811,1142,0,0
-406,-118,0,0,0,0,0,0,0,0,0,-1,818,1142,0,0
-399,-118,0,0,0,0,0,0,0,0,0,-1,825,1142,0,0
-392,-118,0,0,0,0,0,0,0,0,0,-1,832,1142,0,0
-385,-118,0,0,0,0,0,0,0,0,0,-1,839,1142,0,0
-378,-118,0,0,0,0,0,0,0,0,0,-1,846,1142,0,0
-371,-118,0,0,0,0,0,0,0,0,0,-1,853,1142,0,0
-364,-118,0,0,0,0,0,0,0,0,0,-1,860,1142,0,0
-357,-118,0,0,0,0,0,0,0,0,0,-1,867,1142,0,0
-350,-118,0,0,0,0,0,0,0,0,0,-1,874,1142,0,0
-343,-118,0,0,0,0,0,0,0,0,0,-1,881,1142,0,0
-336,-118,0,0,0,0,0,0,0,0,0,-1,888,1142,0,0
-329,-118,0,0,0,0,0,0,0,0,0,-1,895,1142,0,0
-322,-118,0,0,0,0,0,0,0,0,0,-1,902,1142,0,0
-315,-118,0,0,0,0,0,0,0,0,0,-1,909,1142,0,0
-308,-118,0,0,0,0,0,0,0,0,0,-1,916,1142,0,0
-301,-118,0,0,0,0,0,0,0,0,0,-1,923,1142,0,0
-294,-118,0,0,0,0,0,0,0,0,0,-1,930,1142,0,0
-287,-118,0,0,0,0,0,0,0,0,0,-1,937,1142,0,0
-280,-118,0,0,0,0,0,0,0,0,0,-1,944,1142,0,0
-273,-118,0,0,0,0,0,0,0,0,0,-1,951,1142,0,0
-266,-118,0,0,0,0,0,0,0,0,0,-1,958,1142,0,0
-259,-118,0,0,0,0,0,0,0,0,0,-1,965,1142,0,0
-252,-118,0,0,0,0,0,0,0,0,0,-1,972,1142,0,0
-245,-118,0,0,0,0,0,0,0,0,0,-1,979,1142,0,0
-238,-118,0,0,0,0,0,0,0,0,0,-1,986,1142,0,0
-231,-118,0,0,0,0,0,0,0,0,0,-1,993,1142,0,0
-224,-118,0,0,0,0,0,0,0,0,0,-1,1000,1142,0,0
-217,-118,0,0,0,0,0,0,0,0,0,-1,1007,1142,0,0
-210,-118,0,0,0,0,0,0,0,0,0,-1,1014,1142,0,0
-203,-118,0,0,0,0,0,0,0,0,0,-1,1021,1142,0,0
-196,-118,0,0,0,0,0,0,0,0,0,-1,1028,1142,0,0
-189,-118,0,0,0,0,0,0,0,0,0,-1,1035,1142,0,0
-182,-118,0,0,0,0,0,0,0,0,0,-1,1042,1142,0,0
-175,-118,0,0,0,0,0,0,0,0,0,-1,1049,1142,0,0
-168,-118,0,0,0,0,0,0,0,0,0,-1,1056,1142,0,0
-161,-118,0,0,0,0,0,0,0,0,0,-1,1063,1142,0,0
-154,-118,0,0,0,0,0,0,0,0,0,-1,1070,1142,0,0
-147,-118,0,0,0,0,0,0,0,0,0,-1,1077,1142,0,0
-140,-118,0,0,0,0,0,0,0,0,0,-1,1084,1142,0,0
-133,-118,0,0,0,0,0,0,0,0,0,-1,1091,1142,0,0
-126,-118,0,0,0,0,0,0,0,0,0,-1,1098,1142,0,0
-119,-118,0,0,0,0,0,0,0,0,0,-1,1105,1142,0,0
-112,-118,0,0,0,0,0,0,0,0,0,-1,1112,1142,0,0
-105,-118,0,0,0,0,0,0,0,0,0,-1,1119,1142,0,0
-98,-118,0,0,0,0,0,0,0,0,0,-1,1126,1142,0,0
-91,-118,0,0,0,0,0,0,0,0,0,-1,1133,1142,0,0
-84,-118,0,0,0,0,0,0,0,0,0,-1,1140,1142,0,0
-77,-118,0,0,0,0,0,0,0,0,0,-1,1147,1142,0,0
-70,-118,0,0,0,0,0,0,0,0,0,-1,1154,1142,0,0
-63,-118,0,0,0,0,0,0,0,0,0,-1,1161,1142,0,0
-56,-118,0,0,0,0,0,0,0,0,0,-1,1168,1142,0,0
-49,-118,0,0,0,0,0,0,0,0,0,-1,1175,1142,0,0
-42,-118,0,0,0,0,0,0,0,0,0,-1,1182,1142,0,0
-35,-118,0,0,0,0,0,0,0,0,0,-1,1189,1142,0,0
-28,-118,0,0,0,0,0,0,0,0,0,-1,1196,1142,0,0
-21,-118,0,0,0,0,0,0,0,0,0,-1,1203,1142,0,0
-14,-118,0,0,0,0,0,0,0,0,0,-1,1210,1142,0,0
-7,-118,0,0,0,0,0,0,0,0,0,-1,1217,1142,0,0
0,-118,0,0,0,0,0,0,0,0,0,-1,1224,1142,0,0
7,-118,0,0,0,0,0,0,0,0,0,-1,1231,1142,0,0
14,-118,0,0,0,0,0,0,0,0,0,-1,1238,1142,0,0
21,-118,0,0,0,0,0,0,0,0,0,-1,1245,1142,0,0
28,-118,0,0,0,0,0,0,0,0,0,-1,1252,1142,0,0
35,-118,0,0,0,0,0,0,0,0,0,-1,1259,1142,0,0
42,-118,0,0,0,0,0,0,0,0,0,-1,1266,1142,0,0
49,-118,0,0,0,0,0,0,0,0,0,-1,1273,1142,0,0
56,-118,0,0,0,0,0,0,0,0,0,-1,1280,1142,0,0
63,-118,0,0,0,0,0,0,0,0,0,-1,1287,1142,0,0
70,-118,0,0,0,0,0,0,0,0,0,-1,1294,1142,0,0
77,-118,0,0,0,0,0,0,0,0,0,-1,1301,1142,0,0
84,-118,0,0,0,0,0,0,0,0,0,-1,1308,1142,0,0
91,-118,0,0,0,0,0,0,0,0,0,-1,1315,1142,0,0
98,-118,0,0,0,0,0,0,0,0,0,-1,1322,1142,0,0
105,-118,0,0,0,0,0,0,0,0,0,-1,1329,1142,0,0
112,-118,0,0,0,0,0,0,0,0,0,-1,1336,1142,0,0
119,-118,0,0,0,0,0,0,0,0,0,-1,1343,1142,0,0
126,-118,0,0,0,0,0,0,0,0,0,-1,1350,1142,0,0
133,-118,0,0,0,0,0,0,0,0,0,-1,1357,1142,0,0
140,-118,0,0,0,0,0,0,0,0,0,-1,1364,1142,0,0
147,-118,0,0,0,0,0,0,0,0,0,-1,1371,1142,0,0
154,-118,0,0,0,0,0,0,0,0,0,-1,1378,1142,0,0
161,-118,0,0,0,0,0,0,0,0,0,-1,1385,1142,0,0
168,-118,0,0,0,0,0,0,0,0,0,-1,1392,1142,0,0
175,-118,0,0,0,0,0,0,0,0,0,-1,1399,1142,0,0
182,-118,0,0,0,0,0,0,0,0,0,-1,1406,1142,0,0
189,-118,0,0,0,0,0,0,0,0,0,-1,1413,1142,0,0
196,-118,0,0,0,0,0,0,0,0,0,-1,1420,1142,0,0
203,-118,0,0,0,0,0,0,0,0,0,-1,1427,1142,0,0
210,-118,0,0,0,0,0,0,0,0,0,-1,1434,1142,0,0
217,-118,0,0,0,0,0,0,0,0,0,-1,1441,1142,0,0
224,-118,0,0,0,0,0,0,0,0,0,-1,1448,1142,0,0
231,-118,0,0,0,0,0,0,0,0,0,-1,1455,1142,0,0
238,-118,0,0,0,0,0,0,0,0,0,-1,1462,1142,0,0
245,-118,0,0,0,0,0,0,0,0,0,-1,1469,1142,0,0
252,-118,0,0,0,0,0,0,0,0,0,-1,1476,1142,0,0
259,-118,0,0,0,0,0,0,0,0,0,-1,1483,1142,0,0
266,-118,0,0,0,0,0,0,0,0,0,-1,1490,1142,0,0
273,-118,0,0,0,0,0,0,0,0,0,-1,1497,1142,0,0
280,-118,0,0,0,0,0,0,0,0,0,-1,1504,1142,0,0
287,-118,0,0,0,0,0,0,0,0,0,-1,1511,1142,0,0
294,-118,0,0,0,0,0,0,0,0,0,-1,1518,1142,0,0
301,-118,0,0,0,0,0,0,0,0,0,-1,1525,1142,0,0
308,-118,0,0,0,0,0,0,0,0,0,-1,1532,1142,0,0
315,-118,0,0,0,0,0,0,0,0,0,-1,1539,1142,0,0
322,-118,0,0,0,0,0,0,0,0,0,-1,1546,1142,0,0
329,-118,0,0,0,0,0,0,0,0,0,-1,1553,1142,0,0
336,-118,0,0,0,0,0,0,0,0,0,-1,1560,1142,0,0
343,-118,0,0,0,0,0,0,0,0,0,-1,1567,1142,0,0
350,-118,0,0,0,0,0,0,0,0,0,-1,1574,1142,0,0
357,-118,0,0,0,0,0,0,0,0,0,-1,1581,1142,0,0
364,-118,0,0,0,0,0,0,0,0,0,-1,1588,1142,0,0
371,-118,0,0,0,0,0,0,0,0,0,-1,1595,1142,0,0
378,-118,0,0,0,0,0,0,0,0,0,-1,1602,1142,0,0
385,-118,0,0,0,0,0,0,0,0,0,-1,1609,1142,0,0
392,-118,0,0,0,0,0,0,0,0,0,-1,1616,1142,0,0
399,-118,0,0,0,0,0,0,0,0,0,-1,1623,1142,0,0
406,-118,0,0,0,0,0,0,0,0,0,-1,1630,1142,0,0
413,-118,0,0,0,0,0,0,0,0,0,-1,1637,1142,0,0
420,-118,0,0,0,0,0,0,0,0,0,-1,1644,1142,0,0
427,-118,0,0,0,0,0,0,0,0,0,-1,1651,1142,0,0
434,-118,0,0,0,0,0,0,0,0,0,-1,1658,1142,0,0
441,-118,0,0,0,0,0,0,0,0,0,-1,1665,1142,0,0
448,-118,0,0,0,0,0,0,0,0,0,-1,1672,1142,0,0
455,-118,0,0,0,0,0,0,0,0,0,-1,1679,1142,0,0
462,-118,0,0,0,0,0,0,0,0,0,-1,1686,1142,0,0
469,-118,0,0,0,0,0,0,0,0,0,-1,1693,1142,0,0
476,-118,0,0,0,0,0,0,0,0,0,-1,1700,1142,0,0
483,-118,0,0,0,0,0,0,0,0,0,-1,1707,1142,0,0
490,-118,0,0,0,0,0,0,0,0,0,-1,1714,1142,0,0
497,-118,0,0,0,0,0,0,0,0,0,-1,1721,1142,0,0
504,-118,0,0,0,0,0,0,0,0,0,-1,1728,1142,0,0
511,-118,0,0,0,0,0,0,0,0,0,-1,1735,1142,0,0
518,-118,0,0,0,0,0,0,0,0,0,-1,1742,1142,0,0
525,-118,0,0,0,0,0,0,0,0,0,-1,1749,1142,0,0
532,-118,0,0,0,0,0,0,0,0,0,-1,1756,1142,0,0
539,-118,0,0,0,0,0,0,0,0,0,-1,1763,1142,0,0
546,-118,0,0,0,0,0,0,0,0,0,-1,1770,1142,0,0
553,-118,0,0,0,0,0,0,0,0,0,-1,1777,1142,0,0
560,-118,0,0,0,0,0,0,0,0,0,-1,1784,1142,0,0
567,-118,0,0,0,0,0,0,0,0,0,-1,1791,1142,0,0
574,-118,0,0,0,0,0,0,0,0,0,-1,1798,1142,0,0
581,-118,0,0,0,0,0,0,0,0,0,-1,1805,1142,0,0
588,-118,0,0,0,0,0,0,0,0,0,-1,1812,1142,0,0
595,-118,0,0,0,0,0,0,0,0,0,-1,1819,1142,0,0
602,-118,0,0,0,0,0,0,0,0,0,-1,1826,1142,0,0
609,-118,0,0,0,0,0,0,0,0,0,-1,1833,1142,0,0
616,-118,0,0,0,0,0,0,0,0,0,-1,1840,1142,0,0
623,-118,0,0,0,0,0,0,0,0,0,-1,1847,1142,0,0
630,-118,0,0,0,0,0,0,0,0,0,-1,1854,1142,0,0
637,-118,0,0,0,0,0,0,0,0,0,-1,1861,1142,0,0
644,-118,75.4142,2.6615,0.00802678,-7.49899e-05,-0.00124337,0.00821331,-0.000261513,-0.148904,0.00556476,0.0400453,1868,1142,75.4142,-2.66145
651,-118,75.6213,2.39478,0.00570366,0.000125304,-0.000830172,0.00582459,4.37931e-06,-0.144645,0.0038816,0.038884,1875,1142,75.6213,-2.39476
658,-118,75.7678,2.28406,0.00407232,0.00015866,-0.000353945,0.00410407,0.000126908,-0.089471,0.00269474,0.0415034,1882,1142,75.7678,-2.28408
665,-118,75.7971,2.53674,0.00272288,0.000197457,7.80653e-05,0.00272529,0.000195046,0.0308725,0.00175546,0.0441092,1889,1142,75.7972,-2.53674
672,-118,75.641,2.47717,0.0016598,0.000223022,0.000458876,0.00179385,8.89731e-05,0.284215,0.00116737,0.047356,1896,1142,75.641,-2.47718
679,-118,75.6233,2.44531,0.00132952,-9.84127e-05,0.000824098,0.00170591,-0.000474807,0.428441,0.00132423,0.0435425,1903,1142,75.6233,-2.44537
686,-118,75.6248,2.40051,0.00161463,-0.000345357,0.000900652,0.00196564,-0.000696363,0.371617,0.00159408,0.036903,1910,1142,75.6248,-2.40048
693,-118,75.5568,2.33179,0.00175331,-0.000565429,0.00101411,0.00213426,-0.000946372,0.359333,0.00182214,0.0383571,1917,1142,75.5567,-2.33185
700,-118,75.7256,2.43481,0.0017429,-0.000757834,0.0011726,0.00220671,-0.00122164,0.376656,0.00200641,0.0261519,1924,1142,75.7255,-2.43482
707,-118,75.8652,2.63721,0,0,0,0,0,0,0,-1,1931,1142,75.8652,-2.63726
714,-118,50.4819,8.53809,0,0,0,0,0,0,0,-1,1938,1142,50.4819,-8.53809
721,-118,68.6077,10.0715,0,0,0,0,0,0,0,-1,1945,1142,68.6077,-10.0716
728,-118,68.6041,9.39124,0.00122357,-4.34642e-05,0.00190666,0.0025992,-0.0014191,0.625003,0.00235308,0.0239583,1952,1142,68.6041,-9.39122
735,-118,68.6116,8.77002,0.00111798,0.000207599,0.00218166,0.00289143,-0.00156585,0.682551,0.00261107,0.0230665,1959,1142,68.6116,-8.77003
742,-118,68.5724,8.19751,0.00067437,0.000572415,0.00240125,0.00302518,-0.0017784,0.774785,0.00280431,0.0337252,1966,1142,68.5724,-8.19757
749,-118,68.4351,7.58765,-0.000438809,0.00177366,0.00246592,0.0033701,-0.00203526,0.996246,0.00315235,0.0256505,1973,1142,68.435,-7.58761
756,-118,68.3918,6.91211,-0.00236242,0.00440596,0.00183423,0.00487107,-0.00282753,1.32246,0.00449668,0.0192933,1980,1142,68.3918,-6.91205
763,-118,68.4414,6.2644,-0.00459735,0.00853927,-9.41541e-05,0.00853995,-0.00459802,-1.56363,0.00769818,0.011842,1987,1142,68.4413,-6.26436
770,-118,68.3411,5.70239,-0.00688811,0.0136823,-0.00300549,0.0141124,-0.00731824,-1.42865,0.0125786,0.015963,1994,1142,68.3412,-5.7024
777,-118,68.1396,5.1156,-0.00914561,0.0198703,-0.00725513,0.0215832,-0.0108586,-1.33894,0.0190684,0.0325095,2001,1142,68.1397,-5.11558
784,-118,67.926,4.60291,-0.0113086,0.0274718,-0.0133391,0.0316169,-0.0154538,-1.26951,0.0277052,0.0460374,2008,1142,67.9259,-4.60285
791,-118,67.7834,4.19507,0,0,0,0,0,0,0,-1,2015,1142,67.7836,-4.19502
798,-118,71.5476,0.0308838,0,0,0,0,0,0,0,-1,2022,1142,71.5476,-0.0308335
805,-118,71.832,-0.234253,0,0,0,0,0,0,0,-1,2029,1142,71.8319,0.234218
812,-118,71.6758,-0.97998,0,0,0,0,0,0,0,-1,2036,1142,71.6757,0.980001
-700,-125,0,0,0,0,0,0,0,0,0,-1,524,1149,0,0
-693,-125,-51.6658,-3.00537,0,0,0,0,0,0,0,-1,531,1149,-51.6658,3.00535
-686,-125,-51.4396,-3.35571,0,0,0,0,0,0,0,-1,538,1149,-51.4396,3.35574
-679,-125,-51.5054,-4.34106,0,0,0,0,0,0,0,-1,545,1149,-51.5054,4.34104
-672,-125,-51.7364,-4.88843,0,0,0,0,0,0,0,-1,552,1149,-51.7364,4.88837
-665,-125,-52.0304,-5.15369,0,0,0,0,0,0,0,-1,559,1149,-52.0304,5.15363
-658,-125,-52.6507,3.06018,0,0,0,0,0,0,0,-1,566,1149,-52.6507,-3.06015
-651,-125,-52.0858,3.54077,0.00591271,0.00888062,-0.00212498,0.00998851,0.00480482,-1.0902,0.00576825,0.0495386,573,1149,-52.0857,-3.54083
-644,-125,-51.6644,3.849,0.00169714,0.0076804,-0.0027127,0.00872716,0.00065038,-1.20253,0.00561389,0.0381816,580,1149,-51.6644,-3.84906
-637,-125,-51.8512,4.46399,-0.00136155,0.0061179,-0.00312787,0.00725354,-0.00249718,-1.22253,0.00584857,0.0153389,587,1149,-51.8512,-4.46397
-630,-125,-51.8772,5.11853,-0.004,0.00439569,-0.00347955,0.00565029,-0.0052546,-1.22474,0.00629733,0.0155326,594,1149,-51.8772,-5.11854
-623,-125,-51.8668,5.80737,-0.00622786,0.00251525,-0.0037738,0.00391882,-0.00763143,-1.21472,0.0067824,0.0144253,601,1149,-51.8668,-5.80743
-616,-125,-51.9479,6.42053,-0.00804873,0.000472424,-0.00401509,0.0020662,-0.00964251,-1.19292,0.00721636,0.0363384,608,1149,-51.9479,-6.42048
-609,-125,-52.2855,6.85657,0,0,0,0,0,0,0,-1,615,1149,-52.2856,-6.85652
-602,-125,-53.2485,7.57849,0,0,0,0,0,0,0,-1,622,1149,-53.2485,-7.57849
-595,-125,-52.2925,8.42493,0,0,0,0,0,0,0,-1,629,1149,-52.2926,-8.42487
-588,-125,-51.3366,9.27124,0,0,0,0,0,0,0,-1,636,1149,-51.3366,-9.27125
-581,-125,-26.4055,4.83203,0,0,0,0,0,0,0,-1,643,1149,-26.4055,-4.83204
-574,-125,-37.674,0.655151,0,0,0,0,0,0,0,-1,650,1149,-37.674,-0.655195
-567,-125,-58.8691,0.382813,0,0,0,0,0,0,0,-1,657,1149,-58.8692,-0.382796
-560,-125,-58.9891,0.400879,0,0,0,0,0,0,0,-1,664,1149,-58.9891,-0.400881
-553,-125,-58.9808,0.450195,0,0,0,0,0,0,0,-1,671,1149,-58.9809,-0.450218
-546,-125,-58.9239,0.52124,0,0,0,0,0,0,0,-1,678,1149,-58.9239,-0.521285
-539,-125,-58.8903,0.491699,0,0,0,0,0,0,0,-1,685,1149,-58.8903,-0.491737
-532,-125,-58.876,0.324585,0,0,0,0,0,0,0,-1,692,1149,-58.876,-0.324613
-525,-125,-58.786,0.0333252,0,0,0,0,0,0,0,-1,699,1149,-58.786,-0.0333646
-518,-125,0,0,0,0,0,0,0,0,0,-1,706,1149,0,0
-511,-125,0,0,0,0,0,0,0,0,0,-1,713,1149,0,0
-504,-125,0,0,0,0,0,0,0,0,0,-1,720,1149,0,0
-497,-125,0,0,0,0,0,0,0,0,0,-1,727,1149,0,0
-490,-125,0,0,0,0,0,0,0,0,0,-1,734,1149,0,0
-483,-125,0,0,0,0,0,0,0,0,0,-1,741,1149,0,0
-476,-125,0,0,0,0,0,0,0,0,0,-1,748,1149,0,0
-469,-125,0,0,0,0,0,0,0,0,0,-1,755,1149,0,0
-462,-125,0,0,0,0,0,0,0,0,0,-1,762,1149,0,0
-455,-125,0,0,0,0,0,0,0,0,0,-1,769,1149,0,0
-448,-125,0,0,0,0,0,0,0,0,0,-1,776,1149,0,0
-441,-125,0,0,0,0,0,0,0,0,0,-1,783,1149,0,0
-434,-125,0,0,0,0,0,0,0,0,0,-1,790,1149,0,0
-427,-125,0,0,0,0,0,0,0,0,0,-1,797,1149,0,0
-420,-125,0,0,0,0,0,0,0,0,0,-1,804,1149,0,0
-413,-125,0,0,0,0,0,0,0,0,0,-1,811,1149,0,0
-406,-125,0,0,0,0,0,0,0,0,0,-1,818,1149,0,0
-399,-125,0,0,0,0,0,0,0,0,0,-1,825,1149,0,0
-392,-125,0,0,0,0,0,0,0,0,0,-1,832,1149,0,0
-385,-125,0,0,0,0,0,0,0,0,0,-1,839,1149,0,0
-378,-125,0,0,0,0,0,0,0,0,0,-1,846,1149,0,0
-371,-125,0,0,0,0,0,0,0,0,0,-1,853,1149,0,0
-364,-125,0,0,0,0,0,0,0,0,0,-1,860,1149,0,0
-357,-125,0,0,0,0,0,0,0,0,0,-1,867,1149,0,0
-350,-125,0,0,0,0,0,0,0,0,0,-1,874,1149,0,0
-343,-125,0,0,0,0,0,0,0,0,0,-1,881,1149,0,0
-336,-125,0,0,0,0,0,0,0,0,0,-1,888,1149,0,0
-329,-125,0,0,0,0,0,0,0,0,0,-1,895,1149,0,0
-322,-125,0,0,0,0,0,0,0,0,0,-1,902,1149,0,0
-315,-125,0,0,0,0,0,0,0,0,0,-1,909,1149,0,0
-308,-125,0,0,0,0,0,0,0,0,0,-1,916,1149,0,0
-301,-125,0,0,0,0,0,0,0,0,0,-1,923,1149,0,0
-294,-125,0,0,0,0,0,0,0,0,0,-1,930,1149,0,0
-287,-125,0,0,0,0,0,0,0,0,0,-1,937,1149,0,0
-280,-125,0,0,0,0,0,0,0,0,0,-1,944,1149,0,0
-273,-125,0,0,0,0,0,0,0,0,0,-1,951,1149,0,0
-266,-125,0,0,0,0,0,0,0,0,0,-1,958,1149,0,0
-259,-125,0,0,0,0,0,0,0,0,0,-1,965,1149,0,0
-252,-125,0,0,0,0,0,0,0,0,0,-1,972,1149,0,0
-245,-125,0,0,0,0,0,0,0,0,0,-1,979,1149,0,0
-238,-125,0,0,0,0,0,0,0,0,0,-1,986,1149,0,0
-231,-125,0,0,0,0,0,0,0,0,0,-1,993,1149,0,0
-224,-125,0,0,0,0,0,0,0,0,0,-1,1000,1149,0,0
-217,-125,0,0,0,0,0,0,0,0,0,-1,1007,1149,0,0
-210,-125,0,0,0,0,0,0,0,0,0,-1,1014,1149,0,0
-203,-125,0,0,0,0,0,0,0,0,0,-1,1021,1149,0,0
-196,-125,0,0,0,0,0,0,0,0,0,-1,1028,1149,0,0
-189,-125,0,0,0,0,0,0,0,0,0,-1,1035,1149,0,0
-182,-125,0,0,0,0,0,0,0,0,0,-1,1042,1149,0,0
-175,-125,0,0,0,0,0,0,0,0,0,-1,1049,1149,0,0
-168,-125,0,0,0,0,0,0,0,0,0,-1,1056,1149,0,0
-161,-125,0,0,0,0,0,0,0,0,0,-1,1063,1149,0,0
-154,-125,0,0,0,0,0,0,0,0,0,-1,1070,1149,0,0
-147,-125,0,0,0,0,0,0,0,0,0,-1,1077,1149,0,0
-140,-125,0,0,0,0,0,0,0,0,0,-1,1084,1149,0,0
-133,-125,0,0,0,0,0,0,0,0,0,-1,1091,1149,0,0
-126,-125,0,0,0,0,0,0,0,0,0,-1,1098,1149,0,0
-119,-125,0,0,0,0,0,0,0,0,0,-1,1105,1149,0,0
-112,-125,0,0,0,0,0,0,0,0,0,-1,1112,1149,0,0
-105,-125,0,0,0,0,0,0,0,0,0,-1,1119,1149,0,0
-98,-125,0,0,0,0,0,0,0,0,0,-1,1126,1149,0,0
-91,-125,0,0,0,0,0,0,0,0,0,-1,1133,1149,0,0
-84,-125,0,0,0,0,0,0,0,0,0,-1,1140,1149,0,0
-77,-125,0,0,0,0,0,0,0,0,0,-1,1147,1149,0,0
-70,-125,0,0,0,0,0,0,0,0,0,-1,1154,1149,0,0
-63,-125,0,0,0,0,0,0,0,0,0,-1,1161,1149,0,0
-56,-125,0,0,0,0,0,0,0,0,0,-1,1168,1149,0,0
-49,-125,0,0,0,0,0,0,0,0,0,-1,1175,1149,0,0
-42,-125,0,0,0,0,0,0,0,0,0,-1,1182,1149,0,0
-35,-125,0,0,0,0,0,0,0,0,0,-1,1189,1149,0,0
-28,-125,0,0,0,0,0,0,0,0,0,-1,1196,1149,0,0
-21,-125,0,0,0,0,0,0,0,0,0,-1,1203,1149,0,0
-14,-125,0,0,0,0,0,0,0,0,0,-1,1210,1149,0,0
-7,-125,0,0,0,0,0,0,0,0,0,-1,1217,1149,0,0
0,-125,0,0,0,0,0,0,0,0,0,-1,1224,1149,0,0
7,-125,0,0,0,0,0,0,0,0,0,-1,1231,1149,0,0
14,-125,0,0,0,0,0,0,0,0,0,-1,1238,1149,0,0
21,-125,0,0,0,0,0,0,0,0,0,-1,1245,1149,0,0
28,-125,0,0,0,0,0,0,0,0,0,-1,1252,1149,0,0
35,-125,0,0,0,0,0,0,0,0,0,-1,1259,1149,0,0
42,-125,0,0,0,0,0,0,0,0,0,-1,1266,1149,0,0
49,-125,0,0,0,0,0,0,0,0,0,-1,1273,1149,0,0
56,-125,0,0,0,0,0,0,0,0,0,-1,1280,1149,0,0
63,-125,0,0,0,0,0,0,0,0,0,-1,1287,1149,0,0
70,-125,0,0,0,0,0,0,0,0,0,-1,1294,1149,0,0
77,-125,0,0,0,0,0,0,0,0,0,-1,1301,1149,0,0
84,-125,0,0,0,0,0,0,0,0,0,-1,1308,1149,0,0
91,-125,0,0,0,0,0,0,0,0,0,-1,1315,1149,0,0
98,-125,0,0,0,0,0,0,0,0,0,-1,1322,1149,0,0
105,-125,0,0,0,0,0,0,0,0,0,-1,1329,1149,0,0
112,-125,0,0,0,0,0,0,0,0,0,-1,1336,1149,0,0
119,-125,0,0,0,0,0,0,0,0,0,-1,1343,1149,0,0
126,-125,0,0,0,0,0,0,0,0,0,-1,1350,1149,0,0
133,-125,0,0,0,0,0,0,0,0,0,-1,1357,1149,0,0
140,-125,0,0,0,0,0,0,0,0,0,-1,1364,1149,0,0
147,-125,0,0,0,0,0,0,0,0,0,-1,1371,1149,0,0
154,-125,0,0,0,0,0,0,0,0,0,-1,1378,1149,0,0
161,-125,0,0,0,0,0,0,0,0,0,-1,1385,1149,0,0
168,-125,0,0,0,0,0,0,0,0,0,-1,1392,1149,0,0
175,-125,0,0,0,0,0,0,0,0,0,-1,1399,1149,0,0
182,-125,0,0,0,0,0,0,0,0,0,-1,1406,1149,0,0
189,-125,0,0,0,0,0,0,0,0,0,-1,1413,1149,0,0
196,-125,0,0,0,0,0,0,0,0,0,-1,1420,1149,0,0
203,-125,0,0,0,0,0,0,0,0,0,-1,1427,1149,0,0
210,-125,0,0,0,0,0,0,0,0,0,-1,1434,1149,0,0
217,-125,0,0,0,0,0,0,0,0,0,-1,1441,1149,0,0
224,-125,0,0,0,0,0,0,0,0,0,-1,1448,1149,0,0
231,-125,0,0,0,0,0,0,0,0,0,-1,1455,1149,0,0
238,-125,0,0,0,0,0,0,0,0,0,-1,1462,1149,0,0
245,-125,0,0,0,0,0,0,0,0,0,-1,1469,1149,0,0
252,-125,0,0,0,0,0,0,0,0,0,-1,1476,1149,0,0
259,-125,0,0,0,0,0,0,0,0,0,-1,1483,1149,0,0
266,-125,0,0,0,0,0,0,0,0,0,-1,1490,1149,0,0
273,-125,0,0,0,0,0,0,0,0,0,-1,1497,1149,0,0
280,-125,0,0,0,0,0,0,0,0,0,-1,1504,1149,0,0
287,-125,0,0,0,0,0,0,0,0,0,-1,1511,1149,0,0
294,-125,0,0,0,0,0,0,0,0,0,-1,1518,1149,0,0
301,-125,0,0,0,0,0,0,0,0,0,-1,1525,1149,0,0
308,-125,0,0,0,0,0,0,0,0,0,-1,1532,1149,0,0
315,-125,0,0,0,0,0,0,0,0,0,-1,1539,1149,0,0
322,-125,0,0,0,0,0,0,0,0,0,-1,1546,1149,0,0
329,-125,0,0,0,0,0,0,0,0,0,-1,1553,1149,0,0
336,-125,0,0,0,0,0,0,0,0,0,-1,1560,1149,0,0
343,-125,0,0,0,0,0,0,0,0,0,-1,1567,1149,0,0
350,-125,0,0,0,0,0,0,0,0,0,-1,1574,1149,0,0
357,-125,0,0,0,0,0,0,0,0,0,-1,1581,1149,0,0
364,-125,0,0,0,0,0,0,0,0,0,-1,1588,1149,0,0
371,-125,0,0,0,0,0,0,0,0,0,-1,1595,1149,0,0
378,-125,0,0,0,0,0,0,0,0,0,-1,1602,1149,0,0
385,-125,0,0,0,0,0,0,0,0,0,-1,1609,1149,0,0
392,-125,0,0,0,0,0,0,0,0,0,-1,1616,1149,0,0
399,-125,0,0,0,0,0,0,0,0,0,-1,1623,1149,0,0
406,-125,0,0,0,0,0,0,0,0,0,-1,1630,1149,0,0
413,-125,0,0,0,0,0,0,0,0,0,-1,1637,1149,0,0
420,-125,0,0,0,0,0,0,0,0,0,-1,1644,1149,0,0
427,-125,0,0,0,0,0,0,0,0,0,-1,1651,1149,0,0
434,-125,0,0,0,0,0,0,0,0,0,-1,1658,1149,0,0
441,-125,0,0,0,0,0,0,0,0,0,-1,1665,1149,0,0
448,-125,0,0,0,0,0,0,0,0,0,-1,1672,1149,0,0
455,-125,0,0,0,0,0,0,0,0,0,-1,1679,1149,0,0
462,-125,0,0,0,0,0,0,0,0,0,-1,1686,1149,0,0
469,-125,0,0,0,0,0,0,0,0,0,-1,1693,1149,0,0
476,-125,0,0,0,0,0,0,0,0,0,-1,1700,1149,0,0
483,-125,0,0,0,0,0,0,0,0,0,-1,1707,1149,0,0
490,-125,0,0,0,0,0,0,0,0,0,-1,1714,1149,0,0
497,-125,0,0,0,0,0,0,0,0,0,-1,1721,1149,0,0
504,-125,0,0,0,0,0,0,0,0,0,-1,1728,1149,0,0
511,-125,0,0,0,0,0,0,0,0,0,-1,1735,1149,0,0
518,-125,0,0,0,0,0,0,0,0,0,-1,1742,1149,0,0
525,-125,0,0,0,0,0,0,0,0,0,-1,1749,1149,0,0
532,-125,0,0,0,0,0,0,0,0,0,-1,1756,1149,0,0
539,-125,0,0,0,0,0,0,0,0,0,-1,1763,1149,0,0
546,-125,0,0,0,0,0,0,0,0,0,-1,1770,1149,0,0
553,-125,0,0,0,0,0,0,0,0,0,-1,1777,1149,0,0
560,-125,0,0,0,0,0,0,0,0,0,-1,1784,1149,0,0
567,-125,0,0,0,0,0,0,0,0,0,-1,1791,1149,0,0
574,-125,0,0,0,0,0,0,0,0,0,-1,1798,1149,0,0
581,-125,0,0,0,0,0,0,0,0,0,-1,1805,1149,0,0
588,-125,0,0,0,0,0,0,0,0,0,-1,1812,1149,0,0
595,-125,0,0,0,0,0,0,0,0,0,-1,1819,1149,0,0
602,-125,0,0,0,0,0,0,0,0,0,-1,1826,1149,0,0
609,-125,0,0,0,0,0,0,0,0,0,-1,1833,1149,0,0
616,-125,0,0,0,0,0,0,0,0,0,-1,1840,1149,0,0
623,-125,0,0,0,0,0,0,0,0,0,-1,1847,1149,0,0
630,-125,0,0,0,0,0,0,0,0,0,-1,1854,1149,0,0
637,-125,0,0,0,0,0,0,0,0,0,-1,1861,1149,0,0
644,-125,75.5836,2.40881,0.00742145,0.000134399,-0.000372766,0.00744047,0.00011538,-0.0509772,0.00492231,0.0399961,1868,1149,75.5837,-2.40884
651,-125,75.6892,1.85046,0.00524752,0.000240381,-0.000215016,0.00525673,0.000231165,-0.0428369,0.00343003,0.0392564,1875,1149,75.6892,-1.85051
658,-125,75.6375,2.23352,0.00371571,0.000205166,6.9077e-05,0.00371707,0.000203807,0.0196669,0.00241298,0.0415058,1882,1149,75.6374,-2.23358
665,-125,75.7505,2.35962,0.00244345,0.000179183,0.000351033,0.00249662,0.000126011,0.150331,0.00162404,0.0439672,1889,1149,75.7505,-2.35965
672,-125,75.7053,2.27063,0.00145615,0.000153182,0.000618346,0.00170288,-9.35443e-05,0.379653,0.00116768,0.0446928,1896,1149,75.7053,-2.27061
679,-125,75.6259,2.27881,0.00122682,-0.000217902,0.000941519,0.00169116,-0.000682243,0.458179,0.00141095,0.0392897,1903,1149,75.6258,-2.27877
686,-125,75.6598,2.34509,0.00173379,-0.000385195,0.00095935,0.00210359,-0.000754994,0.367917,0.00171053,0.0376836,1910,1149,75.6598,-2.34508
693,-125,75.535,2.35938,0.00197364,-0.000526321,0.00103022,0.00234347,-0.000896158,0.344659,0.00193162,0.0363637,1917,1149,75.535,-2.35935
700,-125,75.7017,2.44067,0.00197165,-0.000662838,0.00114389,0.00239901,-0.00109019,0.35754,0.00206119,0.0228396,1924,1149,75.7017,-2.44071
707,-125,75.9097,2.56885,0,0,0,0,0,0,0,-1,1931,1149,75.9097,-2.5688
714,-125,54.8745,9.21375,0,0,0,0,0,0,0,-1,1938,1149,54.8746,-9.21371
721,-125,67.8771,10.1201,0,0,0,0,0,0,0,-1,1945,1149,67.877,-10.1202
728,-125,67.8735,9.50134,0.0017391,3.90417e-05,0.00183998,0.00291591,-0.00113777,0.569013,0.00241428,0.0217563,1952,1149,67.8735,-9.5013
735,-125,67.9135,8.89526,0.001848,0.000190411,0.00215582,0.00332885,-0.00129044,0.601885,0.00275214,0.0234406,1959,1149,67.9135,-8.89522
742,-125,67.8711,8.29358,0.00154354,0.000378523,0.00235832,0.00339023,-0.00146816,0.664321,0.00287723,0.0355825,1966,1149,67.8711,-8.29361
749,-125,67.7299,7.68347,0.00044687,0.00143188,0.00252282,0.00350981,-0.00163107,0.881796,0.00303344,0.0278139,1973,1149,67.7299,-7.68347
756,-125,67.7325,6.93481,-0.00134744,0.00399836,0.00204943,0.00469363,-0.0020427,1.24373,0.00398834,0.0239208,1980,1149,67.7325,-6.93487
763,-125,67.7578,6.26807,-0.00317739,0.00802301,0.000341642,0.00803342,-0.0031878,1.54033,0.00667689,0.0130478,1987,1149,67.7578,-6.26812
770,-125,67.6716,5.64148,-0.00489032,0.012928,-0.00229063,0.0132178,-0.00518008,-1.44497,0.0109547,0.0165931,1994,1149,67.6716,-5.64153
777,-125,67.5352,5.07361,-0.00644391,0.0188794,-0.00625232,0.020339,-0.00790349,-1.34146,0.0168244,0.0347973,2001,1149,67.5351,-5.07361
784,-125,67.2581,4.51343,-0.00771288,0.0263023,-0.0121391,0.0301901,-0.0116006,-1.26085,0.0249109,0.0498325,2008,1149,67.2581,-4.5134
791,-125,67.0981,3.974,0,0,0,0,0,0,0,-1,2015,1149,67.0981,-3.97395
798,-125,70.5437,-1.2262,0,0,0,0,0,0,0,-1,2022,1149,70.5436,1.22616
805,-125,69.7205,-0.646606,0,0,0,0,0,0,0,-1,2029,1149,69.7205,0.646609
812,-125,68.9426,-0.752563,0,0,0,0,0,0,0,-1,2036,1149,68.9427,0.752533
-700,-132,0,0,0,0,0,0,0,0,0,-1,524,1156,0,0
-693,-132,-51.523,-3.88257,0,0,0,0,0,0,0,-1,531,1156,-51.523,3.88263
-686,-132,-51.0884,-4.20679,0,0,0,0,0,0,0,-1,538,1156,-51.0884,4.20679
-679,-132,-51.2162,-5.6449,0,0,0,0,0,0,0,-1,545,1156,-51.2162,5.64486
-672,-132,-51.4579,-6.25256,0,0,0,0,0,0,0,-1,552,1156,-51.4578,6.25256
-665,-132,-51.6306,-6.29761,0,0,0,0,0,0,0,-1,559,1156,-51.6306,6.29758
-658,-132,-51.7347,2.8894,0,0,0,0,0,0,0,-1,566,1156,-51.7347,-2.8894
-651,-132,-51.35,3.40723,0.00978537,0.00971673,-0.00209499,0.0118463,0.00765578,-0.777209,0.00693633,0.0444383,573,1156,-51.35,-3.40718
-644,-132,-51.0476,3.86523,0.00476597,0.00800996,-0.00254523,0.00940609,0.00336985,-1.06908,0.00550286,0.0285809,580,1156,-51.0476,-3.8652
-637,-132,-51.1471,4.45776,0.000796345,0.00616854,-0.00289187,0.00742935,-0.000464459,-1.15966,0.00511475,0.0140829,587,1156,-51.1471,-4.45782
-630,-132,-51.134,5.13489,-0.00276275,0.00428573,-0.00325079,0.00555606,-0.00403308,-1.19827,0.00555952,0.0108979,594,1156,-51.134,-5.13486
-623,-132,-51.191,5.83801,-0.00591343,0.00236432,-0.00362281,0.00372591,-0.00727502,-1.21129,0.00646063,0.0161961,601,1156,-51.191,-5.838
-616,-132,-51.3418,6.37158,-0.00865896,0.000396234,-0.00399558,0.00190716,-0.0101699,-1.20927,0.00749695,0.0460511,608,1156,-51.3418,-6.37164
-609,-132,-51.3542,7.31079,0,0,0,0,0,0,0,-1,615,1156,-51.3542,-7.3108
-602,-132,-51.2123,7.94373,0,0,0,0,0,0,0,-1,622,1156,-51.2123,-7.94373
-595,-132,-51.6408,8.68225,0,0,0,0,0,0,0,-1,629,1156,-51.6408,-8.68221
-588,-132,-42.6534,6.92969,0,0,0,0,0,0,0,-1,636,1156,-42.6535,-6.92967
-581,-132,-35.9343,6.42957,0,0,0,0,0,0,0,-1,643,1156,-35.9342,-6.42957
-574,-132,-33.2071,2.86963,0,0,0,0,0,0,0,-1,650,1156,-33.2071,-2.86963
-567,-132,-58.783,0.220825,0,0,0,0,0,0,0,-1,657,1156,-58.783,-0.220884
-560,-132,-58.9213,0.209595,0,0,0,0,0,0,0,-1,664,1156,-58.9214,-0.209536
-553,-132,-58.9631,0.361084,0,0,0,0,0,0,0,-1,671,1156,-58.9631,-0.361072
-546,-132,-58.8785,0.432861,0,0,0,0,0,0,0,-1,678,1156,-58.8785,-0.43282
-539,-132,-58.877,0.385864,0,0,0,0,0,0,0,-1,685,1156,-58.877,-0.385837
-532,-132,-58.8275,0.22876,0,0,0,0,0,0,0,-1,692,1156,-58.8275,-0.228712
-525,-132,-58.8347,0.218384,0,0,0,0,0,0,0,-1,699,1156,-58.8347,-0.218424
-518,-132,0,0,0,0,0,0,0,0,0,-1,706,1156,0,0
-511,-132,0,0,0,0,0,0,0,0,0,-1,713,1156,0,0
-504,-132,0,0,0,0,0,0,0,0,0,-1,720,1156,0,0
-497,-132,0,0,0,0,0,0,0,0,0,-1,727,1156,0,0
-490,-132,0,0,0,0,0,0,0,0,0,-1,734,1156,0,0
-483,-132,0,0,0,0,0,0,0,0,0,-1,741,1156,0,0
-476,-132,0,0,0,0,0,0,0,0,0,-1,748,1156,0,0
-469,-132,0,0,0,0,0,0,0,0,0,-1,755,1156,0,0
-462,-132,0,0,0,0,0,0,0,0,0,-1,762,1156,0,0
-455,-132,0,0,0,0,0,0,0,0,0,-1,769,1156,0,0
-448,-132,0,0,0,0,0,0,0,0,0,-1,776,1156,0,0
-441,-132,0,0,0,0,0,0,0,0,0,-1,783,1156,0,0
-434,-132,0,0,0,0,0,0,0,0,0,-1,790,1156,0,0
-427,-132,0,0,0,0,0,0,0,0,0,-1,797,1156,0,0
-420,-132,0,0,0,0,0,0,0,0,0,-1,804,1156,0,0
-413,-132,0,0,0,0,0,0,0,0,0,-1,811,1156,0,0
-406,-132,0,0,0,0,0,0,0,0,0,-1,818,1156,0,0
-399,-132,0,0,0,0,0,0,0,0,0,-1,825,1156,0,0
-392,-132,0,0,0,0,0,0,0,0,0,-1,832,1156,0,0
-385,-132,0,0,0,0,0,0,0,0,0,-1,839,1156,0,0
-378,-132,0,0,0,0,0,0,0,0,0,-1,846,1156,0,0
-371,-132,0,0,0,0,0,0,0,0,0,-1,853,1156,0,0
-364,-132,0,0,0,0,0,0,0,0,0,-1,860,1156,0,0
-357,-132,0,0,0,0,0,0,0,0,0,-1,867,1156,0,0
-350,-132,0,0,0,0,0,0,0,0,0,-1,874,1156,0,0
-343,-132,0,0,0,0,0,0,0,0,0,-1,881,1156,0,0
-336,-132,0,0,0,0,0,0,0,0,0,-1,888,1156,0,0
-329,-132,0,0,0,0,0,0,0,0,0,-1,895,1156,0,0
-322,-132,0,0,0,0,0,0,0,0,0,-1,902,1156,0,0
-315,-132,0,0,0,0,0,0,0,0,0,-1,909,1156,0,0
-308,-132,0,0,0,0,0,0,0,0,0,-1,916,1156,0,0
-301,-132,0,0,0,0,0,0,0,0,0,-1,923,1156,0,0
-294,-132,0,0,0,0,0,0,0,0,0,-1,930,1156,0,0
-287,-132,0,0,0,0,0,0,0,0,0,-1,937,1156,0,0
-280,-132,0,0,0,0,0,0,0,0,0,-1,944,1156,0,0
-273,-132,0,0,0,0,0,0,0,0,0,-1,951,1156,0,0
-266,-132,0,0,0,0,0,0,0,0,0,-1,958,1156,0,0
-259,-132,0,0,0,0,0,0,0,0,0,-1,965,1156,0,0
-252,-132,0,0,0,0,0,0,0,0,0,-1,972,1156,0,0
-245,-132,0,0,0,0,0,0,0,0,0,-1,979,1156,0,0
-238,-132,0,0,0,0,0,0,0,0,0,-1,986,1156,0,0
-231,-132,0,0,0,0,0,0,0,0,0,-1,993,1156,0,0
-224,-132,0,0,0,0,0,0,0,0,0,-1,1000,1156,0,0
-217,-132,0,0,0,0,0,0,0,0,0,-1,1007,1156,0,0
-210,-132,0,0,0,0,0,0,0,0,0,-1,1014,1156,0,0
-203,-132,0,0,0,0,0,0,0,0,0,-1,1021,1156,0,0
-196,-132,0,0,0,0,0,0,0,0,0,-1,1028,1156,0,0
-189,-132,0,0,0,0,0,0,0,0,0,-1,1035,1156,0,0
-182,-132,0,0,0,0,0,0,0,0,0,-1,1042,1156,0,0
-175,-132,0,0,0,0,0,0,0,0,0,-1,1049,1156,0,0
-168,-132,0,0,0,0,0,0,0,0,0,-1,1056,1156,0,0
-161,-132,0,0,0,0,0,0,0,0,0,-1,1063,1156,0,0
-154,-132,0,0,0,0,0,0,0,0,0,-1,1070,1156,0,0
-147,-132,0,0,0,0,0,0,0,0,0,-1,1077,1156,0,0
-140,-132,0,0,0,0,0,0,0,0,0,-1,1084,1156,0,0
-133,-132,0,0,0,0,0,0,0,0,0,-1,1091,1156,0,0
-126,-132,0,0,0,0,0,0,0,0,0,-1,1098,1156,0,0
-119,-132,0,0,0,0,0,0,0,0,0,-1,1105,1156,0,0
-112,-132,0,0,0,0,0,0,0,0,0,-1,1112,1156,0,0
-105,-132,0,0,0,0,0,0,0,0,0,-1,1119,1156,0,0
-98,-132,0,0,0,0,0,0,0,0,0,-1,1126,1156,0,0
-91,-132,0,0,0,0,0,0,0,0,0,-1,1133,1156,0,0
-84,-132,0,0,0,0,0,0,0,0,0,-1,1140,1156,0,0
-77,-132,0,0,0,0,0,0,0,0,0,-1,1147,1156,0,0
-70,-132,0,0,0,0,0,0,0,0,0,-1,1154,1156,0,0
-63,-132,0,0,0,0,0,0,0,0,0,-1,1161,1156,0,0
-56,-132,0,0,0,0,0,0,0,0,0,-1,1168,1156,0,0
-49,-132,0,0,0,0,0,0,0,0,0,-1,1175,1156,0,0
-42,-132,0,0,0,0,0,0,0,0,0,-1,1182,1156,0,0
-35,-132,0,0,0,0,0,0,0,0,0,-1,1189,1156,0,0
-28,-132,0,0,0,0,0,0,0,0,0,-1,1196,1156,0,0
-21,-132,0,0,0,0,0,0,0,0,0,-1,1203,1156,0,0
-14,-132,0,0,0,0,0,0,0,0,0,-1,1210,1156,0,0
-7,-132,0,0,0,0,0,0,0,0,0,-1,1217,1156,0,0
0,-132,0,0,0,0,0,0,0,0,0,-1,1224,1156,0,0
7,-132,0,0,0,0,0,0,0,0,0,-1,1231,1156,0,0
14,-132,0,0,0,0,0,0,0,0,0,-1,1238,1156,0,0
21,-132,0,0,0,0,0,0,0,0,0,-1,1245,1156,0,0
28,-132,0,0,0,0,0,0,0,0,0,-1,1252,1156,0,0
35,-132,0,0,0,0,0,0,0,0,0,-1,1259,1156,0,0
42,-132,0,0,0,0,0,0,0,0,0,-1,1266,1156,0,0
49,-132,0,0,0,0,0,0,0,0,0,-1,1273,1156,0,0
56,-132,0,0,0,0,0,0,0,0,0,-1,1280,1156,0,0
63,-132,0,0,0,0,0,0,0,0,0,-1,1287,1156,0,0
70,-132,0,0,0,0,0,0,0,0,0,-1,1294,1156,0,0
77,-132,0,0,0,0,0,0,0,0,0,-1,1301,1156,0,0
84,-132,0,0,0,0,0,0,0,0,0,-1,1308,1156,0,0
91,-132,0,0,0,0,0,0,0,0,0,-1,1315,1156,0,0
98,-132,0,0,0,0,0,0,0,0,0,-1,1322,1156,0,0
105,-132,0,0,0,0,0,0,0,0,0,-1,1329,1156,0,0
112,-132,0,0,0,0,0,0,0,0,0,-1,1336,1156,0,0
119,-132,0,0,0,0,0,0,0,0,0,-1,1343,1156,0,0
126,-132,0,0,0,0,0,0,0,0,0,-1,1350,1156,0,0
133,-132,0,0,0,0,0,0,0,0,0,-1,1357,1156,0,0
140,-132,0,0,0,0,0,0,0,0,0,-1,1364,1156,0,0
147,-132,0,0,0,0,0,0,0,0,0,-1,1371,1156,0,0
154,-132,0,0,0,0,0,0,0,0,0,-1,1378,1156,0,0
161,-132,0,0,0,0,0,0,0,0,0,-1,1385,1156,0,0
168,-132,0,0,0,0,0,0,0,0,0,-1,1392,1156,0,0
175,-132,0,0,0,0,0,0,0,0,0,-1,1399,1156,0,0
182,-132,0,0,0,0,0,0,0,0,0,-1,1406,1156,0,0
189,-132,0,0,0,0,0,0,0,0,0,-1,1413,1156,0,0
196,-132,0,0,0,0,0,0,0,0,0,-1,1420,1156,0,0
203,-132,0,0,0,0,0,0,0,0,0,-1,1427,1156,0,0
210,-132,0,0,0,0,0,0,0,0,0,-1,1434,1156,0,0
217,-132,0,0,0,0,0,0,0,0,0,-1,1441,1156,0,0
224,-132,0,0,0,0,0,0,0,0,0,-1,1448,1156,0,0
231,-132,0,0,0,0,0,0,0,0,0,-1,1455,1156,0,0
238,-132,0,0,0,0,0,0,0,0,0,-1,1462,1156,0,0
245,-132,0,0,0,0,0,0,0,0,0,-1,1469,1156,0,0
252,-132,0,0,0,0,0,0,0,0,0,-1,1476,1156,0,0
259,-132,0,0,0,0,0,0,0,0,0,-1,1483,1156,0,0
266,-132,0,0,0,0,0,0,0,0,0,-1,1490,1156,0,0
273,-132,0,0,0,0,0,0,0,0,0,-1,1497,1156,0,0
280,-132,0,0,0,0,0,0,0,0,0,-1,1504,1156,0,0
287,-132,0,0,0,0,0,0,0,0,0,-1,1511,1156,0,0
294,-132,0,0,0,0,0,0,0,0,0,-1,1518,1156,0,0
301,-132,0,0,0,0,0,0,0,0,0,-1,1525,1156,0,0
308,-132,0,0,0,0,0,0,0,0,0,-1,1532,1156,0,0
315,-132,0,0,0,0,0,0,0,0,0,-1,1539,1156,0,0
322,-132,0,0,0,0,0,0,0,0,0,-1,1546,1156,0,0
329,-132,0,0,0,0,0,0,0,0,0,-1,1553,1156,0,0
336,-132,0,0,0,0,0,0,0,0,0,-1,1560,1156,0,0
343,-132,0,0,0,0,0,0,0,0,0,-1,1567,1156,0,0
350,-132,0,0,0,0,0,0,0,0,0,-1,1574,1156,0,0
357,-132,0,0,0,0,0,0,0,0,0,-1,1581,1156,0,0
364,-132,0,0,0,0,0,0,0,0,0,-1,1588,1156,0,0
371,-132,0,0,0,0,0,0,0,0,0,-1,1595,1156,0,0
378,-132,0,0,0,0,0,0,0,0,0,-1,1602,1156,0,0
385,-132,0,0,0,0,0,0,0,0,0,-1,1609,1156,0,0
392,-132,0,0,0,0,0,0,0,0,0,-1,1616,1156,0,0
399,-132,0,0,0,0,0,0,0,0,0,-1,1623,1156,0,0
406,-132,0,0,0,0,0,0,0,0,0,-1,1630,1156,0,0
413,-132,0,0,0,0,0,0,0,0,0,-1,1637,1156,0,0
420,-132,0,0,0,0,0,0,0,0,0,-1,1644,1156,0,0
427,-132,0,0,0,0,0,0,0,0,0,-1,1651,1156,0,0
434,-132,0,0,0,0,0,0,0,0,0,-1,1658,1156,0,0
441,-132,0,0,0,0,0,0,0,0,0,-1,1665,1156,0,0
448,-132,0,0,0,0,0,0,0,0,0,-1,1672,1156,0,0
455,-132,0,0,0,0,0,0,0,0,0,-1,1679,1156,0,0
462,-132,0,0,0,0,0,0,0,0,0,-1,1686,1156,0,0
469,-132,0,0,0,0,0,0,0,0,0,-1,1693,1156,0,0
476,-132,0,0,0,0,0,0,0,0,0,-1,1700,1156,0,0
483,-132,0,0,0,0,0,0,0,0,0,-1,1707,1156,0,0
490,-132,0,0,0,0,0,0,0,0,0,-1,1714,1156,0,0
497,-132,0,0,0,0,0,0,0,0,0,-1,1721,1156,0,0
504,-132,0,0,0,0,0,0,0,0,0,-1,1728,1156,0,0
511,-132,0,0,0,0,0,0,0,0,0,-1,1735,1156,0,0
518,-132,0,0,0,0,0,0,0,0,0,-1,1742,1156,0,0
525,-132,0,0,0,0,0,0,0,0,0,-1,1749,1156,0,0
532,-132,0,0,0,0,0,0,0,0,0,-1,1756,1156,0,0
539,-132,0,0,0,0,0,0,0,0,0,-1,1763,1156,0,0
546,-132,0,0,0,0,0,0,0,0,0,-1,1770,1156,0,0
553,-132,0,0,0,0,0,0,0,0,0,-1,1777,1156,0,0
560,-132,0,0,0,0,0,0,0,0,0,-1,1784,1156,0,0
567,-132,0,0,0,0,0,0,0,0,0,-1,1791,1156,0,0
574,-132,0,0,0,0,0,0,0,0,0,-1,1798,1156,0,0
581,-132,0,0,0,0,0,0,0,0,0,-1,1805,1156,0,0
588,-132,0,0,0,0,0,0,0,0,0,-1,1812,1156,0,0
595,-132,0,0,0,0,0,0,0,0,0,-1,1819,1156,0,0
602,-132,0,0,0,0,0,0,0,0,0,-1,1826,1156,0,0
609,-132,0,0,0,0,0,0,0,0,0,-1,1833,1156,0,0
616,-132,0,0,0,0,0,0,0,0,0,-1,1840,1156,0,0
623,-132,0,0,0,0,0,0,0,0,0,-1,1847,1156,0,0
630,-132,0,0,0,0,0,0,0,0,0,-1,1854,1156,0,0
637,-132,0,0,0,0,0,0,0,0,0,-1,1861,1156,0,0
644,-132,75.9747,2.07898,0.00677568,0.00053502,0.000631016,0.00683884,0.000471855,0.0997683,0.00441036,0.0432254,1868,1156,75.9748,-2.07896
651,-132,75.746,2.05676,0.00480836,0.000524694,0.000533719,0.00487386,0.000459197,0.122107,0.0031075,0.038782,1875,1156,75.746,-2.05671
658,-132,75.6876,2.28809,0.00339058,0.000425798,0.000583242,0.00350119,0.000315188,0.187422,0.00223648,0.0409787,1882,1156,75.6877,-2.28804
665,-132,75.728,2.40039,0.00220839,0.000349309,0.000645446,0.00241051,0.000147193,0.303469,0.00156026,0.0426154,1889,1156,75.728,-2.40044
672,-132,75.6674,2.27563,0.00130547,0.000295823,0.00071288,0.00167417,-7.2877e-05,0.477312,0.00114118,0.0393655,1896,1156,75.6674,-2.27561
679,-132,75.6245,2.30054,0.00116107,-9.86417e-05,0.000927947,0.00165274,-0.000590304,0.487233,0.00134257,0.0365456,1903,1156,75.6245,-2.30059
686,-132,75.6842,2.30505,0.00183773,-0.000183992,0.000875746,0.00216432,-0.00051058,0.356951,0.00163979,0.0364615,1910,1156,75.6842,-2.30501
693,-132,75.5729,2.42212,0.00213136,-0.000268653,0.000924859,0.0024464,-0.000583698,0.328313,0.00185635,0.030408,1917,1156,75.5729,-2.42217
700,-132,75.6979,2.43848,0,0,0,0,0,0,0,-1,1924,1156,75.6979,-2.43846
707,-132,57.9275,3.01367,0,0,0,0,0,0,0,-1,1931,1156,57.9275,-3.01369
714,-132,57.8083,9.22156,0,0,0,0,0,0,0,-1,1938,1156,57.8084,-9.22151
721,-132,67.3019,10.0885,0,0,0,0,0,0,0,-1,1945,1156,67.3018,-10.0885
728,-132,67.1742,9.6322,0.00211863,0.000320882,0.00167109,0.00311726,-0.000677744,0.538646,0.00233708,0.0318341,1952,1156,67.1742,-9.63225
735,-132,67.1515,8.99829,0.00243217,0.000385108,0.00203059,0.00368261,-0.000865325,0.551954,0.00278863,0.0316068,1959,1156,67.1515,-8.99832
742,-132,67.1565,8.31458,0.00225873,0.000386164,0.00224283,0.00375286,-0.00110797,0.587666,0.00294163,0.0279185,1966,1156,67.1565,-8.31452
749,-132,67.0847,7.65906,0.00114456,0.00122076,0.00252012,0.00370306,-0.00133775,0.792956,0.00301522,0.0256338,1973,1156,67.0847,-7.659
756,-132,67.084,6.95288,-0.000473477,0.00363194,0.00217545,0.00457025,-0.00141178,1.16359,0.00361063,0.0249877,1980,1156,67.084,-6.95286
763,-132,67.0554,6.28857,-0.00181499,0.00748338,0.000676397,0.00753233,-0.00186394,1.49856,0.00574456,0.0145563,1987,1156,67.0555,-6.28854
770,-132,67.0247,5.66553,-0.00287229,0.0121315,-0.00172813,0.012328,-0.00306876,-1.45759,0.00940989,0.0146017,1994,1156,67.0246,-5.66554
777,-132,66.9612,4.9978,-0.00361552,0.0178453,-0.0054479,0.0191491,-0.00491928,-1.3359,0.0146831,0.0281414,2001,1156,66.9611,-4.99778
784,-132,66.606,4.43408,0,0,0,0,0,0,0,-1,2008,1156,66.6059,-4.43408
791,-132,66.7825,3.69739,0,0,0,0,0,0,0,-1,2015,1156,66.7824,-3.69743
798,-132,69.6697,-2.42651,0,0,0,0,0,0,0,-1,2022,1156,69.6698,2.42646
805,-132,69.2461,-0.735962,0,0,0,0,0,0,0,-1,2029,1156,69.2461,0.735961
812,-132,68.5593,-0.845947,0,0,0,0,0,0,0,-1,2036,1156,68.5594,0.845898
-700,-139,0,0,0,0,0,0,0,0,0,-1,524,1163,0,0
-693,-139,-51.4747,-4.83777,0,0,0,0,0,0,0,-1,531,1163,-51.4747,4.83779
-686,-139,-51.5807,-4.75842,0,0,0,0,0,0,0,-1,538,1163,-51.5807,4.75841
-679,-139,-50.9241,-7.30774,0,0,0,0,0,0,0,-1,545,1163,-50.9241,7.30768
-672,-139,-51.2633,-7.33789,0,0,0,0,0,0,0,-1,552,1163,-51.2633,7.3379
-665,-139,-51.6025,-7.36816,0,0,0,0,0,0,0,-1,559,1163,-51.6025,7.36811
-658,-139,-48.239,1.87109,0,0,0,0,0,0,0,-1,566,1163,-48.239,-1.87108
-651,-139,-50.6173,3.19263,0,0,0,0,0,0,0,-1,573,1163,-50.6173,-3.19258
-644,-139,-50.3265,3.87207,0.00771978,0.00809896,-0.00261931,0.0105355,0.00528321,-0.821526,0.0060827,0.0301768,580,1163,-50.3265,-3.87203
-637,-139,-50.4171,4.45862,0.00294237,0.00609535,-0.00287591,0.00779852,0.0012392,-1.03612,0.00483913,0.0171068,587,1163,-50.4171,-4.45859
-630,-139,-50.4205,5.15063,-0.00139837,0.00415703,-0.00322897,0.00563865,-0.00288,-1.1406,0.00500347,0.0108187,594,1163,-50.4205,-5.15066
-623,-139,-50.4763,5.87134,-0.00532125,0.00229176,-0.00367788,0.00377829,-0.00680778,-1.18669,0.00619473,0.0166345,601,1163,-50.4763,-5.87136
-616,-139,-50.5599,6.56042,-0.00883879,0.000487085,-0.00419269,0.00209485,-0.0104466,-1.20462,0.00775751,0.021546,608,1163,-50.5599,-6.56048
-609,-139,-50.3401,7.24329,0,0,0,0,0,0,0,-1,615,1163,-50.3401,-7.24323
-602,-139,-50.4112,7.96228,0,0,0,0,0,0,0,-1,622,1163,-50.4112,-7.96224
-595,-139,-50.6539,8.62317,0,0,0,0,0,0,0,-1,629,1163,-50.6539,-8.62318
-588,-139,-51.0773,9.1781,0,0,0,0,0,0,0,-1,636,1163,-51.0773,-9.17806
-581,-139,-34.4892,6.72473,0,0,0,0,0,0,0,-1,643,1163,-34.4892,-6.72476
-574,-139,-23.0725,2.4043,0,0,0,0,0,0,0,-1,650,1163,-23.0725,-2.40433
-567,-139,-58.7595,0.271973,0,0,0,0,0,0,0,-1,657,1163,-58.7595,-0.272028
-560,-139,-58.8859,0.242188,0,0,0,0,0,0,0,-1,664,1163,-58.886,-0.242128
-553,-139,-58.9003,0.326416,0,0,0,0,0,0,0,-1,671,1163,-58.9003,-0.326474
-546,-139,-58.775,0.126953,0,0,0,0,0,0,0,-1,678,1163,-58.775,-0.126895
-539,-139,-58.8079,0.126221,0,0,0,0,0,0,0,-1,685,1163,-58.8079,-0.126176
-532,-139,-58.8244,0.174927,0,0,0,0,0,0,0,-1,692,1163,-58.8244,-0.174985
-525,-139,-58.8898,0.293213,0,0,0,0,0,0,0,-1,699,1163,-58.8898,-0.293239
-518,-139,0,0,0,0,0,0,0,0,0,-1,706,1163,0,0
-511,-139,0,0,0,0,0,0,0,0,0,-1,713,1163,0,0
-504,-139,0,0,0,0,0,0,0,0,0,-1,720,1163,0,0
-497,-139,0,0,0,0,0,0,0,0,0,-1,727,1163,0,0
-490,-139,0,0,0,0,0,0,0,0,0,-1,734,1163,0,0
-483,-139,0,0,0,0,0,0,0,0,0,-1,741,1163,0,0
-476,-139,0,0,0,0,0,0,0,0,0,-1,748,1163,0,0
-469,-139,0,0,0,0,0,0,0,0,0,-1,755,1163,0,0
-462,-139,0,0,0,0,0,0,0,0,0,-1,762,1163,0,0
-455,-139,0,0,0,0,0,0,0,0,0,-1,769,1163,0,0
-448,-139,0,0,0,0,0,0,0,0,0,-1,776,1163,0,0
-441,-139,0,0,0,0,0,0,0,0,0,-1,783,1163,0,0
-434,-139,0,0,0,0,0,0,0,0,0,-1,790,1163,0,0
-427,-139,0,0,0,0,0,0,0,0,0,-1,797,1163,0,0
-420,-139,0,0,0,0,0,0,0,0,0,-1,804,1163,0,0
-413,-139,0,0,0,0,0,0,0,0,0,-1,811,1163,0,0
-406,-139,0,0,0,0,0,0,0,0,0,-1,818,1163,0,0
-399,-139,0,0,0,0,0,0,0,0,0,-1,825,1163,0,0
-392,-139,0,0,0,0,0,0,0,0,0,-1,832,1163,0,0
-385,-139,0,0,0,0,0,0,0,0,0,-1,839,1163,0,0
-378,-139,0,0,0,0,0,0,0,0,0,-1,846,1163,0,0
-371,-139,0,0,0,0,0,0,0,0,0,-1,853,1163,0,0
-364,-139,0,0,0,0,0,0,0,0,0,-1,860,1163,0,0
-357,-139,0,0,0,0,0,0,0,0,0,-1,867,1163,0,0
-350,-139,0,0,0,0,0,0,0,0,0,-1,874,1163,0,0
-343,-139,0,0,0,0,0,0,0,0,0,-1,881,1163,0,0
-336,-139,0,0,0,0,0,0,0,0,0,-1,888,1163,0,0
-329,-139,0,0,0,0,0,0,0,0,0,-1,895,1163,0,0
-322,-139,0,0,0,0,0,0,0,0,0,-1,902,1163,0,0
-315,-139,0,0,0,0,0,0,0,0,0,-1,909,1163,0,0
-308,-139,0,0,0,0,0,0,0,0,0,-1,916,1163,0,0
-301,-139,0,0,0,0,0,0,0,0,0,-1,923,1163,0,0
-294,-139,0,0,0,0,0,0,0,0,0,-1,930,1163,0,0
-287,-139,0,0,0,0,0,0,0,0,0,-1,937,1163,0,0
-280,-139,0,0,0,0,0,0,0,0,0,-1,944,1163,0,0
-273,-139,0,0,0,0,0,0,0,0,0,-1,951,1163,0,0
-266,-139,0,0,0,0,0,0,0,0,0,-1,958,1163,0,0
-259,-139,0,0,0,0,0,0,0,0,0,-1,965,1163,0,0
-252,-139,0,0,0,0,0,0,0,0,0,-1,972,1163,0,0
-245,-139,0,0,0,0,0,0,0,0,0,-1,979,1163,0,0
-238,-139,0,0,0,0,0,0,0,0,0,-1,986,1163,0,0
-231,-139,0,0,0,0,0,0,0,0,0,-1,993,1163,0,0
-224,-139,0,0,0,0,0,0,0,0,0,-1,1000,1163,0,0
-217,-139,0,0,0,0,0,0,0,0,0,-1,1007,1163,0,0
-210,-139,0,0,0,0,0,0,0,0,0,-1,1014,1163,0,0
-203,-139,0,0,0,0,0,0,0,0,0,-1,1021,1163,0,0
-196,-139,0,0,0,0,0,0,0,0,0,-1,1028,1163,0,0
-189,-139,0,0,0,0,0,0,0,0,0,-1,1035,1163,0,0
-182,-139,0,0,0,0,0,0,0,0,0,-1,1042,1163,0,0
-175,-139,0,0,0,0,0,0,0,0,0,-1,1049,1163,0,0
-168,-139,0,0,0,0,0,0,0,0,0,-1,1056,1163,0,0
-161,-139,0,0,0,0,0,0,0,0,0,-1,1063,1163,0,0
-154,-139,0,0,0,0,0,0,0,0,0,-1,1070,1163,0,0
-147,-139,0,0,0,0,0,0,0,0,0,-1,1077,1163,0,0
-140,-139,0,0,0,0,0,0,0,0,0,-1,1084,1163,0,0
-133,-139,0,0,0,0,0,0,0,0,0,-1,1091,1163,0,0
-126,-139,0,0,0,0,0,0,0,0,0,-1,1098,1163,0,0
-119,-139,0,0,0,0,0,0,0,0,0,-1,1105,1163,0,0
-112,-139,0,0,0,0,0,0,0,0,0,-1,1112,1163,0,0
-105,-139,0,0,0,0,0,0,0,0,0,-1,1119,1163,0,0
-98,-139,0,0,0,0,0,0,0,0,0,-1,1126,1163,0,0
-91,-139,0,0,0,0,0,0,0,0,0,-1,1133,1163,0,0
-84,-139,0,0,0,0,0,0,0,0,0,-1,1140,1163,0,0
-77,-139,0,0,0,0,0,0,0,0,0,-1,1147,1163,0,0
-70,-139,0,0,0,0,0,0,0,0,0,-1,1154,1163,0,0
-63,-139,0,0,0,0,0,0,0,0,0,-1,1161,1163,0,0
-56,-139,0,0,0,0,0,0,0,0,0,-1,1168,1163,0,0
-49,-139,0,0,0,0,0,0,0,0,0,-1,1175,1163,0,0
-42,-139,0,0,0,0,0,0,0,0,0,-1,1182,1163,0,0
-35,-139,0,0,0,0,0,0,0,0,0,-1,1189,1163,0,0
-28,-139,0,0,0,0,0,0,0,0,0,-1,1196,1163,0,0
-21,-139,0,0,0,0,0,0,0,0,0,-1,1203,1163,0,0
-14,-139,0,0,0,0,0,0,0,0,0,-1,1210,1163,0,0
-7,-139,0,0,0,0,0,0,0,0,0,-1,1217,1163,0,0
0,-139,0,0,0,0,0,0,0,0,0,-1,1224,1163,0,0
7,-139,0,0,0,0,0,0,0,0,0,-1,1231,1163,0,0
14,-139,0,0,0,0,0,0,0,0,0,-1,1238,1163,0,0
21,-139,0,0,0,0,0,0,0,0,0,-1,1245,1163,0,0
28,-139,0,0,0,0,0,0,0,0,0,-1,1252,1163,0,0
35,-139,0,0,0,0,0,0,0,0,0,-1,1259,1163,0,0
42,-139,0,0,0,0,0,0,0,0,0,-1,1266,1163,0,0
49,-139,0,0,0,0,0,0,0,0,0,-1,1273,1163,0,0
56,-139,0,0,0,0,0,0,0,0,0,-1,1280,1163,0,0
63,-139,0,0,0,0,0,0,0,0,0,-1,1287,1163,0,0
70,-139,0,0,0,0,0,0,0,0,0,-1,1294,1163,0,0
77,-139,0,0,0,0,0,0,0,0,0,-1,1301,1163,0,0
84,-139,0,0,0,0,0,0,0,0,0,-1,1308,1163,0,0
91,-139,0,0,0,0,0,0,0,0,0,-1,1315,1163,0,0
98,-139,0,0,0,0,0,0,0,0,0,-1,1322,1163,0,0
105,-139,0,0,0,0,0,0,0,0,0,-1,1329,1163,0,0
112,-139,0,0,0,0,0,0,0,0,0,-1,1336,1163,0,0
119,-139,0,0,0,0,0,0,0,0,0,-1,1343,1163,0,0
126,-139,0,0,0,0,0,0,0,0,0,-1,1350,1163,0,0
133,-139,0,0,0,0,0,0,0,0,0,-1,1357,1163,0,0
140,-139,0,0,0,0,0,0,0,0,0,-1,1364,1163,0,0
147,-139,0,0,0,0,0,0,0,0,0,-1,1371,1163,0,0
154,-139,0,0,0,0,0,0,0,0,0,-1,1378,1163,0,0
161,-139,0,0,0,0,0,0,0,0,0,-1,1385,1163,0,0
168,-139,0,0,0,0,0,0,0,0,0,-1,1392,1163,0,0
175,-139,0,0,0,0,0,0,0,0,0,-1,1399,1163,0,0
182,-139,0,0,0,0,0,0,0,0,0,-1,1406,1163,0,0
189,-139,0,0,0,0,0,0,0,0,0,-1,1413,1163,0,0
196,-139,0,0,0,0,0,0,0,0,0,-1,1420,1163,0,0
203,-139,0,0,0,0,0,0,0,0,0,-1,1427,1163,0,0
210,-139,0,0,0,0,0,0,0,0,0,-1,1434,1163,0,0
217,-139,0,0,0,0,0,0,0,0,0,-1,1441,1163,0,0
224,-139,0,0,0,0,0,0,0,0,0,-1,1448,1163,0,0
231,-139,0,0,0,0,0,0,0,0,0,-1,1455,1163,0,0
238,-139,0,0,0,0,0,0,0,0,0,-1,1462,1163,0,0
245,-139,0,0,0,0,0,0,0,0,0,-1,1469,1163,0,0
252,-139,0,0,0,0,0,0,0,0,0,-1,1476,1163,0,0
259,-139,0,0,0,0,0,0,0,0,0,-1,1483,1163,0,0
266,-139,0,0,0,0,0,0,0,0,0,-1,1490,1163,0,0
273,-139,0,0,0,0,0,0,0,0,0,-1,1497,1163,0,0
280,-139,0,0,0,0,0,0,0,0,0,-1,1504,1163,0,0
287,-139,0,0,0,0,0,0,0,0,0,-1,1511,1163,0,0
294,-139,0,0,0,0,0,0,0,0,0,-1,1518,1163,0,0
301,-139,0,0,0,0,0,0,0,0,0,-1,1525,1163,0,0
308,-139,0,0,0,0,0,0,0,0,0,-1,1532,1163,0,0
315,-139,0,0,0,0,0,0,0,0,0,-1,1539,1163,0,0
322,-139,0,0,0,0,0,0,0,0,0,-1,1546,1163,0,0
329,-139,0,0,0,0,0,0,0,0,0,-1,1553,1163,0,0
336,-139,0,0,0,0,0,0,0,0,0,-1,1560,1163,0,0
343,-139,0,0,0,0,0,0,0,0,0,-1,1567,1163,0,0
350,-139,0,0,0,0,0,0,0,0,0,-1,1574,1163,0,0
357,-139,0,0,0,0,0,0,0,0,0,-1,1581,1163,0,0
364,-139,0,0,0,0,0,0,0,0,0,-1,1588,1163,0,0
371,-139,0,0,0,0,0,0,0,0,0,-1,1595,1163,0,0
378,-139,0,0,0,0,0,0,0,0,0,-1,1602,1163,0,0
385,-139,0,0,0,0,0,0,0,0,0,-1,1609,1163,0,0
392,-139,0,0,0,0,0,0,0,0,0,-1,1616,1163,0,0
399,-139,0,0,0,0,0,0,0,0,0,-1,1623,1163,0,0
406,-139,0,0,0,0,0,0,0,0,0,-1,1630,1163,0,0
413,-139,0,0,0,0,0,0,0,0,0,-1,1637,1163,0,0
420,-139,0,0,0,0,0,0,0,0,0,-1,1644,1163,0,0
427,-139,0,0,0,0,0,0,0,0,0,-1,1651,1163,0,0
434,-139,0,0,0,0,0,0,0,0,0,-1,1658,1163,0,0
441,-139,0,0,0,0,0,0,0,0,0,-1,1665,1163,0,0
448,-139,0,0,0,0,0,0,0,0,0,-1,1672,1163,0,0
455,-139,0,0,0,0,0,0,0,0,0,-1,1679,1163,0,0
462,-139,0,0,0,0,0,0,0,0,0,-1,1686,1163,0,0
469,-139,0,0,0,0,0,0,0,0,0,-1,1693,1163,0,0
476,-139,0,0,0,0,0,0,0,0,0,-1,1700,1163,0,0
483,-139,0,0,0,0,0,0,0,0,0,-1,1707,1163,0,0
490,-139,0,0,0,0,0,0,0,0,0,-1,1714,1163,0,0
497,-139,0,0,0,0,0,0,0,0,0,-1,1721,1163,0,0
504,-139,0,0,0,0,0,0,0,0,0,-1,1728,1163,0,0
511,-139,0,0,0,0,0,0,0,0,0,-1,1735,1163,0,0
518,-139,0,0,0,0,0,0,0,0,0,-1,1742,1163,0,0
525,-139,0,0,0,0,0,0,0,0,0,-1,1749,1163,0,0
532,-139,0,0,0,0,0,0,0,0,0,-1,1756,1163,0,0
539,-139,0,0,0,0,0,0,0,0,0,-1,1763,1163,0,0
546,-139,0,0,0,0,0,0,0,0,0,-1,1770,1163,0,0
553,-139,0,0,0,0,0,0,0,0,0,-1,1777,1163,0,0
560,-139,0,0,0,0,0,0,0,0,0,-1,1784,1163,0,0
567,-139,0,0,0,0,0,0,0,0,0,-1,1791,1163,0,0
574,-139,0,0,0,0,0,0,0,0,0,-1,1798,1163,0,0
581,-139,0,0,0,0,0,0,0,0,0,-1,1805,1163,0,0
588,-139,0,0,0,0,0,0,0,0,0,-1,1812,1163,0,0
595,-139,0,0,0,0,0,0,0,0,0,-1,1819,1163,0,0
602,-139,0,0,0,0,0,0,0,0,0,-1,1826,1163,0,0
609,-139,0,0,0,0,0,0,0,0,0,-1,1833,1163,0,0
616,-139,0,0,0,0,0,0,0,0,0,-1,1840,1163,0,0
623,-139,0,0,0,0,0,0,0,0,0,-1,1847,1163,0,0
630,-139,0,0,0,0,0,0,0,0,0,-1,1854,1163,0,0
637,-139,0,0,0,0,0,0,0,0,0,-1,1861,1163,0,0
644,-139,75.7268,2.14685,0.00606994,0.00113494,0.00155841,0.00652086,0.000684018,0.281656,0.00413812,0.0423679,1868,1163,75.7269,-2.14683
651,-139,75.701,2.33069,0.00435729,0.00103137,0.00125592,0.00477826,0.0006104,0.32342,0.00300279,0.0389437,1875,1163,75.701,-2.33063
658,-139,75.7662,2.39978,0.00308258,0.000889369,0.00108342,0.00352751,0.000444434,0.389676,0.00221842,0.0394669,1882,1163,75.7662,-2.39976
665,-139,75.7856,2.41174,0.00201006,0.00079149,0.000928035,0.00251095,0.000290606,0.49492,0.001586,0.0391636,1889,1163,75.7857,-2.41169
672,-139,75.7273,2.42725,0.00119699,0.000744439,0.000786354,0.00178898,0.000152454,0.645305,0.00114522,0.0371099,1896,1163,75.7273,-2.42719
679,-139,75.6877,2.422,0.00111786,0.000344262,0.00087314,0.00168604,-0.000223919,0.57689,0.00120562,0.0339958,1903,1163,75.6878,-2.422
686,-139,75.5616,2.44263,0.00195268,0.000343758,0.000735868,0.00223848,5.79627e-05,0.370448,0.00147338,0.0345573,1910,1163,75.5617,-2.44267
693,-139,75.6178,2.41919,0.00224458,0.000272218,0.000773133,0.00251151,5.28793e-06,0.332443,0.00167258,0.027194,1917,1163,75.6178,-2.41915
700,-139,75.7324,2.21423,0,0,0,0,0,0,0,-1,1924,1163,75.7325,-2.2142
707,-139,32.116,6.54346,0,0,0,0,0,0,0,-1,1931,1163,32.116,-6.54343
714,-139,62.1425,10.1428,0,0,0,0,0,0,0,-1,1938,1163,62.1424,-10.1428
721,-139,65.8013,9.82837,0,0,0,0,0,0,0,-1,1945,1163,65.8013,-9.82837
728,-139,66.4589,9.78003,0,0,0,0,0,0,0,-1,1952,1163,66.4589,-9.78002
735,-139,66.3989,9.13867,0.0028097,0.000689898,0.00175806,0.00380264,-0.000303042,0.51413,0.00264191,0.0365609,1959,1163,66.399,-9.13869
742,-139,66.4886,8.25098,0.00269251,0.000504478,0.00201695,0.00389305,-0.00069606,0.5369,0.0028558,0.0257039,1966,1163,66.4886,-8.25101
749,-139,66.4365,7.57837,0.00157516,0.00106681,0.00239845,0.00373286,-0.00109089,0.732608,0.00292092,0.0203728,1973,1163,66.4365,-7.57834
756,-139,66.3783,6.95789,0.000206826,0.00320941,0.0021988,0.00437056,-0.000954326,1.08493,0.00327845,0.0121121,1980,1163,66.3783,-6.95787
763,-139,66.3386,6.28625,-0.00061568,0.00671781,0.000937518,0.00683576,-0.000733635,1.44564,0.00482037,0.011741,1987,1163,66.3387,-6.28621
770,-139,66.3225,5.66138,-0.00102387,0.0109598,-0.00120476,0.0110798,-0.00114379,-1.47159,0.00779579,0.0136488,1994,1163,66.3224,-5.6614
777,-139,66.3447,5.05457,-0.000983726,0.0162595,-0.00464831,0.0174328,-0.00215695,-1.32356,0.0124035,0.0288735,2001,1163,66.3447,-5.05458
784,-139,66.438,4.79224,-0.000150706,0.0230005,-0.0100884,0.0267797,-0.00392989,-1.21237,0.0192969,0.0470805,2008,1163,66.438,-4.79223
791,-139,66.5889,4.45264,0,0,0,0,0,0,0,-1,2015,1163,66.5888,-4.45258
798,-139,70.0654,-0.484009,0,0,0,0,0,0,0,-1,2022,1163,70.0655,0.484029
805,-139,68.8499,-0.472412,0,0,0,0,0,0,0,-1,2029,1163,68.8498,0.472367
812,-139,0,0,0,0,0,0,0,0,0,-1,2036,1163,0,0
-700,-146,0,0,0,0,0,0,0,0,0,-1,524,1170,0,0
-693,-146,-51.506,-5.797,0,0,0,0,0,0,0,-1,531,1170,-51.506,5.79697
-686,-146,-51.814,-6.34314,0,0,0,0,0,0,0,-1,538,1170,-51.814,6.34313
-679,-146,-50.6996,-8.56714,0,0,0,0,0,0,0,-1,545,1170,-50.6996,8.56708
-672,-146,-51.073,-8.43994,0,0,0,0,0,0,0,-1,552,1170,-51.073,8.43999
-665,-146,-51.4464,-8.31287,0,0,0,0,0,0,0,-1,559,1170,-51.4464,8.3129
-658,-146,-49.8146,2.53906,0,0,0,0,0,0,0,-1,566,1170,-49.8146,-2.53911
-651,-146,-49.7078,3.14368,0.0157229,0.0111437,-0.00340589,0.0175372,0.00932938,-0.489473,0.010132,0.0492706,573,1170,-49.7078,-3.14372
-644,-146,-49.5801,3.77844,0.00981139,0.00870611,-0.00328503,0.0125899,0.00592756,-0.702063,0.00727293,0.0288556,580,1170,-49.5801,-3.77839
-637,-146,-49.6777,4.46191,0.00450949,0.00640331,-0.00327375,0.00886434,0.00204845,-0.926178,0.00535888,0.0136381,587,1170,-49.6777,-4.46187
-630,-146,-49.6979,5.17188,-0.000343169,0.00428147,-0.00347802,0.00614568,-0.00220738,-1.07877,0.00499813,0.0104069,594,1170,-49.6979,-5.17182
-623,-146,-49.7438,5.84802,-0.00479844,0.00233827,-0.00389458,0.00405204,-0.00651222,-1.15625,0.00615416,0.0130841,601,1170,-49.7438,-5.84799
-616,-146,-49.8287,6.54553,-0.00890826,0.000540502,-0.00447367,0.00232254,-0.0106903,-1.19172,0.00801402,0.0211965,608,1170,-49.8287,-6.54552
-609,-146,-49.9197,7.25171,0,0,0,0,0,0,0,-1,615,1170,-49.9197,-7.25174
-602,-146,-49.7178,7.99854,0,0,0,0,0,0,0,-1,622,1170,-49.7178,-7.99849
-595,-146,-49.8962,8.69519,0,0,0,0,0,0,0,-1,629,1170,-49.8963,-8.6952
-588,-146,-45.0034,7.81934,0,0,0,0,0,0,0,-1,636,1170,-45.0034,-7.81931
-581,-146,-31.7815,6.30347,0,0,0,0,0,0,0,-1,643,1170,-31.7815,-6.3035
-574,-146,-17.9915,3.79114,0,0,0,0,0,0,0,-1,650,1170,-17.9915,-3.79118
-567,-146,-44.4572,0.6604,0,0,0,0,0,0,0,-1,657,1170,-44.4572,-0.660404
-560,-146,-58.8579,0.302612,0,0,0,0,0,0,0,-1,664,1170,-58.8579,-0.302609
-553,-146,-58.8442,0.25293,0,0,0,0,0,0,0,-1,671,1170,-58.8443,-0.252904
-546,-146,-58.8473,0.128174,0,0,0,0,0,0,0,-1,678,1170,-58.8473,-0.128218
-539,-146,-58.9065,0.121826,0,0,0,0,0,0,0,-1,685,1170,-58.9065,-0.12184
-532,-146,-58.8795,0.328125,0,0,0,0,0,0,0,-1,692,1170,-58.8795,-0.328083
-525,-146,-58.9735,0.603882,0,0,0,0,0,0,0,-1,699,1170,-58.9735,-0.60392
-518,-146,0,0,0,0,0,0,0,0,0,-1,706,1170,0,0
-511,-146,0,0,0,0,0,0,0,0,0,-1,713,1170,0,0
-504,-146,0,0,0,0,0,0,0,0,0,-1,720,1170,0,0
-497,-146,0,0,0,0,0,0,0,0,0,-1,727,1170,0,0
-490,-146,0,0,0,0,0,0,0,0,0,-1,734,1170,0,0
-483,-146,0,0,0,0,0,0,0,0,0,-1,741,1170,0,0
-476,-146,0,0,0,0,0,0,0,0,0,-1,748,1170,0,0
-469,-146,0,0,0,0,0,0,0,0,0,-1,755,1170,0,0
-462,-146,0,0,0,0,0,0,0,0,0,-1,762,1170,0,0
-455,-146,0,0,0,0,0,0,0,0,0,-1,769,1170,0,0
-448,-146,0,0,0,0,0,0,0,0,0,-1,776,1170,0,0
-441,-146,0,0,0,0,0,0,0,0,0,-1,783,1170,0,0
-434,-146,0,0,0,0,0,0,0,0,0,-1,790,1170,0,0
-427,-146,0,0,0,0,0,0,0,0,0,-1,797,1170,0,0
-420,-146,0,0,0,0,0,0,0,0,0,-1,804,1170,0,0
-413,-146,0,0,0,0,0,0,0,0,0,-1,811,1170,0,0
-406,-146,0,0,0,0,0,0,0,0,0,-1,818,1170,0,0
-399,-146,0,0,0,0,0,0,0,0,0,-1,825,1170,0,0
-392,-146,0,0,0,0,0,0,0,0,0,-1,832,1170,0,0
-385,-146,0,0,0,0,0,0,0,0,0,-1,839,1170,0,0
-378,-146,0,0,0,0,0,0,0,0,0,-1,846,1170,0,0
-371,-146,0,0,0,0,0,0,0,0,0,-1,853,1170,0,0
-364,-146,0,0,0,0,0,0,0,0,0,-1,860,1170,0,0
-357,-146,0,0,0,0,0,0,0,0,0,-1,867,1170,0,0
-350,-146,0,0,0,0,0,0,0,0,0,-1,874,1170,0,0
-343,-146,0,0,0,0,0,0,0,0,0,-1,881,1170,0,0
-336,-146,0,0,0,0,0,0,0,0,0,-1,888,1170,0,0
-329,-146,0,0,0,0,0,0,0,0,0,-1,895,1170,0,0
-322,-146,0,0,0,0,0,0,0,0,0,-1,902,1170,0,0
-315,-146,0,0,0,0,0,0,0,0,0,-1,909,1170,0,0
-308,-146,0,0,0,0,0,0,0,0,0,-1,916,1170,0,0
-301,-146,0,0,0,0,0,0,0,0,0,-1,923,1170,0,0
-294,-146,0,0,0,0,0,0,0,0,0,-1,930,1170,0,0
-287,-146,0,0,0,0,0,0,0,0,0,-1,937,1170,0,0
-280,-146,0,0,0,0,0,0,0,0,0,-1,944,1170,0,0
-273,-146,0,0,0,0,0,0,0,0,0,-1,951,1170,0,0
-266,-146,0,0,0,0,0,0,0,0,0,-1,958,1170,0,0
-259,-146,0,0,0,0,0,0,0,0,0,-1,965,1170,0,0
-252,-146,0,0,0,0,0,0,0,0,0,-1,972,1170,0,0
-245,-146,0,0,0,0,0,0,0,0,0,-1,979,1170,0,0
-238,-146,0,0,0,0,0,0,0,0,0,-1,986,1170,0,0
-231,-146,0,0,0,0,0,0,0,0,0,-1,993,1170,0,0
-224,-146,0,0,0,0,0,0,0,0,0,-1,1000,1170,0,0
-217,-146,0,0,0,0,0,0,0,0,0,-1,1007,1170,0,0
-210,-146,0,0,0,0,0,0,0,0,0,-1,1014,1170,0,0
-203,-146,0,0,0,0,0,0,0,0,0,-1,1021,1170,0,0
-196,-146,0,0,0,0,0,0,0,0,0,-1,1028,1170,0,0
-189,-146,0,0,0,0,0,0,0,0,0,-1,1035,1170,0,0
-182,-146,0,0,0,0,0,0,0,0,0,-1,1042,1170,0,0
-175,-146,0,0,0,0,0,0,0,0,0,-1,1049,1170,0,0
-168,-146,0,0,0,0,0,0,0,0,0,-1,1056,1170,0,0
-161,-146,0,0,0,0,0,0,0,0,0,-1,1063,1170,0,0
-154,-146,0,0,0,0,0,0,0,0,0,-1,1070,1170,0,0
-147,-146,0,0,0,0,0,0,0,0,0,-1,1077,1170,0,0
-140,-146,0,0,0,0,0,0,0,0,0,-1,1084,1170,0,0
-133,-146,0,0,0,0,0,0,0,0,0,-1,1091,1170,0,0
-126,-146,0,0,0,0,0,0,0,0,0,-1,1098,1170,0,0
-119,-146,0,0,0,0,0,0,0,0,0,-1,1105,1170,0,0
-112,-146,0,0,0,0,0,0,0,0,0,-1,1112,1170,0,0
-105,-146,0,0,0,0,0,0,0,0,0,-1,1119,1170,0,0
-98,-146,0,0,0,0,0,0,0,0,0,-1,1126,1170,0,0
-91,-146,0,0,0,0,0,0,0,0,0,-1,1133,1170,0,0
-84,-146,0,0,0,0,0,0,0,0,0,-1,1140,1170,0,0
-77,-146,0,0,0,0,0,0,0,0,0,-1,1147,1170,0,0
-70,-146,0,0,0,0,0,0,0,0,0,-1,1154,1170,0,0
-63,-146,0,0,0,0,0,0,0,0,0,-1,1161,1170,0,0
-56,-146,0,0,0,0,0,0,0,0,0,-1,1168,1170,0,0
-49,-146,0,0,0,0,0,0,0,0,0,-1,1175,1170,0,0
-42,-146,0,0,0,0,0,0,0,0,0,-1,1182,1170,0,0
-35,-146,0,0,0,0,0,0,0,0,0,-1,1189,1170,0,0
-28,-146,0,0,0,0,0,0,0,0,0,-1,1196,1170,0,0
-21,-146,0,0,0,0,0,0,0,0,0,-1,1203,1170,0,0
-14,-146,0,0,0,0,0,0,0,0,0,-1,1210,1170,0,0
-7,-146,0,0,0,0,0,0,0,0,0,-1,1217,1170,0,0
0,-146,0,0,0,0,0,0,0,0,0,-1,1224,1170,0,0
7,-146,0,0,0,0,0,0,0,0,0,-1,1231,1170,0,0
14,-146,0,0,0,0,0,0,0,0,0,-1,1238,1170,0,0
21,-146,0,0,0,0,0,0,0,0,0,-1,1245,1170,0,0
28,-146,0,0,0,0,0,0,0,0,0,-1,1252,1170,0,0
35,-146,0,0,0,0,0,0,0,0,0,-1,1259,1170,0,0
42,-146,0,0,0,0,0,0,0,0,0,-1,1266,1170,0,0
49,-146,0,0,0,0,0,0,0,0,0,-1,1273,1170,0,0
56,-146,0,0,0,0,0,0,0,0,0,-1,1280,1170,0,0
63,-146,0,0,0,0,0,0,0,0,0,-1,1287,1170,0,0
70,-146,0,0,0,0,0,0,0,0,0,-1,1294,1170,0,0
77,-146,0,0,0,0,0,0,0,0,0,-1,1301,1170,0,0
84,-146,0,0,0,0,0,0,0,0,0,-1,1308,1170,0,0
91,-146,0,0,0,0,0,0,0,0,0,-1,1315,1170,0,0
98,-146,0,0,0,0,0,0,0,0,0,-1,1322,1170,0,0
105,-146,0,0,0,0,0,0,0,0,0,-1,1329,1170,0,0
112,-146,0,0,0,0,0,0,0,0,0,-1,1336,1170,0,0
119,-146,0,0,0,0,0,0,0,0,0,-1,1343,1170,0,0
126,-146,0,0,0,0,0,0,0,0,0,-1,1350,1170,0,0
133,-146,0,0,0,0,0,0,0,0,0,-1,1357,1170,0,0
140,-146,0,0,0,0,0,0,0,0,0,-1,1364,1170,0,0
147,-146,0,0,0,0,0,0,0,0,0,-1,1371,1170,0,0
154,-146,0,0,0,0,0,0,0,0,0,-1,1378,1170,0,0
161,-146,0,0,0,0,0,0,0,0,0,-1,1385,1170,0,0
168,-146,0,0,0,0,0,0,0,0,0,-1,1392,1170,0,0
175,-146,0,0,0,0,0,0,0,0,0,-1,1399,1170,0,0
182,-146,0,0,0,0,0,0,0,0,0,-1,1406,1170,0,0
189,-146,0,0,0,0,0,0,0,0,0,-1,1413,1170,0,0
196,-146,0,0,0,0,0,0,0,0,0,-1,1420,1170,0,0
203,-146,0,0,0,0,0,0,0,0,0,-1,1427,1170,0,0
210,-146,0,0,0,0,0,0,0,0,0,-1,1434,1170,0,0
217,-146,0,0,0,0,0,0,0,0,0,-1,1441,1170,0,0
224,-146,0,0,0,0,0,0,0,0,0,-1,1448,1170,0,0
231,-146,0,0,0,0,0,0,0,0,0,-1,1455,1170,0,0
238,-146,0,0,0,0,0,0,0,0,0,-1,1462,1170,0,0
245,-146,0,0,0,0,0,0,0,0,0,-1,1469,1170,0,0
252,-146,0,0,0,0,0,0,0,0,0,-1,1476,1170,0,0
259,-146,0,0,0,0,0,0,0,0,0,-1,1483,1170,0,0
266,-146,0,0,0,0,0,0,0,0,0,-1,1490,1170,0,0
273,-146,0,0,0,0,0,0,0,0,0,-1,1497,1170,0,0
280,-146,0,0,0,0,0,0,0,0,0,-1,1504,1170,0,0
287,-146,0,0,0,0,0,0,0,0,0,-1,1511,1170,0,0
294,-146,0,0,0,0,0,0,0,0,0,-1,1518,1170,0,0
301,-146,0,0,0,0,0,0,0,0,0,-1,1525,1170,0,0
308,-146,0,0,0,0,0,0,0,0,0,-1,1532,1170,0,0
315,-146,0,0,0,0,0,0,0,0,0,-1,1539,1170,0,0
322,-146,0,0,0,0,0,0,0,0,0,-1,1546,1170,0,0
329,-146,0,0,0,0,0,0,0,0,0,-1,1553,1170,0,0
336,-146,0,0,0,0,0,0,0,0,0,-1,1560,1170,0,0
343,-146,0,0,0,0,0,0,0,0,0,-1,1567,1170,0,0
350,-146,0,0,0,0,0,0,0,0,0,-1,1574,1170,0,0
357,-146,0,0,0,0,0,0,0,0,0,-1,1581,1170,0,0
364,-146,0,0,0,0,0,0,0,0,0,-1,1588,1170,0,0
371,-146,0,0,0,0,0,0,0,0,0,-1,1595,1170,0,0
378,-146,0,0,0,0,0,0,0,0,0,-1,1602,1170,0,0
385,-146,0,0,0,0,0,0,0,0,0,-1,1609,1170,0,0
392,-146,0,0,0,0,0,0,0,0,0,-1,1616,1170,0,0
399,-146,0,0,0,0,0,0,0,0,0,-1,1623,1170,0,0
406,-146,0,0,0,0,0,0,0,0,0,-1,1630,1170,0,0
413,-146,0,0,0,0,0,0,0,0,0,-1,1637,1170,0,0
420,-146,0,0,0,0,0,0,0,0,0,-1,1644,1170,0,0
427,-146,0,0,0,0,0,0,0,0,0,-1,1651,1170,0,0
434,-146,0,0,0,0,0,0,0,0,0,-1,1658,1170,0,0
441,-146,0,0,0,0,0,0,0,0,0,-1,1665,1170,0,0
448,-146,0,0,0,0,0,0,0,0,0,-1,1672,1170,0,0
455,-146,0,0,0,0,0,0,0,0,0,-1,1679,1170,0,0
462,-146,0,0,0,0,0,0,0,0,0,-1,1686,1170,0,0
469,-146,0,0,0,0,0,0,0,0,0,-1,1693,1170,0,0
476,-146,0,0,0,0,0,0,0,0,0,-1,1700,1170,0,0
483,-146,0,0,0,0,0,0,0,0,0,-1,1707,1170,0,0
490,-146,0,0,0,0,0,0,0,0,0,-1,1714,1170,0,0
497,-146,0,0,0,0,0,0,0,0,0,-1,1721,1170,0,0
504,-146,0,0,0,0,0,0,0,0,0,-1,1728,1170,0,0
511,-146,0,0,0,0,0,0,0,0,0,-1,1735,1170,0,0
518,-146,0,0,0,0,0,0,0,0,0,-1,1742,1170,0,0
525,-146,0,0,0,0,0,0,0,0,0,-1,1749,1170,0,0
532,-146,0,0,0,0,0,0,0,0,0,-1,1756,1170,0,0
539,-146,0,0,0,0,0,0,0,0,0,-1,1763,1170,0,0
546,-146,0,0,0,0,0,0,0,0,0,-1,1770,1170,0,0
553,-146,0,0,0,0,0,0,0,0,0,-1,1777,1170,0,0
560,-146,0,0,0,0,0,0,0,0,0,-1,1784,1170,0,0
567,-146,0,0,0,0,0,0,0,0,0,-1,1791,1170,0,0
574,-146,0,0,0,0,0,0,0,0,0,-1,1798,1170,0,0
581,-146,0,0,0,0,0,0,0,0,0,-1,1805,1170,0,0
588,-146,0,0,0,0,0,0,0,0,0,-1,1812,1170,0,0
595,-146,0,0,0,0,0,0,0,0,0,-1,1819,1170,0,0
602,-146,0,0,0,0,0,0,0,0,0,-1,1826,1170,0,0
609,-146,0,0,0,0,0,0,0,0,0,-1,1833,1170,0,0
616,-146,0,0,0,0,0,0,0,0,0,-1,1840,1170,0,0
623,-146,0,0,0,0,0,0,0,0,0,-1,1847,1170,0,0
630,-146,0,0,0,0,0,0,0,0,0,-1,1854,1170,0,0
637,-146,75.7145,2.2262,0.00673743,0.00189113,0.00278469,0.00800564,0.000622917,0.427355,0.00514205,0.0407747,1861,1170,75.7145,-2.22623
644,-146,75.6537,2.2179,0.00515077,0.00155755,0.00227025,0.0062493,0.000459019,0.450671,0.00402194,0.0412005,1868,1170,75.6537,-2.21794
651,-146,75.6309,2.3512,0.00377961,0.00140942,0.00176385,0.00471951,0.00046952,0.489597,0.0030021,0.0374511,1875,1170,75.6309,-2.35123
658,-146,75.746,2.35071,0.00272734,0.00124016,0.00135126,0.0035261,0.0004414,0.533864,0.00221829,0.0383063,1882,1170,75.746,-2.35068
665,-146,75.7971,2.41931,0.00183931,0.00112764,0.000952397,0.00250017,0.000466776,0.606619,0.00153503,0.0383575,1889,1170,75.7971,-2.41927
672,-146,75.7797,2.50049,0.00117911,0.00108284,0.000570315,0.00170332,0.000558634,0.743298,0.00100263,0.0369199,1896,1170,75.7797,-2.50045
679,-146,75.7037,2.42297,0.00121321,0.00071515,0.000448732,0.00147738,0.000450978,0.532076,0.000874266,0.0304831,1903,1170,75.7037,-2.42303
686,-146,75.572,2.35364,0.00215701,0.000803802,0.000271791,0.00220956,0.000751253,0.190985,0.00129728,0.0252768,1910,1170,75.5721,-2.35363
693,-146,75.6643,2.2887,0.0023995,0.000751905,0.000402513,0.00249258,0.000658828,0.227245,0.00149143,0.0232325,1917,1170,75.6644,-2.28868
700,-146,75.7854,2.06079,0,0,0,0,0,0,0,-1,1924,1170,75.7854,-2.06085
707,-146,29.9441,6.94653,0,0,0,0,0,0,0,-1,1931,1170,29.9441,-6.94652
714,-146,31.325,6.13245,0,0,0,0,0,0,0,-1,1938,1170,31.325,-6.1325
721,-146,61.3608,9.47766,0,0,0,0,0,0,0,-1,1945,1170,61.3608,-9.47767
728,-146,65.7382,9.26538,0,0,0,0,0,0,0,-1,1952,1170,65.7382,-9.26537
735,-146,65.7369,8.96875,0.00290458,0.000942537,0.00146522,0.00368688,0.000160242,0.490405,0.00240628,0.0412761,1959,1170,65.737,-8.9687
742,-146,65.8749,8.224,0.00271896,0.000689263,0.0018577,0.00382094,-0.000412714,0.535401,0.00269542,0.018968,1966,1170,65.8748,-8.22398
749,-146,65.7365,7.63318,0.00159274,0.00109503,0.00230316,0.00366045,-0.000972674,0.731582,0.00282099,0.0174813,1973,1170,65.7364,-7.63318
756,-146,65.6924,6.97595,0.000476928,0.00280967,0.00217025,0.00410712,-0.000820518,1.03197,0.00304862,0.0137439,1980,1170,65.6924,-6.97595
763,-146,65.6323,6.30457,-2.88028e-06,0.00554831,0.00104197,0.00573744,-0.000192015,1.39123,0.00389055,0.012016,1987,1170,65.6324,-6.30462
770,-146,65.5859,5.64551,-2.20545e-05,0.00879602,-0.000939778,0.00889506,-0.000121098,-1.46579,0.00597082,0.0139283,1994,1170,65.5859,-5.64547
777,-146,65.6536,5.14636,0.000440613,0.012858,-0.00419064,0.0141399,-0.000841312,-1.27393,0.00971918,0.0263147,2001,1170,65.6535,-5.14639
784,-146,65.7368,4.77161,0.00177868,0.0179359,-0.00940745,0.0222575,-0.00254287,-1.14017,0.0157545,0.0443215,2008,1170,65.7367,-4.77166
791,-146,65.8933,4.34534,0,0,0,0,0,0,0,-1,2015,1170,65.8933,-4.34538
798,-146,70.0037,-0.377808,0,0,0,0,0,0,0,-1,2022,1170,70.0036,0.37786
805,-146,68.4302,-0.727295,0,0,0,0,0,0,0,-1,2029,1170,68.4301,0.727262
812,-146,0,0,0,0,0,0,0,0,0,-1,2036,1170,0,0
-700,-153,0,0,0,0,0,0,0,0,0,-1,524,1177,0,0
-693,-153,0,0,0,0,0,0,0,0,0,-1,531,1177,0,0
-686,-153,-51.7202,-7.58618,0,0,0,0,0,0,0,-1,538,1177,-51.7202,7.58622
-679,-153,-55.2467,1.08948,0,0,0,0,0,0,0,-1,545,1177,-55.2467,-1.08953
-672,-153,-50.6904,-9.79541,0,0,0,0,0,0,0,-1,552,1177,-50.6904,9.7954
-665,-153,-51.1077,-9.62549,0,0,0,0,0,0,0,-1,559,1177,-51.1077,9.62547
-658,-153,-48.7336,2.39307,0,0,0,0,0,0,0,-1,566,1177,-48.7336,-2.3931
-651,-153,-48.8369,3.02966,0.0184436,0.0116777,-0.003048,0.0196142,0.0105071,-0.36668,0.0113339,0.0489625,573,1177,-48.8369,-3.02972
-644,-153,-48.8279,3.73413,0.0121848,0.00898469,-0.00287632,0.0138762,0.00729334,-0.53157,0.0080149,0.0302545,580,1177,-48.8279,-3.73414
-637,-153,-48.9308,4.48193,0.0063741,0.00652717,-0.00292471,0.00937635,0.00352493,-0.79848,0.0054687,0.0131905,587,1177,-48.9308,-4.48188
-630,-153,-48.9792,5.1908,0.00112926,0.00433343,-0.00330787,0.00640675,-0.000944071,-1.01091,0.00461814,0.010326,594,1177,-48.9793,-5.19074
-623,-153,-49.0267,5.90442,-0.00363839,0.00236747,-0.0040275,0.00438832,-0.00565924,-1.10574,0.00581641,0.0116196,601,1177,-49.0267,-5.90443
-616,-153,-49.1011,6.57068,-0.00804926,0.000570288,-0.00500377,0.00286445,-0.0103434,-1.14091,0.00802273,0.0153568,608,1177,-49.101,-6.57068
-609,-153,-49.2208,7.18079,-0.012141,-0.00107175,-0.0062259,0.00172392,-0.0149367,-1.14874,0.0105794,0.0477291,615,1177,-49.2208,-7.18084
-602,-153,-49.2747,7.49878,0,0,0,0,0,0,0,-1,622,1177,-49.2747,-7.49872
-595,-153,-43.9551,7.35718,0,0,0,0,0,0,0,-1,629,1177,-43.9551,-7.35722
-588,-153,-32.348,5.51038,0,0,0,0,0,0,0,-1,636,1177,-32.348,-5.51034
-581,-153,-33.4568,6.41492,0,0,0,0,0,0,0,-1,643,1177,-33.4568,-6.41497
-574,-153,-25.4814,5.16956,0,0,0,0,0,0,0,-1,650,1177,-25.4814,-5.16961
-567,-153,-35.3121,1.09485,0,0,0,0,0,0,0,-1,657,1177,-35.3121,-1.09482
-560,-153,-58.7393,0.153931,0,0,0,0,0,0,0,-1,664,1177,-58.7393,-0.15395
-553,-153,-58.8057,0.187988,0,0,0,0,0,0,0,-1,671,1177,-58.8057,-0.187992
-546,-153,-58.9394,0.278931,0,0,0,0,0,0,0,-1,678,1177,-58.9394,-0.278879
-539,-153,-59.0178,0.252197,0,0,0,0,0,0,0,-1,685,1177,-59.0178,-0.252174
-532,-153,-59.0023,0.499878,0,0,0,0,0,0,0,-1,692,1177,-59.0023,-0.499912
-525,-153,-58.8645,0.842285,0,0,0,0,0,0,0,-1,699,1177,-58.8645,-0.842244
-518,-153,0,0,0,0,0,0,0,0,0,-1,706,1177,0,0
-511,-153,0,0,0,0,0,0,0,0,0,-1,713,1177,0,0
-504,-153,0,0,0,0,0,0,0,0,0,-1,720,1177,0,0
-497,-153,0,0,0,0,0,0,0,0,0,-1,727,1177,0,0
-490,-153,0,0,0,0,0,0,0,0,0,-1,734,1177,0,0
-483,-153,0,0,0,0,0,0,0,0,0,-1,741,1177,0,0
-476,-153,0,0,0,0,0,0,0,0,0,-1,748,1177,0,0
-469,-153,0,0,0,0,0,0,0,0,0,-1,755,1177,0,0
-462,-153,0,0,0,0,0,0,0,0,0,-1,762,1177,0,0
-455,-153,0,0,0,0,0,0,0,0,0,-1,769,1177,0,0
-448,-153,0,0,0,0,0,0,0,0,0,-1,776,1177,0,0
-441,-153,0,0,0,0,0,0,0,0,0,-1,783,1177,0,0
-434,-153,0,0,0,0,0,0,0,0,0,-1,790,1177,0,0
-427,-153,0,0,0,0,0,0,0,0,0,-1,797,1177,0,0
-420,-153,0,0,0,0,0,0,0,0,0,-1,804,1177,0,0
-413,-153,0,0,0,0,0,0,0,0,0,-1,811,1177,0,0
-406,-153,0,0,0,0,0,0,0,0,0,-1,818,1177,0,0
-399,-153,0,0,0,0,0,0,0,0,0,-1,825,1177,0,0
-392,-153,0,0,0,0,0,0,0,0,0,-1,832,1177,0,0
-385,-153,0,0,0,0,0,0,0,0,0,-1,839,1177,0,0
-378,-153,0,0,0,0,0,0,0,0,0,-1,846,1177,0,0
-371,-153,0,0,0,0,0,0,0,0,0,-1,853,1177,0,0
-364,-153,0,0,0,0,0,0,0,0,0,-1,860,1177,0,0
-357,-153,0,0,0,0,0,0,0,0,0,-1,867,1177,0,0
-350,-153,0,0,0,0,0,0,0,0,0,-1,874,1177,0,0
-343,-153,0,0,0,0,0,0,0,0,0,-1,881,1177,0,0
-336,-153,0,0,0,0,0,0,0,0,0,-1,888,1177,0,0
-329,-153,0,0,0,0,0,0,0,0,0,-1,895,1177,0,0
-322,-153,0,0,0,0,0,0,0,0,0,-1,902,1177,0,0
-315,-153,0,0,0,0,0,0,0,0,0,-1,909,1177,0,0
-308,-153,0,0,0,0,0,0,0,0,0,-1,916,1177,0,0
-301,-153,0,0,0,0,0,0,0,0,0,-1,923,1177,0,0
-294,-153,0,0,0,0,0,0,0,0,0,-1,930,1177,0,0
-287,-153,0,0,0,0,0,0,0,0,0,-1,937,1177,0,0
-280,-153,0,0,0,0,0,0,0,0,0,-1,944,1177,0,0
-273,-153,0,0,0,0,0,0,0,0,0,-1,951,1177,0,0
-266,-153,0,0,0,0,0,0,0,0,0,-1,958,1177,0,0
-259,-153,0,0,0,0,0,0,0,0,0,-1,965,1177,0,0
-252,-153,0,0,0,0,0,0,0,0,0,-1,972,1177,0,0
-245,-153,0,0,0,0,0,0,0,0,0,-1,979,1177,0,0
-238,-153,0,0,0,0,0,0,0,0,0,-1,986,1177,0,0
-231,-153,0,0,0,0,0,0,0,0,0,-1,993,1177,0,0
-224,-153,0,0,0,0,0,0,0,0,0,-1,1000,1177,0,0
-217,-153,0,0,0,0,0,0,0,0,0,-1,1007,1177,0,0
-210,-153,0,0,0,0,0,0,0,0,0,-1,1014,1177,0,0
-203,-153,0,0,0,0,0,0,0,0,0,-1,1021,1177,0,0
-196,-153,0,0,0,0,0,0,0,0,0,-1,1028,1177,0,0
-189,-153,0,0,0,0,0,0,0,0,0,-1,1035,1177,0,0
-182,-153,0,0,0,0,0,0,0,0,0,-1,1042,1177,0,0
-175,-153,0,0,0,0,0,0,0,0,0,-1,1049,1177,0,0
-168,-153,0,0,0,0,0,0,0,0,0,-1,1056,1177,0,0
-161,-153,0,0,0,0,0,0,0,0,0,-1,1063,1177,0,0
-154,-153,0,0,0,0,0,0,0,0,0,-1,1070,1177,0,0
-147,-153,0,0,0,0,0,0,0,0,0,-1,1077,1177,0,0
-140,-153,0,0,0,0,0,0,0,0,0,-1,1084,1177,0,0
-133,-153,0,0,0,0,0,0,0,0,0,-1,1091,1177,0,0
-126,-153,0,0,0,0,0,0,0,0,0,-1,1098,1177,0,0
-119,-153,0,0,0,0,0,0,0,0,0,-1,1105,1177,0,0
-112,-153,0,0,0,0,0,0,0,0,0,-1,1112,1177,0,0
-105,-153,0,0,0,0,0,0,0,0,0,-1,1119,1177,0,0
-98,-153,0,0,0,0,0,0,0,0,0,-1,1126,1177,0,0
-91,-153,0,0,0,0,0,0,0,0,0,-1,1133,1177,0,0
-84,-153,0,0,0,0,0,0,0,0,0,-1,1140,1177,0,0
-77,-153,0,0,0,0,0,0,0,0,0,-1,1147,1177,0,0
-70,-153,0,0,0,0,0,0,0,0,0,-1,1154,1177,0,0
-63,-153,0,0,0,0,0,0,0,0,0,-1,1161,1177,0,0
-56,-153,0,0,0,0,0,0,0,0,0,-1,1168,1177,0,0
-49,-153,0,0,0,0,0,0,0,0,0,-1,1175,1177,0,0
-42,-153,0,0,0,0,0,0,0,0,0,-1,1182,1177,0,0
-35,-153,0,0,0,0,0,0,0,0,0,-1,1189,1177,0,0
-28,-153,0,0,0,0,0,0,0,0,0,-1,1196,1177,0,0
-21,-153,0,0,0,0,0,0,0,0,0,-1,1203,1177,0,0
-14,-153,0,0,0,0,0,0,0,0,0,-1,1210,1177,0,0
-7,-153,0,0,0,0,0,0,0,0,0,-1,1217,1177,0,0
0,-153,0,0,0,0,0,0,0,0,0,-1,1224,1177,0,0
7,-153,0,0,0,0,0,0,0,0,0,-1,1231,1177,0,0
14,-153,0,0,0,0,0,0,0,0,0,-1,1238,1177,0,0
21,-153,0,0,0,0,0,0,0,0,0,-1,1245,1177,0,0
28,-153,0,0,0,0,0,0,0,0,0,-1,1252,1177,0,0
35,-153,0,0,0,0,0,0,0,0,0,-1,1259,1177,0,0
42,-153,0,0,0,0,0,0,0,0,0,-1,1266,1177,0,0
49,-153,0,0,0,0,0,0,0,0,0,-1,1273,1177,0,0
56,-153,0,0,0,0,0,0,0,0,0,-1,1280,1177,0,0
63,-153,0,0,0,0,0,0,0,0,0,-1,1287,1177,0,0
70,-153,0,0,0,0,0,0,0,0,0,-1,1294,1177,0,0
77,-153,0,0,0,0,0,0,0,0,0,-1,1301,1177,0,0
84,-153,0,0,0,0,0,0,0,0,0,-1,1308,1177,0,0
91,-153,0,0,0,0,0,0,0,0,0,-1,1315,1177,0,0
98,-153,0,0,0,0,0,0,0,0,0,-1,1322,1177,0,0
105,-153,0,0,0,0,0,0,0,0,0,-1,1329,1177,0,0
112,-153,0,0,0,0,0,0,0,0,0,-1,1336,1177,0,0
119,-153,0,0,0,0,0,0,0,0,0,-1,1343,1177,0,0
126,-153,0,0,0,0,0,0,0,0,0,-1,1350,1177,0,0
133,-153,0,0,0,0,0,0,0,0,0,-1,1357,1177,0,0
140,-153,0,0,0,0,0,0,0,0,0,-1,1364,1177,0,0
147,-153,0,0,0,0,0,0,0,0,0,-1,1371,1177,0,0
154,-153,0,0,0,0,0,0,0,0,0,-1,1378,1177,0,0
161,-153,0,0,0,0,0,0,0,0,0,-1,1385,1177,0,0
168,-153,0,0,0,0,0,0,0,0,0,-1,1392,1177,0,0
175,-153,0,0,0,0,0,0,0,0,0,-1,1399,1177,0,0
182,-153,0,0,0,0,0,0,0,0,0,-1,1406,1177,0,0
189,-153,0,0,0,0,0,0,0,0,0,-1,1413,1177,0,0
196,-153,0,0,0,0,0,0,0,0,0,-1,1420,1177,0,0
203,-153,0,0,0,0,0,0,0,0,0,-1,1427,1177,0,0
210,-153,0,0,0,0,0,0,0,0,0,-1,1434,1177,0,0
217,-153,0,0,0,0,0,0,0,0,0,-1,1441,1177,0,0
224,-153,0,0,0,0,0,0,0,0,0,-1,1448,1177,0,0
231,-153,0,0,0,0,0,0,0,0,0,-1,1455,1177,0,0
238,-153,0,0,0,0,0,0,0,0,0,-1,1462,1177,0,0
245,-153,0,0,0,0,0,0,0,0,0,-1,1469,1177,0,0
252,-153,0,0,0,0,0,0,0,0,0,-1,1476,1177,0,0
259,-153,0,0,0,0,0,0,0,0,0,-1,1483,1177,0,0
266,-153,0,0,0,0,0,0,0,0,0,-1,1490,1177,0,0
273,-153,0,0,0,0,0,0,0,0,0,-1,1497,1177,0,0
280,-153,0,0,0,0,0,0,0,0,0,-1,1504,1177,0,0
287,-153,0,0,0,0,0,0,0,0,0,-1,1511,1177,0,0
294,-153,0,0,0,0,0,0,0,0,0,-1,1518,1177,0,0
301,-153,0,0,0,0,0,0,0,0,0,-1,1525,1177,0,0
308,-153,0,0,0,0,0,0,0,0,0,-1,1532,1177,0,0
315,-153,0,0,0,0,0,0,0,0,0,-1,1539,1177,0,0
322,-153,0,0,0,0,0,0,0,0,0,-1,1546,1177,0,0
329,-153,0,0,0,0,0,0,0,0,0,-1,1553,1177,0,0
336,-153,0,0,0,0,0,0,0,0,0,-1,1560,1177,0,0
343,-153,0,0,0,0,0,0,0,0,0,-1,1567,1177,0,0
350,-153,0,0,0,0,0,0,0,0,0,-1,1574,1177,0,0
357,-153,0,0,0,0,0,0,0,0,0,-1,1581,1177,0,0
364,-153,0,0,0,0,0,0,0,0,0,-1,1588,1177,0,0
371,-153,0,0,0,0,0,0,0,0,0,-1,1595,1177,0,0
378,-153,0,0,0,0,0,0,0,0,0,-1,1602,1177,0,0
385,-153,0,0,0,0,0,0,0,0,0,-1,1609,1177,0,0
392,-153,0,0,0,0,0,0,0,0,0,-1,1616,1177,0,0
399,-153,0,0,0,0,0,0,0,0,0,-1,1623,1177,0,0
406,-153,0,0,0,0,0,0,0,0,0,-1,1630,1177,0,0
413,-153,0,0,0,0,0,0,0,0,0,-1,1637,1177,0,0
420,-153,0,0,0,0,0,0,0,0,0,-1,1644,1177,0,0
427,-153,0,0,0,0,0,0,0,0,0,-1,1651,1177,0,0
434,-153,0,0,0,0,0,0,0,0,0,-1,1658,1177,0,0
441,-153,0,0,0,0,0,0,0,0,0,-1,1665,1177,0,0
448,-153,0,0,0,0,0,0,0,0,0,-1,1672,1177,0,0
455,-153,0,0,0,0,0,0,0,0,0,-1,1679,1177,0,0
462,-153,0,0,0,0,0,0,0,0,0,-1,1686,1177,0,0
469,-153,0,0,0,0,0,0,0,0,0,-1,1693,1177,0,0
476,-153,0,0,0,0,0,0,0,0,0,-1,1700,1177,0,0
483,-153,0,0,0,0,0,0,0,0,0,-1,1707,1177,0,0
490,-153,0,0,0,0,0,0,0,0,0,-1,1714,1177,0,0
497,-153,0,0,0,0,0,0,0,0,0,-1,1721,1177,0,0
504,-153,0,0,0,0,0,0,0,0,0,-1,1728,1177,0,0
511,-153,0,0,0,0,0,0,0,0,0,-1,1735,1177,0,0
518,-153,0,0,0,0,0,0,0,0,0,-1,1742,1177,0,0
525,-153,0,0,0,0,0,0,0,0,0,-1,1749,1177,0,0
532,-153,0,0,0,0,0,0,0,0,0,-1,1756,1177,0,0
539,-153,0,0,0,0,0,0,0,0,0,-1,1763,1177,0,0
546,-153,0,0,0,0,0,0,0,0,0,-1,1770,1177,0,0
553,-153,0,0,0,0,0,0,0,0,0,-1,1777,1177,0,0
560,-153,0,0,0,0,0,0,0,0,0,-1,1784,1177,0,0
567,-153,0,0,0,0,0,0,0,0,0,-1,1791,1177,0,0
574,-153,0,0,0,0,0,0,0,0,0,-1,1798,1177,0,0
581,-153,0,0,0,0,0,0,0,0,0,-1,1805,1177,0,0
588,-153,0,0,0,0,0,0,0,0,0,-1,1812,1177,0,0
595,-153,0,0,0,0,0,0,0,0,0,-1,1819,1177,0,0
602,-153,0,0,0,0,0,0,0,0,0,-1,1826,1177,0,0
609,-153,0,0,0,0,0,0,0,0,0,-1,1833,1177,0,0
616,-153,0,0,0,0,0,0,0,0,0,-1,1840,1177,0,0
623,-153,0,0,0,0,0,0,0,0,0,-1,1847,1177,0,0
630,-153,0,0,0,0,0,0,0,0,0,-1,1854,1177,0,0
637,-153,75.6307,2.36121,0.00573002,0.00234148,0.0035516,0.00797077,0.000100732,0.562841,0.00528059,0.0378911,1861,1177,75.6308,-2.36119
644,-153,75.6062,2.32996,0.00444786,0.00195675,0.00283139,0.00629555,0.000109061,0.578183,0.00416116,0.0370447,1868,1177,75.6061,-2.33001
651,-153,75.6731,2.29712,0.00333948,0.00173248,0.00211539,0.00479883,0.000273131,0.603896,0.00311217,0.0311108,1875,1177,75.6731,-2.29716
658,-153,75.7555,2.2644,0.00246741,0.00150391,0.00145941,0.00352253,0.000448785,0.62598,0.00221397,0.0366926,1882,1177,75.7555,-2.26441
665,-153,75.7838,2.33972,0.00171146,0.00132524,0.000860296,0.00240005,0.000636647,0.674995,0.00143567,0.0392445,1889,1177,75.7838,-2.33973
672,-153,75.7054,2.44727,0.00115481,0.00129809,0.000312608,0.00154716,0.000905737,0.898043,0.000897589,0.0361911,1896,1177,75.7055,-2.44729
679,-153,75.6061,2.38892,0.00120613,0.00100524,6.0652e-05,0.00122302,0.000988352,0.271617,0.000749474,0.0286726,1903,1177,75.6061,-2.38891
686,-153,75.6207,2.3573,0.00213677,0.00118753,-7.77498e-05,0.0021431,0.0011812,-0.0811861,0.00123948,0.0198294,1910,1177,75.6208,-2.3573
693,-153,75.7117,2.30786,0,0,0,0,0,0,0,-1,1917,1177,75.7117,-2.30785
700,-153,74.8911,2.25464,0,0,0,0,0,0,0,-1,1924,1177,74.8911,-2.25461
707,-153,29.6483,6.6842,0,0,0,0,0,0,0,-1,1931,1177,29.6483,-6.68415
714,-153,36.0046,6.78418,0,0,0,0,0,0,0,-1,1938,1177,36.0046,-6.78418
721,-153,36.4866,6.47595,0,0,0,0,0,0,0,-1,1945,1177,36.4866,-6.47593
728,-153,47.7305,7.37024,0,0,0,0,0,0,0,-1,1952,1177,47.7304,-7.37022
735,-153,64.9691,8.93262,0,0,0,0,0,0,0,-1,1959,1177,64.9691,-8.9326
742,-153,65.0519,8.36279,0.00271639,0.00111043,0.00175709,0.00384528,-1.84629e-05,0.571072,0.0025697,0.0186115,1966,1177,65.0519,-8.36277
749,-153,65.0498,7.72986,0.00172688,0.00145117,0.0021431,0.00373656,-0.000558508,0.753279,0.00269656,0.0183358,1973,1177,65.0498,-7.72985
756,-153,65.0034,7.01587,0.000809279,0.00255156,0.00211496,0.00396776,-0.000606925,0.980757,0.00286896,0.0128971,1980,1177,65.0034,-7.0159
763,-153,64.9395,6.32568,0.000465975,0.00424806,0.00126,0.00462938,8.46535e-05,1.27692,0.00305843,0.0123566,1987,1177,64.9394,-6.32568
770,-153,64.9233,5.65002,0.000541348,0.00615785,-0.000342129,0.00617861,0.000520584,-1.51018,0.00395698,0.013487,1994,1177,64.9233,-5.65002
777,-153,64.9207,5.07312,0.00110559,0.00858095,-0.0031467,0.00972916,-4.26285e-05,-1.22091,0.00650037,0.0265202,2001,1177,64.9206,-5.0731
784,-153,65.1313,4.6333,0.00259606,0.0114842,-0.0078168,0.0160319,-0.00195164,-1.04388,0.0113944,0.0456935,2008,1177,65.1313,-4.63333
791,-153,65.3096,4.17053,0.00553804,0.016075,-0.0157838,0.0274464,-0.00583332,-0.94648,0.0205203,0.0458504,2015,1177,65.3096,-4.17054
798,-153,65.4863,3.58582,0,0,0,0,0,0,0,-1,2022,1177,65.4863,-3.58581
805,-153,67.98,-1.20923,0,0,0,0,0,0,0,-1,2029,1177,67.98,1.20924
812,-153,0,0,0,0,0,0,0,0,0,-1,2036,1177,0,0
-700,-160,0,0,0,0,0,0,0,0,0,-1,524,1184,0,0
-693,-160,0,0,0,0,0,0,0,0,0,-1,531,1184,0,0
-686,-160,-54.5205,0.0592041,0,0,0,0,0,0,0,-1,538,1184,-54.5205,-0.0591629
-679,-160,-53.741,0.659424,0,0,0,0,0,0,0,-1,545,1184,-53.741,-0.659401
-672,-160,-52.9218,1.15894,0,0,0,0,0,0,0,-1,552,1184,-52.9218,-1.15889
-665,-160,-50.6805,-10.8661,0,0,0,0,0,0,0,-1,559,1184,-50.6805,10.8661
-658,-160,-51.0252,-10.7241,0,0,0,0,0,0,0,-1,566,1184,-51.0252,10.7241
-651,-160,-47.9656,2.99097,0,0,0,0,0,0,0,-1,573,1184,-47.9657,-2.99092
-644,-160,-48.0289,3.73755,0.0136938,0.00830804,-0.00190681,0.0143006,0.00770129,-0.308068,0.0082646,0.0407956,580,1184,-48.0289,-3.73754
-637,-160,-48.1741,4.48328,0.00783615,0.00605461,-0.00215583,0.00927799,0.00461276,-0.589485,0.00535668,0.0167327,587,1184,-48.1741,-4.48325
-630,-160,-48.2575,5.17285,0.00269764,0.00407202,-0.00271437,0.00618483,0.000584831,-0.909377,0.00394276,0.00938564,594,1184,-48.2575,-5.17281
-623,-160,-48.3167,5.89221,-0.00182299,0.00227867,-0.00362144,0.00438965,-0.00393398,-1.04303,0.00480805,0.0139237,601,1184,-48.3166,-5.89224
-616,-160,-48.3723,6.62061,-0.00590638,0.000609509,-0.00477347,0.00313085,-0.00842772,-1.08484,0.00690297,0.0124297,608,1184,-48.3723,-6.62065
-609,-160,-48.5443,7.30054,-0.00959504,-0.000958633,-0.00616814,0.00225263,-0.0128063,-1.09079,0.00937902,0.0268319,615,1184,-48.5443,-7.30055
-602,-160,-48.8898,7.93372,0,0,0,0,0,0,0,-1,622,1184,-48.8898,-7.93367
-595,-160,-33.0669,5.93445,0,0,0,0,0,0,0,-1,629,1184,-33.0669,-5.93446
-588,-160,-33.4845,5.66699,0,0,0,0,0,0,0,-1,636,1184,-33.4845,-5.66697
-581,-160,-33.1338,6.41174,0,0,0,0,0,0,0,-1,643,1184,-33.1338,-6.41176
-574,-160,-32.7831,7.15649,0,0,0,0,0,0,0,-1,650,1184,-32.7831,-7.15655
-567,-160,-29.5828,0.643921,0,0,0,0,0,0,0,-1,657,1184,-29.5828,-0.643968
-560,-160,-57.0784,0.200806,0,0,0,0,0,0,0,-1,664,1184,-57.0784,-0.200768
-553,-160,-58.7407,0.182007,0,0,0,0,0,0,0,-1,671,1184,-58.7407,-0.182
-546,-160,-58.8588,0.352417,0,0,0,0,0,0,0,-1,678,1184,-58.8588,-0.35241
-539,-160,-59.0669,0.46875,0,0,0,0,0,0,0,-1,685,1184,-59.0669,-0.468749
-532,-160,-59.1463,0.694214,0,0,0,0,0,0,0,-1,692,1184,-59.1463,-0.694231
-525,-160,-58.8956,0.867432,0,0,0,0,0,0,0,-1,699,1184,-58.8956,-0.867452
-518,-160,-58.7995,0.39978,0,0,0,0,0,0,0,-1,706,1184,-58.7995,-0.399745
-511,-160,0,0,0,0,0,0,0,0,0,-1,713,1184,0,0
-504,-160,0,0,0,0,0,0,0,0,0,-1,720,1184,0,0
-497,-160,0,0,0,0,0,0,0,0,0,-1,727,1184,0,0
-490,-160,0,0,0,0,0,0,0,0,0,-1,734,1184,0,0
-483,-160,0,0,0,0,0,0,0,0,0,-1,741,1184,0,0
-476,-160,0,0,0,0,0,0,0,0,0,-1,748,1184,0,0
-469,-160,0,0,0,0,0,0,0,0,0,-1,755,1184,0,0
-462,-160,0,0,0,0,0,0,0,0,0,-1,762,1184,0,0
-455,-160,0,0,0,0,0,0,0,0,0,-1,769,1184,0,0
-448,-160,0,0,0,0,0,0,0,0,0,-1,776,1184,0,0
-441,-160,0,0,0,0,0,0,0,0,0,-1,783,1184,0,0
-434,-160,0,0,0,0,0,0,0,0,0,-1,790,1184,0,0
-427,-160,0,0,0,0,0,0,0,0,0,-1,797,1184,0,0
-420,-160,0,0,0,0,0,0,0,0,0,-1,804,1184,0,0
-413,-160,0,0,0,0,0,0,0,0,0,-1,811,1184,0,0
-406,-160,0,0,0,0,0,0,0,0,0,-1,818,1184,0,0
-399,-160,0,0,0,0,0,0,0,0,0,-1,825,1184,0,0
-392,-160,0,0,0,0,0,0,0,0,0,-1,832,1184,0,0
-385,-160,0,0,0,0,0,0,0,0,0,-1,839,1184,0,0
-378,-160,0,0,0,0,0,0,0,0,0,-1,846,1184,0,0
-371,-160,0,0,0,0,0,0,0,0,0,-1,853,1184,0,0
-364,-160,0,0,0,0,0,0,0,0,0,-1,860,1184,0,0
-357,-160,0,0,0,0,0,0,0,0,0,-1,867,1184,0,0
-350,-160,0,0,0,0,0,0,0,0,0,-1,874,1184,0,0
-343,-160,0,0,0,0,0,0,0,0,0,-1,881,1184,0,0
-336,-160,0,0,0,0,0,0,0,0,0,-1,888,1184,0,0
-329,-160,0,0,0,0,0,0,0,0,0,-1,895,1184,0,0
-322,-160,0,0,0,0,0,0,0,0,0,-1,902,1184,0,0
-315,-160,0,0,0,0,0,0,0,0,0,-1,909,1184,0,0
-308,-160,0,0,0,0,0,0,0,0,0,-1,916,1184,0,0
-301,-160,0,0,0,0,0,0,0,0,0,-1,923,1184,0,0
-294,-160,0,0,0,0,0,0,0,0,0,-1,930,1184,0,0
-287,-160,0,0,0,0,0,0,0,0,0,-1,937,1184,0,0
-280,-160,0,0,0,0,0,0,0,0,0,-1,944,1184,0,0
-273,-160,0,0,0,0,0,0,0,0,0,-1,951,1184,0,0
-266,-160,0,0,0,0,0,0,0,0,0,-1,958,1184,0,0
-259,-160,0,0,0,0,0,0,0,0,0,-1,965,1184,0,0
-252,-160,0,0,0,0,0,0,0,0,0,-1,972,1184,0,0
-245,-160,0,0,0,0,0,0,0,0,0,-1,979,1184,0,0
-238,-160,0,0,0,0,0,0,0,0,0,-1,986,1184,0,0
-231,-160,0,0,0,0,0,0,0,0,0,-1,993,1184,0,0
-224,-160,0,0,0,0,0,0,0,0,0,-1,1000,1184,0,0
-217,-160,0,0,0,0,0,0,0,0,0,-1,1007,1184,0,0
-210,-160,0,0,0,0,0,0,0,0,0,-1,1014,1184,0,0
-203,-160,0,0,0,0,0,0,0,0,0,-1,1021,1184,0,0
-196,-160,0,0,0,0,0,0,0,0,0,-1,1028,1184,0,0
-189,-160,0,0,0,0,0,0,0,0,0,-1,1035,1184,0,0
-182,-160,0,0,0,0,0,0,0,0,0,-1,1042,1184,0,0
-175,-160,0,0,0,0,0,0,0,0,0,-1,1049,1184,0,0
-168,-160,0,0,0,0,0,0,0,0,0,-1,1056,1184,0,0
-161,-160,0,0,0,0,0,0,0,0,0,-1,1063,1184,0,0
-154,-160,0,0,0,0,0,0,0,0,0,-1,1070,1184,0,0
-147,-160,0,0,0,0,0,0,0,0,0,-1,1077,1184,0,0
-140,-160,0,0,0,0,0,0,0,0,0,-1,1084,1184,0,0
-133,-160,0,0,0,0,0,0,0,0,0,-1,1091,1184,0,0
-126,-160,0,0,0,0,0,0,0,0,0,-1,1098,1184,0,0
-119,-160,0,0,0,0,0,0,0,0,0,-1,1105,1184,0,0
-112,-160,0,0,0,0,0,0,0,0,0,-1,1112,1184,0,0
-105,-160,0,0,0,0,0,0,0,0,0,-1,1119,1184,0,0
-98,-160,0,0,0,0,0,0,0,0,0,-1,1126,1184,0,0
-91,-160,0,0,0,0,0,0,0,0,0,-1,1133,1184,0,0
-84,-160,0,0,0,0,0,0,0,0,0,-1,1140,1184,0,0
-77,-160,0,0,0,0,0,0,0,0,0,-1,1147,1184,0,0
-70,-160,0,0,0,0,0,0,0,0,0,-1,1154,1184,0,0
-63,-160,0,0,0,0,0,0,0,0,0,-1,1161,1184,0,0
-56,-160,0,0,0,0,0,0,0,0,0,-1,1168,1184,0,0
-49,-160,0,0,0,0,0,0,0,0,0,-1,1175,1184,0,0
-42,-160,0,0,0,0,0,0,0,0,0,-1,1182,1184,0,0
-35,-160,0,0,0,0,0,0,0,0,0,-1,1189,1184,0,0
-28,-160,0,0,0,0,0,0,0,0,0,-1,1196,1184,0,0
-21,-160,0,0,0,0,0,0,0,0,0,-1,1203,1184,0,0
-14,-160,0,0,0,0,0,0,0,0,0,-1,1210,1184,0,0
-7,-160,0,0,0,0,0,0,0,0,0,-1,1217,1184,0,0
0,-160,0,0,0,0,0,0,0,0,0,-1,1224,1184,0,0
7,-160,0,0,0,0,0,0,0,0,0,-1,1231,1184,0,0
14,-160,0,0,0,0,0,0,0,0,0,-1,1238,1184,0,0
21,-160,0,0,0,0,0,0,0,0,0,-1,1245,1184,0,0
28,-160,0,0,0,0,0,0,0,0,0,-1,1252,1184,0,0
35,-160,0,0,0,0,0,0,0,0,0,-1,1259,1184,0,0
42,-160,0,0,0,0,0,0,0,0,0,-1,1266,1184,0,0
49,-160,0,0,0,0,0,0,0,0,0,-1,1273,1184,0,0
56,-160,0,0,0,0,0,0,0,0,0,-1,1280,1184,0,0
63,-160,0,0,0,0,0,0,0,0,0,-1,1287,1184,0,0
70,-160,0,0,0,0,0,0,0,0,0,-1,1294,1184,0,0
77,-160,0,0,0,0,0,0,0,0,0,-1,1301,1184,0,0
84,-160,0,0,0,0,0,0,0,0,0,-1,1308,1184,0,0
91,-160,0,0,0,0,0,0,0,0,0,-1,1315,1184,0,0
98,-160,0,0,0,0,0,0,0,0,0,-1,1322,1184,0,0
105,-160,0,0,0,0,0,0,0,0,0,-1,1329,1184,0,0
112,-160,0,0,0,0,0,0,0,0,0,-1,1336,1184,0,0
119,-160,0,0,0,0,0,0,0,0,0,-1,1343,1184,0,0
126,-160,0,0,0,0,0,0,0,0,0,-1,1350,1184,0,0
133,-160,0,0,0,0,0,0,0,0,0,-1,1357,1184,0,0
140,-160,0,0,0,0,0,0,0,0,0,-1,1364,1184,0,0
147,-160,0,0,0,0,0,0,0,0,0,-1,1371,1184,0,0
154,-160,0,0,0,0,0,0,0,0,0,-1,1378,1184,0,0
161,-160,0,0,0,0,0,0,0,0,0,-1,1385,1184,0,0
168,-160,0,0,0,0,0,0,0,0,0,-1,1392,1184,0,0
175,-160,0,0,0,0,0,0,0,0,0,-1,1399,1184,0,0
182,-160,0,0,0,0,0,0,0,0,0,-1,1406,1184,0,0
189,-160,0,0,0,0,0,0,0,0,0,-1,1413,1184,0,0
196,-160,0,0,0,0,0,0,0,0,0,-1,1420,1184,0,0
203,-160,0,0,0,0,0,0,0,0,0,-1,1427,1184,0,0
210,-160,0,0,0,0,0,0,0,0,0,-1,1434,1184,0,0
217,-160,0,0,0,0,0,0,0,0,0,-1,1441,1184,0,0
224,-160,0,0,0,0,0,0,0,0,0,-1,1448,1184,0,0
231,-160,0,0,0,0,0,0,0,0,0,-1,1455,1184,0,0
238,-160,0,0,0,0,0,0,0,0,0,-1,1462,1184,0,0
245,-160,0,0,0,0,0,0,0,0,0,-1,1469,1184,0,0
252,-160,0,0,0,0,0,0,0,0,0,-1,1476,1184,0,0
259,-160,0,0,0,0,0,0,0,0,0,-1,1483,1184,0,0
266,-160,0,0,0,0,0,0,0,0,0,-1,1490,1184,0,0
273,-160,0,0,0,0,0,0,0,0,0,-1,1497,1184,0,0
280,-160,0,0,0,0,0,0,0,0,0,-1,1504,1184,0,0
287,-160,0,0,0,0,0,0,0,0,0,-1,1511,1184,0,0
294,-160,0,0,0,0,0,0,0,0,0,-1,1518,1184,0,0
301,-160,0,0,0,0,0,0,0,0,0,-1,1525,1184,0,0
308,-160,0,0,0,0,0,0,0,0,0,-1,1532,1184,0,0
315,-160,0,0,0,0,0,0,0,0,0,-1,1539,1184,0,0
322,-160,0,0,0,0,0,0,0,0,0,-1,1546,1184,0,0
329,-160,0,0,0,0,0,0,0,0,0,-1,1553,1184,0,0
336,-160,0,0,0,0,0,0,0,0,0,-1,1560,1184,0,0
343,-160,0,0,0,0,0,0,0,0,0,-1,1567,1184,0,0
350,-160,0,0,0,0,0,0,0,0,0,-1,1574,1184,0,0
357,-160,0,0,0,0,0,0,0,0,0,-1,1581,1184,0,0
364,-160,0,0,0,0,0,0,0,0,0,-1,1588,1184,0,0
371,-160,0,0,0,0,0,0,0,0,0,-1,1595,1184,0,0
378,-160,0,0,0,0,0,0,0,0,0,-1,1602,1184,0,0
385,-160,0,0,0,0,0,0,0,0,0,-1,1609,1184,0,0
392,-160,0,0,0,0,0,0,0,0,0,-1,1616,1184,0,0
399,-160,0,0,0,0,0,0,0,0,0,-1,1623,1184,0,0
406,-160,0,0,0,0,0,0,0,0,0,-1,1630,1184,0,0
413,-160,0,0,0,0,0,0,0,0,0,-1,1637,1184,0,0
420,-160,0,0,0,0,0,0,0,0,0,-1,1644,1184,0,0
427,-160,0,0,0,0,0,0,0,0,0,-1,1651,1184,0,0
434,-160,0,0,0,0,0,0,0,0,0,-1,1658,1184,0,0
441,-160,0,0,0,0,0,0,0,0,0,-1,1665,1184,0,0
448,-160,0,0,0,0,0,0,0,0,0,-1,1672,1184,0,0
455,-160,0,0,0,0,0,0,0,0,0,-1,1679,1184,0,0
462,-160,0,0,0,0,0,0,0,0,0,-1,1686,1184,0,0
469,-160,0,0,0,0,0,0,0,0,0,-1,1693,1184,0,0
476,-160,0,0,0,0,0,0,0,0,0,-1,1700,1184,0,0
483,-160,0,0,0,0,0,0,0,0,0,-1,1707,1184,0,0
490,-160,0,0,0,0,0,0,0,0,0,-1,1714,1184,0,0
497,-160,0,0,0,0,0,0,0,0,0,-1,1721,1184,0,0
504,-160,0,0,0,0,0,0,0,0,0,-1,1728,1184,0,0
511,-160,0,0,0,0,0,0,0,0,0,-1,1735,1184,0,0
518,-160,0,0,0,0,0,0,0,0,0,-1,1742,1184,0,0
525,-160,0,0,0,0,0,0,0,0,0,-1,1749,1184,0,0
532,-160,0,0,0,0,0,0,0,0,0,-1,1756,1184,0,0
539,-160,0,0,0,0,0,0,0,0,0,-1,1763,1184,0,0
546,-160,0,0,0,0,0,0,0,0,0,-1,1770,1184,0,0
553,-160,0,0,0,0,0,0,0,0,0,-1,1777,1184,0,0
560,-160,0,0,0,0,0,0,0,0,0,-1,1784,1184,0,0
567,-160,0,0,0,0,0,0,0,0,0,-1,1791,1184,0,0
574,-160,0,0,0,0,0,0,0,0,0,-1,1798,1184,0,0
581,-160,0,0,0,0,0,0,0,0,0,-1,1805,1184,0,0
588,-160,0,0,0,0,0,0,0,0,0,-1,1812,1184,0,0
595,-160,0,0,0,0,0,0,0,0,0,-1,1819,1184,0,0
602,-160,0,0,0,0,0,0,0,0,0,-1,1826,1184,0,0
609,-160,0,0,0,0,0,0,0,0,0,-1,1833,1184,0,0
616,-160,0,0,0,0,0,0,0,0,0,-1,1840,1184,0,0
623,-160,0,0,0,0,0,0,0,0,0,-1,1847,1184,0,0
630,-160,0,0,0,0,0,0,0,0,0,-1,1854,1184,0,0
637,-160,75.3557,2.42322,0.00462047,0.00229367,0.0039626,0.00758692,-0.000672779,0.642613,0.00529647,0.0397968,1861,1184,75.3557,-2.42323
644,-160,75.421,2.32227,0.00371596,0.00196985,0.00310123,0.00606469,-0.000378872,0.648189,0.00417515,0.0393724,1868,1184,75.421,-2.32222
651,-160,75.4987,2.33545,0.00292903,0.00176335,0.00220414,0.00462609,6.62887e-05,0.656141,0.0030622,0.0362376,1875,1184,75.4987,-2.3355
658,-160,75.5951,2.23206,0.00229866,0.00156753,0.00134422,0.00332614,0.000540048,0.652632,0.00206113,0.0392377,1882,1184,75.5951,-2.23206
665,-160,75.663,2.20227,0.00175743,0.00141556,0.000607143,0.00221724,0.000955748,0.648178,0.00128418,0.0394277,1889,1184,75.663,-2.2023
672,-160,75.6213,2.29846,0.00140316,0.00149725,-1.87961e-05,0.00150086,0.00139955,-1.38074,0.000968571,0.0338552,1896,1184,75.6213,-2.2985
679,-160,75.6132,2.38037,0.00146349,0.00136117,-0.000314925,0.00173138,0.00109328,-0.704882,0.00101106,0.027051,1903,1184,75.6131,-2.38043
686,-160,75.658,2.33643,0.00226465,0.00162002,-0.000417151,0.0024695,0.00141517,-0.456474,0.00143083,0.0185595,1910,1184,75.658,-2.33642
693,-160,75.6781,2.25977,0,0,0,0,0,0,0,-1,1917,1184,75.6781,-2.25979
700,-160,42.8784,2.44617,0,0,0,0,0,0,0,-1,1924,1184,42.8785,-2.4462
707,-160,24.5115,6.27405,0,0,0,0,0,0,0,-1,1931,1184,24.5115,-6.27401
714,-160,35.6892,6.8905,0,0,0,0,0,0,0,-1,1938,1184,35.6892,-6.89048
721,-160,36.2388,6.37878,0,0,0,0,0,0,0,-1,1945,1184,36.2388,-6.37876
728,-160,52.2174,8.57385,0,0,0,0,0,0,0,-1,1952,1184,52.2174,-8.57381
735,-160,64.2548,9.03381,0,0,0,0,0,0,0,-1,1959,1184,64.2548,-9.03378
742,-160,64.334,8.3302,0.00262128,0.00159651,0.00156262,0.00375338,0.00046441,0.626972,0.00236271,0.0206674,1966,1184,64.334,-8.33018
749,-160,64.3302,7.68567,0.00175355,0.00181403,0.00192545,0.00370947,-0.000141893,0.793251,0.00252161,0.0196565,1973,1184,64.3303,-7.68572
756,-160,64.2976,7.01575,0.000973128,0.00229424,0.00206393,0.00380074,-0.000533372,0.940271,0.00272905,0.0129896,1980,1184,64.2975,-7.01569
763,-160,64.2437,6.35693,0.000690111,0.00286548,0.00170423,0.00379954,-0.000243952,1.06943,0.00261814,0.0138038,1987,1184,64.2436,-6.35692
770,-160,64.1221,5.5946,0.000804202,0.00330683,0.00076153,0.00352034,0.00059069,1.29744,0.00217688,0.0310744,1994,1184,64.1221,-5.59459
777,-160,63.9663,4.98523,0.00143399,0.00378993,-0.00118288,0.00428133,0.000942581,-1.17706,0.00259767,0.040786,2001,1184,63.9663,-4.98524
784,-160,64.7683,4.61292,0,0,0,0,0,0,0,-1,2008,1184,64.7682,-4.61293
791,-160,65.5815,4.55945,0.00626773,0.00465198,-0.0112717,0.0167605,-0.00584076,-0.749623,0.013547,0.0449723,2015,1184,65.5816,-4.55946
798,-160,65.5962,3.68665,0,0,0,0,0,0,0,-1,2022,1184,65.5961,-3.68669
805,-160,65.4265,2.72888,0,0,0,0,0,0,0,-1,2029,1184,65.4265,-2.72889
812,-160,0,0,0,0,0,0,0,0,0,-1,2036,1184,0,0
-700,-167,0,0,0,0,0,0,0,0,0,-1,524,1191,0,0
-693,-167,0,0,0,0,0,0,0,0,0,-1,531,1191,0,0
-686,-167,-53.4345,-0.115845,0,0,0,0,0,0,0,-1,538,1191,-53.4345,0.115898
-679,-167,-52.2245,0.188599,0,0,0,0,0,0,0,-1,545,1191,-52.2245,-0.188559
-672,-167,-51.3704,0.653564,0,0,0,0,0,0,0,-1,552,1191,-51.3704,-0.653556
-665,-167,-50.5522,1.13354,0,0,0,0,0,0,0,-1,559,1191,-50.5522,-1.1335
-658,-167,-49.3792,0.349854,0,0,0,0,0,0,0,-1,566,1191,-49.3792,-0.349863
-651,-167,-47.2499,3.0542,0,0,0,0,0,0,0,-1,573,1191,-47.2499,-3.05416
-644,-167,-47.2878,3.78516,0.0151193,0.00701371,-0.00103564,0.0152495,0.00688348,-0.125092,0.00881816,0.044383,580,1191,-47.2878,-3.78516
-637,-167,-47.4039,4.50659,0.00916429,0.00515312,-0.00134838,0.00957542,0.004742,-0.29595,0.00552846,0.020603,587,1191,-47.4038,-4.50665
-630,-167,-47.5184,5.17004,0.00409759,0.00351379,-0.00192484,0.00575253,0.00185884,-0.710147,0.00338978,0.0100988,594,1191,-47.5184,-5.17001
-623,-167,-47.5552,5.85718,-0.000212437,0.00198984,-0.00284421,0.00393862,-0.00216122,-0.970089,0.00357123,0.0136236,601,1191,-47.5551,-5.8572
-616,-167,-47.5878,6.61133,-0.00401059,0.000526302,-0.00398282,0.00284138,-0.00632567,-1.04427,0.00541854,0.017166,608,1191,-47.5878,-6.61137
-609,-167,-47.6716,7.4032,-0.00735024,-0.000900512,-0.00534594,0.00211793,-0.0103687,-1.0568,0.00771594,0.018138,615,1191,-47.6717,-7.40316
-602,-167,-47.9226,7.99097,-0.0102906,-0.00231059,-0.00694278,0.00170705,-0.0143082,-1.0462,0.0101558,0.0282886,622,1191,-47.9226,-7.99096
-595,-167,-47.733,8.40173,0,0,0,0,0,0,0,-1,629,1191,-47.733,-8.40171
-588,-167,-42.7112,7.92004,0,0,0,0,0,0,0,-1,636,1191,-42.7112,-7.92007
-581,-167,-32.8646,6.30542,0,0,0,0,0,0,0,-1,643,1191,-32.8646,-6.30537
-574,-167,-32.4808,7.37524,0,0,0,0,0,0,0,-1,650,1191,-32.4808,-7.37525
-567,-167,-27.3643,2.55859,0,0,0,0,0,0,0,-1,657,1191,-27.3643,-2.55864
-560,-167,-48.2598,0.834839,0,0,0,0,0,0,0,-1,664,1191,-48.2598,-0.834822
-553,-167,-58.6805,0.117676,0,0,0,0,0,0,0,-1,671,1191,-58.6805,-0.117625
-546,-167,-58.7916,0.290405,0,0,0,0,0,0,0,-1,678,1191,-58.7916,-0.290351
-539,-167,-58.9976,0.569214,0,0,0,0,0,0,0,-1,685,1191,-58.9976,-0.569186
-532,-167,-59.1583,0.761108,0,0,0,0,0,0,0,-1,692,1191,-59.1582,-0.761131
-525,-167,-59.0589,0.68811,0,0,0,0,0,0,0,-1,699,1191,-59.0589,-0.688099
-518,-167,-58.9969,0.409912,0,0,0,0,0,0,0,-1,706,1191,-58.9969,-0.409956
-511,-167,0,0,0,0,0,0,0,0,0,-1,713,1191,0,0
-504,-167,0,0,0,0,0,0,0,0,0,-1,720,1191,0,0
-497,-167,0,0,0,0,0,0,0,0,0,-1,727,1191,0,0
-490,-167,0,0,0,0,0,0,0,0,0,-1,734,1191,0,0
-483,-167,0,0,0,0,0,0,0,0,0,-1,741,1191,0,0
-476,-167,0,0,0,0,0,0,0,0,0,-1,748,1191,0,0
-469,-167,0,0,0,0,0,0,0,0,0,-1,755,1191,0,0
-462,-167,0,0,0,0,0,0,0,0,0,-1,762,1191,0,0
-455,-167,0,0,0,0,0,0,0,0,0,-1,769,1191,0,0
-448,-167,0,0,0,0,0,0,0,0,0,-1,776,1191,0,0
-441,-167,0,0,0,0,0,0,0,0,0,-1,783,1191,0,0
-434,-167,0,0,0,0,0,0,0,0,0,-1,790,1191,0,0
-427,-167,0,0,0,0,0,0,0,0,0,-1,797,1191,0,0
-420,-167,0,0,0,0,0,0,0,0,0,-1,804,1191,0,0
-413,-167,0,0,0,0,0,0,0,0,0,-1,811,1191,0,0
-406,-167,0,0,0,0,0,0,0,0,0,-1,818,1191,0,0
-399,-167,0,0,0,0,0,0,0,0,0,-1,825,1191,0,0
-392,-167,0,0,0,0,0,0,0,0,0,-1,832,1191,0,0
-385,-167,0,0,0,0,0,0,0,0,0,-1,839,1191,0,0
-378,-167,0,0,0,0,0,0,0,0,0,-1,846,1191,0,0
-371,-167,0,0,0,0,0,0,0,0,0,-1,853,1191,0,0
-364,-167,0,0,0,0,0,0,0,0,0,-1,860,1191,0,0
-357,-167,0,0,0,0,0,0,0,0,0,-1,867,1191,0,0
-350,-167,0,0,0,0,0,0,0,0,0,-1,874,1191,0,0
-343,-167,0,0,0,0,0,0,0,0,0,-1,881,1191,0,0
-336,-167,0,0,0,0,0,0,0,0,0,-1,888,1191,0,0
-329,-167,0,0,0,0,0,0,0,0,0,-1,895,1191,0,0
-322,-167,0,0,0,0,0,0,0,0,0,-1,902,1191,0,0
-315,-167,0,0,0,0,0,0,0,0,0,-1,909,1191,0,0
-308,-167,0,0,0,0,0,0,0,0,0,-1,916,1191,0,0
-301,-167,0,0,0,0,0,0,0,0,0,-1,923,1191,0,0
-294,-167,0,0,0,0,0,0,0,0,0,-1,930,1191,0,0
-287,-167,0,0,0,0,0,0,0,0,0,-1,937,1191,0,0
-280,-167,0,0,0,0,0,0,0,0,0,-1,944,1191,0,0
-273,-167,0,0,0,0,0,0,0,0,0,-1,951,1191,0,0
-266,-167,0,0,0,0,0,0,0,0,0,-1,958,1191,0,0
-259,-167,0,0,0,0,0,0,0,0,0,-1,965,1191,0,0
-252,-167,0,0,0,0,0,0,0,0,0,-1,972,1191,0,0
-245,-167,0,0,0,0,0,0,0,0,0,-1,979,1191,0,0
-238,-167,0,0,0,0,0,0,0,0,0,-1,986,1191,0,0
-231,-167,0,0,0,0,0,0,0,0,0,-1,993,1191,0,0
-224,-167,0,0,0,0,0,0,0,0,0,-1,1000,1191,0,0
-217,-167,0,0,0,0,0,0,0,0,0,-1,1007,1191,0,0
-210,-167,0,0,0,0,0,0,0,0,0,-1,1014,1191,0,0
-203,-167,0,0,0,0,0,0,0,0,0,-1,1021,1191,0,0
-196,-167,0,0,0,0,0,0,0,0,0,-1,1028,1191,0,0
-189,-167,0,0,0,0,0,0,0,0,0,-1,1035,1191,0,0
-182,-167,0,0,0,0,0,0,0,0,0,-1,1042,1191,0,0
-175,-167,0,0,0,0,0,0,0,0,0,-1,1049,1191,0,0
-168,-167,0,0,0,0,0,0,0,0,0,-1,1056,1191,0,0
-161,-167,0,0,0,0,0,0,0,0,0,-1,1063,1191,0,0
-154,-167,0,0,0,0,0,0,0,0,0,-1,1070,1191,0,0
-147,-167,0,0,0,0,0,0,0,0,0,-1,1077,1191,0,0
-140,-167,0,0,0,0,0,0,0,0,0,-1,1084,1191,0,0
-133,-167,0,0,0,0,0,0,0,0,0,-1,1091,1191,0,0
-126,-167,0,0,0,0,0,0,0,0,0,-1,1098,1191,0,0
-119,-167,0,0,0,0,0,0,0,0,0,-1,1105,1191,0,0
-112,-167,0,0,0,0,0,0,0,0,0,-1,1112,1191,0,0
-105,-167,0,0,0,0,0,0,0,0,0,-1,1119,1191,0,0
-98,-167,0,0,0,0,0,0,0,0,0,-1,1126,1191,0,0
-91,-167,0,0,0,0,0,0,0,0,0,-1,1133,1191,0,0
-84,-167,0,0,0,0,0,0,0,0,0,-1,1140,1191,0,0
-77,-167,0,0,0,0,0,0,0,0,0,-1,1147,1191,0,0
-70,-167,0,0,0,0,0,0,0,0,0,-1,1154,1191,0,0
-63,-167,0,0,0,0,0,0,0,0,0,-1,1161,1191,0,0
-56,-167,0,0,0,0,0,0,0,0,0,-1,1168,1191,0,0
-49,-167,0,0,0,0,0,0,0,0,0,-1,1175,1191,0,0
-42,-167,0,0,0,0,0,0,0,0,0,-1,1182,1191,0,0
-35,-167,0,0,0,0,0,0,0,0,0,-1,1189,1191,0,0
-28,-167,0,0,0,0,0,0,0,0,0,-1,1196,1191,0,0
-21,-167,0,0,0,0,0,0,0,0,0,-1,1203,1191,0,0
-14,-167,0,0,0,0,0,0,0,0,0,-1,1210,1191,0,0
-7,-167,0,0,0,0,0,0,0,0,0,-1,1217,1191,0,0
0,-167,0,0,0,0,0,0,0,0,0,-1,1224,1191,0,0
7,-167,0,0,0,0,0,0,0,0,0,-1,1231,1191,0,0
14,-167,0,0,0,0,0,0,0,0,0,-1,1238,1191,0,0
21,-167,0,0,0,0,0,0,0,0,0,-1,1245,1191,0,0
28,-167,0,0,0,0,0,0,0,0,0,-1,1252,1191,0,0
35,-167,0,0,0,0,0,0,0,0,0,-1,1259,1191,0,0
42,-167,0,0,0,0,0,0,0,0,0,-1,1266,1191,0,0
49,-167,0,0,0,0,0,0,0,0,0,-1,1273,1191,0,0
56,-167,0,0,0,0,0,0,0,0,0,-1,1280,1191,0,0
63,-167,0,0,0,0,0,0,0,0,0,-1,1287,1191,0,0
70,-167,0,0,0,0,0,0,0,0,0,-1,1294,1191,0,0
77,-167,0,0,0,0,0,0,0,0,0,-1,1301,1191,0,0
84,-167,0,0,0,0,0,0,0,0,0,-1,1308,1191,0,0
91,-167,0,0,0,0,0,0,0,0,0,-1,1315,1191,0,0
98,-167,0,0,0,0,0,0,0,0,0,-1,1322,1191,0,0
105,-167,0,0,0,0,0,0,0,0,0,-1,1329,1191,0,0
112,-167,0,0,0,0,0,0,0,0,0,-1,1336,1191,0,0
119,-167,0,0,0,0,0,0,0,0,0,-1,1343,1191,0,0
126,-167,0,0,0,0,0,0,0,0,0,-1,1350,1191,0,0
133,-167,0,0,0,0,0,0,0,0,0,-1,1357,1191,0,0
140,-167,0,0,0,0,0,0,0,0,0,-1,1364,1191,0,0
147,-167,0,0,0,0,0,0,0,0,0,-1,1371,1191,0,0
154,-167,0,0,0,0,0,0,0,0,0,-1,1378,1191,0,0
161,-167,0,0,0,0,0,0,0,0,0,-1,1385,1191,0,0
168,-167,0,0,0,0,0,0,0,0,0,-1,1392,1191,0,0
175,-167,0,0,0,0,0,0,0,0,0,-1,1399,1191,0,0
182,-167,0,0,0,0,0,0,0,0,0,-1,1406,1191,0,0
189,-167,0,0,0,0,0,0,0,0,0,-1,1413,1191,0,0
196,-167,0,0,0,0,0,0,0,0,0,-1,1420,1191,0,0
203,-167,0,0,0,0,0,0,0,0,0,-1,1427,1191,0,0
210,-167,0,0,0,0,0,0,0,0,0,-1,1434,1191,0,0
217,-167,0,0,0,0,0,0,0,0,0,-1,1441,1191,0,0
224,-167,0,0,0,0,0,0,0,0,0,-1,1448,1191,0,0
231,-167,0,0,0,0,0,0,0,0,0,-1,1455,1191,0,0
238,-167,0,0,0,0,0,0,0,0,0,-1,1462,1191,0,0
245,-167,0,0,0,0,0,0,0,0,0,-1,1469,1191,0,0
252,-167,0,0,0,0,0,0,0,0,0,-1,1476,1191,0,0
259,-167,0,0,0,0,0,0,0,0,0,-1,1483,1191,0,0
266,-167,0,0,0,0,0,0,0,0,0,-1,1490,1191,0,0
273,-167,0,0,0,0,0,0,0,0,0,-1,1497,1191,0,0
280,-167,0,0,0,0,0,0,0,0,0,-1,1504,1191,0,0
287,-167,0,0,0,0,0,0,0,0,0,-1,1511,1191,0,0
294,-167,0,0,0,0,0,0,0,0,0,-1,1518,1191,0,0
301,-167,0,0,0,0,0,0,0,0,0,-1,1525,1191,0,0
308,-167,0,0,0,0,0,0,0,0,0,-1,1532,1191,0,0
315,-167,0,0,0,0,0,0,0,0,0,-1,1539,1191,0,0
322,-167,0,0,0,0,0,0,0,0,0,-1,1546,1191,0,0
329,-167,0,0,0,0,0,0,0,0,0,-1,1553,1191,0,0
336,-167,0,0,0,0,0,0,0,0,0,-1,1560,1191,0,0
343,-167,0,0,0,0,0,0,0,0,0,-1,1567,1191,0,0
350,-167,0,0,0,0,0,0,0,0,0,-1,1574,1191,0,0
357,-167,0,0,0,0,0,0,0,0,0,-1,1581,1191,0,0
364,-167,0,0,0,0,0,0,0,0,0,-1,1588,1191,0,0
371,-167,0,0,0,0,0,0,0,0,0,-1,1595,1191,0,0
378,-167,0,0,0,0,0,0,0,0,0,-1,1602,1191,0,0
385,-167,0,0,0,0,0,0,0,0,0,-1,1609,1191,0,0
392,-167,0,0,0,0,0,0,0,0,0,-1,1616,1191,0,0
399,-167,0,0,0,0,0,0,0,0,0,-1,1623,1191,0,0
406,-167,0,0,0,0,0,0,0,0,0,-1,1630,1191,0,0
413,-167,0,0,0,0,0,0,0,0,0,-1,1637,1191,0,0
420,-167,0,0,0,0,0,0,0,0,0,-1,1644,1191,0,0
427,-167,0,0,0,0,0,0,0,0,0,-1,1651,1191,0,0
434,-167,0,0,0,0,0,0,0,0,0,-1,1658,1191,0,0
441,-167,0,0,0,0,0,0,0,0,0,-1,1665,1191,0,0
448,-167,0,0,0,0,0,0,0,0,0,-1,1672,1191,0,0
455,-167,0,0,0,0,0,0,0,0,0,-1,1679,1191,0,0
462,-167,0,0,0,0,0,0,0,0,0,-1,1686,1191,0,0
469,-167,0,0,0,0,0,0,0,0,0,-1,1693,1191,0,0
476,-167,0,0,0,0,0,0,0,0,0,-1,1700,1191,0,0
483,-167,0,0,0,0,0,0,0,0,0,-1,1707,1191,0,0
490,-167,0,0,0,0,0,0,0,0,0,-1,1714,1191,0,0
497,-167,0,0,0,0,0,0,0,0,0,-1,1721,1191,0,0
504,-167,0,0,0,0,0,0,0,0,0,-1,1728,1191,0,0
511,-167,0,0,0,0,0,0,0,0,0,-1,1735,1191,0,0
518,-167,0,0,0,0,0,0,0,0,0,-1,1742,1191,0,0
525,-167,0,0,0,0,0,0,0,0,0,-1,1749,1191,0,0
532,-167,0,0,0,0,0,0,0,0,0,-1,1756,1191,0,0
539,-167,0,0,0,0,0,0,0,0,0,-1,1763,1191,0,0
546,-167,0,0,0,0,0,0,0,0,0,-1,1770,1191,0,0
553,-167,0,0,0,0,0,0,0,0,0,-1,1777,1191,0,0
560,-167,0,0,0,0,0,0,0,0,0,-1,1784,1191,0,0
567,-167,0,0,0,0,0,0,0,0,0,-1,1791,1191,0,0
574,-167,0,0,0,0,0,0,0,0,0,-1,1798,1191,0,0
581,-167,0,0,0,0,0,0,0,0,0,-1,1805,1191,0,0
588,-167,0,0,0,0,0,0,0,0,0,-1,1812,1191,0,0
595,-167,0,0,0,0,0,0,0,0,0,-1,1819,1191,0,0
602,-167,0,0,0,0,0,0,0,0,0,-1,1826,1191,0,0
609,-167,0,0,0,0,0,0,0,0,0,-1,1833,1191,0,0
616,-167,0,0,0,0,0,0,0,0,0,-1,1840,1191,0,0
623,-167,0,0,0,0,0,0,0,0,0,-1,1847,1191,0,0
630,-167,0,0,0,0,0,0,0,0,0,-1,1854,1191,0,0
637,-167,75.0415,2.39648,0.00349078,0.00131937,0.00397139,0.0065222,-0.00171205,0.651968,0.00501715,0.0434962,1861,1191,75.0416,-2.39649
644,-167,75.2502,2.20837,0.00293876,0.0012371,0.00303828,0.00524309,-0.00106723,0.648877,0.00390012,0.0450591,1868,1191,75.2502,-2.20834
651,-167,75.4166,2.21118,0.00248703,0.00126519,0.002014,0.00398073,-0.000228509,0.63814,0.00273318,0.0403158,1875,1191,75.4166,-2.21117
658,-167,75.3849,2.19434,0.00211939,0.00132024,0.00101765,0.0028131,0.000626531,0.598321,0.00170536,0.0442767,1882,1191,75.3849,-2.19434
665,-167,75.5748,2.27515,0.00179173,0.00141118,0.000219591,0.00189202,0.0013109,0.428399,0.00111912,0.0401462,1889,1191,75.5749,-2.27513
672,-167,75.5941,2.33667,0.00160595,0.00176797,-0.000377652,0.0020732,0.00130072,-0.891051,0.00120985,0.0283863,1896,1191,75.5941,-2.33666
679,-167,75.6283,2.32556,0.00163986,0.00187885,-0.000627327,0.00239796,0.00112075,-0.879513,0.00138545,0.022665,1903,1191,75.6283,-2.32551
686,-167,75.6187,2.25586,0.00221588,0.00215751,-0.000684495,0.00287181,0.00150158,-0.764093,0.00165862,0.0374809,1910,1191,75.6186,-2.25581
693,-167,75.5679,2.13159,0,0,0,0,0,0,0,-1,1917,1191,75.5678,-2.13155
700,-167,28.0459,2.70508,0,0,0,0,0,0,0,-1,1924,1191,28.0459,-2.70513
707,-167,29.4708,7.10168,0,0,0,0,0,0,0,-1,1931,1191,29.4708,-7.10172
714,-167,35.9202,6.84668,0,0,0,0,0,0,0,-1,1938,1191,35.9202,-6.84664
721,-167,36.2072,6.38892,0,0,0,0,0,0,0,-1,1945,1191,36.2072,-6.38891
728,-167,61.5837,9.43115,0,0,0,0,0,0,0,-1,1952,1191,61.5837,-9.43119
735,-167,63.728,9.16162,0,0,0,0,0,0,0,-1,1959,1191,63.728,-9.16157
742,-167,63.6373,8.43481,0.00237209,0.00213813,0.00126591,0.00352641,0.000983809,0.739325,0.00210123,0.017753,1966,1191,63.6373,-8.4348
749,-167,63.6019,7.71008,0.00168836,0.00211639,0.00166826,0.0035843,0.000220446,0.849194,0.00231955,0.0157884,1973,1191,63.602,-7.71006
756,-167,63.6099,7.04419,0.00113348,0.00206561,0.00190253,0.00355833,-0.000359236,0.905518,0.00250058,0.0121333,1980,1191,63.6099,-7.04424
763,-167,63.5337,6.37415,0.000987672,0.00175408,0.00184953,0.00325969,-0.000517937,0.887547,0.00236475,0.0155933,1987,1191,63.5338,-6.37409
770,-167,63.4612,5.70325,0,0,0,0,0,0,0,-1,1994,1191,63.4611,-5.70319
777,-167,66.2607,5.45007,0,0,0,0,0,0,0,-1,2001,1191,66.2607,-5.45006
784,-167,65.9761,5.13391,0,0,0,0,0,0,0,-1,2008,1191,65.976,-5.13389
791,-167,65.8235,4.59827,0,0,0,0,0,0,0,-1,2015,1191,65.8234,-4.59828
798,-167,66.0625,3.87146,0,0,0,0,0,0,0,-1,2022,1191,66.0625,-3.8714
805,-167,65.0269,2.67737,0,0,0,0,0,0,0,-1,2029,1191,65.0269,-2.67736
812,-167,0,0,0,0,0,0,0,0,0,-1,2036,1191,0,0
-700,-174,0,0,0,0,0,0,0,0,0,-1,524,1198,0,0
-693,-174,0,0,0,0,0,0,0,0,0,-1,531,1198,0,0
-686,-174,-52.3655,-0.638062,0,0,0,0,0,0,0,-1,538,1198,-52.3655,0.638116
-679,-174,-50.3958,-0.438721,0,0,0,0,0,0,0,-1,545,1198,-50.3958,0.43869
-672,-174,-49.6091,0.0513916,0,0,0,0,0,0,0,-1,552,1198,-49.6091,-0.051443
-665,-174,-48.3375,-0.485229,0,0,0,0,0,0,0,-1,559,1198,-48.3375,0.48524
-658,-174,-48.1225,0.471436,0,0,0,0,0,0,0,-1,566,1198,-48.1225,-0.471418
-651,-174,-47.2344,2.14111,0,0,0,0,0,0,0,-1,573,1198,-47.2344,-2.14107
-644,-174,-46.9164,3.27075,0.0165399,0.00557001,-0.000831797,0.0166026,0.0055073,-0.0752523,0.00976481,0.0464331,580,1198,-46.9164,-3.27074
-637,-174,-46.607,4.48669,0.0105396,0.00419124,-0.0010264,0.0107014,0.00402942,-0.156374,0.00624093,0.028501,587,1198,-46.607,-4.48674
-630,-174,-46.769,5.20154,0.00560894,0.00291081,-0.00142993,0.00622576,0.002294,-0.407245,0.00363566,0.0148577,594,1198,-46.769,-5.2015
-623,-174,-46.7994,5.92969,0.0015718,0.00163026,-0.00219988,0.0038011,-0.000599048,-0.792042,0.00275554,0.0157801,601,1198,-46.7994,-5.92973
-616,-174,-46.8102,6.68213,-0.00188971,0.000323609,-0.00317255,0.00257698,-0.00414308,-0.953211,0.00391479,0.0217981,608,1198,-46.8102,-6.68214
-609,-174,-46.8905,7.4292,-0.00484161,-0.00102367,-0.00436262,0.00182935,-0.00769464,-0.991634,0.00583591,0.0243252,615,1198,-46.8905,-7.4292
-602,-174,-47.0692,8.07031,-0.0073562,-0.00242077,-0.00578828,0.00140388,-0.0111808,-0.986896,0.00796322,0.0327757,622,1198,-47.0692,-8.07028
-595,-174,-46.5652,8.5835,0,0,0,0,0,0,0,-1,629,1198,-46.5653,-8.58348
-588,-174,-47.2314,9.70593,0,0,0,0,0,0,0,-1,636,1198,-47.2314,-9.70591
-581,-174,-47.489,10.4618,0,0,0,0,0,0,0,-1,643,1198,-47.489,-10.4617
-574,-174,-31.7448,7.09595,0,0,0,0,0,0,0,-1,650,1198,-31.7448,-7.09599
-567,-174,-26.6597,3.04041,0,0,0,0,0,0,0,-1,657,1198,-26.6597,-3.04039
-560,-174,-42.6953,1.07178,0,0,0,0,0,0,0,-1,664,1198,-42.6953,-1.07181
-553,-174,-58.7393,0.22998,0,0,0,0,0,0,0,-1,671,1198,-58.7393,-0.230014
-546,-174,-58.8033,0.3396,0,0,0,0,0,0,0,-1,678,1198,-58.8033,-0.339586
-539,-174,-58.9119,0.51062,0,0,0,0,0,0,0,-1,685,1198,-58.9119,-0.510601
-532,-174,-59.0571,0.575928,0,0,0,0,0,0,0,-1,692,1198,-59.0571,-0.575896
-525,-174,-59.092,0.614014,0,0,0,0,0,0,0,-1,699,1198,-59.0921,-0.613975
-518,-174,-59.0176,0.556763,0,0,0,0,0,0,0,-1,706,1198,-59.0176,-0.556756
-511,-174,0,0,0,0,0,0,0,0,0,-1,713,1198,0,0
-504,-174,0,0,0,0,0,0,0,0,0,-1,720,1198,0,0
-497,-174,0,0,0,0,0,0,0,0,0,-1,727,1198,0,0
-490,-174,0,0,0,0,0,0,0,0,0,-1,734,1198,0,0
-483,-174,0,0,0,0,0,0,0,0,0,-1,741,1198,0,0
-476,-174,0,0,0,0,0,0,0,0,0,-1,748,1198,0,0
-469,-174,0,0,0,0,0,0,0,0,0,-1,755,1198,0,0
-462,-174,0,0,0,0,0,0,0,0,0,-1,762,1198,0,0
-455,-174,0,0,0,0,0,0,0,0,0,-1,769,1198,0,0
-448,-174,0,0,0,0,0,0,0,0,0,-1,776,1198,0,0
-441,-174,0,0,0,0,0,0,0,0,0,-1,783,1198,0,0
-434,-174,0,0,0,0,0,0,0,0,0,-1,790,1198,0,0
-427,-174,0,0,0,0,0,0,0,0,0,-1,797,1198,0,0
-420,-174,0,0,0,0,0,0,0,0,0,-1,804,1198,0,0
-413,-174,0,0,0,0,0,0,0,0,0,-1,811,1198,0,0
-406,-174,0,0,0,0,0,0,0,0,0,-1,818,1198,0,0
-399,-174,0,0,0,0,0,0,0,0,0,-1,825,1198,0,0
-392,-174,0,0,0,0,0,0,0,0,0,-1,832,1198,0,0
-385,-174,0,0,0,0,0,0,0,0,0,-1,839,1198,0,0
-378,-174,0,0,0,0,0,0,0,0,0,-1,846,1198,0,0
-371,-174,0,0,0,0,0,0,0,0,0,-1,853,1198,0,0
-364,-174,0,0,0,0,0,0,0,0,0,-1,860,1198,0,0
-357,-174,0,0,0,0,0,0,0,0,0,-1,867,1198,0,0
-350,-174,0,0,0,0,0,0,0,0,0,-1,874,1198,0,0
-343,-174,0,0,0,0,0,0,0,0,0,-1,881,1198,0,0
-336,-174,0,0,0,0,0,0,0,0,0,-1,888,1198,0,0
-329,-174,0,0,0,0,0,0,0,0,0,-1,895,1198,0,0
-322,-174,0,0,0,0,0,0,0,0,0,-1,902,1198,0,0
-315,-174,0,0,0,0,0,0,0,0,0,-1,909,1198,0,0
-308,-174,0,0,0,0,0,0,0,0,0,-1,916,1198,0,0
-301,-174,0,0,0,0,0,0,0,0,0,-1,923,1198,0,0
-294,-174,0,0,0,0,0,0,0,0,0,-1,930,1198,0,0
-287,-174,0,0,0,0,0,0,0,0,0,-1,937,1198,0,0
-280,-174,0,0,0,0,0,0,0,0,0,-1,944,1198,0,0
-273,-174,0,0,0,0,0,0,0,0,0,-1,951,1198,0,0
-266,-174,0,0,0,0,0,0,0,0,0,-1,958,1198,0,0
-259,-174,0,0,0,0,0,0,0,0,0,-1,965,1198,0,0
-252,-174,0,0,0,0,0,0,0,0,0,-1,972,1198,0,0
-245,-174,0,0,0,0,0,0,0,0,0,-1,979,1198,0,0
-238,-174,0,0,0,0,0,0,0,0,0,-1,986,1198,0,0
-231,-174,0,0,0,0,0,0,0,0,0,-1,993,1198,0,0
-224,-174,0,0,0,0,0,0,0,0,0,-1,1000,1198,0,0
-217,-174,0,0,0,0,0,0,0,0,0,-1,1007,1198,0,0
-210,-174,0,0,0,0,0,0,0,0,0,-1,1014,1198,0,0
-203,-174,0,0,0,0,0,0,0,0,0,-1,1021,1198,0,0
-196,-174,0,0,0,0,0,0,0,0,0,-1,1028,1198,0,0
-189,-174,0,0,0,0,0,0,0,0,0,-1,1035,1198,0,0
-182,-174,0,0,0,0,0,0,0,0,0,-1,1042,1198,0,0
-175,-174,0,0,0,0,0,0,0,0,0,-1,1049,1198,0,0
-168,-174,0,0,0,0,0,0,0,0,0,-1,1056,1198,0,0
-161,-174,0,0,0,0,0,0,0,0,0,-1,1063,1198,0,0
-154,-174,0,0,0,0,0,0,0,0,0,-1,1070,1198,0,0
-147,-174,0,0,0,0,0,0,0,0,0,-1,1077,1198,0,0
-140,-174,0,0,0,0,0,0,0,0,0,-1,1084,1198,0,0
-133,-174,0,0,0,0,0,0,0,0,0,-1,1091,1198,0,0
-126,-174,0,0,0,0,0,0,0,0,0,-1,1098,1198,0,0
-119,-174,0,0,0,0,0,0,0,0,0,-1,1105,1198,0,0
-112,-174,0,0,0,0,0,0,0,0,0,-1,1112,1198,0,0
-105,-174,0,0,0,0,0,0,0,0,0,-1,1119,1198,0,0
-98,-174,0,0,0,0,0,0,0,0,0,-1,1126,1198,0,0
-91,-174,0,0,0,0,0,0,0,0,0,-1,1133,1198,0,0
-84,-174,0,0,0,0,0,0,0,0,0,-1,1140,1198,0,0
-77,-174,0,0,0,0,0,0,0,0,0,-1,1147,1198,0,0
-70,-174,0,0,0,0,0,0,0,0,0,-1,1154,1198,0,0
-63,-174,0,0,0,0,0,0,0,0,0,-1,1161,1198,0,0
-56,-174,0,0,0,0,0,0,0,0,0,-1,1168,1198,0,0
-49,-174,0,0,0,0,0,0,0,0,0,-1,1175,1198,0,0
-42,-174,0,0,0,0,0,0,0,0,0,-1,1182,1198,0,0
-35,-174,0,0,0,0,0,0,0,0,0,-1,1189,1198,0,0
-28,-174,0,0,0,0,0,0,0,0,0,-1,1196,1198,0,0
-21,-174,0,0,0,0,0,0,0,0,0,-1,1203,1198,0,0
-14,-174,0,0,0,0,0,0,0,0,0,-1,1210,1198,0,0
-7,-174,0,0,0,0,0,0,0,0,0,-1,1217,1198,0,0
0,-174,0,0,0,0,0,0,0,0,0,-1,1224,1198,0,0
7,-174,0,0,0,0,0,0,0,0,0,-1,1231,1198,0,0
14,-174,0,0,0,0,0,0,0,0,0,-1,1238,1198,0,0
21,-174,0,0,0,0,0,0,0,0,0,-1,1245,1198,0,0
28,-174,0,0,0,0,0,0,0,0,0,-1,1252,1198,0,0
35,-174,0,0,0,0,0,0,0,0,0,-1,1259,1198,0,0
42,-174,0,0,0,0,0,0,0,0,0,-1,1266,1198,0,0
49,-174,0,0,0,0,0,0,0,0,0,-1,1273,1198,0,0
56,-174,0,0,0,0,0,0,0,0,0,-1,1280,1198,0,0
63,-174,0,0,0,0,0,0,0,0,0,-1,1287,1198,0,0
70,-174,0,0,0,0,0,0,0,0,0,-1,1294,1198,0,0
77,-174,0,0,0,0,0,0,0,0,0,-1,1301,1198,0,0
84,-174,0,0,0,0,0,0,0,0,0,-1,1308,1198,0,0
91,-174,0,0,0,0,0,0,0,0,0,-1,1315,1198,0,0
98,-174,0,0,0,0,0,0,0,0,0,-1,1322,1198,0,0
105,-174,0,0,0,0,0,0,0,0,0,-1,1329,1198,0,0
112,-174,0,0,0,0,0,0,0,0,0,-1,1336,1198,0,0
119,-174,0,0,0,0,0,0,0,0,0,-1,1343,1198,0,0
126,-174,0,0,0,0,0,0,0,0,0,-1,1350,1198,0,0
133,-174,0,0,0,0,0,0,0,0,0,-1,1357,1198,0,0
140,-174,0,0,0,0,0,0,0,0,0,-1,1364,1198,0,0
147,-174,0,0,0,0,0,0,0,0,0,-1,1371,1198,0,0
154,-174,0,0,0,0,0,0,0,0,0,-1,1378,1198,0,0
161,-174,0,0,0,0,0,0,0,0,0,-1,1385,1198,0,0
168,-174,0,0,0,0,0,0,0,0,0,-1,1392,1198,0,0
175,-174,0,0,0,0,0,0,0,0,0,-1,1399,1198,0,0
182,-174,0,0,0,0,0,0,0,0,0,-1,1406,1198,0,0
189,-174,0,0,0,0,0,0,0,0,0,-1,1413,1198,0,0
196,-174,0,0,0,0,0,0,0,0,0,-1,1420,1198,0,0
203,-174,0,0,0,0,0,0,0,0,0,-1,1427,1198,0,0
210,-174,0,0,0,0,0,0,0,0,0,-1,1434,1198,0,0
217,-174,0,0,0,0,0,0,0,0,0,-1,1441,1198,0,0
224,-174,0,0,0,0,0,0,0,0,0,-1,1448,1198,0,0
231,-174,0,0,0,0,0,0,0,0,0,-1,1455,1198,0,0
238,-174,0,0,0,0,0,0,0,0,0,-1,1462,1198,0,0
245,-174,0,0,0,0,0,0,0,0,0,-1,1469,1198,0,0
252,-174,0,0,0,0,0,0,0,0,0,-1,1476,1198,0,0
259,-174,0,0,0,0,0,0,0,0,0,-1,1483,1198,0,0
266,-174,0,0,0,0,0,0,0,0,0,-1,1490,1198,0,0
273,-174,0,0,0,0,0,0,0,0,0,-1,1497,1198,0,0
280,-174,0,0,0,0,0,0,0,0,0,-1,1504,1198,0,0
287,-174,0,0,0,0,0,0,0,0,0,-1,1511,1198,0,0
294,-174,0,0,0,0,0,0,0,0,0,-1,1518,1198,0,0
301,-174,0,0,0,0,0,0,0,0,0,-1,1525,1198,0,0
308,-174,0,0,0,0,0,0,0,0,0,-1,1532,1198,0,0
315,-174,0,0,0,0,0,0,0,0,0,-1,1539,1198,0,0
322,-174,0,0,0,0,0,0,0,0,0,-1,1546,1198,0,0
329,-174,0,0,0,0,0,0,0,0,0,-1,1553,1198,0,0
336,-174,0,0,0,0,0,0,0,0,0,-1,1560,1198,0,0
343,-174,0,0,0,0,0,0,0,0,0,-1,1567,1198,0,0
350,-174,0,0,0,0,0,0,0,0,0,-1,1574,1198,0,0
357,-174,0,0,0,0,0,0,0,0,0,-1,1581,1198,0,0
364,-174,0,0,0,0,0,0,0,0,0,-1,1588,1198,0,0
371,-174,0,0,0,0,0,0,0,0,0,-1,1595,1198,0,0
378,-174,0,0,0,0,0,0,0,0,0,-1,1602,1198,0,0
385,-174,0,0,0,0,0,0,0,0,0,-1,1609,1198,0,0
392,-174,0,0,0,0,0,0,0,0,0,-1,1616,1198,0,0
399,-174,0,0,0,0,0,0,0,0,0,-1,1623,1198,0,0
406,-174,0,0,0,0,0,0,0,0,0,-1,1630,1198,0,0
413,-174,0,0,0,0,0,0,0,0,0,-1,1637,1198,0,0
420,-174,0,0,0,0,0,0,0,0,0,-1,1644,1198,0,0
427,-174,0,0,0,0,0,0,0,0,0,-1,1651,1198,0,0
434,-174,0,0,0,0,0,0,0,0,0,-1,1658,1198,0,0
441,-174,0,0,0,0,0,0,0,0,0,-1,1665,1198,0,0
448,-174,0,0,0,0,0,0,0,0,0,-1,1672,1198,0,0
455,-174,0,0,0,0,0,0,0,0,0,-1,1679,1198,0,0
462,-174,0,0,0,0,0,0,0,0,0,-1,1686,1198,0,0
469,-174,0,0,0,0,0,0,0,0,0,-1,1693,1198,0,0
476,-174,0,0,0,0,0,0,0,0,0,-1,1700,1198,0,0
483,-174,0,0,0,0,0,0,0,0,0,-1,1707,1198,0,0
490,-174,0,0,0,0,0,0,0,0,0,-1,1714,1198,0,0
497,-174,0,0,0,0,0,0,0,0,0,-1,1721,1198,0,0
504,-174,0,0,0,0,0,0,0,0,0,-1,1728,1198,0,0
511,-174,0,0,0,0,0,0,0,0,0,-1,1735,1198,0,0
518,-174,0,0,0,0,0,0,0,0,0,-1,1742,1198,0,0
525,-174,0,0,0,0,0,0,0,0,0,-1,1749,1198,0,0
532,-174,0,0,0,0,0,0,0,0,0,-1,1756,1198,0,0
539,-174,0,0,0,0,0,0,0,0,0,-1,1763,1198,0,0
546,-174,0,0,0,0,0,0,0,0,0,-1,1770,1198,0,0
553,-174,0,0,0,0,0,0,0,0,0,-1,1777,1198,0,0
560,-174,0,0,0,0,0,0,0,0,0,-1,1784,1198,0,0
567,-174,0,0,0,0,0,0,0,0,0,-1,1791,1198,0,0
574,-174,0,0,0,0,0,0,0,0,0,-1,1798,1198,0,0
581,-174,0,0,0,0,0,0,0,0,0,-1,1805,1198,0,0
588,-174,0,0,0,0,0,0,0,0,0,-1,1812,1198,0,0
595,-174,0,0,0,0,0,0,0,0,0,-1,1819,1198,0,0
602,-174,0,0,0,0,0,0,0,0,0,-1,1826,1198,0,0
609,-174,0,0,0,0,0,0,0,0,0,-1,1833,1198,0,0
616,-174,0,0,0,0,0,0,0,0,0,-1,1840,1198,0,0
623,-174,0,0,0,0,0,0,0,0,0,-1,1847,1198,0,0
630,-174,0,0,0,0,0,0,0,0,0,-1,1854,1198,0,0
637,-174,74.7156,2.3562,0,0,0,0,0,0,0,-1,1861,1198,74.7156,-2.35618
644,-174,75.093,2.17236,0,0,0,0,0,0,0,-1,1868,1198,75.093,-2.17233
651,-174,75.5354,2.31982,0.00214656,0.000672487,0.00158554,0.003158,-0.000338954,0.567832,0.00222693,0.0408039,1875,1198,75.5354,-2.31988
658,-174,75.5186,2.34888,0.00198988,0.00103791,0.000457041,0.00217378,0.000854006,0.382547,0.0012646,0.0419282,1882,1198,75.5186,-2.34886
665,-174,75.5802,2.41943,0.00179639,0.00134592,-0.00030296,0.00194867,0.00119364,-0.465752,0.00113452,0.0367432,1889,1198,75.5802,-2.41947
672,-174,75.5647,2.34802,0.00168136,0.00187933,-0.000729026,0.00251606,0.00104463,-0.852873,0.0014596,0.0276048,1896,1198,75.5647,-2.34806
679,-174,75.614,2.27942,0.00165746,0.00205306,-0.000800746,0.00268008,0.00103045,-0.906486,0.00156105,0.0258231,1903,1198,75.6141,-2.27947
686,-174,75.5842,2.17114,0,0,0,0,0,0,0,-1,1910,1198,75.5843,-2.17112
693,-174,51.1324,2.57349,0,0,0,0,0,0,0,-1,1917,1198,51.1325,-2.57343
700,-174,25.4004,6.11792,0,0,0,0,0,0,0,-1,1924,1198,25.4004,-6.11797
707,-174,34.7908,7.34473,0,0,0,0,0,0,0,-1,1931,1198,34.7908,-7.34475
714,-174,40.1135,7.79871,0,0,0,0,0,0,0,-1,1938,1198,40.1135,-7.79875
721,-174,40.8693,7.59863,0,0,0,0,0,0,0,-1,1945,1198,40.8693,-7.59859
728,-174,62.6705,9.87854,0,0,0,0,0,0,0,-1,1952,1198,62.6705,-9.87852
735,-174,62.8158,9.23999,0.0022085,0.0025406,0.000592287,0.00298968,0.00175943,0.922066,0.00173508,0.0257237,1959,1198,62.8158,-9.24003
742,-174,62.9056,8.48657,0.00209751,0.0024322,0.00109865,0.00337617,0.00115354,0.860978,0.00198154,0.0212734,1966,1198,62.9056,-8.48653
749,-174,62.9047,7.76392,0.00155852,0.00213716,0.00154508,0.00341978,0.000275906,0.877953,0.00219368,0.0182833,1973,1198,62.9047,-7.76392
756,-174,62.874,7.0675,0.00112837,0.00172422,0.00184005,0.00329031,-0.000437723,0.865657,0.00235305,0.0111317,1980,1198,62.874,-7.06745
763,-174,62.8325,6.39355,0.000993722,0.0010432,0.0018415,0.00286013,-0.000823202,0.792115,0.00223233,0.0189981,1987,1198,62.8326,-6.39353
770,-174,62.8525,5.67407,0,0,0,0,0,0,0,-1,1994,1198,62.8526,-5.6741
777,-174,63.2866,4.44592,0,0,0,0,0,0,0,-1,2001,1198,63.2866,-4.44593
784,-174,66.8398,5.16162,0,0,0,0,0,0,0,-1,2008,1198,66.8399,-5.16161
791,-174,66.0564,4.69263,0,0,0,0,0,0,0,-1,2015,1198,66.0563,-4.69261
798,-174,64.6868,1.87598,0,0,0,0,0,0,0,-1,2022,1198,64.6868,-1.87599
805,-174,64.5339,1.82703,0,0,0,0,0,0,0,-1,2029,1198,64.534,-1.827
812,-174,0,0,0,0,0,0,0,0,0,-1,2036,1198,0,0
-700,-181,0,0,0,0,0,0,0,0,0,-1,524,1205,0,0
-693,-181,0,0,0,0,0,0,0,0,0,-1,531,1205,0,0
-686,-181,-49.2365,-1.62427,0,0,0,0,0,0,0,-1,538,1205,-49.2365,1.6243
-679,-181,-48.5222,-1.17444,0,0,0,0,0,0,0,-1,545,1205,-48.5222,1.1745
-672,-181,-47.9487,-0.479126,0,0,0,0,0,0,0,-1,552,1205,-47.9487,0.479112
-665,-181,-47.2073,-0.102661,0,0,0,0,0,0,0,-1,559,1205,-47.2073,0.102661
-658,-181,-47.3215,2.04736,0,0,0,0,0,0,0,-1,566,1205,-47.3215,-2.04735
-651,-181,-46.8747,2.63782,0,0,0,0,0,0,0,-1,573,1205,-46.8747,-2.63785
-644,-181,-46.3728,3.39502,0.0175503,0.00455509,-0.000911915,0.017614,0.00449141,-0.0697177,0.0105686,0.045714,580,1205,-46.3728,-3.39503
-637,-181,-45.8953,4.50732,0.0115369,0.00366154,-0.00101261,0.011665,0.00353343,-0.125852,0.00690701,0.0288975,587,1205,-45.8953,-4.50737
-630,-181,-46.0422,5.23535,0.006678,0.00269882,-0.0012218,0.00702321,0.00235362,-0.275361,0.00412768,0.015682,594,1205,-46.0422,-5.2353
-623,-181,-46.0737,5.96741,0.00281221,0.00162606,-0.00182636,0.00413938,0.000298897,-0.628404,0.00266555,0.0166553,601,1205,-46.0737,-5.96737
-616,-181,-46.0928,6.70215,-0.000466351,0.000454681,-0.00261421,0.00264863,-0.0026603,-0.872583,0.00306511,0.0159973,608,1205,-46.0928,-6.70209
-609,-181,-46.1481,7.47241,-0.00322344,-0.000809333,-0.00360752,0.00178771,-0.00582049,-0.946841,0.00459368,0.0155803,615,1205,-46.1481,-7.47237
-602,-181,-46.0995,8.27307,-0.00552583,-0.00215659,-0.00483256,0.00127657,-0.00895898,-0.95311,0.00644049,0.0308056,622,1205,-46.0996,-8.27311
-595,-181,-45.7666,9.05908,0,0,0,0,0,0,0,-1,629,1205,-45.7666,-9.05904
-588,-181,-46.4617,9.70276,-0.00742909,-0.00539452,-0.008353,0.00200292,-0.0148265,-0.845993,0.0106152,0.0392866,636,1205,-46.4617,-9.7028
-581,-181,-46.6641,10.396,-0.00754024,-0.00708808,-0.0106655,0.00335374,-0.0179821,-0.795995,0.0132482,0.0476968,643,1205,-46.6641,-10.3959
-574,-181,-45.9885,11.0858,0,0,0,0,0,0,0,-1,650,1205,-45.9885,-11.0858
-567,-181,-25.8839,3.34485,0,0,0,0,0,0,0,-1,657,1205,-25.8839,-3.3449
-560,-181,-31.7396,1.63306,0,0,0,0,0,0,0,-1,664,1205,-31.7396,-1.63303
-553,-181,-57.8761,0.527832,0,0,0,0,0,0,0,-1,671,1205,-57.8761,-0.527787
-546,-181,-58.7687,0.319702,0,0,0,0,0,0,0,-1,678,1205,-58.7687,-0.319749
-539,-181,-58.8093,0.419312,0,0,0,0,0,0,0,-1,685,1205,-58.8093,-0.419365
-532,-181,-58.9459,0.448608,0,0,0,0,0,0,0,-1,692,1205,-58.9459,-0.448609
-525,-181,-58.8802,0.48877,0,0,0,0,0,0,0,-1,699,1205,-58.8802,-0.488828
-518,-181,-58.7484,0.490112,0,0,0,0,0,0,0,-1,706,1205,-58.7484,-0.490064
-511,-181,0,0,0,0,0,0,0,0,0,-1,713,1205,0,0
-504,-181,0,0,0,0,0,0,0,0,0,-1,720,1205,0,0
-497,-181,0,0,0,0,0,0,0,0,0,-1,727,1205,0,0
-490,-181,0,0,0,0,0,0,0,0,0,-1,734,1205,0,0
-483,-181,0,0,0,0,0,0,0,0,0,-1,741,1205,0,0
-476,-181,0,0,0,0,0,0,0,0,0,-1,748,1205,0,0
-469,-181,0,0,0,0,0,0,0,0,0,-1,755,1205,0,0
-462,-181,0,0,0,0,0,0,0,0,0,-1,762,1205,0,0
-455,-181,0,0,0,0,0,0,0,0,0,-1,769,1205,0,0
-448,-181,0,0,0,0,0,0,0,0,0,-1,776,1205,0,0
-441,-181,0,0,0,0,0,0,0,0,0,-1,783,1205,0,0
-434,-181,0,0,0,0,0,0,0,0,0,-1,790,1205,0,0
-427,-181,0,0,0,0,0,0,0,0,0,-1,797,1205,0,0
-420,-181,0,0,0,0,0,0,0,0,0,-1,804,1205,0,0
-413,-181,0,0,0,0,0,0,0,0,0,-1,811,1205,0,0
-406,-181,0,0,0,0,0,0,0,0,0,-1,818,1205,0,0
-399,-181,0,0,0,0,0,0,0,0,0,-1,825,1205,0,0
-392,-181,0,0,0,0,0,0,0,0,0,-1,832,1205,0,0
-385,-181,0,0,0,0,0,0,0,0,0,-1,839,1205,0,0
-378,-181,0,0,0,0,0,0,0,0,0,-1,846,1205,0,0
-371,-181,0,0,0,0,0,0,0,0,0,-1,853,1205,0,0
-364,-181,0,0,0,0,0,0,0,0,0,-1,860,1205,0,0
-357,-181,0,0,0,0,0,0,0,0,0,-1,867,1205,0,0
-350,-181,0,0,0,0,0,0,0,0,0,-1,874,1205,0,0
-343,-181,0,0,0,0,0,0,0,0,0,-1,881,1205,0,0
-336,-181,0,0,0,0,0,0,0,0,0,-1,888,1205,0,0
-329,-181,0,0,0,0,0,0,0,0,0,-1,895,1205,0,0
-322,-181,0,0,0,0,0,0,0,0,0,-1,902,1205,0,0
-315,-181,0,0,0,0,0,0,0,0,0,-1,909,1205,0,0
-308,-181,0,0,0,0,0,0,0,0,0,-1,916,1205,0,0
-301,-181,0,0,0,0,0,0,0,0,0,-1,923,1205,0,0
-294,-181,0,0,0,0,0,0,0,0,0,-1,930,1205,0,0
-287,-181,0,0,0,0,0,0,0,0,0,-1,937,1205,0,0
-280,-181,0,0,0,0,0,0,0,0,0,-1,944,1205,0,0
-273,-181,0,0,0,0,0,0,0,0,0,-1,951,1205,0,0
-266,-181,0,0,0,0,0,0,0,0,0,-1,958,1205,0,0
-259,-181,0,0,0,0,0,0,0,0,0,-1,965,1205,0,0
-252,-181,0,0,0,0,0,0,0,0,0,-1,972,1205,0,0
-245,-181,0,0,0,0,0,0,0,0,0,-1,979,1205,0,0
-238,-181,0,0,0,0,0,0,0,0,0,-1,986,1205,0,0
-231,-181,0,0,0,0,0,0,0,0,0,-1,993,1205,0,0
-224,-181,0,0,0,0,0,0,0,0,0,-1,1000,1205,0,0
-217,-181,0,0,0,0,0,0,0,0,0,-1,1007,1205,0,0
-210,-181,0,0,0,0,0,0,0,0,0,-1,1014,1205,0,0
-203,-181,0,0,0,0,0,0,0,0,0,-1,1021,1205,0,0
-196,-181,0,0,0,0,0,0,0,0,0,-1,1028,1205,0,0
-189,-181,0,0,0,0,0,0,0,0,0,-1,1035,1205,0,0
-182,-181,0,0,0,0,0,0,0,0,0,-1,1042,1205,0,0
-175,-181,0,0,0,0,0,0,0,0,0,-1,1049,1205,0,0
-168,-181,0,0,0,0,0,0,0,0,0,-1,1056,1205,0,0
-161,-181,0,0,0,0,0,0,0,0,0,-1,1063,1205,0,0
-154,-181,0,0,0,0,0,0,0,0,0,-1,1070,1205,0,0
-147,-181,0,0,0,0,0,0,0,0,0,-1,1077,1205,0,0
-140,-181,0,0,0,0,0,0,0,0,0,-1,1084,1205,0,0
-133,-181,0,0,0,0,0,0,0,0,0,-1,1091,1205,0,0
-126,-181,0,0,0,0,0,0,0,0,0,-1,1098,1205,0,0
-119,-181,0,0,0,0,0,0,0,0,0,-1,1105,1205,0,0
-112,-181,0,0,0,0,0,0,0,0,0,-1,1112,1205,0,0
-105,-181,0,0,0,0,0,0,0,0,0,-1,1119,1205,0,0
-98,-181,0,0,0,0,0,0,0,0,0,-1,1126,1205,0,0
-91,-181,0,0,0,0,0,0,0,0,0,-1,1133,1205,0,0
-84,-181,0,0,0,0,0,0,0,0,0,-1,1140,1205,0,0
-77,-181,0,0,0,0,0,0,0,0,0,-1,1147,1205,0,0
-70,-181,0,0,0,0,0,0,0,0,0,-1,1154,1205,0,0
-63,-181,0,0,0,0,0,0,0,0,0,-1,1161,1205,0,0
-56,-181,0,0,0,0,0,0,0,0,0,-1,1168,1205,0,0
-49,-181,0,0,0,0,0,0,0,0,0,-1,1175,1205,0,0
-42,-181,0,0,0,0,0,0,0,0,0,-1,1182,1205,0,0
-35,-181,0,0,0,0,0,0,0,0,0,-1,1189,1205,0,0
-28,-181,0,0,0,0,0,0,0,0,0,-1,1196,1205,0,0
-21,-181,0,0,0,0,0,0,0,0,0,-1,1203,1205,0,0
-14,-181,0,0,0,0,0,0,0,0,0,-1,1210,1205,0,0
-7,-181,0,0,0,0,0,0,0,0,0,-1,1217,1205,0,0
0,-181,0,0,0,0,0,0,0,0,0,-1,1224,1205,0,0
7,-181,0,0,0,0,0,0,0,0,0,-1,1231,1205,0,0
14,-181,0,0,0,0,0,0,0,0,0,-1,1238,1205,0,0
21,-181,0,0,0,0,0,0,0,0,0,-1,1245,1205,0,0
28,-181,0,0,0,0,0,0,0,0,0,-1,1252,1205,0,0
35,-181,0,0,0,0,0,0,0,0,0,-1,1259,1205,0,0
42,-181,0,0,0,0,0,0,0,0,0,-1,1266,1205,0,0
49,-181,0,0,0,0,0,0,0,0,0,-1,1273,1205,0,0
56,-181,0,0,0,0,0,0,0,0,0,-1,1280,1205,0,0
63,-181,0,0,0,0,0,0,0,0,0,-1,1287,1205,0,0
70,-181,0,0,0,0,0,0,0,0,0,-1,1294,1205,0,0
77,-181,0,0,0,0,0,0,0,0,0,-1,1301,1205,0,0
84,-181,0,0,0,0,0,0,0,0,0,-1,1308,1205,0,0
91,-181,0,0,0,0,0,0,0,0,0,-1,1315,1205,0,0
98,-181,0,0,0,0,0,0,0,0,0,-1,1322,1205,0,0
105,-181,0,0,0,0,0,0,0,0,0,-1,1329,1205,0,0
112,-181,0,0,0,0,0,0,0,0,0,-1,1336,1205,0,0
119,-181,0,0,0,0,0,0,0,0,0,-1,1343,1205,0,0
126,-181,0,0,0,0,0,0,0,0,0,-1,1350,1205,0,0
133,-181,0,0,0,0,0,0,0,0,0,-1,1357,1205,0,0
140,-181,0,0,0,0,0,0,0,0,0,-1,1364,1205,0,0
147,-181,0,0,0,0,0,0,0,0,0,-1,1371,1205,0,0
154,-181,0,0,0,0,0,0,0,0,0,-1,1378,1205,0,0
161,-181,0,0,0,0,0,0,0,0,0,-1,1385,1205,0,0
168,-181,0,0,0,0,0,0,0,0,0,-1,1392,1205,0,0
175,-181,0,0,0,0,0,0,0,0,0,-1,1399,1205,0,0
182,-181,0,0,0,0,0,0,0,0,0,-1,1406,1205,0,0
189,-181,0,0,0,0,0,0,0,0,0,-1,1413,1205,0,0
196,-181,0,0,0,0,0,0,0,0,0,-1,1420,1205,0,0
203,-181,0,0,0,0,0,0,0,0,0,-1,1427,1205,0,0
210,-181,0,0,0,0,0,0,0,0,0,-1,1434,1205,0,0
217,-181,0,0,0,0,0,0,0,0,0,-1,1441,1205,0,0
224,-181,0,0,0,0,0,0,0,0,0,-1,1448,1205,0,0
231,-181,0,0,0,0,0,0,0,0,0,-1,1455,1205,0,0
238,-181,0,0,0,0,0,0,0,0,0,-1,1462,1205,0,0
245,-181,0,0,0,0,0,0,0,0,0,-1,1469,1205,0,0
252,-181,0,0,0,0,0,0,0,0,0,-1,1476,1205,0,0
259,-181,0,0,0,0,0,0,0,0,0,-1,1483,1205,0,0
266,-181,0,0,0,0,0,0,0,0,0,-1,1490,1205,0,0
273,-181,0,0,0,0,0,0,0,0,0,-1,1497,1205,0,0
280,-181,0,0,0,0,0,0,0,0,0,-1,1504,1205,0,0
287,-181,0,0,0,0,0,0,0,0,0,-1,1511,1205,0,0
294,-181,0,0,0,0,0,0,0,0,0,-1,1518,1205,0,0
301,-181,0,0,0,0,0,0,0,0,0,-1,1525,1205,0,0
308,-181,0,0,0,0,0,0,0,0,0,-1,1532,1205,0,0
315,-181,0,0,0,0,0,0,0,0,0,-1,1539,1205,0,0
322,-181,0,0,0,0,0,0,0,0,0,-1,1546,1205,0,0
329,-181,0,0,0,0,0,0,0,0,0,-1,1553,1205,0,0
336,-181,0,0,0,0,0,0,0,0,0,-1,1560,1205,0,0
343,-181,0,0,0,0,0,0,0,0,0,-1,1567,1205,0,0
350,-181,0,0,0,0,0,0,0,0,0,-1,1574,1205,0,0
357,-181,0,0,0,0,0,0,0,0,0,-1,1581,1205,0,0
364,-181,0,0,0,0,0,0,0,0,0,-1,1588,1205,0,0
371,-181,0,0,0,0,0,0,0,0,0,-1,1595,1205,0,0
378,-181,0,0,0,0,0,0,0,0,0,-1,1602,1205,0,0
385,-181,0,0,0,0,0,0,0,0,0,-1,1609,1205,0,0
392,-181,0,0,0,0,0,0,0,0,0,-1,1616,1205,0,0
399,-181,0,0,0,0,0,0,0,0,0,-1,1623,1205,0,0
406,-181,0,0,0,0,0,0,0,0,0,-1,1630,1205,0,0
413,-181,0,0,0,0,0,0,0,0,0,-1,1637,1205,0,0
420,-181,0,0,0,0,0,0,0,0,0,-1,1644,1205,0,0
427,-181,0,0,0,0,0,0,0,0,0,-1,1651,1205,0,0
434,-181,0,0,0,0,0,0,0,0,0,-1,1658,1205,0,0
441,-181,0,0,0,0,0,0,0,0,0,-1,1665,1205,0,0
448,-181,0,0,0,0,0,0,0,0,0,-1,1672,1205,0,0
455,-181,0,0,0,0,0,0,0,0,0,-1,1679,1205,0,0
462,-181,0,0,0,0,0,0,0,0,0,-1,1686,1205,0,0
469,-181,0,0,0,0,0,0,0,0,0,-1,1693,1205,0,0
476,-181,0,0,0,0,0,0,0,0,0,-1,1700,1205,0,0
483,-181,0,0,0,0,0,0,0,0,0,-1,1707,1205,0,0
490,-181,0,0,0,0,0,0,0,0,0,-1,1714,1205,0,0
497,-181,0,0,0,0,0,0,0,0,0,-1,1721,1205,0,0
504,-181,0,0,0,0,0,0,0,0,0,-1,1728,1205,0,0
511,-181,0,0,0,0,0,0,0,0,0,-1,1735,1205,0,0
518,-181,0,0,0,0,0,0,0,0,0,-1,1742,1205,0,0
525,-181,0,0,0,0,0,0,0,0,0,-1,1749,1205,0,0
532,-181,0,0,0,0,0,0,0,0,0,-1,1756,1205,0,0
539,-181,0,0,0,0,0,0,0,0,0,-1,1763,1205,0,0
546,-181,0,0,0,0,0,0,0,0,0,-1,1770,1205,0,0
553,-181,0,0,0,0,0,0,0,0,0,-1,1777,1205,0,0
560,-181,0,0,0,0,0,0,0,0,0,-1,1784,1205,0,0
567,-181,0,0,0,0,0,0,0,0,0,-1,1791,1205,0,0
574,-181,0,0,0,0,0,0,0,0,0,-1,1798,1205,0,0
581,-181,0,0,0,0,0,0,0,0,0,-1,1805,1205,0,0
588,-181,0,0,0,0,0,0,0,0,0,-1,1812,1205,0,0
595,-181,0,0,0,0,0,0,0,0,0,-1,1819,1205,0,0
602,-181,0,0,0,0,0,0,0,0,0,-1,1826,1205,0,0
609,-181,0,0,0,0,0,0,0,0,0,-1,1833,1205,0,0
616,-181,0,0,0,0,0,0,0,0,0,-1,1840,1205,0,0
623,-181,0,0,0,0,0,0,0,0,0,-1,1847,1205,0,0
630,-181,75.6884,2.47424,0.00185026,-0.000198063,0.00470614,0.00564239,-0.00399019,0.678258,0.00558857,0.0390172,1854,1205,75.6884,-2.47427
637,-181,75.7526,2.4375,0.0017585,-7.74753e-06,0.00362234,0.00460381,-0.00285306,0.665831,0.0043446,0.0390742,1861,1205,75.7526,-2.43752
644,-181,75.6862,2.54395,0.0017044,0.000344128,0.00234665,0.00346749,-0.00141896,0.644347,0.00290266,0.0406795,1868,1205,75.6861,-2.54398
651,-181,75.6656,2.63586,0.00176466,0.000825302,0.000910431,0.00231942,0.000270537,0.547261,0.00146446,0.0405162,1875,1205,75.6657,-2.63589
658,-181,75.6772,2.54871,0.00175826,0.00120145,-0.000241651,0.00184851,0.0011112,-0.357419,0.00107449,0.0368732,1882,1205,75.6773,-2.54875
665,-181,75.5873,2.4613,0.00160771,0.001378,-0.000767745,0.00226914,0.000716562,-0.711149,0.0013394,0.0331565,1889,1205,75.5873,-2.46136
672,-181,75.568,2.39294,0.00151147,0.00176232,-0.000874937,0.00252078,0.000753014,-0.856592,0.00149416,0.0252027,1896,1205,75.568,-2.39295
679,-181,75.6486,2.31738,0.00142653,0.00179961,-0.000734242,0.00237063,0.0008555,-0.909794,0.00138624,0.040886,1903,1205,75.6486,-2.31735
686,-181,75.7288,2.23267,0,0,0,0,0,0,0,-1,1910,1205,75.7287,-2.23272
693,-181,36.1301,2.91016,0,0,0,0,0,0,0,-1,1917,1205,36.1302,-2.9102
700,-181,29.5845,6.58398,0,0,0,0,0,0,0,-1,1924,1205,29.5844,-6.58395
707,-181,55.4949,10.6722,0,0,0,0,0,0,0,-1,1931,1205,55.4949,-10.6722
714,-181,55.6268,10.3521,0,0,0,0,0,0,0,-1,1938,1205,55.6268,-10.3521
721,-181,51.2217,9.59631,0,0,0,0,0,0,0,-1,1945,1205,51.2217,-9.59637
728,-181,62.2354,9.87695,0,0,0,0,0,0,0,-1,1952,1205,62.2354,-9.877
735,-181,62.2319,9.17957,0.00176231,0.00262556,0.000570491,0.00290931,0.00147856,1.10925,0.00167976,0.0172904,1959,1205,62.232,-9.17959
742,-181,62.2051,8.51868,0.0017159,0.00240693,0.00103454,0.00315213,0.000970705,0.946565,0.00186409,0.0181965,1966,1205,62.2051,-8.51866
749,-181,62.1736,7.79956,0.00134989,0.00190039,0.00152491,0.00317469,7.55922e-05,0.874688,0.00209172,0.0164782,1973,1205,62.1736,-7.79956
756,-181,62.1575,7.08508,0.00105617,0.00125615,0.0019013,0.00306009,-0.000747768,0.811669,0.00232967,0.0117124,1980,1205,62.1574,-7.08508
763,-181,62.1709,6.38269,0.000928176,0.000304383,0.00205221,0.00269206,-0.0014595,0.709985,0.00243186,0.0187089,1987,1205,62.171,-6.38275
770,-181,62.2798,5.66162,0,0,0,0,0,0,0,-1,1994,1205,62.2799,-5.66163
777,-181,69.6453,-1.67188,0,0,0,0,0,0,0,-1,2001,1205,69.6452,1.6719
784,-181,68.8472,-0.41748,0,0,0,0,0,0,0,-1,2008,1205,68.8471,0.417431
791,-181,67.9812,0.871338,0,0,0,0,0,0,0,-1,2015,1205,67.9812,-0.871396
798,-181,64.188,1.08887,0,0,0,0,0,0,0,-1,2022,1205,64.1879,-1.08881
805,-181,0,0,0,0,0,0,0,0,0,-1,2029,1205,0,0
812,-181,0,0,0,0,0,0,0,0,0,-1,2036,1205,0,0
-700,-188,0,0,0,0,0,0,0,0,0,-1,524,1212,0,0
-693,-188,0,0,0,0,0,0,0,0,0,-1,531,1212,0,0
-686,-188,0,0,0,0,0,0,0,0,0,-1,538,1212,0,0
-679,-188,-46.9528,-1.55603,0,0,0,0,0,0,0,-1,545,1212,-46.9528,1.55597
-672,-188,-46.3356,-0.943481,0,0,0,0,0,0,0,-1,552,1212,-46.3356,0.943515
-665,-188,-45.5416,-0.463135,0,0,0,0,0,0,0,-1,559,1212,-45.5416,0.46319
-658,-188,-45.9207,0.780396,0,0,0,0,0,0,0,-1,566,1212,-45.9206,-0.780444
-651,-188,-45.8575,3.19202,0,0,0,0,0,0,0,-1,573,1212,-45.8575,-3.19198
-644,-188,-45.6425,3.83899,0.0181751,0.00343327,-0.00135327,0.0182982,0.00331008,-0.0907871,0.0112589,0.0456729,580,1212,-45.6425,-3.83902
-637,-188,-45.295,4.5741,0.0121492,0.0030421,-0.00115659,0.0122938,0.00289751,-0.124369,0.00742104,0.0251199,587,1212,-45.295,-4.57413
-630,-188,-45.2789,5.28345,0.00742634,0.002432,-0.00107257,0.00764694,0.0022114,-0.202843,0.00454389,0.011915,594,1212,-45.2788,-5.28348
-623,-188,-45.3074,6.01367,0.00384584,0.00160622,-0.0015157,0.00461053,0.000841538,-0.467249,0.00283511,0.0119437,601,1212,-45.3074,-6.01368
-616,-188,-45.3242,6.73853,0.000888429,0.000626915,-0.00217289,0.0029345,-0.00141915,-0.755346,0.00256383,0.011445,608,1212,-45.3242,-6.73855
-609,-188,-45.3411,7.51294,-0.00152211,-0.000481785,-0.00306046,0.0021024,-0.00410629,-0.869575,0.0036463,0.0139751,615,1212,-45.341,-7.51295
-602,-188,-45.3168,8.33154,-0.00345206,-0.00169986,-0.0041996,0.00171405,-0.00686597,-0.888231,0.0052429,0.0293358,622,1212,-45.3168,-8.33149
-595,-188,-45.2123,9.29785,0,0,0,0,0,0,0,-1,629,1212,-45.2123,-9.29781
-588,-188,-45.7217,9.78601,-0.00486086,-0.0047031,-0.00757323,0.00279166,-0.0123556,-0.790606,0.00930823,0.0292433,636,1212,-45.7217,-9.78605
-581,-188,-45.7795,10.4608,-0.0046078,-0.00628141,-0.00979743,0.0043885,-0.0152777,-0.742796,0.0119204,0.0328184,643,1212,-45.7795,-10.4609
-574,-188,-45.8242,11.084,0,0,0,0,0,0,0,-1,650,1212,-45.8242,-11.084
-567,-188,-19.5786,4.10388,0,0,0,0,0,0,0,-1,657,1212,-19.5785,-4.10383
-560,-188,-23.9507,0.416626,0,0,0,0,0,0,0,-1,664,1212,-23.9508,-0.416602
-553,-188,-49.2368,1.03101,0,0,0,0,0,0,0,-1,671,1212,-49.2367,-1.03099
-546,-188,-58.6463,0.170166,0,0,0,0,0,0,0,-1,678,1212,-58.6463,-0.170182
-539,-188,-58.7212,0.314697,0,0,0,0,0,0,0,-1,685,1212,-58.7212,-0.314713
-532,-188,-58.7319,0.281616,0,0,0,0,0,0,0,-1,692,1212,-58.7319,-0.281619
-525,-188,-58.7063,0.359009,0,0,0,0,0,0,0,-1,699,1212,-58.7063,-0.359004
-518,-188,-58.7213,0.56189,0,0,0,0,0,0,0,-1,706,1212,-58.7213,-0.561937
-511,-188,-58.7386,0.406128,0,0,0,0,0,0,0,-1,713,1212,-58.7386,-0.406097
-504,-188,0,0,0,0,0,0,0,0,0,-1,720,1212,0,0
-497,-188,0,0,0,0,0,0,0,0,0,-1,727,1212,0,0
-490,-188,0,0,0,0,0,0,0,0,0,-1,734,1212,0,0
-483,-188,0,0,0,0,0,0,0,0,0,-1,741,1212,0,0
-476,-188,0,0,0,0,0,0,0,0,0,-1,748,1212,0,0
-469,-188,0,0,0,0,0,0,0,0,0,-1,755,1212,0,0
-462,-188,0,0,0,0,0,0,0,0,0,-1,762,1212,0,0
-455,-188,0,0,0,0,0,0,0,0,0,-1,769,1212,0,0
-448,-188,0,0,0,0,0,0,0,0,0,-1,776,1212,0,0
-441,-188,0,0,0,0,0,0,0,0,0,-1,783,1212,0,0
-434,-188,0,0,0,0,0,0,0,0,0,-1,790,1212,0,0
-427,-188,0,0,0,0,0,0,0,0,0,-1,797,1212,0,0
-420,-188,0,0,0,0,0,0,0,0,0,-1,804,1212,0,0
-413,-188,0,0,0,0,0,0,0,0,0,-1,811,1212,0,0
-406,-188,0,0,0,0,0,0,0,0,0,-1,818,1212,0,0
-399,-188,0,0,0,0,0,0,0,0,0,-1,825,1212,0,0
-392,-188,0,0,0,0,0,0,0,0,0,-1,832,1212,0,0
-385,-188,0,0,0,0,0,0,0,0,0,-1,839,1212,0,0
-378,-188,0,0,0,0,0,0,0,0,0,-1,846,1212,0,0
-371,-188,0,0,0,0,0,0,0,0,0,-1,853,1212,0,0
-364,-188,0,0,0,0,0,0,0,0,0,-1,860,1212,0,0
-357,-188,0,0,0,0,0,0,0,0,0,-1,867,1212,0,0
-350,-188,0,0,0,0,0,0,0,0,0,-1,874,1212,0,0
-343,-188,0,0,0,0,0,0,0,0,0,-1,881,1212,0,0
-336,-188,0,0,0,0,0,0,0,0,0,-1,888,1212,0,0
-329,-188,0,0,0,0,0,0,0,0,0,-1,895,1212,0,0
-322,-188,0,0,0,0,0,0,0,0,0,-1,902,1212,0,0
-315,-188,0,0,0,0,0,0,0,0,0,-1,909,1212,0,0
-308,-188,0,0,0,0,0,0,0,0,0,-1,916,1212,0,0
-301,-188,0,0,0,0,0,0,0,0,0,-1,923,1212,0,0
-294,-188,0,0,0,0,0,0,0,0,0,-1,930,1212,0,0
-287,-188,0,0,0,0,0,0,0,0,0,-1,937,1212,0,0
-280,-188,0,0,0,0,0,0,0,0,0,-1,944,1212,0,0
-273,-188,0,0,0,0,0,0,0,0,0,-1,951,1212,0,0
-266,-188,0,0,0,0,0,0,0,0,0,-1,958,1212,0,0
-259,-188,0,0,0,0,0,0,0,0,0,-1,965,1212,0,0
-252,-188,0,0,0,0,0,0,0,0,0,-1,972,1212,0,0
-245,-188,0,0,0,0,0,0,0,0,0,-1,979,1212,0,0
-238,-188,0,0,0,0,0,0,0,0,0,-1,986,1212,0,0
-231,-188,0,0,0,0,0,0,0,0,0,-1,993,1212,0,0
-224,-188,0,0,0,0,0,0,0,0,0,-1,1000,1212,0,0
-217,-188,0,0,0,0,0,0,0,0,0,-1,1007,1212,0,0
-210,-188,0,0,0,0,0,0,0,0,0,-1,1014,1212,0,0
-203,-188,0,0,0,0,0,0,0,0,0,-1,1021,1212,0,0
-196,-188,0,0,0,0,0,0,0,0,0,-1,1028,1212,0,0
-189,-188,0,0,0,0,0,0,0,0,0,-1,1035,1212,0,0
-182,-188,0,0,0,0,0,0,0,0,0,-1,1042,1212,0,0
-175,-188,0,0,0,0,0,0,0,0,0,-1,1049,1212,0,0
-168,-188,0,0,0,0,0,0,0,0,0,-1,1056,1212,0,0
-161,-188,0,0,0,0,0,0,0,0,0,-1,1063,1212,0,0
-154,-188,0,0,0,0,0,0,0,0,0,-1,1070,1212,0,0
-147,-188,0,0,0,0,0,0,0,0,0,-1,1077,1212,0,0
-140,-188,0,0,0,0,0,0,0,0,0,-1,1084,1212,0,0
-133,-188,0,0,0,0,0,0,0,0,0,-1,1091,1212,0,0
-126,-188,0,0,0,0,0,0,0,0,0,-1,1098,1212,0,0
-119,-188,0,0,0,0,0,0,0,0,0,-1,1105,1212,0,0
-112,-188,0,0,0,0,0,0,0,0,0,-1,1112,1212,0,0
-105,-188,0,0,0,0,0,0,0,0,0,-1,1119,1212,0,0
-98,-188,0,0,0,0,0,0,0,0,0,-1,1126,1212,0,0
-91,-188,0,0,0,0,0,0,0,0,0,-1,1133,1212,0,0
-84,-188,0,0,0,0,0,0,0,0,0,-1,1140,1212,0,0
-77,-188,0,0,0,0,0,0,0,0,0,-1,1147,1212,0,0
-70,-188,0,0,0,0,0,0,0,0,0,-1,1154,1212,0,0
-63,-188,0,0,0,0,0,0,0,0,0,-1,1161,1212,0,0
-56,-188,0,0,0,0,0,0,0,0,0,-1,1168,1212,0,0
-49,-188,0,0,0,0,0,0,0,0,0,-1,1175,1212,0,0
-42,-188,0,0,0,0,0,0,0,0,0,-1,1182,1212,0,0
-35,-188,0,0,0,0,0,0,0,0,0,-1,1189,1212,0,0
-28,-188,0,0,0,0,0,0,0,0,0,-1,1196,1212,0,0
-21,-188,0,0,0,0,0,0,0,0,0,-1,1203,1212,0,0
-14,-188,0,0,0,0,0,0,0,0,0,-1,1210,1212,0,0
-7,-188,0,0,0,0,0,0,0,0,0,-1,1217,1212,0,0
0,-188,0,0,0,0,0,0,0,0,0,-1,1224,1212,0,0
7,-188,0,0,0,0,0,0,0,0,0,-1,1231,1212,0,0
14,-188,0,0,0,0,0,0,0,0,0,-1,1238,1212,0,0
21,-188,0,0,0,0,0,0,0,0,0,-1,1245,1212,0,0
28,-188,0,0,0,0,0,0,0,0,0,-1,1252,1212,0,0
35,-188,0,0,0,0,0,0,0,0,0,-1,1259,1212,0,0
42,-188,0,0,0,0,0,0,0,0,0,-1,1266,1212,0,0
49,-188,0,0,0,0,0,0,0,0,0,-1,1273,1212,0,0
56,-188,0,0,0,0,0,0,0,0,0,-1,1280,1212,0,0
63,-188,0,0,0,0,0,0,0,0,0,-1,1287,1212,0,0
70,-188,0,0,0,0,0,0,0,0,0,-1,1294,1212,0,0
77,-188,0,0,0,0,0,0,0,0,0,-1,1301,1212,0,0
84,-188,0,0,0,0,0,0,0,0,0,-1,1308,1212,0,0
91,-188,0,0,0,0,0,0,0,0,0,-1,1315,1212,0,0
98,-188,0,0,0,0,0,0,0,0,0,-1,1322,1212,0,0
105,-188,0,0,0,0,0,0,0,0,0,-1,1329,1212,0,0
112,-188,0,0,0,0,0,0,0,0,0,-1,1336,1212,0,0
119,-188,0,0,0,0,0,0,0,0,0,-1,1343,1212,0,0
126,-188,0,0,0,0,0,0,0,0,0,-1,1350,1212,0,0
133,-188,0,0,0,0,0,0,0,0,0,-1,1357,1212,0,0
140,-188,0,0,0,0,0,0,0,0,0,-1,1364,1212,0,0
147,-188,0,0,0,0,0,0,0,0,0,-1,1371,1212,0,0
154,-188,0,0,0,0,0,0,0,0,0,-1,1378,1212,0,0
161,-188,0,0,0,0,0,0,0,0,0,-1,1385,1212,0,0
168,-188,0,0,0,0,0,0,0,0,0,-1,1392,1212,0,0
175,-188,0,0,0,0,0,0,0,0,0,-1,1399,1212,0,0
182,-188,0,0,0,0,0,0,0,0,0,-1,1406,1212,0,0
189,-188,0,0,0,0,0,0,0,0,0,-1,1413,1212,0,0
196,-188,0,0,0,0,0,0,0,0,0,-1,1420,1212,0,0
203,-188,0,0,0,0,0,0,0,0,0,-1,1427,1212,0,0
210,-188,0,0,0,0,0,0,0,0,0,-1,1434,1212,0,0
217,-188,0,0,0,0,0,0,0,0,0,-1,1441,1212,0,0
224,-188,0,0,0,0,0,0,0,0,0,-1,1448,1212,0,0
231,-188,0,0,0,0,0,0,0,0,0,-1,1455,1212,0,0
238,-188,0,0,0,0,0,0,0,0,0,-1,1462,1212,0,0
245,-188,0,0,0,0,0,0,0,0,0,-1,1469,1212,0,0
252,-188,0,0,0,0,0,0,0,0,0,-1,1476,1212,0,0
259,-188,0,0,0,0,0,0,0,0,0,-1,1483,1212,0,0
266,-188,0,0,0,0,0,0,0,0,0,-1,1490,1212,0,0
273,-188,0,0,0,0,0,0,0,0,0,-1,1497,1212,0,0
280,-188,0,0,0,0,0,0,0,0,0,-1,1504,1212,0,0
287,-188,0,0,0,0,0,0,0,0,0,-1,1511,1212,0,0
294,-188,0,0,0,0,0,0,0,0,0,-1,1518,1212,0,0
301,-188,0,0,0,0,0,0,0,0,0,-1,1525,1212,0,0
308,-188,0,0,0,0,0,0,0,0,0,-1,1532,1212,0,0
315,-188,0,0,0,0,0,0,0,0,0,-1,1539,1212,0,0
322,-188,0,0,0,0,0,0,0,0,0,-1,1546,1212,0,0
329,-188,0,0,0,0,0,0,0,0,0,-1,1553,1212,0,0
336,-188,0,0,0,0,0,0,0,0,0,-1,1560,1212,0,0
343,-188,0,0,0,0,0,0,0,0,0,-1,1567,1212,0,0
350,-188,0,0,0,0,0,0,0,0,0,-1,1574,1212,0,0
357,-188,0,0,0,0,0,0,0,0,0,-1,1581,1212,0,0
364,-188,0,0,0,0,0,0,0,0,0,-1,1588,1212,0,0
371,-188,0,0,0,0,0,0,0,0,0,-1,1595,1212,0,0
378,-188,0,0,0,0,0,0,0,0,0,-1,1602,1212,0,0
385,-188,0,0,0,0,0,0,0,0,0,-1,1609,1212,0,0
392,-188,0,0,0,0,0,0,0,0,0,-1,1616,1212,0,0
399,-188,0,0,0,0,0,0,0,0,0,-1,1623,1212,0,0
406,-188,0,0,0,0,0,0,0,0,0,-1,1630,1212,0,0
413,-188,0,0,0,0,0,0,0,0,0,-1,1637,1212,0,0
420,-188,0,0,0,0,0,0,0,0,0,-1,1644,1212,0,0
427,-188,0,0,0,0,0,0,0,0,0,-1,1651,1212,0,0
434,-188,0,0,0,0,0,0,0,0,0,-1,1658,1212,0,0
441,-188,0,0,0,0,0,0,0,0,0,-1,1665,1212,0,0
448,-188,0,0,0,0,0,0,0,0,0,-1,1672,1212,0,0
455,-188,0,0,0,0,0,0,0,0,0,-1,1679,1212,0,0
462,-188,0,0,0,0,0,0,0,0,0,-1,1686,1212,0,0
469,-188,0,0,0,0,0,0,0,0,0,-1,1693,1212,0,0
476,-188,0,0,0,0,0,0,0,0,0,-1,1700,1212,0,0
483,-188,0,0,0,0,0,0,0,0,0,-1,1707,1212,0,0
490,-188,0,0,0,0,0,0,0,0,0,-1,1714,1212,0,0
497,-188,0,0,0,0,0,0,0,0,0,-1,1721,1212,0,0
504,-188,0,0,0,0,0,0,0,0,0,-1,1728,1212,0,0
511,-188,0,0,0,0,0,0,0,0,0,-1,1735,1212,0,0
518,-188,0,0,0,0,0,0,0,0,0,-1,1742,1212,0,0
525,-188,0,0,0,0,0,0,0,0,0,-1,1749,1212,0,0
532,-188,0,0,0,0,0,0,0,0,0,-1,1756,1212,0,0
539,-188,0,0,0,0,0,0,0,0,0,-1,1763,1212,0,0
546,-188,0,0,0,0,0,0,0,0,0,-1,1770,1212,0,0
553,-188,0,0,0,0,0,0,0,0,0,-1,1777,1212,0,0
560,-188,0,0,0,0,0,0,0,0,0,-1,1784,1212,0,0
567,-188,0,0,0,0,0,0,0,0,0,-1,1791,1212,0,0
574,-188,0,0,0,0,0,0,0,0,0,-1,1798,1212,0,0
581,-188,0,0,0,0,0,0,0,0,0,-1,1805,1212,0,0
588,-188,0,0,0,0,0,0,0,0,0,-1,1812,1212,0,0
595,-188,0,0,0,0,0,0,0,0,0,-1,1819,1212,0,0
602,-188,0,0,0,0,0,0,0,0,0,-1,1826,1212,0,0
609,-188,0,0,0,0,0,0,0,0,0,-1,1833,1212,0,0
616,-188,0,0,0,0,0,0,0,0,0,-1,1840,1212,0,0
623,-188,0,0,0,0,0,0,0,0,0,-1,1847,1212,0,0
630,-188,75.6503,2.38953,0.00158855,0.000615566,0.00370602,0.00483987,-0.00263575,0.720136,0.00437814,0.0431771,1854,1212,75.6503,-2.38949
637,-188,75.6768,2.401,0.00144902,0.000860228,0.00263424,0.00380527,-0.00149602,0.729751,0.00315601,0.0420415,1861,1212,75.6767,-2.40098
644,-188,75.675,2.46899,0.0013951,0.00122587,0.00135165,0.00266478,-4.38102e-05,0.754139,0.0017913,0.0380695,1868,1212,75.675,-2.46904
651,-188,75.5159,2.45496,0.00148481,0.00165705,-7.76478e-05,0.00168688,0.00145497,-1.20394,0.00105581,0.0341774,1875,1212,75.5158,-2.45496
658,-188,75.5684,2.44153,0.00142359,0.0017588,-0.00088379,0.00249074,0.000691651,-0.879108,0.00148465,0.0342329,1882,1212,75.5683,-2.44156
665,-188,75.5258,2.41418,0.00125954,0.00163084,-0.000982149,0.00244473,0.000445648,-0.87881,0.00150345,0.031796,1889,1212,75.5257,-2.41414
672,-188,75.5822,2.35181,0.00125126,0.00179624,-0.000784744,0.00235445,0.000693041,-0.952503,0.00139714,0.026233,1896,1212,75.5821,-2.35182
679,-188,75.6848,2.24829,0,0,0,0,0,0,0,-1,1903,1212,75.6849,-2.24829
686,-188,60.1007,2.41321,0,0,0,0,0,0,0,-1,1910,1212,60.1007,-2.41325
693,-188,35.9054,2.18042,0,0,0,0,0,0,0,-1,1917,1212,35.9054,-2.18038
700,-188,54.452,11.2678,0,0,0,0,0,0,0,-1,1924,1212,54.452,-11.2678
707,-188,61.8796,12.2954,0,0,0,0,0,0,0,-1,1931,1212,61.8797,-12.2954
714,-188,54.7506,10.1539,0,0,0,0,0,0,0,-1,1938,1212,54.7507,-10.1539
721,-188,60.4974,10.7688,0,0,0,0,0,0,0,-1,1945,1212,60.4974,-10.7688
728,-188,61.6299,9.94556,0,0,0,0,0,0,0,-1,1952,1212,61.6299,-9.9455
735,-188,61.5266,9.24353,0.00142436,0.00247434,0.000718241,0.002839,0.00105969,1.10099,0.00165656,0.01449,1959,1212,61.5266,-9.24353
742,-188,61.4709,8.52893,0.00130495,0.0020838,0.00115446,0.00291274,0.000476004,0.948067,0.00180422,0.0162459,1966,1212,61.471,-8.52898
749,-188,61.4581,7.83301,0.000886695,0.00148323,0.0017195,0.00293014,-0.000560211,0.871275,0.00216446,0.0153672,1973,1212,61.4582,-7.83301
756,-188,61.4608,7.11621,0.000515038,0.0007542,0.00223612,0.00287393,-0.00160469,0.812111,0.00262012,0.0133555,1980,1212,61.4608,-7.11624
763,-188,61.4377,6.39478,0.000162721,-0.000336845,0.00267413,0.00259871,-0.00277283,0.73883,0.0031018,0.0190274,1987,1212,61.4378,-6.39478
770,-188,61.375,5.53992,4.95457e-05,-0.00182102,0.00258082,0.00185933,-0.0036308,0.61156,0.00322426,0.0486577,1994,1212,61.3751,-5.53988
777,-188,61.4719,4.67664,0,0,0,0,0,0,0,-1,2001,1212,61.4719,-4.67659
784,-188,69.1482,-1.87268,0,0,0,0,0,0,0,-1,2008,1212,69.1481,1.87266
791,-188,68.3596,-0.192261,0,0,0,0,0,0,0,-1,2015,1212,68.3596,0.192286
798,-188,67.5286,1.23303,0,0,0,0,0,0,0,-1,2022,1212,67.5285,-1.23298
805,-188,0,0,0,0,0,0,0,0,0,-1,2029,1212,0,0
812,-188,0,0,0,0,0,0,0,0,0,-1,2036,1212,0,0
-700,-195,0,0,0,0,0,0,0,0,0,-1,524,1219,0,0
-693,-195,0,0,0,0,0,0,0,0,0,-1,531,1219,0,0
-686,-195,0,0,0,0,0,0,0,0,0,-1,538,1219,0,0
-679,-195,-45.4652,-1.85071,0,0,0,0,0,0,0,-1,545,1219,-45.4652,1.85067
-672,-195,-44.7151,-1.49402,0,0,0,0,0,0,0,-1,552,1219,-44.7151,1.49403
-665,-195,-46.6998,4.67078,0,0,0,0,0,0,0,-1,559,1219,-46.6998,-4.67073
-658,-195,-44.0855,2.53113,0,0,0,0,0,0,0,-1,566,1219,-44.0855,-2.53118
-651,-195,-44.2822,3.27588,0,0,0,0,0,0,0,-1,573,1219,-44.2821,-3.27583
-644,-195,-44.3518,3.99072,0.0190244,0.00234474,-0.002253,0.0193234,0.00204577,-0.131926,0.0122574,0.0467346,580,1219,-44.3518,-3.9907
-637,-195,-44.3983,4.61731,0.0128027,0.00237924,-0.00162237,0.0130493,0.00213256,-0.150893,0.00808302,0.0259784,587,1219,-44.3983,-4.61736
-630,-195,-44.4988,5.29822,0.00808937,0.0020843,-0.00116749,0.00830836,0.0018653,-0.185422,0.00503369,0.00925426,594,1219,-44.4988,-5.29825
-623,-195,-44.546,6.04187,0.00467921,0.00149962,-0.00140346,0.00521007,0.000968765,-0.361614,0.00319972,0.00876939,601,1219,-44.546,-6.0419
-616,-195,-44.5606,6.79919,0.00192455,0.000720083,-0.00188312,0.00329939,-0.000654754,-0.630634,0.00244722,0.0109068,608,1219,-44.5606,-6.79917
-609,-195,-44.5509,7.60413,-0.000257867,-0.000265726,-0.00261202,0.00235023,-0.00287382,-0.784646,0.00302115,0.01874,615,1219,-44.5509,-7.6041
-602,-195,-44.5983,8.33813,-0.00195109,-0.00139242,-0.00359815,0.00193723,-0.00528073,-0.824137,0.00431375,0.0242415,622,1219,-44.5983,-8.33817
-595,-195,-44.6566,9.10632,-0.00321113,-0.00266284,-0.00486343,0.00193416,-0.00780814,-0.813553,0.00595577,0.0417616,629,1219,-44.6566,-9.10634
-588,-195,-44.85,9.96558,0,0,0,0,0,0,0,-1,636,1219,-44.85,-9.96559
-581,-195,-44.8284,10.4977,0,0,0,0,0,0,0,-1,643,1219,-44.8284,-10.4977
-574,-195,-45.0522,11.0055,0,0,0,0,0,0,0,-1,650,1219,-45.0522,-11.0055
-567,-195,-20.6388,3.78369,0,0,0,0,0,0,0,-1,657,1219,-20.6388,-3.78369
-560,-195,-20.878,2.10388,0,0,0,0,0,0,0,-1,664,1219,-20.878,-2.10385
-553,-195,-41.595,0.613281,0,0,0,0,0,0,0,-1,671,1219,-41.595,-0.61334
-546,-195,-58.4766,0.034668,0,0,0,0,0,0,0,-1,678,1219,-58.4767,-0.0346112
-539,-195,-58.6511,0.201172,0,0,0,0,0,0,0,-1,685,1219,-58.651,-0.201218
-532,-195,-58.7019,0.180664,0,0,0,0,0,0,0,-1,692,1219,-58.7019,-0.180693
-525,-195,-58.6205,0.160034,0,0,0,0,0,0,0,-1,699,1219,-58.6205,-0.160041
-518,-195,-58.8674,0.721069,0,0,0,0,0,0,0,-1,706,1219,-58.8673,-0.721041
-511,-195,-58.738,0.552612,0,0,0,0,0,0,0,-1,713,1219,-58.738,-0.55266
-504,-195,0,0,0,0,0,0,0,0,0,-1,720,1219,0,0
-497,-195,0,0,0,0,0,0,0,0,0,-1,727,1219,0,0
-490,-195,0,0,0,0,0,0,0,0,0,-1,734,1219,0,0
-483,-195,0,0,0,0,0,0,0,0,0,-1,741,1219,0,0
-476,-195,0,0,0,0,0,0,0,0,0,-1,748,1219,0,0
-469,-195,0,0,0,0,0,0,0,0,0,-1,755,1219,0,0
-462,-195,0,0,0,0,0,0,0,0,0,-1,762,1219,0,0
-455,-195,0,0,0,0,0,0,0,0,0,-1,769,1219,0,0
-448,-195,0,0,0,0,0,0,0,0,0,-1,776,1219,0,0
-441,-195,0,0,0,0,0,0,0,0,0,-1,783,1219,0,0
-434,-195,0,0,0,0,0,0,0,0,0,-1,790,1219,0,0
-427,-195,0,0,0,0,0,0,0,0,0,-1,797,1219,0,0
-420,-195,0,0,0,0,0,0,0,0,0,-1,804,1219,0,0
-413,-195,0,0,0,0,0,0,0,0,0,-1,811,1219,0,0
-406,-195,0,0,0,0,0,0,0,0,0,-1,818,1219,0,0
-399,-195,0,0,0,0,0,0,0,0,0,-1,825,1219,0,0
-392,-195,0,0,0,0,0,0,0,0,0,-1,832,1219,0,0
-385,-195,0,0,0,0,0,0,0,0,0,-1,839,1219,0,0
-378,-195,0,0,0,0,0,0,0,0,0,-1,846,1219,0,0
-371,-195,0,0,0,0,0,0,0,0,0,-1,853,1219,0,0
-364,-195,0,0,0,0,0,0,0,0,0,-1,860,1219,0,0
-357,-195,0,0,0,0,0,0,0,0,0,-1,867,1219,0,0
-350,-195,0,0,0,0,0,0,0,0,0,-1,874,1219,0,0
-343,-195,0,0,0,0,0,0,0,0,0,-1,881,1219,0,0
-336,-195,0,0,0,0,0,0,0,0,0,-1,888,1219,0,0
-329,-195,0,0,0,0,0,0,0,0,0,-1,895,1219,0,0
-322,-195,0,0,0,0,0,0,0,0,0,-1,902,1219,0,0
-315,-195,0,0,0,0,0,0,0,0,0,-1,909,1219,0,0
-308,-195,0,0,0,0,0,0,0,0,0,-1,916,1219,0,0
-301,-195,0,0,0,0,0,0,0,0,0,-1,923,1219,0,0
-294,-195,0,0,0,0,0,0,0,0,0,-1,930,1219,0,0
-287,-195,0,0,0,0,0,0,0,0,0,-1,937,1219,0,0
-280,-195,0,0,0,0,0,0,0,0,0,-1,944,1219,0,0
-273,-195,0,0,0,0,0,0,0,0,0,-1,951,1219,0,0
-266,-195,0,0,0,0,0,0,0,0,0,-1,958,1219,0,0
-259,-195,0,0,0,0,0,0,0,0,0,-1,965,1219,0,0
-252,-195,0,0,0,0,0,0,0,0,0,-1,972,1219,0,0
-245,-195,0,0,0,0,0,0,0,0,0,-1,979,1219,0,0
-238,-195,0,0,0,0,0,0,0,0,0,-1,986,1219,0,0
-231,-195,0,0,0,0,0,0,0,0,0,-1,993,1219,0,0
-224,-195,0,0,0,0,0,0,0,0,0,-1,1000,1219,0,0
-217,-195,0,0,0,0,0,0,0,0,0,-1,1007,1219,0,0
-210,-195,0,0,0,0,0,0,0,0,0,-1,1014,1219,0,0
-203,-195,0,0,0,0,0,0,0,0,0,-1,1021,1219,0,0
-196,-195,0,0,0,0,0,0,0,0,0,-1,1028,1219,0,0
-189,-195,0,0,0,0,0,0,0,0,0,-1,1035,1219,0,0
-182,-195,0,0,0,0,0,0,0,0,0,-1,1042,1219,0,0
-175,-195,0,0,0,0,0,0,0,0,0,-1,1049,1219,0,0
-168,-195,0,0,0,0,0,0,0,0,0,-1,1056,1219,0,0
-161,-195,0,0,0,0,0,0,0,0,0,-1,1063,1219,0,0
-154,-195,0,0,0,0,0,0,0,0,0,-1,1070,1219,0,0
-147,-195,0,0,0,0,0,0,0,0,0,-1,1077,1219,0,0
-140,-195,0,0,0,0,0,0,0,0,0,-1,1084,1219,0,0
-133,-195,0,0,0,0,0,0,0,0,0,-1,1091,1219,0,0
-126,-195,0,0,0,0,0,0,0,0,0,-1,1098,1219,0,0
-119,-195,0,0,0,0,0,0,0,0,0,-1,1105,1219,0,0
-112,-195,0,0,0,0,0,0,0,0,0,-1,1112,1219,0,0
-105,-195,0,0,0,0,0,0,0,0,0,-1,1119,1219,0,0
-98,-195,0,0,0,0,0,0,0,0,0,-1,1126,1219,0,0
-91,-195,0,0,0,0,0,0,0,0,0,-1,1133,1219,0,0
-84,-195,0,0,0,0,0,0,0,0,0,-1,1140,1219,0,0
-77,-195,0,0,0,0,0,0,0,0,0,-1,1147,1219,0,0
-70,-195,0,0,0,0,0,0,0,0,0,-1,1154,1219,0,0
-63,-195,0,0,0,0,0,0,0,0,0,-1,1161,1219,0,0
-56,-195,0,0,0,0,0,0,0,0,0,-1,1168,1219,0,0
-49,-195,0,0,0,0,0,0,0,0,0,-1,1175,1219,0,0
-42,-195,0,0,0,0,0,0,0,0,0,-1,1182,1219,0,0
-35,-195,0,0,0,0,0,0,0,0,0,-1,1189,1219,0,0
-28,-195,0,0,0,0,0,0,0,0,0,-1,1196,1219,0,0
-21,-195,0,0,0,0,0,0,0,0,0,-1,1203,1219,0,0
-14,-195,0,0,0,0,0,0,0,0,0,-1,1210,1219,0,0
-7,-195,0,0,0,0,0,0,0,0,0,-1,1217,1219,0,0
0,-195,0,0,0,0,0,0,0,0,0,-1,1224,1219,0,0
7,-195,0,0,0,0,0,0,0,0,0,-1,1231,1219,0,0
14,-195,0,0,0,0,0,0,0,0,0,-1,1238,1219,0,0
21,-195,0,0,0,0,0,0,0,0,0,-1,1245,1219,0,0
28,-195,0,0,0,0,0,0,0,0,0,-1,1252,1219,0,0
35,-195,0,0,0,0,0,0,0,0,0,-1,1259,1219,0,0
42,-195,0,0,0,0,0,0,0,0,0,-1,1266,1219,0,0
49,-195,0,0,0,0,0,0,0,0,0,-1,1273,1219,0,0
56,-195,0,0,0,0,0,0,0,0,0,-1,1280,1219,0,0
63,-195,0,0,0,0,0,0,0,0,0,-1,1287,1219,0,0
70,-195,0,0,0,0,0,0,0,0,0,-1,1294,1219,0,0
77,-195,0,0,0,0,0,0,0,0,0,-1,1301,1219,0,0
84,-195,0,0,0,0,0,0,0,0,0,-1,1308,1219,0,0
91,-195,0,0,0,0,0,0,0,0,0,-1,1315,1219,0,0
98,-195,0,0,0,0,0,0,0,0,0,-1,1322,1219,0,0
105,-195,0,0,0,0,0,0,0,0,0,-1,1329,1219,0,0
112,-195,0,0,0,0,0,0,0,0,0,-1,1336,1219,0,0
119,-195,0,0,0,0,0,0,0,0,0,-1,1343,1219,0,0
126,-195,0,0,0,0,0,0,0,0,0,-1,1350,1219,0,0
133,-195,0,0,0,0,0,0,0,0,0,-1,1357,1219,0,0
140,-195,0,0,0,0,0,0,0,0,0,-1,1364,1219,0,0
147,-195,0,0,0,0,0,0,0,0,0,-1,1371,1219,0,0
154,-195,0,0,0,0,0,0,0,0,0,-1,1378,1219,0,0
161,-195,0,0,0,0,0,0,0,0,0,-1,1385,1219,0,0
168,-195,0,0,0,0,0,0,0,0,0,-1,1392,1219,0,0
175,-195,0,0,0,0,0,0,0,0,0,-1,1399,1219,0,0
182,-195,0,0,0,0,0,0,0,0,0,-1,1406,1219,0,0
189,-195,0,0,0,0,0,0,0,0,0,-1,1413,1219,0,0
196,-195,0,0,0,0,0,0,0,0,0,-1,1420,1219,0,0
203,-195,0,0,0,0,0,0,0,0,0,-1,1427,1219,0,0
210,-195,0,0,0,0,0,0,0,0,0,-1,1434,1219,0,0
217,-195,0,0,0,0,0,0,0,0,0,-1,1441,1219,0,0
224,-195,0,0,0,0,0,0,0,0,0,-1,1448,1219,0,0
231,-195,0,0,0,0,0,0,0,0,0,-1,1455,1219,0,0
238,-195,0,0,0,0,0,0,0,0,0,-1,1462,1219,0,0
245,-195,0,0,0,0,0,0,0,0,0,-1,1469,1219,0,0
252,-195,0,0,0,0,0,0,0,0,0,-1,1476,1219,0,0
259,-195,0,0,0,0,0,0,0,0,0,-1,1483,1219,0,0
266,-195,0,0,0,0,0,0,0,0,0,-1,1490,1219,0,0
273,-195,0,0,0,0,0,0,0,0,0,-1,1497,1219,0,0
280,-195,0,0,0,0,0,0,0,0,0,-1,1504,1219,0,0
287,-195,0,0,0,0,0,0,0,0,0,-1,1511,1219,0,0
294,-195,0,0,0,0,0,0,0,0,0,-1,1518,1219,0,0
301,-195,0,0,0,0,0,0,0,0,0,-1,1525,1219,0,0
308,-195,0,0,0,0,0,0,0,0,0,-1,1532,1219,0,0
315,-195,0,0,0,0,0,0,0,0,0,-1,1539,1219,0,0
322,-195,0,0,0,0,0,0,0,0,0,-1,1546,1219,0,0
329,-195,0,0,0,0,0,0,0,0,0,-1,1553,1219,0,0
336,-195,0,0,0,0,0,0,0,0,0,-1,1560,1219,0,0
343,-195,0,0,0,0,0,0,0,0,0,-1,1567,1219,0,0
350,-195,0,0,0,0,0,0,0,0,0,-1,1574,1219,0,0
357,-195,0,0,0,0,0,0,0,0,0,-1,1581,1219,0,0
364,-195,0,0,0,0,0,0,0,0,0,-1,1588,1219,0,0
371,-195,0,0,0,0,0,0,0,0,0,-1,1595,1219,0,0
378,-195,0,0,0,0,0,0,0,0,0,-1,1602,1219,0,0
385,-195,0,0,0,0,0,0,0,0,0,-1,1609,1219,0,0
392,-195,0,0,0,0,0,0,0,0,0,-1,1616,1219,0,0
399,-195,0,0,0,0,0,0,0,0,0,-1,1623,1219,0,0
406,-195,0,0,0,0,0,0,0,0,0,-1,1630,1219,0,0
413,-195,0,0,0,0,0,0,0,0,0,-1,1637,1219,0,0
420,-195,0,0,0,0,0,0,0,0,0,-1,1644,1219,0,0
427,-195,0,0,0,0,0,0,0,0,0,-1,1651,1219,0,0
434,-195,0,0,0,0,0,0,0,0,0,-1,1658,1219,0,0
441,-195,0,0,0,0,0,0,0,0,0,-1,1665,1219,0,0
448,-195,0,0,0,0,0,0,0,0,0,-1,1672,1219,0,0
455,-195,0,0,0,0,0,0,0,0,0,-1,1679,1219,0,0
462,-195,0,0,0,0,0,0,0,0,0,-1,1686,1219,0,0
469,-195,0,0,0,0,0,0,0,0,0,-1,1693,1219,0,0
476,-195,0,0,0,0,0,0,0,0,0,-1,1700,1219,0,0
483,-195,0,0,0,0,0,0,0,0,0,-1,1707,1219,0,0
490,-195,0,0,0,0,0,0,0,0,0,-1,1714,1219,0,0
497,-195,0,0,0,0,0,0,0,0,0,-1,1721,1219,0,0
504,-195,0,0,0,0,0,0,0,0,0,-1,1728,1219,0,0
511,-195,0,0,0,0,0,0,0,0,0,-1,1735,1219,0,0
518,-195,0,0,0,0,0,0,0,0,0,-1,1742,1219,0,0
525,-195,0,0,0,0,0,0,0,0,0,-1,1749,1219,0,0
532,-195,0,0,0,0,0,0,0,0,0,-1,1756,1219,0,0
539,-195,0,0,0,0,0,0,0,0,0,-1,1763,1219,0,0
546,-195,0,0,0,0,0,0,0,0,0,-1,1770,1219,0,0
553,-195,0,0,0,0,0,0,0,0,0,-1,1777,1219,0,0
560,-195,0,0,0,0,0,0,0,0,0,-1,1784,1219,0,0
567,-195,0,0,0,0,0,0,0,0,0,-1,1791,1219,0,0
574,-195,0,0,0,0,0,0,0,0,0,-1,1798,1219,0,0
581,-195,0,0,0,0,0,0,0,0,0,-1,1805,1219,0,0
588,-195,0,0,0,0,0,0,0,0,0,-1,1812,1219,0,0
595,-195,0,0,0,0,0,0,0,0,0,-1,1819,1219,0,0
602,-195,0,0,0,0,0,0,0,0,0,-1,1826,1219,0,0
609,-195,0,0,0,0,0,0,0,0,0,-1,1833,1219,0,0
616,-195,0,0,0,0,0,0,0,0,0,-1,1840,1219,0,0
623,-195,0,0,0,0,0,0,0,0,0,-1,1847,1219,0,0
630,-195,75.7704,2.41418,0.000628846,0.00133057,0.00245866,0.00346327,-0.00150386,0.856272,0.00294121,0.0444536,1854,1219,75.7704,-2.41415
637,-195,75.7516,2.35669,0.000543279,0.00164904,0.00140613,0.00260708,-0.000414761,0.97271,0.00189153,0.0410758,1861,1219,75.7515,-2.35667
644,-195,75.6768,2.46362,0.000615576,0.00203035,0.000161515,0.00204856,0.000597371,1.45856,0.0012165,0.03671,1868,1219,75.6767,-2.46362
651,-195,75.5713,2.44312,0.000921526,0.00233197,-0.00108026,0.00291683,0.00033667,-1.07458,0.00184261,0.0289414,1875,1219,75.5713,-2.44312
658,-195,75.5922,2.38989,0.00100323,0.00209377,-0.00136772,0.00302091,7.61014e-05,-0.975079,0.00198906,0.0253936,1882,1219,75.5922,-2.38989
665,-195,75.6003,2.33801,0.000966256,0.00172231,-0.00108126,0.00248972,0.000198841,-0.953564,0.00159766,0.0248356,1889,1219,75.6003,-2.33799
672,-195,75.6796,2.22559,0.0010718,0.00174126,-0.000711875,0.00219317,0.000619887,-1.00516,0.0013055,0.0397728,1896,1219,75.6796,-2.22557
679,-195,75.7434,2.1521,0,0,0,0,0,0,0,-1,1903,1219,75.7434,-2.15212
686,-195,51.2117,1.94312,0,0,0,0,0,0,0,-1,1910,1219,51.2117,-1.9431
693,-195,24.4368,5.68298,0,0,0,0,0,0,0,-1,1917,1219,24.4368,-5.68293
700,-195,61.0433,12.9795,0,0,0,0,0,0,0,-1,1924,1219,61.0434,-12.9795
707,-195,61.0352,12.2246,0,0,0,0,0,0,0,-1,1931,1219,61.0352,-12.2246
714,-195,61.0225,11.7213,0,0,0,0,0,0,0,-1,1938,1219,61.0224,-11.7214
721,-195,60.7347,10.9497,0,0,0,0,0,0,0,-1,1945,1219,60.7347,-10.9497
728,-195,60.8075,10.0671,0.000855586,0.0018577,0.000744172,0.00225378,0.000459509,1.08169,0.00137518,0.013238,1952,1219,60.8076,-10.0671
735,-195,60.8019,9.24475,0.00080337,0.00185641,0.00109521,0.00254509,0.000114692,1.00946,0.00165981,0.0137018,1959,1219,60.8018,-9.24475
742,-195,60.7645,8.54138,0.000563621,0.0014019,0.00147356,0.00251477,-0.000549251,0.923959,0.00188644,0.0154494,1966,1219,60.7645,-8.54137
749,-195,60.7452,7.85974,7.90413e-05,0.000836653,0.00204228,0.00253496,-0.00161926,0.877097,0.00241778,0.0148779,1973,1219,60.7452,-7.85972
756,-195,60.7286,7.17273,-0.000414942,0.000113293,0.00261799,0.00248046,-0.00278211,0.835671,0.00304001,0.0147506,1980,1219,60.7286,-7.17274
763,-195,60.689,6.38538,-0.0010242,-0.00103006,0.00324349,0.00221637,-0.00427062,0.784946,0.00380735,0.0225648,1987,1219,60.689,-6.38539
770,-195,60.5027,5.74487,-0.0015173,-0.00256821,0.00336433,0.00136236,-0.00544786,0.707932,0.00416105,0.0471113,1994,1219,60.5026,-5.74483
777,-195,60.4026,5.29211,0,0,0,0,0,0,0,-1,2001,1219,60.4026,-5.29208
784,-195,69.7437,-3.15942,0,0,0,0,0,0,0,-1,2008,1219,69.7437,3.15944
791,-195,68.9104,-1.24268,0,0,0,0,0,0,0,-1,2015,1219,68.9103,1.24264
798,-195,66.05,2.49902,0,0,0,0,0,0,0,-1,2022,1219,66.0501,-2.499
805,-195,0,0,0,0,0,0,0,0,0,-1,2029,1219,0,0
812,-195,0,0,0,0,0,0,0,0,0,-1,2036,1219,0,0
-700,-202,0,0,0,0,0,0,0,0,0,-1,524,1226,0,0
-693,-202,0,0,0,0,0,0,0,0,0,-1,531,1226,0,0
-686,-202,0,0,0,0,0,0,0,0,0,-1,538,1226,0,0
-679,-202,-44.1955,-2.06812,0,0,0,0,0,0,0,-1,545,1226,-44.1955,2.0681
-672,-202,-45.4005,3.95618,0,0,0,0,0,0,0,-1,552,1226,-45.4004,-3.95617
-665,-202,-47.0174,4.41162,0,0,0,0,0,0,0,-1,559,1226,-47.0174,-4.41162
-658,-202,-48.6339,4.83545,0,0,0,0,0,0,0,-1,566,1226,-48.6338,-4.83547
-651,-202,-43.2554,3.47937,0,0,0,0,0,0,0,-1,573,1226,-43.2555,-3.47933
-644,-202,-43.4871,4.04883,0,0,0,0,0,0,0,-1,580,1226,-43.487,-4.04885
-637,-202,-43.7003,4.49524,0,0,0,0,0,0,0,-1,587,1226,-43.7003,-4.4952
-630,-202,-43.7276,5.27112,0.0085412,0.00183635,-0.0012114,0.00875335,0.00162419,-0.173375,0.00537658,0.0238576,594,1226,-43.7276,-5.27109
-623,-202,-43.7508,6.0531,0.00535127,0.00145146,-0.00129503,0.00574215,0.00106059,-0.29313,0.00352811,0.00931901,601,1226,-43.7508,-6.05313
-616,-202,-43.779,6.82434,0.00281538,0.000832787,-0.00162932,0.00373127,-8.31045e-05,-0.512108,0.00251567,0.00953518,608,1226,-43.779,-6.82428
-609,-202,-43.7765,7.61816,0.000839184,-6.02947e-05,-0.00219319,0.00262827,-0.00184938,-0.684269,0.00259818,0.0234456,615,1226,-43.7765,-7.6182
-602,-202,-43.8459,8.36169,-0.000670462,-0.00112634,-0.00299457,0.00210483,-0.00390163,-0.747413,0.00351917,0.02331,622,1226,-43.8459,-8.36168
-595,-202,-44.0905,9.20068,-0.00177661,-0.00240231,-0.00403218,0.00195484,-0.00613376,-0.746682,0.00487328,0.0322619,629,1226,-44.0905,-9.20073
-588,-202,-44.1365,9.86072,-0.00199988,-0.00414765,-0.00545332,0.00248429,-0.00863182,-0.688181,0.00673709,0.0257809,636,1226,-44.1365,-9.86073
-581,-202,-44.0244,10.5022,-0.00195814,-0.00614138,-0.0070275,0.0032824,-0.0113819,-0.640756,0.0088865,0.0421595,643,1226,-44.0244,-10.5022
-574,-202,-44.0759,11.4019,0,0,0,0,0,0,0,-1,650,1226,-44.0759,-11.4019
-567,-202,-22.1768,4.56995,0,0,0,0,0,0,0,-1,657,1226,-22.1768,-4.56991
-560,-202,-10.929,2.73096,0,0,0,0,0,0,0,-1,664,1226,-10.929,-2.73092
-553,-202,-30.2701,1.474,0,0,0,0,0,0,0,-1,671,1226,-30.2701,-1.47395
-546,-202,-53.2803,0.580933,0,0,0,0,0,0,0,-1,678,1226,-53.2803,-0.580945
-539,-202,-58.6245,0.189209,0,0,0,0,0,0,0,-1,685,1226,-58.6244,-0.189192
-532,-202,-58.6816,0.238281,0,0,0,0,0,0,0,-1,692,1226,-58.6816,-0.2383
-525,-202,-58.6144,0.0919189,0,0,0,0,0,0,0,-1,699,1226,-58.6144,-0.0919769
-518,-202,-58.6758,0.266113,0,0,0,0,0,0,0,-1,706,1226,-58.6758,-0.266053
-511,-202,-58.8411,0.44519,0,0,0,0,0,0,0,-1,713,1226,-58.8411,-0.445194
-504,-202,0,0,0,0,0,0,0,0,0,-1,720,1226,0,0
-497,-202,0,0,0,0,0,0,0,0,0,-1,727,1226,0,0
-490,-202,0,0,0,0,0,0,0,0,0,-1,734,1226,0,0
-483,-202,0,0,0,0,0,0,0,0,0,-1,741,1226,0,0
-476,-202,0,0,0,0,0,0,0,0,0,-1,748,1226,0,0
-469,-202,0,0,0,0,0,0,0,0,0,-1,755,1226,0,0
-462,-202,0,0,0,0,0,0,0,0,0,-1,762,1226,0,0
-455,-202,0,0,0,0,0,0,0,0,0,-1,769,1226,0,0
-448,-202,0,0,0,0,0,0,0,0,0,-1,776,1226,0,0
-441,-202,0,0,0,0,0,0,0,0,0,-1,783,1226,0,0
-434,-202,0,0,0,0,0,0,0,0,0,-1,790,1226,0,0
-427,-202,0,0,0,0,0,0,0,0,0,-1,797,1226,0,0
-420,-202,0,0,0,0,0,0,0,0,0,-1,804,1226,0,0
-413,-202,0,0,0,0,0,0,0,0,0,-1,811,1226,0,0
-406,-202,0,0,0,0,0,0,0,0,0,-1,818,1226,0,0
-399,-202,0,0,0,0,0,0,0,0,0,-1,825,1226,0,0
-392,-202,0,0,0,0,0,0,0,0,0,-1,832,1226,0,0
-385,-202,0,0,0,0,0,0,0,0,0,-1,839,1226,0,0
-378,-202,0,0,0,0,0,0,0,0,0,-1,846,1226,0,0
-371,-202,0,0,0,0,0,0,0,0,0,-1,853,1226,0,0
-364,-202,0,0,0,0,0,0,0,0,0,-1,860,1226,0,0
-357,-202,0,0,0,0,0,0,0,0,0,-1,867,1226,0,0
-350,-202,0,0,0,0,0,0,0,0,0,-1,874,1226,0,0
-343,-202,0,0,0,0,0,0,0,0,0,-1,881,1226,0,0
-336,-202,0,0,0,0,0,0,0,0,0,-1,888,1226,0,0
-329,-202,0,0,0,0,0,0,0,0,0,-1,895,1226,0,0
-322,-202,0,0,0,0,0,0,0,0,0,-1,902,1226,0,0
-315,-202,0,0,0,0,0,0,0,0,0,-1,909,1226,0,0
-308,-202,0,0,0,0,0,0,0,0,0,-1,916,1226,0,0
-301,-202,0,0,0,0,0,0,0,0,0,-1,923,1226,0,0
-294,-202,0,0,0,0,0,0,0,0,0,-1,930,1226,0,0
-287,-202,0,0,0,0,0,0,0,0,0,-1,937,1226,0,0
-280,-202,0,0,0,0,0,0,0,0,0,-1,944,1226,0,0
-273,-202,0,0,0,0,0,0,0,0,0,-1,951,1226,0,0
-266,-202,0,0,0,0,0,0,0,0,0,-1,958,1226,0,0
-259,-202,0,0,0,0,0,0,0,0,0,-1,965,1226,0,0
-252,-202,0,0,0,0,0,0,0,0,0,-1,972,1226,0,0
-245,-202,0,0,0,0,0,0,0,0,0,-1,979,1226,0,0
-238,-202,0,0,0,0,0,0,0,0,0,-1,986,1226,0,0
-231,-202,0,0,0,0,0,0,0,0,0,-1,993,1226,0,0
-224,-202,0,0,0,0,0,0,0,0,0,-1,1000,1226,0,0
-217,-202,0,0,0,0,0,0,0,0,0,-1,1007,1226,0,0
-210,-202,0,0,0,0,0,0,0,0,0,-1,1014,1226,0,0
-203,-202,0,0,0,0,0,0,0,0,0,-1,1021,1226,0,0
-196,-202,0,0,0,0,0,0,0,0,0,-1,1028,1226,0,0
-189,-202,0,0,0,0,0,0,0,0,0,-1,1035,1226,0,0
-182,-202,0,0,0,0,0,0,0,0,0,-1,1042,1226,0,0
-175,-202,0,0,0,0,0,0,0,0,0,-1,1049,1226,0,0
-168,-202,0,0,0,0,0,0,0,0,0,-1,1056,1226,0,0
-161,-202,0,0,0,0,0,0,0,0,0,-1,1063,1226,0,0
-154,-202,0,0,0,0,0,0,0,0,0,-1,1070,1226,0,0
-147,-202,0,0,0,0,0,0,0,0,0,-1,1077,1226,0,0
-140,-202,0,0,0,0,0,0,0,0,0,-1,1084,1226,0,0
-133,-202,0,0,0,0,0,0,0,0,0,-1,1091,1226,0,0
-126,-202,0,0,0,0,0,0,0,0,0,-1,1098,1226,0,0
-119,-202,0,0,0,0,0,0,0,0,0,-1,1105,1226,0,0
-112,-202,0,0,0,0,0,0,0,0,0,-1,1112,1226,0,0
-105,-202,0,0,0,0,0,0,0,0,0,-1,1119,1226,0,0
-98,-202,0,0,0,0,0,0,0,0,0,-1,1126,1226,0,0
-91,-202,0,0,0,0,0,0,0,0,0,-1,1133,1226,0,0
-84,-202,0,0,0,0,0,0,0,0,0,-1,1140,1226,0,0
-77,-202,0,0,0,0,0,0,0,0,0,-1,1147,1226,0,0
-70,-202,0,0,0,0,0,0,0,0,0,-1,1154,1226,0,0
-63,-202,0,0,0,0,0,0,0,0,0,-1,1161,1226,0,0
-56,-202,0,0,0,0,0,0,0,0,0,-1,1168,1226,0,0
-49,-202,0,0,0,0,0,0,0,0,0,-1,1175,1226,0,0
-42,-202,0,0,0,0,0,0,0,0,0,-1,1182,1226,0,0
-35,-202,0,0,0,0,0,0,0,0,0,-1,1189,1226,0,0
-28,-202,0,0,0,0,0,0,0,0,0,-1,1196,1226,0,0
-21,-202,0,0,0,0,0,0,0,0,0,-1,1203,1226,0,0
-14,-202,0,0,0,0,0,0,0,0,0,-1,1210,1226,0,0
-7,-202,0,0,0,0,0,0,0,0,0,-1,1217,1226,0,0
0,-202,0,0,0,0,0,0,0,0,0,-1,1224,1226,0,0
7,-202,0,0,0,0,0,0,0,0,0,-1,1231,1226,0,0
14,-202,0,0,0,0,0,0,0,0,0,-1,1238,1226,0,0
21,-202,0,0,0,0,0,0,0,0,0,-1,1245,1226,0,0
28,-202,0,0,0,0,0,0,0,0,0,-1,1252,1226,0,0
35,-202,0,0,0,0,0,0,0,0,0,-1,1259,1226,0,0
42,-202,0,0,0,0,0,0,0,0,0,-1,1266,1226,0,0
49,-202,0,0,0,0,0,0,0,0,0,-1,1273,1226,0,0
56,-202,0,0,0,0,0,0,0,0,0,-1,1280,1226,0,0
63,-202,0,0,0,0,0,0,0,0,0,-1,1287,1226,0,0
70,-202,0,0,0,0,0,0,0,0,0,-1,1294,1226,0,0
77,-202,0,0,0,0,0,0,0,0,0,-1,1301,1226,0,0
84,-202,0,0,0,0,0,0,0,0,0,-1,1308,1226,0,0
91,-202,0,0,0,0,0,0,0,0,0,-1,1315,1226,0,0
98,-202,0,0,0,0,0,0,0,0,0,-1,1322,1226,0,0
105,-202,0,0,0,0,0,0,0,0,0,-1,1329,1226,0,0
112,-202,0,0,0,0,0,0,0,0,0,-1,1336,1226,0,0
119,-202,0,0,0,0,0,0,0,0,0,-1,1343,1226,0,0
126,-202,0,0,0,0,0,0,0,0,0,-1,1350,1226,0,0
133,-202,0,0,0,0,0,0,0,0,0,-1,1357,1226,0,0
140,-202,0,0,0,0,0,0,0,0,0,-1,1364,1226,0,0
147,-202,0,0,0,0,0,0,0,0,0,-1,1371,1226,0,0
154,-202,0,0,0,0,0,0,0,0,0,-1,1378,1226,0,0
161,-202,0,0,0,0,0,0,0,0,0,-1,1385,1226,0,0
168,-202,0,0,0,0,0,0,0,0,0,-1,1392,1226,0,0
175,-202,0,0,0,0,0,0,0,0,0,-1,1399,1226,0,0
182,-202,0,0,0,0,0,0,0,0,0,-1,1406,1226,0,0
189,-202,0,0,0,0,0,0,0,0,0,-1,1413,1226,0,0
196,-202,0,0,0,0,0,0,0,0,0,-1,1420,1226,0,0
203,-202,0,0,0,0,0,0,0,0,0,-1,1427,1226,0,0
210,-202,0,0,0,0,0,0,0,0,0,-1,1434,1226,0,0
217,-202,0,0,0,0,0,0,0,0,0,-1,1441,1226,0,0
224,-202,0,0,0,0,0,0,0,0,0,-1,1448,1226,0,0
231,-202,0,0,0,0,0,0,0,0,0,-1,1455,1226,0,0
238,-202,0,0,0,0,0,0,0,0,0,-1,1462,1226,0,0
245,-202,0,0,0,0,0,0,0,0,0,-1,1469,1226,0,0
252,-202,0,0,0,0,0,0,0,0,0,-1,1476,1226,0,0
259,-202,0,0,0,0,0,0,0,0,0,-1,1483,1226,0,0
266,-202,0,0,0,0,0,0,0,0,0,-1,1490,1226,0,0
273,-202,0,0,0,0,0,0,0,0,0,-1,1497,1226,0,0
280,-202,0,0,0,0,0,0,0,0,0,-1,1504,1226,0,0
287,-202,0,0,0,0,0,0,0,0,0,-1,1511,1226,0,0
294,-202,0,0,0,0,0,0,0,0,0,-1,1518,1226,0,0
301,-202,0,0,0,0,0,0,0,0,0,-1,1525,1226,0,0
308,-202,0,0,0,0,0,0,0,0,0,-1,1532,1226,0,0
315,-202,0,0,0,0,0,0,0,0,0,-1,1539,1226,0,0
322,-202,0,0,0,0,0,0,0,0,0,-1,1546,1226,0,0
329,-202,0,0,0,0,0,0,0,0,0,-1,1553,1226,0,0
336,-202,0,0,0,0,0,0,0,0,0,-1,1560,1226,0,0
343,-202,0,0,0,0,0,0,0,0,0,-1,1567,1226,0,0
350,-202,0,0,0,0,0,0,0,0,0,-1,1574,1226,0,0
357,-202,0,0,0,0,0,0,0,0,0,-1,1581,1226,0,0
364,-202,0,0,0,0,0,0,0,0,0,-1,1588,1226,0,0
371,-202,0,0,0,0,0,0,0,0,0,-1,1595,1226,0,0
378,-202,0,0,0,0,0,0,0,0,0,-1,1602,1226,0,0
385,-202,0,0,0,0,0,0,0,0,0,-1,1609,1226,0,0
392,-202,0,0,0,0,0,0,0,0,0,-1,1616,1226,0,0
399,-202,0,0,0,0,0,0,0,0,0,-1,1623,1226,0,0
406,-202,0,0,0,0,0,0,0,0,0,-1,1630,1226,0,0
413,-202,0,0,0,0,0,0,0,0,0,-1,1637,1226,0,0
420,-202,0,0,0,0,0,0,0,0,0,-1,1644,1226,0,0
427,-202,0,0,0,0,0,0,0,0,0,-1,1651,1226,0,0
434,-202,0,0,0,0,0,0,0,0,0,-1,1658,1226,0,0
441,-202,0,0,0,0,0,0,0,0,0,-1,1665,1226,0,0
448,-202,0,0,0,0,0,0,0,0,0,-1,1672,1226,0,0
455,-202,0,0,0,0,0,0,0,0,0,-1,1679,1226,0,0
462,-202,0,0,0,0,0,0,0,0,0,-1,1686,1226,0,0
469,-202,0,0,0,0,0,0,0,0,0,-1,1693,1226,0,0
476,-202,0,0,0,0,0,0,0,0,0,-1,1700,1226,0,0
483,-202,0,0,0,0,0,0,0,0,0,-1,1707,1226,0,0
490,-202,0,0,0,0,0,0,0,0,0,-1,1714,1226,0,0
497,-202,0,0,0,0,0,0,0,0,0,-1,1721,1226,0,0
504,-202,0,0,0,0,0,0,0,0,0,-1,1728,1226,0,0
511,-202,0,0,0,0,0,0,0,0,0,-1,1735,1226,0,0
518,-202,0,0,0,0,0,0,0,0,0,-1,1742,1226,0,0
525,-202,0,0,0,0,0,0,0,0,0,-1,1749,1226,0,0
532,-202,0,0,0,0,0,0,0,0,0,-1,1756,1226,0,0
539,-202,0,0,0,0,0,0,0,0,0,-1,1763,1226,0,0
546,-202,0,0,0,0,0,0,0,0,0,-1,1770,1226,0,0
553,-202,0,0,0,0,0,0,0,0,0,-1,1777,1226,0,0
560,-202,0,0,0,0,0,0,0,0,0,-1,1784,1226,0,0
567,-202,0,0,0,0,0,0,0,0,0,-1,1791,1226,0,0
574,-202,0,0,0,0,0,0,0,0,0,-1,1798,1226,0,0
581,-202,0,0,0,0,0,0,0,0,0,-1,1805,1226,0,0
588,-202,0,0,0,0,0,0,0,0,0,-1,1812,1226,0,0
595,-202,0,0,0,0,0,0,0,0,0,-1,1819,1226,0,0
602,-202,0,0,0,0,0,0,0,0,0,-1,1826,1226,0,0
609,-202,0,0,0,0,0,0,0,0,0,-1,1833,1226,0,0
616,-202,0,0,0,0,0,0,0,0,0,-1,1840,1226,0,0
623,-202,0,0,0,0,0,0,0,0,0,-1,1847,1226,0,0
630,-202,75.7461,2.43347,-2.65938e-05,0.00180274,0.00162069,0.00274905,-0.000972905,1.0423,0.00222894,0.0423879,1854,1226,75.746,-2.43342
637,-202,75.7811,2.4093,-0.000231879,0.00229768,0.000394086,0.00235765,-0.000291853,1.41977,0.00167754,0.0377272,1861,1226,75.7811,-2.4093
644,-202,75.6896,2.41101,-0.000164826,0.00274169,-0.000942493,0.00302056,-0.000443692,-1.28312,0.00217673,0.0335219,1868,1226,75.6896,-2.41096
651,-202,75.6344,2.41296,0.000238591,0.00288898,-0.00199693,0.00396042,-0.00083285,-1.07834,0.00295725,0.0263332,1875,1226,75.6344,-2.41293
658,-202,75.639,2.37231,0.000379712,0.00230408,-0.00179509,0.00337859,-0.000694807,-1.03142,0.00251618,0.0213761,1882,1226,75.639,-2.37225
665,-202,75.6729,2.30859,0.000418523,0.00173181,-0.00123045,0.00246987,-0.000319534,-1.0305,0.00176277,0.0210861,1889,1226,75.6729,-2.30857
672,-202,75.8245,2.22144,0,0,0,0,0,0,0,-1,1896,1226,75.8244,-2.22138
679,-202,72.3511,2.32935,0,0,0,0,0,0,0,-1,1903,1226,72.3511,-2.32932
686,-202,49.1708,2.15198,0,0,0,0,0,0,0,-1,1910,1226,49.1708,-2.15195
693,-202,52.1176,12.0886,0,0,0,0,0,0,0,-1,1917,1226,52.1176,-12.0886
700,-202,60.3525,13.0259,0,0,0,0,0,0,0,-1,1924,1226,60.3526,-13.0259
707,-202,60.2512,12.1565,0.000905063,0.000883472,0.000160824,0.00105545,0.000733082,0.751886,0.000624556,0.0334918,1931,1226,60.2513,-12.1565
714,-202,60.1097,11.533,0.000639421,0.00123709,0.00043701,0.00146767,0.000408842,1.08529,0.000874623,0.040653,1938,1226,60.1097,-11.533
721,-202,60.0917,10.97,0.000442896,0.00137126,0.000757937,0.00179586,1.82969e-05,1.06015,0.00119119,0.0300444,1945,1226,60.0917,-10.9699
728,-202,60.1116,10.0448,0.000321657,0.00119091,0.00104912,0.00189187,-0.000379302,0.981775,0.00140485,0.0125479,1952,1226,60.1115,-10.0448
735,-202,60.0767,9.29749,0.000104232,0.00118719,0.0013833,0.00213121,-0.000839791,0.971951,0.0017685,0.0120021,1959,1226,60.0767,-9.29748
742,-202,60.0275,8.5708,-0.000254158,0.000802291,0.00176396,0.00211542,-0.00156729,0.930876,0.00213405,0.0132211,1966,1226,60.0275,-8.57082
749,-202,59.9625,7.86194,-0.000817251,0.000326104,0.00240458,0.00222603,-0.00271718,0.902104,0.00285866,0.0139537,1973,1226,59.9625,-7.86194
756,-202,59.9596,7.16113,-0.00143822,-0.000352605,0.00310807,0.0022597,-0.00405052,0.871849,0.00369179,0.013131,1980,1226,59.9596,-7.16111
763,-202,60.0267,6.43652,-0.0022943,-0.0015252,0.00400655,0.00211521,-0.00593471,0.833241,0.00481886,0.0271982,1987,1226,60.0267,-6.43657
770,-202,60.0688,5.76392,0,0,0,0,0,0,0,-1,1994,1226,60.0687,-5.76394
777,-202,67.5615,-0.236572,0,0,0,0,0,0,0,-1,2001,1226,67.5615,0.236573
784,-202,66.7117,0.754517,0,0,0,0,0,0,0,-1,2008,1226,66.7118,-0.754543
791,-202,66.512,1.74207,0,0,0,0,0,0,0,-1,2015,1226,66.512,-1.74201
798,-202,51.8999,3.58789,0,0,0,0,0,0,0,-1,2022,1226,51.9,-3.58791
805,-202,0,0,0,0,0,0,0,0,0,-1,2029,1226,0,0
812,-202,0,0,0,0,0,0,0,0,0,-1,2036,1226,0,0
-700,-209,0,0,0,0,0,0,0,0,0,-1,524,1233,0,0
-693,-209,0,0,0,0,0,0,0,0,0,-1,531,1233,0,0
-686,-209,0,0,0,0,0,0,0,0,0,-1,538,1233,0,0
-679,-209,-44.1319,3.24683,0,0,0,0,0,0,0,-1,545,1233,-44.1319,-3.24684
-672,-209,-45.7134,3.70813,0,0,0,0,0,0,0,-1,552,1233,-45.7134,-3.70808
-665,-209,-47.3203,4.17615,0,0,0,0,0,0,0,-1,559,1233,-47.3203,-4.17618
-658,-209,-48.9473,4.63306,0,0,0,0,0,0,0,-1,566,1233,-48.9473,-4.63302
-651,-209,-40.8797,2.51941,0,0,0,0,0,0,0,-1,573,1233,-40.8797,-2.51942
-644,-209,-43.4648,-7.04663,0,0,0,0,0,0,0,-1,580,1233,-43.4648,7.04659
-637,-209,-42.8004,4.48291,0,0,0,0,0,0,0,-1,587,1233,-42.8004,-4.48292
-630,-209,-42.8085,5.26477,0.00873278,0.00196667,-0.0013442,0.00899005,0.00170941,-0.189103,0.00551263,0.0414174,594,1233,-42.8085,-5.26482
-623,-209,-42.9475,6.09521,0.0057622,0.00171952,-0.00125519,0.00612021,0.0013615,-0.277848,0.00371052,0.0176164,601,1233,-42.9475,-6.09522
-616,-209,-42.9925,6.86169,0.00343901,0.00118298,-0.001441,0.00414099,0.000480995,-0.453315,0.00261512,0.0124821,608,1233,-42.9925,-6.86166
-609,-209,-43.0383,7.62207,0.00163211,0.00034964,-0.00185768,0.00295611,-0.000974361,-0.61921,0.00236345,0.0145127,615,1233,-43.0382,-7.6221
-602,-209,-43.0995,8.37512,0.000252895,-0.000695661,-0.00250216,0.00232533,-0.0027681,-0.691736,0.00294439,0.0168969,622,1233,-43.0995,-8.37511
-595,-209,-43.1581,9.17615,-0.000770923,-0.00197813,-0.00336537,0.00204454,-0.0047936,-0.696663,0.00405295,0.0215522,629,1233,-43.1581,-9.17618
-588,-209,-43.3035,9.95129,-0.00119257,-0.00369372,-0.00455308,0.00227856,-0.00716485,-0.651371,0.00569024,0.0431169,636,1233,-43.3034,-9.9513
-581,-209,-43.0517,10.7239,-0.00136921,-0.00573333,-0.00588523,0.00272546,-0.00982801,-0.60787,0.00762463,0.0490068,643,1233,-43.0517,-10.7239
-574,-209,-43.1484,11.521,0,0,0,0,0,0,0,-1,650,1233,-43.1484,-11.521
-567,-209,-43.0739,12.2852,0,0,0,0,0,0,0,-1,657,1233,-43.0739,-12.2851
-560,-209,-13.9294,4.16626,0,0,0,0,0,0,0,-1,664,1233,-13.9294,-4.16621
-553,-209,-22.7542,0.748779,0,0,0,0,0,0,0,-1,671,1233,-22.7541,-0.748796
-546,-209,-44.691,0.142822,0,0,0,0,0,0,0,-1,678,1233,-44.6911,-0.142844
-539,-209,-58.4252,0.195068,0,0,0,0,0,0,0,-1,685,1233,-58.4253,-0.195057
-532,-209,-58.5267,0.253296,0,0,0,0,0,0,0,-1,692,1233,-58.5268,-0.253277
-525,-209,-58.6461,0.284668,0,0,0,0,0,0,0,-1,699,1233,-58.6461,-0.284609
-518,-209,-58.7849,0.276733,0,0,0,0,0,0,0,-1,706,1233,-58.7849,-0.276755
-511,-209,-58.921,0.333496,0,0,0,0,0,0,0,-1,713,1233,-58.921,-0.333531
-504,-209,0,0,0,0,0,0,0,0,0,-1,720,1233,0,0
-497,-209,0,0,0,0,0,0,0,0,0,-1,727,1233,0,0
-490,-209,0,0,0,0,0,0,0,0,0,-1,734,1233,0,0
-483,-209,0,0,0,0,0,0,0,0,0,-1,741,1233,0,0
-476,-209,0,0,0,0,0,0,0,0,0,-1,748,1233,0,0
-469,-209,0,0,0,0,0,0,0,0,0,-1,755,1233,0,0
-462,-209,0,0,0,0,0,0,0,0,0,-1,762,1233,0,0
-455,-209,0,0,0,0,0,0,0,0,0,-1,769,1233,0,0
-448,-209,0,0,0,0,0,0,0,0,0,-1,776,1233,0,0
-441,-209,0,0,0,0,0,0,0,0,0,-1,783,1233,0,0
-434,-209,0,0,0,0,0,0,0,0,0,-1,790,1233,0,0
-427,-209,0,0,0,0,0,0,0,0,0,-1,797,1233,0,0
-420,-209,0,0,0,0,0,0,0,0,0,-1,804,1233,0,0
-413,-209,0,0,0,0,0,0,0,0,0,-1,811,1233,0,0
-406,-209,0,0,0,0,0,0,0,0,0,-1,818,1233,0,0
-399,-209,0,0,0,0,0,0,0,0,0,-1,825,1233,0,0
-392,-209,0,0,0,0,0,0,0,0,0,-1,832,1233,0,0
-385,-209,0,0,0,0,0,0,0,0,0,-1,839,1233,0,0
-378,-209,0,0,0,0,0,0,0,0,0,-1,846,1233,0,0
-371,-209,0,0,0,0,0,0,0,0,0,-1,853,1233,0,0
-364,-209,0,0,0,0,0,0,0,0,0,-1,860,1233,0,0
-357,-209,0,0,0,0,0,0,0,0,0,-1,867,1233,0,0
-350,-209,0,0,0,0,0,0,0,0,0,-1,874,1233,0,0
-343,-209,0,0,0,0,0,0,0,0,0,-1,881,1233,0,0
-336,-209,0,0,0,0,0,0,0,0,0,-1,888,1233,0,0
-329,-209,0,0,0,0,0,0,0,0,0,-1,895,1233,0,0
-322,-209,0,0,0,0,0,0,0,0,0,-1,902,1233,0,0
-315,-209,0,0,0,0,0,0,0,0,0,-1,909,1233,0,0
-308,-209,0,0,0,0,0,0,0,0,0,-1,916,1233,0,0
-301,-209,0,0,0,0,0,0,0,0,0,-1,923,1233,0,0
-294,-209,0,0,0,0,0,0,0,0,0,-1,930,1233,0,0
-287,-209,0,0,0,0,0,0,0,0,0,-1,937,1233,0,0
-280,-209,0,0,0,0,0,0,0,0,0,-1,944,1233,0,0
-273,-209,0,0,0,0,0,0,0,0,0,-1,951,1233,0,0
-266,-209,0,0,0,0,0,0,0,0,0,-1,958,1233,0,0
-259,-209,0,0,0,0,0,0,0,0,0,-1,965,1233,0,0
-252,-209,0,0,0,0,0,0,0,0,0,-1,972,1233,0,0
-245,-209,0,0,0,0,0,0,0,0,0,-1,979,1233,0,0
-238,-209,0,0,0,0,0,0,0,0,0,-1,986,1233,0,0
-231,-209,0,0,0,0,0,0,0,0,0,-1,993,1233,0,0
-224,-209,0,0,0,0,0,0,0,0,0,-1,1000,1233,0,0
-217,-209,0,0,0,0,0,0,0,0,0,-1,1007,1233,0,0
-210,-209,0,0,0,0,0,0,0,0,0,-1,1014,1233,0,0
-203,-209,0,0,0,0,0,0,0,0,0,-1,1021,1233,0,0
-196,-209,0,0,0,0,0,0,0,0,0,-1,1028,1233,0,0
-189,-209,0,0,0,0,0,0,0,0,0,-1,1035,1233,0,0
-182,-209,0,0,0,0,0,0,0,0,0,-1,1042,1233,0,0
-175,-209,0,0,0,0,0,0,0,0,0,-1,1049,1233,0,0
-168,-209,0,0,0,0,0,0,0,0,0,-1,1056,1233,0,0
-161,-209,0,0,0,0,0,0,0,0,0,-1,1063,1233,0,0
-154,-209,0,0,0,0,0,0,0,0,0,-1,1070,1233,0,0
-147,-209,0,0,0,0,0,0,0,0,0,-1,1077,1233,0,0
-140,-209,0,0,0,0,0,0,0,0,0,-1,1084,1233,0,0
-133,-209,0,0,0,0,0,0,0,0,0,-1,1091,1233,0,0
-126,-209,0,0,0,0,0,0,0,0,0,-1,1098,1233,0,0
-119,-209,0,0,0,0,0,0,0,0,0,-1,1105,1233,0,0
-112,-209,0,0,0,0,0,0,0,0,0,-1,1112,1233,0,0
-105,-209,0,0,0,0,0,0,0,0,0,-1,1119,1233,0,0
-98,-209,0,0,0,0,0,0,0,0,0,-1,1126,1233,0,0
-91,-209,0,0,0,0,0,0,0,0,0,-1,1133,1233,0,0
-84,-209,0,0,0,0,0,0,0,0,0,-1,1140,1233,0,0
-77,-209,0,0,0,0,0,0,0,0,0,-1,1147,1233,0,0
-70,-209,0,0,0,0,0,0,0,0,0,-1,1154,1233,0,0
-63,-209,0,0,0,0,0,0,0,0,0,-1,1161,1233,0,0
-56,-209,0,0,0,0,0,0,0,0,0,-1,1168,1233,0,0
-49,-209,0,0,0,0,0,0,0,0,0,-1,1175,1233,0,0
-42,-209,0,0,0,0,0,0,0,0,0,-1,1182,1233,0,0
-35,-209,0,0,0,0,0,0,0,0,0,-1,1189,1233,0,0
-28,-209,0,0,0,0,0,0,0,0,0,-1,1196,1233,0,0
-21,-209,0,0,0,0,0,0,0,0,0,-1,1203,1233,0,0
-14,-209,0,0,0,0,0,0,0,0,0,-1,1210,1233,0,0
-7,-209,0,0,0,0,0,0,0,0,0,-1,1217,1233,0,0
0,-209,0,0,0,0,0,0,0,0,0,-1,1224,1233,0,0
7,-209,0,0,0,0,0,0,0,0,0,-1,1231,1233,0,0
14,-209,0,0,0,0,0,0,0,0,0,-1,1238,1233,0,0
21,-209,0,0,0,0,0,0,0,0,0,-1,1245,1233,0,0
28,-209,0,0,0,0,0,0,0,0,0,-1,1252,1233,0,0
35,-209,0,0,0,0,0,0,0,0,0,-1,1259,1233,0,0
42,-209,0,0,0,0,0,0,0,0,0,-1,1266,1233,0,0
49,-209,0,0,0,0,0,0,0,0,0,-1,1273,1233,0,0
56,-209,0,0,0,0,0,0,0,0,0,-1,1280,1233,0,0
63,-209,0,0,0,0,0,0,0,0,0,-1,1287,1233,0,0
70,-209,0,0,0,0,0,0,0,0,0,-1,1294,1233,0,0
77,-209,0,0,0,0,0,0,0,0,0,-1,1301,1233,0,0
84,-209,0,0,0,0,0,0,0,0,0,-1,1308,1233,0,0
91,-209,0,0,0,0,0,0,0,0,0,-1,1315,1233,0,0
98,-209,0,0,0,0,0,0,0,0,0,-1,1322,1233,0,0
105,-209,0,0,0,0,0,0,0,0,0,-1,1329,1233,0,0
112,-209,0,0,0,0,0,0,0,0,0,-1,1336,1233,0,0
119,-209,0,0,0,0,0,0,0,0,0,-1,1343,1233,0,0
126,-209,0,0,0,0,0,0,0,0,0,-1,1350,1233,0,0
133,-209,0,0,0,0,0,0,0,0,0,-1,1357,1233,0,0
140,-209,0,0,0,0,0,0,0,0,0,-1,1364,1233,0,0
147,-209,0,0,0,0,0,0,0,0,0,-1,1371,1233,0,0
154,-209,0,0,0,0,0,0,0,0,0,-1,1378,1233,0,0
161,-209,0,0,0,0,0,0,0,0,0,-1,1385,1233,0,0
168,-209,0,0,0,0,0,0,0,0,0,-1,1392,1233,0,0
175,-209,0,0,0,0,0,0,0,0,0,-1,1399,1233,0,0
182,-209,0,0,0,0,0,0,0,0,0,-1,1406,1233,0,0
189,-209,0,0,0,0,0,0,0,0,0,-1,1413,1233,0,0
196,-209,0,0,0,0,0,0,0,0,0,-1,1420,1233,0,0
203,-209,0,0,0,0,0,0,0,0,0,-1,1427,1233,0,0
210,-209,0,0,0,0,0,0,0,0,0,-1,1434,1233,0,0
217,-209,0,0,0,0,0,0,0,0,0,-1,1441,1233,0,0
224,-209,0,0,0,0,0,0,0,0,0,-1,1448,1233,0,0
231,-209,0,0,0,0,0,0,0,0,0,-1,1455,1233,0,0
238,-209,0,0,0,0,0,0,0,0,0,-1,1462,1233,0,0
245,-209,0,0,0,0,0,0,0,0,0,-1,1469,1233,0,0
252,-209,0,0,0,0,0,0,0,0,0,-1,1476,1233,0,0
259,-209,0,0,0,0,0,0,0,0,0,-1,1483,1233,0,0
266,-209,0,0,0,0,0,0,0,0,0,-1,1490,1233,0,0
273,-209,0,0,0,0,0,0,0,0,0,-1,1497,1233,0,0
280,-209,0,0,0,0,0,0,0,0,0,-1,1504,1233,0,0
287,-209,0,0,0,0,0,0,0,0,0,-1,1511,1233,0,0
294,-209,0,0,0,0,0,0,0,0,0,-1,1518,1233,0,0
301,-209,0,0,0,0,0,0,0,0,0,-1,1525,1233,0,0
308,-209,0,0,0,0,0,0,0,0,0,-1,1532,1233,0,0
315,-209,0,0,0,0,0,0,0,0,0,-1,1539,1233,0,0
322,-209,0,0,0,0,0,0,0,0,0,-1,1546,1233,0,0
329,-209,0,0,0,0,0,0,0,0,0,-1,1553,1233,0,0
336,-209,0,0,0,0,0,0,0,0,0,-1,1560,1233,0,0
343,-209,0,0,0,0,0,0,0,0,0,-1,1567,1233,0,0
350,-209,0,0,0,0,0,0,0,0,0,-1,1574,1233,0,0
357,-209,0,0,0,0,0,0,0,0,0,-1,1581,1233,0,0
364,-209,0,0,0,0,0,0,0,0,0,-1,1588,1233,0,0
371,-209,0,0,0,0,0,0,0,0,0,-1,1595,1233,0,0
378,-209,0,0,0,0,0,0,0,0,0,-1,1602,1233,0,0
385,-209,0,0,0,0,0,0,0,0,0,-1,1609,1233,0,0
392,-209,0,0,0,0,0,0,0,0,0,-1,1616,1233,0,0
399,-209,0,0,0,0,0,0,0,0,0,-1,1623,1233,0,0
406,-209,0,0,0,0,0,0,0,0,0,-1,1630,1233,0,0
413,-209,0,0,0,0,0,0,0,0,0,-1,1637,1233,0,0
420,-209,0,0,0,0,0,0,0,0,0,-1,1644,1233,0,0
427,-209,0,0,0,0,0,0,0,0,0,-1,1651,1233,0,0
434,-209,0,0,0,0,0,0,0,0,0,-1,1658,1233,0,0
441,-209,0,0,0,0,0,0,0,0,0,-1,1665,1233,0,0
448,-209,0,0,0,0,0,0,0,0,0,-1,1672,1233,0,0
455,-209,0,0,0,0,0,0,0,0,0,-1,1679,1233,0,0
462,-209,0,0,0,0,0,0,0,0,0,-1,1686,1233,0,0
469,-209,0,0,0,0,0,0,0,0,0,-1,1693,1233,0,0
476,-209,0,0,0,0,0,0,0,0,0,-1,1700,1233,0,0
483,-209,0,0,0,0,0,0,0,0,0,-1,1707,1233,0,0
490,-209,0,0,0,0,0,0,0,0,0,-1,1714,1233,0,0
497,-209,0,0,0,0,0,0,0,0,0,-1,1721,1233,0,0
504,-209,0,0,0,0,0,0,0,0,0,-1,1728,1233,0,0
511,-209,0,0,0,0,0,0,0,0,0,-1,1735,1233,0,0
518,-209,0,0,0,0,0,0,0,0,0,-1,1742,1233,0,0
525,-209,0,0,0,0,0,0,0,0,0,-1,1749,1233,0,0
532,-209,0,0,0,0,0,0,0,0,0,-1,1756,1233,0,0
539,-209,0,0,0,0,0,0,0,0,0,-1,1763,1233,0,0
546,-209,0,0,0,0,0,0,0,0,0,-1,1770,1233,0,0
553,-209,0,0,0,0,0,0,0,0,0,-1,1777,1233,0,0
560,-209,0,0,0,0,0,0,0,0,0,-1,1784,1233,0,0
567,-209,0,0,0,0,0,0,0,0,0,-1,1791,1233,0,0
574,-209,0,0,0,0,0,0,0,0,0,-1,1798,1233,0,0
581,-209,0,0,0,0,0,0,0,0,0,-1,1805,1233,0,0
588,-209,0,0,0,0,0,0,0,0,0,-1,1812,1233,0,0
595,-209,0,0,0,0,0,0,0,0,0,-1,1819,1233,0,0
602,-209,0,0,0,0,0,0,0,0,0,-1,1826,1233,0,0
609,-209,0,0,0,0,0,0,0,0,0,-1,1833,1233,0,0
616,-209,0,0,0,0,0,0,0,0,0,-1,1840,1233,0,0
623,-209,75.6433,2.38257,-0.000512396,0.00114068,0.00198973,0.00246872,-0.00184043,0.982255,0.00249669,0.0367734,1847,1233,75.6433,-2.38255
630,-209,75.6462,2.34912,-0.000897141,0.00227909,0.000634277,0.00240106,-0.00101912,1.38081,0.00202766,0.0396781,1854,1233,75.6463,-2.34918
637,-209,75.6835,2.31921,-0.000944072,0.00317535,-0.00078868,0.00332119,-0.00108991,-1.38795,0.00265313,0.0370404,1861,1233,75.6834,-2.31922
644,-209,75.6305,2.30933,-0.000654312,0.00381096,-0.00216645,0.0046893,-0.00153265,-1.18562,0.00374318,0.0309592,1868,1233,75.6305,-2.30928
651,-209,75.6444,2.36377,-8.94679e-05,0.0037839,-0.00288019,0.00531799,-0.00162356,-1.08138,0.00419264,0.0248668,1875,1233,75.6444,-2.36373
658,-209,75.6631,2.38745,5.06255e-05,0.00283296,-0.00221959,0.00406132,-0.00117774,-1.06533,0.00317382,0.0212913,1882,1233,75.6631,-2.38741
665,-209,75.7572,2.32764,5.61343e-05,0.0020482,-0.0014934,0.00284725,-0.000742916,-1.0795,0.00218826,0.0353381,1889,1233,75.7572,-2.32764
672,-209,75.9375,2.20142,0,0,0,0,0,0,0,-1,1896,1233,75.9375,-2.20136
679,-209,55.2465,2.78674,0,0,0,0,0,0,0,-1,1903,1233,55.2464,-2.78678
686,-209,33.3711,3.89856,0,0,0,0,0,0,0,-1,1910,1233,33.3711,-3.89855
693,-209,59.5417,13.8003,0,0,0,0,0,0,0,-1,1917,1233,59.5417,-13.8003
700,-209,59.4664,12.9996,0,0,0,0,0,0,0,-1,1924,1233,59.4664,-12.9997
707,-209,59.3862,12.2577,0.000605843,0.000415371,0.00024465,0.00077314,0.000248074,0.599785,0.000455822,0.0362037,1931,1233,59.3862,-12.2577
714,-209,59.3671,11.5924,0.000321428,0.000764004,0.00058238,0.00116572,-8.02881e-05,0.966959,0.000805245,0.0253916,1938,1233,59.3671,-11.5925
721,-209,59.4076,10.787,5.45438e-05,0.000899057,0.000992841,0.0015557,-0.000602104,0.986461,0.00128572,0.0147148,1945,1233,59.4075,-10.787
728,-209,59.4105,10.0786,-0.00022672,0.00075305,0.00132184,0.00167286,-0.00114653,0.962855,0.00163721,0.014364,1952,1233,59.4106,-10.0786
735,-209,59.3687,9.36218,-0.000616162,0.000728611,0.00168135,0.00186704,-0.00175459,0.975612,0.00209128,0.0166899,1959,1233,59.3686,-9.36213
742,-209,59.2977,8.60229,-0.00115838,0.000461077,0.00216913,0.00196668,-0.00266399,0.964037,0.00268361,0.0163706,1966,1233,59.2977,-8.60232
749,-209,59.2258,7.87512,-0.0018821,9.22903e-05,0.00292623,0.00219336,-0.00398317,0.948083,0.00361558,0.0147538,1973,1233,59.2258,-7.8751
756,-209,59.2208,7.17542,-0.00273933,-0.000467753,0.00385144,0.00241188,-0.00561896,0.928784,0.00475825,0.0131828,1980,1233,59.2208,-7.17539
763,-209,59.1602,6.55884,-0.0040214,-0.0015346,0.00522298,0.00259094,-0.00814694,0.902254,0.00647023,0.0287272,1987,1233,59.1601,-6.55883
770,-209,59.1794,6.11707,0,0,0,0,0,0,0,-1,1994,1233,59.1796,-6.11702
777,-209,68.0347,-0.36377,0,0,0,0,0,0,0,-1,2001,1233,68.0346,0.363742
784,-209,67.6289,0.771729,0,0,0,0,0,0,0,-1,2008,1233,67.6289,-0.771742
791,-209,67.1841,1.90906,0,0,0,0,0,0,0,-1,2015,1233,67.1841,-1.90909
798,-209,53.6404,3.71179,0,0,0,0,0,0,0,-1,2022,1233,53.6404,-3.71185
805,-209,0,0,0,0,0,0,0,0,0,-1,2029,1233,0,0
812,-209,0,0,0,0,0,0,0,0,0,-1,2036,1233,0,0
-700,-216,0,0,0,0,0,0,0,0,0,-1,524,1240,0,0
-693,-216,0,0,0,0,0,0,0,0,0,-1,531,1240,0,0
-686,-216,0,0,0,0,0,0,0,0,0,-1,538,1240,0,0
-679,-216,-44.4113,2.96509,0,0,0,0,0,0,0,-1,545,1240,-44.4113,-2.96514
-672,-216,-46.0019,3.48901,0,0,0,0,0,0,0,-1,552,1240,-46.0019,-3.48904
-665,-216,-47.6393,4.02075,0,0,0,0,0,0,0,-1,559,1240,-47.6392,-4.02069
-658,-216,-49.2646,4.4613,0,0,0,0,0,0,0,-1,566,1240,-49.2646,-4.4613
-651,-216,-42.788,-8.0509,0,0,0,0,0,0,0,-1,573,1240,-42.788,8.05092
-644,-216,-45.6099,1.72839,0,0,0,0,0,0,0,-1,580,1240,-45.6099,-1.72843
-637,-216,-41.9562,4.32642,0,0,0,0,0,0,0,-1,587,1240,-41.9562,-4.32644
-630,-216,-41.9523,5.32654,0.00878153,0.00259622,-0.00118612,0.00900119,0.00237657,-0.183112,0.0053863,0.049423,594,1240,-41.9523,-5.32651
-623,-216,-42.1177,6.25415,0.00601173,0.00232605,-0.000989369,0.00626052,0.00207727,-0.246354,0.00368205,0.0244343,601,1240,-42.1177,-6.25414
-616,-216,-42.2363,6.92261,0.00388533,0.00173239,-0.00109538,0.00434464,0.00127307,-0.397052,0.00257903,0.0142682,608,1240,-42.2363,-6.92262
-609,-216,-42.3002,7.66504,0.00219857,0.000862981,-0.00143899,0.00311717,-5.56161e-05,-0.568151,0.0020969,0.0138227,615,1240,-42.3002,-7.66499
-602,-216,-42.3445,8.39966,0.000888041,-0.000250433,-0.00199797,0.00239628,-0.00175867,-0.646621,0.00240826,0.0132782,622,1240,-42.3446,-8.39964
-595,-216,-42.3747,9.13684,-0.000128505,-0.00160163,-0.00275816,0.00198975,-0.00371988,-0.654919,0.00334653,0.0194857,629,1240,-42.3747,-9.13679
-588,-216,-42.3959,9.85742,-0.000774174,-0.00332755,-0.00378443,0.00194311,-0.00604484,-0.622716,0.00481025,0.0394219,636,1240,-42.3959,-9.85744
-581,-216,-42.458,10.3235,0,0,0,0,0,0,0,-1,643,1240,-42.458,-10.3235
-574,-216,-42.2209,11.6401,0,0,0,0,0,0,0,-1,650,1240,-42.221,-11.6401
-567,-216,-33.4159,9.56567,0,0,0,0,0,0,0,-1,657,1240,-33.4159,-9.56565
-560,-216,-16.5087,5.4574,0,0,0,0,0,0,0,-1,664,1240,-16.5087,-5.45746
-553,-216,-16.2355,1.22351,0,0,0,0,0,0,0,-1,671,1240,-16.2356,-1.22356
-546,-216,-37.1617,-0.25415,0,0,0,0,0,0,0,-1,678,1240,-37.1618,0.254161
-539,-216,-47.7817,1.47327,0,0,0,0,0,0,0,-1,685,1240,-47.7818,-1.4733
-532,-216,-58.4434,0.258667,0,0,0,0,0,0,0,-1,692,1240,-58.4433,-0.258614
-525,-216,-58.5693,0.384155,0,0,0,0,0,0,0,-1,699,1240,-58.5693,-0.384159
-518,-216,-58.7336,0.382324,0,0,0,0,0,0,0,-1,706,1240,-58.7336,-0.382366
-511,-216,-58.7864,0.32959,0,0,0,0,0,0,0,-1,713,1240,-58.7864,-0.329603
-504,-216,-58.7058,0.238037,0,0,0,0,0,0,0,-1,720,1240,-58.7058,-0.238039
-497,-216,0,0,0,0,0,0,0,0,0,-1,727,1240,0,0
-490,-216,0,0,0,0,0,0,0,0,0,-1,734,1240,0,0
-483,-216,0,0,0,0,0,0,0,0,0,-1,741,1240,0,0
-476,-216,0,0,0,0,0,0,0,0,0,-1,748,1240,0,0
-469,-216,0,0,0,0,0,0,0,0,0,-1,755,1240,0,0
-462,-216,0,0,0,0,0,0,0,0,0,-1,762,1240,0,0
-455,-216,0,0,0,0,0,0,0,0,0,-1,769,1240,0,0
-448,-216,0,0,0,0,0,0,0,0,0,-1,776,1240,0,0
-441,-216,0,0,0,0,0,0,0,0,0,-1,783,1240,0,0
-434,-216,0,0,0,0,0,0,0,0,0,-1,790,1240,0,0
-427,-216,0,0,0,0,0,0,0,0,0,-1,797,1240,0,0
-420,-216,0,0,0,0,0,0,0,0,0,-1,804,1240,0,0
-413,-216,0,0,0,0,0,0,0,0,0,-1,811,1240,0,0
-406,-216,0,0,0,0,0,0,0,0,0,-1,818,1240,0,0
-399,-216,0,0,0,0,0,0,0,0,0,-1,825,1240,0,0
-392,-216,0,0,0,0,0,0,0,0,0,-1,832,1240,0,0
-385,-216,0,0,0,0,0,0,0,0,0,-1,839,1240,0,0
-378,-216,0,0,0,0,0,0,0,0,0,-1,846,1240,0,0
-371,-216,0,0,0,0,0,0,0,0,0,-1,853,1240,0,0
-364,-216,0,0,0,0,0,0,0,0,0,-1,860,1240,0,0
-357,-216,0,0,0,0,0,0,0,0,0,-1,867,1240,0,0
-350,-216,0,0,0,0,0,0,0,0,0,-1,874,1240,0,0
-343,-216,0,0,0,0,0,0,0,0,0,-1,881,1240,0,0
-336,-216,0,0,0,0,0,0,0,0,0,-1,888,1240,0,0
-329,-216,0,0,0,0,0,0,0,0,0,-1,895,1240,0,0
-322,-216,0,0,0,0,0,0,0,0,0,-1,902,1240,0,0
-315,-216,0,0,0,0,0,0,0,0,0,-1,909,1240,0,0
-308,-216,0,0,0,0,0,0,0,0,0,-1,916,1240,0,0
-301,-216,0,0,0,0,0,0,0,0,0,-1,923,1240,0,0
-294,-216,0,0,0,0,0,0,0,0,0,-1,930,1240,0,0
-287,-216,0,0,0,0,0,0,0,0,0,-1,937,1240,0,0
-280,-216,0,0,0,0,0,0,0,0,0,-1,944,1240,0,0
-273,-216,0,0,0,0,0,0,0,0,0,-1,951,1240,0,0
-266,-216,0,0,0,0,0,0,0,0,0,-1,958,1240,0,0
-259,-216,0,0,0,0,0,0,0,0,0,-1,965,1240,0,0
-252,-216,0,0,0,0,0,0,0,0,0,-1,972,1240,0,0
-245,-216,0,0,0,0,0,0,0,0,0,-1,979,1240,0,0
-238,-216,0,0,0,0,0,0,0,0,0,-1,986,1240,0,0
-231,-216,0,0,0,0,0,0,0,0,0,-1,993,1240,0,0
-224,-216,0,0,0,0,0,0,0,0,0,-1,1000,1240,0,0
-217,-216,0,0,0,0,0,0,0,0,0,-1,1007,1240,0,0
-210,-216,0,0,0,0,0,0,0,0,0,-1,1014,1240,0,0
-203,-216,0,0,0,0,0,0,0,0,0,-1,1021,1240,0,0
-196,-216,0,0,0,0,0,0,0,0,0,-1,1028,1240,0,0
-189,-216,0,0,0,0,0,0,0,0,0,-1,1035,1240,0,0
-182,-216,0,0,0,0,0,0,0,0,0,-1,1042,1240,0,0
-175,-216,0,0,0,0,0,0,0,0,0,-1,1049,1240,0,0
-168,-216,0,0,0,0,0,0,0,0,0,-1,1056,1240,0,0
-161,-216,0,0,0,0,0,0,0,0,0,-1,1063,1240,0,0
-154,-216,0,0,0,0,0,0,0,0,0,-1,1070,1240,0,0
-147,-216,0,0,0,0,0,0,0,0,0,-1,1077,1240,0,0
-140,-216,0,0,0,0,0,0,0,0,0,-1,1084,1240,0,0
-133,-216,0,0,0,0,0,0,0,0,0,-1,1091,1240,0,0
-126,-216,0,0,0,0,0,0,0,0,0,-1,1098,1240,0,0
-119,-216,0,0,0,0,0,0,0,0,0,-1,1105,1240,0,0
-112,-216,0,0,0,0,0,0,0,0,0,-1,1112,1240,0,0
-105,-216,0,0,0,0,0,0,0,0,0,-1,1119,1240,0,0
-98,-216,0,0,0,0,0,0,0,0,0,-1,1126,1240,0,0
-91,-216,0,0,0,0,0,0,0,0,0,-1,1133,1240,0,0
-84,-216,0,0,0,0,0,0,0,0,0,-1,1140,1240,0,0
-77,-216,0,0,0,0,0,0,0,0,0,-1,1147,1240,0,0
-70,-216,0,0,0,0,0,0,0,0,0,-1,1154,1240,0,0
-63,-216,0,0,0,0,0,0,0,0,0,-1,1161,1240,0,0
-56,-216,0,0,0,0,0,0,0,0,0,-1,1168,1240,0,0
-49,-216,0,0,0,0,0,0,0,0,0,-1,1175,1240,0,0
-42,-216,0,0,0,0,0,0,0,0,0,-1,1182,1240,0,0
-35,-216,0,0,0,0,0,0,0,0,0,-1,1189,1240,0,0
-28,-216,0,0,0,0,0,0,0,0,0,-1,1196,1240,0,0
-21,-216,0,0,0,0,0,0,0,0,0,-1,1203,1240,0,0
-14,-216,0,0,0,0,0,0,0,0,0,-1,1210,1240,0,0
-7,-216,0,0,0,0,0,0,0,0,0,-1,1217,1240,0,0
0,-216,0,0,0,0,0,0,0,0,0,-1,1224,1240,0,0
7,-216,0,0,0,0,0,0,0,0,0,-1,1231,1240,0,0
14,-216,0,0,0,0,0,0,0,0,0,-1,1238,1240,0,0
21,-216,0,0,0,0,0,0,0,0,0,-1,1245,1240,0,0
28,-216,0,0,0,0,0,0,0,0,0,-1,1252,1240,0,0
35,-216,0,0,0,0,0,0,0,0,0,-1,1259,1240,0,0
42,-216,0,0,0,0,0,0,0,0,0,-1,1266,1240,0,0
49,-216,0,0,0,0,0,0,0,0,0,-1,1273,1240,0,0
56,-216,0,0,0,0,0,0,0,0,0,-1,1280,1240,0,0
63,-216,0,0,0,0,0,0,0,0,0,-1,1287,1240,0,0
70,-216,0,0,0,0,0,0,0,0,0,-1,1294,1240,0,0
77,-216,0,0,0,0,0,0,0,0,0,-1,1301,1240,0,0
84,-216,0,0,0,0,0,0,0,0,0,-1,1308,1240,0,0
91,-216,0,0,0,0,0,0,0,0,0,-1,1315,1240,0,0
98,-216,0,0,0,0,0,0,0,0,0,-1,1322,1240,0,0
105,-216,0,0,0,0,0,0,0,0,0,-1,1329,1240,0,0
112,-216,0,0,0,0,0,0,0,0,0,-1,1336,1240,0,0
119,-216,0,0,0,0,0,0,0,0,0,-1,1343,1240,0,0
126,-216,0,0,0,0,0,0,0,0,0,-1,1350,1240,0,0
133,-216,0,0,0,0,0,0,0,0,0,-1,1357,1240,0,0
140,-216,0,0,0,0,0,0,0,0,0,-1,1364,1240,0,0
147,-216,0,0,0,0,0,0,0,0,0,-1,1371,1240,0,0
154,-216,0,0,0,0,0,0,0,0,0,-1,1378,1240,0,0
161,-216,0,0,0,0,0,0,0,0,0,-1,1385,1240,0,0
168,-216,0,0,0,0,0,0,0,0,0,-1,1392,1240,0,0
175,-216,0,0,0,0,0,0,0,0,0,-1,1399,1240,0,0
182,-216,0,0,0,0,0,0,0,0,0,-1,1406,1240,0,0
189,-216,0,0,0,0,0,0,0,0,0,-1,1413,1240,0,0
196,-216,0,0,0,0,0,0,0,0,0,-1,1420,1240,0,0
203,-216,0,0,0,0,0,0,0,0,0,-1,1427,1240,0,0
210,-216,0,0,0,0,0,0,0,0,0,-1,1434,1240,0,0
217,-216,0,0,0,0,0,0,0,0,0,-1,1441,1240,0,0
224,-216,0,0,0,0,0,0,0,0,0,-1,1448,1240,0,0
231,-216,0,0,0,0,0,0,0,0,0,-1,1455,1240,0,0
238,-216,0,0,0,0,0,0,0,0,0,-1,1462,1240,0,0
245,-216,0,0,0,0,0,0,0,0,0,-1,1469,1240,0,0
252,-216,0,0,0,0,0,0,0,0,0,-1,1476,1240,0,0
259,-216,0,0,0,0,0,0,0,0,0,-1,1483,1240,0,0
266,-216,0,0,0,0,0,0,0,0,0,-1,1490,1240,0,0
273,-216,0,0,0,0,0,0,0,0,0,-1,1497,1240,0,0
280,-216,0,0,0,0,0,0,0,0,0,-1,1504,1240,0,0
287,-216,0,0,0,0,0,0,0,0,0,-1,1511,1240,0,0
294,-216,0,0,0,0,0,0,0,0,0,-1,1518,1240,0,0
301,-216,0,0,0,0,0,0,0,0,0,-1,1525,1240,0,0
308,-216,0,0,0,0,0,0,0,0,0,-1,1532,1240,0,0
315,-216,0,0,0,0,0,0,0,0,0,-1,1539,1240,0,0
322,-216,0,0,0,0,0,0,0,0,0,-1,1546,1240,0,0
329,-216,0,0,0,0,0,0,0,0,0,-1,1553,1240,0,0
336,-216,0,0,0,0,0,0,0,0,0,-1,1560,1240,0,0
343,-216,0,0,0,0,0,0,0,0,0,-1,1567,1240,0,0
350,-216,0,0,0,0,0,0,0,0,0,-1,1574,1240,0,0
357,-216,0,0,0,0,0,0,0,0,0,-1,1581,1240,0,0
364,-216,0,0,0,0,0,0,0,0,0,-1,1588,1240,0,0
371,-216,0,0,0,0,0,0,0,0,0,-1,1595,1240,0,0
378,-216,0,0,0,0,0,0,0,0,0,-1,1602,1240,0,0
385,-216,0,0,0,0,0,0,0,0,0,-1,1609,1240,0,0
392,-216,0,0,0,0,0,0,0,0,0,-1,1616,1240,0,0
399,-216,0,0,0,0,0,0,0,0,0,-1,1623,1240,0,0
406,-216,0,0,0,0,0,0,0,0,0,-1,1630,1240,0,0
413,-216,0,0,0,0,0,0,0,0,0,-1,1637,1240,0,0
420,-216,0,0,0,0,0,0,0,0,0,-1,1644,1240,0,0
427,-216,0,0,0,0,0,0,0,0,0,-1,1651,1240,0,0
434,-216,0,0,0,0,0,0,0,0,0,-1,1658,1240,0,0
441,-216,0,0,0,0,0,0,0,0,0,-1,1665,1240,0,0
448,-216,0,0,0,0,0,0,0,0,0,-1,1672,1240,0,0
455,-216,0,0,0,0,0,0,0,0,0,-1,1679,1240,0,0
462,-216,0,0,0,0,0,0,0,0,0,-1,1686,1240,0,0
469,-216,0,0,0,0,0,0,0,0,0,-1,1693,1240,0,0
476,-216,0,0,0,0,0,0,0,0,0,-1,1700,1240,0,0
483,-216,0,0,0,0,0,0,0,0,0,-1,1707,1240,0,0
490,-216,0,0,0,0,0,0,0,0,0,-1,1714,1240,0,0
497,-216,0,0,0,0,0,0,0,0,0,-1,1721,1240,0,0
504,-216,0,0,0,0,0,0,0,0,0,-1,1728,1240,0,0
511,-216,0,0,0,0,0,0,0,0,0,-1,1735,1240,0,0
518,-216,0,0,0,0,0,0,0,0,0,-1,1742,1240,0,0
525,-216,0,0,0,0,0,0,0,0,0,-1,1749,1240,0,0
532,-216,0,0,0,0,0,0,0,0,0,-1,1756,1240,0,0
539,-216,0,0,0,0,0,0,0,0,0,-1,1763,1240,0,0
546,-216,0,0,0,0,0,0,0,0,0,-1,1770,1240,0,0
553,-216,0,0,0,0,0,0,0,0,0,-1,1777,1240,0,0
560,-216,0,0,0,0,0,0,0,0,0,-1,1784,1240,0,0
567,-216,0,0,0,0,0,0,0,0,0,-1,1791,1240,0,0
574,-216,0,0,0,0,0,0,0,0,0,-1,1798,1240,0,0
581,-216,0,0,0,0,0,0,0,0,0,-1,1805,1240,0,0
588,-216,0,0,0,0,0,0,0,0,0,-1,1812,1240,0,0
595,-216,0,0,0,0,0,0,0,0,0,-1,1819,1240,0,0
602,-216,0,0,0,0,0,0,0,0,0,-1,1826,1240,0,0
609,-216,0,0,0,0,0,0,0,0,0,-1,1833,1240,0,0
616,-216,0,0,0,0,0,0,0,0,0,-1,1840,1240,0,0
623,-216,75.5771,2.46228,-0.0015897,0.00129106,0.00121237,0.00173338,-0.00203201,1.22097,0.00217623,0.0386056,1847,1240,75.5772,-2.46226
630,-216,75.6227,2.35754,-0.0018638,0.00288672,-0.000483557,0.00293544,-0.00191252,-1.47038,0.00281967,0.0375076,1854,1240,75.6227,-2.35759
637,-216,75.6318,2.32361,-0.00180613,0.00422975,-0.00214235,0.00491284,-0.00248922,-1.26214,0.00434927,0.0333371,1861,1240,75.6318,-2.32363
644,-216,75.6329,2.33862,-0.00131658,0.00493545,-0.0034355,0.00645428,-0.00283542,-1.15453,0.00549739,0.02816,1868,1240,75.6329,-2.33859
651,-216,75.6316,2.38037,-0.00065799,0.00456914,-0.00365571,0.00644946,-0.0025383,-1.09574,0.00535036,0.0244921,1875,1240,75.6316,-2.38039
658,-216,75.7015,2.43542,-0.000520266,0.00328636,-0.00262685,0.00462696,-0.00186086,-1.09891,0.00385756,0.0344812,1882,1240,75.7015,-2.4354
665,-216,75.8125,2.49951,0,0,0,0,0,0,0,-1,1889,1240,75.8125,-2.49951
672,-216,68.6339,1.33826,0,0,0,0,0,0,0,-1,1896,1240,68.6339,-1.33828
679,-216,47.3159,3.82703,0,0,0,0,0,0,0,-1,1903,1240,47.316,-3.82708
686,-216,21.5172,6.19458,0,0,0,0,0,0,0,-1,1910,1240,21.5172,-6.19453
693,-216,56.1224,12.7039,0,0,0,0,0,0,0,-1,1917,1240,56.1224,-12.7038
700,-216,58.5828,13.0096,0,0,0,0,0,0,0,-1,1924,1240,58.5827,-13.0097
707,-216,58.7609,12.1781,0,0,0,0,0,0,0,-1,1931,1240,58.7609,-12.1782
714,-216,58.7118,11.5355,-0.000111934,0.00027922,0.000766017,0.000874233,-0.000706947,0.910386,0.000914596,0.027552,1938,1240,58.7118,-11.5355
721,-216,58.6964,10.8627,-0.000460986,0.000383809,0.00126253,0.00129273,-0.0013699,0.946827,0.00153748,0.0144728,1945,1240,58.6964,-10.8627
728,-216,58.6952,10.1417,-0.000835008,0.000287634,0.00163773,0.00145757,-0.00200494,0.950496,0.00200739,0.0141749,1952,1240,58.6952,-10.1417
735,-216,58.6791,9.40979,-0.00128447,0.000285814,0.0020338,0.00168076,-0.00267942,0.969608,0.00253927,0.0162562,1959,1240,58.6791,-9.40983
742,-216,58.5636,8.66162,-0.00186097,0.000114284,0.00266134,0.00196535,-0.00371203,0.963072,0.00332914,0.0177869,1966,1240,58.5636,-8.66159
749,-216,58.5088,7.90161,-0.0025622,-0.000187587,0.00354868,0.00236714,-0.00511692,0.946833,0.00441708,0.0128808,1973,1240,58.5088,-7.90162
756,-216,58.4879,7.18835,-0.00337907,-0.000674591,0.00474121,0.00290345,-0.00695711,0.924314,0.00585115,0.0115706,1980,1240,58.4879,-7.18835
763,-216,58.4281,6.56738,-0.00462601,-0.00167654,0.00668644,0.00369586,-0.00999842,0.893939,0.00818075,0.0239961,1987,1240,58.4282,-6.56732
770,-216,58.6001,5.95581,0,0,0,0,0,0,0,-1,1994,1240,58.6001,-5.95587
777,-216,58.48,5.27368,0,0,0,0,0,0,0,-1,2001,1240,58.4799,-5.27363
784,-216,68.2205,0.660034,0,0,0,0,0,0,0,-1,2008,1240,68.2204,-0.660033
791,-216,67.71,1.8468,0,0,0,0,0,0,0,-1,2015,1240,67.7099,-1.84686
798,-216,0,0,0,0,0,0,0,0,0,-1,2022,1240,0,0
805,-216,0,0,0,0,0,0,0,0,0,-1,2029,1240,0,0
812,-216,0,0,0,0,0,0,0,0,0,-1,2036,1240,0,0
-700,-223,0,0,0,0,0,0,0,0,0,-1,524,1247,0,0
-693,-223,0,0,0,0,0,0,0,0,0,-1,531,1247,0,0
-686,-223,0,0,0,0,0,0,0,0,0,-1,538,1247,0,0
-679,-223,0,0,0,0,0,0,0,0,0,-1,545,1247,0,0
-672,-223,-46.3007,3.27185,0,0,0,0,0,0,0,-1,552,1247,-46.3007,-3.27184
-665,-223,-47.9709,3.83252,0,0,0,0,0,0,0,-1,559,1247,-47.9709,-3.83247
-658,-223,-39.6435,-8.36633,0,0,0,0,0,0,0,-1,566,1247,-39.6435,8.36633
-651,-223,-40.2339,-7.32275,0,0,0,0,0,0,0,-1,573,1247,-40.234,7.32277
-644,-223,-45.9081,3.8446,0,0,0,0,0,0,0,-1,580,1247,-45.9081,-3.84463
-637,-223,-49.2922,0.294189,0,0,0,0,0,0,0,-1,587,1247,-49.2922,-0.294245
-630,-223,-41.233,5.43787,0,0,0,0,0,0,0,-1,594,1247,-41.233,-5.4379
-623,-223,-41.4308,6.20654,0,0,0,0,0,0,0,-1,601,1247,-41.4309,-6.20656
-616,-223,-41.4839,6.97046,0.00416895,0.00193667,-0.000936475,0.00450978,0.00159584,-0.349045,0.00264053,0.0171095,608,1247,-41.4839,-6.97041
-609,-223,-41.5163,7.71729,0.00259483,0.00117485,-0.00115085,0.00323707,0.000532605,-0.50901,0.00200424,0.012412,615,1247,-41.5163,-7.71728
-602,-223,-41.5611,8.43774,0.0013626,9.61633e-05,-0.00157433,0.00242628,-0.00096752,-0.594191,0.00201885,0.014866,622,1247,-41.5611,-8.43775
-595,-223,-41.5708,9.22461,0.000378174,-0.00122351,-0.00218099,0.00190071,-0.00274604,-0.609444,0.00269756,0.0212718,629,1247,-41.5708,-9.22465
-588,-223,-41.5282,10.0378,-0.000383783,-0.00287199,-0.00299919,0.0016191,-0.00487488,-0.588793,0.00390321,0.0363623,636,1247,-41.5282,-10.0379
-581,-223,-41.9915,11.5383,0,0,0,0,0,0,0,-1,643,1247,-41.9915,-11.5383
-574,-223,-41.6372,11.1094,0,0,0,0,0,0,0,-1,650,1247,-41.6372,-11.1093
-567,-223,-42.4053,11.7667,0,0,0,0,0,0,0,-1,657,1247,-42.4054,-11.7667
-560,-223,-31.8748,9.50732,0,0,0,0,0,0,0,-1,664,1247,-31.8748,-9.50735
-553,-223,-11.4025,4.14722,0,0,0,0,0,0,0,-1,671,1247,-11.4025,-4.14719
-546,-223,-26.9034,-0.148682,0,0,0,0,0,0,0,-1,678,1247,-26.9034,0.14867
-539,-223,-36.7405,0.35376,0,0,0,0,0,0,0,-1,685,1247,-36.7405,-0.353807
-532,-223,-47.6184,1.39844,0,0,0,0,0,0,0,-1,692,1247,-47.6184,-1.3984
-525,-223,-58.4894,0.408447,0,0,0,0,0,0,0,-1,699,1247,-58.4894,-0.408439
-518,-223,-58.6414,0.282959,0,0,0,0,0,0,0,-1,706,1247,-58.6414,-0.282927
-511,-223,-58.6152,0.127075,0,0,0,0,0,0,0,-1,713,1247,-58.6152,-0.127072
-504,-223,-58.7078,0.0635986,0,0,0,0,0,0,0,-1,720,1247,-58.7077,-0.0635483
-497,-223,0,0,0,0,0,0,0,0,0,-1,727,1247,0,0
-490,-223,0,0,0,0,0,0,0,0,0,-1,734,1247,0,0
-483,-223,0,0,0,0,0,0,0,0,0,-1,741,1247,0,0
-476,-223,0,0,0,0,0,0,0,0,0,-1,748,1247,0,0
-469,-223,0,0,0,0,0,0,0,0,0,-1,755,1247,0,0
-462,-223,0,0,0,0,0,0,0,0,0,-1,762,1247,0,0
-455,-223,0,0,0,0,0,0,0,0,0,-1,769,1247,0,0
-448,-223,0,0,0,0,0,0,0,0,0,-1,776,1247,0,0
-441,-223,0,0,0,0,0,0,0,0,0,-1,783,1247,0,0
-434,-223,0,0,0,0,0,0,0,0,0,-1,790,1247,0,0
-427,-223,0,0,0,0,0,0,0,0,0,-1,797,1247,0,0
-420,-223,0,0,0,0,0,0,0,0,0,-1,804,1247,0,0
-413,-223,0,0,0,0,0,0,0,0,0,-1,811,1247,0,0
-406,-223,0,0,0,0,0,0,0,0,0,-1,818,1247,0,0
-399,-223,0,0,0,0,0,0,0,0,0,-1,825,1247,0,0
-392,-223,0,0,0,0,0,0,0,0,0,-1,832,1247,0,0
-385,-223,0,0,0,0,0,0,0,0,0,-1,839,1247,0,0
-378,-223,0,0,0,0,0,0,0,0,0,-1,846,1247,0,0
-371,-223,0,0,0,0,0,0,0,0,0,-1,853,1247,0,0
-364,-223,0,0,0,0,0,0,0,0,0,-1,860,1247,0,0
-357,-223,0,0,0,0,0,0,0,0,0,-1,867,1247,0,0
-350,-223,0,0,0,0,0,0,0,0,0,-1,874,1247,0,0
-343,-223,0,0,0,0,0,0,0,0,0,-1,881,1247,0,0
-336,-223,0,0,0,0,0,0,0,0,0,-1,888,1247,0,0
-329,-223,0,0,0,0,0,0,0,0,0,-1,895,1247,0,0
-322,-223,0,0,0,0,0,0,0,0,0,-1,902,1247,0,0
-315,-223,0,0,0,0,0,0,0,0,0,-1,909,1247,0,0
-308,-223,0,0,0,0,0,0,0,0,0,-1,916,1247,0,0
-301,-223,0,0,0,0,0,0,0,0,0,-1,923,1247,0,0
-294,-223,0,0,0,0,0,0,0,0,0,-1,930,1247,0,0
-287,-223,0,0,0,0,0,0,0,0,0,-1,937,1247,0,0
-280,-223,0,0,0,0,0,0,0,0,0,-1,944,1247,0,0
-273,-223,0,0,0,0,0,0,0,0,0,-1,951,1247,0,0
-266,-223,0,0,0,0,0,0,0,0,0,-1,958,1247,0,0
-259,-223,0,0,0,0,0,0,0,0,0,-1,965,1247,0,0
-252,-223,0,0,0,0,0,0,0,0,0,-1,972,1247,0,0
-245,-223,0,0,0,0,0,0,0,0,0,-1,979,1247,0,0
-238,-223,0,0,0,0,0,0,0,0,0,-1,986,1247,0,0
-231,-223,0,0,0,0,0,0,0,0,0,-1,993,1247,0,0
-224,-223,0,0,0,0,0,0,0,0,0,-1,1000,1247,0,0
-217,-223,0,0,0,0,0,0,0,0,0,-1,1007,1247,0,0
-210,-223,0,0,0,0,0,0,0,0,0,-1,1014,1247,0,0
-203,-223,0,0,0,0,0,0,0,0,0,-1,1021,1247,0,0
-196,-223,0,0,0,0,0,0,0,0,0,-1,1028,1247,0,0
-189,-223,0,0,0,0,0,0,0,0,0,-1,1035,1247,0,0
-182,-223,0,0,0,0,0,0,0,0,0,-1,1042,1247,0,0
-175,-223,0,0,0,0,0,0,0,0,0,-1,1049,1247,0,0
-168,-223,0,0,0,0,0,0,0,0,0,-1,1056,1247,0,0
-161,-223,0,0,0,0,0,0,0,0,0,-1,1063,1247,0,0
-154,-223,0,0,0,0,0,0,0,0,0,-1,1070,1247,0,0
-147,-223,0,0,0,0,0,0,0,0,0,-1,1077,1247,0,0
-140,-223,0,0,0,0,0,0,0,0,0,-1,1084,1247,0,0
-133,-223,0,0,0,0,0,0,0,0,0,-1,1091,1247,0,0
-126,-223,0,0,0,0,0,0,0,0,0,-1,1098,1247,0,0
-119,-223,0,0,0,0,0,0,0,0,0,-1,1105,1247,0,0
-112,-223,0,0,0,0,0,0,0,0,0,-1,1112,1247,0,0
-105,-223,0,0,0,0,0,0,0,0,0,-1,1119,1247,0,0
-98,-223,0,0,0,0,0,0,0,0,0,-1,1126,1247,0,0
-91,-223,0,0,0,0,0,0,0,0,0,-1,1133,1247,0,0
-84,-223,0,0,0,0,0,0,0,0,0,-1,1140,1247,0,0
-77,-223,0,0,0,0,0,0,0,0,0,-1,1147,1247,0,0
-70,-223,0,0,0,0,0,0,0,0,0,-1,1154,1247,0,0
-63,-223,0,0,0,0,0,0,0,0,0,-1,1161,1247,0,0
-56,-223,0,0,0,0,0,0,0,0,0,-1,1168,1247,0,0
-49,-223,0,0,0,0,0,0,0,0,0,-1,1175,1247,0,0
-42,-223,0,0,0,0,0,0,0,0,0,-1,1182,1247,0,0
-35,-223,0,0,0,0,0,0,0,0,0,-1,1189,1247,0,0
-28,-223,0,0,0,0,0,0,0,0,0,-1,1196,1247,0,0
-21,-223,0,0,0,0,0,0,0,0,0,-1,1203,1247,0,0
-14,-223,0,0,0,0,0,0,0,0,0,-1,1210,1247,0,0
-7,-223,0,0,0,0,0,0,0,0,0,-1,1217,1247,0,0
0,-223,0,0,0,0,0,0,0,0,0,-1,1224,1247,0,0
7,-223,0,0,0,0,0,0,0,0,0,-1,1231,1247,0,0
14,-223,0,0,0,0,0,0,0,0,0,-1,1238,1247,0,0
21,-223,0,0,0,0,0,0,0,0,0,-1,1245,1247,0,0
28,-223,0,0,0,0,0,0,0,0,0,-1,1252,1247,0,0
35,-223,0,0,0,0,0,0,0,0,0,-1,1259,1247,0,0
42,-223,0,0,0,0,0,0,0,0,0,-1,1266,1247,0,0
49,-223,0,0,0,0,0,0,0,0,0,-1,1273,1247,0,0
56,-223,0,0,0,0,0,0,0,0,0,-1,1280,1247,0,0
63,-223,0,0,0,0,0,0,0,0,0,-1,1287,1247,0,0
70,-223,0,0,0,0,0,0,0,0,0,-1,1294,1247,0,0
77,-223,0,0,0,0,0,0,0,0,0,-1,1301,1247,0,0
84,-223,0,0,0,0,0,0,0,0,0,-1,1308,1247,0,0
91,-223,0,0,0,0,0,0,0,0,0,-1,1315,1247,0,0
98,-223,0,0,0,0,0,0,0,0,0,-1,1322,1247,0,0
105,-223,0,0,0,0,0,0,0,0,0,-1,1329,1247,0,0
112,-223,0,0,0,0,0,0,0,0,0,-1,1336,1247,0,0
119,-223,0,0,0,0,0,0,0,0,0,-1,1343,1247,0,0
126,-223,0,0,0,0,0,0,0,0,0,-1,1350,1247,0,0
133,-223,0,0,0,0,0,0,0,0,0,-1,1357,1247,0,0
140,-223,0,0,0,0,0,0,0,0,0,-1,1364,1247,0,0
147,-223,0,0,0,0,0,0,0,0,0,-1,1371,1247,0,0
154,-223,0,0,0,0,0,0,0,0,0,-1,1378,1247,0,0
161,-223,0,0,0,0,0,0,0,0,0,-1,1385,1247,0,0
168,-223,0,0,0,0,0,0,0,0,0,-1,1392,1247,0,0
175,-223,0,0,0,0,0,0,0,0,0,-1,1399,1247,0,0
182,-223,0,0,0,0,0,0,0,0,0,-1,1406,1247,0,0
189,-223,0,0,0,0,0,0,0,0,0,-1,1413,1247,0,0
196,-223,0,0,0,0,0,0,0,0,0,-1,1420,1247,0,0
203,-223,0,0,0,0,0,0,0,0,0,-1,1427,1247,0,0
210,-223,0,0,0,0,0,0,0,0,0,-1,1434,1247,0,0
217,-223,0,0,0,0,0,0,0,0,0,-1,1441,1247,0,0
224,-223,0,0,0,0,0,0,0,0,0,-1,1448,1247,0,0
231,-223,0,0,0,0,0,0,0,0,0,-1,1455,1247,0,0
238,-223,0,0,0,0,0,0,0,0,0,-1,1462,1247,0,0
245,-223,0,0,0,0,0,0,0,0,0,-1,1469,1247,0,0
252,-223,0,0,0,0,0,0,0,0,0,-1,1476,1247,0,0
259,-223,0,0,0,0,0,0,0,0,0,-1,1483,1247,0,0
266,-223,0,0,0,0,0,0,0,0,0,-1,1490,1247,0,0
273,-223,0,0,0,0,0,0,0,0,0,-1,1497,1247,0,0
280,-223,0,0,0,0,0,0,0,0,0,-1,1504,1247,0,0
287,-223,0,0,0,0,0,0,0,0,0,-1,1511,1247,0,0
294,-223,0,0,0,0,0,0,0,0,0,-1,1518,1247,0,0
301,-223,0,0,0,0,0,0,0,0,0,-1,1525,1247,0,0
308,-223,0,0,0,0,0,0,0,0,0,-1,1532,1247,0,0
315,-223,0,0,0,0,0,0,0,0,0,-1,1539,1247,0,0
322,-223,0,0,0,0,0,0,0,0,0,-1,1546,1247,0,0
329,-223,0,0,0,0,0,0,0,0,0,-1,1553,1247,0,0
336,-223,0,0,0,0,0,0,0,0,0,-1,1560,1247,0,0
343,-223,0,0,0,0,0,0,0,0,0,-1,1567,1247,0,0
350,-223,0,0,0,0,0,0,0,0,0,-1,1574,1247,0,0
357,-223,0,0,0,0,0,0,0,0,0,-1,1581,1247,0,0
364,-223,0,0,0,0,0,0,0,0,0,-1,1588,1247,0,0
371,-223,0,0,0,0,0,0,0,0,0,-1,1595,1247,0,0
378,-223,0,0,0,0,0,0,0,0,0,-1,1602,1247,0,0
385,-223,0,0,0,0,0,0,0,0,0,-1,1609,1247,0,0
392,-223,0,0,0,0,0,0,0,0,0,-1,1616,1247,0,0
399,-223,0,0,0,0,0,0,0,0,0,-1,1623,1247,0,0
406,-223,0,0,0,0,0,0,0,0,0,-1,1630,1247,0,0
413,-223,0,0,0,0,0,0,0,0,0,-1,1637,1247,0,0
420,-223,0,0,0,0,0,0,0,0,0,-1,1644,1247,0,0
427,-223,0,0,0,0,0,0,0,0,0,-1,1651,1247,0,0
434,-223,0,0,0,0,0,0,0,0,0,-1,1658,1247,0,0
441,-223,0,0,0,0,0,0,0,0,0,-1,1665,1247,0,0
448,-223,0,0,0,0,0,0,0,0,0,-1,1672,1247,0,0
455,-223,0,0,0,0,0,0,0,0,0,-1,1679,1247,0,0
462,-223,0,0,0,0,0,0,0,0,0,-1,1686,1247,0,0
469,-223,0,0,0,0,0,0,0,0,0,-1,1693,1247,0,0
476,-223,0,0,0,0,0,0,0,0,0,-1,1700,1247,0,0
483,-223,0,0,0,0,0,0,0,0,0,-1,1707,1247,0,0
490,-223,0,0,0,0,0,0,0,0,0,-1,1714,1247,0,0
497,-223,0,0,0,0,0,0,0,0,0,-1,1721,1247,0,0
504,-223,0,0,0,0,0,0,0,0,0,-1,1728,1247,0,0
511,-223,0,0,0,0,0,0,0,0,0,-1,1735,1247,0,0
518,-223,0,0,0,0,0,0,0,0,0,-1,1742,1247,0,0
525,-223,0,0,0,0,0,0,0,0,0,-1,1749,1247,0,0
532,-223,0,0,0,0,0,0,0,0,0,-1,1756,1247,0,0
539,-223,0,0,0,0,0,0,0,0,0,-1,1763,1247,0,0
546,-223,0,0,0,0,0,0,0,0,0,-1,1770,1247,0,0
553,-223,0,0,0,0,0,0,0,0,0,-1,1777,1247,0,0
560,-223,0,0,0,0,0,0,0,0,0,-1,1784,1247,0,0
567,-223,0,0,0,0,0,0,0,0,0,-1,1791,1247,0,0
574,-223,0,0,0,0,0,0,0,0,0,-1,1798,1247,0,0
581,-223,0,0,0,0,0,0,0,0,0,-1,1805,1247,0,0
588,-223,0,0,0,0,0,0,0,0,0,-1,1812,1247,0,0
595,-223,0,0,0,0,0,0,0,0,0,-1,1819,1247,0,0
602,-223,0,0,0,0,0,0,0,0,0,-1,1826,1247,0,0
609,-223,0,0,0,0,0,0,0,0,0,-1,1833,1247,0,0
616,-223,0,0,0,0,0,0,0,0,0,-1,1840,1247,0,0
623,-223,75.5295,2.59045,-0.00267774,0.00189345,0.000432197,0.00193395,-0.00271824,1.47735,0.00269864,0.0397943,1847,1247,75.5295,-2.59043
630,-223,75.5793,2.42639,-0.0027875,0.00396081,-0.00181149,0.00441633,-0.00324302,-1.32444,0.00443939,0.036545,1854,1247,75.5793,-2.42636
637,-223,75.5757,2.37134,-0.00257017,0.00578638,-0.00390226,0.00732524,-0.00410903,-1.19517,0.00668806,0.030316,1861,1247,75.5756,-2.37132
644,-223,75.5878,2.34045,-0.00186552,0.00626789,-0.00494497,0.00860359,-0.00420122,-1.12952,0.0075371,0.0255742,1868,1247,75.5878,-2.3405
651,-223,75.5908,2.33289,-0.00120061,0.00539285,-0.00452683,0.00769618,-0.00350393,-1.10012,0.00661566,0.0332491,1875,1247,75.5908,-2.33293
658,-223,75.6508,2.38452,0,0,0,0,0,0,0,-1,1882,1247,75.6508,-2.38457
665,-223,68.7177,1.6427,0,0,0,0,0,0,0,-1,1889,1247,68.7176,-1.64275
672,-223,56.4625,2.72424,0,0,0,0,0,0,0,-1,1896,1247,56.4626,-2.72418
679,-223,43.2783,2.46973,0,0,0,0,0,0,0,-1,1903,1247,43.2784,-2.46978
686,-223,40.7926,10.0316,0,0,0,0,0,0,0,-1,1910,1247,40.7926,-10.0316
693,-223,55.5261,12.8093,0,0,0,0,0,0,0,-1,1917,1247,55.5261,-12.8093
700,-223,55.0945,12.2452,0,0,0,0,0,0,0,-1,1924,1247,55.0944,-12.2452
707,-223,58.2078,12.2281,0,0,0,0,0,0,0,-1,1931,1247,58.2078,-12.2281
714,-223,58.064,11.5808,-0.000498478,-0.000117865,0.00100782,0.000717455,-0.0013338,0.878715,0.00120198,0.0234184,1938,1247,58.0639,-11.5808
721,-223,57.9541,10.9109,-0.000940135,-4.67699e-05,0.00155465,0.0011241,-0.002111,0.92529,0.00189654,0.0161586,1945,1247,57.954,-10.9109
728,-223,57.9072,10.1687,-0.00143869,-7.40199e-05,0.00196816,0.00132673,-0.00283944,0.952258,0.00245763,0.0197515,1952,1247,57.9073,-10.1687
735,-223,57.865,9.46509,-0.00200185,-4.91943e-05,0.00243113,0.00159433,-0.00364537,0.976338,0.00310143,0.0197801,1959,1247,57.865,-9.46509
742,-223,57.7875,8.76111,-0.00266591,-0.000192417,0.00312117,0.00192811,-0.00478643,0.97403,0.00399201,0.0180283,1966,1247,57.7874,-8.76107
749,-223,57.7656,7.95178,-0.00342,-0.000480098,0.00405359,0.00236184,-0.00626193,0.959339,0.00514586,0.0137762,1973,1247,57.7656,-7.95179
756,-223,57.7076,7.19824,-0.00429067,-0.000953465,0.00531411,0.00294785,-0.00819198,0.937521,0.00666491,0.0152796,1980,1247,57.7076,-7.19819
763,-223,57.6484,6.5946,-0.00559978,-0.00194741,0.00736459,0.00381404,-0.0113612,0.906931,0.00911547,0.0214852,1987,1247,57.6484,-6.5946
770,-223,57.866,5.95789,0,0,0,0,0,0,0,-1,1994,1247,57.8659,-5.95788
777,-223,53.7227,4.88562,0,0,0,0,0,0,0,-1,2001,1247,53.7227,-4.8856
784,-223,68.8677,0.507813,0,0,0,0,0,0,0,-1,2008,1247,68.8676,-0.507816
791,-223,34.7136,2.92554,0,0,0,0,0,0,0,-1,2015,1247,34.7137,-2.92555
798,-223,0,0,0,0,0,0,0,0,0,-1,2022,1247,0,0
805,-223,0,0,0,0,0,0,0,0,0,-1,2029,1247,0,0
812,-223,0,0,0,0,0,0,0,0,0,-1,2036,1247,0,0
-700,-230,0,0,0,0,0,0,0,0,0,-1,524,1254,0,0
-693,-230,0,0,0,0,0,0,0,0,0,-1,531,1254,0,0
-686,-230,0,0,0,0,0,0,0,0,0,-1,538,1254,0,0
-679,-230,0,0,0,0,0,0,0,0,0,-1,545,1254,0,0
-672,-230,-38.5905,2.07617,0,0,0,0,0,0,0,-1,552,1254,-38.5905,-2.07614
-665,-230,-38.168,-9.9397,0,0,0,0,0,0,0,-1,559,1254,-38.168,9.93971
-658,-230,-38.8468,-8.48303,0,0,0,0,0,0,0,-1,566,1254,-38.8468,8.48304
-651,-230,-39.3627,-7.38525,0,0,0,0,0,0,0,-1,573,1254,-39.3627,7.38529
-644,-230,-48.2715,0.872925,0,0,0,0,0,0,0,-1,580,1254,-48.2715,-0.87288
-637,-230,-49.1636,-0.158325,0,0,0,0,0,0,0,-1,587,1254,-49.1636,0.158288
-630,-230,-41.3331,5.24744,0,0,0,0,0,0,0,-1,594,1254,-41.3331,-5.24744
-623,-230,-40.9103,6.26294,0.00564662,0.00282139,-0.00111462,0.00603341,0.0024346,-0.334014,0.00350494,0.0496172,601,1254,-40.9104,-6.26293
-616,-230,-40.6863,6.9873,0.00403199,0.00232936,-0.000886317,0.00440962,0.00195174,-0.40277,0.00255148,0.0185697,608,1254,-40.6863,-6.98734
-609,-230,-40.7139,7.75806,0.00262325,0.00164087,-0.000949367,0.00320097,0.00106315,-0.546667,0.00188248,0.0127656,615,1254,-40.7139,-7.75804
-602,-230,-40.7513,8.51758,0.00148523,0.00055354,-0.00124003,0.00234403,-0.000305262,-0.605719,0.00167375,0.0129956,622,1254,-40.7513,-8.51759
-595,-230,-40.8044,9.30505,0.000534997,-0.000769364,-0.00171074,0.00171366,-0.00194803,-0.603289,0.00211552,0.0206116,629,1254,-40.8045,-9.3051
-588,-230,-40.8874,10.1803,-0.000285022,-0.00237328,-0.00234678,0.00123942,-0.00389773,-0.576087,0.00309547,0.0294282,636,1254,-40.8874,-10.1802
-581,-230,-40.9994,11.1914,-0.00096147,-0.00437376,-0.00315398,0.000918264,-0.00625349,-0.537464,0.00450638,0.0441543,643,1254,-40.9994,-11.1914
-574,-230,-41.2288,12.1563,0,0,0,0,0,0,0,-1,650,1254,-41.2288,-12.1563
-567,-230,-40.7749,11.8311,0,0,0,0,0,0,0,-1,657,1254,-40.7749,-11.8311
-560,-230,-41.2172,12.1694,0,0,0,0,0,0,0,-1,664,1254,-41.2172,-12.1695
-553,-230,-13.1939,4.9718,0,0,0,0,0,0,0,-1,671,1254,-13.1939,-4.97175
-546,-230,-15.23,0.453979,0,0,0,0,0,0,0,-1,678,1254,-15.23,-0.453996
-539,-230,-25.8232,0.512817,0,0,0,0,0,0,0,-1,685,1254,-25.8232,-0.512878
-532,-230,-21.1644,1.52966,0,0,0,0,0,0,0,-1,692,1254,-21.1644,-1.52969
-525,-230,-29.4775,0.731445,0,0,0,0,0,0,0,-1,699,1254,-29.4775,-0.731432
-518,-230,-58.4527,0.306763,0,0,0,0,0,0,0,-1,706,1254,-58.4527,-0.306713
-511,-230,-58.5638,0.119385,0,0,0,0,0,0,0,-1,713,1254,-58.5638,-0.119355
-504,-230,-58.7014,-0.0012207,0,0,0,0,0,0,0,-1,720,1254,-58.7014,0.00119704
-497,-230,0,0,0,0,0,0,0,0,0,-1,727,1254,0,0
-490,-230,0,0,0,0,0,0,0,0,0,-1,734,1254,0,0
-483,-230,0,0,0,0,0,0,0,0,0,-1,741,1254,0,0
-476,-230,0,0,0,0,0,0,0,0,0,-1,748,1254,0,0
-469,-230,0,0,0,0,0,0,0,0,0,-1,755,1254,0,0
-462,-230,0,0,0,0,0,0,0,0,0,-1,762,1254,0,0
-455,-230,0,0,0,0,0,0,0,0,0,-1,769,1254,0,0
-448,-230,0,0,0,0,0,0,0,0,0,-1,776,1254,0,0
-441,-230,0,0,0,0,0,0,0,0,0,-1,783,1254,0,0
-434,-230,0,0,0,0,0,0,0,0,0,-1,790,1254,0,0
-427,-230,0,0,0,0,0,0,0,0,0,-1,797,1254,0,0
-420,-230,0,0,0,0,0,0,0,0,0,-1,804,1254,0,0
-413,-230,0,0,0,0,0,0,0,0,0,-1,811,1254,0,0
-406,-230,0,0,0,0,0,0,0,0,0,-1,818,1254,0,0
-399,-230,0,0,0,0,0,0,0,0,0,-1,825,1254,0,0
-392,-230,0,0,0,0,0,0,0,0,0,-1,832,1254,0,0
-385,-230,0,0,0,0,0,0,0,0,0,-1,839,1254,0,0
-378,-230,0,0,0,0,0,0,0,0,0,-1,846,1254,0,0
-371,-230,0,0,0,0,0,0,0,0,0,-1,853,1254,0,0
-364,-230,0,0,0,0,0,0,0,0,0,-1,860,1254,0,0
-357,-230,0,0,0,0,0,0,0,0,0,-1,867,1254,0,0
-350,-230,0,0,0,0,0,0,0,0,0,-1,874,1254,0,0
-343,-230,0,0,0,0,0,0,0,0,0,-1,881,1254,0,0
-336,-230,0,0,0,0,0,0,0,0,0,-1,888,1254,0,0
-329,-230,0,0,0,0,0,0,0,0,0,-1,895,1254,0,0
-322,-230,0,0,0,0,0,0,0,0,0,-1,902,1254,0,0
-315,-230,0,0,0,0,0,0,0,0,0,-1,909,1254,0,0
-308,-230,0,0,0,0,0,0,0,0,0,-1,916,1254,0,0
-301,-230,0,0,0,0,0,0,0,0,0,-1,923,1254,0,0
-294,-230,0,0,0,0,0,0,0,0,0,-1,930,1254,0,0
-287,-230,0,0,0,0,0,0,0,0,0,-1,937,1254,0,0
-280,-230,0,0,0,0,0,0,0,0,0,-1,944,1254,0,0
-273,-230,0,0,0,0,0,0,0,0,0,-1,951,1254,0,0
-266,-230,0,0,0,0,0,0,0,0,0,-1,958,1254,0,0
-259,-230,0,0,0,0,0,0,0,0,0,-1,965,1254,0,0
-252,-230,0,0,0,0,0,0,0,0,0,-1,972,1254,0,0
-245,-230,0,0,0,0,0,0,0,0,0,-1,979,1254,0,0
-238,-230,0,0,0,0,0,0,0,0,0,-1,986,1254,0,0
-231,-230,0,0,0,0,0,0,0,0,0,-1,993,1254,0,0
-224,-230,0,0,0,0,0,0,0,0,0,-1,1000,1254,0,0
-217,-230,0,0,0,0,0,0,0,0,0,-1,1007,1254,0,0
-210,-230,0,0,0,0,0,0,0,0,0,-1,1014,1254,0,0
-203,-230,0,0,0,0,0,0,0,0,0,-1,1021,1254,0,0
-196,-230,0,0,0,0,0,0,0,0,0,-1,1028,1254,0,0
-189,-230,0,0,0,0,0,0,0,0,0,-1,1035,1254,0,0
-182,-230,0,0,0,0,0,0,0,0,0,-1,1042,1254,0,0
-175,-230,0,0,0,0,0,0,0,0,0,-1,1049,1254,0,0
-168,-230,0,0,0,0,0,0,0,0,0,-1,1056,1254,0,0
-161,-230,0,0,0,0,0,0,0,0,0,-1,1063,1254,0,0
-154,-230,0,0,0,0,0,0,0,0,0,-1,1070,1254,0,0
-147,-230,0,0,0,0,0,0,0,0,0,-1,1077,1254,0,0
-140,-230,0,0,0,0,0,0,0,0,0,-1,1084,1254,0,0
-133,-230,0,0,0,0,0,0,0,0,0,-1,1091,1254,0,0
-126,-230,0,0,0,0,0,0,0,0,0,-1,1098,1254,0,0
-119,-230,0,0,0,0,0,0,0,0,0,-1,1105,1254,0,0
-112,-230,0,0,0,0,0,0,0,0,0,-1,1112,1254,0,0
-105,-230,0,0,0,0,0,0,0,0,0,-1,1119,1254,0,0
-98,-230,0,0,0,0,0,0,0,0,0,-1,1126,1254,0,0
-91,-230,0,0,0,0,0,0,0,0,0,-1,1133,1254,0,0
-84,-230,0,0,0,0,0,0,0,0,0,-1,1140,1254,0,0
-77,-230,0,0,0,0,0,0,0,0,0,-1,1147,1254,0,0
-70,-230,0,0,0,0,0,0,0,0,0,-1,1154,1254,0,0
-63,-230,0,0,0,0,0,0,0,0,0,-1,1161,1254,0,0
-56,-230,0,0,0,0,0,0,0,0,0,-1,1168,1254,0,0
-49,-230,0,0,0,0,0,0,0,0,0,-1,1175,1254,0,0
-42,-230,0,0,0,0,0,0,0,0,0,-1,1182,1254,0,0
-35,-230,0,0,0,0,0,0,0,0,0,-1,1189,1254,0,0
-28,-230,0,0,0,0,0,0,0,0,0,-1,1196,1254,0,0
-21,-230,0,0,0,0,0,0,0,0,0,-1,1203,1254,0,0
-14,-230,0,0,0,0,0,0,0,0,0,-1,1210,1254,0,0
-7,-230,0,0,0,0,0,0,0,0,0,-1,1217,1254,0,0
0,-230,0,0,0,0,0,0,0,0,0,-1,1224,1254,0,0
7,-230,0,0,0,0,0,0,0,0,0,-1,1231,1254,0,0
14,-230,0,0,0,0,0,0,0,0,0,-1,1238,1254,0,0
21,-230,0,0,0,0,0,0,0,0,0,-1,1245,1254,0,0
28,-230,0,0,0,0,0,0,0,0,0,-1,1252,1254,0,0
35,-230,0,0,0,0,0,0,0,0,0,-1,1259,1254,0,0
42,-230,0,0,0,0,0,0,0,0,0,-1,1266,1254,0,0
49,-230,0,0,0,0,0,0,0,0,0,-1,1273,1254,0,0
56,-230,0,0,0,0,0,0,0,0,0,-1,1280,1254,0,0
63,-230,0,0,0,0,0,0,0,0,0,-1,1287,1254,0,0
70,-230,0,0,0,0,0,0,0,0,0,-1,1294,1254,0,0
77,-230,0,0,0,0,0,0,0,0,0,-1,1301,1254,0,0
84,-230,0,0,0,0,0,0,0,0,0,-1,1308,1254,0,0
91,-230,0,0,0,0,0,0,0,0,0,-1,1315,1254,0,0
98,-230,0,0,0,0,0,0,0,0,0,-1,1322,1254,0,0
105,-230,0,0,0,0,0,0,0,0,0,-1,1329,1254,0,0
112,-230,0,0,0,0,0,0,0,0,0,-1,1336,1254,0,0
119,-230,0,0,0,0,0,0,0,0,0,-1,1343,1254,0,0
126,-230,0,0,0,0,0,0,0,0,0,-1,1350,1254,0,0
133,-230,0,0,0,0,0,0,0,0,0,-1,1357,1254,0,0
140,-230,0,0,0,0,0,0,0,0,0,-1,1364,1254,0,0
147,-230,0,0,0,0,0,0,0,0,0,-1,1371,1254,0,0
154,-230,0,0,0,0,0,0,0,0,0,-1,1378,1254,0,0
161,-230,0,0,0,0,0,0,0,0,0,-1,1385,1254,0,0
168,-230,0,0,0,0,0,0,0,0,0,-1,1392,1254,0,0
175,-230,0,0,0,0,0,0,0,0,0,-1,1399,1254,0,0
182,-230,0,0,0,0,0,0,0,0,0,-1,1406,1254,0,0
189,-230,0,0,0,0,0,0,0,0,0,-1,1413,1254,0,0
196,-230,0,0,0,0,0,0,0,0,0,-1,1420,1254,0,0
203,-230,0,0,0,0,0,0,0,0,0,-1,1427,1254,0,0
210,-230,0,0,0,0,0,0,0,0,0,-1,1434,1254,0,0
217,-230,0,0,0,0,0,0,0,0,0,-1,1441,1254,0,0
224,-230,0,0,0,0,0,0,0,0,0,-1,1448,1254,0,0
231,-230,0,0,0,0,0,0,0,0,0,-1,1455,1254,0,0
238,-230,0,0,0,0,0,0,0,0,0,-1,1462,1254,0,0
245,-230,0,0,0,0,0,0,0,0,0,-1,1469,1254,0,0
252,-230,0,0,0,0,0,0,0,0,0,-1,1476,1254,0,0
259,-230,0,0,0,0,0,0,0,0,0,-1,1483,1254,0,0
266,-230,0,0,0,0,0,0,0,0,0,-1,1490,1254,0,0
273,-230,0,0,0,0,0,0,0,0,0,-1,1497,1254,0,0
280,-230,0,0,0,0,0,0,0,0,0,-1,1504,1254,0,0
287,-230,0,0,0,0,0,0,0,0,0,-1,1511,1254,0,0
294,-230,0,0,0,0,0,0,0,0,0,-1,1518,1254,0,0
301,-230,0,0,0,0,0,0,0,0,0,-1,1525,1254,0,0
308,-230,0,0,0,0,0,0,0,0,0,-1,1532,1254,0,0
315,-230,0,0,0,0,0,0,0,0,0,-1,1539,1254,0,0
322,-230,0,0,0,0,0,0,0,0,0,-1,1546,1254,0,0
329,-230,0,0,0,0,0,0,0,0,0,-1,1553,1254,0,0
336,-230,0,0,0,0,0,0,0,0,0,-1,1560,1254,0,0
343,-230,0,0,0,0,0,0,0,0,0,-1,1567,1254,0,0
350,-230,0,0,0,0,0,0,0,0,0,-1,1574,1254,0,0
357,-230,0,0,0,0,0,0,0,0,0,-1,1581,1254,0,0
364,-230,0,0,0,0,0,0,0,0,0,-1,1588,1254,0,0
371,-230,0,0,0,0,0,0,0,0,0,-1,1595,1254,0,0
378,-230,0,0,0,0,0,0,0,0,0,-1,1602,1254,0,0
385,-230,0,0,0,0,0,0,0,0,0,-1,1609,1254,0,0
392,-230,0,0,0,0,0,0,0,0,0,-1,1616,1254,0,0
399,-230,0,0,0,0,0,0,0,0,0,-1,1623,1254,0,0
406,-230,0,0,0,0,0,0,0,0,0,-1,1630,1254,0,0
413,-230,0,0,0,0,0,0,0,0,0,-1,1637,1254,0,0
420,-230,0,0,0,0,0,0,0,0,0,-1,1644,1254,0,0
427,-230,0,0,0,0,0,0,0,0,0,-1,1651,1254,0,0
434,-230,0,0,0,0,0,0,0,0,0,-1,1658,1254,0,0
441,-230,0,0,0,0,0,0,0,0,0,-1,1665,1254,0,0
448,-230,0,0,0,0,0,0,0,0,0,-1,1672,1254,0,0
455,-230,0,0,0,0,0,0,0,0,0,-1,1679,1254,0,0
462,-230,0,0,0,0,0,0,0,0,0,-1,1686,1254,0,0
469,-230,0,0,0,0,0,0,0,0,0,-1,1693,1254,0,0
476,-230,0,0,0,0,0,0,0,0,0,-1,1700,1254,0,0
483,-230,0,0,0,0,0,0,0,0,0,-1,1707,1254,0,0
490,-230,0,0,0,0,0,0,0,0,0,-1,1714,1254,0,0
497,-230,0,0,0,0,0,0,0,0,0,-1,1721,1254,0,0
504,-230,0,0,0,0,0,0,0,0,0,-1,1728,1254,0,0
511,-230,0,0,0,0,0,0,0,0,0,-1,1735,1254,0,0
518,-230,0,0,0,0,0,0,0,0,0,-1,1742,1254,0,0
525,-230,0,0,0,0,0,0,0,0,0,-1,1749,1254,0,0
532,-230,0,0,0,0,0,0,0,0,0,-1,1756,1254,0,0
539,-230,0,0,0,0,0,0,0,0,0,-1,1763,1254,0,0
546,-230,0,0,0,0,0,0,0,0,0,-1,1770,1254,0,0
553,-230,0,0,0,0,0,0,0,0,0,-1,1777,1254,0,0
560,-230,0,0,0,0,0,0,0,0,0,-1,1784,1254,0,0
567,-230,0,0,0,0,0,0,0,0,0,-1,1791,1254,0,0
574,-230,0,0,0,0,0,0,0,0,0,-1,1798,1254,0,0
581,-230,0,0,0,0,0,0,0,0,0,-1,1805,1254,0,0
588,-230,0,0,0,0,0,0,0,0,0,-1,1812,1254,0,0
595,-230,0,0,0,0,0,0,0,0,0,-1,1819,1254,0,0
602,-230,0,0,0,0,0,0,0,0,0,-1,1826,1254,0,0
609,-230,0,0,0,0,0,0,0,0,0,-1,1833,1254,0,0
616,-230,75.787,2.5708,-0.00252122,0.000813702,0.00226554,0.00195926,-0.00366679,1.10264,0.00329769,0.0372518,1840,1254,75.7869,-2.57076
623,-230,75.6886,2.5719,-0.00279214,0.00331866,-0.000842138,0.00343259,-0.00290607,-1.43632,0.00366383,0.0366946,1847,1254,75.6886,-2.57191
630,-230,75.6168,2.44104,-0.00280798,0.00570626,-0.00365113,0.00705751,-0.00415923,-1.21634,0.00654766,0.0314141,1854,1254,75.6168,-2.44106
637,-230,75.5402,2.375,-0.0025627,0.00772122,-0.00606904,0.0105337,-0.00537517,-1.13684,0.00934455,0.0275179,1861,1254,75.5402,-2.37498
644,-230,75.5049,2.28381,-0.00183942,0.00748182,-0.00636366,0.010709,-0.00506662,-1.10146,0.00930022,0.0237926,1868,1254,75.5048,-2.28376
651,-230,75.4507,2.1814,0,0,0,0,0,0,0,-1,1875,1254,75.4507,-2.18141
658,-230,74.9572,1.64063,0,0,0,0,0,0,0,-1,1882,1254,74.9572,-1.64057
665,-230,56.2585,2.51587,0,0,0,0,0,0,0,-1,1889,1254,56.2586,-2.51586
672,-230,43.0962,2.78699,0,0,0,0,0,0,0,-1,1896,1254,43.0962,-2.78698
679,-230,27.9967,2.37708,0,0,0,0,0,0,0,-1,1903,1254,27.9967,-2.3771
686,-230,40.8854,10.1788,0,0,0,0,0,0,0,-1,1910,1254,40.8853,-10.1788
693,-230,50.7637,12.0411,0,0,0,0,0,0,0,-1,1917,1254,50.7636,-12.0412
700,-230,57.1603,13.2308,0,0,0,0,0,0,0,-1,1924,1254,57.1603,-13.2309
707,-230,57.424,12.3518,-0.000239823,-0.000566449,0.000814002,0.000427087,-0.00123336,0.686398,0.000995619,0.0335285,1931,1254,57.4239,-12.3518
714,-230,57.2535,11.6854,-0.000836994,-0.000447501,0.00129222,0.000664568,-0.00194906,0.860189,0.00156855,0.0193856,1938,1254,57.2535,-11.6854
721,-230,57.2023,10.9613,-0.00144086,-0.000400853,0.001832,0.000983519,-0.00282523,0.923683,0.00228307,0.0143611,1945,1254,57.2023,-10.9613
728,-230,57.1331,10.2631,-0.00207433,-0.000373849,0.00225708,0.00118782,-0.00363601,0.965528,0.00290214,0.0159466,1952,1254,57.1331,-10.2631
735,-230,57.0822,9.5376,-0.00275659,-0.000329884,0.00276724,0.00147833,-0.0045648,0.992011,0.00363753,0.0163046,1959,1254,57.0822,-9.53763
742,-230,57.0406,8.77112,-0.00353042,-0.000428992,0.00349465,0.00184355,-0.00580296,0.994216,0.00460777,0.012589,1966,1254,57.0406,-8.77108
749,-230,57.0179,7.98254,-0.00436927,-0.000669915,0.00444852,0.00229815,-0.00733734,0.982422,0.00581111,0.0120608,1973,1254,57.0179,-7.98258
756,-230,56.9576,7.25562,-0.00533086,-0.00109617,0.00576102,0.00292427,-0.0093513,0.961501,0.00740402,0.017218,1980,1254,56.9576,-7.25565
763,-230,56.9403,6.54333,-0.00672956,-0.00204512,0.00789431,0.00384711,-0.0126218,0.92961,0.00994802,0.037367,1987,1254,56.9404,-6.54329
770,-230,57.2764,5.83936,0,0,0,0,0,0,0,-1,1994,1254,57.2764,-5.83941
777,-230,41.8693,3.74707,0,0,0,0,0,0,0,-1,2001,1254,41.8692,-3.74713
784,-230,35.8896,1.80334,0,0,0,0,0,0,0,-1,2008,1254,35.8897,-1.80338
791,-230,35.6028,2.20642,0,0,0,0,0,0,0,-1,2015,1254,35.6027,-2.2064
798,-230,0,0,0,0,0,0,0,0,0,-1,2022,1254,0,0
805,-230,0,0,0,0,0,0,0,0,0,-1,2029,1254,0,0
812,-230,0,0,0,0,0,0,0,0,0,-1,2036,1254,0,0
-700,-237,0,0,0,0,0,0,0,0,0,-1,524,1261,0,0
-693,-237,0,0,0,0,0,0,0,0,0,-1,531,1261,0,0
-686,-237,0,0,0,0,0,0,0,0,0,-1,538,1261,0,0
-679,-237,0,0,0,0,0,0,0,0,0,-1,545,1261,0,0
-672,-237,-36.6405,-12.5112,0,0,0,0,0,0,0,-1,552,1261,-36.6405,12.5113
-665,-237,-37.1436,-10.5648,0,0,0,0,0,0,0,-1,559,1261,-37.1436,10.5649
-658,-237,-37.8344,-8.67175,0,0,0,0,0,0,0,-1,566,1261,-37.8344,8.67179
-651,-237,-46.9487,1.65137,0,0,0,0,0,0,0,-1,573,1261,-46.9487,-1.65142
-644,-237,-47.6604,0.785034,0,0,0,0,0,0,0,-1,580,1261,-47.6604,-0.785034
-637,-237,-33.4961,2.71313,0,0,0,0,0,0,0,-1,587,1261,-33.4961,-2.71312
-630,-237,-40.1431,4.96436,0,0,0,0,0,0,0,-1,594,1261,-40.1432,-4.96438
-623,-237,-39.8412,5.93396,0.00500228,0.00380907,-0.000821199,0.00542071,0.00339063,-0.471251,0.00316234,0.0429623,601,1261,-39.8413,-5.93395
-616,-237,-39.8194,6.9729,0.00373418,0.00307654,-0.000552882,0.00404863,0.00276208,-0.517128,0.00238866,0.0164309,608,1261,-39.8194,-6.97287
-609,-237,-39.9106,7.78052,0.00248598,0.00231207,-0.000597514,0.00300283,0.00179521,-0.713141,0.00174471,0.0170555,615,1261,-39.9106,-7.78047
-602,-237,-39.9682,8.57336,0.00145571,0.00111123,-0.000863303,0.00216379,0.000403152,-0.686933,0.00132869,0.0136327,622,1261,-39.9682,-8.57338
-595,-237,-40.0494,9.35278,0.000610156,-0.000269205,-0.00127782,0.00152182,-0.00118087,-0.619699,0.00156453,0.0171279,629,1261,-40.0494,-9.35284
-588,-237,-40.0743,10.1824,-0.000118533,-0.00187638,-0.00180026,0.0010059,-0.00300081,-0.558308,0.00240695,0.0282789,636,1261,-40.0743,-10.1824
-581,-237,-40.1151,10.9681,-0.00072441,-0.00381391,-0.00247341,0.000647,-0.00518532,-0.506262,0.0036915,0.0263901,643,1261,-40.1151,-10.9681
-574,-237,-40.037,11.5237,-0.00133329,-0.0061414,-0.00320604,0.000269926,-0.00774461,-0.463695,0.00525536,0.0373041,650,1261,-40.037,-11.5237
-567,-237,-40.1627,12.0873,0,0,0,0,0,0,0,-1,657,1261,-40.1627,-12.0873
-560,-237,-40.2616,12.7921,0,0,0,0,0,0,0,-1,664,1261,-40.2616,-12.7921
-553,-237,-20.6102,6.92139,0,0,0,0,0,0,0,-1,671,1261,-20.6102,-6.92138
-546,-237,-11.192,1.14014,0,0,0,0,0,0,0,-1,678,1261,-11.192,-1.14011
-539,-237,-16.512,1.53455,0,0,0,0,0,0,0,-1,685,1261,-16.512,-1.53457
-532,-237,-29.7025,1.23621,0,0,0,0,0,0,0,-1,692,1261,-29.7025,-1.23618
-525,-237,-47.2925,0.590942,0,0,0,0,0,0,0,-1,699,1261,-47.2925,-0.590989
-518,-237,-48.2897,0.765869,0,0,0,0,0,0,0,-1,706,1261,-48.2897,-0.765854
-511,-237,-58.5406,0.300781,0,0,0,0,0,0,0,-1,713,1261,-58.5406,-0.300817
-504,-237,-58.7148,0.260864,0,0,0,0,0,0,0,-1,720,1261,-58.7149,-0.260881
-497,-237,-58.7267,0.338013,0,0,0,0,0,0,0,-1,727,1261,-58.7267,-0.338018
-490,-237,0,0,0,0,0,0,0,0,0,-1,734,1261,0,0
-483,-237,0,0,0,0,0,0,0,0,0,-1,741,1261,0,0
-476,-237,0,0,0,0,0,0,0,0,0,-1,748,1261,0,0
-469,-237,0,0,0,0,0,0,0,0,0,-1,755,1261,0,0
-462,-237,0,0,0,0,0,0,0,0,0,-1,762,1261,0,0
-455,-237,0,0,0,0,0,0,0,0,0,-1,769,1261,0,0
-448,-237,0,0,0,0,0,0,0,0,0,-1,776,1261,0,0
-441,-237,0,0,0,0,0,0,0,0,0,-1,783,1261,0,0
-434,-237,0,0,0,0,0,0,0,0,0,-1,790,1261,0,0
-427,-237,0,0,0,0,0,0,0,0,0,-1,797,1261,0,0
-420,-237,0,0,0,0,0,0,0,0,0,-1,804,1261,0,0
-413,-237,0,0,0,0,0,0,0,0,0,-1,811,1261,0,0
-406,-237,0,0,0,0,0,0,0,0,0,-1,818,1261,0,0
-399,-237,0,0,0,0,0,0,0,0,0,-1,825,1261,0,0
-392,-237,0,0,0,0,0,0,0,0,0,-1,832,1261,0,0
-385,-237,0,0,0,0,0,0,0,0,0,-1,839,1261,0,0
-378,-237,0,0,0,0,0,0,0,0,0,-1,846,1261,0,0
-371,-237,0,0,0,0,0,0,0,0,0,-1,853,1261,0,0
-364,-237,0,0,0,0,0,0,0,0,0,-1,860,1261,0,0
-357,-237,0,0,0,0,0,0,0,0,0,-1,867,1261,0,0
-350,-237,0,0,0,0,0,0,0,0,0,-1,874,1261,0,0
-343,-237,0,0,0,0,0,0,0,0,0,-1,881,1261,0,0
-336,-237,0,0,0,0,0,0,0,0,0,-1,888,1261,0,0
-329,-237,0,0,0,0,0,0,0,0,0,-1,895,1261,0,0
-322,-237,0,0,0,0,0,0,0,0,0,-1,902,1261,0,0
-315,-237,0,0,0,0,0,0,0,0,0,-1,909,1261,0,0
-308,-237,0,0,0,0,0,0,0,0,0,-1,916,1261,0,0
-301,-237,0,0,0,0,0,0,0,0,0,-1,923,1261,0,0
-294,-237,0,0,0,0,0,0,0,0,0,-1,930,1261,0,0
-287,-237,0,0,0,0,0,0,0,0,0,-1,937,1261,0,0
-280,-237,0,0,0,0,0,0,0,0,0,-1,944,1261,0,0
-273,-237,0,0,0,0,0,0,0,0,0,-1,951,1261,0,0
-266,-237,0,0,0,0,0,0,0,0,0,-1,958,1261,0,0
-259,-237,0,0,0,0,0,0,0,0,0,-1,965,1261,0,0
-252,-237,0,0,0,0,0,0,0,0,0,-1,972,1261,0,0
-245,-237,0,0,0,0,0,0,0,0,0,-1,979,1261,0,0
-238,-237,0,0,0,0,0,0,0,0,0,-1,986,1261,0,0
-231,-237,0,0,0,0,0,0,0,0,0,-1,993,1261,0,0
-224,-237,0,0,0,0,0,0,0,0,0,-1,1000,1261,0,0
-217,-237,0,0,0,0,0,0,0,0,0,-1,1007,1261,0,0
-210,-237,0,0,0,0,0,0,0,0,0,-1,1014,1261,0,0
-203,-237,0,0,0,0,0,0,0,0,0,-1,1021,1261,0,0
-196,-237,0,0,0,0,0,0,0,0,0,-1,1028,1261,0,0
-189,-237,0,0,0,0,0,0,0,0,0,-1,1035,1261,0,0
-182,-237,0,0,0,0,0,0,0,0,0,-1,1042,1261,0,0
-175,-237,0,0,0,0,0,0,0,0,0,-1,1049,1261,0,0
-168,-237,0,0,0,0,0,0,0,0,0,-1,1056,1261,0,0
-161,-237,0,0,0,0,0,0,0,0,0,-1,1063,1261,0,0
-154,-237,0,0,0,0,0,0,0,0,0,-1,1070,1261,0,0
-147,-237,0,0,0,0,0,0,0,0,0,-1,1077,1261,0,0
-140,-237,0,0,0,0,0,0,0,0,0,-1,1084,1261,0,0
-133,-237,0,0,0,0,0,0,0,0,0,-1,1091,1261,0,0
-126,-237,0,0,0,0,0,0,0,0,0,-1,1098,1261,0,0
-119,-237,0,0,0,0,0,0,0,0,0,-1,1105,1261,0,0
-112,-237,0,0,0,0,0,0,0,0,0,-1,1112,1261,0,0
-105,-237,0,0,0,0,0,0,0,0,0,-1,1119,1261,0,0
-98,-237,0,0,0,0,0,0,0,0,0,-1,1126,1261,0,0
-91,-237,0,0,0,0,0,0,0,0,0,-1,1133,1261,0,0
-84,-237,0,0,0,0,0,0,0,0,0,-1,1140,1261,0,0
-77,-237,0,0,0,0,0,0,0,0,0,-1,1147,1261,0,0
-70,-237,0,0,0,0,0,0,0,0,0,-1,1154,1261,0,0
-63,-237,0,0,0,0,0,0,0,0,0,-1,1161,1261,0,0
-56,-237,0,0,0,0,0,0,0,0,0,-1,1168,1261,0,0
-49,-237,0,0,0,0,0,0,0,0,0,-1,1175,1261,0,0
-42,-237,0,0,0,0,0,0,0,0,0,-1,1182,1261,0,0
-35,-237,0,0,0,0,0,0,0,0,0,-1,1189,1261,0,0
-28,-237,0,0,0,0,0,0,0,0,0,-1,1196,1261,0,0
-21,-237,0,0,0,0,0,0,0,0,0,-1,1203,1261,0,0
-14,-237,0,0,0,0,0,0,0,0,0,-1,1210,1261,0,0
-7,-237,0,0,0,0,0,0,0,0,0,-1,1217,1261,0,0
0,-237,0,0,0,0,0,0,0,0,0,-1,1224,1261,0,0
7,-237,0,0,0,0,0,0,0,0,0,-1,1231,1261,0,0
14,-237,0,0,0,0,0,0,0,0,0,-1,1238,1261,0,0
21,-237,0,0,0,0,0,0,0,0,0,-1,1245,1261,0,0
28,-237,0,0,0,0,0,0,0,0,0,-1,1252,1261,0,0
35,-237,0,0,0,0,0,0,0,0,0,-1,1259,1261,0,0
42,-237,0,0,0,0,0,0,0,0,0,-1,1266,1261,0,0
49,-237,0,0,0,0,0,0,0,0,0,-1,1273,1261,0,0
56,-237,0,0,0,0,0,0,0,0,0,-1,1280,1261,0,0
63,-237,0,0,0,0,0,0,0,0,0,-1,1287,1261,0,0
70,-237,0,0,0,0,0,0,0,0,0,-1,1294,1261,0,0
77,-237,0,0,0,0,0,0,0,0,0,-1,1301,1261,0,0
84,-237,0,0,0,0,0,0,0,0,0,-1,1308,1261,0,0
91,-237,0,0,0,0,0,0,0,0,0,-1,1315,1261,0,0
98,-237,0,0,0,0,0,0,0,0,0,-1,1322,1261,0,0
105,-237,0,0,0,0,0,0,0,0,0,-1,1329,1261,0,0
112,-237,0,0,0,0,0,0,0,0,0,-1,1336,1261,0,0
119,-237,0,0,0,0,0,0,0,0,0,-1,1343,1261,0,0
126,-237,0,0,0,0,0,0,0,0,0,-1,1350,1261,0,0
133,-237,0,0,0,0,0,0,0,0,0,-1,1357,1261,0,0
140,-237,0,0,0,0,0,0,0,0,0,-1,1364,1261,0,0
147,-237,0,0,0,0,0,0,0,0,0,-1,1371,1261,0,0
154,-237,0,0,0,0,0,0,0,0,0,-1,1378,1261,0,0
161,-237,0,0,0,0,0,0,0,0,0,-1,1385,1261,0,0
168,-237,0,0,0,0,0,0,0,0,0,-1,1392,1261,0,0
175,-237,0,0,0,0,0,0,0,0,0,-1,1399,1261,0,0
182,-237,0,0,0,0,0,0,0,0,0,-1,1406,1261,0,0
189,-237,0,0,0,0,0,0,0,0,0,-1,1413,1261,0,0
196,-237,0,0,0,0,0,0,0,0,0,-1,1420,1261,0,0
203,-237,0,0,0,0,0,0,0,0,0,-1,1427,1261,0,0
210,-237,0,0,0,0,0,0,0,0,0,-1,1434,1261,0,0
217,-237,0,0,0,0,0,0,0,0,0,-1,1441,1261,0,0
224,-237,0,0,0,0,0,0,0,0,0,-1,1448,1261,0,0
231,-237,0,0,0,0,0,0,0,0,0,-1,1455,1261,0,0
238,-237,0,0,0,0,0,0,0,0,0,-1,1462,1261,0,0
245,-237,0,0,0,0,0,0,0,0,0,-1,1469,1261,0,0
252,-237,0,0,0,0,0,0,0,0,0,-1,1476,1261,0,0
259,-237,0,0,0,0,0,0,0,0,0,-1,1483,1261,0,0
266,-237,0,0,0,0,0,0,0,0,0,-1,1490,1261,0,0
273,-237,0,0,0,0,0,0,0,0,0,-1,1497,1261,0,0
280,-237,0,0,0,0,0,0,0,0,0,-1,1504,1261,0,0
287,-237,0,0,0,0,0,0,0,0,0,-1,1511,1261,0,0
294,-237,0,0,0,0,0,0,0,0,0,-1,1518,1261,0,0
301,-237,0,0,0,0,0,0,0,0,0,-1,1525,1261,0,0
308,-237,0,0,0,0,0,0,0,0,0,-1,1532,1261,0,0
315,-237,0,0,0,0,0,0,0,0,0,-1,1539,1261,0,0
322,-237,0,0,0,0,0,0,0,0,0,-1,1546,1261,0,0
329,-237,0,0,0,0,0,0,0,0,0,-1,1553,1261,0,0
336,-237,0,0,0,0,0,0,0,0,0,-1,1560,1261,0,0
343,-237,0,0,0,0,0,0,0,0,0,-1,1567,1261,0,0
350,-237,0,0,0,0,0,0,0,0,0,-1,1574,1261,0,0
357,-237,0,0,0,0,0,0,0,0,0,-1,1581,1261,0,0
364,-237,0,0,0,0,0,0,0,0,0,-1,1588,1261,0,0
371,-237,0,0,0,0,0,0,0,0,0,-1,1595,1261,0,0
378,-237,0,0,0,0,0,0,0,0,0,-1,1602,1261,0,0
385,-237,0,0,0,0,0,0,0,0,0,-1,1609,1261,0,0
392,-237,0,0,0,0,0,0,0,0,0,-1,1616,1261,0,0
399,-237,0,0,0,0,0,0,0,0,0,-1,1623,1261,0,0
406,-237,0,0,0,0,0,0,0,0,0,-1,1630,1261,0,0
413,-237,0,0,0,0,0,0,0,0,0,-1,1637,1261,0,0
420,-237,0,0,0,0,0,0,0,0,0,-1,1644,1261,0,0
427,-237,0,0,0,0,0,0,0,0,0,-1,1651,1261,0,0
434,-237,0,0,0,0,0,0,0,0,0,-1,1658,1261,0,0
441,-237,0,0,0,0,0,0,0,0,0,-1,1665,1261,0,0
448,-237,0,0,0,0,0,0,0,0,0,-1,1672,1261,0,0
455,-237,0,0,0,0,0,0,0,0,0,-1,1679,1261,0,0
462,-237,0,0,0,0,0,0,0,0,0,-1,1686,1261,0,0
469,-237,0,0,0,0,0,0,0,0,0,-1,1693,1261,0,0
476,-237,0,0,0,0,0,0,0,0,0,-1,1700,1261,0,0
483,-237,0,0,0,0,0,0,0,0,0,-1,1707,1261,0,0
490,-237,0,0,0,0,0,0,0,0,0,-1,1714,1261,0,0
497,-237,0,0,0,0,0,0,0,0,0,-1,1721,1261,0,0
504,-237,0,0,0,0,0,0,0,0,0,-1,1728,1261,0,0
511,-237,0,0,0,0,0,0,0,0,0,-1,1735,1261,0,0
518,-237,0,0,0,0,0,0,0,0,0,-1,1742,1261,0,0
525,-237,0,0,0,0,0,0,0,0,0,-1,1749,1261,0,0
532,-237,0,0,0,0,0,0,0,0,0,-1,1756,1261,0,0
539,-237,0,0,0,0,0,0,0,0,0,-1,1763,1261,0,0
546,-237,0,0,0,0,0,0,0,0,0,-1,1770,1261,0,0
553,-237,0,0,0,0,0,0,0,0,0,-1,1777,1261,0,0
560,-237,0,0,0,0,0,0,0,0,0,-1,1784,1261,0,0
567,-237,0,0,0,0,0,0,0,0,0,-1,1791,1261,0,0
574,-237,0,0,0,0,0,0,0,0,0,-1,1798,1261,0,0
581,-237,0,0,0,0,0,0,0,0,0,-1,1805,1261,0,0
588,-237,0,0,0,0,0,0,0,0,0,-1,1812,1261,0,0
595,-237,0,0,0,0,0,0,0,0,0,-1,1819,1261,0,0
602,-237,0,0,0,0,0,0,0,0,0,-1,1826,1261,0,0
609,-237,0,0,0,0,0,0,0,0,0,-1,1833,1261,0,0
616,-237,75.7572,2.43689,-0.0028667,0.00171334,0.00130947,0.00206129,-0.00321465,1.31108,0.00307023,0.0350821,1840,1261,75.7572,-2.43692
623,-237,75.7501,2.50134,-0.00294077,0.0046913,-0.00251356,0.00544474,-0.00369421,-1.27957,0.00530854,0.0318649,1847,1261,75.7501,-2.50134
630,-237,75.6361,2.42786,-0.00289317,0.00760299,-0.00595714,0.010294,-0.00558423,-1.1465,0.00930078,0.0262545,1854,1261,75.636,-2.42789
637,-237,75.4735,2.29016,-0.00264566,0.00970054,-0.0084441,0.0139874,-0.00693248,-1.10103,0.0123049,0.0228574,1861,1261,75.4735,-2.29011
644,-237,75.3871,2.16736,-0.00195946,0.00848053,-0.00763621,0.0125104,-0.00598934,-1.08521,0.0108998,0.0452693,1868,1261,75.3871,-2.16736
651,-237,75.3036,2.04065,0,0,0,0,0,0,0,-1,1875,1261,75.3036,-2.04068
658,-237,74.9572,1.44421,0,0,0,0,0,0,0,-1,1882,1261,74.9572,-1.44419
665,-237,57.9302,3.30676,0,0,0,0,0,0,0,-1,1889,1261,57.9302,-3.30671
672,-237,45.3922,1.95618,0,0,0,0,0,0,0,-1,1896,1261,45.3922,-1.95623
679,-237,23.1501,7.37488,0,0,0,0,0,0,0,-1,1903,1261,23.1502,-7.37493
686,-237,36.8348,9.99426,0,0,0,0,0,0,0,-1,1910,1261,36.8349,-9.99424
693,-237,56.8768,13.8812,0,0,0,0,0,0,0,-1,1917,1261,56.8768,-13.8813
700,-237,56.6891,13.2252,0.000165665,-0.000552398,0.000674194,0.000570467,-0.0009572,0.540731,0.00089137,0.0373156,1924,1261,56.6891,-13.2252
707,-237,56.5645,12.525,-0.000287529,-0.000779604,0.000982725,0.00047949,-0.00154662,0.662738,0.00122266,0.0238933,1931,1261,56.5644,-12.5251
714,-237,56.4829,11.7588,-0.00102366,-0.000665795,0.00143035,0.000596775,-0.00228623,0.847623,0.00175719,0.0172489,1938,1261,56.4829,-11.7588
721,-237,56.4199,11.0369,-0.00173454,-0.000573198,0.00192898,0.00086062,-0.00316835,0.931596,0.00245002,0.0179706,1945,1261,56.4199,-11.0369
728,-237,56.403,10.2906,-0.00244285,-0.000493037,0.00236413,0.00108931,-0.0040252,0.980963,0.00311081,0.0157932,1952,1261,56.403,-10.2906
735,-237,56.3414,9.5011,-0.00321701,-0.000439932,0.00291619,0.00140142,-0.00505836,1.00759,0.00392371,0.020862,1959,1261,56.3414,-9.50116
742,-237,56.3026,8.7738,-0.00409661,-0.00051256,0.00367455,0.00178365,-0.00639282,1.01227,0.00496441,0.0162667,1966,1261,56.3026,-8.7738
749,-237,56.2261,8.05286,-0.0050476,-0.000729444,0.00464523,0.00223396,-0.008011,1.00294,0.0062205,0.0104284,1973,1261,56.2261,-8.05291
756,-237,56.1672,7.32239,-0.00616249,-0.00113843,0.00601242,0.00286564,-0.0101666,0.983279,0.00790793,0.0184993,1980,1261,56.1673,-7.32236
763,-237,56.0468,6.59412,-0.00774128,-0.00207974,0.00822412,0.00378716,-0.0136082,0.951149,0.0105633,0.0415009,1987,1261,56.0468,-6.5941
770,-237,56.3193,5.66418,0,0,0,0,0,0,0,-1,1994,1261,56.3193,-5.66416
777,-237,54.4185,3.49426,0,0,0,0,0,0,0,-1,2001,1261,54.4184,-3.4943
784,-237,36.3441,1.68591,0,0,0,0,0,0,0,-1,2008,1261,36.3441,-1.68592
791,-237,32.3025,6.03235,0,0,0,0,0,0,0,-1,2015,1261,32.3025,-6.03229
798,-237,0,0,0,0,0,0,0,0,0,-1,2022,1261,0,0
805,-237,0,0,0,0,0,0,0,0,0,-1,2029,1261,0,0
812,-237,0,0,0,0,0,0,0,0,0,-1,2036,1261,0,0
-700,-244,0,0,0,0,0,0,0,0,0,-1,524,1268,0,0
-693,-244,0,0,0,0,0,0,0,0,0,-1,531,1268,0,0
-686,-244,0,0,0,0,0,0,0,0,0,-1,538,1268,0,0
-679,-244,0,0,0,0,0,0,0,0,0,-1,545,1268,0,0
-672,-244,-44.7993,4.39575,0,0,0,0,0,0,0,-1,552,1268,-44.7992,-4.39576
-665,-244,-46.0868,3.64392,0,0,0,0,0,0,0,-1,559,1268,-46.0868,-3.64391
-658,-244,-45.9758,2.05481,0,0,0,0,0,0,0,-1,566,1268,-45.9758,-2.05486
-651,-244,-46.4749,1.28564,0,0,0,0,0,0,0,-1,573,1268,-46.4749,-1.28561
-644,-244,-32.7362,1.51355,0,0,0,0,0,0,0,-1,580,1268,-32.7362,-1.51355
-637,-244,-34.8414,3.00073,0,0,0,0,0,0,0,-1,587,1268,-34.8414,-3.00078
-630,-244,-39.1895,5.47107,0,0,0,0,0,0,0,-1,594,1268,-39.1895,-5.47101
-623,-244,-39.1033,6.23657,0.00482006,0.00469986,0.000250564,0.00501763,0.00450229,0.667692,0.00318723,0.0424183,601,1268,-39.1034,-6.23652
-616,-244,-39.0543,7.02856,0.00371955,0.00371508,0.000216743,0.00393407,0.00350056,0.780239,0.00249082,0.019207,608,1268,-39.0543,-7.02861
-609,-244,-39.1492,7.82434,0.00246394,0.00290106,-1.81635e-05,0.00290181,0.00246319,-1.52934,0.00180618,0.015402,615,1268,-39.1492,-7.82434
-602,-244,-39.1858,8.6051,0.00139214,0.00160622,-0.000382843,0.0018967,0.00110166,-0.921709,0.00109982,0.0164428,622,1268,-39.1858,-8.60508
-595,-244,-39.2555,9.40857,0.000509782,0.000187972,-0.000820837,0.00118534,-0.000487582,-0.688613,0.000993469,0.0174927,629,1268,-39.2555,-9.40851
-588,-244,-39.2792,10.2072,-0.000250288,-0.00141772,-0.00130355,0.000594274,-0.00226228,-0.574891,0.00174044,0.0216728,636,1268,-39.2791,-10.2072
-581,-244,-39.316,10.9449,-0.000912394,-0.00328063,-0.0018656,0.000113151,-0.00430618,-0.502622,0.00290924,0.0187423,643,1268,-39.316,-10.945
-574,-244,-39.3546,11.6777,-0.00152198,-0.00546532,-0.00245259,-0.0003468,-0.0066405,-0.446837,0.00431605,0.0294005,650,1268,-39.3546,-11.6777
-567,-244,-39.4953,12.4537,-0.00160007,-0.00817709,-0.00305167,-0.000402271,-0.00937489,-0.374029,0.00612025,0.037852,657,1268,-39.4953,-12.4537
-560,-244,-39.5396,13.1526,-0.0016393,-0.0109664,-0.00354286,-0.000446186,-0.0121595,-0.324837,0.0079618,0.0433637,664,1268,-39.5395,-13.1526
-553,-244,-39.4675,13.8625,0,0,0,0,0,0,0,-1,671,1268,-39.4675,-13.8626
-546,-244,-11.2686,4.41772,0,0,0,0,0,0,0,-1,678,1268,-11.2686,-4.41767
-539,-244,-12.8706,0.3302,0,0,0,0,0,0,0,-1,685,1268,-12.8706,-0.330156
-532,-244,-18.1502,0.816528,0,0,0,0,0,0,0,-1,692,1268,-18.1502,-0.816514
-525,-244,-33.0835,0.693604,0,0,0,0,0,0,0,-1,699,1268,-33.0835,-0.69365
-518,-244,-47.5015,0.609131,0,0,0,0,0,0,0,-1,706,1268,-47.5015,-0.60919
-511,-244,-48.6138,1.11877,0,0,0,0,0,0,0,-1,713,1268,-48.6138,-1.11872
-504,-244,-58.7918,0.535522,0,0,0,0,0,0,0,-1,720,1268,-58.7918,-0.535556
-497,-244,-58.8702,0.640625,0,0,0,0,0,0,0,-1,727,1268,-58.8702,-0.640581
-490,-244,0,0,0,0,0,0,0,0,0,-1,734,1268,0,0
-483,-244,0,0,0,0,0,0,0,0,0,-1,741,1268,0,0
-476,-244,0,0,0,0,0,0,0,0,0,-1,748,1268,0,0
-469,-244,0,0,0,0,0,0,0,0,0,-1,755,1268,0,0
-462,-244,0,0,0,0,0,0,0,0,0,-1,762,1268,0,0
-455,-244,0,0,0,0,0,0,0,0,0,-1,769,1268,0,0
-448,-244,0,0,0,0,0,0,0,0,0,-1,776,1268,0,0
-441,-244,0,0,0,0,0,0,0,0,0,-1,783,1268,0,0
-434,-244,0,0,0,0,0,0,0,0,0,-1,790,1268,0,0
-427,-244,0,0,0,0,0,0,0,0,0,-1,797,1268,0,0
-420,-244,0,0,0,0,0,0,0,0,0,-1,804,1268,0,0
-413,-244,0,0,0,0,0,0,0,0,0,-1,811,1268,0,0
-406,-244,0,0,0,0,0,0,0,0,0,-1,818,1268,0,0
-399,-244,0,0,0,0,0,0,0,0,0,-1,825,1268,0,0
-392,-244,0,0,0,0,0,0,0,0,0,-1,832,1268,0,0
-385,-244,0,0,0,0,0,0,0,0,0,-1,839,1268,0,0
-378,-244,0,0,0,0,0,0,0,0,0,-1,846,1268,0,0
-371,-244,0,0,0,0,0,0,0,0,0,-1,853,1268,0,0
-364,-244,0,0,0,0,0,0,0,0,0,-1,860,1268,0,0
-357,-244,0,0,0,0,0,0,0,0,0,-1,867,1268,0,0
-350,-244,0,0,0,0,0,0,0,0,0,-1,874,1268,0,0
-343,-244,0,0,0,0,0,0,0,0,0,-1,881,1268,0,0
-336,-244,0,0,0,0,0,0,0,0,0,-1,888,1268,0,0
-329,-244,0,0,0,0,0,0,0,0,0,-1,895,1268,0,0
-322,-244,0,0,0,0,0,0,0,0,0,-1,902,1268,0,0
-315,-244,0,0,0,0,0,0,0,0,0,-1,909,1268,0,0
-308,-244,0,0,0,0,0,0,0,0,0,-1,916,1268,0,0
-301,-244,0,0,0,0,0,0,0,0,0,-1,923,1268,0,0
-294,-244,0,0,0,0,0,0,0,0,0,-1,930,1268,0,0
-287,-244,0,0,0,0,0,0,0,0,0,-1,937,1268,0,0
-280,-244,0,0,0,0,0,0,0,0,0,-1,944,1268,0,0
-273,-244,0,0,0,0,0,0,0,0,0,-1,951,1268,0,0
-266,-244,0,0,0,0,0,0,0,0,0,-1,958,1268,0,0
-259,-244,0,0,0,0,0,0,0,0,0,-1,965,1268,0,0
-252,-244,0,0,0,0,0,0,0,0,0,-1,972,1268,0,0
-245,-244,0,0,0,0,0,0,0,0,0,-1,979,1268,0,0
-238,-244,0,0,0,0,0,0,0,0,0,-1,986,1268,0,0
-231,-244,0,0,0,0,0,0,0,0,0,-1,993,1268,0,0
-224,-244,0,0,0,0,0,0,0,0,0,-1,1000,1268,0,0
-217,-244,0,0,0,0,0,0,0,0,0,-1,1007,1268,0,0
-210,-244,0,0,0,0,0,0,0,0,0,-1,1014,1268,0,0
-203,-244,0,0,0,0,0,0,0,0,0,-1,1021,1268,0,0
-196,-244,0,0,0,0,0,0,0,0,0,-1,1028,1268,0,0
-189,-244,0,0,0,0,0,0,0,0,0,-1,1035,1268,0,0
-182,-244,0,0,0,0,0,0,0,0,0,-1,1042,1268,0,0
-175,-244,0,0,0,0,0,0,0,0,0,-1,1049,1268,0,0
-168,-244,0,0,0,0,0,0,0,0,0,-1,1056,1268,0,0
-161,-244,0,0,0,0,0,0,0,0,0,-1,1063,1268,0,0
-154,-244,0,0,0,0,0,0,0,0,0,-1,1070,1268,0,0
-147,-244,0,0,0,0,0,0,0,0,0,-1,1077,1268,0,0
-140,-244,0,0,0,0,0,0,0,0,0,-1,1084,1268,0,0
-133,-244,0,0,0,0,0,0,0,0,0,-1,1091,1268,0,0
-126,-244,0,0,0,0,0,0,0,0,0,-1,1098,1268,0,0
-119,-244,0,0,0,0,0,0,0,0,0,-1,1105,1268,0,0
-112,-244,0,0,0,0,0,0,0,0,0,-1,1112,1268,0,0
-105,-244,0,0,0,0,0,0,0,0,0,-1,1119,1268,0,0
-98,-244,0,0,0,0,0,0,0,0,0,-1,1126,1268,0,0
-91,-244,0,0,0,0,0,0,0,0,0,-1,1133,1268,0,0
-84,-244,0,0,0,0,0,0,0,0,0,-1,1140,1268,0,0
-77,-244,0,0,0,0,0,0,0,0,0,-1,1147,1268,0,0
-70,-244,0,0,0,0,0,0,0,0,0,-1,1154,1268,0,0
-63,-244,0,0,0,0,0,0,0,0,0,-1,1161,1268,0,0
-56,-244,0,0,0,0,0,0,0,0,0,-1,1168,1268,0,0
-49,-244,0,0,0,0,0,0,0,0,0,-1,1175,1268,0,0
-42,-244,0,0,0,0,0,0,0,0,0,-1,1182,1268,0,0
-35,-244,0,0,0,0,0,0,0,0,0,-1,1189,1268,0,0
-28,-244,0,0,0,0,0,0,0,0,0,-1,1196,1268,0,0
-21,-244,0,0,0,0,0,0,0,0,0,-1,1203,1268,0,0
-14,-244,0,0,0,0,0,0,0,0,0,-1,1210,1268,0,0
-7,-244,0,0,0,0,0,0,0,0,0,-1,1217,1268,0,0
0,-244,0,0,0,0,0,0,0,0,0,-1,1224,1268,0,0
7,-244,0,0,0,0,0,0,0,0,0,-1,1231,1268,0,0
14,-244,0,0,0,0,0,0,0,0,0,-1,1238,1268,0,0
21,-244,0,0,0,0,0,0,0,0,0,-1,1245,1268,0,0
28,-244,0,0,0,0,0,0,0,0,0,-1,1252,1268,0,0
35,-244,0,0,0,0,0,0,0,0,0,-1,1259,1268,0,0
42,-244,0,0,0,0,0,0,0,0,0,-1,1266,1268,0,0
49,-244,0,0,0,0,0,0,0,0,0,-1,1273,1268,0,0
56,-244,0,0,0,0,0,0,0,0,0,-1,1280,1268,0,0
63,-244,0,0,0,0,0,0,0,0,0,-1,1287,1268,0,0
70,-244,0,0,0,0,0,0,0,0,0,-1,1294,1268,0,0
77,-244,0,0,0,0,0,0,0,0,0,-1,1301,1268,0,0
84,-244,0,0,0,0,0,0,0,0,0,-1,1308,1268,0,0
91,-244,0,0,0,0,0,0,0,0,0,-1,1315,1268,0,0
98,-244,0,0,0,0,0,0,0,0,0,-1,1322,1268,0,0
105,-244,0,0,0,0,0,0,0,0,0,-1,1329,1268,0,0
112,-244,0,0,0,0,0,0,0,0,0,-1,1336,1268,0,0
119,-244,0,0,0,0,0,0,0,0,0,-1,1343,1268,0,0
126,-244,0,0,0,0,0,0,0,0,0,-1,1350,1268,0,0
133,-244,0,0,0,0,0,0,0,0,0,-1,1357,1268,0,0
140,-244,0,0,0,0,0,0,0,0,0,-1,1364,1268,0,0
147,-244,0,0,0,0,0,0,0,0,0,-1,1371,1268,0,0
154,-244,0,0,0,0,0,0,0,0,0,-1,1378,1268,0,0
161,-244,0,0,0,0,0,0,0,0,0,-1,1385,1268,0,0
168,-244,0,0,0,0,0,0,0,0,0,-1,1392,1268,0,0
175,-244,0,0,0,0,0,0,0,0,0,-1,1399,1268,0,0
182,-244,0,0,0,0,0,0,0,0,0,-1,1406,1268,0,0
189,-244,0,0,0,0,0,0,0,0,0,-1,1413,1268,0,0
196,-244,0,0,0,0,0,0,0,0,0,-1,1420,1268,0,0
203,-244,0,0,0,0,0,0,0,0,0,-1,1427,1268,0,0
210,-244,0,0,0,0,0,0,0,0,0,-1,1434,1268,0,0
217,-244,0,0,0,0,0,0,0,0,0,-1,1441,1268,0,0
224,-244,0,0,0,0,0,0,0,0,0,-1,1448,1268,0,0
231,-244,0,0,0,0,0,0,0,0,0,-1,1455,1268,0,0
238,-244,0,0,0,0,0,0,0,0,0,-1,1462,1268,0,0
245,-244,0,0,0,0,0,0,0,0,0,-1,1469,1268,0,0
252,-244,0,0,0,0,0,0,0,0,0,-1,1476,1268,0,0
259,-244,0,0,0,0,0,0,0,0,0,-1,1483,1268,0,0
266,-244,0,0,0,0,0,0,0,0,0,-1,1490,1268,0,0
273,-244,0,0,0,0,0,0,0,0,0,-1,1497,1268,0,0
280,-244,0,0,0,0,0,0,0,0,0,-1,1504,1268,0,0
287,-244,0,0,0,0,0,0,0,0,0,-1,1511,1268,0,0
294,-244,0,0,0,0,0,0,0,0,0,-1,1518,1268,0,0
301,-244,0,0,0,0,0,0,0,0,0,-1,1525,1268,0,0
308,-244,0,0,0,0,0,0,0,0,0,-1,1532,1268,0,0
315,-244,0,0,0,0,0,0,0,0,0,-1,1539,1268,0,0
322,-244,0,0,0,0,0,0,0,0,0,-1,1546,1268,0,0
329,-244,0,0,0,0,0,0,0,0,0,-1,1553,1268,0,0
336,-244,0,0,0,0,0,0,0,0,0,-1,1560,1268,0,0
343,-244,0,0,0,0,0,0,0,0,0,-1,1567,1268,0,0
350,-244,0,0,0,0,0,0,0,0,0,-1,1574,1268,0,0
357,-244,0,0,0,0,0,0,0,0,0,-1,1581,1268,0,0
364,-244,0,0,0,0,0,0,0,0,0,-1,1588,1268,0,0
371,-244,0,0,0,0,0,0,0,0,0,-1,1595,1268,0,0
378,-244,0,0,0,0,0,0,0,0,0,-1,1602,1268,0,0
385,-244,0,0,0,0,0,0,0,0,0,-1,1609,1268,0,0
392,-244,0,0,0,0,0,0,0,0,0,-1,1616,1268,0,0
399,-244,0,0,0,0,0,0,0,0,0,-1,1623,1268,0,0
406,-244,0,0,0,0,0,0,0,0,0,-1,1630,1268,0,0
413,-244,0,0,0,0,0,0,0,0,0,-1,1637,1268,0,0
420,-244,0,0,0,0,0,0,0,0,0,-1,1644,1268,0,0
427,-244,0,0,0,0,0,0,0,0,0,-1,1651,1268,0,0
434,-244,0,0,0,0,0,0,0,0,0,-1,1658,1268,0,0
441,-244,0,0,0,0,0,0,0,0,0,-1,1665,1268,0,0
448,-244,0,0,0,0,0,0,0,0,0,-1,1672,1268,0,0
455,-244,0,0,0,0,0,0,0,0,0,-1,1679,1268,0,0
462,-244,0,0,0,0,0,0,0,0,0,-1,1686,1268,0,0
469,-244,0,0,0,0,0,0,0,0,0,-1,1693,1268,0,0
476,-244,0,0,0,0,0,0,0,0,0,-1,1700,1268,0,0
483,-244,0,0,0,0,0,0,0,0,0,-1,1707,1268,0,0
490,-244,0,0,0,0,0,0,0,0,0,-1,1714,1268,0,0
497,-244,0,0,0,0,0,0,0,0,0,-1,1721,1268,0,0
504,-244,0,0,0,0,0,0,0,0,0,-1,1728,1268,0,0
511,-244,0,0,0,0,0,0,0,0,0,-1,1735,1268,0,0
518,-244,0,0,0,0,0,0,0,0,0,-1,1742,1268,0,0
525,-244,0,0,0,0,0,0,0,0,0,-1,1749,1268,0,0
532,-244,0,0,0,0,0,0,0,0,0,-1,1756,1268,0,0
539,-244,0,0,0,0,0,0,0,0,0,-1,1763,1268,0,0
546,-244,0,0,0,0,0,0,0,0,0,-1,1770,1268,0,0
553,-244,0,0,0,0,0,0,0,0,0,-1,1777,1268,0,0
560,-244,0,0,0,0,0,0,0,0,0,-1,1784,1268,0,0
567,-244,0,0,0,0,0,0,0,0,0,-1,1791,1268,0,0
574,-244,0,0,0,0,0,0,0,0,0,-1,1798,1268,0,0
581,-244,0,0,0,0,0,0,0,0,0,-1,1805,1268,0,0
588,-244,0,0,0,0,0,0,0,0,0,-1,1812,1268,0,0
595,-244,0,0,0,0,0,0,0,0,0,-1,1819,1268,0,0
602,-244,0,0,0,0,0,0,0,0,0,-1,1826,1268,0,0
609,-244,0,0,0,0,0,0,0,0,0,-1,1833,1268,0,0
616,-244,75.6641,2.32605,-0.00279055,0.00328462,-0.000390302,0.00330959,-0.00281552,-1.5069,0.00354017,0.0302446,1840,1268,75.6641,-2.32605
623,-244,75.6553,2.39758,-0.00272096,0.00660658,-0.00496669,0.00875594,-0.00487032,-1.16238,0.00797303,0.0256444,1847,1268,75.6553,-2.39758
630,-244,75.5577,2.37451,-0.00266659,0.00973131,-0.00889507,0.0143744,-0.00730966,-1.08972,0.0127388,0.0257359,1854,1268,75.5577,-2.37454
637,-244,75.4347,2.19116,-0.00247332,0.0110127,-0.0105748,0.0168114,-0.00827201,-1.06922,0.014759,0.0428952,1861,1268,75.4347,-2.19118
644,-244,75.3467,1.95581,-0.00192005,0.00891952,-0.00866073,0.0137165,-0.00671703,-1.06498,0.0120258,0.0468031,1868,1268,75.3467,-1.95587
651,-244,75.194,1.64563,0,0,0,0,0,0,0,-1,1875,1268,75.1939,-1.64569
658,-244,71.6105,1.55334,0,0,0,0,0,0,0,-1,1882,1268,71.6104,-1.55332
665,-244,50.7988,1.09888,0,0,0,0,0,0,0,-1,1889,1268,50.7989,-1.09893
672,-244,32.224,3.6123,0,0,0,0,0,0,0,-1,1896,1268,32.224,-3.6123
679,-244,27.2593,7.90649,0,0,0,0,0,0,0,-1,1903,1268,27.2592,-7.9065
686,-244,55.7822,14.7439,0,0,0,0,0,0,0,-1,1910,1268,55.7822,-14.7439
693,-244,55.762,14.0856,-0.000556556,0.000434253,-0.000203293,0.000474342,-0.000596645,-1.3761,0.000619677,0.0400074,1917,1268,55.762,-14.0856
700,-244,55.8159,13.3322,0.000276061,-0.000941,0.000679437,0.00057964,-0.00124458,0.420198,0.00107628,0.0151053,1924,1268,55.8159,-13.3321
707,-244,55.7634,12.5745,-0.000311281,-0.000997054,0.000990725,0.000394215,-0.00170255,0.618802,0.00128673,0.0126904,1931,1268,55.7634,-12.5745
714,-244,55.801,11.8032,-0.00109925,-0.000764009,0.00142352,0.000501725,-0.00236498,0.844003,0.00176779,0.016055,1938,1268,55.8011,-11.8032
721,-244,55.6877,11.1188,-0.00186235,-0.000570915,0.00188616,0.000776993,-0.00321026,0.950318,0.00244075,0.0218639,1945,1268,55.6877,-11.1187
728,-244,55.6152,10.3131,-0.00264086,-0.000423102,0.00233953,0.00105704,-0.00412101,1.0067,0.00315919,0.0279411,1952,1268,55.6153,-10.3132
735,-244,55.5532,9.45288,-0.00351017,-0.00035157,0.00293002,0.00139768,-0.00525942,1.03258,0.00405331,0.0291655,1959,1268,55.5532,-9.45291
742,-244,55.5009,8.83618,-0.00449435,-0.000395478,0.0037131,0.00179623,-0.00668606,1.03757,0.00516137,0.0184552,1966,1268,55.5008,-8.83622
749,-244,55.36,8.20471,-0.00556756,-0.000583176,0.00470426,0.00224826,-0.008399,1.02899,0.00648009,0.0255717,1973,1268,55.36,-8.20466
756,-244,55.1525,7.52893,-0.00685823,-0.000963341,0.00614319,0.00290289,-0.0107245,1.00907,0.00828849,0.0380279,1980,1268,55.1524,-7.5289
763,-244,55.1154,6.73035,0,0,0,0,0,0,0,-1,1987,1268,55.1153,-6.73036
770,-244,53.8104,4.70557,0,0,0,0,0,0,0,-1,1994,1268,53.8104,-4.70556
777,-244,48.7119,2.7002,0,0,0,0,0,0,0,-1,2001,1268,48.712,-2.70019
784,-244,31.7908,5.20081,0,0,0,0,0,0,0,-1,2008,1268,31.7907,-5.20083
791,-244,0,0,0,0,0,0,0,0,0,-1,2015,1268,0,0
798,-244,0,0,0,0,0,0,0,0,0,-1,2022,1268,0,0
805,-244,0,0,0,0,0,0,0,0,0,-1,2029,1268,0,0
812,-244,0,0,0,0,0,0,0,0,0,-1,2036,1268,0,0
-700,-251,0,0,0,0,0,0,0,0,0,-1,524,1275,0,0
-693,-251,0,0,0,0,0,0,0,0,0,-1,531,1275,0,0
-686,-251,0,0,0,0,0,0,0,0,0,-1,538,1275,0,0
-679,-251,0,0,0,0,0,0,0,0,0,-1,545,1275,0,0
-672,-251,0,0,0,0,0,0,0,0,0,-1,552,1275,0,0
-665,-251,-45.2521,2.44568,0,0,0,0,0,0,0,-1,559,1275,-45.2521,-2.44573
-658,-251,-45.5222,1.44397,0,0,0,0,0,0,0,-1,566,1275,-45.5221,-1.44401
-651,-251,-45.8498,0.382935,0,0,0,0,0,0,0,-1,573,1275,-45.8498,-0.382965
-644,-251,-46.2018,-0.658325,0,0,0,0,0,0,0,-1,580,1275,-46.2019,0.658365
-637,-251,-35.2292,3.33899,0,0,0,0,0,0,0,-1,587,1275,-35.2292,-3.33904
-630,-251,-38.5891,5.59033,0,0,0,0,0,0,0,-1,594,1275,-38.5891,-5.59034
-623,-251,-38.4786,6.31799,0.00585681,0.00510319,0.00190964,0.00742646,0.00353353,0.68799,0.00428934,0.0412737,601,1275,-38.4786,-6.31798
-616,-251,-38.317,7.06384,0.00447718,0.00403235,0.00130446,0.00557805,0.00293149,0.700959,0.00322189,0.0213209,608,1275,-38.3169,-7.06383
-609,-251,-38.371,7.85767,0.00295267,0.0032951,0.000717805,0.00386183,0.00238594,0.902474,0.00225017,0.0210246,615,1275,-38.371,-7.85761
-602,-251,-38.3904,8.64185,0.00168382,0.0020021,0.000144229,0.00205773,0.00162819,1.20265,0.00125342,0.0151776,622,1275,-38.3904,-8.64187
-595,-251,-38.4613,9.42615,0.000670018,0.000622526,-0.000414972,0.00106192,0.000230621,-0.756817,0.000644969,0.0137716,629,1275,-38.4613,-9.42612
-588,-251,-38.5067,10.1876,-0.000164773,-0.000887194,-0.000948442,0.000488913,-0.00154088,-0.603455,0.00122324,0.0162822,636,1275,-38.5067,-10.1876
-581,-251,-38.5267,10.9905,-0.000877984,-0.00259143,-0.00147307,-3.06206e-05,-0.00343879,-0.522012,0.00228239,0.0153226,643,1275,-38.5267,-10.9905
-574,-251,-38.5642,11.8411,-0.00147685,-0.0045323,-0.00197251,-0.000509632,-0.00549952,-0.455897,0.00350883,0.0194523,650,1275,-38.5642,-11.8411
-567,-251,-38.7277,12.5818,-0.00165622,-0.00684869,-0.00241293,-0.000708068,-0.00779684,-0.374411,0.00497868,0.0349145,657,1275,-38.7276,-12.5818
-560,-251,-38.7761,13.4906,-0.00166836,-0.0090761,-0.00268807,-0.000795732,-0.00994874,-0.313898,0.0063838,0.048155,664,1275,-38.7761,-13.4906
-553,-251,-38.6033,14.3469,0,0,0,0,0,0,0,-1,671,1275,-38.6033,-14.3469
-546,-251,-12.995,4.5675,0,0,0,0,0,0,0,-1,678,1275,-12.995,-4.56745
-539,-251,-10.7916,0.366333,0,0,0,0,0,0,0,-1,685,1275,-10.7916,-0.366282
-532,-251,-10.7391,-0.00769043,0,0,0,0,0,0,0,-1,692,1275,-10.7391,0.00773227
-525,-251,-29.4286,-0.250244,0,0,0,0,0,0,0,-1,699,1275,-29.4286,0.250266
-518,-251,-32.6981,0.678833,0,0,0,0,0,0,0,-1,706,1275,-32.6981,-0.678787
-511,-251,-29.4731,0.637085,0,0,0,0,0,0,0,-1,713,1275,-29.4731,-0.637025
-504,-251,-30.6428,0.792358,0,0,0,0,0,0,0,-1,720,1275,-30.6427,-0.792335
-497,-251,-54.1249,0.753784,0,0,0,0,0,0,0,-1,727,1275,-54.1249,-0.753774
-490,-251,0,0,0,0,0,0,0,0,0,-1,734,1275,0,0
-483,-251,0,0,0,0,0,0,0,0,0,-1,741,1275,0,0
-476,-251,0,0,0,0,0,0,0,0,0,-1,748,1275,0,0
-469,-251,0,0,0,0,0,0,0,0,0,-1,755,1275,0,0
-462,-251,0,0,0,0,0,0,0,0,0,-1,762,1275,0,0
-455,-251,0,0,0,0,0,0,0,0,0,-1,769,1275,0,0
-448,-251,0,0,0,0,0,0,0,0,0,-1,776,1275,0,0
-441,-251,0,0,0,0,0,0,0,0,0,-1,783,1275,0,0
-434,-251,0,0,0,0,0,0,0,0,0,-1,790,1275,0,0
-427,-251,0,0,0,0,0,0,0,0,0,-1,797,1275,0,0
-420,-251,0,0,0,0,0,0,0,0,0,-1,804,1275,0,0
-413,-251,0,0,0,0,0,0,0,0,0,-1,811,1275,0,0
-406,-251,0,0,0,0,0,0,0,0,0,-1,818,1275,0,0
-399,-251,0,0,0,0,0,0,0,0,0,-1,825,1275,0,0
-392,-251,0,0,0,0,0,0,0,0,0,-1,832,1275,0,0
-385,-251,0,0,0,0,0,0,0,0,0,-1,839,1275,0,0
-378,-251,0,0,0,0,0,0,0,0,0,-1,846,1275,0,0
-371,-251,0,0,0,0,0,0,0,0,0,-1,853,1275,0,0
-364,-251,0,0,0,0,0,0,0,0,0,-1,860,1275,0,0
-357,-251,0,0,0,0,0,0,0,0,0,-1,867,1275,0,0
-350,-251,0,0,0,0,0,0,0,0,0,-1,874,1275,0,0
-343,-251,0,0,0,0,0,0,0,0,0,-1,881,1275,0,0
-336,-251,0,0,0,0,0,0,0,0,0,-1,888,1275,0,0
-329,-251,0,0,0,0,0,0,0,0,0,-1,895,1275,0,0
-322,-251,0,0,0,0,0,0,0,0,0,-1,902,1275,0,0
-315,-251,0,0,0,0,0,0,0,0,0,-1,909,1275,0,0
-308,-251,0,0,0,0,0,0,0,0,0,-1,916,1275,0,0
-301,-251,0,0,0,0,0,0,0,0,0,-1,923,1275,0,0
-294,-251,0,0,0,0,0,0,0,0,0,-1,930,1275,0,0
-287,-251,0,0,0,0,0,0,0,0,0,-1,937,1275,0,0
-280,-251,0,0,0,0,0,0,0,0,0,-1,944,1275,0,0
-273,-251,0,0,0,0,0,0,0,0,0,-1,951,1275,0,0
-266,-251,0,0,0,0,0,0,0,0,0,-1,958,1275,0,0
-259,-251,0,0,0,0,0,0,0,0,0,-1,965,1275,0,0
-252,-251,0,0,0,0,0,0,0,0,0,-1,972,1275,0,0
-245,-251,0,0,0,0,0,0,0,0,0,-1,979,1275,0,0
-238,-251,0,0,0,0,0,0,0,0,0,-1,986,1275,0,0
-231,-251,0,0,0,0,0,0,0,0,0,-1,993,1275,0,0
-224,-251,0,0,0,0,0,0,0,0,0,-1,1000,1275,0,0
-217,-251,0,0,0,0,0,0,0,0,0,-1,1007,1275,0,0
-210,-251,0,0,0,0,0,0,0,0,0,-1,1014,1275,0,0
-203,-251,0,0,0,0,0,0,0,0,0,-1,1021,1275,0,0
-196,-251,0,0,0,0,0,0,0,0,0,-1,1028,1275,0,0
-189,-251,0,0,0,0,0,0,0,0,0,-1,1035,1275,0,0
-182,-251,0,0,0,0,0,0,0,0,0,-1,1042,1275,0,0
-175,-251,0,0,0,0,0,0,0,0,0,-1,1049,1275,0,0
-168,-251,0,0,0,0,0,0,0,0,0,-1,1056,1275,0,0
-161,-251,0,0,0,0,0,0,0,0,0,-1,1063,1275,0,0
-154,-251,0,0,0,0,0,0,0,0,0,-1,1070,1275,0,0
-147,-251,0,0,0,0,0,0,0,0,0,-1,1077,1275,0,0
-140,-251,0,0,0,0,0,0,0,0,0,-1,1084,1275,0,0
-133,-251,0,0,0,0,0,0,0,0,0,-1,1091,1275,0,0
-126,-251,0,0,0,0,0,0,0,0,0,-1,1098,1275,0,0
-119,-251,0,0,0,0,0,0,0,0,0,-1,1105,1275,0,0
-112,-251,0,0,0,0,0,0,0,0,0,-1,1112,1275,0,0
-105,-251,0,0,0,0,0,0,0,0,0,-1,1119,1275,0,0
-98,-251,0,0,0,0,0,0,0,0,0,-1,1126,1275,0,0
-91,-251,0,0,0,0,0,0,0,0,0,-1,1133,1275,0,0
-84,-251,0,0,0,0,0,0,0,0,0,-1,1140,1275,0,0
-77,-251,0,0,0,0,0,0,0,0,0,-1,1147,1275,0,0
-70,-251,0,0,0,0,0,0,0,0,0,-1,1154,1275,0,0
-63,-251,0,0,0,0,0,0,0,0,0,-1,1161,1275,0,0
-56,-251,0,0,0,0,0,0,0,0,0,-1,1168,1275,0,0
-49,-251,0,0,0,0,0,0,0,0,0,-1,1175,1275,0,0
-42,-251,0,0,0,0,0,0,0,0,0,-1,1182,1275,0,0
-35,-251,0,0,0,0,0,0,0,0,0,-1,1189,1275,0,0
-28,-251,0,0,0,0,0,0,0,0,0,-1,1196,1275,0,0
-21,-251,0,0,0,0,0,0,0,0,0,-1,1203,1275,0,0
-14,-251,0,0,0,0,0,0,0,0,0,-1,1210,1275,0,0
-7,-251,0,0,0,0,0,0,0,0,0,-1,1217,1275,0,0
0,-251,0,0,0,0,0,0,0,0,0,-1,1224,1275,0,0
7,-251,0,0,0,0,0,0,0,0,0,-1,1231,1275,0,0
14,-251,0,0,0,0,0,0,0,0,0,-1,1238,1275,0,0
21,-251,0,0,0,0,0,0,0,0,0,-1,1245,1275,0,0
28,-251,0,0,0,0,0,0,0,0,0,-1,1252,1275,0,0
35,-251,0,0,0,0,0,0,0,0,0,-1,1259,1275,0,0
42,-251,0,0,0,0,0,0,0,0,0,-1,1266,1275,0,0
49,-251,0,0,0,0,0,0,0,0,0,-1,1273,1275,0,0
56,-251,0,0,0,0,0,0,0,0,0,-1,1280,1275,0,0
63,-251,0,0,0,0,0,0,0,0,0,-1,1287,1275,0,0
70,-251,0,0,0,0,0,0,0,0,0,-1,1294,1275,0,0
77,-251,0,0,0,0,0,0,0,0,0,-1,1301,1275,0,0
84,-251,0,0,0,0,0,0,0,0,0,-1,1308,1275,0,0
91,-251,0,0,0,0,0,0,0,0,0,-1,1315,1275,0,0
98,-251,0,0,0,0,0,0,0,0,0,-1,1322,1275,0,0
105,-251,0,0,0,0,0,0,0,0,0,-1,1329,1275,0,0
112,-251,0,0,0,0,0,0,0,0,0,-1,1336,1275,0,0
119,-251,0,0,0,0,0,0,0,0,0,-1,1343,1275,0,0
126,-251,0,0,0,0,0,0,0,0,0,-1,1350,1275,0,0
133,-251,0,0,0,0,0,0,0,0,0,-1,1357,1275,0,0
140,-251,0,0,0,0,0,0,0,0,0,-1,1364,1275,0,0
147,-251,0,0,0,0,0,0,0,0,0,-1,1371,1275,0,0
154,-251,0,0,0,0,0,0,0,0,0,-1,1378,1275,0,0
161,-251,0,0,0,0,0,0,0,0,0,-1,1385,1275,0,0
168,-251,0,0,0,0,0,0,0,0,0,-1,1392,1275,0,0
175,-251,0,0,0,0,0,0,0,0,0,-1,1399,1275,0,0
182,-251,0,0,0,0,0,0,0,0,0,-1,1406,1275,0,0
189,-251,0,0,0,0,0,0,0,0,0,-1,1413,1275,0,0
196,-251,0,0,0,0,0,0,0,0,0,-1,1420,1275,0,0
203,-251,0,0,0,0,0,0,0,0,0,-1,1427,1275,0,0
210,-251,0,0,0,0,0,0,0,0,0,-1,1434,1275,0,0
217,-251,0,0,0,0,0,0,0,0,0,-1,1441,1275,0,0
224,-251,0,0,0,0,0,0,0,0,0,-1,1448,1275,0,0
231,-251,0,0,0,0,0,0,0,0,0,-1,1455,1275,0,0
238,-251,0,0,0,0,0,0,0,0,0,-1,1462,1275,0,0
245,-251,0,0,0,0,0,0,0,0,0,-1,1469,1275,0,0
252,-251,0,0,0,0,0,0,0,0,0,-1,1476,1275,0,0
259,-251,0,0,0,0,0,0,0,0,0,-1,1483,1275,0,0
266,-251,0,0,0,0,0,0,0,0,0,-1,1490,1275,0,0
273,-251,0,0,0,0,0,0,0,0,0,-1,1497,1275,0,0
280,-251,0,0,0,0,0,0,0,0,0,-1,1504,1275,0,0
287,-251,0,0,0,0,0,0,0,0,0,-1,1511,1275,0,0
294,-251,0,0,0,0,0,0,0,0,0,-1,1518,1275,0,0
301,-251,0,0,0,0,0,0,0,0,0,-1,1525,1275,0,0
308,-251,0,0,0,0,0,0,0,0,0,-1,1532,1275,0,0
315,-251,0,0,0,0,0,0,0,0,0,-1,1539,1275,0,0
322,-251,0,0,0,0,0,0,0,0,0,-1,1546,1275,0,0
329,-251,0,0,0,0,0,0,0,0,0,-1,1553,1275,0,0
336,-251,0,0,0,0,0,0,0,0,0,-1,1560,1275,0,0
343,-251,0,0,0,0,0,0,0,0,0,-1,1567,1275,0,0
350,-251,0,0,0,0,0,0,0,0,0,-1,1574,1275,0,0
357,-251,0,0,0,0,0,0,0,0,0,-1,1581,1275,0,0
364,-251,0,0,0,0,0,0,0,0,0,-1,1588,1275,0,0
371,-251,0,0,0,0,0,0,0,0,0,-1,1595,1275,0,0
378,-251,0,0,0,0,0,0,0,0,0,-1,1602,1275,0,0
385,-251,0,0,0,0,0,0,0,0,0,-1,1609,1275,0,0
392,-251,0,0,0,0,0,0,0,0,0,-1,1616,1275,0,0
399,-251,0,0,0,0,0,0,0,0,0,-1,1623,1275,0,0
406,-251,0,0,0,0,0,0,0,0,0,-1,1630,1275,0,0
413,-251,0,0,0,0,0,0,0,0,0,-1,1637,1275,0,0
420,-251,0,0,0,0,0,0,0,0,0,-1,1644,1275,0,0
427,-251,0,0,0,0,0,0,0,0,0,-1,1651,1275,0,0
434,-251,0,0,0,0,0,0,0,0,0,-1,1658,1275,0,0
441,-251,0,0,0,0,0,0,0,0,0,-1,1665,1275,0,0
448,-251,0,0,0,0,0,0,0,0,0,-1,1672,1275,0,0
455,-251,0,0,0,0,0,0,0,0,0,-1,1679,1275,0,0
462,-251,0,0,0,0,0,0,0,0,0,-1,1686,1275,0,0
469,-251,0,0,0,0,0,0,0,0,0,-1,1693,1275,0,0
476,-251,0,0,0,0,0,0,0,0,0,-1,1700,1275,0,0
483,-251,0,0,0,0,0,0,0,0,0,-1,1707,1275,0,0
490,-251,0,0,0,0,0,0,0,0,0,-1,1714,1275,0,0
497,-251,0,0,0,0,0,0,0,0,0,-1,1721,1275,0,0
504,-251,0,0,0,0,0,0,0,0,0,-1,1728,1275,0,0
511,-251,0,0,0,0,0,0,0,0,0,-1,1735,1275,0,0
518,-251,0,0,0,0,0,0,0,0,0,-1,1742,1275,0,0
525,-251,0,0,0,0,0,0,0,0,0,-1,1749,1275,0,0
532,-251,0,0,0,0,0,0,0,0,0,-1,1756,1275,0,0
539,-251,0,0,0,0,0,0,0,0,0,-1,1763,1275,0,0
546,-251,0,0,0,0,0,0,0,0,0,-1,1770,1275,0,0
553,-251,0,0,0,0,0,0,0,0,0,-1,1777,1275,0,0
560,-251,0,0,0,0,0,0,0,0,0,-1,1784,1275,0,0
567,-251,0,0,0,0,0,0,0,0,0,-1,1791,1275,0,0
574,-251,0,0,0,0,0,0,0,0,0,-1,1798,1275,0,0
581,-251,0,0,0,0,0,0,0,0,0,-1,1805,1275,0,0
588,-251,0,0,0,0,0,0,0,0,0,-1,1812,1275,0,0
595,-251,0,0,0,0,0,0,0,0,0,-1,1819,1275,0,0
602,-251,0,0,0,0,0,0,0,0,0,-1,1826,1275,0,0
609,-251,75.6241,2.34998,-0.00241707,0.00156952,0.00267019,0.00290836,-0.00375591,1.10603,0.00385798,0.0306164,1833,1275,75.6242,-2.35
616,-251,75.6151,2.38806,-0.00216966,0.00522935,-0.0031108,0.00636341,-0.00330372,-1.22121,0.00567374,0.0260696,1840,1275,75.6152,-2.38801
623,-251,75.5852,2.41418,-0.00201603,0.00878957,-0.00833978,0.0133237,-0.00655014,-1.07282,0.0116942,0.0237917,1847,1275,75.5852,-2.4142
630,-251,75.5273,2.26599,-0.00203357,0.0113734,-0.0117029,0.0181568,-0.00881691,-1.04549,0.0158814,0.0377041,1854,1275,75.5274,-2.26596
637,-251,75.5967,2.24683,-0.00201952,0.0113959,-0.0117134,0.0181863,-0.00880986,-1.04543,0.0158965,0.0425583,1861,1275,75.5967,-2.24684
644,-251,75.3705,1.86658,-0.00165948,0.00908777,-0.00923401,0.0143979,-0.00696962,-1.04891,0.0125826,0.043722,1868,1275,75.3705,-1.86655
651,-251,75.2548,1.46191,0,0,0,0,0,0,0,-1,1875,1275,75.2548,-1.46186
658,-251,64.3931,2.57288,0,0,0,0,0,0,0,-1,1882,1275,64.393,-2.57287
665,-251,32.9579,2.60229,0,0,0,0,0,0,0,-1,1889,1275,32.9579,-2.60231
672,-251,26.0721,4.53064,0,0,0,0,0,0,0,-1,1896,1275,26.0721,-4.53063
679,-251,29.1344,8.63782,0,0,0,0,0,0,0,-1,1903,1275,29.1344,-8.63778
686,-251,55.1876,14.7965,0,0,0,0,0,0,0,-1,1910,1275,55.1876,-14.7965
693,-251,55.0754,14.1409,-0.000504358,0.000248165,-0.000165109,0.000282797,-0.00053899,-1.36404,0.000482083,0.0362373,1917,1275,55.0754,-14.1408
700,-251,55.048,13.3776,0.00030332,-0.00112361,0.000806873,0.000666923,-0.00148721,0.42338,0.00127339,0.0127975,1924,1275,55.048,-13.3775
707,-251,55.0099,12.6079,-0.000339175,-0.00103899,0.00103109,0.000399759,-0.00177792,0.621816,0.00133858,0.0123201,1931,1275,55.0099,-12.6079
714,-251,55.0126,11.8402,-0.00109971,-0.000745502,0.00138561,0.000474278,-0.00231949,0.848962,0.00172627,0.0163232,1938,1275,55.0126,-11.8402
721,-251,54.8915,11.1278,-0.00184727,-0.000514867,0.00178114,0.000720587,-0.00308273,0.964359,0.00233275,0.0239131,1945,1275,54.8915,-11.1278
728,-251,54.8413,10.437,-0.00264468,-0.000360499,0.00222243,0.000996126,-0.0040013,1.02275,0.00305421,0.0286557,1952,1275,54.8413,-10.437
735,-251,54.7987,9.57532,-0.00354993,-0.000296669,0.0028047,0.00131896,-0.00516557,1.04818,0.00395732,0.0233761,1959,1275,54.7987,-9.57529
742,-251,54.7252,8.92139,-0.00457439,-0.00033347,0.00355866,0.00168859,-0.00659644,1.05408,0.00505538,0.0192444,1966,1275,54.7253,-8.92143
749,-251,54.4766,8.37427,-0.00569883,-0.000506681,0.00450367,0.00209558,-0.00830108,1.04685,0.00634893,0.0395865,1973,1275,54.4765,-8.37431
756,-251,54.2524,7.6969,0,0,0,0,0,0,0,-1,1980,1275,54.2524,-7.69694
763,-251,43.3652,5.7583,0,0,0,0,0,0,0,-1,1987,1275,43.3653,-5.75827
770,-251,49.4386,3.45508,0,0,0,0,0,0,0,-1,1994,1275,49.4386,-3.4551
777,-251,31.5731,4.33252,0,0,0,0,0,0,0,-1,2001,1275,31.5731,-4.33251
784,-251,32.0776,5.78247,0,0,0,0,0,0,0,-1,2008,1275,32.0776,-5.78247
791,-251,0,0,0,0,0,0,0,0,0,-1,2015,1275,0,0
798,-251,0,0,0,0,0,0,0,0,0,-1,2022,1275,0,0
805,-251,0,0,0,0,0,0,0,0,0,-1,2029,1275,0,0
812,-251,0,0,0,0,0,0,0,0,0,-1,2036,1275,0,0
-700,-258,0,0,0,0,0,0,0,0,0,-1,524,1282,0,0
-693,-258,0,0,0,0,0,0,0,0,0,-1,531,1282,0,0
-686,-258,0,0,0,0,0,0,0,0,0,-1,538,1282,0,0
-679,-258,0,0,0,0,0,0,0,0,0,-1,545,1282,0,0
-672,-258,0,0,0,0,0,0,0,0,0,-1,552,1282,0,0
-665,-258,-44.8717,2.03601,0,0,0,0,0,0,0,-1,559,1282,-44.8717,-2.03603
-658,-258,-45.2628,1.20544,0,0,0,0,0,0,0,-1,566,1282,-45.2627,-1.20545
-651,-258,-45.5418,0.0863037,0,0,0,0,0,0,0,-1,573,1282,-45.5418,-0.0863288
-644,-258,-45.1855,0.336792,0,0,0,0,0,0,0,-1,580,1282,-45.1855,-0.336733
-637,-258,-45.329,0.234253,0,0,0,0,0,0,0,-1,587,1282,-45.329,-0.234296
-630,-258,-34.6896,4.45715,0,0,0,0,0,0,0,-1,594,1282,-34.6896,-4.45712
-623,-258,-37.8553,6.40649,0,0,0,0,0,0,0,-1,601,1282,-37.8553,-6.40649
-616,-258,-37.5152,7.07202,0.00490171,0.00413514,0.00165628,0.00621847,0.00281838,0.671694,0.00359547,0.0346728,608,1282,-37.5152,-7.07207
-609,-258,-37.5344,7.89099,0.00326767,0.00355521,0.00104853,0.00446978,0.0023531,0.853532,0.00258183,0.0180335,615,1282,-37.5344,-7.89103
-602,-258,-37.5764,8.69568,0.00190236,0.00232345,0.000483911,0.00264064,0.00158517,0.990595,0.00153476,0.0140285,622,1282,-37.5763,-8.69572
-595,-258,-37.6493,9.48389,0.000822379,0.00102397,-4.43505e-05,0.00103329,0.000813053,-1.36354,0.000628447,0.0118525,629,1282,-37.6493,-9.48384
-588,-258,-37.6857,10.2856,-5.04166e-05,-0.000353679,-0.000503742,0.000324021,-0.000728116,-0.639207,0.000622207,0.0141643,636,1282,-37.6857,-10.2857
-581,-258,-37.7126,11.0635,-0.000797052,-0.00188139,-0.000930942,-0.00026191,-0.00241653,-0.521714,0.0015312,0.0162146,643,1282,-37.7126,-11.0635
-574,-258,-37.727,11.8647,-0.00140408,-0.00358194,-0.00131118,-0.000788611,-0.00419741,-0.438868,0.00257596,0.0154799,650,1282,-37.727,-11.8647
-567,-258,-37.9562,12.5544,-0.00168875,-0.0055454,-0.00160288,-0.00110955,-0.00612459,-0.346748,0.00376806,0.0210857,657,1282,-37.9562,-12.5544
-560,-258,-38.0047,13.7722,0,0,0,0,0,0,0,-1,664,1282,-38.0047,-13.7722
-553,-258,-32.5081,11.6642,0,0,0,0,0,0,0,-1,671,1282,-32.5081,-11.6641
-546,-258,-14.2231,5.92029,0,0,0,0,0,0,0,-1,678,1282,-14.2231,-5.92028
-539,-258,-10.2228,4.05823,0,0,0,0,0,0,0,-1,685,1282,-10.2228,-4.05823
-532,-258,-10.2173,-0.353882,0,0,0,0,0,0,0,-1,692,1282,-10.2173,0.353836
-525,-258,-21.8661,-1.5929,0,0,0,0,0,0,0,-1,699,1282,-21.8661,1.59285
-518,-258,-29.2484,0.123169,0,0,0,0,0,0,0,-1,706,1282,-29.2484,-0.123186
-511,-258,-23.5061,1.16833,0,0,0,0,0,0,0,-1,713,1282,-23.5061,-1.16833
-504,-258,-22.9178,0.484131,0,0,0,0,0,0,0,-1,720,1282,-22.9178,-0.484106
-497,-258,-17.8047,0.730469,0,0,0,0,0,0,0,-1,727,1282,-17.8048,-0.730489
-490,-258,-15.4346,0.632935,0,0,0,0,0,0,0,-1,734,1282,-15.4346,-0.632917
-483,-258,0,0,0,0,0,0,0,0,0,-1,741,1282,0,0
-476,-258,0,0,0,0,0,0,0,0,0,-1,748,1282,0,0
-469,-258,0,0,0,0,0,0,0,0,0,-1,755,1282,0,0
-462,-258,0,0,0,0,0,0,0,0,0,-1,762,1282,0,0
-455,-258,0,0,0,0,0,0,0,0,0,-1,769,1282,0,0
-448,-258,0,0,0,0,0,0,0,0,0,-1,776,1282,0,0
-441,-258,0,0,0,0,0,0,0,0,0,-1,783,1282,0,0
-434,-258,0,0,0,0,0,0,0,0,0,-1,790,1282,0,0
-427,-258,0,0,0,0,0,0,0,0,0,-1,797,1282,0,0
-420,-258,0,0,0,0,0,0,0,0,0,-1,804,1282,0,0
-413,-258,0,0,0,0,0,0,0,0,0,-1,811,1282,0,0
-406,-258,0,0,0,0,0,0,0,0,0,-1,818,1282,0,0
-399,-258,0,0,0,0,0,0,0,0,0,-1,825,1282,0,0
-392,-258,0,0,0,0,0,0,0,0,0,-1,832,1282,0,0
-385,-258,0,0,0,0,0,0,0,0,0,-1,839,1282,0,0
-378,-258,0,0,0,0,0,0,0,0,0,-1,846,1282,0,0
-371,-258,0,0,0,0,0,0,0,0,0,-1,853,1282,0,0
-364,-258,0,0,0,0,0,0,0,0,0,-1,860,1282,0,0
-357,-258,0,0,0,0,0,0,0,0,0,-1,867,1282,0,0
-350,-258,0,0,0,0,0,0,0,0,0,-1,874,1282,0,0
-343,-258,0,0,0,0,0,0,0,0,0,-1,881,1282,0,0
-336,-258,0,0,0,0,0,0,0,0,0,-1,888,1282,0,0
-329,-258,0,0,0,0,0,0,0,0,0,-1,895,1282,0,0
-322,-258,0,0,0,0,0,0,0,0,0,-1,902,1282,0,0
-315,-258,0,0,0,0,0,0,0,0,0,-1,909,1282,0,0
-308,-258,0,0,0,0,0,0,0,0,0,-1,916,1282,0,0
-301,-258,0,0,0,0,0,0,0,0,0,-1,923,1282,0,0
-294,-258,0,0,0,0,0,0,0,0,0,-1,930,1282,0,0
-287,-258,0,0,0,0,0,0,0,0,0,-1,937,1282,0,0
-280,-258,0,0,0,0,0,0,0,0,0,-1,944,1282,0,0
-273,-258,0,0,0,0,0,0,0,0,0,-1,951,1282,0,0
-266,-258,0,0,0,0,0,0,0,0,0,-1,958,1282,0,0
-259,-258,0,0,0,0,0,0,0,0,0,-1,965,1282,0,0
-252,-258,0,0,0,0,0,0,0,0,0,-1,972,1282,0,0
-245,-258,0,0,0,0,0,0,0,0,0,-1,979,1282,0,0
-238,-258,0,0,0,0,0,0,0,0,0,-1,986,1282,0,0
-231,-258,0,0,0,0,0,0,0,0,0,-1,993,1282,0,0
-224,-258,0,0,0,0,0,0,0,0,0,-1,1000,1282,0,0
-217,-258,0,0,0,0,0,0,0,0,0,-1,1007,1282,0,0
-210,-258,0,0,0,0,0,0,0,0,0,-1,1014,1282,0,0
-203,-258,0,0,0,0,0,0,0,0,0,-1,1021,1282,0,0
-196,-258,0,0,0,0,0,0,0,0,0,-1,1028,1282,0,0
-189,-258,0,0,0,0,0,0,0,0,0,-1,1035,1282,0,0
-182,-258,0,0,0,0,0,0,0,0,0,-1,1042,1282,0,0
-175,-258,0,0,0,0,0,0,0,0,0,-1,1049,1282,0,0
-168,-258,0,0,0,0,0,0,0,0,0,-1,1056,1282,0,0
-161,-258,0,0,0,0,0,0,0,0,0,-1,1063,1282,0,0
-154,-258,0,0,0,0,0,0,0,0,0,-1,1070,1282,0,0
-147,-258,0,0,0,0,0,0,0,0,0,-1,1077,1282,0,0
-140,-258,0,0,0,0,0,0,0,0,0,-1,1084,1282,0,0
-133,-258,0,0,0,0,0,0,0,0,0,-1,1091,1282,0,0
-126,-258,0,0,0,0,0,0,0,0,0,-1,1098,1282,0,0
-119,-258,0,0,0,0,0,0,0,0,0,-1,1105,1282,0,0
-112,-258,0,0,0,0,0,0,0,0,0,-1,1112,1282,0,0
-105,-258,0,0,0,0,0,0,0,0,0,-1,1119,1282,0,0
-98,-258,0,0,0,0,0,0,0,0,0,-1,1126,1282,0,0
-91,-258,0,0,0,0,0,0,0,0,0,-1,1133,1282,0,0
-84,-258,0,0,0,0,0,0,0,0,0,-1,1140,1282,0,0
-77,-258,0,0,0,0,0,0,0,0,0,-1,1147,1282,0,0
-70,-258,0,0,0,0,0,0,0,0,0,-1,1154,1282,0,0
-63,-258,0,0,0,0,0,0,0,0,0,-1,1161,1282,0,0
-56,-258,0,0,0,0,0,0,0,0,0,-1,1168,1282,0,0
-49,-258,0,0,0,0,0,0,0,0,0,-1,1175,1282,0,0
-42,-258,0,0,0,0,0,0,0,0,0,-1,1182,1282,0,0
-35,-258,0,0,0,0,0,0,0,0,0,-1,1189,1282,0,0
-28,-258,0,0,0,0,0,0,0,0,0,-1,1196,1282,0,0
-21,-258,0,0,0,0,0,0,0,0,0,-1,1203,1282,0,0
-14,-258,0,0,0,0,0,0,0,0,0,-1,1210,1282,0,0
-7,-258,0,0,0,0,0,0,0,0,0,-1,1217,1282,0,0
0,-258,0,0,0,0,0,0,0,0,0,-1,1224,1282,0,0
7,-258,0,0,0,0,0,0,0,0,0,-1,1231,1282,0,0
14,-258,0,0,0,0,0,0,0,0,0,-1,1238,1282,0,0
21,-258,0,0,0,0,0,0,0,0,0,-1,1245,1282,0,0
28,-258,0,0,0,0,0,0,0,0,0,-1,1252,1282,0,0
35,-258,0,0,0,0,0,0,0,0,0,-1,1259,1282,0,0
42,-258,0,0,0,0,0,0,0,0,0,-1,1266,1282,0,0
49,-258,0,0,0,0,0,0,0,0,0,-1,1273,1282,0,0
56,-258,0,0,0,0,0,0,0,0,0,-1,1280,1282,0,0
63,-258,0,0,0,0,0,0,0,0,0,-1,1287,1282,0,0
70,-258,0,0,0,0,0,0,0,0,0,-1,1294,1282,0,0
77,-258,0,0,0,0,0,0,0,0,0,-1,1301,1282,0,0
84,-258,0,0,0,0,0,0,0,0,0,-1,1308,1282,0,0
91,-258,0,0,0,0,0,0,0,0,0,-1,1315,1282,0,0
98,-258,0,0,0,0,0,0,0,0,0,-1,1322,1282,0,0
105,-258,0,0,0,0,0,0,0,0,0,-1,1329,1282,0,0
112,-258,0,0,0,0,0,0,0,0,0,-1,1336,1282,0,0
119,-258,0,0,0,0,0,0,0,0,0,-1,1343,1282,0,0
126,-258,0,0,0,0,0,0,0,0,0,-1,1350,1282,0,0
133,-258,0,0,0,0,0,0,0,0,0,-1,1357,1282,0,0
140,-258,0,0,0,0,0,0,0,0,0,-1,1364,1282,0,0
147,-258,0,0,0,0,0,0,0,0,0,-1,1371,1282,0,0
154,-258,0,0,0,0,0,0,0,0,0,-1,1378,1282,0,0
161,-258,0,0,0,0,0,0,0,0,0,-1,1385,1282,0,0
168,-258,0,0,0,0,0,0,0,0,0,-1,1392,1282,0,0
175,-258,0,0,0,0,0,0,0,0,0,-1,1399,1282,0,0
182,-258,0,0,0,0,0,0,0,0,0,-1,1406,1282,0,0
189,-258,0,0,0,0,0,0,0,0,0,-1,1413,1282,0,0
196,-258,0,0,0,0,0,0,0,0,0,-1,1420,1282,0,0
203,-258,0,0,0,0,0,0,0,0,0,-1,1427,1282,0,0
210,-258,0,0,0,0,0,0,0,0,0,-1,1434,1282,0,0
217,-258,0,0,0,0,0,0,0,0,0,-1,1441,1282,0,0
224,-258,0,0,0,0,0,0,0,0,0,-1,1448,1282,0,0
231,-258,0,0,0,0,0,0,0,0,0,-1,1455,1282,0,0
238,-258,0,0,0,0,0,0,0,0,0,-1,1462,1282,0,0
245,-258,0,0,0,0,0,0,0,0,0,-1,1469,1282,0,0
252,-258,0,0,0,0,0,0,0,0,0,-1,1476,1282,0,0
259,-258,0,0,0,0,0,0,0,0,0,-1,1483,1282,0,0
266,-258,0,0,0,0,0,0,0,0,0,-1,1490,1282,0,0
273,-258,0,0,0,0,0,0,0,0,0,-1,1497,1282,0,0
280,-258,0,0,0,0,0,0,0,0,0,-1,1504,1282,0,0
287,-258,0,0,0,0,0,0,0,0,0,-1,1511,1282,0,0
294,-258,0,0,0,0,0,0,0,0,0,-1,1518,1282,0,0
301,-258,0,0,0,0,0,0,0,0,0,-1,1525,1282,0,0
308,-258,0,0,0,0,0,0,0,0,0,-1,1532,1282,0,0
315,-258,0,0,0,0,0,0,0,0,0,-1,1539,1282,0,0
322,-258,0,0,0,0,0,0,0,0,0,-1,1546,1282,0,0
329,-258,0,0,0,0,0,0,0,0,0,-1,1553,1282,0,0
336,-258,0,0,0,0,0,0,0,0,0,-1,1560,1282,0,0
343,-258,0,0,0,0,0,0,0,0,0,-1,1567,1282,0,0
350,-258,0,0,0,0,0,0,0,0,0,-1,1574,1282,0,0
357,-258,0,0,0,0,0,0,0,0,0,-1,1581,1282,0,0
364,-258,0,0,0,0,0,0,0,0,0,-1,1588,1282,0,0
371,-258,0,0,0,0,0,0,0,0,0,-1,1595,1282,0,0
378,-258,0,0,0,0,0,0,0,0,0,-1,1602,1282,0,0
385,-258,0,0,0,0,0,0,0,0,0,-1,1609,1282,0,0
392,-258,0,0,0,0,0,0,0,0,0,-1,1616,1282,0,0
399,-258,0,0,0,0,0,0,0,0,0,-1,1623,1282,0,0
406,-258,0,0,0,0,0,0,0,0,0,-1,1630,1282,0,0
413,-258,0,0,0,0,0,0,0,0,0,-1,1637,1282,0,0
420,-258,0,0,0,0,0,0,0,0,0,-1,1644,1282,0,0
427,-258,0,0,0,0,0,0,0,0,0,-1,1651,1282,0,0
434,-258,0,0,0,0,0,0,0,0,0,-1,1658,1282,0,0
441,-258,0,0,0,0,0,0,0,0,0,-1,1665,1282,0,0
448,-258,0,0,0,0,0,0,0,0,0,-1,1672,1282,0,0
455,-258,0,0,0,0,0,0,0,0,0,-1,1679,1282,0,0
462,-258,0,0,0,0,0,0,0,0,0,-1,1686,1282,0,0
469,-258,0,0,0,0,0,0,0,0,0,-1,1693,1282,0,0
476,-258,0,0,0,0,0,0,0,0,0,-1,1700,1282,0,0
483,-258,0,0,0,0,0,0,0,0,0,-1,1707,1282,0,0
490,-258,0,0,0,0,0,0,0,0,0,-1,1714,1282,0,0
497,-258,0,0,0,0,0,0,0,0,0,-1,1721,1282,0,0
504,-258,0,0,0,0,0,0,0,0,0,-1,1728,1282,0,0
511,-258,0,0,0,0,0,0,0,0,0,-1,1735,1282,0,0
518,-258,0,0,0,0,0,0,0,0,0,-1,1742,1282,0,0
525,-258,0,0,0,0,0,0,0,0,0,-1,1749,1282,0,0
532,-258,0,0,0,0,0,0,0,0,0,-1,1756,1282,0,0
539,-258,0,0,0,0,0,0,0,0,0,-1,1763,1282,0,0
546,-258,0,0,0,0,0,0,0,0,0,-1,1770,1282,0,0
553,-258,0,0,0,0,0,0,0,0,0,-1,1777,1282,0,0
560,-258,0,0,0,0,0,0,0,0,0,-1,1784,1282,0,0
567,-258,0,0,0,0,0,0,0,0,0,-1,1791,1282,0,0
574,-258,0,0,0,0,0,0,0,0,0,-1,1798,1282,0,0
581,-258,0,0,0,0,0,0,0,0,0,-1,1805,1282,0,0
588,-258,0,0,0,0,0,0,0,0,0,-1,1812,1282,0,0
595,-258,0,0,0,0,0,0,0,0,0,-1,1819,1282,0,0
602,-258,0,0,0,0,0,0,0,0,0,-1,1826,1282,0,0
609,-258,75.5773,2.39343,-0.00148046,0.00328773,-0.000629225,0.00336937,-0.0015621,-1.44178,0.00291022,0.0258797,1833,1282,75.5773,-2.39348
616,-258,75.5752,2.41357,-0.000972113,0.00708267,-0.00703938,0.0111653,-0.00505476,-1.04523,0.00958362,0.025809,1840,1282,75.5751,-2.41359
623,-258,75.4918,2.32666,-0.00077865,0.01049,-0.0121745,0.0182707,-0.00855942,-1.00212,0.015825,0.0375724,1847,1282,75.4918,-2.32666
630,-258,75.5049,2.10242,-0.00101751,0.0120201,-0.0139048,0.0208583,-0.00985571,-1.00459,0.018108,0.0467111,1854,1282,75.5048,-2.10236
637,-258,75.6973,1.80774,-0.00131605,0.0111127,-0.0123581,0.018731,-0.00893431,-1.01836,0.016303,0.0455937,1861,1282,75.6973,-1.80769
644,-258,75.2758,1.82397,0,0,0,0,0,0,0,-1,1868,1282,75.2757,-1.82401
651,-258,73.8274,1.62305,0,0,0,0,0,0,0,-1,1875,1282,73.8274,-1.62306
658,-258,45.4424,3.1405,0,0,0,0,0,0,0,-1,1882,1282,45.4423,-3.14046
665,-258,35.4747,1.1864,0,0,0,0,0,0,0,-1,1889,1282,35.4747,-1.18637
672,-258,22.703,2.80957,0,0,0,0,0,0,0,-1,1896,1282,22.703,-2.80962
679,-258,26.8693,8.19543,0,0,0,0,0,0,0,-1,1903,1282,26.8692,-8.19548
686,-258,54.4843,15.0283,0,0,0,0,0,0,0,-1,1910,1282,54.4843,-15.0283
693,-258,54.347,14.2092,-0.00030342,0.000160818,-0.000309272,0.000315388,-0.000457991,-1.10732,0.000449033,0.0281296,1917,1282,54.3471,-14.2092
700,-258,54.2701,13.4113,0.000442436,-0.00106512,0.000647051,0.000682064,-0.00130475,0.354678,0.00116572,0.0104013,1924,1282,54.2702,-13.4113
707,-258,54.2518,12.6477,-0.000205847,-0.000940722,0.000865131,0.000366641,-0.00151321,0.584582,0.00115066,0.0114467,1931,1282,54.2518,-12.6478
714,-258,54.2345,11.8877,-0.000945424,-0.000703362,0.00122988,0.000411431,-0.00206022,0.834444,0.00152918,0.013173,1938,1282,54.2345,-11.8877
721,-258,54.167,11.1104,-0.00171345,-0.000530441,0.00164605,0.000627157,-0.00287105,0.957887,0.00215374,0.0222526,1945,1282,54.167,-11.1103
728,-258,54.0699,10.4236,-0.00256288,-0.000424729,0.00212402,0.000884092,-0.0038717,1.01855,0.00292078,0.0217416,1952,1282,54.0699,-10.4236
735,-258,54.0658,9.66382,-0.00354173,-0.000388595,0.00271606,0.00117531,-0.00510563,1.04836,0.0038557,0.0185706,1959,1282,54.0657,-9.66378
742,-258,54.0146,8.92529,-0.00466602,-0.000441919,0.00345136,0.00149234,-0.00660028,1.05998,0.00497284,0.0183985,1966,1282,54.0147,-8.92527
749,-258,53.8385,8.24438,-0.00594,-0.00062723,0.00435056,0.00181381,-0.00838104,1.05948,0.00627989,0.0411469,1973,1282,53.8385,-8.24441
756,-258,53.662,7.4176,0,0,0,0,0,0,0,-1,1980,1282,53.6619,-7.41756
763,-258,39.3638,5.09753,0,0,0,0,0,0,0,-1,1987,1282,39.3638,-5.09751
770,-258,40.3713,4.08325,0,0,0,0,0,0,0,-1,1994,1282,40.3713,-4.08323
777,-258,31.912,4.83093,0,0,0,0,0,0,0,-1,2001,1282,31.912,-4.8309
784,-258,32.6525,6.43091,0,0,0,0,0,0,0,-1,2008,1282,32.6525,-6.43091
791,-258,0,0,0,0,0,0,0,0,0,-1,2015,1282,0,0
798,-258,0,0,0,0,0,0,0,0,0,-1,2022,1282,0,0
805,-258,0,0,0,0,0,0,0,0,0,-1,2029,1282,0,0
812,-258,0,0,0,0,0,0,0,0,0,-1,2036,1282,0,0
-700,-265,0,0,0,0,0,0,0,0,0,-1,524,1289,0,0
-693,-265,0,0,0,0,0,0,0,0,0,-1,531,1289,0,0
-686,-265,0,0,0,0,0,0,0,0,0,-1,538,1289,0,0
-679,-265,0,0,0,0,0,0,0,0,0,-1,545,1289,0,0
-672,-265,0,0,0,0,0,0,0,0,0,-1,552,1289,0,0
-665,-265,-44.553,1.771,0,0,0,0,0,0,0,-1,559,1289,-44.553,-1.77096
-658,-265,-44.9351,1.32117,0,0,0,0,0,0,0,-1,566,1289,-44.9351,-1.32118
-651,-265,-44.821,1.0614,0,0,0,0,0,0,0,-1,573,1289,-44.821,-1.06141
-644,-265,-44.4684,0.304932,0,0,0,0,0,0,0,-1,580,1289,-44.4684,-0.304991
-637,-265,-44.6157,0.250122,0,0,0,0,0,0,0,-1,587,1289,-44.6157,-0.250067
-630,-265,-44.5689,0.900269,0,0,0,0,0,0,0,-1,594,1289,-44.5689,-0.900302
-623,-265,-36.5701,5.88232,0,0,0,0,0,0,0,-1,601,1289,-36.5701,-5.88228
-616,-265,-36.6302,6.86438,0.0056165,0.00453961,0.00208506,0.00723151,0.00292459,0.659039,0.00420047,0.0482757,608,1289,-36.6303,-6.86437
-609,-265,-36.72,7.90625,0.00383759,0.00401015,0.00143388,0.00536035,0.0024874,0.815448,0.00309747,0.0205208,615,1289,-36.72,-7.9062
-602,-265,-36.7932,8.72607,0.00233871,0.00275597,0.000846875,0.00341954,0.00167515,0.906169,0.00197441,0.014856,622,1289,-36.7931,-8.72605
-595,-265,-36.8425,9.54736,0.00116428,0.00145536,0.000299787,0.00164307,0.000976574,1.01137,0.000954239,0.0122043,629,1289,-36.8424,-9.5474
-588,-265,-36.8743,10.3459,0.000241773,0.00014275,-0.000144441,0.000344953,3.957e-05,-0.620284,0.000217979,0.011975,636,1289,-36.8743,-10.3459
-581,-265,-36.9155,11.1237,-0.00053235,-0.00126102,-0.000536616,-0.000248073,-0.00154529,-0.487171,0.000958268,0.014135,643,1289,-36.9155,-11.1236
-574,-265,-36.9776,11.9341,-0.00114118,-0.00276625,-0.000866719,-0.000765685,-0.00314175,-0.408827,0.00189165,0.0146339,650,1289,-36.9776,-11.934
-567,-265,-37.0934,12.6827,-0.00147628,-0.00442183,-0.00109669,-0.00111281,-0.0047853,-0.320033,0.00289155,0.0211749,657,1289,-37.0935,-12.6828
-560,-265,-37.2786,13.4525,-0.00149118,-0.00588916,-0.00114774,-0.00120967,-0.00617067,-0.240522,0.00377571,0.0317199,664,1289,-37.2786,-13.4525
-553,-265,-37.3962,14.2811,0,0,0,0,0,0,0,-1,671,1289,-37.3962,-14.2812
-546,-265,-24.2283,10.2581,0,0,0,0,0,0,0,-1,678,1289,-24.2283,-10.258
-539,-265,-13.7668,6.39917,0,0,0,0,0,0,0,-1,685,1289,-13.7668,-6.39915
-532,-265,-8.53998,3.41467,0,0,0,0,0,0,0,-1,692,1289,-8.53996,-3.41473
-525,-265,-12.1317,0.514648,0,0,0,0,0,0,0,-1,699,1289,-12.1317,-0.514634
-518,-265,-24.1604,0.712402,0,0,0,0,0,0,0,-1,706,1289,-24.1604,-0.712425
-511,-265,-23.233,0.791626,0,0,0,0,0,0,0,-1,713,1289,-23.233,-0.791617
-504,-265,-22.3056,0.87085,0,0,0,0,0,0,0,-1,720,1289,-22.3056,-0.87081
-497,-265,-18.689,-0.278442,0,0,0,0,0,0,0,-1,727,1289,-18.689,0.278423
-490,-265,-15.1696,0.492676,0,0,0,0,0,0,0,-1,734,1289,-15.1696,-0.492688
-483,-265,0,0,0,0,0,0,0,0,0,-1,741,1289,0,0
-476,-265,0,0,0,0,0,0,0,0,0,-1,748,1289,0,0
-469,-265,0,0,0,0,0,0,0,0,0,-1,755,1289,0,0
-462,-265,0,0,0,0,0,0,0,0,0,-1,762,1289,0,0
-455,-265,0,0,0,0,0,0,0,0,0,-1,769,1289,0,0
-448,-265,0,0,0,0,0,0,0,0,0,-1,776,1289,0,0
-441,-265,0,0,0,0,0,0,0,0,0,-1,783,1289,0,0
-434,-265,0,0,0,0,0,0,0,0,0,-1,790,1289,0,0
-427,-265,0,0,0,0,0,0,0,0,0,-1,797,1289,0,0
-420,-265,0,0,0,0,0,0,0,0,0,-1,804,1289,0,0
-413,-265,0,0,0,0,0,0,0,0,0,-1,811,1289,0,0
-406,-265,0,0,0,0,0,0,0,0,0,-1,818,1289,0,0
-399,-265,0,0,0,0,0,0,0,0,0,-1,825,1289,0,0
-392,-265,0,0,0,0,0,0,0,0,0,-1,832,1289,0,0
-385,-265,0,0,0,0,0,0,0,0,0,-1,839,1289,0,0
-378,-265,0,0,0,0,0,0,0,0,0,-1,846,1289,0,0
-371,-265,0,0,0,0,0,0,0,0,0,-1,853,1289,0,0
-364,-265,0,0,0,0,0,0,0,0,0,-1,860,1289,0,0
-357,-265,0,0,0,0,0,0,0,0,0,-1,867,1289,0,0
-350,-265,0,0,0,0,0,0,0,0,0,-1,874,1289,0,0
-343,-265,0,0,0,0,0,0,0,0,0,-1,881,1289,0,0
-336,-265,0,0,0,0,0,0,0,0,0,-1,888,1289,0,0
-329,-265,0,0,0,0,0,0,0,0,0,-1,895,1289,0,0
-322,-265,0,0,0,0,0,0,0,0,0,-1,902,1289,0,0
-315,-265,0,0,0,0,0,0,0,0,0,-1,909,1289,0,0
-308,-265,0,0,0,0,0,0,0,0,0,-1,916,1289,0,0
-301,-265,0,0,0,0,0,0,0,0,0,-1,923,1289,0,0
-294,-265,0,0,0,0,0,0,0,0,0,-1,930,1289,0,0
-287,-265,0,0,0,0,0,0,0,0,0,-1,937,1289,0,0
-280,-265,0,0,0,0,0,0,0,0,0,-1,944,1289,0,0
-273,-265,0,0,0,0,0,0,0,0,0,-1,951,1289,0,0
-266,-265,0,0,0,0,0,0,0,0,0,-1,958,1289,0,0
-259,-265,0,0,0,0,0,0,0,0,0,-1,965,1289,0,0
-252,-265,0,0,0,0,0,0,0,0,0,-1,972,1289,0,0
-245,-265,0,0,0,0,0,0,0,0,0,-1,979,1289,0,0
-238,-265,0,0,0,0,0,0,0,0,0,-1,986,1289,0,0
-231,-265,0,0,0,0,0,0,0,0,0,-1,993,1289,0,0
-224,-265,0,0,0,0,0,0,0,0,0,-1,1000,1289,0,0
-217,-265,0,0,0,0,0,0,0,0,0,-1,1007,1289,0,0
-210,-265,0,0,0,0,0,0,0,0,0,-1,1014,1289,0,0
-203,-265,0,0,0,0,0,0,0,0,0,-1,1021,1289,0,0
-196,-265,0,0,0,0,0,0,0,0,0,-1,1028,1289,0,0
-189,-265,0,0,0,0,0,0,0,0,0,-1,1035,1289,0,0
-182,-265,0,0,0,0,0,0,0,0,0,-1,1042,1289,0,0
-175,-265,0,0,0,0,0,0,0,0,0,-1,1049,1289,0,0
-168,-265,0,0,0,0,0,0,0,0,0,-1,1056,1289,0,0
-161,-265,0,0,0,0,0,0,0,0,0,-1,1063,1289,0,0
-154,-265,0,0,0,0,0,0,0,0,0,-1,1070,1289,0,0
-147,-265,0,0,0,0,0,0,0,0,0,-1,1077,1289,0,0
-140,-265,0,0,0,0,0,0,0,0,0,-1,1084,1289,0,0
-133,-265,0,0,0,0,0,0,0,0,0,-1,1091,1289,0,0
-126,-265,0,0,0,0,0,0,0,0,0,-1,1098,1289,0,0
-119,-265,0,0,0,0,0,0,0,0,0,-1,1105,1289,0,0
-112,-265,0,0,0,0,0,0,0,0,0,-1,1112,1289,0,0
-105,-265,0,0,0,0,0,0,0,0,0,-1,1119,1289,0,0
-98,-265,0,0,0,0,0,0,0,0,0,-1,1126,1289,0,0
-91,-265,0,0,0,0,0,0,0,0,0,-1,1133,1289,0,0
-84,-265,0,0,0,0,0,0,0,0,0,-1,1140,1289,0,0
-77,-265,0,0,0,0,0,0,0,0,0,-1,1147,1289,0,0
-70,-265,0,0,0,0,0,0,0,0,0,-1,1154,1289,0,0
-63,-265,0,0,0,0,0,0,0,0,0,-1,1161,1289,0,0
-56,-265,0,0,0,0,0,0,0,0,0,-1,1168,1289,0,0
-49,-265,0,0,0,0,0,0,0,0,0,-1,1175,1289,0,0
-42,-265,0,0,0,0,0,0,0,0,0,-1,1182,1289,0,0
-35,-265,0,0,0,0,0,0,0,0,0,-1,1189,1289,0,0
-28,-265,0,0,0,0,0,0,0,0,0,-1,1196,1289,0,0
-21,-265,0,0,0,0,0,0,0,0,0,-1,1203,1289,0,0
-14,-265,0,0,0,0,0,0,0,0,0,-1,1210,1289,0,0
-7,-265,0,0,0,0,0,0,0,0,0,-1,1217,1289,0,0
0,-265,0,0,0,0,0,0,0,0,0,-1,1224,1289,0,0
7,-265,0,0,0,0,0,0,0,0,0,-1,1231,1289,0,0
14,-265,0,0,0,0,0,0,0,0,0,-1,1238,1289,0,0
21,-265,0,0,0,0,0,0,0,0,0,-1,1245,1289,0,0
28,-265,0,0,0,0,0,0,0,0,0,-1,1252,1289,0,0
35,-265,0,0,0,0,0,0,0,0,0,-1,1259,1289,0,0
42,-265,0,0,0,0,0,0,0,0,0,-1,1266,1289,0,0
49,-265,0,0,0,0,0,0,0,0,0,-1,1273,1289,0,0
56,-265,0,0,0,0,0,0,0,0,0,-1,1280,1289,0,0
63,-265,0,0,0,0,0,0,0,0,0,-1,1287,1289,0,0
70,-265,0,0,0,0,0,0,0,0,0,-1,1294,1289,0,0
77,-265,0,0,0,0,0,0,0,0,0,-1,1301,1289,0,0
84,-265,0,0,0,0,0,0,0,0,0,-1,1308,1289,0,0
91,-265,0,0,0,0,0,0,0,0,0,-1,1315,1289,0,0
98,-265,0,0,0,0,0,0,0,0,0,-1,1322,1289,0,0
105,-265,0,0,0,0,0,0,0,0,0,-1,1329,1289,0,0
112,-265,0,0,0,0,0,0,0,0,0,-1,1336,1289,0,0
119,-265,0,0,0,0,0,0,0,0,0,-1,1343,1289,0,0
126,-265,0,0,0,0,0,0,0,0,0,-1,1350,1289,0,0
133,-265,0,0,0,0,0,0,0,0,0,-1,1357,1289,0,0
140,-265,0,0,0,0,0,0,0,0,0,-1,1364,1289,0,0
147,-265,0,0,0,0,0,0,0,0,0,-1,1371,1289,0,0
154,-265,0,0,0,0,0,0,0,0,0,-1,1378,1289,0,0
161,-265,0,0,0,0,0,0,0,0,0,-1,1385,1289,0,0
168,-265,0,0,0,0,0,0,0,0,0,-1,1392,1289,0,0
175,-265,0,0,0,0,0,0,0,0,0,-1,1399,1289,0,0
182,-265,0,0,0,0,0,0,0,0,0,-1,1406,1289,0,0
189,-265,0,0,0,0,0,0,0,0,0,-1,1413,1289,0,0
196,-265,0,0,0,0,0,0,0,0,0,-1,1420,1289,0,0
203,-265,0,0,0,0,0,0,0,0,0,-1,1427,1289,0,0
210,-265,0,0,0,0,0,0,0,0,0,-1,1434,1289,0,0
217,-265,0,0,0,0,0,0,0,0,0,-1,1441,1289,0,0
224,-265,0,0,0,0,0,0,0,0,0,-1,1448,1289,0,0
231,-265,0,0,0,0,0,0,0,0,0,-1,1455,1289,0,0
238,-265,0,0,0,0,0,0,0,0,0,-1,1462,1289,0,0
245,-265,0,0,0,0,0,0,0,0,0,-1,1469,1289,0,0
252,-265,0,0,0,0,0,0,0,0,0,-1,1476,1289,0,0
259,-265,0,0,0,0,0,0,0,0,0,-1,1483,1289,0,0
266,-265,0,0,0,0,0,0,0,0,0,-1,1490,1289,0,0
273,-265,0,0,0,0,0,0,0,0,0,-1,1497,1289,0,0
280,-265,0,0,0,0,0,0,0,0,0,-1,1504,1289,0,0
287,-265,0,0,0,0,0,0,0,0,0,-1,1511,1289,0,0
294,-265,0,0,0,0,0,0,0,0,0,-1,1518,1289,0,0
301,-265,0,0,0,0,0,0,0,0,0,-1,1525,1289,0,0
308,-265,0,0,0,0,0,0,0,0,0,-1,1532,1289,0,0
315,-265,0,0,0,0,0,0,0,0,0,-1,1539,1289,0,0
322,-265,0,0,0,0,0,0,0,0,0,-1,1546,1289,0,0
329,-265,0,0,0,0,0,0,0,0,0,-1,1553,1289,0,0
336,-265,0,0,0,0,0,0,0,0,0,-1,1560,1289,0,0
343,-265,0,0,0,0,0,0,0,0,0,-1,1567,1289,0,0
350,-265,0,0,0,0,0,0,0,0,0,-1,1574,1289,0,0
357,-265,0,0,0,0,0,0,0,0,0,-1,1581,1289,0,0
364,-265,0,0,0,0,0,0,0,0,0,-1,1588,1289,0,0
371,-265,0,0,0,0,0,0,0,0,0,-1,1595,1289,0,0
378,-265,0,0,0,0,0,0,0,0,0,-1,1602,1289,0,0
385,-265,0,0,0,0,0,0,0,0,0,-1,1609,1289,0,0
392,-265,0,0,0,0,0,0,0,0,0,-1,1616,1289,0,0
399,-265,0,0,0,0,0,0,0,0,0,-1,1623,1289,0,0
406,-265,0,0,0,0,0,0,0,0,0,-1,1630,1289,0,0
413,-265,0,0,0,0,0,0,0,0,0,-1,1637,1289,0,0
420,-265,0,0,0,0,0,0,0,0,0,-1,1644,1289,0,0
427,-265,0,0,0,0,0,0,0,0,0,-1,1651,1289,0,0
434,-265,0,0,0,0,0,0,0,0,0,-1,1658,1289,0,0
441,-265,0,0,0,0,0,0,0,0,0,-1,1665,1289,0,0
448,-265,0,0,0,0,0,0,0,0,0,-1,1672,1289,0,0
455,-265,0,0,0,0,0,0,0,0,0,-1,1679,1289,0,0
462,-265,0,0,0,0,0,0,0,0,0,-1,1686,1289,0,0
469,-265,0,0,0,0,0,0,0,0,0,-1,1693,1289,0,0
476,-265,0,0,0,0,0,0,0,0,0,-1,1700,1289,0,0
483,-265,0,0,0,0,0,0,0,0,0,-1,1707,1289,0,0
490,-265,0,0,0,0,0,0,0,0,0,-1,1714,1289,0,0
497,-265,0,0,0,0,0,0,0,0,0,-1,1721,1289,0,0
504,-265,0,0,0,0,0,0,0,0,0,-1,1728,1289,0,0
511,-265,0,0,0,0,0,0,0,0,0,-1,1735,1289,0,0
518,-265,0,0,0,0,0,0,0,0,0,-1,1742,1289,0,0
525,-265,0,0,0,0,0,0,0,0,0,-1,1749,1289,0,0
532,-265,0,0,0,0,0,0,0,0,0,-1,1756,1289,0,0
539,-265,0,0,0,0,0,0,0,0,0,-1,1763,1289,0,0
546,-265,0,0,0,0,0,0,0,0,0,-1,1770,1289,0,0
553,-265,0,0,0,0,0,0,0,0,0,-1,1777,1289,0,0
560,-265,0,0,0,0,0,0,0,0,0,-1,1784,1289,0,0
567,-265,0,0,0,0,0,0,0,0,0,-1,1791,1289,0,0
574,-265,0,0,0,0,0,0,0,0,0,-1,1798,1289,0,0
581,-265,0,0,0,0,0,0,0,0,0,-1,1805,1289,0,0
588,-265,0,0,0,0,0,0,0,0,0,-1,1812,1289,0,0
595,-265,0,0,0,0,0,0,0,0,0,-1,1819,1289,0,0
602,-265,75.5952,2.37646,-0.000758432,0.00110867,0.00263335,0.00296905,-0.00261882,0.955742,0.00322827,0.0273349,1826,1289,75.5952,-2.37652
609,-265,75.5359,2.32776,0.000417718,0.00475872,-0.00492006,0.00796578,-0.00278933,-0.993135,0.00644474,0.0281133,1833,1289,75.5359,-2.32777
616,-265,75.5917,2.43115,0.00121609,0.00842908,-0.011719,0.0170839,-0.00743876,-0.934673,0.0145186,0.0344581,1840,1289,75.5916,-2.43119
623,-265,75.5128,2.17542,0.00118088,0.0106835,-0.0150062,0.0216726,-0.00980819,-0.938717,0.0186007,0.0488033,1847,1289,75.5128,-2.17537
630,-265,75.4955,1.89502,0.000461735,0.0110449,-0.0146052,0.0212876,-0.00978095,-0.959197,0.0183429,0.0480472,1854,1289,75.4955,-1.89507
637,-265,75.5282,1.74133,0,0,0,0,0,0,0,-1,1861,1289,75.5283,-1.74133
644,-265,72.2863,0.399658,0,0,0,0,0,0,0,-1,1868,1289,72.2863,-0.39967
651,-265,53.6781,1.57166,0,0,0,0,0,0,0,-1,1875,1289,53.6781,-1.57167
658,-265,41.7163,3.71619,0,0,0,0,0,0,0,-1,1882,1289,41.7163,-3.71624
665,-265,34.7902,1.43164,0,0,0,0,0,0,0,-1,1889,1289,34.7901,-1.43162
672,-265,20.0045,6.62671,0,0,0,0,0,0,0,-1,1896,1289,20.0045,-6.62668
679,-265,48.9694,14.0298,0,0,0,0,0,0,0,-1,1903,1289,48.9694,-14.0297
686,-265,53.6217,15.0732,0,0,0,0,0,0,0,-1,1910,1289,53.6217,-15.0732
693,-265,53.5558,14.2357,-0.000322253,9.97096e-05,-0.000415112,0.00035438,-0.000576923,-1.02051,0.000542781,0.0157657,1917,1289,53.5558,-14.2357
700,-265,53.5117,13.4414,0.000321686,-0.000900726,0.000502114,0.000501487,-0.00108053,0.343861,0.000933547,0.0103757,1924,1289,53.5117,-13.4414
707,-265,53.4832,12.6674,-0.000213125,-0.000749006,0.000751114,0.000316409,-0.00127854,0.614072,0.000975094,0.0105565,1931,1289,53.4832,-12.6673
714,-265,53.4525,11.9103,-0.000823039,-0.000550465,0.00111011,0.000431689,-0.00180519,0.846477,0.00137022,0.0141118,1938,1289,53.4525,-11.9103
721,-265,53.3324,11.1343,-0.00150065,-0.00040881,0.0015096,0.00065055,-0.00256001,0.958898,0.00195985,0.0163678,1945,1289,53.3324,-11.1343
728,-265,53.2957,10.4268,-0.00228497,-0.00033345,0.00197368,0.000892499,-0.00351092,1.01497,0.00268797,0.0164583,1952,1289,53.2957,-10.4268
735,-265,53.3403,9.68579,-0.00321005,-0.000323256,0.00252595,0.00114261,-0.00467592,1.04497,0.00355981,0.0166129,1959,1289,53.3403,-9.68575
742,-265,53.2584,8.92456,-0.00430171,-0.000407647,0.00318712,0.00138011,-0.00608947,1.0596,0.00458938,0.0192676,1966,1289,53.2584,-8.9245
749,-265,53.2009,8.13538,-0.0055672,-0.000639371,0.0039682,0.00156764,-0.00777421,1.06323,0.00577669,0.0457504,1973,1289,53.2009,-8.13541
756,-265,53.2258,7.32764,0,0,0,0,0,0,0,-1,1980,1289,53.2258,-7.32766
763,-265,39.1299,4.9679,0,0,0,0,0,0,0,-1,1987,1289,39.1299,-4.96791
770,-265,35.1674,5.07715,0,0,0,0,0,0,0,-1,1994,1289,35.1673,-5.07718
777,-265,32.1664,5.3457,0,0,0,0,0,0,0,-1,2001,1289,32.1664,-5.34568
784,-265,0,0,0,0,0,0,0,0,0,-1,2008,1289,0,0
791,-265,0,0,0,0,0,0,0,0,0,-1,2015,1289,0,0
798,-265,0,0,0,0,0,0,0,0,0,-1,2022,1289,0,0
805,-265,0,0,0,0,0,0,0,0,0,-1,2029,1289,0,0
812,-265,0,0,0,0,0,0,0,0,0,-1,2036,1289,0,0
-700,-272,0,0,0,0,0,0,0,0,0,-1,524,1296,0,0
-693,-272,0,0,0,0,0,0,0,0,0,-1,531,1296,0,0
-686,-272,0,0,0,0,0,0,0,0,0,-1,538,1296,0,0
-679,-272,0,0,0,0,0,0,0,0,0,-1,545,1296,0,0
-672,-272,0,0,0,0,0,0,0,0,0,-1,552,1296,0,0
-665,-272,0,0,0,0,0,0,0,0,0,-1,559,1296,0,0
-658,-272,-44.6526,1.54443,0,0,0,0,0,0,0,-1,566,1296,-44.6526,-1.5444
-651,-272,-44.3723,1.53772,0,0,0,0,0,0,0,-1,573,1296,-44.3723,-1.53774
-644,-272,-44.1104,1.46021,0,0,0,0,0,0,0,-1,580,1296,-44.1104,-1.46022
-637,-272,-43.9348,1.25171,0,0,0,0,0,0,0,-1,587,1296,-43.9348,-1.25175
-630,-272,-43.5906,0.784912,0,0,0,0,0,0,0,-1,594,1296,-43.5906,-0.784935
-623,-272,-34.1035,5.31335,0,0,0,0,0,0,0,-1,601,1296,-34.1035,-5.31331
-616,-272,-35.9954,7.40662,0,0,0,0,0,0,0,-1,608,1296,-35.9954,-7.40659
-609,-272,-35.8835,8.11792,0.00432484,0.00458638,0.00181185,0.00627217,0.00263905,0.821424,0.00363637,0.0291018,615,1296,-35.8835,-8.1179
-602,-272,-35.9662,8.7616,0.00275564,0.0032772,0.00121171,0.00425588,0.00177696,0.891391,0.00246825,0.0162284,622,1296,-35.9662,-8.76155
-595,-272,-36.0274,9.58496,0.00155395,0.00194123,0.000630108,0.00240678,0.0010884,0.934473,0.00139167,0.011882,629,1296,-36.0274,-9.58499
-588,-272,-36.067,10.3782,0.000671312,0.00066603,0.000177905,0.000846595,0.000490747,0.777975,0.000490846,0.0110979,636,1296,-36.067,-10.3782
-581,-272,-36.1474,11.1556,1.15257e-05,-0.000632033,-0.000187246,6.20405e-05,-0.000682547,-0.263505,0.000477058,0.0106167,643,1296,-36.1474,-11.1557
-574,-272,-36.1868,11.9625,-0.000454823,-0.00196499,-0.000476078,-0.000317269,-0.00210254,-0.281271,0.00130882,0.0155102,650,1296,-36.1868,-11.9625
-567,-272,-36.2212,12.7561,-0.000649722,-0.00334923,-0.000655464,-0.000498986,-0.00349996,-0.226038,0.00218605,0.0219595,657,1296,-36.2212,-12.7561
-560,-272,-36.3621,13.5449,-0.000442154,-0.0045417,-0.0006462,-0.000342708,-0.00464115,-0.152696,0.00298643,0.0234168,664,1296,-36.3621,-13.5449
-553,-272,-36.3947,14.317,7.89592e-05,-0.00610247,-0.000559134,0.000129128,-0.00615264,-0.0894861,0.00414547,0.0358598,671,1296,-36.3947,-14.317
-546,-272,-36.6377,15.2131,0,0,0,0,0,0,0,-1,678,1296,-36.6377,-15.2132
-539,-272,-24.1416,11.0325,0,0,0,0,0,0,0,-1,685,1296,-24.1416,-11.0324
-532,-272,-10.5572,4.53943,0,0,0,0,0,0,0,-1,692,1296,-10.5572,-4.53943
-525,-272,-11.9599,0.0393066,0,0,0,0,0,0,0,-1,699,1296,-11.9599,-0.0393577
-518,-272,-21.1357,-1.41382,0,0,0,0,0,0,0,-1,706,1296,-21.1357,1.41379
-511,-272,-23.2565,0.226318,0,0,0,0,0,0,0,-1,713,1296,-23.2565,-0.22626
-504,-272,-19.7397,0.114746,0,0,0,0,0,0,0,-1,720,1296,-19.7397,-0.114701
-497,-272,-19.2225,1.71301,0,0,0,0,0,0,0,-1,727,1296,-19.2225,-1.71302
-490,-272,-20.1948,2.4032,0,0,0,0,0,0,0,-1,734,1296,-20.1948,-2.40322
-483,-272,-15.3736,0.792603,0,0,0,0,0,0,0,-1,741,1296,-15.3736,-0.79263
-476,-272,0,0,0,0,0,0,0,0,0,-1,748,1296,0,0
-469,-272,0,0,0,0,0,0,0,0,0,-1,755,1296,0,0
-462,-272,0,0,0,0,0,0,0,0,0,-1,762,1296,0,0
-455,-272,0,0,0,0,0,0,0,0,0,-1,769,1296,0,0
-448,-272,0,0,0,0,0,0,0,0,0,-1,776,1296,0,0
-441,-272,0,0,0,0,0,0,0,0,0,-1,783,1296,0,0
-434,-272,0,0,0,0,0,0,0,0,0,-1,790,1296,0,0
-427,-272,0,0,0,0,0,0,0,0,0,-1,797,1296,0,0
-420,-272,0,0,0,0,0,0,0,0,0,-1,804,1296,0,0
-413,-272,0,0,0,0,0,0,0,0,0,-1,811,1296,0,0
-406,-272,0,0,0,0,0,0,0,0,0,-1,818,1296,0,0
-399,-272,0,0,0,0,0,0,0,0,0,-1,825,1296,0,0
-392,-272,0,0,0,0,0,0,0,0,0,-1,832,1296,0,0
-385,-272,0,0,0,0,0,0,0,0,0,-1,839,1296,0,0
-378,-272,0,0,0,0,0,0,0,0,0,-1,846,1296,0,0
-371,-272,0,0,0,0,0,0,0,0,0,-1,853,1296,0,0
-364,-272,0,0,0,0,0,0,0,0,0,-1,860,1296,0,0
-357,-272,0,0,0,0,0,0,0,0,0,-1,867,1296,0,0
-350,-272,0,0,0,0,0,0,0,0,0,-1,874,1296,0,0
-343,-272,0,0,0,0,0,0,0,0,0,-1,881,1296,0,0
-336,-272,0,0,0,0,0,0,0,0,0,-1,888,1296,0,0
-329,-272,0,0,0,0,0,0,0,0,0,-1,895,1296,0,0
-322,-272,0,0,0,0,0,0,0,0,0,-1,902,1296,0,0
-315,-272,0,0,0,0,0,0,0,0,0,-1,909,1296,0,0
-308,-272,0,0,0,0,0,0,0,0,0,-1,916,1296,0,0
-301,-272,0,0,0,0,0,0,0,0,0,-1,923,1296,0,0
-294,-272,0,0,0,0,0,0,0,0,0,-1,930,1296,0,0
-287,-272,0,0,0,0,0,0,0,0,0,-1,937,1296,0,0
-280,-272,0,0,0,0,0,0,0,0,0,-1,944,1296,0,0
-273,-272,0,0,0,0,0,0,0,0,0,-1,951,1296,0,0
-266,-272,0,0,0,0,0,0,0,0,0,-1,958,1296,0,0
-259,-272,0,0,0,0,0,0,0,0,0,-1,965,1296,0,0
-252,-272,0,0,0,0,0,0,0,0,0,-1,972,1296,0,0
-245,-272,0,0,0,0,0,0,0,0,0,-1,979,1296,0,0
-238,-272,0,0,0,0,0,0,0,0,0,-1,986,1296,0,0
-231,-272,0,0,0,0,0,0,0,0,0,-1,993,1296,0,0
-224,-272,0,0,0,0,0,0,0,0,0,-1,1000,1296,0,0
-217,-272,0,0,0,0,0,0,0,0,0,-1,1007,1296,0,0
-210,-272,0,0,0,0,0,0,0,0,0,-1,1014,1296,0,0
-203,-272,0,0,0,0,0,0,0,0,0,-1,1021,1296,0,0
-196,-272,0,0,0,0,0,0,0,0,0,-1,1028,1296,0,0
-189,-272,0,0,0,0,0,0,0,0,0,-1,1035,1296,0,0
-182,-272,0,0,0,0,0,0,0,0,0,-1,1042,1296,0,0
-175,-272,0,0,0,0,0,0,0,0,0,-1,1049,1296,0,0
-168,-272,0,0,0,0,0,0,0,0,0,-1,1056,1296,0,0
-161,-272,0,0,0,0,0,0,0,0,0,-1,1063,1296,0,0
-154,-272,0,0,0,0,0,0,0,0,0,-1,1070,1296,0,0
-147,-272,0,0,0,0,0,0,0,0,0,-1,1077,1296,0,0
-140,-272,0,0,0,0,0,0,0,0,0,-1,1084,1296,0,0
-133,-272,0,0,0,0,0,0,0,0,0,-1,1091,1296,0,0
-126,-272,0,0,0,0,0,0,0,0,0,-1,1098,1296,0,0
-119,-272,0,0,0,0,0,0,0,0,0,-1,1105,1296,0,0
-112,-272,0,0,0,0,0,0,0,0,0,-1,1112,1296,0,0
-105,-272,0,0,0,0,0,0,0,0,0,-1,1119,1296,0,0
-98,-272,0,0,0,0,0,0,0,0,0,-1,1126,1296,0,0
-91,-272,0,0,0,0,0,0,0,0,0,-1,1133,1296,0,0
-84,-272,0,0,0,0,0,0,0,0,0,-1,1140,1296,0,0
-77,-272,0,0,0,0,0,0,0,0,0,-1,1147,1296,0,0
-70,-272,0,0,0,0,0,0,0,0,0,-1,1154,1296,0,0
-63,-272,0,0,0,0,0,0,0,0,0,-1,1161,1296,0,0
-56,-272,0,0,0,0,0,0,0,0,0,-1,1168,1296,0,0
-49,-272,0,0,0,0,0,0,0,0,0,-1,1175,1296,0,0
-42,-272,0,0,0,0,0,0,0,0,0,-1,1182,1296,0,0
-35,-272,0,0,0,0,0,0,0,0,0,-1,1189,1296,0,0
-28,-272,0,0,0,0,0,0,0,0,0,-1,1196,1296,0,0
-21,-272,0,0,0,0,0,0,0,0,0,-1,1203,1296,0,0
-14,-272,0,0,0,0,0,0,0,0,0,-1,1210,1296,0,0
-7,-272,0,0,0,0,0,0,0,0,0,-1,1217,1296,0,0
0,-272,0,0,0,0,0,0,0,0,0,-1,1224,1296,0,0
7,-272,0,0,0,0,0,0,0,0,0,-1,1231,1296,0,0
14,-272,0,0,0,0,0,0,0,0,0,-1,1238,1296,0,0
21,-272,0,0,0,0,0,0,0,0,0,-1,1245,1296,0,0
28,-272,0,0,0,0,0,0,0,0,0,-1,1252,1296,0,0
35,-272,0,0,0,0,0,0,0,0,0,-1,1259,1296,0,0
42,-272,0,0,0,0,0,0,0,0,0,-1,1266,1296,0,0
49,-272,0,0,0,0,0,0,0,0,0,-1,1273,1296,0,0
56,-272,0,0,0,0,0,0,0,0,0,-1,1280,1296,0,0
63,-272,0,0,0,0,0,0,0,0,0,-1,1287,1296,0,0
70,-272,0,0,0,0,0,0,0,0,0,-1,1294,1296,0,0
77,-272,0,0,0,0,0,0,0,0,0,-1,1301,1296,0,0
84,-272,0,0,0,0,0,0,0,0,0,-1,1308,1296,0,0
91,-272,0,0,0,0,0,0,0,0,0,-1,1315,1296,0,0
98,-272,0,0,0,0,0,0,0,0,0,-1,1322,1296,0,0
105,-272,0,0,0,0,0,0,0,0,0,-1,1329,1296,0,0
112,-272,0,0,0,0,0,0,0,0,0,-1,1336,1296,0,0
119,-272,0,0,0,0,0,0,0,0,0,-1,1343,1296,0,0
126,-272,0,0,0,0,0,0,0,0,0,-1,1350,1296,0,0
133,-272,0,0,0,0,0,0,0,0,0,-1,1357,1296,0,0
140,-272,0,0,0,0,0,0,0,0,0,-1,1364,1296,0,0
147,-272,0,0,0,0,0,0,0,0,0,-1,1371,1296,0,0
154,-272,0,0,0,0,0,0,0,0,0,-1,1378,1296,0,0
161,-272,0,0,0,0,0,0,0,0,0,-1,1385,1296,0,0
168,-272,0,0,0,0,0,0,0,0,0,-1,1392,1296,0,0
175,-272,0,0,0,0,0,0,0,0,0,-1,1399,1296,0,0
182,-272,0,0,0,0,0,0,0,0,0,-1,1406,1296,0,0
189,-272,0,0,0,0,0,0,0,0,0,-1,1413,1296,0,0
196,-272,0,0,0,0,0,0,0,0,0,-1,1420,1296,0,0
203,-272,0,0,0,0,0,0,0,0,0,-1,1427,1296,0,0
210,-272,0,0,0,0,0,0,0,0,0,-1,1434,1296,0,0
217,-272,0,0,0,0,0,0,0,0,0,-1,1441,1296,0,0
224,-272,0,0,0,0,0,0,0,0,0,-1,1448,1296,0,0
231,-272,0,0,0,0,0,0,0,0,0,-1,1455,1296,0,0
238,-272,0,0,0,0,0,0,0,0,0,-1,1462,1296,0,0
245,-272,0,0,0,0,0,0,0,0,0,-1,1469,1296,0,0
252,-272,0,0,0,0,0,0,0,0,0,-1,1476,1296,0,0
259,-272,0,0,0,0,0,0,0,0,0,-1,1483,1296,0,0
266,-272,0,0,0,0,0,0,0,0,0,-1,1490,1296,0,0
273,-272,0,0,0,0,0,0,0,0,0,-1,1497,1296,0,0
280,-272,0,0,0,0,0,0,0,0,0,-1,1504,1296,0,0
287,-272,0,0,0,0,0,0,0,0,0,-1,1511,1296,0,0
294,-272,0,0,0,0,0,0,0,0,0,-1,1518,1296,0,0
301,-272,0,0,0,0,0,0,0,0,0,-1,1525,1296,0,0
308,-272,0,0,0,0,0,0,0,0,0,-1,1532,1296,0,0
315,-272,0,0,0,0,0,0,0,0,0,-1,1539,1296,0,0
322,-272,0,0,0,0,0,0,0,0,0,-1,1546,1296,0,0
329,-272,0,0,0,0,0,0,0,0,0,-1,1553,1296,0,0
336,-272,0,0,0,0,0,0,0,0,0,-1,1560,1296,0,0
343,-272,0,0,0,0,0,0,0,0,0,-1,1567,1296,0,0
350,-272,0,0,0,0,0,0,0,0,0,-1,1574,1296,0,0
357,-272,0,0,0,0,0,0,0,0,0,-1,1581,1296,0,0
364,-272,0,0,0,0,0,0,0,0,0,-1,1588,1296,0,0
371,-272,0,0,0,0,0,0,0,0,0,-1,1595,1296,0,0
378,-272,0,0,0,0,0,0,0,0,0,-1,1602,1296,0,0
385,-272,0,0,0,0,0,0,0,0,0,-1,1609,1296,0,0
392,-272,0,0,0,0,0,0,0,0,0,-1,1616,1296,0,0
399,-272,0,0,0,0,0,0,0,0,0,-1,1623,1296,0,0
406,-272,0,0,0,0,0,0,0,0,0,-1,1630,1296,0,0
413,-272,0,0,0,0,0,0,0,0,0,-1,1637,1296,0,0
420,-272,0,0,0,0,0,0,0,0,0,-1,1644,1296,0,0
427,-272,0,0,0,0,0,0,0,0,0,-1,1651,1296,0,0
434,-272,0,0,0,0,0,0,0,0,0,-1,1658,1296,0,0
441,-272,0,0,0,0,0,0,0,0,0,-1,1665,1296,0,0
448,-272,0,0,0,0,0,0,0,0,0,-1,1672,1296,0,0
455,-272,0,0,0,0,0,0,0,0,0,-1,1679,1296,0,0
462,-272,0,0,0,0,0,0,0,0,0,-1,1686,1296,0,0
469,-272,0,0,0,0,0,0,0,0,0,-1,1693,1296,0,0
476,-272,0,0,0,0,0,0,0,0,0,-1,1700,1296,0,0
483,-272,0,0,0,0,0,0,0,0,0,-1,1707,1296,0,0
490,-272,0,0,0,0,0,0,0,0,0,-1,1714,1296,0,0
497,-272,0,0,0,0,0,0,0,0,0,-1,1721,1296,0,0
504,-272,0,0,0,0,0,0,0,0,0,-1,1728,1296,0,0
511,-272,0,0,0,0,0,0,0,0,0,-1,1735,1296,0,0
518,-272,0,0,0,0,0,0,0,0,0,-1,1742,1296,0,0
525,-272,0,0,0,0,0,0,0,0,0,-1,1749,1296,0,0
532,-272,0,0,0,0,0,0,0,0,0,-1,1756,1296,0,0
539,-272,0,0,0,0,0,0,0,0,0,-1,1763,1296,0,0
546,-272,0,0,0,0,0,0,0,0,0,-1,1770,1296,0,0
553,-272,0,0,0,0,0,0,0,0,0,-1,1777,1296,0,0
560,-272,0,0,0,0,0,0,0,0,0,-1,1784,1296,0,0
567,-272,0,0,0,0,0,0,0,0,0,-1,1791,1296,0,0
574,-272,0,0,0,0,0,0,0,0,0,-1,1798,1296,0,0
581,-272,0,0,0,0,0,0,0,0,0,-1,1805,1296,0,0
588,-272,0,0,0,0,0,0,0,0,0,-1,1812,1296,0,0
595,-272,0,0,0,0,0,0,0,0,0,-1,1819,1296,0,0
602,-272,75.5536,2.34143,0.00216197,0.00181367,-0.00249947,0.00449335,-0.000517706,-0.750616,0.0031822,0.0309562,1826,1296,75.5536,-2.34147
609,-272,75.4335,2.22449,0.00383231,0.00519571,-0.0105421,0.0150782,-0.00605015,-0.817686,0.0125642,0.0370139,1833,1296,75.4335,-2.22454
616,-272,75.6538,2.35852,0.00454381,0.00803059,-0.0160488,0.0224304,-0.00985598,-0.839501,0.019106,0.0409402,1840,1296,75.6538,-2.35858
623,-272,75.6337,2.14417,0.00383034,0.0090459,-0.0164103,0.0230544,-0.0101781,-0.864195,0.019661,0.045528,1847,1296,75.6337,-2.14418
630,-272,75.5649,1.75293,0.00247996,0.00909217,-0.0146331,0.020788,-0.00921587,-0.896499,0.017747,0.0486989,1854,1296,75.565,-1.75296
637,-272,75.6233,1.70203,0,0,0,0,0,0,0,-1,1861,1296,75.6232,-1.70201
644,-272,53.563,1.44336,0,0,0,0,0,0,0,-1,1868,1296,53.5629,-1.4433
651,-272,41.9225,4.27161,0,0,0,0,0,0,0,-1,1875,1296,41.9225,-4.27157
658,-272,35.1527,2.10571,0,0,0,0,0,0,0,-1,1882,1296,35.1527,-2.10573
665,-272,22.0238,4.14417,0,0,0,0,0,0,0,-1,1889,1296,22.0238,-4.14421
672,-272,22.661,7.21765,0,0,0,0,0,0,0,-1,1896,1296,22.661,-7.21761
679,-272,51.5885,15.1158,0,0,0,0,0,0,0,-1,1903,1296,51.5885,-15.1159
686,-272,52.7584,15.0438,0,0,0,0,0,0,0,-1,1910,1296,52.7584,-15.0438
693,-272,52.7642,14.2826,-2.15952e-05,9.60331e-05,-0.000583894,0.000624068,-0.00054963,-0.835593,0.000678089,0.0133118,1917,1296,52.7641,-14.2826
700,-272,52.7423,13.5012,0.000457314,-0.000635422,0.000278949,0.000524404,-0.000702512,0.236026,0.000710844,0.0124535,1924,1296,52.7423,-13.5013
707,-272,52.7137,12.7151,-8.37227e-06,-0.000483091,0.000596837,0.000396572,-0.000888036,0.596139,0.000759546,0.0116417,1931,1296,52.7138,-12.7151
714,-272,52.6733,11.9412,-0.000547684,-0.000324964,0.000965292,0.00053537,-0.00140802,0.842826,0.00115911,0.0150977,1938,1296,52.6734,-11.9411
721,-272,52.5757,11.2194,-0.00117664,-0.000213272,0.00135289,0.000741122,-0.00213104,0.956422,0.00172175,0.0199357,1945,1296,52.5757,-11.2194
728,-272,52.5698,10.4252,-0.00190385,-0.00016931,0.00178801,0.000950664,-0.00302382,1.0112,0.00239647,0.0210232,1952,1296,52.5699,-10.4251
735,-272,52.5612,9.69324,-0.00277661,-0.000194057,0.00229339,0.00114659,-0.00411726,1.0418,0.00319634,0.0174482,1959,1296,52.5612,-9.69322
742,-272,52.4412,9.02563,-0.00383103,-0.000330867,0.0028764,0.00128602,-0.00544791,1.05869,0.00412794,0.0257413,1966,1296,52.4411,-9.02567
749,-272,52.426,8.32678,-0.00506885,-0.000648708,0.00353678,0.00131174,-0.0070293,1.06465,0.00517912,0.0465281,1973,1296,52.426,-8.32682
756,-272,52.5089,7.64038,0,0,0,0,0,0,0,-1,1980,1296,52.5089,-7.64044
763,-272,34.3995,5.88416,0,0,0,0,0,0,0,-1,1987,1296,34.3996,-5.88419
770,-272,25.9485,3.67749,0,0,0,0,0,0,0,-1,1994,1296,25.9485,-3.67744
777,-272,32.3619,6.13257,0,0,0,0,0,0,0,-1,2001,1296,32.362,-6.1326
784,-272,0,0,0,0,0,0,0,0,0,-1,2008,1296,0,0
791,-272,0,0,0,0,0,0,0,0,0,-1,2015,1296,0,0
798,-272,0,0,0,0,0,0,0,0,0,-1,2022,1296,0,0
805,-272,0,0,0,0,0,0,0,0,0,-1,2029,1296,0,0
812,-272,0,0,0,0,0,0,0,0,0,-1,2036,1296,0,0
-700,-279,0,0,0,0,0,0,0,0,0,-1,524,1303,0,0
-693,-279,0,0,0,0,0,0,0,0,0,-1,531,1303,0,0
-686,-279,0,0,0,0,0,0,0,0,0,-1,538,1303,0,0
-679,-279,0,0,0,0,0,0,0,0,0,-1,545,1303,0,0
-672,-279,0,0,0,0,0,0,0,0,0,-1,552,1303,0,0
-665,-279,0,0,0,0,0,0,0,0,0,-1,559,1303,0,0
-658,-279,-44.3733,1.65881,0,0,0,0,0,0,0,-1,566,1303,-44.3733,-1.65883
-651,-279,-44.1603,1.61462,0,0,0,0,0,0,0,-1,573,1303,-44.1604,-1.61462
-644,-279,-43.8069,1.50903,0,0,0,0,0,0,0,-1,580,1303,-43.8069,-1.50909
-637,-279,-43.2951,1.33704,0,0,0,0,0,0,0,-1,587,1303,-43.2951,-1.33703
-630,-279,-42.6152,1.22852,0,0,0,0,0,0,0,-1,594,1303,-42.6152,-1.22856
-623,-279,-41.8359,0.907715,0,0,0,0,0,0,0,-1,601,1303,-41.8358,-0.907688
-616,-279,-33.9639,7.0083,0,0,0,0,0,0,0,-1,608,1303,-33.964,-7.00832
-609,-279,-35.1867,7.95789,0,0,0,0,0,0,0,-1,615,1303,-35.1867,-7.95794
-602,-279,-35.1455,8.81738,0.00311341,0.00365496,0.00166072,0.00506683,0.00170154,0.86621,0.00297744,0.0165342,622,1303,-35.1455,-8.81733
-595,-279,-35.2213,9.62451,0.00190181,0.00236755,0.000990952,0.00315263,0.00111674,0.900802,0.00184578,0.0114407,629,1303,-35.2213,-9.62456
-588,-279,-35.2722,10.4282,0.00105931,0.00118617,0.000486337,0.00161319,0.000632283,0.850242,0.0009386,0.0122721,636,1303,-35.2721,-10.4282
-581,-279,-35.3281,11.1976,0.000491481,3.09925e-05,0.000117588,0.00051977,2.70366e-06,0.236089,0.000345616,0.0131316,643,1303,-35.3281,-11.1976
-574,-279,-35.3851,11.9862,0.000142991,-0.00111059,-0.000146283,0.000159834,-0.00112744,-0.11464,0.000810175,0.0140349,650,1303,-35.3851,-11.9863
-567,-279,-35.4251,12.7731,4.54372e-05,-0.00224678,-0.000284811,8.02951e-05,-0.00228163,-0.121785,0.00154855,0.0191078,657,1303,-35.4251,-12.773
-560,-279,-35.4918,13.6414,0.000359332,-0.00322714,-0.00022433,0.000373309,-0.00324111,-0.0622258,0.00229532,0.018942,664,1303,-35.4918,-13.6414
-553,-279,-35.537,14.4688,0.00101848,-0.0043467,-1.76317e-05,0.00101854,-0.00434676,-0.00328627,0.00329033,0.0222833,671,1303,-35.537,-14.4688
-546,-279,-35.6048,15.3123,0,0,0,0,0,0,0,-1,678,1303,-35.6048,-15.3123
-539,-279,-33.4584,14.6454,0,0,0,0,0,0,0,-1,685,1303,-33.4584,-14.6454
-532,-279,-14.9813,7.89917,0,0,0,0,0,0,0,-1,692,1303,-14.9813,-7.89918
-525,-279,-11.7063,-0.539185,0,0,0,0,0,0,0,-1,699,1303,-11.7063,0.539166
-518,-279,-16.8138,1.11963,0,0,0,0,0,0,0,-1,706,1303,-16.8138,-1.11968
-511,-279,-20.1063,-1.37915,0,0,0,0,0,0,0,-1,713,1303,-20.1062,1.37918
-504,-279,-18.3766,1.04578,0,0,0,0,0,0,0,-1,720,1303,-18.3767,-1.04577
-497,-279,-19.0046,2.08911,0,0,0,0,0,0,0,-1,727,1303,-19.0046,-2.08905
-490,-279,-20.0176,2.55188,0,0,0,0,0,0,0,-1,734,1303,-20.0176,-2.55183
-483,-279,-20.8064,2.99792,0,0,0,0,0,0,0,-1,741,1303,-20.8064,-2.99797
-476,-279,0,0,0,0,0,0,0,0,0,-1,748,1303,0,0
-469,-279,0,0,0,0,0,0,0,0,0,-1,755,1303,0,0
-462,-279,0,0,0,0,0,0,0,0,0,-1,762,1303,0,0
-455,-279,0,0,0,0,0,0,0,0,0,-1,769,1303,0,0
-448,-279,0,0,0,0,0,0,0,0,0,-1,776,1303,0,0
-441,-279,0,0,0,0,0,0,0,0,0,-1,783,1303,0,0
-434,-279,0,0,0,0,0,0,0,0,0,-1,790,1303,0,0
-427,-279,0,0,0,0,0,0,0,0,0,-1,797,1303,0,0
-420,-279,0,0,0,0,0,0,0,0,0,-1,804,1303,0,0
-413,-279,0,0,0,0,0,0,0,0,0,-1,811,1303,0,0
-406,-279,0,0,0,0,0,0,0,0,0,-1,818,1303,0,0
-399,-279,0,0,0,0,0,0,0,0,0,-1,825,1303,0,0
-392,-279,0,0,0,0,0,0,0,0,0,-1,832,1303,0,0
-385,-279,0,0,0,0,0,0,0,0,0,-1,839,1303,0,0
-378,-279,0,0,0,0,0,0,0,0,0,-1,846,1303,0,0
-371,-279,0,0,0,0,0,0,0,0,0,-1,853,1303,0,0
-364,-279,0,0,0,0,0,0,0,0,0,-1,860,1303,0,0
-357,-279,0,0,0,0,0,0,0,0,0,-1,867,1303,0,0
-350,-279,0,0,0,0,0,0,0,0,0,-1,874,1303,0,0
-343,-279,0,0,0,0,0,0,0,0,0,-1,881,1303,0,0
-336,-279,0,0,0,0,0,0,0,0,0,-1,888,1303,0,0
-329,-279,0,0,0,0,0,0,0,0,0,-1,895,1303,0,0
-322,-279,0,0,0,0,0,0,0,0,0,-1,902,1303,0,0
-315,-279,0,0,0,0,0,0,0,0,0,-1,909,1303,0,0
-308,-279,0,0,0,0,0,0,0,0,0,-1,916,1303,0,0
-301,-279,0,0,0,0,0,0,0,0,0,-1,923,1303,0,0
-294,-279,0,0,0,0,0,0,0,0,0,-1,930,1303,0,0
-287,-279,0,0,0,0,0,0,0,0,0,-1,937,1303,0,0
-280,-279,0,0,0,0,0,0,0,0,0,-1,944,1303,0,0
-273,-279,0,0,0,0,0,0,0,0,0,-1,951,1303,0,0
-266,-279,0,0,0,0,0,0,0,0,0,-1,958,1303,0,0
-259,-279,0,0,0,0,0,0,0,0,0,-1,965,1303,0,0
-252,-279,0,0,0,0,0,0,0,0,0,-1,972,1303,0,0
-245,-279,0,0,0,0,0,0,0,0,0,-1,979,1303,0,0
-238,-279,0,0,0,0,0,0,0,0,0,-1,986,1303,0,0
-231,-279,0,0,0,0,0,0,0,0,0,-1,993,1303,0,0
-224,-279,0,0,0,0,0,0,0,0,0,-1,1000,1303,0,0
-217,-279,0,0,0,0,0,0,0,0,0,-1,1007,1303,0,0
-210,-279,0,0,0,0,0,0,0,0,0,-1,1014,1303,0,0
-203,-279,0,0,0,0,0,0,0,0,0,-1,1021,1303,0,0
-196,-279,0,0,0,0,0,0,0,0,0,-1,1028,1303,0,0
-189,-279,0,0,0,0,0,0,0,0,0,-1,1035,1303,0,0
-182,-279,0,0,0,0,0,0,0,0,0,-1,1042,1303,0,0
-175,-279,0,0,0,0,0,0,0,0,0,-1,1049,1303,0,0
-168,-279,0,0,0,0,0,0,0,0,0,-1,1056,1303,0,0
-161,-279,0,0,0,0,0,0,0,0,0,-1,1063,1303,0,0
-154,-279,0,0,0,0,0,0,0,0,0,-1,1070,1303,0,0
-147,-279,0,0,0,0,0,0,0,0,0,-1,1077,1303,0,0
-140,-279,0,0,0,0,0,0,0,0,0,-1,1084,1303,0,0
-133,-279,0,0,0,0,0,0,0,0,0,-1,1091,1303,0,0
-126,-279,0,0,0,0,0,0,0,0,0,-1,1098,1303,0,0
-119,-279,0,0,0,0,0,0,0,0,0,-1,1105,1303,0,0
-112,-279,0,0,0,0,0,0,0,0,0,-1,1112,1303,0,0
-105,-279,0,0,0,0,0,0,0,0,0,-1,1119,1303,0,0
-98,-279,0,0,0,0,0,0,0,0,0,-1,1126,1303,0,0
-91,-279,0,0,0,0,0,0,0,0,0,-1,1133,1303,0,0
-84,-279,0,0,0,0,0,0,0,0,0,-1,1140,1303,0,0
-77,-279,0,0,0,0,0,0,0,0,0,-1,1147,1303,0,0
-70,-279,0,0,0,0,0,0,0,0,0,-1,1154,1303,0,0
-63,-279,0,0,0,0,0,0,0,0,0,-1,1161,1303,0,0
-56,-279,0,0,0,0,0,0,0,0,0,-1,1168,1303,0,0
-49,-279,0,0,0,0,0,0,0,0,0,-1,1175,1303,0,0
-42,-279,0,0,0,0,0,0,0,0,0,-1,1182,1303,0,0
-35,-279,0,0,0,0,0,0,0,0,0,-1,1189,1303,0,0
-28,-279,0,0,0,0,0,0,0,0,0,-1,1196,1303,0,0
-21,-279,0,0,0,0,0,0,0,0,0,-1,1203,1303,0,0
-14,-279,0,0,0,0,0,0,0,0,0,-1,1210,1303,0,0
-7,-279,0,0,0,0,0,0,0,0,0,-1,1217,1303,0,0
0,-279,0,0,0,0,0,0,0,0,0,-1,1224,1303,0,0
7,-279,0,0,0,0,0,0,0,0,0,-1,1231,1303,0,0
14,-279,0,0,0,0,0,0,0,0,0,-1,1238,1303,0,0
21,-279,0,0,0,0,0,0,0,0,0,-1,1245,1303,0,0
28,-279,0,0,0,0,0,0,0,0,0,-1,1252,1303,0,0
35,-279,0,0,0,0,0,0,0,0,0,-1,1259,1303,0,0
42,-279,0,0,0,0,0,0,0,0,0,-1,1266,1303,0,0
49,-279,0,0,0,0,0,0,0,0,0,-1,1273,1303,0,0
56,-279,0,0,0,0,0,0,0,0,0,-1,1280,1303,0,0
63,-279,0,0,0,0,0,0,0,0,0,-1,1287,1303,0,0
70,-279,0,0,0,0,0,0,0,0,0,-1,1294,1303,0,0
77,-279,0,0,0,0,0,0,0,0,0,-1,1301,1303,0,0
84,-279,0,0,0,0,0,0,0,0,0,-1,1308,1303,0,0
91,-279,0,0,0,0,0,0,0,0,0,-1,1315,1303,0,0
98,-279,0,0,0,0,0,0,0,0,0,-1,1322,1303,0,0
105,-279,0,0,0,0,0,0,0,0,0,-1,1329,1303,0,0
112,-279,0,0,0,0,0,0,0,0,0,-1,1336,1303,0,0
119,-279,0,0,0,0,0,0,0,0,0,-1,1343,1303,0,0
126,-279,0,0,0,0,0,0,0,0,0,-1,1350,1303,0,0
133,-279,0,0,0,0,0,0,0,0,0,-1,1357,1303,0,0
140,-279,0,0,0,0,0,0,0,0,0,-1,1364,1303,0,0
147,-279,0,0,0,0,0,0,0,0,0,-1,1371,1303,0,0
154,-279,0,0,0,0,0,0,0,0,0,-1,1378,1303,0,0
161,-279,0,0,0,0,0,0,0,0,0,-1,1385,1303,0,0
168,-279,0,0,0,0,0,0,0,0,0,-1,1392,1303,0,0
175,-279,0,0,0,0,0,0,0,0,0,-1,1399,1303,0,0
182,-279,0,0,0,0,0,0,0,0,0,-1,1406,1303,0,0
189,-279,0,0,0,0,0,0,0,0,0,-1,1413,1303,0,0
196,-279,0,0,0,0,0,0,0,0,0,-1,1420,1303,0,0
203,-279,0,0,0,0,0,0,0,0,0,-1,1427,1303,0,0
210,-279,0,0,0,0,0,0,0,0,0,-1,1434,1303,0,0
217,-279,0,0,0,0,0,0,0,0,0,-1,1441,1303,0,0
224,-279,0,0,0,0,0,0,0,0,0,-1,1448,1303,0,0
231,-279,0,0,0,0,0,0,0,0,0,-1,1455,1303,0,0
238,-279,0,0,0,0,0,0,0,0,0,-1,1462,1303,0,0
245,-279,0,0,0,0,0,0,0,0,0,-1,1469,1303,0,0
252,-279,0,0,0,0,0,0,0,0,0,-1,1476,1303,0,0
259,-279,0,0,0,0,0,0,0,0,0,-1,1483,1303,0,0
266,-279,0,0,0,0,0,0,0,0,0,-1,1490,1303,0,0
273,-279,0,0,0,0,0,0,0,0,0,-1,1497,1303,0,0
280,-279,0,0,0,0,0,0,0,0,0,-1,1504,1303,0,0
287,-279,0,0,0,0,0,0,0,0,0,-1,1511,1303,0,0
294,-279,0,0,0,0,0,0,0,0,0,-1,1518,1303,0,0
301,-279,0,0,0,0,0,0,0,0,0,-1,1525,1303,0,0
308,-279,0,0,0,0,0,0,0,0,0,-1,1532,1303,0,0
315,-279,0,0,0,0,0,0,0,0,0,-1,1539,1303,0,0
322,-279,0,0,0,0,0,0,0,0,0,-1,1546,1303,0,0
329,-279,0,0,0,0,0,0,0,0,0,-1,1553,1303,0,0
336,-279,0,0,0,0,0,0,0,0,0,-1,1560,1303,0,0
343,-279,0,0,0,0,0,0,0,0,0,-1,1567,1303,0,0
350,-279,0,0,0,0,0,0,0,0,0,-1,1574,1303,0,0
357,-279,0,0,0,0,0,0,0,0,0,-1,1581,1303,0,0
364,-279,0,0,0,0,0,0,0,0,0,-1,1588,1303,0,0
371,-279,0,0,0,0,0,0,0,0,0,-1,1595,1303,0,0
378,-279,0,0,0,0,0,0,0,0,0,-1,1602,1303,0,0
385,-279,0,0,0,0,0,0,0,0,0,-1,1609,1303,0,0
392,-279,0,0,0,0,0,0,0,0,0,-1,1616,1303,0,0
399,-279,0,0,0,0,0,0,0,0,0,-1,1623,1303,0,0
406,-279,0,0,0,0,0,0,0,0,0,-1,1630,1303,0,0
413,-279,0,0,0,0,0,0,0,0,0,-1,1637,1303,0,0
420,-279,0,0,0,0,0,0,0,0,0,-1,1644,1303,0,0
427,-279,0,0,0,0,0,0,0,0,0,-1,1651,1303,0,0
434,-279,0,0,0,0,0,0,0,0,0,-1,1658,1303,0,0
441,-279,0,0,0,0,0,0,0,0,0,-1,1665,1303,0,0
448,-279,0,0,0,0,0,0,0,0,0,-1,1672,1303,0,0
455,-279,0,0,0,0,0,0,0,0,0,-1,1679,1303,0,0
462,-279,0,0,0,0,0,0,0,0,0,-1,1686,1303,0,0
469,-279,0,0,0,0,0,0,0,0,0,-1,1693,1303,0,0
476,-279,0,0,0,0,0,0,0,0,0,-1,1700,1303,0,0
483,-279,0,0,0,0,0,0,0,0,0,-1,1707,1303,0,0
490,-279,0,0,0,0,0,0,0,0,0,-1,1714,1303,0,0
497,-279,0,0,0,0,0,0,0,0,0,-1,1721,1303,0,0
504,-279,0,0,0,0,0,0,0,0,0,-1,1728,1303,0,0
511,-279,0,0,0,0,0,0,0,0,0,-1,1735,1303,0,0
518,-279,0,0,0,0,0,0,0,0,0,-1,1742,1303,0,0
525,-279,0,0,0,0,0,0,0,0,0,-1,1749,1303,0,0
532,-279,0,0,0,0,0,0,0,0,0,-1,1756,1303,0,0
539,-279,0,0,0,0,0,0,0,0,0,-1,1763,1303,0,0
546,-279,0,0,0,0,0,0,0,0,0,-1,1770,1303,0,0
553,-279,0,0,0,0,0,0,0,0,0,-1,1777,1303,0,0
560,-279,0,0,0,0,0,0,0,0,0,-1,1784,1303,0,0
567,-279,0,0,0,0,0,0,0,0,0,-1,1791,1303,0,0
574,-279,0,0,0,0,0,0,0,0,0,-1,1798,1303,0,0
581,-279,0,0,0,0,0,0,0,0,0,-1,1805,1303,0,0
588,-279,0,0,0,0,0,0,0,0,0,-1,1812,1303,0,0
595,-279,0,0,0,0,0,0,0,0,0,-1,1819,1303,0,0
602,-279,75.5419,2.26819,0,0,0,0,0,0,0,-1,1826,1303,75.5418,-2.26817
609,-279,75.5468,2.03796,0,0,0,0,0,0,0,-1,1833,1303,75.5468,-2.03791
616,-279,76.0924,2.29224,0.00837908,0.00562939,-0.0189138,0.025968,-0.0119595,-0.749117,0.0223898,0.0459262,1840,1303,76.0925,-2.2922
623,-279,76.2981,2.29773,0.00659428,0.00606428,-0.0164852,0.0228166,-0.0101581,-0.777361,0.0195,0.0483609,1847,1303,76.2981,-2.29777
630,-279,75.6875,1.71838,0,0,0,0,0,0,0,-1,1854,1303,75.6875,-1.71839
637,-279,73.1141,1.62744,0,0,0,0,0,0,0,-1,1861,1303,73.1142,-1.62742
644,-279,33.5021,3.40234,0,0,0,0,0,0,0,-1,1868,1303,33.5021,-3.40237
651,-279,29.8456,2.3562,0,0,0,0,0,0,0,-1,1875,1303,29.8455,-2.35615
658,-279,21.5076,7.65649,0,0,0,0,0,0,0,-1,1882,1303,21.5076,-7.65648
665,-279,18.9794,6.09607,0,0,0,0,0,0,0,-1,1889,1303,18.9793,-6.09601
672,-279,23.5206,8.32507,0,0,0,0,0,0,0,-1,1896,1303,23.5206,-8.32512
679,-279,51.8296,15.889,0,0,0,0,0,0,0,-1,1903,1303,51.8296,-15.889
686,-279,51.9724,15.1141,0.000202442,0.00197417,-0.00212486,0.00339043,-0.00121382,-0.982895,0.0027555,0.0346113,1910,1303,51.9724,-15.1141
693,-279,51.9874,14.3463,0.000428075,6.72322e-05,-0.000644313,0.000916751,-0.000421444,-0.648884,0.000790051,0.0176772,1917,1303,51.9875,-14.3464
700,-279,51.954,13.5801,0.000709046,-0.000364406,0.000107579,0.000719721,-0.000375081,0.0989076,0.000642439,0.0130639,1924,1303,51.9539,-13.5801
707,-279,51.9167,12.772,0.000285998,-0.000225781,0.000456052,0.000553045,-0.000492828,0.529736,0.000604169,0.0102141,1931,1303,51.9167,-12.7719
714,-279,51.886,12.0073,-0.000200329,-0.000116315,0.000822277,0.000665028,-0.000981672,0.810919,0.000956563,0.012058,1938,1303,51.886,-12.0073
721,-279,51.8813,11.2502,-0.00077152,-5.33401e-05,0.00119904,0.000839225,-0.00166408,0.930889,0.00147121,0.0173023,1945,1303,51.8813,-11.2503
728,-279,51.8553,10.4844,-0.00144415,-5.79048e-05,0.00161017,0.00100199,-0.00250404,0.988644,0.00208521,0.0192236,1952,1303,51.8554,-10.4844
735,-279,51.7782,9.75,-0.00227546,-0.00013711,0.00207856,0.00113114,-0.00354371,1.02294,0.00281629,0.0176999,1959,1303,51.7782,-9.75006
742,-279,51.6936,9.07361,-0.0033075,-0.000350896,0.00259229,0.00115499,-0.00481338,1.04453,0.00365525,0.0275138,1966,1303,51.6936,-9.07363
749,-279,51.6189,8.40686,0,0,0,0,0,0,0,-1,1973,1303,51.6189,-8.40692
756,-279,23.2091,4.43433,0,0,0,0,0,0,0,-1,1980,1303,23.2092,-4.43432
763,-279,27.1613,3.46265,0,0,0,0,0,0,0,-1,1987,1303,27.1613,-3.4627
770,-279,21.5828,3.54199,0,0,0,0,0,0,0,-1,1994,1303,21.5827,-3.54198
777,-279,32.5369,6.99609,0,0,0,0,0,0,0,-1,2001,1303,32.5369,-6.99608
784,-279,0,0,0,0,0,0,0,0,0,-1,2008,1303,0,0
791,-279,0,0,0,0,0,0,0,0,0,-1,2015,1303,0,0
798,-279,0,0,0,0,0,0,0,0,0,-1,2022,1303,0,0
805,-279,0,0,0,0,0,0,0,0,0,-1,2029,1303,0,0
812,-279,0,0,0,0,0,0,0,0,0,-1,2036,1303,0,0
-700,-286,0,0,0,0,0,0,0,0,0,-1,524,1310,0,0
-693,-286,0,0,0,0,0,0,0,0,0,-1,531,1310,0,0
-686,-286,0,0,0,0,0,0,0,0,0,-1,538,1310,0,0
-679,-286,0,0,0,0,0,0,0,0,0,-1,545,1310,0,0
-672,-286,0,0,0,0,0,0,0,0,0,-1,552,1310,0,0
-665,-286,0,0,0,0,0,0,0,0,0,-1,559,1310,0,0
-658,-286,-44.103,1.76782,0,0,0,0,0,0,0,-1,566,1310,-44.103,-1.76778
-651,-286,-43.6417,1.98254,0,0,0,0,0,0,0,-1,573,1310,-43.6416,-1.98254
-644,-286,-43.3175,1.59558,0,0,0,0,0,0,0,-1,580,1310,-43.3175,-1.59556
-637,-286,-42.8448,1.15039,0,0,0,0,0,0,0,-1,587,1310,-42.8448,-1.15043
-630,-286,-42.1176,0.443848,0,0,0,0,0,0,0,-1,594,1310,-42.1176,-0.443802
-623,-286,-41.3121,-0.468384,0,0,0,0,0,0,0,-1,601,1310,-41.3121,0.468376
-616,-286,-22.0634,2.37744,0,0,0,0,0,0,0,-1,608,1310,-22.0633,-2.37746
-609,-286,-34.543,7.77759,0,0,0,0,0,0,0,-1,615,1310,-34.543,-7.77754
-602,-286,-34.3938,8.78613,0.0032106,0.003819,0.00231199,0.00584672,0.00118288,0.850809,0.00356946,0.0230948,622,1310,-34.3938,-8.78614
-595,-286,-34.441,9.6897,0.0020972,0.00256354,0.00142885,0.00377812,0.000882618,0.866278,0.00228216,0.0136056,629,1310,-34.441,-9.68974
-588,-286,-34.4841,10.4659,0.00136485,0.00145475,0.0007924,0.00220347,0.000616122,0.813731,0.00131272,0.015272,636,1310,-34.4841,-10.466
-581,-286,-34.5057,11.2429,0.000939001,0.000430468,0.00037487,0.0011377,0.000231768,0.487399,0.000694229,0.0165216,643,1310,-34.5057,-11.2429
-574,-286,-34.566,12.041,0.000741897,-0.000540394,0.000113619,0.000751886,-0.000550384,0.0876961,0.00075486,0.0156952,650,1310,-34.566,-12.041
-567,-286,-34.6373,12.8387,0.000776788,-0.0014489,5.04359e-06,0.000776799,-0.00144891,0.00226607,0.0013044,0.0154288,657,1310,-34.6374,-12.8388
-560,-286,-34.65,13.6697,0.00118328,-0.00225748,0.000119913,0.00118746,-0.00226166,0.0347945,0.00202328,0.0150674,664,1310,-34.65,-13.6697
-553,-286,-34.6638,14.5042,0.00193421,-0.00304531,0.000429947,0.00197106,-0.00308216,0.0854999,0.00294089,0.0126476,671,1310,-34.6638,-14.5041
-546,-286,-34.6177,15.3695,0.00311042,-0.0035696,0.00111733,0.00329235,-0.00375154,0.161413,0.00406967,0.0292548,678,1310,-34.6177,-15.3695
-539,-286,-34.7238,16.3361,0,0,0,0,0,0,0,-1,685,1310,-34.7238,-16.3361
-532,-286,-21.6771,10.4924,0,0,0,0,0,0,0,-1,692,1310,-21.6771,-10.4924
-525,-286,-11.4528,-1.11768,0,0,0,0,0,0,0,-1,699,1310,-11.4528,1.11769
-518,-286,-11.0701,1.37329,0,0,0,0,0,0,0,-1,706,1310,-11.0701,-1.37332
-511,-286,-17.7545,-0.0791016,0,0,0,0,0,0,0,-1,713,1310,-17.7544,0.0791606
-504,-286,-18.0455,1.29602,0,0,0,0,0,0,0,-1,720,1310,-18.0455,-1.29601
-497,-286,-18.3367,2.67114,0,0,0,0,0,0,0,-1,727,1310,-18.3366,-2.67118
-490,-286,-19.5795,2.47266,0,0,0,0,0,0,0,-1,734,1310,-19.5795,-2.4727
-483,-286,-19.7277,2.74744,0,0,0,0,0,0,0,-1,741,1310,-19.7277,-2.74747
-476,-286,-20.0391,3.06177,0,0,0,0,0,0,0,-1,748,1310,-20.0391,-3.06178
-469,-286,0,0,0,0,0,0,0,0,0,-1,755,1310,0,0
-462,-286,0,0,0,0,0,0,0,0,0,-1,762,1310,0,0
-455,-286,0,0,0,0,0,0,0,0,0,-1,769,1310,0,0
-448,-286,0,0,0,0,0,0,0,0,0,-1,776,1310,0,0
-441,-286,0,0,0,0,0,0,0,0,0,-1,783,1310,0,0
-434,-286,0,0,0,0,0,0,0,0,0,-1,790,1310,0,0
-427,-286,0,0,0,0,0,0,0,0,0,-1,797,1310,0,0
-420,-286,0,0,0,0,0,0,0,0,0,-1,804,1310,0,0
-413,-286,0,0,0,0,0,0,0,0,0,-1,811,1310,0,0
-406,-286,0,0,0,0,0,0,0,0,0,-1,818,1310,0,0
-399,-286,0,0,0,0,0,0,0,0,0,-1,825,1310,0,0
-392,-286,0,0,0,0,0,0,0,0,0,-1,832,1310,0,0
-385,-286,0,0,0,0,0,0,0,0,0,-1,839,1310,0,0
-378,-286,0,0,0,0,0,0,0,0,0,-1,846,1310,0,0
-371,-286,0,0,0,0,0,0,0,0,0,-1,853,1310,0,0
-364,-286,0,0,0,0,0,0,0,0,0,-1,860,1310,0,0
-357,-286,0,0,0,0,0,0,0,0,0,-1,867,1310,0,0
-350,-286,0,0,0,0,0,0,0,0,0,-1,874,1310,0,0
-343,-286,0,0,0,0,0,0,0,0,0,-1,881,1310,0,0
-336,-286,0,0,0,0,0,0,0,0,0,-1,888,1310,0,0
-329,-286,0,0,0,0,0,0,0,0,0,-1,895,1310,0,0
-322,-286,0,0,0,0,0,0,0,0,0,-1,902,1310,0,0
-315,-286,0,0,0,0,0,0,0,0,0,-1,909,1310,0,0
-308,-286,0,0,0,0,0,0,0,0,0,-1,916,1310,0,0
-301,-286,0,0,0,0,0,0,0,0,0,-1,923,1310,0,0
-294,-286,0,0,0,0,0,0,0,0,0,-1,930,1310,0,0
-287,-286,0,0,0,0,0,0,0,0,0,-1,937,1310,0,0
-280,-286,0,0,0,0,0,0,0,0,0,-1,944,1310,0,0
-273,-286,0,0,0,0,0,0,0,0,0,-1,951,1310,0,0
-266,-286,0,0,0,0,0,0,0,0,0,-1,958,1310,0,0
-259,-286,0,0,0,0,0,0,0,0,0,-1,965,1310,0,0
-252,-286,0,0,0,0,0,0,0,0,0,-1,972,1310,0,0
-245,-286,0,0,0,0,0,0,0,0,0,-1,979,1310,0,0
-238,-286,0,0,0,0,0,0,0,0,0,-1,986,1310,0,0
-231,-286,0,0,0,0,0,0,0,0,0,-1,993,1310,0,0
-224,-286,0,0,0,0,0,0,0,0,0,-1,1000,1310,0,0
-217,-286,0,0,0,0,0,0,0,0,0,-1,1007,1310,0,0
-210,-286,0,0,0,0,0,0,0,0,0,-1,1014,1310,0,0
-203,-286,0,0,0,0,0,0,0,0,0,-1,1021,1310,0,0
-196,-286,0,0,0,0,0,0,0,0,0,-1,1028,1310,0,0
-189,-286,0,0,0,0,0,0,0,0,0,-1,1035,1310,0,0
-182,-286,0,0,0,0,0,0,0,0,0,-1,1042,1310,0,0
-175,-286,0,0,0,0,0,0,0,0,0,-1,1049,1310,0,0
-168,-286,0,0,0,0,0,0,0,0,0,-1,1056,1310,0,0
-161,-286,0,0,0,0,0,0,0,0,0,-1,1063,1310,0,0
-154,-286,0,0,0,0,0,0,0,0,0,-1,1070,1310,0,0
-147,-286,0,0,0,0,0,0,0,0,0,-1,1077,1310,0,0
-140,-286,0,0,0,0,0,0,0,0,0,-1,1084,1310,0,0
-133,-286,0,0,0,0,0,0,0,0,0,-1,1091,1310,0,0
-126,-286,0,0,0,0,0,0,0,0,0,-1,1098,1310,0,0
-119,-286,0,0,0,0,0,0,0,0,0,-1,1105,1310,0,0
-112,-286,0,0,0,0,0,0,0,0,0,-1,1112,1310,0,0
-105,-286,0,0,0,0,0,0,0,0,0,-1,1119,1310,0,0
-98,-286,0,0,0,0,0,0,0,0,0,-1,1126,1310,0,0
-91,-286,0,0,0,0,0,0,0,0,0,-1,1133,1310,0,0
-84,-286,0,0,0,0,0,0,0,0,0,-1,1140,1310,0,0
-77,-286,0,0,0,0,0,0,0,0,0,-1,1147,1310,0,0
-70,-286,0,0,0,0,0,0,0,0,0,-1,1154,1310,0,0
-63,-286,0,0,0,0,0,0,0,0,0,-1,1161,1310,0,0
-56,-286,0,0,0,0,0,0,0,0,0,-1,1168,1310,0,0
-49,-286,0,0,0,0,0,0,0,0,0,-1,1175,1310,0,0
-42,-286,0,0,0,0,0,0,0,0,0,-1,1182,1310,0,0
-35,-286,0,0,0,0,0,0,0,0,0,-1,1189,1310,0,0
-28,-286,0,0,0,0,0,0,0,0,0,-1,1196,1310,0,0
-21,-286,0,0,0,0,0,0,0,0,0,-1,1203,1310,0,0
-14,-286,0,0,0,0,0,0,0,0,0,-1,1210,1310,0,0
-7,-286,0,0,0,0,0,0,0,0,0,-1,1217,1310,0,0
0,-286,0,0,0,0,0,0,0,0,0,-1,1224,1310,0,0
7,-286,0,0,0,0,0,0,0,0,0,-1,1231,1310,0,0
14,-286,0,0,0,0,0,0,0,0,0,-1,1238,1310,0,0
21,-286,0,0,0,0,0,0,0,0,0,-1,1245,1310,0,0
28,-286,0,0,0,0,0,0,0,0,0,-1,1252,1310,0,0
35,-286,0,0,0,0,0,0,0,0,0,-1,1259,1310,0,0
42,-286,0,0,0,0,0,0,0,0,0,-1,1266,1310,0,0
49,-286,0,0,0,0,0,0,0,0,0,-1,1273,1310,0,0
56,-286,0,0,0,0,0,0,0,0,0,-1,1280,1310,0,0
63,-286,0,0,0,0,0,0,0,0,0,-1,1287,1310,0,0
70,-286,0,0,0,0,0,0,0,0,0,-1,1294,1310,0,0
77,-286,0,0,0,0,0,0,0,0,0,-1,1301,1310,0,0
84,-286,0,0,0,0,0,0,0,0,0,-1,1308,1310,0,0
91,-286,0,0,0,0,0,0,0,0,0,-1,1315,1310,0,0
98,-286,0,0,0,0,0,0,0,0,0,-1,1322,1310,0,0
105,-286,0,0,0,0,0,0,0,0,0,-1,1329,1310,0,0
112,-286,0,0,0,0,0,0,0,0,0,-1,1336,1310,0,0
119,-286,0,0,0,0,0,0,0,0,0,-1,1343,1310,0,0
126,-286,0,0,0,0,0,0,0,0,0,-1,1350,1310,0,0
133,-286,0,0,0,0,0,0,0,0,0,-1,1357,1310,0,0
140,-286,0,0,0,0,0,0,0,0,0,-1,1364,1310,0,0
147,-286,0,0,0,0,0,0,0,0,0,-1,1371,1310,0,0
154,-286,0,0,0,0,0,0,0,0,0,-1,1378,1310,0,0
161,-286,0,0,0,0,0,0,0,0,0,-1,1385,1310,0,0
168,-286,0,0,0,0,0,0,0,0,0,-1,1392,1310,0,0
175,-286,0,0,0,0,0,0,0,0,0,-1,1399,1310,0,0
182,-286,0,0,0,0,0,0,0,0,0,-1,1406,1310,0,0
189,-286,0,0,0,0,0,0,0,0,0,-1,1413,1310,0,0
196,-286,0,0,0,0,0,0,0,0,0,-1,1420,1310,0,0
203,-286,0,0,0,0,0,0,0,0,0,-1,1427,1310,0,0
210,-286,0,0,0,0,0,0,0,0,0,-1,1434,1310,0,0
217,-286,0,0,0,0,0,0,0,0,0,-1,1441,1310,0,0
224,-286,0,0,0,0,0,0,0,0,0,-1,1448,1310,0,0
231,-286,0,0,0,0,0,0,0,0,0,-1,1455,1310,0,0
238,-286,0,0,0,0,0,0,0,0,0,-1,1462,1310,0,0
245,-286,0,0,0,0,0,0,0,0,0,-1,1469,1310,0,0
252,-286,0,0,0,0,0,0,0,0,0,-1,1476,1310,0,0
259,-286,0,0,0,0,0,0,0,0,0,-1,1483,1310,0,0
266,-286,0,0,0,0,0,0,0,0,0,-1,1490,1310,0,0
273,-286,0,0,0,0,0,0,0,0,0,-1,1497,1310,0,0
280,-286,0,0,0,0,0,0,0,0,0,-1,1504,1310,0,0
287,-286,0,0,0,0,0,0,0,0,0,-1,1511,1310,0,0
294,-286,0,0,0,0,0,0,0,0,0,-1,1518,1310,0,0
301,-286,0,0,0,0,0,0,0,0,0,-1,1525,1310,0,0
308,-286,0,0,0,0,0,0,0,0,0,-1,1532,1310,0,0
315,-286,0,0,0,0,0,0,0,0,0,-1,1539,1310,0,0
322,-286,0,0,0,0,0,0,0,0,0,-1,1546,1310,0,0
329,-286,0,0,0,0,0,0,0,0,0,-1,1553,1310,0,0
336,-286,0,0,0,0,0,0,0,0,0,-1,1560,1310,0,0
343,-286,0,0,0,0,0,0,0,0,0,-1,1567,1310,0,0
350,-286,0,0,0,0,0,0,0,0,0,-1,1574,1310,0,0
357,-286,0,0,0,0,0,0,0,0,0,-1,1581,1310,0,0
364,-286,0,0,0,0,0,0,0,0,0,-1,1588,1310,0,0
371,-286,0,0,0,0,0,0,0,0,0,-1,1595,1310,0,0
378,-286,0,0,0,0,0,0,0,0,0,-1,1602,1310,0,0
385,-286,0,0,0,0,0,0,0,0,0,-1,1609,1310,0,0
392,-286,0,0,0,0,0,0,0,0,0,-1,1616,1310,0,0
399,-286,0,0,0,0,0,0,0,0,0,-1,1623,1310,0,0
406,-286,0,0,0,0,0,0,0,0,0,-1,1630,1310,0,0
413,-286,0,0,0,0,0,0,0,0,0,-1,1637,1310,0,0
420,-286,0,0,0,0,0,0,0,0,0,-1,1644,1310,0,0
427,-286,0,0,0,0,0,0,0,0,0,-1,1651,1310,0,0
434,-286,0,0,0,0,0,0,0,0,0,-1,1658,1310,0,0
441,-286,0,0,0,0,0,0,0,0,0,-1,1665,1310,0,0
448,-286,0,0,0,0,0,0,0,0,0,-1,1672,1310,0,0
455,-286,0,0,0,0,0,0,0,0,0,-1,1679,1310,0,0
462,-286,0,0,0,0,0,0,0,0,0,-1,1686,1310,0,0
469,-286,0,0,0,0,0,0,0,0,0,-1,1693,1310,0,0
476,-286,0,0,0,0,0,0,0,0,0,-1,1700,1310,0,0
483,-286,0,0,0,0,0,0,0,0,0,-1,1707,1310,0,0
490,-286,0,0,0,0,0,0,0,0,0,-1,1714,1310,0,0
497,-286,0,0,0,0,0,0,0,0,0,-1,1721,1310,0,0
504,-286,0,0,0,0,0,0,0,0,0,-1,1728,1310,0,0
511,-286,0,0,0,0,0,0,0,0,0,-1,1735,1310,0,0
518,-286,0,0,0,0,0,0,0,0,0,-1,1742,1310,0,0
525,-286,0,0,0,0,0,0,0,0,0,-1,1749,1310,0,0
532,-286,0,0,0,0,0,0,0,0,0,-1,1756,1310,0,0
539,-286,0,0,0,0,0,0,0,0,0,-1,1763,1310,0,0
546,-286,0,0,0,0,0,0,0,0,0,-1,1770,1310,0,0
553,-286,0,0,0,0,0,0,0,0,0,-1,1777,1310,0,0
560,-286,0,0,0,0,0,0,0,0,0,-1,1784,1310,0,0
567,-286,0,0,0,0,0,0,0,0,0,-1,1791,1310,0,0
574,-286,0,0,0,0,0,0,0,0,0,-1,1798,1310,0,0
581,-286,0,0,0,0,0,0,0,0,0,-1,1805,1310,0,0
588,-286,0,0,0,0,0,0,0,0,0,-1,1812,1310,0,0
595,-286,69.8951,2.40527,0,0,0,0,0,0,0,-1,1819,1310,69.8951,-2.40522
602,-286,75.5774,2.11121,0,0,0,0,0,0,0,-1,1826,1310,75.5773,-2.1112
609,-286,76.1323,2.34692,0,0,0,0,0,0,0,-1,1833,1310,76.1324,-2.34691
616,-286,76.4187,2.26978,0,0,0,0,0,0,0,-1,1840,1310,76.4187,-2.26979
623,-286,76.7555,2.19727,0,0,0,0,0,0,0,-1,1847,1310,76.7555,-2.19724
630,-286,73.3732,1.46594,0,0,0,0,0,0,0,-1,1854,1310,73.3731,-1.46595
637,-286,47.8409,3.69824,0,0,0,0,0,0,0,-1,1861,1310,47.841,-3.69823
644,-286,25.6433,1.33862,0,0,0,0,0,0,0,-1,1868,1310,25.6433,-1.33858
651,-286,25.2507,1.88245,0,0,0,0,0,0,0,-1,1875,1310,25.2508,-1.88245
658,-286,25.9475,9.43689,0,0,0,0,0,0,0,-1,1882,1310,25.9475,-9.43693
665,-286,24.9838,8.03101,0,0,0,0,0,0,0,-1,1889,1310,24.9837,-8.03104
672,-286,40.2175,12.9626,0,0,0,0,0,0,0,-1,1896,1310,40.2175,-12.9627
679,-286,51.3104,15.9647,0,0,0,0,0,0,0,-1,1903,1310,51.3104,-15.9648
686,-286,51.2686,15.1785,0.000859131,0.00150593,-0.00189965,0.00310951,-0.000744452,-0.86971,0.00236062,0.0239277,1910,1310,51.2685,-15.1785
693,-286,51.2069,14.3981,0.00092675,0.000110685,-0.000666318,0.00130004,-0.000262608,-0.510666,0.000966202,0.0167729,1917,1310,51.2069,-14.3981
700,-286,51.1713,13.6017,0.0009911,-9.63385e-05,-4.46517e-05,0.00099293,-9.81688e-05,-0.0409695,0.000696985,0.0124827,1924,1310,51.1712,-13.6017
707,-286,51.1293,12.8293,0.000601021,-6.78926e-06,0.000312346,0.000732912,-0.00013868,0.399547,0.000540795,0.00952485,1931,1310,51.1292,-12.8294
714,-286,51.1025,12.0734,0.000152771,5.30738e-05,0.000679347,0.000784096,-0.000578251,0.748775,0.000789539,0.0100889,1938,1310,51.1025,-12.0734
721,-286,51.1016,11.318,-0.000370781,6.92339e-05,0.00105203,0.000924018,-0.00122557,0.888476,0.00124513,0.0134552,1945,1310,51.1016,-11.318
728,-286,51.0696,10.5471,-0.00100008,1.94319e-05,0.00145156,0.00104814,-0.00202879,0.954261,0.00180629,0.0167476,1952,1310,51.0695,-10.5471
735,-286,51.0537,9.76184,-0.00181389,-0.00011574,0.00190329,0.00111928,-0.00304891,0.995204,0.00249098,0.0208451,1959,1310,51.0537,-9.76188
742,-286,51.0515,9.06982,-0.0028638,-0.000414335,0.00237039,0.00102903,-0.00430717,1.02385,0.00326889,0.0371862,1966,1310,51.0515,-9.06985
749,-286,51.1958,8.36462,0,0,0,0,0,0,0,-1,1973,1310,51.1958,-8.36461
756,-286,24.8226,4.43481,0,0,0,0,0,0,0,-1,1980,1310,24.8227,-4.43479
763,-286,20.6671,3.99683,0,0,0,0,0,0,0,-1,1987,1310,20.6671,-3.99683
770,-286,23.9147,4.45679,0,0,0,0,0,0,0,-1,1994,1310,23.9146,-4.45675
777,-286,0,0,0,0,0,0,0,0,0,-1,2001,1310,0,0
784,-286,0,0,0,0,0,0,0,0,0,-1,2008,1310,0,0
791,-286,0,0,0,0,0,0,0,0,0,-1,2015,1310,0,0
798,-286,0,0,0,0,0,0,0,0,0,-1,2022,1310,0,0
805,-286,0,0,0,0,0,0,0,0,0,-1,2029,1310,0,0
812,-286,0,0,0,0,0,0,0,0,0,-1,2036,1310,0,0
-700,-293,0,0,0,0,0,0,0,0,0,-1,524,1317,0,0
-693,-293,0,0,0,0,0,0,0,0,0,-1,531,1317,0,0
-686,-293,0,0,0,0,0,0,0,0,0,-1,538,1317,0,0
-679,-293,0,0,0,0,0,0,0,0,0,-1,545,1317,0,0
-672,-293,0,0,0,0,0,0,0,0,0,-1,552,1317,0,0
-665,-293,0,0,0,0,0,0,0,0,0,-1,559,1317,0,0
-658,-293,0,0,0,0,0,0,0,0,0,-1,566,1317,0,0
-651,-293,-42.6636,2.1897,0,0,0,0,0,0,0,-1,573,1317,-42.6636,-2.18965
-644,-293,-42.6672,1.56262,0,0,0,0,0,0,0,-1,580,1317,-42.6672,-1.5626
-637,-293,-42.7898,0.963745,0,0,0,0,0,0,0,-1,587,1317,-42.7898,-0.963689
-630,-293,-42.7558,0.296021,0,0,0,0,0,0,0,-1,594,1317,-42.7558,-0.295997
-623,-293,-15.6058,0.229614,0,0,0,0,0,0,0,-1,601,1317,-15.6058,-0.229666
-616,-293,-15.5056,2.17737,0,0,0,0,0,0,0,-1,608,1317,-15.5055,-2.17742
-609,-293,-25.3796,5.07373,0,0,0,0,0,0,0,-1,615,1317,-25.3796,-5.07369
-602,-293,-33.6856,8.7312,0,0,0,0,0,0,0,-1,622,1317,-33.6856,-8.73122
-595,-293,-33.6658,9.70032,0.00269105,0.0029712,0.00155706,0.00439447,0.00126778,0.830259,0.00261172,0.0227836,629,1317,-33.6658,-9.70032
-588,-293,-33.6943,10.4867,0.00186931,0.00185886,0.000945313,0.00280941,0.000918759,0.782633,0.00165405,0.0177773,636,1317,-33.6943,-10.4866
-581,-293,-33.7253,11.266,0.00142465,0.00091787,0.000596073,0.00181896,0.000523565,0.58442,0.00108123,0.0196333,643,1317,-33.7253,-11.266
-574,-293,-33.7571,12.1002,0.00125049,6.55065e-05,0.000420876,0.00138476,-6.87635e-05,0.308819,0.000946929,0.0169555,650,1317,-33.7571,-12.1002
-567,-293,-33.8166,12.9236,0.00132123,-0.000692111,0.000399457,0.00139759,-0.000768469,0.188877,0.00126803,0.016055,657,1317,-33.8166,-12.9236
-560,-293,-33.8497,13.7543,0.00174841,-0.0013804,0.000575988,0.00185108,-0.00148307,0.176391,0.00192887,0.0167673,664,1317,-33.8497,-13.7543
-553,-293,-33.8693,14.5461,0.00252655,-0.00196604,0.000951607,0.0027198,-0.00215929,0.200357,0.00282313,0.0119846,671,1317,-33.8694,-14.5461
-546,-293,-33.8605,15.3823,0.00370054,-0.00237683,0.00162921,0.00410974,-0.00278603,0.246076,0.00400566,0.0212232,678,1317,-33.8605,-15.3824
-539,-293,-33.5818,16.457,0,0,0,0,0,0,0,-1,685,1317,-33.5818,-16.457
-532,-293,-27.4858,13.6715,0,0,0,0,0,0,0,-1,692,1317,-27.4858,-13.6715
-525,-293,-8.20642,3.62256,0,0,0,0,0,0,0,-1,699,1317,-8.20639,-3.6226
-518,-293,-10.1053,0.314209,0,0,0,0,0,0,0,-1,706,1317,-10.1053,-0.314234
-511,-293,-11.6276,0.235352,0,0,0,0,0,0,0,-1,713,1317,-11.6276,-0.235372
-504,-293,-17.9086,1.25427,0,0,0,0,0,0,0,-1,720,1317,-17.9086,-1.25423
-497,-293,-18.8006,1.62122,0,0,0,0,0,0,0,-1,727,1317,-18.8006,-1.62119
-490,-293,-18.8961,1.99255,0,0,0,0,0,0,0,-1,734,1317,-18.8961,-1.99251
-483,-293,-19.0831,2.35498,0,0,0,0,0,0,0,-1,741,1317,-19.0831,-2.35497
-476,-293,-19.5228,2.61243,0,0,0,0,0,0,0,-1,748,1317,-19.5228,-2.61237
-469,-293,0,0,0,0,0,0,0,0,0,-1,755,1317,0,0
-462,-293,0,0,0,0,0,0,0,0,0,-1,762,1317,0,0
-455,-293,0,0,0,0,0,0,0,0,0,-1,769,1317,0,0
-448,-293,0,0,0,0,0,0,0,0,0,-1,776,1317,0,0
-441,-293,0,0,0,0,0,0,0,0,0,-1,783,1317,0,0
-434,-293,0,0,0,0,0,0,0,0,0,-1,790,1317,0,0
-427,-293,0,0,0,0,0,0,0,0,0,-1,797,1317,0,0
-420,-293,0,0,0,0,0,0,0,0,0,-1,804,1317,0,0
-413,-293,0,0,0,0,0,0,0,0,0,-1,811,1317,0,0
-406,-293,0,0,0,0,0,0,0,0,0,-1,818,1317,0,0
-399,-293,0,0,0,0,0,0,0,0,0,-1,825,1317,0,0
-392,-293,0,0,0,0,0,0,0,0,0,-1,832,1317,0,0
-385,-293,0,0,0,0,0,0,0,0,0,-1,839,1317,0,0
-378,-293,0,0,0,0,0,0,0,0,0,-1,846,1317,0,0
-371,-293,0,0,0,0,0,0,0,0,0,-1,853,1317,0,0
-364,-293,0,0,0,0,0,0,0,0,0,-1,860,1317,0,0
-357,-293,0,0,0,0,0,0,0,0,0,-1,867,1317,0,0
-350,-293,0,0,0,0,0,0,0,0,0,-1,874,1317,0,0
-343,-293,0,0,0,0,0,0,0,0,0,-1,881,1317,0,0
-336,-293,0,0,0,0,0,0,0,0,0,-1,888,1317,0,0
-329,-293,0,0,0,0,0,0,0,0,0,-1,895,1317,0,0
-322,-293,0,0,0,0,0,0,0,0,0,-1,902,1317,0,0
-315,-293,0,0,0,0,0,0,0,0,0,-1,909,1317,0,0
-308,-293,0,0,0,0,0,0,0,0,0,-1,916,1317,0,0
-301,-293,0,0,0,0,0,0,0,0,0,-1,923,1317,0,0
-294,-293,0,0,0,0,0,0,0,0,0,-1,930,1317,0,0
-287,-293,0,0,0,0,0,0,0,0,0,-1,937,1317,0,0
-280,-293,0,0,0,0,0,0,0,0,0,-1,944,1317,0,0
-273,-293,0,0,0,0,0,0,0,0,0,-1,951,1317,0,0
-266,-293,0,0,0,0,0,0,0,0,0,-1,958,1317,0,0
-259,-293,0,0,0,0,0,0,0,0,0,-1,965,1317,0,0
-252,-293,0,0,0,0,0,0,0,0,0,-1,972,1317,0,0
-245,-293,0,0,0,0,0,0,0,0,0,-1,979,1317,0,0
-238,-293,0,0,0,0,0,0,0,0,0,-1,986,1317,0,0
-231,-293,0,0,0,0,0,0,0,0,0,-1,993,1317,0,0
-224,-293,0,0,0,0,0,0,0,0,0,-1,1000,1317,0,0
-217,-293,0,0,0,0,0,0,0,0,0,-1,1007,1317,0,0
-210,-293,0,0,0,0,0,0,0,0,0,-1,1014,1317,0,0
-203,-293,0,0,0,0,0,0,0,0,0,-1,1021,1317,0,0
-196,-293,0,0,0,0,0,0,0,0,0,-1,1028,1317,0,0
-189,-293,0,0,0,0,0,0,0,0,0,-1,1035,1317,0,0
-182,-293,0,0,0,0,0,0,0,0,0,-1,1042,1317,0,0
-175,-293,0,0,0,0,0,0,0,0,0,-1,1049,1317,0,0
-168,-293,0,0,0,0,0,0,0,0,0,-1,1056,1317,0,0
-161,-293,0,0,0,0,0,0,0,0,0,-1,1063,1317,0,0
-154,-293,0,0,0,0,0,0,0,0,0,-1,1070,1317,0,0
-147,-293,0,0,0,0,0,0,0,0,0,-1,1077,1317,0,0
-140,-293,0,0,0,0,0,0,0,0,0,-1,1084,1317,0,0
-133,-293,0,0,0,0,0,0,0,0,0,-1,1091,1317,0,0
-126,-293,0,0,0,0,0,0,0,0,0,-1,1098,1317,0,0
-119,-293,0,0,0,0,0,0,0,0,0,-1,1105,1317,0,0
-112,-293,0,0,0,0,0,0,0,0,0,-1,1112,1317,0,0
-105,-293,0,0,0,0,0,0,0,0,0,-1,1119,1317,0,0
-98,-293,0,0,0,0,0,0,0,0,0,-1,1126,1317,0,0
-91,-293,0,0,0,0,0,0,0,0,0,-1,1133,1317,0,0
-84,-293,0,0,0,0,0,0,0,0,0,-1,1140,1317,0,0
-77,-293,0,0,0,0,0,0,0,0,0,-1,1147,1317,0,0
-70,-293,0,0,0,0,0,0,0,0,0,-1,1154,1317,0,0
-63,-293,0,0,0,0,0,0,0,0,0,-1,1161,1317,0,0
-56,-293,0,0,0,0,0,0,0,0,0,-1,1168,1317,0,0
-49,-293,0,0,0,0,0,0,0,0,0,-1,1175,1317,0,0
-42,-293,0,0,0,0,0,0,0,0,0,-1,1182,1317,0,0
-35,-293,0,0,0,0,0,0,0,0,0,-1,1189,1317,0,0
-28,-293,0,0,0,0,0,0,0,0,0,-1,1196,1317,0,0
-21,-293,0,0,0,0,0,0,0,0,0,-1,1203,1317,0,0
-14,-293,0,0,0,0,0,0,0,0,0,-1,1210,1317,0,0
-7,-293,0,0,0,0,0,0,0,0,0,-1,1217,1317,0,0
0,-293,0,0,0,0,0,0,0,0,0,-1,1224,1317,0,0
7,-293,0,0,0,0,0,0,0,0,0,-1,1231,1317,0,0
14,-293,0,0,0,0,0,0,0,0,0,-1,1238,1317,0,0
21,-293,0,0,0,0,0,0,0,0,0,-1,1245,1317,0,0
28,-293,0,0,0,0,0,0,0,0,0,-1,1252,1317,0,0
35,-293,0,0,0,0,0,0,0,0,0,-1,1259,1317,0,0
42,-293,0,0,0,0,0,0,0,0,0,-1,1266,1317,0,0
49,-293,0,0,0,0,0,0,0,0,0,-1,1273,1317,0,0
56,-293,0,0,0,0,0,0,0,0,0,-1,1280,1317,0,0
63,-293,0,0,0,0,0,0,0,0,0,-1,1287,1317,0,0
70,-293,0,0,0,0,0,0,0,0,0,-1,1294,1317,0,0
77,-293,0,0,0,0,0,0,0,0,0,-1,1301,1317,0,0
84,-293,0,0,0,0,0,0,0,0,0,-1,1308,1317,0,0
91,-293,0,0,0,0,0,0,0,0,0,-1,1315,1317,0,0
98,-293,0,0,0,0,0,0,0,0,0,-1,1322,1317,0,0
105,-293,0,0,0,0,0,0,0,0,0,-1,1329,1317,0,0
112,-293,0,0,0,0,0,0,0,0,0,-1,1336,1317,0,0
119,-293,0,0,0,0,0,0,0,0,0,-1,1343,1317,0,0
126,-293,0,0,0,0,0,0,0,0,0,-1,1350,1317,0,0
133,-293,0,0,0,0,0,0,0,0,0,-1,1357,1317,0,0
140,-293,0,0,0,0,0,0,0,0,0,-1,1364,1317,0,0
147,-293,0,0,0,0,0,0,0,0,0,-1,1371,1317,0,0
154,-293,0,0,0,0,0,0,0,0,0,-1,1378,1317,0,0
161,-293,0,0,0,0,0,0,0,0,0,-1,1385,1317,0,0
168,-293,0,0,0,0,0,0,0,0,0,-1,1392,1317,0,0
175,-293,0,0,0,0,0,0,0,0,0,-1,1399,1317,0,0
182,-293,0,0,0,0,0,0,0,0,0,-1,1406,1317,0,0
189,-293,0,0,0,0,0,0,0,0,0,-1,1413,1317,0,0
196,-293,0,0,0,0,0,0,0,0,0,-1,1420,1317,0,0
203,-293,0,0,0,0,0,0,0,0,0,-1,1427,1317,0,0
210,-293,0,0,0,0,0,0,0,0,0,-1,1434,1317,0,0
217,-293,0,0,0,0,0,0,0,0,0,-1,1441,1317,0,0
224,-293,0,0,0,0,0,0,0,0,0,-1,1448,1317,0,0
231,-293,0,0,0,0,0,0,0,0,0,-1,1455,1317,0,0
238,-293,0,0,0,0,0,0,0,0,0,-1,1462,1317,0,0
245,-293,0,0,0,0,0,0,0,0,0,-1,1469,1317,0,0
252,-293,0,0,0,0,0,0,0,0,0,-1,1476,1317,0,0
259,-293,0,0,0,0,0,0,0,0,0,-1,1483,1317,0,0
266,-293,0,0,0,0,0,0,0,0,0,-1,1490,1317,0,0
273,-293,0,0,0,0,0,0,0,0,0,-1,1497,1317,0,0
280,-293,0,0,0,0,0,0,0,0,0,-1,1504,1317,0,0
287,-293,0,0,0,0,0,0,0,0,0,-1,1511,1317,0,0
294,-293,0,0,0,0,0,0,0,0,0,-1,1518,1317,0,0
301,-293,0,0,0,0,0,0,0,0,0,-1,1525,1317,0,0
308,-293,0,0,0,0,0,0,0,0,0,-1,1532,1317,0,0
315,-293,0,0,0,0,0,0,0,0,0,-1,1539,1317,0,0
322,-293,0,0,0,0,0,0,0,0,0,-1,1546,1317,0,0
329,-293,0,0,0,0,0,0,0,0,0,-1,1553,1317,0,0
336,-293,0,0,0,0,0,0,0,0,0,-1,1560,1317,0,0
343,-293,0,0,0,0,0,0,0,0,0,-1,1567,1317,0,0
350,-293,0,0,0,0,0,0,0,0,0,-1,1574,1317,0,0
357,-293,0,0,0,0,0,0,0,0,0,-1,1581,1317,0,0
364,-293,0,0,0,0,0,0,0,0,0,-1,1588,1317,0,0
371,-293,0,0,0,0,0,0,0,0,0,-1,1595,1317,0,0
378,-293,0,0,0,0,0,0,0,0,0,-1,1602,1317,0,0
385,-293,0,0,0,0,0,0,0,0,0,-1,1609,1317,0,0
392,-293,0,0,0,0,0,0,0,0,0,-1,1616,1317,0,0
399,-293,0,0,0,0,0,0,0,0,0,-1,1623,1317,0,0
406,-293,0,0,0,0,0,0,0,0,0,-1,1630,1317,0,0
413,-293,0,0,0,0,0,0,0,0,0,-1,1637,1317,0,0
420,-293,0,0,0,0,0,0,0,0,0,-1,1644,1317,0,0
427,-293,0,0,0,0,0,0,0,0,0,-1,1651,1317,0,0
434,-293,0,0,0,0,0,0,0,0,0,-1,1658,1317,0,0
441,-293,0,0,0,0,0,0,0,0,0,-1,1665,1317,0,0
448,-293,0,0,0,0,0,0,0,0,0,-1,1672,1317,0,0
455,-293,0,0,0,0,0,0,0,0,0,-1,1679,1317,0,0
462,-293,0,0,0,0,0,0,0,0,0,-1,1686,1317,0,0
469,-293,0,0,0,0,0,0,0,0,0,-1,1693,1317,0,0
476,-293,0,0,0,0,0,0,0,0,0,-1,1700,1317,0,0
483,-293,0,0,0,0,0,0,0,0,0,-1,1707,1317,0,0
490,-293,0,0,0,0,0,0,0,0,0,-1,1714,1317,0,0
497,-293,0,0,0,0,0,0,0,0,0,-1,1721,1317,0,0
504,-293,0,0,0,0,0,0,0,0,0,-1,1728,1317,0,0
511,-293,0,0,0,0,0,0,0,0,0,-1,1735,1317,0,0
518,-293,0,0,0,0,0,0,0,0,0,-1,1742,1317,0,0
525,-293,0,0,0,0,0,0,0,0,0,-1,1749,1317,0,0
532,-293,0,0,0,0,0,0,0,0,0,-1,1756,1317,0,0
539,-293,0,0,0,0,0,0,0,0,0,-1,1763,1317,0,0
546,-293,0,0,0,0,0,0,0,0,0,-1,1770,1317,0,0
553,-293,0,0,0,0,0,0,0,0,0,-1,1777,1317,0,0
560,-293,0,0,0,0,0,0,0,0,0,-1,1784,1317,0,0
567,-293,0,0,0,0,0,0,0,0,0,-1,1791,1317,0,0
574,-293,0,0,0,0,0,0,0,0,0,-1,1798,1317,0,0
581,-293,0,0,0,0,0,0,0,0,0,-1,1805,1317,0,0
588,-293,0,0,0,0,0,0,0,0,0,-1,1812,1317,0,0
595,-293,70.0999,2.25085,0,0,0,0,0,0,0,-1,1819,1317,70.0998,-2.25088
602,-293,70.2273,2.05859,0,0,0,0,0,0,0,-1,1826,1317,70.2273,-2.05859
609,-293,76.5005,2.45483,0,0,0,0,0,0,0,-1,1833,1317,76.5005,-2.45489
616,-293,76.6262,2.19019,0,0,0,0,0,0,0,-1,1840,1317,76.6262,-2.19023
623,-293,64.6224,0.448364,0,0,0,0,0,0,0,-1,1847,1317,64.6224,-0.448318
630,-293,46.6716,3.21558,0,0,0,0,0,0,0,-1,1854,1317,46.6716,-3.2156
637,-293,42.7729,4.95544,0,0,0,0,0,0,0,-1,1861,1317,42.773,-4.95546
644,-293,24.4565,0.520752,0,0,0,0,0,0,0,-1,1868,1317,24.4566,-0.520709
651,-293,25.8926,9.51245,0,0,0,0,0,0,0,-1,1875,1317,25.8926,-9.51246
658,-293,25.4904,9.10205,0,0,0,0,0,0,0,-1,1882,1317,25.4904,-9.10209
665,-293,39.7999,13.4221,0,0,0,0,0,0,0,-1,1889,1317,39.8,-13.4221
672,-293,50.574,16.8981,0,0,0,0,0,0,0,-1,1896,1317,50.5739,-16.8981
679,-293,50.5568,15.9865,0.00132955,0.00279388,-0.00323223,0.00537584,-0.0012524,-0.896779,0.00406617,0.0222298,1903,1317,50.5568,-15.9864
686,-293,50.5201,15.213,0.00143683,0.000998092,-0.00159566,0.00282813,-0.000393214,-0.717088,0.00202923,0.0171536,1910,1317,50.5202,-15.213
693,-293,50.4716,14.4186,0.00128699,9.72861e-05,-0.000623907,0.00155418,-0.000169899,-0.404616,0.00109715,0.0127032,1917,1317,50.4715,-14.4186
700,-293,50.4176,13.6279,0.0011663,3.72228e-05,-0.000114227,0.00117774,2.57826e-05,-0.0998209,0.000776706,0.0116996,1924,1317,50.4176,-13.6279
707,-293,50.3706,12.8727,0.000808868,9.1988e-05,0.000234417,0.000878716,2.21398e-05,0.289589,0.000578572,0.0125492,1931,1317,50.3706,-12.8727
714,-293,50.3352,12.1162,0.000420311,0.000124068,0.000581565,0.000872321,-0.000327942,0.660702,0.000716336,0.00869389,1938,1317,50.3352,-12.1163
721,-293,50.3212,11.3459,-1.74167e-05,0.000121943,0.000926117,0.000980998,-0.000876472,0.822947,0.00107298,0.0100418,1945,1317,50.3212,-11.346
728,-293,50.3092,10.5587,-0.000542935,7.32348e-05,0.00127957,0.00108129,-0.00155099,0.903536,0.00152779,0.0132698,1952,1317,50.3091,-10.5587
735,-293,50.2839,9.74268,-0.00125761,-5.68294e-05,0.00166477,0.0011125,-0.00242694,0.958462,0.00208994,0.0255427,1959,1317,50.2839,-9.74271
742,-293,50.3269,8.90625,0,0,0,0,0,0,0,-1,1966,1317,50.3269,-8.9063
749,-293,29.439,5.35339,0,0,0,0,0,0,0,-1,1973,1317,29.4389,-5.35334
756,-293,24.978,3.9718,0,0,0,0,0,0,0,-1,1980,1317,24.978,-3.97186
763,-293,26.6713,4.74097,0,0,0,0,0,0,0,-1,1987,1317,26.6713,-4.74098
770,-293,24.1349,4.69153,0,0,0,0,0,0,0,-1,1994,1317,24.1348,-4.69159
777,-293,0,0,0,0,0,0,0,0,0,-1,2001,1317,0,0
784,-293,0,0,0,0,0,0,0,0,0,-1,2008,1317,0,0
791,-293,0,0,0,0,0,0,0,0,0,-1,2015,1317,0,0
798,-293,0,0,0,0,0,0,0,0,0,-1,2022,1317,0,0
805,-293,0,0,0,0,0,0,0,0,0,-1,2029,1317,0,0
812,-293,0,0,0,0,0,0,0,0,0,-1,2036,1317,0,0
-700,-300,0,0,0,0,0,0,0,0,0,-1,524,1324,0,0
-693,-300,0,0,0,0,0,0,0,0,0,-1,531,1324,0,0
-686,-300,0,0,0,0,0,0,0,0,0,-1,538,1324,0,0
-679,-300,0,0,0,0,0,0,0,0,0,-1,545,1324,0,0
-672,-300,0,0,0,0,0,0,0,0,0,-1,552,1324,0,0
-665,-300,0,0,0,0,0,0,0,0,0,-1,559,1324,0,0
-658,-300,0,0,0,0,0,0,0,0,0,-1,566,1324,0,0
-651,-300,-41.7632,2.33789,0,0,0,0,0,0,0,-1,573,1324,-41.7632,-2.33789
-644,-300,-42.3084,1.3728,0,0,0,0,0,0,0,-1,580,1324,-42.3084,-1.37282
-637,-300,-42.6259,0.807251,0,0,0,0,0,0,0,-1,587,1324,-42.6259,-0.807209
-630,-300,-21.1108,2.26306,0,0,0,0,0,0,0,-1,594,1324,-21.1109,-2.2631
-623,-300,-12.7067,1.48462,0,0,0,0,0,0,0,-1,601,1324,-12.7067,-1.48462
-616,-300,-14.9988,1.68628,0,0,0,0,0,0,0,-1,608,1324,-14.9988,-1.68627
-609,-300,-15.5027,3.29907,0,0,0,0,0,0,0,-1,615,1324,-15.5027,-3.29902
-602,-300,-32.8344,8.6803,0,0,0,0,0,0,0,-1,622,1324,-32.8344,-8.68028
-595,-300,-32.9067,9.6875,0.00309498,0.00339373,0.0017894,0.00503998,0.00144873,0.827039,0.0029962,0.0398545,629,1324,-32.9067,-9.68745
-588,-300,-32.8793,10.5322,0.00221384,0.00225375,0.00111833,0.0033523,0.00111529,0.794319,0.00197123,0.0204999,636,1324,-32.8792,-10.5322
-581,-300,-32.9202,11.3533,0.00178544,0.00140737,0.00076852,0.00238783,0.000804979,0.664805,0.00140279,0.0201616,643,1324,-32.9201,-11.3533
-574,-300,-32.9203,12.1611,0.0016775,0.000682685,0.000629829,0.00198265,0.000377535,0.451167,0.00121563,0.0160792,650,1324,-32.9203,-12.1611
-567,-300,-32.9941,12.9661,0.00182626,7.14025e-05,0.000657776,0.00204544,-0.000147778,0.321643,0.00141546,0.0163179,657,1324,-32.9941,-12.9661
-560,-300,-33.0563,13.808,0.00230321,-0.000467032,0.000869648,0.00255358,-0.000717408,0.280323,0.00198521,0.0155898,664,1324,-33.0563,-13.808
-553,-300,-33.0667,14.6143,0.00311913,-0.00086439,0.00128635,0.0034984,-0.00124367,0.286722,0.00283912,0.0114241,671,1324,-33.0667,-14.6142
-546,-300,-33.0947,15.4087,0.00429461,-0.00115772,0.00195168,0.00492121,-0.00178432,0.310662,0.00401016,0.0121708,678,1324,-33.0947,-15.4087
-539,-300,-33.004,16.3203,0.00601833,-0.00130391,0.00294578,0.00705629,-0.00234188,0.338773,0.00564902,0.0310491,685,1324,-33.004,-16.3203
-532,-300,-32.847,17.2351,0,0,0,0,0,0,0,-1,692,1324,-32.847,-17.2351
-525,-300,-13.5115,6.27783,0,0,0,0,0,0,0,-1,699,1324,-13.5115,-6.2778
-518,-300,-9.8349,-0.537109,0,0,0,0,0,0,0,-1,706,1324,-9.83487,0.537068
-511,-300,-12.8644,0.081665,0,0,0,0,0,0,0,-1,713,1324,-12.8644,-0.0817016
-504,-300,-13.4829,-0.165527,0,0,0,0,0,0,0,-1,720,1324,-13.4829,0.165544
-497,-300,-18.1063,0.956543,0,0,0,0,0,0,0,-1,727,1324,-18.1063,-0.9565
-490,-300,-18.2293,1.53625,0,0,0,0,0,0,0,-1,734,1324,-18.2293,-1.53626
-483,-300,-18.3522,1.61084,0,0,0,0,0,0,0,-1,741,1324,-18.3522,-1.6108
-476,-300,-18.7489,1.96387,0,0,0,0,0,0,0,-1,748,1324,-18.7489,-1.96387
-469,-300,0,0,0,0,0,0,0,0,0,-1,755,1324,0,0
-462,-300,0,0,0,0,0,0,0,0,0,-1,762,1324,0,0
-455,-300,0,0,0,0,0,0,0,0,0,-1,769,1324,0,0
-448,-300,0,0,0,0,0,0,0,0,0,-1,776,1324,0,0
-441,-300,0,0,0,0,0,0,0,0,0,-1,783,1324,0,0
-434,-300,0,0,0,0,0,0,0,0,0,-1,790,1324,0,0
-427,-300,0,0,0,0,0,0,0,0,0,-1,797,1324,0,0
-420,-300,0,0,0,0,0,0,0,0,0,-1,804,1324,0,0
-413,-300,0,0,0,0,0,0,0,0,0,-1,811,1324,0,0
-406,-300,0,0,0,0,0,0,0,0,0,-1,818,1324,0,0
-399,-300,0,0,0,0,0,0,0,0,0,-1,825,1324,0,0
-392,-300,0,0,0,0,0,0,0,0,0,-1,832,1324,0,0
-385,-300,0,0,0,0,0,0,0,0,0,-1,839,1324,0,0
-378,-300,0,0,0,0,0,0,0,0,0,-1,846,1324,0,0
-371,-300,0,0,0,0,0,0,0,0,0,-1,853,1324,0,0
-364,-300,0,0,0,0,0,0,0,0,0,-1,860,1324,0,0
-357,-300,0,0,0,0,0,0,0,0,0,-1,867,1324,0,0
-350,-300,0,0,0,0,0,0,0,0,0,-1,874,1324,0,0
-343,-300,0,0,0,0,0,0,0,0,0,-1,881,1324,0,0
-336,-300,0,0,0,0,0,0,0,0,0,-1,888,1324,0,0
-329,-300,0,0,0,0,0,0,0,0,0,-1,895,1324,0,0
-322,-300,0,0,0,0,0,0,0,0,0,-1,902,1324,0,0
-315,-300,0,0,0,0,0,0,0,0,0,-1,909,1324,0,0
-308,-300,0,0,0,0,0,0,0,0,0,-1,916,1324,0,0
-301,-300,0,0,0,0,0,0,0,0,0,-1,923,1324,0,0
-294,-300,0,0,0,0,0,0,0,0,0,-1,930,1324,0,0
-287,-300,0,0,0,0,0,0,0,0,0,-1,937,1324,0,0
-280,-300,0,0,0,0,0,0,0,0,0,-1,944,1324,0,0
-273,-300,0,0,0,0,0,0,0,0,0,-1,951,1324,0,0
-266,-300,0,0,0,0,0,0,0,0,0,-1,958,1324,0,0
-259,-300,0,0,0,0,0,0,0,0,0,-1,965,1324,0,0
-252,-300,0,0,0,0,0,0,0,0,0,-1,972,1324,0,0
-245,-300,0,0,0,0,0,0,0,0,0,-1,979,1324,0,0
-238,-300,0,0,0,0,0,0,0,0,0,-1,986,1324,0,0
-231,-300,0,0,0,0,0,0,0,0,0,-1,993,1324,0,0
-224,-300,0,0,0,0,0,0,0,0,0,-1,1000,1324,0,0
-217,-300,0,0,0,0,0,0,0,0,0,-1,1007,1324,0,0
-210,-300,0,0,0,0,0,0,0,0,0,-1,1014,1324,0,0
-203,-300,0,0,0,0,0,0,0,0,0,-1,1021,1324,0,0
-196,-300,0,0,0,0,0,0,0,0,0,-1,1028,1324,0,0
-189,-300,0,0,0,0,0,0,0,0,0,-1,1035,1324,0,0
-182,-300,0,0,0,0,0,0,0,0,0,-1,1042,1324,0,0
-175,-300,0,0,0,0,0,0,0,0,0,-1,1049,1324,0,0
-168,-300,0,0,0,0,0,0,0,0,0,-1,1056,1324,0,0
-161,-300,0,0,0,0,0,0,0,0,0,-1,1063,1324,0,0
-154,-300,0,0,0,0,0,0,0,0,0,-1,1070,1324,0,0
-147,-300,0,0,0,0,0,0,0,0,0,-1,1077,1324,0,0
-140,-300,0,0,0,0,0,0,0,0,0,-1,1084,1324,0,0
-133,-300,0,0,0,0,0,0,0,0,0,-1,1091,1324,0,0
-126,-300,0,0,0,0,0,0,0,0,0,-1,1098,1324,0,0
-119,-300,0,0,0,0,0,0,0,0,0,-1,1105,1324,0,0
-112,-300,0,0,0,0,0,0,0,0,0,-1,1112,1324,0,0
-105,-300,0,0,0,0,0,0,0,0,0,-1,1119,1324,0,0
-98,-300,0,0,0,0,0,0,0,0,0,-1,1126,1324,0,0
-91,-300,0,0,0,0,0,0,0,0,0,-1,1133,1324,0,0
-84,-300,0,0,0,0,0,0,0,0,0,-1,1140,1324,0,0
-77,-300,0,0,0,0,0,0,0,0,0,-1,1147,1324,0,0
-70,-300,0,0,0,0,0,0,0,0,0,-1,1154,1324,0,0
-63,-300,0,0,0,0,0,0,0,0,0,-1,1161,1324,0,0
-56,-300,0,0,0,0,0,0,0,0,0,-1,1168,1324,0,0
-49,-300,0,0,0,0,0,0,0,0,0,-1,1175,1324,0,0
-42,-300,0,0,0,0,0,0,0,0,0,-1,1182,1324,0,0
-35,-300,0,0,0,0,0,0,0,0,0,-1,1189,1324,0,0
-28,-300,0,0,0,0,0,0,0,0,0,-1,1196,1324,0,0
-21,-300,0,0,0,0,0,0,0,0,0,-1,1203,1324,0,0
-14,-300,0,0,0,0,0,0,0,0,0,-1,1210,1324,0,0
-7,-300,0,0,0,0,0,0,0,0,0,-1,1217,1324,0,0
0,-300,0,0,0,0,0,0,0,0,0,-1,1224,1324,0,0
7,-300,0,0,0,0,0,0,0,0,0,-1,1231,1324,0,0
14,-300,0,0,0,0,0,0,0,0,0,-1,1238,1324,0,0
21,-300,0,0,0,0,0,0,0,0,0,-1,1245,1324,0,0
28,-300,0,0,0,0,0,0,0,0,0,-1,1252,1324,0,0
35,-300,0,0,0,0,0,0,0,0,0,-1,1259,1324,0,0
42,-300,0,0,0,0,0,0,0,0,0,-1,1266,1324,0,0
49,-300,0,0,0,0,0,0,0,0,0,-1,1273,1324,0,0
56,-300,0,0,0,0,0,0,0,0,0,-1,1280,1324,0,0
63,-300,0,0,0,0,0,0,0,0,0,-1,1287,1324,0,0
70,-300,0,0,0,0,0,0,0,0,0,-1,1294,1324,0,0
77,-300,0,0,0,0,0,0,0,0,0,-1,1301,1324,0,0
84,-300,0,0,0,0,0,0,0,0,0,-1,1308,1324,0,0
91,-300,0,0,0,0,0,0,0,0,0,-1,1315,1324,0,0
98,-300,0,0,0,0,0,0,0,0,0,-1,1322,1324,0,0
105,-300,0,0,0,0,0,0,0,0,0,-1,1329,1324,0,0
112,-300,0,0,0,0,0,0,0,0,0,-1,1336,1324,0,0
119,-300,0,0,0,0,0,0,0,0,0,-1,1343,1324,0,0
126,-300,0,0,0,0,0,0,0,0,0,-1,1350,1324,0,0
133,-300,0,0,0,0,0,0,0,0,0,-1,1357,1324,0,0
140,-300,0,0,0,0,0,0,0,0,0,-1,1364,1324,0,0
147,-300,0,0,0,0,0,0,0,0,0,-1,1371,1324,0,0
154,-300,0,0,0,0,0,0,0,0,0,-1,1378,1324,0,0
161,-300,0,0,0,0,0,0,0,0,0,-1,1385,1324,0,0
168,-300,0,0,0,0,0,0,0,0,0,-1,1392,1324,0,0
175,-300,0,0,0,0,0,0,0,0,0,-1,1399,1324,0,0
182,-300,0,0,0,0,0,0,0,0,0,-1,1406,1324,0,0
189,-300,0,0,0,0,0,0,0,0,0,-1,1413,1324,0,0
196,-300,0,0,0,0,0,0,0,0,0,-1,1420,1324,0,0
203,-300,0,0,0,0,0,0,0,0,0,-1,1427,1324,0,0
210,-300,0,0,0,0,0,0,0,0,0,-1,1434,1324,0,0
217,-300,0,0,0,0,0,0,0,0,0,-1,1441,1324,0,0
224,-300,0,0,0,0,0,0,0,0,0,-1,1448,1324,0,0
231,-300,0,0,0,0,0,0,0,0,0,-1,1455,1324,0,0
238,-300,0,0,0,0,0,0,0,0,0,-1,1462,1324,0,0
245,-300,0,0,0,0,0,0,0,0,0,-1,1469,1324,0,0
252,-300,0,0,0,0,0,0,0,0,0,-1,1476,1324,0,0
259,-300,0,0,0,0,0,0,0,0,0,-1,1483,1324,0,0
266,-300,0,0,0,0,0,0,0,0,0,-1,1490,1324,0,0
273,-300,0,0,0,0,0,0,0,0,0,-1,1497,1324,0,0
280,-300,0,0,0,0,0,0,0,0,0,-1,1504,1324,0,0
287,-300,0,0,0,0,0,0,0,0,0,-1,1511,1324,0,0
294,-300,0,0,0,0,0,0,0,0,0,-1,1518,1324,0,0
301,-300,0,0,0,0,0,0,0,0,0,-1,1525,1324,0,0
308,-300,0,0,0,0,0,0,0,0,0,-1,1532,1324,0,0
315,-300,0,0,0,0,0,0,0,0,0,-1,1539,1324,0,0
322,-300,0,0,0,0,0,0,0,0,0,-1,1546,1324,0,0
329,-300,0,0,0,0,0,0,0,0,0,-1,1553,1324,0,0
336,-300,0,0,0,0,0,0,0,0,0,-1,1560,1324,0,0
343,-300,0,0,0,0,0,0,0,0,0,-1,1567,1324,0,0
350,-300,0,0,0,0,0,0,0,0,0,-1,1574,1324,0,0
357,-300,0,0,0,0,0,0,0,0,0,-1,1581,1324,0,0
364,-300,0,0,0,0,0,0,0,0,0,-1,1588,1324,0,0
371,-300,0,0,0,0,0,0,0,0,0,-1,1595,1324,0,0
378,-300,0,0,0,0,0,0,0,0,0,-1,1602,1324,0,0
385,-300,0,0,0,0,0,0,0,0,0,-1,1609,1324,0,0
392,-300,0,0,0,0,0,0,0,0,0,-1,1616,1324,0,0
399,-300,0,0,0,0,0,0,0,0,0,-1,1623,1324,0,0
406,-300,0,0,0,0,0,0,0,0,0,-1,1630,1324,0,0
413,-300,0,0,0,0,0,0,0,0,0,-1,1637,1324,0,0
420,-300,0,0,0,0,0,0,0,0,0,-1,1644,1324,0,0
427,-300,0,0,0,0,0,0,0,0,0,-1,1651,1324,0,0
434,-300,0,0,0,0,0,0,0,0,0,-1,1658,1324,0,0
441,-300,0,0,0,0,0,0,0,0,0,-1,1665,1324,0,0
448,-300,0,0,0,0,0,0,0,0,0,-1,1672,1324,0,0
455,-300,0,0,0,0,0,0,0,0,0,-1,1679,1324,0,0
462,-300,0,0,0,0,0,0,0,0,0,-1,1686,1324,0,0
469,-300,0,0,0,0,0,0,0,0,0,-1,1693,1324,0,0
476,-300,0,0,0,0,0,0,0,0,0,-1,1700,1324,0,0
483,-300,0,0,0,0,0,0,0,0,0,-1,1707,1324,0,0
490,-300,0,0,0,0,0,0,0,0,0,-1,1714,1324,0,0
497,-300,0,0,0,0,0,0,0,0,0,-1,1721,1324,0,0
504,-300,0,0,0,0,0,0,0,0,0,-1,1728,1324,0,0
511,-300,0,0,0,0,0,0,0,0,0,-1,1735,1324,0,0
518,-300,0,0,0,0,0,0,0,0,0,-1,1742,1324,0,0
525,-300,0,0,0,0,0,0,0,0,0,-1,1749,1324,0,0
532,-300,0,0,0,0,0,0,0,0,0,-1,1756,1324,0,0
539,-300,0,0,0,0,0,0,0,0,0,-1,1763,1324,0,0
546,-300,0,0,0,0,0,0,0,0,0,-1,1770,1324,0,0
553,-300,0,0,0,0,0,0,0,0,0,-1,1777,1324,0,0
560,-300,0,0,0,0,0,0,0,0,0,-1,1784,1324,0,0
567,-300,0,0,0,0,0,0,0,0,0,-1,1791,1324,0,0
574,-300,0,0,0,0,0,0,0,0,0,-1,1798,1324,0,0
581,-300,0,0,0,0,0,0,0,0,0,-1,1805,1324,0,0
588,-300,66.4561,1.99207,0,0,0,0,0,0,0,-1,1812,1324,66.456,-1.99202
595,-300,66.4685,1.95496,0,0,0,0,0,0,0,-1,1819,1324,66.4685,-1.95499
602,-300,66.5259,1.72363,0,0,0,0,0,0,0,-1,1826,1324,66.5259,-1.72367
609,-300,64.2576,2.90149,0,0,0,0,0,0,0,-1,1833,1324,64.2575,-2.90154
616,-300,65.1267,2.84033,0,0,0,0,0,0,0,-1,1840,1324,65.1267,-2.84037
623,-300,47.4474,2.43188,0,0,0,0,0,0,0,-1,1847,1324,47.4474,-2.43194
630,-300,42.4099,3.9165,0,0,0,0,0,0,0,-1,1854,1324,42.4099,-3.91649
637,-300,31.1719,4.6366,0,0,0,0,0,0,0,-1,1861,1324,31.1718,-4.63665
644,-300,22.9836,3.44934,0,0,0,0,0,0,0,-1,1868,1324,22.9836,-3.4493
651,-300,25.5004,9.11853,0,0,0,0,0,0,0,-1,1875,1324,25.5004,-9.11851
658,-300,25.4012,9.20032,0,0,0,0,0,0,0,-1,1882,1324,25.4012,-9.20036
665,-300,49.9637,17.5212,0,0,0,0,0,0,0,-1,1889,1324,49.9638,-17.5212
672,-300,49.7898,16.8282,0.00203551,0.00259137,-0.00503675,0.00735785,-0.00273098,-0.81296,0.00602551,0.0368719,1896,1324,49.7898,-16.8283
679,-300,49.7742,16.0166,0.00170339,0.00194576,-0.00244685,0.00427442,-0.000625279,-0.810141,0.00307928,0.0134221,1903,1324,49.7742,-16.0166
686,-300,49.722,15.2358,0.00158259,0.000591613,-0.00110923,0.00230197,-0.000127766,-0.575347,0.00157896,0.0141206,1910,1324,49.722,-15.2358
693,-300,49.6823,14.4601,0.00134659,5.97989e-05,-0.000468366,0.00149901,-9.26225e-05,-0.314623,0.0010316,0.0123385,1917,1324,49.6822,-14.46
700,-300,49.6469,13.6587,0.00120996,9.58248e-05,-0.000114019,0.0012215,8.42759e-05,-0.100945,0.000787748,0.014322,1924,1324,49.6469,-13.6587
707,-300,49.6224,12.8787,0.00100114,0.000170549,0.000161081,0.00103128,0.000140404,0.185004,0.000645828,0.0108884,1931,1324,49.6224,-12.8786
714,-300,49.5792,12.1356,0.000777363,0.000230662,0.000433919,0.00101685,-8.829e-06,0.50432,0.000680865,0.012157,1938,1324,49.5793,-12.1356
721,-300,49.5658,11.3572,0.000539752,0.00026835,0.000695239,0.00111241,-0.000304308,0.689017,0.000861156,0.0128205,1945,1324,49.5657,-11.3572
728,-300,49.566,10.5392,0.000241202,0.000288729,0.000947313,0.00121258,-0.000682645,0.797938,0.00110837,0.0179175,1952,1324,49.566,-10.5392
735,-300,49.6284,9.7511,0,0,0,0,0,0,0,-1,1959,1324,49.6284,-9.75112
742,-300,48.948,9.04187,0,0,0,0,0,0,0,-1,1966,1324,48.948,-9.04187
749,-300,27.4065,5.9718,0,0,0,0,0,0,0,-1,1973,1324,27.4065,-5.97181
756,-300,22.1423,3.45642,0,0,0,0,0,0,0,-1,1980,1324,22.1423,-3.45638
763,-300,22.6136,5.1571,0,0,0,0,0,0,0,-1,1987,1324,22.6136,-5.15706
770,-300,24.859,4.77979,0,0,0,0,0,0,0,-1,1994,1324,24.859,-4.77972
777,-300,0,0,0,0,0,0,0,0,0,-1,2001,1324,0,0
784,-300,0,0,0,0,0,0,0,0,0,-1,2008,1324,0,0
791,-300,0,0,0,0,0,0,0,0,0,-1,2015,1324,0,0
798,-300,0,0,0,0,0,0,0,0,0,-1,2022,1324,0,0
805,-300,0,0,0,0,0,0,0,0,0,-1,2029,1324,0,0
812,-300,0,0,0,0,0,0,0,0,0,-1,2036,1324,0,0
-700,-307,0,0,0,0,0,0,0,0,0,-1,524,1331,0,0
-693,-307,0,0,0,0,0,0,0,0,0,-1,531,1331,0,0
-686,-307,0,0,0,0,0,0,0,0,0,-1,538,1331,0,0
-679,-307,0,0,0,0,0,0,0,0,0,-1,545,1331,0,0
-672,-307,0,0,0,0,0,0,0,0,0,-1,552,1331,0,0
-665,-307,0,0,0,0,0,0,0,0,0,-1,559,1331,0,0
-658,-307,0,0,0,0,0,0,0,0,0,-1,566,1331,0,0
-651,-307,-40.7436,1.98755,0,0,0,0,0,0,0,-1,573,1331,-40.7436,-1.98753
-644,-307,-41.7838,1.24817,0,0,0,0,0,0,0,-1,580,1331,-41.7838,-1.2482
-637,-307,-41.9006,0.477783,0,0,0,0,0,0,0,-1,587,1331,-41.9006,-0.477844
-630,-307,-12.0005,0.767212,0,0,0,0,0,0,0,-1,594,1331,-12.0005,-0.767266
-623,-307,-12.2128,2.93811,0,0,0,0,0,0,0,-1,601,1331,-12.2128,-2.93813
-616,-307,-12.6612,2.08289,0,0,0,0,0,0,0,-1,608,1331,-12.6612,-2.08293
-609,-307,-12.2767,1.83228,0,0,0,0,0,0,0,-1,615,1331,-12.2768,-1.83224
-602,-307,-27.5659,6.93335,0,0,0,0,0,0,0,-1,622,1331,-27.5658,-6.9333
-595,-307,-32.0728,9.78479,0,0,0,0,0,0,0,-1,629,1331,-32.0728,-9.78475
-588,-307,-32.071,10.6056,0.0025588,0.00249575,0.00142589,0.00395351,0.00110104,0.774346,0.00235604,0.0225637,636,1331,-32.071,-10.6056
-581,-307,-32.0871,11.4144,0.00213147,0.00174233,0.000993328,0.00294911,0.000924696,0.688683,0.00174168,0.0156864,643,1331,-32.0871,-11.4145
-574,-307,-32.1182,12.1953,0.00205344,0.00111082,0.000821649,0.00252936,0.000634902,0.525002,0.00151948,0.0133542,650,1331,-32.1181,-12.1954
-567,-307,-32.1766,13.0156,0.00222581,0.000600388,0.000827795,0.00257316,0.000253037,0.397296,0.00163763,0.0137972,657,1331,-32.1766,-13.0157
-560,-307,-32.2191,13.8555,0.0026685,0.000158266,0.00100219,0.00301952,-0.000192762,0.336908,0.00208025,0.0149959,664,1331,-32.2191,-13.8555
-553,-307,-32.2477,14.6599,0.00341529,-0.000135742,0.00137851,0.0038876,-0.000608056,0.330091,0.00281639,0.0121408,671,1331,-32.2477,-14.6599
-546,-307,-32.2981,15.4504,0.00447975,-0.0003708,0.00196031,0.00517293,-0.00106398,0.339885,0.00385257,0.0114656,678,1331,-32.2981,-15.4504
-539,-307,-32.3041,16.3157,0.00597791,-0.000488566,0.00280934,0.00702792,-0.00153858,0.35768,0.00527349,0.0229442,685,1331,-32.3041,-16.3157
-532,-307,-32.2626,17.2158,0,0,0,0,0,0,0,-1,692,1331,-32.2626,-17.2158
-525,-307,-13.2009,6.91309,0,0,0,0,0,0,0,-1,699,1331,-13.2009,-6.9131
-518,-307,-9.77777,-1.56653,0,0,0,0,0,0,0,-1,706,1331,-9.77777,1.56651
-511,-307,-12.5226,0.26709,0,0,0,0,0,0,0,-1,713,1331,-12.5226,-0.267038
-504,-307,-12.5913,-0.308105,0,0,0,0,0,0,0,-1,720,1331,-12.5913,0.308124
-497,-307,-13.8586,-0.115845,0,0,0,0,0,0,0,-1,727,1331,-13.8587,0.115861
-490,-307,-17.9429,0.982178,0,0,0,0,0,0,0,-1,734,1331,-17.9429,-0.982198
-483,-307,-18.1066,0.927612,0,0,0,0,0,0,0,-1,741,1331,-18.1066,-0.927609
-476,-307,-18.1288,1.1228,0,0,0,0,0,0,0,-1,748,1331,-18.1289,-1.12286
-469,-307,-18.2028,0.798584,0,0,0,0,0,0,0,-1,755,1331,-18.2027,-0.798546
-462,-307,0,0,0,0,0,0,0,0,0,-1,762,1331,0,0
-455,-307,0,0,0,0,0,0,0,0,0,-1,769,1331,0,0
-448,-307,0,0,0,0,0,0,0,0,0,-1,776,1331,0,0
-441,-307,0,0,0,0,0,0,0,0,0,-1,783,1331,0,0
-434,-307,0,0,0,0,0,0,0,0,0,-1,790,1331,0,0
-427,-307,0,0,0,0,0,0,0,0,0,-1,797,1331,0,0
-420,-307,0,0,0,0,0,0,0,0,0,-1,804,1331,0,0
-413,-307,0,0,0,0,0,0,0,0,0,-1,811,1331,0,0
-406,-307,0,0,0,0,0,0,0,0,0,-1,818,1331,0,0
-399,-307,0,0,0,0,0,0,0,0,0,-1,825,1331,0,0
-392,-307,0,0,0,0,0,0,0,0,0,-1,832,1331,0,0
-385,-307,0,0,0,0,0,0,0,0,0,-1,839,1331,0,0
-378,-307,0,0,0,0,0,0,0,0,0,-1,846,1331,0,0
-371,-307,0,0,0,0,0,0,0,0,0,-1,853,1331,0,0
-364,-307,0,0,0,0,0,0,0,0,0,-1,860,1331,0,0
-357,-307,0,0,0,0,0,0,0,0,0,-1,867,1331,0,0
-350,-307,0,0,0,0,0,0,0,0,0,-1,874,1331,0,0
-343,-307,0,0,0,0,0,0,0,0,0,-1,881,1331,0,0
-336,-307,0,0,0,0,0,0,0,0,0,-1,888,1331,0,0
-329,-307,0,0,0,0,0,0,0,0,0,-1,895,1331,0,0
-322,-307,0,0,0,0,0,0,0,0,0,-1,902,1331,0,0
-315,-307,0,0,0,0,0,0,0,0,0,-1,909,1331,0,0
-308,-307,0,0,0,0,0,0,0,0,0,-1,916,1331,0,0
-301,-307,0,0,0,0,0,0,0,0,0,-1,923,1331,0,0
-294,-307,0,0,0,0,0,0,0,0,0,-1,930,1331,0,0
-287,-307,0,0,0,0,0,0,0,0,0,-1,937,1331,0,0
-280,-307,0,0,0,0,0,0,0,0,0,-1,944,1331,0,0
-273,-307,0,0,0,0,0,0,0,0,0,-1,951,1331,0,0
-266,-307,0,0,0,0,0,0,0,0,0,-1,958,1331,0,0
-259,-307,0,0,0,0,0,0,0,0,0,-1,965,1331,0,0
-252,-307,0,0,0,0,0,0,0,0,0,-1,972,1331,0,0
-245,-307,0,0,0,0,0,0,0,0,0,-1,979,1331,0,0
-238,-307,0,0,0,0,0,0,0,0,0,-1,986,1331,0,0
-231,-307,0,0,0,0,0,0,0,0,0,-1,993,1331,0,0
-224,-307,0,0,0,0,0,0,0,0,0,-1,1000,1331,0,0
-217,-307,0,0,0,0,0,0,0,0,0,-1,1007,1331,0,0
-210,-307,0,0,0,0,0,0,0,0,0,-1,1014,1331,0,0
-203,-307,0,0,0,0,0,0,0,0,0,-1,1021,1331,0,0
-196,-307,0,0,0,0,0,0,0,0,0,-1,1028,1331,0,0
-189,-307,0,0,0,0,0,0,0,0,0,-1,1035,1331,0,0
-182,-307,0,0,0,0,0,0,0,0,0,-1,1042,1331,0,0
-175,-307,0,0,0,0,0,0,0,0,0,-1,1049,1331,0,0
-168,-307,0,0,0,0,0,0,0,0,0,-1,1056,1331,0,0
-161,-307,0,0,0,0,0,0,0,0,0,-1,1063,1331,0,0
-154,-307,0,0,0,0,0,0,0,0,0,-1,1070,1331,0,0
-147,-307,0,0,0,0,0,0,0,0,0,-1,1077,1331,0,0
-140,-307,0,0,0,0,0,0,0,0,0,-1,1084,1331,0,0
-133,-307,0,0,0,0,0,0,0,0,0,-1,1091,1331,0,0
-126,-307,0,0,0,0,0,0,0,0,0,-1,1098,1331,0,0
-119,-307,0,0,0,0,0,0,0,0,0,-1,1105,1331,0,0
-112,-307,0,0,0,0,0,0,0,0,0,-1,1112,1331,0,0
-105,-307,0,0,0,0,0,0,0,0,0,-1,1119,1331,0,0
-98,-307,0,0,0,0,0,0,0,0,0,-1,1126,1331,0,0
-91,-307,0,0,0,0,0,0,0,0,0,-1,1133,1331,0,0
-84,-307,0,0,0,0,0,0,0,0,0,-1,1140,1331,0,0
-77,-307,0,0,0,0,0,0,0,0,0,-1,1147,1331,0,0
-70,-307,0,0,0,0,0,0,0,0,0,-1,1154,1331,0,0
-63,-307,0,0,0,0,0,0,0,0,0,-1,1161,1331,0,0
-56,-307,0,0,0,0,0,0,0,0,0,-1,1168,1331,0,0
-49,-307,0,0,0,0,0,0,0,0,0,-1,1175,1331,0,0
-42,-307,0,0,0,0,0,0,0,0,0,-1,1182,1331,0,0
-35,-307,0,0,0,0,0,0,0,0,0,-1,1189,1331,0,0
-28,-307,0,0,0,0,0,0,0,0,0,-1,1196,1331,0,0
-21,-307,0,0,0,0,0,0,0,0,0,-1,1203,1331,0,0
-14,-307,0,0,0,0,0,0,0,0,0,-1,1210,1331,0,0
-7,-307,0,0,0,0,0,0,0,0,0,-1,1217,1331,0,0
0,-307,0,0,0,0,0,0,0,0,0,-1,1224,1331,0,0
7,-307,0,0,0,0,0,0,0,0,0,-1,1231,1331,0,0
14,-307,0,0,0,0,0,0,0,0,0,-1,1238,1331,0,0
21,-307,0,0,0,0,0,0,0,0,0,-1,1245,1331,0,0
28,-307,0,0,0,0,0,0,0,0,0,-1,1252,1331,0,0
35,-307,0,0,0,0,0,0,0,0,0,-1,1259,1331,0,0
42,-307,0,0,0,0,0,0,0,0,0,-1,1266,1331,0,0
49,-307,0,0,0,0,0,0,0,0,0,-1,1273,1331,0,0
56,-307,0,0,0,0,0,0,0,0,0,-1,1280,1331,0,0
63,-307,0,0,0,0,0,0,0,0,0,-1,1287,1331,0,0
70,-307,0,0,0,0,0,0,0,0,0,-1,1294,1331,0,0
77,-307,0,0,0,0,0,0,0,0,0,-1,1301,1331,0,0
84,-307,0,0,0,0,0,0,0,0,0,-1,1308,1331,0,0
91,-307,0,0,0,0,0,0,0,0,0,-1,1315,1331,0,0
98,-307,0,0,0,0,0,0,0,0,0,-1,1322,1331,0,0
105,-307,0,0,0,0,0,0,0,0,0,-1,1329,1331,0,0
112,-307,0,0,0,0,0,0,0,0,0,-1,1336,1331,0,0
119,-307,0,0,0,0,0,0,0,0,0,-1,1343,1331,0,0
126,-307,0,0,0,0,0,0,0,0,0,-1,1350,1331,0,0
133,-307,0,0,0,0,0,0,0,0,0,-1,1357,1331,0,0
140,-307,0,0,0,0,0,0,0,0,0,-1,1364,1331,0,0
147,-307,0,0,0,0,0,0,0,0,0,-1,1371,1331,0,0
154,-307,0,0,0,0,0,0,0,0,0,-1,1378,1331,0,0
161,-307,0,0,0,0,0,0,0,0,0,-1,1385,1331,0,0
168,-307,0,0,0,0,0,0,0,0,0,-1,1392,1331,0,0
175,-307,0,0,0,0,0,0,0,0,0,-1,1399,1331,0,0
182,-307,0,0,0,0,0,0,0,0,0,-1,1406,1331,0,0
189,-307,0,0,0,0,0,0,0,0,0,-1,1413,1331,0,0
196,-307,0,0,0,0,0,0,0,0,0,-1,1420,1331,0,0
203,-307,0,0,0,0,0,0,0,0,0,-1,1427,1331,0,0
210,-307,0,0,0,0,0,0,0,0,0,-1,1434,1331,0,0
217,-307,0,0,0,0,0,0,0,0,0,-1,1441,1331,0,0
224,-307,0,0,0,0,0,0,0,0,0,-1,1448,1331,0,0
231,-307,0,0,0,0,0,0,0,0,0,-1,1455,1331,0,0
238,-307,0,0,0,0,0,0,0,0,0,-1,1462,1331,0,0
245,-307,0,0,0,0,0,0,0,0,0,-1,1469,1331,0,0
252,-307,0,0,0,0,0,0,0,0,0,-1,1476,1331,0,0
259,-307,0,0,0,0,0,0,0,0,0,-1,1483,1331,0,0
266,-307,0,0,0,0,0,0,0,0,0,-1,1490,1331,0,0
273,-307,0,0,0,0,0,0,0,0,0,-1,1497,1331,0,0
280,-307,0,0,0,0,0,0,0,0,0,-1,1504,1331,0,0
287,-307,0,0,0,0,0,0,0,0,0,-1,1511,1331,0,0
294,-307,0,0,0,0,0,0,0,0,0,-1,1518,1331,0,0
301,-307,0,0,0,0,0,0,0,0,0,-1,1525,1331,0,0
308,-307,0,0,0,0,0,0,0,0,0,-1,1532,1331,0,0
315,-307,0,0,0,0,0,0,0,0,0,-1,1539,1331,0,0
322,-307,0,0,0,0,0,0,0,0,0,-1,1546,1331,0,0
329,-307,0,0,0,0,0,0,0,0,0,-1,1553,1331,0,0
336,-307,0,0,0,0,0,0,0,0,0,-1,1560,1331,0,0
343,-307,0,0,0,0,0,0,0,0,0,-1,1567,1331,0,0
350,-307,0,0,0,0,0,0,0,0,0,-1,1574,1331,0,0
357,-307,0,0,0,0,0,0,0,0,0,-1,1581,1331,0,0
364,-307,0,0,0,0,0,0,0,0,0,-1,1588,1331,0,0
371,-307,0,0,0,0,0,0,0,0,0,-1,1595,1331,0,0
378,-307,0,0,0,0,0,0,0,0,0,-1,1602,1331,0,0
385,-307,0,0,0,0,0,0,0,0,0,-1,1609,1331,0,0
392,-307,0,0,0,0,0,0,0,0,0,-1,1616,1331,0,0
399,-307,0,0,0,0,0,0,0,0,0,-1,1623,1331,0,0
406,-307,0,0,0,0,0,0,0,0,0,-1,1630,1331,0,0
413,-307,0,0,0,0,0,0,0,0,0,-1,1637,1331,0,0
420,-307,0,0,0,0,0,0,0,0,0,-1,1644,1331,0,0
427,-307,0,0,0,0,0,0,0,0,0,-1,1651,1331,0,0
434,-307,0,0,0,0,0,0,0,0,0,-1,1658,1331,0,0
441,-307,0,0,0,0,0,0,0,0,0,-1,1665,1331,0,0
448,-307,0,0,0,0,0,0,0,0,0,-1,1672,1331,0,0
455,-307,0,0,0,0,0,0,0,0,0,-1,1679,1331,0,0
462,-307,0,0,0,0,0,0,0,0,0,-1,1686,1331,0,0
469,-307,0,0,0,0,0,0,0,0,0,-1,1693,1331,0,0
476,-307,0,0,0,0,0,0,0,0,0,-1,1700,1331,0,0
483,-307,0,0,0,0,0,0,0,0,0,-1,1707,1331,0,0
490,-307,0,0,0,0,0,0,0,0,0,-1,1714,1331,0,0
497,-307,0,0,0,0,0,0,0,0,0,-1,1721,1331,0,0
504,-307,0,0,0,0,0,0,0,0,0,-1,1728,1331,0,0
511,-307,0,0,0,0,0,0,0,0,0,-1,1735,1331,0,0
518,-307,0,0,0,0,0,0,0,0,0,-1,1742,1331,0,0
525,-307,0,0,0,0,0,0,0,0,0,-1,1749,1331,0,0
532,-307,0,0,0,0,0,0,0,0,0,-1,1756,1331,0,0
539,-307,0,0,0,0,0,0,0,0,0,-1,1763,1331,0,0
546,-307,0,0,0,0,0,0,0,0,0,-1,1770,1331,0,0
553,-307,0,0,0,0,0,0,0,0,0,-1,1777,1331,0,0
560,-307,0,0,0,0,0,0,0,0,0,-1,1784,1331,0,0
567,-307,0,0,0,0,0,0,0,0,0,-1,1791,1331,0,0
574,-307,0,0,0,0,0,0,0,0,0,-1,1798,1331,0,0
581,-307,0,0,0,0,0,0,0,0,0,-1,1805,1331,0,0
588,-307,66.5917,1.60864,0,0,0,0,0,0,0,-1,1812,1331,66.5917,-1.60867
595,-307,66.708,1.85352,0,0,0,0,0,0,0,-1,1819,1331,66.708,-1.85351
602,-307,66.111,1.49976,0,0,0,0,0,0,0,-1,1826,1331,66.1109,-1.49974
609,-307,63.8848,2.78992,0,0,0,0,0,0,0,-1,1833,1331,63.8848,-2.78989
616,-307,53.2878,0.135498,0,0,0,0,0,0,0,-1,1840,1331,53.2878,-0.135477
623,-307,44.3966,2.84888,0,0,0,0,0,0,0,-1,1847,1331,44.3966,-2.84884
630,-307,29.8116,1.51184,0,0,0,0,0,0,0,-1,1854,1331,29.8116,-1.51188
637,-307,24.6407,4.09106,0,0,0,0,0,0,0,-1,1861,1331,24.6407,-4.09103
644,-307,22.6885,5.80408,0,0,0,0,0,0,0,-1,1868,1331,22.6884,-5.80408
651,-307,17.5013,5.80078,0,0,0,0,0,0,0,-1,1875,1331,17.5014,-5.80072
658,-307,37.4427,13.9775,0,0,0,0,0,0,0,-1,1882,1331,37.4427,-13.9776
665,-307,49.016,17.4524,0,0,0,0,0,0,0,-1,1889,1331,49.0159,-17.4523
672,-307,49.0244,16.8273,0.00252408,0.00143214,-0.00382659,0.00584345,-0.00188723,-0.714537,0.00465405,0.0220861,1896,1331,49.0245,-16.8273
679,-307,48.9752,16.0537,0.00201957,0.00100311,-0.00157201,0.00316347,-0.00014079,-0.629052,0.00215744,0.0111265,1903,1331,48.9752,-16.0538
686,-307,48.9253,15.2708,0.00177278,0.000199101,-0.000666565,0.00201717,-4.52833e-05,-0.351416,0.00136012,0.0109577,1910,1331,48.9252,-15.2708
693,-307,48.9009,14.4967,0.00149239,2.10619e-05,-0.000333431,0.00156442,-5.09732e-05,-0.212772,0.00106035,0.0131039,1917,1331,48.9008,-14.4966
700,-307,48.8872,13.6934,0.00134748,0.000112151,-0.000119666,0.00135897,0.000100665,-0.0956837,0.000874358,0.0147095,1924,1331,48.8872,-13.6934
707,-307,48.8529,12.8992,0.00123151,0.000217489,9.45898e-05,0.00124026,0.000208741,0.0922218,0.000766788,0.0167503,1931,1331,48.8529,-12.8992
714,-307,48.8071,12.1982,0.00111188,0.000318318,0.000306679,0.00121659,0.000213614,0.329003,0.000750062,0.0141024,1938,1331,48.8071,-12.1982
721,-307,48.8186,11.418,0.00101624,0.000387393,0.000515079,0.00130528,9.83539e-05,0.511367,0.000839327,0.0176378,1945,1331,48.8186,-11.418
728,-307,48.7511,10.7716,0.000877859,0.000447956,0.000721073,0.00141534,-8.95224e-05,0.640542,0.00097477,0.0490182,1952,1331,48.7511,-10.7716
735,-307,48.7748,9.83093,0,0,0,0,0,0,0,-1,1959,1331,48.7748,-9.83088
742,-307,26.677,6.09192,0,0,0,0,0,0,0,-1,1966,1331,26.677,-6.0919
749,-307,26.7727,5.9032,0,0,0,0,0,0,0,-1,1973,1331,26.7727,-5.90323
756,-307,27.1556,5.74756,0,0,0,0,0,0,0,-1,1980,1331,27.1557,-5.7475
763,-307,18.7522,3.55298,0,0,0,0,0,0,0,-1,1987,1331,18.7522,-3.55301
770,-307,0,0,0,0,0,0,0,0,0,-1,1994,1331,0,0
777,-307,0,0,0,0,0,0,0,0,0,-1,2001,1331,0,0
784,-307,0,0,0,0,0,0,0,0,0,-1,2008,1331,0,0
791,-307,0,0,0,0,0,0,0,0,0,-1,2015,1331,0,0
798,-307,0,0,0,0,0,0,0,0,0,-1,2022,1331,0,0
805,-307,0,0,0,0,0,0,0,0,0,-1,2029,1331,0,0
812,-307,0,0,0,0,0,0,0,0,0,-1,2036,1331,0,0
-700,-314,0,0,0,0,0,0,0,0,0,-1,524,1338,0,0
-693,-314,0,0,0,0,0,0,0,0,0,-1,531,1338,0,0
-686,-314,0,0,0,0,0,0,0,0,0,-1,538,1338,0,0
-679,-314,0,0,0,0,0,0,0,0,0,-1,545,1338,0,0
-672,-314,0,0,0,0,0,0,0,0,0,-1,552,1338,0,0
-665,-314,0,0,0,0,0,0,0,0,0,-1,559,1338,0,0
-658,-314,0,0,0,0,0,0,0,0,0,-1,566,1338,0,0
-651,-314,0,0,0,0,0,0,0,0,0,-1,573,1338,0,0
-644,-314,-41.2806,1.17566,0,0,0,0,0,0,0,-1,580,1338,-41.2806,-1.17565
-637,-314,-58.369,7.97375,0,0,0,0,0,0,0,-1,587,1338,-58.369,-7.97376
-630,-314,-59.7463,6.72742,0,0,0,0,0,0,0,-1,594,1338,-59.7463,-6.72739
-623,-314,-13.3542,3.00903,0,0,0,0,0,0,0,-1,601,1338,-13.3542,-3.00907
-616,-314,-9.93311,1.15088,0,0,0,0,0,0,0,-1,608,1338,-9.93308,-1.15093
-609,-314,-9.4361,2.86292,0,0,0,0,0,0,0,-1,615,1338,-9.43612,-2.86286
-602,-314,-11.8027,2.42798,0,0,0,0,0,0,0,-1,622,1338,-11.8027,-2.42802
-595,-314,-31.4039,9.72925,0,0,0,0,0,0,0,-1,629,1338,-31.404,-9.7293
-588,-314,-31.3041,10.5927,0.00297819,0.00273699,0.00166315,0.00452511,0.00119008,0.749204,0.00270864,0.0350184,636,1338,-31.3041,-10.5927
-581,-314,-31.2506,11.4391,0.00246012,0.00206037,0.00117449,0.00345161,0.00106887,0.701116,0.00204035,0.0124461,643,1338,-31.2506,-11.439
-574,-314,-31.3298,12.2297,0.00236301,0.00145361,0.00100467,0.00301109,0.000805528,0.572897,0.0018,0.0128218,650,1338,-31.3298,-12.2297
-567,-314,-31.3607,13.0485,0.00251293,0.000956915,0.00101158,0.00301109,0.000458758,0.457591,0.00187329,0.0148053,657,1338,-31.3607,-13.0484
-560,-314,-31.3671,13.8956,0.00292203,0.000518774,0.00117351,0.00339999,4.08092e-05,0.38678,0.00225318,0.0151208,664,1338,-31.3671,-13.8956
-553,-314,-31.4155,14.7108,0.0036062,0.000201972,0.00151768,0.00418456,-0.000376386,0.36409,0.00292326,0.0184324,671,1338,-31.4155,-14.7108
-546,-314,-31.4999,15.5308,0.00457385,-7.79302e-05,0.00202563,0.00533226,-0.000836344,0.358253,0.00386391,0.0195001,678,1338,-31.4999,-15.5308
-539,-314,-31.5045,16.3591,0.0058928,-0.00026086,0.00274176,0.00693715,-0.00130521,0.363937,0.00511564,0.0209948,685,1338,-31.5044,-16.3591
-532,-314,-31.3843,17.1321,0,0,0,0,0,0,0,-1,692,1338,-31.3843,-17.1321
-525,-314,-13.3017,7.50671,0,0,0,0,0,0,0,-1,699,1338,-13.3017,-7.50669
-518,-314,-8.52753,4.70032,0,0,0,0,0,0,0,-1,706,1338,-8.52755,-4.70034
-511,-314,-11.8597,0.384888,0,0,0,0,0,0,0,-1,713,1338,-11.8597,-0.384927
-504,-314,-11.4322,-0.187378,0,0,0,0,0,0,0,-1,720,1338,-11.4322,0.187381
-497,-314,-11.0047,-0.759644,0,0,0,0,0,0,0,-1,727,1338,-11.0047,0.759689
-490,-314,-18.5143,0.471069,0,0,0,0,0,0,0,-1,734,1338,-18.5143,-0.47103
-483,-314,-17.8528,0.577271,0,0,0,0,0,0,0,-1,741,1338,-17.8528,-0.577327
-476,-314,-17.714,0.665405,0,0,0,0,0,0,0,-1,748,1338,-17.714,-0.665388
-469,-314,-17.7246,0.794678,0,0,0,0,0,0,0,-1,755,1338,-17.7246,-0.794645
-462,-314,0,0,0,0,0,0,0,0,0,-1,762,1338,0,0
-455,-314,0,0,0,0,0,0,0,0,0,-1,769,1338,0,0
-448,-314,0,0,0,0,0,0,0,0,0,-1,776,1338,0,0
-441,-314,0,0,0,0,0,0,0,0,0,-1,783,1338,0,0
-434,-314,0,0,0,0,0,0,0,0,0,-1,790,1338,0,0
-427,-314,0,0,0,0,0,0,0,0,0,-1,797,1338,0,0
-420,-314,0,0,0,0,0,0,0,0,0,-1,804,1338,0,0
-413,-314,0,0,0,0,0,0,0,0,0,-1,811,1338,0,0
-406,-314,0,0,0,0,0,0,0,0,0,-1,818,1338,0,0
-399,-314,0,0,0,0,0,0,0,0,0,-1,825,1338,0,0
-392,-314,0,0,0,0,0,0,0,0,0,-1,832,1338,0,0
-385,-314,0,0,0,0,0,0,0,0,0,-1,839,1338,0,0
-378,-314,0,0,0,0,0,0,0,0,0,-1,846,1338,0,0
-371,-314,0,0,0,0,0,0,0,0,0,-1,853,1338,0,0
-364,-314,0,0,0,0,0,0,0,0,0,-1,860,1338,0,0
-357,-314,0,0,0,0,0,0,0,0,0,-1,867,1338,0,0
-350,-314,0,0,0,0,0,0,0,0,0,-1,874,1338,0,0
-343,-314,0,0,0,0,0,0,0,0,0,-1,881,1338,0,0
-336,-314,0,0,0,0,0,0,0,0,0,-1,888,1338,0,0
-329,-314,0,0,0,0,0,0,0,0,0,-1,895,1338,0,0
-322,-314,0,0,0,0,0,0,0,0,0,-1,902,1338,0,0
-315,-314,0,0,0,0,0,0,0,0,0,-1,909,1338,0,0
-308,-314,0,0,0,0,0,0,0,0,0,-1,916,1338,0,0
-301,-314,0,0,0,0,0,0,0,0,0,-1,923,1338,0,0
-294,-314,0,0,0,0,0,0,0,0,0,-1,930,1338,0,0
-287,-314,0,0,0,0,0,0,0,0,0,-1,937,1338,0,0
-280,-314,0,0,0,0,0,0,0,0,0,-1,944,1338,0,0
-273,-314,0,0,0,0,0,0,0,0,0,-1,951,1338,0,0
-266,-314,0,0,0,0,0,0,0,0,0,-1,958,1338,0,0
-259,-314,0,0,0,0,0,0,0,0,0,-1,965,1338,0,0
-252,-314,0,0,0,0,0,0,0,0,0,-1,972,1338,0,0
-245,-314,0,0,0,0,0,0,0,0,0,-1,979,1338,0,0
-238,-314,0,0,0,0,0,0,0,0,0,-1,986,1338,0,0
-231,-314,0,0,0,0,0,0,0,0,0,-1,993,1338,0,0
-224,-314,0,0,0,0,0,0,0,0,0,-1,1000,1338,0,0
-217,-314,0,0,0,0,0,0,0,0,0,-1,1007,1338,0,0
-210,-314,0,0,0,0,0,0,0,0,0,-1,1014,1338,0,0
-203,-314,0,0,0,0,0,0,0,0,0,-1,1021,1338,0,0
-196,-314,0,0,0,0,0,0,0,0,0,-1,1028,1338,0,0
-189,-314,0,0,0,0,0,0,0,0,0,-1,1035,1338,0,0
-182,-314,0,0,0,0,0,0,0,0,0,-1,1042,1338,0,0
-175,-314,0,0,0,0,0,0,0,0,0,-1,1049,1338,0,0
-168,-314,0,0,0,0,0,0,0,0,0,-1,1056,1338,0,0
-161,-314,0,0,0,0,0,0,0,0,0,-1,1063,1338,0,0
-154,-314,0,0,0,0,0,0,0,0,0,-1,1070,1338,0,0
-147,-314,0,0,0,0,0,0,0,0,0,-1,1077,1338,0,0
-140,-314,0,0,0,0,0,0,0,0,0,-1,1084,1338,0,0
-133,-314,0,0,0,0,0,0,0,0,0,-1,1091,1338,0,0
-126,-314,0,0,0,0,0,0,0,0,0,-1,1098,1338,0,0
-119,-314,0,0,0,0,0,0,0,0,0,-1,1105,1338,0,0
-112,-314,0,0,0,0,0,0,0,0,0,-1,1112,1338,0,0
-105,-314,0,0,0,0,0,0,0,0,0,-1,1119,1338,0,0
-98,-314,0,0,0,0,0,0,0,0,0,-1,1126,1338,0,0
-91,-314,0,0,0,0,0,0,0,0,0,-1,1133,1338,0,0
-84,-314,0,0,0,0,0,0,0,0,0,-1,1140,1338,0,0
-77,-314,0,0,0,0,0,0,0,0,0,-1,1147,1338,0,0
-70,-314,0,0,0,0,0,0,0,0,0,-1,1154,1338,0,0
-63,-314,0,0,0,0,0,0,0,0,0,-1,1161,1338,0,0
-56,-314,0,0,0,0,0,0,0,0,0,-1,1168,1338,0,0
-49,-314,0,0,0,0,0,0,0,0,0,-1,1175,1338,0,0
-42,-314,0,0,0,0,0,0,0,0,0,-1,1182,1338,0,0
-35,-314,0,0,0,0,0,0,0,0,0,-1,1189,1338,0,0
-28,-314,0,0,0,0,0,0,0,0,0,-1,1196,1338,0,0
-21,-314,0,0,0,0,0,0,0,0,0,-1,1203,1338,0,0
-14,-314,0,0,0,0,0,0,0,0,0,-1,1210,1338,0,0
-7,-314,0,0,0,0,0,0,0,0,0,-1,1217,1338,0,0
0,-314,0,0,0,0,0,0,0,0,0,-1,1224,1338,0,0
7,-314,0,0,0,0,0,0,0,0,0,-1,1231,1338,0,0
14,-314,0,0,0,0,0,0,0,0,0,-1,1238,1338,0,0
21,-314,0,0,0,0,0,0,0,0,0,-1,1245,1338,0,0
28,-314,0,0,0,0,0,0,0,0,0,-1,1252,1338,0,0
35,-314,0,0,0,0,0,0,0,0,0,-1,1259,1338,0,0
42,-314,0,0,0,0,0,0,0,0,0,-1,1266,1338,0,0
49,-314,0,0,0,0,0,0,0,0,0,-1,1273,1338,0,0
56,-314,0,0,0,0,0,0,0,0,0,-1,1280,1338,0,0
63,-314,0,0,0,0,0,0,0,0,0,-1,1287,1338,0,0
70,-314,0,0,0,0,0,0,0,0,0,-1,1294,1338,0,0
77,-314,0,0,0,0,0,0,0,0,0,-1,1301,1338,0,0
84,-314,0,0,0,0,0,0,0,0,0,-1,1308,1338,0,0
91,-314,0,0,0,0,0,0,0,0,0,-1,1315,1338,0,0
98,-314,0,0,0,0,0,0,0,0,0,-1,1322,1338,0,0
105,-314,0,0,0,0,0,0,0,0,0,-1,1329,1338,0,0
112,-314,0,0,0,0,0,0,0,0,0,-1,1336,1338,0,0
119,-314,0,0,0,0,0,0,0,0,0,-1,1343,1338,0,0
126,-314,0,0,0,0,0,0,0,0,0,-1,1350,1338,0,0
133,-314,0,0,0,0,0,0,0,0,0,-1,1357,1338,0,0
140,-314,0,0,0,0,0,0,0,0,0,-1,1364,1338,0,0
147,-314,0,0,0,0,0,0,0,0,0,-1,1371,1338,0,0
154,-314,0,0,0,0,0,0,0,0,0,-1,1378,1338,0,0
161,-314,0,0,0,0,0,0,0,0,0,-1,1385,1338,0,0
168,-314,0,0,0,0,0,0,0,0,0,-1,1392,1338,0,0
175,-314,0,0,0,0,0,0,0,0,0,-1,1399,1338,0,0
182,-314,0,0,0,0,0,0,0,0,0,-1,1406,1338,0,0
189,-314,0,0,0,0,0,0,0,0,0,-1,1413,1338,0,0
196,-314,0,0,0,0,0,0,0,0,0,-1,1420,1338,0,0
203,-314,0,0,0,0,0,0,0,0,0,-1,1427,1338,0,0
210,-314,0,0,0,0,0,0,0,0,0,-1,1434,1338,0,0
217,-314,0,0,0,0,0,0,0,0,0,-1,1441,1338,0,0
224,-314,0,0,0,0,0,0,0,0,0,-1,1448,1338,0,0
231,-314,0,0,0,0,0,0,0,0,0,-1,1455,1338,0,0
238,-314,0,0,0,0,0,0,0,0,0,-1,1462,1338,0,0
245,-314,0,0,0,0,0,0,0,0,0,-1,1469,1338,0,0
252,-314,0,0,0,0,0,0,0,0,0,-1,1476,1338,0,0
259,-314,0,0,0,0,0,0,0,0,0,-1,1483,1338,0,0
266,-314,0,0,0,0,0,0,0,0,0,-1,1490,1338,0,0
273,-314,0,0,0,0,0,0,0,0,0,-1,1497,1338,0,0
280,-314,0,0,0,0,0,0,0,0,0,-1,1504,1338,0,0
287,-314,0,0,0,0,0,0,0,0,0,-1,1511,1338,0,0
294,-314,0,0,0,0,0,0,0,0,0,-1,1518,1338,0,0
301,-314,0,0,0,0,0,0,0,0,0,-1,1525,1338,0,0
308,-314,0,0,0,0,0,0,0,0,0,-1,1532,1338,0,0
315,-314,0,0,0,0,0,0,0,0,0,-1,1539,1338,0,0
322,-314,0,0,0,0,0,0,0,0,0,-1,1546,1338,0,0
329,-314,0,0,0,0,0,0,0,0,0,-1,1553,1338,0,0
336,-314,0,0,0,0,0,0,0,0,0,-1,1560,1338,0,0
343,-314,0,0,0,0,0,0,0,0,0,-1,1567,1338,0,0
350,-314,0,0,0,0,0,0,0,0,0,-1,1574,1338,0,0
357,-314,0,0,0,0,0,0,0,0,0,-1,1581,1338,0,0
364,-314,0,0,0,0,0,0,0,0,0,-1,1588,1338,0,0
371,-314,0,0,0,0,0,0,0,0,0,-1,1595,1338,0,0
378,-314,0,0,0,0,0,0,0,0,0,-1,1602,1338,0,0
385,-314,0,0,0,0,0,0,0,0,0,-1,1609,1338,0,0
392,-314,0,0,0,0,0,0,0,0,0,-1,1616,1338,0,0
399,-314,0,0,0,0,0,0,0,0,0,-1,1623,1338,0,0
406,-314,0,0,0,0,0,0,0,0,0,-1,1630,1338,0,0
413,-314,0,0,0,0,0,0,0,0,0,-1,1637,1338,0,0
420,-314,0,0,0,0,0,0,0,0,0,-1,1644,1338,0,0
427,-314,0,0,0,0,0,0,0,0,0,-1,1651,1338,0,0
434,-314,0,0,0,0,0,0,0,0,0,-1,1658,1338,0,0
441,-314,0,0,0,0,0,0,0,0,0,-1,1665,1338,0,0
448,-314,0,0,0,0,0,0,0,0,0,-1,1672,1338,0,0
455,-314,0,0,0,0,0,0,0,0,0,-1,1679,1338,0,0
462,-314,0,0,0,0,0,0,0,0,0,-1,1686,1338,0,0
469,-314,0,0,0,0,0,0,0,0,0,-1,1693,1338,0,0
476,-314,0,0,0,0,0,0,0,0,0,-1,1700,1338,0,0
483,-314,0,0,0,0,0,0,0,0,0,-1,1707,1338,0,0
490,-314,0,0,0,0,0,0,0,0,0,-1,1714,1338,0,0
497,-314,0,0,0,0,0,0,0,0,0,-1,1721,1338,0,0
504,-314,0,0,0,0,0,0,0,0,0,-1,1728,1338,0,0
511,-314,0,0,0,0,0,0,0,0,0,-1,1735,1338,0,0
518,-314,0,0,0,0,0,0,0,0,0,-1,1742,1338,0,0
525,-314,0,0,0,0,0,0,0,0,0,-1,1749,1338,0,0
532,-314,0,0,0,0,0,0,0,0,0,-1,1756,1338,0,0
539,-314,0,0,0,0,0,0,0,0,0,-1,1763,1338,0,0
546,-314,0,0,0,0,0,0,0,0,0,-1,1770,1338,0,0
553,-314,0,0,0,0,0,0,0,0,0,-1,1777,1338,0,0
560,-314,0,0,0,0,0,0,0,0,0,-1,1784,1338,0,0
567,-314,0,0,0,0,0,0,0,0,0,-1,1791,1338,0,0
574,-314,0,0,0,0,0,0,0,0,0,-1,1798,1338,0,0
581,-314,66.1637,1.86658,0,0,0,0,0,0,0,-1,1805,1338,66.1637,-1.86663
588,-314,66.4303,1.43481,0,0,0,0,0,0,0,-1,1812,1338,66.4303,-1.43487
595,-314,66.7465,0.982788,0,0,0,0,0,0,0,-1,1819,1338,66.7464,-0.982795
602,-314,66.322,1.38416,0,0,0,0,0,0,0,-1,1826,1338,66.322,-1.3842
609,-314,60.2225,1.27014,0,0,0,0,0,0,0,-1,1833,1338,60.2225,-1.27017
616,-314,48.1149,3.005,0,0,0,0,0,0,0,-1,1840,1338,48.1149,-3.00505
623,-314,38.7728,2.71741,0,0,0,0,0,0,0,-1,1847,1338,38.7728,-2.71737
630,-314,29.4308,6.23206,0,0,0,0,0,0,0,-1,1854,1338,29.4308,-6.23202
637,-314,22.1349,5.16418,0,0,0,0,0,0,0,-1,1861,1338,22.1349,-5.16414
644,-314,18.7517,6.2605,0,0,0,0,0,0,0,-1,1868,1338,18.7517,-6.26053
651,-314,23.1317,8.005,0,0,0,0,0,0,0,-1,1875,1338,23.1317,-8.00506
658,-314,48.3048,18.4153,0,0,0,0,0,0,0,-1,1882,1338,48.3048,-18.4153
665,-314,48.2203,17.6769,0.00284705,0.000702639,-0.0045453,0.00644489,-0.0028952,-0.669569,0.00552079,0.0473489,1889,1338,48.2203,-17.6769
672,-314,48.2411,16.9197,0.00206157,0.000140537,-0.00259218,0.00386547,-0.00166336,-0.607969,0.00327538,0.0155295,1896,1338,48.241,-16.9196
679,-314,48.2076,16.1262,0.00174919,0.000165216,-0.000984282,0.00222055,-0.000306149,-0.446619,0.00159226,0.0114095,1903,1338,48.2077,-16.1262
686,-314,48.1394,15.3385,0.00172976,-6.62116e-05,-0.000502525,0.00186081,-0.000197259,-0.255097,0.00131125,0.0133706,1910,1338,48.1394,-15.3385
693,-314,48.0922,14.5289,0.00167541,4.8868e-05,-0.000364162,0.00175322,-2.8941e-05,-0.210501,0.00117858,0.0135016,1917,1338,48.0922,-14.5289
700,-314,48.0898,13.7289,0.00166132,0.000165133,-0.00022707,0.00169502,0.000131431,-0.147347,0.00108885,0.0151952,1924,1338,48.0898,-13.7289
707,-314,48.0692,12.9669,0.00166443,0.000312338,-8.92286e-05,0.00167029,0.000306475,-0.0656136,0.00102673,0.0150429,1931,1338,48.0692,-12.9669
714,-314,48.0239,12.2634,0.00166564,0.000465518,5.12963e-05,0.00166783,0.000463329,0.042639,0.000994109,0.0121401,1938,1338,48.0239,-12.2635
721,-314,47.9835,11.5143,0.00171574,0.00055986,0.000216177,0.00175484,0.000520752,0.178968,0.00104069,0.026029,1945,1338,47.9836,-11.5143
728,-314,48.1855,11.0153,0,0,0,0,0,0,0,-1,1952,1338,48.1856,-11.0153
735,-314,26.3665,6.21582,0,0,0,0,0,0,0,-1,1959,1338,26.3664,-6.21581
742,-314,26.2235,6.0166,0,0,0,0,0,0,0,-1,1966,1338,26.2235,-6.01662
749,-314,26.2223,5.47046,0,0,0,0,0,0,0,-1,1973,1338,26.2223,-5.47041
756,-314,24.2521,5.93408,0,0,0,0,0,0,0,-1,1980,1338,24.252,-5.93413
763,-314,19.2207,4.07239,0,0,0,0,0,0,0,-1,1987,1338,19.2206,-4.07239
770,-314,0,0,0,0,0,0,0,0,0,-1,1994,1338,0,0
777,-314,0,0,0,0,0,0,0,0,0,-1,2001,1338,0,0
784,-314,0,0,0,0,0,0,0,0,0,-1,2008,1338,0,0
791,-314,0,0,0,0,0,0,0,0,0,-1,2015,1338,0,0
798,-314,0,0,0,0,0,0,0,0,0,-1,2022,1338,0,0
805,-314,0,0,0,0,0,0,0,0,0,-1,2029,1338,0,0
812,-314,0,0,0,0,0,0,0,0,0,-1,2036,1338,0,0
-700,-321,0,0,0,0,0,0,0,0,0,-1,524,1345,0,0
-693,-321,0,0,0,0,0,0,0,0,0,-1,531,1345,0,0
-686,-321,0,0,0,0,0,0,0,0,0,-1,538,1345,0,0
-679,-321,0,0,0,0,0,0,0,0,0,-1,545,1345,0,0
-672,-321,0,0,0,0,0,0,0,0,0,-1,552,1345,0,0
-665,-321,0,0,0,0,0,0,0,0,0,-1,559,1345,0,0
-658,-321,0,0,0,0,0,0,0,0,0,-1,566,1345,0,0
-651,-321,0,0,0,0,0,0,0,0,0,-1,573,1345,0,0
-644,-321,-58.7329,10.2313,0,0,0,0,0,0,0,-1,580,1345,-58.7329,-10.2313
-637,-321,-59.9981,9.06421,0,0,0,0,0,0,0,-1,587,1345,-59.9981,-9.06417
-630,-321,-61.377,8.07166,0,0,0,0,0,0,0,-1,594,1345,-61.3769,-8.07168
-623,-321,-13.2242,3.14148,0,0,0,0,0,0,0,-1,601,1345,-13.2243,-3.14146
-616,-321,-11.6754,3.13794,0,0,0,0,0,0,0,-1,608,1345,-11.6754,-3.13789
-609,-321,-7.95209,1.14758,0,0,0,0,0,0,0,-1,615,1345,-7.95208,-1.14757
-602,-321,-8.85791,2.50049,0,0,0,0,0,0,0,-1,622,1345,-8.85791,-2.50048
-595,-321,-19.8463,5.36584,0,0,0,0,0,0,0,-1,629,1345,-19.8462,-5.36589
-588,-321,-30.5525,10.6078,0,0,0,0,0,0,0,-1,636,1345,-30.5525,-10.6078
-581,-321,-30.4785,11.4856,0.00295197,0.0023822,0.00129568,0.00399372,0.00134046,0.677183,0.00234693,0.0145709,643,1345,-30.4785,-11.4856
-574,-321,-30.5433,12.2968,0.00275966,0.00181165,0.00116561,0.00354396,0.00102735,0.592281,0.00210547,0.0153305,650,1345,-30.5433,-12.2968
-567,-321,-30.5573,13.12,0.00281956,0.00132902,0.00118274,0.00347225,0.00067633,0.504262,0.00212557,0.0220261,657,1345,-30.5573,-13.12
-560,-321,-30.5798,13.9681,0.00312188,0.000901325,0.00133024,0.0037443,0.000278899,0.437643,0.00240862,0.0256177,664,1345,-30.5798,-13.9682
-553,-321,-30.5949,14.7889,0.00367354,0.000537982,0.00161491,0.00435651,-0.000144986,0.400102,0.00295386,0.02841,671,1345,-30.5949,-14.7889
-546,-321,-30.6857,15.583,0.0044754,0.000207523,0.00202143,0.00528083,-0.000597906,0.379165,0.00373584,0.0282067,678,1345,-30.6857,-15.583
-539,-321,-30.7378,16.3483,0.00555738,-4.67254e-05,0.00258494,0.0065676,-0.00105694,0.372558,0.00476991,0.0244889,685,1345,-30.7378,-16.3483
-532,-321,-30.5395,17.1946,0.00702304,-0.000232815,0.0033104,0.00830639,-0.00151616,0.369833,0.00610605,0.0366042,692,1345,-30.5395,-17.1946
-525,-321,-30.6544,18.0529,0,0,0,0,0,0,0,-1,699,1345,-30.6544,-18.0528
-518,-321,-10.3564,6.75696,0,0,0,0,0,0,0,-1,706,1345,-10.3564,-6.75694
-511,-321,-9.3302,5.29297,0,0,0,0,0,0,0,-1,713,1345,-9.33023,-5.29294
-504,-321,-10.4713,0.0145264,0,0,0,0,0,0,0,-1,720,1345,-10.4713,-0.0145296
-497,-321,-9.96771,0.313599,0,0,0,0,0,0,0,-1,727,1345,-9.96769,-0.313618
-490,-321,-10.7631,0.973511,0,0,0,0,0,0,0,-1,734,1345,-10.7631,-0.97353
-483,-321,-17.5908,0.2323,0,0,0,0,0,0,0,-1,741,1345,-17.5908,-0.232355
-476,-321,-17.2915,0.297363,0,0,0,0,0,0,0,-1,748,1345,-17.2915,-0.297342
-469,-321,-17.2441,0.478027,0,0,0,0,0,0,0,-1,755,1345,-17.2441,-0.477994
-462,-321,-17.1672,0.526489,0,0,0,0,0,0,0,-1,762,1345,-17.1672,-0.526533
-455,-321,0,0,0,0,0,0,0,0,0,-1,769,1345,0,0
-448,-321,0,0,0,0,0,0,0,0,0,-1,776,1345,0,0
-441,-321,0,0,0,0,0,0,0,0,0,-1,783,1345,0,0
-434,-321,0,0,0,0,0,0,0,0,0,-1,790,1345,0,0
-427,-321,0,0,0,0,0,0,0,0,0,-1,797,1345,0,0
-420,-321,0,0,0,0,0,0,0,0,0,-1,804,1345,0,0
-413,-321,0,0,0,0,0,0,0,0,0,-1,811,1345,0,0
-406,-321,0,0,0,0,0,0,0,0,0,-1,818,1345,0,0
-399,-321,0,0,0,0,0,0,0,0,0,-1,825,1345,0,0
-392,-321,0,0,0,0,0,0,0,0,0,-1,832,1345,0,0
-385,-321,0,0,0,0,0,0,0,0,0,-1,839,1345,0,0
-378,-321,0,0,0,0,0,0,0,0,0,-1,846,1345,0,0
-371,-321,0,0,0,0,0,0,0,0,0,-1,853,1345,0,0
-364,-321,0,0,0,0,0,0,0,0,0,-1,860,1345,0,0
-357,-321,0,0,0,0,0,0,0,0,0,-1,867,1345,0,0
-350,-321,0,0,0,0,0,0,0,0,0,-1,874,1345,0,0
-343,-321,0,0,0,0,0,0,0,0,0,-1,881,1345,0,0
-336,-321,0,0,0,0,0,0,0,0,0,-1,888,1345,0,0
-329,-321,0,0,0,0,0,0,0,0,0,-1,895,1345,0,0
-322,-321,0,0,0,0,0,0,0,0,0,-1,902,1345,0,0
-315,-321,0,0,0,0,0,0,0,0,0,-1,909,1345,0,0
-308,-321,0,0,0,0,0,0,0,0,0,-1,916,1345,0,0
-301,-321,0,0,0,0,0,0,0,0,0,-1,923,1345,0,0
-294,-321,0,0,0,0,0,0,0,0,0,-1,930,1345,0,0
-287,-321,0,0,0,0,0,0,0,0,0,-1,937,1345,0,0
-280,-321,0,0,0,0,0,0,0,0,0,-1,944,1345,0,0
-273,-321,0,0,0,0,0,0,0,0,0,-1,951,1345,0,0
-266,-321,0,0,0,0,0,0,0,0,0,-1,958,1345,0,0
-259,-321,0,0,0,0,0,0,0,0,0,-1,965,1345,0,0
-252,-321,0,0,0,0,0,0,0,0,0,-1,972,1345,0,0
-245,-321,0,0,0,0,0,0,0,0,0,-1,979,1345,0,0
-238,-321,0,0,0,0,0,0,0,0,0,-1,986,1345,0,0
-231,-321,0,0,0,0,0,0,0,0,0,-1,993,1345,0,0
-224,-321,0,0,0,0,0,0,0,0,0,-1,1000,1345,0,0
-217,-321,0,0,0,0,0,0,0,0,0,-1,1007,1345,0,0
-210,-321,0,0,0,0,0,0,0,0,0,-1,1014,1345,0,0
-203,-321,0,0,0,0,0,0,0,0,0,-1,1021,1345,0,0
-196,-321,0,0,0,0,0,0,0,0,0,-1,1028,1345,0,0
-189,-321,0,0,0,0,0,0,0,0,0,-1,1035,1345,0,0
-182,-321,0,0,0,0,0,0,0,0,0,-1,1042,1345,0,0
-175,-321,0,0,0,0,0,0,0,0,0,-1,1049,1345,0,0
-168,-321,0,0,0,0,0,0,0,0,0,-1,1056,1345,0,0
-161,-321,0,0,0,0,0,0,0,0,0,-1,1063,1345,0,0
-154,-321,0,0,0,0,0,0,0,0,0,-1,1070,1345,0,0
-147,-321,0,0,0,0,0,0,0,0,0,-1,1077,1345,0,0
-140,-321,0,0,0,0,0,0,0,0,0,-1,1084,1345,0,0
-133,-321,0,0,0,0,0,0,0,0,0,-1,1091,1345,0,0
-126,-321,0,0,0,0,0,0,0,0,0,-1,1098,1345,0,0
-119,-321,0,0,0,0,0,0,0,0,0,-1,1105,1345,0,0
-112,-321,0,0,0,0,0,0,0,0,0,-1,1112,1345,0,0
-105,-321,0,0,0,0,0,0,0,0,0,-1,1119,1345,0,0
-98,-321,0,0,0,0,0,0,0,0,0,-1,1126,1345,0,0
-91,-321,0,0,0,0,0,0,0,0,0,-1,1133,1345,0,0
-84,-321,0,0,0,0,0,0,0,0,0,-1,1140,1345,0,0
-77,-321,0,0,0,0,0,0,0,0,0,-1,1147,1345,0,0
-70,-321,0,0,0,0,0,0,0,0,0,-1,1154,1345,0,0
-63,-321,0,0,0,0,0,0,0,0,0,-1,1161,1345,0,0
-56,-321,0,0,0,0,0,0,0,0,0,-1,1168,1345,0,0
-49,-321,0,0,0,0,0,0,0,0,0,-1,1175,1345,0,0
-42,-321,0,0,0,0,0,0,0,0,0,-1,1182,1345,0,0
-35,-321,0,0,0,0,0,0,0,0,0,-1,1189,1345,0,0
-28,-321,0,0,0,0,0,0,0,0,0,-1,1196,1345,0,0
-21,-321,0,0,0,0,0,0,0,0,0,-1,1203,1345,0,0
-14,-321,0,0,0,0,0,0,0,0,0,-1,1210,1345,0,0
-7,-321,0,0,0,0,0,0,0,0,0,-1,1217,1345,0,0
0,-321,0,0,0,0,0,0,0,0,0,-1,1224,1345,0,0
7,-321,0,0,0,0,0,0,0,0,0,-1,1231,1345,0,0
14,-321,0,0,0,0,0,0,0,0,0,-1,1238,1345,0,0
21,-321,0,0,0,0,0,0,0,0,0,-1,1245,1345,0,0
28,-321,0,0,0,0,0,0,0,0,0,-1,1252,1345,0,0
35,-321,0,0,0,0,0,0,0,0,0,-1,1259,1345,0,0
42,-321,0,0,0,0,0,0,0,0,0,-1,1266,1345,0,0
49,-321,0,0,0,0,0,0,0,0,0,-1,1273,1345,0,0
56,-321,0,0,0,0,0,0,0,0,0,-1,1280,1345,0,0
63,-321,0,0,0,0,0,0,0,0,0,-1,1287,1345,0,0
70,-321,0,0,0,0,0,0,0,0,0,-1,1294,1345,0,0
77,-321,0,0,0,0,0,0,0,0,0,-1,1301,1345,0,0
84,-321,0,0,0,0,0,0,0,0,0,-1,1308,1345,0,0
91,-321,0,0,0,0,0,0,0,0,0,-1,1315,1345,0,0
98,-321,0,0,0,0,0,0,0,0,0,-1,1322,1345,0,0
105,-321,0,0,0,0,0,0,0,0,0,-1,1329,1345,0,0
112,-321,0,0,0,0,0,0,0,0,0,-1,1336,1345,0,0
119,-321,0,0,0,0,0,0,0,0,0,-1,1343,1345,0,0
126,-321,0,0,0,0,0,0,0,0,0,-1,1350,1345,0,0
133,-321,0,0,0,0,0,0,0,0,0,-1,1357,1345,0,0
140,-321,0,0,0,0,0,0,0,0,0,-1,1364,1345,0,0
147,-321,0,0,0,0,0,0,0,0,0,-1,1371,1345,0,0
154,-321,0,0,0,0,0,0,0,0,0,-1,1378,1345,0,0
161,-321,0,0,0,0,0,0,0,0,0,-1,1385,1345,0,0
168,-321,0,0,0,0,0,0,0,0,0,-1,1392,1345,0,0
175,-321,0,0,0,0,0,0,0,0,0,-1,1399,1345,0,0
182,-321,0,0,0,0,0,0,0,0,0,-1,1406,1345,0,0
189,-321,0,0,0,0,0,0,0,0,0,-1,1413,1345,0,0
196,-321,0,0,0,0,0,0,0,0,0,-1,1420,1345,0,0
203,-321,0,0,0,0,0,0,0,0,0,-1,1427,1345,0,0
210,-321,0,0,0,0,0,0,0,0,0,-1,1434,1345,0,0
217,-321,0,0,0,0,0,0,0,0,0,-1,1441,1345,0,0
224,-321,0,0,0,0,0,0,0,0,0,-1,1448,1345,0,0
231,-321,0,0,0,0,0,0,0,0,0,-1,1455,1345,0,0
238,-321,0,0,0,0,0,0,0,0,0,-1,1462,1345,0,0
245,-321,0,0,0,0,0,0,0,0,0,-1,1469,1345,0,0
252,-321,0,0,0,0,0,0,0,0,0,-1,1476,1345,0,0
259,-321,0,0,0,0,0,0,0,0,0,-1,1483,1345,0,0
266,-321,0,0,0,0,0,0,0,0,0,-1,1490,1345,0,0
273,-321,0,0,0,0,0,0,0,0,0,-1,1497,1345,0,0
280,-321,0,0,0,0,0,0,0,0,0,-1,1504,1345,0,0
287,-321,0,0,0,0,0,0,0,0,0,-1,1511,1345,0,0
294,-321,0,0,0,0,0,0,0,0,0,-1,1518,1345,0,0
301,-321,0,0,0,0,0,0,0,0,0,-1,1525,1345,0,0
308,-321,0,0,0,0,0,0,0,0,0,-1,1532,1345,0,0
315,-321,0,0,0,0,0,0,0,0,0,-1,1539,1345,0,0
322,-321,0,0,0,0,0,0,0,0,0,-1,1546,1345,0,0
329,-321,0,0,0,0,0,0,0,0,0,-1,1553,1345,0,0
336,-321,0,0,0,0,0,0,0,0,0,-1,1560,1345,0,0
343,-321,0,0,0,0,0,0,0,0,0,-1,1567,1345,0,0
350,-321,0,0,0,0,0,0,0,0,0,-1,1574,1345,0,0
357,-321,0,0,0,0,0,0,0,0,0,-1,1581,1345,0,0
364,-321,0,0,0,0,0,0,0,0,0,-1,1588,1345,0,0
371,-321,0,0,0,0,0,0,0,0,0,-1,1595,1345,0,0
378,-321,0,0,0,0,0,0,0,0,0,-1,1602,1345,0,0
385,-321,0,0,0,0,0,0,0,0,0,-1,1609,1345,0,0
392,-321,0,0,0,0,0,0,0,0,0,-1,1616,1345,0,0
399,-321,0,0,0,0,0,0,0,0,0,-1,1623,1345,0,0
406,-321,0,0,0,0,0,0,0,0,0,-1,1630,1345,0,0
413,-321,0,0,0,0,0,0,0,0,0,-1,1637,1345,0,0
420,-321,0,0,0,0,0,0,0,0,0,-1,1644,1345,0,0
427,-321,0,0,0,0,0,0,0,0,0,-1,1651,1345,0,0
434,-321,0,0,0,0,0,0,0,0,0,-1,1658,1345,0,0
441,-321,0,0,0,0,0,0,0,0,0,-1,1665,1345,0,0
448,-321,0,0,0,0,0,0,0,0,0,-1,1672,1345,0,0
455,-321,0,0,0,0,0,0,0,0,0,-1,1679,1345,0,0
462,-321,0,0,0,0,0,0,0,0,0,-1,1686,1345,0,0
469,-321,0,0,0,0,0,0,0,0,0,-1,1693,1345,0,0
476,-321,0,0,0,0,0,0,0,0,0,-1,1700,1345,0,0
483,-321,0,0,0,0,0,0,0,0,0,-1,1707,1345,0,0
490,-321,0,0,0,0,0,0,0,0,0,-1,1714,1345,0,0
497,-321,0,0,0,0,0,0,0,0,0,-1,1721,1345,0,0
504,-321,0,0,0,0,0,0,0,0,0,-1,1728,1345,0,0
511,-321,0,0,0,0,0,0,0,0,0,-1,1735,1345,0,0
518,-321,0,0,0,0,0,0,0,0,0,-1,1742,1345,0,0
525,-321,0,0,0,0,0,0,0,0,0,-1,1749,1345,0,0
532,-321,0,0,0,0,0,0,0,0,0,-1,1756,1345,0,0
539,-321,0,0,0,0,0,0,0,0,0,-1,1763,1345,0,0
546,-321,0,0,0,0,0,0,0,0,0,-1,1770,1345,0,0
553,-321,0,0,0,0,0,0,0,0,0,-1,1777,1345,0,0
560,-321,0,0,0,0,0,0,0,0,0,-1,1784,1345,0,0
567,-321,0,0,0,0,0,0,0,0,0,-1,1791,1345,0,0
574,-321,0,0,0,0,0,0,0,0,0,-1,1798,1345,0,0
581,-321,66.1073,1.6543,0,0,0,0,0,0,0,-1,1805,1345,66.1073,-1.65427
588,-321,66.6576,0.7948,0,0,0,0,0,0,0,-1,1812,1345,66.6575,-0.794774
595,-321,67.2585,-0.216431,0,0,0,0,0,0,0,-1,1819,1345,67.2586,0.216484
602,-321,60.3523,1.24133,0,0,0,0,0,0,0,-1,1826,1345,60.3523,-1.2413
609,-321,48.311,3.39575,0,0,0,0,0,0,0,-1,1833,1345,48.311,-3.39571
616,-321,37.8107,2.58704,0,0,0,0,0,0,0,-1,1840,1345,37.8106,-2.58705
623,-321,37.6854,3.68933,0,0,0,0,0,0,0,-1,1847,1345,37.6854,-3.68931
630,-321,23.6674,4.34106,0,0,0,0,0,0,0,-1,1854,1345,23.6674,-4.34112
637,-321,21.7925,6.79224,0,0,0,0,0,0,0,-1,1861,1345,21.7925,-6.7922
644,-321,16.8844,6.71973,0,0,0,0,0,0,0,-1,1868,1345,16.8844,-6.71971
651,-321,27.4924,10.0319,0,0,0,0,0,0,0,-1,1875,1345,27.4924,-10.0319
658,-321,47.3549,18.5358,0,0,0,0,0,0,0,-1,1882,1345,47.3548,-18.5358
665,-321,47.4305,17.7633,0.00265151,0.000130275,-0.00307346,0.00471284,-0.00193105,-0.59078,0.00394634,0.0315733,1889,1345,47.4305,-17.7632
672,-321,47.4659,16.9696,0.00197523,-0.000153919,-0.00166355,0.00288568,-0.00106437,-0.500762,0.00235999,0.01479,1896,1345,47.4659,-16.9696
679,-321,47.4379,16.1732,0.00173407,7.8202e-07,-0.000734,0.00200313,-0.00026828,-0.351359,0.00143324,0.0130945,1903,1345,47.4378,-16.1732
686,-321,47.3607,15.3734,0.00174799,-8.16062e-06,-0.00052197,0.00189142,-0.000151588,-0.268163,0.00131439,0.0136638,1910,1345,47.3607,-15.3734
693,-321,47.3037,14.5894,0.00177039,0.000142346,-0.000465464,0.00189408,1.86645e-05,-0.259715,0.00125654,0.0127569,1917,1345,47.3037,-14.5893
700,-321,47.3173,13.797,0.0018317,0.000308938,-0.000406126,0.00193324,0.000207394,-0.245008,0.00122556,0.0132999,1924,1345,47.3173,-13.797
707,-321,47.3002,13.0323,0.00190256,0.000521578,-0.000347613,0.00198513,0.000439015,-0.233193,0.00120406,0.0157056,1931,1345,47.3002,-13.0323
714,-321,47.2374,12.2644,0.0019762,0.000773273,-0.000291134,0.00204296,0.000706517,-0.2254,0.00119805,0.0140681,1938,1345,47.2375,-12.2644
721,-321,47.1584,11.4799,0.00212307,0.00095855,-0.000181234,0.00215062,0.000930996,-0.150877,0.00124538,0.0412623,1945,1345,47.1585,-11.4799
728,-321,47.1595,10.7361,0,0,0,0,0,0,0,-1,1952,1345,47.1596,-10.7361
735,-321,22.0081,5.65479,0,0,0,0,0,0,0,-1,1959,1345,22.008,-5.65481
742,-321,24.5398,5.05725,0,0,0,0,0,0,0,-1,1966,1345,24.5398,-5.05729
749,-321,24.0675,5.4458,0,0,0,0,0,0,0,-1,1973,1345,24.0675,-5.44581
756,-321,19.6251,4.98315,0,0,0,0,0,0,0,-1,1980,1345,19.6251,-4.98311
763,-321,19.6747,4.61438,0,0,0,0,0,0,0,-1,1987,1345,19.6747,-4.61436
770,-321,0,0,0,0,0,0,0,0,0,-1,1994,1345,0,0
777,-321,0,0,0,0,0,0,0,0,0,-1,2001,1345,0,0
784,-321,0,0,0,0,0,0,0,0,0,-1,2008,1345,0,0
791,-321,0,0,0,0,0,0,0,0,0,-1,2015,1345,0,0
798,-321,0,0,0,0,0,0,0,0,0,-1,2022,1345,0,0
805,-321,0,0,0,0,0,0,0,0,0,-1,2029,1345,0,0
812,-321,0,0,0,0,0,0,0,0,0,-1,2036,1345,0,0
-700,-328,0,0,0,0,0,0,0,0,0,-1,524,1352,0,0
-693,-328,0,0,0,0,0,0,0,0,0,-1,531,1352,0,0
-686,-328,0,0,0,0,0,0,0,0,0,-1,538,1352,0,0
-679,-328,0,0,0,0,0,0,0,0,0,-1,545,1352,0,0
-672,-328,0,0,0,0,0,0,0,0,0,-1,552,1352,0,0
-665,-328,0,0,0,0,0,0,0,0,0,-1,559,1352,0,0
-658,-328,0,0,0,0,0,0,0,0,0,-1,566,1352,0,0
-651,-328,0,0,0,0,0,0,0,0,0,-1,573,1352,0,0
-644,-328,0,0,0,0,0,0,0,0,0,-1,580,1352,0,0
-637,-328,-61.3883,10.1125,0,0,0,0,0,0,0,-1,587,1352,-61.3883,-10.1126
-630,-328,-62.8012,9.14563,0,0,0,0,0,0,0,-1,594,1352,-62.8012,-9.14564
-623,-328,-10.7739,4.55042,0,0,0,0,0,0,0,-1,601,1352,-10.7739,-4.55041
-616,-328,-8.22198,-0.25708,0,0,0,0,0,0,0,-1,608,1352,-8.22201,0.257067
-609,-328,-7.87439,0.192871,0,0,0,0,0,0,0,-1,615,1352,-7.87441,-0.192822
-602,-328,-7.63062,1.31665,0,0,0,0,0,0,0,-1,622,1352,-7.63064,-1.3166
-595,-328,-9.42639,2.93494,0,0,0,0,0,0,0,-1,629,1352,-9.42638,-2.93499
-588,-328,-29.751,10.4283,0,0,0,0,0,0,0,-1,636,1352,-29.751,-10.4283
-581,-328,-29.675,11.4697,0.00355074,0.00298828,0.00168041,0.00497329,0.00156573,0.702487,0.00293623,0.028016,643,1352,-29.675,-11.4697
-574,-328,-29.7038,12.3445,0.0031369,0.00230106,0.001463,0.0042405,0.00119746,0.646274,0.00252436,0.0147505,650,1352,-29.7038,-12.3445
-567,-328,-29.7465,13.1727,0.00302136,0.0017502,0.00141146,0.00393374,0.000837813,0.573847,0.00239263,0.0203414,657,1352,-29.7465,-13.1728
-560,-328,-29.787,14.0374,0.00316108,0.0012691,0.00148382,0.0039748,0.000455367,0.501616,0.00251188,0.0281946,664,1352,-29.787,-14.0373
-553,-328,-29.7941,14.8704,0.00353623,0.000848681,0.00167483,0.00433973,4.51808e-05,0.447317,0.00287821,0.0297512,671,1352,-29.7941,-14.8704
-546,-328,-29.842,15.6436,0.00415417,0.000479557,0.00197812,0.00501662,-0.00038289,0.411144,0.00347907,0.0282412,678,1352,-29.8421,-15.6436
-539,-328,-29.9066,16.4003,0.00501143,0.000171161,0.00240494,0.00600316,-0.000820567,0.391125,0.00430179,0.0236798,685,1352,-29.9066,-16.4002
-532,-328,-29.9117,17.2377,0.00616278,-8.27734e-05,0.00295178,0.00733706,-0.00125706,0.378628,0.00535976,0.0193559,692,1352,-29.9117,-17.2376
-525,-328,-29.9495,18.1365,0.00756657,-0.000403388,0.00358493,0.0089418,-0.00177861,0.3663,0.00663402,0.0342737,699,1352,-29.9495,-18.1365
-518,-328,-30.1194,19.0416,0,0,0,0,0,0,0,-1,706,1352,-30.1194,-19.0416
-511,-328,-9.39868,7.16113,0,0,0,0,0,0,0,-1,713,1352,-9.39869,-7.16113
-504,-328,-8.60626,-0.905762,0,0,0,0,0,0,0,-1,720,1352,-8.60623,0.905787
-497,-328,-9.29102,-0.0517578,0,0,0,0,0,0,0,-1,727,1352,-9.29104,0.0518175
-490,-328,-10.0663,0.882813,0,0,0,0,0,0,0,-1,734,1352,-10.0663,-0.882795
-483,-328,-10.8181,1.72375,0,0,0,0,0,0,0,-1,741,1352,-10.8181,-1.72374
-476,-328,-16.8951,-0.150757,0,0,0,0,0,0,0,-1,748,1352,-16.8951,0.150795
-469,-328,-16.8412,0.00158691,0,0,0,0,0,0,0,-1,755,1352,-16.8412,-0.00161515
-462,-328,-16.3546,-0.203491,0,0,0,0,0,0,0,-1,762,1352,-16.3545,0.203532
-455,-328,0,0,0,0,0,0,0,0,0,-1,769,1352,0,0
-448,-328,0,0,0,0,0,0,0,0,0,-1,776,1352,0,0
-441,-328,0,0,0,0,0,0,0,0,0,-1,783,1352,0,0
-434,-328,0,0,0,0,0,0,0,0,0,-1,790,1352,0,0
-427,-328,0,0,0,0,0,0,0,0,0,-1,797,1352,0,0
-420,-328,0,0,0,0,0,0,0,0,0,-1,804,1352,0,0
-413,-328,0,0,0,0,0,0,0,0,0,-1,811,1352,0,0
-406,-328,0,0,0,0,0,0,0,0,0,-1,818,1352,0,0
-399,-328,0,0,0,0,0,0,0,0,0,-1,825,1352,0,0
-392,-328,0,0,0,0,0,0,0,0,0,-1,832,1352,0,0
-385,-328,0,0,0,0,0,0,0,0,0,-1,839,1352,0,0
-378,-328,0,0,0,0,0,0,0,0,0,-1,846,1352,0,0
-371,-328,0,0,0,0,0,0,0,0,0,-1,853,1352,0,0
-364,-328,0,0,0,0,0,0,0,0,0,-1,860,1352,0,0
-357,-328,0,0,0,0,0,0,0,0,0,-1,867,1352,0,0
-350,-328,0,0,0,0,0,0,0,0,0,-1,874,1352,0,0
-343,-328,0,0,0,0,0,0,0,0,0,-1,881,1352,0,0
-336,-328,0,0,0,0,0,0,0,0,0,-1,888,1352,0,0
-329,-328,0,0,0,0,0,0,0,0,0,-1,895,1352,0,0
-322,-328,0,0,0,0,0,0,0,0,0,-1,902,1352,0,0
-315,-328,0,0,0,0,0,0,0,0,0,-1,909,1352,0,0
-308,-328,0,0,0,0,0,0,0,0,0,-1,916,1352,0,0
-301,-328,0,0,0,0,0,0,0,0,0,-1,923,1352,0,0
-294,-328,0,0,0,0,0,0,0,0,0,-1,930,1352,0,0
-287,-328,0,0,0,0,0,0,0,0,0,-1,937,1352,0,0
-280,-328,0,0,0,0,0,0,0,0,0,-1,944,1352,0,0
-273,-328,0,0,0,0,0,0,0,0,0,-1,951,1352,0,0
-266,-328,0,0,0,0,0,0,0,0,0,-1,958,1352,0,0
-259,-328,0,0,0,0,0,0,0,0,0,-1,965,1352,0,0
-252,-328,0,0,0,0,0,0,0,0,0,-1,972,1352,0,0
-245,-328,0,0,0,0,0,0,0,0,0,-1,979,1352,0,0
-238,-328,0,0,0,0,0,0,0,0,0,-1,986,1352,0,0
-231,-328,0,0,0,0,0,0,0,0,0,-1,993,1352,0,0
-224,-328,0,0,0,0,0,0,0,0,0,-1,1000,1352,0,0
-217,-328,0,0,0,0,0,0,0,0,0,-1,1007,1352,0,0
-210,-328,0,0,0,0,0,0,0,0,0,-1,1014,1352,0,0
-203,-328,0,0,0,0,0,0,0,0,0,-1,1021,1352,0,0
-196,-328,0,0,0,0,0,0,0,0,0,-1,1028,1352,0,0
-189,-328,0,0,0,0,0,0,0,0,0,-1,1035,1352,0,0
-182,-328,0,0,0,0,0,0,0,0,0,-1,1042,1352,0,0
-175,-328,0,0,0,0,0,0,0,0,0,-1,1049,1352,0,0
-168,-328,0,0,0,0,0,0,0,0,0,-1,1056,1352,0,0
-161,-328,0,0,0,0,0,0,0,0,0,-1,1063,1352,0,0
-154,-328,0,0,0,0,0,0,0,0,0,-1,1070,1352,0,0
-147,-328,0,0,0,0,0,0,0,0,0,-1,1077,1352,0,0
-140,-328,0,0,0,0,0,0,0,0,0,-1,1084,1352,0,0
-133,-328,0,0,0,0,0,0,0,0,0,-1,1091,1352,0,0
-126,-328,0,0,0,0,0,0,0,0,0,-1,1098,1352,0,0
-119,-328,0,0,0,0,0,0,0,0,0,-1,1105,1352,0,0
-112,-328,0,0,0,0,0,0,0,0,0,-1,1112,1352,0,0
-105,-328,0,0,0,0,0,0,0,0,0,-1,1119,1352,0,0
-98,-328,0,0,0,0,0,0,0,0,0,-1,1126,1352,0,0
-91,-328,0,0,0,0,0,0,0,0,0,-1,1133,1352,0,0
-84,-328,0,0,0,0,0,0,0,0,0,-1,1140,1352,0,0
-77,-328,0,0,0,0,0,0,0,0,0,-1,1147,1352,0,0
-70,-328,0,0,0,0,0,0,0,0,0,-1,1154,1352,0,0
-63,-328,0,0,0,0,0,0,0,0,0,-1,1161,1352,0,0
-56,-328,0,0,0,0,0,0,0,0,0,-1,1168,1352,0,0
-49,-328,0,0,0,0,0,0,0,0,0,-1,1175,1352,0,0
-42,-328,0,0,0,0,0,0,0,0,0,-1,1182,1352,0,0
-35,-328,0,0,0,0,0,0,0,0,0,-1,1189,1352,0,0
-28,-328,0,0,0,0,0,0,0,0,0,-1,1196,1352,0,0
-21,-328,0,0,0,0,0,0,0,0,0,-1,1203,1352,0,0
-14,-328,0,0,0,0,0,0,0,0,0,-1,1210,1352,0,0
-7,-328,0,0,0,0,0,0,0,0,0,-1,1217,1352,0,0
0,-328,0,0,0,0,0,0,0,0,0,-1,1224,1352,0,0
7,-328,0,0,0,0,0,0,0,0,0,-1,1231,1352,0,0
14,-328,0,0,0,0,0,0,0,0,0,-1,1238,1352,0,0
21,-328,0,0,0,0,0,0,0,0,0,-1,1245,1352,0,0
28,-328,0,0,0,0,0,0,0,0,0,-1,1252,1352,0,0
35,-328,0,0,0,0,0,0,0,0,0,-1,1259,1352,0,0
42,-328,0,0,0,0,0,0,0,0,0,-1,1266,1352,0,0
49,-328,0,0,0,0,0,0,0,0,0,-1,1273,1352,0,0
56,-328,0,0,0,0,0,0,0,0,0,-1,1280,1352,0,0
63,-328,0,0,0,0,0,0,0,0,0,-1,1287,1352,0,0
70,-328,0,0,0,0,0,0,0,0,0,-1,1294,1352,0,0
77,-328,0,0,0,0,0,0,0,0,0,-1,1301,1352,0,0
84,-328,0,0,0,0,0,0,0,0,0,-1,1308,1352,0,0
91,-328,0,0,0,0,0,0,0,0,0,-1,1315,1352,0,0
98,-328,0,0,0,0,0,0,0,0,0,-1,1322,1352,0,0
105,-328,0,0,0,0,0,0,0,0,0,-1,1329,1352,0,0
112,-328,0,0,0,0,0,0,0,0,0,-1,1336,1352,0,0
119,-328,0,0,0,0,0,0,0,0,0,-1,1343,1352,0,0
126,-328,0,0,0,0,0,0,0,0,0,-1,1350,1352,0,0
133,-328,0,0,0,0,0,0,0,0,0,-1,1357,1352,0,0
140,-328,0,0,0,0,0,0,0,0,0,-1,1364,1352,0,0
147,-328,0,0,0,0,0,0,0,0,0,-1,1371,1352,0,0
154,-328,0,0,0,0,0,0,0,0,0,-1,1378,1352,0,0
161,-328,0,0,0,0,0,0,0,0,0,-1,1385,1352,0,0
168,-328,0,0,0,0,0,0,0,0,0,-1,1392,1352,0,0
175,-328,0,0,0,0,0,0,0,0,0,-1,1399,1352,0,0
182,-328,0,0,0,0,0,0,0,0,0,-1,1406,1352,0,0
189,-328,0,0,0,0,0,0,0,0,0,-1,1413,1352,0,0
196,-328,0,0,0,0,0,0,0,0,0,-1,1420,1352,0,0
203,-328,0,0,0,0,0,0,0,0,0,-1,1427,1352,0,0
210,-328,0,0,0,0,0,0,0,0,0,-1,1434,1352,0,0
217,-328,0,0,0,0,0,0,0,0,0,-1,1441,1352,0,0
224,-328,0,0,0,0,0,0,0,0,0,-1,1448,1352,0,0
231,-328,0,0,0,0,0,0,0,0,0,-1,1455,1352,0,0
238,-328,0,0,0,0,0,0,0,0,0,-1,1462,1352,0,0
245,-328,0,0,0,0,0,0,0,0,0,-1,1469,1352,0,0
252,-328,0,0,0,0,0,0,0,0,0,-1,1476,1352,0,0
259,-328,0,0,0,0,0,0,0,0,0,-1,1483,1352,0,0
266,-328,0,0,0,0,0,0,0,0,0,-1,1490,1352,0,0
273,-328,0,0,0,0,0,0,0,0,0,-1,1497,1352,0,0
280,-328,0,0,0,0,0,0,0,0,0,-1,1504,1352,0,0
287,-328,0,0,0,0,0,0,0,0,0,-1,1511,1352,0,0
294,-328,0,0,0,0,0,0,0,0,0,-1,1518,1352,0,0
301,-328,0,0,0,0,0,0,0,0,0,-1,1525,1352,0,0
308,-328,0,0,0,0,0,0,0,0,0,-1,1532,1352,0,0
315,-328,0,0,0,0,0,0,0,0,0,-1,1539,1352,0,0
322,-328,0,0,0,0,0,0,0,0,0,-1,1546,1352,0,0
329,-328,0,0,0,0,0,0,0,0,0,-1,1553,1352,0,0
336,-328,0,0,0,0,0,0,0,0,0,-1,1560,1352,0,0
343,-328,0,0,0,0,0,0,0,0,0,-1,1567,1352,0,0
350,-328,0,0,0,0,0,0,0,0,0,-1,1574,1352,0,0
357,-328,0,0,0,0,0,0,0,0,0,-1,1581,1352,0,0
364,-328,0,0,0,0,0,0,0,0,0,-1,1588,1352,0,0
371,-328,0,0,0,0,0,0,0,0,0,-1,1595,1352,0,0
378,-328,0,0,0,0,0,0,0,0,0,-1,1602,1352,0,0
385,-328,0,0,0,0,0,0,0,0,0,-1,1609,1352,0,0
392,-328,0,0,0,0,0,0,0,0,0,-1,1616,1352,0,0
399,-328,0,0,0,0,0,0,0,0,0,-1,1623,1352,0,0
406,-328,0,0,0,0,0,0,0,0,0,-1,1630,1352,0,0
413,-328,0,0,0,0,0,0,0,0,0,-1,1637,1352,0,0
420,-328,0,0,0,0,0,0,0,0,0,-1,1644,1352,0,0
427,-328,0,0,0,0,0,0,0,0,0,-1,1651,1352,0,0
434,-328,0,0,0,0,0,0,0,0,0,-1,1658,1352,0,0
441,-328,0,0,0,0,0,0,0,0,0,-1,1665,1352,0,0
448,-328,0,0,0,0,0,0,0,0,0,-1,1672,1352,0,0
455,-328,0,0,0,0,0,0,0,0,0,-1,1679,1352,0,0
462,-328,0,0,0,0,0,0,0,0,0,-1,1686,1352,0,0
469,-328,0,0,0,0,0,0,0,0,0,-1,1693,1352,0,0
476,-328,0,0,0,0,0,0,0,0,0,-1,1700,1352,0,0
483,-328,0,0,0,0,0,0,0,0,0,-1,1707,1352,0,0
490,-328,0,0,0,0,0,0,0,0,0,-1,1714,1352,0,0
497,-328,0,0,0,0,0,0,0,0,0,-1,1721,1352,0,0
504,-328,0,0,0,0,0,0,0,0,0,-1,1728,1352,0,0
511,-328,0,0,0,0,0,0,0,0,0,-1,1735,1352,0,0
518,-328,0,0,0,0,0,0,0,0,0,-1,1742,1352,0,0
525,-328,0,0,0,0,0,0,0,0,0,-1,1749,1352,0,0
532,-328,0,0,0,0,0,0,0,0,0,-1,1756,1352,0,0
539,-328,0,0,0,0,0,0,0,0,0,-1,1763,1352,0,0
546,-328,0,0,0,0,0,0,0,0,0,-1,1770,1352,0,0
553,-328,0,0,0,0,0,0,0,0,0,-1,1777,1352,0,0
560,-328,0,0,0,0,0,0,0,0,0,-1,1784,1352,0,0
567,-328,0,0,0,0,0,0,0,0,0,-1,1791,1352,0,0
574,-328,65.0565,3.09021,0,0,0,0,0,0,0,-1,1798,1352,65.0565,-3.09019
581,-328,66.3988,1.74048,0,0,0,0,0,0,0,-1,1805,1352,66.3989,-1.74051
588,-328,67.0304,0.506714,0,0,0,0,0,0,0,-1,1812,1352,67.0304,-0.506669
595,-328,60.5831,1.52856,0,0,0,0,0,0,0,-1,1819,1352,60.5832,-1.52861
602,-328,48.7734,3.66785,0,0,0,0,0,0,0,-1,1826,1352,48.7734,-3.66782
609,-328,37.0468,1.17407,0,0,0,0,0,0,0,-1,1833,1352,37.0468,-1.17407
616,-328,36.999,2.42859,0,0,0,0,0,0,0,-1,1840,1352,36.999,-2.42862
623,-328,34.345,5.14722,0,0,0,0,0,0,0,-1,1847,1352,34.3449,-5.14718
630,-328,22.0211,5.026,0,0,0,0,0,0,0,-1,1854,1352,22.0212,-5.02603
637,-328,21.15,5.53699,0,0,0,0,0,0,0,-1,1861,1352,21.15,-5.53704
644,-328,16.9579,6.3396,0,0,0,0,0,0,0,-1,1868,1352,16.9579,-6.33959
651,-328,36.2629,14.6906,0,0,0,0,0,0,0,-1,1875,1352,36.263,-14.6905
658,-328,46.5861,18.6884,0,0,0,0,0,0,0,-1,1882,1352,46.586,-18.6884
665,-328,46.7292,17.786,0.00218105,-0.000106296,-0.00136826,0.00282067,-0.000745917,-0.437286,0.0021722,0.0161953,1889,1352,46.7293,-17.786
672,-328,46.6873,17.0027,0.00179348,-0.000170499,-0.000830813,0.00209778,-0.000474804,-0.351099,0.00158074,0.0126267,1896,1352,46.6873,-17.0027
679,-328,46.6581,16.2061,0.00170274,-1.99503e-05,-0.000562563,0.00187018,-0.000187387,-0.289283,0.00131371,0.0156622,1903,1352,46.6581,-16.206
686,-328,46.6045,15.4042,0.00182721,9.03672e-05,-0.00058179,0.00200408,-8.65032e-05,-0.295132,0.0013658,0.0162924,1910,1352,46.6045,-15.4042
693,-328,46.5463,14.6342,0.00199533,0.00027887,-0.000635555,0.00220504,6.91626e-05,-0.31871,0.00144752,0.0104502,1917,1352,46.5462,-14.6341
700,-328,46.5276,13.8441,0.00219492,0.000527443,-0.000703457,0.00245204,0.000270323,-0.350423,0.00155245,0.0140648,1924,1352,46.5276,-13.8442
707,-328,46.5208,13.0546,0.00239242,0.000834073,-0.00077602,0.00271294,0.000513557,-0.391685,0.00166407,0.0164476,1931,1352,46.5207,-13.0546
714,-328,46.4532,12.2621,0.00260107,0.00124656,-0.000883236,0.00303682,0.000810813,-0.45832,0.00181566,0.0169153,1938,1352,46.4533,-12.2621
721,-328,46.4008,11.3768,0,0,0,0,0,0,0,-1,1945,1352,46.4008,-11.3768
728,-328,29.2787,6.74695,0,0,0,0,0,0,0,-1,1952,1352,29.2787,-6.74693
735,-328,20.8927,5.23523,0,0,0,0,0,0,0,-1,1959,1352,20.8927,-5.23528
742,-328,20.3547,4.11316,0,0,0,0,0,0,0,-1,1966,1352,20.3547,-4.11321
749,-328,20.0669,5.66321,0,0,0,0,0,0,0,-1,1973,1352,20.0669,-5.66319
756,-328,19.9543,5.50464,0,0,0,0,0,0,0,-1,1980,1352,19.9543,-5.50463
763,-328,0,0,0,0,0,0,0,0,0,-1,1987,1352,0,0
770,-328,0,0,0,0,0,0,0,0,0,-1,1994,1352,0,0
777,-328,0,0,0,0,0,0,0,0,0,-1,2001,1352,0,0
784,-328,0,0,0,0,0,0,0,0,0,-1,2008,1352,0,0
791,-328,0,0,0,0,0,0,0,0,0,-1,2015,1352,0,0
798,-328,0,0,0,0,0,0,0,0,0,-1,2022,1352,0,0
805,-328,0,0,0,0,0,0,0,0,0,-1,2029,1352,0,0
812,-328,0,0,0,0,0,0,0,0,0,-1,2036,1352,0,0
-700,-335,0,0,0,0,0,0,0,0,0,-1,524,1359,0,0
-693,-335,0,0,0,0,0,0,0,0,0,-1,531,1359,0,0
-686,-335,0,0,0,0,0,0,0,0,0,-1,538,1359,0,0
-679,-335,0,0,0,0,0,0,0,0,0,-1,545,1359,0,0
-672,-335,0,0,0,0,0,0,0,0,0,-1,552,1359,0,0
-665,-335,0,0,0,0,0,0,0,0,0,-1,559,1359,0,0
-658,-335,0,0,0,0,0,0,0,0,0,-1,566,1359,0,0
-651,-335,0,0,0,0,0,0,0,0,0,-1,573,1359,0,0
-644,-335,0,0,0,0,0,0,0,0,0,-1,580,1359,0,0
-637,-335,-62.7114,11.0491,0,0,0,0,0,0,0,-1,587,1359,-62.7114,-11.0491
-630,-335,-64.2532,9.91284,0,0,0,0,0,0,0,-1,594,1359,-64.2532,-9.91285
-623,-335,-8.43304,1.09509,0,0,0,0,0,0,0,-1,601,1359,-8.43301,-1.09507
-616,-335,-7.80927,-0.485352,0,0,0,0,0,0,0,-1,608,1359,-7.80926,0.485291
-609,-335,-7.12256,-2.03601,0,0,0,0,0,0,0,-1,615,1359,-7.12253,2.03601
-602,-335,-9.39935,2.25146,0,0,0,0,0,0,0,-1,622,1359,-9.39935,-2.25145
-595,-335,-9.54767,3.01917,0,0,0,0,0,0,0,-1,629,1359,-9.54768,-3.01911
-588,-335,-29.0137,10.3333,0,0,0,0,0,0,0,-1,636,1359,-29.0137,-10.3333
-581,-335,-28.8519,11.5599,0.00422388,0.00349189,0.0019774,0.00586887,0.0018469,0.693889,0.00346509,0.0482545,643,1359,-28.8519,-11.56
-574,-335,-28.8841,12.3531,0.00354993,0.00271863,0.00169154,0.00487614,0.00139243,0.664923,0.00290026,0.0142041,650,1359,-28.8841,-12.3532
-567,-335,-28.894,13.2224,0.00322951,0.00210091,0.0015693,0.00433289,0.000997532,0.612804,0.00262016,0.017764,657,1359,-28.894,-13.2224
-560,-335,-28.919,14.0153,0.00318582,0.00155436,0.00155451,0.00412563,0.000614547,0.543772,0.00257018,0.025981,664,1359,-28.919,-14.0152
-553,-335,-28.9976,14.8259,0.00337991,0.0010693,0.0016488,0.00423787,0.000211334,0.479803,0.00275751,0.027566,671,1359,-28.9976,-14.8259
-546,-335,-29.0389,15.6548,0.00381456,0.000648074,0.0018512,0.00466722,-0.000204582,0.431631,0.00318186,0.0249384,678,1359,-29.0389,-15.6548
-539,-335,-29.0851,16.452,0.00447217,0.00028666,0.00216066,0.00538742,-0.000628591,0.400682,0.00381843,0.0205774,685,1359,-29.0851,-16.4521
-532,-335,-29.1479,17.3146,0.00538006,-8.11026e-06,0.00257761,0.00641453,-0.00104259,0.381654,0.0046629,0.0153278,692,1359,-29.1479,-17.3146
-525,-335,-29.1365,18.1661,0.00650707,-0.000317868,0.00307427,0.00768765,-0.00149844,0.366654,0.00569072,0.0133675,699,1359,-29.1364,-18.1661
-518,-335,-29.2728,18.8999,0,0,0,0,0,0,0,-1,706,1359,-29.2728,-18.8999
-511,-335,-17.3098,11.6718,0,0,0,0,0,0,0,-1,713,1359,-17.3097,-11.6717
-504,-335,-9.35767,5.99695,0,0,0,0,0,0,0,-1,720,1359,-9.35767,-5.99694
-497,-335,-8.75024,-0.650513,0,0,0,0,0,0,0,-1,727,1359,-8.75024,0.650521
-490,-335,-9.51971,0.417603,0,0,0,0,0,0,0,-1,734,1359,-9.51974,-0.41765
-483,-335,-10.2883,1.29224,0,0,0,0,0,0,0,-1,741,1359,-10.2883,-1.2922
-476,-335,-11.9938,-0.173462,0,0,0,0,0,0,0,-1,748,1359,-11.9938,0.173429
-469,-335,-12.8704,-0.204102,0,0,0,0,0,0,0,-1,755,1359,-12.8704,0.204117
-462,-335,-13.486,0.0218506,0,0,0,0,0,0,0,-1,762,1359,-13.4859,-0.0217908
-455,-335,-14.1504,0.549561,0,0,0,0,0,0,0,-1,769,1359,-14.1504,-0.549583
-448,-335,0,0,0,0,0,0,0,0,0,-1,776,1359,0,0
-441,-335,0,0,0,0,0,0,0,0,0,-1,783,1359,0,0
-434,-335,0,0,0,0,0,0,0,0,0,-1,790,1359,0,0
-427,-335,0,0,0,0,0,0,0,0,0,-1,797,1359,0,0
-420,-335,0,0,0,0,0,0,0,0,0,-1,804,1359,0,0
-413,-335,0,0,0,0,0,0,0,0,0,-1,811,1359,0,0
-406,-335,0,0,0,0,0,0,0,0,0,-1,818,1359,0,0
-399,-335,0,0,0,0,0,0,0,0,0,-1,825,1359,0,0
-392,-335,0,0,0,0,0,0,0,0,0,-1,832,1359,0,0
-385,-335,0,0,0,0,0,0,0,0,0,-1,839,1359,0,0
-378,-335,0,0,0,0,0,0,0,0,0,-1,846,1359,0,0
-371,-335,0,0,0,0,0,0,0,0,0,-1,853,1359,0,0
-364,-335,0,0,0,0,0,0,0,0,0,-1,860,1359,0,0
-357,-335,0,0,0,0,0,0,0,0,0,-1,867,1359,0,0
-350,-335,0,0,0,0,0,0,0,0,0,-1,874,1359,0,0
-343,-335,0,0,0,0,0,0,0,0,0,-1,881,1359,0,0
-336,-335,0,0,0,0,0,0,0,0,0,-1,888,1359,0,0
-329,-335,0,0,0,0,0,0,0,0,0,-1,895,1359,0,0
-322,-335,0,0,0,0,0,0,0,0,0,-1,902,1359,0,0
-315,-335,0,0,0,0,0,0,0,0,0,-1,909,1359,0,0
-308,-335,0,0,0,0,0,0,0,0,0,-1,916,1359,0,0
-301,-335,0,0,0,0,0,0,0,0,0,-1,923,1359,0,0
-294,-335,0,0,0,0,0,0,0,0,0,-1,930,1359,0,0
-287,-335,0,0,0,0,0,0,0,0,0,-1,937,1359,0,0
-280,-335,0,0,0,0,0,0,0,0,0,-1,944,1359,0,0
-273,-335,0,0,0,0,0,0,0,0,0,-1,951,1359,0,0
-266,-335,0,0,0,0,0,0,0,0,0,-1,958,1359,0,0
-259,-335,0,0,0,0,0,0,0,0,0,-1,965,1359,0,0
-252,-335,0,0,0,0,0,0,0,0,0,-1,972,1359,0,0
-245,-335,0,0,0,0,0,0,0,0,0,-1,979,1359,0,0
-238,-335,0,0,0,0,0,0,0,0,0,-1,986,1359,0,0
-231,-335,0,0,0,0,0,0,0,0,0,-1,993,1359,0,0
-224,-335,0,0,0,0,0,0,0,0,0,-1,1000,1359,0,0
-217,-335,0,0,0,0,0,0,0,0,0,-1,1007,1359,0,0
-210,-335,0,0,0,0,0,0,0,0,0,-1,1014,1359,0,0
-203,-335,0,0,0,0,0,0,0,0,0,-1,1021,1359,0,0
-196,-335,0,0,0,0,0,0,0,0,0,-1,1028,1359,0,0
-189,-335,0,0,0,0,0,0,0,0,0,-1,1035,1359,0,0
-182,-335,0,0,0,0,0,0,0,0,0,-1,1042,1359,0,0
-175,-335,0,0,0,0,0,0,0,0,0,-1,1049,1359,0,0
-168,-335,0,0,0,0,0,0,0,0,0,-1,1056,1359,0,0
-161,-335,0,0,0,0,0,0,0,0,0,-1,1063,1359,0,0
-154,-335,0,0,0,0,0,0,0,0,0,-1,1070,1359,0,0
-147,-335,0,0,0,0,0,0,0,0,0,-1,1077,1359,0,0
-140,-335,0,0,0,0,0,0,0,0,0,-1,1084,1359,0,0
-133,-335,0,0,0,0,0,0,0,0,0,-1,1091,1359,0,0
-126,-335,0,0,0,0,0,0,0,0,0,-1,1098,1359,0,0
-119,-335,0,0,0,0,0,0,0,0,0,-1,1105,1359,0,0
-112,-335,0,0,0,0,0,0,0,0,0,-1,1112,1359,0,0
-105,-335,0,0,0,0,0,0,0,0,0,-1,1119,1359,0,0
-98,-335,0,0,0,0,0,0,0,0,0,-1,1126,1359,0,0
-91,-335,0,0,0,0,0,0,0,0,0,-1,1133,1359,0,0
-84,-335,0,0,0,0,0,0,0,0,0,-1,1140,1359,0,0
-77,-335,0,0,0,0,0,0,0,0,0,-1,1147,1359,0,0
-70,-335,0,0,0,0,0,0,0,0,0,-1,1154,1359,0,0
-63,-335,0,0,0,0,0,0,0,0,0,-1,1161,1359,0,0
-56,-335,0,0,0,0,0,0,0,0,0,-1,1168,1359,0,0
-49,-335,0,0,0,0,0,0,0,0,0,-1,1175,1359,0,0
-42,-335,0,0,0,0,0,0,0,0,0,-1,1182,1359,0,0
-35,-335,0,0,0,0,0,0,0,0,0,-1,1189,1359,0,0
-28,-335,0,0,0,0,0,0,0,0,0,-1,1196,1359,0,0
-21,-335,0,0,0,0,0,0,0,0,0,-1,1203,1359,0,0
-14,-335,0,0,0,0,0,0,0,0,0,-1,1210,1359,0,0
-7,-335,0,0,0,0,0,0,0,0,0,-1,1217,1359,0,0
0,-335,0,0,0,0,0,0,0,0,0,-1,1224,1359,0,0
7,-335,0,0,0,0,0,0,0,0,0,-1,1231,1359,0,0
14,-335,0,0,0,0,0,0,0,0,0,-1,1238,1359,0,0
21,-335,0,0,0,0,0,0,0,0,0,-1,1245,1359,0,0
28,-335,0,0,0,0,0,0,0,0,0,-1,1252,1359,0,0
35,-335,0,0,0,0,0,0,0,0,0,-1,1259,1359,0,0
42,-335,0,0,0,0,0,0,0,0,0,-1,1266,1359,0,0
49,-335,0,0,0,0,0,0,0,0,0,-1,1273,1359,0,0
56,-335,0,0,0,0,0,0,0,0,0,-1,1280,1359,0,0
63,-335,0,0,0,0,0,0,0,0,0,-1,1287,1359,0,0
70,-335,0,0,0,0,0,0,0,0,0,-1,1294,1359,0,0
77,-335,0,0,0,0,0,0,0,0,0,-1,1301,1359,0,0
84,-335,0,0,0,0,0,0,0,0,0,-1,1308,1359,0,0
91,-335,0,0,0,0,0,0,0,0,0,-1,1315,1359,0,0
98,-335,0,0,0,0,0,0,0,0,0,-1,1322,1359,0,0
105,-335,0,0,0,0,0,0,0,0,0,-1,1329,1359,0,0
112,-335,0,0,0,0,0,0,0,0,0,-1,1336,1359,0,0
119,-335,0,0,0,0,0,0,0,0,0,-1,1343,1359,0,0
126,-335,0,0,0,0,0,0,0,0,0,-1,1350,1359,0,0
133,-335,0,0,0,0,0,0,0,0,0,-1,1357,1359,0,0
140,-335,0,0,0,0,0,0,0,0,0,-1,1364,1359,0,0
147,-335,0,0,0,0,0,0,0,0,0,-1,1371,1359,0,0
154,-335,0,0,0,0,0,0,0,0,0,-1,1378,1359,0,0
161,-335,0,0,0,0,0,0,0,0,0,-1,1385,1359,0,0
168,-335,0,0,0,0,0,0,0,0,0,-1,1392,1359,0,0
175,-335,0,0,0,0,0,0,0,0,0,-1,1399,1359,0,0
182,-335,0,0,0,0,0,0,0,0,0,-1,1406,1359,0,0
189,-335,0,0,0,0,0,0,0,0,0,-1,1413,1359,0,0
196,-335,0,0,0,0,0,0,0,0,0,-1,1420,1359,0,0
203,-335,0,0,0,0,0,0,0,0,0,-1,1427,1359,0,0
210,-335,0,0,0,0,0,0,0,0,0,-1,1434,1359,0,0
217,-335,0,0,0,0,0,0,0,0,0,-1,1441,1359,0,0
224,-335,0,0,0,0,0,0,0,0,0,-1,1448,1359,0,0
231,-335,0,0,0,0,0,0,0,0,0,-1,1455,1359,0,0
238,-335,0,0,0,0,0,0,0,0,0,-1,1462,1359,0,0
245,-335,0,0,0,0,0,0,0,0,0,-1,1469,1359,0,0
252,-335,0,0,0,0,0,0,0,0,0,-1,1476,1359,0,0
259,-335,0,0,0,0,0,0,0,0,0,-1,1483,1359,0,0
266,-335,0,0,0,0,0,0,0,0,0,-1,1490,1359,0,0
273,-335,0,0,0,0,0,0,0,0,0,-1,1497,1359,0,0
280,-335,0,0,0,0,0,0,0,0,0,-1,1504,1359,0,0
287,-335,0,0,0,0,0,0,0,0,0,-1,1511,1359,0,0
294,-335,0,0,0,0,0,0,0,0,0,-1,1518,1359,0,0
301,-335,0,0,0,0,0,0,0,0,0,-1,1525,1359,0,0
308,-335,0,0,0,0,0,0,0,0,0,-1,1532,1359,0,0
315,-335,0,0,0,0,0,0,0,0,0,-1,1539,1359,0,0
322,-335,0,0,0,0,0,0,0,0,0,-1,1546,1359,0,0
329,-335,0,0,0,0,0,0,0,0,0,-1,1553,1359,0,0
336,-335,0,0,0,0,0,0,0,0,0,-1,1560,1359,0,0
343,-335,0,0,0,0,0,0,0,0,0,-1,1567,1359,0,0
350,-335,0,0,0,0,0,0,0,0,0,-1,1574,1359,0,0
357,-335,0,0,0,0,0,0,0,0,0,-1,1581,1359,0,0
364,-335,0,0,0,0,0,0,0,0,0,-1,1588,1359,0,0
371,-335,0,0,0,0,0,0,0,0,0,-1,1595,1359,0,0
378,-335,0,0,0,0,0,0,0,0,0,-1,1602,1359,0,0
385,-335,0,0,0,0,0,0,0,0,0,-1,1609,1359,0,0
392,-335,0,0,0,0,0,0,0,0,0,-1,1616,1359,0,0
399,-335,0,0,0,0,0,0,0,0,0,-1,1623,1359,0,0
406,-335,0,0,0,0,0,0,0,0,0,-1,1630,1359,0,0
413,-335,0,0,0,0,0,0,0,0,0,-1,1637,1359,0,0
420,-335,0,0,0,0,0,0,0,0,0,-1,1644,1359,0,0
427,-335,0,0,0,0,0,0,0,0,0,-1,1651,1359,0,0
434,-335,0,0,0,0,0,0,0,0,0,-1,1658,1359,0,0
441,-335,0,0,0,0,0,0,0,0,0,-1,1665,1359,0,0
448,-335,0,0,0,0,0,0,0,0,0,-1,1672,1359,0,0
455,-335,0,0,0,0,0,0,0,0,0,-1,1679,1359,0,0
462,-335,0,0,0,0,0,0,0,0,0,-1,1686,1359,0,0
469,-335,0,0,0,0,0,0,0,0,0,-1,1693,1359,0,0
476,-335,0,0,0,0,0,0,0,0,0,-1,1700,1359,0,0
483,-335,0,0,0,0,0,0,0,0,0,-1,1707,1359,0,0
490,-335,0,0,0,0,0,0,0,0,0,-1,1714,1359,0,0
497,-335,0,0,0,0,0,0,0,0,0,-1,1721,1359,0,0
504,-335,0,0,0,0,0,0,0,0,0,-1,1728,1359,0,0
511,-335,0,0,0,0,0,0,0,0,0,-1,1735,1359,0,0
518,-335,0,0,0,0,0,0,0,0,0,-1,1742,1359,0,0
525,-335,0,0,0,0,0,0,0,0,0,-1,1749,1359,0,0
532,-335,0,0,0,0,0,0,0,0,0,-1,1756,1359,0,0
539,-335,0,0,0,0,0,0,0,0,0,-1,1763,1359,0,0
546,-335,0,0,0,0,0,0,0,0,0,-1,1770,1359,0,0
553,-335,0,0,0,0,0,0,0,0,0,-1,1777,1359,0,0
560,-335,0,0,0,0,0,0,0,0,0,-1,1784,1359,0,0
567,-335,0,0,0,0,0,0,0,0,0,-1,1791,1359,0,0
574,-335,65.0712,2.80188,0,0,0,0,0,0,0,-1,1798,1359,65.0712,-2.80193
581,-335,66.5206,1.60327,0,0,0,0,0,0,0,-1,1805,1359,66.5206,-1.60333
588,-335,67.826,0.334961,0,0,0,0,0,0,0,-1,1812,1359,67.8261,-0.335018
595,-335,49.984,3.76465,0,0,0,0,0,0,0,-1,1819,1359,49.984,-3.76467
602,-335,36.5643,0.0861816,0,0,0,0,0,0,0,-1,1826,1359,36.5643,-0.0862283
609,-335,36.2933,0.993896,0,0,0,0,0,0,0,-1,1833,1359,36.2934,-0.993911
616,-335,34.6969,4.82666,0,0,0,0,0,0,0,-1,1840,1359,34.6969,-4.82667
623,-335,26.6051,6.54333,0,0,0,0,0,0,0,-1,1847,1359,26.6051,-6.54339
630,-335,19.1707,1.00952,0,0,0,0,0,0,0,-1,1854,1359,19.1707,-1.00953
637,-335,18.2009,6.65454,0,0,0,0,0,0,0,-1,1861,1359,18.2009,-6.6546
644,-335,28.1042,12.067,0,0,0,0,0,0,0,-1,1868,1359,28.1042,-12.067
651,-335,45.8341,19.6226,0,0,0,0,0,0,0,-1,1875,1359,45.8341,-19.6226
658,-335,45.9354,18.6884,0.000950656,0.00047317,-0.00056744,0.00132753,9.62945e-05,-0.586271,0.000854732,0.0428237,1882,1359,45.9355,-18.6883
665,-335,45.9386,17.8268,0.00117124,7.23153e-05,-0.000421469,0.00131427,-7.07143e-05,-0.327165,0.000900675,0.0163279,1889,1359,45.9386,-17.8268
672,-335,45.8986,17.0291,0.00142221,-4.41902e-06,-0.000455632,0.00155531,-0.000137519,-0.284213,0.00108562,0.0176908,1896,1359,45.8985,-17.029
679,-335,45.8613,16.2533,0.0017093,4.54959e-05,-0.000529371,0.00186344,-0.000108653,-0.283356,0.00128005,0.0157266,1903,1359,45.8613,-16.2533
686,-335,45.8334,15.4424,0.00205351,0.000177649,-0.00065687,0.00226065,-2.94934e-05,-0.305477,0.00151703,0.0140214,1910,1359,45.8333,-15.4424
693,-335,45.7661,14.6611,0.0024477,0.000392786,-0.00083242,0.00274259,9.78997e-05,-0.340457,0.00179665,0.0109543,1917,1359,45.7661,-14.6612
700,-335,45.7195,13.9163,0.00286774,0.000688855,-0.00103574,0.00328151,0.000275086,-0.380067,0.00210198,0.011263,1924,1359,45.7195,-13.9163
707,-335,45.7025,13.1279,0.00328151,0.00105762,-0.00124947,0.00384217,0.000496963,-0.421786,0.00241291,0.0149458,1931,1359,45.7026,-13.1279
714,-335,45.6875,12.2065,0.0037425,0.00159204,-0.00154109,0.00454638,0.000788159,-0.480805,0.00280535,0.0358585,1938,1359,45.6875,-12.2065
721,-335,45.5857,11.2036,0,0,0,0,0,0,0,-1,1945,1359,45.5857,-11.2036
728,-335,20.8126,5.21167,0,0,0,0,0,0,0,-1,1952,1359,20.8127,-5.21172
735,-335,20.2725,5.34729,0,0,0,0,0,0,0,-1,1959,1359,20.2724,-5.34734
742,-335,19.8624,4.72229,0,0,0,0,0,0,0,-1,1966,1359,19.8624,-4.72225
749,-335,20.5887,6.05322,0,0,0,0,0,0,0,-1,1973,1359,20.5887,-6.05322
756,-335,20.7832,6.00452,0,0,0,0,0,0,0,-1,1980,1359,20.7832,-6.00447
763,-335,0,0,0,0,0,0,0,0,0,-1,1987,1359,0,0
770,-335,0,0,0,0,0,0,0,0,0,-1,1994,1359,0,0
777,-335,0,0,0,0,0,0,0,0,0,-1,2001,1359,0,0
784,-335,0,0,0,0,0,0,0,0,0,-1,2008,1359,0,0
791,-335,0,0,0,0,0,0,0,0,0,-1,2015,1359,0,0
798,-335,0,0,0,0,0,0,0,0,0,-1,2022,1359,0,0
805,-335,0,0,0,0,0,0,0,0,0,-1,2029,1359,0,0
812,-335,0,0,0,0,0,0,0,0,0,-1,2036,1359,0,0
-700,-342,0,0,0,0,0,0,0,0,0,-1,524,1366,0,0
-693,-342,0,0,0,0,0,0,0,0,0,-1,531,1366,0,0
-686,-342,0,0,0,0,0,0,0,0,0,-1,538,1366,0,0
-679,-342,0,0,0,0,0,0,0,0,0,-1,545,1366,0,0
-672,-342,0,0,0,0,0,0,0,0,0,-1,552,1366,0,0
-665,-342,0,0,0,0,0,0,0,0,0,-1,559,1366,0,0
-658,-342,0,0,0,0,0,0,0,0,0,-1,566,1366,0,0
-651,-342,0,0,0,0,0,0,0,0,0,-1,573,1366,0,0
-644,-342,0,0,0,0,0,0,0,0,0,-1,580,1366,0,0
-637,-342,-63.7546,12.2344,0,0,0,0,0,0,0,-1,587,1366,-63.7546,-12.2343
-630,-342,-8.60132,2.71777,0,0,0,0,0,0,0,-1,594,1366,-8.60135,-2.71779
-623,-342,-8.41168,0.662476,0,0,0,0,0,0,0,-1,601,1366,-8.41168,-0.662442
-616,-342,-6.625,-1.28015,0,0,0,0,0,0,0,-1,608,1366,-6.62499,1.28011
-609,-342,-7.83154,0.674561,0,0,0,0,0,0,0,-1,615,1366,-7.83155,-0.674598
-602,-342,-9.65765,2.25195,0,0,0,0,0,0,0,-1,622,1366,-9.65767,-2.25192
-595,-342,-9.47687,3.00671,0,0,0,0,0,0,0,-1,629,1366,-9.47686,-3.00668
-588,-342,-9.78467,3.57727,0,0,0,0,0,0,0,-1,636,1366,-9.78468,-3.57723
-581,-342,-28.2314,11.6412,0,0,0,0,0,0,0,-1,643,1366,-28.2314,-11.6412
-574,-342,-28.1219,12.4128,0.0042381,0.00316654,0.00202063,0.00579277,0.00161186,0.655802,0.00345235,0.0187358,650,1366,-28.1219,-12.4129
-567,-342,-28.0408,13.2441,0.00363818,0.00245169,0.00180813,0.0049479,0.00114197,0.626882,0.00299151,0.0185981,657,1366,-28.0408,-13.2442
-560,-342,-28.1299,14.0453,0.00335037,0.00182013,0.00167838,0.0044298,0.000740697,0.571537,0.00273988,0.0274104,664,1366,-28.1299,-14.0453
-553,-342,-28.2563,14.79,0.00330553,0.0012584,0.00164928,0.00422305,0.000340877,0.507679,0.0027089,0.0283458,671,1366,-28.2564,-14.79
-546,-342,-28.3228,15.5792,0.0034934,0.000779631,0.00172323,0.00432984,-5.68011e-05,0.45189,0.00290568,0.0274974,678,1366,-28.3228,-15.5793
-539,-342,-28.3259,16.4855,0.00389431,0.000367565,0.00188804,0.00471439,-0.000452508,0.409764,0.00330411,0.023628,685,1366,-28.326,-16.4855
-532,-342,-28.3358,17.3737,0.00451481,4.16383e-05,0.00215059,0.00538102,-0.000824571,0.382899,0.00389143,0.0179329,692,1366,-28.3357,-17.3737
-525,-342,-28.3232,18.2207,0.00532819,-0.000248003,0.00248932,0.00627777,-0.00119758,0.364422,0.00463622,0.0142638,699,1366,-28.3232,-18.2207
-518,-342,-28.3211,19.0336,0.00650934,-0.000262254,0.00294411,0.00761035,-0.00136326,0.357867,0.00558374,0.0450391,706,1366,-28.3211,-19.0335
-511,-342,-28.3396,19.826,0,0,0,0,0,0,0,-1,713,1366,-28.3396,-19.826
-504,-342,-8.95709,6.5719,0,0,0,0,0,0,0,-1,720,1366,-8.95707,-6.57192
-497,-342,-8.26587,-0.943604,0,0,0,0,0,0,0,-1,727,1366,-8.26586,0.943543
-490,-342,-9.07153,-0.0227051,0,0,0,0,0,0,0,-1,734,1366,-9.07155,0.0227087
-483,-342,-9.87726,0.898071,0,0,0,0,0,0,0,-1,741,1366,-9.87724,-0.898125
-476,-342,-11.6371,-0.736328,0,0,0,0,0,0,0,-1,748,1366,-11.6371,0.736281
-469,-342,-12.6245,-0.987549,0,0,0,0,0,0,0,-1,755,1366,-12.6245,0.987553
-462,-342,-13.0912,-0.533203,0,0,0,0,0,0,0,-1,762,1366,-13.0912,0.533224
-455,-342,-13.7612,0.122925,0,0,0,0,0,0,0,-1,769,1366,-13.7612,-0.122896
-448,-342,-14.5278,0.826904,0,0,0,0,0,0,0,-1,776,1366,-14.5277,-0.826861
-441,-342,0,0,0,0,0,0,0,0,0,-1,783,1366,0,0
-434,-342,0,0,0,0,0,0,0,0,0,-1,790,1366,0,0
-427,-342,0,0,0,0,0,0,0,0,0,-1,797,1366,0,0
-420,-342,0,0,0,0,0,0,0,0,0,-1,804,1366,0,0
-413,-342,0,0,0,0,0,0,0,0,0,-1,811,1366,0,0
-406,-342,0,0,0,0,0,0,0,0,0,-1,818,1366,0,0
-399,-342,0,0,0,0,0,0,0,0,0,-1,825,1366,0,0
-392,-342,0,0,0,0,0,0,0,0,0,-1,832,1366,0,0
-385,-342,0,0,0,0,0,0,0,0,0,-1,839,1366,0,0
-378,-342,0,0,0,0,0,0,0,0,0,-1,846,1366,0,0
-371,-342,0,0,0,0,0,0,0,0,0,-1,853,1366,0,0
-364,-342,0,0,0,0,0,0,0,0,0,-1,860,1366,0,0
-357,-342,0,0,0,0,0,0,0,0,0,-1,867,1366,0,0
-350,-342,0,0,0,0,0,0,0,0,0,-1,874,1366,0,0
-343,-342,0,0,0,0,0,0,0,0,0,-1,881,1366,0,0
-336,-342,0,0,0,0,0,0,0,0,0,-1,888,1366,0,0
-329,-342,0,0,0,0,0,0,0,0,0,-1,895,1366,0,0
-322,-342,0,0,0,0,0,0,0,0,0,-1,902,1366,0,0
-315,-342,0,0,0,0,0,0,0,0,0,-1,909,1366,0,0
-308,-342,0,0,0,0,0,0,0,0,0,-1,916,1366,0,0
-301,-342,0,0,0,0,0,0,0,0,0,-1,923,1366,0,0
-294,-342,0,0,0,0,0,0,0,0,0,-1,930,1366,0,0
-287,-342,0,0,0,0,0,0,0,0,0,-1,937,1366,0,0
-280,-342,0,0,0,0,0,0,0,0,0,-1,944,1366,0,0
-273,-342,0,0,0,0,0,0,0,0,0,-1,951,1366,0,0
-266,-342,0,0,0,0,0,0,0,0,0,-1,958,1366,0,0
-259,-342,0,0,0,0,0,0,0,0,0,-1,965,1366,0,0
-252,-342,0,0,0,0,0,0,0,0,0,-1,972,1366,0,0
-245,-342,0,0,0,0,0,0,0,0,0,-1,979,1366,0,0
-238,-342,0,0,0,0,0,0,0,0,0,-1,986,1366,0,0
-231,-342,0,0,0,0,0,0,0,0,0,-1,993,1366,0,0
-224,-342,0,0,0,0,0,0,0,0,0,-1,1000,1366,0,0
-217,-342,0,0,0,0,0,0,0,0,0,-1,1007,1366,0,0
-210,-342,0,0,0,0,0,0,0,0,0,-1,1014,1366,0,0
-203,-342,0,0,0,0,0,0,0,0,0,-1,1021,1366,0,0
-196,-342,0,0,0,0,0,0,0,0,0,-1,1028,1366,0,0
-189,-342,0,0,0,0,0,0,0,0,0,-1,1035,1366,0,0
-182,-342,0,0,0,0,0,0,0,0,0,-1,1042,1366,0,0
-175,-342,0,0,0,0,0,0,0,0,0,-1,1049,1366,0,0
-168,-342,0,0,0,0,0,0,0,0,0,-1,1056,1366,0,0
-161,-342,0,0,0,0,0,0,0,0,0,-1,1063,1366,0,0
-154,-342,0,0,0,0,0,0,0,0,0,-1,1070,1366,0,0
-147,-342,0,0,0,0,0,0,0,0,0,-1,1077,1366,0,0
-140,-342,0,0,0,0,0,0,0,0,0,-1,1084,1366,0,0
-133,-342,0,0,0,0,0,0,0,0,0,-1,1091,1366,0,0
-126,-342,0,0,0,0,0,0,0,0,0,-1,1098,1366,0,0
-119,-342,0,0,0,0,0,0,0,0,0,-1,1105,1366,0,0
-112,-342,0,0,0,0,0,0,0,0,0,-1,1112,1366,0,0
-105,-342,0,0,0,0,0,0,0,0,0,-1,1119,1366,0,0
-98,-342,0,0,0,0,0,0,0,0,0,-1,1126,1366,0,0
-91,-342,0,0,0,0,0,0,0,0,0,-1,1133,1366,0,0
-84,-342,0,0,0,0,0,0,0,0,0,-1,1140,1366,0,0
-77,-342,0,0,0,0,0,0,0,0,0,-1,1147,1366,0,0
-70,-342,0,0,0,0,0,0,0,0,0,-1,1154,1366,0,0
-63,-342,0,0,0,0,0,0,0,0,0,-1,1161,1366,0,0
-56,-342,0,0,0,0,0,0,0,0,0,-1,1168,1366,0,0
-49,-342,0,0,0,0,0,0,0,0,0,-1,1175,1366,0,0
-42,-342,0,0,0,0,0,0,0,0,0,-1,1182,1366,0,0
-35,-342,0,0,0,0,0,0,0,0,0,-1,1189,1366,0,0
-28,-342,0,0,0,0,0,0,0,0,0,-1,1196,1366,0,0
-21,-342,0,0,0,0,0,0,0,0,0,-1,1203,1366,0,0
-14,-342,0,0,0,0,0,0,0,0,0,-1,1210,1366,0,0
-7,-342,0,0,0,0,0,0,0,0,0,-1,1217,1366,0,0
0,-342,0,0,0,0,0,0,0,0,0,-1,1224,1366,0,0
7,-342,0,0,0,0,0,0,0,0,0,-1,1231,1366,0,0
14,-342,0,0,0,0,0,0,0,0,0,-1,1238,1366,0,0
21,-342,0,0,0,0,0,0,0,0,0,-1,1245,1366,0,0
28,-342,0,0,0,0,0,0,0,0,0,-1,1252,1366,0,0
35,-342,0,0,0,0,0,0,0,0,0,-1,1259,1366,0,0
42,-342,0,0,0,0,0,0,0,0,0,-1,1266,1366,0,0
49,-342,0,0,0,0,0,0,0,0,0,-1,1273,1366,0,0
56,-342,0,0,0,0,0,0,0,0,0,-1,1280,1366,0,0
63,-342,0,0,0,0,0,0,0,0,0,-1,1287,1366,0,0
70,-342,0,0,0,0,0,0,0,0,0,-1,1294,1366,0,0
77,-342,0,0,0,0,0,0,0,0,0,-1,1301,1366,0,0
84,-342,0,0,0,0,0,0,0,0,0,-1,1308,1366,0,0
91,-342,0,0,0,0,0,0,0,0,0,-1,1315,1366,0,0
98,-342,0,0,0,0,0,0,0,0,0,-1,1322,1366,0,0
105,-342,0,0,0,0,0,0,0,0,0,-1,1329,1366,0,0
112,-342,0,0,0,0,0,0,0,0,0,-1,1336,1366,0,0
119,-342,0,0,0,0,0,0,0,0,0,-1,1343,1366,0,0
126,-342,0,0,0,0,0,0,0,0,0,-1,1350,1366,0,0
133,-342,0,0,0,0,0,0,0,0,0,-1,1357,1366,0,0
140,-342,0,0,0,0,0,0,0,0,0,-1,1364,1366,0,0
147,-342,0,0,0,0,0,0,0,0,0,-1,1371,1366,0,0
154,-342,0,0,0,0,0,0,0,0,0,-1,1378,1366,0,0
161,-342,0,0,0,0,0,0,0,0,0,-1,1385,1366,0,0
168,-342,0,0,0,0,0,0,0,0,0,-1,1392,1366,0,0
175,-342,0,0,0,0,0,0,0,0,0,-1,1399,1366,0,0
182,-342,0,0,0,0,0,0,0,0,0,-1,1406,1366,0,0
189,-342,0,0,0,0,0,0,0,0,0,-1,1413,1366,0,0
196,-342,0,0,0,0,0,0,0,0,0,-1,1420,1366,0,0
203,-342,0,0,0,0,0,0,0,0,0,-1,1427,1366,0,0
210,-342,0,0,0,0,0,0,0,0,0,-1,1434,1366,0,0
217,-342,0,0,0,0,0,0,0,0,0,-1,1441,1366,0,0
224,-342,0,0,0,0,0,0,0,0,0,-1,1448,1366,0,0
231,-342,0,0,0,0,0,0,0,0,0,-1,1455,1366,0,0
238,-342,0,0,0,0,0,0,0,0,0,-1,1462,1366,0,0
245,-342,0,0,0,0,0,0,0,0,0,-1,1469,1366,0,0
252,-342,0,0,0,0,0,0,0,0,0,-1,1476,1366,0,0
259,-342,0,0,0,0,0,0,0,0,0,-1,1483,1366,0,0
266,-342,0,0,0,0,0,0,0,0,0,-1,1490,1366,0,0
273,-342,0,0,0,0,0,0,0,0,0,-1,1497,1366,0,0
280,-342,0,0,0,0,0,0,0,0,0,-1,1504,1366,0,0
287,-342,0,0,0,0,0,0,0,0,0,-1,1511,1366,0,0
294,-342,0,0,0,0,0,0,0,0,0,-1,1518,1366,0,0
301,-342,0,0,0,0,0,0,0,0,0,-1,1525,1366,0,0
308,-342,0,0,0,0,0,0,0,0,0,-1,1532,1366,0,0
315,-342,0,0,0,0,0,0,0,0,0,-1,1539,1366,0,0
322,-342,0,0,0,0,0,0,0,0,0,-1,1546,1366,0,0
329,-342,0,0,0,0,0,0,0,0,0,-1,1553,1366,0,0
336,-342,0,0,0,0,0,0,0,0,0,-1,1560,1366,0,0
343,-342,0,0,0,0,0,0,0,0,0,-1,1567,1366,0,0
350,-342,0,0,0,0,0,0,0,0,0,-1,1574,1366,0,0
357,-342,0,0,0,0,0,0,0,0,0,-1,1581,1366,0,0
364,-342,0,0,0,0,0,0,0,0,0,-1,1588,1366,0,0
371,-342,0,0,0,0,0,0,0,0,0,-1,1595,1366,0,0
378,-342,0,0,0,0,0,0,0,0,0,-1,1602,1366,0,0
385,-342,0,0,0,0,0,0,0,0,0,-1,1609,1366,0,0
392,-342,0,0,0,0,0,0,0,0,0,-1,1616,1366,0,0
399,-342,0,0,0,0,0,0,0,0,0,-1,1623,1366,0,0
406,-342,0,0,0,0,0,0,0,0,0,-1,1630,1366,0,0
413,-342,0,0,0,0,0,0,0,0,0,-1,1637,1366,0,0
420,-342,0,0,0,0,0,0,0,0,0,-1,1644,1366,0,0
427,-342,0,0,0,0,0,0,0,0,0,-1,1651,1366,0,0
434,-342,0,0,0,0,0,0,0,0,0,-1,1658,1366,0,0
441,-342,0,0,0,0,0,0,0,0,0,-1,1665,1366,0,0
448,-342,0,0,0,0,0,0,0,0,0,-1,1672,1366,0,0
455,-342,0,0,0,0,0,0,0,0,0,-1,1679,1366,0,0
462,-342,0,0,0,0,0,0,0,0,0,-1,1686,1366,0,0
469,-342,0,0,0,0,0,0,0,0,0,-1,1693,1366,0,0
476,-342,0,0,0,0,0,0,0,0,0,-1,1700,1366,0,0
483,-342,0,0,0,0,0,0,0,0,0,-1,1707,1366,0,0
490,-342,0,0,0,0,0,0,0,0,0,-1,1714,1366,0,0
497,-342,0,0,0,0,0,0,0,0,0,-1,1721,1366,0,0
504,-342,0,0,0,0,0,0,0,0,0,-1,1728,1366,0,0
511,-342,0,0,0,0,0,0,0,0,0,-1,1735,1366,0,0
518,-342,0,0,0,0,0,0,0,0,0,-1,1742,1366,0,0
525,-342,0,0,0,0,0,0,0,0,0,-1,1749,1366,0,0
532,-342,0,0,0,0,0,0,0,0,0,-1,1756,1366,0,0
539,-342,0,0,0,0,0,0,0,0,0,-1,1763,1366,0,0
546,-342,0,0,0,0,0,0,0,0,0,-1,1770,1366,0,0
553,-342,0,0,0,0,0,0,0,0,0,-1,1777,1366,0,0
560,-342,0,0,0,0,0,0,0,0,0,-1,1784,1366,0,0
567,-342,64.6937,3.24878,0,0,0,0,0,0,0,-1,1791,1366,64.6938,-3.24881
574,-342,65.4669,2.18384,0,0,0,0,0,0,0,-1,1798,1366,65.4669,-2.18381
581,-342,66.542,1.36292,0,0,0,0,0,0,0,-1,1805,1366,66.542,-1.36295
588,-342,43.9108,7.22559,0,0,0,0,0,0,0,-1,1812,1366,43.9107,-7.22554
595,-342,35.7993,0.709961,0,0,0,0,0,0,0,-1,1819,1366,35.7993,-0.709913
602,-342,36.3618,3.28723,0,0,0,0,0,0,0,-1,1826,1366,36.3619,-3.28719
609,-342,35.3777,4.14978,0,0,0,0,0,0,0,-1,1833,1366,35.3777,-4.14976
616,-342,34.199,5.8158,0,0,0,0,0,0,0,-1,1840,1366,34.199,-5.81579
623,-342,26.0299,6.86865,0,0,0,0,0,0,0,-1,1847,1366,26.0299,-6.86863
630,-342,17.3431,0.773071,0,0,0,0,0,0,0,-1,1854,1366,17.3432,-0.773095
637,-342,16.196,6.76172,0,0,0,0,0,0,0,-1,1861,1366,16.1961,-6.76174
644,-342,31.8916,14.0614,0,0,0,0,0,0,0,-1,1868,1366,31.8916,-14.0613
651,-342,45.1487,19.5234,0,0,0,0,0,0,0,-1,1875,1366,45.1487,-19.5235
658,-342,45.1711,18.691,0.000565507,0.00036923,-0.000332241,0.000813801,0.000120936,-0.64179,0.000507052,0.022998,1882,1366,45.1712,-18.691
665,-342,45.1693,17.8451,0.000970427,5.41451e-05,-0.00027974,0.00104908,-2.45077e-05,-0.274088,0.000707697,0.0180742,1889,1366,45.1694,-17.8452
672,-342,45.1077,17.0938,0.00139838,6.28103e-06,-0.000383782,0.00149717,-9.25109e-05,-0.251947,0.00103034,0.0142119,1896,1366,45.1077,-17.0937
679,-342,45.0598,16.342,0.00186352,6.3334e-05,-0.000549744,0.00201813,-9.12698e-05,-0.274148,0.00137685,0.0138487,1903,1366,45.0598,-16.342
686,-342,45.0648,15.5331,0.00238299,0.000224652,-0.000792957,0.00264299,-3.53532e-05,-0.316846,0.0017739,0.0126738,1910,1366,45.0648,-15.5331
693,-342,44.9904,14.7433,0.00294702,0.0004757,-0.00109752,0.00336406,5.86639e-05,-0.36313,0.00222341,0.0118836,1917,1366,44.9904,-14.7433
700,-342,44.9347,13.9891,0.00353143,0.000830381,-0.00145401,0.00416536,0.00019645,-0.41114,0.0027138,0.0131437,1924,1366,44.9347,-13.9891
707,-342,44.9025,13.156,0.00409062,0.00127235,-0.00182904,0.00499039,0.000372576,-0.457176,0.00320995,0.0137031,1931,1366,44.9024,-13.156
714,-342,44.9645,12.1307,0,0,0,0,0,0,0,-1,1938,1366,44.9644,-12.1307
721,-342,22.4666,6.08679,0,0,0,0,0,0,0,-1,1945,1366,22.4666,-6.08678
728,-342,19.8912,5.26636,0,0,0,0,0,0,0,-1,1952,1366,19.8913,-5.26636
735,-342,19.481,4.41968,0,0,0,0,0,0,0,-1,1959,1366,19.4809,-4.41962
742,-342,19.309,2.66943,0,0,0,0,0,0,0,-1,1966,1366,19.3089,-2.66948
749,-342,21.0934,6.47729,0,0,0,0,0,0,0,-1,1973,1366,21.0934,-6.4773
756,-342,0,0,0,0,0,0,0,0,0,-1,1980,1366,0,0
763,-342,0,0,0,0,0,0,0,0,0,-1,1987,1366,0,0
770,-342,0,0,0,0,0,0,0,0,0,-1,1994,1366,0,0
777,-342,0,0,0,0,0,0,0,0,0,-1,2001,1366,0,0
784,-342,0,0,0,0,0,0,0,0,0,-1,2008,1366,0,0
791,-342,0,0,0,0,0,0,0,0,0,-1,2015,1366,0,0
798,-342,0,0,0,0,0,0,0,0,0,-1,2022,1366,0,0
805,-342,0,0,0,0,0,0,0,0,0,-1,2029,1366,0,0
812,-342,0,0,0,0,0,0,0,0,0,-1,2036,1366,0,0
-700,-349,0,0,0,0,0,0,0,0,0,-1,524,1373,0,0
-693,-349,0,0,0,0,0,0,0,0,0,-1,531,1373,0,0
-686,-349,0,0,0,0,0,0,0,0,0,-1,538,1373,0,0
-679,-349,0,0,0,0,0,0,0,0,0,-1,545,1373,0,0
-672,-349,0,0,0,0,0,0,0,0,0,-1,552,1373,0,0
-665,-349,0,0,0,0,0,0,0,0,0,-1,559,1373,0,0
-658,-349,0,0,0,0,0,0,0,0,0,-1,566,1373,0,0
-651,-349,0,0,0,0,0,0,0,0,0,-1,573,1373,0,0
-644,-349,0,0,0,0,0,0,0,0,0,-1,580,1373,0,0
-637,-349,0,0,0,0,0,0,0,0,0,-1,587,1373,0,0
-630,-349,-7.64117,-5.06177,0,0,0,0,0,0,0,-1,594,1373,-7.64118,5.0618
-623,-349,-8.63507,0.51123,0,0,0,0,0,0,0,-1,601,1373,-8.63505,-0.511275
-616,-349,-5.2066,-0.188232,0,0,0,0,0,0,0,-1,608,1373,-5.20659,0.188211
-609,-349,-7.12073,1.37048,0,0,0,0,0,0,0,-1,615,1373,-7.12072,-1.37044
-602,-349,-9.00623,3.39587,0,0,0,0,0,0,0,-1,622,1373,-9.0062,-3.39591
-595,-349,-9.50568,2.96912,0,0,0,0,0,0,0,-1,629,1373,-9.50569,-2.96906
-588,-349,-8.60046,3.56042,0,0,0,0,0,0,0,-1,636,1373,-8.60046,-3.56047
-581,-349,-27.174,11.6233,0,0,0,0,0,0,0,-1,643,1373,-27.174,-11.6232
-574,-349,-27.2509,12.3584,0.00525017,0.00369367,0.00264017,0.00722441,0.00171943,0.642072,0.00435771,0.0456398,650,1373,-27.2509,-12.3584
-567,-349,-27.283,13.2614,0.00436083,0.00286225,0.00226459,0.00599687,0.00122621,0.625631,0.00365833,0.0196453,657,1373,-27.283,-13.2613
-560,-349,-27.3099,14.113,0.00381973,0.00214361,0.00196991,0.00512243,0.000840902,0.58428,0.00317203,0.0232878,664,1373,-27.3099,-14.1131
-553,-349,-27.3881,14.8627,0.00352313,0.00151163,0.00178578,0.0045669,0.000467854,0.528937,0.00290125,0.0281606,671,1373,-27.3881,-14.8627
-546,-349,-27.4537,15.66,0.00344429,0.000973116,0.00170001,0.0043103,0.000107102,0.471152,0.00283851,0.0290201,678,1373,-27.4537,-15.66
-539,-349,-27.5055,16.5388,0.00356482,0.000512314,0.00170386,0.00432606,-0.000248919,0.420164,0.00297049,0.0232287,685,1373,-27.5055,-16.5388
-532,-349,-27.5331,17.4364,0.00387778,0.000143378,0.00180081,0.00460468,-0.000583522,0.38365,0.00328163,0.0179759,692,1373,-27.5332,-17.4364
-525,-349,-27.5301,18.2755,0.0043645,-0.000161711,0.00197607,0.00510581,-0.000903016,0.358895,0.00374138,0.0158534,699,1373,-27.5301,-18.2755
-518,-349,-27.5241,19.1183,0.00511844,-0.000248007,0.00224412,0.00593318,-0.00106275,0.348258,0.00435316,0.0277783,706,1373,-27.5241,-19.1183
-511,-349,-27.4704,19.9657,0,0,0,0,0,0,0,-1,713,1373,-27.4704,-19.9657
-504,-349,-9.60516,7.88831,0,0,0,0,0,0,0,-1,720,1373,-9.60519,-7.88825
-497,-349,-7.9339,5.58789,0,0,0,0,0,0,0,-1,727,1373,-7.93388,-5.58785
-490,-349,-8.73969,-0.503784,0,0,0,0,0,0,0,-1,734,1373,-8.73966,0.503752
-483,-349,-5.66974,3.7395,0,0,0,0,0,0,0,-1,741,1373,-5.66975,-3.73949
-476,-349,-10.8496,1.15759,0,0,0,0,0,0,0,-1,748,1373,-10.8496,-1.15756
-469,-349,-12.3314,-1.74878,0,0,0,0,0,0,0,-1,755,1373,-12.3314,1.74882
-462,-349,-12.6559,-0.995361,0,0,0,0,0,0,0,-1,762,1373,-12.656,0.995351
-455,-349,-13.2897,-0.234253,0,0,0,0,0,0,0,-1,769,1373,-13.2897,0.234261
-448,-349,-14.045,0.712891,0,0,0,0,0,0,0,-1,776,1373,-14.045,-0.712838
-441,-349,0,0,0,0,0,0,0,0,0,-1,783,1373,0,0
-434,-349,0,0,0,0,0,0,0,0,0,-1,790,1373,0,0
-427,-349,0,0,0,0,0,0,0,0,0,-1,797,1373,0,0
-420,-349,0,0,0,0,0,0,0,0,0,-1,804,1373,0,0
-413,-349,0,0,0,0,0,0,0,0,0,-1,811,1373,0,0
-406,-349,0,0,0,0,0,0,0,0,0,-1,818,1373,0,0
-399,-349,0,0,0,0,0,0,0,0,0,-1,825,1373,0,0
-392,-349,0,0,0,0,0,0,0,0,0,-1,832,1373,0,0
-385,-349,0,0,0,0,0,0,0,0,0,-1,839,1373,0,0
-378,-349,0,0,0,0,0,0,0,0,0,-1,846,1373,0,0
-371,-349,0,0,0,0,0,0,0,0,0,-1,853,1373,0,0
-364,-349,0,0,0,0,0,0,0,0,0,-1,860,1373,0,0
-357,-349,0,0,0,0,0,0,0,0,0,-1,867,1373,0,0
-350,-349,0,0,0,0,0,0,0,0,0,-1,874,1373,0,0
-343,-349,0,0,0,0,0,0,0,0,0,-1,881,1373,0,0
-336,-349,0,0,0,0,0,0,0,0,0,-1,888,1373,0,0
-329,-349,0,0,0,0,0,0,0,0,0,-1,895,1373,0,0
-322,-349,0,0,0,0,0,0,0,0,0,-1,902,1373,0,0
-315,-349,0,0,0,0,0,0,0,0,0,-1,909,1373,0,0
-308,-349,0,0,0,0,0,0,0,0,0,-1,916,1373,0,0
-301,-349,0,0,0,0,0,0,0,0,0,-1,923,1373,0,0
-294,-349,0,0,0,0,0,0,0,0,0,-1,930,1373,0,0
-287,-349,0,0,0,0,0,0,0,0,0,-1,937,1373,0,0
-280,-349,0,0,0,0,0,0,0,0,0,-1,944,1373,0,0
-273,-349,0,0,0,0,0,0,0,0,0,-1,951,1373,0,0
-266,-349,0,0,0,0,0,0,0,0,0,-1,958,1373,0,0
-259,-349,0,0,0,0,0,0,0,0,0,-1,965,1373,0,0
-252,-349,0,0,0,0,0,0,0,0,0,-1,972,1373,0,0
-245,-349,0,0,0,0,0,0,0,0,0,-1,979,1373,0,0
-238,-349,0,0,0,0,0,0,0,0,0,-1,986,1373,0,0
-231,-349,0,0,0,0,0,0,0,0,0,-1,993,1373,0,0
-224,-349,0,0,0,0,0,0,0,0,0,-1,1000,1373,0,0
-217,-349,0,0,0,0,0,0,0,0,0,-1,1007,1373,0,0
-210,-349,0,0,0,0,0,0,0,0,0,-1,1014,1373,0,0
-203,-349,0,0,0,0,0,0,0,0,0,-1,1021,1373,0,0
-196,-349,0,0,0,0,0,0,0,0,0,-1,1028,1373,0,0
-189,-349,0,0,0,0,0,0,0,0,0,-1,1035,1373,0,0
-182,-349,0,0,0,0,0,0,0,0,0,-1,1042,1373,0,0
-175,-349,0,0,0,0,0,0,0,0,0,-1,1049,1373,0,0
-168,-349,0,0,0,0,0,0,0,0,0,-1,1056,1373,0,0
-161,-349,0,0,0,0,0,0,0,0,0,-1,1063,1373,0,0
-154,-349,0,0,0,0,0,0,0,0,0,-1,1070,1373,0,0
-147,-349,0,0,0,0,0,0,0,0,0,-1,1077,1373,0,0
-140,-349,0,0,0,0,0,0,0,0,0,-1,1084,1373,0,0
-133,-349,0,0,0,0,0,0,0,0,0,-1,1091,1373,0,0
-126,-349,0,0,0,0,0,0,0,0,0,-1,1098,1373,0,0
-119,-349,0,0,0,0,0,0,0,0,0,-1,1105,1373,0,0
-112,-349,0,0,0,0,0,0,0,0,0,-1,1112,1373,0,0
-105,-349,0,0,0,0,0,0,0,0,0,-1,1119,1373,0,0
-98,-349,0,0,0,0,0,0,0,0,0,-1,1126,1373,0,0
-91,-349,0,0,0,0,0,0,0,0,0,-1,1133,1373,0,0
-84,-349,0,0,0,0,0,0,0,0,0,-1,1140,1373,0,0
-77,-349,0,0,0,0,0,0,0,0,0,-1,1147,1373,0,0
-70,-349,0,0,0,0,0,0,0,0,0,-1,1154,1373,0,0
-63,-349,0,0,0,0,0,0,0,0,0,-1,1161,1373,0,0
-56,-349,0,0,0,0,0,0,0,0,0,-1,1168,1373,0,0
-49,-349,0,0,0,0,0,0,0,0,0,-1,1175,1373,0,0
-42,-349,0,0,0,0,0,0,0,0,0,-1,1182,1373,0,0
-35,-349,0,0,0,0,0,0,0,0,0,-1,1189,1373,0,0
-28,-349,0,0,0,0,0,0,0,0,0,-1,1196,1373,0,0
-21,-349,0,0,0,0,0,0,0,0,0,-1,1203,1373,0,0
-14,-349,0,0,0,0,0,0,0,0,0,-1,1210,1373,0,0
-7,-349,0,0,0,0,0,0,0,0,0,-1,1217,1373,0,0
0,-349,0,0,0,0,0,0,0,0,0,-1,1224,1373,0,0
7,-349,0,0,0,0,0,0,0,0,0,-1,1231,1373,0,0
14,-349,0,0,0,0,0,0,0,0,0,-1,1238,1373,0,0
21,-349,0,0,0,0,0,0,0,0,0,-1,1245,1373,0,0
28,-349,0,0,0,0,0,0,0,0,0,-1,1252,1373,0,0
35,-349,0,0,0,0,0,0,0,0,0,-1,1259,1373,0,0
42,-349,0,0,0,0,0,0,0,0,0,-1,1266,1373,0,0
49,-349,0,0,0,0,0,0,0,0,0,-1,1273,1373,0,0
56,-349,0,0,0,0,0,0,0,0,0,-1,1280,1373,0,0
63,-349,0,0,0,0,0,0,0,0,0,-1,1287,1373,0,0
70,-349,0,0,0,0,0,0,0,0,0,-1,1294,1373,0,0
77,-349,0,0,0,0,0,0,0,0,0,-1,1301,1373,0,0
84,-349,0,0,0,0,0,0,0,0,0,-1,1308,1373,0,0
91,-349,0,0,0,0,0,0,0,0,0,-1,1315,1373,0,0
98,-349,0,0,0,0,0,0,0,0,0,-1,1322,1373,0,0
105,-349,0,0,0,0,0,0,0,0,0,-1,1329,1373,0,0
112,-349,0,0,0,0,0,0,0,0,0,-1,1336,1373,0,0
119,-349,0,0,0,0,0,0,0,0,0,-1,1343,1373,0,0
126,-349,0,0,0,0,0,0,0,0,0,-1,1350,1373,0,0
133,-349,0,0,0,0,0,0,0,0,0,-1,1357,1373,0,0
140,-349,0,0,0,0,0,0,0,0,0,-1,1364,1373,0,0
147,-349,0,0,0,0,0,0,0,0,0,-1,1371,1373,0,0
154,-349,0,0,0,0,0,0,0,0,0,-1,1378,1373,0,0
161,-349,0,0,0,0,0,0,0,0,0,-1,1385,1373,0,0
168,-349,0,0,0,0,0,0,0,0,0,-1,1392,1373,0,0
175,-349,0,0,0,0,0,0,0,0,0,-1,1399,1373,0,0
182,-349,0,0,0,0,0,0,0,0,0,-1,1406,1373,0,0
189,-349,0,0,0,0,0,0,0,0,0,-1,1413,1373,0,0
196,-349,0,0,0,0,0,0,0,0,0,-1,1420,1373,0,0
203,-349,0,0,0,0,0,0,0,0,0,-1,1427,1373,0,0
210,-349,0,0,0,0,0,0,0,0,0,-1,1434,1373,0,0
217,-349,0,0,0,0,0,0,0,0,0,-1,1441,1373,0,0
224,-349,0,0,0,0,0,0,0,0,0,-1,1448,1373,0,0
231,-349,0,0,0,0,0,0,0,0,0,-1,1455,1373,0,0
238,-349,0,0,0,0,0,0,0,0,0,-1,1462,1373,0,0
245,-349,0,0,0,0,0,0,0,0,0,-1,1469,1373,0,0
252,-349,0,0,0,0,0,0,0,0,0,-1,1476,1373,0,0
259,-349,0,0,0,0,0,0,0,0,0,-1,1483,1373,0,0
266,-349,0,0,0,0,0,0,0,0,0,-1,1490,1373,0,0
273,-349,0,0,0,0,0,0,0,0,0,-1,1497,1373,0,0
280,-349,0,0,0,0,0,0,0,0,0,-1,1504,1373,0,0
287,-349,0,0,0,0,0,0,0,0,0,-1,1511,1373,0,0
294,-349,0,0,0,0,0,0,0,0,0,-1,1518,1373,0,0
301,-349,0,0,0,0,0,0,0,0,0,-1,1525,1373,0,0
308,-349,0,0,0,0,0,0,0,0,0,-1,1532,1373,0,0
315,-349,0,0,0,0,0,0,0,0,0,-1,1539,1373,0,0
322,-349,0,0,0,0,0,0,0,0,0,-1,1546,1373,0,0
329,-349,0,0,0,0,0,0,0,0,0,-1,1553,1373,0,0
336,-349,0,0,0,0,0,0,0,0,0,-1,1560,1373,0,0
343,-349,0,0,0,0,0,0,0,0,0,-1,1567,1373,0,0
350,-349,0,0,0,0,0,0,0,0,0,-1,1574,1373,0,0
357,-349,0,0,0,0,0,0,0,0,0,-1,1581,1373,0,0
364,-349,0,0,0,0,0,0,0,0,0,-1,1588,1373,0,0
371,-349,0,0,0,0,0,0,0,0,0,-1,1595,1373,0,0
378,-349,0,0,0,0,0,0,0,0,0,-1,1602,1373,0,0
385,-349,0,0,0,0,0,0,0,0,0,-1,1609,1373,0,0
392,-349,0,0,0,0,0,0,0,0,0,-1,1616,1373,0,0
399,-349,0,0,0,0,0,0,0,0,0,-1,1623,1373,0,0
406,-349,0,0,0,0,0,0,0,0,0,-1,1630,1373,0,0
413,-349,0,0,0,0,0,0,0,0,0,-1,1637,1373,0,0
420,-349,0,0,0,0,0,0,0,0,0,-1,1644,1373,0,0
427,-349,0,0,0,0,0,0,0,0,0,-1,1651,1373,0,0
434,-349,0,0,0,0,0,0,0,0,0,-1,1658,1373,0,0
441,-349,0,0,0,0,0,0,0,0,0,-1,1665,1373,0,0
448,-349,0,0,0,0,0,0,0,0,0,-1,1672,1373,0,0
455,-349,0,0,0,0,0,0,0,0,0,-1,1679,1373,0,0
462,-349,0,0,0,0,0,0,0,0,0,-1,1686,1373,0,0
469,-349,0,0,0,0,0,0,0,0,0,-1,1693,1373,0,0
476,-349,0,0,0,0,0,0,0,0,0,-1,1700,1373,0,0
483,-349,0,0,0,0,0,0,0,0,0,-1,1707,1373,0,0
490,-349,0,0,0,0,0,0,0,0,0,-1,1714,1373,0,0
497,-349,0,0,0,0,0,0,0,0,0,-1,1721,1373,0,0
504,-349,0,0,0,0,0,0,0,0,0,-1,1728,1373,0,0
511,-349,0,0,0,0,0,0,0,0,0,-1,1735,1373,0,0
518,-349,0,0,0,0,0,0,0,0,0,-1,1742,1373,0,0
525,-349,0,0,0,0,0,0,0,0,0,-1,1749,1373,0,0
532,-349,0,0,0,0,0,0,0,0,0,-1,1756,1373,0,0
539,-349,0,0,0,0,0,0,0,0,0,-1,1763,1373,0,0
546,-349,0,0,0,0,0,0,0,0,0,-1,1770,1373,0,0
553,-349,0,0,0,0,0,0,0,0,0,-1,1777,1373,0,0
560,-349,63.5519,3.94397,0,0,0,0,0,0,0,-1,1784,1373,63.5519,-3.94394
567,-349,64.7863,2.54688,0,0,0,0,0,0,0,-1,1791,1373,64.7863,-2.5469
574,-349,65.8214,1.63818,0,0,0,0,0,0,0,-1,1798,1373,65.8214,-1.63813
581,-349,42.8947,6.78381,0,0,0,0,0,0,0,-1,1805,1373,42.8946,-6.78376
588,-349,44.8121,5.06213,0,0,0,0,0,0,0,-1,1812,1373,44.8121,-5.06215
595,-349,44.4338,6.14099,0,0,0,0,0,0,0,-1,1819,1373,44.4338,-6.14095
602,-349,35.6641,3.26465,0,0,0,0,0,0,0,-1,1826,1373,35.6641,-3.26468
609,-349,34.7175,4.401,0,0,0,0,0,0,0,-1,1833,1373,34.7175,-4.40096
616,-349,27.1451,6.68274,0,0,0,0,0,0,0,-1,1840,1373,27.1451,-6.6828
623,-349,18.8478,2.75769,0,0,0,0,0,0,0,-1,1847,1373,18.8478,-2.75774
630,-349,15.4948,6.47644,0,0,0,0,0,0,0,-1,1854,1373,15.4947,-6.4765
637,-349,16.5161,6.92639,0,0,0,0,0,0,0,-1,1861,1373,16.5161,-6.92636
644,-349,44.2694,19.8312,0,0,0,0,0,0,0,-1,1868,1373,44.2695,-19.8311
651,-349,44.4453,19.4875,0,0,0,0,0,0,0,-1,1875,1373,44.4453,-19.4876
658,-349,44.406,18.7017,0.000330567,0.000265534,-9.09528e-05,0.000394641,0.00020146,-0.613722,0.000227863,0.0279488,1882,1373,44.406,-18.7016
665,-349,44.3513,17.8947,0.000870608,2.3833e-05,-0.00015972,0.000899733,-5.2918e-06,-0.180368,0.000601594,0.0212841,1889,1373,44.3514,-17.8946
672,-349,44.3114,17.137,0.00145029,-9.46026e-06,-0.000355284,0.00153217,-9.13393e-05,-0.226506,0.00105321,0.0160773,1896,1373,44.3114,-17.137
679,-349,44.2783,16.3662,0.00208575,4.39561e-05,-0.000623741,0.00226122,-0.00013151,-0.274224,0.00155317,0.0165589,1903,1373,44.2784,-16.3662
686,-349,44.3069,15.5751,0.00278904,0.000210399,-0.000980964,0.0031198,-0.000120354,-0.3252,0.00212112,0.0180632,1910,1373,44.3069,-15.5751
693,-349,44.2228,14.7922,0.00354596,0.00047856,-0.00141005,0.00409564,-7.11228e-05,-0.37171,0.00275444,0.0198968,1917,1373,44.2228,-14.7923
700,-349,44.1686,14.0372,0.00433692,0.000873187,-0.00191913,0.00519009,2.00165e-05,-0.418322,0.00345341,0.0183455,1924,1373,44.1686,-14.0373
707,-349,44.2062,13.2054,0.00510378,0.00137009,-0.00245702,0.00632272,0.000151151,-0.460526,0.00416568,0.0382143,1931,1373,44.2061,-13.2055
714,-349,44.2776,12.2418,0,0,0,0,0,0,0,-1,1938,1373,44.2776,-12.2418
721,-349,19.6688,5.93604,0,0,0,0,0,0,0,-1,1945,1373,19.6688,-5.93606
728,-349,18.6333,3.73218,0,0,0,0,0,0,0,-1,1952,1373,18.6333,-3.73214
735,-349,18.1918,3.39954,0,0,0,0,0,0,0,-1,1959,1373,18.1918,-3.3995
742,-349,20.7345,2.07483,0,0,0,0,0,0,0,-1,1966,1373,20.7345,-2.07485
749,-349,21.9037,1.45789,0,0,0,0,0,0,0,-1,1973,1373,21.9037,-1.45788
756,-349,0,0,0,0,0,0,0,0,0,-1,1980,1373,0,0
763,-349,0,0,0,0,0,0,0,0,0,-1,1987,1373,0,0
770,-349,0,0,0,0,0,0,0,0,0,-1,1994,1373,0,0
777,-349,0,0,0,0,0,0,0,0,0,-1,2001,1373,0,0
784,-349,0,0,0,0,0,0,0,0,0,-1,2008,1373,0,0
791,-349,0,0,0,0,0,0,0,0,0,-1,2015,1373,0,0
798,-349,0,0,0,0,0,0,0,0,0,-1,2022,1373,0,0
805,-349,0,0,0,0,0,0,0,0,0,-1,2029,1373,0,0
812,-349,0,0,0,0,0,0,0,0,0,-1,2036,1373,0,0
-700,-356,0,0,0,0,0,0,0,0,0,-1,524,1380,0,0
-693,-356,0,0,0,0,0,0,0,0,0,-1,531,1380,0,0
-686,-356,0,0,0,0,0,0,0,0,0,-1,538,1380,0,0
-679,-356,0,0,0,0,0,0,0,0,0,-1,545,1380,0,0
-672,-356,0,0,0,0,0,0,0,0,0,-1,552,1380,0,0
-665,-356,0,0,0,0,0,0,0,0,0,-1,559,1380,0,0
-658,-356,0,0,0,0,0,0,0,0,0,-1,566,1380,0,0
-651,-356,0,0,0,0,0,0,0,0,0,-1,573,1380,0,0
-644,-356,0,0,0,0,0,0,0,0,0,-1,580,1380,0,0
-637,-356,0,0,0,0,0,0,0,0,0,-1,587,1380,0,0
-630,-356,-8.23126,-5.01917,0,0,0,0,0,0,0,-1,594,1380,-8.23124,5.0192
-623,-356,-0.263855,-0.675781,0,0,0,0,0,0,0,-1,601,1380,-0.263835,0.675841
-616,-356,-8.26532,-3.43945,0,0,0,0,0,0,0,-1,608,1380,-8.2653,3.43948
-609,-356,-4.88483,0.734497,0,0,0,0,0,0,0,-1,615,1380,-4.88485,-0.734532
-602,-356,-9.06635,2.4021,0,0,0,0,0,0,0,-1,622,1380,-9.06634,-2.40206
-595,-356,-8.45703,3.61853,0,0,0,0,0,0,0,-1,629,1380,-8.45706,-3.61848
-588,-356,-9.31738,4.14258,0,0,0,0,0,0,0,-1,636,1380,-9.31736,-4.14255
-581,-356,-16.5185,7.32312,0,0,0,0,0,0,0,-1,643,1380,-16.5185,-7.32306
-574,-356,-26.5909,12.3719,0,0,0,0,0,0,0,-1,650,1380,-26.591,-12.3719
-567,-356,-26.5513,13.2489,0.00519951,0.00339531,0.0028612,0.00729745,0.00129736,0.632688,0.00449536,0.0252247,657,1380,-26.5513,-13.2489
-560,-356,-26.4771,14.1656,0.00437184,0.00254522,0.00236455,0.00599334,0.000923727,0.601099,0.00372602,0.0200993,664,1380,-26.4771,-14.1656
-553,-356,-26.4971,14.9741,0.00381127,0.00181373,0.00200676,0.00505407,0.00057094,0.554494,0.00319611,0.0222513,671,1380,-26.4971,-14.9741
-546,-356,-26.5931,15.7656,0.00346414,0.00119076,0.00175035,0.00441451,0.000240398,0.497419,0.00286623,0.0222902,678,1380,-26.5932,-15.7656
-539,-356,-26.6497,16.6141,0.00333193,0.000668133,0.00159892,0.00408101,-8.09524e-05,0.438128,0.00274806,0.0155314,685,1380,-26.6497,-16.6141
-532,-356,-26.7172,17.4812,0.00341337,0.000271763,0.00156812,0.00406212,-0.000376988,0.392272,0.00284209,0.0153292,692,1380,-26.7172,-17.4812
-525,-356,-26.7306,18.3054,0.0036803,-3.48309e-05,0.00163381,0.00429657,-0.000651104,0.360698,0.00310426,0.014049,699,1380,-26.7306,-18.3055
-518,-356,-26.7519,19.1111,0.00419648,-0.000148607,0.00181467,0.00485466,-0.000806784,0.347942,0.00353618,0.0145973,706,1380,-26.7519,-19.1111
-511,-356,-26.7524,19.9301,0,0,0,0,0,0,0,-1,713,1380,-26.7525,-19.93
-504,-356,-14.3925,12.3971,0,0,0,0,0,0,0,-1,720,1380,-14.3925,-12.3971
-497,-356,-5.68604,4.96387,0,0,0,0,0,0,0,-1,727,1380,-5.68605,-4.96385
-490,-356,-7.95288,5.5625,0,0,0,0,0,0,0,-1,734,1380,-7.95285,-5.56246
-483,-356,-7.2627,4.07446,0,0,0,0,0,0,0,-1,741,1380,-7.2627,-4.07441
-476,-356,-5.1936,4.16016,0,0,0,0,0,0,0,-1,748,1380,-5.1936,-4.16012
-469,-356,-10.0883,0.536011,0,0,0,0,0,0,0,-1,755,1380,-10.0883,-0.535989
-462,-356,-12.3481,-0.215698,0,0,0,0,0,0,0,-1,762,1380,-12.3481,0.215641
-455,-356,-13.1367,-0.264648,0,0,0,0,0,0,0,-1,769,1380,-13.1367,0.264647
-448,-356,-13.9116,-0.310181,0,0,0,0,0,0,0,-1,776,1380,-13.9115,0.310207
-441,-356,-13.1602,3.05603,0,0,0,0,0,0,0,-1,783,1380,-13.1602,-3.05609
-434,-356,0,0,0,0,0,0,0,0,0,-1,790,1380,0,0
-427,-356,0,0,0,0,0,0,0,0,0,-1,797,1380,0,0
-420,-356,0,0,0,0,0,0,0,0,0,-1,804,1380,0,0
-413,-356,0,0,0,0,0,0,0,0,0,-1,811,1380,0,0
-406,-356,0,0,0,0,0,0,0,0,0,-1,818,1380,0,0
-399,-356,0,0,0,0,0,0,0,0,0,-1,825,1380,0,0
-392,-356,0,0,0,0,0,0,0,0,0,-1,832,1380,0,0
-385,-356,0,0,0,0,0,0,0,0,0,-1,839,1380,0,0
-378,-356,0,0,0,0,0,0,0,0,0,-1,846,1380,0,0
-371,-356,0,0,0,0,0,0,0,0,0,-1,853,1380,0,0
-364,-356,0,0,0,0,0,0,0,0,0,-1,860,1380,0,0
-357,-356,0,0,0,0,0,0,0,0,0,-1,867,1380,0,0
-350,-356,0,0,0,0,0,0,0,0,0,-1,874,1380,0,0
-343,-356,0,0,0,0,0,0,0,0,0,-1,881,1380,0,0
-336,-356,0,0,0,0,0,0,0,0,0,-1,888,1380,0,0
-329,-356,0,0,0,0,0,0,0,0,0,-1,895,1380,0,0
-322,-356,0,0,0,0,0,0,0,0,0,-1,902,1380,0,0
-315,-356,0,0,0,0,0,0,0,0,0,-1,909,1380,0,0
-308,-356,0,0,0,0,0,0,0,0,0,-1,916,1380,0,0
-301,-356,0,0,0,0,0,0,0,0,0,-1,923,1380,0,0
-294,-356,0,0,0,0,0,0,0,0,0,-1,930,1380,0,0
-287,-356,0,0,0,0,0,0,0,0,0,-1,937,1380,0,0
-280,-356,0,0,0,0,0,0,0,0,0,-1,944,1380,0,0
-273,-356,0,0,0,0,0,0,0,0,0,-1,951,1380,0,0
-266,-356,0,0,0,0,0,0,0,0,0,-1,958,1380,0,0
-259,-356,0,0,0,0,0,0,0,0,0,-1,965,1380,0,0
-252,-356,0,0,0,0,0,0,0,0,0,-1,972,1380,0,0
-245,-356,0,0,0,0,0,0,0,0,0,-1,979,1380,0,0
-238,-356,0,0,0,0,0,0,0,0,0,-1,986,1380,0,0
-231,-356,0,0,0,0,0,0,0,0,0,-1,993,1380,0,0
-224,-356,0,0,0,0,0,0,0,0,0,-1,1000,1380,0,0
-217,-356,0,0,0,0,0,0,0,0,0,-1,1007,1380,0,0
-210,-356,0,0,0,0,0,0,0,0,0,-1,1014,1380,0,0
-203,-356,0,0,0,0,0,0,0,0,0,-1,1021,1380,0,0
-196,-356,0,0,0,0,0,0,0,0,0,-1,1028,1380,0,0
-189,-356,0,0,0,0,0,0,0,0,0,-1,1035,1380,0,0
-182,-356,0,0,0,0,0,0,0,0,0,-1,1042,1380,0,0
-175,-356,0,0,0,0,0,0,0,0,0,-1,1049,1380,0,0
-168,-356,0,0,0,0,0,0,0,0,0,-1,1056,1380,0,0
-161,-356,0,0,0,0,0,0,0,0,0,-1,1063,1380,0,0
-154,-356,0,0,0,0,0,0,0,0,0,-1,1070,1380,0,0
-147,-356,0,0,0,0,0,0,0,0,0,-1,1077,1380,0,0
-140,-356,0,0,0,0,0,0,0,0,0,-1,1084,1380,0,0
-133,-356,0,0,0,0,0,0,0,0,0,-1,1091,1380,0,0
-126,-356,0,0,0,0,0,0,0,0,0,-1,1098,1380,0,0
-119,-356,0,0,0,0,0,0,0,0,0,-1,1105,1380,0,0
-112,-356,0,0,0,0,0,0,0,0,0,-1,1112,1380,0,0
-105,-356,0,0,0,0,0,0,0,0,0,-1,1119,1380,0,0
-98,-356,0,0,0,0,0,0,0,0,0,-1,1126,1380,0,0
-91,-356,0,0,0,0,0,0,0,0,0,-1,1133,1380,0,0
-84,-356,0,0,0,0,0,0,0,0,0,-1,1140,1380,0,0
-77,-356,0,0,0,0,0,0,0,0,0,-1,1147,1380,0,0
-70,-356,0,0,0,0,0,0,0,0,0,-1,1154,1380,0,0
-63,-356,0,0,0,0,0,0,0,0,0,-1,1161,1380,0,0
-56,-356,0,0,0,0,0,0,0,0,0,-1,1168,1380,0,0
-49,-356,0,0,0,0,0,0,0,0,0,-1,1175,1380,0,0
-42,-356,0,0,0,0,0,0,0,0,0,-1,1182,1380,0,0
-35,-356,0,0,0,0,0,0,0,0,0,-1,1189,1380,0,0
-28,-356,0,0,0,0,0,0,0,0,0,-1,1196,1380,0,0
-21,-356,0,0,0,0,0,0,0,0,0,-1,1203,1380,0,0
-14,-356,0,0,0,0,0,0,0,0,0,-1,1210,1380,0,0
-7,-356,0,0,0,0,0,0,0,0,0,-1,1217,1380,0,0
0,-356,0,0,0,0,0,0,0,0,0,-1,1224,1380,0,0
7,-356,0,0,0,0,0,0,0,0,0,-1,1231,1380,0,0
14,-356,0,0,0,0,0,0,0,0,0,-1,1238,1380,0,0
21,-356,0,0,0,0,0,0,0,0,0,-1,1245,1380,0,0
28,-356,0,0,0,0,0,0,0,0,0,-1,1252,1380,0,0
35,-356,0,0,0,0,0,0,0,0,0,-1,1259,1380,0,0
42,-356,0,0,0,0,0,0,0,0,0,-1,1266,1380,0,0
49,-356,0,0,0,0,0,0,0,0,0,-1,1273,1380,0,0
56,-356,0,0,0,0,0,0,0,0,0,-1,1280,1380,0,0
63,-356,0,0,0,0,0,0,0,0,0,-1,1287,1380,0,0
70,-356,0,0,0,0,0,0,0,0,0,-1,1294,1380,0,0
77,-356,0,0,0,0,0,0,0,0,0,-1,1301,1380,0,0
84,-356,0,0,0,0,0,0,0,0,0,-1,1308,1380,0,0
91,-356,0,0,0,0,0,0,0,0,0,-1,1315,1380,0,0
98,-356,0,0,0,0,0,0,0,0,0,-1,1322,1380,0,0
105,-356,0,0,0,0,0,0,0,0,0,-1,1329,1380,0,0
112,-356,0,0,0,0,0,0,0,0,0,-1,1336,1380,0,0
119,-356,0,0,0,0,0,0,0,0,0,-1,1343,1380,0,0
126,-356,0,0,0,0,0,0,0,0,0,-1,1350,1380,0,0
133,-356,0,0,0,0,0,0,0,0,0,-1,1357,1380,0,0
140,-356,0,0,0,0,0,0,0,0,0,-1,1364,1380,0,0
147,-356,0,0,0,0,0,0,0,0,0,-1,1371,1380,0,0
154,-356,0,0,0,0,0,0,0,0,0,-1,1378,1380,0,0
161,-356,0,0,0,0,0,0,0,0,0,-1,1385,1380,0,0
168,-356,0,0,0,0,0,0,0,0,0,-1,1392,1380,0,0
175,-356,0,0,0,0,0,0,0,0,0,-1,1399,1380,0,0
182,-356,0,0,0,0,0,0,0,0,0,-1,1406,1380,0,0
189,-356,0,0,0,0,0,0,0,0,0,-1,1413,1380,0,0
196,-356,0,0,0,0,0,0,0,0,0,-1,1420,1380,0,0
203,-356,0,0,0,0,0,0,0,0,0,-1,1427,1380,0,0
210,-356,0,0,0,0,0,0,0,0,0,-1,1434,1380,0,0
217,-356,0,0,0,0,0,0,0,0,0,-1,1441,1380,0,0
224,-356,0,0,0,0,0,0,0,0,0,-1,1448,1380,0,0
231,-356,0,0,0,0,0,0,0,0,0,-1,1455,1380,0,0
238,-356,0,0,0,0,0,0,0,0,0,-1,1462,1380,0,0
245,-356,0,0,0,0,0,0,0,0,0,-1,1469,1380,0,0
252,-356,0,0,0,0,0,0,0,0,0,-1,1476,1380,0,0
259,-356,0,0,0,0,0,0,0,0,0,-1,1483,1380,0,0
266,-356,0,0,0,0,0,0,0,0,0,-1,1490,1380,0,0
273,-356,0,0,0,0,0,0,0,0,0,-1,1497,1380,0,0
280,-356,0,0,0,0,0,0,0,0,0,-1,1504,1380,0,0
287,-356,0,0,0,0,0,0,0,0,0,-1,1511,1380,0,0
294,-356,0,0,0,0,0,0,0,0,0,-1,1518,1380,0,0
301,-356,0,0,0,0,0,0,0,0,0,-1,1525,1380,0,0
308,-356,0,0,0,0,0,0,0,0,0,-1,1532,1380,0,0
315,-356,0,0,0,0,0,0,0,0,0,-1,1539,1380,0,0
322,-356,0,0,0,0,0,0,0,0,0,-1,1546,1380,0,0
329,-356,0,0,0,0,0,0,0,0,0,-1,1553,1380,0,0
336,-356,0,0,0,0,0,0,0,0,0,-1,1560,1380,0,0
343,-356,0,0,0,0,0,0,0,0,0,-1,1567,1380,0,0
350,-356,0,0,0,0,0,0,0,0,0,-1,1574,1380,0,0
357,-356,0,0,0,0,0,0,0,0,0,-1,1581,1380,0,0
364,-356,0,0,0,0,0,0,0,0,0,-1,1588,1380,0,0
371,-356,0,0,0,0,0,0,0,0,0,-1,1595,1380,0,0
378,-356,0,0,0,0,0,0,0,0,0,-1,1602,1380,0,0
385,-356,0,0,0,0,0,0,0,0,0,-1,1609,1380,0,0
392,-356,0,0,0,0,0,0,0,0,0,-1,1616,1380,0,0
399,-356,0,0,0,0,0,0,0,0,0,-1,1623,1380,0,0
406,-356,0,0,0,0,0,0,0,0,0,-1,1630,1380,0,0
413,-356,0,0,0,0,0,0,0,0,0,-1,1637,1380,0,0
420,-356,0,0,0,0,0,0,0,0,0,-1,1644,1380,0,0
427,-356,0,0,0,0,0,0,0,0,0,-1,1651,1380,0,0
434,-356,0,0,0,0,0,0,0,0,0,-1,1658,1380,0,0
441,-356,0,0,0,0,0,0,0,0,0,-1,1665,1380,0,0
448,-356,0,0,0,0,0,0,0,0,0,-1,1672,1380,0,0
455,-356,0,0,0,0,0,0,0,0,0,-1,1679,1380,0,0
462,-356,0,0,0,0,0,0,0,0,0,-1,1686,1380,0,0
469,-356,0,0,0,0,0,0,0,0,0,-1,1693,1380,0,0
476,-356,0,0,0,0,0,0,0,0,0,-1,1700,1380,0,0
483,-356,0,0,0,0,0,0,0,0,0,-1,1707,1380,0,0
490,-356,0,0,0,0,0,0,0,0,0,-1,1714,1380,0,0
497,-356,0,0,0,0,0,0,0,0,0,-1,1721,1380,0,0
504,-356,0,0,0,0,0,0,0,0,0,-1,1728,1380,0,0
511,-356,0,0,0,0,0,0,0,0,0,-1,1735,1380,0,0
518,-356,0,0,0,0,0,0,0,0,0,-1,1742,1380,0,0
525,-356,0,0,0,0,0,0,0,0,0,-1,1749,1380,0,0
532,-356,0,0,0,0,0,0,0,0,0,-1,1756,1380,0,0
539,-356,0,0,0,0,0,0,0,0,0,-1,1763,1380,0,0
546,-356,0,0,0,0,0,0,0,0,0,-1,1770,1380,0,0
553,-356,0,0,0,0,0,0,0,0,0,-1,1777,1380,0,0
560,-356,63.6171,3.12183,0,0,0,0,0,0,0,-1,1784,1380,63.617,-3.12183
567,-356,65.0425,1.89966,0,0,0,0,0,0,0,-1,1791,1380,65.0424,-1.8996
574,-356,45.5742,3.39575,0,0,0,0,0,0,0,-1,1798,1380,45.5742,-3.39574
581,-356,45.6708,3.64172,0,0,0,0,0,0,0,-1,1805,1380,45.6707,-3.64175
588,-356,44.4739,4.87085,0,0,0,0,0,0,0,-1,1812,1380,44.4739,-4.87086
595,-356,32.0834,5.86084,0,0,0,0,0,0,0,-1,1819,1380,32.0834,-5.86079
602,-356,30.1604,6.07104,0,0,0,0,0,0,0,-1,1826,1380,30.1604,-6.07104
609,-356,28.3435,6.48901,0,0,0,0,0,0,0,-1,1833,1380,28.3435,-6.48899
616,-356,26.9358,6.80872,0,0,0,0,0,0,0,-1,1840,1380,26.9358,-6.80877
623,-356,16.1803,1.07532,0,0,0,0,0,0,0,-1,1847,1380,16.1803,-1.07529
630,-356,16.4138,6.91553,0,0,0,0,0,0,0,-1,1854,1380,16.4138,-6.9155
637,-356,24.8021,12.0151,0,0,0,0,0,0,0,-1,1861,1380,24.8022,-12.0151
644,-356,43.6927,20.4127,0,0,0,0,0,0,0,-1,1868,1380,43.6928,-20.4127
651,-356,43.7146,19.5245,-0.000420344,0.000469587,3.61527e-05,0.000471053,-0.00042181,1.53026,0.000515756,0.021749,1875,1380,43.7146,-19.5245
658,-356,43.6299,18.7061,0.000182057,0.000205699,5.04073e-05,0.000245653,0.000142103,0.900573,0.000142409,0.0151531,1882,1380,43.6299,-18.706
665,-356,43.5795,17.9788,0.000902401,1.79893e-05,-0.000112601,0.000916512,3.87846e-06,-0.124668,0.000609719,0.0152597,1889,1380,43.5795,-17.9787
672,-356,43.5088,17.2358,0.0016859,-6.82752e-06,-0.000397979,0.0017748,-9.57277e-05,-0.219771,0.00121637,0.01664,1896,1380,43.5088,-17.2359
679,-356,43.4951,16.453,0.00254193,5.38443e-05,-0.000774285,0.00276321,-0.000167432,-0.278361,0.00190041,0.0189768,1903,1380,43.4951,-16.453
686,-356,43.4695,15.6249,0.00348851,0.000243956,-0.0012647,0.00392323,-0.000190764,-0.331083,0.00268134,0.020038,1910,1380,43.4695,-15.6249
693,-356,43.4275,14.829,0.00449789,0.00055899,-0.00184429,0.00522662,-0.000169732,-0.376296,0.00354234,0.0174191,1917,1380,43.4275,-14.829
700,-356,43.4309,14.0588,0.00556784,0.00104401,-0.00254768,0.00671282,-0.00010097,-0.422373,0.00450925,0.0257809,1924,1380,43.4309,-14.0589
707,-356,43.5228,13.2987,0,0,0,0,0,0,0,-1,1931,1380,43.5228,-13.2987
714,-356,19.6907,5.82129,0,0,0,0,0,0,0,-1,1938,1380,19.6907,-5.82132
721,-356,17.2948,4.1958,0,0,0,0,0,0,0,-1,1945,1380,17.2948,-4.19584
728,-356,19.1846,2.31519,0,0,0,0,0,0,0,-1,1952,1380,19.1846,-2.31514
735,-356,20.0731,2.50842,0,0,0,0,0,0,0,-1,1959,1380,20.0731,-2.50844
742,-356,21.0111,2.43762,0,0,0,0,0,0,0,-1,1966,1380,21.0112,-2.43762
749,-356,22.1411,1.83276,0,0,0,0,0,0,0,-1,1973,1380,22.1411,-1.83275
756,-356,0,0,0,0,0,0,0,0,0,-1,1980,1380,0,0
763,-356,0,0,0,0,0,0,0,0,0,-1,1987,1380,0,0
770,-356,0,0,0,0,0,0,0,0,0,-1,1994,1380,0,0
777,-356,0,0,0,0,0,0,0,0,0,-1,2001,1380,0,0
784,-356,0,0,0,0,0,0,0,0,0,-1,2008,1380,0,0
791,-356,0,0,0,0,0,0,0,0,0,-1,2015,1380,0,0
798,-356,0,0,0,0,0,0,0,0,0,-1,2022,1380,0,0
805,-356,0,0,0,0,0,0,0,0,0,-1,2029,1380,0,0
812,-356,0,0,0,0,0,0,0,0,0,-1,2036,1380,0,0
-700,-363,0,0,0,0,0,0,0,0,0,-1,524,1387,0,0
-693,-363,0,0,0,0,0,0,0,0,0,-1,531,1387,0,0
-686,-363,0,0,0,0,0,0,0,0,0,-1,538,1387,0,0
-679,-363,0,0,0,0,0,0,0,0,0,-1,545,1387,0,0
-672,-363,0,0,0,0,0,0,0,0,0,-1,552,1387,0,0
-665,-363,0,0,0,0,0,0,0,0,0,-1,559,1387,0,0
-658,-363,0,0,0,0,0,0,0,0,0,-1,566,1387,0,0
-651,-363,0,0,0,0,0,0,0,0,0,-1,573,1387,0,0
-644,-363,0,0,0,0,0,0,0,0,0,-1,580,1387,0,0
-637,-363,0,0,0,0,0,0,0,0,0,-1,587,1387,0,0
-630,-363,0,0,0,0,0,0,0,0,0,-1,594,1387,0,0
-623,-363,-9.67566,-5.91846,0,0,0,0,0,0,0,-1,601,1387,-9.67563,5.91847
-616,-363,-9.02985,-2.98083,0,0,0,0,0,0,0,-1,608,1387,-9.02987,2.98079
-609,-363,-4.90265,0.195679,0,0,0,0,0,0,0,-1,615,1387,-4.90263,-0.195721
-602,-363,-9.65009,3.5321,0,0,0,0,0,0,0,-1,622,1387,-9.65007,-3.53211
-595,-363,-8.00256,3.48853,0,0,0,0,0,0,0,-1,629,1387,-8.00256,-3.48855
-588,-363,-10.8846,4.49768,0,0,0,0,0,0,0,-1,636,1387,-10.8846,-4.49773
-581,-363,-11.7469,5.15161,0,0,0,0,0,0,0,-1,643,1387,-11.747,-5.15167
-574,-363,-17.8334,8.33801,0,0,0,0,0,0,0,-1,650,1387,-17.8334,-8.33804
-567,-363,-25.8051,13.3009,0,0,0,0,0,0,0,-1,657,1387,-25.8051,-13.3009
-560,-363,-25.6932,14.1741,0.00500957,0.00294545,0.00290508,0.00706047,0.000894546,0.614722,0.00443895,0.0149308,664,1387,-25.6932,-14.1741
-553,-363,-25.7006,15.0278,0.00421594,0.00211552,0.00237221,0.00576002,0.000571443,0.577009,0.00366441,0.0142363,671,1387,-25.7006,-15.0278
-546,-363,-25.7673,15.8297,0.00364174,0.00141334,0.00194668,0.00477053,0.000284554,0.525474,0.00308987,0.0138903,678,1387,-25.7673,-15.8298
-539,-363,-25.7906,16.6652,0.00329951,0.000843197,0.00164424,0.00412364,1.90656e-05,0.464626,0.00274276,0.0158352,685,1387,-25.7906,-16.6651
-532,-363,-25.8752,17.5099,0.00318543,0.000427508,0.00147968,0.00382909,-0.000216148,0.410308,0.00262774,0.0136937,692,1387,-25.8752,-17.5098
-525,-363,-25.9081,18.324,0.00326835,0.000123635,0.00142667,0.00381913,-0.000427143,0.368429,0.00269975,0.0125895,699,1387,-25.9081,-18.3239
-518,-363,-25.9243,19.1405,0.00357706,-1.08188e-05,0.00149837,0.0041205,-0.000554255,0.347931,0.00294916,0.0111372,706,1387,-25.9243,-19.1405
-511,-363,-25.9009,19.9817,0.0042017,3.57289e-05,0.00180541,0.00487523,-0.000637795,0.357067,0.00348227,0.0322726,713,1387,-25.9009,-19.9817
-504,-363,-25.8519,20.8608,0,0,0,0,0,0,0,-1,720,1387,-25.8519,-20.8608
-497,-363,-7.18842,7.29944,0,0,0,0,0,0,0,-1,727,1387,-7.18839,-7.29945
-490,-363,-5.42413,4.6958,0,0,0,0,0,0,0,-1,734,1387,-5.42412,-4.69583
-483,-363,-6.28375,4.1394,0,0,0,0,0,0,0,-1,741,1387,-6.28374,-4.13944
-476,-363,-5.83807,4.31018,0,0,0,0,0,0,0,-1,748,1387,-5.8381,-4.31013
-469,-363,-10.7125,0.697754,0,0,0,0,0,0,0,-1,755,1387,-10.7125,-0.697811
-462,-363,-9.55951,-0.0830078,0,0,0,0,0,0,0,-1,762,1387,-9.55949,0.0830163
-455,-363,-13.1008,-0.290894,0,0,0,0,0,0,0,-1,769,1387,-13.1008,0.290921
-448,-363,-11.7324,2.46606,0,0,0,0,0,0,0,-1,776,1387,-11.7324,-2.46605
-441,-363,-12.4464,2.5354,0,0,0,0,0,0,0,-1,783,1387,-12.4463,-2.53537
-434,-363,-13.6918,2.14661,0,0,0,0,0,0,0,-1,790,1387,-13.6918,-2.14662
-427,-363,0,0,0,0,0,0,0,0,0,-1,797,1387,0,0
-420,-363,0,0,0,0,0,0,0,0,0,-1,804,1387,0,0
-413,-363,0,0,0,0,0,0,0,0,0,-1,811,1387,0,0
-406,-363,0,0,0,0,0,0,0,0,0,-1,818,1387,0,0
-399,-363,0,0,0,0,0,0,0,0,0,-1,825,1387,0,0
-392,-363,0,0,0,0,0,0,0,0,0,-1,832,1387,0,0
-385,-363,0,0,0,0,0,0,0,0,0,-1,839,1387,0,0
-378,-363,0,0,0,0,0,0,0,0,0,-1,846,1387,0,0
-371,-363,0,0,0,0,0,0,0,0,0,-1,853,1387,0,0
-364,-363,0,0,0,0,0,0,0,0,0,-1,860,1387,0,0
-357,-363,0,0,0,0,0,0,0,0,0,-1,867,1387,0,0
-350,-363,0,0,0,0,0,0,0,0,0,-1,874,1387,0,0
-343,-363,0,0,0,0,0,0,0,0,0,-1,881,1387,0,0
-336,-363,0,0,0,0,0,0,0,0,0,-1,888,1387,0,0
-329,-363,0,0,0,0,0,0,0,0,0,-1,895,1387,0,0
-322,-363,0,0,0,0,0,0,0,0,0,-1,902,1387,0,0
-315,-363,0,0,0,0,0,0,0,0,0,-1,909,1387,0,0
-308,-363,0,0,0,0,0,0,0,0,0,-1,916,1387,0,0
-301,-363,0,0,0,0,0,0,0,0,0,-1,923,1387,0,0
-294,-363,0,0,0,0,0,0,0,0,0,-1,930,1387,0,0
-287,-363,0,0,0,0,0,0,0,0,0,-1,937,1387,0,0
-280,-363,0,0,0,0,0,0,0,0,0,-1,944,1387,0,0
-273,-363,0,0,0,0,0,0,0,0,0,-1,951,1387,0,0
-266,-363,0,0,0,0,0,0,0,0,0,-1,958,1387,0,0
-259,-363,0,0,0,0,0,0,0,0,0,-1,965,1387,0,0
-252,-363,0,0,0,0,0,0,0,0,0,-1,972,1387,0,0
-245,-363,0,0,0,0,0,0,0,0,0,-1,979,1387,0,0
-238,-363,0,0,0,0,0,0,0,0,0,-1,986,1387,0,0
-231,-363,0,0,0,0,0,0,0,0,0,-1,993,1387,0,0
-224,-363,0,0,0,0,0,0,0,0,0,-1,1000,1387,0,0
-217,-363,0,0,0,0,0,0,0,0,0,-1,1007,1387,0,0
-210,-363,0,0,0,0,0,0,0,0,0,-1,1014,1387,0,0
-203,-363,0,0,0,0,0,0,0,0,0,-1,1021,1387,0,0
-196,-363,0,0,0,0,0,0,0,0,0,-1,1028,1387,0,0
-189,-363,0,0,0,0,0,0,0,0,0,-1,1035,1387,0,0
-182,-363,0,0,0,0,0,0,0,0,0,-1,1042,1387,0,0
-175,-363,0,0,0,0,0,0,0,0,0,-1,1049,1387,0,0
-168,-363,0,0,0,0,0,0,0,0,0,-1,1056,1387,0,0
-161,-363,0,0,0,0,0,0,0,0,0,-1,1063,1387,0,0
-154,-363,0,0,0,0,0,0,0,0,0,-1,1070,1387,0,0
-147,-363,0,0,0,0,0,0,0,0,0,-1,1077,1387,0,0
-140,-363,0,0,0,0,0,0,0,0,0,-1,1084,1387,0,0
-133,-363,0,0,0,0,0,0,0,0,0,-1,1091,1387,0,0
-126,-363,0,0,0,0,0,0,0,0,0,-1,1098,1387,0,0
-119,-363,0,0,0,0,0,0,0,0,0,-1,1105,1387,0,0
-112,-363,0,0,0,0,0,0,0,0,0,-1,1112,1387,0,0
-105,-363,0,0,0,0,0,0,0,0,0,-1,1119,1387,0,0
-98,-363,0,0,0,0,0,0,0,0,0,-1,1126,1387,0,0
-91,-363,0,0,0,0,0,0,0,0,0,-1,1133,1387,0,0
-84,-363,0,0,0,0,0,0,0,0,0,-1,1140,1387,0,0
-77,-363,0,0,0,0,0,0,0,0,0,-1,1147,1387,0,0
-70,-363,0,0,0,0,0,0,0,0,0,-1,1154,1387,0,0
-63,-363,0,0,0,0,0,0,0,0,0,-1,1161,1387,0,0
-56,-363,0,0,0,0,0,0,0,0,0,-1,1168,1387,0,0
-49,-363,0,0,0,0,0,0,0,0,0,-1,1175,1387,0,0
-42,-363,0,0,0,0,0,0,0,0,0,-1,1182,1387,0,0
-35,-363,0,0,0,0,0,0,0,0,0,-1,1189,1387,0,0
-28,-363,0,0,0,0,0,0,0,0,0,-1,1196,1387,0,0
-21,-363,0,0,0,0,0,0,0,0,0,-1,1203,1387,0,0
-14,-363,0,0,0,0,0,0,0,0,0,-1,1210,1387,0,0
-7,-363,0,0,0,0,0,0,0,0,0,-1,1217,1387,0,0
0,-363,0,0,0,0,0,0,0,0,0,-1,1224,1387,0,0
7,-363,0,0,0,0,0,0,0,0,0,-1,1231,1387,0,0
14,-363,0,0,0,0,0,0,0,0,0,-1,1238,1387,0,0
21,-363,0,0,0,0,0,0,0,0,0,-1,1245,1387,0,0
28,-363,0,0,0,0,0,0,0,0,0,-1,1252,1387,0,0
35,-363,0,0,0,0,0,0,0,0,0,-1,1259,1387,0,0
42,-363,0,0,0,0,0,0,0,0,0,-1,1266,1387,0,0
49,-363,0,0,0,0,0,0,0,0,0,-1,1273,1387,0,0
56,-363,0,0,0,0,0,0,0,0,0,-1,1280,1387,0,0
63,-363,0,0,0,0,0,0,0,0,0,-1,1287,1387,0,0
70,-363,0,0,0,0,0,0,0,0,0,-1,1294,1387,0,0
77,-363,0,0,0,0,0,0,0,0,0,-1,1301,1387,0,0
84,-363,0,0,0,0,0,0,0,0,0,-1,1308,1387,0,0
91,-363,0,0,0,0,0,0,0,0,0,-1,1315,1387,0,0
98,-363,0,0,0,0,0,0,0,0,0,-1,1322,1387,0,0
105,-363,0,0,0,0,0,0,0,0,0,-1,1329,1387,0,0
112,-363,0,0,0,0,0,0,0,0,0,-1,1336,1387,0,0
119,-363,0,0,0,0,0,0,0,0,0,-1,1343,1387,0,0
126,-363,0,0,0,0,0,0,0,0,0,-1,1350,1387,0,0
133,-363,0,0,0,0,0,0,0,0,0,-1,1357,1387,0,0
140,-363,0,0,0,0,0,0,0,0,0,-1,1364,1387,0,0
147,-363,0,0,0,0,0,0,0,0,0,-1,1371,1387,0,0
154,-363,0,0,0,0,0,0,0,0,0,-1,1378,1387,0,0
161,-363,0,0,0,0,0,0,0,0,0,-1,1385,1387,0,0
168,-363,0,0,0,0,0,0,0,0,0,-1,1392,1387,0,0
175,-363,0,0,0,0,0,0,0,0,0,-1,1399,1387,0,0
182,-363,0,0,0,0,0,0,0,0,0,-1,1406,1387,0,0
189,-363,0,0,0,0,0,0,0,0,0,-1,1413,1387,0,0
196,-363,0,0,0,0,0,0,0,0,0,-1,1420,1387,0,0
203,-363,0,0,0,0,0,0,0,0,0,-1,1427,1387,0,0
210,-363,0,0,0,0,0,0,0,0,0,-1,1434,1387,0,0
217,-363,0,0,0,0,0,0,0,0,0,-1,1441,1387,0,0
224,-363,0,0,0,0,0,0,0,0,0,-1,1448,1387,0,0
231,-363,0,0,0,0,0,0,0,0,0,-1,1455,1387,0,0
238,-363,0,0,0,0,0,0,0,0,0,-1,1462,1387,0,0
245,-363,0,0,0,0,0,0,0,0,0,-1,1469,1387,0,0
252,-363,0,0,0,0,0,0,0,0,0,-1,1476,1387,0,0
259,-363,0,0,0,0,0,0,0,0,0,-1,1483,1387,0,0
266,-363,0,0,0,0,0,0,0,0,0,-1,1490,1387,0,0
273,-363,0,0,0,0,0,0,0,0,0,-1,1497,1387,0,0
280,-363,0,0,0,0,0,0,0,0,0,-1,1504,1387,0,0
287,-363,0,0,0,0,0,0,0,0,0,-1,1511,1387,0,0
294,-363,0,0,0,0,0,0,0,0,0,-1,1518,1387,0,0
301,-363,0,0,0,0,0,0,0,0,0,-1,1525,1387,0,0
308,-363,0,0,0,0,0,0,0,0,0,-1,1532,1387,0,0
315,-363,0,0,0,0,0,0,0,0,0,-1,1539,1387,0,0
322,-363,0,0,0,0,0,0,0,0,0,-1,1546,1387,0,0
329,-363,0,0,0,0,0,0,0,0,0,-1,1553,1387,0,0
336,-363,0,0,0,0,0,0,0,0,0,-1,1560,1387,0,0
343,-363,0,0,0,0,0,0,0,0,0,-1,1567,1387,0,0
350,-363,0,0,0,0,0,0,0,0,0,-1,1574,1387,0,0
357,-363,0,0,0,0,0,0,0,0,0,-1,1581,1387,0,0
364,-363,0,0,0,0,0,0,0,0,0,-1,1588,1387,0,0
371,-363,0,0,0,0,0,0,0,0,0,-1,1595,1387,0,0
378,-363,0,0,0,0,0,0,0,0,0,-1,1602,1387,0,0
385,-363,0,0,0,0,0,0,0,0,0,-1,1609,1387,0,0
392,-363,0,0,0,0,0,0,0,0,0,-1,1616,1387,0,0
399,-363,0,0,0,0,0,0,0,0,0,-1,1623,1387,0,0
406,-363,0,0,0,0,0,0,0,0,0,-1,1630,1387,0,0
413,-363,0,0,0,0,0,0,0,0,0,-1,1637,1387,0,0
420,-363,0,0,0,0,0,0,0,0,0,-1,1644,1387,0,0
427,-363,0,0,0,0,0,0,0,0,0,-1,1651,1387,0,0
434,-363,0,0,0,0,0,0,0,0,0,-1,1658,1387,0,0
441,-363,0,0,0,0,0,0,0,0,0,-1,1665,1387,0,0
448,-363,0,0,0,0,0,0,0,0,0,-1,1672,1387,0,0
455,-363,0,0,0,0,0,0,0,0,0,-1,1679,1387,0,0
462,-363,0,0,0,0,0,0,0,0,0,-1,1686,1387,0,0
469,-363,0,0,0,0,0,0,0,0,0,-1,1693,1387,0,0
476,-363,0,0,0,0,0,0,0,0,0,-1,1700,1387,0,0
483,-363,0,0,0,0,0,0,0,0,0,-1,1707,1387,0,0
490,-363,0,0,0,0,0,0,0,0,0,-1,1714,1387,0,0
497,-363,0,0,0,0,0,0,0,0,0,-1,1721,1387,0,0
504,-363,0,0,0,0,0,0,0,0,0,-1,1728,1387,0,0
511,-363,0,0,0,0,0,0,0,0,0,-1,1735,1387,0,0
518,-363,0,0,0,0,0,0,0,0,0,-1,1742,1387,0,0
525,-363,0,0,0,0,0,0,0,0,0,-1,1749,1387,0,0
532,-363,0,0,0,0,0,0,0,0,0,-1,1756,1387,0,0
539,-363,0,0,0,0,0,0,0,0,0,-1,1763,1387,0,0
546,-363,0,0,0,0,0,0,0,0,0,-1,1770,1387,0,0
553,-363,62.1395,3.42249,0,0,0,0,0,0,0,-1,1777,1387,62.1395,-3.42245
560,-363,63.2896,2.40808,0,0,0,0,0,0,0,-1,1784,1387,63.2896,-2.40811
567,-363,64.4463,1.38135,0,0,0,0,0,0,0,-1,1791,1387,64.4463,-1.38131
574,-363,45.7261,2.8075,0,0,0,0,0,0,0,-1,1798,1387,45.7261,-2.80754
581,-363,39.2413,1.97632,0,0,0,0,0,0,0,-1,1805,1387,39.2413,-1.97636
588,-363,32.5608,6.72131,0,0,0,0,0,0,0,-1,1812,1387,32.5608,-6.72131
595,-363,31.4688,6.95435,0,0,0,0,0,0,0,-1,1819,1387,31.4688,-6.95431
602,-363,25.7437,5.33667,0,0,0,0,0,0,0,-1,1826,1387,25.7437,-5.33667
609,-363,27.7048,7.06885,0,0,0,0,0,0,0,-1,1833,1387,27.7048,-7.06882
616,-363,16.229,1.08704,0,0,0,0,0,0,0,-1,1840,1387,16.229,-1.08706
623,-363,15.7283,7.16663,0,0,0,0,0,0,0,-1,1847,1387,15.7282,-7.16665
630,-363,18.3192,9.27844,0,0,0,0,0,0,0,-1,1854,1387,18.3192,-9.27843
637,-363,42.9175,21.2769,0,0,0,0,0,0,0,-1,1861,1387,42.9175,-21.2768
644,-363,42.9106,20.4027,-0.000920541,0.000878059,-4.25693e-05,0.000879066,-0.000921548,-1.54715,0.00103968,0.0186231,1868,1387,42.9107,-20.4027
651,-363,42.8861,19.568,-0.000496526,0.000393377,0.000146353,0.000416829,-0.000519978,1.41191,0.000541957,0.0112247,1875,1387,42.8861,-19.568
658,-363,42.8527,18.7748,0.000254264,0.000151764,7.21455e-05,0.00029151,0.000114518,0.476573,0.000169587,0.0121342,1882,1387,42.8527,-18.7747
665,-363,42.8003,18.0275,0.00111514,8.63398e-06,-0.000168255,0.00114016,-1.63852e-05,-0.147616,0.000765625,0.0129789,1889,1387,42.8003,-18.0274
672,-363,42.7301,17.285,0.00206645,-6.32265e-06,-0.000533211,0.00219558,-0.000135445,-0.237586,0.00151089,0.0146636,1896,1387,42.7301,-17.2851
679,-363,42.6978,16.516,0.0031239,8.82711e-05,-0.00102357,0.00343678,-0.000224613,-0.296659,0.00236961,0.0159878,1903,1387,42.6977,-16.5159
686,-363,42.6649,15.7064,0.0043021,0.000315104,-0.0016537,0.00489873,-0.000281528,-0.346251,0.00336359,0.0157593,1910,1387,42.6649,-15.7064
693,-363,42.6202,14.8666,0.00557401,0.000702931,-0.0024103,0.00656505,-0.000288105,-0.390095,0.00447583,0.0140618,1917,1387,42.6203,-14.8665
700,-363,42.7938,14.0067,0.00698984,0.00132568,-0.00338145,0.00856853,-0.000253003,-0.436792,0.00579853,0.0340439,1924,1387,42.7938,-14.0067
707,-363,43.1508,13.2014,0,0,0,0,0,0,0,-1,1931,1387,43.1507,-13.2015
714,-363,16.5782,5.3147,0,0,0,0,0,0,0,-1,1938,1387,16.5783,-5.31472
721,-363,14.4045,4.51685,0,0,0,0,0,0,0,-1,1945,1387,14.4045,-4.51685
728,-363,19.9756,0.853027,0,0,0,0,0,0,0,-1,1952,1387,19.9756,-0.853059
735,-363,21.4297,1.2981,0,0,0,0,0,0,0,-1,1959,1387,21.4297,-1.29811
742,-363,21.3621,2.79663,0,0,0,0,0,0,0,-1,1966,1387,21.362,-2.7966
749,-363,0,0,0,0,0,0,0,0,0,-1,1973,1387,0,0
756,-363,0,0,0,0,0,0,0,0,0,-1,1980,1387,0,0
763,-363,0,0,0,0,0,0,0,0,0,-1,1987,1387,0,0
770,-363,0,0,0,0,0,0,0,0,0,-1,1994,1387,0,0
777,-363,0,0,0,0,0,0,0,0,0,-1,2001,1387,0,0
784,-363,0,0,0,0,0,0,0,0,0,-1,2008,1387,0,0
791,-363,0,0,0,0,0,0,0,0,0,-1,2015,1387,0,0
798,-363,0,0,0,0,0,0,0,0,0,-1,2022,1387,0,0
805,-363,0,0,0,0,0,0,0,0,0,-1,2029,1387,0,0
812,-363,0,0,0,0,0,0,0,0,0,-1,2036,1387,0,0
-700,-370,0,0,0,0,0,0,0,0,0,-1,524,1394,0,0
-693,-370,0,0,0,0,0,0,0,0,0,-1,531,1394,0,0
-686,-370,0,0,0,0,0,0,0,0,0,-1,538,1394,0,0
-679,-370,0,0,0,0,0,0,0,0,0,-1,545,1394,0,0
-672,-370,0,0,0,0,0,0,0,0,0,-1,552,1394,0,0
-665,-370,0,0,0,0,0,0,0,0,0,-1,559,1394,0,0
-658,-370,0,0,0,0,0,0,0,0,0,-1,566,1394,0,0
-651,-370,0,0,0,0,0,0,0,0,0,-1,573,1394,0,0
-644,-370,0,0,0,0,0,0,0,0,0,-1,580,1394,0,0
-637,-370,0,0,0,0,0,0,0,0,0,-1,587,1394,0,0
-630,-370,0,0,0,0,0,0,0,0,0,-1,594,1394,0,0
-623,-370,-10.1758,-7.10486,0,0,0,0,0,0,0,-1,601,1394,-10.1758,7.10483
-616,-370,-8.85925,-1.61475,0,0,0,0,0,0,0,-1,608,1394,-8.85925,1.61476
-609,-370,-5.39325,0.0421143,0,0,0,0,0,0,0,-1,615,1394,-5.39328,-0.0421372
-602,-370,-12.3151,3.44592,0,0,0,0,0,0,0,-1,622,1394,-12.3151,-3.44595
-595,-370,-7.53284,5.44214,0,0,0,0,0,0,0,-1,629,1394,-7.53284,-5.44216
-588,-370,-11.2422,4.50598,0,0,0,0,0,0,0,-1,636,1394,-11.2422,-4.50596
-581,-370,-13.1575,5.84888,0,0,0,0,0,0,0,-1,643,1394,-13.1575,-5.84887
-574,-370,-13.0107,6.69861,0,0,0,0,0,0,0,-1,650,1394,-13.0108,-6.69866
-567,-370,-24.9407,13.1925,0,0,0,0,0,0,0,-1,657,1394,-24.9407,-13.1926
-560,-370,-24.9812,14.1403,0.00582518,0.00336856,0.00347905,0.00828638,0.000907354,0.6157,0.00524802,0.0376105,664,1394,-24.9812,-14.1403
-553,-370,-24.9116,15.0594,0.00479897,0.00244362,0.00277569,0.00663648,0.000606105,0.584767,0.00423676,0.0114204,671,1394,-24.9116,-15.0594
-546,-370,-24.9258,15.8817,0.00398876,0.00165795,0.00218497,0.0052997,0.000347014,0.540404,0.00342333,0.0153832,678,1394,-24.9258,-15.8817
-539,-370,-24.9499,16.7573,0.00342717,0.00104009,0.00174649,0.004349,0.00011826,0.485651,0.00286073,0.019501,685,1394,-24.9499,-16.7573
-532,-370,-25.0482,17.5978,0.00311393,0.000591367,0.00146431,0.00378527,-7.99726e-05,0.429875,0.00255059,0.0219849,692,1394,-25.0482,-17.5977
-525,-370,-25.0853,18.3831,0.00301725,0.000286321,0.00132247,0.00355269,-0.000249111,0.384701,0.00245571,0.0201042,699,1394,-25.0852,-18.3831
-518,-370,-25.0965,19.1627,0.00313843,0.000128262,0.00131673,0.00363311,-0.000366417,0.359374,0.00255299,0.0141558,706,1394,-25.0965,-19.1627
-511,-370,-25.1291,20.0177,0.00356268,0.000163874,0.00152357,0.00414566,-0.000419096,0.365447,0.00291353,0.0148973,713,1394,-25.1291,-20.0177
-504,-370,-25.176,20.8617,0,0,0,0,0,0,0,-1,720,1394,-25.1759,-20.8617
-497,-370,-12.3546,11.7982,0,0,0,0,0,0,0,-1,727,1394,-12.3546,-11.7983
-490,-370,-5.30695,4.5271,0,0,0,0,0,0,0,-1,734,1394,-5.30698,-4.52704
-483,-370,-6.02997,4.59253,0,0,0,0,0,0,0,-1,741,1394,-6.02994,-4.5925
-476,-370,-6.75293,4.65796,0,0,0,0,0,0,0,-1,748,1394,-6.7529,-4.65795
-469,-370,-10.584,1.14294,0,0,0,0,0,0,0,-1,755,1394,-10.584,-1.14293
-462,-370,-9.54462,0.387207,0,0,0,0,0,0,0,-1,762,1394,-9.5446,-0.387176
-455,-370,-8.50525,-0.36853,0,0,0,0,0,0,0,-1,769,1394,-8.50523,0.368582
-448,-370,-10.9543,2.28833,0,0,0,0,0,0,0,-1,776,1394,-10.9543,-2.28835
-441,-370,-11.8699,1.8313,0,0,0,0,0,0,0,-1,783,1394,-11.8699,-1.83127
-434,-370,-12.7855,1.37415,0,0,0,0,0,0,0,-1,790,1394,-12.7855,-1.37419
-427,-370,0,0,0,0,0,0,0,0,0,-1,797,1394,0,0
-420,-370,0,0,0,0,0,0,0,0,0,-1,804,1394,0,0
-413,-370,0,0,0,0,0,0,0,0,0,-1,811,1394,0,0
-406,-370,0,0,0,0,0,0,0,0,0,-1,818,1394,0,0
-399,-370,0,0,0,0,0,0,0,0,0,-1,825,1394,0,0
-392,-370,0,0,0,0,0,0,0,0,0,-1,832,1394,0,0
-385,-370,0,0,0,0,0,0,0,0,0,-1,839,1394,0,0
-378,-370,0,0,0,0,0,0,0,0,0,-1,846,1394,0,0
-371,-370,0,0,0,0,0,0,0,0,0,-1,853,1394,0,0
-364,-370,0,0,0,0,0,0,0,0,0,-1,860,1394,0,0
-357,-370,0,0,0,0,0,0,0,0,0,-1,867,1394,0,0
-350,-370,0,0,0,0,0,0,0,0,0,-1,874,1394,0,0
-343,-370,0,0,0,0,0,0,0,0,0,-1,881,1394,0,0
-336,-370,0,0,0,0,0,0,0,0,0,-1,888,1394,0,0
-329,-370,0,0,0,0,0,0,0,0,0,-1,895,1394,0,0
-322,-370,0,0,0,0,0,0,0,0,0,-1,902,1394,0,0
-315,-370,0,0,0,0,0,0,0,0,0,-1,909,1394,0,0
-308,-370,0,0,0,0,0,0,0,0,0,-1,916,1394,0,0
-301,-370,0,0,0,0,0,0,0,0,0,-1,923,1394,0,0
-294,-370,0,0,0,0,0,0,0,0,0,-1,930,1394,0,0
-287,-370,0,0,0,0,0,0,0,0,0,-1,937,1394,0,0
-280,-370,0,0,0,0,0,0,0,0,0,-1,944,1394,0,0
-273,-370,0,0,0,0,0,0,0,0,0,-1,951,1394,0,0
-266,-370,0,0,0,0,0,0,0,0,0,-1,958,1394,0,0
-259,-370,0,0,0,0,0,0,0,0,0,-1,965,1394,0,0
-252,-370,0,0,0,0,0,0,0,0,0,-1,972,1394,0,0
-245,-370,0,0,0,0,0,0,0,0,0,-1,979,1394,0,0
-238,-370,0,0,0,0,0,0,0,0,0,-1,986,1394,0,0
-231,-370,0,0,0,0,0,0,0,0,0,-1,993,1394,0,0
-224,-370,0,0,0,0,0,0,0,0,0,-1,1000,1394,0,0
-217,-370,0,0,0,0,0,0,0,0,0,-1,1007,1394,0,0
-210,-370,0,0,0,0,0,0,0,0,0,-1,1014,1394,0,0
-203,-370,0,0,0,0,0,0,0,0,0,-1,1021,1394,0,0
-196,-370,0,0,0,0,0,0,0,0,0,-1,1028,1394,0,0
-189,-370,0,0,0,0,0,0,0,0,0,-1,1035,1394,0,0
-182,-370,0,0,0,0,0,0,0,0,0,-1,1042,1394,0,0
-175,-370,0,0,0,0,0,0,0,0,0,-1,1049,1394,0,0
-168,-370,0,0,0,0,0,0,0,0,0,-1,1056,1394,0,0
-161,-370,0,0,0,0,0,0,0,0,0,-1,1063,1394,0,0
-154,-370,0,0,0,0,0,0,0,0,0,-1,1070,1394,0,0
-147,-370,0,0,0,0,0,0,0,0,0,-1,1077,1394,0,0
-140,-370,0,0,0,0,0,0,0,0,0,-1,1084,1394,0,0
-133,-370,0,0,0,0,0,0,0,0,0,-1,1091,1394,0,0
-126,-370,0,0,0,0,0,0,0,0,0,-1,1098,1394,0,0
-119,-370,0,0,0,0,0,0,0,0,0,-1,1105,1394,0,0
-112,-370,0,0,0,0,0,0,0,0,0,-1,1112,1394,0,0
-105,-370,0,0,0,0,0,0,0,0,0,-1,1119,1394,0,0
-98,-370,0,0,0,0,0,0,0,0,0,-1,1126,1394,0,0
-91,-370,0,0,0,0,0,0,0,0,0,-1,1133,1394,0,0
-84,-370,0,0,0,0,0,0,0,0,0,-1,1140,1394,0,0
-77,-370,0,0,0,0,0,0,0,0,0,-1,1147,1394,0,0
-70,-370,0,0,0,0,0,0,0,0,0,-1,1154,1394,0,0
-63,-370,0,0,0,0,0,0,0,0,0,-1,1161,1394,0,0
-56,-370,0,0,0,0,0,0,0,0,0,-1,1168,1394,0,0
-49,-370,0,0,0,0,0,0,0,0,0,-1,1175,1394,0,0
-42,-370,0,0,0,0,0,0,0,0,0,-1,1182,1394,0,0
-35,-370,0,0,0,0,0,0,0,0,0,-1,1189,1394,0,0
-28,-370,0,0,0,0,0,0,0,0,0,-1,1196,1394,0,0
-21,-370,0,0,0,0,0,0,0,0,0,-1,1203,1394,0,0
-14,-370,0,0,0,0,0,0,0,0,0,-1,1210,1394,0,0
-7,-370,0,0,0,0,0,0,0,0,0,-1,1217,1394,0,0
0,-370,0,0,0,0,0,0,0,0,0,-1,1224,1394,0,0
7,-370,0,0,0,0,0,0,0,0,0,-1,1231,1394,0,0
14,-370,0,0,0,0,0,0,0,0,0,-1,1238,1394,0,0
21,-370,0,0,0,0,0,0,0,0,0,-1,1245,1394,0,0
28,-370,0,0,0,0,0,0,0,0,0,-1,1252,1394,0,0
35,-370,0,0,0,0,0,0,0,0,0,-1,1259,1394,0,0
42,-370,0,0,0,0,0,0,0,0,0,-1,1266,1394,0,0
49,-370,0,0,0,0,0,0,0,0,0,-1,1273,1394,0,0
56,-370,0,0,0,0,0,0,0,0,0,-1,1280,1394,0,0
63,-370,0,0,0,0,0,0,0,0,0,-1,1287,1394,0,0
70,-370,0,0,0,0,0,0,0,0,0,-1,1294,1394,0,0
77,-370,0,0,0,0,0,0,0,0,0,-1,1301,1394,0,0
84,-370,0,0,0,0,0,0,0,0,0,-1,1308,1394,0,0
91,-370,0,0,0,0,0,0,0,0,0,-1,1315,1394,0,0
98,-370,0,0,0,0,0,0,0,0,0,-1,1322,1394,0,0
105,-370,0,0,0,0,0,0,0,0,0,-1,1329,1394,0,0
112,-370,0,0,0,0,0,0,0,0,0,-1,1336,1394,0,0
119,-370,0,0,0,0,0,0,0,0,0,-1,1343,1394,0,0
126,-370,0,0,0,0,0,0,0,0,0,-1,1350,1394,0,0
133,-370,0,0,0,0,0,0,0,0,0,-1,1357,1394,0,0
140,-370,0,0,0,0,0,0,0,0,0,-1,1364,1394,0,0
147,-370,0,0,0,0,0,0,0,0,0,-1,1371,1394,0,0
154,-370,0,0,0,0,0,0,0,0,0,-1,1378,1394,0,0
161,-370,0,0,0,0,0,0,0,0,0,-1,1385,1394,0,0
168,-370,0,0,0,0,0,0,0,0,0,-1,1392,1394,0,0
175,-370,0,0,0,0,0,0,0,0,0,-1,1399,1394,0,0
182,-370,0,0,0,0,0,0,0,0,0,-1,1406,1394,0,0
189,-370,0,0,0,0,0,0,0,0,0,-1,1413,1394,0,0
196,-370,0,0,0,0,0,0,0,0,0,-1,1420,1394,0,0
203,-370,0,0,0,0,0,0,0,0,0,-1,1427,1394,0,0
210,-370,0,0,0,0,0,0,0,0,0,-1,1434,1394,0,0
217,-370,0,0,0,0,0,0,0,0,0,-1,1441,1394,0,0
224,-370,0,0,0,0,0,0,0,0,0,-1,1448,1394,0,0
231,-370,0,0,0,0,0,0,0,0,0,-1,1455,1394,0,0
238,-370,0,0,0,0,0,0,0,0,0,-1,1462,1394,0,0
245,-370,0,0,0,0,0,0,0,0,0,-1,1469,1394,0,0
252,-370,0,0,0,0,0,0,0,0,0,-1,1476,1394,0,0
259,-370,0,0,0,0,0,0,0,0,0,-1,1483,1394,0,0
266,-370,0,0,0,0,0,0,0,0,0,-1,1490,1394,0,0
273,-370,0,0,0,0,0,0,0,0,0,-1,1497,1394,0,0
280,-370,0,0,0,0,0,0,0,0,0,-1,1504,1394,0,0
287,-370,0,0,0,0,0,0,0,0,0,-1,1511,1394,0,0
294,-370,0,0,0,0,0,0,0,0,0,-1,1518,1394,0,0
301,-370,0,0,0,0,0,0,0,0,0,-1,1525,1394,0,0
308,-370,0,0,0,0,0,0,0,0,0,-1,1532,1394,0,0
315,-370,0,0,0,0,0,0,0,0,0,-1,1539,1394,0,0
322,-370,0,0,0,0,0,0,0,0,0,-1,1546,1394,0,0
329,-370,0,0,0,0,0,0,0,0,0,-1,1553,1394,0,0
336,-370,0,0,0,0,0,0,0,0,0,-1,1560,1394,0,0
343,-370,0,0,0,0,0,0,0,0,0,-1,1567,1394,0,0
350,-370,0,0,0,0,0,0,0,0,0,-1,1574,1394,0,0
357,-370,0,0,0,0,0,0,0,0,0,-1,1581,1394,0,0
364,-370,0,0,0,0,0,0,0,0,0,-1,1588,1394,0,0
371,-370,0,0,0,0,0,0,0,0,0,-1,1595,1394,0,0
378,-370,0,0,0,0,0,0,0,0,0,-1,1602,1394,0,0
385,-370,0,0,0,0,0,0,0,0,0,-1,1609,1394,0,0
392,-370,0,0,0,0,0,0,0,0,0,-1,1616,1394,0,0
399,-370,0,0,0,0,0,0,0,0,0,-1,1623,1394,0,0
406,-370,0,0,0,0,0,0,0,0,0,-1,1630,1394,0,0
413,-370,0,0,0,0,0,0,0,0,0,-1,1637,1394,0,0
420,-370,0,0,0,0,0,0,0,0,0,-1,1644,1394,0,0
427,-370,0,0,0,0,0,0,0,0,0,-1,1651,1394,0,0
434,-370,0,0,0,0,0,0,0,0,0,-1,1658,1394,0,0
441,-370,0,0,0,0,0,0,0,0,0,-1,1665,1394,0,0
448,-370,0,0,0,0,0,0,0,0,0,-1,1672,1394,0,0
455,-370,0,0,0,0,0,0,0,0,0,-1,1679,1394,0,0
462,-370,0,0,0,0,0,0,0,0,0,-1,1686,1394,0,0
469,-370,0,0,0,0,0,0,0,0,0,-1,1693,1394,0,0
476,-370,0,0,0,0,0,0,0,0,0,-1,1700,1394,0,0
483,-370,0,0,0,0,0,0,0,0,0,-1,1707,1394,0,0
490,-370,0,0,0,0,0,0,0,0,0,-1,1714,1394,0,0
497,-370,0,0,0,0,0,0,0,0,0,-1,1721,1394,0,0
504,-370,0,0,0,0,0,0,0,0,0,-1,1728,1394,0,0
511,-370,0,0,0,0,0,0,0,0,0,-1,1735,1394,0,0
518,-370,0,0,0,0,0,0,0,0,0,-1,1742,1394,0,0
525,-370,0,0,0,0,0,0,0,0,0,-1,1749,1394,0,0
532,-370,0,0,0,0,0,0,0,0,0,-1,1756,1394,0,0
539,-370,0,0,0,0,0,0,0,0,0,-1,1763,1394,0,0
546,-370,60.9257,3.80493,0,0,0,0,0,0,0,-1,1770,1394,60.9256,-3.80494
553,-370,61.9966,2.87524,0,0,0,0,0,0,0,-1,1777,1394,61.9966,-2.8753
560,-370,63.1577,1.82617,0,0,0,0,0,0,0,-1,1784,1394,63.1578,-1.82617
567,-370,46.1089,3.11719,0,0,0,0,0,0,0,-1,1791,1394,46.1089,-3.1172
574,-370,38.8953,1.49353,0,0,0,0,0,0,0,-1,1798,1394,38.8952,-1.49348
581,-370,39.178,2.86145,0,0,0,0,0,0,0,-1,1805,1394,39.1779,-2.86145
588,-370,39.2102,4.27661,0,0,0,0,0,0,0,-1,1812,1394,39.2102,-4.27657
595,-370,25.793,4.5271,0,0,0,0,0,0,0,-1,1819,1394,25.793,-4.52711
602,-370,25.1077,5.34937,0,0,0,0,0,0,0,-1,1826,1394,25.1077,-5.34932
609,-370,16.712,0.993286,0,0,0,0,0,0,0,-1,1833,1394,16.7121,-0.99323
616,-370,16.7764,7.23315,0,0,0,0,0,0,0,-1,1840,1394,16.7764,-7.23313
623,-370,17.6625,8.94263,0,0,0,0,0,0,0,-1,1847,1394,17.6624,-8.94258
630,-370,20.9681,11.1785,0,0,0,0,0,0,0,-1,1854,1394,20.9681,-11.1784
637,-370,42.1531,21.225,0,0,0,0,0,0,0,-1,1861,1394,42.1531,-21.2249
644,-370,42.1545,20.4163,-0.0010486,0.000655371,0.000144348,0.000667512,-0.00106074,1.48688,0.00100638,0.0155643,1868,1394,42.1546,-20.4163
651,-370,42.1108,19.6155,-0.000446507,0.000298624,0.000212651,0.00035504,-0.000502924,1.31147,0.000497792,0.0128963,1875,1394,42.1109,-19.6155
658,-370,42.0652,18.842,0.00042374,0.00011325,6.12835e-05,0.000435398,0.000101592,0.187988,0.000263025,0.0127274,1882,1394,42.0652,-18.8421
665,-370,42.0112,18.0693,0.00141735,2.54062e-05,-0.000246829,0.00145983,-1.70672e-05,-0.170407,0.000978956,0.0148581,1889,1394,42.0112,-18.0693
672,-370,41.9508,17.2927,0.00254138,1.87738e-05,-0.00068429,0.00271505,-0.000154893,-0.248544,0.00186381,0.0161372,1896,1394,41.9509,-17.2927
679,-370,41.9399,16.5037,0.00380577,0.000107324,-0.00126335,0.00419611,-0.000283022,-0.299673,0.00289636,0.0153037,1903,1394,41.94,-16.5037
686,-370,41.8738,15.7318,0.00523597,0.000305139,-0.00200885,0.00595077,-0.000409659,-0.341854,0.00411054,0.0150666,1910,1394,41.8738,-15.7318
693,-370,41.8179,14.8909,0.00679367,0.000658945,-0.00291164,0.00795554,-0.000502919,-0.379679,0.00547903,0.0155695,1917,1394,41.8179,-14.8909
700,-370,42.1904,13.9655,0,0,0,0,0,0,0,-1,1924,1394,42.1904,-13.9655
707,-370,39.2391,11.5549,0,0,0,0,0,0,0,-1,1931,1394,39.2392,-11.555
714,-370,16.9116,5.93018,0,0,0,0,0,0,0,-1,1938,1394,16.9116,-5.93014
721,-370,17.2007,4.69153,0,0,0,0,0,0,0,-1,1945,1394,17.2007,-4.69158
728,-370,20.5315,-0.313354,0,0,0,0,0,0,0,-1,1952,1394,20.5315,0.313332
735,-370,22.3652,0.233398,0,0,0,0,0,0,0,-1,1959,1394,22.3652,-0.233355
742,-370,24.1989,0.780029,0,0,0,0,0,0,0,-1,1966,1394,24.1989,-0.780041
749,-370,0,0,0,0,0,0,0,0,0,-1,1973,1394,0,0
756,-370,0,0,0,0,0,0,0,0,0,-1,1980,1394,0,0
763,-370,0,0,0,0,0,0,0,0,0,-1,1987,1394,0,0
770,-370,0,0,0,0,0,0,0,0,0,-1,1994,1394,0,0
777,-370,0,0,0,0,0,0,0,0,0,-1,2001,1394,0,0
784,-370,0,0,0,0,0,0,0,0,0,-1,2008,1394,0,0
791,-370,0,0,0,0,0,0,0,0,0,-1,2015,1394,0,0
798,-370,0,0,0,0,0,0,0,0,0,-1,2022,1394,0,0
805,-370,0,0,0,0,0,0,0,0,0,-1,2029,1394,0,0
812,-370,0,0,0,0,0,0,0,0,0,-1,2036,1394,0,0
-700,-377,0,0,0,0,0,0,0,0,0,-1,524,1401,0,0
-693,-377,0,0,0,0,0,0,0,0,0,-1,531,1401,0,0
-686,-377,0,0,0,0,0,0,0,0,0,-1,538,1401,0,0
-679,-377,0,0,0,0,0,0,0,0,0,-1,545,1401,0,0
-672,-377,0,0,0,0,0,0,0,0,0,-1,552,1401,0,0
-665,-377,0,0,0,0,0,0,0,0,0,-1,559,1401,0,0
-658,-377,0,0,0,0,0,0,0,0,0,-1,566,1401,0,0
-651,-377,0,0,0,0,0,0,0,0,0,-1,573,1401,0,0
-644,-377,0,0,0,0,0,0,0,0,0,-1,580,1401,0,0
-637,-377,0,0,0,0,0,0,0,0,0,-1,587,1401,0,0
-630,-377,0,0,0,0,0,0,0,0,0,-1,594,1401,0,0
-623,-377,0,0,0,0,0,0,0,0,0,-1,601,1401,0,0
-616,-377,-9.43915,-2.4906,0,0,0,0,0,0,0,-1,608,1401,-9.43915,2.49062
-609,-377,-7.2821,-1.35278,0,0,0,0,0,0,0,-1,615,1401,-7.28208,1.35279
-602,-377,-14.9736,3.98279,0,0,0,0,0,0,0,-1,622,1401,-14.9737,-3.98276
-595,-377,-6.9082,1.18201,0,0,0,0,0,0,0,-1,629,1401,-6.90822,-1.18204
-588,-377,-12.8003,3.44751,0,0,0,0,0,0,0,-1,636,1401,-12.8003,-3.44754
-581,-377,-11.8243,6.21521,0,0,0,0,0,0,0,-1,643,1401,-11.8244,-6.21519
-574,-377,-12.2761,6.60547,0,0,0,0,0,0,0,-1,650,1401,-12.2761,-6.60552
-567,-377,-13.4844,7.41931,0,0,0,0,0,0,0,-1,657,1401,-13.4845,-7.41926
-560,-377,-24.2878,14.0791,0,0,0,0,0,0,0,-1,664,1401,-24.2878,-14.0791
-553,-377,-24.1098,15.0592,0.00580095,0.00289239,0.0033566,0.00800477,0.000688572,0.580975,0.00512244,0.0189837,671,1401,-24.1098,-15.0592
-546,-377,-24.1411,15.9811,0.00460036,0.0020007,0.00256048,0.00617205,0.00042901,0.550524,0.00397941,0.0171875,678,1401,-24.1411,-15.981
-539,-377,-24.1523,16.7634,0.0037083,0.00132342,0.0019625,0.00481223,0.000219486,0.5124,0.00313755,0.0218496,685,1401,-24.1523,-16.7634
-532,-377,-24.2213,17.5779,0.00310588,0.000817789,0.00153695,0.00387783,4.58366e-05,0.465457,0.00257008,0.0216139,692,1401,-24.2213,-17.5779
-525,-377,-24.196,18.4261,0.00276455,0.000482319,0.00127978,0.00333807,-9.12033e-05,0.421307,0.0022564,0.0245194,699,1401,-24.196,-18.4262
-518,-377,-24.2908,19.2428,0.00266248,0.00026638,0.00117064,0.00313945,-0.000210598,0.386913,0.00216658,0.0161264,706,1401,-24.2908,-19.2429
-511,-377,-24.3394,20.0677,0.00285826,0.00023893,0.00125185,0.00336032,-0.000263128,0.381415,0.00233287,0.011861,713,1401,-24.3394,-20.0677
-504,-377,-24.3995,20.8981,0.00342613,0.000436591,0.00160054,0.00412135,-0.000258629,0.409778,0.00283771,0.0159735,720,1401,-24.3995,-20.898
-497,-377,-24.2275,21.8385,0,0,0,0,0,0,0,-1,727,1401,-24.2275,-21.8385
-490,-377,-8.88409,10.1245,0,0,0,0,0,0,0,-1,734,1401,-8.8841,-10.1245
-483,-377,-5.6524,5.07324,0,0,0,0,0,0,0,-1,741,1401,-5.6524,-5.07325
-476,-377,-6.11682,5.10535,0,0,0,0,0,0,0,-1,748,1401,-6.11681,-5.10537
-469,-377,-10.3211,1.9281,0,0,0,0,0,0,0,-1,755,1401,-10.3211,-1.92808
-462,-377,-9.2204,1.0022,0,0,0,0,0,0,0,-1,762,1401,-9.22039,-1.00218
-455,-377,-8.11969,0.0762939,0,0,0,0,0,0,0,-1,769,1401,-8.11968,-0.0762759
-448,-377,-9.05334,0.877319,0,0,0,0,0,0,0,-1,776,1401,-9.05332,-0.877324
-441,-377,-11.212,0.763428,0,0,0,0,0,0,0,-1,783,1401,-11.212,-0.763415
-434,-377,-11.0984,0.996216,0,0,0,0,0,0,0,-1,790,1401,-11.0984,-0.996265
-427,-377,-11.1733,1.25732,0,0,0,0,0,0,0,-1,797,1401,-11.1733,-1.25732
-420,-377,0,0,0,0,0,0,0,0,0,-1,804,1401,0,0
-413,-377,0,0,0,0,0,0,0,0,0,-1,811,1401,0,0
-406,-377,0,0,0,0,0,0,0,0,0,-1,818,1401,0,0
-399,-377,0,0,0,0,0,0,0,0,0,-1,825,1401,0,0
-392,-377,0,0,0,0,0,0,0,0,0,-1,832,1401,0,0
-385,-377,0,0,0,0,0,0,0,0,0,-1,839,1401,0,0
-378,-377,0,0,0,0,0,0,0,0,0,-1,846,1401,0,0
-371,-377,0,0,0,0,0,0,0,0,0,-1,853,1401,0,0
-364,-377,0,0,0,0,0,0,0,0,0,-1,860,1401,0,0
-357,-377,0,0,0,0,0,0,0,0,0,-1,867,1401,0,0
-350,-377,0,0,0,0,0,0,0,0,0,-1,874,1401,0,0
-343,-377,0,0,0,0,0,0,0,0,0,-1,881,1401,0,0
-336,-377,0,0,0,0,0,0,0,0,0,-1,888,1401,0,0
-329,-377,0,0,0,0,0,0,0,0,0,-1,895,1401,0,0
-322,-377,0,0,0,0,0,0,0,0,0,-1,902,1401,0,0
-315,-377,0,0,0,0,0,0,0,0,0,-1,909,1401,0,0
-308,-377,0,0,0,0,0,0,0,0,0,-1,916,1401,0,0
-301,-377,0,0,0,0,0,0,0,0,0,-1,923,1401,0,0
-294,-377,0,0,0,0,0,0,0,0,0,-1,930,1401,0,0
-287,-377,0,0,0,0,0,0,0,0,0,-1,937,1401,0,0
-280,-377,0,0,0,0,0,0,0,0,0,-1,944,1401,0,0
-273,-377,0,0,0,0,0,0,0,0,0,-1,951,1401,0,0
-266,-377,0,0,0,0,0,0,0,0,0,-1,958,1401,0,0
-259,-377,0,0,0,0,0,0,0,0,0,-1,965,1401,0,0
-252,-377,0,0,0,0,0,0,0,0,0,-1,972,1401,0,0
-245,-377,0,0,0,0,0,0,0,0,0,-1,979,1401,0,0
-238,-377,0,0,0,0,0,0,0,0,0,-1,986,1401,0,0
-231,-377,0,0,0,0,0,0,0,0,0,-1,993,1401,0,0
-224,-377,0,0,0,0,0,0,0,0,0,-1,1000,1401,0,0
-217,-377,0,0,0,0,0,0,0,0,0,-1,1007,1401,0,0
-210,-377,0,0,0,0,0,0,0,0,0,-1,1014,1401,0,0
-203,-377,0,0,0,0,0,0,0,0,0,-1,1021,1401,0,0
-196,-377,0,0,0,0,0,0,0,0,0,-1,1028,1401,0,0
-189,-377,0,0,0,0,0,0,0,0,0,-1,1035,1401,0,0
-182,-377,0,0,0,0,0,0,0,0,0,-1,1042,1401,0,0
-175,-377,0,0,0,0,0,0,0,0,0,-1,1049,1401,0,0
-168,-377,0,0,0,0,0,0,0,0,0,-1,1056,1401,0,0
-161,-377,0,0,0,0,0,0,0,0,0,-1,1063,1401,0,0
-154,-377,0,0,0,0,0,0,0,0,0,-1,1070,1401,0,0
-147,-377,0,0,0,0,0,0,0,0,0,-1,1077,1401,0,0
-140,-377,0,0,0,0,0,0,0,0,0,-1,1084,1401,0,0
-133,-377,0,0,0,0,0,0,0,0,0,-1,1091,1401,0,0
-126,-377,0,0,0,0,0,0,0,0,0,-1,1098,1401,0,0
-119,-377,0,0,0,0,0,0,0,0,0,-1,1105,1401,0,0
-112,-377,0,0,0,0,0,0,0,0,0,-1,1112,1401,0,0
-105,-377,0,0,0,0,0,0,0,0,0,-1,1119,1401,0,0
-98,-377,0,0,0,0,0,0,0,0,0,-1,1126,1401,0,0
-91,-377,0,0,0,0,0,0,0,0,0,-1,1133,1401,0,0
-84,-377,0,0,0,0,0,0,0,0,0,-1,1140,1401,0,0
-77,-377,0,0,0,0,0,0,0,0,0,-1,1147,1401,0,0
-70,-377,0,0,0,0,0,0,0,0,0,-1,1154,1401,0,0
-63,-377,0,0,0,0,0,0,0,0,0,-1,1161,1401,0,0
-56,-377,0,0,0,0,0,0,0,0,0,-1,1168,1401,0,0
-49,-377,0,0,0,0,0,0,0,0,0,-1,1175,1401,0,0
-42,-377,0,0,0,0,0,0,0,0,0,-1,1182,1401,0,0
-35,-377,0,0,0,0,0,0,0,0,0,-1,1189,1401,0,0
-28,-377,0,0,0,0,0,0,0,0,0,-1,1196,1401,0,0
-21,-377,0,0,0,0,0,0,0,0,0,-1,1203,1401,0,0
-14,-377,0,0,0,0,0,0,0,0,0,-1,1210,1401,0,0
-7,-377,0,0,0,0,0,0,0,0,0,-1,1217,1401,0,0
0,-377,0,0,0,0,0,0,0,0,0,-1,1224,1401,0,0
7,-377,0,0,0,0,0,0,0,0,0,-1,1231,1401,0,0
14,-377,0,0,0,0,0,0,0,0,0,-1,1238,1401,0,0
21,-377,0,0,0,0,0,0,0,0,0,-1,1245,1401,0,0
28,-377,0,0,0,0,0,0,0,0,0,-1,1252,1401,0,0
35,-377,0,0,0,0,0,0,0,0,0,-1,1259,1401,0,0
42,-377,0,0,0,0,0,0,0,0,0,-1,1266,1401,0,0
49,-377,0,0,0,0,0,0,0,0,0,-1,1273,1401,0,0
56,-377,0,0,0,0,0,0,0,0,0,-1,1280,1401,0,0
63,-377,0,0,0,0,0,0,0,0,0,-1,1287,1401,0,0
70,-377,0,0,0,0,0,0,0,0,0,-1,1294,1401,0,0
77,-377,0,0,0,0,0,0,0,0,0,-1,1301,1401,0,0
84,-377,0,0,0,0,0,0,0,0,0,-1,1308,1401,0,0
91,-377,0,0,0,0,0,0,0,0,0,-1,1315,1401,0,0
98,-377,0,0,0,0,0,0,0,0,0,-1,1322,1401,0,0
105,-377,0,0,0,0,0,0,0,0,0,-1,1329,1401,0,0
112,-377,0,0,0,0,0,0,0,0,0,-1,1336,1401,0,0
119,-377,0,0,0,0,0,0,0,0,0,-1,1343,1401,0,0
126,-377,0,0,0,0,0,0,0,0,0,-1,1350,1401,0,0
133,-377,0,0,0,0,0,0,0,0,0,-1,1357,1401,0,0
140,-377,0,0,0,0,0,0,0,0,0,-1,1364,1401,0,0
147,-377,0,0,0,0,0,0,0,0,0,-1,1371,1401,0,0
154,-377,0,0,0,0,0,0,0,0,0,-1,1378,1401,0,0
161,-377,0,0,0,0,0,0,0,0,0,-1,1385,1401,0,0
168,-377,0,0,0,0,0,0,0,0,0,-1,1392,1401,0,0
175,-377,0,0,0,0,0,0,0,0,0,-1,1399,1401,0,0
182,-377,0,0,0,0,0,0,0,0,0,-1,1406,1401,0,0
189,-377,0,0,0,0,0,0,0,0,0,-1,1413,1401,0,0
196,-377,0,0,0,0,0,0,0,0,0,-1,1420,1401,0,0
203,-377,0,0,0,0,0,0,0,0,0,-1,1427,1401,0,0
210,-377,0,0,0,0,0,0,0,0,0,-1,1434,1401,0,0
217,-377,0,0,0,0,0,0,0,0,0,-1,1441,1401,0,0
224,-377,0,0,0,0,0,0,0,0,0,-1,1448,1401,0,0
231,-377,0,0,0,0,0,0,0,0,0,-1,1455,1401,0,0
238,-377,0,0,0,0,0,0,0,0,0,-1,1462,1401,0,0
245,-377,0,0,0,0,0,0,0,0,0,-1,1469,1401,0,0
252,-377,0,0,0,0,0,0,0,0,0,-1,1476,1401,0,0
259,-377,0,0,0,0,0,0,0,0,0,-1,1483,1401,0,0
266,-377,0,0,0,0,0,0,0,0,0,-1,1490,1401,0,0
273,-377,0,0,0,0,0,0,0,0,0,-1,1497,1401,0,0
280,-377,0,0,0,0,0,0,0,0,0,-1,1504,1401,0,0
287,-377,0,0,0,0,0,0,0,0,0,-1,1511,1401,0,0
294,-377,0,0,0,0,0,0,0,0,0,-1,1518,1401,0,0
301,-377,0,0,0,0,0,0,0,0,0,-1,1525,1401,0,0
308,-377,0,0,0,0,0,0,0,0,0,-1,1532,1401,0,0
315,-377,0,0,0,0,0,0,0,0,0,-1,1539,1401,0,0
322,-377,0,0,0,0,0,0,0,0,0,-1,1546,1401,0,0
329,-377,0,0,0,0,0,0,0,0,0,-1,1553,1401,0,0
336,-377,0,0,0,0,0,0,0,0,0,-1,1560,1401,0,0
343,-377,0,0,0,0,0,0,0,0,0,-1,1567,1401,0,0
350,-377,0,0,0,0,0,0,0,0,0,-1,1574,1401,0,0
357,-377,0,0,0,0,0,0,0,0,0,-1,1581,1401,0,0
364,-377,0,0,0,0,0,0,0,0,0,-1,1588,1401,0,0
371,-377,0,0,0,0,0,0,0,0,0,-1,1595,1401,0,0
378,-377,0,0,0,0,0,0,0,0,0,-1,1602,1401,0,0
385,-377,0,0,0,0,0,0,0,0,0,-1,1609,1401,0,0
392,-377,0,0,0,0,0,0,0,0,0,-1,1616,1401,0,0
399,-377,0,0,0,0,0,0,0,0,0,-1,1623,1401,0,0
406,-377,0,0,0,0,0,0,0,0,0,-1,1630,1401,0,0
413,-377,0,0,0,0,0,0,0,0,0,-1,1637,1401,0,0
420,-377,0,0,0,0,0,0,0,0,0,-1,1644,1401,0,0
427,-377,0,0,0,0,0,0,0,0,0,-1,1651,1401,0,0
434,-377,0,0,0,0,0,0,0,0,0,-1,1658,1401,0,0
441,-377,0,0,0,0,0,0,0,0,0,-1,1665,1401,0,0
448,-377,0,0,0,0,0,0,0,0,0,-1,1672,1401,0,0
455,-377,0,0,0,0,0,0,0,0,0,-1,1679,1401,0,0
462,-377,0,0,0,0,0,0,0,0,0,-1,1686,1401,0,0
469,-377,0,0,0,0,0,0,0,0,0,-1,1693,1401,0,0
476,-377,0,0,0,0,0,0,0,0,0,-1,1700,1401,0,0
483,-377,0,0,0,0,0,0,0,0,0,-1,1707,1401,0,0
490,-377,0,0,0,0,0,0,0,0,0,-1,1714,1401,0,0
497,-377,0,0,0,0,0,0,0,0,0,-1,1721,1401,0,0
504,-377,0,0,0,0,0,0,0,0,0,-1,1728,1401,0,0
511,-377,0,0,0,0,0,0,0,0,0,-1,1735,1401,0,0
518,-377,0,0,0,0,0,0,0,0,0,-1,1742,1401,0,0
525,-377,0,0,0,0,0,0,0,0,0,-1,1749,1401,0,0
532,-377,0,0,0,0,0,0,0,0,0,-1,1756,1401,0,0
539,-377,0,0,0,0,0,0,0,0,0,-1,1763,1401,0,0
546,-377,27.8485,2.34094,0,0,0,0,0,0,0,-1,1770,1401,27.8486,-2.34091
553,-377,61.8907,2.39148,0,0,0,0,0,0,0,-1,1777,1401,61.8908,-2.39149
560,-377,38.3577,-2.15015,0,0,0,0,0,0,0,-1,1784,1401,38.3576,2.1501
567,-377,38.4889,-0.285645,0,0,0,0,0,0,0,-1,1791,1401,38.4889,0.2857
574,-377,38.6221,1.61694,0,0,0,0,0,0,0,-1,1798,1401,38.6221,-1.61689
581,-377,39.1818,3.76367,0,0,0,0,0,0,0,-1,1805,1401,39.1818,-3.76366
588,-377,25.882,4.35217,0,0,0,0,0,0,0,-1,1812,1401,25.8819,-4.3522
595,-377,25.5392,5.11804,0,0,0,0,0,0,0,-1,1819,1401,25.5392,-5.11808
602,-377,24.816,5.79126,0,0,0,0,0,0,0,-1,1826,1401,24.816,-5.79124
609,-377,15.0223,4.76135,0,0,0,0,0,0,0,-1,1833,1401,15.0224,-4.76129
616,-377,14.1842,5.78992,0,0,0,0,0,0,0,-1,1840,1401,14.1842,-5.78987
623,-377,15.8248,8.76721,0,0,0,0,0,0,0,-1,1847,1401,15.8248,-8.76725
630,-377,37.4343,20.0704,0,0,0,0,0,0,0,-1,1854,1401,37.4344,-20.0704
637,-377,41.4047,21.2875,0,0,0,0,0,0,0,-1,1861,1401,41.4047,-21.2875
644,-377,41.3674,20.4614,-0.00101732,0.000256998,0.000369272,0.000356272,-0.00111659,1.30817,0.000887322,0.0147383,1868,1401,41.3674,-20.4614
651,-377,41.3019,19.6541,-0.000227803,0.000108543,0.000269546,0.000258076,-0.000377336,1.06431,0.000369003,0.0146746,1875,1401,41.3019,-19.654
658,-377,41.2634,18.8788,0.000785693,6.22767e-05,-6.86123e-06,0.000785758,6.22116e-05,-0.00948334,0.000504382,0.0153079,1882,1401,41.2634,-18.8787
665,-377,41.2377,18.0874,0.00193359,8.8075e-05,-0.00042064,0.00202495,-3.27767e-06,-0.213854,0.00135106,0.0206481,1889,1401,41.2376,-18.0874
672,-377,41.1694,17.3158,0.00324895,0.000142993,-0.000962411,0.00352299,-0.000131041,-0.277396,0.00239354,0.0211709,1896,1401,41.1695,-17.3157
679,-377,41.1361,16.5336,0.00473613,0.000261709,-0.00165341,0.00528081,-0.000282965,-0.318228,0.00361855,0.0195314,1903,1401,41.1362,-16.5336
686,-377,41.0721,15.772,0.00643806,0.000435861,-0.0025197,0.00735556,-0.000481648,-0.34921,0.00507189,0.0164779,1910,1401,41.0721,-15.7719
693,-377,41.1285,14.9287,0.00830243,0.000733499,-0.00355852,0.00971269,-0.00067677,-0.377319,0.0067121,0.0269182,1917,1401,41.1285,-14.9288
700,-377,41.3015,13.9558,0,0,0,0,0,0,0,-1,1924,1401,41.3015,-13.9558
707,-377,28.6234,9.18152,0,0,0,0,0,0,0,-1,1931,1401,28.6234,-9.18151
714,-377,16.5369,5.45959,0,0,0,0,0,0,0,-1,1938,1401,16.5369,-5.4596
721,-377,17.0913,5.42529,0,0,0,0,0,0,0,-1,1945,1401,17.0914,-5.42529
728,-377,14.5396,2.79724,0,0,0,0,0,0,0,-1,1952,1401,14.5396,-2.7972
735,-377,23.2977,-0.991089,0,0,0,0,0,0,0,-1,1959,1401,23.2978,0.991076
742,-377,0,0,0,0,0,0,0,0,0,-1,1966,1401,0,0
749,-377,0,0,0,0,0,0,0,0,0,-1,1973,1401,0,0
756,-377,0,0,0,0,0,0,0,0,0,-1,1980,1401,0,0
763,-377,0,0,0,0,0,0,0,0,0,-1,1987,1401,0,0
770,-377,0,0,0,0,0,0,0,0,0,-1,1994,1401,0,0
777,-377,0,0,0,0,0,0,0,0,0,-1,2001,1401,0,0
784,-377,0,0,0,0,0,0,0,0,0,-1,2008,1401,0,0
791,-377,0,0,0,0,0,0,0,0,0,-1,2015,1401,0,0
798,-377,0,0,0,0,0,0,0,0,0,-1,2022,1401,0,0
805,-377,0,0,0,0,0,0,0,0,0,-1,2029,1401,0,0
812,-377,0,0,0,0,0,0,0,0,0,-1,2036,1401,0,0
-700,-384,0,0,0,0,0,0,0,0,0,-1,524,1408,0,0
-693,-384,0,0,0,0,0,0,0,0,0,-1,531,1408,0,0
-686,-384,0,0,0,0,0,0,0,0,0,-1,538,1408,0,0
-679,-384,0,0,0,0,0,0,0,0,0,-1,545,1408,0,0
-672,-384,0,0,0,0,0,0,0,0,0,-1,552,1408,0,0
-665,-384,0,0,0,0,0,0,0,0,0,-1,559,1408,0,0
-658,-384,0,0,0,0,0,0,0,0,0,-1,566,1408,0,0
-651,-384,0,0,0,0,0,0,0,0,0,-1,573,1408,0,0
-644,-384,0,0,0,0,0,0,0,0,0,-1,580,1408,0,0
-637,-384,0,0,0,0,0,0,0,0,0,-1,587,1408,0,0
-630,-384,0,0,0,0,0,0,0,0,0,-1,594,1408,0,0
-623,-384,0,0,0,0,0,0,0,0,0,-1,601,1408,0,0
-616,-384,-10.019,-3.36646,0,0,0,0,0,0,0,-1,608,1408,-10.019,3.36648
-609,-384,-7.72357,-2.3418,0,0,0,0,0,0,0,-1,615,1408,-7.72358,2.34182
-602,-384,-11.7632,-2.85156,0,0,0,0,0,0,0,-1,622,1408,-11.7632,2.85157
-595,-384,-10.2217,2.8855,0,0,0,0,0,0,0,-1,629,1408,-10.2218,-2.88548
-588,-384,-12.1653,2.29041,0,0,0,0,0,0,0,-1,636,1408,-12.1654,-2.29038
-581,-384,-11.9297,3.60376,0,0,0,0,0,0,0,-1,643,1408,-11.9298,-3.6038
-574,-384,-11.8677,6.02722,0,0,0,0,0,0,0,-1,650,1408,-11.8677,-6.02722
-567,-384,-12.0743,7.04639,0,0,0,0,0,0,0,-1,657,1408,-12.0743,-7.04641
-560,-384,-19.9478,11.6345,0,0,0,0,0,0,0,-1,664,1408,-19.9478,-11.6345
-553,-384,-23.2578,15.2039,0,0,0,0,0,0,0,-1,671,1408,-23.2578,-15.2039
-546,-384,-23.3267,16.0327,0.00519043,0.00236897,0.00299309,0.00708859,0.000470808,0.565173,0.00457687,0.0157619,678,1408,-23.3267,-16.0328
-539,-384,-23.3754,16.8335,0.00406147,0.0016336,0.00223199,0.00538829,0.000306782,0.536333,0.00349442,0.017443,685,1408,-23.3753,-16.8335
-532,-384,-23.3583,17.5927,0.00326348,0.00106948,0.00166412,0.00415964,0.000173314,0.493988,0.00271716,0.0228735,692,1408,-23.3583,-17.5926
-525,-384,-23.3655,18.502,0.00277925,0.000705402,0.00130498,0.00340912,7.55385e-05,0.449681,0.00224799,0.0226461,699,1408,-23.3655,-18.5019
-518,-384,-23.4867,19.3199,0.0025549,0.000454152,0.00111359,0.00303534,-2.62811e-05,0.407301,0.00203237,0.0139357,706,1408,-23.4867,-19.32
-511,-384,-23.5427,20.1398,0.00262334,0.000381524,0.00110702,0.00307784,-7.29852e-05,0.389584,0.00207665,0.0111432,713,1408,-23.5427,-20.1398
-504,-384,-23.567,20.9611,0.00303952,0.000495059,0.00134862,0.0036213,-8.67199e-05,0.407269,0.00244362,0.0127056,720,1408,-23.567,-20.961
-497,-384,-23.548,21.8289,0.00374018,0.000765258,0.00180683,0.00459306,-8.76172e-05,0.441021,0.00309166,0.0430161,727,1408,-23.548,-21.8289
-490,-384,-23.3913,22.7943,0,0,0,0,0,0,0,-1,734,1408,-23.3913,-22.7943
-483,-384,-6.26471,7.61194,0,0,0,0,0,0,0,-1,741,1408,-6.26469,-7.61191
-476,-384,-6.02734,5.67761,0,0,0,0,0,0,0,-1,748,1408,-6.02736,-5.6776
-469,-384,-10.206,2.63721,0,0,0,0,0,0,0,-1,755,1408,-10.206,-2.6372
-462,-384,-9.04291,1.43542,0,0,0,0,0,0,0,-1,762,1408,-9.04293,-1.43545
-455,-384,-7.87988,0.233765,0,0,0,0,0,0,0,-1,769,1408,-7.87986,-0.233709
-448,-384,-9.35529,7.19226,0,0,0,0,0,0,0,-1,776,1408,-9.35531,-7.19226
-441,-384,-10.4697,1.79004,0,0,0,0,0,0,0,-1,783,1408,-10.4697,-1.79003
-434,-384,-10.6449,0.552246,0,0,0,0,0,0,0,-1,790,1408,-10.6449,-0.552216
-427,-384,-10.968,1.10583,0,0,0,0,0,0,0,-1,797,1408,-10.968,-1.10588
-420,-384,-12.5607,4.54858,0,0,0,0,0,0,0,-1,804,1408,-12.5607,-4.54859
-413,-384,0,0,0,0,0,0,0,0,0,-1,811,1408,0,0
-406,-384,0,0,0,0,0,0,0,0,0,-1,818,1408,0,0
-399,-384,0,0,0,0,0,0,0,0,0,-1,825,1408,0,0
-392,-384,0,0,0,0,0,0,0,0,0,-1,832,1408,0,0
-385,-384,0,0,0,0,0,0,0,0,0,-1,839,1408,0,0
-378,-384,0,0,0,0,0,0,0,0,0,-1,846,1408,0,0
-371,-384,0,0,0,0,0,0,0,0,0,-1,853,1408,0,0
-364,-384,0,0,0,0,0,0,0,0,0,-1,860,1408,0,0
-357,-384,0,0,0,0,0,0,0,0,0,-1,867,1408,0,0
-350,-384,0,0,0,0,0,0,0,0,0,-1,874,1408,0,0
-343,-384,0,0,0,0,0,0,0,0,0,-1,881,1408,0,0
-336,-384,0,0,0,0,0,0,0,0,0,-1,888,1408,0,0
-329,-384,0,0,0,0,0,0,0,0,0,-1,895,1408,0,0
-322,-384,0,0,0,0,0,0,0,0,0,-1,902,1408,0,0
-315,-384,0,0,0,0,0,0,0,0,0,-1,909,1408,0,0
-308,-384,0,0,0,0,0,0,0,0,0,-1,916,1408,0,0
-301,-384,0,0,0,0,0,0,0,0,0,-1,923,1408,0,0
-294,-384,0,0,0,0,0,0,0,0,0,-1,930,1408,0,0
-287,-384,0,0,0,0,0,0,0,0,0,-1,937,1408,0,0
-280,-384,0,0,0,0,0,0,0,0,0,-1,944,1408,0,0
-273,-384,0,0,0,0,0,0,0,0,0,-1,951,1408,0,0
-266,-384,0,0,0,0,0,0,0,0,0,-1,958,1408,0,0
-259,-384,0,0,0,0,0,0,0,0,0,-1,965,1408,0,0
-252,-384,0,0,0,0,0,0,0,0,0,-1,972,1408,0,0
-245,-384,0,0,0,0,0,0,0,0,0,-1,979,1408,0,0
-238,-384,0,0,0,0,0,0,0,0,0,-1,986,1408,0,0
-231,-384,0,0,0,0,0,0,0,0,0,-1,993,1408,0,0
-224,-384,0,0,0,0,0,0,0,0,0,-1,1000,1408,0,0
-217,-384,0,0,0,0,0,0,0,0,0,-1,1007,1408,0,0
-210,-384,0,0,0,0,0,0,0,0,0,-1,1014,1408,0,0
-203,-384,0,0,0,0,0,0,0,0,0,-1,1021,1408,0,0
-196,-384,0,0,0,0,0,0,0,0,0,-1,1028,1408,0,0
-189,-384,0,0,0,0,0,0,0,0,0,-1,1035,1408,0,0
-182,-384,0,0,0,0,0,0,0,0,0,-1,1042,1408,0,0
-175,-384,0,0,0,0,0,0,0,0,0,-1,1049,1408,0,0
-168,-384,0,0,0,0,0,0,0,0,0,-1,1056,1408,0,0
-161,-384,0,0,0,0,0,0,0,0,0,-1,1063,1408,0,0
-154,-384,0,0,0,0,0,0,0,0,0,-1,1070,1408,0,0
-147,-384,0,0,0,0,0,0,0,0,0,-1,1077,1408,0,0
-140,-384,0,0,0,0,0,0,0,0,0,-1,1084,1408,0,0
-133,-384,0,0,0,0,0,0,0,0,0,-1,1091,1408,0,0
-126,-384,0,0,0,0,0,0,0,0,0,-1,1098,1408,0,0
-119,-384,0,0,0,0,0,0,0,0,0,-1,1105,1408,0,0
-112,-384,0,0,0,0,0,0,0,0,0,-1,1112,1408,0,0
-105,-384,0,0,0,0,0,0,0,0,0,-1,1119,1408,0,0
-98,-384,0,0,0,0,0,0,0,0,0,-1,1126,1408,0,0
-91,-384,0,0,0,0,0,0,0,0,0,-1,1133,1408,0,0
-84,-384,0,0,0,0,0,0,0,0,0,-1,1140,1408,0,0
-77,-384,0,0,0,0,0,0,0,0,0,-1,1147,1408,0,0
-70,-384,0,0,0,0,0,0,0,0,0,-1,1154,1408,0,0
-63,-384,0,0,0,0,0,0,0,0,0,-1,1161,1408,0,0
-56,-384,0,0,0,0,0,0,0,0,0,-1,1168,1408,0,0
-49,-384,0,0,0,0,0,0,0,0,0,-1,1175,1408,0,0
-42,-384,0,0,0,0,0,0,0,0,0,-1,1182,1408,0,0
-35,-384,0,0,0,0,0,0,0,0,0,-1,1189,1408,0,0
-28,-384,0,0,0,0,0,0,0,0,0,-1,1196,1408,0,0
-21,-384,0,0,0,0,0,0,0,0,0,-1,1203,1408,0,0
-14,-384,0,0,0,0,0,0,0,0,0,-1,1210,1408,0,0
-7,-384,0,0,0,0,0,0,0,0,0,-1,1217,1408,0,0
0,-384,0,0,0,0,0,0,0,0,0,-1,1224,1408,0,0
7,-384,0,0,0,0,0,0,0,0,0,-1,1231,1408,0,0
14,-384,0,0,0,0,0,0,0,0,0,-1,1238,1408,0,0
21,-384,0,0,0,0,0,0,0,0,0,-1,1245,1408,0,0
28,-384,0,0,0,0,0,0,0,0,0,-1,1252,1408,0,0
35,-384,0,0,0,0,0,0,0,0,0,-1,1259,1408,0,0
42,-384,0,0,0,0,0,0,0,0,0,-1,1266,1408,0,0
49,-384,0,0,0,0,0,0,0,0,0,-1,1273,1408,0,0
56,-384,0,0,0,0,0,0,0,0,0,-1,1280,1408,0,0
63,-384,0,0,0,0,0,0,0,0,0,-1,1287,1408,0,0
70,-384,0,0,0,0,0,0,0,0,0,-1,1294,1408,0,0
77,-384,0,0,0,0,0,0,0,0,0,-1,1301,1408,0,0
84,-384,0,0,0,0,0,0,0,0,0,-1,1308,1408,0,0
91,-384,0,0,0,0,0,0,0,0,0,-1,1315,1408,0,0
98,-384,0,0,0,0,0,0,0,0,0,-1,1322,1408,0,0
105,-384,0,0,0,0,0,0,0,0,0,-1,1329,1408,0,0
112,-384,0,0,0,0,0,0,0,0,0,-1,1336,1408,0,0
119,-384,0,0,0,0,0,0,0,0,0,-1,1343,1408,0,0
126,-384,0,0,0,0,0,0,0,0,0,-1,1350,1408,0,0
133,-384,0,0,0,0,0,0,0,0,0,-1,1357,1408,0,0
140,-384,0,0,0,0,0,0,0,0,0,-1,1364,1408,0,0
147,-384,0,0,0,0,0,0,0,0,0,-1,1371,1408,0,0
154,-384,0,0,0,0,0,0,0,0,0,-1,1378,1408,0,0
161,-384,0,0,0,0,0,0,0,0,0,-1,1385,1408,0,0
168,-384,0,0,0,0,0,0,0,0,0,-1,1392,1408,0,0
175,-384,0,0,0,0,0,0,0,0,0,-1,1399,1408,0,0
182,-384,0,0,0,0,0,0,0,0,0,-1,1406,1408,0,0
189,-384,0,0,0,0,0,0,0,0,0,-1,1413,1408,0,0
196,-384,0,0,0,0,0,0,0,0,0,-1,1420,1408,0,0
203,-384,0,0,0,0,0,0,0,0,0,-1,1427,1408,0,0
210,-384,0,0,0,0,0,0,0,0,0,-1,1434,1408,0,0
217,-384,0,0,0,0,0,0,0,0,0,-1,1441,1408,0,0
224,-384,0,0,0,0,0,0,0,0,0,-1,1448,1408,0,0
231,-384,0,0,0,0,0,0,0,0,0,-1,1455,1408,0,0
238,-384,0,0,0,0,0,0,0,0,0,-1,1462,1408,0,0
245,-384,0,0,0,0,0,0,0,0,0,-1,1469,1408,0,0
252,-384,0,0,0,0,0,0,0,0,0,-1,1476,1408,0,0
259,-384,0,0,0,0,0,0,0,0,0,-1,1483,1408,0,0
266,-384,0,0,0,0,0,0,0,0,0,-1,1490,1408,0,0
273,-384,0,0,0,0,0,0,0,0,0,-1,1497,1408,0,0
280,-384,0,0,0,0,0,0,0,0,0,-1,1504,1408,0,0
287,-384,0,0,0,0,0,0,0,0,0,-1,1511,1408,0,0
294,-384,0,0,0,0,0,0,0,0,0,-1,1518,1408,0,0
301,-384,0,0,0,0,0,0,0,0,0,-1,1525,1408,0,0
308,-384,0,0,0,0,0,0,0,0,0,-1,1532,1408,0,0
315,-384,0,0,0,0,0,0,0,0,0,-1,1539,1408,0,0
322,-384,0,0,0,0,0,0,0,0,0,-1,1546,1408,0,0
329,-384,0,0,0,0,0,0,0,0,0,-1,1553,1408,0,0
336,-384,0,0,0,0,0,0,0,0,0,-1,1560,1408,0,0
343,-384,0,0,0,0,0,0,0,0,0,-1,1567,1408,0,0
350,-384,0,0,0,0,0,0,0,0,0,-1,1574,1408,0,0
357,-384,0,0,0,0,0,0,0,0,0,-1,1581,1408,0,0
364,-384,0,0,0,0,0,0,0,0,0,-1,1588,1408,0,0
371,-384,0,0,0,0,0,0,0,0,0,-1,1595,1408,0,0
378,-384,0,0,0,0,0,0,0,0,0,-1,1602,1408,0,0
385,-384,0,0,0,0,0,0,0,0,0,-1,1609,1408,0,0
392,-384,0,0,0,0,0,0,0,0,0,-1,1616,1408,0,0
399,-384,0,0,0,0,0,0,0,0,0,-1,1623,1408,0,0
406,-384,0,0,0,0,0,0,0,0,0,-1,1630,1408,0,0
413,-384,0,0,0,0,0,0,0,0,0,-1,1637,1408,0,0
420,-384,0,0,0,0,0,0,0,0,0,-1,1644,1408,0,0
427,-384,0,0,0,0,0,0,0,0,0,-1,1651,1408,0,0
434,-384,0,0,0,0,0,0,0,0,0,-1,1658,1408,0,0
441,-384,0,0,0,0,0,0,0,0,0,-1,1665,1408,0,0
448,-384,0,0,0,0,0,0,0,0,0,-1,1672,1408,0,0
455,-384,0,0,0,0,0,0,0,0,0,-1,1679,1408,0,0
462,-384,0,0,0,0,0,0,0,0,0,-1,1686,1408,0,0
469,-384,0,0,0,0,0,0,0,0,0,-1,1693,1408,0,0
476,-384,0,0,0,0,0,0,0,0,0,-1,1700,1408,0,0
483,-384,0,0,0,0,0,0,0,0,0,-1,1707,1408,0,0
490,-384,0,0,0,0,0,0,0,0,0,-1,1714,1408,0,0
497,-384,0,0,0,0,0,0,0,0,0,-1,1721,1408,0,0
504,-384,0,0,0,0,0,0,0,0,0,-1,1728,1408,0,0
511,-384,0,0,0,0,0,0,0,0,0,-1,1735,1408,0,0
518,-384,0,0,0,0,0,0,0,0,0,-1,1742,1408,0,0
525,-384,0,0,0,0,0,0,0,0,0,-1,1749,1408,0,0
532,-384,0,0,0,0,0,0,0,0,0,-1,1756,1408,0,0
539,-384,27.6886,2.85803,0,0,0,0,0,0,0,-1,1763,1408,27.6886,-2.85807
546,-384,27.5044,2.9425,0,0,0,0,0,0,0,-1,1770,1408,27.5044,-2.94255
553,-384,27.3052,2.78394,0,0,0,0,0,0,0,-1,1777,1408,27.3051,-2.78394
560,-384,26.833,3.19812,0,0,0,0,0,0,0,-1,1784,1408,26.833,-3.19816
567,-384,38.2566,0.109985,0,0,0,0,0,0,0,-1,1791,1408,38.2566,-0.110044
574,-384,38.4003,2.05945,0,0,0,0,0,0,0,-1,1798,1408,38.4003,-2.05949
581,-384,25.819,3.91846,0,0,0,0,0,0,0,-1,1805,1408,25.8189,-3.91848
588,-384,23.3721,4.25439,0,0,0,0,0,0,0,-1,1812,1408,23.3721,-4.25442
595,-384,24.981,5.59595,0,0,0,0,0,0,0,-1,1819,1408,24.981,-5.59598
602,-384,20.6605,4.17261,0,0,0,0,0,0,0,-1,1826,1408,20.6606,-4.17265
609,-384,14.158,5.49475,0,0,0,0,0,0,0,-1,1833,1408,14.158,-5.49474
616,-384,14.7997,7.6908,0,0,0,0,0,0,0,-1,1840,1408,14.7996,-7.69079
623,-384,16.4293,9.58899,0,0,0,0,0,0,0,-1,1847,1408,16.4294,-9.58901
630,-384,40.5266,22.1682,0,0,0,0,0,0,0,-1,1854,1408,40.5266,-22.1682
637,-384,40.5835,21.3226,-0.000998062,0.00011508,0.000388192,0.000237084,-0.00112007,1.26628,0.000837007,0.0264514,1861,1408,40.5835,-21.3226
644,-384,40.5077,20.5566,-0.000534465,6.36765e-05,0.000367088,0.0002381,-0.000708889,1.12722,0.00056882,0.018204,1868,1408,40.5077,-20.5566
651,-384,40.4594,19.7072,0.000275621,2.69585e-05,0.000161042,0.000354742,-5.21627e-05,0.456669,0.000255662,0.0176951,1875,1408,40.4593,-19.7071
658,-384,40.4288,18.9034,0.00129468,5.09575e-05,-0.000187613,0.00132237,2.32726e-05,-0.146506,0.000873923,0.0169591,1882,1408,40.4288,-18.9034
665,-384,40.4194,18.1694,0.00250427,0.00014086,-0.000677951,0.00268494,-3.98016e-05,-0.26043,0.00180337,0.0198168,1889,1408,40.4195,-18.1694
672,-384,40.3707,17.3779,0.00392244,0.00024304,-0.00129441,0.00433218,-0.0001667,-0.306568,0.00294526,0.018393,1896,1408,40.3707,-17.3779
679,-384,40.3297,16.5669,0.00556041,0.0003868,-0.00207119,0.00628742,-0.000340211,-0.337576,0.0043095,0.0170314,1903,1408,40.3298,-16.5669
686,-384,40.2922,15.7909,0.00746701,0.000537139,-0.00302563,0.00860209,-0.000597949,-0.358909,0.00594408,0.0144939,1910,1408,40.2922,-15.7909
693,-384,40.4178,15.0101,0.00956293,0.00079723,-0.00415649,0.0112204,-0.000860266,-0.379448,0.00778291,0.046914,1917,1408,40.4178,-15.0101
700,-384,40.6254,14.2804,0,0,0,0,0,0,0,-1,1924,1408,40.6253,-14.2803
707,-384,17.0566,6.62842,0,0,0,0,0,0,0,-1,1931,1408,17.0567,-6.62848
714,-384,16.038,5.0282,0,0,0,0,0,0,0,-1,1938,1408,16.038,-5.02819
721,-384,13.8843,2.8717,0,0,0,0,0,0,0,-1,1945,1408,13.8843,-2.87171
728,-384,15.4409,6.25745,0,0,0,0,0,0,0,-1,1952,1408,15.4409,-6.2574
735,-384,16.7598,6.71289,0,0,0,0,0,0,0,-1,1959,1408,16.7598,-6.71287
742,-384,0,0,0,0,0,0,0,0,0,-1,1966,1408,0,0
749,-384,0,0,0,0,0,0,0,0,0,-1,1973,1408,0,0
756,-384,0,0,0,0,0,0,0,0,0,-1,1980,1408,0,0
763,-384,0,0,0,0,0,0,0,0,0,-1,1987,1408,0,0
770,-384,0,0,0,0,0,0,0,0,0,-1,1994,1408,0,0
777,-384,0,0,0,0,0,0,0,0,0,-1,2001,1408,0,0
784,-384,0,0,0,0,0,0,0,0,0,-1,2008,1408,0,0
791,-384,0,0,0,0,0,0,0,0,0,-1,2015,1408,0,0
798,-384,0,0,0,0,0,0,0,0,0,-1,2022,1408,0,0
805,-384,0,0,0,0,0,0,0,0,0,-1,2029,1408,0,0
812,-384,0,0,0,0,0,0,0,0,0,-1,2036,1408,0,0
-700,-391,0,0,0,0,0,0,0,0,0,-1,524,1415,0,0
-693,-391,0,0,0,0,0,0,0,0,0,-1,531,1415,0,0
-686,-391,0,0,0,0,0,0,0,0,0,-1,538,1415,0,0
-679,-391,0,0,0,0,0,0,0,0,0,-1,545,1415,0,0
-672,-391,0,0,0,0,0,0,0,0,0,-1,552,1415,0,0
-665,-391,0,0,0,0,0,0,0,0,0,-1,559,1415,0,0
-658,-391,0,0,0,0,0,0,0,0,0,-1,566,1415,0,0
-651,-391,0,0,0,0,0,0,0,0,0,-1,573,1415,0,0
-644,-391,0,0,0,0,0,0,0,0,0,-1,580,1415,0,0
-637,-391,0,0,0,0,0,0,0,0,0,-1,587,1415,0,0
-630,-391,0,0,0,0,0,0,0,0,0,-1,594,1415,0,0
-623,-391,0,0,0,0,0,0,0,0,0,-1,601,1415,0,0
-616,-391,0,0,0,0,0,0,0,0,0,-1,608,1415,0,0
-609,-391,-7.71753,-3.69763,0,0,0,0,0,0,0,-1,615,1415,-7.71751,3.69759
-602,-391,-13.9493,-4.12805,0,0,0,0,0,0,0,-1,622,1415,-13.9493,4.12803
-595,-391,-10.8315,1.76172,0,0,0,0,0,0,0,-1,629,1415,-10.8315,-1.76171
-588,-391,-10.265,2.16431,0,0,0,0,0,0,0,-1,636,1415,-10.265,-2.16431
-581,-391,-11.3325,2.44836,0,0,0,0,0,0,0,-1,643,1415,-11.3325,-2.44842
-574,-391,-11.1471,6.19983,0,0,0,0,0,0,0,-1,650,1415,-11.1471,-6.19981
-567,-391,-11.5172,6.82458,0,0,0,0,0,0,0,-1,657,1415,-11.5171,-6.82454
-560,-391,-11.2459,7.37195,0,0,0,0,0,0,0,-1,664,1415,-11.2459,-7.37191
-553,-391,-22.635,15.16,0,0,0,0,0,0,0,-1,671,1415,-22.635,-15.16
-546,-391,-22.5463,16.0361,0.00598025,0.00291198,0.00359482,0.00835461,0.000537618,0.583717,0.00539946,0.0207918,678,1415,-22.5463,-16.0362
-539,-391,-22.493,16.9038,0.00457665,0.00207471,0.00264555,0.00625208,0.000399277,0.564549,0.00404154,0.0142661,685,1415,-22.493,-16.9038
-532,-391,-22.5112,17.7214,0.00354673,0.00140887,0.00191685,0.00467254,0.000283048,0.531049,0.0030251,0.0235885,692,1415,-22.5112,-17.7214
-525,-391,-22.5952,18.5762,0.00288997,0.00098373,0.00144411,0.00366713,0.000206564,0.49371,0.00237889,0.0232043,699,1415,-22.5951,-18.5762
-518,-391,-22.6944,19.3755,0.0025126,0.000687298,0.0011659,0.00308058,0.00011932,0.45332,0.00201512,0.0154581,706,1415,-22.6944,-19.3755
-511,-391,-22.7144,20.1907,0.00240831,0.000556474,0.00105983,0.00288972,7.50672e-05,0.426366,0.00190195,0.0146423,713,1415,-22.7144,-20.1906
-504,-391,-22.7409,21.0184,0.0026151,0.000585953,0.00117714,0.00315456,4.64909e-05,0.429719,0.00208772,0.0135776,720,1415,-22.7409,-21.0185
-497,-391,-22.7847,21.8307,0.00309796,0.000765902,0.00150521,0.00383595,2.79143e-05,0.455849,0.00254805,0.0150552,727,1415,-22.7847,-21.8307
-490,-391,-22.8049,22.6573,0,0,0,0,0,0,0,-1,734,1415,-22.8049,-22.6573
-483,-391,-11.1018,12.9382,0,0,0,0,0,0,0,-1,741,1415,-11.1018,-12.9382
-476,-391,-6.05731,6.85303,0,0,0,0,0,0,0,-1,748,1415,-6.05728,-6.85304
-469,-391,-3.88953,5.0979,0,0,0,0,0,0,0,-1,755,1415,-3.88955,-5.09794
-462,-391,-8.67688,2.03125,0,0,0,0,0,0,0,-1,762,1415,-8.67685,-2.03121
-455,-391,-8.65576,6.46997,0,0,0,0,0,0,0,-1,769,1415,-8.65579,-6.46999
-448,-391,-8.39618,4.38403,0,0,0,0,0,0,0,-1,776,1415,-8.39617,-4.38405
-441,-391,-9.77704,2.5946,0,0,0,0,0,0,0,-1,783,1415,-9.77702,-2.5946
-434,-391,-11.5403,2.12878,0,0,0,0,0,0,0,-1,790,1415,-11.5403,-2.12881
-427,-391,-10.5311,2.50403,0,0,0,0,0,0,0,-1,797,1415,-10.5311,-2.504
-420,-391,-14.7087,1.24365,0,0,0,0,0,0,0,-1,804,1415,-14.7088,-1.24365
-413,-391,0,0,0,0,0,0,0,0,0,-1,811,1415,0,0
-406,-391,0,0,0,0,0,0,0,0,0,-1,818,1415,0,0
-399,-391,0,0,0,0,0,0,0,0,0,-1,825,1415,0,0
-392,-391,0,0,0,0,0,0,0,0,0,-1,832,1415,0,0
-385,-391,0,0,0,0,0,0,0,0,0,-1,839,1415,0,0
-378,-391,0,0,0,0,0,0,0,0,0,-1,846,1415,0,0
-371,-391,0,0,0,0,0,0,0,0,0,-1,853,1415,0,0
-364,-391,0,0,0,0,0,0,0,0,0,-1,860,1415,0,0
-357,-391,0,0,0,0,0,0,0,0,0,-1,867,1415,0,0
-350,-391,0,0,0,0,0,0,0,0,0,-1,874,1415,0,0
-343,-391,0,0,0,0,0,0,0,0,0,-1,881,1415,0,0
-336,-391,0,0,0,0,0,0,0,0,0,-1,888,1415,0,0
-329,-391,0,0,0,0,0,0,0,0,0,-1,895,1415,0,0
-322,-391,0,0,0,0,0,0,0,0,0,-1,902,1415,0,0
-315,-391,0,0,0,0,0,0,0,0,0,-1,909,1415,0,0
-308,-391,0,0,0,0,0,0,0,0,0,-1,916,1415,0,0
-301,-391,0,0,0,0,0,0,0,0,0,-1,923,1415,0,0
-294,-391,0,0,0,0,0,0,0,0,0,-1,930,1415,0,0
-287,-391,0,0,0,0,0,0,0,0,0,-1,937,1415,0,0
-280,-391,0,0,0,0,0,0,0,0,0,-1,944,1415,0,0
-273,-391,0,0,0,0,0,0,0,0,0,-1,951,1415,0,0
-266,-391,0,0,0,0,0,0,0,0,0,-1,958,1415,0,0
-259,-391,0,0,0,0,0,0,0,0,0,-1,965,1415,0,0
-252,-391,0,0,0,0,0,0,0,0,0,-1,972,1415,0,0
-245,-391,0,0,0,0,0,0,0,0,0,-1,979,1415,0,0
-238,-391,0,0,0,0,0,0,0,0,0,-1,986,1415,0,0
-231,-391,0,0,0,0,0,0,0,0,0,-1,993,1415,0,0
-224,-391,0,0,0,0,0,0,0,0,0,-1,1000,1415,0,0
-217,-391,0,0,0,0,0,0,0,0,0,-1,1007,1415,0,0
-210,-391,0,0,0,0,0,0,0,0,0,-1,1014,1415,0,0
-203,-391,0,0,0,0,0,0,0,0,0,-1,1021,1415,0,0
-196,-391,0,0,0,0,0,0,0,0,0,-1,1028,1415,0,0
-189,-391,0,0,0,0,0,0,0,0,0,-1,1035,1415,0,0
-182,-391,0,0,0,0,0,0,0,0,0,-1,1042,1415,0,0
-175,-391,0,0,0,0,0,0,0,0,0,-1,1049,1415,0,0
-168,-391,0,0,0,0,0,0,0,0,0,-1,1056,1415,0,0
-161,-391,0,0,0,0,0,0,0,0,0,-1,1063,1415,0,0
-154,-391,0,0,0,0,0,0,0,0,0,-1,1070,1415,0,0
-147,-391,0,0,0,0,0,0,0,0,0,-1,1077,1415,0,0
-140,-391,0,0,0,0,0,0,0,0,0,-1,1084,1415,0,0
-133,-391,0,0,0,0,0,0,0,0,0,-1,1091,1415,0,0
-126,-391,0,0,0,0,0,0,0,0,0,-1,1098,1415,0,0
-119,-391,0,0,0,0,0,0,0,0,0,-1,1105,1415,0,0
-112,-391,0,0,0,0,0,0,0,0,0,-1,1112,1415,0,0
-105,-391,0,0,0,0,0,0,0,0,0,-1,1119,1415,0,0
-98,-391,0,0,0,0,0,0,0,0,0,-1,1126,1415,0,0
-91,-391,0,0,0,0,0,0,0,0,0,-1,1133,1415,0,0
-84,-391,0,0,0,0,0,0,0,0,0,-1,1140,1415,0,0
-77,-391,0,0,0,0,0,0,0,0,0,-1,1147,1415,0,0
-70,-391,0,0,0,0,0,0,0,0,0,-1,1154,1415,0,0
-63,-391,0,0,0,0,0,0,0,0,0,-1,1161,1415,0,0
-56,-391,0,0,0,0,0,0,0,0,0,-1,1168,1415,0,0
-49,-391,0,0,0,0,0,0,0,0,0,-1,1175,1415,0,0
-42,-391,0,0,0,0,0,0,0,0,0,-1,1182,1415,0,0
-35,-391,0,0,0,0,0,0,0,0,0,-1,1189,1415,0,0
-28,-391,0,0,0,0,0,0,0,0,0,-1,1196,1415,0,0
-21,-391,0,0,0,0,0,0,0,0,0,-1,1203,1415,0,0
-14,-391,0,0,0,0,0,0,0,0,0,-1,1210,1415,0,0
-7,-391,0,0,0,0,0,0,0,0,0,-1,1217,1415,0,0
0,-391,0,0,0,0,0,0,0,0,0,-1,1224,1415,0,0
7,-391,0,0,0,0,0,0,0,0,0,-1,1231,1415,0,0
14,-391,0,0,0,0,0,0,0,0,0,-1,1238,1415,0,0
21,-391,0,0,0,0,0,0,0,0,0,-1,1245,1415,0,0
28,-391,0,0,0,0,0,0,0,0,0,-1,1252,1415,0,0
35,-391,0,0,0,0,0,0,0,0,0,-1,1259,1415,0,0
42,-391,0,0,0,0,0,0,0,0,0,-1,1266,1415,0,0
49,-391,0,0,0,0,0,0,0,0,0,-1,1273,1415,0,0
56,-391,0,0,0,0,0,0,0,0,0,-1,1280,1415,0,0
63,-391,0,0,0,0,0,0,0,0,0,-1,1287,1415,0,0
70,-391,0,0,0,0,0,0,0,0,0,-1,1294,1415,0,0
77,-391,0,0,0,0,0,0,0,0,0,-1,1301,1415,0,0
84,-391,0,0,0,0,0,0,0,0,0,-1,1308,1415,0,0
91,-391,0,0,0,0,0,0,0,0,0,-1,1315,1415,0,0
98,-391,0,0,0,0,0,0,0,0,0,-1,1322,1415,0,0
105,-391,0,0,0,0,0,0,0,0,0,-1,1329,1415,0,0
112,-391,0,0,0,0,0,0,0,0,0,-1,1336,1415,0,0
119,-391,0,0,0,0,0,0,0,0,0,-1,1343,1415,0,0
126,-391,0,0,0,0,0,0,0,0,0,-1,1350,1415,0,0
133,-391,0,0,0,0,0,0,0,0,0,-1,1357,1415,0,0
140,-391,0,0,0,0,0,0,0,0,0,-1,1364,1415,0,0
147,-391,0,0,0,0,0,0,0,0,0,-1,1371,1415,0,0
154,-391,0,0,0,0,0,0,0,0,0,-1,1378,1415,0,0
161,-391,0,0,0,0,0,0,0,0,0,-1,1385,1415,0,0
168,-391,0,0,0,0,0,0,0,0,0,-1,1392,1415,0,0
175,-391,0,0,0,0,0,0,0,0,0,-1,1399,1415,0,0
182,-391,0,0,0,0,0,0,0,0,0,-1,1406,1415,0,0
189,-391,0,0,0,0,0,0,0,0,0,-1,1413,1415,0,0
196,-391,0,0,0,0,0,0,0,0,0,-1,1420,1415,0,0
203,-391,0,0,0,0,0,0,0,0,0,-1,1427,1415,0,0
210,-391,0,0,0,0,0,0,0,0,0,-1,1434,1415,0,0
217,-391,0,0,0,0,0,0,0,0,0,-1,1441,1415,0,0
224,-391,0,0,0,0,0,0,0,0,0,-1,1448,1415,0,0
231,-391,0,0,0,0,0,0,0,0,0,-1,1455,1415,0,0
238,-391,0,0,0,0,0,0,0,0,0,-1,1462,1415,0,0
245,-391,0,0,0,0,0,0,0,0,0,-1,1469,1415,0,0
252,-391,0,0,0,0,0,0,0,0,0,-1,1476,1415,0,0
259,-391,0,0,0,0,0,0,0,0,0,-1,1483,1415,0,0
266,-391,0,0,0,0,0,0,0,0,0,-1,1490,1415,0,0
273,-391,0,0,0,0,0,0,0,0,0,-1,1497,1415,0,0
280,-391,0,0,0,0,0,0,0,0,0,-1,1504,1415,0,0
287,-391,0,0,0,0,0,0,0,0,0,-1,1511,1415,0,0
294,-391,0,0,0,0,0,0,0,0,0,-1,1518,1415,0,0
301,-391,0,0,0,0,0,0,0,0,0,-1,1525,1415,0,0
308,-391,0,0,0,0,0,0,0,0,0,-1,1532,1415,0,0
315,-391,0,0,0,0,0,0,0,0,0,-1,1539,1415,0,0
322,-391,0,0,0,0,0,0,0,0,0,-1,1546,1415,0,0
329,-391,0,0,0,0,0,0,0,0,0,-1,1553,1415,0,0
336,-391,0,0,0,0,0,0,0,0,0,-1,1560,1415,0,0
343,-391,0,0,0,0,0,0,0,0,0,-1,1567,1415,0,0
350,-391,0,0,0,0,0,0,0,0,0,-1,1574,1415,0,0
357,-391,0,0,0,0,0,0,0,0,0,-1,1581,1415,0,0
364,-391,0,0,0,0,0,0,0,0,0,-1,1588,1415,0,0
371,-391,0,0,0,0,0,0,0,0,0,-1,1595,1415,0,0
378,-391,0,0,0,0,0,0,0,0,0,-1,1602,1415,0,0
385,-391,0,0,0,0,0,0,0,0,0,-1,1609,1415,0,0
392,-391,0,0,0,0,0,0,0,0,0,-1,1616,1415,0,0
399,-391,0,0,0,0,0,0,0,0,0,-1,1623,1415,0,0
406,-391,0,0,0,0,0,0,0,0,0,-1,1630,1415,0,0
413,-391,0,0,0,0,0,0,0,0,0,-1,1637,1415,0,0
420,-391,0,0,0,0,0,0,0,0,0,-1,1644,1415,0,0
427,-391,0,0,0,0,0,0,0,0,0,-1,1651,1415,0,0
434,-391,0,0,0,0,0,0,0,0,0,-1,1658,1415,0,0
441,-391,0,0,0,0,0,0,0,0,0,-1,1665,1415,0,0
448,-391,0,0,0,0,0,0,0,0,0,-1,1672,1415,0,0
455,-391,0,0,0,0,0,0,0,0,0,-1,1679,1415,0,0
462,-391,0,0,0,0,0,0,0,0,0,-1,1686,1415,0,0
469,-391,0,0,0,0,0,0,0,0,0,-1,1693,1415,0,0
476,-391,0,0,0,0,0,0,0,0,0,-1,1700,1415,0,0
483,-391,0,0,0,0,0,0,0,0,0,-1,1707,1415,0,0
490,-391,0,0,0,0,0,0,0,0,0,-1,1714,1415,0,0
497,-391,0,0,0,0,0,0,0,0,0,-1,1721,1415,0,0
504,-391,0,0,0,0,0,0,0,0,0,-1,1728,1415,0,0
511,-391,0,0,0,0,0,0,0,0,0,-1,1735,1415,0,0
518,-391,0,0,0,0,0,0,0,0,0,-1,1742,1415,0,0
525,-391,0,0,0,0,0,0,0,0,0,-1,1749,1415,0,0
532,-391,28.5959,3.02356,0,0,0,0,0,0,0,-1,1756,1415,28.596,-3.02358
539,-391,27.5881,3.25012,0,0,0,0,0,0,0,-1,1763,1415,27.5882,-3.25016
546,-391,27.2837,3.28064,0,0,0,0,0,0,0,-1,1770,1415,27.2837,-3.28064
553,-391,32.5952,5.04553,0,0,0,0,0,0,0,-1,1777,1415,32.5952,-5.04551
560,-391,31.2947,5.67017,0,0,0,0,0,0,0,-1,1784,1415,31.2947,-5.67011
567,-391,30.1473,6.17603,0,0,0,0,0,0,0,-1,1791,1415,30.1473,-6.17602
574,-391,27.5656,5.6842,0,0,0,0,0,0,0,-1,1798,1415,27.5655,-5.68422
581,-391,25.8883,5.76123,0,0,0,0,0,0,0,-1,1805,1415,25.8883,-5.76124
588,-391,24.2717,5.47986,0,0,0,0,0,0,0,-1,1812,1415,24.2717,-5.47982
595,-391,22.8827,6.1991,0,0,0,0,0,0,0,-1,1819,1415,22.8827,-6.19909
602,-391,15.1635,5.69849,0,0,0,0,0,0,0,-1,1826,1415,15.1635,-5.69847
609,-391,14.8285,7.50476,0,0,0,0,0,0,0,-1,1833,1415,14.8285,-7.50479
616,-391,20.7952,12.0503,0,0,0,0,0,0,0,-1,1840,1415,20.7952,-12.0503
623,-391,36.6426,20.3677,0,0,0,0,0,0,0,-1,1847,1415,36.6426,-20.3676
630,-391,39.8472,22.0436,0,0,0,0,0,0,0,-1,1854,1415,39.8471,-22.0436
637,-391,39.7764,21.3339,-0.000554491,-8.48686e-06,0.00039813,0.000201251,-0.000764229,1.08593,0.000588161,0.018225,1861,1415,39.7763,-21.3338
644,-391,39.7129,20.5859,-3.53596e-05,-6.55788e-06,0.00026352,0.000242954,-0.000284872,0.812695,0.000305061,0.0184452,1868,1415,39.7129,-20.586
651,-391,39.6672,19.8007,0.000799683,4.34643e-05,-3.06764e-05,0.000800926,4.2222e-05,-0.0404768,0.000520448,0.0193204,1875,1415,39.6672,-19.8007
658,-391,39.6228,18.9795,0.00187972,0.000156356,-0.000477259,0.00200306,3.30142e-05,-0.252904,0.00132451,0.0193877,1882,1415,39.6228,-18.9795
665,-391,39.5898,18.2136,0.0031912,0.000319181,-0.00105834,0.00353907,-2.86832e-05,-0.317564,0.002369,0.0160069,1889,1415,39.5898,-18.2136
672,-391,39.5596,17.4327,0.00473594,0.000483147,-0.00175994,0.00536979,-0.000150701,-0.345691,0.00363113,0.0135482,1896,1415,39.5596,-17.4327
679,-391,39.5228,16.6221,0.00654755,0.000665699,-0.00263072,0.00755247,-0.000339226,-0.36489,0.00515178,0.0128167,1903,1415,39.5228,-16.622
686,-391,39.5078,15.8124,0.0086772,0.000780256,-0.00366732,0.0101176,-0.000660116,-0.374249,0.00697551,0.0200884,1910,1415,39.5078,-15.8124
693,-391,39.5607,14.9476,0,0,0,0,0,0,0,-1,1917,1415,39.5607,-14.9476
700,-391,39.8163,14.4929,0,0,0,0,0,0,0,-1,1924,1415,39.8163,-14.4929
707,-391,12.9524,5.96851,0,0,0,0,0,0,0,-1,1931,1415,12.9524,-5.96849
714,-391,15.6875,7.67896,0,0,0,0,0,0,0,-1,1938,1415,15.6875,-7.67893
721,-391,14.1808,8.08435,0,0,0,0,0,0,0,-1,1945,1415,14.1808,-8.08439
728,-391,13.8102,7.28174,0,0,0,0,0,0,0,-1,1952,1415,13.8102,-7.28174
735,-391,0,0,0,0,0,0,0,0,0,-1,1959,1415,0,0
742,-391,0,0,0,0,0,0,0,0,0,-1,1966,1415,0,0
749,-391,0,0,0,0,0,0,0,0,0,-1,1973,1415,0,0
756,-391,0,0,0,0,0,0,0,0,0,-1,1980,1415,0,0
763,-391,0,0,0,0,0,0,0,0,0,-1,1987,1415,0,0
770,-391,0,0,0,0,0,0,0,0,0,-1,1994,1415,0,0
777,-391,0,0,0,0,0,0,0,0,0,-1,2001,1415,0,0
784,-391,0,0,0,0,0,0,0,0,0,-1,2008,1415,0,0
791,-391,0,0,0,0,0,0,0,0,0,-1,2015,1415,0,0
798,-391,0,0,0,0,0,0,0,0,0,-1,2022,1415,0,0
805,-391,0,0,0,0,0,0,0,0,0,-1,2029,1415,0,0
812,-391,0,0,0,0,0,0,0,0,0,-1,2036,1415,0,0
-700,-398,0,0,0,0,0,0,0,0,0,-1,524,1422,0,0
-693,-398,0,0,0,0,0,0,0,0,0,-1,531,1422,0,0
-686,-398,0,0,0,0,0,0,0,0,0,-1,538,1422,0,0
-679,-398,0,0,0,0,0,0,0,0,0,-1,545,1422,0,0
-672,-398,0,0,0,0,0,0,0,0,0,-1,552,1422,0,0
-665,-398,0,0,0,0,0,0,0,0,0,-1,559,1422,0,0
-658,-398,0,0,0,0,0,0,0,0,0,-1,566,1422,0,0
-651,-398,0,0,0,0,0,0,0,0,0,-1,573,1422,0,0
-644,-398,0,0,0,0,0,0,0,0,0,-1,580,1422,0,0
-637,-398,0,0,0,0,0,0,0,0,0,-1,587,1422,0,0
-630,-398,0,0,0,0,0,0,0,0,0,-1,594,1422,0,0
-623,-398,0,0,0,0,0,0,0,0,0,-1,601,1422,0,0
-616,-398,0,0,0,0,0,0,0,0,0,-1,608,1422,0,0
-609,-398,-7.47125,-4.05322,0,0,0,0,0,0,0,-1,615,1422,-7.47128,4.05317
-602,-398,-4.58868,-2.77026,0,0,0,0,0,0,0,-1,622,1422,-4.58869,2.77023
-595,-398,-12.2224,-1.82007,0,0,0,0,0,0,0,-1,629,1422,-12.2224,1.82006
-588,-398,-10.6939,1.32336,0,0,0,0,0,0,0,-1,636,1422,-10.6939,-1.32337
-581,-398,-10.433,3.1123,0,0,0,0,0,0,0,-1,643,1422,-10.433,-3.11233
-574,-398,-10.4475,5.89807,0,0,0,0,0,0,0,-1,650,1422,-10.4475,-5.89802
-567,-398,-10.4904,6.80115,0,0,0,0,0,0,0,-1,657,1422,-10.4904,-6.80115
-560,-398,-10.5333,7.70435,0,0,0,0,0,0,0,-1,664,1422,-10.5333,-7.70429
-553,-398,-21.8578,15.0272,0,0,0,0,0,0,0,-1,671,1422,-21.8579,-15.0273
-546,-398,-21.7802,16.0614,0.00681989,0.00350004,0.00431283,0.00978121,0.000538726,0.601696,0.00634885,0.0395252,678,1422,-21.7802,-16.0615
-539,-398,-21.6558,16.9741,0.0051232,0.00258624,0.00317179,0.00727075,0.000438691,0.595177,0.00470776,0.0121297,685,1422,-21.6558,-16.9742
-532,-398,-21.6826,17.8032,0.00384564,0.00181165,0.00226892,0.00531506,0.000342233,0.574708,0.00343499,0.0190344,692,1422,-21.6826,-17.8032
-525,-398,-21.7684,18.6155,0.00302148,0.0013197,0.00167979,0.0040536,0.000287587,0.550962,0.00261182,0.0196003,699,1422,-21.7684,-18.6154
-518,-398,-21.8253,19.4099,0.00251118,0.000973717,0.00130629,0.00325814,0.000226753,0.519443,0.00210059,0.0186545,706,1422,-21.8253,-19.4099
-511,-398,-21.8617,20.2219,0.00226462,0.000779597,0.00110281,0.00285159,0.000192627,0.489112,0.00184021,0.0147892,713,1422,-21.8617,-20.222
-504,-398,-21.9125,21.0654,0.00230648,0.000725887,0.00109957,0.0028703,0.000162068,0.473804,0.00186187,0.0154232,720,1422,-21.9125,-21.0654
-497,-398,-21.9647,21.8784,0.00262352,0.000825177,0.00129502,0.00330092,0.000147776,0.481943,0.00215304,0.0113443,727,1422,-21.9647,-21.8784
-490,-398,-21.9812,22.7021,0.00339265,0.00105553,0.00172502,0.00430765,0.00014053,0.487694,0.00282609,0.0228943,734,1422,-21.9812,-22.7022
-483,-398,-21.9647,23.5562,0,0,0,0,0,0,0,-1,741,1422,-21.9647,-23.5561
-476,-398,-8.64392,11.9448,0,0,0,0,0,0,0,-1,748,1422,-8.6439,-11.9448
-469,-398,-8.91699,10.6276,0,0,0,0,0,0,0,-1,755,1422,-8.91697,-10.6275
-462,-398,-9.59753,9.32532,0,0,0,0,0,0,0,-1,762,1422,-9.59753,-9.32531
-455,-398,-8.08331,6.75024,0,0,0,0,0,0,0,-1,769,1422,-8.08333,-6.75022
-448,-398,-7.4505,5.25293,0,0,0,0,0,0,0,-1,776,1422,-7.4505,-5.25291
-441,-398,-7.61639,3.32141,0,0,0,0,0,0,0,-1,783,1422,-7.61637,-3.32145
-434,-398,-10.7618,3.297,0,0,0,0,0,0,0,-1,790,1422,-10.7618,-3.29704
-427,-398,-11.9061,2.24939,0,0,0,0,0,0,0,-1,797,1422,-11.9061,-2.24941
-420,-398,-13.467,2.32788,0,0,0,0,0,0,0,-1,804,1422,-13.467,-2.32787
-413,-398,-14.7983,2.15515,0,0,0,0,0,0,0,-1,811,1422,-14.7983,-2.15516
-406,-398,0,0,0,0,0,0,0,0,0,-1,818,1422,0,0
-399,-398,0,0,0,0,0,0,0,0,0,-1,825,1422,0,0
-392,-398,0,0,0,0,0,0,0,0,0,-1,832,1422,0,0
-385,-398,0,0,0,0,0,0,0,0,0,-1,839,1422,0,0
-378,-398,0,0,0,0,0,0,0,0,0,-1,846,1422,0,0
-371,-398,0,0,0,0,0,0,0,0,0,-1,853,1422,0,0
-364,-398,0,0,0,0,0,0,0,0,0,-1,860,1422,0,0
-357,-398,0,0,0,0,0,0,0,0,0,-1,867,1422,0,0
-350,-398,0,0,0,0,0,0,0,0,0,-1,874,1422,0,0
-343,-398,0,0,0,0,0,0,0,0,0,-1,881,1422,0,0
-336,-398,0,0,0,0,0,0,0,0,0,-1,888,1422,0,0
-329,-398,0,0,0,0,0,0,0,0,0,-1,895,1422,0,0
-322,-398,0,0,0,0,0,0,0,0,0,-1,902,1422,0,0
-315,-398,0,0,0,0,0,0,0,0,0,-1,909,1422,0,0
-308,-398,0,0,0,0,0,0,0,0,0,-1,916,1422,0,0
-301,-398,0,0,0,0,0,0,0,0,0,-1,923,1422,0,0
-294,-398,0,0,0,0,0,0,0,0,0,-1,930,1422,0,0
-287,-398,0,0,0,0,0,0,0,0,0,-1,937,1422,0,0
-280,-398,0,0,0,0,0,0,0,0,0,-1,944,1422,0,0
-273,-398,0,0,0,0,0,0,0,0,0,-1,951,1422,0,0
-266,-398,0,0,0,0,0,0,0,0,0,-1,958,1422,0,0
-259,-398,0,0,0,0,0,0,0,0,0,-1,965,1422,0,0
-252,-398,0,0,0,0,0,0,0,0,0,-1,972,1422,0,0
-245,-398,0,0,0,0,0,0,0,0,0,-1,979,1422,0,0
-238,-398,0,0,0,0,0,0,0,0,0,-1,986,1422,0,0
-231,-398,0,0,0,0,0,0,0,0,0,-1,993,1422,0,0
-224,-398,0,0,0,0,0,0,0,0,0,-1,1000,1422,0,0
-217,-398,0,0,0,0,0,0,0,0,0,-1,1007,1422,0,0
-210,-398,0,0,0,0,0,0,0,0,0,-1,1014,1422,0,0
-203,-398,0,0,0,0,0,0,0,0,0,-1,1021,1422,0,0
-196,-398,0,0,0,0,0,0,0,0,0,-1,1028,1422,0,0
-189,-398,0,0,0,0,0,0,0,0,0,-1,1035,1422,0,0
-182,-398,0,0,0,0,0,0,0,0,0,-1,1042,1422,0,0
-175,-398,0,0,0,0,0,0,0,0,0,-1,1049,1422,0,0
-168,-398,0,0,0,0,0,0,0,0,0,-1,1056,1422,0,0
-161,-398,0,0,0,0,0,0,0,0,0,-1,1063,1422,0,0
-154,-398,0,0,0,0,0,0,0,0,0,-1,1070,1422,0,0
-147,-398,0,0,0,0,0,0,0,0,0,-1,1077,1422,0,0
-140,-398,0,0,0,0,0,0,0,0,0,-1,1084,1422,0,0
-133,-398,0,0,0,0,0,0,0,0,0,-1,1091,1422,0,0
-126,-398,0,0,0,0,0,0,0,0,0,-1,1098,1422,0,0
-119,-398,0,0,0,0,0,0,0,0,0,-1,1105,1422,0,0
-112,-398,0,0,0,0,0,0,0,0,0,-1,1112,1422,0,0
-105,-398,0,0,0,0,0,0,0,0,0,-1,1119,1422,0,0
-98,-398,0,0,0,0,0,0,0,0,0,-1,1126,1422,0,0
-91,-398,0,0,0,0,0,0,0,0,0,-1,1133,1422,0,0
-84,-398,0,0,0,0,0,0,0,0,0,-1,1140,1422,0,0
-77,-398,0,0,0,0,0,0,0,0,0,-1,1147,1422,0,0
-70,-398,0,0,0,0,0,0,0,0,0,-1,1154,1422,0,0
-63,-398,0,0,0,0,0,0,0,0,0,-1,1161,1422,0,0
-56,-398,0,0,0,0,0,0,0,0,0,-1,1168,1422,0,0
-49,-398,0,0,0,0,0,0,0,0,0,-1,1175,1422,0,0
-42,-398,0,0,0,0,0,0,0,0,0,-1,1182,1422,0,0
-35,-398,0,0,0,0,0,0,0,0,0,-1,1189,1422,0,0
-28,-398,0,0,0,0,0,0,0,0,0,-1,1196,1422,0,0
-21,-398,0,0,0,0,0,0,0,0,0,-1,1203,1422,0,0
-14,-398,0,0,0,0,0,0,0,0,0,-1,1210,1422,0,0
-7,-398,0,0,0,0,0,0,0,0,0,-1,1217,1422,0,0
0,-398,0,0,0,0,0,0,0,0,0,-1,1224,1422,0,0
7,-398,0,0,0,0,0,0,0,0,0,-1,1231,1422,0,0
14,-398,0,0,0,0,0,0,0,0,0,-1,1238,1422,0,0
21,-398,0,0,0,0,0,0,0,0,0,-1,1245,1422,0,0
28,-398,0,0,0,0,0,0,0,0,0,-1,1252,1422,0,0
35,-398,0,0,0,0,0,0,0,0,0,-1,1259,1422,0,0
42,-398,0,0,0,0,0,0,0,0,0,-1,1266,1422,0,0
49,-398,0,0,0,0,0,0,0,0,0,-1,1273,1422,0,0
56,-398,0,0,0,0,0,0,0,0,0,-1,1280,1422,0,0
63,-398,0,0,0,0,0,0,0,0,0,-1,1287,1422,0,0
70,-398,0,0,0,0,0,0,0,0,0,-1,1294,1422,0,0
77,-398,0,0,0,0,0,0,0,0,0,-1,1301,1422,0,0
84,-398,0,0,0,0,0,0,0,0,0,-1,1308,1422,0,0
91,-398,0,0,0,0,0,0,0,0,0,-1,1315,1422,0,0
98,-398,0,0,0,0,0,0,0,0,0,-1,1322,1422,0,0
105,-398,0,0,0,0,0,0,0,0,0,-1,1329,1422,0,0
112,-398,0,0,0,0,0,0,0,0,0,-1,1336,1422,0,0
119,-398,0,0,0,0,0,0,0,0,0,-1,1343,1422,0,0
126,-398,0,0,0,0,0,0,0,0,0,-1,1350,1422,0,0
133,-398,0,0,0,0,0,0,0,0,0,-1,1357,1422,0,0
140,-398,0,0,0,0,0,0,0,0,0,-1,1364,1422,0,0
147,-398,0,0,0,0,0,0,0,0,0,-1,1371,1422,0,0
154,-398,0,0,0,0,0,0,0,0,0,-1,1378,1422,0,0
161,-398,0,0,0,0,0,0,0,0,0,-1,1385,1422,0,0
168,-398,0,0,0,0,0,0,0,0,0,-1,1392,1422,0,0
175,-398,0,0,0,0,0,0,0,0,0,-1,1399,1422,0,0
182,-398,0,0,0,0,0,0,0,0,0,-1,1406,1422,0,0
189,-398,0,0,0,0,0,0,0,0,0,-1,1413,1422,0,0
196,-398,0,0,0,0,0,0,0,0,0,-1,1420,1422,0,0
203,-398,0,0,0,0,0,0,0,0,0,-1,1427,1422,0,0
210,-398,0,0,0,0,0,0,0,0,0,-1,1434,1422,0,0
217,-398,0,0,0,0,0,0,0,0,0,-1,1441,1422,0,0
224,-398,0,0,0,0,0,0,0,0,0,-1,1448,1422,0,0
231,-398,0,0,0,0,0,0,0,0,0,-1,1455,1422,0,0
238,-398,0,0,0,0,0,0,0,0,0,-1,1462,1422,0,0
245,-398,0,0,0,0,0,0,0,0,0,-1,1469,1422,0,0
252,-398,0,0,0,0,0,0,0,0,0,-1,1476,1422,0,0
259,-398,0,0,0,0,0,0,0,0,0,-1,1483,1422,0,0
266,-398,0,0,0,0,0,0,0,0,0,-1,1490,1422,0,0
273,-398,0,0,0,0,0,0,0,0,0,-1,1497,1422,0,0
280,-398,0,0,0,0,0,0,0,0,0,-1,1504,1422,0,0
287,-398,0,0,0,0,0,0,0,0,0,-1,1511,1422,0,0
294,-398,0,0,0,0,0,0,0,0,0,-1,1518,1422,0,0
301,-398,0,0,0,0,0,0,0,0,0,-1,1525,1422,0,0
308,-398,0,0,0,0,0,0,0,0,0,-1,1532,1422,0,0
315,-398,0,0,0,0,0,0,0,0,0,-1,1539,1422,0,0
322,-398,0,0,0,0,0,0,0,0,0,-1,1546,1422,0,0
329,-398,0,0,0,0,0,0,0,0,0,-1,1553,1422,0,0
336,-398,0,0,0,0,0,0,0,0,0,-1,1560,1422,0,0
343,-398,0,0,0,0,0,0,0,0,0,-1,1567,1422,0,0
350,-398,0,0,0,0,0,0,0,0,0,-1,1574,1422,0,0
357,-398,0,0,0,0,0,0,0,0,0,-1,1581,1422,0,0
364,-398,0,0,0,0,0,0,0,0,0,-1,1588,1422,0,0
371,-398,0,0,0,0,0,0,0,0,0,-1,1595,1422,0,0
378,-398,0,0,0,0,0,0,0,0,0,-1,1602,1422,0,0
385,-398,0,0,0,0,0,0,0,0,0,-1,1609,1422,0,0
392,-398,0,0,0,0,0,0,0,0,0,-1,1616,1422,0,0
399,-398,0,0,0,0,0,0,0,0,0,-1,1623,1422,0,0
406,-398,0,0,0,0,0,0,0,0,0,-1,1630,1422,0,0
413,-398,0,0,0,0,0,0,0,0,0,-1,1637,1422,0,0
420,-398,0,0,0,0,0,0,0,0,0,-1,1644,1422,0,0
427,-398,0,0,0,0,0,0,0,0,0,-1,1651,1422,0,0
434,-398,0,0,0,0,0,0,0,0,0,-1,1658,1422,0,0
441,-398,0,0,0,0,0,0,0,0,0,-1,1665,1422,0,0
448,-398,0,0,0,0,0,0,0,0,0,-1,1672,1422,0,0
455,-398,0,0,0,0,0,0,0,0,0,-1,1679,1422,0,0
462,-398,0,0,0,0,0,0,0,0,0,-1,1686,1422,0,0
469,-398,0,0,0,0,0,0,0,0,0,-1,1693,1422,0,0
476,-398,0,0,0,0,0,0,0,0,0,-1,1700,1422,0,0
483,-398,0,0,0,0,0,0,0,0,0,-1,1707,1422,0,0
490,-398,0,0,0,0,0,0,0,0,0,-1,1714,1422,0,0
497,-398,0,0,0,0,0,0,0,0,0,-1,1721,1422,0,0
504,-398,0,0,0,0,0,0,0,0,0,-1,1728,1422,0,0
511,-398,0,0,0,0,0,0,0,0,0,-1,1735,1422,0,0
518,-398,0,0,0,0,0,0,0,0,0,-1,1742,1422,0,0
525,-398,0,0,0,0,0,0,0,0,0,-1,1749,1422,0,0
532,-398,28.4558,3.84094,0,0,0,0,0,0,0,-1,1756,1422,28.4558,-3.8409
539,-398,27.0594,3.33887,0,0,0,0,0,0,0,-1,1763,1422,27.0595,-3.3389
546,-398,31.6873,5.58582,0,0,0,0,0,0,0,-1,1770,1422,31.6872,-5.58585
553,-398,30.4392,5.92383,0,0,0,0,0,0,0,-1,1777,1422,30.4392,-5.92386
560,-398,29.1621,6.30469,0,0,0,0,0,0,0,-1,1784,1422,29.1621,-6.30469
567,-398,27.8411,6.55029,0,0,0,0,0,0,0,-1,1791,1422,27.8411,-6.55033
574,-398,26.411,6.8916,0,0,0,0,0,0,0,-1,1798,1422,26.411,-6.8916
581,-398,24.75,7.11145,0,0,0,0,0,0,0,-1,1805,1422,24.7499,-7.11142
588,-398,23.1649,7.67969,0,0,0,0,0,0,0,-1,1812,1422,23.1649,-7.67975
595,-398,21.4253,7.86023,0,0,0,0,0,0,0,-1,1819,1422,21.4253,-7.86029
602,-398,19.6857,8.04077,0,0,0,0,0,0,0,-1,1826,1422,19.6856,-8.04083
609,-398,21.1835,13.2628,0,0,0,0,0,0,0,-1,1833,1422,21.1835,-13.2628
616,-398,35.7712,21.4,0,0,0,0,0,0,0,-1,1840,1422,35.7713,-21.4
623,-398,39.0577,22.967,0,0,0,0,0,0,0,-1,1847,1422,39.0578,-22.967
630,-398,39.0452,22.1515,-0.000328401,7.23975e-05,0.000259864,0.000200159,-0.000456162,1.11385,0.000388417,0.015695,1854,1422,39.0451,-22.1515
637,-398,39.0098,21.3636,-1.65663e-05,-2.03881e-05,0.000187857,0.00016939,-0.000206344,0.780312,0.00021728,0.0157874,1861,1422,39.0098,-21.3637
644,-398,38.8864,20.6102,0.000549864,4.75672e-06,-5.70452e-06,0.000549923,4.69704e-06,-0.0104634,0.00036506,0.0233212,1868,1422,38.8864,-20.6102
651,-398,38.9418,19.8917,0.00141944,0.000141463,-0.000368182,0.00151792,4.29803e-05,-0.261366,0.000997931,0.0312842,1875,1422,38.9418,-19.8917
658,-398,38.8904,19.0969,0.00255388,0.000355394,-0.000888722,0.0028682,4.10737e-05,-0.339947,0.00189859,0.0256953,1882,1422,38.8904,-19.0969
665,-398,38.8158,18.2628,0.00395106,0.000618626,-0.00154737,0.00455874,1.09412e-05,-0.374216,0.00303552,0.0170891,1889,1422,38.8158,-18.2628
672,-398,38.7716,17.4641,0.00560668,0.000881999,-0.00232553,0.00655927,-7.05889e-05,-0.388773,0.00439656,0.0137771,1896,1422,38.7716,-17.4641
679,-398,38.7528,16.6642,0.00759099,0.00115775,-0.00329737,0.00898081,-0.000232066,-0.398897,0.00606604,0.0152458,1903,1422,38.7528,-16.6642
686,-398,38.7168,15.8868,0.00995121,0.00129293,-0.00442498,0.0118125,-0.000568397,-0.398173,0.00807117,0.0313894,1910,1422,38.7168,-15.8868
693,-398,38.6204,14.9663,0,0,0,0,0,0,0,-1,1917,1422,38.6203,-14.9663
700,-398,38.7251,14.4174,0,0,0,0,0,0,0,-1,1924,1422,38.725,-14.4174
707,-398,10.9731,5.479,0,0,0,0,0,0,0,-1,1931,1422,10.9732,-5.47896
714,-398,11.7313,6.17346,0,0,0,0,0,0,0,-1,1938,1422,11.7313,-6.17348
721,-398,13.9371,8.05103,0,0,0,0,0,0,0,-1,1945,1422,13.9372,-8.05102
728,-398,14.786,7.0282,0,0,0,0,0,0,0,-1,1952,1422,14.786,-7.0282
735,-398,0,0,0,0,0,0,0,0,0,-1,1959,1422,0,0
742,-398,0,0,0,0,0,0,0,0,0,-1,1966,1422,0,0
749,-398,0,0,0,0,0,0,0,0,0,-1,1973,1422,0,0
756,-398,0,0,0,0,0,0,0,0,0,-1,1980,1422,0,0
763,-398,0,0,0,0,0,0,0,0,0,-1,1987,1422,0,0
770,-398,0,0,0,0,0,0,0,0,0,-1,1994,1422,0,0
777,-398,0,0,0,0,0,0,0,0,0,-1,2001,1422,0,0
784,-398,0,0,0,0,0,0,0,0,0,-1,2008,1422,0,0
791,-398,0,0,0,0,0,0,0,0,0,-1,2015,1422,0,0
798,-398,0,0,0,0,0,0,0,0,0,-1,2022,1422,0,0
805,-398,0,0,0,0,0,0,0,0,0,-1,2029,1422,0,0
812,-398,0,0,0,0,0,0,0,0,0,-1,2036,1422,0,0
-700,-405,0,0,0,0,0,0,0,0,0,-1,524,1429,0,0
-693,-405,0,0,0,0,0,0,0,0,0,-1,531,1429,0,0
-686,-405,0,0,0,0,0,0,0,0,0,-1,538,1429,0,0
-679,-405,0,0,0,0,0,0,0,0,0,-1,545,1429,0,0
-672,-405,0,0,0,0,0,0,0,0,0,-1,552,1429,0,0
-665,-405,0,0,0,0,0,0,0,0,0,-1,559,1429,0,0
-658,-405,0,0,0,0,0,0,0,0,0,-1,566,1429,0,0
-651,-405,0,0,0,0,0,0,0,0,0,-1,573,1429,0,0
-644,-405,0,0,0,0,0,0,0,0,0,-1,580,1429,0,0
-637,-405,0,0,0,0,0,0,0,0,0,-1,587,1429,0,0
-630,-405,0,0,0,0,0,0,0,0,0,-1,594,1429,0,0
-623,-405,0,0,0,0,0,0,0,0,0,-1,601,1429,0,0
-616,-405,0,0,0,0,0,0,0,0,0,-1,608,1429,0,0
-609,-405,0,0,0,0,0,0,0,0,0,-1,615,1429,0,0
-602,-405,-5.80988,-3.46594,0,0,0,0,0,0,0,-1,622,1429,-5.80987,3.46592
-595,-405,-9.35413,2.01477,0,0,0,0,0,0,0,-1,629,1429,-9.35411,-2.01476
-588,-405,-7.35693,0.507202,0,0,0,0,0,0,0,-1,636,1429,-7.35696,-0.507187
-581,-405,-10.1284,1.62927,0,0,0,0,0,0,0,-1,643,1429,-10.1284,-1.62922
-574,-405,-9.32074,3.05896,0,0,0,0,0,0,0,-1,650,1429,-9.32077,-3.0589
-567,-405,-9.68781,6.92163,0,0,0,0,0,0,0,-1,657,1429,-9.68782,-6.92166
-560,-405,-9.28674,7.20886,0,0,0,0,0,0,0,-1,664,1429,-9.28675,-7.20885
-553,-405,-17.8088,12.9275,0,0,0,0,0,0,0,-1,671,1429,-17.8088,-12.9275
-546,-405,-20.8809,16.0964,0,0,0,0,0,0,0,-1,678,1429,-20.8808,-16.0965
-539,-405,-20.8837,16.9436,0.00575341,0.00327818,0.00383306,0.00854371,0.000487885,0.629241,0.00554034,0.0144028,685,1429,-20.8837,-16.9436
-532,-405,-20.9092,17.7864,0.00419711,0.00235942,0.00274877,0.00617654,0.000379992,0.624099,0.00399706,0.0164254,692,1429,-20.9092,-17.7863
-525,-405,-20.9483,18.636,0.00320406,0.00176033,0.00203424,0.00464072,0.00032367,0.614901,0.00299176,0.0154045,699,1429,-20.9483,-18.6359
-518,-405,-20.991,19.4674,0.002564,0.00133683,0.00155522,0.0036223,0.000278527,0.597506,0.00232759,0.0149237,706,1429,-20.991,-19.4674
-511,-405,-21.0336,20.2715,0.00219712,0.00104331,0.0012449,0.00299229,0.000248141,0.568421,0.0019175,0.0157454,713,1429,-21.0335,-20.2715
-504,-405,-21.0735,21.088,0.00210497,0.000880327,0.00111024,0.00276055,0.000224747,0.533393,0.00177021,0.0184035,720,1429,-21.0735,-21.088
-497,-405,-21.1266,21.9523,0.00228468,0.000876404,0.00116188,0.00293913,0.000221946,0.512977,0.00188979,0.0162997,727,1429,-21.1266,-21.9523
-490,-405,-21.1776,22.7742,0.00279932,0.00100611,0.00140262,0.00356742,0.00023801,0.501013,0.00230305,0.0142134,734,1429,-21.1775,-22.7742
-483,-405,-21.0961,23.6782,0.00353498,0.00138414,0.00180482,0.00456049,0.000358629,0.516713,0.00292811,0.0402435,741,1429,-21.0961,-23.6782
-476,-405,-20.8625,24.7992,0,0,0,0,0,0,0,-1,748,1429,-20.8626,-24.7992
-469,-405,-9.65692,12.8171,0,0,0,0,0,0,0,-1,755,1429,-9.65691,-12.8172
-462,-405,-9.14862,11.3597,0,0,0,0,0,0,0,-1,762,1429,-9.14865,-11.3597
-455,-405,-9.021,9.51111,0,0,0,0,0,0,0,-1,769,1429,-9.021,-9.51109
-448,-405,-8.4649,6.82813,0,0,0,0,0,0,0,-1,776,1429,-8.46492,-6.82817
-441,-405,-6.6712,4.23767,0,0,0,0,0,0,0,-1,783,1429,-6.67121,-4.23764
-434,-405,-9.62549,3.94189,0,0,0,0,0,0,0,-1,790,1429,-9.62546,-3.94191
-427,-405,-10.9764,3.73926,0,0,0,0,0,0,0,-1,797,1429,-10.9764,-3.73923
-420,-405,-12.1187,3.68506,0,0,0,0,0,0,0,-1,804,1429,-12.1187,-3.68512
-413,-405,-13.5353,3.75659,0,0,0,0,0,0,0,-1,811,1429,-13.5353,-3.75655
-406,-405,-14.7374,3.99817,0,0,0,0,0,0,0,-1,818,1429,-14.7374,-3.99814
-399,-405,0,0,0,0,0,0,0,0,0,-1,825,1429,0,0
-392,-405,0,0,0,0,0,0,0,0,0,-1,832,1429,0,0
-385,-405,0,0,0,0,0,0,0,0,0,-1,839,1429,0,0
-378,-405,0,0,0,0,0,0,0,0,0,-1,846,1429,0,0
-371,-405,0,0,0,0,0,0,0,0,0,-1,853,1429,0,0
-364,-405,0,0,0,0,0,0,0,0,0,-1,860,1429,0,0
-357,-405,0,0,0,0,0,0,0,0,0,-1,867,1429,0,0
-350,-405,0,0,0,0,0,0,0,0,0,-1,874,1429,0,0
-343,-405,0,0,0,0,0,0,0,0,0,-1,881,1429,0,0
-336,-405,0,0,0,0,0,0,0,0,0,-1,888,1429,0,0
-329,-405,0,0,0,0,0,0,0,0,0,-1,895,1429,0,0
-322,-405,0,0,0,0,0,0,0,0,0,-1,902,1429,0,0
-315,-405,0,0,0,0,0,0,0,0,0,-1,909,1429,0,0
-308,-405,0,0,0,0,0,0,0,0,0,-1,916,1429,0,0
-301,-405,0,0,0,0,0,0,0,0,0,-1,923,1429,0,0
-294,-405,0,0,0,0,0,0,0,0,0,-1,930,1429,0,0
-287,-405,0,0,0,0,0,0,0,0,0,-1,937,1429,0,0
-280,-405,0,0,0,0,0,0,0,0,0,-1,944,1429,0,0
-273,-405,0,0,0,0,0,0,0,0,0,-1,951,1429,0,0
-266,-405,0,0,0,0,0,0,0,0,0,-1,958,1429,0,0
-259,-405,0,0,0,0,0,0,0,0,0,-1,965,1429,0,0
-252,-405,0,0,0,0,0,0,0,0,0,-1,972,1429,0,0
-245,-405,0,0,0,0,0,0,0,0,0,-1,979,1429,0,0
-238,-405,0,0,0,0,0,0,0,0,0,-1,986,1429,0,0
-231,-405,0,0,0,0,0,0,0,0,0,-1,993,1429,0,0
-224,-405,0,0,0,0,0,0,0,0,0,-1,1000,1429,0,0
-217,-405,0,0,0,0,0,0,0,0,0,-1,1007,1429,0,0
-210,-405,0,0,0,0,0,0,0,0,0,-1,1014,1429,0,0
-203,-405,0,0,0,0,0,0,0,0,0,-1,1021,1429,0,0
-196,-405,0,0,0,0,0,0,0,0,0,-1,1028,1429,0,0
-189,-405,0,0,0,0,0,0,0,0,0,-1,1035,1429,0,0
-182,-405,0,0,0,0,0,0,0,0,0,-1,1042,1429,0,0
-175,-405,0,0,0,0,0,0,0,0,0,-1,1049,1429,0,0
-168,-405,0,0,0,0,0,0,0,0,0,-1,1056,1429,0,0
-161,-405,0,0,0,0,0,0,0,0,0,-1,1063,1429,0,0
-154,-405,0,0,0,0,0,0,0,0,0,-1,1070,1429,0,0
-147,-405,0,0,0,0,0,0,0,0,0,-1,1077,1429,0,0
-140,-405,0,0,0,0,0,0,0,0,0,-1,1084,1429,0,0
-133,-405,0,0,0,0,0,0,0,0,0,-1,1091,1429,0,0
-126,-405,0,0,0,0,0,0,0,0,0,-1,1098,1429,0,0
-119,-405,0,0,0,0,0,0,0,0,0,-1,1105,1429,0,0
-112,-405,0,0,0,0,0,0,0,0,0,-1,1112,1429,0,0
-105,-405,0,0,0,0,0,0,0,0,0,-1,1119,1429,0,0
-98,-405,0,0,0,0,0,0,0,0,0,-1,1126,1429,0,0
-91,-405,0,0,0,0,0,0,0,0,0,-1,1133,1429,0,0
-84,-405,0,0,0,0,0,0,0,0,0,-1,1140,1429,0,0
-77,-405,0,0,0,0,0,0,0,0,0,-1,1147,1429,0,0
-70,-405,0,0,0,0,0,0,0,0,0,-1,1154,1429,0,0
-63,-405,0,0,0,0,0,0,0,0,0,-1,1161,1429,0,0
-56,-405,0,0,0,0,0,0,0,0,0,-1,1168,1429,0,0
-49,-405,0,0,0,0,0,0,0,0,0,-1,1175,1429,0,0
-42,-405,0,0,0,0,0,0,0,0,0,-1,1182,1429,0,0
-35,-405,0,0,0,0,0,0,0,0,0,-1,1189,1429,0,0
-28,-405,0,0,0,0,0,0,0,0,0,-1,1196,1429,0,0
-21,-405,0,0,0,0,0,0,0,0,0,-1,1203,1429,0,0
-14,-405,0,0,0,0,0,0,0,0,0,-1,1210,1429,0,0
-7,-405,0,0,0,0,0,0,0,0,0,-1,1217,1429,0,0
0,-405,0,0,0,0,0,0,0,0,0,-1,1224,1429,0,0
7,-405,0,0,0,0,0,0,0,0,0,-1,1231,1429,0,0
14,-405,0,0,0,0,0,0,0,0,0,-1,1238,1429,0,0
21,-405,0,0,0,0,0,0,0,0,0,-1,1245,1429,0,0
28,-405,0,0,0,0,0,0,0,0,0,-1,1252,1429,0,0
35,-405,0,0,0,0,0,0,0,0,0,-1,1259,1429,0,0
42,-405,0,0,0,0,0,0,0,0,0,-1,1266,1429,0,0
49,-405,0,0,0,0,0,0,0,0,0,-1,1273,1429,0,0
56,-405,0,0,0,0,0,0,0,0,0,-1,1280,1429,0,0
63,-405,0,0,0,0,0,0,0,0,0,-1,1287,1429,0,0
70,-405,0,0,0,0,0,0,0,0,0,-1,1294,1429,0,0
77,-405,0,0,0,0,0,0,0,0,0,-1,1301,1429,0,0
84,-405,0,0,0,0,0,0,0,0,0,-1,1308,1429,0,0
91,-405,0,0,0,0,0,0,0,0,0,-1,1315,1429,0,0
98,-405,0,0,0,0,0,0,0,0,0,-1,1322,1429,0,0
105,-405,0,0,0,0,0,0,0,0,0,-1,1329,1429,0,0
112,-405,0,0,0,0,0,0,0,0,0,-1,1336,1429,0,0
119,-405,0,0,0,0,0,0,0,0,0,-1,1343,1429,0,0
126,-405,0,0,0,0,0,0,0,0,0,-1,1350,1429,0,0
133,-405,0,0,0,0,0,0,0,0,0,-1,1357,1429,0,0
140,-405,0,0,0,0,0,0,0,0,0,-1,1364,1429,0,0
147,-405,0,0,0,0,0,0,0,0,0,-1,1371,1429,0,0
154,-405,0,0,0,0,0,0,0,0,0,-1,1378,1429,0,0
161,-405,0,0,0,0,0,0,0,0,0,-1,1385,1429,0,0
168,-405,0,0,0,0,0,0,0,0,0,-1,1392,1429,0,0
175,-405,0,0,0,0,0,0,0,0,0,-1,1399,1429,0,0
182,-405,0,0,0,0,0,0,0,0,0,-1,1406,1429,0,0
189,-405,0,0,0,0,0,0,0,0,0,-1,1413,1429,0,0
196,-405,0,0,0,0,0,0,0,0,0,-1,1420,1429,0,0
203,-405,0,0,0,0,0,0,0,0,0,-1,1427,1429,0,0
210,-405,0,0,0,0,0,0,0,0,0,-1,1434,1429,0,0
217,-405,0,0,0,0,0,0,0,0,0,-1,1441,1429,0,0
224,-405,0,0,0,0,0,0,0,0,0,-1,1448,1429,0,0
231,-405,0,0,0,0,0,0,0,0,0,-1,1455,1429,0,0
238,-405,0,0,0,0,0,0,0,0,0,-1,1462,1429,0,0
245,-405,0,0,0,0,0,0,0,0,0,-1,1469,1429,0,0
252,-405,0,0,0,0,0,0,0,0,0,-1,1476,1429,0,0
259,-405,0,0,0,0,0,0,0,0,0,-1,1483,1429,0,0
266,-405,0,0,0,0,0,0,0,0,0,-1,1490,1429,0,0
273,-405,0,0,0,0,0,0,0,0,0,-1,1497,1429,0,0
280,-405,0,0,0,0,0,0,0,0,0,-1,1504,1429,0,0
287,-405,0,0,0,0,0,0,0,0,0,-1,1511,1429,0,0
294,-405,0,0,0,0,0,0,0,0,0,-1,1518,1429,0,0
301,-405,0,0,0,0,0,0,0,0,0,-1,1525,1429,0,0
308,-405,0,0,0,0,0,0,0,0,0,-1,1532,1429,0,0
315,-405,0,0,0,0,0,0,0,0,0,-1,1539,1429,0,0
322,-405,0,0,0,0,0,0,0,0,0,-1,1546,1429,0,0
329,-405,0,0,0,0,0,0,0,0,0,-1,1553,1429,0,0
336,-405,0,0,0,0,0,0,0,0,0,-1,1560,1429,0,0
343,-405,0,0,0,0,0,0,0,0,0,-1,1567,1429,0,0
350,-405,0,0,0,0,0,0,0,0,0,-1,1574,1429,0,0
357,-405,0,0,0,0,0,0,0,0,0,-1,1581,1429,0,0
364,-405,0,0,0,0,0,0,0,0,0,-1,1588,1429,0,0
371,-405,0,0,0,0,0,0,0,0,0,-1,1595,1429,0,0
378,-405,0,0,0,0,0,0,0,0,0,-1,1602,1429,0,0
385,-405,0,0,0,0,0,0,0,0,0,-1,1609,1429,0,0
392,-405,0,0,0,0,0,0,0,0,0,-1,1616,1429,0,0
399,-405,0,0,0,0,0,0,0,0,0,-1,1623,1429,0,0
406,-405,0,0,0,0,0,0,0,0,0,-1,1630,1429,0,0
413,-405,0,0,0,0,0,0,0,0,0,-1,1637,1429,0,0
420,-405,0,0,0,0,0,0,0,0,0,-1,1644,1429,0,0
427,-405,0,0,0,0,0,0,0,0,0,-1,1651,1429,0,0
434,-405,0,0,0,0,0,0,0,0,0,-1,1658,1429,0,0
441,-405,0,0,0,0,0,0,0,0,0,-1,1665,1429,0,0
448,-405,0,0,0,0,0,0,0,0,0,-1,1672,1429,0,0
455,-405,0,0,0,0,0,0,0,0,0,-1,1679,1429,0,0
462,-405,0,0,0,0,0,0,0,0,0,-1,1686,1429,0,0
469,-405,0,0,0,0,0,0,0,0,0,-1,1693,1429,0,0
476,-405,0,0,0,0,0,0,0,0,0,-1,1700,1429,0,0
483,-405,0,0,0,0,0,0,0,0,0,-1,1707,1429,0,0
490,-405,0,0,0,0,0,0,0,0,0,-1,1714,1429,0,0
497,-405,0,0,0,0,0,0,0,0,0,-1,1721,1429,0,0
504,-405,0,0,0,0,0,0,0,0,0,-1,1728,1429,0,0
511,-405,0,0,0,0,0,0,0,0,0,-1,1735,1429,0,0
518,-405,0,0,0,0,0,0,0,0,0,-1,1742,1429,0,0
525,-405,31.1563,-1.40942,0,0,0,0,0,0,0,-1,1749,1429,31.1563,1.40937
532,-405,28.156,4.8783,0,0,0,0,0,0,0,-1,1756,1429,28.1561,-4.87833
539,-405,26.5133,3.02454,0,0,0,0,0,0,0,-1,1763,1429,26.5133,-3.0246
546,-405,29.5735,6.53052,0,0,0,0,0,0,0,-1,1770,1429,29.5735,-6.53049
553,-405,28.2911,6.70654,0,0,0,0,0,0,0,-1,1777,1429,28.2912,-6.70656
560,-405,26.9299,7.08472,0,0,0,0,0,0,0,-1,1784,1429,26.9299,-7.08469
567,-405,25.804,7.14661,0,0,0,0,0,0,0,-1,1791,1429,25.8039,-7.14665
574,-405,25.1151,8.07971,0,0,0,0,0,0,0,-1,1798,1429,25.1151,-8.07965
581,-405,23.5055,8.505,0,0,0,0,0,0,0,-1,1805,1429,23.5054,-8.50501
588,-405,21.7491,8.98254,0,0,0,0,0,0,0,-1,1812,1429,21.7491,-8.98254
595,-405,21.6327,10.7795,0,0,0,0,0,0,0,-1,1819,1429,21.6327,-10.7796
602,-405,21.6461,13.9199,0,0,0,0,0,0,0,-1,1826,1429,21.6461,-13.92
609,-405,37.801,24.062,0,0,0,0,0,0,0,-1,1833,1429,37.8011,-24.062
616,-405,38.2719,23.9852,0,0,0,0,0,0,0,-1,1840,1429,38.2719,-23.9852
623,-405,38.2415,23.1038,0.00030998,0.000487127,-0.000195727,0.000613388,0.000183718,-0.997879,0.000363506,0.0166179,1847,1429,38.2414,-23.1038
630,-405,38.2332,22.2272,0.000263671,0.000168882,-2.72312e-05,0.000270937,0.000161615,-0.260753,0.000157394,0.011751,1854,1429,38.2332,-22.2272
637,-405,38.1896,21.4146,0.000582226,3.93787e-05,-0.000119533,0.000607381,1.42234e-05,-0.207418,0.000400264,0.0121352,1861,1429,38.1896,-21.4146
644,-405,38.0673,20.6443,0.00121456,6.98874e-05,-0.000384253,0.00133159,-4.71373e-05,-0.295627,0.000903849,0.032659,1868,1429,38.0672,-20.6443
651,-405,38.0719,19.8516,0.00212491,0.00026597,-0.000820309,0.00243513,-4.42453e-05,-0.361546,0.00163837,0.0366726,1875,1429,38.0719,-19.8516
658,-405,38.0565,19.1411,0.00330272,0.000572411,-0.00141554,0.00390413,-2.90039e-05,-0.401758,0.00261248,0.0255362,1882,1429,38.0565,-19.1411
665,-405,38.038,18.3213,0.0047706,0.000936593,-0.00215157,0.00573529,-2.80931e-05,-0.421493,0.00383292,0.0185612,1889,1429,38.038,-18.3213
672,-405,38.0078,17.5292,0.00650892,0.00132085,-0.0030067,0.00788594,-5.61671e-05,-0.429473,0.00527612,0.0232077,1896,1429,38.0079,-17.5291
679,-405,38.1283,16.7255,0.00864022,0.00172843,-0.00409274,0.010541,-0.000172324,-0.434782,0.00708546,0.0378416,1903,1429,38.1283,-16.7254
686,-405,38.2576,15.7489,0,0,0,0,0,0,0,-1,1910,1429,38.2575,-15.7489
693,-405,37.6653,14.9521,0,0,0,0,0,0,0,-1,1917,1429,37.6653,-14.9521
700,-405,9.1958,4.02026,0,0,0,0,0,0,0,-1,1924,1429,9.19579,-4.02025
707,-405,7.40308,3.83191,0,0,0,0,0,0,0,-1,1931,1429,7.40311,-3.83194
714,-405,7.33252,3.47388,0,0,0,0,0,0,0,-1,1938,1429,7.33255,-3.47383
721,-405,9.23523,0.993896,0,0,0,0,0,0,0,-1,1945,1429,9.23523,-0.993884
728,-405,0,0,0,0,0,0,0,0,0,-1,1952,1429,0,0
735,-405,0,0,0,0,0,0,0,0,0,-1,1959,1429,0,0
742,-405,0,0,0,0,0,0,0,0,0,-1,1966,1429,0,0
749,-405,0,0,0,0,0,0,0,0,0,-1,1973,1429,0,0
756,-405,0,0,0,0,0,0,0,0,0,-1,1980,1429,0,0
763,-405,0,0,0,0,0,0,0,0,0,-1,1987,1429,0,0
770,-405,0,0,0,0,0,0,0,0,0,-1,1994,1429,0,0
777,-405,0,0,0,0,0,0,0,0,0,-1,2001,1429,0,0
784,-405,0,0,0,0,0,0,0,0,0,-1,2008,1429,0,0
791,-405,0,0,0,0,0,0,0,0,0,-1,2015,1429,0,0
798,-405,0,0,0,0,0,0,0,0,0,-1,2022,1429,0,0
805,-405,0,0,0,0,0,0,0,0,0,-1,2029,1429,0,0
812,-405,0,0,0,0,0,0,0,0,0,-1,2036,1429,0,0
-700,-412,0,0,0,0,0,0,0,0,0,-1,524,1436,0,0
-693,-412,0,0,0,0,0,0,0,0,0,-1,531,1436,0,0
-686,-412,0,0,0,0,0,0,0,0,0,-1,538,1436,0,0
-679,-412,0,0,0,0,0,0,0,0,0,-1,545,1436,0,0
-672,-412,0,0,0,0,0,0,0,0,0,-1,552,1436,0,0
-665,-412,0,0,0,0,0,0,0,0,0,-1,559,1436,0,0
-658,-412,0,0,0,0,0,0,0,0,0,-1,566,1436,0,0
-651,-412,0,0,0,0,0,0,0,0,0,-1,573,1436,0,0
-644,-412,0,0,0,0,0,0,0,0,0,-1,580,1436,0,0
-637,-412,0,0,0,0,0,0,0,0,0,-1,587,1436,0,0
-630,-412,0,0,0,0,0,0,0,0,0,-1,594,1436,0,0
-623,-412,0,0,0,0,0,0,0,0,0,-1,601,1436,0,0
-616,-412,0,0,0,0,0,0,0,0,0,-1,608,1436,0,0
-609,-412,0,0,0,0,0,0,0,0,0,-1,615,1436,0,0
-602,-412,-3.72766,-3.50012,0,0,0,0,0,0,0,-1,622,1436,-3.72764,3.50017
-595,-412,-10.3706,0.65564,0,0,0,0,0,0,0,-1,629,1436,-10.3706,-0.655672
-588,-412,-8.17957,1.94934,0,0,0,0,0,0,0,-1,636,1436,-8.17956,-1.94939
-581,-412,-6.60065,-0.0554199,0,0,0,0,0,0,0,-1,643,1436,-6.60063,0.0554733
-574,-412,-8.34131,5.25012,0,0,0,0,0,0,0,-1,650,1436,-8.34129,-5.25012
-567,-412,-7.50354,3.65454,0,0,0,0,0,0,0,-1,657,1436,-7.50356,-3.65452
-560,-412,-8.52448,7.39014,0,0,0,0,0,0,0,-1,664,1436,-8.52447,-7.39019
-553,-412,-7.36761,6.54651,0,0,0,0,0,0,0,-1,671,1436,-7.36763,-6.54654
-546,-412,-20.1161,15.9771,0,0,0,0,0,0,0,-1,678,1436,-20.1161,-15.977
-539,-412,-20.0281,16.923,0.00635234,0.00425571,0.00461561,0.0100372,0.000570864,0.673731,0.00650952,0.0331765,685,1436,-20.0281,-16.9229
-532,-412,-20.1061,17.8616,0.00464039,0.00311049,0.00338446,0.00734527,0.000405604,0.674257,0.0047674,0.0173184,692,1436,-20.1061,-17.8616
-525,-412,-20.1371,18.7025,0.00354867,0.00234785,0.00256063,0.00557834,0.000318181,0.67024,0.0036175,0.0164086,699,1436,-20.1372,-18.7026
-518,-412,-20.1668,19.5089,0.00281259,0.00180358,0.00197935,0.00435072,0.000265454,0.660613,0.00281617,0.015902,706,1436,-20.1668,-19.5089
-511,-412,-20.2316,20.2906,0.00233218,0.00138913,0.00155752,0.00348798,0.000233323,0.638413,0.00225158,0.0195644,713,1436,-20.2316,-20.2906
-504,-412,-20.2878,21.1082,0.00207587,0.00109991,0.00127588,0.00295391,0.000221875,0.602749,0.00189964,0.0204021,720,1436,-20.2879,-21.1082
-497,-412,-20.3358,21.9891,0.00205462,0.000966629,0.00115394,0.00278636,0.000234887,0.565135,0.00178444,0.0166694,727,1436,-20.3358,-21.9891
-490,-412,-20.3652,22.8203,0.00225938,0.00096165,0.00117611,0.00295374,0.000267291,0.533322,0.00188638,0.0144785,734,1436,-20.3651,-22.8203
-483,-412,-20.386,23.6158,0.00264742,0.00114931,0.00133035,0.0034251,0.000371632,0.528994,0.00217015,0.012139,741,1436,-20.386,-23.6158
-476,-412,-20.3181,24.6606,0,0,0,0,0,0,0,-1,748,1436,-20.3181,-24.6606
-469,-412,-12.7646,18.4785,0,0,0,0,0,0,0,-1,755,1436,-12.7647,-18.4785
-462,-412,-8.94659,13.3385,0,0,0,0,0,0,0,-1,762,1436,-8.94657,-13.3385
-455,-412,-8.25006,11.2572,0,0,0,0,0,0,0,-1,769,1436,-8.25007,-11.2572
-448,-412,-7.38086,8.78186,0,0,0,0,0,0,0,-1,776,1436,-7.38088,-8.78183
-441,-412,-8.79523,9.05286,0,0,0,0,0,0,0,-1,783,1436,-8.79521,-9.0529
-434,-412,-10.6305,8.03577,0,0,0,0,0,0,0,-1,790,1436,-10.6305,-8.0358
-427,-412,-10.0004,5.15271,0,0,0,0,0,0,0,-1,797,1436,-10.0004,-5.15266
-420,-412,-10.4468,4.9043,0,0,0,0,0,0,0,-1,804,1436,-10.4468,-4.90429
-413,-412,-11.5704,4.97766,0,0,0,0,0,0,0,-1,811,1436,-11.5704,-4.97771
-406,-412,-13.1968,5.70093,0,0,0,0,0,0,0,-1,818,1436,-13.1968,-5.70096
-399,-412,-10.5506,0.771973,0,0,0,0,0,0,0,-1,825,1436,-10.5506,-0.771954
-392,-412,0,0,0,0,0,0,0,0,0,-1,832,1436,0,0
-385,-412,0,0,0,0,0,0,0,0,0,-1,839,1436,0,0
-378,-412,0,0,0,0,0,0,0,0,0,-1,846,1436,0,0
-371,-412,0,0,0,0,0,0,0,0,0,-1,853,1436,0,0
-364,-412,0,0,0,0,0,0,0,0,0,-1,860,1436,0,0
-357,-412,0,0,0,0,0,0,0,0,0,-1,867,1436,0,0
-350,-412,0,0,0,0,0,0,0,0,0,-1,874,1436,0,0
-343,-412,0,0,0,0,0,0,0,0,0,-1,881,1436,0,0
-336,-412,0,0,0,0,0,0,0,0,0,-1,888,1436,0,0
-329,-412,0,0,0,0,0,0,0,0,0,-1,895,1436,0,0
-322,-412,0,0,0,0,0,0,0,0,0,-1,902,1436,0,0
-315,-412,0,0,0,0,0,0,0,0,0,-1,909,1436,0,0
-308,-412,0,0,0,0,0,0,0,0,0,-1,916,1436,0,0
-301,-412,0,0,0,0,0,0,0,0,0,-1,923,1436,0,0
-294,-412,0,0,0,0,0,0,0,0,0,-1,930,1436,0,0
-287,-412,0,0,0,0,0,0,0,0,0,-1,937,1436,0,0
-280,-412,0,0,0,0,0,0,0,0,0,-1,944,1436,0,0
-273,-412,0,0,0,0,0,0,0,0,0,-1,951,1436,0,0
-266,-412,0,0,0,0,0,0,0,0,0,-1,958,1436,0,0
-259,-412,0,0,0,0,0,0,0,0,0,-1,965,1436,0,0
-252,-412,0,0,0,0,0,0,0,0,0,-1,972,1436,0,0
-245,-412,0,0,0,0,0,0,0,0,0,-1,979,1436,0,0
-238,-412,0,0,0,0,0,0,0,0,0,-1,986,1436,0,0
-231,-412,0,0,0,0,0,0,0,0,0,-1,993,1436,0,0
-224,-412,0,0,0,0,0,0,0,0,0,-1,1000,1436,0,0
-217,-412,0,0,0,0,0,0,0,0,0,-1,1007,1436,0,0
-210,-412,0,0,0,0,0,0,0,0,0,-1,1014,1436,0,0
-203,-412,0,0,0,0,0,0,0,0,0,-1,1021,1436,0,0
-196,-412,0,0,0,0,0,0,0,0,0,-1,1028,1436,0,0
-189,-412,0,0,0,0,0,0,0,0,0,-1,1035,1436,0,0
-182,-412,0,0,0,0,0,0,0,0,0,-1,1042,1436,0,0
-175,-412,0,0,0,0,0,0,0,0,0,-1,1049,1436,0,0
-168,-412,0,0,0,0,0,0,0,0,0,-1,1056,1436,0,0
-161,-412,0,0,0,0,0,0,0,0,0,-1,1063,1436,0,0
-154,-412,0,0,0,0,0,0,0,0,0,-1,1070,1436,0,0
-147,-412,0,0,0,0,0,0,0,0,0,-1,1077,1436,0,0
-140,-412,0,0,0,0,0,0,0,0,0,-1,1084,1436,0,0
-133,-412,0,0,0,0,0,0,0,0,0,-1,1091,1436,0,0
-126,-412,0,0,0,0,0,0,0,0,0,-1,1098,1436,0,0
-119,-412,0,0,0,0,0,0,0,0,0,-1,1105,1436,0,0
-112,-412,0,0,0,0,0,0,0,0,0,-1,1112,1436,0,0
-105,-412,0,0,0,0,0,0,0,0,0,-1,1119,1436,0,0
-98,-412,0,0,0,0,0,0,0,0,0,-1,1126,1436,0,0
-91,-412,0,0,0,0,0,0,0,0,0,-1,1133,1436,0,0
-84,-412,0,0,0,0,0,0,0,0,0,-1,1140,1436,0,0
-77,-412,0,0,0,0,0,0,0,0,0,-1,1147,1436,0,0
-70,-412,0,0,0,0,0,0,0,0,0,-1,1154,1436,0,0
-63,-412,0,0,0,0,0,0,0,0,0,-1,1161,1436,0,0
-56,-412,0,0,0,0,0,0,0,0,0,-1,1168,1436,0,0
-49,-412,0,0,0,0,0,0,0,0,0,-1,1175,1436,0,0
-42,-412,0,0,0,0,0,0,0,0,0,-1,1182,1436,0,0
-35,-412,0,0,0,0,0,0,0,0,0,-1,1189,1436,0,0
-28,-412,0,0,0,0,0,0,0,0,0,-1,1196,1436,0,0
-21,-412,0,0,0,0,0,0,0,0,0,-1,1203,1436,0,0
-14,-412,0,0,0,0,0,0,0,0,0,-1,1210,1436,0,0
-7,-412,0,0,0,0,0,0,0,0,0,-1,1217,1436,0,0
0,-412,0,0,0,0,0,0,0,0,0,-1,1224,1436,0,0
7,-412,0,0,0,0,0,0,0,0,0,-1,1231,1436,0,0
14,-412,0,0,0,0,0,0,0,0,0,-1,1238,1436,0,0
21,-412,0,0,0,0,0,0,0,0,0,-1,1245,1436,0,0
28,-412,0,0,0,0,0,0,0,0,0,-1,1252,1436,0,0
35,-412,0,0,0,0,0,0,0,0,0,-1,1259,1436,0,0
42,-412,0,0,0,0,0,0,0,0,0,-1,1266,1436,0,0
49,-412,0,0,0,0,0,0,0,0,0,-1,1273,1436,0,0
56,-412,0,0,0,0,0,0,0,0,0,-1,1280,1436,0,0
63,-412,0,0,0,0,0,0,0,0,0,-1,1287,1436,0,0
70,-412,0,0,0,0,0,0,0,0,0,-1,1294,1436,0,0
77,-412,0,0,0,0,0,0,0,0,0,-1,1301,1436,0,0
84,-412,0,0,0,0,0,0,0,0,0,-1,1308,1436,0,0
91,-412,0,0,0,0,0,0,0,0,0,-1,1315,1436,0,0
98,-412,0,0,0,0,0,0,0,0,0,-1,1322,1436,0,0
105,-412,0,0,0,0,0,0,0,0,0,-1,1329,1436,0,0
112,-412,0,0,0,0,0,0,0,0,0,-1,1336,1436,0,0
119,-412,0,0,0,0,0,0,0,0,0,-1,1343,1436,0,0
126,-412,0,0,0,0,0,0,0,0,0,-1,1350,1436,0,0
133,-412,0,0,0,0,0,0,0,0,0,-1,1357,1436,0,0
140,-412,0,0,0,0,0,0,0,0,0,-1,1364,1436,0,0
147,-412,0,0,0,0,0,0,0,0,0,-1,1371,1436,0,0
154,-412,0,0,0,0,0,0,0,0,0,-1,1378,1436,0,0
161,-412,0,0,0,0,0,0,0,0,0,-1,1385,1436,0,0
168,-412,0,0,0,0,0,0,0,0,0,-1,1392,1436,0,0
175,-412,0,0,0,0,0,0,0,0,0,-1,1399,1436,0,0
182,-412,0,0,0,0,0,0,0,0,0,-1,1406,1436,0,0
189,-412,0,0,0,0,0,0,0,0,0,-1,1413,1436,0,0
196,-412,0,0,0,0,0,0,0,0,0,-1,1420,1436,0,0
203,-412,0,0,0,0,0,0,0,0,0,-1,1427,1436,0,0
210,-412,0,0,0,0,0,0,0,0,0,-1,1434,1436,0,0
217,-412,0,0,0,0,0,0,0,0,0,-1,1441,1436,0,0
224,-412,0,0,0,0,0,0,0,0,0,-1,1448,1436,0,0
231,-412,0,0,0,0,0,0,0,0,0,-1,1455,1436,0,0
238,-412,0,0,0,0,0,0,0,0,0,-1,1462,1436,0,0
245,-412,0,0,0,0,0,0,0,0,0,-1,1469,1436,0,0
252,-412,0,0,0,0,0,0,0,0,0,-1,1476,1436,0,0
259,-412,0,0,0,0,0,0,0,0,0,-1,1483,1436,0,0
266,-412,0,0,0,0,0,0,0,0,0,-1,1490,1436,0,0
273,-412,0,0,0,0,0,0,0,0,0,-1,1497,1436,0,0
280,-412,0,0,0,0,0,0,0,0,0,-1,1504,1436,0,0
287,-412,0,0,0,0,0,0,0,0,0,-1,1511,1436,0,0
294,-412,0,0,0,0,0,0,0,0,0,-1,1518,1436,0,0
301,-412,0,0,0,0,0,0,0,0,0,-1,1525,1436,0,0
308,-412,0,0,0,0,0,0,0,0,0,-1,1532,1436,0,0
315,-412,0,0,0,0,0,0,0,0,0,-1,1539,1436,0,0
322,-412,0,0,0,0,0,0,0,0,0,-1,1546,1436,0,0
329,-412,0,0,0,0,0,0,0,0,0,-1,1553,1436,0,0
336,-412,0,0,0,0,0,0,0,0,0,-1,1560,1436,0,0
343,-412,0,0,0,0,0,0,0,0,0,-1,1567,1436,0,0
350,-412,0,0,0,0,0,0,0,0,0,-1,1574,1436,0,0
357,-412,0,0,0,0,0,0,0,0,0,-1,1581,1436,0,0
364,-412,0,0,0,0,0,0,0,0,0,-1,1588,1436,0,0
371,-412,0,0,0,0,0,0,0,0,0,-1,1595,1436,0,0
378,-412,0,0,0,0,0,0,0,0,0,-1,1602,1436,0,0
385,-412,0,0,0,0,0,0,0,0,0,-1,1609,1436,0,0
392,-412,0,0,0,0,0,0,0,0,0,-1,1616,1436,0,0
399,-412,0,0,0,0,0,0,0,0,0,-1,1623,1436,0,0
406,-412,0,0,0,0,0,0,0,0,0,-1,1630,1436,0,0
413,-412,0,0,0,0,0,0,0,0,0,-1,1637,1436,0,0
420,-412,0,0,0,0,0,0,0,0,0,-1,1644,1436,0,0
427,-412,0,0,0,0,0,0,0,0,0,-1,1651,1436,0,0
434,-412,0,0,0,0,0,0,0,0,0,-1,1658,1436,0,0
441,-412,0,0,0,0,0,0,0,0,0,-1,1665,1436,0,0
448,-412,0,0,0,0,0,0,0,0,0,-1,1672,1436,0,0
455,-412,0,0,0,0,0,0,0,0,0,-1,1679,1436,0,0
462,-412,0,0,0,0,0,0,0,0,0,-1,1686,1436,0,0
469,-412,0,0,0,0,0,0,0,0,0,-1,1693,1436,0,0
476,-412,0,0,0,0,0,0,0,0,0,-1,1700,1436,0,0
483,-412,0,0,0,0,0,0,0,0,0,-1,1707,1436,0,0
490,-412,0,0,0,0,0,0,0,0,0,-1,1714,1436,0,0
497,-412,0,0,0,0,0,0,0,0,0,-1,1721,1436,0,0
504,-412,0,0,0,0,0,0,0,0,0,-1,1728,1436,0,0
511,-412,0,0,0,0,0,0,0,0,0,-1,1735,1436,0,0
518,-412,30.1038,-2.43384,0,0,0,0,0,0,0,-1,1742,1436,30.1038,2.43383
525,-412,29.5283,-1.42493,0,0,0,0,0,0,0,-1,1749,1436,29.5283,1.42495
532,-412,28.8533,-0.386597,0,0,0,0,0,0,0,-1,1756,1436,28.8533,0.386632
539,-412,25.8654,2.74683,0,0,0,0,0,0,0,-1,1763,1436,25.8654,-2.74685
546,-412,25.4265,2.4342,0,0,0,0,0,0,0,-1,1770,1436,25.4265,-2.4342
553,-412,26.3595,7.49255,0,0,0,0,0,0,0,-1,1777,1436,26.3595,-7.4925
560,-412,24.9116,7.94324,0,0,0,0,0,0,0,-1,1784,1436,24.9116,-7.94327
567,-412,23.668,7.94531,0,0,0,0,0,0,0,-1,1791,1436,23.6679,-7.94534
574,-412,23.0142,9.17236,0,0,0,0,0,0,0,-1,1798,1436,23.0141,-9.17235
581,-412,22.2615,10.0349,0,0,0,0,0,0,0,-1,1805,1436,22.2615,-10.0349
588,-412,21.6893,10.8069,0,0,0,0,0,0,0,-1,1812,1436,21.6893,-10.8069
595,-412,21.5137,14.3157,0,0,0,0,0,0,0,-1,1819,1436,21.5137,-14.3157
602,-412,37.0725,24.8387,0,0,0,0,0,0,0,-1,1826,1436,37.0725,-24.8388
609,-412,37.6024,24.6545,0,0,0,0,0,0,0,-1,1833,1436,37.6024,-24.6545
616,-412,37.5461,23.9025,0.00108283,0.00106311,-0.000880437,0.00195346,0.000192478,-0.779797,0.00124313,0.0152204,1840,1436,37.5461,-23.9025
623,-412,37.4644,23.111,0.000805405,0.000559026,-0.000526786,0.00122321,0.000141217,-0.670537,0.000772717,0.0105737,1847,1436,37.4643,-23.111
630,-412,37.4338,22.2679,0.000852054,0.000251945,-0.00037784,0.00103449,6.95104e-05,-0.449822,0.000667696,0.0122805,1854,1436,37.4338,-22.268
637,-412,37.407,21.4609,0.00121456,0.000139626,-0.000443254,0.00137376,-1.95742e-05,-0.344814,0.000922433,0.0140571,1861,1436,37.407,-21.4609
644,-412,37.3608,20.6766,0.00190402,0.000204443,-0.000721472,0.00216898,-6.05162e-05,-0.351957,0.00146657,0.0149748,1868,1436,37.3609,-20.6766
651,-412,37.3071,19.8776,0.00285254,0.000462448,-0.00118544,0.00334076,-2.5774e-05,-0.390681,0.00223582,0.0259067,1875,1436,37.3072,-19.8776
658,-412,37.2708,19.1346,0.00408537,0.00086484,-0.00184011,0.00492029,2.9918e-05,-0.425956,0.00327027,0.0178416,1882,1436,37.2707,-19.1347
665,-412,37.2731,18.3745,0.00563049,0.00133264,-0.00265091,0.00689408,6.9058e-05,-0.444802,0.00457321,0.0224205,1889,1436,37.273,-18.3746
672,-412,37.2886,17.5471,0.00745265,0.00185252,-0.00360509,0.00921735,8.7827e-05,-0.455213,0.00611583,0.0394275,1896,1436,37.2885,-17.5471
679,-412,37.5841,16.733,0,0,0,0,0,0,0,-1,1903,1436,37.5841,-16.733
686,-412,35.3159,15.2073,0,0,0,0,0,0,0,-1,1910,1436,35.3159,-15.2072
693,-412,11.9346,6.02344,0,0,0,0,0,0,0,-1,1917,1436,11.9346,-6.02343
700,-412,8.82764,5.8844,0,0,0,0,0,0,0,-1,1924,1436,8.82761,-5.88444
707,-412,6.59998,1.68994,0,0,0,0,0,0,0,-1,1931,1436,6.60002,-1.68995
714,-412,4.77283,-2.39832,0,0,0,0,0,0,0,-1,1938,1436,4.77288,2.39835
721,-412,0,0,0,0,0,0,0,0,0,-1,1945,1436,0,0
728,-412,0,0,0,0,0,0,0,0,0,-1,1952,1436,0,0
735,-412,0,0,0,0,0,0,0,0,0,-1,1959,1436,0,0
742,-412,0,0,0,0,0,0,0,0,0,-1,1966,1436,0,0
749,-412,0,0,0,0,0,0,0,0,0,-1,1973,1436,0,0
756,-412,0,0,0,0,0,0,0,0,0,-1,1980,1436,0,0
763,-412,0,0,0,0,0,0,0,0,0,-1,1987,1436,0,0
770,-412,0,0,0,0,0,0,0,0,0,-1,1994,1436,0,0
777,-412,0,0,0,0,0,0,0,0,0,-1,2001,1436,0,0
784,-412,0,0,0,0,0,0,0,0,0,-1,2008,1436,0,0
791,-412,0,0,0,0,0,0,0,0,0,-1,2015,1436,0,0
798,-412,0,0,0,0,0,0,0,0,0,-1,2022,1436,0,0
805,-412,0,0,0,0,0,0,0,0,0,-1,2029,1436,0,0
812,-412,0,0,0,0,0,0,0,0,0,-1,2036,1436,0,0
-700,-419,0,0,0,0,0,0,0,0,0,-1,524,1443,0,0
-693,-419,0,0,0,0,0,0,0,0,0,-1,531,1443,0,0
-686,-419,0,0,0,0,0,0,0,0,0,-1,538,1443,0,0
-679,-419,0,0,0,0,0,0,0,0,0,-1,545,1443,0,0
-672,-419,0,0,0,0,0,0,0,0,0,-1,552,1443,0,0
-665,-419,0,0,0,0,0,0,0,0,0,-1,559,1443,0,0
-658,-419,0,0,0,0,0,0,0,0,0,-1,566,1443,0,0
-651,-419,0,0,0,0,0,0,0,0,0,-1,573,1443,0,0
-644,-419,0,0,0,0,0,0,0,0,0,-1,580,1443,0,0
-637,-419,0,0,0,0,0,0,0,0,0,-1,587,1443,0,0
-630,-419,0,0,0,0,0,0,0,0,0,-1,594,1443,0,0
-623,-419,0,0,0,0,0,0,0,0,0,-1,601,1443,0,0
-616,-419,0,0,0,0,0,0,0,0,0,-1,608,1443,0,0
-609,-419,0,0,0,0,0,0,0,0,0,-1,615,1443,0,0
-602,-419,0,0,0,0,0,0,0,0,0,-1,622,1443,0,0
-595,-419,-11.4904,-0.622681,0,0,0,0,0,0,0,-1,629,1443,-11.4903,0.622714
-588,-419,-9.09369,0.742432,0,0,0,0,0,0,0,-1,636,1443,-9.09366,-0.742482
-581,-419,-6.39172,2.14673,0,0,0,0,0,0,0,-1,643,1443,-6.39175,-2.14668
-574,-419,-4.09772,3.54773,0,0,0,0,0,0,0,-1,650,1443,-4.09772,-3.54767
-567,-419,-6.14038,3.22498,0,0,0,0,0,0,0,-1,657,1443,-6.14037,-3.22497
-560,-419,-4.52814,5.22253,0,0,0,0,0,0,0,-1,664,1443,-4.52816,-5.22251
-553,-419,-5.08331,6.11829,0,0,0,0,0,0,0,-1,671,1443,-5.08331,-6.1183
-546,-419,-10.3732,9.23279,0,0,0,0,0,0,0,-1,678,1443,-10.3732,-9.23275
-539,-419,-19.223,16.8484,0,0,0,0,0,0,0,-1,685,1443,-19.223,-16.8484
-532,-419,-19.3069,17.8851,0.00523537,0.00399738,0.00419612,0.0088579,0.00037484,0.712168,0.00578437,0.0327457,692,1443,-19.3069,-17.8851
-525,-419,-19.3079,18.7649,0.00397282,0.00304533,0.00322347,0.00676573,0.000252413,0.713956,0.00442875,0.01415,699,1443,-19.3079,-18.7649
-518,-419,-19.3216,19.5739,0.00310564,0.00237155,0.00251826,0.00528346,0.00019373,0.713031,0.00345954,0.0178656,706,1443,-19.3216,-19.5738
-511,-419,-19.3866,20.3695,0.00249525,0.00182301,0.00197001,0.00415761,0.000160657,0.700903,0.00271977,0.0202245,713,1443,-19.3866,-20.3695
-504,-419,-19.4681,21.1838,0.00209112,0.00140421,0.00154649,0.00333183,0.000163494,0.676128,0.00216878,0.0205531,720,1443,-19.4681,-21.1839
-497,-419,-19.5034,22.0039,0.00190373,0.00113528,0.00126292,0.00283958,0.000199429,0.637729,0.0018302,0.0144805,727,1443,-19.5033,-22.0039
-490,-419,-19.5286,22.8417,0.00189323,0.00098345,0.00110233,0.00263084,0.000245839,0.589711,0.00167796,0.0124934,734,1443,-19.5286,-22.8416
-483,-419,-19.5657,23.6599,0.00209421,0.0010367,0.00110235,0.00278806,0.000342851,0.561775,0.00175562,0.0111107,741,1443,-19.5657,-23.6599
-476,-419,-19.559,24.5403,0.00242191,0.00114809,0.00121863,0.00316003,0.00040997,0.544598,0.0019842,0.0230732,748,1443,-19.559,-24.5403
-469,-419,-19.5764,25.4443,0,0,0,0,0,0,0,-1,755,1443,-19.5764,-25.4443
-462,-419,-11.5347,18.1563,0,0,0,0,0,0,0,-1,762,1443,-11.5347,-18.1562
-455,-419,-7.35645,11.9451,0,0,0,0,0,0,0,-1,769,1443,-7.35646,-11.9451
-448,-419,-7.49109,9.92444,0,0,0,0,0,0,0,-1,776,1443,-7.49109,-9.92442
-441,-419,-7.65527,8.75574,0,0,0,0,0,0,0,-1,783,1443,-7.65525,-8.75568
-434,-419,-11.3724,12.3643,0,0,0,0,0,0,0,-1,790,1443,-11.3724,-12.3643
-427,-419,-8.23193,7.89404,0,0,0,0,0,0,0,-1,797,1443,-8.23193,-7.89404
-420,-419,-8.74091,6.36597,0,0,0,0,0,0,0,-1,804,1443,-8.74089,-6.366
-413,-419,-9.88391,6.53955,0,0,0,0,0,0,0,-1,811,1443,-9.8839,-6.53955
-406,-419,-10.3372,2.75195,0,0,0,0,0,0,0,-1,818,1443,-10.3372,-2.75201
-399,-419,-11.5999,1.40002,0,0,0,0,0,0,0,-1,825,1443,-11.5999,-1.39998
-392,-419,0,0,0,0,0,0,0,0,0,-1,832,1443,0,0
-385,-419,0,0,0,0,0,0,0,0,0,-1,839,1443,0,0
-378,-419,0,0,0,0,0,0,0,0,0,-1,846,1443,0,0
-371,-419,0,0,0,0,0,0,0,0,0,-1,853,1443,0,0
-364,-419,0,0,0,0,0,0,0,0,0,-1,860,1443,0,0
-357,-419,0,0,0,0,0,0,0,0,0,-1,867,1443,0,0
-350,-419,0,0,0,0,0,0,0,0,0,-1,874,1443,0,0
-343,-419,0,0,0,0,0,0,0,0,0,-1,881,1443,0,0
-336,-419,0,0,0,0,0,0,0,0,0,-1,888,1443,0,0
-329,-419,0,0,0,0,0,0,0,0,0,-1,895,1443,0,0
-322,-419,0,0,0,0,0,0,0,0,0,-1,902,1443,0,0
-315,-419,0,0,0,0,0,0,0,0,0,-1,909,1443,0,0
-308,-419,0,0,0,0,0,0,0,0,0,-1,916,1443,0,0
-301,-419,0,0,0,0,0,0,0,0,0,-1,923,1443,0,0
-294,-419,0,0,0,0,0,0,0,0,0,-1,930,1443,0,0
-287,-419,0,0,0,0,0,0,0,0,0,-1,937,1443,0,0
-280,-419,0,0,0,0,0,0,0,0,0,-1,944,1443,0,0
-273,-419,0,0,0,0,0,0,0,0,0,-1,951,1443,0,0
-266,-419,0,0,0,0,0,0,0,0,0,-1,958,1443,0,0
-259,-419,0,0,0,0,0,0,0,0,0,-1,965,1443,0,0
-252,-419,0,0,0,0,0,0,0,0,0,-1,972,1443,0,0
-245,-419,0,0,0,0,0,0,0,0,0,-1,979,1443,0,0
-238,-419,0,0,0,0,0,0,0,0,0,-1,986,1443,0,0
-231,-419,0,0,0,0,0,0,0,0,0,-1,993,1443,0,0
-224,-419,0,0,0,0,0,0,0,0,0,-1,1000,1443,0,0
-217,-419,0,0,0,0,0,0,0,0,0,-1,1007,1443,0,0
-210,-419,0,0,0,0,0,0,0,0,0,-1,1014,1443,0,0
-203,-419,0,0,0,0,0,0,0,0,0,-1,1021,1443,0,0
-196,-419,0,0,0,0,0,0,0,0,0,-1,1028,1443,0,0
-189,-419,0,0,0,0,0,0,0,0,0,-1,1035,1443,0,0
-182,-419,0,0,0,0,0,0,0,0,0,-1,1042,1443,0,0
-175,-419,0,0,0,0,0,0,0,0,0,-1,1049,1443,0,0
-168,-419,0,0,0,0,0,0,0,0,0,-1,1056,1443,0,0
-161,-419,0,0,0,0,0,0,0,0,0,-1,1063,1443,0,0
-154,-419,0,0,0,0,0,0,0,0,0,-1,1070,1443,0,0
-147,-419,0,0,0,0,0,0,0,0,0,-1,1077,1443,0,0
-140,-419,0,0,0,0,0,0,0,0,0,-1,1084,1443,0,0
-133,-419,0,0,0,0,0,0,0,0,0,-1,1091,1443,0,0
-126,-419,0,0,0,0,0,0,0,0,0,-1,1098,1443,0,0
-119,-419,0,0,0,0,0,0,0,0,0,-1,1105,1443,0,0
-112,-419,0,0,0,0,0,0,0,0,0,-1,1112,1443,0,0
-105,-419,0,0,0,0,0,0,0,0,0,-1,1119,1443,0,0
-98,-419,0,0,0,0,0,0,0,0,0,-1,1126,1443,0,0
-91,-419,0,0,0,0,0,0,0,0,0,-1,1133,1443,0,0
-84,-419,0,0,0,0,0,0,0,0,0,-1,1140,1443,0,0
-77,-419,0,0,0,0,0,0,0,0,0,-1,1147,1443,0,0
-70,-419,0,0,0,0,0,0,0,0,0,-1,1154,1443,0,0
-63,-419,0,0,0,0,0,0,0,0,0,-1,1161,1443,0,0
-56,-419,0,0,0,0,0,0,0,0,0,-1,1168,1443,0,0
-49,-419,0,0,0,0,0,0,0,0,0,-1,1175,1443,0,0
-42,-419,0,0,0,0,0,0,0,0,0,-1,1182,1443,0,0
-35,-419,0,0,0,0,0,0,0,0,0,-1,1189,1443,0,0
-28,-419,0,0,0,0,0,0,0,0,0,-1,1196,1443,0,0
-21,-419,0,0,0,0,0,0,0,0,0,-1,1203,1443,0,0
-14,-419,0,0,0,0,0,0,0,0,0,-1,1210,1443,0,0
-7,-419,0,0,0,0,0,0,0,0,0,-1,1217,1443,0,0
0,-419,0,0,0,0,0,0,0,0,0,-1,1224,1443,0,0
7,-419,0,0,0,0,0,0,0,0,0,-1,1231,1443,0,0
14,-419,0,0,0,0,0,0,0,0,0,-1,1238,1443,0,0
21,-419,0,0,0,0,0,0,0,0,0,-1,1245,1443,0,0
28,-419,0,0,0,0,0,0,0,0,0,-1,1252,1443,0,0
35,-419,0,0,0,0,0,0,0,0,0,-1,1259,1443,0,0
42,-419,0,0,0,0,0,0,0,0,0,-1,1266,1443,0,0
49,-419,0,0,0,0,0,0,0,0,0,-1,1273,1443,0,0
56,-419,0,0,0,0,0,0,0,0,0,-1,1280,1443,0,0
63,-419,0,0,0,0,0,0,0,0,0,-1,1287,1443,0,0
70,-419,0,0,0,0,0,0,0,0,0,-1,1294,1443,0,0
77,-419,0,0,0,0,0,0,0,0,0,-1,1301,1443,0,0
84,-419,0,0,0,0,0,0,0,0,0,-1,1308,1443,0,0
91,-419,0,0,0,0,0,0,0,0,0,-1,1315,1443,0,0
98,-419,0,0,0,0,0,0,0,0,0,-1,1322,1443,0,0
105,-419,0,0,0,0,0,0,0,0,0,-1,1329,1443,0,0
112,-419,0,0,0,0,0,0,0,0,0,-1,1336,1443,0,0
119,-419,0,0,0,0,0,0,0,0,0,-1,1343,1443,0,0
126,-419,0,0,0,0,0,0,0,0,0,-1,1350,1443,0,0
133,-419,0,0,0,0,0,0,0,0,0,-1,1357,1443,0,0
140,-419,0,0,0,0,0,0,0,0,0,-1,1364,1443,0,0
147,-419,0,0,0,0,0,0,0,0,0,-1,1371,1443,0,0
154,-419,0,0,0,0,0,0,0,0,0,-1,1378,1443,0,0
161,-419,0,0,0,0,0,0,0,0,0,-1,1385,1443,0,0
168,-419,0,0,0,0,0,0,0,0,0,-1,1392,1443,0,0
175,-419,0,0,0,0,0,0,0,0,0,-1,1399,1443,0,0
182,-419,0,0,0,0,0,0,0,0,0,-1,1406,1443,0,0
189,-419,0,0,0,0,0,0,0,0,0,-1,1413,1443,0,0
196,-419,0,0,0,0,0,0,0,0,0,-1,1420,1443,0,0
203,-419,0,0,0,0,0,0,0,0,0,-1,1427,1443,0,0
210,-419,0,0,0,0,0,0,0,0,0,-1,1434,1443,0,0
217,-419,0,0,0,0,0,0,0,0,0,-1,1441,1443,0,0
224,-419,0,0,0,0,0,0,0,0,0,-1,1448,1443,0,0
231,-419,0,0,0,0,0,0,0,0,0,-1,1455,1443,0,0
238,-419,0,0,0,0,0,0,0,0,0,-1,1462,1443,0,0
245,-419,0,0,0,0,0,0,0,0,0,-1,1469,1443,0,0
252,-419,0,0,0,0,0,0,0,0,0,-1,1476,1443,0,0
259,-419,0,0,0,0,0,0,0,0,0,-1,1483,1443,0,0
266,-419,0,0,0,0,0,0,0,0,0,-1,1490,1443,0,0
273,-419,0,0,0,0,0,0,0,0,0,-1,1497,1443,0,0
280,-419,0,0,0,0,0,0,0,0,0,-1,1504,1443,0,0
287,-419,0,0,0,0,0,0,0,0,0,-1,1511,1443,0,0
294,-419,0,0,0,0,0,0,0,0,0,-1,1518,1443,0,0
301,-419,0,0,0,0,0,0,0,0,0,-1,1525,1443,0,0
308,-419,0,0,0,0,0,0,0,0,0,-1,1532,1443,0,0
315,-419,0,0,0,0,0,0,0,0,0,-1,1539,1443,0,0
322,-419,0,0,0,0,0,0,0,0,0,-1,1546,1443,0,0
329,-419,0,0,0,0,0,0,0,0,0,-1,1553,1443,0,0
336,-419,0,0,0,0,0,0,0,0,0,-1,1560,1443,0,0
343,-419,0,0,0,0,0,0,0,0,0,-1,1567,1443,0,0
350,-419,0,0,0,0,0,0,0,0,0,-1,1574,1443,0,0
357,-419,0,0,0,0,0,0,0,0,0,-1,1581,1443,0,0
364,-419,0,0,0,0,0,0,0,0,0,-1,1588,1443,0,0
371,-419,0,0,0,0,0,0,0,0,0,-1,1595,1443,0,0
378,-419,0,0,0,0,0,0,0,0,0,-1,1602,1443,0,0
385,-419,0,0,0,0,0,0,0,0,0,-1,1609,1443,0,0
392,-419,0,0,0,0,0,0,0,0,0,-1,1616,1443,0,0
399,-419,0,0,0,0,0,0,0,0,0,-1,1623,1443,0,0
406,-419,0,0,0,0,0,0,0,0,0,-1,1630,1443,0,0
413,-419,0,0,0,0,0,0,0,0,0,-1,1637,1443,0,0
420,-419,0,0,0,0,0,0,0,0,0,-1,1644,1443,0,0
427,-419,0,0,0,0,0,0,0,0,0,-1,1651,1443,0,0
434,-419,0,0,0,0,0,0,0,0,0,-1,1658,1443,0,0
441,-419,0,0,0,0,0,0,0,0,0,-1,1665,1443,0,0
448,-419,0,0,0,0,0,0,0,0,0,-1,1672,1443,0,0
455,-419,0,0,0,0,0,0,0,0,0,-1,1679,1443,0,0
462,-419,0,0,0,0,0,0,0,0,0,-1,1686,1443,0,0
469,-419,0,0,0,0,0,0,0,0,0,-1,1693,1443,0,0
476,-419,0,0,0,0,0,0,0,0,0,-1,1700,1443,0,0
483,-419,0,0,0,0,0,0,0,0,0,-1,1707,1443,0,0
490,-419,0,0,0,0,0,0,0,0,0,-1,1714,1443,0,0
497,-419,0,0,0,0,0,0,0,0,0,-1,1721,1443,0,0
504,-419,0,0,0,0,0,0,0,0,0,-1,1728,1443,0,0
511,-419,20.3005,3.7959,0,0,0,0,0,0,0,-1,1735,1443,20.3005,-3.79584
518,-419,21.3154,2.03027,0,0,0,0,0,0,0,-1,1742,1443,21.3155,-2.03029
525,-419,28.3439,-1.24475,0,0,0,0,0,0,0,-1,1749,1443,28.3438,1.24471
532,-419,27.5902,-0.272583,0,0,0,0,0,0,0,-1,1756,1443,27.5902,0.272526
539,-419,26.5278,1.60583,0,0,0,0,0,0,0,-1,1763,1443,26.5279,-1.60579
546,-419,24.9509,2.77539,0,0,0,0,0,0,0,-1,1770,1443,24.9509,-2.77537
553,-419,24.118,3.75525,0,0,0,0,0,0,0,-1,1777,1443,24.1181,-3.75526
560,-419,11.8199,8.26343,0,0,0,0,0,0,0,-1,1784,1443,11.82,-8.26341
567,-419,21.5143,8.74719,0,0,0,0,0,0,0,-1,1791,1443,21.5143,-8.74722
574,-419,19.5886,6.46155,0,0,0,0,0,0,0,-1,1798,1443,19.5886,-6.46157
581,-419,20.7926,11.4265,0,0,0,0,0,0,0,-1,1805,1443,20.7926,-11.4265
588,-419,19.4242,12.5363,0,0,0,0,0,0,0,-1,1812,1443,19.4242,-12.5362
595,-419,22.9375,16.0151,0,0,0,0,0,0,0,-1,1819,1443,22.9375,-16.0152
602,-419,36.8129,25.5078,0,0,0,0,0,0,0,-1,1826,1443,36.8129,-25.5079
609,-419,36.7828,24.6747,0.00226446,0.00171496,-0.00176835,0.00377928,0.000200148,-0.708329,0.00245552,0.0284206,1833,1443,36.7829,-24.6747
616,-419,36.7352,23.9269,0.00158146,0.000896086,-0.00115739,0.00244583,3.17126e-05,-0.641468,0.00162009,0.0132444,1840,1443,36.7352,-23.9269
623,-419,36.6912,23.1476,0.00130826,0.000526217,-0.000796031,0.00180412,3.03534e-05,-0.557102,0.00119276,0.0114776,1847,1443,36.6911,-23.1476
630,-419,36.6733,22.309,0.00135411,0.000278308,-0.000618647,0.00163601,-3.58385e-06,-0.42755,0.00109187,0.0132025,1854,1443,36.6734,-22.309
637,-419,36.6458,21.5497,0.00168798,0.000229128,-0.000624844,0.00191902,-1.9109e-06,-0.354164,0.00127998,0.0138303,1861,1443,36.6457,-21.5497
644,-419,36.598,20.7831,0.00235069,0.00036712,-0.000865218,0.00267505,4.27588e-05,-0.358673,0.00176929,0.0123022,1868,1443,36.598,-20.7831
651,-419,36.5353,20.0105,0.00326487,0.000718811,-0.00131241,0.00382023,0.000163449,-0.400314,0.00249412,0.0119007,1875,1443,36.5353,-20.0104
658,-419,36.4938,19.2012,0.00451213,0.0012535,-0.00199337,0.00545735,0.000308289,-0.442778,0.00353994,0.0138098,1882,1443,36.4937,-19.2012
665,-419,36.5109,18.4486,0.00610134,0.00186462,-0.00284681,0.00753147,0.000434493,-0.465535,0.0048826,0.0252881,1889,1443,36.5109,-18.4487
672,-419,36.5836,17.6877,0,0,0,0,0,0,0,-1,1896,1443,36.5836,-17.6877
679,-419,35.5436,15.4066,0,0,0,0,0,0,0,-1,1903,1443,35.5436,-15.4067
686,-419,17.4127,8.03076,0,0,0,0,0,0,0,-1,1910,1443,17.4127,-8.03071
693,-419,8.76086,5.60535,0,0,0,0,0,0,0,-1,1917,1443,8.76091,-5.6054
700,-419,11.0498,4.85156,0,0,0,0,0,0,0,-1,1924,1443,11.0498,-4.85153
707,-419,9.5752,1.80042,0,0,0,0,0,0,0,-1,1931,1443,9.57523,-1.80037
714,-419,5.77576,-1.25061,0,0,0,0,0,0,0,-1,1938,1443,5.7757,1.25056
721,-419,0,0,0,0,0,0,0,0,0,-1,1945,1443,0,0
728,-419,0,0,0,0,0,0,0,0,0,-1,1952,1443,0,0
735,-419,0,0,0,0,0,0,0,0,0,-1,1959,1443,0,0
742,-419,0,0,0,0,0,0,0,0,0,-1,1966,1443,0,0
749,-419,0,0,0,0,0,0,0,0,0,-1,1973,1443,0,0
756,-419,0,0,0,0,0,0,0,0,0,-1,1980,1443,0,0
763,-419,0,0,0,0,0,0,0,0,0,-1,1987,1443,0,0
770,-419,0,0,0,0,0,0,0,0,0,-1,1994,1443,0,0
777,-419,0,0,0,0,0,0,0,0,0,-1,2001,1443,0,0
784,-419,0,0,0,0,0,0,0,0,0,-1,2008,1443,0,0
791,-419,0,0,0,0,0,0,0,0,0,-1,2015,1443,0,0
798,-419,0,0,0,0,0,0,0,0,0,-1,2022,1443,0,0
805,-419,0,0,0,0,0,0,0,0,0,-1,2029,1443,0,0
812,-419,0,0,0,0,0,0,0,0,0,-1,2036,1443,0,0
-700,-426,0,0,0,0,0,0,0,0,0,-1,524,1450,0,0
-693,-426,0,0,0,0,0,0,0,0,0,-1,531,1450,0,0
-686,-426,0,0,0,0,0,0,0,0,0,-1,538,1450,0,0
-679,-426,0,0,0,0,0,0,0,0,0,-1,545,1450,0,0
-672,-426,0,0,0,0,0,0,0,0,0,-1,552,1450,0,0
-665,-426,0,0,0,0,0,0,0,0,0,-1,559,1450,0,0
-658,-426,0,0,0,0,0,0,0,0,0,-1,566,1450,0,0
-651,-426,0,0,0,0,0,0,0,0,0,-1,573,1450,0,0
-644,-426,0,0,0,0,0,0,0,0,0,-1,580,1450,0,0
-637,-426,0,0,0,0,0,0,0,0,0,-1,587,1450,0,0
-630,-426,0,0,0,0,0,0,0,0,0,-1,594,1450,0,0
-623,-426,0,0,0,0,0,0,0,0,0,-1,601,1450,0,0
-616,-426,0,0,0,0,0,0,0,0,0,-1,608,1450,0,0
-609,-426,0,0,0,0,0,0,0,0,0,-1,615,1450,0,0
-602,-426,0,0,0,0,0,0,0,0,0,-1,622,1450,0,0
-595,-426,0,0,0,0,0,0,0,0,0,-1,629,1450,0,0
-588,-426,-10.184,-0.554321,0,0,0,0,0,0,0,-1,636,1450,-10.184,0.554321
-581,-426,-7.3349,1.48157,0,0,0,0,0,0,0,-1,643,1450,-7.33491,-1.48152
-574,-426,-5.02856,2.89319,0,0,0,0,0,0,0,-1,650,1450,-5.02858,-2.89319
-567,-426,-3.04797,1.72644,0,0,0,0,0,0,0,-1,657,1450,-3.04797,-1.72639
-560,-426,-5.55682,3.44397,0,0,0,0,0,0,0,-1,664,1450,-5.55684,-3.44399
-553,-426,-4.67017,6.66614,0,0,0,0,0,0,0,-1,671,1450,-4.67015,-6.66619
-546,-426,-7.58752,8.28882,0,0,0,0,0,0,0,-1,678,1450,-7.58752,-8.28878
-539,-426,-10.436,10.7441,0,0,0,0,0,0,0,-1,685,1450,-10.436,-10.7441
-532,-426,-18.6047,17.8673,0,0,0,0,0,0,0,-1,692,1450,-18.6047,-17.8673
-525,-426,-18.5305,18.7251,0.00440246,0.00378833,0.00398763,0.00809483,9.59639e-05,0.746972,0.00536485,0.025793,699,1450,-18.5305,-18.7251
-518,-426,-18.5071,19.621,0.00346541,0.00298071,0.00315778,0.00639012,5.60016e-05,0.7471,0.00424154,0.0170758,706,1450,-18.5071,-19.621
-511,-426,-18.5508,20.4576,0.00277376,0.00229644,0.00249166,0.00503816,3.20394e-05,0.737652,0.00334815,0.0161747,713,1450,-18.5508,-20.4576
-504,-426,-18.6206,21.2517,0.00226029,0.00175162,0.00193874,0.00396131,5.06041e-05,0.720178,0.00262417,0.0151333,720,1450,-18.6206,-21.2517
-497,-426,-18.6587,22.0698,0.00192605,0.00135364,0.00150563,0.00317244,0.000107252,0.691474,0.00208013,0.0125938,727,1450,-18.6587,-22.0699
-490,-426,-18.6989,22.9031,0.00172645,0.00107247,0.00118292,0.00262675,0.000172181,0.650552,0.00169669,0.014013,734,1450,-18.6989,-22.9031
-483,-426,-18.752,23.7051,0.00175337,0.00100579,0.00104017,0.00248488,0.000274287,0.612907,0.00157315,0.0140175,741,1450,-18.7519,-23.7051
-476,-426,-18.7863,24.5155,0.00194196,0.00106892,0.00105456,0.00264677,0.000364103,0.589168,0.00165654,0.0103216,748,1450,-18.7863,-24.5155
-469,-426,-18.8253,25.3241,0.00232911,0.00134271,0.00120717,0.00313995,0.000531875,0.591467,0.00194046,0.014457,755,1450,-18.8253,-25.3241
-462,-426,-18.7527,26.1763,0,0,0,0,0,0,0,-1,762,1450,-18.7527,-26.1763
-455,-426,-10.215,17.7007,0,0,0,0,0,0,0,-1,769,1450,-10.215,-17.7007
-448,-426,-6.46545,10.1322,0,0,0,0,0,0,0,-1,776,1450,-6.46543,-10.1322
-441,-426,-10.9547,11.4747,0,0,0,0,0,0,0,-1,783,1450,-10.9546,-11.4748
-434,-426,-10.4998,13.6189,0,0,0,0,0,0,0,-1,790,1450,-10.4997,-13.6189
-427,-426,-9.36627,13.7396,0,0,0,0,0,0,0,-1,797,1450,-9.36628,-13.7396
-420,-426,-5.33765,7.95044,0,0,0,0,0,0,0,-1,804,1450,-5.33766,-7.95041
-413,-426,-10.1148,5.0415,0,0,0,0,0,0,0,-1,811,1450,-10.1148,-5.04152
-406,-426,-11.4199,3.6438,0,0,0,0,0,0,0,-1,818,1450,-11.4198,-3.64382
-399,-426,-12.7595,2.29004,0,0,0,0,0,0,0,-1,825,1450,-12.7595,-2.29003
-392,-426,-12.4147,0.537354,0,0,0,0,0,0,0,-1,832,1450,-12.4147,-0.53731
-385,-426,0,0,0,0,0,0,0,0,0,-1,839,1450,0,0
-378,-426,0,0,0,0,0,0,0,0,0,-1,846,1450,0,0
-371,-426,0,0,0,0,0,0,0,0,0,-1,853,1450,0,0
-364,-426,0,0,0,0,0,0,0,0,0,-1,860,1450,0,0
-357,-426,0,0,0,0,0,0,0,0,0,-1,867,1450,0,0
-350,-426,0,0,0,0,0,0,0,0,0,-1,874,1450,0,0
-343,-426,0,0,0,0,0,0,0,0,0,-1,881,1450,0,0
-336,-426,0,0,0,0,0,0,0,0,0,-1,888,1450,0,0
-329,-426,0,0,0,0,0,0,0,0,0,-1,895,1450,0,0
-322,-426,0,0,0,0,0,0,0,0,0,-1,902,1450,0,0
-315,-426,0,0,0,0,0,0,0,0,0,-1,909,1450,0,0
-308,-426,0,0,0,0,0,0,0,0,0,-1,916,1450,0,0
-301,-426,0,0,0,0,0,0,0,0,0,-1,923,1450,0,0
-294,-426,0,0,0,0,0,0,0,0,0,-1,930,1450,0,0
-287,-426,0,0,0,0,0,0,0,0,0,-1,937,1450,0,0
-280,-426,0,0,0,0,0,0,0,0,0,-1,944,1450,0,0
-273,-426,0,0,0,0,0,0,0,0,0,-1,951,1450,0,0
-266,-426,0,0,0,0,0,0,0,0,0,-1,958,1450,0,0
-259,-426,0,0,0,0,0,0,0,0,0,-1,965,1450,0,0
-252,-426,0,0,0,0,0,0,0,0,0,-1,972,1450,0,0
-245,-426,0,0,0,0,0,0,0,0,0,-1,979,1450,0,0
-238,-426,0,0,0,0,0,0,0,0,0,-1,986,1450,0,0
-231,-426,0,0,0,0,0,0,0,0,0,-1,993,1450,0,0
-224,-426,0,0,0,0,0,0,0,0,0,-1,1000,1450,0,0
-217,-426,0,0,0,0,0,0,0,0,0,-1,1007,1450,0,0
-210,-426,0,0,0,0,0,0,0,0,0,-1,1014,1450,0,0
-203,-426,0,0,0,0,0,0,0,0,0,-1,1021,1450,0,0
-196,-426,0,0,0,0,0,0,0,0,0,-1,1028,1450,0,0
-189,-426,0,0,0,0,0,0,0,0,0,-1,1035,1450,0,0
-182,-426,0,0,0,0,0,0,0,0,0,-1,1042,1450,0,0
-175,-426,0,0,0,0,0,0,0,0,0,-1,1049,1450,0,0
-168,-426,0,0,0,0,0,0,0,0,0,-1,1056,1450,0,0
-161,-426,0,0,0,0,0,0,0,0,0,-1,1063,1450,0,0
-154,-426,0,0,0,0,0,0,0,0,0,-1,1070,1450,0,0
-147,-426,0,0,0,0,0,0,0,0,0,-1,1077,1450,0,0
-140,-426,0,0,0,0,0,0,0,0,0,-1,1084,1450,0,0
-133,-426,0,0,0,0,0,0,0,0,0,-1,1091,1450,0,0
-126,-426,0,0,0,0,0,0,0,0,0,-1,1098,1450,0,0
-119,-426,0,0,0,0,0,0,0,0,0,-1,1105,1450,0,0
-112,-426,0,0,0,0,0,0,0,0,0,-1,1112,1450,0,0
-105,-426,0,0,0,0,0,0,0,0,0,-1,1119,1450,0,0
-98,-426,0,0,0,0,0,0,0,0,0,-1,1126,1450,0,0
-91,-426,0,0,0,0,0,0,0,0,0,-1,1133,1450,0,0
-84,-426,0,0,0,0,0,0,0,0,0,-1,1140,1450,0,0
-77,-426,0,0,0,0,0,0,0,0,0,-1,1147,1450,0,0
-70,-426,0,0,0,0,0,0,0,0,0,-1,1154,1450,0,0
-63,-426,0,0,0,0,0,0,0,0,0,-1,1161,1450,0,0
-56,-426,0,0,0,0,0,0,0,0,0,-1,1168,1450,0,0
-49,-426,0,0,0,0,0,0,0,0,0,-1,1175,1450,0,0
-42,-426,0,0,0,0,0,0,0,0,0,-1,1182,1450,0,0
-35,-426,0,0,0,0,0,0,0,0,0,-1,1189,1450,0,0
-28,-426,0,0,0,0,0,0,0,0,0,-1,1196,1450,0,0
-21,-426,0,0,0,0,0,0,0,0,0,-1,1203,1450,0,0
-14,-426,0,0,0,0,0,0,0,0,0,-1,1210,1450,0,0
-7,-426,0,0,0,0,0,0,0,0,0,-1,1217,1450,0,0
0,-426,0,0,0,0,0,0,0,0,0,-1,1224,1450,0,0
7,-426,0,0,0,0,0,0,0,0,0,-1,1231,1450,0,0
14,-426,0,0,0,0,0,0,0,0,0,-1,1238,1450,0,0
21,-426,0,0,0,0,0,0,0,0,0,-1,1245,1450,0,0
28,-426,0,0,0,0,0,0,0,0,0,-1,1252,1450,0,0
35,-426,0,0,0,0,0,0,0,0,0,-1,1259,1450,0,0
42,-426,0,0,0,0,0,0,0,0,0,-1,1266,1450,0,0
49,-426,0,0,0,0,0,0,0,0,0,-1,1273,1450,0,0
56,-426,0,0,0,0,0,0,0,0,0,-1,1280,1450,0,0
63,-426,0,0,0,0,0,0,0,0,0,-1,1287,1450,0,0
70,-426,0,0,0,0,0,0,0,0,0,-1,1294,1450,0,0
77,-426,0,0,0,0,0,0,0,0,0,-1,1301,1450,0,0
84,-426,0,0,0,0,0,0,0,0,0,-1,1308,1450,0,0
91,-426,0,0,0,0,0,0,0,0,0,-1,1315,1450,0,0
98,-426,0,0,0,0,0,0,0,0,0,-1,1322,1450,0,0
105,-426,0,0,0,0,0,0,0,0,0,-1,1329,1450,0,0
112,-426,0,0,0,0,0,0,0,0,0,-1,1336,1450,0,0
119,-426,0,0,0,0,0,0,0,0,0,-1,1343,1450,0,0
126,-426,0,0,0,0,0,0,0,0,0,-1,1350,1450,0,0
133,-426,0,0,0,0,0,0,0,0,0,-1,1357,1450,0,0
140,-426,0,0,0,0,0,0,0,0,0,-1,1364,1450,0,0
147,-426,0,0,0,0,0,0,0,0,0,-1,1371,1450,0,0
154,-426,0,0,0,0,0,0,0,0,0,-1,1378,1450,0,0
161,-426,0,0,0,0,0,0,0,0,0,-1,1385,1450,0,0
168,-426,0,0,0,0,0,0,0,0,0,-1,1392,1450,0,0
175,-426,0,0,0,0,0,0,0,0,0,-1,1399,1450,0,0
182,-426,0,0,0,0,0,0,0,0,0,-1,1406,1450,0,0
189,-426,0,0,0,0,0,0,0,0,0,-1,1413,1450,0,0
196,-426,0,0,0,0,0,0,0,0,0,-1,1420,1450,0,0
203,-426,0,0,0,0,0,0,0,0,0,-1,1427,1450,0,0
210,-426,0,0,0,0,0,0,0,0,0,-1,1434,1450,0,0
217,-426,0,0,0,0,0,0,0,0,0,-1,1441,1450,0,0
224,-426,0,0,0,0,0,0,0,0,0,-1,1448,1450,0,0
231,-426,0,0,0,0,0,0,0,0,0,-1,1455,1450,0,0
238,-426,0,0,0,0,0,0,0,0,0,-1,1462,1450,0,0
245,-426,0,0,0,0,0,0,0,0,0,-1,1469,1450,0,0
252,-426,0,0,0,0,0,0,0,0,0,-1,1476,1450,0,0
259,-426,0,0,0,0,0,0,0,0,0,-1,1483,1450,0,0
266,-426,0,0,0,0,0,0,0,0,0,-1,1490,1450,0,0
273,-426,0,0,0,0,0,0,0,0,0,-1,1497,1450,0,0
280,-426,0,0,0,0,0,0,0,0,0,-1,1504,1450,0,0
287,-426,0,0,0,0,0,0,0,0,0,-1,1511,1450,0,0
294,-426,0,0,0,0,0,0,0,0,0,-1,1518,1450,0,0
301,-426,0,0,0,0,0,0,0,0,0,-1,1525,1450,0,0
308,-426,0,0,0,0,0,0,0,0,0,-1,1532,1450,0,0
315,-426,0,0,0,0,0,0,0,0,0,-1,1539,1450,0,0
322,-426,0,0,0,0,0,0,0,0,0,-1,1546,1450,0,0
329,-426,0,0,0,0,0,0,0,0,0,-1,1553,1450,0,0
336,-426,0,0,0,0,0,0,0,0,0,-1,1560,1450,0,0
343,-426,0,0,0,0,0,0,0,0,0,-1,1567,1450,0,0
350,-426,0,0,0,0,0,0,0,0,0,-1,1574,1450,0,0
357,-426,0,0,0,0,0,0,0,0,0,-1,1581,1450,0,0
364,-426,0,0,0,0,0,0,0,0,0,-1,1588,1450,0,0
371,-426,0,0,0,0,0,0,0,0,0,-1,1595,1450,0,0
378,-426,0,0,0,0,0,0,0,0,0,-1,1602,1450,0,0
385,-426,0,0,0,0,0,0,0,0,0,-1,1609,1450,0,0
392,-426,0,0,0,0,0,0,0,0,0,-1,1616,1450,0,0
399,-426,0,0,0,0,0,0,0,0,0,-1,1623,1450,0,0
406,-426,0,0,0,0,0,0,0,0,0,-1,1630,1450,0,0
413,-426,0,0,0,0,0,0,0,0,0,-1,1637,1450,0,0
420,-426,0,0,0,0,0,0,0,0,0,-1,1644,1450,0,0
427,-426,0,0,0,0,0,0,0,0,0,-1,1651,1450,0,0
434,-426,0,0,0,0,0,0,0,0,0,-1,1658,1450,0,0
441,-426,0,0,0,0,0,0,0,0,0,-1,1665,1450,0,0
448,-426,0,0,0,0,0,0,0,0,0,-1,1672,1450,0,0
455,-426,0,0,0,0,0,0,0,0,0,-1,1679,1450,0,0
462,-426,0,0,0,0,0,0,0,0,0,-1,1686,1450,0,0
469,-426,0,0,0,0,0,0,0,0,0,-1,1693,1450,0,0
476,-426,0,0,0,0,0,0,0,0,0,-1,1700,1450,0,0
483,-426,0,0,0,0,0,0,0,0,0,-1,1707,1450,0,0
490,-426,0,0,0,0,0,0,0,0,0,-1,1714,1450,0,0
497,-426,0,0,0,0,0,0,0,0,0,-1,1721,1450,0,0
504,-426,20.6873,3.38367,0,0,0,0,0,0,0,-1,1728,1450,20.6873,-3.38361
511,-426,19.6676,3.53748,0,0,0,0,0,0,0,-1,1735,1450,19.6676,-3.53749
518,-426,18.6853,3.32288,0,0,0,0,0,0,0,-1,1742,1450,18.6853,-3.3229
525,-426,18.9552,2.71033,0,0,0,0,0,0,0,-1,1749,1450,18.9552,-2.71034
532,-426,19.4333,2.70764,0,0,0,0,0,0,0,-1,1756,1450,19.4334,-2.70764
539,-426,25.1482,2.56287,0,0,0,0,0,0,0,-1,1763,1450,25.1482,-2.56286
546,-426,24.1136,3.75659,0,0,0,0,0,0,0,-1,1770,1450,24.1136,-3.7566
553,-426,23.0791,4.95032,0,0,0,0,0,0,0,-1,1777,1450,23.0791,-4.95034
560,-426,12.9688,11.8289,0,0,0,0,0,0,0,-1,1784,1450,12.9688,-11.8288
567,-426,13.6388,11.5623,0,0,0,0,0,0,0,-1,1791,1450,13.6388,-11.5623
574,-426,14.3943,11.0286,0,0,0,0,0,0,0,-1,1798,1450,14.3942,-11.0285
581,-426,16.3879,11.4653,0,0,0,0,0,0,0,-1,1805,1450,16.3879,-11.4653
588,-426,18.1212,12.5547,0,0,0,0,0,0,0,-1,1812,1450,18.1212,-12.5547
595,-426,30.0474,21.0964,0,0,0,0,0,0,0,-1,1819,1450,30.0474,-21.0965
602,-426,35.9523,25.6509,0,0,0,0,0,0,0,-1,1826,1450,35.9523,-25.6509
609,-426,35.9878,24.7468,0.00267188,0.00145309,-0.00178545,0.00394907,0.000175899,-0.620941,0.00257608,0.0148762,1833,1450,35.9878,-24.7468
616,-426,35.9601,23.9449,0.00197778,0.000865022,-0.00125143,0.00279094,5.1863e-05,-0.576223,0.00184358,0.015138,1840,1450,35.9601,-23.945
623,-426,35.924,23.1699,0.00169664,0.000523781,-0.000893992,0.00217938,4.10416e-05,-0.495119,0.00143943,0.0126262,1847,1450,35.9239,-23.1699
630,-426,35.9225,22.3927,0.00175372,0.000280732,-0.000710587,0.00204063,-6.17828e-06,-0.383748,0.00136249,0.0133718,1854,1450,35.9225,-22.3927
637,-426,35.8616,21.6266,0.0020679,0.000246687,-0.00068316,0.00229567,1.89123e-05,-0.321823,0.00152418,0.0141841,1861,1450,35.8616,-21.6265
644,-426,35.7788,20.8395,0.00271533,0.000429728,-0.000893893,0.0030234,0.000121653,-0.331895,0.0019763,0.0140526,1868,1450,35.7788,-20.8395
651,-426,35.7272,20.0498,0.00365214,0.000875582,-0.0013508,0.00420087,0.000326857,-0.385858,0.00269823,0.0128117,1875,1450,35.7272,-20.0498
658,-426,35.7068,19.1992,0.00497316,0.00155768,-0.0020701,0.00594902,0.000581824,-0.440512,0.003787,0.0143228,1882,1450,35.7068,-19.1992
665,-426,35.7856,18.2415,0.00669361,0.00235518,-0.00296877,0.00820123,0.000847562,-0.469889,0.00520801,0.0488582,1889,1450,35.7857,-18.2414
672,-426,36.0343,17.2648,0,0,0,0,0,0,0,-1,1896,1450,36.0344,-17.2647
679,-426,17.1522,8.15784,0,0,0,0,0,0,0,-1,1903,1450,17.1522,-8.15784
686,-426,13.5326,8.03711,0,0,0,0,0,0,0,-1,1910,1450,13.5326,-8.03717
693,-426,11.8607,6.45215,0,0,0,0,0,0,0,-1,1917,1450,11.8607,-6.45215
700,-426,9.24304,2.95447,0,0,0,0,0,0,0,-1,1924,1450,9.24305,-2.95442
707,-426,8.44519,-1.21448,0,0,0,0,0,0,0,-1,1931,1450,8.44514,1.21454
714,-426,0,0,0,0,0,0,0,0,0,-1,1938,1450,0,0
721,-426,0,0,0,0,0,0,0,0,0,-1,1945,1450,0,0
728,-426,0,0,0,0,0,0,0,0,0,-1,1952,1450,0,0
735,-426,0,0,0,0,0,0,0,0,0,-1,1959,1450,0,0
742,-426,0,0,0,0,0,0,0,0,0,-1,1966,1450,0,0
749,-426,0,0,0,0,0,0,0,0,0,-1,1973,1450,0,0
756,-426,0,0,0,0,0,0,0,0,0,-1,1980,1450,0,0
763,-426,0,0,0,0,0,0,0,0,0,-1,1987,1450,0,0
770,-426,0,0,0,0,0,0,0,0,0,-1,1994,1450,0,0
777,-426,0,0,0,0,0,0,0,0,0,-1,2001,1450,0,0
784,-426,0,0,0,0,0,0,0,0,0,-1,2008,1450,0,0
791,-426,0,0,0,0,0,0,0,0,0,-1,2015,1450,0,0
798,-426,0,0,0,0,0,0,0,0,0,-1,2022,1450,0,0
805,-426,0,0,0,0,0,0,0,0,0,-1,2029,1450,0,0
812,-426,0,0,0,0,0,0,0,0,0,-1,2036,1450,0,0
-700,-433,0,0,0,0,0,0,0,0,0,-1,524,1457,0,0
-693,-433,0,0,0,0,0,0,0,0,0,-1,531,1457,0,0
-686,-433,0,0,0,0,0,0,0,0,0,-1,538,1457,0,0
-679,-433,0,0,0,0,0,0,0,0,0,-1,545,1457,0,0
-672,-433,0,0,0,0,0,0,0,0,0,-1,552,1457,0,0
-665,-433,0,0,0,0,0,0,0,0,0,-1,559,1457,0,0
-658,-433,0,0,0,0,0,0,0,0,0,-1,566,1457,0,0
-651,-433,0,0,0,0,0,0,0,0,0,-1,573,1457,0,0
-644,-433,0,0,0,0,0,0,0,0,0,-1,580,1457,0,0
-637,-433,0,0,0,0,0,0,0,0,0,-1,587,1457,0,0
-630,-433,0,0,0,0,0,0,0,0,0,-1,594,1457,0,0
-623,-433,0,0,0,0,0,0,0,0,0,-1,601,1457,0,0
-616,-433,0,0,0,0,0,0,0,0,0,-1,608,1457,0,0
-609,-433,0,0,0,0,0,0,0,0,0,-1,615,1457,0,0
-602,-433,0,0,0,0,0,0,0,0,0,-1,622,1457,0,0
-595,-433,0,0,0,0,0,0,0,0,0,-1,629,1457,0,0
-588,-433,-10.3756,-0.467041,0,0,0,0,0,0,0,-1,636,1457,-10.3756,0.467081
-581,-433,-8.12201,0.884033,0,0,0,0,0,0,0,-1,643,1457,-8.12204,-0.884056
-574,-433,-5.86847,2.23523,0,0,0,0,0,0,0,-1,650,1457,-5.86844,-2.23519
-567,-433,-5.42255,1.16833,0,0,0,0,0,0,0,-1,657,1457,-5.42254,-1.1683
-560,-433,-6.84027,1.86414,0,0,0,0,0,0,0,-1,664,1457,-6.84026,-1.86412
-553,-433,-5.74017,1.79163,0,0,0,0,0,0,0,-1,671,1457,-5.74015,-1.79166
-546,-433,-8.12451,7.35095,0,0,0,0,0,0,0,-1,678,1457,-8.12451,-7.35097
-539,-433,-7.3136,8.75659,0,0,0,0,0,0,0,-1,685,1457,-7.31362,-8.75659
-532,-433,-14.5645,14.8475,0,0,0,0,0,0,0,-1,692,1457,-14.5645,-14.8475
-525,-433,-17.7598,18.7736,0,0,0,0,0,0,0,-1,699,1457,-17.7598,-18.7736
-518,-433,-17.6985,19.6781,0.00398192,0.00376142,0.00401306,0.00788625,-0.000142904,0.771665,0.00530578,0.0183052,706,1457,-17.6986,-19.6781
-511,-433,-17.7606,20.4854,0.00318569,0.00292635,0.003194,0.00625265,-0.000140614,0.765111,0.00421609,0.0162289,713,1457,-17.7606,-20.4854
-504,-433,-17.7955,21.285,0.00254382,0.00223848,0.00247863,0.00487447,-9.21737e-05,0.754639,0.0032808,0.0123555,720,1457,-17.7955,-21.285
-497,-433,-17.8174,22.1056,0.00207001,0.00170321,0.00189023,0.00378571,-1.24917e-05,0.737037,0.00252798,0.0140915,727,1457,-17.8174,-22.1056
-490,-433,-17.8889,22.9253,0.00171909,0.00128651,0.00140933,0.00292863,7.69616e-05,0.709257,0.00192728,0.0174198,734,1457,-17.8888,-22.9253
-483,-433,-17.9514,23.7633,0.00160031,0.00107615,0.00112311,0.00249151,0.000184949,0.670772,0.00160292,0.0180065,741,1457,-17.9514,-23.7633
-476,-433,-17.989,24.5966,0.00164488,0.00104145,0.00102363,0.00241033,0.000275994,0.642081,0.00152325,0.0118795,748,1457,-17.9889,-24.5965
-469,-433,-18.0298,25.4075,0.00186243,0.00116941,0.00106575,0.00263659,0.000395254,0.628222,0.00164191,0.0117636,755,1457,-18.0298,-25.4075
-462,-433,-18.0781,26.2158,0,0,0,0,0,0,0,-1,762,1457,-18.0781,-26.2158
-455,-433,-13.8576,22.7446,0,0,0,0,0,0,0,-1,769,1457,-13.8576,-22.7446
-448,-433,-6.94812,14.5563,0,0,0,0,0,0,0,-1,776,1457,-6.94809,-14.5562
-441,-433,-9.97485,14.0258,0,0,0,0,0,0,0,-1,783,1457,-9.97488,-14.0257
-434,-433,-9.41205,14.2297,0,0,0,0,0,0,0,-1,790,1457,-9.41205,-14.2297
-427,-433,-8.67419,13.6827,0,0,0,0,0,0,0,-1,797,1457,-8.67422,-13.6827
-420,-433,-5.74658,9.49121,0,0,0,0,0,0,0,-1,804,1457,-5.7466,-9.49119
-413,-433,-3.63074,5.5813,0,0,0,0,0,0,0,-1,811,1457,-3.63072,-5.58129
-406,-433,-12.3472,4.69373,0,0,0,0,0,0,0,-1,818,1457,-12.3472,-4.69374
-399,-433,-12.055,2.83594,0,0,0,0,0,0,0,-1,825,1457,-12.055,-2.83594
-392,-433,-12.9772,1.6228,0,0,0,0,0,0,0,-1,832,1457,-12.9772,-1.62282
-385,-433,-13.7999,0.514771,0,0,0,0,0,0,0,-1,839,1457,-13.7999,-0.514788
-378,-433,0,0,0,0,0,0,0,0,0,-1,846,1457,0,0
-371,-433,0,0,0,0,0,0,0,0,0,-1,853,1457,0,0
-364,-433,0,0,0,0,0,0,0,0,0,-1,860,1457,0,0
-357,-433,0,0,0,0,0,0,0,0,0,-1,867,1457,0,0
-350,-433,0,0,0,0,0,0,0,0,0,-1,874,1457,0,0
-343,-433,0,0,0,0,0,0,0,0,0,-1,881,1457,0,0
-336,-433,0,0,0,0,0,0,0,0,0,-1,888,1457,0,0
-329,-433,0,0,0,0,0,0,0,0,0,-1,895,1457,0,0
-322,-433,0,0,0,0,0,0,0,0,0,-1,902,1457,0,0
-315,-433,0,0,0,0,0,0,0,0,0,-1,909,1457,0,0
-308,-433,0,0,0,0,0,0,0,0,0,-1,916,1457,0,0
-301,-433,0,0,0,0,0,0,0,0,0,-1,923,1457,0,0
-294,-433,0,0,0,0,0,0,0,0,0,-1,930,1457,0,0
-287,-433,0,0,0,0,0,0,0,0,0,-1,937,1457,0,0
-280,-433,0,0,0,0,0,0,0,0,0,-1,944,1457,0,0
-273,-433,0,0,0,0,0,0,0,0,0,-1,951,1457,0,0
-266,-433,0,0,0,0,0,0,0,0,0,-1,958,1457,0,0
-259,-433,0,0,0,0,0,0,0,0,0,-1,965,1457,0,0
-252,-433,0,0,0,0,0,0,0,0,0,-1,972,1457,0,0
-245,-433,0,0,0,0,0,0,0,0,0,-1,979,1457,0,0
-238,-433,0,0,0,0,0,0,0,0,0,-1,986,1457,0,0
-231,-433,0,0,0,0,0,0,0,0,0,-1,993,1457,0,0
-224,-433,0,0,0,0,0,0,0,0,0,-1,1000,1457,0,0
-217,-433,0,0,0,0,0,0,0,0,0,-1,1007,1457,0,0
-210,-433,0,0,0,0,0,0,0,0,0,-1,1014,1457,0,0
-203,-433,0,0,0,0,0,0,0,0,0,-1,1021,1457,0,0
-196,-433,0,0,0,0,0,0,0,0,0,-1,1028,1457,0,0
-189,-433,0,0,0,0,0,0,0,0,0,-1,1035,1457,0,0
-182,-433,0,0,0,0,0,0,0,0,0,-1,1042,1457,0,0
-175,-433,0,0,0,0,0,0,0,0,0,-1,1049,1457,0,0
-168,-433,0,0,0,0,0,0,0,0,0,-1,1056,1457,0,0
-161,-433,0,0,0,0,0,0,0,0,0,-1,1063,1457,0,0
-154,-433,0,0,0,0,0,0,0,0,0,-1,1070,1457,0,0
-147,-433,0,0,0,0,0,0,0,0,0,-1,1077,1457,0,0
-140,-433,0,0,0,0,0,0,0,0,0,-1,1084,1457,0,0
-133,-433,0,0,0,0,0,0,0,0,0,-1,1091,1457,0,0
-126,-433,0,0,0,0,0,0,0,0,0,-1,1098,1457,0,0
-119,-433,0,0,0,0,0,0,0,0,0,-1,1105,1457,0,0
-112,-433,0,0,0,0,0,0,0,0,0,-1,1112,1457,0,0
-105,-433,0,0,0,0,0,0,0,0,0,-1,1119,1457,0,0
-98,-433,0,0,0,0,0,0,0,0,0,-1,1126,1457,0,0
-91,-433,0,0,0,0,0,0,0,0,0,-1,1133,1457,0,0
-84,-433,0,0,0,0,0,0,0,0,0,-1,1140,1457,0,0
-77,-433,0,0,0,0,0,0,0,0,0,-1,1147,1457,0,0
-70,-433,0,0,0,0,0,0,0,0,0,-1,1154,1457,0,0
-63,-433,0,0,0,0,0,0,0,0,0,-1,1161,1457,0,0
-56,-433,0,0,0,0,0,0,0,0,0,-1,1168,1457,0,0
-49,-433,0,0,0,0,0,0,0,0,0,-1,1175,1457,0,0
-42,-433,0,0,0,0,0,0,0,0,0,-1,1182,1457,0,0
-35,-433,0,0,0,0,0,0,0,0,0,-1,1189,1457,0,0
-28,-433,0,0,0,0,0,0,0,0,0,-1,1196,1457,0,0
-21,-433,0,0,0,0,0,0,0,0,0,-1,1203,1457,0,0
-14,-433,0,0,0,0,0,0,0,0,0,-1,1210,1457,0,0
-7,-433,0,0,0,0,0,0,0,0,0,-1,1217,1457,0,0
0,-433,0,0,0,0,0,0,0,0,0,-1,1224,1457,0,0
7,-433,0,0,0,0,0,0,0,0,0,-1,1231,1457,0,0
14,-433,0,0,0,0,0,0,0,0,0,-1,1238,1457,0,0
21,-433,0,0,0,0,0,0,0,0,0,-1,1245,1457,0,0
28,-433,0,0,0,0,0,0,0,0,0,-1,1252,1457,0,0
35,-433,0,0,0,0,0,0,0,0,0,-1,1259,1457,0,0
42,-433,0,0,0,0,0,0,0,0,0,-1,1266,1457,0,0
49,-433,0,0,0,0,0,0,0,0,0,-1,1273,1457,0,0
56,-433,0,0,0,0,0,0,0,0,0,-1,1280,1457,0,0
63,-433,0,0,0,0,0,0,0,0,0,-1,1287,1457,0,0
70,-433,0,0,0,0,0,0,0,0,0,-1,1294,1457,0,0
77,-433,0,0,0,0,0,0,0,0,0,-1,1301,1457,0,0
84,-433,0,0,0,0,0,0,0,0,0,-1,1308,1457,0,0
91,-433,0,0,0,0,0,0,0,0,0,-1,1315,1457,0,0
98,-433,0,0,0,0,0,0,0,0,0,-1,1322,1457,0,0
105,-433,0,0,0,0,0,0,0,0,0,-1,1329,1457,0,0
112,-433,0,0,0,0,0,0,0,0,0,-1,1336,1457,0,0
119,-433,0,0,0,0,0,0,0,0,0,-1,1343,1457,0,0
126,-433,0,0,0,0,0,0,0,0,0,-1,1350,1457,0,0
133,-433,0,0,0,0,0,0,0,0,0,-1,1357,1457,0,0
140,-433,0,0,0,0,0,0,0,0,0,-1,1364,1457,0,0
147,-433,0,0,0,0,0,0,0,0,0,-1,1371,1457,0,0
154,-433,0,0,0,0,0,0,0,0,0,-1,1378,1457,0,0
161,-433,0,0,0,0,0,0,0,0,0,-1,1385,1457,0,0
168,-433,0,0,0,0,0,0,0,0,0,-1,1392,1457,0,0
175,-433,0,0,0,0,0,0,0,0,0,-1,1399,1457,0,0
182,-433,0,0,0,0,0,0,0,0,0,-1,1406,1457,0,0
189,-433,0,0,0,0,0,0,0,0,0,-1,1413,1457,0,0
196,-433,0,0,0,0,0,0,0,0,0,-1,1420,1457,0,0
203,-433,0,0,0,0,0,0,0,0,0,-1,1427,1457,0,0
210,-433,0,0,0,0,0,0,0,0,0,-1,1434,1457,0,0
217,-433,0,0,0,0,0,0,0,0,0,-1,1441,1457,0,0
224,-433,0,0,0,0,0,0,0,0,0,-1,1448,1457,0,0
231,-433,0,0,0,0,0,0,0,0,0,-1,1455,1457,0,0
238,-433,0,0,0,0,0,0,0,0,0,-1,1462,1457,0,0
245,-433,0,0,0,0,0,0,0,0,0,-1,1469,1457,0,0
252,-433,0,0,0,0,0,0,0,0,0,-1,1476,1457,0,0
259,-433,0,0,0,0,0,0,0,0,0,-1,1483,1457,0,0
266,-433,0,0,0,0,0,0,0,0,0,-1,1490,1457,0,0
273,-433,0,0,0,0,0,0,0,0,0,-1,1497,1457,0,0
280,-433,0,0,0,0,0,0,0,0,0,-1,1504,1457,0,0
287,-433,0,0,0,0,0,0,0,0,0,-1,1511,1457,0,0
294,-433,0,0,0,0,0,0,0,0,0,-1,1518,1457,0,0
301,-433,0,0,0,0,0,0,0,0,0,-1,1525,1457,0,0
308,-433,0,0,0,0,0,0,0,0,0,-1,1532,1457,0,0
315,-433,0,0,0,0,0,0,0,0,0,-1,1539,1457,0,0
322,-433,0,0,0,0,0,0,0,0,0,-1,1546,1457,0,0
329,-433,0,0,0,0,0,0,0,0,0,-1,1553,1457,0,0
336,-433,0,0,0,0,0,0,0,0,0,-1,1560,1457,0,0
343,-433,0,0,0,0,0,0,0,0,0,-1,1567,1457,0,0
350,-433,0,0,0,0,0,0,0,0,0,-1,1574,1457,0,0
357,-433,0,0,0,0,0,0,0,0,0,-1,1581,1457,0,0
364,-433,0,0,0,0,0,0,0,0,0,-1,1588,1457,0,0
371,-433,0,0,0,0,0,0,0,0,0,-1,1595,1457,0,0
378,-433,0,0,0,0,0,0,0,0,0,-1,1602,1457,0,0
385,-433,0,0,0,0,0,0,0,0,0,-1,1609,1457,0,0
392,-433,0,0,0,0,0,0,0,0,0,-1,1616,1457,0,0
399,-433,0,0,0,0,0,0,0,0,0,-1,1623,1457,0,0
406,-433,0,0,0,0,0,0,0,0,0,-1,1630,1457,0,0
413,-433,0,0,0,0,0,0,0,0,0,-1,1637,1457,0,0
420,-433,0,0,0,0,0,0,0,0,0,-1,1644,1457,0,0
427,-433,0,0,0,0,0,0,0,0,0,-1,1651,1457,0,0
434,-433,0,0,0,0,0,0,0,0,0,-1,1658,1457,0,0
441,-433,0,0,0,0,0,0,0,0,0,-1,1665,1457,0,0
448,-433,0,0,0,0,0,0,0,0,0,-1,1672,1457,0,0
455,-433,0,0,0,0,0,0,0,0,0,-1,1679,1457,0,0
462,-433,0,0,0,0,0,0,0,0,0,-1,1686,1457,0,0
469,-433,0,0,0,0,0,0,0,0,0,-1,1693,1457,0,0
476,-433,0,0,0,0,0,0,0,0,0,-1,1700,1457,0,0
483,-433,0,0,0,0,0,0,0,0,0,-1,1707,1457,0,0
490,-433,0,0,0,0,0,0,0,0,0,-1,1714,1457,0,0
497,-433,0,0,0,0,0,0,0,0,0,-1,1721,1457,0,0
504,-433,19.9058,3.03662,0,0,0,0,0,0,0,-1,1728,1457,19.9058,-3.03656
511,-433,19.0145,3.07837,0,0,0,0,0,0,0,-1,1735,1457,19.0146,-3.07834
518,-433,18.071,3.06433,0,0,0,0,0,0,0,-1,1742,1457,18.071,-3.06432
525,-433,17.2048,3.37085,0,0,0,0,0,0,0,-1,1749,1457,17.2049,-3.37083
532,-433,16.5637,3.36646,0,0,0,0,0,0,0,-1,1756,1457,16.5637,-3.36643
539,-433,15.9193,3.30396,0,0,0,0,0,0,0,-1,1763,1457,15.9193,-3.30394
546,-433,23.1903,4.81775,0,0,0,0,0,0,0,-1,1770,1457,23.1903,-4.81775
553,-433,13.9674,11.5781,0,0,0,0,0,0,0,-1,1777,1457,13.9674,-11.5781
560,-433,13.9855,11.7341,0,0,0,0,0,0,0,-1,1784,1457,13.9855,-11.7341
567,-433,13.9264,11.3364,0,0,0,0,0,0,0,-1,1791,1457,13.9263,-11.3364
574,-433,15.5305,12.3673,0,0,0,0,0,0,0,-1,1798,1457,15.5305,-12.3673
581,-433,16.6405,12.1898,0,0,0,0,0,0,0,-1,1805,1457,16.6405,-12.1898
588,-433,26.4386,19.7478,0,0,0,0,0,0,0,-1,1812,1457,26.4386,-19.7478
595,-433,35.2511,26.5054,0,0,0,0,0,0,0,-1,1819,1457,35.2511,-26.5054
602,-433,35.2007,25.6257,0.0036376,0.00180077,-0.00224338,0.00514328,0.000295091,-0.591111,0.00333485,0.0312476,1826,1457,35.2007,-25.6257
609,-433,35.2258,24.7749,0.00283801,0.00121976,-0.00166691,0.0038818,0.000175975,-0.559447,0.00253125,0.0181454,1833,1457,35.2258,-24.7749
616,-433,35.2072,24.0171,0.00219084,0.000766381,-0.00119047,0.00286587,9.13497e-05,-0.515823,0.00188087,0.0150346,1840,1457,35.2072,-24.017
623,-433,35.1357,23.2207,0.00192438,0.000441524,-0.000836358,0.00230063,6.52712e-05,-0.422747,0.00151247,0.0109745,1847,1457,35.1358,-23.2207
630,-433,35.1156,22.4524,0.00199435,0.000195506,-0.000633438,0.00219503,-5.16465e-06,-0.306793,0.00146507,0.0142786,1854,1457,35.1156,-22.4524
637,-433,35.0743,21.6884,0.00229409,0.000162086,-0.000567288,0.00243564,2.05389e-05,-0.244523,0.00161696,0.0165914,1861,1457,35.0744,-21.6883
644,-433,34.9966,20.9102,0.00290539,0.000385237,-0.000737039,0.00310511,0.000185512,-0.264627,0.00201109,0.0177401,1868,1457,34.9966,-20.9101
651,-433,34.9675,20.0734,0.0038514,0.000924609,-0.00119422,0.00427684,0.00049917,-0.34223,0.00270026,0.0138503,1875,1457,34.9676,-20.0733
658,-433,34.8511,19.2195,0.00522262,0.00175833,-0.00192889,0.00608295,0.000897998,-0.419543,0.00379158,0.0463914,1882,1457,34.8511,-19.2195
665,-433,35.2605,18.0342,0,0,0,0,0,0,0,-1,1889,1457,35.2605,-18.0342
672,-433,18.115,8.7207,0,0,0,0,0,0,0,-1,1896,1457,18.115,-8.72074
679,-433,17.2969,9.6355,0,0,0,0,0,0,0,-1,1903,1457,17.2968,-9.63548
686,-433,13.6356,8.61694,0,0,0,0,0,0,0,-1,1910,1457,13.6356,-8.61694
693,-433,13.4081,8.39624,0,0,0,0,0,0,0,-1,1917,1457,13.4081,-8.39624
700,-433,7.16809,-1.5166,0,0,0,0,0,0,0,-1,1924,1457,7.16806,1.51656
707,-433,8.68359,-2.82202,0,0,0,0,0,0,0,-1,1931,1457,8.68359,2.82197
714,-433,0,0,0,0,0,0,0,0,0,-1,1938,1457,0,0
721,-433,0,0,0,0,0,0,0,0,0,-1,1945,1457,0,0
728,-433,0,0,0,0,0,0,0,0,0,-1,1952,1457,0,0
735,-433,0,0,0,0,0,0,0,0,0,-1,1959,1457,0,0
742,-433,0,0,0,0,0,0,0,0,0,-1,1966,1457,0,0
749,-433,0,0,0,0,0,0,0,0,0,-1,1973,1457,0,0
756,-433,0,0,0,0,0,0,0,0,0,-1,1980,1457,0,0
763,-433,0,0,0,0,0,0,0,0,0,-1,1987,1457,0,0
770,-433,0,0,0,0,0,0,0,0,0,-1,1994,1457,0,0
777,-433,0,0,0,0,0,0,0,0,0,-1,2001,1457,0,0
784,-433,0,0,0,0,0,0,0,0,0,-1,2008,1457,0,0
791,-433,0,0,0,0,0,0,0,0,0,-1,2015,1457,0,0
798,-433,0,0,0,0,0,0,0,0,0,-1,2022,1457,0,0
805,-433,0,0,0,0,0,0,0,0,0,-1,2029,1457,0,0
812,-433,0,0,0,0,0,0,0,0,0,-1,2036,1457,0,0
-700,-440,0,0,0,0,0,0,0,0,0,-1,524,1464,0,0
-693,-440,0,0,0,0,0,0,0,0,0,-1,531,1464,0,0
-686,-440,0,0,0,0,0,0,0,0,0,-1,538,1464,0,0
-679,-440,0,0,0,0,0,0,0,0,0,-1,545,1464,0,0
-672,-440,0,0,0,0,0,0,0,0,0,-1,552,1464,0,0
-665,-440,0,0,0,0,0,0,0,0,0,-1,559,1464,0,0
-658,-440,0,0,0,0,0,0,0,0,0,-1,566,1464,0,0
-651,-440,0,0,0,0,0,0,0,0,0,-1,573,1464,0,0
-644,-440,0,0,0,0,0,0,0,0,0,-1,580,1464,0,0
-637,-440,0,0,0,0,0,0,0,0,0,-1,587,1464,0,0
-630,-440,0,0,0,0,0,0,0,0,0,-1,594,1464,0,0
-623,-440,0,0,0,0,0,0,0,0,0,-1,601,1464,0,0
-616,-440,0,0,0,0,0,0,0,0,0,-1,608,1464,0,0
-609,-440,0,0,0,0,0,0,0,0,0,-1,615,1464,0,0
-602,-440,0,0,0,0,0,0,0,0,0,-1,622,1464,0,0
-595,-440,0,0,0,0,0,0,0,0,0,-1,629,1464,0,0
-588,-440,0,0,0,0,0,0,0,0,0,-1,636,1464,0,0
-581,-440,-8.97278,0.254517,0,0,0,0,0,0,0,-1,643,1464,-8.97276,-0.254526
-574,-440,-7.00818,-0.918579,0,0,0,0,0,0,0,-1,650,1464,-7.00817,0.918538
-567,-440,-6.12152,-0.0766602,0,0,0,0,0,0,0,-1,657,1464,-6.12151,0.0767097
-560,-440,-5.46747,0.82251,0,0,0,0,0,0,0,-1,664,1464,-5.46748,-0.822551
-553,-440,-6.84729,0.0831299,0,0,0,0,0,0,0,-1,671,1464,-6.84732,-0.083136
-546,-440,-5.63446,-0.153198,0,0,0,0,0,0,0,-1,678,1464,-5.63447,0.153147
-539,-440,-6.80017,8.58252,0,0,0,0,0,0,0,-1,685,1464,-6.80015,-8.58257
-532,-440,-9.69647,11.3262,0,0,0,0,0,0,0,-1,692,1464,-9.69649,-11.3262
-525,-440,-17.0169,18.6858,0,0,0,0,0,0,0,-1,699,1464,-17.0169,-18.6858
-518,-440,-16.9395,19.6094,0.00487151,0.00487811,0.00530916,0.010184,-0.000434352,0.785709,0.00693863,0.0334967,706,1464,-16.9395,-19.6093
-511,-440,-16.9164,20.5245,0.00389258,0.00383506,0.00425569,0.0081196,-0.000391967,0.782019,0.00554834,0.0163712,713,1464,-16.9164,-20.5246
-504,-440,-16.949,21.3385,0.0030558,0.00294894,0.00330923,0.00631204,-0.000307294,0.777326,0.0043141,0.0184271,720,1464,-16.949,-21.3385
-497,-440,-17.0013,22.1295,0.00238792,0.00222111,0.00250275,0.00480866,-0.000199618,0.768742,0.00327434,0.0226485,727,1464,-17.0014,-22.1295
-490,-440,-17.054,22.8838,0.00184964,0.00163094,0.00181996,0.00356353,-8.29521e-05,0.755393,0.00240381,0.0237553,734,1464,-17.054,-22.8838
-483,-440,-17.1371,23.7694,0.00154874,0.00123841,0.0013428,0.00274531,4.18387e-05,0.727876,0.00181642,0.0204015,741,1464,-17.1371,-23.7695
-476,-440,-17.1791,24.6079,0.0014184,0.00105069,0.00108157,0.00233163,0.000137453,0.701207,0.00151069,0.0140299,748,1464,-17.1791,-24.6079
-469,-440,-17.227,25.4413,0.0014387,0.00105607,0.000983465,0.00224928,0.000245483,0.689333,0.00142476,0.0141119,755,1464,-17.227,-25.4413
-462,-440,-17.3111,26.2471,0.00167646,0.00132253,0.00114947,0.00266251,0.000336481,0.709022,0.00167415,0.01939,762,1464,-17.3111,-26.2471
-455,-440,-17.2221,27.0884,0,0,0,0,0,0,0,-1,769,1464,-17.2221,-27.0884
-448,-440,-12.8837,23.5623,0,0,0,0,0,0,0,-1,776,1464,-12.8837,-23.5623
-441,-440,-7.28583,14.7465,0,0,0,0,0,0,0,-1,783,1464,-7.28584,-14.7464
-434,-440,-8.33636,14.5024,0,0,0,0,0,0,0,-1,790,1464,-8.33638,-14.5025
-427,-440,-8.28094,14.2512,0,0,0,0,0,0,0,-1,797,1464,-8.28094,-14.2512
-420,-440,-6.86603,8.09216,0,0,0,0,0,0,0,-1,804,1464,-6.86602,-8.09222
-413,-440,-3.46796,5.72278,0,0,0,0,0,0,0,-1,811,1464,-3.46797,-5.72276
-406,-440,-5.2887,5.20264,0,0,0,0,0,0,0,-1,818,1464,-5.2887,-5.20261
-399,-440,-12.7318,3.94421,0,0,0,0,0,0,0,-1,825,1464,-12.7318,-3.94419
-392,-440,-13.5565,2.51855,0,0,0,0,0,0,0,-1,832,1464,-13.5565,-2.51861
-385,-440,-14.6741,1.39795,0,0,0,0,0,0,0,-1,839,1464,-14.6741,-1.39801
-378,-440,-15.8063,0.293457,0,0,0,0,0,0,0,-1,846,1464,-15.8063,-0.293412
-371,-440,0,0,0,0,0,0,0,0,0,-1,853,1464,0,0
-364,-440,0,0,0,0,0,0,0,0,0,-1,860,1464,0,0
-357,-440,0,0,0,0,0,0,0,0,0,-1,867,1464,0,0
-350,-440,0,0,0,0,0,0,0,0,0,-1,874,1464,0,0
-343,-440,0,0,0,0,0,0,0,0,0,-1,881,1464,0,0
-336,-440,0,0,0,0,0,0,0,0,0,-1,888,1464,0,0
-329,-440,0,0,0,0,0,0,0,0,0,-1,895,1464,0,0
-322,-440,0,0,0,0,0,0,0,0,0,-1,902,1464,0,0
-315,-440,0,0,0,0,0,0,0,0,0,-1,909,1464,0,0
-308,-440,0,0,0,0,0,0,0,0,0,-1,916,1464,0,0
-301,-440,0,0,0,0,0,0,0,0,0,-1,923,1464,0,0
-294,-440,0,0,0,0,0,0,0,0,0,-1,930,1464,0,0
-287,-440,0,0,0,0,0,0,0,0,0,-1,937,1464,0,0
-280,-440,0,0,0,0,0,0,0,0,0,-1,944,1464,0,0
-273,-440,0,0,0,0,0,0,0,0,0,-1,951,1464,0,0
-266,-440,0,0,0,0,0,0,0,0,0,-1,958,1464,0,0
-259,-440,0,0,0,0,0,0,0,0,0,-1,965,1464,0,0
-252,-440,0,0,0,0,0,0,0,0,0,-1,972,1464,0,0
-245,-440,0,0,0,0,0,0,0,0,0,-1,979,1464,0,0
-238,-440,0,0,0,0,0,0,0,0,0,-1,986,1464,0,0
-231,-440,0,0,0,0,0,0,0,0,0,-1,993,1464,0,0
-224,-440,0,0,0,0,0,0,0,0,0,-1,1000,1464,0,0
-217,-440,0,0,0,0,0,0,0,0,0,-1,1007,1464,0,0
-210,-440,0,0,0,0,0,0,0,0,0,-1,1014,1464,0,0
-203,-440,0,0,0,0,0,0,0,0,0,-1,1021,1464,0,0
-196,-440,0,0,0,0,0,0,0,0,0,-1,1028,1464,0,0
-189,-440,0,0,0,0,0,0,0,0,0,-1,1035,1464,0,0
-182,-440,0,0,0,0,0,0,0,0,0,-1,1042,1464,0,0
-175,-440,0,0,0,0,0,0,0,0,0,-1,1049,1464,0,0
-168,-440,0,0,0,0,0,0,0,0,0,-1,1056,1464,0,0
-161,-440,0,0,0,0,0,0,0,0,0,-1,1063,1464,0,0
-154,-440,0,0,0,0,0,0,0,0,0,-1,1070,1464,0,0
-147,-440,0,0,0,0,0,0,0,0,0,-1,1077,1464,0,0
-140,-440,0,0,0,0,0,0,0,0,0,-1,1084,1464,0,0
-133,-440,0,0,0,0,0,0,0,0,0,-1,1091,1464,0,0
-126,-440,0,0,0,0,0,0,0,0,0,-1,1098,1464,0,0
-119,-440,0,0,0,0,0,0,0,0,0,-1,1105,1464,0,0
-112,-440,0,0,0,0,0,0,0,0,0,-1,1112,1464,0,0
-105,-440,0,0,0,0,0,0,0,0,0,-1,1119,1464,0,0
-98,-440,0,0,0,0,0,0,0,0,0,-1,1126,1464,0,0
-91,-440,0,0,0,0,0,0,0,0,0,-1,1133,1464,0,0
-84,-440,0,0,0,0,0,0,0,0,0,-1,1140,1464,0,0
-77,-440,0,0,0,0,0,0,0,0,0,-1,1147,1464,0,0
-70,-440,0,0,0,0,0,0,0,0,0,-1,1154,1464,0,0
-63,-440,0,0,0,0,0,0,0,0,0,-1,1161,1464,0,0
-56,-440,0,0,0,0,0,0,0,0,0,-1,1168,1464,0,0
-49,-440,0,0,0,0,0,0,0,0,0,-1,1175,1464,0,0
-42,-440,0,0,0,0,0,0,0,0,0,-1,1182,1464,0,0
-35,-440,0,0,0,0,0,0,0,0,0,-1,1189,1464,0,0
-28,-440,0,0,0,0,0,0,0,0,0,-1,1196,1464,0,0
-21,-440,0,0,0,0,0,0,0,0,0,-1,1203,1464,0,0
-14,-440,0,0,0,0,0,0,0,0,0,-1,1210,1464,0,0
-7,-440,0,0,0,0,0,0,0,0,0,-1,1217,1464,0,0
0,-440,0,0,0,0,0,0,0,0,0,-1,1224,1464,0,0
7,-440,0,0,0,0,0,0,0,0,0,-1,1231,1464,0,0
14,-440,0,0,0,0,0,0,0,0,0,-1,1238,1464,0,0
21,-440,0,0,0,0,0,0,0,0,0,-1,1245,1464,0,0
28,-440,0,0,0,0,0,0,0,0,0,-1,1252,1464,0,0
35,-440,0,0,0,0,0,0,0,0,0,-1,1259,1464,0,0
42,-440,0,0,0,0,0,0,0,0,0,-1,1266,1464,0,0
49,-440,0,0,0,0,0,0,0,0,0,-1,1273,1464,0,0
56,-440,0,0,0,0,0,0,0,0,0,-1,1280,1464,0,0
63,-440,0,0,0,0,0,0,0,0,0,-1,1287,1464,0,0
70,-440,0,0,0,0,0,0,0,0,0,-1,1294,1464,0,0
77,-440,0,0,0,0,0,0,0,0,0,-1,1301,1464,0,0
84,-440,0,0,0,0,0,0,0,0,0,-1,1308,1464,0,0
91,-440,0,0,0,0,0,0,0,0,0,-1,1315,1464,0,0
98,-440,0,0,0,0,0,0,0,0,0,-1,1322,1464,0,0
105,-440,0,0,0,0,0,0,0,0,0,-1,1329,1464,0,0
112,-440,0,0,0,0,0,0,0,0,0,-1,1336,1464,0,0
119,-440,0,0,0,0,0,0,0,0,0,-1,1343,1464,0,0
126,-440,0,0,0,0,0,0,0,0,0,-1,1350,1464,0,0
133,-440,0,0,0,0,0,0,0,0,0,-1,1357,1464,0,0
140,-440,0,0,0,0,0,0,0,0,0,-1,1364,1464,0,0
147,-440,0,0,0,0,0,0,0,0,0,-1,1371,1464,0,0
154,-440,0,0,0,0,0,0,0,0,0,-1,1378,1464,0,0
161,-440,0,0,0,0,0,0,0,0,0,-1,1385,1464,0,0
168,-440,0,0,0,0,0,0,0,0,0,-1,1392,1464,0,0
175,-440,0,0,0,0,0,0,0,0,0,-1,1399,1464,0,0
182,-440,0,0,0,0,0,0,0,0,0,-1,1406,1464,0,0
189,-440,0,0,0,0,0,0,0,0,0,-1,1413,1464,0,0
196,-440,0,0,0,0,0,0,0,0,0,-1,1420,1464,0,0
203,-440,0,0,0,0,0,0,0,0,0,-1,1427,1464,0,0
210,-440,0,0,0,0,0,0,0,0,0,-1,1434,1464,0,0
217,-440,0,0,0,0,0,0,0,0,0,-1,1441,1464,0,0
224,-440,0,0,0,0,0,0,0,0,0,-1,1448,1464,0,0
231,-440,0,0,0,0,0,0,0,0,0,-1,1455,1464,0,0
238,-440,0,0,0,0,0,0,0,0,0,-1,1462,1464,0,0
245,-440,0,0,0,0,0,0,0,0,0,-1,1469,1464,0,0
252,-440,0,0,0,0,0,0,0,0,0,-1,1476,1464,0,0
259,-440,0,0,0,0,0,0,0,0,0,-1,1483,1464,0,0
266,-440,0,0,0,0,0,0,0,0,0,-1,1490,1464,0,0
273,-440,0,0,0,0,0,0,0,0,0,-1,1497,1464,0,0
280,-440,0,0,0,0,0,0,0,0,0,-1,1504,1464,0,0
287,-440,0,0,0,0,0,0,0,0,0,-1,1511,1464,0,0
294,-440,0,0,0,0,0,0,0,0,0,-1,1518,1464,0,0
301,-440,0,0,0,0,0,0,0,0,0,-1,1525,1464,0,0
308,-440,0,0,0,0,0,0,0,0,0,-1,1532,1464,0,0
315,-440,0,0,0,0,0,0,0,0,0,-1,1539,1464,0,0
322,-440,0,0,0,0,0,0,0,0,0,-1,1546,1464,0,0
329,-440,0,0,0,0,0,0,0,0,0,-1,1553,1464,0,0
336,-440,0,0,0,0,0,0,0,0,0,-1,1560,1464,0,0
343,-440,0,0,0,0,0,0,0,0,0,-1,1567,1464,0,0
350,-440,0,0,0,0,0,0,0,0,0,-1,1574,1464,0,0
357,-440,0,0,0,0,0,0,0,0,0,-1,1581,1464,0,0
364,-440,0,0,0,0,0,0,0,0,0,-1,1588,1464,0,0
371,-440,0,0,0,0,0,0,0,0,0,-1,1595,1464,0,0
378,-440,0,0,0,0,0,0,0,0,0,-1,1602,1464,0,0
385,-440,0,0,0,0,0,0,0,0,0,-1,1609,1464,0,0
392,-440,0,0,0,0,0,0,0,0,0,-1,1616,1464,0,0
399,-440,0,0,0,0,0,0,0,0,0,-1,1623,1464,0,0
406,-440,0,0,0,0,0,0,0,0,0,-1,1630,1464,0,0
413,-440,0,0,0,0,0,0,0,0,0,-1,1637,1464,0,0
420,-440,0,0,0,0,0,0,0,0,0,-1,1644,1464,0,0
427,-440,0,0,0,0,0,0,0,0,0,-1,1651,1464,0,0
434,-440,0,0,0,0,0,0,0,0,0,-1,1658,1464,0,0
441,-440,0,0,0,0,0,0,0,0,0,-1,1665,1464,0,0
448,-440,0,0,0,0,0,0,0,0,0,-1,1672,1464,0,0
455,-440,0,0,0,0,0,0,0,0,0,-1,1679,1464,0,0
462,-440,0,0,0,0,0,0,0,0,0,-1,1686,1464,0,0
469,-440,0,0,0,0,0,0,0,0,0,-1,1693,1464,0,0
476,-440,0,0,0,0,0,0,0,0,0,-1,1700,1464,0,0
483,-440,0,0,0,0,0,0,0,0,0,-1,1707,1464,0,0
490,-440,0,0,0,0,0,0,0,0,0,-1,1714,1464,0,0
497,-440,16.965,-0.528442,0,0,0,0,0,0,0,-1,1721,1464,16.965,0.528492
504,-440,15.8052,0.670166,0,0,0,0,0,0,0,-1,1728,1464,15.8052,-0.670145
511,-440,17.5754,2.77832,0,0,0,0,0,0,0,-1,1735,1464,17.5754,-2.77826
518,-440,16.9017,3.07861,0,0,0,0,0,0,0,-1,1742,1464,16.9018,-3.07859
525,-440,18.4495,12.0867,0,0,0,0,0,0,0,-1,1749,1464,18.4495,-12.0867
532,-440,15.4319,3.64392,0,0,0,0,0,0,0,-1,1756,1464,15.4318,-3.64391
539,-440,14.8214,3.41321,0,0,0,0,0,0,0,-1,1763,1464,14.8214,-3.4132
546,-440,14.8651,10.7683,0,0,0,0,0,0,0,-1,1770,1464,14.8651,-10.7683
553,-440,15.1213,11.4121,0,0,0,0,0,0,0,-1,1777,1464,15.1213,-11.4121
560,-440,17.4325,12.5394,0,0,0,0,0,0,0,-1,1784,1464,17.4325,-12.5394
567,-440,16.9025,12.4249,0,0,0,0,0,0,0,-1,1791,1464,16.9025,-12.425
574,-440,19.2841,14.8679,0,0,0,0,0,0,0,-1,1798,1464,19.2841,-14.868
581,-440,26.4432,21.3477,0,0,0,0,0,0,0,-1,1805,1464,26.4432,-21.3476
588,-440,34.3337,27.4265,0,0,0,0,0,0,0,-1,1812,1464,34.3338,-27.4265
595,-440,34.3811,26.5099,0.00457802,0.00187973,-0.00248621,0.00605755,0.0004002,-0.536806,0.0039118,0.034913,1819,1464,34.381,-26.5099
602,-440,34.4647,25.608,0.0035756,0.00137644,-0.00191976,0.00468839,0.000263655,-0.52532,0.00304152,0.0219447,1826,1464,34.4647,-25.608
609,-440,34.4221,24.8313,0.00282854,0.000884362,-0.00139896,0.00355999,0.000152915,-0.481761,0.00232403,0.0187791,1833,1464,34.4221,-24.8313
616,-440,34.3921,24.0924,0.0022468,0.00055969,-0.000985557,0.00270052,0.000105976,-0.431438,0.00176608,0.0193227,1840,1464,34.3921,-24.0924
623,-440,34.3507,23.2778,0.00201729,0.00027193,-0.000643341,0.0022288,6.04246e-05,-0.317629,0.00146614,0.0142958,1847,1464,34.3508,-23.2778
630,-440,34.3037,22.4459,0.00210529,4.8974e-05,-0.000417166,0.0021867,-3.2434e-05,-0.192723,0.00146873,0.0120057,1854,1464,34.3038,-22.4459
637,-440,34.2823,21.7218,0.00239278,3.79162e-05,-0.000311644,0.00243332,-2.62877e-06,-0.129374,0.00162309,0.0166615,1861,1464,34.2823,-21.7218
644,-440,34.2582,20.9517,0.00294604,0.000325371,-0.000439998,0.00301794,0.00025347,-0.16198,0.00193301,0.0166172,1868,1464,34.2581,-20.9517
651,-440,34.2528,20.0828,0.00387539,0.000982744,-0.000895583,0.00413022,0.000727914,-0.277214,0.00254577,0.025055,1875,1464,34.2528,-20.0828
658,-440,34.3104,19.1056,0,0,0,0,0,0,0,-1,1882,1464,34.3104,-19.1055
665,-440,24.2067,12.5813,0,0,0,0,0,0,0,-1,1889,1464,24.2067,-12.5813
672,-440,18.9385,9.6394,0,0,0,0,0,0,0,-1,1896,1464,18.9384,-9.63939
679,-440,16.9508,10.2336,0,0,0,0,0,0,0,-1,1903,1464,16.9508,-10.2337
686,-440,15.2556,8.44177,0,0,0,0,0,0,0,-1,1910,1464,15.2556,-8.44177
693,-440,9.88635,2.89795,0,0,0,0,0,0,0,-1,1917,1464,9.88638,-2.89798
700,-440,7.07825,-2.62061,0,0,0,0,0,0,0,-1,1924,1464,7.07829,2.62057
707,-440,0,0,0,0,0,0,0,0,0,-1,1931,1464,0,0
714,-440,0,0,0,0,0,0,0,0,0,-1,1938,1464,0,0
721,-440,0,0,0,0,0,0,0,0,0,-1,1945,1464,0,0
728,-440,0,0,0,0,0,0,0,0,0,-1,1952,1464,0,0
735,-440,0,0,0,0,0,0,0,0,0,-1,1959,1464,0,0
742,-440,0,0,0,0,0,0,0,0,0,-1,1966,1464,0,0
749,-440,0,0,0,0,0,0,0,0,0,-1,1973,1464,0,0
756,-440,0,0,0,0,0,0,0,0,0,-1,1980,1464,0,0
763,-440,0,0,0,0,0,0,0,0,0,-1,1987,1464,0,0
770,-440,0,0,0,0,0,0,0,0,0,-1,1994,1464,0,0
777,-440,0,0,0,0,0,0,0,0,0,-1,2001,1464,0,0
784,-440,0,0,0,0,0,0,0,0,0,-1,2008,1464,0,0
791,-440,0,0,0,0,0,0,0,0,0,-1,2015,1464,0,0
798,-440,0,0,0,0,0,0,0,0,0,-1,2022,1464,0,0
805,-440,0,0,0,0,0,0,0,0,0,-1,2029,1464,0,0
812,-440,0,0,0,0,0,0,0,0,0,-1,2036,1464,0,0
-700,-447,0,0,0,0,0,0,0,0,0,-1,524,1471,0,0
-693,-447,0,0,0,0,0,0,0,0,0,-1,531,1471,0,0
-686,-447,0,0,0,0,0,0,0,0,0,-1,538,1471,0,0
-679,-447,0,0,0,0,0,0,0,0,0,-1,545,1471,0,0
-672,-447,0,0,0,0,0,0,0,0,0,-1,552,1471,0,0
-665,-447,0,0,0,0,0,0,0,0,0,-1,559,1471,0,0
-658,-447,0,0,0,0,0,0,0,0,0,-1,566,1471,0,0
-651,-447,0,0,0,0,0,0,0,0,0,-1,573,1471,0,0
-644,-447,0,0,0,0,0,0,0,0,0,-1,580,1471,0,0
-637,-447,0,0,0,0,0,0,0,0,0,-1,587,1471,0,0
-630,-447,0,0,0,0,0,0,0,0,0,-1,594,1471,0,0
-623,-447,0,0,0,0,0,0,0,0,0,-1,601,1471,0,0
-616,-447,0,0,0,0,0,0,0,0,0,-1,608,1471,0,0
-609,-447,0,0,0,0,0,0,0,0,0,-1,615,1471,0,0
-602,-447,0,0,0,0,0,0,0,0,0,-1,622,1471,0,0
-595,-447,0,0,0,0,0,0,0,0,0,-1,629,1471,0,0
-588,-447,0,0,0,0,0,0,0,0,0,-1,636,1471,0,0
-581,-447,-7.06482,-1.50476,0,0,0,0,0,0,0,-1,643,1471,-7.0648,1.50474
-574,-447,-6.88092,-0.00585938,0,0,0,0,0,0,0,-1,650,1471,-6.88095,0.00589852
-567,-447,-6.8205,-1.32178,0,0,0,0,0,0,0,-1,657,1471,-6.82047,1.32172
-560,-447,-8.85748,2.80774,0,0,0,0,0,0,0,-1,664,1471,-8.85748,-2.80775
-553,-447,-7.60486,3.26794,0,0,0,0,0,0,0,-1,671,1471,-7.60487,-3.26799
-546,-447,-3.94501,1.8656,0,0,0,0,0,0,0,-1,678,1471,-3.945,-1.86554
-539,-447,-5.35492,4.50024,0,0,0,0,0,0,0,-1,685,1471,-5.35492,-4.50018
-532,-447,-6.12781,8.81091,0,0,0,0,0,0,0,-1,692,1471,-6.12781,-8.81094
-525,-447,-9.44501,12.098,0,0,0,0,0,0,0,-1,699,1471,-9.44502,-12.098
-518,-447,-16.1943,19.3989,0,0,0,0,0,0,0,-1,706,1471,-16.1943,-19.3989
-511,-447,-16.1437,20.4966,0.00468471,0.00480243,0.00542451,0.0101684,-0.00068126,0.790824,0.00701705,0.0302448,713,1471,-16.1437,-20.4965
-504,-447,-16.1423,21.4286,0.00369164,0.00367392,0.00425195,0.00793475,-0.000569181,0.784356,0.0054894,0.0204777,720,1471,-16.1424,-21.4286
-497,-447,-16.2313,22.2417,0.00286037,0.00273303,0.00323395,0.00603128,-0.000437885,0.775555,0.00417448,0.025004,727,1471,-16.2313,-22.2417
-490,-447,-16.2451,22.9636,0.00218066,0.00198257,0.00237216,0.00445584,-0.000292618,0.764533,0.00307275,0.025555,734,1471,-16.2451,-22.9636
-483,-447,-16.3229,23.7961,0.00172514,0.0014403,0.00172312,0.00331171,-0.000146273,0.744167,0.00225815,0.022915,741,1471,-16.3229,-23.7961
-476,-447,-16.3596,24.6127,0.00145008,0.00115315,0.00132445,0.00263436,-3.11356e-05,0.729585,0.00176671,0.0148368,748,1471,-16.3596,-24.6127
-469,-447,-16.4031,25.469,0.00134094,0.00111135,0.00110899,0.00234106,0.000111234,0.733826,0.00152498,0.0150632,755,1471,-16.4031,-25.4689
-462,-447,-16.4544,26.3094,0.00149009,0.00135,0.00117767,0.00259979,0.000240296,0.755694,0.00165891,0.0140382,762,1471,-16.4544,-26.3095
-455,-447,-16.4849,27.1063,0.00188948,0.00189918,0.00154969,0.00344402,0.000344634,0.786962,0.0021902,0.0264121,769,1471,-16.4849,-27.1063
-448,-447,-16.4371,28.1044,0,0,0,0,0,0,0,-1,776,1471,-16.4371,-28.1044
-441,-447,-8.68506,19.0931,0,0,0,0,0,0,0,-1,783,1471,-8.68504,-19.0932
-434,-447,-7.43402,15.6273,0,0,0,0,0,0,0,-1,790,1471,-7.43404,-15.6274
-427,-447,-7.21832,14.691,0,0,0,0,0,0,0,-1,797,1471,-7.21834,-14.6911
-420,-447,-8.0545,12.8055,0,0,0,0,0,0,0,-1,804,1471,-8.05452,-12.8055
-413,-447,-4.27393,6.59705,0,0,0,0,0,0,0,-1,811,1471,-4.27392,-6.59707
-406,-447,-1.04279,6.18591,0,0,0,0,0,0,0,-1,818,1471,-1.04276,-6.18586
-399,-447,0.0134888,0.687622,0,0,0,0,0,0,0,-1,825,1471,0.0134841,-0.68767
-392,-447,-14.0646,3.76147,0,0,0,0,0,0,0,-1,832,1471,-14.0646,-3.7615
-385,-447,-15.1695,2.61865,0,0,0,0,0,0,0,-1,839,1471,-15.1695,-2.61871
-378,-447,-15.9424,1.49316,0,0,0,0,0,0,0,-1,846,1471,-15.9424,-1.49313
-371,-447,-17.3655,0.73291,0,0,0,0,0,0,0,-1,853,1471,-17.3655,-0.732946
-364,-447,0,0,0,0,0,0,0,0,0,-1,860,1471,0,0
-357,-447,0,0,0,0,0,0,0,0,0,-1,867,1471,0,0
-350,-447,0,0,0,0,0,0,0,0,0,-1,874,1471,0,0
-343,-447,0,0,0,0,0,0,0,0,0,-1,881,1471,0,0
-336,-447,0,0,0,0,0,0,0,0,0,-1,888,1471,0,0
-329,-447,0,0,0,0,0,0,0,0,0,-1,895,1471,0,0
-322,-447,0,0,0,0,0,0,0,0,0,-1,902,1471,0,0
-315,-447,0,0,0,0,0,0,0,0,0,-1,909,1471,0,0
-308,-447,0,0,0,0,0,0,0,0,0,-1,916,1471,0,0
-301,-447,0,0,0,0,0,0,0,0,0,-1,923,1471,0,0
-294,-447,0,0,0,0,0,0,0,0,0,-1,930,1471,0,0
-287,-447,0,0,0,0,0,0,0,0,0,-1,937,1471,0,0
-280,-447,0,0,0,0,0,0,0,0,0,-1,944,1471,0,0
-273,-447,0,0,0,0,0,0,0,0,0,-1,951,1471,0,0
-266,-447,0,0,0,0,0,0,0,0,0,-1,958,1471,0,0
-259,-447,0,0,0,0,0,0,0,0,0,-1,965,1471,0,0
-252,-447,0,0,0,0,0,0,0,0,0,-1,972,1471,0,0
-245,-447,0,0,0,0,0,0,0,0,0,-1,979,1471,0,0
-238,-447,0,0,0,0,0,0,0,0,0,-1,986,1471,0,0
-231,-447,0,0,0,0,0,0,0,0,0,-1,993,1471,0,0
-224,-447,0,0,0,0,0,0,0,0,0,-1,1000,1471,0,0
-217,-447,0,0,0,0,0,0,0,0,0,-1,1007,1471,0,0
-210,-447,0,0,0,0,0,0,0,0,0,-1,1014,1471,0,0
-203,-447,0,0,0,0,0,0,0,0,0,-1,1021,1471,0,0
-196,-447,0,0,0,0,0,0,0,0,0,-1,1028,1471,0,0
-189,-447,0,0,0,0,0,0,0,0,0,-1,1035,1471,0,0
-182,-447,0,0,0,0,0,0,0,0,0,-1,1042,1471,0,0
-175,-447,0,0,0,0,0,0,0,0,0,-1,1049,1471,0,0
-168,-447,0,0,0,0,0,0,0,0,0,-1,1056,1471,0,0
-161,-447,0,0,0,0,0,0,0,0,0,-1,1063,1471,0,0
-154,-447,0,0,0,0,0,0,0,0,0,-1,1070,1471,0,0
-147,-447,0,0,0,0,0,0,0,0,0,-1,1077,1471,0,0
-140,-447,0,0,0,0,0,0,0,0,0,-1,1084,1471,0,0
-133,-447,0,0,0,0,0,0,0,0,0,-1,1091,1471,0,0
-126,-447,0,0,0,0,0,0,0,0,0,-1,1098,1471,0,0
-119,-447,0,0,0,0,0,0,0,0,0,-1,1105,1471,0,0
-112,-447,0,0,0,0,0,0,0,0,0,-1,1112,1471,0,0
-105,-447,0,0,0,0,0,0,0,0,0,-1,1119,1471,0,0
-98,-447,0,0,0,0,0,0,0,0,0,-1,1126,1471,0,0
-91,-447,0,0,0,0,0,0,0,0,0,-1,1133,1471,0,0
-84,-447,0,0,0,0,0,0,0,0,0,-1,1140,1471,0,0
-77,-447,0,0,0,0,0,0,0,0,0,-1,1147,1471,0,0
-70,-447,0,0,0,0,0,0,0,0,0,-1,1154,1471,0,0
-63,-447,0,0,0,0,0,0,0,0,0,-1,1161,1471,0,0
-56,-447,0,0,0,0,0,0,0,0,0,-1,1168,1471,0,0
-49,-447,0,0,0,0,0,0,0,0,0,-1,1175,1471,0,0
-42,-447,0,0,0,0,0,0,0,0,0,-1,1182,1471,0,0
-35,-447,0,0,0,0,0,0,0,0,0,-1,1189,1471,0,0
-28,-447,0,0,0,0,0,0,0,0,0,-1,1196,1471,0,0
-21,-447,0,0,0,0,0,0,0,0,0,-1,1203,1471,0,0
-14,-447,0,0,0,0,0,0,0,0,0,-1,1210,1471,0,0
-7,-447,0,0,0,0,0,0,0,0,0,-1,1217,1471,0,0
0,-447,0,0,0,0,0,0,0,0,0,-1,1224,1471,0,0
7,-447,0,0,0,0,0,0,0,0,0,-1,1231,1471,0,0
14,-447,0,0,0,0,0,0,0,0,0,-1,1238,1471,0,0
21,-447,0,0,0,0,0,0,0,0,0,-1,1245,1471,0,0
28,-447,0,0,0,0,0,0,0,0,0,-1,1252,1471,0,0
35,-447,0,0,0,0,0,0,0,0,0,-1,1259,1471,0,0
42,-447,0,0,0,0,0,0,0,0,0,-1,1266,1471,0,0
49,-447,0,0,0,0,0,0,0,0,0,-1,1273,1471,0,0
56,-447,0,0,0,0,0,0,0,0,0,-1,1280,1471,0,0
63,-447,0,0,0,0,0,0,0,0,0,-1,1287,1471,0,0
70,-447,0,0,0,0,0,0,0,0,0,-1,1294,1471,0,0
77,-447,0,0,0,0,0,0,0,0,0,-1,1301,1471,0,0
84,-447,0,0,0,0,0,0,0,0,0,-1,1308,1471,0,0
91,-447,0,0,0,0,0,0,0,0,0,-1,1315,1471,0,0
98,-447,0,0,0,0,0,0,0,0,0,-1,1322,1471,0,0
105,-447,0,0,0,0,0,0,0,0,0,-1,1329,1471,0,0
112,-447,0,0,0,0,0,0,0,0,0,-1,1336,1471,0,0
119,-447,0,0,0,0,0,0,0,0,0,-1,1343,1471,0,0
126,-447,0,0,0,0,0,0,0,0,0,-1,1350,1471,0,0
133,-447,0,0,0,0,0,0,0,0,0,-1,1357,1471,0,0
140,-447,0,0,0,0,0,0,0,0,0,-1,1364,1471,0,0
147,-447,0,0,0,0,0,0,0,0,0,-1,1371,1471,0,0
154,-447,0,0,0,0,0,0,0,0,0,-1,1378,1471,0,0
161,-447,0,0,0,0,0,0,0,0,0,-1,1385,1471,0,0
168,-447,0,0,0,0,0,0,0,0,0,-1,1392,1471,0,0
175,-447,0,0,0,0,0,0,0,0,0,-1,1399,1471,0,0
182,-447,0,0,0,0,0,0,0,0,0,-1,1406,1471,0,0
189,-447,0,0,0,0,0,0,0,0,0,-1,1413,1471,0,0
196,-447,0,0,0,0,0,0,0,0,0,-1,1420,1471,0,0
203,-447,0,0,0,0,0,0,0,0,0,-1,1427,1471,0,0
210,-447,0,0,0,0,0,0,0,0,0,-1,1434,1471,0,0
217,-447,0,0,0,0,0,0,0,0,0,-1,1441,1471,0,0
224,-447,0,0,0,0,0,0,0,0,0,-1,1448,1471,0,0
231,-447,0,0,0,0,0,0,0,0,0,-1,1455,1471,0,0
238,-447,0,0,0,0,0,0,0,0,0,-1,1462,1471,0,0
245,-447,0,0,0,0,0,0,0,0,0,-1,1469,1471,0,0
252,-447,0,0,0,0,0,0,0,0,0,-1,1476,1471,0,0
259,-447,0,0,0,0,0,0,0,0,0,-1,1483,1471,0,0
266,-447,0,0,0,0,0,0,0,0,0,-1,1490,1471,0,0
273,-447,0,0,0,0,0,0,0,0,0,-1,1497,1471,0,0
280,-447,0,0,0,0,0,0,0,0,0,-1,1504,1471,0,0
287,-447,0,0,0,0,0,0,0,0,0,-1,1511,1471,0,0
294,-447,0,0,0,0,0,0,0,0,0,-1,1518,1471,0,0
301,-447,0,0,0,0,0,0,0,0,0,-1,1525,1471,0,0
308,-447,0,0,0,0,0,0,0,0,0,-1,1532,1471,0,0
315,-447,0,0,0,0,0,0,0,0,0,-1,1539,1471,0,0
322,-447,0,0,0,0,0,0,0,0,0,-1,1546,1471,0,0
329,-447,0,0,0,0,0,0,0,0,0,-1,1553,1471,0,0
336,-447,0,0,0,0,0,0,0,0,0,-1,1560,1471,0,0
343,-447,0,0,0,0,0,0,0,0,0,-1,1567,1471,0,0
350,-447,0,0,0,0,0,0,0,0,0,-1,1574,1471,0,0
357,-447,0,0,0,0,0,0,0,0,0,-1,1581,1471,0,0
364,-447,0,0,0,0,0,0,0,0,0,-1,1588,1471,0,0
371,-447,0,0,0,0,0,0,0,0,0,-1,1595,1471,0,0
378,-447,0,0,0,0,0,0,0,0,0,-1,1602,1471,0,0
385,-447,0,0,0,0,0,0,0,0,0,-1,1609,1471,0,0
392,-447,0,0,0,0,0,0,0,0,0,-1,1616,1471,0,0
399,-447,0,0,0,0,0,0,0,0,0,-1,1623,1471,0,0
406,-447,0,0,0,0,0,0,0,0,0,-1,1630,1471,0,0
413,-447,0,0,0,0,0,0,0,0,0,-1,1637,1471,0,0
420,-447,0,0,0,0,0,0,0,0,0,-1,1644,1471,0,0
427,-447,0,0,0,0,0,0,0,0,0,-1,1651,1471,0,0
434,-447,0,0,0,0,0,0,0,0,0,-1,1658,1471,0,0
441,-447,0,0,0,0,0,0,0,0,0,-1,1665,1471,0,0
448,-447,0,0,0,0,0,0,0,0,0,-1,1672,1471,0,0
455,-447,0,0,0,0,0,0,0,0,0,-1,1679,1471,0,0
462,-447,0,0,0,0,0,0,0,0,0,-1,1686,1471,0,0
469,-447,0,0,0,0,0,0,0,0,0,-1,1693,1471,0,0
476,-447,0,0,0,0,0,0,0,0,0,-1,1700,1471,0,0
483,-447,0,0,0,0,0,0,0,0,0,-1,1707,1471,0,0
490,-447,18.2214,-0.810303,0,0,0,0,0,0,0,-1,1714,1471,18.2215,0.810307
497,-447,17.0237,0.352417,0,0,0,0,0,0,0,-1,1721,1471,17.0237,-0.352442
504,-447,15.8998,1.53479,0,0,0,0,0,0,0,-1,1728,1471,15.8997,-1.53478
511,-447,14.7201,2.76111,0,0,0,0,0,0,0,-1,1735,1471,14.7201,-2.76107
518,-447,17.7618,13.2864,0,0,0,0,0,0,0,-1,1742,1471,17.7619,-13.2863
525,-447,17.1191,11.9014,0,0,0,0,0,0,0,-1,1749,1471,17.1191,-11.9013
532,-447,16.3959,10.0455,0,0,0,0,0,0,0,-1,1756,1471,16.3959,-10.0456
539,-447,14.1699,10.0204,0,0,0,0,0,0,0,-1,1763,1471,14.1699,-10.0204
546,-447,16.3715,11.8046,0,0,0,0,0,0,0,-1,1770,1471,16.3714,-11.8046
553,-447,17.5106,13.4012,0,0,0,0,0,0,0,-1,1777,1471,17.5107,-13.4012
560,-447,17.0187,13.168,0,0,0,0,0,0,0,-1,1784,1471,17.0187,-13.168
567,-447,18.9286,15.1703,0,0,0,0,0,0,0,-1,1791,1471,18.9286,-15.1703
574,-447,32.1848,27.6504,0,0,0,0,0,0,0,-1,1798,1471,32.1848,-27.6503
581,-447,33.5247,28.1467,0,0,0,0,0,0,0,-1,1805,1471,33.5246,-28.1468
588,-447,33.7003,27.2957,0.00571618,0.00168642,-0.00230733,0.00676456,0.000638051,-0.426479,0.00431278,0.0391188,1812,1471,33.7003,-27.2956
595,-447,33.6973,26.46,0.00432314,0.00142028,-0.00199038,0.00533509,0.000408326,-0.470363,0.00342873,0.0142691,1819,1471,33.6972,-26.46
602,-447,33.6525,25.6353,0.00336601,0.00097484,-0.00151333,0.00409905,0.000241803,-0.45108,0.00265577,0.0128159,1826,1471,33.6525,-25.6352
609,-447,33.6091,24.8534,0.00267611,0.000572711,-0.00104058,0.00310389,0.000144922,-0.390043,0.00202269,0.0142397,1833,1471,33.6091,-24.8534
616,-447,33.5939,24.1008,0.00217008,0.000333702,-0.000662336,0.00238404,0.000119744,-0.312455,0.00155099,0.015238,1840,1471,33.5939,-24.1008
623,-447,33.5854,23.3376,0.00199022,6.54196e-05,-0.000307106,0.00203803,1.76077e-05,-0.154445,0.00135286,0.0169574,1847,1471,33.5855,-23.3377
630,-447,33.5216,22.5228,0.00209678,-0.000146304,-2.5774e-05,0.00209708,-0.0001466,-0.0114884,0.00144939,0.0103788,1854,1471,33.5216,-22.5228
637,-447,33.5076,21.7386,0.00238557,-0.000145762,0.000150425,0.00239448,-0.000154669,0.059148,0.00165029,0.0110055,1861,1471,33.5076,-21.7386
644,-447,33.4922,20.9603,0.00292108,0.000172221,0.000100077,0.00292472,0.000168583,0.0363425,0.00189612,0.0129286,1868,1471,33.4922,-20.9603
651,-447,33.5043,20.0638,0,0,0,0,0,0,0,-1,1875,1471,33.5042,-20.0639
658,-447,30.2566,16.5862,0,0,0,0,0,0,0,-1,1882,1471,30.2566,-16.5862
665,-447,18.4946,9.79919,0,0,0,0,0,0,0,-1,1889,1471,18.4946,-9.79922
672,-447,18.9784,9.66077,0,0,0,0,0,0,0,-1,1896,1471,18.9784,-9.66081
679,-447,14.844,7.4248,0,0,0,0,0,0,0,-1,1903,1471,14.844,-7.42477
686,-447,9.81079,4.30859,0,0,0,0,0,0,0,-1,1910,1471,9.8108,-4.30864
693,-447,10.48,2.08643,0,0,0,0,0,0,0,-1,1917,1471,10.48,-2.08642
700,-447,0,0,0,0,0,0,0,0,0,-1,1924,1471,0,0
707,-447,0,0,0,0,0,0,0,0,0,-1,1931,1471,0,0
714,-447,0,0,0,0,0,0,0,0,0,-1,1938,1471,0,0
721,-447,0,0,0,0,0,0,0,0,0,-1,1945,1471,0,0
728,-447,0,0,0,0,0,0,0,0,0,-1,1952,1471,0,0
735,-447,0,0,0,0,0,0,0,0,0,-1,1959,1471,0,0
742,-447,0,0,0,0,0,0,0,0,0,-1,1966,1471,0,0
749,-447,0,0,0,0,0,0,0,0,0,-1,1973,1471,0,0
756,-447,0,0,0,0,0,0,0,0,0,-1,1980,1471,0,0
763,-447,0,0,0,0,0,0,0,0,0,-1,1987,1471,0,0
770,-447,0,0,0,0,0,0,0,0,0,-1,1994,1471,0,0
777,-447,0,0,0,0,0,0,0,0,0,-1,2001,1471,0,0
784,-447,0,0,0,0,0,0,0,0,0,-1,2008,1471,0,0
791,-447,0,0,0,0,0,0,0,0,0,-1,2015,1471,0,0
798,-447,0,0,0,0,0,0,0,0,0,-1,2022,1471,0,0
805,-447,0,0,0,0,0,0,0,0,0,-1,2029,1471,0,0
812,-447,0,0,0,0,0,0,0,0,0,-1,2036,1471,0,0
-700,-454,0,0,0,0,0,0,0,0,0,-1,524,1478,0,0
-693,-454,0,0,0,0,0,0,0,0,0,-1,531,1478,0,0
-686,-454,0,0,0,0,0,0,0,0,0,-1,538,1478,0,0
-679,-454,0,0,0,0,0,0,0,0,0,-1,545,1478,0,0
-672,-454,0,0,0,0,0,0,0,0,0,-1,552,1478,0,0
-665,-454,0,0,0,0,0,0,0,0,0,-1,559,1478,0,0
-658,-454,0,0,0,0,0,0,0,0,0,-1,566,1478,0,0
-651,-454,0,0,0,0,0,0,0,0,0,-1,573,1478,0,0
-644,-454,0,0,0,0,0,0,0,0,0,-1,580,1478,0,0
-637,-454,0,0,0,0,0,0,0,0,0,-1,587,1478,0,0
-630,-454,0,0,0,0,0,0,0,0,0,-1,594,1478,0,0
-623,-454,0,0,0,0,0,0,0,0,0,-1,601,1478,0,0
-616,-454,0,0,0,0,0,0,0,0,0,-1,608,1478,0,0
-609,-454,0,0,0,0,0,0,0,0,0,-1,615,1478,0,0
-602,-454,0,0,0,0,0,0,0,0,0,-1,622,1478,0,0
-595,-454,0,0,0,0,0,0,0,0,0,-1,629,1478,0,0
-588,-454,0,0,0,0,0,0,0,0,0,-1,636,1478,0,0
-581,-454,0,0,0,0,0,0,0,0,0,-1,643,1478,0,0
-574,-454,-8.4881,-0.465942,0,0,0,0,0,0,0,-1,650,1478,-8.4881,0.465885
-567,-454,-8.10046,0.922974,0,0,0,0,0,0,0,-1,657,1478,-8.10047,-0.923034
-560,-454,-10.656,3.51172,0,0,0,0,0,0,0,-1,664,1478,-10.656,-3.51176
-553,-454,-9.01129,3.95251,0,0,0,0,0,0,0,-1,671,1478,-9.0113,-3.95256
-546,-454,-9.61896,6.05237,0,0,0,0,0,0,0,-1,678,1478,-9.61897,-6.05239
-539,-454,-7.72589,4.96533,0,0,0,0,0,0,0,-1,685,1478,-7.72592,-4.96532
-532,-454,-7.03931,7.59985,0,0,0,0,0,0,0,-1,692,1478,-7.03929,-7.59981
-525,-454,-5.78723,9.677,0,0,0,0,0,0,0,-1,699,1478,-5.78722,-9.67703
-518,-454,-9.82098,13.8295,0,0,0,0,0,0,0,-1,706,1478,-9.82098,-13.8295
-511,-454,-15.4457,20.5164,0,0,0,0,0,0,0,-1,713,1478,-15.4457,-20.5164
-504,-454,-15.3714,21.384,0.00445332,0.00449736,0.00533952,0.0098149,-0.000864226,0.78746,0.00684954,0.021991,720,1478,-15.3714,-21.384
-497,-454,-15.4259,22.3335,0.00344688,0.00332791,0.00407735,0.00746517,-0.000690388,0.778104,0.00522214,0.019819,727,1478,-15.4259,-22.3335
-490,-454,-15.4441,23.1136,0.00263043,0.00241795,0.00302329,0.00554934,-0.000500968,0.767835,0.00387736,0.0193025,734,1478,-15.4441,-23.1137
-483,-454,-15.497,23.8901,0.00200915,0.00172143,0.00218785,0.00405787,-0.000327284,0.752569,0.00282068,0.0175662,741,1478,-15.497,-23.8902
-476,-454,-15.5756,24.6698,0.00158871,0.00133355,0.00164442,0.00311049,-0.000188231,0.746684,0.00213917,0.0148327,748,1478,-15.5756,-24.6699
-469,-454,-15.6036,25.5271,0.00135862,0.00122773,0.00131956,0.00261436,-2.80081e-05,0.760621,0.00175232,0.0115855,755,1478,-15.6036,-25.5271
-462,-454,-15.6407,26.3566,0.00140002,0.00140888,0.00129238,0.00269684,0.000112066,0.787112,0.00176173,0.011507,762,1478,-15.6408,-26.3566
-455,-454,-15.6956,27.1569,0.00172885,0.00190977,0.00159485,0.00341673,0.0002219,0.813728,0.00220757,0.0116555,769,1478,-15.6956,-27.1569
-448,-454,-15.7083,27.9933,0.00257371,0.0030072,0.0025602,0.00535981,0.000221102,0.827628,0.00350184,0.0275659,776,1478,-15.7083,-27.9933
-441,-454,-15.5577,28.9713,0,0,0,0,0,0,0,-1,783,1478,-15.5577,-28.9713
-434,-454,-7.55743,19.4857,0,0,0,0,0,0,0,-1,790,1478,-7.55746,-19.4858
-427,-454,-6.00183,15.8636,0,0,0,0,0,0,0,-1,797,1478,-6.00184,-15.8637
-420,-454,-6.28088,15.2135,0,0,0,0,0,0,0,-1,804,1478,-6.28087,-15.2135
-413,-454,-5.4408,13.674,0,0,0,0,0,0,0,-1,811,1478,-5.44079,-13.6739
-406,-454,-2.38208,10.0308,0,0,0,0,0,0,0,-1,818,1478,-2.38209,-10.0308
-399,-454,-1.21033,6.95447,0,0,0,0,0,0,0,-1,825,1478,-1.21035,-6.95452
-392,-454,0.0967407,0.985474,0,0,0,0,0,0,0,-1,832,1478,0.0967364,-0.985529
-385,-454,2.38629,3.297,0,0,0,0,0,0,0,-1,839,1478,2.38629,-3.29702
-378,-454,-15.9756,2.83997,0,0,0,0,0,0,0,-1,846,1478,-15.9756,-2.83994
-371,-454,-17.2753,2.01453,0,0,0,0,0,0,0,-1,853,1478,-17.2753,-2.01455
-364,-454,1.08124,0.819458,0,0,0,0,0,0,0,-1,860,1478,1.08124,-0.819513
-357,-454,0,0,0,0,0,0,0,0,0,-1,867,1478,0,0
-350,-454,0,0,0,0,0,0,0,0,0,-1,874,1478,0,0
-343,-454,0,0,0,0,0,0,0,0,0,-1,881,1478,0,0
-336,-454,0,0,0,0,0,0,0,0,0,-1,888,1478,0,0
-329,-454,0,0,0,0,0,0,0,0,0,-1,895,1478,0,0
-322,-454,0,0,0,0,0,0,0,0,0,-1,902,1478,0,0
-315,-454,0,0,0,0,0,0,0,0,0,-1,909,1478,0,0
-308,-454,0,0,0,0,0,0,0,0,0,-1,916,1478,0,0
-301,-454,0,0,0,0,0,0,0,0,0,-1,923,1478,0,0
-294,-454,0,0,0,0,0,0,0,0,0,-1,930,1478,0,0
-287,-454,0,0,0,0,0,0,0,0,0,-1,937,1478,0,0
-280,-454,0,0,0,0,0,0,0,0,0,-1,944,1478,0,0
-273,-454,0,0,0,0,0,0,0,0,0,-1,951,1478,0,0
-266,-454,0,0,0,0,0,0,0,0,0,-1,958,1478,0,0
-259,-454,0,0,0,0,0,0,0,0,0,-1,965,1478,0,0
-252,-454,0,0,0,0,0,0,0,0,0,-1,972,1478,0,0
-245,-454,0,0,0,0,0,0,0,0,0,-1,979,1478,0,0
-238,-454,0,0,0,0,0,0,0,0,0,-1,986,1478,0,0
-231,-454,0,0,0,0,0,0,0,0,0,-1,993,1478,0,0
-224,-454,0,0,0,0,0,0,0,0,0,-1,1000,1478,0,0
-217,-454,0,0,0,0,0,0,0,0,0,-1,1007,1478,0,0
-210,-454,0,0,0,0,0,0,0,0,0,-1,1014,1478,0,0
-203,-454,0,0,0,0,0,0,0,0,0,-1,1021,1478,0,0
-196,-454,0,0,0,0,0,0,0,0,0,-1,1028,1478,0,0
-189,-454,0,0,0,0,0,0,0,0,0,-1,1035,1478,0,0
-182,-454,0,0,0,0,0,0,0,0,0,-1,1042,1478,0,0
-175,-454,0,0,0,0,0,0,0,0,0,-1,1049,1478,0,0
-168,-454,0,0,0,0,0,0,0,0,0,-1,1056,1478,0,0
-161,-454,0,0,0,0,0,0,0,0,0,-1,1063,1478,0,0
-154,-454,0,0,0,0,0,0,0,0,0,-1,1070,1478,0,0
-147,-454,0,0,0,0,0,0,0,0,0,-1,1077,1478,0,0
-140,-454,0,0,0,0,0,0,0,0,0,-1,1084,1478,0,0
-133,-454,0,0,0,0,0,0,0,0,0,-1,1091,1478,0,0
-126,-454,0,0,0,0,0,0,0,0,0,-1,1098,1478,0,0
-119,-454,0,0,0,0,0,0,0,0,0,-1,1105,1478,0,0
-112,-454,0,0,0,0,0,0,0,0,0,-1,1112,1478,0,0
-105,-454,0,0,0,0,0,0,0,0,0,-1,1119,1478,0,0
-98,-454,0,0,0,0,0,0,0,0,0,-1,1126,1478,0,0
-91,-454,0,0,0,0,0,0,0,0,0,-1,1133,1478,0,0
-84,-454,0,0,0,0,0,0,0,0,0,-1,1140,1478,0,0
-77,-454,0,0,0,0,0,0,0,0,0,-1,1147,1478,0,0
-70,-454,0,0,0,0,0,0,0,0,0,-1,1154,1478,0,0
-63,-454,0,0,0,0,0,0,0,0,0,-1,1161,1478,0,0
-56,-454,0,0,0,0,0,0,0,0,0,-1,1168,1478,0,0
-49,-454,0,0,0,0,0,0,0,0,0,-1,1175,1478,0,0
-42,-454,0,0,0,0,0,0,0,0,0,-1,1182,1478,0,0
-35,-454,0,0,0,0,0,0,0,0,0,-1,1189,1478,0,0
-28,-454,0,0,0,0,0,0,0,0,0,-1,1196,1478,0,0
-21,-454,0,0,0,0,0,0,0,0,0,-1,1203,1478,0,0
-14,-454,0,0,0,0,0,0,0,0,0,-1,1210,1478,0,0
-7,-454,0,0,0,0,0,0,0,0,0,-1,1217,1478,0,0
0,-454,0,0,0,0,0,0,0,0,0,-1,1224,1478,0,0
7,-454,0,0,0,0,0,0,0,0,0,-1,1231,1478,0,0
14,-454,0,0,0,0,0,0,0,0,0,-1,1238,1478,0,0
21,-454,0,0,0,0,0,0,0,0,0,-1,1245,1478,0,0
28,-454,0,0,0,0,0,0,0,0,0,-1,1252,1478,0,0
35,-454,0,0,0,0,0,0,0,0,0,-1,1259,1478,0,0
42,-454,0,0,0,0,0,0,0,0,0,-1,1266,1478,0,0
49,-454,0,0,0,0,0,0,0,0,0,-1,1273,1478,0,0
56,-454,0,0,0,0,0,0,0,0,0,-1,1280,1478,0,0
63,-454,0,0,0,0,0,0,0,0,0,-1,1287,1478,0,0
70,-454,0,0,0,0,0,0,0,0,0,-1,1294,1478,0,0
77,-454,0,0,0,0,0,0,0,0,0,-1,1301,1478,0,0
84,-454,0,0,0,0,0,0,0,0,0,-1,1308,1478,0,0
91,-454,0,0,0,0,0,0,0,0,0,-1,1315,1478,0,0
98,-454,0,0,0,0,0,0,0,0,0,-1,1322,1478,0,0
105,-454,0,0,0,0,0,0,0,0,0,-1,1329,1478,0,0
112,-454,0,0,0,0,0,0,0,0,0,-1,1336,1478,0,0
119,-454,0,0,0,0,0,0,0,0,0,-1,1343,1478,0,0
126,-454,0,0,0,0,0,0,0,0,0,-1,1350,1478,0,0
133,-454,0,0,0,0,0,0,0,0,0,-1,1357,1478,0,0
140,-454,0,0,0,0,0,0,0,0,0,-1,1364,1478,0,0
147,-454,0,0,0,0,0,0,0,0,0,-1,1371,1478,0,0
154,-454,0,0,0,0,0,0,0,0,0,-1,1378,1478,0,0
161,-454,0,0,0,0,0,0,0,0,0,-1,1385,1478,0,0
168,-454,0,0,0,0,0,0,0,0,0,-1,1392,1478,0,0
175,-454,0,0,0,0,0,0,0,0,0,-1,1399,1478,0,0
182,-454,0,0,0,0,0,0,0,0,0,-1,1406,1478,0,0
189,-454,0,0,0,0,0,0,0,0,0,-1,1413,1478,0,0
196,-454,0,0,0,0,0,0,0,0,0,-1,1420,1478,0,0
203,-454,0,0,0,0,0,0,0,0,0,-1,1427,1478,0,0
210,-454,0,0,0,0,0,0,0,0,0,-1,1434,1478,0,0
217,-454,0,0,0,0,0,0,0,0,0,-1,1441,1478,0,0
224,-454,0,0,0,0,0,0,0,0,0,-1,1448,1478,0,0
231,-454,0,0,0,0,0,0,0,0,0,-1,1455,1478,0,0
238,-454,0,0,0,0,0,0,0,0,0,-1,1462,1478,0,0
245,-454,0,0,0,0,0,0,0,0,0,-1,1469,1478,0,0
252,-454,0,0,0,0,0,0,0,0,0,-1,1476,1478,0,0
259,-454,0,0,0,0,0,0,0,0,0,-1,1483,1478,0,0
266,-454,0,0,0,0,0,0,0,0,0,-1,1490,1478,0,0
273,-454,0,0,0,0,0,0,0,0,0,-1,1497,1478,0,0
280,-454,0,0,0,0,0,0,0,0,0,-1,1504,1478,0,0
287,-454,0,0,0,0,0,0,0,0,0,-1,1511,1478,0,0
294,-454,0,0,0,0,0,0,0,0,0,-1,1518,1478,0,0
301,-454,0,0,0,0,0,0,0,0,0,-1,1525,1478,0,0
308,-454,0,0,0,0,0,0,0,0,0,-1,1532,1478,0,0
315,-454,0,0,0,0,0,0,0,0,0,-1,1539,1478,0,0
322,-454,0,0,0,0,0,0,0,0,0,-1,1546,1478,0,0
329,-454,0,0,0,0,0,0,0,0,0,-1,1553,1478,0,0
336,-454,0,0,0,0,0,0,0,0,0,-1,1560,1478,0,0
343,-454,0,0,0,0,0,0,0,0,0,-1,1567,1478,0,0
350,-454,0,0,0,0,0,0,0,0,0,-1,1574,1478,0,0
357,-454,0,0,0,0,0,0,0,0,0,-1,1581,1478,0,0
364,-454,0,0,0,0,0,0,0,0,0,-1,1588,1478,0,0
371,-454,0,0,0,0,0,0,0,0,0,-1,1595,1478,0,0
378,-454,0,0,0,0,0,0,0,0,0,-1,1602,1478,0,0
385,-454,0,0,0,0,0,0,0,0,0,-1,1609,1478,0,0
392,-454,0,0,0,0,0,0,0,0,0,-1,1616,1478,0,0
399,-454,0,0,0,0,0,0,0,0,0,-1,1623,1478,0,0
406,-454,0,0,0,0,0,0,0,0,0,-1,1630,1478,0,0
413,-454,0,0,0,0,0,0,0,0,0,-1,1637,1478,0,0
420,-454,0,0,0,0,0,0,0,0,0,-1,1644,1478,0,0
427,-454,0,0,0,0,0,0,0,0,0,-1,1651,1478,0,0
434,-454,0,0,0,0,0,0,0,0,0,-1,1658,1478,0,0
441,-454,0,0,0,0,0,0,0,0,0,-1,1665,1478,0,0
448,-454,0,0,0,0,0,0,0,0,0,-1,1672,1478,0,0
455,-454,0,0,0,0,0,0,0,0,0,-1,1679,1478,0,0
462,-454,0,0,0,0,0,0,0,0,0,-1,1686,1478,0,0
469,-454,0,0,0,0,0,0,0,0,0,-1,1693,1478,0,0
476,-454,0,0,0,0,0,0,0,0,0,-1,1700,1478,0,0
483,-454,14.2399,3.97498,0,0,0,0,0,0,0,-1,1707,1478,14.2399,-3.97502
490,-454,18.1821,-0.175781,0,0,0,0,0,0,0,-1,1714,1478,18.1821,0.175822
497,-454,16.8854,1.01208,0,0,0,0,0,0,0,-1,1721,1478,16.8854,-1.01209
504,-454,15.587,2.05994,0,0,0,0,0,0,0,-1,1728,1478,15.5871,-2.05998
511,-454,17.0273,14.5258,0,0,0,0,0,0,0,-1,1735,1478,17.0273,-14.5258
518,-454,16.4158,13.1039,0,0,0,0,0,0,0,-1,1742,1478,16.4157,-13.1038
525,-454,15.7842,11.6628,0,0,0,0,0,0,0,-1,1749,1478,15.7841,-11.6629
532,-454,15.1094,10.2476,0,0,0,0,0,0,0,-1,1756,1478,15.1094,-10.2475
539,-454,13.7905,10.9373,0,0,0,0,0,0,0,-1,1763,1478,13.7906,-10.9372
546,-454,16.2002,13.2458,0,0,0,0,0,0,0,-1,1770,1478,16.2002,-13.2459
553,-454,15.6747,12.1868,0,0,0,0,0,0,0,-1,1777,1478,15.6747,-12.1868
560,-454,16.3895,14.0527,0,0,0,0,0,0,0,-1,1784,1478,16.3895,-14.0528
567,-454,33.1184,29.5997,0,0,0,0,0,0,0,-1,1791,1478,33.1184,-29.5997
574,-454,32.8461,29.1173,0,0,0,0,0,0,0,-1,1798,1478,32.8461,-29.1173
581,-454,32.9773,28.0906,0.00666001,0.00151713,-0.00209035,0.00740245,0.000774678,-0.341281,0.00469808,0.0335781,1805,1478,32.9772,-28.0905
588,-454,33.0065,27.245,0.00512446,0.00132287,-0.0018317,0.00586338,0.000583939,-0.383444,0.00372954,0.0148191,1812,1478,33.0064,-27.245
595,-454,32.9043,26.4847,0.00392364,0.00103364,-0.00151986,0.00457577,0.000381497,-0.40532,0.00293164,0.0128529,1819,1478,32.9043,-26.4847
602,-454,32.8612,25.689,0.00305146,0.00063632,-0.00111632,0.0034884,0.000199384,-0.373076,0.00226207,0.00964453,1826,1478,32.8612,-25.6889
609,-454,32.8569,24.9182,0.00244142,0.000300681,-0.000685794,0.00264227,9.98288e-05,-0.284907,0.0017292,0.0115714,1833,1478,32.8569,-24.9182
616,-454,32.8418,24.1616,0.00201647,9.97153e-05,-0.000310604,0.00206554,5.06393e-05,-0.156706,0.00136046,0.0149928,1840,1478,32.8418,-24.1616
623,-454,32.8331,23.4027,0.00188725,-0.000174817,9.0023e-05,0.00189117,-0.00017874,0.0435463,0.00132439,0.015894,1847,1478,32.8331,-23.4027
630,-454,32.7838,22.6099,0.0020037,-0.000396395,0.000475781,0.00209458,-0.00048727,0.188729,0.00158399,0.0158532,1854,1478,32.7838,-22.6098
637,-454,32.7003,21.8259,0.00229311,-0.000406897,0.000779835,0.00250216,-0.000615948,0.261914,0.00190687,0.0136916,1861,1478,32.7003,-21.8259
644,-454,32.7765,20.9879,0.00280488,-8.42545e-05,0.000886403,0.00305515,-0.000334528,0.275184,0.00215694,0.0299238,1868,1478,32.7765,-20.9879
651,-454,32.9039,20.0769,0,0,0,0,0,0,0,-1,1875,1478,32.904,-20.0769
658,-454,17.2583,10.0765,0,0,0,0,0,0,0,-1,1882,1478,17.2583,-10.0765
665,-454,17.683,9.67566,0,0,0,0,0,0,0,-1,1889,1478,17.683,-9.67572
672,-454,16.5476,6.41931,0,0,0,0,0,0,0,-1,1896,1478,16.5476,-6.41929
679,-454,14.2161,5.45007,0,0,0,0,0,0,0,-1,1903,1478,14.2161,-5.45013
686,-454,10.3767,2.12842,0,0,0,0,0,0,0,-1,1910,1478,10.3767,-2.12839
693,-454,11.1857,1.48486,0,0,0,0,0,0,0,-1,1917,1478,11.1857,-1.48487
700,-454,0,0,0,0,0,0,0,0,0,-1,1924,1478,0,0
707,-454,0,0,0,0,0,0,0,0,0,-1,1931,1478,0,0
714,-454,0,0,0,0,0,0,0,0,0,-1,1938,1478,0,0
721,-454,0,0,0,0,0,0,0,0,0,-1,1945,1478,0,0
728,-454,0,0,0,0,0,0,0,0,0,-1,1952,1478,0,0
735,-454,0,0,0,0,0,0,0,0,0,-1,1959,1478,0,0
742,-454,0,0,0,0,0,0,0,0,0,-1,1966,1478,0,0
749,-454,0,0,0,0,0,0,0,0,0,-1,1973,1478,0,0
756,-454,0,0,0,0,0,0,0,0,0,-1,1980,1478,0,0
763,-454,0,0,0,0,0,0,0,0,0,-1,1987,1478,0,0
770,-454,0,0,0,0,0,0,0,0,0,-1,1994,1478,0,0
777,-454,0,0,0,0,0,0,0,0,0,-1,2001,1478,0,0
784,-454,0,0,0,0,0,0,0,0,0,-1,2008,1478,0,0
791,-454,0,0,0,0,0,0,0,0,0,-1,2015,1478,0,0
798,-454,0,0,0,0,0,0,0,0,0,-1,2022,1478,0,0
805,-454,0,0,0,0,0,0,0,0,0,-1,2029,1478,0,0
812,-454,0,0,0,0,0,0,0,0,0,-1,2036,1478,0,0
-700,-461,0,0,0,0,0,0,0,0,0,-1,524,1485,0,0
-693,-461,0,0,0,0,0,0,0,0,0,-1,531,1485,0,0
-686,-461,0,0,0,0,0,0,0,0,0,-1,538,1485,0,0
-679,-461,0,0,0,0,0,0,0,0,0,-1,545,1485,0,0
-672,-461,0,0,0,0,0,0,0,0,0,-1,552,1485,0,0
-665,-461,0,0,0,0,0,0,0,0,0,-1,559,1485,0,0
-658,-461,0,0,0,0,0,0,0,0,0,-1,566,1485,0,0
-651,-461,0,0,0,0,0,0,0,0,0,-1,573,1485,0,0
-644,-461,0,0,0,0,0,0,0,0,0,-1,580,1485,0,0
-637,-461,0,0,0,0,0,0,0,0,0,-1,587,1485,0,0
-630,-461,0,0,0,0,0,0,0,0,0,-1,594,1485,0,0
-623,-461,0,0,0,0,0,0,0,0,0,-1,601,1485,0,0
-616,-461,0,0,0,0,0,0,0,0,0,-1,608,1485,0,0
-609,-461,0,0,0,0,0,0,0,0,0,-1,615,1485,0,0
-602,-461,0,0,0,0,0,0,0,0,0,-1,622,1485,0,0
-595,-461,0,0,0,0,0,0,0,0,0,-1,629,1485,0,0
-588,-461,0,0,0,0,0,0,0,0,0,-1,636,1485,0,0
-581,-461,0,0,0,0,0,0,0,0,0,-1,643,1485,0,0
-574,-461,0,0,0,0,0,0,0,0,0,-1,650,1485,0,0
-567,-461,-9.69031,0.513306,0,0,0,0,0,0,0,-1,657,1485,-9.69032,-0.513305
-560,-461,-7.28815,1.54004,0,0,0,0,0,0,0,-1,664,1485,-7.28817,-1.54005
-553,-461,-11.9607,5.27783,0,0,0,0,0,0,0,-1,671,1485,-11.9607,-5.27778
-546,-461,-11.4215,4.44666,0,0,0,0,0,0,0,-1,678,1485,-11.4215,-4.4467
-539,-461,-9.36493,5.23438,0,0,0,0,0,0,0,-1,685,1485,-9.3649,-5.23432
-532,-461,-7.82898,6.78357,0,0,0,0,0,0,0,-1,692,1485,-7.829,-6.78363
-525,-461,-6.37878,8.75659,0,0,0,0,0,0,0,-1,699,1485,-6.3788,-8.75659
-518,-461,-6.49695,10.886,0,0,0,0,0,0,0,-1,706,1485,-6.49696,-10.8859
-511,-461,-14.96,20.4404,0,0,0,0,0,0,0,-1,713,1485,-14.96,-20.4404
-504,-461,-14.6823,21.3442,0.00559906,0.00558454,0.00665791,0.0122497,-0.00106611,0.784853,0.00854405,0.0478891,720,1485,-14.6823,-21.3442
-497,-461,-14.5869,22.3376,0.00425598,0.00409533,0.00503132,0.00920762,-0.000856309,0.777416,0.00644284,0.0123368,727,1485,-14.5868,-22.3376
-490,-461,-14.6328,23.1528,0.00317794,0.00297052,0.00371478,0.00679046,-0.000641995,0.771443,0.00475544,0.0135354,734,1485,-14.6327,-23.1528
-483,-461,-14.6894,23.9535,0.00232032,0.0020584,0.00263997,0.00483257,-0.000453854,0.760616,0.00338316,0.0136205,741,1485,-14.6894,-23.9534
-476,-461,-14.7514,24.7562,0.00172854,0.00151063,0.00192335,0.00354602,-0.000306847,0.757104,0.00247265,0.012232,748,1485,-14.7514,-24.7563
-469,-461,-14.7966,25.5715,0.00137588,0.00128912,0.00148802,0.00282115,-0.000156158,0.770825,0.00193492,0.0140212,755,1485,-14.7967,-25.5715
-462,-461,-14.8092,26.3732,0.00131253,0.0013711,0.00136835,0.00271048,-2.68505e-05,0.796097,0.001816,0.0202079,762,1485,-14.8092,-26.3732
-455,-461,-14.8934,27.1837,0.00153973,0.00177648,0.00158015,0.00324268,7.35272e-05,0.822785,0.0021377,0.0239207,769,1485,-14.8934,-27.1838
-448,-461,-14.9176,28.0054,0.00222783,0.0027861,0.0023813,0.00490457,0.000109364,0.843742,0.00323387,0.0226058,776,1485,-14.9176,-28.0053
-441,-461,-14.9275,28.765,0,0,0,0,0,0,0,-1,783,1485,-14.9275,-28.765
-434,-461,-14.6837,29.8876,0,0,0,0,0,0,0,-1,790,1485,-14.6837,-29.8876
-427,-461,-8.26154,21.546,0,0,0,0,0,0,0,-1,797,1485,-8.26153,-21.5461
-420,-461,-5.70355,16.6116,0,0,0,0,0,0,0,-1,804,1485,-5.70353,-16.6115
-413,-461,-5.98798,16.0605,0,0,0,0,0,0,0,-1,811,1485,-5.98796,-16.0605
-406,-461,-5.52667,14.839,0,0,0,0,0,0,0,-1,818,1485,-5.52666,-14.839
-399,-461,-1.93439,9.82849,0,0,0,0,0,0,0,-1,825,1485,-1.9344,-9.82846
-392,-461,-0.357544,5.55225,0,0,0,0,0,0,0,-1,832,1485,-0.357536,-5.55228
-385,-461,1.71509,3.35254,0,0,0,0,0,0,0,-1,839,1485,1.71511,-3.35255
-378,-461,1.95996,3.01111,0,0,0,0,0,0,0,-1,846,1485,1.95993,-3.01111
-371,-461,0.702881,2.33459,0,0,0,0,0,0,0,-1,853,1485,0.702859,-2.33459
-364,-461,-1.93097,2.56458,0,0,0,0,0,0,0,-1,860,1485,-1.93095,-2.56456
-357,-461,-2.41516,3.49487,0,0,0,0,0,0,0,-1,867,1485,-2.41517,-3.49487
-350,-461,0,0,0,0,0,0,0,0,0,-1,874,1485,0,0
-343,-461,0,0,0,0,0,0,0,0,0,-1,881,1485,0,0
-336,-461,0,0,0,0,0,0,0,0,0,-1,888,1485,0,0
-329,-461,0,0,0,0,0,0,0,0,0,-1,895,1485,0,0
-322,-461,0,0,0,0,0,0,0,0,0,-1,902,1485,0,0
-315,-461,0,0,0,0,0,0,0,0,0,-1,909,1485,0,0
-308,-461,0,0,0,0,0,0,0,0,0,-1,916,1485,0,0
-301,-461,0,0,0,0,0,0,0,0,0,-1,923,1485,0,0
-294,-461,0,0,0,0,0,0,0,0,0,-1,930,1485,0,0
-287,-461,0,0,0,0,0,0,0,0,0,-1,937,1485,0,0
-280,-461,0,0,0,0,0,0,0,0,0,-1,944,1485,0,0
-273,-461,0,0,0,0,0,0,0,0,0,-1,951,1485,0,0
-266,-461,0,0,0,0,0,0,0,0,0,-1,958,1485,0,0
-259,-461,0,0,0,0,0,0,0,0,0,-1,965,1485,0,0
-252,-461,0,0,0,0,0,0,0,0,0,-1,972,1485,0,0
-245,-461,0,0,0,0,0,0,0,0,0,-1,979,1485,0,0
-238,-461,0,0,0,0,0,0,0,0,0,-1,986,1485,0,0
-231,-461,0,0,0,0,0,0,0,0,0,-1,993,1485,0,0
-224,-461,0,0,0,0,0,0,0,0,0,-1,1000,1485,0,0
-217,-461,0,0,0,0,0,0,0,0,0,-1,1007,1485,0,0
-210,-461,0,0,0,0,0,0,0,0,0,-1,1014,1485,0,0
-203,-461,0,0,0,0,0,0,0,0,0,-1,1021,1485,0,0
-196,-461,0,0,0,0,0,0,0,0,0,-1,1028,1485,0,0
-189,-461,0,0,0,0,0,0,0,0,0,-1,1035,1485,0,0
-182,-461,0,0,0,0,0,0,0,0,0,-1,1042,1485,0,0
-175,-461,0,0,0,0,0,0,0,0,0,-1,1049,1485,0,0
-168,-461,0,0,0,0,0,0,0,0,0,-1,1056,1485,0,0
-161,-461,0,0,0,0,0,0,0,0,0,-1,1063,1485,0,0
-154,-461,0,0,0,0,0,0,0,0,0,-1,1070,1485,0,0
-147,-461,0,0,0,0,0,0,0,0,0,-1,1077,1485,0,0
-140,-461,0,0,0,0,0,0,0,0,0,-1,1084,1485,0,0
-133,-461,0,0,0,0,0,0,0,0,0,-1,1091,1485,0,0
-126,-461,0,0,0,0,0,0,0,0,0,-1,1098,1485,0,0
-119,-461,0,0,0,0,0,0,0,0,0,-1,1105,1485,0,0
-112,-461,0,0,0,0,0,0,0,0,0,-1,1112,1485,0,0
-105,-461,0,0,0,0,0,0,0,0,0,-1,1119,1485,0,0
-98,-461,0,0,0,0,0,0,0,0,0,-1,1126,1485,0,0
-91,-461,0,0,0,0,0,0,0,0,0,-1,1133,1485,0,0
-84,-461,0,0,0,0,0,0,0,0,0,-1,1140,1485,0,0
-77,-461,0,0,0,0,0,0,0,0,0,-1,1147,1485,0,0
-70,-461,0,0,0,0,0,0,0,0,0,-1,1154,1485,0,0
-63,-461,0,0,0,0,0,0,0,0,0,-1,1161,1485,0,0
-56,-461,0,0,0,0,0,0,0,0,0,-1,1168,1485,0,0
-49,-461,0,0,0,0,0,0,0,0,0,-1,1175,1485,0,0
-42,-461,0,0,0,0,0,0,0,0,0,-1,1182,1485,0,0
-35,-461,0,0,0,0,0,0,0,0,0,-1,1189,1485,0,0
-28,-461,0,0,0,0,0,0,0,0,0,-1,1196,1485,0,0
-21,-461,0,0,0,0,0,0,0,0,0,-1,1203,1485,0,0
-14,-461,0,0,0,0,0,0,0,0,0,-1,1210,1485,0,0
-7,-461,0,0,0,0,0,0,0,0,0,-1,1217,1485,0,0
0,-461,0,0,0,0,0,0,0,0,0,-1,1224,1485,0,0
7,-461,0,0,0,0,0,0,0,0,0,-1,1231,1485,0,0
14,-461,0,0,0,0,0,0,0,0,0,-1,1238,1485,0,0
21,-461,0,0,0,0,0,0,0,0,0,-1,1245,1485,0,0
28,-461,0,0,0,0,0,0,0,0,0,-1,1252,1485,0,0
35,-461,0,0,0,0,0,0,0,0,0,-1,1259,1485,0,0
42,-461,0,0,0,0,0,0,0,0,0,-1,1266,1485,0,0
49,-461,0,0,0,0,0,0,0,0,0,-1,1273,1485,0,0
56,-461,0,0,0,0,0,0,0,0,0,-1,1280,1485,0,0
63,-461,0,0,0,0,0,0,0,0,0,-1,1287,1485,0,0
70,-461,0,0,0,0,0,0,0,0,0,-1,1294,1485,0,0
77,-461,0,0,0,0,0,0,0,0,0,-1,1301,1485,0,0
84,-461,0,0,0,0,0,0,0,0,0,-1,1308,1485,0,0
91,-461,0,0,0,0,0,0,0,0,0,-1,1315,1485,0,0
98,-461,0,0,0,0,0,0,0,0,0,-1,1322,1485,0,0
105,-461,0,0,0,0,0,0,0,0,0,-1,1329,1485,0,0
112,-461,0,0,0,0,0,0,0,0,0,-1,1336,1485,0,0
119,-461,0,0,0,0,0,0,0,0,0,-1,1343,1485,0,0
126,-461,0,0,0,0,0,0,0,0,0,-1,1350,1485,0,0
133,-461,0,0,0,0,0,0,0,0,0,-1,1357,1485,0,0
140,-461,0,0,0,0,0,0,0,0,0,-1,1364,1485,0,0
147,-461,0,0,0,0,0,0,0,0,0,-1,1371,1485,0,0
154,-461,0,0,0,0,0,0,0,0,0,-1,1378,1485,0,0
161,-461,0,0,0,0,0,0,0,0,0,-1,1385,1485,0,0
168,-461,0,0,0,0,0,0,0,0,0,-1,1392,1485,0,0
175,-461,0,0,0,0,0,0,0,0,0,-1,1399,1485,0,0
182,-461,0,0,0,0,0,0,0,0,0,-1,1406,1485,0,0
189,-461,0,0,0,0,0,0,0,0,0,-1,1413,1485,0,0
196,-461,0,0,0,0,0,0,0,0,0,-1,1420,1485,0,0
203,-461,0,0,0,0,0,0,0,0,0,-1,1427,1485,0,0
210,-461,0,0,0,0,0,0,0,0,0,-1,1434,1485,0,0
217,-461,0,0,0,0,0,0,0,0,0,-1,1441,1485,0,0
224,-461,0,0,0,0,0,0,0,0,0,-1,1448,1485,0,0
231,-461,0,0,0,0,0,0,0,0,0,-1,1455,1485,0,0
238,-461,0,0,0,0,0,0,0,0,0,-1,1462,1485,0,0
245,-461,0,0,0,0,0,0,0,0,0,-1,1469,1485,0,0
252,-461,0,0,0,0,0,0,0,0,0,-1,1476,1485,0,0
259,-461,0,0,0,0,0,0,0,0,0,-1,1483,1485,0,0
266,-461,0,0,0,0,0,0,0,0,0,-1,1490,1485,0,0
273,-461,0,0,0,0,0,0,0,0,0,-1,1497,1485,0,0
280,-461,0,0,0,0,0,0,0,0,0,-1,1504,1485,0,0
287,-461,0,0,0,0,0,0,0,0,0,-1,1511,1485,0,0
294,-461,0,0,0,0,0,0,0,0,0,-1,1518,1485,0,0
301,-461,0,0,0,0,0,0,0,0,0,-1,1525,1485,0,0
308,-461,0,0,0,0,0,0,0,0,0,-1,1532,1485,0,0
315,-461,0,0,0,0,0,0,0,0,0,-1,1539,1485,0,0
322,-461,0,0,0,0,0,0,0,0,0,-1,1546,1485,0,0
329,-461,0,0,0,0,0,0,0,0,0,-1,1553,1485,0,0
336,-461,0,0,0,0,0,0,0,0,0,-1,1560,1485,0,0
343,-461,0,0,0,0,0,0,0,0,0,-1,1567,1485,0,0
350,-461,0,0,0,0,0,0,0,0,0,-1,1574,1485,0,0
357,-461,0,0,0,0,0,0,0,0,0,-1,1581,1485,0,0
364,-461,0,0,0,0,0,0,0,0,0,-1,1588,1485,0,0
371,-461,0,0,0,0,0,0,0,0,0,-1,1595,1485,0,0
378,-461,0,0,0,0,0,0,0,0,0,-1,1602,1485,0,0
385,-461,0,0,0,0,0,0,0,0,0,-1,1609,1485,0,0
392,-461,0,0,0,0,0,0,0,0,0,-1,1616,1485,0,0
399,-461,0,0,0,0,0,0,0,0,0,-1,1623,1485,0,0
406,-461,0,0,0,0,0,0,0,0,0,-1,1630,1485,0,0
413,-461,0,0,0,0,0,0,0,0,0,-1,1637,1485,0,0
420,-461,0,0,0,0,0,0,0,0,0,-1,1644,1485,0,0
427,-461,0,0,0,0,0,0,0,0,0,-1,1651,1485,0,0
434,-461,0,0,0,0,0,0,0,0,0,-1,1658,1485,0,0
441,-461,0,0,0,0,0,0,0,0,0,-1,1665,1485,0,0
448,-461,0,0,0,0,0,0,0,0,0,-1,1672,1485,0,0
455,-461,0,0,0,0,0,0,0,0,0,-1,1679,1485,0,0
462,-461,0,0,0,0,0,0,0,0,0,-1,1686,1485,0,0
469,-461,0,0,0,0,0,0,0,0,0,-1,1693,1485,0,0
476,-461,14.1906,0.690552,0,0,0,0,0,0,0,-1,1700,1485,14.1906,-0.690525
483,-461,10.6361,3.09106,0,0,0,0,0,0,0,-1,1707,1485,10.6361,-3.091
490,-461,17.9972,0.665894,0,0,0,0,0,0,0,-1,1714,1485,17.9972,-0.665876
497,-461,16.6829,1.87732,0,0,0,0,0,0,0,-1,1721,1485,16.6828,-1.87736
504,-461,15.3884,3.09216,0,0,0,0,0,0,0,-1,1728,1485,15.3885,-3.09212
511,-461,15.4292,14.3512,0,0,0,0,0,0,0,-1,1735,1485,15.4292,-14.3512
518,-461,14.8081,10.0085,0,0,0,0,0,0,0,-1,1742,1485,14.8081,-10.0086
525,-461,14.0022,10.8033,0,0,0,0,0,0,0,-1,1749,1485,14.0022,-10.8033
532,-461,17.1704,14.077,0,0,0,0,0,0,0,-1,1756,1485,17.1704,-14.077
539,-461,17.0229,14.7386,0,0,0,0,0,0,0,-1,1763,1485,17.0229,-14.7387
546,-461,16.2106,14.1372,0,0,0,0,0,0,0,-1,1770,1485,16.2106,-14.1372
553,-461,25.9354,24.2889,0,0,0,0,0,0,0,-1,1777,1485,25.9354,-24.2889
560,-461,32.2307,30.4304,0,0,0,0,0,0,0,-1,1784,1485,32.2307,-30.4305
567,-461,32.255,29.5433,0.00948355,0.00174269,-0.0021878,0.0100591,0.00116714,-0.257242,0.00635285,0.036892,1791,1485,32.255,-29.5433
574,-461,32.2836,28.8578,0.00739177,0.00149666,-0.00191957,0.00796171,0.00092671,-0.288624,0.00502746,0.0339293,1798,1485,32.2836,-28.8577
581,-461,32.2698,28.0658,0.00575996,0.0013136,-0.00168215,0.00632464,0.000748924,-0.323868,0.00399028,0.0201529,1805,1485,32.2698,-28.0658
588,-461,32.2162,27.303,0.00445764,0.0010343,-0.0014062,0.00496119,0.000530742,-0.343869,0.00314551,0.0121562,1812,1485,32.2162,-27.3029
595,-461,32.1376,26.53,0.00347063,0.000704875,-0.00108693,0.00384666,0.000328843,-0.33307,0.00246216,0.009546,1819,1485,32.1376,-26.53
602,-461,32.1078,25.7382,0.00271619,0.00032516,-0.000734686,0.0029239,0.000117457,-0.275519,0.00191131,0.00977943,1826,1485,32.1078,-25.7381
609,-461,32.0807,24.9513,0.00218974,1.62321e-05,-0.000331873,0.00223928,-3.33124e-05,-0.148193,0.00150408,0.0115412,1833,1485,32.0807,-24.9513
616,-461,32.0656,24.1874,0.00184536,-0.000189602,6.23477e-05,0.00184727,-0.00019151,0.0306,0.00130006,0.0141046,1840,1485,32.0656,-24.1873
623,-461,32.0529,23.4484,0.00174998,-0.000490844,0.000528748,0.00186847,-0.000609342,0.220468,0.00149087,0.0181694,1847,1485,32.0529,-23.4484
630,-461,32.0004,22.7037,0.00181355,-0.000732962,0.0010498,0.00219052,-0.00110994,0.344752,0.00193927,0.0189687,1854,1485,32.0004,-22.7037
637,-461,31.9448,21.8951,0.00202434,-0.000778894,0.00152269,0.0026923,-0.00144685,0.413389,0.00242553,0.0176133,1861,1485,31.9449,-21.8951
644,-461,32.0304,21.1903,0.00237738,-0.000483956,0.00185596,0.00329009,-0.00139666,0.457042,0.00277853,0.0393636,1868,1485,32.0303,-21.1903
651,-461,32.183,20.4214,0,0,0,0,0,0,0,-1,1875,1485,32.183,-20.4213
658,-461,16.8987,10.1084,0,0,0,0,0,0,0,-1,1882,1485,16.8986,-10.1084
665,-461,17.2638,9.81384,0,0,0,0,0,0,0,-1,1889,1485,17.2638,-9.81385
672,-461,14.4877,6.89429,0,0,0,0,0,0,0,-1,1896,1485,14.4876,-6.89431
679,-461,10.0535,2.16321,0,0,0,0,0,0,0,-1,1903,1485,10.0535,-2.16317
686,-461,10.8195,1.84192,0,0,0,0,0,0,0,-1,1910,1485,10.8194,-1.84195
693,-461,0,0,0,0,0,0,0,0,0,-1,1917,1485,0,0
700,-461,0,0,0,0,0,0,0,0,0,-1,1924,1485,0,0
707,-461,0,0,0,0,0,0,0,0,0,-1,1931,1485,0,0
714,-461,0,0,0,0,0,0,0,0,0,-1,1938,1485,0,0
721,-461,0,0,0,0,0,0,0,0,0,-1,1945,1485,0,0
728,-461,0,0,0,0,0,0,0,0,0,-1,1952,1485,0,0
735,-461,0,0,0,0,0,0,0,0,0,-1,1959,1485,0,0
742,-461,0,0,0,0,0,0,0,0,0,-1,1966,1485,0,0
749,-461,0,0,0,0,0,0,0,0,0,-1,1973,1485,0,0
756,-461,0,0,0,0,0,0,0,0,0,-1,1980,1485,0,0
763,-461,0,0,0,0,0,0,0,0,0,-1,1987,1485,0,0
770,-461,0,0,0,0,0,0,0,0,0,-1,1994,1485,0,0
777,-461,0,0,0,0,0,0,0,0,0,-1,2001,1485,0,0
784,-461,0,0,0,0,0,0,0,0,0,-1,2008,1485,0,0
791,-461,0,0,0,0,0,0,0,0,0,-1,2015,1485,0,0
798,-461,0,0,0,0,0,0,0,0,0,-1,2022,1485,0,0
805,-461,0,0,0,0,0,0,0,0,0,-1,2029,1485,0,0
812,-461,0,0,0,0,0,0,0,0,0,-1,2036,1485,0,0
-700,-468,0,0,0,0,0,0,0,0,0,-1,524,1492,0,0
-693,-468,0,0,0,0,0,0,0,0,0,-1,531,1492,0,0
-686,-468,0,0,0,0,0,0,0,0,0,-1,538,1492,0,0
-679,-468,0,0,0,0,0,0,0,0,0,-1,545,1492,0,0
-672,-468,0,0,0,0,0,0,0,0,0,-1,552,1492,0,0
-665,-468,0,0,0,0,0,0,0,0,0,-1,559,1492,0,0
-658,-468,0,0,0,0,0,0,0,0,0,-1,566,1492,0,0
-651,-468,0,0,0,0,0,0,0,0,0,-1,573,1492,0,0
-644,-468,0,0,0,0,0,0,0,0,0,-1,580,1492,0,0
-637,-468,0,0,0,0,0,0,0,0,0,-1,587,1492,0,0
-630,-468,0,0,0,0,0,0,0,0,0,-1,594,1492,0,0
-623,-468,0,0,0,0,0,0,0,0,0,-1,601,1492,0,0
-616,-468,0,0,0,0,0,0,0,0,0,-1,608,1492,0,0
-609,-468,0,0,0,0,0,0,0,0,0,-1,615,1492,0,0
-602,-468,0,0,0,0,0,0,0,0,0,-1,622,1492,0,0
-595,-468,0,0,0,0,0,0,0,0,0,-1,629,1492,0,0
-588,-468,0,0,0,0,0,0,0,0,0,-1,636,1492,0,0
-581,-468,0,0,0,0,0,0,0,0,0,-1,643,1492,0,0
-574,-468,0,0,0,0,0,0,0,0,0,-1,650,1492,0,0
-567,-468,-11.2603,1.8042,0,0,0,0,0,0,0,-1,657,1492,-11.2603,-1.80424
-560,-468,-8.77441,2.23694,0,0,0,0,0,0,0,-1,664,1492,-8.77443,-2.23692
-553,-468,-5.94061,9.26318,0,0,0,0,0,0,0,-1,671,1492,-5.94062,-9.26322
-546,-468,-10.47,5.43237,0,0,0,0,0,0,0,-1,678,1492,-10.47,-5.4324
-539,-468,-10.2468,5.45203,0,0,0,0,0,0,0,-1,685,1492,-10.2468,-5.45197
-532,-468,-8.39795,6.02783,0,0,0,0,0,0,0,-1,692,1492,-8.39793,-6.02789
-525,-468,-6.59332,7.15405,0,0,0,0,0,0,0,-1,699,1492,-6.59331,-7.15411
-518,-468,-6.33588,8.65393,0,0,0,0,0,0,0,-1,706,1492,-6.33588,-8.65397
-511,-468,-8.05835,13.8282,0,0,0,0,0,0,0,-1,713,1492,-8.05835,-13.8283
-504,-468,-13.9434,21.3145,0,0,0,0,0,0,0,-1,720,1492,-13.9433,-21.3144
-497,-468,-13.8293,22.2672,0.00473173,0.00458701,0.00600013,0.0106599,-0.0013412,0.779369,0.00759328,0.0339341,727,1492,-13.8293,-22.2673
-490,-468,-13.8377,23.1985,0.00345069,0.0032458,0.00445112,0.00780054,-0.00110405,0.773893,0.00560474,0.00895033,734,1492,-13.8377,-23.1985
-483,-468,-13.8907,23.9995,0.00243158,0.00213309,0.00315251,0.00543837,-0.000873706,0.761745,0.00394917,0.00985528,741,1492,-13.8908,-23.9995
-476,-468,-13.9295,24.8163,0.00176507,0.00146682,0.00226672,0.00388756,-0.000655673,0.75255,0.00283565,0.0106273,748,1492,-13.9295,-24.8163
-469,-468,-13.9813,25.6223,0.00139006,0.00119924,0.00172398,0.00302126,-0.000431966,0.757755,0.00217253,0.0142827,755,1492,-13.9813,-25.6223
-462,-468,-13.9752,26.4305,0.00131349,0.00127983,0.00150423,0.00280099,-0.000207665,0.779804,0.00194025,0.02456,762,1492,-13.9752,-26.4306
-455,-468,-14.0477,27.1998,0.0015296,0.00169349,0.00160626,0.00321989,3.20107e-06,0.810883,0.00214553,0.0261248,769,1492,-14.0477,-27.1999
-448,-468,-14.1022,28.0284,0.0021565,0.00268256,0.0022176,0.00465267,0.00018639,0.844428,0.00304156,0.015791,776,1492,-14.1021,-28.0284
-441,-468,-14.1447,28.8325,0.00307103,0.00403466,0.00314401,0.00673356,0.000372132,0.86143,0.00437028,0.0171559,783,1492,-14.1446,-28.8325
-434,-468,-14.1004,29.7635,0.00436684,0.00576279,0.00446561,0.00958464,0.000544992,0.862921,0.00621606,0.0450297,790,1492,-14.1004,-29.7636
-427,-468,-14.0935,30.7327,0,0,0,0,0,0,0,-1,797,1492,-14.0935,-30.7327
-420,-468,-7.57581,22.0538,0,0,0,0,0,0,0,-1,804,1492,-7.57582,-22.0538
-413,-468,-5.30328,17.3519,0,0,0,0,0,0,0,-1,811,1492,-5.30329,-17.352
-406,-468,-2.2356,9.396,0,0,0,0,0,0,0,-1,818,1492,-2.2356,-9.396
-399,-468,-0.940369,8.1936,0,0,0,0,0,0,0,-1,825,1492,-0.940365,-8.19357
-392,-468,-0.35144,8.14673,0,0,0,0,0,0,0,-1,832,1492,-0.351449,-8.14674
-385,-468,0.465759,5.35864,0,0,0,0,0,0,0,-1,839,1492,0.465732,-5.35864
-378,-468,1.99835,3.25391,0,0,0,0,0,0,0,-1,846,1492,1.99837,-3.2539
-371,-468,-0.31842,3.1532,0,0,0,0,0,0,0,-1,853,1492,-0.318441,-3.15324
-364,-468,-0.966736,2.14563,0,0,0,0,0,0,0,-1,860,1492,-0.966735,-2.14557
-357,-468,-3.06787,3.22742,0,0,0,0,0,0,0,-1,867,1492,-3.06784,-3.2274
-350,-468,-3.18658,4.12659,0,0,0,0,0,0,0,-1,874,1492,-3.18659,-4.12658
-343,-468,0,0,0,0,0,0,0,0,0,-1,881,1492,0,0
-336,-468,0,0,0,0,0,0,0,0,0,-1,888,1492,0,0
-329,-468,0,0,0,0,0,0,0,0,0,-1,895,1492,0,0
-322,-468,0,0,0,0,0,0,0,0,0,-1,902,1492,0,0
-315,-468,0,0,0,0,0,0,0,0,0,-1,909,1492,0,0
-308,-468,0,0,0,0,0,0,0,0,0,-1,916,1492,0,0
-301,-468,0,0,0,0,0,0,0,0,0,-1,923,1492,0,0
-294,-468,0,0,0,0,0,0,0,0,0,-1,930,1492,0,0
-287,-468,0,0,0,0,0,0,0,0,0,-1,937,1492,0,0
-280,-468,0,0,0,0,0,0,0,0,0,-1,944,1492,0,0
-273,-468,0,0,0,0,0,0,0,0,0,-1,951,1492,0,0
-266,-468,0,0,0,0,0,0,0,0,0,-1,958,1492,0,0
-259,-468,0,0,0,0,0,0,0,0,0,-1,965,1492,0,0
-252,-468,0,0,0,0,0,0,0,0,0,-1,972,1492,0,0
-245,-468,0,0,0,0,0,0,0,0,0,-1,979,1492,0,0
-238,-468,0,0,0,0,0,0,0,0,0,-1,986,1492,0,0
-231,-468,0,0,0,0,0,0,0,0,0,-1,993,1492,0,0
-224,-468,0,0,0,0,0,0,0,0,0,-1,1000,1492,0,0
-217,-468,0,0,0,0,0,0,0,0,0,-1,1007,1492,0,0
-210,-468,0,0,0,0,0,0,0,0,0,-1,1014,1492,0,0
-203,-468,0,0,0,0,0,0,0,0,0,-1,1021,1492,0,0
-196,-468,0,0,0,0,0,0,0,0,0,-1,1028,1492,0,0
-189,-468,0,0,0,0,0,0,0,0,0,-1,1035,1492,0,0
-182,-468,0,0,0,0,0,0,0,0,0,-1,1042,1492,0,0
-175,-468,0,0,0,0,0,0,0,0,0,-1,1049,1492,0,0
-168,-468,0,0,0,0,0,0,0,0,0,-1,1056,1492,0,0
-161,-468,0,0,0,0,0,0,0,0,0,-1,1063,1492,0,0
-154,-468,0,0,0,0,0,0,0,0,0,-1,1070,1492,0,0
-147,-468,0,0,0,0,0,0,0,0,0,-1,1077,1492,0,0
-140,-468,0,0,0,0,0,0,0,0,0,-1,1084,1492,0,0
-133,-468,0,0,0,0,0,0,0,0,0,-1,1091,1492,0,0
-126,-468,0,0,0,0,0,0,0,0,0,-1,1098,1492,0,0
-119,-468,0,0,0,0,0,0,0,0,0,-1,1105,1492,0,0
-112,-468,0,0,0,0,0,0,0,0,0,-1,1112,1492,0,0
-105,-468,0,0,0,0,0,0,0,0,0,-1,1119,1492,0,0
-98,-468,0,0,0,0,0,0,0,0,0,-1,1126,1492,0,0
-91,-468,0,0,0,0,0,0,0,0,0,-1,1133,1492,0,0
-84,-468,0,0,0,0,0,0,0,0,0,-1,1140,1492,0,0
-77,-468,0,0,0,0,0,0,0,0,0,-1,1147,1492,0,0
-70,-468,0,0,0,0,0,0,0,0,0,-1,1154,1492,0,0
-63,-468,0,0,0,0,0,0,0,0,0,-1,1161,1492,0,0
-56,-468,0,0,0,0,0,0,0,0,0,-1,1168,1492,0,0
-49,-468,0,0,0,0,0,0,0,0,0,-1,1175,1492,0,0
-42,-468,0,0,0,0,0,0,0,0,0,-1,1182,1492,0,0
-35,-468,0,0,0,0,0,0,0,0,0,-1,1189,1492,0,0
-28,-468,0,0,0,0,0,0,0,0,0,-1,1196,1492,0,0
-21,-468,0,0,0,0,0,0,0,0,0,-1,1203,1492,0,0
-14,-468,0,0,0,0,0,0,0,0,0,-1,1210,1492,0,0
-7,-468,0,0,0,0,0,0,0,0,0,-1,1217,1492,0,0
0,-468,0,0,0,0,0,0,0,0,0,-1,1224,1492,0,0
7,-468,0,0,0,0,0,0,0,0,0,-1,1231,1492,0,0
14,-468,0,0,0,0,0,0,0,0,0,-1,1238,1492,0,0
21,-468,0,0,0,0,0,0,0,0,0,-1,1245,1492,0,0
28,-468,0,0,0,0,0,0,0,0,0,-1,1252,1492,0,0
35,-468,0,0,0,0,0,0,0,0,0,-1,1259,1492,0,0
42,-468,0,0,0,0,0,0,0,0,0,-1,1266,1492,0,0
49,-468,0,0,0,0,0,0,0,0,0,-1,1273,1492,0,0
56,-468,0,0,0,0,0,0,0,0,0,-1,1280,1492,0,0
63,-468,0,0,0,0,0,0,0,0,0,-1,1287,1492,0,0
70,-468,0,0,0,0,0,0,0,0,0,-1,1294,1492,0,0
77,-468,0,0,0,0,0,0,0,0,0,-1,1301,1492,0,0
84,-468,0,0,0,0,0,0,0,0,0,-1,1308,1492,0,0
91,-468,0,0,0,0,0,0,0,0,0,-1,1315,1492,0,0
98,-468,0,0,0,0,0,0,0,0,0,-1,1322,1492,0,0
105,-468,0,0,0,0,0,0,0,0,0,-1,1329,1492,0,0
112,-468,0,0,0,0,0,0,0,0,0,-1,1336,1492,0,0
119,-468,0,0,0,0,0,0,0,0,0,-1,1343,1492,0,0
126,-468,0,0,0,0,0,0,0,0,0,-1,1350,1492,0,0
133,-468,0,0,0,0,0,0,0,0,0,-1,1357,1492,0,0
140,-468,0,0,0,0,0,0,0,0,0,-1,1364,1492,0,0
147,-468,0,0,0,0,0,0,0,0,0,-1,1371,1492,0,0
154,-468,0,0,0,0,0,0,0,0,0,-1,1378,1492,0,0
161,-468,0,0,0,0,0,0,0,0,0,-1,1385,1492,0,0
168,-468,0,0,0,0,0,0,0,0,0,-1,1392,1492,0,0
175,-468,0,0,0,0,0,0,0,0,0,-1,1399,1492,0,0
182,-468,0,0,0,0,0,0,0,0,0,-1,1406,1492,0,0
189,-468,0,0,0,0,0,0,0,0,0,-1,1413,1492,0,0
196,-468,0,0,0,0,0,0,0,0,0,-1,1420,1492,0,0
203,-468,0,0,0,0,0,0,0,0,0,-1,1427,1492,0,0
210,-468,0,0,0,0,0,0,0,0,0,-1,1434,1492,0,0
217,-468,0,0,0,0,0,0,0,0,0,-1,1441,1492,0,0
224,-468,0,0,0,0,0,0,0,0,0,-1,1448,1492,0,0
231,-468,0,0,0,0,0,0,0,0,0,-1,1455,1492,0,0
238,-468,0,0,0,0,0,0,0,0,0,-1,1462,1492,0,0
245,-468,0,0,0,0,0,0,0,0,0,-1,1469,1492,0,0
252,-468,0,0,0,0,0,0,0,0,0,-1,1476,1492,0,0
259,-468,0,0,0,0,0,0,0,0,0,-1,1483,1492,0,0
266,-468,0,0,0,0,0,0,0,0,0,-1,1490,1492,0,0
273,-468,0,0,0,0,0,0,0,0,0,-1,1497,1492,0,0
280,-468,0,0,0,0,0,0,0,0,0,-1,1504,1492,0,0
287,-468,0,0,0,0,0,0,0,0,0,-1,1511,1492,0,0
294,-468,0,0,0,0,0,0,0,0,0,-1,1518,1492,0,0
301,-468,0,0,0,0,0,0,0,0,0,-1,1525,1492,0,0
308,-468,0,0,0,0,0,0,0,0,0,-1,1532,1492,0,0
315,-468,0,0,0,0,0,0,0,0,0,-1,1539,1492,0,0
322,-468,0,0,0,0,0,0,0,0,0,-1,1546,1492,0,0
329,-468,0,0,0,0,0,0,0,0,0,-1,1553,1492,0,0
336,-468,0,0,0,0,0,0,0,0,0,-1,1560,1492,0,0
343,-468,0,0,0,0,0,0,0,0,0,-1,1567,1492,0,0
350,-468,0,0,0,0,0,0,0,0,0,-1,1574,1492,0,0
357,-468,0,0,0,0,0,0,0,0,0,-1,1581,1492,0,0
364,-468,0,0,0,0,0,0,0,0,0,-1,1588,1492,0,0
371,-468,0,0,0,0,0,0,0,0,0,-1,1595,1492,0,0
378,-468,0,0,0,0,0,0,0,0,0,-1,1602,1492,0,0
385,-468,0,0,0,0,0,0,0,0,0,-1,1609,1492,0,0
392,-468,0,0,0,0,0,0,0,0,0,-1,1616,1492,0,0
399,-468,0,0,0,0,0,0,0,0,0,-1,1623,1492,0,0
406,-468,0,0,0,0,0,0,0,0,0,-1,1630,1492,0,0
413,-468,0,0,0,0,0,0,0,0,0,-1,1637,1492,0,0
420,-468,0,0,0,0,0,0,0,0,0,-1,1644,1492,0,0
427,-468,0,0,0,0,0,0,0,0,0,-1,1651,1492,0,0
434,-468,0,0,0,0,0,0,0,0,0,-1,1658,1492,0,0
441,-468,0,0,0,0,0,0,0,0,0,-1,1665,1492,0,0
448,-468,0,0,0,0,0,0,0,0,0,-1,1672,1492,0,0
455,-468,0,0,0,0,0,0,0,0,0,-1,1679,1492,0,0
462,-468,0,0,0,0,0,0,0,0,0,-1,1686,1492,0,0
469,-468,15.6879,1.2677,0,0,0,0,0,0,0,-1,1693,1492,15.6879,-1.26772
476,-468,14.9318,1.61865,0,0,0,0,0,0,0,-1,1700,1492,14.9318,-1.61869
483,-468,11.265,4.64795,0,0,0,0,0,0,0,-1,1707,1492,11.265,-4.64798
490,-468,12.1316,3.51624,0,0,0,0,0,0,0,-1,1714,1492,12.1316,-3.51628
497,-468,16.5355,3.14587,0,0,0,0,0,0,0,-1,1721,1492,16.5356,-3.14583
504,-468,15.0642,4.10437,0,0,0,0,0,0,0,-1,1728,1492,15.0643,-4.10431
511,-468,15.6877,9.4801,0,0,0,0,0,0,0,-1,1735,1492,15.6878,-9.48007
518,-468,13.759,11.0887,0,0,0,0,0,0,0,-1,1742,1492,13.759,-11.0887
525,-468,16.6531,14.2238,0,0,0,0,0,0,0,-1,1749,1492,16.653,-14.2237
532,-468,16.9696,15.9641,0,0,0,0,0,0,0,-1,1756,1492,16.9696,-15.9641
539,-468,21.5308,20.7551,0,0,0,0,0,0,0,-1,1763,1492,21.5308,-20.7551
546,-468,25.5796,25.0283,0,0,0,0,0,0,0,-1,1770,1492,25.5796,-25.0284
553,-468,31.259,31.1285,0,0,0,0,0,0,0,-1,1777,1492,31.259,-31.1285
560,-468,31.4561,30.3889,0.0106792,0.00272095,-0.00291105,0.0116304,0.00176979,-0.315804,0.00723616,0.045119,1784,1492,31.4561,-30.389
567,-468,31.4812,29.6987,0.00836605,0.00200907,-0.00219958,0.00905291,0.0013222,-0.302675,0.00564638,0.0247789,1791,1492,31.4812,-29.6987
574,-468,31.5126,28.8905,0.00651846,0.00152058,-0.00178327,0.00708949,0.000949546,-0.309902,0.00444376,0.017276,1798,1492,31.5126,-28.8905
581,-468,31.4846,28.1427,0.00503669,0.00115645,-0.00144215,0.00551398,0.000679163,-0.319611,0.00347181,0.017983,1805,1492,31.4846,-28.1427
588,-468,31.4246,27.3708,0.0038945,0.000797814,-0.00112666,0.00426103,0.000431288,-0.314522,0.00270839,0.0144809,1812,1492,31.4245,-27.3708
595,-468,31.3857,26.5693,0.00306592,0.000427177,-0.000770896,0.00327463,0.000218471,-0.264394,0.00211403,0.0111252,1819,1492,31.3858,-26.5694
602,-468,31.3555,25.7828,0.00240804,5.80123e-05,-0.00042408,0.00248223,-1.61742e-05,-0.173182,0.00166024,0.0094713,1826,1492,31.3555,-25.7828
609,-468,31.295,24.9967,0.00194366,-0.000235021,-1.67495e-05,0.00194379,-0.00023515,-0.0076873,0.00138093,0.0098928,1833,1492,31.295,-24.9967
616,-468,31.2457,24.2095,0.00166231,-0.000465342,0.000428574,0.00174539,-0.000548425,0.191485,0.00138313,0.0097507,1840,1492,31.2457,-24.2095
623,-468,31.2212,23.4587,0.00158209,-0.000805126,0.00100023,0.00194577,-0.00116881,0.34874,0.00181676,0.0119736,1847,1492,31.2212,-23.4587
630,-468,31.2067,22.6934,0.00159038,-0.0010824,0.00168541,0.00240493,-0.00189695,0.450194,0.00248946,0.0135042,1854,1492,31.2066,-22.6934
637,-468,31.1979,21.8849,0.00170426,-0.00119145,0.00237506,0.00303799,-0.00252518,0.511671,0.00321644,0.0199369,1861,1492,31.1978,-21.8849
644,-468,31.0836,21.2457,0.00188154,-0.000987306,0.00301052,0.0037819,-0.00288767,0.563074,0.0038622,0.0381086,1868,1492,31.0837,-21.2457
651,-468,31.111,20.5068,0,0,0,0,0,0,0,-1,1875,1492,31.1109,-20.5068
658,-468,16.4969,10.0774,0,0,0,0,0,0,0,-1,1882,1492,16.497,-10.0774
665,-468,15.4673,8.59546,0,0,0,0,0,0,0,-1,1889,1492,15.4672,-8.59548
672,-468,9.96814,3.61133,0,0,0,0,0,0,0,-1,1896,1492,9.96817,-3.61139
679,-468,11.2191,1.91968,0,0,0,0,0,0,0,-1,1903,1492,11.2191,-1.91965
686,-468,11.9252,1.42285,0,0,0,0,0,0,0,-1,1910,1492,11.9252,-1.42291
693,-468,0,0,0,0,0,0,0,0,0,-1,1917,1492,0,0
700,-468,0,0,0,0,0,0,0,0,0,-1,1924,1492,0,0
707,-468,0,0,0,0,0,0,0,0,0,-1,1931,1492,0,0
714,-468,0,0,0,0,0,0,0,0,0,-1,1938,1492,0,0
721,-468,0,0,0,0,0,0,0,0,0,-1,1945,1492,0,0
728,-468,0,0,0,0,0,0,0,0,0,-1,1952,1492,0,0
735,-468,0,0,0,0,0,0,0,0,0,-1,1959,1492,0,0
742,-468,0,0,0,0,0,0,0,0,0,-1,1966,1492,0,0
749,-468,0,0,0,0,0,0,0,0,0,-1,1973,1492,0,0
756,-468,0,0,0,0,0,0,0,0,0,-1,1980,1492,0,0
763,-468,0,0,0,0,0,0,0,0,0,-1,1987,1492,0,0
770,-468,0,0,0,0,0,0,0,0,0,-1,1994,1492,0,0
777,-468,0,0,0,0,0,0,0,0,0,-1,2001,1492,0,0
784,-468,0,0,0,0,0,0,0,0,0,-1,2008,1492,0,0
791,-468,0,0,0,0,0,0,0,0,0,-1,2015,1492,0,0
798,-468,0,0,0,0,0,0,0,0,0,-1,2022,1492,0,0
805,-468,0,0,0,0,0,0,0,0,0,-1,2029,1492,0,0
812,-468,0,0,0,0,0,0,0,0,0,-1,2036,1492,0,0
-700,-475,0,0,0,0,0,0,0,0,0,-1,524,1499,0,0
-693,-475,0,0,0,0,0,0,0,0,0,-1,531,1499,0,0
-686,-475,0,0,0,0,0,0,0,0,0,-1,538,1499,0,0
-679,-475,0,0,0,0,0,0,0,0,0,-1,545,1499,0,0
-672,-475,0,0,0,0,0,0,0,0,0,-1,552,1499,0,0
-665,-475,0,0,0,0,0,0,0,0,0,-1,559,1499,0,0
-658,-475,0,0,0,0,0,0,0,0,0,-1,566,1499,0,0
-651,-475,0,0,0,0,0,0,0,0,0,-1,573,1499,0,0
-644,-475,0,0,0,0,0,0,0,0,0,-1,580,1499,0,0
-637,-475,0,0,0,0,0,0,0,0,0,-1,587,1499,0,0
-630,-475,0,0,0,0,0,0,0,0,0,-1,594,1499,0,0
-623,-475,0,0,0,0,0,0,0,0,0,-1,601,1499,0,0
-616,-475,0,0,0,0,0,0,0,0,0,-1,608,1499,0,0
-609,-475,0,0,0,0,0,0,0,0,0,-1,615,1499,0,0
-602,-475,0,0,0,0,0,0,0,0,0,-1,622,1499,0,0
-595,-475,0,0,0,0,0,0,0,0,0,-1,629,1499,0,0
-588,-475,0,0,0,0,0,0,0,0,0,-1,636,1499,0,0
-581,-475,0,0,0,0,0,0,0,0,0,-1,643,1499,0,0
-574,-475,0,0,0,0,0,0,0,0,0,-1,650,1499,0,0
-567,-475,0,0,0,0,0,0,0,0,0,-1,657,1499,0,0
-560,-475,-9.42731,9.29517,0,0,0,0,0,0,0,-1,664,1499,-9.42731,-9.29519
-553,-475,-8.15131,8.78369,0,0,0,0,0,0,0,-1,671,1499,-8.15131,-8.78367
-546,-475,-8.41254,8.20654,0,0,0,0,0,0,0,-1,678,1499,-8.41251,-8.20655
-539,-475,-4.7345,4.17419,0,0,0,0,0,0,0,-1,685,1499,-4.73449,-4.17418
-532,-475,-7.07379,4.25024,0,0,0,0,0,0,0,-1,692,1499,-7.07378,-4.2503
-525,-475,-6.13147,5.82166,0,0,0,0,0,0,0,-1,699,1499,-6.1315,-5.8216
-518,-475,-7.28784,9.31506,0,0,0,0,0,0,0,-1,706,1499,-7.28782,-9.315
-511,-475,-6.84851,12.4244,0,0,0,0,0,0,0,-1,713,1499,-6.84851,-12.4244
-504,-475,-8.80957,16.0863,0,0,0,0,0,0,0,-1,720,1499,-8.80954,-16.0862
-497,-475,-13.0892,22.2317,0,0,0,0,0,0,0,-1,727,1499,-13.0893,-22.2317
-490,-475,-13.0612,23.2085,0.00419614,0.00275129,0.00514836,0.00867252,-0.00172508,0.715693,0.00643426,0.0206837,734,1499,-13.0612,-23.2085
-483,-475,-13.0662,24.0822,0.00294408,0.00151473,0.00358405,0.00588401,-0.0014252,0.686987,0.00447406,0.00942337,741,1499,-13.0662,-24.0822
-476,-475,-13.1138,24.8644,0.00209683,0.00083942,0.00250484,0.00405066,-0.00111441,0.66244,0.00313856,0.0114876,748,1499,-13.1138,-24.8643
-469,-475,-13.1731,25.6858,0.00156667,0.000645826,0.00186131,0.00302365,-0.000811159,0.66415,0.00233363,0.0155945,755,1499,-13.1731,-25.6858
-462,-475,-13.1577,26.4769,0.00133152,0.000843915,0.00155442,0.00266114,-0.000485705,0.70761,0.0019562,0.0215351,762,1499,-13.1577,-26.4769
-455,-475,-13.2026,27.287,0.00138673,0.00137529,0.00157103,0.00295205,-0.000190037,0.783578,0.00203434,0.017956,769,1499,-13.2026,-27.287
-448,-475,-13.2996,28.0811,0.00180877,0.00243329,0.00203905,0.00418385,5.82051e-05,0.861378,0.00277003,0.0155457,776,1499,-13.2996,-28.0811
-441,-475,-13.3609,28.897,0.00248694,0.00378526,0.00279348,0.00600402,0.000268189,0.899564,0.00391634,0.0173962,783,1499,-13.3609,-28.897
-434,-475,-13.3813,29.671,0.0034937,0.00546619,0.00389778,0.00850057,0.000459326,0.909311,0.00552031,0.0124248,790,1499,-13.3813,-29.671
-427,-475,-13.3255,30.6128,0.00495469,0.00779528,0.00548775,0.0120435,0.000706417,0.912026,0.00780422,0.0466063,797,1499,-13.3255,-30.6127
-420,-475,-13.1967,31.5388,0,0,0,0,0,0,0,-1,804,1499,-13.1967,-31.5388
-413,-475,-6.46777,20.8481,0,0,0,0,0,0,0,-1,811,1499,-6.46776,-20.8481
-406,-475,-2.56116,12.4956,0,0,0,0,0,0,0,-1,818,1499,-2.56116,-12.4956
-399,-475,-1.39667,6.1615,0,0,0,0,0,0,0,-1,825,1499,-1.39664,-6.16155
-392,-475,0.217163,8.61389,0,0,0,0,0,0,0,-1,832,1499,0.217167,-8.6139
-385,-475,1.18372,2.73999,0,0,0,0,0,0,0,-1,839,1499,1.18372,-2.73995
-378,-475,1.31409,2.90149,0,0,0,0,0,0,0,-1,846,1499,1.31411,-2.90151
-371,-475,2.3476,3.31116,0,0,0,0,0,0,0,-1,853,1499,2.34761,-3.31121
-364,-475,1.04462,9.05823,0,0,0,0,0,0,0,-1,860,1499,1.04461,-9.05825
-357,-475,-0.262756,7.97205,0,0,0,0,0,0,0,-1,867,1499,-0.262784,-7.97205
-350,-475,-5.16473,-1.27881,0,0,0,0,0,0,0,-1,874,1499,-5.16474,1.27884
-343,-475,-5.76923,-0.530518,0,0,0,0,0,0,0,-1,881,1499,-5.76923,0.530526
-336,-475,0,0,0,0,0,0,0,0,0,-1,888,1499,0,0
-329,-475,0,0,0,0,0,0,0,0,0,-1,895,1499,0,0
-322,-475,0,0,0,0,0,0,0,0,0,-1,902,1499,0,0
-315,-475,0,0,0,0,0,0,0,0,0,-1,909,1499,0,0
-308,-475,0,0,0,0,0,0,0,0,0,-1,916,1499,0,0
-301,-475,0,0,0,0,0,0,0,0,0,-1,923,1499,0,0
-294,-475,0,0,0,0,0,0,0,0,0,-1,930,1499,0,0
-287,-475,0,0,0,0,0,0,0,0,0,-1,937,1499,0,0
-280,-475,0,0,0,0,0,0,0,0,0,-1,944,1499,0,0
-273,-475,0,0,0,0,0,0,0,0,0,-1,951,1499,0,0
-266,-475,0,0,0,0,0,0,0,0,0,-1,958,1499,0,0
-259,-475,0,0,0,0,0,0,0,0,0,-1,965,1499,0,0
-252,-475,0,0,0,0,0,0,0,0,0,-1,972,1499,0,0
-245,-475,0,0,0,0,0,0,0,0,0,-1,979,1499,0,0
-238,-475,0,0,0,0,0,0,0,0,0,-1,986,1499,0,0
-231,-475,0,0,0,0,0,0,0,0,0,-1,993,1499,0,0
-224,-475,0,0,0,0,0,0,0,0,0,-1,1000,1499,0,0
-217,-475,0,0,0,0,0,0,0,0,0,-1,1007,1499,0,0
-210,-475,0,0,0,0,0,0,0,0,0,-1,1014,1499,0,0
-203,-475,0,0,0,0,0,0,0,0,0,-1,1021,1499,0,0
-196,-475,0,0,0,0,0,0,0,0,0,-1,1028,1499,0,0
-189,-475,0,0,0,0,0,0,0,0,0,-1,1035,1499,0,0
-182,-475,0,0,0,0,0,0,0,0,0,-1,1042,1499,0,0
-175,-475,0,0,0,0,0,0,0,0,0,-1,1049,1499,0,0
-168,-475,0,0,0,0,0,0,0,0,0,-1,1056,1499,0,0
-161,-475,0,0,0,0,0,0,0,0,0,-1,1063,1499,0,0
-154,-475,0,0,0,0,0,0,0,0,0,-1,1070,1499,0,0
-147,-475,0,0,0,0,0,0,0,0,0,-1,1077,1499,0,0
-140,-475,0,0,0,0,0,0,0,0,0,-1,1084,1499,0,0
-133,-475,0,0,0,0,0,0,0,0,0,-1,1091,1499,0,0
-126,-475,0,0,0,0,0,0,0,0,0,-1,1098,1499,0,0
-119,-475,0,0,0,0,0,0,0,0,0,-1,1105,1499,0,0
-112,-475,0,0,0,0,0,0,0,0,0,-1,1112,1499,0,0
-105,-475,0,0,0,0,0,0,0,0,0,-1,1119,1499,0,0
-98,-475,0,0,0,0,0,0,0,0,0,-1,1126,1499,0,0
-91,-475,0,0,0,0,0,0,0,0,0,-1,1133,1499,0,0
-84,-475,0,0,0,0,0,0,0,0,0,-1,1140,1499,0,0
-77,-475,0,0,0,0,0,0,0,0,0,-1,1147,1499,0,0
-70,-475,0,0,0,0,0,0,0,0,0,-1,1154,1499,0,0
-63,-475,0,0,0,0,0,0,0,0,0,-1,1161,1499,0,0
-56,-475,0,0,0,0,0,0,0,0,0,-1,1168,1499,0,0
-49,-475,0,0,0,0,0,0,0,0,0,-1,1175,1499,0,0
-42,-475,0,0,0,0,0,0,0,0,0,-1,1182,1499,0,0
-35,-475,0,0,0,0,0,0,0,0,0,-1,1189,1499,0,0
-28,-475,0,0,0,0,0,0,0,0,0,-1,1196,1499,0,0
-21,-475,0,0,0,0,0,0,0,0,0,-1,1203,1499,0,0
-14,-475,0,0,0,0,0,0,0,0,0,-1,1210,1499,0,0
-7,-475,0,0,0,0,0,0,0,0,0,-1,1217,1499,0,0
0,-475,0,0,0,0,0,0,0,0,0,-1,1224,1499,0,0
7,-475,0,0,0,0,0,0,0,0,0,-1,1231,1499,0,0
14,-475,0,0,0,0,0,0,0,0,0,-1,1238,1499,0,0
21,-475,0,0,0,0,0,0,0,0,0,-1,1245,1499,0,0
28,-475,0,0,0,0,0,0,0,0,0,-1,1252,1499,0,0
35,-475,0,0,0,0,0,0,0,0,0,-1,1259,1499,0,0
42,-475,0,0,0,0,0,0,0,0,0,-1,1266,1499,0,0
49,-475,0,0,0,0,0,0,0,0,0,-1,1273,1499,0,0
56,-475,0,0,0,0,0,0,0,0,0,-1,1280,1499,0,0
63,-475,0,0,0,0,0,0,0,0,0,-1,1287,1499,0,0
70,-475,0,0,0,0,0,0,0,0,0,-1,1294,1499,0,0
77,-475,0,0,0,0,0,0,0,0,0,-1,1301,1499,0,0
84,-475,0,0,0,0,0,0,0,0,0,-1,1308,1499,0,0
91,-475,0,0,0,0,0,0,0,0,0,-1,1315,1499,0,0
98,-475,0,0,0,0,0,0,0,0,0,-1,1322,1499,0,0
105,-475,0,0,0,0,0,0,0,0,0,-1,1329,1499,0,0
112,-475,0,0,0,0,0,0,0,0,0,-1,1336,1499,0,0
119,-475,0,0,0,0,0,0,0,0,0,-1,1343,1499,0,0
126,-475,0,0,0,0,0,0,0,0,0,-1,1350,1499,0,0
133,-475,0,0,0,0,0,0,0,0,0,-1,1357,1499,0,0
140,-475,0,0,0,0,0,0,0,0,0,-1,1364,1499,0,0
147,-475,0,0,0,0,0,0,0,0,0,-1,1371,1499,0,0
154,-475,0,0,0,0,0,0,0,0,0,-1,1378,1499,0,0
161,-475,0,0,0,0,0,0,0,0,0,-1,1385,1499,0,0
168,-475,0,0,0,0,0,0,0,0,0,-1,1392,1499,0,0
175,-475,0,0,0,0,0,0,0,0,0,-1,1399,1499,0,0
182,-475,0,0,0,0,0,0,0,0,0,-1,1406,1499,0,0
189,-475,0,0,0,0,0,0,0,0,0,-1,1413,1499,0,0
196,-475,0,0,0,0,0,0,0,0,0,-1,1420,1499,0,0
203,-475,0,0,0,0,0,0,0,0,0,-1,1427,1499,0,0
210,-475,0,0,0,0,0,0,0,0,0,-1,1434,1499,0,0
217,-475,0,0,0,0,0,0,0,0,0,-1,1441,1499,0,0
224,-475,0,0,0,0,0,0,0,0,0,-1,1448,1499,0,0
231,-475,0,0,0,0,0,0,0,0,0,-1,1455,1499,0,0
238,-475,0,0,0,0,0,0,0,0,0,-1,1462,1499,0,0
245,-475,0,0,0,0,0,0,0,0,0,-1,1469,1499,0,0
252,-475,0,0,0,0,0,0,0,0,0,-1,1476,1499,0,0
259,-475,0,0,0,0,0,0,0,0,0,-1,1483,1499,0,0
266,-475,0,0,0,0,0,0,0,0,0,-1,1490,1499,0,0
273,-475,0,0,0,0,0,0,0,0,0,-1,1497,1499,0,0
280,-475,0,0,0,0,0,0,0,0,0,-1,1504,1499,0,0
287,-475,0,0,0,0,0,0,0,0,0,-1,1511,1499,0,0
294,-475,0,0,0,0,0,0,0,0,0,-1,1518,1499,0,0
301,-475,0,0,0,0,0,0,0,0,0,-1,1525,1499,0,0
308,-475,0,0,0,0,0,0,0,0,0,-1,1532,1499,0,0
315,-475,0,0,0,0,0,0,0,0,0,-1,1539,1499,0,0
322,-475,0,0,0,0,0,0,0,0,0,-1,1546,1499,0,0
329,-475,0,0,0,0,0,0,0,0,0,-1,1553,1499,0,0
336,-475,0,0,0,0,0,0,0,0,0,-1,1560,1499,0,0
343,-475,0,0,0,0,0,0,0,0,0,-1,1567,1499,0,0
350,-475,0,0,0,0,0,0,0,0,0,-1,1574,1499,0,0
357,-475,0,0,0,0,0,0,0,0,0,-1,1581,1499,0,0
364,-475,0,0,0,0,0,0,0,0,0,-1,1588,1499,0,0
371,-475,0,0,0,0,0,0,0,0,0,-1,1595,1499,0,0
378,-475,0,0,0,0,0,0,0,0,0,-1,1602,1499,0,0
385,-475,0,0,0,0,0,0,0,0,0,-1,1609,1499,0,0
392,-475,0,0,0,0,0,0,0,0,0,-1,1616,1499,0,0
399,-475,0,0,0,0,0,0,0,0,0,-1,1623,1499,0,0
406,-475,0,0,0,0,0,0,0,0,0,-1,1630,1499,0,0
413,-475,0,0,0,0,0,0,0,0,0,-1,1637,1499,0,0
420,-475,0,0,0,0,0,0,0,0,0,-1,1644,1499,0,0
427,-475,0,0,0,0,0,0,0,0,0,-1,1651,1499,0,0
434,-475,0,0,0,0,0,0,0,0,0,-1,1658,1499,0,0
441,-475,0,0,0,0,0,0,0,0,0,-1,1665,1499,0,0
448,-475,0,0,0,0,0,0,0,0,0,-1,1672,1499,0,0
455,-475,0,0,0,0,0,0,0,0,0,-1,1679,1499,0,0
462,-475,12.6372,0.275391,0,0,0,0,0,0,0,-1,1686,1499,12.6372,-0.27536
469,-475,15.6437,2.28296,0,0,0,0,0,0,0,-1,1693,1499,15.6437,-2.28293
476,-475,15.3302,2.71436,0,0,0,0,0,0,0,-1,1700,1499,15.3303,-2.7143
483,-475,10.7461,5.91479,0,0,0,0,0,0,0,-1,1707,1499,10.7461,-5.91476
490,-475,11.9305,4.4364,0,0,0,0,0,0,0,-1,1714,1499,11.9305,-4.43644
497,-475,15.3451,4.3479,0,0,0,0,0,0,0,-1,1721,1499,15.3451,-4.34789
504,-475,16.9646,7.71265,0,0,0,0,0,0,0,-1,1728,1499,16.9646,-7.71265
511,-475,18.941,12.7572,0,0,0,0,0,0,0,-1,1735,1499,18.941,-12.7572
518,-475,17.0021,13.8564,0,0,0,0,0,0,0,-1,1742,1499,17.0021,-13.8564
525,-475,17.5637,15.2103,0,0,0,0,0,0,0,-1,1749,1499,17.5637,-15.2103
532,-475,20.8623,20.8413,0,0,0,0,0,0,0,-1,1756,1499,20.8623,-20.8413
539,-475,20.5494,20.8519,0,0,0,0,0,0,0,-1,1763,1499,20.5494,-20.852
546,-475,20.4524,19.8799,0,0,0,0,0,0,0,-1,1770,1499,20.4524,-19.8798
553,-475,30.4362,31.4412,0,0,0,0,0,0,0,-1,1777,1499,30.4362,-31.4412
560,-475,30.5728,30.5912,0.00912815,0.00282361,-0.0028722,0.0102404,0.00171134,-0.369471,0.00633404,0.0336469,1784,1499,30.5728,-30.5912
567,-475,30.7792,29.6759,0.00719387,0.00200397,-0.00211759,0.00794824,0.0012496,-0.342223,0.00493531,0.0170845,1791,1499,30.7792,-29.6759
574,-475,30.7189,28.928,0.00563983,0.0014446,-0.00164599,0.00620854,0.000875892,-0.332669,0.00388016,0.0155899,1798,1499,30.7189,-28.928
581,-475,30.6671,28.1951,0.00435839,0.00100816,-0.00126356,0.00478151,0.000585041,-0.323127,0.00301166,0.012817,1805,1499,30.6671,-28.1951
588,-475,30.6375,27.4116,0.00337942,0.00063334,-0.000940093,0.00367041,0.000342345,-0.300185,0.00234119,0.0112025,1812,1499,30.6375,-27.4117
595,-475,30.6121,26.6141,0.00269277,0.000260738,-0.000573614,0.00282127,0.000132236,-0.220383,0.00183835,0.0113147,1819,1499,30.6121,-26.6141
602,-475,30.5817,25.8273,0.00213698,-7.62458e-05,-0.000242399,0.00216322,-0.000102483,-0.10782,0.00147749,0.0123532,1826,1499,30.5816,-25.8272
609,-475,30.5282,25.0636,0.00173882,-0.000348518,0.000165732,0.00175189,-0.000361595,0.0787412,0.00130526,0.0117796,1833,1499,30.5282,-25.0636
616,-475,30.4633,24.2845,0.00153856,-0.000639804,0.000669113,0.00172767,-0.000828914,0.275443,0.00150614,0.0113185,1840,1499,30.4633,-24.2846
623,-475,30.4512,23.4742,0.001482,-0.00106076,0.00135688,0.00207007,-0.00164882,0.408958,0.00215169,0.0116806,1847,1499,30.4512,-23.4742
630,-475,30.417,22.6898,0.00141132,-0.00143413,0.00224692,0.00264807,-0.00267088,0.503166,0.00307091,0.0167748,1854,1499,30.417,-22.6899
637,-475,30.3442,21.962,0.00139002,-0.00170162,0.00322245,0.00341823,-0.00372984,0.561759,0.00412825,0.0298342,1861,1499,30.3442,-21.962
644,-475,30.1169,21.1864,0,0,0,0,0,0,0,-1,1868,1499,30.1169,-21.1864
651,-475,29.886,19.2421,0,0,0,0,0,0,0,-1,1875,1499,29.886,-19.242
658,-475,14.6708,8.80322,0,0,0,0,0,0,0,-1,1882,1499,14.6708,-8.8032
665,-475,9.33435,5.43335,0,0,0,0,0,0,0,-1,1889,1499,9.33439,-5.43332
672,-475,9.38635,1.10474,0,0,0,0,0,0,0,-1,1896,1499,9.38629,-1.10475
679,-475,12.2594,1.31079,0,0,0,0,0,0,0,-1,1903,1499,12.2594,-1.31077
686,-475,0,0,0,0,0,0,0,0,0,-1,1910,1499,0,0
693,-475,0,0,0,0,0,0,0,0,0,-1,1917,1499,0,0
700,-475,0,0,0,0,0,0,0,0,0,-1,1924,1499,0,0
707,-475,0,0,0,0,0,0,0,0,0,-1,1931,1499,0,0
714,-475,0,0,0,0,0,0,0,0,0,-1,1938,1499,0,0
721,-475,0,0,0,0,0,0,0,0,0,-1,1945,1499,0,0
728,-475,0,0,0,0,0,0,0,0,0,-1,1952,1499,0,0
735,-475,0,0,0,0,0,0,0,0,0,-1,1959,1499,0,0
742,-475,0,0,0,0,0,0,0,0,0,-1,1966,1499,0,0
749,-475,0,0,0,0,0,0,0,0,0,-1,1973,1499,0,0
756,-475,0,0,0,0,0,0,0,0,0,-1,1980,1499,0,0
763,-475,0,0,0,0,0,0,0,0,0,-1,1987,1499,0,0
770,-475,0,0,0,0,0,0,0,0,0,-1,1994,1499,0,0
777,-475,0,0,0,0,0,0,0,0,0,-1,2001,1499,0,0
784,-475,0,0,0,0,0,0,0,0,0,-1,2008,1499,0,0
791,-475,0,0,0,0,0,0,0,0,0,-1,2015,1499,0,0
798,-475,0,0,0,0,0,0,0,0,0,-1,2022,1499,0,0
805,-475,0,0,0,0,0,0,0,0,0,-1,2029,1499,0,0
812,-475,0,0,0,0,0,0,0,0,0,-1,2036,1499,0,0
-700,-482,0,0,0,0,0,0,0,0,0,-1,524,1506,0,0
-693,-482,0,0,0,0,0,0,0,0,0,-1,531,1506,0,0
-686,-482,0,0,0,0,0,0,0,0,0,-1,538,1506,0,0
-679,-482,0,0,0,0,0,0,0,0,0,-1,545,1506,0,0
-672,-482,0,0,0,0,0,0,0,0,0,-1,552,1506,0,0
-665,-482,0,0,0,0,0,0,0,0,0,-1,559,1506,0,0
-658,-482,0,0,0,0,0,0,0,0,0,-1,566,1506,0,0
-651,-482,0,0,0,0,0,0,0,0,0,-1,573,1506,0,0
-644,-482,0,0,0,0,0,0,0,0,0,-1,580,1506,0,0
-637,-482,0,0,0,0,0,0,0,0,0,-1,587,1506,0,0
-630,-482,0,0,0,0,0,0,0,0,0,-1,594,1506,0,0
-623,-482,0,0,0,0,0,0,0,0,0,-1,601,1506,0,0
-616,-482,0,0,0,0,0,0,0,0,0,-1,608,1506,0,0
-609,-482,0,0,0,0,0,0,0,0,0,-1,615,1506,0,0
-602,-482,0,0,0,0,0,0,0,0,0,-1,622,1506,0,0
-595,-482,0,0,0,0,0,0,0,0,0,-1,629,1506,0,0
-588,-482,0,0,0,0,0,0,0,0,0,-1,636,1506,0,0
-581,-482,0,0,0,0,0,0,0,0,0,-1,643,1506,0,0
-574,-482,0,0,0,0,0,0,0,0,0,-1,650,1506,0,0
-567,-482,0,0,0,0,0,0,0,0,0,-1,657,1506,0,0
-560,-482,0,0,0,0,0,0,0,0,0,-1,664,1506,0,0
-553,-482,-9.06055,9.34314,0,0,0,0,0,0,0,-1,671,1506,-9.06056,-9.34312
-546,-482,-4.08624,8.34241,0,0,0,0,0,0,0,-1,678,1506,-4.08624,-8.3424
-539,-482,-4.29877,2.73499,0,0,0,0,0,0,0,-1,685,1506,-4.29879,-2.73494
-532,-482,-3.63611,4.23987,0,0,0,0,0,0,0,-1,692,1506,-3.63609,-4.23983
-525,-482,-6.19116,5.24927,0,0,0,0,0,0,0,-1,699,1506,-6.19117,-5.24927
-518,-482,-5.92957,6.39807,0,0,0,0,0,0,0,-1,706,1506,-5.92958,-6.39806
-511,-482,-7.74634,11.9137,0,0,0,0,0,0,0,-1,713,1506,-7.74633,-11.9137
-504,-482,-6.42358,13.4211,0,0,0,0,0,0,0,-1,720,1506,-6.42356,-13.4212
-497,-482,-8.86163,17.7108,0,0,0,0,0,0,0,-1,727,1506,-8.86163,-17.7109
-490,-482,-12.3003,23.1886,0,0,0,0,0,0,0,-1,734,1506,-12.3003,-23.1886
-483,-482,-12.2674,24.0902,0.00314612,0.000956811,0.00395373,0.00615394,-0.00205101,0.650348,0.0049306,0.0128096,741,1506,-12.2674,-24.0902
-476,-482,-12.2899,24.9066,0.00217559,0.000246277,0.00269242,0.00407095,-0.00164908,0.613379,0.0033997,0.0109403,748,1506,-12.2899,-24.9067
-469,-482,-12.3706,25.7465,0.0015611,6.07578e-05,0.00196502,0.00291428,-0.00129242,0.603055,0.00248818,0.0144661,755,1506,-12.3706,-25.7465
-462,-482,-12.4078,26.5425,0.00124533,0.000290168,0.00157809,0.00241652,-0.000881022,0.638462,0.00197144,0.0151893,762,1506,-12.4078,-26.5425
-455,-482,-12.4337,27.3112,0.00122929,0.0008412,0.00151124,0.00255889,-0.000488399,0.721546,0.00188988,0.0132529,769,1506,-12.4337,-27.3111
-448,-482,-12.4875,28.1393,0.00156292,0.00185688,0.00184643,0.00356217,-0.000142368,0.825116,0.00242363,0.0138781,776,1506,-12.4875,-28.1393
-441,-482,-12.5359,28.9397,0.00214689,0.00311013,0.00244562,0.0051211,0.00013592,0.88262,0.00336968,0.0140922,783,1506,-12.5359,-28.9397
-434,-482,-12.5798,29.728,0.00302394,0.00465103,0.00334796,0.00728287,0.000392102,0.904587,0.00472997,0.0171528,790,1506,-12.5799,-29.7281
-427,-482,-12.6405,30.5704,0.00425496,0.00659227,0.00458612,0.0101563,0.000690934,0.910155,0.00655271,0.0218071,797,1506,-12.6405,-30.5704
-420,-482,-12.7377,31.4434,0,0,0,0,0,0,0,-1,804,1506,-12.7377,-31.4434
-413,-482,-6.56415,22.3163,0,0,0,0,0,0,0,-1,811,1506,-6.56417,-22.3163
-406,-482,-2.51373,12.7556,0,0,0,0,0,0,0,-1,818,1506,-2.51376,-12.7556
-399,-482,-1.3822,9.22595,0,0,0,0,0,0,0,-1,825,1506,-1.38221,-9.22598
-392,-482,-1.06836,9.22729,0,0,0,0,0,0,0,-1,832,1506,-1.06835,-9.2273
-385,-482,0.0647583,8.90649,0,0,0,0,0,0,0,-1,839,1506,0.0647778,-8.90644
-378,-482,0.215698,5.96948,0,0,0,0,0,0,0,-1,846,1506,0.215681,-5.9695
-371,-482,-0.10907,8.10437,0,0,0,0,0,0,0,-1,853,1506,-0.109063,-8.10433
-364,-482,-0.154968,10.5032,0,0,0,0,0,0,0,-1,860,1506,-0.154976,-10.5032
-357,-482,2.14807,4.60144,0,0,0,0,0,0,0,-1,867,1506,2.14807,-4.60144
-350,-482,-7.5813,-1.45935,0,0,0,0,0,0,0,-1,874,1506,-7.58133,1.45937
-343,-482,-5.80902,1.81226,0,0,0,0,0,0,0,-1,881,1506,-5.80903,-1.81221
-336,-482,2.52826,-0.390503,0,0,0,0,0,0,0,-1,888,1506,2.52826,0.390456
-329,-482,0,0,0,0,0,0,0,0,0,-1,895,1506,0,0
-322,-482,0,0,0,0,0,0,0,0,0,-1,902,1506,0,0
-315,-482,0,0,0,0,0,0,0,0,0,-1,909,1506,0,0
-308,-482,0,0,0,0,0,0,0,0,0,-1,916,1506,0,0
-301,-482,0,0,0,0,0,0,0,0,0,-1,923,1506,0,0
-294,-482,0,0,0,0,0,0,0,0,0,-1,930,1506,0,0
-287,-482,0,0,0,0,0,0,0,0,0,-1,937,1506,0,0
-280,-482,0,0,0,0,0,0,0,0,0,-1,944,1506,0,0
-273,-482,0,0,0,0,0,0,0,0,0,-1,951,1506,0,0
-266,-482,0,0,0,0,0,0,0,0,0,-1,958,1506,0,0
-259,-482,0,0,0,0,0,0,0,0,0,-1,965,1506,0,0
-252,-482,0,0,0,0,0,0,0,0,0,-1,972,1506,0,0
-245,-482,0,0,0,0,0,0,0,0,0,-1,979,1506,0,0
-238,-482,0,0,0,0,0,0,0,0,0,-1,986,1506,0,0
-231,-482,0,0,0,0,0,0,0,0,0,-1,993,1506,0,0
-224,-482,0,0,0,0,0,0,0,0,0,-1,1000,1506,0,0
-217,-482,0,0,0,0,0,0,0,0,0,-1,1007,1506,0,0
-210,-482,0,0,0,0,0,0,0,0,0,-1,1014,1506,0,0
-203,-482,0,0,0,0,0,0,0,0,0,-1,1021,1506,0,0
-196,-482,0,0,0,0,0,0,0,0,0,-1,1028,1506,0,0
-189,-482,0,0,0,0,0,0,0,0,0,-1,1035,1506,0,0
-182,-482,0,0,0,0,0,0,0,0,0,-1,1042,1506,0,0
-175,-482,0,0,0,0,0,0,0,0,0,-1,1049,1506,0,0
-168,-482,0,0,0,0,0,0,0,0,0,-1,1056,1506,0,0
-161,-482,0,0,0,0,0,0,0,0,0,-1,1063,1506,0,0
-154,-482,0,0,0,0,0,0,0,0,0,-1,1070,1506,0,0
-147,-482,0,0,0,0,0,0,0,0,0,-1,1077,1506,0,0
-140,-482,0,0,0,0,0,0,0,0,0,-1,1084,1506,0,0
-133,-482,0,0,0,0,0,0,0,0,0,-1,1091,1506,0,0
-126,-482,0,0,0,0,0,0,0,0,0,-1,1098,1506,0,0
-119,-482,0,0,0,0,0,0,0,0,0,-1,1105,1506,0,0
-112,-482,0,0,0,0,0,0,0,0,0,-1,1112,1506,0,0
-105,-482,0,0,0,0,0,0,0,0,0,-1,1119,1506,0,0
-98,-482,0,0,0,0,0,0,0,0,0,-1,1126,1506,0,0
-91,-482,0,0,0,0,0,0,0,0,0,-1,1133,1506,0,0
-84,-482,0,0,0,0,0,0,0,0,0,-1,1140,1506,0,0
-77,-482,0,0,0,0,0,0,0,0,0,-1,1147,1506,0,0
-70,-482,0,0,0,0,0,0,0,0,0,-1,1154,1506,0,0
-63,-482,0,0,0,0,0,0,0,0,0,-1,1161,1506,0,0
-56,-482,0,0,0,0,0,0,0,0,0,-1,1168,1506,0,0
-49,-482,0,0,0,0,0,0,0,0,0,-1,1175,1506,0,0
-42,-482,0,0,0,0,0,0,0,0,0,-1,1182,1506,0,0
-35,-482,0,0,0,0,0,0,0,0,0,-1,1189,1506,0,0
-28,-482,0,0,0,0,0,0,0,0,0,-1,1196,1506,0,0
-21,-482,0,0,0,0,0,0,0,0,0,-1,1203,1506,0,0
-14,-482,0,0,0,0,0,0,0,0,0,-1,1210,1506,0,0
-7,-482,0,0,0,0,0,0,0,0,0,-1,1217,1506,0,0
0,-482,0,0,0,0,0,0,0,0,0,-1,1224,1506,0,0
7,-482,0,0,0,0,0,0,0,0,0,-1,1231,1506,0,0
14,-482,0,0,0,0,0,0,0,0,0,-1,1238,1506,0,0
21,-482,0,0,0,0,0,0,0,0,0,-1,1245,1506,0,0
28,-482,0,0,0,0,0,0,0,0,0,-1,1252,1506,0,0
35,-482,0,0,0,0,0,0,0,0,0,-1,1259,1506,0,0
42,-482,0,0,0,0,0,0,0,0,0,-1,1266,1506,0,0
49,-482,0,0,0,0,0,0,0,0,0,-1,1273,1506,0,0
56,-482,0,0,0,0,0,0,0,0,0,-1,1280,1506,0,0
63,-482,0,0,0,0,0,0,0,0,0,-1,1287,1506,0,0
70,-482,0,0,0,0,0,0,0,0,0,-1,1294,1506,0,0
77,-482,0,0,0,0,0,0,0,0,0,-1,1301,1506,0,0
84,-482,0,0,0,0,0,0,0,0,0,-1,1308,1506,0,0
91,-482,0,0,0,0,0,0,0,0,0,-1,1315,1506,0,0
98,-482,0,0,0,0,0,0,0,0,0,-1,1322,1506,0,0
105,-482,0,0,0,0,0,0,0,0,0,-1,1329,1506,0,0
112,-482,0,0,0,0,0,0,0,0,0,-1,1336,1506,0,0
119,-482,0,0,0,0,0,0,0,0,0,-1,1343,1506,0,0
126,-482,0,0,0,0,0,0,0,0,0,-1,1350,1506,0,0
133,-482,0,0,0,0,0,0,0,0,0,-1,1357,1506,0,0
140,-482,0,0,0,0,0,0,0,0,0,-1,1364,1506,0,0
147,-482,0,0,0,0,0,0,0,0,0,-1,1371,1506,0,0
154,-482,0,0,0,0,0,0,0,0,0,-1,1378,1506,0,0
161,-482,0,0,0,0,0,0,0,0,0,-1,1385,1506,0,0
168,-482,0,0,0,0,0,0,0,0,0,-1,1392,1506,0,0
175,-482,0,0,0,0,0,0,0,0,0,-1,1399,1506,0,0
182,-482,0,0,0,0,0,0,0,0,0,-1,1406,1506,0,0
189,-482,0,0,0,0,0,0,0,0,0,-1,1413,1506,0,0
196,-482,0,0,0,0,0,0,0,0,0,-1,1420,1506,0,0
203,-482,0,0,0,0,0,0,0,0,0,-1,1427,1506,0,0
210,-482,0,0,0,0,0,0,0,0,0,-1,1434,1506,0,0
217,-482,0,0,0,0,0,0,0,0,0,-1,1441,1506,0,0
224,-482,0,0,0,0,0,0,0,0,0,-1,1448,1506,0,0
231,-482,0,0,0,0,0,0,0,0,0,-1,1455,1506,0,0
238,-482,0,0,0,0,0,0,0,0,0,-1,1462,1506,0,0
245,-482,0,0,0,0,0,0,0,0,0,-1,1469,1506,0,0
252,-482,0,0,0,0,0,0,0,0,0,-1,1476,1506,0,0
259,-482,0,0,0,0,0,0,0,0,0,-1,1483,1506,0,0
266,-482,0,0,0,0,0,0,0,0,0,-1,1490,1506,0,0
273,-482,0,0,0,0,0,0,0,0,0,-1,1497,1506,0,0
280,-482,0,0,0,0,0,0,0,0,0,-1,1504,1506,0,0
287,-482,0,0,0,0,0,0,0,0,0,-1,1511,1506,0,0
294,-482,0,0,0,0,0,0,0,0,0,-1,1518,1506,0,0
301,-482,0,0,0,0,0,0,0,0,0,-1,1525,1506,0,0
308,-482,0,0,0,0,0,0,0,0,0,-1,1532,1506,0,0
315,-482,0,0,0,0,0,0,0,0,0,-1,1539,1506,0,0
322,-482,0,0,0,0,0,0,0,0,0,-1,1546,1506,0,0
329,-482,0,0,0,0,0,0,0,0,0,-1,1553,1506,0,0
336,-482,0,0,0,0,0,0,0,0,0,-1,1560,1506,0,0
343,-482,0,0,0,0,0,0,0,0,0,-1,1567,1506,0,0
350,-482,0,0,0,0,0,0,0,0,0,-1,1574,1506,0,0
357,-482,0,0,0,0,0,0,0,0,0,-1,1581,1506,0,0
364,-482,0,0,0,0,0,0,0,0,0,-1,1588,1506,0,0
371,-482,0,0,0,0,0,0,0,0,0,-1,1595,1506,0,0
378,-482,0,0,0,0,0,0,0,0,0,-1,1602,1506,0,0
385,-482,0,0,0,0,0,0,0,0,0,-1,1609,1506,0,0
392,-482,0,0,0,0,0,0,0,0,0,-1,1616,1506,0,0
399,-482,0,0,0,0,0,0,0,0,0,-1,1623,1506,0,0
406,-482,0,0,0,0,0,0,0,0,0,-1,1630,1506,0,0
413,-482,0,0,0,0,0,0,0,0,0,-1,1637,1506,0,0
420,-482,0,0,0,0,0,0,0,0,0,-1,1644,1506,0,0
427,-482,0,0,0,0,0,0,0,0,0,-1,1651,1506,0,0
434,-482,0,0,0,0,0,0,0,0,0,-1,1658,1506,0,0
441,-482,0,0,0,0,0,0,0,0,0,-1,1665,1506,0,0
448,-482,4.24146,1.55383,0,0,0,0,0,0,0,-1,1672,1506,4.24149,-1.55381
455,-482,12.4122,1.09729,0,0,0,0,0,0,0,-1,1679,1506,12.4122,-1.09734
462,-482,15.0673,3.13135,0,0,0,0,0,0,0,-1,1686,1506,15.0672,-3.13134
469,-482,15.3793,3.46301,0,0,0,0,0,0,0,-1,1693,1506,15.3793,-3.46307
476,-482,8.69751,9.18738,0,0,0,0,0,0,0,-1,1700,1506,8.69753,-9.18739
483,-482,10.0902,7.17432,0,0,0,0,0,0,0,-1,1707,1506,10.0902,-7.1743
490,-482,11.6289,5.4928,0,0,0,0,0,0,0,-1,1714,1506,11.6289,-5.49283
497,-482,15.9539,7.40222,0,0,0,0,0,0,0,-1,1721,1506,15.9538,-7.40219
504,-482,20.4233,12.006,0,0,0,0,0,0,0,-1,1728,1506,20.4233,-12.006
511,-482,18.4937,12.9175,0,0,0,0,0,0,0,-1,1735,1506,18.4936,-12.9174
518,-482,16.6002,13.9679,0,0,0,0,0,0,0,-1,1742,1506,16.6003,-13.9679
525,-482,18.495,15.9618,0,0,0,0,0,0,0,-1,1749,1506,18.495,-15.9618
532,-482,19.9375,21.0775,0,0,0,0,0,0,0,-1,1756,1506,19.9375,-21.0775
539,-482,20.2291,20.5577,0,0,0,0,0,0,0,-1,1763,1506,20.2291,-20.5578
546,-482,29.9565,32.4075,0,0,0,0,0,0,0,-1,1770,1506,29.9566,-32.4075
553,-482,29.8358,31.3534,0,0,0,0,0,0,0,-1,1777,1506,29.8358,-31.3534
560,-482,29.9445,30.4955,0.00772664,0.00280613,-0.00274291,0.008951,0.00158177,-0.419834,0.0055162,0.0179223,1784,1506,29.9444,-30.4955
567,-482,30.0137,29.7009,0.00610974,0.00195406,-0.00199368,0.00691151,0.00115229,-0.382365,0.00427565,0.0168807,1791,1506,30.0136,-29.7009
574,-482,29.9567,28.9709,0.00482631,0.00136844,-0.00150764,0.00539132,0.000803424,-0.358566,0.00335859,0.0156639,1798,1506,29.9567,-28.9709
581,-482,29.8993,28.2179,0.00375389,0.000898485,-0.00111881,0.00414004,0.000512333,-0.332343,0.00260609,0.0108698,1805,1506,29.8992,-28.2179
588,-482,29.8535,27.4257,0.00295197,0.000525096,-0.000810802,0.00319793,0.000279139,-0.294527,0.00204526,0.0112875,1812,1506,29.8535,-27.4257
595,-482,29.8328,26.6379,0.0024187,0.000172876,-0.000463913,0.00251075,8.08209e-05,-0.195889,0.00164756,0.0166953,1819,1506,29.8327,-26.6379
602,-482,29.8081,25.8878,0.00199029,-0.000117,-0.000171957,0.00200422,-0.000130939,-0.0808883,0.00138187,0.0198985,1826,1506,29.8081,-25.8879
609,-482,29.7635,25.1217,0.00167422,-0.000369946,0.000214664,0.00169652,-0.000392246,0.103509,0.00128192,0.0159306,1833,1506,29.7635,-25.1216
616,-482,29.6871,24.3387,0.00157989,-0.000758439,0.00077694,0.0018145,-0.000993048,0.293259,0.00164391,0.012157,1840,1506,29.6872,-24.3387
623,-482,29.6447,23.5444,0.00154636,-0.00129837,0.00159363,0.00226006,-0.00201207,0.421061,0.0024679,0.0196719,1847,1506,29.6447,-23.5444
630,-482,29.5953,22.8177,0.00132046,-0.00182962,0.00272823,0.00289566,-0.00340482,0.523613,0.00364154,0.0432222,1854,1506,29.5953,-22.8178
637,-482,29.5289,22.0344,0,0,0,0,0,0,0,-1,1861,1506,29.5289,-22.0345
644,-482,29.0146,20.1443,0,0,0,0,0,0,0,-1,1868,1506,29.0147,-20.1442
651,-482,4.03845,7.05273,0,0,0,0,0,0,0,-1,1875,1506,4.03843,-7.05279
658,-482,10.0278,5.87903,0,0,0,0,0,0,0,-1,1882,1506,10.0279,-5.87902
665,-482,8.15198,3.22229,0,0,0,0,0,0,0,-1,1889,1506,8.15199,-3.22232
672,-482,9.87415,1.3147,0,0,0,0,0,0,0,-1,1896,1506,9.87416,-1.31473
679,-482,0,0,0,0,0,0,0,0,0,-1,1903,1506,0,0
686,-482,0,0,0,0,0,0,0,0,0,-1,1910,1506,0,0
693,-482,0,0,0,0,0,0,0,0,0,-1,1917,1506,0,0
700,-482,0,0,0,0,0,0,0,0,0,-1,1924,1506,0,0
707,-482,0,0,0,0,0,0,0,0,0,-1,1931,1506,0,0
714,-482,0,0,0,0,0,0,0,0,0,-1,1938,1506,0,0
721,-482,0,0,0,0,0,0,0,0,0,-1,1945,1506,0,0
728,-482,0,0,0,0,0,0,0,0,0,-1,1952,1506,0,0
735,-482,0,0,0,0,0,0,0,0,0,-1,1959,1506,0,0
742,-482,0,0,0,0,0,0,0,0,0,-1,1966,1506,0,0
749,-482,0,0,0,0,0,0,0,0,0,-1,1973,1506,0,0
756,-482,0,0,0,0,0,0,0,0,0,-1,1980,1506,0,0
763,-482,0,0,0,0,0,0,0,0,0,-1,1987,1506,0,0
770,-482,0,0,0,0,0,0,0,0,0,-1,1994,1506,0,0
777,-482,0,0,0,0,0,0,0,0,0,-1,2001,1506,0,0
784,-482,0,0,0,0,0,0,0,0,0,-1,2008,1506,0,0
791,-482,0,0,0,0,0,0,0,0,0,-1,2015,1506,0,0
798,-482,0,0,0,0,0,0,0,0,0,-1,2022,1506,0,0
805,-482,0,0,0,0,0,0,0,0,0,-1,2029,1506,0,0
812,-482,0,0,0,0,0,0,0,0,0,-1,2036,1506,0,0
-700,-489,0,0,0,0,0,0,0,0,0,-1,524,1513,0,0
-693,-489,0,0,0,0,0,0,0,0,0,-1,531,1513,0,0
-686,-489,0,0,0,0,0,0,0,0,0,-1,538,1513,0,0
-679,-489,0,0,0,0,0,0,0,0,0,-1,545,1513,0,0
-672,-489,0,0,0,0,0,0,0,0,0,-1,552,1513,0,0
-665,-489,0,0,0,0,0,0,0,0,0,-1,559,1513,0,0
-658,-489,0,0,0,0,0,0,0,0,0,-1,566,1513,0,0
-651,-489,0,0,0,0,0,0,0,0,0,-1,573,1513,0,0
-644,-489,0,0,0,0,0,0,0,0,0,-1,580,1513,0,0
-637,-489,0,0,0,0,0,0,0,0,0,-1,587,1513,0,0
-630,-489,0,0,0,0,0,0,0,0,0,-1,594,1513,0,0
-623,-489,0,0,0,0,0,0,0,0,0,-1,601,1513,0,0
-616,-489,0,0,0,0,0,0,0,0,0,-1,608,1513,0,0
-609,-489,0,0,0,0,0,0,0,0,0,-1,615,1513,0,0
-602,-489,0,0,0,0,0,0,0,0,0,-1,622,1513,0,0
-595,-489,0,0,0,0,0,0,0,0,0,-1,629,1513,0,0
-588,-489,0,0,0,0,0,0,0,0,0,-1,636,1513,0,0
-581,-489,0,0,0,0,0,0,0,0,0,-1,643,1513,0,0
-574,-489,0,0,0,0,0,0,0,0,0,-1,650,1513,0,0
-567,-489,0,0,0,0,0,0,0,0,0,-1,657,1513,0,0
-560,-489,0,0,0,0,0,0,0,0,0,-1,664,1513,0,0
-553,-489,-9.42206,8.5116,0,0,0,0,0,0,0,-1,671,1513,-9.42205,-8.51158
-546,-489,-7.80951,8.18506,0,0,0,0,0,0,0,-1,678,1513,-7.8095,-8.18503
-539,-489,-3.06879,2.82349,0,0,0,0,0,0,0,-1,685,1513,-3.06881,-2.82354
-532,-489,-3.14215,2.5835,0,0,0,0,0,0,0,-1,692,1513,-3.14213,-2.58353
-525,-489,-2.604,4.06274,0,0,0,0,0,0,0,-1,699,1513,-2.60399,-4.06274
-518,-489,-5.43774,7.48059,0,0,0,0,0,0,0,-1,706,1513,-5.43777,-7.48058
-511,-489,-7.52856,10.951,0,0,0,0,0,0,0,-1,713,1513,-7.52857,-10.951
-504,-489,-7.17352,12.8508,0,0,0,0,0,0,0,-1,720,1513,-7.17352,-12.8508
-497,-489,-5.51678,14.9254,0,0,0,0,0,0,0,-1,727,1513,-5.51681,-14.9254
-490,-489,-11.6562,23.0392,0,0,0,0,0,0,0,-1,734,1513,-11.6562,-23.0392
-483,-489,-11.5348,23.9581,0.00335445,-0.00016183,0.00422537,0.00617286,-0.00298024,0.588248,0.00539064,0.0357289,741,1513,-11.5348,-23.9581
-476,-489,-11.5215,24.915,0.00223398,-0.000850793,0.00276298,0.00385593,-0.00247274,0.530827,0.00368284,0.0117355,748,1513,-11.5215,-24.915
-469,-489,-11.5612,25.7562,0.0015017,-0.00099251,0.00193361,0.00255549,-0.0020463,0.498986,0.00266226,0.0118913,755,1513,-11.5612,-25.7562
-462,-489,-11.598,26.5398,0.00108007,-0.000666537,0.00145876,0.00190696,-0.00149343,0.515682,0.00196805,0.016615,762,1513,-11.598,-26.5398
-455,-489,-11.6523,27.3495,0.000983769,-2.97356e-05,0.00131304,0.00188445,-0.000930418,0.601235,0.00165599,0.0196883,769,1513,-11.6523,-27.3495
-448,-489,-11.7162,28.1599,0.00122605,0.00100042,0.0015343,0.00265168,-0.00042521,0.748699,0.00192524,0.0170864,776,1513,-11.7162,-28.1599
-441,-489,-11.7262,28.9736,0.00171909,0.00223629,0.00201756,0.00401176,-5.63818e-05,0.849137,0.00269349,0.0152952,783,1513,-11.7262,-28.9736
-434,-489,-11.8049,29.7866,0.00247488,0.0037154,0.00277327,0.00593692,0.000253351,0.895416,0.00387626,0.0187629,790,1513,-11.8049,-29.7866
-427,-489,-11.8971,30.5791,0.0035126,0.00541158,0.0037715,0.00835128,0.000572903,0.908712,0.00538671,0.0205436,797,1513,-11.8971,-30.5791
-420,-489,-11.9577,31.499,0.00486073,0.00728276,0.00504996,0.0112649,0.000878611,0.903079,0.00723486,0.0287297,804,1513,-11.9577,-31.4991
-413,-489,-11.897,32.5172,0,0,0,0,0,0,0,-1,811,1513,-11.897,-32.5172
-406,-489,-3.10559,15.8143,0,0,0,0,0,0,0,-1,818,1513,-3.10556,-15.8143
-399,-489,-1.41241,9.10718,0,0,0,0,0,0,0,-1,825,1513,-1.41244,-9.10722
-392,-489,-1.0368,9.30469,0,0,0,0,0,0,0,-1,832,1513,-1.03682,-9.30466
-385,-489,-1.75165,10.6559,0,0,0,0,0,0,0,-1,839,1513,-1.75165,-10.6559
-378,-489,-0.401428,9.87048,0,0,0,0,0,0,0,-1,846,1513,-0.401415,-9.87047
-371,-489,-1.11633,10.6606,0,0,0,0,0,0,0,-1,853,1513,-1.11633,-10.6606
-364,-489,-0.503113,8.98486,0,0,0,0,0,0,0,-1,860,1513,-0.503097,-8.98482
-357,-489,-0.609924,10.9606,0,0,0,0,0,0,0,-1,867,1513,-0.609947,-10.9605
-350,-489,-7.94659,-0.358887,0,0,0,0,0,0,0,-1,874,1513,-7.94657,0.358912
-343,-489,-7.49323,-0.437866,0,0,0,0,0,0,0,-1,881,1513,-7.49322,0.437823
-336,-489,-7.02332,-0.53125,0,0,0,0,0,0,0,-1,888,1513,-7.0233,0.531295
-329,-489,-13.2786,4.96082,0,0,0,0,0,0,0,-1,895,1513,-13.2785,-4.96077
-322,-489,0,0,0,0,0,0,0,0,0,-1,902,1513,0,0
-315,-489,0,0,0,0,0,0,0,0,0,-1,909,1513,0,0
-308,-489,0,0,0,0,0,0,0,0,0,-1,916,1513,0,0
-301,-489,0,0,0,0,0,0,0,0,0,-1,923,1513,0,0
-294,-489,0,0,0,0,0,0,0,0,0,-1,930,1513,0,0
-287,-489,0,0,0,0,0,0,0,0,0,-1,937,1513,0,0
-280,-489,0,0,0,0,0,0,0,0,0,-1,944,1513,0,0
-273,-489,0,0,0,0,0,0,0,0,0,-1,951,1513,0,0
-266,-489,0,0,0,0,0,0,0,0,0,-1,958,1513,0,0
-259,-489,0,0,0,0,0,0,0,0,0,-1,965,1513,0,0
-252,-489,0,0,0,0,0,0,0,0,0,-1,972,1513,0,0
-245,-489,0,0,0,0,0,0,0,0,0,-1,979,1513,0,0
-238,-489,0,0,0,0,0,0,0,0,0,-1,986,1513,0,0
-231,-489,0,0,0,0,0,0,0,0,0,-1,993,1513,0,0
-224,-489,0,0,0,0,0,0,0,0,0,-1,1000,1513,0,0
-217,-489,0,0,0,0,0,0,0,0,0,-1,1007,1513,0,0
-210,-489,0,0,0,0,0,0,0,0,0,-1,1014,1513,0,0
-203,-489,0,0,0,0,0,0,0,0,0,-1,1021,1513,0,0
-196,-489,0,0,0,0,0,0,0,0,0,-1,1028,1513,0,0
-189,-489,0,0,0,0,0,0,0,0,0,-1,1035,1513,0,0
-182,-489,0,0,0,0,0,0,0,0,0,-1,1042,1513,0,0
-175,-489,0,0,0,0,0,0,0,0,0,-1,1049,1513,0,0
-168,-489,0,0,0,0,0,0,0,0,0,-1,1056,1513,0,0
-161,-489,0,0,0,0,0,0,0,0,0,-1,1063,1513,0,0
-154,-489,0,0,0,0,0,0,0,0,0,-1,1070,1513,0,0
-147,-489,0,0,0,0,0,0,0,0,0,-1,1077,1513,0,0
-140,-489,0,0,0,0,0,0,0,0,0,-1,1084,1513,0,0
-133,-489,0,0,0,0,0,0,0,0,0,-1,1091,1513,0,0
-126,-489,0,0,0,0,0,0,0,0,0,-1,1098,1513,0,0
-119,-489,0,0,0,0,0,0,0,0,0,-1,1105,1513,0,0
-112,-489,0,0,0,0,0,0,0,0,0,-1,1112,1513,0,0
-105,-489,0,0,0,0,0,0,0,0,0,-1,1119,1513,0,0
-98,-489,0,0,0,0,0,0,0,0,0,-1,1126,1513,0,0
-91,-489,0,0,0,0,0,0,0,0,0,-1,1133,1513,0,0
-84,-489,0,0,0,0,0,0,0,0,0,-1,1140,1513,0,0
-77,-489,0,0,0,0,0,0,0,0,0,-1,1147,1513,0,0
-70,-489,0,0,0,0,0,0,0,0,0,-1,1154,1513,0,0
-63,-489,0,0,0,0,0,0,0,0,0,-1,1161,1513,0,0
-56,-489,0,0,0,0,0,0,0,0,0,-1,1168,1513,0,0
-49,-489,0,0,0,0,0,0,0,0,0,-1,1175,1513,0,0
-42,-489,0,0,0,0,0,0,0,0,0,-1,1182,1513,0,0
-35,-489,0,0,0,0,0,0,0,0,0,-1,1189,1513,0,0
-28,-489,0,0,0,0,0,0,0,0,0,-1,1196,1513,0,0
-21,-489,0,0,0,0,0,0,0,0,0,-1,1203,1513,0,0
-14,-489,0,0,0,0,0,0,0,0,0,-1,1210,1513,0,0
-7,-489,0,0,0,0,0,0,0,0,0,-1,1217,1513,0,0
0,-489,0,0,0,0,0,0,0,0,0,-1,1224,1513,0,0
7,-489,0,0,0,0,0,0,0,0,0,-1,1231,1513,0,0
14,-489,0,0,0,0,0,0,0,0,0,-1,1238,1513,0,0
21,-489,0,0,0,0,0,0,0,0,0,-1,1245,1513,0,0
28,-489,0,0,0,0,0,0,0,0,0,-1,1252,1513,0,0
35,-489,0,0,0,0,0,0,0,0,0,-1,1259,1513,0,0
42,-489,0,0,0,0,0,0,0,0,0,-1,1266,1513,0,0
49,-489,0,0,0,0,0,0,0,0,0,-1,1273,1513,0,0
56,-489,0,0,0,0,0,0,0,0,0,-1,1280,1513,0,0
63,-489,0,0,0,0,0,0,0,0,0,-1,1287,1513,0,0
70,-489,0,0,0,0,0,0,0,0,0,-1,1294,1513,0,0
77,-489,0,0,0,0,0,0,0,0,0,-1,1301,1513,0,0
84,-489,0,0,0,0,0,0,0,0,0,-1,1308,1513,0,0
91,-489,0,0,0,0,0,0,0,0,0,-1,1315,1513,0,0
98,-489,0,0,0,0,0,0,0,0,0,-1,1322,1513,0,0
105,-489,0,0,0,0,0,0,0,0,0,-1,1329,1513,0,0
112,-489,0,0,0,0,0,0,0,0,0,-1,1336,1513,0,0
119,-489,0,0,0,0,0,0,0,0,0,-1,1343,1513,0,0
126,-489,0,0,0,0,0,0,0,0,0,-1,1350,1513,0,0
133,-489,0,0,0,0,0,0,0,0,0,-1,1357,1513,0,0
140,-489,0,0,0,0,0,0,0,0,0,-1,1364,1513,0,0
147,-489,0,0,0,0,0,0,0,0,0,-1,1371,1513,0,0
154,-489,0,0,0,0,0,0,0,0,0,-1,1378,1513,0,0
161,-489,0,0,0,0,0,0,0,0,0,-1,1385,1513,0,0
168,-489,0,0,0,0,0,0,0,0,0,-1,1392,1513,0,0
175,-489,0,0,0,0,0,0,0,0,0,-1,1399,1513,0,0
182,-489,0,0,0,0,0,0,0,0,0,-1,1406,1513,0,0
189,-489,0,0,0,0,0,0,0,0,0,-1,1413,1513,0,0
196,-489,0,0,0,0,0,0,0,0,0,-1,1420,1513,0,0
203,-489,0,0,0,0,0,0,0,0,0,-1,1427,1513,0,0
210,-489,0,0,0,0,0,0,0,0,0,-1,1434,1513,0,0
217,-489,0,0,0,0,0,0,0,0,0,-1,1441,1513,0,0
224,-489,0,0,0,0,0,0,0,0,0,-1,1448,1513,0,0
231,-489,0,0,0,0,0,0,0,0,0,-1,1455,1513,0,0
238,-489,0,0,0,0,0,0,0,0,0,-1,1462,1513,0,0
245,-489,0,0,0,0,0,0,0,0,0,-1,1469,1513,0,0
252,-489,0,0,0,0,0,0,0,0,0,-1,1476,1513,0,0
259,-489,0,0,0,0,0,0,0,0,0,-1,1483,1513,0,0
266,-489,0,0,0,0,0,0,0,0,0,-1,1490,1513,0,0
273,-489,0,0,0,0,0,0,0,0,0,-1,1497,1513,0,0
280,-489,0,0,0,0,0,0,0,0,0,-1,1504,1513,0,0
287,-489,0,0,0,0,0,0,0,0,0,-1,1511,1513,0,0
294,-489,0,0,0,0,0,0,0,0,0,-1,1518,1513,0,0
301,-489,0,0,0,0,0,0,0,0,0,-1,1525,1513,0,0
308,-489,0,0,0,0,0,0,0,0,0,-1,1532,1513,0,0
315,-489,0,0,0,0,0,0,0,0,0,-1,1539,1513,0,0
322,-489,0,0,0,0,0,0,0,0,0,-1,1546,1513,0,0
329,-489,0,0,0,0,0,0,0,0,0,-1,1553,1513,0,0
336,-489,0,0,0,0,0,0,0,0,0,-1,1560,1513,0,0
343,-489,0,0,0,0,0,0,0,0,0,-1,1567,1513,0,0
350,-489,0,0,0,0,0,0,0,0,0,-1,1574,1513,0,0
357,-489,0,0,0,0,0,0,0,0,0,-1,1581,1513,0,0
364,-489,0,0,0,0,0,0,0,0,0,-1,1588,1513,0,0
371,-489,0,0,0,0,0,0,0,0,0,-1,1595,1513,0,0
378,-489,0,0,0,0,0,0,0,0,0,-1,1602,1513,0,0
385,-489,0,0,0,0,0,0,0,0,0,-1,1609,1513,0,0
392,-489,0,0,0,0,0,0,0,0,0,-1,1616,1513,0,0
399,-489,0,0,0,0,0,0,0,0,0,-1,1623,1513,0,0
406,-489,0,0,0,0,0,0,0,0,0,-1,1630,1513,0,0
413,-489,0,0,0,0,0,0,0,0,0,-1,1637,1513,0,0
420,-489,0,0,0,0,0,0,0,0,0,-1,1644,1513,0,0
427,-489,0,0,0,0,0,0,0,0,0,-1,1651,1513,0,0
434,-489,0,0,0,0,0,0,0,0,0,-1,1658,1513,0,0
441,-489,11.4602,2.56787,0,0,0,0,0,0,0,-1,1665,1513,11.4602,-2.56786
448,-489,12.4425,1.72351,0,0,0,0,0,0,0,-1,1672,1513,12.4425,-1.72349
455,-489,12.5575,1.37463,0,0,0,0,0,0,0,-1,1679,1513,12.5575,-1.37469
462,-489,14.9784,3.84888,0,0,0,0,0,0,0,-1,1686,1513,14.9784,-3.84892
469,-489,15.1367,4.53101,0,0,0,0,0,0,0,-1,1693,1513,15.1368,-4.531
476,-489,15.5536,5.09338,0,0,0,0,0,0,0,-1,1700,1513,15.5536,-5.09339
483,-489,8.96912,8.37805,0,0,0,0,0,0,0,-1,1707,1513,8.96909,-8.37809
490,-489,10.5366,7.49561,0,0,0,0,0,0,0,-1,1714,1513,10.5367,-7.49558
497,-489,14.6051,11.8397,0,0,0,0,0,0,0,-1,1721,1513,14.6051,-11.8397
504,-489,16.7527,14.1735,0,0,0,0,0,0,0,-1,1728,1513,16.7527,-14.1735
511,-489,17.83,17.7993,0,0,0,0,0,0,0,-1,1735,1513,17.83,-17.7993
518,-489,16.4751,14.3682,0,0,0,0,0,0,0,-1,1742,1513,16.4751,-14.3682
525,-489,17.2606,17.4949,0,0,0,0,0,0,0,-1,1749,1513,17.2606,-17.4949
532,-489,19.397,21.0182,0,0,0,0,0,0,0,-1,1756,1513,19.397,-21.0182
539,-489,29.0701,33.3014,0,0,0,0,0,0,0,-1,1763,1513,29.07,-33.3013
546,-489,29.2777,32.309,0.0103034,0.00558946,-0.00511454,0.0135779,0.00231493,-0.569483,0.00838749,0.0414434,1770,1513,29.2778,-32.309
553,-489,29.2448,31.3711,0.00818142,0.00399144,-0.00366931,0.0103117,0.00186117,-0.526006,0.00634571,0.0243496,1777,1513,29.2448,-31.3711
560,-489,29.2555,30.5234,0.00648251,0.00275183,-0.00256471,0.00778848,0.00144585,-0.470988,0.00478377,0.0143037,1784,1513,29.2555,-30.5234
567,-489,29.2578,29.7604,0.00514472,0.00187705,-0.0018334,0.00596665,0.00105512,-0.421447,0.00367687,0.016717,1791,1513,29.2579,-29.7604
574,-489,29.1758,29.0509,0.00410073,0.00125807,-0.00133742,0.00463104,0.000727771,-0.377496,0.00287563,0.0169846,1798,1513,29.1758,-29.0509
581,-489,29.1541,28.2555,0.00323101,0.000746297,-0.000947994,0.00355139,0.000425918,-0.325904,0.00223916,0.0114692,1805,1513,29.154,-28.2555
588,-489,29.1071,27.4653,0.00261067,0.000365863,-0.000663783,0.00279226,0.000184273,-0.267034,0.00180322,0.0130837,1812,1513,29.107,-27.4653
595,-489,29.0652,26.7222,0.00224058,3.84382e-05,-0.000353703,0.002296,-1.6978e-05,-0.155411,0.00153636,0.020266,1819,1513,29.0651,-26.7221
602,-489,29.0381,25.97,0.00197636,-0.000190852,-0.000112658,0.0019822,-0.000196692,-0.0517968,0.00139167,0.0257781,1826,1513,29.0381,-25.97
609,-489,28.9817,25.1818,0.00180755,-0.000417342,0.000224044,0.00182988,-0.000439679,0.0993698,0.00138986,0.0178259,1833,1513,28.9816,-25.1818
616,-489,28.9442,24.3617,0.00193837,-0.000835615,0.000776788,0.00214108,-0.00103832,0.255264,0.00187207,0.0227712,1840,1513,28.9442,-24.3617
623,-489,29.0201,23.556,0,0,0,0,0,0,0,-1,1847,1513,29.0202,-23.556
630,-489,28.9771,22.7792,0,0,0,0,0,0,0,-1,1854,1513,28.9771,-22.7791
637,-489,17.2048,11.8091,0,0,0,0,0,0,0,-1,1861,1513,17.2048,-11.8091
644,-489,9.67578,8.45874,0,0,0,0,0,0,0,-1,1868,1513,9.67576,-8.45879
651,-489,6.13818,6.85095,0,0,0,0,0,0,0,-1,1875,1513,6.13823,-6.85097
658,-489,5.43848,7.75513,0,0,0,0,0,0,0,-1,1882,1513,5.43844,-7.75509
665,-489,5.48438,8.59912,0,0,0,0,0,0,0,-1,1889,1513,5.48434,-8.59907
672,-489,0,0,0,0,0,0,0,0,0,-1,1896,1513,0,0
679,-489,0,0,0,0,0,0,0,0,0,-1,1903,1513,0,0
686,-489,0,0,0,0,0,0,0,0,0,-1,1910,1513,0,0
693,-489,0,0,0,0,0,0,0,0,0,-1,1917,1513,0,0
700,-489,0,0,0,0,0,0,0,0,0,-1,1924,1513,0,0
707,-489,0,0,0,0,0,0,0,0,0,-1,1931,1513,0,0
714,-489,0,0,0,0,0,0,0,0,0,-1,1938,1513,0,0
721,-489,0,0,0,0,0,0,0,0,0,-1,1945,1513,0,0
728,-489,0,0,0,0,0,0,0,0,0,-1,1952,1513,0,0
735,-489,0,0,0,0,0,0,0,0,0,-1,1959,1513,0,0
742,-489,0,0,0,0,0,0,0,0,0,-1,1966,1513,0,0
749,-489,0,0,0,0,0,0,0,0,0,-1,1973,1513,0,0
756,-489,0,0,0,0,0,0,0,0,0,-1,1980,1513,0,0
763,-489,0,0,0,0,0,0,0,0,0,-1,1987,1513,0,0
770,-489,0,0,0,0,0,0,0,0,0,-1,1994,1513,0,0
777,-489,0,0,0,0,0,0,0,0,0,-1,2001,1513,0,0
784,-489,0,0,0,0,0,0,0,0,0,-1,2008,1513,0,0
791,-489,0,0,0,0,0,0,0,0,0,-1,2015,1513,0,0
798,-489,0,0,0,0,0,0,0,0,0,-1,2022,1513,0,0
805,-489,0,0,0,0,0,0,0,0,0,-1,2029,1513,0,0
812,-489,0,0,0,0,0,0,0,0,0,-1,2036,1513,0,0
-700,-496,0,0,0,0,0,0,0,0,0,-1,524,1520,0,0
-693,-496,0,0,0,0,0,0,0,0,0,-1,531,1520,0,0
-686,-496,0,0,0,0,0,0,0,0,0,-1,538,1520,0,0
-679,-496,0,0,0,0,0,0,0,0,0,-1,545,1520,0,0
-672,-496,0,0,0,0,0,0,0,0,0,-1,552,1520,0,0
-665,-496,0,0,0,0,0,0,0,0,0,-1,559,1520,0,0
-658,-496,0,0,0,0,0,0,0,0,0,-1,566,1520,0,0
-651,-496,0,0,0,0,0,0,0,0,0,-1,573,1520,0,0
-644,-496,0,0,0,0,0,0,0,0,0,-1,580,1520,0,0
-637,-496,0,0,0,0,0,0,0,0,0,-1,587,1520,0,0
-630,-496,0,0,0,0,0,0,0,0,0,-1,594,1520,0,0
-623,-496,0,0,0,0,0,0,0,0,0,-1,601,1520,0,0
-616,-496,0,0,0,0,0,0,0,0,0,-1,608,1520,0,0
-609,-496,0,0,0,0,0,0,0,0,0,-1,615,1520,0,0
-602,-496,0,0,0,0,0,0,0,0,0,-1,622,1520,0,0
-595,-496,0,0,0,0,0,0,0,0,0,-1,629,1520,0,0
-588,-496,0,0,0,0,0,0,0,0,0,-1,636,1520,0,0
-581,-496,0,0,0,0,0,0,0,0,0,-1,643,1520,0,0
-574,-496,0,0,0,0,0,0,0,0,0,-1,650,1520,0,0
-567,-496,0,0,0,0,0,0,0,0,0,-1,657,1520,0,0
-560,-496,0,0,0,0,0,0,0,0,0,-1,664,1520,0,0
-553,-496,0,0,0,0,0,0,0,0,0,-1,671,1520,0,0
-546,-496,-8.09711,7.94836,0,0,0,0,0,0,0,-1,678,1520,-8.09712,-7.94842
-539,-496,-3.20129,1.16052,0,0,0,0,0,0,0,-1,685,1520,-3.20131,-1.16054
-532,-496,-2.98279,2.62146,0,0,0,0,0,0,0,-1,692,1520,-2.98278,-2.62151
-525,-496,-2.75201,4.08032,0,0,0,0,0,0,0,-1,699,1520,-2.75201,-4.08031
-518,-496,-2.6333,5.36072,0,0,0,0,0,0,0,-1,706,1520,-2.63328,-5.36077
-511,-496,-7.92126,9.68604,0,0,0,0,0,0,0,-1,713,1520,-7.92127,-9.68598
-504,-496,-7.51044,11.6274,0,0,0,0,0,0,0,-1,720,1520,-7.51042,-11.6275
-497,-496,-5.30933,14.4291,0,0,0,0,0,0,0,-1,727,1520,-5.30932,-14.4291
-490,-496,-8.21246,19.5051,0,0,0,0,0,0,0,-1,734,1520,-8.21243,-19.5051
-483,-496,-10.8777,24.0911,0,0,0,0,0,0,0,-1,741,1520,-10.8777,-24.0911
-476,-496,-10.7582,24.9672,0.00190917,-0.00242883,0.00259027,0.00311864,-0.0036383,0.436841,0.00390496,0.0273444,748,1520,-10.7582,-24.9672
-469,-496,-10.7688,25.8137,0.00107643,-0.00244258,0.00167441,0.00174581,-0.00311196,0.380311,0.00284137,0.0112719,755,1520,-10.7688,-25.8138
-462,-496,-10.8062,26.5939,0.0005816,-0.00193901,0.00113296,0.00101598,-0.00237339,0.36612,0.00200848,0.0155195,762,1520,-10.8062,-26.5939
-455,-496,-10.8516,27.4049,0.000443394,-0.00115426,0.00093163,0.000871784,-0.00158265,0.430997,0.00143674,0.0212318,769,1520,-10.8516,-27.4049
-448,-496,-10.9,28.2351,0.000648843,-7.63412e-05,0.00106801,0.00141413,-0.000841632,0.621752,0.00131627,0.0195365,776,1520,-10.9,-28.2351
-441,-496,-10.9268,29.0281,0.00113609,0.00118003,0.00148473,0.00264296,-0.000326834,0.792796,0.00188041,0.0145234,783,1520,-10.9268,-29.0281
-434,-496,-10.9881,29.8289,0.00187707,0.00261949,0.00215413,0.00443416,6.23986e-05,0.870723,0.00293553,0.0143517,790,1520,-10.9881,-29.8288
-427,-496,-11.0776,30.6272,0.0028505,0.00413145,0.00300561,0.00656407,0.000417883,0.890374,0.00424362,0.0190709,797,1520,-11.0777,-30.6272
-420,-496,-11.1059,31.4034,0.00409105,0.00575871,0.00407873,0.00908797,0.000761799,0.886226,0.00582135,0.0203996,804,1520,-11.1059,-31.4034
-413,-496,-11.0382,32.2603,0.0057356,0.00731389,0.00552458,0.0121054,0.000944092,0.856339,0.0077747,0.0333396,811,1520,-11.0382,-32.2602
-406,-496,-10.9106,33.3435,0,0,0,0,0,0,0,-1,818,1520,-10.9106,-33.3435
-399,-496,-10.522,34.4915,0,0,0,0,0,0,0,-1,825,1520,-10.522,-34.4915
-392,-496,-1.49786,12.387,0,0,0,0,0,0,0,-1,832,1520,-1.49788,-12.387
-385,-496,-1.72437,11.4985,0,0,0,0,0,0,0,-1,839,1520,-1.72436,-11.4985
-378,-496,-1.45532,14.0719,0,0,0,0,0,0,0,-1,846,1520,-1.45533,-14.0719
-371,-496,0.0877075,12.5299,0,0,0,0,0,0,0,-1,853,1520,0.0876896,-12.5299
-364,-496,0.0881348,10.6422,0,0,0,0,0,0,0,-1,860,1520,0.0881368,-10.6423
-357,-496,0.323792,7.56812,0,0,0,0,0,0,0,-1,867,1520,0.323782,-7.56806
-350,-496,2.1535,7.18945,0,0,0,0,0,0,0,-1,874,1520,2.15348,-7.1894
-343,-496,-7.56244,0.335327,0,0,0,0,0,0,0,-1,881,1520,-7.56242,-0.335322
-336,-496,-3.99249,6.02222,0,0,0,0,0,0,0,-1,888,1520,-3.99246,-6.0222
-329,-496,-6.93689,-0.100342,0,0,0,0,0,0,0,-1,895,1520,-6.93686,0.1003
-322,-496,-6.17505,0.494385,0,0,0,0,0,0,0,-1,902,1520,-6.17507,-0.49437
-315,-496,-7.539,5.78638,0,0,0,0,0,0,0,-1,909,1520,-7.53898,-5.78633
-308,-496,0,0,0,0,0,0,0,0,0,-1,916,1520,0,0
-301,-496,0,0,0,0,0,0,0,0,0,-1,923,1520,0,0
-294,-496,0,0,0,0,0,0,0,0,0,-1,930,1520,0,0
-287,-496,0,0,0,0,0,0,0,0,0,-1,937,1520,0,0
-280,-496,0,0,0,0,0,0,0,0,0,-1,944,1520,0,0
-273,-496,0,0,0,0,0,0,0,0,0,-1,951,1520,0,0
-266,-496,0,0,0,0,0,0,0,0,0,-1,958,1520,0,0
-259,-496,0,0,0,0,0,0,0,0,0,-1,965,1520,0,0
-252,-496,0,0,0,0,0,0,0,0,0,-1,972,1520,0,0
-245,-496,0,0,0,0,0,0,0,0,0,-1,979,1520,0,0
-238,-496,0,0,0,0,0,0,0,0,0,-1,986,1520,0,0
-231,-496,0,0,0,0,0,0,0,0,0,-1,993,1520,0,0
-224,-496,0,0,0,0,0,0,0,0,0,-1,1000,1520,0,0
-217,-496,0,0,0,0,0,0,0,0,0,-1,1007,1520,0,0
-210,-496,0,0,0,0,0,0,0,0,0,-1,1014,1520,0,0
-203,-496,0,0,0,0,0,0,0,0,0,-1,1021,1520,0,0
-196,-496,0,0,0,0,0,0,0,0,0,-1,1028,1520,0,0
-189,-496,0,0,0,0,0,0,0,0,0,-1,1035,1520,0,0
-182,-496,0,0,0,0,0,0,0,0,0,-1,1042,1520,0,0
-175,-496,0,0,0,0,0,0,0,0,0,-1,1049,1520,0,0
-168,-496,0,0,0,0,0,0,0,0,0,-1,1056,1520,0,0
-161,-496,0,0,0,0,0,0,0,0,0,-1,1063,1520,0,0
-154,-496,0,0,0,0,0,0,0,0,0,-1,1070,1520,0,0
-147,-496,0,0,0,0,0,0,0,0,0,-1,1077,1520,0,0
-140,-496,0,0,0,0,0,0,0,0,0,-1,1084,1520,0,0
-133,-496,0,0,0,0,0,0,0,0,0,-1,1091,1520,0,0
-126,-496,0,0,0,0,0,0,0,0,0,-1,1098,1520,0,0
-119,-496,0,0,0,0,0,0,0,0,0,-1,1105,1520,0,0
-112,-496,0,0,0,0,0,0,0,0,0,-1,1112,1520,0,0
-105,-496,0,0,0,0,0,0,0,0,0,-1,1119,1520,0,0
-98,-496,0,0,0,0,0,0,0,0,0,-1,1126,1520,0,0
-91,-496,0,0,0,0,0,0,0,0,0,-1,1133,1520,0,0
-84,-496,0,0,0,0,0,0,0,0,0,-1,1140,1520,0,0
-77,-496,0,0,0,0,0,0,0,0,0,-1,1147,1520,0,0
-70,-496,0,0,0,0,0,0,0,0,0,-1,1154,1520,0,0
-63,-496,0,0,0,0,0,0,0,0,0,-1,1161,1520,0,0
-56,-496,0,0,0,0,0,0,0,0,0,-1,1168,1520,0,0
-49,-496,0,0,0,0,0,0,0,0,0,-1,1175,1520,0,0
-42,-496,0,0,0,0,0,0,0,0,0,-1,1182,1520,0,0
-35,-496,0,0,0,0,0,0,0,0,0,-1,1189,1520,0,0
-28,-496,0,0,0,0,0,0,0,0,0,-1,1196,1520,0,0
-21,-496,0,0,0,0,0,0,0,0,0,-1,1203,1520,0,0
-14,-496,0,0,0,0,0,0,0,0,0,-1,1210,1520,0,0
-7,-496,0,0,0,0,0,0,0,0,0,-1,1217,1520,0,0
0,-496,0,0,0,0,0,0,0,0,0,-1,1224,1520,0,0
7,-496,0,0,0,0,0,0,0,0,0,-1,1231,1520,0,0
14,-496,0,0,0,0,0,0,0,0,0,-1,1238,1520,0,0
21,-496,0,0,0,0,0,0,0,0,0,-1,1245,1520,0,0
28,-496,0,0,0,0,0,0,0,0,0,-1,1252,1520,0,0
35,-496,0,0,0,0,0,0,0,0,0,-1,1259,1520,0,0
42,-496,0,0,0,0,0,0,0,0,0,-1,1266,1520,0,0
49,-496,0,0,0,0,0,0,0,0,0,-1,1273,1520,0,0
56,-496,0,0,0,0,0,0,0,0,0,-1,1280,1520,0,0
63,-496,0,0,0,0,0,0,0,0,0,-1,1287,1520,0,0
70,-496,0,0,0,0,0,0,0,0,0,-1,1294,1520,0,0
77,-496,0,0,0,0,0,0,0,0,0,-1,1301,1520,0,0
84,-496,0,0,0,0,0,0,0,0,0,-1,1308,1520,0,0
91,-496,0,0,0,0,0,0,0,0,0,-1,1315,1520,0,0
98,-496,0,0,0,0,0,0,0,0,0,-1,1322,1520,0,0
105,-496,0,0,0,0,0,0,0,0,0,-1,1329,1520,0,0
112,-496,0,0,0,0,0,0,0,0,0,-1,1336,1520,0,0
119,-496,0,0,0,0,0,0,0,0,0,-1,1343,1520,0,0
126,-496,0,0,0,0,0,0,0,0,0,-1,1350,1520,0,0
133,-496,0,0,0,0,0,0,0,0,0,-1,1357,1520,0,0
140,-496,0,0,0,0,0,0,0,0,0,-1,1364,1520,0,0
147,-496,0,0,0,0,0,0,0,0,0,-1,1371,1520,0,0
154,-496,0,0,0,0,0,0,0,0,0,-1,1378,1520,0,0
161,-496,0,0,0,0,0,0,0,0,0,-1,1385,1520,0,0
168,-496,0,0,0,0,0,0,0,0,0,-1,1392,1520,0,0
175,-496,0,0,0,0,0,0,0,0,0,-1,1399,1520,0,0
182,-496,0,0,0,0,0,0,0,0,0,-1,1406,1520,0,0
189,-496,0,0,0,0,0,0,0,0,0,-1,1413,1520,0,0
196,-496,0,0,0,0,0,0,0,0,0,-1,1420,1520,0,0
203,-496,0,0,0,0,0,0,0,0,0,-1,1427,1520,0,0
210,-496,0,0,0,0,0,0,0,0,0,-1,1434,1520,0,0
217,-496,0,0,0,0,0,0,0,0,0,-1,1441,1520,0,0
224,-496,0,0,0,0,0,0,0,0,0,-1,1448,1520,0,0
231,-496,0,0,0,0,0,0,0,0,0,-1,1455,1520,0,0
238,-496,0,0,0,0,0,0,0,0,0,-1,1462,1520,0,0
245,-496,0,0,0,0,0,0,0,0,0,-1,1469,1520,0,0
252,-496,0,0,0,0,0,0,0,0,0,-1,1476,1520,0,0
259,-496,0,0,0,0,0,0,0,0,0,-1,1483,1520,0,0
266,-496,0,0,0,0,0,0,0,0,0,-1,1490,1520,0,0
273,-496,0,0,0,0,0,0,0,0,0,-1,1497,1520,0,0
280,-496,0,0,0,0,0,0,0,0,0,-1,1504,1520,0,0
287,-496,0,0,0,0,0,0,0,0,0,-1,1511,1520,0,0
294,-496,0,0,0,0,0,0,0,0,0,-1,1518,1520,0,0
301,-496,0,0,0,0,0,0,0,0,0,-1,1525,1520,0,0
308,-496,0,0,0,0,0,0,0,0,0,-1,1532,1520,0,0
315,-496,0,0,0,0,0,0,0,0,0,-1,1539,1520,0,0
322,-496,0,0,0,0,0,0,0,0,0,-1,1546,1520,0,0
329,-496,0,0,0,0,0,0,0,0,0,-1,1553,1520,0,0
336,-496,0,0,0,0,0,0,0,0,0,-1,1560,1520,0,0
343,-496,0,0,0,0,0,0,0,0,0,-1,1567,1520,0,0
350,-496,0,0,0,0,0,0,0,0,0,-1,1574,1520,0,0
357,-496,0,0,0,0,0,0,0,0,0,-1,1581,1520,0,0
364,-496,0,0,0,0,0,0,0,0,0,-1,1588,1520,0,0
371,-496,0,0,0,0,0,0,0,0,0,-1,1595,1520,0,0
378,-496,0,0,0,0,0,0,0,0,0,-1,1602,1520,0,0
385,-496,0,0,0,0,0,0,0,0,0,-1,1609,1520,0,0
392,-496,0,0,0,0,0,0,0,0,0,-1,1616,1520,0,0
399,-496,0,0,0,0,0,0,0,0,0,-1,1623,1520,0,0
406,-496,0,0,0,0,0,0,0,0,0,-1,1630,1520,0,0
413,-496,0,0,0,0,0,0,0,0,0,-1,1637,1520,0,0
420,-496,0,0,0,0,0,0,0,0,0,-1,1644,1520,0,0
427,-496,0,0,0,0,0,0,0,0,0,-1,1651,1520,0,0
434,-496,11.0457,3.37732,0,0,0,0,0,0,0,-1,1658,1520,11.0456,-3.37736
441,-496,11.788,2.75488,0,0,0,0,0,0,0,-1,1665,1520,11.7879,-2.75485
448,-496,12.2146,2.18494,0,0,0,0,0,0,0,-1,1672,1520,12.2146,-2.18489
455,-496,12.3489,1.65173,0,0,0,0,0,0,0,-1,1679,1520,12.3489,-1.65178
462,-496,12.1912,1.32361,0,0,0,0,0,0,0,-1,1686,1520,12.1911,-1.32357
469,-496,14.8138,5.77954,0,0,0,0,0,0,0,-1,1693,1520,14.8138,-5.77958
476,-496,15.2449,6.27942,0,0,0,0,0,0,0,-1,1700,1520,15.2449,-6.27936
483,-496,9.19812,6.88367,0,0,0,0,0,0,0,-1,1707,1520,9.19812,-6.88361
490,-496,10.2123,7.97144,0,0,0,0,0,0,0,-1,1714,1520,10.2122,-7.97145
497,-496,13.9297,12.2981,0,0,0,0,0,0,0,-1,1721,1520,13.9297,-12.2982
504,-496,16.3271,16.6501,0,0,0,0,0,0,0,-1,1728,1520,16.3272,-16.6502
511,-496,17.6753,18.0685,0,0,0,0,0,0,0,-1,1735,1520,17.6753,-18.0685
518,-496,17.0537,17.3118,0,0,0,0,0,0,0,-1,1742,1520,17.0538,-17.3118
525,-496,18.2721,19.3259,0,0,0,0,0,0,0,-1,1749,1520,18.2721,-19.3259
532,-496,28.6293,33.1689,0,0,0,0,0,0,0,-1,1756,1520,28.6293,-33.1689
539,-496,28.174,33.2727,0,0,0,0,0,0,0,-1,1763,1520,28.174,-33.2727
546,-496,28.4115,32.2211,0.00860476,0.00512046,-0.00458934,0.0117715,0.00195372,-0.603996,0.00728429,0.0230871,1770,1520,28.4114,-32.2211
553,-496,28.5364,31.3264,0.00678777,0.00365904,-0.00326793,0.00884647,0.00160034,-0.562165,0.00544319,0.0163479,1777,1520,28.5364,-31.3264
560,-496,28.5233,30.5813,0.00535295,0.00251517,-0.00226303,0.00660512,0.001263,-0.505385,0.00404863,0.0161558,1784,1520,28.5233,-30.5813
567,-496,28.4679,29.8091,0.00427149,0.00168751,-0.00160166,0.0050373,0.00092169,-0.446005,0.00309703,0.0136089,1791,1520,28.4679,-29.8091
574,-496,28.402,29.0479,0.00346504,0.00109203,-0.00114652,0.00392848,0.000628591,-0.384131,0.00243664,0.0133815,1798,1520,28.402,-29.0478
581,-496,28.3558,28.285,0.00281973,0.000593466,-0.000804584,0.00308007,0.000333129,-0.312936,0.00195184,0.0134703,1805,1520,28.3558,-28.285
588,-496,28.3521,27.4991,0.00240778,0.000247943,-0.00058752,0.00255725,9.84696e-05,-0.249129,0.00167298,0.01542,1812,1520,28.352,-27.4991
595,-496,28.2954,26.7797,0.00222903,-1.28375e-05,-0.000361424,0.00228586,-6.96642e-05,-0.155953,0.00154765,0.0182746,1819,1520,28.2954,-26.7797
602,-496,28.2567,26.0302,0.00216868,-0.000134926,-0.000207812,0.00218728,-0.000153523,-0.0892513,0.00151196,0.0195454,1826,1520,28.2567,-26.0302
609,-496,28.2352,25.1877,0.00217465,-0.000292323,3.74115e-05,0.00217522,-0.00029289,0.0151603,0.00155699,0.0186378,1833,1520,28.2352,-25.1878
616,-496,28.2532,24.2841,0,0,0,0,0,0,0,-1,1840,1520,28.2531,-24.2841
623,-496,28.0233,22.5444,0,0,0,0,0,0,0,-1,1847,1520,28.0233,-22.5444
630,-496,18.5656,13.8966,0,0,0,0,0,0,0,-1,1854,1520,18.5655,-13.8967
637,-496,14.6411,10.1016,0,0,0,0,0,0,0,-1,1861,1520,14.6411,-10.1016
644,-496,12.4537,10.087,0,0,0,0,0,0,0,-1,1868,1520,12.4537,-10.0871
651,-496,8.18506,5.47803,0,0,0,0,0,0,0,-1,1875,1520,8.18505,-5.47806
658,-496,7.79993,4.02563,0,0,0,0,0,0,0,-1,1882,1520,7.79997,-4.02568
665,-496,5.47583,7.90625,0,0,0,0,0,0,0,-1,1889,1520,5.47581,-7.90628
672,-496,0,0,0,0,0,0,0,0,0,-1,1896,1520,0,0
679,-496,0,0,0,0,0,0,0,0,0,-1,1903,1520,0,0
686,-496,0,0,0,0,0,0,0,0,0,-1,1910,1520,0,0
693,-496,0,0,0,0,0,0,0,0,0,-1,1917,1520,0,0
700,-496,0,0,0,0,0,0,0,0,0,-1,1924,1520,0,0
707,-496,0,0,0,0,0,0,0,0,0,-1,1931,1520,0,0
714,-496,0,0,0,0,0,0,0,0,0,-1,1938,1520,0,0
721,-496,0,0,0,0,0,0,0,0,0,-1,1945,1520,0,0
728,-496,0,0,0,0,0,0,0,0,0,-1,1952,1520,0,0
735,-496,0,0,0,0,0,0,0,0,0,-1,1959,1520,0,0
742,-496,0,0,0,0,0,0,0,0,0,-1,1966,1520,0,0
749,-496,0,0,0,0,0,0,0,0,0,-1,1973,1520,0,0
756,-496,0,0,0,0,0,0,0,0,0,-1,1980,1520,0,0
763,-496,0,0,0,0,0,0,0,0,0,-1,1987,1520,0,0
770,-496,0,0,0,0,0,0,0,0,0,-1,1994,1520,0,0
777,-496,0,0,0,0,0,0,0,0,0,-1,2001,1520,0,0
784,-496,0,0,0,0,0,0,0,0,0,-1,2008,1520,0,0
791,-496,0,0,0,0,0,0,0,0,0,-1,2015,1520,0,0
798,-496,0,0,0,0,0,0,0,0,0,-1,2022,1520,0,0
805,-496,0,0,0,0,0,0,0,0,0,-1,2029,1520,0,0
812,-496,0,0,0,0,0,0,0,0,0,-1,2036,1520,0,0
-700,-503,0,0,0,0,0,0,0,0,0,-1,524,1527,0,0
-693,-503,0,0,0,0,0,0,0,0,0,-1,531,1527,0,0
-686,-503,0,0,0,0,0,0,0,0,0,-1,538,1527,0,0
-679,-503,0,0,0,0,0,0,0,0,0,-1,545,1527,0,0
-672,-503,0,0,0,0,0,0,0,0,0,-1,552,1527,0,0
-665,-503,0,0,0,0,0,0,0,0,0,-1,559,1527,0,0
-658,-503,0,0,0,0,0,0,0,0,0,-1,566,1527,0,0
-651,-503,0,0,0,0,0,0,0,0,0,-1,573,1527,0,0
-644,-503,0,0,0,0,0,0,0,0,0,-1,580,1527,0,0
-637,-503,0,0,0,0,0,0,0,0,0,-1,587,1527,0,0
-630,-503,0,0,0,0,0,0,0,0,0,-1,594,1527,0,0
-623,-503,0,0,0,0,0,0,0,0,0,-1,601,1527,0,0
-616,-503,0,0,0,0,0,0,0,0,0,-1,608,1527,0,0
-609,-503,0,0,0,0,0,0,0,0,0,-1,615,1527,0,0
-602,-503,0,0,0,0,0,0,0,0,0,-1,622,1527,0,0
-595,-503,0,0,0,0,0,0,0,0,0,-1,629,1527,0,0
-588,-503,0,0,0,0,0,0,0,0,0,-1,636,1527,0,0
-581,-503,0,0,0,0,0,0,0,0,0,-1,643,1527,0,0
-574,-503,0,0,0,0,0,0,0,0,0,-1,650,1527,0,0
-567,-503,0,0,0,0,0,0,0,0,0,-1,657,1527,0,0
-560,-503,0,0,0,0,0,0,0,0,0,-1,664,1527,0,0
-553,-503,0,0,0,0,0,0,0,0,0,-1,671,1527,0,0
-546,-503,0,0,0,0,0,0,0,0,0,-1,678,1527,0,0
-539,-503,3.50177,4.26428,0,0,0,0,0,0,0,-1,685,1527,3.50177,-4.26424
-532,-503,-3.13196,1.05298,0,0,0,0,0,0,0,-1,692,1527,-3.13194,-1.05299
-525,-503,-2.94293,2.59314,0,0,0,0,0,0,0,-1,699,1527,-2.94296,-2.59314
-518,-503,-2.7395,4.05872,0,0,0,0,0,0,0,-1,706,1527,-2.73948,-4.05871
-511,-503,-1.60022,7.23877,0,0,0,0,0,0,0,-1,713,1527,-1.60023,-7.23872
-504,-503,-8.1402,10.1541,0,0,0,0,0,0,0,-1,720,1527,-8.14017,-10.1541
-497,-503,-4.51758,14.0781,0,0,0,0,0,0,0,-1,727,1527,-4.5176,-14.0782
-490,-503,-4.24194,16.1982,0,0,0,0,0,0,0,-1,734,1527,-4.24196,-16.1982
-483,-503,-9.55774,23.7681,0,0,0,0,0,0,0,-1,741,1527,-9.55776,-23.7681
-476,-503,-9.96545,24.9719,0,0,0,0,0,0,0,-1,748,1527,-9.96543,-24.9719
-469,-503,-9.98224,25.8616,0.000500688,-0.00427214,0.00117811,0.000775649,-0.00454711,0.229287,0.00332029,0.018609,755,1527,-9.98223,-25.8616
-462,-503,-10.0203,26.6805,-0.000135199,-0.00350454,0.000557356,-4.53953e-05,-0.00359435,0.159752,0.00238124,0.0120844,762,1527,-10.0203,-26.6806
-455,-503,-10.0361,27.5006,-0.000352269,-0.00248283,0.000315809,-0.000306443,-0.00252865,0.144101,0.00159347,0.0184542,769,1527,-10.0362,-27.5006
-448,-503,-10.0734,28.2977,-0.000205563,-0.00130797,0.000385477,-8.41464e-05,-0.00142939,0.30514,0.000926153,0.0174002,776,1527,-10.0734,-28.2977
-441,-503,-10.121,29.0808,0.000273431,5.8454e-06,0.000769158,0.000920346,-0.000641069,0.699286,0.000906277,0.0137317,783,1527,-10.121,-29.0809
-434,-503,-10.1698,29.8583,0.00101229,0.00142733,0.00139559,0.00263075,-0.000191125,0.859206,0.00182089,0.0117361,790,1527,-10.1698,-29.8583
-427,-503,-10.2719,30.6123,0.0019547,0.00280964,0.00216544,0.0045894,0.000174935,0.882848,0.00300299,0.0188689,797,1527,-10.2719,-30.6123
-420,-503,-10.2789,31.3942,0.00313695,0.00424814,0.003119,0.00686065,0.000524444,0.87354,0.00440936,0.0196934,804,1527,-10.2789,-31.3942
-413,-503,-10.3141,32.2169,0.00463746,0.0055786,0.00434526,0.0094787,0.000737356,0.839335,0.00608825,0.0171653,811,1527,-10.3141,-32.2169
-406,-503,-10.3122,33.0171,0.00624113,0.00690091,0.0055895,0.0121702,0.000971796,0.814874,0.00780974,0.0274793,818,1527,-10.3122,-33.0171
-399,-503,-10.1727,34.056,0.00799567,0.00869194,0.0071697,0.0155219,0.00116566,0.809657,0.00998212,0.0478352,825,1527,-10.1727,-34.0561
-392,-503,-9.80365,35.3698,0,0,0,0,0,0,0,-1,832,1527,-9.80362,-35.3698
-385,-503,-2.00403,14.1218,0,0,0,0,0,0,0,-1,839,1527,-2.00403,-14.1218
-378,-503,-2.07043,13.8632,0,0,0,0,0,0,0,-1,846,1527,-2.07043,-13.8631
-371,-503,-1.67285,13.8081,0,0,0,0,0,0,0,-1,853,1527,-1.67285,-13.8081
-364,-503,0.181396,12.3768,0,0,0,0,0,0,0,-1,860,1527,0.18138,-12.3768
-357,-503,0.558533,9.25452,0,0,0,0,0,0,0,-1,867,1527,0.558542,-9.25446
-350,-503,0.219971,6.84827,0,0,0,0,0,0,0,-1,874,1527,0.21996,-6.84831
-343,-503,-3.5802,4.43274,0,0,0,0,0,0,0,-1,881,1527,-3.58018,-4.43276
-336,-503,-3.2384,6.40637,0,0,0,0,0,0,0,-1,888,1527,-3.2384,-6.40643
-329,-503,-1.70691,11.886,0,0,0,0,0,0,0,-1,895,1527,-1.70689,-11.886
-322,-503,-3.31317,8.81519,0,0,0,0,0,0,0,-1,902,1527,-3.31315,-8.81524
-315,-503,-3.90265,7.73853,0,0,0,0,0,0,0,-1,909,1527,-3.90264,-7.73854
-308,-503,-1.70264,7.35413,0,0,0,0,0,0,0,-1,916,1527,-1.70262,-7.35416
-301,-503,0,0,0,0,0,0,0,0,0,-1,923,1527,0,0
-294,-503,0,0,0,0,0,0,0,0,0,-1,930,1527,0,0
-287,-503,0,0,0,0,0,0,0,0,0,-1,937,1527,0,0
-280,-503,0,0,0,0,0,0,0,0,0,-1,944,1527,0,0
-273,-503,0,0,0,0,0,0,0,0,0,-1,951,1527,0,0
-266,-503,0,0,0,0,0,0,0,0,0,-1,958,1527,0,0
-259,-503,0,0,0,0,0,0,0,0,0,-1,965,1527,0,0
-252,-503,0,0,0,0,0,0,0,0,0,-1,972,1527,0,0
-245,-503,0,0,0,0,0,0,0,0,0,-1,979,1527,0,0
-238,-503,0,0,0,0,0,0,0,0,0,-1,986,1527,0,0
-231,-503,0,0,0,0,0,0,0,0,0,-1,993,1527,0,0
-224,-503,0,0,0,0,0,0,0,0,0,-1,1000,1527,0,0
-217,-503,0,0,0,0,0,0,0,0,0,-1,1007,1527,0,0
-210,-503,0,0,0,0,0,0,0,0,0,-1,1014,1527,0,0
-203,-503,0,0,0,0,0,0,0,0,0,-1,1021,1527,0,0
-196,-503,0,0,0,0,0,0,0,0,0,-1,1028,1527,0,0
-189,-503,0,0,0,0,0,0,0,0,0,-1,1035,1527,0,0
-182,-503,0,0,0,0,0,0,0,0,0,-1,1042,1527,0,0
-175,-503,0,0,0,0,0,0,0,0,0,-1,1049,1527,0,0
-168,-503,0,0,0,0,0,0,0,0,0,-1,1056,1527,0,0
-161,-503,0,0,0,0,0,0,0,0,0,-1,1063,1527,0,0
-154,-503,0,0,0,0,0,0,0,0,0,-1,1070,1527,0,0
-147,-503,0,0,0,0,0,0,0,0,0,-1,1077,1527,0,0
-140,-503,0,0,0,0,0,0,0,0,0,-1,1084,1527,0,0
-133,-503,0,0,0,0,0,0,0,0,0,-1,1091,1527,0,0
-126,-503,0,0,0,0,0,0,0,0,0,-1,1098,1527,0,0
-119,-503,0,0,0,0,0,0,0,0,0,-1,1105,1527,0,0
-112,-503,0,0,0,0,0,0,0,0,0,-1,1112,1527,0,0
-105,-503,0,0,0,0,0,0,0,0,0,-1,1119,1527,0,0
-98,-503,0,0,0,0,0,0,0,0,0,-1,1126,1527,0,0
-91,-503,0,0,0,0,0,0,0,0,0,-1,1133,1527,0,0
-84,-503,0,0,0,0,0,0,0,0,0,-1,1140,1527,0,0
-77,-503,0,0,0,0,0,0,0,0,0,-1,1147,1527,0,0
-70,-503,0,0,0,0,0,0,0,0,0,-1,1154,1527,0,0
-63,-503,0,0,0,0,0,0,0,0,0,-1,1161,1527,0,0
-56,-503,0,0,0,0,0,0,0,0,0,-1,1168,1527,0,0
-49,-503,0,0,0,0,0,0,0,0,0,-1,1175,1527,0,0
-42,-503,0,0,0,0,0,0,0,0,0,-1,1182,1527,0,0
-35,-503,0,0,0,0,0,0,0,0,0,-1,1189,1527,0,0
-28,-503,0,0,0,0,0,0,0,0,0,-1,1196,1527,0,0
-21,-503,0,0,0,0,0,0,0,0,0,-1,1203,1527,0,0
-14,-503,0,0,0,0,0,0,0,0,0,-1,1210,1527,0,0
-7,-503,0,0,0,0,0,0,0,0,0,-1,1217,1527,0,0
0,-503,0,0,0,0,0,0,0,0,0,-1,1224,1527,0,0
7,-503,0,0,0,0,0,0,0,0,0,-1,1231,1527,0,0
14,-503,0,0,0,0,0,0,0,0,0,-1,1238,1527,0,0
21,-503,0,0,0,0,0,0,0,0,0,-1,1245,1527,0,0
28,-503,0,0,0,0,0,0,0,0,0,-1,1252,1527,0,0
35,-503,0,0,0,0,0,0,0,0,0,-1,1259,1527,0,0
42,-503,0,0,0,0,0,0,0,0,0,-1,1266,1527,0,0
49,-503,0,0,0,0,0,0,0,0,0,-1,1273,1527,0,0
56,-503,0,0,0,0,0,0,0,0,0,-1,1280,1527,0,0
63,-503,0,0,0,0,0,0,0,0,0,-1,1287,1527,0,0
70,-503,0,0,0,0,0,0,0,0,0,-1,1294,1527,0,0
77,-503,0,0,0,0,0,0,0,0,0,-1,1301,1527,0,0
84,-503,0,0,0,0,0,0,0,0,0,-1,1308,1527,0,0
91,-503,0,0,0,0,0,0,0,0,0,-1,1315,1527,0,0
98,-503,0,0,0,0,0,0,0,0,0,-1,1322,1527,0,0
105,-503,0,0,0,0,0,0,0,0,0,-1,1329,1527,0,0
112,-503,0,0,0,0,0,0,0,0,0,-1,1336,1527,0,0
119,-503,0,0,0,0,0,0,0,0,0,-1,1343,1527,0,0
126,-503,0,0,0,0,0,0,0,0,0,-1,1350,1527,0,0
133,-503,0,0,0,0,0,0,0,0,0,-1,1357,1527,0,0
140,-503,0,0,0,0,0,0,0,0,0,-1,1364,1527,0,0
147,-503,0,0,0,0,0,0,0,0,0,-1,1371,1527,0,0
154,-503,0,0,0,0,0,0,0,0,0,-1,1378,1527,0,0
161,-503,0,0,0,0,0,0,0,0,0,-1,1385,1527,0,0
168,-503,0,0,0,0,0,0,0,0,0,-1,1392,1527,0,0
175,-503,0,0,0,0,0,0,0,0,0,-1,1399,1527,0,0
182,-503,0,0,0,0,0,0,0,0,0,-1,1406,1527,0,0
189,-503,0,0,0,0,0,0,0,0,0,-1,1413,1527,0,0
196,-503,0,0,0,0,0,0,0,0,0,-1,1420,1527,0,0
203,-503,0,0,0,0,0,0,0,0,0,-1,1427,1527,0,0
210,-503,0,0,0,0,0,0,0,0,0,-1,1434,1527,0,0
217,-503,0,0,0,0,0,0,0,0,0,-1,1441,1527,0,0
224,-503,0,0,0,0,0,0,0,0,0,-1,1448,1527,0,0
231,-503,0,0,0,0,0,0,0,0,0,-1,1455,1527,0,0
238,-503,0,0,0,0,0,0,0,0,0,-1,1462,1527,0,0
245,-503,0,0,0,0,0,0,0,0,0,-1,1469,1527,0,0
252,-503,0,0,0,0,0,0,0,0,0,-1,1476,1527,0,0
259,-503,0,0,0,0,0,0,0,0,0,-1,1483,1527,0,0
266,-503,0,0,0,0,0,0,0,0,0,-1,1490,1527,0,0
273,-503,0,0,0,0,0,0,0,0,0,-1,1497,1527,0,0
280,-503,0,0,0,0,0,0,0,0,0,-1,1504,1527,0,0
287,-503,0,0,0,0,0,0,0,0,0,-1,1511,1527,0,0
294,-503,0,0,0,0,0,0,0,0,0,-1,1518,1527,0,0
301,-503,0,0,0,0,0,0,0,0,0,-1,1525,1527,0,0
308,-503,0,0,0,0,0,0,0,0,0,-1,1532,1527,0,0
315,-503,0,0,0,0,0,0,0,0,0,-1,1539,1527,0,0
322,-503,0,0,0,0,0,0,0,0,0,-1,1546,1527,0,0
329,-503,0,0,0,0,0,0,0,0,0,-1,1553,1527,0,0
336,-503,0,0,0,0,0,0,0,0,0,-1,1560,1527,0,0
343,-503,0,0,0,0,0,0,0,0,0,-1,1567,1527,0,0
350,-503,0,0,0,0,0,0,0,0,0,-1,1574,1527,0,0
357,-503,0,0,0,0,0,0,0,0,0,-1,1581,1527,0,0
364,-503,0,0,0,0,0,0,0,0,0,-1,1588,1527,0,0
371,-503,0,0,0,0,0,0,0,0,0,-1,1595,1527,0,0
378,-503,0,0,0,0,0,0,0,0,0,-1,1602,1527,0,0
385,-503,0,0,0,0,0,0,0,0,0,-1,1609,1527,0,0
392,-503,0,0,0,0,0,0,0,0,0,-1,1616,1527,0,0
399,-503,0,0,0,0,0,0,0,0,0,-1,1623,1527,0,0
406,-503,0,0,0,0,0,0,0,0,0,-1,1630,1527,0,0
413,-503,0,0,0,0,0,0,0,0,0,-1,1637,1527,0,0
420,-503,0,0,0,0,0,0,0,0,0,-1,1644,1527,0,0
427,-503,10.5968,4.9856,0,0,0,0,0,0,0,-1,1651,1527,10.5969,-4.98563
434,-503,11.4329,3.97217,0,0,0,0,0,0,0,-1,1658,1527,11.4328,-3.97222
441,-503,12.0957,2.96509,0,0,0,0,0,0,0,-1,1665,1527,12.0957,-2.96512
448,-503,12.3259,2.53894,0,0,0,0,0,0,0,-1,1672,1527,12.326,-2.53895
455,-503,12.1669,2.18762,0,0,0,0,0,0,0,-1,1679,1527,12.1668,-2.18767
462,-503,11.59,2.60791,0,0,0,0,0,0,0,-1,1686,1527,11.5899,-2.60794
469,-503,11.1625,1.61853,0,0,0,0,0,0,0,-1,1693,1527,11.1625,-1.61856
476,-503,9.07703,5.81042,0,0,0,0,0,0,0,-1,1700,1527,9.07699,-5.81047
483,-503,9.74414,6.92432,0,0,0,0,0,0,0,-1,1707,1527,9.74417,-6.9243
490,-503,10.5033,10.1071,0,0,0,0,0,0,0,-1,1714,1527,10.5032,-10.107
497,-503,15.0057,17.9476,0,0,0,0,0,0,0,-1,1721,1527,15.0058,-17.9476
504,-503,16.4764,18.4486,0,0,0,0,0,0,0,-1,1728,1527,16.4764,-18.4486
511,-503,16.8276,18.3271,0,0,0,0,0,0,0,-1,1735,1527,16.8276,-18.3272
518,-503,17.2533,18.2738,0,0,0,0,0,0,0,-1,1742,1527,17.2533,-18.2738
525,-503,21.2887,26.5785,0,0,0,0,0,0,0,-1,1749,1527,21.2887,-26.5785
532,-503,27.6714,33.8798,0,0,0,0,0,0,0,-1,1756,1527,27.6714,-33.8797
539,-503,27.6929,33.0332,0.00903222,0.00596478,-0.00534215,0.0130565,0.00194055,-0.645609,0.00813497,0.0330361,1763,1527,27.6929,-33.0332
546,-503,27.7533,32.1295,0.00708212,0.00449069,-0.00394557,0.00993929,0.00163352,-0.626748,0.00615438,0.0142414,1770,1527,27.7533,-32.1295
553,-503,27.7794,31.3773,0.00556293,0.00319229,-0.00279893,0.00741717,0.00133804,-0.585103,0.00456461,0.0150667,1777,1527,27.7794,-31.3773
560,-503,27.7103,30.6344,0.0043891,0.00216714,-0.00192398,0.00549982,0.00105642,-0.523566,0.00337006,0.0151597,1784,1527,27.7103,-30.6344
567,-503,27.6676,29.8457,0.00355294,0.0014205,-0.00135549,0.0042113,0.00076214,-0.452141,0.00259112,0.0136705,1791,1527,27.6676,-29.8457
574,-503,27.6234,29.0873,0.00298287,0.00088032,-0.0009646,0.00335835,0.00050484,-0.371214,0.00209103,0.013483,1798,1527,27.6234,-29.0873
581,-503,27.579,28.3344,0.00257618,0.000435021,-0.000692129,0.00278043,0.000230774,-0.286955,0.00178168,0.0142401,1805,1527,27.5789,-28.3344
588,-503,27.5568,27.5625,0.00238663,0.000163237,-0.000560468,0.00251992,2.99459e-05,-0.233483,0.00167005,0.0173701,1812,1527,27.5567,-27.5625
595,-503,27.5211,26.8258,0.00240808,9.26385e-06,-0.00044737,0.00248879,-7.14532e-05,-0.178505,0.00168352,0.0143318,1819,1527,27.5211,-26.8258
602,-503,27.5367,26.0006,0.00257841,4.76894e-05,-0.000419038,0.00264599,-1.98908e-05,-0.159897,0.00177066,0.0250049,1826,1527,27.5368,-26.0006
609,-503,27.5371,25.1279,0,0,0,0,0,0,0,-1,1833,1527,27.5371,-25.1279
616,-503,27.6136,23.7504,0,0,0,0,0,0,0,-1,1840,1527,27.6136,-23.7504
623,-503,18.7351,15.5999,0,0,0,0,0,0,0,-1,1847,1527,18.7351,-15.5999
630,-503,20.6721,13.9077,0,0,0,0,0,0,0,-1,1854,1527,20.6721,-13.9077
637,-503,14.5564,9.20496,0,0,0,0,0,0,0,-1,1861,1527,14.5564,-9.2049
644,-503,11.4802,7.57214,0,0,0,0,0,0,0,-1,1868,1527,11.4802,-7.57215
651,-503,11.5718,6.5448,0,0,0,0,0,0,0,-1,1875,1527,11.5718,-6.54476
658,-503,8.25635,3.10498,0,0,0,0,0,0,0,-1,1882,1527,8.2563,-3.10493
665,-503,0,0,0,0,0,0,0,0,0,-1,1889,1527,0,0
672,-503,0,0,0,0,0,0,0,0,0,-1,1896,1527,0,0
679,-503,0,0,0,0,0,0,0,0,0,-1,1903,1527,0,0
686,-503,0,0,0,0,0,0,0,0,0,-1,1910,1527,0,0
693,-503,0,0,0,0,0,0,0,0,0,-1,1917,1527,0,0
700,-503,0,0,0,0,0,0,0,0,0,-1,1924,1527,0,0
707,-503,0,0,0,0,0,0,0,0,0,-1,1931,1527,0,0
714,-503,0,0,0,0,0,0,0,0,0,-1,1938,1527,0,0
721,-503,0,0,0,0,0,0,0,0,0,-1,1945,1527,0,0
728,-503,0,0,0,0,0,0,0,0,0,-1,1952,1527,0,0
735,-503,0,0,0,0,0,0,0,0,0,-1,1959,1527,0,0
742,-503,0,0,0,0,0,0,0,0,0,-1,1966,1527,0,0
749,-503,0,0,0,0,0,0,0,0,0,-1,1973,1527,0,0
756,-503,0,0,0,0,0,0,0,0,0,-1,1980,1527,0,0
763,-503,0,0,0,0,0,0,0,0,0,-1,1987,1527,0,0
770,-503,0,0,0,0,0,0,0,0,0,-1,1994,1527,0,0
777,-503,0,0,0,0,0,0,0,0,0,-1,2001,1527,0,0
784,-503,0,0,0,0,0,0,0,0,0,-1,2008,1527,0,0
791,-503,0,0,0,0,0,0,0,0,0,-1,2015,1527,0,0
798,-503,0,0,0,0,0,0,0,0,0,-1,2022,1527,0,0
805,-503,0,0,0,0,0,0,0,0,0,-1,2029,1527,0,0
812,-503,0,0,0,0,0,0,0,0,0,-1,2036,1527,0,0
-700,-510,0,0,0,0,0,0,0,0,0,-1,524,1534,0,0
-693,-510,0,0,0,0,0,0,0,0,0,-1,531,1534,0,0
-686,-510,0,0,0,0,0,0,0,0,0,-1,538,1534,0,0
-679,-510,0,0,0,0,0,0,0,0,0,-1,545,1534,0,0
-672,-510,0,0,0,0,0,0,0,0,0,-1,552,1534,0,0
-665,-510,0,0,0,0,0,0,0,0,0,-1,559,1534,0,0
-658,-510,0,0,0,0,0,0,0,0,0,-1,566,1534,0,0
-651,-510,0,0,0,0,0,0,0,0,0,-1,573,1534,0,0
-644,-510,0,0,0,0,0,0,0,0,0,-1,580,1534,0,0
-637,-510,0,0,0,0,0,0,0,0,0,-1,587,1534,0,0
-630,-510,0,0,0,0,0,0,0,0,0,-1,594,1534,0,0
-623,-510,0,0,0,0,0,0,0,0,0,-1,601,1534,0,0
-616,-510,0,0,0,0,0,0,0,0,0,-1,608,1534,0,0
-609,-510,0,0,0,0,0,0,0,0,0,-1,615,1534,0,0
-602,-510,0,0,0,0,0,0,0,0,0,-1,622,1534,0,0
-595,-510,0,0,0,0,0,0,0,0,0,-1,629,1534,0,0
-588,-510,0,0,0,0,0,0,0,0,0,-1,636,1534,0,0
-581,-510,0,0,0,0,0,0,0,0,0,-1,643,1534,0,0
-574,-510,0,0,0,0,0,0,0,0,0,-1,650,1534,0,0
-567,-510,0,0,0,0,0,0,0,0,0,-1,657,1534,0,0
-560,-510,0,0,0,0,0,0,0,0,0,-1,664,1534,0,0
-553,-510,0,0,0,0,0,0,0,0,0,-1,671,1534,0,0
-546,-510,0,0,0,0,0,0,0,0,0,-1,678,1534,0,0
-539,-510,0,0,0,0,0,0,0,0,0,-1,685,1534,0,0
-532,-510,-3.95129,4.52014,0,0,0,0,0,0,0,-1,692,1534,-3.95131,-4.5202
-525,-510,-2.77411,0.316772,0,0,0,0,0,0,0,-1,699,1534,-2.77409,-0.3168
-518,-510,-2.86847,2.71423,0,0,0,0,0,0,0,-1,706,1534,-2.86849,-2.71424
-511,-510,-2.28571,4.48083,0,0,0,0,0,0,0,-1,713,1534,-2.28571,-4.48086
-504,-510,-4.86731,10.8224,0,0,0,0,0,0,0,-1,720,1534,-4.8673,-10.8224
-497,-510,-3.42352,15.5178,0,0,0,0,0,0,0,-1,727,1534,-3.42352,-15.5178
-490,-510,-5.9472,18.5184,0,0,0,0,0,0,0,-1,734,1534,-5.94718,-18.5185
-483,-510,-6.79639,20.8453,0,0,0,0,0,0,0,-1,741,1534,-6.79638,-20.8454
-476,-510,-9.21338,25.0924,0,0,0,0,0,0,0,-1,748,1534,-9.21335,-25.0924
-469,-510,-9.16193,25.9197,-0.000160106,-0.00663955,0.000568444,-0.000110614,-0.00668904,0.0868464,0.00442295,0.0255765,755,1534,-9.16191,-25.9197
-462,-510,-9.21075,26.7052,-0.000956957,-0.00545856,-0.000108305,-0.000954352,-0.00546116,-0.0240406,0.00336803,0.0127421,762,1534,-9.21073,-26.7052
-455,-510,-9.25897,27.5479,-0.00126519,-0.00410083,-0.000379407,-0.0012153,-0.00415072,-0.130736,0.00246406,0.0156352,769,1534,-9.25895,-27.5478
-448,-510,-9.29114,28.3495,-0.0011813,-0.00275143,-0.00036307,-0.00110141,-0.00283132,-0.216589,0.00164803,0.0143083,776,1534,-9.29117,-28.3495
-441,-510,-9.33685,29.1226,-0.000712419,-0.00131662,-9.12985e-06,-0.000712281,-0.00131676,-0.0151059,0.000761081,0.0147903,783,1534,-9.33687,-29.1225
-434,-510,-9.41864,29.8912,1.49008e-05,0.000137739,0.000564902,0.000644551,-0.000491912,0.839548,0.000658107,0.0154962,790,1534,-9.41861,-29.8913
-427,-510,-9.49585,30.6003,0.000915274,0.00146186,0.001248,0.00246614,-8.9006e-05,0.89319,0.00167455,0.0236997,797,1534,-9.49582,-30.6004
-420,-510,-9.51337,31.4241,0.00202331,0.00278476,0.00207739,0.00451603,0.000292043,0.876029,0.00291821,0.0231498,804,1534,-9.51335,-31.4241
-413,-510,-9.52026,32.2666,0.0033674,0.00401,0.003089,0.00679436,0.000583037,0.837219,0.00434828,0.0120115,811,1534,-9.52024,-32.2666
-406,-510,-9.57092,33.043,0.0047812,0.00517587,0.00411599,0.00909926,0.000857813,0.809351,0.00580141,0.0110081,818,1534,-9.57094,-33.043
-399,-510,-9.61365,33.8153,0.00626257,0.00667844,0.00534645,0.011821,0.00112002,0.804835,0.00753512,0.0164081,825,1534,-9.61365,-33.8153
-392,-510,-9.5451,34.6083,0,0,0,0,0,0,0,-1,832,1534,-9.54511,-34.6083
-385,-510,-7.23199,31.704,0,0,0,0,0,0,0,-1,839,1534,-7.23198,-31.704
-378,-510,-1.78308,13.8044,0,0,0,0,0,0,0,-1,846,1534,-1.78309,-13.8044
-371,-510,-1.74982,13.8027,0,0,0,0,0,0,0,-1,853,1534,-1.74981,-13.8028
-364,-510,-1.3479,13.7771,0,0,0,0,0,0,0,-1,860,1534,-1.34791,-13.7771
-357,-510,-0.254395,8.89575,0,0,0,0,0,0,0,-1,867,1534,-0.254397,-8.89569
-350,-510,0.471191,6.06458,0,0,0,0,0,0,0,-1,874,1534,0.47118,-6.06453
-343,-510,-6.96869,26.3074,0,0,0,0,0,0,0,-1,881,1534,-6.9687,-26.3074
-336,-510,-5.60437,29.5996,0,0,0,0,0,0,0,-1,888,1534,-5.60435,-29.5996
-329,-510,-4.87781,20.6893,0,0,0,0,0,0,0,-1,895,1534,-4.87782,-20.6894
-322,-510,-0.251526,11.973,0,0,0,0,0,0,0,-1,902,1534,-0.251497,-11.9731
-315,-510,-1.73047,10.9796,0,0,0,0,0,0,0,-1,909,1534,-1.73049,-10.9796
-308,-510,-2.05328,9.72034,0,0,0,0,0,0,0,-1,916,1534,-2.05327,-9.72036
-301,-510,-1.85437,11.5869,0,0,0,0,0,0,0,-1,923,1534,-1.85437,-11.5869
-294,-510,0,0,0,0,0,0,0,0,0,-1,930,1534,0,0
-287,-510,0,0,0,0,0,0,0,0,0,-1,937,1534,0,0
-280,-510,0,0,0,0,0,0,0,0,0,-1,944,1534,0,0
-273,-510,0,0,0,0,0,0,0,0,0,-1,951,1534,0,0
-266,-510,0,0,0,0,0,0,0,0,0,-1,958,1534,0,0
-259,-510,0,0,0,0,0,0,0,0,0,-1,965,1534,0,0
-252,-510,0,0,0,0,0,0,0,0,0,-1,972,1534,0,0
-245,-510,0,0,0,0,0,0,0,0,0,-1,979,1534,0,0
-238,-510,0,0,0,0,0,0,0,0,0,-1,986,1534,0,0
-231,-510,0,0,0,0,0,0,0,0,0,-1,993,1534,0,0
-224,-510,0,0,0,0,0,0,0,0,0,-1,1000,1534,0,0
-217,-510,0,0,0,0,0,0,0,0,0,-1,1007,1534,0,0
-210,-510,0,0,0,0,0,0,0,0,0,-1,1014,1534,0,0
-203,-510,0,0,0,0,0,0,0,0,0,-1,1021,1534,0,0
-196,-510,0,0,0,0,0,0,0,0,0,-1,1028,1534,0,0
-189,-510,0,0,0,0,0,0,0,0,0,-1,1035,1534,0,0
-182,-510,0,0,0,0,0,0,0,0,0,-1,1042,1534,0,0
-175,-510,0,0,0,0,0,0,0,0,0,-1,1049,1534,0,0
-168,-510,0,0,0,0,0,0,0,0,0,-1,1056,1534,0,0
-161,-510,0,0,0,0,0,0,0,0,0,-1,1063,1534,0,0
-154,-510,0,0,0,0,0,0,0,0,0,-1,1070,1534,0,0
-147,-510,0,0,0,0,0,0,0,0,0,-1,1077,1534,0,0
-140,-510,0,0,0,0,0,0,0,0,0,-1,1084,1534,0,0
-133,-510,0,0,0,0,0,0,0,0,0,-1,1091,1534,0,0
-126,-510,0,0,0,0,0,0,0,0,0,-1,1098,1534,0,0
-119,-510,0,0,0,0,0,0,0,0,0,-1,1105,1534,0,0
-112,-510,0,0,0,0,0,0,0,0,0,-1,1112,1534,0,0
-105,-510,0,0,0,0,0,0,0,0,0,-1,1119,1534,0,0
-98,-510,0,0,0,0,0,0,0,0,0,-1,1126,1534,0,0
-91,-510,0,0,0,0,0,0,0,0,0,-1,1133,1534,0,0
-84,-510,0,0,0,0,0,0,0,0,0,-1,1140,1534,0,0
-77,-510,0,0,0,0,0,0,0,0,0,-1,1147,1534,0,0
-70,-510,0,0,0,0,0,0,0,0,0,-1,1154,1534,0,0
-63,-510,0,0,0,0,0,0,0,0,0,-1,1161,1534,0,0
-56,-510,0,0,0,0,0,0,0,0,0,-1,1168,1534,0,0
-49,-510,0,0,0,0,0,0,0,0,0,-1,1175,1534,0,0
-42,-510,0,0,0,0,0,0,0,0,0,-1,1182,1534,0,0
-35,-510,0,0,0,0,0,0,0,0,0,-1,1189,1534,0,0
-28,-510,0,0,0,0,0,0,0,0,0,-1,1196,1534,0,0
-21,-510,0,0,0,0,0,0,0,0,0,-1,1203,1534,0,0
-14,-510,0,0,0,0,0,0,0,0,0,-1,1210,1534,0,0
-7,-510,0,0,0,0,0,0,0,0,0,-1,1217,1534,0,0
0,-510,0,0,0,0,0,0,0,0,0,-1,1224,1534,0,0
7,-510,0,0,0,0,0,0,0,0,0,-1,1231,1534,0,0
14,-510,0,0,0,0,0,0,0,0,0,-1,1238,1534,0,0
21,-510,0,0,0,0,0,0,0,0,0,-1,1245,1534,0,0
28,-510,0,0,0,0,0,0,0,0,0,-1,1252,1534,0,0
35,-510,0,0,0,0,0,0,0,0,0,-1,1259,1534,0,0
42,-510,0,0,0,0,0,0,0,0,0,-1,1266,1534,0,0
49,-510,0,0,0,0,0,0,0,0,0,-1,1273,1534,0,0
56,-510,0,0,0,0,0,0,0,0,0,-1,1280,1534,0,0
63,-510,0,0,0,0,0,0,0,0,0,-1,1287,1534,0,0
70,-510,0,0,0,0,0,0,0,0,0,-1,1294,1534,0,0
77,-510,0,0,0,0,0,0,0,0,0,-1,1301,1534,0,0
84,-510,0,0,0,0,0,0,0,0,0,-1,1308,1534,0,0
91,-510,0,0,0,0,0,0,0,0,0,-1,1315,1534,0,0
98,-510,0,0,0,0,0,0,0,0,0,-1,1322,1534,0,0
105,-510,0,0,0,0,0,0,0,0,0,-1,1329,1534,0,0
112,-510,0,0,0,0,0,0,0,0,0,-1,1336,1534,0,0
119,-510,0,0,0,0,0,0,0,0,0,-1,1343,1534,0,0
126,-510,0,0,0,0,0,0,0,0,0,-1,1350,1534,0,0
133,-510,0,0,0,0,0,0,0,0,0,-1,1357,1534,0,0
140,-510,0,0,0,0,0,0,0,0,0,-1,1364,1534,0,0
147,-510,0,0,0,0,0,0,0,0,0,-1,1371,1534,0,0
154,-510,0,0,0,0,0,0,0,0,0,-1,1378,1534,0,0
161,-510,0,0,0,0,0,0,0,0,0,-1,1385,1534,0,0
168,-510,0,0,0,0,0,0,0,0,0,-1,1392,1534,0,0
175,-510,0,0,0,0,0,0,0,0,0,-1,1399,1534,0,0
182,-510,0,0,0,0,0,0,0,0,0,-1,1406,1534,0,0
189,-510,0,0,0,0,0,0,0,0,0,-1,1413,1534,0,0
196,-510,0,0,0,0,0,0,0,0,0,-1,1420,1534,0,0
203,-510,0,0,0,0,0,0,0,0,0,-1,1427,1534,0,0
210,-510,0,0,0,0,0,0,0,0,0,-1,1434,1534,0,0
217,-510,0,0,0,0,0,0,0,0,0,-1,1441,1534,0,0
224,-510,0,0,0,0,0,0,0,0,0,-1,1448,1534,0,0
231,-510,0,0,0,0,0,0,0,0,0,-1,1455,1534,0,0
238,-510,0,0,0,0,0,0,0,0,0,-1,1462,1534,0,0
245,-510,0,0,0,0,0,0,0,0,0,-1,1469,1534,0,0
252,-510,0,0,0,0,0,0,0,0,0,-1,1476,1534,0,0
259,-510,0,0,0,0,0,0,0,0,0,-1,1483,1534,0,0
266,-510,0,0,0,0,0,0,0,0,0,-1,1490,1534,0,0
273,-510,0,0,0,0,0,0,0,0,0,-1,1497,1534,0,0
280,-510,0,0,0,0,0,0,0,0,0,-1,1504,1534,0,0
287,-510,0,0,0,0,0,0,0,0,0,-1,1511,1534,0,0
294,-510,0,0,0,0,0,0,0,0,0,-1,1518,1534,0,0
301,-510,0,0,0,0,0,0,0,0,0,-1,1525,1534,0,0
308,-510,0,0,0,0,0,0,0,0,0,-1,1532,1534,0,0
315,-510,0,0,0,0,0,0,0,0,0,-1,1539,1534,0,0
322,-510,0,0,0,0,0,0,0,0,0,-1,1546,1534,0,0
329,-510,0,0,0,0,0,0,0,0,0,-1,1553,1534,0,0
336,-510,0,0,0,0,0,0,0,0,0,-1,1560,1534,0,0
343,-510,0,0,0,0,0,0,0,0,0,-1,1567,1534,0,0
350,-510,0,0,0,0,0,0,0,0,0,-1,1574,1534,0,0
357,-510,0,0,0,0,0,0,0,0,0,-1,1581,1534,0,0
364,-510,0,0,0,0,0,0,0,0,0,-1,1588,1534,0,0
371,-510,0,0,0,0,0,0,0,0,0,-1,1595,1534,0,0
378,-510,0,0,0,0,0,0,0,0,0,-1,1602,1534,0,0
385,-510,0,0,0,0,0,0,0,0,0,-1,1609,1534,0,0
392,-510,0,0,0,0,0,0,0,0,0,-1,1616,1534,0,0
399,-510,0,0,0,0,0,0,0,0,0,-1,1623,1534,0,0
406,-510,0,0,0,0,0,0,0,0,0,-1,1630,1534,0,0
413,-510,0,0,0,0,0,0,0,0,0,-1,1637,1534,0,0
420,-510,14.1888,6.71936,0,0,0,0,0,0,0,-1,1644,1534,14.1889,-6.71939
427,-510,10.2134,5.59485,0,0,0,0,0,0,0,-1,1651,1534,10.2134,-5.59485
434,-510,11.8219,4.07898,0,0,0,0,0,0,0,-1,1658,1534,11.8219,-4.07895
441,-510,12.6812,3.02991,0,0,0,0,0,0,0,-1,1665,1534,12.6811,-3.0299
448,-510,13.2379,2.2804,0,0,0,0,0,0,0,-1,1672,1534,13.2379,-2.28037
455,-510,9.76892,2.20642,0,0,0,0,0,0,0,-1,1679,1534,9.76894,-2.20647
462,-510,9.84692,2.49182,0,0,0,0,0,0,0,-1,1686,1534,9.84695,-2.49185
469,-510,16.6072,7.26941,0,0,0,0,0,0,0,-1,1693,1534,16.6072,-7.26945
476,-510,15.9199,7.8645,0,0,0,0,0,0,0,-1,1700,1534,15.9199,-7.86455
483,-510,13.0833,8.10938,0,0,0,0,0,0,0,-1,1707,1534,13.0833,-8.10932
490,-510,13.0841,15.3286,0,0,0,0,0,0,0,-1,1714,1534,13.0841,-15.3286
497,-510,15.5652,18.823,0,0,0,0,0,0,0,-1,1721,1534,15.5652,-18.823
504,-510,15.998,18.7478,0,0,0,0,0,0,0,-1,1728,1534,15.998,-18.7478
511,-510,15.9443,18.0476,0,0,0,0,0,0,0,-1,1735,1534,15.9443,-18.0476
518,-510,21.5343,27.1368,0,0,0,0,0,0,0,-1,1742,1534,21.5342,-27.1368
525,-510,26.7136,34.8073,0,0,0,0,0,0,0,-1,1749,1534,26.7136,-34.8073
532,-510,27.0244,33.7797,0.00925062,0.00682167,-0.00587824,0.0140385,0.00203376,-0.683529,0.00876015,0.0316741,1756,1534,27.0244,-33.7797
539,-510,27.0745,32.8995,0.00722239,0.00508645,-0.00439948,0.0106817,0.00162716,-0.666327,0.00664546,0.0146175,1763,1534,27.0745,-32.8995
546,-510,27.0044,32.1844,0.0056931,0.00377279,-0.00326186,0.00813319,0.0013327,-0.642261,0.00503701,0.0148595,1770,1534,27.0044,-32.1845
553,-510,26.9797,31.4236,0.00447518,0.00263497,-0.00230554,0.00603744,0.00107271,-0.59554,0.00371932,0.0143519,1777,1534,26.9797,-31.4236
560,-510,26.9305,30.6416,0.00356477,0.00173594,-0.00157458,0.00447119,0.000829522,-0.522331,0.00274637,0.0135936,1784,1534,26.9306,-30.6416
567,-510,26.8796,29.8708,0.00297221,0.00108569,-0.00111049,0.00348598,0.000571925,-0.433321,0.00215875,0.0129113,1791,1534,26.8796,-29.8708
574,-510,26.858,29.1285,0.00263842,0.000615156,-0.000797711,0.0029151,0.000338478,-0.333856,0.00184098,0.0136848,1798,1534,26.858,-29.1285
581,-510,26.8335,28.4066,0.00249722,0.000244307,-0.000614855,0.0026541,8.74271e-05,-0.249819,0.00174099,0.0123122,1805,1534,26.8334,-28.4066
588,-510,26.7924,27.6636,0.00256438,6.8914e-05,-0.000581837,0.00269338,-6.00779e-05,-0.218169,0.00181594,0.013726,1812,1534,26.7924,-27.6636
595,-510,26.8704,26.7655,0.0028003,6.36928e-05,-0.00059432,0.0029238,-5.98045e-05,-0.204881,0.00196944,0.0209662,1819,1534,26.8703,-26.7655
602,-510,26.8757,25.8254,0,0,0,0,0,0,0,-1,1826,1534,26.8758,-25.8255
609,-510,21.259,19.222,0,0,0,0,0,0,0,-1,1833,1534,21.259,-19.222
616,-510,18.7024,16.2474,0,0,0,0,0,0,0,-1,1840,1534,18.7024,-16.2474
623,-510,19.6013,14.6211,0,0,0,0,0,0,0,-1,1847,1534,19.6013,-14.6211
630,-510,13.7461,9.30334,0,0,0,0,0,0,0,-1,1854,1534,13.7461,-9.30335
637,-510,11.0155,7.38464,0,0,0,0,0,0,0,-1,1861,1534,11.0155,-7.38463
644,-510,11.5809,7.17126,0,0,0,0,0,0,0,-1,1868,1534,11.5809,-7.17123
651,-510,8.70471,3.5061,0,0,0,0,0,0,0,-1,1875,1534,8.70475,-3.50611
658,-510,0,0,0,0,0,0,0,0,0,-1,1882,1534,0,0
665,-510,0,0,0,0,0,0,0,0,0,-1,1889,1534,0,0
672,-510,0,0,0,0,0,0,0,0,0,-1,1896,1534,0,0
679,-510,0,0,0,0,0,0,0,0,0,-1,1903,1534,0,0
686,-510,0,0,0,0,0,0,0,0,0,-1,1910,1534,0,0
693,-510,0,0,0,0,0,0,0,0,0,-1,1917,1534,0,0
700,-510,0,0,0,0,0,0,0,0,0,-1,1924,1534,0,0
707,-510,0,0,0,0,0,0,0,0,0,-1,1931,1534,0,0
714,-510,0,0,0,0,0,0,0,0,0,-1,1938,1534,0,0
721,-510,0,0,0,0,0,0,0,0,0,-1,1945,1534,0,0
728,-510,0,0,0,0,0,0,0,0,0,-1,1952,1534,0,0
735,-510,0,0,0,0,0,0,0,0,0,-1,1959,1534,0,0
742,-510,0,0,0,0,0,0,0,0,0,-1,1966,1534,0,0
749,-510,0,0,0,0,0,0,0,0,0,-1,1973,1534,0,0
756,-510,0,0,0,0,0,0,0,0,0,-1,1980,1534,0,0
763,-510,0,0,0,0,0,0,0,0,0,-1,1987,1534,0,0
770,-510,0,0,0,0,0,0,0,0,0,-1,1994,1534,0,0
777,-510,0,0,0,0,0,0,0,0,0,-1,2001,1534,0,0
784,-510,0,0,0,0,0,0,0,0,0,-1,2008,1534,0,0
791,-510,0,0,0,0,0,0,0,0,0,-1,2015,1534,0,0
798,-510,0,0,0,0,0,0,0,0,0,-1,2022,1534,0,0
805,-510,0,0,0,0,0,0,0,0,0,-1,2029,1534,0,0
812,-510,0,0,0,0,0,0,0,0,0,-1,2036,1534,0,0
-700,-517,0,0,0,0,0,0,0,0,0,-1,524,1541,0,0
-693,-517,0,0,0,0,0,0,0,0,0,-1,531,1541,0,0
-686,-517,0,0,0,0,0,0,0,0,0,-1,538,1541,0,0
-679,-517,0,0,0,0,0,0,0,0,0,-1,545,1541,0,0
-672,-517,0,0,0,0,0,0,0,0,0,-1,552,1541,0,0
-665,-517,0,0,0,0,0,0,0,0,0,-1,559,1541,0,0
-658,-517,0,0,0,0,0,0,0,0,0,-1,566,1541,0,0
-651,-517,0,0,0,0,0,0,0,0,0,-1,573,1541,0,0
-644,-517,0,0,0,0,0,0,0,0,0,-1,580,1541,0,0
-637,-517,0,0,0,0,0,0,0,0,0,-1,587,1541,0,0
-630,-517,0,0,0,0,0,0,0,0,0,-1,594,1541,0,0
-623,-517,0,0,0,0,0,0,0,0,0,-1,601,1541,0,0
-616,-517,0,0,0,0,0,0,0,0,0,-1,608,1541,0,0
-609,-517,0,0,0,0,0,0,0,0,0,-1,615,1541,0,0
-602,-517,0,0,0,0,0,0,0,0,0,-1,622,1541,0,0
-595,-517,0,0,0,0,0,0,0,0,0,-1,629,1541,0,0
-588,-517,0,0,0,0,0,0,0,0,0,-1,636,1541,0,0
-581,-517,0,0,0,0,0,0,0,0,0,-1,643,1541,0,0
-574,-517,0,0,0,0,0,0,0,0,0,-1,650,1541,0,0
-567,-517,0,0,0,0,0,0,0,0,0,-1,657,1541,0,0
-560,-517,0,0,0,0,0,0,0,0,0,-1,664,1541,0,0
-553,-517,0,0,0,0,0,0,0,0,0,-1,671,1541,0,0
-546,-517,0,0,0,0,0,0,0,0,0,-1,678,1541,0,0
-539,-517,0,0,0,0,0,0,0,0,0,-1,685,1541,0,0
-532,-517,0,0,0,0,0,0,0,0,0,-1,692,1541,0,0
-525,-517,-3.62903,4.3606,0,0,0,0,0,0,0,-1,699,1541,-3.62904,-4.36056
-518,-517,-1.664,2.27209,0,0,0,0,0,0,0,-1,706,1541,-1.66399,-2.27207
-511,-517,-0.999146,5.52063,0,0,0,0,0,0,0,-1,713,1541,-0.999126,-5.52059
-504,-517,-1.06946,8.67432,0,0,0,0,0,0,0,-1,720,1541,-1.06947,-8.6743
-497,-517,-5.43036,17.4033,0,0,0,0,0,0,0,-1,727,1541,-5.43033,-17.4034
-490,-517,-6.20526,19.4496,0,0,0,0,0,0,0,-1,734,1541,-6.20526,-19.4495
-483,-517,-6.2254,20.368,0,0,0,0,0,0,0,-1,741,1541,-6.22542,-20.368
-476,-517,-8.04132,25.0768,0,0,0,0,0,0,0,-1,748,1541,-8.04135,-25.0768
-469,-517,-8.2384,25.9751,-0.00128378,-0.00958122,-0.000386805,-0.00126579,-0.00959921,-0.0464831,0.00602205,0.03004,755,1541,-8.23843,-25.9751
-462,-517,-8.45905,26.7148,-0.00215915,-0.00778154,-0.00105231,-0.00196865,-0.00797204,-0.179091,0.00479513,0.0307776,762,1541,-8.45904,-26.7149
-455,-517,-8.47974,27.5771,-0.00249224,-0.00593118,-0.00129211,-0.00206087,-0.00636255,-0.322217,0.00374859,0.0184907,769,1541,-8.47977,-27.5772
-448,-517,-8.50037,28.4099,-0.00239626,-0.00431011,-0.00127407,-0.00175977,-0.0049466,-0.463302,0.00289526,0.0148065,776,1541,-8.50037,-28.4099
-441,-517,-8.58374,29.1842,-0.00188168,-0.00267549,-0.00089601,-0.00129861,-0.00325857,-0.576902,0.00189421,0.0130596,783,1541,-8.58373,-29.1842
-434,-517,-8.62018,29.951,-0.00111379,-0.00113181,-0.000322996,-0.000799681,-0.00144592,-0.771451,0.00083637,0.0149682,790,1541,-8.62021,-29.9511
-427,-517,-8.65497,30.7101,-0.000202262,0.000196978,0.000330604,0.000383553,-0.000388837,1.057,0.000445943,0.014474,797,1541,-8.65496,-30.7101
-420,-517,-8.67841,31.5197,0.00087455,0.0014497,0.00108454,0.00228415,4.01055e-05,0.914995,0.00150957,0.0314383,804,1541,-8.67838,-31.5196
-413,-517,-8.7605,32.2743,0.00210176,0.00261151,0.00193287,0.00430623,0.000407036,0.850952,0.00274522,0.0173211,811,1541,-8.76052,-32.2743
-406,-517,-8.78564,33.0831,0.00337944,0.00365152,0.00280933,0.0063281,0.000702852,0.809591,0.00400506,0.0120695,818,1541,-8.78565,-33.0831
-399,-517,-8.81152,33.8683,0.00465699,0.00488878,0.00378186,0.00855652,0.000989252,0.800716,0.00540486,0.0110486,825,1541,-8.81153,-33.8682
-392,-517,-8.8371,34.6588,0.00578892,0.00614043,0.00462943,0.0105974,0.00133191,0.804371,0.0066655,0.0203168,832,1541,-8.83712,-34.6588
-385,-517,-8.79181,35.5232,0,0,0,0,0,0,0,-1,839,1541,-8.79182,-35.5233
-378,-517,-6.61444,32.6315,0,0,0,0,0,0,0,-1,846,1541,-6.61445,-32.6315
-371,-517,-1.37585,13.2646,0,0,0,0,0,0,0,-1,853,1541,-1.37586,-13.2647
-364,-517,-1.26245,12.6289,0,0,0,0,0,0,0,-1,860,1541,-1.26243,-12.6289
-357,-517,-1.23889,12.979,0,0,0,0,0,0,0,-1,867,1541,-1.23891,-12.979
-350,-517,-5.40198,23.8954,0,0,0,0,0,0,0,-1,874,1541,-5.40196,-23.8954
-343,-517,-5.45844,29.2598,0,0,0,0,0,0,0,-1,881,1541,-5.45842,-29.2598
-336,-517,-4.53223,29.6708,0,0,0,0,0,0,0,-1,888,1541,-4.53221,-29.6708
-329,-517,-3.60602,30.0817,0,0,0,0,0,0,0,-1,895,1541,-3.60601,-30.0817
-322,-517,-4.21246,19.5819,0,0,0,0,0,0,0,-1,902,1541,-4.21244,-19.5819
-315,-517,-0.987976,7.29749,0,0,0,0,0,0,0,-1,909,1541,-0.987993,-7.29743
-308,-517,3.27911,17.621,0,0,0,0,0,0,0,-1,916,1541,3.27913,-17.621
-301,-517,-1.69141,8.87488,0,0,0,0,0,0,0,-1,923,1541,-1.69141,-8.87485
-294,-517,-1.72583,9.92566,0,0,0,0,0,0,0,-1,930,1541,-1.72584,-9.92571
-287,-517,-3.09045,12.1472,0,0,0,0,0,0,0,-1,937,1541,-3.09043,-12.1472
-280,-517,0,0,0,0,0,0,0,0,0,-1,944,1541,0,0
-273,-517,0,0,0,0,0,0,0,0,0,-1,951,1541,0,0
-266,-517,0,0,0,0,0,0,0,0,0,-1,958,1541,0,0
-259,-517,0,0,0,0,0,0,0,0,0,-1,965,1541,0,0
-252,-517,0,0,0,0,0,0,0,0,0,-1,972,1541,0,0
-245,-517,0,0,0,0,0,0,0,0,0,-1,979,1541,0,0
-238,-517,0,0,0,0,0,0,0,0,0,-1,986,1541,0,0
-231,-517,0,0,0,0,0,0,0,0,0,-1,993,1541,0,0
-224,-517,0,0,0,0,0,0,0,0,0,-1,1000,1541,0,0
-217,-517,0,0,0,0,0,0,0,0,0,-1,1007,1541,0,0
-210,-517,0,0,0,0,0,0,0,0,0,-1,1014,1541,0,0
-203,-517,0,0,0,0,0,0,0,0,0,-1,1021,1541,0,0
-196,-517,0,0,0,0,0,0,0,0,0,-1,1028,1541,0,0
-189,-517,0,0,0,0,0,0,0,0,0,-1,1035,1541,0,0
-182,-517,0,0,0,0,0,0,0,0,0,-1,1042,1541,0,0
-175,-517,0,0,0,0,0,0,0,0,0,-1,1049,1541,0,0
-168,-517,0,0,0,0,0,0,0,0,0,-1,1056,1541,0,0
-161,-517,0,0,0,0,0,0,0,0,0,-1,1063,1541,0,0
-154,-517,0,0,0,0,0,0,0,0,0,-1,1070,1541,0,0
-147,-517,0,0,0,0,0,0,0,0,0,-1,1077,1541,0,0
-140,-517,0,0,0,0,0,0,0,0,0,-1,1084,1541,0,0
-133,-517,0,0,0,0,0,0,0,0,0,-1,1091,1541,0,0
-126,-517,0,0,0,0,0,0,0,0,0,-1,1098,1541,0,0
-119,-517,0,0,0,0,0,0,0,0,0,-1,1105,1541,0,0
-112,-517,0,0,0,0,0,0,0,0,0,-1,1112,1541,0,0
-105,-517,0,0,0,0,0,0,0,0,0,-1,1119,1541,0,0
-98,-517,0,0,0,0,0,0,0,0,0,-1,1126,1541,0,0
-91,-517,0,0,0,0,0,0,0,0,0,-1,1133,1541,0,0
-84,-517,0,0,0,0,0,0,0,0,0,-1,1140,1541,0,0
-77,-517,0,0,0,0,0,0,0,0,0,-1,1147,1541,0,0
-70,-517,0,0,0,0,0,0,0,0,0,-1,1154,1541,0,0
-63,-517,0,0,0,0,0,0,0,0,0,-1,1161,1541,0,0
-56,-517,0,0,0,0,0,0,0,0,0,-1,1168,1541,0,0
-49,-517,0,0,0,0,0,0,0,0,0,-1,1175,1541,0,0
-42,-517,0,0,0,0,0,0,0,0,0,-1,1182,1541,0,0
-35,-517,0,0,0,0,0,0,0,0,0,-1,1189,1541,0,0
-28,-517,0,0,0,0,0,0,0,0,0,-1,1196,1541,0,0
-21,-517,0,0,0,0,0,0,0,0,0,-1,1203,1541,0,0
-14,-517,0,0,0,0,0,0,0,0,0,-1,1210,1541,0,0
-7,-517,0,0,0,0,0,0,0,0,0,-1,1217,1541,0,0
0,-517,0,0,0,0,0,0,0,0,0,-1,1224,1541,0,0
7,-517,0,0,0,0,0,0,0,0,0,-1,1231,1541,0,0
14,-517,0,0,0,0,0,0,0,0,0,-1,1238,1541,0,0
21,-517,0,0,0,0,0,0,0,0,0,-1,1245,1541,0,0
28,-517,0,0,0,0,0,0,0,0,0,-1,1252,1541,0,0
35,-517,0,0,0,0,0,0,0,0,0,-1,1259,1541,0,0
42,-517,0,0,0,0,0,0,0,0,0,-1,1266,1541,0,0
49,-517,0,0,0,0,0,0,0,0,0,-1,1273,1541,0,0
56,-517,0,0,0,0,0,0,0,0,0,-1,1280,1541,0,0
63,-517,0,0,0,0,0,0,0,0,0,-1,1287,1541,0,0
70,-517,0,0,0,0,0,0,0,0,0,-1,1294,1541,0,0
77,-517,0,0,0,0,0,0,0,0,0,-1,1301,1541,0,0
84,-517,0,0,0,0,0,0,0,0,0,-1,1308,1541,0,0
91,-517,0,0,0,0,0,0,0,0,0,-1,1315,1541,0,0
98,-517,0,0,0,0,0,0,0,0,0,-1,1322,1541,0,0
105,-517,0,0,0,0,0,0,0,0,0,-1,1329,1541,0,0
112,-517,0,0,0,0,0,0,0,0,0,-1,1336,1541,0,0
119,-517,0,0,0,0,0,0,0,0,0,-1,1343,1541,0,0
126,-517,0,0,0,0,0,0,0,0,0,-1,1350,1541,0,0
133,-517,0,0,0,0,0,0,0,0,0,-1,1357,1541,0,0
140,-517,0,0,0,0,0,0,0,0,0,-1,1364,1541,0,0
147,-517,0,0,0,0,0,0,0,0,0,-1,1371,1541,0,0
154,-517,0,0,0,0,0,0,0,0,0,-1,1378,1541,0,0
161,-517,0,0,0,0,0,0,0,0,0,-1,1385,1541,0,0
168,-517,0,0,0,0,0,0,0,0,0,-1,1392,1541,0,0
175,-517,0,0,0,0,0,0,0,0,0,-1,1399,1541,0,0
182,-517,0,0,0,0,0,0,0,0,0,-1,1406,1541,0,0
189,-517,0,0,0,0,0,0,0,0,0,-1,1413,1541,0,0
196,-517,0,0,0,0,0,0,0,0,0,-1,1420,1541,0,0
203,-517,0,0,0,0,0,0,0,0,0,-1,1427,1541,0,0
210,-517,0,0,0,0,0,0,0,0,0,-1,1434,1541,0,0
217,-517,0,0,0,0,0,0,0,0,0,-1,1441,1541,0,0
224,-517,0,0,0,0,0,0,0,0,0,-1,1448,1541,0,0
231,-517,0,0,0,0,0,0,0,0,0,-1,1455,1541,0,0
238,-517,0,0,0,0,0,0,0,0,0,-1,1462,1541,0,0
245,-517,0,0,0,0,0,0,0,0,0,-1,1469,1541,0,0
252,-517,0,0,0,0,0,0,0,0,0,-1,1476,1541,0,0
259,-517,0,0,0,0,0,0,0,0,0,-1,1483,1541,0,0
266,-517,0,0,0,0,0,0,0,0,0,-1,1490,1541,0,0
273,-517,0,0,0,0,0,0,0,0,0,-1,1497,1541,0,0
280,-517,0,0,0,0,0,0,0,0,0,-1,1504,1541,0,0
287,-517,0,0,0,0,0,0,0,0,0,-1,1511,1541,0,0
294,-517,0,0,0,0,0,0,0,0,0,-1,1518,1541,0,0
301,-517,0,0,0,0,0,0,0,0,0,-1,1525,1541,0,0
308,-517,0,0,0,0,0,0,0,0,0,-1,1532,1541,0,0
315,-517,0,0,0,0,0,0,0,0,0,-1,1539,1541,0,0
322,-517,0,0,0,0,0,0,0,0,0,-1,1546,1541,0,0
329,-517,0,0,0,0,0,0,0,0,0,-1,1553,1541,0,0
336,-517,0,0,0,0,0,0,0,0,0,-1,1560,1541,0,0
343,-517,0,0,0,0,0,0,0,0,0,-1,1567,1541,0,0
350,-517,0,0,0,0,0,0,0,0,0,-1,1574,1541,0,0
357,-517,0,0,0,0,0,0,0,0,0,-1,1581,1541,0,0
364,-517,0,0,0,0,0,0,0,0,0,-1,1588,1541,0,0
371,-517,0,0,0,0,0,0,0,0,0,-1,1595,1541,0,0
378,-517,0,0,0,0,0,0,0,0,0,-1,1602,1541,0,0
385,-517,0,0,0,0,0,0,0,0,0,-1,1609,1541,0,0
392,-517,0,0,0,0,0,0,0,0,0,-1,1616,1541,0,0
399,-517,0,0,0,0,0,0,0,0,0,-1,1623,1541,0,0
406,-517,13.1395,7.01978,0,0,0,0,0,0,0,-1,1630,1541,13.1396,-7.01981
413,-517,12.8859,6.31592,0,0,0,0,0,0,0,-1,1637,1541,12.8858,-6.31588
420,-517,12.4789,6.20337,0,0,0,0,0,0,0,-1,1644,1541,12.4789,-6.20333
427,-517,11.647,4.66516,0,0,0,0,0,0,0,-1,1651,1541,11.647,-4.66519
434,-517,12.3719,3.92773,0,0,0,0,0,0,0,-1,1658,1541,12.3719,-3.92776
441,-517,13.146,3.14124,0,0,0,0,0,0,0,-1,1665,1541,13.146,-3.14121
448,-517,13.8861,2.36682,0,0,0,0,0,0,0,-1,1672,1541,13.8861,-2.36684
455,-517,13.6012,4.06335,0,0,0,0,0,0,0,-1,1679,1541,13.6012,-4.06335
462,-517,14.8956,7.0752,0,0,0,0,0,0,0,-1,1686,1541,14.8956,-7.07525
469,-517,13.6292,6.87744,0,0,0,0,0,0,0,-1,1693,1541,13.6292,-6.87739
476,-517,17.1632,14.1487,0,0,0,0,0,0,0,-1,1700,1541,17.1632,-14.1487
483,-517,16.5157,15.0776,0,0,0,0,0,0,0,-1,1707,1541,16.5157,-15.0777
490,-517,15.5439,18.0258,0,0,0,0,0,0,0,-1,1714,1541,15.5439,-18.0258
497,-517,16.0292,18.7786,0,0,0,0,0,0,0,-1,1721,1541,16.0291,-18.7786
504,-517,17.3815,22.3873,0,0,0,0,0,0,0,-1,1728,1541,17.3814,-22.3873
511,-517,16.9674,21.8491,0,0,0,0,0,0,0,-1,1735,1541,16.9674,-21.8491
518,-517,25.9875,35.3406,0,0,0,0,0,0,0,-1,1742,1541,25.9876,-35.3405
525,-517,26.1863,34.5404,0.00935223,0.00735302,-0.00624846,0.0146805,0.00202472,-0.706082,0.0091868,0.0274853,1749,1541,26.1863,-34.5404
532,-517,26.3491,33.6702,0.00732089,0.00571053,-0.00484527,0.0114274,0.00160399,-0.703061,0.0071439,0.0129598,1756,1541,26.3491,-33.6702
539,-517,26.3367,32.9226,0.0057175,0.00429193,-0.00365684,0.00873038,0.00127905,-0.689147,0.00544422,0.01445,1763,1541,26.3367,-32.9226
546,-517,26.2808,32.2089,0.00449535,0.00311348,-0.00269932,0.00659076,0.00101807,-0.660106,0.00409687,0.0160858,1770,1541,26.2808,-32.2089
553,-517,26.214,31.4629,0.00351154,0.0020979,-0.00187184,0.00480557,0.000803876,-0.604871,0.00297221,0.0191742,1777,1541,26.214,-31.4629
560,-517,26.1991,30.6885,0.00282095,0.00128647,-0.00123525,0.00350784,0.000599578,-0.507496,0.00216654,0.0170349,1784,1541,26.1991,-30.6885
567,-517,26.1753,29.9431,0.00243718,0.000686883,-0.00082804,0.00276683,0.000357235,-0.378872,0.00173776,0.0128734,1791,1541,26.1753,-29.9431
574,-517,26.1277,29.1716,0.00231759,0.000234566,-0.000554997,0.00245624,9.59223e-05,-0.2448,0.00160647,0.0138134,1798,1541,26.1277,-29.1717
581,-517,26.0602,28.4171,0.00245205,-0.000110136,-0.000437219,0.00252461,-0.000182689,-0.164445,0.00174715,0.0152928,1805,1541,26.0602,-28.4171
588,-517,26.0375,27.6676,0.00281309,-0.000250016,-0.000476839,0.00288561,-0.00032253,-0.150915,0.00203977,0.0171235,1812,1541,26.0374,-27.6676
595,-517,26.058,26.9324,0.00329909,-0.000160193,-0.00063958,0.00341356,-0.000274656,-0.177091,0.00237256,0.0453265,1819,1541,26.058,-26.9324
602,-517,26.2964,25.9265,0,0,0,0,0,0,0,-1,1826,1541,26.2964,-25.9266
609,-517,12.6417,10.8751,0,0,0,0,0,0,0,-1,1833,1541,12.6417,-10.8751
616,-517,14.205,10.3193,0,0,0,0,0,0,0,-1,1840,1541,14.205,-10.3194
623,-517,12.578,10.0779,0,0,0,0,0,0,0,-1,1847,1541,12.578,-10.0779
630,-517,11.7035,7.47815,0,0,0,0,0,0,0,-1,1854,1541,11.7035,-7.47812
637,-517,11.5172,5.79822,0,0,0,0,0,0,0,-1,1861,1541,11.5173,-5.79825
644,-517,11.4232,3.30579,0,0,0,0,0,0,0,-1,1868,1541,11.4232,-3.30574
651,-517,0,0,0,0,0,0,0,0,0,-1,1875,1541,0,0
658,-517,0,0,0,0,0,0,0,0,0,-1,1882,1541,0,0
665,-517,0,0,0,0,0,0,0,0,0,-1,1889,1541,0,0
672,-517,0,0,0,0,0,0,0,0,0,-1,1896,1541,0,0
679,-517,0,0,0,0,0,0,0,0,0,-1,1903,1541,0,0
686,-517,0,0,0,0,0,0,0,0,0,-1,1910,1541,0,0
693,-517,0,0,0,0,0,0,0,0,0,-1,1917,1541,0,0
700,-517,0,0,0,0,0,0,0,0,0,-1,1924,1541,0,0
707,-517,0,0,0,0,0,0,0,0,0,-1,1931,1541,0,0
714,-517,0,0,0,0,0,0,0,0,0,-1,1938,1541,0,0
721,-517,0,0,0,0,0,0,0,0,0,-1,1945,1541,0,0
728,-517,0,0,0,0,0,0,0,0,0,-1,1952,1541,0,0
735,-517,0,0,0,0,0,0,0,0,0,-1,1959,1541,0,0
742,-517,0,0,0,0,0,0,0,0,0,-1,1966,1541,0,0
749,-517,0,0,0,0,0,0,0,0,0,-1,1973,1541,0,0
756,-517,0,0,0,0,0,0,0,0,0,-1,1980,1541,0,0
763,-517,0,0,0,0,0,0,0,0,0,-1,1987,1541,0,0
770,-517,0,0,0,0,0,0,0,0,0,-1,1994,1541,0,0
777,-517,0,0,0,0,0,0,0,0,0,-1,2001,1541,0,0
784,-517,0,0,0,0,0,0,0,0,0,-1,2008,1541,0,0
791,-517,0,0,0,0,0,0,0,0,0,-1,2015,1541,0,0
798,-517,0,0,0,0,0,0,0,0,0,-1,2022,1541,0,0
805,-517,0,0,0,0,0,0,0,0,0,-1,2029,1541,0,0
812,-517,0,0,0,0,0,0,0,0,0,-1,2036,1541,0,0
-700,-524,0,0,0,0,0,0,0,0,0,-1,524,1548,0,0
-693,-524,0,0,0,0,0,0,0,0,0,-1,531,1548,0,0
-686,-524,0,0,0,0,0,0,0,0,0,-1,538,1548,0,0
-679,-524,0,0,0,0,0,0,0,0,0,-1,545,1548,0,0
-672,-524,0,0,0,0,0,0,0,0,0,-1,552,1548,0,0
-665,-524,0,0,0,0,0,0,0,0,0,-1,559,1548,0,0
-658,-524,0,0,0,0,0,0,0,0,0,-1,566,1548,0,0
-651,-524,0,0,0,0,0,0,0,0,0,-1,573,1548,0,0
-644,-524,0,0,0,0,0,0,0,0,0,-1,580,1548,0,0
-637,-524,0,0,0,0,0,0,0,0,0,-1,587,1548,0,0
-630,-524,0,0,0,0,0,0,0,0,0,-1,594,1548,0,0
-623,-524,0,0,0,0,0,0,0,0,0,-1,601,1548,0,0
-616,-524,0,0,0,0,0,0,0,0,0,-1,608,1548,0,0
-609,-524,0,0,0,0,0,0,0,0,0,-1,615,1548,0,0
-602,-524,0,0,0,0,0,0,0,0,0,-1,622,1548,0,0
-595,-524,0,0,0,0,0,0,0,0,0,-1,629,1548,0,0
-588,-524,0,0,0,0,0,0,0,0,0,-1,636,1548,0,0
-581,-524,0,0,0,0,0,0,0,0,0,-1,643,1548,0,0
-574,-524,0,0,0,0,0,0,0,0,0,-1,650,1548,0,0
-567,-524,0,0,0,0,0,0,0,0,0,-1,657,1548,0,0
-560,-524,0,0,0,0,0,0,0,0,0,-1,664,1548,0,0
-553,-524,0,0,0,0,0,0,0,0,0,-1,671,1548,0,0
-546,-524,0,0,0,0,0,0,0,0,0,-1,678,1548,0,0
-539,-524,0,0,0,0,0,0,0,0,0,-1,685,1548,0,0
-532,-524,0,0,0,0,0,0,0,0,0,-1,692,1548,0,0
-525,-524,-0.215515,3.97131,0,0,0,0,0,0,0,-1,699,1548,-0.215501,-3.97136
-518,-524,-0.806274,4.35632,0,0,0,0,0,0,0,-1,706,1548,-0.806259,-4.35633
-511,-524,-1.08301,4.29004,0,0,0,0,0,0,0,-1,713,1548,-1.08301,-4.29006
-504,-524,-1.28821,3.98145,0,0,0,0,0,0,0,-1,720,1548,-1.28822,-3.98151
-497,-524,-0.328491,8.63416,0,0,0,0,0,0,0,-1,727,1548,-0.328487,-8.63411
-490,-524,-6.65582,19.3033,0,0,0,0,0,0,0,-1,734,1548,-6.65583,-19.3034
-483,-524,-7.57153,22.1989,0,0,0,0,0,0,0,-1,741,1548,-7.57151,-22.1988
-476,-524,-7.71588,25.6006,0,0,0,0,0,0,0,-1,748,1548,-7.71591,-25.6006
-469,-524,-7.76416,26.3199,-0.00259669,-0.0130825,-0.00157726,-0.00236458,-0.0133146,-0.146113,0.0082026,0.0479397,755,1548,-7.76419,-26.3199
-462,-524,-7.56604,27.0583,-0.00365814,-0.0104223,-0.00225016,-0.002978,-0.0111024,-0.293534,0.00663559,0.0456704,762,1548,-7.56605,-27.0583
-455,-524,-7.77875,27.637,-0.00403584,-0.00787255,-0.00240572,-0.00287725,-0.00903114,-0.448817,0.0053273,0.0385476,769,1548,-7.77872,-27.637
-448,-524,-7.73737,28.448,-0.00392382,-0.00588718,-0.00234975,-0.00235893,-0.00745207,-0.587528,0.00439793,0.0169932,776,1548,-7.73738,-28.448
-441,-524,-7.78296,29.2325,-0.00330984,-0.0039738,-0.00187939,-0.00173334,-0.00555031,-0.697979,0.00327888,0.0118552,783,1548,-7.78295,-29.2325
-434,-524,-7.80066,29.9968,-0.00243423,-0.00228773,-0.00124684,-0.00111199,-0.00360998,-0.814738,0.00213481,0.0135262,790,1548,-7.80064,-29.9969
-427,-524,-7.83289,30.78,-0.00144104,-0.00090046,-0.000561235,-0.00054782,-0.00179368,-1.00981,0.0010614,0.0162467,797,1548,-7.83287,-30.78
-420,-524,-7.90247,31.5612,-0.000329794,0.000323787,0.000172724,0.000366626,-0.000372632,1.32769,0.000426815,0.0417862,804,1548,-7.90245,-31.5612
-413,-524,-7.99487,32.3308,0.000846931,0.0014566,0.00091354,0.00211482,0.000188709,0.946432,0.00135138,0.0388625,811,1548,-7.99488,-32.3308
-406,-524,-7.99091,33.1333,0.00207146,0.00240521,0.00169577,0.00394229,0.000534373,0.834443,0.00246942,0.014528,818,1548,-7.99093,-33.1333
-399,-524,-8.0285,33.9033,0.00324595,0.00343235,0.00248099,0.00582189,0.000856415,0.804172,0.00362962,0.0105776,825,1548,-8.02848,-33.9033
-392,-524,-8.06427,34.6479,0.00424175,0.00440809,0.0031281,0.00745412,0.00119572,0.798689,0.00462268,0.0110392,832,1548,-8.06427,-34.6479
-385,-524,-8.11017,35.458,0.00501288,0.00537698,0.00359385,0.00879339,0.00159647,0.810704,0.00540921,0.0186337,839,1548,-8.11019,-35.458
-378,-524,-8.11273,36.326,0,0,0,0,0,0,0,-1,846,1548,-8.11276,-36.326
-371,-524,-4.20789,29.1592,0,0,0,0,0,0,0,-1,853,1548,-4.2079,-29.1592
-364,-524,-0.712097,14.9871,0,0,0,0,0,0,0,-1,860,1548,-0.712116,-14.9871
-357,-524,-1.34052,14.7448,0,0,0,0,0,0,0,-1,867,1548,-1.34054,-14.7447
-350,-524,-4.31909,25.032,0,0,0,0,0,0,0,-1,874,1548,-4.31906,-25.0319
-343,-524,-3.69696,28.6923,0,0,0,0,0,0,0,-1,881,1548,-3.69694,-28.6922
-336,-524,-3.4873,29.655,0,0,0,0,0,0,0,-1,888,1548,-3.48728,-29.6551
-329,-524,-3.21936,30.5509,0,0,0,0,0,0,0,-1,895,1548,-3.21933,-30.5509
-322,-524,-4.31378,25.6389,0,0,0,0,0,0,0,-1,902,1548,-4.31379,-25.639
-315,-524,-1.90839,19.4824,0,0,0,0,0,0,0,-1,909,1548,-1.90838,-19.4824
-308,-524,-2.36938,19.3059,0,0,0,0,0,0,0,-1,916,1548,-2.3694,-19.3058
-301,-524,2.72394,17.7618,0,0,0,0,0,0,0,-1,923,1548,2.72396,-17.7619
-294,-524,-1.52515,9.05408,0,0,0,0,0,0,0,-1,930,1548,-1.52512,-9.05411
-287,-524,-0.962219,10.3199,0,0,0,0,0,0,0,-1,937,1548,-0.962241,-10.32
-280,-524,-1.36255,10.3859,0,0,0,0,0,0,0,-1,944,1548,-1.36253,-10.3859
-273,-524,0,0,0,0,0,0,0,0,0,-1,951,1548,0,0
-266,-524,0,0,0,0,0,0,0,0,0,-1,958,1548,0,0
-259,-524,0,0,0,0,0,0,0,0,0,-1,965,1548,0,0
-252,-524,0,0,0,0,0,0,0,0,0,-1,972,1548,0,0
-245,-524,0,0,0,0,0,0,0,0,0,-1,979,1548,0,0
-238,-524,0,0,0,0,0,0,0,0,0,-1,986,1548,0,0
-231,-524,0,0,0,0,0,0,0,0,0,-1,993,1548,0,0
-224,-524,0,0,0,0,0,0,0,0,0,-1,1000,1548,0,0
-217,-524,0,0,0,0,0,0,0,0,0,-1,1007,1548,0,0
-210,-524,0,0,0,0,0,0,0,0,0,-1,1014,1548,0,0
-203,-524,0,0,0,0,0,0,0,0,0,-1,1021,1548,0,0
-196,-524,0,0,0,0,0,0,0,0,0,-1,1028,1548,0,0
-189,-524,0,0,0,0,0,0,0,0,0,-1,1035,1548,0,0
-182,-524,0,0,0,0,0,0,0,0,0,-1,1042,1548,0,0
-175,-524,0,0,0,0,0,0,0,0,0,-1,1049,1548,0,0
-168,-524,0,0,0,0,0,0,0,0,0,-1,1056,1548,0,0
-161,-524,0,0,0,0,0,0,0,0,0,-1,1063,1548,0,0
-154,-524,0,0,0,0,0,0,0,0,0,-1,1070,1548,0,0
-147,-524,0,0,0,0,0,0,0,0,0,-1,1077,1548,0,0
-140,-524,0,0,0,0,0,0,0,0,0,-1,1084,1548,0,0
-133,-524,0,0,0,0,0,0,0,0,0,-1,1091,1548,0,0
-126,-524,0,0,0,0,0,0,0,0,0,-1,1098,1548,0,0
-119,-524,0,0,0,0,0,0,0,0,0,-1,1105,1548,0,0
-112,-524,0,0,0,0,0,0,0,0,0,-1,1112,1548,0,0
-105,-524,0,0,0,0,0,0,0,0,0,-1,1119,1548,0,0
-98,-524,0,0,0,0,0,0,0,0,0,-1,1126,1548,0,0
-91,-524,0,0,0,0,0,0,0,0,0,-1,1133,1548,0,0
-84,-524,0,0,0,0,0,0,0,0,0,-1,1140,1548,0,0
-77,-524,0,0,0,0,0,0,0,0,0,-1,1147,1548,0,0
-70,-524,0,0,0,0,0,0,0,0,0,-1,1154,1548,0,0
-63,-524,0,0,0,0,0,0,0,0,0,-1,1161,1548,0,0
-56,-524,0,0,0,0,0,0,0,0,0,-1,1168,1548,0,0
-49,-524,0,0,0,0,0,0,0,0,0,-1,1175,1548,0,0
-42,-524,0,0,0,0,0,0,0,0,0,-1,1182,1548,0,0
-35,-524,0,0,0,0,0,0,0,0,0,-1,1189,1548,0,0
-28,-524,0,0,0,0,0,0,0,0,0,-1,1196,1548,0,0
-21,-524,0,0,0,0,0,0,0,0,0,-1,1203,1548,0,0
-14,-524,0,0,0,0,0,0,0,0,0,-1,1210,1548,0,0
-7,-524,0,0,0,0,0,0,0,0,0,-1,1217,1548,0,0
0,-524,0,0,0,0,0,0,0,0,0,-1,1224,1548,0,0
7,-524,0,0,0,0,0,0,0,0,0,-1,1231,1548,0,0
14,-524,0,0,0,0,0,0,0,0,0,-1,1238,1548,0,0
21,-524,0,0,0,0,0,0,0,0,0,-1,1245,1548,0,0
28,-524,0,0,0,0,0,0,0,0,0,-1,1252,1548,0,0
35,-524,0,0,0,0,0,0,0,0,0,-1,1259,1548,0,0
42,-524,0,0,0,0,0,0,0,0,0,-1,1266,1548,0,0
49,-524,0,0,0,0,0,0,0,0,0,-1,1273,1548,0,0
56,-524,0,0,0,0,0,0,0,0,0,-1,1280,1548,0,0
63,-524,0,0,0,0,0,0,0,0,0,-1,1287,1548,0,0
70,-524,0,0,0,0,0,0,0,0,0,-1,1294,1548,0,0
77,-524,0,0,0,0,0,0,0,0,0,-1,1301,1548,0,0
84,-524,0,0,0,0,0,0,0,0,0,-1,1308,1548,0,0
91,-524,0,0,0,0,0,0,0,0,0,-1,1315,1548,0,0
98,-524,0,0,0,0,0,0,0,0,0,-1,1322,1548,0,0
105,-524,0,0,0,0,0,0,0,0,0,-1,1329,1548,0,0
112,-524,0,0,0,0,0,0,0,0,0,-1,1336,1548,0,0
119,-524,0,0,0,0,0,0,0,0,0,-1,1343,1548,0,0
126,-524,0,0,0,0,0,0,0,0,0,-1,1350,1548,0,0
133,-524,0,0,0,0,0,0,0,0,0,-1,1357,1548,0,0
140,-524,0,0,0,0,0,0,0,0,0,-1,1364,1548,0,0
147,-524,0,0,0,0,0,0,0,0,0,-1,1371,1548,0,0
154,-524,0,0,0,0,0,0,0,0,0,-1,1378,1548,0,0
161,-524,0,0,0,0,0,0,0,0,0,-1,1385,1548,0,0
168,-524,0,0,0,0,0,0,0,0,0,-1,1392,1548,0,0
175,-524,0,0,0,0,0,0,0,0,0,-1,1399,1548,0,0
182,-524,0,0,0,0,0,0,0,0,0,-1,1406,1548,0,0
189,-524,0,0,0,0,0,0,0,0,0,-1,1413,1548,0,0
196,-524,0,0,0,0,0,0,0,0,0,-1,1420,1548,0,0
203,-524,0,0,0,0,0,0,0,0,0,-1,1427,1548,0,0
210,-524,0,0,0,0,0,0,0,0,0,-1,1434,1548,0,0
217,-524,0,0,0,0,0,0,0,0,0,-1,1441,1548,0,0
224,-524,0,0,0,0,0,0,0,0,0,-1,1448,1548,0,0
231,-524,0,0,0,0,0,0,0,0,0,-1,1455,1548,0,0
238,-524,0,0,0,0,0,0,0,0,0,-1,1462,1548,0,0
245,-524,0,0,0,0,0,0,0,0,0,-1,1469,1548,0,0
252,-524,0,0,0,0,0,0,0,0,0,-1,1476,1548,0,0
259,-524,0,0,0,0,0,0,0,0,0,-1,1483,1548,0,0
266,-524,0,0,0,0,0,0,0,0,0,-1,1490,1548,0,0
273,-524,0,0,0,0,0,0,0,0,0,-1,1497,1548,0,0
280,-524,0,0,0,0,0,0,0,0,0,-1,1504,1548,0,0
287,-524,0,0,0,0,0,0,0,0,0,-1,1511,1548,0,0
294,-524,0,0,0,0,0,0,0,0,0,-1,1518,1548,0,0
301,-524,0,0,0,0,0,0,0,0,0,-1,1525,1548,0,0
308,-524,0,0,0,0,0,0,0,0,0,-1,1532,1548,0,0
315,-524,0,0,0,0,0,0,0,0,0,-1,1539,1548,0,0
322,-524,0,0,0,0,0,0,0,0,0,-1,1546,1548,0,0
329,-524,0,0,0,0,0,0,0,0,0,-1,1553,1548,0,0
336,-524,0,0,0,0,0,0,0,0,0,-1,1560,1548,0,0
343,-524,0,0,0,0,0,0,0,0,0,-1,1567,1548,0,0
350,-524,0,0,0,0,0,0,0,0,0,-1,1574,1548,0,0
357,-524,0,0,0,0,0,0,0,0,0,-1,1581,1548,0,0
364,-524,0,0,0,0,0,0,0,0,0,-1,1588,1548,0,0
371,-524,0,0,0,0,0,0,0,0,0,-1,1595,1548,0,0
378,-524,0,0,0,0,0,0,0,0,0,-1,1602,1548,0,0
385,-524,0,0,0,0,0,0,0,0,0,-1,1609,1548,0,0
392,-524,0,0,0,0,0,0,0,0,0,-1,1616,1548,0,0
399,-524,8.81848,5.05774,0,0,0,0,0,0,0,-1,1623,1548,8.81843,-5.05769
406,-524,8.64294,6.06799,0,0,0,0,0,0,0,-1,1630,1548,8.6429,-6.06805
413,-524,11.677,6.41858,0,0,0,0,0,0,0,-1,1637,1548,11.677,-6.41864
420,-524,11.4913,6.36401,0,0,0,0,0,0,0,-1,1644,1548,11.4913,-6.36402
427,-524,7.68335,6.17249,0,0,0,0,0,0,0,-1,1651,1548,7.68341,-6.17245
434,-524,10.432,11.6801,0,0,0,0,0,0,0,-1,1658,1548,10.432,-11.68
441,-524,8.78552,4.12305,0,0,0,0,0,0,0,-1,1665,1548,8.78553,-4.12301
448,-524,14.1854,4.78674,0,0,0,0,0,0,0,-1,1672,1548,14.1854,-4.78674
455,-524,12.4784,3.65576,0,0,0,0,0,0,0,-1,1679,1548,12.4784,-3.65572
462,-524,14.7551,9.29395,0,0,0,0,0,0,0,-1,1686,1548,14.7552,-9.29397
469,-524,16.3314,14.3779,0,0,0,0,0,0,0,-1,1693,1548,16.3314,-14.3779
476,-524,15.9106,15.1875,0,0,0,0,0,0,0,-1,1700,1548,15.9107,-15.1876
483,-524,15.2776,16.2268,0,0,0,0,0,0,0,-1,1707,1548,15.2776,-16.2269
490,-524,15.2563,18.5848,0,0,0,0,0,0,0,-1,1714,1548,15.2564,-18.5848
497,-524,17.5173,22.6123,0,0,0,0,0,0,0,-1,1721,1548,17.5174,-22.6123
504,-524,25.2809,37.1736,0,0,0,0,0,0,0,-1,1728,1548,25.2808,-37.1735
511,-524,25.6561,35.9873,0,0,0,0,0,0,0,-1,1735,1548,25.6562,-35.9873
518,-524,25.6326,35.2245,0.00927879,0.00760637,-0.00637297,0.0148702,0.00201498,-0.720165,0.00931473,0.0273093,1742,1548,25.6325,-35.2244
525,-524,25.5986,34.4855,0.00734413,0.00601018,-0.00504167,0.0117627,0.00159156,-0.719634,0.00736883,0.0144554,1749,1548,25.5986,-34.4854
532,-524,25.5859,33.7231,0.00564369,0.00462817,-0.00389448,0.00906338,0.00120849,-0.720574,0.00568242,0.0105834,1756,1548,25.5859,-33.7232
539,-524,25.5653,32.9498,0.00433001,0.00346779,-0.00293195,0.00686238,0.000935422,-0.712402,0.00429719,0.0116582,1763,1548,25.5653,-32.9498
546,-524,25.5378,32.2343,0.00333394,0.00240972,-0.00212055,0.00504215,0.000701514,-0.678116,0.00315371,0.0154877,1770,1548,25.5378,-32.2343
553,-524,25.4894,31.502,0.0025552,0.00150277,-0.00140929,0.00353331,0.00052466,-0.60672,0.00220159,0.0268082,1777,1548,25.4893,-31.502
560,-524,25.4719,30.7529,0.00208576,0.000770661,-0.000860319,0.00251104,0.000345381,-0.4591,0.0015716,0.0344158,1784,1548,25.472,-30.7529
567,-524,25.4032,30.0077,0.00192747,0.00021021,-0.000494762,0.00205982,7.78626e-05,-0.261376,0.00134801,0.0181342,1791,1548,25.4032,-30.0077
574,-524,25.3683,29.2222,0.00204918,-0.000244268,-0.000242245,0.00207449,-0.000269576,-0.104094,0.00148105,0.0133642,1798,1548,25.3682,-29.2222
581,-524,25.3127,28.4309,0.00250996,-0.000580098,-0.000177265,0.00252009,-0.000590234,-0.0571166,0.00190749,0.015475,1805,1548,25.3128,-28.4309
588,-524,25.3506,27.6621,0.00328407,-0.000699204,-0.000285699,0.00330446,-0.000719591,-0.0712387,0.00247791,0.0313486,1812,1548,25.3506,-27.6621
595,-524,25.4164,26.6863,0,0,0,0,0,0,0,-1,1819,1548,25.4163,-26.6862
602,-524,13.837,12.0682,0,0,0,0,0,0,0,-1,1826,1548,13.837,-12.0683
609,-524,13.0056,10.5138,0,0,0,0,0,0,0,-1,1833,1548,13.0056,-10.5138
616,-524,11.6941,8.65515,0,0,0,0,0,0,0,-1,1840,1548,11.6941,-8.65514
623,-524,9.38452,5.15356,0,0,0,0,0,0,0,-1,1847,1548,9.38456,-5.15359
630,-524,11.0541,3.57434,0,0,0,0,0,0,0,-1,1854,1548,11.0541,-3.57438
637,-524,11.6067,3.20728,0,0,0,0,0,0,0,-1,1861,1548,11.6067,-3.20724
644,-524,12.2134,0.727173,0,0,0,0,0,0,0,-1,1868,1548,12.2134,-0.727222
651,-524,0,0,0,0,0,0,0,0,0,-1,1875,1548,0,0
658,-524,0,0,0,0,0,0,0,0,0,-1,1882,1548,0,0
665,-524,0,0,0,0,0,0,0,0,0,-1,1889,1548,0,0
672,-524,0,0,0,0,0,0,0,0,0,-1,1896,1548,0,0
679,-524,0,0,0,0,0,0,0,0,0,-1,1903,1548,0,0
686,-524,0,0,0,0,0,0,0,0,0,-1,1910,1548,0,0
693,-524,0,0,0,0,0,0,0,0,0,-1,1917,1548,0,0
700,-524,0,0,0,0,0,0,0,0,0,-1,1924,1548,0,0
707,-524,0,0,0,0,0,0,0,0,0,-1,1931,1548,0,0
714,-524,0,0,0,0,0,0,0,0,0,-1,1938,1548,0,0
721,-524,0,0,0,0,0,0,0,0,0,-1,1945,1548,0,0
728,-524,0,0,0,0,0,0,0,0,0,-1,1952,1548,0,0
735,-524,0,0,0,0,0,0,0,0,0,-1,1959,1548,0,0
742,-524,0,0,0,0,0,0,0,0,0,-1,1966,1548,0,0
749,-524,0,0,0,0,0,0,0,0,0,-1,1973,1548,0,0
756,-524,0,0,0,0,0,0,0,0,0,-1,1980,1548,0,0
763,-524,0,0,0,0,0,0,0,0,0,-1,1987,1548,0,0
770,-524,0,0,0,0,0,0,0,0,0,-1,1994,1548,0,0
777,-524,0,0,0,0,0,0,0,0,0,-1,2001,1548,0,0
784,-524,0,0,0,0,0,0,0,0,0,-1,2008,1548,0,0
791,-524,0,0,0,0,0,0,0,0,0,-1,2015,1548,0,0
798,-524,0,0,0,0,0,0,0,0,0,-1,2022,1548,0,0
805,-524,0,0,0,0,0,0,0,0,0,-1,2029,1548,0,0
812,-524,0,0,0,0,0,0,0,0,0,-1,2036,1548,0,0
-700,-531,0,0,0,0,0,0,0,0,0,-1,524,1555,0,0
-693,-531,0,0,0,0,0,0,0,0,0,-1,531,1555,0,0
-686,-531,0,0,0,0,0,0,0,0,0,-1,538,1555,0,0
-679,-531,0,0,0,0,0,0,0,0,0,-1,545,1555,0,0
-672,-531,0,0,0,0,0,0,0,0,0,-1,552,1555,0,0
-665,-531,0,0,0,0,0,0,0,0,0,-1,559,1555,0,0
-658,-531,0,0,0,0,0,0,0,0,0,-1,566,1555,0,0
-651,-531,0,0,0,0,0,0,0,0,0,-1,573,1555,0,0
-644,-531,0,0,0,0,0,0,0,0,0,-1,580,1555,0,0
-637,-531,0,0,0,0,0,0,0,0,0,-1,587,1555,0,0
-630,-531,0,0,0,0,0,0,0,0,0,-1,594,1555,0,0
-623,-531,0,0,0,0,0,0,0,0,0,-1,601,1555,0,0
-616,-531,0,0,0,0,0,0,0,0,0,-1,608,1555,0,0
-609,-531,0,0,0,0,0,0,0,0,0,-1,615,1555,0,0
-602,-531,0,0,0,0,0,0,0,0,0,-1,622,1555,0,0
-595,-531,0,0,0,0,0,0,0,0,0,-1,629,1555,0,0
-588,-531,0,0,0,0,0,0,0,0,0,-1,636,1555,0,0
-581,-531,0,0,0,0,0,0,0,0,0,-1,643,1555,0,0
-574,-531,0,0,0,0,0,0,0,0,0,-1,650,1555,0,0
-567,-531,0,0,0,0,0,0,0,0,0,-1,657,1555,0,0
-560,-531,0,0,0,0,0,0,0,0,0,-1,664,1555,0,0
-553,-531,0,0,0,0,0,0,0,0,0,-1,671,1555,0,0
-546,-531,0,0,0,0,0,0,0,0,0,-1,678,1555,0,0
-539,-531,0,0,0,0,0,0,0,0,0,-1,685,1555,0,0
-532,-531,0,0,0,0,0,0,0,0,0,-1,692,1555,0,0
-525,-531,0,0,0,0,0,0,0,0,0,-1,699,1555,0,0
-518,-531,-1.63983,4.03821,0,0,0,0,0,0,0,-1,706,1555,-1.63982,-4.03821
-511,-531,-2.9682,8.07483,0,0,0,0,0,0,0,-1,713,1555,-2.9682,-8.07479
-504,-531,-2.95978,0.557861,0,0,0,0,0,0,0,-1,720,1555,-2.95978,-0.557917
-497,-531,-2.46039,8.07422,0,0,0,0,0,0,0,-1,727,1555,-2.46039,-8.07423
-490,-531,-0.423462,7.92065,0,0,0,0,0,0,0,-1,734,1555,-0.42344,-7.92066
-483,-531,-7.50745,20.1915,0,0,0,0,0,0,0,-1,741,1555,-7.50744,-20.1915
-476,-531,-7.69647,23.6229,0,0,0,0,0,0,0,-1,748,1555,-7.6965,-23.6229
-469,-531,-7.43439,26.5415,0,0,0,0,0,0,0,-1,755,1555,-7.43437,-26.5415
-462,-531,-6.55725,27.2843,0,0,0,0,0,0,0,-1,762,1555,-6.55724,-27.2843
-455,-531,-7.0257,27.5929,0,0,0,0,0,0,0,-1,769,1555,-7.02568,-27.5928
-448,-531,-6.86731,28.4454,-0.00582075,-0.00746146,-0.00362719,-0.00292231,-0.0103599,-0.674185,0.00616775,0.0292238,776,1555,-6.86734,-28.4454
-441,-531,-7.01306,29.2206,-0.00500232,-0.00522945,-0.00299237,-0.00212136,-0.00811041,-0.766431,0.00485679,0.0143097,783,1555,-7.01304,-29.2206
-434,-531,-7.04889,30.0544,-0.00391376,-0.00333845,-0.00221875,-0.00138878,-0.00586342,-0.849862,0.00353807,0.0128918,790,1555,-7.04889,-30.0544
-427,-531,-7.09619,30.8479,-0.00275084,-0.00183417,-0.00142066,-0.000799744,-0.00378527,-0.941437,0.00230368,0.0163398,797,1555,-7.09622,-30.8479
-420,-531,-7.20715,31.5917,-0.00153733,-0.000587374,-0.000635796,-0.000268728,-0.00185598,-1.10621,0.00115818,0.0372193,804,1555,-7.20713,-31.5917
-413,-531,-7.22784,32.4216,-0.000354126,0.000556465,6.72945e-05,0.000561411,-0.000359073,1.49743,0.000535704,0.0345315,811,1555,-7.22783,-32.4216
-406,-531,-7.24811,33.2034,0.000873271,0.00145808,0.000824784,0.00204076,0.000290593,0.955748,0.00127473,0.014069,818,1555,-7.24813,-33.2034
-399,-531,-7.27356,33.952,0.00200889,0.00234064,0.00150924,0.00369309,0.000656437,0.840131,0.00227504,0.01468,825,1555,-7.27356,-33.952
-392,-531,-7.28314,34.7035,0.00294614,0.00314384,0.00204719,0.00509456,0.000995421,0.809523,0.00311799,0.018312,832,1555,-7.28314,-34.7035
-385,-531,-7.34863,35.469,0.00373925,0.0039916,0.00241473,0.00628344,0.0014474,0.811501,0.00379953,0.0151182,839,1555,-7.34865,-35.4691
-378,-531,-7.41406,36.1771,0.00446851,0.00475995,0.00267549,0.00729368,0.00193478,0.812604,0.00436295,0.0201157,846,1555,-7.41406,-36.1771
-371,-531,-7.44287,37.0226,0,0,0,0,0,0,0,-1,853,1555,-7.44285,-37.0226
-364,-531,-7.1861,38.0641,0,0,0,0,0,0,0,-1,860,1555,-7.18609,-38.0641
-357,-531,-4.29193,31.5354,0,0,0,0,0,0,0,-1,867,1555,-4.29191,-31.5354
-350,-531,-3.16101,27.5791,0,0,0,0,0,0,0,-1,874,1555,-3.16099,-27.5791
-343,-531,-2.90552,28.561,0,0,0,0,0,0,0,-1,881,1555,-2.90549,-28.5611
-336,-531,-2.6698,29.5398,0,0,0,0,0,0,0,-1,888,1555,-2.66983,-29.5398
-329,-531,-2.45148,30.4781,0,0,0,0,0,0,0,-1,895,1555,-2.45148,-30.4781
-322,-531,-3.25092,28.4921,0,0,0,0,0,0,0,-1,902,1555,-3.25092,-28.4921
-315,-531,-5.51929,31.7814,0,0,0,0,0,0,0,-1,909,1555,-5.51928,-31.7813
-308,-531,-1.66455,19.0624,0,0,0,0,0,0,0,-1,916,1555,-1.66455,-19.0623
-301,-531,-2.02405,18.8912,0,0,0,0,0,0,0,-1,923,1555,-2.02407,-18.8913
-294,-531,-1.3244,8.1825,0,0,0,0,0,0,0,-1,930,1555,-1.3244,-8.18251
-287,-531,-1.78192,10.1661,0,0,0,0,0,0,0,-1,937,1555,-1.78192,-10.1661
-280,-531,-2.14508,10.3945,0,0,0,0,0,0,0,-1,944,1555,-2.14506,-10.3945
-273,-531,-2.50818,10.6229,0,0,0,0,0,0,0,-1,951,1555,-2.5082,-10.6229
-266,-531,-4.97742,17.9215,0,0,0,0,0,0,0,-1,958,1555,-4.97744,-17.9215
-259,-531,0,0,0,0,0,0,0,0,0,-1,965,1555,0,0
-252,-531,0,0,0,0,0,0,0,0,0,-1,972,1555,0,0
-245,-531,0,0,0,0,0,0,0,0,0,-1,979,1555,0,0
-238,-531,0,0,0,0,0,0,0,0,0,-1,986,1555,0,0
-231,-531,0,0,0,0,0,0,0,0,0,-1,993,1555,0,0
-224,-531,0,0,0,0,0,0,0,0,0,-1,1000,1555,0,0
-217,-531,0,0,0,0,0,0,0,0,0,-1,1007,1555,0,0
-210,-531,0,0,0,0,0,0,0,0,0,-1,1014,1555,0,0
-203,-531,0,0,0,0,0,0,0,0,0,-1,1021,1555,0,0
-196,-531,0,0,0,0,0,0,0,0,0,-1,1028,1555,0,0
-189,-531,0,0,0,0,0,0,0,0,0,-1,1035,1555,0,0
-182,-531,0,0,0,0,0,0,0,0,0,-1,1042,1555,0,0
-175,-531,0,0,0,0,0,0,0,0,0,-1,1049,1555,0,0
-168,-531,0,0,0,0,0,0,0,0,0,-1,1056,1555,0,0
-161,-531,0,0,0,0,0,0,0,0,0,-1,1063,1555,0,0
-154,-531,0,0,0,0,0,0,0,0,0,-1,1070,1555,0,0
-147,-531,0,0,0,0,0,0,0,0,0,-1,1077,1555,0,0
-140,-531,0,0,0,0,0,0,0,0,0,-1,1084,1555,0,0
-133,-531,0,0,0,0,0,0,0,0,0,-1,1091,1555,0,0
-126,-531,0,0,0,0,0,0,0,0,0,-1,1098,1555,0,0
-119,-531,0,0,0,0,0,0,0,0,0,-1,1105,1555,0,0
-112,-531,0,0,0,0,0,0,0,0,0,-1,1112,1555,0,0
-105,-531,0,0,0,0,0,0,0,0,0,-1,1119,1555,0,0
-98,-531,0,0,0,0,0,0,0,0,0,-1,1126,1555,0,0
-91,-531,0,0,0,0,0,0,0,0,0,-1,1133,1555,0,0
-84,-531,0,0,0,0,0,0,0,0,0,-1,1140,1555,0,0
-77,-531,0,0,0,0,0,0,0,0,0,-1,1147,1555,0,0
-70,-531,0,0,0,0,0,0,0,0,0,-1,1154,1555,0,0
-63,-531,0,0,0,0,0,0,0,0,0,-1,1161,1555,0,0
-56,-531,0,0,0,0,0,0,0,0,0,-1,1168,1555,0,0
-49,-531,0,0,0,0,0,0,0,0,0,-1,1175,1555,0,0
-42,-531,0,0,0,0,0,0,0,0,0,-1,1182,1555,0,0
-35,-531,0,0,0,0,0,0,0,0,0,-1,1189,1555,0,0
-28,-531,0,0,0,0,0,0,0,0,0,-1,1196,1555,0,0
-21,-531,0,0,0,0,0,0,0,0,0,-1,1203,1555,0,0
-14,-531,0,0,0,0,0,0,0,0,0,-1,1210,1555,0,0
-7,-531,0,0,0,0,0,0,0,0,0,-1,1217,1555,0,0
0,-531,0,0,0,0,0,0,0,0,0,-1,1224,1555,0,0
7,-531,0,0,0,0,0,0,0,0,0,-1,1231,1555,0,0
14,-531,0,0,0,0,0,0,0,0,0,-1,1238,1555,0,0
21,-531,0,0,0,0,0,0,0,0,0,-1,1245,1555,0,0
28,-531,0,0,0,0,0,0,0,0,0,-1,1252,1555,0,0
35,-531,0,0,0,0,0,0,0,0,0,-1,1259,1555,0,0
42,-531,0,0,0,0,0,0,0,0,0,-1,1266,1555,0,0
49,-531,0,0,0,0,0,0,0,0,0,-1,1273,1555,0,0
56,-531,0,0,0,0,0,0,0,0,0,-1,1280,1555,0,0
63,-531,0,0,0,0,0,0,0,0,0,-1,1287,1555,0,0
70,-531,0,0,0,0,0,0,0,0,0,-1,1294,1555,0,0
77,-531,0,0,0,0,0,0,0,0,0,-1,1301,1555,0,0
84,-531,0,0,0,0,0,0,0,0,0,-1,1308,1555,0,0
91,-531,0,0,0,0,0,0,0,0,0,-1,1315,1555,0,0
98,-531,0,0,0,0,0,0,0,0,0,-1,1322,1555,0,0
105,-531,0,0,0,0,0,0,0,0,0,-1,1329,1555,0,0
112,-531,0,0,0,0,0,0,0,0,0,-1,1336,1555,0,0
119,-531,0,0,0,0,0,0,0,0,0,-1,1343,1555,0,0
126,-531,0,0,0,0,0,0,0,0,0,-1,1350,1555,0,0
133,-531,0,0,0,0,0,0,0,0,0,-1,1357,1555,0,0
140,-531,0,0,0,0,0,0,0,0,0,-1,1364,1555,0,0
147,-531,0,0,0,0,0,0,0,0,0,-1,1371,1555,0,0
154,-531,0,0,0,0,0,0,0,0,0,-1,1378,1555,0,0
161,-531,0,0,0,0,0,0,0,0,0,-1,1385,1555,0,0
168,-531,0,0,0,0,0,0,0,0,0,-1,1392,1555,0,0
175,-531,0,0,0,0,0,0,0,0,0,-1,1399,1555,0,0
182,-531,0,0,0,0,0,0,0,0,0,-1,1406,1555,0,0
189,-531,0,0,0,0,0,0,0,0,0,-1,1413,1555,0,0
196,-531,0,0,0,0,0,0,0,0,0,-1,1420,1555,0,0
203,-531,0,0,0,0,0,0,0,0,0,-1,1427,1555,0,0
210,-531,0,0,0,0,0,0,0,0,0,-1,1434,1555,0,0
217,-531,0,0,0,0,0,0,0,0,0,-1,1441,1555,0,0
224,-531,0,0,0,0,0,0,0,0,0,-1,1448,1555,0,0
231,-531,0,0,0,0,0,0,0,0,0,-1,1455,1555,0,0
238,-531,0,0,0,0,0,0,0,0,0,-1,1462,1555,0,0
245,-531,0,0,0,0,0,0,0,0,0,-1,1469,1555,0,0
252,-531,0,0,0,0,0,0,0,0,0,-1,1476,1555,0,0
259,-531,0,0,0,0,0,0,0,0,0,-1,1483,1555,0,0
266,-531,0,0,0,0,0,0,0,0,0,-1,1490,1555,0,0
273,-531,0,0,0,0,0,0,0,0,0,-1,1497,1555,0,0
280,-531,0,0,0,0,0,0,0,0,0,-1,1504,1555,0,0
287,-531,0,0,0,0,0,0,0,0,0,-1,1511,1555,0,0
294,-531,0,0,0,0,0,0,0,0,0,-1,1518,1555,0,0
301,-531,0,0,0,0,0,0,0,0,0,-1,1525,1555,0,0
308,-531,0,0,0,0,0,0,0,0,0,-1,1532,1555,0,0
315,-531,0,0,0,0,0,0,0,0,0,-1,1539,1555,0,0
322,-531,0,0,0,0,0,0,0,0,0,-1,1546,1555,0,0
329,-531,0,0,0,0,0,0,0,0,0,-1,1553,1555,0,0
336,-531,0,0,0,0,0,0,0,0,0,-1,1560,1555,0,0
343,-531,0,0,0,0,0,0,0,0,0,-1,1567,1555,0,0
350,-531,0,0,0,0,0,0,0,0,0,-1,1574,1555,0,0
357,-531,0,0,0,0,0,0,0,0,0,-1,1581,1555,0,0
364,-531,0,0,0,0,0,0,0,0,0,-1,1588,1555,0,0
371,-531,0,0,0,0,0,0,0,0,0,-1,1595,1555,0,0
378,-531,0,0,0,0,0,0,0,0,0,-1,1602,1555,0,0
385,-531,3.48169,1.78625,0,0,0,0,0,0,0,-1,1609,1555,3.48165,-1.78624
392,-531,10.8781,9.09204,0,0,0,0,0,0,0,-1,1616,1555,10.8781,-9.09205
399,-531,8.26306,5.29602,0,0,0,0,0,0,0,-1,1623,1555,8.26302,-5.29607
406,-531,8.26147,5.42712,0,0,0,0,0,0,0,-1,1630,1555,8.26145,-5.42716
413,-531,8.20618,5.75012,0,0,0,0,0,0,0,-1,1637,1555,8.20619,-5.75017
420,-531,7.64868,7.09558,0,0,0,0,0,0,0,-1,1644,1555,7.64867,-7.09564
427,-531,9.93054,11.8412,0,0,0,0,0,0,0,-1,1651,1555,9.93059,-11.8412
434,-531,10.244,11.7072,0,0,0,0,0,0,0,-1,1658,1555,10.244,-11.7071
441,-531,11.4528,12.9397,0,0,0,0,0,0,0,-1,1665,1555,11.4528,-12.9397
448,-531,11.928,18.8029,0,0,0,0,0,0,0,-1,1672,1555,11.928,-18.8028
455,-531,14.4877,9.67065,0,0,0,0,0,0,0,-1,1679,1555,14.4876,-9.67066
462,-531,13.5253,12.2002,0,0,0,0,0,0,0,-1,1686,1555,13.5252,-12.2002
469,-531,15.5087,15.7894,0,0,0,0,0,0,0,-1,1693,1555,15.5086,-15.7895
476,-531,14.6582,16.2264,0,0,0,0,0,0,0,-1,1700,1555,14.6582,-16.2264
483,-531,14.755,18.5994,0,0,0,0,0,0,0,-1,1707,1555,14.7551,-18.5994
490,-531,16.9362,25.4943,0,0,0,0,0,0,0,-1,1714,1555,16.9362,-25.4942
497,-531,24.6151,38.3247,0,0,0,0,0,0,0,-1,1721,1555,24.6151,-38.3247
504,-531,24.8101,36.8951,0.0108707,0.0102342,-0.00811563,0.0186743,0.00243059,-0.765801,0.0117236,0.0390258,1728,1555,24.81,-36.8952
511,-531,24.9066,36.0576,0.00889931,0.00799359,-0.00641846,0.0148809,0.00201203,-0.750179,0.00932255,0.0165302,1735,1555,24.9066,-36.0576
518,-531,24.9023,35.2938,0.00707695,0.00602402,-0.00491935,0.0114979,0.00160304,-0.732092,0.00719075,0.0152472,1742,1555,24.9023,-35.2938
525,-531,24.8755,34.5444,0.00542243,0.00464469,-0.00381374,0.00886708,0.00120004,-0.734591,0.00555475,0.0145187,1749,1555,24.8755,-34.5444
532,-531,24.8604,33.79,0.0040095,0.00342743,-0.00287118,0.00660436,0.000832572,-0.734889,0.00415329,0.0110746,1756,1555,24.8604,-33.79
539,-531,24.83,33.0238,0.00295549,0.00245658,-0.00210836,0.0048291,0.000582969,-0.726513,0.00304375,0.0123948,1763,1555,24.8299,-33.0238
546,-531,24.7711,32.2734,0.00218247,0.00150797,-0.00144518,0.00332923,0.000361204,-0.670768,0.00210942,0.0156236,1770,1555,24.7712,-32.2734
553,-531,24.7843,31.5765,0.00163893,0.000721587,-0.000875784,0.00216889,0.000191636,-0.544173,0.00138647,0.0328294,1777,1555,24.7843,-31.5766
560,-531,24.7322,30.8263,0.00143702,0.000103466,-0.000457579,0.00157893,-3.84416e-05,-0.300721,0.00106566,0.0367247,1784,1555,24.7321,-30.8263
567,-531,24.5798,30.0194,0.00155673,-0.000371503,-0.000175654,0.0015726,-0.000387374,-0.0901073,0.00119858,0.0202263,1791,1555,24.5799,-30.0194
574,-531,24.5433,29.2454,0.00198518,-0.00077042,1.6006e-05,0.00198528,-0.000770513,0.00580828,0.00164177,0.0157901,1798,1555,24.5434,-29.2454
581,-531,24.5903,28.4481,0.00289503,-0.0009896,-3.48554e-05,0.00289535,-0.000989913,-0.00897168,0.00233134,0.0280806,1805,1555,24.5903,-28.4481
588,-531,24.5979,27.6082,0.00426499,-0.000940955,-0.0002875,0.00428082,-0.000956784,-0.0550024,0.00322054,0.0482135,1812,1555,24.5979,-27.6082
595,-531,24.4856,26.7316,0,0,0,0,0,0,0,-1,1819,1555,24.4856,-26.7316
602,-531,13.701,11.8346,0,0,0,0,0,0,0,-1,1826,1555,13.701,-11.8347
609,-531,10.9072,8.50903,0,0,0,0,0,0,0,-1,1833,1555,10.9073,-8.50902
616,-531,10.5723,7.17859,0,0,0,0,0,0,0,-1,1840,1555,10.5723,-7.17855
623,-531,10.0674,5.08984,0,0,0,0,0,0,0,-1,1847,1555,10.0674,-5.08981
630,-531,11.672,3.18909,0,0,0,0,0,0,0,-1,1854,1555,11.672,-3.18904
637,-531,13.2546,1.38965,0,0,0,0,0,0,0,-1,1861,1555,13.2547,-1.3896
644,-531,0,0,0,0,0,0,0,0,0,-1,1868,1555,0,0
651,-531,0,0,0,0,0,0,0,0,0,-1,1875,1555,0,0
658,-531,0,0,0,0,0,0,0,0,0,-1,1882,1555,0,0
665,-531,0,0,0,0,0,0,0,0,0,-1,1889,1555,0,0
672,-531,0,0,0,0,0,0,0,0,0,-1,1896,1555,0,0
679,-531,0,0,0,0,0,0,0,0,0,-1,1903,1555,0,0
686,-531,0,0,0,0,0,0,0,0,0,-1,1910,1555,0,0
693,-531,0,0,0,0,0,0,0,0,0,-1,1917,1555,0,0
700,-531,0,0,0,0,0,0,0,0,0,-1,1924,1555,0,0
707,-531,0,0,0,0,0,0,0,0,0,-1,1931,1555,0,0
714,-531,0,0,0,0,0,0,0,0,0,-1,1938,1555,0,0
721,-531,0,0,0,0,0,0,0,0,0,-1,1945,1555,0,0
728,-531,0,0,0,0,0,0,0,0,0,-1,1952,1555,0,0
735,-531,0,0,0,0,0,0,0,0,0,-1,1959,1555,0,0
742,-531,0,0,0,0,0,0,0,0,0,-1,1966,1555,0,0
749,-531,0,0,0,0,0,0,0,0,0,-1,1973,1555,0,0
756,-531,0,0,0,0,0,0,0,0,0,-1,1980,1555,0,0
763,-531,0,0,0,0,0,0,0,0,0,-1,1987,1555,0,0
770,-531,0,0,0,0,0,0,0,0,0,-1,1994,1555,0,0
777,-531,0,0,0,0,0,0,0,0,0,-1,2001,1555,0,0
784,-531,0,0,0,0,0,0,0,0,0,-1,2008,1555,0,0
791,-531,0,0,0,0,0,0,0,0,0,-1,2015,1555,0,0
798,-531,0,0,0,0,0,0,0,0,0,-1,2022,1555,0,0
805,-531,0,0,0,0,0,0,0,0,0,-1,2029,1555,0,0
812,-531,0,0,0,0,0,0,0,0,0,-1,2036,1555,0,0
-700,-538,0,0,0,0,0,0,0,0,0,-1,524,1562,0,0
-693,-538,0,0,0,0,0,0,0,0,0,-1,531,1562,0,0
-686,-538,0,0,0,0,0,0,0,0,0,-1,538,1562,0,0
-679,-538,0,0,0,0,0,0,0,0,0,-1,545,1562,0,0
-672,-538,0,0,0,0,0,0,0,0,0,-1,552,1562,0,0
-665,-538,0,0,0,0,0,0,0,0,0,-1,559,1562,0,0
-658,-538,0,0,0,0,0,0,0,0,0,-1,566,1562,0,0
-651,-538,0,0,0,0,0,0,0,0,0,-1,573,1562,0,0
-644,-538,0,0,0,0,0,0,0,0,0,-1,580,1562,0,0
-637,-538,0,0,0,0,0,0,0,0,0,-1,587,1562,0,0
-630,-538,0,0,0,0,0,0,0,0,0,-1,594,1562,0,0
-623,-538,0,0,0,0,0,0,0,0,0,-1,601,1562,0,0
-616,-538,0,0,0,0,0,0,0,0,0,-1,608,1562,0,0
-609,-538,0,0,0,0,0,0,0,0,0,-1,615,1562,0,0
-602,-538,0,0,0,0,0,0,0,0,0,-1,622,1562,0,0
-595,-538,0,0,0,0,0,0,0,0,0,-1,629,1562,0,0
-588,-538,0,0,0,0,0,0,0,0,0,-1,636,1562,0,0
-581,-538,0,0,0,0,0,0,0,0,0,-1,643,1562,0,0
-574,-538,0,0,0,0,0,0,0,0,0,-1,650,1562,0,0
-567,-538,0,0,0,0,0,0,0,0,0,-1,657,1562,0,0
-560,-538,0,0,0,0,0,0,0,0,0,-1,664,1562,0,0
-553,-538,0,0,0,0,0,0,0,0,0,-1,671,1562,0,0
-546,-538,0,0,0,0,0,0,0,0,0,-1,678,1562,0,0
-539,-538,0,0,0,0,0,0,0,0,0,-1,685,1562,0,0
-532,-538,0,0,0,0,0,0,0,0,0,-1,692,1562,0,0
-525,-538,0,0,0,0,0,0,0,0,0,-1,699,1562,0,0
-518,-538,0,0,0,0,0,0,0,0,0,-1,706,1562,0,0
-511,-538,-2.6582,-1.54321,0,0,0,0,0,0,0,-1,713,1562,-2.65821,1.54327
-504,-538,-2.66455,-0.71167,0,0,0,0,0,0,0,-1,720,1562,-2.66456,0.711667
-497,-538,-0.763855,6.77747,0,0,0,0,0,0,0,-1,727,1562,-0.76385,-6.77743
-490,-538,-2.70453,8.01465,0,0,0,0,0,0,0,-1,734,1562,-2.70451,-8.0147
-483,-538,-0.933533,7.84644,0,0,0,0,0,0,0,-1,741,1562,-0.933548,-7.84638
-476,-538,-3.29962,15.8307,0,0,0,0,0,0,0,-1,748,1562,-3.29962,-15.8306
-469,-538,-6.44983,24.5707,0,0,0,0,0,0,0,-1,755,1562,-6.4498,-24.5707
-462,-538,-5.75458,25.4069,0,0,0,0,0,0,0,-1,762,1562,-5.7546,-25.4068
-455,-538,-5.56396,26.2977,0,0,0,0,0,0,0,-1,769,1562,-5.56393,-26.2978
-448,-538,-6.20935,28.5024,0,0,0,0,0,0,0,-1,776,1562,-6.20935,-28.5025
-441,-538,-6.18817,29.4089,-0.00709903,-0.00638121,-0.00428119,-0.00244391,-0.0110363,-0.827217,0.00669333,0.0304858,783,1562,-6.18819,-29.409
-434,-538,-6.30328,30.0808,-0.0056169,-0.004285,-0.00325287,-0.00163061,-0.00827128,-0.886367,0.00505902,0.0145942,790,1562,-6.30329,-30.0808
-427,-538,-6.36169,30.9213,-0.00413272,-0.00260704,-0.00222734,-0.00101553,-0.00572423,-0.950383,0.00352672,0.014059,797,1562,-6.36167,-30.9213
-420,-538,-6.39838,31.6748,-0.00270389,-0.00129873,-0.00130471,-0.000519457,-0.00348316,-1.03238,0.00216978,0.0187316,804,1562,-6.39839,-31.6748
-413,-538,-6.4339,32.4414,-0.00142966,-0.000126988,-0.000568139,8.59791e-05,-0.00164263,-1.21216,0.00112484,0.0194297,811,1562,-6.43387,-32.4414
-406,-538,-6.4549,33.23,-0.000134057,0.000739261,0.000215264,0.000789438,-0.000184234,1.34179,0.000597252,0.0154467,818,1562,-6.45489,-33.23
-399,-538,-6.49042,33.9969,0.00101858,0.0015034,0.000854567,0.00214927,0.000372708,0.9236,0.00132619,0.0137024,825,1562,-6.49043,-33.997
-392,-538,-6.5083,34.7509,0.00193996,0.00219181,0.0013398,0.00341159,0.000720184,0.832253,0.00207639,0.014854,832,1562,-6.50832,-34.7508
-385,-538,-6.57513,35.5264,0.00275953,0.00297122,0.001668,0.00453674,0.00119402,0.817084,0.00271545,0.0125731,839,1562,-6.57511,-35.5264
-378,-538,-6.6181,36.2761,0.00347276,0.00368116,0.00189397,0.00547379,0.00168012,0.812879,0.00323787,0.0102452,846,1562,-6.61811,-36.2762
-371,-538,-6.66815,36.9954,0.00440656,0.00479069,0.00243099,0.00703719,0.00216007,0.82482,0.00416265,0.0150731,853,1562,-6.66816,-36.9954
-364,-538,-6.59436,37.8646,0.00563628,0.006249,0.00321337,0.00917058,0.0027147,0.832925,0.00543952,0.0245224,860,1562,-6.59434,-37.8646
-357,-538,-6.54706,38.8741,0,0,0,0,0,0,0,-1,867,1562,-6.54705,-38.8742
-350,-538,-6.28204,40.1376,0,0,0,0,0,0,0,-1,874,1562,-6.28202,-40.1375
-343,-538,-2.47339,28.3082,0,0,0,0,0,0,0,-1,881,1562,-2.47341,-28.3083
-336,-538,-2.40161,28.5409,0,0,0,0,0,0,0,-1,888,1562,-2.40163,-28.541
-329,-538,-2.57159,28.4905,0,0,0,0,0,0,0,-1,895,1562,-2.57161,-28.4905
-322,-538,-2.83783,28.2308,0,0,0,0,0,0,0,-1,902,1562,-2.83783,-28.2308
-315,-538,-2.91827,27.7609,0,0,0,0,0,0,0,-1,909,1562,-2.91829,-27.7608
-308,-538,-4.37433,31.7996,0,0,0,0,0,0,0,-1,916,1562,-4.3743,-31.7995
-301,-538,-0.452393,18.5101,0,0,0,0,0,0,0,-1,923,1562,-0.452367,-18.5102
-294,-538,1.23138,14.0757,0,0,0,0,0,0,0,-1,930,1562,1.23137,-14.0757
-287,-538,-2.60419,10.2361,0,0,0,0,0,0,0,-1,937,1562,-2.6042,-10.2361
-280,-538,-2.93475,10.5106,0,0,0,0,0,0,0,-1,944,1562,-2.93475,-10.5106
-273,-538,-3.26532,10.785,0,0,0,0,0,0,0,-1,951,1562,-3.26531,-10.785
-266,-538,-5.03412,15.9951,0,0,0,0,0,0,0,-1,958,1562,-5.03409,-15.9951
-259,-538,-5.89642,16.5184,0,0,0,0,0,0,0,-1,965,1562,-5.89644,-16.5184
-252,-538,0,0,0,0,0,0,0,0,0,-1,972,1562,0,0
-245,-538,0,0,0,0,0,0,0,0,0,-1,979,1562,0,0
-238,-538,0,0,0,0,0,0,0,0,0,-1,986,1562,0,0
-231,-538,0,0,0,0,0,0,0,0,0,-1,993,1562,0,0
-224,-538,0,0,0,0,0,0,0,0,0,-1,1000,1562,0,0
-217,-538,0,0,0,0,0,0,0,0,0,-1,1007,1562,0,0
-210,-538,0,0,0,0,0,0,0,0,0,-1,1014,1562,0,0
-203,-538,0,0,0,0,0,0,0,0,0,-1,1021,1562,0,0
-196,-538,0,0,0,0,0,0,0,0,0,-1,1028,1562,0,0
-189,-538,0,0,0,0,0,0,0,0,0,-1,1035,1562,0,0
-182,-538,0,0,0,0,0,0,0,0,0,-1,1042,1562,0,0
-175,-538,0,0,0,0,0,0,0,0,0,-1,1049,1562,0,0
-168,-538,0,0,0,0,0,0,0,0,0,-1,1056,1562,0,0
-161,-538,0,0,0,0,0,0,0,0,0,-1,1063,1562,0,0
-154,-538,0,0,0,0,0,0,0,0,0,-1,1070,1562,0,0
-147,-538,0,0,0,0,0,0,0,0,0,-1,1077,1562,0,0
-140,-538,0,0,0,0,0,0,0,0,0,-1,1084,1562,0,0
-133,-538,0,0,0,0,0,0,0,0,0,-1,1091,1562,0,0
-126,-538,0,0,0,0,0,0,0,0,0,-1,1098,1562,0,0
-119,-538,0,0,0,0,0,0,0,0,0,-1,1105,1562,0,0
-112,-538,0,0,0,0,0,0,0,0,0,-1,1112,1562,0,0
-105,-538,0,0,0,0,0,0,0,0,0,-1,1119,1562,0,0
-98,-538,0,0,0,0,0,0,0,0,0,-1,1126,1562,0,0
-91,-538,0,0,0,0,0,0,0,0,0,-1,1133,1562,0,0
-84,-538,0,0,0,0,0,0,0,0,0,-1,1140,1562,0,0
-77,-538,0,0,0,0,0,0,0,0,0,-1,1147,1562,0,0
-70,-538,0,0,0,0,0,0,0,0,0,-1,1154,1562,0,0
-63,-538,0,0,0,0,0,0,0,0,0,-1,1161,1562,0,0
-56,-538,0,0,0,0,0,0,0,0,0,-1,1168,1562,0,0
-49,-538,0,0,0,0,0,0,0,0,0,-1,1175,1562,0,0
-42,-538,0,0,0,0,0,0,0,0,0,-1,1182,1562,0,0
-35,-538,0,0,0,0,0,0,0,0,0,-1,1189,1562,0,0
-28,-538,0,0,0,0,0,0,0,0,0,-1,1196,1562,0,0
-21,-538,0,0,0,0,0,0,0,0,0,-1,1203,1562,0,0
-14,-538,0,0,0,0,0,0,0,0,0,-1,1210,1562,0,0
-7,-538,0,0,0,0,0,0,0,0,0,-1,1217,1562,0,0
0,-538,0,0,0,0,0,0,0,0,0,-1,1224,1562,0,0
7,-538,0,0,0,0,0,0,0,0,0,-1,1231,1562,0,0
14,-538,0,0,0,0,0,0,0,0,0,-1,1238,1562,0,0
21,-538,0,0,0,0,0,0,0,0,0,-1,1245,1562,0,0
28,-538,0,0,0,0,0,0,0,0,0,-1,1252,1562,0,0
35,-538,0,0,0,0,0,0,0,0,0,-1,1259,1562,0,0
42,-538,0,0,0,0,0,0,0,0,0,-1,1266,1562,0,0
49,-538,0,0,0,0,0,0,0,0,0,-1,1273,1562,0,0
56,-538,0,0,0,0,0,0,0,0,0,-1,1280,1562,0,0
63,-538,0,0,0,0,0,0,0,0,0,-1,1287,1562,0,0
70,-538,0,0,0,0,0,0,0,0,0,-1,1294,1562,0,0
77,-538,0,0,0,0,0,0,0,0,0,-1,1301,1562,0,0
84,-538,0,0,0,0,0,0,0,0,0,-1,1308,1562,0,0
91,-538,0,0,0,0,0,0,0,0,0,-1,1315,1562,0,0
98,-538,0,0,0,0,0,0,0,0,0,-1,1322,1562,0,0
105,-538,0,0,0,0,0,0,0,0,0,-1,1329,1562,0,0
112,-538,0,0,0,0,0,0,0,0,0,-1,1336,1562,0,0
119,-538,0,0,0,0,0,0,0,0,0,-1,1343,1562,0,0
126,-538,0,0,0,0,0,0,0,0,0,-1,1350,1562,0,0
133,-538,0,0,0,0,0,0,0,0,0,-1,1357,1562,0,0
140,-538,0,0,0,0,0,0,0,0,0,-1,1364,1562,0,0
147,-538,0,0,0,0,0,0,0,0,0,-1,1371,1562,0,0
154,-538,0,0,0,0,0,0,0,0,0,-1,1378,1562,0,0
161,-538,0,0,0,0,0,0,0,0,0,-1,1385,1562,0,0
168,-538,0,0,0,0,0,0,0,0,0,-1,1392,1562,0,0
175,-538,0,0,0,0,0,0,0,0,0,-1,1399,1562,0,0
182,-538,0,0,0,0,0,0,0,0,0,-1,1406,1562,0,0
189,-538,0,0,0,0,0,0,0,0,0,-1,1413,1562,0,0
196,-538,0,0,0,0,0,0,0,0,0,-1,1420,1562,0,0
203,-538,0,0,0,0,0,0,0,0,0,-1,1427,1562,0,0
210,-538,0,0,0,0,0,0,0,0,0,-1,1434,1562,0,0
217,-538,0,0,0,0,0,0,0,0,0,-1,1441,1562,0,0
224,-538,0,0,0,0,0,0,0,0,0,-1,1448,1562,0,0
231,-538,0,0,0,0,0,0,0,0,0,-1,1455,1562,0,0
238,-538,0,0,0,0,0,0,0,0,0,-1,1462,1562,0,0
245,-538,0,0,0,0,0,0,0,0,0,-1,1469,1562,0,0
252,-538,0,0,0,0,0,0,0,0,0,-1,1476,1562,0,0
259,-538,0,0,0,0,0,0,0,0,0,-1,1483,1562,0,0
266,-538,0,0,0,0,0,0,0,0,0,-1,1490,1562,0,0
273,-538,0,0,0,0,0,0,0,0,0,-1,1497,1562,0,0
280,-538,0,0,0,0,0,0,0,0,0,-1,1504,1562,0,0
287,-538,0,0,0,0,0,0,0,0,0,-1,1511,1562,0,0
294,-538,0,0,0,0,0,0,0,0,0,-1,1518,1562,0,0
301,-538,0,0,0,0,0,0,0,0,0,-1,1525,1562,0,0
308,-538,0,0,0,0,0,0,0,0,0,-1,1532,1562,0,0
315,-538,0,0,0,0,0,0,0,0,0,-1,1539,1562,0,0
322,-538,0,0,0,0,0,0,0,0,0,-1,1546,1562,0,0
329,-538,0,0,0,0,0,0,0,0,0,-1,1553,1562,0,0
336,-538,0,0,0,0,0,0,0,0,0,-1,1560,1562,0,0
343,-538,0,0,0,0,0,0,0,0,0,-1,1567,1562,0,0
350,-538,0,0,0,0,0,0,0,0,0,-1,1574,1562,0,0
357,-538,0,0,0,0,0,0,0,0,0,-1,1581,1562,0,0
364,-538,0,0,0,0,0,0,0,0,0,-1,1588,1562,0,0
371,-538,0,0,0,0,0,0,0,0,0,-1,1595,1562,0,0
378,-538,9.65479,5.82434,0,0,0,0,0,0,0,-1,1602,1562,9.6548,-5.82439
385,-538,10.5449,7.9502,0,0,0,0,0,0,0,-1,1609,1562,10.5449,-7.95014
392,-538,8.20361,7.07214,0,0,0,0,0,0,0,-1,1616,1562,8.20362,-7.07211
399,-538,7.85425,4.70508,0,0,0,0,0,0,0,-1,1623,1562,7.85425,-4.70512
406,-538,7.77734,4.96094,0,0,0,0,0,0,0,-1,1630,1562,7.77729,-4.96097
413,-538,13.0446,13.1765,0,0,0,0,0,0,0,-1,1637,1562,13.0446,-13.1765
420,-538,9.96216,12.7653,0,0,0,0,0,0,0,-1,1644,1562,9.96221,-12.7653
427,-538,10.1732,14.5863,0,0,0,0,0,0,0,-1,1651,1562,10.1732,-14.5863
434,-538,9.64331,14.7745,0,0,0,0,0,0,0,-1,1658,1562,9.64326,-14.7746
441,-538,11.5039,20.5195,0,0,0,0,0,0,0,-1,1665,1562,11.5039,-20.5195
448,-538,12.8766,22.4932,0,0,0,0,0,0,0,-1,1672,1562,12.8766,-22.4932
455,-538,12.5693,17.4128,0,0,0,0,0,0,0,-1,1679,1562,12.5694,-17.4128
462,-538,12.1389,17.017,0,0,0,0,0,0,0,-1,1686,1562,12.1389,-17.017
469,-538,14.3802,16.6945,0,0,0,0,0,0,0,-1,1693,1562,14.3803,-16.6945
476,-538,13.724,19.0608,0,0,0,0,0,0,0,-1,1700,1562,13.724,-19.0608
483,-538,17.088,25.2936,0,0,0,0,0,0,0,-1,1707,1562,17.088,-25.2936
490,-538,23.8915,38.8368,0,0,0,0,0,0,0,-1,1714,1562,23.8915,-38.8367
497,-538,24.1232,37.6783,0.010457,0.0108571,-0.00830897,0.0189684,0.00234567,-0.797437,0.0119408,0.0412701,1721,1562,24.1232,-37.6783
504,-538,24.2242,36.76,0.0085193,0.00826288,-0.00642001,0.0148124,0.0019698,-0.775414,0.0092882,0.017382,1728,1562,24.2242,-36.76
511,-538,24.1722,36.0404,0.00683004,0.0063226,-0.00497987,0.0115627,0.00158999,-0.759945,0.0072369,0.0111084,1735,1562,24.1723,-36.0404
518,-538,24.1622,35.3025,0.00525088,0.00457177,-0.00370671,0.00863355,0.00118909,-0.739723,0.00540313,0.0120408,1742,1562,24.1623,-35.3026
525,-538,24.1348,34.5549,0.00386346,0.00339162,-0.00279105,0.00642854,0.000826539,-0.743235,0.00403847,0.013193,1749,1562,24.1347,-34.5549
532,-538,24.1041,33.837,0.00271572,0.00232478,-0.0020168,0.0045465,0.000493999,-0.737089,0.00288049,0.0149292,1756,1562,24.1042,-33.8371
539,-538,24.0499,33.1024,0.00188377,0.00151292,-0.00141604,0.00312647,0.00027021,-0.720296,0.00200034,0.017403,1763,1562,24.0499,-33.1025
546,-538,23.9894,32.3464,0.00129135,0.000669825,-0.000880298,0.00191413,4.70468e-05,-0.615717,0.0012607,0.0178034,1770,1562,23.9893,-32.3464
553,-538,23.9967,31.5898,0.000943397,-4.18219e-06,-0.000441927,0.00111751,-0.000178294,-0.375308,0.000810997,0.0292007,1777,1562,23.9967,-31.5898
560,-538,23.9053,30.8438,0.000956723,-0.000518464,-0.000146796,0.000971189,-0.00053293,-0.0982268,0.000880606,0.0329929,1784,1562,23.9053,-30.8438
567,-538,23.8137,30.0953,0.00128384,-0.000932586,7.22668e-05,0.0012862,-0.000934939,0.032559,0.00128771,0.025494,1791,1562,23.8137,-30.0953
574,-538,23.7225,29.3024,0.00194015,-0.00130209,0.000212502,0.00195402,-0.00131595,0.0651702,0.00189986,0.0328151,1798,1562,23.7225,-29.3024
581,-538,23.7629,28.564,0.00323981,-0.0014092,2.99429e-05,0.00324,-0.00140939,0.00644034,0.00275281,0.04921,1805,1562,23.763,-28.564
588,-538,23.8195,27.6516,0,0,0,0,0,0,0,-1,1812,1562,23.8195,-27.6516
595,-538,15.9808,16.0894,0,0,0,0,0,0,0,-1,1819,1562,15.9808,-16.0893
602,-538,10.314,8.94238,0,0,0,0,0,0,0,-1,1826,1562,10.314,-8.94238
609,-538,10.1046,7.05713,0,0,0,0,0,0,0,-1,1833,1562,10.1046,-7.05719
616,-538,9.92249,5.43506,0,0,0,0,0,0,0,-1,1840,1562,9.92254,-5.43507
623,-538,11.1711,4.31604,0,0,0,0,0,0,0,-1,1847,1562,11.1711,-4.316
630,-538,12.6112,2.61633,0,0,0,0,0,0,0,-1,1854,1562,12.6112,-2.61637
637,-538,0,0,0,0,0,0,0,0,0,-1,1861,1562,0,0
644,-538,0,0,0,0,0,0,0,0,0,-1,1868,1562,0,0
651,-538,0,0,0,0,0,0,0,0,0,-1,1875,1562,0,0
658,-538,0,0,0,0,0,0,0,0,0,-1,1882,1562,0,0
665,-538,0,0,0,0,0,0,0,0,0,-1,1889,1562,0,0
672,-538,0,0,0,0,0,0,0,0,0,-1,1896,1562,0,0
679,-538,0,0,0,0,0,0,0,0,0,-1,1903,1562,0,0
686,-538,0,0,0,0,0,0,0,0,0,-1,1910,1562,0,0
693,-538,0,0,0,0,0,0,0,0,0,-1,1917,1562,0,0
700,-538,0,0,0,0,0,0,0,0,0,-1,1924,1562,0,0
707,-538,0,0,0,0,0,0,0,0,0,-1,1931,1562,0,0
714,-538,0,0,0,0,0,0,0,0,0,-1,1938,1562,0,0
721,-538,0,0,0,0,0,0,0,0,0,-1,1945,1562,0,0
728,-538,0,0,0,0,0,0,0,0,0,-1,1952,1562,0,0
735,-538,0,0,0,0,0,0,0,0,0,-1,1959,1562,0,0
742,-538,0,0,0,0,0,0,0,0,0,-1,1966,1562,0,0
749,-538,0,0,0,0,0,0,0,0,0,-1,1973,1562,0,0
756,-538,0,0,0,0,0,0,0,0,0,-1,1980,1562,0,0
763,-538,0,0,0,0,0,0,0,0,0,-1,1987,1562,0,0
770,-538,0,0,0,0,0,0,0,0,0,-1,1994,1562,0,0
777,-538,0,0,0,0,0,0,0,0,0,-1,2001,1562,0,0
784,-538,0,0,0,0,0,0,0,0,0,-1,2008,1562,0,0
791,-538,0,0,0,0,0,0,0,0,0,-1,2015,1562,0,0
798,-538,0,0,0,0,0,0,0,0,0,-1,2022,1562,0,0
805,-538,0,0,0,0,0,0,0,0,0,-1,2029,1562,0,0
812,-538,0,0,0,0,0,0,0,0,0,-1,2036,1562,0,0
-700,-545,0,0,0,0,0,0,0,0,0,-1,524,1569,0,0
-693,-545,0,0,0,0,0,0,0,0,0,-1,531,1569,0,0
-686,-545,0,0,0,0,0,0,0,0,0,-1,538,1569,0,0
-679,-545,0,0,0,0,0,0,0,0,0,-1,545,1569,0,0
-672,-545,0,0,0,0,0,0,0,0,0,-1,552,1569,0,0
-665,-545,0,0,0,0,0,0,0,0,0,-1,559,1569,0,0
-658,-545,0,0,0,0,0,0,0,0,0,-1,566,1569,0,0
-651,-545,0,0,0,0,0,0,0,0,0,-1,573,1569,0,0
-644,-545,0,0,0,0,0,0,0,0,0,-1,580,1569,0,0
-637,-545,0,0,0,0,0,0,0,0,0,-1,587,1569,0,0
-630,-545,0,0,0,0,0,0,0,0,0,-1,594,1569,0,0
-623,-545,0,0,0,0,0,0,0,0,0,-1,601,1569,0,0
-616,-545,0,0,0,0,0,0,0,0,0,-1,608,1569,0,0
-609,-545,0,0,0,0,0,0,0,0,0,-1,615,1569,0,0
-602,-545,0,0,0,0,0,0,0,0,0,-1,622,1569,0,0
-595,-545,0,0,0,0,0,0,0,0,0,-1,629,1569,0,0
-588,-545,0,0,0,0,0,0,0,0,0,-1,636,1569,0,0
-581,-545,0,0,0,0,0,0,0,0,0,-1,643,1569,0,0
-574,-545,0,0,0,0,0,0,0,0,0,-1,650,1569,0,0
-567,-545,0,0,0,0,0,0,0,0,0,-1,657,1569,0,0
-560,-545,0,0,0,0,0,0,0,0,0,-1,664,1569,0,0
-553,-545,0,0,0,0,0,0,0,0,0,-1,671,1569,0,0
-546,-545,0,0,0,0,0,0,0,0,0,-1,678,1569,0,0
-539,-545,0,0,0,0,0,0,0,0,0,-1,685,1569,0,0
-532,-545,0,0,0,0,0,0,0,0,0,-1,692,1569,0,0
-525,-545,0,0,0,0,0,0,0,0,0,-1,699,1569,0,0
-518,-545,0,0,0,0,0,0,0,0,0,-1,706,1569,0,0
-511,-545,0,0,0,0,0,0,0,0,0,-1,713,1569,0,0
-504,-545,-3.55237,-2.5354,0,0,0,0,0,0,0,-1,720,1569,-3.55236,2.53545
-497,-545,2.26575,5.69214,0,0,0,0,0,0,0,-1,727,1569,2.26573,-5.6922
-490,-545,-2.17334,7.81396,0,0,0,0,0,0,0,-1,734,1569,-2.17334,-7.81399
-483,-545,-1.88336,5.8446,0,0,0,0,0,0,0,-1,741,1569,-1.88334,-5.84466
-476,-545,-1.13147,6.5741,0,0,0,0,0,0,0,-1,748,1569,-1.13149,-6.57405
-469,-545,-1.03412,15.8353,0,0,0,0,0,0,0,-1,755,1569,-1.03414,-15.8353
-462,-545,-4.09772,21.0458,0,0,0,0,0,0,0,-1,762,1569,-4.0977,-21.0458
-455,-545,-4.99615,27.4063,0,0,0,0,0,0,0,-1,769,1569,-4.99617,-27.4063
-448,-545,-5.07477,28.4954,0,0,0,0,0,0,0,-1,776,1569,-5.07479,-28.4954
-441,-545,-5.203,29.5504,-0.00967047,-0.00723351,-0.00571863,-0.00260499,-0.014299,-0.890364,0.0087939,0.0355618,783,1569,-5.203,-29.5504
-434,-545,-5.59845,30.1927,-0.00763105,-0.00505236,-0.00437998,-0.00177589,-0.0109075,-0.928541,0.00675795,0.0310508,790,1569,-5.59846,-30.1927
-427,-545,-5.6087,30.9601,-0.00568352,-0.00321932,-0.00304952,-0.0011624,-0.00774044,-0.977387,0.00481978,0.0217278,797,1569,-5.60873,-30.9601
-420,-545,-5.58282,31.7008,-0.00393748,-0.00186248,-0.00193714,-0.000702498,-0.00509745,-1.03125,0.00319002,0.0233966,804,1569,-5.58282,-31.7008
-413,-545,-5.61932,32.4624,-0.00250404,-0.000700536,-0.0011299,-0.000156664,-0.00304791,-1.12218,0.00198178,0.023562,811,1569,-5.61931,-32.4624
-406,-545,-5.6579,33.2406,-0.00109286,9.74601e-05,-0.000297326,0.000167596,-0.00116299,-1.33914,0.000836807,0.0178941,818,1569,-5.65792,-33.2406
-399,-545,-5.69427,34.0132,0.000121736,0.000734004,0.000333845,0.000880828,-2.50874e-05,1.15646,0.000595757,0.0119117,825,1569,-5.69429,-34.0132
-392,-545,-5.75256,34.7634,0.00108296,0.00133205,0.000820381,0.00203729,0.000377723,0.860731,0.00125143,0.0124153,832,1569,-5.75256,-34.7635
-385,-545,-5.78754,35.5503,0.00197273,0.0020653,0.00117802,0.00319795,0.000840083,0.805032,0.0019144,0.0109303,839,1569,-5.78755,-35.5502
-378,-545,-5.83606,36.3271,0.00273202,0.00275696,0.00145318,0.00419773,0.00129126,0.78969,0.00248264,0.0121525,846,1569,-5.83609,-36.3271
-371,-545,-5.88159,37.1023,0.00357069,0.00369816,0.00190774,0.00554322,0.00172562,0.802097,0.00327547,0.0152506,853,1569,-5.88161,-37.1023
-364,-545,-5.90192,37.8112,0.0046478,0.00507612,0.00258705,0.00745786,0.00226606,0.826695,0.00441486,0.011854,860,1569,-5.90194,-37.8112
-357,-545,-5.83203,38.7135,0.00583874,0.00672145,0.00339926,0.00970788,0.00285231,0.849957,0.00576151,0.0255477,867,1569,-5.83206,-38.7135
-350,-545,-5.76532,39.5945,0.00722931,0.00874508,0.00445995,0.0125111,0.00346331,0.86956,0.00745928,0.0497346,874,1569,-5.76535,-39.5945
-343,-545,-5.66315,40.424,0,0,0,0,0,0,0,-1,881,1569,-5.66315,-40.424
-336,-545,-4.2146,36.9165,0,0,0,0,0,0,0,-1,888,1569,-4.21457,-36.9165
-329,-545,-2.03595,27.8694,0,0,0,0,0,0,0,-1,895,1569,-2.03592,-27.8694
-322,-545,-2.42474,27.9695,0,0,0,0,0,0,0,-1,902,1569,-2.42474,-27.9695
-315,-545,-2.52954,30.1711,0,0,0,0,0,0,0,-1,909,1569,-2.52951,-30.1712
-308,-545,-1.54358,21.4457,0,0,0,0,0,0,0,-1,916,1569,-1.54357,-21.4457
-301,-545,1.52191,17.5009,0,0,0,0,0,0,0,-1,923,1569,1.52192,-17.5008
-294,-545,-2.69287,8.42102,0,0,0,0,0,0,0,-1,930,1569,-2.69287,-8.42097
-287,-545,-3.47784,9.96021,0,0,0,0,0,0,0,-1,937,1569,-3.47785,-9.96021
-280,-545,-3.7879,10.5448,0,0,0,0,0,0,0,-1,944,1569,-3.78793,-10.5448
-273,-545,-5.10333,12.864,0,0,0,0,0,0,0,-1,951,1569,-5.10331,-12.864
-266,-545,-5.78955,13.3704,0,0,0,0,0,0,0,-1,958,1569,-5.78952,-13.3703
-259,-545,-6.32184,13.8101,0,0,0,0,0,0,0,-1,965,1569,-6.32182,-13.81
-252,-545,0.369263,7.54053,0,0,0,0,0,0,0,-1,972,1569,0.369276,-7.54056
-245,-545,-0.236633,6.65564,0,0,0,0,0,0,0,-1,979,1569,-0.236605,-6.65566
-238,-545,0,0,0,0,0,0,0,0,0,-1,986,1569,0,0
-231,-545,0,0,0,0,0,0,0,0,0,-1,993,1569,0,0
-224,-545,0,0,0,0,0,0,0,0,0,-1,1000,1569,0,0
-217,-545,0,0,0,0,0,0,0,0,0,-1,1007,1569,0,0
-210,-545,0,0,0,0,0,0,0,0,0,-1,1014,1569,0,0
-203,-545,0,0,0,0,0,0,0,0,0,-1,1021,1569,0,0
-196,-545,0,0,0,0,0,0,0,0,0,-1,1028,1569,0,0
-189,-545,0,0,0,0,0,0,0,0,0,-1,1035,1569,0,0
-182,-545,0,0,0,0,0,0,0,0,0,-1,1042,1569,0,0
-175,-545,0,0,0,0,0,0,0,0,0,-1,1049,1569,0,0
-168,-545,0,0,0,0,0,0,0,0,0,-1,1056,1569,0,0
-161,-545,0,0,0,0,0,0,0,0,0,-1,1063,1569,0,0
-154,-545,0,0,0,0,0,0,0,0,0,-1,1070,1569,0,0
-147,-545,0,0,0,0,0,0,0,0,0,-1,1077,1569,0,0
-140,-545,0,0,0,0,0,0,0,0,0,-1,1084,1569,0,0
-133,-545,0,0,0,0,0,0,0,0,0,-1,1091,1569,0,0
-126,-545,0,0,0,0,0,0,0,0,0,-1,1098,1569,0,0
-119,-545,0,0,0,0,0,0,0,0,0,-1,1105,1569,0,0
-112,-545,0,0,0,0,0,0,0,0,0,-1,1112,1569,0,0
-105,-545,0,0,0,0,0,0,0,0,0,-1,1119,1569,0,0
-98,-545,0,0,0,0,0,0,0,0,0,-1,1126,1569,0,0
-91,-545,0,0,0,0,0,0,0,0,0,-1,1133,1569,0,0
-84,-545,0,0,0,0,0,0,0,0,0,-1,1140,1569,0,0
-77,-545,0,0,0,0,0,0,0,0,0,-1,1147,1569,0,0
-70,-545,0,0,0,0,0,0,0,0,0,-1,1154,1569,0,0
-63,-545,0,0,0,0,0,0,0,0,0,-1,1161,1569,0,0
-56,-545,0,0,0,0,0,0,0,0,0,-1,1168,1569,0,0
-49,-545,0,0,0,0,0,0,0,0,0,-1,1175,1569,0,0
-42,-545,0,0,0,0,0,0,0,0,0,-1,1182,1569,0,0
-35,-545,0,0,0,0,0,0,0,0,0,-1,1189,1569,0,0
-28,-545,0,0,0,0,0,0,0,0,0,-1,1196,1569,0,0
-21,-545,0,0,0,0,0,0,0,0,0,-1,1203,1569,0,0
-14,-545,0,0,0,0,0,0,0,0,0,-1,1210,1569,0,0
-7,-545,0,0,0,0,0,0,0,0,0,-1,1217,1569,0,0
0,-545,0,0,0,0,0,0,0,0,0,-1,1224,1569,0,0
7,-545,0,0,0,0,0,0,0,0,0,-1,1231,1569,0,0
14,-545,0,0,0,0,0,0,0,0,0,-1,1238,1569,0,0
21,-545,0,0,0,0,0,0,0,0,0,-1,1245,1569,0,0
28,-545,0,0,0,0,0,0,0,0,0,-1,1252,1569,0,0
35,-545,0,0,0,0,0,0,0,0,0,-1,1259,1569,0,0
42,-545,0,0,0,0,0,0,0,0,0,-1,1266,1569,0,0
49,-545,0,0,0,0,0,0,0,0,0,-1,1273,1569,0,0
56,-545,0,0,0,0,0,0,0,0,0,-1,1280,1569,0,0
63,-545,0,0,0,0,0,0,0,0,0,-1,1287,1569,0,0
70,-545,0,0,0,0,0,0,0,0,0,-1,1294,1569,0,0
77,-545,0,0,0,0,0,0,0,0,0,-1,1301,1569,0,0
84,-545,0,0,0,0,0,0,0,0,0,-1,1308,1569,0,0
91,-545,0,0,0,0,0,0,0,0,0,-1,1315,1569,0,0
98,-545,0,0,0,0,0,0,0,0,0,-1,1322,1569,0,0
105,-545,0,0,0,0,0,0,0,0,0,-1,1329,1569,0,0
112,-545,0,0,0,0,0,0,0,0,0,-1,1336,1569,0,0
119,-545,0,0,0,0,0,0,0,0,0,-1,1343,1569,0,0
126,-545,0,0,0,0,0,0,0,0,0,-1,1350,1569,0,0
133,-545,0,0,0,0,0,0,0,0,0,-1,1357,1569,0,0
140,-545,0,0,0,0,0,0,0,0,0,-1,1364,1569,0,0
147,-545,0,0,0,0,0,0,0,0,0,-1,1371,1569,0,0
154,-545,0,0,0,0,0,0,0,0,0,-1,1378,1569,0,0
161,-545,0,0,0,0,0,0,0,0,0,-1,1385,1569,0,0
168,-545,0,0,0,0,0,0,0,0,0,-1,1392,1569,0,0
175,-545,0,0,0,0,0,0,0,0,0,-1,1399,1569,0,0
182,-545,0,0,0,0,0,0,0,0,0,-1,1406,1569,0,0
189,-545,0,0,0,0,0,0,0,0,0,-1,1413,1569,0,0
196,-545,0,0,0,0,0,0,0,0,0,-1,1420,1569,0,0
203,-545,0,0,0,0,0,0,0,0,0,-1,1427,1569,0,0
210,-545,0,0,0,0,0,0,0,0,0,-1,1434,1569,0,0
217,-545,0,0,0,0,0,0,0,0,0,-1,1441,1569,0,0
224,-545,0,0,0,0,0,0,0,0,0,-1,1448,1569,0,0
231,-545,0,0,0,0,0,0,0,0,0,-1,1455,1569,0,0
238,-545,0,0,0,0,0,0,0,0,0,-1,1462,1569,0,0
245,-545,0,0,0,0,0,0,0,0,0,-1,1469,1569,0,0
252,-545,0,0,0,0,0,0,0,0,0,-1,1476,1569,0,0
259,-545,0,0,0,0,0,0,0,0,0,-1,1483,1569,0,0
266,-545,0,0,0,0,0,0,0,0,0,-1,1490,1569,0,0
273,-545,0,0,0,0,0,0,0,0,0,-1,1497,1569,0,0
280,-545,0,0,0,0,0,0,0,0,0,-1,1504,1569,0,0
287,-545,0,0,0,0,0,0,0,0,0,-1,1511,1569,0,0
294,-545,0,0,0,0,0,0,0,0,0,-1,1518,1569,0,0
301,-545,0,0,0,0,0,0,0,0,0,-1,1525,1569,0,0
308,-545,0,0,0,0,0,0,0,0,0,-1,1532,1569,0,0
315,-545,0,0,0,0,0,0,0,0,0,-1,1539,1569,0,0
322,-545,0,0,0,0,0,0,0,0,0,-1,1546,1569,0,0
329,-545,0,0,0,0,0,0,0,0,0,-1,1553,1569,0,0
336,-545,0,0,0,0,0,0,0,0,0,-1,1560,1569,0,0
343,-545,0,0,0,0,0,0,0,0,0,-1,1567,1569,0,0
350,-545,0,0,0,0,0,0,0,0,0,-1,1574,1569,0,0
357,-545,0,0,0,0,0,0,0,0,0,-1,1581,1569,0,0
364,-545,7.19495,4.88098,0,0,0,0,0,0,0,-1,1588,1569,7.19497,-4.88095
371,-545,7.82324,3.84302,0,0,0,0,0,0,0,-1,1595,1569,7.82324,-3.84307
378,-545,7.65674,5.52673,0,0,0,0,0,0,0,-1,1602,1569,7.6567,-5.52667
385,-545,8.58447,1.16125,0,0,0,0,0,0,0,-1,1609,1569,8.5845,-1.1612
392,-545,12.5654,3.89526,0,0,0,0,0,0,0,-1,1616,1569,12.5655,-3.89532
399,-545,11.5869,5.6333,0,0,0,0,0,0,0,-1,1623,1569,11.5869,-5.63326
406,-545,11.234,6.36414,0,0,0,0,0,0,0,-1,1630,1569,11.234,-6.3641
413,-545,12.1521,13.4817,0,0,0,0,0,0,0,-1,1637,1569,12.1521,-13.4817
420,-545,11.1954,13.6047,0,0,0,0,0,0,0,-1,1644,1569,11.1954,-13.6047
427,-545,9.61072,14.9135,0,0,0,0,0,0,0,-1,1651,1569,9.61076,-14.9134
434,-545,13.1598,23.9921,0,0,0,0,0,0,0,-1,1658,1569,13.1598,-23.992
441,-545,12.2833,22.2238,0,0,0,0,0,0,0,-1,1665,1569,12.2833,-22.2237
448,-545,13.0082,21.941,0,0,0,0,0,0,0,-1,1672,1569,13.0082,-21.941
455,-545,13.733,21.6583,0,0,0,0,0,0,0,-1,1679,1569,13.733,-21.6583
462,-545,12.449,20.7413,0,0,0,0,0,0,0,-1,1686,1569,12.4489,-20.7413
469,-545,12.7837,17.7919,0,0,0,0,0,0,0,-1,1693,1569,12.7837,-17.7919
476,-545,15.7562,24.8708,0,0,0,0,0,0,0,-1,1700,1569,15.7563,-24.8709
483,-545,23.4227,39.1725,0,0,0,0,0,0,0,-1,1707,1569,23.4227,-39.1725
490,-545,23.4573,38.3412,0.0100082,0.0115946,-0.00849953,0.0193379,0.00226493,-0.831925,0.0122072,0.0298039,1714,1569,23.4573,-38.3412
497,-545,23.4469,37.5858,0.00833959,0.00875151,-0.00653003,0.0150788,0.00201227,-0.801163,0.00945346,0.0234993,1721,1569,23.4469,-37.5858
504,-545,23.5205,36.8088,0.00669615,0.00646355,-0.00497726,0.0115585,0.00160124,-0.773717,0.00723123,0.0161354,1728,1569,23.5205,-36.8088
511,-545,23.4757,36.0483,0.00518342,0.00481485,-0.00377221,0.00877585,0.00122242,-0.760991,0.00548866,0.011759,1735,1569,23.4757,-36.0483
518,-545,23.4536,35.2981,0.00375224,0.00329888,-0.00270633,0.00624136,0.000809752,-0.743616,0.00391897,0.0140429,1742,1569,23.4537,-35.2981
525,-545,23.3982,34.5717,0.0025248,0.00231669,-0.00195421,0.00437773,0.000463762,-0.7588,0.00277684,0.0155543,1749,1569,23.3981,-34.5717
532,-545,23.3293,33.8723,0.00154424,0.00141132,-0.00132238,0.00280183,0.000153731,-0.76029,0.00181881,0.0155533,1756,1569,23.3294,-33.8723
539,-545,23.2743,33.1509,0.000855996,0.000753726,-0.000853454,0.00165985,-5.01231e-05,-0.755476,0.00112364,0.0186873,1763,1569,23.2743,-33.1508
546,-545,23.2013,32.3864,0.000391453,3.75152e-05,-0.000429734,0.00067923,-0.000250262,-0.590075,0.000555366,0.0195868,1770,1569,23.2013,-32.3864
553,-545,23.1907,31.6251,0.000206393,-0.000508658,-0.00012013,0.000226035,-0.000528301,-0.162077,0.000447019,0.0265794,1777,1569,23.1907,-31.6251
560,-545,23.1643,30.8438,0.000407133,-0.000917903,4.80451e-05,0.000408873,-0.000919643,0.0361961,0.000785688,0.031838,1784,1569,23.1643,-30.8437
567,-545,23.1115,29.9391,0,0,0,0,0,0,0,-1,1791,1569,23.1114,-29.939
574,-545,23.1431,29.1661,0,0,0,0,0,0,0,-1,1798,1569,23.143,-29.1662
581,-545,23.0547,28.516,0,0,0,0,0,0,0,-1,1805,1569,23.0547,-28.516
588,-545,15.4786,16.7035,0,0,0,0,0,0,0,-1,1812,1569,15.4786,-16.7035
595,-545,10.2859,9.11218,0,0,0,0,0,0,0,-1,1819,1569,10.2858,-9.11215
602,-545,8.82117,6.32214,0,0,0,0,0,0,0,-1,1826,1569,8.82121,-6.32217
609,-545,10.2406,5.22351,0,0,0,0,0,0,0,-1,1833,1569,10.2406,-5.22353
616,-545,11.701,3.93188,0,0,0,0,0,0,0,-1,1840,1569,11.701,-3.93191
623,-545,13.2139,2.32043,0,0,0,0,0,0,0,-1,1847,1569,13.2139,-2.32042
630,-545,0,0,0,0,0,0,0,0,0,-1,1854,1569,0,0
637,-545,0,0,0,0,0,0,0,0,0,-1,1861,1569,0,0
644,-545,0,0,0,0,0,0,0,0,0,-1,1868,1569,0,0
651,-545,0,0,0,0,0,0,0,0,0,-1,1875,1569,0,0
658,-545,0,0,0,0,0,0,0,0,0,-1,1882,1569,0,0
665,-545,0,0,0,0,0,0,0,0,0,-1,1889,1569,0,0
672,-545,0,0,0,0,0,0,0,0,0,-1,1896,1569,0,0
679,-545,0,0,0,0,0,0,0,0,0,-1,1903,1569,0,0
686,-545,0,0,0,0,0,0,0,0,0,-1,1910,1569,0,0
693,-545,0,0,0,0,0,0,0,0,0,-1,1917,1569,0,0
700,-545,0,0,0,0,0,0,0,0,0,-1,1924,1569,0,0
707,-545,0,0,0,0,0,0,0,0,0,-1,1931,1569,0,0
714,-545,0,0,0,0,0,0,0,0,0,-1,1938,1569,0,0
721,-545,0,0,0,0,0,0,0,0,0,-1,1945,1569,0,0
728,-545,0,0,0,0,0,0,0,0,0,-1,1952,1569,0,0
735,-545,0,0,0,0,0,0,0,0,0,-1,1959,1569,0,0
742,-545,0,0,0,0,0,0,0,0,0,-1,1966,1569,0,0
749,-545,0,0,0,0,0,0,0,0,0,-1,1973,1569,0,0
756,-545,0,0,0,0,0,0,0,0,0,-1,1980,1569,0,0
763,-545,0,0,0,0,0,0,0,0,0,-1,1987,1569,0,0
770,-545,0,0,0,0,0,0,0,0,0,-1,1994,1569,0,0
777,-545,0,0,0,0,0,0,0,0,0,-1,2001,1569,0,0
784,-545,0,0,0,0,0,0,0,0,0,-1,2008,1569,0,0
791,-545,0,0,0,0,0,0,0,0,0,-1,2015,1569,0,0
798,-545,0,0,0,0,0,0,0,0,0,-1,2022,1569,0,0
805,-545,0,0,0,0,0,0,0,0,0,-1,2029,1569,0,0
812,-545,0,0,0,0,0,0,0,0,0,-1,2036,1569,0,0
-700,-552,0,0,0,0,0,0,0,0,0,-1,524,1576,0,0
-693,-552,0,0,0,0,0,0,0,0,0,-1,531,1576,0,0
-686,-552,0,0,0,0,0,0,0,0,0,-1,538,1576,0,0
-679,-552,0,0,0,0,0,0,0,0,0,-1,545,1576,0,0
-672,-552,0,0,0,0,0,0,0,0,0,-1,552,1576,0,0
-665,-552,0,0,0,0,0,0,0,0,0,-1,559,1576,0,0
-658,-552,0,0,0,0,0,0,0,0,0,-1,566,1576,0,0
-651,-552,0,0,0,0,0,0,0,0,0,-1,573,1576,0,0
-644,-552,0,0,0,0,0,0,0,0,0,-1,580,1576,0,0
-637,-552,0,0,0,0,0,0,0,0,0,-1,587,1576,0,0
-630,-552,0,0,0,0,0,0,0,0,0,-1,594,1576,0,0
-623,-552,0,0,0,0,0,0,0,0,0,-1,601,1576,0,0
-616,-552,0,0,0,0,0,0,0,0,0,-1,608,1576,0,0
-609,-552,0,0,0,0,0,0,0,0,0,-1,615,1576,0,0
-602,-552,0,0,0,0,0,0,0,0,0,-1,622,1576,0,0
-595,-552,0,0,0,0,0,0,0,0,0,-1,629,1576,0,0
-588,-552,0,0,0,0,0,0,0,0,0,-1,636,1576,0,0
-581,-552,0,0,0,0,0,0,0,0,0,-1,643,1576,0,0
-574,-552,0,0,0,0,0,0,0,0,0,-1,650,1576,0,0
-567,-552,0,0,0,0,0,0,0,0,0,-1,657,1576,0,0
-560,-552,0,0,0,0,0,0,0,0,0,-1,664,1576,0,0
-553,-552,0,0,0,0,0,0,0,0,0,-1,671,1576,0,0
-546,-552,0,0,0,0,0,0,0,0,0,-1,678,1576,0,0
-539,-552,0,0,0,0,0,0,0,0,0,-1,685,1576,0,0
-532,-552,0,0,0,0,0,0,0,0,0,-1,692,1576,0,0
-525,-552,0,0,0,0,0,0,0,0,0,-1,699,1576,0,0
-518,-552,0,0,0,0,0,0,0,0,0,-1,706,1576,0,0
-511,-552,0,0,0,0,0,0,0,0,0,-1,713,1576,0,0
-504,-552,0,0,0,0,0,0,0,0,0,-1,720,1576,0,0
-497,-552,1.51282,3.96924,0,0,0,0,0,0,0,-1,727,1576,1.5128,-3.96924
-490,-552,-3.82312,6.32104,0,0,0,0,0,0,0,-1,734,1576,-3.82314,-6.3211
-483,-552,-3.50586,6.47986,0,0,0,0,0,0,0,-1,741,1576,-3.50587,-6.47983
-476,-552,-1.95129,4.43054,0,0,0,0,0,0,0,-1,748,1576,-1.95128,-4.43054
-469,-552,-1.40491,7.9895,0,0,0,0,0,0,0,-1,755,1576,-1.40491,-7.98947
-462,-552,0.0459595,16.3469,0,0,0,0,0,0,0,-1,762,1576,0.0459611,-16.3469
-455,-552,-3.21484,22.3766,0,0,0,0,0,0,0,-1,769,1576,-3.21487,-22.3766
-448,-552,-4.15961,28.225,0,0,0,0,0,0,0,-1,776,1576,-4.1596,-28.225
-441,-552,-4.27295,29.5405,0,0,0,0,0,0,0,-1,783,1576,-4.27294,-29.5405
-434,-552,-4.52753,30.4253,-0.00961296,-0.0053802,-0.00547948,-0.00162259,-0.0133706,-0.969691,0.00842509,0.0444904,790,1576,-4.52751,-30.4253
-427,-552,-4.86932,30.8604,-0.00713485,-0.00349561,-0.0037907,-0.00111042,-0.00952004,-1.00917,0.00601084,0.0384418,797,1576,-4.86931,-30.8603
-420,-552,-4.81293,31.7397,-0.00503769,-0.00208629,-0.00242625,-0.000722206,-0.00640177,-1.05862,0.00404864,0.0231214,804,1576,-4.8129,-31.7397
-413,-552,-4.83759,32.5082,-0.00344018,-0.000966375,-0.00150419,-0.000255841,-0.00415071,-1.1295,0.00268593,0.0172251,811,1576,-4.83757,-32.5081
-406,-552,-4.90784,33.2847,-0.0019218,-0.000279929,-0.00061308,-7.62654e-05,-0.00212546,-1.25007,0.00139225,0.0135956,818,1576,-4.90781,-33.2847
-399,-552,-4.9552,34.0417,-0.000653175,0.000194265,7.22699e-06,0.000194327,-0.000653237,1.56227,0.000512693,0.0144238,825,1576,-4.95522,-34.0418
-392,-552,-5.02838,34.7958,0.000338816,0.000679072,0.000485291,0.00102319,-5.30388e-06,0.953989,0.000683903,0.0166267,832,1576,-5.02838,-34.7957
-385,-552,-5.05341,35.5854,0.00126633,0.00131459,0.000847107,0.00213791,0.000443005,0.799638,0.00130295,0.0156053,839,1576,-5.05338,-35.5855
-378,-552,-5.07678,36.3586,0.0020433,0.0019193,0.00113376,0.00311675,0.000845853,0.758083,0.0018611,0.0162459,846,1576,-5.07675,-36.3587
-371,-552,-5.10822,37.1415,0.00278269,0.00262538,0.00147464,0.00418077,0.00122729,0.758754,0.0024814,0.0202591,853,1576,-5.10819,-37.1414
-364,-552,-5.13049,37.889,0.00372026,0.00377313,0.00202141,0.00576828,0.00172511,0.791936,0.00341878,0.0156265,860,1576,-5.13051,-37.8891
-357,-552,-5.15051,38.5973,0.00476396,0.00509755,0.00267666,0.0076126,0.0022489,0.816515,0.00451611,0.0109601,867,1576,-5.15053,-38.5973
-350,-552,-5.1626,39.397,0.0059644,0.00661583,0.0034959,0.00980115,0.00277907,0.831849,0.00583277,0.0165558,874,1576,-5.16261,-39.3969
-343,-552,-5.19257,40.1167,0.0073559,0.00819172,0.0044918,0.012285,0.00326262,0.831784,0.00734801,0.0299373,881,1576,-5.19259,-40.1167
-336,-552,-5.23724,40.7562,0,0,0,0,0,0,0,-1,888,1576,-5.23724,-40.7562
-329,-552,-3.68982,37.6417,0,0,0,0,0,0,0,-1,895,1576,-3.68984,-37.6417
-322,-552,-1.23962,28.5371,0,0,0,0,0,0,0,-1,902,1576,-1.23964,-28.5371
-315,-552,-0.605347,28.994,0,0,0,0,0,0,0,-1,909,1576,-0.605331,-28.9941
-308,-552,-1.01624,30.3169,0,0,0,0,0,0,0,-1,916,1576,-1.01624,-30.3169
-301,-552,1.39453,18.4995,0,0,0,0,0,0,0,-1,923,1576,1.3945,-18.4995
-294,-552,0.842163,13.7863,0,0,0,0,0,0,0,-1,930,1576,0.842149,-13.7863
-287,-552,-0.663757,13.3474,0,0,0,0,0,0,0,-1,937,1576,-0.663744,-13.3474
-280,-552,-5.47241,8.96765,0,0,0,0,0,0,0,-1,944,1576,-5.47239,-8.96766
-273,-552,1.64587,10.6685,0,0,0,0,0,0,0,-1,951,1576,1.6459,-10.6685
-266,-552,-1.32678,8.05688,0,0,0,0,0,0,0,-1,958,1576,-1.32677,-8.05683
-259,-552,-5.54321,8.31213,0,0,0,0,0,0,0,-1,965,1576,-5.54324,-8.31214
-252,-552,-1.93445,7.81543,0,0,0,0,0,0,0,-1,972,1576,-1.93445,-7.81546
-245,-552,-2.53613,6.92212,0,0,0,0,0,0,0,-1,979,1576,-2.53614,-6.92216
-238,-552,-6.5365,2.81885,0,0,0,0,0,0,0,-1,986,1576,-6.53649,-2.8188
-231,-552,-4.32239,4.34583,0,0,0,0,0,0,0,-1,993,1576,-4.32239,-4.34587
-224,-552,0,0,0,0,0,0,0,0,0,-1,1000,1576,0,0
-217,-552,0,0,0,0,0,0,0,0,0,-1,1007,1576,0,0
-210,-552,0,0,0,0,0,0,0,0,0,-1,1014,1576,0,0
-203,-552,0,0,0,0,0,0,0,0,0,-1,1021,1576,0,0
-196,-552,0,0,0,0,0,0,0,0,0,-1,1028,1576,0,0
-189,-552,0,0,0,0,0,0,0,0,0,-1,1035,1576,0,0
-182,-552,0,0,0,0,0,0,0,0,0,-1,1042,1576,0,0
-175,-552,0,0,0,0,0,0,0,0,0,-1,1049,1576,0,0
-168,-552,0,0,0,0,0,0,0,0,0,-1,1056,1576,0,0
-161,-552,0,0,0,0,0,0,0,0,0,-1,1063,1576,0,0
-154,-552,0,0,0,0,0,0,0,0,0,-1,1070,1576,0,0
-147,-552,0,0,0,0,0,0,0,0,0,-1,1077,1576,0,0
-140,-552,0,0,0,0,0,0,0,0,0,-1,1084,1576,0,0
-133,-552,0,0,0,0,0,0,0,0,0,-1,1091,1576,0,0
-126,-552,0,0,0,0,0,0,0,0,0,-1,1098,1576,0,0
-119,-552,0,0,0,0,0,0,0,0,0,-1,1105,1576,0,0
-112,-552,0,0,0,0,0,0,0,0,0,-1,1112,1576,0,0
-105,-552,0,0,0,0,0,0,0,0,0,-1,1119,1576,0,0
-98,-552,0,0,0,0,0,0,0,0,0,-1,1126,1576,0,0
-91,-552,0,0,0,0,0,0,0,0,0,-1,1133,1576,0,0
-84,-552,0,0,0,0,0,0,0,0,0,-1,1140,1576,0,0
-77,-552,0,0,0,0,0,0,0,0,0,-1,1147,1576,0,0
-70,-552,0,0,0,0,0,0,0,0,0,-1,1154,1576,0,0
-63,-552,0,0,0,0,0,0,0,0,0,-1,1161,1576,0,0
-56,-552,0,0,0,0,0,0,0,0,0,-1,1168,1576,0,0
-49,-552,0,0,0,0,0,0,0,0,0,-1,1175,1576,0,0
-42,-552,0,0,0,0,0,0,0,0,0,-1,1182,1576,0,0
-35,-552,0,0,0,0,0,0,0,0,0,-1,1189,1576,0,0
-28,-552,0,0,0,0,0,0,0,0,0,-1,1196,1576,0,0
-21,-552,0,0,0,0,0,0,0,0,0,-1,1203,1576,0,0
-14,-552,0,0,0,0,0,0,0,0,0,-1,1210,1576,0,0
-7,-552,0,0,0,0,0,0,0,0,0,-1,1217,1576,0,0
0,-552,0,0,0,0,0,0,0,0,0,-1,1224,1576,0,0
7,-552,0,0,0,0,0,0,0,0,0,-1,1231,1576,0,0
14,-552,0,0,0,0,0,0,0,0,0,-1,1238,1576,0,0
21,-552,0,0,0,0,0,0,0,0,0,-1,1245,1576,0,0
28,-552,0,0,0,0,0,0,0,0,0,-1,1252,1576,0,0
35,-552,0,0,0,0,0,0,0,0,0,-1,1259,1576,0,0
42,-552,0,0,0,0,0,0,0,0,0,-1,1266,1576,0,0
49,-552,0,0,0,0,0,0,0,0,0,-1,1273,1576,0,0
56,-552,0,0,0,0,0,0,0,0,0,-1,1280,1576,0,0
63,-552,0,0,0,0,0,0,0,0,0,-1,1287,1576,0,0
70,-552,0,0,0,0,0,0,0,0,0,-1,1294,1576,0,0
77,-552,0,0,0,0,0,0,0,0,0,-1,1301,1576,0,0
84,-552,0,0,0,0,0,0,0,0,0,-1,1308,1576,0,0
91,-552,0,0,0,0,0,0,0,0,0,-1,1315,1576,0,0
98,-552,0,0,0,0,0,0,0,0,0,-1,1322,1576,0,0
105,-552,0,0,0,0,0,0,0,0,0,-1,1329,1576,0,0
112,-552,0,0,0,0,0,0,0,0,0,-1,1336,1576,0,0
119,-552,0,0,0,0,0,0,0,0,0,-1,1343,1576,0,0
126,-552,0,0,0,0,0,0,0,0,0,-1,1350,1576,0,0
133,-552,0,0,0,0,0,0,0,0,0,-1,1357,1576,0,0
140,-552,0,0,0,0,0,0,0,0,0,-1,1364,1576,0,0
147,-552,0,0,0,0,0,0,0,0,0,-1,1371,1576,0,0
154,-552,0,0,0,0,0,0,0,0,0,-1,1378,1576,0,0
161,-552,0,0,0,0,0,0,0,0,0,-1,1385,1576,0,0
168,-552,0,0,0,0,0,0,0,0,0,-1,1392,1576,0,0
175,-552,0,0,0,0,0,0,0,0,0,-1,1399,1576,0,0
182,-552,0,0,0,0,0,0,0,0,0,-1,1406,1576,0,0
189,-552,0,0,0,0,0,0,0,0,0,-1,1413,1576,0,0
196,-552,0,0,0,0,0,0,0,0,0,-1,1420,1576,0,0
203,-552,0,0,0,0,0,0,0,0,0,-1,1427,1576,0,0
210,-552,0,0,0,0,0,0,0,0,0,-1,1434,1576,0,0
217,-552,0,0,0,0,0,0,0,0,0,-1,1441,1576,0,0
224,-552,0,0,0,0,0,0,0,0,0,-1,1448,1576,0,0
231,-552,0,0,0,0,0,0,0,0,0,-1,1455,1576,0,0
238,-552,0,0,0,0,0,0,0,0,0,-1,1462,1576,0,0
245,-552,0,0,0,0,0,0,0,0,0,-1,1469,1576,0,0
252,-552,0,0,0,0,0,0,0,0,0,-1,1476,1576,0,0
259,-552,0,0,0,0,0,0,0,0,0,-1,1483,1576,0,0
266,-552,0,0,0,0,0,0,0,0,0,-1,1490,1576,0,0
273,-552,0,0,0,0,0,0,0,0,0,-1,1497,1576,0,0
280,-552,0,0,0,0,0,0,0,0,0,-1,1504,1576,0,0
287,-552,0,0,0,0,0,0,0,0,0,-1,1511,1576,0,0
294,-552,0,0,0,0,0,0,0,0,0,-1,1518,1576,0,0
301,-552,0,0,0,0,0,0,0,0,0,-1,1525,1576,0,0
308,-552,0,0,0,0,0,0,0,0,0,-1,1532,1576,0,0
315,-552,0,0,0,0,0,0,0,0,0,-1,1539,1576,0,0
322,-552,0,0,0,0,0,0,0,0,0,-1,1546,1576,0,0
329,-552,0,0,0,0,0,0,0,0,0,-1,1553,1576,0,0
336,-552,0,0,0,0,0,0,0,0,0,-1,1560,1576,0,0
343,-552,0,0,0,0,0,0,0,0,0,-1,1567,1576,0,0
350,-552,4.97876,4.09888,0,0,0,0,0,0,0,-1,1574,1576,4.97875,-4.09883
357,-552,5.18469,4.10706,0,0,0,0,0,0,0,-1,1581,1576,5.1847,-4.10702
364,-552,5.80872,5.07031,0,0,0,0,0,0,0,-1,1588,1576,5.80874,-5.07037
371,-552,7.10657,5.64783,0,0,0,0,0,0,0,-1,1595,1576,7.10651,-5.64786
378,-552,6.44446,4.91492,0,0,0,0,0,0,0,-1,1602,1576,6.44448,-4.91496
385,-552,12.8276,3.16504,0,0,0,0,0,0,0,-1,1609,1576,12.8276,-3.16503
392,-552,12.1301,4.3363,0,0,0,0,0,0,0,-1,1616,1576,12.1302,-4.33631
399,-552,11.3486,5.6012,0,0,0,0,0,0,0,-1,1623,1576,11.3486,-5.60115
406,-552,10.7863,6.42542,0,0,0,0,0,0,0,-1,1630,1576,10.7863,-6.42536
413,-552,8.39307,10.365,0,0,0,0,0,0,0,-1,1637,1576,8.3931,-10.365
420,-552,10.2306,12.7225,0,0,0,0,0,0,0,-1,1644,1576,10.2305,-12.7226
427,-552,9.73267,14.783,0,0,0,0,0,0,0,-1,1651,1576,9.73269,-14.783
434,-552,12.0377,20.1364,0,0,0,0,0,0,0,-1,1658,1576,12.0377,-20.1364
441,-552,12.4963,21.5277,0,0,0,0,0,0,0,-1,1665,1576,12.4964,-21.5277
448,-552,12.9141,21.5482,0,0,0,0,0,0,0,-1,1672,1576,12.9141,-21.5482
455,-552,13.3318,21.5687,0,0,0,0,0,0,0,-1,1679,1576,13.3317,-21.5687
462,-552,12.745,20.5947,0,0,0,0,0,0,0,-1,1686,1576,12.745,-20.5947
469,-552,17.7067,29.6902,0,0,0,0,0,0,0,-1,1693,1576,17.7067,-29.6902
476,-552,22.6097,40.0052,0,0,0,0,0,0,0,-1,1700,1576,22.6097,-40.0052
483,-552,22.8207,38.9683,0,0,0,0,0,0,0,-1,1707,1576,22.8207,-38.9682
490,-552,22.8177,38.271,0.00787396,0.00955699,-0.00664873,0.0154173,0.0020137,-0.848347,0.00967703,0.0154606,1714,1576,22.8177,-38.271
497,-552,22.8658,37.5596,0.00643767,0.00711082,-0.00505711,0.0118425,0.00170595,-0.818627,0.00739229,0.0226115,1721,1576,22.8659,-37.5595
504,-552,22.7965,36.8525,0.00499474,0.0050469,-0.00379112,0.00881203,0.00122961,-0.788838,0.00551074,0.0241253,1728,1576,22.7965,-36.8525
511,-552,22.7535,36.0825,0.00362847,0.00359046,-0.00279452,0.00640405,0.000814876,-0.781998,0.00402533,0.0170365,1735,1576,22.7535,-36.0825
518,-552,22.7389,35.3138,0.00232274,0.00223993,-0.00191899,0.00420077,0.000361898,-0.774612,0.00268801,0.0152915,1742,1576,22.7389,-35.3139
525,-552,22.6582,34.5972,0.00122465,0.00137003,-0.00131465,0.00261399,-1.93196e-05,-0.813016,0.00174914,0.0157121,1749,1576,22.6582,-34.5971
532,-552,22.6091,33.8884,0.000389662,0.000560227,-0.000811363,0.00129078,-0.000340888,-0.837761,0.00099383,0.0154127,1756,1576,22.6092,-33.8885
539,-552,22.5619,33.1697,-0.000165012,-1.77942e-05,-0.000452697,0.000367239,-0.000550046,-0.865993,0.000533089,0.0197439,1763,1576,22.5619,-33.1696
546,-552,22.4973,32.4249,-0.000484004,-0.000650183,-0.000120632,-0.000420615,-0.000713572,-0.483818,0.000414173,0.0240484,1770,1576,22.4973,-32.425
553,-552,22.4812,31.625,-0.000471965,-0.00110989,8.99612e-05,-0.000459521,-0.00112233,0.137451,0.000651513,0.0264411,1777,1576,22.4812,-31.625
560,-552,22.5095,30.6654,0,0,0,0,0,0,0,-1,1784,1576,22.5095,-30.6654
567,-552,20.6783,26.0908,0,0,0,0,0,0,0,-1,1791,1576,20.6784,-26.0908
574,-552,12.8835,14.8463,0,0,0,0,0,0,0,-1,1798,1576,12.8836,-14.8463
581,-552,9.74841,9.98645,0,0,0,0,0,0,0,-1,1805,1576,9.74847,-9.9864
588,-552,10.5619,9.34924,0,0,0,0,0,0,0,-1,1812,1576,10.5619,-9.34921
595,-552,5.36194,6.62744,0,0,0,0,0,0,0,-1,1819,1576,5.36193,-6.62742
602,-552,10.6863,4.31616,0,0,0,0,0,0,0,-1,1826,1576,10.6862,-4.31619
609,-552,12.146,3.18286,0,0,0,0,0,0,0,-1,1833,1576,12.1459,-3.18281
616,-552,13.8762,2.08167,0,0,0,0,0,0,0,-1,1840,1576,13.8763,-2.08167
623,-552,0,0,0,0,0,0,0,0,0,-1,1847,1576,0,0
630,-552,0,0,0,0,0,0,0,0,0,-1,1854,1576,0,0
637,-552,0,0,0,0,0,0,0,0,0,-1,1861,1576,0,0
644,-552,0,0,0,0,0,0,0,0,0,-1,1868,1576,0,0
651,-552,0,0,0,0,0,0,0,0,0,-1,1875,1576,0,0
658,-552,0,0,0,0,0,0,0,0,0,-1,1882,1576,0,0
665,-552,0,0,0,0,0,0,0,0,0,-1,1889,1576,0,0
672,-552,0,0,0,0,0,0,0,0,0,-1,1896,1576,0,0
679,-552,0,0,0,0,0,0,0,0,0,-1,1903,1576,0,0
686,-552,0,0,0,0,0,0,0,0,0,-1,1910,1576,0,0
693,-552,0,0,0,0,0,0,0,0,0,-1,1917,1576,0,0
700,-552,0,0,0,0,0,0,0,0,0,-1,1924,1576,0,0
707,-552,0,0,0,0,0,0,0,0,0,-1,1931,1576,0,0
714,-552,0,0,0,0,0,0,0,0,0,-1,1938,1576,0,0
721,-552,0,0,0,0,0,0,0,0,0,-1,1945,1576,0,0
728,-552,0,0,0,0,0,0,0,0,0,-1,1952,1576,0,0
735,-552,0,0,0,0,0,0,0,0,0,-1,1959,1576,0,0
742,-552,0,0,0,0,0,0,0,0,0,-1,1966,1576,0,0
749,-552,0,0,0,0,0,0,0,0,0,-1,1973,1576,0,0
756,-552,0,0,0,0,0,0,0,0,0,-1,1980,1576,0,0
763,-552,0,0,0,0,0,0,0,0,0,-1,1987,1576,0,0
770,-552,0,0,0,0,0,0,0,0,0,-1,1994,1576,0,0
777,-552,0,0,0,0,0,0,0,0,0,-1,2001,1576,0,0
784,-552,0,0,0,0,0,0,0,0,0,-1,2008,1576,0,0
791,-552,0,0,0,0,0,0,0,0,0,-1,2015,1576,0,0
798,-552,0,0,0,0,0,0,0,0,0,-1,2022,1576,0,0
805,-552,0,0,0,0,0,0,0,0,0,-1,2029,1576,0,0
812,-552,0,0,0,0,0,0,0,0,0,-1,2036,1576,0,0
-700,-559,0,0,0,0,0,0,0,0,0,-1,524,1583,0,0
-693,-559,0,0,0,0,0,0,0,0,0,-1,531,1583,0,0
-686,-559,0,0,0,0,0,0,0,0,0,-1,538,1583,0,0
-679,-559,0,0,0,0,0,0,0,0,0,-1,545,1583,0,0
-672,-559,0,0,0,0,0,0,0,0,0,-1,552,1583,0,0
-665,-559,0,0,0,0,0,0,0,0,0,-1,559,1583,0,0
-658,-559,0,0,0,0,0,0,0,0,0,-1,566,1583,0,0
-651,-559,0,0,0,0,0,0,0,0,0,-1,573,1583,0,0
-644,-559,0,0,0,0,0,0,0,0,0,-1,580,1583,0,0
-637,-559,0,0,0,0,0,0,0,0,0,-1,587,1583,0,0
-630,-559,0,0,0,0,0,0,0,0,0,-1,594,1583,0,0
-623,-559,0,0,0,0,0,0,0,0,0,-1,601,1583,0,0
-616,-559,0,0,0,0,0,0,0,0,0,-1,608,1583,0,0
-609,-559,0,0,0,0,0,0,0,0,0,-1,615,1583,0,0
-602,-559,0,0,0,0,0,0,0,0,0,-1,622,1583,0,0
-595,-559,0,0,0,0,0,0,0,0,0,-1,629,1583,0,0
-588,-559,0,0,0,0,0,0,0,0,0,-1,636,1583,0,0
-581,-559,0,0,0,0,0,0,0,0,0,-1,643,1583,0,0
-574,-559,0,0,0,0,0,0,0,0,0,-1,650,1583,0,0
-567,-559,0,0,0,0,0,0,0,0,0,-1,657,1583,0,0
-560,-559,0,0,0,0,0,0,0,0,0,-1,664,1583,0,0
-553,-559,0,0,0,0,0,0,0,0,0,-1,671,1583,0,0
-546,-559,0,0,0,0,0,0,0,0,0,-1,678,1583,0,0
-539,-559,0,0,0,0,0,0,0,0,0,-1,685,1583,0,0
-532,-559,0,0,0,0,0,0,0,0,0,-1,692,1583,0,0
-525,-559,0,0,0,0,0,0,0,0,0,-1,699,1583,0,0
-518,-559,0,0,0,0,0,0,0,0,0,-1,706,1583,0,0
-511,-559,0,0,0,0,0,0,0,0,0,-1,713,1583,0,0
-504,-559,0,0,0,0,0,0,0,0,0,-1,720,1583,0,0
-497,-559,0,0,0,0,0,0,0,0,0,-1,727,1583,0,0
-490,-559,-5.49835,4.47424,0,0,0,0,0,0,0,-1,734,1583,-5.49833,-4.4743
-483,-559,-5.24078,4.74561,0,0,0,0,0,0,0,-1,741,1583,-5.24079,-4.74563
-476,-559,-4.98022,4.99316,0,0,0,0,0,0,0,-1,748,1583,-4.98024,-4.99321
-469,-559,-4.6424,5.38062,0,0,0,0,0,0,0,-1,755,1583,-4.64237,-5.38058
-462,-559,-0.161865,6.49438,0,0,0,0,0,0,0,-1,762,1583,-0.161835,-6.49444
-455,-559,1.08826,7.02527,0,0,0,0,0,0,0,-1,769,1583,1.08823,-7.02529
-448,-559,-2.86023,20.0852,0,0,0,0,0,0,0,-1,776,1583,-2.86025,-20.0852
-441,-559,-2.56396,30.3,0,0,0,0,0,0,0,-1,783,1583,-2.56396,-30.3
-434,-559,-3.42731,30.7131,0,0,0,0,0,0,0,-1,790,1583,-3.42732,-30.7131
-427,-559,-4.0293,30.701,0,0,0,0,0,0,0,-1,797,1583,-4.02929,-30.7011
-420,-559,-4.04919,31.6508,0,0,0,0,0,0,0,-1,804,1583,-4.04918,-31.6508
-413,-559,-4.10913,32.5413,-0.0041478,-0.000978287,-0.00152219,-0.000365656,-0.00476043,-1.18816,0.00305903,0.0192467,811,1583,-4.10912,-32.5413
-406,-559,-4.1579,33.3517,-0.00257421,-0.00048821,-0.000652259,-0.000301051,-0.00276137,-1.29136,0.00174922,0.0100863,818,1583,-4.15793,-33.3516
-399,-559,-4.19,34.1266,-0.00130112,-0.000250454,-0.00011701,-0.000237581,-0.00131399,-1.46122,0.00080852,0.0136465,825,1583,-4.19002,-34.1266
-392,-559,-4.27136,34.868,-0.000314067,0.00010078,0.000300079,0.000258147,-0.000471434,1.08781,0.000427181,0.0176494,832,1583,-4.27134,-34.868
-385,-559,-4.29669,35.6201,0.000608028,0.000627784,0.000623486,0.00124147,-5.65813e-06,0.793319,0.000829539,0.0176848,839,1583,-4.29671,-35.6201
-378,-559,-4.31848,36.3958,0.00137599,0.00115942,0.000883606,0.00215792,0.000377488,0.724425,0.00133075,0.0157377,846,1583,-4.3185,-36.3957
-371,-559,-4.36176,37.1937,0.00203168,0.00168652,0.00109706,0.00296965,0.000748554,0.707381,0.00178341,0.0226725,853,1583,-4.36177,-37.1938
-364,-559,-4.36731,37.9124,0.00285748,0.00263105,0.00150462,0.00425314,0.0012354,0.747845,0.0025264,0.0207729,860,1583,-4.36733,-37.9123
-357,-559,-4.3996,38.6213,0.0037912,0.00370178,0.00199988,0.00574686,0.00174612,0.774222,0.003402,0.0128711,867,1583,-4.3996,-38.6213
-350,-559,-4.43188,39.3401,0.00490217,0.00484754,0.00262117,0.00749616,0.00225354,0.780188,0.00444112,0.0106455,874,1583,-4.43187,-39.34
-343,-559,-4.47083,40.0851,0.00620144,0.00615406,0.0034515,0.00962932,0.00272617,0.781966,0.00573119,0.0117676,881,1583,-4.47085,-40.0851
-336,-559,-4.54156,40.8253,0,0,0,0,0,0,0,-1,888,1583,-4.54158,-40.8253
-329,-559,-4.45728,41.7336,0,0,0,0,0,0,0,-1,895,1583,-4.45726,-41.7337
-322,-559,-4.30383,43.0082,0,0,0,0,0,0,0,-1,902,1583,-4.30381,-43.0082
-315,-559,-0.659607,29.1698,0,0,0,0,0,0,0,-1,909,1583,-0.659577,-29.1698
-308,-559,-0.755493,30.4624,0,0,0,0,0,0,0,-1,916,1583,-0.755509,-30.4625
-301,-559,-1.22174,31.0372,0,0,0,0,0,0,0,-1,923,1583,-1.22176,-31.0372
-294,-559,0.945129,18.5165,0,0,0,0,0,0,0,-1,930,1583,0.945117,-18.5165
-287,-559,-0.11792,15.4912,0,0,0,0,0,0,0,-1,937,1583,-0.117939,-15.4912
-280,-559,0.191467,13.5093,0,0,0,0,0,0,0,-1,944,1583,0.191441,-13.5093
-273,-559,2.12836,10.3059,0,0,0,0,0,0,0,-1,951,1583,2.12839,-10.3059
-266,-559,-0.597046,6.68933,0,0,0,0,0,0,0,-1,958,1583,-0.597031,-6.68937
-259,-559,-7.00311,8.62756,0,0,0,0,0,0,0,-1,965,1583,-7.00312,-8.6275
-252,-559,-9.4483,2.87805,0,0,0,0,0,0,0,-1,972,1583,-9.44829,-2.87805
-245,-559,-4.80804,7.1803,0,0,0,0,0,0,0,-1,979,1583,-4.80804,-7.18027
-238,-559,-8.45764,2.54858,0,0,0,0,0,0,0,-1,986,1583,-8.45763,-2.54862
-231,-559,-5.86914,4.34021,0,0,0,0,0,0,0,-1,993,1583,-5.86914,-4.34019
-224,-559,-3.30505,6.22864,0,0,0,0,0,0,0,-1,1000,1583,-3.30505,-6.22859
-217,-559,0,0,0,0,0,0,0,0,0,-1,1007,1583,0,0
-210,-559,0,0,0,0,0,0,0,0,0,-1,1014,1583,0,0
-203,-559,0,0,0,0,0,0,0,0,0,-1,1021,1583,0,0
-196,-559,0,0,0,0,0,0,0,0,0,-1,1028,1583,0,0
-189,-559,0,0,0,0,0,0,0,0,0,-1,1035,1583,0,0
-182,-559,0,0,0,0,0,0,0,0,0,-1,1042,1583,0,0
-175,-559,0,0,0,0,0,0,0,0,0,-1,1049,1583,0,0
-168,-559,0,0,0,0,0,0,0,0,0,-1,1056,1583,0,0
-161,-559,0,0,0,0,0,0,0,0,0,-1,1063,1583,0,0
-154,-559,0,0,0,0,0,0,0,0,0,-1,1070,1583,0,0
-147,-559,0,0,0,0,0,0,0,0,0,-1,1077,1583,0,0
-140,-559,0,0,0,0,0,0,0,0,0,-1,1084,1583,0,0
-133,-559,0,0,0,0,0,0,0,0,0,-1,1091,1583,0,0
-126,-559,0,0,0,0,0,0,0,0,0,-1,1098,1583,0,0
-119,-559,0,0,0,0,0,0,0,0,0,-1,1105,1583,0,0
-112,-559,0,0,0,0,0,0,0,0,0,-1,1112,1583,0,0
-105,-559,0,0,0,0,0,0,0,0,0,-1,1119,1583,0,0
-98,-559,0,0,0,0,0,0,0,0,0,-1,1126,1583,0,0
-91,-559,0,0,0,0,0,0,0,0,0,-1,1133,1583,0,0
-84,-559,0,0,0,0,0,0,0,0,0,-1,1140,1583,0,0
-77,-559,0,0,0,0,0,0,0,0,0,-1,1147,1583,0,0
-70,-559,0,0,0,0,0,0,0,0,0,-1,1154,1583,0,0
-63,-559,0,0,0,0,0,0,0,0,0,-1,1161,1583,0,0
-56,-559,0,0,0,0,0,0,0,0,0,-1,1168,1583,0,0
-49,-559,0,0,0,0,0,0,0,0,0,-1,1175,1583,0,0
-42,-559,0,0,0,0,0,0,0,0,0,-1,1182,1583,0,0
-35,-559,0,0,0,0,0,0,0,0,0,-1,1189,1583,0,0
-28,-559,0,0,0,0,0,0,0,0,0,-1,1196,1583,0,0
-21,-559,0,0,0,0,0,0,0,0,0,-1,1203,1583,0,0
-14,-559,0,0,0,0,0,0,0,0,0,-1,1210,1583,0,0
-7,-559,0,0,0,0,0,0,0,0,0,-1,1217,1583,0,0
0,-559,0,0,0,0,0,0,0,0,0,-1,1224,1583,0,0
7,-559,0,0,0,0,0,0,0,0,0,-1,1231,1583,0,0
14,-559,0,0,0,0,0,0,0,0,0,-1,1238,1583,0,0
21,-559,0,0,0,0,0,0,0,0,0,-1,1245,1583,0,0
28,-559,0,0,0,0,0,0,0,0,0,-1,1252,1583,0,0
35,-559,0,0,0,0,0,0,0,0,0,-1,1259,1583,0,0
42,-559,0,0,0,0,0,0,0,0,0,-1,1266,1583,0,0
49,-559,0,0,0,0,0,0,0,0,0,-1,1273,1583,0,0
56,-559,0,0,0,0,0,0,0,0,0,-1,1280,1583,0,0
63,-559,0,0,0,0,0,0,0,0,0,-1,1287,1583,0,0
70,-559,0,0,0,0,0,0,0,0,0,-1,1294,1583,0,0
77,-559,0,0,0,0,0,0,0,0,0,-1,1301,1583,0,0
84,-559,0,0,0,0,0,0,0,0,0,-1,1308,1583,0,0
91,-559,0,0,0,0,0,0,0,0,0,-1,1315,1583,0,0
98,-559,0,0,0,0,0,0,0,0,0,-1,1322,1583,0,0
105,-559,0,0,0,0,0,0,0,0,0,-1,1329,1583,0,0
112,-559,0,0,0,0,0,0,0,0,0,-1,1336,1583,0,0
119,-559,0,0,0,0,0,0,0,0,0,-1,1343,1583,0,0
126,-559,0,0,0,0,0,0,0,0,0,-1,1350,1583,0,0
133,-559,0,0,0,0,0,0,0,0,0,-1,1357,1583,0,0
140,-559,0,0,0,0,0,0,0,0,0,-1,1364,1583,0,0
147,-559,0,0,0,0,0,0,0,0,0,-1,1371,1583,0,0
154,-559,0,0,0,0,0,0,0,0,0,-1,1378,1583,0,0
161,-559,0,0,0,0,0,0,0,0,0,-1,1385,1583,0,0
168,-559,0,0,0,0,0,0,0,0,0,-1,1392,1583,0,0
175,-559,0,0,0,0,0,0,0,0,0,-1,1399,1583,0,0
182,-559,0,0,0,0,0,0,0,0,0,-1,1406,1583,0,0
189,-559,0,0,0,0,0,0,0,0,0,-1,1413,1583,0,0
196,-559,0,0,0,0,0,0,0,0,0,-1,1420,1583,0,0
203,-559,0,0,0,0,0,0,0,0,0,-1,1427,1583,0,0
210,-559,0,0,0,0,0,0,0,0,0,-1,1434,1583,0,0
217,-559,0,0,0,0,0,0,0,0,0,-1,1441,1583,0,0
224,-559,0,0,0,0,0,0,0,0,0,-1,1448,1583,0,0
231,-559,0,0,0,0,0,0,0,0,0,-1,1455,1583,0,0
238,-559,0,0,0,0,0,0,0,0,0,-1,1462,1583,0,0
245,-559,0,0,0,0,0,0,0,0,0,-1,1469,1583,0,0
252,-559,0,0,0,0,0,0,0,0,0,-1,1476,1583,0,0
259,-559,0,0,0,0,0,0,0,0,0,-1,1483,1583,0,0
266,-559,0,0,0,0,0,0,0,0,0,-1,1490,1583,0,0
273,-559,0,0,0,0,0,0,0,0,0,-1,1497,1583,0,0
280,-559,0,0,0,0,0,0,0,0,0,-1,1504,1583,0,0
287,-559,0,0,0,0,0,0,0,0,0,-1,1511,1583,0,0
294,-559,0,0,0,0,0,0,0,0,0,-1,1518,1583,0,0
301,-559,0,0,0,0,0,0,0,0,0,-1,1525,1583,0,0
308,-559,0,0,0,0,0,0,0,0,0,-1,1532,1583,0,0
315,-559,0,0,0,0,0,0,0,0,0,-1,1539,1583,0,0
322,-559,0,0,0,0,0,0,0,0,0,-1,1546,1583,0,0
329,-559,0,0,0,0,0,0,0,0,0,-1,1553,1583,0,0
336,-559,5.97668,3.09827,0,0,0,0,0,0,0,-1,1560,1583,5.97667,-3.09824
343,-559,5.44824,2.88696,0,0,0,0,0,0,0,-1,1567,1583,5.44819,-2.88693
350,-559,4.69775,3.27051,0,0,0,0,0,0,0,-1,1574,1583,4.69771,-3.27048
357,-559,3.88025,3.60999,0,0,0,0,0,0,0,-1,1581,1583,3.88027,-3.60998
364,-559,5.00928,5.32605,0,0,0,0,0,0,0,-1,1588,1583,5.00928,-5.32607
371,-559,1.84436,2.52441,0,0,0,0,0,0,0,-1,1595,1583,1.84441,-2.52447
378,-559,6.34753,1.53137,0,0,0,0,0,0,0,-1,1602,1583,6.34752,-1.53139
385,-559,6.95911,1.48181,0,0,0,0,0,0,0,-1,1609,1583,6.95916,-1.48175
392,-559,11.6949,4.77734,0,0,0,0,0,0,0,-1,1616,1583,11.6949,-4.77731
399,-559,11.1104,5.56909,0,0,0,0,0,0,0,-1,1623,1583,11.1103,-5.56905
406,-559,10.3385,6.48657,0,0,0,0,0,0,0,-1,1630,1583,10.3385,-6.48661
413,-559,9.76147,6.97571,0,0,0,0,0,0,0,-1,1637,1583,9.76143,-6.97574
420,-559,7.77124,10.5851,0,0,0,0,0,0,0,-1,1644,1583,7.77128,-10.585
427,-559,10.1022,12.5565,0,0,0,0,0,0,0,-1,1651,1583,10.1021,-12.5565
434,-559,9.62769,14.6309,0,0,0,0,0,0,0,-1,1658,1583,9.62771,-14.6309
441,-559,12.6149,21.3678,0,0,0,0,0,0,0,-1,1665,1583,12.6149,-21.3678
448,-559,13.7046,22.6677,0,0,0,0,0,0,0,-1,1672,1583,13.7046,-22.6677
455,-559,13.9427,23.0509,0,0,0,0,0,0,0,-1,1679,1583,13.9427,-23.0509
462,-559,21.8536,41.9336,0,0,0,0,0,0,0,-1,1686,1583,21.8537,-41.9336
469,-559,21.6896,40.9283,0,0,0,0,0,0,0,-1,1693,1583,21.6896,-40.9283
476,-559,22.0319,39.8583,0.00775048,0.0136347,-0.00824851,0.0194501,0.00193509,-0.956707,0.0123723,0.0289671,1700,1583,22.0318,-39.8583
483,-559,22.1071,39.0012,0.00683301,0.0104736,-0.00657031,0.0154711,0.00183549,-0.920532,0.00975994,0.0138819,1707,1583,22.1071,-39.0012
490,-559,22.0883,38.2708,0.00595929,0.00760347,-0.0051457,0.0119923,0.00157043,-0.86461,0.00752623,0.0160178,1714,1583,22.0882,-38.2707
497,-559,22.0686,37.5819,0.00475794,0.00555367,-0.00385581,0.00903209,0.00127952,-0.836809,0.00564345,0.0191943,1721,1583,22.0685,-37.5819
504,-559,22,36.8805,0.00351033,0.00373974,-0.00282498,0.00645234,0.000797729,-0.805689,0.00406184,0.0246181,1728,1583,22.0001,-36.8805
511,-559,21.9755,36.1311,0.00229608,0.0024837,-0.00200083,0.00439291,0.000386861,-0.808824,0.00280855,0.0210554,1735,1583,21.9755,-36.1311
518,-559,21.9984,35.3761,0.00112203,0.00133099,-0.00129438,0.0025251,-7.20818e-05,-0.825669,0.00170794,0.0140765,1742,1583,21.9984,-35.3761
525,-559,21.9332,34.6416,0.000139797,0.000580144,-0.000819375,0.00120841,-0.000488471,-0.916652,0.00100866,0.0135696,1749,1583,21.9332,-34.6416
532,-559,21.8716,33.9464,-0.000576066,-0.000125345,-0.000433709,0.000138059,-0.00083947,-1.02501,0.000610889,0.0150929,1756,1583,21.8716,-33.9464
539,-559,21.8396,33.2218,-0.00103958,-0.000640292,-0.000173671,-0.000575324,-0.00110455,-1.21283,0.000637896,0.0196649,1763,1583,21.8396,-33.2217
546,-559,21.777,32.4436,-0.00126758,-0.00119494,7.333e-05,-0.00114943,-0.00131309,1.01536,0.000826262,0.017868,1770,1583,21.777,-32.4437
553,-559,21.8218,31.637,-0.00112775,-0.00158899,0.000194491,-0.00105668,-0.00166005,0.350308,0.000970268,0.023975,1777,1583,21.8218,-31.637
560,-559,21.7717,30.8285,0,0,0,0,0,0,0,-1,1784,1583,21.7717,-30.8285
567,-559,21.7423,29.5544,0,0,0,0,0,0,0,-1,1791,1583,21.7423,-29.5544
574,-559,10.5109,10.7317,0,0,0,0,0,0,0,-1,1798,1583,10.5108,-10.7317
581,-559,5.97095,5.96179,0,0,0,0,0,0,0,-1,1805,1583,5.97093,-5.96181
588,-559,5.79102,5.89954,0,0,0,0,0,0,0,-1,1812,1583,5.79098,-5.89949
595,-559,5.79089,6.24231,0,0,0,0,0,0,0,-1,1819,1583,5.7909,-6.24227
602,-559,12.478,2.35669,0,0,0,0,0,0,0,-1,1826,1583,12.4781,-2.35675
609,-559,14.0479,1.22681,0,0,0,0,0,0,0,-1,1833,1583,14.0479,-1.22681
616,-559,0,0,0,0,0,0,0,0,0,-1,1840,1583,0,0
623,-559,0,0,0,0,0,0,0,0,0,-1,1847,1583,0,0
630,-559,0,0,0,0,0,0,0,0,0,-1,1854,1583,0,0
637,-559,0,0,0,0,0,0,0,0,0,-1,1861,1583,0,0
644,-559,0,0,0,0,0,0,0,0,0,-1,1868,1583,0,0
651,-559,0,0,0,0,0,0,0,0,0,-1,1875,1583,0,0
658,-559,0,0,0,0,0,0,0,0,0,-1,1882,1583,0,0
665,-559,0,0,0,0,0,0,0,0,0,-1,1889,1583,0,0
672,-559,0,0,0,0,0,0,0,0,0,-1,1896,1583,0,0
679,-559,0,0,0,0,0,0,0,0,0,-1,1903,1583,0,0
686,-559,0,0,0,0,0,0,0,0,0,-1,1910,1583,0,0
693,-559,0,0,0,0,0,0,0,0,0,-1,1917,1583,0,0
700,-559,0,0,0,0,0,0,0,0,0,-1,1924,1583,0,0
707,-559,0,0,0,0,0,0,0,0,0,-1,1931,1583,0,0
714,-559,0,0,0,0,0,0,0,0,0,-1,1938,1583,0,0
721,-559,0,0,0,0,0,0,0,0,0,-1,1945,1583,0,0
728,-559,0,0,0,0,0,0,0,0,0,-1,1952,1583,0,0
735,-559,0,0,0,0,0,0,0,0,0,-1,1959,1583,0,0
742,-559,0,0,0,0,0,0,0,0,0,-1,1966,1583,0,0
749,-559,0,0,0,0,0,0,0,0,0,-1,1973,1583,0,0
756,-559,0,0,0,0,0,0,0,0,0,-1,1980,1583,0,0
763,-559,0,0,0,0,0,0,0,0,0,-1,1987,1583,0,0
770,-559,0,0,0,0,0,0,0,0,0,-1,1994,1583,0,0
777,-559,0,0,0,0,0,0,0,0,0,-1,2001,1583,0,0
784,-559,0,0,0,0,0,0,0,0,0,-1,2008,1583,0,0
791,-559,0,0,0,0,0,0,0,0,0,-1,2015,1583,0,0
798,-559,0,0,0,0,0,0,0,0,0,-1,2022,1583,0,0
805,-559,0,0,0,0,0,0,0,0,0,-1,2029,1583,0,0
812,-559,0,0,0,0,0,0,0,0,0,-1,2036,1583,0,0
-700,-566,0,0,0,0,0,0,0,0,0,-1,524,1590,0,0
-693,-566,0,0,0,0,0,0,0,0,0,-1,531,1590,0,0
-686,-566,0,0,0,0,0,0,0,0,0,-1,538,1590,0,0
-679,-566,0,0,0,0,0,0,0,0,0,-1,545,1590,0,0
-672,-566,0,0,0,0,0,0,0,0,0,-1,552,1590,0,0
-665,-566,0,0,0,0,0,0,0,0,0,-1,559,1590,0,0
-658,-566,0,0,0,0,0,0,0,0,0,-1,566,1590,0,0
-651,-566,0,0,0,0,0,0,0,0,0,-1,573,1590,0,0
-644,-566,0,0,0,0,0,0,0,0,0,-1,580,1590,0,0
-637,-566,0,0,0,0,0,0,0,0,0,-1,587,1590,0,0
-630,-566,0,0,0,0,0,0,0,0,0,-1,594,1590,0,0
-623,-566,0,0,0,0,0,0,0,0,0,-1,601,1590,0,0
-616,-566,0,0,0,0,0,0,0,0,0,-1,608,1590,0,0
-609,-566,0,0,0,0,0,0,0,0,0,-1,615,1590,0,0
-602,-566,0,0,0,0,0,0,0,0,0,-1,622,1590,0,0
-595,-566,0,0,0,0,0,0,0,0,0,-1,629,1590,0,0
-588,-566,0,0,0,0,0,0,0,0,0,-1,636,1590,0,0
-581,-566,0,0,0,0,0,0,0,0,0,-1,643,1590,0,0
-574,-566,0,0,0,0,0,0,0,0,0,-1,650,1590,0,0
-567,-566,0,0,0,0,0,0,0,0,0,-1,657,1590,0,0
-560,-566,0,0,0,0,0,0,0,0,0,-1,664,1590,0,0
-553,-566,0,0,0,0,0,0,0,0,0,-1,671,1590,0,0
-546,-566,0,0,0,0,0,0,0,0,0,-1,678,1590,0,0
-539,-566,0,0,0,0,0,0,0,0,0,-1,685,1590,0,0
-532,-566,0,0,0,0,0,0,0,0,0,-1,692,1590,0,0
-525,-566,0,0,0,0,0,0,0,0,0,-1,699,1590,0,0
-518,-566,0,0,0,0,0,0,0,0,0,-1,706,1590,0,0
-511,-566,0,0,0,0,0,0,0,0,0,-1,713,1590,0,0
-504,-566,0,0,0,0,0,0,0,0,0,-1,720,1590,0,0
-497,-566,0,0,0,0,0,0,0,0,0,-1,727,1590,0,0
-490,-566,0,0,0,0,0,0,0,0,0,-1,734,1590,0,0
-483,-566,-7.17084,2.78613,0,0,0,0,0,0,0,-1,741,1590,-7.17083,-2.78618
-476,-566,-7.13971,2.87183,0,0,0,0,0,0,0,-1,748,1590,-7.13971,-2.87184
-469,-566,-6.43829,3.2998,0,0,0,0,0,0,0,-1,755,1590,-6.43829,-3.2998
-462,-566,-0.459106,3.89343,0,0,0,0,0,0,0,-1,762,1590,-0.459095,-3.89341
-455,-566,0.280212,4.74023,0,0,0,0,0,0,0,-1,769,1590,0.280207,-4.74023
-448,-566,0.436951,5.51306,0,0,0,0,0,0,0,-1,776,1590,0.436971,-5.51301
-441,-566,-0.440735,12.4063,0,0,0,0,0,0,0,-1,783,1590,-0.440753,-12.4062
-434,-566,-2.66687,31.0841,0,0,0,0,0,0,0,-1,790,1590,-2.66687,-31.0841
-427,-566,-2.99585,30.8905,0,0,0,0,0,0,0,-1,797,1590,-2.99587,-30.8905
-420,-566,-3.48608,31.6411,0,0,0,0,0,0,0,-1,804,1590,-3.4861,-31.6411
-413,-566,-3.36438,32.5631,-0.00488428,-0.00100889,-0.0015379,-0.000472767,-0.0054204,-1.23536,0.00346677,0.0362242,811,1590,-3.3644,-32.5631
-406,-566,-3.38373,33.3737,-0.00314476,-0.0006819,-0.000618933,-0.000535107,-0.00329156,-1.33793,0.00203954,0.0150626,818,1590,-3.38371,-33.3736
-399,-566,-3.42767,34.162,-0.00179072,-0.000676216,-0.000120967,-0.000663238,-0.0018037,-1.46392,0.00105345,0.0114399,825,1590,-3.42768,-34.1619
-392,-566,-3.50281,34.9058,-0.000749214,-0.000436765,0.000282731,-0.000269967,-0.000916011,1.0378,0.000543514,0.0148549,832,1590,-3.50282,-34.9057
-385,-566,-3.52002,35.6792,0.000179516,2.00504e-06,0.000605037,0.000702273,-0.000520751,0.71257,0.000708701,0.0171189,839,1590,-3.51999,-35.6792
-378,-566,-3.53601,36.458,0.000923235,0.000486882,0.000854597,0.00158707,-0.000176949,0.660419,0.00112169,0.0164583,846,1590,-3.53601,-36.458
-371,-566,-3.63177,37.1952,0.00148209,0.000883568,0.00096782,0.00219586,0.000169796,0.635456,0.00141072,0.0222642,853,1590,-3.63177,-37.1952
-364,-566,-3.63507,37.924,0.00217101,0.00166525,0.00126085,0.00320409,0.000632167,0.68643,0.00195963,0.0234104,860,1590,-3.63507,-37.924
-357,-566,-3.66235,38.6437,0.00296538,0.00256489,0.00163084,0.00440822,0.00112204,0.724312,0.00264535,0.0198683,867,1590,-3.66235,-38.6437
-350,-566,-3.70178,39.3922,0.003926,0.00348834,0.00209231,0.0058109,0.00160345,0.733294,0.00346539,0.0229948,874,1590,-3.70181,-39.3922
-343,-566,-3.73438,40.1427,0.00503587,0.00460179,0.0027371,0.00756451,0.00207314,0.745833,0.00451356,0.0271086,881,1590,-3.73438,-40.1427
-336,-566,-3.87634,40.8529,0.00635295,0.00590661,0.00359684,0.00973354,0.00252602,0.754415,0.0058323,0.0314091,888,1590,-3.87633,-40.8529
-329,-566,-3.76123,41.4858,0.00803512,0.00762666,0.0047868,0.012622,0.00303974,0.764078,0.00760667,0.0303191,895,1590,-3.76124,-41.4858
-322,-566,-3.68781,42.3925,0.0102644,0.0100463,0.00647711,0.0166334,0.00367736,0.77698,0.0100891,0.0412545,902,1590,-3.68782,-42.3925
-315,-566,-3.30231,43.3589,0,0,0,0,0,0,0,-1,909,1590,-3.3023,-43.3589
-308,-566,-0.127258,29.7607,0,0,0,0,0,0,0,-1,916,1590,-0.12725,-29.7608
-301,-566,0.424011,30.6545,0,0,0,0,0,0,0,-1,923,1590,0.424036,-30.6546
-294,-566,-2.54523,43.1459,0,0,0,0,0,0,0,-1,930,1590,-2.54522,-43.1458
-287,-566,1.25391,23.4589,0,0,0,0,0,0,0,-1,937,1590,1.2539,-23.4589
-280,-566,1.59406,17.8762,0,0,0,0,0,0,0,-1,944,1590,1.59405,-17.8762
-273,-566,0.49762,11.2427,0,0,0,0,0,0,0,-1,951,1590,0.497591,-11.2426
-266,-566,0.392151,6.90295,0,0,0,0,0,0,0,-1,958,1590,0.392151,-6.90294
-259,-566,0.343628,6.47437,0,0,0,0,0,0,0,-1,965,1590,0.34363,-6.47438
-252,-566,-7.68311,1.01343,0,0,0,0,0,0,0,-1,972,1590,-7.68308,-1.01348
-245,-566,-11.1835,1.97522,0,0,0,0,0,0,0,-1,979,1590,-11.1835,-1.97527
-238,-566,-10.4883,2.40491,0,0,0,0,0,0,0,-1,986,1590,-10.4883,-2.40487
-231,-566,-7.41827,4.22803,0,0,0,0,0,0,0,-1,993,1590,-7.41827,-4.22803
-224,-566,-4.67188,6.30859,0,0,0,0,0,0,0,-1,1000,1590,-4.67185,-6.30853
-217,-566,-2.82867,7.52527,0,0,0,0,0,0,0,-1,1007,1590,-2.82869,-7.52531
-210,-566,-1.03436,8.67737,0,0,0,0,0,0,0,-1,1014,1590,-1.03439,-8.67733
-203,-566,0,0,0,0,0,0,0,0,0,-1,1021,1590,0,0
-196,-566,0,0,0,0,0,0,0,0,0,-1,1028,1590,0,0
-189,-566,0,0,0,0,0,0,0,0,0,-1,1035,1590,0,0
-182,-566,0,0,0,0,0,0,0,0,0,-1,1042,1590,0,0
-175,-566,0,0,0,0,0,0,0,0,0,-1,1049,1590,0,0
-168,-566,0,0,0,0,0,0,0,0,0,-1,1056,1590,0,0
-161,-566,0,0,0,0,0,0,0,0,0,-1,1063,1590,0,0
-154,-566,0,0,0,0,0,0,0,0,0,-1,1070,1590,0,0
-147,-566,0,0,0,0,0,0,0,0,0,-1,1077,1590,0,0
-140,-566,0,0,0,0,0,0,0,0,0,-1,1084,1590,0,0
-133,-566,0,0,0,0,0,0,0,0,0,-1,1091,1590,0,0
-126,-566,0,0,0,0,0,0,0,0,0,-1,1098,1590,0,0
-119,-566,0,0,0,0,0,0,0,0,0,-1,1105,1590,0,0
-112,-566,0,0,0,0,0,0,0,0,0,-1,1112,1590,0,0
-105,-566,0,0,0,0,0,0,0,0,0,-1,1119,1590,0,0
-98,-566,0,0,0,0,0,0,0,0,0,-1,1126,1590,0,0
-91,-566,0,0,0,0,0,0,0,0,0,-1,1133,1590,0,0
-84,-566,0,0,0,0,0,0,0,0,0,-1,1140,1590,0,0
-77,-566,0,0,0,0,0,0,0,0,0,-1,1147,1590,0,0
-70,-566,0,0,0,0,0,0,0,0,0,-1,1154,1590,0,0
-63,-566,0,0,0,0,0,0,0,0,0,-1,1161,1590,0,0
-56,-566,0,0,0,0,0,0,0,0,0,-1,1168,1590,0,0
-49,-566,0,0,0,0,0,0,0,0,0,-1,1175,1590,0,0
-42,-566,0,0,0,0,0,0,0,0,0,-1,1182,1590,0,0
-35,-566,0,0,0,0,0,0,0,0,0,-1,1189,1590,0,0
-28,-566,0,0,0,0,0,0,0,0,0,-1,1196,1590,0,0
-21,-566,0,0,0,0,0,0,0,0,0,-1,1203,1590,0,0
-14,-566,0,0,0,0,0,0,0,0,0,-1,1210,1590,0,0
-7,-566,0,0,0,0,0,0,0,0,0,-1,1217,1590,0,0
0,-566,0,0,0,0,0,0,0,0,0,-1,1224,1590,0,0
7,-566,0,0,0,0,0,0,0,0,0,-1,1231,1590,0,0
14,-566,0,0,0,0,0,0,0,0,0,-1,1238,1590,0,0
21,-566,0,0,0,0,0,0,0,0,0,-1,1245,1590,0,0
28,-566,0,0,0,0,0,0,0,0,0,-1,1252,1590,0,0
35,-566,0,0,0,0,0,0,0,0,0,-1,1259,1590,0,0
42,-566,0,0,0,0,0,0,0,0,0,-1,1266,1590,0,0
49,-566,0,0,0,0,0,0,0,0,0,-1,1273,1590,0,0
56,-566,0,0,0,0,0,0,0,0,0,-1,1280,1590,0,0
63,-566,0,0,0,0,0,0,0,0,0,-1,1287,1590,0,0
70,-566,0,0,0,0,0,0,0,0,0,-1,1294,1590,0,0
77,-566,0,0,0,0,0,0,0,0,0,-1,1301,1590,0,0
84,-566,0,0,0,0,0,0,0,0,0,-1,1308,1590,0,0
91,-566,0,0,0,0,0,0,0,0,0,-1,1315,1590,0,0
98,-566,0,0,0,0,0,0,0,0,0,-1,1322,1590,0,0
105,-566,0,0,0,0,0,0,0,0,0,-1,1329,1590,0,0
112,-566,0,0,0,0,0,0,0,0,0,-1,1336,1590,0,0
119,-566,0,0,0,0,0,0,0,0,0,-1,1343,1590,0,0
126,-566,0,0,0,0,0,0,0,0,0,-1,1350,1590,0,0
133,-566,0,0,0,0,0,0,0,0,0,-1,1357,1590,0,0
140,-566,0,0,0,0,0,0,0,0,0,-1,1364,1590,0,0
147,-566,0,0,0,0,0,0,0,0,0,-1,1371,1590,0,0
154,-566,0,0,0,0,0,0,0,0,0,-1,1378,1590,0,0
161,-566,0,0,0,0,0,0,0,0,0,-1,1385,1590,0,0
168,-566,0,0,0,0,0,0,0,0,0,-1,1392,1590,0,0
175,-566,0,0,0,0,0,0,0,0,0,-1,1399,1590,0,0
182,-566,0,0,0,0,0,0,0,0,0,-1,1406,1590,0,0
189,-566,0,0,0,0,0,0,0,0,0,-1,1413,1590,0,0
196,-566,0,0,0,0,0,0,0,0,0,-1,1420,1590,0,0
203,-566,0,0,0,0,0,0,0,0,0,-1,1427,1590,0,0
210,-566,0,0,0,0,0,0,0,0,0,-1,1434,1590,0,0
217,-566,0,0,0,0,0,0,0,0,0,-1,1441,1590,0,0
224,-566,0,0,0,0,0,0,0,0,0,-1,1448,1590,0,0
231,-566,0,0,0,0,0,0,0,0,0,-1,1455,1590,0,0
238,-566,0,0,0,0,0,0,0,0,0,-1,1462,1590,0,0
245,-566,0,0,0,0,0,0,0,0,0,-1,1469,1590,0,0
252,-566,0,0,0,0,0,0,0,0,0,-1,1476,1590,0,0
259,-566,0,0,0,0,0,0,0,0,0,-1,1483,1590,0,0
266,-566,0,0,0,0,0,0,0,0,0,-1,1490,1590,0,0
273,-566,0,0,0,0,0,0,0,0,0,-1,1497,1590,0,0
280,-566,0,0,0,0,0,0,0,0,0,-1,1504,1590,0,0
287,-566,0,0,0,0,0,0,0,0,0,-1,1511,1590,0,0
294,-566,0,0,0,0,0,0,0,0,0,-1,1518,1590,0,0
301,-566,0,0,0,0,0,0,0,0,0,-1,1525,1590,0,0
308,-566,0,0,0,0,0,0,0,0,0,-1,1532,1590,0,0
315,-566,0,0,0,0,0,0,0,0,0,-1,1539,1590,0,0
322,-566,6.07983,4.44873,0,0,0,0,0,0,0,-1,1546,1590,6.07983,-4.44873
329,-566,5.77026,3.47534,0,0,0,0,0,0,0,-1,1553,1590,5.77026,-3.47535
336,-566,5.41138,2.62915,0,0,0,0,0,0,0,-1,1560,1590,5.41138,-2.62909
343,-566,4.81873,1.79089,0,0,0,0,0,0,0,-1,1567,1590,4.81878,-1.79095
350,-566,24.2104,52.894,0,0,0,0,0,0,0,-1,1574,1590,24.2105,-52.8941
357,-566,6.34058,5.18579,0,0,0,0,0,0,0,-1,1581,1590,6.34059,-5.1858
364,-566,6.06262,4.20251,0,0,0,0,0,0,0,-1,1588,1590,6.06259,-4.20246
371,-566,5.78455,3.21912,0,0,0,0,0,0,0,-1,1595,1590,5.7846,-3.21912
378,-566,5.7439,0.695557,0,0,0,0,0,0,0,-1,1602,1590,5.74392,-0.695531
385,-566,5.67615,-0.573975,0,0,0,0,0,0,0,-1,1609,1590,5.67612,0.573956
392,-566,5.78638,1.82434,0,0,0,0,0,0,0,-1,1616,1590,5.78637,-1.82439
399,-566,18.6853,38.6455,0,0,0,0,0,0,0,-1,1623,1590,18.6853,-38.6456
406,-566,4.30359,5.26868,0,0,0,0,0,0,0,-1,1630,1590,4.30364,-5.26867
413,-566,4.27124,5.79492,0,0,0,0,0,0,0,-1,1637,1590,4.27123,-5.7949
420,-566,18.0121,32.5314,0,0,0,0,0,0,0,-1,1644,1590,18.0121,-32.5313
427,-566,19.4491,36.9315,0,0,0,0,0,0,0,-1,1651,1590,19.4491,-36.9315
434,-566,19.338,36.7385,0,0,0,0,0,0,0,-1,1658,1590,19.338,-36.7386
441,-566,15.5841,27.5869,0,0,0,0,0,0,0,-1,1665,1590,15.5842,-27.587
448,-566,21.4882,43.4436,0,0,0,0,0,0,0,-1,1672,1590,21.4882,-43.4436
455,-566,21.2013,42.3954,0,0,0,0,0,0,0,-1,1679,1590,21.2013,-42.3954
462,-566,21.2233,41.5736,0.0067072,0.0174313,-0.00919609,0.0227144,0.00142407,-1.04934,0.0146913,0.0487059,1686,1590,21.2233,-41.5736
469,-566,21.3141,40.5421,0.00645868,0.0139611,-0.00769412,0.0187697,0.00165003,-1.01221,0.012001,0.0215613,1693,1590,21.3141,-40.5421
476,-566,21.3857,39.7593,0.00589649,0.0108968,-0.00639999,0.0152677,0.00152566,-0.971609,0.00970993,0.0110608,1700,1590,21.3858,-39.7593
483,-566,21.3734,39.0287,0.00512098,0.0082628,-0.0050937,0.0120223,0.00136145,-0.934972,0.00760181,0.0115966,1707,1590,21.3734,-39.0287
490,-566,21.3542,38.3038,0.00436722,0.00584069,-0.00395628,0.00912825,0.00107967,-0.877453,0.00575944,0.0132784,1714,1590,21.3542,-38.3038
497,-566,21.3739,37.6082,0.00333427,0.00415096,-0.00292843,0.00669938,0.000785852,-0.854672,0.00422871,0.0163039,1721,1590,21.3738,-37.6082
504,-566,21.3156,36.9148,0.00222061,0.00258142,-0.00209272,0.0045015,0.00030053,-0.828395,0.00290601,0.0201464,1728,1590,21.3155,-36.9147
511,-566,21.2784,36.2039,0.00111578,0.0015136,-0.00141377,0.00274238,-0.000113008,-0.855286,0.00186706,0.0202462,1735,1590,21.2785,-36.2038
518,-566,21.2544,35.4747,4.31612e-05,0.000571136,-0.000856353,0.00120327,-0.000588971,-0.934911,0.00105482,0.0126995,1742,1590,21.2544,-35.4748
525,-566,21.1919,34.7106,-0.000860645,-6.9264e-05,-0.00048414,0.000160315,-0.00109022,-1.128,0.000785725,0.0127064,1749,1590,21.1919,-34.7105
532,-566,21.1433,33.9716,-0.00150531,-0.000676271,-0.000187142,-0.000635985,-0.0015456,-1.35876,0.000897002,0.0152369,1756,1590,21.1433,-33.9715
539,-566,21.0951,33.214,-0.00194709,-0.00117207,1.99555e-05,-0.00117156,-0.00194761,1.54507,0.00113215,0.0205932,1763,1590,21.0951,-33.214
546,-566,21.1459,32.3685,-0.00215515,-0.00164935,0.000209576,-0.0015738,-0.0022307,1.2248,0.00132367,0.0265808,1770,1590,21.1459,-32.3685
553,-566,21.1324,31.8698,-0.00194755,-0.00196002,0.000248841,-0.00170486,-0.0022027,0.772876,0.00133386,0.0403312,1777,1590,21.1325,-31.8698
560,-566,20.863,31.3116,0,0,0,0,0,0,0,-1,1784,1590,20.8631,-31.3116
567,-566,20.7285,30.6106,0,0,0,0,0,0,0,-1,1791,1590,20.7286,-30.6106
574,-566,7.99548,3.14514,0,0,0,0,0,0,0,-1,1798,1590,7.99543,-3.14511
581,-566,2.54102,5.1311,0,0,0,0,0,0,0,-1,1805,1590,2.54099,-5.13111
588,-566,-1.91321,8.39197,0,0,0,0,0,0,0,-1,1812,1590,-1.91316,-8.39199
595,-566,9.0271,4.66467,0,0,0,0,0,0,0,-1,1819,1590,9.02705,-4.66468
602,-566,9.953,3.54895,0,0,0,0,0,0,0,-1,1826,1590,9.953,-3.54898
609,-566,0,0,0,0,0,0,0,0,0,-1,1833,1590,0,0
616,-566,0,0,0,0,0,0,0,0,0,-1,1840,1590,0,0
623,-566,0,0,0,0,0,0,0,0,0,-1,1847,1590,0,0
630,-566,0,0,0,0,0,0,0,0,0,-1,1854,1590,0,0
637,-566,0,0,0,0,0,0,0,0,0,-1,1861,1590,0,0
644,-566,0,0,0,0,0,0,0,0,0,-1,1868,1590,0,0
651,-566,0,0,0,0,0,0,0,0,0,-1,1875,1590,0,0
658,-566,0,0,0,0,0,0,0,0,0,-1,1882,1590,0,0
665,-566,0,0,0,0,0,0,0,0,0,-1,1889,1590,0,0
672,-566,0,0,0,0,0,0,0,0,0,-1,1896,1590,0,0
679,-566,0,0,0,0,0,0,0,0,0,-1,1903,1590,0,0
686,-566,0,0,0,0,0,0,0,0,0,-1,1910,1590,0,0
693,-566,0,0,0,0,0,0,0,0,0,-1,1917,1590,0,0
700,-566,0,0,0,0,0,0,0,0,0,-1,1924,1590,0,0
707,-566,0,0,0,0,0,0,0,0,0,-1,1931,1590,0,0
714,-566,0,0,0,0,0,0,0,0,0,-1,1938,1590,0,0
721,-566,0,0,0,0,0,0,0,0,0,-1,1945,1590,0,0
728,-566,0,0,0,0,0,0,0,0,0,-1,1952,1590,0,0
735,-566,0,0,0,0,0,0,0,0,0,-1,1959,1590,0,0
742,-566,0,0,0,0,0,0,0,0,0,-1,1966,1590,0,0
749,-566,0,0,0,0,0,0,0,0,0,-1,1973,1590,0,0
756,-566,0,0,0,0,0,0,0,0,0,-1,1980,1590,0,0
763,-566,0,0,0,0,0,0,0,0,0,-1,1987,1590,0,0
770,-566,0,0,0,0,0,0,0,0,0,-1,1994,1590,0,0
777,-566,0,0,0,0,0,0,0,0,0,-1,2001,1590,0,0
784,-566,0,0,0,0,0,0,0,0,0,-1,2008,1590,0,0
791,-566,0,0,0,0,0,0,0,0,0,-1,2015,1590,0,0
798,-566,0,0,0,0,0,0,0,0,0,-1,2022,1590,0,0
805,-566,0,0,0,0,0,0,0,0,0,-1,2029,1590,0,0
812,-566,0,0,0,0,0,0,0,0,0,-1,2036,1590,0,0
-700,-573,0,0,0,0,0,0,0,0,0,-1,524,1597,0,0
-693,-573,0,0,0,0,0,0,0,0,0,-1,531,1597,0,0
-686,-573,0,0,0,0,0,0,0,0,0,-1,538,1597,0,0
-679,-573,0,0,0,0,0,0,0,0,0,-1,545,1597,0,0
-672,-573,0,0,0,0,0,0,0,0,0,-1,552,1597,0,0
-665,-573,0,0,0,0,0,0,0,0,0,-1,559,1597,0,0
-658,-573,0,0,0,0,0,0,0,0,0,-1,566,1597,0,0
-651,-573,0,0,0,0,0,0,0,0,0,-1,573,1597,0,0
-644,-573,0,0,0,0,0,0,0,0,0,-1,580,1597,0,0
-637,-573,0,0,0,0,0,0,0,0,0,-1,587,1597,0,0
-630,-573,0,0,0,0,0,0,0,0,0,-1,594,1597,0,0
-623,-573,0,0,0,0,0,0,0,0,0,-1,601,1597,0,0
-616,-573,0,0,0,0,0,0,0,0,0,-1,608,1597,0,0
-609,-573,0,0,0,0,0,0,0,0,0,-1,615,1597,0,0
-602,-573,0,0,0,0,0,0,0,0,0,-1,622,1597,0,0
-595,-573,0,0,0,0,0,0,0,0,0,-1,629,1597,0,0
-588,-573,0,0,0,0,0,0,0,0,0,-1,636,1597,0,0
-581,-573,0,0,0,0,0,0,0,0,0,-1,643,1597,0,0
-574,-573,0,0,0,0,0,0,0,0,0,-1,650,1597,0,0
-567,-573,0,0,0,0,0,0,0,0,0,-1,657,1597,0,0
-560,-573,0,0,0,0,0,0,0,0,0,-1,664,1597,0,0
-553,-573,0,0,0,0,0,0,0,0,0,-1,671,1597,0,0
-546,-573,0,0,0,0,0,0,0,0,0,-1,678,1597,0,0
-539,-573,0,0,0,0,0,0,0,0,0,-1,685,1597,0,0
-532,-573,0,0,0,0,0,0,0,0,0,-1,692,1597,0,0
-525,-573,0,0,0,0,0,0,0,0,0,-1,699,1597,0,0
-518,-573,0,0,0,0,0,0,0,0,0,-1,706,1597,0,0
-511,-573,0,0,0,0,0,0,0,0,0,-1,713,1597,0,0
-504,-573,0,0,0,0,0,0,0,0,0,-1,720,1597,0,0
-497,-573,0,0,0,0,0,0,0,0,0,-1,727,1597,0,0
-490,-573,0,0,0,0,0,0,0,0,0,-1,734,1597,0,0
-483,-573,0,0,0,0,0,0,0,0,0,-1,741,1597,0,0
-476,-573,-9.3327,0.972778,0,0,0,0,0,0,0,-1,748,1597,-9.33268,-0.972776
-469,-573,-1.41681,1.13379,0,0,0,0,0,0,0,-1,755,1597,-1.41681,-1.13382
-462,-573,-0.748535,2.02588,0,0,0,0,0,0,0,-1,762,1597,-0.748533,-2.02584
-455,-573,-0.112976,2.70703,0,0,0,0,0,0,0,-1,769,1597,-0.112988,-2.70697
-448,-573,-1.26172,3.33252,0,0,0,0,0,0,0,-1,776,1597,-1.26173,-3.33248
-441,-573,0.108582,5.06726,0,0,0,0,0,0,0,-1,783,1597,0.108584,-5.06721
-434,-573,1.61768,7.05444,0,0,0,0,0,0,0,-1,790,1597,1.61767,-7.05446
-427,-573,-1.37927,24.4124,0,0,0,0,0,0,0,-1,797,1597,-1.37928,-24.4124
-420,-573,-1.15186,28.0936,0,0,0,0,0,0,0,-1,804,1597,-1.15185,-28.0936
-413,-573,-2.70789,32.2612,0,0,0,0,0,0,0,-1,811,1597,-2.7079,-32.2612
-406,-573,-2.62885,33.2925,-0.0036437,-0.000998686,-0.00057878,-0.000877582,-0.0037648,-1.36453,0.00227449,0.0454709,818,1597,-2.62884,-33.2925
-399,-573,-2.70184,34.1853,-0.00222354,-0.00122983,-0.000100844,-0.0012197,-0.00223367,-1.47067,0.00129143,0.0182517,825,1597,-2.70185,-34.1853
-392,-573,-2.73096,34.9655,-0.00112497,-0.00107486,0.000300401,-0.00079847,-0.00140136,0.827005,0.000811697,0.0144967,832,1597,-2.73095,-34.9654
-385,-573,-2.78186,35.7285,-0.000199375,-0.000698106,0.000631842,0.000230529,-0.00112801,0.597449,0.000839468,0.0160896,839,1597,-2.78185,-35.7285
-378,-573,-2.78448,36.4805,0.000503477,-0.00022956,0.000869318,0.00108038,-0.000806467,0.585898,0.00109319,0.0172317,846,1597,-2.7845,-36.4805
-371,-573,-2.84174,37.2177,0.000969089,8.2007e-05,0.000897891,0.00152702,-0.000475919,0.555988,0.00120831,0.0178741,853,1597,-2.84176,-37.2177
-364,-573,-2.86859,37.9468,0.00152654,0.000729241,0.00108725,0.00228593,-3.01403e-05,0.609679,0.0015341,0.0204796,860,1597,-2.86862,-37.9468
-357,-573,-2.89319,38.6779,0.00219248,0.00150038,0.00135476,0.00324468,0.000448174,0.660354,0.00203029,0.0240992,867,1597,-2.8932,-38.6778
-350,-573,-2.9422,39.4401,0.00301347,0.00227052,0.00169287,0.00437514,0.000908851,0.677393,0.00266596,0.0185004,874,1597,-2.94219,-39.4401
-343,-573,-2.96362,40.1714,0.0039452,0.00322979,0.00218284,0.00579945,0.00137554,0.704185,0.0034991,0.0214229,881,1597,-2.96363,-40.1713
-336,-573,-3.01007,40.9259,0.00502585,0.00436517,0.00286257,0.00757708,0.00181394,0.727952,0.0045684,0.0174716,888,1597,-3.0101,-40.9259
-329,-573,-3.01349,41.6158,0.00637384,0.00588352,0.00382428,0.00996081,0.00229655,0.753389,0.00602278,0.0197113,895,1597,-3.01346,-41.6158
-322,-573,-3.05194,42.3712,0.00815695,0.00786935,0.00516342,0.0131786,0.00284773,0.771477,0.00800709,0.018843,902,1597,-3.05193,-42.3712
-315,-573,-2.89349,43.3488,0.00988347,0.0101219,0.0069475,0.0169512,0.00305415,0.793976,0.0104328,0.0433596,909,1597,-2.8935,-43.3487
-308,-573,-2.50122,44.4161,0,0,0,0,0,0,0,-1,916,1597,-2.5012,-44.4161
-301,-573,-2.81787,44.7892,0,0,0,0,0,0,0,-1,923,1597,-2.81788,-44.7892
-294,-573,-2.62817,44.6088,0,0,0,0,0,0,0,-1,930,1597,-2.62818,-44.6087
-287,-573,-2.00739,43.4723,0,0,0,0,0,0,0,-1,937,1597,-2.00739,-43.4723
-280,-573,1.19684,26.4906,0,0,0,0,0,0,0,-1,944,1597,1.19685,-26.4906
-273,-573,2.24805,25.4375,0,0,0,0,0,0,0,-1,951,1597,2.24803,-25.4374
-266,-573,1.31116,7.1814,0,0,0,0,0,0,0,-1,958,1597,1.31118,-7.18142
-259,-573,1.2514,6.70959,0,0,0,0,0,0,0,-1,965,1597,1.25137,-6.70965
-252,-573,2.07874,5.27161,0,0,0,0,0,0,0,-1,972,1597,2.07875,-5.27157
-245,-573,-10.2592,1.09827,0,0,0,0,0,0,0,-1,979,1597,-10.2592,-1.09823
-238,-573,-11.5463,4.44141,0,0,0,0,0,0,0,-1,986,1597,-11.5463,-4.44146
-231,-573,-9.23431,4.14539,0,0,0,0,0,0,0,-1,993,1597,-9.23431,-4.14534
-224,-573,-6.70044,7.40857,0,0,0,0,0,0,0,-1,1000,1597,-6.70045,-7.40851
-217,-573,-4.25824,8.59119,0,0,0,0,0,0,0,-1,1007,1597,-4.25824,-8.59122
-210,-573,-2.39661,9.73914,0,0,0,0,0,0,0,-1,1014,1597,-2.39658,-9.73915
-203,-573,-0.557373,10.9005,0,0,0,0,0,0,0,-1,1021,1597,-0.557387,-10.9006
-196,-573,-1.65344,9.02246,0,0,0,0,0,0,0,-1,1028,1597,-1.65349,-9.02241
-189,-573,-6.12915,6.66882,0,0,0,0,0,0,0,-1,1035,1597,-6.12913,-6.66884
-182,-573,0,0,0,0,0,0,0,0,0,-1,1042,1597,0,0
-175,-573,0,0,0,0,0,0,0,0,0,-1,1049,1597,0,0
-168,-573,0,0,0,0,0,0,0,0,0,-1,1056,1597,0,0
-161,-573,0,0,0,0,0,0,0,0,0,-1,1063,1597,0,0
-154,-573,0,0,0,0,0,0,0,0,0,-1,1070,1597,0,0
-147,-573,0,0,0,0,0,0,0,0,0,-1,1077,1597,0,0
-140,-573,0,0,0,0,0,0,0,0,0,-1,1084,1597,0,0
-133,-573,0,0,0,0,0,0,0,0,0,-1,1091,1597,0,0
-126,-573,0,0,0,0,0,0,0,0,0,-1,1098,1597,0,0
-119,-573,0,0,0,0,0,0,0,0,0,-1,1105,1597,0,0
-112,-573,0,0,0,0,0,0,0,0,0,-1,1112,1597,0,0
-105,-573,0,0,0,0,0,0,0,0,0,-1,1119,1597,0,0
-98,-573,0,0,0,0,0,0,0,0,0,-1,1126,1597,0,0
-91,-573,0,0,0,0,0,0,0,0,0,-1,1133,1597,0,0
-84,-573,0,0,0,0,0,0,0,0,0,-1,1140,1597,0,0
-77,-573,0,0,0,0,0,0,0,0,0,-1,1147,1597,0,0
-70,-573,0,0,0,0,0,0,0,0,0,-1,1154,1597,0,0
-63,-573,0,0,0,0,0,0,0,0,0,-1,1161,1597,0,0
-56,-573,0,0,0,0,0,0,0,0,0,-1,1168,1597,0,0
-49,-573,0,0,0,0,0,0,0,0,0,-1,1175,1597,0,0
-42,-573,0,0,0,0,0,0,0,0,0,-1,1182,1597,0,0
-35,-573,0,0,0,0,0,0,0,0,0,-1,1189,1597,0,0
-28,-573,0,0,0,0,0,0,0,0,0,-1,1196,1597,0,0
-21,-573,0,0,0,0,0,0,0,0,0,-1,1203,1597,0,0
-14,-573,0,0,0,0,0,0,0,0,0,-1,1210,1597,0,0
-7,-573,0,0,0,0,0,0,0,0,0,-1,1217,1597,0,0
0,-573,0,0,0,0,0,0,0,0,0,-1,1224,1597,0,0
7,-573,0,0,0,0,0,0,0,0,0,-1,1231,1597,0,0
14,-573,0,0,0,0,0,0,0,0,0,-1,1238,1597,0,0
21,-573,0,0,0,0,0,0,0,0,0,-1,1245,1597,0,0
28,-573,0,0,0,0,0,0,0,0,0,-1,1252,1597,0,0
35,-573,0,0,0,0,0,0,0,0,0,-1,1259,1597,0,0
42,-573,0,0,0,0,0,0,0,0,0,-1,1266,1597,0,0
49,-573,0,0,0,0,0,0,0,0,0,-1,1273,1597,0,0
56,-573,0,0,0,0,0,0,0,0,0,-1,1280,1597,0,0
63,-573,0,0,0,0,0,0,0,0,0,-1,1287,1597,0,0
70,-573,0,0,0,0,0,0,0,0,0,-1,1294,1597,0,0
77,-573,0,0,0,0,0,0,0,0,0,-1,1301,1597,0,0
84,-573,0,0,0,0,0,0,0,0,0,-1,1308,1597,0,0
91,-573,0,0,0,0,0,0,0,0,0,-1,1315,1597,0,0
98,-573,0,0,0,0,0,0,0,0,0,-1,1322,1597,0,0
105,-573,0,0,0,0,0,0,0,0,0,-1,1329,1597,0,0
112,-573,0,0,0,0,0,0,0,0,0,-1,1336,1597,0,0
119,-573,0,0,0,0,0,0,0,0,0,-1,1343,1597,0,0
126,-573,0,0,0,0,0,0,0,0,0,-1,1350,1597,0,0
133,-573,0,0,0,0,0,0,0,0,0,-1,1357,1597,0,0
140,-573,0,0,0,0,0,0,0,0,0,-1,1364,1597,0,0
147,-573,0,0,0,0,0,0,0,0,0,-1,1371,1597,0,0
154,-573,0,0,0,0,0,0,0,0,0,-1,1378,1597,0,0
161,-573,0,0,0,0,0,0,0,0,0,-1,1385,1597,0,0
168,-573,0,0,0,0,0,0,0,0,0,-1,1392,1597,0,0
175,-573,0,0,0,0,0,0,0,0,0,-1,1399,1597,0,0
182,-573,0,0,0,0,0,0,0,0,0,-1,1406,1597,0,0
189,-573,0,0,0,0,0,0,0,0,0,-1,1413,1597,0,0
196,-573,0,0,0,0,0,0,0,0,0,-1,1420,1597,0,0
203,-573,0,0,0,0,0,0,0,0,0,-1,1427,1597,0,0
210,-573,0,0,0,0,0,0,0,0,0,-1,1434,1597,0,0
217,-573,0,0,0,0,0,0,0,0,0,-1,1441,1597,0,0
224,-573,0,0,0,0,0,0,0,0,0,-1,1448,1597,0,0
231,-573,0,0,0,0,0,0,0,0,0,-1,1455,1597,0,0
238,-573,0,0,0,0,0,0,0,0,0,-1,1462,1597,0,0
245,-573,0,0,0,0,0,0,0,0,0,-1,1469,1597,0,0
252,-573,0,0,0,0,0,0,0,0,0,-1,1476,1597,0,0
259,-573,0,0,0,0,0,0,0,0,0,-1,1483,1597,0,0
266,-573,0,0,0,0,0,0,0,0,0,-1,1490,1597,0,0
273,-573,0,0,0,0,0,0,0,0,0,-1,1497,1597,0,0
280,-573,0,0,0,0,0,0,0,0,0,-1,1504,1597,0,0
287,-573,0,0,0,0,0,0,0,0,0,-1,1511,1597,0,0
294,-573,0,0,0,0,0,0,0,0,0,-1,1518,1597,0,0
301,-573,0,0,0,0,0,0,0,0,0,-1,1525,1597,0,0
308,-573,5.93042,9.71143,0,0,0,0,0,0,0,-1,1532,1597,5.93046,-9.71144
315,-573,4.34204,11.719,0,0,0,0,0,0,0,-1,1539,1597,4.34205,-11.719
322,-573,10.3269,7.77563,0,0,0,0,0,0,0,-1,1546,1597,10.327,-7.77565
329,-573,4.99573,3.80273,0,0,0,0,0,0,0,-1,1553,1597,4.9957,-3.80273
336,-573,4.85693,2.53455,0,0,0,0,0,0,0,-1,1560,1597,4.8569,-2.53459
343,-573,21.4159,52.1832,0,0,0,0,0,0,0,-1,1567,1597,21.4159,-52.1833
350,-573,21.6807,52.4836,0,0,0,0,0,0,0,-1,1574,1597,21.6806,-52.4836
357,-573,21.9453,52.7841,0,0,0,0,0,0,0,-1,1581,1597,21.9453,-52.784
364,-573,7.14551,3.02087,0,0,0,0,0,0,0,-1,1588,1597,7.14556,-3.02084
371,-573,6.88867,2.00549,0,0,0,0,0,0,0,-1,1595,1597,6.88868,-2.00553
378,-573,8.62012,6.09106,0,0,0,0,0,0,0,-1,1602,1597,8.62012,-6.09103
385,-573,6.54346,-0.951904,0,0,0,0,0,0,0,-1,1609,1597,6.54349,0.951901
392,-573,17.5164,38.3645,0,0,0,0,0,0,0,-1,1616,1597,17.5164,-38.3645
399,-573,20.5255,42.9893,0,0,0,0,0,0,0,-1,1623,1597,20.5255,-42.9893
406,-573,20.2545,44.7974,0,0,0,0,0,0,0,-1,1630,1597,20.2545,-44.7974
413,-573,19.0908,43.9061,0,0,0,0,0,0,0,-1,1637,1597,19.0908,-43.9062
420,-573,18.8063,37.0011,0,0,0,0,0,0,0,-1,1644,1597,18.8063,-37.0011
427,-573,20.4286,42.2079,0,0,0,0,0,0,0,-1,1651,1597,20.4285,-42.2079
434,-573,21.0018,45.0059,0,0,0,0,0,0,0,-1,1658,1597,21.0019,-45.0059
441,-573,20.7515,43.7654,0,0,0,0,0,0,0,-1,1665,1597,20.7514,-43.7654
448,-573,20.6559,42.9507,0.00519555,0.019337,-0.00889986,0.023633,0.000899536,-1.12108,0.0154642,0.0473415,1672,1597,20.6559,-42.9506
455,-573,20.6614,42.0551,0.0047464,0.0163441,-0.00795442,0.020389,0.000701508,-1.10036,0.013365,0.0336066,1679,1597,20.6613,-42.055
462,-573,20.7249,41.1536,0.00492252,0.0135522,-0.00698124,0.0174444,0.00103032,-1.0622,0.0113018,0.023172,1686,1597,20.7248,-41.1536
469,-573,20.7126,40.4502,0.00479798,0.0108439,-0.00591436,0.0144631,0.00117881,-1.02165,0.00927413,0.0150899,1693,1597,20.7126,-40.4501
476,-573,20.7155,39.7589,0.00433023,0.00842596,-0.00492519,0.0117121,0.00104413,-0.982422,0.00748432,0.0146688,1700,1597,20.7155,-39.7589
483,-573,20.7104,39.0676,0.00367313,0.00624946,-0.00392018,0.00908769,0.000834897,-0.94414,0.00580023,0.0142253,1707,1597,20.7105,-39.0677
490,-573,20.6631,38.3496,0.00300102,0.00424304,-0.00302192,0.0067071,0.000536961,-0.886738,0.0043036,0.0150532,1714,1597,20.6631,-38.3496
497,-573,20.6719,37.6213,0.00209022,0.00286657,-0.002214,0.00472616,0.000230624,-0.87218,0.00307678,0.0223146,1721,1597,20.6719,-37.6213
504,-573,20.635,36.9172,0.00107596,0.00154156,-0.00154451,0.00287071,-0.000253202,-0.860199,0.00200355,0.0183385,1728,1597,20.635,-36.9172
511,-573,20.5894,36.2084,5.17213e-05,0.000653263,-0.000995703,0.00139263,-0.000687646,-0.932075,0.00122382,0.0193707,1735,1597,20.5893,-36.2084
518,-573,20.5159,35.5055,-0.000938521,-6.60026e-05,-0.000580795,0.000224129,-0.00122865,-1.10751,0.000903131,0.01537,1742,1597,20.5159,-35.5055
525,-573,20.4596,34.7638,-0.00178274,-0.00060728,-0.000293476,-0.000538081,-0.00185194,-1.33924,0.00110004,0.0185175,1749,1597,20.4596,-34.7637
532,-573,20.4611,33.9819,-0.00237498,-0.0011287,-5.87558e-05,-0.00112593,-0.00237774,-1.52379,0.00137343,0.0181611,1756,1597,20.4611,-33.9819
539,-573,20.322,33.2548,-0.00276409,-0.00165255,0.000106514,-0.00164244,-0.00277421,1.47612,0.00161071,0.0389505,1763,1597,20.3221,-33.2548
546,-573,20.4854,32.3528,0,0,0,0,0,0,0,-1,1770,1597,20.4854,-32.3528
553,-573,20.2357,32.1019,0,0,0,0,0,0,0,-1,1777,1597,20.2358,-32.102
560,-573,19.915,31.5547,0,0,0,0,0,0,0,-1,1784,1597,19.915,-31.5546
567,-573,19.8645,28.3368,0,0,0,0,0,0,0,-1,1791,1597,19.8645,-28.3368
574,-573,0.83374,5.7041,0,0,0,0,0,0,0,-1,1798,1597,0.833718,-5.70405
581,-573,-0.224854,7.41602,0,0,0,0,0,0,0,-1,1805,1597,-0.224904,-7.41596
588,-573,-0.134033,7.67065,0,0,0,0,0,0,0,-1,1812,1597,-0.134037,-7.67063
595,-573,-0.0825195,8.35083,0,0,0,0,0,0,0,-1,1819,1597,-0.0824684,-8.35088
602,-573,0,0,0,0,0,0,0,0,0,-1,1826,1597,0,0
609,-573,0,0,0,0,0,0,0,0,0,-1,1833,1597,0,0
616,-573,0,0,0,0,0,0,0,0,0,-1,1840,1597,0,0
623,-573,0,0,0,0,0,0,0,0,0,-1,1847,1597,0,0
630,-573,0,0,0,0,0,0,0,0,0,-1,1854,1597,0,0
637,-573,0,0,0,0,0,0,0,0,0,-1,1861,1597,0,0
644,-573,0,0,0,0,0,0,0,0,0,-1,1868,1597,0,0
651,-573,0,0,0,0,0,0,0,0,0,-1,1875,1597,0,0
658,-573,0,0,0,0,0,0,0,0,0,-1,1882,1597,0,0
665,-573,0,0,0,0,0,0,0,0,0,-1,1889,1597,0,0
672,-573,0,0,0,0,0,0,0,0,0,-1,1896,1597,0,0
679,-573,0,0,0,0,0,0,0,0,0,-1,1903,1597,0,0
686,-573,0,0,0,0,0,0,0,0,0,-1,1910,1597,0,0
693,-573,0,0,0,0,0,0,0,0,0,-1,1917,1597,0,0
700,-573,0,0,0,0,0,0,0,0,0,-1,1924,1597,0,0
707,-573,0,0,0,0,0,0,0,0,0,-1,1931,1597,0,0
714,-573,0,0,0,0,0,0,0,0,0,-1,1938,1597,0,0
721,-573,0,0,0,0,0,0,0,0,0,-1,1945,1597,0,0
728,-573,0,0,0,0,0,0,0,0,0,-1,1952,1597,0,0
735,-573,0,0,0,0,0,0,0,0,0,-1,1959,1597,0,0
742,-573,0,0,0,0,0,0,0,0,0,-1,1966,1597,0,0
749,-573,0,0,0,0,0,0,0,0,0,-1,1973,1597,0,0
756,-573,0,0,0,0,0,0,0,0,0,-1,1980,1597,0,0
763,-573,0,0,0,0,0,0,0,0,0,-1,1987,1597,0,0
770,-573,0,0,0,0,0,0,0,0,0,-1,1994,1597,0,0
777,-573,0,0,0,0,0,0,0,0,0,-1,2001,1597,0,0
784,-573,0,0,0,0,0,0,0,0,0,-1,2008,1597,0,0
791,-573,0,0,0,0,0,0,0,0,0,-1,2015,1597,0,0
798,-573,0,0,0,0,0,0,0,0,0,-1,2022,1597,0,0
805,-573,0,0,0,0,0,0,0,0,0,-1,2029,1597,0,0
812,-573,0,0,0,0,0,0,0,0,0,-1,2036,1597,0,0
-700,-580,0,0,0,0,0,0,0,0,0,-1,524,1604,0,0
-693,-580,0,0,0,0,0,0,0,0,0,-1,531,1604,0,0
-686,-580,0,0,0,0,0,0,0,0,0,-1,538,1604,0,0
-679,-580,0,0,0,0,0,0,0,0,0,-1,545,1604,0,0
-672,-580,0,0,0,0,0,0,0,0,0,-1,552,1604,0,0
-665,-580,0,0,0,0,0,0,0,0,0,-1,559,1604,0,0
-658,-580,0,0,0,0,0,0,0,0,0,-1,566,1604,0,0
-651,-580,0,0,0,0,0,0,0,0,0,-1,573,1604,0,0
-644,-580,0,0,0,0,0,0,0,0,0,-1,580,1604,0,0
-637,-580,0,0,0,0,0,0,0,0,0,-1,587,1604,0,0
-630,-580,0,0,0,0,0,0,0,0,0,-1,594,1604,0,0
-623,-580,0,0,0,0,0,0,0,0,0,-1,601,1604,0,0
-616,-580,0,0,0,0,0,0,0,0,0,-1,608,1604,0,0
-609,-580,0,0,0,0,0,0,0,0,0,-1,615,1604,0,0
-602,-580,0,0,0,0,0,0,0,0,0,-1,622,1604,0,0
-595,-580,0,0,0,0,0,0,0,0,0,-1,629,1604,0,0
-588,-580,0,0,0,0,0,0,0,0,0,-1,636,1604,0,0
-581,-580,0,0,0,0,0,0,0,0,0,-1,643,1604,0,0
-574,-580,0,0,0,0,0,0,0,0,0,-1,650,1604,0,0
-567,-580,0,0,0,0,0,0,0,0,0,-1,657,1604,0,0
-560,-580,0,0,0,0,0,0,0,0,0,-1,664,1604,0,0
-553,-580,0,0,0,0,0,0,0,0,0,-1,671,1604,0,0
-546,-580,0,0,0,0,0,0,0,0,0,-1,678,1604,0,0
-539,-580,0,0,0,0,0,0,0,0,0,-1,685,1604,0,0
-532,-580,0,0,0,0,0,0,0,0,0,-1,692,1604,0,0
-525,-580,0,0,0,0,0,0,0,0,0,-1,699,1604,0,0
-518,-580,0,0,0,0,0,0,0,0,0,-1,706,1604,0,0
-511,-580,0,0,0,0,0,0,0,0,0,-1,713,1604,0,0
-504,-580,0,0,0,0,0,0,0,0,0,-1,720,1604,0,0
-497,-580,0,0,0,0,0,0,0,0,0,-1,727,1604,0,0
-490,-580,0,0,0,0,0,0,0,0,0,-1,734,1604,0,0
-483,-580,0,0,0,0,0,0,0,0,0,-1,741,1604,0,0
-476,-580,0,0,0,0,0,0,0,0,0,-1,748,1604,0,0
-469,-580,-1.69189,-0.38916,0,0,0,0,0,0,0,-1,755,1604,-1.69192,0.389188
-462,-580,-0.859863,0.675293,0,0,0,0,0,0,0,-1,762,1604,-0.859834,-0.675245
-455,-580,-0.730164,0.651978,0,0,0,0,0,0,0,-1,769,1604,-0.730153,-0.651957
-448,-580,-3.31891,2.07544,0,0,0,0,0,0,0,-1,776,1604,-3.3189,-2.07539
-441,-580,-1.63843,3.9469,0,0,0,0,0,0,0,-1,783,1604,-1.63842,-3.94695
-434,-580,0.23291,5.97876,0,0,0,0,0,0,0,-1,790,1604,0.232901,-5.97878
-427,-580,1.62756,8.05493,0,0,0,0,0,0,0,-1,797,1604,1.62758,-8.05488
-420,-580,0.986572,11.2383,0,0,0,0,0,0,0,-1,804,1604,0.986544,-11.2382
-413,-580,0.922913,21.5701,0,0,0,0,0,0,0,-1,811,1604,0.922905,-21.5701
-406,-580,-1.92542,33.2435,0,0,0,0,0,0,0,-1,818,1604,-1.92543,-33.2435
-399,-580,-1.94623,34.2172,-0.00264946,-0.0019547,-9.14981e-05,-0.00194285,-0.00266131,-1.44202,0.00158979,0.0468177,825,1604,-1.94622,-34.2172
-392,-580,-2.00446,35.0118,-0.00142189,-0.00181183,0.000296406,-0.00126207,-0.00197164,0.494486,0.00115313,0.0228452,832,1604,-2.00444,-35.0118
-385,-580,-2.04266,35.7693,-0.000476907,-0.00144999,0.00065546,-0.000147146,-0.00177975,0.466124,0.00114062,0.0138829,839,1604,-2.04263,-35.7692
-378,-580,-2.06543,36.5399,0.000183882,-0.000954797,0.000882928,0.000665118,-0.00143603,0.499032,0.00124002,0.0169789,846,1604,-2.06541,-36.5399
-371,-580,-2.10498,37.2993,0.000564552,-0.000679477,0.000847664,0.000993934,-0.00110886,0.468873,0.00121465,0.0154871,853,1604,-2.10498,-37.2993
-364,-580,-2.1178,38.0135,0.00100262,-0.000148735,0.000952968,0.00154029,-0.000686409,0.513688,0.00131672,0.0206406,860,1604,-2.11778,-38.0135
-357,-580,-2.16382,38.7134,0.0015576,0.000507673,0.00114297,0.0022904,-0.000225127,0.570119,0.00160724,0.0136841,867,1604,-2.16382,-38.7134
-350,-580,-2.21729,39.4707,0.00225079,0.00115655,0.00139016,0.00319762,0.000209718,0.597925,0.00206539,0.0103377,874,1604,-2.21726,-39.4707
-343,-580,-2.22443,40.1991,0.00301889,0.00198648,0.00175969,0.00433653,0.000668845,0.642726,0.00269587,0.011692,881,1604,-2.2244,-40.199
-336,-580,-2.21124,40.8717,0.00388739,0.00297075,0.00228939,0.00576388,0.00109426,0.686608,0.00353475,0.0210828,888,1604,-2.21126,-40.8717
-329,-580,-2.26575,41.6494,0.00494626,0.00431347,0.00305867,0.00770486,0.00155487,0.733861,0.00470472,0.0201702,895,1604,-2.26574,-41.6494
-322,-580,-2.31763,42.4314,0.00635351,0.00596026,0.00410622,0.0102678,0.00204596,0.761474,0.00627539,0.021443,902,1604,-2.31765,-42.4314
-315,-580,-2.31927,43.115,0.00771481,0.00777942,0.00551933,0.0132665,0.00222769,0.788325,0.00820325,0.0244215,909,1604,-2.31925,-43.115
-308,-580,-2.22369,43.9757,0.00877574,0.0102914,0.00719831,0.0167716,0.00229545,0.837843,0.0104999,0.0366863,916,1604,-2.22372,-43.9757
-301,-580,-2.19702,44.538,0.0103537,0.0130581,0.00926311,0.0210672,0.00234461,0.857875,0.0133321,0.0343575,923,1604,-2.19705,-44.5379
-294,-580,-2.12976,45.3878,0,0,0,0,0,0,0,-1,930,1604,-2.12975,-45.3878
-287,-580,-2.03101,46.2833,0,0,0,0,0,0,0,-1,937,1604,-2.031,-46.2833
-280,-580,-1.9187,47.2657,0,0,0,0,0,0,0,-1,944,1604,-1.91868,-47.2657
-273,-580,-1.73853,47.8341,0,0,0,0,0,0,0,-1,951,1604,-1.73851,-47.8341
-266,-580,-1.22644,48.4485,0,0,0,0,0,0,0,-1,958,1604,-1.22644,-48.4485
-259,-580,1.31091,9.11536,0,0,0,0,0,0,0,-1,965,1604,1.31092,-9.11539
-252,-580,1.07629,7.74097,0,0,0,0,0,0,0,-1,972,1604,1.07627,-7.74101
-245,-580,3.80304,9.16028,0,0,0,0,0,0,0,-1,979,1604,3.80306,-9.16034
-238,-580,-10.3588,1.57556,0,0,0,0,0,0,0,-1,986,1604,-10.3588,-1.5755
-231,-580,-10.576,6.43787,0,0,0,0,0,0,0,-1,993,1604,-10.576,-6.43783
-224,-580,-8.27435,7.58972,0,0,0,0,0,0,0,-1,1000,1604,-8.27435,-7.5897
-217,-580,-5.85632,9.51221,0,0,0,0,0,0,0,-1,1007,1604,-5.85632,-9.5122
-210,-580,-3.6684,11.1569,0,0,0,0,0,0,0,-1,1014,1604,-3.66839,-11.1569
-203,-580,-1.92474,12.7845,0,0,0,0,0,0,0,-1,1021,1604,-1.92477,-12.7845
-196,-580,-2.28552,10.3289,0,0,0,0,0,0,0,-1,1028,1604,-2.28552,-10.3288
-189,-580,-4.58252,7.59058,0,0,0,0,0,0,0,-1,1035,1604,-4.58256,-7.59057
-182,-580,-5.45874,7.65942,0,0,0,0,0,0,0,-1,1042,1604,-5.45876,-7.65939
-175,-580,-6.38977,7.55005,0,0,0,0,0,0,0,-1,1049,1604,-6.38981,-7.5501
-168,-580,0,0,0,0,0,0,0,0,0,-1,1056,1604,0,0
-161,-580,0,0,0,0,0,0,0,0,0,-1,1063,1604,0,0
-154,-580,0,0,0,0,0,0,0,0,0,-1,1070,1604,0,0
-147,-580,0,0,0,0,0,0,0,0,0,-1,1077,1604,0,0
-140,-580,0,0,0,0,0,0,0,0,0,-1,1084,1604,0,0
-133,-580,0,0,0,0,0,0,0,0,0,-1,1091,1604,0,0
-126,-580,0,0,0,0,0,0,0,0,0,-1,1098,1604,0,0
-119,-580,0,0,0,0,0,0,0,0,0,-1,1105,1604,0,0
-112,-580,0,0,0,0,0,0,0,0,0,-1,1112,1604,0,0
-105,-580,0,0,0,0,0,0,0,0,0,-1,1119,1604,0,0
-98,-580,0,0,0,0,0,0,0,0,0,-1,1126,1604,0,0
-91,-580,0,0,0,0,0,0,0,0,0,-1,1133,1604,0,0
-84,-580,0,0,0,0,0,0,0,0,0,-1,1140,1604,0,0
-77,-580,0,0,0,0,0,0,0,0,0,-1,1147,1604,0,0
-70,-580,0,0,0,0,0,0,0,0,0,-1,1154,1604,0,0
-63,-580,0,0,0,0,0,0,0,0,0,-1,1161,1604,0,0
-56,-580,0,0,0,0,0,0,0,0,0,-1,1168,1604,0,0
-49,-580,0,0,0,0,0,0,0,0,0,-1,1175,1604,0,0
-42,-580,0,0,0,0,0,0,0,0,0,-1,1182,1604,0,0
-35,-580,0,0,0,0,0,0,0,0,0,-1,1189,1604,0,0
-28,-580,0,0,0,0,0,0,0,0,0,-1,1196,1604,0,0
-21,-580,0,0,0,0,0,0,0,0,0,-1,1203,1604,0,0
-14,-580,0,0,0,0,0,0,0,0,0,-1,1210,1604,0,0
-7,-580,0,0,0,0,0,0,0,0,0,-1,1217,1604,0,0
0,-580,0,0,0,0,0,0,0,0,0,-1,1224,1604,0,0
7,-580,0,0,0,0,0,0,0,0,0,-1,1231,1604,0,0
14,-580,0,0,0,0,0,0,0,0,0,-1,1238,1604,0,0
21,-580,0,0,0,0,0,0,0,0,0,-1,1245,1604,0,0
28,-580,0,0,0,0,0,0,0,0,0,-1,1252,1604,0,0
35,-580,0,0,0,0,0,0,0,0,0,-1,1259,1604,0,0
42,-580,0,0,0,0,0,0,0,0,0,-1,1266,1604,0,0
49,-580,0,0,0,0,0,0,0,0,0,-1,1273,1604,0,0
56,-580,0,0,0,0,0,0,0,0,0,-1,1280,1604,0,0
63,-580,0,0,0,0,0,0,0,0,0,-1,1287,1604,0,0
70,-580,0,0,0,0,0,0,0,0,0,-1,1294,1604,0,0
77,-580,0,0,0,0,0,0,0,0,0,-1,1301,1604,0,0
84,-580,0,0,0,0,0,0,0,0,0,-1,1308,1604,0,0
91,-580,0,0,0,0,0,0,0,0,0,-1,1315,1604,0,0
98,-580,0,0,0,0,0,0,0,0,0,-1,1322,1604,0,0
105,-580,0,0,0,0,0,0,0,0,0,-1,1329,1604,0,0
112,-580,0,0,0,0,0,0,0,0,0,-1,1336,1604,0,0
119,-580,0,0,0,0,0,0,0,0,0,-1,1343,1604,0,0
126,-580,0,0,0,0,0,0,0,0,0,-1,1350,1604,0,0
133,-580,0,0,0,0,0,0,0,0,0,-1,1357,1604,0,0
140,-580,0,0,0,0,0,0,0,0,0,-1,1364,1604,0,0
147,-580,0,0,0,0,0,0,0,0,0,-1,1371,1604,0,0
154,-580,0,0,0,0,0,0,0,0,0,-1,1378,1604,0,0
161,-580,0,0,0,0,0,0,0,0,0,-1,1385,1604,0,0
168,-580,0,0,0,0,0,0,0,0,0,-1,1392,1604,0,0
175,-580,0,0,0,0,0,0,0,0,0,-1,1399,1604,0,0
182,-580,0,0,0,0,0,0,0,0,0,-1,1406,1604,0,0
189,-580,0,0,0,0,0,0,0,0,0,-1,1413,1604,0,0
196,-580,0,0,0,0,0,0,0,0,0,-1,1420,1604,0,0
203,-580,0,0,0,0,0,0,0,0,0,-1,1427,1604,0,0
210,-580,0,0,0,0,0,0,0,0,0,-1,1434,1604,0,0
217,-580,0,0,0,0,0,0,0,0,0,-1,1441,1604,0,0
224,-580,0,0,0,0,0,0,0,0,0,-1,1448,1604,0,0
231,-580,0,0,0,0,0,0,0,0,0,-1,1455,1604,0,0
238,-580,0,0,0,0,0,0,0,0,0,-1,1462,1604,0,0
245,-580,0,0,0,0,0,0,0,0,0,-1,1469,1604,0,0
252,-580,0,0,0,0,0,0,0,0,0,-1,1476,1604,0,0
259,-580,0,0,0,0,0,0,0,0,0,-1,1483,1604,0,0
266,-580,0,0,0,0,0,0,0,0,0,-1,1490,1604,0,0
273,-580,0,0,0,0,0,0,0,0,0,-1,1497,1604,0,0
280,-580,0,0,0,0,0,0,0,0,0,-1,1504,1604,0,0
287,-580,0,0,0,0,0,0,0,0,0,-1,1511,1604,0,0
294,-580,4.0437,0.177368,0,0,0,0,0,0,0,-1,1518,1604,4.04369,-0.177371
301,-580,7.55164,8.05798,0,0,0,0,0,0,0,-1,1525,1604,7.55158,-8.05802
308,-580,5.9126,9.99341,0,0,0,0,0,0,0,-1,1532,1604,5.91255,-9.99337
315,-580,4.27356,11.9287,0,0,0,0,0,0,0,-1,1539,1604,4.27352,-11.9287
322,-580,10.2366,7.50281,0,0,0,0,0,0,0,-1,1546,1604,10.2366,-7.50282
329,-580,10.5962,8.69641,0,0,0,0,0,0,0,-1,1553,1604,10.5962,-8.69642
336,-580,3.66431,1.58862,0,0,0,0,0,0,0,-1,1560,1604,3.6643,-1.58864
343,-580,19.0659,51.8346,0,0,0,0,0,0,0,-1,1567,1604,19.0659,-51.8346
350,-580,19.252,52.0856,0,0,0,0,0,0,0,-1,1574,1604,19.2519,-52.0856
357,-580,19.0297,52.475,0,0,0,0,0,0,0,-1,1581,1604,19.0297,-52.4749
364,-580,18.0337,51.8995,0,0,0,0,0,0,0,-1,1588,1604,18.0336,-51.8995
371,-580,18.5011,51.119,0,0,0,0,0,0,0,-1,1595,1604,18.5011,-51.1191
378,-580,19.4285,50.2838,0,0,0,0,0,0,0,-1,1602,1604,19.4284,-50.2838
385,-580,18.6182,47.5352,0,0,0,0,0,0,0,-1,1609,1604,18.6181,-47.5352
392,-580,19.1388,46.7451,0,0,0,0,0,0,0,-1,1616,1604,19.1388,-46.7452
399,-580,19.433,45.329,0,0,0,0,0,0,0,-1,1623,1604,19.433,-45.329
406,-580,20.1268,46.9296,0,0,0,0,0,0,0,-1,1630,1604,20.1269,-46.9296
413,-580,20.0449,46.2109,0,0,0,0,0,0,0,-1,1637,1604,20.0449,-46.2109
420,-580,20.0208,45.4969,0,0,0,0,0,0,0,-1,1644,1604,20.0208,-45.4969
427,-580,20.6281,45.2058,0,0,0,0,0,0,0,-1,1651,1604,20.6281,-45.2058
434,-580,20.2974,44.2911,0.00648337,0.0194736,-0.00891194,0.0240062,0.00195084,-1.1003,0.0153951,0.0478011,1658,1604,20.2974,-44.2912
441,-580,19.9857,43.3713,0.00511503,0.0169687,-0.0075207,0.0206173,0.00146647,-1.11911,0.0132831,0.0271599,1665,1604,19.9857,-43.3713
448,-580,20.0328,42.5782,0.0039967,0.0145711,-0.00653222,0.0176877,0.000880062,-1.12562,0.0115097,0.0187048,1672,1604,20.0329,-42.5782
455,-580,20.0721,41.899,0.00355585,0.0123364,-0.0059258,0.0153211,0.000571201,-1.10422,0.0100291,0.022161,1679,1604,20.0722,-41.8991
462,-580,20.017,41.1835,0.00367785,0.0101632,-0.00527212,0.01311,0.000730999,-1.06111,0.00850684,0.024113,1686,1604,20.017,-41.1835
469,-580,19.9979,40.4829,0.00357685,0.00806539,-0.00453352,0.0108797,0.000762506,-1.01523,0.00701282,0.0204136,1693,1604,19.998,-40.4829
476,-580,19.995,39.7806,0.0031722,0.00619291,-0.00380036,0.00877205,0.000593066,-0.97454,0.00566071,0.0156022,1700,1604,19.995,-39.7806
483,-580,19.9626,39.0978,0.00258936,0.00442983,-0.00304641,0.00669196,0.000327227,-0.932076,0.00435633,0.0147026,1707,1604,19.9626,-39.0978
490,-580,19.9283,38.3945,0.00194318,0.00282041,-0.00234853,0.00477093,-7.33975e-06,-0.877715,0.00318307,0.0193363,1714,1604,19.9283,-38.3945
497,-580,19.9058,37.6689,0.00109917,0.00172807,-0.0017318,0.00317373,-0.000346492,-0.875207,0.00224027,0.0149114,1721,1604,19.9058,-37.669
504,-580,19.8748,36.9291,0.000136356,0.000649762,-0.00120346,0.00162359,-0.000837476,-0.890475,0.00144486,0.0178192,1728,1604,19.8748,-36.929
511,-580,19.835,36.2302,-0.000858498,-8.08414e-05,-0.00076331,0.000386969,-0.00132631,-1.02097,0.00103753,0.0187182,1735,1604,19.835,-36.2302
518,-580,19.7804,35.5077,-0.00183264,-0.000600371,-0.000471794,-0.000440483,-0.00199253,-1.24405,0.00120859,0.0169911,1742,1604,19.7804,-35.5076
525,-580,19.7288,34.7811,-0.00271144,-0.00109807,-0.000220918,-0.00106836,-0.00274114,-1.43714,0.00159537,0.0209225,1749,1604,19.7288,-34.7811
532,-580,19.66,34.0793,-0.00337329,-0.00159438,8.66457e-06,-0.00159434,-0.00337333,1.56593,0.00194857,0.0372769,1756,1604,19.66,-34.0793
539,-580,19.7941,33.1925,0,0,0,0,0,0,0,-1,1763,1604,19.7941,-33.1925
546,-580,19.3851,29.3604,0,0,0,0,0,0,0,-1,1770,1604,19.3851,-29.3604
553,-580,17.1749,26.6359,0,0,0,0,0,0,0,-1,1777,1604,17.1749,-26.6358
560,-580,18.9662,29.0388,0,0,0,0,0,0,0,-1,1784,1604,18.9661,-29.0389
567,-580,3.87708,4.0647,0,0,0,0,0,0,0,-1,1791,1604,3.87711,-4.06471
574,-580,2.31653,5.62952,0,0,0,0,0,0,0,-1,1798,1604,2.31654,-5.62947
581,-580,1.60876,6.67664,0,0,0,0,0,0,0,-1,1805,1604,1.60873,-6.67667
588,-580,1.38684,7.14441,0,0,0,0,0,0,0,-1,1812,1604,1.38689,-7.14443
595,-580,0,0,0,0,0,0,0,0,0,-1,1819,1604,0,0
602,-580,0,0,0,0,0,0,0,0,0,-1,1826,1604,0,0
609,-580,0,0,0,0,0,0,0,0,0,-1,1833,1604,0,0
616,-580,0,0,0,0,0,0,0,0,0,-1,1840,1604,0,0
623,-580,0,0,0,0,0,0,0,0,0,-1,1847,1604,0,0
630,-580,0,0,0,0,0,0,0,0,0,-1,1854,1604,0,0
637,-580,0,0,0,0,0,0,0,0,0,-1,1861,1604,0,0
644,-580,0,0,0,0,0,0,0,0,0,-1,1868,1604,0,0
651,-580,0,0,0,0,0,0,0,0,0,-1,1875,1604,0,0
658,-580,0,0,0,0,0,0,0,0,0,-1,1882,1604,0,0
665,-580,0,0,0,0,0,0,0,0,0,-1,1889,1604,0,0
672,-580,0,0,0,0,0,0,0,0,0,-1,1896,1604,0,0
679,-580,0,0,0,0,0,0,0,0,0,-1,1903,1604,0,0
686,-580,0,0,0,0,0,0,0,0,0,-1,1910,1604,0,0
693,-580,0,0,0,0,0,0,0,0,0,-1,1917,1604,0,0
700,-580,0,0,0,0,0,0,0,0,0,-1,1924,1604,0,0
707,-580,0,0,0,0,0,0,0,0,0,-1,1931,1604,0,0
714,-580,0,0,0,0,0,0,0,0,0,-1,1938,1604,0,0
721,-580,0,0,0,0,0,0,0,0,0,-1,1945,1604,0,0
728,-580,0,0,0,0,0,0,0,0,0,-1,1952,1604,0,0
735,-580,0,0,0,0,0,0,0,0,0,-1,1959,1604,0,0
742,-580,0,0,0,0,0,0,0,0,0,-1,1966,1604,0,0
749,-580,0,0,0,0,0,0,0,0,0,-1,1973,1604,0,0
756,-580,0,0,0,0,0,0,0,0,0,-1,1980,1604,0,0
763,-580,0,0,0,0,0,0,0,0,0,-1,1987,1604,0,0
770,-580,0,0,0,0,0,0,0,0,0,-1,1994,1604,0,0
777,-580,0,0,0,0,0,0,0,0,0,-1,2001,1604,0,0
784,-580,0,0,0,0,0,0,0,0,0,-1,2008,1604,0,0
791,-580,0,0,0,0,0,0,0,0,0,-1,2015,1604,0,0
798,-580,0,0,0,0,0,0,0,0,0,-1,2022,1604,0,0
805,-580,0,0,0,0,0,0,0,0,0,-1,2029,1604,0,0
812,-580,0,0,0,0,0,0,0,0,0,-1,2036,1604,0,0
-700,-587,0,0,0,0,0,0,0,0,0,-1,524,1611,0,0
-693,-587,0,0,0,0,0,0,0,0,0,-1,531,1611,0,0
-686,-587,0,0,0,0,0,0,0,0,0,-1,538,1611,0,0
-679,-587,0,0,0,0,0,0,0,0,0,-1,545,1611,0,0
-672,-587,0,0,0,0,0,0,0,0,0,-1,552,1611,0,0
-665,-587,0,0,0,0,0,0,0,0,0,-1,559,1611,0,0
-658,-587,0,0,0,0,0,0,0,0,0,-1,566,1611,0,0
-651,-587,0,0,0,0,0,0,0,0,0,-1,573,1611,0,0
-644,-587,0,0,0,0,0,0,0,0,0,-1,580,1611,0,0
-637,-587,0,0,0,0,0,0,0,0,0,-1,587,1611,0,0
-630,-587,0,0,0,0,0,0,0,0,0,-1,594,1611,0,0
-623,-587,0,0,0,0,0,0,0,0,0,-1,601,1611,0,0
-616,-587,0,0,0,0,0,0,0,0,0,-1,608,1611,0,0
-609,-587,0,0,0,0,0,0,0,0,0,-1,615,1611,0,0
-602,-587,0,0,0,0,0,0,0,0,0,-1,622,1611,0,0
-595,-587,0,0,0,0,0,0,0,0,0,-1,629,1611,0,0
-588,-587,0,0,0,0,0,0,0,0,0,-1,636,1611,0,0
-581,-587,0,0,0,0,0,0,0,0,0,-1,643,1611,0,0
-574,-587,0,0,0,0,0,0,0,0,0,-1,650,1611,0,0
-567,-587,0,0,0,0,0,0,0,0,0,-1,657,1611,0,0
-560,-587,0,0,0,0,0,0,0,0,0,-1,664,1611,0,0
-553,-587,0,0,0,0,0,0,0,0,0,-1,671,1611,0,0
-546,-587,0,0,0,0,0,0,0,0,0,-1,678,1611,0,0
-539,-587,0,0,0,0,0,0,0,0,0,-1,685,1611,0,0
-532,-587,0,0,0,0,0,0,0,0,0,-1,692,1611,0,0
-525,-587,0,0,0,0,0,0,0,0,0,-1,699,1611,0,0
-518,-587,0,0,0,0,0,0,0,0,0,-1,706,1611,0,0
-511,-587,0,0,0,0,0,0,0,0,0,-1,713,1611,0,0
-504,-587,0,0,0,0,0,0,0,0,0,-1,720,1611,0,0
-497,-587,0,0,0,0,0,0,0,0,0,-1,727,1611,0,0
-490,-587,0,0,0,0,0,0,0,0,0,-1,734,1611,0,0
-483,-587,0,0,0,0,0,0,0,0,0,-1,741,1611,0,0
-476,-587,0,0,0,0,0,0,0,0,0,-1,748,1611,0,0
-469,-587,0,0,0,0,0,0,0,0,0,-1,755,1611,0,0
-462,-587,-0.714355,-0.418457,0,0,0,0,0,0,0,-1,762,1611,-0.714359,0.418483
-455,-587,-0.619812,-0.522461,0,0,0,0,0,0,0,-1,769,1611,-0.619802,0.522515
-448,-587,-0.461731,-0.686523,0,0,0,0,0,0,0,-1,776,1611,-0.461739,0.686559
-441,-587,-3.56555,2.72253,0,0,0,0,0,0,0,-1,783,1611,-3.56555,-2.72259
-434,-587,-1.77319,4.76318,0,0,0,0,0,0,0,-1,790,1611,-1.77318,-4.76323
-427,-587,0.0346069,6.92944,0,0,0,0,0,0,0,-1,797,1611,0.034587,-6.92941
-420,-587,-0.647156,10.1157,0,0,0,0,0,0,0,-1,804,1611,-0.647128,-10.1158
-413,-587,2.13971,10.3901,0,0,0,0,0,0,0,-1,811,1611,2.13971,-10.3902
-406,-587,2.2525,19.7814,0,0,0,0,0,0,0,-1,818,1611,2.25253,-19.7814
-399,-587,-1.30908,34.106,0,0,0,0,0,0,0,-1,825,1611,-1.30909,-34.1059
-392,-587,-1.38348,34.9597,0,0,0,0,0,0,0,-1,832,1611,-1.38349,-34.9597
-385,-587,-1.388,35.7373,-0.000704201,-0.00241786,0.000637649,-0.00049297,-0.00262909,0.319888,0.0016137,0.0296227,839,1611,-1.38797,-35.7373
-378,-587,-1.36865,36.5752,-5.01846e-05,-0.001814,0.000903868,0.000330737,-0.00219492,0.398848,0.00158507,0.0146868,846,1611,-1.36865,-36.5752
-371,-587,-1.40436,37.342,0.000270927,-0.00151159,0.000849281,0.000610774,-0.00185144,0.380642,0.00148049,0.0143908,853,1611,-1.40437,-37.342
-364,-587,-1.41553,38.0543,0.000623208,-0.00106459,0.000900411,0.00101337,-0.00145475,0.408892,0.00143255,0.0174986,860,1611,-1.41555,-38.0544
-357,-587,-1.47009,38.7329,0.00110226,-0.000482525,0.00103778,0.00161557,-0.000995841,0.459341,0.00152179,0.0169559,867,1611,-1.4701,-38.7329
-350,-587,-1.51056,39.5051,0.00169286,0.000103395,0.00121686,0.00235152,-0.000555262,0.496121,0.00178184,0.0102317,874,1611,-1.51055,-39.5052
-343,-587,-1.5542,40.2222,0.00232772,0.000856027,0.00148533,0.00324949,-6.57405e-05,0.555414,0.00218857,0.0133321,881,1611,-1.55419,-40.2222
-336,-587,-1.59192,40.9078,0.0030173,0.00174,0.00187581,0.0043602,0.000397104,0.62132,0.00278389,0.0141823,888,1611,-1.59193,-40.9079
-329,-587,-1.61639,41.6547,0.00383575,0.00295317,0.00246395,0.00589762,0.000891299,0.696788,0.00367089,0.0171678,895,1611,-1.61638,-41.6546
-322,-587,-1.61023,42.4199,0.00491353,0.00433196,0.00324969,0.00788542,0.00136007,0.740776,0.00486735,0.0188141,902,1611,-1.61022,-42.4199
-315,-587,-1.65125,43.106,0.00596883,0.00582255,0.00433744,0.0102337,0.00155764,0.776968,0.00636711,0.0153308,909,1611,-1.65124,-43.106
-308,-587,-1.67499,43.8152,0.00682605,0.00788065,0.00562785,0.0130058,0.00170085,0.832109,0.0081629,0.0162045,916,1611,-1.67497,-43.8152
-301,-587,-1.62213,44.5383,0.00811488,0.0101602,0.00723176,0.0164412,0.00183381,0.855637,0.0104036,0.0164845,923,1611,-1.6221,-44.5383
-294,-587,-1.5697,45.2545,0.00948996,0.012863,0.0091931,0.020523,0.00182996,0.876117,0.0131146,0.0236592,930,1611,-1.56973,-45.2545
-287,-587,-1.57062,45.9827,0.0110902,0.0162694,0.0115973,0.0255627,0.00179691,0.895242,0.0164755,0.0361244,937,1611,-1.57063,-45.9826
-280,-587,-1.44324,46.8849,0.012622,0.0200461,0.0144423,0.0312458,0.00142233,0.911187,0.0203729,0.0443999,944,1611,-1.44322,-46.8848
-273,-587,-1.29553,47.6016,0.0140011,0.0244783,0.0173791,0.0373912,0.00108827,0.931783,0.0245727,0.0427894,951,1611,-1.29555,-47.6016
-266,-587,-0.817139,48.2595,0,0,0,0,0,0,0,-1,958,1611,-0.817143,-48.2595
-259,-587,-1.45587,49.3375,0,0,0,0,0,0,0,-1,965,1611,-1.45586,-49.3376
-252,-587,1.30188,10.3103,0,0,0,0,0,0,0,-1,972,1611,1.30188,-10.3104
-245,-587,1.52075,27.4791,0,0,0,0,0,0,0,-1,979,1611,1.52076,-27.4791
-238,-587,2.87799,9.53821,0,0,0,0,0,0,0,-1,986,1611,2.87797,-9.53823
-231,-587,2.49548,9.14465,0,0,0,0,0,0,0,-1,993,1611,2.49551,-9.14468
-224,-587,-9.72528,9.21069,0,0,0,0,0,0,0,-1,1000,1611,-9.72529,-9.21072
-217,-587,-7.07495,10.7847,0,0,0,0,0,0,0,-1,1007,1611,-7.07495,-10.7847
-210,-587,-4.72308,12.5889,0,0,0,0,0,0,0,-1,1014,1611,-4.72307,-12.5888
-203,-587,-3.2583,13.7289,0,0,0,0,0,0,0,-1,1021,1611,-3.25828,-13.7289
-196,-587,-1.953,14.8145,0,0,0,0,0,0,0,-1,1028,1611,-1.95302,-14.8144
-189,-587,-3.04138,8.66638,0,0,0,0,0,0,0,-1,1035,1611,-3.04136,-8.66635
-182,-587,-3.97095,9.7146,0,0,0,0,0,0,0,-1,1042,1611,-3.97093,-9.71461
-175,-587,-4.80969,8.37878,0,0,0,0,0,0,0,-1,1049,1611,-4.80964,-8.37883
-168,-587,-5.91394,8.72546,0,0,0,0,0,0,0,-1,1056,1611,-5.91398,-8.72542
-161,-587,-7.06946,8.88501,0,0,0,0,0,0,0,-1,1063,1611,-7.06947,-8.885
-154,-587,-2.24731,6.56519,0,0,0,0,0,0,0,-1,1070,1611,-2.24728,-6.56517
-147,-587,0,0,0,0,0,0,0,0,0,-1,1077,1611,0,0
-140,-587,0,0,0,0,0,0,0,0,0,-1,1084,1611,0,0
-133,-587,0,0,0,0,0,0,0,0,0,-1,1091,1611,0,0
-126,-587,0,0,0,0,0,0,0,0,0,-1,1098,1611,0,0
-119,-587,0,0,0,0,0,0,0,0,0,-1,1105,1611,0,0
-112,-587,0,0,0,0,0,0,0,0,0,-1,1112,1611,0,0
-105,-587,0,0,0,0,0,0,0,0,0,-1,1119,1611,0,0
-98,-587,0,0,0,0,0,0,0,0,0,-1,1126,1611,0,0
-91,-587,0,0,0,0,0,0,0,0,0,-1,1133,1611,0,0
-84,-587,0,0,0,0,0,0,0,0,0,-1,1140,1611,0,0
-77,-587,0,0,0,0,0,0,0,0,0,-1,1147,1611,0,0
-70,-587,0,0,0,0,0,0,0,0,0,-1,1154,1611,0,0
-63,-587,0,0,0,0,0,0,0,0,0,-1,1161,1611,0,0
-56,-587,0,0,0,0,0,0,0,0,0,-1,1168,1611,0,0
-49,-587,0,0,0,0,0,0,0,0,0,-1,1175,1611,0,0
-42,-587,0,0,0,0,0,0,0,0,0,-1,1182,1611,0,0
-35,-587,0,0,0,0,0,0,0,0,0,-1,1189,1611,0,0
-28,-587,0,0,0,0,0,0,0,0,0,-1,1196,1611,0,0
-21,-587,0,0,0,0,0,0,0,0,0,-1,1203,1611,0,0
-14,-587,0,0,0,0,0,0,0,0,0,-1,1210,1611,0,0
-7,-587,0,0,0,0,0,0,0,0,0,-1,1217,1611,0,0
0,-587,0,0,0,0,0,0,0,0,0,-1,1224,1611,0,0
7,-587,0,0,0,0,0,0,0,0,0,-1,1231,1611,0,0
14,-587,0,0,0,0,0,0,0,0,0,-1,1238,1611,0,0
21,-587,0,0,0,0,0,0,0,0,0,-1,1245,1611,0,0
28,-587,0,0,0,0,0,0,0,0,0,-1,1252,1611,0,0
35,-587,0,0,0,0,0,0,0,0,0,-1,1259,1611,0,0
42,-587,0,0,0,0,0,0,0,0,0,-1,1266,1611,0,0
49,-587,0,0,0,0,0,0,0,0,0,-1,1273,1611,0,0
56,-587,0,0,0,0,0,0,0,0,0,-1,1280,1611,0,0
63,-587,0,0,0,0,0,0,0,0,0,-1,1287,1611,0,0
70,-587,0,0,0,0,0,0,0,0,0,-1,1294,1611,0,0
77,-587,0,0,0,0,0,0,0,0,0,-1,1301,1611,0,0
84,-587,0,0,0,0,0,0,0,0,0,-1,1308,1611,0,0
91,-587,0,0,0,0,0,0,0,0,0,-1,1315,1611,0,0
98,-587,0,0,0,0,0,0,0,0,0,-1,1322,1611,0,0
105,-587,0,0,0,0,0,0,0,0,0,-1,1329,1611,0,0
112,-587,0,0,0,0,0,0,0,0,0,-1,1336,1611,0,0
119,-587,0,0,0,0,0,0,0,0,0,-1,1343,1611,0,0
126,-587,0,0,0,0,0,0,0,0,0,-1,1350,1611,0,0
133,-587,0,0,0,0,0,0,0,0,0,-1,1357,1611,0,0
140,-587,0,0,0,0,0,0,0,0,0,-1,1364,1611,0,0
147,-587,0,0,0,0,0,0,0,0,0,-1,1371,1611,0,0
154,-587,0,0,0,0,0,0,0,0,0,-1,1378,1611,0,0
161,-587,0,0,0,0,0,0,0,0,0,-1,1385,1611,0,0
168,-587,0,0,0,0,0,0,0,0,0,-1,1392,1611,0,0
175,-587,0,0,0,0,0,0,0,0,0,-1,1399,1611,0,0
182,-587,0,0,0,0,0,0,0,0,0,-1,1406,1611,0,0
189,-587,0,0,0,0,0,0,0,0,0,-1,1413,1611,0,0
196,-587,0,0,0,0,0,0,0,0,0,-1,1420,1611,0,0
203,-587,0,0,0,0,0,0,0,0,0,-1,1427,1611,0,0
210,-587,0,0,0,0,0,0,0,0,0,-1,1434,1611,0,0
217,-587,0,0,0,0,0,0,0,0,0,-1,1441,1611,0,0
224,-587,0,0,0,0,0,0,0,0,0,-1,1448,1611,0,0
231,-587,0,0,0,0,0,0,0,0,0,-1,1455,1611,0,0
238,-587,0,0,0,0,0,0,0,0,0,-1,1462,1611,0,0
245,-587,0,0,0,0,0,0,0,0,0,-1,1469,1611,0,0
252,-587,0,0,0,0,0,0,0,0,0,-1,1476,1611,0,0
259,-587,0,0,0,0,0,0,0,0,0,-1,1483,1611,0,0
266,-587,0,0,0,0,0,0,0,0,0,-1,1490,1611,0,0
273,-587,10.2936,6.35083,0,0,0,0,0,0,0,-1,1497,1611,10.2936,-6.35087
280,-587,2.09204,1.1217,0,0,0,0,0,0,0,-1,1504,1611,2.092,-1.12176
287,-587,3.2865,0.671509,0,0,0,0,0,0,0,-1,1511,1611,3.28656,-0.671538
294,-587,4.24646,1.58765,0,0,0,0,0,0,0,-1,1518,1611,4.24648,-1.58761
301,-587,7.60474,8.37085,0,0,0,0,0,0,0,-1,1525,1611,7.60478,-8.37084
308,-587,5.99316,10.2291,0,0,0,0,0,0,0,-1,1532,1611,5.99315,-10.2291
315,-587,4.34558,12.3289,0,0,0,0,0,0,0,-1,1539,1611,4.34556,-12.3288
322,-587,10.4526,6.38245,0,0,0,0,0,0,0,-1,1546,1611,10.4526,-6.38245
329,-587,10.7738,8.42444,0,0,0,0,0,0,0,-1,1553,1611,10.7738,-8.42438
336,-587,7.5531,5.96619,0,0,0,0,0,0,0,-1,1560,1611,7.55311,-5.96617
343,-587,16.9395,51.2952,0,0,0,0,0,0,0,-1,1567,1611,16.9394,-51.2951
350,-587,17.022,51.35,0.0628076,0.143248,0.0619249,0.176867,0.0291876,1.07341,0.109487,0.0437279,1574,1611,17.0219,-51.35
357,-587,17.2109,51.6587,0,0,0,0,0,0,0,-1,1581,1611,17.211,-51.6587
364,-587,17.4497,51.5734,0,0,0,0,0,0,0,-1,1588,1611,17.4498,-51.5734
371,-587,17.9921,50.7996,0.0589543,0.0871609,0.00585122,0.0883265,0.0577886,1.37416,0.051798,0.044509,1595,1611,17.9921,-50.7995
378,-587,18.5192,49.9281,0.0528771,0.0716222,-0.00164456,0.0717654,0.0527339,-1.48395,0.0429298,0.0490981,1602,1611,18.5191,-49.9282
385,-587,18.3672,49.625,0,0,0,0,0,0,0,-1,1609,1611,18.3672,-49.6249
392,-587,18.8987,48.5039,0,0,0,0,0,0,0,-1,1616,1611,18.8987,-48.5039
399,-587,19.8014,47.5328,0,0,0,0,0,0,0,-1,1623,1611,19.8014,-47.5328
406,-587,19.5306,46.8633,0.0229717,0.0306829,-0.0116515,0.0391002,0.0145544,-0.945183,0.0228189,0.0431817,1630,1611,19.5307,-46.8633
413,-587,19.4185,46.1494,0.0172297,0.0261508,-0.010319,0.0329321,0.0104485,-0.989404,0.0194319,0.0352078,1637,1611,19.4184,-46.1494
420,-587,19.4323,45.4019,0.0126455,0.0220358,-0.00897867,0.0274728,0.00720846,-1.02631,0.0164476,0.0309045,1644,1611,19.4322,-45.4018
427,-587,19.4186,44.7886,0.00829071,0.0168404,-0.00745251,0.0211571,0.00397404,-1.04579,0.0129844,0.0265929,1651,1611,19.4186,-44.7885
434,-587,19.4441,43.9508,0.00534736,0.0144702,-0.0064355,0.0177969,0.00202068,-1.0937,0.0112517,0.021092,1658,1611,19.4441,-43.9508
441,-587,19.4341,43.2026,0.00409298,0.0125235,-0.00542107,0.0151753,0.00144118,-1.11585,0.00967231,0.0243651,1665,1611,19.4341,-43.2027
448,-587,19.4033,42.6178,0.003119,0.0106929,-0.00475163,0.012982,0.000829845,-1.12184,0.00839175,0.0176487,1672,1611,19.4034,-42.6178
455,-587,19.3812,41.9325,0.00269666,0.0089901,-0.00437966,0.0112363,0.000450495,-1.09691,0.00734529,0.0159986,1679,1611,19.3812,-41.9325
462,-587,19.3459,41.2247,0.00275634,0.00728599,-0.00396509,0.00958749,0.00045484,-1.04488,0.00624557,0.0195813,1686,1611,19.3459,-41.2247
469,-587,19.3124,40.5438,0.0026466,0.00563561,-0.00347041,0.00791964,0.000362583,-0.988718,0.00516314,0.0177655,1693,1611,19.3124,-40.5438
476,-587,19.2745,39.8586,0.00228593,0.00420214,-0.00294743,0.00634327,0.000144789,-0.942543,0.00418142,0.0112567,1700,1611,19.2745,-39.8587
483,-587,19.2158,39.1323,0.00176343,0.00278277,-0.00240854,0.00473497,-0.000188774,-0.889664,0.00322142,0.0137767,1707,1611,19.2159,-39.1323
490,-587,19.1975,38.4183,0.00112757,0.00153714,-0.00189195,0.00323536,-0.000570649,-0.839309,0.00237013,0.0166278,1714,1611,19.1975,-38.4183
497,-587,19.1764,37.7062,0.000328136,0.000697811,-0.00145585,0.00198051,-0.00095456,-0.848541,0.00172873,0.0128186,1721,1611,19.1764,-37.7062
504,-587,19.136,37.0159,-0.000595201,-0.000120452,-0.00106908,0.000737294,-0.00145295,-0.894644,0.00128684,0.0126919,1728,1611,19.136,-37.0158
511,-587,19.0787,36.3057,-0.00155916,-0.000674489,-0.000749877,-0.000246206,-0.00198745,-1.05187,0.001251,0.016272,1735,1611,19.0788,-36.3057
518,-587,19.073,35.5648,-0.00253009,-0.000974019,-0.000597544,-0.000771036,-0.00273307,-1.24333,0.00162712,0.0162544,1742,1611,19.073,-35.5648
525,-587,19.0433,34.8971,-0.00350886,-0.0014186,-0.000382879,-0.00135068,-0.00357679,-1.39522,0.00208558,0.024155,1749,1611,19.0434,-34.8971
532,-587,19.0121,34.1906,-0.00426969,-0.00184035,-0.000146919,-0.00183149,-0.00427854,-1.51061,0.00247872,0.0453914,1756,1611,19.012,-34.1906
539,-587,19.0835,33.1702,0,0,0,0,0,0,0,-1,1763,1611,19.0835,-33.1702
546,-587,17.6716,25.2673,0,0,0,0,0,0,0,-1,1770,1611,17.6716,-25.2674
553,-587,7.5813,8.45068,0,0,0,0,0,0,0,-1,1777,1611,7.58125,-8.45068
560,-587,4.21179,5.23547,0,0,0,0,0,0,0,-1,1784,1611,4.21185,-5.23553
567,-587,4.03711,5.46387,0,0,0,0,0,0,0,-1,1791,1611,4.03715,-5.46382
574,-587,3.83142,5.68884,0,0,0,0,0,0,0,-1,1798,1611,3.83141,-5.68881
581,-587,3.47168,6.00977,0,0,0,0,0,0,0,-1,1805,1611,3.47167,-6.00983
588,-587,0,0,0,0,0,0,0,0,0,-1,1812,1611,0,0
595,-587,0,0,0,0,0,0,0,0,0,-1,1819,1611,0,0
602,-587,0,0,0,0,0,0,0,0,0,-1,1826,1611,0,0
609,-587,0,0,0,0,0,0,0,0,0,-1,1833,1611,0,0
616,-587,0,0,0,0,0,0,0,0,0,-1,1840,1611,0,0
623,-587,0,0,0,0,0,0,0,0,0,-1,1847,1611,0,0
630,-587,0,0,0,0,0,0,0,0,0,-1,1854,1611,0,0
637,-587,0,0,0,0,0,0,0,0,0,-1,1861,1611,0,0
644,-587,0,0,0,0,0,0,0,0,0,-1,1868,1611,0,0
651,-587,0,0,0,0,0,0,0,0,0,-1,1875,1611,0,0
658,-587,0,0,0,0,0,0,0,0,0,-1,1882,1611,0,0
665,-587,0,0,0,0,0,0,0,0,0,-1,1889,1611,0,0
672,-587,0,0,0,0,0,0,0,0,0,-1,1896,1611,0,0
679,-587,0,0,0,0,0,0,0,0,0,-1,1903,1611,0,0
686,-587,0,0,0,0,0,0,0,0,0,-1,1910,1611,0,0
693,-587,0,0,0,0,0,0,0,0,0,-1,1917,1611,0,0
700,-587,0,0,0,0,0,0,0,0,0,-1,1924,1611,0,0
707,-587,0,0,0,0,0,0,0,0,0,-1,1931,1611,0,0
714,-587,0,0,0,0,0,0,0,0,0,-1,1938,1611,0,0
721,-587,0,0,0,0,0,0,0,0,0,-1,1945,1611,0,0
728,-587,0,0,0,0,0,0,0,0,0,-1,1952,1611,0,0
735,-587,0,0,0,0,0,0,0,0,0,-1,1959,1611,0,0
742,-587,0,0,0,0,0,0,0,0,0,-1,1966,1611,0,0
749,-587,0,0,0,0,0,0,0,0,0,-1,1973,1611,0,0
756,-587,0,0,0,0,0,0,0,0,0,-1,1980,1611,0,0
763,-587,0,0,0,0,0,0,0,0,0,-1,1987,1611,0,0
770,-587,0,0,0,0,0,0,0,0,0,-1,1994,1611,0,0
777,-587,0,0,0,0,0,0,0,0,0,-1,2001,1611,0,0
784,-587,0,0,0,0,0,0,0,0,0,-1,2008,1611,0,0
791,-587,0,0,0,0,0,0,0,0,0,-1,2015,1611,0,0
798,-587,0,0,0,0,0,0,0,0,0,-1,2022,1611,0,0
805,-587,0,0,0,0,0,0,0,0,0,-1,2029,1611,0,0
812,-587,0,0,0,0,0,0,0,0,0,-1,2036,1611,0,0
-700,-594,0,0,0,0,0,0,0,0,0,-1,524,1618,0,0
-693,-594,0,0,0,0,0,0,0,0,0,-1,531,1618,0,0
-686,-594,0,0,0,0,0,0,0,0,0,-1,538,1618,0,0
-679,-594,0,0,0,0,0,0,0,0,0,-1,545,1618,0,0
-672,-594,0,0,0,0,0,0,0,0,0,-1,552,1618,0,0
-665,-594,0,0,0,0,0,0,0,0,0,-1,559,1618,0,0
-658,-594,0,0,0,0,0,0,0,0,0,-1,566,1618,0,0
-651,-594,0,0,0,0,0,0,0,0,0,-1,573,1618,0,0
-644,-594,0,0,0,0,0,0,0,0,0,-1,580,1618,0,0
-637,-594,0,0,0,0,0,0,0,0,0,-1,587,1618,0,0
-630,-594,0,0,0,0,0,0,0,0,0,-1,594,1618,0,0
-623,-594,0,0,0,0,0,0,0,0,0,-1,601,1618,0,0
-616,-594,0,0,0,0,0,0,0,0,0,-1,608,1618,0,0
-609,-594,0,0,0,0,0,0,0,0,0,-1,615,1618,0,0
-602,-594,0,0,0,0,0,0,0,0,0,-1,622,1618,0,0
-595,-594,0,0,0,0,0,0,0,0,0,-1,629,1618,0,0
-588,-594,0,0,0,0,0,0,0,0,0,-1,636,1618,0,0
-581,-594,0,0,0,0,0,0,0,0,0,-1,643,1618,0,0
-574,-594,0,0,0,0,0,0,0,0,0,-1,650,1618,0,0
-567,-594,0,0,0,0,0,0,0,0,0,-1,657,1618,0,0
-560,-594,0,0,0,0,0,0,0,0,0,-1,664,1618,0,0
-553,-594,0,0,0,0,0,0,0,0,0,-1,671,1618,0,0
-546,-594,0,0,0,0,0,0,0,0,0,-1,678,1618,0,0
-539,-594,0,0,0,0,0,0,0,0,0,-1,685,1618,0,0
-532,-594,0,0,0,0,0,0,0,0,0,-1,692,1618,0,0
-525,-594,0,0,0,0,0,0,0,0,0,-1,699,1618,0,0
-518,-594,0,0,0,0,0,0,0,0,0,-1,706,1618,0,0
-511,-594,0,0,0,0,0,0,0,0,0,-1,713,1618,0,0
-504,-594,0,0,0,0,0,0,0,0,0,-1,720,1618,0,0
-497,-594,0,0,0,0,0,0,0,0,0,-1,727,1618,0,0
-490,-594,0,0,0,0,0,0,0,0,0,-1,734,1618,0,0
-483,-594,0,0,0,0,0,0,0,0,0,-1,741,1618,0,0
-476,-594,0,0,0,0,0,0,0,0,0,-1,748,1618,0,0
-469,-594,0,0,0,0,0,0,0,0,0,-1,755,1618,0,0
-462,-594,0,0,0,0,0,0,0,0,0,-1,762,1618,0,0
-455,-594,-0.509216,-1.58411,0,0,0,0,0,0,0,-1,769,1618,-0.509245,1.58415
-448,-594,-7.71887,-0.0559082,0,0,0,0,0,0,0,-1,776,1618,-7.71885,0.055939
-441,-594,-5.78473,1.18298,0,0,0,0,0,0,0,-1,783,1618,-5.78474,-1.18295
-434,-594,-3.93628,3.06213,0,0,0,0,0,0,0,-1,790,1618,-3.93631,-3.06208
-427,-594,-3.97693,6.77759,0,0,0,0,0,0,0,-1,797,1618,-3.97695,-6.77764
-420,-594,-2.53046,7.71606,0,0,0,0,0,0,0,-1,804,1618,-2.53047,-7.71609
-413,-594,-0.860413,8.00391,0,0,0,0,0,0,0,-1,811,1618,-0.860423,-8.00389
-406,-594,2.45746,13.6218,0,0,0,0,0,0,0,-1,818,1618,2.45747,-13.6218
-399,-594,1.30414,24.9963,0,0,0,0,0,0,0,-1,825,1618,1.30415,-24.9963
-392,-594,-0.485107,35.4917,0,0,0,0,0,0,0,-1,832,1618,-0.48512,-35.4917
-385,-594,-0.583191,36.0526,-0.000521323,-0.00371041,0.000581552,-0.000418583,-0.00381315,0.174861,0.0024147,0.0454614,839,1618,-0.583175,-36.0526
-378,-594,-0.708313,36.5759,0.000135541,-0.00292189,0.00083508,0.000348758,-0.0031351,0.249985,0.00221549,0.0202836,846,1618,-0.708306,-36.5759
-371,-594,-0.670471,37.3817,0.00037504,-0.00254614,0.000756881,0.000559501,-0.0027306,0.239052,0.00203273,0.0135309,853,1618,-0.670491,-37.3818
-364,-594,-0.679688,38.1064,0.000629032,-0.00214928,0.000751312,0.000819187,-0.00233944,0.247892,0.00189273,0.0110219,860,1618,-0.679667,-38.1065
-357,-594,-0.716614,38.825,0.00102512,-0.00159977,0.000844813,0.00127352,-0.00184817,0.285964,0.00181246,0.0110487,867,1618,-0.716615,-38.825
-350,-594,-0.783142,39.5814,0.00149947,-0.0010191,0.000983922,0.00183827,-0.0013579,0.331628,0.00185225,0.0166689,874,1618,-0.783153,-39.5815
-343,-594,-0.854431,40.3071,0.00199214,-0.000287757,0.00119287,0.00250216,-0.000797782,0.40404,0.00198813,0.0187843,881,1618,-0.85444,-40.3071
-336,-594,-0.920349,40.9962,0.00249702,0.000551271,0.00149433,0.00330726,-0.000258975,0.496845,0.00229604,0.0165796,888,1618,-0.920354,-40.9962
-329,-594,-0.917542,41.715,0.003083,0.00167768,0.00195966,0.00446217,0.000298508,0.613257,0.00288044,0.0165467,895,1618,-0.917564,-41.715
-322,-594,-0.883423,42.4542,0.00385158,0.00286814,0.00256226,0.00596887,0.000750844,0.690596,0.00375408,0.017996,902,1618,-0.883434,-42.4542
-315,-594,-0.884399,43.1483,0.00461621,0.00410878,0.00339585,0.00776781,0.000957184,0.748111,0.0048908,0.0184252,909,1618,-0.88442,-43.1483
-308,-594,-0.917664,43.8386,0.005284,0.00580955,0.00438186,0.00993651,0.00115705,0.815347,0.00627432,0.0168705,916,1618,-0.917685,-43.8386
-301,-594,-0.969482,44.5048,0.00630059,0.00768388,0.00560975,0.0126445,0.00134001,0.846736,0.00802038,0.0129299,923,1618,-0.969479,-44.5047
-294,-594,-0.959839,45.1847,0.0073785,0.00993981,0.00710714,0.0158808,0.00143756,0.874538,0.010142,0.0140753,930,1618,-0.959833,-45.1847
-287,-594,-1.01202,45.8495,0.00859744,0.0126092,0.00887764,0.0197048,0.0015019,0.896507,0.0126656,0.0205298,937,1618,-1.01204,-45.8495
-280,-594,-0.978455,46.6067,0.00992363,0.0154656,0.0109487,0.0239886,0.00140071,0.90934,0.0155465,0.0226138,944,1618,-0.978479,-46.6066
-273,-594,-0.892944,47.3834,0.0112056,0.0187681,0.0130906,0.0286126,0.00136112,0.925998,0.0186379,0.028433,951,1618,-0.892944,-47.3835
-266,-594,-0.587219,48.1187,0.0124151,0.021905,0.0153909,0.0332658,0.00105432,0.934922,0.0218343,0.0368976,958,1618,-0.587246,-48.1186
-259,-594,-0.854065,48.9781,0.0135705,0.0249853,0.01776,0.0379324,0.000623375,0.940867,0.0250831,0.047574,965,1618,-0.85406,-48.9782
-252,-594,-0.756714,49.6548,0,0,0,0,0,0,0,-1,972,1618,-0.756739,-49.6548
-245,-594,2.27759,35.1766,0,0,0,0,0,0,0,-1,979,1618,2.27756,-35.1766
-238,-594,2.09015,28.0121,0,0,0,0,0,0,0,-1,986,1618,2.09012,-28.0121
-231,-594,1.93774,9.35388,0,0,0,0,0,0,0,-1,993,1618,1.93776,-9.35393
-224,-594,1.81824,8.62744,0,0,0,0,0,0,0,-1,1000,1618,1.81822,-8.62745
-217,-594,-8.24066,12.0752,0,0,0,0,0,0,0,-1,1007,1618,-8.24068,-12.0751
-210,-594,-5.61438,14.2119,0,0,0,0,0,0,0,-1,1014,1618,-5.6144,-14.212
-203,-594,-3.94507,15.5768,0,0,0,0,0,0,0,-1,1021,1618,-3.94506,-15.5768
-196,-594,2.78613,10.5815,0,0,0,0,0,0,0,-1,1028,1618,2.78612,-10.5815
-189,-594,2.60913,9.48865,0,0,0,0,0,0,0,-1,1035,1618,2.6091,-9.48871
-182,-594,1.2395,9.38806,0,0,0,0,0,0,0,-1,1042,1618,1.23951,-9.38804
-175,-594,0.234863,8.73792,0,0,0,0,0,0,0,-1,1049,1618,0.234812,-8.73786
-168,-594,-0.495483,8.46289,0,0,0,0,0,0,0,-1,1056,1618,-0.495513,-8.46285
-161,-594,-1.39734,8.28699,0,0,0,0,0,0,0,-1,1063,1618,-1.39729,-8.28699
-154,-594,-0.000854492,7.68445,0,0,0,0,0,0,0,-1,1070,1618,-0.000805755,-7.6845
-147,-594,0.348267,9.3385,0,0,0,0,0,0,0,-1,1077,1618,0.348237,-9.33849
-140,-594,0.675171,11.5884,0,0,0,0,0,0,0,-1,1084,1618,0.675204,-11.5884
-133,-594,0,0,0,0,0,0,0,0,0,-1,1091,1618,0,0
-126,-594,0,0,0,0,0,0,0,0,0,-1,1098,1618,0,0
-119,-594,0,0,0,0,0,0,0,0,0,-1,1105,1618,0,0
-112,-594,0,0,0,0,0,0,0,0,0,-1,1112,1618,0,0
-105,-594,0,0,0,0,0,0,0,0,0,-1,1119,1618,0,0
-98,-594,0,0,0,0,0,0,0,0,0,-1,1126,1618,0,0
-91,-594,0,0,0,0,0,0,0,0,0,-1,1133,1618,0,0
-84,-594,0,0,0,0,0,0,0,0,0,-1,1140,1618,0,0
-77,-594,0,0,0,0,0,0,0,0,0,-1,1147,1618,0,0
-70,-594,0,0,0,0,0,0,0,0,0,-1,1154,1618,0,0
-63,-594,0,0,0,0,0,0,0,0,0,-1,1161,1618,0,0
-56,-594,0,0,0,0,0,0,0,0,0,-1,1168,1618,0,0
-49,-594,0,0,0,0,0,0,0,0,0,-1,1175,1618,0,0
-42,-594,0,0,0,0,0,0,0,0,0,-1,1182,1618,0,0
-35,-594,0,0,0,0,0,0,0,0,0,-1,1189,1618,0,0
-28,-594,0,0,0,0,0,0,0,0,0,-1,1196,1618,0,0
-21,-594,0,0,0,0,0,0,0,0,0,-1,1203,1618,0,0
-14,-594,0,0,0,0,0,0,0,0,0,-1,1210,1618,0,0
-7,-594,0,0,0,0,0,0,0,0,0,-1,1217,1618,0,0
0,-594,0,0,0,0,0,0,0,0,0,-1,1224,1618,0,0
7,-594,0,0,0,0,0,0,0,0,0,-1,1231,1618,0,0
14,-594,0,0,0,0,0,0,0,0,0,-1,1238,1618,0,0
21,-594,0,0,0,0,0,0,0,0,0,-1,1245,1618,0,0
28,-594,0,0,0,0,0,0,0,0,0,-1,1252,1618,0,0
35,-594,0,0,0,0,0,0,0,0,0,-1,1259,1618,0,0
42,-594,0,0,0,0,0,0,0,0,0,-1,1266,1618,0,0
49,-594,0,0,0,0,0,0,0,0,0,-1,1273,1618,0,0
56,-594,0,0,0,0,0,0,0,0,0,-1,1280,1618,0,0
63,-594,0,0,0,0,0,0,0,0,0,-1,1287,1618,0,0
70,-594,0,0,0,0,0,0,0,0,0,-1,1294,1618,0,0
77,-594,0,0,0,0,0,0,0,0,0,-1,1301,1618,0,0
84,-594,0,0,0,0,0,0,0,0,0,-1,1308,1618,0,0
91,-594,0,0,0,0,0,0,0,0,0,-1,1315,1618,0,0
98,-594,0,0,0,0,0,0,0,0,0,-1,1322,1618,0,0
105,-594,0,0,0,0,0,0,0,0,0,-1,1329,1618,0,0
112,-594,0,0,0,0,0,0,0,0,0,-1,1336,1618,0,0
119,-594,0,0,0,0,0,0,0,0,0,-1,1343,1618,0,0
126,-594,0,0,0,0,0,0,0,0,0,-1,1350,1618,0,0
133,-594,0,0,0,0,0,0,0,0,0,-1,1357,1618,0,0
140,-594,0,0,0,0,0,0,0,0,0,-1,1364,1618,0,0
147,-594,0,0,0,0,0,0,0,0,0,-1,1371,1618,0,0
154,-594,0,0,0,0,0,0,0,0,0,-1,1378,1618,0,0
161,-594,0,0,0,0,0,0,0,0,0,-1,1385,1618,0,0
168,-594,0,0,0,0,0,0,0,0,0,-1,1392,1618,0,0
175,-594,0,0,0,0,0,0,0,0,0,-1,1399,1618,0,0
182,-594,0,0,0,0,0,0,0,0,0,-1,1406,1618,0,0
189,-594,0,0,0,0,0,0,0,0,0,-1,1413,1618,0,0
196,-594,0,0,0,0,0,0,0,0,0,-1,1420,1618,0,0
203,-594,0,0,0,0,0,0,0,0,0,-1,1427,1618,0,0
210,-594,0,0,0,0,0,0,0,0,0,-1,1434,1618,0,0
217,-594,0,0,0,0,0,0,0,0,0,-1,1441,1618,0,0
224,-594,0,0,0,0,0,0,0,0,0,-1,1448,1618,0,0
231,-594,0,0,0,0,0,0,0,0,0,-1,1455,1618,0,0
238,-594,0,0,0,0,0,0,0,0,0,-1,1462,1618,0,0
245,-594,0,0,0,0,0,0,0,0,0,-1,1469,1618,0,0
252,-594,3.03674,1.20996,0,0,0,0,0,0,0,-1,1476,1618,3.0368,-1.20999
259,-594,4.79834,1.53113,0,0,0,0,0,0,0,-1,1483,1618,4.79837,-1.53118
266,-594,3.71606,2.68152,0,0,0,0,0,0,0,-1,1490,1618,3.71609,-2.68149
273,-594,9.7655,6.33557,0,0,0,0,0,0,0,-1,1497,1618,9.76555,-6.33554
280,-594,3.13281,0.911255,0,0,0,0,0,0,0,-1,1504,1618,3.13277,-0.911207
287,-594,4.42749,1.51563,0,0,0,0,0,0,0,-1,1511,1618,4.42747,-1.51564
294,-594,5.36475,3.34937,0,0,0,0,0,0,0,-1,1518,1618,5.36475,-3.3494
301,-594,7.97144,9.04333,0,0,0,0,0,0,0,-1,1525,1618,7.9714,-9.04328
308,-594,6.30347,10.4633,0,0,0,0,0,0,0,-1,1532,1618,6.30351,-10.4633
315,-594,4.62012,11.934,0,0,0,0,0,0,0,-1,1539,1618,4.62006,-11.934
322,-594,2.91528,13.3134,0,0,0,0,0,0,0,-1,1546,1618,2.91523,-13.3133
329,-594,4.19861,9.77258,0,0,0,0,0,0,0,-1,1553,1618,4.19865,-9.77264
336,-594,10.1353,4.66528,0,0,0,0,0,0,0,-1,1560,1618,10.1353,-4.66533
343,-594,14.5114,50.6094,0,0,0,0,0,0,0,-1,1567,1618,14.5113,-50.6094
350,-594,14.7461,50.5212,0,0,0,0,0,0,0,-1,1574,1618,14.7461,-50.5212
357,-594,15.3923,50.8424,0,0,0,0,0,0,0,-1,1581,1618,15.3923,-50.8425
364,-594,16.5811,50.6284,0,0,0,0,0,0,0,-1,1588,1618,16.5811,-50.6285
371,-594,17.3535,49.9843,0.0480098,0.0702723,-0.00111824,0.0703283,0.0479538,-1.52073,0.0414896,0.0472715,1595,1618,17.3536,-49.9843
378,-594,17.8276,49.5043,0.0429454,0.0579068,-0.0059202,0.059966,0.0408862,-1.23606,0.0353762,0.049509,1602,1618,17.8276,-49.5043
385,-594,17.785,49.1276,0.0367014,0.0474547,-0.00816991,0.0518584,0.0322977,-1.07642,0.03024,0.0449309,1609,1618,17.785,-49.1276
392,-594,18.2784,48.3981,0.0302253,0.0383357,-0.00888807,0.0440499,0.024511,-0.999418,0.0254862,0.0458029,1616,1618,18.2784,-48.3981
399,-594,18.8463,47.5054,0.0241227,0.0311867,-0.00870378,0.0370478,0.0182616,-0.978147,0.0213903,0.043725,1623,1618,18.8463,-47.5053
406,-594,18.8639,46.7554,0.0188624,0.0242602,-0.00990429,0.0318268,0.0112959,-0.918418,0.0186313,0.0261369,1630,1618,18.8638,-46.7554
413,-594,18.7983,46.0665,0.0142121,0.0202431,-0.00834923,0.0261047,0.00835051,-0.958695,0.0153941,0.0177952,1637,1618,18.7983,-46.0665
420,-594,18.7745,45.422,0.0105001,0.0168289,-0.00701563,0.0213608,0.00596824,-0.997262,0.0127265,0.0160443,1644,1618,18.7745,-45.422
427,-594,18.7832,44.7416,0.00691699,0.0125702,-0.00554756,0.0159697,0.00351743,-1.02102,0.00968923,0.0138657,1651,1618,18.7832,-44.7415
434,-594,18.741,44.0575,0.00446516,0.010682,-0.00467719,0.0131895,0.00195767,-1.07868,0.00821851,0.0196592,1658,1618,18.741,-44.0575
441,-594,18.7086,43.3545,0.0033539,0.00910005,-0.00392985,0.0110951,0.00135889,-1.10104,0.00698792,0.0185654,1665,1618,18.7086,-43.3545
448,-594,18.7167,42.6531,0.00252223,0.0076452,-0.00348514,0.00940892,0.00075851,-1.10231,0.00603569,0.0183397,1672,1618,18.7167,-42.6531
455,-594,18.6682,41.9504,0.0021552,0.00630826,-0.00328954,0.00812185,0.000341604,-1.06694,0.00530437,0.0128982,1679,1618,18.6682,-41.9504
462,-594,18.6537,41.2535,0.00216278,0.00492921,-0.00305542,0.00689992,0.000192061,-0.99795,0.00453728,0.0141563,1686,1618,18.6537,-41.2536
469,-594,18.6117,40.5896,0.00202773,0.00359449,-0.00275722,0.00567745,-5.52344e-05,-0.923811,0.00380351,0.013221,1693,1618,18.6117,-40.5896
476,-594,18.5774,39.9021,0.00169485,0.00249273,-0.00241512,0.00454163,-0.000354058,-0.867251,0.00315241,0.0131644,1700,1618,18.5774,-39.9021
483,-594,18.5704,39.1898,0.00121663,0.00135018,-0.00207372,0.0033582,-0.000791394,-0.801493,0.00254397,0.0157428,1707,1618,18.5704,-39.1898
490,-594,18.5084,38.463,0.000571546,0.000432545,-0.00173639,0.00223983,-0.00123574,-0.765396,0.00203434,0.014355,1714,1618,18.5084,-38.463
497,-594,18.4651,37.7485,-0.000208491,-0.000191595,-0.00148156,0.00128155,-0.00168163,-0.788249,0.00171598,0.010513,1721,1618,18.4651,-37.7485
504,-594,18.4357,37.0422,-0.00109555,-0.000730604,-0.00126414,0.000364167,-0.00219032,-0.857075,0.00159551,0.0105665,1728,1618,18.4356,-37.0423
511,-594,18.4023,36.3,-0.00204832,-0.00106817,-0.00108171,-0.000370697,-0.00274579,-0.998095,0.00172032,0.0175892,1735,1618,18.4024,-36.3
518,-594,18.3029,35.554,-0.00308219,-0.00113324,-0.00103565,-0.000685689,-0.00352975,-1.16289,0.00216117,0.0248917,1742,1618,18.3028,-35.554
525,-594,18.1697,34.7737,-0.00424311,-0.00150277,-0.000836451,-0.00126763,-0.00447825,-1.29675,0.0026654,0.0383651,1749,1618,18.1697,-34.7737
532,-594,18.1322,34.0342,0,0,0,0,0,0,0,-1,1756,1618,18.1322,-34.0342
539,-594,21.0237,24.9617,0,0,0,0,0,0,0,-1,1763,1618,21.0237,-24.9616
546,-594,7.48645,8.54785,0,0,0,0,0,0,0,-1,1770,1618,7.48639,-8.54789
553,-594,3.69714,5.68762,0,0,0,0,0,0,0,-1,1777,1618,3.69715,-5.68764
560,-594,6.06616,4.44482,0,0,0,0,0,0,0,-1,1784,1618,6.06621,-4.44477
567,-594,5.97266,4.73303,0,0,0,0,0,0,0,-1,1791,1618,5.97271,-4.73309
574,-594,5.9906,4.96326,0,0,0,0,0,0,0,-1,1798,1618,5.99065,-4.96326
581,-594,0,0,0,0,0,0,0,0,0,-1,1805,1618,0,0
588,-594,0,0,0,0,0,0,0,0,0,-1,1812,1618,0,0
595,-594,0,0,0,0,0,0,0,0,0,-1,1819,1618,0,0
602,-594,0,0,0,0,0,0,0,0,0,-1,1826,1618,0,0
609,-594,0,0,0,0,0,0,0,0,0,-1,1833,1618,0,0
616,-594,0,0,0,0,0,0,0,0,0,-1,1840,1618,0,0
623,-594,0,0,0,0,0,0,0,0,0,-1,1847,1618,0,0
630,-594,0,0,0,0,0,0,0,0,0,-1,1854,1618,0,0
637,-594,0,0,0,0,0,0,0,0,0,-1,1861,1618,0,0
644,-594,0,0,0,0,0,0,0,0,0,-1,1868,1618,0,0
651,-594,0,0,0,0,0,0,0,0,0,-1,1875,1618,0,0
658,-594,0,0,0,0,0,0,0,0,0,-1,1882,1618,0,0
665,-594,0,0,0,0,0,0,0,0,0,-1,1889,1618,0,0
672,-594,0,0,0,0,0,0,0,0,0,-1,1896,1618,0,0
679,-594,0,0,0,0,0,0,0,0,0,-1,1903,1618,0,0
686,-594,0,0,0,0,0,0,0,0,0,-1,1910,1618,0,0
693,-594,0,0,0,0,0,0,0,0,0,-1,1917,1618,0,0
700,-594,0,0,0,0,0,0,0,0,0,-1,1924,1618,0,0
707,-594,0,0,0,0,0,0,0,0,0,-1,1931,1618,0,0
714,-594,0,0,0,0,0,0,0,0,0,-1,1938,1618,0,0
721,-594,0,0,0,0,0,0,0,0,0,-1,1945,1618,0,0
728,-594,0,0,0,0,0,0,0,0,0,-1,1952,1618,0,0
735,-594,0,0,0,0,0,0,0,0,0,-1,1959,1618,0,0
742,-594,0,0,0,0,0,0,0,0,0,-1,1966,1618,0,0
749,-594,0,0,0,0,0,0,0,0,0,-1,1973,1618,0,0
756,-594,0,0,0,0,0,0,0,0,0,-1,1980,1618,0,0
763,-594,0,0,0,0,0,0,0,0,0,-1,1987,1618,0,0
770,-594,0,0,0,0,0,0,0,0,0,-1,1994,1618,0,0
777,-594,0,0,0,0,0,0,0,0,0,-1,2001,1618,0,0
784,-594,0,0,0,0,0,0,0,0,0,-1,2008,1618,0,0
791,-594,0,0,0,0,0,0,0,0,0,-1,2015,1618,0,0
798,-594,0,0,0,0,0,0,0,0,0,-1,2022,1618,0,0
805,-594,0,0,0,0,0,0,0,0,0,-1,2029,1618,0,0
812,-594,0,0,0,0,0,0,0,0,0,-1,2036,1618,0,0
-700,-601,0,0,0,0,0,0,0,0,0,-1,524,1625,0,0
-693,-601,0,0,0,0,0,0,0,0,0,-1,531,1625,0,0
-686,-601,0,0,0,0,0,0,0,0,0,-1,538,1625,0,0
-679,-601,0,0,0,0,0,0,0,0,0,-1,545,1625,0,0
-672,-601,0,0,0,0,0,0,0,0,0,-1,552,1625,0,0
-665,-601,0,0,0,0,0,0,0,0,0,-1,559,1625,0,0
-658,-601,0,0,0,0,0,0,0,0,0,-1,566,1625,0,0
-651,-601,0,0,0,0,0,0,0,0,0,-1,573,1625,0,0
-644,-601,0,0,0,0,0,0,0,0,0,-1,580,1625,0,0
-637,-601,0,0,0,0,0,0,0,0,0,-1,587,1625,0,0
-630,-601,0,0,0,0,0,0,0,0,0,-1,594,1625,0,0
-623,-601,0,0,0,0,0,0,0,0,0,-1,601,1625,0,0
-616,-601,0,0,0,0,0,0,0,0,0,-1,608,1625,0,0
-609,-601,0,0,0,0,0,0,0,0,0,-1,615,1625,0,0
-602,-601,0,0,0,0,0,0,0,0,0,-1,622,1625,0,0
-595,-601,0,0,0,0,0,0,0,0,0,-1,629,1625,0,0
-588,-601,0,0,0,0,0,0,0,0,0,-1,636,1625,0,0
-581,-601,0,0,0,0,0,0,0,0,0,-1,643,1625,0,0
-574,-601,0,0,0,0,0,0,0,0,0,-1,650,1625,0,0
-567,-601,0,0,0,0,0,0,0,0,0,-1,657,1625,0,0
-560,-601,0,0,0,0,0,0,0,0,0,-1,664,1625,0,0
-553,-601,0,0,0,0,0,0,0,0,0,-1,671,1625,0,0
-546,-601,0,0,0,0,0,0,0,0,0,-1,678,1625,0,0
-539,-601,0,0,0,0,0,0,0,0,0,-1,685,1625,0,0
-532,-601,0,0,0,0,0,0,0,0,0,-1,692,1625,0,0
-525,-601,0,0,0,0,0,0,0,0,0,-1,699,1625,0,0
-518,-601,0,0,0,0,0,0,0,0,0,-1,706,1625,0,0
-511,-601,0,0,0,0,0,0,0,0,0,-1,713,1625,0,0
-504,-601,0,0,0,0,0,0,0,0,0,-1,720,1625,0,0
-497,-601,0,0,0,0,0,0,0,0,0,-1,727,1625,0,0
-490,-601,0,0,0,0,0,0,0,0,0,-1,734,1625,0,0
-483,-601,0,0,0,0,0,0,0,0,0,-1,741,1625,0,0
-476,-601,0,0,0,0,0,0,0,0,0,-1,748,1625,0,0
-469,-601,0,0,0,0,0,0,0,0,0,-1,755,1625,0,0
-462,-601,0,0,0,0,0,0,0,0,0,-1,762,1625,0,0
-455,-601,0,0,0,0,0,0,0,0,0,-1,769,1625,0,0
-448,-601,-7.07623,2.7616,0,0,0,0,0,0,0,-1,776,1625,-7.07626,-2.76161
-441,-601,-6.06689,3.33447,0,0,0,0,0,0,0,-1,783,1625,-6.06691,-3.33448
-434,-601,-5.02655,3.8468,0,0,0,0,0,0,0,-1,790,1625,-5.02657,-3.84674
-427,-601,-5.78601,4.2406,0,0,0,0,0,0,0,-1,797,1625,-5.786,-4.24058
-420,-601,-5.5191,5.60364,0,0,0,0,0,0,0,-1,804,1625,-5.51907,-5.60368
-413,-601,-4.30756,5.86047,0,0,0,0,0,0,0,-1,811,1625,-4.30757,-5.86046
-406,-601,-1.67493,7.20422,0,0,0,0,0,0,0,-1,818,1625,-1.67493,-7.20428
-399,-601,1.40094,15.3108,0,0,0,0,0,0,0,-1,825,1625,1.40096,-15.3107
-392,-601,0.678833,30.98,0,0,0,0,0,0,0,-1,832,1625,0.678827,-30.98
-385,-601,0.458252,35.7987,0,0,0,0,0,0,0,-1,839,1625,0.458228,-35.7988
-378,-601,0.0722046,36.6842,0.000642719,-0.00381557,0.00100825,0.000860135,-0.00403298,0.212385,0.00301652,0.0492327,846,1625,0.0721906,-36.6842
-371,-601,0.0603027,37.33,0.000678041,-0.00341531,0.000876403,0.000857789,-0.00359506,0.202293,0.00272796,0.0252987,853,1625,0.0602972,-37.3299
-364,-601,0.0396729,38.1176,0.000774849,-0.00311742,0.000790746,0.000929361,-0.00327193,0.19297,0.00254821,0.013623,860,1625,0.0396854,-38.1175
-357,-601,-0.024231,38.8795,0.00106264,-0.0026673,0.000820428,0.00123512,-0.00283979,0.207218,0.00241269,0.0108432,867,1625,-0.0242565,-38.8795
-350,-601,-0.0570679,39.6709,0.00139994,-0.00212299,0.000903666,0.00161821,-0.00234127,0.237004,0.00229868,0.023156,874,1625,-0.0570395,-39.6709
-343,-601,-0.126892,40.4423,0.00176142,-0.00143624,0.00104187,0.00207092,-0.00174575,0.288765,0.00220622,0.0265904,881,1625,-0.126892,-40.4423
-336,-601,-0.216309,41.1315,0.00212091,-0.00065205,0.00124604,0.00259855,-0.00112969,0.366049,0.00220748,0.0237508,888,1625,-0.216317,-41.1314
-329,-601,-0.213806,41.809,0.00253651,0.000386987,0.00158649,0.00337802,-0.000454518,0.487684,0.0024178,0.0197345,895,1625,-0.213819,-41.8089
-322,-601,-0.207764,42.4935,0.00307541,0.00143323,0.00202225,0.00443691,7.173e-05,0.592552,0.00293432,0.0146995,902,1625,-0.207753,-42.4936
-315,-601,-0.202332,43.1561,0.00362993,0.00250965,0.00262701,0.00575585,0.00038373,0.68036,0.00371594,0.0145299,909,1625,-0.202309,-43.1561
-308,-601,-0.244019,43.8356,0.00415921,0.0039487,0.00334522,0.00740082,0.000707081,0.769671,0.00471589,0.013115,916,1625,-0.244005,-43.8356
-301,-601,-0.271179,44.5469,0.00496959,0.00554466,0.00426814,0.00953494,0.000979308,0.819031,0.00605664,0.0109023,923,1625,-0.271209,-44.5469
-294,-601,-0.299683,45.2454,0.00582581,0.0074914,0.00540364,0.012126,0.00119117,0.861855,0.00771768,0.010888,930,1625,-0.299685,-45.2453
-287,-601,-0.350647,45.9355,0.00675488,0.00964103,0.0066956,0.0150473,0.00134861,0.891538,0.00961359,0.0113281,937,1625,-0.350658,-45.9355
-280,-601,-0.352051,46.6268,0.00780413,0.011886,0.00818185,0.0182776,0.00141249,0.907626,0.0117426,0.012856,944,1625,-0.352055,-46.6269
-273,-601,-0.353394,47.3151,0.00890329,0.0143151,0.00970851,0.0216877,0.00153065,0.921306,0.0139762,0.0133505,951,1625,-0.35341,-47.315
-266,-601,-0.305054,47.9958,0.0099706,0.0165496,0.0113978,0.0251232,0.00139708,0.925885,0.016303,0.0160738,958,1625,-0.305035,-47.9959
-259,-601,-0.276306,48.5918,0.0110911,0.0188552,0.0131256,0.0286608,0.00128546,0.92918,0.0186935,0.0272192,965,1625,-0.276319,-48.5918
-252,-601,-0.192322,49.5497,0.0125179,0.0209983,0.0148681,0.0322189,0.00129722,0.924304,0.0210602,0.0473973,972,1625,-0.192342,-49.5496
-245,-601,-0.130737,50.5314,0,0,0,0,0,0,0,-1,979,1625,-0.13076,-50.5313
-238,-601,2.75482,35.777,0,0,0,0,0,0,0,-1,986,1625,2.75481,-35.777
-231,-601,2.66772,13.7051,0,0,0,0,0,0,0,-1,993,1625,2.6677,-13.7051
-224,-601,-0.0305176,9.13684,0,0,0,0,0,0,0,-1,1000,1625,-0.030498,-9.13681
-217,-601,3.39429,10.3898,0,0,0,0,0,0,0,-1,1007,1625,3.39431,-10.3898
-210,-601,-6.53699,15.7931,0,0,0,0,0,0,0,-1,1014,1625,-6.53697,-15.7931
-203,-601,2.69348,15.9099,0,0,0,0,0,0,0,-1,1021,1625,2.69351,-15.91
-196,-601,2.66992,16.1815,0,0,0,0,0,0,0,-1,1028,1625,2.66995,-16.1815
-189,-601,2.849,16.6105,0,0,0,0,0,0,0,-1,1035,1625,2.84902,-16.6104
-182,-601,1.82153,13.9752,0,0,0,0,0,0,0,-1,1042,1625,1.82155,-13.9752
-175,-601,0.544922,9.28687,0,0,0,0,0,0,0,-1,1049,1625,0.544879,-9.28685
-168,-601,-0.247559,8.97461,0,0,0,0,0,0,0,-1,1056,1625,-0.247598,-8.97466
-161,-601,-1.16833,8.80078,0,0,0,0,0,0,0,-1,1063,1625,-1.16837,-8.80081
-154,-601,1.12756,7.94861,0,0,0,0,0,0,0,-1,1070,1625,1.12762,-7.94855
-147,-601,1.35352,9.55432,0,0,0,0,0,0,0,-1,1077,1625,1.35351,-9.55429
-140,-601,1.72437,11.1498,0,0,0,0,0,0,0,-1,1084,1625,1.72432,-11.1498
-133,-601,2.13281,12.8347,0,0,0,0,0,0,0,-1,1091,1625,2.13287,-12.8348
-126,-601,3.09534,15.427,0,0,0,0,0,0,0,-1,1098,1625,3.0953,-15.4271
-119,-601,1.22485,9.43457,0,0,0,0,0,0,0,-1,1105,1625,1.22489,-9.43456
-112,-601,0,0,0,0,0,0,0,0,0,-1,1112,1625,0,0
-105,-601,0,0,0,0,0,0,0,0,0,-1,1119,1625,0,0
-98,-601,0,0,0,0,0,0,0,0,0,-1,1126,1625,0,0
-91,-601,0,0,0,0,0,0,0,0,0,-1,1133,1625,0,0
-84,-601,0,0,0,0,0,0,0,0,0,-1,1140,1625,0,0
-77,-601,0,0,0,0,0,0,0,0,0,-1,1147,1625,0,0
-70,-601,0,0,0,0,0,0,0,0,0,-1,1154,1625,0,0
-63,-601,0,0,0,0,0,0,0,0,0,-1,1161,1625,0,0
-56,-601,0,0,0,0,0,0,0,0,0,-1,1168,1625,0,0
-49,-601,0,0,0,0,0,0,0,0,0,-1,1175,1625,0,0
-42,-601,0,0,0,0,0,0,0,0,0,-1,1182,1625,0,0
-35,-601,0,0,0,0,0,0,0,0,0,-1,1189,1625,0,0
-28,-601,0,0,0,0,0,0,0,0,0,-1,1196,1625,0,0
-21,-601,0,0,0,0,0,0,0,0,0,-1,1203,1625,0,0
-14,-601,0,0,0,0,0,0,0,0,0,-1,1210,1625,0,0
-7,-601,0,0,0,0,0,0,0,0,0,-1,1217,1625,0,0
0,-601,0,0,0,0,0,0,0,0,0,-1,1224,1625,0,0
7,-601,0,0,0,0,0,0,0,0,0,-1,1231,1625,0,0
14,-601,0,0,0,0,0,0,0,0,0,-1,1238,1625,0,0
21,-601,0,0,0,0,0,0,0,0,0,-1,1245,1625,0,0
28,-601,0,0,0,0,0,0,0,0,0,-1,1252,1625,0,0
35,-601,0,0,0,0,0,0,0,0,0,-1,1259,1625,0,0
42,-601,0,0,0,0,0,0,0,0,0,-1,1266,1625,0,0
49,-601,0,0,0,0,0,0,0,0,0,-1,1273,1625,0,0
56,-601,0,0,0,0,0,0,0,0,0,-1,1280,1625,0,0
63,-601,0,0,0,0,0,0,0,0,0,-1,1287,1625,0,0
70,-601,0,0,0,0,0,0,0,0,0,-1,1294,1625,0,0
77,-601,0,0,0,0,0,0,0,0,0,-1,1301,1625,0,0
84,-601,0,0,0,0,0,0,0,0,0,-1,1308,1625,0,0
91,-601,0,0,0,0,0,0,0,0,0,-1,1315,1625,0,0
98,-601,0,0,0,0,0,0,0,0,0,-1,1322,1625,0,0
105,-601,0,0,0,0,0,0,0,0,0,-1,1329,1625,0,0
112,-601,0,0,0,0,0,0,0,0,0,-1,1336,1625,0,0
119,-601,0,0,0,0,0,0,0,0,0,-1,1343,1625,0,0
126,-601,0,0,0,0,0,0,0,0,0,-1,1350,1625,0,0
133,-601,0,0,0,0,0,0,0,0,0,-1,1357,1625,0,0
140,-601,0,0,0,0,0,0,0,0,0,-1,1364,1625,0,0
147,-601,0,0,0,0,0,0,0,0,0,-1,1371,1625,0,0
154,-601,0,0,0,0,0,0,0,0,0,-1,1378,1625,0,0
161,-601,0,0,0,0,0,0,0,0,0,-1,1385,1625,0,0
168,-601,0,0,0,0,0,0,0,0,0,-1,1392,1625,0,0
175,-601,0,0,0,0,0,0,0,0,0,-1,1399,1625,0,0
182,-601,0,0,0,0,0,0,0,0,0,-1,1406,1625,0,0
189,-601,0,0,0,0,0,0,0,0,0,-1,1413,1625,0,0
196,-601,0,0,0,0,0,0,0,0,0,-1,1420,1625,0,0
203,-601,0,0,0,0,0,0,0,0,0,-1,1427,1625,0,0
210,-601,0,0,0,0,0,0,0,0,0,-1,1434,1625,0,0
217,-601,0,0,0,0,0,0,0,0,0,-1,1441,1625,0,0
224,-601,0,0,0,0,0,0,0,0,0,-1,1448,1625,0,0
231,-601,-0.0371094,0.525879,0,0,0,0,0,0,0,-1,1455,1625,-0.0371518,-0.525824
238,-601,2.03369,-1.32861,0,0,0,0,0,0,0,-1,1462,1625,2.03364,1.32858
245,-601,2.71375,2.44983,0,0,0,0,0,0,0,-1,1469,1625,2.71371,-2.44979
252,-601,4.66943,2.28381,0,0,0,0,0,0,0,-1,1476,1625,4.66947,-2.28376
259,-601,6.42712,2.61987,0,0,0,0,0,0,0,-1,1483,1625,6.42711,-2.61985
266,-601,6.75317,1.68701,0,0,0,0,0,0,0,-1,1490,1625,6.75323,-1.687
273,-601,5.4314,2.92053,0,0,0,0,0,0,0,-1,1497,1625,5.43144,-2.92051
280,-601,4.64722,1.17786,0,0,0,0,0,0,0,-1,1504,1625,4.64722,-1.1779
287,-601,5.32532,2.6217,0,0,0,0,0,0,0,-1,1511,1625,5.32535,-2.62171
294,-601,5.97693,4.22693,0,0,0,0,0,0,0,-1,1518,1625,5.97697,-4.22694
301,-601,7.28162,9.50024,0,0,0,0,0,0,0,-1,1525,1625,7.28162,-9.50025
308,-601,6.53528,10.3927,0,0,0,0,0,0,0,-1,1532,1625,6.53529,-10.3927
315,-601,4.88013,11.7184,0,0,0,0,0,0,0,-1,1539,1625,4.88015,-11.7184
322,-601,3.38098,12.7864,0,0,0,0,0,0,0,-1,1546,1625,3.38104,-12.7864
329,-601,1.8772,13.8768,0,0,0,0,0,0,0,-1,1553,1625,1.87716,-13.8768
336,-601,4.67847,9.53308,0,0,0,0,0,0,0,-1,1560,1625,4.67848,-9.53309
343,-601,11.1404,3.14575,0,0,0,0,0,0,0,-1,1567,1625,11.1404,-3.1458
350,-601,12.5974,49.7725,0,0,0,0,0,0,0,-1,1574,1625,12.5974,-49.7724
357,-601,10.7518,1.6095,0,0,0,0,0,0,0,-1,1581,1625,10.7518,-1.60948
364,-601,5.33643,9.74426,0,0,0,0,0,0,0,-1,1588,1625,5.33637,-9.74429
371,-601,17.2546,49.9281,0,0,0,0,0,0,0,-1,1595,1625,17.2546,-49.928
378,-601,17.4862,49.4208,0.0340031,0.0455879,-0.00792925,0.0496152,0.0299759,-1.10085,0.0288518,0.0454268,1602,1625,17.4862,-49.4208
385,-601,17.6544,48.9094,0.0291639,0.0373435,-0.00884111,0.0429949,0.0235125,-1.00203,0.0248595,0.0419183,1609,1625,17.6544,-48.9094
392,-601,17.8077,48.207,0.0241369,0.0300988,-0.0086679,0.0362841,0.0179517,-0.951016,0.020949,0.0380057,1616,1625,17.8077,-48.2071
399,-601,18.0557,47.4165,0.0193748,0.024333,-0.00796016,0.0301912,0.0135166,-0.936356,0.0174626,0.0212641,1623,1625,18.0557,-47.4165
406,-601,18.1454,46.7052,0.0152217,0.0188836,-0.00822961,0.0254835,0.00862186,-0.894857,0.0149671,0.0133541,1630,1625,18.1454,-46.7052
413,-601,18.1021,46.0537,0.01157,0.0154849,-0.00672902,0.0205354,0.00651947,-0.92694,0.0121166,0.0126837,1637,1625,18.1021,-46.0537
420,-601,18.093,45.363,0.00860444,0.012677,-0.0055006,0.0165061,0.00477532,-0.962673,0.0098078,0.0112904,1644,1625,18.093,-45.363
427,-601,18.0894,44.6965,0.00569052,0.00920853,-0.00415938,0.0119656,0.00293349,-0.985443,0.0072012,0.01535,1651,1625,18.0894,-44.6965
434,-601,18.0471,44.0078,0.00367143,0.00771444,-0.00343706,0.0096804,0.00170547,-1.05123,0.00596691,0.0168474,1658,1625,18.0472,-44.0078
441,-601,18.0585,43.3341,0.00270761,0.00643233,-0.00290476,0.00802048,0.00111946,-1.07046,0.00501565,0.0182499,1665,1625,18.0585,-43.3341
448,-601,18.0594,42.6708,0.00204728,0.0052723,-0.00264424,0.00675692,0.000562663,-1.0592,0.00432926,0.0152433,1672,1625,18.0595,-42.6708
455,-601,18.0177,41.9799,0.00176092,0.00421802,-0.00258231,0.00584913,0.000129804,-1.00743,0.00385688,0.0141337,1679,1625,18.0177,-41.9799
462,-601,17.9561,41.2888,0.0017371,0.0030915,-0.00248026,0.00498535,-0.00015675,-0.918668,0.00337703,0.0131408,1686,1625,17.956,-41.2889
469,-601,17.9246,40.6376,0.0015924,0.00199862,-0.00233578,0.0041401,-0.00054908,-0.828767,0.00296012,0.0127592,1693,1625,17.9245,-40.6376
476,-601,17.8864,39.9402,0.00130128,0.00115058,-0.00214008,0.00336734,-0.00091548,-0.767802,0.00260425,0.0140285,1700,1625,17.8863,-39.9402
483,-601,17.8535,39.2219,0.000877821,0.000224135,-0.00196969,0.0025476,-0.00144565,-0.703179,0.00233458,0.0156192,1707,1625,17.8535,-39.2219
490,-601,17.8008,38.5209,0.000222655,-0.000415402,-0.00179359,0.00172537,-0.00191812,-0.697383,0.00210455,0.0133618,1714,1625,17.8008,-38.5208
497,-601,17.7797,37.7965,-0.000533127,-0.000883584,-0.00170167,0.00100231,-0.00241902,-0.734092,0.00203097,0.0128128,1721,1625,17.7797,-37.7965
504,-601,17.8105,37.0596,-0.00135467,-0.00112611,-0.00172972,0.000493098,-0.00297388,-0.818384,0.00216575,0.025459,1728,1625,17.8106,-37.0595
511,-601,17.6857,36.441,-0.00236418,-0.00124847,-0.00169977,-1.73528e-05,-0.0035953,-0.943957,0.00239111,0.0415401,1735,1625,17.6856,-36.4411
518,-601,17.5521,35.6677,-0.00357164,-0.0010826,-0.00179395,-0.000143752,-0.00451049,-1.08865,0.00296024,0.047819,1742,1625,17.5521,-35.6678
525,-601,17.2389,34.543,0,0,0,0,0,0,0,-1,1749,1625,17.2389,-34.543
532,-601,15.9053,24.3068,0,0,0,0,0,0,0,-1,1756,1625,15.9053,-24.3067
539,-601,7.77112,11.4299,0,0,0,0,0,0,0,-1,1763,1625,7.77116,-11.4299
546,-601,6.56873,3.62354,0,0,0,0,0,0,0,-1,1770,1625,6.56867,-3.62352
553,-601,7.03015,4.25049,0,0,0,0,0,0,0,-1,1777,1625,7.03011,-4.25048
560,-601,7.50745,4.83374,0,0,0,0,0,0,0,-1,1784,1625,7.50744,-4.83376
567,-601,7.82043,3.83301,0,0,0,0,0,0,0,-1,1791,1625,7.82041,-3.83303
574,-601,0,0,0,0,0,0,0,0,0,-1,1798,1625,0,0
581,-601,0,0,0,0,0,0,0,0,0,-1,1805,1625,0,0
588,-601,0,0,0,0,0,0,0,0,0,-1,1812,1625,0,0
595,-601,0,0,0,0,0,0,0,0,0,-1,1819,1625,0,0
602,-601,0,0,0,0,0,0,0,0,0,-1,1826,1625,0,0
609,-601,0,0,0,0,0,0,0,0,0,-1,1833,1625,0,0
616,-601,0,0,0,0,0,0,0,0,0,-1,1840,1625,0,0
623,-601,0,0,0,0,0,0,0,0,0,-1,1847,1625,0,0
630,-601,0,0,0,0,0,0,0,0,0,-1,1854,1625,0,0
637,-601,0,0,0,0,0,0,0,0,0,-1,1861,1625,0,0
644,-601,0,0,0,0,0,0,0,0,0,-1,1868,1625,0,0
651,-601,0,0,0,0,0,0,0,0,0,-1,1875,1625,0,0
658,-601,0,0,0,0,0,0,0,0,0,-1,1882,1625,0,0
665,-601,0,0,0,0,0,0,0,0,0,-1,1889,1625,0,0
672,-601,0,0,0,0,0,0,0,0,0,-1,1896,1625,0,0
679,-601,0,0,0,0,0,0,0,0,0,-1,1903,1625,0,0
686,-601,0,0,0,0,0,0,0,0,0,-1,1910,1625,0,0
693,-601,0,0,0,0,0,0,0,0,0,-1,1917,1625,0,0
700,-601,0,0,0,0,0,0,0,0,0,-1,1924,1625,0,0
707,-601,0,0,0,0,0,0,0,0,0,-1,1931,1625,0,0
714,-601,0,0,0,0,0,0,0,0,0,-1,1938,1625,0,0
721,-601,0,0,0,0,0,0,0,0,0,-1,1945,1625,0,0
728,-601,0,0,0,0,0,0,0,0,0,-1,1952,1625,0,0
735,-601,0,0,0,0,0,0,0,0,0,-1,1959,1625,0,0
742,-601,0,0,0,0,0,0,0,0,0,-1,1966,1625,0,0
749,-601,0,0,0,0,0,0,0,0,0,-1,1973,1625,0,0
756,-601,0,0,0,0,0,0,0,0,0,-1,1980,1625,0,0
763,-601,0,0,0,0,0,0,0,0,0,-1,1987,1625,0,0
770,-601,0,0,0,0,0,0,0,0,0,-1,1994,1625,0,0
777,-601,0,0,0,0,0,0,0,0,0,-1,2001,1625,0,0
784,-601,0,0,0,0,0,0,0,0,0,-1,2008,1625,0,0
791,-601,0,0,0,0,0,0,0,0,0,-1,2015,1625,0,0
798,-601,0,0,0,0,0,0,0,0,0,-1,2022,1625,0,0
805,-601,0,0,0,0,0,0,0,0,0,-1,2029,1625,0,0
812,-601,0,0,0,0,0,0,0,0,0,-1,2036,1625,0,0
-700,-608,0,0,0,0,0,0,0,0,0,-1,524,1632,0,0
-693,-608,0,0,0,0,0,0,0,0,0,-1,531,1632,0,0
-686,-608,0,0,0,0,0,0,0,0,0,-1,538,1632,0,0
-679,-608,0,0,0,0,0,0,0,0,0,-1,545,1632,0,0
-672,-608,0,0,0,0,0,0,0,0,0,-1,552,1632,0,0
-665,-608,0,0,0,0,0,0,0,0,0,-1,559,1632,0,0
-658,-608,0,0,0,0,0,0,0,0,0,-1,566,1632,0,0
-651,-608,0,0,0,0,0,0,0,0,0,-1,573,1632,0,0
-644,-608,0,0,0,0,0,0,0,0,0,-1,580,1632,0,0
-637,-608,0,0,0,0,0,0,0,0,0,-1,587,1632,0,0
-630,-608,0,0,0,0,0,0,0,0,0,-1,594,1632,0,0
-623,-608,0,0,0,0,0,0,0,0,0,-1,601,1632,0,0
-616,-608,0,0,0,0,0,0,0,0,0,-1,608,1632,0,0
-609,-608,0,0,0,0,0,0,0,0,0,-1,615,1632,0,0
-602,-608,0,0,0,0,0,0,0,0,0,-1,622,1632,0,0
-595,-608,0,0,0,0,0,0,0,0,0,-1,629,1632,0,0
-588,-608,0,0,0,0,0,0,0,0,0,-1,636,1632,0,0
-581,-608,0,0,0,0,0,0,0,0,0,-1,643,1632,0,0
-574,-608,0,0,0,0,0,0,0,0,0,-1,650,1632,0,0
-567,-608,0,0,0,0,0,0,0,0,0,-1,657,1632,0,0
-560,-608,0,0,0,0,0,0,0,0,0,-1,664,1632,0,0
-553,-608,0,0,0,0,0,0,0,0,0,-1,671,1632,0,0
-546,-608,0,0,0,0,0,0,0,0,0,-1,678,1632,0,0
-539,-608,0,0,0,0,0,0,0,0,0,-1,685,1632,0,0
-532,-608,0,0,0,0,0,0,0,0,0,-1,692,1632,0,0
-525,-608,0,0,0,0,0,0,0,0,0,-1,699,1632,0,0
-518,-608,0,0,0,0,0,0,0,0,0,-1,706,1632,0,0
-511,-608,0,0,0,0,0,0,0,0,0,-1,713,1632,0,0
-504,-608,0,0,0,0,0,0,0,0,0,-1,720,1632,0,0
-497,-608,0,0,0,0,0,0,0,0,0,-1,727,1632,0,0
-490,-608,0,0,0,0,0,0,0,0,0,-1,734,1632,0,0
-483,-608,0,0,0,0,0,0,0,0,0,-1,741,1632,0,0
-476,-608,0,0,0,0,0,0,0,0,0,-1,748,1632,0,0
-469,-608,0,0,0,0,0,0,0,0,0,-1,755,1632,0,0
-462,-608,0,0,0,0,0,0,0,0,0,-1,762,1632,0,0
-455,-608,0,0,0,0,0,0,0,0,0,-1,769,1632,0,0
-448,-608,0,0,0,0,0,0,0,0,0,-1,776,1632,0,0
-441,-608,-7.34601,2.78052,0,0,0,0,0,0,0,-1,783,1632,-7.346,-2.78056
-434,-608,-6.34558,3.27405,0,0,0,0,0,0,0,-1,790,1632,-6.34555,-3.27406
-427,-608,-7.74335,4.17688,0,0,0,0,0,0,0,-1,797,1632,-7.74334,-4.17693
-420,-608,-6.82794,4.34839,0,0,0,0,0,0,0,-1,804,1632,-6.82794,-4.34838
-413,-608,-5.41919,5.66138,0,0,0,0,0,0,0,-1,811,1632,-5.41917,-5.66133
-406,-608,-4.79681,4.98999,0,0,0,0,0,0,0,-1,818,1632,-4.79684,-4.98997
-399,-608,-2.60645,6.34167,0,0,0,0,0,0,0,-1,825,1632,-2.60643,-6.34169
-392,-608,2.08356,15.437,0,0,0,0,0,0,0,-1,832,1632,2.08354,-15.437
-385,-608,1.51526,31.5153,0,0,0,0,0,0,0,-1,839,1632,1.51527,-31.5153
-378,-608,0.892761,36.6687,0,0,0,0,0,0,0,-1,846,1632,0.89276,-36.6687
-371,-608,0.8078,37.1182,0,0,0,0,0,0,0,-1,853,1632,0.807772,-37.1182
-364,-608,0.818481,38.0425,0.00125163,-0.00420205,0.00073414,0.00134873,-0.00429915,0.131496,0.00340588,0.0271596,860,1632,0.818467,-38.0424
-357,-608,0.690002,38.8412,0.00149033,-0.00384541,0.000775736,0.00160082,-0.0039559,0.141484,0.00330283,0.0188593,867,1632,0.690032,-38.8412
-350,-608,0.661926,39.6257,0.00171309,-0.0032943,0.00086529,0.0018584,-0.00343961,0.166377,0.00310388,0.0201069,874,1632,0.661921,-39.6257
-343,-608,0.615784,40.3962,0.00195226,-0.0026182,0.00098358,0.00215494,-0.00282088,0.203221,0.00288136,0.0276072,881,1632,0.615811,-40.3963
-336,-608,0.565857,41.1643,0.00216085,-0.00184785,0.0011232,0.0024541,-0.0021411,0.255389,0.00265509,0.0207264,888,1632,0.565882,-41.1643
-329,-608,0.496033,41.8827,0.00238968,-0.000866381,0.00136566,0.00288662,-0.00136332,0.348989,0.00250569,0.0193977,895,1632,0.496011,-41.8827
-322,-608,0.460876,42.5444,0.00268028,8.34081e-05,0.00166665,0.00349458,-0.000730896,0.454475,0.00260772,0.0187651,902,1632,0.460857,-42.5444
-315,-608,0.455261,43.184,0.00300733,0.00105758,0.00208507,0.00433417,-0.00026926,0.566721,0.00298326,0.0170888,909,1632,0.455255,-43.1839
-308,-608,0.404602,43.8934,0.00336404,0.00230079,0.00258532,0.00547184,0.000193001,0.683996,0.00358529,0.0169853,916,1632,0.404579,-43.8934
-301,-608,0.393616,44.6127,0.00393899,0.00367686,0.00325721,0.00706777,0.000548084,0.76529,0.00454019,0.0120071,923,1632,0.393638,-44.6126
-294,-608,0.391418,45.3018,0.00457288,0.00536602,0.00410405,0.00909261,0.000846283,0.833563,0.00580026,0.0109882,930,1632,0.391421,-45.3017
-287,-608,0.343933,45.9423,0.00524774,0.00713295,0.00504551,0.0113231,0.00105754,0.877744,0.0072221,0.010518,937,1632,0.343923,-45.9422
-280,-608,0.342041,46.6132,0.00604386,0.00894264,0.00611132,0.0137741,0.00121241,0.901829,0.00880646,0.0100783,944,1632,0.342068,-46.6132
-273,-608,0.298462,47.2898,0.00696516,0.0107457,0.00719869,0.0162981,0.00141268,0.913791,0.0104265,0.0115193,951,1632,0.298446,-47.2898
-266,-608,0.313599,47.9783,0.00789461,0.0123247,0.00839653,0.0187934,0.00142585,0.914362,0.0120817,0.0117607,958,1632,0.313626,-47.9783
-259,-608,0.368896,48.6422,0.00889387,0.0139996,0.00959152,0.0213722,0.00152129,0.915462,0.0137691,0.0153629,965,1632,0.36888,-48.6423
-252,-608,0.464172,49.292,0.0101738,0.0154542,0.0107767,0.0239094,0.00171863,0.90553,0.0153987,0.0299115,972,1632,0.464174,-49.292
-245,-608,0.470886,50.3601,0.0115125,0.016656,0.0119383,0.0262965,0.00187207,0.891488,0.0169415,0.0456757,979,1632,0.470897,-50.3601
-238,-608,0.640137,51.2911,0,0,0,0,0,0,0,-1,986,1632,0.640163,-51.2911
-231,-608,0.976563,50.6722,0,0,0,0,0,0,0,-1,993,1632,0.976542,-50.6723
-224,-608,0.896118,51.4656,0,0,0,0,0,0,0,-1,1000,1632,0.896105,-51.4656
-217,-608,1.04419,12.8451,0,0,0,0,0,0,0,-1,1007,1632,1.04418,-12.8451
-210,-608,2.75903,15.9414,0,0,0,0,0,0,0,-1,1014,1632,2.75903,-15.9414
-203,-608,2.76776,16.217,0,0,0,0,0,0,0,-1,1021,1632,2.76773,-16.217
-196,-608,1.53955,18.6058,0,0,0,0,0,0,0,-1,1028,1632,1.53959,-18.6058
-189,-608,1.37634,19.119,0,0,0,0,0,0,0,-1,1035,1632,1.37634,-19.1191
-182,-608,2.89221,16.7092,0,0,0,0,0,0,0,-1,1042,1632,2.89224,-16.7093
-175,-608,0.219116,15.1643,0,0,0,0,0,0,0,-1,1049,1632,0.219173,-15.1644
-168,-608,0.000366211,9.48645,0,0,0,0,0,0,0,-1,1056,1632,0.000317105,-9.48648
-161,-608,2.27832,15.4423,0,0,0,0,0,0,0,-1,1063,1632,2.27826,-15.4423
-154,-608,1.3999,16.4037,0,0,0,0,0,0,0,-1,1070,1632,1.39987,-16.4037
-147,-608,2.4386,9.50317,0,0,0,0,0,0,0,-1,1077,1632,2.43858,-9.50313
-140,-608,2.60132,10.8401,0,0,0,0,0,0,0,-1,1084,1632,2.60134,-10.8401
-133,-608,3.2312,12.4738,0,0,0,0,0,0,0,-1,1091,1632,3.23116,-12.4738
-126,-608,3.76465,13.9644,0,0,0,0,0,0,0,-1,1098,1632,3.76466,-13.9644
-119,-608,4.28906,15.4196,0,0,0,0,0,0,0,-1,1105,1632,4.28911,-15.4195
-112,-608,0.745117,10.5587,0,0,0,0,0,0,0,-1,1112,1632,0.745145,-10.5587
-105,-608,-0.252319,1.42419,0,0,0,0,0,0,0,-1,1119,1632,-0.252331,-1.42418
-98,-608,-2.8595,3.0863,0,0,0,0,0,0,0,-1,1126,1632,-2.85948,-3.08625
-91,-608,-3.71948,1.73608,0,0,0,0,0,0,0,-1,1133,1632,-3.7195,-1.73607
-84,-608,0,0,0,0,0,0,0,0,0,-1,1140,1632,0,0
-77,-608,0,0,0,0,0,0,0,0,0,-1,1147,1632,0,0
-70,-608,0,0,0,0,0,0,0,0,0,-1,1154,1632,0,0
-63,-608,0,0,0,0,0,0,0,0,0,-1,1161,1632,0,0
-56,-608,0,0,0,0,0,0,0,0,0,-1,1168,1632,0,0
-49,-608,0,0,0,0,0,0,0,0,0,-1,1175,1632,0,0
-42,-608,0,0,0,0,0,0,0,0,0,-1,1182,1632,0,0
-35,-608,0,0,0,0,0,0,0,0,0,-1,1189,1632,0,0
-28,-608,0,0,0,0,0,0,0,0,0,-1,1196,1632,0,0
-21,-608,0,0,0,0,0,0,0,0,0,-1,1203,1632,0,0
-14,-608,0,0,0,0,0,0,0,0,0,-1,1210,1632,0,0
-7,-608,0,0,0,0,0,0,0,0,0,-1,1217,1632,0,0
0,-608,0,0,0,0,0,0,0,0,0,-1,1224,1632,0,0
7,-608,0,0,0,0,0,0,0,0,0,-1,1231,1632,0,0
14,-608,0,0,0,0,0,0,0,0,0,-1,1238,1632,0,0
21,-608,0,0,0,0,0,0,0,0,0,-1,1245,1632,0,0
28,-608,0,0,0,0,0,0,0,0,0,-1,1252,1632,0,0
35,-608,0,0,0,0,0,0,0,0,0,-1,1259,1632,0,0
42,-608,0,0,0,0,0,0,0,0,0,-1,1266,1632,0,0
49,-608,0,0,0,0,0,0,0,0,0,-1,1273,1632,0,0
56,-608,0,0,0,0,0,0,0,0,0,-1,1280,1632,0,0
63,-608,0,0,0,0,0,0,0,0,0,-1,1287,1632,0,0
70,-608,0,0,0,0,0,0,0,0,0,-1,1294,1632,0,0
77,-608,0,0,0,0,0,0,0,0,0,-1,1301,1632,0,0
84,-608,0,0,0,0,0,0,0,0,0,-1,1308,1632,0,0
91,-608,0,0,0,0,0,0,0,0,0,-1,1315,1632,0,0
98,-608,0,0,0,0,0,0,0,0,0,-1,1322,1632,0,0
105,-608,0,0,0,0,0,0,0,0,0,-1,1329,1632,0,0
112,-608,0,0,0,0,0,0,0,0,0,-1,1336,1632,0,0
119,-608,0,0,0,0,0,0,0,0,0,-1,1343,1632,0,0
126,-608,0,0,0,0,0,0,0,0,0,-1,1350,1632,0,0
133,-608,0,0,0,0,0,0,0,0,0,-1,1357,1632,0,0
140,-608,0,0,0,0,0,0,0,0,0,-1,1364,1632,0,0
147,-608,0,0,0,0,0,0,0,0,0,-1,1371,1632,0,0
154,-608,0,0,0,0,0,0,0,0,0,-1,1378,1632,0,0
161,-608,0,0,0,0,0,0,0,0,0,-1,1385,1632,0,0
168,-608,0,0,0,0,0,0,0,0,0,-1,1392,1632,0,0
175,-608,0,0,0,0,0,0,0,0,0,-1,1399,1632,0,0
182,-608,0,0,0,0,0,0,0,0,0,-1,1406,1632,0,0
189,-608,0,0,0,0,0,0,0,0,0,-1,1413,1632,0,0
196,-608,0,0,0,0,0,0,0,0,0,-1,1420,1632,0,0
203,-608,0,0,0,0,0,0,0,0,0,-1,1427,1632,0,0
210,-608,5.7157,-0.333008,0,0,0,0,0,0,0,-1,1434,1632,5.71566,0.333004
217,-608,4.49402,-0.831787,0,0,0,0,0,0,0,-1,1441,1632,4.49396,0.831738
224,-608,4.18018,-1.11792,0,0,0,0,0,0,0,-1,1448,1632,4.1802,1.11796
231,-608,0.361816,0.825195,0,0,0,0,0,0,0,-1,1455,1632,0.36185,-0.825226
238,-608,2.85388,-0.28833,0,0,0,0,0,0,0,-1,1462,1632,2.85391,0.288282
245,-608,3.87537,4.02173,0,0,0,0,0,0,0,-1,1469,1632,3.87538,-4.02168
252,-608,5.66956,3.5282,0,0,0,0,0,0,0,-1,1476,1632,5.6696,-3.52815
259,-608,7.47437,3.07178,0,0,0,0,0,0,0,-1,1483,1632,7.4744,-3.07172
266,-608,9.46936,2.34766,0,0,0,0,0,0,0,-1,1490,1632,9.46932,-2.34764
273,-608,6.03003,3.34241,0,0,0,0,0,0,0,-1,1497,1632,6.02997,-3.34245
280,-608,5.72461,2.0769,0,0,0,0,0,0,0,-1,1504,1632,5.72457,-2.07688
287,-608,6.20581,3.59338,0,0,0,0,0,0,0,-1,1511,1632,6.20585,-3.59341
294,-608,6.94922,5.17151,0,0,0,0,0,0,0,-1,1518,1632,6.94925,-5.17151
301,-608,7.60083,6.68018,0,0,0,0,0,0,0,-1,1525,1632,7.60086,-6.68013
308,-608,7.64746,9.93848,0,0,0,0,0,0,0,-1,1532,1632,7.64745,-9.93842
315,-608,5.30688,11.2054,0,0,0,0,0,0,0,-1,1539,1632,5.30694,-11.2054
322,-608,5.32617,13.7581,0,0,0,0,0,0,0,-1,1546,1632,5.32613,-13.758
329,-608,7.12231,13.9607,0,0,0,0,0,0,0,-1,1553,1632,7.12231,-13.9607
336,-608,5.48633,7.82446,0,0,0,0,0,0,0,-1,1560,1632,5.48634,-7.82446
343,-608,5.47192,5.61047,0,0,0,0,0,0,0,-1,1567,1632,5.47192,-5.61045
350,-608,11.6957,1.71387,0,0,0,0,0,0,0,-1,1574,1632,11.6957,-1.71388
357,-608,3.77002,5.10046,0,0,0,0,0,0,0,-1,1581,1632,3.77002,-5.10043
364,-608,16.9565,52.3624,0,0,0,0,0,0,0,-1,1588,1632,16.9566,-52.3624
371,-608,16.7959,51.0239,0.0294212,0.0421743,-0.00702076,0.045282,0.0263135,-1.15407,0.026258,0.0487208,1595,1632,16.7958,-51.024
378,-608,17.0902,49.5353,0.026239,0.035047,-0.00833374,0.0400688,0.0212172,-1.02847,0.0231472,0.0403742,1602,1632,17.0902,-49.5353
385,-608,17.4694,48.7948,0.0225611,0.028755,-0.00842319,0.0346326,0.0166836,-0.961563,0.0199996,0.0314117,1609,1632,17.4694,-48.7948
392,-608,17.4031,48.0881,0.018725,0.0231935,-0.00779573,0.0290688,0.0128497,-0.924958,0.0168204,0.0222657,1616,1632,17.4031,-48.0881
399,-608,17.4554,47.3577,0.0151138,0.0187228,-0.00689751,0.024048,0.00978869,-0.913338,0.0139639,0.0117519,1623,1632,17.4554,-47.3577
406,-608,17.4872,46.6827,0.0119151,0.0145104,-0.00668802,0.0200255,0.0064,-0.88122,0.0118099,0.0101363,1630,1632,17.4872,-46.6828
413,-608,17.4661,46.0348,0.00913171,0.0117149,-0.00538119,0.0159574,0.0048893,-0.903182,0.00944039,0.0110036,1637,1632,17.4661,-46.0348
420,-608,17.4204,45.3831,0.00685118,0.00945053,-0.00434277,0.0126839,0.00361777,-0.930793,0.00754492,0.0184577,1644,1632,17.4204,-45.3831
427,-608,17.4083,44.7159,0.00458213,0.00668608,-0.00320746,0.00900967,0.00225854,-0.943859,0.00541301,0.0199991,1651,1632,17.4083,-44.7159
434,-608,17.3806,44.0513,0.00302768,0.0055314,-0.00266776,0.00722642,0.00133266,-1.00477,0.00444056,0.0164182,1658,1632,17.3806,-44.0512
441,-608,17.3575,43.3782,0.00229852,0.00451151,-0.00236006,0.00601159,0.000798444,-1.0046,0.00376987,0.014405,1665,1632,17.3576,-43.3781
448,-608,17.3796,42.7382,0.00188981,0.00360463,-0.00229594,0.00519804,0.000296401,-0.964103,0.00337091,0.0150415,1672,1632,17.3797,-42.7381
455,-608,17.3621,42.0393,0.00176903,0.002774,-0.00237235,0.0046965,-0.000153472,-0.889761,0.00318339,0.0125209,1679,1632,17.3621,-42.0393
462,-608,17.2919,41.35,0.0017802,0.00184988,-0.00240133,0.00421662,-0.000586538,-0.792652,0.0030256,0.0126312,1686,1632,17.2919,-41.3499
469,-608,17.2288,40.6764,0.00166335,0.000941401,-0.00239465,0.00372408,-0.00111933,-0.710591,0.00292803,0.00966811,1693,1632,17.2288,-40.6764
476,-608,17.1886,39.9784,0.00143034,0.000272631,-0.00231328,0.0032361,-0.00153312,-0.6628,0.00281141,0.00920952,1700,1632,17.1886,-39.9784
483,-608,17.1444,39.2598,0.00105089,-0.000514349,-0.00227162,0.00267092,-0.00213438,-0.619505,0.0027801,0.0082919,1707,1632,17.1444,-39.2597
490,-608,17.1515,38.5471,0.000314239,-0.000962272,-0.00219425,0.00196117,-0.0026092,-0.643865,0.00264754,0.0115208,1714,1632,17.1515,-38.5471
497,-608,17.1907,37.7922,-0.000563924,-0.00137455,-0.00213297,0.0012019,-0.00314037,-0.691505,0.00258894,0.0301462,1721,1632,17.1907,-37.7922
504,-608,17.2789,36.9894,0,0,0,0,0,0,0,-1,1728,1632,17.2789,-36.9894
511,-608,16.9652,36.5946,0,0,0,0,0,0,0,-1,1735,1632,16.9652,-36.5946
518,-608,16.9458,35.7355,0,0,0,0,0,0,0,-1,1742,1632,16.9457,-35.7355
525,-608,11.2109,16.2579,0,0,0,0,0,0,0,-1,1749,1632,11.2109,-16.2579
532,-608,8.27917,11.6693,0,0,0,0,0,0,0,-1,1756,1632,8.27919,-11.6694
539,-608,9.40796,1.43457,0,0,0,0,0,0,0,-1,1763,1632,9.40801,-1.43463
546,-608,9.94031,2.1134,0,0,0,0,0,0,0,-1,1770,1632,9.94031,-2.11346
553,-608,10.363,2.81335,0,0,0,0,0,0,0,-1,1777,1632,10.3631,-2.81333
560,-608,9.23999,4.5636,0,0,0,0,0,0,0,-1,1784,1632,9.24,-4.56354
567,-608,0,0,0,0,0,0,0,0,0,-1,1791,1632,0,0
574,-608,0,0,0,0,0,0,0,0,0,-1,1798,1632,0,0
581,-608,0,0,0,0,0,0,0,0,0,-1,1805,1632,0,0
588,-608,0,0,0,0,0,0,0,0,0,-1,1812,1632,0,0
595,-608,0,0,0,0,0,0,0,0,0,-1,1819,1632,0,0
602,-608,0,0,0,0,0,0,0,0,0,-1,1826,1632,0,0
609,-608,0,0,0,0,0,0,0,0,0,-1,1833,1632,0,0
616,-608,0,0,0,0,0,0,0,0,0,-1,1840,1632,0,0
623,-608,0,0,0,0,0,0,0,0,0,-1,1847,1632,0,0
630,-608,0,0,0,0,0,0,0,0,0,-1,1854,1632,0,0
637,-608,0,0,0,0,0,0,0,0,0,-1,1861,1632,0,0
644,-608,0,0,0,0,0,0,0,0,0,-1,1868,1632,0,0
651,-608,0,0,0,0,0,0,0,0,0,-1,1875,1632,0,0
658,-608,0,0,0,0,0,0,0,0,0,-1,1882,1632,0,0
665,-608,0,0,0,0,0,0,0,0,0,-1,1889,1632,0,0
672,-608,0,0,0,0,0,0,0,0,0,-1,1896,1632,0,0
679,-608,0,0,0,0,0,0,0,0,0,-1,1903,1632,0,0
686,-608,0,0,0,0,0,0,0,0,0,-1,1910,1632,0,0
693,-608,0,0,0,0,0,0,0,0,0,-1,1917,1632,0,0
700,-608,0,0,0,0,0,0,0,0,0,-1,1924,1632,0,0
707,-608,0,0,0,0,0,0,0,0,0,-1,1931,1632,0,0
714,-608,0,0,0,0,0,0,0,0,0,-1,1938,1632,0,0
721,-608,0,0,0,0,0,0,0,0,0,-1,1945,1632,0,0
728,-608,0,0,0,0,0,0,0,0,0,-1,1952,1632,0,0
735,-608,0,0,0,0,0,0,0,0,0,-1,1959,1632,0,0
742,-608,0,0,0,0,0,0,0,0,0,-1,1966,1632,0,0
749,-608,0,0,0,0,0,0,0,0,0,-1,1973,1632,0,0
756,-608,0,0,0,0,0,0,0,0,0,-1,1980,1632,0,0
763,-608,0,0,0,0,0,0,0,0,0,-1,1987,1632,0,0
770,-608,0,0,0,0,0,0,0,0,0,-1,1994,1632,0,0
777,-608,0,0,0,0,0,0,0,0,0,-1,2001,1632,0,0
784,-608,0,0,0,0,0,0,0,0,0,-1,2008,1632,0,0
791,-608,0,0,0,0,0,0,0,0,0,-1,2015,1632,0,0
798,-608,0,0,0,0,0,0,0,0,0,-1,2022,1632,0,0
805,-608,0,0,0,0,0,0,0,0,0,-1,2029,1632,0,0
812,-608,0,0,0,0,0,0,0,0,0,-1,2036,1632,0,0
-700,-615,0,0,0,0,0,0,0,0,0,-1,524,1639,0,0
-693,-615,0,0,0,0,0,0,0,0,0,-1,531,1639,0,0
-686,-615,0,0,0,0,0,0,0,0,0,-1,538,1639,0,0
-679,-615,0,0,0,0,0,0,0,0,0,-1,545,1639,0,0
-672,-615,0,0,0,0,0,0,0,0,0,-1,552,1639,0,0
-665,-615,0,0,0,0,0,0,0,0,0,-1,559,1639,0,0
-658,-615,0,0,0,0,0,0,0,0,0,-1,566,1639,0,0
-651,-615,0,0,0,0,0,0,0,0,0,-1,573,1639,0,0
-644,-615,0,0,0,0,0,0,0,0,0,-1,580,1639,0,0
-637,-615,0,0,0,0,0,0,0,0,0,-1,587,1639,0,0
-630,-615,0,0,0,0,0,0,0,0,0,-1,594,1639,0,0
-623,-615,0,0,0,0,0,0,0,0,0,-1,601,1639,0,0
-616,-615,0,0,0,0,0,0,0,0,0,-1,608,1639,0,0
-609,-615,0,0,0,0,0,0,0,0,0,-1,615,1639,0,0
-602,-615,0,0,0,0,0,0,0,0,0,-1,622,1639,0,0
-595,-615,0,0,0,0,0,0,0,0,0,-1,629,1639,0,0
-588,-615,0,0,0,0,0,0,0,0,0,-1,636,1639,0,0
-581,-615,0,0,0,0,0,0,0,0,0,-1,643,1639,0,0
-574,-615,0,0,0,0,0,0,0,0,0,-1,650,1639,0,0
-567,-615,0,0,0,0,0,0,0,0,0,-1,657,1639,0,0
-560,-615,0,0,0,0,0,0,0,0,0,-1,664,1639,0,0
-553,-615,0,0,0,0,0,0,0,0,0,-1,671,1639,0,0
-546,-615,0,0,0,0,0,0,0,0,0,-1,678,1639,0,0
-539,-615,0,0,0,0,0,0,0,0,0,-1,685,1639,0,0
-532,-615,0,0,0,0,0,0,0,0,0,-1,692,1639,0,0
-525,-615,0,0,0,0,0,0,0,0,0,-1,699,1639,0,0
-518,-615,0,0,0,0,0,0,0,0,0,-1,706,1639,0,0
-511,-615,0,0,0,0,0,0,0,0,0,-1,713,1639,0,0
-504,-615,0,0,0,0,0,0,0,0,0,-1,720,1639,0,0
-497,-615,0,0,0,0,0,0,0,0,0,-1,727,1639,0,0
-490,-615,0,0,0,0,0,0,0,0,0,-1,734,1639,0,0
-483,-615,0,0,0,0,0,0,0,0,0,-1,741,1639,0,0
-476,-615,0,0,0,0,0,0,0,0,0,-1,748,1639,0,0
-469,-615,0,0,0,0,0,0,0,0,0,-1,755,1639,0,0
-462,-615,0,0,0,0,0,0,0,0,0,-1,762,1639,0,0
-455,-615,0,0,0,0,0,0,0,0,0,-1,769,1639,0,0
-448,-615,0,0,0,0,0,0,0,0,0,-1,776,1639,0,0
-441,-615,0,0,0,0,0,0,0,0,0,-1,783,1639,0,0
-434,-615,-7.64508,2.98596,0,0,0,0,0,0,0,-1,790,1639,-7.64505,-2.98594
-427,-615,-9.0011,2.89404,0,0,0,0,0,0,0,-1,797,1639,-9.00107,-2.89399
-420,-615,-8.07568,3.0752,0,0,0,0,0,0,0,-1,804,1639,-8.07569,-3.07514
-413,-615,-7.09149,3.396,0,0,0,0,0,0,0,-1,811,1639,-7.09147,-3.39599
-406,-615,-6.21368,3.7312,0,0,0,0,0,0,0,-1,818,1639,-6.21366,-3.73114
-399,-615,-4.84875,3.91907,0,0,0,0,0,0,0,-1,825,1639,-4.84877,-3.91901
-392,-615,1.7395,13.3127,0,0,0,0,0,0,0,-1,832,1639,1.73953,-13.3128
-385,-615,3.42297,14.9401,0,0,0,0,0,0,0,-1,839,1639,3.42296,-14.94
-378,-615,1.97778,35.4214,0,0,0,0,0,0,0,-1,846,1639,1.97775,-35.4214
-371,-615,1.60339,37.2118,0,0,0,0,0,0,0,-1,853,1639,1.60342,-37.2118
-364,-615,1.43372,38.214,0,0,0,0,0,0,0,-1,860,1639,1.43369,-38.2139
-357,-615,1.34985,38.8813,0,0,0,0,0,0,0,-1,867,1639,1.34988,-38.8813
-350,-615,1.32965,39.7573,0.00239034,-0.0046333,0.000828719,0.0024868,-0.00472976,0.11587,0.00423303,0.0348715,874,1639,1.32963,-39.7573
-343,-615,1.29572,40.3677,0.00247691,-0.00387648,0.00095923,0.00261858,-0.00401815,0.146626,0.00386001,0.0211762,881,1639,1.29571,-40.3677
-336,-615,1.28265,41.1287,0.00247883,-0.00302153,0.00105011,0.00267249,-0.00321519,0.182373,0.00340406,0.0119198,888,1639,1.28262,-41.1287
-329,-615,1.20703,41.8605,0.00247031,-0.00203963,0.00121375,0.00277621,-0.00234553,0.246891,0.00296052,0.0128231,895,1639,1.20704,-41.8605
-322,-615,1.16559,42.5774,0.00247796,-0.00112902,0.00140333,0.00295962,-0.00161069,0.330628,0.0026767,0.0139758,902,1639,1.1656,-42.5774
-315,-615,1.15533,43.2981,0.00255648,-0.000206067,0.00166391,0.00333773,-0.000987319,0.438974,0.0026171,0.0167049,909,1639,1.15535,-43.2981
-308,-615,1.07104,43.9889,0.00272495,0.000890625,0.00198779,0.00399697,-0.00038139,0.569252,0.00280044,0.0241421,916,1639,1.07107,-43.9888
-301,-615,1.07898,44.6493,0.00306799,0.00208013,0.00245266,0.00507596,7.21558e-05,0.686035,0.00336018,0.0137149,923,1639,1.07898,-44.6493
-294,-615,1.07605,45.3267,0.00350895,0.00353687,0.00306854,0.00659148,0.000454346,0.787673,0.00425097,0.0105393,930,1639,1.07607,-45.3266
-287,-615,1.03546,45.9727,0.00399005,0.00499874,0.00375446,0.00828257,0.000706214,0.852164,0.00530201,0.0085619,937,1639,1.03549,-45.9726
-280,-615,1.0108,46.642,0.00458334,0.00648605,0.00451784,0.0101516,0.000917776,0.889171,0.00648351,0.0118399,944,1639,1.01079,-46.642
-273,-615,0.96759,47.3107,0.00537104,0.00783095,0.00529601,0.012038,0.00116404,0.899496,0.0076668,0.0136722,951,1639,0.967566,-47.3107
-266,-615,0.940613,47.9706,0.0062068,0.00895614,0.00614073,0.0138742,0.00128875,0.895513,0.0088512,0.0132708,958,1639,0.940605,-47.9705
-259,-615,0.939148,48.6257,0.00710805,0.0101747,0.00695578,0.0157642,0.0015186,0.893883,0.0100416,0.0140304,965,1639,0.939166,-48.6258
-252,-615,0.958374,49.3228,0.00821352,0.0111621,0.00772038,0.0175477,0.00182791,0.879742,0.0111393,0.0175531,972,1639,0.958356,-49.3227
-245,-615,1.07184,50.1147,0.00936005,0.0118617,0.00843117,0.0191343,0.00208742,0.859039,0.0121205,0.028497,979,1639,1.07187,-50.1148
-238,-615,1.13361,50.7927,0.0102028,0.0114142,0.00866816,0.0194978,0.00211922,0.820279,0.0123529,0.0370167,986,1639,1.1336,-50.7927
-231,-615,1.21436,51.031,0,0,0,0,0,0,0,-1,993,1639,1.21435,-51.031
-224,-615,1.39178,51.6016,0,0,0,0,0,0,0,-1,1000,1639,1.39175,-51.6016
-217,-615,1.79169,52.0389,0,0,0,0,0,0,0,-1,1007,1639,1.79169,-52.039
-210,-615,2.48901,18.9324,0,0,0,0,0,0,0,-1,1014,1639,2.48902,-18.9323
-203,-615,2.13684,18.6173,0,0,0,0,0,0,0,-1,1021,1639,2.13683,-18.6173
-196,-615,4.27161,21.3264,0,0,0,0,0,0,0,-1,1028,1639,4.27165,-21.3264
-189,-615,2.48047,51.85,0,0,0,0,0,0,0,-1,1035,1639,2.48045,-51.85
-182,-615,2.98364,52.7119,0,0,0,0,0,0,0,-1,1042,1639,2.9836,-52.7119
-175,-615,2.25159,49.2682,0,0,0,0,0,0,0,-1,1049,1639,2.25158,-49.2682
-168,-615,3.85754,15.472,0,0,0,0,0,0,0,-1,1056,1639,3.85757,-15.472
-161,-615,2.14307,46.5156,0,0,0,0,0,0,0,-1,1063,1639,2.14303,-46.5156
-154,-615,1.37329,47.9545,0,0,0,0,0,0,0,-1,1070,1639,1.37327,-47.9545
-147,-615,0.0180664,48.1396,0,0,0,0,0,0,0,-1,1077,1639,0.0180157,-48.1397
-140,-615,3.73401,10.2349,0,0,0,0,0,0,0,-1,1084,1639,3.73402,-10.2348
-133,-615,2.6178,17.45,0,0,0,0,0,0,0,-1,1091,1639,2.61776,-17.4499
-126,-615,4.43408,12.5017,0,0,0,0,0,0,0,-1,1098,1639,4.43403,-12.5018
-119,-615,4.82983,13.9279,0,0,0,0,0,0,0,-1,1105,1639,4.82986,-13.9278
-112,-615,3.65698,14.4874,0,0,0,0,0,0,0,-1,1112,1639,3.65695,-14.4875
-105,-615,0.958496,2.45398,0,0,0,0,0,0,0,-1,1119,1639,0.958452,-2.45398
-98,-615,-0.647705,2.12109,0,0,0,0,0,0,0,-1,1126,1639,-0.647756,-2.12105
-91,-615,-3.07983,2.97375,0,0,0,0,0,0,0,-1,1133,1639,-3.07989,-2.97376
-84,-615,-2.46509,0.703247,0,0,0,0,0,0,0,-1,1140,1639,-2.46505,-0.703273
-77,-615,-3.17859,1.23755,0,0,0,0,0,0,0,-1,1147,1639,-3.17865,-1.23752
-70,-615,-4.03943,1.43335,0,0,0,0,0,0,0,-1,1154,1639,-4.03942,-1.43339
-63,-615,-4.8877,1.45544,0,0,0,0,0,0,0,-1,1161,1639,-4.88766,-1.45549
-56,-615,0,0,0,0,0,0,0,0,0,-1,1168,1639,0,0
-49,-615,0,0,0,0,0,0,0,0,0,-1,1175,1639,0,0
-42,-615,0,0,0,0,0,0,0,0,0,-1,1182,1639,0,0
-35,-615,0,0,0,0,0,0,0,0,0,-1,1189,1639,0,0
-28,-615,0,0,0,0,0,0,0,0,0,-1,1196,1639,0,0
-21,-615,0,0,0,0,0,0,0,0,0,-1,1203,1639,0,0
-14,-615,0,0,0,0,0,0,0,0,0,-1,1210,1639,0,0
-7,-615,0,0,0,0,0,0,0,0,0,-1,1217,1639,0,0
0,-615,0,0,0,0,0,0,0,0,0,-1,1224,1639,0,0
7,-615,0,0,0,0,0,0,0,0,0,-1,1231,1639,0,0
14,-615,0,0,0,0,0,0,0,0,0,-1,1238,1639,0,0
21,-615,0,0,0,0,0,0,0,0,0,-1,1245,1639,0,0
28,-615,0,0,0,0,0,0,0,0,0,-1,1252,1639,0,0
35,-615,0,0,0,0,0,0,0,0,0,-1,1259,1639,0,0
42,-615,0,0,0,0,0,0,0,0,0,-1,1266,1639,0,0
49,-615,0,0,0,0,0,0,0,0,0,-1,1273,1639,0,0
56,-615,0,0,0,0,0,0,0,0,0,-1,1280,1639,0,0
63,-615,0,0,0,0,0,0,0,0,0,-1,1287,1639,0,0
70,-615,0,0,0,0,0,0,0,0,0,-1,1294,1639,0,0
77,-615,0,0,0,0,0,0,0,0,0,-1,1301,1639,0,0
84,-615,0,0,0,0,0,0,0,0,0,-1,1308,1639,0,0
91,-615,0,0,0,0,0,0,0,0,0,-1,1315,1639,0,0
98,-615,0,0,0,0,0,0,0,0,0,-1,1322,1639,0,0
105,-615,0,0,0,0,0,0,0,0,0,-1,1329,1639,0,0
112,-615,0,0,0,0,0,0,0,0,0,-1,1336,1639,0,0
119,-615,0,0,0,0,0,0,0,0,0,-1,1343,1639,0,0
126,-615,0,0,0,0,0,0,0,0,0,-1,1350,1639,0,0
133,-615,0,0,0,0,0,0,0,0,0,-1,1357,1639,0,0
140,-615,0,0,0,0,0,0,0,0,0,-1,1364,1639,0,0
147,-615,0,0,0,0,0,0,0,0,0,-1,1371,1639,0,0
154,-615,0,0,0,0,0,0,0,0,0,-1,1378,1639,0,0
161,-615,0,0,0,0,0,0,0,0,0,-1,1385,1639,0,0
168,-615,0,0,0,0,0,0,0,0,0,-1,1392,1639,0,0
175,-615,5.39648,-2.00879,0,0,0,0,0,0,0,-1,1399,1639,5.3965,2.00881
182,-615,5.65393,-1.51025,0,0,0,0,0,0,0,-1,1406,1639,5.65388,1.51028
189,-615,5.58972,-1.35608,0,0,0,0,0,0,0,-1,1413,1639,5.58967,1.35607
196,-615,5.49915,-0.693604,0,0,0,0,0,0,0,-1,1420,1639,5.4991,0.693602
203,-615,5.33411,-0.226685,0,0,0,0,0,0,0,-1,1427,1639,5.33414,0.226689
210,-615,5.60278,0.108276,0,0,0,0,0,0,0,-1,1434,1639,5.60284,-0.10831
217,-615,6.26331,-0.307373,0,0,0,0,0,0,0,-1,1441,1639,6.26331,0.307372
224,-615,5.45422,-0.333984,0,0,0,0,0,0,0,-1,1448,1639,5.45422,0.333992
231,-615,4.92542,1.80298,0,0,0,0,0,0,0,-1,1455,1639,4.92537,-1.80297
238,-615,4.76355,1.96729,0,0,0,0,0,0,0,-1,1462,1639,4.76357,-1.96734
245,-615,4.08643,3.15906,0,0,0,0,0,0,0,-1,1469,1639,4.08638,-3.159
252,-615,6.37805,3.73889,0,0,0,0,0,0,0,-1,1476,1639,6.37806,-3.73891
259,-615,8.35974,3.16443,0,0,0,0,0,0,0,-1,1483,1639,8.35975,-3.16444
266,-615,10.3414,2.58997,0,0,0,0,0,0,0,-1,1490,1639,10.3414,-2.58996
273,-615,6.57043,1.84766,0,0,0,0,0,0,0,-1,1497,1639,6.5704,-1.84771
280,-615,7.10449,3.23438,0,0,0,0,0,0,0,-1,1504,1639,7.10447,-3.23435
287,-615,7.35779,4.68542,0,0,0,0,0,0,0,-1,1511,1639,7.35776,-4.68546
294,-615,7.63733,6.29114,0,0,0,0,0,0,0,-1,1518,1639,7.63735,-6.29109
301,-615,8.47925,11.452,0,0,0,0,0,0,0,-1,1525,1639,8.47922,-11.452
308,-615,6.8114,10.9059,0,0,0,0,0,0,0,-1,1532,1639,6.81137,-10.9058
315,-615,5.1427,14.7251,0,0,0,0,0,0,0,-1,1539,1639,5.14269,-14.7251
322,-615,7.17981,17.6864,0,0,0,0,0,0,0,-1,1546,1639,7.17985,-17.6864
329,-615,7.62134,20.4354,0,0,0,0,0,0,0,-1,1553,1639,7.62139,-20.4354
336,-615,6.45007,14.1138,0,0,0,0,0,0,0,-1,1560,1639,6.45011,-14.1138
343,-615,2.40491,6.50134,0,0,0,0,0,0,0,-1,1567,1639,2.40489,-6.50137
350,-615,15.046,46.4662,0,0,0,0,0,0,0,-1,1574,1639,15.046,-46.4662
357,-615,16.7767,51.7712,0,0,0,0,0,0,0,-1,1581,1639,16.7768,-51.7713
364,-615,16.6023,51.3292,0,0,0,0,0,0,0,-1,1588,1639,16.6023,-51.3293
371,-615,16.6748,50.4075,0.0220978,0.0314896,-0.00732658,0.035496,0.0180914,-1.07039,0.0204949,0.0421125,1595,1639,16.6749,-50.4074
378,-615,16.8105,49.3038,0.0197537,0.0264011,-0.00778814,0.0315451,0.0146097,-0.987079,0.0182291,0.0209249,1602,1639,16.8105,-49.3038
385,-615,16.8374,48.6161,0.0171003,0.021776,-0.00748147,0.0272764,0.0115999,-0.936834,0.0158066,0.0120216,1609,1639,16.8374,-48.6161
392,-615,16.8395,47.9919,0.0143007,0.0176321,-0.00674187,0.022911,0.00902177,-0.906506,0.0133268,0.011339,1616,1639,16.8395,-47.9919
399,-615,16.827,47.3538,0.0116011,0.014215,-0.00585309,0.0189053,0.00691083,-0.895242,0.0110457,0.0127084,1623,1639,16.827,-47.3537
406,-615,16.8145,46.7162,0.00917973,0.0109891,-0.00543353,0.0155927,0.00457607,-0.86789,0.00925491,0.0120924,1630,1639,16.8144,-46.7162
413,-615,16.8085,46.0873,0.00709137,0.00871892,-0.00436185,0.0123423,0.00346803,-0.877621,0.00735014,0.0128118,1637,1639,16.8085,-46.0873
420,-615,16.7642,45.434,0.00537377,0.00690435,-0.00352775,0.00974886,0.00252926,-0.892211,0.00584161,0.0136466,1644,1639,16.7642,-45.4339
427,-615,16.7415,44.7604,0.00365411,0.00474542,-0.0026156,0.00687168,0.00152786,-0.888231,0.00416628,0.0149388,1651,1639,16.7414,-44.7603
434,-615,16.7239,44.0896,0.00249893,0.00385725,-0.00224005,0.00551883,0.000837348,-0.932589,0.0034343,0.0145771,1658,1639,16.7239,-44.0896
441,-615,16.7068,43.4126,0.00198023,0.00304301,-0.00210622,0.00468384,0.000339396,-0.908967,0.0030158,0.0150101,1665,1639,16.7068,-43.4126
448,-615,16.6843,42.759,0.00178757,0.00233531,-0.00219326,0.00427173,-0.000148854,-0.847511,0.00289871,0.0149303,1672,1639,16.6843,-42.759
455,-615,16.6516,42.093,0.0018156,0.00168081,-0.00237145,0.00412062,-0.000624206,-0.771192,0.00297704,0.0142924,1679,1639,16.6516,-42.093
462,-615,16.623,41.4121,0.00187914,0.000931352,-0.00251277,0.00396231,-0.00115182,-0.692196,0.0030977,0.0155408,1686,1639,16.6231,-41.4122
469,-615,16.564,40.7166,0.00182412,0.000196611,-0.00264055,0.00377346,-0.00175273,-0.635928,0.00326087,0.0133797,1693,1639,16.564,-40.7166
476,-615,16.521,39.9879,0.00170081,-0.00031811,-0.00268179,0.00355683,-0.00217413,-0.605394,0.00334072,0.0127959,1700,1639,16.521,-39.9879
483,-615,16.5361,39.1755,0.00144475,-0.00096877,-0.00279747,0.00328465,-0.00280867,-0.581769,0.00352155,0.0313632,1707,1639,16.5361,-39.1755
490,-615,16.5823,38.4711,0,0,0,0,0,0,0,-1,1714,1639,16.5822,-38.4711
497,-615,16.6143,37.6367,0,0,0,0,0,0,0,-1,1721,1639,16.6142,-37.6367
504,-615,16.4989,34.738,0,0,0,0,0,0,0,-1,1728,1639,16.4989,-34.738
511,-615,15.2349,30.2052,0,0,0,0,0,0,0,-1,1735,1639,15.2348,-30.2052
518,-615,13.2416,9.81812,0,0,0,0,0,0,0,-1,1742,1639,13.2416,-9.81813
525,-615,4.37524,3.90491,0,0,0,0,0,0,0,-1,1749,1639,4.37518,-3.90495
532,-615,7.3645,0.848145,0,0,0,0,0,0,0,-1,1756,1639,7.36451,-0.848093
539,-615,12.8112,-0.0476074,0,0,0,0,0,0,0,-1,1763,1639,12.8111,0.0475553
546,-615,8.33813,2.94556,0,0,0,0,0,0,0,-1,1770,1639,8.33813,-2.9455
553,-615,5.82532,-2.04199,0,0,0,0,0,0,0,-1,1777,1639,5.82534,2.04195
560,-615,0,0,0,0,0,0,0,0,0,-1,1784,1639,0,0
567,-615,0,0,0,0,0,0,0,0,0,-1,1791,1639,0,0
574,-615,0,0,0,0,0,0,0,0,0,-1,1798,1639,0,0
581,-615,0,0,0,0,0,0,0,0,0,-1,1805,1639,0,0
588,-615,0,0,0,0,0,0,0,0,0,-1,1812,1639,0,0
595,-615,0,0,0,0,0,0,0,0,0,-1,1819,1639,0,0
602,-615,0,0,0,0,0,0,0,0,0,-1,1826,1639,0,0
609,-615,0,0,0,0,0,0,0,0,0,-1,1833,1639,0,0
616,-615,0,0,0,0,0,0,0,0,0,-1,1840,1639,0,0
623,-615,0,0,0,0,0,0,0,0,0,-1,1847,1639,0,0
630,-615,0,0,0,0,0,0,0,0,0,-1,1854,1639,0,0
637,-615,0,0,0,0,0,0,0,0,0,-1,1861,1639,0,0
644,-615,0,0,0,0,0,0,0,0,0,-1,1868,1639,0,0
651,-615,0,0,0,0,0,0,0,0,0,-1,1875,1639,0,0
658,-615,0,0,0,0,0,0,0,0,0,-1,1882,1639,0,0
665,-615,0,0,0,0,0,0,0,0,0,-1,1889,1639,0,0
672,-615,0,0,0,0,0,0,0,0,0,-1,1896,1639,0,0
679,-615,0,0,0,0,0,0,0,0,0,-1,1903,1639,0,0
686,-615,0,0,0,0,0,0,0,0,0,-1,1910,1639,0,0
693,-615,0,0,0,0,0,0,0,0,0,-1,1917,1639,0,0
700,-615,0,0,0,0,0,0,0,0,0,-1,1924,1639,0,0
707,-615,0,0,0,0,0,0,0,0,0,-1,1931,1639,0,0
714,-615,0,0,0,0,0,0,0,0,0,-1,1938,1639,0,0
721,-615,0,0,0,0,0,0,0,0,0,-1,1945,1639,0,0
728,-615,0,0,0,0,0,0,0,0,0,-1,1952,1639,0,0
735,-615,0,0,0,0,0,0,0,0,0,-1,1959,1639,0,0
742,-615,0,0,0,0,0,0,0,0,0,-1,1966,1639,0,0
749,-615,0,0,0,0,0,0,0,0,0,-1,1973,1639,0,0
756,-615,0,0,0,0,0,0,0,0,0,-1,1980,1639,0,0
763,-615,0,0,0,0,0,0,0,0,0,-1,1987,1639,0,0
770,-615,0,0,0,0,0,0,0,0,0,-1,1994,1639,0,0
777,-615,0,0,0,0,0,0,0,0,0,-1,2001,1639,0,0
784,-615,0,0,0,0,0,0,0,0,0,-1,2008,1639,0,0
791,-615,0,0,0,0,0,0,0,0,0,-1,2015,1639,0,0
798,-615,0,0,0,0,0,0,0,0,0,-1,2022,1639,0,0
805,-615,0,0,0,0,0,0,0,0,0,-1,2029,1639,0,0
812,-615,0,0,0,0,0,0,0,0,0,-1,2036,1639,0,0
-700,-622,0,0,0,0,0,0,0,0,0,-1,524,1646,0,0
-693,-622,0,0,0,0,0,0,0,0,0,-1,531,1646,0,0
-686,-622,0,0,0,0,0,0,0,0,0,-1,538,1646,0,0
-679,-622,0,0,0,0,0,0,0,0,0,-1,545,1646,0,0
-672,-622,0,0,0,0,0,0,0,0,0,-1,552,1646,0,0
-665,-622,0,0,0,0,0,0,0,0,0,-1,559,1646,0,0
-658,-622,0,0,0,0,0,0,0,0,0,-1,566,1646,0,0
-651,-622,0,0,0,0,0,0,0,0,0,-1,573,1646,0,0
-644,-622,0,0,0,0,0,0,0,0,0,-1,580,1646,0,0
-637,-622,0,0,0,0,0,0,0,0,0,-1,587,1646,0,0
-630,-622,0,0,0,0,0,0,0,0,0,-1,594,1646,0,0
-623,-622,0,0,0,0,0,0,0,0,0,-1,601,1646,0,0
-616,-622,0,0,0,0,0,0,0,0,0,-1,608,1646,0,0
-609,-622,0,0,0,0,0,0,0,0,0,-1,615,1646,0,0
-602,-622,0,0,0,0,0,0,0,0,0,-1,622,1646,0,0
-595,-622,0,0,0,0,0,0,0,0,0,-1,629,1646,0,0
-588,-622,0,0,0,0,0,0,0,0,0,-1,636,1646,0,0
-581,-622,0,0,0,0,0,0,0,0,0,-1,643,1646,0,0
-574,-622,0,0,0,0,0,0,0,0,0,-1,650,1646,0,0
-567,-622,0,0,0,0,0,0,0,0,0,-1,657,1646,0,0
-560,-622,0,0,0,0,0,0,0,0,0,-1,664,1646,0,0
-553,-622,0,0,0,0,0,0,0,0,0,-1,671,1646,0,0
-546,-622,0,0,0,0,0,0,0,0,0,-1,678,1646,0,0
-539,-622,0,0,0,0,0,0,0,0,0,-1,685,1646,0,0
-532,-622,0,0,0,0,0,0,0,0,0,-1,692,1646,0,0
-525,-622,0,0,0,0,0,0,0,0,0,-1,699,1646,0,0
-518,-622,0,0,0,0,0,0,0,0,0,-1,706,1646,0,0
-511,-622,0,0,0,0,0,0,0,0,0,-1,713,1646,0,0
-504,-622,0,0,0,0,0,0,0,0,0,-1,720,1646,0,0
-497,-622,0,0,0,0,0,0,0,0,0,-1,727,1646,0,0
-490,-622,0,0,0,0,0,0,0,0,0,-1,734,1646,0,0
-483,-622,0,0,0,0,0,0,0,0,0,-1,741,1646,0,0
-476,-622,0,0,0,0,0,0,0,0,0,-1,748,1646,0,0
-469,-622,0,0,0,0,0,0,0,0,0,-1,755,1646,0,0
-462,-622,0,0,0,0,0,0,0,0,0,-1,762,1646,0,0
-455,-622,0,0,0,0,0,0,0,0,0,-1,769,1646,0,0
-448,-622,0,0,0,0,0,0,0,0,0,-1,776,1646,0,0
-441,-622,0,0,0,0,0,0,0,0,0,-1,783,1646,0,0
-434,-622,0,0,0,0,0,0,0,0,0,-1,790,1646,0,0
-427,-622,-7.62891,3.48096,0,0,0,0,0,0,0,-1,797,1646,-7.62892,-3.48092
-420,-622,-9.35791,1.77185,0,0,0,0,0,0,0,-1,804,1646,-9.35789,-1.77183
-413,-622,-8.46075,1.96777,0,0,0,0,0,0,0,-1,811,1646,-8.46074,-1.96774
-406,-622,-4.44318,2.16858,0,0,0,0,0,0,0,-1,818,1646,-4.44315,-2.16859
-399,-622,-7.06976,1.51001,0,0,0,0,0,0,0,-1,825,1646,-7.06976,-1.51005
-392,-622,3.89551,5.85376,0,0,0,0,0,0,0,-1,832,1646,3.8955,-5.85379
-385,-622,2.00543,14.0448,0,0,0,0,0,0,0,-1,839,1646,2.00544,-14.0448
-378,-622,1.49036,15.3436,0,0,0,0,0,0,0,-1,846,1646,1.49033,-15.3436
-371,-622,2.01312,36.1357,0,0,0,0,0,0,0,-1,853,1646,2.01314,-36.1358
-364,-622,1.86603,38.0837,0,0,0,0,0,0,0,-1,860,1646,1.86605,-38.0837
-357,-622,1.96606,39.1404,0,0,0,0,0,0,0,-1,867,1646,1.96605,-39.1403
-350,-622,1.89435,39.9137,0.00372337,-0.00644747,0.00075925,0.00377974,-0.00650384,0.0741023,0.00600626,0.0478309,874,1646,1.89435,-39.9137
-343,-622,1.85547,40.5116,0.00345148,-0.00539986,0.00105382,0.00357522,-0.0055236,0.116882,0.0052932,0.0289584,881,1646,1.85549,-40.5116
-336,-622,1.94989,41.1487,0.00305751,-0.00429486,0.00117291,0.00324009,-0.00447744,0.154423,0.00447476,0.0104998,888,1646,1.94992,-41.1486
-329,-622,1.8924,41.8615,0.00266532,-0.00323185,0.00130942,0.00294299,-0.00350952,0.208961,0.00373014,0.00902036,895,1646,1.8924,-41.8615
-322,-622,1.85754,42.5824,0.00230333,-0.00227463,0.00143997,0.00271859,-0.0026899,0.280767,0.00312261,0.0107767,902,1646,1.85752,-42.5824
-315,-622,1.84027,43.3076,0.00207519,-0.00132791,0.00158808,0.00270115,-0.00195386,0.37546,0.00269909,0.015051,909,1646,1.84026,-43.3077
-308,-622,1.80475,43.9888,0.00201644,-0.000313786,0.00178011,0.00297883,-0.00127618,0.495626,0.00252134,0.0158594,916,1646,1.80474,-43.9887
-301,-622,1.77026,44.6492,0.00212259,0.000743285,0.00207096,0.00361571,-0.000749837,0.624668,0.00269541,0.0147027,923,1646,1.77027,-44.6492
-294,-622,1.74469,45.3326,0.00239023,0.00201104,0.00248092,0.00468879,-0.000287513,0.747262,0.00322597,0.0110666,930,1646,1.74468,-45.3327
-287,-622,1.71356,45.9956,0.00272264,0.00323347,0.00293944,0.00592857,2.75364e-05,0.828735,0.00394323,0.0089791,937,1646,1.71357,-45.9956
-280,-622,1.66864,46.6542,0.00315976,0.00448126,0.00343005,0.00731362,0.000327396,0.880551,0.00477036,0.0108675,944,1646,1.66866,-46.6542
-273,-622,1.65002,47.3073,0.00386637,0.00548438,0.00393085,0.00868861,0.000662141,0.886885,0.00558479,0.016434,951,1646,1.65001,-47.3072
-266,-622,1.61316,47.9725,0.00466394,0.00630647,0.00446749,0.0100276,0.000942857,0.876299,0.00639396,0.0157311,958,1646,1.61316,-47.9725
-259,-622,1.58557,48.6357,0.00550878,0.00720991,0.00495303,0.0113849,0.00133382,0.870432,0.00718669,0.0132329,965,1646,1.58557,-48.6357
-252,-622,1.58374,49.2592,0.00648771,0.00791537,0.0053807,0.0126294,0.0017737,0.851346,0.00789505,0.0126268,972,1646,1.58372,-49.2591
-245,-622,1.6582,49.9016,0.00749944,0.00833766,0.00575964,0.0136934,0.00214368,0.821718,0.00850492,0.0116102,979,1646,1.65822,-49.9016
-238,-622,1.64569,50.5448,0.00825218,0.00789432,0.00585862,0.0139346,0.0022119,0.770132,0.00864725,0.0143416,986,1646,1.64566,-50.5448
-231,-622,1.69348,51.2301,0.00873464,0.00638058,0.00554605,0.0132272,0.00188804,0.680835,0.00826101,0.0210701,993,1646,1.69351,-51.2301
-224,-622,1.80603,51.7125,0.00919201,0.00467844,0.00516636,0.012573,0.00129747,0.579477,0.00798472,0.0313281,1000,1646,1.80604,-51.7126
-217,-622,1.95746,52.2224,0.00935705,0.00221039,0.004489,0.0115213,4.61447e-05,0.449244,0.00766553,0.0444056,1007,1646,1.95747,-52.2224
-210,-622,1.97565,53.1395,0,0,0,0,0,0,0,-1,1014,1646,1.97565,-53.1395
-203,-622,4.21375,20.9574,0,0,0,0,0,0,0,-1,1021,1646,4.21375,-20.9574
-196,-622,2.72803,52.0175,0,0,0,0,0,0,0,-1,1028,1646,2.72803,-52.0175
-189,-622,2.0481,54.3247,0,0,0,0,0,0,0,-1,1035,1646,2.04815,-54.3247
-182,-622,1.9408,54.5946,0,0,0,0,0,0,0,-1,1042,1646,1.94077,-54.5946
-175,-622,3.61438,53.5428,0,0,0,0,0,0,0,-1,1049,1646,3.61438,-53.5428
-168,-622,3.44849,53.4453,0,0,0,0,0,0,0,-1,1056,1646,3.44848,-53.4453
-161,-622,2.79761,52.5291,0,0,0,0,0,0,0,-1,1063,1646,2.79756,-52.529
-154,-622,2.00879,52.2384,0,0,0,0,0,0,0,-1,1070,1646,2.00874,-52.2384
-147,-622,0.939453,52.2694,0,0,0,0,0,0,0,-1,1077,1646,0.939511,-52.2694
-140,-622,0.546997,48.6783,0,0,0,0,0,0,0,-1,1084,1646,0.547022,-48.6784
-133,-622,3.09644,17.677,0,0,0,0,0,0,0,-1,1091,1646,3.09638,-17.677
-126,-622,3.5061,19.5251,0,0,0,0,0,0,0,-1,1098,1646,3.50616,-19.5252
-119,-622,4.06384,13.1715,0,0,0,0,0,0,0,-1,1105,1646,4.06379,-13.1716
-112,-622,4.33276,14.6605,0,0,0,0,0,0,0,-1,1112,1646,4.33281,-14.6605
-105,-622,0.306519,4.38159,0,0,0,0,0,0,0,-1,1119,1646,0.306536,-4.38159
-98,-622,-0.510376,3.5033,0,0,0,0,0,0,0,-1,1126,1646,-0.510393,-3.50324
-91,-622,-1.146,0.975952,0,0,0,0,0,0,0,-1,1133,1646,-1.14599,-0.97597
-84,-622,-2.04895,1.31787,0,0,0,0,0,0,0,-1,1140,1646,-2.0489,-1.31781
-77,-622,-1.80627,0.332275,0,0,0,0,0,0,0,-1,1147,1646,-1.80622,-0.33223
-70,-622,-3.65588,2.28149,0,0,0,0,0,0,0,-1,1154,1646,-3.65589,-2.28155
-63,-622,-2.49683,1.27087,0,0,0,0,0,0,0,-1,1161,1646,-2.49679,-1.27093
-56,-622,-2.44238,-0.575562,0,0,0,0,0,0,0,-1,1168,1646,-2.44242,0.575508
-49,-622,-2.41089,1.38818,0,0,0,0,0,0,0,-1,1175,1646,-2.41088,-1.38815
-42,-622,-2.71497,2.85242,0,0,0,0,0,0,0,-1,1182,1646,-2.71491,-2.85247
-35,-622,-3.0177,4.25842,0,0,0,0,0,0,0,-1,1189,1646,-3.01773,-4.25838
-28,-622,-0.896606,0.678833,0,0,0,0,0,0,0,-1,1196,1646,-0.89661,-0.678835
-21,-622,16.4141,36.2849,0,0,0,0,0,0,0,-1,1203,1646,16.4141,-36.285
-14,-622,7.23254,64.425,0,0,0,0,0,0,0,-1,1210,1646,7.23256,-64.425
-7,-622,3.84351,65.6951,0,0,0,0,0,0,0,-1,1217,1646,3.84347,-65.6951
0,-622,0,0,0,0,0,0,0,0,0,-1,1224,1646,0,0
7,-622,0,0,0,0,0,0,0,0,0,-1,1231,1646,0,0
14,-622,0,0,0,0,0,0,0,0,0,-1,1238,1646,0,0
21,-622,0,0,0,0,0,0,0,0,0,-1,1245,1646,0,0
28,-622,0,0,0,0,0,0,0,0,0,-1,1252,1646,0,0
35,-622,0,0,0,0,0,0,0,0,0,-1,1259,1646,0,0
42,-622,0,0,0,0,0,0,0,0,0,-1,1266,1646,0,0
49,-622,0,0,0,0,0,0,0,0,0,-1,1273,1646,0,0
56,-622,0,0,0,0,0,0,0,0,0,-1,1280,1646,0,0
63,-622,0,0,0,0,0,0,0,0,0,-1,1287,1646,0,0
70,-622,0,0,0,0,0,0,0,0,0,-1,1294,1646,0,0
77,-622,0,0,0,0,0,0,0,0,0,-1,1301,1646,0,0
84,-622,0,0,0,0,0,0,0,0,0,-1,1308,1646,0,0
91,-622,0,0,0,0,0,0,0,0,0,-1,1315,1646,0,0
98,-622,0,0,0,0,0,0,0,0,0,-1,1322,1646,0,0
105,-622,0,0,0,0,0,0,0,0,0,-1,1329,1646,0,0
112,-622,0,0,0,0,0,0,0,0,0,-1,1336,1646,0,0
119,-622,0,0,0,0,0,0,0,0,0,-1,1343,1646,0,0
126,-622,8.96912,63.7273,0.0853287,-0.00845994,-0.0493394,0.106504,-0.0296351,-0.4054,0.0826708,0.0465262,1350,1646,8.96908,-63.7273
133,-622,8.797,63.9005,0.0967266,-0.00420396,-0.0698195,0.132409,-0.0398868,-0.472467,0.104147,0.0499364,1357,1646,8.79694,-63.9005
140,-622,9.68628,63.653,0,0,0,0,0,0,0,-1,1364,1646,9.68634,-63.653
147,-622,21.0071,78.3402,0,0,0,0,0,0,0,-1,1371,1646,21.0071,-78.3402
154,-622,2.5271,52.655,0,0,0,0,0,0,0,-1,1378,1646,2.52706,-52.655
161,-622,10.6884,6.46448,0,0,0,0,0,0,0,-1,1385,1646,10.6883,-6.46442
168,-622,12.2402,5.18091,0,0,0,0,0,0,0,-1,1392,1646,12.2403,-5.1809
175,-622,5.64355,-1.77075,0,0,0,0,0,0,0,-1,1399,1646,5.64351,1.77077
182,-622,5.88586,-1.32251,0,0,0,0,0,0,0,-1,1406,1646,5.88587,1.32256
189,-622,5.97986,-1.18005,0,0,0,0,0,0,0,-1,1413,1646,5.97986,1.18003
196,-622,5.85022,-0.244507,0,0,0,0,0,0,0,-1,1420,1646,5.85026,0.244478
203,-622,5.25159,0.138794,0,0,0,0,0,0,0,-1,1427,1646,5.25162,-0.138822
210,-622,6.66833,0.0397949,0,0,0,0,0,0,0,-1,1434,1646,6.6684,-0.0398278
217,-622,6.12061,0.0506592,0,0,0,0,0,0,0,-1,1441,1646,6.12058,-0.0507181
224,-622,5.57275,0.0616455,0,0,0,0,0,0,0,-1,1448,1646,5.57276,-0.0616084
231,-622,5.31348,1.3949,0,0,0,0,0,0,0,-1,1455,1646,5.31342,-1.39495
238,-622,3.76477,2.90686,0,0,0,0,0,0,0,-1,1462,1646,3.7648,-2.90686
245,-622,5.13794,2.67993,0,0,0,0,0,0,0,-1,1469,1646,5.13796,-2.67992
252,-622,6.66528,2.53992,0,0,0,0,0,0,0,-1,1476,1646,6.66522,-2.53991
259,-622,8.93787,3.31458,0,0,0,0,0,0,0,-1,1483,1646,8.93791,-3.31454
266,-622,5.72644,3.11926,0,0,0,0,0,0,0,-1,1490,1646,5.72647,-3.1192
273,-622,7.28076,3.61218,0,0,0,0,0,0,0,-1,1497,1646,7.28071,-3.61212
280,-622,8.43127,4.4447,0,0,0,0,0,0,0,-1,1504,1646,8.43123,-4.44467
287,-622,8.60315,5.94617,0,0,0,0,0,0,0,-1,1511,1646,8.60319,-5.94622
294,-622,7.62756,11.5143,0,0,0,0,0,0,0,-1,1518,1646,7.62762,-11.5143
301,-622,7.36548,11.6569,0,0,0,0,0,0,0,-1,1525,1646,7.36549,-11.6569
308,-622,7.10339,11.7994,0,0,0,0,0,0,0,-1,1532,1646,7.10335,-11.7995
315,-622,8.28687,16.5842,0,0,0,0,0,0,0,-1,1539,1646,8.28689,-16.5843
322,-622,7.43689,20.5786,0,0,0,0,0,0,0,-1,1546,1646,7.43685,-20.5786
329,-622,9.76477,26.4202,0,0,0,0,0,0,0,-1,1553,1646,9.7648,-26.4202
336,-622,10.4526,28.8552,0,0,0,0,0,0,0,-1,1560,1646,10.4526,-28.8552
343,-622,15.1061,49.1334,0,0,0,0,0,0,0,-1,1567,1646,15.1061,-49.1335
350,-622,16.2715,52.118,0,0,0,0,0,0,0,-1,1574,1646,16.2715,-52.1181
357,-622,16.2284,51.4476,0.0187498,0.0301968,-0.00499446,0.0320695,0.0168771,-1.21205,0.0185239,0.0434165,1581,1646,16.2284,-51.4476
364,-622,16.2213,50.7074,0.0175678,0.0266655,-0.0061947,0.0298021,0.0144312,-1.10209,0.0172091,0.0338061,1588,1646,16.2213,-50.7074
371,-622,16.1859,49.9873,0.0162063,0.0229744,-0.00672761,0.0271211,0.0120596,-1.01842,0.0156903,0.0214391,1595,1646,16.1859,-49.9873
378,-622,16.1897,49.2867,0.0145194,0.0194099,-0.00674926,0.0241432,0.00978612,-0.959191,0.0140221,0.0127766,1602,1646,16.1898,-49.2868
385,-622,16.2017,48.6216,0.0126456,0.0160615,-0.00630031,0.0208812,0.00782582,-0.91776,0.0121812,0.0101495,1609,1646,16.2016,-48.6215
392,-622,16.1787,48.0184,0.0106441,0.0130297,-0.00561224,0.0175745,0.00609929,-0.890109,0.0103037,0.0114618,1616,1646,16.1787,-48.0184
399,-622,16.1567,47.3833,0.00864896,0.0104616,-0.00483286,0.0144724,0.00463817,-0.878088,0.00853326,0.0122038,1623,1646,16.1567,-47.3833
406,-622,16.1333,46.7225,0.00684972,0.00802856,-0.00436136,0.0118401,0.00303813,-0.852564,0.00710078,0.0149754,1630,1646,16.1333,-46.7226
413,-622,16.1316,46.0792,0.00531304,0.00620895,-0.00352052,0.0093099,0.0022121,-0.848679,0.00561637,0.0160679,1637,1646,16.1315,-46.0792
420,-622,16.1071,45.4666,0.00405862,0.00478733,-0.00288742,0.00733329,0.00151266,-0.848161,0.00447077,0.0158289,1644,1646,16.107,-45.4666
427,-622,16.0786,44.7965,0.00283561,0.00318353,-0.00223249,0.00524882,0.000770313,-0.82428,0.0032728,0.0127302,1651,1646,16.0786,-44.7966
434,-622,16.0618,44.1031,0.00205862,0.00252773,-0.00202914,0.00433582,0.00025052,-0.842939,0.00281077,0.0135053,1658,1646,16.0617,-44.1031
441,-622,16.0424,43.4304,0.00175821,0.0019156,-0.00206177,0.00390017,-0.000226365,-0.804473,0.00267876,0.0148343,1665,1646,16.0424,-43.4304
448,-622,15.9941,42.7726,0.00178762,0.00141357,-0.00230168,0.00390986,-0.00070867,-0.744859,0.00287209,0.0140126,1672,1646,15.9941,-42.7726
455,-622,15.9443,42.0966,0.00199771,0.000958453,-0.00260641,0.00413579,-0.00117962,-0.687006,0.00322317,0.0161372,1679,1646,15.9443,-42.0965
462,-622,15.9343,41.4268,0.00218934,0.000438123,-0.00291688,0.00435921,-0.00173174,-0.639584,0.00362403,0.0177181,1686,1646,15.9343,-41.4268
469,-622,15.8938,40.7479,0.00229886,-1.5897e-05,-0.00327639,0.00461628,-0.00233332,-0.615615,0.00408388,0.0199566,1693,1646,15.8939,-40.7479
476,-622,15.9855,40.0228,0.00240097,-0.0002671,-0.0035601,0.00486877,-0.0027349,-0.606136,0.00444723,0.0403507,1700,1646,15.9855,-40.0228
483,-622,15.943,39.1051,0,0,0,0,0,0,0,-1,1707,1646,15.943,-39.1052
490,-622,15.8815,36.627,0,0,0,0,0,0,0,-1,1714,1646,15.8814,-36.6269
497,-622,14.9666,32.1024,0,0,0,0,0,0,0,-1,1721,1646,14.9665,-32.1024
504,-622,10.8306,19.8021,0,0,0,0,0,0,0,-1,1728,1646,10.8306,-19.8022
511,-622,5.29004,4.14587,0,0,0,0,0,0,0,-1,1735,1646,5.29008,-4.14589
518,-622,5.6001,1.55359,0,0,0,0,0,0,0,-1,1742,1646,5.60015,-1.5536
525,-622,5.83093,2.01807,0,0,0,0,0,0,0,-1,1749,1646,5.83097,-2.01802
532,-622,5.44202,0.57373,0,0,0,0,0,0,0,-1,1756,1646,5.44196,-0.573705
539,-622,9.32129,1.06116,0,0,0,0,0,0,0,-1,1763,1646,9.32131,-1.0612
546,-622,6.50977,-3.45618,0,0,0,0,0,0,0,-1,1770,1646,6.50981,3.4562
553,-622,0,0,0,0,0,0,0,0,0,-1,1777,1646,0,0
560,-622,0,0,0,0,0,0,0,0,0,-1,1784,1646,0,0
567,-622,0,0,0,0,0,0,0,0,0,-1,1791,1646,0,0
574,-622,0,0,0,0,0,0,0,0,0,-1,1798,1646,0,0
581,-622,0,0,0,0,0,0,0,0,0,-1,1805,1646,0,0
588,-622,0,0,0,0,0,0,0,0,0,-1,1812,1646,0,0
595,-622,0,0,0,0,0,0,0,0,0,-1,1819,1646,0,0
602,-622,0,0,0,0,0,0,0,0,0,-1,1826,1646,0,0
609,-622,0,0,0,0,0,0,0,0,0,-1,1833,1646,0,0
616,-622,0,0,0,0,0,0,0,0,0,-1,1840,1646,0,0
623,-622,0,0,0,0,0,0,0,0,0,-1,1847,1646,0,0
630,-622,0,0,0,0,0,0,0,0,0,-1,1854,1646,0,0
637,-622,0,0,0,0,0,0,0,0,0,-1,1861,1646,0,0
644,-622,0,0,0,0,0,0,0,0,0,-1,1868,1646,0,0
651,-622,0,0,0,0,0,0,0,0,0,-1,1875,1646,0,0
658,-622,0,0,0,0,0,0,0,0,0,-1,1882,1646,0,0
665,-622,0,0,0,0,0,0,0,0,0,-1,1889,1646,0,0
672,-622,0,0,0,0,0,0,0,0,0,-1,1896,1646,0,0
679,-622,0,0,0,0,0,0,0,0,0,-1,1903,1646,0,0
686,-622,0,0,0,0,0,0,0,0,0,-1,1910,1646,0,0
693,-622,0,0,0,0,0,0,0,0,0,-1,1917,1646,0,0
700,-622,0,0,0,0,0,0,0,0,0,-1,1924,1646,0,0
707,-622,0,0,0,0,0,0,0,0,0,-1,1931,1646,0,0
714,-622,0,0,0,0,0,0,0,0,0,-1,1938,1646,0,0
721,-622,0,0,0,0,0,0,0,0,0,-1,1945,1646,0,0
728,-622,0,0,0,0,0,0,0,0,0,-1,1952,1646,0,0
735,-622,0,0,0,0,0,0,0,0,0,-1,1959,1646,0,0
742,-622,0,0,0,0,0,0,0,0,0,-1,1966,1646,0,0
749,-622,0,0,0,0,0,0,0,0,0,-1,1973,1646,0,0
756,-622,0,0,0,0,0,0,0,0,0,-1,1980,1646,0,0
763,-622,0,0,0,0,0,0,0,0,0,-1,1987,1646,0,0
770,-622,0,0,0,0,0,0,0,0,0,-1,1994,1646,0,0
777,-622,0,0,0,0,0,0,0,0,0,-1,2001,1646,0,0
784,-622,0,0,0,0,0,0,0,0,0,-1,2008,1646,0,0
791,-622,0,0,0,0,0,0,0,0,0,-1,2015,1646,0,0
798,-622,0,0,0,0,0,0,0,0,0,-1,2022,1646,0,0
805,-622,0,0,0,0,0,0,0,0,0,-1,2029,1646,0,0
812,-622,0,0,0,0,0,0,0,0,0,-1,2036,1646,0,0
-700,-629,0,0,0,0,0,0,0,0,0,-1,524,1653,0,0
-693,-629,0,0,0,0,0,0,0,0,0,-1,531,1653,0,0
-686,-629,0,0,0,0,0,0,0,0,0,-1,538,1653,0,0
-679,-629,0,0,0,0,0,0,0,0,0,-1,545,1653,0,0
-672,-629,0,0,0,0,0,0,0,0,0,-1,552,1653,0,0
-665,-629,0,0,0,0,0,0,0,0,0,-1,559,1653,0,0
-658,-629,0,0,0,0,0,0,0,0,0,-1,566,1653,0,0
-651,-629,0,0,0,0,0,0,0,0,0,-1,573,1653,0,0
-644,-629,0,0,0,0,0,0,0,0,0,-1,580,1653,0,0
-637,-629,0,0,0,0,0,0,0,0,0,-1,587,1653,0,0
-630,-629,0,0,0,0,0,0,0,0,0,-1,594,1653,0,0
-623,-629,0,0,0,0,0,0,0,0,0,-1,601,1653,0,0
-616,-629,0,0,0,0,0,0,0,0,0,-1,608,1653,0,0
-609,-629,0,0,0,0,0,0,0,0,0,-1,615,1653,0,0
-602,-629,0,0,0,0,0,0,0,0,0,-1,622,1653,0,0
-595,-629,0,0,0,0,0,0,0,0,0,-1,629,1653,0,0
-588,-629,0,0,0,0,0,0,0,0,0,-1,636,1653,0,0
-581,-629,0,0,0,0,0,0,0,0,0,-1,643,1653,0,0
-574,-629,0,0,0,0,0,0,0,0,0,-1,650,1653,0,0
-567,-629,0,0,0,0,0,0,0,0,0,-1,657,1653,0,0
-560,-629,0,0,0,0,0,0,0,0,0,-1,664,1653,0,0
-553,-629,0,0,0,0,0,0,0,0,0,-1,671,1653,0,0
-546,-629,0,0,0,0,0,0,0,0,0,-1,678,1653,0,0
-539,-629,0,0,0,0,0,0,0,0,0,-1,685,1653,0,0
-532,-629,0,0,0,0,0,0,0,0,0,-1,692,1653,0,0
-525,-629,0,0,0,0,0,0,0,0,0,-1,699,1653,0,0
-518,-629,0,0,0,0,0,0,0,0,0,-1,706,1653,0,0
-511,-629,0,0,0,0,0,0,0,0,0,-1,713,1653,0,0
-504,-629,0,0,0,0,0,0,0,0,0,-1,720,1653,0,0
-497,-629,0,0,0,0,0,0,0,0,0,-1,727,1653,0,0
-490,-629,0,0,0,0,0,0,0,0,0,-1,734,1653,0,0
-483,-629,0,0,0,0,0,0,0,0,0,-1,741,1653,0,0
-476,-629,0,0,0,0,0,0,0,0,0,-1,748,1653,0,0
-469,-629,0,0,0,0,0,0,0,0,0,-1,755,1653,0,0
-462,-629,0,0,0,0,0,0,0,0,0,-1,762,1653,0,0
-455,-629,0,0,0,0,0,0,0,0,0,-1,769,1653,0,0
-448,-629,0,0,0,0,0,0,0,0,0,-1,776,1653,0,0
-441,-629,0,0,0,0,0,0,0,0,0,-1,783,1653,0,0
-434,-629,0,0,0,0,0,0,0,0,0,-1,790,1653,0,0
-427,-629,0,0,0,0,0,0,0,0,0,-1,797,1653,0,0
-420,-629,-3.87103,3.37634,0,0,0,0,0,0,0,-1,804,1653,-3.87101,-3.37633
-413,-629,-5.69751,1.33582,0,0,0,0,0,0,0,-1,811,1653,-5.69754,-1.3358
-406,-629,2.85406,6.01501,0,0,0,0,0,0,0,-1,818,1653,2.85405,-6.01507
-399,-629,-0.455627,10.8687,0,0,0,0,0,0,0,-1,825,1653,-0.455625,-10.8687
-392,-629,1.15369,11.1295,0,0,0,0,0,0,0,-1,832,1653,1.1537,-11.1295
-385,-629,1.81976,11.6935,0,0,0,0,0,0,0,-1,839,1653,1.81975,-11.6935
-378,-629,2.19452,14.7941,0,0,0,0,0,0,0,-1,846,1653,2.19451,-14.7941
-371,-629,3.60114,14.7299,0,0,0,0,0,0,0,-1,853,1653,3.60113,-14.7299
-364,-629,3.26898,21.0801,0,0,0,0,0,0,0,-1,860,1653,3.26895,-21.08
-357,-629,4.38782,16.3444,0,0,0,0,0,0,0,-1,867,1653,4.38783,-16.3443
-350,-629,2.28009,39.9014,0,0,0,0,0,0,0,-1,874,1653,2.28009,-39.9014
-343,-629,2.50757,40.5714,0.00513265,-0.00700235,0.00141862,0.00529629,-0.00716599,0.11484,0.00722204,0.0414507,881,1653,2.50757,-40.5714
-336,-629,2.60046,41.2124,0.00421567,-0.00558166,0.00164923,0.00448584,-0.00585183,0.162375,0.0059858,0.0199842,888,1653,2.60047,-41.2124
-329,-629,2.59161,41.9095,0.0032787,-0.00451009,0.00178045,0.0036664,-0.00489779,0.214406,0.00496155,0.0115522,895,1653,2.59163,-41.9095
-322,-629,2.55481,42.6072,0.00245181,-0.00347607,0.00186023,0.00298722,-0.00401147,0.280241,0.00405509,0.0117999,902,1653,2.55484,-42.6072
-315,-629,2.51147,43.3143,0.0018665,-0.00247835,0.0019082,0.00258556,-0.0031974,0.360369,0.00334502,0.0156021,909,1653,2.51148,-43.3143
-308,-629,2.48004,44.0087,0.00152523,-0.00150242,0.0019891,0.00251104,-0.00248823,0.460126,0.00288634,0.0136034,916,1653,2.48006,-44.0087
-301,-629,2.45636,44.7112,0.00135759,-0.000518743,0.00212378,0.00274119,-0.00190234,0.577415,0.00269548,0.0121502,923,1653,2.45639,-44.7112
-294,-629,2.42938,45.3763,0.00142221,0.000615348,0.00234284,0.0033961,-0.00135855,0.700136,0.00282787,0.0128819,930,1653,2.42936,-45.3764
-287,-629,2.39124,46.0409,0.00159382,0.00167613,0.00259567,0.00423098,-0.000961024,0.793326,0.00318962,0.010393,937,1653,2.39123,-46.0409
-280,-629,2.35364,46.7161,0.0018588,0.00278481,0.00285898,0.00521803,-0.000574425,0.865675,0.00368512,0.0107002,944,1653,2.35364,-46.7161
-273,-629,2.29767,47.3674,0.00245134,0.00357798,0.00312331,0.00618836,-0.000159041,0.874619,0.0041796,0.0144383,951,1653,2.29766,-47.3674
-266,-629,2.28052,48.0348,0.00319135,0.00422309,0.00339886,0.007145,0.00026943,0.860712,0.00467611,0.0152486,958,1653,2.28052,-48.0348
-259,-629,2.27435,48.6938,0.00397591,0.00492908,0.00363154,0.00811517,0.000789817,0.850643,0.005167,0.0157366,965,1653,2.27438,-48.6939
-252,-629,2.26422,49.297,0.00482848,0.00546414,0.00381011,0.00896965,0.00132297,0.827011,0.0055912,0.0114832,972,1653,2.26421,-49.297
-245,-629,2.27881,49.934,0.00572217,0.00572669,0.00396415,0.00968857,0.00176028,0.785683,0.00595959,0.00850788,979,1653,2.27881,-49.934
-238,-629,2.25494,50.5598,0.00644449,0.00532815,0.00395602,0.00988153,0.00189112,0.715314,0.00605654,0.0110915,986,1653,2.25495,-50.5598
-231,-629,2.2049,51.178,0.00694804,0.00410697,0.00367584,0.00946828,0.00158673,0.601012,0.00585539,0.0148322,993,1653,2.20488,-51.1779
-224,-629,2.30231,51.8669,0.007382,0.00276782,0.00332847,0.00912477,0.00102504,0.482345,0.00577192,0.0170958,1000,1653,2.30231,-51.8669
-217,-629,2.2561,52.4014,0.00761687,0.000981141,0.00274699,0.00860646,-8.45315e-06,0.345774,0.00574046,0.0284666,1007,1653,2.25608,-52.4014
-210,-629,2.37079,53.1179,0,0,0,0,0,0,0,-1,1014,1653,2.37078,-53.118
-203,-629,2.48651,54.0867,0,0,0,0,0,0,0,-1,1021,1653,2.4865,-54.0866
-196,-629,2.74475,54.2214,0,0,0,0,0,0,0,-1,1028,1653,2.74473,-54.2215
-189,-629,2.52332,54.4009,0.00809947,-0.0100661,-0.000929712,0.00814693,-0.0101136,-0.0510022,0.0105631,0.0444992,1035,1653,2.52329,-54.4008
-182,-629,2.47021,54.7882,0.00788471,-0.0116933,-0.00153083,0.00800368,-0.0118123,-0.0775631,0.011511,0.0488536,1042,1653,2.47019,-54.7882
-175,-629,2.5592,55.2048,0,0,0,0,0,0,0,-1,1049,1653,2.55922,-55.2048
-168,-629,3.44006,55.4473,0,0,0,0,0,0,0,-1,1056,1653,3.44004,-55.4472
-161,-629,3.2146,53.0543,0,0,0,0,0,0,0,-1,1063,1653,3.21462,-53.0543
-154,-629,2.30042,52.7101,0,0,0,0,0,0,0,-1,1070,1653,2.30043,-52.7101
-147,-629,1.22363,52.6086,0,0,0,0,0,0,0,-1,1077,1653,1.22368,-52.6087
-140,-629,3.68201,55.7941,0,0,0,0,0,0,0,-1,1084,1653,3.68206,-55.7941
-133,-629,1.99792,57.769,0,0,0,0,0,0,0,-1,1091,1653,1.99792,-57.769
-126,-629,4.01025,19.5328,0,0,0,0,0,0,0,-1,1098,1653,4.01022,-19.5328
-119,-629,4.94177,13.5525,0,0,0,0,0,0,0,-1,1105,1653,4.94172,-13.5525
-112,-629,5.63123,15.9187,0,0,0,0,0,0,0,-1,1112,1653,5.63118,-15.9187
-105,-629,2.15881,4.38342,0,0,0,0,0,0,0,-1,1119,1653,2.15878,-4.38347
-98,-629,0.825806,4.19385,0,0,0,0,0,0,0,-1,1126,1653,0.825779,-4.1939
-91,-629,-0.452271,3.64465,0,0,0,0,0,0,0,-1,1133,1653,-0.452278,-3.6446
-84,-629,-2.6084,0.466797,0,0,0,0,0,0,0,-1,1140,1653,-2.6084,-0.466786
-77,-629,-3.50903,2.10706,0,0,0,0,0,0,0,-1,1147,1653,-3.509,-2.10707
-70,-629,-1.20886,2.52502,0,0,0,0,0,0,0,-1,1154,1653,-1.20886,-2.525
-63,-629,-0.960693,4.30212,0,0,0,0,0,0,0,-1,1161,1653,-0.960691,-4.30215
-56,-629,-1.31934,5.64343,0,0,0,0,0,0,0,-1,1168,1653,-1.31928,-5.6434
-49,-629,-2.15662,2.57458,0,0,0,0,0,0,0,-1,1175,1653,-2.15656,-2.57459
-42,-629,-2.46326,3.91467,0,0,0,0,0,0,0,-1,1182,1653,-2.4633,-3.91466
-35,-629,-2.67261,5.24292,0,0,0,0,0,0,0,-1,1189,1653,-2.67257,-5.24298
-28,-629,-0.402954,-0.866577,0,0,0,0,0,0,0,-1,1196,1653,-0.402943,0.866612
-21,-629,3.45508,27.0596,0,0,0,0,0,0,0,-1,1203,1653,3.45508,-27.0596
-14,-629,3.56299,64.761,0,0,0,0,0,0,0,-1,1210,1653,3.56298,-64.761
-7,-629,4.05981,65.7419,0,0,0,0,0,0,0,-1,1217,1653,4.05982,-65.742
0,-629,4.1864,67.0748,0,0,0,0,0,0,0,-1,1224,1653,4.18643,-67.0749
7,-629,4.27478,67.4271,0,0,0,0,0,0,0,-1,1231,1653,4.27473,-67.4271
14,-629,4.95898,69.389,0,0,0,0,0,0,0,-1,1238,1653,4.95904,-69.3891
21,-629,3.41162,68.9457,0.041199,0.0851465,-0.0314547,0.101543,0.0248029,-1.09029,0.0611284,0.0462249,1245,1653,3.4116,-68.9457
28,-629,4.14197,64.5188,0,0,0,0,0,0,0,-1,1252,1653,4.14191,-64.5188
35,-629,4.25989,64.4697,0.0618212,0.0631236,0.00419553,0.0667181,0.0582266,0.862388,0.0419358,0.0424372,1259,1653,4.25993,-64.4697
42,-629,4.72241,64.1367,0,0,0,0,0,0,0,-1,1266,1653,4.72245,-64.1368
49,-629,5.47241,63.5844,0,0,0,0,0,0,0,-1,1273,1653,5.47237,-63.5843
56,-629,6.45557,63.5389,0.0853616,0.028505,0.0457479,0.110795,0.00307207,0.507391,0.0728606,0.0484433,1280,1653,6.45554,-63.539
63,-629,7.41125,63.5339,0.0924566,0.0194433,0.0520796,0.11955,-0.00765051,0.479707,0.0823689,0.0463122,1287,1653,7.41124,-63.5339
70,-629,8.41504,63.5063,0.0995967,0.00794222,0.0549855,0.125348,-0.0178095,0.437997,0.0900908,0.0455997,1294,1653,8.41508,-63.5064
77,-629,9.4834,63.54,0,0,0,0,0,0,0,-1,1301,1653,9.48339,-63.5401
84,-629,10.4646,63.6127,0.0990011,-0.00290608,0.0517102,0.120644,-0.0245487,0.396384,0.0897384,0.0474034,1308,1653,10.4646,-63.6126
91,-629,9.68225,63.5221,0.0972319,-0.00598152,0.0365574,0.108868,-0.0176179,0.308165,0.0791082,0.041373,1315,1653,9.68227,-63.5221
98,-629,10.4854,63.1918,0.0948861,-0.00819716,0.0179942,0.0979369,-0.0112479,0.167945,0.0693453,0.0435644,1322,1653,10.4853,-63.1918
105,-629,11.342,62.9865,0,0,0,0,0,0,0,-1,1329,1653,11.342,-62.9865
112,-629,8.13965,63.3408,0.0945409,-0.00972106,-0.019747,0.0981556,-0.0133358,-0.181047,0.0703052,0.0493501,1336,1653,8.13962,-63.3408
119,-629,9.13037,64.1144,0.0973876,-0.00910018,-0.039507,0.110444,-0.0221565,-0.319181,0.0820185,0.0466868,1343,1653,9.13035,-64.1144
126,-629,9.64124,63.7555,0.104551,-0.00586861,-0.0596859,0.130646,-0.031964,-0.412169,0.0994787,0.0439612,1350,1653,9.64129,-63.7555
133,-629,9.95264,63.9205,0.1188,-0.00125971,-0.080091,0.158861,-0.0413206,-0.463801,0.122035,0.0462389,1357,1653,9.95258,-63.9206
140,-629,11.2369,63.5103,0.135978,0.00414606,-0.100303,0.190085,-0.0499611,-0.494699,0.14625,0.0471901,1364,1653,11.237,-63.5102
147,-629,12.5049,63.4564,0,0,0,0,0,0,0,-1,1371,1653,12.5049,-63.4564
154,-629,6.41516,53.151,0,0,0,0,0,0,0,-1,1378,1653,6.41517,-53.151
161,-629,10.5461,6.83752,0,0,0,0,0,0,0,-1,1385,1653,10.5461,-6.83758
168,-629,12.0059,5.56348,0,0,0,0,0,0,0,-1,1392,1653,12.0059,-5.56352
175,-629,5.84485,-1.78845,0,0,0,0,0,0,0,-1,1399,1653,5.84479,1.7884
182,-629,5.99036,-1.27783,0,0,0,0,0,0,0,-1,1406,1653,5.99041,1.27778
189,-629,5.97668,-0.748535,0,0,0,0,0,0,0,-1,1413,1653,5.97671,0.748544
196,-629,4.52869,9.24695,0,0,0,0,0,0,0,-1,1420,1653,4.52869,-9.2469
203,-629,3.75085,6.88037,0,0,0,0,0,0,0,-1,1427,1653,3.75087,-6.88032
210,-629,3.5907,6.52637,0,0,0,0,0,0,0,-1,1434,1653,3.59067,-6.52642
217,-629,2.4585,4.84448,0,0,0,0,0,0,0,-1,1441,1653,2.45855,-4.84448
224,-629,1.31982,3.68481,0,0,0,0,0,0,0,-1,1448,1653,1.31986,-3.68487
231,-629,3.63025,1.73499,0,0,0,0,0,0,0,-1,1455,1653,3.6303,-1.735
238,-629,4.26428,2.11255,0,0,0,0,0,0,0,-1,1462,1653,4.26429,-2.11253
245,-629,5.61816,1.95361,0,0,0,0,0,0,0,-1,1469,1653,5.61815,-1.95359
252,-629,7.27136,2.18982,0,0,0,0,0,0,0,-1,1476,1653,7.27131,-2.18985
259,-629,8.67334,2.18628,0,0,0,0,0,0,0,-1,1483,1653,8.6733,-2.18633
266,-629,6.86475,3.72058,0,0,0,0,0,0,0,-1,1490,1653,6.86479,-3.72063
273,-629,7.9021,3.8717,0,0,0,0,0,0,0,-1,1497,1653,7.90205,-3.87171
280,-629,9.70837,4.39087,0,0,0,0,0,0,0,-1,1504,1653,9.7084,-4.39082
287,-629,9.82947,7.19348,0,0,0,0,0,0,0,-1,1511,1653,9.8295,-7.19347
294,-629,6.56555,11.6359,0,0,0,0,0,0,0,-1,1518,1653,6.5656,-11.6358
301,-629,13.903,44.4862,0,0,0,0,0,0,0,-1,1525,1653,13.903,-44.4862
308,-629,6.08264,12.1423,0,0,0,0,0,0,0,-1,1532,1653,6.08263,-12.1423
315,-629,6.82043,18.2764,0,0,0,0,0,0,0,-1,1539,1653,6.82049,-18.2764
322,-629,14.1931,43.8071,0,0,0,0,0,0,0,-1,1546,1653,14.1931,-43.8071
329,-629,15.2021,53.5804,0,0,0,0,0,0,0,-1,1553,1653,15.2022,-53.5804
336,-629,15.115,52.9181,0,0,0,0,0,0,0,-1,1560,1653,15.1149,-52.9181
343,-629,15.4611,52.3323,0,0,0,0,0,0,0,-1,1567,1653,15.4611,-52.3323
350,-629,15.647,51.7659,0.0142794,0.0240634,-0.00417089,0.0256001,0.0127428,-1.2178,0.0147803,0.0333016,1574,1653,15.6469,-51.7658
357,-629,15.6521,51.1222,0.0133504,0.0210964,-0.00491137,0.0234782,0.0109687,-1.11927,0.0135648,0.0171566,1581,1653,15.6521,-51.1222
364,-629,15.5929,50.5326,0.0125246,0.0188084,-0.0054952,0.0219965,0.0093365,-1.04509,0.0127479,0.0148506,1588,1653,15.5929,-50.5326
371,-629,15.5493,49.9126,0.0115804,0.0163189,-0.00566265,0.0200879,0.00781133,-0.983529,0.0116929,0.0123215,1595,1653,15.5493,-49.9126
378,-629,15.552,49.2628,0.0103929,0.013849,-0.00553271,0.0179173,0.00632468,-0.936763,0.0104925,0.0108881,1602,1653,15.552,-49.2628
385,-629,15.5525,48.6539,0.00910387,0.0114527,-0.00511641,0.0155277,0.00502881,-0.898211,0.00914848,0.0131128,1609,1653,15.5525,-48.6539
392,-629,15.5299,48.0565,0.00771649,0.00927892,-0.00459105,0.0131547,0.00384066,-0.869671,0.00781096,0.0117416,1616,1653,15.53,-48.0565
399,-629,15.5081,47.4067,0.0062674,0.00736351,-0.00397347,0.0108265,0.00280436,-0.85393,0.00648818,0.0120945,1623,1653,15.5081,-47.4067
406,-629,15.4869,46.7207,0.00496142,0.00554868,-0.00354253,0.00880973,0.00170037,-0.826747,0.00539641,0.0151732,1630,1653,15.4869,-46.7208
413,-629,15.4634,46.0461,0.00387716,0.00416314,-0.00295742,0.00698102,0.00105928,-0.809554,0.00434419,0.0243346,1637,1653,15.4634,-46.0461
420,-629,15.4272,45.4636,0.00302564,0.00311091,-0.00254854,0.00561718,0.000519382,-0.793762,0.00358422,0.0226771,1644,1653,15.4272,-45.4636
427,-629,15.4457,44.8379,0.00225472,0.00204,-0.0021861,0.00433609,-4.13754e-05,-0.760863,0.00290462,0.0161229,1651,1653,15.4456,-44.8379
434,-629,15.4337,44.1606,0.00183882,0.00162576,-0.00218211,0.00391699,-0.000452416,-0.761008,0.00277446,0.0143319,1658,1653,15.4337,-44.1607
441,-629,15.3668,43.4839,0.00176717,0.00125424,-0.00239798,0.00392237,-0.000900954,-0.732126,0.00296127,0.0163283,1665,1653,15.3669,-43.4838
448,-629,15.3248,42.8066,0.0020231,0.00100875,-0.00280611,0.0043675,-0.00133564,-0.695993,0.00344431,0.0153016,1672,1653,15.3248,-42.8067
455,-629,15.2795,42.111,0.00243253,0.000810681,-0.00325534,0.00497643,-0.00173322,-0.66333,0.00402183,0.0147042,1679,1653,15.2795,-42.1109
462,-629,15.2831,41.486,0.0027834,0.00059086,-0.0037611,0.00560474,-0.00223048,-0.643589,0.0046614,0.0207515,1686,1653,15.283,-41.4859
469,-629,15.2731,40.7626,0.00310165,0.000505633,-0.00438487,0.00637659,-0.00276931,-0.641497,0.00541556,0.0340424,1693,1653,15.273,-40.7626
476,-629,15.36,40.02,0,0,0,0,0,0,0,-1,1700,1653,15.36,-40.0201
483,-629,14.0381,30.967,0,0,0,0,0,0,0,-1,1707,1653,14.0381,-30.9671
490,-629,13.9072,28.8588,0,0,0,0,0,0,0,-1,1714,1653,13.9072,-28.8587
497,-629,10.3662,19.8605,0,0,0,0,0,0,0,-1,1721,1653,10.3662,-19.8605
504,-629,7.89453,15.5316,0,0,0,0,0,0,0,-1,1728,1653,7.89447,-15.5316
511,-629,6.29138,3.40295,0,0,0,0,0,0,0,-1,1735,1653,6.29137,-3.403
518,-629,5.84387,1.41858,0,0,0,0,0,0,0,-1,1742,1653,5.84391,-1.4186
525,-629,6.4729,1.02319,0,0,0,0,0,0,0,-1,1749,1653,6.47284,-1.02316
532,-629,6.86511,0.903687,0,0,0,0,0,0,0,-1,1756,1653,6.86514,-0.903691
539,-629,6.60803,0.746704,0,0,0,0,0,0,0,-1,1763,1653,6.60809,-0.746691
546,-629,0,0,0,0,0,0,0,0,0,-1,1770,1653,0,0
553,-629,0,0,0,0,0,0,0,0,0,-1,1777,1653,0,0
560,-629,0,0,0,0,0,0,0,0,0,-1,1784,1653,0,0
567,-629,0,0,0,0,0,0,0,0,0,-1,1791,1653,0,0
574,-629,0,0,0,0,0,0,0,0,0,-1,1798,1653,0,0
581,-629,0,0,0,0,0,0,0,0,0,-1,1805,1653,0,0
588,-629,0,0,0,0,0,0,0,0,0,-1,1812,1653,0,0
595,-629,0,0,0,0,0,0,0,0,0,-1,1819,1653,0,0
602,-629,0,0,0,0,0,0,0,0,0,-1,1826,1653,0,0
609,-629,0,0,0,0,0,0,0,0,0,-1,1833,1653,0,0
616,-629,0,0,0,0,0,0,0,0,0,-1,1840,1653,0,0
623,-629,0,0,0,0,0,0,0,0,0,-1,1847,1653,0,0
630,-629,0,0,0,0,0,0,0,0,0,-1,1854,1653,0,0
637,-629,0,0,0,0,0,0,0,0,0,-1,1861,1653,0,0
644,-629,0,0,0,0,0,0,0,0,0,-1,1868,1653,0,0
651,-629,0,0,0,0,0,0,0,0,0,-1,1875,1653,0,0
658,-629,0,0,0,0,0,0,0,0,0,-1,1882,1653,0,0
665,-629,0,0,0,0,0,0,0,0,0,-1,1889,1653,0,0
672,-629,0,0,0,0,0,0,0,0,0,-1,1896,1653,0,0
679,-629,0,0,0,0,0,0,0,0,0,-1,1903,1653,0,0
686,-629,0,0,0,0,0,0,0,0,0,-1,1910,1653,0,0
693,-629,0,0,0,0,0,0,0,0,0,-1,1917,1653,0,0
700,-629,0,0,0,0,0,0,0,0,0,-1,1924,1653,0,0
707,-629,0,0,0,0,0,0,0,0,0,-1,1931,1653,0,0
714,-629,0,0,0,0,0,0,0,0,0,-1,1938,1653,0,0
721,-629,0,0,0,0,0,0,0,0,0,-1,1945,1653,0,0
728,-629,0,0,0,0,0,0,0,0,0,-1,1952,1653,0,0
735,-629,0,0,0,0,0,0,0,0,0,-1,1959,1653,0,0
742,-629,0,0,0,0,0,0,0,0,0,-1,1966,1653,0,0
749,-629,0,0,0,0,0,0,0,0,0,-1,1973,1653,0,0
756,-629,0,0,0,0,0,0,0,0,0,-1,1980,1653,0,0
763,-629,0,0,0,0,0,0,0,0,0,-1,1987,1653,0,0
770,-629,0,0,0,0,0,0,0,0,0,-1,1994,1653,0,0
777,-629,0,0,0,0,0,0,0,0,0,-1,2001,1653,0,0
784,-629,0,0,0,0,0,0,0,0,0,-1,2008,1653,0,0
791,-629,0,0,0,0,0,0,0,0,0,-1,2015,1653,0,0
798,-629,0,0,0,0,0,0,0,0,0,-1,2022,1653,0,0
805,-629,0,0,0,0,0,0,0,0,0,-1,2029,1653,0,0
812,-629,0,0,0,0,0,0,0,0,0,-1,2036,1653,0,0
-700,-636,0,0,0,0,0,0,0,0,0,-1,524,1660,0,0
-693,-636,0,0,0,0,0,0,0,0,0,-1,531,1660,0,0
-686,-636,0,0,0,0,0,0,0,0,0,-1,538,1660,0,0
-679,-636,0,0,0,0,0,0,0,0,0,-1,545,1660,0,0
-672,-636,0,0,0,0,0,0,0,0,0,-1,552,1660,0,0
-665,-636,0,0,0,0,0,0,0,0,0,-1,559,1660,0,0
-658,-636,0,0,0,0,0,0,0,0,0,-1,566,1660,0,0
-651,-636,0,0,0,0,0,0,0,0,0,-1,573,1660,0,0
-644,-636,0,0,0,0,0,0,0,0,0,-1,580,1660,0,0
-637,-636,0,0,0,0,0,0,0,0,0,-1,587,1660,0,0
-630,-636,0,0,0,0,0,0,0,0,0,-1,594,1660,0,0
-623,-636,0,0,0,0,0,0,0,0,0,-1,601,1660,0,0
-616,-636,0,0,0,0,0,0,0,0,0,-1,608,1660,0,0
-609,-636,0,0,0,0,0,0,0,0,0,-1,615,1660,0,0
-602,-636,0,0,0,0,0,0,0,0,0,-1,622,1660,0,0
-595,-636,0,0,0,0,0,0,0,0,0,-1,629,1660,0,0
-588,-636,0,0,0,0,0,0,0,0,0,-1,636,1660,0,0
-581,-636,0,0,0,0,0,0,0,0,0,-1,643,1660,0,0
-574,-636,0,0,0,0,0,0,0,0,0,-1,650,1660,0,0
-567,-636,0,0,0,0,0,0,0,0,0,-1,657,1660,0,0
-560,-636,0,0,0,0,0,0,0,0,0,-1,664,1660,0,0
-553,-636,0,0,0,0,0,0,0,0,0,-1,671,1660,0,0
-546,-636,0,0,0,0,0,0,0,0,0,-1,678,1660,0,0
-539,-636,0,0,0,0,0,0,0,0,0,-1,685,1660,0,0
-532,-636,0,0,0,0,0,0,0,0,0,-1,692,1660,0,0
-525,-636,0,0,0,0,0,0,0,0,0,-1,699,1660,0,0
-518,-636,0,0,0,0,0,0,0,0,0,-1,706,1660,0,0
-511,-636,0,0,0,0,0,0,0,0,0,-1,713,1660,0,0
-504,-636,0,0,0,0,0,0,0,0,0,-1,720,1660,0,0
-497,-636,0,0,0,0,0,0,0,0,0,-1,727,1660,0,0
-490,-636,0,0,0,0,0,0,0,0,0,-1,734,1660,0,0
-483,-636,0,0,0,0,0,0,0,0,0,-1,741,1660,0,0
-476,-636,0,0,0,0,0,0,0,0,0,-1,748,1660,0,0
-469,-636,0,0,0,0,0,0,0,0,0,-1,755,1660,0,0
-462,-636,0,0,0,0,0,0,0,0,0,-1,762,1660,0,0
-455,-636,0,0,0,0,0,0,0,0,0,-1,769,1660,0,0
-448,-636,0,0,0,0,0,0,0,0,0,-1,776,1660,0,0
-441,-636,0,0,0,0,0,0,0,0,0,-1,783,1660,0,0
-434,-636,0,0,0,0,0,0,0,0,0,-1,790,1660,0,0
-427,-636,0,0,0,0,0,0,0,0,0,-1,797,1660,0,0
-420,-636,0,0,0,0,0,0,0,0,0,-1,804,1660,0,0
-413,-636,0,0,0,0,0,0,0,0,0,-1,811,1660,0,0
-406,-636,-0.591125,10.6943,0,0,0,0,0,0,0,-1,818,1660,-0.59115,-10.6943
-399,-636,0.0766602,11.2408,0,0,0,0,0,0,0,-1,825,1660,0.076685,-11.2409
-392,-636,0.75946,11.9233,0,0,0,0,0,0,0,-1,832,1660,0.759481,-11.9233
-385,-636,1.68878,12.517,0,0,0,0,0,0,0,-1,839,1660,1.6888,-12.5169
-378,-636,2.22107,13.0013,0,0,0,0,0,0,0,-1,846,1660,2.22107,-13.0014
-371,-636,2.52185,11.9684,0,0,0,0,0,0,0,-1,853,1660,2.52184,-11.9684
-364,-636,4.51947,14.8503,0,0,0,0,0,0,0,-1,860,1660,4.51949,-14.8504
-357,-636,4.55682,15.8809,0,0,0,0,0,0,0,-1,867,1660,4.55681,-15.8808
-350,-636,2.57788,36.7095,0,0,0,0,0,0,0,-1,874,1660,2.57785,-36.7094
-343,-636,2.99139,40.5853,0,0,0,0,0,0,0,-1,881,1660,2.99141,-40.5853
-336,-636,3.13251,41.2975,0.00574971,-0.00699117,0.00221414,0.00612353,-0.00736498,0.167252,0.00779858,0.035336,888,1660,3.13249,-41.2975
-329,-636,3.27393,41.9708,0.00395552,-0.00601892,0.00215833,0.00440252,-0.00646592,0.204218,0.00631248,0.0176246,895,1660,3.27395,-41.9708
-322,-636,3.23645,42.6398,0.00255423,-0.00480757,0.00210178,0.00311202,-0.00536537,0.25941,0.00495172,0.0121118,902,1660,3.23645,-42.6397
-315,-636,3.17615,43.3375,0.00157054,-0.0037069,0.00200645,0.00224673,-0.0043831,0.325058,0.00389341,0.0140723,909,1660,3.17618,-43.3376
-308,-636,3.1499,44.0431,0.000892882,-0.00270512,0.00194764,0.00174524,-0.00355747,0.412525,0.00312055,0.0121131,916,1660,3.14991,-44.0431
-301,-636,3.13318,44.7537,0.000438409,-0.00171987,0.00192482,0.00156596,-0.00284742,0.529909,0.00258362,0.0115907,923,1660,3.1332,-44.7536
-294,-636,3.08728,45.4521,0.000315326,-0.000656806,0.00197653,0.00186467,-0.00220615,0.664831,0.00235305,0.0148624,930,1660,3.08729,-45.4521
-287,-636,3.04327,46.0966,0.000359279,0.000324814,0.00207289,0.002415,-0.00173091,0.781242,0.00240448,0.0134956,937,1660,3.04329,-46.0966
-280,-636,3.02551,46.7428,0.000491198,0.0013824,0.00220019,0.00318166,-0.00130806,0.885311,0.00266631,0.012677,944,1660,3.02553,-46.7428
-273,-636,2.97498,47.4075,0.0010139,0.00207502,0.00234913,0.00395276,-0.000863839,0.896461,0.00296536,0.0123128,951,1660,2.97498,-47.4075
-266,-636,2.9483,48.0886,0.00173793,0.00264743,0.00249919,0.00473291,-0.000347544,0.875393,0.00327727,0.0145694,958,1660,2.94828,-48.0887
-259,-636,2.94983,48.75,0.00250006,0.0032309,0.00263123,0.00552196,0.000209,0.854396,0.00361366,0.0169814,965,1660,2.94982,-48.75
-252,-636,2.92438,49.3472,0.00328847,0.00367908,0.00273299,0.00622373,0.000743816,0.821069,0.00392478,0.012766,972,1660,2.92437,-49.3471
-245,-636,2.9126,49.9824,0.00411656,0.00383952,0.00281138,0.00679283,0.00116325,0.760782,0.00419491,0.0111746,979,1660,2.91262,-49.9824
-238,-636,2.89447,50.6058,0.00480747,0.00347876,0.00274469,0.00696706,0.00131917,0.666656,0.0042734,0.0118548,986,1660,2.8945,-50.6058
-231,-636,2.88226,51.2179,0.00533669,0.00249647,0.00250498,0.0067961,0.00103706,0.52753,0.00422766,0.0111577,993,1660,2.88224,-51.2179
-224,-636,2.89557,51.8273,0.00577588,0.00149594,0.00217957,0.00669041,0.000581412,0.397282,0.00427965,0.0102286,1000,1660,2.89556,-51.8272
-217,-636,2.87592,52.4894,0.00607426,0.000232404,0.00168774,0.0065268,-0.000220136,0.261972,0.0044264,0.0173531,1007,1660,2.87594,-52.4894
-210,-636,2.84747,53.0822,0.00646688,-0.00134783,0.00101339,0.00659616,-0.0014771,0.126882,0.00496362,0.0283558,1014,1660,2.84745,-53.0822
-203,-636,2.88928,53.6615,0.00689401,-0.00334038,0.000381202,0.00690819,-0.00335456,0.0371785,0.00604244,0.0310303,1021,1660,2.88926,-53.6615
-196,-636,3.06592,54.1448,0.00703529,-0.00504654,-0.000120478,0.00703649,-0.00504774,-0.00997053,0.00700826,0.0309533,1028,1660,3.06588,-54.1447
-189,-636,3.0752,54.6001,0.00707759,-0.0066709,-0.000746605,0.00711802,-0.00671133,-0.0540925,0.00798553,0.0299816,1035,1660,3.07517,-54.6001
-182,-636,3.05249,55.1691,0.00710852,-0.0072066,-0.00113702,0.00719827,-0.00729635,-0.0787697,0.00836853,0.0463094,1042,1660,3.05243,-55.169
-175,-636,3.28247,56.127,0,0,0,0,0,0,0,-1,1049,1660,3.28244,-56.127
-168,-636,2.71423,55.4374,0,0,0,0,0,0,0,-1,1056,1660,2.71421,-55.4374
-161,-636,2.70557,56.2769,0,0,0,0,0,0,0,-1,1063,1660,2.70552,-56.2769
-154,-636,3.53662,56.0177,0,0,0,0,0,0,0,-1,1070,1660,3.5366,-56.0178
-147,-636,4.22656,55.8413,0,0,0,0,0,0,0,-1,1077,1660,4.22662,-55.8413
-140,-636,3.20886,57.1307,0,0,0,0,0,0,0,-1,1084,1660,3.20882,-57.1307
-133,-636,2.82764,57.9807,0,0,0,0,0,0,0,-1,1091,1660,2.82766,-57.9807
-126,-636,2.44653,58.8307,0,0,0,0,0,0,0,-1,1098,1660,2.44649,-58.8307
-119,-636,1.8667,13.8916,0,0,0,0,0,0,0,-1,1105,1660,1.86668,-13.8916
-112,-636,-1.24963,9.7998,0,0,0,0,0,0,0,-1,1112,1660,-1.24968,-9.79978
-105,-636,3.51624,4.72791,0,0,0,0,0,0,0,-1,1119,1660,3.51618,-4.7279
-98,-636,1.54504,5.11914,0,0,0,0,0,0,0,-1,1126,1660,1.54503,-5.11912
-91,-636,-1.87964,-2.25012,0,0,0,0,0,0,0,-1,1133,1660,-1.87966,2.25016
-84,-636,-2.84143,0.133667,0,0,0,0,0,0,0,-1,1140,1660,-2.84144,-0.133701
-77,-636,-3.57349,2.45935,0,0,0,0,0,0,0,-1,1147,1660,-3.57345,-2.45939
-70,-636,-4.23682,4.82312,0,0,0,0,0,0,0,-1,1154,1660,-4.23681,-4.82307
-63,-636,-2.21033,6.97168,0,0,0,0,0,0,0,-1,1161,1660,-2.21034,-6.97165
-56,-636,-2.51917,8.80359,0,0,0,0,0,0,0,-1,1168,1660,-2.51916,-8.80361
-49,-636,-3.13,10.4113,0,0,0,0,0,0,0,-1,1175,1660,-3.12996,-10.4112
-42,-636,-2.27771,4.90173,0,0,0,0,0,0,0,-1,1182,1660,-2.27775,-4.90173
-35,-636,-2.27698,5.89685,0,0,0,0,0,0,0,-1,1189,1660,-2.27695,-5.89686
-28,-636,-1.70654,4.83936,0,0,0,0,0,0,0,-1,1196,1660,-1.70656,-4.8393
-21,-636,4.24683,27.7834,0,0,0,0,0,0,0,-1,1203,1660,4.24687,-27.7835
-14,-636,3.83435,64.3888,0,0,0,0,0,0,0,-1,1210,1660,3.8343,-64.3888
-7,-636,4.16052,65.5573,0,0,0,0,0,0,0,-1,1217,1660,4.16055,-65.5573
0,-636,4.40796,66.6069,0.0235741,0.113175,-0.0326641,0.123818,0.0129307,-1.2558,0.0785907,0.0445533,1224,1660,4.40802,-66.607
7,-636,4.45068,67.2189,0.0145725,0.107129,-0.0423914,0.12361,-0.00190833,-1.2,0.0830501,0.0445552,1231,1660,4.45073,-67.2188
14,-636,5.00171,68.7565,0.0175391,0.0974965,-0.0370986,0.112058,0.00297788,-1.19677,0.0737326,0.0431777,1238,1660,5.00176,-68.7565
21,-636,3.57751,68.0808,0.0278946,0.0863836,-0.0244605,0.0952647,0.0190136,-1.22252,0.0582163,0.0460613,1245,1660,3.57749,-68.0809
28,-636,2.2406,67.429,0,0,0,0,0,0,0,-1,1252,1660,2.24066,-67.4289
35,-636,3.21411,64.3472,0,0,0,0,0,0,0,-1,1259,1660,3.21409,-64.3472
42,-636,3.59912,64.0029,0,0,0,0,0,0,0,-1,1266,1660,3.5991,-64.0029
49,-636,4.2749,63.6804,0,0,0,0,0,0,0,-1,1273,1660,4.27494,-63.6805
56,-636,5.24365,63.653,0.0751393,0.0333489,0.0428017,0.101874,0.00661435,0.558322,0.065822,0.0490709,1280,1660,5.24362,-63.6529
63,-636,6.25647,63.6401,0.0831121,0.0251283,0.0483493,0.110496,-0.00225513,0.515323,0.0744268,0.0460627,1287,1660,6.25646,-63.6401
70,-636,7.22937,63.5654,0.0910459,0.0145003,0.0510045,0.11654,-0.0109943,0.463526,0.0816056,0.0436213,1294,1660,7.22933,-63.5654
77,-636,7.77832,63.4694,0,0,0,0,0,0,0,-1,1301,1660,7.77831,-63.4694
84,-636,8.44836,63.6963,0.0938421,0.00190806,0.0448198,0.112076,-0.016326,0.386381,0.0807117,0.046449,1308,1660,8.44833,-63.6963
91,-636,9.12537,63.6348,0.093105,-0.0015588,0.0288718,0.101216,-0.00966957,0.273865,0.0709204,0.043562,1315,1660,9.12535,-63.6347
98,-636,9.85254,63.4739,0.0927202,-0.00387396,0.0106078,0.0938714,-0.00502516,0.108101,0.0643214,0.0455486,1322,1660,9.85248,-63.4739
105,-636,9.81555,63.9091,0,0,0,0,0,0,0,-1,1329,1660,9.81554,-63.909
112,-636,9.05884,63.6785,0.0959686,-0.00621847,-0.0264276,0.102399,-0.0126485,-0.238672,0.0728489,0.0495773,1336,1660,9.05878,-63.6784
119,-636,9.85498,64.1279,0.101299,-0.00576902,-0.0461381,0.118437,-0.0229076,-0.355667,0.0875983,0.0488295,1343,1660,9.85499,-64.128
126,-636,10.4822,63.9209,0.111123,-0.00264788,-0.0661537,0.141486,-0.0330107,-0.430291,0.107038,0.0450746,1350,1660,10.4822,-63.921
133,-636,11.2141,63.8988,0.127814,0.00235536,-0.0866148,0.172029,-0.0418596,-0.471995,0.13089,0.0434032,1357,1660,11.2142,-63.8988
140,-636,12.0494,63.8329,0.148226,0.00863641,-0.107113,0.206277,-0.0494146,-0.49665,0.15661,0.0433049,1364,1660,12.0494,-63.8329
147,-636,12.9143,63.7649,0.171057,0.0158918,-0.127343,0.242589,-0.055641,-0.511806,0.183113,0.0492247,1371,1660,12.9143,-63.7649
154,-636,13.8386,63.6194,0,0,0,0,0,0,0,-1,1378,1660,13.8386,-63.6194
161,-636,10.2961,7.13025,0,0,0,0,0,0,0,-1,1385,1660,10.2961,-7.13021
168,-636,11.7659,5.83899,0,0,0,0,0,0,0,-1,1392,1660,11.7658,-5.83899
175,-636,5.94592,-1.72888,0,0,0,0,0,0,0,-1,1399,1660,5.94598,1.72886
182,-636,5.93994,-1.11938,0,0,0,0,0,0,0,-1,1406,1660,5.93998,1.11936
189,-636,5.32544,11.9595,0,0,0,0,0,0,0,-1,1413,1660,5.32542,-11.9595
196,-636,5.3623,9.38025,0,0,0,0,0,0,0,-1,1420,1660,5.36225,-9.38027
203,-636,5.18542,9.02429,0,0,0,0,0,0,0,-1,1427,1660,5.18547,-9.0243
210,-636,4.09167,7.17041,0,0,0,0,0,0,0,-1,1434,1660,4.09173,-7.17041
217,-636,2.94897,5.28992,0,0,0,0,0,0,0,-1,1441,1660,2.94899,-5.28991
224,-636,1.49194,3.63916,0,0,0,0,0,0,0,-1,1448,1660,1.49197,-3.63918
231,-636,0.17749,2.24854,0,0,0,0,0,0,0,-1,1455,1660,0.177501,-2.24855
238,-636,-0.764648,1.00598,0,0,0,0,0,0,0,-1,1462,1660,-0.764704,-1.00595
245,-636,6.21204,1.18005,0,0,0,0,0,0,0,-1,1469,1660,6.21206,-1.18001
252,-636,7.70251,0.865723,0,0,0,0,0,0,0,-1,1476,1660,7.7025,-0.865692
259,-636,9.03601,0.787231,0,0,0,0,0,0,0,-1,1483,1660,9.03598,-0.787243
266,-636,10.1071,3.24109,0,0,0,0,0,0,0,-1,1490,1660,10.1071,-3.24103
273,-636,8.48535,5.02466,0,0,0,0,0,0,0,-1,1497,1660,8.48533,-5.02472
280,-636,11.908,32.0698,0,0,0,0,0,0,0,-1,1504,1660,11.9079,-32.0698
287,-636,12.1218,36.4158,0,0,0,0,0,0,0,-1,1511,1660,12.1218,-36.4158
294,-636,13.3706,44.9711,0,0,0,0,0,0,0,-1,1518,1660,13.3706,-44.9711
301,-636,15.3385,56.5612,0,0,0,0,0,0,0,-1,1525,1660,15.3385,-56.5612
308,-636,15.2692,55.4009,0,0,0,0,0,0,0,-1,1532,1660,15.2691,-55.4009
315,-636,14.8306,54.8303,0,0,0,0,0,0,0,-1,1539,1660,14.8305,-54.8304
322,-636,14.8221,54.0933,0,0,0,0,0,0,0,-1,1546,1660,14.8222,-54.0932
329,-636,14.7726,53.6301,0.0115288,0.0200348,-0.00192472,0.0204501,0.0111135,-1.35831,0.0118217,0.0418428,1553,1660,14.7726,-53.6301
336,-636,14.6954,53.0096,0.0111254,0.0188742,-0.00271077,0.0197283,0.0102712,-1.26555,0.0113934,0.0334304,1560,1660,14.6955,-53.0097
343,-636,14.9044,52.3234,0.0105709,0.0177055,-0.00331253,0.0190063,0.0092701,-1.19661,0.0109744,0.0277171,1567,1660,14.9045,-52.3234
350,-636,14.9805,51.7203,0.00996116,0.0163673,-0.00376787,0.0181096,0.00821888,-1.13768,0.0104704,0.0131838,1574,1660,14.9804,-51.7203
357,-636,14.9764,51.1086,0.00929591,0.0143923,-0.00417465,0.016735,0.0069532,-1.05941,0.00970787,0.0111936,1581,1660,14.9764,-51.1086
364,-636,14.9557,50.5063,0.00872807,0.0129365,-0.00450007,0.0158,0.00586455,-1.00409,0.00922251,0.0113958,1588,1660,14.9557,-50.5064
371,-636,14.9427,49.9154,0.00808713,0.0112743,-0.00455185,0.0145035,0.00485798,-0.95378,0.0085243,0.0101149,1595,1660,14.9427,-49.9154
378,-636,14.9398,49.2858,0.0072667,0.00956897,-0.00442269,0.0129879,0.0038478,-0.912713,0.00770327,0.0101456,1602,1660,14.9398,-49.2858
385,-636,14.9302,48.6639,0.00643059,0.0078391,-0.00412123,0.0113158,0.00295387,-0.870023,0.00677734,0.0163118,1609,1660,14.9301,-48.664
392,-636,14.9087,48.052,0.00552866,0.00628586,-0.00379218,0.0097183,0.00209622,-0.835152,0.00590547,0.0172488,1616,1660,14.9087,-48.052
399,-636,14.8834,47.4263,0.00450042,0.00486972,-0.00335462,0.00804477,0.00132538,-0.812893,0.00498052,0.0128621,1623,1660,14.8834,-47.4262
406,-636,14.8625,46.7742,0.0035889,0.00353402,-0.00303145,0.00659303,0.000529877,-0.780872,0.00422981,0.0151745,1630,1660,14.8625,-46.7742
413,-636,14.8569,46.0455,0.00286671,0.00254687,-0.00269843,0.00540996,3.62331e-06,-0.7558,0.00360543,0.0241523,1637,1660,14.8569,-46.0456
420,-636,14.8124,45.4296,0.00234089,0.00184014,-0.0025162,0.00461914,-0.000438114,-0.735809,0.00323537,0.0236887,1644,1660,14.8124,-45.4296
427,-636,14.7939,44.853,0.00195037,0.00129604,-0.00246598,0.00411079,-0.000864379,-0.719447,0.00306949,0.0159686,1651,1660,14.7939,-44.853
434,-636,14.7678,44.1919,0.00184676,0.00117022,-0.00268896,0.00421865,-0.00120166,-0.722827,0.00328704,0.0162367,1658,1660,14.7678,-44.1919
441,-636,14.7045,43.5404,0.00196009,0.00110941,-0.00311489,0.00467855,-0.00160905,-0.717542,0.00377158,0.0132924,1665,1660,14.7044,-43.5404
448,-636,14.7067,42.851,0.00237161,0.00119569,-0.00370336,0.00553339,-0.0019661,-0.706673,0.00449014,0.0145861,1672,1660,14.7067,-42.8509
455,-636,14.6577,42.1455,0.00292543,0.0013179,-0.00429574,0.00649195,-0.00224863,-0.692914,0.00524086,0.0171492,1679,1660,14.6577,-42.1455
462,-636,14.5264,41.4634,0.00339107,0.00144271,-0.0050173,0.00752789,-0.00269411,-0.689509,0.00611767,0.0266154,1686,1660,14.5264,-41.4634
469,-636,14.636,40.7509,0.00386806,0.00175569,-0.00590725,0.00881281,-0.00318905,-0.696936,0.00717837,0.0486046,1693,1660,14.6359,-40.7508
476,-636,14.8885,40.0709,0,0,0,0,0,0,0,-1,1700,1660,14.8885,-40.0709
483,-636,11.3833,24.3958,0,0,0,0,0,0,0,-1,1707,1660,11.3833,-24.3957
490,-636,10.8951,23.9569,0,0,0,0,0,0,0,-1,1714,1660,10.8951,-23.9569
497,-636,9.55579,18.0111,0,0,0,0,0,0,0,-1,1721,1660,9.55574,-18.0111
504,-636,6.26428,19.4268,0,0,0,0,0,0,0,-1,1728,1660,6.26433,-19.4268
511,-636,5.65466,9.23218,0,0,0,0,0,0,0,-1,1735,1660,5.65461,-9.23216
518,-636,6.72791,1.07605,0,0,0,0,0,0,0,-1,1742,1660,6.7279,-1.0761
525,-636,7.04309,0.93335,0,0,0,0,0,0,0,-1,1749,1660,7.04308,-0.933298
532,-636,0,0,0,0,0,0,0,0,0,-1,1756,1660,0,0
539,-636,0,0,0,0,0,0,0,0,0,-1,1763,1660,0,0
546,-636,0,0,0,0,0,0,0,0,0,-1,1770,1660,0,0
553,-636,0,0,0,0,0,0,0,0,0,-1,1777,1660,0,0
560,-636,0,0,0,0,0,0,0,0,0,-1,1784,1660,0,0
567,-636,0,0,0,0,0,0,0,0,0,-1,1791,1660,0,0
574,-636,0,0,0,0,0,0,0,0,0,-1,1798,1660,0,0
581,-636,0,0,0,0,0,0,0,0,0,-1,1805,1660,0,0
588,-636,0,0,0,0,0,0,0,0,0,-1,1812,1660,0,0
595,-636,0,0,0,0,0,0,0,0,0,-1,1819,1660,0,0
602,-636,0,0,0,0,0,0,0,0,0,-1,1826,1660,0,0
609,-636,0,0,0,0,0,0,0,0,0,-1,1833,1660,0,0
616,-636,0,0,0,0,0,0,0,0,0,-1,1840,1660,0,0
623,-636,0,0,0,0,0,0,0,0,0,-1,1847,1660,0,0
630,-636,0,0,0,0,0,0,0,0,0,-1,1854,1660,0,0
637,-636,0,0,0,0,0,0,0,0,0,-1,1861,1660,0,0
644,-636,0,0,0,0,0,0,0,0,0,-1,1868,1660,0,0
651,-636,0,0,0,0,0,0,0,0,0,-1,1875,1660,0,0
658,-636,0,0,0,0,0,0,0,0,0,-1,1882,1660,0,0
665,-636,0,0,0,0,0,0,0,0,0,-1,1889,1660,0,0
672,-636,0,0,0,0,0,0,0,0,0,-1,1896,1660,0,0
679,-636,0,0,0,0,0,0,0,0,0,-1,1903,1660,0,0
686,-636,0,0,0,0,0,0,0,0,0,-1,1910,1660,0,0
693,-636,0,0,0,0,0,0,0,0,0,-1,1917,1660,0,0
700,-636,0,0,0,0,0,0,0,0,0,-1,1924,1660,0,0
707,-636,0,0,0,0,0,0,0,0,0,-1,1931,1660,0,0
714,-636,0,0,0,0,0,0,0,0,0,-1,1938,1660,0,0
721,-636,0,0,0,0,0,0,0,0,0,-1,1945,1660,0,0
728,-636,0,0,0,0,0,0,0,0,0,-1,1952,1660,0,0
735,-636,0,0,0,0,0,0,0,0,0,-1,1959,1660,0,0
742,-636,0,0,0,0,0,0,0,0,0,-1,1966,1660,0,0
749,-636,0,0,0,0,0,0,0,0,0,-1,1973,1660,0,0
756,-636,0,0,0,0,0,0,0,0,0,-1,1980,1660,0,0
763,-636,0,0,0,0,0,0,0,0,0,-1,1987,1660,0,0
770,-636,0,0,0,0,0,0,0,0,0,-1,1994,1660,0,0
777,-636,0,0,0,0,0,0,0,0,0,-1,2001,1660,0,0
784,-636,0,0,0,0,0,0,0,0,0,-1,2008,1660,0,0
791,-636,0,0,0,0,0,0,0,0,0,-1,2015,1660,0,0
798,-636,0,0,0,0,0,0,0,0,0,-1,2022,1660,0,0
805,-636,0,0,0,0,0,0,0,0,0,-1,2029,1660,0,0
812,-636,0,0,0,0,0,0,0,0,0,-1,2036,1660,0,0
-700,-643,0,0,0,0,0,0,0,0,0,-1,524,1667,0,0
-693,-643,0,0,0,0,0,0,0,0,0,-1,531,1667,0,0
-686,-643,0,0,0,0,0,0,0,0,0,-1,538,1667,0,0
-679,-643,0,0,0,0,0,0,0,0,0,-1,545,1667,0,0
-672,-643,0,0,0,0,0,0,0,0,0,-1,552,1667,0,0
-665,-643,0,0,0,0,0,0,0,0,0,-1,559,1667,0,0
-658,-643,0,0,0,0,0,0,0,0,0,-1,566,1667,0,0
-651,-643,0,0,0,0,0,0,0,0,0,-1,573,1667,0,0
-644,-643,0,0,0,0,0,0,0,0,0,-1,580,1667,0,0
-637,-643,0,0,0,0,0,0,0,0,0,-1,587,1667,0,0
-630,-643,0,0,0,0,0,0,0,0,0,-1,594,1667,0,0
-623,-643,0,0,0,0,0,0,0,0,0,-1,601,1667,0,0
-616,-643,0,0,0,0,0,0,0,0,0,-1,608,1667,0,0
-609,-643,0,0,0,0,0,0,0,0,0,-1,615,1667,0,0
-602,-643,0,0,0,0,0,0,0,0,0,-1,622,1667,0,0
-595,-643,0,0,0,0,0,0,0,0,0,-1,629,1667,0,0
-588,-643,0,0,0,0,0,0,0,0,0,-1,636,1667,0,0
-581,-643,0,0,0,0,0,0,0,0,0,-1,643,1667,0,0
-574,-643,0,0,0,0,0,0,0,0,0,-1,650,1667,0,0
-567,-643,0,0,0,0,0,0,0,0,0,-1,657,1667,0,0
-560,-643,0,0,0,0,0,0,0,0,0,-1,664,1667,0,0
-553,-643,0,0,0,0,0,0,0,0,0,-1,671,1667,0,0
-546,-643,0,0,0,0,0,0,0,0,0,-1,678,1667,0,0
-539,-643,0,0,0,0,0,0,0,0,0,-1,685,1667,0,0
-532,-643,0,0,0,0,0,0,0,0,0,-1,692,1667,0,0
-525,-643,0,0,0,0,0,0,0,0,0,-1,699,1667,0,0
-518,-643,0,0,0,0,0,0,0,0,0,-1,706,1667,0,0
-511,-643,0,0,0,0,0,0,0,0,0,-1,713,1667,0,0
-504,-643,0,0,0,0,0,0,0,0,0,-1,720,1667,0,0
-497,-643,0,0,0,0,0,0,0,0,0,-1,727,1667,0,0
-490,-643,0,0,0,0,0,0,0,0,0,-1,734,1667,0,0
-483,-643,0,0,0,0,0,0,0,0,0,-1,741,1667,0,0
-476,-643,0,0,0,0,0,0,0,0,0,-1,748,1667,0,0
-469,-643,0,0,0,0,0,0,0,0,0,-1,755,1667,0,0
-462,-643,0,0,0,0,0,0,0,0,0,-1,762,1667,0,0
-455,-643,0,0,0,0,0,0,0,0,0,-1,769,1667,0,0
-448,-643,0,0,0,0,0,0,0,0,0,-1,776,1667,0,0
-441,-643,0,0,0,0,0,0,0,0,0,-1,783,1667,0,0
-434,-643,0,0,0,0,0,0,0,0,0,-1,790,1667,0,0
-427,-643,0,0,0,0,0,0,0,0,0,-1,797,1667,0,0
-420,-643,0,0,0,0,0,0,0,0,0,-1,804,1667,0,0
-413,-643,0,0,0,0,0,0,0,0,0,-1,811,1667,0,0
-406,-643,0,0,0,0,0,0,0,0,0,-1,818,1667,0,0
-399,-643,0.589417,11.6465,0,0,0,0,0,0,0,-1,825,1667,0.58939,-11.6465
-392,-643,0.865295,12.6523,0,0,0,0,0,0,0,-1,832,1667,0.865315,-12.6523
-385,-643,1.72968,13.2692,0,0,0,0,0,0,0,-1,839,1667,1.72967,-13.2692
-378,-643,2.66522,13.8193,0,0,0,0,0,0,0,-1,846,1667,2.66524,-13.8193
-371,-643,0.466125,3.35095,0,0,0,0,0,0,0,-1,853,1667,0.466148,-3.351
-364,-643,1.69513,9.922,0,0,0,0,0,0,0,-1,860,1667,1.69511,-9.92205
-357,-643,1.14227,10.8429,0,0,0,0,0,0,0,-1,867,1667,1.14228,-10.8429
-350,-643,4.48804,36.1799,0,0,0,0,0,0,0,-1,874,1667,4.48801,-36.1799
-343,-643,3.21216,41.4399,0,0,0,0,0,0,0,-1,881,1667,3.21216,-41.44
-336,-643,3.62622,41.6565,0.0078273,-0.00862526,0.00323721,0.00844134,-0.0092393,0.187454,0.0102114,0.0496066,888,1667,3.62623,-41.6566
-329,-643,3.90265,41.9657,0.00506081,-0.00751454,0.00313651,0.0057997,-0.00825343,0.231357,0.0081547,0.0399791,895,1667,3.90267,-41.9657
-322,-643,3.91217,42.6941,0.00299714,-0.00593936,0.00300543,0.00391386,-0.00685607,0.296057,0.00629489,0.0284003,902,1667,3.91217,-42.6941
-315,-643,3.83289,43.3887,0.00148861,-0.0046747,0.00273563,0.00252767,-0.00571375,0.362992,0.00487527,0.0195199,909,1667,3.83288,-43.3887
-308,-643,3.83215,44.0605,0.000380388,-0.00364092,0.00249338,0.00157281,-0.00483334,0.446083,0.00385497,0.0132167,916,1667,3.83213,-44.0605
-301,-643,3.81012,44.7557,-0.00042345,-0.00268314,0.00225391,0.000967945,-0.00407453,0.553062,0.00308996,0.0142604,923,1667,3.8101,-44.7557
-294,-643,3.74524,45.4424,-0.000779786,-0.00173383,0.00207439,0.000871725,-0.00338534,0.672384,0.00259671,0.0137057,930,1667,3.74525,-45.4424
-287,-643,3.70288,46.0981,-0.000902367,-0.000857534,0.00195164,0.00107182,-0.00283172,0.791141,0.0023288,0.0109836,937,1667,3.7029,-46.0982
-280,-643,3.67737,46.7452,-0.000935129,0.000125362,0.00189271,0.0015607,-0.00237047,0.921973,0.00228565,0.014113,944,1667,3.6774,-46.7453
-273,-643,3.6532,47.4166,-0.000510512,0.000717097,0.00188322,0.00208402,-0.00187743,0.942936,0.00228818,0.012429,951,1667,3.6532,-47.4166
-266,-643,3.59052,48.101,0.000180749,0.00124873,0.00187928,0.00266841,-0.00123893,0.923823,0.00230568,0.0131294,958,1667,3.59054,-48.1009
-259,-643,3.56879,48.7621,0.000908268,0.00176094,0.00189013,0.00327222,-0.000603009,0.896322,0.00240778,0.0141301,965,1667,3.56877,-48.7621
-252,-643,3.55756,49.3928,0.00164223,0.00220119,0.00191202,0.00385405,-1.06219e-05,0.85797,0.00257291,0.0156187,972,1667,3.55753,-49.3928
-245,-643,3.53174,50.0071,0.00244391,0.00236763,0.00193808,0.00434422,0.000467316,0.77556,0.00275363,0.0128542,979,1667,3.53177,-50.0071
-238,-643,3.53973,50.6223,0.00315035,0.00211989,0.00182589,0.00453231,0.000737933,0.647883,0.00280807,0.0154702,986,1667,3.53976,-50.6223
-231,-643,3.51953,51.2405,0.00375855,0.00140007,0.00164696,0.00460492,0.0005537,0.474704,0.00290304,0.0112525,993,1667,3.51952,-51.2405
-224,-643,3.51788,51.8326,0.00431812,0.000795407,0.00143105,0.00482618,0.00028734,0.34115,0.00312608,0.0100841,1000,1667,3.51788,-51.8326
-217,-643,3.50439,52.4037,0.00471232,-9.33517e-05,0.00106187,0.0049365,-0.000317525,0.208058,0.00340178,0.00967649,1007,1667,3.5044,-52.4037
-210,-643,3.4787,53.0294,0.00513545,-0.00121969,0.000548216,0.00518239,-0.00126664,0.0854226,0.0039455,0.0132641,1014,1667,3.47872,-53.0294
-203,-643,3.46875,53.676,0.00558851,-0.00255961,7.59309e-05,0.00558922,-0.00256032,0.00931774,0.00481224,0.0171934,1021,1667,3.46875,-53.6761
-196,-643,3.50073,54.2277,0.00589607,-0.00359139,-0.000232933,0.00590178,-0.00359711,-0.024532,0.00553773,0.0174776,1028,1667,3.50077,-54.2277
-189,-643,3.6051,54.7709,0.00609278,-0.00441111,-0.000633782,0.00613088,-0.00444921,-0.0600475,0.00613409,0.0188799,1035,1667,3.60505,-54.7708
-182,-643,3.63074,55.3348,0.00624181,-0.00437013,-0.000903896,0.00631826,-0.00444657,-0.0843673,0.00624631,0.0299966,1042,1667,3.63078,-55.3348
-175,-643,3.70068,55.8918,0.0064927,-0.00370452,-0.000752882,0.00654799,-0.00375981,-0.0733024,0.00602334,0.0461796,1049,1667,3.70062,-55.8919
-168,-643,3.74329,56.5133,0,0,0,0,0,0,0,-1,1056,1667,3.74324,-56.5133
-161,-643,3.67407,56.8434,0,0,0,0,0,0,0,-1,1063,1667,3.67406,-56.8434
-154,-643,3.73608,57.3069,0,0,0,0,0,0,0,-1,1070,1667,3.73614,-57.3069
-147,-643,3.85205,58.1785,0,0,0,0,0,0,0,-1,1077,1667,3.85208,-58.1784
-140,-643,3.422,57.9457,0,0,0,0,0,0,0,-1,1084,1667,3.42204,-57.9457
-133,-643,3.31226,58.6267,0,0,0,0,0,0,0,-1,1091,1667,3.31224,-58.6268
-126,-643,3.28662,58.6659,0,0,0,0,0,0,0,-1,1098,1667,3.28657,-58.6658
-119,-643,3.76282,14.1458,0,0,0,0,0,0,0,-1,1105,1667,3.76283,-14.1458
-112,-643,3.81458,16.2069,0,0,0,0,0,0,0,-1,1112,1667,3.81463,-16.2069
-105,-643,-2.23413,10.0996,0,0,0,0,0,0,0,-1,1119,1667,-2.23415,-10.0996
-98,-643,3.11035,4.68066,0,0,0,0,0,0,0,-1,1126,1667,3.11041,-4.68071
-91,-643,-1.74146,-2.5885,0,0,0,0,0,0,0,-1,1133,1667,-1.74146,2.58856
-84,-643,-3.07446,-0.199341,0,0,0,0,0,0,0,-1,1140,1667,-3.07449,0.199383
-77,-643,-3.63794,2.81165,0,0,0,0,0,0,0,-1,1147,1667,-3.63791,-2.8117
-70,-643,-3.36938,4.45203,0,0,0,0,0,0,0,-1,1154,1667,-3.36941,-4.452
-63,-643,-3.67822,6.26855,0,0,0,0,0,0,0,-1,1161,1667,-3.67823,-6.26856
-56,-643,-3.95142,8.1073,0,0,0,0,0,0,0,-1,1168,1667,-3.95139,-8.10732
-49,-643,-4.23535,9.90552,0,0,0,0,0,0,0,-1,1175,1667,-4.23537,-9.90557
-42,-643,-4.25195,10.7059,0,0,0,0,0,0,0,-1,1182,1667,-4.25192,-10.706
-35,-643,-4.10986,11.6588,0,0,0,0,0,0,0,-1,1189,1667,-4.10982,-11.6589
-28,-643,-1.38513,5.604,0,0,0,0,0,0,0,-1,1196,1667,-1.3851,-5.60403
-21,-643,1.61011,23.1276,0,0,0,0,0,0,0,-1,1203,1667,1.61011,-23.1275
-14,-643,13.2256,68.0854,0,0,0,0,0,0,0,-1,1210,1667,13.2256,-68.0855
-7,-643,5.34119,65.8274,0,0,0,0,0,0,0,-1,1217,1667,5.34117,-65.8274
0,-643,5.14404,66.3892,0.0153485,0.107138,-0.0323648,0.117402,0.00508441,-1.26369,0.0766295,0.0447968,1224,1667,5.14403,-66.3891
7,-643,4.8252,67.0746,0.00897806,0.101127,-0.0359746,0.113508,-0.0034028,-1.23934,0.0768312,0.0428566,1231,1667,4.8252,-67.0745
14,-643,4.56384,67.24,0.0116975,0.0932823,-0.0289928,0.102536,0.00244392,-1.26185,0.0675574,0.0419943,1238,1667,4.56384,-67.24
21,-643,4.08984,67.2404,0.0210997,0.084614,-0.0173248,0.0890323,0.0166814,-1.32109,0.0546498,0.0448363,1245,1667,4.08983,-67.2403
28,-643,3.41138,66.7068,0,0,0,0,0,0,0,-1,1252,1667,3.41138,-66.7068
35,-643,2.25037,64.17,0,0,0,0,0,0,0,-1,1259,1667,2.25032,-64.17
42,-643,2.50879,64.4309,0,0,0,0,0,0,0,-1,1266,1667,2.50876,-64.431
49,-643,4.59924,61.9093,0,0,0,0,0,0,0,-1,1273,1667,4.59918,-61.9093
56,-643,4.0022,63.744,0,0,0,0,0,0,0,-1,1280,1667,4.00216,-63.7441
63,-643,4.92065,63.5315,0.0741921,0.0303364,0.0439641,0.101393,0.00313511,0.554068,0.0665752,0.0456866,1287,1667,4.92065,-63.5315
70,-643,6.10706,63.6473,0.0820001,0.0199084,0.0468261,0.107137,-0.00522878,0.492667,0.07323,0.0446057,1294,1667,6.10707,-63.6474
77,-643,7.2262,63.697,0,0,0,0,0,0,0,-1,1301,1667,7.22616,-63.697
84,-643,7.97949,63.8438,0.0858284,0.00531174,0.0394025,0.101902,-0.0107619,0.387327,0.0717914,0.0474645,1308,1667,7.97949,-63.8437
91,-643,8.61304,63.7865,0.0850348,0.001201,0.0233939,0.091121,-0.00488522,0.254521,0.0624395,0.0482939,1315,1667,8.61304,-63.7865
98,-643,9.25635,63.7106,0.0854374,-0.00150541,0.00574339,0.0858152,-0.00188318,0.0656791,0.0578481,0.0456439,1322,1667,9.25639,-63.7105
105,-643,9.7063,63.9603,0.08677,-0.0038208,-0.0117806,0.0882769,-0.0053277,-0.127223,0.0607052,0.0468027,1329,1667,9.70624,-63.9603
112,-643,9.6958,64.0717,0.0903564,-0.00489839,-0.030045,0.0990413,-0.0135833,-0.281392,0.0709898,0.0459387,1336,1667,9.69583,-64.0716
119,-643,10.4659,64.1204,0.0971324,-0.0046416,-0.0492613,0.11707,-0.0245795,-0.384583,0.0873998,0.0482502,1343,1667,10.4659,-64.1204
126,-643,11.1156,63.88,0,0,0,0,0,0,0,-1,1350,1667,11.1156,-63.88
133,-643,12.4415,63.8785,0.126749,0.00356088,-0.0886236,0.173081,-0.0427708,-0.481714,0.131975,0.0437106,1357,1667,12.4415,-63.8786
140,-643,13.2877,63.9038,0.14918,0.0105148,-0.108806,0.208866,-0.049171,-0.501731,0.158202,0.042547,1364,1667,13.2877,-63.9038
147,-643,14.1271,63.916,0.170325,0.0174279,-0.125551,0.240871,-0.0531181,-0.511927,0.180905,0.0447066,1371,1667,14.127,-63.916
154,-643,14.9785,63.9015,0,0,0,0,0,0,0,-1,1378,1667,14.9785,-63.9015
161,-643,5.57935,26.2754,0,0,0,0,0,0,0,-1,1385,1667,5.57931,-26.2754
168,-643,10.5563,10.9818,0,0,0,0,0,0,0,-1,1392,1667,10.5562,-10.9819
175,-643,5.88525,-1.1698,0,0,0,0,0,0,0,-1,1399,1667,5.88526,1.16977
182,-643,5.80945,-0.418701,0,0,0,0,0,0,0,-1,1406,1667,5.80949,0.418712
189,-643,5.42297,12.9208,0,0,0,0,0,0,0,-1,1413,1667,5.42298,-12.9208
196,-643,5.51953,11.2415,0,0,0,0,0,0,0,-1,1420,1667,5.51948,-11.2414
203,-643,5.60828,9.82153,0,0,0,0,0,0,0,-1,1427,1667,5.60833,-9.82148
210,-643,4.73218,7.58728,0,0,0,0,0,0,0,-1,1434,1667,4.73222,-7.58728
217,-643,3.8031,5.28955,0,0,0,0,0,0,0,-1,1441,1667,3.80305,-5.28955
224,-643,2.96436,2.97095,0,0,0,0,0,0,0,-1,1448,1667,2.96432,-2.97095
231,-643,2.13403,1.08472,0,0,0,0,0,0,0,-1,1455,1667,2.13403,-1.08467
238,-643,1.18152,-0.261963,0,0,0,0,0,0,0,-1,1462,1667,1.18152,0.26192
245,-643,-0.157471,-1.79016,0,0,0,0,0,0,0,-1,1469,1667,-0.157517,1.7901
252,-643,8.08789,0.0202637,0,0,0,0,0,0,0,-1,1476,1667,8.08791,-0.0203056
259,-643,9.02979,-0.46936,0,0,0,0,0,0,0,-1,1483,1667,9.02974,0.46933
266,-643,4.55066,5.17554,0,0,0,0,0,0,0,-1,1490,1667,4.55063,-5.17556
273,-643,10.74,31.432,0,0,0,0,0,0,0,-1,1497,1667,10.7399,-31.4319
280,-643,12.1675,42.5023,0,0,0,0,0,0,0,-1,1504,1667,12.1675,-42.5023
287,-643,12.9725,46.299,0,0,0,0,0,0,0,-1,1511,1667,12.9725,-46.299
294,-643,14.278,56.7802,0,0,0,0,0,0,0,-1,1518,1667,14.278,-56.7801
301,-643,14.3878,56.0549,0.0131575,0.0130111,-0.00250292,0.0155882,0.0105803,-0.770779,0.00918955,0.0429368,1525,1667,14.3878,-56.055
308,-643,14.4487,55.1768,0.0111678,0.0123366,-0.00226657,0.0140929,0.0094115,-0.911563,0.00828789,0.036219,1532,1667,14.4488,-55.1768
315,-643,14.3026,54.6569,0.00929476,0.0112913,-0.00208537,0.0126051,0.00798105,-1.00863,0.00736306,0.0305572,1539,1667,14.3026,-54.6568
322,-643,14.3153,54.0548,0.00860591,0.0119197,-0.00310186,0.0137794,0.00674614,-1.0307,0.00795613,0.0198532,1546,1667,14.3153,-54.0548
329,-643,14.3247,53.4666,0.00808693,0.0111676,-0.00361429,0.0135561,0.00569842,-0.986831,0.00785962,0.0137299,1553,1667,14.3247,-53.4665
336,-643,14.3058,52.9122,0.00756219,0.0106541,-0.00395772,0.0133571,0.00485922,-0.971597,0.00780654,0.0129758,1560,1667,14.3058,-52.9123
343,-643,14.3287,52.3645,0.00694292,0.0101782,-0.00413674,0.0130023,0.00411879,-0.971779,0.00767308,0.0139234,1567,1667,14.3287,-52.3645
350,-643,14.3691,51.7648,0.00638274,0.00959055,-0.00423336,0.0125137,0.00345963,-0.966479,0.00746155,0.0134708,1574,1667,14.3692,-51.7647
357,-643,14.3522,51.1498,0.00591269,0.0084654,-0.00431921,0.0116929,0.0026852,-0.929063,0.00707221,0.011727,1581,1667,14.3522,-51.1497
364,-643,14.3381,50.5406,0.00554651,0.00775215,-0.00433148,0.011119,0.00217966,-0.910053,0.0068035,0.0100956,1588,1667,14.3382,-50.5407
371,-643,14.3438,49.9552,0.00515507,0.0068495,-0.00416169,0.0102493,0.00175524,-0.885814,0.00632946,0.00877687,1595,1667,14.3437,-49.9552
378,-643,14.3401,49.3495,0.00465196,0.00585633,-0.00389304,0.00919348,0.00131481,-0.862132,0.00574112,0.0110484,1602,1667,14.3401,-49.3495
385,-643,14.317,48.7263,0.00417144,0.00477428,-0.00357418,0.00805973,0.00088599,-0.827465,0.00510353,0.0169495,1609,1667,14.317,-48.7263
392,-643,14.2939,48.0771,0.00368272,0.00382541,-0.00334741,0.00710223,0.000405897,-0.796054,0.00460549,0.0179059,1616,1667,14.2939,-48.0771
399,-643,14.2358,47.4731,0.00303081,0.00291444,-0.00301733,0.00599052,-4.52683e-05,-0.775757,0.00400885,0.0153362,1623,1667,14.2359,-47.4731
406,-643,14.2473,46.8199,0.00247895,0.00205454,-0.00278734,0.00506215,-0.000528662,-0.747405,0.00356408,0.0141633,1630,1667,14.2473,-46.8199
413,-643,14.2576,46.1075,0.00208498,0.00145262,-0.00269067,0.00447798,-0.000940385,-0.726911,0.00334317,0.0205545,1637,1667,14.2576,-46.1075
420,-643,14.1685,45.4978,0.00185996,0.00106815,-0.00274038,0.00423288,-0.00130478,-0.71366,0.00334283,0.0196558,1644,1667,14.1684,-45.4978
427,-643,14.115,44.892,0.00181073,0.00100806,-0.0030336,0.00446943,-0.00165064,-0.719631,0.00365621,0.0174156,1651,1667,14.115,-44.8919
434,-643,14.0892,44.2321,0.00199916,0.00115101,-0.00351409,0.00511466,-0.0019645,-0.725349,0.00421989,0.0191068,1658,1667,14.0893,-44.2321
441,-643,14.0621,43.5385,0.00236042,0.00140244,-0.00417002,0.00607887,-0.00231601,-0.728216,0.00500645,0.0171439,1665,1667,14.0621,-43.5385
448,-643,14.1072,42.8685,0.00301596,0.00179617,-0.00495002,0.00739352,-0.00258138,-0.724102,0.00597823,0.0225596,1672,1667,14.1072,-42.8685
455,-643,13.9491,42.3101,0.00383325,0.0021767,-0.00567915,0.00874421,-0.00273426,-0.712986,0.00692327,0.0278217,1679,1667,13.9491,-42.3101
462,-643,13.9266,41.4436,0.00456675,0.00246409,-0.00655633,0.0101555,-0.00312467,-0.705898,0.00801749,0.0463024,1686,1667,13.9267,-41.4436
469,-643,14.0583,40.6298,0,0,0,0,0,0,0,-1,1693,1667,14.0583,-40.6298
476,-643,10.5598,24.5066,0,0,0,0,0,0,0,-1,1700,1667,10.5598,-24.5065
483,-643,10.4502,24.3062,0,0,0,0,0,0,0,-1,1707,1667,10.4502,-24.3062
490,-643,10.6885,24.1522,0,0,0,0,0,0,0,-1,1714,1667,10.6884,-24.1522
497,-643,10.9073,23.9465,0,0,0,0,0,0,0,-1,1721,1667,10.9074,-23.9465
504,-643,8.05591,19.0656,0,0,0,0,0,0,0,-1,1728,1667,8.0559,-19.0655
511,-643,7.74719,18.1564,0,0,0,0,0,0,0,-1,1735,1667,7.74724,-18.1563
518,-643,7.40564,0.922607,0,0,0,0,0,0,0,-1,1742,1667,7.4057,-0.922598
525,-643,0,0,0,0,0,0,0,0,0,-1,1749,1667,0,0
532,-643,0,0,0,0,0,0,0,0,0,-1,1756,1667,0,0
539,-643,0,0,0,0,0,0,0,0,0,-1,1763,1667,0,0
546,-643,0,0,0,0,0,0,0,0,0,-1,1770,1667,0,0
553,-643,0,0,0,0,0,0,0,0,0,-1,1777,1667,0,0
560,-643,0,0,0,0,0,0,0,0,0,-1,1784,1667,0,0
567,-643,0,0,0,0,0,0,0,0,0,-1,1791,1667,0,0
574,-643,0,0,0,0,0,0,0,0,0,-1,1798,1667,0,0
581,-643,0,0,0,0,0,0,0,0,0,-1,1805,1667,0,0
588,-643,0,0,0,0,0,0,0,0,0,-1,1812,1667,0,0
595,-643,0,0,0,0,0,0,0,0,0,-1,1819,1667,0,0
602,-643,0,0,0,0,0,0,0,0,0,-1,1826,1667,0,0
609,-643,0,0,0,0,0,0,0,0,0,-1,1833,1667,0,0
616,-643,0,0,0,0,0,0,0,0,0,-1,1840,1667,0,0
623,-643,0,0,0,0,0,0,0,0,0,-1,1847,1667,0,0
630,-643,0,0,0,0,0,0,0,0,0,-1,1854,1667,0,0
637,-643,0,0,0,0,0,0,0,0,0,-1,1861,1667,0,0
644,-643,0,0,0,0,0,0,0,0,0,-1,1868,1667,0,0
651,-643,0,0,0,0,0,0,0,0,0,-1,1875,1667,0,0
658,-643,0,0,0,0,0,0,0,0,0,-1,1882,1667,0,0
665,-643,0,0,0,0,0,0,0,0,0,-1,1889,1667,0,0
672,-643,0,0,0,0,0,0,0,0,0,-1,1896,1667,0,0
679,-643,0,0,0,0,0,0,0,0,0,-1,1903,1667,0,0
686,-643,0,0,0,0,0,0,0,0,0,-1,1910,1667,0,0
693,-643,0,0,0,0,0,0,0,0,0,-1,1917,1667,0,0
700,-643,0,0,0,0,0,0,0,0,0,-1,1924,1667,0,0
707,-643,0,0,0,0,0,0,0,0,0,-1,1931,1667,0,0
714,-643,0,0,0,0,0,0,0,0,0,-1,1938,1667,0,0
721,-643,0,0,0,0,0,0,0,0,0,-1,1945,1667,0,0
728,-643,0,0,0,0,0,0,0,0,0,-1,1952,1667,0,0
735,-643,0,0,0,0,0,0,0,0,0,-1,1959,1667,0,0
742,-643,0,0,0,0,0,0,0,0,0,-1,1966,1667,0,0
749,-643,0,0,0,0,0,0,0,0,0,-1,1973,1667,0,0
756,-643,0,0,0,0,0,0,0,0,0,-1,1980,1667,0,0
763,-643,0,0,0,0,0,0,0,0,0,-1,1987,1667,0,0
770,-643,0,0,0,0,0,0,0,0,0,-1,1994,1667,0,0
777,-643,0,0,0,0,0,0,0,0,0,-1,2001,1667,0,0
784,-643,0,0,0,0,0,0,0,0,0,-1,2008,1667,0,0
791,-643,0,0,0,0,0,0,0,0,0,-1,2015,1667,0,0
798,-643,0,0,0,0,0,0,0,0,0,-1,2022,1667,0,0
805,-643,0,0,0,0,0,0,0,0,0,-1,2029,1667,0,0
812,-643,0,0,0,0,0,0,0,0,0,-1,2036,1667,0,0
-700,-650,0,0,0,0,0,0,0,0,0,-1,524,1674,0,0
-693,-650,0,0,0,0,0,0,0,0,0,-1,531,1674,0,0
-686,-650,0,0,0,0,0,0,0,0,0,-1,538,1674,0,0
-679,-650,0,0,0,0,0,0,0,0,0,-1,545,1674,0,0
-672,-650,0,0,0,0,0,0,0,0,0,-1,552,1674,0,0
-665,-650,0,0,0,0,0,0,0,0,0,-1,559,1674,0,0
-658,-650,0,0,0,0,0,0,0,0,0,-1,566,1674,0,0
-651,-650,0,0,0,0,0,0,0,0,0,-1,573,1674,0,0
-644,-650,0,0,0,0,0,0,0,0,0,-1,580,1674,0,0
-637,-650,0,0,0,0,0,0,0,0,0,-1,587,1674,0,0
-630,-650,0,0,0,0,0,0,0,0,0,-1,594,1674,0,0
-623,-650,0,0,0,0,0,0,0,0,0,-1,601,1674,0,0
-616,-650,0,0,0,0,0,0,0,0,0,-1,608,1674,0,0
-609,-650,0,0,0,0,0,0,0,0,0,-1,615,1674,0,0
-602,-650,0,0,0,0,0,0,0,0,0,-1,622,1674,0,0
-595,-650,0,0,0,0,0,0,0,0,0,-1,629,1674,0,0
-588,-650,0,0,0,0,0,0,0,0,0,-1,636,1674,0,0
-581,-650,0,0,0,0,0,0,0,0,0,-1,643,1674,0,0
-574,-650,0,0,0,0,0,0,0,0,0,-1,650,1674,0,0
-567,-650,0,0,0,0,0,0,0,0,0,-1,657,1674,0,0
-560,-650,0,0,0,0,0,0,0,0,0,-1,664,1674,0,0
-553,-650,0,0,0,0,0,0,0,0,0,-1,671,1674,0,0
-546,-650,0,0,0,0,0,0,0,0,0,-1,678,1674,0,0
-539,-650,0,0,0,0,0,0,0,0,0,-1,685,1674,0,0
-532,-650,0,0,0,0,0,0,0,0,0,-1,692,1674,0,0
-525,-650,0,0,0,0,0,0,0,0,0,-1,699,1674,0,0
-518,-650,0,0,0,0,0,0,0,0,0,-1,706,1674,0,0
-511,-650,0,0,0,0,0,0,0,0,0,-1,713,1674,0,0
-504,-650,0,0,0,0,0,0,0,0,0,-1,720,1674,0,0
-497,-650,0,0,0,0,0,0,0,0,0,-1,727,1674,0,0
-490,-650,0,0,0,0,0,0,0,0,0,-1,734,1674,0,0
-483,-650,0,0,0,0,0,0,0,0,0,-1,741,1674,0,0
-476,-650,0,0,0,0,0,0,0,0,0,-1,748,1674,0,0
-469,-650,0,0,0,0,0,0,0,0,0,-1,755,1674,0,0
-462,-650,0,0,0,0,0,0,0,0,0,-1,762,1674,0,0
-455,-650,0,0,0,0,0,0,0,0,0,-1,769,1674,0,0
-448,-650,0,0,0,0,0,0,0,0,0,-1,776,1674,0,0
-441,-650,0,0,0,0,0,0,0,0,0,-1,783,1674,0,0
-434,-650,0,0,0,0,0,0,0,0,0,-1,790,1674,0,0
-427,-650,0,0,0,0,0,0,0,0,0,-1,797,1674,0,0
-420,-650,0,0,0,0,0,0,0,0,0,-1,804,1674,0,0
-413,-650,0,0,0,0,0,0,0,0,0,-1,811,1674,0,0
-406,-650,0,0,0,0,0,0,0,0,0,-1,818,1674,0,0
-399,-650,0,0,0,0,0,0,0,0,0,-1,825,1674,0,0
-392,-650,5.44415,6.85669,0,0,0,0,0,0,0,-1,832,1674,5.44414,-6.85674
-385,-650,1.74451,14.0183,0,0,0,0,0,0,0,-1,839,1674,1.74453,-14.0183
-378,-650,0.997986,4.11108,0,0,0,0,0,0,0,-1,846,1674,0.998006,-4.11113
-371,-650,-1.80096,3.78625,0,0,0,0,0,0,0,-1,853,1674,-1.80094,-3.78625
-364,-650,-2.95679,2.57507,0,0,0,0,0,0,0,-1,860,1674,-2.95681,-2.57506
-357,-650,5.76074,34.531,0,0,0,0,0,0,0,-1,867,1674,5.76077,-34.531
-350,-650,5.11011,35.4972,0,0,0,0,0,0,0,-1,874,1674,5.1101,-35.4971
-343,-650,5.20538,37.4165,0,0,0,0,0,0,0,-1,881,1674,5.20538,-37.4166
-336,-650,4.29462,41.7263,0,0,0,0,0,0,0,-1,888,1674,4.29462,-41.7264
-329,-650,4.52997,41.9586,0,0,0,0,0,0,0,-1,895,1674,4.52999,-41.9586
-322,-650,4.53284,42.746,0.00328518,-0.00740936,0.00418665,0.00472917,-0.00885336,0.332129,0.00796147,0.0455488,902,1674,4.53283,-42.7459
-315,-650,4.38983,43.3916,0.0012601,-0.00576575,0.00385501,0.00296271,-0.00746835,0.415897,0.00620682,0.0402409,909,1674,4.38983,-43.3916
-308,-650,4.4787,44.0775,-0.000346296,-0.00448236,0.00346613,0.00162186,-0.00645052,0.516426,0.0049307,0.0234517,916,1674,4.47869,-44.0775
-301,-650,4.46167,44.7888,-0.00147767,-0.00346075,0.00297897,0.000670446,-0.00560887,0.624742,0.00398159,0.0127791,923,1674,4.46168,-44.7888
-294,-650,4.40668,45.4604,-0.00202594,-0.00257182,0.00252556,0.000241379,-0.00483915,0.731572,0.00330949,0.0107719,930,1674,4.40667,-45.4605
-287,-650,4.36334,46.1404,-0.00224536,-0.00176237,0.00214157,0.000151271,-0.00415901,0.841543,0.00282445,0.0139726,937,1674,4.36337,-46.1404
-280,-650,4.31152,46.7828,-0.00243081,-0.000827883,0.00186955,0.000404749,-0.00366344,0.987896,0.00258778,0.0153374,944,1674,4.31152,-46.7829
-273,-650,4.27252,47.4741,-0.00207452,-0.000334061,0.00168557,0.000692665,-0.00310124,1.02369,0.00233292,0.0152795,951,1674,4.27255,-47.4742
-266,-650,4.2226,48.1292,-0.00137412,0.000149058,0.00151855,0.0010863,-0.00231136,1.01783,0.00200369,0.0122718,958,1674,4.22262,-48.1291
-259,-650,4.19281,48.7552,-0.000649372,0.000588589,0.00141277,0.00151203,-0.00157281,0.991869,0.00178115,0.0156105,965,1674,4.19279,-48.7553
-252,-650,4.17487,49.4067,5.0014e-05,0.0010122,0.00136665,0.00197996,-0.00091775,0.954636,0.00171005,0.0148924,972,1674,4.17484,-49.4067
-245,-650,4.15948,50.0134,0.000832934,0.00119178,0.00135562,0.00237979,-0.000355082,0.851193,0.00171717,0.0131117,979,1674,4.15947,-50.0134
-238,-650,4.13977,50.6597,0.00155209,0.00105016,0.00120542,0.00253239,6.98582e-05,0.682767,0.00166546,0.0140148,986,1674,4.13975,-50.6597
-231,-650,4.09351,51.3062,0.00222988,0.00056362,0.0010901,0.00276876,2.47335e-05,0.459114,0.00183765,0.018299,993,1674,4.09351,-51.3061
-224,-650,4.09351,51.9073,0.0029022,0.00031172,0.00099061,0.00323759,-2.36706e-05,0.326456,0.00216633,0.0148519,1000,1674,4.09349,-51.9073
-217,-650,4.09491,52.4502,0.00337108,-0.000292026,0.000732713,0.00351221,-0.00043315,0.190275,0.0024984,0.0106228,1007,1674,4.09489,-52.4502
-210,-650,4.10724,53.019,0.00381207,-0.00104739,0.000372491,0.00384045,-0.00107577,0.0760607,0.00298424,0.0102003,1014,1674,4.10725,-53.0191
-203,-650,4.12659,53.61,0.00426377,-0.00188104,2.63254e-05,0.00426388,-0.00188116,0.00428407,0.00363565,0.0151897,1021,1674,4.12655,-53.6099
-196,-650,4.12244,54.1783,0.00467778,-0.00249618,-0.00018629,0.00468261,-0.00250101,-0.0259443,0.00421074,0.0149404,1028,1674,4.12241,-54.1783
-189,-650,4.11292,54.7399,0.00497752,-0.00285266,-0.000471064,0.00500576,-0.0028809,-0.0598722,0.00460812,0.0132326,1035,1674,4.11289,-54.7399
-182,-650,4.17383,55.3384,0.00523834,-0.00255458,-0.000678549,0.00529698,-0.00261322,-0.086208,0.00465375,0.0142092,1042,1674,4.17385,-55.3384
-175,-650,4.18677,55.8347,0.00555672,-0.00183246,-0.000538983,0.00559583,-0.00187157,-0.0724311,0.00448648,0.0230026,1049,1674,4.18679,-55.8348
-168,-650,4.14941,56.3652,0.00583442,-0.000554016,-0.000304958,0.00584895,-0.000568541,-0.0475916,0.00410197,0.0288866,1056,1674,4.14937,-56.3653
-161,-650,4.14429,56.817,0.00632926,0.00149283,-1.155e-05,0.00632929,0.00149281,-0.0023881,0.00382041,0.0368308,1063,1674,4.14427,-56.817
-154,-650,4.21313,57.3087,0.0069075,0.00414166,0.000554223,0.00701443,0.00403474,0.190582,0.00406502,0.0358785,1070,1674,4.21316,-57.3087
-147,-650,4.3197,58.051,0.00740694,0.00756556,0.00119083,0.00867972,0.00629278,0.818649,0.0051776,0.0460457,1077,1674,4.31973,-58.0511
-140,-650,4.12207,59.0337,0,0,0,0,0,0,0,-1,1084,1674,4.12203,-59.0337
-133,-650,3.90857,59.5139,0,0,0,0,0,0,0,-1,1091,1674,3.90861,-59.5139
-126,-650,3.95776,59.3026,0,0,0,0,0,0,0,-1,1098,1674,3.95775,-59.3026
-119,-650,5.16663,20.6232,0,0,0,0,0,0,0,-1,1105,1674,5.16665,-20.6232
-112,-650,3.86292,14.4513,0,0,0,0,0,0,0,-1,1112,1674,3.8629,-14.4513
-105,-650,7.92102,38.1313,0,0,0,0,0,0,0,-1,1119,1674,7.92104,-38.1314
-98,-650,3.3761,6.78003,0,0,0,0,0,0,0,-1,1126,1674,3.37611,-6.78009
-91,-650,3.66809,7.04443,0,0,0,0,0,0,0,-1,1133,1674,3.66806,-7.04439
-84,-650,-3.82666,-1.59521,0,0,0,0,0,0,0,-1,1140,1674,-3.82661,1.59517
-77,-650,-4.70557,1.90198,0,0,0,0,0,0,0,-1,1147,1674,-4.7056,-1.90194
-70,-650,-4.88171,3.81653,0,0,0,0,0,0,0,-1,1154,1674,-4.88176,-3.81651
-63,-650,-5.14612,5.56543,0,0,0,0,0,0,0,-1,1161,1674,-5.14612,-5.56547
-56,-650,-5.38367,7.41101,0,0,0,0,0,0,0,-1,1168,1674,-5.38361,-7.41102
-49,-650,-5.11316,8.23706,0,0,0,0,0,0,0,-1,1175,1674,-5.11317,-8.23708
-42,-650,-4.99487,9.6792,0,0,0,0,0,0,0,-1,1182,1674,-4.99484,-9.67921
-35,-650,-4.77771,11.3369,0,0,0,0,0,0,0,-1,1189,1674,-4.77769,-11.3369
-28,-650,-4.1936,13.1501,0,0,0,0,0,0,0,-1,1196,1674,-4.19358,-13.1501
-21,-650,7.52466,48.5822,0,0,0,0,0,0,0,-1,1203,1674,7.52469,-48.5821
-14,-650,3.92163,67.7249,0,0,0,0,0,0,0,-1,1210,1674,3.92168,-67.7249
-7,-650,4.91577,67.735,0.0235685,0.0975642,-0.0212383,0.103227,0.017906,-1.31024,0.0636937,0.0488701,1217,1674,4.91578,-67.735
0,-650,5.29565,67.0938,0.0123271,0.0935347,-0.0298149,0.103305,0.00255632,-1.25411,0.0680342,0.0430581,1224,1674,5.29563,-67.0937
7,-650,5.19861,66.7372,0.00828288,0.0885677,-0.0302802,0.0987075,-0.00185692,-1.24767,0.0664326,0.0428554,1231,1674,5.19866,-66.7372
14,-650,4.91711,66.6503,0.0108463,0.0825601,-0.0230199,0.0893134,0.00409292,-1.28543,0.0582259,0.0425227,1238,1674,4.91714,-66.6502
21,-650,4.37146,66.4655,0.0193088,0.0759737,-0.0123516,0.0785491,0.0167334,-1.36524,0.0477752,0.0449958,1245,1674,4.37151,-66.4654
28,-650,4.0321,65.9122,0.0290479,0.0693842,-0.000916395,0.069405,0.0290271,-1.54809,0.0402492,0.0474964,1252,1674,4.03211,-65.9122
35,-650,3.45667,65.6372,0,0,0,0,0,0,0,-1,1259,1674,3.4567,-65.6372
42,-650,3.36584,60.9198,0,0,0,0,0,0,0,-1,1266,1674,3.36579,-60.9198
49,-650,4.38391,61.8184,0.0539042,0.0437596,0.0288088,0.0780839,0.0195799,0.698258,0.0469117,0.0481376,1273,1674,4.38392,-61.8183
56,-650,4.95959,62.5773,0.0598103,0.0375967,0.035143,0.0855598,0.0118472,0.632342,0.0535296,0.0479257,1280,1674,4.95957,-62.5773
63,-650,3.56543,63.1451,0.0664384,0.0303826,0.0394848,0.0918162,0.00500476,0.571243,0.0596126,0.044664,1287,1674,3.5654,-63.1452
70,-650,4.9978,63.7222,0,0,0,0,0,0,0,-1,1294,1674,4.99781,-63.7221
77,-650,6.67395,63.9247,0,0,0,0,0,0,0,-1,1301,1674,6.67401,-63.9246
84,-650,7.74524,63.6722,0,0,0,0,0,0,0,-1,1308,1674,7.74519,-63.6722
91,-650,8.073,63.9253,0,0,0,0,0,0,0,-1,1315,1674,8.07296,-63.9254
98,-650,10.0854,64.2299,0.0760443,-0.00143377,0.00363704,0.0762147,-0.00160413,0.0468056,0.0513528,0.0455691,1322,1674,10.0855,-64.2299
105,-650,9.90063,64.0988,0.0773324,-0.00418638,-0.0126093,0.0792382,-0.00609223,-0.150011,0.0549689,0.0450785,1329,1674,9.90064,-64.0988
112,-650,10.429,64.1492,0.0812752,-0.00556964,-0.0297481,0.090488,-0.0147824,-0.300323,0.0658085,0.0453618,1336,1674,10.429,-64.1492
119,-650,10.9209,64.1602,0.0883826,-0.00545632,-0.0474769,0.108213,-0.0252863,-0.395652,0.0818825,0.0466552,1343,1674,10.9209,-64.1601
126,-650,11.3959,64.1359,0,0,0,0,0,0,0,-1,1350,1674,11.3959,-64.1359
133,-650,13.4603,63.573,0.116048,0.00222822,-0.0811734,0.158274,-0.0399973,-0.479669,0.121071,0.0473051,1357,1674,13.4604,-63.573
140,-650,14.772,63.8538,0.133668,0.00827249,-0.0956514,0.185339,-0.0433983,-0.495288,0.140281,0.0462011,1364,1674,14.7719,-63.8537
147,-650,15.9866,63.8757,0.145904,0.0134092,-0.104508,0.203393,-0.0440798,-0.502913,0.152428,0.0443094,1371,1674,15.9866,-63.8757
154,-650,16.8777,64.3691,0,0,0,0,0,0,0,-1,1378,1674,16.8776,-64.3691
161,-650,4.09106,30.3021,0,0,0,0,0,0,0,-1,1385,1674,4.09104,-30.3021
168,-650,11.2113,7.87231,0,0,0,0,0,0,0,-1,1392,1674,11.2113,-7.87236
175,-650,5.62537,-0.230713,0,0,0,0,0,0,0,-1,1399,1674,5.62538,0.230745
182,-650,5.56006,0.421631,0,0,0,0,0,0,0,-1,1406,1674,5.56,-0.421652
189,-650,4.81543,11.0654,0,0,0,0,0,0,0,-1,1413,1674,4.81542,-11.0654
196,-650,5.39575,11.9077,0,0,0,0,0,0,0,-1,1420,1674,5.39575,-11.9078
203,-650,3.93628,11.8215,0,0,0,0,0,0,0,-1,1427,1674,3.93624,-11.8216
210,-650,5.40955,8.08594,0,0,0,0,0,0,0,-1,1434,1674,5.40958,-8.086
217,-650,5.12451,4.69739,0,0,0,0,0,0,0,-1,1441,1674,5.12451,-4.69738
224,-650,4.79041,1.45813,0,0,0,0,0,0,0,-1,1448,1674,4.79046,-1.45816
231,-650,4.04102,-0.642212,0,0,0,0,0,0,0,-1,1455,1674,4.04101,0.642209
238,-650,3.23022,-1.43396,0,0,0,0,0,0,0,-1,1462,1674,3.23023,1.43394
245,-650,1.65894,-2.55042,0,0,0,0,0,0,0,-1,1469,1674,1.65889,2.55036
252,-650,8.75342,0.355103,0,0,0,0,0,0,0,-1,1476,1674,8.75337,-0.355147
259,-650,5.61255,3.17566,0,0,0,0,0,0,0,-1,1483,1674,5.61257,-3.17572
266,-650,4.00403,6.10229,0,0,0,0,0,0,0,-1,1490,1674,4.00401,-6.10225
273,-650,11.9524,42.7109,0,0,0,0,0,0,0,-1,1497,1674,11.9524,-42.7109
280,-650,12.3011,46.7283,0,0,0,0,0,0,0,-1,1504,1674,12.3011,-46.7283
287,-650,13.3313,56.4452,0,0,0,0,0,0,0,-1,1511,1674,13.3313,-56.4451
294,-650,13.4551,56.0857,0.0126062,0.0087568,-0.00196195,0.0134299,0.0079331,-0.397492,0.00779617,0.044805,1518,1674,13.4551,-56.0857
301,-650,13.6116,55.5651,0.0108718,0.00832485,-0.00161506,0.0116551,0.0075416,-0.451552,0.00682539,0.0327274,1525,1674,13.6116,-55.565
308,-650,13.7123,55.1118,0.00924305,0.00793052,-0.00135017,0.010088,0.00708557,-0.55918,0.00598122,0.0201205,1532,1674,13.7122,-55.1119
315,-650,13.7599,54.5774,0.00772903,0.0072867,-0.00117126,0.00869982,0.00631591,-0.692085,0.00519103,0.0132435,1539,1674,13.7599,-54.5773
322,-650,13.7422,54.048,0.0067278,0.00748257,-0.00180475,0.00894897,0.0052614,-0.888467,0.00519326,0.0120899,1546,1674,13.7421,-54.0479
329,-650,13.7649,53.454,0.00601479,0.00710759,-0.00226615,0.00889228,0.00423009,-0.903697,0.00513598,0.0165084,1553,1674,13.7648,-53.454
336,-650,13.7634,52.9209,0.00538967,0.00686883,-0.00257464,0.00880801,0.00345048,-0.92526,0.00512488,0.0147486,1560,1674,13.7634,-52.9209
343,-650,13.7634,52.3623,0.00465388,0.00664754,-0.00280961,0.00863191,0.00266951,-0.955868,0.00510308,0.0138374,1567,1674,13.7635,-52.3623
350,-650,13.7723,51.7822,0.00406819,0.00634216,-0.00306045,0.00847,0.00194034,-0.963251,0.00512385,0.0166388,1574,1674,13.7723,-51.7823
357,-650,13.7379,51.1863,0.00366114,0.00559068,-0.00329931,0.00806338,0.00118844,-0.92764,0.00502649,0.0144715,1581,1674,13.7379,-51.1863
364,-650,13.7244,50.5651,0.0033588,0.00512343,-0.00344541,0.00779771,0.000684525,-0.910746,0.00498598,0.0100557,1588,1674,13.7244,-50.5651
371,-650,13.7203,49.9661,0.0030722,0.00450675,-0.00343304,0.00729664,0.000282304,-0.888384,0.00477311,0.012261,1595,1674,13.7203,-49.9661
378,-650,13.6899,49.3582,0.00274713,0.00380436,-0.00331665,0.00663426,-8.27641e-05,-0.864425,0.00445068,0.0136061,1602,1674,13.6899,-49.3581
385,-650,13.681,48.7423,0.0025064,0.00304458,-0.00317673,0.00596359,-0.000412613,-0.82765,0.00412016,0.0148124,1609,1674,13.6811,-48.7424
392,-650,13.6575,48.1154,0.00234037,0.00242686,-0.00318021,0.00556412,-0.000796897,-0.792197,0.00400158,0.0189864,1616,1674,13.6575,-48.1154
399,-650,13.6166,47.504,0.00200997,0.0017928,-0.00302695,0.00493029,-0.00112752,-0.767469,0.0037201,0.0181058,1623,1674,13.6165,-47.504
406,-650,13.592,46.8663,0.00179498,0.00121758,-0.00296865,0.00448894,-0.00147638,-0.736926,0.00358749,0.0162199,1630,1674,13.592,-46.8664
413,-650,13.5889,46.212,0.00174909,0.000914602,-0.00305099,0.00441123,-0.00174754,-0.717441,0.00366495,0.0165345,1637,1674,13.5888,-46.212
420,-650,13.5245,45.5892,0.00189066,0.000765816,-0.00329145,0.00466739,-0.00201092,-0.700779,0.00395609,0.0179449,1644,1674,13.5245,-45.5893
427,-650,13.4839,44.9479,0.00221672,0.00113679,-0.00397482,0.00568809,-0.00233458,-0.717888,0.00476487,0.0178682,1651,1674,13.4839,-44.9479
434,-650,13.4236,44.2715,0.00279469,0.00156079,-0.00477122,0.00698869,-0.00263321,-0.721101,0.00574178,0.0231294,1658,1674,13.4236,-44.2715
441,-650,13.4399,43.5052,0.00344432,0.0021146,-0.0056417,0.0084602,-0.00290128,-0.726745,0.00681625,0.0385319,1665,1674,13.4399,-43.5052
448,-650,13.2588,42.9784,0.00419932,0.00277357,-0.00656625,0.0100913,-0.00311839,-0.731327,0.00797292,0.0457372,1672,1674,13.2588,-42.9784
455,-650,13.147,42.4803,0,0,0,0,0,0,0,-1,1679,1674,13.147,-42.4804
462,-650,13.3921,41.3663,0,0,0,0,0,0,0,-1,1686,1674,13.3921,-41.3663
469,-650,11.3628,29.8889,0,0,0,0,0,0,0,-1,1693,1674,11.3628,-29.8889
476,-650,10.9189,27.1289,0,0,0,0,0,0,0,-1,1700,1674,10.919,-27.1289
483,-650,10.2426,24.5127,0,0,0,0,0,0,0,-1,1707,1674,10.2425,-24.5127
490,-650,10.4818,24.3475,0,0,0,0,0,0,0,-1,1714,1674,10.4818,-24.3475
497,-650,10.4985,20.1362,0,0,0,0,0,0,0,-1,1721,1674,10.4986,-20.1362
504,-650,9.69458,18.7721,0,0,0,0,0,0,0,-1,1728,1674,9.6946,-18.772
511,-650,9.37158,17.7506,0,0,0,0,0,0,0,-1,1735,1674,9.37159,-17.7506
518,-650,0,0,0,0,0,0,0,0,0,-1,1742,1674,0,0
525,-650,0,0,0,0,0,0,0,0,0,-1,1749,1674,0,0
532,-650,0,0,0,0,0,0,0,0,0,-1,1756,1674,0,0
539,-650,0,0,0,0,0,0,0,0,0,-1,1763,1674,0,0
546,-650,0,0,0,0,0,0,0,0,0,-1,1770,1674,0,0
553,-650,0,0,0,0,0,0,0,0,0,-1,1777,1674,0,0
560,-650,0,0,0,0,0,0,0,0,0,-1,1784,1674,0,0
567,-650,0,0,0,0,0,0,0,0,0,-1,1791,1674,0,0
574,-650,0,0,0,0,0,0,0,0,0,-1,1798,1674,0,0
581,-650,0,0,0,0,0,0,0,0,0,-1,1805,1674,0,0
588,-650,0,0,0,0,0,0,0,0,0,-1,1812,1674,0,0
595,-650,0,0,0,0,0,0,0,0,0,-1,1819,1674,0,0
602,-650,0,0,0,0,0,0,0,0,0,-1,1826,1674,0,0
609,-650,0,0,0,0,0,0,0,0,0,-1,1833,1674,0,0
616,-650,0,0,0,0,0,0,0,0,0,-1,1840,1674,0,0
623,-650,0,0,0,0,0,0,0,0,0,-1,1847,1674,0,0
630,-650,0,0,0,0,0,0,0,0,0,-1,1854,1674,0,0
637,-650,0,0,0,0,0,0,0,0,0,-1,1861,1674,0,0
644,-650,0,0,0,0,0,0,0,0,0,-1,1868,1674,0,0
651,-650,0,0,0,0,0,0,0,0,0,-1,1875,1674,0,0
658,-650,0,0,0,0,0,0,0,0,0,-1,1882,1674,0,0
665,-650,0,0,0,0,0,0,0,0,0,-1,1889,1674,0,0
672,-650,0,0,0,0,0,0,0,0,0,-1,1896,1674,0,0
679,-650,0,0,0,0,0,0,0,0,0,-1,1903,1674,0,0
686,-650,0,0,0,0,0,0,0,0,0,-1,1910,1674,0,0
693,-650,0,0,0,0,0,0,0,0,0,-1,1917,1674,0,0
700,-650,0,0,0,0,0,0,0,0,0,-1,1924,1674,0,0
707,-650,0,0,0,0,0,0,0,0,0,-1,1931,1674,0,0
714,-650,0,0,0,0,0,0,0,0,0,-1,1938,1674,0,0
721,-650,0,0,0,0,0,0,0,0,0,-1,1945,1674,0,0
728,-650,0,0,0,0,0,0,0,0,0,-1,1952,1674,0,0
735,-650,0,0,0,0,0,0,0,0,0,-1,1959,1674,0,0
742,-650,0,0,0,0,0,0,0,0,0,-1,1966,1674,0,0
749,-650,0,0,0,0,0,0,0,0,0,-1,1973,1674,0,0
756,-650,0,0,0,0,0,0,0,0,0,-1,1980,1674,0,0
763,-650,0,0,0,0,0,0,0,0,0,-1,1987,1674,0,0
770,-650,0,0,0,0,0,0,0,0,0,-1,1994,1674,0,0
777,-650,0,0,0,0,0,0,0,0,0,-1,2001,1674,0,0
784,-650,0,0,0,0,0,0,0,0,0,-1,2008,1674,0,0
791,-650,0,0,0,0,0,0,0,0,0,-1,2015,1674,0,0
798,-650,0,0,0,0,0,0,0,0,0,-1,2022,1674,0,0
805,-650,0,0,0,0,0,0,0,0,0,-1,2029,1674,0,0
812,-650,0,0,0,0,0,0,0,0,0,-1,2036,1674,0,0
-700,-657,0,0,0,0,0,0,0,0,0,-1,524,1681,0,0
-693,-657,0,0,0,0,0,0,0,0,0,-1,531,1681,0,0
-686,-657,0,0,0,0,0,0,0,0,0,-1,538,1681,0,0
-679,-657,0,0,0,0,0,0,0,0,0,-1,545,1681,0,0
-672,-657,0,0,0,0,0,0,0,0,0,-1,552,1681,0,0
-665,-657,0,0,0,0,0,0,0,0,0,-1,559,1681,0,0
-658,-657,0,0,0,0,0,0,0,0,0,-1,566,1681,0,0
-651,-657,0,0,0,0,0,0,0,0,0,-1,573,1681,0,0
-644,-657,0,0,0,0,0,0,0,0,0,-1,580,1681,0,0
-637,-657,0,0,0,0,0,0,0,0,0,-1,587,1681,0,0
-630,-657,0,0,0,0,0,0,0,0,0,-1,594,1681,0,0
-623,-657,0,0,0,0,0,0,0,0,0,-1,601,1681,0,0
-616,-657,0,0,0,0,0,0,0,0,0,-1,608,1681,0,0
-609,-657,0,0,0,0,0,0,0,0,0,-1,615,1681,0,0
-602,-657,0,0,0,0,0,0,0,0,0,-1,622,1681,0,0
-595,-657,0,0,0,0,0,0,0,0,0,-1,629,1681,0,0
-588,-657,0,0,0,0,0,0,0,0,0,-1,636,1681,0,0
-581,-657,0,0,0,0,0,0,0,0,0,-1,643,1681,0,0
-574,-657,0,0,0,0,0,0,0,0,0,-1,650,1681,0,0
-567,-657,0,0,0,0,0,0,0,0,0,-1,657,1681,0,0
-560,-657,0,0,0,0,0,0,0,0,0,-1,664,1681,0,0
-553,-657,0,0,0,0,0,0,0,0,0,-1,671,1681,0,0
-546,-657,0,0,0,0,0,0,0,0,0,-1,678,1681,0,0
-539,-657,0,0,0,0,0,0,0,0,0,-1,685,1681,0,0
-532,-657,0,0,0,0,0,0,0,0,0,-1,692,1681,0,0
-525,-657,0,0,0,0,0,0,0,0,0,-1,699,1681,0,0
-518,-657,0,0,0,0,0,0,0,0,0,-1,706,1681,0,0
-511,-657,0,0,0,0,0,0,0,0,0,-1,713,1681,0,0
-504,-657,0,0,0,0,0,0,0,0,0,-1,720,1681,0,0
-497,-657,0,0,0,0,0,0,0,0,0,-1,727,1681,0,0
-490,-657,0,0,0,0,0,0,0,0,0,-1,734,1681,0,0
-483,-657,0,0,0,0,0,0,0,0,0,-1,741,1681,0,0
-476,-657,0,0,0,0,0,0,0,0,0,-1,748,1681,0,0
-469,-657,0,0,0,0,0,0,0,0,0,-1,755,1681,0,0
-462,-657,0,0,0,0,0,0,0,0,0,-1,762,1681,0,0
-455,-657,0,0,0,0,0,0,0,0,0,-1,769,1681,0,0
-448,-657,0,0,0,0,0,0,0,0,0,-1,776,1681,0,0
-441,-657,0,0,0,0,0,0,0,0,0,-1,783,1681,0,0
-434,-657,0,0,0,0,0,0,0,0,0,-1,790,1681,0,0
-427,-657,0,0,0,0,0,0,0,0,0,-1,797,1681,0,0
-420,-657,0,0,0,0,0,0,0,0,0,-1,804,1681,0,0
-413,-657,0,0,0,0,0,0,0,0,0,-1,811,1681,0,0
-406,-657,0,0,0,0,0,0,0,0,0,-1,818,1681,0,0
-399,-657,0,0,0,0,0,0,0,0,0,-1,825,1681,0,0
-392,-657,0,0,0,0,0,0,0,0,0,-1,832,1681,0,0
-385,-657,1.09814,6.18896,0,0,0,0,0,0,0,-1,839,1681,1.09814,-6.18894
-378,-657,0.31488,4.46753,0,0,0,0,0,0,0,-1,846,1681,0.31487,-4.46755
-371,-657,-0.519043,2.69421,0,0,0,0,0,0,0,-1,853,1681,-0.519064,-2.69422
-364,-657,-3.42017,4.18323,0,0,0,0,0,0,0,-1,860,1681,-3.42019,-4.18319
-357,-657,5.03418,34.7598,0,0,0,0,0,0,0,-1,867,1681,5.03417,-34.7597
-350,-657,4.23431,35.8203,0,0,0,0,0,0,0,-1,874,1681,4.23429,-35.8203
-343,-657,3.60156,36.754,0,0,0,0,0,0,0,-1,881,1681,3.60154,-36.754
-336,-657,5.27338,40.2932,0,0,0,0,0,0,0,-1,888,1681,5.27338,-40.2932
-329,-657,4.95728,42.2609,0,0,0,0,0,0,0,-1,895,1681,4.95725,-42.2608
-322,-657,4.99799,42.8831,0,0,0,0,0,0,0,-1,902,1681,4.99796,-42.8831
-315,-657,4.98145,43.3356,0,0,0,0,0,0,0,-1,909,1681,4.98146,-43.3355
-308,-657,4.9953,44.2758,-0.00143886,-0.0056567,0.00461762,0.00152863,-0.00862419,0.571188,0.00632092,0.0384075,916,1681,4.99532,-44.2757
-301,-657,5.06335,44.848,-0.00283825,-0.00434424,0.00391477,0.000395285,-0.00757778,0.690385,0.00518864,0.0312193,923,1681,5.06337,-44.848
-294,-657,5.00739,45.5364,-0.003547,-0.00338712,0.00317099,-0.000295064,-0.00663906,0.798,0.00433104,0.0169811,930,1681,5.00737,-45.5363
-287,-657,4.97974,46.1969,-0.0038226,-0.00252658,0.00252109,-0.000571551,-0.00577763,0.911194,0.00367607,0.0125945,937,1681,4.97976,-46.197
-280,-657,4.9389,46.8387,-0.00409571,-0.00155599,0.00204518,-0.000418506,-0.0052332,1.06322,0.003358,0.014236,944,1681,4.9389,-46.8388
-273,-657,4.90857,47.5022,-0.00370841,-0.00111988,0.00170021,-0.000277361,-0.00455093,1.11073,0.00294586,0.0112517,951,1681,4.90857,-47.5021
-266,-657,4.86365,48.1344,-0.00291664,-0.000682662,0.00138337,-2.16243e-05,-0.00357768,1.12503,0.00237795,0.0157508,958,1681,4.86367,-48.1345
-259,-657,4.87323,48.7593,-0.00212469,-0.000307323,0.00117475,0.000269168,-0.00270118,1.11459,0.00189689,0.0190283,965,1681,4.87322,-48.7592
-252,-657,4.79388,49.4072,-0.00140025,6.91571e-05,0.0010828,0.000642986,-0.00197408,1.08348,0.00157476,0.013961,972,1681,4.7939,-49.4073
-245,-657,4.77686,50.0653,-0.000601455,0.000248409,0.00104489,0.000951468,-0.00130451,0.978522,0.0013078,0.0162509,979,1681,4.77685,-50.0653
-238,-657,4.78839,50.7294,0.00013679,0.000185677,0.000857688,0.00101927,-0.000696803,0.799644,0.000996589,0.0215648,986,1681,4.78838,-50.7294
-231,-657,4.74634,51.3524,0.000876911,-0.000111492,0.000805033,0.00132733,-0.000561914,0.510113,0.0011202,0.0215646,993,1681,4.74636,-51.3524
-224,-657,4.68817,51.9547,0.00163873,-5.53719e-05,0.000827577,0.0019759,-0.000392542,0.386885,0.00146574,0.0161214,1000,1681,4.68817,-51.9547
-217,-657,4.69122,52.5184,0.00211061,-0.000455014,0.000669457,0.00227478,-0.000619192,0.240494,0.00175962,0.0111978,1007,1681,4.69124,-52.5184
-210,-657,4.70435,53.0665,0.00251881,-0.000925169,0.000417542,0.00256871,-0.000975068,0.118943,0.00211384,0.0119908,1014,1681,4.70434,-53.0666
-203,-657,4.70264,53.6494,0.00297672,-0.00142282,0.000157628,0.00298236,-0.00142846,0.0357672,0.00259873,0.0143869,1021,1681,4.70259,-53.6494
-196,-657,4.67517,54.2101,0.00341906,-0.00172215,1.39256e-05,0.0034191,-0.00172219,0.00270859,0.00302174,0.0150082,1028,1681,4.6752,-54.21
-189,-657,4.68372,54.7682,0.0037529,-0.00180183,-0.000212295,0.003761,-0.00180993,-0.0381446,0.00328147,0.0113061,1035,1681,4.68368,-54.7681
-182,-657,4.68787,55.3267,0.00407485,-0.00141022,-0.00039512,0.00410317,-0.00143854,-0.0715432,0.0033205,0.0093208,1042,1681,4.68788,-55.3266
-175,-657,4.71692,55.8654,0.00450838,-0.000733116,-0.000309154,0.00452655,-0.000751287,-0.0587107,0.00329679,0.0119019,1049,1681,4.71696,-55.8653
-168,-657,4.6709,56.4111,0.00490019,0.000280781,-0.000191299,0.0049081,0.000272873,-0.0413178,0.003185,0.0160058,1056,1681,4.67092,-56.4111
-161,-657,4.66943,56.9606,0.00542859,0.00179044,-2.19659e-05,0.00542873,0.00179031,-0.00603737,0.00319424,0.0166201,1063,1681,4.66943,-56.9605
-154,-657,4.74829,57.405,0.00602021,0.0037378,0.000305726,0.00606045,0.00369756,0.130876,0.00352717,0.0159535,1070,1681,4.74829,-57.4051
-147,-657,4.77368,57.9343,0.00658366,0.00615014,0.000707443,0.00710681,0.00562699,0.636739,0.00432973,0.0244227,1077,1681,4.77363,-57.9343
-140,-657,4.73755,58.6615,0.00712297,0.00880182,0.00103756,0.00929699,0.00662779,1.12551,0.00552743,0.0362768,1084,1681,4.73757,-58.6615
-133,-657,4.60144,59.2039,0.00782396,0.0119864,0.00156372,0.0125084,0.00730197,1.24861,0.00725543,0.0442655,1091,1681,4.6015,-59.2038
-126,-657,4.84985,59.8029,0,0,0,0,0,0,0,-1,1098,1681,4.84988,-59.8028
-119,-657,5.64758,54.4952,0,0,0,0,0,0,0,-1,1105,1681,5.64753,-54.4952
-112,-657,6.24219,42.9092,0,0,0,0,0,0,0,-1,1112,1681,6.24217,-42.9092
-105,-657,7.37256,41.0361,0,0,0,0,0,0,0,-1,1119,1681,7.37254,-41.0362
-98,-657,8.14404,38.4435,0,0,0,0,0,0,0,-1,1126,1681,8.14405,-38.4435
-91,-657,3.6521,16.6017,0,0,0,0,0,0,0,-1,1133,1681,3.65215,-16.6017
-84,-657,4.08008,10.4579,0,0,0,0,0,0,0,-1,1140,1681,4.08006,-10.4579
-77,-657,-5.29846,0.396606,0,0,0,0,0,0,0,-1,1147,1681,-5.29842,-0.396573
-70,-657,-4.14893,2.14575,0,0,0,0,0,0,0,-1,1154,1681,-4.14893,-2.1458
-63,-657,-4.1239,3.177,0,0,0,0,0,0,0,-1,1161,1681,-4.12391,-3.17698
-56,-657,-6.40576,5.73987,0,0,0,0,0,0,0,-1,1168,1681,-6.40577,-5.7399
-49,-657,-5.98462,7.54053,0,0,0,0,0,0,0,-1,1175,1681,-5.98466,-7.5405
-42,-657,-5.71948,9.28955,0,0,0,0,0,0,0,-1,1182,1681,-5.71951,-9.2895
-35,-657,-5.44556,11.015,0,0,0,0,0,0,0,-1,1189,1681,-5.44555,-11.015
-28,-657,-1.3446,8.92847,0,0,0,0,0,0,0,-1,1196,1681,-1.34459,-8.92848
-21,-657,3.88757,65.8417,0,0,0,0,0,0,0,-1,1203,1681,3.88758,-65.8417
-14,-657,4.52515,66.2332,0.021964,0.0872528,-0.0191125,0.0924363,0.0167806,-1.30596,0.0568621,0.0447867,1210,1681,4.52515,-66.2331
-7,-657,5.04626,66.3802,0.0172943,0.0822784,-0.022272,0.0891789,0.0103938,-1.27035,0.0563087,0.0458812,1217,1681,5.04631,-66.3802
0,-657,5.39624,66.3234,0.0109654,0.0790207,-0.0264062,0.0880647,0.00192144,-1.24082,0.0580799,0.0439025,1224,1681,5.39627,-66.3233
7,-657,5.51904,66.3381,0.00861494,0.0750629,-0.0252929,0.0835949,8.29138e-05,-1.24545,0.0557023,0.0452288,1231,1681,5.51906,-66.3381
14,-657,5.65137,66.3313,0.0110438,0.0706192,-0.0185036,0.0758984,0.00576459,-1.29287,0.0487911,0.0465273,1238,1681,5.65138,-66.3313
21,-657,5.79065,66.323,0.0184417,0.065737,-0.00913352,0.0674396,0.0167391,-1.38651,0.0405486,0.0480151,1245,1681,5.79062,-66.323
28,-657,4.2804,65.1,0.0269349,0.0605637,0.000715002,0.0605789,0.0269197,1.54955,0.0350473,0.0473656,1252,1681,4.28046,-65.1
35,-657,3.71704,64.827,0,0,0,0,0,0,0,-1,1259,1681,3.71704,-64.827
42,-657,3.59656,60.939,0,0,0,0,0,0,0,-1,1266,1681,3.59661,-60.9389
49,-657,3.99597,61.6475,0.0491654,0.0395018,0.0262056,0.070981,0.0176863,0.694232,0.0426652,0.0469322,1273,1681,3.99593,-61.6475
56,-657,4.3999,62.2283,0.0538293,0.0340078,0.0312799,0.076731,0.0111061,0.63198,0.0478832,0.0455272,1280,1681,4.3999,-62.2283
63,-657,5.58813,63.6565,0,0,0,0,0,0,0,-1,1287,1681,5.58811,-63.6565
70,-657,6.16174,63.8441,0.0648215,0.0193114,0.0370397,0.0855374,-0.00140454,0.509949,0.0574989,0.0473754,1294,1681,6.16172,-63.8441
77,-657,6.70935,63.7855,0.0676138,0.0117674,0.0386704,0.0873886,-0.0080075,0.472702,0.0611034,0.0453932,1301,1681,6.70934,-63.7856
84,-657,7.55908,63.6694,0.0675072,0.00548455,0.0302106,0.07979,-0.0067983,0.38616,0.0555982,0.0454975,1308,1681,7.55905,-63.6695
91,-657,10.4683,64.6138,0,0,0,0,0,0,0,-1,1315,1681,10.4682,-64.6138
98,-657,10.2167,64.3317,0.0662394,-0.00207598,0.00264975,0.066342,-0.0021786,0.0387095,0.0449718,0.0454451,1322,1681,10.2167,-64.3317
105,-657,10.1497,64.0946,0.0672788,-0.0049812,-0.0118629,0.0691764,-0.00687888,-0.158624,0.0485732,0.044781,1329,1681,10.1496,-64.0947
112,-657,10.0865,63.8323,0,0,0,0,0,0,0,-1,1336,1681,10.0866,-63.8323
119,-657,11.2557,63.9919,0,0,0,0,0,0,0,-1,1343,1681,11.2558,-63.9919
126,-657,13.3953,64.5288,0,0,0,0,0,0,0,-1,1350,1681,13.3953,-64.5288
133,-657,15.0399,64.1199,0.10169,0.000566977,-0.0700243,0.137499,-0.0352421,-0.472711,0.105396,0.0482197,1357,1681,15.0399,-64.1199
140,-657,16.3768,63.9828,0.115248,0.00570393,-0.0805138,0.157854,-0.0369019,-0.486713,0.119452,0.0453321,1364,1681,16.3768,-63.9828
147,-657,17.6714,63.866,0.123631,0.00992036,-0.0864401,0.170238,-0.0366865,-0.494499,0.127492,0.0482949,1371,1681,17.6714,-63.866
154,-657,18.5449,64.3363,0,0,0,0,0,0,0,-1,1378,1681,18.545,-64.3363
161,-657,4.2926,24.9226,0,0,0,0,0,0,0,-1,1385,1681,4.29264,-24.9226
168,-657,5.21643,0.70105,0,0,0,0,0,0,0,-1,1392,1681,5.21648,-0.7011
175,-657,5.52771,0.649048,0,0,0,0,0,0,0,-1,1399,1681,5.52774,-0.649019
182,-657,5.73999,1.02612,0,0,0,0,0,0,0,-1,1406,1681,5.73995,-1.02611
189,-657,5.92126,1.44116,0,0,0,0,0,0,0,-1,1413,1681,5.92126,-1.44115
196,-657,4.92834,9.59021,0,0,0,0,0,0,0,-1,1420,1681,4.9284,-9.59018
203,-657,6.26343,5.16492,0,0,0,0,0,0,0,-1,1427,1681,6.26345,-5.16488
210,-657,3.9856,5.28088,0,0,0,0,0,0,0,-1,1434,1681,3.98555,-5.28084
217,-657,3.95178,5.2843,0,0,0,0,0,0,0,-1,1441,1681,3.95174,-5.28431
224,-657,6.66736,-0.250244,0,0,0,0,0,0,0,-1,1448,1681,6.66737,0.250229
231,-657,6.85498,-1.70752,0,0,0,0,0,0,0,-1,1455,1681,6.855,1.70758
238,-657,5.34143,-2.89819,0,0,0,0,0,0,0,-1,1462,1681,5.34143,2.89813
245,-657,8.66003,-0.102783,0,0,0,0,0,0,0,-1,1469,1681,8.66,0.102824
252,-657,4.78955,0.623779,0,0,0,0,0,0,0,-1,1476,1681,4.7895,-0.623826
259,-657,2.61523,4.31909,0,0,0,0,0,0,0,-1,1483,1681,2.61523,-4.31908
266,-657,5.35437,11.4742,0,0,0,0,0,0,0,-1,1490,1681,5.35441,-11.4742
273,-657,11.9164,46.0638,0,0,0,0,0,0,0,-1,1497,1681,11.9164,-46.0638
280,-657,12.8423,57.0796,0,0,0,0,0,0,0,-1,1504,1681,12.8423,-57.0796
287,-657,12.7795,56.5923,0.0115326,0.00516306,-0.00143202,0.0118398,0.00485592,-0.21128,0.00687239,0.0489578,1511,1681,12.7795,-56.5923
294,-657,13.0465,56.1256,0.0103523,0.00503301,-0.00132067,0.0106622,0.00472316,-0.230445,0.00616913,0.0362608,1518,1681,13.0465,-56.1256
301,-657,13.1401,55.7139,0.00899514,0.00503202,-0.00112413,0.00929179,0.00473537,-0.258013,0.00536495,0.0267725,1525,1681,13.1402,-55.7138
308,-657,13.1708,55.1766,0.0076842,0.00501228,-0.000998493,0.0080161,0.00468037,-0.320917,0.00464975,0.017496,1532,1681,13.1708,-55.1767
315,-657,13.193,54.5894,0.00642277,0.00485107,-0.000933539,0.00685719,0.00441666,-0.435542,0.00401343,0.0124829,1539,1681,13.1929,-54.5893
322,-657,13.1935,54.0249,0.00544118,0.00515879,-0.00132727,0.00663474,0.00396522,-0.732407,0.00385484,0.0141843,1546,1681,13.1935,-54.0249
329,-657,13.2026,53.4633,0.00465482,0.00513572,-0.00168428,0.00659663,0.00319391,-0.856301,0.0038092,0.0208246,1553,1681,13.2026,-53.4633
336,-657,13.1974,52.9141,0.00398005,0.00512449,-0.00192028,0.00655599,0.00254855,-0.930204,0.00381621,0.0178724,1560,1681,13.1974,-52.914
343,-657,13.2057,52.3611,0.00323841,0.00506956,-0.00213014,0.00647256,0.00183541,-0.988372,0.00385186,0.0138017,1567,1681,13.2056,-52.3611
350,-657,13.1992,51.7898,0.00266262,0.00490863,-0.00241123,0.00644554,0.0011257,-1.00333,0.00397528,0.0158925,1574,1681,13.1993,-51.7897
357,-657,13.1713,51.1804,0.00229536,0.00437221,-0.00269346,0.00622049,0.000447086,-0.969386,0.00400629,0.015336,1581,1681,13.1712,-51.1805
364,-657,13.1505,50.5861,0.00203102,0.00396845,-0.00288606,0.00604403,-4.45668e-05,-0.947316,0.00404429,0.011425,1588,1681,13.1505,-50.5861
371,-657,13.1339,50.0226,0.0018194,0.00343832,-0.00297689,0.00571384,-0.000456116,-0.918146,0.00397001,0.0158566,1595,1681,13.1339,-50.0226
378,-657,13.0779,49.4103,0.00163115,0.00281763,-0.00299357,0.00527618,-0.000827398,-0.883217,0.00382321,0.0160007,1602,1681,13.0778,-49.4103
385,-657,13.0292,48.7659,0.00158141,0.00219349,-0.00303934,0.00494216,-0.00116725,-0.835576,0.00374499,0.0146399,1609,1681,13.0292,-48.7658
392,-657,13.0067,48.1604,0.00168781,0.00172535,-0.0032931,0.00499974,-0.00158658,-0.788248,0.00396916,0.0148806,1616,1681,13.0067,-48.1604
399,-657,13.0044,47.5276,0.00163166,0.00118338,-0.00335437,0.00476937,-0.00195433,-0.752038,0.00399373,0.0147108,1623,1681,13.0045,-47.5276
406,-657,12.9827,46.8934,0.00168481,0.000783606,-0.00350717,0.00477021,-0.00230179,-0.721508,0.0041651,0.0150341,1630,1681,12.9826,-46.8934
413,-657,12.9542,46.2495,0.00193057,0.000709033,-0.00381001,0.00517845,-0.00253885,-0.705921,0.00454163,0.0152689,1637,1681,12.9542,-46.2496
420,-657,12.9297,45.5626,0.00239604,0.000745467,-0.0042773,0.00592694,-0.00278544,-0.690096,0.00513794,0.0197738,1644,1681,12.9297,-45.5626
427,-657,12.8479,44.847,0.00312484,0.00159671,-0.0053898,0.00780447,-0.00308291,-0.714986,0.00647987,0.026484,1651,1681,12.8479,-44.847
434,-657,12.9147,44.1339,0.00410975,0.00237683,-0.00653345,0.00983395,-0.00334736,-0.719473,0.00791143,0.0357606,1658,1681,12.9147,-44.134
441,-657,13.223,43.3741,0.00507232,0.00326657,-0.00761593,0.0118387,-0.00349982,-0.726398,0.00928169,0.04824,1665,1681,13.223,-43.3742
448,-657,13.4316,42.7056,0,0,0,0,0,0,0,-1,1672,1681,13.4317,-42.7055
455,-657,13.2375,41.3452,0,0,0,0,0,0,0,-1,1679,1681,13.2375,-41.3453
462,-657,10.2832,30.1719,0,0,0,0,0,0,0,-1,1686,1681,10.2831,-30.1718
469,-657,9.22205,26.4175,0,0,0,0,0,0,0,-1,1693,1681,9.2221,-26.4175
476,-657,8.9519,20.5712,0,0,0,0,0,0,0,-1,1700,1681,8.95194,-20.5712
483,-657,10.0663,21.8628,0,0,0,0,0,0,0,-1,1707,1681,10.0663,-21.8628
490,-657,11.6039,21.2185,0,0,0,0,0,0,0,-1,1714,1681,11.6038,-21.2185
497,-657,9.20862,17.8127,0,0,0,0,0,0,0,-1,1721,1681,9.2086,-17.8127
504,-657,0,0,0,0,0,0,0,0,0,-1,1728,1681,0,0
511,-657,0,0,0,0,0,0,0,0,0,-1,1735,1681,0,0
518,-657,0,0,0,0,0,0,0,0,0,-1,1742,1681,0,0
525,-657,0,0,0,0,0,0,0,0,0,-1,1749,1681,0,0
532,-657,0,0,0,0,0,0,0,0,0,-1,1756,1681,0,0
539,-657,0,0,0,0,0,0,0,0,0,-1,1763,1681,0,0
546,-657,0,0,0,0,0,0,0,0,0,-1,1770,1681,0,0
553,-657,0,0,0,0,0,0,0,0,0,-1,1777,1681,0,0
560,-657,0,0,0,0,0,0,0,0,0,-1,1784,1681,0,0
567,-657,0,0,0,0,0,0,0,0,0,-1,1791,1681,0,0
574,-657,0,0,0,0,0,0,0,0,0,-1,1798,1681,0,0
581,-657,0,0,0,0,0,0,0,0,0,-1,1805,1681,0,0
588,-657,0,0,0,0,0,0,0,0,0,-1,1812,1681,0,0
595,-657,0,0,0,0,0,0,0,0,0,-1,1819,1681,0,0
602,-657,0,0,0,0,0,0,0,0,0,-1,1826,1681,0,0
609,-657,0,0,0,0,0,0,0,0,0,-1,1833,1681,0,0
616,-657,0,0,0,0,0,0,0,0,0,-1,1840,1681,0,0
623,-657,0,0,0,0,0,0,0,0,0,-1,1847,1681,0,0
630,-657,0,0,0,0,0,0,0,0,0,-1,1854,1681,0,0
637,-657,0,0,0,0,0,0,0,0,0,-1,1861,1681,0,0
644,-657,0,0,0,0,0,0,0,0,0,-1,1868,1681,0,0
651,-657,0,0,0,0,0,0,0,0,0,-1,1875,1681,0,0
658,-657,0,0,0,0,0,0,0,0,0,-1,1882,1681,0,0
665,-657,0,0,0,0,0,0,0,0,0,-1,1889,1681,0,0
672,-657,0,0,0,0,0,0,0,0,0,-1,1896,1681,0,0
679,-657,0,0,0,0,0,0,0,0,0,-1,1903,1681,0,0
686,-657,0,0,0,0,0,0,0,0,0,-1,1910,1681,0,0
693,-657,0,0,0,0,0,0,0,0,0,-1,1917,1681,0,0
700,-657,0,0,0,0,0,0,0,0,0,-1,1924,1681,0,0
707,-657,0,0,0,0,0,0,0,0,0,-1,1931,1681,0,0
714,-657,0,0,0,0,0,0,0,0,0,-1,1938,1681,0,0
721,-657,0,0,0,0,0,0,0,0,0,-1,1945,1681,0,0
728,-657,0,0,0,0,0,0,0,0,0,-1,1952,1681,0,0
735,-657,0,0,0,0,0,0,0,0,0,-1,1959,1681,0,0
742,-657,0,0,0,0,0,0,0,0,0,-1,1966,1681,0,0
749,-657,0,0,0,0,0,0,0,0,0,-1,1973,1681,0,0
756,-657,0,0,0,0,0,0,0,0,0,-1,1980,1681,0,0
763,-657,0,0,0,0,0,0,0,0,0,-1,1987,1681,0,0
770,-657,0,0,0,0,0,0,0,0,0,-1,1994,1681,0,0
777,-657,0,0,0,0,0,0,0,0,0,-1,2001,1681,0,0
784,-657,0,0,0,0,0,0,0,0,0,-1,2008,1681,0,0
791,-657,0,0,0,0,0,0,0,0,0,-1,2015,1681,0,0
798,-657,0,0,0,0,0,0,0,0,0,-1,2022,1681,0,0
805,-657,0,0,0,0,0,0,0,0,0,-1,2029,1681,0,0
812,-657,0,0,0,0,0,0,0,0,0,-1,2036,1681,0,0
-700,-664,0,0,0,0,0,0,0,0,0,-1,524,1688,0,0
-693,-664,0,0,0,0,0,0,0,0,0,-1,531,1688,0,0
-686,-664,0,0,0,0,0,0,0,0,0,-1,538,1688,0,0
-679,-664,0,0,0,0,0,0,0,0,0,-1,545,1688,0,0
-672,-664,0,0,0,0,0,0,0,0,0,-1,552,1688,0,0
-665,-664,0,0,0,0,0,0,0,0,0,-1,559,1688,0,0
-658,-664,0,0,0,0,0,0,0,0,0,-1,566,1688,0,0
-651,-664,0,0,0,0,0,0,0,0,0,-1,573,1688,0,0
-644,-664,0,0,0,0,0,0,0,0,0,-1,580,1688,0,0
-637,-664,0,0,0,0,0,0,0,0,0,-1,587,1688,0,0
-630,-664,0,0,0,0,0,0,0,0,0,-1,594,1688,0,0
-623,-664,0,0,0,0,0,0,0,0,0,-1,601,1688,0,0
-616,-664,0,0,0,0,0,0,0,0,0,-1,608,1688,0,0
-609,-664,0,0,0,0,0,0,0,0,0,-1,615,1688,0,0
-602,-664,0,0,0,0,0,0,0,0,0,-1,622,1688,0,0
-595,-664,0,0,0,0,0,0,0,0,0,-1,629,1688,0,0
-588,-664,0,0,0,0,0,0,0,0,0,-1,636,1688,0,0
-581,-664,0,0,0,0,0,0,0,0,0,-1,643,1688,0,0
-574,-664,0,0,0,0,0,0,0,0,0,-1,650,1688,0,0
-567,-664,0,0,0,0,0,0,0,0,0,-1,657,1688,0,0
-560,-664,0,0,0,0,0,0,0,0,0,-1,664,1688,0,0
-553,-664,0,0,0,0,0,0,0,0,0,-1,671,1688,0,0
-546,-664,0,0,0,0,0,0,0,0,0,-1,678,1688,0,0
-539,-664,0,0,0,0,0,0,0,0,0,-1,685,1688,0,0
-532,-664,0,0,0,0,0,0,0,0,0,-1,692,1688,0,0
-525,-664,0,0,0,0,0,0,0,0,0,-1,699,1688,0,0
-518,-664,0,0,0,0,0,0,0,0,0,-1,706,1688,0,0
-511,-664,0,0,0,0,0,0,0,0,0,-1,713,1688,0,0
-504,-664,0,0,0,0,0,0,0,0,0,-1,720,1688,0,0
-497,-664,0,0,0,0,0,0,0,0,0,-1,727,1688,0,0
-490,-664,0,0,0,0,0,0,0,0,0,-1,734,1688,0,0
-483,-664,0,0,0,0,0,0,0,0,0,-1,741,1688,0,0
-476,-664,0,0,0,0,0,0,0,0,0,-1,748,1688,0,0
-469,-664,0,0,0,0,0,0,0,0,0,-1,755,1688,0,0
-462,-664,0,0,0,0,0,0,0,0,0,-1,762,1688,0,0
-455,-664,0,0,0,0,0,0,0,0,0,-1,769,1688,0,0
-448,-664,0,0,0,0,0,0,0,0,0,-1,776,1688,0,0
-441,-664,0,0,0,0,0,0,0,0,0,-1,783,1688,0,0
-434,-664,0,0,0,0,0,0,0,0,0,-1,790,1688,0,0
-427,-664,0,0,0,0,0,0,0,0,0,-1,797,1688,0,0
-420,-664,0,0,0,0,0,0,0,0,0,-1,804,1688,0,0
-413,-664,0,0,0,0,0,0,0,0,0,-1,811,1688,0,0
-406,-664,0,0,0,0,0,0,0,0,0,-1,818,1688,0,0
-399,-664,0,0,0,0,0,0,0,0,0,-1,825,1688,0,0
-392,-664,0,0,0,0,0,0,0,0,0,-1,832,1688,0,0
-385,-664,0,0,0,0,0,0,0,0,0,-1,839,1688,0,0
-378,-664,0,0,0,0,0,0,0,0,0,-1,846,1688,0,0
-371,-664,-1.61676,5.92737,0,0,0,0,0,0,0,-1,853,1688,-1.61675,-5.92735
-364,-664,-3.901,5.87024,0,0,0,0,0,0,0,-1,860,1688,-3.90097,-5.87027
-357,-664,-4.81012,4.53479,0,0,0,0,0,0,0,-1,867,1688,-4.81012,-4.5348
-350,-664,3.26105,36.0225,0,0,0,0,0,0,0,-1,874,1688,3.26104,-36.0224
-343,-664,5.2652,32.889,0,0,0,0,0,0,0,-1,881,1688,5.26517,-32.889
-336,-664,6.70184,40.4547,0,0,0,0,0,0,0,-1,888,1688,6.70183,-40.4547
-329,-664,5.24683,41.2126,0,0,0,0,0,0,0,-1,895,1688,5.24684,-41.2127
-322,-664,5.54651,43.0846,0,0,0,0,0,0,0,-1,902,1688,5.5465,-43.0846
-315,-664,6.55719,43.3103,0,0,0,0,0,0,0,-1,909,1688,6.55721,-43.3102
-308,-664,5.49396,44.4377,0,0,0,0,0,0,0,-1,916,1688,5.49396,-44.4377
-301,-664,5.61957,44.9222,0,0,0,0,0,0,0,-1,923,1688,5.61955,-44.9223
-294,-664,6.36774,45.0438,0,0,0,0,0,0,0,-1,930,1688,6.36777,-45.0438
-287,-664,5.72626,46.1541,-0.00574064,-0.00332999,0.00295647,-0.00134259,-0.00772804,0.978958,0.00476793,0.0288339,937,1688,5.72625,-46.1541
-280,-664,5.60059,46.8573,-0.00605156,-0.00223757,0.00226893,-0.00118067,-0.00710846,1.13487,0.00439856,0.0173663,944,1688,5.60056,-46.8574
-273,-664,5.51581,47.5294,-0.00559038,-0.00177678,0.00177863,-0.00107601,-0.00629115,1.19548,0.00388542,0.0147043,951,1688,5.51581,-47.5294
-266,-664,5.48529,48.166,-0.0046654,-0.00131978,0.00133839,-0.000850259,-0.00513492,1.2334,0.003178,0.0218069,958,1688,5.48527,-48.166
-259,-664,5.47498,48.8015,-0.0037685,-0.000954806,0.00105887,-0.000600849,-0.00412246,1.2482,0.00257153,0.0188705,965,1688,5.47497,-48.8016
-252,-664,5.44824,49.4512,-0.00298181,-0.000594403,0.000944418,-0.000265986,-0.00331023,1.23613,0.00212372,0.0164098,972,1688,5.44825,-49.4511
-245,-664,5.38171,50.109,-0.00213927,-0.00040739,0.000896194,-2.71297e-05,-0.00251953,1.16951,0.00167072,0.0207007,979,1688,5.3817,-50.1091
-238,-664,5.40546,50.7484,-0.00136144,-0.00038223,0.000681426,-3.27546e-05,-0.00171091,1.09691,0.00112985,0.0250787,986,1688,5.40548,-50.7484
-231,-664,5.37073,51.3495,-0.000523311,-0.00050753,0.000699549,0.000184173,-0.00121501,0.791037,0.000877864,0.0211557,993,1688,5.37075,-51.3495
-224,-664,5.31378,51.9628,0.000392065,-0.000174012,0.000861824,0.00101614,-0.000798085,0.626738,0.00104996,0.014317,1000,1688,5.31377,-51.9627
-217,-664,5.27747,52.5427,0.000915164,-0.000459591,0.000798339,0.00128127,-0.000825699,0.429972,0.0012259,0.0115099,1007,1688,5.27746,-52.5427
-210,-664,5.27252,53.103,0.00133282,-0.000738236,0.000633895,0.00151144,-0.00091685,0.274651,0.00141591,0.0123142,1014,1688,5.27255,-53.103
-203,-664,5.25317,53.693,0.00183039,-0.00102222,0.000432245,0.00189445,-0.00108628,0.147127,0.00174188,0.0145374,1021,1688,5.25316,-53.693
-196,-664,5.23901,54.2461,0.00230485,-0.00115446,0.000313879,0.0023331,-0.00118271,0.089758,0.00206575,0.015082,1028,1688,5.23902,-54.2461
-189,-664,5.2334,54.7997,0.00267745,-0.00106875,0.000134483,0.00268227,-0.00107357,0.035837,0.00223375,0.0105107,1035,1688,5.23343,-54.7997
-182,-664,5.23877,55.3451,0.00304478,-0.000690191,-4.75372e-05,0.00304538,-0.000690795,-0.0127249,0.00229543,0.0101328,1042,1688,5.23882,-55.3451
-175,-664,5.2395,55.8466,0.00354912,-0.000108924,-3.26169e-05,0.00354941,-0.000109215,-0.00891553,0.0024035,0.0134424,1049,1688,5.23952,-55.8466
-168,-664,5.2356,56.3591,0.00394876,0.000692395,-2.84809e-05,0.00394901,0.000692146,-0.00874533,0.00243497,0.0154672,1056,1688,5.23559,-56.3591
-161,-664,5.21912,56.8744,0.00441468,0.00179316,2.97474e-05,0.00441502,0.00179282,0.0113454,0.00256396,0.0122817,1063,1688,5.2191,-56.8744
-154,-664,5.28967,57.3695,0.00495854,0.00316876,0.000170631,0.00497466,0.00315264,0.0942057,0.00290617,0.0121367,1070,1688,5.28973,-57.3696
-147,-664,5.29688,57.8676,0.00552855,0.00483253,0.000340747,0.00566759,0.00469349,0.387425,0.00349918,0.0159868,1077,1688,5.2969,-57.8676
-140,-664,5.32849,58.392,0.00610396,0.00656779,0.000454252,0.0068459,0.00582585,1.02142,0.00426478,0.0178866,1084,1688,5.32846,-58.392
-133,-664,5.29529,58.9009,0.00677064,0.0087002,0.000736709,0.00894932,0.00652152,1.24472,0.00534405,0.0210919,1091,1688,5.29531,-58.9008
-126,-664,5.43372,59.5309,0.00755961,0.0109713,0.0010257,0.0112559,0.00727498,1.30011,0.0065907,0.0427262,1098,1688,5.43374,-59.5309
-119,-664,5.63184,60.2466,0,0,0,0,0,0,0,-1,1105,1688,5.63184,-60.2466
-112,-664,6.3916,51.1235,0,0,0,0,0,0,0,-1,1112,1688,6.39161,-51.1236
-105,-664,6.87256,43.2527,0,0,0,0,0,0,0,-1,1119,1688,6.87258,-43.2527
-98,-664,7.69324,41.3359,0,0,0,0,0,0,0,-1,1126,1688,7.69321,-41.3359
-91,-664,5.41931,25.6302,0,0,0,0,0,0,0,-1,1133,1688,5.41932,-25.6302
-84,-664,3.48389,16.6913,0,0,0,0,0,0,0,-1,1140,1688,3.4839,-16.6913
-77,-664,4.52014,11.2122,0,0,0,0,0,0,0,-1,1147,1688,4.5202,-11.2122
-70,-664,4.20374,8.24524,0,0,0,0,0,0,0,-1,1154,1688,4.20379,-8.24519
-63,-664,-4.677,2.40503,0,0,0,0,0,0,0,-1,1161,1688,-4.67702,-2.40498
-56,-664,-4.66504,3.32727,0,0,0,0,0,0,0,-1,1168,1688,-4.6651,-3.32724
-49,-664,-2.54297,3.31848,0,0,0,0,0,0,0,-1,1175,1688,-2.54297,-3.31852
-42,-664,-0.359253,4.38684,0,0,0,0,0,0,0,-1,1182,1688,-0.359261,-4.38685
-35,-664,-0.705566,3.55017,0,0,0,0,0,0,0,-1,1189,1688,-0.705567,-3.55023
-28,-664,-1.54236,10.2538,0,0,0,0,0,0,0,-1,1196,1688,-1.54236,-10.2538
-21,-664,4.48865,64.375,0,0,0,0,0,0,0,-1,1203,1688,4.48862,-64.375
-14,-664,5.104,64.7201,0,0,0,0,0,0,0,-1,1210,1688,5.10404,-64.72
-7,-664,5.50598,65.5591,0,0,0,0,0,0,0,-1,1217,1688,5.50602,-65.5591
0,-664,5.71875,65.6431,0.0103336,0.0649621,-0.0227244,0.0731791,0.0021166,-1.22383,0.048096,0.0474613,1224,1688,5.71872,-65.6431
7,-664,5.87585,65.7045,0.00908953,0.0620092,-0.0209175,0.0692787,0.0018201,-1.23632,0.0455912,0.0468932,1231,1688,5.87587,-65.7044
14,-664,5.98425,65.7682,0.0113482,0.0588966,-0.0149023,0.0631811,0.00706369,-1.29084,0.0399747,0.0482987,1238,1688,5.98431,-65.7682
21,-664,6.09839,65.8064,0,0,0,0,0,0,0,-1,1245,1688,6.09838,-65.8064
28,-664,4.54871,64.2959,0,0,0,0,0,0,0,-1,1252,1688,4.54868,-64.2959
35,-664,2.72095,60.5985,0,0,0,0,0,0,0,-1,1259,1688,2.72092,-60.5985
42,-664,3.26758,60.938,0,0,0,0,0,0,0,-1,1266,1688,3.2676,-60.938
49,-664,3.59595,61.3978,0.0444056,0.0344477,0.0232595,0.0632131,0.0156402,0.67996,0.0380166,0.0440169,1273,1688,3.59593,-61.3979
56,-664,3.97681,61.9841,0.048094,0.0295324,0.027418,0.0677593,0.00986708,0.622205,0.0422695,0.0447104,1280,1688,3.97681,-61.9842
63,-664,4.84802,62.8131,0.0523944,0.0239044,0.0303681,0.0716926,0.00460628,0.566096,0.046336,0.0468127,1287,1688,4.84806,-62.8131
70,-664,5.96191,63.4576,0.0567661,0.0167386,0.0319912,0.0744881,-0.000983421,0.505883,0.0499898,0.0441131,1294,1688,5.96194,-63.4576
77,-664,6.401,63.9265,0.0587549,0.010184,0.0327978,0.0752797,-0.00634078,0.466714,0.0524281,0.0445026,1301,1688,6.40096,-63.9266
84,-664,7.20764,63.7771,0.0584301,0.00443358,0.0257703,0.068755,-0.00589128,0.381066,0.0479213,0.047217,1308,1688,7.20762,-63.7771
91,-664,8.02979,63.6409,0,0,0,0,0,0,0,-1,1315,1688,8.02984,-63.6408
98,-664,10.5509,64.6274,0,0,0,0,0,0,0,-1,1322,1688,10.5509,-64.6275
105,-664,10.2606,64.1974,0,0,0,0,0,0,0,-1,1329,1688,10.2607,-64.1973
112,-664,10.0264,63.9381,0,0,0,0,0,0,0,-1,1336,1688,10.0264,-63.9381
119,-664,7.82214,62.4943,0,0,0,0,0,0,0,-1,1343,1688,7.82209,-62.4943
126,-664,7.84985,61.4564,0,0,0,0,0,0,0,-1,1350,1688,7.84981,-61.4564
133,-664,16.6097,64.0516,0,0,0,0,0,0,0,-1,1357,1688,16.6098,-64.0517
140,-664,17.874,63.9105,0.0973146,0.00316224,-0.066822,0.131978,-0.0315011,-0.478528,0.100151,0.0449255,1364,1688,17.8741,-63.9105
147,-664,19.1464,63.6387,0.103825,0.00676345,-0.0715258,0.14173,-0.0311417,-0.48732,0.106398,0.048302,1371,1688,19.1464,-63.6387
154,-664,20.1138,63.4268,0,0,0,0,0,0,0,-1,1378,1688,20.1137,-63.4268
161,-664,4.60132,1.56238,0,0,0,0,0,0,0,-1,1385,1688,4.60134,-1.56233
168,-664,5.172,1.25488,0,0,0,0,0,0,0,-1,1392,1688,5.17203,-1.25484
175,-664,5.58313,1.16467,0,0,0,0,0,0,0,-1,1399,1688,5.58317,-1.16466
182,-664,5.74268,1.41113,0,0,0,0,0,0,0,-1,1406,1688,5.74263,-1.41115
189,-664,5.87744,1.87061,0,0,0,0,0,0,0,-1,1413,1688,5.87745,-1.87065
196,-664,6.7594,5.97473,0,0,0,0,0,0,0,-1,1420,1688,6.75943,-5.97478
203,-664,5.38452,5.22034,0,0,0,0,0,0,0,-1,1427,1688,5.38453,-5.2203
210,-664,5.25549,6.45715,0,0,0,0,0,0,0,-1,1434,1688,5.25549,-6.45721
217,-664,5.72009,6.73975,0,0,0,0,0,0,0,-1,1441,1688,5.72014,-6.73972
224,-664,5.05725,7.42908,0,0,0,0,0,0,0,-1,1448,1688,5.05723,-7.42912
231,-664,5.13318,7.60864,0,0,0,0,0,0,0,-1,1455,1688,5.13313,-7.60862
238,-664,4.23193,6.45471,0,0,0,0,0,0,0,-1,1462,1688,4.23197,-6.45476
245,-664,4.42004,6.80896,0,0,0,0,0,0,0,-1,1469,1688,4.4201,-6.80901
252,-664,3.67346,6.85461,0,0,0,0,0,0,0,-1,1476,1688,3.6734,-6.85462
259,-664,4.55823,11.7435,0,0,0,0,0,0,0,-1,1483,1688,4.55826,-11.7435
266,-664,12.2485,57.8596,0,0,0,0,0,0,0,-1,1490,1688,12.2485,-57.8597
273,-664,12.4939,57.5558,0,0,0,0,0,0,0,-1,1497,1688,12.4939,-57.5558
280,-664,12.4613,57.1409,0.0101836,0.00263311,-0.00109491,0.0103392,0.00247754,-0.141139,0.00623327,0.0401271,1504,1688,12.4614,-57.1408
287,-664,12.42,56.6589,0.00920441,0.00299468,-0.00108737,0.00938931,0.00280978,-0.168433,0.00556465,0.0348753,1511,1688,12.42,-56.659
294,-664,12.5699,56.1974,0.0082206,0.00308066,-0.00103569,0.00842144,0.00287982,-0.191543,0.00494242,0.0239138,1518,1688,12.57,-56.1974
301,-664,12.6276,55.6763,0.00708559,0.0032701,-0.000939036,0.00730417,0.00305152,-0.228704,0.00423603,0.0150861,1525,1688,12.6275,-55.6762
308,-664,12.6536,55.1292,0.00598823,0.00343237,-0.000922578,0.00628645,0.00313415,-0.312648,0.00362949,0.0129345,1532,1688,12.6536,-55.1291
315,-664,12.6493,54.5789,0.00492865,0.00355798,-0.000958857,0.00542191,0.00306472,-0.475122,0.00313921,0.0127248,1539,1688,12.6494,-54.5788
322,-664,12.6678,54.0529,0.00399202,0.00385362,-0.0011507,0.00507559,0.00277004,-0.755366,0.00293448,0.0156302,1546,1688,12.6678,-54.0529
329,-664,12.666,53.5376,0.00320791,0.00398537,-0.00140001,0.00504961,0.00214367,-0.920819,0.00292645,0.0186857,1553,1688,12.666,-53.5376
336,-664,12.6367,52.9565,0.00256143,0.00408824,-0.0015891,0.00508779,0.00156188,-1.00932,0.00300951,0.0152869,1560,1688,12.6367,-52.9565
343,-664,12.6251,52.3958,0.00191372,0.00411963,-0.0017914,0.00512039,0.000912962,-1.06134,0.00315363,0.0120749,1567,1688,12.6251,-52.3958
350,-664,12.6118,51.8225,0.00144032,0.0040502,-0.00210307,0.00522029,0.000270236,-1.06307,0.0033937,0.0145134,1574,1688,12.6119,-51.8225
357,-664,12.5859,51.1947,0.00118295,0.00369346,-0.00244102,0.00518306,-0.000306651,-1.02288,0.00356199,0.0135126,1581,1688,12.5859,-51.1947
364,-664,12.5648,50.6036,0.00101205,0.00336248,-0.00271178,0.00514275,-0.000768216,-0.989869,0.00371117,0.0112118,1588,1688,12.5649,-50.6037
371,-664,12.5458,50.0497,0.000935037,0.00293834,-0.00295395,0.00505584,-0.00118247,-0.948859,0.00382612,0.0139883,1595,1688,12.5458,-50.0497
378,-664,12.5062,49.447,0.000936939,0.00242133,-0.00316537,0.00493035,-0.00157208,-0.900554,0.00391752,0.0138945,1602,1688,12.5063,-49.447
385,-664,12.4497,48.8079,0.00112261,0.00195285,-0.00346782,0.00503031,-0.00195485,-0.844968,0.00416114,0.015016,1609,1688,12.4497,-48.8078
392,-664,12.3719,48.2271,0.00154117,0.00164659,-0.00404621,0.00564044,-0.00245267,-0.791911,0.00479186,0.0183287,1616,1688,12.3719,-48.2271
399,-664,12.3855,47.5903,0.00180581,0.00120431,-0.00440563,0.00592094,-0.00291082,-0.751319,0.0051968,0.0153926,1623,1688,12.3855,-47.5903
406,-664,12.3889,46.9261,0.00216713,0.000974318,-0.0048409,0.00644822,-0.00330678,-0.724106,0.00572857,0.0140027,1630,1688,12.3889,-46.9262
413,-664,12.3699,46.2498,0.00274102,0.0010844,-0.00541368,0.00738939,-0.00356397,-0.709485,0.0064512,0.0161577,1637,1688,12.3698,-46.2497
420,-664,12.3864,45.5498,0.00357333,0.00121429,-0.00614073,0.00864679,-0.00385917,-0.690513,0.00739458,0.0372567,1644,1688,12.3864,-45.5498
427,-664,12.3193,44.6561,0,0,0,0,0,0,0,-1,1651,1688,12.3193,-44.6561
434,-664,12.3247,43.8264,0,0,0,0,0,0,0,-1,1658,1688,12.3247,-43.8264
441,-664,12.5007,42.866,0,0,0,0,0,0,0,-1,1665,1688,12.5007,-42.8659
448,-664,12.5538,38.7155,0,0,0,0,0,0,0,-1,1672,1688,12.5539,-38.7154
455,-664,12.1709,39.3733,0,0,0,0,0,0,0,-1,1679,1688,12.1708,-39.3733
462,-664,4.3147,4.25439,0,0,0,0,0,0,0,-1,1686,1688,4.31467,-4.25435
469,-664,6.05469,7.49341,0,0,0,0,0,0,0,-1,1693,1688,6.05474,-7.49339
476,-664,10.2377,22.7128,0,0,0,0,0,0,0,-1,1700,1688,10.2377,-22.7128
483,-664,8.41895,10.9768,0,0,0,0,0,0,0,-1,1707,1688,8.41897,-10.9769
490,-664,3.90771,13.2842,0,0,0,0,0,0,0,-1,1714,1688,3.90776,-13.2841
497,-664,0,0,0,0,0,0,0,0,0,-1,1721,1688,0,0
504,-664,0,0,0,0,0,0,0,0,0,-1,1728,1688,0,0
511,-664,0,0,0,0,0,0,0,0,0,-1,1735,1688,0,0
518,-664,0,0,0,0,0,0,0,0,0,-1,1742,1688,0,0
525,-664,0,0,0,0,0,0,0,0,0,-1,1749,1688,0,0
532,-664,0,0,0,0,0,0,0,0,0,-1,1756,1688,0,0
539,-664,0,0,0,0,0,0,0,0,0,-1,1763,1688,0,0
546,-664,0,0,0,0,0,0,0,0,0,-1,1770,1688,0,0
553,-664,0,0,0,0,0,0,0,0,0,-1,1777,1688,0,0
560,-664,0,0,0,0,0,0,0,0,0,-1,1784,1688,0,0
567,-664,0,0,0,0,0,0,0,0,0,-1,1791,1688,0,0
574,-664,0,0,0,0,0,0,0,0,0,-1,1798,1688,0,0
581,-664,0,0,0,0,0,0,0,0,0,-1,1805,1688,0,0
588,-664,0,0,0,0,0,0,0,0,0,-1,1812,1688,0,0
595,-664,0,0,0,0,0,0,0,0,0,-1,1819,1688,0,0
602,-664,0,0,0,0,0,0,0,0,0,-1,1826,1688,0,0
609,-664,0,0,0,0,0,0,0,0,0,-1,1833,1688,0,0
616,-664,0,0,0,0,0,0,0,0,0,-1,1840,1688,0,0
623,-664,0,0,0,0,0,0,0,0,0,-1,1847,1688,0,0
630,-664,0,0,0,0,0,0,0,0,0,-1,1854,1688,0,0
637,-664,0,0,0,0,0,0,0,0,0,-1,1861,1688,0,0
644,-664,0,0,0,0,0,0,0,0,0,-1,1868,1688,0,0
651,-664,0,0,0,0,0,0,0,0,0,-1,1875,1688,0,0
658,-664,0,0,0,0,0,0,0,0,0,-1,1882,1688,0,0
665,-664,0,0,0,0,0,0,0,0,0,-1,1889,1688,0,0
672,-664,0,0,0,0,0,0,0,0,0,-1,1896,1688,0,0
679,-664,0,0,0,0,0,0,0,0,0,-1,1903,1688,0,0
686,-664,0,0,0,0,0,0,0,0,0,-1,1910,1688,0,0
693,-664,0,0,0,0,0,0,0,0,0,-1,1917,1688,0,0
700,-664,0,0,0,0,0,0,0,0,0,-1,1924,1688,0,0
707,-664,0,0,0,0,0,0,0,0,0,-1,1931,1688,0,0
714,-664,0,0,0,0,0,0,0,0,0,-1,1938,1688,0,0
721,-664,0,0,0,0,0,0,0,0,0,-1,1945,1688,0,0
728,-664,0,0,0,0,0,0,0,0,0,-1,1952,1688,0,0
735,-664,0,0,0,0,0,0,0,0,0,-1,1959,1688,0,0
742,-664,0,0,0,0,0,0,0,0,0,-1,1966,1688,0,0
749,-664,0,0,0,0,0,0,0,0,0,-1,1973,1688,0,0
756,-664,0,0,0,0,0,0,0,0,0,-1,1980,1688,0,0
763,-664,0,0,0,0,0,0,0,0,0,-1,1987,1688,0,0
770,-664,0,0,0,0,0,0,0,0,0,-1,1994,1688,0,0
777,-664,0,0,0,0,0,0,0,0,0,-1,2001,1688,0,0
784,-664,0,0,0,0,0,0,0,0,0,-1,2008,1688,0,0
791,-664,0,0,0,0,0,0,0,0,0,-1,2015,1688,0,0
798,-664,0,0,0,0,0,0,0,0,0,-1,2022,1688,0,0
805,-664,0,0,0,0,0,0,0,0,0,-1,2029,1688,0,0
812,-664,0,0,0,0,0,0,0,0,0,-1,2036,1688,0,0
-700,-671,0,0,0,0,0,0,0,0,0,-1,524,1695,0,0
-693,-671,0,0,0,0,0,0,0,0,0,-1,531,1695,0,0
-686,-671,0,0,0,0,0,0,0,0,0,-1,538,1695,0,0
-679,-671,0,0,0,0,0,0,0,0,0,-1,545,1695,0,0
-672,-671,0,0,0,0,0,0,0,0,0,-1,552,1695,0,0
-665,-671,0,0,0,0,0,0,0,0,0,-1,559,1695,0,0
-658,-671,0,0,0,0,0,0,0,0,0,-1,566,1695,0,0
-651,-671,0,0,0,0,0,0,0,0,0,-1,573,1695,0,0
-644,-671,0,0,0,0,0,0,0,0,0,-1,580,1695,0,0
-637,-671,0,0,0,0,0,0,0,0,0,-1,587,1695,0,0
-630,-671,0,0,0,0,0,0,0,0,0,-1,594,1695,0,0
-623,-671,0,0,0,0,0,0,0,0,0,-1,601,1695,0,0
-616,-671,0,0,0,0,0,0,0,0,0,-1,608,1695,0,0
-609,-671,0,0,0,0,0,0,0,0,0,-1,615,1695,0,0
-602,-671,0,0,0,0,0,0,0,0,0,-1,622,1695,0,0
-595,-671,0,0,0,0,0,0,0,0,0,-1,629,1695,0,0
-588,-671,0,0,0,0,0,0,0,0,0,-1,636,1695,0,0
-581,-671,0,0,0,0,0,0,0,0,0,-1,643,1695,0,0
-574,-671,0,0,0,0,0,0,0,0,0,-1,650,1695,0,0
-567,-671,0,0,0,0,0,0,0,0,0,-1,657,1695,0,0
-560,-671,0,0,0,0,0,0,0,0,0,-1,664,1695,0,0
-553,-671,0,0,0,0,0,0,0,0,0,-1,671,1695,0,0
-546,-671,0,0,0,0,0,0,0,0,0,-1,678,1695,0,0
-539,-671,0,0,0,0,0,0,0,0,0,-1,685,1695,0,0
-532,-671,0,0,0,0,0,0,0,0,0,-1,692,1695,0,0
-525,-671,0,0,0,0,0,0,0,0,0,-1,699,1695,0,0
-518,-671,0,0,0,0,0,0,0,0,0,-1,706,1695,0,0
-511,-671,0,0,0,0,0,0,0,0,0,-1,713,1695,0,0
-504,-671,0,0,0,0,0,0,0,0,0,-1,720,1695,0,0
-497,-671,0,0,0,0,0,0,0,0,0,-1,727,1695,0,0
-490,-671,0,0,0,0,0,0,0,0,0,-1,734,1695,0,0
-483,-671,0,0,0,0,0,0,0,0,0,-1,741,1695,0,0
-476,-671,0,0,0,0,0,0,0,0,0,-1,748,1695,0,0
-469,-671,0,0,0,0,0,0,0,0,0,-1,755,1695,0,0
-462,-671,0,0,0,0,0,0,0,0,0,-1,762,1695,0,0
-455,-671,0,0,0,0,0,0,0,0,0,-1,769,1695,0,0
-448,-671,0,0,0,0,0,0,0,0,0,-1,776,1695,0,0
-441,-671,0,0,0,0,0,0,0,0,0,-1,783,1695,0,0
-434,-671,0,0,0,0,0,0,0,0,0,-1,790,1695,0,0
-427,-671,0,0,0,0,0,0,0,0,0,-1,797,1695,0,0
-420,-671,0,0,0,0,0,0,0,0,0,-1,804,1695,0,0
-413,-671,0,0,0,0,0,0,0,0,0,-1,811,1695,0,0
-406,-671,0,0,0,0,0,0,0,0,0,-1,818,1695,0,0
-399,-671,0,0,0,0,0,0,0,0,0,-1,825,1695,0,0
-392,-671,0,0,0,0,0,0,0,0,0,-1,832,1695,0,0
-385,-671,0,0,0,0,0,0,0,0,0,-1,839,1695,0,0
-378,-671,0,0,0,0,0,0,0,0,0,-1,846,1695,0,0
-371,-671,0,0,0,0,0,0,0,0,0,-1,853,1695,0,0
-364,-671,-4.18738,7.51416,0,0,0,0,0,0,0,-1,860,1695,-4.18739,-7.51419
-357,-671,-5.02393,6.07129,0,0,0,0,0,0,0,-1,867,1695,-5.0239,-6.07135
-350,-671,6.93323,33.8943,0,0,0,0,0,0,0,-1,874,1695,6.93325,-33.8943
-343,-671,6.16626,32.3158,0,0,0,0,0,0,0,-1,881,1695,6.16623,-32.3158
-336,-671,5.67371,33.653,0,0,0,0,0,0,0,-1,888,1695,5.67369,-33.653
-329,-671,7.40582,41.647,0,0,0,0,0,0,0,-1,895,1695,7.40582,-41.647
-322,-671,5.43414,41.9868,0,0,0,0,0,0,0,-1,902,1695,5.43416,-41.9868
-315,-671,5.61542,41.6686,0,0,0,0,0,0,0,-1,909,1695,5.61542,-41.6685
-308,-671,5.47827,42.7732,0,0,0,0,0,0,0,-1,916,1695,5.47828,-42.7731
-301,-671,6.89185,44.2671,0,0,0,0,0,0,0,-1,923,1695,6.89185,-44.2671
-294,-671,6.84247,45.105,-0.00802116,-0.00547748,0.00451697,-0.00205671,-0.0114419,0.922629,0.0070432,0.0478692,930,1695,6.84244,-45.105
-287,-671,6.60693,46.0499,-0.00814993,-0.00415209,0.00324646,-0.00233851,-0.00996351,1.06135,0.00601629,0.0423184,937,1695,6.60694,-46.05
-280,-671,6.23236,46.903,-0.00842419,-0.00287801,0.00234601,-0.00201878,-0.00928342,1.21972,0.00563782,0.0350998,944,1695,6.23238,-46.9029
-273,-671,6.15662,47.5527,-0.00777359,-0.00237228,0.00175738,-0.00185083,-0.00829504,1.28235,0.00502794,0.0315341,951,1695,6.15659,-47.5527
-266,-671,6.12,48.1959,-0.00660741,-0.0018905,0.0012504,-0.00157954,-0.00691838,1.32705,0.00418628,0.0236262,958,1695,6.12002,-48.1959
-259,-671,6.06805,48.8218,-0.00552054,-0.00151489,0.000959291,-0.00129701,-0.00573843,1.34746,0.00347493,0.0220764,965,1695,6.06803,-48.8217
-252,-671,6.03619,49.4774,-0.00460141,-0.00117945,0.000883668,-0.000964731,-0.00481613,1.33243,0.00294237,0.0175915,972,1695,6.03617,-49.4774
-245,-671,5.97925,50.0923,-0.00367016,-0.0009869,0.00087235,-0.000728227,-0.00392883,1.28253,0.00241338,0.0203361,979,1695,5.97923,-50.0923
-238,-671,5.98621,50.7225,-0.0028286,-0.000902797,0.000653403,-0.000702034,-0.00302937,1.2727,0.00183099,0.0211905,986,1695,5.98623,-50.7225
-231,-671,5.96265,51.3611,-0.00187613,-0.000902117,0.000750081,-0.00049481,-0.00228344,1.07333,0.00138709,0.0162877,993,1695,5.96263,-51.3611
-224,-671,5.90222,51.9528,-0.00078521,-0.000326156,0.00106468,0.000533459,-0.00164483,0.891565,0.00131106,0.0124878,1000,1695,5.90223,-51.9528
-217,-671,5.85852,52.5319,-0.000215786,-0.000557658,0.00108538,0.000712036,-0.00148548,0.707295,0.00129467,0.0122709,1007,1695,5.85853,-52.5318
-210,-671,5.83783,53.1433,0.000199402,-0.000680214,0.000992046,0.00084476,-0.00132557,0.57675,0.00126325,0.011655,1014,1695,5.83785,-53.1433
-203,-671,5.79858,53.7153,0.000726367,-0.000776959,0.000834125,0.00109754,-0.00114813,0.418676,0.00129665,0.0186335,1021,1695,5.79856,-53.7153
-196,-671,5.78064,54.2759,0.00121634,-0.000783595,0.000717864,0.00144733,-0.00101459,0.311316,0.00142869,0.0162397,1028,1695,5.78059,-54.2759
-189,-671,5.79138,54.8704,0.00161484,-0.000578003,0.000556701,0.00174807,-0.000711238,0.234912,0.00146134,0.0118761,1035,1695,5.79142,-54.8703
-182,-671,5.77002,55.3866,0.00202102,-0.00019607,0.000393314,0.00208873,-0.000263777,0.170473,0.00148823,0.00990958,1042,1695,5.77005,-55.3866
-175,-671,5.76733,55.8848,0.00258196,0.000305016,0.000352193,0.00263519,0.000251784,0.150009,0.00167917,0.0137134,1049,1695,5.76732,-55.8847
-168,-671,5.76135,56.377,0.00296762,0.000956579,0.000272423,0.00300387,0.000920329,0.132288,0.0017771,0.0153372,1056,1695,5.76139,-56.3769
-161,-671,5.7522,56.8854,0.0033664,0.00175978,0.00025201,0.003405,0.00172118,0.151996,0.00196592,0.0109397,1063,1695,5.7522,-56.8854
-154,-671,5.78052,57.4025,0.00386909,0.00271155,0.000264195,0.00392654,0.0026541,0.214112,0.0023133,0.00948913,1070,1695,5.78047,-57.4025
-147,-671,5.78979,57.9139,0.00443848,0.00382954,0.000266139,0.0045384,0.00372961,0.35916,0.00279528,0.0106636,1077,1695,5.78985,-57.914
-140,-671,5.83472,58.3665,0.00503282,0.00489866,0.000224457,0.0052,0.00473147,0.640195,0.00332153,0.0135584,1084,1695,5.83466,-58.3665
-133,-671,5.8479,58.7983,0.00567034,0.00616251,0.000291995,0.00629829,0.00553456,1.13554,0.00396885,0.0202788,1091,1695,5.84784,-58.7983
-126,-671,5.90271,59.4138,0.00638589,0.0074026,0.000344133,0.00750813,0.00628036,1.27325,0.0046505,0.0380333,1098,1695,5.90276,-59.4138
-119,-671,5.98608,60.1863,0,0,0,0,0,0,0,-1,1105,1695,5.98614,-60.1862
-112,-671,6.58704,44.6255,0,0,0,0,0,0,0,-1,1112,1695,6.58701,-44.6255
-105,-671,7.33252,41.3418,0,0,0,0,0,0,0,-1,1119,1695,7.33247,-41.3418
-98,-671,6.34534,45.6299,0,0,0,0,0,0,0,-1,1126,1695,6.34533,-45.6299
-91,-671,6.40063,38.2443,0,0,0,0,0,0,0,-1,1133,1695,6.40059,-38.2442
-84,-671,5.4209,26.2415,0,0,0,0,0,0,0,-1,1140,1695,5.42096,-26.2414
-77,-671,4.31763,16.489,0,0,0,0,0,0,0,-1,1147,1695,4.31757,-16.489
-70,-671,3.06067,10.7737,0,0,0,0,0,0,0,-1,1154,1695,3.0607,-10.7737
-63,-671,2.94592,6.90198,0,0,0,0,0,0,0,-1,1161,1695,2.94594,-6.90198
-56,-671,-3.07678,2.87976,0,0,0,0,0,0,0,-1,1168,1695,-3.07675,-2.87979
-49,-671,-1.05957,4.76917,0,0,0,0,0,0,0,-1,1175,1695,-1.05958,-4.76921
-42,-671,0.539307,3.7865,0,0,0,0,0,0,0,-1,1182,1695,0.539266,-3.78648
-35,-671,-0.272461,0.347534,0,0,0,0,0,0,0,-1,1189,1695,-0.272434,-0.347569
-28,-671,-10.4878,17.2009,0,0,0,0,0,0,0,-1,1196,1695,-10.4878,-17.2009
-21,-671,6.75427,63.8397,0,0,0,0,0,0,0,-1,1203,1695,6.75428,-63.8397
-14,-671,7.13684,63.7346,0,0,0,0,0,0,0,-1,1210,1695,7.13681,-63.7346
-7,-671,5.29089,64.6846,0,0,0,0,0,0,0,-1,1217,1695,5.2909,-64.6846
0,-671,5.70508,65.0227,0.0100357,0.0518123,-0.0189773,0.0591456,0.00270234,-1.20205,0.0385612,0.0490097,1224,1695,5.70507,-65.0227
7,-671,6.33337,65.2239,0.00944697,0.0497791,-0.0170093,0.0559946,0.00323147,-1.22045,0.0363005,0.0466709,1231,1695,6.33339,-65.2239
14,-671,6.67664,65.359,0.0114805,0.0477646,-0.0119005,0.0513195,0.00792563,-1.28052,0.031901,0.0469974,1238,1695,6.67658,-65.359
21,-671,7.06189,65.4929,0,0,0,0,0,0,0,-1,1245,1695,7.06191,-65.4929
28,-671,7.57568,65.7192,0,0,0,0,0,0,0,-1,1252,1695,7.57569,-65.7192
35,-671,8.04175,65.9861,0,0,0,0,0,0,0,-1,1259,1695,8.0417,-65.9861
42,-671,3.10083,60.373,0,0,0,0,0,0,0,-1,1266,1695,3.10086,-60.3731
49,-671,3.42004,61.0839,0,0,0,0,0,0,0,-1,1273,1695,3.42006,-61.0839
56,-671,3.22729,61.6855,0,0,0,0,0,0,0,-1,1280,1695,3.22726,-61.6855
63,-671,4.35938,62.2474,0.0457374,0.0198952,0.0259664,0.0618199,0.00381263,0.554532,0.040003,0.0475211,1287,1695,4.3594,-62.2474
70,-671,5.56519,62.7772,0.0489706,0.0137906,0.0270638,0.0636584,-0.000897218,0.49723,0.0427411,0.0453719,1294,1695,5.56519,-62.7772
77,-671,6.45642,63.756,0.0501832,0.00822807,0.0272532,0.0635974,-0.00518616,0.457394,0.0442285,0.0434089,1301,1695,6.45646,-63.756
84,-671,6.89099,63.8367,0,0,0,0,0,0,0,-1,1308,1695,6.89099,-63.8367
91,-671,10.5117,64.9541,0,0,0,0,0,0,0,-1,1315,1695,10.5117,-64.9541
98,-671,10.2543,64.6338,0.0474833,-0.00350774,0.00180949,0.0475475,-0.00357187,0.035427,0.0329535,0.0463536,1322,1695,10.2543,-64.6338
105,-671,9.98218,64.3442,0.0478161,-0.00625786,-0.00874542,0.0491954,-0.00763708,-0.15642,0.0356166,0.0472769,1329,1695,9.98219,-64.3443
112,-671,9.66907,64.0178,0.0505887,-0.00775954,-0.0198814,0.056719,-0.0138898,-0.299092,0.0431935,0.0452715,1336,1695,9.66913,-64.0179
119,-671,9.37891,63.6672,0,0,0,0,0,0,0,-1,1343,1695,9.37887,-63.6673
126,-671,9.68152,63.5095,0,0,0,0,0,0,0,-1,1350,1695,9.68147,-63.5095
133,-671,9.64526,62.7958,0,0,0,0,0,0,0,-1,1357,1695,9.64528,-62.7957
140,-671,19.3867,63.8755,0,0,0,0,0,0,0,-1,1364,1695,19.3868,-63.8755
147,-671,20.6553,63.8026,0,0,0,0,0,0,0,-1,1371,1695,20.6553,-63.8026
154,-671,5.01501,61.3026,0,0,0,0,0,0,0,-1,1378,1695,5.01499,-61.3026
161,-671,4.49292,4.91272,0,0,0,0,0,0,0,-1,1385,1695,4.49297,-4.91273
168,-671,5.17639,6.1416,0,0,0,0,0,0,0,-1,1392,1695,5.1764,-6.14164
175,-671,5.6731,1.64685,0,0,0,0,0,0,0,-1,1399,1695,5.67313,-1.64691
182,-671,5.56812,1.71692,0,0,0,0,0,0,0,-1,1406,1695,5.56809,-1.71686
189,-671,6.98315,6.36169,0,0,0,0,0,0,0,-1,1413,1695,6.98312,-6.36175
196,-671,5.38123,5.69775,0,0,0,0,0,0,0,-1,1420,1695,5.38125,-5.69769
203,-671,5.95117,8.11658,0,0,0,0,0,0,0,-1,1427,1695,5.9512,-8.11662
210,-671,4.73596,8.39624,0,0,0,0,0,0,0,-1,1434,1695,4.736,-8.39618
217,-671,5.37097,11.863,0,0,0,0,0,0,0,-1,1441,1695,5.37094,-11.863
224,-671,5.08167,13.6694,0,0,0,0,0,0,0,-1,1448,1695,5.08165,-13.6695
231,-671,5.66663,15.3348,0,0,0,0,0,0,0,-1,1455,1695,5.66667,-15.3349
238,-671,6.32959,16.2036,0,0,0,0,0,0,0,-1,1462,1695,6.32961,-16.2037
245,-671,11.9244,57.5367,0,0,0,0,0,0,0,-1,1469,1695,11.9245,-57.5367
252,-671,11.9508,59.2114,0,0,0,0,0,0,0,-1,1476,1695,11.9508,-59.2114
259,-671,11.8424,58.5048,0,0,0,0,0,0,0,-1,1483,1695,11.8424,-58.5047
266,-671,11.9735,58.1357,0.00892519,0.000722061,-0.000825098,0.00900736,0.000639893,-0.0992586,0.00580338,0.0359872,1490,1695,11.9735,-58.1358
273,-671,12.0594,57.6746,0.00849464,0.00101371,-0.000851697,0.00859038,0.000917973,-0.111941,0.00544678,0.0119039,1497,1695,12.0594,-57.6745
280,-671,12.0748,57.2018,0.00776194,0.00146043,-0.000915315,0.0078922,0.00133017,-0.141362,0.0048789,0.0110078,1504,1695,12.0749,-57.2018
287,-671,12.0662,56.6515,0.00693713,0.00182799,-0.000952994,0.0071091,0.00165602,-0.178532,0.00429516,0.0132672,1511,1695,12.0662,-56.6515
294,-671,12.0587,56.1289,0.00609473,0.00201563,-0.000940088,0.00630096,0.0018094,-0.215953,0.00374611,0.0125267,1518,1695,12.0587,-56.1289
301,-671,12.0757,55.6517,0.00514759,0.00227864,-0.000924211,0.00541954,0.00200669,-0.286174,0.00316388,0.0109756,1525,1695,12.0757,-55.6517
308,-671,12.0944,55.1362,0.00423917,0.00256522,-0.00102156,0.00472284,0.00208155,-0.442195,0.00273311,0.0124052,1532,1695,12.0943,-55.1362
315,-671,12.111,54.6139,0.00336844,0.00293441,-0.00117487,0.00434617,0.00195669,-0.69407,0.00251341,0.013948,1539,1695,12.111,-54.6139
322,-671,12.1089,54.1257,0.00258393,0.003321,-0.00136333,0.00436473,0.0015402,-0.917402,0.00255608,0.0155593,1546,1695,12.1088,-54.1258
329,-671,12.0687,53.6033,0.00192638,0.00361755,-0.00163686,0.00461433,0.000929593,-1.02381,0.00281794,0.0148387,1553,1695,12.0687,-53.6033
336,-671,12.0543,53.0009,0.00140222,0.00388524,-0.00188934,0.00490447,0.000382993,-1.07608,0.00314975,0.0116199,1560,1695,12.0544,-53.0009
343,-671,12.0706,52.3923,0.000918886,0.00405706,-0.0021887,0.00518101,-0.00020506,-1.09639,0.00352435,0.0124666,1567,1695,12.0706,-52.3924
350,-671,12.0419,51.8656,0.000607567,0.0041288,-0.00261073,0.0055171,-0.000780734,-1.08206,0.00396402,0.0139976,1574,1695,12.0418,-51.8656
357,-671,11.988,51.2284,0.000500078,0.00398636,-0.00305739,0.00576262,-0.00127618,-1.04449,0.00433028,0.0125438,1581,1695,11.9881,-51.2284
364,-671,11.9626,50.625,0.000444845,0.00374786,-0.00342906,0.00590239,-0.00170968,-1.00982,0.0046117,0.0125449,1588,1695,11.9627,-50.625
371,-671,11.9232,50.069,0.000502097,0.00341711,-0.00380845,0.00603743,-0.00211822,-0.968152,0.00488653,0.0140797,1595,1695,11.9232,-50.069
378,-671,11.9135,49.4604,0.000669768,0.00295671,-0.00416861,0.00613583,-0.00250935,-0.919258,0.00513559,0.012466,1602,1695,11.9135,-49.4604
385,-671,11.8689,48.8339,0.00104383,0.00258709,-0.00466037,0.00653928,-0.00290835,-0.86744,0.00558726,0.0149922,1609,1695,11.8689,-48.8339
392,-671,11.7996,48.2749,0.00172035,0.00236854,-0.0054738,0.00752783,-0.00343894,-0.814968,0.0064767,0.0193438,1616,1695,11.7995,-48.2749
399,-671,11.7708,47.6404,0.00227138,0.00192747,-0.00605394,0.00815581,-0.00395695,-0.7712,0.00713199,0.0152497,1623,1695,11.7708,-47.6404
406,-671,11.7959,46.9539,0.00289184,0.00180052,-0.00668234,0.00905076,-0.00435841,-0.74466,0.00789821,0.0236029,1630,1695,11.7959,-46.9539
413,-671,11.7634,46.3639,0.00377549,0.0019992,-0.00743828,0.0103785,-0.00460376,-0.725979,0.00886158,0.0369327,1637,1695,11.7634,-46.3639
420,-671,11.8314,45.7068,0,0,0,0,0,0,0,-1,1644,1695,11.8314,-45.7068
427,-671,11.9879,42.9364,0,0,0,0,0,0,0,-1,1651,1695,11.988,-42.9364
434,-671,12.0647,42.6493,0,0,0,0,0,0,0,-1,1658,1695,12.0648,-42.6493
441,-671,11.8904,39.6104,0,0,0,0,0,0,0,-1,1665,1695,11.8904,-39.6103
448,-671,11.6979,39.1995,0,0,0,0,0,0,0,-1,1672,1695,11.6979,-39.1994
455,-671,11.5221,39.0929,0,0,0,0,0,0,0,-1,1679,1695,11.5221,-39.0929
462,-671,5.86255,4.47961,0,0,0,0,0,0,0,-1,1686,1695,5.8625,-4.4796
469,-671,3.71301,3.76978,0,0,0,0,0,0,0,-1,1693,1695,3.71297,-3.76974
476,-671,3.75574,3.18848,0,0,0,0,0,0,0,-1,1700,1695,3.7558,-3.18847
483,-671,7.81824,12.1041,0,0,0,0,0,0,0,-1,1707,1695,7.81826,-12.1041
490,-671,0,0,0,0,0,0,0,0,0,-1,1714,1695,0,0
497,-671,0,0,0,0,0,0,0,0,0,-1,1721,1695,0,0
504,-671,0,0,0,0,0,0,0,0,0,-1,1728,1695,0,0
511,-671,0,0,0,0,0,0,0,0,0,-1,1735,1695,0,0
518,-671,0,0,0,0,0,0,0,0,0,-1,1742,1695,0,0
525,-671,0,0,0,0,0,0,0,0,0,-1,1749,1695,0,0
532,-671,0,0,0,0,0,0,0,0,0,-1,1756,1695,0,0
539,-671,0,0,0,0,0,0,0,0,0,-1,1763,1695,0,0
546,-671,0,0,0,0,0,0,0,0,0,-1,1770,1695,0,0
553,-671,0,0,0,0,0,0,0,0,0,-1,1777,1695,0,0
560,-671,0,0,0,0,0,0,0,0,0,-1,1784,1695,0,0
567,-671,0,0,0,0,0,0,0,0,0,-1,1791,1695,0,0
574,-671,0,0,0,0,0,0,0,0,0,-1,1798,1695,0,0
581,-671,0,0,0,0,0,0,0,0,0,-1,1805,1695,0,0
588,-671,0,0,0,0,0,0,0,0,0,-1,1812,1695,0,0
595,-671,0,0,0,0,0,0,0,0,0,-1,1819,1695,0,0
602,-671,0,0,0,0,0,0,0,0,0,-1,1826,1695,0,0
609,-671,0,0,0,0,0,0,0,0,0,-1,1833,1695,0,0
616,-671,0,0,0,0,0,0,0,0,0,-1,1840,1695,0,0
623,-671,0,0,0,0,0,0,0,0,0,-1,1847,1695,0,0
630,-671,0,0,0,0,0,0,0,0,0,-1,1854,1695,0,0
637,-671,0,0,0,0,0,0,0,0,0,-1,1861,1695,0,0
644,-671,0,0,0,0,0,0,0,0,0,-1,1868,1695,0,0
651,-671,0,0,0,0,0,0,0,0,0,-1,1875,1695,0,0
658,-671,0,0,0,0,0,0,0,0,0,-1,1882,1695,0,0
665,-671,0,0,0,0,0,0,0,0,0,-1,1889,1695,0,0
672,-671,0,0,0,0,0,0,0,0,0,-1,1896,1695,0,0
679,-671,0,0,0,0,0,0,0,0,0,-1,1903,1695,0,0
686,-671,0,0,0,0,0,0,0,0,0,-1,1910,1695,0,0
693,-671,0,0,0,0,0,0,0,0,0,-1,1917,1695,0,0
700,-671,0,0,0,0,0,0,0,0,0,-1,1924,1695,0,0
707,-671,0,0,0,0,0,0,0,0,0,-1,1931,1695,0,0
714,-671,0,0,0,0,0,0,0,0,0,-1,1938,1695,0,0
721,-671,0,0,0,0,0,0,0,0,0,-1,1945,1695,0,0
728,-671,0,0,0,0,0,0,0,0,0,-1,1952,1695,0,0
735,-671,0,0,0,0,0,0,0,0,0,-1,1959,1695,0,0
742,-671,0,0,0,0,0,0,0,0,0,-1,1966,1695,0,0
749,-671,0,0,0,0,0,0,0,0,0,-1,1973,1695,0,0
756,-671,0,0,0,0,0,0,0,0,0,-1,1980,1695,0,0
763,-671,0,0,0,0,0,0,0,0,0,-1,1987,1695,0,0
770,-671,0,0,0,0,0,0,0,0,0,-1,1994,1695,0,0
777,-671,0,0,0,0,0,0,0,0,0,-1,2001,1695,0,0
784,-671,0,0,0,0,0,0,0,0,0,-1,2008,1695,0,0
791,-671,0,0,0,0,0,0,0,0,0,-1,2015,1695,0,0
798,-671,0,0,0,0,0,0,0,0,0,-1,2022,1695,0,0
805,-671,0,0,0,0,0,0,0,0,0,-1,2029,1695,0,0
812,-671,0,0,0,0,0,0,0,0,0,-1,2036,1695,0,0
-700,-678,0,0,0,0,0,0,0,0,0,-1,524,1702,0,0
-693,-678,0,0,0,0,0,0,0,0,0,-1,531,1702,0,0
-686,-678,0,0,0,0,0,0,0,0,0,-1,538,1702,0,0
-679,-678,0,0,0,0,0,0,0,0,0,-1,545,1702,0,0
-672,-678,0,0,0,0,0,0,0,0,0,-1,552,1702,0,0
-665,-678,0,0,0,0,0,0,0,0,0,-1,559,1702,0,0
-658,-678,0,0,0,0,0,0,0,0,0,-1,566,1702,0,0
-651,-678,0,0,0,0,0,0,0,0,0,-1,573,1702,0,0
-644,-678,0,0,0,0,0,0,0,0,0,-1,580,1702,0,0
-637,-678,0,0,0,0,0,0,0,0,0,-1,587,1702,0,0
-630,-678,0,0,0,0,0,0,0,0,0,-1,594,1702,0,0
-623,-678,0,0,0,0,0,0,0,0,0,-1,601,1702,0,0
-616,-678,0,0,0,0,0,0,0,0,0,-1,608,1702,0,0
-609,-678,0,0,0,0,0,0,0,0,0,-1,615,1702,0,0
-602,-678,0,0,0,0,0,0,0,0,0,-1,622,1702,0,0
-595,-678,0,0,0,0,0,0,0,0,0,-1,629,1702,0,0
-588,-678,0,0,0,0,0,0,0,0,0,-1,636,1702,0,0
-581,-678,0,0,0,0,0,0,0,0,0,-1,643,1702,0,0
-574,-678,0,0,0,0,0,0,0,0,0,-1,650,1702,0,0
-567,-678,0,0,0,0,0,0,0,0,0,-1,657,1702,0,0
-560,-678,0,0,0,0,0,0,0,0,0,-1,664,1702,0,0
-553,-678,0,0,0,0,0,0,0,0,0,-1,671,1702,0,0
-546,-678,0,0,0,0,0,0,0,0,0,-1,678,1702,0,0
-539,-678,0,0,0,0,0,0,0,0,0,-1,685,1702,0,0
-532,-678,0,0,0,0,0,0,0,0,0,-1,692,1702,0,0
-525,-678,0,0,0,0,0,0,0,0,0,-1,699,1702,0,0
-518,-678,0,0,0,0,0,0,0,0,0,-1,706,1702,0,0
-511,-678,0,0,0,0,0,0,0,0,0,-1,713,1702,0,0
-504,-678,0,0,0,0,0,0,0,0,0,-1,720,1702,0,0
-497,-678,0,0,0,0,0,0,0,0,0,-1,727,1702,0,0
-490,-678,0,0,0,0,0,0,0,0,0,-1,734,1702,0,0
-483,-678,0,0,0,0,0,0,0,0,0,-1,741,1702,0,0
-476,-678,0,0,0,0,0,0,0,0,0,-1,748,1702,0,0
-469,-678,0,0,0,0,0,0,0,0,0,-1,755,1702,0,0
-462,-678,0,0,0,0,0,0,0,0,0,-1,762,1702,0,0
-455,-678,0,0,0,0,0,0,0,0,0,-1,769,1702,0,0
-448,-678,0,0,0,0,0,0,0,0,0,-1,776,1702,0,0
-441,-678,0,0,0,0,0,0,0,0,0,-1,783,1702,0,0
-434,-678,0,0,0,0,0,0,0,0,0,-1,790,1702,0,0
-427,-678,0,0,0,0,0,0,0,0,0,-1,797,1702,0,0
-420,-678,0,0,0,0,0,0,0,0,0,-1,804,1702,0,0
-413,-678,0,0,0,0,0,0,0,0,0,-1,811,1702,0,0
-406,-678,0,0,0,0,0,0,0,0,0,-1,818,1702,0,0
-399,-678,0,0,0,0,0,0,0,0,0,-1,825,1702,0,0
-392,-678,0,0,0,0,0,0,0,0,0,-1,832,1702,0,0
-385,-678,0,0,0,0,0,0,0,0,0,-1,839,1702,0,0
-378,-678,0,0,0,0,0,0,0,0,0,-1,846,1702,0,0
-371,-678,0,0,0,0,0,0,0,0,0,-1,853,1702,0,0
-364,-678,0,0,0,0,0,0,0,0,0,-1,860,1702,0,0
-357,-678,0,0,0,0,0,0,0,0,0,-1,867,1702,0,0
-350,-678,-5.79944,6.11865,0,0,0,0,0,0,0,-1,874,1702,-5.79942,-6.11864
-343,-678,8.79578,34.4388,0,0,0,0,0,0,0,-1,881,1702,8.79579,-34.4388
-336,-678,9.06317,34.813,0,0,0,0,0,0,0,-1,888,1702,9.06318,-34.8129
-329,-678,8.68359,35.6151,0,0,0,0,0,0,0,-1,895,1702,8.68362,-35.6152
-322,-678,8.50494,35.5048,0,0,0,0,0,0,0,-1,902,1702,8.50495,-35.5047
-315,-678,7.95453,39.342,0,0,0,0,0,0,0,-1,909,1702,7.95455,-39.342
-308,-678,7.02094,43.3531,0,0,0,0,0,0,0,-1,916,1702,7.02091,-43.3532
-301,-678,7.09625,44.1893,0,0,0,0,0,0,0,-1,923,1702,7.09624,-44.1893
-294,-678,7.21332,45.027,-0.011422,-0.00699037,0.00468529,-0.00402335,-0.014389,1.00628,0.00857227,0.049402,930,1702,7.21333,-45.0269
-287,-678,7.29517,46.0488,-0.011286,-0.0052494,0.00304052,-0.00398344,-0.0125519,1.17626,0.00740628,0.0480092,937,1702,7.29517,-46.0488
-280,-678,7.01703,47.3163,-0.0114335,-0.00367752,0.00197023,-0.00320573,-0.0119053,1.33576,0.0071133,0.045846,944,1702,7.017,-47.3163
-273,-678,6.58734,47.6874,-0.0104083,-0.0031477,0.00137832,-0.00289485,-0.0106612,1.38937,0.00636582,0.0429952,951,1702,6.58736,-47.6873
-266,-678,6.70087,48.1776,-0.00881986,-0.00266209,0.000920302,-0.00252749,-0.00895446,1.42557,0.00533076,0.0361808,958,1702,6.70088,-48.1776
-259,-678,6.64154,48.9023,-0.00741419,-0.00221954,0.000708585,-0.00212462,-0.00750911,1.43763,0.00446949,0.0227508,965,1702,6.64154,-48.9024
-252,-678,6.62708,49.5435,-0.00626013,-0.00188471,0.000768946,-0.00175351,-0.00639133,1.4018,0.00381323,0.0189712,972,1702,6.62705,-49.5434
-245,-678,6.56598,50.1376,-0.00517544,-0.00164189,0.000865103,-0.00144146,-0.00537587,1.34313,0.00321307,0.0200884,979,1702,6.56597,-50.1376
-238,-678,6.54736,50.7611,-0.00423589,-0.00145147,0.000693501,-0.00128831,-0.00439906,1.33972,0.00261144,0.0163296,986,1702,6.54735,-50.7612
-231,-678,6.51154,51.3794,-0.00314523,-0.00129032,0.000901274,-0.000924532,-0.00351101,1.18525,0.00210142,0.0136106,993,1702,6.51155,-51.3794
-224,-678,6.44537,51.9679,-0.0018587,-0.000447786,0.00138866,0.000404333,-0.00271082,1.02042,0.00195597,0.0130916,1000,1702,6.44538,-51.9679
-217,-678,6.41895,52.5807,-0.0012456,-0.000626289,0.00148833,0.000584256,-0.00245614,0.887962,0.00186297,0.0137608,1007,1702,6.41892,-52.5806
-210,-678,6.39728,53.194,-0.000845489,-0.000595911,0.00144983,0.00073449,-0.00217589,0.828328,0.00174765,0.0147759,1014,1702,6.39729,-53.194
-203,-678,6.37622,53.7534,-0.000305536,-0.000515137,0.00131816,0.000911979,-0.00173265,0.745729,0.00155119,0.019115,1021,1702,6.37624,-53.7534
-196,-678,6.35205,54.3118,0.00017837,-0.000409501,0.00118784,0.0011081,-0.00133923,0.664108,0.00141507,0.0183512,1028,1702,6.35208,-54.3117
-189,-678,6.3241,54.8804,0.000601709,-0.000105215,0.00104581,0.00135217,-0.000855678,0.622435,0.0012854,0.0104887,1035,1702,6.3241,-54.8804
-182,-678,6.31689,55.4188,0.00104201,0.000259632,0.000899842,0.00163201,-0.000330375,0.580357,0.00121322,0.0102865,1042,1702,6.31694,-55.4188
-175,-678,6.30322,55.9316,0.00165722,0.000690665,0.000819166,0.00212504,0.000222843,0.518895,0.00134856,0.0118679,1049,1702,6.30316,-55.9316
-168,-678,6.2865,56.4408,0.00201324,0.00121807,0.000672553,0.00239694,0.000834374,0.518453,0.001405,0.0113878,1056,1702,6.28644,-56.4408
-161,-678,6.27661,56.9384,0.0023256,0.00177801,0.000602805,0.00271387,0.00138973,0.572226,0.00156701,0.00979698,1063,1702,6.27667,-56.9383
-154,-678,6.28162,57.4524,0.00276363,0.00239373,0.000533049,0.0031429,0.00201445,0.618414,0.00183843,0.00872044,1070,1702,6.28162,-57.4524
-147,-678,6.26245,57.951,0.00329779,0.00309262,0.000421974,0.00362947,0.00276094,0.666157,0.00218836,0.0108872,1077,1702,6.2625,-57.9511
-140,-678,6.31738,58.4052,0.00385874,0.00366946,0.000279735,0.00405941,0.00346879,0.622284,0.00253246,0.0124058,1084,1702,6.31734,-58.4051
-133,-678,6.35876,58.8413,0.00441905,0.00431643,0.000204366,0.00457845,0.00415703,0.662401,0.00292197,0.0133235,1091,1702,6.35874,-58.8413
-126,-678,6.34363,59.3571,0.0050182,0.00486239,0.000100986,0.00506784,0.00481275,0.456854,0.00329682,0.0179232,1098,1702,6.34368,-59.3571
-119,-678,6.32153,60.0582,0,0,0,0,0,0,0,-1,1105,1702,6.32156,-60.0582
-112,-678,6.46936,60.0758,0,0,0,0,0,0,0,-1,1112,1702,6.46939,-60.0758
-105,-678,6.41565,60.5986,0,0,0,0,0,0,0,-1,1119,1702,6.41567,-60.5986
-98,-678,6.48523,60.9971,0,0,0,0,0,0,0,-1,1126,1702,6.48526,-60.9971
-91,-678,6.61951,61.29,0,0,0,0,0,0,0,-1,1133,1702,6.61954,-61.2901
-84,-678,6.58545,36.5073,0,0,0,0,0,0,0,-1,1140,1702,6.58544,-36.5073
-77,-678,5.95154,29.1879,0,0,0,0,0,0,0,-1,1147,1702,5.95156,-29.1878
-70,-678,4.75891,19.6552,0,0,0,0,0,0,0,-1,1154,1702,4.75895,-19.6551
-63,-678,3.41687,11.0365,0,0,0,0,0,0,0,-1,1161,1702,3.41682,-11.0365
-56,-678,1.72388,6.13159,0,0,0,0,0,0,0,-1,1168,1702,1.72388,-6.13157
-49,-678,-0.241699,5.29895,0,0,0,0,0,0,0,-1,1175,1702,-0.241682,-5.29897
-42,-678,0.297119,3.90649,0,0,0,0,0,0,0,-1,1182,1702,0.297139,-3.90655
-35,-678,0.498413,3.64038,0,0,0,0,0,0,0,-1,1189,1702,0.498471,-3.64038
-28,-678,0.132446,3.55994,0,0,0,0,0,0,0,-1,1196,1702,0.132432,-3.55993
-21,-678,7.4978,63.8822,0,0,0,0,0,0,0,-1,1203,1702,7.49775,-63.8822
-14,-678,7.56445,63.8644,0.0119827,0.0419442,-0.0145296,0.0478329,0.00609404,-1.18574,0.0300638,0.0420645,1210,1702,7.56443,-63.8644
-7,-678,7.56409,63.8153,0.0107734,0.040727,-0.0154172,0.0472443,0.00425609,-1.17085,0.0301777,0.0465657,1217,1702,7.56411,-63.8153
0,-678,6.6626,65.0236,0,0,0,0,0,0,0,-1,1224,1702,6.66262,-65.0235
7,-678,7.07568,65.0718,0,0,0,0,0,0,0,-1,1231,1702,7.0757,-65.0718
14,-678,7.48877,65.12,0,0,0,0,0,0,0,-1,1238,1702,7.48879,-65.12
21,-678,7.52795,65.2891,0,0,0,0,0,0,0,-1,1245,1702,7.52796,-65.289
28,-678,8.63269,65.2456,0,0,0,0,0,0,0,-1,1252,1702,8.6327,-65.2456
35,-678,9.73608,65.2375,0,0,0,0,0,0,0,-1,1259,1702,9.73606,-65.2376
42,-678,9.54102,65.0453,0,0,0,0,0,0,0,-1,1266,1702,9.54105,-65.0453
49,-678,3.18274,60.802,0,0,0,0,0,0,0,-1,1273,1702,3.18269,-60.802
56,-678,2.198,61.4189,0,0,0,0,0,0,0,-1,1280,1702,2.19798,-61.419
63,-678,3.90112,62.0515,0,0,0,0,0,0,0,-1,1287,1702,3.90116,-62.0515
70,-678,5.22742,62.1721,0,0,0,0,0,0,0,-1,1294,1702,5.22748,-62.1721
77,-678,6.15771,63.49,0,0,0,0,0,0,0,-1,1301,1702,6.15772,-63.49
84,-678,9.7511,64.9299,0,0,0,0,0,0,0,-1,1308,1702,9.75115,-64.9299
91,-678,10.269,64.9037,0,0,0,0,0,0,0,-1,1315,1702,10.2691,-64.9037
98,-678,10.0055,64.6138,0.039367,-0.00427831,0.00159844,0.0394254,-0.00433677,0.0365581,0.027842,0.046003,1322,1702,10.0055,-64.6138
105,-678,9.60083,64.4241,0.0395744,-0.00680512,-0.00699966,0.0406078,-0.00783849,-0.146573,0.0300277,0.0432591,1329,1702,9.60084,-64.424
112,-678,9.46069,64.2024,0.0419545,-0.00821802,-0.0160524,0.0466508,-0.0129143,-0.284617,0.0361819,0.0435174,1336,1702,9.4607,-64.2024
119,-678,9.35278,63.9296,0.0462376,-0.00841824,-0.0248808,0.0558674,-0.018048,-0.36928,0.0444981,0.041531,1343,1702,9.35273,-63.9296
126,-678,9.66492,63.5618,0,0,0,0,0,0,0,-1,1350,1702,9.66487,-63.5618
133,-678,9.66321,62.9717,0,0,0,0,0,0,0,-1,1357,1702,9.66323,-62.9716
140,-678,9.39514,62.5354,0,0,0,0,0,0,0,-1,1364,1702,9.39517,-62.5354
147,-678,12.6578,60.5249,0,0,0,0,0,0,0,-1,1371,1702,12.6578,-60.5249
154,-678,13.2457,60.1281,0,0,0,0,0,0,0,-1,1378,1702,13.2457,-60.128
161,-678,8.81226,34.8624,0,0,0,0,0,0,0,-1,1385,1702,8.81229,-34.8624
168,-678,4.21863,5.25781,0,0,0,0,0,0,0,-1,1392,1702,4.21865,-5.25781
175,-678,5.21899,5.9635,0,0,0,0,0,0,0,-1,1399,1702,5.21894,-5.96346
182,-678,7.31262,6.75122,0,0,0,0,0,0,0,-1,1406,1702,7.3126,-6.75123
189,-678,5.96021,6.36853,0,0,0,0,0,0,0,-1,1413,1702,5.96018,-6.36851
196,-678,5.01599,8.15771,0,0,0,0,0,0,0,-1,1420,1702,5.01596,-8.15767
203,-678,4.64771,13.0559,0,0,0,0,0,0,0,-1,1427,1702,4.64766,-13.0559
210,-678,5.6532,18.5957,0,0,0,0,0,0,0,-1,1434,1702,5.65318,-18.5958
217,-678,6.88049,23.4835,0,0,0,0,0,0,0,-1,1441,1702,6.88047,-23.4835
224,-678,8.521,32.0977,0,0,0,0,0,0,0,-1,1448,1702,8.52098,-32.0977
231,-678,9.96838,42.3734,0,0,0,0,0,0,0,-1,1455,1702,9.96844,-42.3734
238,-678,11.4246,60.0784,0,0,0,0,0,0,0,-1,1462,1702,11.4246,-60.0783
245,-678,11.5479,59.5286,0,0,0,0,0,0,0,-1,1469,1702,11.5478,-59.5286
252,-678,11.5101,59.1237,0.00768564,-0.00113235,-0.000301695,0.00769595,-0.00114266,-0.0341603,0.00555086,0.0190201,1476,1702,11.5101,-59.1237
259,-678,11.5063,58.694,0.00703028,-0.000317437,-0.000450898,0.00705785,-0.000345003,-0.0610604,0.00482435,0.0171296,1483,1702,11.5064,-58.694
266,-678,11.5713,58.1876,0.00646964,0.000273772,-0.000718238,0.00655181,0.000191602,-0.11391,0.00430543,0.0136118,1490,1702,11.5713,-58.1877
273,-678,11.5874,57.7196,0.00609398,0.000652257,-0.000825421,0.00621643,0.000529809,-0.147272,0.00397946,0.0122635,1497,1702,11.5874,-57.7196
280,-678,11.5837,57.2483,0.00548752,0.00106576,-0.00092846,0.00567456,0.000878722,-0.198793,0.00352681,0.0127834,1504,1702,11.5837,-57.2483
287,-678,11.6069,56.7314,0.00478502,0.00139807,-0.000990568,0.00505345,0.00112963,-0.264633,0.00306267,0.0119726,1511,1702,11.6069,-56.7314
294,-678,11.5752,56.1792,0.004048,0.00163347,-0.00099379,0.00440442,0.00127705,-0.344357,0.00261662,0.012465,1518,1702,11.5752,-56.1792
301,-678,11.5464,55.6693,0.00326112,0.00190549,-0.00104665,0.00383027,0.00133634,-0.498054,0.00224482,0.0117884,1525,1702,11.5464,-55.6693
308,-678,11.5563,55.1682,0.00251962,0.00227104,-0.00126027,0.00366171,0.00112895,-0.736246,0.00216526,0.0141342,1532,1702,11.5562,-55.1682
315,-678,11.5529,54.6428,0.00181016,0.00285632,-0.00154713,0.0039664,0.000700073,-0.948415,0.00244456,0.0156603,1539,1702,11.5529,-54.6428
322,-678,11.5226,54.1718,0.00118536,0.00339952,-0.00182387,0.00442601,0.000158868,-1.05817,0.00289917,0.0183445,1546,1702,11.5226,-54.1718
329,-678,11.4763,53.5984,0.000659812,0.00390171,-0.00218827,0.005004,-0.000442473,-1.10417,0.00349284,0.0162079,1553,1702,11.4763,-53.5983
336,-678,11.4683,53.0094,0.000271914,0.00439685,-0.00256179,0.00562323,-0.000954465,-1.12432,0.00410414,0.0134741,1560,1702,11.4682,-53.0094
343,-678,11.4781,52.4309,-2.90099e-05,0.0047836,-0.00301952,0.00623836,-0.00148377,-1.12183,0.00473169,0.0148527,1567,1702,11.4781,-52.4309
350,-678,11.4612,51.8639,-0.000159965,0.00507276,-0.00360191,0.00690826,-0.00199547,-1.0995,0.00539511,0.0156887,1574,1702,11.4611,-51.8639
357,-678,11.4077,51.2784,-9.99314e-05,0.00521258,-0.00419984,0.00752567,-0.00241302,-1.06737,0.00598584,0.0116043,1581,1702,11.4077,-51.2784
364,-678,11.3737,50.6947,-2.69364e-05,0.00514147,-0.00470152,0.00792218,-0.00280765,-1.03669,0.00642518,0.0119827,1588,1702,11.3737,-50.6947
371,-678,11.3279,50.0996,0.000170818,0.00494771,-0.00522411,0.00830348,-0.00318495,-0.99981,0.00684877,0.0125538,1595,1702,11.3279,-50.0997
378,-678,11.3003,49.48,0.000507195,0.00454362,-0.00571869,0.00858978,-0.00353896,-0.955033,0.00720208,0.0133032,1602,1702,11.3003,-49.48
385,-678,11.277,48.8745,0.00106823,0.00425228,-0.00637087,0.00922703,-0.00390651,-0.907837,0.00778729,0.0138307,1609,1702,11.2769,-48.8745
392,-678,11.2671,48.3014,0.00201062,0.00406372,-0.00737521,0.0104835,-0.00440914,-0.854549,0.00883345,0.022487,1616,1702,11.2671,-48.3014
399,-678,11.1992,47.6554,0.00289063,0.00351399,-0.00814884,0.0113571,-0.00495249,-0.804513,0.00965532,0.0331643,1623,1702,11.1992,-47.6554
406,-678,11.2499,46.9391,0.00379016,0.00341795,-0.00891895,0.0125249,-0.00531684,-0.774967,0.0105775,0.0459963,1630,1702,11.2499,-46.9391
413,-678,11.1842,46.4182,0,0,0,0,0,0,0,-1,1637,1702,11.1843,-46.4183
420,-678,11.2355,43.032,0,0,0,0,0,0,0,-1,1644,1702,11.2355,-43.032
427,-678,10.0541,38.9548,0,0,0,0,0,0,0,-1,1651,1702,10.0541,-38.9548
434,-678,10.1094,38.722,0,0,0,0,0,0,0,-1,1658,1702,10.1094,-38.7221
441,-678,11.6007,39.4658,0,0,0,0,0,0,0,-1,1665,1702,11.6007,-39.4658
448,-678,11.344,38.9084,0,0,0,0,0,0,0,-1,1672,1702,11.344,-38.9084
455,-678,5.44678,5.54297,0,0,0,0,0,0,0,-1,1679,1702,5.44676,-5.54294
462,-678,3.86792,2.87402,0,0,0,0,0,0,0,-1,1686,1702,3.86796,-2.87406
469,-678,2.26587,1.98755,0,0,0,0,0,0,0,-1,1693,1702,2.26592,-1.98755
476,-678,0,0,0,0,0,0,0,0,0,-1,1700,1702,0,0
483,-678,0,0,0,0,0,0,0,0,0,-1,1707,1702,0,0
490,-678,0,0,0,0,0,0,0,0,0,-1,1714,1702,0,0
497,-678,0,0,0,0,0,0,0,0,0,-1,1721,1702,0,0
504,-678,0,0,0,0,0,0,0,0,0,-1,1728,1702,0,0
511,-678,0,0,0,0,0,0,0,0,0,-1,1735,1702,0,0
518,-678,0,0,0,0,0,0,0,0,0,-1,1742,1702,0,0
525,-678,0,0,0,0,0,0,0,0,0,-1,1749,1702,0,0
532,-678,0,0,0,0,0,0,0,0,0,-1,1756,1702,0,0
539,-678,0,0,0,0,0,0,0,0,0,-1,1763,1702,0,0
546,-678,0,0,0,0,0,0,0,0,0,-1,1770,1702,0,0
553,-678,0,0,0,0,0,0,0,0,0,-1,1777,1702,0,0
560,-678,0,0,0,0,0,0,0,0,0,-1,1784,1702,0,0
567,-678,0,0,0,0,0,0,0,0,0,-1,1791,1702,0,0
574,-678,0,0,0,0,0,0,0,0,0,-1,1798,1702,0,0
581,-678,0,0,0,0,0,0,0,0,0,-1,1805,1702,0,0
588,-678,0,0,0,0,0,0,0,0,0,-1,1812,1702,0,0
595,-678,0,0,0,0,0,0,0,0,0,-1,1819,1702,0,0
602,-678,0,0,0,0,0,0,0,0,0,-1,1826,1702,0,0
609,-678,0,0,0,0,0,0,0,0,0,-1,1833,1702,0,0
616,-678,0,0,0,0,0,0,0,0,0,-1,1840,1702,0,0
623,-678,0,0,0,0,0,0,0,0,0,-1,1847,1702,0,0
630,-678,0,0,0,0,0,0,0,0,0,-1,1854,1702,0,0
637,-678,0,0,0,0,0,0,0,0,0,-1,1861,1702,0,0
644,-678,0,0,0,0,0,0,0,0,0,-1,1868,1702,0,0
651,-678,0,0,0,0,0,0,0,0,0,-1,1875,1702,0,0
658,-678,0,0,0,0,0,0,0,0,0,-1,1882,1702,0,0
665,-678,0,0,0,0,0,0,0,0,0,-1,1889,1702,0,0
672,-678,0,0,0,0,0,0,0,0,0,-1,1896,1702,0,0
679,-678,0,0,0,0,0,0,0,0,0,-1,1903,1702,0,0
686,-678,0,0,0,0,0,0,0,0,0,-1,1910,1702,0,0
693,-678,0,0,0,0,0,0,0,0,0,-1,1917,1702,0,0
700,-678,0,0,0,0,0,0,0,0,0,-1,1924,1702,0,0
707,-678,0,0,0,0,0,0,0,0,0,-1,1931,1702,0,0
714,-678,0,0,0,0,0,0,0,0,0,-1,1938,1702,0,0
721,-678,0,0,0,0,0,0,0,0,0,-1,1945,1702,0,0
728,-678,0,0,0,0,0,0,0,0,0,-1,1952,1702,0,0
735,-678,0,0,0,0,0,0,0,0,0,-1,1959,1702,0,0
742,-678,0,0,0,0,0,0,0,0,0,-1,1966,1702,0,0
749,-678,0,0,0,0,0,0,0,0,0,-1,1973,1702,0,0
756,-678,0,0,0,0,0,0,0,0,0,-1,1980,1702,0,0
763,-678,0,0,0,0,0,0,0,0,0,-1,1987,1702,0,0
770,-678,0,0,0,0,0,0,0,0,0,-1,1994,1702,0,0
777,-678,0,0,0,0,0,0,0,0,0,-1,2001,1702,0,0
784,-678,0,0,0,0,0,0,0,0,0,-1,2008,1702,0,0
791,-678,0,0,0,0,0,0,0,0,0,-1,2015,1702,0,0
798,-678,0,0,0,0,0,0,0,0,0,-1,2022,1702,0,0
805,-678,0,0,0,0,0,0,0,0,0,-1,2029,1702,0,0
812,-678,0,0,0,0,0,0,0,0,0,-1,2036,1702,0,0
-700,-685,0,0,0,0,0,0,0,0,0,-1,524,1709,0,0
-693,-685,0,0,0,0,0,0,0,0,0,-1,531,1709,0,0
-686,-685,0,0,0,0,0,0,0,0,0,-1,538,1709,0,0
-679,-685,0,0,0,0,0,0,0,0,0,-1,545,1709,0,0
-672,-685,0,0,0,0,0,0,0,0,0,-1,552,1709,0,0
-665,-685,0,0,0,0,0,0,0,0,0,-1,559,1709,0,0
-658,-685,0,0,0,0,0,0,0,0,0,-1,566,1709,0,0
-651,-685,0,0,0,0,0,0,0,0,0,-1,573,1709,0,0
-644,-685,0,0,0,0,0,0,0,0,0,-1,580,1709,0,0
-637,-685,0,0,0,0,0,0,0,0,0,-1,587,1709,0,0
-630,-685,0,0,0,0,0,0,0,0,0,-1,594,1709,0,0
-623,-685,0,0,0,0,0,0,0,0,0,-1,601,1709,0,0
-616,-685,0,0,0,0,0,0,0,0,0,-1,608,1709,0,0
-609,-685,0,0,0,0,0,0,0,0,0,-1,615,1709,0,0
-602,-685,0,0,0,0,0,0,0,0,0,-1,622,1709,0,0
-595,-685,0,0,0,0,0,0,0,0,0,-1,629,1709,0,0
-588,-685,0,0,0,0,0,0,0,0,0,-1,636,1709,0,0
-581,-685,0,0,0,0,0,0,0,0,0,-1,643,1709,0,0
-574,-685,0,0,0,0,0,0,0,0,0,-1,650,1709,0,0
-567,-685,0,0,0,0,0,0,0,0,0,-1,657,1709,0,0
-560,-685,0,0,0,0,0,0,0,0,0,-1,664,1709,0,0
-553,-685,0,0,0,0,0,0,0,0,0,-1,671,1709,0,0
-546,-685,0,0,0,0,0,0,0,0,0,-1,678,1709,0,0
-539,-685,0,0,0,0,0,0,0,0,0,-1,685,1709,0,0
-532,-685,0,0,0,0,0,0,0,0,0,-1,692,1709,0,0
-525,-685,0,0,0,0,0,0,0,0,0,-1,699,1709,0,0
-518,-685,0,0,0,0,0,0,0,0,0,-1,706,1709,0,0
-511,-685,0,0,0,0,0,0,0,0,0,-1,713,1709,0,0
-504,-685,0,0,0,0,0,0,0,0,0,-1,720,1709,0,0
-497,-685,0,0,0,0,0,0,0,0,0,-1,727,1709,0,0
-490,-685,0,0,0,0,0,0,0,0,0,-1,734,1709,0,0
-483,-685,0,0,0,0,0,0,0,0,0,-1,741,1709,0,0
-476,-685,0,0,0,0,0,0,0,0,0,-1,748,1709,0,0
-469,-685,0,0,0,0,0,0,0,0,0,-1,755,1709,0,0
-462,-685,0,0,0,0,0,0,0,0,0,-1,762,1709,0,0
-455,-685,0,0,0,0,0,0,0,0,0,-1,769,1709,0,0
-448,-685,0,0,0,0,0,0,0,0,0,-1,776,1709,0,0
-441,-685,0,0,0,0,0,0,0,0,0,-1,783,1709,0,0
-434,-685,0,0,0,0,0,0,0,0,0,-1,790,1709,0,0
-427,-685,0,0,0,0,0,0,0,0,0,-1,797,1709,0,0
-420,-685,0,0,0,0,0,0,0,0,0,-1,804,1709,0,0
-413,-685,0,0,0,0,0,0,0,0,0,-1,811,1709,0,0
-406,-685,0,0,0,0,0,0,0,0,0,-1,818,1709,0,0
-399,-685,0,0,0,0,0,0,0,0,0,-1,825,1709,0,0
-392,-685,0,0,0,0,0,0,0,0,0,-1,832,1709,0,0
-385,-685,0,0,0,0,0,0,0,0,0,-1,839,1709,0,0
-378,-685,0,0,0,0,0,0,0,0,0,-1,846,1709,0,0
-371,-685,0,0,0,0,0,0,0,0,0,-1,853,1709,0,0
-364,-685,0,0,0,0,0,0,0,0,0,-1,860,1709,0,0
-357,-685,0,0,0,0,0,0,0,0,0,-1,867,1709,0,0
-350,-685,0,0,0,0,0,0,0,0,0,-1,874,1709,0,0
-343,-685,-5.98505,6.56335,0,0,0,0,0,0,0,-1,881,1709,-5.98505,-6.56329
-336,-685,-6.51312,5.10571,0,0,0,0,0,0,0,-1,888,1709,-6.51311,-5.10575
-329,-685,9.98907,36.2474,0,0,0,0,0,0,0,-1,895,1709,9.98909,-36.2475
-322,-685,3.83191,16.7219,0,0,0,0,0,0,0,-1,902,1709,3.8319,-16.7219
-315,-685,5.15784,21.4388,0,0,0,0,0,0,0,-1,909,1709,5.15783,-21.4389
-308,-685,9.5943,40.3096,0,0,0,0,0,0,0,-1,916,1709,9.5943,-40.3095
-301,-685,7.35089,44.188,0,0,0,0,0,0,0,-1,923,1709,7.35086,-44.1879
-294,-685,7.55084,45.0233,0,0,0,0,0,0,0,-1,930,1709,7.55085,-45.0234
-287,-685,7.86255,46.1956,0,0,0,0,0,0,0,-1,937,1709,7.86253,-46.1956
-280,-685,7.65991,47.9462,-0.0153351,-0.0051211,0.00081132,-0.00505706,-0.0153992,1.49202,0.00906356,0.0458829,944,1709,7.65989,-47.9461
-273,-685,7.15021,47.4772,-0.0137447,-0.00453008,0.00039448,-0.00451322,-0.0137616,1.52809,0.0081005,0.0498211,951,1709,7.15022,-47.4772
-266,-685,7.46283,48.1567,-0.011572,-0.00403624,0.000116083,-0.00403445,-0.0115738,1.5554,0.00678348,0.0466204,958,1709,7.46284,-48.1567
-259,-685,7.31946,48.8326,-0.00967703,-0.00344103,0.000109017,-0.00343913,-0.00967893,1.55332,0.00566558,0.0454139,965,1709,7.31946,-48.8327
-252,-685,7.2146,49.4246,-0.00814347,-0.00306195,0.000440197,-0.0030241,-0.00818132,1.48502,0.00477671,0.0412266,972,1709,7.2146,-49.4246
-245,-685,7.20172,50.1693,-0.00679115,-0.00269363,0.000743377,-0.00256293,-0.00692185,1.39676,0.00404092,0.040135,979,1709,7.20173,-50.1693
-238,-685,7.21033,50.8027,-0.00568881,-0.002338,0.000687959,-0.00220226,-0.00582456,1.37598,0.00339596,0.0302362,986,1709,7.21031,-50.8027
-231,-685,7.11053,51.4407,-0.00439074,-0.00198732,0.00105813,-0.00158786,-0.0047902,1.20982,0.00281749,0.0184226,993,1709,7.11052,-51.4407
-224,-685,7.02258,52.0096,-0.00282948,-0.00081963,0.00177359,0.00021395,-0.00386306,1.04315,0.00264957,0.0154383,1000,1709,7.02257,-52.0096
-217,-685,6.98871,52.6168,-0.00213257,-0.000910192,0.00197805,0.000548945,-0.0035917,0.935238,0.00259686,0.0112166,1007,1709,6.9887,-52.6168
-210,-685,6.96985,53.2208,-0.001723,-0.000672231,0.0020116,0.000881466,-0.00327669,0.913133,0.00253,0.0162174,1014,1709,6.96985,-53.2208
-203,-685,6.94727,53.7845,-0.0011602,-0.000361001,0.00191892,0.00119948,-0.00272068,0.888052,0.00231942,0.0173916,1021,1709,6.94723,-53.7846
-196,-685,6.91345,54.3505,-0.000692566,-0.000100512,0.0017871,0.00141491,-0.00220799,0.867476,0.00210832,0.0137282,1028,1709,6.91342,-54.3505
-189,-685,6.86389,54.8821,-0.000267771,0.000325579,0.00166801,0.0017231,-0.00166529,0.873408,0.00195638,0.0094634,1035,1709,6.86389,-54.8821
-182,-685,6.84058,55.4275,0.000178977,0.00069762,0.0015344,0.00199446,-0.00111786,0.86911,0.0018205,0.01442,1042,1709,6.8406,-55.4275
-175,-685,6.82263,55.9507,0.000821077,0.00108658,0.00141081,0.00237087,-0.000463211,0.832308,0.00175547,0.0141069,1049,1709,6.82262,-55.9507
-168,-685,6.8075,56.4731,0.00110977,0.00155644,0.0012064,0.00256,0.0001062,0.876925,0.00167239,0.0111474,1056,1709,6.80744,-56.4731
-161,-685,6.81335,56.9919,0.00131022,0.00194936,0.00108855,0.00276428,0.000495305,0.928176,0.00170195,0.0119949,1063,1709,6.81339,-56.992
-154,-685,6.8009,57.4944,0.0016869,0.00229781,0.000954969,0.00299499,0.000989722,0.940187,0.00176198,0.0109052,1070,1709,6.80092,-57.4944
-147,-685,6.76025,57.9696,0.00219099,0.00268856,0.000753059,0.00323286,0.00164668,0.944936,0.0018666,0.0105256,1077,1709,6.76021,-57.9696
-140,-685,6.78137,58.4075,0.00273311,0.00293329,0.000545718,0.00338802,0.00227838,0.876095,0.00199449,0.0129395,1084,1709,6.78141,-58.4075
-133,-685,6.81323,58.8766,0.00324304,0.00319234,0.00037844,0.00359698,0.0028384,0.751952,0.00218938,0.0121825,1091,1709,6.81323,-58.8766
-126,-685,6.828,59.3538,0.00375831,0.00336668,0.000195257,0.00383902,0.00328596,0.391986,0.00239636,0.0102259,1098,1709,6.828,-59.3538
-119,-685,6.81946,59.7827,0.00438617,0.00332684,1.51352e-05,0.00438639,0.00332662,0.0142836,0.00264281,0.0146882,1105,1709,6.81942,-59.7827
-112,-685,6.84668,60.1838,0.00498081,0.00303582,-0.000204889,0.00500216,0.00301447,-0.103823,0.00290821,0.0151588,1112,1709,6.84671,-60.1839
-105,-685,6.84033,60.5962,0.00547384,0.00264186,-0.000424697,0.00553616,0.00257954,-0.145696,0.00319877,0.0174683,1119,1709,6.84029,-60.5962
-98,-685,6.91394,60.9535,0.00594558,0.00220609,-0.000730393,0.00608317,0.0020685,-0.186205,0.00357153,0.0249475,1126,1709,6.91391,-60.9535
-91,-685,6.97852,61.1919,0.0065441,0.0014997,-0.00137238,0.0068933,0.0011505,-0.249159,0.00426409,0.0474338,1133,1709,6.97855,-61.1919
-84,-685,7.02246,61.6289,0,0,0,0,0,0,0,-1,1140,1709,7.0225,-61.6289
-77,-685,6.98792,62.1145,0,0,0,0,0,0,0,-1,1147,1709,6.98795,-62.1145
-70,-685,7.18909,62.7181,0,0,0,0,0,0,0,-1,1154,1709,7.18907,-62.7181
-63,-685,6.03015,29.7728,0,0,0,0,0,0,0,-1,1161,1709,6.0302,-29.7728
-56,-685,3.93909,15.8704,0,0,0,0,0,0,0,-1,1168,1709,3.93905,-15.8704
-49,-685,3.07471,9.86011,0,0,0,0,0,0,0,-1,1175,1709,3.07467,-9.86009
-42,-685,2.70618,7.54504,0,0,0,0,0,0,0,-1,1182,1709,2.7062,-7.54504
-35,-685,2.95264,7.91516,0,0,0,0,0,0,0,-1,1189,1709,2.95262,-7.91517
-28,-685,8.11353,52.4509,0,0,0,0,0,0,0,-1,1196,1709,8.1135,-52.451
-21,-685,7.75183,63.9728,0,0,0,0,0,0,0,-1,1203,1709,7.75186,-63.9728
-14,-685,7.83472,64.0764,0.0096294,0.0297134,-0.0105204,0.0342151,0.00512767,-1.16647,0.0213075,0.0326291,1210,1709,7.83471,-64.0764
-7,-685,7.87427,64.2106,0.00868527,0.0292719,-0.0110893,0.0341088,0.00384834,-1.15949,0.0215712,0.0468697,1217,1709,7.87421,-64.2106
0,-685,7.83789,64.4768,0,0,0,0,0,0,0,-1,1224,1709,7.83791,-64.4768
7,-685,7.84082,64.8057,0,0,0,0,0,0,0,-1,1231,1709,7.84084,-64.8057
14,-685,8.09949,64.9292,0,0,0,0,0,0,0,-1,1238,1709,8.09943,-64.9292
21,-685,8.57654,65.3019,0,0,0,0,0,0,0,-1,1245,1709,8.57651,-65.3018
28,-685,8.60547,65.1034,0,0,0,0,0,0,0,-1,1252,1709,8.60544,-65.1034
35,-685,8.61646,65.2268,0,0,0,0,0,0,0,-1,1259,1709,8.61645,-65.2268
42,-685,8.83948,65.4563,0,0,0,0,0,0,0,-1,1266,1709,8.83948,-65.4563
49,-685,9.03381,65.3893,0,0,0,0,0,0,0,-1,1273,1709,9.0338,-65.3893
56,-685,9.00757,66.3116,0,0,0,0,0,0,0,-1,1280,1709,9.00756,-66.3117
63,-685,3.5918,62.1602,0,0,0,0,0,0,0,-1,1287,1709,3.59174,-62.1602
70,-685,9.11108,65.552,0,0,0,0,0,0,0,-1,1294,1709,9.11105,-65.552
77,-685,9.67651,65.2521,0,0,0,0,0,0,0,-1,1301,1709,9.67653,-65.252
84,-685,9.86023,65.1401,0,0,0,0,0,0,0,-1,1308,1709,9.86028,-65.1401
91,-685,10.0488,64.8835,0,0,0,0,0,0,0,-1,1315,1709,10.0488,-64.8835
98,-685,9.82434,64.6158,0.0313455,-0.0047022,0.000848229,0.0313655,-0.00472215,0.0235134,0.0226491,0.0430488,1322,1709,9.82439,-64.6158
105,-685,9.65332,64.3126,0.0310834,-0.00700228,-0.0058746,0.031969,-0.00788782,-0.149615,0.0243712,0.0438708,1329,1709,9.65335,-64.3126
112,-685,9.54956,64.0591,0.0326446,-0.0083286,-0.0128617,0.0363474,-0.0120313,-0.280309,0.0290837,0.0454948,1336,1709,9.54952,-64.0591
119,-685,9.36755,63.9177,0.0357107,-0.00861892,-0.019704,0.0432027,-0.0161109,-0.363346,0.0354155,0.0453104,1343,1709,9.36751,-63.9177
126,-685,9.99365,64.0964,0,0,0,0,0,0,0,-1,1350,1709,9.99368,-64.0964
133,-685,10.1769,63.9963,0,0,0,0,0,0,0,-1,1357,1709,10.1769,-63.9963
140,-685,10.0632,64.006,0,0,0,0,0,0,0,-1,1364,1709,10.0632,-64.0059
147,-685,13.1991,61.4797,0,0,0,0,0,0,0,-1,1371,1709,13.1991,-61.4797
154,-685,10.0796,56.0078,0,0,0,0,0,0,0,-1,1378,1709,10.0796,-56.0079
161,-685,10.4932,55.8827,0,0,0,0,0,0,0,-1,1385,1709,10.4932,-55.8827
168,-685,4.37524,10.8778,0,0,0,0,0,0,0,-1,1392,1709,4.37525,-10.8778
175,-685,3.97522,8.94324,0,0,0,0,0,0,0,-1,1399,1709,3.97519,-8.94328
182,-685,3.98218,9.19739,0,0,0,0,0,0,0,-1,1406,1709,3.98221,-9.1974
189,-685,4.53479,15.2343,0,0,0,0,0,0,0,-1,1413,1709,4.53474,-15.2343
196,-685,10.4801,62.4349,0,0,0,0,0,0,0,-1,1420,1709,10.4801,-62.435
203,-685,10.5844,61.968,0,0,0,0,0,0,0,-1,1427,1709,10.5843,-61.968
210,-685,10.9698,61.4761,0,0,0,0,0,0,0,-1,1434,1709,10.9699,-61.4761
217,-685,10.9619,61.0389,0,0,0,0,0,0,0,-1,1441,1709,10.9619,-61.039
224,-685,10.912,60.7128,0,0,0,0,0,0,0,-1,1448,1709,10.912,-60.7128
231,-685,10.9298,60.3636,0,0,0,0,0,0,0,-1,1455,1709,10.9298,-60.3636
238,-685,11.006,59.9761,0.00610753,-0.00201773,-7.6221e-05,0.00610825,-0.00201844,-0.00937965,0.00488599,0.0367739,1462,1709,11.006,-59.9761
245,-685,11.0378,59.5085,0.00587658,-0.00154701,-0.000312021,0.00588967,-0.0015601,-0.0419325,0.00453679,0.0221806,1469,1709,11.0378,-59.5085
252,-685,11.067,59.1033,0.00550374,-0.000506194,-0.000413243,0.00553203,-0.000534475,-0.0683313,0.00387847,0.015353,1476,1709,11.067,-59.1033
259,-685,11.0656,58.6768,0.0049194,0.000113256,-0.000578132,0.00498796,4.469e-05,-0.118047,0.00331051,0.0118047,1483,1709,11.0655,-58.6767
266,-685,11.1025,58.2153,0.00439593,0.000555323,-0.00083463,0.00456947,0.000381785,-0.205001,0.00292736,0.013678,1490,1709,11.1026,-58.2153
273,-685,11.0957,57.7322,0.00398693,0.000887972,-0.000968407,0.00426466,0.000610241,-0.279296,0.0026631,0.0167033,1497,1709,11.0958,-57.7322
280,-685,11.077,57.2407,0.0034108,0.00120334,-0.00108304,0.00385342,0.00076072,-0.387969,0.00235666,0.0182054,1504,1709,11.0771,-57.2407
287,-685,11.0887,56.7601,0.00275577,0.00146887,-0.00115727,0.00343644,0.000788202,-0.531677,0.00207865,0.0125323,1511,1709,11.0888,-56.7601
294,-685,11.0643,56.2385,0.00206718,0.00175105,-0.00116603,0.00308581,0.000732423,-0.718031,0.00186173,0.0106367,1518,1709,11.0644,-56.2385
301,-685,11.0476,55.7134,0.00140294,0.00202582,-0.00128434,0.00303594,0.000392822,-0.904348,0.00190656,0.0137216,1525,1709,11.0476,-55.7134
308,-685,11.0518,55.1967,0.000788427,0.00252586,-0.00163794,0.0035112,-0.000196906,-1.02922,0.00240912,0.0153848,1532,1709,11.0517,-55.1967
315,-685,11.0482,54.6887,0.000206033,0.00337801,-0.0020904,0.00441598,-0.000831932,-1.10992,0.00325691,0.0131159,1539,1709,11.0483,-54.6887
322,-685,10.958,54.1322,-0.000280435,0.00413851,-0.00249042,0.0052583,-0.00140022,-1.14824,0.0040537,0.0203894,1546,1709,10.958,-54.1322
329,-685,10.9294,53.5939,-0.000687997,0.00489513,-0.00297387,0.00618238,-0.00197524,-1.16229,0.00491415,0.0203254,1553,1709,10.9294,-53.5938
336,-685,10.9359,53.0225,-0.000945953,0.00568145,-0.00350653,0.00719231,-0.00245681,-1.16396,0.00579024,0.0147646,1560,1709,10.9359,-53.0225
343,-685,10.9127,52.451,-0.00106461,0.00635545,-0.00416426,0.00822264,-0.0029318,-1.14929,0.00667714,0.0133652,1567,1709,10.9127,-52.4511
350,-685,10.8861,51.8738,-0.00101083,0.0069393,-0.00494169,0.00930627,-0.0033778,-1.12411,0.0075851,0.013821,1574,1709,10.8861,-51.8738
357,-685,10.8512,51.3145,-0.00076913,0.00742492,-0.00572764,0.01037,-0.00371422,-1.09586,0.00842877,0.0108662,1581,1709,10.8512,-51.3144
364,-685,10.8115,50.7401,-0.000548932,0.00758837,-0.00638867,0.011094,-0.00405451,-1.06894,0.00905527,0.0112114,1588,1709,10.8115,-50.7401
371,-685,10.8022,50.1338,-0.00018921,0.00756286,-0.0070697,0.0117493,-0.0043757,-1.03615,0.00962879,0.0196078,1595,1709,10.8023,-50.1337
378,-685,10.7917,49.4856,0.000345366,0.00719919,-0.00770891,0.0122086,-0.00466401,-0.99455,0.0100608,0.0236059,1602,1709,10.7918,-49.4856
385,-685,10.6935,48.9094,0.00113286,0.00695749,-0.0085338,0.0130622,-0.00497189,-0.949836,0.0107556,0.0345018,1609,1709,10.6935,-48.9094
392,-685,10.8152,48.3365,0.00240076,0.0067375,-0.00973857,0.0145462,-0.00540793,-0.89494,0.0119164,0.0367075,1616,1709,10.8152,-48.3366
399,-685,10.8099,47.6598,0.00371503,0.00594991,-0.0107542,0.0156446,-0.00597967,-0.837166,0.0128938,0.0466668,1623,1709,10.8099,-47.6598
406,-685,10.6881,46.9652,0,0,0,0,0,0,0,-1,1630,1709,10.6881,-46.9651
413,-685,10.9447,43.5477,0,0,0,0,0,0,0,-1,1637,1709,10.9447,-43.5477
420,-685,10.3047,40.3569,0,0,0,0,0,0,0,-1,1644,1709,10.3047,-40.3569
427,-685,10.7286,38.6702,0,0,0,0,0,0,0,-1,1651,1709,10.7286,-38.6702
434,-685,4.87769,8.91418,0,0,0,0,0,0,0,-1,1658,1709,4.87768,-8.91413
441,-685,5.62,8.75549,0,0,0,0,0,0,0,-1,1665,1709,5.61996,-8.75545
448,-685,6.4043,8.58972,0,0,0,0,0,0,0,-1,1672,1709,6.40435,-8.58971
455,-685,2.31958,4.09802,0,0,0,0,0,0,0,-1,1679,1709,2.31957,-4.09803
462,-685,0,0,0,0,0,0,0,0,0,-1,1686,1709,0,0
469,-685,0,0,0,0,0,0,0,0,0,-1,1693,1709,0,0
476,-685,0,0,0,0,0,0,0,0,0,-1,1700,1709,0,0
483,-685,0,0,0,0,0,0,0,0,0,-1,1707,1709,0,0
490,-685,0,0,0,0,0,0,0,0,0,-1,1714,1709,0,0
497,-685,0,0,0,0,0,0,0,0,0,-1,1721,1709,0,0
504,-685,0,0,0,0,0,0,0,0,0,-1,1728,1709,0,0
511,-685,0,0,0,0,0,0,0,0,0,-1,1735,1709,0,0
518,-685,0,0,0,0,0,0,0,0,0,-1,1742,1709,0,0
525,-685,0,0,0,0,0,0,0,0,0,-1,1749,1709,0,0
532,-685,0,0,0,0,0,0,0,0,0,-1,1756,1709,0,0
539,-685,0,0,0,0,0,0,0,0,0,-1,1763,1709,0,0
546,-685,0,0,0,0,0,0,0,0,0,-1,1770,1709,0,0
553,-685,0,0,0,0,0,0,0,0,0,-1,1777,1709,0,0
560,-685,0,0,0,0,0,0,0,0,0,-1,1784,1709,0,0
567,-685,0,0,0,0,0,0,0,0,0,-1,1791,1709,0,0
574,-685,0,0,0,0,0,0,0,0,0,-1,1798,1709,0,0
581,-685,0,0,0,0,0,0,0,0,0,-1,1805,1709,0,0
588,-685,0,0,0,0,0,0,0,0,0,-1,1812,1709,0,0
595,-685,0,0,0,0,0,0,0,0,0,-1,1819,1709,0,0
602,-685,0,0,0,0,0,0,0,0,0,-1,1826,1709,0,0
609,-685,0,0,0,0,0,0,0,0,0,-1,1833,1709,0,0
616,-685,0,0,0,0,0,0,0,0,0,-1,1840,1709,0,0
623,-685,0,0,0,0,0,0,0,0,0,-1,1847,1709,0,0
630,-685,0,0,0,0,0,0,0,0,0,-1,1854,1709,0,0
637,-685,0,0,0,0,0,0,0,0,0,-1,1861,1709,0,0
644,-685,0,0,0,0,0,0,0,0,0,-1,1868,1709,0,0
651,-685,0,0,0,0,0,0,0,0,0,-1,1875,1709,0,0
658,-685,0,0,0,0,0,0,0,0,0,-1,1882,1709,0,0
665,-685,0,0,0,0,0,0,0,0,0,-1,1889,1709,0,0
672,-685,0,0,0,0,0,0,0,0,0,-1,1896,1709,0,0
679,-685,0,0,0,0,0,0,0,0,0,-1,1903,1709,0,0
686,-685,0,0,0,0,0,0,0,0,0,-1,1910,1709,0,0
693,-685,0,0,0,0,0,0,0,0,0,-1,1917,1709,0,0
700,-685,0,0,0,0,0,0,0,0,0,-1,1924,1709,0,0
707,-685,0,0,0,0,0,0,0,0,0,-1,1931,1709,0,0
714,-685,0,0,0,0,0,0,0,0,0,-1,1938,1709,0,0
721,-685,0,0,0,0,0,0,0,0,0,-1,1945,1709,0,0
728,-685,0,0,0,0,0,0,0,0,0,-1,1952,1709,0,0
735,-685,0,0,0,0,0,0,0,0,0,-1,1959,1709,0,0
742,-685,0,0,0,0,0,0,0,0,0,-1,1966,1709,0,0
749,-685,0,0,0,0,0,0,0,0,0,-1,1973,1709,0,0
756,-685,0,0,0,0,0,0,0,0,0,-1,1980,1709,0,0
763,-685,0,0,0,0,0,0,0,0,0,-1,1987,1709,0,0
770,-685,0,0,0,0,0,0,0,0,0,-1,1994,1709,0,0
777,-685,0,0,0,0,0,0,0,0,0,-1,2001,1709,0,0
784,-685,0,0,0,0,0,0,0,0,0,-1,2008,1709,0,0
791,-685,0,0,0,0,0,0,0,0,0,-1,2015,1709,0,0
798,-685,0,0,0,0,0,0,0,0,0,-1,2022,1709,0,0
805,-685,0,0,0,0,0,0,0,0,0,-1,2029,1709,0,0
812,-685,0,0,0,0,0,0,0,0,0,-1,2036,1709,0,0
-700,-692,0,0,0,0,0,0,0,0,0,-1,524,1716,0,0
-693,-692,0,0,0,0,0,0,0,0,0,-1,531,1716,0,0
-686,-692,0,0,0,0,0,0,0,0,0,-1,538,1716,0,0
-679,-692,0,0,0,0,0,0,0,0,0,-1,545,1716,0,0
-672,-692,0,0,0,0,0,0,0,0,0,-1,552,1716,0,0
-665,-692,0,0,0,0,0,0,0,0,0,-1,559,1716,0,0
-658,-692,0,0,0,0,0,0,0,0,0,-1,566,1716,0,0
-651,-692,0,0,0,0,0,0,0,0,0,-1,573,1716,0,0
-644,-692,0,0,0,0,0,0,0,0,0,-1,580,1716,0,0
-637,-692,0,0,0,0,0,0,0,0,0,-1,587,1716,0,0
-630,-692,0,0,0,0,0,0,0,0,0,-1,594,1716,0,0
-623,-692,0,0,0,0,0,0,0,0,0,-1,601,1716,0,0
-616,-692,0,0,0,0,0,0,0,0,0,-1,608,1716,0,0
-609,-692,0,0,0,0,0,0,0,0,0,-1,615,1716,0,0
-602,-692,0,0,0,0,0,0,0,0,0,-1,622,1716,0,0
-595,-692,0,0,0,0,0,0,0,0,0,-1,629,1716,0,0
-588,-692,0,0,0,0,0,0,0,0,0,-1,636,1716,0,0
-581,-692,0,0,0,0,0,0,0,0,0,-1,643,1716,0,0
-574,-692,0,0,0,0,0,0,0,0,0,-1,650,1716,0,0
-567,-692,0,0,0,0,0,0,0,0,0,-1,657,1716,0,0
-560,-692,0,0,0,0,0,0,0,0,0,-1,664,1716,0,0
-553,-692,0,0,0,0,0,0,0,0,0,-1,671,1716,0,0
-546,-692,0,0,0,0,0,0,0,0,0,-1,678,1716,0,0
-539,-692,0,0,0,0,0,0,0,0,0,-1,685,1716,0,0
-532,-692,0,0,0,0,0,0,0,0,0,-1,692,1716,0,0
-525,-692,0,0,0,0,0,0,0,0,0,-1,699,1716,0,0
-518,-692,0,0,0,0,0,0,0,0,0,-1,706,1716,0,0
-511,-692,0,0,0,0,0,0,0,0,0,-1,713,1716,0,0
-504,-692,0,0,0,0,0,0,0,0,0,-1,720,1716,0,0
-497,-692,0,0,0,0,0,0,0,0,0,-1,727,1716,0,0
-490,-692,0,0,0,0,0,0,0,0,0,-1,734,1716,0,0
-483,-692,0,0,0,0,0,0,0,0,0,-1,741,1716,0,0
-476,-692,0,0,0,0,0,0,0,0,0,-1,748,1716,0,0
-469,-692,0,0,0,0,0,0,0,0,0,-1,755,1716,0,0
-462,-692,0,0,0,0,0,0,0,0,0,-1,762,1716,0,0
-455,-692,0,0,0,0,0,0,0,0,0,-1,769,1716,0,0
-448,-692,0,0,0,0,0,0,0,0,0,-1,776,1716,0,0
-441,-692,0,0,0,0,0,0,0,0,0,-1,783,1716,0,0
-434,-692,0,0,0,0,0,0,0,0,0,-1,790,1716,0,0
-427,-692,0,0,0,0,0,0,0,0,0,-1,797,1716,0,0
-420,-692,0,0,0,0,0,0,0,0,0,-1,804,1716,0,0
-413,-692,0,0,0,0,0,0,0,0,0,-1,811,1716,0,0
-406,-692,0,0,0,0,0,0,0,0,0,-1,818,1716,0,0
-399,-692,0,0,0,0,0,0,0,0,0,-1,825,1716,0,0
-392,-692,0,0,0,0,0,0,0,0,0,-1,832,1716,0,0
-385,-692,0,0,0,0,0,0,0,0,0,-1,839,1716,0,0
-378,-692,0,0,0,0,0,0,0,0,0,-1,846,1716,0,0
-371,-692,0,0,0,0,0,0,0,0,0,-1,853,1716,0,0
-364,-692,0,0,0,0,0,0,0,0,0,-1,860,1716,0,0
-357,-692,0,0,0,0,0,0,0,0,0,-1,867,1716,0,0
-350,-692,0,0,0,0,0,0,0,0,0,-1,874,1716,0,0
-343,-692,0,0,0,0,0,0,0,0,0,-1,881,1716,0,0
-336,-692,0,0,0,0,0,0,0,0,0,-1,888,1716,0,0
-329,-692,3.03107,4.10266,0,0,0,0,0,0,0,-1,895,1716,3.03105,-4.10267
-322,-692,4.43713,18.5242,0,0,0,0,0,0,0,-1,902,1716,4.43711,-18.5241
-315,-692,5.38965,17.975,0,0,0,0,0,0,0,-1,909,1716,5.38963,-17.975
-308,-692,5.86938,17.4392,0,0,0,0,0,0,0,-1,916,1716,5.86937,-17.4392
-301,-692,12.015,41.2892,0,0,0,0,0,0,0,-1,923,1716,12.015,-41.2892
-294,-692,8.41125,35.4742,0,0,0,0,0,0,0,-1,930,1716,8.41125,-35.4742
-287,-692,8.92493,45.6644,0,0,0,0,0,0,0,-1,937,1716,8.92492,-45.6644
-280,-692,8.17969,48.3081,0,0,0,0,0,0,0,-1,944,1716,8.17968,-48.3081
-273,-692,8.64752,48.0853,0,0,0,0,0,0,0,-1,951,1716,8.64754,-48.0853
-266,-692,8.54285,48.1857,0,0,0,0,0,0,0,-1,958,1716,8.54287,-48.1857
-259,-692,8.07227,48.7588,0,0,0,0,0,0,0,-1,965,1716,8.07226,-48.7587
-252,-692,7.75525,49.2498,0,0,0,0,0,0,0,-1,972,1716,7.75527,-49.2498
-245,-692,7.94348,50.0552,0,0,0,0,0,0,0,-1,979,1716,7.94346,-50.0552
-238,-692,8.00696,50.7898,-0.00710198,-0.00361864,0.000508172,-0.00354601,-0.0071746,1.42885,0.00414235,0.0496224,986,1716,8.00698,-50.7897
-231,-692,7.80469,51.5328,-0.00553443,-0.00304521,0.00114004,-0.002602,-0.00597764,1.20001,0.00346081,0.04179,993,1716,7.80471,-51.5329
-224,-692,7.56873,52.0804,-0.00364351,-0.00149419,0.00216845,-0.00014871,-0.00498899,1.01546,0.00327755,0.0208338,1000,1716,7.56871,-52.0805
-217,-692,7.52216,52.6384,-0.00287223,-0.00147412,0.00251445,0.000436643,-0.00478299,0.920982,0.00334372,0.013913,1007,1716,7.52214,-52.6385
-210,-692,7.50885,53.2085,-0.00248167,-0.000983411,0.00263971,0.00101141,-0.00447649,0.92366,0.0033724,0.0150629,1014,1716,7.50886,-53.2085
-203,-692,7.50085,53.7673,-0.00193019,-0.000405839,0.00259438,0.00153601,-0.00387203,0.928268,0.00321797,0.0173377,1021,1716,7.50091,-53.7673
-196,-692,7.44031,54.358,-0.0015197,3.07194e-05,0.00246516,0.00183968,-0.00332867,0.937736,0.00302495,0.0178954,1028,1716,7.44029,-54.358
-189,-692,7.37537,54.8879,-0.00112272,0.000604685,0.00237148,0.00226485,-0.00278288,0.960034,0.00291942,0.00955012,1035,1716,7.37536,-54.8879
-182,-692,7.34656,55.4432,-0.00069549,0.00101242,0.00224219,0.00255777,-0.00224084,0.967347,0.00277249,0.0148065,1042,1716,7.34652,-55.4432
-175,-692,7.30688,55.9973,-4.71799e-05,0.00137648,0.00206794,0.00285167,-0.00152237,0.951157,0.00256393,0.0149768,1049,1716,7.30691,-55.9973
-168,-692,7.31067,56.5023,0.000153953,0.00183559,0.00180652,0.00298738,-0.000997838,1.00321,0.00239454,0.0125262,1056,1716,7.31065,-56.5024
-161,-692,7.32898,57.0298,0.000242434,0.00213731,0.0016482,0.00309097,-0.000711229,1.04625,0.00233413,0.0157034,1063,1716,7.32895,-57.0297
-154,-692,7.29895,57.5526,0.000560281,0.00229648,0.0014704,0.00313591,-0.00027915,1.05206,0.0021896,0.0160359,1070,1716,7.2989,-57.5526
-147,-692,7.25122,58.0043,0.00104071,0.00246933,0.00119683,0.00314881,0.000361233,1.05444,0.00198975,0.0151127,1077,1716,7.25123,-58.0043
-140,-692,7.2251,58.4415,0.00156641,0.00247759,0.000945485,0.00307153,0.000972475,1.00991,0.00181267,0.0114644,1084,1716,7.22509,-58.4415
-133,-692,7.24072,58.8907,0.00204307,0.002483,0.000717368,0.00301337,0.0015127,0.934161,0.00173977,0.0100309,1091,1716,7.24076,-58.8907
-126,-692,7.25708,59.3459,0.00249168,0.00245765,0.000490535,0.00296549,0.00198383,0.768063,0.00174441,0.00814329,1098,1716,7.25712,-59.3459
-119,-692,7.23047,59.7816,0.00302658,0.00236282,0.000307487,0.00314713,0.00224227,0.373632,0.00187089,0.0123276,1105,1716,7.23048,-59.7816
-112,-692,7.25928,60.2067,0.00355046,0.00210972,0.000114311,0.00355948,0.0021007,0.0786852,0.00206618,0.0124978,1112,1716,7.25926,-60.2067
-105,-692,7.25342,60.6268,0.00400309,0.0017349,-0.0001036,0.00400781,0.00173018,-0.045549,0.00232109,0.0163951,1119,1716,7.25347,-60.6268
-98,-692,7.33008,60.9712,0.00445111,0.00133466,-0.00036692,0.00449372,0.00129204,-0.11563,0.0026714,0.0185777,1126,1716,7.33005,-60.9712
-91,-692,7.33545,61.3167,0.0049843,0.000829306,-0.000829306,0.00514371,0.000669898,-0.189902,0.00322909,0.0204627,1133,1716,7.33548,-61.3167
-84,-692,7.4187,61.6812,0.00582961,0.000368547,-0.0010963,0.00604147,0.000156684,-0.190899,0.00397645,0.0252252,1140,1716,7.41866,-61.6812
-77,-692,7.38538,62.0903,0.00661609,-0.000302636,-0.00135687,0.00687267,-0.000559225,-0.186896,0.00477911,0.0199504,1147,1716,7.38533,-62.0903
-70,-692,7.46277,62.4897,0.00699349,-0.00107185,-0.00182535,0.00738737,-0.00146572,-0.212524,0.00547923,0.0368286,1154,1716,7.46275,-62.4897
-63,-692,7.54065,62.6823,0,0,0,0,0,0,0,-1,1161,1716,7.54062,-62.6822
-56,-692,7.52991,62.9696,0,0,0,0,0,0,0,-1,1168,1716,7.52995,-62.9696
-49,-692,7.54443,63.3534,0,0,0,0,0,0,0,-1,1175,1716,7.54444,-63.3534
-42,-692,7.54871,63.8269,0,0,0,0,0,0,0,-1,1182,1716,7.54874,-63.8269
-35,-692,7.73779,64.0662,0,0,0,0,0,0,0,-1,1189,1716,7.73781,-64.0661
-28,-692,7.81567,63.8712,0,0,0,0,0,0,0,-1,1196,1716,7.81569,-63.8712
-21,-692,7.91296,64.1014,0.00975994,0.018692,-0.00795444,0.0233484,0.00510355,-1.04119,0.0141741,0.0377656,1203,1716,7.91293,-64.1015
-14,-692,7.99963,64.2906,0.00945748,0.018835,-0.00862063,0.0239595,0.00433301,-1.03447,0.0147425,0.0191131,1210,1716,7.99967,-64.2906
-7,-692,8.03894,64.4825,0.00898439,0.0188596,-0.00910889,0.0242831,0.00356092,-1.03376,0.0151419,0.017556,1217,1716,8.03889,-64.4826
0,-692,8.0614,64.6337,0.00881138,0.0188079,-0.0086535,0.0238029,0.00381637,-1.04729,0.0147619,0.0246344,1224,1716,8.06142,-64.6337
7,-692,8.2074,64.726,0.00860924,0.0188449,-0.0075766,0.0228703,0.00458394,-1.08244,0.0139718,0.0331189,1231,1716,8.20735,-64.726
14,-692,8.34399,65.0487,0.00949443,0.0190346,-0.00522915,0.0213425,0.00718654,-1.15516,0.0125392,0.0354158,1238,1716,8.34403,-65.0488
21,-692,8.49121,65.194,0.0116774,0.019294,-0.00222452,0.0198961,0.0110753,-1.30646,0.0115116,0.0345286,1245,1716,8.49122,-65.194
28,-692,8.55603,65.1344,0.0146179,0.0188056,0.00110342,0.0190786,0.014345,1.3283,0.0114715,0.0344587,1252,1716,8.55602,-65.1344
35,-692,8.61694,65.254,0.0182029,0.0179979,0.00454115,0.0226427,0.0135581,0.774114,0.0131575,0.0309587,1259,1716,8.61695,-65.254
42,-692,8.75342,65.3739,0.0217551,0.0171626,0.00820499,0.0279791,0.0109386,0.648961,0.0162813,0.0306634,1266,1716,8.75345,-65.3739
49,-692,8.8667,65.3705,0.0233362,0.0148964,0.0106226,0.0305464,0.00768617,0.59633,0.018347,0.0423906,1273,1716,8.86671,-65.3705
56,-692,8.98401,65.4276,0,0,0,0,0,0,0,-1,1280,1716,8.98404,-65.4276
63,-692,9.00134,65.3248,0,0,0,0,0,0,0,-1,1287,1716,9.00139,-65.3248
70,-692,9.03394,65.4117,0,0,0,0,0,0,0,-1,1294,1716,9.03396,-65.4118
77,-692,9.1886,65.3893,0,0,0,0,0,0,0,-1,1301,1716,9.18865,-65.3893
84,-692,9.26526,65.2623,0,0,0,0,0,0,0,-1,1308,1716,9.2653,-65.2623
91,-692,9.38794,65.132,0,0,0,0,0,0,0,-1,1315,1716,9.38791,-65.132
98,-692,9.5741,64.8973,0.0223751,-0.00508419,0.000417972,0.0223814,-0.00509055,0.0152169,0.0168757,0.0380453,1322,1716,9.57405,-64.8973
105,-692,9.5946,64.8293,0.0218708,-0.00713807,-0.00450147,0.0225533,-0.00782054,-0.150463,0.018211,0.0473172,1329,1716,9.59457,-64.8293
112,-692,9.67151,64.7374,0.0228815,-0.00837844,-0.00949718,0.0255407,-0.0110376,-0.273004,0.0216647,0.0494889,1336,1716,9.67153,-64.7374
119,-692,9.63855,64.5587,0.0250005,-0.00876691,-0.0144343,0.0303296,-0.014096,-0.353672,0.0262137,0.0434275,1343,1716,9.63859,-64.5588
126,-692,9.78198,64.349,0.0281649,-0.00812284,-0.0187228,0.0360929,-0.0160509,-0.400551,0.0308376,0.0455473,1350,1716,9.78198,-64.349
133,-692,9.91614,64.2373,0.032085,-0.00626573,-0.022238,0.0422733,-0.016454,-0.429609,0.0349815,0.034436,1357,1716,9.91618,-64.2373
140,-692,9.85779,64.2179,0.0358635,-0.00407908,-0.0251009,0.0479688,-0.0161843,-0.449359,0.0385243,0.0360459,1364,1716,9.85774,-64.2179
147,-692,9.78296,64.2177,0,0,0,0,0,0,0,-1,1371,1716,9.78296,-64.2176
154,-692,9.92883,56.0276,0,0,0,0,0,0,0,-1,1378,1716,9.92887,-56.0276
161,-692,9.96655,63.5928,0,0,0,0,0,0,0,-1,1385,1716,9.96652,-63.5927
168,-692,10.2905,63.5226,0,0,0,0,0,0,0,-1,1392,1716,10.2905,-63.5226
175,-692,10.4106,63.1792,0,0,0,0,0,0,0,-1,1399,1716,10.4106,-63.1792
182,-692,10.3967,62.8541,0,0,0,0,0,0,0,-1,1406,1716,10.3967,-62.8541
189,-692,10.538,62.6035,0,0,0,0,0,0,0,-1,1413,1716,10.538,-62.6035
196,-692,10.2535,62.1598,0.0190495,0.00222131,-0.00891986,0.0228976,-0.00162677,-0.407284,0.0158352,0.0395052,1420,1716,10.2536,-62.1598
203,-692,10.3185,61.8263,0.00758885,-0.000997787,0.000573367,0.00762697,-0.0010359,0.0663816,0.00546278,0.0286004,1427,1716,10.3185,-61.8263
210,-692,10.5576,61.5192,0.00687718,-0.00115636,0.000403254,0.00689737,-0.00117655,0.0500287,0.00503645,0.0226386,1434,1716,10.5577,-61.5192
217,-692,10.5597,61.1399,0.00616121,-0.00135322,0.000288837,0.0061723,-0.00136431,0.0383621,0.00463703,0.0187427,1441,1716,10.5597,-61.1399
224,-692,10.5552,60.7679,0.00541918,-0.00127536,0.000186748,0.00542438,-0.00128056,0.0278668,0.00411015,0.0139104,1448,1716,10.5552,-60.7679
231,-692,10.5543,60.3835,0.00469927,-0.00104505,-5.22771e-05,0.00469975,-0.00104553,-0.00909965,0.00353361,0.0126207,1455,1716,10.5543,-60.3836
238,-692,10.58,59.9438,0.00430626,-0.000720762,-0.000398359,0.00433764,-0.000752134,-0.0785898,0.00317233,0.01889,1462,1716,10.58,-59.9439
245,-692,10.5977,59.5002,0.00396603,-0.000281701,-0.000601894,0.00404967,-0.000365341,-0.138077,0.00282944,0.0218816,1469,1716,10.5977,-59.5002
252,-692,10.62,59.0798,0.00354088,0.000454481,-0.000698462,0.00369158,0.000303776,-0.21251,0.00236631,0.0201443,1476,1716,10.62,-59.0798
259,-692,10.6044,58.6971,0.00300395,0.00092371,-0.000856717,0.00331135,0.000616308,-0.344505,0.0020335,0.0109979,1483,1716,10.6044,-58.6971
266,-692,10.5966,58.2468,0.00250318,0.00124771,-0.00109149,0.00313457,0.000616322,-0.524435,0.00191758,0.0112175,1490,1716,10.5966,-58.2468
273,-692,10.5983,57.7573,0.00205475,0.00154842,-0.00124313,0.00307023,0.000532938,-0.684947,0.00189433,0.0166425,1497,1716,10.5983,-57.7573
280,-692,10.5944,57.2543,0.00148785,0.00177178,-0.00135759,0.00299482,0.000264822,-0.837494,0.00191438,0.0157422,1504,1716,10.5943,-57.2542
287,-692,10.5844,56.7845,0.000840965,0.00197865,-0.00143317,0.00295174,-0.000132122,-0.97432,0.00201331,0.0115042,1511,1716,10.5844,-56.7845
294,-692,10.5665,56.2916,0.000154877,0.00232599,-0.00143802,0.00304219,-0.000561324,-1.10871,0.00223882,0.0106074,1518,1716,10.5665,-56.2917
301,-692,10.564,55.7871,-0.000426783,0.00261657,-0.00161914,0.00331685,-0.00112707,-1.16259,0.00266751,0.0149424,1525,1716,10.5639,-55.7871
308,-692,10.5457,55.293,-0.000954764,0.00329254,-0.00212607,0.00417389,-0.00183612,-1.17781,0.00355631,0.0182096,1532,1716,10.5456,-55.2929
315,-692,10.5532,54.7476,-0.00145287,0.00445601,-0.00277542,0.00555517,-0.00255203,-1.19371,0.00478654,0.0155675,1539,1716,10.5533,-54.7476
322,-692,10.4436,54.1486,-0.00183413,0.00548047,-0.00333618,0.00677352,-0.00312718,-1.20104,0.00584397,0.0194747,1546,1716,10.4436,-54.1486
329,-692,10.3826,53.5768,-0.00214678,0.00655549,-0.00397812,0.00809993,-0.00369122,-1.20047,0.00696444,0.0187186,1553,1716,10.3825,-53.5768
336,-692,10.3805,53.0299,-0.00227471,0.00772086,-0.00473649,0.00960873,-0.00416258,-1.19152,0.00815548,0.0138155,1560,1716,10.3805,-53.0299
343,-692,10.3715,52.4889,-0.00219429,0.00878618,-0.00567862,0.0111946,-0.00460275,-1.16966,0.00938158,0.0142486,1567,1716,10.3715,-52.4889
350,-692,10.3544,51.9215,-0.001922,0.00977709,-0.00673467,0.0128479,-0.00499282,-1.14299,0.0106279,0.0170846,1574,1716,10.3543,-51.9215
357,-692,10.2944,51.2809,-0.00143988,0.010709,-0.00780936,0.0145283,-0.00525912,-1.11594,0.0118347,0.0246833,1581,1716,10.2945,-51.2808
364,-692,10.2054,50.5525,-0.00100356,0.0112029,-0.00872693,0.015749,-0.00554968,-1.09054,0.0127581,0.0310119,1588,1716,10.2055,-50.5525
371,-692,10.2793,50.0597,-0.000407155,0.0113968,-0.00965062,0.0168071,-0.00581747,-1.05984,0.0135662,0.0408965,1595,1716,10.2793,-50.0597
378,-692,10.2559,49.5217,0.000411161,0.0110603,-0.0105098,0.0175174,-0.00604594,-1.01987,0.0141314,0.0485993,1602,1716,10.2559,-49.5218
385,-692,10.0903,49.0023,0,0,0,0,0,0,0,-1,1609,1716,10.0903,-49.0023
392,-692,10.363,48.4207,0,0,0,0,0,0,0,-1,1616,1716,10.3631,-48.4206
399,-692,10.4543,47.7776,0,0,0,0,0,0,0,-1,1623,1716,10.4544,-47.7775
406,-692,11.3221,42.7773,0,0,0,0,0,0,0,-1,1630,1716,11.3222,-42.7773
413,-692,11.4845,42.9004,0,0,0,0,0,0,0,-1,1637,1716,11.4845,-42.9004
420,-692,9.65894,40.2512,0,0,0,0,0,0,0,-1,1644,1716,9.65889,-40.2513
427,-692,3.79578,8.60339,0,0,0,0,0,0,0,-1,1651,1716,3.79577,-8.6034
434,-692,4.78516,8.64636,0,0,0,0,0,0,0,-1,1658,1716,4.78512,-8.64634
441,-692,5.8208,8.74036,0,0,0,0,0,0,0,-1,1665,1716,5.82084,-8.7404
448,-692,6.73792,8.51013,0,0,0,0,0,0,0,-1,1672,1716,6.73793,-8.5101
455,-692,0,0,0,0,0,0,0,0,0,-1,1679,1716,0,0
462,-692,0,0,0,0,0,0,0,0,0,-1,1686,1716,0,0
469,-692,0,0,0,0,0,0,0,0,0,-1,1693,1716,0,0
476,-692,0,0,0,0,0,0,0,0,0,-1,1700,1716,0,0
483,-692,0,0,0,0,0,0,0,0,0,-1,1707,1716,0,0
490,-692,0,0,0,0,0,0,0,0,0,-1,1714,1716,0,0
497,-692,0,0,0,0,0,0,0,0,0,-1,1721,1716,0,0
504,-692,0,0,0,0,0,0,0,0,0,-1,1728,1716,0,0
511,-692,0,0,0,0,0,0,0,0,0,-1,1735,1716,0,0
518,-692,0,0,0,0,0,0,0,0,0,-1,1742,1716,0,0
525,-692,0,0,0,0,0,0,0,0,0,-1,1749,1716,0,0
532,-692,0,0,0,0,0,0,0,0,0,-1,1756,1716,0,0
539,-692,0,0,0,0,0,0,0,0,0,-1,1763,1716,0,0
546,-692,0,0,0,0,0,0,0,0,0,-1,1770,1716,0,0
553,-692,0,0,0,0,0,0,0,0,0,-1,1777,1716,0,0
560,-692,0,0,0,0,0,0,0,0,0,-1,1784,1716,0,0
567,-692,0,0,0,0,0,0,0,0,0,-1,1791,1716,0,0
574,-692,0,0,0,0,0,0,0,0,0,-1,1798,1716,0,0
581,-692,0,0,0,0,0,0,0,0,0,-1,1805,1716,0,0
588,-692,0,0,0,0,0,0,0,0,0,-1,1812,1716,0,0
595,-692,0,0,0,0,0,0,0,0,0,-1,1819,1716,0,0
602,-692,0,0,0,0,0,0,0,0,0,-1,1826,1716,0,0
609,-692,0,0,0,0,0,0,0,0,0,-1,1833,1716,0,0
616,-692,0,0,0,0,0,0,0,0,0,-1,1840,1716,0,0
623,-692,0,0,0,0,0,0,0,0,0,-1,1847,1716,0,0
630,-692,0,0,0,0,0,0,0,0,0,-1,1854,1716,0,0
637,-692,0,0,0,0,0,0,0,0,0,-1,1861,1716,0,0
644,-692,0,0,0,0,0,0,0,0,0,-1,1868,1716,0,0
651,-692,0,0,0,0,0,0,0,0,0,-1,1875,1716,0,0
658,-692,0,0,0,0,0,0,0,0,0,-1,1882,1716,0,0
665,-692,0,0,0,0,0,0,0,0,0,-1,1889,1716,0,0
672,-692,0,0,0,0,0,0,0,0,0,-1,1896,1716,0,0
679,-692,0,0,0,0,0,0,0,0,0,-1,1903,1716,0,0
686,-692,0,0,0,0,0,0,0,0,0,-1,1910,1716,0,0
693,-692,0,0,0,0,0,0,0,0,0,-1,1917,1716,0,0
700,-692,0,0,0,0,0,0,0,0,0,-1,1924,1716,0,0
707,-692,0,0,0,0,0,0,0,0,0,-1,1931,1716,0,0
714,-692,0,0,0,0,0,0,0,0,0,-1,1938,1716,0,0
721,-692,0,0,0,0,0,0,0,0,0,-1,1945,1716,0,0
728,-692,0,0,0,0,0,0,0,0,0,-1,1952,1716,0,0
735,-692,0,0,0,0,0,0,0,0,0,-1,1959,1716,0,0
742,-692,0,0,0,0,0,0,0,0,0,-1,1966,1716,0,0
749,-692,0,0,0,0,0,0,0,0,0,-1,1973,1716,0,0
756,-692,0,0,0,0,0,0,0,0,0,-1,1980,1716,0,0
763,-692,0,0,0,0,0,0,0,0,0,-1,1987,1716,0,0
770,-692,0,0,0,0,0,0,0,0,0,-1,1994,1716,0,0
777,-692,0,0,0,0,0,0,0,0,0,-1,2001,1716,0,0
784,-692,0,0,0,0,0,0,0,0,0,-1,2008,1716,0,0
791,-692,0,0,0,0,0,0,0,0,0,-1,2015,1716,0,0
798,-692,0,0,0,0,0,0,0,0,0,-1,2022,1716,0,0
805,-692,0,0,0,0,0,0,0,0,0,-1,2029,1716,0,0
812,-692,0,0,0,0,0,0,0,0,0,-1,2036,1716,0,0
-700,-699,0,0,0,0,0,0,0,0,0,-1,524,1723,0,0
-693,-699,0,0,0,0,0,0,0,0,0,-1,531,1723,0,0
-686,-699,0,0,0,0,0,0,0,0,0,-1,538,1723,0,0
-679,-699,0,0,0,0,0,0,0,0,0,-1,545,1723,0,0
-672,-699,0,0,0,0,0,0,0,0,0,-1,552,1723,0,0
-665,-699,0,0,0,0,0,0,0,0,0,-1,559,1723,0,0
-658,-699,0,0,0,0,0,0,0,0,0,-1,566,1723,0,0
-651,-699,0,0,0,0,0,0,0,0,0,-1,573,1723,0,0
-644,-699,0,0,0,0,0,0,0,0,0,-1,580,1723,0,0
-637,-699,0,0,0,0,0,0,0,0,0,-1,587,1723,0,0
-630,-699,0,0,0,0,0,0,0,0,0,-1,594,1723,0,0
-623,-699,0,0,0,0,0,0,0,0,0,-1,601,1723,0,0
-616,-699,0,0,0,0,0,0,0,0,0,-1,608,1723,0,0
-609,-699,0,0,0,0,0,0,0,0,0,-1,615,1723,0,0
-602,-699,0,0,0,0,0,0,0,0,0,-1,622,1723,0,0
-595,-699,0,0,0,0,0,0,0,0,0,-1,629,1723,0,0
-588,-699,0,0,0,0,0,0,0,0,0,-1,636,1723,0,0
-581,-699,0,0,0,0,0,0,0,0,0,-1,643,1723,0,0
-574,-699,0,0,0,0,0,0,0,0,0,-1,650,1723,0,0
-567,-699,0,0,0,0,0,0,0,0,0,-1,657,1723,0,0
-560,-699,0,0,0,0,0,0,0,0,0,-1,664,1723,0,0
-553,-699,0,0,0,0,0,0,0,0,0,-1,671,1723,0,0
-546,-699,0,0,0,0,0,0,0,0,0,-1,678,1723,0,0
-539,-699,0,0,0,0,0,0,0,0,0,-1,685,1723,0,0
-532,-699,0,0,0,0,0,0,0,0,0,-1,692,1723,0,0
-525,-699,0,0,0,0,0,0,0,0,0,-1,699,1723,0,0
-518,-699,0,0,0,0,0,0,0,0,0,-1,706,1723,0,0
-511,-699,0,0,0,0,0,0,0,0,0,-1,713,1723,0,0
-504,-699,0,0,0,0,0,0,0,0,0,-1,720,1723,0,0
-497,-699,0,0,0,0,0,0,0,0,0,-1,727,1723,0,0
-490,-699,0,0,0,0,0,0,0,0,0,-1,734,1723,0,0
-483,-699,0,0,0,0,0,0,0,0,0,-1,741,1723,0,0
-476,-699,0,0,0,0,0,0,0,0,0,-1,748,1723,0,0
-469,-699,0,0,0,0,0,0,0,0,0,-1,755,1723,0,0
-462,-699,0,0,0,0,0,0,0,0,0,-1,762,1723,0,0
-455,-699,0,0,0,0,0,0,0,0,0,-1,769,1723,0,0
-448,-699,0,0,0,0,0,0,0,0,0,-1,776,1723,0,0
-441,-699,0,0,0,0,0,0,0,0,0,-1,783,1723,0,0
-434,-699,0,0,0,0,0,0,0,0,0,-1,790,1723,0,0
-427,-699,0,0,0,0,0,0,0,0,0,-1,797,1723,0,0
-420,-699,0,0,0,0,0,0,0,0,0,-1,804,1723,0,0
-413,-699,0,0,0,0,0,0,0,0,0,-1,811,1723,0,0
-406,-699,0,0,0,0,0,0,0,0,0,-1,818,1723,0,0
-399,-699,0,0,0,0,0,0,0,0,0,-1,825,1723,0,0
-392,-699,0,0,0,0,0,0,0,0,0,-1,832,1723,0,0
-385,-699,0,0,0,0,0,0,0,0,0,-1,839,1723,0,0
-378,-699,0,0,0,0,0,0,0,0,0,-1,846,1723,0,0
-371,-699,0,0,0,0,0,0,0,0,0,-1,853,1723,0,0
-364,-699,0,0,0,0,0,0,0,0,0,-1,860,1723,0,0
-357,-699,0,0,0,0,0,0,0,0,0,-1,867,1723,0,0
-350,-699,0,0,0,0,0,0,0,0,0,-1,874,1723,0,0
-343,-699,0,0,0,0,0,0,0,0,0,-1,881,1723,0,0
-336,-699,0,0,0,0,0,0,0,0,0,-1,888,1723,0,0
-329,-699,0,0,0,0,0,0,0,0,0,-1,895,1723,0,0
-322,-699,0,0,0,0,0,0,0,0,0,-1,902,1723,0,0
-315,-699,6.20001,19.5193,0,0,0,0,0,0,0,-1,909,1723,6.20001,-19.5193
-308,-699,6.98151,18.9218,0,0,0,0,0,0,0,-1,916,1723,6.98151,-18.9217
-301,-699,4.72729,12.8752,0,0,0,0,0,0,0,-1,923,1723,4.72732,-12.8752
-294,-699,6.90332,19.8601,0,0,0,0,0,0,0,-1,930,1723,6.90332,-19.8601
-287,-699,9.0968,36.3315,0,0,0,0,0,0,0,-1,937,1723,9.09678,-36.3315
-280,-699,9.53729,45.2391,0,0,0,0,0,0,0,-1,944,1723,9.53728,-45.2391
-273,-699,8.216,48.0923,0,0,0,0,0,0,0,-1,951,1723,8.21601,-48.0923
-266,-699,6.81915,20.8951,0,0,0,0,0,0,0,-1,958,1723,6.81914,-20.8952
-259,-699,5.39758,14.5466,0,0,0,0,0,0,0,-1,965,1723,5.39759,-14.5466
-252,-699,8.3866,31.6284,0,0,0,0,0,0,0,-1,972,1723,8.38657,-31.6284
-245,-699,9.48035,47.8151,0,0,0,0,0,0,0,-1,979,1723,9.48037,-47.815
-238,-699,8.7066,50.9199,0,0,0,0,0,0,0,-1,986,1723,8.70659,-50.9199
-231,-699,8.39905,51.5554,-0.00645886,-0.00444438,0.00117817,-0.00390158,-0.00700166,1.13907,0.00405123,0.044833,993,1723,8.39905,-51.5554
-224,-699,7.83221,52.2214,-0.00416062,-0.00236606,0.00261301,-0.000500566,-0.00602612,0.950785,0.00386139,0.0370664,1000,1723,7.83223,-52.2214
-217,-699,7.979,52.646,-0.00331802,-0.00215106,0.00314094,0.000460137,-0.00592922,0.877234,0.00411478,0.0267474,1007,1723,7.97902,-52.646
-210,-699,8.03601,53.1371,-0.00296867,-0.00131441,0.00338536,0.0013434,-0.00562648,0.905214,0.00426982,0.0205742,1014,1723,8.03603,-53.1371
-203,-699,8.0791,53.7333,-0.00245951,-0.000409827,0.0034045,0.00212074,-0.00499008,0.931596,0.00421537,0.0259499,1021,1723,8.07908,-53.7332
-196,-699,7.99731,54.3849,-0.0021508,0.00022635,0.00329177,0.00253756,-0.00446201,0.958652,0.0040918,0.0196307,1028,1723,7.99727,-54.3849
-189,-699,7.91504,54.921,-0.00181481,0.000969185,0.00323661,0.00310044,-0.00394606,0.988481,0.00407805,0.0100769,1035,1723,7.915,-54.921
-182,-699,7.86731,55.4734,-0.00144761,0.00142442,0.00310513,0.00340951,-0.0034327,1.00198,0.00395036,0.0138754,1042,1723,7.86728,-55.4734
-175,-699,7.84058,56.0421,-0.00082947,0.00175576,0.00287562,0.00361593,-0.00268964,0.996621,0.00365359,0.015366,1049,1723,7.84063,-56.0421
-168,-699,7.83032,56.5275,-0.000748059,0.00221362,0.00255491,0.00368581,-0.00222026,1.04804,0.00344469,0.0169482,1056,1723,7.83033,-56.5275
-161,-699,7.81506,57.0175,-0.000787047,0.002465,0.00235708,0.00370251,-0.00202455,1.08734,0.00335349,0.0151422,1063,1723,7.81506,-57.0174
-154,-699,7.77722,57.5382,-0.000536318,0.00248962,0.0021445,0.00360114,-0.00164784,1.09261,0.00309965,0.0136584,1070,1723,7.77727,-57.5382
-147,-699,7.71899,58.0033,-9.34483e-05,0.00251704,0.00180878,0.00344234,-0.00101875,1.09794,0.00269934,0.0155939,1077,1723,7.71903,-58.0033
-140,-699,7.68115,58.4491,0.000403001,0.00237569,0.00151913,0.00320059,-0.000421904,1.07333,0.00228737,0.0114378,1084,1723,7.68116,-58.4491
-133,-699,7.68127,58.9255,0.000847597,0.00222707,0.00123845,0.00295489,0.000119771,1.03947,0.00193124,0.00988073,1091,1723,7.68127,-58.9256
-126,-699,7.68347,59.3665,0.00123311,0.00210577,0.000976118,0.00273864,0.000600242,0.995577,0.00166221,0.0119732,1098,1723,7.6835,-59.3665
-119,-699,7.69006,59.8022,0.00166898,0.00199449,0.000793729,0.00264198,0.00102149,0.886523,0.00153836,0.0181075,1105,1723,7.69004,-59.8022
-112,-699,7.66797,60.2225,0.00212639,0.00181686,0.000631195,0.00262152,0.00132174,0.665172,0.00151355,0.0124623,1112,1723,7.66795,-60.2225
-105,-699,7.67017,60.6362,0.0025331,0.00148621,0.000420428,0.00268104,0.00133827,0.338342,0.0015479,0.0132646,1119,1723,7.67013,-60.6363
-98,-699,7.71265,60.9988,0.00293234,0.00114024,0.000197727,0.0029539,0.00111869,0.108593,0.00172208,0.0161455,1126,1723,7.7126,-60.9987
-91,-699,7.73779,61.3431,0.00338731,0.000796618,-0.000137178,0.00339455,0.000789374,-0.0527536,0.00205118,0.0236554,1133,1723,7.73782,-61.3432
-84,-699,7.79443,61.7365,0.00399602,0.000501103,-0.000384417,0.0040378,0.000459319,-0.108269,0.00255257,0.0291026,1140,1723,7.79442,-61.7365
-77,-699,7.76758,62.0726,0.00456511,0.000139047,-0.000622593,0.00465102,5.31373e-05,-0.137121,0.00308312,0.0189347,1147,1723,7.76759,-62.0726
-70,-699,7.77979,62.3949,0.00494525,-0.000338481,-0.000946281,0.00510961,-0.000502841,-0.171975,0.00358579,0.0190133,1154,1723,7.77975,-62.3949
-63,-699,7.8175,62.7505,0.00566274,0.000789906,-0.00132627,0.00600033,0.000452316,-0.249248,0.0038583,0.0165389,1161,1723,7.81756,-62.7505
-56,-699,7.8114,63.0342,0.00648253,0.00249008,-0.00194878,0.00727604,0.00169656,-0.386686,0.0043957,0.0122318,1168,1723,7.81137,-63.0341
-49,-699,7.83118,63.3564,0.00778264,0.00491162,-0.00224822,0.00901456,0.0036797,-0.501271,0.00523372,0.0269938,1175,1723,7.83114,-63.3564
-42,-699,7.8407,63.6704,0.00857572,0.00676927,-0.00290439,0.0107141,0.0046309,-0.634646,0.0062047,0.0298546,1182,1723,7.84071,-63.6704
-35,-699,7.94238,63.9084,0.00911164,0.00865996,-0.00369831,0.012591,0.0051806,-0.754903,0.00730731,0.025553,1189,1723,7.94243,-63.9084
-28,-699,8.06726,64.0721,0.00922604,0.00950844,-0.00475146,0.0141208,0.00461368,-0.800253,0.00831422,0.021331,1196,1723,8.06722,-64.0722
-21,-699,8.08362,64.191,0.00898091,0.0102252,-0.0056079,0.0152454,0.00396074,-0.840642,0.00913419,0.0153581,1203,1723,8.08358,-64.191
-14,-699,8.1239,64.4058,0.00902121,0.0104929,-0.00617517,0.0159759,0.00353822,-0.844701,0.00968901,0.0135397,1210,1723,8.12392,-64.4057
-7,-699,8.18396,64.6184,0.00892429,0.0106947,-0.00658355,0.0164523,0.00316672,-0.852228,0.0100798,0.00999202,1217,1723,8.184,-64.6184
0,-699,8.27185,64.7721,0.00899516,0.0108697,-0.00624516,0.0162476,0.00361735,-0.859884,0.00984988,0.0139468,1224,1723,8.27184,-64.7721
7,-699,8.40149,64.8311,0.00901126,0.0110818,-0.0054495,0.0155935,0.00449958,-0.879269,0.00926737,0.0236816,1231,1723,8.40147,-64.831
14,-699,8.47375,65.0059,0.00960022,0.0113832,-0.00387118,0.0144642,0.00651921,-0.89857,0.00836443,0.0234062,1238,1723,8.4738,-65.0059
21,-699,8.45349,65.1117,0.0109403,0.0118377,-0.00182976,0.0132729,0.00950499,-0.905639,0.00789815,0.0195325,1245,1723,8.45343,-65.1117
28,-699,8.53625,65.1744,0.0128929,0.0117023,0.000533545,0.013097,0.0114982,0.365382,0.00825021,0.0180516,1252,1723,8.53621,-65.1744
35,-699,8.6344,65.2975,0.015198,0.011447,0.00297289,0.0168376,0.00980747,0.503996,0.00976516,0.0151788,1259,1723,8.63445,-65.2974
42,-699,8.70959,65.3622,0.0174687,0.0112061,0.00559799,0.0207517,0.00792318,0.530397,0.012092,0.0147042,1266,1723,8.70965,-65.3622
49,-699,8.78223,65.4115,0.018263,0.00987564,0.00750478,0.0226664,0.00547231,0.530609,0.0136573,0.0184011,1273,1723,8.78219,-65.4115
56,-699,8.89063,65.4451,0.0185321,0.00786906,0.00874721,0.0234445,0.00295661,0.511707,0.0147433,0.0184452,1280,1723,8.89059,-65.4451
63,-699,8.96387,65.3887,0.0185565,0.00574057,0.00939681,0.0235223,0.000774791,0.486151,0.0154297,0.0158129,1287,1723,8.96384,-65.3887
70,-699,9.01501,65.407,0.0182995,0.0032809,0.00930424,0.0227467,-0.00116632,0.445876,0.0155678,0.0132349,1294,1723,9.01505,-65.4069
77,-699,9.10132,65.3855,0.0175276,0.000993686,0.00865772,0.0212314,-0.0027101,0.404241,0.0151387,0.013475,1301,1723,9.10138,-65.3855
84,-699,9.19434,65.3215,0.0166792,-0.00164546,0.00692351,0.0190009,-0.00396718,0.323553,0.0141759,0.0173832,1308,1723,9.19431,-65.3216
91,-699,9.27686,65.2418,0.0153989,-0.00365964,0.00393277,0.0161786,-0.00443928,0.195705,0.0125304,0.0167229,1315,1723,9.27691,-65.2418
98,-699,9.32764,65.1332,0.0147359,-0.00545674,0.000494817,0.014748,-0.00546886,0.0244853,0.0120751,0.014053,1322,1723,9.32762,-65.1331
105,-699,9.39502,65.0604,0.0140945,-0.00724859,-0.00284216,0.0144665,-0.00762058,-0.130144,0.0129546,0.0178736,1329,1723,9.39507,-65.0604
112,-699,9.47815,64.9777,0.0145553,-0.00841623,-0.00616507,0.0161053,-0.00996622,-0.246309,0.0151909,0.0248673,1336,1723,9.47814,-64.9777
119,-699,9.47742,64.8234,0.0158137,-0.00890299,-0.00933665,0.0189441,-0.0120334,-0.323504,0.0180326,0.0188896,1343,1723,9.47745,-64.8234
126,-699,9.5813,64.662,0.0177905,-0.00864855,-0.0120285,0.0224439,-0.0133019,-0.369131,0.0208616,0.018911,1350,1723,9.58128,-64.662
133,-699,9.70789,64.5084,0.0202143,-0.00734662,-0.0142243,0.0262387,-0.013371,-0.400624,0.0232675,0.0174613,1357,1723,9.70794,-64.5085
140,-699,9.74561,64.3121,0.0226218,-0.00566215,-0.0158026,0.0296864,-0.0127267,-0.420399,0.0251313,0.0193828,1364,1723,9.74563,-64.3122
147,-699,9.79517,64.1604,0,0,0,0,0,0,0,-1,1371,1723,9.79513,-64.1604
154,-699,9.52905,63.8983,0,0,0,0,0,0,0,-1,1378,1723,9.52903,-63.8983
161,-699,9.87915,63.6862,0.0278086,-0.00121021,-0.0169187,0.0355875,-0.00898907,-0.430955,0.0272207,0.0305495,1385,1723,9.87921,-63.6861
168,-699,9.98486,63.4437,0.027644,0.000198734,-0.0159328,0.0349491,-0.00710633,-0.429894,0.025994,0.012423,1392,1723,9.98488,-63.4437
175,-699,10.0175,63.1886,0.0258443,0.00136127,-0.0141152,0.0322868,-0.00508126,-0.428185,0.0234029,0.0168656,1399,1723,10.0175,-63.1886
182,-699,10.0715,62.8871,0.0221247,0.00180511,-0.0117836,0.0275236,-0.00359386,-0.429633,0.0196569,0.0181348,1406,1723,10.0716,-62.8871
189,-699,10.0536,62.5529,0.0169961,0.00226229,-0.00853767,0.0209058,-0.00164747,-0.429439,0.0145176,0.0186616,1413,1723,10.0536,-62.5529
196,-699,10.0463,62.1667,0.0110415,0.00132555,-0.00406843,0.0125201,-0.000153047,-0.34859,0.00839819,0.0215666,1420,1723,10.0463,-62.1668
203,-699,10.0828,61.8542,0.00539733,-0.000186596,9.10275e-05,0.00539882,-0.00018808,0.0162959,0.00366351,0.016862,1427,1723,10.0828,-61.8542
210,-699,10.1588,61.5669,0.00481661,-0.00018467,-8.52969e-05,0.00481806,-0.000186124,-0.0170484,0.00327584,0.0149788,1434,1723,10.1588,-61.5669
217,-699,10.166,61.2008,0.00421531,-0.00016815,-0.000217992,0.00422612,-0.000178964,-0.0495676,0.00287892,0.0150797,1441,1723,10.166,-61.2008
224,-699,10.1532,60.796,0.00361991,3.6381e-05,-0.000384802,0.00366076,-4.47372e-06,-0.105774,0.002442,0.0156637,1448,1723,10.1531,-60.796
231,-699,10.1682,60.3929,0.00303612,0.000347906,-0.000611407,0.00316865,0.000215381,-0.213452,0.00204442,0.0124263,1455,1723,10.1682,-60.3929
238,-699,10.158,59.9686,0.00261776,0.000733673,-0.000873558,0.00296046,0.00039098,-0.373847,0.00185708,0.0108733,1462,1723,10.158,-59.9687
245,-699,10.1664,59.558,0.00222118,0.00115657,-0.00105271,0.00286852,0.000509234,-0.55132,0.00176723,0.01277,1469,1723,10.1664,-59.558
252,-699,10.1554,59.1541,0.00175559,0.00163973,-0.0011321,0.00283124,0.000564082,-0.759836,0.00173039,0.0115308,1476,1723,10.1554,-59.154
259,-699,10.1191,58.7202,0.00126077,0.00197729,-0.00127089,0.00293945,0.000298615,-0.922781,0.00186807,0.0119325,1483,1723,10.1191,-58.7202
266,-699,10.1091,58.2513,0.000781211,0.00220301,-0.0014724,0.00312714,-0.000142921,-1.0103,0.002134,0.0141075,1490,1723,10.1091,-58.2514
273,-699,10.1106,57.7644,0.000291841,0.00249309,-0.00163373,0.00336236,-0.000577422,-1.08182,0.00245677,0.0132399,1497,1723,10.1106,-57.7644
280,-699,10.1207,57.2722,-0.000308269,0.0026986,-0.00175924,0.0035093,-0.00111897,-1.13898,0.0027884,0.0130549,1504,1723,10.1208,-57.2722
287,-699,10.0927,56.7788,-0.000988413,0.00293455,-0.00185658,0.00367386,-0.00172773,-1.19183,0.00318536,0.0112149,1511,1723,10.0926,-56.7788
294,-699,10.077,56.2856,-0.00171856,0.00344391,-0.00186654,0.00404807,-0.00232272,-1.25776,0.00372287,0.0121028,1518,1723,10.077,-56.2856
301,-699,10.077,55.8215,-0.00226924,0.00385245,-0.0021185,0.00451407,-0.00293087,-1.26808,0.00433061,0.0138914,1525,1723,10.0771,-55.8215
308,-699,10.0626,55.332,-0.00276626,0.00481964,-0.00279723,0.00573954,-0.00368616,-1.25308,0.0054848,0.0177697,1532,1723,10.0626,-55.332
315,-699,10.0443,54.7603,-0.00324127,0.0064089,-0.00368331,0.00765409,-0.00448646,-1.2448,0.00708843,0.0192842,1539,1723,10.0443,-54.7603
322,-699,9.97083,54.1777,-0.00357561,0.00781083,-0.00444821,0.00934253,-0.0051073,-1.23917,0.00846121,0.0189324,1546,1723,9.97077,-54.1777
329,-699,9.87219,53.6073,-0.00384525,0.00932182,-0.00528719,0.0111821,-0.00570549,-1.23248,0.00991946,0.0155481,1553,1723,9.87218,-53.6073
336,-699,9.83752,53.0693,-0.00386158,0.0109935,-0.00634804,0.0133366,-0.00620471,-1.2172,0.0115299,0.0154746,1560,1723,9.83751,-53.0694
343,-699,9.85193,52.5262,-0.0035794,0.012581,-0.00767335,0.0156439,-0.00664236,-1.19101,0.0132122,0.0242755,1567,1723,9.85196,-52.5262
350,-699,9.89111,51.8929,-0.00306249,0.0141077,-0.00909994,0.0180331,-0.0069879,-1.16355,0.0149077,0.042326,1574,1723,9.89114,-51.893
357,-699,10.0333,50.9668,-0.00231159,0.015422,-0.0105278,0.0203194,-0.00720904,-1.13538,0.0164834,0.0486342,1581,1723,10.0333,-50.9668
364,-699,9.90112,50.1051,-0.0015947,0.0163096,-0.0117883,0.0221597,-0.00744478,-1.11015,0.017782,0.0470755,1588,1723,9.90115,-50.1051
371,-699,9.67969,49.4053,0,0,0,0,0,0,0,-1,1595,1723,9.67966,-49.4053
378,-699,9.59241,49.7355,0,0,0,0,0,0,0,-1,1602,1723,9.59238,-49.7354
385,-699,8.04944,42.8464,0,0,0,0,0,0,0,-1,1609,1723,8.04943,-42.8464
392,-699,8.04492,42.0624,0,0,0,0,0,0,0,-1,1616,1723,8.04492,-42.0623
399,-699,8.49963,41.4828,0,0,0,0,0,0,0,-1,1623,1723,8.49961,-41.4828
406,-699,11.7264,44.1525,0,0,0,0,0,0,0,-1,1630,1723,11.7264,-44.1525
413,-699,12.3215,44.3011,0,0,0,0,0,0,0,-1,1637,1723,12.3215,-44.3011
420,-699,8.41907,38.2246,0,0,0,0,0,0,0,-1,1644,1723,8.41902,-38.2247
427,-699,2.98743,11.8593,0,0,0,0,0,0,0,-1,1651,1723,2.98746,-11.8592
434,-699,4.66455,8.90222,0,0,0,0,0,0,0,-1,1658,1723,4.66456,-8.90223
441,-699,0,0,0,0,0,0,0,0,0,-1,1665,1723,0,0
448,-699,0,0,0,0,0,0,0,0,0,-1,1672,1723,0,0
455,-699,0,0,0,0,0,0,0,0,0,-1,1679,1723,0,0
462,-699,0,0,0,0,0,0,0,0,0,-1,1686,1723,0,0
469,-699,0,0,0,0,0,0,0,0,0,-1,1693,1723,0,0
476,-699,0,0,0,0,0,0,0,0,0,-1,1700,1723,0,0
483,-699,0,0,0,0,0,0,0,0,0,-1,1707,1723,0,0
490,-699,0,0,0,0,0,0,0,0,0,-1,1714,1723,0,0
497,-699,0,0,0,0,0,0,0,0,0,-1,1721,1723,0,0
504,-699,0,0,0,0,0,0,0,0,0,-1,1728,1723,0,0
511,-699,0,0,0,0,0,0,0,0,0,-1,1735,1723,0,0
518,-699,0,0,0,0,0,0,0,0,0,-1,1742,1723,0,0
525,-699,0,0,0,0,0,0,0,0,0,-1,1749,1723,0,0
532,-699,0,0,0,0,0,0,0,0,0,-1,1756,1723,0,0
539,-699,0,0,0,0,0,0,0,0,0,-1,1763,1723,0,0
546,-699,0,0,0,0,0,0,0,0,0,-1,1770,1723,0,0
553,-699,0,0,0,0,0,0,0,0,0,-1,1777,1723,0,0
560,-699,0,0,0,0,0,0,0,0,0,-1,1784,1723,0,0
567,-699,0,0,0,0,0,0,0,0,0,-1,1791,1723,0,0
574,-699,0,0,0,0,0,0,0,0,0,-1,1798,1723,0,0
581,-699,0,0,0,0,0,0,0,0,0,-1,1805,1723,0,0
588,-699,0,0,0,0,0,0,0,0,0,-1,1812,1723,0,0
595,-699,0,0,0,0,0,0,0,0,0,-1,1819,1723,0,0
602,-699,0,0,0,0,0,0,0,0,0,-1,1826,1723,0,0
609,-699,0,0,0,0,0,0,0,0,0,-1,1833,1723,0,0
616,-699,0,0,0,0,0,0,0,0,0,-1,1840,1723,0,0
623,-699,0,0,0,0,0,0,0,0,0,-1,1847,1723,0,0
630,-699,0,0,0,0,0,0,0,0,0,-1,1854,1723,0,0
637,-699,0,0,0,0,0,0,0,0,0,-1,1861,1723,0,0
644,-699,0,0,0,0,0,0,0,0,0,-1,1868,1723,0,0
651,-699,0,0,0,0,0,0,0,0,0,-1,1875,1723,0,0
658,-699,0,0,0,0,0,0,0,0,0,-1,1882,1723,0,0
665,-699,0,0,0,0,0,0,0,0,0,-1,1889,1723,0,0
672,-699,0,0,0,0,0,0,0,0,0,-1,1896,1723,0,0
679,-699,0,0,0,0,0,0,0,0,0,-1,1903,1723,0,0
686,-699,0,0,0,0,0,0,0,0,0,-1,1910,1723,0,0
693,-699,0,0,0,0,0,0,0,0,0,-1,1917,1723,0,0
700,-699,0,0,0,0,0,0,0,0,0,-1,1924,1723,0,0
707,-699,0,0,0,0,0,0,0,0,0,-1,1931,1723,0,0
714,-699,0,0,0,0,0,0,0,0,0,-1,1938,1723,0,0
721,-699,0,0,0,0,0,0,0,0,0,-1,1945,1723,0,0
728,-699,0,0,0,0,0,0,0,0,0,-1,1952,1723,0,0
735,-699,0,0,0,0,0,0,0,0,0,-1,1959,1723,0,0
742,-699,0,0,0,0,0,0,0,0,0,-1,1966,1723,0,0
749,-699,0,0,0,0,0,0,0,0,0,-1,1973,1723,0,0
756,-699,0,0,0,0,0,0,0,0,0,-1,1980,1723,0,0
763,-699,0,0,0,0,0,0,0,0,0,-1,1987,1723,0,0
770,-699,0,0,0,0,0,0,0,0,0,-1,1994,1723,0,0
777,-699,0,0,0,0,0,0,0,0,0,-1,2001,1723,0,0
784,-699,0,0,0,0,0,0,0,0,0,-1,2008,1723,0,0
791,-699,0,0,0,0,0,0,0,0,0,-1,2015,1723,0,0
798,-699,0,0,0,0,0,0,0,0,0,-1,2022,1723,0,0
805,-699,0,0,0,0,0,0,0,0,0,-1,2029,1723,0,0
812,-699,0,0,0,0,0,0,0,0,0,-1,2036,1723,0,0
-700,-706,0,0,0,0,0,0,0,0,0,-1,524,1730,0,0
-693,-706,0,0,0,0,0,0,0,0,0,-1,531,1730,0,0
-686,-706,0,0,0,0,0,0,0,0,0,-1,538,1730,0,0
-679,-706,0,0,0,0,0,0,0,0,0,-1,545,1730,0,0
-672,-706,0,0,0,0,0,0,0,0,0,-1,552,1730,0,0
-665,-706,0,0,0,0,0,0,0,0,0,-1,559,1730,0,0
-658,-706,0,0,0,0,0,0,0,0,0,-1,566,1730,0,0
-651,-706,0,0,0,0,0,0,0,0,0,-1,573,1730,0,0
-644,-706,0,0,0,0,0,0,0,0,0,-1,580,1730,0,0
-637,-706,0,0,0,0,0,0,0,0,0,-1,587,1730,0,0
-630,-706,0,0,0,0,0,0,0,0,0,-1,594,1730,0,0
-623,-706,0,0,0,0,0,0,0,0,0,-1,601,1730,0,0
-616,-706,0,0,0,0,0,0,0,0,0,-1,608,1730,0,0
-609,-706,0,0,0,0,0,0,0,0,0,-1,615,1730,0,0
-602,-706,0,0,0,0,0,0,0,0,0,-1,622,1730,0,0
-595,-706,0,0,0,0,0,0,0,0,0,-1,629,1730,0,0
-588,-706,0,0,0,0,0,0,0,0,0,-1,636,1730,0,0
-581,-706,0,0,0,0,0,0,0,0,0,-1,643,1730,0,0
-574,-706,0,0,0,0,0,0,0,0,0,-1,650,1730,0,0
-567,-706,0,0,0,0,0,0,0,0,0,-1,657,1730,0,0
-560,-706,0,0,0,0,0,0,0,0,0,-1,664,1730,0,0
-553,-706,0,0,0,0,0,0,0,0,0,-1,671,1730,0,0
-546,-706,0,0,0,0,0,0,0,0,0,-1,678,1730,0,0
-539,-706,0,0,0,0,0,0,0,0,0,-1,685,1730,0,0
-532,-706,0,0,0,0,0,0,0,0,0,-1,692,1730,0,0
-525,-706,0,0,0,0,0,0,0,0,0,-1,699,1730,0,0
-518,-706,0,0,0,0,0,0,0,0,0,-1,706,1730,0,0
-511,-706,0,0,0,0,0,0,0,0,0,-1,713,1730,0,0
-504,-706,0,0,0,0,0,0,0,0,0,-1,720,1730,0,0
-497,-706,0,0,0,0,0,0,0,0,0,-1,727,1730,0,0
-490,-706,0,0,0,0,0,0,0,0,0,-1,734,1730,0,0
-483,-706,0,0,0,0,0,0,0,0,0,-1,741,1730,0,0
-476,-706,0,0,0,0,0,0,0,0,0,-1,748,1730,0,0
-469,-706,0,0,0,0,0,0,0,0,0,-1,755,1730,0,0
-462,-706,0,0,0,0,0,0,0,0,0,-1,762,1730,0,0
-455,-706,0,0,0,0,0,0,0,0,0,-1,769,1730,0,0
-448,-706,0,0,0,0,0,0,0,0,0,-1,776,1730,0,0
-441,-706,0,0,0,0,0,0,0,0,0,-1,783,1730,0,0
-434,-706,0,0,0,0,0,0,0,0,0,-1,790,1730,0,0
-427,-706,0,0,0,0,0,0,0,0,0,-1,797,1730,0,0
-420,-706,0,0,0,0,0,0,0,0,0,-1,804,1730,0,0
-413,-706,0,0,0,0,0,0,0,0,0,-1,811,1730,0,0
-406,-706,0,0,0,0,0,0,0,0,0,-1,818,1730,0,0
-399,-706,0,0,0,0,0,0,0,0,0,-1,825,1730,0,0
-392,-706,0,0,0,0,0,0,0,0,0,-1,832,1730,0,0
-385,-706,0,0,0,0,0,0,0,0,0,-1,839,1730,0,0
-378,-706,0,0,0,0,0,0,0,0,0,-1,846,1730,0,0
-371,-706,0,0,0,0,0,0,0,0,0,-1,853,1730,0,0
-364,-706,0,0,0,0,0,0,0,0,0,-1,860,1730,0,0
-357,-706,0,0,0,0,0,0,0,0,0,-1,867,1730,0,0
-350,-706,0,0,0,0,0,0,0,0,0,-1,874,1730,0,0
-343,-706,0,0,0,0,0,0,0,0,0,-1,881,1730,0,0
-336,-706,0,0,0,0,0,0,0,0,0,-1,888,1730,0,0
-329,-706,0,0,0,0,0,0,0,0,0,-1,895,1730,0,0
-322,-706,0,0,0,0,0,0,0,0,0,-1,902,1730,0,0
-315,-706,0,0,0,0,0,0,0,0,0,-1,909,1730,0,0
-308,-706,5.08191,14.6245,0,0,0,0,0,0,0,-1,916,1730,5.08188,-14.6245
-301,-706,7.45007,21.1975,0,0,0,0,0,0,0,-1,923,1730,7.45005,-21.1976
-294,-706,11.8603,21.026,0,0,0,0,0,0,0,-1,930,1730,11.8603,-21.026
-287,-706,10.3292,20.8425,0,0,0,0,0,0,0,-1,937,1730,10.3292,-20.8425
-280,-706,7.9162,21.8951,0,0,0,0,0,0,0,-1,944,1730,7.9162,-21.8952
-273,-706,7.38953,20.6355,0,0,0,0,0,0,0,-1,951,1730,7.38955,-20.6355
-266,-706,9.66724,22.8231,0,0,0,0,0,0,0,-1,958,1730,9.66722,-22.8231
-259,-706,3.47852,20.7363,0,0,0,0,0,0,0,-1,965,1730,3.47851,-20.7364
-252,-706,3.84259,20.1979,0,0,0,0,0,0,0,-1,972,1730,3.84256,-20.1979
-245,-706,4.698,19.2992,0,0,0,0,0,0,0,-1,979,1730,4.69799,-19.2991
-238,-706,9.35162,48.9419,0,0,0,0,0,0,0,-1,986,1730,9.35165,-48.9419
-231,-706,8.13367,52.0111,0,0,0,0,0,0,0,-1,993,1730,8.13366,-52.0111
-224,-706,8.20807,52.4872,-0.00425233,-0.00374967,0.00299607,-0.000994405,-0.00700759,0.827244,0.00437806,0.0426619,1000,1730,8.20809,-52.4872
-217,-706,8.43634,52.8661,-0.00342261,-0.00314609,0.00377267,0.000490858,-0.00705955,0.803714,0.00487823,0.038438,1007,1730,8.43636,-52.8661
-210,-706,8.58398,53.1976,-0.00317516,-0.00181137,0.00419131,0.00175315,-0.00673969,0.866038,0.00517741,0.0400665,1014,1730,8.58399,-53.1976
-203,-706,8.57397,53.7164,-0.00273647,-0.00045761,0.00433863,0.00288871,-0.00608279,0.91381,0.00528799,0.0330279,1021,1730,8.57403,-53.7164
-196,-706,8.54785,54.2679,-0.00255608,0.000501472,0.00432612,0.00356099,-0.0056156,0.955241,0.00534219,0.0257382,1028,1730,8.5479,-54.2679
-189,-706,8.422,54.9009,-0.00230586,0.001506,0.00435208,0.00435119,-0.00515105,0.991786,0.0054926,0.0217078,1035,1730,8.422,-54.9009
-182,-706,8.36389,55.496,-0.00203079,0.00206499,0.00422296,0.00471042,-0.00467622,1.01116,0.00541939,0.016448,1042,1730,8.36386,-55.4959
-175,-706,8.36072,56.0521,-0.00146992,0.00237466,0.00393402,0.00483091,-0.00392618,1.01265,0.0050649,0.0158032,1049,1730,8.36068,-56.0521
-168,-706,8.32178,56.5302,-0.00153258,0.00285089,0.00354966,0.00483094,-0.00351263,1.06197,0.00483717,0.0173089,1056,1730,8.32181,-56.5302
-161,-706,8.2749,57.0266,-0.00170956,0.00308884,0.00330037,0.00476991,-0.00339063,1.09969,0.00473387,0.013832,1063,1730,8.27492,-57.0266
-154,-706,8.22498,57.5371,-0.00153245,0.0030239,0.00304408,0.00454789,-0.00305645,1.10663,0.00441843,0.0121929,1070,1730,8.22494,-57.5371
-147,-706,8.16541,58.0143,-0.00113899,0.00295215,0.00263644,0.00424352,-0.00243037,1.11533,0.00390028,0.0121421,1077,1730,8.16537,-58.0143
-140,-706,8.15381,58.4908,-0.000694879,0.00271541,0.00229662,0.00387068,-0.00185015,1.10473,0.00337089,0.0121586,1084,1730,8.15376,-58.4908
-133,-706,8.13965,58.9333,-0.000302627,0.00247037,0.00195262,0.00347867,-0.00131093,1.09412,0.00285813,0.0100281,1091,1730,8.13962,-58.9333
-126,-706,8.13562,59.3694,4.71981e-06,0.00229999,0.0016497,0.00316198,-0.000857262,1.0893,0.00244437,0.0150302,1098,1730,8.13565,-59.3694
-119,-706,8.11365,59.7878,0.000327891,0.00218945,0.00145586,0.00298663,-0.000469296,1.06982,0.00216455,0.0190951,1105,1730,8.11368,-59.7878
-112,-706,8.11145,60.2449,0.000720417,0.00211224,0.00132228,0.00291055,-7.78956e-05,1.02763,0.00196685,0.0130081,1112,1730,8.1115,-60.2448
-105,-706,8.0885,60.6344,0.00107435,0.00182858,0.00111892,0.00263223,0.000270711,0.947939,0.0016719,0.0098875,1119,1730,8.08846,-60.6344
-98,-706,8.10095,61.0012,0.00140831,0.0015292,0.000933428,0.00240414,0.000533373,0.817732,0.00145786,0.0124244,1126,1730,8.10092,-61.0013
-91,-706,8.11206,61.3831,0.00178518,0.00130334,0.000696738,0.00228148,0.000807046,0.61894,0.00133587,0.0172456,1133,1730,8.11205,-61.3831
-84,-706,8.10681,61.7764,0.00219016,0.00103034,0.000439898,0.00233813,0.00088237,0.324478,0.00136338,0.0192673,1140,1730,8.10682,-61.7764
-77,-706,8.1012,62.0806,0.00260944,0.000774306,0.000214923,0.00263427,0.000749471,0.115042,0.00156727,0.0166074,1147,1730,8.10118,-62.0806
-70,-706,8.1084,62.4207,0.0029571,0.000440409,-6.13382e-05,0.00295859,0.000438914,-0.0243533,0.00184359,0.0189544,1154,1730,8.1084,-62.4207
-63,-706,8.10291,62.7534,0.00346018,0.00065239,-0.00031329,0.00349471,0.000617858,-0.10978,0.0021536,0.0151597,1161,1730,8.10292,-62.7535
-56,-706,8.10571,63.0322,0.00395966,0.000535064,-0.000582813,0.00405613,0.000438596,-0.164035,0.00257039,0.0150355,1168,1730,8.10573,-63.0322
-49,-706,8.12219,63.3438,0.00481675,0.00139992,-0.000762505,0.00497919,0.00123748,-0.209896,0.00299348,0.0164435,1175,1730,8.12218,-63.3438
-42,-706,8.15942,63.6003,0.00555414,0.00207977,-0.0011195,0.00588361,0.00175029,-0.286225,0.00348855,0.0217817,1182,1730,8.15948,-63.6003
-35,-706,8.19348,63.8292,0.00622982,0.00295783,-0.0015577,0.00685279,0.00233486,-0.380444,0.00402282,0.0182648,1189,1730,8.19343,-63.8292
-28,-706,8.24658,64.064,0.00667987,0.00326526,-0.00211544,0.00769101,0.00225411,-0.445881,0.00456539,0.0125358,1196,1730,8.24664,-64.0639
-21,-706,8.25635,64.2349,0.00689014,0.00350683,-0.00259757,0.00829834,0.00209863,-0.496773,0.00498226,0.0145629,1203,1730,8.25635,-64.2349
-14,-706,8.30359,64.4347,0.0072091,0.00362667,-0.00292299,0.00884604,0.00198972,-0.510508,0.0053587,0.0134836,1210,1730,8.30355,-64.4347
-7,-706,8.37146,64.6471,0.00744148,0.00378554,-0.00314369,0.00925003,0.00197699,-0.522055,0.00562472,0.00967868,1217,1730,8.37144,-64.6471
0,-706,8.44116,64.838,0.00769791,0.00406297,-0.00296366,0.009357,0.00240387,-0.510345,0.00561106,0.0144185,1224,1730,8.44115,-64.838
7,-706,8.46619,64.9689,0.00801179,0.00437045,-0.00252727,0.00930591,0.00307632,-0.473252,0.00547462,0.0173701,1231,1730,8.46619,-64.9688
14,-706,8.50732,65.0752,0.00890149,0.00471747,-0.0016462,0.00947153,0.00414743,-0.33335,0.00548244,0.0169452,1238,1730,8.50731,-65.0752
21,-706,8.56787,65.1792,0.0101053,0.00524473,-0.000411064,0.0101398,0.00521022,-0.0837787,0.00585496,0.0134564,1245,1730,8.5679,-65.1792
28,-706,8.63257,65.2628,0.0117015,0.00538534,0.000999048,0.0118557,0.00523108,0.153193,0.00686065,0.0131652,1252,1730,8.63263,-65.2628
35,-706,8.67737,65.3462,0.0135031,0.00544911,0.00243189,0.0141804,0.00477177,0.271641,0.00833169,0.0152142,1259,1730,8.67737,-65.3462
42,-706,8.73352,65.4026,0.0152739,0.00547045,0.00400118,0.0166996,0.00404474,0.342296,0.0100596,0.0132359,1266,1730,8.73347,-65.4026
49,-706,8.79993,65.4341,0.0159025,0.00497223,0.00520589,0.0179852,0.00288959,0.380554,0.0111524,0.016073,1273,1730,8.79994,-65.434
56,-706,8.88635,65.4547,0.015911,0.00361976,0.00595647,0.0183239,0.00120686,0.384885,0.0118342,0.0171759,1280,1730,8.88629,-65.4547
63,-706,8.93811,65.4448,0.0155151,0.00221141,0.00633488,0.018049,-0.000322469,0.380497,0.0121416,0.0138973,1287,1730,8.93811,-65.4448
70,-706,8.97839,65.4452,0.0148246,0.000520482,0.00618093,0.0171254,-0.00178028,0.356345,0.0120542,0.0132285,1294,1730,8.9784,-65.4452
77,-706,9.03467,65.4106,0.013798,-0.00101366,0.00569484,0.0157344,-0.00295008,0.327766,0.0115987,0.0114089,1301,1730,9.03461,-65.4107
84,-706,9.11597,65.3744,0.0125471,-0.00277173,0.00467809,0.0138627,-0.00408735,0.274148,0.0108637,0.00999505,1308,1730,9.11594,-65.3744
91,-706,9.15845,65.3369,0.0110752,-0.00423063,0.00297249,0.0116322,-0.00478763,0.185239,0.00975068,0.0116388,1315,1730,9.15842,-65.337
98,-706,9.19385,65.2644,0.00995745,-0.00557125,0.00102224,0.0100245,-0.00563826,0.0654527,0.0091603,0.0157294,1322,1730,9.19381,-65.2644
105,-706,9.23328,65.1949,0.00888357,-0.00690176,-0.000838535,0.00892799,-0.00694618,-0.0529227,0.00918873,0.0176854,1329,1730,9.2333,-65.195
112,-706,9.26001,65.0935,0.0084248,-0.00776162,-0.00268856,0.00885968,-0.0081965,-0.160365,0.00984987,0.0172649,1336,1730,9.26002,-65.0935
119,-706,9.3197,64.9561,0.00837412,-0.00814852,-0.00441389,0.00947932,-0.00925373,-0.245349,0.0108158,0.0140653,1343,1730,9.31971,-64.9561
126,-706,9.40076,64.7703,0.00901926,-0.00809447,-0.00589817,0.0108551,-0.00993031,-0.301751,0.0120044,0.015366,1350,1730,9.40077,-64.7703
133,-706,9.48291,64.5554,0.00999703,-0.00721934,-0.00701691,0.0124946,-0.00971691,-0.341954,0.0128572,0.0142422,1357,1730,9.48295,-64.5554
140,-706,9.5354,64.3241,0.0110839,-0.00599339,-0.00772146,0.0140574,-0.0089669,-0.367592,0.0134009,0.0137633,1364,1730,9.53537,-64.3241
147,-706,9.59802,64.1169,0.0120055,-0.0047193,-0.00797987,0.015202,-0.0079158,-0.380998,0.0135662,0.0261696,1371,1730,9.59798,-64.1169
154,-706,9.66492,63.9332,0.0132082,-0.00354895,-0.00816199,0.0165266,-0.00686732,-0.386152,0.013885,0.0259364,1378,1730,9.66486,-63.9332
161,-706,9.64368,63.6642,0.0138641,-0.00230164,-0.0078761,0.0170669,-0.00550441,-0.386221,0.0135896,0.0125898,1385,1730,9.64364,-63.6642
168,-706,9.67371,63.4065,0.0137074,-0.00100842,-0.00714488,0.0166056,-0.00390663,-0.385355,0.0125765,0.0121927,1392,1730,9.67372,-63.4065
175,-706,9.71997,63.1589,0.0125634,0.000101971,-0.00596304,0.0149571,-0.00229167,-0.381724,0.0108165,0.0121741,1399,1730,9.71994,-63.1589
182,-706,9.72192,62.8691,0.0104946,0.000687757,-0.00484196,0.0124823,-0.00129999,-0.389547,0.00878698,0.0120184,1406,1730,9.72196,-62.8692
189,-706,9.72839,62.5378,0.00808361,0.00119191,-0.00346341,0.00952336,-0.000247839,-0.393969,0.00643311,0.0153501,1413,1730,9.72834,-62.5379
196,-706,9.7594,62.2172,0.00550572,0.000965638,-0.00172499,0.00608676,0.000384597,-0.324901,0.00393591,0.013878,1420,1730,9.75936,-62.2171
203,-706,9.78479,61.8934,0.00331216,0.00060897,-0.000468321,0.00339099,0.000530133,-0.166775,0.00210631,0.0150168,1427,1730,9.78483,-61.8934
210,-706,9.78625,61.5502,0.00283761,0.000840078,-0.000667393,0.00304008,0.000637618,-0.294537,0.00185115,0.0137404,1434,1730,9.78625,-61.5502
217,-706,9.77161,61.2036,0.00235471,0.00111249,-0.000836033,0.00277511,0.000692094,-0.465918,0.00166794,0.014089,1441,1730,9.77165,-61.2036
224,-706,9.74377,60.8168,0.00190931,0.00147649,-0.00106155,0.00277628,0.000609517,-0.684845,0.00168484,0.0185842,1448,1730,9.74374,-60.8168
231,-706,9.77844,60.397,0.00143721,0.00189408,-0.00128656,0.00297232,0.000358967,-0.873259,0.00187339,0.0142696,1455,1730,9.7785,-60.397
238,-706,9.76099,59.9902,0.00102749,0.00235579,-0.00148725,0.00332045,6.28367e-05,-0.995394,0.00219299,0.00949813,1462,1730,9.761,-59.9902
245,-706,9.75281,59.5614,0.00060868,0.00278255,-0.00164669,0.00366868,-0.000277455,-1.07711,0.00254332,0.0121758,1469,1730,9.75278,-59.5614
252,-706,9.73401,59.1428,0.000123801,0.00323353,-0.00173505,0.00400847,-0.00065114,-1.15074,0.00291371,0.0122422,1476,1730,9.73395,-59.1428
259,-706,9.7251,58.7073,-0.000349213,0.00352129,-0.00185108,0.00426404,-0.00109196,-1.18921,0.00326807,0.0128561,1483,1730,9.72514,-58.7073
266,-706,9.68884,58.265,-0.000825799,0.00371172,-0.00201436,0.00447692,-0.001591,-1.20776,0.00363299,0.0132803,1490,1730,9.68883,-58.2651
273,-706,9.65955,57.7841,-0.00135355,0.00401869,-0.00217734,0.00479033,-0.00212518,-1.23021,0.00409031,0.0134665,1497,1730,9.65953,-57.7841
280,-706,9.65234,57.2777,-0.00199037,0.00423311,-0.00230443,0.00499348,-0.00275075,-1.25208,0.0045332,0.0111683,1504,1730,9.65233,-57.2777
287,-706,9.61047,56.7836,-0.00271572,0.00451543,-0.00240954,0.00524477,-0.00344505,-1.27688,0.00505281,0.0116164,1511,1730,9.61047,-56.7836
294,-706,9.58789,56.3127,-0.00350726,0.00520415,-0.00239822,0.00582073,-0.00412384,-1.31915,0.00576929,0.0127249,1518,1730,9.58786,-56.3128
301,-706,9.57751,55.8075,-0.00403394,0.00573571,-0.00268778,0.00642634,-0.00472457,-1.31929,0.00646292,0.0123527,1525,1730,9.57754,-55.8075
308,-706,9.53833,55.2804,-0.00450972,0.00702913,-0.00351623,0.0080162,-0.00549679,-1.29712,0.00784679,0.0173337,1532,1730,9.53827,-55.2804
315,-706,9.51465,54.6997,-0.00499134,0.00910412,-0.00465076,0.0105003,-0.00638754,-1.27915,0.00984612,0.0385604,1539,1730,9.51464,-54.6997
322,-706,9.50049,54.0156,-0.00532708,0.0109733,-0.00564299,0.0127362,-0.00708996,-1.268,0.0116003,0.0474797,1546,1730,9.50051,-54.0156
329,-706,9.42004,53.5886,-0.0056221,0.0130648,-0.00670759,0.0152232,-0.00778046,-1.25948,0.0135109,0.0344778,1553,1730,9.42,-53.5886
336,-706,9.2583,53.0367,-0.00556081,0.0154296,-0.00816839,0.0182337,-0.00836492,-1.24011,0.0157051,0.0381395,1560,1730,9.25829,-53.0367
343,-706,9.01526,52.2732,-0.00510327,0.0177668,-0.0100187,0.0215348,-0.00887136,-1.21106,0.0180554,0.0453813,1567,1730,9.01532,-52.2732
350,-706,9.00366,51.7592,0,0,0,0,0,0,0,-1,1574,1730,9.00368,-51.7592
357,-706,9.83228,50.8143,0,0,0,0,0,0,0,-1,1581,1730,9.83225,-50.8144
364,-706,9.5365,49.8566,0,0,0,0,0,0,0,-1,1588,1730,9.53647,-49.8565
371,-706,8.6084,48.7302,0,0,0,0,0,0,0,-1,1595,1730,8.60844,-48.7303
378,-706,7.63867,44.0519,0,0,0,0,0,0,0,-1,1602,1730,7.63863,-44.0519
385,-706,7.3186,43.2451,0,0,0,0,0,0,0,-1,1609,1730,7.31862,-43.2451
392,-706,7.33728,42.4652,0,0,0,0,0,0,0,-1,1616,1730,7.3373,-42.4651
399,-706,7.51855,41.7692,0,0,0,0,0,0,0,-1,1623,1730,7.51855,-41.7691
406,-706,7.46301,40.9797,0,0,0,0,0,0,0,-1,1630,1730,7.46301,-40.9797
413,-706,8.43433,40.3345,0,0,0,0,0,0,0,-1,1637,1730,8.43428,-40.3344
420,-706,8.0636,39.6101,0,0,0,0,0,0,0,-1,1644,1730,8.06362,-39.6101
427,-706,0,0,0,0,0,0,0,0,0,-1,1651,1730,0,0
434,-706,0,0,0,0,0,0,0,0,0,-1,1658,1730,0,0
441,-706,0,0,0,0,0,0,0,0,0,-1,1665,1730,0,0
448,-706,0,0,0,0,0,0,0,0,0,-1,1672,1730,0,0
455,-706,0,0,0,0,0,0,0,0,0,-1,1679,1730,0,0
462,-706,0,0,0,0,0,0,0,0,0,-1,1686,1730,0,0
469,-706,0,0,0,0,0,0,0,0,0,-1,1693,1730,0,0
476,-706,0,0,0,0,0,0,0,0,0,-1,1700,1730,0,0
483,-706,0,0,0,0,0,0,0,0,0,-1,1707,1730,0,0
490,-706,0,0,0,0,0,0,0,0,0,-1,1714,1730,0,0
497,-706,0,0,0,0,0,0,0,0,0,-1,1721,1730,0,0
504,-706,0,0,0,0,0,0,0,0,0,-1,1728,1730,0,0
511,-706,0,0,0,0,0,0,0,0,0,-1,1735,1730,0,0
518,-706,0,0,0,0,0,0,0,0,0,-1,1742,1730,0,0
525,-706,0,0,0,0,0,0,0,0,0,-1,1749,1730,0,0
532,-706,0,0,0,0,0,0,0,0,0,-1,1756,1730,0,0
539,-706,0,0,0,0,0,0,0,0,0,-1,1763,1730,0,0
546,-706,0,0,0,0,0,0,0,0,0,-1,1770,1730,0,0
553,-706,0,0,0,0,0,0,0,0,0,-1,1777,1730,0,0
560,-706,0,0,0,0,0,0,0,0,0,-1,1784,1730,0,0
567,-706,0,0,0,0,0,0,0,0,0,-1,1791,1730,0,0
574,-706,0,0,0,0,0,0,0,0,0,-1,1798,1730,0,0
581,-706,0,0,0,0,0,0,0,0,0,-1,1805,1730,0,0
588,-706,0,0,0,0,0,0,0,0,0,-1,1812,1730,0,0
595,-706,0,0,0,0,0,0,0,0,0,-1,1819,1730,0,0
602,-706,0,0,0,0,0,0,0,0,0,-1,1826,1730,0,0
609,-706,0,0,0,0,0,0,0,0,0,-1,1833,1730,0,0
616,-706,0,0,0,0,0,0,0,0,0,-1,1840,1730,0,0
623,-706,0,0,0,0,0,0,0,0,0,-1,1847,1730,0,0
630,-706,0,0,0,0,0,0,0,0,0,-1,1854,1730,0,0
637,-706,0,0,0,0,0,0,0,0,0,-1,1861,1730,0,0
644,-706,0,0,0,0,0,0,0,0,0,-1,1868,1730,0,0
651,-706,0,0,0,0,0,0,0,0,0,-1,1875,1730,0,0
658,-706,0,0,0,0,0,0,0,0,0,-1,1882,1730,0,0
665,-706,0,0,0,0,0,0,0,0,0,-1,1889,1730,0,0
672,-706,0,0,0,0,0,0,0,0,0,-1,1896,1730,0,0
679,-706,0,0,0,0,0,0,0,0,0,-1,1903,1730,0,0
686,-706,0,0,0,0,0,0,0,0,0,-1,1910,1730,0,0
693,-706,0,0,0,0,0,0,0,0,0,-1,1917,1730,0,0
700,-706,0,0,0,0,0,0,0,0,0,-1,1924,1730,0,0
707,-706,0,0,0,0,0,0,0,0,0,-1,1931,1730,0,0
714,-706,0,0,0,0,0,0,0,0,0,-1,1938,1730,0,0
721,-706,0,0,0,0,0,0,0,0,0,-1,1945,1730,0,0
728,-706,0,0,0,0,0,0,0,0,0,-1,1952,1730,0,0
735,-706,0,0,0,0,0,0,0,0,0,-1,1959,1730,0,0
742,-706,0,0,0,0,0,0,0,0,0,-1,1966,1730,0,0
749,-706,0,0,0,0,0,0,0,0,0,-1,1973,1730,0,0
756,-706,0,0,0,0,0,0,0,0,0,-1,1980,1730,0,0
763,-706,0,0,0,0,0,0,0,0,0,-1,1987,1730,0,0
770,-706,0,0,0,0,0,0,0,0,0,-1,1994,1730,0,0
777,-706,0,0,0,0,0,0,0,0,0,-1,2001,1730,0,0
784,-706,0,0,0,0,0,0,0,0,0,-1,2008,1730,0,0
791,-706,0,0,0,0,0,0,0,0,0,-1,2015,1730,0,0
798,-706,0,0,0,0,0,0,0,0,0,-1,2022,1730,0,0
805,-706,0,0,0,0,0,0,0,0,0,-1,2029,1730,0,0
812,-706,0,0,0,0,0,0,0,0,0,-1,2036,1730,0,0
-700,-713,0,0,0,0,0,0,0,0,0,-1,524,1737,0,0
-693,-713,0,0,0,0,0,0,0,0,0,-1,531,1737,0,0
-686,-713,0,0,0,0,0,0,0,0,0,-1,538,1737,0,0
-679,-713,0,0,0,0,0,0,0,0,0,-1,545,1737,0,0
-672,-713,0,0,0,0,0,0,0,0,0,-1,552,1737,0,0
-665,-713,0,0,0,0,0,0,0,0,0,-1,559,1737,0,0
-658,-713,0,0,0,0,0,0,0,0,0,-1,566,1737,0,0
-651,-713,0,0,0,0,0,0,0,0,0,-1,573,1737,0,0
-644,-713,0,0,0,0,0,0,0,0,0,-1,580,1737,0,0
-637,-713,0,0,0,0,0,0,0,0,0,-1,587,1737,0,0
-630,-713,0,0,0,0,0,0,0,0,0,-1,594,1737,0,0
-623,-713,0,0,0,0,0,0,0,0,0,-1,601,1737,0,0
-616,-713,0,0,0,0,0,0,0,0,0,-1,608,1737,0,0
-609,-713,0,0,0,0,0,0,0,0,0,-1,615,1737,0,0
-602,-713,0,0,0,0,0,0,0,0,0,-1,622,1737,0,0
-595,-713,0,0,0,0,0,0,0,0,0,-1,629,1737,0,0
-588,-713,0,0,0,0,0,0,0,0,0,-1,636,1737,0,0
-581,-713,0,0,0,0,0,0,0,0,0,-1,643,1737,0,0
-574,-713,0,0,0,0,0,0,0,0,0,-1,650,1737,0,0
-567,-713,0,0,0,0,0,0,0,0,0,-1,657,1737,0,0
-560,-713,0,0,0,0,0,0,0,0,0,-1,664,1737,0,0
-553,-713,0,0,0,0,0,0,0,0,0,-1,671,1737,0,0
-546,-713,0,0,0,0,0,0,0,0,0,-1,678,1737,0,0
-539,-713,0,0,0,0,0,0,0,0,0,-1,685,1737,0,0
-532,-713,0,0,0,0,0,0,0,0,0,-1,692,1737,0,0
-525,-713,0,0,0,0,0,0,0,0,0,-1,699,1737,0,0
-518,-713,0,0,0,0,0,0,0,0,0,-1,706,1737,0,0
-511,-713,0,0,0,0,0,0,0,0,0,-1,713,1737,0,0
-504,-713,0,0,0,0,0,0,0,0,0,-1,720,1737,0,0
-497,-713,0,0,0,0,0,0,0,0,0,-1,727,1737,0,0
-490,-713,0,0,0,0,0,0,0,0,0,-1,734,1737,0,0
-483,-713,0,0,0,0,0,0,0,0,0,-1,741,1737,0,0
-476,-713,0,0,0,0,0,0,0,0,0,-1,748,1737,0,0
-469,-713,0,0,0,0,0,0,0,0,0,-1,755,1737,0,0
-462,-713,0,0,0,0,0,0,0,0,0,-1,762,1737,0,0
-455,-713,0,0,0,0,0,0,0,0,0,-1,769,1737,0,0
-448,-713,0,0,0,0,0,0,0,0,0,-1,776,1737,0,0
-441,-713,0,0,0,0,0,0,0,0,0,-1,783,1737,0,0
-434,-713,0,0,0,0,0,0,0,0,0,-1,790,1737,0,0
-427,-713,0,0,0,0,0,0,0,0,0,-1,797,1737,0,0
-420,-713,0,0,0,0,0,0,0,0,0,-1,804,1737,0,0
-413,-713,0,0,0,0,0,0,0,0,0,-1,811,1737,0,0
-406,-713,0,0,0,0,0,0,0,0,0,-1,818,1737,0,0
-399,-713,0,0,0,0,0,0,0,0,0,-1,825,1737,0,0
-392,-713,0,0,0,0,0,0,0,0,0,-1,832,1737,0,0
-385,-713,0,0,0,0,0,0,0,0,0,-1,839,1737,0,0
-378,-713,0,0,0,0,0,0,0,0,0,-1,846,1737,0,0
-371,-713,0,0,0,0,0,0,0,0,0,-1,853,1737,0,0
-364,-713,0,0,0,0,0,0,0,0,0,-1,860,1737,0,0
-357,-713,0,0,0,0,0,0,0,0,0,-1,867,1737,0,0
-350,-713,0,0,0,0,0,0,0,0,0,-1,874,1737,0,0
-343,-713,0,0,0,0,0,0,0,0,0,-1,881,1737,0,0
-336,-713,0,0,0,0,0,0,0,0,0,-1,888,1737,0,0
-329,-713,0,0,0,0,0,0,0,0,0,-1,895,1737,0,0
-322,-713,0,0,0,0,0,0,0,0,0,-1,902,1737,0,0
-315,-713,0,0,0,0,0,0,0,0,0,-1,909,1737,0,0
-308,-713,0,0,0,0,0,0,0,0,0,-1,916,1737,0,0
-301,-713,0,0,0,0,0,0,0,0,0,-1,923,1737,0,0
-294,-713,7.17883,22.0453,0,0,0,0,0,0,0,-1,930,1737,7.17881,-22.0453
-287,-713,11.8916,21.5834,0,0,0,0,0,0,0,-1,937,1737,11.8916,-21.5833
-280,-713,10.2786,21.3551,0,0,0,0,0,0,0,-1,944,1737,10.2787,-21.3551
-273,-713,11.1981,23.8683,0,0,0,0,0,0,0,-1,951,1737,11.198,-23.8683
-266,-713,3.17981,19.8851,0,0,0,0,0,0,0,-1,958,1737,3.17983,-19.8851
-259,-713,3.5921,19.6868,0,0,0,0,0,0,0,-1,965,1737,3.59207,-19.6868
-252,-713,4.55469,20.5758,0,0,0,0,0,0,0,-1,972,1737,4.55466,-20.5758
-245,-713,3.89014,25.9825,0,0,0,0,0,0,0,-1,979,1737,3.89013,-25.9826
-238,-713,6.62506,30.5463,0,0,0,0,0,0,0,-1,986,1737,6.62509,-30.5462
-231,-713,8.29321,51.6848,0,0,0,0,0,0,0,-1,993,1737,8.29318,-51.6848
-224,-713,8.56732,52.6133,0,0,0,0,0,0,0,-1,1000,1737,8.56735,-52.6133
-217,-713,8.93304,53.2168,0,0,0,0,0,0,0,-1,1007,1737,8.93306,-53.2168
-210,-713,9.13641,53.339,0,0,0,0,0,0,0,-1,1014,1737,9.13641,-53.339
-203,-713,8.77087,54.0283,0,0,0,0,0,0,0,-1,1021,1737,8.77089,-54.0283
-196,-713,9.04346,54.1837,0,0,0,0,0,0,0,-1,1028,1737,9.04346,-54.1837
-189,-713,8.85706,54.6964,-0.00265618,0.00240661,0.00573732,0.00614616,-0.00639573,0.993161,0.00724154,0.0441175,1035,1737,8.857,-54.6964
-182,-713,8.78992,55.3251,-0.00257701,0.00329755,0.00560879,0.00669163,-0.00597109,1.02661,0.00731477,0.0293027,1042,1737,8.78992,-55.3251
-175,-713,8.85767,55.9702,-0.00211983,0.00363629,0.00525933,0.00675354,-0.00523708,1.03576,0.00694122,0.0240036,1049,1737,8.85767,-55.9702
-168,-713,8.85364,56.504,-0.00236453,0.00417988,0.00481267,0.0067274,-0.00491204,1.08396,0.00674722,0.0264802,1056,1737,8.85363,-56.504
-161,-713,8.75854,57.0432,-0.00268828,0.00444558,0.00450807,0.00662718,-0.00486989,1.12008,0.00666363,0.0135303,1063,1737,8.7585,-57.0432
-154,-713,8.68579,57.5157,-0.00257374,0.00431049,0.00421277,0.00630856,-0.0045718,1.12793,0.0063084,0.0115946,1070,1737,8.68582,-57.5158
-147,-713,8.63123,58.0309,-0.00221343,0.0041366,0.00373551,0.00586411,-0.00394094,1.13763,0.00569713,0.019418,1077,1737,8.63128,-58.0308
-140,-713,8.61536,58.5409,-0.0018145,0.00380099,0.00334261,0.00535862,-0.00337213,1.13472,0.005084,0.0203764,1084,1737,8.6153,-58.5409
-133,-713,8.55774,58.9707,-0.0014697,0.00345488,0.00293012,0.00481992,-0.00283474,1.13483,0.00446869,0.0138676,1091,1737,8.5578,-58.9706
-126,-713,8.56421,59.3647,-0.0012336,0.00321578,0.00258368,0.00440058,-0.00241841,1.14084,0.00399201,0.0209668,1098,1737,8.56421,-59.3647
-119,-713,8.55579,59.7371,-0.00101375,0.00307312,0.00236707,0.00415677,-0.0020974,1.14147,0.00367552,0.0275469,1105,1737,8.55574,-59.7371
-112,-713,8.50269,60.2404,-0.00066328,0.0030761,0.00225703,0.00413727,-0.00172445,1.1313,0.00347852,0.0143408,1112,1737,8.50263,-60.2404
-105,-713,8.5022,60.6421,-0.00035538,0.00280643,0.00205479,0.0038181,-0.00136705,1.11329,0.00310313,0.0113808,1119,1737,8.50214,-60.642
-98,-713,8.479,61.0212,-9.72239e-05,0.00250709,0.00188006,0.0034919,-0.00108204,1.08827,0.00276024,0.0113463,1126,1737,8.47902,-61.0212
-91,-713,8.44189,61.3903,0.000199223,0.00228094,0.00166609,0.00320457,-0.000724413,1.0646,0.00241435,0.0116542,1133,1737,8.44189,-61.3902
-84,-713,8.41833,61.7606,0.000429329,0.00188727,0.00136924,0.0027095,-0.000392895,1.03001,0.00195053,0.00975715,1140,1737,8.41831,-61.7606
-77,-713,8.42468,62.1172,0.00074128,0.00158979,0.001142,0.00238379,-5.27253e-05,0.963248,0.00160706,0.0121568,1147,1737,8.42472,-62.1172
-70,-713,8.43799,62.4415,0.00104114,0.00129845,0.000851496,0.00203096,0.000308637,0.860378,0.00126372,0.015115,1154,1737,8.43797,-62.4415
-63,-713,8.42761,62.7528,0.00132652,0.000721961,0.000572911,0.00167201,0.000376474,0.542649,0.00101278,0.0140109,1161,1737,8.42767,-62.7528
-56,-713,8.43848,63.053,0.00167368,3.39385e-06,0.000291599,0.00172313,-4.60499e-05,0.167963,0.00116441,0.0139532,1168,1737,8.43842,-63.053
-49,-713,8.41187,63.3408,0.00213388,-0.000314014,3.7761e-05,0.00213446,-0.000314596,0.0154211,0.0015386,0.0179169,1175,1737,8.41192,-63.3408
-42,-713,8.42676,63.6072,0.0025843,-0.000577695,-0.00021356,0.00259865,-0.000592054,-0.0671332,0.00195983,0.0207875,1182,1737,8.42673,-63.6072
-35,-713,8.45642,63.8547,0.0030599,-0.000665613,-0.000460809,0.00311605,-0.000721764,-0.121256,0.00235512,0.0157925,1189,1737,8.4564,-63.8547
-28,-713,8.4801,64.0967,0.00354267,-0.000989934,-0.00070422,0.00364956,-0.00109683,-0.150638,0.0028694,0.0153179,1196,1737,8.48007,-64.0967
-21,-713,8.47095,64.277,0.00403508,-0.00135061,-0.00086043,0.00416921,-0.00148473,-0.154636,0.00338473,0.0118888,1203,1737,8.47095,-64.2769
-14,-713,8.49451,64.4551,0.00450295,-0.00157601,-0.00094972,0.00464787,-0.00172093,-0.151425,0.00380426,0.0125631,1210,1737,8.49447,-64.4551
-7,-713,8.55188,64.6604,0.00495144,-0.00162144,-0.000946641,0.00508506,-0.00175506,-0.140226,0.00410218,0.0098451,1217,1737,8.55185,-64.6604
0,-713,8.59387,64.8286,0.00541246,-0.00139592,-0.000728968,0.00548963,-0.00147309,-0.105476,0.00423702,0.0157755,1224,1737,8.59381,-64.8286
7,-713,8.61182,64.9562,0.00591045,-0.00106126,-0.000389261,0.00593211,-0.00108293,-0.055604,0.00436077,0.0198398,1231,1737,8.61178,-64.9562
14,-713,8.61462,65.1183,0.00676652,-0.000598095,0.000230085,0.0067737,-0.000605276,0.0312014,0.00473048,0.0143567,1238,1737,8.61467,-65.1183
21,-713,8.66541,65.2256,0.00768639,1.62063e-05,0.00097448,0.00780826,-0.000105663,0.124415,0.00524108,0.0117267,1245,1737,8.66537,-65.2256
28,-713,8.71167,65.3153,0.00873717,0.000501078,0.00174717,0.00909248,0.000145769,0.200627,0.00601365,0.0117693,1252,1737,8.71171,-65.3153
35,-713,8.75183,65.375,0.00979311,0.000937313,0.00248381,0.0104422,0.000288244,0.255604,0.00686739,0.0112172,1259,1737,8.75185,-65.375
42,-713,8.81323,65.4232,0.0108187,0.00144588,0.0032803,0.0118527,0.000411908,0.305349,0.00776813,0.0109657,1266,1737,8.81326,-65.4232
49,-713,8.85132,65.4095,0.011014,0.00154936,0.00393371,0.0124354,0.000127899,0.346752,0.00824799,0.0142402,1273,1737,8.85127,-65.4096
56,-713,8.87744,65.4143,0.0107195,0.000871428,0.00427856,0.0123187,-0.000727736,0.357685,0.00846547,0.0178381,1280,1737,8.8775,-65.4144
63,-713,8.92151,65.475,0.0100891,8.00644e-05,0.00432234,0.0116973,-0.00152811,0.356192,0.00835429,0.0166786,1287,1737,8.92153,-65.475
70,-713,8.96008,65.4803,0.00931436,-0.000973883,0.00398578,0.0106778,-0.00233733,0.3296,0.00801211,0.0135077,1294,1737,8.96005,-65.4804
77,-713,9.00281,65.454,0.00835492,-0.00195034,0.00348405,0.00942227,-0.00301769,0.297276,0.00749279,0.0125274,1301,1737,9.00283,-65.454
84,-713,9.04932,65.4183,0.00712468,-0.0029692,0.00286762,0.00788246,-0.00372698,0.258351,0.00684435,0.0124648,1308,1737,9.04932,-65.4183
91,-713,9.06616,65.3655,0.00598253,-0.00391435,0.00198654,0.00636639,-0.00429821,0.190877,0.00619568,0.013069,1315,1737,9.06621,-65.3655
98,-713,9.08887,65.2808,0.00501097,-0.00473016,0.00101217,0.00511503,-0.00483422,0.102448,0.00574497,0.012578,1322,1737,9.08887,-65.2808
105,-713,9.11584,65.1965,0.0040977,-0.00550596,0.000129104,0.00409943,-0.0055077,0.01344,0.00556651,0.0142884,1329,1737,9.11579,-65.1965
112,-713,9.15747,65.0988,0.0035273,-0.00594183,-0.000721859,0.00358201,-0.00599655,-0.0756503,0.00558845,0.0144489,1336,1737,9.15751,-65.0988
119,-713,9.18506,64.9647,0.00308601,-0.00611783,-0.0014953,0.00332285,-0.00635466,-0.157084,0.00567797,0.0144195,1343,1737,9.18507,-64.9648
126,-713,9.21301,64.8131,0.00310269,-0.00595192,-0.00205138,0.00354576,-0.006395,-0.21272,0.00581735,0.0144849,1350,1737,9.21307,-64.8131
133,-713,9.26379,64.5911,0.00334288,-0.00530789,-0.00236448,0.00394697,-0.00591198,-0.250135,0.00572963,0.0137482,1357,1737,9.26375,-64.5911
140,-713,9.33948,64.3744,0.00372628,-0.00441685,-0.00246772,0.00441573,-0.0051063,-0.272441,0.00550237,0.0146374,1364,1737,9.33954,-64.3744
147,-713,9.34717,64.1415,0.00408558,-0.00347988,-0.0024931,0.00483326,-0.00422755,-0.291364,0.00523516,0.0164609,1371,1737,9.34715,-64.1415
154,-713,9.33521,63.9368,0.00463037,-0.00258732,-0.00251097,0.00541797,-0.00337492,-0.303945,0.00512205,0.0157985,1378,1737,9.33526,-63.9368
161,-713,9.36243,63.6665,0.00487971,-0.00161948,-0.00231818,0.00562183,-0.0023616,-0.309823,0.00473562,0.011724,1385,1737,9.36237,-63.6666
168,-713,9.38147,63.3911,0.00476916,-0.0006612,-0.00197084,0.00540904,-0.00130108,-0.313936,0.00410896,0.0123773,1392,1737,9.38145,-63.3911
175,-713,9.39478,63.1306,0.00423447,0.000175949,-0.0015379,0.00475139,-0.000340971,-0.324257,0.00328715,0.0161811,1399,1737,9.39477,-63.1306
182,-713,9.37744,62.8628,0.0033908,0.000692901,-0.00136268,0.00395929,0.000124411,-0.395232,0.00259905,0.0134133,1406,1737,9.37747,-62.8628
189,-713,9.38696,62.5656,0.0026635,0.00112739,-0.00129165,0.0033982,0.000392688,-0.517169,0.00214658,0.0121918,1413,1737,9.38701,-62.5655
196,-713,9.42883,62.2321,0.00189647,0.00130315,-0.00109462,0.00273391,0.000465705,-0.653068,0.00168891,0.0131793,1420,1737,9.42885,-62.2321
203,-713,9.4502,61.9034,0.00126146,0.0013659,-0.00107626,0.0023912,0.000236156,-0.80964,0.00152154,0.0182456,1427,1737,9.45025,-61.9035
210,-713,9.43506,61.5273,0.000931661,0.00190944,-0.00135041,0.00285673,-1.56298e-05,-0.959074,0.00190972,0.0158274,1434,1737,9.43502,-61.5273
217,-713,9.42395,61.1631,0.000572708,0.00247233,-0.00156294,0.00335143,-0.000306399,-1.05843,0.00234311,0.0124175,1441,1737,9.42396,-61.1631
224,-713,9.396,60.8102,0.000281889,0.00303129,-0.00184077,0.00395403,-0.000640852,-1.10613,0.00287356,0.0125159,1448,1737,9.396,-60.8102
231,-713,9.38904,60.4218,-9.62077e-05,0.00358882,-0.00207089,0.00451821,-0.0010256,-1.14895,0.00340587,0.0118651,1455,1737,9.38899,-60.4217
238,-713,9.36267,60.0022,-0.000468667,0.00415021,-0.00222886,0.00505034,-0.00136879,-1.18697,0.00390398,0.00926505,1462,1737,9.36265,-60.0022
245,-713,9.33923,59.5696,-0.00084811,0.00461476,-0.00238919,0.00551223,-0.00174558,-1.21147,0.00437436,0.0120174,1469,1737,9.33926,-59.5696
252,-713,9.33057,59.1263,-0.00130977,0.00509846,-0.00248528,0.00594934,-0.00216065,-1.24094,0.00484962,0.0123182,1476,1737,9.33055,-59.1264
259,-713,9.32886,58.6835,-0.00173453,0.00536897,-0.00257321,0.00620314,-0.0025687,-1.25731,0.00520731,0.011825,1483,1737,9.32887,-58.6834
266,-713,9.27124,58.2733,-0.00217867,0.00554268,-0.00269402,0.00638972,-0.00302571,-1.26617,0.00555045,0.0110906,1490,1737,9.27119,-58.2733
273,-713,9.22546,57.8003,-0.00270744,0.00585778,-0.00285711,0.00672336,-0.00357301,-1.27663,0.00603665,0.00990051,1497,1737,9.22551,-57.8003
280,-713,9.18835,57.3013,-0.00334725,0.00606699,-0.00298958,0.00693612,-0.00421638,-1.28788,0.00650241,0.0109519,1504,1737,9.18836,-57.3012
287,-713,9.14612,56.7968,-0.00410047,0.00638338,-0.00311286,0.00723798,-0.00495507,-1.30286,0.00708067,0.0116612,1511,1737,9.14606,-56.7967
294,-713,9.12573,56.2992,-0.00495829,0.00724795,-0.00309253,0.00798674,-0.00569709,-1.33629,0.00793715,0.0220668,1518,1737,9.12579,-56.2992
301,-713,8.97437,55.686,-0.00547294,0.00789982,-0.00343165,0.00872901,-0.00630214,-1.33371,0.00871586,0.0379943,1525,1737,8.97442,-55.6861
308,-713,8.85352,55.0743,0,0,0,0,0,0,0,-1,1532,1737,8.85357,-55.0744
315,-713,8.92639,54.4458,0,0,0,0,0,0,0,-1,1539,1737,8.92644,-54.4458
322,-713,8.91284,53.833,0,0,0,0,0,0,0,-1,1546,1737,8.91281,-53.8331
329,-713,8.97974,53.5505,0,0,0,0,0,0,0,-1,1553,1737,8.97968,-53.5505
336,-713,8.86304,53.0668,0,0,0,0,0,0,0,-1,1560,1737,8.86308,-53.0667
343,-713,7.8324,52.0823,0,0,0,0,0,0,0,-1,1567,1737,7.83236,-52.0823
350,-713,8.63867,47.4143,0,0,0,0,0,0,0,-1,1574,1737,8.6387,-47.4143
357,-713,8.53796,49.5679,0,0,0,0,0,0,0,-1,1581,1737,8.53795,-49.5679
364,-713,7.52661,46.5348,0,0,0,0,0,0,0,-1,1588,1737,7.52664,-46.5347
371,-713,7.3302,45.0861,0,0,0,0,0,0,0,-1,1595,1737,7.33021,-45.0861
378,-713,6.73975,44.3853,0,0,0,0,0,0,0,-1,1602,1737,6.7397,-44.3853
385,-713,6.58777,43.6438,0,0,0,0,0,0,0,-1,1609,1737,6.58781,-43.6438
392,-713,6.62964,42.8679,0,0,0,0,0,0,0,-1,1616,1737,6.62968,-42.868
399,-713,6.53748,42.0555,0,0,0,0,0,0,0,-1,1623,1737,6.53749,-42.0555
406,-713,2.49878,27.8931,0,0,0,0,0,0,0,-1,1630,1737,2.49884,-27.893
413,-713,1.36597,29.459,0,0,0,0,0,0,0,-1,1637,1737,1.36593,-29.459
420,-713,0,0,0,0,0,0,0,0,0,-1,1644,1737,0,0
427,-713,0,0,0,0,0,0,0,0,0,-1,1651,1737,0,0
434,-713,0,0,0,0,0,0,0,0,0,-1,1658,1737,0,0
441,-713,0,0,0,0,0,0,0,0,0,-1,1665,1737,0,0
448,-713,0,0,0,0,0,0,0,0,0,-1,1672,1737,0,0
455,-713,0,0,0,0,0,0,0,0,0,-1,1679,1737,0,0
462,-713,0,0,0,0,0,0,0,0,0,-1,1686,1737,0,0
469,-713,0,0,0,0,0,0,0,0,0,-1,1693,1737,0,0
476,-713,0,0,0,0,0,0,0,0,0,-1,1700,1737,0,0
483,-713,0,0,0,0,0,0,0,0,0,-1,1707,1737,0,0
490,-713,0,0,0,0,0,0,0,0,0,-1,1714,1737,0,0
497,-713,0,0,0,0,0,0,0,0,0,-1,1721,1737,0,0
504,-713,0,0,0,0,0,0,0,0,0,-1,1728,1737,0,0
511,-713,0,0,0,0,0,0,0,0,0,-1,1735,1737,0,0
518,-713,0,0,0,0,0,0,0,0,0,-1,1742,1737,0,0
525,-713,0,0,0,0,0,0,0,0,0,-1,1749,1737,0,0
532,-713,0,0,0,0,0,0,0,0,0,-1,1756,1737,0,0
539,-713,0,0,0,0,0,0,0,0,0,-1,1763,1737,0,0
546,-713,0,0,0,0,0,0,0,0,0,-1,1770,1737,0,0
553,-713,0,0,0,0,0,0,0,0,0,-1,1777,1737,0,0
560,-713,0,0,0,0,0,0,0,0,0,-1,1784,1737,0,0
567,-713,0,0,0,0,0,0,0,0,0,-1,1791,1737,0,0
574,-713,0,0,0,0,0,0,0,0,0,-1,1798,1737,0,0
581,-713,0,0,0,0,0,0,0,0,0,-1,1805,1737,0,0
588,-713,0,0,0,0,0,0,0,0,0,-1,1812,1737,0,0
595,-713,0,0,0,0,0,0,0,0,0,-1,1819,1737,0,0
602,-713,0,0,0,0,0,0,0,0,0,-1,1826,1737,0,0
609,-713,0,0,0,0,0,0,0,0,0,-1,1833,1737,0,0
616,-713,0,0,0,0,0,0,0,0,0,-1,1840,1737,0,0
623,-713,0,0,0,0,0,0,0,0,0,-1,1847,1737,0,0
630,-713,0,0,0,0,0,0,0,0,0,-1,1854,1737,0,0
637,-713,0,0,0,0,0,0,0,0,0,-1,1861,1737,0,0
644,-713,0,0,0,0,0,0,0,0,0,-1,1868,1737,0,0
651,-713,0,0,0,0,0,0,0,0,0,-1,1875,1737,0,0
658,-713,0,0,0,0,0,0,0,0,0,-1,1882,1737,0,0
665,-713,0,0,0,0,0,0,0,0,0,-1,1889,1737,0,0
672,-713,0,0,0,0,0,0,0,0,0,-1,1896,1737,0,0
679,-713,0,0,0,0,0,0,0,0,0,-1,1903,1737,0,0
686,-713,0,0,0,0,0,0,0,0,0,-1,1910,1737,0,0
693,-713,0,0,0,0,0,0,0,0,0,-1,1917,1737,0,0
700,-713,0,0,0,0,0,0,0,0,0,-1,1924,1737,0,0
707,-713,0,0,0,0,0,0,0,0,0,-1,1931,1737,0,0
714,-713,0,0,0,0,0,0,0,0,0,-1,1938,1737,0,0
721,-713,0,0,0,0,0,0,0,0,0,-1,1945,1737,0,0
728,-713,0,0,0,0,0,0,0,0,0,-1,1952,1737,0,0
735,-713,0,0,0,0,0,0,0,0,0,-1,1959,1737,0,0
742,-713,0,0,0,0,0,0,0,0,0,-1,1966,1737,0,0
749,-713,0,0,0,0,0,0,0,0,0,-1,1973,1737,0,0
756,-713,0,0,0,0,0,0,0,0,0,-1,1980,1737,0,0
763,-713,0,0,0,0,0,0,0,0,0,-1,1987,1737,0,0
770,-713,0,0,0,0,0,0,0,0,0,-1,1994,1737,0,0
777,-713,0,0,0,0,0,0,0,0,0,-1,2001,1737,0,0
784,-713,0,0,0,0,0,0,0,0,0,-1,2008,1737,0,0
791,-713,0,0,0,0,0,0,0,0,0,-1,2015,1737,0,0
798,-713,0,0,0,0,0,0,0,0,0,-1,2022,1737,0,0
805,-713,0,0,0,0,0,0,0,0,0,-1,2029,1737,0,0
812,-713,0,0,0,0,0,0,0,0,0,-1,2036,1737,0,0
-700,-720,0,0,0,0,0,0,0,0,0,-1,524,1744,0,0
-693,-720,0,0,0,0,0,0,0,0,0,-1,531,1744,0,0
-686,-720,0,0,0,0,0,0,0,0,0,-1,538,1744,0,0
-679,-720,0,0,0,0,0,0,0,0,0,-1,545,1744,0,0
-672,-720,0,0,0,0,0,0,0,0,0,-1,552,1744,0,0
-665,-720,0,0,0,0,0,0,0,0,0,-1,559,1744,0,0
-658,-720,0,0,0,0,0,0,0,0,0,-1,566,1744,0,0
-651,-720,0,0,0,0,0,0,0,0,0,-1,573,1744,0,0
-644,-720,0,0,0,0,0,0,0,0,0,-1,580,1744,0,0
-637,-720,0,0,0,0,0,0,0,0,0,-1,587,1744,0,0
-630,-720,0,0,0,0,0,0,0,0,0,-1,594,1744,0,0
-623,-720,0,0,0,0,0,0,0,0,0,-1,601,1744,0,0
-616,-720,0,0,0,0,0,0,0,0,0,-1,608,1744,0,0
-609,-720,0,0,0,0,0,0,0,0,0,-1,615,1744,0,0
-602,-720,0,0,0,0,0,0,0,0,0,-1,622,1744,0,0
-595,-720,0,0,0,0,0,0,0,0,0,-1,629,1744,0,0
-588,-720,0,0,0,0,0,0,0,0,0,-1,636,1744,0,0
-581,-720,0,0,0,0,0,0,0,0,0,-1,643,1744,0,0
-574,-720,0,0,0,0,0,0,0,0,0,-1,650,1744,0,0
-567,-720,0,0,0,0,0,0,0,0,0,-1,657,1744,0,0
-560,-720,0,0,0,0,0,0,0,0,0,-1,664,1744,0,0
-553,-720,0,0,0,0,0,0,0,0,0,-1,671,1744,0,0
-546,-720,0,0,0,0,0,0,0,0,0,-1,678,1744,0,0
-539,-720,0,0,0,0,0,0,0,0,0,-1,685,1744,0,0
-532,-720,0,0,0,0,0,0,0,0,0,-1,692,1744,0,0
-525,-720,0,0,0,0,0,0,0,0,0,-1,699,1744,0,0
-518,-720,0,0,0,0,0,0,0,0,0,-1,706,1744,0,0
-511,-720,0,0,0,0,0,0,0,0,0,-1,713,1744,0,0
-504,-720,0,0,0,0,0,0,0,0,0,-1,720,1744,0,0
-497,-720,0,0,0,0,0,0,0,0,0,-1,727,1744,0,0
-490,-720,0,0,0,0,0,0,0,0,0,-1,734,1744,0,0
-483,-720,0,0,0,0,0,0,0,0,0,-1,741,1744,0,0
-476,-720,0,0,0,0,0,0,0,0,0,-1,748,1744,0,0
-469,-720,0,0,0,0,0,0,0,0,0,-1,755,1744,0,0
-462,-720,0,0,0,0,0,0,0,0,0,-1,762,1744,0,0
-455,-720,0,0,0,0,0,0,0,0,0,-1,769,1744,0,0
-448,-720,0,0,0,0,0,0,0,0,0,-1,776,1744,0,0
-441,-720,0,0,0,0,0,0,0,0,0,-1,783,1744,0,0
-434,-720,0,0,0,0,0,0,0,0,0,-1,790,1744,0,0
-427,-720,0,0,0,0,0,0,0,0,0,-1,797,1744,0,0
-420,-720,0,0,0,0,0,0,0,0,0,-1,804,1744,0,0
-413,-720,0,0,0,0,0,0,0,0,0,-1,811,1744,0,0
-406,-720,0,0,0,0,0,0,0,0,0,-1,818,1744,0,0
-399,-720,0,0,0,0,0,0,0,0,0,-1,825,1744,0,0
-392,-720,0,0,0,0,0,0,0,0,0,-1,832,1744,0,0
-385,-720,0,0,0,0,0,0,0,0,0,-1,839,1744,0,0
-378,-720,0,0,0,0,0,0,0,0,0,-1,846,1744,0,0
-371,-720,0,0,0,0,0,0,0,0,0,-1,853,1744,0,0
-364,-720,0,0,0,0,0,0,0,0,0,-1,860,1744,0,0
-357,-720,0,0,0,0,0,0,0,0,0,-1,867,1744,0,0
-350,-720,0,0,0,0,0,0,0,0,0,-1,874,1744,0,0
-343,-720,0,0,0,0,0,0,0,0,0,-1,881,1744,0,0
-336,-720,0,0,0,0,0,0,0,0,0,-1,888,1744,0,0
-329,-720,0,0,0,0,0,0,0,0,0,-1,895,1744,0,0
-322,-720,0,0,0,0,0,0,0,0,0,-1,902,1744,0,0
-315,-720,0,0,0,0,0,0,0,0,0,-1,909,1744,0,0
-308,-720,0,0,0,0,0,0,0,0,0,-1,916,1744,0,0
-301,-720,0,0,0,0,0,0,0,0,0,-1,923,1744,0,0
-294,-720,0,0,0,0,0,0,0,0,0,-1,930,1744,0,0
-287,-720,0,0,0,0,0,0,0,0,0,-1,937,1744,0,0
-280,-720,6.46796,22.6417,0,0,0,0,0,0,0,-1,944,1744,6.46793,-22.6417
-273,-720,8.54633,13.262,0,0,0,0,0,0,0,-1,951,1744,8.54636,-13.2619
-266,-720,7.28027,13.3165,0,0,0,0,0,0,0,-1,958,1744,7.28026,-13.3166
-259,-720,3.70563,18.6372,0,0,0,0,0,0,0,-1,965,1744,3.70564,-18.6372
-252,-720,4.00989,18.5059,0,0,0,0,0,0,0,-1,972,1744,4.00988,-18.5058
-245,-720,7.05634,33.8489,0,0,0,0,0,0,0,-1,979,1744,7.05634,-33.8489
-238,-720,5.02216,24.1455,0,0,0,0,0,0,0,-1,986,1744,5.02217,-24.1455
-231,-720,9.45819,50.8396,0,0,0,0,0,0,0,-1,993,1744,9.45816,-50.8396
-224,-720,8.57257,52.1987,0,0,0,0,0,0,0,-1,1000,1744,8.57257,-52.1987
-217,-720,9.41168,53.88,0,0,0,0,0,0,0,-1,1007,1744,9.41166,-53.88
-210,-720,8.74036,38.6686,0,0,0,0,0,0,0,-1,1014,1744,8.74035,-38.6686
-203,-720,8.89441,54.4926,0,0,0,0,0,0,0,-1,1021,1744,8.89436,-54.4925
-196,-720,9.16296,53.4498,0,0,0,0,0,0,0,-1,1028,1744,9.1629,-53.4499
-189,-720,9.32678,54.665,0,0,0,0,0,0,0,-1,1035,1744,9.32673,-54.665
-182,-720,9.29297,55.209,0,0,0,0,0,0,0,-1,1042,1744,9.29293,-55.209
-175,-720,9.35022,56.0148,-0.00243425,0.0056229,0.00685744,0.00954756,-0.00635891,1.05098,0.00924491,0.0466256,1049,1744,9.35027,-56.0148
-168,-720,9.29663,56.578,-0.00288021,0.00629925,0.00635822,0.00955124,-0.0061322,1.09802,0.00912627,0.0401468,1056,1744,9.29658,-56.578
-161,-720,9.11169,57.0148,-0.00335583,0.00667392,0.00599725,0.00947671,-0.00615863,1.13361,0.00909457,0.0288087,1063,1744,9.11171,-57.0148
-154,-720,9.15442,57.528,-0.00331056,0.00654322,0.00567357,0.00913056,-0.0058979,1.14294,0.00874334,0.0233828,1070,1744,9.15441,-57.528
-147,-720,9.08191,58.0958,-0.0030031,0.00631297,0.00513341,0.00858668,-0.00527681,1.15384,0.00807977,0.0256431,1077,1744,9.08188,-58.0958
-140,-720,9.04285,58.5907,-0.00269338,0.00591871,0.00468413,0.0079753,-0.00474997,1.15708,0.00742518,0.0232277,1084,1744,9.04286,-58.5907
-133,-720,8.97607,58.9974,-0.00244065,0.00549678,0.00419821,0.00730523,-0.00424911,1.16405,0.00674824,0.0173638,1091,1744,8.97605,-58.9974
-126,-720,8.974,59.4237,-0.00231614,0.00517702,0.00380532,0.0067706,-0.00390972,1.17421,0.00623959,0.0161238,1098,1744,8.97397,-59.4237
-119,-720,8.94238,59.8146,-0.00223386,0.00494752,0.00354957,0.00640584,-0.00369218,1.18098,0.00589985,0.0160535,1105,1744,8.94237,-59.8146
-112,-720,8.8916,60.2528,-0.00194851,0.00498339,0.00345371,0.00641039,-0.00337551,1.17898,0.00573974,0.0147757,1112,1744,8.8916,-60.2528
-105,-720,8.85828,60.6581,-0.00171855,0.00463497,0.00323738,0.00599389,-0.00307748,1.17337,0.00532681,0.0135142,1119,1744,8.85826,-60.6581
-98,-720,8.83484,61.0297,-0.00156645,0.00423259,0.00304663,0.00553892,-0.00287278,1.16573,0.00493714,0.0109665,1126,1744,8.83487,-61.0297
-91,-720,8.79236,61.3951,-0.00135505,0.00387374,0.00280934,0.00509698,-0.00257829,1.16013,0.00451015,0.0104514,1133,1744,8.79239,-61.3951
-84,-720,8.76074,61.7852,-0.00128289,0.00314695,0.00241817,0.00421127,-0.00234721,1.15618,0.00383718,0.0109833,1140,1744,8.76076,-61.7852
-77,-720,8.74731,62.141,-0.0010332,0.00259732,0.00216226,0.00360527,-0.00204115,1.13459,0.00330139,0.0134493,1147,1744,8.74728,-62.141
-70,-720,8.74475,62.4625,-0.000805416,0.00224998,0.00179836,0.00308193,-0.00163737,1.1375,0.00276691,0.0127474,1154,1744,8.74476,-62.4626
-63,-720,8.71497,62.7651,-0.000636985,0.00144161,0.00129616,0.00206369,-0.00125906,1.12333,0.00193705,0.0120041,1161,1744,8.71502,-62.7651
-56,-720,8.73169,63.0677,-0.000308261,0.000909386,0.000889365,0.00137835,-0.00077723,1.08554,0.00126056,0.0137695,1168,1744,8.73169,-63.0677
-49,-720,8.70032,63.3533,-0.000106039,0.000412923,0.000517933,0.000732739,-0.000425855,1.01762,0.000676691,0.0199719,1175,1744,8.70036,-63.3533
-42,-720,8.70605,63.5923,1.48741e-05,1.43043e-05,0.000320548,0.000335137,-0.000305959,0.784954,0.000370265,0.0211495,1182,1744,8.70604,-63.5923
-35,-720,8.71106,63.8381,0.000238092,-0.000399188,0.00029607,0.000354411,-0.000515506,0.374349,0.000505109,0.018347,1189,1744,8.71101,-63.8381
-28,-720,8.70752,64.0858,0.000564681,-0.000918223,0.000154955,0.0005807,-0.000934242,0.103012,0.000882555,0.0118856,1196,1744,8.70754,-64.0858
-21,-720,8.70459,64.3171,0.000920123,-0.00143187,0.000119,0.000926129,-0.00143788,0.0504235,0.00137548,0.00983656,1203,1744,8.70461,-64.3172
-14,-720,8.70239,64.4832,0.00127526,-0.00181106,0.000148461,0.00128239,-0.00181819,0.0479553,0.00179901,0.0117093,1210,1744,8.70245,-64.4831
-7,-720,8.72351,64.6864,0.00160884,-0.00204952,0.000238744,0.00162436,-0.00206503,0.0648929,0.00213513,0.0123905,1217,1744,8.72354,-64.6864
0,-720,8.74414,64.8599,0.00196129,-0.00201672,0.000424353,0.00200605,-0.00206149,0.105099,0.00234847,0.0134742,1224,1744,8.74416,-64.8599
7,-720,8.76086,64.9651,0.00233123,-0.00186215,0.000609417,0.002418,-0.00194892,0.141432,0.00252608,0.0164888,1231,1744,8.76087,-64.9651
14,-720,8.77466,65.1132,0.00284706,-0.00164316,0.000848127,0.00300192,-0.00179801,0.180597,0.00280015,0.0147502,1238,1744,8.77469,-65.1131
21,-720,8.77539,65.248,0.00335728,-0.00133164,0.00106851,0.00358929,-0.00156365,0.213816,0.00305071,0.0114236,1245,1744,8.77538,-65.248
28,-720,8.79956,65.3425,0.00390742,-0.0010218,0.0012579,0.00420987,-0.00132425,0.23596,0.00333677,0.0111176,1252,1744,8.79959,-65.3426
35,-720,8.83899,65.4021,0.00439068,-0.000732383,0.0013878,0.00474247,-0.00108417,0.248257,0.00357821,0.0104415,1259,1744,8.83894,-65.4021
42,-720,8.85278,65.4509,0.00484532,-0.000384113,0.00156717,0.00527901,-0.000817801,0.269977,0.00382122,0.0105986,1266,1744,8.85281,-65.4509
49,-720,8.86621,65.4529,0.00478696,-0.000322322,0.00175864,0.00533377,-0.000869132,0.301452,0.00387816,0.0138809,1273,1744,8.86625,-65.4529
56,-720,8.88074,65.4719,0.00447479,-0.000651327,0.00178435,0.00503475,-0.00121128,0.304079,0.00382473,0.0139383,1280,1744,8.88077,-65.4719
63,-720,8.93335,65.5034,0.00403444,-0.00102166,0.00164697,0.0045236,-0.00151082,0.288707,0.00362583,0.0151067,1287,1744,8.93335,-65.5034
70,-720,8.97375,65.5052,0.00355687,-0.00157976,0.00125735,0.00384813,-0.00187102,0.227632,0.00336708,0.0144088,1294,1744,8.97377,-65.5052
77,-720,8.96875,65.4507,0.00304177,-0.00213507,0.000948337,0.00321003,-0.00230333,0.175595,0.00319745,0.0160976,1301,1744,8.96872,-65.4507
84,-720,8.9823,65.3684,0.00242982,-0.00264882,0.000646049,0.00251072,-0.00272972,0.124566,0.00302645,0.0150247,1308,1744,8.98232,-65.3684
91,-720,8.99426,65.3022,0.00178661,-0.00307736,0.000286561,0.00180343,-0.00309418,0.0586446,0.00286019,0.0151412,1315,1744,8.99421,-65.3022
98,-720,8.98486,65.2682,0.00121669,-0.00334814,-8.63426e-05,0.00121832,-0.00334977,-0.0189058,0.00273141,0.0138873,1322,1744,8.9849,-65.2682
105,-720,9.00476,65.1895,0.000744756,-0.00361272,-0.000389168,0.00077924,-0.0036472,-0.0883783,0.00272856,0.0120691,1329,1744,9.00482,-65.1895
112,-720,9.0387,65.0645,0.000457706,-0.00367822,-0.000661348,0.000560884,-0.0037814,-0.154764,0.00272719,0.011156,1336,1744,9.03875,-65.0645
119,-720,9.05225,64.9261,0.000171168,-0.00357747,-0.0008448,0.000352757,-0.00375906,-0.211728,0.00263152,0.0114753,1343,1744,9.05223,-64.9262
126,-720,9.07166,64.7706,9.681e-05,-0.00327267,-0.000889074,0.000317011,-0.00349287,-0.242789,0.00244112,0.0116701,1350,1744,9.07161,-64.7707
133,-720,9.09631,64.5845,0.000114892,-0.00271575,-0.000832836,0.000341749,-0.00294261,-0.265939,0.00208501,0.0125404,1357,1744,9.09626,-64.5844
140,-720,9.16309,64.4321,0.000214009,-0.00199041,-0.000713984,0.000425055,-0.00220146,-0.287405,0.00162793,0.0190586,1364,1744,9.16312,-64.4322
147,-720,9.14612,64.2122,0.000299595,-0.00122878,-0.000675915,0.000555624,-0.00148481,-0.362089,0.00121808,0.020221,1371,1744,9.14608,-64.2122
154,-720,9.09497,63.9434,0.000504591,-0.00048644,-0.000703207,0.000869329,-0.000851177,-0.478478,0.000993353,0.0133717,1378,1744,9.09499,-63.9433
161,-720,9.13623,63.6802,0.000577876,0.000244531,-0.000668921,0.00110058,-0.000278169,-0.663301,0.000841901,0.0102494,1385,1744,9.13624,-63.6802
168,-720,9.13379,63.4208,0.00048094,0.000868601,-0.000633769,0.00133752,1.20238e-05,-0.9338,0.000887698,0.0112168,1392,1744,9.1338,-63.4207
175,-720,9.08887,63.1384,0.00027213,0.00138662,-0.000651247,0.00168649,-2.77398e-05,-1.13928,0.00113369,0.0177307,1399,1744,9.08886,-63.1384
182,-720,9.06836,62.8606,-6.3201e-06,0.00173167,-0.00084578,0.00207532,-0.000349965,-1.18487,0.00151374,0.0164967,1406,1744,9.06841,-62.8605
189,-720,9.08301,62.5674,-0.000278741,0.0020405,-0.00122157,0.00256521,-0.000803442,-1.16509,0.00203162,0.0137873,1413,1744,9.08301,-62.5674
196,-720,9.10144,62.2277,-0.000500226,0.00222959,-0.00149392,0.00288823,-0.00115887,-1.15555,0.00240666,0.0140502,1420,1744,9.10148,-62.2276
203,-720,9.05591,61.8818,-0.000737905,0.00209243,-0.00174338,0.00292272,-0.00156819,-1.12633,0.00263185,0.0157073,1427,1744,9.05594,-61.8818
210,-720,9.05664,61.5398,-0.000904559,0.00300816,-0.00213174,0.00394518,-0.00184158,-1.15666,0.00341378,0.0148827,1434,1744,9.05668,-61.5398
217,-720,9.052,61.1588,-0.00113669,0.00389546,-0.00239783,0.00485505,-0.00209627,-1.19013,0.00411735,0.0139934,1441,1744,9.05199,-61.1588
224,-720,9.02051,60.7772,-0.00126685,0.0046856,-0.00272149,0.0057423,-0.00232354,-1.20044,0.00479422,0.0101302,1448,1744,9.02054,-60.7772
231,-720,9.00708,60.4016,-0.00157294,0.0054213,-0.00296813,0.00651108,-0.00266272,-1.21892,0.00544962,0.010745,1455,1744,9.00711,-60.4016
238,-720,8.979,59.9943,-0.00188032,0.0061168,-0.00311321,0.00718583,-0.00294936,-1.24002,0.00601955,0.00958007,1462,1744,8.97902,-59.9943
245,-720,8.93909,59.5917,-0.00218918,0.00666728,-0.00329015,0.00775578,-0.00327768,-1.25129,0.00654273,0.0117905,1469,1744,8.93906,-59.5917
252,-720,8.92017,59.1517,-0.00261876,0.00722889,-0.00341539,0.00829747,-0.00368734,-1.26757,0.00708802,0.0120575,1476,1744,8.92012,-59.1517
259,-720,8.88367,58.7076,-0.00300828,0.00752903,-0.00349226,0.00858134,-0.00406058,-1.27812,0.00745275,0.0110302,1483,1744,8.88364,-58.7076
266,-720,8.83215,58.2554,-0.00344027,0.00772075,-0.00358079,0.00877079,-0.00449031,-1.28555,0.00778812,0.0083349,1490,1744,8.83212,-58.2554
273,-720,8.79504,57.7753,-0.00399494,0.00805209,-0.00375265,0.00912541,-0.00506826,-1.29222,0.00830556,0.0140835,1497,1744,8.79504,-57.7752
280,-720,8.69836,57.3063,-0.00468236,0.00827888,-0.00390231,0.00936308,-0.00576656,-1.2998,0.00881699,0.0203015,1504,1744,8.69837,-57.3063
287,-720,8.61328,56.7511,-0.00553161,0.00867506,-0.0040577,0.00975233,-0.00660888,-1.31129,0.00950408,0.0340382,1511,1744,8.61324,-56.7511
294,-720,8.68079,56.2397,0,0,0,0,0,0,0,-1,1518,1744,8.6808,-56.2397
301,-720,8.39087,55.5127,0,0,0,0,0,0,0,-1,1525,1744,8.39088,-55.5127
308,-720,8.48608,51.5551,0,0,0,0,0,0,0,-1,1532,1744,8.48612,-51.555
315,-720,8.66516,48.6633,0,0,0,0,0,0,0,-1,1539,1744,8.6651,-48.6633
322,-720,8.98181,43.5223,0,0,0,0,0,0,0,-1,1546,1744,8.98176,-43.5223
329,-720,9.15906,34.7668,0,0,0,0,0,0,0,-1,1553,1744,9.1591,-34.7669
336,-720,6.14148,26.5682,0,0,0,0,0,0,0,-1,1560,1744,6.14151,-26.5683
343,-720,6.78552,21.3625,0,0,0,0,0,0,0,-1,1567,1744,6.78551,-21.3625
350,-720,4.0741,11.1836,0,0,0,0,0,0,0,-1,1574,1744,4.07412,-11.1836
357,-720,6.90833,21.4504,0,0,0,0,0,0,0,-1,1581,1744,6.90827,-21.4505
364,-720,6.59497,44.1384,0,0,0,0,0,0,0,-1,1588,1744,6.59492,-44.1385
371,-720,6.67773,45.2386,0,0,0,0,0,0,0,-1,1595,1744,6.67779,-45.2386
378,-720,3.88257,25.5404,0,0,0,0,0,0,0,-1,1602,1744,3.88262,-25.5404
385,-720,4.672,37.3854,0,0,0,0,0,0,0,-1,1609,1744,4.67202,-37.3854
392,-720,4.89319,36.2684,0,0,0,0,0,0,0,-1,1616,1744,4.89323,-36.2684
399,-720,2.37317,24.7166,0,0,0,0,0,0,0,-1,1623,1744,2.37317,-24.7166
406,-720,0,0,0,0,0,0,0,0,0,-1,1630,1744,0,0
413,-720,0,0,0,0,0,0,0,0,0,-1,1637,1744,0,0
420,-720,0,0,0,0,0,0,0,0,0,-1,1644,1744,0,0
427,-720,0,0,0,0,0,0,0,0,0,-1,1651,1744,0,0
434,-720,0,0,0,0,0,0,0,0,0,-1,1658,1744,0,0
441,-720,0,0,0,0,0,0,0,0,0,-1,1665,1744,0,0
448,-720,0,0,0,0,0,0,0,0,0,-1,1672,1744,0,0
455,-720,0,0,0,0,0,0,0,0,0,-1,1679,1744,0,0
462,-720,0,0,0,0,0,0,0,0,0,-1,1686,1744,0,0
469,-720,0,0,0,0,0,0,0,0,0,-1,1693,1744,0,0
476,-720,0,0,0,0,0,0,0,0,0,-1,1700,1744,0,0
483,-720,0,0,0,0,0,0,0,0,0,-1,1707,1744,0,0
490,-720,0,0,0,0,0,0,0,0,0,-1,1714,1744,0,0
497,-720,0,0,0,0,0,0,0,0,0,-1,1721,1744,0,0
504,-720,0,0,0,0,0,0,0,0,0,-1,1728,1744,0,0
511,-720,0,0,0,0,0,0,0,0,0,-1,1735,1744,0,0
518,-720,0,0,0,0,0,0,0,0,0,-1,1742,1744,0,0
525,-720,0,0,0,0,0,0,0,0,0,-1,1749,1744,0,0
532,-720,0,0,0,0,0,0,0,0,0,-1,1756,1744,0,0
539,-720,0,0,0,0,0,0,0,0,0,-1,1763,1744,0,0
546,-720,0,0,0,0,0,0,0,0,0,-1,1770,1744,0,0
553,-720,0,0,0,0,0,0,0,0,0,-1,1777,1744,0,0
560,-720,0,0,0,0,0,0,0,0,0,-1,1784,1744,0,0
567,-720,0,0,0,0,0,0,0,0,0,-1,1791,1744,0,0
574,-720,0,0,0,0,0,0,0,0,0,-1,1798,1744,0,0
581,-720,0,0,0,0,0,0,0,0,0,-1,1805,1744,0,0
588,-720,0,0,0,0,0,0,0,0,0,-1,1812,1744,0,0
595,-720,0,0,0,0,0,0,0,0,0,-1,1819,1744,0,0
602,-720,0,0,0,0,0,0,0,0,0,-1,1826,1744,0,0
609,-720,0,0,0,0,0,0,0,0,0,-1,1833,1744,0,0
616,-720,0,0,0,0,0,0,0,0,0,-1,1840,1744,0,0
623,-720,0,0,0,0,0,0,0,0,0,-1,1847,1744,0,0
630,-720,0,0,0,0,0,0,0,0,0,-1,1854,1744,0,0
637,-720,0,0,0,0,0,0,0,0,0,-1,1861,1744,0,0
644,-720,0,0,0,0,0,0,0,0,0,-1,1868,1744,0,0
651,-720,0,0,0,0,0,0,0,0,0,-1,1875,1744,0,0
658,-720,0,0,0,0,0,0,0,0,0,-1,1882,1744,0,0
665,-720,0,0,0,0,0,0,0,0,0,-1,1889,1744,0,0
672,-720,0,0,0,0,0,0,0,0,0,-1,1896,1744,0,0
679,-720,0,0,0,0,0,0,0,0,0,-1,1903,1744,0,0
686,-720,0,0,0,0,0,0,0,0,0,-1,1910,1744,0,0
693,-720,0,0,0,0,0,0,0,0,0,-1,1917,1744,0,0
700,-720,0,0,0,0,0,0,0,0,0,-1,1924,1744,0,0
707,-720,0,0,0,0,0,0,0,0,0,-1,1931,1744,0,0
714,-720,0,0,0,0,0,0,0,0,0,-1,1938,1744,0,0
721,-720,0,0,0,0,0,0,0,0,0,-1,1945,1744,0,0
728,-720,0,0,0,0,0,0,0,0,0,-1,1952,1744,0,0
735,-720,0,0,0,0,0,0,0,0,0,-1,1959,1744,0,0
742,-720,0,0,0,0,0,0,0,0,0,-1,1966,1744,0,0
749,-720,0,0,0,0,0,0,0,0,0,-1,1973,1744,0,0
756,-720,0,0,0,0,0,0,0,0,0,-1,1980,1744,0,0
763,-720,0,0,0,0,0,0,0,0,0,-1,1987,1744,0,0
770,-720,0,0,0,0,0,0,0,0,0,-1,1994,1744,0,0
777,-720,0,0,0,0,0,0,0,0,0,-1,2001,1744,0,0
784,-720,0,0,0,0,0,0,0,0,0,-1,2008,1744,0,0
791,-720,0,0,0,0,0,0,0,0,0,-1,2015,1744,0,0
798,-720,0,0,0,0,0,0,0,0,0,-1,2022,1744,0,0
805,-720,0,0,0,0,0,0,0,0,0,-1,2029,1744,0,0
812,-720,0,0,0,0,0,0,0,0,0,-1,2036,1744,0,0
-700,-727,0,0,0,0,0,0,0,0,0,-1,524,1751,0,0
-693,-727,0,0,0,0,0,0,0,0,0,-1,531,1751,0,0
-686,-727,0,0,0,0,0,0,0,0,0,-1,538,1751,0,0
-679,-727,0,0,0,0,0,0,0,0,0,-1,545,1751,0,0
-672,-727,0,0,0,0,0,0,0,0,0,-1,552,1751,0,0
-665,-727,0,0,0,0,0,0,0,0,0,-1,559,1751,0,0
-658,-727,0,0,0,0,0,0,0,0,0,-1,566,1751,0,0
-651,-727,0,0,0,0,0,0,0,0,0,-1,573,1751,0,0
-644,-727,0,0,0,0,0,0,0,0,0,-1,580,1751,0,0
-637,-727,0,0,0,0,0,0,0,0,0,-1,587,1751,0,0
-630,-727,0,0,0,0,0,0,0,0,0,-1,594,1751,0,0
-623,-727,0,0,0,0,0,0,0,0,0,-1,601,1751,0,0
-616,-727,0,0,0,0,0,0,0,0,0,-1,608,1751,0,0
-609,-727,0,0,0,0,0,0,0,0,0,-1,615,1751,0,0
-602,-727,0,0,0,0,0,0,0,0,0,-1,622,1751,0,0
-595,-727,0,0,0,0,0,0,0,0,0,-1,629,1751,0,0
-588,-727,0,0,0,0,0,0,0,0,0,-1,636,1751,0,0
-581,-727,0,0,0,0,0,0,0,0,0,-1,643,1751,0,0
-574,-727,0,0,0,0,0,0,0,0,0,-1,650,1751,0,0
-567,-727,0,0,0,0,0,0,0,0,0,-1,657,1751,0,0
-560,-727,0,0,0,0,0,0,0,0,0,-1,664,1751,0,0
-553,-727,0,0,0,0,0,0,0,0,0,-1,671,1751,0,0
-546,-727,0,0,0,0,0,0,0,0,0,-1,678,1751,0,0
-539,-727,0,0,0,0,0,0,0,0,0,-1,685,1751,0,0
-532,-727,0,0,0,0,0,0,0,0,0,-1,692,1751,0,0
-525,-727,0,0,0,0,0,0,0,0,0,-1,699,1751,0,0
-518,-727,0,0,0,0,0,0,0,0,0,-1,706,1751,0,0
-511,-727,0,0,0,0,0,0,0,0,0,-1,713,1751,0,0
-504,-727,0,0,0,0,0,0,0,0,0,-1,720,1751,0,0
-497,-727,0,0,0,0,0,0,0,0,0,-1,727,1751,0,0
-490,-727,0,0,0,0,0,0,0,0,0,-1,734,1751,0,0
-483,-727,0,0,0,0,0,0,0,0,0,-1,741,1751,0,0
-476,-727,0,0,0,0,0,0,0,0,0,-1,748,1751,0,0
-469,-727,0,0,0,0,0,0,0,0,0,-1,755,1751,0,0
-462,-727,0,0,0,0,0,0,0,0,0,-1,762,1751,0,0
-455,-727,0,0,0,0,0,0,0,0,0,-1,769,1751,0,0
-448,-727,0,0,0,0,0,0,0,0,0,-1,776,1751,0,0
-441,-727,0,0,0,0,0,0,0,0,0,-1,783,1751,0,0
-434,-727,0,0,0,0,0,0,0,0,0,-1,790,1751,0,0
-427,-727,0,0,0,0,0,0,0,0,0,-1,797,1751,0,0
-420,-727,0,0,0,0,0,0,0,0,0,-1,804,1751,0,0
-413,-727,0,0,0,0,0,0,0,0,0,-1,811,1751,0,0
-406,-727,0,0,0,0,0,0,0,0,0,-1,818,1751,0,0
-399,-727,0,0,0,0,0,0,0,0,0,-1,825,1751,0,0
-392,-727,0,0,0,0,0,0,0,0,0,-1,832,1751,0,0
-385,-727,0,0,0,0,0,0,0,0,0,-1,839,1751,0,0
-378,-727,0,0,0,0,0,0,0,0,0,-1,846,1751,0,0
-371,-727,0,0,0,0,0,0,0,0,0,-1,853,1751,0,0
-364,-727,0,0,0,0,0,0,0,0,0,-1,860,1751,0,0
-357,-727,0,0,0,0,0,0,0,0,0,-1,867,1751,0,0
-350,-727,0,0,0,0,0,0,0,0,0,-1,874,1751,0,0
-343,-727,0,0,0,0,0,0,0,0,0,-1,881,1751,0,0
-336,-727,0,0,0,0,0,0,0,0,0,-1,888,1751,0,0
-329,-727,0,0,0,0,0,0,0,0,0,-1,895,1751,0,0
-322,-727,0,0,0,0,0,0,0,0,0,-1,902,1751,0,0
-315,-727,0,0,0,0,0,0,0,0,0,-1,909,1751,0,0
-308,-727,0,0,0,0,0,0,0,0,0,-1,916,1751,0,0
-301,-727,0,0,0,0,0,0,0,0,0,-1,923,1751,0,0
-294,-727,0,0,0,0,0,0,0,0,0,-1,930,1751,0,0
-287,-727,0,0,0,0,0,0,0,0,0,-1,937,1751,0,0
-280,-727,0,0,0,0,0,0,0,0,0,-1,944,1751,0,0
-273,-727,0,0,0,0,0,0,0,0,0,-1,951,1751,0,0
-266,-727,4.24805,7.61145,0,0,0,0,0,0,0,-1,958,1751,4.24802,-7.6115
-259,-727,3.65228,5.4082,0,0,0,0,0,0,0,-1,965,1751,3.65229,-5.40818
-252,-727,5.8797,32.9292,0,0,0,0,0,0,0,-1,972,1751,5.87972,-32.9292
-245,-727,6.59198,32.2588,0,0,0,0,0,0,0,-1,979,1751,6.59195,-32.2587
-238,-727,6.6189,30.4597,0,0,0,0,0,0,0,-1,986,1751,6.61889,-30.4598
-231,-727,9.95819,51.5021,0,0,0,0,0,0,0,-1,993,1751,9.95818,-51.5021
-224,-727,10.0845,52.0088,0,0,0,0,0,0,0,-1,1000,1751,10.0845,-52.0088
-217,-727,10.2109,52.5154,0,0,0,0,0,0,0,-1,1007,1751,10.2109,-52.5154
-210,-727,5.0921,32.4524,0,0,0,0,0,0,0,-1,1014,1751,5.09209,-32.4523
-203,-727,14.1763,48.6819,0,0,0,0,0,0,0,-1,1021,1751,14.1763,-48.6819
-196,-727,13.0454,48.5956,0,0,0,0,0,0,0,-1,1028,1751,13.0455,-48.5955
-189,-727,10.3168,48.1697,0,0,0,0,0,0,0,-1,1035,1751,10.3168,-48.1697
-182,-727,9.7688,54.5945,0,0,0,0,0,0,0,-1,1042,1751,9.76886,-54.5945
-175,-727,9.87683,56.1433,0,0,0,0,0,0,0,-1,1049,1751,9.87683,-56.1433
-168,-727,9.69421,56.7211,0,0,0,0,0,0,0,-1,1056,1751,9.69424,-56.7211
-161,-727,9.39709,57.0983,0,0,0,0,0,0,0,-1,1063,1751,9.3971,-57.0983
-154,-727,9.59814,57.4706,0,0,0,0,0,0,0,-1,1070,1751,9.59819,-57.4706
-147,-727,9.02563,57.9878,0,0,0,0,0,0,0,-1,1077,1751,9.02562,-57.9878
-140,-727,9.30139,58.3441,-0.00333116,0.00852296,0.00636819,0.0112955,-0.00610375,1.16017,0.0101935,0.0358336,1084,1751,9.30134,-58.3442
-133,-727,9.43713,58.8341,-0.00321194,0.00808623,0.00579705,0.0105315,-0.00565717,1.17163,0.00948668,0.0275296,1091,1751,9.43711,-58.8341
-126,-727,9.33105,59.403,-0.00322768,0.00770423,0.00535254,0.00988852,-0.00541197,1.18334,0.00895889,0.0198519,1098,1751,9.33107,-59.403
-119,-727,9.33655,59.8112,-0.00331119,0.00735553,0.00503279,0.00935522,-0.00531089,1.19259,0.00857413,0.0237851,1105,1751,9.33659,-59.8111
-112,-727,9.25159,60.106,-0.00310511,0.00742884,0.00493608,0.00938031,-0.00505658,1.19431,0.00845883,0.0406107,1112,1751,9.25161,-60.106
-105,-727,9.10852,60.5081,-0.00297115,0.00696016,0.00468154,0.00881906,-0.00483005,1.19282,0.00799171,0.0361291,1119,1751,9.10852,-60.5081
-98,-727,9.15332,61.0425,-0.00294088,0.00640346,0.00443644,0.00817421,-0.00471162,1.19103,0.00752864,0.0157663,1126,1751,9.15328,-61.0425
-91,-727,9.13416,61.4187,-0.00282089,0.00584926,0.00413954,0.00750824,-0.00447986,1.18963,0.00699456,0.0135061,1133,1751,9.13412,-61.4187
-84,-727,9.09521,61.764,-0.00291403,0.00469546,0.00360802,0.00613418,-0.00435275,1.19136,0.00608368,0.013386,1140,1751,9.09518,-61.764
-77,-727,9.05957,62.1173,-0.00272121,0.00380795,0.00328387,0.00517384,-0.0040871,1.17662,0.00535906,0.0133932,1147,1751,9.05953,-62.1174
-70,-727,9.05603,62.4805,-0.00258596,0.00330666,0.00278377,0.00441376,-0.00369306,1.19228,0.00468664,0.0149993,1154,1751,9.05606,-62.4805
-63,-727,9.02771,62.7948,-0.00301437,0.00209312,0.00185596,0.00269631,-0.00361756,1.25657,0.00365822,0.0118175,1161,1751,9.02776,-62.7948
-56,-727,8.99353,63.0681,-0.00281359,0.00160319,0.00125164,0.00193322,-0.00314362,1.31298,0.00295876,0.0118577,1168,1751,8.99356,-63.0682
-49,-727,8.97424,63.3408,-0.00276319,0.00124637,0.000795172,0.00139831,-0.00291513,1.38199,0.00254118,0.0136798,1175,1751,8.9743,-63.3408
-42,-727,8.94995,63.6075,-0.00295998,0.000973743,0.00060571,0.0010649,-0.00305113,1.42143,0.0024669,0.016426,1182,1751,8.95,-63.6076
-35,-727,8.91479,63.8391,-0.00288691,0.000554566,0.000924242,0.000787072,-0.00311942,1.32435,0.00238565,0.0151966,1189,1751,8.91477,-63.8391
-28,-727,8.90662,64.0717,-0.00262565,-6.20909e-05,0.000942035,0.000246849,-0.00293459,1.2539,0.00204365,0.00952587,1196,1751,8.9066,-64.0717
-21,-727,8.89709,64.3094,-0.00239108,-0.000620617,0.00105356,-0.000129759,-0.00288194,1.1348,0.00187953,0.0108475,1203,1751,8.89705,-64.3095
-14,-727,8.89758,64.5126,-0.00211364,-0.00105451,0.0012424,-0.000233523,-0.00293463,0.986859,0.00188341,0.0121586,1210,1751,8.89761,-64.5126
-7,-727,8.89392,64.7217,-0.00182412,-0.00139792,0.00147222,-0.00012345,-0.00309858,0.857273,0.00202583,0.0158729,1217,1751,8.89391,-64.7217
0,-727,8.89185,64.8832,-0.00145112,-0.00146231,0.00177324,0.000316537,-0.00322997,0.78382,0.0022662,0.0158046,1224,1751,8.89186,-64.8831
7,-727,8.89966,64.9626,-0.000978213,-0.00138186,0.00200374,0.000833845,-0.00319392,0.735205,0.0024549,0.0150055,1231,1751,8.89967,-64.9626
14,-727,8.89624,65.0988,-0.000414087,-0.00123127,0.00212951,0.00134567,-0.00299103,0.690614,0.00256316,0.0149975,1238,1751,8.89627,-65.0988
21,-727,8.88025,65.2472,0.000131528,-0.00110665,0.00214977,0.00174958,-0.0027247,0.645203,0.00260359,0.0132312,1245,1751,8.88025,-65.2472
28,-727,8.90491,65.3302,0.000561686,-0.000913976,0.0020169,0.00197147,-0.00232376,0.610047,0.00248263,0.0115633,1252,1751,8.90488,-65.3302
35,-727,8.94348,65.3909,0.000963011,-0.000729794,0.00181418,0.00211852,-0.0018853,0.567133,0.00231291,0.0118769,1259,1751,8.94342,-65.3909
42,-727,8.91028,65.4376,0.00131247,-0.000481236,0.0016464,0.00229045,-0.00145921,0.536002,0.00218253,0.0117852,1266,1751,8.91027,-65.4376
49,-727,8.87256,65.4844,0.00134373,-0.00050536,0.00146792,0.002154,-0.00131563,0.504365,0.00202259,0.0105655,1273,1751,8.87254,-65.4844
56,-727,8.85852,65.5253,0.00129285,-0.000585521,0.00117654,0.00185909,-0.00115176,0.448558,0.00175423,0.00965772,1280,1751,8.85856,-65.5252
63,-727,8.9104,65.5298,0.00118712,-0.000649815,0.000783345,0.00147581,-0.000938498,0.353082,0.00140536,0.0121533,1287,1751,8.91043,-65.5298
70,-727,8.95569,65.4857,0.000974144,-0.00086902,0.000150484,0.00098635,-0.000881225,0.0809299,0.00107881,0.015203,1294,1751,8.95564,-65.4857
77,-727,8.93201,65.4457,0.000694226,-0.00115099,-0.000235185,0.00072373,-0.00118049,-0.124799,0.0011099,0.0180242,1301,1751,8.93198,-65.4456
84,-727,8.93372,65.3292,0.000402248,-0.00135628,-0.000482035,0.000525712,-0.00147974,-0.25074,0.00120073,0.0178621,1308,1751,8.93375,-65.3292
91,-727,8.92847,65.2284,8.82462e-05,-0.00141832,-0.000783452,0.000421809,-0.00175188,-0.402515,0.00133099,0.019995,1315,1751,8.92849,-65.2284
98,-727,8.91028,65.2312,-0.000197819,-0.00121348,-0.00110329,0.00050891,-0.0019202,-0.569712,0.00147925,0.0165691,1322,1751,8.91029,-65.2312
105,-727,8.91248,65.1689,-0.000452314,-0.0011141,-0.00135142,0.000608133,-0.00217454,-0.665337,0.0016893,0.0134069,1329,1751,8.91244,-65.169
112,-727,8.92749,65.0437,-0.000629726,-0.00088971,-0.00156635,0.000812012,-0.00233145,-0.743998,0.00188422,0.0117644,1336,1751,8.92752,-65.0437
119,-727,8.94238,64.9037,-0.000814648,-0.000549544,-0.00166596,0.000989131,-0.00235332,-0.825097,0.00198262,0.0101548,1343,1751,8.94233,-64.9037
126,-727,8.95984,64.7396,-0.000889861,-2.39758e-05,-0.00166963,0.00126793,-0.00218177,-0.912256,0.00201485,0.0108374,1350,1751,8.95986,-64.7397
133,-727,8.94336,64.5452,-0.000884927,0.000571198,-0.00156854,0.00157241,-0.00188614,-1.00268,0.00199953,0.0152014,1357,1751,8.94335,-64.5451
140,-727,8.96497,64.4052,-0.000959673,0.00125277,-0.00144187,0.00196389,-0.00167079,-1.11261,0.00210076,0.021886,1364,1751,8.96494,-64.4051
147,-727,8.94751,64.2009,-0.00106784,0.00194459,-0.00137847,0.00248015,-0.0016034,-1.20023,0.00237569,0.018114,1371,1751,8.94752,-64.2009
154,-727,8.91626,63.9255,-0.00116161,0.00256069,-0.00136837,0.00300959,-0.00161051,-1.25381,0.00270788,0.0117439,1378,1751,8.91626,-63.9256
161,-727,8.89478,63.681,-0.00132995,0.00295658,-0.00133063,0.00333604,-0.00170941,-1.29299,0.00296303,0.00958876,1385,1751,8.89483,-63.681
168,-727,8.8667,63.4375,-0.0015867,0.00317753,-0.00132059,0.0035191,-0.00192827,-1.3177,0.00318943,0.0130387,1392,1751,8.86674,-63.4375
175,-727,8.85278,63.1598,-0.0018323,0.00337826,-0.00134268,0.0037039,-0.00215794,-1.33286,0.00342334,0.0196975,1399,1751,8.85277,-63.1598
182,-727,8.84863,62.8855,-0.00209026,0.0035502,-0.00139378,0.00387581,-0.00241587,-1.3413,0.00366496,0.0207534,1406,1751,8.84864,-62.8855
189,-727,8.81287,62.5623,-0.00237071,0.00358592,-0.00192295,0.00415276,-0.00293755,-1.28414,0.00411358,0.0131072,1413,1751,8.81292,-62.5622
196,-727,8.76868,62.2297,-0.00255373,0.00353396,-0.00219985,0.00424569,-0.00326546,-1.25789,0.00434886,0.0137471,1420,1751,8.76868,-62.2297
203,-727,8.70386,61.8781,-0.00270332,0.00277126,-0.0024468,0.00370543,-0.00363748,-1.20609,0.00423949,0.0158726,1427,1751,8.70389,-61.878
210,-727,8.69409,61.5336,-0.0026737,0.00412362,-0.00300823,0.00526372,-0.0038138,-1.20853,0.00526314,0.0170071,1434,1751,8.69403,-61.5336
217,-727,8.68323,61.1788,-0.0027687,0.00535916,-0.00335011,0.006562,-0.00397153,-1.22609,0.00614253,0.0131552,1441,1751,8.68321,-61.1788
224,-727,8.64197,60.7693,-0.00271782,0.00641116,-0.00372125,0.00773584,-0.0040425,-1.22881,0.00691077,0.013174,1448,1751,8.64199,-60.7693
231,-727,8.62,60.3813,-0.00294685,0.00737009,-0.00400282,0.00874097,-0.00431773,-1.24084,0.00768226,0.0118846,1455,1751,8.61995,-60.3814
238,-727,8.63416,59.8203,-0.00317517,0.00824831,-0.00416821,0.0096075,-0.00453435,-1.25558,0.00833808,0.0253161,1462,1751,8.63416,-59.8203
245,-727,8.67371,59.3862,-0.00338714,0.00895611,-0.00438871,0.0103574,-0.00478848,-1.26172,0.00893937,0.045493,1469,1751,8.67365,-59.3862
252,-727,8.56934,59.0348,-0.00375712,0.00965647,-0.00457451,0.011068,-0.00516865,-1.2715,0.00957826,0.0494682,1476,1751,8.56935,-59.0348
259,-727,8.44873,58.5905,-0.00409702,0.0100397,-0.00465884,0.0114369,-0.00549428,-1.27942,0.00997391,0.0413569,1483,1751,8.44868,-58.5905
266,-727,8.45569,58.188,-0.00450578,0.0102799,-0.00471881,0.0116575,-0.00588342,-1.28674,0.0103085,0.0285899,1490,1751,8.45572,-58.188
273,-727,8.49609,57.7659,-0.00508403,0.0106058,-0.0048953,0.0120078,-0.0064861,-1.29185,0.010835,0.0382012,1497,1751,8.49607,-57.7659
280,-727,8.18958,57.3324,0,0,0,0,0,0,0,-1,1504,1751,8.18956,-57.3324
287,-727,8.06104,56.7308,0,0,0,0,0,0,0,-1,1511,1751,8.061,-56.7308
294,-727,8.48657,53.1189,0,0,0,0,0,0,0,-1,1518,1751,8.48656,-53.1189
301,-727,8.44385,46.1619,0,0,0,0,0,0,0,-1,1525,1751,8.4439,-46.1619
308,-727,8.77002,44.8007,0,0,0,0,0,0,0,-1,1532,1751,8.76996,-44.8006
315,-727,8.10571,41.24,0,0,0,0,0,0,0,-1,1539,1751,8.10567,-41.2399
322,-727,8.24133,40.2081,0,0,0,0,0,0,0,-1,1546,1751,8.24136,-40.2082
329,-727,5.54419,31.0325,0,0,0,0,0,0,0,-1,1553,1751,5.54425,-31.0325
336,-727,5.55823,20.2439,0,0,0,0,0,0,0,-1,1560,1751,5.55829,-20.2438
343,-727,2.41699,8.72095,0,0,0,0,0,0,0,-1,1567,1751,2.41702,-8.72098
350,-727,3.89783,7.50195,0,0,0,0,0,0,0,-1,1574,1751,3.89782,-7.50193
357,-727,4.48462,10.2948,0,0,0,0,0,0,0,-1,1581,1751,4.48464,-10.2948
364,-727,6.96729,17.2365,0,0,0,0,0,0,0,-1,1588,1751,6.96732,-17.2365
371,-727,5.04565,23.2227,0,0,0,0,0,0,0,-1,1595,1751,5.04564,-23.2227
378,-727,4.56726,23.0574,0,0,0,0,0,0,0,-1,1602,1751,4.56727,-23.0574
385,-727,3.52307,22.6431,0,0,0,0,0,0,0,-1,1609,1751,3.52303,-22.643
392,-727,0,0,0,0,0,0,0,0,0,-1,1616,1751,0,0
399,-727,0,0,0,0,0,0,0,0,0,-1,1623,1751,0,0
406,-727,0,0,0,0,0,0,0,0,0,-1,1630,1751,0,0
413,-727,0,0,0,0,0,0,0,0,0,-1,1637,1751,0,0
420,-727,0,0,0,0,0,0,0,0,0,-1,1644,1751,0,0
427,-727,0,0,0,0,0,0,0,0,0,-1,1651,1751,0,0
434,-727,0,0,0,0,0,0,0,0,0,-1,1658,1751,0,0
441,-727,0,0,0,0,0,0,0,0,0,-1,1665,1751,0,0
448,-727,0,0,0,0,0,0,0,0,0,-1,1672,1751,0,0
455,-727,0,0,0,0,0,0,0,0,0,-1,1679,1751,0,0
462,-727,0,0,0,0,0,0,0,0,0,-1,1686,1751,0,0
469,-727,0,0,0,0,0,0,0,0,0,-1,1693,1751,0,0
476,-727,0,0,0,0,0,0,0,0,0,-1,1700,1751,0,0
483,-727,0,0,0,0,0,0,0,0,0,-1,1707,1751,0,0
490,-727,0,0,0,0,0,0,0,0,0,-1,1714,1751,0,0
497,-727,0,0,0,0,0,0,0,0,0,-1,1721,1751,0,0
504,-727,0,0,0,0,0,0,0,0,0,-1,1728,1751,0,0
511,-727,0,0,0,0,0,0,0,0,0,-1,1735,1751,0,0
518,-727,0,0,0,0,0,0,0,0,0,-1,1742,1751,0,0
525,-727,0,0,0,0,0,0,0,0,0,-1,1749,1751,0,0
532,-727,0,0,0,0,0,0,0,0,0,-1,1756,1751,0,0
539,-727,0,0,0,0,0,0,0,0,0,-1,1763,1751,0,0
546,-727,0,0,0,0,0,0,0,0,0,-1,1770,1751,0,0
553,-727,0,0,0,0,0,0,0,0,0,-1,1777,1751,0,0
560,-727,0,0,0,0,0,0,0,0,0,-1,1784,1751,0,0
567,-727,0,0,0,0,0,0,0,0,0,-1,1791,1751,0,0
574,-727,0,0,0,0,0,0,0,0,0,-1,1798,1751,0,0
581,-727,0,0,0,0,0,0,0,0,0,-1,1805,1751,0,0
588,-727,0,0,0,0,0,0,0,0,0,-1,1812,1751,0,0
595,-727,0,0,0,0,0,0,0,0,0,-1,1819,1751,0,0
602,-727,0,0,0,0,0,0,0,0,0,-1,1826,1751,0,0
609,-727,0,0,0,0,0,0,0,0,0,-1,1833,1751,0,0
616,-727,0,0,0,0,0,0,0,0,0,-1,1840,1751,0,0
623,-727,0,0,0,0,0,0,0,0,0,-1,1847,1751,0,0
630,-727,0,0,0,0,0,0,0,0,0,-1,1854,1751,0,0
637,-727,0,0,0,0,0,0,0,0,0,-1,1861,1751,0,0
644,-727,0,0,0,0,0,0,0,0,0,-1,1868,1751,0,0
651,-727,0,0,0,0,0,0,0,0,0,-1,1875,1751,0,0
658,-727,0,0,0,0,0,0,0,0,0,-1,1882,1751,0,0
665,-727,0,0,0,0,0,0,0,0,0,-1,1889,1751,0,0
672,-727,0,0,0,0,0,0,0,0,0,-1,1896,1751,0,0
679,-727,0,0,0,0,0,0,0,0,0,-1,1903,1751,0,0
686,-727,0,0,0,0,0,0,0,0,0,-1,1910,1751,0,0
693,-727,0,0,0,0,0,0,0,0,0,-1,1917,1751,0,0
700,-727,0,0,0,0,0,0,0,0,0,-1,1924,1751,0,0
707,-727,0,0,0,0,0,0,0,0,0,-1,1931,1751,0,0
714,-727,0,0,0,0,0,0,0,0,0,-1,1938,1751,0,0
721,-727,0,0,0,0,0,0,0,0,0,-1,1945,1751,0,0
728,-727,0,0,0,0,0,0,0,0,0,-1,1952,1751,0,0
735,-727,0,0,0,0,0,0,0,0,0,-1,1959,1751,0,0
742,-727,0,0,0,0,0,0,0,0,0,-1,1966,1751,0,0
749,-727,0,0,0,0,0,0,0,0,0,-1,1973,1751,0,0
756,-727,0,0,0,0,0,0,0,0,0,-1,1980,1751,0,0
763,-727,0,0,0,0,0,0,0,0,0,-1,1987,1751,0,0
770,-727,0,0,0,0,0,0,0,0,0,-1,1994,1751,0,0
777,-727,0,0,0,0,0,0,0,0,0,-1,2001,1751,0,0
784,-727,0,0,0,0,0,0,0,0,0,-1,2008,1751,0,0
791,-727,0,0,0,0,0,0,0,0,0,-1,2015,1751,0,0
798,-727,0,0,0,0,0,0,0,0,0,-1,2022,1751,0,0
805,-727,0,0,0,0,0,0,0,0,0,-1,2029,1751,0,0
812,-727,0,0,0,0,0,0,0,0,0,-1,2036,1751,0,0
-700,-734,0,0,0,0,0,0,0,0,0,-1,524,1758,0,0
-693,-734,0,0,0,0,0,0,0,0,0,-1,531,1758,0,0
-686,-734,0,0,0,0,0,0,0,0,0,-1,538,1758,0,0
-679,-734,0,0,0,0,0,0,0,0,0,-1,545,1758,0,0
-672,-734,0,0,0,0,0,0,0,0,0,-1,552,1758,0,0
-665,-734,0,0,0,0,0,0,0,0,0,-1,559,1758,0,0
-658,-734,0,0,0,0,0,0,0,0,0,-1,566,1758,0,0
-651,-734,0,0,0,0,0,0,0,0,0,-1,573,1758,0,0
-644,-734,0,0,0,0,0,0,0,0,0,-1,580,1758,0,0
-637,-734,0,0,0,0,0,0,0,0,0,-1,587,1758,0,0
-630,-734,0,0,0,0,0,0,0,0,0,-1,594,1758,0,0
-623,-734,0,0,0,0,0,0,0,0,0,-1,601,1758,0,0
-616,-734,0,0,0,0,0,0,0,0,0,-1,608,1758,0,0
-609,-734,0,0,0,0,0,0,0,0,0,-1,615,1758,0,0
-602,-734,0,0,0,0,0,0,0,0,0,-1,622,1758,0,0
-595,-734,0,0,0,0,0,0,0,0,0,-1,629,1758,0,0
-588,-734,0,0,0,0,0,0,0,0,0,-1,636,1758,0,0
-581,-734,0,0,0,0,0,0,0,0,0,-1,643,1758,0,0
-574,-734,0,0,0,0,0,0,0,0,0,-1,650,1758,0,0
-567,-734,0,0,0,0,0,0,0,0,0,-1,657,1758,0,0
-560,-734,0,0,0,0,0,0,0,0,0,-1,664,1758,0,0
-553,-734,0,0,0,0,0,0,0,0,0,-1,671,1758,0,0
-546,-734,0,0,0,0,0,0,0,0,0,-1,678,1758,0,0
-539,-734,0,0,0,0,0,0,0,0,0,-1,685,1758,0,0
-532,-734,0,0,0,0,0,0,0,0,0,-1,692,1758,0,0
-525,-734,0,0,0,0,0,0,0,0,0,-1,699,1758,0,0
-518,-734,0,0,0,0,0,0,0,0,0,-1,706,1758,0,0
-511,-734,0,0,0,0,0,0,0,0,0,-1,713,1758,0,0
-504,-734,0,0,0,0,0,0,0,0,0,-1,720,1758,0,0
-497,-734,0,0,0,0,0,0,0,0,0,-1,727,1758,0,0
-490,-734,0,0,0,0,0,0,0,0,0,-1,734,1758,0,0
-483,-734,0,0,0,0,0,0,0,0,0,-1,741,1758,0,0
-476,-734,0,0,0,0,0,0,0,0,0,-1,748,1758,0,0
-469,-734,0,0,0,0,0,0,0,0,0,-1,755,1758,0,0
-462,-734,0,0,0,0,0,0,0,0,0,-1,762,1758,0,0
-455,-734,0,0,0,0,0,0,0,0,0,-1,769,1758,0,0
-448,-734,0,0,0,0,0,0,0,0,0,-1,776,1758,0,0
-441,-734,0,0,0,0,0,0,0,0,0,-1,783,1758,0,0
-434,-734,0,0,0,0,0,0,0,0,0,-1,790,1758,0,0
-427,-734,0,0,0,0,0,0,0,0,0,-1,797,1758,0,0
-420,-734,0,0,0,0,0,0,0,0,0,-1,804,1758,0,0
-413,-734,0,0,0,0,0,0,0,0,0,-1,811,1758,0,0
-406,-734,0,0,0,0,0,0,0,0,0,-1,818,1758,0,0
-399,-734,0,0,0,0,0,0,0,0,0,-1,825,1758,0,0
-392,-734,0,0,0,0,0,0,0,0,0,-1,832,1758,0,0
-385,-734,0,0,0,0,0,0,0,0,0,-1,839,1758,0,0
-378,-734,0,0,0,0,0,0,0,0,0,-1,846,1758,0,0
-371,-734,0,0,0,0,0,0,0,0,0,-1,853,1758,0,0
-364,-734,0,0,0,0,0,0,0,0,0,-1,860,1758,0,0
-357,-734,0,0,0,0,0,0,0,0,0,-1,867,1758,0,0
-350,-734,0,0,0,0,0,0,0,0,0,-1,874,1758,0,0
-343,-734,0,0,0,0,0,0,0,0,0,-1,881,1758,0,0
-336,-734,0,0,0,0,0,0,0,0,0,-1,888,1758,0,0
-329,-734,0,0,0,0,0,0,0,0,0,-1,895,1758,0,0
-322,-734,0,0,0,0,0,0,0,0,0,-1,902,1758,0,0
-315,-734,0,0,0,0,0,0,0,0,0,-1,909,1758,0,0
-308,-734,0,0,0,0,0,0,0,0,0,-1,916,1758,0,0
-301,-734,0,0,0,0,0,0,0,0,0,-1,923,1758,0,0
-294,-734,0,0,0,0,0,0,0,0,0,-1,930,1758,0,0
-287,-734,0,0,0,0,0,0,0,0,0,-1,937,1758,0,0
-280,-734,0,0,0,0,0,0,0,0,0,-1,944,1758,0,0
-273,-734,0,0,0,0,0,0,0,0,0,-1,951,1758,0,0
-266,-734,0,0,0,0,0,0,0,0,0,-1,958,1758,0,0
-259,-734,0,0,0,0,0,0,0,0,0,-1,965,1758,0,0
-252,-734,5.73883,31.5245,0,0,0,0,0,0,0,-1,972,1758,5.73884,-31.5246
-245,-734,6.32513,30.9761,0,0,0,0,0,0,0,-1,979,1758,6.32511,-30.9761
-238,-734,6.82385,30.0449,0,0,0,0,0,0,0,-1,986,1758,6.82387,-30.0449
-231,-734,7.1958,29.1666,0,0,0,0,0,0,0,-1,993,1758,7.19578,-29.1666
-224,-734,10.8631,52.8424,0,0,0,0,0,0,0,-1,1000,1758,10.8631,-52.8424
-217,-734,7.45984,28.4386,0,0,0,0,0,0,0,-1,1007,1758,7.45986,-28.4386
-210,-734,7.45483,28.4388,0,0,0,0,0,0,0,-1,1014,1758,7.45482,-28.4388
-203,-734,14.3309,49.7766,0,0,0,0,0,0,0,-1,1021,1758,14.3309,-49.7766
-196,-734,13.0366,49.6821,0,0,0,0,0,0,0,-1,1028,1758,13.0366,-49.6822
-189,-734,11.8075,49.2727,0,0,0,0,0,0,0,-1,1035,1758,11.8075,-49.2728
-182,-734,10.8073,48.8035,0,0,0,0,0,0,0,-1,1042,1758,10.8072,-48.8035
-175,-734,9.90186,48.634,0,0,0,0,0,0,0,-1,1049,1758,9.90187,-48.6341
-168,-734,8.91504,48.7642,0,0,0,0,0,0,0,-1,1056,1758,8.91505,-48.7641
-161,-734,10.4485,52.0808,0,0,0,0,0,0,0,-1,1063,1758,10.4485,-52.0808
-154,-734,10.3014,52.4893,0,0,0,0,0,0,0,-1,1070,1758,10.3014,-52.4893
-147,-734,10.325,56.6101,0,0,0,0,0,0,0,-1,1077,1758,10.3249,-56.6101
-140,-734,9.73022,58.4194,0,0,0,0,0,0,0,-1,1084,1758,9.73021,-58.4194
-133,-734,9.76831,58.8861,0,0,0,0,0,0,0,-1,1091,1758,9.76831,-58.8861
-126,-734,9.67053,59.3639,0,0,0,0,0,0,0,-1,1098,1758,9.6705,-59.3639
-119,-734,9.70752,59.6335,0,0,0,0,0,0,0,-1,1105,1758,9.70749,-59.6336
-112,-734,9.56104,59.9956,0,0,0,0,0,0,0,-1,1112,1758,9.56106,-59.9956
-105,-734,9.34497,60.2963,0,0,0,0,0,0,0,-1,1119,1758,9.34492,-60.2963
-98,-734,9.44556,61.0345,0,0,0,0,0,0,0,-1,1126,1758,9.44558,-61.0346
-91,-734,9.46851,61.428,0,0,0,0,0,0,0,-1,1133,1758,9.46848,-61.428
-84,-734,9.41443,61.7333,0,0,0,0,0,0,0,-1,1140,1758,9.41447,-61.7333
-77,-734,9.37292,62.1311,0,0,0,0,0,0,0,-1,1147,1758,9.37297,-62.1311
-70,-734,9.22937,62.2159,0,0,0,0,0,0,0,-1,1154,1758,9.2294,-62.2159
-63,-734,9.24609,62.5942,-0.00557335,0.00239617,0.00221829,0.00297202,-0.0061492,1.31681,0.00537157,0.036403,1161,1758,9.24606,-62.5942
-56,-734,9.26599,63.0249,-0.00560423,0.00166773,0.00127849,0.00188596,-0.00582246,1.40174,0.00463986,0.0183685,1168,1758,9.26596,-63.0249
-49,-734,9.23108,63.344,-0.00598879,0.00133029,0.000854272,0.00142867,-0.00608718,1.45613,0.00460876,0.0135505,1175,1758,9.2311,-63.3439
-42,-734,9.19617,63.6266,-0.00671774,0.0011433,0.0008141,0.00122672,-0.00680116,1.46868,0.0049935,0.0142532,1182,1758,9.19616,-63.6266
-35,-734,9.15771,63.8647,-0.00675239,0.000852375,0.0015775,0.00116662,-0.00706663,1.37417,0.00514425,0.0149139,1189,1758,9.15773,-63.8648
-28,-734,9.13513,64.0714,-0.00645108,0.00030874,0.00179827,0.000757352,-0.00689969,1.32632,0.00487191,0.0105024,1196,1758,9.13511,-64.0714
-21,-734,9.13879,64.2841,-0.0062245,-8.79805e-05,0.00209874,0.000561139,-0.00687362,1.27084,0.00478045,0.0160574,1203,1758,9.1388,-64.284
-14,-734,9.07349,64.5343,-0.00578238,-0.000257358,0.00248566,0.000696305,-0.00673604,1.20445,0.00473987,0.0158501,1210,1758,9.07345,-64.5342
-7,-734,9.04932,64.7101,-0.00527343,-0.000422333,0.00291505,0.000944323,-0.00664008,1.1324,0.00477274,0.0179032,1217,1758,9.04926,-64.7101
0,-734,9.02698,64.8578,-0.00454388,-0.000392822,0.0033542,0.00147607,-0.00641278,1.06246,0.00484278,0.0177948,1224,1758,9.02699,-64.8578
7,-734,9.01086,65.0009,-0.00360983,-0.000163941,0.0035721,0.00207902,-0.00585279,1.01011,0.00474906,0.0139174,1231,1758,9.01089,-65.0009
14,-734,8.9823,65.1312,-0.00251078,0.000138532,0.00366364,0.00270964,-0.00508189,0.95887,0.00456742,0.0148817,1238,1758,8.98233,-65.1313
21,-734,8.93933,65.2119,-0.00135431,0.000272518,0.00369406,0.00324166,-0.00432345,0.893766,0.00438257,0.0131861,1245,1758,8.93937,-65.2119
28,-734,8.95154,65.3108,-0.000468425,0.000494534,0.00338165,0.0034288,-0.0034027,0.856113,0.00394418,0.012417,1252,1758,8.95151,-65.3108
35,-734,8.96533,65.4177,0.000279767,0.000396562,0.00279863,0.00313741,-0.00246108,0.79583,0.00324014,0.0149172,1259,1758,8.96528,-65.4178
42,-734,8.96277,65.4384,0.000986257,0.000507889,0.00239036,0.00314937,-0.00165522,0.735533,0.00281829,0.012433,1266,1758,8.96279,-65.4383
49,-734,8.91833,65.4777,0.00132845,0.000274448,0.00186944,0.00274376,-0.00114085,0.648012,0.00230555,0.0103665,1273,1758,8.91835,-65.4776
56,-734,8.88562,65.5182,0.00150351,0.000170257,0.00121416,0.00222201,-0.000548242,0.534344,0.00169392,0.0098932,1280,1758,8.8856,-65.5182
63,-734,8.90259,65.5109,0.00151504,0.000143503,0.000481895,0.00166743,-8.8815e-06,0.30627,0.00111459,0.0128685,1287,1758,8.90259,-65.5109
70,-734,8.88977,65.5,0.00119804,-6.29338e-05,-0.000524131,0.00138745,-0.000252342,-0.346772,0.00101954,0.0138959,1294,1758,8.88974,-65.5
77,-734,8.87512,65.4929,0.000694172,-0.000323547,-0.00118131,0.00147156,-0.00110094,-0.582029,0.00149036,0.0191705,1301,1758,8.87516,-65.493
84,-734,8.85095,65.4041,0.000182176,-0.000437072,-0.0015534,0.00145651,-0.00171141,-0.687027,0.00183097,0.0181068,1308,1758,8.85098,-65.4041
91,-734,8.81775,65.3154,-0.00040401,-0.000351294,-0.00199097,0.00161349,-0.0023688,-0.792017,0.00231292,0.0215168,1315,1758,8.81778,-65.3154
98,-734,8.84241,65.2577,-0.000945838,0.000251511,-0.00241572,0.00214163,-0.00283596,-0.906863,0.00288312,0.015684,1322,1758,8.8424,-65.2577
105,-734,8.82458,65.1724,-0.00145587,0.000702946,-0.00269542,0.00252705,-0.00327998,-0.97585,0.00336207,0.0151849,1329,1758,8.82463,-65.1724
112,-734,8.82922,65.0228,-0.0018683,0.00121279,-0.00285338,0.00291494,-0.00357045,-1.03293,0.00375071,0.0143343,1336,1758,8.82928,-65.0228
119,-734,8.82715,64.8617,-0.00225068,0.00183071,-0.00294147,0.00337006,-0.00379002,-1.08866,0.00413624,0.0158511,1343,1758,8.82715,-64.8617
126,-734,8.81055,64.7155,-0.00250811,0.00270434,-0.00299102,0.00406531,-0.00386907,-1.14378,0.00458138,0.0161878,1350,1758,8.81053,-64.7155
133,-734,8.77063,64.5356,-0.00251123,0.003507,-0.00276641,0.0045854,-0.00358963,-1.1991,0.00473151,0.0155302,1357,1758,8.77062,-64.5357
140,-734,8.73914,64.3367,-0.00259219,0.00453896,-0.002424,0.00528489,-0.00333812,-1.27227,0.00502061,0.0203131,1364,1758,8.73918,-64.3367
147,-734,8.71375,64.14,-0.0028145,0.00528039,-0.00234977,0.00591303,-0.00344714,-1.3078,0.00546625,0.0144162,1371,1758,8.71376,-64.14
154,-734,8.6759,63.9309,-0.00305298,0.00580241,-0.00229152,0.00636025,-0.00361081,-1.33201,0.00582929,0.010619,1378,1758,8.67594,-63.9309
161,-734,8.66138,63.7014,-0.00330862,0.00590022,-0.00222211,0.00640838,-0.00381678,-1.34598,0.00596637,0.00985979,1385,1758,8.66143,-63.7014
168,-734,8.59949,63.4325,-0.00359031,0.0057983,-0.00216823,0.00627485,-0.00406686,-1.35445,0.00601598,0.0156037,1392,1758,8.59949,-63.4325
175,-734,8.58105,63.1582,-0.00382918,0.00579751,-0.00207093,0.00622411,-0.00425578,-1.36764,0.00608604,0.0195482,1399,1758,8.58108,-63.1582
182,-734,8.60925,62.8617,-0.00410134,0.00592533,-0.00193458,0.00628564,-0.00446166,-1.38666,0.00623467,0.0170039,1406,1758,8.60928,-62.8617
189,-734,8.53564,62.5546,-0.00445472,0.00568682,-0.00272051,0.00637052,-0.00513842,-1.32458,0.00665737,0.012323,1413,1758,8.53563,-62.5545
196,-734,8.46692,62.2325,-0.00457964,0.00524783,-0.00296037,0.0060707,-0.00540251,-1.29968,0.0066278,0.0142166,1420,1758,8.46689,-62.2325
203,-734,8.4646,61.8778,-0.00467127,0.00338872,-0.00315533,0.00447703,-0.00575957,-1.23866,0.00592555,0.0211984,1427,1758,8.46463,-61.8778
210,-734,8.4397,61.5167,-0.00440206,0.00526667,-0.00398471,0.0066972,-0.0058326,-1.22612,0.00723982,0.0373578,1434,1758,8.43964,-61.5167
217,-734,8.35681,61.1595,0,0,0,0,0,0,0,-1,1441,1758,8.35677,-61.1595
224,-734,8.28882,60.8267,0,0,0,0,0,0,0,-1,1448,1758,8.28883,-60.8267
231,-734,8.2168,60.3552,0,0,0,0,0,0,0,-1,1455,1758,8.21679,-60.3552
238,-734,8.30273,59.4996,0,0,0,0,0,0,0,-1,1462,1758,8.30276,-59.4997
245,-734,8.53809,58.7065,0,0,0,0,0,0,0,-1,1469,1758,8.5381,-58.7066
252,-734,8.17517,58.5679,0,0,0,0,0,0,0,-1,1476,1758,8.1752,-58.5678
259,-734,8.11328,58.4148,0,0,0,0,0,0,0,-1,1483,1758,8.11331,-58.4148
266,-734,8.07874,58.0879,0,0,0,0,0,0,0,-1,1490,1758,8.07874,-58.0879
273,-734,8.24097,57.7976,0,0,0,0,0,0,0,-1,1497,1758,8.24102,-57.7977
280,-734,7.90149,52.7294,0,0,0,0,0,0,0,-1,1504,1758,7.90153,-52.7294
287,-734,7.56177,50.5933,0,0,0,0,0,0,0,-1,1511,1758,7.56172,-50.5933
294,-734,7.42676,47.7545,0,0,0,0,0,0,0,-1,1518,1758,7.4268,-47.7545
301,-734,7.21814,42.6078,0,0,0,0,0,0,0,-1,1525,1758,7.21809,-42.6078
308,-734,8.0509,41.5156,0,0,0,0,0,0,0,-1,1532,1758,8.05087,-41.5157
315,-734,7.93787,40.8274,0,0,0,0,0,0,0,-1,1539,1758,7.93784,-40.8273
322,-734,7.82483,40.139,0,0,0,0,0,0,0,-1,1546,1758,7.82481,-40.139
329,-734,5.73267,19.656,0,0,0,0,0,0,0,-1,1553,1758,5.73262,-19.656
336,-734,6.71375,23.7469,0,0,0,0,0,0,0,-1,1560,1758,6.71372,-23.7469
343,-734,5.54968,5.14221,0,0,0,0,0,0,0,-1,1567,1758,5.54973,-5.14225
350,-734,5.07397,6.73242,0,0,0,0,0,0,0,-1,1574,1758,5.07402,-6.73243
357,-734,5.05542,7.19189,0,0,0,0,0,0,0,-1,1581,1758,5.05541,-7.19184
364,-734,4.43896,10.4904,0,0,0,0,0,0,0,-1,1588,1758,4.43893,-10.4904
371,-734,7.36975,17.4751,0,0,0,0,0,0,0,-1,1595,1758,7.36972,-17.4752
378,-734,0,0,0,0,0,0,0,0,0,-1,1602,1758,0,0
385,-734,0,0,0,0,0,0,0,0,0,-1,1609,1758,0,0
392,-734,0,0,0,0,0,0,0,0,0,-1,1616,1758,0,0
399,-734,0,0,0,0,0,0,0,0,0,-1,1623,1758,0,0
406,-734,0,0,0,0,0,0,0,0,0,-1,1630,1758,0,0
413,-734,0,0,0,0,0,0,0,0,0,-1,1637,1758,0,0
420,-734,0,0,0,0,0,0,0,0,0,-1,1644,1758,0,0
427,-734,0,0,0,0,0,0,0,0,0,-1,1651,1758,0,0
434,-734,0,0,0,0,0,0,0,0,0,-1,1658,1758,0,0
441,-734,0,0,0,0,0,0,0,0,0,-1,1665,1758,0,0
448,-734,0,0,0,0,0,0,0,0,0,-1,1672,1758,0,0
455,-734,0,0,0,0,0,0,0,0,0,-1,1679,1758,0,0
462,-734,0,0,0,0,0,0,0,0,0,-1,1686,1758,0,0
469,-734,0,0,0,0,0,0,0,0,0,-1,1693,1758,0,0
476,-734,0,0,0,0,0,0,0,0,0,-1,1700,1758,0,0
483,-734,0,0,0,0,0,0,0,0,0,-1,1707,1758,0,0
490,-734,0,0,0,0,0,0,0,0,0,-1,1714,1758,0,0
497,-734,0,0,0,0,0,0,0,0,0,-1,1721,1758,0,0
504,-734,0,0,0,0,0,0,0,0,0,-1,1728,1758,0,0
511,-734,0,0,0,0,0,0,0,0,0,-1,1735,1758,0,0
518,-734,0,0,0,0,0,0,0,0,0,-1,1742,1758,0,0
525,-734,0,0,0,0,0,0,0,0,0,-1,1749,1758,0,0
532,-734,0,0,0,0,0,0,0,0,0,-1,1756,1758,0,0
539,-734,0,0,0,0,0,0,0,0,0,-1,1763,1758,0,0
546,-734,0,0,0,0,0,0,0,0,0,-1,1770,1758,0,0
553,-734,0,0,0,0,0,0,0,0,0,-1,1777,1758,0,0
560,-734,0,0,0,0,0,0,0,0,0,-1,1784,1758,0,0
567,-734,0,0,0,0,0,0,0,0,0,-1,1791,1758,0,0
574,-734,0,0,0,0,0,0,0,0,0,-1,1798,1758,0,0
581,-734,0,0,0,0,0,0,0,0,0,-1,1805,1758,0,0
588,-734,0,0,0,0,0,0,0,0,0,-1,1812,1758,0,0
595,-734,0,0,0,0,0,0,0,0,0,-1,1819,1758,0,0
602,-734,0,0,0,0,0,0,0,0,0,-1,1826,1758,0,0
609,-734,0,0,0,0,0,0,0,0,0,-1,1833,1758,0,0
616,-734,0,0,0,0,0,0,0,0,0,-1,1840,1758,0,0
623,-734,0,0,0,0,0,0,0,0,0,-1,1847,1758,0,0
630,-734,0,0,0,0,0,0,0,0,0,-1,1854,1758,0,0
637,-734,0,0,0,0,0,0,0,0,0,-1,1861,1758,0,0
644,-734,0,0,0,0,0,0,0,0,0,-1,1868,1758,0,0
651,-734,0,0,0,0,0,0,0,0,0,-1,1875,1758,0,0
658,-734,0,0,0,0,0,0,0,0,0,-1,1882,1758,0,0
665,-734,0,0,0,0,0,0,0,0,0,-1,1889,1758,0,0
672,-734,0,0,0,0,0,0,0,0,0,-1,1896,1758,0,0
679,-734,0,0,0,0,0,0,0,0,0,-1,1903,1758,0,0
686,-734,0,0,0,0,0,0,0,0,0,-1,1910,1758,0,0
693,-734,0,0,0,0,0,0,0,0,0,-1,1917,1758,0,0
700,-734,0,0,0,0,0,0,0,0,0,-1,1924,1758,0,0
707,-734,0,0,0,0,0,0,0,0,0,-1,1931,1758,0,0
714,-734,0,0,0,0,0,0,0,0,0,-1,1938,1758,0,0
721,-734,0,0,0,0,0,0,0,0,0,-1,1945,1758,0,0
728,-734,0,0,0,0,0,0,0,0,0,-1,1952,1758,0,0
735,-734,0,0,0,0,0,0,0,0,0,-1,1959,1758,0,0
742,-734,0,0,0,0,0,0,0,0,0,-1,1966,1758,0,0
749,-734,0,0,0,0,0,0,0,0,0,-1,1973,1758,0,0
756,-734,0,0,0,0,0,0,0,0,0,-1,1980,1758,0,0
763,-734,0,0,0,0,0,0,0,0,0,-1,1987,1758,0,0
770,-734,0,0,0,0,0,0,0,0,0,-1,1994,1758,0,0
777,-734,0,0,0,0,0,0,0,0,0,-1,2001,1758,0,0
784,-734,0,0,0,0,0,0,0,0,0,-1,2008,1758,0,0
791,-734,0,0,0,0,0,0,0,0,0,-1,2015,1758,0,0
798,-734,0,0,0,0,0,0,0,0,0,-1,2022,1758,0,0
805,-734,0,0,0,0,0,0,0,0,0,-1,2029,1758,0,0
812,-734,0,0,0,0,0,0,0,0,0,-1,2036,1758,0,0
-700,-741,0,0,0,0,0,0,0,0,0,-1,524,1765,0,0
-693,-741,0,0,0,0,0,0,0,0,0,-1,531,1765,0,0
-686,-741,0,0,0,0,0,0,0,0,0,-1,538,1765,0,0
-679,-741,0,0,0,0,0,0,0,0,0,-1,545,1765,0,0
-672,-741,0,0,0,0,0,0,0,0,0,-1,552,1765,0,0
-665,-741,0,0,0,0,0,0,0,0,0,-1,559,1765,0,0
-658,-741,0,0,0,0,0,0,0,0,0,-1,566,1765,0,0
-651,-741,0,0,0,0,0,0,0,0,0,-1,573,1765,0,0
-644,-741,0,0,0,0,0,0,0,0,0,-1,580,1765,0,0
-637,-741,0,0,0,0,0,0,0,0,0,-1,587,1765,0,0
-630,-741,0,0,0,0,0,0,0,0,0,-1,594,1765,0,0
-623,-741,0,0,0,0,0,0,0,0,0,-1,601,1765,0,0
-616,-741,0,0,0,0,0,0,0,0,0,-1,608,1765,0,0
-609,-741,0,0,0,0,0,0,0,0,0,-1,615,1765,0,0
-602,-741,0,0,0,0,0,0,0,0,0,-1,622,1765,0,0
-595,-741,0,0,0,0,0,0,0,0,0,-1,629,1765,0,0
-588,-741,0,0,0,0,0,0,0,0,0,-1,636,1765,0,0
-581,-741,0,0,0,0,0,0,0,0,0,-1,643,1765,0,0
-574,-741,0,0,0,0,0,0,0,0,0,-1,650,1765,0,0
-567,-741,0,0,0,0,0,0,0,0,0,-1,657,1765,0,0
-560,-741,0,0,0,0,0,0,0,0,0,-1,664,1765,0,0
-553,-741,0,0,0,0,0,0,0,0,0,-1,671,1765,0,0
-546,-741,0,0,0,0,0,0,0,0,0,-1,678,1765,0,0
-539,-741,0,0,0,0,0,0,0,0,0,-1,685,1765,0,0
-532,-741,0,0,0,0,0,0,0,0,0,-1,692,1765,0,0
-525,-741,0,0,0,0,0,0,0,0,0,-1,699,1765,0,0
-518,-741,0,0,0,0,0,0,0,0,0,-1,706,1765,0,0
-511,-741,0,0,0,0,0,0,0,0,0,-1,713,1765,0,0
-504,-741,0,0,0,0,0,0,0,0,0,-1,720,1765,0,0
-497,-741,0,0,0,0,0,0,0,0,0,-1,727,1765,0,0
-490,-741,0,0,0,0,0,0,0,0,0,-1,734,1765,0,0
-483,-741,0,0,0,0,0,0,0,0,0,-1,741,1765,0,0
-476,-741,0,0,0,0,0,0,0,0,0,-1,748,1765,0,0
-469,-741,0,0,0,0,0,0,0,0,0,-1,755,1765,0,0
-462,-741,0,0,0,0,0,0,0,0,0,-1,762,1765,0,0
-455,-741,0,0,0,0,0,0,0,0,0,-1,769,1765,0,0
-448,-741,0,0,0,0,0,0,0,0,0,-1,776,1765,0,0
-441,-741,0,0,0,0,0,0,0,0,0,-1,783,1765,0,0
-434,-741,0,0,0,0,0,0,0,0,0,-1,790,1765,0,0
-427,-741,0,0,0,0,0,0,0,0,0,-1,797,1765,0,0
-420,-741,0,0,0,0,0,0,0,0,0,-1,804,1765,0,0
-413,-741,0,0,0,0,0,0,0,0,0,-1,811,1765,0,0
-406,-741,0,0,0,0,0,0,0,0,0,-1,818,1765,0,0
-399,-741,0,0,0,0,0,0,0,0,0,-1,825,1765,0,0
-392,-741,0,0,0,0,0,0,0,0,0,-1,832,1765,0,0
-385,-741,0,0,0,0,0,0,0,0,0,-1,839,1765,0,0
-378,-741,0,0,0,0,0,0,0,0,0,-1,846,1765,0,0
-371,-741,0,0,0,0,0,0,0,0,0,-1,853,1765,0,0
-364,-741,0,0,0,0,0,0,0,0,0,-1,860,1765,0,0
-357,-741,0,0,0,0,0,0,0,0,0,-1,867,1765,0,0
-350,-741,0,0,0,0,0,0,0,0,0,-1,874,1765,0,0
-343,-741,0,0,0,0,0,0,0,0,0,-1,881,1765,0,0
-336,-741,0,0,0,0,0,0,0,0,0,-1,888,1765,0,0
-329,-741,0,0,0,0,0,0,0,0,0,-1,895,1765,0,0
-322,-741,0,0,0,0,0,0,0,0,0,-1,902,1765,0,0
-315,-741,0,0,0,0,0,0,0,0,0,-1,909,1765,0,0
-308,-741,0,0,0,0,0,0,0,0,0,-1,916,1765,0,0
-301,-741,0,0,0,0,0,0,0,0,0,-1,923,1765,0,0
-294,-741,0,0,0,0,0,0,0,0,0,-1,930,1765,0,0
-287,-741,0,0,0,0,0,0,0,0,0,-1,937,1765,0,0
-280,-741,0,0,0,0,0,0,0,0,0,-1,944,1765,0,0
-273,-741,0,0,0,0,0,0,0,0,0,-1,951,1765,0,0
-266,-741,0,0,0,0,0,0,0,0,0,-1,958,1765,0,0
-259,-741,0,0,0,0,0,0,0,0,0,-1,965,1765,0,0
-252,-741,0,0,0,0,0,0,0,0,0,-1,972,1765,0,0
-245,-741,0,0,0,0,0,0,0,0,0,-1,979,1765,0,0
-238,-741,7.13855,29.8348,0,0,0,0,0,0,0,-1,986,1765,7.13856,-29.8348
-231,-741,7.74182,29.3066,0,0,0,0,0,0,0,-1,993,1765,7.74183,-29.3066
-224,-741,7.80078,29.0964,0,0,0,0,0,0,0,-1,1000,1765,7.80079,-29.0964
-217,-741,8.15863,29.113,0,0,0,0,0,0,0,-1,1007,1765,8.15863,-29.1131
-210,-741,8.37024,29.3896,0,0,0,0,0,0,0,-1,1014,1765,8.37022,-29.3896
-203,-741,7.703,44.0701,0,0,0,0,0,0,0,-1,1021,1765,7.70306,-44.0701
-196,-741,13.1698,50.7012,0,0,0,0,0,0,0,-1,1028,1765,13.1698,-50.7012
-189,-741,12.3024,50.0712,0,0,0,0,0,0,0,-1,1035,1765,12.3023,-50.0712
-182,-741,11.3236,49.675,0,0,0,0,0,0,0,-1,1042,1765,11.3236,-49.675
-175,-741,10.1451,49.7836,0,0,0,0,0,0,0,-1,1049,1765,10.1451,-49.7836
-168,-741,9.26172,49.837,0,0,0,0,0,0,0,-1,1056,1765,9.26167,-49.837
-161,-741,8.42102,49.8832,0,0,0,0,0,0,0,-1,1063,1765,8.42099,-49.8832
-154,-741,10.5177,48.0798,0,0,0,0,0,0,0,-1,1070,1765,10.5177,-48.0798
-147,-741,10.9515,48.8568,0,0,0,0,0,0,0,-1,1077,1765,10.9515,-48.8569
-140,-741,10.5068,51.2876,0,0,0,0,0,0,0,-1,1084,1765,10.5068,-51.2876
-133,-741,10.6208,54.5072,0,0,0,0,0,0,0,-1,1091,1765,10.6208,-54.5072
-126,-741,9.89746,52.7167,0,0,0,0,0,0,0,-1,1098,1765,9.8975,-52.7167
-119,-741,9.33801,50.1482,0,0,0,0,0,0,0,-1,1105,1765,9.33802,-50.1482
-112,-741,9.6283,47.2815,0,0,0,0,0,0,0,-1,1112,1765,9.62827,-47.2815
-105,-741,9.61792,45.9158,0,0,0,0,0,0,0,-1,1119,1765,9.61797,-45.9158
-98,-741,9.19971,40.25,0,0,0,0,0,0,0,-1,1126,1765,9.19971,-40.25
-91,-741,8.40002,36.3687,0,0,0,0,0,0,0,-1,1133,1765,8.40002,-36.3687
-84,-741,7.8877,35.0892,0,0,0,0,0,0,0,-1,1140,1765,7.88776,-35.0892
-77,-741,7.73303,34.1174,0,0,0,0,0,0,0,-1,1147,1765,7.73304,-34.1174
-70,-741,7.5437,32.0275,0,0,0,0,0,0,0,-1,1154,1765,7.5437,-32.0275
-63,-741,9.28467,62.2217,0,0,0,0,0,0,0,-1,1161,1765,9.28467,-62.2216
-56,-741,9.55115,62.9313,0,0,0,0,0,0,0,-1,1168,1765,9.55117,-62.9313
-49,-741,9.4873,63.4126,0,0,0,0,0,0,0,-1,1175,1765,9.48731,-63.4126
-42,-741,9.41174,63.5417,0,0,0,0,0,0,0,-1,1182,1765,9.41179,-63.5417
-35,-741,9.39246,63.8765,-0.0118195,0.000330823,0.00263347,0.000877047,-0.0123657,1.36628,0.00855115,0.0245949,1189,1765,9.39243,-63.8764
-28,-741,9.36572,64.089,-0.0116033,-0.000233974,0.00316915,0.000589738,-0.012427,1.31651,0.00848807,0.0152187,1196,1765,9.36573,-64.089
-21,-741,9.32202,64.2883,-0.011411,-0.000504589,0.00368838,0.000625637,-0.0125413,1.27345,0.00857699,0.0195417,1203,1765,9.32198,-64.2883
-14,-741,9.24658,64.5085,-0.0107525,-0.00033497,0.00434214,0.00123752,-0.012325,1.22334,0.0086587,0.0189573,1210,1765,9.24664,-64.5086
-7,-741,9.22461,64.6633,-0.00996067,-0.000125237,0.00504387,0.00200151,-0.0120874,1.17177,0.00880164,0.0156747,1217,1765,9.2246,-64.6634
0,-741,9.20715,64.8226,-0.00886271,0.000137773,0.00567573,0.00288088,-0.0116058,1.12059,0.00885511,0.0153868,1224,1765,9.20716,-64.8227
7,-741,9.15393,64.9934,-0.00736142,0.000624057,0.00601401,0.00385007,-0.0105874,1.07844,0.00863273,0.017483,1231,1765,9.15393,-64.9934
14,-741,9.10095,65.1038,-0.00562592,0.00125399,0.00615879,0.00486839,-0.00924032,1.04009,0.008275,0.0170797,1238,1765,9.10091,-65.1038
21,-741,9.0448,65.1984,-0.0036977,0.00153154,0.0063137,0.00575059,-0.00791675,0.981707,0.00792381,0.0135743,1245,1765,9.04477,-65.1984
28,-741,8.99634,65.3271,-0.00203266,0.00191417,0.00597715,0.00623525,-0.00635375,0.944844,0.00726837,0.0135546,1252,1765,8.99629,-65.3272
35,-741,9.00122,65.3945,-0.000702677,0.00159876,0.00501558,0.00559393,-0.00469785,0.898161,0.00594947,0.0157063,1259,1765,9.0012,-65.3945
42,-741,8.98547,65.4229,0.00053176,0.00147574,0.00421627,0.00524636,-0.00323885,0.841139,0.00494443,0.0164776,1266,1765,8.98553,-65.4228
49,-741,8.96423,65.4695,0.00133541,0.000986811,0.00329388,0.00445959,-0.00213737,0.758965,0.00388662,0.0111396,1273,1765,8.96427,-65.4694
56,-741,8.91968,65.515,0.00185444,0.000744017,0.00215073,0.00352047,-0.00092201,0.659081,0.00270717,0.0106713,1280,1765,8.91969,-65.5151
63,-741,8.8949,65.4988,0.00205246,0.000582628,0.000877208,0.00246192,0.000173169,0.436716,0.00158671,0.014984,1287,1765,8.89493,-65.4988
70,-741,8.87256,65.4827,0.00168779,0.000217181,-0.000784577,0.00202777,-0.000122797,-0.408902,0.00139458,0.0173646,1294,1765,8.8725,-65.4827
77,-741,8.83899,65.4867,0.000967943,-0.000193329,-0.00201858,0.00248774,-0.00171312,-0.645356,0.00243907,0.0145272,1301,1765,8.83896,-65.4867
84,-741,8.76147,65.4506,0.00012645,-0.000349472,-0.00276369,0.00266241,-0.00288543,-0.742453,0.00320391,0.0162894,1308,1765,8.7615,-65.4506
91,-741,8.73755,65.371,-0.000839505,-0.000242242,-0.00360721,0.00307868,-0.00416042,-0.826698,0.00419502,0.0134696,1315,1765,8.7376,-65.371
98,-741,8.72913,65.2455,-0.00173754,0.000659929,-0.00437073,0.00399333,-0.00507094,-0.919239,0.00524557,0.0109131,1322,1765,8.72912,-65.2455
105,-741,8.71753,65.1355,-0.00255721,0.00148801,-0.00484495,0.00471559,-0.00578479,-0.983134,0.00607287,0.0117504,1329,1765,8.71753,-65.1355
112,-741,8.74158,64.9799,-0.00330282,0.00238558,-0.0051489,0.00542361,-0.00634085,-1.03774,0.00679909,0.0127174,1336,1765,8.74157,-64.9799
119,-741,8.6814,64.8367,-0.00392856,0.00336978,-0.0052973,0.00615317,-0.00671195,-1.08701,0.00743002,0.0154204,1343,1765,8.68139,-64.8366
126,-741,8.63696,64.7112,-0.00443244,0.0047848,-0.00544945,0.00731312,-0.00696076,-1.1364,0.00824187,0.0193822,1350,1765,8.63691,-64.7112
133,-741,8.59766,64.541,-0.00453391,0.00596218,-0.00505473,0.00800058,-0.00657231,-1.18748,0.00842712,0.0155518,1357,1765,8.59764,-64.541
140,-741,8.54187,64.3368,-0.0045023,0.00764056,-0.00419189,0.00894709,-0.00580883,-1.26866,0.00858331,0.0118317,1364,1765,8.54185,-64.3368
147,-741,8.49463,64.1255,-0.00470283,0.00871609,-0.0038012,0.00971805,-0.00570479,-1.31307,0.00900431,0.0113658,1371,1765,8.49465,-64.1254
154,-741,8.45288,63.9387,-0.00500678,0.00916559,-0.00364352,0.0100474,-0.00588861,-1.33334,0.00930452,0.0101038,1378,1765,8.45294,-63.9387
161,-741,8.44812,63.6942,-0.00528069,0.00899772,-0.00347024,0.00979645,-0.00607941,-1.34457,0.0092493,0.0122216,1385,1765,8.44808,-63.6943
168,-741,8.39331,63.4365,-0.00551674,0.00868942,-0.00327803,0.00940933,-0.00623665,-1.35461,0.00909491,0.0266747,1392,1765,8.39334,-63.4366
175,-741,8.26331,63.1571,0,0,0,0,0,0,0,-1,1399,1765,8.26331,-63.1571
182,-741,8.30261,62.858,0,0,0,0,0,0,0,-1,1406,1765,8.30263,-62.858
189,-741,8.22046,62.5819,0,0,0,0,0,0,0,-1,1413,1765,8.22043,-62.5819
196,-741,8.14954,62.2703,0,0,0,0,0,0,0,-1,1420,1765,8.14949,-62.2703
203,-741,8.13745,61.8422,0,0,0,0,0,0,0,-1,1427,1765,8.13749,-61.8421
210,-741,8.08728,61.259,0,0,0,0,0,0,0,-1,1434,1765,8.08724,-61.259
217,-741,8.4032,40.1213,0,0,0,0,0,0,0,-1,1441,1765,8.40325,-40.1214
224,-741,8.0719,38.4249,0,0,0,0,0,0,0,-1,1448,1765,8.07187,-38.4249
231,-741,7.95923,39.0671,0,0,0,0,0,0,0,-1,1455,1765,7.9592,-39.0671
238,-741,7.96619,42.4865,0,0,0,0,0,0,0,-1,1462,1765,7.96621,-42.4864
245,-741,8.53577,45.7744,0,0,0,0,0,0,0,-1,1469,1765,8.53581,-45.7744
252,-741,8.59167,47.473,0,0,0,0,0,0,0,-1,1476,1765,8.59162,-47.473
259,-741,8.47412,48.5269,0,0,0,0,0,0,0,-1,1483,1765,8.47412,-48.5269
266,-741,8.50134,48.3838,0,0,0,0,0,0,0,-1,1490,1765,8.50132,-48.3838
273,-741,8.81421,49.1227,0,0,0,0,0,0,0,-1,1497,1765,8.81426,-49.1227
280,-741,7.33093,51.4729,0,0,0,0,0,0,0,-1,1504,1765,7.33092,-51.4729
287,-741,7.52783,49.7068,0,0,0,0,0,0,0,-1,1511,1765,7.52783,-49.7068
294,-741,5.91187,43.7742,0,0,0,0,0,0,0,-1,1518,1765,5.91188,-43.7742
301,-741,6.20667,38.5165,0,0,0,0,0,0,0,-1,1525,1765,6.20667,-38.5165
308,-741,7.99036,42.5969,0,0,0,0,0,0,0,-1,1532,1765,7.99037,-42.5969
315,-741,7.83838,41.6693,0,0,0,0,0,0,0,-1,1539,1765,7.83835,-41.6694
322,-741,7.68628,40.7418,0,0,0,0,0,0,0,-1,1546,1765,7.68633,-40.7418
329,-741,4.74414,17.928,0,0,0,0,0,0,0,-1,1553,1765,4.74414,-17.928
336,-741,5.74304,22.0945,0,0,0,0,0,0,0,-1,1560,1765,5.74306,-22.0945
343,-741,7.09888,26.501,0,0,0,0,0,0,0,-1,1567,1765,7.09885,-26.501
350,-741,4.90369,5.44666,0,0,0,0,0,0,0,-1,1574,1765,4.90368,-5.44664
357,-741,4.02063,5.16626,0,0,0,0,0,0,0,-1,1581,1765,4.02058,-5.1662
364,-741,0,0,0,0,0,0,0,0,0,-1,1588,1765,0,0
371,-741,0,0,0,0,0,0,0,0,0,-1,1595,1765,0,0
378,-741,0,0,0,0,0,0,0,0,0,-1,1602,1765,0,0
385,-741,0,0,0,0,0,0,0,0,0,-1,1609,1765,0,0
392,-741,0,0,0,0,0,0,0,0,0,-1,1616,1765,0,0
399,-741,0,0,0,0,0,0,0,0,0,-1,1623,1765,0,0
406,-741,0,0,0,0,0,0,0,0,0,-1,1630,1765,0,0
413,-741,0,0,0,0,0,0,0,0,0,-1,1637,1765,0,0
420,-741,0,0,0,0,0,0,0,0,0,-1,1644,1765,0,0
427,-741,0,0,0,0,0,0,0,0,0,-1,1651,1765,0,0
434,-741,0,0,0,0,0,0,0,0,0,-1,1658,1765,0,0
441,-741,0,0,0,0,0,0,0,0,0,-1,1665,1765,0,0
448,-741,0,0,0,0,0,0,0,0,0,-1,1672,1765,0,0
455,-741,0,0,0,0,0,0,0,0,0,-1,1679,1765,0,0
462,-741,0,0,0,0,0,0,0,0,0,-1,1686,1765,0,0
469,-741,0,0,0,0,0,0,0,0,0,-1,1693,1765,0,0
476,-741,0,0,0,0,0,0,0,0,0,-1,1700,1765,0,0
483,-741,0,0,0,0,0,0,0,0,0,-1,1707,1765,0,0
490,-741,0,0,0,0,0,0,0,0,0,-1,1714,1765,0,0
497,-741,0,0,0,0,0,0,0,0,0,-1,1721,1765,0,0
504,-741,0,0,0,0,0,0,0,0,0,-1,1728,1765,0,0
511,-741,0,0,0,0,0,0,0,0,0,-1,1735,1765,0,0
518,-741,0,0,0,0,0,0,0,0,0,-1,1742,1765,0,0
525,-741,0,0,0,0,0,0,0,0,0,-1,1749,1765,0,0
532,-741,0,0,0,0,0,0,0,0,0,-1,1756,1765,0,0
539,-741,0,0,0,0,0,0,0,0,0,-1,1763,1765,0,0
546,-741,0,0,0,0,0,0,0,0,0,-1,1770,1765,0,0
553,-741,0,0,0,0,0,0,0,0,0,-1,1777,1765,0,0
560,-741,0,0,0,0,0,0,0,0,0,-1,1784,1765,0,0
567,-741,0,0,0,0,0,0,0,0,0,-1,1791,1765,0,0
574,-741,0,0,0,0,0,0,0,0,0,-1,1798,1765,0,0
581,-741,0,0,0,0,0,0,0,0,0,-1,1805,1765,0,0
588,-741,0,0,0,0,0,0,0,0,0,-1,1812,1765,0,0
595,-741,0,0,0,0,0,0,0,0,0,-1,1819,1765,0,0
602,-741,0,0,0,0,0,0,0,0,0,-1,1826,1765,0,0
609,-741,0,0,0,0,0,0,0,0,0,-1,1833,1765,0,0
616,-741,0,0,0,0,0,0,0,0,0,-1,1840,1765,0,0
623,-741,0,0,0,0,0,0,0,0,0,-1,1847,1765,0,0
630,-741,0,0,0,0,0,0,0,0,0,-1,1854,1765,0,0
637,-741,0,0,0,0,0,0,0,0,0,-1,1861,1765,0,0
644,-741,0,0,0,0,0,0,0,0,0,-1,1868,1765,0,0
651,-741,0,0,0,0,0,0,0,0,0,-1,1875,1765,0,0
658,-741,0,0,0,0,0,0,0,0,0,-1,1882,1765,0,0
665,-741,0,0,0,0,0,0,0,0,0,-1,1889,1765,0,0
672,-741,0,0,0,0,0,0,0,0,0,-1,1896,1765,0,0
679,-741,0,0,0,0,0,0,0,0,0,-1,1903,1765,0,0
686,-741,0,0,0,0,0,0,0,0,0,-1,1910,1765,0,0
693,-741,0,0,0,0,0,0,0,0,0,-1,1917,1765,0,0
700,-741,0,0,0,0,0,0,0,0,0,-1,1924,1765,0,0
707,-741,0,0,0,0,0,0,0,0,0,-1,1931,1765,0,0
714,-741,0,0,0,0,0,0,0,0,0,-1,1938,1765,0,0
721,-741,0,0,0,0,0,0,0,0,0,-1,1945,1765,0,0
728,-741,0,0,0,0,0,0,0,0,0,-1,1952,1765,0,0
735,-741,0,0,0,0,0,0,0,0,0,-1,1959,1765,0,0
742,-741,0,0,0,0,0,0,0,0,0,-1,1966,1765,0,0
749,-741,0,0,0,0,0,0,0,0,0,-1,1973,1765,0,0
756,-741,0,0,0,0,0,0,0,0,0,-1,1980,1765,0,0
763,-741,0,0,0,0,0,0,0,0,0,-1,1987,1765,0,0
770,-741,0,0,0,0,0,0,0,0,0,-1,1994,1765,0,0
777,-741,0,0,0,0,0,0,0,0,0,-1,2001,1765,0,0
784,-741,0,0,0,0,0,0,0,0,0,-1,2008,1765,0,0
791,-741,0,0,0,0,0,0,0,0,0,-1,2015,1765,0,0
798,-741,0,0,0,0,0,0,0,0,0,-1,2022,1765,0,0
805,-741,0,0,0,0,0,0,0,0,0,-1,2029,1765,0,0
812,-741,0,0,0,0,0,0,0,0,0,-1,2036,1765,0,0
-700,-748,0,0,0,0,0,0,0,0,0,-1,524,1772,0,0
-693,-748,0,0,0,0,0,0,0,0,0,-1,531,1772,0,0
-686,-748,0,0,0,0,0,0,0,0,0,-1,538,1772,0,0
-679,-748,0,0,0,0,0,0,0,0,0,-1,545,1772,0,0
-672,-748,0,0,0,0,0,0,0,0,0,-1,552,1772,0,0
-665,-748,0,0,0,0,0,0,0,0,0,-1,559,1772,0,0
-658,-748,0,0,0,0,0,0,0,0,0,-1,566,1772,0,0
-651,-748,0,0,0,0,0,0,0,0,0,-1,573,1772,0,0
-644,-748,0,0,0,0,0,0,0,0,0,-1,580,1772,0,0
-637,-748,0,0,0,0,0,0,0,0,0,-1,587,1772,0,0
-630,-748,0,0,0,0,0,0,0,0,0,-1,594,1772,0,0
-623,-748,0,0,0,0,0,0,0,0,0,-1,601,1772,0,0
-616,-748,0,0,0,0,0,0,0,0,0,-1,608,1772,0,0
-609,-748,0,0,0,0,0,0,0,0,0,-1,615,1772,0,0
-602,-748,0,0,0,0,0,0,0,0,0,-1,622,1772,0,0
-595,-748,0,0,0,0,0,0,0,0,0,-1,629,1772,0,0
-588,-748,0,0,0,0,0,0,0,0,0,-1,636,1772,0,0
-581,-748,0,0,0,0,0,0,0,0,0,-1,643,1772,0,0
-574,-748,0,0,0,0,0,0,0,0,0,-1,650,1772,0,0
-567,-748,0,0,0,0,0,0,0,0,0,-1,657,1772,0,0
-560,-748,0,0,0,0,0,0,0,0,0,-1,664,1772,0,0
-553,-748,0,0,0,0,0,0,0,0,0,-1,671,1772,0,0
-546,-748,0,0,0,0,0,0,0,0,0,-1,678,1772,0,0
-539,-748,0,0,0,0,0,0,0,0,0,-1,685,1772,0,0
-532,-748,0,0,0,0,0,0,0,0,0,-1,692,1772,0,0
-525,-748,0,0,0,0,0,0,0,0,0,-1,699,1772,0,0
-518,-748,0,0,0,0,0,0,0,0,0,-1,706,1772,0,0
-511,-748,0,0,0,0,0,0,0,0,0,-1,713,1772,0,0
-504,-748,0,0,0,0,0,0,0,0,0,-1,720,1772,0,0
-497,-748,0,0,0,0,0,0,0,0,0,-1,727,1772,0,0
-490,-748,0,0,0,0,0,0,0,0,0,-1,734,1772,0,0
-483,-748,0,0,0,0,0,0,0,0,0,-1,741,1772,0,0
-476,-748,0,0,0,0,0,0,0,0,0,-1,748,1772,0,0
-469,-748,0,0,0,0,0,0,0,0,0,-1,755,1772,0,0
-462,-748,0,0,0,0,0,0,0,0,0,-1,762,1772,0,0
-455,-748,0,0,0,0,0,0,0,0,0,-1,769,1772,0,0
-448,-748,0,0,0,0,0,0,0,0,0,-1,776,1772,0,0
-441,-748,0,0,0,0,0,0,0,0,0,-1,783,1772,0,0
-434,-748,0,0,0,0,0,0,0,0,0,-1,790,1772,0,0
-427,-748,0,0,0,0,0,0,0,0,0,-1,797,1772,0,0
-420,-748,0,0,0,0,0,0,0,0,0,-1,804,1772,0,0
-413,-748,0,0,0,0,0,0,0,0,0,-1,811,1772,0,0
-406,-748,0,0,0,0,0,0,0,0,0,-1,818,1772,0,0
-399,-748,0,0,0,0,0,0,0,0,0,-1,825,1772,0,0
-392,-748,0,0,0,0,0,0,0,0,0,-1,832,1772,0,0
-385,-748,0,0,0,0,0,0,0,0,0,-1,839,1772,0,0
-378,-748,0,0,0,0,0,0,0,0,0,-1,846,1772,0,0
-371,-748,0,0,0,0,0,0,0,0,0,-1,853,1772,0,0
-364,-748,0,0,0,0,0,0,0,0,0,-1,860,1772,0,0
-357,-748,0,0,0,0,0,0,0,0,0,-1,867,1772,0,0
-350,-748,0,0,0,0,0,0,0,0,0,-1,874,1772,0,0
-343,-748,0,0,0,0,0,0,0,0,0,-1,881,1772,0,0
-336,-748,0,0,0,0,0,0,0,0,0,-1,888,1772,0,0
-329,-748,0,0,0,0,0,0,0,0,0,-1,895,1772,0,0
-322,-748,0,0,0,0,0,0,0,0,0,-1,902,1772,0,0
-315,-748,0,0,0,0,0,0,0,0,0,-1,909,1772,0,0
-308,-748,0,0,0,0,0,0,0,0,0,-1,916,1772,0,0
-301,-748,0,0,0,0,0,0,0,0,0,-1,923,1772,0,0
-294,-748,0,0,0,0,0,0,0,0,0,-1,930,1772,0,0
-287,-748,0,0,0,0,0,0,0,0,0,-1,937,1772,0,0
-280,-748,0,0,0,0,0,0,0,0,0,-1,944,1772,0,0
-273,-748,0,0,0,0,0,0,0,0,0,-1,951,1772,0,0
-266,-748,0,0,0,0,0,0,0,0,0,-1,958,1772,0,0
-259,-748,0,0,0,0,0,0,0,0,0,-1,965,1772,0,0
-252,-748,0,0,0,0,0,0,0,0,0,-1,972,1772,0,0
-245,-748,0,0,0,0,0,0,0,0,0,-1,979,1772,0,0
-238,-748,0,0,0,0,0,0,0,0,0,-1,986,1772,0,0
-231,-748,0,0,0,0,0,0,0,0,0,-1,993,1772,0,0
-224,-748,0,0,0,0,0,0,0,0,0,-1,1000,1772,0,0
-217,-748,8.97742,29.9884,0,0,0,0,0,0,0,-1,1007,1772,8.97744,-29.9884
-210,-748,8.8941,30.14,0,0,0,0,0,0,0,-1,1014,1772,8.8941,-30.14
-203,-748,7.88,43.3942,0,0,0,0,0,0,0,-1,1021,1772,7.87999,-43.3941
-196,-748,7.95483,43.9952,0,0,0,0,0,0,0,-1,1028,1772,7.95478,-43.9953
-189,-748,8.18359,44.5873,0,0,0,0,0,0,0,-1,1035,1772,8.18358,-44.5873
-182,-748,8.49304,45.5183,0,0,0,0,0,0,0,-1,1042,1772,8.49308,-45.5183
-175,-748,10.4392,50.6167,0,0,0,0,0,0,0,-1,1049,1772,10.4392,-50.6167
-168,-748,9.54541,50.6587,0,0,0,0,0,0,0,-1,1056,1772,9.54547,-50.6586
-161,-748,10.7574,47.7889,0,0,0,0,0,0,0,-1,1063,1772,10.7574,-47.7889
-154,-748,11.4552,48.7113,0,0,0,0,0,0,0,-1,1070,1772,11.4552,-48.7113
-147,-748,11.7789,49.4792,0,0,0,0,0,0,0,-1,1077,1772,11.7789,-49.4793
-140,-748,10.4108,44.9001,0,0,0,0,0,0,0,-1,1084,1772,10.4107,-44.9001
-133,-748,7.44727,22.0308,0,0,0,0,0,0,0,-1,1091,1772,7.44728,-22.0308
-126,-748,5.98035,22.6067,0,0,0,0,0,0,0,-1,1098,1772,5.9803,-22.6067
-119,-748,6.63342,26.309,0,0,0,0,0,0,0,-1,1105,1772,6.6334,-26.3089
-112,-748,6.91333,24.923,0,0,0,0,0,0,0,-1,1112,1772,6.91339,-24.923
-105,-748,6.83313,25.0537,0,0,0,0,0,0,0,-1,1119,1772,6.83311,-25.0537
-98,-748,8.13623,30.8743,0,0,0,0,0,0,0,-1,1126,1772,8.13628,-30.8742
-91,-748,4.85352,15.3033,0,0,0,0,0,0,0,-1,1133,1772,4.85351,-15.3033
-84,-748,-0.192017,7.26196,0,0,0,0,0,0,0,-1,1140,1772,-0.192047,-7.26201
-77,-748,4.42615,13.5537,0,0,0,0,0,0,0,-1,1147,1772,4.4261,-13.5538
-70,-748,4.46191,13.7446,0,0,0,0,0,0,0,-1,1154,1772,4.4619,-13.7446
-63,-748,4.49768,13.9355,0,0,0,0,0,0,0,-1,1161,1772,4.49769,-13.9355
-56,-748,3.05762,7.87817,0,0,0,0,0,0,0,-1,1168,1772,3.05768,-7.87822
-49,-748,3.04102,7.82471,0,0,0,0,0,0,0,-1,1175,1772,3.04096,-7.82468
-42,-748,0.793457,14.9474,0,0,0,0,0,0,0,-1,1182,1772,0.793413,-14.9474
-35,-748,9.65271,63.8143,0,0,0,0,0,0,0,-1,1189,1772,9.65273,-63.8144
-28,-748,9.5481,64.1578,0,0,0,0,0,0,0,-1,1196,1772,9.54809,-64.1578
-21,-748,9.50879,64.3102,-0.0180442,-0.00162812,0.00605042,0.000360876,-0.0200332,1.25319,0.0134774,0.0237881,1203,1772,9.50874,-64.3102
-14,-748,9.41443,64.4548,-0.01711,-0.00111241,0.00699797,0.0015167,-0.0197391,1.21142,0.013693,0.0175128,1210,1772,9.41448,-64.4549
-7,-748,9.38843,64.6307,-0.0158083,-0.000207588,0.00806677,0.00321339,-0.0192293,1.1697,0.014014,0.0166771,1217,1772,9.38845,-64.6308
0,-748,9.33472,64.7852,-0.0140417,0.000519445,0.00902671,0.00483578,-0.0183581,1.12476,0.0141292,0.0161788,1224,1772,9.33477,-64.7851
7,-748,9.26428,64.9099,-0.011656,0.00143035,0.00964732,0.00654411,-0.0167697,1.08338,0.0138851,0.0154487,1231,1772,9.26427,-64.9099
14,-748,9.20117,65.0483,-0.00903263,0.00253632,0.00991439,0.00823031,-0.0147266,1.04948,0.0134299,0.0173911,1238,1772,9.20118,-65.0483
21,-748,9.16736,65.1801,-0.00610815,0.00313,0.0102264,0.00973214,-0.0127103,0.997523,0.0129951,0.012501,1245,1772,9.16738,-65.1801
28,-748,9.10938,65.2887,-0.00336922,0.00379788,0.00995155,0.0107914,-0.0103628,0.95822,0.0122142,0.0126858,1252,1772,9.10942,-65.2887
35,-748,9.0542,65.3345,-0.00105095,0.00342663,0.00880548,0.0102735,-0.0078978,0.909885,0.010521,0.0139247,1259,1772,9.05415,-65.3345
42,-748,9.03186,65.3826,0.00116601,0.00293187,0.00745005,0.00955113,-0.00545325,0.84438,0.00876981,0.0157966,1266,1772,9.03186,-65.3826
49,-748,9.00537,65.4244,0.00279891,0.00213508,0.00607793,0.00855398,-0.00361999,0.75812,0.0072185,0.0118021,1273,1772,9.00538,-65.4245
56,-748,8.93323,65.4836,0.00397123,0.00159062,0.00434086,0.00728203,-0.00172018,0.651582,0.00551818,0.0106817,1280,1772,8.93327,-65.4836
63,-748,8.88733,65.4731,0.00469968,0.00106257,0.00230839,0.0058198,-5.75488e-05,0.451768,0.00389919,0.0127978,1287,1772,8.88737,-65.4732
70,-748,8.86243,65.4425,0.00453992,0.000246252,-0.000297426,0.00456042,0.000225747,-0.0688327,0.0029679,0.0149426,1294,1772,8.86246,-65.4425
77,-748,8.80798,65.4109,0.00373537,-0.000623071,-0.00246522,0.00484648,-0.00173418,-0.42345,0.00393844,0.0131679,1301,1772,8.80796,-65.4109
84,-748,8.71606,65.4128,0.00249216,-0.00111219,-0.00393369,0.00501685,-0.00363687,-0.570597,0.00501736,0.014038,1308,1772,8.71601,-65.4128
91,-748,8.6814,65.3475,0.00105704,-0.00122123,-0.00549126,0.00552607,-0.00569026,-0.683126,0.00647598,0.0123345,1315,1772,8.68135,-65.3475
98,-748,8.63147,65.2325,-0.000391266,-0.000381189,-0.00695215,0.00656593,-0.00733838,-0.785761,0.00803179,0.0119856,1322,1772,8.63141,-65.2325
105,-748,8.61328,65.094,-0.00177024,0.000653864,-0.00794691,0.00748062,-0.008597,-0.861074,0.00928987,0.0125695,1329,1772,8.61332,-65.094
112,-748,8.60156,64.9723,-0.00312581,0.00190068,-0.00866437,0.00840895,-0.00963408,-0.926558,0.0104251,0.0159146,1336,1772,8.60157,-64.9722
119,-748,8.53552,64.8333,-0.00423202,0.00332819,-0.00887341,0.00919311,-0.0100969,-0.986759,0.0111412,0.014307,1343,1772,8.53557,-64.8333
126,-748,8.46924,64.7025,-0.00522115,0.00542718,-0.00909086,0.0106382,-0.0104322,-1.0503,0.0121652,0.0158831,1350,1772,8.46926,-64.7025
133,-748,8.38257,64.5254,-0.00575146,0.00718714,-0.00853939,0.0114311,-0.00999538,-1.10957,0.0123798,0.00983993,1357,1772,8.38259,-64.5255
140,-748,8.34314,64.3199,-0.00591713,0.00980999,-0.00708299,0.0125296,-0.00863678,-1.20419,0.0122891,0.0124878,1364,1772,8.34316,-64.3199
147,-748,8.32043,64.1084,-0.00642361,0.0119068,-0.00569444,0.0135318,-0.00804857,-1.29283,0.0125928,0.0149054,1371,1772,8.32038,-64.1084
154,-748,8.23169,63.9119,-0.0067527,0.0123438,-0.00537459,0.0137525,-0.00816143,-1.31445,0.0127885,0.0137095,1378,1772,8.23169,-63.9119
161,-748,8.20911,63.7059,-0.00703001,0.0119903,-0.00506601,0.0132554,-0.00829518,-1.32607,0.0125516,0.0207184,1385,1772,8.20913,-63.7059
168,-748,8.20447,63.4531,0,0,0,0,0,0,0,-1,1392,1772,8.20451,-63.4531
175,-748,11.6235,16.8242,0,0,0,0,0,0,0,-1,1399,1772,11.6236,-16.8242
182,-748,7.62476,10.3058,0,0,0,0,0,0,0,-1,1406,1772,7.62476,-10.3058
189,-748,6.15857,6.95898,0,0,0,0,0,0,0,-1,1413,1772,6.15862,-6.95896
196,-748,3.9425,8.46021,0,0,0,0,0,0,0,-1,1420,1772,3.9425,-8.46026
203,-748,3.9668,12.9835,0,0,0,0,0,0,0,-1,1427,1772,3.96678,-12.9836
210,-748,4.71472,16.8318,0,0,0,0,0,0,0,-1,1434,1772,4.71471,-16.8317
217,-748,5.38452,21.5551,0,0,0,0,0,0,0,-1,1441,1772,5.38455,-21.555
224,-748,6.14258,25.2345,0,0,0,0,0,0,0,-1,1448,1772,6.14263,-25.2345
231,-748,6.46045,29.7867,0,0,0,0,0,0,0,-1,1455,1772,6.46049,-29.7867
238,-748,7.41565,32.8574,0,0,0,0,0,0,0,-1,1462,1772,7.41562,-32.8574
245,-748,7.84912,32.0914,0,0,0,0,0,0,0,-1,1469,1772,7.84914,-32.0914
252,-748,7.57336,29.4369,0,0,0,0,0,0,0,-1,1476,1772,7.57337,-29.4369
259,-748,9.47351,46.1896,0,0,0,0,0,0,0,-1,1483,1772,9.4735,-46.1895
266,-748,8.36536,48.6908,0,0,0,0,0,0,0,-1,1490,1772,8.36541,-48.6909
273,-748,7.31421,46.6743,0,0,0,0,0,0,0,-1,1497,1772,7.31415,-46.6743
280,-748,8.76538,40.4501,0,0,0,0,0,0,0,-1,1504,1772,8.76537,-40.45
287,-748,14.161,8.32813,0,0,0,0,0,0,0,-1,1511,1772,14.161,-8.32808
294,-748,6.38525,32.4724,0,0,0,0,0,0,0,-1,1518,1772,6.38521,-32.4725
301,-748,5.40393,38.9807,0,0,0,0,0,0,0,-1,1525,1772,5.40397,-38.9807
308,-748,5.95227,37.1827,0,0,0,0,0,0,0,-1,1532,1772,5.95229,-37.1827
315,-748,7.71741,42.637,0,0,0,0,0,0,0,-1,1539,1772,7.71738,-42.637
322,-748,4.26538,29.0557,0,0,0,0,0,0,0,-1,1546,1772,4.26537,-29.0556
329,-748,3.87256,16.1473,0,0,0,0,0,0,0,-1,1553,1772,3.87259,-16.1474
336,-748,4.81006,19.6141,0,0,0,0,0,0,0,-1,1560,1772,4.81011,-19.6141
343,-748,0,0,0,0,0,0,0,0,0,-1,1567,1772,0,0
350,-748,0,0,0,0,0,0,0,0,0,-1,1574,1772,0,0
357,-748,0,0,0,0,0,0,0,0,0,-1,1581,1772,0,0
364,-748,0,0,0,0,0,0,0,0,0,-1,1588,1772,0,0
371,-748,0,0,0,0,0,0,0,0,0,-1,1595,1772,0,0
378,-748,0,0,0,0,0,0,0,0,0,-1,1602,1772,0,0
385,-748,0,0,0,0,0,0,0,0,0,-1,1609,1772,0,0
392,-748,0,0,0,0,0,0,0,0,0,-1,1616,1772,0,0
399,-748,0,0,0,0,0,0,0,0,0,-1,1623,1772,0,0
406,-748,0,0,0,0,0,0,0,0,0,-1,1630,1772,0,0
413,-748,0,0,0,0,0,0,0,0,0,-1,1637,1772,0,0
420,-748,0,0,0,0,0,0,0,0,0,-1,1644,1772,0,0
427,-748,0,0,0,0,0,0,0,0,0,-1,1651,1772,0,0
434,-748,0,0,0,0,0,0,0,0,0,-1,1658,1772,0,0
441,-748,0,0,0,0,0,0,0,0,0,-1,1665,1772,0,0
448,-748,0,0,0,0,0,0,0,0,0,-1,1672,1772,0,0
455,-748,0,0,0,0,0,0,0,0,0,-1,1679,1772,0,0
462,-748,0,0,0,0,0,0,0,0,0,-1,1686,1772,0,0
469,-748,0,0,0,0,0,0,0,0,0,-1,1693,1772,0,0
476,-748,0,0,0,0,0,0,0,0,0,-1,1700,1772,0,0
483,-748,0,0,0,0,0,0,0,0,0,-1,1707,1772,0,0
490,-748,0,0,0,0,0,0,0,0,0,-1,1714,1772,0,0
497,-748,0,0,0,0,0,0,0,0,0,-1,1721,1772,0,0
504,-748,0,0,0,0,0,0,0,0,0,-1,1728,1772,0,0
511,-748,0,0,0,0,0,0,0,0,0,-1,1735,1772,0,0
518,-748,0,0,0,0,0,0,0,0,0,-1,1742,1772,0,0
525,-748,0,0,0,0,0,0,0,0,0,-1,1749,1772,0,0
532,-748,0,0,0,0,0,0,0,0,0,-1,1756,1772,0,0
539,-748,0,0,0,0,0,0,0,0,0,-1,1763,1772,0,0
546,-748,0,0,0,0,0,0,0,0,0,-1,1770,1772,0,0
553,-748,0,0,0,0,0,0,0,0,0,-1,1777,1772,0,0
560,-748,0,0,0,0,0,0,0,0,0,-1,1784,1772,0,0
567,-748,0,0,0,0,0,0,0,0,0,-1,1791,1772,0,0
574,-748,0,0,0,0,0,0,0,0,0,-1,1798,1772,0,0
581,-748,0,0,0,0,0,0,0,0,0,-1,1805,1772,0,0
588,-748,0,0,0,0,0,0,0,0,0,-1,1812,1772,0,0
595,-748,0,0,0,0,0,0,0,0,0,-1,1819,1772,0,0
602,-748,0,0,0,0,0,0,0,0,0,-1,1826,1772,0,0
609,-748,0,0,0,0,0,0,0,0,0,-1,1833,1772,0,0
616,-748,0,0,0,0,0,0,0,0,0,-1,1840,1772,0,0
623,-748,0,0,0,0,0,0,0,0,0,-1,1847,1772,0,0
630,-748,0,0,0,0,0,0,0,0,0,-1,1854,1772,0,0
637,-748,0,0,0,0,0,0,0,0,0,-1,1861,1772,0,0
644,-748,0,0,0,0,0,0,0,0,0,-1,1868,1772,0,0
651,-748,0,0,0,0,0,0,0,0,0,-1,1875,1772,0,0
658,-748,0,0,0,0,0,0,0,0,0,-1,1882,1772,0,0
665,-748,0,0,0,0,0,0,0,0,0,-1,1889,1772,0,0
672,-748,0,0,0,0,0,0,0,0,0,-1,1896,1772,0,0
679,-748,0,0,0,0,0,0,0,0,0,-1,1903,1772,0,0
686,-748,0,0,0,0,0,0,0,0,0,-1,1910,1772,0,0
693,-748,0,0,0,0,0,0,0,0,0,-1,1917,1772,0,0
700,-748,0,0,0,0,0,0,0,0,0,-1,1924,1772,0,0
707,-748,0,0,0,0,0,0,0,0,0,-1,1931,1772,0,0
714,-748,0,0,0,0,0,0,0,0,0,-1,1938,1772,0,0
721,-748,0,0,0,0,0,0,0,0,0,-1,1945,1772,0,0
728,-748,0,0,0,0,0,0,0,0,0,-1,1952,1772,0,0
735,-748,0,0,0,0,0,0,0,0,0,-1,1959,1772,0,0
742,-748,0,0,0,0,0,0,0,0,0,-1,1966,1772,0,0
749,-748,0,0,0,0,0,0,0,0,0,-1,1973,1772,0,0
756,-748,0,0,0,0,0,0,0,0,0,-1,1980,1772,0,0
763,-748,0,0,0,0,0,0,0,0,0,-1,1987,1772,0,0
770,-748,0,0,0,0,0,0,0,0,0,-1,1994,1772,0,0
777,-748,0,0,0,0,0,0,0,0,0,-1,2001,1772,0,0
784,-748,0,0,0,0,0,0,0,0,0,-1,2008,1772,0,0
791,-748,0,0,0,0,0,0,0,0,0,-1,2015,1772,0,0
798,-748,0,0,0,0,0,0,0,0,0,-1,2022,1772,0,0
805,-748,0,0,0,0,0,0,0,0,0,-1,2029,1772,0,0
812,-748,0,0,0,0,0,0,0,0,0,-1,2036,1772,0,0
-700,-755,0,0,0,0,0,0,0,0,0,-1,524,1779,0,0
-693,-755,0,0,0,0,0,0,0,0,0,-1,531,1779,0,0
-686,-755,0,0,0,0,0,0,0,0,0,-1,538,1779,0,0
-679,-755,0,0,0,0,0,0,0,0,0,-1,545,1779,0,0
-672,-755,0,0,0,0,0,0,0,0,0,-1,552,1779,0,0
-665,-755,0,0,0,0,0,0,0,0,0,-1,559,1779,0,0
-658,-755,0,0,0,0,0,0,0,0,0,-1,566,1779,0,0
-651,-755,0,0,0,0,0,0,0,0,0,-1,573,1779,0,0
-644,-755,0,0,0,0,0,0,0,0,0,-1,580,1779,0,0
-637,-755,0,0,0,0,0,0,0,0,0,-1,587,1779,0,0
-630,-755,0,0,0,0,0,0,0,0,0,-1,594,1779,0,0
-623,-755,0,0,0,0,0,0,0,0,0,-1,601,1779,0,0
-616,-755,0,0,0,0,0,0,0,0,0,-1,608,1779,0,0
-609,-755,0,0,0,0,0,0,0,0,0,-1,615,1779,0,0
-602,-755,0,0,0,0,0,0,0,0,0,-1,622,1779,0,0
-595,-755,0,0,0,0,0,0,0,0,0,-1,629,1779,0,0
-588,-755,0,0,0,0,0,0,0,0,0,-1,636,1779,0,0
-581,-755,0,0,0,0,0,0,0,0,0,-1,643,1779,0,0
-574,-755,0,0,0,0,0,0,0,0,0,-1,650,1779,0,0
-567,-755,0,0,0,0,0,0,0,0,0,-1,657,1779,0,0
-560,-755,0,0,0,0,0,0,0,0,0,-1,664,1779,0,0
-553,-755,0,0,0,0,0,0,0,0,0,-1,671,1779,0,0
-546,-755,0,0,0,0,0,0,0,0,0,-1,678,1779,0,0
-539,-755,0,0,0,0,0,0,0,0,0,-1,685,1779,0,0
-532,-755,0,0,0,0,0,0,0,0,0,-1,692,1779,0,0
-525,-755,0,0,0,0,0,0,0,0,0,-1,699,1779,0,0
-518,-755,0,0,0,0,0,0,0,0,0,-1,706,1779,0,0
-511,-755,0,0,0,0,0,0,0,0,0,-1,713,1779,0,0
-504,-755,0,0,0,0,0,0,0,0,0,-1,720,1779,0,0
-497,-755,0,0,0,0,0,0,0,0,0,-1,727,1779,0,0
-490,-755,0,0,0,0,0,0,0,0,0,-1,734,1779,0,0
-483,-755,0,0,0,0,0,0,0,0,0,-1,741,1779,0,0
-476,-755,0,0,0,0,0,0,0,0,0,-1,748,1779,0,0
-469,-755,0,0,0,0,0,0,0,0,0,-1,755,1779,0,0
-462,-755,0,0,0,0,0,0,0,0,0,-1,762,1779,0,0
-455,-755,0,0,0,0,0,0,0,0,0,-1,769,1779,0,0
-448,-755,0,0,0,0,0,0,0,0,0,-1,776,1779,0,0
-441,-755,0,0,0,0,0,0,0,0,0,-1,783,1779,0,0
-434,-755,0,0,0,0,0,0,0,0,0,-1,790,1779,0,0
-427,-755,0,0,0,0,0,0,0,0,0,-1,797,1779,0,0
-420,-755,0,0,0,0,0,0,0,0,0,-1,804,1779,0,0
-413,-755,0,0,0,0,0,0,0,0,0,-1,811,1779,0,0
-406,-755,0,0,0,0,0,0,0,0,0,-1,818,1779,0,0
-399,-755,0,0,0,0,0,0,0,0,0,-1,825,1779,0,0
-392,-755,0,0,0,0,0,0,0,0,0,-1,832,1779,0,0
-385,-755,0,0,0,0,0,0,0,0,0,-1,839,1779,0,0
-378,-755,0,0,0,0,0,0,0,0,0,-1,846,1779,0,0
-371,-755,0,0,0,0,0,0,0,0,0,-1,853,1779,0,0
-364,-755,0,0,0,0,0,0,0,0,0,-1,860,1779,0,0
-357,-755,0,0,0,0,0,0,0,0,0,-1,867,1779,0,0
-350,-755,0,0,0,0,0,0,0,0,0,-1,874,1779,0,0
-343,-755,0,0,0,0,0,0,0,0,0,-1,881,1779,0,0
-336,-755,0,0,0,0,0,0,0,0,0,-1,888,1779,0,0
-329,-755,0,0,0,0,0,0,0,0,0,-1,895,1779,0,0
-322,-755,0,0,0,0,0,0,0,0,0,-1,902,1779,0,0
-315,-755,0,0,0,0,0,0,0,0,0,-1,909,1779,0,0
-308,-755,0,0,0,0,0,0,0,0,0,-1,916,1779,0,0
-301,-755,0,0,0,0,0,0,0,0,0,-1,923,1779,0,0
-294,-755,0,0,0,0,0,0,0,0,0,-1,930,1779,0,0
-287,-755,0,0,0,0,0,0,0,0,0,-1,937,1779,0,0
-280,-755,0,0,0,0,0,0,0,0,0,-1,944,1779,0,0
-273,-755,0,0,0,0,0,0,0,0,0,-1,951,1779,0,0
-266,-755,0,0,0,0,0,0,0,0,0,-1,958,1779,0,0
-259,-755,0,0,0,0,0,0,0,0,0,-1,965,1779,0,0
-252,-755,0,0,0,0,0,0,0,0,0,-1,972,1779,0,0
-245,-755,0,0,0,0,0,0,0,0,0,-1,979,1779,0,0
-238,-755,0,0,0,0,0,0,0,0,0,-1,986,1779,0,0
-231,-755,0,0,0,0,0,0,0,0,0,-1,993,1779,0,0
-224,-755,0,0,0,0,0,0,0,0,0,-1,1000,1779,0,0
-217,-755,0,0,0,0,0,0,0,0,0,-1,1007,1779,0,0
-210,-755,0,0,0,0,0,0,0,0,0,-1,1014,1779,0,0
-203,-755,8.97363,30.5414,0,0,0,0,0,0,0,-1,1021,1779,8.97362,-30.5414
-196,-755,8.08667,43.2203,0,0,0,0,0,0,0,-1,1028,1779,8.08666,-43.2204
-189,-755,0.725098,39.8892,0,0,0,0,0,0,0,-1,1035,1779,0.725055,-39.8891
-182,-755,1.80835,40.9692,0,0,0,0,0,0,0,-1,1042,1779,1.80838,-40.9692
-175,-755,3.04749,41.9612,0,0,0,0,0,0,0,-1,1049,1779,3.0475,-41.9612
-168,-755,4.8302,42.7631,0,0,0,0,0,0,0,-1,1056,1779,4.8302,-42.7631
-161,-755,6.46777,44.0007,0,0,0,0,0,0,0,-1,1063,1779,6.46773,-44.0007
-154,-755,7.71094,44.9023,0,0,0,0,0,0,0,-1,1070,1779,7.71089,-44.9023
-147,-755,-6.45593,10.2422,0,0,0,0,0,0,0,-1,1077,1779,-6.45594,-10.2422
-140,-755,1.33521,21.3856,0,0,0,0,0,0,0,-1,1084,1779,1.33522,-21.3857
-133,-755,2.89417,21.0964,0,0,0,0,0,0,0,-1,1091,1779,2.89422,-21.0964
-126,-755,3.26404,20.9304,0,0,0,0,0,0,0,-1,1098,1779,3.26399,-20.9305
-119,-755,5.17761,21.9325,0,0,0,0,0,0,0,-1,1105,1779,5.17761,-21.9325
-112,-755,5.40247,24.5646,0,0,0,0,0,0,0,-1,1112,1779,5.40244,-24.5646
-105,-755,7.01294,20.1539,0,0,0,0,0,0,0,-1,1119,1779,7.01295,-20.154
-98,-755,5.50708,16.9628,0,0,0,0,0,0,0,-1,1126,1779,5.5071,-16.9628
-91,-755,5.51025,12.0438,0,0,0,0,0,0,0,-1,1133,1779,5.51022,-12.0439
-84,-755,0.169312,8.66443,0,0,0,0,0,0,0,-1,1140,1779,0.16932,-8.66446
-77,-755,-0.0491943,6.87439,0,0,0,0,0,0,0,-1,1147,1779,-0.0491385,-6.87443
-70,-755,4.5686,13.2169,0,0,0,0,0,0,0,-1,1154,1779,4.56865,-13.2169
-63,-755,-1.36316,7.3147,0,0,0,0,0,0,0,-1,1161,1779,-1.36312,-7.31473
-56,-755,0.0483398,5.06079,0,0,0,0,0,0,0,-1,1168,1779,0.0483138,-5.06084
-49,-755,-1.32263,5.33716,0,0,0,0,0,0,0,-1,1175,1779,-1.32264,-5.33718
-42,-755,-2.03613,4.01672,0,0,0,0,0,0,0,-1,1182,1779,-2.0361,-4.01671
-35,-755,-2.72498,2.37476,0,0,0,0,0,0,0,-1,1189,1779,-2.72502,-2.37473
-28,-755,9.91541,62.8558,0,0,0,0,0,0,0,-1,1196,1779,9.91537,-62.8559
-21,-755,9.67053,64.376,0,0,0,0,0,0,0,-1,1203,1779,9.67049,-64.376
-14,-755,9.60376,64.4336,-0.0242677,-0.00238302,0.00979073,0.00135774,-0.0280084,1.20584,0.0191409,0.0343396,1210,1779,9.6037,-64.4336
-7,-755,9.45239,64.5245,-0.0222965,-0.000798982,0.0112861,0.00403787,-0.0271333,1.16591,0.0195742,0.0250886,1217,1779,9.45239,-64.5245
0,-755,9.41309,64.6793,-0.0195028,0.000582279,0.0127302,0.00675423,-0.0256747,1.11936,0.0197566,0.0157681,1224,1779,9.41304,-64.6793
7,-755,9.36682,64.8391,-0.0158398,0.00219188,0.013739,0.00960913,-0.023257,1.07577,0.019513,0.01442,1231,1779,9.36687,-64.8391
14,-755,9.33044,65,-0.0119915,0.00396287,0.0141935,0.0122673,-0.0202959,1.04142,0.0189899,0.0131605,1238,1779,9.33044,-65.0001
21,-755,9.22913,65.1478,-0.00774496,0.005014,0.0147254,0.0146824,-0.0174134,0.989809,0.0185528,0.0181106,1245,1779,9.22912,-65.1478
28,-755,9.15674,65.1936,-0.00355449,0.00605061,0.0145593,0.016579,-0.0140828,0.94471,0.0177221,0.0216543,1252,1779,9.15675,-65.1936
35,-755,9.13599,65.2949,9.00304e-06,0.00560124,0.0131899,0.0162881,-0.0106779,0.889847,0.0156808,0.0225052,1259,1779,9.13593,-65.2949
42,-755,9.07776,65.3378,0.00323696,0.00486061,0.0114159,0.0154935,-0.00739592,0.820895,0.0134881,0.016328,1266,1779,9.07776,-65.3378
49,-755,9.03943,65.3534,0.0057648,0.00378006,0.00966776,0.014491,-0.00494613,0.734254,0.0116643,0.0113047,1273,1779,9.03948,-65.3534
56,-755,8.94604,65.4178,0.00761328,0.00293827,0.00745927,0.0130927,-0.00254117,0.63356,0.00968728,0.0101443,1280,1779,8.946,-65.4178
63,-755,8.89209,65.4528,0.00882484,0.00199815,0.00481229,0.0113114,-0.000488422,0.476929,0.00770891,0.0102107,1287,1779,8.89213,-65.4528
70,-755,8.87231,65.3885,0.00879764,0.000633712,0.001386,0.00902653,0.000404826,0.163664,0.00588738,0.0146827,1294,1779,8.87234,-65.3885
77,-755,8.78967,65.3154,0.00786319,-0.0008226,-0.00164938,0.00816585,-0.00112526,-0.181481,0.00585514,0.0144721,1301,1779,8.78964,-65.3154
84,-755,8.71155,65.3254,0.00618846,-0.00180933,-0.00389096,0.00776906,-0.00338993,-0.385859,0.00660594,0.0149204,1308,1779,8.71156,-65.3254
91,-755,8.63599,65.261,0.00426093,-0.00232082,-0.0062565,0.00803926,-0.00609915,-0.543286,0.00818839,0.0152758,1315,1779,8.63594,-65.261
98,-755,8.53833,65.2013,0.00226422,-0.00168177,-0.00853801,0.00905423,-0.00847178,-0.671849,0.0101205,0.0155602,1322,1779,8.53838,-65.2013
105,-755,8.50183,65.0929,0.00023639,-0.000719008,-0.0103485,0.0101183,-0.0106009,-0.762334,0.0119633,0.0183638,1329,1779,8.50186,-65.0928
112,-755,8.43896,64.9448,-0.00184957,0.000582991,-0.011831,0.0112601,-0.0125267,-0.83662,0.0137398,0.0250417,1336,1779,8.439,-64.9448
119,-755,8.39978,64.7733,-0.00353398,0.00243635,-0.0123637,0.0121702,-0.0132678,-0.903854,0.0146912,0.0263592,1343,1779,8.39979,-64.7733
126,-755,8.34521,64.7288,-0.00513608,0.00533127,-0.0129155,0.0140332,-0.013838,-0.977899,0.0160916,0.0293275,1350,1779,8.34522,-64.7288
133,-755,8.20178,64.5515,-0.00645292,0.00784813,-0.012575,0.0151635,-0.0137683,-1.04391,0.0167102,0.0288532,1357,1779,8.20178,-64.5515
140,-755,8.09644,64.3104,-0.00703275,0.011903,-0.0106114,0.0166564,-0.0117861,-1.14965,0.0165013,0.035835,1364,1779,8.09649,-64.3105
147,-755,8.13855,64.0798,-0.00766031,0.0154242,-0.00813764,0.0180044,-0.0102405,-1.26375,0.0165113,0.0392186,1371,1779,8.13861,-64.0798
154,-755,7.89795,64.0392,-0.00792641,0.0161455,-0.00763344,0.018362,-0.0101429,-1.2882,0.0166838,0.0377869,1378,1779,7.89799,-64.0392
161,-755,7.99146,63.7583,0,0,0,0,0,0,0,-1,1385,1779,7.99143,-63.7584
168,-755,3.98181,7.35901,0,0,0,0,0,0,0,-1,1392,1779,3.98184,-7.35904
175,-755,8.17065,1.34363,0,0,0,0,0,0,0,-1,1399,1779,8.1706,-1.34368
182,-755,8.09216,2.96924,0,0,0,0,0,0,0,-1,1406,1779,8.09213,-2.9693
189,-755,8.04419,4.68042,0,0,0,0,0,0,0,-1,1413,1779,8.04419,-4.68046
196,-755,7.74841,7.4541,0,0,0,0,0,0,0,-1,1420,1779,7.74842,-7.45405
203,-755,4.80554,6.88696,0,0,0,0,0,0,0,-1,1427,1779,4.80554,-6.88697
210,-755,25.1694,7.35693,0,0,0,0,0,0,0,-1,1434,1779,25.1694,-7.35688
217,-755,5.01648,16.411,0,0,0,0,0,0,0,-1,1441,1779,5.01646,-16.411
224,-755,5.18103,22.6283,0,0,0,0,0,0,0,-1,1448,1779,5.18101,-22.6283
231,-755,5.7489,30.15,0,0,0,0,0,0,0,-1,1455,1779,5.74885,-30.15
238,-755,6.56323,29.2726,0,0,0,0,0,0,0,-1,1462,1779,6.56327,-29.2726
245,-755,8.29639,28.2113,0,0,0,0,0,0,0,-1,1469,1779,8.29639,-28.2113
252,-755,6.8877,28.8699,0,0,0,0,0,0,0,-1,1476,1779,6.88774,-28.8698
259,-755,6.42676,30.8574,0,0,0,0,0,0,0,-1,1483,1779,6.42677,-30.8575
266,-755,17.255,7.86096,0,0,0,0,0,0,0,-1,1490,1779,17.255,-7.86092
273,-755,15.7932,7.59778,0,0,0,0,0,0,0,-1,1497,1779,15.7932,-7.59777
280,-755,14.6255,7.34802,0,0,0,0,0,0,0,-1,1504,1779,14.6254,-7.34806
287,-755,13.8279,7.83105,0,0,0,0,0,0,0,-1,1511,1779,13.8279,-7.83104
294,-755,12.5695,7.96814,0,0,0,0,0,0,0,-1,1518,1779,12.5694,-7.9682
301,-755,11.2659,8.27087,0,0,0,0,0,0,0,-1,1525,1779,11.2658,-8.27087
308,-755,5.17737,37.2896,0,0,0,0,0,0,0,-1,1532,1779,5.17742,-37.2896
315,-755,0.828613,31.032,0,0,0,0,0,0,0,-1,1539,1779,0.828668,-31.032
322,-755,0,0,0,0,0,0,0,0,0,-1,1546,1779,0,0
329,-755,0,0,0,0,0,0,0,0,0,-1,1553,1779,0,0
336,-755,0,0,0,0,0,0,0,0,0,-1,1560,1779,0,0
343,-755,0,0,0,0,0,0,0,0,0,-1,1567,1779,0,0
350,-755,0,0,0,0,0,0,0,0,0,-1,1574,1779,0,0
357,-755,0,0,0,0,0,0,0,0,0,-1,1581,1779,0,0
364,-755,0,0,0,0,0,0,0,0,0,-1,1588,1779,0,0
371,-755,0,0,0,0,0,0,0,0,0,-1,1595,1779,0,0
378,-755,0,0,0,0,0,0,0,0,0,-1,1602,1779,0,0
385,-755,0,0,0,0,0,0,0,0,0,-1,1609,1779,0,0
392,-755,0,0,0,0,0,0,0,0,0,-1,1616,1779,0,0
399,-755,0,0,0,0,0,0,0,0,0,-1,1623,1779,0,0
406,-755,0,0,0,0,0,0,0,0,0,-1,1630,1779,0,0
413,-755,0,0,0,0,0,0,0,0,0,-1,1637,1779,0,0
420,-755,0,0,0,0,0,0,0,0,0,-1,1644,1779,0,0
427,-755,0,0,0,0,0,0,0,0,0,-1,1651,1779,0,0
434,-755,0,0,0,0,0,0,0,0,0,-1,1658,1779,0,0
441,-755,0,0,0,0,0,0,0,0,0,-1,1665,1779,0,0
448,-755,0,0,0,0,0,0,0,0,0,-1,1672,1779,0,0
455,-755,0,0,0,0,0,0,0,0,0,-1,1679,1779,0,0
462,-755,0,0,0,0,0,0,0,0,0,-1,1686,1779,0,0
469,-755,0,0,0,0,0,0,0,0,0,-1,1693,1779,0,0
476,-755,0,0,0,0,0,0,0,0,0,-1,1700,1779,0,0
483,-755,0,0,0,0,0,0,0,0,0,-1,1707,1779,0,0
490,-755,0,0,0,0,0,0,0,0,0,-1,1714,1779,0,0
497,-755,0,0,0,0,0,0,0,0,0,-1,1721,1779,0,0
504,-755,0,0,0,0,0,0,0,0,0,-1,1728,1779,0,0
511,-755,0,0,0,0,0,0,0,0,0,-1,1735,1779,0,0
518,-755,0,0,0,0,0,0,0,0,0,-1,1742,1779,0,0
525,-755,0,0,0,0,0,0,0,0,0,-1,1749,1779,0,0
532,-755,0,0,0,0,0,0,0,0,0,-1,1756,1779,0,0
539,-755,0,0,0,0,0,0,0,0,0,-1,1763,1779,0,0
546,-755,0,0,0,0,0,0,0,0,0,-1,1770,1779,0,0
553,-755,0,0,0,0,0,0,0,0,0,-1,1777,1779,0,0
560,-755,0,0,0,0,0,0,0,0,0,-1,1784,1779,0,0
567,-755,0,0,0,0,0,0,0,0,0,-1,1791,1779,0,0
574,-755,0,0,0,0,0,0,0,0,0,-1,1798,1779,0,0
581,-755,0,0,0,0,0,0,0,0,0,-1,1805,1779,0,0
588,-755,0,0,0,0,0,0,0,0,0,-1,1812,1779,0,0
595,-755,0,0,0,0,0,0,0,0,0,-1,1819,1779,0,0
602,-755,0,0,0,0,0,0,0,0,0,-1,1826,1779,0,0
609,-755,0,0,0,0,0,0,0,0,0,-1,1833,1779,0,0
616,-755,0,0,0,0,0,0,0,0,0,-1,1840,1779,0,0
623,-755,0,0,0,0,0,0,0,0,0,-1,1847,1779,0,0
630,-755,0,0,0,0,0,0,0,0,0,-1,1854,1779,0,0
637,-755,0,0,0,0,0,0,0,0,0,-1,1861,1779,0,0
644,-755,0,0,0,0,0,0,0,0,0,-1,1868,1779,0,0
651,-755,0,0,0,0,0,0,0,0,0,-1,1875,1779,0,0
658,-755,0,0,0,0,0,0,0,0,0,-1,1882,1779,0,0
665,-755,0,0,0,0,0,0,0,0,0,-1,1889,1779,0,0
672,-755,0,0,0,0,0,0,0,0,0,-1,1896,1779,0,0
679,-755,0,0,0,0,0,0,0,0,0,-1,1903,1779,0,0
686,-755,0,0,0,0,0,0,0,0,0,-1,1910,1779,0,0
693,-755,0,0,0,0,0,0,0,0,0,-1,1917,1779,0,0
700,-755,0,0,0,0,0,0,0,0,0,-1,1924,1779,0,0
707,-755,0,0,0,0,0,0,0,0,0,-1,1931,1779,0,0
714,-755,0,0,0,0,0,0,0,0,0,-1,1938,1779,0,0
721,-755,0,0,0,0,0,0,0,0,0,-1,1945,1779,0,0
728,-755,0,0,0,0,0,0,0,0,0,-1,1952,1779,0,0
735,-755,0,0,0,0,0,0,0,0,0,-1,1959,1779,0,0
742,-755,0,0,0,0,0,0,0,0,0,-1,1966,1779,0,0
749,-755,0,0,0,0,0,0,0,0,0,-1,1973,1779,0,0
756,-755,0,0,0,0,0,0,0,0,0,-1,1980,1779,0,0
763,-755,0,0,0,0,0,0,0,0,0,-1,1987,1779,0,0
770,-755,0,0,0,0,0,0,0,0,0,-1,1994,1779,0,0
777,-755,0,0,0,0,0,0,0,0,0,-1,2001,1779,0,0
784,-755,0,0,0,0,0,0,0,0,0,-1,2008,1779,0,0
791,-755,0,0,0,0,0,0,0,0,0,-1,2015,1779,0,0
798,-755,0,0,0,0,0,0,0,0,0,-1,2022,1779,0,0
805,-755,0,0,0,0,0,0,0,0,0,-1,2029,1779,0,0
812,-755,0,0,0,0,0,0,0,0,0,-1,2036,1779,0,0
-700,-762,0,0,0,0,0,0,0,0,0,-1,524,1786,0,0
-693,-762,0,0,0,0,0,0,0,0,0,-1,531,1786,0,0
-686,-762,0,0,0,0,0,0,0,0,0,-1,538,1786,0,0
-679,-762,0,0,0,0,0,0,0,0,0,-1,545,1786,0,0
-672,-762,0,0,0,0,0,0,0,0,0,-1,552,1786,0,0
-665,-762,0,0,0,0,0,0,0,0,0,-1,559,1786,0,0
-658,-762,0,0,0,0,0,0,0,0,0,-1,566,1786,0,0
-651,-762,0,0,0,0,0,0,0,0,0,-1,573,1786,0,0
-644,-762,0,0,0,0,0,0,0,0,0,-1,580,1786,0,0
-637,-762,0,0,0,0,0,0,0,0,0,-1,587,1786,0,0
-630,-762,0,0,0,0,0,0,0,0,0,-1,594,1786,0,0
-623,-762,0,0,0,0,0,0,0,0,0,-1,601,1786,0,0
-616,-762,0,0,0,0,0,0,0,0,0,-1,608,1786,0,0
-609,-762,0,0,0,0,0,0,0,0,0,-1,615,1786,0,0
-602,-762,0,0,0,0,0,0,0,0,0,-1,622,1786,0,0
-595,-762,0,0,0,0,0,0,0,0,0,-1,629,1786,0,0
-588,-762,0,0,0,0,0,0,0,0,0,-1,636,1786,0,0
-581,-762,0,0,0,0,0,0,0,0,0,-1,643,1786,0,0
-574,-762,0,0,0,0,0,0,0,0,0,-1,650,1786,0,0
-567,-762,0,0,0,0,0,0,0,0,0,-1,657,1786,0,0
-560,-762,0,0,0,0,0,0,0,0,0,-1,664,1786,0,0
-553,-762,0,0,0,0,0,0,0,0,0,-1,671,1786,0,0
-546,-762,0,0,0,0,0,0,0,0,0,-1,678,1786,0,0
-539,-762,0,0,0,0,0,0,0,0,0,-1,685,1786,0,0
-532,-762,0,0,0,0,0,0,0,0,0,-1,692,1786,0,0
-525,-762,0,0,0,0,0,0,0,0,0,-1,699,1786,0,0
-518,-762,0,0,0,0,0,0,0,0,0,-1,706,1786,0,0
-511,-762,0,0,0,0,0,0,0,0,0,-1,713,1786,0,0
-504,-762,0,0,0,0,0,0,0,0,0,-1,720,1786,0,0
-497,-762,0,0,0,0,0,0,0,0,0,-1,727,1786,0,0
-490,-762,0,0,0,0,0,0,0,0,0,-1,734,1786,0,0
-483,-762,0,0,0,0,0,0,0,0,0,-1,741,1786,0,0
-476,-762,0,0,0,0,0,0,0,0,0,-1,748,1786,0,0
-469,-762,0,0,0,0,0,0,0,0,0,-1,755,1786,0,0
-462,-762,0,0,0,0,0,0,0,0,0,-1,762,1786,0,0
-455,-762,0,0,0,0,0,0,0,0,0,-1,769,1786,0,0
-448,-762,0,0,0,0,0,0,0,0,0,-1,776,1786,0,0
-441,-762,0,0,0,0,0,0,0,0,0,-1,783,1786,0,0
-434,-762,0,0,0,0,0,0,0,0,0,-1,790,1786,0,0
-427,-762,0,0,0,0,0,0,0,0,0,-1,797,1786,0,0
-420,-762,0,0,0,0,0,0,0,0,0,-1,804,1786,0,0
-413,-762,0,0,0,0,0,0,0,0,0,-1,811,1786,0,0
-406,-762,0,0,0,0,0,0,0,0,0,-1,818,1786,0,0
-399,-762,0,0,0,0,0,0,0,0,0,-1,825,1786,0,0
-392,-762,0,0,0,0,0,0,0,0,0,-1,832,1786,0,0
-385,-762,0,0,0,0,0,0,0,0,0,-1,839,1786,0,0
-378,-762,0,0,0,0,0,0,0,0,0,-1,846,1786,0,0
-371,-762,0,0,0,0,0,0,0,0,0,-1,853,1786,0,0
-364,-762,0,0,0,0,0,0,0,0,0,-1,860,1786,0,0
-357,-762,0,0,0,0,0,0,0,0,0,-1,867,1786,0,0
-350,-762,0,0,0,0,0,0,0,0,0,-1,874,1786,0,0
-343,-762,0,0,0,0,0,0,0,0,0,-1,881,1786,0,0
-336,-762,0,0,0,0,0,0,0,0,0,-1,888,1786,0,0
-329,-762,0,0,0,0,0,0,0,0,0,-1,895,1786,0,0
-322,-762,0,0,0,0,0,0,0,0,0,-1,902,1786,0,0
-315,-762,0,0,0,0,0,0,0,0,0,-1,909,1786,0,0
-308,-762,0,0,0,0,0,0,0,0,0,-1,916,1786,0,0
-301,-762,0,0,0,0,0,0,0,0,0,-1,923,1786,0,0
-294,-762,0,0,0,0,0,0,0,0,0,-1,930,1786,0,0
-287,-762,0,0,0,0,0,0,0,0,0,-1,937,1786,0,0
-280,-762,0,0,0,0,0,0,0,0,0,-1,944,1786,0,0
-273,-762,0,0,0,0,0,0,0,0,0,-1,951,1786,0,0
-266,-762,0,0,0,0,0,0,0,0,0,-1,958,1786,0,0
-259,-762,0,0,0,0,0,0,0,0,0,-1,965,1786,0,0
-252,-762,0,0,0,0,0,0,0,0,0,-1,972,1786,0,0
-245,-762,0,0,0,0,0,0,0,0,0,-1,979,1786,0,0
-238,-762,0,0,0,0,0,0,0,0,0,-1,986,1786,0,0
-231,-762,0,0,0,0,0,0,0,0,0,-1,993,1786,0,0
-224,-762,0,0,0,0,0,0,0,0,0,-1,1000,1786,0,0
-217,-762,0,0,0,0,0,0,0,0,0,-1,1007,1786,0,0
-210,-762,0,0,0,0,0,0,0,0,0,-1,1014,1786,0,0
-203,-762,0,0,0,0,0,0,0,0,0,-1,1021,1786,0,0
-196,-762,0,0,0,0,0,0,0,0,0,-1,1028,1786,0,0
-189,-762,0,0,0,0,0,0,0,0,0,-1,1035,1786,0,0
-182,-762,4.44226,13.2462,0,0,0,0,0,0,0,-1,1042,1786,4.44227,-13.2462
-175,-762,1.14465,40.1932,0,0,0,0,0,0,0,-1,1049,1786,1.1447,-40.1932
-168,-762,3.26794,41.3881,0,0,0,0,0,0,0,-1,1056,1786,3.26794,-41.388
-161,-762,-3.29077,11.9508,0,0,0,0,0,0,0,-1,1063,1786,-3.29076,-11.9508
-154,-762,-4.55823,11.1176,0,0,0,0,0,0,0,-1,1070,1786,-4.55828,-11.1175
-147,-762,-6.52454,9.41418,0,0,0,0,0,0,0,-1,1077,1786,-6.52458,-9.41419
-140,-762,4.99792,5.28589,0,0,0,0,0,0,0,-1,1084,1786,4.99793,-5.28587
-133,-762,0.689819,19.2172,0,0,0,0,0,0,0,-1,1091,1786,0.689867,-19.2171
-126,-762,1.48743,19.9288,0,0,0,0,0,0,0,-1,1098,1786,1.48738,-19.9289
-119,-762,2.65637,20.208,0,0,0,0,0,0,0,-1,1105,1786,2.65632,-20.208
-112,-762,6.84705,25.5554,0,0,0,0,0,0,0,-1,1112,1786,6.84706,-25.5554
-105,-762,5.57947,21.618,0,0,0,0,0,0,0,-1,1119,1786,5.57948,-21.618
-98,-762,5.0636,17.9901,0,0,0,0,0,0,0,-1,1126,1786,5.06361,-17.9901
-91,-762,4.54773,14.3622,0,0,0,0,0,0,0,-1,1133,1786,4.54774,-14.3622
-84,-762,3.96375,10.4547,0,0,0,0,0,0,0,-1,1140,1786,3.96371,-10.4548
-77,-762,0.305054,8.49365,0,0,0,0,0,0,0,-1,1147,1786,0.305008,-8.49362
-70,-762,0.183716,6.74622,0,0,0,0,0,0,0,-1,1154,1786,0.183696,-6.74621
-63,-762,-0.883057,9.08813,0,0,0,0,0,0,0,-1,1161,1786,-0.88311,-9.08808
-56,-762,-0.578979,5.10254,0,0,0,0,0,0,0,-1,1168,1786,-0.578951,-5.10249
-49,-762,-2.04541,3.66321,0,0,0,0,0,0,0,-1,1175,1786,-2.0454,-3.66319
-42,-762,-2.23462,3.474,0,0,0,0,0,0,0,-1,1182,1786,-2.23459,-3.47399
-35,-762,-3.28992,1.68164,0,0,0,0,0,0,0,-1,1189,1786,-3.28998,-1.68164
-28,-762,-3.75378,1.37769,0,0,0,0,0,0,0,-1,1196,1786,-3.75373,-1.37767
-21,-762,10.0541,64.9944,0,0,0,0,0,0,0,-1,1203,1786,10.0541,-64.9944
-14,-762,9.75598,65.0725,-0.0330615,-0.00433133,0.0129944,0.000673961,-0.0380667,1.20312,0.0256054,0.0487666,1210,1786,9.75594,-65.0725
-7,-762,9.49353,64.5585,-0.0302083,-0.00197292,0.0150171,0.00452062,-0.0367019,1.16267,0.0261056,0.0494318,1217,1786,9.49349,-64.5584
0,-762,9.49158,64.6611,-0.0261984,0.000219896,0.0170518,0.00858026,-0.0345588,1.11494,0.0263688,0.0389683,1224,1786,9.49155,-64.6612
7,-762,9.45972,64.8212,-0.0210034,0.00263181,0.0185364,0.0127973,-0.0311688,1.06918,0.0261121,0.0240335,1231,1786,9.45977,-64.8212
14,-762,9.31494,65.1812,-0.0156287,0.00521372,0.0192319,0.0166664,-0.0270814,1.03369,0.0254953,0.0399569,1238,1786,9.31499,-65.1811
21,-762,9.24951,65.0551,0,0,0,0,0,0,0,-1,1245,1786,9.24955,-65.0551
28,-762,8.7467,65.2241,0,0,0,0,0,0,0,-1,1252,1786,8.74671,-65.2241
35,-762,9.16284,65.2562,0,0,0,0,0,0,0,-1,1259,1786,9.16279,-65.2562
42,-762,9.02869,65.3246,0,0,0,0,0,0,0,-1,1266,1786,9.02865,-65.3246
49,-762,9.03967,65.4097,0.00913563,0.00517831,0.0135255,0.0208265,-0.00651253,0.712768,0.0164896,0.0457696,1273,1786,9.03962,-65.4097
56,-762,9.01587,65.4614,0.0117825,0.00388336,0.0106595,0.0192006,-0.00353474,0.607979,0.0141268,0.0334269,1280,1786,9.01585,-65.4614
63,-762,8.96533,65.4789,0.0135721,0.00232283,0.00717144,0.0170615,-0.00116659,0.452847,0.0117825,0.0301709,1287,1786,8.96529,-65.4789
70,-762,8.8949,65.4321,0.0136953,0.000149334,0.00265321,0.0141964,-0.000351804,0.18668,0.00958371,0.0311995,1294,1786,8.89493,-65.4322
77,-762,8.72437,65.2737,0.0126303,-0.0021611,-0.00153296,0.0127875,-0.0023183,-0.102191,0.00939362,0.0420027,1301,1786,8.72441,-65.2737
84,-762,8.77686,65.1614,0,0,0,0,0,0,0,-1,1308,1786,8.7769,-65.1614
91,-762,8.68896,65.1475,0,0,0,0,0,0,0,-1,1315,1786,8.68894,-65.1474
98,-762,8.39246,65.1296,0,0,0,0,0,0,0,-1,1322,1786,8.39251,-65.1296
105,-762,8.46436,65.0854,0.00287981,-0.00384585,-0.0141725,0.014083,-0.015049,-0.668913,0.0168225,0.0479918,1329,1786,8.46438,-65.0855
112,-762,8.33545,64.8268,0.000122241,-0.00245034,-0.0165471,0.015433,-0.0177611,-0.746609,0.0191803,0.0477103,1336,1786,8.33541,-64.8268
119,-762,8.28284,64.5891,0,0,0,0,0,0,0,-1,1343,1786,8.28278,-64.5891
126,-762,8.21008,64.8354,0,0,0,0,0,0,0,-1,1350,1786,8.2101,-64.8354
133,-762,8.0166,64.5792,-0.00640541,0.00746355,-0.0183549,0.0201502,-0.019092,-0.96601,0.0226592,0.0488259,1357,1786,8.01661,-64.5792
140,-762,7.83557,63.9456,-0.00736311,0.013676,-0.0157149,0.0220672,-0.0157543,-1.08035,0.0219375,0.0443291,1364,1786,7.83552,-63.9456
147,-762,7.74365,63.0662,-0.00818907,0.0197818,-0.0114678,0.0238824,-0.0122896,-1.22739,0.0212384,0.0413792,1371,1786,7.7436,-63.0661
154,-762,8.05225,62.9329,0,0,0,0,0,0,0,-1,1378,1786,8.05227,-62.9329
161,-762,8.65051,34.8102,0,0,0,0,0,0,0,-1,1385,1786,8.65054,-34.8101
168,-762,8.19287,0.880615,0,0,0,0,0,0,0,-1,1392,1786,8.19291,-0.880603
175,-762,8.33997,1.95947,0,0,0,0,0,0,0,-1,1399,1786,8.33997,-1.95942
182,-762,8.28418,3.56482,0,0,0,0,0,0,0,-1,1406,1786,8.28415,-3.56485
189,-762,8.21179,5.23389,0,0,0,0,0,0,0,-1,1413,1786,8.21183,-5.23383
196,-762,8.05969,6.95483,0,0,0,0,0,0,0,-1,1420,1786,8.05972,-6.9548
203,-762,24.0077,7.10425,0,0,0,0,0,0,0,-1,1427,1786,24.0077,-7.10426
210,-762,23.8073,7.6499,0,0,0,0,0,0,0,-1,1434,1786,23.8073,-7.64987
217,-762,23.3193,8.24426,0,0,0,0,0,0,0,-1,1441,1786,23.3194,-8.2442
224,-762,2.65149,20.6106,0,0,0,0,0,0,0,-1,1448,1786,2.65153,-20.6106
231,-762,5.46655,23.521,0,0,0,0,0,0,0,-1,1455,1786,5.46653,-23.521
238,-762,5.35632,29.7203,0,0,0,0,0,0,0,-1,1462,1786,5.35629,-29.7203
245,-762,6.93054,27.8312,0,0,0,0,0,0,0,-1,1469,1786,6.93058,-27.8312
252,-762,6.20215,28.3027,0,0,0,0,0,0,0,-1,1476,1786,6.20211,-28.3027
259,-762,5.46472,28.8762,0,0,0,0,0,0,0,-1,1483,1786,5.46476,-28.8762
266,-762,16.451,7.67773,0,0,0,0,0,0,0,-1,1490,1786,16.4511,-7.67773
273,-762,15.287,7.5304,0,0,0,0,0,0,0,-1,1497,1786,15.2869,-7.53044
280,-762,14.1501,7.38379,0,0,0,0,0,0,0,-1,1504,1786,14.1502,-7.38376
287,-762,12.6891,7.99133,0,0,0,0,0,0,0,-1,1511,1786,12.6891,-7.99135
294,-762,12.6959,8.30371,0,0,0,0,0,0,0,-1,1518,1786,12.6959,-8.30368
301,-762,11.4222,8.84143,0,0,0,0,0,0,0,-1,1525,1786,11.4223,-8.84149
308,-762,0,0,0,0,0,0,0,0,0,-1,1532,1786,0,0
315,-762,0,0,0,0,0,0,0,0,0,-1,1539,1786,0,0
322,-762,0,0,0,0,0,0,0,0,0,-1,1546,1786,0,0
329,-762,0,0,0,0,0,0,0,0,0,-1,1553,1786,0,0
336,-762,0,0,0,0,0,0,0,0,0,-1,1560,1786,0,0
343,-762,0,0,0,0,0,0,0,0,0,-1,1567,1786,0,0
350,-762,0,0,0,0,0,0,0,0,0,-1,1574,1786,0,0
357,-762,0,0,0,0,0,0,0,0,0,-1,1581,1786,0,0
364,-762,0,0,0,0,0,0,0,0,0,-1,1588,1786,0,0
371,-762,0,0,0,0,0,0,0,0,0,-1,1595,1786,0,0
378,-762,0,0,0,0,0,0,0,0,0,-1,1602,1786,0,0
385,-762,0,0,0,0,0,0,0,0,0,-1,1609,1786,0,0
392,-762,0,0,0,0,0,0,0,0,0,-1,1616,1786,0,0
399,-762,0,0,0,0,0,0,0,0,0,-1,1623,1786,0,0
406,-762,0,0,0,0,0,0,0,0,0,-1,1630,1786,0,0
413,-762,0,0,0,0,0,0,0,0,0,-1,1637,1786,0,0
420,-762,0,0,0,0,0,0,0,0,0,-1,1644,1786,0,0
427,-762,0,0,0,0,0,0,0,0,0,-1,1651,1786,0,0
434,-762,0,0,0,0,0,0,0,0,0,-1,1658,1786,0,0
441,-762,0,0,0,0,0,0,0,0,0,-1,1665,1786,0,0
448,-762,0,0,0,0,0,0,0,0,0,-1,1672,1786,0,0
455,-762,0,0,0,0,0,0,0,0,0,-1,1679,1786,0,0
462,-762,0,0,0,0,0,0,0,0,0,-1,1686,1786,0,0
469,-762,0,0,0,0,0,0,0,0,0,-1,1693,1786,0,0
476,-762,0,0,0,0,0,0,0,0,0,-1,1700,1786,0,0
483,-762,0,0,0,0,0,0,0,0,0,-1,1707,1786,0,0
490,-762,0,0,0,0,0,0,0,0,0,-1,1714,1786,0,0
497,-762,0,0,0,0,0,0,0,0,0,-1,1721,1786,0,0
504,-762,0,0,0,0,0,0,0,0,0,-1,1728,1786,0,0
511,-762,0,0,0,0,0,0,0,0,0,-1,1735,1786,0,0
518,-762,0,0,0,0,0,0,0,0,0,-1,1742,1786,0,0
525,-762,0,0,0,0,0,0,0,0,0,-1,1749,1786,0,0
532,-762,0,0,0,0,0,0,0,0,0,-1,1756,1786,0,0
539,-762,0,0,0,0,0,0,0,0,0,-1,1763,1786,0,0
546,-762,0,0,0,0,0,0,0,0,0,-1,1770,1786,0,0
553,-762,0,0,0,0,0,0,0,0,0,-1,1777,1786,0,0
560,-762,0,0,0,0,0,0,0,0,0,-1,1784,1786,0,0
567,-762,0,0,0,0,0,0,0,0,0,-1,1791,1786,0,0
574,-762,0,0,0,0,0,0,0,0,0,-1,1798,1786,0,0
581,-762,0,0,0,0,0,0,0,0,0,-1,1805,1786,0,0
588,-762,0,0,0,0,0,0,0,0,0,-1,1812,1786,0,0
595,-762,0,0,0,0,0,0,0,0,0,-1,1819,1786,0,0
602,-762,0,0,0,0,0,0,0,0,0,-1,1826,1786,0,0
609,-762,0,0,0,0,0,0,0,0,0,-1,1833,1786,0,0
616,-762,0,0,0,0,0,0,0,0,0,-1,1840,1786,0,0
623,-762,0,0,0,0,0,0,0,0,0,-1,1847,1786,0,0
630,-762,0,0,0,0,0,0,0,0,0,-1,1854,1786,0,0
637,-762,0,0,0,0,0,0,0,0,0,-1,1861,1786,0,0
644,-762,0,0,0,0,0,0,0,0,0,-1,1868,1786,0,0
651,-762,0,0,0,0,0,0,0,0,0,-1,1875,1786,0,0
658,-762,0,0,0,0,0,0,0,0,0,-1,1882,1786,0,0
665,-762,0,0,0,0,0,0,0,0,0,-1,1889,1786,0,0
672,-762,0,0,0,0,0,0,0,0,0,-1,1896,1786,0,0
679,-762,0,0,0,0,0,0,0,0,0,-1,1903,1786,0,0
686,-762,0,0,0,0,0,0,0,0,0,-1,1910,1786,0,0
693,-762,0,0,0,0,0,0,0,0,0,-1,1917,1786,0,0
700,-762,0,0,0,0,0,0,0,0,0,-1,1924,1786,0,0
707,-762,0,0,0,0,0,0,0,0,0,-1,1931,1786,0,0
714,-762,0,0,0,0,0,0,0,0,0,-1,1938,1786,0,0
721,-762,0,0,0,0,0,0,0,0,0,-1,1945,1786,0,0
728,-762,0,0,0,0,0,0,0,0,0,-1,1952,1786,0,0
735,-762,0,0,0,0,0,0,0,0,0,-1,1959,1786,0,0
742,-762,0,0,0,0,0,0,0,0,0,-1,1966,1786,0,0
749,-762,0,0,0,0,0,0,0,0,0,-1,1973,1786,0,0
756,-762,0,0,0,0,0,0,0,0,0,-1,1980,1786,0,0
763,-762,0,0,0,0,0,0,0,0,0,-1,1987,1786,0,0
770,-762,0,0,0,0,0,0,0,0,0,-1,1994,1786,0,0
777,-762,0,0,0,0,0,0,0,0,0,-1,2001,1786,0,0
784,-762,0,0,0,0,0,0,0,0,0,-1,2008,1786,0,0
791,-762,0,0,0,0,0,0,0,0,0,-1,2015,1786,0,0
798,-762,0,0,0,0,0,0,0,0,0,-1,2022,1786,0,0
805,-762,0,0,0,0,0,0,0,0,0,-1,2029,1786,0,0
812,-762,0,0,0,0,0,0,0,0,0,-1,2036,1786,0,0
-700,-769,0,0,0,0,0,0,0,0,0,-1,524,1793,0,0
-693,-769,0,0,0,0,0,0,0,0,0,-1,531,1793,0,0
-686,-769,0,0,0,0,0,0,0,0,0,-1,538,1793,0,0
-679,-769,0,0,0,0,0,0,0,0,0,-1,545,1793,0,0
-672,-769,0,0,0,0,0,0,0,0,0,-1,552,1793,0,0
-665,-769,0,0,0,0,0,0,0,0,0,-1,559,1793,0,0
-658,-769,0,0,0,0,0,0,0,0,0,-1,566,1793,0,0
-651,-769,0,0,0,0,0,0,0,0,0,-1,573,1793,0,0
-644,-769,0,0,0,0,0,0,0,0,0,-1,580,1793,0,0
-637,-769,0,0,0,0,0,0,0,0,0,-1,587,1793,0,0
-630,-769,0,0,0,0,0,0,0,0,0,-1,594,1793,0,0
-623,-769,0,0,0,0,0,0,0,0,0,-1,601,1793,0,0
-616,-769,0,0,0,0,0,0,0,0,0,-1,608,1793,0,0
-609,-769,0,0,0,0,0,0,0,0,0,-1,615,1793,0,0
-602,-769,0,0,0,0,0,0,0,0,0,-1,622,1793,0,0
-595,-769,0,0,0,0,0,0,0,0,0,-1,629,1793,0,0
-588,-769,0,0,0,0,0,0,0,0,0,-1,636,1793,0,0
-581,-769,0,0,0,0,0,0,0,0,0,-1,643,1793,0,0
-574,-769,0,0,0,0,0,0,0,0,0,-1,650,1793,0,0
-567,-769,0,0,0,0,0,0,0,0,0,-1,657,1793,0,0
-560,-769,0,0,0,0,0,0,0,0,0,-1,664,1793,0,0
-553,-769,0,0,0,0,0,0,0,0,0,-1,671,1793,0,0
-546,-769,0,0,0,0,0,0,0,0,0,-1,678,1793,0,0
-539,-769,0,0,0,0,0,0,0,0,0,-1,685,1793,0,0
-532,-769,0,0,0,0,0,0,0,0,0,-1,692,1793,0,0
-525,-769,0,0,0,0,0,0,0,0,0,-1,699,1793,0,0
-518,-769,0,0,0,0,0,0,0,0,0,-1,706,1793,0,0
-511,-769,0,0,0,0,0,0,0,0,0,-1,713,1793,0,0
-504,-769,0,0,0,0,0,0,0,0,0,-1,720,1793,0,0
-497,-769,0,0,0,0,0,0,0,0,0,-1,727,1793,0,0
-490,-769,0,0,0,0,0,0,0,0,0,-1,734,1793,0,0
-483,-769,0,0,0,0,0,0,0,0,0,-1,741,1793,0,0
-476,-769,0,0,0,0,0,0,0,0,0,-1,748,1793,0,0
-469,-769,0,0,0,0,0,0,0,0,0,-1,755,1793,0,0
-462,-769,0,0,0,0,0,0,0,0,0,-1,762,1793,0,0
-455,-769,0,0,0,0,0,0,0,0,0,-1,769,1793,0,0
-448,-769,0,0,0,0,0,0,0,0,0,-1,776,1793,0,0
-441,-769,0,0,0,0,0,0,0,0,0,-1,783,1793,0,0
-434,-769,0,0,0,0,0,0,0,0,0,-1,790,1793,0,0
-427,-769,0,0,0,0,0,0,0,0,0,-1,797,1793,0,0
-420,-769,0,0,0,0,0,0,0,0,0,-1,804,1793,0,0
-413,-769,0,0,0,0,0,0,0,0,0,-1,811,1793,0,0
-406,-769,0,0,0,0,0,0,0,0,0,-1,818,1793,0,0
-399,-769,0,0,0,0,0,0,0,0,0,-1,825,1793,0,0
-392,-769,0,0,0,0,0,0,0,0,0,-1,832,1793,0,0
-385,-769,0,0,0,0,0,0,0,0,0,-1,839,1793,0,0
-378,-769,0,0,0,0,0,0,0,0,0,-1,846,1793,0,0
-371,-769,0,0,0,0,0,0,0,0,0,-1,853,1793,0,0
-364,-769,0,0,0,0,0,0,0,0,0,-1,860,1793,0,0
-357,-769,0,0,0,0,0,0,0,0,0,-1,867,1793,0,0
-350,-769,0,0,0,0,0,0,0,0,0,-1,874,1793,0,0
-343,-769,0,0,0,0,0,0,0,0,0,-1,881,1793,0,0
-336,-769,0,0,0,0,0,0,0,0,0,-1,888,1793,0,0
-329,-769,0,0,0,0,0,0,0,0,0,-1,895,1793,0,0
-322,-769,0,0,0,0,0,0,0,0,0,-1,902,1793,0,0
-315,-769,0,0,0,0,0,0,0,0,0,-1,909,1793,0,0
-308,-769,0,0,0,0,0,0,0,0,0,-1,916,1793,0,0
-301,-769,0,0,0,0,0,0,0,0,0,-1,923,1793,0,0
-294,-769,0,0,0,0,0,0,0,0,0,-1,930,1793,0,0
-287,-769,0,0,0,0,0,0,0,0,0,-1,937,1793,0,0
-280,-769,0,0,0,0,0,0,0,0,0,-1,944,1793,0,0
-273,-769,0,0,0,0,0,0,0,0,0,-1,951,1793,0,0
-266,-769,0,0,0,0,0,0,0,0,0,-1,958,1793,0,0
-259,-769,0,0,0,0,0,0,0,0,0,-1,965,1793,0,0
-252,-769,0,0,0,0,0,0,0,0,0,-1,972,1793,0,0
-245,-769,0,0,0,0,0,0,0,0,0,-1,979,1793,0,0
-238,-769,0,0,0,0,0,0,0,0,0,-1,986,1793,0,0
-231,-769,0,0,0,0,0,0,0,0,0,-1,993,1793,0,0
-224,-769,0,0,0,0,0,0,0,0,0,-1,1000,1793,0,0
-217,-769,0,0,0,0,0,0,0,0,0,-1,1007,1793,0,0
-210,-769,0,0,0,0,0,0,0,0,0,-1,1014,1793,0,0
-203,-769,0,0,0,0,0,0,0,0,0,-1,1021,1793,0,0
-196,-769,0,0,0,0,0,0,0,0,0,-1,1028,1793,0,0
-189,-769,0,0,0,0,0,0,0,0,0,-1,1035,1793,0,0
-182,-769,0,0,0,0,0,0,0,0,0,-1,1042,1793,0,0
-175,-769,0,0,0,0,0,0,0,0,0,-1,1049,1793,0,0
-168,-769,0,0,0,0,0,0,0,0,0,-1,1056,1793,0,0
-161,-769,-3.61145,12.4761,0,0,0,0,0,0,0,-1,1063,1793,-3.6114,-12.476
-154,-769,-0.813232,5.32874,0,0,0,0,0,0,0,-1,1070,1793,-0.813269,-5.32872
-147,-769,4.26587,4.7002,0,0,0,0,0,0,0,-1,1077,1793,4.26593,-4.70022
-140,-769,4.10376,5.28589,0,0,0,0,0,0,0,-1,1084,1793,4.10371,-5.28584
-133,-769,6.422,8.21777,0,0,0,0,0,0,0,-1,1091,1793,6.42198,-8.21773
-126,-769,-0.352295,19.326,0,0,0,0,0,0,0,-1,1098,1793,-0.352235,-19.326
-119,-769,6.01685,16.2577,0,0,0,0,0,0,0,-1,1105,1793,6.01689,-16.2576
-112,-769,5.76416,27.2615,0,0,0,0,0,0,0,-1,1112,1793,5.7642,-27.2615
-105,-769,4.97009,22.8479,0,0,0,0,0,0,0,-1,1119,1793,4.97006,-22.8479
-98,-769,4.69373,18.9142,0,0,0,0,0,0,0,-1,1126,1793,4.69376,-18.9142
-91,-769,4.41748,14.9805,0,0,0,0,0,0,0,-1,1133,1793,4.41746,-14.9805
-84,-769,3.2207,12.4565,0,0,0,0,0,0,0,-1,1140,1793,3.22066,-12.4565
-77,-769,2.48816,8.98486,0,0,0,0,0,0,0,-1,1147,1793,2.48815,-8.98489
-70,-769,1.04944,11.9852,0,0,0,0,0,0,0,-1,1154,1793,1.04947,-11.9852
-63,-769,-2.39709,9.60339,0,0,0,0,0,0,0,-1,1161,1793,-2.39706,-9.6034
-56,-769,-5.84363,7.22156,0,0,0,0,0,0,0,-1,1168,1793,-5.84359,-7.22157
-49,-769,-2.41443,3.95471,0,0,0,0,0,0,0,-1,1175,1793,-2.41446,-3.95471
-42,-769,-3.1991,2.64941,0,0,0,0,0,0,0,-1,1182,1793,-3.19914,-2.64944
-35,-769,-3.50183,1.73389,0,0,0,0,0,0,0,-1,1189,1793,-3.50189,-1.7339
-28,-769,-3.96985,1.14075,0,0,0,0,0,0,0,-1,1196,1793,-3.96985,-1.14078
-21,-769,9.75879,60.0453,0,0,0,0,0,0,0,-1,1203,1793,9.75881,-60.0453
-14,-769,9.79065,65.5519,0,0,0,0,0,0,0,-1,1210,1793,9.7906,-65.5519
-7,-769,9.54077,64.5154,0,0,0,0,0,0,0,-1,1217,1793,9.54074,-64.5154
0,-769,9.57617,64.4972,-0.0343155,-0.00054481,0.0219103,0.0102317,-0.045092,1.11369,0.0339891,0.0474986,1224,1793,9.57612,-64.4973
7,-769,9.30762,64.7764,-0.0271948,0.00291225,0.0241,0.0162738,-0.0405564,1.06456,0.0337946,0.0444007,1231,1793,9.30767,-64.7763
14,-769,7.74097,65.3208,-0.0198999,0.00652423,0.025175,0.0217435,-0.0351192,1.02705,0.0331311,0.042408,1238,1793,7.74096,-65.3208
21,-769,7.56519,65.34,-0.012002,0.00897664,0.0263351,0.0268345,-0.0298599,0.974919,0.032748,0.0439875,1245,1793,7.56519,-65.3399
28,-769,8.30627,65.1163,0,0,0,0,0,0,0,-1,1252,1793,8.30625,-65.1164
35,-769,9.32813,65.4181,0,0,0,0,0,0,0,-1,1259,1793,9.32811,-65.418
42,-769,9.172,65.4169,0,0,0,0,0,0,0,-1,1266,1793,9.17201,-65.4169
49,-769,9.052,65.4401,0.0135898,0.00693069,0.0184151,0.0289739,-0.00845345,0.695962,0.0226655,0.0449192,1273,1793,9.05196,-65.44
56,-769,8.92078,65.3557,0.0172786,0.00501843,0.0148167,0.0271832,-0.00488617,0.589255,0.0199513,0.0477519,1280,1793,8.92083,-65.3557
63,-769,8.86279,65.4556,0,0,0,0,0,0,0,-1,1287,1793,8.86282,-65.4556
70,-769,8.96411,65.5464,0,0,0,0,0,0,0,-1,1294,1793,8.96405,-65.5463
77,-769,8.96777,65.4799,0,0,0,0,0,0,0,-1,1301,1793,8.96777,-65.4799
84,-769,8.82324,64.2795,0,0,0,0,0,0,0,-1,1308,1793,8.82323,-64.2795
91,-769,8.64795,64.1927,0,0,0,0,0,0,0,-1,1315,1793,8.64792,-64.1927
98,-769,8.34924,64.4246,0,0,0,0,0,0,0,-1,1322,1793,8.34928,-64.4245
105,-769,8.30383,64.9086,0.00735748,-0.00873825,-0.0187981,0.019758,-0.0211387,-0.583142,0.0236162,0.0451653,1329,1793,8.30387,-64.9086
112,-769,8.28931,64.5313,0.00394591,-0.00737815,-0.0224384,0.0214256,-0.0248579,-0.66181,0.0267463,0.0461808,1336,1793,8.2893,-64.5313
119,-769,7.84424,63.9819,0.00127628,-0.00437376,-0.0239467,0.022564,-0.0256615,-0.726684,0.0278622,0.0443839,1343,1793,7.84422,-63.9819
126,-769,7.43469,63.4673,-0.0015026,0.000782138,-0.025461,0.0251264,-0.0258469,-0.807817,0.0294304,0.046849,1350,1793,7.43475,-63.4673
133,-769,7.78137,64.4203,-0.00488164,0.00559355,-0.0262373,0.0271109,-0.026399,-0.883915,0.0308949,0.049293,1357,1793,7.78139,-64.4202
140,-769,7.80652,63.7157,0,0,0,0,0,0,0,-1,1364,1793,7.80651,-63.7158
147,-769,7.45215,62.2096,0,0,0,0,0,0,0,-1,1371,1793,7.45209,-62.2096
154,-769,7.29382,55.4241,0,0,0,0,0,0,0,-1,1378,1793,7.29384,-55.4241
161,-769,6.57019,1.53223,0,0,0,0,0,0,0,-1,1385,1793,6.57019,-1.53226
168,-769,8.27637,0.756958,0,0,0,0,0,0,0,-1,1392,1793,8.27639,-0.756944
175,-769,8.47144,2.41174,0,0,0,0,0,0,0,-1,1399,1793,8.47147,-2.4118
182,-769,8.41479,4.05994,0,0,0,0,0,0,0,-1,1406,1793,8.41479,-4.05997
189,-769,8.25049,5.68433,0,0,0,0,0,0,0,-1,1413,1793,8.25054,-5.68428
196,-769,7.97729,7.42847,0,0,0,0,0,0,0,-1,1420,1793,7.9773,-7.42848
203,-769,22.0977,6.73889,0,0,0,0,0,0,0,-1,1427,1793,22.0977,-6.7389
210,-769,22.1115,7.77246,0,0,0,0,0,0,0,-1,1434,1793,22.1115,-7.77248
217,-769,22.4723,8.79102,0,0,0,0,0,0,0,-1,1441,1793,22.4723,-8.79099
224,-769,22.1348,9.35278,0,0,0,0,0,0,0,-1,1448,1793,22.1348,-9.35283
231,-769,3.13318,19.7184,0,0,0,0,0,0,0,-1,1455,1793,3.13323,-19.7184
238,-769,5.74512,18.6597,0,0,0,0,0,0,0,-1,1462,1793,5.74512,-18.6596
245,-769,5.80798,22.87,0,0,0,0,0,0,0,-1,1469,1793,5.80796,-22.87
252,-769,6.20837,28.394,0,0,0,0,0,0,0,-1,1476,1793,6.20833,-28.3941
259,-769,10.974,17.7698,0,0,0,0,0,0,0,-1,1483,1793,10.974,-17.7698
266,-769,15.8488,7.3905,0,0,0,0,0,0,0,-1,1490,1793,15.8488,-7.39046
273,-769,14.8075,7.56152,0,0,0,0,0,0,0,-1,1497,1793,14.8075,-7.56152
280,-769,13.6519,7.43054,0,0,0,0,0,0,0,-1,1504,1793,13.6518,-7.43058
287,-769,0,0,0,0,0,0,0,0,0,-1,1511,1793,0,0
294,-769,0,0,0,0,0,0,0,0,0,-1,1518,1793,0,0
301,-769,0,0,0,0,0,0,0,0,0,-1,1525,1793,0,0
308,-769,0,0,0,0,0,0,0,0,0,-1,1532,1793,0,0
315,-769,0,0,0,0,0,0,0,0,0,-1,1539,1793,0,0
322,-769,0,0,0,0,0,0,0,0,0,-1,1546,1793,0,0
329,-769,0,0,0,0,0,0,0,0,0,-1,1553,1793,0,0
336,-769,0,0,0,0,0,0,0,0,0,-1,1560,1793,0,0
343,-769,0,0,0,0,0,0,0,0,0,-1,1567,1793,0,0
350,-769,0,0,0,0,0,0,0,0,0,-1,1574,1793,0,0
357,-769,0,0,0,0,0,0,0,0,0,-1,1581,1793,0,0
364,-769,0,0,0,0,0,0,0,0,0,-1,1588,1793,0,0
371,-769,0,0,0,0,0,0,0,0,0,-1,1595,1793,0,0
378,-769,0,0,0,0,0,0,0,0,0,-1,1602,1793,0,0
385,-769,0,0,0,0,0,0,0,0,0,-1,1609,1793,0,0
392,-769,0,0,0,0,0,0,0,0,0,-1,1616,1793,0,0
399,-769,0,0,0,0,0,0,0,0,0,-1,1623,1793,0,0
406,-769,0,0,0,0,0,0,0,0,0,-1,1630,1793,0,0
413,-769,0,0,0,0,0,0,0,0,0,-1,1637,1793,0,0
420,-769,0,0,0,0,0,0,0,0,0,-1,1644,1793,0,0
427,-769,0,0,0,0,0,0,0,0,0,-1,1651,1793,0,0
434,-769,0,0,0,0,0,0,0,0,0,-1,1658,1793,0,0
441,-769,0,0,0,0,0,0,0,0,0,-1,1665,1793,0,0
448,-769,0,0,0,0,0,0,0,0,0,-1,1672,1793,0,0
455,-769,0,0,0,0,0,0,0,0,0,-1,1679,1793,0,0
462,-769,0,0,0,0,0,0,0,0,0,-1,1686,1793,0,0
469,-769,0,0,0,0,0,0,0,0,0,-1,1693,1793,0,0
476,-769,0,0,0,0,0,0,0,0,0,-1,1700,1793,0,0
483,-769,0,0,0,0,0,0,0,0,0,-1,1707,1793,0,0
490,-769,0,0,0,0,0,0,0,0,0,-1,1714,1793,0,0
497,-769,0,0,0,0,0,0,0,0,0,-1,1721,1793,0,0
504,-769,0,0,0,0,0,0,0,0,0,-1,1728,1793,0,0
511,-769,0,0,0,0,0,0,0,0,0,-1,1735,1793,0,0
518,-769,0,0,0,0,0,0,0,0,0,-1,1742,1793,0,0
525,-769,0,0,0,0,0,0,0,0,0,-1,1749,1793,0,0
532,-769,0,0,0,0,0,0,0,0,0,-1,1756,1793,0,0
539,-769,0,0,0,0,0,0,0,0,0,-1,1763,1793,0,0
546,-769,0,0,0,0,0,0,0,0,0,-1,1770,1793,0,0
553,-769,0,0,0,0,0,0,0,0,0,-1,1777,1793,0,0
560,-769,0,0,0,0,0,0,0,0,0,-1,1784,1793,0,0
567,-769,0,0,0,0,0,0,0,0,0,-1,1791,1793,0,0
574,-769,0,0,0,0,0,0,0,0,0,-1,1798,1793,0,0
581,-769,0,0,0,0,0,0,0,0,0,-1,1805,1793,0,0
588,-769,0,0,0,0,0,0,0,0,0,-1,1812,1793,0,0
595,-769,0,0,0,0,0,0,0,0,0,-1,1819,1793,0,0
602,-769,0,0,0,0,0,0,0,0,0,-1,1826,1793,0,0
609,-769,0,0,0,0,0,0,0,0,0,-1,1833,1793,0,0
616,-769,0,0,0,0,0,0,0,0,0,-1,1840,1793,0,0
623,-769,0,0,0,0,0,0,0,0,0,-1,1847,1793,0,0
630,-769,0,0,0,0,0,0,0,0,0,-1,1854,1793,0,0
637,-769,0,0,0,0,0,0,0,0,0,-1,1861,1793,0,0
644,-769,0,0,0,0,0,0,0,0,0,-1,1868,1793,0,0
651,-769,0,0,0,0,0,0,0,0,0,-1,1875,1793,0,0
658,-769,0,0,0,0,0,0,0,0,0,-1,1882,1793,0,0
665,-769,0,0,0,0,0,0,0,0,0,-1,1889,1793,0,0
672,-769,0,0,0,0,0,0,0,0,0,-1,1896,1793,0,0
679,-769,0,0,0,0,0,0,0,0,0,-1,1903,1793,0,0
686,-769,0,0,0,0,0,0,0,0,0,-1,1910,1793,0,0
693,-769,0,0,0,0,0,0,0,0,0,-1,1917,1793,0,0
700,-769,0,0,0,0,0,0,0,0,0,-1,1924,1793,0,0
707,-769,0,0,0,0,0,0,0,0,0,-1,1931,1793,0,0
714,-769,0,0,0,0,0,0,0,0,0,-1,1938,1793,0,0
721,-769,0,0,0,0,0,0,0,0,0,-1,1945,1793,0,0
728,-769,0,0,0,0,0,0,0,0,0,-1,1952,1793,0,0
735,-769,0,0,0,0,0,0,0,0,0,-1,1959,1793,0,0
742,-769,0,0,0,0,0,0,0,0,0,-1,1966,1793,0,0
749,-769,0,0,0,0,0,0,0,0,0,-1,1973,1793,0,0
756,-769,0,0,0,0,0,0,0,0,0,-1,1980,1793,0,0
763,-769,0,0,0,0,0,0,0,0,0,-1,1987,1793,0,0
770,-769,0,0,0,0,0,0,0,0,0,-1,1994,1793,0,0
777,-769,0,0,0,0,0,0,0,0,0,-1,2001,1793,0,0
784,-769,0,0,0,0,0,0,0,0,0,-1,2008,1793,0,0
791,-769,0,0,0,0,0,0,0,0,0,-1,2015,1793,0,0
798,-769,0,0,0,0,0,0,0,0,0,-1,2022,1793,0,0
805,-769,0,0,0,0,0,0,0,0,0,-1,2029,1793,0,0
812,-769,0,0,0,0,0,0,0,0,0,-1,2036,1793,0,0
-700,-776,0,0,0,0,0,0,0,0,0,-1,524,1800,0,0
-693,-776,0,0,0,0,0,0,0,0,0,-1,531,1800,0,0
-686,-776,0,0,0,0,0,0,0,0,0,-1,538,1800,0,0
-679,-776,0,0,0,0,0,0,0,0,0,-1,545,1800,0,0
-672,-776,0,0,0,0,0,0,0,0,0,-1,552,1800,0,0
-665,-776,0,0,0,0,0,0,0,0,0,-1,559,1800,0,0
-658,-776,0,0,0,0,0,0,0,0,0,-1,566,1800,0,0
-651,-776,0,0,0,0,0,0,0,0,0,-1,573,1800,0,0
-644,-776,0,0,0,0,0,0,0,0,0,-1,580,1800,0,0
-637,-776,0,0,0,0,0,0,0,0,0,-1,587,1800,0,0
-630,-776,0,0,0,0,0,0,0,0,0,-1,594,1800,0,0
-623,-776,0,0,0,0,0,0,0,0,0,-1,601,1800,0,0
-616,-776,0,0,0,0,0,0,0,0,0,-1,608,1800,0,0
-609,-776,0,0,0,0,0,0,0,0,0,-1,615,1800,0,0
-602,-776,0,0,0,0,0,0,0,0,0,-1,622,1800,0,0
-595,-776,0,0,0,0,0,0,0,0,0,-1,629,1800,0,0
-588,-776,0,0,0,0,0,0,0,0,0,-1,636,1800,0,0
-581,-776,0,0,0,0,0,0,0,0,0,-1,643,1800,0,0
-574,-776,0,0,0,0,0,0,0,0,0,-1,650,1800,0,0
-567,-776,0,0,0,0,0,0,0,0,0,-1,657,1800,0,0
-560,-776,0,0,0,0,0,0,0,0,0,-1,664,1800,0,0
-553,-776,0,0,0,0,0,0,0,0,0,-1,671,1800,0,0
-546,-776,0,0,0,0,0,0,0,0,0,-1,678,1800,0,0
-539,-776,0,0,0,0,0,0,0,0,0,-1,685,1800,0,0
-532,-776,0,0,0,0,0,0,0,0,0,-1,692,1800,0,0
-525,-776,0,0,0,0,0,0,0,0,0,-1,699,1800,0,0
-518,-776,0,0,0,0,0,0,0,0,0,-1,706,1800,0,0
-511,-776,0,0,0,0,0,0,0,0,0,-1,713,1800,0,0
-504,-776,0,0,0,0,0,0,0,0,0,-1,720,1800,0,0
-497,-776,0,0,0,0,0,0,0,0,0,-1,727,1800,0,0
-490,-776,0,0,0,0,0,0,0,0,0,-1,734,1800,0,0
-483,-776,0,0,0,0,0,0,0,0,0,-1,741,1800,0,0
-476,-776,0,0,0,0,0,0,0,0,0,-1,748,1800,0,0
-469,-776,0,0,0,0,0,0,0,0,0,-1,755,1800,0,0
-462,-776,0,0,0,0,0,0,0,0,0,-1,762,1800,0,0
-455,-776,0,0,0,0,0,0,0,0,0,-1,769,1800,0,0
-448,-776,0,0,0,0,0,0,0,0,0,-1,776,1800,0,0
-441,-776,0,0,0,0,0,0,0,0,0,-1,783,1800,0,0
-434,-776,0,0,0,0,0,0,0,0,0,-1,790,1800,0,0
-427,-776,0,0,0,0,0,0,0,0,0,-1,797,1800,0,0
-420,-776,0,0,0,0,0,0,0,0,0,-1,804,1800,0,0
-413,-776,0,0,0,0,0,0,0,0,0,-1,811,1800,0,0
-406,-776,0,0,0,0,0,0,0,0,0,-1,818,1800,0,0
-399,-776,0,0,0,0,0,0,0,0,0,-1,825,1800,0,0
-392,-776,0,0,0,0,0,0,0,0,0,-1,832,1800,0,0
-385,-776,0,0,0,0,0,0,0,0,0,-1,839,1800,0,0
-378,-776,0,0,0,0,0,0,0,0,0,-1,846,1800,0,0
-371,-776,0,0,0,0,0,0,0,0,0,-1,853,1800,0,0
-364,-776,0,0,0,0,0,0,0,0,0,-1,860,1800,0,0
-357,-776,0,0,0,0,0,0,0,0,0,-1,867,1800,0,0
-350,-776,0,0,0,0,0,0,0,0,0,-1,874,1800,0,0
-343,-776,0,0,0,0,0,0,0,0,0,-1,881,1800,0,0
-336,-776,0,0,0,0,0,0,0,0,0,-1,888,1800,0,0
-329,-776,0,0,0,0,0,0,0,0,0,-1,895,1800,0,0
-322,-776,0,0,0,0,0,0,0,0,0,-1,902,1800,0,0
-315,-776,0,0,0,0,0,0,0,0,0,-1,909,1800,0,0
-308,-776,0,0,0,0,0,0,0,0,0,-1,916,1800,0,0
-301,-776,0,0,0,0,0,0,0,0,0,-1,923,1800,0,0
-294,-776,0,0,0,0,0,0,0,0,0,-1,930,1800,0,0
-287,-776,0,0,0,0,0,0,0,0,0,-1,937,1800,0,0
-280,-776,0,0,0,0,0,0,0,0,0,-1,944,1800,0,0
-273,-776,0,0,0,0,0,0,0,0,0,-1,951,1800,0,0
-266,-776,0,0,0,0,0,0,0,0,0,-1,958,1800,0,0
-259,-776,0,0,0,0,0,0,0,0,0,-1,965,1800,0,0
-252,-776,0,0,0,0,0,0,0,0,0,-1,972,1800,0,0
-245,-776,0,0,0,0,0,0,0,0,0,-1,979,1800,0,0
-238,-776,0,0,0,0,0,0,0,0,0,-1,986,1800,0,0
-231,-776,0,0,0,0,0,0,0,0,0,-1,993,1800,0,0
-224,-776,0,0,0,0,0,0,0,0,0,-1,1000,1800,0,0
-217,-776,0,0,0,0,0,0,0,0,0,-1,1007,1800,0,0
-210,-776,0,0,0,0,0,0,0,0,0,-1,1014,1800,0,0
-203,-776,0,0,0,0,0,0,0,0,0,-1,1021,1800,0,0
-196,-776,0,0,0,0,0,0,0,0,0,-1,1028,1800,0,0
-189,-776,0,0,0,0,0,0,0,0,0,-1,1035,1800,0,0
-182,-776,0,0,0,0,0,0,0,0,0,-1,1042,1800,0,0
-175,-776,0,0,0,0,0,0,0,0,0,-1,1049,1800,0,0
-168,-776,0,0,0,0,0,0,0,0,0,-1,1056,1800,0,0
-161,-776,0,0,0,0,0,0,0,0,0,-1,1063,1800,0,0
-154,-776,0,0,0,0,0,0,0,0,0,-1,1070,1800,0,0
-147,-776,0,0,0,0,0,0,0,0,0,-1,1077,1800,0,0
-140,-776,2.98499,5.20911,0,0,0,0,0,0,0,-1,1084,1800,2.98493,-5.2091
-133,-776,6.72363,9.35828,0,0,0,0,0,0,0,-1,1091,1800,6.72358,-9.35824
-126,-776,6.55029,13.7832,0,0,0,0,0,0,0,-1,1098,1800,6.55029,-13.7832
-119,-776,5.72107,13.7787,0,0,0,0,0,0,0,-1,1105,1800,5.72106,-13.7787
-112,-776,6.84998,20.4421,0,0,0,0,0,0,0,-1,1112,1800,6.84993,-20.4421
-105,-776,4.46863,24.6742,0,0,0,0,0,0,0,-1,1119,1800,4.46868,-24.6742
-98,-776,4.31616,19.7659,0,0,0,0,0,0,0,-1,1126,1800,4.31619,-19.7659
-91,-776,3.30225,18.134,0,0,0,0,0,0,0,-1,1133,1800,3.30222,-18.134
-84,-776,2.67932,14.3162,0,0,0,0,0,0,0,-1,1140,1800,2.67926,-14.3161
-77,-776,0.580078,11.1272,0,0,0,0,0,0,0,-1,1147,1800,0.58002,-11.1272
-70,-776,-0.562866,12.3163,0,0,0,0,0,0,0,-1,1154,1800,-0.562897,-12.3163
-63,-776,-3.96106,9.97656,0,0,0,0,0,0,0,-1,1161,1800,-3.961,-9.97654
-56,-776,-7.35913,7.63672,0,0,0,0,0,0,0,-1,1168,1800,-7.3591,-7.63676
-49,-776,-7.62952,3.1908,0,0,0,0,0,0,0,-1,1175,1800,-7.62955,-3.19076
-42,-776,-3.41272,3.0249,0,0,0,0,0,0,0,-1,1182,1800,-3.41269,-3.02488
-35,-776,-3.71753,1.63635,0,0,0,0,0,0,0,-1,1189,1800,-3.71755,-1.63631
-28,-776,-4.03979,0.716064,0,0,0,0,0,0,0,-1,1196,1800,-4.03977,-0.716055
-21,-776,11.337,63.4668,0,0,0,0,0,0,0,-1,1203,1800,11.337,-63.4668
-14,-776,10.9583,63.6191,-0.0565403,-0.01042,0.0192736,-0.00342617,-0.0635341,1.2227,0.0412615,0.0458518,1210,1800,10.9582,-63.6191
-7,-776,10.2979,63.9747,0,0,0,0,0,0,0,-1,1217,1800,10.2978,-63.9748
0,-776,9.48157,64.328,0,0,0,0,0,0,0,-1,1224,1800,9.48153,-64.328
7,-776,6.38635,65.0162,0,0,0,0,0,0,0,-1,1231,1800,6.38636,-65.0163
14,-776,6.7854,65.201,-0.0250737,0.00788499,0.0319692,0.0273723,-0.044561,1.02337,0.0419241,0.0474699,1238,1800,6.78536,-65.2011
21,-776,7.1842,65.4567,-0.014755,0.0114779,0.033616,0.0344458,-0.0377229,0.971406,0.0416809,0.0454692,1245,1800,7.18422,-65.4567
28,-776,7.56006,65.6874,0,0,0,0,0,0,0,-1,1252,1800,7.56007,-65.6874
35,-776,7.96399,65.7892,0,0,0,0,0,0,0,-1,1259,1800,7.96393,-65.7891
42,-776,9.23535,65.3257,0,0,0,0,0,0,0,-1,1266,1800,9.23541,-65.3256
49,-776,8.97681,65.4171,0.0190629,0.00926974,0.0245161,0.0391666,-0.010834,0.686831,0.0303735,0.0453027,1273,1800,8.97681,-65.4171
56,-776,8.98743,65.548,0.0240996,0.00654913,0.0201226,0.0372771,-0.00662837,0.579785,0.0273301,0.04575,1280,1800,8.98737,-65.548
63,-776,9.70728,65.9199,0.0277059,0.00295818,0.0145485,0.034431,-0.00376697,0.433,0.0243072,0.0489722,1287,1800,9.70727,-65.92
70,-776,10.5156,66.5902,0.028526,-0.0018292,0.00728468,0.0301837,-0.00348687,0.223745,0.0213797,0.048346,1294,1800,10.5156,-66.5902
77,-776,11.2817,67.2959,0,0,0,0,0,0,0,-1,1301,1800,11.2818,-67.2959
84,-776,8.63855,64.4176,0,0,0,0,0,0,0,-1,1308,1800,8.6385,-64.4176
91,-776,8.43884,64.3083,0.0211583,-0.014399,-0.0126201,0.0251821,-0.0184227,-0.308651,0.0252759,0.0464024,1315,1800,8.43888,-64.3083
98,-776,8.37952,64.2776,0,0,0,0,0,0,0,-1,1322,1800,8.37948,-64.2776
105,-776,8.43286,64.2091,0.014075,-0.0156555,-0.0243187,0.0277119,-0.0292924,-0.511066,0.0329157,0.0466418,1329,1800,8.4328,-64.2091
112,-776,8.32727,64.213,0.0101547,-0.0145092,-0.0296492,0.0299343,-0.0342888,-0.588317,0.0371076,0.0457423,1336,1800,8.32722,-64.213
119,-776,8.30823,64.125,0.0071891,-0.0108211,-0.0319644,0.0313926,-0.0350247,-0.648095,0.0383651,0.0436681,1343,1800,8.30817,-64.125
126,-776,8.38086,63.9244,0.00400804,-0.00443333,-0.0341465,0.0341937,-0.034619,-0.723907,0.0397293,0.0465279,1350,1800,8.38084,-63.9245
133,-776,8.39294,63.8107,0,0,0,0,0,0,0,-1,1357,1800,8.39293,-63.8107
140,-776,9.13232,61.809,0,0,0,0,0,0,0,-1,1364,1800,9.13236,-61.809
147,-776,9.61267,62.2073,0,0,0,0,0,0,0,-1,1371,1800,9.61271,-62.2073
154,-776,38.4338,21.854,0,0,0,0,0,0,0,-1,1378,1800,38.4339,-21.854
161,-776,6.50293,1.1731,0,0,0,0,0,0,0,-1,1385,1800,6.5029,-1.17313
168,-776,8.44971,1.22913,0,0,0,0,0,0,0,-1,1392,1800,8.44974,-1.22915
175,-776,8.61523,2.87061,0,0,0,0,0,0,0,-1,1399,1800,8.6152,-2.87063
182,-776,8.54065,4.60645,0,0,0,0,0,0,0,-1,1406,1800,8.5407,-4.60643
189,-776,8.35303,6.28223,0,0,0,0,0,0,0,-1,1413,1800,8.35297,-6.28225
196,-776,8.0387,8.21704,0,0,0,0,0,0,0,-1,1420,1800,8.03865,-8.217
203,-776,7.91736,9.79919,0,0,0,0,0,0,0,-1,1427,1800,7.91735,-9.79922
210,-776,20.2479,7.85718,0,0,0,0,0,0,0,-1,1434,1800,20.248,-7.85719
217,-776,21.5171,9.3418,0,0,0,0,0,0,0,-1,1441,1800,21.5171,-9.34182
224,-776,3.09253,14.9313,0,0,0,0,0,0,0,-1,1448,1800,3.09254,-14.9313
231,-776,20.8671,9.21057,0,0,0,0,0,0,0,-1,1455,1800,20.867,-9.21054
238,-776,20.7511,9.05847,0,0,0,0,0,0,0,-1,1462,1800,20.7511,-9.05848
245,-776,3.80823,15.4108,0,0,0,0,0,0,0,-1,1469,1800,3.80826,-15.4108
252,-776,8.57837,20.2009,0,0,0,0,0,0,0,-1,1476,1800,8.57841,-20.2009
259,-776,14.1882,7.69055,0,0,0,0,0,0,0,-1,1483,1800,14.1882,-7.69061
266,-776,0,0,0,0,0,0,0,0,0,-1,1490,1800,0,0
273,-776,0,0,0,0,0,0,0,0,0,-1,1497,1800,0,0
280,-776,0,0,0,0,0,0,0,0,0,-1,1504,1800,0,0
287,-776,0,0,0,0,0,0,0,0,0,-1,1511,1800,0,0
294,-776,0,0,0,0,0,0,0,0,0,-1,1518,1800,0,0
301,-776,0,0,0,0,0,0,0,0,0,-1,1525,1800,0,0
308,-776,0,0,0,0,0,0,0,0,0,-1,1532,1800,0,0
315,-776,0,0,0,0,0,0,0,0,0,-1,1539,1800,0,0
322,-776,0,0,0,0,0,0,0,0,0,-1,1546,1800,0,0
329,-776,0,0,0,0,0,0,0,0,0,-1,1553,1800,0,0
336,-776,0,0,0,0,0,0,0,0,0,-1,1560,1800,0,0
343,-776,0,0,0,0,0,0,0,0,0,-1,1567,1800,0,0
350,-776,0,0,0,0,0,0,0,0,0,-1,1574,1800,0,0
357,-776,0,0,0,0,0,0,0,0,0,-1,1581,1800,0,0
364,-776,0,0,0,0,0,0,0,0,0,-1,1588,1800,0,0
371,-776,0,0,0,0,0,0,0,0,0,-1,1595,1800,0,0
378,-776,0,0,0,0,0,0,0,0,0,-1,1602,1800,0,0
385,-776,0,0,0,0,0,0,0,0,0,-1,1609,1800,0,0
392,-776,0,0,0,0,0,0,0,0,0,-1,1616,1800,0,0
399,-776,0,0,0,0,0,0,0,0,0,-1,1623,1800,0,0
406,-776,0,0,0,0,0,0,0,0,0,-1,1630,1800,0,0
413,-776,0,0,0,0,0,0,0,0,0,-1,1637,1800,0,0
420,-776,0,0,0,0,0,0,0,0,0,-1,1644,1800,0,0
427,-776,0,0,0,0,0,0,0,0,0,-1,1651,1800,0,0
434,-776,0,0,0,0,0,0,0,0,0,-1,1658,1800,0,0
441,-776,0,0,0,0,0,0,0,0,0,-1,1665,1800,0,0
448,-776,0,0,0,0,0,0,0,0,0,-1,1672,1800,0,0
455,-776,0,0,0,0,0,0,0,0,0,-1,1679,1800,0,0
462,-776,0,0,0,0,0,0,0,0,0,-1,1686,1800,0,0
469,-776,0,0,0,0,0,0,0,0,0,-1,1693,1800,0,0
476,-776,0,0,0,0,0,0,0,0,0,-1,1700,1800,0,0
483,-776,0,0,0,0,0,0,0,0,0,-1,1707,1800,0,0
490,-776,0,0,0,0,0,0,0,0,0,-1,1714,1800,0,0
497,-776,0,0,0,0,0,0,0,0,0,-1,1721,1800,0,0
504,-776,0,0,0,0,0,0,0,0,0,-1,1728,1800,0,0
511,-776,0,0,0,0,0,0,0,0,0,-1,1735,1800,0,0
518,-776,0,0,0,0,0,0,0,0,0,-1,1742,1800,0,0
525,-776,0,0,0,0,0,0,0,0,0,-1,1749,1800,0,0
532,-776,0,0,0,0,0,0,0,0,0,-1,1756,1800,0,0
539,-776,0,0,0,0,0,0,0,0,0,-1,1763,1800,0,0
546,-776,0,0,0,0,0,0,0,0,0,-1,1770,1800,0,0
553,-776,0,0,0,0,0,0,0,0,0,-1,1777,1800,0,0
560,-776,0,0,0,0,0,0,0,0,0,-1,1784,1800,0,0
567,-776,0,0,0,0,0,0,0,0,0,-1,1791,1800,0,0
574,-776,0,0,0,0,0,0,0,0,0,-1,1798,1800,0,0
581,-776,0,0,0,0,0,0,0,0,0,-1,1805,1800,0,0
588,-776,0,0,0,0,0,0,0,0,0,-1,1812,1800,0,0
595,-776,0,0,0,0,0,0,0,0,0,-1,1819,1800,0,0
602,-776,0,0,0,0,0,0,0,0,0,-1,1826,1800,0,0
609,-776,0,0,0,0,0,0,0,0,0,-1,1833,1800,0,0
616,-776,0,0,0,0,0,0,0,0,0,-1,1840,1800,0,0
623,-776,0,0,0,0,0,0,0,0,0,-1,1847,1800,0,0
630,-776,0,0,0,0,0,0,0,0,0,-1,1854,1800,0,0
637,-776,0,0,0,0,0,0,0,0,0,-1,1861,1800,0,0
644,-776,0,0,0,0,0,0,0,0,0,-1,1868,1800,0,0
651,-776,0,0,0,0,0,0,0,0,0,-1,1875,1800,0,0
658,-776,0,0,0,0,0,0,0,0,0,-1,1882,1800,0,0
665,-776,0,0,0,0,0,0,0,0,0,-1,1889,1800,0,0
672,-776,0,0,0,0,0,0,0,0,0,-1,1896,1800,0,0
679,-776,0,0,0,0,0,0,0,0,0,-1,1903,1800,0,0
686,-776,0,0,0,0,0,0,0,0,0,-1,1910,1800,0,0
693,-776,0,0,0,0,0,0,0,0,0,-1,1917,1800,0,0
700,-776,0,0,0,0,0,0,0,0,0,-1,1924,1800,0,0
707,-776,0,0,0,0,0,0,0,0,0,-1,1931,1800,0,0
714,-776,0,0,0,0,0,0,0,0,0,-1,1938,1800,0,0
721,-776,0,0,0,0,0,0,0,0,0,-1,1945,1800,0,0
728,-776,0,0,0,0,0,0,0,0,0,-1,1952,1800,0,0
735,-776,0,0,0,0,0,0,0,0,0,-1,1959,1800,0,0
742,-776,0,0,0,0,0,0,0,0,0,-1,1966,1800,0,0
749,-776,0,0,0,0,0,0,0,0,0,-1,1973,1800,0,0
756,-776,0,0,0,0,0,0,0,0,0,-1,1980,1800,0,0
763,-776,0,0,0,0,0,0,0,0,0,-1,1987,1800,0,0
770,-776,0,0,0,0,0,0,0,0,0,-1,1994,1800,0,0
777,-776,0,0,0,0,0,0,0,0,0,-1,2001,1800,0,0
784,-776,0,0,0,0,0,0,0,0,0,-1,2008,1800,0,0
791,-776,0,0,0,0,0,0,0,0,0,-1,2015,1800,0,0
798,-776,0,0,0,0,0,0,0,0,0,-1,2022,1800,0,0
805,-776,0,0,0,0,0,0,0,0,0,-1,2029,1800,0,0
812,-776,0,0,0,0,0,0,0,0,0,-1,2036,1800,0,0
-700,-783,0,0,0,0,0,0,0,0,0,-1,524,1807,0,0
-693,-783,0,0,0,0,0,0,0,0,0,-1,531,1807,0,0
-686,-783,0,0,0,0,0,0,0,0,0,-1,538,1807,0,0
-679,-783,0,0,0,0,0,0,0,0,0,-1,545,1807,0,0
-672,-783,0,0,0,0,0,0,0,0,0,-1,552,1807,0,0
-665,-783,0,0,0,0,0,0,0,0,0,-1,559,1807,0,0
-658,-783,0,0,0,0,0,0,0,0,0,-1,566,1807,0,0
-651,-783,0,0,0,0,0,0,0,0,0,-1,573,1807,0,0
-644,-783,0,0,0,0,0,0,0,0,0,-1,580,1807,0,0
-637,-783,0,0,0,0,0,0,0,0,0,-1,587,1807,0,0
-630,-783,0,0,0,0,0,0,0,0,0,-1,594,1807,0,0
-623,-783,0,0,0,0,0,0,0,0,0,-1,601,1807,0,0
-616,-783,0,0,0,0,0,0,0,0,0,-1,608,1807,0,0
-609,-783,0,0,0,0,0,0,0,0,0,-1,615,1807,0,0
-602,-783,0,0,0,0,0,0,0,0,0,-1,622,1807,0,0
-595,-783,0,0,0,0,0,0,0,0,0,-1,629,1807,0,0
-588,-783,0,0,0,0,0,0,0,0,0,-1,636,1807,0,0
-581,-783,0,0,0,0,0,0,0,0,0,-1,643,1807,0,0
-574,-783,0,0,0,0,0,0,0,0,0,-1,650,1807,0,0
-567,-783,0,0,0,0,0,0,0,0,0,-1,657,1807,0,0
-560,-783,0,0,0,0,0,0,0,0,0,-1,664,1807,0,0
-553,-783,0,0,0,0,0,0,0,0,0,-1,671,1807,0,0
-546,-783,0,0,0,0,0,0,0,0,0,-1,678,1807,0,0
-539,-783,0,0,0,0,0,0,0,0,0,-1,685,1807,0,0
-532,-783,0,0,0,0,0,0,0,0,0,-1,692,1807,0,0
-525,-783,0,0,0,0,0,0,0,0,0,-1,699,1807,0,0
-518,-783,0,0,0,0,0,0,0,0,0,-1,706,1807,0,0
-511,-783,0,0,0,0,0,0,0,0,0,-1,713,1807,0,0
-504,-783,0,0,0,0,0,0,0,0,0,-1,720,1807,0,0
-497,-783,0,0,0,0,0,0,0,0,0,-1,727,1807,0,0
-490,-783,0,0,0,0,0,0,0,0,0,-1,734,1807,0,0
-483,-783,0,0,0,0,0,0,0,0,0,-1,741,1807,0,0
-476,-783,0,0,0,0,0,0,0,0,0,-1,748,1807,0,0
-469,-783,0,0,0,0,0,0,0,0,0,-1,755,1807,0,0
-462,-783,0,0,0,0,0,0,0,0,0,-1,762,1807,0,0
-455,-783,0,0,0,0,0,0,0,0,0,-1,769,1807,0,0
-448,-783,0,0,0,0,0,0,0,0,0,-1,776,1807,0,0
-441,-783,0,0,0,0,0,0,0,0,0,-1,783,1807,0,0
-434,-783,0,0,0,0,0,0,0,0,0,-1,790,1807,0,0
-427,-783,0,0,0,0,0,0,0,0,0,-1,797,1807,0,0
-420,-783,0,0,0,0,0,0,0,0,0,-1,804,1807,0,0
-413,-783,0,0,0,0,0,0,0,0,0,-1,811,1807,0,0
-406,-783,0,0,0,0,0,0,0,0,0,-1,818,1807,0,0
-399,-783,0,0,0,0,0,0,0,0,0,-1,825,1807,0,0
-392,-783,0,0,0,0,0,0,0,0,0,-1,832,1807,0,0
-385,-783,0,0,0,0,0,0,0,0,0,-1,839,1807,0,0
-378,-783,0,0,0,0,0,0,0,0,0,-1,846,1807,0,0
-371,-783,0,0,0,0,0,0,0,0,0,-1,853,1807,0,0
-364,-783,0,0,0,0,0,0,0,0,0,-1,860,1807,0,0
-357,-783,0,0,0,0,0,0,0,0,0,-1,867,1807,0,0
-350,-783,0,0,0,0,0,0,0,0,0,-1,874,1807,0,0
-343,-783,0,0,0,0,0,0,0,0,0,-1,881,1807,0,0
-336,-783,0,0,0,0,0,0,0,0,0,-1,888,1807,0,0
-329,-783,0,0,0,0,0,0,0,0,0,-1,895,1807,0,0
-322,-783,0,0,0,0,0,0,0,0,0,-1,902,1807,0,0
-315,-783,0,0,0,0,0,0,0,0,0,-1,909,1807,0,0
-308,-783,0,0,0,0,0,0,0,0,0,-1,916,1807,0,0
-301,-783,0,0,0,0,0,0,0,0,0,-1,923,1807,0,0
-294,-783,0,0,0,0,0,0,0,0,0,-1,930,1807,0,0
-287,-783,0,0,0,0,0,0,0,0,0,-1,937,1807,0,0
-280,-783,0,0,0,0,0,0,0,0,0,-1,944,1807,0,0
-273,-783,0,0,0,0,0,0,0,0,0,-1,951,1807,0,0
-266,-783,0,0,0,0,0,0,0,0,0,-1,958,1807,0,0
-259,-783,0,0,0,0,0,0,0,0,0,-1,965,1807,0,0
-252,-783,0,0,0,0,0,0,0,0,0,-1,972,1807,0,0
-245,-783,0,0,0,0,0,0,0,0,0,-1,979,1807,0,0
-238,-783,0,0,0,0,0,0,0,0,0,-1,986,1807,0,0
-231,-783,0,0,0,0,0,0,0,0,0,-1,993,1807,0,0
-224,-783,0,0,0,0,0,0,0,0,0,-1,1000,1807,0,0
-217,-783,0,0,0,0,0,0,0,0,0,-1,1007,1807,0,0
-210,-783,0,0,0,0,0,0,0,0,0,-1,1014,1807,0,0
-203,-783,0,0,0,0,0,0,0,0,0,-1,1021,1807,0,0
-196,-783,0,0,0,0,0,0,0,0,0,-1,1028,1807,0,0
-189,-783,0,0,0,0,0,0,0,0,0,-1,1035,1807,0,0
-182,-783,0,0,0,0,0,0,0,0,0,-1,1042,1807,0,0
-175,-783,0,0,0,0,0,0,0,0,0,-1,1049,1807,0,0
-168,-783,0,0,0,0,0,0,0,0,0,-1,1056,1807,0,0
-161,-783,0,0,0,0,0,0,0,0,0,-1,1063,1807,0,0
-154,-783,0,0,0,0,0,0,0,0,0,-1,1070,1807,0,0
-147,-783,0,0,0,0,0,0,0,0,0,-1,1077,1807,0,0
-140,-783,0,0,0,0,0,0,0,0,0,-1,1084,1807,0,0
-133,-783,0,0,0,0,0,0,0,0,0,-1,1091,1807,0,0
-126,-783,0,0,0,0,0,0,0,0,0,-1,1098,1807,0,0
-119,-783,0,0,0,0,0,0,0,0,0,-1,1105,1807,0,0
-112,-783,5.33936,14.7699,0,0,0,0,0,0,0,-1,1112,1807,5.33931,-14.7699
-105,-783,6.44263,21.2224,0,0,0,0,0,0,0,-1,1119,1807,6.44263,-21.2224
-98,-783,5.54773,20.5695,0,0,0,0,0,0,0,-1,1126,1807,5.54772,-20.5695
-91,-783,2.6106,20.2491,0,0,0,0,0,0,0,-1,1133,1807,2.61056,-20.2492
-84,-783,-0.0491943,14.5743,0,0,0,0,0,0,0,-1,1140,1807,-0.0491562,-14.5743
-77,-783,0.332764,12.7788,0,0,0,0,0,0,0,-1,1147,1807,0.332743,-12.7788
-70,-783,-1.93176,5.12817,0,0,0,0,0,0,0,-1,1154,1807,-1.93171,-5.12813
-63,-783,-5.31702,10.54,0,0,0,0,0,0,0,-1,1161,1807,-5.31703,-10.54
-56,-783,-6.26135,6.9679,0,0,0,0,0,0,0,-1,1168,1807,-6.26136,-6.96785
-49,-783,-3.17688,4.59705,0,0,0,0,0,0,0,-1,1175,1807,-3.17685,-4.5971
-42,-783,-3.72876,3.1405,0,0,0,0,0,0,0,-1,1182,1807,-3.72874,-3.14055
-35,-783,-3.97046,1.59399,0,0,0,0,0,0,0,-1,1189,1807,-3.97041,-1.59401
-28,-783,-4.12195,0.270386,0,0,0,0,0,0,0,-1,1196,1807,-4.12197,-0.270408
-21,-783,11.8844,63.2596,0,0,0,0,0,0,0,-1,1203,1807,11.8844,-63.2596
-14,-783,11.5333,63.4147,0,0,0,0,0,0,0,-1,1210,1807,11.5333,-63.4146
-7,-783,9.88953,63.9686,0,0,0,0,0,0,0,-1,1217,1807,9.88954,-63.9686
0,-783,9.3739,64.1503,-0.0565205,-0.00410604,0.032599,0.011514,-0.0721405,1.12396,0.0523554,0.0478404,1224,1807,9.37392,-64.1503
7,-783,8.85107,64.3141,-0.0440312,0.00268301,0.037177,0.0232313,-0.0645795,1.06587,0.0525377,0.0464746,1231,1807,8.85108,-64.3141
14,-783,6.45459,65.1228,0,0,0,0,0,0,0,-1,1238,1807,6.45456,-65.1228
21,-783,6.80481,65.3365,0,0,0,0,0,0,0,-1,1245,1807,6.8048,-65.3365
28,-783,7.09155,65.4694,0,0,0,0,0,0,0,-1,1252,1807,7.09152,-65.4693
35,-783,7.55298,65.4933,0.00704706,0.0182167,0.041033,0.0540432,-0.0287794,0.853036,0.0485535,0.0461967,1259,1807,7.55295,-65.4933
42,-783,8.04272,65.5022,0.0168589,0.0156584,0.0364123,0.0526759,-0.0201586,0.777156,0.0434255,0.0450382,1266,1807,8.04271,-65.5022
49,-783,8.64014,65.6998,0.0255032,0.0124857,0.0321329,0.0517799,-0.013791,0.685471,0.0399191,0.0477241,1273,1807,8.64011,-65.6998
56,-783,9.63391,65.3259,0.0322797,0.00873183,0.0268998,0.0498694,-0.00885788,0.579111,0.0365584,0.0464009,1280,1807,9.63391,-65.3259
63,-783,10.1509,65.5767,0.0372636,0.00361346,0.0200686,0.0466269,-0.00574985,0.436544,0.0331677,0.0491522,1287,1807,10.1509,-65.5766
70,-783,10.2415,66.8258,0.0387604,-0.00314868,0.0111035,0.0415205,-0.00590872,0.243635,0.0298455,0.0451751,1294,1807,10.2415,-66.8257
77,-783,11.0496,67.8842,0.0378928,-0.0104066,0.00167877,0.037951,-0.0104649,0.0347019,0.0294161,0.0484811,1301,1807,11.0495,-67.8842
84,-783,8.32129,64.5995,0.0346284,-0.0167683,-0.00672332,0.0354933,-0.0176332,-0.127945,0.0312451,0.0484507,1308,1807,8.32129,-64.5995
91,-783,8.21973,64.4515,0.0311269,-0.021583,-0.0151486,0.0351703,-0.0256264,-0.260839,0.0352449,0.044502,1315,1807,8.21969,-64.4515
98,-783,8.40967,64.1307,0,0,0,0,0,0,0,-1,1322,1807,8.40967,-64.1307
105,-783,8.66455,63.9561,0,0,0,0,0,0,0,-1,1329,1807,8.66461,-63.9561
112,-783,8.64685,63.9579,0,0,0,0,0,0,0,-1,1336,1807,8.6468,-63.9579
119,-783,8.69031,63.9258,0,0,0,0,0,0,0,-1,1343,1807,8.69031,-63.9258
126,-783,8.78259,64.0577,0,0,0,0,0,0,0,-1,1350,1807,8.78255,-64.0577
133,-783,8.823,63.9241,0,0,0,0,0,0,0,-1,1357,1807,8.82299,-63.9241
140,-783,6.47168,61.5424,0,0,0,0,0,0,0,-1,1364,1807,6.47169,-61.5423
147,-783,9.6698,63.2255,0,0,0,0,0,0,0,-1,1371,1807,9.66982,-63.2254
154,-783,38.2109,17.545,0,0,0,0,0,0,0,-1,1378,1807,38.2109,-17.545
161,-783,39.5087,17.5449,0,0,0,0,0,0,0,-1,1385,1807,39.5087,-17.545
168,-783,8.62561,1.79944,0,0,0,0,0,0,0,-1,1392,1807,8.62561,-1.79946
175,-783,8.78699,3.40857,0,0,0,0,0,0,0,-1,1399,1807,8.78697,-3.40854
182,-783,8.70984,5.14661,0,0,0,0,0,0,0,-1,1406,1807,8.70989,-5.14666
189,-783,8.55762,6.79871,0,0,0,0,0,0,0,-1,1413,1807,8.55766,-6.79872
196,-783,8.25488,8.66626,0,0,0,0,0,0,0,-1,1420,1807,8.25492,-8.66628
203,-783,7.86755,10.5735,0,0,0,0,0,0,0,-1,1427,1807,7.8676,-10.5734
210,-783,5.6969,8.99231,0,0,0,0,0,0,0,-1,1434,1807,5.69693,-8.99234
217,-783,5.28503,3.80872,0,0,0,0,0,0,0,-1,1441,1807,5.285,-3.80868
224,-783,3.22571,6.62903,0,0,0,0,0,0,0,-1,1448,1807,3.2257,-6.62907
231,-783,4.27942,4.56262,0,0,0,0,0,0,0,-1,1455,1807,4.27948,-4.56267
238,-783,0,0,0,0,0,0,0,0,0,-1,1462,1807,0,0
245,-783,0,0,0,0,0,0,0,0,0,-1,1469,1807,0,0
252,-783,0,0,0,0,0,0,0,0,0,-1,1476,1807,0,0
259,-783,0,0,0,0,0,0,0,0,0,-1,1483,1807,0,0
266,-783,0,0,0,0,0,0,0,0,0,-1,1490,1807,0,0
273,-783,0,0,0,0,0,0,0,0,0,-1,1497,1807,0,0
280,-783,0,0,0,0,0,0,0,0,0,-1,1504,1807,0,0
287,-783,0,0,0,0,0,0,0,0,0,-1,1511,1807,0,0
294,-783,0,0,0,0,0,0,0,0,0,-1,1518,1807,0,0
301,-783,0,0,0,0,0,0,0,0,0,-1,1525,1807,0,0
308,-783,0,0,0,0,0,0,0,0,0,-1,1532,1807,0,0
315,-783,0,0,0,0,0,0,0,0,0,-1,1539,1807,0,0
322,-783,0,0,0,0,0,0,0,0,0,-1,1546,1807,0,0
329,-783,0,0,0,0,0,0,0,0,0,-1,1553,1807,0,0
336,-783,0,0,0,0,0,0,0,0,0,-1,1560,1807,0,0
343,-783,0,0,0,0,0,0,0,0,0,-1,1567,1807,0,0
350,-783,0,0,0,0,0,0,0,0,0,-1,1574,1807,0,0
357,-783,0,0,0,0,0,0,0,0,0,-1,1581,1807,0,0
364,-783,0,0,0,0,0,0,0,0,0,-1,1588,1807,0,0
371,-783,0,0,0,0,0,0,0,0,0,-1,1595,1807,0,0
378,-783,0,0,0,0,0,0,0,0,0,-1,1602,1807,0,0
385,-783,0,0,0,0,0,0,0,0,0,-1,1609,1807,0,0
392,-783,0,0,0,0,0,0,0,0,0,-1,1616,1807,0,0
399,-783,0,0,0,0,0,0,0,0,0,-1,1623,1807,0,0
406,-783,0,0,0,0,0,0,0,0,0,-1,1630,1807,0,0
413,-783,0,0,0,0,0,0,0,0,0,-1,1637,1807,0,0
420,-783,0,0,0,0,0,0,0,0,0,-1,1644,1807,0,0
427,-783,0,0,0,0,0,0,0,0,0,-1,1651,1807,0,0
434,-783,0,0,0,0,0,0,0,0,0,-1,1658,1807,0,0
441,-783,0,0,0,0,0,0,0,0,0,-1,1665,1807,0,0
448,-783,0,0,0,0,0,0,0,0,0,-1,1672,1807,0,0
455,-783,0,0,0,0,0,0,0,0,0,-1,1679,1807,0,0
462,-783,0,0,0,0,0,0,0,0,0,-1,1686,1807,0,0
469,-783,0,0,0,0,0,0,0,0,0,-1,1693,1807,0,0
476,-783,0,0,0,0,0,0,0,0,0,-1,1700,1807,0,0
483,-783,0,0,0,0,0,0,0,0,0,-1,1707,1807,0,0
490,-783,0,0,0,0,0,0,0,0,0,-1,1714,1807,0,0
497,-783,0,0,0,0,0,0,0,0,0,-1,1721,1807,0,0
504,-783,0,0,0,0,0,0,0,0,0,-1,1728,1807,0,0
511,-783,0,0,0,0,0,0,0,0,0,-1,1735,1807,0,0
518,-783,0,0,0,0,0,0,0,0,0,-1,1742,1807,0,0
525,-783,0,0,0,0,0,0,0,0,0,-1,1749,1807,0,0
532,-783,0,0,0,0,0,0,0,0,0,-1,1756,1807,0,0
539,-783,0,0,0,0,0,0,0,0,0,-1,1763,1807,0,0
546,-783,0,0,0,0,0,0,0,0,0,-1,1770,1807,0,0
553,-783,0,0,0,0,0,0,0,0,0,-1,1777,1807,0,0
560,-783,0,0,0,0,0,0,0,0,0,-1,1784,1807,0,0
567,-783,0,0,0,0,0,0,0,0,0,-1,1791,1807,0,0
574,-783,0,0,0,0,0,0,0,0,0,-1,1798,1807,0,0
581,-783,0,0,0,0,0,0,0,0,0,-1,1805,1807,0,0
588,-783,0,0,0,0,0,0,0,0,0,-1,1812,1807,0,0
595,-783,0,0,0,0,0,0,0,0,0,-1,1819,1807,0,0
602,-783,0,0,0,0,0,0,0,0,0,-1,1826,1807,0,0
609,-783,0,0,0,0,0,0,0,0,0,-1,1833,1807,0,0
616,-783,0,0,0,0,0,0,0,0,0,-1,1840,1807,0,0
623,-783,0,0,0,0,0,0,0,0,0,-1,1847,1807,0,0
630,-783,0,0,0,0,0,0,0,0,0,-1,1854,1807,0,0
637,-783,0,0,0,0,0,0,0,0,0,-1,1861,1807,0,0
644,-783,0,0,0,0,0,0,0,0,0,-1,1868,1807,0,0
651,-783,0,0,0,0,0,0,0,0,0,-1,1875,1807,0,0
658,-783,0,0,0,0,0,0,0,0,0,-1,1882,1807,0,0
665,-783,0,0,0,0,0,0,0,0,0,-1,1889,1807,0,0
672,-783,0,0,0,0,0,0,0,0,0,-1,1896,1807,0,0
679,-783,0,0,0,0,0,0,0,0,0,-1,1903,1807,0,0
686,-783,0,0,0,0,0,0,0,0,0,-1,1910,1807,0,0
693,-783,0,0,0,0,0,0,0,0,0,-1,1917,1807,0,0
700,-783,0,0,0,0,0,0,0,0,0,-1,1924,1807,0,0
707,-783,0,0,0,0,0,0,0,0,0,-1,1931,1807,0,0
714,-783,0,0,0,0,0,0,0,0,0,-1,1938,1807,0,0
721,-783,0,0,0,0,0,0,0,0,0,-1,1945,1807,0,0
728,-783,0,0,0,0,0,0,0,0,0,-1,1952,1807,0,0
735,-783,0,0,0,0,0,0,0,0,0,-1,1959,1807,0,0
742,-783,0,0,0,0,0,0,0,0,0,-1,1966,1807,0,0
749,-783,0,0,0,0,0,0,0,0,0,-1,1973,1807,0,0
756,-783,0,0,0,0,0,0,0,0,0,-1,1980,1807,0,0
763,-783,0,0,0,0,0,0,0,0,0,-1,1987,1807,0,0
770,-783,0,0,0,0,0,0,0,0,0,-1,1994,1807,0,0
777,-783,0,0,0,0,0,0,0,0,0,-1,2001,1807,0,0
784,-783,0,0,0,0,0,0,0,0,0,-1,2008,1807,0,0
791,-783,0,0,0,0,0,0,0,0,0,-1,2015,1807,0,0
798,-783,0,0,0,0,0,0,0,0,0,-1,2022,1807,0,0
805,-783,0,0,0,0,0,0,0,0,0,-1,2029,1807,0,0
812,-783,0,0,0,0,0,0,0,0,0,-1,2036,1807,0,0
-700,-790,0,0,0,0,0,0,0,0,0,-1,524,1814,0,0
-693,-790,0,0,0,0,0,0,0,0,0,-1,531,1814,0,0
-686,-790,0,0,0,0,0,0,0,0,0,-1,538,1814,0,0
-679,-790,0,0,0,0,0,0,0,0,0,-1,545,1814,0,0
-672,-790,0,0,0,0,0,0,0,0,0,-1,552,1814,0,0
-665,-790,0,0,0,0,0,0,0,0,0,-1,559,1814,0,0
-658,-790,0,0,0,0,0,0,0,0,0,-1,566,1814,0,0
-651,-790,0,0,0,0,0,0,0,0,0,-1,573,1814,0,0
-644,-790,0,0,0,0,0,0,0,0,0,-1,580,1814,0,0
-637,-790,0,0,0,0,0,0,0,0,0,-1,587,1814,0,0
-630,-790,0,0,0,0,0,0,0,0,0,-1,594,1814,0,0
-623,-790,0,0,0,0,0,0,0,0,0,-1,601,1814,0,0
-616,-790,0,0,0,0,0,0,0,0,0,-1,608,1814,0,0
-609,-790,0,0,0,0,0,0,0,0,0,-1,615,1814,0,0
-602,-790,0,0,0,0,0,0,0,0,0,-1,622,1814,0,0
-595,-790,0,0,0,0,0,0,0,0,0,-1,629,1814,0,0
-588,-790,0,0,0,0,0,0,0,0,0,-1,636,1814,0,0
-581,-790,0,0,0,0,0,0,0,0,0,-1,643,1814,0,0
-574,-790,0,0,0,0,0,0,0,0,0,-1,650,1814,0,0
-567,-790,0,0,0,0,0,0,0,0,0,-1,657,1814,0,0
-560,-790,0,0,0,0,0,0,0,0,0,-1,664,1814,0,0
-553,-790,0,0,0,0,0,0,0,0,0,-1,671,1814,0,0
-546,-790,0,0,0,0,0,0,0,0,0,-1,678,1814,0,0
-539,-790,0,0,0,0,0,0,0,0,0,-1,685,1814,0,0
-532,-790,0,0,0,0,0,0,0,0,0,-1,692,1814,0,0
-525,-790,0,0,0,0,0,0,0,0,0,-1,699,1814,0,0
-518,-790,0,0,0,0,0,0,0,0,0,-1,706,1814,0,0
-511,-790,0,0,0,0,0,0,0,0,0,-1,713,1814,0,0
-504,-790,0,0,0,0,0,0,0,0,0,-1,720,1814,0,0
-497,-790,0,0,0,0,0,0,0,0,0,-1,727,1814,0,0
-490,-790,0,0,0,0,0,0,0,0,0,-1,734,1814,0,0
-483,-790,0,0,0,0,0,0,0,0,0,-1,741,1814,0,0
-476,-790,0,0,0,0,0,0,0,0,0,-1,748,1814,0,0
-469,-790,0,0,0,0,0,0,0,0,0,-1,755,1814,0,0
-462,-790,0,0,0,0,0,0,0,0,0,-1,762,1814,0,0
-455,-790,0,0,0,0,0,0,0,0,0,-1,769,1814,0,0
-448,-790,0,0,0,0,0,0,0,0,0,-1,776,1814,0,0
-441,-790,0,0,0,0,0,0,0,0,0,-1,783,1814,0,0
-434,-790,0,0,0,0,0,0,0,0,0,-1,790,1814,0,0
-427,-790,0,0,0,0,0,0,0,0,0,-1,797,1814,0,0
-420,-790,0,0,0,0,0,0,0,0,0,-1,804,1814,0,0
-413,-790,0,0,0,0,0,0,0,0,0,-1,811,1814,0,0
-406,-790,0,0,0,0,0,0,0,0,0,-1,818,1814,0,0
-399,-790,0,0,0,0,0,0,0,0,0,-1,825,1814,0,0
-392,-790,0,0,0,0,0,0,0,0,0,-1,832,1814,0,0
-385,-790,0,0,0,0,0,0,0,0,0,-1,839,1814,0,0
-378,-790,0,0,0,0,0,0,0,0,0,-1,846,1814,0,0
-371,-790,0,0,0,0,0,0,0,0,0,-1,853,1814,0,0
-364,-790,0,0,0,0,0,0,0,0,0,-1,860,1814,0,0
-357,-790,0,0,0,0,0,0,0,0,0,-1,867,1814,0,0
-350,-790,0,0,0,0,0,0,0,0,0,-1,874,1814,0,0
-343,-790,0,0,0,0,0,0,0,0,0,-1,881,1814,0,0
-336,-790,0,0,0,0,0,0,0,0,0,-1,888,1814,0,0
-329,-790,0,0,0,0,0,0,0,0,0,-1,895,1814,0,0
-322,-790,0,0,0,0,0,0,0,0,0,-1,902,1814,0,0
-315,-790,0,0,0,0,0,0,0,0,0,-1,909,1814,0,0
-308,-790,0,0,0,0,0,0,0,0,0,-1,916,1814,0,0
-301,-790,0,0,0,0,0,0,0,0,0,-1,923,1814,0,0
-294,-790,0,0,0,0,0,0,0,0,0,-1,930,1814,0,0
-287,-790,0,0,0,0,0,0,0,0,0,-1,937,1814,0,0
-280,-790,0,0,0,0,0,0,0,0,0,-1,944,1814,0,0
-273,-790,0,0,0,0,0,0,0,0,0,-1,951,1814,0,0
-266,-790,0,0,0,0,0,0,0,0,0,-1,958,1814,0,0
-259,-790,0,0,0,0,0,0,0,0,0,-1,965,1814,0,0
-252,-790,0,0,0,0,0,0,0,0,0,-1,972,1814,0,0
-245,-790,0,0,0,0,0,0,0,0,0,-1,979,1814,0,0
-238,-790,0,0,0,0,0,0,0,0,0,-1,986,1814,0,0
-231,-790,0,0,0,0,0,0,0,0,0,-1,993,1814,0,0
-224,-790,0,0,0,0,0,0,0,0,0,-1,1000,1814,0,0
-217,-790,0,0,0,0,0,0,0,0,0,-1,1007,1814,0,0
-210,-790,0,0,0,0,0,0,0,0,0,-1,1014,1814,0,0
-203,-790,0,0,0,0,0,0,0,0,0,-1,1021,1814,0,0
-196,-790,0,0,0,0,0,0,0,0,0,-1,1028,1814,0,0
-189,-790,0,0,0,0,0,0,0,0,0,-1,1035,1814,0,0
-182,-790,0,0,0,0,0,0,0,0,0,-1,1042,1814,0,0
-175,-790,0,0,0,0,0,0,0,0,0,-1,1049,1814,0,0
-168,-790,0,0,0,0,0,0,0,0,0,-1,1056,1814,0,0
-161,-790,0,0,0,0,0,0,0,0,0,-1,1063,1814,0,0
-154,-790,0,0,0,0,0,0,0,0,0,-1,1070,1814,0,0
-147,-790,0,0,0,0,0,0,0,0,0,-1,1077,1814,0,0
-140,-790,0,0,0,0,0,0,0,0,0,-1,1084,1814,0,0
-133,-790,0,0,0,0,0,0,0,0,0,-1,1091,1814,0,0
-126,-790,0,0,0,0,0,0,0,0,0,-1,1098,1814,0,0
-119,-790,0,0,0,0,0,0,0,0,0,-1,1105,1814,0,0
-112,-790,0,0,0,0,0,0,0,0,0,-1,1112,1814,0,0
-105,-790,0,0,0,0,0,0,0,0,0,-1,1119,1814,0,0
-98,-790,0,0,0,0,0,0,0,0,0,-1,1126,1814,0,0
-91,-790,0,0,0,0,0,0,0,0,0,-1,1133,1814,0,0
-84,-790,0,0,0,0,0,0,0,0,0,-1,1140,1814,0,0
-77,-790,-0.969238,5.30847,0,0,0,0,0,0,0,-1,1147,1814,-0.969277,-5.3085
-70,-790,-1.23169,4.98914,0,0,0,0,0,0,0,-1,1154,1814,-1.23163,-4.98916
-63,-790,-1.69128,4.32263,0,0,0,0,0,0,0,-1,1161,1814,-1.69128,-4.32258
-56,-790,-2.24756,3.75305,0,0,0,0,0,0,0,-1,1168,1814,-2.24758,-3.75302
-49,-790,-3.11011,3.35779,0,0,0,0,0,0,0,-1,1175,1814,-3.11006,-3.35781
-42,-790,0.593262,1.19165,0,0,0,0,0,0,0,-1,1182,1814,0.593225,-1.19165
-35,-790,0.307129,-0.20105,0,0,0,0,0,0,0,-1,1189,1814,0.307178,0.201006
-28,-790,-2.78467,0.785156,0,0,0,0,0,0,0,-1,1196,1814,-2.78471,-0.785183
-21,-790,15.6823,64.7405,0,0,0,0,0,0,0,-1,1203,1814,15.6822,-64.7404
-14,-790,9.7262,63.462,0,0,0,0,0,0,0,-1,1210,1814,9.72625,-63.462
-7,-790,9.5155,64.0117,0,0,0,0,0,0,0,-1,1217,1814,9.51552,-64.0118
0,-790,9.20557,64.2863,-0.0717937,-0.00753073,0.0381126,0.0101876,-0.089512,1.13563,0.0633442,0.04761,1224,1814,9.20555,-64.2863
7,-790,8.7146,64.4637,-0.0554762,0.00201016,0.0445854,0.0263144,-0.0797804,1.07171,0.0637939,0.0450387,1231,1814,8.71457,-64.4638
14,-790,8.12451,64.5846,-0.0394096,0.0108078,0.0481469,0.0399998,-0.0686016,1.02575,0.0634217,0.0434135,1238,1814,8.12449,-64.5846
21,-790,7.38391,64.6129,-0.0228886,0.0181023,0.0512683,0.0528201,-0.0576064,0.975551,0.0637747,0.044735,1245,1814,7.38388,-64.6129
28,-790,6.94641,64.9282,0,0,0,0,0,0,0,-1,1252,1814,6.94639,-64.9282
35,-790,7.37964,64.9666,0.00918513,0.023765,0.0518326,0.0688177,-0.0358676,0.855262,0.06143,0.0479234,1259,1814,7.37958,-64.9665
42,-790,7.5675,65.2178,0.0217205,0.0207794,0.0465988,0.0678511,-0.0253512,0.780349,0.055644,0.0460638,1266,1814,7.5675,-65.2178
49,-790,8.33423,65.9316,0,0,0,0,0,0,0,-1,1273,1814,8.33425,-65.9316
56,-790,10.3469,64.8026,0.0419223,0.0119317,0.0357028,0.065651,-0.011797,0.586583,0.0481835,0.0461792,1280,1814,10.3469,-64.8026
63,-790,10.6571,65.266,0.0487531,0.00481679,0.0274694,0.0619584,-0.00838844,0.448109,0.0443668,0.045639,1287,1814,10.6571,-65.266
70,-790,9.97583,67.0222,0.0513097,-0.00456112,0.0165467,0.0558424,-0.00909387,0.267377,0.0406005,0.041458,1294,1814,9.97581,-67.0223
77,-790,10.8816,67.7834,0.050895,-0.0147289,0.00455016,0.051209,-0.0150429,0.0688975,0.0401053,0.0414489,1301,1814,10.8816,-67.7834
84,-790,11.5157,68.5242,0.0476141,-0.0239171,-0.00660706,0.0482193,-0.0245222,-0.0913364,0.0427337,0.0453997,1308,1814,11.5157,-68.5242
91,-790,8.12964,64.6233,0.0441507,-0.0309982,-0.0177073,0.048114,-0.0349616,-0.220196,0.0481637,0.0446267,1315,1814,8.12966,-64.6233
98,-790,8.46204,64.8767,0,0,0,0,0,0,0,-1,1322,1814,8.46199,-64.8768
105,-790,8.70422,65.0333,0,0,0,0,0,0,0,-1,1329,1814,8.7042,-65.0333
112,-790,8.9187,63.7321,0,0,0,0,0,0,0,-1,1336,1814,8.9187,-63.7321
119,-790,13.23,52.6688,0,0,0,0,0,0,0,-1,1343,1814,13.23,-52.6689
126,-790,9.17151,64.194,0,0,0,0,0,0,0,-1,1350,1814,9.17149,-64.194
133,-790,5.35693,60.7429,0,0,0,0,0,0,0,-1,1357,1814,5.35692,-60.7429
140,-790,5.24768,61.0145,0,0,0,0,0,0,0,-1,1364,1814,5.24774,-61.0146
147,-790,5.00623,60.8976,0,0,0,0,0,0,0,-1,1371,1814,5.00624,-60.8976
154,-790,40.215,13.2396,0,0,0,0,0,0,0,-1,1378,1814,40.2149,-13.2396
161,-790,39.3429,13.0336,0,0,0,0,0,0,0,-1,1385,1814,39.3429,-13.0336
168,-790,7.04077,2.23279,0,0,0,0,0,0,0,-1,1392,1814,7.04082,-2.23275
175,-790,9.03918,3.98535,0,0,0,0,0,0,0,-1,1399,1814,9.0392,-3.98535
182,-790,8.96997,5.67896,0,0,0,0,0,0,0,-1,1406,1814,8.97001,-5.6789
189,-790,8.59729,6.86975,0,0,0,0,0,0,0,-1,1413,1814,8.59728,-6.86972
196,-790,8.21924,9.29053,0,0,0,0,0,0,0,-1,1420,1814,8.21924,-9.29048
203,-790,0,0,0,0,0,0,0,0,0,-1,1427,1814,0,0
210,-790,0,0,0,0,0,0,0,0,0,-1,1434,1814,0,0
217,-790,0,0,0,0,0,0,0,0,0,-1,1441,1814,0,0
224,-790,0,0,0,0,0,0,0,0,0,-1,1448,1814,0,0
231,-790,0,0,0,0,0,0,0,0,0,-1,1455,1814,0,0
238,-790,0,0,0,0,0,0,0,0,0,-1,1462,1814,0,0
245,-790,0,0,0,0,0,0,0,0,0,-1,1469,1814,0,0
252,-790,0,0,0,0,0,0,0,0,0,-1,1476,1814,0,0
259,-790,0,0,0,0,0,0,0,0,0,-1,1483,1814,0,0
266,-790,0,0,0,0,0,0,0,0,0,-1,1490,1814,0,0
273,-790,0,0,0,0,0,0,0,0,0,-1,1497,1814,0,0
280,-790,0,0,0,0,0,0,0,0,0,-1,1504,1814,0,0
287,-790,0,0,0,0,0,0,0,0,0,-1,1511,1814,0,0
294,-790,0,0,0,0,0,0,0,0,0,-1,1518,1814,0,0
301,-790,0,0,0,0,0,0,0,0,0,-1,1525,1814,0,0
308,-790,0,0,0,0,0,0,0,0,0,-1,1532,1814,0,0
315,-790,0,0,0,0,0,0,0,0,0,-1,1539,1814,0,0
322,-790,0,0,0,0,0,0,0,0,0,-1,1546,1814,0,0
329,-790,0,0,0,0,0,0,0,0,0,-1,1553,1814,0,0
336,-790,0,0,0,0,0,0,0,0,0,-1,1560,1814,0,0
343,-790,0,0,0,0,0,0,0,0,0,-1,1567,1814,0,0
350,-790,0,0,0,0,0,0,0,0,0,-1,1574,1814,0,0
357,-790,0,0,0,0,0,0,0,0,0,-1,1581,1814,0,0
364,-790,0,0,0,0,0,0,0,0,0,-1,1588,1814,0,0
371,-790,0,0,0,0,0,0,0,0,0,-1,1595,1814,0,0
378,-790,0,0,0,0,0,0,0,0,0,-1,1602,1814,0,0
385,-790,0,0,0,0,0,0,0,0,0,-1,1609,1814,0,0
392,-790,0,0,0,0,0,0,0,0,0,-1,1616,1814,0,0
399,-790,0,0,0,0,0,0,0,0,0,-1,1623,1814,0,0
406,-790,0,0,0,0,0,0,0,0,0,-1,1630,1814,0,0
413,-790,0,0,0,0,0,0,0,0,0,-1,1637,1814,0,0
420,-790,0,0,0,0,0,0,0,0,0,-1,1644,1814,0,0
427,-790,0,0,0,0,0,0,0,0,0,-1,1651,1814,0,0
434,-790,0,0,0,0,0,0,0,0,0,-1,1658,1814,0,0
441,-790,0,0,0,0,0,0,0,0,0,-1,1665,1814,0,0
448,-790,0,0,0,0,0,0,0,0,0,-1,1672,1814,0,0
455,-790,0,0,0,0,0,0,0,0,0,-1,1679,1814,0,0
462,-790,0,0,0,0,0,0,0,0,0,-1,1686,1814,0,0
469,-790,0,0,0,0,0,0,0,0,0,-1,1693,1814,0,0
476,-790,0,0,0,0,0,0,0,0,0,-1,1700,1814,0,0
483,-790,0,0,0,0,0,0,0,0,0,-1,1707,1814,0,0
490,-790,0,0,0,0,0,0,0,0,0,-1,1714,1814,0,0
497,-790,0,0,0,0,0,0,0,0,0,-1,1721,1814,0,0
504,-790,0,0,0,0,0,0,0,0,0,-1,1728,1814,0,0
511,-790,0,0,0,0,0,0,0,0,0,-1,1735,1814,0,0
518,-790,0,0,0,0,0,0,0,0,0,-1,1742,1814,0,0
525,-790,0,0,0,0,0,0,0,0,0,-1,1749,1814,0,0
532,-790,0,0,0,0,0,0,0,0,0,-1,1756,1814,0,0
539,-790,0,0,0,0,0,0,0,0,0,-1,1763,1814,0,0
546,-790,0,0,0,0,0,0,0,0,0,-1,1770,1814,0,0
553,-790,0,0,0,0,0,0,0,0,0,-1,1777,1814,0,0
560,-790,0,0,0,0,0,0,0,0,0,-1,1784,1814,0,0
567,-790,0,0,0,0,0,0,0,0,0,-1,1791,1814,0,0
574,-790,0,0,0,0,0,0,0,0,0,-1,1798,1814,0,0
581,-790,0,0,0,0,0,0,0,0,0,-1,1805,1814,0,0
588,-790,0,0,0,0,0,0,0,0,0,-1,1812,1814,0,0
595,-790,0,0,0,0,0,0,0,0,0,-1,1819,1814,0,0
602,-790,0,0,0,0,0,0,0,0,0,-1,1826,1814,0,0
609,-790,0,0,0,0,0,0,0,0,0,-1,1833,1814,0,0
616,-790,0,0,0,0,0,0,0,0,0,-1,1840,1814,0,0
623,-790,0,0,0,0,0,0,0,0,0,-1,1847,1814,0,0
630,-790,0,0,0,0,0,0,0,0,0,-1,1854,1814,0,0
637,-790,0,0,0,0,0,0,0,0,0,-1,1861,1814,0,0
644,-790,0,0,0,0,0,0,0,0,0,-1,1868,1814,0,0
651,-790,0,0,0,0,0,0,0,0,0,-1,1875,1814,0,0
658,-790,0,0,0,0,0,0,0,0,0,-1,1882,1814,0,0
665,-790,0,0,0,0,0,0,0,0,0,-1,1889,1814,0,0
672,-790,0,0,0,0,0,0,0,0,0,-1,1896,1814,0,0
679,-790,0,0,0,0,0,0,0,0,0,-1,1903,1814,0,0
686,-790,0,0,0,0,0,0,0,0,0,-1,1910,1814,0,0
693,-790,0,0,0,0,0,0,0,0,0,-1,1917,1814,0,0
700,-790,0,0,0,0,0,0,0,0,0,-1,1924,1814,0,0
707,-790,0,0,0,0,0,0,0,0,0,-1,1931,1814,0,0
714,-790,0,0,0,0,0,0,0,0,0,-1,1938,1814,0,0
721,-790,0,0,0,0,0,0,0,0,0,-1,1945,1814,0,0
728,-790,0,0,0,0,0,0,0,0,0,-1,1952,1814,0,0
735,-790,0,0,0,0,0,0,0,0,0,-1,1959,1814,0,0
742,-790,0,0,0,0,0,0,0,0,0,-1,1966,1814,0,0
749,-790,0,0,0,0,0,0,0,0,0,-1,1973,1814,0,0
756,-790,0,0,0,0,0,0,0,0,0,-1,1980,1814,0,0
763,-790,0,0,0,0,0,0,0,0,0,-1,1987,1814,0,0
770,-790,0,0,0,0,0,0,0,0,0,-1,1994,1814,0,0
777,-790,0,0,0,0,0,0,0,0,0,-1,2001,1814,0,0
784,-790,0,0,0,0,0,0,0,0,0,-1,2008,1814,0,0
791,-790,0,0,0,0,0,0,0,0,0,-1,2015,1814,0,0
798,-790,0,0,0,0,0,0,0,0,0,-1,2022,1814,0,0
805,-790,0,0,0,0,0,0,0,0,0,-1,2029,1814,0,0
812,-790,0,0,0,0,0,0,0,0,0,-1,2036,1814,0,0
-700,-797,0,0,0,0,0,0,0,0,0,-1,524,1821,0,0
-693,-797,0,0,0,0,0,0,0,0,0,-1,531,1821,0,0
-686,-797,0,0,0,0,0,0,0,0,0,-1,538,1821,0,0
-679,-797,0,0,0,0,0,0,0,0,0,-1,545,1821,0,0
-672,-797,0,0,0,0,0,0,0,0,0,-1,552,1821,0,0
-665,-797,0,0,0,0,0,0,0,0,0,-1,559,1821,0,0
-658,-797,0,0,0,0,0,0,0,0,0,-1,566,1821,0,0
-651,-797,0,0,0,0,0,0,0,0,0,-1,573,1821,0,0
-644,-797,0,0,0,0,0,0,0,0,0,-1,580,1821,0,0
-637,-797,0,0,0,0,0,0,0,0,0,-1,587,1821,0,0
-630,-797,0,0,0,0,0,0,0,0,0,-1,594,1821,0,0
-623,-797,0,0,0,0,0,0,0,0,0,-1,601,1821,0,0
-616,-797,0,0,0,0,0,0,0,0,0,-1,608,1821,0,0
-609,-797,0,0,0,0,0,0,0,0,0,-1,615,1821,0,0
-602,-797,0,0,0,0,0,0,0,0,0,-1,622,1821,0,0
-595,-797,0,0,0,0,0,0,0,0,0,-1,629,1821,0,0
-588,-797,0,0,0,0,0,0,0,0,0,-1,636,1821,0,0
-581,-797,0,0,0,0,0,0,0,0,0,-1,643,1821,0,0
-574,-797,0,0,0,0,0,0,0,0,0,-1,650,1821,0,0
-567,-797,0,0,0,0,0,0,0,0,0,-1,657,1821,0,0
-560,-797,0,0,0,0,0,0,0,0,0,-1,664,1821,0,0
-553,-797,0,0,0,0,0,0,0,0,0,-1,671,1821,0,0
-546,-797,0,0,0,0,0,0,0,0,0,-1,678,1821,0,0
-539,-797,0,0,0,0,0,0,0,0,0,-1,685,1821,0,0
-532,-797,0,0,0,0,0,0,0,0,0,-1,692,1821,0,0
-525,-797,0,0,0,0,0,0,0,0,0,-1,699,1821,0,0
-518,-797,0,0,0,0,0,0,0,0,0,-1,706,1821,0,0
-511,-797,0,0,0,0,0,0,0,0,0,-1,713,1821,0,0
-504,-797,0,0,0,0,0,0,0,0,0,-1,720,1821,0,0
-497,-797,0,0,0,0,0,0,0,0,0,-1,727,1821,0,0
-490,-797,0,0,0,0,0,0,0,0,0,-1,734,1821,0,0
-483,-797,0,0,0,0,0,0,0,0,0,-1,741,1821,0,0
-476,-797,0,0,0,0,0,0,0,0,0,-1,748,1821,0,0
-469,-797,0,0,0,0,0,0,0,0,0,-1,755,1821,0,0
-462,-797,0,0,0,0,0,0,0,0,0,-1,762,1821,0,0
-455,-797,0,0,0,0,0,0,0,0,0,-1,769,1821,0,0
-448,-797,0,0,0,0,0,0,0,0,0,-1,776,1821,0,0
-441,-797,0,0,0,0,0,0,0,0,0,-1,783,1821,0,0
-434,-797,0,0,0,0,0,0,0,0,0,-1,790,1821,0,0
-427,-797,0,0,0,0,0,0,0,0,0,-1,797,1821,0,0
-420,-797,0,0,0,0,0,0,0,0,0,-1,804,1821,0,0
-413,-797,0,0,0,0,0,0,0,0,0,-1,811,1821,0,0
-406,-797,0,0,0,0,0,0,0,0,0,-1,818,1821,0,0
-399,-797,0,0,0,0,0,0,0,0,0,-1,825,1821,0,0
-392,-797,0,0,0,0,0,0,0,0,0,-1,832,1821,0,0
-385,-797,0,0,0,0,0,0,0,0,0,-1,839,1821,0,0
-378,-797,0,0,0,0,0,0,0,0,0,-1,846,1821,0,0
-371,-797,0,0,0,0,0,0,0,0,0,-1,853,1821,0,0
-364,-797,0,0,0,0,0,0,0,0,0,-1,860,1821,0,0
-357,-797,0,0,0,0,0,0,0,0,0,-1,867,1821,0,0
-350,-797,0,0,0,0,0,0,0,0,0,-1,874,1821,0,0
-343,-797,0,0,0,0,0,0,0,0,0,-1,881,1821,0,0
-336,-797,0,0,0,0,0,0,0,0,0,-1,888,1821,0,0
-329,-797,0,0,0,0,0,0,0,0,0,-1,895,1821,0,0
-322,-797,0,0,0,0,0,0,0,0,0,-1,902,1821,0,0
-315,-797,0,0,0,0,0,0,0,0,0,-1,909,1821,0,0
-308,-797,0,0,0,0,0,0,0,0,0,-1,916,1821,0,0
-301,-797,0,0,0,0,0,0,0,0,0,-1,923,1821,0,0
-294,-797,0,0,0,0,0,0,0,0,0,-1,930,1821,0,0
-287,-797,0,0,0,0,0,0,0,0,0,-1,937,1821,0,0
-280,-797,0,0,0,0,0,0,0,0,0,-1,944,1821,0,0
-273,-797,0,0,0,0,0,0,0,0,0,-1,951,1821,0,0
-266,-797,0,0,0,0,0,0,0,0,0,-1,958,1821,0,0
-259,-797,0,0,0,0,0,0,0,0,0,-1,965,1821,0,0
-252,-797,0,0,0,0,0,0,0,0,0,-1,972,1821,0,0
-245,-797,0,0,0,0,0,0,0,0,0,-1,979,1821,0,0
-238,-797,0,0,0,0,0,0,0,0,0,-1,986,1821,0,0
-231,-797,0,0,0,0,0,0,0,0,0,-1,993,1821,0,0
-224,-797,0,0,0,0,0,0,0,0,0,-1,1000,1821,0,0
-217,-797,0,0,0,0,0,0,0,0,0,-1,1007,1821,0,0
-210,-797,0,0,0,0,0,0,0,0,0,-1,1014,1821,0,0
-203,-797,0,0,0,0,0,0,0,0,0,-1,1021,1821,0,0
-196,-797,0,0,0,0,0,0,0,0,0,-1,1028,1821,0,0
-189,-797,0,0,0,0,0,0,0,0,0,-1,1035,1821,0,0
-182,-797,0,0,0,0,0,0,0,0,0,-1,1042,1821,0,0
-175,-797,0,0,0,0,0,0,0,0,0,-1,1049,1821,0,0
-168,-797,0,0,0,0,0,0,0,0,0,-1,1056,1821,0,0
-161,-797,0,0,0,0,0,0,0,0,0,-1,1063,1821,0,0
-154,-797,0,0,0,0,0,0,0,0,0,-1,1070,1821,0,0
-147,-797,0,0,0,0,0,0,0,0,0,-1,1077,1821,0,0
-140,-797,0,0,0,0,0,0,0,0,0,-1,1084,1821,0,0
-133,-797,0,0,0,0,0,0,0,0,0,-1,1091,1821,0,0
-126,-797,0,0,0,0,0,0,0,0,0,-1,1098,1821,0,0
-119,-797,0,0,0,0,0,0,0,0,0,-1,1105,1821,0,0
-112,-797,0,0,0,0,0,0,0,0,0,-1,1112,1821,0,0
-105,-797,0,0,0,0,0,0,0,0,0,-1,1119,1821,0,0
-98,-797,0,0,0,0,0,0,0,0,0,-1,1126,1821,0,0
-91,-797,0,0,0,0,0,0,0,0,0,-1,1133,1821,0,0
-84,-797,0,0,0,0,0,0,0,0,0,-1,1140,1821,0,0
-77,-797,0,0,0,0,0,0,0,0,0,-1,1147,1821,0,0
-70,-797,0,0,0,0,0,0,0,0,0,-1,1154,1821,0,0
-63,-797,0,0,0,0,0,0,0,0,0,-1,1161,1821,0,0
-56,-797,0,0,0,0,0,0,0,0,0,-1,1168,1821,0,0
-49,-797,0,0,0,0,0,0,0,0,0,-1,1175,1821,0,0
-42,-797,0.579834,0.692871,0,0,0,0,0,0,0,-1,1182,1821,0.579856,-0.692816
-35,-797,-0.185425,5.55396,0,0,0,0,0,0,0,-1,1189,1821,-0.18542,-5.55396
-28,-797,-0.310181,4.71509,0,0,0,0,0,0,0,-1,1196,1821,-0.310228,-4.71503
-21,-797,16.0996,64.8081,0,0,0,0,0,0,0,-1,1203,1821,16.0996,-64.8081
-14,-797,15.8953,64.394,0,0,0,0,0,0,0,-1,1210,1821,15.8953,-64.3941
-7,-797,8.70862,63.8145,0,0,0,0,0,0,0,-1,1217,1821,8.70857,-63.8144
0,-797,8.72192,64.2745,0,0,0,0,0,0,0,-1,1224,1821,8.72187,-64.2745
7,-797,8.17688,64.5343,-0.0694484,0.00128994,0.0524523,0.0291839,-0.0973424,1.08204,0.0765015,0.0473884,1231,1821,8.17688,-64.5342
14,-797,7.50574,64.8483,-0.0493237,0.0127937,0.0575624,0.047142,-0.083672,1.0328,0.0765008,0.0431778,1238,1821,7.50573,-64.8483
21,-797,6.61121,64.8492,-0.0289888,0.0229771,0.0618059,0.0640395,-0.0700512,0.984381,0.0774433,0.0440246,1245,1821,6.61122,-64.8492
28,-797,6.07739,65.0052,0,0,0,0,0,0,0,-1,1252,1821,6.07737,-65.0053
35,-797,7.20862,62.9041,0,0,0,0,0,0,0,-1,1259,1821,7.20865,-62.9041
42,-797,7.64282,63.7965,0.0269369,0.0280683,0.0593697,0.086875,-0.0318698,0.790162,0.0709668,0.049765,1266,1821,7.64276,-63.7966
49,-797,7.88464,64.8939,0.0411802,0.023785,0.0543203,0.0874948,-0.0225296,0.706013,0.0671123,0.048625,1273,1821,7.88462,-64.894
56,-797,8.33777,65.8885,0.0531969,0.0170197,0.0474582,0.0858969,-0.0156803,0.603323,0.0631437,0.0436841,1280,1821,8.3378,-65.8885
63,-797,11.1198,65.0469,0,0,0,0,0,0,0,-1,1287,1821,11.1197,-65.0469
70,-797,9.66504,67.2094,0,0,0,0,0,0,0,-1,1294,1821,9.66501,-67.2093
77,-797,10.598,67.8098,0.0672437,-0.0196892,0.00940078,0.0682486,-0.0206942,0.106498,0.0537421,0.0420357,1301,1821,10.598,-67.8098
84,-797,11.2898,68.531,0.0643527,-0.0326938,-0.00528666,0.0646398,-0.0329809,-0.0542616,0.0573408,0.0484115,1308,1821,11.2898,-68.531
91,-797,12.2505,69.2875,0.0613324,-0.0428899,-0.0198959,0.0650013,-0.0465588,-0.182358,0.064702,0.0492605,1315,1821,12.2505,-69.2875
98,-797,13.1539,70.2209,0,0,0,0,0,0,0,-1,1322,1821,13.1539,-70.221
105,-797,12.5685,55.9791,0,0,0,0,0,0,0,-1,1329,1821,12.5685,-55.9792
112,-797,13.0499,54.8588,0,0,0,0,0,0,0,-1,1336,1821,13.0499,-54.8588
119,-797,13.5494,53.8159,0,0,0,0,0,0,0,-1,1343,1821,13.5494,-53.8159
126,-797,14.1208,52.7489,0,0,0,0,0,0,0,-1,1350,1821,14.1208,-52.7489
133,-797,5.3877,60.46,0,0,0,0,0,0,0,-1,1357,1821,5.38768,-60.46
140,-797,3.97681,60.5278,0,0,0,0,0,0,0,-1,1364,1821,3.97678,-60.5279
147,-797,3.67468,60.5692,0,0,0,0,0,0,0,-1,1371,1821,3.67468,-60.5692
154,-797,40.2623,8.88733,0,0,0,0,0,0,0,-1,1378,1821,40.2623,-8.88731
161,-797,42.2798,8.17371,0,0,0,0,0,0,0,-1,1385,1821,42.2798,-8.17367
168,-797,0,0,0,0,0,0,0,0,0,-1,1392,1821,0,0
175,-797,0,0,0,0,0,0,0,0,0,-1,1399,1821,0,0
182,-797,0,0,0,0,0,0,0,0,0,-1,1406,1821,0,0
189,-797,0,0,0,0,0,0,0,0,0,-1,1413,1821,0,0
196,-797,0,0,0,0,0,0,0,0,0,-1,1420,1821,0,0
203,-797,0,0,0,0,0,0,0,0,0,-1,1427,1821,0,0
210,-797,0,0,0,0,0,0,0,0,0,-1,1434,1821,0,0
217,-797,0,0,0,0,0,0,0,0,0,-1,1441,1821,0,0
224,-797,0,0,0,0,0,0,0,0,0,-1,1448,1821,0,0
231,-797,0,0,0,0,0,0,0,0,0,-1,1455,1821,0,0
238,-797,0,0,0,0,0,0,0,0,0,-1,1462,1821,0,0
245,-797,0,0,0,0,0,0,0,0,0,-1,1469,1821,0,0
252,-797,0,0,0,0,0,0,0,0,0,-1,1476,1821,0,0
259,-797,0,0,0,0,0,0,0,0,0,-1,1483,1821,0,0
266,-797,0,0,0,0,0,0,0,0,0,-1,1490,1821,0,0
273,-797,0,0,0,0,0,0,0,0,0,-1,1497,1821,0,0
280,-797,0,0,0,0,0,0,0,0,0,-1,1504,1821,0,0
287,-797,0,0,0,0,0,0,0,0,0,-1,1511,1821,0,0
294,-797,0,0,0,0,0,0,0,0,0,-1,1518,1821,0,0
301,-797,0,0,0,0,0,0,0,0,0,-1,1525,1821,0,0
308,-797,0,0,0,0,0,0,0,0,0,-1,1532,1821,0,0
315,-797,0,0,0,0,0,0,0,0,0,-1,1539,1821,0,0
322,-797,0,0,0,0,0,0,0,0,0,-1,1546,1821,0,0
329,-797,0,0,0,0,0,0,0,0,0,-1,1553,1821,0,0
336,-797,0,0,0,0,0,0,0,0,0,-1,1560,1821,0,0
343,-797,0,0,0,0,0,0,0,0,0,-1,1567,1821,0,0
350,-797,0,0,0,0,0,0,0,0,0,-1,1574,1821,0,0
357,-797,0,0,0,0,0,0,0,0,0,-1,1581,1821,0,0
364,-797,0,0,0,0,0,0,0,0,0,-1,1588,1821,0,0
371,-797,0,0,0,0,0,0,0,0,0,-1,1595,1821,0,0
378,-797,0,0,0,0,0,0,0,0,0,-1,1602,1821,0,0
385,-797,0,0,0,0,0,0,0,0,0,-1,1609,1821,0,0
392,-797,0,0,0,0,0,0,0,0,0,-1,1616,1821,0,0
399,-797,0,0,0,0,0,0,0,0,0,-1,1623,1821,0,0
406,-797,0,0,0,0,0,0,0,0,0,-1,1630,1821,0,0
413,-797,0,0,0,0,0,0,0,0,0,-1,1637,1821,0,0
420,-797,0,0,0,0,0,0,0,0,0,-1,1644,1821,0,0
427,-797,0,0,0,0,0,0,0,0,0,-1,1651,1821,0,0
434,-797,0,0,0,0,0,0,0,0,0,-1,1658,1821,0,0
441,-797,0,0,0,0,0,0,0,0,0,-1,1665,1821,0,0
448,-797,0,0,0,0,0,0,0,0,0,-1,1672,1821,0,0
455,-797,0,0,0,0,0,0,0,0,0,-1,1679,1821,0,0
462,-797,0,0,0,0,0,0,0,0,0,-1,1686,1821,0,0
469,-797,0,0,0,0,0,0,0,0,0,-1,1693,1821,0,0
476,-797,0,0,0,0,0,0,0,0,0,-1,1700,1821,0,0
483,-797,0,0,0,0,0,0,0,0,0,-1,1707,1821,0,0
490,-797,0,0,0,0,0,0,0,0,0,-1,1714,1821,0,0
497,-797,0,0,0,0,0,0,0,0,0,-1,1721,1821,0,0
504,-797,0,0,0,0,0,0,0,0,0,-1,1728,1821,0,0
511,-797,0,0,0,0,0,0,0,0,0,-1,1735,1821,0,0
518,-797,0,0,0,0,0,0,0,0,0,-1,1742,1821,0,0
525,-797,0,0,0,0,0,0,0,0,0,-1,1749,1821,0,0
532,-797,0,0,0,0,0,0,0,0,0,-1,1756,1821,0,0
539,-797,0,0,0,0,0,0,0,0,0,-1,1763,1821,0,0
546,-797,0,0,0,0,0,0,0,0,0,-1,1770,1821,0,0
553,-797,0,0,0,0,0,0,0,0,0,-1,1777,1821,0,0
560,-797,0,0,0,0,0,0,0,0,0,-1,1784,1821,0,0
567,-797,0,0,0,0,0,0,0,0,0,-1,1791,1821,0,0
574,-797,0,0,0,0,0,0,0,0,0,-1,1798,1821,0,0
581,-797,0,0,0,0,0,0,0,0,0,-1,1805,1821,0,0
588,-797,0,0,0,0,0,0,0,0,0,-1,1812,1821,0,0
595,-797,0,0,0,0,0,0,0,0,0,-1,1819,1821,0,0
602,-797,0,0,0,0,0,0,0,0,0,-1,1826,1821,0,0
609,-797,0,0,0,0,0,0,0,0,0,-1,1833,1821,0,0
616,-797,0,0,0,0,0,0,0,0,0,-1,1840,1821,0,0
623,-797,0,0,0,0,0,0,0,0,0,-1,1847,1821,0,0
630,-797,0,0,0,0,0,0,0,0,0,-1,1854,1821,0,0
637,-797,0,0,0,0,0,0,0,0,0,-1,1861,1821,0,0
644,-797,0,0,0,0,0,0,0,0,0,-1,1868,1821,0,0
651,-797,0,0,0,0,0,0,0,0,0,-1,1875,1821,0,0
658,-797,0,0,0,0,0,0,0,0,0,-1,1882,1821,0,0
665,-797,0,0,0,0,0,0,0,0,0,-1,1889,1821,0,0
672,-797,0,0,0,0,0,0,0,0,0,-1,1896,1821,0,0
679,-797,0,0,0,0,0,0,0,0,0,-1,1903,1821,0,0
686,-797,0,0,0,0,0,0,0,0,0,-1,1910,1821,0,0
693,-797,0,0,0,0,0,0,0,0,0,-1,1917,1821,0,0
700,-797,0,0,0,0,0,0,0,0,0,-1,1924,1821,0,0
707,-797,0,0,0,0,0,0,0,0,0,-1,1931,1821,0,0
714,-797,0,0,0,0,0,0,0,0,0,-1,1938,1821,0,0
721,-797,0,0,0,0,0,0,0,0,0,-1,1945,1821,0,0
728,-797,0,0,0,0,0,0,0,0,0,-1,1952,1821,0,0
735,-797,0,0,0,0,0,0,0,0,0,-1,1959,1821,0,0
742,-797,0,0,0,0,0,0,0,0,0,-1,1966,1821,0,0
749,-797,0,0,0,0,0,0,0,0,0,-1,1973,1821,0,0
756,-797,0,0,0,0,0,0,0,0,0,-1,1980,1821,0,0
763,-797,0,0,0,0,0,0,0,0,0,-1,1987,1821,0,0
770,-797,0,0,0,0,0,0,0,0,0,-1,1994,1821,0,0
777,-797,0,0,0,0,0,0,0,0,0,-1,2001,1821,0,0
784,-797,0,0,0,0,0,0,0,0,0,-1,2008,1821,0,0
791,-797,0,0,0,0,0,0,0,0,0,-1,2015,1821,0,0
798,-797,0,0,0,0,0,0,0,0,0,-1,2022,1821,0,0
805,-797,0,0,0,0,0,0,0,0,0,-1,2029,1821,0,0
812,-797,0,0,0,0,0,0,0,0,0,-1,2036,1821,0,0
-700,-804,0,0,0,0,0,0,0,0,0,-1,524,1828,0,0
-693,-804,0,0,0,0,0,0,0,0,0,-1,531,1828,0,0
-686,-804,0,0,0,0,0,0,0,0,0,-1,538,1828,0,0
-679,-804,0,0,0,0,0,0,0,0,0,-1,545,1828,0,0
-672,-804,0,0,0,0,0,0,0,0,0,-1,552,1828,0,0
-665,-804,0,0,0,0,0,0,0,0,0,-1,559,1828,0,0
-658,-804,0,0,0,0,0,0,0,0,0,-1,566,1828,0,0
-651,-804,0,0,0,0,0,0,0,0,0,-1,573,1828,0,0
-644,-804,0,0,0,0,0,0,0,0,0,-1,580,1828,0,0
-637,-804,0,0,0,0,0,0,0,0,0,-1,587,1828,0,0
-630,-804,0,0,0,0,0,0,0,0,0,-1,594,1828,0,0
-623,-804,0,0,0,0,0,0,0,0,0,-1,601,1828,0,0
-616,-804,0,0,0,0,0,0,0,0,0,-1,608,1828,0,0
-609,-804,0,0,0,0,0,0,0,0,0,-1,615,1828,0,0
-602,-804,0,0,0,0,0,0,0,0,0,-1,622,1828,0,0
-595,-804,0,0,0,0,0,0,0,0,0,-1,629,1828,0,0
-588,-804,0,0,0,0,0,0,0,0,0,-1,636,1828,0,0
-581,-804,0,0,0,0,0,0,0,0,0,-1,643,1828,0,0
-574,-804,0,0,0,0,0,0,0,0,0,-1,650,1828,0,0
-567,-804,0,0,0,0,0,0,0,0,0,-1,657,1828,0,0
-560,-804,0,0,0,0,0,0,0,0,0,-1,664,1828,0,0
-553,-804,0,0,0,0,0,0,0,0,0,-1,671,1828,0,0
-546,-804,0,0,0,0,0,0,0,0,0,-1,678,1828,0,0
-539,-804,0,0,0,0,0,0,0,0,0,-1,685,1828,0,0
-532,-804,0,0,0,0,0,0,0,0,0,-1,692,1828,0,0
-525,-804,0,0,0,0,0,0,0,0,0,-1,699,1828,0,0
-518,-804,0,0,0,0,0,0,0,0,0,-1,706,1828,0,0
-511,-804,0,0,0,0,0,0,0,0,0,-1,713,1828,0,0
-504,-804,0,0,0,0,0,0,0,0,0,-1,720,1828,0,0
-497,-804,0,0,0,0,0,0,0,0,0,-1,727,1828,0,0
-490,-804,0,0,0,0,0,0,0,0,0,-1,734,1828,0,0
-483,-804,0,0,0,0,0,0,0,0,0,-1,741,1828,0,0
-476,-804,0,0,0,0,0,0,0,0,0,-1,748,1828,0,0
-469,-804,0,0,0,0,0,0,0,0,0,-1,755,1828,0,0
-462,-804,0,0,0,0,0,0,0,0,0,-1,762,1828,0,0
-455,-804,0,0,0,0,0,0,0,0,0,-1,769,1828,0,0
-448,-804,0,0,0,0,0,0,0,0,0,-1,776,1828,0,0
-441,-804,0,0,0,0,0,0,0,0,0,-1,783,1828,0,0
-434,-804,0,0,0,0,0,0,0,0,0,-1,790,1828,0,0
-427,-804,0,0,0,0,0,0,0,0,0,-1,797,1828,0,0
-420,-804,0,0,0,0,0,0,0,0,0,-1,804,1828,0,0
-413,-804,0,0,0,0,0,0,0,0,0,-1,811,1828,0,0
-406,-804,0,0,0,0,0,0,0,0,0,-1,818,1828,0,0
-399,-804,0,0,0,0,0,0,0,0,0,-1,825,1828,0,0
-392,-804,0,0,0,0,0,0,0,0,0,-1,832,1828,0,0
-385,-804,0,0,0,0,0,0,0,0,0,-1,839,1828,0,0
-378,-804,0,0,0,0,0,0,0,0,0,-1,846,1828,0,0
-371,-804,0,0,0,0,0,0,0,0,0,-1,853,1828,0,0
-364,-804,0,0,0,0,0,0,0,0,0,-1,860,1828,0,0
-357,-804,0,0,0,0,0,0,0,0,0,-1,867,1828,0,0
-350,-804,0,0,0,0,0,0,0,0,0,-1,874,1828,0,0
-343,-804,0,0,0,0,0,0,0,0,0,-1,881,1828,0,0
-336,-804,0,0,0,0,0,0,0,0,0,-1,888,1828,0,0
-329,-804,0,0,0,0,0,0,0,0,0,-1,895,1828,0,0
-322,-804,0,0,0,0,0,0,0,0,0,-1,902,1828,0,0
-315,-804,0,0,0,0,0,0,0,0,0,-1,909,1828,0,0
-308,-804,0,0,0,0,0,0,0,0,0,-1,916,1828,0,0
-301,-804,0,0,0,0,0,0,0,0,0,-1,923,1828,0,0
-294,-804,0,0,0,0,0,0,0,0,0,-1,930,1828,0,0
-287,-804,0,0,0,0,0,0,0,0,0,-1,937,1828,0,0
-280,-804,0,0,0,0,0,0,0,0,0,-1,944,1828,0,0
-273,-804,0,0,0,0,0,0,0,0,0,-1,951,1828,0,0
-266,-804,0,0,0,0,0,0,0,0,0,-1,958,1828,0,0
-259,-804,0,0,0,0,0,0,0,0,0,-1,965,1828,0,0
-252,-804,0,0,0,0,0,0,0,0,0,-1,972,1828,0,0
-245,-804,0,0,0,0,0,0,0,0,0,-1,979,1828,0,0
-238,-804,0,0,0,0,0,0,0,0,0,-1,986,1828,0,0
-231,-804,0,0,0,0,0,0,0,0,0,-1,993,1828,0,0
-224,-804,0,0,0,0,0,0,0,0,0,-1,1000,1828,0,0
-217,-804,0,0,0,0,0,0,0,0,0,-1,1007,1828,0,0
-210,-804,0,0,0,0,0,0,0,0,0,-1,1014,1828,0,0
-203,-804,0,0,0,0,0,0,0,0,0,-1,1021,1828,0,0
-196,-804,0,0,0,0,0,0,0,0,0,-1,1028,1828,0,0
-189,-804,0,0,0,0,0,0,0,0,0,-1,1035,1828,0,0
-182,-804,0,0,0,0,0,0,0,0,0,-1,1042,1828,0,0
-175,-804,0,0,0,0,0,0,0,0,0,-1,1049,1828,0,0
-168,-804,0,0,0,0,0,0,0,0,0,-1,1056,1828,0,0
-161,-804,0,0,0,0,0,0,0,0,0,-1,1063,1828,0,0
-154,-804,0,0,0,0,0,0,0,0,0,-1,1070,1828,0,0
-147,-804,0,0,0,0,0,0,0,0,0,-1,1077,1828,0,0
-140,-804,0,0,0,0,0,0,0,0,0,-1,1084,1828,0,0
-133,-804,0,0,0,0,0,0,0,0,0,-1,1091,1828,0,0
-126,-804,0,0,0,0,0,0,0,0,0,-1,1098,1828,0,0
-119,-804,0,0,0,0,0,0,0,0,0,-1,1105,1828,0,0
-112,-804,0,0,0,0,0,0,0,0,0,-1,1112,1828,0,0
-105,-804,0,0,0,0,0,0,0,0,0,-1,1119,1828,0,0
-98,-804,0,0,0,0,0,0,0,0,0,-1,1126,1828,0,0
-91,-804,0,0,0,0,0,0,0,0,0,-1,1133,1828,0,0
-84,-804,0,0,0,0,0,0,0,0,0,-1,1140,1828,0,0
-77,-804,0,0,0,0,0,0,0,0,0,-1,1147,1828,0,0
-70,-804,0,0,0,0,0,0,0,0,0,-1,1154,1828,0,0
-63,-804,0,0,0,0,0,0,0,0,0,-1,1161,1828,0,0
-56,-804,0,0,0,0,0,0,0,0,0,-1,1168,1828,0,0
-49,-804,0,0,0,0,0,0,0,0,0,-1,1175,1828,0,0
-42,-804,0,0,0,0,0,0,0,0,0,-1,1182,1828,0,0
-35,-804,0,0,0,0,0,0,0,0,0,-1,1189,1828,0,0
-28,-804,0,0,0,0,0,0,0,0,0,-1,1196,1828,0,0
-21,-804,0,0,0,0,0,0,0,0,0,-1,1203,1828,0,0
-14,-804,0,0,0,0,0,0,0,0,0,-1,1210,1828,0,0
-7,-804,0,0,0,0,0,0,0,0,0,-1,1217,1828,0,0
0,-804,0,0,0,0,0,0,0,0,0,-1,1224,1828,0,0
7,-804,0,0,0,0,0,0,0,0,0,-1,1231,1828,0,0
14,-804,0,0,0,0,0,0,0,0,0,-1,1238,1828,0,0
21,-804,0,0,0,0,0,0,0,0,0,-1,1245,1828,0,0
28,-804,0,0,0,0,0,0,0,0,0,-1,1252,1828,0,0
35,-804,12.6023,60.084,0,0,0,0,0,0,0,-1,1259,1828,12.6023,-60.084
42,-804,6.97083,63.4795,0,0,0,0,0,0,0,-1,1266,1828,6.97079,-63.4795
49,-804,7.44226,64.3676,0.0501709,0.0350426,0.071404,0.11441,-0.0291968,0.732628,0.0876421,0.0466523,1273,1828,7.44223,-64.3675
56,-804,7.8894,65.2002,0.0662685,0.0260405,0.0640124,0.113253,-0.0209437,0.633173,0.0833646,0.0429829,1280,1828,7.88941,-65.2002
63,-804,8.24365,66.11,0,0,0,0,0,0,0,-1,1287,1828,8.24366,-66.11
70,-804,8.86914,67.0909,0,0,0,0,0,0,0,-1,1294,1828,8.86914,-67.0909
77,-804,10.1096,67.8364,0.0882837,-0.0243459,0.0181453,0.0911348,-0.0271971,0.155854,0.0715661,0.0450069,1301,1828,10.1096,-67.8364
84,-804,11.0199,68.5536,0.0865109,-0.0426093,-0.00110769,0.0865204,-0.0426188,-0.00857787,0.0759811,0.0470735,1308,1828,11.0199,-68.5535
91,-804,0,0,0,0,0,0,0,0,0,-1,1315,1828,0,0
98,-804,0,0,0,0,0,0,0,0,0,-1,1322,1828,0,0
105,-804,0,0,0,0,0,0,0,0,0,-1,1329,1828,0,0
112,-804,0,0,0,0,0,0,0,0,0,-1,1336,1828,0,0
119,-804,0,0,0,0,0,0,0,0,0,-1,1343,1828,0,0
126,-804,0,0,0,0,0,0,0,0,0,-1,1350,1828,0,0
133,-804,0,0,0,0,0,0,0,0,0,-1,1357,1828,0,0
140,-804,0,0,0,0,0,0,0,0,0,-1,1364,1828,0,0
147,-804,0,0,0,0,0,0,0,0,0,-1,1371,1828,0,0
154,-804,0,0,0,0,0,0,0,0,0,-1,1378,1828,0,0
161,-804,0,0,0,0,0,0,0,0,0,-1,1385,1828,0,0
168,-804,0,0,0,0,0,0,0,0,0,-1,1392,1828,0,0
175,-804,0,0,0,0,0,0,0,0,0,-1,1399,1828,0,0
182,-804,0,0,0,0,0,0,0,0,0,-1,1406,1828,0,0
189,-804,0,0,0,0,0,0,0,0,0,-1,1413,1828,0,0
196,-804,0,0,0,0,0,0,0,0,0,-1,1420,1828,0,0
203,-804,0,0,0,0,0,0,0,0,0,-1,1427,1828,0,0
210,-804,0,0,0,0,0,0,0,0,0,-1,1434,1828,0,0
217,-804,0,0,0,0,0,0,0,0,0,-1,1441,1828,0,0
224,-804,0,0,0,0,0,0,0,0,0,-1,1448,1828,0,0
231,-804,0,0,0,0,0,0,0,0,0,-1,1455,1828,0,0
238,-804,0,0,0,0,0,0,0,0,0,-1,1462,1828,0,0
245,-804,0,0,0,0,0,0,0,0,0,-1,1469,1828,0,0
252,-804,0,0,0,0,0,0,0,0,0,-1,1476,1828,0,0
259,-804,0,0,0,0,0,0,0,0,0,-1,1483,1828,0,0
266,-804,0,0,0,0,0,0,0,0,0,-1,1490,1828,0,0
273,-804,0,0,0,0,0,0,0,0,0,-1,1497,1828,0,0
280,-804,0,0,0,0,0,0,0,0,0,-1,1504,1828,0,0
287,-804,0,0,0,0,0,0,0,0,0,-1,1511,1828,0,0
294,-804,0,0,0,0,0,0,0,0,0,-1,1518,1828,0,0
301,-804,0,0,0,0,0,0,0,0,0,-1,1525,1828,0,0
308,-804,0,0,0,0,0,0,0,0,0,-1,1532,1828,0,0
315,-804,0,0,0,0,0,0,0,0,0,-1,1539,1828,0,0
322,-804,0,0,0,0,0,0,0,0,0,-1,1546,1828,0,0
329,-804,0,0,0,0,0,0,0,0,0,-1,1553,1828,0,0
336,-804,0,0,0,0,0,0,0,0,0,-1,1560,1828,0,0
343,-804,0,0,0,0,0,0,0,0,0,-1,1567,1828,0,0
350,-804,0,0,0,0,0,0,0,0,0,-1,1574,1828,0,0
357,-804,0,0,0,0,0,0,0,0,0,-1,1581,1828,0,0
364,-804,0,0,0,0,0,0,0,0,0,-1,1588,1828,0,0
371,-804,0,0,0,0,0,0,0,0,0,-1,1595,1828,0,0
378,-804,0,0,0,0,0,0,0,0,0,-1,1602,1828,0,0
385,-804,0,0,0,0,0,0,0,0,0,-1,1609,1828,0,0
392,-804,0,0,0,0,0,0,0,0,0,-1,1616,1828,0,0
399,-804,0,0,0,0,0,0,0,0,0,-1,1623,1828,0,0
406,-804,0,0,0,0,0,0,0,0,0,-1,1630,1828,0,0
413,-804,0,0,0,0,0,0,0,0,0,-1,1637,1828,0,0
420,-804,0,0,0,0,0,0,0,0,0,-1,1644,1828,0,0
427,-804,0,0,0,0,0,0,0,0,0,-1,1651,1828,0,0
434,-804,0,0,0,0,0,0,0,0,0,-1,1658,1828,0,0
441,-804,0,0,0,0,0,0,0,0,0,-1,1665,1828,0,0
448,-804,0,0,0,0,0,0,0,0,0,-1,1672,1828,0,0
455,-804,0,0,0,0,0,0,0,0,0,-1,1679,1828,0,0
462,-804,0,0,0,0,0,0,0,0,0,-1,1686,1828,0,0
469,-804,0,0,0,0,0,0,0,0,0,-1,1693,1828,0,0
476,-804,0,0,0,0,0,0,0,0,0,-1,1700,1828,0,0
483,-804,0,0,0,0,0,0,0,0,0,-1,1707,1828,0,0
490,-804,0,0,0,0,0,0,0,0,0,-1,1714,1828,0,0
497,-804,0,0,0,0,0,0,0,0,0,-1,1721,1828,0,0
504,-804,0,0,0,0,0,0,0,0,0,-1,1728,1828,0,0
511,-804,0,0,0,0,0,0,0,0,0,-1,1735,1828,0,0
518,-804,0,0,0,0,0,0,0,0,0,-1,1742,1828,0,0
525,-804,0,0,0,0,0,0,0,0,0,-1,1749,1828,0,0
532,-804,0,0,0,0,0,0,0,0,0,-1,1756,1828,0,0
539,-804,0,0,0,0,0,0,0,0,0,-1,1763,1828,0,0
546,-804,0,0,0,0,0,0,0,0,0,-1,1770,1828,0,0
553,-804,0,0,0,0,0,0,0,0,0,-1,1777,1828,0,0
560,-804,0,0,0,0,0,0,0,0,0,-1,1784,1828,0,0
567,-804,0,0,0,0,0,0,0,0,0,-1,1791,1828,0,0
574,-804,0,0,0,0,0,0,0,0,0,-1,1798,1828,0,0
581,-804,0,0,0,0,0,0,0,0,0,-1,1805,1828,0,0
588,-804,0,0,0,0,0,0,0,0,0,-1,1812,1828,0,0
595,-804,0,0,0,0,0,0,0,0,0,-1,1819,1828,0,0
602,-804,0,0,0,0,0,0,0,0,0,-1,1826,1828,0,0
609,-804,0,0,0,0,0,0,0,0,0,-1,1833,1828,0,0
616,-804,0,0,0,0,0,0,0,0,0,-1,1840,1828,0,0
623,-804,0,0,0,0,0,0,0,0,0,-1,1847,1828,0,0
630,-804,0,0,0,0,0,0,0,0,0,-1,1854,1828,0,0
637,-804,0,0,0,0,0,0,0,0,0,-1,1861,1828,0,0
644,-804,0,0,0,0,0,0,0,0,0,-1,1868,1828,0,0
651,-804,0,0,0,0,0,0,0,0,0,-1,1875,1828,0,0
658,-804,0,0,0,0,0,0,0,0,0,-1,1882,1828,0,0
665,-804,0,0,0,0,0,0,0,0,0,-1,1889,1828,0,0
672,-804,0,0,0,0,0,0,0,0,0,-1,1896,1828,0,0
679,-804,0,0,0,0,0,0,0,0,0,-1,1903,1828,0,0
686,-804,0,0,0,0,0,0,0,0,0,-1,1910,1828,0,0
693,-804,0,0,0,0,0,0,0,0,0,-1,1917,1828,0,0
700,-804,0,0,0,0,0,0,0,0,0,-1,1924,1828,0,0
707,-804,0,0,0,0,0,0,0,0,0,-1,1931,1828,0,0
714,-804,0,0,0,0,0,0,0,0,0,-1,1938,1828,0,0
721,-804,0,0,0,0,0,0,0,0,0,-1,1945,1828,0,0
728,-804,0,0,0,0,0,0,0,0,0,-1,1952,1828,0,0
735,-804,0,0,0,0,0,0,0,0,0,-1,1959,1828,0,0
742,-804,0,0,0,0,0,0,0,0,0,-1,1966,1828,0,0
749,-804,0,0,0,0,0,0,0,0,0,-1,1973,1828,0,0
756,-804,0,0,0,0,0,0,0,0,0,-1,1980,1828,0,0
763,-804,0,0,0,0,0,0,0,0,0,-1,1987,1828,0,0
770,-804,0,0,0,0,0,0,0,0,0,-1,1994,1828,0,0
777,-804,0,0,0,0,0,0,0,0,0,-1,2001,1828,0,0
784,-804,0,0,0,0,0,0,0,0,0,-1,2008,1828,0,0
791,-804,0,0,0,0,0,0,0,0,0,-1,2015,1828,0,0
798,-804,0,0,0,0,0,0,0,0,0,-1,2022,1828,0,0
805,-804,0,0,0,0,0,0,0,0,0,-1,2029,1828,0,0
812,-804,0,0,0,0,0,0,0,0,0,-1,2036,1828,0,0

